 "x_c",  "y_c",  "u_c",  "v_c",  "exx",  "eyy",  "exy",  "e1",  "e2",  "gamma",  "e_vonmises",  "sigma",  "x",  "y",  "u",  "v"
-700,715,0,0,0,0,0,0,0,0,0,-1,524,309,0,0
-693,715,0,0,0,0,0,0,0,0,0,-1,531,309,0,0
-686,715,0,0,0,0,0,0,0,0,0,-1,538,309,0,0
-679,715,0,0,0,0,0,0,0,0,0,-1,545,309,0,0
-672,715,0,0,0,0,0,0,0,0,0,-1,552,309,0,0
-665,715,0,0,0,0,0,0,0,0,0,-1,559,309,0,0
-658,715,0,0,0,0,0,0,0,0,0,-1,566,309,0,0
-651,715,0,0,0,0,0,0,0,0,0,-1,573,309,0,0
-644,715,0,0,0,0,0,0,0,0,0,-1,580,309,0,0
-637,715,0,0,0,0,0,0,0,0,0,-1,587,309,0,0
-630,715,0,0,0,0,0,0,0,0,0,-1,594,309,0,0
-623,715,0,0,0,0,0,0,0,0,0,-1,601,309,0,0
-616,715,0,0,0,0,0,0,0,0,0,-1,608,309,0,0
-609,715,0,0,0,0,0,0,0,0,0,-1,615,309,0,0
-602,715,0,0,0,0,0,0,0,0,0,-1,622,309,0,0
-595,715,0,0,0,0,0,0,0,0,0,-1,629,309,0,0
-588,715,0,0,0,0,0,0,0,0,0,-1,636,309,0,0
-581,715,0,0,0,0,0,0,0,0,0,-1,643,309,0,0
-574,715,0,0,0,0,0,0,0,0,0,-1,650,309,0,0
-567,715,0,0,0,0,0,0,0,0,0,-1,657,309,0,0
-560,715,0,0,0,0,0,0,0,0,0,-1,664,309,0,0
-553,715,0,0,0,0,0,0,0,0,0,-1,671,309,0,0
-546,715,0,0,0,0,0,0,0,0,0,-1,678,309,0,0
-539,715,0,0,0,0,0,0,0,0,0,-1,685,309,0,0
-532,715,0,0,0,0,0,0,0,0,0,-1,692,309,0,0
-525,715,0,0,0,0,0,0,0,0,0,-1,699,309,0,0
-518,715,0,0,0,0,0,0,0,0,0,-1,706,309,0,0
-511,715,0,0,0,0,0,0,0,0,0,-1,713,309,0,0
-504,715,0,0,0,0,0,0,0,0,0,-1,720,309,0,0
-497,715,0,0,0,0,0,0,0,0,0,-1,727,309,0,0
-490,715,0,0,0,0,0,0,0,0,0,-1,734,309,0,0
-483,715,0,0,0,0,0,0,0,0,0,-1,741,309,0,0
-476,715,0,0,0,0,0,0,0,0,0,-1,748,309,0,0
-469,715,0,0,0,0,0,0,0,0,0,-1,755,309,0,0
-462,715,0,0,0,0,0,0,0,0,0,-1,762,309,0,0
-455,715,0,0,0,0,0,0,0,0,0,-1,769,309,0,0
-448,715,0,0,0,0,0,0,0,0,0,-1,776,309,0,0
-441,715,0,0,0,0,0,0,0,0,0,-1,783,309,0,0
-434,715,0,0,0,0,0,0,0,0,0,-1,790,309,0,0
-427,715,0,0,0,0,0,0,0,0,0,-1,797,309,0,0
-420,715,0,0,0,0,0,0,0,0,0,-1,804,309,0,0
-413,715,0,0,0,0,0,0,0,0,0,-1,811,309,0,0
-406,715,0,0,0,0,0,0,0,0,0,-1,818,309,0,0
-399,715,0,0,0,0,0,0,0,0,0,-1,825,309,0,0
-392,715,0,0,0,0,0,0,0,0,0,-1,832,309,0,0
-385,715,0,0,0,0,0,0,0,0,0,-1,839,309,0,0
-378,715,0,0,0,0,0,0,0,0,0,-1,846,309,0,0
-371,715,0,0,0,0,0,0,0,0,0,-1,853,309,0,0
-364,715,0,0,0,0,0,0,0,0,0,-1,860,309,0,0
-357,715,0,0,0,0,0,0,0,0,0,-1,867,309,0,0
-350,715,0,0,0,0,0,0,0,0,0,-1,874,309,0,0
-343,715,0,0,0,0,0,0,0,0,0,-1,881,309,0,0
-336,715,0,0,0,0,0,0,0,0,0,-1,888,309,0,0
-329,715,0,0,0,0,0,0,0,0,0,-1,895,309,0,0
-322,715,0,0,0,0,0,0,0,0,0,-1,902,309,0,0
-315,715,0,0,0,0,0,0,0,0,0,-1,909,309,0,0
-308,715,0,0,0,0,0,0,0,0,0,-1,916,309,0,0
-301,715,0,0,0,0,0,0,0,0,0,-1,923,309,0,0
-294,715,0,0,0,0,0,0,0,0,0,-1,930,309,0,0
-287,715,0,0,0,0,0,0,0,0,0,-1,937,309,0,0
-280,715,0,0,0,0,0,0,0,0,0,-1,944,309,0,0
-273,715,0,0,0,0,0,0,0,0,0,-1,951,309,0,0
-266,715,0,0,0,0,0,0,0,0,0,-1,958,309,0,0
-259,715,0,0,0,0,0,0,0,0,0,-1,965,309,0,0
-252,715,0,0,0,0,0,0,0,0,0,-1,972,309,0,0
-245,715,0,0,0,0,0,0,0,0,0,-1,979,309,0,0
-238,715,0,0,0,0,0,0,0,0,0,-1,986,309,0,0
-231,715,0,0,0,0,0,0,0,0,0,-1,993,309,0,0
-224,715,0,0,0,0,0,0,0,0,0,-1,1000,309,0,0
-217,715,0,0,0,0,0,0,0,0,0,-1,1007,309,0,0
-210,715,0,0,0,0,0,0,0,0,0,-1,1014,309,0,0
-203,715,0,0,0,0,0,0,0,0,0,-1,1021,309,0,0
-196,715,0,0,0,0,0,0,0,0,0,-1,1028,309,0,0
-189,715,0,0,0,0,0,0,0,0,0,-1,1035,309,0,0
-182,715,0,0,0,0,0,0,0,0,0,-1,1042,309,0,0
-175,715,0,0,0,0,0,0,0,0,0,-1,1049,309,0,0
-168,715,0,0,0,0,0,0,0,0,0,-1,1056,309,0,0
-161,715,0,0,0,0,0,0,0,0,0,-1,1063,309,0,0
-154,715,0,0,0,0,0,0,0,0,0,-1,1070,309,0,0
-147,715,0,0,0,0,0,0,0,0,0,-1,1077,309,0,0
-140,715,0,0,0,0,0,0,0,0,0,-1,1084,309,0,0
-133,715,0,0,0,0,0,0,0,0,0,-1,1091,309,0,0
-126,715,0,0,0,0,0,0,0,0,0,-1,1098,309,0,0
-119,715,0,0,0,0,0,0,0,0,0,-1,1105,309,0,0
-112,715,0,0,0,0,0,0,0,0,0,-1,1112,309,0,0
-105,715,0,0,0,0,0,0,0,0,0,-1,1119,309,0,0
-98,715,0,0,0,0,0,0,0,0,0,-1,1126,309,0,0
-91,715,0,0,0,0,0,0,0,0,0,-1,1133,309,0,0
-84,715,0,0,0,0,0,0,0,0,0,-1,1140,309,0,0
-77,715,0,0,0,0,0,0,0,0,0,-1,1147,309,0,0
-70,715,0,0,0,0,0,0,0,0,0,-1,1154,309,0,0
-63,715,0,0,0,0,0,0,0,0,0,-1,1161,309,0,0
-56,715,0,0,0,0,0,0,0,0,0,-1,1168,309,0,0
-49,715,0,0,0,0,0,0,0,0,0,-1,1175,309,0,0
-42,715,0,0,0,0,0,0,0,0,0,-1,1182,309,0,0
-35,715,0,0,0,0,0,0,0,0,0,-1,1189,309,0,0
-28,715,0,0,0,0,0,0,0,0,0,-1,1196,309,0,0
-21,715,0,0,0,0,0,0,0,0,0,-1,1203,309,0,0
-14,715,0,0,0,0,0,0,0,0,0,-1,1210,309,0,0
-7,715,0,0,0,0,0,0,0,0,0,-1,1217,309,0,0
0,715,0,0,0,0,0,0,0,0,0,-1,1224,309,0,0
7,715,0,0,0,0,0,0,0,0,0,-1,1231,309,0,0
14,715,0,0,0,0,0,0,0,0,0,-1,1238,309,0,0
21,715,0,0,0,0,0,0,0,0,0,-1,1245,309,0,0
28,715,0,0,0,0,0,0,0,0,0,-1,1252,309,0,0
35,715,0,0,0,0,0,0,0,0,0,-1,1259,309,0,0
42,715,0,0,0,0,0,0,0,0,0,-1,1266,309,0,0
49,715,0,0,0,0,0,0,0,0,0,-1,1273,309,0,0
56,715,0,0,0,0,0,0,0,0,0,-1,1280,309,0,0
63,715,3.51843,-15.6197,0.00731198,-0.0683206,0.0650271,0.0447193,-0.105728,0.522028,0.0892096,0.0442943,1287,309,3.5184,15.6197
70,715,3.44458,-14.7654,0.00563675,-0.0530642,0.0612838,0.0442359,-0.0916634,0.562074,0.0800383,0.0435407,1294,309,3.44459,14.7654
77,715,0,0,0,0,0,0,0,0,0,-1,1301,309,0,0
84,715,0,0,0,0,0,0,0,0,0,-1,1308,309,0,0
91,715,0,0,0,0,0,0,0,0,0,-1,1315,309,0,0
98,715,0,0,0,0,0,0,0,0,0,-1,1322,309,0,0
105,715,0,0,0,0,0,0,0,0,0,-1,1329,309,0,0
112,715,0,0,0,0,0,0,0,0,0,-1,1336,309,0,0
119,715,0,0,0,0,0,0,0,0,0,-1,1343,309,0,0
126,715,0,0,0,0,0,0,0,0,0,-1,1350,309,0,0
133,715,0,0,0,0,0,0,0,0,0,-1,1357,309,0,0
140,715,0,0,0,0,0,0,0,0,0,-1,1364,309,0,0
147,715,0,0,0,0,0,0,0,0,0,-1,1371,309,0,0
154,715,0,0,0,0,0,0,0,0,0,-1,1378,309,0,0
161,715,0,0,0,0,0,0,0,0,0,-1,1385,309,0,0
168,715,0,0,0,0,0,0,0,0,0,-1,1392,309,0,0
175,715,0,0,0,0,0,0,0,0,0,-1,1399,309,0,0
182,715,0,0,0,0,0,0,0,0,0,-1,1406,309,0,0
189,715,0,0,0,0,0,0,0,0,0,-1,1413,309,0,0
196,715,0,0,0,0,0,0,0,0,0,-1,1420,309,0,0
203,715,0,0,0,0,0,0,0,0,0,-1,1427,309,0,0
210,715,0,0,0,0,0,0,0,0,0,-1,1434,309,0,0
217,715,0,0,0,0,0,0,0,0,0,-1,1441,309,0,0
224,715,0,0,0,0,0,0,0,0,0,-1,1448,309,0,0
231,715,0,0,0,0,0,0,0,0,0,-1,1455,309,0,0
238,715,0,0,0,0,0,0,0,0,0,-1,1462,309,0,0
245,715,0,0,0,0,0,0,0,0,0,-1,1469,309,0,0
252,715,0,0,0,0,0,0,0,0,0,-1,1476,309,0,0
259,715,0,0,0,0,0,0,0,0,0,-1,1483,309,0,0
266,715,0,0,0,0,0,0,0,0,0,-1,1490,309,0,0
273,715,0,0,0,0,0,0,0,0,0,-1,1497,309,0,0
280,715,0,0,0,0,0,0,0,0,0,-1,1504,309,0,0
287,715,0,0,0,0,0,0,0,0,0,-1,1511,309,0,0
294,715,0,0,0,0,0,0,0,0,0,-1,1518,309,0,0
301,715,0,0,0,0,0,0,0,0,0,-1,1525,309,0,0
308,715,0,0,0,0,0,0,0,0,0,-1,1532,309,0,0
315,715,0,0,0,0,0,0,0,0,0,-1,1539,309,0,0
322,715,0,0,0,0,0,0,0,0,0,-1,1546,309,0,0
329,715,0,0,0,0,0,0,0,0,0,-1,1553,309,0,0
336,715,0,0,0,0,0,0,0,0,0,-1,1560,309,0,0
343,715,0,0,0,0,0,0,0,0,0,-1,1567,309,0,0
350,715,0,0,0,0,0,0,0,0,0,-1,1574,309,0,0
357,715,0,0,0,0,0,0,0,0,0,-1,1581,309,0,0
364,715,0,0,0,0,0,0,0,0,0,-1,1588,309,0,0
371,715,0,0,0,0,0,0,0,0,0,-1,1595,309,0,0
378,715,0,0,0,0,0,0,0,0,0,-1,1602,309,0,0
385,715,0,0,0,0,0,0,0,0,0,-1,1609,309,0,0
392,715,0,0,0,0,0,0,0,0,0,-1,1616,309,0,0
399,715,0,0,0,0,0,0,0,0,0,-1,1623,309,0,0
406,715,0,0,0,0,0,0,0,0,0,-1,1630,309,0,0
413,715,0,0,0,0,0,0,0,0,0,-1,1637,309,0,0
420,715,0,0,0,0,0,0,0,0,0,-1,1644,309,0,0
427,715,0,0,0,0,0,0,0,0,0,-1,1651,309,0,0
434,715,0,0,0,0,0,0,0,0,0,-1,1658,309,0,0
441,715,0,0,0,0,0,0,0,0,0,-1,1665,309,0,0
448,715,0,0,0,0,0,0,0,0,0,-1,1672,309,0,0
455,715,0,0,0,0,0,0,0,0,0,-1,1679,309,0,0
462,715,0,0,0,0,0,0,0,0,0,-1,1686,309,0,0
469,715,0,0,0,0,0,0,0,0,0,-1,1693,309,0,0
476,715,0,0,0,0,0,0,0,0,0,-1,1700,309,0,0
483,715,0,0,0,0,0,0,0,0,0,-1,1707,309,0,0
490,715,0,0,0,0,0,0,0,0,0,-1,1714,309,0,0
497,715,0,0,0,0,0,0,0,0,0,-1,1721,309,0,0
504,715,0,0,0,0,0,0,0,0,0,-1,1728,309,0,0
511,715,0,0,0,0,0,0,0,0,0,-1,1735,309,0,0
518,715,0,0,0,0,0,0,0,0,0,-1,1742,309,0,0
525,715,0,0,0,0,0,0,0,0,0,-1,1749,309,0,0
532,715,0,0,0,0,0,0,0,0,0,-1,1756,309,0,0
539,715,0,0,0,0,0,0,0,0,0,-1,1763,309,0,0
546,715,0,0,0,0,0,0,0,0,0,-1,1770,309,0,0
553,715,0,0,0,0,0,0,0,0,0,-1,1777,309,0,0
560,715,0,0,0,0,0,0,0,0,0,-1,1784,309,0,0
567,715,0,0,0,0,0,0,0,0,0,-1,1791,309,0,0
574,715,0,0,0,0,0,0,0,0,0,-1,1798,309,0,0
581,715,0,0,0,0,0,0,0,0,0,-1,1805,309,0,0
588,715,0,0,0,0,0,0,0,0,0,-1,1812,309,0,0
595,715,0,0,0,0,0,0,0,0,0,-1,1819,309,0,0
602,715,0,0,0,0,0,0,0,0,0,-1,1826,309,0,0
609,715,0,0,0,0,0,0,0,0,0,-1,1833,309,0,0
616,715,0,0,0,0,0,0,0,0,0,-1,1840,309,0,0
623,715,0,0,0,0,0,0,0,0,0,-1,1847,309,0,0
630,715,0,0,0,0,0,0,0,0,0,-1,1854,309,0,0
637,715,0,0,0,0,0,0,0,0,0,-1,1861,309,0,0
644,715,0,0,0,0,0,0,0,0,0,-1,1868,309,0,0
651,715,0,0,0,0,0,0,0,0,0,-1,1875,309,0,0
658,715,0,0,0,0,0,0,0,0,0,-1,1882,309,0,0
665,715,0,0,0,0,0,0,0,0,0,-1,1889,309,0,0
672,715,0,0,0,0,0,0,0,0,0,-1,1896,309,0,0
679,715,0,0,0,0,0,0,0,0,0,-1,1903,309,0,0
686,715,0,0,0,0,0,0,0,0,0,-1,1910,309,0,0
693,715,0,0,0,0,0,0,0,0,0,-1,1917,309,0,0
700,715,0,0,0,0,0,0,0,0,0,-1,1924,309,0,0
707,715,0,0,0,0,0,0,0,0,0,-1,1931,309,0,0
714,715,0,0,0,0,0,0,0,0,0,-1,1938,309,0,0
721,715,0,0,0,0,0,0,0,0,0,-1,1945,309,0,0
728,715,0,0,0,0,0,0,0,0,0,-1,1952,309,0,0
735,715,0,0,0,0,0,0,0,0,0,-1,1959,309,0,0
742,715,0,0,0,0,0,0,0,0,0,-1,1966,309,0,0
749,715,0,0,0,0,0,0,0,0,0,-1,1973,309,0,0
756,715,0,0,0,0,0,0,0,0,0,-1,1980,309,0,0
763,715,0,0,0,0,0,0,0,0,0,-1,1987,309,0,0
770,715,0,0,0,0,0,0,0,0,0,-1,1994,309,0,0
777,715,0,0,0,0,0,0,0,0,0,-1,2001,309,0,0
784,715,0,0,0,0,0,0,0,0,0,-1,2008,309,0,0
791,715,0,0,0,0,0,0,0,0,0,-1,2015,309,0,0
798,715,0,0,0,0,0,0,0,0,0,-1,2022,309,0,0
805,715,0,0,0,0,0,0,0,0,0,-1,2029,309,0,0
812,715,0,0,0,0,0,0,0,0,0,-1,2036,309,0,0
-700,708,0,0,0,0,0,0,0,0,0,-1,524,316,0,0
-693,708,0,0,0,0,0,0,0,0,0,-1,531,316,0,0
-686,708,0,0,0,0,0,0,0,0,0,-1,538,316,0,0
-679,708,0,0,0,0,0,0,0,0,0,-1,545,316,0,0
-672,708,0,0,0,0,0,0,0,0,0,-1,552,316,0,0
-665,708,0,0,0,0,0,0,0,0,0,-1,559,316,0,0
-658,708,0,0,0,0,0,0,0,0,0,-1,566,316,0,0
-651,708,0,0,0,0,0,0,0,0,0,-1,573,316,0,0
-644,708,0,0,0,0,0,0,0,0,0,-1,580,316,0,0
-637,708,0,0,0,0,0,0,0,0,0,-1,587,316,0,0
-630,708,0,0,0,0,0,0,0,0,0,-1,594,316,0,0
-623,708,0,0,0,0,0,0,0,0,0,-1,601,316,0,0
-616,708,0,0,0,0,0,0,0,0,0,-1,608,316,0,0
-609,708,0,0,0,0,0,0,0,0,0,-1,615,316,0,0
-602,708,0,0,0,0,0,0,0,0,0,-1,622,316,0,0
-595,708,0,0,0,0,0,0,0,0,0,-1,629,316,0,0
-588,708,0,0,0,0,0,0,0,0,0,-1,636,316,0,0
-581,708,0,0,0,0,0,0,0,0,0,-1,643,316,0,0
-574,708,0,0,0,0,0,0,0,0,0,-1,650,316,0,0
-567,708,0,0,0,0,0,0,0,0,0,-1,657,316,0,0
-560,708,0,0,0,0,0,0,0,0,0,-1,664,316,0,0
-553,708,0,0,0,0,0,0,0,0,0,-1,671,316,0,0
-546,708,0,0,0,0,0,0,0,0,0,-1,678,316,0,0
-539,708,0,0,0,0,0,0,0,0,0,-1,685,316,0,0
-532,708,0,0,0,0,0,0,0,0,0,-1,692,316,0,0
-525,708,0,0,0,0,0,0,0,0,0,-1,699,316,0,0
-518,708,0,0,0,0,0,0,0,0,0,-1,706,316,0,0
-511,708,0,0,0,0,0,0,0,0,0,-1,713,316,0,0
-504,708,0,0,0,0,0,0,0,0,0,-1,720,316,0,0
-497,708,0,0,0,0,0,0,0,0,0,-1,727,316,0,0
-490,708,0,0,0,0,0,0,0,0,0,-1,734,316,0,0
-483,708,0,0,0,0,0,0,0,0,0,-1,741,316,0,0
-476,708,0,0,0,0,0,0,0,0,0,-1,748,316,0,0
-469,708,0,0,0,0,0,0,0,0,0,-1,755,316,0,0
-462,708,0,0,0,0,0,0,0,0,0,-1,762,316,0,0
-455,708,0,0,0,0,0,0,0,0,0,-1,769,316,0,0
-448,708,0,0,0,0,0,0,0,0,0,-1,776,316,0,0
-441,708,0,0,0,0,0,0,0,0,0,-1,783,316,0,0
-434,708,0,0,0,0,0,0,0,0,0,-1,790,316,0,0
-427,708,0,0,0,0,0,0,0,0,0,-1,797,316,0,0
-420,708,0,0,0,0,0,0,0,0,0,-1,804,316,0,0
-413,708,0,0,0,0,0,0,0,0,0,-1,811,316,0,0
-406,708,0,0,0,0,0,0,0,0,0,-1,818,316,0,0
-399,708,0,0,0,0,0,0,0,0,0,-1,825,316,0,0
-392,708,0,0,0,0,0,0,0,0,0,-1,832,316,0,0
-385,708,0,0,0,0,0,0,0,0,0,-1,839,316,0,0
-378,708,0,0,0,0,0,0,0,0,0,-1,846,316,0,0
-371,708,0,0,0,0,0,0,0,0,0,-1,853,316,0,0
-364,708,0,0,0,0,0,0,0,0,0,-1,860,316,0,0
-357,708,0,0,0,0,0,0,0,0,0,-1,867,316,0,0
-350,708,0,0,0,0,0,0,0,0,0,-1,874,316,0,0
-343,708,0,0,0,0,0,0,0,0,0,-1,881,316,0,0
-336,708,0,0,0,0,0,0,0,0,0,-1,888,316,0,0
-329,708,0,0,0,0,0,0,0,0,0,-1,895,316,0,0
-322,708,0,0,0,0,0,0,0,0,0,-1,902,316,0,0
-315,708,0,0,0,0,0,0,0,0,0,-1,909,316,0,0
-308,708,0,0,0,0,0,0,0,0,0,-1,916,316,0,0
-301,708,0,0,0,0,0,0,0,0,0,-1,923,316,0,0
-294,708,0,0,0,0,0,0,0,0,0,-1,930,316,0,0
-287,708,0,0,0,0,0,0,0,0,0,-1,937,316,0,0
-280,708,0,0,0,0,0,0,0,0,0,-1,944,316,0,0
-273,708,0,0,0,0,0,0,0,0,0,-1,951,316,0,0
-266,708,0,0,0,0,0,0,0,0,0,-1,958,316,0,0
-259,708,0,0,0,0,0,0,0,0,0,-1,965,316,0,0
-252,708,0,0,0,0,0,0,0,0,0,-1,972,316,0,0
-245,708,0,0,0,0,0,0,0,0,0,-1,979,316,0,0
-238,708,0,0,0,0,0,0,0,0,0,-1,986,316,0,0
-231,708,0,0,0,0,0,0,0,0,0,-1,993,316,0,0
-224,708,0,0,0,0,0,0,0,0,0,-1,1000,316,0,0
-217,708,0,0,0,0,0,0,0,0,0,-1,1007,316,0,0
-210,708,0,0,0,0,0,0,0,0,0,-1,1014,316,0,0
-203,708,0,0,0,0,0,0,0,0,0,-1,1021,316,0,0
-196,708,0,0,0,0,0,0,0,0,0,-1,1028,316,0,0
-189,708,0,0,0,0,0,0,0,0,0,-1,1035,316,0,0
-182,708,0,0,0,0,0,0,0,0,0,-1,1042,316,0,0
-175,708,0,0,0,0,0,0,0,0,0,-1,1049,316,0,0
-168,708,0,0,0,0,0,0,0,0,0,-1,1056,316,0,0
-161,708,0,0,0,0,0,0,0,0,0,-1,1063,316,0,0
-154,708,0,0,0,0,0,0,0,0,0,-1,1070,316,0,0
-147,708,0,0,0,0,0,0,0,0,0,-1,1077,316,0,0
-140,708,0,0,0,0,0,0,0,0,0,-1,1084,316,0,0
-133,708,0,0,0,0,0,0,0,0,0,-1,1091,316,0,0
-126,708,0,0,0,0,0,0,0,0,0,-1,1098,316,0,0
-119,708,0,0,0,0,0,0,0,0,0,-1,1105,316,0,0
-112,708,0,0,0,0,0,0,0,0,0,-1,1112,316,0,0
-105,708,0,0,0,0,0,0,0,0,0,-1,1119,316,0,0
-98,708,0,0,0,0,0,0,0,0,0,-1,1126,316,0,0
-91,708,0,0,0,0,0,0,0,0,0,-1,1133,316,0,0
-84,708,0,0,0,0,0,0,0,0,0,-1,1140,316,0,0
-77,708,0,0,0,0,0,0,0,0,0,-1,1147,316,0,0
-70,708,0,0,0,0,0,0,0,0,0,-1,1154,316,0,0
-63,708,0,0,0,0,0,0,0,0,0,-1,1161,316,0,0
-56,708,0,0,0,0,0,0,0,0,0,-1,1168,316,0,0
-49,708,0,0,0,0,0,0,0,0,0,-1,1175,316,0,0
-42,708,0,0,0,0,0,0,0,0,0,-1,1182,316,0,0
-35,708,-2.71204,-6.31558,0,0,0,0,0,0,0,-1,1189,316,-2.712,6.3156
-28,708,-2.92371,-5.53253,0,0,0,0,0,0,0,-1,1196,316,-2.92375,5.53254
-21,708,-10.6349,-7.11816,0,0,0,0,0,0,0,-1,1203,316,-10.6349,7.11818
-14,708,4.02112,-12.9223,0,0,0,0,0,0,0,-1,1210,316,4.0211,12.9223
-7,708,4.29883,-13.7271,0,0,0,0,0,0,0,-1,1217,316,4.29888,13.7271
0,708,2.00867,-17.8185,0,0,0,0,0,0,0,-1,1224,316,2.00869,17.8185
7,708,2.49316,-17.2247,0,0,0,0,0,0,0,-1,1231,316,2.49312,17.2247
14,708,3.62073,-16.3662,0,0,0,0,0,0,0,-1,1238,316,3.62072,16.3662
21,708,3.60156,-15.8609,0.0104123,-0.0526538,0.0250255,0.0191361,-0.0613776,0.335422,0.0485703,0.0439654,1245,316,3.60162,15.8609
28,708,3.79504,-15.2857,0.0106216,-0.0561348,0.0344748,0.025229,-0.0707422,0.400779,0.0574484,0.0436067,1252,316,3.795,15.2857
35,708,3.73669,-14.7967,0,0,0,0,0,0,0,-1,1259,316,3.73674,14.7967
42,708,1.56958,-16.8596,0,0,0,0,0,0,0,-1,1266,316,1.56954,16.8596
49,708,2.41125,-15.9748,0,0,0,0,0,0,0,-1,1273,316,2.41129,15.9748
56,708,3.41028,-15.2552,0,0,0,0,0,0,0,-1,1280,316,3.41031,15.2552
63,708,3.41907,-14.8391,0.00928361,-0.04698,0.0531768,0.0413113,-0.0790077,0.5421,0.0705935,0.0444802,1287,316,3.4191,14.8391
70,708,3.34607,-14.1965,0.00761132,-0.0335421,0.0508721,0.0419106,-0.0678414,0.593217,0.0639521,0.043531,1294,316,3.34602,14.1965
77,708,3.22351,-13.6547,-0.00151332,-0.0171061,0.0496075,0.0409067,-0.0595261,0.707455,0.0583161,0.0431378,1301,316,3.22353,13.6547
84,708,2.99268,-13.4943,-0.0206673,-0.000478067,0.0471044,0.0376012,-0.0587467,0.890953,0.0560713,0.0453462,1308,316,2.99268,13.4943
91,708,2.77344,-13.3048,0,0,0,0,0,0,0,-1,1315,316,2.77349,13.3048
98,708,4.83435,-15.1611,0,0,0,0,0,0,0,-1,1322,316,4.83437,15.1611
105,708,3.41248,-12.3476,0,0,0,0,0,0,0,-1,1329,316,3.41253,12.3476
112,708,3.80249,-11.6056,-0.0999896,0.0779557,0.0367791,0.0852578,-0.107292,1.3748,0.111411,0.0473204,1336,316,3.80252,11.6056
119,708,4.25195,-11.8939,-0.127155,0.0969484,0.0353893,0.102404,-0.132611,1.41784,0.136059,0.0431828,1343,316,4.25195,11.8939
126,708,4.3877,-11.9107,-0.157654,0.111227,0.0330916,0.115239,-0.161667,1.45012,0.160619,0.0408398,1350,316,4.38771,11.9107
133,708,-1.50354,-11.4536,-0.188997,0.118556,0.0295617,0.121371,-0.191812,1.47584,0.182335,0.048307,1357,316,-1.50355,11.4535
140,708,-1.71179,-13.0117,0,0,0,0,0,0,0,-1,1364,316,-1.71181,13.0117
147,708,-1.2804,-13.3917,0,0,0,0,0,0,0,-1,1371,316,-1.2804,13.3917
154,708,0,0,0,0,0,0,0,0,0,-1,1378,316,0,0
161,708,0,0,0,0,0,0,0,0,0,-1,1385,316,0,0
168,708,0,0,0,0,0,0,0,0,0,-1,1392,316,0,0
175,708,0,0,0,0,0,0,0,0,0,-1,1399,316,0,0
182,708,0,0,0,0,0,0,0,0,0,-1,1406,316,0,0
189,708,0,0,0,0,0,0,0,0,0,-1,1413,316,0,0
196,708,0,0,0,0,0,0,0,0,0,-1,1420,316,0,0
203,708,0,0,0,0,0,0,0,0,0,-1,1427,316,0,0
210,708,0,0,0,0,0,0,0,0,0,-1,1434,316,0,0
217,708,0,0,0,0,0,0,0,0,0,-1,1441,316,0,0
224,708,0,0,0,0,0,0,0,0,0,-1,1448,316,0,0
231,708,0,0,0,0,0,0,0,0,0,-1,1455,316,0,0
238,708,0,0,0,0,0,0,0,0,0,-1,1462,316,0,0
245,708,0,0,0,0,0,0,0,0,0,-1,1469,316,0,0
252,708,0,0,0,0,0,0,0,0,0,-1,1476,316,0,0
259,708,0,0,0,0,0,0,0,0,0,-1,1483,316,0,0
266,708,0,0,0,0,0,0,0,0,0,-1,1490,316,0,0
273,708,0,0,0,0,0,0,0,0,0,-1,1497,316,0,0
280,708,0,0,0,0,0,0,0,0,0,-1,1504,316,0,0
287,708,0,0,0,0,0,0,0,0,0,-1,1511,316,0,0
294,708,0,0,0,0,0,0,0,0,0,-1,1518,316,0,0
301,708,0,0,0,0,0,0,0,0,0,-1,1525,316,0,0
308,708,0,0,0,0,0,0,0,0,0,-1,1532,316,0,0
315,708,0,0,0,0,0,0,0,0,0,-1,1539,316,0,0
322,708,0,0,0,0,0,0,0,0,0,-1,1546,316,0,0
329,708,0,0,0,0,0,0,0,0,0,-1,1553,316,0,0
336,708,0,0,0,0,0,0,0,0,0,-1,1560,316,0,0
343,708,0,0,0,0,0,0,0,0,0,-1,1567,316,0,0
350,708,0,0,0,0,0,0,0,0,0,-1,1574,316,0,0
357,708,0,0,0,0,0,0,0,0,0,-1,1581,316,0,0
364,708,0,0,0,0,0,0,0,0,0,-1,1588,316,0,0
371,708,0,0,0,0,0,0,0,0,0,-1,1595,316,0,0
378,708,0,0,0,0,0,0,0,0,0,-1,1602,316,0,0
385,708,0,0,0,0,0,0,0,0,0,-1,1609,316,0,0
392,708,0,0,0,0,0,0,0,0,0,-1,1616,316,0,0
399,708,0,0,0,0,0,0,0,0,0,-1,1623,316,0,0
406,708,0,0,0,0,0,0,0,0,0,-1,1630,316,0,0
413,708,0,0,0,0,0,0,0,0,0,-1,1637,316,0,0
420,708,0,0,0,0,0,0,0,0,0,-1,1644,316,0,0
427,708,0,0,0,0,0,0,0,0,0,-1,1651,316,0,0
434,708,0,0,0,0,0,0,0,0,0,-1,1658,316,0,0
441,708,0,0,0,0,0,0,0,0,0,-1,1665,316,0,0
448,708,0,0,0,0,0,0,0,0,0,-1,1672,316,0,0
455,708,0,0,0,0,0,0,0,0,0,-1,1679,316,0,0
462,708,0,0,0,0,0,0,0,0,0,-1,1686,316,0,0
469,708,0,0,0,0,0,0,0,0,0,-1,1693,316,0,0
476,708,0,0,0,0,0,0,0,0,0,-1,1700,316,0,0
483,708,0,0,0,0,0,0,0,0,0,-1,1707,316,0,0
490,708,0,0,0,0,0,0,0,0,0,-1,1714,316,0,0
497,708,0,0,0,0,0,0,0,0,0,-1,1721,316,0,0
504,708,0,0,0,0,0,0,0,0,0,-1,1728,316,0,0
511,708,0,0,0,0,0,0,0,0,0,-1,1735,316,0,0
518,708,0,0,0,0,0,0,0,0,0,-1,1742,316,0,0
525,708,0,0,0,0,0,0,0,0,0,-1,1749,316,0,0
532,708,0,0,0,0,0,0,0,0,0,-1,1756,316,0,0
539,708,0,0,0,0,0,0,0,0,0,-1,1763,316,0,0
546,708,0,0,0,0,0,0,0,0,0,-1,1770,316,0,0
553,708,0,0,0,0,0,0,0,0,0,-1,1777,316,0,0
560,708,0,0,0,0,0,0,0,0,0,-1,1784,316,0,0
567,708,0,0,0,0,0,0,0,0,0,-1,1791,316,0,0
574,708,0,0,0,0,0,0,0,0,0,-1,1798,316,0,0
581,708,0,0,0,0,0,0,0,0,0,-1,1805,316,0,0
588,708,0,0,0,0,0,0,0,0,0,-1,1812,316,0,0
595,708,0,0,0,0,0,0,0,0,0,-1,1819,316,0,0
602,708,0,0,0,0,0,0,0,0,0,-1,1826,316,0,0
609,708,0,0,0,0,0,0,0,0,0,-1,1833,316,0,0
616,708,0,0,0,0,0,0,0,0,0,-1,1840,316,0,0
623,708,0,0,0,0,0,0,0,0,0,-1,1847,316,0,0
630,708,0,0,0,0,0,0,0,0,0,-1,1854,316,0,0
637,708,0,0,0,0,0,0,0,0,0,-1,1861,316,0,0
644,708,0,0,0,0,0,0,0,0,0,-1,1868,316,0,0
651,708,0,0,0,0,0,0,0,0,0,-1,1875,316,0,0
658,708,0,0,0,0,0,0,0,0,0,-1,1882,316,0,0
665,708,0,0,0,0,0,0,0,0,0,-1,1889,316,0,0
672,708,0,0,0,0,0,0,0,0,0,-1,1896,316,0,0
679,708,0,0,0,0,0,0,0,0,0,-1,1903,316,0,0
686,708,0,0,0,0,0,0,0,0,0,-1,1910,316,0,0
693,708,0,0,0,0,0,0,0,0,0,-1,1917,316,0,0
700,708,0,0,0,0,0,0,0,0,0,-1,1924,316,0,0
707,708,0,0,0,0,0,0,0,0,0,-1,1931,316,0,0
714,708,0,0,0,0,0,0,0,0,0,-1,1938,316,0,0
721,708,0,0,0,0,0,0,0,0,0,-1,1945,316,0,0
728,708,0,0,0,0,0,0,0,0,0,-1,1952,316,0,0
735,708,0,0,0,0,0,0,0,0,0,-1,1959,316,0,0
742,708,0,0,0,0,0,0,0,0,0,-1,1966,316,0,0
749,708,0,0,0,0,0,0,0,0,0,-1,1973,316,0,0
756,708,0,0,0,0,0,0,0,0,0,-1,1980,316,0,0
763,708,0,0,0,0,0,0,0,0,0,-1,1987,316,0,0
770,708,0,0,0,0,0,0,0,0,0,-1,1994,316,0,0
777,708,0,0,0,0,0,0,0,0,0,-1,2001,316,0,0
784,708,0,0,0,0,0,0,0,0,0,-1,2008,316,0,0
791,708,0,0,0,0,0,0,0,0,0,-1,2015,316,0,0
798,708,0,0,0,0,0,0,0,0,0,-1,2022,316,0,0
805,708,0,0,0,0,0,0,0,0,0,-1,2029,316,0,0
812,708,0,0,0,0,0,0,0,0,0,-1,2036,316,0,0
-700,701,0,0,0,0,0,0,0,0,0,-1,524,323,0,0
-693,701,0,0,0,0,0,0,0,0,0,-1,531,323,0,0
-686,701,0,0,0,0,0,0,0,0,0,-1,538,323,0,0
-679,701,0,0,0,0,0,0,0,0,0,-1,545,323,0,0
-672,701,0,0,0,0,0,0,0,0,0,-1,552,323,0,0
-665,701,0,0,0,0,0,0,0,0,0,-1,559,323,0,0
-658,701,0,0,0,0,0,0,0,0,0,-1,566,323,0,0
-651,701,0,0,0,0,0,0,0,0,0,-1,573,323,0,0
-644,701,0,0,0,0,0,0,0,0,0,-1,580,323,0,0
-637,701,0,0,0,0,0,0,0,0,0,-1,587,323,0,0
-630,701,0,0,0,0,0,0,0,0,0,-1,594,323,0,0
-623,701,0,0,0,0,0,0,0,0,0,-1,601,323,0,0
-616,701,0,0,0,0,0,0,0,0,0,-1,608,323,0,0
-609,701,0,0,0,0,0,0,0,0,0,-1,615,323,0,0
-602,701,0,0,0,0,0,0,0,0,0,-1,622,323,0,0
-595,701,0,0,0,0,0,0,0,0,0,-1,629,323,0,0
-588,701,0,0,0,0,0,0,0,0,0,-1,636,323,0,0
-581,701,0,0,0,0,0,0,0,0,0,-1,643,323,0,0
-574,701,0,0,0,0,0,0,0,0,0,-1,650,323,0,0
-567,701,0,0,0,0,0,0,0,0,0,-1,657,323,0,0
-560,701,0,0,0,0,0,0,0,0,0,-1,664,323,0,0
-553,701,0,0,0,0,0,0,0,0,0,-1,671,323,0,0
-546,701,0,0,0,0,0,0,0,0,0,-1,678,323,0,0
-539,701,0,0,0,0,0,0,0,0,0,-1,685,323,0,0
-532,701,0,0,0,0,0,0,0,0,0,-1,692,323,0,0
-525,701,0,0,0,0,0,0,0,0,0,-1,699,323,0,0
-518,701,0,0,0,0,0,0,0,0,0,-1,706,323,0,0
-511,701,0,0,0,0,0,0,0,0,0,-1,713,323,0,0
-504,701,0,0,0,0,0,0,0,0,0,-1,720,323,0,0
-497,701,0,0,0,0,0,0,0,0,0,-1,727,323,0,0
-490,701,0,0,0,0,0,0,0,0,0,-1,734,323,0,0
-483,701,0,0,0,0,0,0,0,0,0,-1,741,323,0,0
-476,701,0,0,0,0,0,0,0,0,0,-1,748,323,0,0
-469,701,0,0,0,0,0,0,0,0,0,-1,755,323,0,0
-462,701,0,0,0,0,0,0,0,0,0,-1,762,323,0,0
-455,701,0,0,0,0,0,0,0,0,0,-1,769,323,0,0
-448,701,0,0,0,0,0,0,0,0,0,-1,776,323,0,0
-441,701,0,0,0,0,0,0,0,0,0,-1,783,323,0,0
-434,701,0,0,0,0,0,0,0,0,0,-1,790,323,0,0
-427,701,0,0,0,0,0,0,0,0,0,-1,797,323,0,0
-420,701,0,0,0,0,0,0,0,0,0,-1,804,323,0,0
-413,701,0,0,0,0,0,0,0,0,0,-1,811,323,0,0
-406,701,0,0,0,0,0,0,0,0,0,-1,818,323,0,0
-399,701,0,0,0,0,0,0,0,0,0,-1,825,323,0,0
-392,701,0,0,0,0,0,0,0,0,0,-1,832,323,0,0
-385,701,0,0,0,0,0,0,0,0,0,-1,839,323,0,0
-378,701,0,0,0,0,0,0,0,0,0,-1,846,323,0,0
-371,701,0,0,0,0,0,0,0,0,0,-1,853,323,0,0
-364,701,0,0,0,0,0,0,0,0,0,-1,860,323,0,0
-357,701,0,0,0,0,0,0,0,0,0,-1,867,323,0,0
-350,701,0,0,0,0,0,0,0,0,0,-1,874,323,0,0
-343,701,0,0,0,0,0,0,0,0,0,-1,881,323,0,0
-336,701,0,0,0,0,0,0,0,0,0,-1,888,323,0,0
-329,701,0,0,0,0,0,0,0,0,0,-1,895,323,0,0
-322,701,0,0,0,0,0,0,0,0,0,-1,902,323,0,0
-315,701,0,0,0,0,0,0,0,0,0,-1,909,323,0,0
-308,701,0,0,0,0,0,0,0,0,0,-1,916,323,0,0
-301,701,0,0,0,0,0,0,0,0,0,-1,923,323,0,0
-294,701,0,0,0,0,0,0,0,0,0,-1,930,323,0,0
-287,701,0,0,0,0,0,0,0,0,0,-1,937,323,0,0
-280,701,0,0,0,0,0,0,0,0,0,-1,944,323,0,0
-273,701,0,0,0,0,0,0,0,0,0,-1,951,323,0,0
-266,701,0,0,0,0,0,0,0,0,0,-1,958,323,0,0
-259,701,0,0,0,0,0,0,0,0,0,-1,965,323,0,0
-252,701,0,0,0,0,0,0,0,0,0,-1,972,323,0,0
-245,701,0,0,0,0,0,0,0,0,0,-1,979,323,0,0
-238,701,0,0,0,0,0,0,0,0,0,-1,986,323,0,0
-231,701,0,0,0,0,0,0,0,0,0,-1,993,323,0,0
-224,701,0,0,0,0,0,0,0,0,0,-1,1000,323,0,0
-217,701,0,0,0,0,0,0,0,0,0,-1,1007,323,0,0
-210,701,0,0,0,0,0,0,0,0,0,-1,1014,323,0,0
-203,701,0,0,0,0,0,0,0,0,0,-1,1021,323,0,0
-196,701,0,0,0,0,0,0,0,0,0,-1,1028,323,0,0
-189,701,0,0,0,0,0,0,0,0,0,-1,1035,323,0,0
-182,701,0,0,0,0,0,0,0,0,0,-1,1042,323,0,0
-175,701,0,0,0,0,0,0,0,0,0,-1,1049,323,0,0
-168,701,0,0,0,0,0,0,0,0,0,-1,1056,323,0,0
-161,701,0,0,0,0,0,0,0,0,0,-1,1063,323,0,0
-154,701,0,0,0,0,0,0,0,0,0,-1,1070,323,0,0
-147,701,0,0,0,0,0,0,0,0,0,-1,1077,323,0,0
-140,701,0,0,0,0,0,0,0,0,0,-1,1084,323,0,0
-133,701,0,0,0,0,0,0,0,0,0,-1,1091,323,0,0
-126,701,0,0,0,0,0,0,0,0,0,-1,1098,323,0,0
-119,701,0,0,0,0,0,0,0,0,0,-1,1105,323,0,0
-112,701,0,0,0,0,0,0,0,0,0,-1,1112,323,0,0
-105,701,0,0,0,0,0,0,0,0,0,-1,1119,323,0,0
-98,701,0,0,0,0,0,0,0,0,0,-1,1126,323,0,0
-91,701,0,0,0,0,0,0,0,0,0,-1,1133,323,0,0
-84,701,0,0,0,0,0,0,0,0,0,-1,1140,323,0,0
-77,701,0,0,0,0,0,0,0,0,0,-1,1147,323,0,0
-70,701,-2.36731,-1.49271,0,0,0,0,0,0,0,-1,1154,323,-2.36729,1.4927
-63,701,-2.479,-0.295959,0,0,0,0,0,0,0,-1,1161,323,-2.47895,0.295961
-56,701,-0.420166,-0.101776,0,0,0,0,0,0,0,-1,1168,323,-0.420119,0.101777
-49,701,-1.09021,-0.155762,0,0,0,0,0,0,0,-1,1175,323,-1.09024,0.155768
-42,701,-0.210327,-0.299133,0,0,0,0,0,0,0,-1,1182,323,-0.210379,0.29914
-35,701,-2.9635,-7.98676,0,0,0,0,0,0,0,-1,1189,323,-2.9635,7.98676
-28,701,-6.64417,-5.4917,0,0,0,0,0,0,0,-1,1196,323,-6.64411,5.4917
-21,701,4.16895,-12.4047,0,0,0,0,0,0,0,-1,1203,323,4.16889,12.4047
-14,701,4.20288,-12.92,0.00318776,-0.0107916,-0.0321946,0.0291427,-0.0367466,-0.678503,0.0381255,0.0484572,1210,323,4.20286,12.92
-7,701,4.20374,-13.4963,0.00220591,-0.0168382,-0.0224525,0.0170721,-0.0317043,-0.584845,0.0285803,0.0481753,1217,323,4.20378,13.4963
0,701,1.94324,-17.2518,0,0,0,0,0,0,0,-1,1224,323,1.94329,17.2518
7,701,2.50635,-16.6236,0,0,0,0,0,0,0,-1,1231,323,2.50634,16.6236
14,701,3.13696,-16.0033,0.00484611,-0.0362734,0.00916697,0.00679717,-0.0382245,0.209707,0.0280248,0.0443689,1238,323,3.13695,16.0033
21,701,3.54126,-15.4822,0.00582562,-0.0404941,0.0182192,0.012133,-0.0468015,0.33328,0.0359347,0.0455967,1245,323,3.54128,15.4822
28,701,3.50464,-15.1114,0.00678139,-0.0429165,0.0260399,0.0179261,-0.0540612,0.404398,0.0432721,0.044926,1252,323,3.50458,15.1113
35,701,3.36072,-14.87,0,0,0,0,0,0,0,-1,1259,323,3.36068,14.87
42,701,1.91614,-15.2737,0,0,0,0,0,0,0,-1,1266,323,1.91613,15.2738
49,701,3.22607,-15.8611,0.00855939,-0.0438457,0.0420378,0.0318922,-0.0671785,0.506707,0.0583953,0.0432963,1273,323,3.22604,15.8611
56,701,3.32764,-15.0139,0.00877242,-0.0395918,0.0435825,0.0344322,-0.0652516,0.532116,0.0584621,0.0414972,1280,323,3.32769,15.0139
63,701,3.41016,-14.4047,0.00939257,-0.0312172,0.0425081,0.0361963,-0.058021,0.562585,0.0548807,0.0434035,1287,323,3.41015,14.4047
70,701,3.23914,-13.8433,0.00790629,-0.0198014,0.0412239,0.0375419,-0.049437,0.623295,0.0503736,0.0439481,1294,323,3.23913,13.8433
77,701,3.0387,-13.2933,0.000489817,-0.00621029,0.0410005,0.0382769,-0.0439974,0.744635,0.0475394,0.0440208,1301,323,3.03864,13.2933
84,701,2.90149,-12.8804,-0.0147211,0.00726768,0.0394662,0.0372423,-0.0446957,0.921243,0.0473721,0.0464914,1308,323,2.90151,12.8804
91,701,2.83862,-12.4272,0,0,0,0,0,0,0,-1,1315,323,2.83857,12.4272
98,701,3.04822,-12.2971,0,0,0,0,0,0,0,-1,1322,323,3.0482,12.2972
105,701,3.32507,-12.6238,-0.057158,0.0521092,0.0323558,0.0609715,-0.0660203,1.30345,0.073338,0.049955,1329,323,3.32503,12.6238
112,701,3.5271,-12.4305,-0.0767627,0.0666276,0.0311549,0.0731042,-0.0832393,1.36583,0.0903282,0.044233,1336,323,3.52709,12.4305
119,701,3.67383,-12.7692,-0.0970852,0.0804235,0.0297886,0.0852891,-0.101951,1.40889,0.108246,0.040772,1343,323,3.67385,12.7692
126,701,3.67676,-13.084,-0.119281,0.0905219,0.0274846,0.0940626,-0.122822,1.44267,0.125585,0.0445327,1350,323,3.67681,13.084
133,701,-1.25464,-12.0416,-0.141487,0.0957728,0.0239568,0.0981676,-0.143882,1.47116,0.140576,0.0476946,1357,323,-1.25466,12.0416
140,701,-1.30542,-13.193,0,0,0,0,0,0,0,-1,1364,323,-1.30544,13.193
147,701,-0.897217,-13.5738,0,0,0,0,0,0,0,-1,1371,323,-0.897212,13.5738
154,701,-0.489014,-13.9547,0,0,0,0,0,0,0,-1,1378,323,-0.488983,13.9546
161,701,2.11853,-12.0428,0,0,0,0,0,0,0,-1,1385,323,2.11854,12.0428
168,701,6.88513,-0.0237427,0,0,0,0,0,0,0,-1,1392,323,6.88517,0.0237498
175,701,6.94556,0.0693054,0,0,0,0,0,0,0,-1,1399,323,6.94555,-0.0692958
182,701,8.80652,5.42807,0,0,0,0,0,0,0,-1,1406,323,8.8065,-5.42808
189,701,8.58081,4.24493,0,0,0,0,0,0,0,-1,1413,323,8.58082,-4.24494
196,701,0,0,0,0,0,0,0,0,0,-1,1420,323,0,0
203,701,0,0,0,0,0,0,0,0,0,-1,1427,323,0,0
210,701,0,0,0,0,0,0,0,0,0,-1,1434,323,0,0
217,701,0,0,0,0,0,0,0,0,0,-1,1441,323,0,0
224,701,0,0,0,0,0,0,0,0,0,-1,1448,323,0,0
231,701,0,0,0,0,0,0,0,0,0,-1,1455,323,0,0
238,701,0,0,0,0,0,0,0,0,0,-1,1462,323,0,0
245,701,0,0,0,0,0,0,0,0,0,-1,1469,323,0,0
252,701,0,0,0,0,0,0,0,0,0,-1,1476,323,0,0
259,701,0,0,0,0,0,0,0,0,0,-1,1483,323,0,0
266,701,0,0,0,0,0,0,0,0,0,-1,1490,323,0,0
273,701,0,0,0,0,0,0,0,0,0,-1,1497,323,0,0
280,701,0,0,0,0,0,0,0,0,0,-1,1504,323,0,0
287,701,0,0,0,0,0,0,0,0,0,-1,1511,323,0,0
294,701,0,0,0,0,0,0,0,0,0,-1,1518,323,0,0
301,701,0,0,0,0,0,0,0,0,0,-1,1525,323,0,0
308,701,0,0,0,0,0,0,0,0,0,-1,1532,323,0,0
315,701,0,0,0,0,0,0,0,0,0,-1,1539,323,0,0
322,701,0,0,0,0,0,0,0,0,0,-1,1546,323,0,0
329,701,0,0,0,0,0,0,0,0,0,-1,1553,323,0,0
336,701,0,0,0,0,0,0,0,0,0,-1,1560,323,0,0
343,701,0,0,0,0,0,0,0,0,0,-1,1567,323,0,0
350,701,0,0,0,0,0,0,0,0,0,-1,1574,323,0,0
357,701,0,0,0,0,0,0,0,0,0,-1,1581,323,0,0
364,701,0,0,0,0,0,0,0,0,0,-1,1588,323,0,0
371,701,0,0,0,0,0,0,0,0,0,-1,1595,323,0,0
378,701,0,0,0,0,0,0,0,0,0,-1,1602,323,0,0
385,701,0,0,0,0,0,0,0,0,0,-1,1609,323,0,0
392,701,0,0,0,0,0,0,0,0,0,-1,1616,323,0,0
399,701,0,0,0,0,0,0,0,0,0,-1,1623,323,0,0
406,701,0,0,0,0,0,0,0,0,0,-1,1630,323,0,0
413,701,0,0,0,0,0,0,0,0,0,-1,1637,323,0,0
420,701,0,0,0,0,0,0,0,0,0,-1,1644,323,0,0
427,701,0,0,0,0,0,0,0,0,0,-1,1651,323,0,0
434,701,0,0,0,0,0,0,0,0,0,-1,1658,323,0,0
441,701,0,0,0,0,0,0,0,0,0,-1,1665,323,0,0
448,701,0,0,0,0,0,0,0,0,0,-1,1672,323,0,0
455,701,0,0,0,0,0,0,0,0,0,-1,1679,323,0,0
462,701,0,0,0,0,0,0,0,0,0,-1,1686,323,0,0
469,701,0,0,0,0,0,0,0,0,0,-1,1693,323,0,0
476,701,0,0,0,0,0,0,0,0,0,-1,1700,323,0,0
483,701,0,0,0,0,0,0,0,0,0,-1,1707,323,0,0
490,701,0,0,0,0,0,0,0,0,0,-1,1714,323,0,0
497,701,0,0,0,0,0,0,0,0,0,-1,1721,323,0,0
504,701,0,0,0,0,0,0,0,0,0,-1,1728,323,0,0
511,701,0,0,0,0,0,0,0,0,0,-1,1735,323,0,0
518,701,0,0,0,0,0,0,0,0,0,-1,1742,323,0,0
525,701,0,0,0,0,0,0,0,0,0,-1,1749,323,0,0
532,701,0,0,0,0,0,0,0,0,0,-1,1756,323,0,0
539,701,0,0,0,0,0,0,0,0,0,-1,1763,323,0,0
546,701,0,0,0,0,0,0,0,0,0,-1,1770,323,0,0
553,701,0,0,0,0,0,0,0,0,0,-1,1777,323,0,0
560,701,0,0,0,0,0,0,0,0,0,-1,1784,323,0,0
567,701,0,0,0,0,0,0,0,0,0,-1,1791,323,0,0
574,701,0,0,0,0,0,0,0,0,0,-1,1798,323,0,0
581,701,0,0,0,0,0,0,0,0,0,-1,1805,323,0,0
588,701,0,0,0,0,0,0,0,0,0,-1,1812,323,0,0
595,701,0,0,0,0,0,0,0,0,0,-1,1819,323,0,0
602,701,0,0,0,0,0,0,0,0,0,-1,1826,323,0,0
609,701,0,0,0,0,0,0,0,0,0,-1,1833,323,0,0
616,701,0,0,0,0,0,0,0,0,0,-1,1840,323,0,0
623,701,0,0,0,0,0,0,0,0,0,-1,1847,323,0,0
630,701,0,0,0,0,0,0,0,0,0,-1,1854,323,0,0
637,701,0,0,0,0,0,0,0,0,0,-1,1861,323,0,0
644,701,0,0,0,0,0,0,0,0,0,-1,1868,323,0,0
651,701,0,0,0,0,0,0,0,0,0,-1,1875,323,0,0
658,701,0,0,0,0,0,0,0,0,0,-1,1882,323,0,0
665,701,0,0,0,0,0,0,0,0,0,-1,1889,323,0,0
672,701,0,0,0,0,0,0,0,0,0,-1,1896,323,0,0
679,701,0,0,0,0,0,0,0,0,0,-1,1903,323,0,0
686,701,0,0,0,0,0,0,0,0,0,-1,1910,323,0,0
693,701,0,0,0,0,0,0,0,0,0,-1,1917,323,0,0
700,701,0,0,0,0,0,0,0,0,0,-1,1924,323,0,0
707,701,0,0,0,0,0,0,0,0,0,-1,1931,323,0,0
714,701,0,0,0,0,0,0,0,0,0,-1,1938,323,0,0
721,701,0,0,0,0,0,0,0,0,0,-1,1945,323,0,0
728,701,0,0,0,0,0,0,0,0,0,-1,1952,323,0,0
735,701,0,0,0,0,0,0,0,0,0,-1,1959,323,0,0
742,701,0,0,0,0,0,0,0,0,0,-1,1966,323,0,0
749,701,0,0,0,0,0,0,0,0,0,-1,1973,323,0,0
756,701,0,0,0,0,0,0,0,0,0,-1,1980,323,0,0
763,701,0,0,0,0,0,0,0,0,0,-1,1987,323,0,0
770,701,0,0,0,0,0,0,0,0,0,-1,1994,323,0,0
777,701,0,0,0,0,0,0,0,0,0,-1,2001,323,0,0
784,701,0,0,0,0,0,0,0,0,0,-1,2008,323,0,0
791,701,0,0,0,0,0,0,0,0,0,-1,2015,323,0,0
798,701,0,0,0,0,0,0,0,0,0,-1,2022,323,0,0
805,701,0,0,0,0,0,0,0,0,0,-1,2029,323,0,0
812,701,0,0,0,0,0,0,0,0,0,-1,2036,323,0,0
-700,694,0,0,0,0,0,0,0,0,0,-1,524,330,0,0
-693,694,0,0,0,0,0,0,0,0,0,-1,531,330,0,0
-686,694,0,0,0,0,0,0,0,0,0,-1,538,330,0,0
-679,694,0,0,0,0,0,0,0,0,0,-1,545,330,0,0
-672,694,0,0,0,0,0,0,0,0,0,-1,552,330,0,0
-665,694,0,0,0,0,0,0,0,0,0,-1,559,330,0,0
-658,694,0,0,0,0,0,0,0,0,0,-1,566,330,0,0
-651,694,0,0,0,0,0,0,0,0,0,-1,573,330,0,0
-644,694,0,0,0,0,0,0,0,0,0,-1,580,330,0,0
-637,694,0,0,0,0,0,0,0,0,0,-1,587,330,0,0
-630,694,0,0,0,0,0,0,0,0,0,-1,594,330,0,0
-623,694,0,0,0,0,0,0,0,0,0,-1,601,330,0,0
-616,694,0,0,0,0,0,0,0,0,0,-1,608,330,0,0
-609,694,0,0,0,0,0,0,0,0,0,-1,615,330,0,0
-602,694,0,0,0,0,0,0,0,0,0,-1,622,330,0,0
-595,694,0,0,0,0,0,0,0,0,0,-1,629,330,0,0
-588,694,0,0,0,0,0,0,0,0,0,-1,636,330,0,0
-581,694,0,0,0,0,0,0,0,0,0,-1,643,330,0,0
-574,694,0,0,0,0,0,0,0,0,0,-1,650,330,0,0
-567,694,0,0,0,0,0,0,0,0,0,-1,657,330,0,0
-560,694,0,0,0,0,0,0,0,0,0,-1,664,330,0,0
-553,694,0,0,0,0,0,0,0,0,0,-1,671,330,0,0
-546,694,0,0,0,0,0,0,0,0,0,-1,678,330,0,0
-539,694,0,0,0,0,0,0,0,0,0,-1,685,330,0,0
-532,694,0,0,0,0,0,0,0,0,0,-1,692,330,0,0
-525,694,0,0,0,0,0,0,0,0,0,-1,699,330,0,0
-518,694,0,0,0,0,0,0,0,0,0,-1,706,330,0,0
-511,694,0,0,0,0,0,0,0,0,0,-1,713,330,0,0
-504,694,0,0,0,0,0,0,0,0,0,-1,720,330,0,0
-497,694,0,0,0,0,0,0,0,0,0,-1,727,330,0,0
-490,694,0,0,0,0,0,0,0,0,0,-1,734,330,0,0
-483,694,0,0,0,0,0,0,0,0,0,-1,741,330,0,0
-476,694,0,0,0,0,0,0,0,0,0,-1,748,330,0,0
-469,694,0,0,0,0,0,0,0,0,0,-1,755,330,0,0
-462,694,0,0,0,0,0,0,0,0,0,-1,762,330,0,0
-455,694,0,0,0,0,0,0,0,0,0,-1,769,330,0,0
-448,694,0,0,0,0,0,0,0,0,0,-1,776,330,0,0
-441,694,0,0,0,0,0,0,0,0,0,-1,783,330,0,0
-434,694,0,0,0,0,0,0,0,0,0,-1,790,330,0,0
-427,694,0,0,0,0,0,0,0,0,0,-1,797,330,0,0
-420,694,0,0,0,0,0,0,0,0,0,-1,804,330,0,0
-413,694,0,0,0,0,0,0,0,0,0,-1,811,330,0,0
-406,694,0,0,0,0,0,0,0,0,0,-1,818,330,0,0
-399,694,0,0,0,0,0,0,0,0,0,-1,825,330,0,0
-392,694,0,0,0,0,0,0,0,0,0,-1,832,330,0,0
-385,694,0,0,0,0,0,0,0,0,0,-1,839,330,0,0
-378,694,0,0,0,0,0,0,0,0,0,-1,846,330,0,0
-371,694,0,0,0,0,0,0,0,0,0,-1,853,330,0,0
-364,694,0,0,0,0,0,0,0,0,0,-1,860,330,0,0
-357,694,0,0,0,0,0,0,0,0,0,-1,867,330,0,0
-350,694,0,0,0,0,0,0,0,0,0,-1,874,330,0,0
-343,694,0,0,0,0,0,0,0,0,0,-1,881,330,0,0
-336,694,0,0,0,0,0,0,0,0,0,-1,888,330,0,0
-329,694,0,0,0,0,0,0,0,0,0,-1,895,330,0,0
-322,694,0,0,0,0,0,0,0,0,0,-1,902,330,0,0
-315,694,0,0,0,0,0,0,0,0,0,-1,909,330,0,0
-308,694,0,0,0,0,0,0,0,0,0,-1,916,330,0,0
-301,694,0,0,0,0,0,0,0,0,0,-1,923,330,0,0
-294,694,0,0,0,0,0,0,0,0,0,-1,930,330,0,0
-287,694,0,0,0,0,0,0,0,0,0,-1,937,330,0,0
-280,694,0,0,0,0,0,0,0,0,0,-1,944,330,0,0
-273,694,0,0,0,0,0,0,0,0,0,-1,951,330,0,0
-266,694,0,0,0,0,0,0,0,0,0,-1,958,330,0,0
-259,694,0,0,0,0,0,0,0,0,0,-1,965,330,0,0
-252,694,0,0,0,0,0,0,0,0,0,-1,972,330,0,0
-245,694,0,0,0,0,0,0,0,0,0,-1,979,330,0,0
-238,694,0,0,0,0,0,0,0,0,0,-1,986,330,0,0
-231,694,0,0,0,0,0,0,0,0,0,-1,993,330,0,0
-224,694,0,0,0,0,0,0,0,0,0,-1,1000,330,0,0
-217,694,0,0,0,0,0,0,0,0,0,-1,1007,330,0,0
-210,694,0,0,0,0,0,0,0,0,0,-1,1014,330,0,0
-203,694,0,0,0,0,0,0,0,0,0,-1,1021,330,0,0
-196,694,0,0,0,0,0,0,0,0,0,-1,1028,330,0,0
-189,694,0,0,0,0,0,0,0,0,0,-1,1035,330,0,0
-182,694,0,0,0,0,0,0,0,0,0,-1,1042,330,0,0
-175,694,0,0,0,0,0,0,0,0,0,-1,1049,330,0,0
-168,694,0,0,0,0,0,0,0,0,0,-1,1056,330,0,0
-161,694,0,0,0,0,0,0,0,0,0,-1,1063,330,0,0
-154,694,0,0,0,0,0,0,0,0,0,-1,1070,330,0,0
-147,694,0,0,0,0,0,0,0,0,0,-1,1077,330,0,0
-140,694,0,0,0,0,0,0,0,0,0,-1,1084,330,0,0
-133,694,0,0,0,0,0,0,0,0,0,-1,1091,330,0,0
-126,694,0,0,0,0,0,0,0,0,0,-1,1098,330,0,0
-119,694,0,0,0,0,0,0,0,0,0,-1,1105,330,0,0
-112,694,0,0,0,0,0,0,0,0,0,-1,1112,330,0,0
-105,694,-1.35962,-7.57141,0,0,0,0,0,0,0,-1,1119,330,-1.3596,7.57142
-98,694,1.34875,-10.1051,0,0,0,0,0,0,0,-1,1126,330,1.34874,10.1051
-91,694,1.35474,-9.22229,0,0,0,0,0,0,0,-1,1133,330,1.35476,9.22229
-84,694,-4.39136,-4.62332,0,0,0,0,0,0,0,-1,1140,330,-4.3914,4.62331
-77,694,-4.93396,-10.2672,0,0,0,0,0,0,0,-1,1147,330,-4.9339,10.2672
-70,694,-6.49402,-10.0714,0,0,0,0,0,0,0,-1,1154,330,-6.49399,10.0714
-63,694,-5.80835,-4.75275,0,0,0,0,0,0,0,-1,1161,330,-5.80834,4.75274
-56,694,-6.50623,-0.649139,0,0,0,0,0,0,0,-1,1168,330,-6.5062,0.649126
-49,694,-1.11426,0.0341797,0,0,0,0,0,0,0,-1,1175,330,-1.11424,-0.0341846
-42,694,-0.346313,-0.709595,0,0,0,0,0,0,0,-1,1182,330,-0.346298,0.709581
-35,694,-0.459106,-1.24713,0,0,0,0,0,0,0,-1,1189,330,-0.459142,1.24714
-28,694,-6.48413,-3.95972,0,0,0,0,0,0,0,-1,1196,330,-6.48414,3.9597
-21,694,4.375,-12.3327,0,0,0,0,0,0,0,-1,1203,330,4.37503,12.3327
-14,694,4.40454,-12.9045,0.000352248,-0.00870875,-0.0241528,0.0203958,-0.0287523,-0.692687,0.0285121,0.0470632,1210,330,4.40459,12.9045
-7,694,4.32617,-13.49,-0.00103876,-0.0127746,-0.017579,0.0116258,-0.0254392,-0.624311,0.0218892,0.0465068,1217,330,4.32613,13.49
0,694,4.26489,-13.7946,-0.00154614,-0.0172212,-0.00931238,0.0027879,-0.0215553,-0.435592,0.0153839,0.0458844,1224,330,4.26493,13.7946
7,694,3.46814,-15.0204,0,0,0,0,0,0,0,-1,1231,330,3.46816,15.0204
14,694,3.56897,-15.2567,0.00163638,-0.0272688,0.006204,0.0029117,-0.0285441,0.202739,0.0200705,0.0427101,1238,330,3.569,15.2567
21,694,3.62427,-15.142,0.00268866,-0.0303395,0.0132379,0.00733956,-0.0349904,0.337861,0.0261195,0.0427858,1245,330,3.62424,15.142
28,694,3.57019,-14.7684,0.00391952,-0.0319321,0.0194189,0.0124215,-0.0404341,0.412679,0.0319128,0.0459821,1252,330,3.57025,14.7684
35,694,3.49146,-14.4203,0,0,0,0,0,0,0,-1,1259,330,3.49149,14.4203
42,694,1.70203,-15.3062,0.00611797,-0.0323457,0.0291519,0.0218103,-0.048038,0.493812,0.0412637,0.0461004,1266,330,1.70208,15.3062
49,694,1.01428,-15.3239,0.00687053,-0.0307069,0.0323669,0.0255068,-0.0493432,0.522422,0.043939,0.0482102,1273,330,1.01424,15.3239
56,694,3.59265,-13.7153,0.00757523,-0.0266593,0.0338095,0.0283537,-0.0474377,0.551066,0.0442182,0.0427067,1280,330,3.59269,13.7153
63,694,3.15466,-13.8353,0.00853195,-0.0197095,0.033239,0.0305253,-0.0417028,0.584538,0.041867,0.0450926,1287,330,3.15469,13.8353
70,694,2.88,-13.8001,0.00730584,-0.0103144,0.0326662,0.0323291,-0.0353376,0.653682,0.0390803,0.0456338,1294,330,2.88004,13.8001
77,694,2.73218,-13.5652,0.00145162,0.000610709,0.0330938,0.0341276,-0.0320653,0.779046,0.0382227,0.0471415,1301,330,2.73214,13.5652
84,694,2.60828,-13.169,-0.0103587,0.0112594,0.0322734,0.0344857,-0.0335851,0.946987,0.0393019,0.0454455,1308,330,2.60828,13.169
91,694,2.82629,-12.9874,-0.0195919,0.0229115,0.030696,0.0389945,-0.0356749,1.08818,0.0431246,0.0464458,1315,330,2.82632,12.9874
98,694,2.86743,-12.8934,-0.0292124,0.0338416,0.0290978,0.0452172,-0.040588,1.19812,0.0495637,0.0493023,1322,330,2.86748,12.8934
105,694,3.12927,-13.0056,-0.0427934,0.0447725,0.02689,0.0523707,-0.0503916,1.29541,0.0593335,0.0476294,1329,330,3.12932,13.0056
112,694,3.43188,-12.8939,-0.0577756,0.05529,0.0257316,0.0608706,-0.0633562,1.35723,0.0717272,0.0427322,1336,330,3.43182,12.8939
119,694,3.77942,-13.1555,-0.0725855,0.0651127,0.0244548,0.0693268,-0.0767996,1.40015,0.0844029,0.041172,1343,330,3.77942,13.1555
126,694,3.87012,-13.7342,-0.0883181,0.0721584,0.0223193,0.0752048,-0.0913645,1.43514,0.0963196,0.0420757,1350,330,3.87016,13.7342
133,694,-0.683228,-12.561,-0.103675,0.0758504,0.0190881,0.0778575,-0.105682,1.46603,0.106372,0.044488,1357,330,-0.683284,12.561
140,694,-0.46106,-13.2456,0,0,0,0,0,0,0,-1,1364,330,-0.46109,13.2456
147,694,-0.285522,-13.608,0,0,0,0,0,0,0,-1,1371,330,-0.285468,13.608
154,694,-0.109863,-13.9704,0,0,0,0,0,0,0,-1,1378,330,-0.109847,13.9704
161,694,1.87231,-12.4088,0,0,0,0,0,0,0,-1,1385,330,1.87227,12.4088
168,694,6.77161,1.01288,0,0,0,0,0,0,0,-1,1392,330,6.77156,-1.01287
175,694,6.72839,0.473175,0,0,0,0,0,0,0,-1,1399,330,6.72838,-0.473182
182,694,8.29028,5.75238,0,0,0,0,0,0,0,-1,1406,330,8.29034,-5.75237
189,694,7.9801,4.46118,0,0,0,0,0,0,0,-1,1413,330,7.9801,-4.46118
196,694,7.39331,3.32632,0,0,0,0,0,0,0,-1,1420,330,7.39329,-3.32633
203,694,7.04492,2.20529,0,0,0,0,0,0,0,-1,1427,330,7.04496,-2.20529
210,694,6.44714,0.646912,0,0,0,0,0,0,0,-1,1434,330,6.44717,-0.646903
217,694,7.12061,-0.644958,0,0,0,0,0,0,0,-1,1441,330,7.12059,0.644961
224,694,6.74011,-1.70544,0,0,0,0,0,0,0,-1,1448,330,6.74013,1.70546
231,694,0,0,0,0,0,0,0,0,0,-1,1455,330,0,0
238,694,0,0,0,0,0,0,0,0,0,-1,1462,330,0,0
245,694,0,0,0,0,0,0,0,0,0,-1,1469,330,0,0
252,694,0,0,0,0,0,0,0,0,0,-1,1476,330,0,0
259,694,0,0,0,0,0,0,0,0,0,-1,1483,330,0,0
266,694,0,0,0,0,0,0,0,0,0,-1,1490,330,0,0
273,694,0,0,0,0,0,0,0,0,0,-1,1497,330,0,0
280,694,0,0,0,0,0,0,0,0,0,-1,1504,330,0,0
287,694,0,0,0,0,0,0,0,0,0,-1,1511,330,0,0
294,694,0,0,0,0,0,0,0,0,0,-1,1518,330,0,0
301,694,0,0,0,0,0,0,0,0,0,-1,1525,330,0,0
308,694,0,0,0,0,0,0,0,0,0,-1,1532,330,0,0
315,694,0,0,0,0,0,0,0,0,0,-1,1539,330,0,0
322,694,0,0,0,0,0,0,0,0,0,-1,1546,330,0,0
329,694,0,0,0,0,0,0,0,0,0,-1,1553,330,0,0
336,694,0,0,0,0,0,0,0,0,0,-1,1560,330,0,0
343,694,0,0,0,0,0,0,0,0,0,-1,1567,330,0,0
350,694,0,0,0,0,0,0,0,0,0,-1,1574,330,0,0
357,694,0,0,0,0,0,0,0,0,0,-1,1581,330,0,0
364,694,0,0,0,0,0,0,0,0,0,-1,1588,330,0,0
371,694,0,0,0,0,0,0,0,0,0,-1,1595,330,0,0
378,694,0,0,0,0,0,0,0,0,0,-1,1602,330,0,0
385,694,0,0,0,0,0,0,0,0,0,-1,1609,330,0,0
392,694,0,0,0,0,0,0,0,0,0,-1,1616,330,0,0
399,694,0,0,0,0,0,0,0,0,0,-1,1623,330,0,0
406,694,0,0,0,0,0,0,0,0,0,-1,1630,330,0,0
413,694,0,0,0,0,0,0,0,0,0,-1,1637,330,0,0
420,694,0,0,0,0,0,0,0,0,0,-1,1644,330,0,0
427,694,0,0,0,0,0,0,0,0,0,-1,1651,330,0,0
434,694,0,0,0,0,0,0,0,0,0,-1,1658,330,0,0
441,694,0,0,0,0,0,0,0,0,0,-1,1665,330,0,0
448,694,0,0,0,0,0,0,0,0,0,-1,1672,330,0,0
455,694,0,0,0,0,0,0,0,0,0,-1,1679,330,0,0
462,694,0,0,0,0,0,0,0,0,0,-1,1686,330,0,0
469,694,0,0,0,0,0,0,0,0,0,-1,1693,330,0,0
476,694,0,0,0,0,0,0,0,0,0,-1,1700,330,0,0
483,694,0,0,0,0,0,0,0,0,0,-1,1707,330,0,0
490,694,0,0,0,0,0,0,0,0,0,-1,1714,330,0,0
497,694,0,0,0,0,0,0,0,0,0,-1,1721,330,0,0
504,694,0,0,0,0,0,0,0,0,0,-1,1728,330,0,0
511,694,0,0,0,0,0,0,0,0,0,-1,1735,330,0,0
518,694,0,0,0,0,0,0,0,0,0,-1,1742,330,0,0
525,694,0,0,0,0,0,0,0,0,0,-1,1749,330,0,0
532,694,0,0,0,0,0,0,0,0,0,-1,1756,330,0,0
539,694,0,0,0,0,0,0,0,0,0,-1,1763,330,0,0
546,694,0,0,0,0,0,0,0,0,0,-1,1770,330,0,0
553,694,0,0,0,0,0,0,0,0,0,-1,1777,330,0,0
560,694,0,0,0,0,0,0,0,0,0,-1,1784,330,0,0
567,694,0,0,0,0,0,0,0,0,0,-1,1791,330,0,0
574,694,0,0,0,0,0,0,0,0,0,-1,1798,330,0,0
581,694,0,0,0,0,0,0,0,0,0,-1,1805,330,0,0
588,694,0,0,0,0,0,0,0,0,0,-1,1812,330,0,0
595,694,0,0,0,0,0,0,0,0,0,-1,1819,330,0,0
602,694,0,0,0,0,0,0,0,0,0,-1,1826,330,0,0
609,694,0,0,0,0,0,0,0,0,0,-1,1833,330,0,0
616,694,0,0,0,0,0,0,0,0,0,-1,1840,330,0,0
623,694,0,0,0,0,0,0,0,0,0,-1,1847,330,0,0
630,694,0,0,0,0,0,0,0,0,0,-1,1854,330,0,0
637,694,0,0,0,0,0,0,0,0,0,-1,1861,330,0,0
644,694,0,0,0,0,0,0,0,0,0,-1,1868,330,0,0
651,694,0,0,0,0,0,0,0,0,0,-1,1875,330,0,0
658,694,0,0,0,0,0,0,0,0,0,-1,1882,330,0,0
665,694,0,0,0,0,0,0,0,0,0,-1,1889,330,0,0
672,694,0,0,0,0,0,0,0,0,0,-1,1896,330,0,0
679,694,0,0,0,0,0,0,0,0,0,-1,1903,330,0,0
686,694,0,0,0,0,0,0,0,0,0,-1,1910,330,0,0
693,694,0,0,0,0,0,0,0,0,0,-1,1917,330,0,0
700,694,0,0,0,0,0,0,0,0,0,-1,1924,330,0,0
707,694,0,0,0,0,0,0,0,0,0,-1,1931,330,0,0
714,694,0,0,0,0,0,0,0,0,0,-1,1938,330,0,0
721,694,0,0,0,0,0,0,0,0,0,-1,1945,330,0,0
728,694,0,0,0,0,0,0,0,0,0,-1,1952,330,0,0
735,694,0,0,0,0,0,0,0,0,0,-1,1959,330,0,0
742,694,0,0,0,0,0,0,0,0,0,-1,1966,330,0,0
749,694,0,0,0,0,0,0,0,0,0,-1,1973,330,0,0
756,694,0,0,0,0,0,0,0,0,0,-1,1980,330,0,0
763,694,0,0,0,0,0,0,0,0,0,-1,1987,330,0,0
770,694,0,0,0,0,0,0,0,0,0,-1,1994,330,0,0
777,694,0,0,0,0,0,0,0,0,0,-1,2001,330,0,0
784,694,0,0,0,0,0,0,0,0,0,-1,2008,330,0,0
791,694,0,0,0,0,0,0,0,0,0,-1,2015,330,0,0
798,694,0,0,0,0,0,0,0,0,0,-1,2022,330,0,0
805,694,0,0,0,0,0,0,0,0,0,-1,2029,330,0,0
812,694,0,0,0,0,0,0,0,0,0,-1,2036,330,0,0
-700,687,0,0,0,0,0,0,0,0,0,-1,524,337,0,0
-693,687,0,0,0,0,0,0,0,0,0,-1,531,337,0,0
-686,687,0,0,0,0,0,0,0,0,0,-1,538,337,0,0
-679,687,0,0,0,0,0,0,0,0,0,-1,545,337,0,0
-672,687,0,0,0,0,0,0,0,0,0,-1,552,337,0,0
-665,687,0,0,0,0,0,0,0,0,0,-1,559,337,0,0
-658,687,0,0,0,0,0,0,0,0,0,-1,566,337,0,0
-651,687,0,0,0,0,0,0,0,0,0,-1,573,337,0,0
-644,687,0,0,0,0,0,0,0,0,0,-1,580,337,0,0
-637,687,0,0,0,0,0,0,0,0,0,-1,587,337,0,0
-630,687,0,0,0,0,0,0,0,0,0,-1,594,337,0,0
-623,687,0,0,0,0,0,0,0,0,0,-1,601,337,0,0
-616,687,0,0,0,0,0,0,0,0,0,-1,608,337,0,0
-609,687,0,0,0,0,0,0,0,0,0,-1,615,337,0,0
-602,687,0,0,0,0,0,0,0,0,0,-1,622,337,0,0
-595,687,0,0,0,0,0,0,0,0,0,-1,629,337,0,0
-588,687,0,0,0,0,0,0,0,0,0,-1,636,337,0,0
-581,687,0,0,0,0,0,0,0,0,0,-1,643,337,0,0
-574,687,0,0,0,0,0,0,0,0,0,-1,650,337,0,0
-567,687,0,0,0,0,0,0,0,0,0,-1,657,337,0,0
-560,687,0,0,0,0,0,0,0,0,0,-1,664,337,0,0
-553,687,0,0,0,0,0,0,0,0,0,-1,671,337,0,0
-546,687,0,0,0,0,0,0,0,0,0,-1,678,337,0,0
-539,687,0,0,0,0,0,0,0,0,0,-1,685,337,0,0
-532,687,0,0,0,0,0,0,0,0,0,-1,692,337,0,0
-525,687,0,0,0,0,0,0,0,0,0,-1,699,337,0,0
-518,687,0,0,0,0,0,0,0,0,0,-1,706,337,0,0
-511,687,0,0,0,0,0,0,0,0,0,-1,713,337,0,0
-504,687,0,0,0,0,0,0,0,0,0,-1,720,337,0,0
-497,687,0,0,0,0,0,0,0,0,0,-1,727,337,0,0
-490,687,0,0,0,0,0,0,0,0,0,-1,734,337,0,0
-483,687,0,0,0,0,0,0,0,0,0,-1,741,337,0,0
-476,687,0,0,0,0,0,0,0,0,0,-1,748,337,0,0
-469,687,0,0,0,0,0,0,0,0,0,-1,755,337,0,0
-462,687,0,0,0,0,0,0,0,0,0,-1,762,337,0,0
-455,687,0,0,0,0,0,0,0,0,0,-1,769,337,0,0
-448,687,0,0,0,0,0,0,0,0,0,-1,776,337,0,0
-441,687,0,0,0,0,0,0,0,0,0,-1,783,337,0,0
-434,687,0,0,0,0,0,0,0,0,0,-1,790,337,0,0
-427,687,0,0,0,0,0,0,0,0,0,-1,797,337,0,0
-420,687,0,0,0,0,0,0,0,0,0,-1,804,337,0,0
-413,687,0,0,0,0,0,0,0,0,0,-1,811,337,0,0
-406,687,0,0,0,0,0,0,0,0,0,-1,818,337,0,0
-399,687,0,0,0,0,0,0,0,0,0,-1,825,337,0,0
-392,687,0,0,0,0,0,0,0,0,0,-1,832,337,0,0
-385,687,0,0,0,0,0,0,0,0,0,-1,839,337,0,0
-378,687,0,0,0,0,0,0,0,0,0,-1,846,337,0,0
-371,687,0,0,0,0,0,0,0,0,0,-1,853,337,0,0
-364,687,0,0,0,0,0,0,0,0,0,-1,860,337,0,0
-357,687,0,0,0,0,0,0,0,0,0,-1,867,337,0,0
-350,687,0,0,0,0,0,0,0,0,0,-1,874,337,0,0
-343,687,0,0,0,0,0,0,0,0,0,-1,881,337,0,0
-336,687,0,0,0,0,0,0,0,0,0,-1,888,337,0,0
-329,687,0,0,0,0,0,0,0,0,0,-1,895,337,0,0
-322,687,0,0,0,0,0,0,0,0,0,-1,902,337,0,0
-315,687,0,0,0,0,0,0,0,0,0,-1,909,337,0,0
-308,687,0,0,0,0,0,0,0,0,0,-1,916,337,0,0
-301,687,0,0,0,0,0,0,0,0,0,-1,923,337,0,0
-294,687,0,0,0,0,0,0,0,0,0,-1,930,337,0,0
-287,687,0,0,0,0,0,0,0,0,0,-1,937,337,0,0
-280,687,0,0,0,0,0,0,0,0,0,-1,944,337,0,0
-273,687,0,0,0,0,0,0,0,0,0,-1,951,337,0,0
-266,687,0,0,0,0,0,0,0,0,0,-1,958,337,0,0
-259,687,0,0,0,0,0,0,0,0,0,-1,965,337,0,0
-252,687,0,0,0,0,0,0,0,0,0,-1,972,337,0,0
-245,687,0,0,0,0,0,0,0,0,0,-1,979,337,0,0
-238,687,0,0,0,0,0,0,0,0,0,-1,986,337,0,0
-231,687,0,0,0,0,0,0,0,0,0,-1,993,337,0,0
-224,687,0,0,0,0,0,0,0,0,0,-1,1000,337,0,0
-217,687,0,0,0,0,0,0,0,0,0,-1,1007,337,0,0
-210,687,0,0,0,0,0,0,0,0,0,-1,1014,337,0,0
-203,687,0,0,0,0,0,0,0,0,0,-1,1021,337,0,0
-196,687,0,0,0,0,0,0,0,0,0,-1,1028,337,0,0
-189,687,0,0,0,0,0,0,0,0,0,-1,1035,337,0,0
-182,687,0,0,0,0,0,0,0,0,0,-1,1042,337,0,0
-175,687,0,0,0,0,0,0,0,0,0,-1,1049,337,0,0
-168,687,0,0,0,0,0,0,0,0,0,-1,1056,337,0,0
-161,687,0,0,0,0,0,0,0,0,0,-1,1063,337,0,0
-154,687,0,0,0,0,0,0,0,0,0,-1,1070,337,0,0
-147,687,0,0,0,0,0,0,0,0,0,-1,1077,337,0,0
-140,687,0,0,0,0,0,0,0,0,0,-1,1084,337,0,0
-133,687,3.94824,-12.1252,0,0,0,0,0,0,0,-1,1091,337,3.94828,12.1252
-126,687,4.90063,-11.4611,0,0,0,0,0,0,0,-1,1098,337,4.90064,11.4611
-119,687,2.34839,-14.2607,0,0,0,0,0,0,0,-1,1105,337,2.3484,14.2607
-112,687,4.97925,-16.3433,0,0,0,0,0,0,0,-1,1112,337,4.97921,16.3433
-105,687,5.18494,-14.7532,0,0,0,0,0,0,0,-1,1119,337,5.18497,14.7532
-98,687,6.4137,-12.3702,0,0,0,0,0,0,0,-1,1126,337,6.41364,12.3702
-91,687,2.28162,-7.72437,0,0,0,0,0,0,0,-1,1133,337,2.28167,7.72437
-84,687,-0.867676,-5.7392,0,0,0,0,0,0,0,-1,1140,337,-0.867619,5.73919
-77,687,-3.63806,-12.9185,0,0,0,0,0,0,0,-1,1147,337,-3.6381,12.9185
-70,687,-6.24756,-13.2618,0,0,0,0,0,0,0,-1,1154,337,-6.24752,13.2618
-63,687,-8.37585,-12.8959,0,0,0,0,0,0,0,-1,1161,337,-8.3758,12.8959
-56,687,-10.7112,-8.02322,0,0,0,0,0,0,0,-1,1168,337,-10.7112,8.02323
-49,687,-7.44934,-0.550262,0,0,0,0,0,0,0,-1,1175,337,-7.44938,0.550261
-42,687,-4.2019,-0.405609,0,0,0,0,0,0,0,-1,1182,337,-4.20192,0.405614
-35,687,-4.42273,-0.688171,0,0,0,0,0,0,0,-1,1189,337,-4.42276,0.688178
-28,687,-1.14038,-1.39072,0,0,0,0,0,0,0,-1,1196,337,-1.14035,1.3907
-21,687,1.9989,-14.6456,0,0,0,0,0,0,0,-1,1203,337,1.99886,14.6456
-14,687,4.74829,-12.7918,0,0,0,0,0,0,0,-1,1210,337,4.74823,12.7918
-7,687,4.43945,-13.3112,-0.00292065,-0.00933652,-0.0132651,0.00751888,-0.019776,-0.666759,0.0162798,0.0451053,1217,337,4.4395,13.3112
0,687,4.31824,-13.8489,-0.00302553,-0.0126218,-0.00720229,0.000830546,-0.0164778,-0.491561,0.0112723,0.0496788,1224,337,4.31827,13.8489
7,687,4.14783,-14.2514,-0.00133055,-0.0164545,-0.00144986,-0.00119281,-0.0165922,-0.0947162,0.0106861,0.0439649,1231,337,4.14786,14.2514
14,687,3.78796,-14.8825,-0.000329921,-0.0199035,0.00427826,0.000564335,-0.0207978,0.206057,0.0140571,0.0432213,1238,337,3.78791,14.8825
21,687,3.53198,-14.7671,0.000614899,-0.0220358,0.00954677,0.00410186,-0.0255227,0.350195,0.0185344,0.0420262,1245,337,3.53198,14.7671
28,687,2.96753,-14.7577,0.00186432,-0.0230102,0.014244,0.00833677,-0.0294827,0.426505,0.0229446,0.0442424,1252,337,2.96752,14.7577
35,687,2.20776,-15.1804,0,0,0,0,0,0,0,-1,1259,337,2.20779,15.1804
42,687,1.49072,-15.3535,0.00426904,-0.0225358,0.0218222,0.0164758,-0.0347426,0.510013,0.0301914,0.0427207,1266,337,1.49068,15.3535
49,687,0.879395,-15.2968,0.00518625,-0.0206866,0.02436,0.0198317,-0.0353321,0.541308,0.0322652,0.0450435,1273,337,0.879405,15.2968
56,687,2.71753,-13.4426,0.00611352,-0.0170711,0.0256222,0.0226437,-0.0336013,0.57296,0.0326779,0.0476642,1280,337,2.7175,13.4426
63,687,2.9043,-13.4277,0.00720347,-0.0114964,0.0253886,0.024909,-0.029202,0.608968,0.0312738,0.0431258,1287,337,2.90434,13.4277
70,687,2.55908,-13.6681,0.00625365,-0.003992,0.0252883,0.0269328,-0.0246712,0.685462,0.0298031,0.042391,1294,337,2.55914,13.6681
77,687,2.76404,-13.7741,0,0,0,0,0,0,0,-1,1301,337,2.76406,13.7741
84,687,2.5376,-13.3702,-0.0071636,0.0127454,0.0257578,0.0304053,-0.0248235,0.96979,0.0319406,0.0443198,1308,337,2.53759,13.3702
91,687,2.87488,-13.1046,-0.014124,0.0213578,0.0246293,0.0339705,-0.0267367,1.09751,0.0351322,0.0437971,1315,337,2.87489,13.1046
98,687,2.63782,-13.4217,-0.0211469,0.0293534,0.0234286,0.0385484,-0.0303419,1.1968,0.0398678,0.0467668,1322,337,2.63782,13.4217
105,687,2.7627,-13.1616,0,0,0,0,0,0,0,-1,1329,337,2.76268,13.1616
112,687,3.52539,-13.4554,0,0,0,0,0,0,0,-1,1336,337,3.52533,13.4554
119,687,3.73254,-14.3921,-0.0529861,0.0514934,0.0195526,0.0550326,-0.0565254,1.39172,0.06441,0.042996,1343,337,3.73258,14.3921
126,687,-0.418579,-12.8785,-0.0638084,0.0562729,0.0176706,0.0588192,-0.0663547,1.42768,0.0723128,0.0455885,1350,337,-0.418568,12.8785
133,687,-0.000854492,-12.8564,-0.0741219,0.0587485,0.0148676,0.0603918,-0.0757652,1.46071,0.0787771,0.0453184,1357,337,-0.000874123,12.8564
140,687,0.401733,-13.0108,-0.0831091,0.060074,0.0113372,0.0609662,-0.0840012,1.49227,0.0840484,0.0491053,1364,337,0.401679,13.0108
147,687,0.49585,-13.5247,-0.0896299,0.0596441,0.00735191,0.0600053,-0.0899911,1.5217,0.0871754,0.0466205,1371,337,0.495831,13.5247
154,687,0.597412,-13.8249,0,0,0,0,0,0,0,-1,1378,337,0.597388,13.8249
161,687,1.80078,-12.469,0,0,0,0,0,0,0,-1,1385,337,1.80076,12.469
168,687,6.66968,1.37039,0,0,0,0,0,0,0,-1,1392,337,6.6697,-1.37039
175,687,6.64075,0.771606,0,0,0,0,0,0,0,-1,1399,337,6.64073,-0.771595
182,687,6.67249,0.289917,0,0,0,0,0,0,0,-1,1406,337,6.67247,-0.289916
189,687,7.76062,4.53635,0,0,0,0,0,0,0,-1,1413,337,7.76064,-4.53636
196,687,6.99048,3.2966,0,0,0,0,0,0,0,-1,1420,337,6.99046,-3.2966
203,687,6.36499,2.1445,0,0,0,0,0,0,0,-1,1427,337,6.36499,-2.14451
210,687,6.68066,0.674652,0,0,0,0,0,0,0,-1,1434,337,6.68062,-0.674655
217,687,5.99683,-0.630493,0,0,0,0,0,0,0,-1,1441,337,5.99684,0.630497
224,687,5.52917,0.524902,0,0,0,0,0,0,0,-1,1448,337,5.5292,-0.524915
231,687,5.85583,-1.73651,0,0,0,0,0,0,0,-1,1455,337,5.85577,1.73651
238,687,5.96582,-2.96774,0,0,0,0,0,0,0,-1,1462,337,5.96577,2.96773
245,687,1.28259,2.32211,0,0,0,0,0,0,0,-1,1469,337,1.28258,-2.32211
252,687,1.97278,3.88422,0,0,0,0,0,0,0,-1,1476,337,1.97281,-3.88421
259,687,0,0,0,0,0,0,0,0,0,-1,1483,337,0,0
266,687,0,0,0,0,0,0,0,0,0,-1,1490,337,0,0
273,687,0,0,0,0,0,0,0,0,0,-1,1497,337,0,0
280,687,0,0,0,0,0,0,0,0,0,-1,1504,337,0,0
287,687,0,0,0,0,0,0,0,0,0,-1,1511,337,0,0
294,687,0,0,0,0,0,0,0,0,0,-1,1518,337,0,0
301,687,0,0,0,0,0,0,0,0,0,-1,1525,337,0,0
308,687,0,0,0,0,0,0,0,0,0,-1,1532,337,0,0
315,687,0,0,0,0,0,0,0,0,0,-1,1539,337,0,0
322,687,0,0,0,0,0,0,0,0,0,-1,1546,337,0,0
329,687,0,0,0,0,0,0,0,0,0,-1,1553,337,0,0
336,687,0,0,0,0,0,0,0,0,0,-1,1560,337,0,0
343,687,0,0,0,0,0,0,0,0,0,-1,1567,337,0,0
350,687,0,0,0,0,0,0,0,0,0,-1,1574,337,0,0
357,687,0,0,0,0,0,0,0,0,0,-1,1581,337,0,0
364,687,0,0,0,0,0,0,0,0,0,-1,1588,337,0,0
371,687,0,0,0,0,0,0,0,0,0,-1,1595,337,0,0
378,687,0,0,0,0,0,0,0,0,0,-1,1602,337,0,0
385,687,0,0,0,0,0,0,0,0,0,-1,1609,337,0,0
392,687,0,0,0,0,0,0,0,0,0,-1,1616,337,0,0
399,687,0,0,0,0,0,0,0,0,0,-1,1623,337,0,0
406,687,0,0,0,0,0,0,0,0,0,-1,1630,337,0,0
413,687,0,0,0,0,0,0,0,0,0,-1,1637,337,0,0
420,687,0,0,0,0,0,0,0,0,0,-1,1644,337,0,0
427,687,0,0,0,0,0,0,0,0,0,-1,1651,337,0,0
434,687,0,0,0,0,0,0,0,0,0,-1,1658,337,0,0
441,687,0,0,0,0,0,0,0,0,0,-1,1665,337,0,0
448,687,0,0,0,0,0,0,0,0,0,-1,1672,337,0,0
455,687,0,0,0,0,0,0,0,0,0,-1,1679,337,0,0
462,687,0,0,0,0,0,0,0,0,0,-1,1686,337,0,0
469,687,0,0,0,0,0,0,0,0,0,-1,1693,337,0,0
476,687,0,0,0,0,0,0,0,0,0,-1,1700,337,0,0
483,687,0,0,0,0,0,0,0,0,0,-1,1707,337,0,0
490,687,0,0,0,0,0,0,0,0,0,-1,1714,337,0,0
497,687,0,0,0,0,0,0,0,0,0,-1,1721,337,0,0
504,687,0,0,0,0,0,0,0,0,0,-1,1728,337,0,0
511,687,0,0,0,0,0,0,0,0,0,-1,1735,337,0,0
518,687,0,0,0,0,0,0,0,0,0,-1,1742,337,0,0
525,687,0,0,0,0,0,0,0,0,0,-1,1749,337,0,0
532,687,0,0,0,0,0,0,0,0,0,-1,1756,337,0,0
539,687,0,0,0,0,0,0,0,0,0,-1,1763,337,0,0
546,687,0,0,0,0,0,0,0,0,0,-1,1770,337,0,0
553,687,0,0,0,0,0,0,0,0,0,-1,1777,337,0,0
560,687,0,0,0,0,0,0,0,0,0,-1,1784,337,0,0
567,687,0,0,0,0,0,0,0,0,0,-1,1791,337,0,0
574,687,0,0,0,0,0,0,0,0,0,-1,1798,337,0,0
581,687,0,0,0,0,0,0,0,0,0,-1,1805,337,0,0
588,687,0,0,0,0,0,0,0,0,0,-1,1812,337,0,0
595,687,0,0,0,0,0,0,0,0,0,-1,1819,337,0,0
602,687,0,0,0,0,0,0,0,0,0,-1,1826,337,0,0
609,687,0,0,0,0,0,0,0,0,0,-1,1833,337,0,0
616,687,0,0,0,0,0,0,0,0,0,-1,1840,337,0,0
623,687,0,0,0,0,0,0,0,0,0,-1,1847,337,0,0
630,687,0,0,0,0,0,0,0,0,0,-1,1854,337,0,0
637,687,0,0,0,0,0,0,0,0,0,-1,1861,337,0,0
644,687,0,0,0,0,0,0,0,0,0,-1,1868,337,0,0
651,687,0,0,0,0,0,0,0,0,0,-1,1875,337,0,0
658,687,0,0,0,0,0,0,0,0,0,-1,1882,337,0,0
665,687,0,0,0,0,0,0,0,0,0,-1,1889,337,0,0
672,687,0,0,0,0,0,0,0,0,0,-1,1896,337,0,0
679,687,0,0,0,0,0,0,0,0,0,-1,1903,337,0,0
686,687,0,0,0,0,0,0,0,0,0,-1,1910,337,0,0
693,687,0,0,0,0,0,0,0,0,0,-1,1917,337,0,0
700,687,0,0,0,0,0,0,0,0,0,-1,1924,337,0,0
707,687,0,0,0,0,0,0,0,0,0,-1,1931,337,0,0
714,687,0,0,0,0,0,0,0,0,0,-1,1938,337,0,0
721,687,0,0,0,0,0,0,0,0,0,-1,1945,337,0,0
728,687,0,0,0,0,0,0,0,0,0,-1,1952,337,0,0
735,687,0,0,0,0,0,0,0,0,0,-1,1959,337,0,0
742,687,0,0,0,0,0,0,0,0,0,-1,1966,337,0,0
749,687,0,0,0,0,0,0,0,0,0,-1,1973,337,0,0
756,687,0,0,0,0,0,0,0,0,0,-1,1980,337,0,0
763,687,0,0,0,0,0,0,0,0,0,-1,1987,337,0,0
770,687,0,0,0,0,0,0,0,0,0,-1,1994,337,0,0
777,687,0,0,0,0,0,0,0,0,0,-1,2001,337,0,0
784,687,0,0,0,0,0,0,0,0,0,-1,2008,337,0,0
791,687,0,0,0,0,0,0,0,0,0,-1,2015,337,0,0
798,687,0,0,0,0,0,0,0,0,0,-1,2022,337,0,0
805,687,0,0,0,0,0,0,0,0,0,-1,2029,337,0,0
812,687,0,0,0,0,0,0,0,0,0,-1,2036,337,0,0
-700,680,0,0,0,0,0,0,0,0,0,-1,524,344,0,0
-693,680,0,0,0,0,0,0,0,0,0,-1,531,344,0,0
-686,680,0,0,0,0,0,0,0,0,0,-1,538,344,0,0
-679,680,0,0,0,0,0,0,0,0,0,-1,545,344,0,0
-672,680,0,0,0,0,0,0,0,0,0,-1,552,344,0,0
-665,680,0,0,0,0,0,0,0,0,0,-1,559,344,0,0
-658,680,0,0,0,0,0,0,0,0,0,-1,566,344,0,0
-651,680,0,0,0,0,0,0,0,0,0,-1,573,344,0,0
-644,680,0,0,0,0,0,0,0,0,0,-1,580,344,0,0
-637,680,0,0,0,0,0,0,0,0,0,-1,587,344,0,0
-630,680,0,0,0,0,0,0,0,0,0,-1,594,344,0,0
-623,680,0,0,0,0,0,0,0,0,0,-1,601,344,0,0
-616,680,0,0,0,0,0,0,0,0,0,-1,608,344,0,0
-609,680,0,0,0,0,0,0,0,0,0,-1,615,344,0,0
-602,680,0,0,0,0,0,0,0,0,0,-1,622,344,0,0
-595,680,0,0,0,0,0,0,0,0,0,-1,629,344,0,0
-588,680,0,0,0,0,0,0,0,0,0,-1,636,344,0,0
-581,680,0,0,0,0,0,0,0,0,0,-1,643,344,0,0
-574,680,0,0,0,0,0,0,0,0,0,-1,650,344,0,0
-567,680,0,0,0,0,0,0,0,0,0,-1,657,344,0,0
-560,680,0,0,0,0,0,0,0,0,0,-1,664,344,0,0
-553,680,0,0,0,0,0,0,0,0,0,-1,671,344,0,0
-546,680,0,0,0,0,0,0,0,0,0,-1,678,344,0,0
-539,680,0,0,0,0,0,0,0,0,0,-1,685,344,0,0
-532,680,0,0,0,0,0,0,0,0,0,-1,692,344,0,0
-525,680,0,0,0,0,0,0,0,0,0,-1,699,344,0,0
-518,680,0,0,0,0,0,0,0,0,0,-1,706,344,0,0
-511,680,0,0,0,0,0,0,0,0,0,-1,713,344,0,0
-504,680,0,0,0,0,0,0,0,0,0,-1,720,344,0,0
-497,680,0,0,0,0,0,0,0,0,0,-1,727,344,0,0
-490,680,0,0,0,0,0,0,0,0,0,-1,734,344,0,0
-483,680,0,0,0,0,0,0,0,0,0,-1,741,344,0,0
-476,680,0,0,0,0,0,0,0,0,0,-1,748,344,0,0
-469,680,0,0,0,0,0,0,0,0,0,-1,755,344,0,0
-462,680,0,0,0,0,0,0,0,0,0,-1,762,344,0,0
-455,680,0,0,0,0,0,0,0,0,0,-1,769,344,0,0
-448,680,0,0,0,0,0,0,0,0,0,-1,776,344,0,0
-441,680,0,0,0,0,0,0,0,0,0,-1,783,344,0,0
-434,680,0,0,0,0,0,0,0,0,0,-1,790,344,0,0
-427,680,0,0,0,0,0,0,0,0,0,-1,797,344,0,0
-420,680,0,0,0,0,0,0,0,0,0,-1,804,344,0,0
-413,680,0,0,0,0,0,0,0,0,0,-1,811,344,0,0
-406,680,0,0,0,0,0,0,0,0,0,-1,818,344,0,0
-399,680,0,0,0,0,0,0,0,0,0,-1,825,344,0,0
-392,680,0,0,0,0,0,0,0,0,0,-1,832,344,0,0
-385,680,0,0,0,0,0,0,0,0,0,-1,839,344,0,0
-378,680,0,0,0,0,0,0,0,0,0,-1,846,344,0,0
-371,680,0,0,0,0,0,0,0,0,0,-1,853,344,0,0
-364,680,0,0,0,0,0,0,0,0,0,-1,860,344,0,0
-357,680,0,0,0,0,0,0,0,0,0,-1,867,344,0,0
-350,680,0,0,0,0,0,0,0,0,0,-1,874,344,0,0
-343,680,0,0,0,0,0,0,0,0,0,-1,881,344,0,0
-336,680,0,0,0,0,0,0,0,0,0,-1,888,344,0,0
-329,680,0,0,0,0,0,0,0,0,0,-1,895,344,0,0
-322,680,0,0,0,0,0,0,0,0,0,-1,902,344,0,0
-315,680,0,0,0,0,0,0,0,0,0,-1,909,344,0,0
-308,680,0,0,0,0,0,0,0,0,0,-1,916,344,0,0
-301,680,0,0,0,0,0,0,0,0,0,-1,923,344,0,0
-294,680,0,0,0,0,0,0,0,0,0,-1,930,344,0,0
-287,680,0,0,0,0,0,0,0,0,0,-1,937,344,0,0
-280,680,0,0,0,0,0,0,0,0,0,-1,944,344,0,0
-273,680,0,0,0,0,0,0,0,0,0,-1,951,344,0,0
-266,680,0,0,0,0,0,0,0,0,0,-1,958,344,0,0
-259,680,0,0,0,0,0,0,0,0,0,-1,965,344,0,0
-252,680,0,0,0,0,0,0,0,0,0,-1,972,344,0,0
-245,680,0,0,0,0,0,0,0,0,0,-1,979,344,0,0
-238,680,0,0,0,0,0,0,0,0,0,-1,986,344,0,0
-231,680,0,0,0,0,0,0,0,0,0,-1,993,344,0,0
-224,680,0,0,0,0,0,0,0,0,0,-1,1000,344,0,0
-217,680,0,0,0,0,0,0,0,0,0,-1,1007,344,0,0
-210,680,0,0,0,0,0,0,0,0,0,-1,1014,344,0,0
-203,680,0,0,0,0,0,0,0,0,0,-1,1021,344,0,0
-196,680,0,0,0,0,0,0,0,0,0,-1,1028,344,0,0
-189,680,0,0,0,0,0,0,0,0,0,-1,1035,344,0,0
-182,680,0,0,0,0,0,0,0,0,0,-1,1042,344,0,0
-175,680,0,0,0,0,0,0,0,0,0,-1,1049,344,0,0
-168,680,0,0,0,0,0,0,0,0,0,-1,1056,344,0,0
-161,680,0,0,0,0,0,0,0,0,0,-1,1063,344,0,0
-154,680,2.93018,-16.3629,0,0,0,0,0,0,0,-1,1070,344,2.93013,16.3629
-147,680,3.67163,-17.456,0,0,0,0,0,0,0,-1,1077,344,3.67165,17.456
-140,680,5.20984,-17.8335,0,0,0,0,0,0,0,-1,1084,344,5.20978,17.8335
-133,680,4.31287,-11.7563,0,0,0,0,0,0,0,-1,1091,344,4.31291,11.7563
-126,680,4.96155,-14.9674,0,0,0,0,0,0,0,-1,1098,344,4.96152,14.9674
-119,680,4.70776,-14.597,0,0,0,0,0,0,0,-1,1105,344,4.70781,14.5969
-112,680,4.75183,-14.1459,0,0,0,0,0,0,0,-1,1112,344,4.75179,14.1459
-105,680,5.1084,-13.4146,0,0,0,0,0,0,0,-1,1119,344,5.10843,13.4146
-98,680,5.59875,-12.5945,0,0,0,0,0,0,0,-1,1126,344,5.59874,12.5945
-91,680,5.87854,-10.9619,0,0,0,0,0,0,0,-1,1133,344,5.8786,10.9619
-84,680,1.92285,-8.71033,0,0,0,0,0,0,0,-1,1140,344,1.92286,8.71034
-77,680,-0.118652,-5.75586,0,0,0,0,0,0,0,-1,1147,344,-0.118628,5.75586
-70,680,-4.04382,-16.124,0,0,0,0,0,0,0,-1,1154,344,-4.04388,16.124
-63,680,-5.41333,-13.0013,0,0,0,0,0,0,0,-1,1161,344,-5.41332,13.0013
-56,680,-6.96912,-8.83356,0,0,0,0,0,0,0,-1,1168,344,-6.96907,8.83354
-49,680,-6.7677,-2.24063,0,0,0,0,0,0,0,-1,1175,344,-6.76772,2.24063
-42,680,-1.02368,0.618805,0,0,0,0,0,0,0,-1,1182,344,-1.0237,-0.618797
-35,680,-0.947876,-0.942719,0,0,0,0,0,0,0,-1,1189,344,-0.947842,0.942731
-28,680,-1.46118,-1.10574,0,0,0,0,0,0,0,-1,1196,344,-1.4612,1.10575
-21,680,2.20276,-14.4115,0,0,0,0,0,0,0,-1,1203,344,2.2028,14.4115
-14,680,2.67285,-14.0973,0,0,0,0,0,0,0,-1,1210,344,2.67286,14.0973
-7,680,2.73108,-14.0606,0,0,0,0,0,0,0,-1,1217,344,2.73105,14.0606
0,680,2.75684,-14.0115,0,0,0,0,0,0,0,-1,1224,344,2.7568,14.0115
7,680,4.16602,-14.2422,0,0,0,0,0,0,0,-1,1231,344,4.16598,14.2422
14,680,3.05811,-14.1299,0,0,0,0,0,0,0,-1,1238,344,3.05811,14.1299
21,680,3.17114,-14.2709,-0.000644177,-0.0153867,0.00681813,0.0020256,-0.0180565,0.373218,0.0127665,0.0436312,1245,344,3.17116,14.2709
28,680,2.85132,-14.5328,0.000488855,-0.0159254,0.010257,0.00541807,-0.0208546,0.447983,0.0160175,0.0428857,1252,344,2.85131,14.5328
35,680,2.78992,-14.6595,0,0,0,0,0,0,0,-1,1259,344,2.78997,14.6595
42,680,2.53687,-14.3612,0.0027645,-0.0150301,0.0159601,0.0121398,-0.0244054,0.531119,0.0214918,0.0441798,1266,344,2.53683,14.3612
49,680,2.56592,-13.9919,0.00368525,-0.0132244,0.0179015,0.0150281,-0.0245672,0.564777,0.0230804,0.0405114,1273,344,2.56596,13.9919
56,680,2.66858,-13.9319,0.00465292,-0.0101516,0.0189478,0.017593,-0.0230917,0.599181,0.0235607,0.0375483,1280,344,2.6686,13.9319
63,680,2.67834,-13.8212,0.00573312,-0.00582252,0.0189224,0.0197402,-0.0198296,0.637223,0.0228456,0.0366341,1287,344,2.67833,13.8212
70,680,2.49316,-13.7909,0.0050404,-6.77895e-06,0.0191105,0.0217932,-0.0167596,0.719752,0.0223216,0.0368055,1294,344,2.49317,13.7909
77,680,2.69348,-13.9724,0.00172258,0.0064787,0.0200479,0.0242891,-0.0160878,0.844432,0.0234714,0.0438279,1301,344,2.6935,13.9723
84,680,2.74768,-13.9783,0,0,0,0,0,0,0,-1,1308,344,2.74768,13.9783
91,680,2.19092,-14.6328,-0.00994861,0.0188251,0.0192691,0.0284858,-0.0196092,1.10607,0.0279249,0.0454203,1315,344,2.19088,14.6328
98,680,2.20154,-14.0075,-0.0149538,0.0245567,0.0183805,0.031785,-0.0221821,1.19611,0.0313219,0.0450518,1322,344,2.20153,14.0075
105,680,2.59827,-13.6873,-0.0224072,0.0301428,0.0171636,0.035252,-0.0275164,1.28148,0.0363309,0.0441543,1329,344,2.59822,13.6873
112,680,2.76892,-14.3266,-0.0304752,0.0352146,0.0162258,0.0390039,-0.0342645,1.34137,0.042331,0.0449486,1336,344,2.76889,14.3266
119,680,3.45679,-14.0537,-0.0376461,0.0397708,0.0152202,0.0426556,-0.0405309,1.38348,0.048033,0.041039,1343,344,3.45682,14.0537
126,680,2.69055,-14.1784,0,0,0,0,0,0,0,-1,1350,344,2.69061,14.1784
133,680,0.957031,-13.3518,0,0,0,0,0,0,0,-1,1357,344,0.957053,13.3518
140,680,1.1488,-13.4532,-0.0570886,0.045276,0.00845089,0.045969,-0.0577815,1.48898,0.0600297,0.0485726,1364,344,1.14885,13.4532
147,680,1.31531,-13.5844,-0.0607476,0.0445561,0.00534061,0.0448263,-0.0610177,1.52025,0.0613469,0.0452591,1371,344,1.31527,13.5844
154,680,2.22986,-13.5148,0,0,0,0,0,0,0,-1,1378,344,2.2299,13.5148
161,680,1.83545,-12.9141,0,0,0,0,0,0,0,-1,1385,344,1.83546,12.9141
168,680,6.85046,1.69257,0,0,0,0,0,0,0,-1,1392,344,6.85045,-1.69257
175,680,6.66541,0.942078,0,0,0,0,0,0,0,-1,1399,344,6.66538,-0.942088
182,680,6.52917,0.532379,0,0,0,0,0,0,0,-1,1406,344,6.52922,-0.532385
189,680,7.55884,4.77695,0,0,0,0,0,0,0,-1,1413,344,7.55886,-4.77694
196,680,6.55627,3.35254,0,0,0,0,0,0,0,-1,1420,344,6.55622,-3.35255
203,680,5.7334,1.90753,0,0,0,0,0,0,0,-1,1427,344,5.73341,-1.90754
210,680,5.27515,0.493622,0,0,0,0,0,0,0,-1,1434,344,5.27514,-0.493632
217,680,6.56384,-0.374176,0,0,0,0,0,0,0,-1,1441,344,6.56379,0.374176
224,680,3.9491,-0.640228,0,0,0,0,0,0,0,-1,1448,344,3.94908,0.64024
231,680,4.24866,-1.96881,0,0,0,0,0,0,0,-1,1455,344,4.2486,1.96882
238,680,4.29333,-3.23984,0,0,0,0,0,0,0,-1,1462,344,4.29332,3.23984
245,680,2.44397,0.985382,0,0,0,0,0,0,0,-1,1469,344,2.44402,-0.985394
252,680,3.07349,2.18951,0,0,0,0,0,0,0,-1,1476,344,3.0735,-2.18952
259,680,2.82971,1.30682,0,0,0,0,0,0,0,-1,1483,344,2.82972,-1.30684
266,680,2.67554,1.44067,0,0,0,0,0,0,0,-1,1490,344,2.67551,-1.44066
273,680,2.46411,1.54666,0,0,0,0,0,0,0,-1,1497,344,2.46407,-1.54666
280,680,0,0,0,0,0,0,0,0,0,-1,1504,344,0,0
287,680,0,0,0,0,0,0,0,0,0,-1,1511,344,0,0
294,680,0,0,0,0,0,0,0,0,0,-1,1518,344,0,0
301,680,0,0,0,0,0,0,0,0,0,-1,1525,344,0,0
308,680,0,0,0,0,0,0,0,0,0,-1,1532,344,0,0
315,680,0,0,0,0,0,0,0,0,0,-1,1539,344,0,0
322,680,0,0,0,0,0,0,0,0,0,-1,1546,344,0,0
329,680,0,0,0,0,0,0,0,0,0,-1,1553,344,0,0
336,680,0,0,0,0,0,0,0,0,0,-1,1560,344,0,0
343,680,0,0,0,0,0,0,0,0,0,-1,1567,344,0,0
350,680,0,0,0,0,0,0,0,0,0,-1,1574,344,0,0
357,680,0,0,0,0,0,0,0,0,0,-1,1581,344,0,0
364,680,0,0,0,0,0,0,0,0,0,-1,1588,344,0,0
371,680,0,0,0,0,0,0,0,0,0,-1,1595,344,0,0
378,680,0,0,0,0,0,0,0,0,0,-1,1602,344,0,0
385,680,0,0,0,0,0,0,0,0,0,-1,1609,344,0,0
392,680,0,0,0,0,0,0,0,0,0,-1,1616,344,0,0
399,680,0,0,0,0,0,0,0,0,0,-1,1623,344,0,0
406,680,0,0,0,0,0,0,0,0,0,-1,1630,344,0,0
413,680,0,0,0,0,0,0,0,0,0,-1,1637,344,0,0
420,680,0,0,0,0,0,0,0,0,0,-1,1644,344,0,0
427,680,0,0,0,0,0,0,0,0,0,-1,1651,344,0,0
434,680,0,0,0,0,0,0,0,0,0,-1,1658,344,0,0
441,680,0,0,0,0,0,0,0,0,0,-1,1665,344,0,0
448,680,0,0,0,0,0,0,0,0,0,-1,1672,344,0,0
455,680,0,0,0,0,0,0,0,0,0,-1,1679,344,0,0
462,680,0,0,0,0,0,0,0,0,0,-1,1686,344,0,0
469,680,0,0,0,0,0,0,0,0,0,-1,1693,344,0,0
476,680,0,0,0,0,0,0,0,0,0,-1,1700,344,0,0
483,680,0,0,0,0,0,0,0,0,0,-1,1707,344,0,0
490,680,0,0,0,0,0,0,0,0,0,-1,1714,344,0,0
497,680,0,0,0,0,0,0,0,0,0,-1,1721,344,0,0
504,680,0,0,0,0,0,0,0,0,0,-1,1728,344,0,0
511,680,0,0,0,0,0,0,0,0,0,-1,1735,344,0,0
518,680,0,0,0,0,0,0,0,0,0,-1,1742,344,0,0
525,680,0,0,0,0,0,0,0,0,0,-1,1749,344,0,0
532,680,0,0,0,0,0,0,0,0,0,-1,1756,344,0,0
539,680,0,0,0,0,0,0,0,0,0,-1,1763,344,0,0
546,680,0,0,0,0,0,0,0,0,0,-1,1770,344,0,0
553,680,0,0,0,0,0,0,0,0,0,-1,1777,344,0,0
560,680,0,0,0,0,0,0,0,0,0,-1,1784,344,0,0
567,680,0,0,0,0,0,0,0,0,0,-1,1791,344,0,0
574,680,0,0,0,0,0,0,0,0,0,-1,1798,344,0,0
581,680,0,0,0,0,0,0,0,0,0,-1,1805,344,0,0
588,680,0,0,0,0,0,0,0,0,0,-1,1812,344,0,0
595,680,0,0,0,0,0,0,0,0,0,-1,1819,344,0,0
602,680,0,0,0,0,0,0,0,0,0,-1,1826,344,0,0
609,680,0,0,0,0,0,0,0,0,0,-1,1833,344,0,0
616,680,0,0,0,0,0,0,0,0,0,-1,1840,344,0,0
623,680,0,0,0,0,0,0,0,0,0,-1,1847,344,0,0
630,680,0,0,0,0,0,0,0,0,0,-1,1854,344,0,0
637,680,0,0,0,0,0,0,0,0,0,-1,1861,344,0,0
644,680,0,0,0,0,0,0,0,0,0,-1,1868,344,0,0
651,680,0,0,0,0,0,0,0,0,0,-1,1875,344,0,0
658,680,0,0,0,0,0,0,0,0,0,-1,1882,344,0,0
665,680,0,0,0,0,0,0,0,0,0,-1,1889,344,0,0
672,680,0,0,0,0,0,0,0,0,0,-1,1896,344,0,0
679,680,0,0,0,0,0,0,0,0,0,-1,1903,344,0,0
686,680,0,0,0,0,0,0,0,0,0,-1,1910,344,0,0
693,680,0,0,0,0,0,0,0,0,0,-1,1917,344,0,0
700,680,0,0,0,0,0,0,0,0,0,-1,1924,344,0,0
707,680,0,0,0,0,0,0,0,0,0,-1,1931,344,0,0
714,680,0,0,0,0,0,0,0,0,0,-1,1938,344,0,0
721,680,0,0,0,0,0,0,0,0,0,-1,1945,344,0,0
728,680,0,0,0,0,0,0,0,0,0,-1,1952,344,0,0
735,680,0,0,0,0,0,0,0,0,0,-1,1959,344,0,0
742,680,0,0,0,0,0,0,0,0,0,-1,1966,344,0,0
749,680,0,0,0,0,0,0,0,0,0,-1,1973,344,0,0
756,680,0,0,0,0,0,0,0,0,0,-1,1980,344,0,0
763,680,0,0,0,0,0,0,0,0,0,-1,1987,344,0,0
770,680,0,0,0,0,0,0,0,0,0,-1,1994,344,0,0
777,680,0,0,0,0,0,0,0,0,0,-1,2001,344,0,0
784,680,0,0,0,0,0,0,0,0,0,-1,2008,344,0,0
791,680,0,0,0,0,0,0,0,0,0,-1,2015,344,0,0
798,680,0,0,0,0,0,0,0,0,0,-1,2022,344,0,0
805,680,0,0,0,0,0,0,0,0,0,-1,2029,344,0,0
812,680,0,0,0,0,0,0,0,0,0,-1,2036,344,0,0
-700,673,0,0,0,0,0,0,0,0,0,-1,524,351,0,0
-693,673,0,0,0,0,0,0,0,0,0,-1,531,351,0,0
-686,673,0,0,0,0,0,0,0,0,0,-1,538,351,0,0
-679,673,0,0,0,0,0,0,0,0,0,-1,545,351,0,0
-672,673,0,0,0,0,0,0,0,0,0,-1,552,351,0,0
-665,673,0,0,0,0,0,0,0,0,0,-1,559,351,0,0
-658,673,0,0,0,0,0,0,0,0,0,-1,566,351,0,0
-651,673,0,0,0,0,0,0,0,0,0,-1,573,351,0,0
-644,673,0,0,0,0,0,0,0,0,0,-1,580,351,0,0
-637,673,0,0,0,0,0,0,0,0,0,-1,587,351,0,0
-630,673,0,0,0,0,0,0,0,0,0,-1,594,351,0,0
-623,673,0,0,0,0,0,0,0,0,0,-1,601,351,0,0
-616,673,0,0,0,0,0,0,0,0,0,-1,608,351,0,0
-609,673,0,0,0,0,0,0,0,0,0,-1,615,351,0,0
-602,673,0,0,0,0,0,0,0,0,0,-1,622,351,0,0
-595,673,0,0,0,0,0,0,0,0,0,-1,629,351,0,0
-588,673,0,0,0,0,0,0,0,0,0,-1,636,351,0,0
-581,673,0,0,0,0,0,0,0,0,0,-1,643,351,0,0
-574,673,0,0,0,0,0,0,0,0,0,-1,650,351,0,0
-567,673,0,0,0,0,0,0,0,0,0,-1,657,351,0,0
-560,673,0,0,0,0,0,0,0,0,0,-1,664,351,0,0
-553,673,0,0,0,0,0,0,0,0,0,-1,671,351,0,0
-546,673,0,0,0,0,0,0,0,0,0,-1,678,351,0,0
-539,673,0,0,0,0,0,0,0,0,0,-1,685,351,0,0
-532,673,0,0,0,0,0,0,0,0,0,-1,692,351,0,0
-525,673,0,0,0,0,0,0,0,0,0,-1,699,351,0,0
-518,673,0,0,0,0,0,0,0,0,0,-1,706,351,0,0
-511,673,0,0,0,0,0,0,0,0,0,-1,713,351,0,0
-504,673,0,0,0,0,0,0,0,0,0,-1,720,351,0,0
-497,673,0,0,0,0,0,0,0,0,0,-1,727,351,0,0
-490,673,0,0,0,0,0,0,0,0,0,-1,734,351,0,0
-483,673,0,0,0,0,0,0,0,0,0,-1,741,351,0,0
-476,673,0,0,0,0,0,0,0,0,0,-1,748,351,0,0
-469,673,0,0,0,0,0,0,0,0,0,-1,755,351,0,0
-462,673,0,0,0,0,0,0,0,0,0,-1,762,351,0,0
-455,673,0,0,0,0,0,0,0,0,0,-1,769,351,0,0
-448,673,0,0,0,0,0,0,0,0,0,-1,776,351,0,0
-441,673,0,0,0,0,0,0,0,0,0,-1,783,351,0,0
-434,673,0,0,0,0,0,0,0,0,0,-1,790,351,0,0
-427,673,0,0,0,0,0,0,0,0,0,-1,797,351,0,0
-420,673,0,0,0,0,0,0,0,0,0,-1,804,351,0,0
-413,673,0,0,0,0,0,0,0,0,0,-1,811,351,0,0
-406,673,0,0,0,0,0,0,0,0,0,-1,818,351,0,0
-399,673,0,0,0,0,0,0,0,0,0,-1,825,351,0,0
-392,673,0,0,0,0,0,0,0,0,0,-1,832,351,0,0
-385,673,0,0,0,0,0,0,0,0,0,-1,839,351,0,0
-378,673,0,0,0,0,0,0,0,0,0,-1,846,351,0,0
-371,673,0,0,0,0,0,0,0,0,0,-1,853,351,0,0
-364,673,0,0,0,0,0,0,0,0,0,-1,860,351,0,0
-357,673,0,0,0,0,0,0,0,0,0,-1,867,351,0,0
-350,673,0,0,0,0,0,0,0,0,0,-1,874,351,0,0
-343,673,0,0,0,0,0,0,0,0,0,-1,881,351,0,0
-336,673,0,0,0,0,0,0,0,0,0,-1,888,351,0,0
-329,673,0,0,0,0,0,0,0,0,0,-1,895,351,0,0
-322,673,0,0,0,0,0,0,0,0,0,-1,902,351,0,0
-315,673,0,0,0,0,0,0,0,0,0,-1,909,351,0,0
-308,673,0,0,0,0,0,0,0,0,0,-1,916,351,0,0
-301,673,0,0,0,0,0,0,0,0,0,-1,923,351,0,0
-294,673,0,0,0,0,0,0,0,0,0,-1,930,351,0,0
-287,673,0,0,0,0,0,0,0,0,0,-1,937,351,0,0
-280,673,0,0,0,0,0,0,0,0,0,-1,944,351,0,0
-273,673,0,0,0,0,0,0,0,0,0,-1,951,351,0,0
-266,673,0,0,0,0,0,0,0,0,0,-1,958,351,0,0
-259,673,0,0,0,0,0,0,0,0,0,-1,965,351,0,0
-252,673,0,0,0,0,0,0,0,0,0,-1,972,351,0,0
-245,673,0,0,0,0,0,0,0,0,0,-1,979,351,0,0
-238,673,0,0,0,0,0,0,0,0,0,-1,986,351,0,0
-231,673,0,0,0,0,0,0,0,0,0,-1,993,351,0,0
-224,673,0,0,0,0,0,0,0,0,0,-1,1000,351,0,0
-217,673,0,0,0,0,0,0,0,0,0,-1,1007,351,0,0
-210,673,0,0,0,0,0,0,0,0,0,-1,1014,351,0,0
-203,673,0,0,0,0,0,0,0,0,0,-1,1021,351,0,0
-196,673,0,0,0,0,0,0,0,0,0,-1,1028,351,0,0
-189,673,0,0,0,0,0,0,0,0,0,-1,1035,351,0,0
-182,673,0,0,0,0,0,0,0,0,0,-1,1042,351,0,0
-175,673,0.0117188,-12.6462,0,0,0,0,0,0,0,-1,1049,351,0.0117447,12.6462
-168,673,0.9375,-13.6093,0,0,0,0,0,0,0,-1,1056,351,0.937509,13.6093
-161,673,2.07959,-14.7435,0,0,0,0,0,0,0,-1,1063,351,2.07955,14.7435
-154,673,3.1676,-15.8547,0,0,0,0,0,0,0,-1,1070,351,3.16758,15.8547
-147,673,4.38293,-16.4111,0,0,0,0,0,0,0,-1,1077,351,4.38293,16.4111
-140,673,5.70911,-16.5766,0,0,0,0,0,0,0,-1,1084,351,5.70908,16.5766
-133,673,4.30469,-14.0368,0,0,0,0,0,0,0,-1,1091,351,4.30475,14.0368
-126,673,4.19592,-13.8611,0,0,0,0,0,0,0,-1,1098,351,4.19598,13.8611
-119,673,4.26392,-13.8898,0,0,0,0,0,0,0,-1,1105,351,4.26397,13.8898
-112,673,4.4032,-13.5573,0,0,0,0,0,0,0,-1,1112,351,4.40325,13.5573
-105,673,4.72278,-13.1439,0,0,0,0,0,0,0,-1,1119,351,4.72277,13.1439
-98,673,4.82996,-12.5567,0,0,0,0,0,0,0,-1,1126,351,4.83,12.5567
-91,673,5.16553,-12.0648,0,0,0,0,0,0,0,-1,1133,351,5.16547,12.0647
-84,673,2.86609,-11.5558,0,0,0,0,0,0,0,-1,1140,351,2.86611,11.5558
-77,673,1.60266,-8.87473,0,0,0,0,0,0,0,-1,1147,351,1.60268,8.87474
-70,673,1.88684,-4.7381,0,0,0,0,0,0,0,-1,1154,351,1.88682,4.73809
-63,673,1.11719,-2.95016,0,0,0,0,0,0,0,-1,1161,351,1.11724,2.95016
-56,673,-6.18872,-9.52338,0,0,0,0,0,0,0,-1,1168,351,-6.18874,9.52336
-49,673,-0.926758,-0.115448,0,0,0,0,0,0,0,-1,1175,351,-0.926732,0.115444
-42,673,-1.15015,0.289917,0,0,0,0,0,0,0,-1,1182,351,-1.15017,-0.289932
-35,673,-0.919556,-1.00711,0,0,0,0,0,0,0,-1,1189,351,-0.919514,1.00711
-28,673,1.03564,-2.58228,0,0,0,0,0,0,0,-1,1196,351,1.0356,2.58229
-21,673,2.84668,-14.1044,0,0,0,0,0,0,0,-1,1203,351,2.84669,14.1044
-14,673,2.65735,-14.1224,-0.00284077,-0.00255268,-0.0085923,0.00589678,-0.0112902,-0.79378,0.0100845,0.0432315,1210,351,2.65734,14.1224
-7,673,2.7312,-14.1428,-0.00398092,-0.00404963,-0.00670024,0.00268506,-0.0107156,-0.782834,0.00818686,0.0433926,1217,351,2.73123,14.1428
0,673,2.76563,-14.1281,-0.00367465,-0.00583536,-0.00367657,-0.00092299,-0.00858701,-0.642496,0.00544316,0.0447633,1224,351,2.76561,14.1281
7,673,2.80505,-14.2092,-0.00243591,-0.00771238,-0.000737773,-0.00233469,-0.0078136,-0.13634,0.00463133,0.0454803,1231,351,2.80503,14.2092
14,673,2.90125,-14.2497,-0.0018887,-0.00934676,0.0021443,-0.00131613,-0.00991932,0.260928,0.00622075,0.0391407,1238,351,2.90124,14.2497
21,673,2.76636,-14.3181,-0.00128955,-0.0102315,0.00481646,0.000811228,-0.0123323,0.411291,0.00850482,0.0257731,1245,351,2.76639,14.3181
28,673,2.76099,-14.33,-0.000335393,-0.0104849,0.00724228,0.00343314,-0.0142534,0.479796,0.0108296,0.0175036,1252,351,2.76101,14.33
35,673,2.77136,-14.3772,0.000701842,-0.0104744,0.00929364,0.00595802,-0.0157306,0.514716,0.0129387,0.0246245,1259,351,2.77135,14.3772
42,673,2.66602,-14.3931,0.00163099,-0.00947737,0.0113881,0.0087472,-0.0165936,0.558512,0.0148624,0.0285399,1266,351,2.66601,14.3931
49,673,2.64624,-14.3621,0.00246216,-0.00786769,0.0128258,0.011124,-0.0165295,0.593984,0.0160671,0.0182781,1273,351,2.64624,14.3621
56,673,2.63574,-14.326,0.00335688,-0.00536948,0.0136507,0.0133248,-0.0153374,0.630714,0.0165617,0.0141251,1280,351,2.63574,14.3261
63,673,2.64246,-14.262,0.00433491,-0.00211833,0.0137367,0.0152189,-0.0130023,0.670044,0.0163102,0.0156986,1287,351,2.6424,14.262
70,673,2.59924,-14.2242,0.00386085,0.00224585,0.0140734,0.0171499,-0.0110432,0.756741,0.0164041,0.0248045,1294,351,2.59924,14.2242
77,673,2.62866,-14.1866,0.00148971,0.00702065,0.0150112,0.019519,-0.0110086,0.87649,0.017852,0.0369055,1301,351,2.62864,14.1866
84,673,2.54382,-14.4467,-0.0031853,0.0114819,0.0152056,0.02103,-0.0127334,1.01009,0.0196885,0.0424653,1308,351,2.54388,14.4467
91,673,2.37585,-14.5079,-0.00681833,0.0158358,0.0146742,0.0230461,-0.0140287,1.11408,0.0216151,0.0442975,1315,351,2.37583,14.5079
98,673,2.3916,-14.2887,-0.0102925,0.0198508,0.0140282,0.0253691,-0.0158108,1.19602,0.0239878,0.0431866,1322,351,2.39158,14.2887
105,673,2.55542,-14.002,-0.0155675,0.0236858,0.0131604,0.0276897,-0.0195714,1.27546,0.0274201,0.0400135,1329,351,2.55542,14.002
112,673,2.62769,-14.1322,-0.0212215,0.0270277,0.0123656,0.0300122,-0.024206,1.33397,0.0313627,0.0383948,1336,351,2.62764,14.1322
119,673,2.8645,-14.0248,-0.0259506,0.0299522,0.0115175,0.0322322,-0.0282305,1.37537,0.0349336,0.0369152,1343,351,2.86456,14.0248
126,673,2.55212,-14.0968,-0.0305476,0.0318661,0.0102152,0.0334955,-0.032177,1.41262,0.0379186,0.0393269,1350,351,2.55213,14.0968
133,673,2.3468,-13.8982,-0.0347157,0.0327513,0.00834833,0.033769,-0.0357333,1.44949,0.0401325,0.0411995,1357,351,2.3468,13.8982
140,673,1.79504,-13.858,-0.0379729,0.0332001,0.0061295,0.0337241,-0.0384969,1.48551,0.0417272,0.0414409,1364,351,1.7951,13.858
147,673,1.91858,-13.7637,-0.0398615,0.032327,0.00374565,0.0325208,-0.0400553,1.51909,0.0419771,0.041556,1371,351,1.91859,13.7637
154,673,2.29102,-13.6149,-0.0405707,0.0312473,0.00141148,0.031275,-0.0405984,1.55115,0.0416123,0.0406562,1378,351,2.29104,13.6149
161,673,2.35852,-13.6244,0,0,0,0,0,0,0,-1,1385,351,2.35849,13.6244
168,673,6.87061,1.83954,0,0,0,0,0,0,0,-1,1392,351,6.87063,-1.83953
175,673,6.6228,1.1459,0,0,0,0,0,0,0,-1,1399,351,6.62276,-1.14591
182,673,6.37244,0.796112,0,0,0,0,0,0,0,-1,1406,351,6.3724,-0.796102
189,673,6.12097,0.265472,0,0,0,0,0,0,0,-1,1413,351,6.121,-0.265482
196,673,6.02173,3.12717,0,0,0,0,0,0,0,-1,1420,351,6.02176,-3.12717
203,673,5.04456,1.6351,0,0,0,0,0,0,0,-1,1427,351,5.04455,-1.63509
210,673,4.79224,0.447479,0,0,0,0,0,0,0,-1,1434,351,4.79229,-0.447469
217,673,2.01648,0.972687,0,0,0,0,0,0,0,-1,1441,351,2.01644,-0.972691
224,673,2.3689,-1.80539,0,0,0,0,0,0,0,-1,1448,351,2.36896,1.80539
231,673,2.65857,-2.18497,0,0,0,0,0,0,0,-1,1455,351,2.65852,2.18496
238,673,3.24146,-1.01593,0,0,0,0,0,0,0,-1,1462,351,3.24142,1.01593
245,673,3.5376,-0.190399,0,0,0,0,0,0,0,-1,1469,351,3.53759,0.1904
252,673,3.80518,0.55603,0,0,0,0,0,0,0,-1,1476,351,3.80519,-0.556022
259,673,3.88562,1.29617,0,0,0,0,0,0,0,-1,1483,351,3.88562,-1.29618
266,673,4.22424,2.04834,0,0,0,0,0,0,0,-1,1490,351,4.22429,-2.04834
273,673,6.07886,0.385895,0,0,0,0,0,0,0,-1,1497,351,6.0789,-0.385906
280,673,6.97534,-0.0820007,0,0,0,0,0,0,0,-1,1504,351,6.97536,0.0820122
287,673,7.66968,-0.348541,0,0,0,0,0,0,0,-1,1511,351,7.66969,0.348534
294,673,8.20996,0.28537,0,0,0,0,0,0,0,-1,1518,351,8.20993,-0.28536
301,673,0,0,0,0,0,0,0,0,0,-1,1525,351,0,0
308,673,0,0,0,0,0,0,0,0,0,-1,1532,351,0,0
315,673,0,0,0,0,0,0,0,0,0,-1,1539,351,0,0
322,673,0,0,0,0,0,0,0,0,0,-1,1546,351,0,0
329,673,0,0,0,0,0,0,0,0,0,-1,1553,351,0,0
336,673,0,0,0,0,0,0,0,0,0,-1,1560,351,0,0
343,673,0,0,0,0,0,0,0,0,0,-1,1567,351,0,0
350,673,0,0,0,0,0,0,0,0,0,-1,1574,351,0,0
357,673,0,0,0,0,0,0,0,0,0,-1,1581,351,0,0
364,673,0,0,0,0,0,0,0,0,0,-1,1588,351,0,0
371,673,0,0,0,0,0,0,0,0,0,-1,1595,351,0,0
378,673,0,0,0,0,0,0,0,0,0,-1,1602,351,0,0
385,673,0,0,0,0,0,0,0,0,0,-1,1609,351,0,0
392,673,0,0,0,0,0,0,0,0,0,-1,1616,351,0,0
399,673,0,0,0,0,0,0,0,0,0,-1,1623,351,0,0
406,673,0,0,0,0,0,0,0,0,0,-1,1630,351,0,0
413,673,0,0,0,0,0,0,0,0,0,-1,1637,351,0,0
420,673,0,0,0,0,0,0,0,0,0,-1,1644,351,0,0
427,673,0,0,0,0,0,0,0,0,0,-1,1651,351,0,0
434,673,0,0,0,0,0,0,0,0,0,-1,1658,351,0,0
441,673,0,0,0,0,0,0,0,0,0,-1,1665,351,0,0
448,673,0,0,0,0,0,0,0,0,0,-1,1672,351,0,0
455,673,0,0,0,0,0,0,0,0,0,-1,1679,351,0,0
462,673,0,0,0,0,0,0,0,0,0,-1,1686,351,0,0
469,673,0,0,0,0,0,0,0,0,0,-1,1693,351,0,0
476,673,0,0,0,0,0,0,0,0,0,-1,1700,351,0,0
483,673,0,0,0,0,0,0,0,0,0,-1,1707,351,0,0
490,673,0,0,0,0,0,0,0,0,0,-1,1714,351,0,0
497,673,0,0,0,0,0,0,0,0,0,-1,1721,351,0,0
504,673,0,0,0,0,0,0,0,0,0,-1,1728,351,0,0
511,673,0,0,0,0,0,0,0,0,0,-1,1735,351,0,0
518,673,0,0,0,0,0,0,0,0,0,-1,1742,351,0,0
525,673,0,0,0,0,0,0,0,0,0,-1,1749,351,0,0
532,673,0,0,0,0,0,0,0,0,0,-1,1756,351,0,0
539,673,0,0,0,0,0,0,0,0,0,-1,1763,351,0,0
546,673,0,0,0,0,0,0,0,0,0,-1,1770,351,0,0
553,673,0,0,0,0,0,0,0,0,0,-1,1777,351,0,0
560,673,0,0,0,0,0,0,0,0,0,-1,1784,351,0,0
567,673,0,0,0,0,0,0,0,0,0,-1,1791,351,0,0
574,673,0,0,0,0,0,0,0,0,0,-1,1798,351,0,0
581,673,0,0,0,0,0,0,0,0,0,-1,1805,351,0,0
588,673,0,0,0,0,0,0,0,0,0,-1,1812,351,0,0
595,673,0,0,0,0,0,0,0,0,0,-1,1819,351,0,0
602,673,0,0,0,0,0,0,0,0,0,-1,1826,351,0,0
609,673,0,0,0,0,0,0,0,0,0,-1,1833,351,0,0
616,673,0,0,0,0,0,0,0,0,0,-1,1840,351,0,0
623,673,0,0,0,0,0,0,0,0,0,-1,1847,351,0,0
630,673,0,0,0,0,0,0,0,0,0,-1,1854,351,0,0
637,673,0,0,0,0,0,0,0,0,0,-1,1861,351,0,0
644,673,0,0,0,0,0,0,0,0,0,-1,1868,351,0,0
651,673,0,0,0,0,0,0,0,0,0,-1,1875,351,0,0
658,673,0,0,0,0,0,0,0,0,0,-1,1882,351,0,0
665,673,0,0,0,0,0,0,0,0,0,-1,1889,351,0,0
672,673,0,0,0,0,0,0,0,0,0,-1,1896,351,0,0
679,673,0,0,0,0,0,0,0,0,0,-1,1903,351,0,0
686,673,0,0,0,0,0,0,0,0,0,-1,1910,351,0,0
693,673,0,0,0,0,0,0,0,0,0,-1,1917,351,0,0
700,673,0,0,0,0,0,0,0,0,0,-1,1924,351,0,0
707,673,0,0,0,0,0,0,0,0,0,-1,1931,351,0,0
714,673,0,0,0,0,0,0,0,0,0,-1,1938,351,0,0
721,673,0,0,0,0,0,0,0,0,0,-1,1945,351,0,0
728,673,0,0,0,0,0,0,0,0,0,-1,1952,351,0,0
735,673,0,0,0,0,0,0,0,0,0,-1,1959,351,0,0
742,673,0,0,0,0,0,0,0,0,0,-1,1966,351,0,0
749,673,0,0,0,0,0,0,0,0,0,-1,1973,351,0,0
756,673,0,0,0,0,0,0,0,0,0,-1,1980,351,0,0
763,673,0,0,0,0,0,0,0,0,0,-1,1987,351,0,0
770,673,0,0,0,0,0,0,0,0,0,-1,1994,351,0,0
777,673,0,0,0,0,0,0,0,0,0,-1,2001,351,0,0
784,673,0,0,0,0,0,0,0,0,0,-1,2008,351,0,0
791,673,0,0,0,0,0,0,0,0,0,-1,2015,351,0,0
798,673,0,0,0,0,0,0,0,0,0,-1,2022,351,0,0
805,673,0,0,0,0,0,0,0,0,0,-1,2029,351,0,0
812,673,0,0,0,0,0,0,0,0,0,-1,2036,351,0,0
-700,666,0,0,0,0,0,0,0,0,0,-1,524,358,0,0
-693,666,0,0,0,0,0,0,0,0,0,-1,531,358,0,0
-686,666,0,0,0,0,0,0,0,0,0,-1,538,358,0,0
-679,666,0,0,0,0,0,0,0,0,0,-1,545,358,0,0
-672,666,0,0,0,0,0,0,0,0,0,-1,552,358,0,0
-665,666,0,0,0,0,0,0,0,0,0,-1,559,358,0,0
-658,666,0,0,0,0,0,0,0,0,0,-1,566,358,0,0
-651,666,0,0,0,0,0,0,0,0,0,-1,573,358,0,0
-644,666,0,0,0,0,0,0,0,0,0,-1,580,358,0,0
-637,666,0,0,0,0,0,0,0,0,0,-1,587,358,0,0
-630,666,0,0,0,0,0,0,0,0,0,-1,594,358,0,0
-623,666,0,0,0,0,0,0,0,0,0,-1,601,358,0,0
-616,666,0,0,0,0,0,0,0,0,0,-1,608,358,0,0
-609,666,0,0,0,0,0,0,0,0,0,-1,615,358,0,0
-602,666,0,0,0,0,0,0,0,0,0,-1,622,358,0,0
-595,666,0,0,0,0,0,0,0,0,0,-1,629,358,0,0
-588,666,0,0,0,0,0,0,0,0,0,-1,636,358,0,0
-581,666,0,0,0,0,0,0,0,0,0,-1,643,358,0,0
-574,666,0,0,0,0,0,0,0,0,0,-1,650,358,0,0
-567,666,0,0,0,0,0,0,0,0,0,-1,657,358,0,0
-560,666,0,0,0,0,0,0,0,0,0,-1,664,358,0,0
-553,666,0,0,0,0,0,0,0,0,0,-1,671,358,0,0
-546,666,0,0,0,0,0,0,0,0,0,-1,678,358,0,0
-539,666,0,0,0,0,0,0,0,0,0,-1,685,358,0,0
-532,666,0,0,0,0,0,0,0,0,0,-1,692,358,0,0
-525,666,0,0,0,0,0,0,0,0,0,-1,699,358,0,0
-518,666,0,0,0,0,0,0,0,0,0,-1,706,358,0,0
-511,666,0,0,0,0,0,0,0,0,0,-1,713,358,0,0
-504,666,0,0,0,0,0,0,0,0,0,-1,720,358,0,0
-497,666,0,0,0,0,0,0,0,0,0,-1,727,358,0,0
-490,666,0,0,0,0,0,0,0,0,0,-1,734,358,0,0
-483,666,0,0,0,0,0,0,0,0,0,-1,741,358,0,0
-476,666,0,0,0,0,0,0,0,0,0,-1,748,358,0,0
-469,666,0,0,0,0,0,0,0,0,0,-1,755,358,0,0
-462,666,0,0,0,0,0,0,0,0,0,-1,762,358,0,0
-455,666,0,0,0,0,0,0,0,0,0,-1,769,358,0,0
-448,666,0,0,0,0,0,0,0,0,0,-1,776,358,0,0
-441,666,0,0,0,0,0,0,0,0,0,-1,783,358,0,0
-434,666,0,0,0,0,0,0,0,0,0,-1,790,358,0,0
-427,666,0,0,0,0,0,0,0,0,0,-1,797,358,0,0
-420,666,0,0,0,0,0,0,0,0,0,-1,804,358,0,0
-413,666,0,0,0,0,0,0,0,0,0,-1,811,358,0,0
-406,666,0,0,0,0,0,0,0,0,0,-1,818,358,0,0
-399,666,0,0,0,0,0,0,0,0,0,-1,825,358,0,0
-392,666,0,0,0,0,0,0,0,0,0,-1,832,358,0,0
-385,666,0,0,0,0,0,0,0,0,0,-1,839,358,0,0
-378,666,0,0,0,0,0,0,0,0,0,-1,846,358,0,0
-371,666,0,0,0,0,0,0,0,0,0,-1,853,358,0,0
-364,666,0,0,0,0,0,0,0,0,0,-1,860,358,0,0
-357,666,0,0,0,0,0,0,0,0,0,-1,867,358,0,0
-350,666,0,0,0,0,0,0,0,0,0,-1,874,358,0,0
-343,666,0,0,0,0,0,0,0,0,0,-1,881,358,0,0
-336,666,0,0,0,0,0,0,0,0,0,-1,888,358,0,0
-329,666,0,0,0,0,0,0,0,0,0,-1,895,358,0,0
-322,666,0,0,0,0,0,0,0,0,0,-1,902,358,0,0
-315,666,0,0,0,0,0,0,0,0,0,-1,909,358,0,0
-308,666,0,0,0,0,0,0,0,0,0,-1,916,358,0,0
-301,666,0,0,0,0,0,0,0,0,0,-1,923,358,0,0
-294,666,0,0,0,0,0,0,0,0,0,-1,930,358,0,0
-287,666,0,0,0,0,0,0,0,0,0,-1,937,358,0,0
-280,666,0,0,0,0,0,0,0,0,0,-1,944,358,0,0
-273,666,0,0,0,0,0,0,0,0,0,-1,951,358,0,0
-266,666,0,0,0,0,0,0,0,0,0,-1,958,358,0,0
-259,666,0,0,0,0,0,0,0,0,0,-1,965,358,0,0
-252,666,0,0,0,0,0,0,0,0,0,-1,972,358,0,0
-245,666,0,0,0,0,0,0,0,0,0,-1,979,358,0,0
-238,666,0,0,0,0,0,0,0,0,0,-1,986,358,0,0
-231,666,0,0,0,0,0,0,0,0,0,-1,993,358,0,0
-224,666,0,0,0,0,0,0,0,0,0,-1,1000,358,0,0
-217,666,0,0,0,0,0,0,0,0,0,-1,1007,358,0,0
-210,666,0,0,0,0,0,0,0,0,0,-1,1014,358,0,0
-203,666,0,0,0,0,0,0,0,0,0,-1,1021,358,0,0
-196,666,1.68958,-9.41406,0,0,0,0,0,0,0,-1,1028,358,1.68961,9.41406
-189,666,5.26538,-13.977,0,0,0,0,0,0,0,-1,1035,358,5.26541,13.977
-182,666,6.17688,-12.7998,0,0,0,0,0,0,0,-1,1042,358,6.17688,12.7998
-175,666,1.07922,-14.7207,0,0,0,0,0,0,0,-1,1049,358,1.07921,14.7207
-168,666,1.52307,-14.8425,0,0,0,0,0,0,0,-1,1056,358,1.52308,14.8425
-161,666,2.2666,-15.1104,0,0,0,0,0,0,0,-1,1063,358,2.26666,15.1104
-154,666,3.35693,-15.1993,0,0,0,0,0,0,0,-1,1070,358,3.35698,15.1993
-147,666,3.96851,-15.5034,0,0,0,0,0,0,0,-1,1077,358,3.96852,15.5035
-140,666,4.33569,-14.0707,0,0,0,0,0,0,0,-1,1084,358,4.33569,14.0707
-133,666,2.13062,-12.6639,0,0,0,0,0,0,0,-1,1091,358,2.13061,12.6639
-126,666,3.43042,-12.7548,0,0,0,0,0,0,0,-1,1098,358,3.43044,12.7548
-119,666,3.82019,-13.1827,0,0,0,0,0,0,0,-1,1105,358,3.82013,13.1827
-112,666,4.05469,-12.9687,0,0,0,0,0,0,0,-1,1112,358,4.0547,12.9687
-105,666,3.50378,-12.9698,0,0,0,0,0,0,0,-1,1119,358,3.50375,12.9697
-98,666,4.03711,-12.8416,0.00830097,0.0296658,0.0336181,0.0542579,-0.0162911,0.939232,0.0426523,0.0465206,1126,358,4.03716,12.8416
-91,666,4.32947,-12.541,0.00908735,0.0311838,0.0334319,0.0553457,-0.0150746,0.944983,0.0428159,0.0460221,1133,358,4.32948,12.541
-84,666,5.02612,-11.8337,0,0,0,0,0,0,0,-1,1140,358,5.02613,11.8337
-77,666,0.964722,-10.3601,0,0,0,0,0,0,0,-1,1147,358,0.964669,10.3601
-70,666,2.05957,-6.51086,0,0,0,0,0,0,0,-1,1154,358,2.05959,6.51088
-63,666,1.47485,-3.79593,0,0,0,0,0,0,0,-1,1161,358,1.47481,3.79593
-56,666,0.424683,-2.04132,0,0,0,0,0,0,0,-1,1168,358,0.424665,2.04132
-49,666,0.754395,-2.23169,0,0,0,0,0,0,0,-1,1175,358,0.754383,2.23169
-42,666,1.34473,-3.53897,0,0,0,0,0,0,0,-1,1182,358,1.34476,3.53896
-35,666,2.53687,-14.3597,0,0,0,0,0,0,0,-1,1189,358,2.53689,14.3597
-28,666,2.81531,-14.1197,0,0,0,0,0,0,0,-1,1196,358,2.81528,14.1197
-21,666,2.79333,-14.1609,-0.00236269,-0.000415424,-0.00669115,0.00537256,-0.00815068,-0.857646,0.00786237,0.033473,1203,358,2.79339,14.1609
-14,666,2.74133,-14.2099,-0.00275301,-0.00113879,-0.00559303,0.00370506,-0.00759686,-0.857057,0.00665287,0.0255642,1210,358,2.74128,14.2099
-7,666,2.7395,-14.2248,-0.00365109,-0.00224865,-0.00442671,0.00153203,-0.00743177,-0.863949,0.00553631,0.0172269,1217,358,2.73949,14.2248
0,666,2.78577,-14.2357,-0.00331641,-0.00354974,-0.002415,-0.00101526,-0.00585089,-0.761263,0.00361008,0.0118652,1224,358,2.78582,14.2357
7,666,2.76758,-14.2917,-0.00232171,-0.00480982,-0.000403412,-0.00225793,-0.0048736,-0.156786,0.0028163,0.0151043,1231,358,2.76752,14.2917
14,666,2.75061,-14.3243,-0.00192775,-0.00588159,0.00154217,-0.00139738,-0.00641196,0.331241,0.00389335,0.0147654,1238,358,2.75067,14.3243
21,666,2.7002,-14.3347,-0.00148046,-0.00640548,0.00334788,0.000213014,-0.00809895,0.468306,0.00547169,0.0114926,1245,358,2.70025,14.3347
28,666,2.6676,-14.3651,-0.000717658,-0.00649013,0.00499192,0.00216236,-0.00937014,0.523287,0.00707851,0.0118025,1252,358,2.66765,14.365
35,666,2.67737,-14.3679,0.000125754,-0.00643115,0.00641124,0.00404815,-0.0103536,0.549051,0.00857636,0.011037,1259,358,2.67741,14.3679
42,666,2.65601,-14.382,0.000873112,-0.0055602,0.00789681,0.00618326,-0.0108704,0.591991,0.0099691,0.0124086,1266,358,2.65598,14.3821
49,666,2.62366,-14.3807,0.00156862,-0.00422732,0.00892757,0.0080568,-0.0107155,0.628459,0.0108744,0.0109426,1273,358,2.62371,14.3807
56,666,2.60181,-14.3624,0.0023262,-0.00228258,0.0095493,0.00984522,-0.0098016,0.667004,0.0113431,0.0121644,1280,358,2.60183,14.3624
63,666,2.58911,-14.3752,0.00314922,7.60965e-05,0.0096817,0.0114155,-0.00819022,0.706701,0.0113703,0.0127172,1287,358,2.58914,14.3752
70,666,2.57007,-14.3663,0.00284597,0.00324185,0.0100692,0.0131151,-0.00702727,0.795226,0.0118049,0.012968,1294,358,2.57008,14.3663
77,666,2.57788,-14.3409,0.00121205,0.00664382,0.0109165,0.0151772,-0.0073213,0.907317,0.0132508,0.0167686,1301,358,2.57793,14.3409
84,666,2.55554,-14.3351,-0.00200206,0.00978331,0.0111961,0.0165428,-0.00876153,1.02764,0.0148379,0.0231498,1308,358,2.55552,14.3352
91,666,2.5188,-14.2902,-0.00451315,0.0127558,0.0108494,0.0179872,-0.00974458,1.1215,0.016245,0.0210735,1315,358,2.51885,14.2902
98,666,2.48376,-14.2404,-0.00685906,0.0155002,0.0103891,0.0195823,-0.0109411,1.19641,0.0178565,0.0160774,1322,358,2.48371,14.2404
105,666,2.4541,-14.1835,-0.0104669,0.0180546,0.00978882,0.0210909,-0.0135033,1.27002,0.0201325,0.0168575,1329,358,2.45407,14.1835
112,666,2.45398,-14.1553,-0.014294,0.0201678,0.00914326,0.0224434,-0.0165696,1.32687,0.0226091,0.0203874,1336,358,2.45397,14.1553
119,666,2.45349,-14.1042,-0.0172891,0.0219542,0.00845332,0.0236976,-0.0190325,1.3674,0.0247192,0.0222824,1343,358,2.45349,14.1041
126,666,2.41443,-14.0191,-0.0201041,0.0230473,0.00742694,0.0242898,-0.0213466,1.40503,0.0263664,0.0245278,1350,358,2.41437,14.0191
133,666,2.39648,-13.9416,-0.0225916,0.0234765,0.00598786,0.0242421,-0.0233572,1.44363,0.027483,0.0226252,1357,358,2.39644,13.9415
140,666,2.39771,-13.9331,-0.0243754,0.0236319,0.00431297,0.0240163,-0.0247598,1.4819,0.028162,0.0218605,1364,358,2.39773,13.9331
147,666,2.38232,-13.8529,-0.0252307,0.0227291,0.00252727,0.0228619,-0.0253635,1.51829,0.0278554,0.0213776,1371,358,2.38231,13.8529
154,666,2.35303,-13.7259,-0.0252721,0.0216253,0.000812697,0.0216394,-0.0252862,1.55347,0.0271198,0.018274,1378,358,2.35308,13.7259
161,666,2.3866,-13.6844,-0.0247713,0.0198102,-0.000485811,0.0198155,-0.0247766,-1.5599,0.0257983,0.0230498,1385,358,2.38662,13.6844
168,666,2.4563,-13.7922,0,0,0,0,0,0,0,-1,1392,358,2.4563,13.7922
175,666,2.56445,-13.8657,0,0,0,0,0,0,0,-1,1399,358,2.56448,13.8657
182,666,2.60876,-5.17068,0,0,0,0,0,0,0,-1,1406,358,2.6088,5.17068
189,666,2.46973,-5.49979,0,0,0,0,0,0,0,-1,1413,358,2.46975,5.49979
196,666,2.32458,-5.23651,0,0,0,0,0,0,0,-1,1420,358,2.32461,5.23653
203,666,2.28064,-3.88004,0,0,0,0,0,0,0,-1,1427,358,2.28059,3.88003
210,666,3.02576,-5.83548,0,0,0,0,0,0,0,-1,1434,358,3.02581,5.83547
217,666,2.30444,-5.36011,0,0,0,0,0,0,0,-1,1441,358,2.30447,5.3601
224,666,1.82324,-6.03101,0,0,0,0,0,0,0,-1,1448,358,1.82322,6.031
231,666,2.29797,-10.1093,0,0,0,0,0,0,0,-1,1455,358,2.29801,10.1093
238,666,2.52429,-6.10568,0,0,0,0,0,0,0,-1,1462,358,2.52423,6.10567
245,666,4.53345,-1.38205,0,0,0,0,0,0,0,-1,1469,358,4.53349,1.38204
252,666,4.77405,-0.246979,0,0,0,0,0,0,0,-1,1476,358,4.77405,0.246993
259,666,4.83655,1.14087,0,0,0,0,0,0,0,-1,1483,358,4.83652,-1.14087
266,666,6.14148,0.749512,0,0,0,0,0,0,0,-1,1490,358,6.14144,-0.749519
273,666,2.61304,-1.53772,0,0,0,0,0,0,0,-1,1497,358,2.613,1.53773
280,666,8.70898,-0.836975,0,0,0,0,0,0,0,-1,1504,358,8.70894,0.836988
287,666,2.27039,-4.09058,0,0,0,0,0,0,0,-1,1511,358,2.27042,4.09059
294,666,1.43115,-13.1906,0,0,0,0,0,0,0,-1,1518,358,1.4311,13.1906
301,666,3.61511,-3.23752,0,0,0,0,0,0,0,-1,1525,358,3.61511,3.23753
308,666,1.08496,-1.87576,0,0,0,0,0,0,0,-1,1532,358,1.08491,1.87575
315,666,1.76294,-0.284027,0,0,0,0,0,0,0,-1,1539,358,1.76291,0.284016
322,666,0,0,0,0,0,0,0,0,0,-1,1546,358,0,0
329,666,0,0,0,0,0,0,0,0,0,-1,1553,358,0,0
336,666,0,0,0,0,0,0,0,0,0,-1,1560,358,0,0
343,666,0,0,0,0,0,0,0,0,0,-1,1567,358,0,0
350,666,0,0,0,0,0,0,0,0,0,-1,1574,358,0,0
357,666,0,0,0,0,0,0,0,0,0,-1,1581,358,0,0
364,666,0,0,0,0,0,0,0,0,0,-1,1588,358,0,0
371,666,0,0,0,0,0,0,0,0,0,-1,1595,358,0,0
378,666,0,0,0,0,0,0,0,0,0,-1,1602,358,0,0
385,666,0,0,0,0,0,0,0,0,0,-1,1609,358,0,0
392,666,0,0,0,0,0,0,0,0,0,-1,1616,358,0,0
399,666,0,0,0,0,0,0,0,0,0,-1,1623,358,0,0
406,666,0,0,0,0,0,0,0,0,0,-1,1630,358,0,0
413,666,0,0,0,0,0,0,0,0,0,-1,1637,358,0,0
420,666,0,0,0,0,0,0,0,0,0,-1,1644,358,0,0
427,666,0,0,0,0,0,0,0,0,0,-1,1651,358,0,0
434,666,0,0,0,0,0,0,0,0,0,-1,1658,358,0,0
441,666,0,0,0,0,0,0,0,0,0,-1,1665,358,0,0
448,666,0,0,0,0,0,0,0,0,0,-1,1672,358,0,0
455,666,0,0,0,0,0,0,0,0,0,-1,1679,358,0,0
462,666,0,0,0,0,0,0,0,0,0,-1,1686,358,0,0
469,666,0,0,0,0,0,0,0,0,0,-1,1693,358,0,0
476,666,0,0,0,0,0,0,0,0,0,-1,1700,358,0,0
483,666,0,0,0,0,0,0,0,0,0,-1,1707,358,0,0
490,666,0,0,0,0,0,0,0,0,0,-1,1714,358,0,0
497,666,0,0,0,0,0,0,0,0,0,-1,1721,358,0,0
504,666,0,0,0,0,0,0,0,0,0,-1,1728,358,0,0
511,666,0,0,0,0,0,0,0,0,0,-1,1735,358,0,0
518,666,0,0,0,0,0,0,0,0,0,-1,1742,358,0,0
525,666,0,0,0,0,0,0,0,0,0,-1,1749,358,0,0
532,666,0,0,0,0,0,0,0,0,0,-1,1756,358,0,0
539,666,0,0,0,0,0,0,0,0,0,-1,1763,358,0,0
546,666,0,0,0,0,0,0,0,0,0,-1,1770,358,0,0
553,666,0,0,0,0,0,0,0,0,0,-1,1777,358,0,0
560,666,0,0,0,0,0,0,0,0,0,-1,1784,358,0,0
567,666,0,0,0,0,0,0,0,0,0,-1,1791,358,0,0
574,666,0,0,0,0,0,0,0,0,0,-1,1798,358,0,0
581,666,0,0,0,0,0,0,0,0,0,-1,1805,358,0,0
588,666,0,0,0,0,0,0,0,0,0,-1,1812,358,0,0
595,666,0,0,0,0,0,0,0,0,0,-1,1819,358,0,0
602,666,0,0,0,0,0,0,0,0,0,-1,1826,358,0,0
609,666,0,0,0,0,0,0,0,0,0,-1,1833,358,0,0
616,666,0,0,0,0,0,0,0,0,0,-1,1840,358,0,0
623,666,0,0,0,0,0,0,0,0,0,-1,1847,358,0,0
630,666,0,0,0,0,0,0,0,0,0,-1,1854,358,0,0
637,666,0,0,0,0,0,0,0,0,0,-1,1861,358,0,0
644,666,0,0,0,0,0,0,0,0,0,-1,1868,358,0,0
651,666,0,0,0,0,0,0,0,0,0,-1,1875,358,0,0
658,666,0,0,0,0,0,0,0,0,0,-1,1882,358,0,0
665,666,0,0,0,0,0,0,0,0,0,-1,1889,358,0,0
672,666,0,0,0,0,0,0,0,0,0,-1,1896,358,0,0
679,666,0,0,0,0,0,0,0,0,0,-1,1903,358,0,0
686,666,0,0,0,0,0,0,0,0,0,-1,1910,358,0,0
693,666,0,0,0,0,0,0,0,0,0,-1,1917,358,0,0
700,666,0,0,0,0,0,0,0,0,0,-1,1924,358,0,0
707,666,0,0,0,0,0,0,0,0,0,-1,1931,358,0,0
714,666,0,0,0,0,0,0,0,0,0,-1,1938,358,0,0
721,666,0,0,0,0,0,0,0,0,0,-1,1945,358,0,0
728,666,0,0,0,0,0,0,0,0,0,-1,1952,358,0,0
735,666,0,0,0,0,0,0,0,0,0,-1,1959,358,0,0
742,666,0,0,0,0,0,0,0,0,0,-1,1966,358,0,0
749,666,0,0,0,0,0,0,0,0,0,-1,1973,358,0,0
756,666,0,0,0,0,0,0,0,0,0,-1,1980,358,0,0
763,666,0,0,0,0,0,0,0,0,0,-1,1987,358,0,0
770,666,0,0,0,0,0,0,0,0,0,-1,1994,358,0,0
777,666,0,0,0,0,0,0,0,0,0,-1,2001,358,0,0
784,666,0,0,0,0,0,0,0,0,0,-1,2008,358,0,0
791,666,0,0,0,0,0,0,0,0,0,-1,2015,358,0,0
798,666,0,0,0,0,0,0,0,0,0,-1,2022,358,0,0
805,666,0,0,0,0,0,0,0,0,0,-1,2029,358,0,0
812,666,0,0,0,0,0,0,0,0,0,-1,2036,358,0,0
-700,659,0,0,0,0,0,0,0,0,0,-1,524,365,0,0
-693,659,0,0,0,0,0,0,0,0,0,-1,531,365,0,0
-686,659,0,0,0,0,0,0,0,0,0,-1,538,365,0,0
-679,659,0,0,0,0,0,0,0,0,0,-1,545,365,0,0
-672,659,0,0,0,0,0,0,0,0,0,-1,552,365,0,0
-665,659,0,0,0,0,0,0,0,0,0,-1,559,365,0,0
-658,659,0,0,0,0,0,0,0,0,0,-1,566,365,0,0
-651,659,0,0,0,0,0,0,0,0,0,-1,573,365,0,0
-644,659,0,0,0,0,0,0,0,0,0,-1,580,365,0,0
-637,659,0,0,0,0,0,0,0,0,0,-1,587,365,0,0
-630,659,0,0,0,0,0,0,0,0,0,-1,594,365,0,0
-623,659,0,0,0,0,0,0,0,0,0,-1,601,365,0,0
-616,659,0,0,0,0,0,0,0,0,0,-1,608,365,0,0
-609,659,0,0,0,0,0,0,0,0,0,-1,615,365,0,0
-602,659,0,0,0,0,0,0,0,0,0,-1,622,365,0,0
-595,659,0,0,0,0,0,0,0,0,0,-1,629,365,0,0
-588,659,0,0,0,0,0,0,0,0,0,-1,636,365,0,0
-581,659,0,0,0,0,0,0,0,0,0,-1,643,365,0,0
-574,659,0,0,0,0,0,0,0,0,0,-1,650,365,0,0
-567,659,0,0,0,0,0,0,0,0,0,-1,657,365,0,0
-560,659,0,0,0,0,0,0,0,0,0,-1,664,365,0,0
-553,659,0,0,0,0,0,0,0,0,0,-1,671,365,0,0
-546,659,0,0,0,0,0,0,0,0,0,-1,678,365,0,0
-539,659,0,0,0,0,0,0,0,0,0,-1,685,365,0,0
-532,659,0,0,0,0,0,0,0,0,0,-1,692,365,0,0
-525,659,0,0,0,0,0,0,0,0,0,-1,699,365,0,0
-518,659,0,0,0,0,0,0,0,0,0,-1,706,365,0,0
-511,659,0,0,0,0,0,0,0,0,0,-1,713,365,0,0
-504,659,0,0,0,0,0,0,0,0,0,-1,720,365,0,0
-497,659,0,0,0,0,0,0,0,0,0,-1,727,365,0,0
-490,659,0,0,0,0,0,0,0,0,0,-1,734,365,0,0
-483,659,0,0,0,0,0,0,0,0,0,-1,741,365,0,0
-476,659,0,0,0,0,0,0,0,0,0,-1,748,365,0,0
-469,659,0,0,0,0,0,0,0,0,0,-1,755,365,0,0
-462,659,0,0,0,0,0,0,0,0,0,-1,762,365,0,0
-455,659,0,0,0,0,0,0,0,0,0,-1,769,365,0,0
-448,659,0,0,0,0,0,0,0,0,0,-1,776,365,0,0
-441,659,0,0,0,0,0,0,0,0,0,-1,783,365,0,0
-434,659,0,0,0,0,0,0,0,0,0,-1,790,365,0,0
-427,659,0,0,0,0,0,0,0,0,0,-1,797,365,0,0
-420,659,0,0,0,0,0,0,0,0,0,-1,804,365,0,0
-413,659,0,0,0,0,0,0,0,0,0,-1,811,365,0,0
-406,659,0,0,0,0,0,0,0,0,0,-1,818,365,0,0
-399,659,0,0,0,0,0,0,0,0,0,-1,825,365,0,0
-392,659,0,0,0,0,0,0,0,0,0,-1,832,365,0,0
-385,659,0,0,0,0,0,0,0,0,0,-1,839,365,0,0
-378,659,0,0,0,0,0,0,0,0,0,-1,846,365,0,0
-371,659,0,0,0,0,0,0,0,0,0,-1,853,365,0,0
-364,659,0,0,0,0,0,0,0,0,0,-1,860,365,0,0
-357,659,0,0,0,0,0,0,0,0,0,-1,867,365,0,0
-350,659,0,0,0,0,0,0,0,0,0,-1,874,365,0,0
-343,659,0,0,0,0,0,0,0,0,0,-1,881,365,0,0
-336,659,0,0,0,0,0,0,0,0,0,-1,888,365,0,0
-329,659,0,0,0,0,0,0,0,0,0,-1,895,365,0,0
-322,659,0,0,0,0,0,0,0,0,0,-1,902,365,0,0
-315,659,0,0,0,0,0,0,0,0,0,-1,909,365,0,0
-308,659,0,0,0,0,0,0,0,0,0,-1,916,365,0,0
-301,659,0,0,0,0,0,0,0,0,0,-1,923,365,0,0
-294,659,0,0,0,0,0,0,0,0,0,-1,930,365,0,0
-287,659,0,0,0,0,0,0,0,0,0,-1,937,365,0,0
-280,659,0,0,0,0,0,0,0,0,0,-1,944,365,0,0
-273,659,0,0,0,0,0,0,0,0,0,-1,951,365,0,0
-266,659,0,0,0,0,0,0,0,0,0,-1,958,365,0,0
-259,659,0,0,0,0,0,0,0,0,0,-1,965,365,0,0
-252,659,0,0,0,0,0,0,0,0,0,-1,972,365,0,0
-245,659,0,0,0,0,0,0,0,0,0,-1,979,365,0,0
-238,659,0,0,0,0,0,0,0,0,0,-1,986,365,0,0
-231,659,0,0,0,0,0,0,0,0,0,-1,993,365,0,0
-224,659,0,0,0,0,0,0,0,0,0,-1,1000,365,0,0
-217,659,1.57928,-8.48126,0,0,0,0,0,0,0,-1,1007,365,1.57926,8.48126
-210,659,2.00287,-9.36227,0,0,0,0,0,0,0,-1,1014,365,2.00284,9.36228
-203,659,2.23798,-10.0347,0,0,0,0,0,0,0,-1,1021,365,2.23795,10.0347
-196,659,3.26367,-12.3659,0,0,0,0,0,0,0,-1,1028,365,3.26361,12.3659
-189,659,4.08716,-12.5415,0,0,0,0,0,0,0,-1,1035,365,4.08715,12.5415
-182,659,1.23779,-13.8358,0,0,0,0,0,0,0,-1,1042,365,1.23778,13.8358
-175,659,1.42932,-13.6959,0,0,0,0,0,0,0,-1,1049,365,1.4293,13.6959
-168,659,1.83704,-13.8517,0,0,0,0,0,0,0,-1,1056,365,1.83705,13.8517
-161,659,2.33862,-14.0818,0,0,0,0,0,0,0,-1,1063,365,2.33862,14.0818
-154,659,3.05579,-14.1869,0,0,0,0,0,0,0,-1,1070,365,3.05577,14.1869
-147,659,3.40405,-14.2679,0,0,0,0,0,0,0,-1,1077,365,3.40402,14.2679
-140,659,3.3728,-12.9516,0,0,0,0,0,0,0,-1,1084,365,3.3728,12.9516
-133,659,3.26379,-12.7721,0,0,0,0,0,0,0,-1,1091,365,3.26374,12.7721
-126,659,3.41003,-13.1193,0,0,0,0,0,0,0,-1,1098,365,3.41,13.1192
-119,659,3.28552,-13.2598,0.00130586,0.0122344,0.0204122,0.0279011,-0.0143608,0.91618,0.0248138,0.0432971,1105,365,3.28552,13.2598
-112,659,3.18201,-13.2236,0.00240481,0.0163958,0.0212932,0.0318132,-0.0130126,0.94411,0.0266281,0.0402278,1112,365,3.18202,13.2236
-105,659,3.21558,-13.0851,0.00352437,0.0192366,0.0222409,0.0349681,-0.0122071,0.955172,0.0282736,0.0407457,1119,365,3.21558,13.0851
-98,659,3.26501,-13.1081,0.00430959,0.0212522,0.0226517,0.0369648,-0.011403,0.964336,0.0291962,0.0410334,1126,365,3.265,13.1081
-91,659,3.37854,-13.1503,0.00489439,0.0221576,0.0222667,0.0374072,-0.0103552,0.970304,0.0290125,0.0395558,1133,365,3.37852,13.1503
-84,659,2.91223,-13.4186,0,0,0,0,0,0,0,-1,1140,365,2.91225,13.4186
-77,659,2.81665,-13.179,0,0,0,0,0,0,0,-1,1147,365,2.81659,13.179
-70,659,2.9353,-12.7028,0,0,0,0,0,0,0,-1,1154,365,2.93533,12.7028
-63,659,2.11267,-9.7796,0,0,0,0,0,0,0,-1,1161,365,2.11266,9.7796
-56,659,2.11182,-9.91541,0,0,0,0,0,0,0,-1,1168,365,2.11178,9.91541
-49,659,2.78564,-13.9482,0,0,0,0,0,0,0,-1,1175,365,2.78564,13.9482
-42,659,2.79138,-14.0589,0,0,0,0,0,0,0,-1,1182,365,2.79133,14.0589
-35,659,2.72449,-14.2006,-0.00161452,0.00236205,-0.00556223,0.00628068,-0.00553315,-0.957051,0.00682527,0.044722,1189,365,2.72447,14.2006
-28,659,2.77466,-14.1791,-0.0017436,0.00113915,-0.00490213,0.00480742,-0.00541187,-0.928384,0.00590355,0.0171613,1196,365,2.7746,14.1791
-21,659,2.75525,-14.1982,-0.00210715,0.000306599,-0.00410231,0.00337588,-0.00517643,-0.928459,0.00497402,0.0116443,1203,365,2.75523,14.1982
-14,659,2.73486,-14.2462,-0.00237656,-0.000195813,-0.00343907,0.0023216,-0.00489397,-0.938913,0.00425324,0.00901358,1210,365,2.73486,14.2462
-7,659,2.73596,-14.2811,-0.00301611,-0.00101952,-0.00275531,0.000912768,-0.0049484,-0.9592,0.00364152,0.00925423,1217,365,2.73601,14.2811
0,659,2.72449,-14.3074,-0.00270922,-0.00196127,-0.00148775,-0.000801215,-0.00386928,-0.908531,0.00235826,0.00851794,1224,365,2.72452,14.3074
7,659,2.70093,-14.3228,-0.00194809,-0.00279172,-0.000167158,-0.00191618,-0.00282364,-0.188649,0.00166454,0.00777712,1231,365,2.70099,14.3228
14,659,2.69324,-14.3283,-0.00166402,-0.00342602,0.00106376,-0.0011638,-0.00392624,0.439549,0.00232861,0.00988223,1238,365,2.69325,14.3283
21,659,2.67725,-14.3534,-0.00133369,-0.00366918,0.00220192,-9.02917e-06,-0.00499384,0.54159,0.00332622,0.0109119,1245,365,2.67726,14.3534
28,659,2.6571,-14.3793,-0.000746019,-0.00363165,0.00325842,0.00137473,-0.00575241,0.576975,0.00436594,0.0105843,1252,365,2.65705,14.3793
35,659,2.65234,-14.3957,-9.4625e-05,-0.003524,0.00419302,0.00272076,-0.00633939,0.591304,0.00536815,0.0108227,1259,365,2.6524,14.3957
42,659,2.63367,-14.4078,0.000481916,-0.00278364,0.00521087,0.00430983,-0.00661155,0.633573,0.00635197,0.0112764,1266,365,2.63369,14.4078
49,659,2.6106,-14.4059,0.00103624,-0.00169888,0.00592681,0.00575122,-0.00641386,0.672012,0.00702699,0.0114769,1273,365,2.61059,14.4059
56,659,2.60254,-14.3988,0.00164291,-0.000203036,0.00637763,0.00716401,-0.00572413,0.713537,0.00745643,0.0151265,1280,365,2.60248,14.3988
63,659,2.61841,-14.4117,0.0023013,0.00148261,0.00651705,0.00842185,-0.00463793,0.754034,0.00764484,0.016214,1287,365,2.61845,14.4117
70,659,2.59167,-14.3824,0.0021129,0.00372649,0.00690117,0.00986787,-0.00402847,0.843588,0.00825579,0.0171025,1294,365,2.59169,14.3824
77,659,2.54919,-14.354,0.00101018,0.00608203,0.00762333,0.0115802,-0.00448795,0.945967,0.00957341,0.0156244,1301,365,2.54918,14.354
84,659,2.55884,-14.3434,-0.00114466,0.00820621,0.00792398,0.0127313,-0.00566972,1.05193,0.0108815,0.0112685,1308,365,2.5588,14.3434
91,659,2.5354,-14.3117,-0.0028418,0.0101371,0.00771098,0.0137259,-0.00643065,1.13519,0.0118888,0.0102181,1315,365,2.53536,14.3117
98,659,2.52515,-14.2734,-0.00439108,0.0119195,0.00739349,0.014772,-0.00724363,1.20257,0.0129561,0.00717023,1322,365,2.52512,14.2734
105,659,2.50903,-14.2198,-0.00678855,0.0135193,0.00699074,0.0156931,-0.00896235,1.26932,0.0144105,0.00819435,1329,365,2.50906,14.2198
112,659,2.50977,-14.187,-0.00929114,0.0147469,0.00649094,0.0163876,-0.0109319,1.32321,0.0158774,0.0102525,1336,365,2.50978,14.187
119,659,2.5177,-14.1491,-0.0110885,0.0156702,0.00596647,0.0169402,-0.0123586,1.36106,0.0169845,0.0117808,1343,365,2.51768,14.1491
126,659,2.48962,-14.0749,-0.0127129,0.0161595,0.00520002,0.0170675,-0.0136209,1.39793,0.0177552,0.0131856,1350,365,2.48965,14.0749
133,659,2.44458,-14.0125,-0.0141289,0.0163142,0.00413128,0.0168648,-0.0146796,1.43828,0.0182267,0.0117786,1357,365,2.44457,14.0125
140,659,2.42261,-13.9686,-0.0150282,0.0163005,0.00291758,0.0165699,-0.0152976,1.47872,0.0184036,0.00952852,1364,365,2.42261,13.9686
147,659,2.41138,-13.8979,-0.0153314,0.0154752,0.00163219,0.0155614,-0.0154176,1.51801,0.0178858,0.00861226,1371,365,2.41135,13.8979
154,659,2.39661,-13.8089,-0.0151017,0.0144872,0.000420614,0.0144932,-0.0151077,1.55658,0.0170913,0.00877172,1378,365,2.3966,13.8089
161,659,2.41138,-13.7458,-0.0145055,0.0129184,-0.000462026,0.0129262,-0.0145133,-1.55396,0.015851,0.00966348,1385,365,2.41137,13.7458
168,659,2.43872,-13.704,-0.0139824,0.0111546,-0.000986037,0.0111932,-0.014021,-1.53165,0.0145879,0.0176874,1392,365,2.43867,13.704
175,659,2.42065,-13.6656,-0.0119235,0.00890299,-0.00191147,0.00907698,-0.0120975,-1.48003,0.0122665,0.0416981,1399,365,2.42061,13.6657
182,659,2.3092,-13.554,0,0,0,0,0,0,0,-1,1406,365,2.30921,13.554
189,659,2.38416,-13.3788,0,0,0,0,0,0,0,-1,1413,365,2.38413,13.3789
196,659,2.39917,-12.9549,0,0,0,0,0,0,0,-1,1420,365,2.39919,12.9549
203,659,2.38623,-12.2163,0,0,0,0,0,0,0,-1,1427,365,2.38617,12.2163
210,659,2.25342,-13.2753,0,0,0,0,0,0,0,-1,1434,365,2.25338,13.2753
217,659,2.28784,-12.8433,0,0,0,0,0,0,0,-1,1441,365,2.28784,12.8433
224,659,2.21143,-12.7228,0,0,0,0,0,0,0,-1,1448,365,2.2114,12.7228
231,659,2.16516,-12.6898,0,0,0,0,0,0,0,-1,1455,365,2.16517,12.6897
238,659,2.52393,-12.7705,0,0,0,0,0,0,0,-1,1462,365,2.52392,12.7705
245,659,2.29468,-12.9666,0,0,0,0,0,0,0,-1,1469,365,2.29463,12.9666
252,659,2.03796,-13.1477,0,0,0,0,0,0,0,-1,1476,365,2.03794,13.1477
259,659,2.33069,-3.36703,0,0,0,0,0,0,0,-1,1483,365,2.33073,3.36702
266,659,1.20349,-11.7741,0,0,0,0,0,0,0,-1,1490,365,1.20352,11.7741
273,659,1.22217,-11.7782,0,0,0,0,0,0,0,-1,1497,365,1.22218,11.7782
280,659,1.70947,-9.4129,0,0,0,0,0,0,0,-1,1504,365,1.70952,9.4129
287,659,2.05762,-13.0347,0,0,0,0,0,0,0,-1,1511,365,2.0576,13.0347
294,659,1.62305,-12.8938,0,0,0,0,0,0,0,-1,1518,365,1.62301,12.8938
301,659,1.18835,-12.7528,0,0,0,0,0,0,0,-1,1525,365,1.18841,12.7528
308,659,1.84546,-4.83203,0,0,0,0,0,0,0,-1,1532,365,1.84545,4.83203
315,659,2.02905,-3.83633,0,0,0,0,0,0,0,-1,1539,365,2.0291,3.83632
322,659,0.382813,-2.2424,0,0,0,0,0,0,0,-1,1546,365,0.382801,2.2424
329,659,0.604004,-1.75998,0,0,0,0,0,0,0,-1,1553,365,0.603966,1.75998
336,659,2.09851,-1.17941,0,0,0,0,0,0,0,-1,1560,365,2.09857,1.17942
343,659,0,0,0,0,0,0,0,0,0,-1,1567,365,0,0
350,659,0,0,0,0,0,0,0,0,0,-1,1574,365,0,0
357,659,0,0,0,0,0,0,0,0,0,-1,1581,365,0,0
364,659,0,0,0,0,0,0,0,0,0,-1,1588,365,0,0
371,659,0,0,0,0,0,0,0,0,0,-1,1595,365,0,0
378,659,0,0,0,0,0,0,0,0,0,-1,1602,365,0,0
385,659,0,0,0,0,0,0,0,0,0,-1,1609,365,0,0
392,659,0,0,0,0,0,0,0,0,0,-1,1616,365,0,0
399,659,0,0,0,0,0,0,0,0,0,-1,1623,365,0,0
406,659,0,0,0,0,0,0,0,0,0,-1,1630,365,0,0
413,659,0,0,0,0,0,0,0,0,0,-1,1637,365,0,0
420,659,0,0,0,0,0,0,0,0,0,-1,1644,365,0,0
427,659,0,0,0,0,0,0,0,0,0,-1,1651,365,0,0
434,659,0,0,0,0,0,0,0,0,0,-1,1658,365,0,0
441,659,0,0,0,0,0,0,0,0,0,-1,1665,365,0,0
448,659,0,0,0,0,0,0,0,0,0,-1,1672,365,0,0
455,659,0,0,0,0,0,0,0,0,0,-1,1679,365,0,0
462,659,0,0,0,0,0,0,0,0,0,-1,1686,365,0,0
469,659,0,0,0,0,0,0,0,0,0,-1,1693,365,0,0
476,659,0,0,0,0,0,0,0,0,0,-1,1700,365,0,0
483,659,0,0,0,0,0,0,0,0,0,-1,1707,365,0,0
490,659,0,0,0,0,0,0,0,0,0,-1,1714,365,0,0
497,659,0,0,0,0,0,0,0,0,0,-1,1721,365,0,0
504,659,0,0,0,0,0,0,0,0,0,-1,1728,365,0,0
511,659,0,0,0,0,0,0,0,0,0,-1,1735,365,0,0
518,659,0,0,0,0,0,0,0,0,0,-1,1742,365,0,0
525,659,0,0,0,0,0,0,0,0,0,-1,1749,365,0,0
532,659,0,0,0,0,0,0,0,0,0,-1,1756,365,0,0
539,659,0,0,0,0,0,0,0,0,0,-1,1763,365,0,0
546,659,0,0,0,0,0,0,0,0,0,-1,1770,365,0,0
553,659,0,0,0,0,0,0,0,0,0,-1,1777,365,0,0
560,659,0,0,0,0,0,0,0,0,0,-1,1784,365,0,0
567,659,0,0,0,0,0,0,0,0,0,-1,1791,365,0,0
574,659,0,0,0,0,0,0,0,0,0,-1,1798,365,0,0
581,659,0,0,0,0,0,0,0,0,0,-1,1805,365,0,0
588,659,0,0,0,0,0,0,0,0,0,-1,1812,365,0,0
595,659,0,0,0,0,0,0,0,0,0,-1,1819,365,0,0
602,659,0,0,0,0,0,0,0,0,0,-1,1826,365,0,0
609,659,0,0,0,0,0,0,0,0,0,-1,1833,365,0,0
616,659,0,0,0,0,0,0,0,0,0,-1,1840,365,0,0
623,659,0,0,0,0,0,0,0,0,0,-1,1847,365,0,0
630,659,0,0,0,0,0,0,0,0,0,-1,1854,365,0,0
637,659,0,0,0,0,0,0,0,0,0,-1,1861,365,0,0
644,659,0,0,0,0,0,0,0,0,0,-1,1868,365,0,0
651,659,0,0,0,0,0,0,0,0,0,-1,1875,365,0,0
658,659,0,0,0,0,0,0,0,0,0,-1,1882,365,0,0
665,659,0,0,0,0,0,0,0,0,0,-1,1889,365,0,0
672,659,0,0,0,0,0,0,0,0,0,-1,1896,365,0,0
679,659,0,0,0,0,0,0,0,0,0,-1,1903,365,0,0
686,659,0,0,0,0,0,0,0,0,0,-1,1910,365,0,0
693,659,0,0,0,0,0,0,0,0,0,-1,1917,365,0,0
700,659,0,0,0,0,0,0,0,0,0,-1,1924,365,0,0
707,659,0,0,0,0,0,0,0,0,0,-1,1931,365,0,0
714,659,0,0,0,0,0,0,0,0,0,-1,1938,365,0,0
721,659,0,0,0,0,0,0,0,0,0,-1,1945,365,0,0
728,659,0,0,0,0,0,0,0,0,0,-1,1952,365,0,0
735,659,0,0,0,0,0,0,0,0,0,-1,1959,365,0,0
742,659,0,0,0,0,0,0,0,0,0,-1,1966,365,0,0
749,659,0,0,0,0,0,0,0,0,0,-1,1973,365,0,0
756,659,0,0,0,0,0,0,0,0,0,-1,1980,365,0,0
763,659,0,0,0,0,0,0,0,0,0,-1,1987,365,0,0
770,659,0,0,0,0,0,0,0,0,0,-1,1994,365,0,0
777,659,0,0,0,0,0,0,0,0,0,-1,2001,365,0,0
784,659,0,0,0,0,0,0,0,0,0,-1,2008,365,0,0
791,659,0,0,0,0,0,0,0,0,0,-1,2015,365,0,0
798,659,0,0,0,0,0,0,0,0,0,-1,2022,365,0,0
805,659,0,0,0,0,0,0,0,0,0,-1,2029,365,0,0
812,659,0,0,0,0,0,0,0,0,0,-1,2036,365,0,0
-700,652,0,0,0,0,0,0,0,0,0,-1,524,372,0,0
-693,652,0,0,0,0,0,0,0,0,0,-1,531,372,0,0
-686,652,0,0,0,0,0,0,0,0,0,-1,538,372,0,0
-679,652,0,0,0,0,0,0,0,0,0,-1,545,372,0,0
-672,652,0,0,0,0,0,0,0,0,0,-1,552,372,0,0
-665,652,0,0,0,0,0,0,0,0,0,-1,559,372,0,0
-658,652,0,0,0,0,0,0,0,0,0,-1,566,372,0,0
-651,652,0,0,0,0,0,0,0,0,0,-1,573,372,0,0
-644,652,0,0,0,0,0,0,0,0,0,-1,580,372,0,0
-637,652,0,0,0,0,0,0,0,0,0,-1,587,372,0,0
-630,652,0,0,0,0,0,0,0,0,0,-1,594,372,0,0
-623,652,0,0,0,0,0,0,0,0,0,-1,601,372,0,0
-616,652,0,0,0,0,0,0,0,0,0,-1,608,372,0,0
-609,652,0,0,0,0,0,0,0,0,0,-1,615,372,0,0
-602,652,0,0,0,0,0,0,0,0,0,-1,622,372,0,0
-595,652,0,0,0,0,0,0,0,0,0,-1,629,372,0,0
-588,652,0,0,0,0,0,0,0,0,0,-1,636,372,0,0
-581,652,0,0,0,0,0,0,0,0,0,-1,643,372,0,0
-574,652,0,0,0,0,0,0,0,0,0,-1,650,372,0,0
-567,652,0,0,0,0,0,0,0,0,0,-1,657,372,0,0
-560,652,0,0,0,0,0,0,0,0,0,-1,664,372,0,0
-553,652,0,0,0,0,0,0,0,0,0,-1,671,372,0,0
-546,652,0,0,0,0,0,0,0,0,0,-1,678,372,0,0
-539,652,0,0,0,0,0,0,0,0,0,-1,685,372,0,0
-532,652,0,0,0,0,0,0,0,0,0,-1,692,372,0,0
-525,652,0,0,0,0,0,0,0,0,0,-1,699,372,0,0
-518,652,0,0,0,0,0,0,0,0,0,-1,706,372,0,0
-511,652,0,0,0,0,0,0,0,0,0,-1,713,372,0,0
-504,652,0,0,0,0,0,0,0,0,0,-1,720,372,0,0
-497,652,0,0,0,0,0,0,0,0,0,-1,727,372,0,0
-490,652,0,0,0,0,0,0,0,0,0,-1,734,372,0,0
-483,652,0,0,0,0,0,0,0,0,0,-1,741,372,0,0
-476,652,0,0,0,0,0,0,0,0,0,-1,748,372,0,0
-469,652,0,0,0,0,0,0,0,0,0,-1,755,372,0,0
-462,652,0,0,0,0,0,0,0,0,0,-1,762,372,0,0
-455,652,0,0,0,0,0,0,0,0,0,-1,769,372,0,0
-448,652,0,0,0,0,0,0,0,0,0,-1,776,372,0,0
-441,652,0,0,0,0,0,0,0,0,0,-1,783,372,0,0
-434,652,0,0,0,0,0,0,0,0,0,-1,790,372,0,0
-427,652,0,0,0,0,0,0,0,0,0,-1,797,372,0,0
-420,652,0,0,0,0,0,0,0,0,0,-1,804,372,0,0
-413,652,0,0,0,0,0,0,0,0,0,-1,811,372,0,0
-406,652,0,0,0,0,0,0,0,0,0,-1,818,372,0,0
-399,652,0,0,0,0,0,0,0,0,0,-1,825,372,0,0
-392,652,0,0,0,0,0,0,0,0,0,-1,832,372,0,0
-385,652,0,0,0,0,0,0,0,0,0,-1,839,372,0,0
-378,652,0,0,0,0,0,0,0,0,0,-1,846,372,0,0
-371,652,0,0,0,0,0,0,0,0,0,-1,853,372,0,0
-364,652,0,0,0,0,0,0,0,0,0,-1,860,372,0,0
-357,652,0,0,0,0,0,0,0,0,0,-1,867,372,0,0
-350,652,0,0,0,0,0,0,0,0,0,-1,874,372,0,0
-343,652,0,0,0,0,0,0,0,0,0,-1,881,372,0,0
-336,652,0,0,0,0,0,0,0,0,0,-1,888,372,0,0
-329,652,0,0,0,0,0,0,0,0,0,-1,895,372,0,0
-322,652,0,0,0,0,0,0,0,0,0,-1,902,372,0,0
-315,652,0,0,0,0,0,0,0,0,0,-1,909,372,0,0
-308,652,0,0,0,0,0,0,0,0,0,-1,916,372,0,0
-301,652,0,0,0,0,0,0,0,0,0,-1,923,372,0,0
-294,652,0,0,0,0,0,0,0,0,0,-1,930,372,0,0
-287,652,0,0,0,0,0,0,0,0,0,-1,937,372,0,0
-280,652,0,0,0,0,0,0,0,0,0,-1,944,372,0,0
-273,652,0,0,0,0,0,0,0,0,0,-1,951,372,0,0
-266,652,0,0,0,0,0,0,0,0,0,-1,958,372,0,0
-259,652,0,0,0,0,0,0,0,0,0,-1,965,372,0,0
-252,652,0,0,0,0,0,0,0,0,0,-1,972,372,0,0
-245,652,0,0,0,0,0,0,0,0,0,-1,979,372,0,0
-238,652,0,0,0,0,0,0,0,0,0,-1,986,372,0,0
-231,652,-3.1214,-6.93527,0,0,0,0,0,0,0,-1,993,372,-3.1214,6.93528
-224,652,-3.74396,-5.71695,0,0,0,0,0,0,0,-1,1000,372,-3.74397,5.71694
-217,652,3.08069,-9.83069,0,0,0,0,0,0,0,-1,1007,372,3.08068,9.83069
-210,652,3.51178,-10.4496,0,0,0,0,0,0,0,-1,1014,372,3.51181,10.4496
-203,652,2.26929,-12.32,0,0,0,0,0,0,0,-1,1021,372,2.26929,12.32
-196,652,2.8833,-11.9591,0,0,0,0,0,0,0,-1,1028,372,2.88328,11.9591
-189,652,3.7583,-11.691,0,0,0,0,0,0,0,-1,1035,372,3.75831,11.691
-182,652,1.33374,-12.6816,0,0,0,0,0,0,0,-1,1042,372,1.33379,12.6816
-175,652,1.74902,-12.5601,0,0,0,0,0,0,0,-1,1049,372,1.74905,12.5601
-168,652,3.45264,-13.2386,0,0,0,0,0,0,0,-1,1056,372,3.45261,13.2386
-161,652,3.31775,-12.5835,0,0,0,0,0,0,0,-1,1063,372,3.3178,12.5835
-154,652,3.42908,-13.0656,0,0,0,0,0,0,0,-1,1070,372,3.42908,13.0656
-147,652,3.59412,-12.9507,0,0,0,0,0,0,0,-1,1077,372,3.59417,12.9507
-140,652,2.87622,-12.6259,0,0,0,0,0,0,0,-1,1084,372,2.87622,12.6259
-133,652,3.08911,-12.7147,-0.000740753,0.00357886,0.0121407,0.0137504,-0.0109122,0.873426,0.0142704,0.0447948,1091,372,3.08917,12.7147
-126,652,3.05151,-12.8524,-0.000460289,0.00611953,0.0130595,0.0162971,-0.0106379,0.908789,0.0156649,0.0403689,1098,372,3.05146,12.8524
-119,652,3.06604,-12.9861,-3.44368e-05,0.00881711,0.0139386,0.0190157,-0.010233,0.939124,0.0171387,0.0344189,1105,372,3.06604,12.9861
-112,652,2.99426,-13.1373,0.000682569,0.0118023,0.0144783,0.0217515,-0.00926668,0.968723,0.0183856,0.0247788,1112,372,2.99432,13.1373
-105,652,2.91296,-13.2122,0.00145061,0.0137375,0.0150511,0.0238506,-0.00866254,0.979164,0.0194422,0.0211477,1119,372,2.91292,13.2122
-98,652,2.87378,-13.3344,0.00198663,0.0151145,0.0152364,0.0251408,-0.0080396,0.988788,0.0199868,0.0224962,1126,372,2.87384,13.3343
-91,652,2.90076,-13.4306,0.00245095,0.0156642,0.0148441,0.0253055,-0.00719038,0.99477,0.0197093,0.0221536,1133,372,2.90075,13.4306
-84,652,2.87683,-13.5346,0.0026671,0.0148688,0.013865,0.0239158,-0.00637992,0.99266,0.0184421,0.0245263,1140,372,2.87682,13.5346
-77,652,2.81934,-13.6096,0.00242383,0.0135708,0.012465,0.0216516,-0.00565694,0.995632,0.0166436,0.0320866,1147,372,2.8193,13.6096
-70,652,2.81421,-13.738,0,0,0,0,0,0,0,-1,1154,372,2.81424,13.7381
-63,652,2.82532,-13.8309,0,0,0,0,0,0,0,-1,1161,372,2.82532,13.8309
-56,652,2.7854,-13.9132,0,0,0,0,0,0,0,-1,1168,372,2.78541,13.9132
-49,652,2.76331,-13.9719,0.000333087,0.00712307,0.00161166,0.00748619,-3.00326e-05,1.34919,0.00500084,0.0318502,1175,372,2.76325,13.9719
-42,652,2.7301,-14.0265,-0.000661593,0.00511008,-0.00116249,0.00533542,-0.000886935,-1.37933,0.00388647,0.0114461,1182,372,2.73009,14.0265
-35,652,2.7428,-14.0878,-0.00131182,0.00214546,-0.0032564,0.0041036,-0.00326996,-1.02941,0.00426619,0.00979459,1189,372,2.74274,14.0878
-28,652,2.74207,-14.1473,-0.00146504,0.00136417,-0.00292445,0.00319818,-0.00329906,-1.01067,0.00375133,0.00792667,1196,372,2.74202,14.1473
-21,652,2.7218,-14.1957,-0.00175938,0.000730495,-0.00252813,0.00230359,-0.00333248,-1.01419,0.00327201,0.00760568,1203,372,2.72177,14.1957
-14,652,2.70972,-14.2379,-0.00192688,0.000362747,-0.0021566,0.00165956,-0.00322369,-1.02941,0.00286715,0.00934575,1210,372,2.70969,14.2379
-7,652,2.70239,-14.2986,-0.00235268,-0.000253916,-0.00179653,0.000777264,-0.00338386,-1.04973,0.00255472,0.0127662,1217,372,2.70244,14.2986
0,652,2.67407,-14.3444,-0.00211049,-0.000941916,-0.00105407,-0.000321026,-0.00273138,-1.03847,0.0017239,0.0128737,1224,372,2.67401,14.3444
7,652,2.66589,-14.3554,-0.00155898,-0.00149682,-0.000218901,-0.0013068,-0.001749,-0.855922,0.00105011,0.0133022,1231,372,2.66594,14.3554
14,652,2.65735,-14.3536,-0.0013657,-0.00187672,0.000557303,-0.00100812,-0.00223429,0.570456,0.00129202,0.0104966,1238,372,2.65736,14.3536
21,652,2.64392,-14.3732,-0.00113521,-0.00195676,0.00128046,-0.000201258,-0.00289072,0.630182,0.00186369,0.00993367,1245,372,2.64396,14.3732
28,652,2.64221,-14.407,-0.000690886,-0.00184451,0.00196157,0.000776925,-0.00331232,0.642401,0.00250764,0.00964474,1252,372,2.64219,14.407
35,652,2.62488,-14.4232,-0.000187566,-0.0016643,0.00260866,0.00178521,-0.00363708,0.647483,0.00319084,0.00966974,1259,372,2.62489,14.4232
42,652,2.61108,-14.4241,0.000268228,-0.00106392,0.00335121,0.00301892,-0.00381461,0.687299,0.00395424,0.0104023,1266,372,2.61105,14.4241
49,652,2.61646,-14.4253,0.000732349,-0.000201304,0.00388648,0.00417994,-0.0036489,0.725627,0.00452345,0.0130952,1273,372,2.6165,14.4253
56,652,2.59998,-14.4171,0.00124239,0.000940262,0.00424423,0.00533824,-0.00315559,0.76761,0.0049576,0.0157126,1280,372,2.59994,14.4171
63,652,2.60828,-14.4014,0.00176087,0.00208746,0.00440553,0.00633272,-0.00248438,0.803922,0.00524969,0.0201531,1287,372,2.60831,14.4014
70,652,2.60315,-14.3585,0.00165486,0.00357542,0.00476046,0.00747148,-0.0022412,0.884923,0.00587239,0.0172965,1294,372,2.60314,14.3585
77,652,2.59119,-14.356,0.00105617,0.00501733,0.00533917,0.00873143,-0.00265793,0.963007,0.00688025,0.0148932,1301,372,2.59116,14.356
84,652,2.58276,-14.3441,-8.66875e-05,0.0062776,0.00559517,0.00953222,-0.00334131,1.04395,0.0077137,0.0119138,1308,372,2.58281,14.3441
91,652,2.5498,-14.3513,-0.0010904,0.00737606,0.00540885,0.0100113,-0.00372565,1.11743,0.00820312,0.0145108,1315,372,2.54984,14.3513
98,652,2.55627,-14.279,-0.00196388,0.00835461,0.00512694,0.0104688,-0.00407811,1.17967,0.00866462,0.0122248,1322,372,2.55623,14.279
105,652,2.54309,-14.2097,-0.00337673,0.00916529,0.00479214,0.0107867,-0.00499813,1.24454,0.0093154,0.0101895,1329,372,2.54308,14.2097
112,652,2.53198,-14.1874,-0.00481237,0.00968682,0.0043376,0.0108854,-0.00601093,1.3012,0.00988948,0.00971583,1336,372,2.53196,14.1874
119,652,2.53821,-14.157,-0.00566517,0.00997463,0.00388217,0.0108853,-0.00657579,1.3404,0.010183,0.0107493,1343,372,2.53825,14.157
126,652,2.50562,-14.1053,-0.00638523,0.0100285,0.00327375,0.0106574,-0.00701409,1.38102,0.0102746,0.0121205,1350,372,2.50561,14.1053
133,652,2.47534,-14.0336,-0.00698476,0.00994561,0.0024756,0.0103002,-0.00733932,1.42854,0.0102319,0.0128636,1357,372,2.47531,14.0336
140,652,2.4729,-13.9562,-0.00725287,0.00981154,0.00160066,0.00996039,-0.00740171,1.47807,0.0100602,0.0101625,1364,372,2.47288,13.9562
147,652,2.46021,-13.8866,-0.00719695,0.00918565,0.000700229,0.00921552,-0.00722682,1.52816,0.00951611,0.00911306,1371,372,2.46024,13.8866
154,652,2.45313,-13.8159,-0.00684165,0.00846713,-0.000118212,0.00846805,-0.00684256,-1.56308,0.00885617,0.00889212,1378,372,2.45312,13.816
161,652,2.45471,-13.7474,-0.00633877,0.0073317,-0.000665583,0.00736403,-0.0063711,-1.52226,0.00793689,0.0100696,1385,372,2.45475,13.7474
168,652,2.43787,-13.6785,-0.00586603,0.00628469,-0.00093669,0.00635647,-0.00593781,-1.49431,0.00709948,0.0111866,1392,372,2.43788,13.6785
175,652,2.42346,-13.5857,-0.00445807,0.00498665,-0.00141809,0.00519497,-0.00466639,-1.42493,0.00569619,0.0111925,1399,372,2.42348,13.5857
182,652,2.40247,-13.5288,-0.00190804,0.00358232,-0.00257635,0.00460193,-0.00292764,-1.19395,0.00438288,0.0161982,1406,372,2.40242,13.5288
189,652,2.43738,-13.4211,0.00127129,0.00216562,-0.00203688,0.00380384,-0.000366935,-0.89345,0.00266664,0.0249412,1413,372,2.43739,13.4211
196,652,2.40369,-13.3587,0.000588313,0.000164696,5.19311e-05,0.000594586,0.000158423,0.120218,0.00035555,0.0460102,1420,372,2.40372,13.3587
203,652,2.36426,-13.1319,0,0,0,0,0,0,0,-1,1427,372,2.36429,13.1319
210,652,2.33716,-13.2978,-0.00159645,-0.00194474,0.00214802,0.000384476,-0.00392567,0.744951,0.00275423,0.044712,1434,372,2.33719,13.2978
217,652,2.33972,-13.0396,-0.00193154,-0.00159727,0.00147426,-0.000280704,-0.00324811,0.841841,0.00207817,0.0432974,1441,372,2.3397,13.0396
224,652,2.34424,-12.7407,-0.00211519,-0.00108219,0.000454468,-0.000910712,-0.00228667,1.21,0.00132929,0.0339528,1448,372,2.34429,12.7407
231,652,2.31885,-12.5998,-0.00202605,-9.65281e-05,-8.53763e-05,-9.27578e-05,-0.00202982,-1.52666,0.00132338,0.035538,1455,372,2.31887,12.5998
238,652,2.44617,-12.5728,-0.00209711,0.00111356,-0.00083604,0.00131822,-0.00230177,-1.33073,0.00211556,0.0390191,1462,372,2.44611,12.5728
245,652,2.34143,-12.5915,-0.00239257,0.00214279,-0.00197392,0.00288156,-0.00313134,-1.21267,0.00347255,0.0390802,1469,372,2.34139,12.5915
252,652,2.19897,-12.5292,-0.00234143,0.00359368,-0.00304375,0.0048771,-0.00362485,-1.17176,0.00492632,0.0462567,1476,372,2.19902,12.5292
259,652,1.80286,-11.7072,0,0,0,0,0,0,0,-1,1483,372,1.80282,11.7072
266,652,1.81775,-11.7592,-0.00204094,0.00744938,-0.0045593,0.00928478,-0.00387634,-1.18808,0.00780951,0.0477516,1490,372,1.8177,11.7591
273,652,1.79724,-11.7808,-0.00184037,0.00943226,-0.00438186,0.0109352,-0.00334329,-1.24038,0.00862336,0.046956,1497,372,1.79719,11.7808
280,652,1.73962,-11.9186,0,0,0,0,0,0,0,-1,1504,372,1.73959,11.9186
287,652,2.42407,-12.462,0,0,0,0,0,0,0,-1,1511,372,2.42404,12.462
294,652,1.90784,-12.2817,0,0,0,0,0,0,0,-1,1518,372,1.90779,12.2817
301,652,1.3916,-12.1013,0,0,0,0,0,0,0,-1,1525,372,1.39154,12.1014
308,652,5.06067,-8.25143,0,0,0,0,0,0,0,-1,1532,372,5.06062,8.25143
315,652,2.02148,-10.9823,0,0,0,0,0,0,0,-1,1539,372,2.02152,10.9823
322,652,5.31433,-2.42712,0,0,0,0,0,0,0,-1,1546,372,5.31435,2.42712
329,652,4.35828,-2.34665,0,0,0,0,0,0,0,-1,1553,372,4.35832,2.34665
336,652,4.60815,-2.13776,0,0,0,0,0,0,0,-1,1560,372,4.6082,2.13775
343,652,4.18225,-6.7092,0,0,0,0,0,0,0,-1,1567,372,4.18231,6.70921
350,652,4.64563,-7.2074,0,0,0,0,0,0,0,-1,1574,372,4.6456,7.2074
357,652,0,0,0,0,0,0,0,0,0,-1,1581,372,0,0
364,652,0,0,0,0,0,0,0,0,0,-1,1588,372,0,0
371,652,0,0,0,0,0,0,0,0,0,-1,1595,372,0,0
378,652,0,0,0,0,0,0,0,0,0,-1,1602,372,0,0
385,652,0,0,0,0,0,0,0,0,0,-1,1609,372,0,0
392,652,0,0,0,0,0,0,0,0,0,-1,1616,372,0,0
399,652,0,0,0,0,0,0,0,0,0,-1,1623,372,0,0
406,652,0,0,0,0,0,0,0,0,0,-1,1630,372,0,0
413,652,0,0,0,0,0,0,0,0,0,-1,1637,372,0,0
420,652,0,0,0,0,0,0,0,0,0,-1,1644,372,0,0
427,652,0,0,0,0,0,0,0,0,0,-1,1651,372,0,0
434,652,0,0,0,0,0,0,0,0,0,-1,1658,372,0,0
441,652,0,0,0,0,0,0,0,0,0,-1,1665,372,0,0
448,652,0,0,0,0,0,0,0,0,0,-1,1672,372,0,0
455,652,0,0,0,0,0,0,0,0,0,-1,1679,372,0,0
462,652,0,0,0,0,0,0,0,0,0,-1,1686,372,0,0
469,652,0,0,0,0,0,0,0,0,0,-1,1693,372,0,0
476,652,0,0,0,0,0,0,0,0,0,-1,1700,372,0,0
483,652,0,0,0,0,0,0,0,0,0,-1,1707,372,0,0
490,652,0,0,0,0,0,0,0,0,0,-1,1714,372,0,0
497,652,0,0,0,0,0,0,0,0,0,-1,1721,372,0,0
504,652,0,0,0,0,0,0,0,0,0,-1,1728,372,0,0
511,652,0,0,0,0,0,0,0,0,0,-1,1735,372,0,0
518,652,0,0,0,0,0,0,0,0,0,-1,1742,372,0,0
525,652,0,0,0,0,0,0,0,0,0,-1,1749,372,0,0
532,652,0,0,0,0,0,0,0,0,0,-1,1756,372,0,0
539,652,0,0,0,0,0,0,0,0,0,-1,1763,372,0,0
546,652,0,0,0,0,0,0,0,0,0,-1,1770,372,0,0
553,652,0,0,0,0,0,0,0,0,0,-1,1777,372,0,0
560,652,0,0,0,0,0,0,0,0,0,-1,1784,372,0,0
567,652,0,0,0,0,0,0,0,0,0,-1,1791,372,0,0
574,652,0,0,0,0,0,0,0,0,0,-1,1798,372,0,0
581,652,0,0,0,0,0,0,0,0,0,-1,1805,372,0,0
588,652,0,0,0,0,0,0,0,0,0,-1,1812,372,0,0
595,652,0,0,0,0,0,0,0,0,0,-1,1819,372,0,0
602,652,0,0,0,0,0,0,0,0,0,-1,1826,372,0,0
609,652,0,0,0,0,0,0,0,0,0,-1,1833,372,0,0
616,652,0,0,0,0,0,0,0,0,0,-1,1840,372,0,0
623,652,0,0,0,0,0,0,0,0,0,-1,1847,372,0,0
630,652,0,0,0,0,0,0,0,0,0,-1,1854,372,0,0
637,652,0,0,0,0,0,0,0,0,0,-1,1861,372,0,0
644,652,0,0,0,0,0,0,0,0,0,-1,1868,372,0,0
651,652,0,0,0,0,0,0,0,0,0,-1,1875,372,0,0
658,652,0,0,0,0,0,0,0,0,0,-1,1882,372,0,0
665,652,0,0,0,0,0,0,0,0,0,-1,1889,372,0,0
672,652,0,0,0,0,0,0,0,0,0,-1,1896,372,0,0
679,652,0,0,0,0,0,0,0,0,0,-1,1903,372,0,0
686,652,0,0,0,0,0,0,0,0,0,-1,1910,372,0,0
693,652,0,0,0,0,0,0,0,0,0,-1,1917,372,0,0
700,652,0,0,0,0,0,0,0,0,0,-1,1924,372,0,0
707,652,0,0,0,0,0,0,0,0,0,-1,1931,372,0,0
714,652,0,0,0,0,0,0,0,0,0,-1,1938,372,0,0
721,652,0,0,0,0,0,0,0,0,0,-1,1945,372,0,0
728,652,0,0,0,0,0,0,0,0,0,-1,1952,372,0,0
735,652,0,0,0,0,0,0,0,0,0,-1,1959,372,0,0
742,652,0,0,0,0,0,0,0,0,0,-1,1966,372,0,0
749,652,0,0,0,0,0,0,0,0,0,-1,1973,372,0,0
756,652,0,0,0,0,0,0,0,0,0,-1,1980,372,0,0
763,652,0,0,0,0,0,0,0,0,0,-1,1987,372,0,0
770,652,0,0,0,0,0,0,0,0,0,-1,1994,372,0,0
777,652,0,0,0,0,0,0,0,0,0,-1,2001,372,0,0
784,652,0,0,0,0,0,0,0,0,0,-1,2008,372,0,0
791,652,0,0,0,0,0,0,0,0,0,-1,2015,372,0,0
798,652,0,0,0,0,0,0,0,0,0,-1,2022,372,0,0
805,652,0,0,0,0,0,0,0,0,0,-1,2029,372,0,0
812,652,0,0,0,0,0,0,0,0,0,-1,2036,372,0,0
-700,645,0,0,0,0,0,0,0,0,0,-1,524,379,0,0
-693,645,0,0,0,0,0,0,0,0,0,-1,531,379,0,0
-686,645,0,0,0,0,0,0,0,0,0,-1,538,379,0,0
-679,645,0,0,0,0,0,0,0,0,0,-1,545,379,0,0
-672,645,0,0,0,0,0,0,0,0,0,-1,552,379,0,0
-665,645,0,0,0,0,0,0,0,0,0,-1,559,379,0,0
-658,645,0,0,0,0,0,0,0,0,0,-1,566,379,0,0
-651,645,0,0,0,0,0,0,0,0,0,-1,573,379,0,0
-644,645,0,0,0,0,0,0,0,0,0,-1,580,379,0,0
-637,645,0,0,0,0,0,0,0,0,0,-1,587,379,0,0
-630,645,0,0,0,0,0,0,0,0,0,-1,594,379,0,0
-623,645,0,0,0,0,0,0,0,0,0,-1,601,379,0,0
-616,645,0,0,0,0,0,0,0,0,0,-1,608,379,0,0
-609,645,0,0,0,0,0,0,0,0,0,-1,615,379,0,0
-602,645,0,0,0,0,0,0,0,0,0,-1,622,379,0,0
-595,645,0,0,0,0,0,0,0,0,0,-1,629,379,0,0
-588,645,0,0,0,0,0,0,0,0,0,-1,636,379,0,0
-581,645,0,0,0,0,0,0,0,0,0,-1,643,379,0,0
-574,645,0,0,0,0,0,0,0,0,0,-1,650,379,0,0
-567,645,0,0,0,0,0,0,0,0,0,-1,657,379,0,0
-560,645,0,0,0,0,0,0,0,0,0,-1,664,379,0,0
-553,645,0,0,0,0,0,0,0,0,0,-1,671,379,0,0
-546,645,0,0,0,0,0,0,0,0,0,-1,678,379,0,0
-539,645,0,0,0,0,0,0,0,0,0,-1,685,379,0,0
-532,645,0,0,0,0,0,0,0,0,0,-1,692,379,0,0
-525,645,0,0,0,0,0,0,0,0,0,-1,699,379,0,0
-518,645,0,0,0,0,0,0,0,0,0,-1,706,379,0,0
-511,645,0,0,0,0,0,0,0,0,0,-1,713,379,0,0
-504,645,0,0,0,0,0,0,0,0,0,-1,720,379,0,0
-497,645,0,0,0,0,0,0,0,0,0,-1,727,379,0,0
-490,645,0,0,0,0,0,0,0,0,0,-1,734,379,0,0
-483,645,0,0,0,0,0,0,0,0,0,-1,741,379,0,0
-476,645,0,0,0,0,0,0,0,0,0,-1,748,379,0,0
-469,645,0,0,0,0,0,0,0,0,0,-1,755,379,0,0
-462,645,0,0,0,0,0,0,0,0,0,-1,762,379,0,0
-455,645,0,0,0,0,0,0,0,0,0,-1,769,379,0,0
-448,645,0,0,0,0,0,0,0,0,0,-1,776,379,0,0
-441,645,0,0,0,0,0,0,0,0,0,-1,783,379,0,0
-434,645,0,0,0,0,0,0,0,0,0,-1,790,379,0,0
-427,645,0,0,0,0,0,0,0,0,0,-1,797,379,0,0
-420,645,0,0,0,0,0,0,0,0,0,-1,804,379,0,0
-413,645,0,0,0,0,0,0,0,0,0,-1,811,379,0,0
-406,645,0,0,0,0,0,0,0,0,0,-1,818,379,0,0
-399,645,0,0,0,0,0,0,0,0,0,-1,825,379,0,0
-392,645,0,0,0,0,0,0,0,0,0,-1,832,379,0,0
-385,645,0,0,0,0,0,0,0,0,0,-1,839,379,0,0
-378,645,0,0,0,0,0,0,0,0,0,-1,846,379,0,0
-371,645,0,0,0,0,0,0,0,0,0,-1,853,379,0,0
-364,645,0,0,0,0,0,0,0,0,0,-1,860,379,0,0
-357,645,0,0,0,0,0,0,0,0,0,-1,867,379,0,0
-350,645,0,0,0,0,0,0,0,0,0,-1,874,379,0,0
-343,645,0,0,0,0,0,0,0,0,0,-1,881,379,0,0
-336,645,0,0,0,0,0,0,0,0,0,-1,888,379,0,0
-329,645,0,0,0,0,0,0,0,0,0,-1,895,379,0,0
-322,645,0,0,0,0,0,0,0,0,0,-1,902,379,0,0
-315,645,0,0,0,0,0,0,0,0,0,-1,909,379,0,0
-308,645,0,0,0,0,0,0,0,0,0,-1,916,379,0,0
-301,645,0,0,0,0,0,0,0,0,0,-1,923,379,0,0
-294,645,0,0,0,0,0,0,0,0,0,-1,930,379,0,0
-287,645,0,0,0,0,0,0,0,0,0,-1,937,379,0,0
-280,645,0,0,0,0,0,0,0,0,0,-1,944,379,0,0
-273,645,0,0,0,0,0,0,0,0,0,-1,951,379,0,0
-266,645,0,0,0,0,0,0,0,0,0,-1,958,379,0,0
-259,645,0,0,0,0,0,0,0,0,0,-1,965,379,0,0
-252,645,10.0122,-9.04193,0,0,0,0,0,0,0,-1,972,379,10.0122,9.04192
-245,645,-3.15631,-11.1812,0,0,0,0,0,0,0,-1,979,379,-3.15633,11.1812
-238,645,-2.591,-10.3983,0,0,0,0,0,0,0,-1,986,379,-2.59098,10.3983
-231,645,-1.71124,-10.0034,0,0,0,0,0,0,0,-1,993,379,-1.71127,10.0033
-224,645,-2.58899,-7.38031,0,0,0,0,0,0,0,-1,1000,379,-2.58896,7.38031
-217,645,-3.33527,-5.9166,0,0,0,0,0,0,0,-1,1007,379,-3.33529,5.91658
-210,645,0.728638,-13.0316,0,0,0,0,0,0,0,-1,1014,379,0.728654,13.0316
-203,645,1.53198,-12.3115,0,0,0,0,0,0,0,-1,1021,379,1.53198,12.3115
-196,645,2.30298,-11.7168,0,0,0,0,0,0,0,-1,1028,379,2.30292,11.7168
-189,645,3.14294,-11.3177,0,0,0,0,0,0,0,-1,1035,379,3.14296,11.3178
-182,645,3.91882,-10.224,0,0,0,0,0,0,0,-1,1042,379,3.91878,10.224
-175,645,2.8717,-11.833,0,0,0,0,0,0,0,-1,1049,379,2.87167,11.833
-168,645,3.13525,-12.6416,0.000352845,-0.00456814,0.00386413,0.00247335,-0.00668865,0.501896,0.00547312,0.0450481,1056,379,3.13528,12.6416
-161,645,3.12549,-12.4239,-0.000630079,-0.00435803,0.00447493,0.00235356,-0.00734167,0.588058,0.00583927,0.0450121,1063,379,3.12554,12.4239
-154,645,3.16113,-12.7429,-0.00114572,-0.00309883,0.00473256,0.00270999,-0.00695454,0.683652,0.0057564,0.0414351,1070,379,3.16113,12.7429
-147,645,3.23987,-12.7355,-0.00111268,-0.00129819,0.00588245,0.00467775,-0.00708862,0.777515,0.00684068,0.0394379,1077,379,3.23991,12.7355
-140,645,2.8313,-12.6347,-0.000930622,0.0013609,0.00735434,0.0076582,-0.00722792,0.862674,0.0085957,0.0355178,1084,379,2.83128,12.6347
-133,645,2.79822,-12.8303,-0.000976604,0.0028291,0.00812017,0.00926639,-0.00741389,0.90049,0.00965014,0.0310486,1091,379,2.79828,12.8303
-126,645,2.92358,-12.9289,-0.00085325,0.00444803,0.00880758,0.0109952,-0.00740041,0.931562,0.0106881,0.0255748,1098,379,2.92363,12.9289
-119,645,2.9032,-13.0493,-0.00063125,0.00630472,0.00941783,0.0128728,-0.00719932,0.961812,0.0117419,0.0167123,1105,379,2.90317,13.0492
-112,645,2.8584,-13.2057,-0.000164247,0.00843885,0.00971219,0.0147594,-0.00648485,0.993866,0.0125717,0.0111773,1112,379,2.85839,13.2057
-105,645,2.81982,-13.3144,0.000369228,0.00974674,0.0100168,0.0161179,-0.00600192,1.00429,0.0132085,0.0107299,1119,379,2.81981,13.3144
-98,645,2.78882,-13.3952,0.000743267,0.0106732,0.0100455,0.0169137,-0.00549726,1.01492,0.013487,0.012095,1126,379,2.7888,13.3952
-91,645,2.77991,-13.4795,0.00110871,0.0109789,0.0096609,0.0168922,-0.00480462,1.02154,0.0131587,0.012928,1133,379,2.7799,13.4795
-84,645,2.77124,-13.5807,0.0013254,0.0103507,0.00900776,0.015913,-0.00423686,1.01761,0.0122673,0.0123604,1140,379,2.77123,13.5807
-77,645,2.75256,-13.695,0.00119374,0.00940745,0.00809436,0.0143772,-0.00377602,1.02016,0.0110605,0.0109543,1147,379,2.75252,13.695
-70,645,2.75378,-13.7812,0.000829566,0.00824582,0.00687791,0.0123515,-0.00327613,1.03263,0.00951626,0.0109101,1154,379,2.75378,13.7812
-63,645,2.73938,-13.8428,0.000638852,0.00734985,0.0050585,0.0100646,-0.00207588,1.07825,0.00749809,0.0116645,1161,379,2.73943,13.8428
-56,645,2.71936,-13.893,0.000375028,0.0063765,0.00340495,0.00791428,-0.00116275,1.14659,0.00570341,0.0122854,1168,379,2.71935,13.893
-49,645,2.70618,-13.9511,2.75477e-05,0.00510233,0.00177073,0.0056591,-0.000529221,1.26615,0.00396094,0.00995807,1175,379,2.70614,13.9511
-42,645,2.68506,-14.0302,-0.000609733,0.00367936,1.07842e-06,0.00367936,-0.000609733,1.57054,0.00267938,0.00959979,1182,379,2.68512,14.0302
-35,645,2.69885,-14.1193,-0.00112022,0.00184011,-0.00135489,0.00236659,-0.00164669,-1.20018,0.00232946,0.0102575,1189,379,2.69887,14.1193
-28,645,2.69348,-14.1847,-0.00121071,0.0013194,-0.00120264,0.00179982,-0.00169114,-1.19074,0.00201583,0.0082699,1196,379,2.69342,14.1847
-21,645,2.67542,-14.2074,-0.00133925,0.000841345,-0.0010437,0.00126037,-0.00175828,-1.18901,0.0017507,0.00944175,1203,379,2.67536,14.2074
-14,645,2.67151,-14.2389,-0.00137949,0.000571556,-0.000883422,0.000912118,-0.00172005,-1.20285,0.00154336,0.00912221,1210,379,2.67151,14.2389
-7,645,2.66846,-14.3167,-0.00157964,0.000129243,-0.000752572,0.000413414,-0.00186381,-1.20975,0.00140083,0.0129137,1217,379,2.66846,14.3166
0,645,2.65466,-14.3824,-0.00138395,-0.000338818,-0.000513935,-0.000128442,-0.00159433,-1.18226,0.00102276,0.0252334,1224,379,2.65472,14.3824
7,645,2.64551,-14.3652,-0.00102656,-0.000594064,-8.3944e-05,-0.000578343,-0.00104228,-1.38566,0.000602969,0.0164451,1231,379,2.64556,14.3652
14,645,2.64453,-14.3611,-0.000926176,-0.000746367,0.000323104,-0.000500893,-0.00117165,0.921092,0.000678818,0.0144442,1238,379,2.64448,14.3611
21,645,2.62561,-14.3761,-0.000777143,-0.000664432,0.000707748,-1.07994e-05,-0.00143078,0.825128,0.000950271,0.0100719,1245,379,2.62559,14.3761
28,645,2.62451,-14.4053,-0.000475009,-0.000472643,0.00106639,0.000592568,-0.00154022,0.785953,0.00127124,0.00914109,1252,379,2.62453,14.4053
35,645,2.60852,-14.4329,-0.000156291,-0.000209964,0.00143686,0.00125399,-0.00162024,0.776061,0.00166392,0.00858082,1259,379,2.60856,14.4329
42,645,2.60754,-14.4432,0.000163224,0.000283975,0.00191998,0.00214453,-0.00169733,0.801116,0.0022231,0.00838351,1266,379,2.60755,14.4432
49,645,2.6311,-14.4368,0.000513858,0.000967245,0.00226939,0.00302123,-0.00154013,0.835179,0.00267938,0.0115869,1273,379,2.63104,14.4368
56,645,2.62256,-14.4124,0.000899806,0.00179113,0.00253159,0.00391599,-0.00122505,0.872526,0.00310075,0.0121203,1280,379,2.62257,14.4125
63,645,2.61548,-14.4018,0.00129982,0.00250716,0.00267474,0.0046455,-0.000838524,0.896385,0.00341104,0.0124737,1287,379,2.61545,14.4018
70,645,2.61389,-14.3757,0.0013049,0.00334064,0.00299143,0.00548264,-0.000837091,0.949385,0.0039637,0.0158481,1294,379,2.61386,14.3757
77,645,2.60852,-14.368,0.00108603,0.00405563,0.0034293,0.00630777,-0.00116611,0.989702,0.00464296,0.0189143,1301,379,2.60847,14.368
84,645,2.60718,-14.3405,0.000636601,0.00458798,0.00358105,0.00670219,-0.00147761,1.03747,0.00503348,0.013234,1308,379,2.60715,14.3405
91,645,2.58594,-14.3228,0.00013187,0.00501995,0.00341666,0.00677673,-0.00162491,1.09587,0.0051457,0.0137912,1315,379,2.58596,14.3228
98,645,2.59155,-14.2677,-0.000272083,0.00533538,0.0031925,0.00678053,-0.00171723,1.14573,0.00518837,0.0128405,1322,379,2.59153,14.2677
105,645,2.58557,-14.2177,-0.000961446,0.00552271,0.00298886,0.0066902,-0.00212894,1.19841,0.00531389,0.00996036,1329,379,2.58557,14.2178
112,645,2.57446,-14.1932,-0.00164254,0.00548329,0.00256424,0.0063101,-0.00246935,1.25888,0.005228,0.00902518,1336,379,2.57449,14.1932
119,645,2.56079,-14.143,-0.00196641,0.00539484,0.00217005,0.00598693,-0.0025585,1.30443,0.00506433,0.00873328,1343,379,2.56082,14.143
126,645,2.55139,-14.0976,-0.00225032,0.00524065,0.00170262,0.00560948,-0.00261915,1.35747,0.00485424,0.0105485,1350,379,2.55143,14.0976
133,645,2.54919,-14.0275,-0.00247274,0.00512144,0.00114666,0.0052908,-0.0026421,1.42416,0.00466438,0.0129877,1357,379,2.54917,14.0275
140,645,2.54675,-13.9489,-0.00249699,0.00503953,0.000561919,0.00508119,-0.00253865,1.49678,0.00448021,0.0133693,1364,379,2.54673,13.9489
147,645,2.52466,-13.8974,-0.00239242,0.00470424,-3.26413e-05,0.00470439,-0.00239257,-1.5662,0.00416927,0.0128469,1371,379,2.52468,13.8974
154,645,2.52747,-13.8281,-0.00215267,0.00434277,-0.000531871,0.00438604,-0.00219593,-1.48963,0.00386959,0.0113162,1378,379,2.52751,13.8281
161,645,2.52795,-13.7488,-0.00188137,0.00372452,-0.000802505,0.00383714,-0.00199399,-1.43137,0.00342221,0.0133578,1385,379,2.5279,13.7488
168,645,2.51941,-13.6852,-0.00172393,0.00325795,-0.000888432,0.00341165,-0.00187762,-1.3995,0.00309628,0.0156776,1392,379,2.51937,13.6852
175,645,2.54468,-13.6118,-0.00106415,0.00264626,-0.00112481,0.00296062,-0.0013785,-1.29828,0.0025601,0.013127,1399,379,2.54463,13.6118
182,645,2.52429,-13.5078,-0.000150221,0.00204083,-0.00158469,0.00287181,-0.000981203,-1.08784,0.00231208,0.00935402,1406,379,2.52434,13.5079
189,645,2.51538,-13.3876,0.00059805,0.001295,-0.000959708,0.00196754,-7.44908e-05,-0.959549,0.00133722,0.0104826,1413,379,2.51539,13.3876
196,645,2.47742,-13.3081,0.000111467,2.53012e-05,0.000361304,0.000432248,-0.00029548,0.726057,0.00042262,0.0108315,1420,379,2.4774,13.3081
203,645,2.44202,-13.1972,-0.000682022,-0.00101813,0.00151956,0.000678748,-0.0023789,0.730325,0.00185407,0.011219,1427,379,2.44206,13.1972
210,645,2.479,-13.0778,-0.00127045,-0.00129094,0.00165444,0.000373776,-0.00293517,0.782302,0.00209253,0.0144539,1434,379,2.47904,13.0778
217,645,2.48279,-12.9835,-0.0014895,-0.000929607,0.00120009,2.27522e-05,-0.00244186,0.899985,0.00163554,0.0133961,1441,379,2.48277,12.9835
224,645,2.44214,-12.8646,-0.00164903,-0.00046275,0.000519756,-0.000267245,-0.00184454,1.21102,0.001151,0.0121312,1448,379,2.44212,12.8646
231,645,2.42651,-12.6994,-0.00155865,0.000364899,0.000238088,0.00039393,-0.00158768,1.44946,0.00121131,0.0132932,1455,379,2.42649,12.6994
238,645,2.41553,-12.576,-0.00157265,0.0014002,-0.00015564,0.00140832,-0.00158078,-1.51863,0.00172672,0.0106136,1462,379,2.41553,12.576
245,645,2.41382,-12.4476,-0.00179285,0.00221572,-0.000863648,0.00239388,-0.00197101,-1.36737,0.002524,0.0111573,1469,379,2.4138,12.4476
252,645,2.43787,-12.2483,-0.00173006,0.00337311,-0.00149185,0.00377723,-0.00213418,-1.30626,0.00345662,0.0177006,1476,379,2.43782,12.2483
259,645,2.3905,-12.0481,-0.0016095,0.00459554,-0.00198639,0.00517696,-0.00219091,-1.28605,0.00436874,0.0283196,1483,379,2.39047,12.0481
266,645,2.39514,-11.9138,-0.00155267,0.00636554,-0.00219271,0.00693219,-0.00211932,-1.3179,0.0054666,0.0263288,1490,379,2.39512,11.9138
273,645,2.38281,-11.7499,-0.00141776,0.00788403,-0.00186279,0.00824321,-0.00177694,-1.38032,0.00617363,0.0268412,1497,379,2.38282,11.7499
280,645,2.46777,-11.5157,-0.000988139,0.00912649,-0.00129092,0.00928865,-0.0011503,-1.44584,0.00660932,0.0469271,1504,379,2.46776,11.5157
287,645,2.54626,-11.3514,0,0,0,0,0,0,0,-1,1511,379,2.54624,11.3514
294,645,2.24878,-11.7921,0,0,0,0,0,0,0,-1,1518,379,2.24884,11.7921
301,645,1.87048,-11.856,0,0,0,0,0,0,0,-1,1525,379,1.87043,11.856
308,645,2.776,-11.6742,0,0,0,0,0,0,0,-1,1532,379,2.77596,11.6742
315,645,2.57996,-10.5358,0,0,0,0,0,0,0,-1,1539,379,2.57994,10.5358
322,645,2.66357,-10.354,0,0,0,0,0,0,0,-1,1546,379,2.66354,10.354
329,645,2.42358,-9.06589,0,0,0,0,0,0,0,-1,1553,379,2.4236,9.06589
336,645,0.61792,-6.51047,0,0,0,0,0,0,0,-1,1560,379,0.617879,6.51047
343,645,3.48962,-5.22675,0,0,0,0,0,0,0,-1,1567,379,3.48959,5.22675
350,645,3.93213,-5.72198,0,0,0,0,0,0,0,-1,1574,379,3.9321,5.72198
357,645,1.63928,-6.465,0,0,0,0,0,0,0,-1,1581,379,1.63926,6.46499
364,645,-0.0794678,-3.22021,0,0,0,0,0,0,0,-1,1588,379,-0.0794987,3.22021
371,645,0,0,0,0,0,0,0,0,0,-1,1595,379,0,0
378,645,0,0,0,0,0,0,0,0,0,-1,1602,379,0,0
385,645,0,0,0,0,0,0,0,0,0,-1,1609,379,0,0
392,645,0,0,0,0,0,0,0,0,0,-1,1616,379,0,0
399,645,0,0,0,0,0,0,0,0,0,-1,1623,379,0,0
406,645,0,0,0,0,0,0,0,0,0,-1,1630,379,0,0
413,645,0,0,0,0,0,0,0,0,0,-1,1637,379,0,0
420,645,0,0,0,0,0,0,0,0,0,-1,1644,379,0,0
427,645,0,0,0,0,0,0,0,0,0,-1,1651,379,0,0
434,645,0,0,0,0,0,0,0,0,0,-1,1658,379,0,0
441,645,0,0,0,0,0,0,0,0,0,-1,1665,379,0,0
448,645,0,0,0,0,0,0,0,0,0,-1,1672,379,0,0
455,645,0,0,0,0,0,0,0,0,0,-1,1679,379,0,0
462,645,0,0,0,0,0,0,0,0,0,-1,1686,379,0,0
469,645,0,0,0,0,0,0,0,0,0,-1,1693,379,0,0
476,645,0,0,0,0,0,0,0,0,0,-1,1700,379,0,0
483,645,0,0,0,0,0,0,0,0,0,-1,1707,379,0,0
490,645,0,0,0,0,0,0,0,0,0,-1,1714,379,0,0
497,645,0,0,0,0,0,0,0,0,0,-1,1721,379,0,0
504,645,0,0,0,0,0,0,0,0,0,-1,1728,379,0,0
511,645,0,0,0,0,0,0,0,0,0,-1,1735,379,0,0
518,645,0,0,0,0,0,0,0,0,0,-1,1742,379,0,0
525,645,0,0,0,0,0,0,0,0,0,-1,1749,379,0,0
532,645,0,0,0,0,0,0,0,0,0,-1,1756,379,0,0
539,645,0,0,0,0,0,0,0,0,0,-1,1763,379,0,0
546,645,0,0,0,0,0,0,0,0,0,-1,1770,379,0,0
553,645,0,0,0,0,0,0,0,0,0,-1,1777,379,0,0
560,645,0,0,0,0,0,0,0,0,0,-1,1784,379,0,0
567,645,0,0,0,0,0,0,0,0,0,-1,1791,379,0,0
574,645,0,0,0,0,0,0,0,0,0,-1,1798,379,0,0
581,645,0,0,0,0,0,0,0,0,0,-1,1805,379,0,0
588,645,0,0,0,0,0,0,0,0,0,-1,1812,379,0,0
595,645,0,0,0,0,0,0,0,0,0,-1,1819,379,0,0
602,645,0,0,0,0,0,0,0,0,0,-1,1826,379,0,0
609,645,0,0,0,0,0,0,0,0,0,-1,1833,379,0,0
616,645,0,0,0,0,0,0,0,0,0,-1,1840,379,0,0
623,645,0,0,0,0,0,0,0,0,0,-1,1847,379,0,0
630,645,0,0,0,0,0,0,0,0,0,-1,1854,379,0,0
637,645,0,0,0,0,0,0,0,0,0,-1,1861,379,0,0
644,645,0,0,0,0,0,0,0,0,0,-1,1868,379,0,0
651,645,0,0,0,0,0,0,0,0,0,-1,1875,379,0,0
658,645,0,0,0,0,0,0,0,0,0,-1,1882,379,0,0
665,645,0,0,0,0,0,0,0,0,0,-1,1889,379,0,0
672,645,0,0,0,0,0,0,0,0,0,-1,1896,379,0,0
679,645,0,0,0,0,0,0,0,0,0,-1,1903,379,0,0
686,645,0,0,0,0,0,0,0,0,0,-1,1910,379,0,0
693,645,0,0,0,0,0,0,0,0,0,-1,1917,379,0,0
700,645,0,0,0,0,0,0,0,0,0,-1,1924,379,0,0
707,645,0,0,0,0,0,0,0,0,0,-1,1931,379,0,0
714,645,0,0,0,0,0,0,0,0,0,-1,1938,379,0,0
721,645,0,0,0,0,0,0,0,0,0,-1,1945,379,0,0
728,645,0,0,0,0,0,0,0,0,0,-1,1952,379,0,0
735,645,0,0,0,0,0,0,0,0,0,-1,1959,379,0,0
742,645,0,0,0,0,0,0,0,0,0,-1,1966,379,0,0
749,645,0,0,0,0,0,0,0,0,0,-1,1973,379,0,0
756,645,0,0,0,0,0,0,0,0,0,-1,1980,379,0,0
763,645,0,0,0,0,0,0,0,0,0,-1,1987,379,0,0
770,645,0,0,0,0,0,0,0,0,0,-1,1994,379,0,0
777,645,0,0,0,0,0,0,0,0,0,-1,2001,379,0,0
784,645,0,0,0,0,0,0,0,0,0,-1,2008,379,0,0
791,645,0,0,0,0,0,0,0,0,0,-1,2015,379,0,0
798,645,0,0,0,0,0,0,0,0,0,-1,2022,379,0,0
805,645,0,0,0,0,0,0,0,0,0,-1,2029,379,0,0
812,645,0,0,0,0,0,0,0,0,0,-1,2036,379,0,0
-700,638,0,0,0,0,0,0,0,0,0,-1,524,386,0,0
-693,638,0,0,0,0,0,0,0,0,0,-1,531,386,0,0
-686,638,0,0,0,0,0,0,0,0,0,-1,538,386,0,0
-679,638,0,0,0,0,0,0,0,0,0,-1,545,386,0,0
-672,638,0,0,0,0,0,0,0,0,0,-1,552,386,0,0
-665,638,0,0,0,0,0,0,0,0,0,-1,559,386,0,0
-658,638,0,0,0,0,0,0,0,0,0,-1,566,386,0,0
-651,638,0,0,0,0,0,0,0,0,0,-1,573,386,0,0
-644,638,0,0,0,0,0,0,0,0,0,-1,580,386,0,0
-637,638,0,0,0,0,0,0,0,0,0,-1,587,386,0,0
-630,638,0,0,0,0,0,0,0,0,0,-1,594,386,0,0
-623,638,0,0,0,0,0,0,0,0,0,-1,601,386,0,0
-616,638,0,0,0,0,0,0,0,0,0,-1,608,386,0,0
-609,638,0,0,0,0,0,0,0,0,0,-1,615,386,0,0
-602,638,0,0,0,0,0,0,0,0,0,-1,622,386,0,0
-595,638,0,0,0,0,0,0,0,0,0,-1,629,386,0,0
-588,638,0,0,0,0,0,0,0,0,0,-1,636,386,0,0
-581,638,0,0,0,0,0,0,0,0,0,-1,643,386,0,0
-574,638,0,0,0,0,0,0,0,0,0,-1,650,386,0,0
-567,638,0,0,0,0,0,0,0,0,0,-1,657,386,0,0
-560,638,0,0,0,0,0,0,0,0,0,-1,664,386,0,0
-553,638,0,0,0,0,0,0,0,0,0,-1,671,386,0,0
-546,638,0,0,0,0,0,0,0,0,0,-1,678,386,0,0
-539,638,0,0,0,0,0,0,0,0,0,-1,685,386,0,0
-532,638,0,0,0,0,0,0,0,0,0,-1,692,386,0,0
-525,638,0,0,0,0,0,0,0,0,0,-1,699,386,0,0
-518,638,0,0,0,0,0,0,0,0,0,-1,706,386,0,0
-511,638,0,0,0,0,0,0,0,0,0,-1,713,386,0,0
-504,638,0,0,0,0,0,0,0,0,0,-1,720,386,0,0
-497,638,0,0,0,0,0,0,0,0,0,-1,727,386,0,0
-490,638,0,0,0,0,0,0,0,0,0,-1,734,386,0,0
-483,638,0,0,0,0,0,0,0,0,0,-1,741,386,0,0
-476,638,0,0,0,0,0,0,0,0,0,-1,748,386,0,0
-469,638,0,0,0,0,0,0,0,0,0,-1,755,386,0,0
-462,638,0,0,0,0,0,0,0,0,0,-1,762,386,0,0
-455,638,0,0,0,0,0,0,0,0,0,-1,769,386,0,0
-448,638,0,0,0,0,0,0,0,0,0,-1,776,386,0,0
-441,638,0,0,0,0,0,0,0,0,0,-1,783,386,0,0
-434,638,0,0,0,0,0,0,0,0,0,-1,790,386,0,0
-427,638,0,0,0,0,0,0,0,0,0,-1,797,386,0,0
-420,638,0,0,0,0,0,0,0,0,0,-1,804,386,0,0
-413,638,0,0,0,0,0,0,0,0,0,-1,811,386,0,0
-406,638,0,0,0,0,0,0,0,0,0,-1,818,386,0,0
-399,638,0,0,0,0,0,0,0,0,0,-1,825,386,0,0
-392,638,0,0,0,0,0,0,0,0,0,-1,832,386,0,0
-385,638,0,0,0,0,0,0,0,0,0,-1,839,386,0,0
-378,638,0,0,0,0,0,0,0,0,0,-1,846,386,0,0
-371,638,0,0,0,0,0,0,0,0,0,-1,853,386,0,0
-364,638,0,0,0,0,0,0,0,0,0,-1,860,386,0,0
-357,638,0,0,0,0,0,0,0,0,0,-1,867,386,0,0
-350,638,0,0,0,0,0,0,0,0,0,-1,874,386,0,0
-343,638,0,0,0,0,0,0,0,0,0,-1,881,386,0,0
-336,638,0,0,0,0,0,0,0,0,0,-1,888,386,0,0
-329,638,0,0,0,0,0,0,0,0,0,-1,895,386,0,0
-322,638,0,0,0,0,0,0,0,0,0,-1,902,386,0,0
-315,638,0,0,0,0,0,0,0,0,0,-1,909,386,0,0
-308,638,0,0,0,0,0,0,0,0,0,-1,916,386,0,0
-301,638,0,0,0,0,0,0,0,0,0,-1,923,386,0,0
-294,638,0,0,0,0,0,0,0,0,0,-1,930,386,0,0
-287,638,0,0,0,0,0,0,0,0,0,-1,937,386,0,0
-280,638,0,0,0,0,0,0,0,0,0,-1,944,386,0,0
-273,638,0,0,0,0,0,0,0,0,0,-1,951,386,0,0
-266,638,0.603821,-10.3962,0,0,0,0,0,0,0,-1,958,386,0.603829,10.3962
-259,638,9.24457,-8.64029,0,0,0,0,0,0,0,-1,965,386,9.24457,8.64028
-252,638,8.62463,-8.76974,0,0,0,0,0,0,0,-1,972,386,8.62463,8.76974
-245,638,7.86023,-9.08749,0,0,0,0,0,0,0,-1,979,386,7.86023,9.08748
-238,638,3.05347,-9.05939,0,0,0,0,0,0,0,-1,986,386,3.05344,9.05939
-231,638,-0.0879517,-10.0367,0,0,0,0,0,0,0,-1,993,386,-0.0879783,10.0367
-224,638,-0.990479,-9.01202,0,0,0,0,0,0,0,-1,1000,386,-0.990463,9.01204
-217,638,-0.470337,-14.8554,0,0,0,0,0,0,0,-1,1007,386,-0.470331,14.8554
-210,638,0.0127563,-13.7673,0,0,0,0,0,0,0,-1,1014,386,0.0127578,13.7673
-203,638,0.749573,-12.3973,0,0,0,0,0,0,0,-1,1021,386,0.749547,12.3973
-196,638,2.31567,-11.9454,0,0,0,0,0,0,0,-1,1028,386,2.31571,11.9454
-189,638,2.44263,-11.3626,0,0,0,0,0,0,0,-1,1035,386,2.44264,11.3626
-182,638,2.37512,-11.2495,0,0,0,0,0,0,0,-1,1042,386,2.37508,11.2495
-175,638,2.71545,-11.9608,0.000646199,-0.000291486,0.00075486,0.00106597,-0.000711253,0.507504,0.00103287,0.043594,1049,386,2.71545,11.9607
-168,638,2.84851,-12.1367,8.36739e-05,-0.00177261,0.00185045,0.0012257,-0.00291464,0.552944,0.00245583,0.0332948,1056,386,2.84845,12.1367
-161,638,2.86206,-12.3275,-0.000581064,-0.00188292,0.0024822,0.00133414,-0.00379812,0.657166,0.00307483,0.0269577,1063,386,2.86209,12.3275
-154,638,2.90271,-12.4836,-0.000887948,-0.00117555,0.00277134,0.00174332,-0.00380682,0.759477,0.00327737,0.0209384,1070,386,2.90272,12.4835
-147,638,2.82959,-12.6129,-0.000930042,-0.000195614,0.00362261,0.00307835,-0.00420401,0.835909,0.00422118,0.0185572,1077,386,2.82954,12.6129
-140,638,2.77209,-12.7168,-0.000874732,0.00140001,0.0046992,0.00509752,-0.00457224,0.904132,0.00558558,0.0148179,1084,386,2.77207,12.7168
-133,638,2.78137,-12.8858,-0.000936817,0.00224621,0.00530398,0.0061923,-0.00488291,0.931154,0.00640916,0.0122023,1091,386,2.78132,12.8858
-126,638,2.78369,-12.9835,-0.00088647,0.00326125,0.00581457,0.00736072,-0.00498595,0.956699,0.00717217,0.0137971,1098,386,2.7837,12.9835
-119,638,2.7616,-13.0721,-0.000775233,0.00453756,0.00622096,0.00864554,-0.00488321,0.987183,0.00791087,0.0154196,1105,386,2.76156,13.0722
-112,638,2.74768,-13.2044,-0.000461207,0.00605546,0.00634591,0.00993066,-0.00433641,1.02257,0.00844554,0.0134249,1112,386,2.74771,13.2044
-105,638,2.7113,-13.3329,-7.71737e-05,0.00693421,0.00646148,0.0107797,-0.00392271,1.03395,0.00879082,0.0145512,1119,386,2.71134,13.333
-98,638,2.71472,-13.4279,0.000193768,0.00754464,0.00637419,0.0112271,-0.00348873,1.04692,0.00887914,0.0149595,1126,386,2.7147,13.4279
-91,638,2.69946,-13.5187,0.000475404,0.00768543,0.00599074,0.0110722,-0.00291137,1.05626,0.00851939,0.0120628,1133,386,2.69945,13.5187
-84,638,2.66602,-13.6065,0.000663536,0.00716733,0.00552105,0.010323,-0.00249213,1.05154,0.00784577,0.0139495,1140,386,2.66602,13.6065
-77,638,2.66467,-13.7055,0.000596503,0.00644334,0.00490187,0.00922734,-0.0021875,1.05428,0.00699568,0.0112982,1147,386,2.66462,13.7055
-70,638,2.68494,-13.7898,0.000409916,0.00556184,0.00413336,0.00785622,-0.00188447,1.06405,0.00596569,0.010319,1154,386,2.68489,13.7898
-63,638,2.66943,-13.8631,0.000358299,0.00492616,0.00316269,0.00654338,-0.00125892,1.09812,0.00483682,0.0105682,1161,386,2.6694,13.8631
-56,638,2.6571,-13.9253,0.000270503,0.00421459,0.0022786,0.00525601,-0.000770923,1.1421,0.00378723,0.0139184,1168,386,2.65715,13.9253
-49,638,2.64368,-13.9807,0.000123772,0.00329546,0.00139483,0.00382159,-0.000402358,1.2101,0.00269189,0.0120787,1175,386,2.6437,13.9807
-42,638,2.63367,-14.0526,-0.000175105,0.00228014,0.000401873,0.00234425,-0.000239209,1.41261,0.00164836,0.0108147,1182,386,2.63363,14.0526
-35,638,2.65283,-14.1352,-0.000419053,0.00110846,-0.000355679,0.00118722,-0.000497811,-1.35288,0.000999626,0.00990967,1189,386,2.65283,14.1352
-28,638,2.66187,-14.2039,-0.000402121,0.000727448,-0.000241472,0.000776903,-0.000451576,-1.36878,0.000717505,0.00960118,1196,386,2.66191,14.2039
-21,638,2.6283,-14.2172,-0.000394698,0.000368613,-0.000150906,0.000397364,-0.000423449,-1.38253,0.000473977,0.0108727,1203,386,2.62828,14.2172
-14,638,2.61462,-14.2498,-0.000315622,0.000200538,-6.79528e-05,0.000209334,-0.000324418,-1.44207,0.00031054,0.0108962,1210,386,2.61464,14.2498
-7,638,2.60498,-14.3695,-0.000280049,-3.83459e-05,-4.57382e-05,-2.99802e-05,-0.000288415,-1.38989,0.000183103,0.0165884,1217,386,2.60503,14.3695
0,638,2.60413,-14.3492,-0.000276346,-0.000292513,-4.35819e-05,-0.000240105,-0.000328755,-0.693703,0.000196406,0.0309073,1224,386,2.60414,14.3492
7,638,2.58997,-14.3519,-0.000288887,-0.000294229,0.000143673,-0.000147861,-0.000435256,0.776104,0.000255563,0.022697,1231,386,2.58991,14.3519
14,638,2.61292,-14.3548,-0.000378419,-0.000238891,0.000337073,3.55613e-05,-0.000652872,0.887442,0.000447573,0.0121275,1238,386,2.61295,14.3548
21,638,2.60693,-14.3857,-0.000399073,-3.58907e-05,0.000524239,0.000337317,-0.000772281,0.952126,0.000656829,0.0105754,1245,386,2.60699,14.3857
28,638,2.60608,-14.3971,-0.000334186,0.000169151,0.000691133,0.000653011,-0.000818046,0.960006,0.000851095,0.00850982,1252,386,2.60612,14.3971
35,638,2.59863,-14.4263,-0.000299211,0.000430967,0.000878613,0.00101732,-0.000885569,0.982309,0.00109951,0.00999728,1259,386,2.59858,14.4263
42,638,2.61694,-14.4459,-0.000184875,0.000707345,0.00118953,0.00153167,-0.0010092,0.964797,0.00147727,0.00919654,1266,386,2.61697,14.4459
49,638,2.63721,-14.4205,9.59596e-06,0.00104329,0.00139985,0.00201867,-0.000965775,0.962244,0.00175845,0.00814744,1273,386,2.63716,14.4205
56,638,2.63232,-14.4012,0.00028389,0.00148152,0.00157692,0.0025695,-0.000804088,0.966856,0.0020347,0.0108268,1280,386,2.63237,14.4013
63,638,2.6283,-14.4153,0.000618257,0.0017775,0.00169011,0.00298462,-0.000588863,0.950588,0.00221231,0.0125382,1287,386,2.62833,14.4154
70,638,2.62891,-14.3929,0.000742419,0.00204486,0.00195272,0.00345209,-0.00066481,0.946346,0.00255203,0.0169856,1294,386,2.62888,14.3929
77,638,2.62805,-14.3631,0.000841834,0.0022038,0.00221429,0.00383945,-0.000793823,0.934578,0.00286119,0.0180943,1301,386,2.6281,14.3631
84,638,2.64429,-14.3355,0.000849155,0.0022001,0.0022183,0.00384349,-0.00079423,0.933189,0.00286402,0.0129708,1308,386,2.64423,14.3355
91,638,2.62866,-14.3012,0.00063781,0.00212264,0.002047,0.0035577,-0.000797249,0.959363,0.00267741,0.0135887,1315,386,2.62868,14.3012
98,638,2.61829,-14.2729,0.000478187,0.00206279,0.00180159,0.0032386,-0.000697624,0.992559,0.00242529,0.0129461,1322,386,2.61825,14.2729
105,638,2.62488,-14.2428,0.000383078,0.00200587,0.00160161,0.00298989,-0.000600943,1.01986,0.00222084,0.0100066,1329,386,2.62484,14.2428
112,638,2.62622,-14.1989,0.000220806,0.00173765,0.00118087,0.00238267,-0.000424219,1.07085,0.00174711,0.00938857,1336,386,2.62624,14.1989
119,638,2.61658,-14.1504,7.18869e-05,0.00155421,0.000807821,0.00190936,-0.000283261,1.15659,0.00137707,0.0107782,1343,386,2.61656,14.1504
126,638,2.62744,-14.095,-9.0159e-05,0.00142994,0.000420977,0.00153874,-0.000198957,1.31789,0.00109817,0.0139154,1350,386,2.62747,14.095
133,638,2.63306,-14.0354,-0.000172067,0.00145229,3.73908e-05,0.00145315,-0.000172927,1.54779,0.00103126,0.0160054,1357,386,2.63302,14.0354
140,638,2.62195,-13.9625,-8.71839e-05,0.00152392,-0.000316802,0.00158398,-0.00014724,-1.38345,0.00110833,0.0173338,1364,386,2.62196,13.9625
147,638,2.62305,-13.9101,1.39235e-05,0.00148988,-0.000663163,0.00174407,-0.000240266,-1.20477,0.00125052,0.0175833,1371,386,2.6231,13.9101
154,638,2.61755,-13.8564,0.00017336,0.00145296,-0.000891513,0.00191049,-0.000284174,-1.09664,0.00137819,0.0153463,1378,386,2.61753,13.8564
161,638,2.58984,-13.7648,0.000297234,0.00119105,-0.000960832,0.00180382,-0.000315539,-1.00308,0.00132036,0.0174923,1385,386,2.58986,13.7648
168,638,2.60205,-13.7007,0.000265484,0.00105001,-0.000913939,0.00165231,-0.000336814,-0.98811,0.00122929,0.022153,1392,386,2.6021,13.7007
175,638,2.63757,-13.6328,0.000443668,0.000895772,-0.000957284,0.00165333,-0.000313892,-0.901344,0.00122038,0.0183087,1399,386,2.63756,13.6328
182,638,2.61804,-13.5049,0.000542196,0.000741381,-0.00095715,0.00160411,-0.000320529,-0.837237,0.00119072,0.0121141,1406,386,2.61804,13.5049
189,638,2.5791,-13.4005,0.000334445,0.000467497,-0.000415808,0.000822067,-2.01245e-05,-0.864722,0.000554874,0.0110692,1413,386,2.57916,13.4005
196,638,2.58545,-13.292,-1.72859e-05,-0.000177818,0.000395349,0.000305862,-0.000500966,0.685246,0.000470341,0.0136398,1420,386,2.58543,13.292
203,638,2.55139,-13.214,-0.000528318,-0.000719105,0.00105611,0.000436697,-0.00168412,0.740358,0.00129313,0.0206919,1427,386,2.55137,13.214
210,638,2.57971,-13.1214,-0.000906093,-0.000763822,0.00120137,0.000368515,-0.00203843,0.81497,0.00149699,0.017417,1434,386,2.5797,13.1214
217,638,2.59375,-13.015,-0.00108861,-0.000418221,0.000941203,0.000245695,-0.00175252,0.956462,0.00125827,0.0118966,1441,386,2.59379,13.015
224,638,2.55566,-12.8826,-0.00123006,-2.41776e-05,0.000521166,0.000169845,-0.00142409,1.21441,0.00101077,0.0100363,1448,386,2.55572,12.8826
231,638,2.5238,-12.7315,-0.00115298,0.000635546,0.000408588,0.000724467,-0.0012419,1.35651,0.00114831,0.0116995,1455,386,2.52384,12.7315
238,638,2.51404,-12.6043,-0.00113478,0.00148029,0.000239565,0.00150205,-0.00115655,1.48019,0.00153926,0.0122257,1462,386,2.51409,12.6043
245,638,2.50256,-12.4565,-0.00129213,0.00211043,-0.000187938,0.00212078,-0.00130248,-1.51579,0.00199516,0.0130923,1469,386,2.50251,12.4564
252,638,2.50525,-12.3145,-0.00122683,0.00300676,-0.000543517,0.00307542,-0.00129549,-1.44513,0.00259236,0.0143118,1476,386,2.50521,12.3145
259,638,2.50183,-12.1823,-0.00114056,0.00391947,-0.00077388,0.00403519,-0.00125627,-1.42238,0.00319237,0.0139446,1483,386,2.50188,12.1823
266,638,2.46729,-12.0495,-0.00113459,0.00522163,-0.0007826,0.00531657,-0.00122953,-1.45007,0.00401744,0.0107851,1490,386,2.46733,12.0495
273,638,2.45032,-11.9151,-0.0010483,0.00633654,-0.000428937,0.00636137,-0.00107314,-1.51297,0.00464017,0.0112213,1497,386,2.45031,11.9151
280,638,2.49951,-11.6814,-0.000703511,0.00720607,0.000125665,0.00720807,-0.000705507,1.55491,0.00505698,0.022538,1504,386,2.49957,11.6814
287,638,2.71057,-11.3111,-0.000514198,0.00810826,0.000984301,0.0082192,-0.000625134,1.45856,0.00569928,0.0386873,1511,386,2.7106,11.3111
294,638,2.46692,-11.4855,-0.000265457,0.00920354,0.00209765,0.00964742,-0.000709336,1.36226,0.00668062,0.0468457,1518,386,2.46694,11.4855
301,638,2.1731,-11.2588,0,0,0,0,0,0,0,-1,1525,386,2.17308,11.2588
308,638,2.60706,-11.0068,0,0,0,0,0,0,0,-1,1532,386,2.60704,11.0068
315,638,2.66687,-10.6851,0.00108853,0.0117767,0.00703378,0.0152663,-0.00240104,1.11026,0.011065,0.0426676,1539,386,2.66684,10.6851
322,638,2.70642,-10.5344,0.00164493,0.011984,0.00952278,0.0176499,-0.004021,1.03407,0.013311,0.0446819,1546,386,2.7064,10.5344
329,638,2.828,-10.1392,0,0,0,0,0,0,0,-1,1553,386,2.82796,10.1392
336,638,2.20642,-7.77731,0,0,0,0,0,0,0,-1,1560,386,2.20646,7.7773
343,638,1.04028,-10.3387,0,0,0,0,0,0,0,-1,1567,386,1.04031,10.3387
350,638,2.3783,-11.33,0,0,0,0,0,0,0,-1,1574,386,2.37831,11.33
357,638,0.130371,-3.02618,0,0,0,0,0,0,0,-1,1581,386,0.130345,3.0262
364,638,3.78149,-6.45215,0,0,0,0,0,0,0,-1,1588,386,3.78155,6.45216
371,638,4.18604,-6.71164,0,0,0,0,0,0,0,-1,1595,386,4.18598,6.71164
378,638,4.59045,-6.97113,0,0,0,0,0,0,0,-1,1602,386,4.5904,6.97112
385,638,0,0,0,0,0,0,0,0,0,-1,1609,386,0,0
392,638,0,0,0,0,0,0,0,0,0,-1,1616,386,0,0
399,638,0,0,0,0,0,0,0,0,0,-1,1623,386,0,0
406,638,0,0,0,0,0,0,0,0,0,-1,1630,386,0,0
413,638,0,0,0,0,0,0,0,0,0,-1,1637,386,0,0
420,638,0,0,0,0,0,0,0,0,0,-1,1644,386,0,0
427,638,0,0,0,0,0,0,0,0,0,-1,1651,386,0,0
434,638,0,0,0,0,0,0,0,0,0,-1,1658,386,0,0
441,638,0,0,0,0,0,0,0,0,0,-1,1665,386,0,0
448,638,0,0,0,0,0,0,0,0,0,-1,1672,386,0,0
455,638,0,0,0,0,0,0,0,0,0,-1,1679,386,0,0
462,638,0,0,0,0,0,0,0,0,0,-1,1686,386,0,0
469,638,0,0,0,0,0,0,0,0,0,-1,1693,386,0,0
476,638,0,0,0,0,0,0,0,0,0,-1,1700,386,0,0
483,638,0,0,0,0,0,0,0,0,0,-1,1707,386,0,0
490,638,0,0,0,0,0,0,0,0,0,-1,1714,386,0,0
497,638,0,0,0,0,0,0,0,0,0,-1,1721,386,0,0
504,638,0,0,0,0,0,0,0,0,0,-1,1728,386,0,0
511,638,0,0,0,0,0,0,0,0,0,-1,1735,386,0,0
518,638,0,0,0,0,0,0,0,0,0,-1,1742,386,0,0
525,638,0,0,0,0,0,0,0,0,0,-1,1749,386,0,0
532,638,0,0,0,0,0,0,0,0,0,-1,1756,386,0,0
539,638,0,0,0,0,0,0,0,0,0,-1,1763,386,0,0
546,638,0,0,0,0,0,0,0,0,0,-1,1770,386,0,0
553,638,0,0,0,0,0,0,0,0,0,-1,1777,386,0,0
560,638,0,0,0,0,0,0,0,0,0,-1,1784,386,0,0
567,638,0,0,0,0,0,0,0,0,0,-1,1791,386,0,0
574,638,0,0,0,0,0,0,0,0,0,-1,1798,386,0,0
581,638,0,0,0,0,0,0,0,0,0,-1,1805,386,0,0
588,638,0,0,0,0,0,0,0,0,0,-1,1812,386,0,0
595,638,0,0,0,0,0,0,0,0,0,-1,1819,386,0,0
602,638,0,0,0,0,0,0,0,0,0,-1,1826,386,0,0
609,638,0,0,0,0,0,0,0,0,0,-1,1833,386,0,0
616,638,0,0,0,0,0,0,0,0,0,-1,1840,386,0,0
623,638,0,0,0,0,0,0,0,0,0,-1,1847,386,0,0
630,638,0,0,0,0,0,0,0,0,0,-1,1854,386,0,0
637,638,0,0,0,0,0,0,0,0,0,-1,1861,386,0,0
644,638,0,0,0,0,0,0,0,0,0,-1,1868,386,0,0
651,638,0,0,0,0,0,0,0,0,0,-1,1875,386,0,0
658,638,0,0,0,0,0,0,0,0,0,-1,1882,386,0,0
665,638,0,0,0,0,0,0,0,0,0,-1,1889,386,0,0
672,638,0,0,0,0,0,0,0,0,0,-1,1896,386,0,0
679,638,0,0,0,0,0,0,0,0,0,-1,1903,386,0,0
686,638,0,0,0,0,0,0,0,0,0,-1,1910,386,0,0
693,638,0,0,0,0,0,0,0,0,0,-1,1917,386,0,0
700,638,0,0,0,0,0,0,0,0,0,-1,1924,386,0,0
707,638,0,0,0,0,0,0,0,0,0,-1,1931,386,0,0
714,638,0,0,0,0,0,0,0,0,0,-1,1938,386,0,0
721,638,0,0,0,0,0,0,0,0,0,-1,1945,386,0,0
728,638,0,0,0,0,0,0,0,0,0,-1,1952,386,0,0
735,638,0,0,0,0,0,0,0,0,0,-1,1959,386,0,0
742,638,0,0,0,0,0,0,0,0,0,-1,1966,386,0,0
749,638,0,0,0,0,0,0,0,0,0,-1,1973,386,0,0
756,638,0,0,0,0,0,0,0,0,0,-1,1980,386,0,0
763,638,0,0,0,0,0,0,0,0,0,-1,1987,386,0,0
770,638,0,0,0,0,0,0,0,0,0,-1,1994,386,0,0
777,638,0,0,0,0,0,0,0,0,0,-1,2001,386,0,0
784,638,0,0,0,0,0,0,0,0,0,-1,2008,386,0,0
791,638,0,0,0,0,0,0,0,0,0,-1,2015,386,0,0
798,638,0,0,0,0,0,0,0,0,0,-1,2022,386,0,0
805,638,0,0,0,0,0,0,0,0,0,-1,2029,386,0,0
812,638,0,0,0,0,0,0,0,0,0,-1,2036,386,0,0
-700,631,0,0,0,0,0,0,0,0,0,-1,524,393,0,0
-693,631,0,0,0,0,0,0,0,0,0,-1,531,393,0,0
-686,631,0,0,0,0,0,0,0,0,0,-1,538,393,0,0
-679,631,0,0,0,0,0,0,0,0,0,-1,545,393,0,0
-672,631,0,0,0,0,0,0,0,0,0,-1,552,393,0,0
-665,631,0,0,0,0,0,0,0,0,0,-1,559,393,0,0
-658,631,0,0,0,0,0,0,0,0,0,-1,566,393,0,0
-651,631,0,0,0,0,0,0,0,0,0,-1,573,393,0,0
-644,631,0,0,0,0,0,0,0,0,0,-1,580,393,0,0
-637,631,0,0,0,0,0,0,0,0,0,-1,587,393,0,0
-630,631,0,0,0,0,0,0,0,0,0,-1,594,393,0,0
-623,631,0,0,0,0,0,0,0,0,0,-1,601,393,0,0
-616,631,0,0,0,0,0,0,0,0,0,-1,608,393,0,0
-609,631,0,0,0,0,0,0,0,0,0,-1,615,393,0,0
-602,631,0,0,0,0,0,0,0,0,0,-1,622,393,0,0
-595,631,0,0,0,0,0,0,0,0,0,-1,629,393,0,0
-588,631,0,0,0,0,0,0,0,0,0,-1,636,393,0,0
-581,631,0,0,0,0,0,0,0,0,0,-1,643,393,0,0
-574,631,0,0,0,0,0,0,0,0,0,-1,650,393,0,0
-567,631,0,0,0,0,0,0,0,0,0,-1,657,393,0,0
-560,631,0,0,0,0,0,0,0,0,0,-1,664,393,0,0
-553,631,0,0,0,0,0,0,0,0,0,-1,671,393,0,0
-546,631,0,0,0,0,0,0,0,0,0,-1,678,393,0,0
-539,631,0,0,0,0,0,0,0,0,0,-1,685,393,0,0
-532,631,0,0,0,0,0,0,0,0,0,-1,692,393,0,0
-525,631,0,0,0,0,0,0,0,0,0,-1,699,393,0,0
-518,631,0,0,0,0,0,0,0,0,0,-1,706,393,0,0
-511,631,0,0,0,0,0,0,0,0,0,-1,713,393,0,0
-504,631,0,0,0,0,0,0,0,0,0,-1,720,393,0,0
-497,631,0,0,0,0,0,0,0,0,0,-1,727,393,0,0
-490,631,0,0,0,0,0,0,0,0,0,-1,734,393,0,0
-483,631,0,0,0,0,0,0,0,0,0,-1,741,393,0,0
-476,631,0,0,0,0,0,0,0,0,0,-1,748,393,0,0
-469,631,0,0,0,0,0,0,0,0,0,-1,755,393,0,0
-462,631,0,0,0,0,0,0,0,0,0,-1,762,393,0,0
-455,631,0,0,0,0,0,0,0,0,0,-1,769,393,0,0
-448,631,0,0,0,0,0,0,0,0,0,-1,776,393,0,0
-441,631,0,0,0,0,0,0,0,0,0,-1,783,393,0,0
-434,631,0,0,0,0,0,0,0,0,0,-1,790,393,0,0
-427,631,0,0,0,0,0,0,0,0,0,-1,797,393,0,0
-420,631,0,0,0,0,0,0,0,0,0,-1,804,393,0,0
-413,631,0,0,0,0,0,0,0,0,0,-1,811,393,0,0
-406,631,0,0,0,0,0,0,0,0,0,-1,818,393,0,0
-399,631,0,0,0,0,0,0,0,0,0,-1,825,393,0,0
-392,631,0,0,0,0,0,0,0,0,0,-1,832,393,0,0
-385,631,0,0,0,0,0,0,0,0,0,-1,839,393,0,0
-378,631,0,0,0,0,0,0,0,0,0,-1,846,393,0,0
-371,631,0,0,0,0,0,0,0,0,0,-1,853,393,0,0
-364,631,0,0,0,0,0,0,0,0,0,-1,860,393,0,0
-357,631,0,0,0,0,0,0,0,0,0,-1,867,393,0,0
-350,631,0,0,0,0,0,0,0,0,0,-1,874,393,0,0
-343,631,0,0,0,0,0,0,0,0,0,-1,881,393,0,0
-336,631,0,0,0,0,0,0,0,0,0,-1,888,393,0,0
-329,631,0,0,0,0,0,0,0,0,0,-1,895,393,0,0
-322,631,0,0,0,0,0,0,0,0,0,-1,902,393,0,0
-315,631,0,0,0,0,0,0,0,0,0,-1,909,393,0,0
-308,631,0,0,0,0,0,0,0,0,0,-1,916,393,0,0
-301,631,0,0,0,0,0,0,0,0,0,-1,923,393,0,0
-294,631,0,0,0,0,0,0,0,0,0,-1,930,393,0,0
-287,631,0,0,0,0,0,0,0,0,0,-1,937,393,0,0
-280,631,1.38763,-14.3453,0,0,0,0,0,0,0,-1,944,393,1.38762,14.3453
-273,631,2.6192,-11.8094,0,0,0,0,0,0,0,-1,951,393,2.61918,11.8094
-266,631,0.616394,-9.4404,0,0,0,0,0,0,0,-1,958,393,0.616411,9.4404
-259,631,2.33258,-10.2035,0,0,0,0,0,0,0,-1,965,393,2.33256,10.2035
-252,631,1.69513,-10.2877,0,0,0,0,0,0,0,-1,972,393,1.69513,10.2877
-245,631,3.28119,-8.41373,0,0,0,0,0,0,0,-1,979,393,3.28122,8.41373
-238,631,2.68524,-9.32315,0,0,0,0,0,0,0,-1,986,393,2.68523,9.32315
-231,631,2.77863,-9.7507,0,0,0,0,0,0,0,-1,993,393,2.77864,9.7507
-224,631,0.539063,-9.05594,0,0,0,0,0,0,0,-1,1000,393,0.539048,9.05593
-217,631,2.8056,-11.3224,0,0,0,0,0,0,0,-1,1007,393,2.80559,11.3224
-210,631,3.12793,-11.7869,0,0,0,0,0,0,0,-1,1014,393,3.12793,11.7869
-203,631,2.82019,-11.5976,0,0,0,0,0,0,0,-1,1021,393,2.82018,11.5976
-196,631,2.60559,-11.598,0,0,0,0,0,0,0,-1,1028,393,2.60562,11.598
-189,631,2.46643,-11.4635,-0.000268817,0.00477957,-0.00249862,0.00580709,-0.00129634,-1.18064,0.0043681,0.0459744,1035,393,2.4664,11.4635
-182,631,2.45886,-11.5518,-5.83157e-06,0.00302479,-0.00141624,0.00358358,-0.00056462,-1.19499,0.00259779,0.0415146,1042,393,2.4589,11.5518
-175,631,2.56311,-11.9543,0.000253384,0.00120562,-0.000355179,0.0013235,0.000135498,-1.25033,0.000840817,0.0335438,1049,393,2.56307,11.9543
-168,631,2.71069,-12.2292,-6.64022e-05,-0.000138267,0.000622705,0.000521406,-0.000726075,0.756578,0.000723457,0.0175176,1056,393,2.71073,12.2293
-161,631,2.70325,-12.3798,-0.000489349,-0.000391387,0.00121599,0.00077661,-0.00165735,0.805528,0.00143558,0.00874358,1063,393,2.7032,12.3798
-154,631,2.6853,-12.5265,-0.000633865,-2.81057e-05,0.00149948,0.00119878,-0.00186075,0.885052,0.00178015,0.00876153,1070,393,2.68534,12.5264
-147,631,2.68982,-12.6534,-0.000673998,0.00043061,0.00213974,0.00208818,-0.00233157,0.9117,0.00255303,0.0104157,1077,393,2.68983,12.6534
-140,631,2.68665,-12.7833,-0.000662099,0.00132014,0.00291769,0.00341045,-0.00275241,0.94913,0.00356488,0.0100662,1084,393,2.68662,12.7833
-133,631,2.65942,-12.9035,-0.000708061,0.00176359,0.00337889,0.00412557,-0.00307004,0.960716,0.00416926,0.00874889,1091,393,2.65939,12.9035
-126,631,2.66968,-12.9788,-0.00068631,0.00238342,0.0037511,0.00490153,-0.00320442,0.979595,0.00471404,0.0130461,1098,393,2.66972,12.9788
-119,631,2.67395,-13.0671,-0.000626416,0.00326891,0.00400835,0.00577773,-0.00313524,1.01155,0.00522075,0.0166097,1105,393,2.674,13.0671
-112,631,2.64905,-13.2046,-0.00039884,0.00435169,0.00402551,0.00665046,-0.00269761,1.05194,0.00555562,0.0142889,1112,393,2.64909,13.2046
-105,631,2.65161,-13.3374,-0.000103464,0.00495424,0.00401706,0.00717217,-0.00232139,1.06632,0.00571463,0.0173881,1119,393,2.65167,13.3374
-98,631,2.62354,-13.4397,0.000108534,0.0053569,0.00385063,0.00739252,-0.00192708,1.0845,0.00568072,0.0154293,1126,393,2.62359,13.4397
-91,631,2.59949,-13.5583,0.000325619,0.00539739,0.00346797,0.00715772,-0.00143472,1.10109,0.005315,0.0167573,1133,393,2.59944,13.5583
-84,631,2.60144,-13.6387,0.000478243,0.00495873,0.00309144,0.00653629,-0.00109933,1.09894,0.00476642,0.016328,1140,393,2.60141,13.6387
-77,631,2.60071,-13.7037,0.000455223,0.00436945,0.00264207,0.00570032,-0.000875644,1.10418,0.0041232,0.010642,1147,393,2.60074,13.7037
-70,631,2.60791,-13.7804,0.000388589,0.00361502,0.0021542,0.0046931,-0.000689482,1.10679,0.00338207,0.0111408,1154,393,2.60793,13.7804
-63,631,2.60071,-13.8662,0.000404862,0.00306021,0.00157183,0.00379005,-0.000324977,1.13609,0.0026417,0.011587,1161,393,2.60071,13.8662
-56,631,2.58777,-13.9531,0.000426419,0.00238482,0.00108804,0.00286941,-5.81633e-05,1.1518,0.00193262,0.012279,1168,393,2.58776,13.9531
-49,631,2.58423,-14.0076,0.000413559,0.0015901,0.000677256,0.0018989,0.000104758,1.143,0.0012325,0.0103455,1175,393,2.58423,14.0076
-42,631,2.58008,-14.0524,0.000411107,0.000734224,0.000246205,0.000867145,0.000278186,1.07576,0.000511251,0.00864555,1182,393,2.58008,14.0524
-35,631,2.58337,-14.1091,0.000455522,-0.000152259,-0.000131593,0.000482791,-0.000179527,-0.204326,0.000395526,0.00939056,1189,393,2.58334,14.1091
-28,631,2.57983,-14.1702,0.000664322,-0.000590895,-8.47272e-05,0.000670016,-0.000596589,-0.0670944,0.000731684,0.0122196,1196,393,2.57983,14.1702
-21,631,2.56409,-14.2243,0.00090479,-0.00098288,1.01157e-05,0.000904844,-0.000982934,0.00535864,0.00109022,0.0116134,1203,393,2.56403,14.2243
-14,631,2.56226,-14.2699,0.00123447,-0.00101314,-6.43194e-05,0.0012363,-0.00101498,-0.0285857,0.00130187,0.0135645,1210,393,2.56223,14.2699
-7,631,2.54358,-14.3764,0.00147533,-0.0012621,-7.24332e-06,0.00147535,-0.00126212,-0.00264601,0.00158207,0.0203239,1217,393,2.54363,14.3764
0,631,2.54688,-14.3768,0.0012679,-0.00143362,0.00010359,0.00127186,-0.00143759,0.0382702,0.00156528,0.0215329,1224,393,2.54688,14.3768
7,631,2.55847,-14.3379,0.00100556,-0.00133198,0.000305474,0.00104482,-0.00137124,0.127823,0.00139915,0.0170014,1231,393,2.55848,14.3379
14,631,2.58264,-14.3722,0.000721662,-0.00122318,0.00056638,0.00087458,-0.0013761,0.263704,0.00131014,0.010042,1238,393,2.58269,14.3722
21,631,2.58826,-14.4051,0.000510479,-0.00105043,0.000842589,0.000878531,-0.00141848,0.411832,0.00133834,0.01242,1245,393,2.58828,14.4051
28,631,2.61292,-14.4051,0.000288768,-0.000919955,0.00113848,0.000973358,-0.00160454,0.541388,0.00150315,0.0143127,1252,393,2.61288,14.4051
35,631,2.61133,-14.4078,-3.98844e-05,-0.000702522,0.0014268,0.00109356,-0.00183596,0.671314,0.00170937,0.0135949,1259,393,2.6113,14.4078
42,631,2.62085,-14.4324,-0.000189329,-0.000755434,0.00179738,0.00134715,-0.00229191,0.707299,0.00212448,0.0117458,1266,393,2.6209,14.4324
49,631,2.61694,-14.4189,-0.000178634,-0.000830001,0.00203416,0.00155575,-0.00256438,0.706018,0.0024024,0.0108353,1273,393,2.61692,14.4188
56,631,2.61768,-14.4189,-3.39406e-05,-0.000736833,0.00217665,0.00181945,-0.00259023,0.705358,0.00255886,0.012789,1280,393,2.61774,14.4189
63,631,2.61401,-14.4258,0.000249572,-0.000793906,0.00222751,0.00201563,-0.00255997,0.670359,0.00264795,0.0143295,1287,393,2.61405,14.4258
70,631,2.63599,-14.4101,0.000680006,-0.000959091,0.00228794,0.00229075,-0.00256984,0.613416,0.00280781,0.0142169,1294,393,2.63603,14.4101
77,631,2.6427,-14.3782,0.00114465,-0.00119077,0.00219328,0.0024617,-0.00250782,0.540781,0.00286919,0.0142056,1301,393,2.6427,14.3782
84,631,2.64978,-14.3452,0.00141015,-0.00150283,0.00187576,0.00232849,-0.00242118,0.455282,0.0027424,0.0115125,1308,393,2.64981,14.3453
91,631,2.64795,-14.3237,0.00139622,-0.00192552,0.00156311,0.0020161,-0.0025454,0.377543,0.00263949,0.0141523,1315,393,2.64797,14.3237
98,631,2.64246,-14.3026,0.00141309,-0.00193214,0.000970411,0.00167421,-0.00219326,0.262858,0.00223958,0.013053,1322,393,2.64243,14.3025
105,631,2.651,-14.2593,0.00166548,-0.00199685,0.000426636,0.00171452,-0.00204589,0.114451,0.00217388,0.0107062,1329,393,2.651,14.2593
112,631,2.66602,-14.204,0.00160703,-0.00221642,-6.256e-05,0.00160805,-0.00221745,-0.0163563,0.00221798,0.0107627,1336,393,2.66601,14.204
119,631,2.65869,-14.1645,0.00127928,-0.002268,-0.000478458,0.00134268,-0.0023314,-0.131744,0.00214668,0.011498,1343,393,2.65869,14.1645
126,631,2.66418,-14.103,0.000842493,-0.00219215,-0.000839486,0.00105924,-0.0024089,-0.252675,0.00205225,0.0159556,1350,393,2.66424,14.103
133,631,2.67517,-14.0404,0.000527427,-0.00194857,-0.00112934,0.000965151,-0.00238629,-0.369766,0.0019921,0.017405,1357,393,2.67518,14.0404
140,631,2.68237,-13.9838,0.000428752,-0.00168454,-0.00128986,0.00103951,-0.0022953,-0.44223,0.00197033,0.0189402,1364,393,2.68235,13.9838
147,631,2.66565,-13.9172,0.000310726,-0.00132054,-0.00139178,0.00110826,-0.00211807,-0.520354,0.00189289,0.0211248,1371,393,2.66561,13.9172
154,631,2.65723,-13.867,0.000316813,-0.00100433,-0.00136063,0.00116875,-0.00185627,-0.559413,0.00176146,0.0196953,1378,393,2.65717,13.867
161,631,2.65747,-13.7793,0.000400417,-0.000972968,-0.0012224,0.0011158,-0.00168835,-0.529485,0.00163018,0.0218861,1385,393,2.65744,13.7793
168,631,2.6875,-13.6679,0.000377616,-0.000859944,-0.00102498,0.000956113,-0.00143844,-0.513831,0.00139181,0.0263021,1392,393,2.68753,13.6679
175,631,2.70801,-13.5932,0.000290086,-0.000711246,-0.00082608,0.000755378,-0.00117654,-0.512961,0.00112419,0.0205177,1399,393,2.70799,13.5932
182,631,2.677,-13.5128,0.000277892,-0.000536056,-0.000551925,0.000556665,-0.000814829,-0.467713,0.000796495,0.0113528,1406,393,2.67695,13.5127
189,631,2.677,-13.4031,0.00027883,-0.0004162,-0.000225919,0.00034581,-0.00048318,-0.288222,0.000480804,0.0110323,1413,393,2.67704,13.4031
196,631,2.68311,-13.3078,0.000176212,-0.000495624,0.000196261,0.000229343,-0.000548755,0.26438,0.00046168,0.0117834,1420,393,2.68308,13.3078
203,631,2.68884,-13.2126,-0.000114421,-0.000625167,0.000516157,0.000206082,-0.000945671,0.555676,0.000709193,0.0140839,1427,393,2.68881,13.2126
210,631,2.71057,-13.1143,-0.000436974,-0.00052997,0.000692808,0.000210894,-0.00117784,0.751891,0.000864145,0.0156198,1434,393,2.71061,13.1143
217,631,2.70581,-13.0213,-0.000661801,-0.000199432,0.000594206,0.000206979,-0.00106821,0.97092,0.000790221,0.0158225,1441,393,2.70586,13.0213
224,631,2.66528,-12.8922,-0.000795471,0.000156019,0.000386252,0.000293074,-0.000932526,1.22982,0.000739007,0.0127295,1448,393,2.66531,12.8922
231,631,2.63977,-12.7403,-0.000745025,0.000705276,0.000398156,0.000807393,-0.000847141,1.31973,0.000955338,0.011422,1455,393,2.63976,12.7403
238,631,2.61377,-12.5842,-0.000711246,0.00141375,0.000382941,0.00148066,-0.000778148,1.39784,0.00132498,0.0159754,1462,393,2.61373,12.5842
245,631,2.61182,-12.463,-0.000817194,0.00193683,0.00015568,0.00194561,-0.000825966,1.51451,0.00164311,0.0167935,1469,393,2.61178,12.463
252,631,2.5957,-12.3538,-0.000760221,0.00264993,-1.83551e-05,0.00265003,-0.00076032,-1.56541,0.00206727,0.0160911,1476,393,2.59575,12.3538
259,631,2.6001,-12.2091,-0.000710359,0.00333437,-8.70007e-05,0.00333624,-0.00071223,-1.5493,0.00249568,0.0120508,1483,393,2.60014,12.2091
266,631,2.62109,-12.0648,-0.000745564,0.00427045,2.70195e-06,0.00427045,-0.000745565,1.57026,0.00312527,0.0108902,1490,393,2.62113,12.0648
273,631,2.60999,-11.9231,-0.000711471,0.00507887,0.000341726,0.00509897,-0.000731569,1.51205,0.00366757,0.0133609,1497,393,2.61,11.9231
280,631,2.58716,-11.7827,-0.000457958,0.0056476,0.000830086,0.00575844,-0.0005688,1.43805,0.00404192,0.0126523,1504,393,2.58718,11.7828
287,631,2.61414,-11.5899,-0.000329053,0.00622626,0.00150428,0.00655497,-0.000657764,1.35566,0.00460492,0.0145608,1511,393,2.61412,11.5899
294,631,2.60413,-11.3637,-0.000169099,0.00697318,0.00234004,0.00767157,-0.000867479,1.28076,0.0054267,0.0182719,1518,393,2.6041,11.3637
301,631,2.55566,-11.1886,0.000109508,0.00775703,0.00337941,0.00903636,-0.00116982,1.2089,0.00644965,0.0277254,1525,393,2.55569,11.1886
308,631,2.68298,-11.0214,0.00047427,0.00857964,0.00465718,0.0107006,-0.00164666,1.14345,0.0077412,0.0343819,1532,393,2.68297,11.0214
315,631,2.70337,-10.8246,0.000766218,0.00879469,0.00590383,0.0119197,-0.00235883,1.08397,0.00883832,0.0354664,1539,393,2.70334,10.8246
322,631,2.56628,-10.6418,0.00118019,0.00902394,0.00757887,0.0136356,-0.00343142,1.02416,0.0104242,0.0389391,1546,393,2.5663,10.6418
329,631,2.39966,-10.3211,0,0,0,0,0,0,0,-1,1553,393,2.39967,10.3211
336,631,2.95667,-10.3798,0,0,0,0,0,0,0,-1,1560,393,2.95664,10.3798
343,631,2.39612,-6.96481,0,0,0,0,0,0,0,-1,1567,393,2.39608,6.96482
350,631,2.1344,-9.23401,0,0,0,0,0,0,0,-1,1574,393,2.13439,9.23401
357,631,2.6449,-9.60303,0,0,0,0,0,0,0,-1,1581,393,2.64491,9.60304
364,631,3.39136,-5.7594,0,0,0,0,0,0,0,-1,1588,393,3.39137,5.75939
371,631,3.72839,-6.0574,0,0,0,0,0,0,0,-1,1595,393,3.72845,6.05742
378,631,4.06555,-6.35544,0,0,0,0,0,0,0,-1,1602,393,4.06553,6.35544
385,631,3.90442,-3.58298,0,0,0,0,0,0,0,-1,1609,393,3.90437,3.58299
392,631,0.352295,-2.21301,0,0,0,0,0,0,0,-1,1616,393,0.352345,2.213
399,631,0,0,0,0,0,0,0,0,0,-1,1623,393,0,0
406,631,0,0,0,0,0,0,0,0,0,-1,1630,393,0,0
413,631,0,0,0,0,0,0,0,0,0,-1,1637,393,0,0
420,631,0,0,0,0,0,0,0,0,0,-1,1644,393,0,0
427,631,0,0,0,0,0,0,0,0,0,-1,1651,393,0,0
434,631,0,0,0,0,0,0,0,0,0,-1,1658,393,0,0
441,631,0,0,0,0,0,0,0,0,0,-1,1665,393,0,0
448,631,0,0,0,0,0,0,0,0,0,-1,1672,393,0,0
455,631,0,0,0,0,0,0,0,0,0,-1,1679,393,0,0
462,631,0,0,0,0,0,0,0,0,0,-1,1686,393,0,0
469,631,0,0,0,0,0,0,0,0,0,-1,1693,393,0,0
476,631,0,0,0,0,0,0,0,0,0,-1,1700,393,0,0
483,631,0,0,0,0,0,0,0,0,0,-1,1707,393,0,0
490,631,0,0,0,0,0,0,0,0,0,-1,1714,393,0,0
497,631,0,0,0,0,0,0,0,0,0,-1,1721,393,0,0
504,631,0,0,0,0,0,0,0,0,0,-1,1728,393,0,0
511,631,0,0,0,0,0,0,0,0,0,-1,1735,393,0,0
518,631,0,0,0,0,0,0,0,0,0,-1,1742,393,0,0
525,631,0,0,0,0,0,0,0,0,0,-1,1749,393,0,0
532,631,0,0,0,0,0,0,0,0,0,-1,1756,393,0,0
539,631,0,0,0,0,0,0,0,0,0,-1,1763,393,0,0
546,631,0,0,0,0,0,0,0,0,0,-1,1770,393,0,0
553,631,0,0,0,0,0,0,0,0,0,-1,1777,393,0,0
560,631,0,0,0,0,0,0,0,0,0,-1,1784,393,0,0
567,631,0,0,0,0,0,0,0,0,0,-1,1791,393,0,0
574,631,0,0,0,0,0,0,0,0,0,-1,1798,393,0,0
581,631,0,0,0,0,0,0,0,0,0,-1,1805,393,0,0
588,631,0,0,0,0,0,0,0,0,0,-1,1812,393,0,0
595,631,0,0,0,0,0,0,0,0,0,-1,1819,393,0,0
602,631,0,0,0,0,0,0,0,0,0,-1,1826,393,0,0
609,631,0,0,0,0,0,0,0,0,0,-1,1833,393,0,0
616,631,0,0,0,0,0,0,0,0,0,-1,1840,393,0,0
623,631,0,0,0,0,0,0,0,0,0,-1,1847,393,0,0
630,631,0,0,0,0,0,0,0,0,0,-1,1854,393,0,0
637,631,0,0,0,0,0,0,0,0,0,-1,1861,393,0,0
644,631,0,0,0,0,0,0,0,0,0,-1,1868,393,0,0
651,631,0,0,0,0,0,0,0,0,0,-1,1875,393,0,0
658,631,0,0,0,0,0,0,0,0,0,-1,1882,393,0,0
665,631,0,0,0,0,0,0,0,0,0,-1,1889,393,0,0
672,631,0,0,0,0,0,0,0,0,0,-1,1896,393,0,0
679,631,0,0,0,0,0,0,0,0,0,-1,1903,393,0,0
686,631,0,0,0,0,0,0,0,0,0,-1,1910,393,0,0
693,631,0,0,0,0,0,0,0,0,0,-1,1917,393,0,0
700,631,0,0,0,0,0,0,0,0,0,-1,1924,393,0,0
707,631,0,0,0,0,0,0,0,0,0,-1,1931,393,0,0
714,631,0,0,0,0,0,0,0,0,0,-1,1938,393,0,0
721,631,0,0,0,0,0,0,0,0,0,-1,1945,393,0,0
728,631,0,0,0,0,0,0,0,0,0,-1,1952,393,0,0
735,631,0,0,0,0,0,0,0,0,0,-1,1959,393,0,0
742,631,0,0,0,0,0,0,0,0,0,-1,1966,393,0,0
749,631,0,0,0,0,0,0,0,0,0,-1,1973,393,0,0
756,631,0,0,0,0,0,0,0,0,0,-1,1980,393,0,0
763,631,0,0,0,0,0,0,0,0,0,-1,1987,393,0,0
770,631,0,0,0,0,0,0,0,0,0,-1,1994,393,0,0
777,631,0,0,0,0,0,0,0,0,0,-1,2001,393,0,0
784,631,0,0,0,0,0,0,0,0,0,-1,2008,393,0,0
791,631,0,0,0,0,0,0,0,0,0,-1,2015,393,0,0
798,631,0,0,0,0,0,0,0,0,0,-1,2022,393,0,0
805,631,0,0,0,0,0,0,0,0,0,-1,2029,393,0,0
812,631,0,0,0,0,0,0,0,0,0,-1,2036,393,0,0
-700,624,0,0,0,0,0,0,0,0,0,-1,524,400,0,0
-693,624,0,0,0,0,0,0,0,0,0,-1,531,400,0,0
-686,624,0,0,0,0,0,0,0,0,0,-1,538,400,0,0
-679,624,0,0,0,0,0,0,0,0,0,-1,545,400,0,0
-672,624,0,0,0,0,0,0,0,0,0,-1,552,400,0,0
-665,624,0,0,0,0,0,0,0,0,0,-1,559,400,0,0
-658,624,0,0,0,0,0,0,0,0,0,-1,566,400,0,0
-651,624,0,0,0,0,0,0,0,0,0,-1,573,400,0,0
-644,624,0,0,0,0,0,0,0,0,0,-1,580,400,0,0
-637,624,0,0,0,0,0,0,0,0,0,-1,587,400,0,0
-630,624,0,0,0,0,0,0,0,0,0,-1,594,400,0,0
-623,624,0,0,0,0,0,0,0,0,0,-1,601,400,0,0
-616,624,0,0,0,0,0,0,0,0,0,-1,608,400,0,0
-609,624,0,0,0,0,0,0,0,0,0,-1,615,400,0,0
-602,624,0,0,0,0,0,0,0,0,0,-1,622,400,0,0
-595,624,0,0,0,0,0,0,0,0,0,-1,629,400,0,0
-588,624,0,0,0,0,0,0,0,0,0,-1,636,400,0,0
-581,624,0,0,0,0,0,0,0,0,0,-1,643,400,0,0
-574,624,0,0,0,0,0,0,0,0,0,-1,650,400,0,0
-567,624,0,0,0,0,0,0,0,0,0,-1,657,400,0,0
-560,624,0,0,0,0,0,0,0,0,0,-1,664,400,0,0
-553,624,0,0,0,0,0,0,0,0,0,-1,671,400,0,0
-546,624,0,0,0,0,0,0,0,0,0,-1,678,400,0,0
-539,624,0,0,0,0,0,0,0,0,0,-1,685,400,0,0
-532,624,0,0,0,0,0,0,0,0,0,-1,692,400,0,0
-525,624,0,0,0,0,0,0,0,0,0,-1,699,400,0,0
-518,624,0,0,0,0,0,0,0,0,0,-1,706,400,0,0
-511,624,0,0,0,0,0,0,0,0,0,-1,713,400,0,0
-504,624,0,0,0,0,0,0,0,0,0,-1,720,400,0,0
-497,624,0,0,0,0,0,0,0,0,0,-1,727,400,0,0
-490,624,0,0,0,0,0,0,0,0,0,-1,734,400,0,0
-483,624,0,0,0,0,0,0,0,0,0,-1,741,400,0,0
-476,624,0,0,0,0,0,0,0,0,0,-1,748,400,0,0
-469,624,0,0,0,0,0,0,0,0,0,-1,755,400,0,0
-462,624,0,0,0,0,0,0,0,0,0,-1,762,400,0,0
-455,624,0,0,0,0,0,0,0,0,0,-1,769,400,0,0
-448,624,0,0,0,0,0,0,0,0,0,-1,776,400,0,0
-441,624,0,0,0,0,0,0,0,0,0,-1,783,400,0,0
-434,624,0,0,0,0,0,0,0,0,0,-1,790,400,0,0
-427,624,0,0,0,0,0,0,0,0,0,-1,797,400,0,0
-420,624,0,0,0,0,0,0,0,0,0,-1,804,400,0,0
-413,624,0,0,0,0,0,0,0,0,0,-1,811,400,0,0
-406,624,0,0,0,0,0,0,0,0,0,-1,818,400,0,0
-399,624,0,0,0,0,0,0,0,0,0,-1,825,400,0,0
-392,624,0,0,0,0,0,0,0,0,0,-1,832,400,0,0
-385,624,0,0,0,0,0,0,0,0,0,-1,839,400,0,0
-378,624,0,0,0,0,0,0,0,0,0,-1,846,400,0,0
-371,624,0,0,0,0,0,0,0,0,0,-1,853,400,0,0
-364,624,0,0,0,0,0,0,0,0,0,-1,860,400,0,0
-357,624,0,0,0,0,0,0,0,0,0,-1,867,400,0,0
-350,624,0,0,0,0,0,0,0,0,0,-1,874,400,0,0
-343,624,0,0,0,0,0,0,0,0,0,-1,881,400,0,0
-336,624,0,0,0,0,0,0,0,0,0,-1,888,400,0,0
-329,624,0,0,0,0,0,0,0,0,0,-1,895,400,0,0
-322,624,0,0,0,0,0,0,0,0,0,-1,902,400,0,0
-315,624,0,0,0,0,0,0,0,0,0,-1,909,400,0,0
-308,624,0,0,0,0,0,0,0,0,0,-1,916,400,0,0
-301,624,0,0,0,0,0,0,0,0,0,-1,923,400,0,0
-294,624,-0.912903,-12.9461,0,0,0,0,0,0,0,-1,930,400,-0.912926,12.9461
-287,624,0.12146,-15.0862,0,0,0,0,0,0,0,-1,937,400,0.121451,15.0862
-280,624,1.44836,-13.0475,0,0,0,0,0,0,0,-1,944,400,1.44835,13.0475
-273,624,2.56573,-11.0646,0,0,0,0,0,0,0,-1,951,400,2.56571,11.0646
-266,624,2.61993,-9.22894,0,0,0,0,0,0,0,-1,958,400,2.61992,9.22893
-259,624,2.33655,-9.63861,0,0,0,0,0,0,0,-1,965,400,2.33654,9.63861
-252,624,1.87445,-10.0717,0,0,0,0,0,0,0,-1,972,400,1.87447,10.0717
-245,624,2.35291,-9.48187,0,0,0,0,0,0,0,-1,979,400,2.35289,9.48186
-238,624,2.59106,-9.63657,0,0,0,0,0,0,0,-1,986,400,2.59106,9.63658
-231,624,2.31598,-9.80182,0,0,0,0,0,0,0,-1,993,400,2.316,9.80183
-224,624,2.27747,-9.97348,0,0,0,0,0,0,0,-1,1000,400,2.27744,9.97347
-217,624,2.987,-11.6587,0,0,0,0,0,0,0,-1,1007,400,2.98698,11.6587
-210,624,2.84937,-11.6142,-0.00156148,0.0127528,-0.00659796,0.01533,-0.00413869,-1.19841,0.0118431,0.0442078,1014,400,2.84938,11.6142
-203,624,2.65649,-11.5468,-0.000908092,0.00935597,-0.00502351,0.0114054,-0.00295752,-1.18344,0.00875752,0.0396155,1021,400,2.65647,11.5467
-196,624,2.55811,-11.6079,-0.000657007,0.00678364,-0.00357247,0.00822116,-0.00209453,-1.18823,0.00629617,0.0347325,1028,400,2.55816,11.6079
-189,624,2.53906,-11.7044,-0.000500651,0.00488283,-0.00264374,0.005964,-0.00158182,-1.1826,0.00459494,0.032077,1035,400,2.53901,11.7044
-182,624,2.55383,-11.8815,-0.000245556,0.00340042,-0.00178297,0.00412739,-0.000972525,-1.18365,0.0031266,0.0277502,1042,400,2.55382,11.8815
-175,624,2.58984,-12.0761,4.00767e-05,0.00180621,-0.000897281,0.00218208,-0.000335793,-1.17411,0.0015786,0.0178421,1049,400,2.5898,12.0761
-168,624,2.60498,-12.2426,-0.000127163,0.000628406,-6.86363e-05,0.00063459,-0.000133347,-1.48094,0.000473806,0.0118594,1056,400,2.60495,12.2425
-161,624,2.57959,-12.3975,-0.000390174,0.000310935,0.000444631,0.000526584,-0.000605822,1.11922,0.000654328,0.0105444,1063,400,2.57962,12.3975
-154,624,2.57166,-12.5272,-0.000413264,0.000461373,0.000693196,0.000843669,-0.00079556,1.0668,0.000946545,0.010159,1070,400,2.57171,12.5272
-147,624,2.57996,-12.6541,-0.000406045,0.00062125,0.00117205,0.00138726,-0.00117206,0.991917,0.00147937,0.0108115,1077,400,2.5799,12.6541
-140,624,2.56177,-12.7855,-0.000372587,0.00105679,0.00173166,0.00221545,-0.00153124,0.98111,0.00217514,0.00977508,1084,400,2.56177,12.7855
-133,624,2.53601,-12.9044,-0.000367787,0.00124758,0.00205948,0.00265209,-0.0017723,0.972271,0.0025712,0.0109404,1091,400,2.53606,12.9044
-126,624,2.5498,-13.0042,-0.000326864,0.00161511,0.00230496,0.00314525,-0.00185701,0.984747,0.0029198,0.0131035,1098,400,2.54981,13.0042
-119,624,2.54895,-13.1089,-0.000263181,0.00223432,0.00243498,0.00372208,-0.00175094,1.02233,0.00322744,0.0155218,1105,400,2.54889,13.1089
-112,624,2.53467,-13.2232,-6.85448e-05,0.00300374,0.00236997,0.00429186,-0.00135667,1.07294,0.00340479,0.0168284,1112,400,2.53464,13.2232
-105,624,2.54626,-13.3354,0.000179618,0.00343237,0.00226933,0.00459794,-0.000985952,1.09631,0.00344135,0.0122021,1119,400,2.54631,13.3354
-98,624,2.52185,-13.4297,0.00035864,0.00370436,0.00204598,0.00467432,-0.000611319,1.1281,0.00333869,0.0129589,1126,400,2.52179,13.4297
-91,624,2.51514,-13.5405,0.000523568,0.00370744,0.00167284,0.00442476,-0.000193753,1.16571,0.0030165,0.0177632,1133,400,2.5152,13.5405
-84,624,2.55176,-13.6418,0.000637967,0.00335969,0.0013531,0.0039179,7.97623e-05,1.17953,0.00258575,0.0163251,1140,400,2.55171,13.6418
-77,624,2.54138,-13.7196,0.00064662,0.00288045,0.00101971,0.00327592,0.000251152,1.20083,0.00210523,0.0122155,1147,400,2.54142,13.7196
-70,624,2.52112,-13.7832,0.000673381,0.00217549,0.000719073,0.00246422,0.000384652,1.18897,0.00153079,0.0128548,1154,400,2.52115,13.7832
-63,624,2.50464,-13.8624,0.000739242,0.0016572,0.000393668,0.0018029,0.000593542,1.21632,0.00106095,0.0136412,1161,400,2.50467,13.8624
-56,624,2.5177,-13.9501,0.00081814,0.00103507,0.000225693,0.00117701,0.000676201,1.0094,0.000682056,0.0112194,1168,400,2.51768,13.9501
-49,624,2.52783,-14.0186,0.000986504,6.67543e-05,8.43234e-05,0.000994171,5.90874e-05,0.0906736,0.000643989,0.00938342,1175,400,2.52782,14.0186
-42,624,2.53003,-14.0637,0.0013403,-0.000881958,-0.00011041,0.00134578,-0.000887431,-0.0495211,0.00129836,0.0093423,1182,400,2.53,14.0637
-35,624,2.51611,-14.1007,0.00176947,-0.00172041,-0.000450725,0.00182674,-0.00177768,-0.126389,0.00208108,0.0140295,1189,400,2.51615,14.1007
-28,624,2.49744,-14.1628,0.00229662,-0.0022559,-0.000655935,0.00238925,-0.00234852,-0.140281,0.00273539,0.0184885,1196,400,2.49746,14.1628
-21,624,2.51965,-14.2267,0.00286328,-0.00272122,-0.000710331,0.00295221,-0.00281016,-0.124555,0.00332724,0.0142376,1203,400,2.51963,14.2267
-14,624,2.55322,-14.2631,0.00345955,-0.00256063,-0.000995562,0.00361992,-0.00272099,-0.159708,0.00367317,0.0155063,1210,400,2.5532,14.2631
-7,624,2.5011,-14.2849,0.00375516,-0.00256517,-0.000919119,0.00388611,-0.00269612,-0.141518,0.0038209,0.0183412,1217,400,2.50105,14.2849
0,624,2.51038,-14.3256,0.00332777,-0.00236179,-0.000737124,0.00342172,-0.00245574,-0.126769,0.00340859,0.0183558,1224,400,2.51036,14.3256
7,624,2.52551,-14.3487,0.00284239,-0.00174379,-0.000425642,0.00288156,-0.00178295,-0.0917655,0.00271784,0.013515,1231,400,2.52546,14.3487
14,624,2.5603,-14.3985,0.00231102,-0.00125001,-1.31237e-05,0.00231107,-0.00125006,-0.00368532,0.00208621,0.0114679,1238,400,2.56031,14.3985
21,624,2.56726,-14.4018,0.00183749,-0.000753887,0.000478358,0.00192297,-0.000839371,0.176835,0.00163523,0.0125971,1245,400,2.56726,14.4018
28,624,2.56482,-14.408,0.0012859,-0.000421294,0.00106435,0.00179665,-0.000932052,0.447422,0.00160156,0.0120692,1252,400,2.56486,14.408
35,624,2.57715,-14.416,0.000607096,-4.66193e-05,0.00162628,0.00193903,-0.00137856,0.686227,0.0019245,0.0150847,1259,400,2.57716,14.4159
42,624,2.604,-14.4237,0.000166895,-0.000336771,0.00221743,0.00214675,-0.00231662,0.728856,0.00257755,0.0163915,1266,400,2.60397,14.4237
49,624,2.62195,-14.4108,5.82667e-06,-0.000927789,0.00258904,0.00216981,-0.00309177,0.696206,0.00305328,0.0176633,1273,400,2.62195,14.4108
56,624,2.6134,-14.4202,4.45661e-05,-0.00129049,0.00288959,0.00234273,-0.00358865,0.671884,0.00344957,0.0172856,1280,400,2.61339,14.4202
63,624,2.63647,-14.4166,0.000237051,-0.00192155,0.00304473,0.00238812,-0.00407262,0.615068,0.00377214,0.0139983,1287,400,2.63647,14.4166
70,624,2.64136,-14.4073,0.000598872,-0.00274966,0.00306907,0.00242065,-0.00457144,0.535696,0.00410005,0.012806,1294,400,2.64132,14.4074
77,624,2.64343,-14.3855,0.00113628,-0.00367907,0.00290928,0.00250496,-0.00504775,0.43973,0.00444217,0.0126679,1301,400,2.64341,14.3855
84,624,2.65588,-14.3607,0.00141831,-0.00460517,0.00241619,0.00226773,-0.00545458,0.338058,0.00458328,0.0110054,1308,400,2.65583,14.3607
91,624,2.66101,-14.3382,0.00143914,-0.00561986,0.00198423,0.00195866,-0.00613938,0.256075,0.00487867,0.0114636,1315,400,2.66098,14.3382
98,624,2.68481,-14.3267,0.00152985,-0.00607635,0.00116514,0.00170432,-0.00625083,0.148643,0.00483648,0.011598,1322,400,2.68481,14.3267
105,624,2.69385,-14.2769,0.00187227,-0.00645019,0.000404992,0.00189194,-0.00646986,0.0485097,0.00506311,0.0125259,1329,400,2.69387,14.2769
112,624,2.71069,-14.2119,0.00175625,-0.00680668,-0.000204114,0.00176111,-0.00681154,-0.0238189,0.00522789,0.0138499,1336,400,2.71074,14.2119
119,624,2.7074,-14.1557,0.00125671,-0.00677384,-0.000698443,0.001317,-0.00683414,-0.0861116,0.00505263,0.0149569,1343,400,2.70737,14.1557
126,624,2.72729,-14.0773,0.000634793,-0.00654782,-0.00115165,0.000814928,-0.00672795,-0.155158,0.00478016,0.0171934,1350,400,2.72729,14.0773
133,624,2.73291,-14.0127,0.000215453,-0.0061114,-0.00154462,0.000572413,-0.00646836,-0.227112,0.00451515,0.0173457,1357,400,2.73294,14.0127
140,624,2.74622,-13.9752,9.48857e-05,-0.0056786,-0.00175394,0.000585951,-0.00616966,-0.272989,0.00432169,0.0171676,1364,400,2.74623,13.9752
147,624,2.72668,-13.9312,-1.45066e-05,-0.0049235,-0.00187083,0.000617188,-0.00555519,-0.325634,0.0039254,0.0206285,1371,400,2.72668,13.9312
154,624,2.74548,-13.8977,1.60528e-05,-0.004188,-0.00183507,0.000704364,-0.00487631,-0.358848,0.0035093,0.0214329,1378,400,2.74548,13.8977
161,624,2.77991,-13.7954,0.000164901,-0.00384639,-0.00174849,0.000820051,-0.00450154,-0.358503,0.00330843,0.0205059,1385,400,2.7799,13.7954
168,624,2.77783,-13.6537,0.000282728,-0.00343318,-0.00158005,0.000863739,-0.00401419,-0.35237,0.0030057,0.0216939,1392,400,2.77785,13.6537
175,624,2.78809,-13.5856,0.000352057,-0.0029413,-0.00132427,0.000818487,-0.00340774,-0.338649,0.00258816,0.0172775,1399,400,2.78811,13.5856
182,624,2.76575,-13.5217,0.000350433,-0.0023779,-0.00103976,0.000701507,-0.00272897,-0.32563,0.00209272,0.0108197,1406,400,2.7658,13.5217
189,624,2.77576,-13.4194,0.00046825,-0.00174154,-0.00074897,0.000698177,-0.00197146,-0.297858,0.00159869,0.0104996,1413,400,2.77572,13.4194
196,624,2.77747,-13.3197,0.000541895,-0.00121421,-0.000455253,0.000652899,-0.00132521,-0.239162,0.00116384,0.0114513,1420,400,2.77745,13.3197
203,624,2.78381,-13.2044,0.000391156,-0.000859392,-0.000165257,0.000412626,-0.000880862,-0.129193,0.000762931,0.0139775,1427,400,2.78377,13.2044
210,624,2.79919,-13.0982,7.20496e-05,-0.000524746,0.000113984,9.30789e-05,-0.000545776,0.182441,0.000398517,0.0169563,1434,400,2.79917,13.0982
217,624,2.77844,-12.9976,-0.00023712,-0.000187721,0.000147879,-6.24931e-05,-0.000362348,0.868147,0.000223663,0.0196357,1441,400,2.77842,12.9976
224,624,2.76257,-12.8633,-0.000365552,0.000179182,0.000120934,0.000204823,-0.000391194,1.36186,0.000349673,0.0156122,1448,400,2.76252,12.8633
231,624,2.7561,-12.7416,-0.000346285,0.000671022,0.000230613,0.000720859,-0.000396121,1.35797,0.00065391,0.0116382,1455,400,2.75606,12.7416
238,624,2.72266,-12.5944,-0.000303129,0.00129157,0.000327475,0.0013562,-0.000367757,1.37595,0.00104844,0.0156855,1462,400,2.72264,12.5944
245,624,2.73254,-12.4774,-0.000359747,0.00177182,0.000251344,0.00180105,-0.000388983,1.455,0.00134919,0.0162734,1469,400,2.73253,12.4774
252,624,2.74268,-12.3651,-0.000313285,0.00237307,0.000201176,0.00238805,-0.000328267,1.49646,0.00171198,0.0124549,1476,400,2.74262,12.3651
259,624,2.73621,-12.2268,-0.00029717,0.00291251,0.000228646,0.00292872,-0.000313376,1.50004,0.00206488,0.00924727,1483,400,2.73616,12.2268
266,624,2.76575,-12.0589,-0.000360877,0.00359832,0.000361125,0.00363099,-0.000393546,1.48058,0.00256194,0.0126852,1490,400,2.7657,12.0589
273,624,2.75085,-11.9104,-0.000368141,0.00420627,0.000662748,0.00430035,-0.000462226,1.42978,0.00303274,0.0152809,1497,400,2.75088,11.9104
280,624,2.72717,-11.7668,-0.000193871,0.00462179,0.00108605,0.00485539,-0.00042747,1.35893,0.00338841,0.0137409,1504,400,2.72712,11.7667
287,624,2.70605,-11.614,-0.000115533,0.00499956,0.0016176,0.00546818,-0.000584151,1.28882,0.00385495,0.0109989,1511,400,2.70607,11.6139
294,624,2.69666,-11.4323,-3.01383e-05,0.00547913,0.00224614,0.00627881,-0.00082982,1.22876,0.00448812,0.00948064,1518,400,2.69669,11.4323
301,624,2.70227,-11.269,0.0001284,0.00593693,0.00299693,0.00720595,-0.00114063,1.17025,0.00522584,0.0110768,1525,400,2.7023,11.269
308,624,2.73108,-11.0887,0.0003676,0.00645573,0.00390498,0.00836295,-0.00153962,1.11647,0.00615305,0.0148926,1532,400,2.73103,11.0887
315,624,2.70276,-10.9037,0.000566226,0.00659696,0.00477034,0.00922504,-0.00206186,1.06725,0.00694017,0.0162743,1539,400,2.70273,10.9038
322,624,2.65747,-10.745,0.000844534,0.00677673,0.00587423,0.0103912,-0.00276997,1.01919,0.00801205,0.0236126,1546,400,2.65748,10.745
329,624,2.85999,-10.548,0.00110021,0.00721029,0.00687364,0.0116772,-0.00336674,0.994516,0.0091167,0.0392365,1553,400,2.86001,10.548
336,624,3.05054,-10.2402,0,0,0,0,0,0,0,-1,1560,400,3.05055,10.2402
343,624,2.96985,-9.65771,0,0,0,0,0,0,0,-1,1567,400,2.96985,9.65773
350,624,1.99194,-7.29742,0,0,0,0,0,0,0,-1,1574,400,1.99198,7.29741
357,624,2.64075,-3.13092,0,0,0,0,0,0,0,-1,1581,400,2.64076,3.13091
364,624,3.16565,-4.9458,0,0,0,0,0,0,0,-1,1588,400,3.16564,4.94579
371,624,3.37561,-5.23529,0,0,0,0,0,0,0,-1,1595,400,3.37563,5.23529
378,624,1.50439,-5.22165,0,0,0,0,0,0,0,-1,1602,400,1.50438,5.22164
385,624,0.724731,-2.43875,0,0,0,0,0,0,0,-1,1609,400,0.724746,2.43875
392,624,4.26819,-5.14236,0,0,0,0,0,0,0,-1,1616,400,4.26818,5.14236
399,624,3.86841,-2.36917,0,0,0,0,0,0,0,-1,1623,400,3.86838,2.36916
406,624,4.35376,-2.6962,0,0,0,0,0,0,0,-1,1630,400,4.35373,2.69619
413,624,0,0,0,0,0,0,0,0,0,-1,1637,400,0,0
420,624,0,0,0,0,0,0,0,0,0,-1,1644,400,0,0
427,624,0,0,0,0,0,0,0,0,0,-1,1651,400,0,0
434,624,0,0,0,0,0,0,0,0,0,-1,1658,400,0,0
441,624,0,0,0,0,0,0,0,0,0,-1,1665,400,0,0
448,624,0,0,0,0,0,0,0,0,0,-1,1672,400,0,0
455,624,0,0,0,0,0,0,0,0,0,-1,1679,400,0,0
462,624,0,0,0,0,0,0,0,0,0,-1,1686,400,0,0
469,624,0,0,0,0,0,0,0,0,0,-1,1693,400,0,0
476,624,0,0,0,0,0,0,0,0,0,-1,1700,400,0,0
483,624,0,0,0,0,0,0,0,0,0,-1,1707,400,0,0
490,624,0,0,0,0,0,0,0,0,0,-1,1714,400,0,0
497,624,0,0,0,0,0,0,0,0,0,-1,1721,400,0,0
504,624,0,0,0,0,0,0,0,0,0,-1,1728,400,0,0
511,624,0,0,0,0,0,0,0,0,0,-1,1735,400,0,0
518,624,0,0,0,0,0,0,0,0,0,-1,1742,400,0,0
525,624,0,0,0,0,0,0,0,0,0,-1,1749,400,0,0
532,624,0,0,0,0,0,0,0,0,0,-1,1756,400,0,0
539,624,0,0,0,0,0,0,0,0,0,-1,1763,400,0,0
546,624,0,0,0,0,0,0,0,0,0,-1,1770,400,0,0
553,624,0,0,0,0,0,0,0,0,0,-1,1777,400,0,0
560,624,0,0,0,0,0,0,0,0,0,-1,1784,400,0,0
567,624,0,0,0,0,0,0,0,0,0,-1,1791,400,0,0
574,624,0,0,0,0,0,0,0,0,0,-1,1798,400,0,0
581,624,0,0,0,0,0,0,0,0,0,-1,1805,400,0,0
588,624,0,0,0,0,0,0,0,0,0,-1,1812,400,0,0
595,624,0,0,0,0,0,0,0,0,0,-1,1819,400,0,0
602,624,0,0,0,0,0,0,0,0,0,-1,1826,400,0,0
609,624,0,0,0,0,0,0,0,0,0,-1,1833,400,0,0
616,624,0,0,0,0,0,0,0,0,0,-1,1840,400,0,0
623,624,0,0,0,0,0,0,0,0,0,-1,1847,400,0,0
630,624,0,0,0,0,0,0,0,0,0,-1,1854,400,0,0
637,624,0,0,0,0,0,0,0,0,0,-1,1861,400,0,0
644,624,0,0,0,0,0,0,0,0,0,-1,1868,400,0,0
651,624,0,0,0,0,0,0,0,0,0,-1,1875,400,0,0
658,624,0,0,0,0,0,0,0,0,0,-1,1882,400,0,0
665,624,0,0,0,0,0,0,0,0,0,-1,1889,400,0,0
672,624,0,0,0,0,0,0,0,0,0,-1,1896,400,0,0
679,624,0,0,0,0,0,0,0,0,0,-1,1903,400,0,0
686,624,0,0,0,0,0,0,0,0,0,-1,1910,400,0,0
693,624,0,0,0,0,0,0,0,0,0,-1,1917,400,0,0
700,624,0,0,0,0,0,0,0,0,0,-1,1924,400,0,0
707,624,0,0,0,0,0,0,0,0,0,-1,1931,400,0,0
714,624,0,0,0,0,0,0,0,0,0,-1,1938,400,0,0
721,624,0,0,0,0,0,0,0,0,0,-1,1945,400,0,0
728,624,0,0,0,0,0,0,0,0,0,-1,1952,400,0,0
735,624,0,0,0,0,0,0,0,0,0,-1,1959,400,0,0
742,624,0,0,0,0,0,0,0,0,0,-1,1966,400,0,0
749,624,0,0,0,0,0,0,0,0,0,-1,1973,400,0,0
756,624,0,0,0,0,0,0,0,0,0,-1,1980,400,0,0
763,624,0,0,0,0,0,0,0,0,0,-1,1987,400,0,0
770,624,0,0,0,0,0,0,0,0,0,-1,1994,400,0,0
777,624,0,0,0,0,0,0,0,0,0,-1,2001,400,0,0
784,624,0,0,0,0,0,0,0,0,0,-1,2008,400,0,0
791,624,0,0,0,0,0,0,0,0,0,-1,2015,400,0,0
798,624,0,0,0,0,0,0,0,0,0,-1,2022,400,0,0
805,624,0,0,0,0,0,0,0,0,0,-1,2029,400,0,0
812,624,0,0,0,0,0,0,0,0,0,-1,2036,400,0,0
-700,617,0,0,0,0,0,0,0,0,0,-1,524,407,0,0
-693,617,0,0,0,0,0,0,0,0,0,-1,531,407,0,0
-686,617,0,0,0,0,0,0,0,0,0,-1,538,407,0,0
-679,617,0,0,0,0,0,0,0,0,0,-1,545,407,0,0
-672,617,0,0,0,0,0,0,0,0,0,-1,552,407,0,0
-665,617,0,0,0,0,0,0,0,0,0,-1,559,407,0,0
-658,617,0,0,0,0,0,0,0,0,0,-1,566,407,0,0
-651,617,0,0,0,0,0,0,0,0,0,-1,573,407,0,0
-644,617,0,0,0,0,0,0,0,0,0,-1,580,407,0,0
-637,617,0,0,0,0,0,0,0,0,0,-1,587,407,0,0
-630,617,0,0,0,0,0,0,0,0,0,-1,594,407,0,0
-623,617,0,0,0,0,0,0,0,0,0,-1,601,407,0,0
-616,617,0,0,0,0,0,0,0,0,0,-1,608,407,0,0
-609,617,0,0,0,0,0,0,0,0,0,-1,615,407,0,0
-602,617,0,0,0,0,0,0,0,0,0,-1,622,407,0,0
-595,617,0,0,0,0,0,0,0,0,0,-1,629,407,0,0
-588,617,0,0,0,0,0,0,0,0,0,-1,636,407,0,0
-581,617,0,0,0,0,0,0,0,0,0,-1,643,407,0,0
-574,617,0,0,0,0,0,0,0,0,0,-1,650,407,0,0
-567,617,0,0,0,0,0,0,0,0,0,-1,657,407,0,0
-560,617,0,0,0,0,0,0,0,0,0,-1,664,407,0,0
-553,617,0,0,0,0,0,0,0,0,0,-1,671,407,0,0
-546,617,0,0,0,0,0,0,0,0,0,-1,678,407,0,0
-539,617,0,0,0,0,0,0,0,0,0,-1,685,407,0,0
-532,617,0,0,0,0,0,0,0,0,0,-1,692,407,0,0
-525,617,0,0,0,0,0,0,0,0,0,-1,699,407,0,0
-518,617,0,0,0,0,0,0,0,0,0,-1,706,407,0,0
-511,617,0,0,0,0,0,0,0,0,0,-1,713,407,0,0
-504,617,0,0,0,0,0,0,0,0,0,-1,720,407,0,0
-497,617,0,0,0,0,0,0,0,0,0,-1,727,407,0,0
-490,617,0,0,0,0,0,0,0,0,0,-1,734,407,0,0
-483,617,0,0,0,0,0,0,0,0,0,-1,741,407,0,0
-476,617,0,0,0,0,0,0,0,0,0,-1,748,407,0,0
-469,617,0,0,0,0,0,0,0,0,0,-1,755,407,0,0
-462,617,0,0,0,0,0,0,0,0,0,-1,762,407,0,0
-455,617,0,0,0,0,0,0,0,0,0,-1,769,407,0,0
-448,617,0,0,0,0,0,0,0,0,0,-1,776,407,0,0
-441,617,0,0,0,0,0,0,0,0,0,-1,783,407,0,0
-434,617,0,0,0,0,0,0,0,0,0,-1,790,407,0,0
-427,617,0,0,0,0,0,0,0,0,0,-1,797,407,0,0
-420,617,0,0,0,0,0,0,0,0,0,-1,804,407,0,0
-413,617,0,0,0,0,0,0,0,0,0,-1,811,407,0,0
-406,617,0,0,0,0,0,0,0,0,0,-1,818,407,0,0
-399,617,0,0,0,0,0,0,0,0,0,-1,825,407,0,0
-392,617,0,0,0,0,0,0,0,0,0,-1,832,407,0,0
-385,617,0,0,0,0,0,0,0,0,0,-1,839,407,0,0
-378,617,0,0,0,0,0,0,0,0,0,-1,846,407,0,0
-371,617,0,0,0,0,0,0,0,0,0,-1,853,407,0,0
-364,617,0,0,0,0,0,0,0,0,0,-1,860,407,0,0
-357,617,0,0,0,0,0,0,0,0,0,-1,867,407,0,0
-350,617,0,0,0,0,0,0,0,0,0,-1,874,407,0,0
-343,617,0,0,0,0,0,0,0,0,0,-1,881,407,0,0
-336,617,0,0,0,0,0,0,0,0,0,-1,888,407,0,0
-329,617,0,0,0,0,0,0,0,0,0,-1,895,407,0,0
-322,617,0,0,0,0,0,0,0,0,0,-1,902,407,0,0
-315,617,0,0,0,0,0,0,0,0,0,-1,909,407,0,0
-308,617,0,0,0,0,0,0,0,0,0,-1,916,407,0,0
-301,617,-1.61346,-11.4687,0,0,0,0,0,0,0,-1,923,407,-1.61344,11.4687
-294,617,-0.867493,-11.1655,0,0,0,0,0,0,0,-1,930,407,-0.867487,11.1655
-287,617,-0.212524,-10.7744,0,0,0,0,0,0,0,-1,937,407,-0.212541,10.7743
-280,617,2.19739,-11.6377,0,0,0,0,0,0,0,-1,944,407,2.19737,11.6377
-273,617,2.36188,-10.5736,0,0,0,0,0,0,0,-1,951,407,2.36188,10.5736
-266,617,2.00537,-8.98315,0,0,0,0,0,0,0,-1,958,407,2.00539,8.98315
-259,617,2.03473,-9.50534,0,0,0,0,0,0,0,-1,965,407,2.0347,9.50533
-252,617,2.08514,-9.93616,0,0,0,0,0,0,0,-1,972,407,2.08514,9.93614
-245,617,2.74524,-10.6543,0,0,0,0,0,0,0,-1,979,407,2.74522,10.6543
-238,617,2.63129,-10.1752,0,0,0,0,0,0,0,-1,986,407,2.63131,10.1752
-231,617,2.40863,-10.1428,-0.00213471,0.017477,-0.0082107,0.0204606,-0.00511832,-1.22225,0.0156284,0.0467861,993,407,2.40865,10.1428
-224,617,2.32318,-10.3784,-0.0022308,0.0162022,-0.00773816,0.0190199,-0.00504855,-1.22158,0.0146556,0.0441673,1000,407,2.32316,10.3784
-217,617,2.58862,-11.0738,-0.00192774,0.0128454,-0.00663341,0.0153868,-0.00446908,-1.20493,0.0120276,0.0362821,1007,407,2.58862,11.0738
-210,617,2.56116,-11.3907,-0.00141924,0.0101745,-0.00552509,0.0123858,-0.0036305,-1.1901,0.00969663,0.023441,1014,407,2.56118,11.3908
-203,617,2.5174,-11.5204,-0.000973747,0.0077384,-0.00431441,0.00951335,-0.0027487,-1.1805,0.00742993,0.0182456,1021,407,2.51741,11.5205
-196,617,2.49341,-11.6471,-0.000756694,0.00588279,-0.00321438,0.00718397,-0.00205787,-1.18616,0.0056027,0.0145985,1028,407,2.49335,11.6471
-189,617,2.48901,-11.8006,-0.00058233,0.004431,-0.00248639,0.00545499,-0.00160632,-1.18013,0.00427393,0.0122295,1035,407,2.48901,11.8006
-182,617,2.49878,-11.9418,-0.000332095,0.0032241,-0.00181086,0.00398388,-0.00109188,-1.17353,0.00308498,0.0135196,1042,407,2.49879,11.9418
-175,617,2.50745,-12.0737,-2.85622e-05,0.00185848,-0.00109467,0.00236014,-0.000530217,-1.14109,0.00177673,0.0123339,1049,407,2.50748,12.0737
-168,617,2.48376,-12.2327,-6.52231e-05,0.000820192,-0.000430032,0.00099467,-0.000239701,-1.18536,0.000755792,0.0101982,1056,407,2.48374,12.2327
-161,617,2.44153,-12.4066,-0.000179133,0.000461022,-4.20517e-05,0.000463773,-0.000181883,-1.50548,0.00038443,0.011599,1063,407,2.44156,12.4066
-154,617,2.42432,-12.5401,-0.000101766,0.000464361,0.000144128,0.000498942,-0.000136347,1.33532,0.000386185,0.0115445,1070,407,2.4243,12.5401
-147,617,2.42651,-12.6549,-3.17743e-05,0.000445682,0.000481708,0.000744572,-0.000330665,1.01545,0.000635935,0.0148352,1077,407,2.42646,12.6549
-140,617,2.43433,-12.7933,4.65426e-05,0.000599543,0.000861635,0.00122796,-0.00058187,0.940659,0.00106687,0.0114465,1084,407,2.4343,12.7933
-133,617,2.41724,-12.923,0.000108067,0.000652058,0.00106049,0.00147488,-0.000714755,0.910933,0.00128933,0.0136923,1091,407,2.41721,12.923
-126,617,2.41199,-13.0227,0.000179216,0.000883752,0.0011921,0.00177454,-0.000711573,0.929061,0.00147845,0.0136058,1098,407,2.41194,13.0227
-119,617,2.40747,-13.1255,0.000263287,0.00134142,0.00122048,0.00213658,-0.00053187,0.993358,0.00163085,0.013718,1105,407,2.40741,13.1256
-112,617,2.40479,-13.2338,0.000444524,0.00190005,0.0011034,0.00249408,-0.000149504,1.07693,0.00171473,0.0145513,1112,407,2.40479,13.2338
-105,617,2.39978,-13.3424,0.000659121,0.00224187,0.00095006,0.00268698,0.000214014,1.13266,0.00172441,0.0150602,1119,407,2.39979,13.3424
-98,617,2.42542,-13.4368,0.000811151,0.00246915,0.000702246,0.00272661,0.000553693,1.21939,0.00166417,0.0130681,1126,407,2.42546,13.4368
-91,617,2.42017,-13.537,0.000939729,0.00250967,0.000357295,0.00258716,0.000862239,1.35722,0.00152113,0.0180742,1133,407,2.42016,13.5369
-84,617,2.44653,-13.6421,0.00102833,0.00227221,9.12182e-05,0.00227887,0.00102167,1.49798,0.00131804,0.0172611,1140,407,2.44647,13.6421
-77,617,2.45459,-13.722,0.00106255,0.00188994,-0.000136631,0.00191192,0.00104057,-1.4113,0.00110529,0.012792,1147,407,2.45455,13.722
-70,617,2.45264,-13.7978,0.00117653,0.00116782,-0.000300746,0.00147295,0.000871398,-0.778161,0.000855154,0.0136064,1154,407,2.4526,13.7978
-63,617,2.43677,-13.8612,0.0012935,0.000649606,-0.000461779,0.00153448,0.000408624,-0.480979,0.000917627,0.0154429,1161,407,2.43673,13.8612
-56,617,2.44116,-13.9229,0.00159868,-0.00014387,-0.000409226,0.00169,-0.000235189,-0.219552,0.00121269,0.0116695,1168,407,2.44114,13.9228
-49,617,2.46057,-13.9916,0.00236809,-0.0017978,-0.000498985,0.00242702,-0.00185674,-0.117563,0.00248052,0.00942457,1175,407,2.46055,13.9916
-42,617,2.47827,-14.0685,0.00354213,-0.00309027,-0.000960231,0.00367835,-0.0032265,-0.140925,0.00398936,0.0112145,1182,407,2.47823,14.0685
-35,617,2.48547,-14.1285,0.00471065,-0.00401082,-0.00171043,0.0050341,-0.00433427,-0.186897,0.00541386,0.0161128,1189,407,2.48544,14.1285
-28,617,2.46277,-14.1745,0.00579236,-0.00447776,-0.00239749,0.00632447,-0.00500987,-0.218404,0.00655854,0.0184152,1196,407,2.46271,14.1745
-21,617,2.49902,-14.2245,0.00681236,-0.00501805,-0.00273473,0.00741393,-0.00561963,-0.216527,0.00754866,0.013975,1203,407,2.49898,14.2246
-14,617,2.48999,-14.2411,0.00778006,-0.00463386,-0.00338255,0.00864191,-0.0054957,-0.249483,0.00822945,0.015688,1210,407,2.48994,14.2411
-7,617,2.45166,-14.2417,0.00790658,-0.00406913,-0.00344646,0.0088276,-0.00499014,-0.261133,0.00807958,0.0179403,1217,407,2.45167,14.2417
0,617,2.47461,-14.2816,0.0069328,-0.00305295,-0.00331014,0.0079304,-0.00405055,-0.292721,0.00703707,0.0152568,1224,407,2.47457,14.2815
7,617,2.51624,-14.3532,0.00603397,-0.00169388,-0.00288597,0.00699278,-0.00265268,-0.320757,0.00575366,0.010768,1231,407,2.51624,14.3532
14,617,2.52478,-14.3801,0.00501303,-0.000608367,-0.00226725,0.00581349,-0.00140883,-0.339392,0.00442074,0.0127812,1238,407,2.52478,14.3801
21,617,2.5365,-14.3882,0.00403334,0.000371532,-0.00150543,0.00457278,-0.000167905,-0.344075,0.003106,0.0117411,1245,407,2.5365,14.3882
28,617,2.54602,-14.4088,0.00293573,0.00102187,-0.000527405,0.00307145,0.000886159,-0.25186,0.00182541,0.0102001,1252,407,2.54598,14.4087
35,617,2.5448,-14.4342,0.00173715,0.0016039,0.000451114,0.00212653,0.00121452,0.712079,0.00123189,0.0131391,1259,407,2.5448,14.4342
42,617,2.62903,-14.4173,0.000879276,0.00125578,0.00149032,0.00256969,-0.000434639,0.848223,0.00187487,0.0192667,1266,407,2.62898,14.4173
49,617,2.67017,-14.4015,0.000407926,0.000242907,0.00215288,0.00247988,-0.00182905,0.766245,0.0024972,0.0183098,1273,407,2.67015,14.4015
56,617,2.65649,-14.4119,0.00026984,-0.000658377,0.00276494,0.00260935,-0.00299789,0.702246,0.00323993,0.0126808,1280,407,2.65646,14.4119
63,617,2.65393,-14.4084,0.000436183,-0.00200035,0.00322219,0.00266272,-0.00422688,0.604661,0.00401174,0.0094857,1287,407,2.65396,14.4084
70,617,2.65796,-14.3906,0.000899419,-0.00367817,0.00337249,0.00268644,-0.00546519,0.487266,0.00479662,0.0141868,1294,407,2.65796,14.3906
77,617,2.6842,-14.3675,0.00167337,-0.0054901,0.00326686,0.00293944,-0.00675616,0.369727,0.00574051,0.0126809,1301,407,2.68419,14.3675
84,617,2.67615,-14.3464,0.00214379,-0.00721694,0.00270932,0.00287141,-0.00794455,0.262369,0.00646952,0.010029,1308,407,2.67615,14.3464
91,617,2.69763,-14.3315,0.00223956,-0.00901548,0.00229869,0.00269093,-0.00946686,0.193895,0.00737374,0.00974198,1315,407,2.69761,14.3315
98,617,2.73743,-14.3171,0.00255989,-0.0102353,0.00140651,0.00271268,-0.010388,0.108204,0.00798469,0.0106593,1322,407,2.73748,14.3171
105,617,2.74573,-14.2784,0.00312678,-0.0112786,0.000595717,0.00315137,-0.0113032,0.0412597,0.00877661,0.0124271,1329,407,2.74576,14.2784
112,617,2.75244,-14.2142,0.00289427,-0.0119087,-7.5125e-05,0.00289465,-0.0119091,-0.00507481,0.00905977,0.016338,1336,407,2.75239,14.2142
119,617,2.77356,-14.1479,0.00216424,-0.0119562,-0.000545185,0.00218526,-0.0119772,-0.0385332,0.00880409,0.0194588,1343,407,2.77354,14.1479
126,617,2.7854,-14.0602,0.00127827,-0.0117219,-0.000948377,0.00134709,-0.0117907,-0.0724403,0.00834579,0.0208352,1350,407,2.78541,14.0602
133,617,2.78772,-14.0086,0.000650268,-0.0112511,-0.00132667,0.000796361,-0.0113972,-0.109678,0.00787701,0.0170616,1357,407,2.78769,14.0086
140,617,2.81982,-13.9828,0.000381375,-0.0107801,-0.00152227,0.000585267,-0.010984,-0.133147,0.00752533,0.0139166,1364,407,2.8198,13.9828
147,617,2.81006,-13.9301,0.000151204,-0.00985753,-0.00166212,0.000420009,-0.0101263,-0.160336,0.00689516,0.017046,1371,407,2.81003,13.9301
154,617,2.83447,-13.8905,0.000103854,-0.00879819,-0.00159691,0.000381649,-0.00907599,-0.172235,0.0061818,0.0192162,1378,407,2.83445,13.8905
161,617,2.8689,-13.8122,0.000194312,-0.00811557,-0.00164583,0.000508408,-0.00842967,-0.188576,0.00579668,0.021276,1385,407,2.86885,13.8122
168,617,2.86938,-13.7252,0.000324341,-0.00741267,-0.0016675,0.000668422,-0.00775675,-0.20349,0.00540776,0.0205714,1392,407,2.86933,13.7252
175,617,2.87109,-13.6317,0.000463425,-0.0065329,-0.00154171,0.00078809,-0.00685757,-0.207555,0.00485577,0.016836,1399,407,2.87112,13.6318
182,617,2.87512,-13.5301,0.000467186,-0.00549357,-0.00141811,0.000787367,-0.00581375,-0.222057,0.00416318,0.0112884,1406,407,2.87511,13.5301
189,617,2.84814,-13.4248,0.000704591,-0.00409044,-0.00127927,0.00102454,-0.00441039,-0.245076,0.00333466,0.0108281,1413,407,2.84819,13.4248
196,617,2.85144,-13.3213,0.000963154,-0.0027014,-0.00111303,0.00127472,-0.00301297,-0.272942,0.0025424,0.0142348,1420,407,2.85139,13.3213
203,617,2.86255,-13.2021,0.000949342,-0.00158197,-0.000850345,0.00120847,-0.0018411,-0.295795,0.00177325,0.0140887,1427,407,2.86259,13.2021
210,617,2.87292,-13.0924,0.00062761,-0.000713193,-0.000522805,0.000807363,-0.000892946,-0.331163,0.000982088,0.0144173,1434,407,2.87292,13.0924
217,617,2.87109,-12.9784,0.000184821,-0.000341163,-0.00037643,0.000381029,-0.000537371,-0.480489,0.000532793,0.0194897,1441,407,2.87103,12.9784
224,617,2.88562,-12.8616,5.89384e-05,8.01007e-05,-0.000243435,0.000313185,-0.000174145,-0.807118,0.000285152,0.0183486,1448,407,2.88564,12.8616
231,617,2.88354,-12.7614,4.683e-05,0.000560449,-4.66324e-05,0.000564648,4.26304e-05,-1.48098,0.000363057,0.0143464,1455,407,2.88359,12.7614
238,617,2.86658,-12.6229,0.000101508,0.00112355,0.000137055,0.00114161,8.3448e-05,1.43978,0.00073484,0.0145529,1462,407,2.86662,12.6229
245,617,2.8855,-12.5052,9.47456e-05,0.00159792,0.0001822,0.00161969,7.29763e-05,1.45188,0.00105631,0.0123412,1469,407,2.88551,12.5052
252,617,2.89307,-12.3652,0.000129091,0.00212297,0.000225247,0.0021481,0.000103962,1.45969,0.0013987,0.0135953,1476,407,2.89311,12.3652
259,617,2.87463,-12.2231,0.000111965,0.00255095,0.000315291,0.00259104,7.18664e-05,1.44429,0.00170391,0.0114601,1483,407,2.87461,12.2231
266,617,2.88525,-12.0599,2.68943e-05,0.00303331,0.000461287,0.0031025,-4.22907e-05,1.42192,0.00208257,0.0131304,1490,407,2.88528,12.0599
273,617,2.87976,-11.9052,-1.63846e-05,0.00348398,0.000713842,0.00362395,-0.000156363,1.37716,0.00246974,0.0133705,1497,407,2.87971,11.9052
280,617,2.85583,-11.7642,8.11891e-05,0.00379286,0.00106699,0.00407772,-0.000203673,1.3099,0.00278885,0.0122743,1504,407,2.85587,11.7642
287,617,2.83008,-11.5981,0.000111087,0.00402066,0.00147856,0.00451686,-0.000385112,1.24701,0.00314747,0.0120878,1511,407,2.83005,11.5981
294,617,2.83386,-11.4352,0.00013176,0.00429503,0.00194679,0.00506352,-0.000636728,1.19483,0.00360671,0.00928991,1518,407,2.83382,11.4352
301,617,2.83972,-11.2776,0.000194694,0.00451451,0.00248799,0.00564933,-0.000940133,1.14286,0.00411555,0.00747513,1525,407,2.83972,11.2776
308,617,2.83594,-11.1135,0.0003363,0.00482618,0.00314083,0.00644188,-0.0012794,1.09568,0.00477849,0.00818549,1532,407,2.83588,11.1135
315,617,2.81262,-10.9395,0.00045867,0.00491754,0.00375468,0.00705479,-0.00167859,1.05331,0.00535121,0.00909344,1539,407,2.81259,10.9395
322,617,2.78235,-10.7593,0.000629363,0.00505678,0.00449479,0.00785343,-0.00216728,1.01422,0.00608802,0.0119802,1546,407,2.78238,10.7593
329,617,2.80835,-10.5733,0.000782303,0.00534926,0.00514252,0.00869249,-0.00256093,0.994341,0.00681105,0.0126446,1553,407,2.80841,10.5733
336,617,2.83301,-10.3814,0.000641706,0.00509681,0.00510891,0.00844267,-0.00270416,0.990979,0.00671388,0.0260718,1560,407,2.83299,10.3814
343,617,2.78577,-10.0382,0,0,0,0,0,0,0,-1,1567,407,2.78573,10.0382
350,617,2.88098,-10.0063,0,0,0,0,0,0,0,-1,1574,407,2.88098,10.0063
357,617,2.1748,-7.16504,0,0,0,0,0,0,0,-1,1581,407,2.1748,7.16505
364,617,2.30127,-7.60257,0,0,0,0,0,0,0,-1,1588,407,2.30125,7.60258
371,617,2.60266,-6.20667,0,0,0,0,0,0,0,-1,1595,407,2.60261,6.20668
378,617,2.27588,-7.47134,0,0,0,0,0,0,0,-1,1602,407,2.27582,7.47136
385,617,1.37012,-5.41284,0,0,0,0,0,0,0,-1,1609,407,1.37016,5.41286
392,617,3.40723,-2.54929,0,0,0,0,0,0,0,-1,1616,407,3.40725,2.54929
399,617,3.25,-2.14835,0,0,0,0,0,0,0,-1,1623,407,3.25006,2.14836
406,617,3.02429,-3.19577,0,0,0,0,0,0,0,-1,1630,407,3.02431,3.19577
413,617,2.92786,-3.80649,0,0,0,0,0,0,0,-1,1637,407,2.92788,3.8065
420,617,3.42737,-4.47391,0,0,0,0,0,0,0,-1,1644,407,3.42737,4.47391
427,617,0,0,0,0,0,0,0,0,0,-1,1651,407,0,0
434,617,0,0,0,0,0,0,0,0,0,-1,1658,407,0,0
441,617,0,0,0,0,0,0,0,0,0,-1,1665,407,0,0
448,617,0,0,0,0,0,0,0,0,0,-1,1672,407,0,0
455,617,0,0,0,0,0,0,0,0,0,-1,1679,407,0,0
462,617,0,0,0,0,0,0,0,0,0,-1,1686,407,0,0
469,617,0,0,0,0,0,0,0,0,0,-1,1693,407,0,0
476,617,0,0,0,0,0,0,0,0,0,-1,1700,407,0,0
483,617,0,0,0,0,0,0,0,0,0,-1,1707,407,0,0
490,617,0,0,0,0,0,0,0,0,0,-1,1714,407,0,0
497,617,0,0,0,0,0,0,0,0,0,-1,1721,407,0,0
504,617,0,0,0,0,0,0,0,0,0,-1,1728,407,0,0
511,617,0,0,0,0,0,0,0,0,0,-1,1735,407,0,0
518,617,0,0,0,0,0,0,0,0,0,-1,1742,407,0,0
525,617,0,0,0,0,0,0,0,0,0,-1,1749,407,0,0
532,617,0,0,0,0,0,0,0,0,0,-1,1756,407,0,0
539,617,0,0,0,0,0,0,0,0,0,-1,1763,407,0,0
546,617,0,0,0,0,0,0,0,0,0,-1,1770,407,0,0
553,617,0,0,0,0,0,0,0,0,0,-1,1777,407,0,0
560,617,0,0,0,0,0,0,0,0,0,-1,1784,407,0,0
567,617,0,0,0,0,0,0,0,0,0,-1,1791,407,0,0
574,617,0,0,0,0,0,0,0,0,0,-1,1798,407,0,0
581,617,0,0,0,0,0,0,0,0,0,-1,1805,407,0,0
588,617,0,0,0,0,0,0,0,0,0,-1,1812,407,0,0
595,617,0,0,0,0,0,0,0,0,0,-1,1819,407,0,0
602,617,0,0,0,0,0,0,0,0,0,-1,1826,407,0,0
609,617,0,0,0,0,0,0,0,0,0,-1,1833,407,0,0
616,617,0,0,0,0,0,0,0,0,0,-1,1840,407,0,0
623,617,0,0,0,0,0,0,0,0,0,-1,1847,407,0,0
630,617,0,0,0,0,0,0,0,0,0,-1,1854,407,0,0
637,617,0,0,0,0,0,0,0,0,0,-1,1861,407,0,0
644,617,0,0,0,0,0,0,0,0,0,-1,1868,407,0,0
651,617,0,0,0,0,0,0,0,0,0,-1,1875,407,0,0
658,617,0,0,0,0,0,0,0,0,0,-1,1882,407,0,0
665,617,0,0,0,0,0,0,0,0,0,-1,1889,407,0,0
672,617,0,0,0,0,0,0,0,0,0,-1,1896,407,0,0
679,617,0,0,0,0,0,0,0,0,0,-1,1903,407,0,0
686,617,0,0,0,0,0,0,0,0,0,-1,1910,407,0,0
693,617,0,0,0,0,0,0,0,0,0,-1,1917,407,0,0
700,617,0,0,0,0,0,0,0,0,0,-1,1924,407,0,0
707,617,0,0,0,0,0,0,0,0,0,-1,1931,407,0,0
714,617,0,0,0,0,0,0,0,0,0,-1,1938,407,0,0
721,617,0,0,0,0,0,0,0,0,0,-1,1945,407,0,0
728,617,0,0,0,0,0,0,0,0,0,-1,1952,407,0,0
735,617,0,0,0,0,0,0,0,0,0,-1,1959,407,0,0
742,617,0,0,0,0,0,0,0,0,0,-1,1966,407,0,0
749,617,0,0,0,0,0,0,0,0,0,-1,1973,407,0,0
756,617,0,0,0,0,0,0,0,0,0,-1,1980,407,0,0
763,617,0,0,0,0,0,0,0,0,0,-1,1987,407,0,0
770,617,0,0,0,0,0,0,0,0,0,-1,1994,407,0,0
777,617,0,0,0,0,0,0,0,0,0,-1,2001,407,0,0
784,617,0,0,0,0,0,0,0,0,0,-1,2008,407,0,0
791,617,0,0,0,0,0,0,0,0,0,-1,2015,407,0,0
798,617,0,0,0,0,0,0,0,0,0,-1,2022,407,0,0
805,617,0,0,0,0,0,0,0,0,0,-1,2029,407,0,0
812,617,0,0,0,0,0,0,0,0,0,-1,2036,407,0,0
-700,610,0,0,0,0,0,0,0,0,0,-1,524,414,0,0
-693,610,0,0,0,0,0,0,0,0,0,-1,531,414,0,0
-686,610,0,0,0,0,0,0,0,0,0,-1,538,414,0,0
-679,610,0,0,0,0,0,0,0,0,0,-1,545,414,0,0
-672,610,0,0,0,0,0,0,0,0,0,-1,552,414,0,0
-665,610,0,0,0,0,0,0,0,0,0,-1,559,414,0,0
-658,610,0,0,0,0,0,0,0,0,0,-1,566,414,0,0
-651,610,0,0,0,0,0,0,0,0,0,-1,573,414,0,0
-644,610,0,0,0,0,0,0,0,0,0,-1,580,414,0,0
-637,610,0,0,0,0,0,0,0,0,0,-1,587,414,0,0
-630,610,0,0,0,0,0,0,0,0,0,-1,594,414,0,0
-623,610,0,0,0,0,0,0,0,0,0,-1,601,414,0,0
-616,610,0,0,0,0,0,0,0,0,0,-1,608,414,0,0
-609,610,0,0,0,0,0,0,0,0,0,-1,615,414,0,0
-602,610,0,0,0,0,0,0,0,0,0,-1,622,414,0,0
-595,610,0,0,0,0,0,0,0,0,0,-1,629,414,0,0
-588,610,0,0,0,0,0,0,0,0,0,-1,636,414,0,0
-581,610,0,0,0,0,0,0,0,0,0,-1,643,414,0,0
-574,610,0,0,0,0,0,0,0,0,0,-1,650,414,0,0
-567,610,0,0,0,0,0,0,0,0,0,-1,657,414,0,0
-560,610,0,0,0,0,0,0,0,0,0,-1,664,414,0,0
-553,610,0,0,0,0,0,0,0,0,0,-1,671,414,0,0
-546,610,0,0,0,0,0,0,0,0,0,-1,678,414,0,0
-539,610,0,0,0,0,0,0,0,0,0,-1,685,414,0,0
-532,610,0,0,0,0,0,0,0,0,0,-1,692,414,0,0
-525,610,0,0,0,0,0,0,0,0,0,-1,699,414,0,0
-518,610,0,0,0,0,0,0,0,0,0,-1,706,414,0,0
-511,610,0,0,0,0,0,0,0,0,0,-1,713,414,0,0
-504,610,0,0,0,0,0,0,0,0,0,-1,720,414,0,0
-497,610,0,0,0,0,0,0,0,0,0,-1,727,414,0,0
-490,610,0,0,0,0,0,0,0,0,0,-1,734,414,0,0
-483,610,0,0,0,0,0,0,0,0,0,-1,741,414,0,0
-476,610,0,0,0,0,0,0,0,0,0,-1,748,414,0,0
-469,610,0,0,0,0,0,0,0,0,0,-1,755,414,0,0
-462,610,0,0,0,0,0,0,0,0,0,-1,762,414,0,0
-455,610,0,0,0,0,0,0,0,0,0,-1,769,414,0,0
-448,610,0,0,0,0,0,0,0,0,0,-1,776,414,0,0
-441,610,0,0,0,0,0,0,0,0,0,-1,783,414,0,0
-434,610,0,0,0,0,0,0,0,0,0,-1,790,414,0,0
-427,610,0,0,0,0,0,0,0,0,0,-1,797,414,0,0
-420,610,0,0,0,0,0,0,0,0,0,-1,804,414,0,0
-413,610,0,0,0,0,0,0,0,0,0,-1,811,414,0,0
-406,610,0,0,0,0,0,0,0,0,0,-1,818,414,0,0
-399,610,0,0,0,0,0,0,0,0,0,-1,825,414,0,0
-392,610,0,0,0,0,0,0,0,0,0,-1,832,414,0,0
-385,610,0,0,0,0,0,0,0,0,0,-1,839,414,0,0
-378,610,0,0,0,0,0,0,0,0,0,-1,846,414,0,0
-371,610,0,0,0,0,0,0,0,0,0,-1,853,414,0,0
-364,610,0,0,0,0,0,0,0,0,0,-1,860,414,0,0
-357,610,0,0,0,0,0,0,0,0,0,-1,867,414,0,0
-350,610,0,0,0,0,0,0,0,0,0,-1,874,414,0,0
-343,610,0,0,0,0,0,0,0,0,0,-1,881,414,0,0
-336,610,0,0,0,0,0,0,0,0,0,-1,888,414,0,0
-329,610,0,0,0,0,0,0,0,0,0,-1,895,414,0,0
-322,610,0,0,0,0,0,0,0,0,0,-1,902,414,0,0
-315,610,5.57825,-7.69159,0,0,0,0,0,0,0,-1,909,414,5.57823,7.69159
-308,610,5.54938,-7.44653,0,0,0,0,0,0,0,-1,916,414,5.54937,7.44653
-301,610,-1.54291,-9.7341,0,0,0,0,0,0,0,-1,923,414,-1.54293,9.73409
-294,610,-1.43835,-9.29047,0,0,0,0,0,0,0,-1,930,414,-1.43836,9.29047
-287,610,2.08557,-11.9136,0,0,0,0,0,0,0,-1,937,414,2.08555,11.9136
-280,610,2.25854,-11.0924,0,0,0,0,0,0,0,-1,944,414,2.25856,11.0924
-273,610,2.44586,-10.2559,0,0,0,0,0,0,0,-1,951,414,2.44589,10.2559
-266,610,2.6048,-9.41223,0,0,0,0,0,0,0,-1,958,414,2.60478,9.41223
-259,610,2.2428,-9.85474,0,0,0,0,0,0,0,-1,965,414,2.2428,9.85473
-252,610,2.17596,-10.2031,0,0,0,0,0,0,0,-1,972,414,2.17596,10.2031
-245,610,2.45081,-10.5097,0,0,0,0,0,0,0,-1,979,414,2.45081,10.5097
-238,610,2.72565,-10.8163,0,0,0,0,0,0,0,-1,986,414,2.72566,10.8163
-231,610,2.52502,-10.6426,-0.00152936,0.0128112,-0.00614646,0.0150851,-0.00380322,-1.21646,0.0115354,0.033851,993,414,2.525,10.6426
-224,610,2.40808,-10.889,-0.00169933,0.0121247,-0.00586151,0.0142754,-0.00385005,-1.21912,0.0110266,0.0248486,1000,414,2.40806,10.889
-217,610,2.40503,-11.1219,-0.00152319,0.00985812,-0.00517945,0.0118623,-0.00352736,-1.20159,0.00930946,0.0149257,1007,414,2.40505,11.1219
-210,610,2.40356,-11.3252,-0.0011738,0.0078985,-0.00443633,0.00970725,-0.00298254,-1.18366,0.00766169,0.0103857,1014,414,2.40356,11.3252
-203,610,2.38049,-11.4851,-0.000864657,0.00617812,-0.0035418,0.00765119,-0.00233772,-1.17665,0.00603294,0.0128717,1021,414,2.38048,11.4851
-196,610,2.3822,-11.6582,-0.000687443,0.00484338,-0.00273183,0.00596518,-0.00180924,-1.18115,0.00469748,0.0129563,1028,414,2.38221,11.6582
-189,610,2.37537,-11.811,-0.000489005,0.00371938,-0.00218319,0.00464734,-0.00141696,-1.16889,0.00366307,0.0103328,1035,414,2.37537,11.811
-182,610,2.35791,-11.9552,-0.000208841,0.00273282,-0.00167363,0.00349008,-0.000966097,-1.1459,0.00270684,0.0113076,1042,414,2.35789,11.9552
-175,610,2.35583,-12.0889,0.000130893,0.00155575,-0.00109443,0.0021492,-0.000462562,-1.07392,0.0016093,0.011875,1049,414,2.35585,12.0889
-168,610,2.33386,-12.241,0.000225242,0.00061813,-0.000558634,0.00101385,-0.000170481,-0.95447,0.00073931,0.0111757,1056,414,2.33391,12.241
-161,610,2.30493,-12.4202,0.000262945,0.000206556,-0.000267915,0.000504145,-3.46439e-05,-0.732972,0.000348219,0.011733,1063,414,2.30489,12.4202
-154,610,2.28357,-12.5498,0.000443068,7.48926e-05,-0.000120162,0.000478815,3.91457e-05,-0.289151,0.000306994,0.014316,1070,414,2.28352,12.5498
-147,610,2.28674,-12.6537,0.000568707,-9.35879e-05,8.00699e-05,0.00057825,-0.000103131,0.118621,0.000424078,0.0146859,1077,414,2.28669,12.6538
-140,610,2.3136,-12.7888,0.000677332,-0.000180156,0.000268414,0.000754421,-0.000257245,0.279676,0.000607142,0.0113799,1084,414,2.31362,12.7888
-133,610,2.3092,-12.9121,0.00077582,-0.000218892,0.000320586,0.000870189,-0.000313261,0.286278,0.000708036,0.0132939,1091,414,2.30922,12.9121
-126,610,2.29749,-13.022,0.000857684,-6.24759e-05,0.000317824,0.000956787,-0.000161579,0.302263,0.00069798,0.0119668,1098,414,2.29745,13.022
-119,610,2.29309,-13.1249,0.000945621,0.000293204,0.000229341,0.00101817,0.000220653,0.306385,0.000618492,0.0102165,1105,414,2.29306,13.1249
-112,610,2.30225,-13.2289,0.00110191,0.000719345,5.26132e-05,0.00110902,0.000712241,0.134207,0.000648869,0.0168395,1112,414,2.30231,13.2289
-105,610,2.31311,-13.3287,0.00127273,0.00106231,-0.00014472,0.00134644,0.000988602,-0.471096,0.000805301,0.0167299,1119,414,2.31312,13.3287
-98,610,2.32495,-13.4427,0.0013954,0.0014069,-0.00037626,0.00177746,0.00102485,-0.79304,0.00103022,0.0126955,1126,414,2.32496,13.4427
-91,610,2.32202,-13.5294,0.00150928,0.00167354,-0.000614562,0.00221144,0.000971384,-0.851826,0.00127991,0.0142451,1133,414,2.32198,13.5293
-84,610,2.33923,-13.6191,0.00164522,0.00165675,-0.000728136,0.00237914,0.000922823,-0.789356,0.00138506,0.0147392,1140,414,2.33928,13.6191
-77,610,2.35449,-13.7257,0.00176624,0.0014599,-0.000760003,0.00238836,0.000837786,-0.685959,0.00139924,0.0106045,1147,414,2.35447,13.7257
-70,610,2.38123,-13.8048,0.00200292,0.000709504,-0.000762497,0.00235603,0.000356395,-0.433691,0.00146639,0.0123973,1154,414,2.38124,13.8048
-63,610,2.37756,-13.8609,0.00219245,0.000192358,-0.000830784,0.00249252,-0.000107708,-0.346604,0.00169872,0.0129387,1161,414,2.37752,13.8609
-56,610,2.36328,-13.9156,0.00290581,-0.00114283,-0.000656201,0.00300951,-0.00124653,-0.156735,0.00252652,0.0108458,1168,414,2.36331,13.9156
-49,610,2.39026,-13.981,0.00452109,-0.00426858,-0.000805781,0.00459435,-0.00434184,-0.0906666,0.00516,0.0106588,1175,414,2.39021,13.981
-42,610,2.42773,-14.0544,0.00655737,-0.0062958,-0.00176498,0.00679533,-0.00653376,-0.134015,0.00769605,0.0138831,1182,414,2.42776,14.0544
-35,610,2.42334,-14.1222,0.00848542,-0.00754307,-0.00301617,0.00903421,-0.00809185,-0.179978,0.00989272,0.0142311,1189,414,2.42331,14.1222
-28,610,2.41846,-14.1782,0.0101162,-0.00805824,-0.00409921,0.010998,-0.00894003,-0.211882,0.0115317,0.0124115,1196,414,2.41851,14.1782
-21,610,2.43909,-14.2109,0.0115826,-0.00870233,-0.00468228,0.0126113,-0.00973096,-0.21625,0.012935,0.0109003,1203,414,2.43913,14.2109
-14,610,2.44214,-14.2289,0.0128067,-0.00797952,-0.00562762,0.0142325,-0.00940532,-0.248138,0.0137418,0.0124689,1210,414,2.44214,14.2288
-7,610,2.45996,-14.2436,0.0127863,-0.00703655,-0.00573864,0.0143277,-0.008578,-0.262415,0.0133628,0.0142843,1217,414,2.45999,14.2436
0,610,2.48547,-14.2978,0.0111074,-0.00503327,-0.00569989,0.0129173,-0.00684317,-0.307463,0.011587,0.0112121,1224,414,2.48551,14.2978
7,610,2.49585,-14.3347,0.00951259,-0.00242567,-0.00526583,0.0115033,-0.0044164,-0.36144,0.00948998,0.0108578,1231,414,2.49588,14.3347
14,610,2.51978,-14.3559,0.00791446,-0.000565019,-0.00450174,0.00985866,-0.00250921,-0.40768,0.00754915,0.012556,1238,414,2.51973,14.3559
21,610,2.55359,-14.3768,0.00633363,0.00111461,-0.00356525,0.00814232,-0.000694082,-0.469481,0.00567374,0.0116477,1245,414,2.55363,14.3768
28,610,2.58838,-14.413,0.00460252,0.00231809,-0.00229571,0.00602447,0.000896145,-0.554558,0.00375343,0.0116746,1252,414,2.58836,14.4129
35,610,2.62549,-14.426,0.00279872,0.00332249,-0.000994612,0.00408912,0.00203209,-0.914129,0.00236087,0.0155871,1259,414,2.62545,14.426
42,610,2.62866,-14.4059,0.00145016,0.00310269,0.00042636,0.00320621,0.00134665,1.33261,0.00185899,0.0150392,1266,414,2.62868,14.4059
49,610,2.66064,-14.4153,0.000634192,0.00190093,0.00140645,0.00281004,-0.00027492,0.996963,0.0019714,0.0138286,1273,414,2.66064,14.4153
56,610,2.6687,-14.4191,0.000331202,0.000583613,0.00230359,0.00276445,-0.00184963,0.812764,0.00268134,0.0122241,1280,414,2.66874,14.4191
63,610,2.64209,-14.3889,0.000538333,-0.00158323,0.00306348,0.00271949,-0.00376439,0.618726,0.00375964,0.0154959,1287,414,2.6421,14.3889
70,610,2.67871,-14.355,0.00113343,-0.0043114,0.00347674,0.00282681,-0.00600478,0.453242,0.0052078,0.0228874,1294,414,2.67871,14.355
77,610,2.72278,-14.3388,0.00214129,-0.00714886,0.00362046,0.00338556,-0.00839313,0.331032,0.00700229,0.0297431,1301,414,2.72283,14.3388
84,610,2.69336,-14.3156,0.00273943,-0.00993774,0.00329644,0.00354536,-0.0107437,0.239783,0.00859164,0.0296446,1308,414,2.69331,14.3156
91,610,2.73792,-14.2958,0.00288398,-0.0127986,0.00314243,0.00349022,-0.0134048,0.190578,0.010299,0.0257193,1315,414,2.73793,14.2958
98,610,2.81311,-14.3011,0.00332118,-0.0148589,0.00238064,0.00362775,-0.0151654,0.128071,0.0115117,0.024025,1322,414,2.81305,14.3011
105,610,2.81396,-14.2849,0.00418299,-0.0169345,0.00177513,0.00433117,-0.0170827,0.083281,0.0130736,0.0188885,1329,414,2.81397,14.2849
112,610,2.81323,-14.2368,0.00397128,-0.0184046,0.00123375,0.0040391,-0.0184724,0.0549159,0.0138589,0.0122037,1336,414,2.8132,14.2369
119,610,2.81055,-14.1769,0.00294402,-0.0186802,0.000869831,0.00297895,-0.0187151,0.0401385,0.0135791,0.0168397,1343,414,2.81058,14.1769
126,610,2.80322,-14.1065,0.00177584,-0.018586,0.000576466,0.00179215,-0.0186023,0.0282809,0.01304,0.0244109,1350,414,2.80317,14.1065
133,610,2.84998,-14.0112,0.000955162,-0.0182229,0.000242785,0.000958235,-0.0182259,0.0126568,0.0124823,0.0191652,1357,414,2.84995,14.0112
140,610,2.89453,-13.9848,0.000568023,-0.017802,5.31556e-05,0.000568177,-0.0178022,0.00289357,0.012062,0.013746,1364,414,2.89459,13.9848
147,610,2.87183,-13.9217,0.00026347,-0.0168355,-0.000151663,0.000264814,-0.0168368,-0.00886878,0.0113138,0.0146663,1371,414,2.87187,13.9217
154,610,2.85571,-13.8438,0.000180914,-0.0156092,-0.000152253,0.000182382,-0.0156107,-0.00964108,0.0104685,0.0203391,1378,414,2.85572,13.8438
161,610,2.90063,-13.7811,0.000232119,-0.0145631,-0.000339631,0.000239911,-0.0145709,-0.0229393,0.0097949,0.0264426,1385,414,2.90059,13.7811
168,610,2.94946,-13.725,0.000367968,-0.0134244,-0.000606615,0.000394596,-0.013451,-0.0438691,0.00910171,0.0262103,1392,414,2.94945,13.725
175,610,2.97729,-13.6312,0.000593009,-0.0119887,-0.000839113,0.000648726,-0.0120444,-0.0663017,0.00825436,0.0211993,1399,414,2.97733,13.6312
182,610,2.99524,-13.5174,0.000608908,-0.0104118,-0.00114769,0.000727159,-0.01053,-0.102672,0.00727452,0.0150364,1406,414,2.9953,13.5174
189,610,2.96765,-13.4154,0.000946867,-0.0079293,-0.00142141,0.00116893,-0.00815137,-0.154977,0.00586286,0.0135903,1413,414,2.96759,13.4154
196,610,2.95264,-13.3175,0.00142121,-0.00527853,-0.001538,0.00175741,-0.00561472,-0.215207,0.00444627,0.0135236,1420,414,2.95268,13.3175
203,610,2.95276,-13.2058,0.0015751,-0.00297007,-0.00145573,0.00200136,-0.00339633,-0.284856,0.00315086,0.0133637,1427,414,2.95282,13.2058
210,610,2.97803,-13.1139,0.00123601,-0.00110979,-0.00123002,0.00176272,-0.00163649,-0.404583,0.00196299,0.0107979,1434,414,2.97804,13.1139
217,610,2.99316,-12.9945,0.000602603,-0.00066852,-0.000989943,0.00114345,-0.00120936,-0.500026,0.00135857,0.0168573,1441,414,2.99322,12.9945
224,610,2.99731,-12.8749,0.000478376,-0.000140499,-0.000710513,0.00094391,-0.000606032,-0.580027,0.000901919,0.019133,1448,414,2.99737,12.8749
231,610,2.98901,-12.7715,0.000437988,0.00038264,-0.000429616,0.000840821,-2.0192e-05,-0.753235,0.000567398,0.0160166,1455,414,2.98903,12.7714
238,610,2.99634,-12.6356,0.00050516,0.000938297,-0.00016926,0.000996594,0.000446864,-1.2391,0.000576405,0.0116218,1462,414,2.99634,12.6356
245,610,3.0166,-12.4948,0.000547221,0.00145258,-1.69179e-05,0.00145289,0.000546905,-1.55212,0.000847325,0.012074,1469,414,3.01658,12.4948
252,610,3.0155,-12.3579,0.000562143,0.00194064,0.000105116,0.00194861,0.000554174,1.49512,0.00115937,0.013634,1476,414,3.01554,12.358
259,610,3.02209,-12.2102,0.000506772,0.00228834,0.000240376,0.00232021,0.000474909,1.43901,0.00141531,0.0113942,1483,414,3.02213,12.2102
266,610,3.0387,-12.0583,0.000403116,0.00261027,0.000384158,0.00267522,0.000338164,1.4033,0.00168213,0.0114394,1490,414,3.03864,12.0583
273,610,3.0199,-11.9175,0.000325105,0.00293931,0.000586856,0.00306501,0.000199407,1.3598,0.00198022,0.00974587,1497,414,3.01994,11.9175
280,610,2.99707,-11.7535,0.000348125,0.00317152,0.00087111,0.00341865,0.000100991,1.29436,0.00224619,0.00942514,1504,414,2.99713,11.7535
287,610,2.97668,-11.5828,0.00033355,0.00327813,0.00117939,0.00369227,-8.05852e-05,1.2331,0.00248881,0.0124055,1511,414,2.97663,11.5828
294,610,2.99304,-11.4282,0.000300757,0.00337988,0.00151798,0.00400238,-0.000321745,1.18163,0.00278171,0.0105353,1518,414,2.99301,11.4282
301,610,3.00427,-11.282,0.000292101,0.00340988,0.00189925,0.00430808,-0.000606099,1.12904,0.00309394,0.00958247,1525,414,3.0043,11.282
308,610,3.01001,-11.1212,0.000366483,0.00356985,0.00236743,0.00482651,-0.000890177,1.0828,0.00355178,0.0115207,1532,414,3.00996,11.1212
315,610,2.99207,-10.9591,0.000439507,0.00362024,0.00280907,0.0052579,-0.00119815,1.04298,0.00396545,0.0127685,1539,414,2.99206,10.9591
322,610,2.96057,-10.7825,0.000537292,0.00372203,0.00331318,0.00580564,-0.00154631,1.00941,0.0044758,0.012262,1546,414,2.96059,10.7825
329,610,2.94873,-10.5917,0.000619564,0.0039176,0.00374093,0.00635683,-0.00181967,0.992989,0.00495705,0.0110435,1553,414,2.94873,10.5917
336,610,2.97156,-10.3571,0.00048434,0.00372347,0.00371321,0.00615494,-0.00194713,0.991042,0.00488349,0.0104224,1560,414,2.97151,10.3571
343,610,2.97461,-10.1638,0.000422977,0.00358867,0.00372161,0.00605005,-0.00203841,0.986465,0.00485755,0.0238371,1567,414,2.97463,10.1638
350,610,2.95227,-10.0772,0.000449547,0.00391571,0.00384444,0.00639965,-0.00203439,0.997159,0.00508216,0.0498439,1574,414,2.95225,10.0772
357,610,3.00024,-9.62616,0,0,0,0,0,0,0,-1,1581,414,3.00029,9.62615
364,610,3.0802,-9.47272,0,0,0,0,0,0,0,-1,1588,414,3.08026,9.47273
371,610,3.03638,-9.15613,0,0,0,0,0,0,0,-1,1595,414,3.03637,9.15613
378,610,3.02905,-9.01651,0,0,0,0,0,0,0,-1,1602,414,3.02903,9.0165
385,610,2.63782,-9.06891,0,0,0,0,0,0,0,-1,1609,414,2.63786,9.06892
392,610,2.54626,0.0437622,0,0,0,0,0,0,0,-1,1616,414,2.54632,-0.0437683
399,610,3.03833,-2.82547,0,0,0,0,0,0,0,-1,1623,414,3.03827,2.82546
406,610,2.91687,-2.9166,0,0,0,0,0,0,0,-1,1630,414,2.91688,2.91659
413,610,3.01929,-3.20306,0,0,0,0,0,0,0,-1,1637,414,3.01929,3.20306
420,610,4.78149,-3.64041,0,0,0,0,0,0,0,-1,1644,414,4.78152,3.64042
427,610,5.20764,-4.67545,0,0,0,0,0,0,0,-1,1651,414,5.20759,4.67545
434,610,5.39233,-5.45441,0,0,0,0,0,0,0,-1,1658,414,5.39228,5.4544
441,610,0,0,0,0,0,0,0,0,0,-1,1665,414,0,0
448,610,0,0,0,0,0,0,0,0,0,-1,1672,414,0,0
455,610,0,0,0,0,0,0,0,0,0,-1,1679,414,0,0
462,610,0,0,0,0,0,0,0,0,0,-1,1686,414,0,0
469,610,0,0,0,0,0,0,0,0,0,-1,1693,414,0,0
476,610,0,0,0,0,0,0,0,0,0,-1,1700,414,0,0
483,610,0,0,0,0,0,0,0,0,0,-1,1707,414,0,0
490,610,0,0,0,0,0,0,0,0,0,-1,1714,414,0,0
497,610,0,0,0,0,0,0,0,0,0,-1,1721,414,0,0
504,610,0,0,0,0,0,0,0,0,0,-1,1728,414,0,0
511,610,0,0,0,0,0,0,0,0,0,-1,1735,414,0,0
518,610,0,0,0,0,0,0,0,0,0,-1,1742,414,0,0
525,610,0,0,0,0,0,0,0,0,0,-1,1749,414,0,0
532,610,0,0,0,0,0,0,0,0,0,-1,1756,414,0,0
539,610,0,0,0,0,0,0,0,0,0,-1,1763,414,0,0
546,610,0,0,0,0,0,0,0,0,0,-1,1770,414,0,0
553,610,0,0,0,0,0,0,0,0,0,-1,1777,414,0,0
560,610,0,0,0,0,0,0,0,0,0,-1,1784,414,0,0
567,610,0,0,0,0,0,0,0,0,0,-1,1791,414,0,0
574,610,0,0,0,0,0,0,0,0,0,-1,1798,414,0,0
581,610,0,0,0,0,0,0,0,0,0,-1,1805,414,0,0
588,610,0,0,0,0,0,0,0,0,0,-1,1812,414,0,0
595,610,0,0,0,0,0,0,0,0,0,-1,1819,414,0,0
602,610,0,0,0,0,0,0,0,0,0,-1,1826,414,0,0
609,610,0,0,0,0,0,0,0,0,0,-1,1833,414,0,0
616,610,0,0,0,0,0,0,0,0,0,-1,1840,414,0,0
623,610,0,0,0,0,0,0,0,0,0,-1,1847,414,0,0
630,610,0,0,0,0,0,0,0,0,0,-1,1854,414,0,0
637,610,0,0,0,0,0,0,0,0,0,-1,1861,414,0,0
644,610,0,0,0,0,0,0,0,0,0,-1,1868,414,0,0
651,610,0,0,0,0,0,0,0,0,0,-1,1875,414,0,0
658,610,0,0,0,0,0,0,0,0,0,-1,1882,414,0,0
665,610,0,0,0,0,0,0,0,0,0,-1,1889,414,0,0
672,610,0,0,0,0,0,0,0,0,0,-1,1896,414,0,0
679,610,0,0,0,0,0,0,0,0,0,-1,1903,414,0,0
686,610,0,0,0,0,0,0,0,0,0,-1,1910,414,0,0
693,610,0,0,0,0,0,0,0,0,0,-1,1917,414,0,0
700,610,0,0,0,0,0,0,0,0,0,-1,1924,414,0,0
707,610,0,0,0,0,0,0,0,0,0,-1,1931,414,0,0
714,610,0,0,0,0,0,0,0,0,0,-1,1938,414,0,0
721,610,0,0,0,0,0,0,0,0,0,-1,1945,414,0,0
728,610,0,0,0,0,0,0,0,0,0,-1,1952,414,0,0
735,610,0,0,0,0,0,0,0,0,0,-1,1959,414,0,0
742,610,0,0,0,0,0,0,0,0,0,-1,1966,414,0,0
749,610,0,0,0,0,0,0,0,0,0,-1,1973,414,0,0
756,610,0,0,0,0,0,0,0,0,0,-1,1980,414,0,0
763,610,0,0,0,0,0,0,0,0,0,-1,1987,414,0,0
770,610,0,0,0,0,0,0,0,0,0,-1,1994,414,0,0
777,610,0,0,0,0,0,0,0,0,0,-1,2001,414,0,0
784,610,0,0,0,0,0,0,0,0,0,-1,2008,414,0,0
791,610,0,0,0,0,0,0,0,0,0,-1,2015,414,0,0
798,610,0,0,0,0,0,0,0,0,0,-1,2022,414,0,0
805,610,0,0,0,0,0,0,0,0,0,-1,2029,414,0,0
812,610,0,0,0,0,0,0,0,0,0,-1,2036,414,0,0
-700,603,0,0,0,0,0,0,0,0,0,-1,524,421,0,0
-693,603,0,0,0,0,0,0,0,0,0,-1,531,421,0,0
-686,603,0,0,0,0,0,0,0,0,0,-1,538,421,0,0
-679,603,0,0,0,0,0,0,0,0,0,-1,545,421,0,0
-672,603,0,0,0,0,0,0,0,0,0,-1,552,421,0,0
-665,603,0,0,0,0,0,0,0,0,0,-1,559,421,0,0
-658,603,0,0,0,0,0,0,0,0,0,-1,566,421,0,0
-651,603,0,0,0,0,0,0,0,0,0,-1,573,421,0,0
-644,603,0,0,0,0,0,0,0,0,0,-1,580,421,0,0
-637,603,0,0,0,0,0,0,0,0,0,-1,587,421,0,0
-630,603,0,0,0,0,0,0,0,0,0,-1,594,421,0,0
-623,603,0,0,0,0,0,0,0,0,0,-1,601,421,0,0
-616,603,0,0,0,0,0,0,0,0,0,-1,608,421,0,0
-609,603,0,0,0,0,0,0,0,0,0,-1,615,421,0,0
-602,603,0,0,0,0,0,0,0,0,0,-1,622,421,0,0
-595,603,0,0,0,0,0,0,0,0,0,-1,629,421,0,0
-588,603,0,0,0,0,0,0,0,0,0,-1,636,421,0,0
-581,603,0,0,0,0,0,0,0,0,0,-1,643,421,0,0
-574,603,0,0,0,0,0,0,0,0,0,-1,650,421,0,0
-567,603,0,0,0,0,0,0,0,0,0,-1,657,421,0,0
-560,603,0,0,0,0,0,0,0,0,0,-1,664,421,0,0
-553,603,0,0,0,0,0,0,0,0,0,-1,671,421,0,0
-546,603,0,0,0,0,0,0,0,0,0,-1,678,421,0,0
-539,603,0,0,0,0,0,0,0,0,0,-1,685,421,0,0
-532,603,0,0,0,0,0,0,0,0,0,-1,692,421,0,0
-525,603,0,0,0,0,0,0,0,0,0,-1,699,421,0,0
-518,603,0,0,0,0,0,0,0,0,0,-1,706,421,0,0
-511,603,0,0,0,0,0,0,0,0,0,-1,713,421,0,0
-504,603,0,0,0,0,0,0,0,0,0,-1,720,421,0,0
-497,603,0,0,0,0,0,0,0,0,0,-1,727,421,0,0
-490,603,0,0,0,0,0,0,0,0,0,-1,734,421,0,0
-483,603,0,0,0,0,0,0,0,0,0,-1,741,421,0,0
-476,603,0,0,0,0,0,0,0,0,0,-1,748,421,0,0
-469,603,0,0,0,0,0,0,0,0,0,-1,755,421,0,0
-462,603,0,0,0,0,0,0,0,0,0,-1,762,421,0,0
-455,603,0,0,0,0,0,0,0,0,0,-1,769,421,0,0
-448,603,0,0,0,0,0,0,0,0,0,-1,776,421,0,0
-441,603,0,0,0,0,0,0,0,0,0,-1,783,421,0,0
-434,603,0,0,0,0,0,0,0,0,0,-1,790,421,0,0
-427,603,0,0,0,0,0,0,0,0,0,-1,797,421,0,0
-420,603,0,0,0,0,0,0,0,0,0,-1,804,421,0,0
-413,603,0,0,0,0,0,0,0,0,0,-1,811,421,0,0
-406,603,0,0,0,0,0,0,0,0,0,-1,818,421,0,0
-399,603,0,0,0,0,0,0,0,0,0,-1,825,421,0,0
-392,603,0,0,0,0,0,0,0,0,0,-1,832,421,0,0
-385,603,0,0,0,0,0,0,0,0,0,-1,839,421,0,0
-378,603,0,0,0,0,0,0,0,0,0,-1,846,421,0,0
-371,603,0,0,0,0,0,0,0,0,0,-1,853,421,0,0
-364,603,0,0,0,0,0,0,0,0,0,-1,860,421,0,0
-357,603,0,0,0,0,0,0,0,0,0,-1,867,421,0,0
-350,603,0,0,0,0,0,0,0,0,0,-1,874,421,0,0
-343,603,0,0,0,0,0,0,0,0,0,-1,881,421,0,0
-336,603,0,0,0,0,0,0,0,0,0,-1,888,421,0,0
-329,603,4.6095,-8.85309,0,0,0,0,0,0,0,-1,895,421,4.60952,8.8531
-322,603,4.4209,-8.48056,0,0,0,0,0,0,0,-1,902,421,4.42093,8.48056
-315,603,3.94946,-8.08862,0,0,0,0,0,0,0,-1,909,421,3.94948,8.08863
-308,603,3.67664,-7.59,0,0,0,0,0,0,0,-1,916,421,3.67665,7.58999
-301,603,2.20026,-9.97235,0,0,0,0,0,0,0,-1,923,421,2.20025,9.97234
-294,603,1.91156,-9.64136,0,0,0,0,0,0,0,-1,930,421,1.91156,9.64137
-287,603,1.93921,-9.72574,0,0,0,0,0,0,0,-1,937,421,1.93921,9.72574
-280,603,2.37079,-10.1415,0,0,0,0,0,0,0,-1,944,421,2.37081,10.1416
-273,603,2.45984,-9.61038,0,0,0,0,0,0,0,-1,951,421,2.45982,9.61037
-266,603,2.20905,-9.59711,0,0,0,0,0,0,0,-1,958,421,2.20904,9.5971
-259,603,2.18402,-9.90039,-0.00274678,0.00510693,-0.00416495,0.00690432,-0.00454417,-1.16339,0.00665645,0.0435777,965,421,2.18402,9.90038
-252,603,2.1936,-10.2326,-0.0020551,0.00683371,-0.0042414,0.00853278,-0.00375417,-1.18978,0.00727051,0.0402038,972,421,2.19363,10.2326
-245,603,2.26929,-10.4523,-0.00111212,0.0082639,-0.00458993,0.0101368,-0.00298497,-1.18338,0.00794206,0.0288183,979,421,2.26927,10.4523
-238,603,2.31244,-10.5997,-0.000777239,0.00903232,-0.00463075,0.010873,-0.00261788,-1.19246,0.00826071,0.0170482,986,421,2.31244,10.5997
-231,603,2.28271,-10.801,-0.00107617,0.00941105,-0.00455,0.0111099,-0.00277504,-1.21345,0.00848427,0.0122611,993,421,2.28274,10.801
-224,603,2.24274,-11.0007,-0.00125651,0.00907056,-0.00439834,0.0106899,-0.00287586,-1.21803,0.00825395,0.0124784,1000,421,2.24275,11.0007
-217,603,2.24774,-11.1504,-0.00114893,0.00752666,-0.00398163,0.00907698,-0.00269925,-1.19949,0.00712362,0.0112174,1007,421,2.24776,11.1504
-210,603,2.24579,-11.3179,-0.000867959,0.00607436,-0.00345908,0.00750363,-0.00229723,-1.17897,0.00591868,0.0101581,1014,421,2.24577,11.3179
-203,603,2.24103,-11.4814,-0.000586232,0.00475814,-0.00276694,0.00593258,-0.00176068,-1.16939,0.00465431,0.0160237,1021,421,2.24105,11.4813
-196,603,2.26367,-11.6756,-0.000382475,0.00367,-0.00215337,0.00460056,-0.00131303,-1.16289,0.00358576,0.0163356,1028,421,2.26368,11.6756
-189,603,2.24573,-11.8086,-0.000162034,0.00272553,-0.00173321,0.00353752,-0.000974024,-1.13267,0.00274132,0.0128976,1035,421,2.24576,11.8086
-182,603,2.21741,-11.9633,0.00013757,0.00187754,-0.00135815,0.00262045,-0.000605343,-1.07026,0.00197984,0.0101978,1042,421,2.21744,11.9633
-175,603,2.20764,-12.1091,0.000489145,0.000853163,-0.000908122,0.00159734,-0.000255028,-0.884299,0.00115929,0.0105649,1049,421,2.20766,12.1091
-168,603,2.20142,-12.2459,0.000674237,2.82059e-05,-0.000520942,0.000964181,-0.000261738,-0.507879,0.00074551,0.0125424,1056,421,2.20139,12.2459
-161,603,2.1842,-12.407,0.000818258,-0.000399282,-0.000364438,0.000919006,-0.00050003,-0.269712,0.000831099,0.0126013,1063,421,2.18419,12.407
-154,603,2.17004,-12.5545,0.00105687,-0.000617149,-0.000296196,0.00110773,-0.000668012,-0.170061,0.00103565,0.0125681,1070,421,2.17001,12.5545
-147,603,2.17236,-12.6649,0.00125098,-0.000823651,-0.000200357,0.00127015,-0.000842823,-0.0953998,0.00122822,0.013667,1077,421,2.1724,12.6649
-140,603,2.19861,-12.7779,0.00142055,-0.00098808,-0.000137971,0.00142843,-0.000995957,-0.0570332,0.00140712,0.011424,1084,421,2.19855,12.7779
-133,603,2.19873,-12.8987,0.00157454,-0.0010179,-0.000197578,0.00158951,-0.00103287,-0.0756311,0.00152536,0.0117719,1091,421,2.19876,12.8986
-126,603,2.19604,-13.0008,0.00170188,-0.000848306,-0.000277387,0.00173171,-0.000878129,-0.107102,0.00153342,0.0102793,1098,421,2.1961,13.0008
-119,603,2.19763,-13.1052,0.00182837,-0.000518178,-0.000409084,0.00189765,-0.00058745,-0.167744,0.00149977,0.0105698,1105,421,2.1976,13.1052
-112,603,2.22693,-13.2182,0.00199876,-0.000136735,-0.000570372,0.00214155,-0.000279529,-0.24531,0.00152941,0.0153196,1112,421,2.22689,13.2182
-105,603,2.2428,-13.3484,0.00215727,0.000278155,-0.000734358,0.00241021,2.52149e-05,-0.33171,0.00159847,0.0143023,1119,421,2.24285,13.3484
-98,603,2.23071,-13.4293,0.00226458,0.000802868,-0.000889137,0.00268468,0.000382761,-0.441397,0.00167683,0.0122541,1126,421,2.23071,13.4293
-91,603,2.229,-13.5099,0.00236972,0.00135647,-0.00098795,0.00297337,0.000752815,-0.548479,0.00178503,0.00924414,1133,421,2.22906,13.5099
-84,603,2.24719,-13.6123,0.00253542,0.00159751,-0.000949105,0.00312511,0.00100783,-0.555938,0.00184179,0.00935404,1140,421,2.2472,13.6123
-77,603,2.27319,-13.7256,0.00271008,0.00158338,-0.000804983,0.00312926,0.00116421,-0.480093,0.00182629,0.0114318,1147,421,2.27322,13.7256
-70,603,2.31616,-13.879,0.00305547,0.00069829,-0.000722375,0.00325923,0.000494527,-0.274931,0.00202817,0.028458,1154,421,2.31619,13.879
-63,603,2.35437,-14.0447,0,0,0,0,0,0,0,-1,1161,421,2.35435,14.0447
-56,603,2.28223,-13.9177,0,0,0,0,0,0,0,-1,1168,421,2.28221,13.9177
-49,603,2.33838,-13.9805,0,0,0,0,0,0,0,-1,1175,421,2.33843,13.9805
-42,603,2.32349,-14.0769,0,0,0,0,0,0,0,-1,1182,421,2.32343,14.0769
-35,603,2.27063,-14.0845,0.0136169,-0.0119127,-0.00516829,0.0146235,-0.0129193,-0.192356,0.015912,0.040893,1189,421,2.27063,14.0845
-28,603,2.31653,-14.1209,0.0159441,-0.0123097,-0.00680848,0.0174992,-0.0138648,-0.224553,0.0181485,0.0241571,1196,421,2.31653,14.1209
-21,603,2.36157,-14.1618,0.0180536,-0.0128374,-0.00787702,0.0199462,-0.0147301,-0.235803,0.0200957,0.0201884,1203,421,2.36155,14.1618
-14,603,2.38416,-14.1908,0.0196156,-0.0113673,-0.00931288,0.0221994,-0.0139511,-0.270637,0.0210518,0.0205302,1210,421,2.38418,14.1908
-7,603,2.45544,-14.2429,0.0193503,-0.00961716,-0.00952648,0.0222025,-0.0124693,-0.290897,0.020279,0.0230137,1217,421,2.45545,14.2429
0,603,2.46655,-14.3262,0.0171068,-0.00628789,-0.00966795,0.020585,-0.0097661,-0.345349,0.0178904,0.0274519,1224,421,2.46653,14.3262
7,603,2.39001,-14.2975,0.0149733,-0.00135662,-0.00986064,0.0196106,-0.00599396,-0.439597,0.0154639,0.0312694,1231,421,2.39003,14.2974
14,603,2.53748,-14.27,0.0127454,0.0018027,-0.00913597,0.0179231,-0.00337498,-0.515601,0.0132181,0.0273423,1238,421,2.53744,14.27
21,603,2.62158,-14.3151,0.0104631,0.0046171,-0.00819449,0.0162403,-0.00116011,-0.614082,0.0112335,0.0209282,1245,421,2.62157,14.3151
28,603,2.69849,-14.3244,0.00796766,0.0067503,-0.00674447,0.0141309,0.000587102,-0.740396,0.0092311,0.0235324,1252,421,2.69848,14.3244
35,603,2.67786,-14.2988,0.0054255,0.00844494,-0.00518444,0.012335,0.00153543,-0.927081,0.00776231,0.0317775,1259,421,2.67792,14.2988
42,603,2.62585,-14.381,0.00341752,0.00848429,-0.00339085,0.0101836,0.00171819,-1.10623,0.00629501,0.0277825,1266,421,2.62584,14.381
49,603,2.64783,-14.4111,0.00206915,0.00705625,-0.00203713,0.00778259,0.00134281,-1.2283,0.00480376,0.015197,1273,421,2.64783,14.4111
56,603,2.62573,-14.3732,0.00134263,0.0052282,-0.000657754,0.00533652,0.0012343,-1.40757,0.00322594,0.0289964,1280,421,2.62578,14.3732
63,603,2.5531,-14.2683,0.00124667,0.00188166,0.000734871,0.00236469,0.000763646,0.989308,0.0013935,0.0398591,1287,421,2.55312,14.2683
70,603,2.48096,-14.2607,0.00170059,-0.00240191,0.00175729,0.0023504,-0.00305171,0.354183,0.00312766,0.0450469,1294,421,2.48093,14.2607
77,603,2.57239,-14.3572,0.0027598,-0.00673821,0.00256891,0.00341009,-0.0073885,0.247929,0.00637404,0.0490702,1301,421,2.57243,14.3572
84,603,2.53845,-14.4166,0.00328699,-0.0110843,0.00300322,0.00388933,-0.0116867,0.19794,0.00936088,0.0473545,1308,421,2.53848,14.4166
91,603,2.59863,-14.0392,0.00333336,-0.0154948,0.00353808,0.00397627,-0.0161377,0.179748,0.0123,0.046771,1315,421,2.59857,14.0392
98,603,2.85083,-14.1631,0.00386902,-0.0188413,0.00320581,0.00431288,-0.0192852,0.13758,0.0145097,0.0485725,1322,421,2.85087,14.1632
105,603,2.91272,-14.2464,0.00491766,-0.0222216,0.00306225,0.00525889,-0.0225628,0.110976,0.0170671,0.0401016,1329,421,2.91271,14.2464
112,603,2.9491,-14.2057,0.00468639,-0.0252778,0.00321152,0.00502673,-0.0256181,0.105581,0.0189775,0.0296698,1336,421,2.94908,14.2057
119,603,2.96497,-14.1634,0.00354601,-0.0258952,0.00297915,0.00384445,-0.0261937,0.0998412,0.0188749,0.0300619,1343,421,2.96497,14.1634
126,603,3.01392,-14.1123,0.00228289,-0.0260752,0.00281123,0.00255889,-0.0263512,0.0978642,0.0184796,0.0375251,1350,421,3.01393,14.1123
133,603,3.04785,-14.026,0.00142569,-0.0260088,0.00251992,0.00165522,-0.0262384,0.0908394,0.0180693,0.0346872,1357,421,3.04784,14.026
140,603,3.01172,-13.9286,0.00102368,-0.0258307,0.00230812,0.00122062,-0.0260276,0.0851175,0.0177726,0.0216503,1364,421,3.01175,13.9286
147,603,2.97607,-13.8909,0.000718795,-0.0250604,0.00203211,0.000877998,-0.0252196,0.0781841,0.0171132,0.0167064,1371,421,2.97606,13.8909
154,603,2.91138,-13.8157,0.000654322,-0.0239686,0.00196031,0.000809412,-0.0241236,0.0789506,0.0163589,0.0255948,1378,421,2.91141,13.8157
161,603,2.91345,-13.7439,0.000699622,-0.0228342,0.00161084,0.000809367,-0.022944,0.0680248,0.0155728,0.0304742,1385,421,2.91344,13.7439
168,603,3.01855,-13.6666,0.000852854,-0.0212569,0.00107791,0.000905282,-0.0213094,0.0485991,0.0145174,0.0285387,1392,421,3.01859,13.6666
175,603,3.16711,-13.581,0.000977395,-0.01917,0.000502571,0.000989923,-0.0191825,0.024924,0.0131308,0.0305215,1399,421,3.16705,13.5809
182,603,3.25818,-13.5071,0.000694401,-0.0171639,-0.000388611,0.000702854,-0.0171724,-0.021747,0.0116896,0.0364663,1406,421,3.25822,13.5071
189,603,3.19385,-13.369,0.00095731,-0.0133009,-0.00142678,0.00109868,-0.0134423,-0.0987624,0.00934931,0.0319573,1413,421,3.19385,13.369
196,603,3.09937,-13.243,0.00169532,-0.00893317,-0.00196801,0.00204801,-0.00928587,-0.177334,0.00697422,0.0232003,1420,421,3.09935,13.243
203,603,3.07849,-13.1917,0.00224811,-0.00493814,-0.00215582,0.00284522,-0.00553526,-0.270204,0.00492086,0.0127954,1427,421,3.07849,13.1917
210,603,3.09863,-13.1324,0.00190994,-0.00173807,-0.00202299,0.0028098,-0.00263794,-0.418539,0.00314578,0.0102454,1434,421,3.09869,13.1324
217,603,3.09924,-13.007,0.00101492,-0.001191,-0.00170704,0.00194433,-0.00212041,-0.498576,0.00234751,0.0127979,1441,421,3.09928,13.007
224,603,3.10815,-12.8755,0.000893261,-0.000491698,-0.00128719,0.00166242,-0.00126085,-0.538615,0.00169305,0.0156101,1448,421,3.10816,12.8755
231,603,3.09949,-12.7443,0.000830472,0.0001376,-0.00091771,0.00146496,-0.000496887,-0.604918,0.00117774,0.0143903,1455,421,3.09946,12.7443
238,603,3.12659,-12.6315,0.000915114,0.000740617,-0.000583559,0.00141791,0.000237821,-0.711192,0.000876817,0.0111337,1462,421,3.12656,12.6315
245,603,3.1438,-12.512,0.00100553,0.00134116,-0.000331626,0.00154501,0.000801678,-1.01963,0.000892225,0.0108599,1469,421,3.14378,12.512
252,603,3.16406,-12.3737,0.00100204,0.00183281,-0.00013582,0.00185445,0.000980397,-1.41279,0.00107126,0.00982532,1476,421,3.16401,12.3737
259,603,3.15857,-12.2219,0.000911956,0.00213172,3.92334e-05,0.00213298,0.000910696,1.53868,0.00123585,0.00966903,1483,421,3.15861,12.2219
266,603,3.14526,-12.0713,0.000795506,0.00232644,0.000179883,0.00234729,0.000774654,1.45539,0.00138106,0.01082,1490,421,3.14526,12.0713
273,603,3.15283,-11.9178,0.000685251,0.00255621,0.000344188,0.00261752,0.000623942,1.39452,0.00157868,0.0101265,1497,421,3.15277,11.9178
280,603,3.16711,-11.7455,0.000633239,0.00272459,0.000566907,0.00286837,0.000489452,1.3224,0.00177178,0.0110284,1504,421,3.16709,11.7455
287,603,3.16663,-11.5772,0.00057076,0.00272123,0.000788663,0.00297946,0.000312534,1.25437,0.00189076,0.0107511,1511,421,3.16659,11.5772
294,603,3.15625,-11.4358,0.000485237,0.00266811,0.00102353,0.00307295,8.03993e-05,1.19415,0.00202237,0.0102224,1518,421,3.15621,11.4358
301,603,3.16663,-11.2974,0.000411428,0.00254225,0.00128116,0.00314311,-0.000189436,1.13225,0.00216132,0.0115364,1525,421,3.16665,11.2974
308,603,3.17871,-11.1368,0.000426492,0.00259662,0.00161594,0.003458,-0.000434883,1.08106,0.00246312,0.0157443,1532,421,3.17869,11.1368
315,603,3.1571,-10.9612,0.000456615,0.00263088,0.00194626,0.00377305,-0.000685552,1.0401,0.00277228,0.0146779,1539,421,3.15716,10.9612
322,603,3.146,-10.7811,0.000496226,0.00272263,0.00231391,0.00417719,-0.000958334,1.0096,0.00315316,0.0143853,1546,421,3.14602,10.7811
329,603,3.12646,-10.5857,0.000525852,0.00287564,0.00262918,0.0045805,-0.00117901,0.995521,0.00351324,0.0107089,1553,421,3.12641,10.5857
336,603,3.12427,-10.3928,0.000400363,0.00276123,0.00265244,0.00448405,-0.00132245,0.994758,0.00351413,0.00818426,1560,421,3.12423,10.3928
343,603,3.13354,-10.202,0.000299858,0.00269933,0.00271171,0.00446485,-0.00146566,0.993667,0.00356695,0.00976726,1567,421,3.13353,10.202
350,603,3.11633,-10.0062,0.00023953,0.00294944,0.00283072,0.00473278,-0.00154381,1.00861,0.00377648,0.0202049,1574,421,3.11631,10.0062
357,603,3.1272,-9.74963,-6.96903e-05,0.00303793,0.00282584,0.00470898,-0.00174074,1.03677,0.00385295,0.0262654,1581,421,3.12718,9.74963
364,603,3.1261,-9.53052,-0.000457083,0.00322083,0.00272912,0.00467275,-0.001909,1.08187,0.00391005,0.0252822,1588,421,3.12607,9.53052
371,603,3.12341,-9.2962,-0.000775619,0.00324305,0.00250441,0.00444455,-0.00197712,1.12347,0.00379769,0.0280267,1595,421,3.12336,9.29621
378,603,3.13721,-9.13562,-0.00126916,0.00327812,0.00211832,0.00411201,-0.00210304,1.19577,0.00365021,0.0380531,1602,421,3.13723,9.13562
385,603,3.03845,-9.07224,-0.00222875,0.00333378,0.00161321,0.00376777,-0.00266275,1.30799,0.00373089,0.0498353,1609,421,3.03851,9.07224
392,603,3.17566,-8.76718,0,0,0,0,0,0,0,-1,1616,421,3.1757,8.76718
399,603,2.38013,-5.37076,0,0,0,0,0,0,0,-1,1623,421,2.38016,5.37075
406,603,3.01917,-2.37219,0,0,0,0,0,0,0,-1,1630,421,3.01915,2.37219
413,603,2.38928,-2.41275,0,0,0,0,0,0,0,-1,1637,421,2.38926,2.41274
420,603,2.74866,-2.30066,0,0,0,0,0,0,0,-1,1644,421,2.74867,2.30065
427,603,7.11548,-3.35352,0,0,0,0,0,0,0,-1,1651,421,7.11549,3.35351
434,603,7.32153,-4.50525,0,0,0,0,0,0,0,-1,1658,421,7.32149,4.50525
441,603,3.18213,-0.250946,0,0,0,0,0,0,0,-1,1665,421,3.18212,0.250944
448,603,2.95667,-0.066925,0,0,0,0,0,0,0,-1,1672,421,2.95662,0.0669226
455,603,0,0,0,0,0,0,0,0,0,-1,1679,421,0,0
462,603,0,0,0,0,0,0,0,0,0,-1,1686,421,0,0
469,603,0,0,0,0,0,0,0,0,0,-1,1693,421,0,0
476,603,0,0,0,0,0,0,0,0,0,-1,1700,421,0,0
483,603,0,0,0,0,0,0,0,0,0,-1,1707,421,0,0
490,603,0,0,0,0,0,0,0,0,0,-1,1714,421,0,0
497,603,0,0,0,0,0,0,0,0,0,-1,1721,421,0,0
504,603,0,0,0,0,0,0,0,0,0,-1,1728,421,0,0
511,603,0,0,0,0,0,0,0,0,0,-1,1735,421,0,0
518,603,0,0,0,0,0,0,0,0,0,-1,1742,421,0,0
525,603,0,0,0,0,0,0,0,0,0,-1,1749,421,0,0
532,603,0,0,0,0,0,0,0,0,0,-1,1756,421,0,0
539,603,0,0,0,0,0,0,0,0,0,-1,1763,421,0,0
546,603,0,0,0,0,0,0,0,0,0,-1,1770,421,0,0
553,603,0,0,0,0,0,0,0,0,0,-1,1777,421,0,0
560,603,0,0,0,0,0,0,0,0,0,-1,1784,421,0,0
567,603,0,0,0,0,0,0,0,0,0,-1,1791,421,0,0
574,603,0,0,0,0,0,0,0,0,0,-1,1798,421,0,0
581,603,0,0,0,0,0,0,0,0,0,-1,1805,421,0,0
588,603,0,0,0,0,0,0,0,0,0,-1,1812,421,0,0
595,603,0,0,0,0,0,0,0,0,0,-1,1819,421,0,0
602,603,0,0,0,0,0,0,0,0,0,-1,1826,421,0,0
609,603,0,0,0,0,0,0,0,0,0,-1,1833,421,0,0
616,603,0,0,0,0,0,0,0,0,0,-1,1840,421,0,0
623,603,0,0,0,0,0,0,0,0,0,-1,1847,421,0,0
630,603,0,0,0,0,0,0,0,0,0,-1,1854,421,0,0
637,603,0,0,0,0,0,0,0,0,0,-1,1861,421,0,0
644,603,0,0,0,0,0,0,0,0,0,-1,1868,421,0,0
651,603,0,0,0,0,0,0,0,0,0,-1,1875,421,0,0
658,603,0,0,0,0,0,0,0,0,0,-1,1882,421,0,0
665,603,0,0,0,0,0,0,0,0,0,-1,1889,421,0,0
672,603,0,0,0,0,0,0,0,0,0,-1,1896,421,0,0
679,603,0,0,0,0,0,0,0,0,0,-1,1903,421,0,0
686,603,0,0,0,0,0,0,0,0,0,-1,1910,421,0,0
693,603,0,0,0,0,0,0,0,0,0,-1,1917,421,0,0
700,603,0,0,0,0,0,0,0,0,0,-1,1924,421,0,0
707,603,0,0,0,0,0,0,0,0,0,-1,1931,421,0,0
714,603,0,0,0,0,0,0,0,0,0,-1,1938,421,0,0
721,603,0,0,0,0,0,0,0,0,0,-1,1945,421,0,0
728,603,0,0,0,0,0,0,0,0,0,-1,1952,421,0,0
735,603,0,0,0,0,0,0,0,0,0,-1,1959,421,0,0
742,603,0,0,0,0,0,0,0,0,0,-1,1966,421,0,0
749,603,0,0,0,0,0,0,0,0,0,-1,1973,421,0,0
756,603,0,0,0,0,0,0,0,0,0,-1,1980,421,0,0
763,603,0,0,0,0,0,0,0,0,0,-1,1987,421,0,0
770,603,0,0,0,0,0,0,0,0,0,-1,1994,421,0,0
777,603,0,0,0,0,0,0,0,0,0,-1,2001,421,0,0
784,603,0,0,0,0,0,0,0,0,0,-1,2008,421,0,0
791,603,0,0,0,0,0,0,0,0,0,-1,2015,421,0,0
798,603,0,0,0,0,0,0,0,0,0,-1,2022,421,0,0
805,603,0,0,0,0,0,0,0,0,0,-1,2029,421,0,0
812,603,0,0,0,0,0,0,0,0,0,-1,2036,421,0,0
-700,596,0,0,0,0,0,0,0,0,0,-1,524,428,0,0
-693,596,0,0,0,0,0,0,0,0,0,-1,531,428,0,0
-686,596,0,0,0,0,0,0,0,0,0,-1,538,428,0,0
-679,596,0,0,0,0,0,0,0,0,0,-1,545,428,0,0
-672,596,0,0,0,0,0,0,0,0,0,-1,552,428,0,0
-665,596,0,0,0,0,0,0,0,0,0,-1,559,428,0,0
-658,596,0,0,0,0,0,0,0,0,0,-1,566,428,0,0
-651,596,0,0,0,0,0,0,0,0,0,-1,573,428,0,0
-644,596,0,0,0,0,0,0,0,0,0,-1,580,428,0,0
-637,596,0,0,0,0,0,0,0,0,0,-1,587,428,0,0
-630,596,0,0,0,0,0,0,0,0,0,-1,594,428,0,0
-623,596,0,0,0,0,0,0,0,0,0,-1,601,428,0,0
-616,596,0,0,0,0,0,0,0,0,0,-1,608,428,0,0
-609,596,0,0,0,0,0,0,0,0,0,-1,615,428,0,0
-602,596,0,0,0,0,0,0,0,0,0,-1,622,428,0,0
-595,596,0,0,0,0,0,0,0,0,0,-1,629,428,0,0
-588,596,0,0,0,0,0,0,0,0,0,-1,636,428,0,0
-581,596,0,0,0,0,0,0,0,0,0,-1,643,428,0,0
-574,596,0,0,0,0,0,0,0,0,0,-1,650,428,0,0
-567,596,0,0,0,0,0,0,0,0,0,-1,657,428,0,0
-560,596,0,0,0,0,0,0,0,0,0,-1,664,428,0,0
-553,596,0,0,0,0,0,0,0,0,0,-1,671,428,0,0
-546,596,0,0,0,0,0,0,0,0,0,-1,678,428,0,0
-539,596,0,0,0,0,0,0,0,0,0,-1,685,428,0,0
-532,596,0,0,0,0,0,0,0,0,0,-1,692,428,0,0
-525,596,0,0,0,0,0,0,0,0,0,-1,699,428,0,0
-518,596,0,0,0,0,0,0,0,0,0,-1,706,428,0,0
-511,596,0,0,0,0,0,0,0,0,0,-1,713,428,0,0
-504,596,0,0,0,0,0,0,0,0,0,-1,720,428,0,0
-497,596,0,0,0,0,0,0,0,0,0,-1,727,428,0,0
-490,596,0,0,0,0,0,0,0,0,0,-1,734,428,0,0
-483,596,0,0,0,0,0,0,0,0,0,-1,741,428,0,0
-476,596,0,0,0,0,0,0,0,0,0,-1,748,428,0,0
-469,596,0,0,0,0,0,0,0,0,0,-1,755,428,0,0
-462,596,0,0,0,0,0,0,0,0,0,-1,762,428,0,0
-455,596,0,0,0,0,0,0,0,0,0,-1,769,428,0,0
-448,596,0,0,0,0,0,0,0,0,0,-1,776,428,0,0
-441,596,0,0,0,0,0,0,0,0,0,-1,783,428,0,0
-434,596,0,0,0,0,0,0,0,0,0,-1,790,428,0,0
-427,596,0,0,0,0,0,0,0,0,0,-1,797,428,0,0
-420,596,0,0,0,0,0,0,0,0,0,-1,804,428,0,0
-413,596,0,0,0,0,0,0,0,0,0,-1,811,428,0,0
-406,596,0,0,0,0,0,0,0,0,0,-1,818,428,0,0
-399,596,0,0,0,0,0,0,0,0,0,-1,825,428,0,0
-392,596,0,0,0,0,0,0,0,0,0,-1,832,428,0,0
-385,596,0,0,0,0,0,0,0,0,0,-1,839,428,0,0
-378,596,0,0,0,0,0,0,0,0,0,-1,846,428,0,0
-371,596,0,0,0,0,0,0,0,0,0,-1,853,428,0,0
-364,596,0,0,0,0,0,0,0,0,0,-1,860,428,0,0
-357,596,0,0,0,0,0,0,0,0,0,-1,867,428,0,0
-350,596,0,0,0,0,0,0,0,0,0,-1,874,428,0,0
-343,596,0,0,0,0,0,0,0,0,0,-1,881,428,0,0
-336,596,1.89813,-9.66019,0,0,0,0,0,0,0,-1,888,428,1.89813,9.6602
-329,596,1.54865,-9.16202,0,0,0,0,0,0,0,-1,895,428,1.54866,9.16203
-322,596,2.35809,-9.06784,0,0,0,0,0,0,0,-1,902,428,2.35812,9.06783
-315,596,2.86914,-8.61859,0,0,0,0,0,0,0,-1,909,428,2.86912,8.6186
-308,596,2.68317,-10.0679,0,0,0,0,0,0,0,-1,916,428,2.68318,10.0679
-301,596,2.28235,-9.79004,-0.0181943,-0.0115918,-0.00159574,-0.0112263,-0.0185597,-1.34567,0.0107937,0.0471186,923,428,2.28237,9.79005
-294,596,1.87262,-9.54074,-0.0139258,-0.0103607,-0.00123099,-0.00997697,-0.0143095,-1.26861,0.00847315,0.044595,930,428,1.8726,9.54074
-287,596,1.86829,-9.64322,-0.0102237,-0.00858165,-0.00101461,-0.00809749,-0.0107079,-1.12557,0.00644709,0.0483818,937,428,1.86829,9.64323
-280,596,2.09344,-9.90869,-0.00760159,-0.00496529,-0.00143983,-0.00433136,-0.00823552,-1.15605,0.00475691,0.0498358,944,428,2.09343,9.90868
-273,596,2.26202,-9.64624,-0.00534468,-0.00147284,-0.00228282,-0.000415593,-0.00640193,-1.13708,0.00413639,0.0450338,951,428,2.26205,9.64623
-266,596,2.33337,-9.72617,-0.00348114,0.00107017,-0.0028026,0.00240467,-0.00481564,-1.1264,0.0042454,0.0371522,958,428,2.33336,9.72616
-259,596,2.14331,-10.0472,-0.00236219,0.00272848,-0.00287504,0.00402301,-0.00365672,-1.14772,0.00443557,0.0321855,965,428,2.14332,10.0472
-252,596,2.13159,-10.2668,-0.0016377,0.00427763,-0.00298272,0.00552049,-0.00288056,-1.17599,0.00492953,0.0155935,972,428,2.1316,10.2668
-245,596,2.12378,-10.4623,-0.000808191,0.00555914,-0.00331843,0.00697414,-0.00222319,-1.16774,0.0055412,0.0109094,979,428,2.12381,10.4623
-238,596,2.12067,-10.6361,-0.000464014,0.00630566,-0.00339745,0.00771664,-0.00187498,-1.17717,0.0058701,0.0104888,986,428,2.12068,10.6361
-231,596,2.09918,-10.8269,-0.000651904,0.00665018,-0.00334953,0.00795388,-0.0019556,-1.19962,0.00606055,0.0116645,993,428,2.0992,10.8269
-224,596,2.08612,-11.0154,-0.000807409,0.00646848,-0.00324691,0.00770671,-0.00204564,-1.20647,0.00593832,0.0122765,1000,428,2.08611,11.0153
-217,596,2.0932,-11.1701,-0.000734437,0.00537485,-0.00295634,0.00657118,-0.00193077,-1.18627,0.00514655,0.0135307,1007,428,2.09318,11.1701
-210,596,2.09564,-11.3264,-0.000496735,0.00427452,-0.00254491,0.00537713,-0.00159934,-1.16195,0.00422012,0.0113416,1014,428,2.09566,11.3264
-203,596,2.08374,-11.4827,-0.000219375,0.0032229,-0.00197328,0.00412018,-0.00111666,-1.14403,0.00318494,0.0134332,1021,428,2.08373,11.4827
-196,596,2.09155,-11.6599,2.16536e-05,0.00227894,-0.00148205,0.00301317,-0.000712579,-1.11082,0.00228367,0.0135028,1028,428,2.0915,11.6599
-189,596,2.06995,-11.8099,0.000269996,0.00145533,-0.00114671,0.00215347,-0.000428149,-1.02391,0.0015976,0.010798,1035,428,2.06996,11.8099
-182,596,2.05664,-11.9678,0.000605907,0.000711572,-0.00088257,0.00154289,-0.00022541,-0.815294,0.00111138,0.0106927,1042,428,2.05661,11.9678
-175,596,2.06653,-12.1231,0.00098299,-0.000178789,-0.000547992,0.00120068,-0.000396478,-0.378132,0.000960294,0.0132751,1049,428,2.06653,12.1232
-168,596,2.07666,-12.2478,0.00125266,-0.000932112,-0.000292935,0.00129126,-0.000970707,-0.130998,0.00131031,0.0150556,1056,428,2.07665,12.2478
-161,596,2.06165,-12.395,0.00150495,-0.00139737,-0.000263164,0.00152862,-0.00142104,-0.089699,0.00170336,0.0127843,1063,428,2.06159,12.395
-154,596,2.05603,-12.5574,0.00180919,-0.00170028,-0.000269918,0.00182983,-0.00172092,-0.0763131,0.00205035,0.0112468,1070,428,2.05603,12.5574
-147,596,2.06848,-12.6626,0.00209055,-0.00191571,-0.000255867,0.00210683,-0.00193199,-0.0635229,0.00233254,0.0124494,1077,428,2.06848,12.6626
-140,596,2.09094,-12.7594,0.00234567,-0.00206025,-0.00028362,0.00236386,-0.00207843,-0.0640203,0.00256652,0.0131369,1084,428,2.09098,12.7594
-133,596,2.09546,-12.8873,0.00255685,-0.0020155,-0.000444451,0.00259965,-0.0020583,-0.0960064,0.00269532,0.0138162,1091,428,2.09547,12.8873
-126,596,2.09619,-13.0019,0.00273322,-0.00178368,-0.000581788,0.00280695,-0.00185741,-0.126062,0.00271151,0.0107617,1098,428,2.09619,13.0019
-119,596,2.104,-13.1264,0.00290043,-0.00140946,-0.000747303,0.00302633,-0.00153536,-0.166904,0.00268018,0.0137778,1105,428,2.10397,13.1264
-112,596,2.10461,-13.2293,0.00308167,-0.00098068,-0.000902654,0.00327321,-0.00117222,-0.209094,0.0026604,0.0151742,1112,428,2.10463,13.2293
-105,596,2.14038,-13.334,0.00320394,-0.000398664,-0.00106399,0.00349472,-0.000689435,-0.266769,0.00259039,0.013912,1119,428,2.14033,13.3341
-98,596,2.14417,-13.4041,0.00324934,0.000445186,-0.00119328,0.00368839,6.13695e-06,-0.352561,0.00245688,0.00954025,1126,428,2.14412,13.4041
-91,596,2.14246,-13.5029,0.00329654,0.00143267,-0.00121774,0.00389803,0.000831182,-0.458788,0.0023707,0.0105246,1133,428,2.14245,13.5029
-84,596,2.19202,-13.6936,0.00346519,0.00197711,-0.00108626,0.0040378,0.0014045,-0.485119,0.00236694,0.0176606,1140,428,2.19198,13.6936
-77,596,2.20483,-13.8537,0.00364436,0.00211812,-0.000829649,0.00400848,0.001754,-0.413571,0.0023203,0.0447543,1147,428,2.20487,13.8537
-70,596,2.33484,-14.1557,0,0,0,0,0,0,0,-1,1154,428,2.33488,14.1557
-63,596,1.95569,-12.2758,0,0,0,0,0,0,0,-1,1161,428,1.95563,12.2759
-56,596,1.60107,-10.5827,0,0,0,0,0,0,0,-1,1168,428,1.60108,10.5827
-49,596,1.59473,-10.0393,0,0,0,0,0,0,0,-1,1175,428,1.59472,10.0393
-42,596,1.99585,-6.6246,0,0,0,0,0,0,0,-1,1182,428,1.99586,6.62459
-35,596,1.95361,-13.9661,0,0,0,0,0,0,0,-1,1189,428,1.95356,13.9661
-28,596,2.2196,-14.044,0,0,0,0,0,0,0,-1,1196,428,2.21955,14.044
-21,596,2.21472,-13.8489,0.026394,-0.0184449,-0.0120181,0.029412,-0.021463,-0.246037,0.029492,0.0496654,1203,428,2.21469,13.8489
-14,596,2.30994,-14.1039,0.0280701,-0.0162496,-0.0137972,0.0320143,-0.0201938,-0.278443,0.0303988,0.0452047,1210,428,2.30991,14.1039
-7,596,2.39417,-14.1612,0.0274454,-0.0133983,-0.0141462,0.0318664,-0.0178193,-0.302905,0.0290657,0.0489852,1217,428,2.39411,14.1612
0,596,2.47046,-14.2208,0,0,0,0,0,0,0,-1,1224,428,2.47049,14.2208
7,596,2.24072,-14.2538,0.021586,-0.00120082,-0.0149838,0.029016,-0.00863087,-0.460341,0.0227728,0.0437794,1231,428,2.24066,14.2537
14,596,2.55811,-14.1747,0.0184045,0.00355414,-0.0141458,0.0269555,-0.00499686,-0.543713,0.0198467,0.0416417,1238,428,2.55809,14.1746
21,596,2.62231,-14.231,0.0150571,0.00776193,-0.0129983,0.0249099,-0.00209089,-0.648607,0.0173456,0.0421606,1245,428,2.62237,14.231
28,596,2.47192,-14.3465,0.01148,0.0110007,-0.011154,0.0223969,8.38554e-05,-0.774656,0.0149034,0.0400118,1252,428,2.47189,14.3465
35,596,2.57788,-14.0855,0.00794711,0.0134364,-0.00911786,0.0202138,0.00116976,-0.931594,0.0131033,0.0406514,1259,428,2.57787,14.0855
42,596,2.71057,-14.2609,0.00508451,0.0137154,-0.00675589,0.0174165,0.00138341,-1.06962,0.0111784,0.042632,1266,428,2.7106,14.2609
49,596,2.66565,-14.4028,0.00310257,0.0119523,-0.00492075,0.0141451,0.000909786,-1.15159,0.00914188,0.0421548,1273,428,2.66565,14.4028
56,596,2.15051,-14.359,0.00187067,0.00941813,-0.00289147,0.0103985,0.000890282,-1.2439,0.00665546,0.042711,1280,428,2.15049,14.359
63,596,1.88074,-14.3706,0.00144812,0.00462348,-0.000701449,0.00477153,0.00130007,-1.36279,0.00284834,0.0458736,1287,428,1.88077,14.3706
70,596,2.06702,-14.5959,0.00170787,-0.00148366,0.00106551,0.0020309,-0.00180669,0.294362,0.00221689,0.0440967,1294,428,2.06701,14.5958
77,596,2.51917,-14.3479,0.00279247,-0.00752624,0.00260148,0.00341123,-0.008145,0.233511,0.00685604,0.0451627,1301,428,2.51915,14.3479
84,596,2.41541,-14.4352,0.0033204,-0.0135066,0.00375974,0.00412225,-0.0143084,0.210124,0.0111696,0.0450235,1308,428,2.41546,14.4352
91,596,2.9519,-15.0681,0,0,0,0,0,0,0,-1,1315,428,2.95186,15.0681
98,596,2.88867,-15.6664,0,0,0,0,0,0,0,-1,1322,428,2.88866,15.6664
105,596,2.99377,-14.2232,0,0,0,0,0,0,0,-1,1329,428,2.99381,14.2232
112,596,3.04065,-14.1422,0.00527897,-0.0329792,0.00569638,0.00610911,-0.0338093,0.144712,0.0248277,0.0402402,1336,428,3.04063,14.1422
119,596,3.26831,-13.9724,0.00404063,-0.0339223,0.00558983,0.00484659,-0.0347282,0.143197,0.0249252,0.041683,1343,428,3.26835,13.9724
126,596,3.37744,-13.8686,0.00276248,-0.0343909,0.00552485,0.00356665,-0.0351951,0.144538,0.0247381,0.04468,1350,428,3.37739,13.8686
133,596,3.37549,-13.841,0.00199397,-0.0346431,0.0052515,0.00273184,-0.035381,0.139595,0.0245487,0.0466664,1357,428,3.37551,13.841
140,596,3.21375,-13.755,0.00172973,-0.0347615,0.00500056,0.00240257,-0.0354343,0.13375,0.0244631,0.0421078,1364,428,3.21379,13.755
147,596,2.98145,-13.6656,0.00162334,-0.0343521,0.00465337,0.0022155,-0.0349442,0.126574,0.0240687,0.0372024,1371,428,2.98147,13.6656
154,596,2.95129,-13.6762,0.0017842,-0.0336939,0.00450525,0.00234737,-0.0342571,0.124357,0.0236594,0.0431739,1378,428,2.95126,13.6762
161,596,3.18884,-13.6404,0.00202894,-0.0327662,0.00401568,0.00248637,-0.0332237,0.113423,0.0230227,0.0474591,1385,428,3.18881,13.6404
168,596,3.16479,-13.5222,0,0,0,0,0,0,0,-1,1392,428,3.16481,13.5222
175,596,3.36523,-13.4055,0,0,0,0,0,0,0,-1,1399,428,3.36522,13.4056
182,596,3.45239,-13.4576,0,0,0,0,0,0,0,-1,1406,428,3.45242,13.4576
189,596,3.33362,-13.3544,0,0,0,0,0,0,0,-1,1413,428,3.33364,13.3544
196,596,3.27979,-13.0865,0,0,0,0,0,0,0,-1,1420,428,3.27982,13.0865
203,596,3.29187,-13.4452,0,0,0,0,0,0,0,-1,1427,428,3.2919,13.4452
210,596,3.24805,-13.1984,0.00269491,-0.00297201,-0.00298113,0.00397431,-0.00425141,-0.405395,0.00475002,0.0445261,1434,428,3.2481,13.1984
217,596,3.20056,-13.0282,0.00139412,-0.0022054,-0.00267975,0.00282239,-0.00363367,-0.489689,0.0037372,0.0147734,1441,428,3.20054,13.0282
224,596,3.22693,-12.8905,0.00126521,-0.0011881,-0.00216948,0.00253081,-0.0024537,-0.528098,0.00287792,0.0116246,1448,428,3.22695,12.8905
231,596,3.26282,-12.7463,0.00118103,-0.000317617,-0.00169777,0.00228748,-0.00142407,-0.577576,0.00216211,0.0117966,1455,428,3.26279,12.7463
238,596,3.27307,-12.632,0.00129445,0.000436178,-0.00127238,0.00220811,-0.000477483,-0.622753,0.00165437,0.0136057,1462,428,3.27309,12.6321
245,596,3.28735,-12.5157,0.00144289,0.00120873,-0.000895008,0.00222844,0.000423176,-0.720358,0.00136659,0.0119974,1469,428,3.2874,12.5157
252,596,3.30627,-12.3636,0.0014253,0.00176829,-0.000589409,0.00221065,0.000982942,-0.926972,0.00127892,0.00934793,1476,428,3.3063,12.3637
259,596,3.30383,-12.216,0.00130972,0.00206526,-0.000333695,0.00219154,0.00118345,-1.20903,0.00126663,0.00813054,1483,428,3.30378,12.216
266,596,3.28394,-12.0763,0.00119436,0.00217931,-0.000149956,0.00220164,0.00117203,-1.42301,0.001272,0.00932469,1490,428,3.28388,12.0763
273,596,3.2948,-11.9261,0.00106259,0.00234419,3.20683e-05,0.00234499,0.00106179,1.5458,0.00135589,0.0111686,1497,428,3.29486,11.9262
280,596,3.31628,-11.7622,0.00094656,0.00248275,0.000248157,0.00252184,0.000907468,1.41455,0.00147493,0.0120589,1504,428,3.3163,11.7622
287,596,3.32129,-11.6065,0.000844043,0.0023818,0.000422339,0.00249016,0.000735685,1.31965,0.00147726,0.0112188,1511,428,3.32128,11.6065
294,596,3.31201,-11.4583,0.000712004,0.00218651,0.000585113,0.00239048,0.000508035,1.23537,0.0014542,0.00943616,1518,428,3.31205,11.4583
301,596,3.31592,-11.293,0.000572457,0.00191622,0.000743404,0.00224637,0.000242304,1.15285,0.0014237,0.0102405,1525,428,3.31595,11.293
308,596,3.35828,-11.1258,0.000525287,0.00185889,0.000959015,0.00236014,2.40415e-05,1.08918,0.00156547,0.0150839,1532,428,3.35827,11.1258
315,596,3.32654,-10.9468,0.000517776,0.00187278,0.00119796,0.00257155,-0.000180995,1.04275,0.00177777,0.015548,1539,428,3.3265,10.9468
322,596,3.31299,-10.7587,0.000509198,0.00195443,0.00144659,0.00284885,-0.000385219,1.01703,0.0020398,0.012879,1546,428,3.313,10.7587
329,596,3.302,-10.5755,0.000495581,0.00206422,0.00166875,0.00312378,-0.000563977,1.00508,0.00229374,0.00993616,1553,428,3.30204,10.5755
336,596,3.28906,-10.4005,0.000382717,0.00202152,0.00175956,0.00314312,-0.000738878,1.00331,0.00238024,0.00883671,1560,428,3.28909,10.4005
343,596,3.29468,-10.2213,0.000263509,0.00201772,0.00188515,0.00321982,-0.000938593,1.00314,0.0025184,0.0112737,1567,428,3.29463,10.2213
350,596,3.29504,-10.0237,0.000162967,0.00221646,0.00203672,0.0034706,-0.00109118,1.01887,0.00275058,0.0116453,1574,428,3.29504,10.0237
357,596,3.28333,-9.81375,-8.65504e-05,0.00232323,0.00211475,0.00355225,-0.00131558,1.04434,0.00290765,0.00944661,1581,428,3.28333,9.81374
364,596,3.28015,-9.59738,-0.000384219,0.00252567,0.0021438,0.00366163,-0.00152017,1.08353,0.00307569,0.00967567,1588,428,3.28009,9.59737
371,596,3.28638,-9.39017,-0.000648268,0.00262291,0.00209399,0.00364438,-0.00166974,1.11695,0.00313792,0.0104221,1595,428,3.28636,9.39017
378,596,3.27283,-9.19141,-0.00105624,0.00272182,0.00194701,0.0035456,-0.00188001,1.17054,0.0031813,0.014695,1602,428,3.27288,9.1914
385,596,3.33252,-8.93188,-0.00170201,0.00274056,0.00163973,0.00328022,-0.00224167,1.25285,0.00320681,0.0279869,1609,428,3.33246,8.93189
392,596,3.30884,-8.71539,-0.00192161,0.00261926,0.00143147,0.00303285,-0.0023352,1.28953,0.00310796,0.0390895,1616,428,3.30879,8.7154
399,596,3.1803,-8.39127,0,0,0,0,0,0,0,-1,1623,428,3.18026,8.39127
406,596,2.42261,-6.35526,0,0,0,0,0,0,0,-1,1630,428,2.42257,6.35526
413,596,3.39124,-2.63528,0,0,0,0,0,0,0,-1,1637,428,3.39122,2.6353
420,596,2.6344,-3.06308,0,0,0,0,0,0,0,-1,1644,428,2.63439,3.06308
427,596,2.99329,-1.90512,0,0,0,0,0,0,0,-1,1651,428,2.99327,1.90512
434,596,3.80896,-0.253998,0,0,0,0,0,0,0,-1,1658,428,3.80902,0.254004
441,596,3.86401,-0.131622,0,0,0,0,0,0,0,-1,1665,428,3.86406,0.131613
448,596,1.0769,0.0083313,0,0,0,0,0,0,0,-1,1672,428,1.07684,-0.00832231
455,596,2.00769,-1.43329,0,0,0,0,0,0,0,-1,1679,428,2.00765,1.4333
462,596,0,0,0,0,0,0,0,0,0,-1,1686,428,0,0
469,596,0,0,0,0,0,0,0,0,0,-1,1693,428,0,0
476,596,0,0,0,0,0,0,0,0,0,-1,1700,428,0,0
483,596,0,0,0,0,0,0,0,0,0,-1,1707,428,0,0
490,596,0,0,0,0,0,0,0,0,0,-1,1714,428,0,0
497,596,0,0,0,0,0,0,0,0,0,-1,1721,428,0,0
504,596,0,0,0,0,0,0,0,0,0,-1,1728,428,0,0
511,596,0,0,0,0,0,0,0,0,0,-1,1735,428,0,0
518,596,0,0,0,0,0,0,0,0,0,-1,1742,428,0,0
525,596,0,0,0,0,0,0,0,0,0,-1,1749,428,0,0
532,596,0,0,0,0,0,0,0,0,0,-1,1756,428,0,0
539,596,0,0,0,0,0,0,0,0,0,-1,1763,428,0,0
546,596,0,0,0,0,0,0,0,0,0,-1,1770,428,0,0
553,596,0,0,0,0,0,0,0,0,0,-1,1777,428,0,0
560,596,0,0,0,0,0,0,0,0,0,-1,1784,428,0,0
567,596,0,0,0,0,0,0,0,0,0,-1,1791,428,0,0
574,596,0,0,0,0,0,0,0,0,0,-1,1798,428,0,0
581,596,0,0,0,0,0,0,0,0,0,-1,1805,428,0,0
588,596,0,0,0,0,0,0,0,0,0,-1,1812,428,0,0
595,596,0,0,0,0,0,0,0,0,0,-1,1819,428,0,0
602,596,0,0,0,0,0,0,0,0,0,-1,1826,428,0,0
609,596,0,0,0,0,0,0,0,0,0,-1,1833,428,0,0
616,596,0,0,0,0,0,0,0,0,0,-1,1840,428,0,0
623,596,0,0,0,0,0,0,0,0,0,-1,1847,428,0,0
630,596,0,0,0,0,0,0,0,0,0,-1,1854,428,0,0
637,596,0,0,0,0,0,0,0,0,0,-1,1861,428,0,0
644,596,0,0,0,0,0,0,0,0,0,-1,1868,428,0,0
651,596,0,0,0,0,0,0,0,0,0,-1,1875,428,0,0
658,596,0,0,0,0,0,0,0,0,0,-1,1882,428,0,0
665,596,0,0,0,0,0,0,0,0,0,-1,1889,428,0,0
672,596,0,0,0,0,0,0,0,0,0,-1,1896,428,0,0
679,596,0,0,0,0,0,0,0,0,0,-1,1903,428,0,0
686,596,0,0,0,0,0,0,0,0,0,-1,1910,428,0,0
693,596,0,0,0,0,0,0,0,0,0,-1,1917,428,0,0
700,596,0,0,0,0,0,0,0,0,0,-1,1924,428,0,0
707,596,0,0,0,0,0,0,0,0,0,-1,1931,428,0,0
714,596,0,0,0,0,0,0,0,0,0,-1,1938,428,0,0
721,596,0,0,0,0,0,0,0,0,0,-1,1945,428,0,0
728,596,0,0,0,0,0,0,0,0,0,-1,1952,428,0,0
735,596,0,0,0,0,0,0,0,0,0,-1,1959,428,0,0
742,596,0,0,0,0,0,0,0,0,0,-1,1966,428,0,0
749,596,0,0,0,0,0,0,0,0,0,-1,1973,428,0,0
756,596,0,0,0,0,0,0,0,0,0,-1,1980,428,0,0
763,596,0,0,0,0,0,0,0,0,0,-1,1987,428,0,0
770,596,0,0,0,0,0,0,0,0,0,-1,1994,428,0,0
777,596,0,0,0,0,0,0,0,0,0,-1,2001,428,0,0
784,596,0,0,0,0,0,0,0,0,0,-1,2008,428,0,0
791,596,0,0,0,0,0,0,0,0,0,-1,2015,428,0,0
798,596,0,0,0,0,0,0,0,0,0,-1,2022,428,0,0
805,596,0,0,0,0,0,0,0,0,0,-1,2029,428,0,0
812,596,0,0,0,0,0,0,0,0,0,-1,2036,428,0,0
-700,589,0,0,0,0,0,0,0,0,0,-1,524,435,0,0
-693,589,0,0,0,0,0,0,0,0,0,-1,531,435,0,0
-686,589,0,0,0,0,0,0,0,0,0,-1,538,435,0,0
-679,589,0,0,0,0,0,0,0,0,0,-1,545,435,0,0
-672,589,0,0,0,0,0,0,0,0,0,-1,552,435,0,0
-665,589,0,0,0,0,0,0,0,0,0,-1,559,435,0,0
-658,589,0,0,0,0,0,0,0,0,0,-1,566,435,0,0
-651,589,0,0,0,0,0,0,0,0,0,-1,573,435,0,0
-644,589,0,0,0,0,0,0,0,0,0,-1,580,435,0,0
-637,589,0,0,0,0,0,0,0,0,0,-1,587,435,0,0
-630,589,0,0,0,0,0,0,0,0,0,-1,594,435,0,0
-623,589,0,0,0,0,0,0,0,0,0,-1,601,435,0,0
-616,589,0,0,0,0,0,0,0,0,0,-1,608,435,0,0
-609,589,0,0,0,0,0,0,0,0,0,-1,615,435,0,0
-602,589,0,0,0,0,0,0,0,0,0,-1,622,435,0,0
-595,589,0,0,0,0,0,0,0,0,0,-1,629,435,0,0
-588,589,0,0,0,0,0,0,0,0,0,-1,636,435,0,0
-581,589,0,0,0,0,0,0,0,0,0,-1,643,435,0,0
-574,589,0,0,0,0,0,0,0,0,0,-1,650,435,0,0
-567,589,0,0,0,0,0,0,0,0,0,-1,657,435,0,0
-560,589,0,0,0,0,0,0,0,0,0,-1,664,435,0,0
-553,589,0,0,0,0,0,0,0,0,0,-1,671,435,0,0
-546,589,0,0,0,0,0,0,0,0,0,-1,678,435,0,0
-539,589,0,0,0,0,0,0,0,0,0,-1,685,435,0,0
-532,589,0,0,0,0,0,0,0,0,0,-1,692,435,0,0
-525,589,0,0,0,0,0,0,0,0,0,-1,699,435,0,0
-518,589,0,0,0,0,0,0,0,0,0,-1,706,435,0,0
-511,589,0,0,0,0,0,0,0,0,0,-1,713,435,0,0
-504,589,0,0,0,0,0,0,0,0,0,-1,720,435,0,0
-497,589,0,0,0,0,0,0,0,0,0,-1,727,435,0,0
-490,589,0,0,0,0,0,0,0,0,0,-1,734,435,0,0
-483,589,0,0,0,0,0,0,0,0,0,-1,741,435,0,0
-476,589,0,0,0,0,0,0,0,0,0,-1,748,435,0,0
-469,589,0,0,0,0,0,0,0,0,0,-1,755,435,0,0
-462,589,0,0,0,0,0,0,0,0,0,-1,762,435,0,0
-455,589,0,0,0,0,0,0,0,0,0,-1,769,435,0,0
-448,589,0,0,0,0,0,0,0,0,0,-1,776,435,0,0
-441,589,0,0,0,0,0,0,0,0,0,-1,783,435,0,0
-434,589,0,0,0,0,0,0,0,0,0,-1,790,435,0,0
-427,589,0,0,0,0,0,0,0,0,0,-1,797,435,0,0
-420,589,0,0,0,0,0,0,0,0,0,-1,804,435,0,0
-413,589,0,0,0,0,0,0,0,0,0,-1,811,435,0,0
-406,589,0,0,0,0,0,0,0,0,0,-1,818,435,0,0
-399,589,0,0,0,0,0,0,0,0,0,-1,825,435,0,0
-392,589,0,0,0,0,0,0,0,0,0,-1,832,435,0,0
-385,589,0,0,0,0,0,0,0,0,0,-1,839,435,0,0
-378,589,0,0,0,0,0,0,0,0,0,-1,846,435,0,0
-371,589,0,0,0,0,0,0,0,0,0,-1,853,435,0,0
-364,589,0,0,0,0,0,0,0,0,0,-1,860,435,0,0
-357,589,0,0,0,0,0,0,0,0,0,-1,867,435,0,0
-350,589,-0.262695,-13.5742,0,0,0,0,0,0,0,-1,874,435,-0.262715,13.5742
-343,589,0.187195,-13.2853,0,0,0,0,0,0,0,-1,881,435,0.187181,13.2853
-336,589,0.677856,-12.7685,0,0,0,0,0,0,0,-1,888,435,0.677838,12.7685
-329,589,0.0882568,-9.79782,0,0,0,0,0,0,0,-1,895,435,0.0882795,9.79781
-322,589,2.30444,-8.12494,0,0,0,0,0,0,0,-1,902,435,2.30443,8.12493
-315,589,2.36517,-8.38779,0,0,0,0,0,0,0,-1,909,435,2.36518,8.38779
-308,589,2.66547,-9.88989,0,0,0,0,0,0,0,-1,916,435,2.66549,9.88989
-301,589,2.32715,-9.62601,-0.0149393,-0.00889697,-0.00115533,-0.0086836,-0.0151526,-1.38817,0.00877947,0.0462102,923,435,2.32714,9.62601
-294,589,1.97314,-9.70599,-0.0115795,-0.00807569,-0.000930882,-0.00784373,-0.0118114,-1.32659,0.00694065,0.0465947,930,435,1.97316,9.70598
-287,589,1.80676,-9.51816,-0.00864262,-0.00679299,-0.000787276,-0.00650328,-0.00893234,-1.21818,0.00533291,0.0399182,937,435,1.80678,9.51815
-280,589,1.92041,-9.48761,-0.00641568,-0.00435072,-0.00103221,-0.00392325,-0.00684315,-1.17816,0.00396503,0.0314611,944,435,1.92039,9.48762
-273,589,2.05902,-9.67474,-0.0045399,-0.00193978,-0.00158318,-0.00119128,-0.0052884,-1.12916,0.00320322,0.0187157,951,435,2.05901,9.67474
-266,589,2.02295,-9.87341,-0.0029842,-4.36997e-05,-0.00191255,0.000898412,-0.00392631,-1.11309,0.00296277,0.0160933,958,435,2.02295,9.87342
-259,589,1.96973,-10.0562,-0.00193701,0.00132223,-0.00197009,0.00224935,-0.00286413,-1.13095,0.00295937,0.0143151,965,435,1.96976,10.0562
-252,589,1.97107,-10.2768,-0.00124834,0.00257966,-0.00205164,0.00347148,-0.00214016,-1.16075,0.00327014,0.00942564,972,435,1.97106,10.2768
-245,589,1.96692,-10.4663,-0.000531401,0.00357612,-0.00232206,0.00462234,-0.00157763,-1.14748,0.00372065,0.00966078,979,435,1.96692,10.4663
-238,589,1.95587,-10.6569,-0.000172127,0.00415487,-0.00238652,0.00521259,-0.00122984,-1.15361,0.00394936,0.0132496,986,435,1.9559,10.6569
-231,589,1.9364,-10.8213,-0.00025434,0.00439303,-0.00234758,0.00537247,-0.00123378,-1.17554,0.00405595,0.014236,993,435,1.93641,10.8213
-224,589,1.90417,-11.0205,-0.000345259,0.00426165,-0.00226701,0.0051901,-0.00127371,-1.18208,0.00395363,0.0139423,1000,435,1.90419,11.0205
-217,589,1.91248,-11.1924,-0.000261699,0.00352845,-0.00207714,0.00444511,-0.00117835,-1.1552,0.00342445,0.0148124,1007,435,1.91247,11.1924
-210,589,1.9339,-11.3366,-2.87514e-05,0.00274519,-0.00175684,0.00359656,-0.000880125,-1.11954,0.00273864,0.0131598,1014,435,1.93391,11.3366
-203,589,1.92731,-11.4874,0.000277259,0.00194716,-0.00129469,0.00265278,-0.000428366,-1.07179,0.00192724,0.00915266,1021,435,1.92731,11.4874
-196,589,1.91553,-11.6467,0.000593707,0.00114008,-0.000925224,0.0018316,-9.78209e-05,-0.928951,0.00125495,0.0115762,1028,435,1.91554,11.6467
-189,589,1.88818,-11.8164,0.000901138,0.000429151,-0.000669462,0.00137498,-4.46953e-05,-0.615943,0.000931912,0.0156396,1035,435,1.88812,11.8164
-182,589,1.91052,-11.9617,0.00128754,-0.000218898,-0.000494624,0.00143543,-0.000366785,-0.290529,0.00109979,0.0124825,1042,435,1.91053,11.9617
-175,589,1.93066,-12.1112,0.00170016,-0.00101247,-0.000248583,0.00172275,-0.00103506,-0.0906335,0.00160864,0.0160038,1049,435,1.93067,12.1112
-168,589,1.94409,-12.2643,0.00205696,-0.00176959,-8.67692e-05,0.00205893,-0.00177156,-0.0226601,0.0022136,0.013194,1056,435,1.94405,12.2643
-161,589,1.92212,-12.3973,0.00241316,-0.0023602,-0.00014789,0.00241774,-0.00236478,-0.0309427,0.00276124,0.0109252,1063,435,1.92208,12.3973
-154,589,1.9137,-12.5357,0.00277276,-0.00284755,-0.00019407,0.00277945,-0.00285424,-0.0344755,0.00325271,0.0104891,1070,435,1.91374,12.5357
-147,589,1.94592,-12.6542,0.00312396,-0.00318549,-0.00022617,0.00313206,-0.00319358,-0.035785,0.00365217,0.0113433,1077,435,1.9459,12.6542
-140,589,1.97375,-12.7584,0.00346555,-0.003358,-0.000310968,0.00347969,-0.00337214,-0.0454472,0.00395607,0.0129558,1084,435,1.97374,12.7584
-133,589,1.98254,-12.8819,0.00373199,-0.0032757,-0.000556152,0.00377586,-0.00331956,-0.0787065,0.00409937,0.0131095,1091,435,1.98257,12.8819
-126,589,1.98816,-13.0035,0.00395428,-0.00298382,-0.000749084,0.00403424,-0.00306378,-0.106334,0.00411079,0.0106009,1098,435,1.98818,13.0035
-119,589,1.9906,-13.1439,0.00415386,-0.00254872,-0.000958083,0.00428812,-0.00268298,-0.139229,0.00406018,0.0168783,1105,435,1.99055,13.1439
-112,589,1.99829,-13.2556,0.00433065,-0.00197585,-0.0011542,0.00453525,-0.00218045,-0.175445,0.00395597,0.0172387,1112,435,1.99826,13.2556
-105,589,2.005,-13.3545,0.00438292,-0.00114716,-0.00136402,0.00470106,-0.0014653,-0.229141,0.00371995,0.01603,1119,435,2.00505,13.3545
-98,589,2.05066,-13.4135,0.00431406,0.000197704,-0.00151861,0.00481367,-0.000301908,-0.317838,0.00331434,0.0176523,1126,435,2.05061,13.4135
-91,589,2.13806,-13.5013,0.00432749,0.00181388,-0.00156467,0.00507762,0.00106376,-0.447042,0.0030921,0.0253529,1133,435,2.13801,13.5013
-84,589,2.1377,-13.7549,0.00460356,0.00268701,-0.00135466,0.00530462,0.00198594,-0.477564,0.00309468,0.0423887,1140,435,2.13768,13.7549
-77,589,2.20947,-14.1267,0,0,0,0,0,0,0,-1,1147,435,2.20949,14.1267
-70,589,1.48267,-9.90961,0,0,0,0,0,0,0,-1,1154,435,1.48264,9.9096
-63,589,0.880127,-5.50586,0,0,0,0,0,0,0,-1,1161,435,0.880186,5.50587
-56,589,-2.78052,-7.28082,0,0,0,0,0,0,0,-1,1168,435,-2.78053,7.28082
-49,589,-0.525757,-2.76703,0,0,0,0,0,0,0,-1,1175,435,-0.525771,2.76702
-42,589,-2.7738,-2.87921,0,0,0,0,0,0,0,-1,1182,435,-2.77383,2.87922
-35,589,-2.55225,-3.27551,0,0,0,0,0,0,0,-1,1189,435,-2.55223,3.27552
-28,589,-0.0632324,-3.42938,0,0,0,0,0,0,0,-1,1196,435,-0.063241,3.42938
-21,589,2.08228,-13.5348,0,0,0,0,0,0,0,-1,1203,435,2.08231,13.5348
-14,589,2.81885,-14.2058,0,0,0,0,0,0,0,-1,1210,435,2.81879,14.2058
-7,589,2.36902,-14.0723,0,0,0,0,0,0,0,-1,1217,435,2.36898,14.0723
0,589,2.61389,-14.2561,0,0,0,0,0,0,0,-1,1224,435,2.61387,14.2561
7,589,2.41394,-14.119,0,0,0,0,0,0,0,-1,1231,435,2.41395,14.119
14,589,2.58704,-14.1722,0,0,0,0,0,0,0,-1,1238,435,2.58702,14.1722
21,589,2.61755,-14.1837,0,0,0,0,0,0,0,-1,1245,435,2.61754,14.1837
28,589,2.19202,-14.3155,0.0161765,0.0168571,-0.0173534,0.0338735,-0.0008399,-0.795202,0.0228674,0.0449859,1252,435,2.19199,14.3155
35,589,2.46301,-13.9096,0.0114204,0.0203325,-0.0148078,0.0313402,0.000412644,-0.931551,0.0207573,0.0452912,1259,435,2.46304,13.9096
42,589,4.81116,-15.8229,0,0,0,0,0,0,0,-1,1266,435,4.81122,15.8229
49,589,2.71692,-14.4256,0.00468272,0.0190266,-0.00939199,0.0236719,3.74662e-05,-1.11148,0.0157688,0.0492969,1273,435,2.7169,14.4256
56,589,1.43518,-14.6919,0.00278061,0.0156814,-0.00658826,0.0184513,1.0768e-05,-1.17281,0.0122973,0.043813,1280,435,1.43522,14.6919
63,589,1.37769,-14.8504,0.00190409,0.00909898,-0.00338092,0.0104384,0.000564709,-1.19361,0.00677851,0.043157,1287,435,1.37768,14.8504
70,589,1.70703,-14.9579,0.00190016,0.00076437,-0.000646619,0.00219285,0.000471671,-0.425065,0.0013328,0.0445432,1294,435,1.70702,14.9579
77,589,2.53894,-14.3523,0.00298155,-0.0073966,0.00187129,0.00330866,-0.00772371,0.173053,0.00653734,0.0426149,1301,435,2.53897,14.3523
84,589,2.51526,-14.418,0.00347541,-0.0153417,0.00400297,0.00429156,-0.0161579,0.20113,0.0124515,0.0387828,1308,435,2.51521,14.418
91,589,2.66467,-14.702,0.00351405,-0.023146,0.0059806,0.0047942,-0.0244262,0.210868,0.0180951,0.0424752,1315,435,2.66468,14.702
98,589,2.77124,-15.1931,0.00454199,-0.0293202,0.00645486,0.0057307,-0.0305089,0.182116,0.0224942,0.0466917,1322,435,2.77122,15.1931
105,589,2.6189,-15.6587,0,0,0,0,0,0,0,-1,1329,435,2.6189,15.6587
112,589,3.10278,-14.1389,0,0,0,0,0,0,0,-1,1336,435,3.10275,14.1389
119,589,3.43677,-13.8234,0,0,0,0,0,0,0,-1,1343,435,3.43682,13.8234
126,589,3.63037,-13.64,0,0,0,0,0,0,0,-1,1350,435,3.63042,13.64
133,589,3.57605,-13.5018,0.0026228,-0.0444545,0.00862663,0.00415379,-0.0459855,0.175644,0.0321312,0.0467381,1357,435,3.57599,13.5018
140,589,3.13342,-13.418,0.00244937,-0.0450144,0.00842718,0.00390121,-0.0464663,0.170605,0.0323564,0.0440657,1364,435,3.13347,13.418
147,589,2.41284,-13.0404,0.00251283,-0.0451794,0.008089,0.00384745,-0.0465141,0.163518,0.0323682,0.0417691,1371,435,2.41282,13.0404
154,589,2.83667,-13.6282,0.00290798,-0.0452086,0.00788985,0.00416868,-0.0464693,0.158448,0.0324584,0.041713,1378,435,2.8367,13.6282
161,589,3.1405,-13.641,0.00335649,-0.0446282,0.00741219,0.00447536,-0.045747,0.149819,0.032094,0.0460291,1385,435,3.14048,13.641
168,589,3.63562,-13.5946,0,0,0,0,0,0,0,-1,1392,435,3.63558,13.5946
175,589,8.66992,-7.65527,0,0,0,0,0,0,0,-1,1399,435,8.66994,7.65528
182,589,3.8136,-2.45389,0,0,0,0,0,0,0,-1,1406,435,3.81363,2.4539
189,589,3.69983,-3.68149,0,0,0,0,0,0,0,-1,1413,435,3.69987,3.68147
196,589,3.31055,-5.31677,0,0,0,0,0,0,0,-1,1420,435,3.31059,5.31678
203,589,2.72559,-8.84338,0,0,0,0,0,0,0,-1,1427,435,2.72558,8.84338
210,589,3.32373,-13.2154,0,0,0,0,0,0,0,-1,1434,435,3.32379,13.2154
217,589,3.35217,-12.9147,0.00181194,-0.00354652,-0.00384532,0.00381937,-0.00555395,-0.481127,0.00544249,0.0393832,1441,435,3.35222,12.9147
224,589,3.39221,-12.9221,0.00170779,-0.00204286,-0.00317232,0.00351763,-0.00385271,-0.518454,0.00425673,0.0214922,1448,435,3.39217,12.9222
231,589,3.39478,-12.8043,0.00163395,-0.000774051,-0.00254682,0.00324703,-0.00238713,-0.564595,0.00326549,0.0204208,1455,435,3.39474,12.8043
238,589,3.40149,-12.6804,0.00178191,0.000215088,-0.00202722,0.00317182,-0.00117483,-0.601015,0.00259633,0.0226816,1462,435,3.40151,12.6804
245,589,3.4209,-12.4894,0.00198177,0.00122269,-0.00153745,0.00318584,1.86289e-05,-0.664387,0.00211771,0.0209796,1469,435,3.42087,12.4894
252,589,3.43848,-12.3354,0.00192084,0.00187279,-0.00114568,0.00304275,0.000750882,-0.774914,0.00183029,0.0134228,1476,435,3.43851,12.3354
259,589,3.44995,-12.2066,0.00175182,0.00216175,-0.000844816,0.00282611,0.00108746,-0.904408,0.00164603,0.00923521,1483,435,3.44998,12.2066
266,589,3.45947,-12.065,0.00161735,0.00219952,-0.000653453,0.00262379,0.00119308,-0.994935,0.00151692,0.00883873,1490,435,3.4595,12.065
273,589,3.46277,-11.9251,0.00144449,0.00228824,-0.000473144,0.00250028,0.00123245,-1.14949,0.00144358,0.0113963,1497,435,3.46273,11.9251
280,589,3.45569,-11.7661,0.00124975,0.00237727,-0.000274075,0.00244036,0.00118666,-1.34454,0.00140912,0.0131492,1504,435,3.45573,11.7661
287,589,3.47156,-11.6348,0.00109358,0.00216114,-0.000136447,0.00217831,0.00107641,-1.44566,0.00125768,0.0115711,1511,435,3.47159,11.6348
294,589,3.48376,-11.4743,0.000913251,0.00181923,-1.92841e-05,0.00181964,0.000912841,-1.54952,0.00105057,0.00981349,1518,435,3.4837,11.4743
301,589,3.48596,-11.2861,0.00072419,0.0014159,8.14263e-05,0.00142536,0.000714734,1.45518,0.000822931,0.0101077,1525,435,3.48592,11.2861
308,589,3.49158,-11.1094,0.000599996,0.00125322,0.000213492,0.0013168,0.00053641,1.28132,0.000764593,0.0101117,1532,435,3.49155,11.1094
315,589,3.49609,-10.9504,0.000536137,0.00123847,0.000391172,0.00141297,0.000361628,1.15118,0.000847558,0.0103829,1539,435,3.49609,10.9504
322,589,3.49292,-10.793,0.000481295,0.00129639,0.000591877,0.00160747,0.000170224,1.08691,0.00101965,0.0111064,1546,435,3.49287,10.793
329,589,3.49304,-10.5904,0.000432588,0.00137928,0.000782855,0.00182077,-8.89838e-06,1.05731,0.00121682,0.0103022,1553,435,3.49303,10.5904
336,589,3.48132,-10.399,0.000339863,0.00141772,0.000937146,0.00195985,-0.000202266,1.04634,0.00137894,0.00990058,1560,435,3.48134,10.399
343,589,3.47461,-10.221,0.000224729,0.00147185,0.00111982,0.00213002,-0.000433438,1.03944,0.00158438,0.0113619,1567,435,3.47459,10.221
350,589,3.46387,-10.0198,0.000133919,0.00165204,0.00131193,0.00240867,-0.000622713,1.04766,0.00184865,0.016705,1574,435,3.46391,10.0199
357,589,3.47778,-9.80109,-2.86346e-05,0.00178912,0.00146487,0.00260417,-0.000843679,1.06306,0.00207531,0.0126323,1581,435,3.47779,9.8011
364,589,3.49304,-9.5993,-0.000218654,0.00201764,0.00160011,0.00285157,-0.00105259,1.09036,0.00233247,0.0105882,1588,435,3.49306,9.5993
371,589,3.48962,-9.4086,-0.000396686,0.00216651,0.00168794,0.00300426,-0.00123443,1.1101,0.00251731,0.0108889,1595,435,3.48964,9.40859
378,589,3.48206,-9.20151,-0.000694443,0.00230155,0.00170074,0.00306994,-0.00146283,1.14645,0.00267127,0.0124783,1602,435,3.48207,9.20152
385,589,3.47449,-8.98529,-0.00111289,0.00231255,0.00153532,0.00289997,-0.00170031,1.20538,0.00268591,0.016268,1609,435,3.47447,8.98529
392,589,3.45654,-8.72906,-0.00123432,0.00215535,0.00140713,0.00266335,-0.00174232,1.22434,0.00256207,0.0182336,1616,435,3.4566,8.72905
399,589,3.42566,-8.46481,-0.00124451,0.00208092,0.00142353,0.00260705,-0.00177064,1.21677,0.00254279,0.0235365,1623,435,3.42567,8.46482
406,589,3.39465,-8.25397,0,0,0,0,0,0,0,-1,1630,435,3.39466,8.25398
413,589,3.42212,-7.94614,0,0,0,0,0,0,0,-1,1637,435,3.42217,7.94612
420,589,2.79724,-5.79956,0,0,0,0,0,0,0,-1,1644,435,2.7973,5.79955
427,589,2.87976,-5.28177,0,0,0,0,0,0,0,-1,1651,435,2.87972,5.28177
434,589,2.52734,-2.73029,0,0,0,0,0,0,0,-1,1658,435,2.52736,2.73029
441,589,3.17639,-2.02435,0,0,0,0,0,0,0,-1,1665,435,3.17643,2.02435
448,589,0.453735,-3.2868,0,0,0,0,0,0,0,-1,1672,435,0.453701,3.28681
455,589,0.664307,-3.46848,0,0,0,0,0,0,0,-1,1679,435,0.66425,3.46846
462,589,3.46716,-4.41891,0,0,0,0,0,0,0,-1,1686,435,3.4672,4.41891
469,589,0.0238037,-3.81497,0,0,0,0,0,0,0,-1,1693,435,0.0237965,3.81498
476,589,0,0,0,0,0,0,0,0,0,-1,1700,435,0,0
483,589,0,0,0,0,0,0,0,0,0,-1,1707,435,0,0
490,589,0,0,0,0,0,0,0,0,0,-1,1714,435,0,0
497,589,0,0,0,0,0,0,0,0,0,-1,1721,435,0,0
504,589,0,0,0,0,0,0,0,0,0,-1,1728,435,0,0
511,589,0,0,0,0,0,0,0,0,0,-1,1735,435,0,0
518,589,0,0,0,0,0,0,0,0,0,-1,1742,435,0,0
525,589,0,0,0,0,0,0,0,0,0,-1,1749,435,0,0
532,589,0,0,0,0,0,0,0,0,0,-1,1756,435,0,0
539,589,0,0,0,0,0,0,0,0,0,-1,1763,435,0,0
546,589,0,0,0,0,0,0,0,0,0,-1,1770,435,0,0
553,589,0,0,0,0,0,0,0,0,0,-1,1777,435,0,0
560,589,0,0,0,0,0,0,0,0,0,-1,1784,435,0,0
567,589,0,0,0,0,0,0,0,0,0,-1,1791,435,0,0
574,589,0,0,0,0,0,0,0,0,0,-1,1798,435,0,0
581,589,0,0,0,0,0,0,0,0,0,-1,1805,435,0,0
588,589,0,0,0,0,0,0,0,0,0,-1,1812,435,0,0
595,589,0,0,0,0,0,0,0,0,0,-1,1819,435,0,0
602,589,0,0,0,0,0,0,0,0,0,-1,1826,435,0,0
609,589,0,0,0,0,0,0,0,0,0,-1,1833,435,0,0
616,589,0,0,0,0,0,0,0,0,0,-1,1840,435,0,0
623,589,0,0,0,0,0,0,0,0,0,-1,1847,435,0,0
630,589,0,0,0,0,0,0,0,0,0,-1,1854,435,0,0
637,589,0,0,0,0,0,0,0,0,0,-1,1861,435,0,0
644,589,0,0,0,0,0,0,0,0,0,-1,1868,435,0,0
651,589,0,0,0,0,0,0,0,0,0,-1,1875,435,0,0
658,589,0,0,0,0,0,0,0,0,0,-1,1882,435,0,0
665,589,0,0,0,0,0,0,0,0,0,-1,1889,435,0,0
672,589,0,0,0,0,0,0,0,0,0,-1,1896,435,0,0
679,589,0,0,0,0,0,0,0,0,0,-1,1903,435,0,0
686,589,0,0,0,0,0,0,0,0,0,-1,1910,435,0,0
693,589,0,0,0,0,0,0,0,0,0,-1,1917,435,0,0
700,589,0,0,0,0,0,0,0,0,0,-1,1924,435,0,0
707,589,0,0,0,0,0,0,0,0,0,-1,1931,435,0,0
714,589,0,0,0,0,0,0,0,0,0,-1,1938,435,0,0
721,589,0,0,0,0,0,0,0,0,0,-1,1945,435,0,0
728,589,0,0,0,0,0,0,0,0,0,-1,1952,435,0,0
735,589,0,0,0,0,0,0,0,0,0,-1,1959,435,0,0
742,589,0,0,0,0,0,0,0,0,0,-1,1966,435,0,0
749,589,0,0,0,0,0,0,0,0,0,-1,1973,435,0,0
756,589,0,0,0,0,0,0,0,0,0,-1,1980,435,0,0
763,589,0,0,0,0,0,0,0,0,0,-1,1987,435,0,0
770,589,0,0,0,0,0,0,0,0,0,-1,1994,435,0,0
777,589,0,0,0,0,0,0,0,0,0,-1,2001,435,0,0
784,589,0,0,0,0,0,0,0,0,0,-1,2008,435,0,0
791,589,0,0,0,0,0,0,0,0,0,-1,2015,435,0,0
798,589,0,0,0,0,0,0,0,0,0,-1,2022,435,0,0
805,589,0,0,0,0,0,0,0,0,0,-1,2029,435,0,0
812,589,0,0,0,0,0,0,0,0,0,-1,2036,435,0,0
-700,582,0,0,0,0,0,0,0,0,0,-1,524,442,0,0
-693,582,0,0,0,0,0,0,0,0,0,-1,531,442,0,0
-686,582,0,0,0,0,0,0,0,0,0,-1,538,442,0,0
-679,582,0,0,0,0,0,0,0,0,0,-1,545,442,0,0
-672,582,0,0,0,0,0,0,0,0,0,-1,552,442,0,0
-665,582,0,0,0,0,0,0,0,0,0,-1,559,442,0,0
-658,582,0,0,0,0,0,0,0,0,0,-1,566,442,0,0
-651,582,0,0,0,0,0,0,0,0,0,-1,573,442,0,0
-644,582,0,0,0,0,0,0,0,0,0,-1,580,442,0,0
-637,582,0,0,0,0,0,0,0,0,0,-1,587,442,0,0
-630,582,0,0,0,0,0,0,0,0,0,-1,594,442,0,0
-623,582,0,0,0,0,0,0,0,0,0,-1,601,442,0,0
-616,582,0,0,0,0,0,0,0,0,0,-1,608,442,0,0
-609,582,0,0,0,0,0,0,0,0,0,-1,615,442,0,0
-602,582,0,0,0,0,0,0,0,0,0,-1,622,442,0,0
-595,582,0,0,0,0,0,0,0,0,0,-1,629,442,0,0
-588,582,0,0,0,0,0,0,0,0,0,-1,636,442,0,0
-581,582,0,0,0,0,0,0,0,0,0,-1,643,442,0,0
-574,582,0,0,0,0,0,0,0,0,0,-1,650,442,0,0
-567,582,0,0,0,0,0,0,0,0,0,-1,657,442,0,0
-560,582,0,0,0,0,0,0,0,0,0,-1,664,442,0,0
-553,582,0,0,0,0,0,0,0,0,0,-1,671,442,0,0
-546,582,0,0,0,0,0,0,0,0,0,-1,678,442,0,0
-539,582,0,0,0,0,0,0,0,0,0,-1,685,442,0,0
-532,582,0,0,0,0,0,0,0,0,0,-1,692,442,0,0
-525,582,0,0,0,0,0,0,0,0,0,-1,699,442,0,0
-518,582,0,0,0,0,0,0,0,0,0,-1,706,442,0,0
-511,582,0,0,0,0,0,0,0,0,0,-1,713,442,0,0
-504,582,0,0,0,0,0,0,0,0,0,-1,720,442,0,0
-497,582,0,0,0,0,0,0,0,0,0,-1,727,442,0,0
-490,582,0,0,0,0,0,0,0,0,0,-1,734,442,0,0
-483,582,0,0,0,0,0,0,0,0,0,-1,741,442,0,0
-476,582,0,0,0,0,0,0,0,0,0,-1,748,442,0,0
-469,582,0,0,0,0,0,0,0,0,0,-1,755,442,0,0
-462,582,0,0,0,0,0,0,0,0,0,-1,762,442,0,0
-455,582,0,0,0,0,0,0,0,0,0,-1,769,442,0,0
-448,582,0,0,0,0,0,0,0,0,0,-1,776,442,0,0
-441,582,0,0,0,0,0,0,0,0,0,-1,783,442,0,0
-434,582,0,0,0,0,0,0,0,0,0,-1,790,442,0,0
-427,582,0,0,0,0,0,0,0,0,0,-1,797,442,0,0
-420,582,0,0,0,0,0,0,0,0,0,-1,804,442,0,0
-413,582,0,0,0,0,0,0,0,0,0,-1,811,442,0,0
-406,582,0,0,0,0,0,0,0,0,0,-1,818,442,0,0
-399,582,0,0,0,0,0,0,0,0,0,-1,825,442,0,0
-392,582,0,0,0,0,0,0,0,0,0,-1,832,442,0,0
-385,582,0,0,0,0,0,0,0,0,0,-1,839,442,0,0
-378,582,0,0,0,0,0,0,0,0,0,-1,846,442,0,0
-371,582,0,0,0,0,0,0,0,0,0,-1,853,442,0,0
-364,582,0,0,0,0,0,0,0,0,0,-1,860,442,0,0
-357,582,6.4043,-4.18127,0,0,0,0,0,0,0,-1,867,442,6.40427,4.18126
-350,582,-1.12933,-15.713,0,0,0,0,0,0,0,-1,874,442,-1.12935,15.713
-343,582,-0.551086,-15.4312,0,0,0,0,0,0,0,-1,881,442,-0.5511,15.4311
-336,582,0.0556641,-4.78558,0,0,0,0,0,0,0,-1,888,442,0.0556634,4.78559
-329,582,2.28766,-7.90289,0,0,0,0,0,0,0,-1,895,442,2.28767,7.90291
-322,582,2.17072,-8.18729,-0.0200666,-0.004839,-0.00109348,-0.00476088,-0.0201447,-1.49947,0.0121576,0.0482567,902,442,2.17072,8.18729
-315,582,2.0744,-8.43469,-0.0175091,-0.00623651,-0.000891033,-0.00616652,-0.0175791,-1.4924,0.0102988,0.0465281,909,442,2.07439,8.4347
-308,582,1.84406,-8.9342,-0.0147975,-0.00670113,-0.000853844,-0.00661207,-0.0148865,-1.46686,0.00861259,0.0475086,916,442,1.84407,8.9342
-301,582,2.38239,-9.45297,0,0,0,0,0,0,0,-1,923,442,2.38238,9.45297
-294,582,1.93817,-9.12772,-0.00942606,-0.00608261,-0.000678657,-0.00595011,-0.00955857,-1.37798,0.00557357,0.042003,930,442,1.93819,9.12772
-287,582,1.75739,-9.3497,-0.00712687,-0.00518166,-0.000599759,-0.0050116,-0.00729692,-1.29451,0.00430978,0.031807,937,442,1.7574,9.34971
-280,582,1.8335,-9.46368,-0.00529102,-0.0035691,-0.000753052,-0.00328624,-0.00557389,-1.21148,0.00323526,0.0148936,944,442,1.83352,9.46368
-273,582,1.83417,-9.64902,-0.00374113,-0.00194608,-0.00112329,-0.00140578,-0.00428143,-1.12247,0.00251997,0.0099362,951,442,1.83416,9.64901
-266,582,1.81763,-9.85803,-0.00243785,-0.000590885,-0.0013284,0.000103492,-0.00313223,-1.08914,0.00212349,0.00925461,958,442,1.81761,9.85802
-259,582,1.80096,-10.0599,-0.0014768,0.000453779,-0.00135533,0.00115243,-0.00217545,-1.09484,0.00195138,0.00763764,965,442,1.80093,10.0599
-252,582,1.79791,-10.2693,-0.000818493,0.00142811,-0.00140204,0.00210134,-0.00149173,-1.12313,0.00208439,0.00764821,972,442,1.7979,10.2693
-245,582,1.79761,-10.4496,-0.00019808,0.00211988,-0.00160244,0.00293854,-0.00101674,-1.09848,0.00237173,0.0109473,979,442,1.79763,10.4496
-238,582,1.78076,-10.6174,0.000159989,0.00247109,-0.00163775,0.00331992,-0.000688841,-1.09263,0.00247505,0.0151329,986,442,1.78075,10.6174
-231,582,1.77722,-10.7924,0.00015255,0.00253611,-0.00159543,0.00333574,-0.000647083,-1.10619,0.00246796,0.0127231,993,442,1.77723,10.7924
-224,582,1.7666,-10.9902,0.000100072,0.00234903,-0.00151767,0.00311341,-0.000664303,-1.10423,0.00232884,0.0104463,1000,442,1.76662,10.9902
-217,582,1.76379,-11.1884,0.000172066,0.0017577,-0.00134326,0.00252466,-0.000594892,-1.052,0.0019125,0.0123809,1007,442,1.76379,11.1884
-210,582,1.79443,-11.331,0.00038445,0.00114949,-0.00104172,0.0018767,-0.000342761,-0.961355,0.00137965,0.0120418,1014,442,1.79446,11.331
-203,582,1.78625,-11.493,0.000725452,0.000456571,-0.000624054,0.00122938,-4.73593e-05,-0.679304,0.000835822,0.00959123,1021,442,1.78625,11.493
-196,582,1.78662,-11.6667,0.00111576,-0.000339857,-0.000292194,0.00117223,-0.00039632,-0.190887,0.000941809,0.0149575,1028,442,1.78663,11.6667
-189,582,1.75452,-11.8246,0.00148071,-0.00101744,-5.46511e-05,0.00148191,-0.00101863,-0.0218627,0.00145192,0.0208091,1035,442,1.75457,11.8246
-182,582,1.75598,-11.9656,0.00195257,-0.00161776,8.342e-05,0.00195452,-0.00161971,0.0233478,0.0020666,0.014415,1042,442,1.75599,11.9656
-175,582,1.79956,-12.0869,0.00244588,-0.00235514,0.000287485,0.00246303,-0.00237229,0.0595962,0.00279184,0.0128527,1049,442,1.79958,12.0869
-168,582,1.79858,-12.2501,0.0029508,-0.00313099,0.000392242,0.00297599,-0.00315618,0.0641403,0.00354092,0.0110684,1056,442,1.79857,12.2501
-161,582,1.78992,-12.3857,0.00349293,-0.00385946,0.000247686,0.00350126,-0.0038678,0.033637,0.00425628,0.0116246,1063,442,1.78991,12.3857
-154,582,1.78894,-12.5105,0.00396279,-0.00453123,0.000135172,0.00396494,-0.00453339,0.0159084,0.00491017,0.0109491,1070,442,1.7889,12.5105
-147,582,1.81299,-12.6402,0.00444122,-0.0049755,1.39023e-05,0.00444124,-0.00497552,0.00147634,0.00543969,0.0112718,1077,442,1.81304,12.6402
-140,582,1.83325,-12.7513,0.00491451,-0.00513485,-0.000188795,0.00491805,-0.0051384,-0.018778,0.00580656,0.0127442,1084,442,1.83326,12.7513
-133,582,1.85449,-12.8826,0.00526763,-0.00497043,-0.000589784,0.0053015,-0.0050043,-0.0573541,0.00595088,0.014542,1091,442,1.85454,12.8826
-126,582,1.87341,-12.9676,0.00556352,-0.00458791,-0.000902561,0.00564314,-0.00466753,-0.08799,0.00596175,0.0129137,1098,442,1.8734,12.9676
-119,582,1.87695,-13.0644,0.00577769,-0.00406177,-0.00121683,0.00592594,-0.00421002,-0.121235,0.00587988,0.0167396,1105,442,1.87701,13.0644
-112,582,1.84106,-13.2245,0.00592487,-0.00330135,-0.00150378,0.00616378,-0.00354026,-0.157558,0.00567047,0.0245664,1112,442,1.84105,13.2245
-105,582,1.79773,-13.3979,0.00586379,-0.00219792,-0.0018153,0.00625369,-0.00258783,-0.211573,0.00524887,0.0331313,1119,442,1.79773,13.3979
-98,582,1.83105,-13.5378,0.00562965,-0.000209888,-0.00204636,0.00627536,-0.000855597,-0.305652,0.00449599,0.0365035,1126,442,1.83108,13.5378
-91,582,1.89929,-13.5335,0.00555563,0.00224677,-0.00211383,0.00658549,0.00121691,-0.453356,0.00404615,0.0411951,1133,442,1.89926,13.5335
-84,582,2.07971,-13.6375,0,0,0,0,0,0,0,-1,1140,442,2.07973,13.6376
-77,582,2.30212,-11.4907,0,0,0,0,0,0,0,-1,1147,442,2.30207,11.4907
-70,582,1.49255,-6.36548,0,0,0,0,0,0,0,-1,1154,442,1.49251,6.36549
-63,582,-4.62915,-4.0347,0,0,0,0,0,0,0,-1,1161,442,-4.6292,4.03471
-56,582,-5.81714,-5.24149,0,0,0,0,0,0,0,-1,1168,442,-5.81718,5.24149
-49,582,-3.88672,-10.1064,0,0,0,0,0,0,0,-1,1175,442,-3.88678,10.1064
-42,582,-0.948975,1.13968,0,0,0,0,0,0,0,-1,1182,442,-0.949003,-1.13969
-35,582,-2.58435,-3.86911,0,0,0,0,0,0,0,-1,1189,442,-2.58437,3.86912
-28,582,-0.825317,-3.45941,0,0,0,0,0,0,0,-1,1196,442,-0.825377,3.45942
-21,582,3.1709,-13.8114,0,0,0,0,0,0,0,-1,1203,442,3.17091,13.8114
-14,582,3.34863,-14.0174,0,0,0,0,0,0,0,-1,1210,442,3.34869,14.0174
-7,582,2.56079,-13.6758,0,0,0,0,0,0,0,-1,1217,442,2.56077,13.6758
0,582,2.58374,-14.0131,0.0461641,-0.0156971,-0.0280055,0.0569589,-0.026492,-0.367904,0.0492391,0.049921,1224,442,2.58371,14.0131
7,582,2.58826,-14.2924,0.0411748,-0.00173217,-0.0300507,0.0566442,-0.0172016,-0.475399,0.044616,0.048145,1231,442,2.5883,14.2924
14,582,2.8064,-14.3939,0.0353186,0.00854394,-0.0294801,0.0543087,-0.0104462,-0.572264,0.0401435,0.0485618,1238,442,2.80643,14.3939
21,582,3.25403,-14.6703,0.0289154,0.0175296,-0.0282154,0.0520065,-0.00556143,-0.685852,0.0366657,0.0455166,1245,442,3.25405,14.6703
28,582,2.01282,-14.313,0,0,0,0,0,0,0,-1,1252,442,2.01285,14.313
35,582,4.58923,-15.5499,0.016123,0.0295161,-0.0227464,0.0465312,-0.000892168,-0.928554,0.0313224,0.0487376,1259,442,4.5892,15.5499
42,582,5.13257,-15.982,0.0108909,0.0309443,-0.0190557,0.0424502,-0.000615029,-1.02758,0.0285074,0.0479022,1266,442,5.13262,15.982
49,582,2.0741,-13.0322,0.00705997,0.0288347,-0.0159859,0.0372886,-0.00139394,-1.08435,0.0253365,0.0463064,1273,442,2.07409,13.0322
56,582,2.1134,-14.4834,0,0,0,0,0,0,0,-1,1280,442,2.1134,14.4834
63,582,2.16125,-14.291,0.00262803,0.0158848,-0.00761572,0.0193527,-0.000839853,-1.14349,0.0131907,0.0459839,1287,442,2.16126,14.291
70,582,2.31018,-14.0879,0.00212431,0.00486803,-0.00352482,0.00727854,-0.000286213,-0.970979,0.00495053,0.0449368,1294,442,2.31018,14.0879
77,582,2.45654,-13.8866,0.0030211,-0.00584567,0.000385849,0.00303786,-0.00586243,0.0434069,0.00522412,0.0445566,1301,442,2.45655,13.8866
84,582,2.54785,-13.6742,0,0,0,0,0,0,0,-1,1308,442,2.54788,13.6742
91,582,2.30469,-14.2854,0.00338936,-0.0262187,0.00702966,0.0049736,-0.0278029,0.221662,0.0203963,0.0453469,1315,442,2.30468,14.2854
98,582,2.60461,-14.6087,0.00471957,-0.0343975,0.00827916,0.0063997,-0.0360776,0.200216,0.0264444,0.0489785,1322,442,2.60465,14.6087
105,582,2.91785,-14.976,0,0,0,0,0,0,0,-1,1329,442,2.91785,14.976
112,582,3.67493,-12.5484,0,0,0,0,0,0,0,-1,1336,442,3.67488,12.5484
119,582,3.9834,-13.5787,0,0,0,0,0,0,0,-1,1343,442,3.9834,13.5787
126,582,3.78857,-13.3357,0,0,0,0,0,0,0,-1,1350,442,3.78862,13.3357
133,582,3.64136,-13.2678,0.00349668,-0.0554081,0.0130676,0.00626547,-0.0581769,0.208795,0.0410328,0.0448959,1357,442,3.64138,13.2678
140,582,3.37048,-13.3539,0.00352573,-0.0566095,0.0129545,0.00619772,-0.0592815,0.203406,0.0417406,0.0438509,1364,442,3.37045,13.3539
147,582,3.0741,-13.4579,0.00386629,-0.0576377,0.0126532,0.00636769,-0.0601391,0.195173,0.0423751,0.04937,1371,442,3.07407,13.458
154,582,2.64136,-13.9977,0.00462096,-0.058744,0.012343,0.00694039,-0.0610634,0.185748,0.0432086,0.0467195,1378,442,2.64136,13.9977
161,582,2.90686,-13.6036,0,0,0,0,0,0,0,-1,1385,442,2.90688,13.6036
168,582,20.7839,-13.2389,0,0,0,0,0,0,0,-1,1392,442,20.7839,13.2389
175,582,6.50549,-2.00424,0,0,0,0,0,0,0,-1,1399,442,6.50546,2.00425
182,582,5.18958,-2.18652,0,0,0,0,0,0,0,-1,1406,442,5.1896,2.18652
189,582,6.19751,-0.880951,0,0,0,0,0,0,0,-1,1413,442,6.19754,0.88096
196,582,4.87354,-2.22327,0,0,0,0,0,0,0,-1,1420,442,4.87348,2.22325
203,582,3.11401,-4.48257,0,0,0,0,0,0,0,-1,1427,442,3.11404,4.48259
210,582,2.93115,-11.0731,0,0,0,0,0,0,0,-1,1434,442,2.93113,11.0731
217,582,3.52246,-12.7624,0,0,0,0,0,0,0,-1,1441,442,3.52247,12.7624
224,582,3.51025,-12.5838,0.00210489,-0.00302249,-0.00437757,0.00461423,-0.00553183,-0.5205,0.00586581,0.0416041,1448,442,3.51026,12.5838
231,582,3.50732,-12.6371,0.00211923,-0.00115331,-0.0034811,0.00432944,-0.00336352,-0.565699,0.00445319,0.0445501,1455,442,3.5073,12.6371
238,582,3.49695,-12.7051,0.00234256,0.000284447,-0.00278116,0.00427894,-0.00165194,-0.608204,0.00353439,0.0440189,1462,442,3.49699,12.7051
245,582,3.54517,-12.7679,0.00253925,0.00157105,-0.00219121,0.0042992,-0.000188892,-0.676681,0.00293113,0.0435017,1469,442,3.54512,12.7679
252,582,3.62854,-12.4962,0.00241478,0.002346,-0.00167942,0.00406016,0.000700619,-0.775162,0.00250609,0.0284231,1476,442,3.62851,12.4962
259,582,3.57568,-12.2995,0.00217962,0.00262203,-0.0013225,0.0037417,0.00105995,-0.868263,0.00222688,0.0210327,1483,442,3.57573,12.2995
266,582,3.5752,-12.1613,0.00203773,0.00259789,-0.00112211,0.00347435,0.00116128,-0.907701,0.00204233,0.0162938,1490,442,3.57519,12.1613
273,582,3.62439,-11.9641,0.00183639,0.00260411,-0.000924888,0.00322163,0.00121887,-0.982099,0.00187827,0.0145372,1497,442,3.6244,11.9641
280,582,3.61658,-11.8001,0.00156765,0.00260998,-0.000746925,0.00299959,0.00117804,-1.09,0.00174505,0.0126486,1504,442,3.61663,11.8001
287,582,3.64648,-11.6358,0.00136696,0.00222814,-0.000655454,0.00258178,0.00101331,-1.07601,0.00150204,0.0107643,1511,442,3.64648,11.6358
294,582,3.66748,-11.4717,0.00115088,0.00170253,-0.000586736,0.00207504,0.000778367,-1.00512,0.00121042,0.00878908,1518,442,3.66748,11.4717
301,582,3.67847,-11.2814,0.000921823,0.00114345,-0.000540676,0.00158455,0.000480723,-0.886477,0.000938124,0.00977127,1525,442,3.67844,11.2814
308,582,3.6825,-11.106,0.00073294,0.000854406,-0.000483376,0.00128085,0.000306496,-0.847892,0.000772281,0.0126856,1532,442,3.68254,11.106
315,582,3.67334,-10.946,0.00062169,0.000772995,-0.000356149,0.00106144,0.000333247,-0.890051,0.000626802,0.0131532,1539,442,3.67333,10.9459
322,582,3.67358,-10.7913,0.000521999,0.000773703,-0.000187446,0.000873627,0.000422075,-1.08104,0.000504485,0.0100311,1546,442,3.67362,10.7913
329,582,3.68103,-10.601,0.000429589,0.000809081,-2.25273e-05,0.000810414,0.000428256,-1.51171,0.000468145,0.0101742,1553,442,3.68098,10.601
336,582,3.66626,-10.3934,0.000332963,0.000891171,0.000171326,0.00093956,0.000284574,1.29553,0.000556329,0.0111047,1560,442,3.66622,10.3934
343,582,3.66272,-10.1815,0.000201264,0.000991598,0.000388134,0.00115033,4.25314e-05,1.18259,0.000753111,0.0135945,1567,442,3.66269,10.1816
350,582,3.64734,-10.0034,8.78603e-05,0.00113138,0.000591417,0.00139829,-0.000179055,1.14685,0.000997254,0.0163516,1574,442,3.6473,10.0034
357,582,3.66809,-9.79355,-2.71809e-05,0.00127107,0.00079006,0.00164447,-0.000400581,1.12929,0.0012514,0.0129297,1581,442,3.66807,9.79355
364,582,3.67468,-9.60028,-0.000162541,0.0014962,0.000991169,0.00195922,-0.000625559,1.13378,0.00155713,0.00989009,1588,442,3.67473,9.60027
371,582,3.67798,-9.41953,-0.000296487,0.00166765,0.00116931,0.00221259,-0.000841426,1.13469,0.00182151,0.0135502,1595,442,3.67794,9.41951
378,582,3.67664,-9.21716,-0.000525504,0.00181397,0.00129143,0.00238666,-0.0010982,1.1534,0.00205732,0.0158243,1602,442,3.67658,9.21716
385,582,3.6665,-8.98923,-0.000811235,0.00182266,0.00122068,0.00230137,-0.00128995,1.19706,0.00210068,0.0114695,1609,442,3.6665,8.98921
392,582,3.63269,-8.75504,-0.000878987,0.00164962,0.00115725,0.00209929,-0.00132865,1.20019,0.00199573,0.00963202,1616,442,3.63271,8.75504
399,582,3.60474,-8.55792,-0.000866459,0.00155388,0.00121392,0.0020578,-0.00137038,1.17732,0.00199248,0.0134854,1623,442,3.60479,8.55793
406,582,3.61768,-8.28152,-0.00094072,0.00149397,0.00116147,0.00195917,-0.00140592,1.18984,0.00195157,0.0217937,1630,442,3.61771,8.28152
413,582,3.61475,-8.00024,-0.00113028,0.00122014,0.000848637,0.00149452,-0.00140466,1.25809,0.00167411,0.0413318,1637,442,3.61471,8.00023
420,582,3.65125,-7.65118,0,0,0,0,0,0,0,-1,1644,442,3.65126,7.65117
427,582,3.5072,-7.6189,0,0,0,0,0,0,0,-1,1651,442,3.50721,7.61889
434,582,3.24097,-7.50543,0,0,0,0,0,0,0,-1,1658,442,3.241,7.50542
441,582,3.37769,-7.37085,0,0,0,0,0,0,0,-1,1665,442,3.37769,7.37084
448,582,1.52722,-2.85928,0,0,0,0,0,0,0,-1,1672,442,1.52724,2.85927
455,582,3.6698,-4.4032,0,0,0,0,0,0,0,-1,1679,442,3.66983,4.40319
462,582,1.38074,-3.94418,0,0,0,0,0,0,0,-1,1686,442,1.38074,3.94419
469,582,4.39624,-6.42285,0,0,0,0,0,0,0,-1,1693,442,4.39622,6.42284
476,582,3.36755,-4.74088,0,0,0,0,0,0,0,-1,1700,442,3.36753,4.74087
483,582,0,0,0,0,0,0,0,0,0,-1,1707,442,0,0
490,582,0,0,0,0,0,0,0,0,0,-1,1714,442,0,0
497,582,0,0,0,0,0,0,0,0,0,-1,1721,442,0,0
504,582,0,0,0,0,0,0,0,0,0,-1,1728,442,0,0
511,582,0,0,0,0,0,0,0,0,0,-1,1735,442,0,0
518,582,0,0,0,0,0,0,0,0,0,-1,1742,442,0,0
525,582,0,0,0,0,0,0,0,0,0,-1,1749,442,0,0
532,582,0,0,0,0,0,0,0,0,0,-1,1756,442,0,0
539,582,0,0,0,0,0,0,0,0,0,-1,1763,442,0,0
546,582,0,0,0,0,0,0,0,0,0,-1,1770,442,0,0
553,582,0,0,0,0,0,0,0,0,0,-1,1777,442,0,0
560,582,0,0,0,0,0,0,0,0,0,-1,1784,442,0,0
567,582,0,0,0,0,0,0,0,0,0,-1,1791,442,0,0
574,582,0,0,0,0,0,0,0,0,0,-1,1798,442,0,0
581,582,0,0,0,0,0,0,0,0,0,-1,1805,442,0,0
588,582,0,0,0,0,0,0,0,0,0,-1,1812,442,0,0
595,582,0,0,0,0,0,0,0,0,0,-1,1819,442,0,0
602,582,0,0,0,0,0,0,0,0,0,-1,1826,442,0,0
609,582,0,0,0,0,0,0,0,0,0,-1,1833,442,0,0
616,582,0,0,0,0,0,0,0,0,0,-1,1840,442,0,0
623,582,0,0,0,0,0,0,0,0,0,-1,1847,442,0,0
630,582,0,0,0,0,0,0,0,0,0,-1,1854,442,0,0
637,582,0,0,0,0,0,0,0,0,0,-1,1861,442,0,0
644,582,0,0,0,0,0,0,0,0,0,-1,1868,442,0,0
651,582,0,0,0,0,0,0,0,0,0,-1,1875,442,0,0
658,582,0,0,0,0,0,0,0,0,0,-1,1882,442,0,0
665,582,0,0,0,0,0,0,0,0,0,-1,1889,442,0,0
672,582,0,0,0,0,0,0,0,0,0,-1,1896,442,0,0
679,582,0,0,0,0,0,0,0,0,0,-1,1903,442,0,0
686,582,0,0,0,0,0,0,0,0,0,-1,1910,442,0,0
693,582,0,0,0,0,0,0,0,0,0,-1,1917,442,0,0
700,582,0,0,0,0,0,0,0,0,0,-1,1924,442,0,0
707,582,0,0,0,0,0,0,0,0,0,-1,1931,442,0,0
714,582,0,0,0,0,0,0,0,0,0,-1,1938,442,0,0
721,582,0,0,0,0,0,0,0,0,0,-1,1945,442,0,0
728,582,0,0,0,0,0,0,0,0,0,-1,1952,442,0,0
735,582,0,0,0,0,0,0,0,0,0,-1,1959,442,0,0
742,582,0,0,0,0,0,0,0,0,0,-1,1966,442,0,0
749,582,0,0,0,0,0,0,0,0,0,-1,1973,442,0,0
756,582,0,0,0,0,0,0,0,0,0,-1,1980,442,0,0
763,582,0,0,0,0,0,0,0,0,0,-1,1987,442,0,0
770,582,0,0,0,0,0,0,0,0,0,-1,1994,442,0,0
777,582,0,0,0,0,0,0,0,0,0,-1,2001,442,0,0
784,582,0,0,0,0,0,0,0,0,0,-1,2008,442,0,0
791,582,0,0,0,0,0,0,0,0,0,-1,2015,442,0,0
798,582,0,0,0,0,0,0,0,0,0,-1,2022,442,0,0
805,582,0,0,0,0,0,0,0,0,0,-1,2029,442,0,0
812,582,0,0,0,0,0,0,0,0,0,-1,2036,442,0,0
-700,575,0,0,0,0,0,0,0,0,0,-1,524,449,0,0
-693,575,0,0,0,0,0,0,0,0,0,-1,531,449,0,0
-686,575,0,0,0,0,0,0,0,0,0,-1,538,449,0,0
-679,575,0,0,0,0,0,0,0,0,0,-1,545,449,0,0
-672,575,0,0,0,0,0,0,0,0,0,-1,552,449,0,0
-665,575,0,0,0,0,0,0,0,0,0,-1,559,449,0,0
-658,575,0,0,0,0,0,0,0,0,0,-1,566,449,0,0
-651,575,0,0,0,0,0,0,0,0,0,-1,573,449,0,0
-644,575,0,0,0,0,0,0,0,0,0,-1,580,449,0,0
-637,575,0,0,0,0,0,0,0,0,0,-1,587,449,0,0
-630,575,0,0,0,0,0,0,0,0,0,-1,594,449,0,0
-623,575,0,0,0,0,0,0,0,0,0,-1,601,449,0,0
-616,575,0,0,0,0,0,0,0,0,0,-1,608,449,0,0
-609,575,0,0,0,0,0,0,0,0,0,-1,615,449,0,0
-602,575,0,0,0,0,0,0,0,0,0,-1,622,449,0,0
-595,575,0,0,0,0,0,0,0,0,0,-1,629,449,0,0
-588,575,0,0,0,0,0,0,0,0,0,-1,636,449,0,0
-581,575,0,0,0,0,0,0,0,0,0,-1,643,449,0,0
-574,575,0,0,0,0,0,0,0,0,0,-1,650,449,0,0
-567,575,0,0,0,0,0,0,0,0,0,-1,657,449,0,0
-560,575,0,0,0,0,0,0,0,0,0,-1,664,449,0,0
-553,575,0,0,0,0,0,0,0,0,0,-1,671,449,0,0
-546,575,0,0,0,0,0,0,0,0,0,-1,678,449,0,0
-539,575,0,0,0,0,0,0,0,0,0,-1,685,449,0,0
-532,575,0,0,0,0,0,0,0,0,0,-1,692,449,0,0
-525,575,0,0,0,0,0,0,0,0,0,-1,699,449,0,0
-518,575,0,0,0,0,0,0,0,0,0,-1,706,449,0,0
-511,575,0,0,0,0,0,0,0,0,0,-1,713,449,0,0
-504,575,0,0,0,0,0,0,0,0,0,-1,720,449,0,0
-497,575,0,0,0,0,0,0,0,0,0,-1,727,449,0,0
-490,575,0,0,0,0,0,0,0,0,0,-1,734,449,0,0
-483,575,0,0,0,0,0,0,0,0,0,-1,741,449,0,0
-476,575,0,0,0,0,0,0,0,0,0,-1,748,449,0,0
-469,575,0,0,0,0,0,0,0,0,0,-1,755,449,0,0
-462,575,0,0,0,0,0,0,0,0,0,-1,762,449,0,0
-455,575,0,0,0,0,0,0,0,0,0,-1,769,449,0,0
-448,575,0,0,0,0,0,0,0,0,0,-1,776,449,0,0
-441,575,0,0,0,0,0,0,0,0,0,-1,783,449,0,0
-434,575,0,0,0,0,0,0,0,0,0,-1,790,449,0,0
-427,575,0,0,0,0,0,0,0,0,0,-1,797,449,0,0
-420,575,0,0,0,0,0,0,0,0,0,-1,804,449,0,0
-413,575,0,0,0,0,0,0,0,0,0,-1,811,449,0,0
-406,575,0,0,0,0,0,0,0,0,0,-1,818,449,0,0
-399,575,0,0,0,0,0,0,0,0,0,-1,825,449,0,0
-392,575,0,0,0,0,0,0,0,0,0,-1,832,449,0,0
-385,575,0,0,0,0,0,0,0,0,0,-1,839,449,0,0
-378,575,0,0,0,0,0,0,0,0,0,-1,846,449,0,0
-371,575,0.56897,-3.52304,0,0,0,0,0,0,0,-1,853,449,0.568955,3.52306
-364,575,1.49805,-4.67191,0,0,0,0,0,0,0,-1,860,449,1.49803,4.6719
-357,575,2.87567,-6.9155,0,0,0,0,0,0,0,-1,867,449,2.87569,6.91548
-350,575,2.76715,-7.23752,0,0,0,0,0,0,0,-1,874,449,2.76717,7.2375
-343,575,0.124512,-6.51617,0,0,0,0,0,0,0,-1,881,449,0.124497,6.51618
-336,575,2.29706,-7.61377,0,0,0,0,0,0,0,-1,888,449,2.29708,7.61378
-329,575,2.19397,-7.91415,-0.017517,-0.00198125,-0.000163923,-0.00197952,-0.0175187,-1.56025,0.0110784,0.0497212,895,449,2.19394,7.91417
-322,575,2.11066,-8.19614,-0.0156663,-0.00348708,-0.00030289,-0.00347956,-0.0156738,-1.54595,0.00950411,0.0474902,902,449,2.11063,8.19612
-315,575,2.01215,-8.43228,-0.0137326,-0.00443025,-0.000312499,-0.00441977,-0.0137431,-1.53725,0.00810119,0.045626,909,449,2.01214,8.43229
-308,575,1.68561,-8.90408,-0.0116396,-0.00480186,-0.000434415,-0.00477437,-0.0116671,-1.5076,0.0067729,0.0423965,916,449,1.68561,8.90407
-301,575,1.75018,-8.89844,-0.0095149,-0.00480277,-0.000479733,-0.00475443,-0.00956324,-1.47036,0.00552137,0.0305032,923,449,1.75019,8.89842
-294,575,1.703,-9.07263,-0.0075024,-0.00445644,-0.000459327,-0.00438868,-0.00757016,-1.42434,0.00438912,0.0229617,930,449,1.703,9.07265
-287,575,1.65863,-9.27493,-0.00571254,-0.0038647,-0.000431671,-0.00376883,-0.00580841,-1.35226,0.00340267,0.0161808,937,449,1.6586,9.27492
-280,575,1.65515,-9.47906,-0.00420868,-0.00286292,-0.000541795,-0.00267191,-0.00439969,-1.23185,0.00255958,0.0118007,944,449,1.65514,9.47907
-273,575,1.64435,-9.67276,-0.00293428,-0.00183126,-0.000810922,-0.00140208,-0.00336346,-1.08402,0.00195082,0.0104346,951,449,1.64434,9.67277
-266,575,1.64014,-9.86523,-0.00185821,-0.000918736,-0.000944078,-0.000333991,-0.00244296,-1.01625,0.00152951,0.0115836,958,449,1.64013,9.86525
-259,575,1.62732,-10.0721,-0.00099191,-0.000177149,-0.00094031,0.000440235,-0.00160929,-0.989813,0.00124581,0.011433,965,449,1.62731,10.0721
-252,575,1.61798,-10.2843,-0.000372722,0.000526321,-0.000948273,0.00112622,-0.000972624,-1.00673,0.00121285,0.010831,972,449,1.618,10.2843
-245,575,1.61432,-10.4595,0.000164877,0.000921656,-0.00106901,0.00167727,-0.000590739,-0.955498,0.0013586,0.0134699,979,449,1.61433,10.4595
-238,575,1.59741,-10.6214,0.000518363,0.00101366,-0.00104744,0.00184233,-0.000310304,-0.901483,0.00134365,0.0133239,986,449,1.59742,10.6214
-231,575,1.59595,-10.8003,0.000576554,0.00086201,-0.000963454,0.00169325,-0.000254687,-0.858934,0.0012226,0.0117196,993,449,1.59598,10.8003
-224,575,1.5957,-10.9741,0.00058511,0.000552968,-0.000840209,0.0014094,-0.000271324,-0.775836,0.00104189,0.0123056,1000,449,1.59569,10.9741
-217,575,1.61902,-11.1562,0.000667986,1.0576e-06,-0.000630942,0.00104816,-0.000379121,-0.542298,0.000853688,0.0109587,1007,449,1.61903,11.1561
-210,575,1.64496,-11.3277,0.000883549,-0.000503497,-0.000303107,0.000946893,-0.000566842,-0.206018,0.000883089,0.00909116,1014,449,1.64496,11.3277
-203,575,1.62616,-11.49,0.00128313,-0.00116658,0.000110584,0.00128811,-0.00117157,0.0450195,0.00142062,0.0118676,1021,449,1.62617,11.49
-196,575,1.63684,-11.6661,0.00177099,-0.00201539,0.000436376,0.00182063,-0.00206503,0.11327,0.00224487,0.0150461,1028,449,1.63682,11.6661
-189,575,1.65063,-11.8265,0.00222213,-0.00268416,0.000665041,0.00231068,-0.00277271,0.132367,0.00293893,0.0152817,1035,449,1.65065,11.8265
-182,575,1.62366,-11.9525,0.00282334,-0.00323767,0.000764695,0.00291833,-0.00333266,0.123587,0.00361165,0.0127822,1042,449,1.6237,11.9525
-175,575,1.64368,-12.1037,0.00344705,-0.00393284,0.000923557,0.00356087,-0.00404666,0.122626,0.0043952,0.011336,1049,449,1.64367,12.1037
-168,575,1.64514,-12.242,0.00415307,-0.00472765,0.000958248,0.00425529,-0.00482987,0.106272,0.00524882,0.0105714,1056,449,1.64519,12.242
-161,575,1.65063,-12.3752,0.00494357,-0.00559738,0.00070652,0.00499071,-0.00564452,0.0666291,0.00614412,0.0139307,1063,449,1.65061,12.3752
-154,575,1.67126,-12.492,0.00558599,-0.00647783,0.000489997,0.00560586,-0.0064977,0.0405281,0.00699431,0.0162037,1070,449,1.67126,12.492
-147,575,1.71814,-12.5747,0.00625289,-0.0070703,0.000239371,0.00625719,-0.0070746,0.0179588,0.00770193,0.016667,1077,449,1.71812,12.5747
-140,575,1.67175,-12.6727,0.00691983,-0.0071989,-0.000129218,0.00692101,-0.00720008,-0.00915124,0.00815335,0.0266176,1084,449,1.67174,12.6727
-133,575,1.74438,-12.8495,0.00739187,-0.00697069,-0.000725304,0.00742841,-0.00700722,-0.050329,0.0083356,0.0346539,1091,449,1.74439,12.8495
-126,575,1.76855,-12.8619,0.00777467,-0.00658411,-0.00115345,0.00786673,-0.00667617,-0.07965,0.00840572,0.0402228,1098,449,1.76857,12.8619
-119,575,1.78271,-12.9005,0.0079756,-0.00599689,-0.00157534,0.00815101,-0.0061723,-0.110891,0.00829583,0.0411319,1105,449,1.78266,12.9004
-112,575,1.91809,-13.135,0.00805852,-0.00510013,-0.00197772,0.00834934,-0.00539095,-0.146002,0.00799402,0.0449771,1112,449,1.91805,13.135
-105,575,1.9071,-13.3964,0,0,0,0,0,0,0,-1,1119,449,1.90707,13.3964
-98,575,1.71411,-13.7796,0,0,0,0,0,0,0,-1,1126,449,1.71415,13.7796
-91,575,1.68579,-13.7398,0,0,0,0,0,0,0,-1,1133,449,1.68583,13.7398
-84,575,1.16553,-11.9056,0,0,0,0,0,0,0,-1,1140,449,1.16558,11.9056
-77,575,0.205078,-11.2584,0,0,0,0,0,0,0,-1,1147,449,0.205117,11.2584
-70,575,-4.2467,-1.78738,0,0,0,0,0,0,0,-1,1154,449,-4.24674,1.78739
-63,575,-4.52209,-3.48798,0,0,0,0,0,0,0,-1,1161,449,-4.5221,3.48796
-56,575,-5.5968,-5.4928,0,0,0,0,0,0,0,-1,1168,449,-5.59683,5.49281
-49,575,-5.96863,-7.17612,0,0,0,0,0,0,0,-1,1175,449,-5.96868,7.1761
-42,575,-0.830322,0.773499,0,0,0,0,0,0,0,-1,1182,449,-0.83038,-0.77351
-35,575,-0.62085,0.205139,0,0,0,0,0,0,0,-1,1189,449,-0.620855,-0.205126
-28,575,0.49292,-3.87988,0,0,0,0,0,0,0,-1,1196,449,0.492941,3.87989
-21,575,1.146,-12.8181,0,0,0,0,0,0,0,-1,1203,449,1.14602,12.8181
-14,575,3.88623,-13.8727,0,0,0,0,0,0,0,-1,1210,449,3.88622,13.8727
-7,575,1.64001,-12.5903,0,0,0,0,0,0,0,-1,1217,449,1.64001,12.5903
0,575,2.15686,-13.209,0.060858,-0.0216261,-0.0366292,0.0747757,-0.0355439,-0.363115,0.0650217,0.0444541,1224,449,2.15688,13.209
7,575,2.68359,-13.8279,0.0547279,-0.00290376,-0.0401833,0.0753595,-0.0235354,-0.47434,0.059653,0.0433328,1231,449,2.68353,13.8278
14,575,3.26233,-14.4109,0.0471475,0.0118408,-0.040312,0.0735021,-0.0145138,-0.579018,0.0544875,0.046142,1238,449,3.26229,14.4108
21,575,3.75635,-14.7822,0.0387714,0.0245887,-0.0393868,0.0717001,-0.00834005,-0.696331,0.0508088,0.0430746,1245,449,3.75629,14.7822
28,575,4.23792,-15.1202,0.0302953,0.0347115,-0.0369765,0.0695457,-0.00453898,-0.815221,0.0479485,0.0431022,1252,449,4.2379,15.1202
35,575,4.81995,-15.596,0.0224174,0.0415251,-0.0335672,0.0668716,-0.00292902,-0.924041,0.0455888,0.0443935,1259,449,4.8199,15.596
42,575,2.39929,-12.3475,0.0156689,0.0440289,-0.0291941,0.0623045,-0.00260675,-1.01147,0.042432,0.0452696,1266,449,2.39933,12.3475
49,575,2.16382,-12.9656,0.0105763,0.0421217,-0.0253897,0.0562391,-0.00354109,-1.06334,0.0387271,0.043658,1273,449,2.16386,12.9656
56,575,1.92285,-13.5324,0.00648257,0.0370439,-0.0203594,0.0472191,-0.00369265,-1.10732,0.0327797,0.0430608,1280,449,1.92287,13.5324
63,575,1.95447,-13.9155,0.00379127,0.0258083,-0.0139576,0.0325762,-0.00297664,-1.11931,0.0227746,0.045184,1287,449,1.95443,13.9155
70,575,2.14624,-13.728,0,0,0,0,0,0,0,-1,1294,449,2.14628,13.728
77,575,2.29041,-13.4585,0.00290017,-0.00204305,-0.00220354,0.00373981,-0.0028827,-0.364061,0.00383417,0.045864,1301,449,2.29041,13.4585
84,575,2.36011,-13.141,0.00295184,-0.0151474,0.00323484,0.00351263,-0.0157082,0.171651,0.0118183,0.0469454,1308,449,2.3601,13.141
91,575,2.29333,-12.9977,0.00288188,-0.0279916,0.00794997,0.00480875,-0.0299185,0.237789,0.0217267,0.0463263,1315,449,2.29338,12.9977
98,575,1.95544,-12.6925,0.00455666,-0.0387255,0.0103529,0.00690554,-0.0410744,0.223106,0.0299513,0.043622,1322,449,1.95543,12.6925
105,575,3.17725,-12.761,0.00695936,-0.0497211,0.0132034,0.00988412,-0.0526459,0.217995,0.0388138,0.0457428,1329,449,3.1773,12.761
112,575,3.26245,-12.5398,0.00694861,-0.0603916,0.0167468,0.0108834,-0.0643264,0.230774,0.0469346,0.0453676,1336,449,3.26244,12.5398
119,575,2.82605,-12.492,0.00568231,-0.0629322,0.0175605,0.0099154,-0.0671653,0.236545,0.0484216,0.0418524,1343,449,2.82605,12.492
126,575,3.74927,-13.1933,0,0,0,0,0,0,0,-1,1350,449,3.74926,13.1933
133,575,3.50635,-12.6872,0.00472023,-0.0673681,0.0187352,0.00929858,-0.0719464,0.239675,0.0513452,0.0452455,1357,449,3.50636,12.6872
140,575,3.3811,-12.8517,0.00511037,-0.0694625,0.0187303,0.00955045,-0.0739026,0.232757,0.0527409,0.0449307,1364,449,3.3811,12.8517
147,575,3.95044,-12.8959,0.00585874,-0.0716807,0.018466,0.0100318,-0.0758538,0.222254,0.0542234,0.047506,1371,449,3.95041,12.8959
154,575,4.06885,-12.9941,0.00710344,-0.0743033,0.0178891,0.0108611,-0.078061,0.207043,0.0560131,0.0487523,1378,449,4.06882,12.9941
161,575,4.10669,-13.1562,0,0,0,0,0,0,0,-1,1385,449,4.10674,13.1562
168,575,9.2522,-0.307129,0,0,0,0,0,0,0,-1,1392,449,9.25225,0.307127
175,575,4.32617,1.93634,0,0,0,0,0,0,0,-1,1399,449,4.32612,-1.93634
182,575,6.3147,-2.88345,0,0,0,0,0,0,0,-1,1406,449,6.31466,2.88346
189,575,6.10449,-1.30817,0,0,0,0,0,0,0,-1,1413,449,6.10455,1.30817
196,575,5.79895,0.818359,0,0,0,0,0,0,0,-1,1420,449,5.79895,-0.81837
203,575,3.29724,-1.46378,0,0,0,0,0,0,0,-1,1427,449,3.29722,1.46377
210,575,2.32739,-7.74503,0,0,0,0,0,0,0,-1,1434,449,2.32741,7.74502
217,575,3.33618,-11.5521,0,0,0,0,0,0,0,-1,1441,449,3.3362,11.5521
224,575,3.65833,-12.3088,0,0,0,0,0,0,0,-1,1448,449,3.65837,12.3088
231,575,3.63721,-12.6121,0,0,0,0,0,0,0,-1,1455,449,3.63726,12.6121
238,575,3.81519,-12.8592,0,0,0,0,0,0,0,-1,1462,449,3.81516,12.8592
245,575,3.83594,-13.2262,0,0,0,0,0,0,0,-1,1469,449,3.83595,13.2262
252,575,3.802,-12.8221,0,0,0,0,0,0,0,-1,1476,449,3.802,12.8221
259,575,3.71631,-12.5433,0,0,0,0,0,0,0,-1,1483,449,3.71629,12.5433
266,575,3.49219,-12.4324,0,0,0,0,0,0,0,-1,1490,449,3.49219,12.4324
273,575,3.80225,-12.0502,0.0022657,0.00316698,-0.0012392,0.00403494,0.00139774,-0.959792,0.00236593,0.0454583,1497,449,3.8023,12.0502
280,575,3.84985,-11.7403,0.00190471,0.00312928,-0.00106227,0.00374309,0.0012909,-1.04684,0.00219547,0.0293132,1504,449,3.8499,11.7403
287,575,3.78406,-11.6582,0.0016403,0.00257953,-0.00102807,0.00324016,0.000979666,-0.999642,0.00191881,0.0150964,1511,449,3.78404,11.6582
294,575,3.83557,-11.4766,0.00137454,0.00186611,-0.00102399,0.0026734,0.000567251,-0.903183,0.00162649,0.0100782,1518,449,3.8356,11.4766
301,575,3.85571,-11.2969,0.00109783,0.00114512,-0.00105186,0.0021736,6.93531e-05,-0.796636,0.00142651,0.0099004,1525,449,3.85573,11.2969
308,575,3.86316,-11.1155,0.000822023,0.000692985,-0.00110163,0.00186102,-0.000346016,-0.756148,0.00137066,0.0108682,1532,449,3.86314,11.1155
315,575,3.84595,-10.9573,0.000662183,0.000517105,-0.00104085,0.00163302,-0.00045373,-0.750609,0.00126729,0.0109008,1539,449,3.84599,10.9573
322,575,3.8606,-10.7754,0.000533665,0.000436893,-0.000910884,0.00139745,-0.000426889,-0.758863,0.00110185,0.00943635,1546,449,3.86061,10.7754
329,575,3.86096,-10.5932,0.000411133,0.00040198,-0.000779419,0.00118599,-0.000372875,-0.782462,0.000939936,0.00982957,1553,449,3.86091,10.5932
336,575,3.8457,-10.3922,0.000311972,0.000497378,-0.000563089,0.000975344,-0.000165994,-0.866983,0.000712039,0.0118697,1560,449,3.84572,10.3921
343,575,3.86633,-10.1813,0.000169615,0.000590605,-0.000329915,0.000771456,-1.12365e-05,-1.06936,0.00051809,0.0119424,1567,449,3.8663,10.1813
350,575,3.85571,-10.0118,6.77632e-05,0.000687822,-9.83358e-05,0.000703044,5.25417e-05,-1.41722,0.000452201,0.0114369,1574,449,3.85566,10.0118
357,575,3.86011,-9.81607,-6.90491e-06,0.000811788,0.000131104,0.000832271,-2.73873e-05,1.41582,0.000564198,0.0115694,1581,449,3.86009,9.81609
364,575,3.86401,-9.61386,-0.000102587,0.00101574,0.000380646,0.001133,-0.000219851,1.27195,0.000838284,0.0104064,1588,449,3.86399,9.61387
371,575,3.86487,-9.42429,-0.000214141,0.00117637,0.000625119,0.00141607,-0.000453848,1.20463,0.00112624,0.0176395,1595,449,3.86491,9.42429
378,575,3.86841,-9.22675,-0.000398501,0.00132265,0.000815231,0.00164748,-0.000723334,1.19162,0.00140302,0.0176451,1602,449,3.86841,9.22675
385,575,3.86121,-8.98196,-0.000580425,0.00136106,0.000832296,0.00166902,-0.000888376,1.21642,0.00149926,0.0113223,1609,449,3.86125,8.98196
392,575,3.82495,-8.75934,-0.000603817,0.00122063,0.000843995,0.00155118,-0.000934365,1.19751,0.00144968,0.00919481,1616,449,3.82497,8.75935
399,575,3.81616,-8.5672,-0.000568221,0.00113919,0.000948547,0.00156163,-0.000990663,1.15181,0.00148581,0.00990357,1623,449,3.81613,8.56721
406,575,3.81506,-8.33371,-0.000622903,0.001077,0.000953009,0.00150401,-0.00104992,1.14955,0.00148226,0.0113316,1630,449,3.81502,8.33372
413,575,3.79529,-8.10306,-0.000770854,0.00090572,0.000755495,0.00119593,-0.00106106,1.20405,0.00130385,0.0121963,1637,449,3.79534,8.10305
420,575,3.78162,-7.86478,-0.00018651,0.000882582,0.000213333,0.000923579,-0.000227507,1.38093,0.000703919,0.0137342,1644,449,3.78156,7.86478
427,575,3.74878,-7.65927,0.0027033,0.00298962,-0.00172408,0.00457648,0.00111645,-0.826821,0.00275529,0.0203689,1651,449,3.74877,7.65927
434,575,3.64282,-7.53802,0.00482158,0.00441079,-0.00323834,0.00786103,0.00137134,-0.753728,0.00484866,0.0293508,1658,449,3.64286,7.53804
441,575,3.72229,-7.36505,0.00785104,0.00690465,-0.00524722,0.0126464,0.00210934,-0.74043,0.00782316,0.046465,1665,449,3.72224,7.36505
448,575,3.8717,-6.85156,0,0,0,0,0,0,0,-1,1672,449,3.8717,6.85155
455,575,2.88135,-4.53244,0,0,0,0,0,0,0,-1,1679,449,2.8814,4.53243
462,575,4.31079,-6.21469,0,0,0,0,0,0,0,-1,1686,449,4.31079,6.21468
469,575,3.16089,-5.95413,0,0,0,0,0,0,0,-1,1693,449,3.16087,5.95413
476,575,3.52026,-5.2128,0.0375637,0.0342276,-0.0245367,0.060489,0.0113023,-0.751459,0.0371364,0.0490354,1700,449,3.52023,5.21281
483,575,4.14368,-5.96225,0,0,0,0,0,0,0,-1,1707,449,4.14369,5.96224
490,575,4.75378,-6.92188,0,0,0,0,0,0,0,-1,1714,449,4.75379,6.92187
497,575,0,0,0,0,0,0,0,0,0,-1,1721,449,0,0
504,575,0,0,0,0,0,0,0,0,0,-1,1728,449,0,0
511,575,0,0,0,0,0,0,0,0,0,-1,1735,449,0,0
518,575,0,0,0,0,0,0,0,0,0,-1,1742,449,0,0
525,575,0,0,0,0,0,0,0,0,0,-1,1749,449,0,0
532,575,0,0,0,0,0,0,0,0,0,-1,1756,449,0,0
539,575,0,0,0,0,0,0,0,0,0,-1,1763,449,0,0
546,575,0,0,0,0,0,0,0,0,0,-1,1770,449,0,0
553,575,0,0,0,0,0,0,0,0,0,-1,1777,449,0,0
560,575,0,0,0,0,0,0,0,0,0,-1,1784,449,0,0
567,575,0,0,0,0,0,0,0,0,0,-1,1791,449,0,0
574,575,0,0,0,0,0,0,0,0,0,-1,1798,449,0,0
581,575,0,0,0,0,0,0,0,0,0,-1,1805,449,0,0
588,575,0,0,0,0,0,0,0,0,0,-1,1812,449,0,0
595,575,0,0,0,0,0,0,0,0,0,-1,1819,449,0,0
602,575,0,0,0,0,0,0,0,0,0,-1,1826,449,0,0
609,575,0,0,0,0,0,0,0,0,0,-1,1833,449,0,0
616,575,0,0,0,0,0,0,0,0,0,-1,1840,449,0,0
623,575,0,0,0,0,0,0,0,0,0,-1,1847,449,0,0
630,575,0,0,0,0,0,0,0,0,0,-1,1854,449,0,0
637,575,0,0,0,0,0,0,0,0,0,-1,1861,449,0,0
644,575,0,0,0,0,0,0,0,0,0,-1,1868,449,0,0
651,575,0,0,0,0,0,0,0,0,0,-1,1875,449,0,0
658,575,0,0,0,0,0,0,0,0,0,-1,1882,449,0,0
665,575,0,0,0,0,0,0,0,0,0,-1,1889,449,0,0
672,575,0,0,0,0,0,0,0,0,0,-1,1896,449,0,0
679,575,0,0,0,0,0,0,0,0,0,-1,1903,449,0,0
686,575,0,0,0,0,0,0,0,0,0,-1,1910,449,0,0
693,575,0,0,0,0,0,0,0,0,0,-1,1917,449,0,0
700,575,0,0,0,0,0,0,0,0,0,-1,1924,449,0,0
707,575,0,0,0,0,0,0,0,0,0,-1,1931,449,0,0
714,575,0,0,0,0,0,0,0,0,0,-1,1938,449,0,0
721,575,0,0,0,0,0,0,0,0,0,-1,1945,449,0,0
728,575,0,0,0,0,0,0,0,0,0,-1,1952,449,0,0
735,575,0,0,0,0,0,0,0,0,0,-1,1959,449,0,0
742,575,0,0,0,0,0,0,0,0,0,-1,1966,449,0,0
749,575,0,0,0,0,0,0,0,0,0,-1,1973,449,0,0
756,575,0,0,0,0,0,0,0,0,0,-1,1980,449,0,0
763,575,0,0,0,0,0,0,0,0,0,-1,1987,449,0,0
770,575,0,0,0,0,0,0,0,0,0,-1,1994,449,0,0
777,575,0,0,0,0,0,0,0,0,0,-1,2001,449,0,0
784,575,0,0,0,0,0,0,0,0,0,-1,2008,449,0,0
791,575,0,0,0,0,0,0,0,0,0,-1,2015,449,0,0
798,575,0,0,0,0,0,0,0,0,0,-1,2022,449,0,0
805,575,0,0,0,0,0,0,0,0,0,-1,2029,449,0,0
812,575,0,0,0,0,0,0,0,0,0,-1,2036,449,0,0
-700,568,0,0,0,0,0,0,0,0,0,-1,524,456,0,0
-693,568,0,0,0,0,0,0,0,0,0,-1,531,456,0,0
-686,568,0,0,0,0,0,0,0,0,0,-1,538,456,0,0
-679,568,0,0,0,0,0,0,0,0,0,-1,545,456,0,0
-672,568,0,0,0,0,0,0,0,0,0,-1,552,456,0,0
-665,568,0,0,0,0,0,0,0,0,0,-1,559,456,0,0
-658,568,0,0,0,0,0,0,0,0,0,-1,566,456,0,0
-651,568,0,0,0,0,0,0,0,0,0,-1,573,456,0,0
-644,568,0,0,0,0,0,0,0,0,0,-1,580,456,0,0
-637,568,0,0,0,0,0,0,0,0,0,-1,587,456,0,0
-630,568,0,0,0,0,0,0,0,0,0,-1,594,456,0,0
-623,568,0,0,0,0,0,0,0,0,0,-1,601,456,0,0
-616,568,0,0,0,0,0,0,0,0,0,-1,608,456,0,0
-609,568,0,0,0,0,0,0,0,0,0,-1,615,456,0,0
-602,568,0,0,0,0,0,0,0,0,0,-1,622,456,0,0
-595,568,0,0,0,0,0,0,0,0,0,-1,629,456,0,0
-588,568,0,0,0,0,0,0,0,0,0,-1,636,456,0,0
-581,568,0,0,0,0,0,0,0,0,0,-1,643,456,0,0
-574,568,0,0,0,0,0,0,0,0,0,-1,650,456,0,0
-567,568,0,0,0,0,0,0,0,0,0,-1,657,456,0,0
-560,568,0,0,0,0,0,0,0,0,0,-1,664,456,0,0
-553,568,0,0,0,0,0,0,0,0,0,-1,671,456,0,0
-546,568,0,0,0,0,0,0,0,0,0,-1,678,456,0,0
-539,568,0,0,0,0,0,0,0,0,0,-1,685,456,0,0
-532,568,0,0,0,0,0,0,0,0,0,-1,692,456,0,0
-525,568,0,0,0,0,0,0,0,0,0,-1,699,456,0,0
-518,568,0,0,0,0,0,0,0,0,0,-1,706,456,0,0
-511,568,0,0,0,0,0,0,0,0,0,-1,713,456,0,0
-504,568,0,0,0,0,0,0,0,0,0,-1,720,456,0,0
-497,568,0,0,0,0,0,0,0,0,0,-1,727,456,0,0
-490,568,0,0,0,0,0,0,0,0,0,-1,734,456,0,0
-483,568,0,0,0,0,0,0,0,0,0,-1,741,456,0,0
-476,568,0,0,0,0,0,0,0,0,0,-1,748,456,0,0
-469,568,0,0,0,0,0,0,0,0,0,-1,755,456,0,0
-462,568,0,0,0,0,0,0,0,0,0,-1,762,456,0,0
-455,568,0,0,0,0,0,0,0,0,0,-1,769,456,0,0
-448,568,0,0,0,0,0,0,0,0,0,-1,776,456,0,0
-441,568,0,0,0,0,0,0,0,0,0,-1,783,456,0,0
-434,568,0,0,0,0,0,0,0,0,0,-1,790,456,0,0
-427,568,0,0,0,0,0,0,0,0,0,-1,797,456,0,0
-420,568,0,0,0,0,0,0,0,0,0,-1,804,456,0,0
-413,568,0,0,0,0,0,0,0,0,0,-1,811,456,0,0
-406,568,0,0,0,0,0,0,0,0,0,-1,818,456,0,0
-399,568,0,0,0,0,0,0,0,0,0,-1,825,456,0,0
-392,568,0,0,0,0,0,0,0,0,0,-1,832,456,0,0
-385,568,0,0,0,0,0,0,0,0,0,-1,839,456,0,0
-378,568,0.321777,-7.29929,0,0,0,0,0,0,0,-1,846,456,0.321806,7.29927
-371,568,1.09595,-7.46707,0,0,0,0,0,0,0,-1,853,456,1.09597,7.46707
-364,568,2.24109,-7.00473,0,0,0,0,0,0,0,-1,860,456,2.24108,7.00473
-357,568,2.29712,-7.2334,0,0,0,0,0,0,0,-1,867,456,2.29713,7.23341
-350,568,1.73596,-7.22437,0,0,0,0,0,0,0,-1,874,456,1.73598,7.22436
-343,568,2.0365,-7.33499,0,0,0,0,0,0,0,-1,881,456,2.0365,7.33498
-336,568,1.89465,-7.79764,0,0,0,0,0,0,0,-1,888,456,1.89465,7.79765
-329,568,1.83618,-7.97949,-0.0135908,-0.0014364,0.000401511,-0.00142315,-0.013604,1.53781,0.00863417,0.0471235,895,456,1.83616,7.9795
-322,568,1.78949,-8.19437,-0.0120929,-0.00241601,0.000200112,-0.00241187,-0.0120971,1.55013,0.00739308,0.0434664,902,456,1.78947,8.19435
-315,568,1.71454,-8.38583,-0.010602,-0.00303749,7.97408e-05,-0.00303665,-0.0106028,1.56026,0.006305,0.0384956,909,456,1.71452,8.38584
-308,568,1.54761,-8.6962,-0.00898484,-0.00331236,-0.000124356,-0.00330963,-0.00898756,-1.54889,0.00524868,0.0267125,916,456,1.54762,8.69619
-301,568,1.52246,-8.87775,-0.00734539,-0.0033565,-0.00023058,-0.00334322,-0.00735867,-1.51325,0.00425444,0.0145341,923,456,1.52247,8.87773
-294,568,1.47815,-9.05923,-0.00579407,-0.00315954,-0.00026386,-0.00313337,-0.00582024,-1.47195,0.00336361,0.0113188,930,456,1.47815,9.05923
-287,568,1.45935,-9.27505,-0.00439556,-0.00281912,-0.000270539,-0.00277398,-0.0044407,-1.40548,0.00259027,0.0100089,937,456,1.45936,9.27504
-280,568,1.45599,-9.48615,-0.0031534,-0.00223688,-0.000362355,-0.00211093,-0.00327935,-1.23627,0.00191922,0.0104377,944,456,1.45599,9.48613
-273,568,1.45093,-9.68063,-0.00209875,-0.0016222,-0.000572063,-0.00124077,-0.00248018,-0.98273,0.00143193,0.0110696,951,456,1.45096,9.68063
-266,568,1.44421,-9.87637,-0.00121486,-0.00105389,-0.000666201,-0.000463327,-0.00180542,-0.845514,0.00108273,0.0109289,958,456,1.44423,9.87636
-259,568,1.44562,-10.088,-0.000432703,-0.000555998,-0.000660857,0.000169376,-0.00115808,-0.73889,0.000834261,0.0124373,965,456,1.44562,10.088
-252,568,1.44232,-10.2861,0.000153681,-8.68795e-05,-0.000655586,0.000699929,-0.000633128,-0.694672,0.000769963,0.0127425,972,456,1.44232,10.2861
-245,568,1.43707,-10.4504,0.000623531,3.5337e-05,-0.000712705,0.00110043,-0.000441566,-0.589717,0.000916964,0.0141579,979,456,1.43707,10.4504
-238,568,1.43335,-10.629,0.000970064,-0.000121192,-0.000642893,0.00126766,-0.000418785,-0.433527,0.00101395,0.0120626,986,456,1.43334,10.629
-231,568,1.42041,-10.8086,0.00109297,-0.000466936,-0.000532544,0.00125744,-0.000631403,-0.299541,0.00111031,0.0105497,993,456,1.42039,10.8086
-224,568,1.41852,-10.9802,0.0011735,-0.000916813,-0.000368161,0.00123645,-0.000979761,-0.169341,0.00128239,0.0124992,1000,456,1.41852,10.9802
-217,568,1.45117,-11.1549,0.00127927,-0.00147231,-0.000113747,0.00128397,-0.00147701,-0.041245,0.00159535,0.0113586,1007,456,1.45116,11.155
-210,568,1.46381,-11.3232,0.00150041,-0.00192724,0.000262378,0.00152038,-0.00194721,0.0759576,0.00200706,0.0108966,1014,456,1.46378,11.3232
-203,568,1.45361,-11.4983,0.00195338,-0.00262242,0.000709598,0.00206089,-0.00272994,0.150372,0.00277496,0.0100892,1021,456,1.45362,11.4983
-196,568,1.49573,-11.651,0.00254831,-0.00359252,0.00107113,0.00272978,-0.00377399,0.167827,0.00377105,0.0132682,1028,456,1.49577,11.651
-189,568,1.49792,-11.7898,0.00309487,-0.00432698,0.00133722,0.00332845,-0.00456056,0.172931,0.0045732,0.0130604,1035,456,1.49792,11.7898
-182,568,1.4718,-11.9372,0.00384427,-0.00491079,0.00144337,0.00407609,-0.00514261,0.159249,0.00533428,0.0135237,1042,456,1.47185,11.9372
-175,568,1.48865,-12.1075,0.00463243,-0.00564576,0.00160522,0.0048773,-0.00589063,0.151377,0.00622603,0.0120712,1049,456,1.48862,12.1074
-168,568,1.48181,-12.2298,0.00560104,-0.00654027,0.00161514,0.00581223,-0.00675146,0.130017,0.0072604,0.0157443,1056,456,1.48179,12.2298
-161,568,1.46643,-12.3362,0.00673895,-0.00765805,0.00128228,0.00685227,-0.00777136,0.0881412,0.00844851,0.0249277,1063,456,1.4664,12.3363
-154,568,1.60242,-12.5691,0.00764546,-0.00883225,0.000930521,0.00769784,-0.00888463,0.0562332,0.00958206,0.0344617,1070,456,1.60242,12.5691
-147,568,1.79419,-12.5333,0.00859354,-0.00971041,0.00053012,0.00860888,-0.00972575,0.0289297,0.0105921,0.0407832,1077,456,1.79421,12.5333
-140,568,1.70813,-12.5882,0.00955374,-0.00983813,-3.01448e-05,0.00955378,-0.00983818,-0.0015545,0.0111964,0.0449108,1084,456,1.70812,12.5882
-133,568,1.78552,-12.8469,0.0102104,-0.00959446,-0.000844498,0.0102464,-0.0096304,-0.0425379,0.0114777,0.0466167,1091,456,1.78554,12.8469
-126,568,1.6272,-12.6617,0,0,0,0,0,0,0,-1,1098,456,1.62723,12.6617
-119,568,1.61902,-12.6626,0,0,0,0,0,0,0,-1,1105,456,1.61897,12.6626
-112,568,1.99646,-12.9807,0,0,0,0,0,0,0,-1,1112,456,1.99641,12.9807
-105,568,1.65088,-11.8353,0,0,0,0,0,0,0,-1,1119,456,1.65091,11.8353
-98,568,1.4231,-13.7376,0,0,0,0,0,0,0,-1,1126,456,1.42315,13.7376
-91,568,1.11621,-11.1853,0,0,0,0,0,0,0,-1,1133,456,1.11626,11.1853
-84,568,0.461792,-9.7959,0,0,0,0,0,0,0,-1,1140,456,0.461793,9.7959
-77,568,-1.13806,-8.57822,0,0,0,0,0,0,0,-1,1147,456,-1.13807,8.57821
-70,568,-4.09766,-1.42911,0,0,0,0,0,0,0,-1,1154,456,-4.09767,1.4291
-63,568,-5.92273,-3.70752,0,0,0,0,0,0,0,-1,1161,456,-5.92272,3.70751
-56,568,-5.24158,-6.01385,0,0,0,0,0,0,0,-1,1168,456,-5.24161,6.01386
-49,568,-5.24365,-8.33557,0,0,0,0,0,0,0,-1,1175,456,-5.24371,8.33557
-42,568,-0.664795,0.521973,0,0,0,0,0,0,0,-1,1182,456,-0.664829,-0.521984
-35,568,-0.153076,-1.67731,0,0,0,0,0,0,0,-1,1189,456,-0.153068,1.67731
-28,568,1.25439,-4.48798,0,0,0,0,0,0,0,-1,1196,456,1.2544,4.48797
-21,568,1.57764,-12.9899,0,0,0,0,0,0,0,-1,1203,456,1.57765,12.9899
-14,568,1.13623,-11.9953,0,0,0,0,0,0,0,-1,1210,456,1.13619,11.9953
-7,568,1.65491,-12.2363,0.0799179,-0.0462089,-0.0415424,0.0923711,-0.0586621,-0.291247,0.08792,0.044802,1217,456,1.65488,12.2363
0,568,2.13184,-12.3676,0.0783908,-0.0296188,-0.0463444,0.0955501,-0.0467781,-0.354604,0.083766,0.0454665,1224,456,2.13189,12.3676
7,568,3.41162,-13.8522,0.0711497,-0.00480515,-0.0522827,0.0977924,-0.0314479,-0.47129,0.0778251,0.0435854,1231,456,3.41163,13.8522
14,568,3.83691,-14.5627,0.0616589,0.0160143,-0.0538138,0.0972898,-0.0196167,-0.584845,0.0722915,0.0430579,1238,456,3.83689,14.5627
21,568,4.51428,-15.5731,0.0510988,0.0337042,-0.0537432,0.0968439,-0.0120409,-0.705178,0.0689277,0.0440147,1245,456,4.51427,15.5731
28,568,4.5658,-15.0714,0.0405288,0.0478148,-0.0517877,0.0960875,-0.00774387,-0.820513,0.0667894,0.0427223,1252,456,4.5658,15.0714
35,568,5.38159,-15.482,0.0308127,0.0571028,-0.0482015,0.0939196,-0.00600405,-0.918516,0.0647073,0.0404249,1259,456,5.38161,15.482
42,568,6.10022,-16.1703,0.0223347,0.0611412,-0.0431957,0.0890914,-0.00561553,-0.99649,0.0613518,0.0422349,1266,456,6.10025,16.1703
49,568,0.997925,-15.2108,0.0157105,0.0598826,-0.0385802,0.0822513,-0.00665825,-1.04536,0.057183,0.0462544,1273,456,0.997917,15.2108
56,568,1.33472,-14.6376,0.00992362,0.0540367,-0.0319823,0.0708306,-0.00687034,-1.08727,0.0496692,0.0468609,1280,456,1.33471,14.6376
63,568,1.7207,-14.0772,0.00563967,0.0399748,-0.0231925,0.0516623,-0.00604785,-1.104,0.0366243,0.0472706,1287,456,1.72073,14.0773
70,568,2.09509,-13.4472,0.00302599,0.0222796,-0.0147816,0.0302928,-0.00498727,-1.07403,0.0220465,0.046363,1294,456,2.09504,13.4472
77,568,2.24878,-13.0112,0.00261941,0.00515597,-0.00642703,0.0104387,-0.00266329,-0.882814,0.00799611,0.0480882,1301,456,2.24873,13.0112
84,568,2.36609,-12.669,0.00208368,-0.0112335,0.00162527,0.00227916,-0.011429,0.119703,0.00848172,0.0479379,1308,456,2.36615,12.669
91,568,2.26819,-12.4962,0,0,0,0,0,0,0,-1,1315,456,2.26819,12.4962
98,568,2.79028,-10.8629,0.00386361,-0.0415546,0.0126497,0.00714908,-0.04484,0.254113,0.0325392,0.0438882,1322,456,2.79032,10.8628
105,568,2.43311,-12.6742,0.0066468,-0.0559008,0.0172449,0.0110863,-0.0603403,0.251966,0.0443862,0.04538,1329,456,2.43306,12.6742
112,568,2.86768,-12.5525,0.00691982,-0.0699675,0.0225571,0.013049,-0.0760967,0.265313,0.0555936,0.047957,1336,456,2.86766,12.5525
119,568,2.96082,-12.4661,0.00604109,-0.0734434,0.0238547,0.0126507,-0.080053,0.270296,0.0580469,0.0411953,1343,456,2.96081,12.4661
126,568,2.94556,-12.319,0.00581006,-0.0767246,0.0251968,0.0128943,-0.0838088,0.274079,0.0606294,0.0436021,1350,456,2.94551,12.319
133,568,3.24146,-11.9617,0.00642822,-0.080177,0.0258197,0.0135416,-0.0872904,0.268833,0.063193,0.0479015,1357,456,3.24147,11.9617
140,568,3.50378,-11.8909,0.00741679,-0.0834764,0.0259032,0.0142805,-0.0903401,0.259023,0.0655078,0.0483292,1364,456,3.50381,11.8909
147,568,3.43359,-11.7855,0.00875393,-0.0872429,0.0256079,0.0151578,-0.0936468,0.24505,0.0680489,0.0469585,1371,456,3.43361,11.7855
154,568,3.36987,-11.7224,0.0106401,-0.0918562,0.0244422,0.0161704,-0.0973866,0.222514,0.0709316,0.0463275,1378,456,3.36988,11.7224
161,568,3.23682,-11.8902,0,0,0,0,0,0,0,-1,1385,456,3.23685,11.8902
168,568,9.09583,-0.563782,0,0,0,0,0,0,0,-1,1392,456,9.09586,0.563788
175,568,10.5151,0.747498,0,0,0,0,0,0,0,-1,1399,456,10.5152,-0.747501
182,568,6.35095,-3.63361,0,0,0,0,0,0,0,-1,1406,456,6.35093,3.63359
189,568,6.17493,-1.70911,0,0,0,0,0,0,0,-1,1413,456,6.17497,1.70911
196,568,6.04724,0.200836,0,0,0,0,0,0,0,-1,1420,456,6.04724,-0.200835
203,568,5.9281,2.08649,0,0,0,0,0,0,0,-1,1427,456,5.92812,-2.08648
210,568,1.46216,-2.50446,0,0,0,0,0,0,0,-1,1434,456,1.46219,2.50446
217,568,2.62366,-7.86703,0,0,0,0,0,0,0,-1,1441,456,2.62365,7.86704
224,568,3.43494,-12.1555,0,0,0,0,0,0,0,-1,1448,456,3.43492,12.1555
231,568,4.38245,-9.3205,0,0,0,0,0,0,0,-1,1455,456,4.38244,9.32048
238,568,3.88123,-9.43616,0,0,0,0,0,0,0,-1,1462,456,3.88117,9.43617
245,568,3.34387,-10.6774,0,0,0,0,0,0,0,-1,1469,456,3.34389,10.6774
252,568,3.56946,-9.28928,0,0,0,0,0,0,0,-1,1476,456,3.56948,9.28928
259,568,3.38843,-8.73068,0,0,0,0,0,0,0,-1,1483,456,3.38842,8.73068
266,568,3.104,-9.16876,0,0,0,0,0,0,0,-1,1490,456,3.10397,9.16876
273,568,3.79309,-12.2842,0,0,0,0,0,0,0,-1,1497,456,3.7931,12.2842
280,568,3.85266,-11.9523,0,0,0,0,0,0,0,-1,1504,456,3.85268,11.9523
287,568,4.00098,-11.5909,0.00208591,0.00298018,-0.00133513,0.00394106,0.00112504,-0.946978,0.00234415,0.0412269,1511,456,4.00103,11.5908
294,568,4.06128,-11.4735,0.00178894,0.00211206,-0.00138446,0.00334436,0.000556649,-0.843482,0.00206913,0.027116,1518,456,4.06123,11.4735
301,568,4.03906,-11.29,0.00146166,0.00126664,-0.00147801,0.00284537,-0.000117073,-0.75246,0.00193712,0.0200103,1525,456,4.03909,11.29
308,568,4.0365,-11.1051,0.00103869,0.000643394,-0.00165505,0.00250785,-0.00082577,-0.725969,0.00200468,0.0122066,1532,456,4.03646,11.1051
315,568,4.02441,-10.933,0.000774505,0.000378961,-0.00166902,0.00225743,-0.00110396,-0.726425,0.00197842,0.00814878,1539,456,4.0244,10.933
322,568,4.03894,-10.7717,0.000573194,0.00022267,-0.00158188,0.00198949,-0.00119363,-0.730226,0.00185682,0.0101527,1546,456,4.0389,10.7717
329,568,4.05334,-10.5856,0.000379536,0.000116727,-0.00149275,0.00174666,-0.00125039,-0.741497,0.00173824,0.0105147,1553,456,4.05333,10.5856
336,568,4.05957,-10.3792,0.000236844,0.000207007,-0.00127244,0.00149445,-0.0010506,-0.779536,0.00147681,0.0107307,1560,456,4.05962,10.3792
343,568,4.07727,-10.1906,1.49468e-05,0.000219404,-0.00108134,0.00120334,-0.000968987,-0.832527,0.00125662,0.0105675,1567,456,4.07729,10.1905
350,568,4.07263,-10.0286,-0.000119173,0.000217644,-0.000873131,0.000938459,-0.000839988,-0.880668,0.00102731,0.00998552,1574,456,4.07263,10.0286
357,568,4.0686,-9.82141,-0.000182327,0.00027388,-0.000644823,0.000729756,-0.000638203,-0.955402,0.000790381,0.00970261,1581,456,4.06866,9.82141
364,568,4.08264,-9.62311,-0.00026112,0.00042445,-0.000372949,0.000588214,-0.000424885,-1.15704,0.000587441,0.0112924,1588,456,4.08261,9.6231
371,568,4.05591,-9.40851,-0.000342364,0.000548955,-8.64399e-05,0.00055726,-0.00035067,-1.47501,0.000528698,0.0193653,1595,456,4.05587,9.40851
378,568,4.06006,-9.18726,-0.000447426,0.000690228,0.000159361,0.00071213,-0.000469327,1.43422,0.000686899,0.0178864,1602,456,4.0601,9.18726
385,568,4.05811,-8.98987,-0.000516973,0.000790752,0.000286013,0.00085057,-0.000576791,1.36462,0.000829125,0.00926768,1609,456,4.05812,8.98986
392,568,4.02808,-8.77158,-0.000485403,0.000737553,0.000404254,0.000859101,-0.000606951,1.27872,0.000850588,0.0103777,1616,456,4.02812,8.77158
399,568,4.01526,-8.59857,-0.000400753,0.000726605,0.000593079,0.000981141,-0.00065529,1.16539,0.000951017,0.0165719,1623,456,4.01522,8.59857
406,568,4.02222,-8.36154,-0.000392723,0.00073914,0.000700198,0.00107352,-0.0007271,1.12527,0.00104598,0.0149522,1630,456,4.02218,8.36155
413,568,4.01257,-8.116,-0.000449603,0.000724096,0.000657404,0.00101848,-0.000743987,1.14978,0.00102167,0.0115038,1637,456,4.01256,8.116
420,568,4.01721,-7.86362,7.6796e-05,0.000773492,0.000306182,0.000888926,-3.86382e-05,1.21026,0.000605907,0.0106815,1644,456,4.01723,7.86361
427,568,4.00659,-7.6163,0.00230231,0.00229839,-0.00106785,0.00336821,0.0012325,-0.784479,0.0019678,0.0130613,1651,456,4.00664,7.6163
434,568,3.99634,-7.42087,0.00393892,0.00334317,-0.00212907,0.00579085,0.00149124,-0.715895,0.00347193,0.015776,1658,456,3.99629,7.42088
441,568,3.96594,-7.28003,0.00624553,0.00502031,-0.00357404,0.00925908,0.00200675,-0.70052,0.00562443,0.0220879,1665,456,3.96596,7.28004
448,568,4.04614,-6.892,0.00925122,0.00723659,-0.00568652,0.014019,0.00246885,-0.697737,0.00864139,0.0379581,1672,456,4.04613,6.89201
455,568,4.08862,-6.50104,0,0,0,0,0,0,0,-1,1679,456,4.08861,6.50102
462,568,3.77783,-6.07803,0,0,0,0,0,0,0,-1,1686,456,3.77778,6.07803
469,568,3.62646,-6.05539,0.0230852,0.018796,-0.0138658,0.0349713,0.00690993,-0.708672,0.0213863,0.0444092,1693,456,3.62647,6.05539
476,568,3.76929,-5.86697,0.0290906,0.0240462,-0.0170584,0.0438123,0.00932448,-0.712002,0.0266494,0.0470382,1700,456,3.76925,5.86696
483,568,3.93347,-5.66641,0,0,0,0,0,0,0,-1,1707,456,3.93351,5.66642
490,568,2.37109,-4.57193,0,0,0,0,0,0,0,-1,1714,456,2.37115,4.57194
497,568,6.58289,-3.47745,0,0,0,0,0,0,0,-1,1721,456,6.58294,3.47744
504,568,0,0,0,0,0,0,0,0,0,-1,1728,456,0,0
511,568,0,0,0,0,0,0,0,0,0,-1,1735,456,0,0
518,568,0,0,0,0,0,0,0,0,0,-1,1742,456,0,0
525,568,0,0,0,0,0,0,0,0,0,-1,1749,456,0,0
532,568,0,0,0,0,0,0,0,0,0,-1,1756,456,0,0
539,568,0,0,0,0,0,0,0,0,0,-1,1763,456,0,0
546,568,0,0,0,0,0,0,0,0,0,-1,1770,456,0,0
553,568,0,0,0,0,0,0,0,0,0,-1,1777,456,0,0
560,568,0,0,0,0,0,0,0,0,0,-1,1784,456,0,0
567,568,0,0,0,0,0,0,0,0,0,-1,1791,456,0,0
574,568,0,0,0,0,0,0,0,0,0,-1,1798,456,0,0
581,568,0,0,0,0,0,0,0,0,0,-1,1805,456,0,0
588,568,0,0,0,0,0,0,0,0,0,-1,1812,456,0,0
595,568,0,0,0,0,0,0,0,0,0,-1,1819,456,0,0
602,568,0,0,0,0,0,0,0,0,0,-1,1826,456,0,0
609,568,0,0,0,0,0,0,0,0,0,-1,1833,456,0,0
616,568,0,0,0,0,0,0,0,0,0,-1,1840,456,0,0
623,568,0,0,0,0,0,0,0,0,0,-1,1847,456,0,0
630,568,0,0,0,0,0,0,0,0,0,-1,1854,456,0,0
637,568,0,0,0,0,0,0,0,0,0,-1,1861,456,0,0
644,568,0,0,0,0,0,0,0,0,0,-1,1868,456,0,0
651,568,0,0,0,0,0,0,0,0,0,-1,1875,456,0,0
658,568,0,0,0,0,0,0,0,0,0,-1,1882,456,0,0
665,568,0,0,0,0,0,0,0,0,0,-1,1889,456,0,0
672,568,0,0,0,0,0,0,0,0,0,-1,1896,456,0,0
679,568,0,0,0,0,0,0,0,0,0,-1,1903,456,0,0
686,568,0,0,0,0,0,0,0,0,0,-1,1910,456,0,0
693,568,0,0,0,0,0,0,0,0,0,-1,1917,456,0,0
700,568,0,0,0,0,0,0,0,0,0,-1,1924,456,0,0
707,568,0,0,0,0,0,0,0,0,0,-1,1931,456,0,0
714,568,0,0,0,0,0,0,0,0,0,-1,1938,456,0,0
721,568,0,0,0,0,0,0,0,0,0,-1,1945,456,0,0
728,568,0,0,0,0,0,0,0,0,0,-1,1952,456,0,0
735,568,0,0,0,0,0,0,0,0,0,-1,1959,456,0,0
742,568,0,0,0,0,0,0,0,0,0,-1,1966,456,0,0
749,568,0,0,0,0,0,0,0,0,0,-1,1973,456,0,0
756,568,0,0,0,0,0,0,0,0,0,-1,1980,456,0,0
763,568,0,0,0,0,0,0,0,0,0,-1,1987,456,0,0
770,568,0,0,0,0,0,0,0,0,0,-1,1994,456,0,0
777,568,0,0,0,0,0,0,0,0,0,-1,2001,456,0,0
784,568,0,0,0,0,0,0,0,0,0,-1,2008,456,0,0
791,568,0,0,0,0,0,0,0,0,0,-1,2015,456,0,0
798,568,0,0,0,0,0,0,0,0,0,-1,2022,456,0,0
805,568,0,0,0,0,0,0,0,0,0,-1,2029,456,0,0
812,568,0,0,0,0,0,0,0,0,0,-1,2036,456,0,0
-700,561,0,0,0,0,0,0,0,0,0,-1,524,463,0,0
-693,561,0,0,0,0,0,0,0,0,0,-1,531,463,0,0
-686,561,0,0,0,0,0,0,0,0,0,-1,538,463,0,0
-679,561,0,0,0,0,0,0,0,0,0,-1,545,463,0,0
-672,561,0,0,0,0,0,0,0,0,0,-1,552,463,0,0
-665,561,0,0,0,0,0,0,0,0,0,-1,559,463,0,0
-658,561,0,0,0,0,0,0,0,0,0,-1,566,463,0,0
-651,561,0,0,0,0,0,0,0,0,0,-1,573,463,0,0
-644,561,0,0,0,0,0,0,0,0,0,-1,580,463,0,0
-637,561,0,0,0,0,0,0,0,0,0,-1,587,463,0,0
-630,561,0,0,0,0,0,0,0,0,0,-1,594,463,0,0
-623,561,0,0,0,0,0,0,0,0,0,-1,601,463,0,0
-616,561,0,0,0,0,0,0,0,0,0,-1,608,463,0,0
-609,561,0,0,0,0,0,0,0,0,0,-1,615,463,0,0
-602,561,0,0,0,0,0,0,0,0,0,-1,622,463,0,0
-595,561,0,0,0,0,0,0,0,0,0,-1,629,463,0,0
-588,561,0,0,0,0,0,0,0,0,0,-1,636,463,0,0
-581,561,0,0,0,0,0,0,0,0,0,-1,643,463,0,0
-574,561,0,0,0,0,0,0,0,0,0,-1,650,463,0,0
-567,561,0,0,0,0,0,0,0,0,0,-1,657,463,0,0
-560,561,0,0,0,0,0,0,0,0,0,-1,664,463,0,0
-553,561,0,0,0,0,0,0,0,0,0,-1,671,463,0,0
-546,561,0,0,0,0,0,0,0,0,0,-1,678,463,0,0
-539,561,0,0,0,0,0,0,0,0,0,-1,685,463,0,0
-532,561,0,0,0,0,0,0,0,0,0,-1,692,463,0,0
-525,561,0,0,0,0,0,0,0,0,0,-1,699,463,0,0
-518,561,0,0,0,0,0,0,0,0,0,-1,706,463,0,0
-511,561,0,0,0,0,0,0,0,0,0,-1,713,463,0,0
-504,561,0,0,0,0,0,0,0,0,0,-1,720,463,0,0
-497,561,0,0,0,0,0,0,0,0,0,-1,727,463,0,0
-490,561,0,0,0,0,0,0,0,0,0,-1,734,463,0,0
-483,561,0,0,0,0,0,0,0,0,0,-1,741,463,0,0
-476,561,0,0,0,0,0,0,0,0,0,-1,748,463,0,0
-469,561,0,0,0,0,0,0,0,0,0,-1,755,463,0,0
-462,561,0,0,0,0,0,0,0,0,0,-1,762,463,0,0
-455,561,0,0,0,0,0,0,0,0,0,-1,769,463,0,0
-448,561,0,0,0,0,0,0,0,0,0,-1,776,463,0,0
-441,561,0,0,0,0,0,0,0,0,0,-1,783,463,0,0
-434,561,0,0,0,0,0,0,0,0,0,-1,790,463,0,0
-427,561,0,0,0,0,0,0,0,0,0,-1,797,463,0,0
-420,561,0,0,0,0,0,0,0,0,0,-1,804,463,0,0
-413,561,0,0,0,0,0,0,0,0,0,-1,811,463,0,0
-406,561,0,0,0,0,0,0,0,0,0,-1,818,463,0,0
-399,561,0,0,0,0,0,0,0,0,0,-1,825,463,0,0
-392,561,4.92407,-2.54578,0,0,0,0,0,0,0,-1,832,463,4.92408,2.54576
-385,561,5.55634,-1.02338,0,0,0,0,0,0,0,-1,839,463,5.55634,1.02338
-378,561,0.495178,-7.37878,0,0,0,0,0,0,0,-1,846,463,0.495164,7.37879
-371,561,1.06299,-7.56818,0,0,0,0,0,0,0,-1,853,463,1.06297,7.56817
-364,561,1.45264,-7.57684,0,0,0,0,0,0,0,-1,860,463,1.45264,7.57684
-357,561,1.35852,-7.53738,0,0,0,0,0,0,0,-1,867,463,1.35851,7.53737
-350,561,1.49213,-7.41827,0,0,0,0,0,0,0,-1,874,463,1.49213,7.41829
-343,561,1.69702,-7.47083,0,0,0,0,0,0,0,-1,881,463,1.69705,7.47083
-336,561,1.61005,-7.94351,0,0,0,0,0,0,0,-1,888,463,1.61008,7.9435
-329,561,1.43921,-8.1105,-0.010398,-0.000928415,0.000703787,-0.000876395,-0.01045,1.49702,0.00669369,0.0359871,895,463,1.4392,8.1105
-322,561,1.35455,-8.20279,-0.00921436,-0.00156533,0.000473103,-0.00153618,-0.00924351,1.50926,0.00571947,0.0285818,902,463,1.35455,8.20278
-315,561,1.35571,-8.36847,-0.00805918,-0.00196595,0.000312793,-0.00194994,-0.0080752,1.51964,0.00486552,0.020767,909,463,1.35572,8.36847
-308,561,1.3302,-8.60052,-0.00677875,-0.00216696,7.99569e-05,-0.00216558,-0.00678014,1.55347,0.00399873,0.0155656,916,463,1.33022,8.60051
-301,561,1.30029,-8.85788,-0.00547876,-0.00222449,-5.27558e-05,-0.00222363,-0.00547962,-1.55459,0.00318232,0.0123214,923,463,1.30029,8.85789
-294,561,1.26117,-9.06433,-0.00425673,-0.00212625,-0.000115038,-0.00212006,-0.00426292,-1.51701,0.00246121,0.0109117,930,463,1.26116,9.06433
-287,561,1.23969,-9.2771,-0.00314474,-0.00197495,-0.000141805,-0.001958,-0.00316169,-1.45187,0.00184264,0.00926376,937,463,1.23969,9.27709
-280,561,1.22266,-9.46405,-0.00210405,-0.00173974,-0.00020962,-0.00164419,-0.0021996,-1.1431,0.00132078,0.011428,944,463,1.22263,9.46406
-273,561,1.23956,-9.69196,-0.00123877,-0.00149802,-0.000353549,-0.000991833,-0.00174496,-0.60969,0.00101059,0.0141475,951,463,1.23955,9.69197
-266,561,1.25342,-9.89343,-0.000537248,-0.0012522,-0.000403441,-0.000355694,-0.00143376,-0.422865,0.000862091,0.00966312,958,463,1.25344,9.89343
-259,561,1.25403,-10.0826,0.000129584,-0.00103165,-0.000364368,0.000234446,-0.00113651,-0.280217,0.00084671,0.0102306,965,463,1.25405,10.0825
-252,561,1.25159,-10.2524,0.000649439,-0.000820774,-0.00032463,0.000717929,-0.000889263,-0.207927,0.000929669,0.0140898,972,463,1.25161,10.2524
-245,561,1.24054,-10.4449,0.00103403,-0.000983388,-0.000303293,0.00107864,-0.001028,-0.146038,0.00121638,0.0166864,979,463,1.24054,10.4449
-238,561,1.24811,-10.6349,0.00135545,-0.00138786,-0.000181978,0.00136747,-0.00139988,-0.0659499,0.00159777,0.0130189,986,463,1.24809,10.6349
-231,561,1.23962,-10.8151,0.00152109,-0.00189368,-5.7763e-05,0.00152206,-0.00189466,-0.0169092,0.00197655,0.0101233,993,463,1.2396,10.8151
-224,561,1.242,-11.0006,0.00166013,-0.0024558,0.000131438,0.00166432,-0.00245999,0.0318907,0.0023959,0.0103298,1000,463,1.24201,11.0006
-217,561,1.26678,-11.1688,0.00180945,-0.00298762,0.000398045,0.00184226,-0.00302042,0.0822272,0.00283481,0.0109028,1007,463,1.26676,11.1688
-210,561,1.28137,-11.3335,0.0020716,-0.00336244,0.000789068,0.00218386,-0.0034747,0.141321,0.00329518,0.0122131,1014,463,1.28138,11.3335
-203,561,1.30292,-11.5072,0.00262662,-0.00407305,0.00124196,0.00284944,-0.00429587,0.17752,0.00415343,0.0140757,1021,463,1.30294,11.5072
-196,561,1.3147,-11.6536,0.00339333,-0.00518591,0.00162452,0.00369064,-0.00548322,0.181009,0.00533013,0.0145394,1028,463,1.31466,11.6536
-189,561,1.3114,-11.7759,0.00410821,-0.00603036,0.00192891,0.00446279,-0.00638494,0.181796,0.00629563,0.0161425,1035,463,1.31144,11.7759
-182,561,1.31494,-11.9343,0.00508696,-0.00671123,0.00206237,0.00543708,-0.00706135,0.168163,0.00723625,0.0169922,1042,463,1.31499,11.9343
-175,561,1.29504,-12.1305,0.00612645,-0.00766512,0.00229747,0.0064991,-0.00803778,0.160801,0.00840853,0.0268001,1049,463,1.2951,12.1305
-168,561,1.25476,-12.3935,0.0074283,-0.00886689,0.00240596,0.00777611,-0.0092147,0.143568,0.00982137,0.0391042,1056,463,1.25472,12.3935
-161,561,1.26111,-12.5469,0.00901184,-0.0103751,0.00208883,0.00923434,-0.0105976,0.106121,0.011459,0.0423775,1063,463,1.26113,12.5469
-154,561,1.51794,-12.2612,0.0102649,-0.0119879,0.00163288,0.010384,-0.0121071,0.0728586,0.012998,0.0461382,1070,463,1.51795,12.2612
-147,561,1.85181,-12.064,0.0115965,-0.0133648,0.00109288,0.0116443,-0.0134126,0.0436714,0.0144786,0.0465896,1077,463,1.85178,12.064
-140,561,1.82483,-12.4264,0,0,0,0,0,0,0,-1,1084,463,1.82478,12.4264
-133,561,1.94312,-12.7599,0,0,0,0,0,0,0,-1,1091,463,1.94311,12.7599
-126,561,0.453491,-10.7643,0,0,0,0,0,0,0,-1,1098,463,0.453469,10.7643
-119,561,1.57874,-12.7647,0,0,0,0,0,0,0,-1,1105,463,1.57875,12.7647
-112,561,1.05957,-11.1366,0,0,0,0,0,0,0,-1,1112,463,1.05963,11.1366
-105,561,1.13269,-10.9895,0,0,0,0,0,0,0,-1,1119,463,1.1327,10.9895
-98,561,1.5387,-7.54352,0,0,0,0,0,0,0,-1,1126,463,1.53871,7.54351
-91,561,1.29553,-6.57968,0,0,0,0,0,0,0,-1,1133,463,1.29549,6.5797
-84,561,1.23364,-5.84555,0,0,0,0,0,0,0,-1,1140,463,1.23363,5.84556
-77,561,-2.36023,1.00204,0,0,0,0,0,0,0,-1,1147,463,-2.3602,-1.00205
-70,561,-3.90015,-1.41541,0,0,0,0,0,0,0,-1,1154,463,-3.90009,1.4154
-63,561,-6.95691,-4.02756,0,0,0,0,0,0,0,-1,1161,463,-6.95696,4.02756
-56,561,-5.37988,-6.66855,0,0,0,0,0,0,0,-1,1168,463,-5.37988,6.66854
-49,561,-5.7439,-9.11029,0,0,0,0,0,0,0,-1,1175,463,-5.74387,9.1103
-42,561,-1.72644,-5.63065,0,0,0,0,0,0,0,-1,1182,463,-1.72648,5.63064
-35,561,-1.65674,-4.87994,0,0,0,0,0,0,0,-1,1189,463,-1.6567,4.87993
-28,561,-1.91418,-3.86896,0,0,0,0,0,0,0,-1,1196,463,-1.91414,3.86895
-21,561,0.323975,-11.554,0,0,0,0,0,0,0,-1,1203,463,0.323962,11.5539
-14,561,1.00891,-11.6516,0,0,0,0,0,0,0,-1,1210,463,1.0089,11.6516
-7,561,1.63611,-11.7055,0.0979692,-0.0612101,-0.049209,0.111953,-0.0751941,-0.276878,0.108742,0.0471403,1217,463,1.63607,11.7055
0,561,2.01208,-11.538,0.0989639,-0.0396951,-0.0572122,0.119522,-0.0602534,-0.344966,0.105657,0.048766,1224,463,2.01205,11.538
7,561,3.9707,-14.3406,0,0,0,0,0,0,0,-1,1231,463,3.97071,14.3406
14,561,4.35352,-15.0714,0,0,0,0,0,0,0,-1,1238,463,4.3535,15.0713
21,561,4.62439,-14.4014,0,0,0,0,0,0,0,-1,1245,463,4.6244,14.4014
28,561,5.2356,-14.7942,0.0537824,0.0650093,-0.0715995,0.131215,-0.0124233,-0.824518,0.0918982,0.0446156,1252,463,5.23555,14.7942
35,561,5.7749,-14.7607,0.0421134,0.0773773,-0.0681471,0.130137,-0.0106458,-0.911989,0.0905152,0.0392,1259,463,5.77492,14.7607
42,561,6.25012,-14.9566,0.0317008,0.0834999,-0.0626041,0.12535,-0.0101496,-0.98153,0.0871473,0.0448708,1266,463,6.25009,14.9566
49,561,7.0553,-15.5908,0.0232073,0.0835269,-0.0570721,0.117918,-0.0111839,-1.02847,0.0825928,0.0447695,1273,463,7.05532,15.5908
56,561,1.27039,-14.2993,0.015136,0.0771116,-0.0484558,0.103641,-0.0113932,-1.06988,0.0731878,0.045965,1280,463,1.27038,14.2992
63,561,1.85632,-13.5071,0.00856042,0.059938,-0.0365367,0.0789128,-0.0104144,-1.0918,0.0564015,0.0458267,1287,463,1.85638,13.5071
70,561,2.44971,-13.0976,0.00403176,0.0383196,-0.0248444,0.051361,-0.00900973,-1.08741,0.0376054,0.0451286,1294,463,2.44968,13.0976
77,561,2.68408,-12.5086,0.00219826,0.0174146,-0.0131482,0.0249972,-0.00538436,-1.04768,0.0187195,0.0442452,1301,463,2.68411,12.5086
84,561,2.78137,-11.9132,0.000607994,-0.00277807,-0.00153792,0.00120222,-0.0033723,-0.368713,0.00273837,0.0433857,1308,463,2.7814,11.9132
91,561,2.79395,-11.2171,-8.80667e-05,-0.0233842,0.0085076,0.00268804,-0.0261603,0.315415,0.0184018,0.0405431,1315,463,2.79389,11.2171
98,561,2.75171,-10.6918,0.00232617,-0.0417439,0.0150832,0.00699402,-0.0464118,0.300126,0.0335167,0.043138,1322,463,2.75171,10.6918
105,561,2.60535,-10.2157,0.00549443,-0.060431,0.0221622,0.012252,-0.0671886,0.29596,0.0493856,0.0495044,1329,463,2.60537,10.2157
112,561,2.44958,-12.5995,0.00628116,-0.0789024,0.0298366,0.0156921,-0.0883133,0.305539,0.0647433,0.0492547,1336,463,2.44964,12.5995
119,561,2.57642,-12.4145,0.00618058,-0.0836505,0.0316989,0.0162398,-0.0937098,0.307285,0.0685309,0.0432554,1343,463,2.57647,12.4145
126,561,2.31567,-12.3884,0.00703873,-0.088386,0.033568,0.017664,-0.0990113,0.306552,0.0726153,0.0445914,1350,463,2.31573,12.3884
133,561,2.474,-11.0529,0.00878955,-0.0934278,0.0345263,0.0193588,-0.103997,0.297063,0.0766041,0.0468646,1357,463,2.47397,11.0529
140,561,2.73962,-10.8837,0.0107224,-0.0982617,0.0346224,0.0207911,-0.10833,0.283009,0.0800557,0.0465611,1364,463,2.73957,10.8837
147,561,2.62573,-10.8659,0.0128995,-0.103931,0.0341507,0.0221497,-0.113181,0.264517,0.0838184,0.046481,1371,463,2.6257,10.8659
154,561,2.55066,-10.6451,0.0156094,-0.111047,0.03189,0.0231857,-0.118623,0.233249,0.0878365,0.0464715,1378,463,2.5507,10.645
161,561,2.55078,-10.4363,0,0,0,0,0,0,0,-1,1385,463,2.55073,10.4363
168,561,-1.68591,-18.2095,0,0,0,0,0,0,0,-1,1392,463,-1.68589,18.2095
175,561,10.4185,0.276398,0,0,0,0,0,0,0,-1,1399,463,10.4185,-0.276394
182,561,6.45703,-4.02127,0,0,0,0,0,0,0,-1,1406,463,6.45704,4.02127
189,561,6.50854,-2.08685,0,0,0,0,0,0,0,-1,1413,463,6.50851,2.08686
196,561,6.44775,-0.27182,0,0,0,0,0,0,0,-1,1420,463,6.44773,0.271814
203,561,6.18591,1.1301,0,0,0,0,0,0,0,-1,1427,463,6.18592,-1.13009
210,561,5.68713,2.68427,0,0,0,0,0,0,0,-1,1434,463,5.6871,-2.68425
217,561,3.61743,-7.33582,0,0,0,0,0,0,0,-1,1441,463,3.61738,7.33581
224,561,4.27466,-8.59171,0,0,0,0,0,0,0,-1,1448,463,4.27466,8.59171
231,561,4.93188,-9.8476,0,0,0,0,0,0,0,-1,1455,463,4.93193,9.84761
238,561,2.18018,-5.18359,0,0,0,0,0,0,0,-1,1462,463,2.18023,5.18359
245,561,3.07568,-3.50238,0,0,0,0,0,0,0,-1,1469,463,3.0757,3.50238
252,561,3.47412,-3.71109,0,0,0,0,0,0,0,-1,1476,463,3.47413,3.71109
259,561,3.42212,-3.2334,0,0,0,0,0,0,0,-1,1483,463,3.42214,3.2334
266,561,4.44373,-5.90027,0,0,0,0,0,0,0,-1,1490,463,4.44372,5.90026
273,561,2.59485,-3.65268,0,0,0,0,0,0,0,-1,1497,463,2.5948,3.65268
280,561,3.10767,-6.38235,0,0,0,0,0,0,0,-1,1504,463,3.10766,6.38235
287,561,4.25757,-11.4843,0,0,0,0,0,0,0,-1,1511,463,4.25756,11.4843
294,561,4.3125,-11.4763,0,0,0,0,0,0,0,-1,1518,463,4.31255,11.4763
301,561,4.25549,-11.2983,0.00171286,0.0013092,-0.00200163,0.00352281,-0.000500752,-0.735151,0.00253202,0.0414883,1525,463,4.25553,11.2983
308,561,4.2207,-11.0967,0.00111593,0.000511374,-0.00232259,0.00315583,-0.00152852,-0.720688,0.00275837,0.0329522,1532,463,4.22066,11.0967
315,561,4.21143,-10.9856,0.000757098,0.00018543,-0.00239946,0.00288769,-0.00194516,-0.726116,0.00280788,0.0233444,1539,463,4.21145,10.9856
322,561,4.24023,-10.819,0.00051876,-1.88831e-05,-0.00233394,0.00259931,-0.00209943,-0.728061,0.00271793,0.0247862,1546,463,4.24026,10.819
329,561,4.23315,-10.591,0.000285526,-0.000173829,-0.00227029,0.00233773,-0.00222603,-0.734987,0.00263515,0.0158452,1553,463,4.2331,10.591
336,561,4.25989,-10.3784,0.000120968,-8.38303e-05,-0.00203822,0.00205936,-0.00202222,-0.7603,0.00235654,0.0107075,1560,463,4.25992,10.3784
343,561,4.26489,-10.1972,-0.000163554,-0.000151403,-0.00188605,0.00172858,-0.00204354,-0.787009,0.00218036,0.00954192,1567,463,4.26484,10.1972
350,561,4.26038,-10.0113,-0.00039415,-0.000333666,-0.00176476,0.00140111,-0.00212893,-0.793966,0.00205246,0.0093686,1574,463,4.26043,10.0113
357,561,4.26416,-9.80954,-0.000510921,-0.000394948,-0.00160409,0.00115221,-0.00205808,-0.803465,0.00187789,0.00977603,1581,463,4.26419,9.80953
364,561,4.28503,-9.61761,-0.000612378,-0.000313412,-0.00134065,0.000886061,-0.00181185,-0.840919,0.00158791,0.00917629,1588,463,4.28507,9.61762
371,561,4.28186,-9.3959,-0.000687302,-0.000234817,-0.00104306,0.000606251,-0.00152837,-0.892196,0.00127018,0.0151424,1595,463,4.28192,9.39592
378,561,4.26123,-9.19473,-0.000751439,-0.000109111,-0.000760245,0.000395025,-0.00125557,-0.985251,0.000995209,0.0111847,1602,463,4.26118,9.19472
385,561,4.24829,-8.98883,-0.000760274,5.07999e-05,-0.000543533,0.000323413,-0.00103289,-1.1059,0.000817993,0.0100829,1609,463,4.24831,8.98882
392,561,4.24036,-8.74402,-0.000682647,8.51572e-05,-0.000317316,0.000199321,-0.000796812,-1.22543,0.000608627,0.0139217,1616,463,4.2404,8.74401
399,561,4.24866,-8.53821,-0.000542728,0.000145406,-3.68746e-05,0.000147377,-0.000544698,-1.51741,0.000420947,0.0197174,1623,463,4.24864,8.53819
406,561,4.2511,-8.32068,-0.000445928,0.000242555,0.000190224,0.000291617,-0.000494989,1.31838,0.000459179,0.0174049,1630,463,4.25106,8.32069
413,561,4.24609,-8.09891,-0.000378209,0.00037483,0.000318808,0.000491672,-0.000495051,1.2195,0.000569686,0.0167612,1637,463,4.24613,8.09892
420,561,4.22949,-7.85474,0.000128916,0.000508248,0.000171922,0.000574571,6.25928e-05,1.20261,0.000363982,0.0137513,1644,463,4.22949,7.85475
427,561,4.22583,-7.60886,0.00186646,0.00164302,-0.000726241,0.00248952,0.00101996,-0.709077,0.00144512,0.0104565,1651,463,4.22582,7.60886
434,561,4.22888,-7.3811,0.00317638,0.0024621,-0.00140282,0.00426681,0.00137167,-0.660752,0.00251524,0.0110671,1658,463,4.22885,7.3811
441,561,4.23169,-7.18277,0.00497196,0.00361977,-0.00238196,0.00677192,0.00181981,-0.647116,0.00404678,0.0135503,1665,463,4.23174,7.18278
448,561,4.22949,-6.94696,0.00726723,0.00515792,-0.00379402,0.0101504,0.0022747,-0.649832,0.00615058,0.0182321,1672,463,4.22947,6.94697
455,561,4.22009,-6.59735,0.0101785,0.00727655,-0.00543169,0.0143497,0.00310539,-0.654879,0.0087177,0.0341808,1679,463,4.22009,6.59734
462,561,4.099,-6.30472,0.0137021,0.0100083,-0.007235,0.0193222,0.00438821,-0.66043,0.0116964,0.0351782,1686,463,4.09902,6.3047
469,561,4.08179,-6.13522,0.0176525,0.0129543,-0.00935611,0.0249499,0.00565692,-0.662403,0.015105,0.0235194,1693,463,4.08181,6.13523
476,561,4.19397,-5.95758,0.0222207,0.0164764,-0.0114835,0.0311858,0.00751136,-0.662856,0.0187939,0.0415224,1700,463,4.19394,5.95757
483,561,4.32971,-5.77237,0,0,0,0,0,0,0,-1,1707,463,4.32973,5.77236
490,561,6.13135,-2.58374,0,0,0,0,0,0,0,-1,1714,463,6.13139,2.58373
497,561,7.30652,-2.46649,0,0,0,0,0,0,0,-1,1721,463,7.30649,2.4665
504,561,6.45044,-2.35263,0,0,0,0,0,0,0,-1,1728,463,6.4504,2.35263
511,561,0,0,0,0,0,0,0,0,0,-1,1735,463,0,0
518,561,0,0,0,0,0,0,0,0,0,-1,1742,463,0,0
525,561,0,0,0,0,0,0,0,0,0,-1,1749,463,0,0
532,561,0,0,0,0,0,0,0,0,0,-1,1756,463,0,0
539,561,0,0,0,0,0,0,0,0,0,-1,1763,463,0,0
546,561,0,0,0,0,0,0,0,0,0,-1,1770,463,0,0
553,561,0,0,0,0,0,0,0,0,0,-1,1777,463,0,0
560,561,0,0,0,0,0,0,0,0,0,-1,1784,463,0,0
567,561,0,0,0,0,0,0,0,0,0,-1,1791,463,0,0
574,561,0,0,0,0,0,0,0,0,0,-1,1798,463,0,0
581,561,0,0,0,0,0,0,0,0,0,-1,1805,463,0,0
588,561,0,0,0,0,0,0,0,0,0,-1,1812,463,0,0
595,561,0,0,0,0,0,0,0,0,0,-1,1819,463,0,0
602,561,0,0,0,0,0,0,0,0,0,-1,1826,463,0,0
609,561,0,0,0,0,0,0,0,0,0,-1,1833,463,0,0
616,561,0,0,0,0,0,0,0,0,0,-1,1840,463,0,0
623,561,0,0,0,0,0,0,0,0,0,-1,1847,463,0,0
630,561,0,0,0,0,0,0,0,0,0,-1,1854,463,0,0
637,561,0,0,0,0,0,0,0,0,0,-1,1861,463,0,0
644,561,0,0,0,0,0,0,0,0,0,-1,1868,463,0,0
651,561,0,0,0,0,0,0,0,0,0,-1,1875,463,0,0
658,561,0,0,0,0,0,0,0,0,0,-1,1882,463,0,0
665,561,0,0,0,0,0,0,0,0,0,-1,1889,463,0,0
672,561,0,0,0,0,0,0,0,0,0,-1,1896,463,0,0
679,561,0,0,0,0,0,0,0,0,0,-1,1903,463,0,0
686,561,0,0,0,0,0,0,0,0,0,-1,1910,463,0,0
693,561,0,0,0,0,0,0,0,0,0,-1,1917,463,0,0
700,561,0,0,0,0,0,0,0,0,0,-1,1924,463,0,0
707,561,0,0,0,0,0,0,0,0,0,-1,1931,463,0,0
714,561,0,0,0,0,0,0,0,0,0,-1,1938,463,0,0
721,561,0,0,0,0,0,0,0,0,0,-1,1945,463,0,0
728,561,0,0,0,0,0,0,0,0,0,-1,1952,463,0,0
735,561,0,0,0,0,0,0,0,0,0,-1,1959,463,0,0
742,561,0,0,0,0,0,0,0,0,0,-1,1966,463,0,0
749,561,0,0,0,0,0,0,0,0,0,-1,1973,463,0,0
756,561,0,0,0,0,0,0,0,0,0,-1,1980,463,0,0
763,561,0,0,0,0,0,0,0,0,0,-1,1987,463,0,0
770,561,0,0,0,0,0,0,0,0,0,-1,1994,463,0,0
777,561,0,0,0,0,0,0,0,0,0,-1,2001,463,0,0
784,561,0,0,0,0,0,0,0,0,0,-1,2008,463,0,0
791,561,0,0,0,0,0,0,0,0,0,-1,2015,463,0,0
798,561,0,0,0,0,0,0,0,0,0,-1,2022,463,0,0
805,561,0,0,0,0,0,0,0,0,0,-1,2029,463,0,0
812,561,0,0,0,0,0,0,0,0,0,-1,2036,463,0,0
-700,554,0,0,0,0,0,0,0,0,0,-1,524,470,0,0
-693,554,0,0,0,0,0,0,0,0,0,-1,531,470,0,0
-686,554,0,0,0,0,0,0,0,0,0,-1,538,470,0,0
-679,554,0,0,0,0,0,0,0,0,0,-1,545,470,0,0
-672,554,0,0,0,0,0,0,0,0,0,-1,552,470,0,0
-665,554,0,0,0,0,0,0,0,0,0,-1,559,470,0,0
-658,554,0,0,0,0,0,0,0,0,0,-1,566,470,0,0
-651,554,0,0,0,0,0,0,0,0,0,-1,573,470,0,0
-644,554,0,0,0,0,0,0,0,0,0,-1,580,470,0,0
-637,554,0,0,0,0,0,0,0,0,0,-1,587,470,0,0
-630,554,0,0,0,0,0,0,0,0,0,-1,594,470,0,0
-623,554,0,0,0,0,0,0,0,0,0,-1,601,470,0,0
-616,554,0,0,0,0,0,0,0,0,0,-1,608,470,0,0
-609,554,0,0,0,0,0,0,0,0,0,-1,615,470,0,0
-602,554,0,0,0,0,0,0,0,0,0,-1,622,470,0,0
-595,554,0,0,0,0,0,0,0,0,0,-1,629,470,0,0
-588,554,0,0,0,0,0,0,0,0,0,-1,636,470,0,0
-581,554,0,0,0,0,0,0,0,0,0,-1,643,470,0,0
-574,554,0,0,0,0,0,0,0,0,0,-1,650,470,0,0
-567,554,0,0,0,0,0,0,0,0,0,-1,657,470,0,0
-560,554,0,0,0,0,0,0,0,0,0,-1,664,470,0,0
-553,554,0,0,0,0,0,0,0,0,0,-1,671,470,0,0
-546,554,0,0,0,0,0,0,0,0,0,-1,678,470,0,0
-539,554,0,0,0,0,0,0,0,0,0,-1,685,470,0,0
-532,554,0,0,0,0,0,0,0,0,0,-1,692,470,0,0
-525,554,0,0,0,0,0,0,0,0,0,-1,699,470,0,0
-518,554,0,0,0,0,0,0,0,0,0,-1,706,470,0,0
-511,554,0,0,0,0,0,0,0,0,0,-1,713,470,0,0
-504,554,0,0,0,0,0,0,0,0,0,-1,720,470,0,0
-497,554,0,0,0,0,0,0,0,0,0,-1,727,470,0,0
-490,554,0,0,0,0,0,0,0,0,0,-1,734,470,0,0
-483,554,0,0,0,0,0,0,0,0,0,-1,741,470,0,0
-476,554,0,0,0,0,0,0,0,0,0,-1,748,470,0,0
-469,554,0,0,0,0,0,0,0,0,0,-1,755,470,0,0
-462,554,0,0,0,0,0,0,0,0,0,-1,762,470,0,0
-455,554,0,0,0,0,0,0,0,0,0,-1,769,470,0,0
-448,554,0,0,0,0,0,0,0,0,0,-1,776,470,0,0
-441,554,0,0,0,0,0,0,0,0,0,-1,783,470,0,0
-434,554,0,0,0,0,0,0,0,0,0,-1,790,470,0,0
-427,554,0,0,0,0,0,0,0,0,0,-1,797,470,0,0
-420,554,0,0,0,0,0,0,0,0,0,-1,804,470,0,0
-413,554,0,0,0,0,0,0,0,0,0,-1,811,470,0,0
-406,554,0,0,0,0,0,0,0,0,0,-1,818,470,0,0
-399,554,4.31549,-3.60254,0,0,0,0,0,0,0,-1,825,470,4.31548,3.60254
-392,554,3.92578,-3.02924,-0.0033726,0.0866468,0.135892,0.184789,-0.101515,0.945321,0.167612,0.048818,832,470,3.92577,3.02924
-385,554,4.06689,-2.14221,-0.00527734,0.0793536,0.119456,0.163768,-0.0896915,0.955619,0.148403,0.0473504,839,470,4.06687,2.14222
-378,554,5.68042,-0.171387,0,0,0,0,0,0,0,-1,846,470,5.68039,0.171378
-371,554,1.24487,-7.94312,0,0,0,0,0,0,0,-1,853,470,1.24484,7.94311
-364,554,1.04883,-7.68756,0,0,0,0,0,0,0,-1,860,470,1.0488,7.68757
-357,554,1.24969,-7.43643,0,0,0,0,0,0,0,-1,867,470,1.24968,7.43644
-350,554,0.988037,-6.44641,0,0,0,0,0,0,0,-1,874,470,0.988022,6.44642
-343,554,1.17798,-7.4953,0,0,0,0,0,0,0,-1,881,470,1.178,7.49529
-336,554,1.33575,-7.64072,-0.00816426,0.00515112,0.0061655,0.00756747,-0.0105806,1.19728,0.0105258,0.0338016,888,470,1.33575,7.64071
-329,554,1.13971,-7.98218,-0.00785744,-0.000610473,0.000808548,-0.000521358,-0.00794655,1.46102,0.00513275,0.0167212,895,470,1.1397,7.98218
-322,554,1.09814,-8.20438,-0.00688617,-0.000984434,0.000578501,-0.000928263,-0.00694234,1.474,0.00435193,0.0102615,902,470,1.09816,8.20437
-315,554,1.10187,-8.42145,-0.00595037,-0.00119564,0.000414254,-0.00115982,-0.0059862,1.48454,0.00366587,0.0106333,909,470,1.10184,8.42146
-308,554,1.0835,-8.6449,-0.00489593,-0.00129906,0.000182813,-0.00128979,-0.0049052,1.52014,0.0029362,0.0132093,916,470,1.08347,8.6449
-301,554,1.08368,-8.85849,-0.00383178,-0.00132744,4.94768e-05,-0.00132647,-0.00383276,1.55105,0.00224752,0.0141154,923,470,1.08368,8.85848
-294,554,1.05707,-9.05719,-0.00284671,-0.00127924,-1.88065e-05,-0.00127901,-0.00284694,-1.5588,0.0016465,0.0118459,930,470,1.05708,9.05718
-287,554,1.04547,-9.26935,-0.00195152,-0.00126768,-4.81032e-05,-0.00126431,-0.00195489,-1.50091,0.00114474,0.0114458,937,470,1.04547,9.26934
-280,554,1.05365,-9.46313,-0.00107653,-0.00125218,-0.000105706,-0.00102693,-0.00130178,-0.438772,0.000792292,0.0107775,944,470,1.05368,9.46313
-273,554,1.05103,-9.69156,-0.000356117,-0.00126275,-0.000224893,-0.000303398,-0.00131547,-0.230264,0.000795374,0.0142062,951,470,1.05104,9.69156
-266,554,1.04327,-9.91263,0.000202636,-0.00127331,-0.000270027,0.000250487,-0.00132116,-0.175386,0.000975054,0.0116547,958,470,1.04325,9.91261
-259,554,1.04907,-10.0506,0.000771586,-0.00129548,-0.000227571,0.000796343,-0.00132024,-0.108365,0.00123442,0.0114398,965,470,1.04904,10.0506
-252,554,1.04822,-10.2194,0.00123762,-0.00131287,-0.000185445,0.00125103,-0.00132628,-0.0722036,0.00148822,0.0140637,972,470,1.0482,10.2194
-245,554,1.05261,-10.4135,0.0015516,-0.00174288,-0.000114688,0.00155558,-0.00174686,-0.0347562,0.00190773,0.0163702,979,470,1.05259,10.4135
-238,554,1.0545,-10.6255,0.00184914,-0.00238671,3.8175e-05,0.00184948,-0.00238706,0.00901139,0.00245252,0.0122159,986,470,1.05451,10.6255
-231,554,1.05695,-10.8172,0.00204779,-0.00306442,0.000171563,0.00205354,-0.00307017,0.0335092,0.00297753,0.00989032,993,470,1.05693,10.8172
-224,554,1.06897,-10.9908,0.00223204,-0.00377698,0.000397214,0.00225819,-0.00380312,0.0657218,0.00353719,0.00952531,1000,470,1.06896,10.9908
-217,554,1.09674,-11.1523,0.00240672,-0.0043551,0.000707139,0.00247988,-0.00442826,0.103092,0.00404095,0.00990917,1007,470,1.09672,11.1523
-210,554,1.1377,-11.34,0.00268591,-0.00472575,0.00115873,0.00286284,-0.00490268,0.151523,0.0045347,0.0137193,1014,470,1.1377,11.34
-203,554,1.16235,-11.5353,0.00331892,-0.00552861,0.00167893,0.0036268,-0.0058365,0.181366,0.00551307,0.0214038,1021,470,1.16237,11.5353
-196,554,1.1593,-11.6216,0.00426021,-0.00687476,0.00215098,0.00466128,-0.00727583,0.184341,0.00694678,0.0275257,1028,470,1.15928,11.6217
-189,554,1.23877,-11.6691,0.00516667,-0.0079243,0.00256446,0.0056511,-0.00840874,0.186705,0.00816933,0.0315964,1035,470,1.23874,11.6691
-182,554,1.22339,-11.7741,0.00643267,-0.0087935,0.00279164,0.00692836,-0.0092892,0.175733,0.00939622,0.0374932,1042,470,1.2234,11.7741
-175,554,1.19104,-11.8657,0,0,0,0,0,0,0,-1,1049,470,1.19106,11.8657
-168,554,1.03101,-12.575,0,0,0,0,0,0,0,-1,1056,470,1.03095,12.575
-161,554,1.04016,-12.7088,0,0,0,0,0,0,0,-1,1063,470,1.04019,12.7088
-154,554,1.38477,-12.0442,0,0,0,0,0,0,0,-1,1070,470,1.38481,12.0442
-147,554,1.67212,-11.8653,0,0,0,0,0,0,0,-1,1077,470,1.67216,11.8653
-140,554,1.8894,-12.0389,0,0,0,0,0,0,0,-1,1084,470,1.88936,12.0389
-133,554,1.05115,-10.659,0,0,0,0,0,0,0,-1,1091,470,1.05113,10.659
-126,554,-0.195923,-8.76236,0,0,0,0,0,0,0,-1,1098,470,-0.195888,8.76235
-119,554,0.361694,-10.4571,0,0,0,0,0,0,0,-1,1105,470,0.361651,10.4571
-112,554,0.944214,-10.2726,0,0,0,0,0,0,0,-1,1112,470,0.944204,10.2726
-105,554,2.82129,-9.46112,0,0,0,0,0,0,0,-1,1119,470,2.82127,9.46112
-98,554,1.51929,-7.3624,0,0,0,0,0,0,0,-1,1126,470,1.51928,7.36241
-91,554,1.41089,-6.5864,0,0,0,0,0,0,0,-1,1133,470,1.41093,6.58638
-84,554,1.62305,-5.87186,0,0,0,0,0,0,0,-1,1140,470,1.62299,5.87186
-77,554,-2.56958,1.33258,0,0,0,0,0,0,0,-1,1147,470,-2.56959,-1.33257
-70,554,-3.68164,-1.18332,0,0,0,0,0,0,0,-1,1154,470,-3.68158,1.18331
-63,554,-4.86853,-3.88708,0,0,0,0,0,0,0,-1,1161,470,-4.86853,3.88708
-56,554,-5.69958,-6.45422,0,0,0,0,0,0,0,-1,1168,470,-5.69955,6.45422
-49,554,-6.23645,-8.8569,0,0,0,0,0,0,0,-1,1175,470,-6.23643,8.85689
-42,554,-6.62524,-11.5382,0,0,0,0,0,0,0,-1,1182,470,-6.62522,11.5382
-35,554,-2.40173,-4.59482,0,0,0,0,0,0,0,-1,1189,470,-2.40169,4.59481
-28,554,-0.760132,-1.65555,0,0,0,0,0,0,0,-1,1196,470,-0.760095,1.65556
-21,554,6.67249,-10.1976,0,0,0,0,0,0,0,-1,1203,470,6.67249,10.1976
-14,554,1.22205,-10.9346,0,0,0,0,0,0,0,-1,1210,470,1.22202,10.9346
-7,554,1.89722,-11.1107,0,0,0,0,0,0,0,-1,1217,470,1.89726,11.1107
0,554,1.99426,-10.7305,0,0,0,0,0,0,0,-1,1224,470,1.9943,10.7305
7,554,3.17883,-12.2804,0,0,0,0,0,0,0,-1,1231,470,3.17887,12.2804
14,554,4.76782,-14.0292,0,0,0,0,0,0,0,-1,1238,470,4.7678,14.0292
21,554,5.34753,-14.4795,0,0,0,0,0,0,0,-1,1245,470,5.34751,14.4795
28,554,5.91321,-14.876,0.0712888,0.0879053,-0.0987491,0.178695,-0.019501,-0.827367,0.126134,0.0427181,1252,470,5.91325,14.876
35,554,6.80481,-15.439,0.0576583,0.10395,-0.0958045,0.179365,-0.0177567,-0.903924,0.125914,0.041085,1259,470,6.80478,15.439
42,554,7.28491,-15.4705,0,0,0,0,0,0,0,-1,1266,470,7.28486,15.4705
49,554,7.63733,-16.2426,0.0342868,0.115008,-0.0831108,0.16704,-0.0177452,-1.01144,0.117722,0.0466712,1273,470,7.63731,16.2426
56,554,8.16333,-17.0677,0.0230839,0.108407,-0.0717858,0.149251,-0.0177603,-1.0535,0.105918,0.042949,1280,470,8.16337,17.0677
63,554,2.44275,-12.9509,0,0,0,0,0,0,0,-1,1287,470,2.4427,12.9509
70,554,3.02112,-12.6132,0.00580256,0.0621945,-0.0396718,0.0826695,-0.0146724,-1.09434,0.0605988,0.0423546,1294,470,3.02115,12.6132
77,554,3.10986,-12.3492,0.00164646,0.0373479,-0.0236192,0.0491032,-0.0101088,-1.10899,0.0365737,0.0429729,1301,470,3.10985,12.3492
84,554,2.92896,-11.8905,-0.00178866,0.0128716,-0.00714366,0.0157768,-0.00469389,-1.18454,0.0123827,0.0432414,1308,470,2.9289,11.8905
91,554,2.80481,-11.2173,-0.00335118,-0.0132081,0.00734404,0.000564824,-0.0171241,0.489871,0.0116089,0.0407372,1315,470,2.80485,11.2173
98,554,2.61829,-10.7452,-0.000634821,-0.0373666,0.0175584,0.00640803,-0.0444095,0.381463,0.0319572,0.0426982,1322,470,2.61824,10.7452
105,554,2.20972,-10.2337,0.00289699,-0.061781,0.028171,0.0134464,-0.0723304,0.358313,0.0532711,0.0488458,1329,470,2.20968,10.2337
112,554,1.54004,-9.82416,0.00457545,-0.0860652,0.0389976,0.0190443,-0.100534,0.355276,0.0741901,0.0437018,1336,470,1.54005,9.82416
119,554,1.08289,-9.70728,0.00587369,-0.0925444,0.0414679,0.0210161,-0.107687,0.350117,0.0797254,0.040618,1343,470,1.08289,9.70728
126,554,1.62573,-12.4794,0.00848622,-0.0992062,0.0438508,0.0240829,-0.114803,0.341722,0.0856983,0.0449521,1350,470,1.62577,12.4794
133,554,1.82861,-9.81339,0.0119982,-0.10631,0.0450975,0.0272282,-0.12154,0.325687,0.0914637,0.0452989,1357,470,1.82861,9.8134
140,554,2.24377,-9.72696,0.0153698,-0.113093,0.0450192,0.0295756,-0.127299,0.305661,0.0962514,0.0457345,1364,470,2.24372,9.72696
147,554,1.89587,-9.72668,0.0187326,-0.121035,0.0440825,0.0314745,-0.133777,0.281379,0.101319,0.0472953,1371,470,1.89581,9.72669
154,554,1.82605,-9.60876,0,0,0,0,0,0,0,-1,1378,470,1.82599,9.60877
161,554,-1.74866,-15.3942,0,0,0,0,0,0,0,-1,1385,470,-1.74866,15.3942
168,554,-1.89685,-16.8844,0,0,0,0,0,0,0,-1,1392,470,-1.89688,16.8844
175,554,10.663,0.286957,0,0,0,0,0,0,0,-1,1399,470,10.663,-0.286966
182,554,6.71106,-4.50217,0,0,0,0,0,0,0,-1,1406,470,6.71107,4.50215
189,554,6.90479,-2.50348,0,0,0,0,0,0,0,-1,1413,470,6.90477,2.50348
196,554,6.96216,-0.740906,0,0,0,0,0,0,0,-1,1420,470,6.96214,0.740912
203,554,6.43518,0.414154,0,0,0,0,0,0,0,-1,1427,470,6.43523,-0.414141
210,554,6.21167,1.96707,0,0,0,0,0,0,0,-1,1434,470,6.21165,-1.96706
217,554,5.64551,3.4989,0,0,0,0,0,0,0,-1,1441,470,5.64555,-3.49891
224,554,4.85144,-8.85172,0,0,0,0,0,0,0,-1,1448,470,4.85146,8.85173
231,554,3.25073,-5.29642,0,0,0,0,0,0,0,-1,1455,470,3.25078,5.29642
238,554,4.28625,-3.25253,0,0,0,0,0,0,0,-1,1462,470,4.28622,3.25252
245,554,4.0752,-2.90033,0,0,0,0,0,0,0,-1,1469,470,4.07515,2.90032
252,554,3.52112,-0.934998,0,0,0,0,0,0,0,-1,1476,470,3.52113,0.934996
259,554,3.96448,-2.16425,0,0,0,0,0,0,0,-1,1483,470,3.96446,2.16424
266,554,3.0592,-2.71716,0,0,0,0,0,0,0,-1,1490,470,3.05923,2.71718
273,554,2.58521,-3.06876,0,0,0,0,0,0,0,-1,1497,470,2.58524,3.06874
280,554,2.83301,-0.991699,0,0,0,0,0,0,0,-1,1504,470,2.83303,0.991704
287,554,3.54126,-4.12277,0,0,0,0,0,0,0,-1,1511,470,3.54123,4.12277
294,554,3.62036,-8.50146,0,0,0,0,0,0,0,-1,1518,470,3.62031,8.50145
301,554,4.42139,-11.1796,0,0,0,0,0,0,0,-1,1525,470,4.42133,11.1796
308,554,4.43018,-11.1765,0,0,0,0,0,0,0,-1,1532,470,4.43013,11.1764
315,554,4.40417,-11.0908,0,0,0,0,0,0,0,-1,1539,470,4.40414,11.0907
322,554,4.36536,-10.8244,0,0,0,0,0,0,0,-1,1546,470,4.36541,10.8244
329,554,4.42725,-10.5094,-1.05213e-05,-0.000555067,-0.00331707,0.00304543,-0.00361102,-0.744449,0.00384773,0.0291176,1553,470,4.42728,10.5094
336,554,4.42395,-10.3868,-0.00017864,-0.00046272,-0.00303241,0.00271506,-0.00335642,-0.761995,0.00351188,0.0124552,1560,470,4.42389,10.3868
343,554,4.42822,-10.2101,-0.000537135,-0.000649819,-0.00291056,0.00231762,-0.00350458,-0.77572,0.00338465,0.00958241,1567,470,4.4282,10.2101
350,554,4.45447,-10.0101,-0.000850125,-0.00102447,-0.00285258,0.00191662,-0.00379121,-0.770123,0.00335414,0.00913847,1574,470,4.45449,10.0101
357,554,4.46948,-9.8157,-0.000994937,-0.0011883,-0.00272397,0.00163407,-0.00381731,-0.767659,0.00323039,0.0105548,1581,470,4.46954,9.8157
364,554,4.46985,-9.61295,-0.00110128,-0.00115645,-0.00243928,0.00131058,-0.0035683,-0.779744,0.00291562,0.00894297,1588,470,4.46988,9.61293
371,554,4.47827,-9.39737,-0.00116434,-0.00108244,-0.00210083,0.000977834,-0.00322462,-0.795143,0.00253924,0.00821781,1595,470,4.47826,9.39737
378,554,4.47607,-9.1824,-0.00118753,-0.000950096,-0.0017622,0.000697384,-0.00283501,-0.819032,0.00216032,0.00951323,1602,470,4.47602,9.18239
385,554,4.48242,-8.97336,-0.00114923,-0.000716942,-0.00145274,0.000535647,-0.00240182,-0.859249,0.00180643,0.00970915,1609,470,4.48244,8.97337
392,554,4.47534,-8.7485,-0.00104876,-0.000585443,-0.00112488,0.000331388,-0.00196559,-0.886949,0.00143368,0.0136936,1616,470,4.47531,8.74849
399,554,4.47461,-8.49609,-0.000879418,-0.000463871,-0.000779059,0.000134645,-0.00147793,-0.915714,0.0010331,0.0176513,1623,470,4.4746,8.49611
406,554,4.474,-8.27353,-0.000720818,-0.000303936,-0.00047136,3.01364e-06,-0.00102777,-0.993577,0.000686185,0.0158016,1630,470,4.474,8.27352
413,554,4.48254,-8.0582,-0.000553084,-5.89234e-05,-0.000214933,2.14785e-05,-0.000633486,-1.21283,0.000429663,0.0156874,1637,470,4.48255,8.05819
420,554,4.46643,-7.86234,-7.84099e-05,0.000136061,-0.000199515,0.000255333,-0.000197682,-1.03199,0.000262253,0.0169675,1644,470,4.46647,7.86234
427,554,4.45667,-7.62885,0.00127873,0.000989613,-0.000718177,0.00186675,0.000401589,-0.686083,0.00113458,0.0115403,1651,470,4.4567,7.62886
434,554,4.45325,-7.40167,0.00235829,0.00165279,-0.00109815,0.00315896,0.00085213,-0.629993,0.00188718,0.0101382,1658,470,4.45322,7.40167
441,554,4.47327,-7.16669,0.00379445,0.00246105,-0.00171397,0.00496682,0.00128868,-0.599913,0.00297615,0.0108824,1665,470,4.47322,7.1667
448,554,4.46484,-6.90652,0.00558103,0.00352497,-0.00260255,0.00735123,0.00175476,-0.5973,0.00443322,0.0124181,1672,470,4.4649,6.90651
455,554,4.4408,-6.66409,0.00782396,0.00501146,-0.00359305,0.0102761,0.00255927,-0.598872,0.006177,0.0134425,1679,470,4.44076,6.66408
462,554,4.3905,-6.43527,0.0104889,0.00683621,-0.00467983,0.0136862,0.00363898,-0.599356,0.00818533,0.0156328,1686,470,4.39046,6.43526
469,554,4.37891,-6.16119,0.0133414,0.00860092,-0.00603835,0.0174581,0.00448428,-0.598371,0.0104691,0.0222746,1693,470,4.37894,6.16119
476,554,4.75806,-5.87976,0.0166225,0.0108344,-0.00738742,0.0216626,0.00579439,-0.598708,0.0129498,0.0494167,1700,470,4.75809,5.87977
483,554,5.14539,-5.62433,0,0,0,0,0,0,0,-1,1707,470,5.14543,5.62434
490,554,7.31543,-3.51794,0,0,0,0,0,0,0,-1,1714,470,7.3154,3.51794
497,554,7.9751,-2.43454,0,0,0,0,0,0,0,-1,1721,470,7.97505,2.43453
504,554,2.13257,-3.81628,0,0,0,0,0,0,0,-1,1728,470,2.1326,3.8163
511,554,1.31396,-4.02713,0,0,0,0,0,0,0,-1,1735,470,1.31398,4.02712
518,554,-1.15686,-2.436,0,0,0,0,0,0,0,-1,1742,470,-1.15691,2.43599
525,554,0,0,0,0,0,0,0,0,0,-1,1749,470,0,0
532,554,0,0,0,0,0,0,0,0,0,-1,1756,470,0,0
539,554,0,0,0,0,0,0,0,0,0,-1,1763,470,0,0
546,554,0,0,0,0,0,0,0,0,0,-1,1770,470,0,0
553,554,0,0,0,0,0,0,0,0,0,-1,1777,470,0,0
560,554,0,0,0,0,0,0,0,0,0,-1,1784,470,0,0
567,554,0,0,0,0,0,0,0,0,0,-1,1791,470,0,0
574,554,0,0,0,0,0,0,0,0,0,-1,1798,470,0,0
581,554,0,0,0,0,0,0,0,0,0,-1,1805,470,0,0
588,554,0,0,0,0,0,0,0,0,0,-1,1812,470,0,0
595,554,0,0,0,0,0,0,0,0,0,-1,1819,470,0,0
602,554,0,0,0,0,0,0,0,0,0,-1,1826,470,0,0
609,554,0,0,0,0,0,0,0,0,0,-1,1833,470,0,0
616,554,0,0,0,0,0,0,0,0,0,-1,1840,470,0,0
623,554,0,0,0,0,0,0,0,0,0,-1,1847,470,0,0
630,554,0,0,0,0,0,0,0,0,0,-1,1854,470,0,0
637,554,0,0,0,0,0,0,0,0,0,-1,1861,470,0,0
644,554,0,0,0,0,0,0,0,0,0,-1,1868,470,0,0
651,554,0,0,0,0,0,0,0,0,0,-1,1875,470,0,0
658,554,0,0,0,0,0,0,0,0,0,-1,1882,470,0,0
665,554,0,0,0,0,0,0,0,0,0,-1,1889,470,0,0
672,554,0,0,0,0,0,0,0,0,0,-1,1896,470,0,0
679,554,0,0,0,0,0,0,0,0,0,-1,1903,470,0,0
686,554,0,0,0,0,0,0,0,0,0,-1,1910,470,0,0
693,554,0,0,0,0,0,0,0,0,0,-1,1917,470,0,0
700,554,0,0,0,0,0,0,0,0,0,-1,1924,470,0,0
707,554,0,0,0,0,0,0,0,0,0,-1,1931,470,0,0
714,554,0,0,0,0,0,0,0,0,0,-1,1938,470,0,0
721,554,0,0,0,0,0,0,0,0,0,-1,1945,470,0,0
728,554,0,0,0,0,0,0,0,0,0,-1,1952,470,0,0
735,554,0,0,0,0,0,0,0,0,0,-1,1959,470,0,0
742,554,0,0,0,0,0,0,0,0,0,-1,1966,470,0,0
749,554,0,0,0,0,0,0,0,0,0,-1,1973,470,0,0
756,554,0,0,0,0,0,0,0,0,0,-1,1980,470,0,0
763,554,0,0,0,0,0,0,0,0,0,-1,1987,470,0,0
770,554,0,0,0,0,0,0,0,0,0,-1,1994,470,0,0
777,554,0,0,0,0,0,0,0,0,0,-1,2001,470,0,0
784,554,0,0,0,0,0,0,0,0,0,-1,2008,470,0,0
791,554,0,0,0,0,0,0,0,0,0,-1,2015,470,0,0
798,554,0,0,0,0,0,0,0,0,0,-1,2022,470,0,0
805,554,0,0,0,0,0,0,0,0,0,-1,2029,470,0,0
812,554,0,0,0,0,0,0,0,0,0,-1,2036,470,0,0
-700,547,0,0,0,0,0,0,0,0,0,-1,524,477,0,0
-693,547,0,0,0,0,0,0,0,0,0,-1,531,477,0,0
-686,547,0,0,0,0,0,0,0,0,0,-1,538,477,0,0
-679,547,0,0,0,0,0,0,0,0,0,-1,545,477,0,0
-672,547,0,0,0,0,0,0,0,0,0,-1,552,477,0,0
-665,547,0,0,0,0,0,0,0,0,0,-1,559,477,0,0
-658,547,0,0,0,0,0,0,0,0,0,-1,566,477,0,0
-651,547,0,0,0,0,0,0,0,0,0,-1,573,477,0,0
-644,547,0,0,0,0,0,0,0,0,0,-1,580,477,0,0
-637,547,0,0,0,0,0,0,0,0,0,-1,587,477,0,0
-630,547,0,0,0,0,0,0,0,0,0,-1,594,477,0,0
-623,547,0,0,0,0,0,0,0,0,0,-1,601,477,0,0
-616,547,0,0,0,0,0,0,0,0,0,-1,608,477,0,0
-609,547,0,0,0,0,0,0,0,0,0,-1,615,477,0,0
-602,547,0,0,0,0,0,0,0,0,0,-1,622,477,0,0
-595,547,0,0,0,0,0,0,0,0,0,-1,629,477,0,0
-588,547,0,0,0,0,0,0,0,0,0,-1,636,477,0,0
-581,547,0,0,0,0,0,0,0,0,0,-1,643,477,0,0
-574,547,0,0,0,0,0,0,0,0,0,-1,650,477,0,0
-567,547,0,0,0,0,0,0,0,0,0,-1,657,477,0,0
-560,547,0,0,0,0,0,0,0,0,0,-1,664,477,0,0
-553,547,0,0,0,0,0,0,0,0,0,-1,671,477,0,0
-546,547,0,0,0,0,0,0,0,0,0,-1,678,477,0,0
-539,547,0,0,0,0,0,0,0,0,0,-1,685,477,0,0
-532,547,0,0,0,0,0,0,0,0,0,-1,692,477,0,0
-525,547,0,0,0,0,0,0,0,0,0,-1,699,477,0,0
-518,547,0,0,0,0,0,0,0,0,0,-1,706,477,0,0
-511,547,0,0,0,0,0,0,0,0,0,-1,713,477,0,0
-504,547,0,0,0,0,0,0,0,0,0,-1,720,477,0,0
-497,547,0,0,0,0,0,0,0,0,0,-1,727,477,0,0
-490,547,0,0,0,0,0,0,0,0,0,-1,734,477,0,0
-483,547,0,0,0,0,0,0,0,0,0,-1,741,477,0,0
-476,547,0,0,0,0,0,0,0,0,0,-1,748,477,0,0
-469,547,0,0,0,0,0,0,0,0,0,-1,755,477,0,0
-462,547,0,0,0,0,0,0,0,0,0,-1,762,477,0,0
-455,547,0,0,0,0,0,0,0,0,0,-1,769,477,0,0
-448,547,0,0,0,0,0,0,0,0,0,-1,776,477,0,0
-441,547,0,0,0,0,0,0,0,0,0,-1,783,477,0,0
-434,547,0,0,0,0,0,0,0,0,0,-1,790,477,0,0
-427,547,0,0,0,0,0,0,0,0,0,-1,797,477,0,0
-420,547,0,0,0,0,0,0,0,0,0,-1,804,477,0,0
-413,547,0,0,0,0,0,0,0,0,0,-1,811,477,0,0
-406,547,3.48145,-4.73053,-0.0171242,0.0622557,0.125372,0.15407,-0.108939,0.938696,0.152591,0.0460251,818,477,3.48143,4.73054
-399,547,3.32983,-3.96545,-0.00993579,0.0643033,0.121285,0.154022,-0.0996547,0.933898,0.147577,0.0491391,825,477,3.32984,3.96546
-392,547,2.92407,-3.52106,-0.00700742,0.0625641,0.111561,0.144637,-0.0890799,0.936526,0.136201,0.0481318,832,477,2.92407,3.52107
-385,547,2.76971,-3.02631,-0.00722534,0.0574331,0.0978894,0.128194,-0.0779859,0.94489,0.120209,0.0492888,839,477,2.76972,3.0263
-378,547,2.87183,-2.31735,0,0,0,0,0,0,0,-1,846,477,2.87181,2.31736
-371,547,1.20789,-8.06766,0,0,0,0,0,0,0,-1,853,477,1.20791,8.06765
-364,547,0.271729,-4.58582,0,0,0,0,0,0,0,-1,860,477,0.271753,4.5858
-357,547,1.13318,-6.4292,0,0,0,0,0,0,0,-1,867,477,1.1332,6.4292
-350,547,0.895142,-7.23798,0,0,0,0,0,0,0,-1,874,477,0.895113,7.23799
-343,547,0.930237,-7.50272,-0.00630262,0.00919804,0.0115623,0.0153673,-0.0124719,1.08066,0.0161019,0.0337534,881,477,0.930221,7.50271
-336,547,0.957092,-7.75223,-0.0061445,0.00388841,0.00486794,0.00586206,-0.00811816,1.18561,0.00810644,0.0160633,888,477,0.957074,7.75222
-329,547,0.895386,-7.98309,-0.00577841,-0.000385513,0.000778895,-0.000275271,-0.00588865,1.43019,0.0038373,0.00944998,895,477,0.895365,7.98308
-322,547,0.889465,-8.20715,-0.00496079,-0.00055563,0.000548058,-0.000488469,-0.00502795,1.44886,0.00320159,0.00994529,902,477,0.889456,8.20715
-315,547,0.869446,-8.43143,-0.00417421,-0.000608043,0.000384553,-0.000567047,-0.00421521,1.46459,0.00264149,0.00974945,909,477,0.869439,8.43142
-308,547,0.868896,-8.64761,-0.00327785,-0.000629351,0.000173951,-0.000617975,-0.00328923,1.50549,0.00201861,0.0115108,916,477,0.868895,8.6476
-301,547,0.876587,-8.86652,-0.00238126,-0.00062408,5.98949e-05,-0.000622041,-0.0023833,1.53676,0.00142743,0.0113298,923,477,0.876611,8.86653
-294,547,0.869873,-9.06927,-0.00156671,-0.000611023,5.57173e-06,-0.000610991,-0.00156675,1.56497,0.000911833,0.00943278,930,477,0.869854,9.06927
-287,547,0.865295,-9.2579,-0.000830113,-0.000715392,-7.45729e-06,-0.000714909,-0.000830596,-1.50616,0.00051948,0.0113168,937,477,0.865311,9.2579
-280,547,0.881775,-9.45996,-9.02356e-05,-0.000842311,-4.91045e-05,-8.7043e-05,-0.000845503,-0.0649247,0.000537011,0.0126721,944,477,0.881755,9.45996
-273,547,0.863342,-9.67865,0.000507451,-0.00103382,-0.000147776,0.000521492,-0.00104787,-0.0947293,0.000922901,0.0120828,951,477,0.863337,9.67864
-266,547,0.841553,-9.89243,0.00094192,-0.00124939,-0.000191179,0.000958474,-0.00126594,-0.0863744,0.00128835,0.0113052,958,477,0.841572,9.89244
-259,547,0.852905,-10.0753,0.00142741,-0.00147461,-0.000157953,0.00143598,-0.00148318,-0.0542153,0.00168545,0.0106478,965,477,0.852934,10.0754
-252,547,0.875366,-10.2532,0.00184684,-0.0016995,-0.000124937,0.00185124,-0.0017039,-0.0351717,0.00205315,0.0114763,972,477,0.875352,10.2532
-245,547,0.885986,-10.4357,0.00209691,-0.00239875,-1.95323e-05,0.00209699,-0.00239884,-0.00434459,0.00259762,0.0127885,979,477,0.886006,10.4357
-238,547,0.888306,-10.6234,0.00238152,-0.00328843,0.000143888,0.00238517,-0.00329208,0.0253556,0.00329167,0.00910283,986,477,0.888308,10.6233
-231,547,0.890137,-10.8152,0.00262072,-0.00416453,0.000275849,0.00263192,-0.00417573,0.0405649,0.00396394,0.00832865,993,477,0.890134,10.8152
-224,547,0.89801,-10.9821,0.00285992,-0.00508995,0.000548017,0.00289752,-0.00512755,0.0685023,0.00469252,0.0100002,1000,477,0.898006,10.9821
-217,547,0.934692,-11.162,0.00308341,-0.00580394,0.000922651,0.00317819,-0.00589871,0.102362,0.00531843,0.0138519,1007,477,0.93472,11.1619
-210,547,0.968567,-11.3035,0.00340035,-0.0062653,0.0014736,0.00362002,-0.00648497,0.14798,0.00591176,0.0244651,1014,477,0.968578,11.3035
-203,547,1.07208,-11.2198,0.00412305,-0.00727287,0.00214547,0.00451358,-0.0076634,0.180057,0.00710835,0.0372494,1021,477,1.07207,11.2198
-196,547,0.927612,-11.2973,0.00526375,-0.00894648,0.00279233,0.00579276,-0.00947549,0.18723,0.00890019,0.0447807,1028,477,0.927557,11.2973
-189,547,0.990356,-11.3502,0.00638817,-0.0102808,0.00337527,0.00704569,-0.0109383,0.192395,0.0104638,0.0466334,1035,477,0.990383,11.3502
-182,547,1.14185,-11.6793,0,0,0,0,0,0,0,-1,1042,477,1.14183,11.6792
-175,547,0.149902,-11.3664,0,0,0,0,0,0,0,-1,1049,477,0.149873,11.3664
-168,547,1.12463,-8.66785,0,0,0,0,0,0,0,-1,1056,477,1.12461,8.66786
-161,547,-0.866577,-10.5763,0,0,0,0,0,0,0,-1,1063,477,-0.866574,10.5763
-154,547,2.27588,-13.0551,0,0,0,0,0,0,0,-1,1070,477,2.27592,13.055
-147,547,2.24561,-12.1978,0,0,0,0,0,0,0,-1,1077,477,2.24557,12.1978
-140,547,0.928467,-10.8473,0,0,0,0,0,0,0,-1,1084,477,0.928422,10.8473
-133,547,3.49597,-11.0495,0,0,0,0,0,0,0,-1,1091,477,3.49598,11.0495
-126,547,0.784302,-9.76431,0,0,0,0,0,0,0,-1,1098,477,0.78428,9.76432
-119,547,-0.531006,-10.0229,0,0,0,0,0,0,0,-1,1105,477,-0.530984,10.0229
-112,547,4.36194,-9.23029,0,0,0,0,0,0,0,-1,1112,477,4.36195,9.23029
-105,547,4.448,-9.17819,0,0,0,0,0,0,0,-1,1119,477,4.44799,9.1782
-98,547,1.50391,-7.20621,0,0,0,0,0,0,0,-1,1126,477,1.50395,7.20621
-91,547,1.37805,-7.12024,0,0,0,0,0,0,0,-1,1133,477,1.37804,7.12025
-84,547,1.94202,-6.66241,0,0,0,0,0,0,0,-1,1140,477,1.94201,6.66241
-77,547,-2.28357,1.8588,0,0,0,0,0,0,0,-1,1147,477,-2.28356,-1.85879
-70,547,-3.70178,-0.874908,0,0,0,0,0,0,0,-1,1154,477,-3.70182,0.874918
-63,547,-5.12012,-3.60861,0,0,0,0,0,0,0,-1,1161,477,-5.12009,3.60862
-56,547,-6.01917,-6.2399,0,0,0,0,0,0,0,-1,1168,477,-6.01921,6.23991
-49,547,-6.729,-8.60349,0,0,0,0,0,0,0,-1,1175,477,-6.72899,8.60348
-42,547,-2.41736,-5.53012,0,0,0,0,0,0,0,-1,1182,477,-2.41734,5.53011
-35,547,-2.96838,-4.45734,0,0,0,0,0,0,0,-1,1189,477,-2.96839,4.45734
-28,547,-0.869141,-1.29901,0,0,0,0,0,0,0,-1,1196,477,-0.869135,1.29901
-21,547,0.119873,-9.64642,0,0,0,0,0,0,0,-1,1203,477,0.11992,9.64642
-14,547,1.0575,-10.0694,0,0,0,0,0,0,0,-1,1210,477,1.05746,10.0694
-7,547,2.03174,-10.5107,0,0,0,0,0,0,0,-1,1217,477,2.0317,10.5108
0,547,2.79053,-11.0428,0,0,0,0,0,0,0,-1,1224,477,2.79053,11.0429
7,547,3.09241,-11.3405,0,0,0,0,0,0,0,-1,1231,477,3.09235,11.3405
14,547,0,0,0,0,0,0,0,0,0,-1,1238,477,0,0
21,547,0,0,0,0,0,0,0,0,0,-1,1245,477,0,0
28,547,0,0,0,0,0,0,0,0,0,-1,1252,477,0,0
35,547,0,0,0,0,0,0,0,0,0,-1,1259,477,0,0
42,547,0,0,0,0,0,0,0,0,0,-1,1266,477,0,0
49,547,0,0,0,0,0,0,0,0,0,-1,1273,477,0,0
56,547,0,0,0,0,0,0,0,0,0,-1,1280,477,0,0
63,547,0,0,0,0,0,0,0,0,0,-1,1287,477,0,0
70,547,0,0,0,0,0,0,0,0,0,-1,1294,477,0,0
77,547,0,0,0,0,0,0,0,0,0,-1,1301,477,0,0
84,547,0,0,0,0,0,0,0,0,0,-1,1308,477,0,0
91,547,0,0,0,0,0,0,0,0,0,-1,1315,477,0,0
98,547,0,0,0,0,0,0,0,0,0,-1,1322,477,0,0
105,547,1.75745,-10.1952,-0.00200894,-0.0572785,0.0355829,0.0154099,-0.0746973,0.455234,0.0556506,0.0436728,1329,477,1.7575,10.1952
112,547,1.22925,-9.33511,0.0011627,-0.0895914,0.0505203,0.0236928,-0.112122,0.41949,0.0837697,0.0407203,1336,477,1.22928,9.33511
119,547,0.762573,-8.74765,0.00491172,-0.0985377,0.0534382,0.0275583,-0.121184,0.400845,0.0913716,0.0402234,1343,477,0.762612,8.74764
126,547,0.62085,-8.97726,0,0,0,0,0,0,0,-1,1350,477,0.620853,8.97728
133,547,1.08813,-8.68655,0.0166251,-0.11767,0.0574826,0.037869,-0.138913,0.354003,0.107479,0.04614,1357,477,1.08813,8.68654
140,547,1.64722,-8.75174,0.0221923,-0.126977,0.0567988,0.0413572,-0.146142,0.325421,0.113748,0.0438084,1364,477,1.64719,8.75174
147,547,1.98914,-9.16605,0.0272116,-0.137827,0.0548408,0.0437728,-0.154389,0.293278,0.120203,0.0460617,1371,477,1.98909,9.16605
154,547,2.4447,-9.93738,0,0,0,0,0,0,0,-1,1378,477,2.44469,9.93738
161,547,1.75159,-9.24216,0,0,0,0,0,0,0,-1,1385,477,1.75159,9.24217
168,547,-6.75854,-16.465,0,0,0,0,0,0,0,-1,1392,477,-6.75852,16.465
175,547,3.35034,-0.26532,0,0,0,0,0,0,0,-1,1399,477,3.3503,0.265306
182,547,4.26038,3.72672,0,0,0,0,0,0,0,-1,1406,477,4.26039,-3.7267
189,547,3.40454,1.28671,0,0,0,0,0,0,0,-1,1413,477,3.40457,-1.28673
196,547,3.53931,1.87793,0,0,0,0,0,0,0,-1,1420,477,3.53928,-1.87794
203,547,6.49414,-0.425842,0,0,0,0,0,0,0,-1,1427,477,6.4941,0.425844
210,547,4.82092,0.53595,0,0,0,0,0,0,0,-1,1434,477,4.82096,-0.535942
217,547,4.68579,0.480072,0,0,0,0,0,0,0,-1,1441,477,4.68577,-0.480069
224,547,4.55615,0.739807,0,0,0,0,0,0,0,-1,1448,477,4.55613,-0.73981
231,547,5.90869,-3.57721,0,0,0,0,0,0,0,-1,1455,477,5.90871,3.57722
238,547,5.50049,-3.15356,0,0,0,0,0,0,0,-1,1462,477,5.50045,3.15356
245,547,5.13708,-2.65213,0,0,0,0,0,0,0,-1,1469,477,5.13708,2.65212
252,547,3.73511,-0.645233,0,0,0,0,0,0,0,-1,1476,477,3.73515,0.645237
259,547,5.86816,-3.20816,0,0,0,0,0,0,0,-1,1483,477,5.86815,3.20816
266,547,5.40222,-2.45731,0,0,0,0,0,0,0,-1,1490,477,5.40221,2.45732
273,547,3.05737,0.495789,0,0,0,0,0,0,0,-1,1497,477,3.05742,-0.49578
280,547,2.0885,1.47797,0,0,0,0,0,0,0,-1,1504,477,2.08848,-1.47795
287,547,2.31177,-2.21716,0,0,0,0,0,0,0,-1,1511,477,2.31174,2.21717
294,547,2.4823,-3.03659,0,0,0,0,0,0,0,-1,1518,477,2.48229,3.0366
301,547,4.72119,-3.93454,0,0,0,0,0,0,0,-1,1525,477,4.72119,3.93453
308,547,4.07471,-5.42175,0,0,0,0,0,0,0,-1,1532,477,4.07468,5.42174
315,547,3.58496,-6.62112,0,0,0,0,0,0,0,-1,1539,477,3.58497,6.62113
322,547,4.80261,-10.3129,0,0,0,0,0,0,0,-1,1546,477,4.80264,10.3129
329,547,4.70508,-10.4955,0,0,0,0,0,0,0,-1,1553,477,4.70502,10.4955
336,547,4.66687,-10.3532,-0.000814812,-0.000795927,-0.00431549,0.00351013,-0.00512087,-0.786492,0.00501195,0.0341632,1560,477,4.66688,10.3532
343,547,4.68335,-10.2578,-0.00128547,-0.00121631,-0.00427168,0.00302093,-0.00552271,-0.789446,0.00500267,0.0264355,1567,477,4.68331,10.2577
350,547,4.70703,-10.0771,-0.00173629,-0.00193538,-0.00435011,0.00251541,-0.00618708,-0.773958,0.0051713,0.020943,1574,477,4.70698,10.0771
357,547,4.67847,-9.8447,-0.00191603,-0.00226333,-0.00427852,0.00219236,-0.00637173,-0.765116,0.00513699,0.0155183,1581,477,4.67852,9.84468
364,547,4.65442,-9.61218,-0.00199881,-0.00228656,-0.00393976,0.0017997,-0.00608506,-0.767147,0.00477113,0.0105757,1588,477,4.6544,9.61217
371,547,4.67786,-9.39716,-0.00200078,-0.00220502,-0.00351887,0.00141745,-0.00562325,-0.770892,0.00429992,0.00926905,1595,477,4.67786,9.39715
378,547,4.70898,-9.19016,-0.00193356,-0.0020361,-0.00307386,0.00108945,-0.00505912,-0.777059,0.00378847,0.00972271,1602,477,4.70897,9.19015
385,547,4.70251,-8.97531,-0.00181383,-0.00169913,-0.00262523,0.000869379,-0.00438234,-0.796319,0.00325034,0.0103448,1609,477,4.70249,8.97532
392,547,4.69507,-8.76718,-0.00165776,-0.00142334,-0.00215187,0.000614516,-0.00369561,-0.812605,0.00269206,0.0115325,1616,477,4.69507,8.76717
399,547,4.69812,-8.52539,-0.00142321,-0.00119747,-0.00169924,0.000392638,-0.00301332,-0.818561,0.00215174,0.0132689,1623,477,4.69808,8.52538
406,547,4.70288,-8.28638,-0.00116922,-0.00092804,-0.00127422,0.000231284,-0.00232854,-0.832577,0.00163492,0.0126967,1630,477,4.70287,8.28638
413,547,4.70593,-8.06494,-0.000877126,-0.000543314,-0.000867788,0.000173473,-0.00159391,-0.880406,0.0011249,0.0127521,1637,477,4.70588,8.06495
420,547,4.70056,-7.8772,-0.000414765,-0.000257087,-0.000674047,0.000342716,-0.00101457,-0.843615,0.000815002,0.0151729,1644,477,4.70054,7.87719
427,547,4.69934,-7.64417,0.000645182,0.000421308,-0.000855732,0.00139627,-0.000329777,-0.720363,0.00105804,0.0140356,1651,477,4.69939,7.64416
434,547,4.67639,-7.41376,0.00155831,0.000993101,-0.000976029,0.00229182,0.000259587,-0.64448,0.00144912,0.00950498,1658,477,4.67638,7.41375
441,547,4.68909,-7.16354,0.00272383,0.00155913,-0.00129464,0.00356107,0.000721894,-0.574048,0.00217375,0.00984096,1665,477,4.68911,7.16354
448,547,4.68469,-6.90164,0.00413824,0.00229812,-0.00176886,0.00521201,0.00122435,-0.545582,0.00314697,0.0103702,1672,477,4.68465,6.90164
455,547,4.68909,-6.66083,0.005888,0.00334211,-0.00226925,0.00721695,0.00201316,-0.529791,0.0043003,0.0104576,1679,477,4.68905,6.66082
462,547,4.64648,-6.43713,0.00791818,0.00453061,-0.00283807,0.00952947,0.00291932,-0.516363,0.00563772,0.0101418,1686,477,4.64646,6.43712
469,547,4.63879,-6.18076,0.00997389,0.00547817,-0.00365827,0.0120197,0.00343234,-0.509906,0.00714917,0.0189888,1693,477,4.63876,6.18076
476,547,4.95422,-5.92072,0.0122736,0.00675259,-0.00443894,0.0147404,0.0042858,-0.507221,0.00875525,0.0461749,1700,477,4.95428,5.92071
483,547,5.29077,-5.60287,0,0,0,0,0,0,0,-1,1707,477,5.29083,5.60287
490,547,3.65271,-3.71707,0,0,0,0,0,0,0,-1,1714,477,3.65277,3.71708
497,547,2.55481,-3.81421,0,0,0,0,0,0,0,-1,1721,477,2.55476,3.8142
504,547,4.01953,-2.22714,0,0,0,0,0,0,0,-1,1728,477,4.0195,2.22713
511,547,4.82495,-1.45642,0,0,0,0,0,0,0,-1,1735,477,4.82495,1.45641
518,547,4.69446,-3.75436,0,0,0,0,0,0,0,-1,1742,477,4.69445,3.75438
525,547,0.781616,-3.76355,0,0,0,0,0,0,0,-1,1749,477,0.781645,3.76354
532,547,0,0,0,0,0,0,0,0,0,-1,1756,477,0,0
539,547,0,0,0,0,0,0,0,0,0,-1,1763,477,0,0
546,547,0,0,0,0,0,0,0,0,0,-1,1770,477,0,0
553,547,0,0,0,0,0,0,0,0,0,-1,1777,477,0,0
560,547,0,0,0,0,0,0,0,0,0,-1,1784,477,0,0
567,547,0,0,0,0,0,0,0,0,0,-1,1791,477,0,0
574,547,0,0,0,0,0,0,0,0,0,-1,1798,477,0,0
581,547,0,0,0,0,0,0,0,0,0,-1,1805,477,0,0
588,547,0,0,0,0,0,0,0,0,0,-1,1812,477,0,0
595,547,0,0,0,0,0,0,0,0,0,-1,1819,477,0,0
602,547,0,0,0,0,0,0,0,0,0,-1,1826,477,0,0
609,547,0,0,0,0,0,0,0,0,0,-1,1833,477,0,0
616,547,0,0,0,0,0,0,0,0,0,-1,1840,477,0,0
623,547,0,0,0,0,0,0,0,0,0,-1,1847,477,0,0
630,547,0,0,0,0,0,0,0,0,0,-1,1854,477,0,0
637,547,0,0,0,0,0,0,0,0,0,-1,1861,477,0,0
644,547,0,0,0,0,0,0,0,0,0,-1,1868,477,0,0
651,547,0,0,0,0,0,0,0,0,0,-1,1875,477,0,0
658,547,0,0,0,0,0,0,0,0,0,-1,1882,477,0,0
665,547,0,0,0,0,0,0,0,0,0,-1,1889,477,0,0
672,547,0,0,0,0,0,0,0,0,0,-1,1896,477,0,0
679,547,0,0,0,0,0,0,0,0,0,-1,1903,477,0,0
686,547,0,0,0,0,0,0,0,0,0,-1,1910,477,0,0
693,547,0,0,0,0,0,0,0,0,0,-1,1917,477,0,0
700,547,0,0,0,0,0,0,0,0,0,-1,1924,477,0,0
707,547,0,0,0,0,0,0,0,0,0,-1,1931,477,0,0
714,547,0,0,0,0,0,0,0,0,0,-1,1938,477,0,0
721,547,0,0,0,0,0,0,0,0,0,-1,1945,477,0,0
728,547,0,0,0,0,0,0,0,0,0,-1,1952,477,0,0
735,547,0,0,0,0,0,0,0,0,0,-1,1959,477,0,0
742,547,0,0,0,0,0,0,0,0,0,-1,1966,477,0,0
749,547,0,0,0,0,0,0,0,0,0,-1,1973,477,0,0
756,547,0,0,0,0,0,0,0,0,0,-1,1980,477,0,0
763,547,0,0,0,0,0,0,0,0,0,-1,1987,477,0,0
770,547,0,0,0,0,0,0,0,0,0,-1,1994,477,0,0
777,547,0,0,0,0,0,0,0,0,0,-1,2001,477,0,0
784,547,0,0,0,0,0,0,0,0,0,-1,2008,477,0,0
791,547,0,0,0,0,0,0,0,0,0,-1,2015,477,0,0
798,547,0,0,0,0,0,0,0,0,0,-1,2022,477,0,0
805,547,0,0,0,0,0,0,0,0,0,-1,2029,477,0,0
812,547,0,0,0,0,0,0,0,0,0,-1,2036,477,0,0
-700,540,0,0,0,0,0,0,0,0,0,-1,524,484,0,0
-693,540,0,0,0,0,0,0,0,0,0,-1,531,484,0,0
-686,540,0,0,0,0,0,0,0,0,0,-1,538,484,0,0
-679,540,0,0,0,0,0,0,0,0,0,-1,545,484,0,0
-672,540,0,0,0,0,0,0,0,0,0,-1,552,484,0,0
-665,540,0,0,0,0,0,0,0,0,0,-1,559,484,0,0
-658,540,0,0,0,0,0,0,0,0,0,-1,566,484,0,0
-651,540,0,0,0,0,0,0,0,0,0,-1,573,484,0,0
-644,540,0,0,0,0,0,0,0,0,0,-1,580,484,0,0
-637,540,0,0,0,0,0,0,0,0,0,-1,587,484,0,0
-630,540,0,0,0,0,0,0,0,0,0,-1,594,484,0,0
-623,540,0,0,0,0,0,0,0,0,0,-1,601,484,0,0
-616,540,0,0,0,0,0,0,0,0,0,-1,608,484,0,0
-609,540,0,0,0,0,0,0,0,0,0,-1,615,484,0,0
-602,540,0,0,0,0,0,0,0,0,0,-1,622,484,0,0
-595,540,0,0,0,0,0,0,0,0,0,-1,629,484,0,0
-588,540,0,0,0,0,0,0,0,0,0,-1,636,484,0,0
-581,540,0,0,0,0,0,0,0,0,0,-1,643,484,0,0
-574,540,0,0,0,0,0,0,0,0,0,-1,650,484,0,0
-567,540,0,0,0,0,0,0,0,0,0,-1,657,484,0,0
-560,540,0,0,0,0,0,0,0,0,0,-1,664,484,0,0
-553,540,0,0,0,0,0,0,0,0,0,-1,671,484,0,0
-546,540,0,0,0,0,0,0,0,0,0,-1,678,484,0,0
-539,540,0,0,0,0,0,0,0,0,0,-1,685,484,0,0
-532,540,0,0,0,0,0,0,0,0,0,-1,692,484,0,0
-525,540,0,0,0,0,0,0,0,0,0,-1,699,484,0,0
-518,540,0,0,0,0,0,0,0,0,0,-1,706,484,0,0
-511,540,0,0,0,0,0,0,0,0,0,-1,713,484,0,0
-504,540,0,0,0,0,0,0,0,0,0,-1,720,484,0,0
-497,540,0,0,0,0,0,0,0,0,0,-1,727,484,0,0
-490,540,0,0,0,0,0,0,0,0,0,-1,734,484,0,0
-483,540,0,0,0,0,0,0,0,0,0,-1,741,484,0,0
-476,540,0,0,0,0,0,0,0,0,0,-1,748,484,0,0
-469,540,0,0,0,0,0,0,0,0,0,-1,755,484,0,0
-462,540,0,0,0,0,0,0,0,0,0,-1,762,484,0,0
-455,540,0,0,0,0,0,0,0,0,0,-1,769,484,0,0
-448,540,0,0,0,0,0,0,0,0,0,-1,776,484,0,0
-441,540,0,0,0,0,0,0,0,0,0,-1,783,484,0,0
-434,540,0,0,0,0,0,0,0,0,0,-1,790,484,0,0
-427,540,0,0,0,0,0,0,0,0,0,-1,797,484,0,0
-420,540,3.00336,-6.4053,0,0,0,0,0,0,0,-1,804,484,3.00337,6.4053
-413,540,2.96899,-5.74765,-0.0358609,0.0396277,0.0966495,0.105642,-0.101875,0.971555,0.119816,0.0483012,811,484,2.96899,5.74765
-406,540,2.73175,-4.89182,-0.022859,0.0442114,0.0983729,0.114608,-0.0932558,0.94967,0.120221,0.0475271,818,484,2.73173,4.89182
-399,540,2.52014,-4.3764,-0.0147372,0.0459086,0.0955469,0.115829,-0.0846575,0.939052,0.116216,0.0470265,825,484,2.52016,4.37642
-392,540,2.46759,-4.13956,0,0,0,0,0,0,0,-1,832,484,2.46759,4.13956
-385,540,1.2442,-4.01782,0,0,0,0,0,0,0,-1,839,484,1.24422,4.01782
-378,540,-3.828,-3.2016,0,0,0,0,0,0,0,-1,846,484,-3.82798,3.20159
-371,540,-0.0177002,-4.21246,0,0,0,0,0,0,0,-1,853,484,-0.0176722,4.21247
-364,540,1.01849,-6.95203,0,0,0,0,0,0,0,-1,860,484,1.01852,6.95202
-357,540,0.679688,-7.11801,0,0,0,0,0,0,0,-1,867,484,0.679661,7.118
-350,540,0.702393,-7.35202,-0.006064,0.0110984,0.0177417,0.0222252,-0.0171908,1.01065,0.0228187,0.0295962,874,484,0.702395,7.35203
-343,540,0.706482,-7.53366,-0.00468041,0.00668931,0.00853764,0.0112616,-0.00925269,1.07912,0.0118628,0.012892,881,484,0.706461,7.53367
-336,540,0.670715,-7.7659,-0.00440279,0.00289892,0.0036324,0.00439812,-0.00590199,1.17936,0.00596786,0.0119189,888,484,0.670723,7.7659
-329,540,0.661926,-7.97592,-0.00399942,-0.000122196,0.000593748,-3.33085e-05,-0.0040883,1.42219,0.0027145,0.0102689,895,484,0.661928,7.97593
-322,540,0.662231,-8.20343,-0.0032998,-0.00016229,0.000351724,-0.000123344,-0.00333874,1.46052,0.00218587,0.0128705,902,484,0.662219,8.20344
-315,540,0.651367,-8.43604,-0.00261766,-0.00011837,0.000185445,-0.000104685,-0.00263135,1.49713,0.0017204,0.0119315,909,484,0.651347,8.43604
-308,540,0.65332,-8.64505,-0.00182858,-7.22116e-05,-9.77763e-06,-7.21572e-05,-0.00182863,-1.56523,0.00119576,0.0117266,916,484,0.653341,8.64504
-301,540,0.668518,-8.85681,-0.00104814,-3.50975e-05,-0.000108076,-2.36957e-05,-0.00105954,-1.46569,0.000698595,0.0111826,923,484,0.668507,8.85682
-294,540,0.687744,-9.06836,-0.000346968,-4.60899e-05,-0.000142046,1.03743e-05,-0.000403432,-1.19244,0.000272479,0.0101828,930,484,0.687763,9.06837
-287,540,0.686462,-9.26941,0.00028337,-0.000243557,-0.000126756,0.000312276,-0.000272463,-0.224212,0.00033786,0.00806429,937,484,0.686444,9.2694
-280,540,0.67511,-9.46783,0.000932191,-0.000476463,-0.000132029,0.000944459,-0.000488731,-0.0926521,0.000841281,0.00921681,944,484,0.675134,9.46782
-273,540,0.669067,-9.66467,0.00144658,-0.000827187,-0.000188444,0.00146209,-0.000842698,-0.0821307,0.00134659,0.0114036,951,484,0.669091,9.66466
-266,540,0.667114,-9.88281,0.00179137,-0.00124071,-0.000201306,0.00180468,-0.00125402,-0.066006,0.00177545,0.0119659,958,484,0.66712,9.88281
-259,540,0.672852,-10.087,0.00220745,-0.00167345,-0.000153211,0.00221349,-0.00167949,-0.0393964,0.00225465,0.0113107,965,484,0.672822,10.087
-252,540,0.687988,-10.2582,0.00256964,-0.00214014,-9.63074e-05,0.0025716,-0.00214211,-0.020437,0.00272523,0.0115064,972,484,0.687992,10.2582
-245,540,0.693726,-10.4412,0.0027866,-0.00313202,4.6052e-05,0.00278696,-0.00313238,0.00778024,0.00341947,0.0120632,979,484,0.693705,10.4412
-238,540,0.696655,-10.6173,0.0030568,-0.00432861,0.000228547,0.00306387,-0.00433567,0.0309063,0.00429311,0.00932502,986,484,0.696634,10.6173
-231,540,0.69751,-10.7867,0.00329181,-0.00542809,0.000370888,0.00330756,-0.00544384,0.0424313,0.00510255,0.0115426,993,484,0.697533,10.7867
-224,540,0.712585,-10.964,0.00351444,-0.00655649,0.000691942,0.00356176,-0.0066038,0.0682792,0.00595604,0.0162682,1000,484,0.712601,10.964
-217,540,0.729736,-11.164,0.00374129,-0.00747607,0.00111002,0.00385007,-0.00758486,0.0976932,0.00671832,0.0279813,1007,484,0.729745,11.164
-210,540,0.772217,-11.378,0.00409757,-0.00813463,0.00176183,0.00434627,-0.00838334,0.140235,0.00747163,0.0446615,1014,484,0.772216,11.378
-203,540,0.958618,-11.4528,0.00493798,-0.00941083,0.00263601,0.00540692,-0.00987976,0.176054,0.00895082,0.0473252,1021,484,0.958613,11.4527
-196,540,1.22827,-11.5211,0,0,0,0,0,0,0,-1,1028,484,1.22828,11.5211
-189,540,0.606812,-11.1651,0,0,0,0,0,0,0,-1,1035,484,0.606795,11.1651
-182,540,1.59473,-11.5579,0,0,0,0,0,0,0,-1,1042,484,1.59477,11.5579
-175,540,1.73413,-10.728,0,0,0,0,0,0,0,-1,1049,484,1.73414,10.728
-168,540,1.18164,-7.65347,0,0,0,0,0,0,0,-1,1056,484,1.18163,7.65347
-161,540,-1.31653,-9.93869,0,0,0,0,0,0,0,-1,1063,484,-1.31651,9.93868
-154,540,0.81665,-10.381,0,0,0,0,0,0,0,-1,1070,484,0.816696,10.3809
-147,540,0.852905,-10.892,0,0,0,0,0,0,0,-1,1077,484,0.852844,10.892
-140,540,0.889038,-11.403,0,0,0,0,0,0,0,-1,1084,484,0.888992,11.403
-133,540,0.733276,-8.80582,0,0,0,0,0,0,0,-1,1091,484,0.733219,8.80582
-126,540,1.06201,-9.57385,0,0,0,0,0,0,0,-1,1098,484,1.06204,9.57385
-119,540,6.18579,-10.4846,0,0,0,0,0,0,0,-1,1105,484,6.18582,10.4846
-112,540,5.8468,-9.65106,0,0,0,0,0,0,0,-1,1112,484,5.84681,9.65106
-105,540,5.50781,-8.81754,0,0,0,0,0,0,0,-1,1119,484,5.5078,8.81753
-98,540,0.73877,-3.08093,0,0,0,0,0,0,0,-1,1126,484,0.738754,3.08092
-91,540,1.56519,-7.48666,0,0,0,0,0,0,0,-1,1133,484,1.56514,7.48667
-84,540,-0.945923,4.43073,0,0,0,0,0,0,0,-1,1140,484,-0.945891,-4.43074
-77,540,-2.28894,2.14368,0,0,0,0,0,0,0,-1,1147,484,-2.28894,-2.14368
-70,540,-3.75244,-0.452576,0,0,0,0,0,0,0,-1,1154,484,-3.75244,0.452576
-63,540,-5.26257,-3.04767,0,0,0,0,0,0,0,-1,1161,484,-5.26262,3.04766
-56,540,-5.19055,-6.12595,0,0,0,0,0,0,0,-1,1168,484,-5.19057,6.12595
-49,540,-5.63867,-8.52298,0,0,0,0,0,0,0,-1,1175,484,-5.63871,8.52298
-42,540,0,0,0,0,0,0,0,0,0,-1,1182,484,0,0
-35,540,0,0,0,0,0,0,0,0,0,-1,1189,484,0,0
-28,540,0,0,0,0,0,0,0,0,0,-1,1196,484,0,0
-21,540,0,0,0,0,0,0,0,0,0,-1,1203,484,0,0
-14,540,0,0,0,0,0,0,0,0,0,-1,1210,484,0,0
-7,540,0,0,0,0,0,0,0,0,0,-1,1217,484,0,0
0,540,0,0,0,0,0,0,0,0,0,-1,1224,484,0,0
7,540,0,0,0,0,0,0,0,0,0,-1,1231,484,0,0
14,540,0,0,0,0,0,0,0,0,0,-1,1238,484,0,0
21,540,0,0,0,0,0,0,0,0,0,-1,1245,484,0,0
28,540,0,0,0,0,0,0,0,0,0,-1,1252,484,0,0
35,540,0,0,0,0,0,0,0,0,0,-1,1259,484,0,0
42,540,0,0,0,0,0,0,0,0,0,-1,1266,484,0,0
49,540,0,0,0,0,0,0,0,0,0,-1,1273,484,0,0
56,540,0,0,0,0,0,0,0,0,0,-1,1280,484,0,0
63,540,0,0,0,0,0,0,0,0,0,-1,1287,484,0,0
70,540,0,0,0,0,0,0,0,0,0,-1,1294,484,0,0
77,540,0,0,0,0,0,0,0,0,0,-1,1301,484,0,0
84,540,0,0,0,0,0,0,0,0,0,-1,1308,484,0,0
91,540,0,0,0,0,0,0,0,0,0,-1,1315,484,0,0
98,540,0,0,0,0,0,0,0,0,0,-1,1322,484,0,0
105,540,0,0,0,0,0,0,0,0,0,-1,1329,484,0,0
112,540,0,0,0,0,0,0,0,0,0,-1,1336,484,0,0
119,540,0,0,0,0,0,0,0,0,0,-1,1343,484,0,0
126,540,0,0,0,0,0,0,0,0,0,-1,1350,484,0,0
133,540,0,0,0,0,0,0,0,0,0,-1,1357,484,0,0
140,540,0,0,0,0,0,0,0,0,0,-1,1364,484,0,0
147,540,0,0,0,0,0,0,0,0,0,-1,1371,484,0,0
154,540,0,0,0,0,0,0,0,0,0,-1,1378,484,0,0
161,540,0,0,0,0,0,0,0,0,0,-1,1385,484,0,0
168,540,3.05078,-0.0010376,0,0,0,0,0,0,0,-1,1392,484,3.05084,0.00102554
175,540,3.37708,0.617035,0,0,0,0,0,0,0,-1,1399,484,3.37707,-0.617046
182,540,3.32678,1.23267,0,0,0,0,0,0,0,-1,1406,484,3.32678,-1.23266
189,540,3.5813,2.15619,0,0,0,0,0,0,0,-1,1413,484,3.58129,-2.1562
196,540,1.84448,-0.801483,0,0,0,0,0,0,0,-1,1420,484,1.84446,0.80148
203,540,4.14648,0.702087,0,0,0,0,0,0,0,-1,1427,484,4.14645,-0.702089
210,540,4.50671,-0.56076,0,0,0,0,0,0,0,-1,1434,484,4.50667,0.560771
217,540,5.00452,-0.278717,0,0,0,0,0,0,0,-1,1441,484,5.00452,0.278709
224,540,6.44458,-2.83527,0,0,0,0,0,0,0,-1,1448,484,6.44457,2.83525
231,540,6.9231,-3.10504,0,0,0,0,0,0,0,-1,1455,484,6.92307,3.10505
238,540,6.4823,-2.58365,0,0,0,0,0,0,0,-1,1462,484,6.48225,2.58363
245,540,6.02087,-1.97916,0,0,0,0,0,0,0,-1,1469,484,6.02088,1.97915
252,540,6.50647,-3.56006,0,0,0,0,0,0,0,-1,1476,484,6.50649,3.56006
259,540,6.01941,-2.798,0,0,0,0,0,0,0,-1,1483,484,6.01941,2.79801
266,540,5.5332,-2.02853,0,0,0,0,0,0,0,-1,1490,484,5.53323,2.02855
273,540,5.06787,-1.28137,0,0,0,0,0,0,0,-1,1497,484,5.06786,1.28136
280,540,1.62903,-2.14609,0,0,0,0,0,0,0,-1,1504,484,1.62906,2.1461
287,540,1.97156,-2.45053,0,0,0,0,0,0,0,-1,1511,484,1.97159,2.45053
294,540,2.44165,-2.6185,0,0,0,0,0,0,0,-1,1518,484,2.44167,2.6185
301,540,4.36169,-2.54272,0,0,0,0,0,0,0,-1,1525,484,4.36165,2.54272
308,540,4.2019,-4.30469,0,0,0,0,0,0,0,-1,1532,484,4.20193,4.3047
315,540,4.45923,-5.32101,0,0,0,0,0,0,0,-1,1539,484,4.45923,5.32103
322,540,4.71655,-6.33737,0,0,0,0,0,0,0,-1,1546,484,4.71653,6.33736
329,540,4.40649,-9.53268,0,0,0,0,0,0,0,-1,1553,484,4.40647,9.53269
336,540,4.92029,-10.4233,0,0,0,0,0,0,0,-1,1560,484,4.92034,10.4233
343,540,4.95178,-10.3718,0,0,0,0,0,0,0,-1,1567,484,4.95181,10.3718
350,540,5.2821,-9.88727,0,0,0,0,0,0,0,-1,1574,484,5.28212,9.88727
357,540,5.07935,-9.68643,-0.00333914,-0.00382922,-0.00634946,0.00277001,-0.00993837,-0.766112,0.00771646,0.0436764,1581,484,5.07938,9.68644
364,540,4.86975,-9.58102,-0.00336628,-0.00385949,-0.00589824,0.00229051,-0.00951628,-0.764505,0.00722966,0.0243126,1588,484,4.86976,9.58104
371,540,4.87622,-9.4053,-0.00327032,-0.00369751,-0.00534331,0.00186366,-0.00883149,-0.765422,0.00659722,0.0160072,1595,484,4.8762,9.40531
378,540,4.91846,-9.18451,-0.00307827,-0.00343335,-0.00474579,0.0014933,-0.00800492,-0.766702,0.00589773,0.0120878,1602,484,4.9184,9.18452
385,540,4.90869,-8.98233,-0.00288929,-0.0029512,-0.0041435,0.00122337,-0.00706385,-0.781663,0.00516554,0.013045,1609,484,4.90864,8.98232
392,540,4.89197,-8.77878,-0.00267031,-0.00246939,-0.00350084,0.00093243,-0.00607213,-0.799742,0.00439202,0.0113884,1616,484,4.89194,8.77878
399,540,4.91577,-8.543,-0.00234133,-0.00209417,-0.00290999,0.000694863,-0.00513036,-0.806619,0.00367383,0.0159047,1623,484,4.91581,8.54299
406,540,4.93066,-8.31384,-0.00195697,-0.00167428,-0.00233777,0.000526419,-0.00415767,-0.815593,0.00296288,0.0170629,1630,484,4.93071,8.31385
413,540,4.91357,-8.06656,-0.00150742,-0.00112843,-0.0017543,0.000446583,-0.00308243,-0.839198,0.00221885,0.0120824,1637,484,4.91352,8.06657
420,540,4.92139,-7.82986,-0.00101695,-0.000724414,-0.00135763,0.000494805,-0.00223617,-0.83906,0.00168018,0.0108437,1644,484,4.92133,7.82988
427,540,4.91003,-7.6091,-0.000161694,-0.000136842,-0.00122016,0.00107096,-0.0013695,-0.79049,0.00141251,0.0121019,1651,484,4.91003,7.6091
434,540,4.90747,-7.37573,0.000669635,0.000398885,-0.00109203,0.00163465,-0.000566131,-0.72373,0.0013196,0.01481,1658,484,4.90752,7.37574
441,540,4.9364,-7.12613,0.00167728,0.000841375,-0.00113601,0.00246979,4.88681e-05,-0.609128,0.00163048,0.0179994,1665,484,4.93639,7.12612
448,540,4.93201,-6.90601,0.0028445,0.00137745,-0.00127433,0.00358134,0.000640605,-0.524248,0.00220526,0.0114352,1672,484,4.93199,6.90601
455,540,4.92822,-6.66669,0.00426012,0.00213023,-0.00140514,0.00495827,0.00143207,-0.461132,0.00294654,0.01043,1679,484,4.92827,6.66667
462,540,4.88721,-6.4184,0.00584818,0.00289238,-0.00160806,0.00655432,0.00218624,-0.413775,0.00385339,0.0104218,1686,484,4.88719,6.4184
469,540,4.85852,-6.18878,0.00735435,0.00330724,-0.00205977,0.00821825,0.00244334,-0.397134,0.00487304,0.0129701,1693,484,4.85856,6.18877
476,540,4.94653,-5.95401,0,0,0,0,0,0,0,-1,1700,484,4.94656,5.95401
483,540,4.90735,-5.79568,0,0,0,0,0,0,0,-1,1707,484,4.90733,5.79568
490,540,5.09241,-5.49942,0,0,0,0,0,0,0,-1,1714,484,5.09247,5.49941
497,540,4.27393,-2.67752,0,0,0,0,0,0,0,-1,1721,484,4.27395,2.67751
504,540,5.52747,-4.4433,0,0,0,0,0,0,0,-1,1728,484,5.5275,4.44329
511,540,5.62183,-4.42303,0,0,0,0,0,0,0,-1,1735,484,5.62177,4.42303
518,540,4.854,-3.87787,0,0,0,0,0,0,0,-1,1742,484,4.85401,3.87788
525,540,6.24841,-3.39841,0,0,0,0,0,0,0,-1,1749,484,6.24847,3.39839
532,540,2.84265,-1.07925,0,0,0,0,0,0,0,-1,1756,484,2.84269,1.07927
539,540,0,0,0,0,0,0,0,0,0,-1,1763,484,0,0
546,540,0,0,0,0,0,0,0,0,0,-1,1770,484,0,0
553,540,0,0,0,0,0,0,0,0,0,-1,1777,484,0,0
560,540,0,0,0,0,0,0,0,0,0,-1,1784,484,0,0
567,540,0,0,0,0,0,0,0,0,0,-1,1791,484,0,0
574,540,0,0,0,0,0,0,0,0,0,-1,1798,484,0,0
581,540,0,0,0,0,0,0,0,0,0,-1,1805,484,0,0
588,540,0,0,0,0,0,0,0,0,0,-1,1812,484,0,0
595,540,0,0,0,0,0,0,0,0,0,-1,1819,484,0,0
602,540,0,0,0,0,0,0,0,0,0,-1,1826,484,0,0
609,540,0,0,0,0,0,0,0,0,0,-1,1833,484,0,0
616,540,0,0,0,0,0,0,0,0,0,-1,1840,484,0,0
623,540,0,0,0,0,0,0,0,0,0,-1,1847,484,0,0
630,540,0,0,0,0,0,0,0,0,0,-1,1854,484,0,0
637,540,0,0,0,0,0,0,0,0,0,-1,1861,484,0,0
644,540,0,0,0,0,0,0,0,0,0,-1,1868,484,0,0
651,540,0,0,0,0,0,0,0,0,0,-1,1875,484,0,0
658,540,0,0,0,0,0,0,0,0,0,-1,1882,484,0,0
665,540,0,0,0,0,0,0,0,0,0,-1,1889,484,0,0
672,540,0,0,0,0,0,0,0,0,0,-1,1896,484,0,0
679,540,0,0,0,0,0,0,0,0,0,-1,1903,484,0,0
686,540,0,0,0,0,0,0,0,0,0,-1,1910,484,0,0
693,540,0,0,0,0,0,0,0,0,0,-1,1917,484,0,0
700,540,0,0,0,0,0,0,0,0,0,-1,1924,484,0,0
707,540,0,0,0,0,0,0,0,0,0,-1,1931,484,0,0
714,540,0,0,0,0,0,0,0,0,0,-1,1938,484,0,0
721,540,0,0,0,0,0,0,0,0,0,-1,1945,484,0,0
728,540,0,0,0,0,0,0,0,0,0,-1,1952,484,0,0
735,540,0,0,0,0,0,0,0,0,0,-1,1959,484,0,0
742,540,0,0,0,0,0,0,0,0,0,-1,1966,484,0,0
749,540,0,0,0,0,0,0,0,0,0,-1,1973,484,0,0
756,540,0,0,0,0,0,0,0,0,0,-1,1980,484,0,0
763,540,0,0,0,0,0,0,0,0,0,-1,1987,484,0,0
770,540,0,0,0,0,0,0,0,0,0,-1,1994,484,0,0
777,540,0,0,0,0,0,0,0,0,0,-1,2001,484,0,0
784,540,0,0,0,0,0,0,0,0,0,-1,2008,484,0,0
791,540,0,0,0,0,0,0,0,0,0,-1,2015,484,0,0
798,540,0,0,0,0,0,0,0,0,0,-1,2022,484,0,0
805,540,0,0,0,0,0,0,0,0,0,-1,2029,484,0,0
812,540,0,0,0,0,0,0,0,0,0,-1,2036,484,0,0
-700,533,0,0,0,0,0,0,0,0,0,-1,524,491,0,0
-693,533,0,0,0,0,0,0,0,0,0,-1,531,491,0,0
-686,533,0,0,0,0,0,0,0,0,0,-1,538,491,0,0
-679,533,0,0,0,0,0,0,0,0,0,-1,545,491,0,0
-672,533,0,0,0,0,0,0,0,0,0,-1,552,491,0,0
-665,533,0,0,0,0,0,0,0,0,0,-1,559,491,0,0
-658,533,0,0,0,0,0,0,0,0,0,-1,566,491,0,0
-651,533,0,0,0,0,0,0,0,0,0,-1,573,491,0,0
-644,533,0,0,0,0,0,0,0,0,0,-1,580,491,0,0
-637,533,0,0,0,0,0,0,0,0,0,-1,587,491,0,0
-630,533,0,0,0,0,0,0,0,0,0,-1,594,491,0,0
-623,533,0,0,0,0,0,0,0,0,0,-1,601,491,0,0
-616,533,0,0,0,0,0,0,0,0,0,-1,608,491,0,0
-609,533,0,0,0,0,0,0,0,0,0,-1,615,491,0,0
-602,533,0,0,0,0,0,0,0,0,0,-1,622,491,0,0
-595,533,0,0,0,0,0,0,0,0,0,-1,629,491,0,0
-588,533,0,0,0,0,0,0,0,0,0,-1,636,491,0,0
-581,533,0,0,0,0,0,0,0,0,0,-1,643,491,0,0
-574,533,0,0,0,0,0,0,0,0,0,-1,650,491,0,0
-567,533,0,0,0,0,0,0,0,0,0,-1,657,491,0,0
-560,533,0,0,0,0,0,0,0,0,0,-1,664,491,0,0
-553,533,0,0,0,0,0,0,0,0,0,-1,671,491,0,0
-546,533,0,0,0,0,0,0,0,0,0,-1,678,491,0,0
-539,533,0,0,0,0,0,0,0,0,0,-1,685,491,0,0
-532,533,0,0,0,0,0,0,0,0,0,-1,692,491,0,0
-525,533,0,0,0,0,0,0,0,0,0,-1,699,491,0,0
-518,533,0,0,0,0,0,0,0,0,0,-1,706,491,0,0
-511,533,0,0,0,0,0,0,0,0,0,-1,713,491,0,0
-504,533,0,0,0,0,0,0,0,0,0,-1,720,491,0,0
-497,533,0,0,0,0,0,0,0,0,0,-1,727,491,0,0
-490,533,0,0,0,0,0,0,0,0,0,-1,734,491,0,0
-483,533,0,0,0,0,0,0,0,0,0,-1,741,491,0,0
-476,533,0,0,0,0,0,0,0,0,0,-1,748,491,0,0
-469,533,0,0,0,0,0,0,0,0,0,-1,755,491,0,0
-462,533,0,0,0,0,0,0,0,0,0,-1,762,491,0,0
-455,533,0,0,0,0,0,0,0,0,0,-1,769,491,0,0
-448,533,0,0,0,0,0,0,0,0,0,-1,776,491,0,0
-441,533,0,0,0,0,0,0,0,0,0,-1,783,491,0,0
-434,533,0,0,0,0,0,0,0,0,0,-1,790,491,0,0
-427,533,-1.82031,-0.947235,0,0,0,0,0,0,0,-1,797,491,-1.82033,0.947223
-420,533,1.92426,-6.25375,0,0,0,0,0,0,0,-1,804,491,1.92426,6.25375
-413,533,1.8158,-5.65421,-0.0412273,0.025821,0.0711161,0.0709185,-0.0863249,1.00565,0.0909297,0.0478947,811,491,1.81577,5.6542
-406,533,1.70117,-5.04184,-0.0276873,0.029851,0.0736816,0.0801808,-0.0780171,0.971522,0.0913385,0.0480945,818,491,1.70114,5.04183
-399,533,1.59943,-4.46564,-0.0186437,0.0314866,0.0723873,0.0830255,-0.0701826,0.95207,0.0885582,0.0457402,825,491,1.59945,4.46563
-392,533,1.62189,-3.91766,0,0,0,0,0,0,0,-1,832,491,1.62189,3.91766
-385,533,0.191895,-4.85858,0,0,0,0,0,0,0,-1,839,491,0.191883,4.85857
-378,533,-0.761414,-5.15549,0,0,0,0,0,0,0,-1,846,491,-0.761387,5.15549
-371,533,0.339844,-6.60013,0,0,0,0,0,0,0,-1,853,491,0.339829,6.60013
-364,533,0.689636,-6.91122,-0.00443225,0.0158561,0.0295601,0.0369641,-0.0255403,0.950687,0.0362873,0.0405563,860,491,0.68966,6.91124
-357,533,0.54657,-7.11078,-0.00494823,0.0122336,0.021214,0.0265302,-0.0192448,0.977787,0.0265396,0.0261763,867,491,0.546591,7.11079
-350,533,0.497681,-7.28986,-0.00463448,0.0077576,0.0131497,0.0160979,-0.0129748,1.00557,0.0168174,0.0108216,874,491,0.497671,7.28987
-343,533,0.508179,-7.53055,-0.00333163,0.00469649,0.00599632,0.00789828,-0.00653342,1.08035,0.00834456,0.00998597,881,491,0.508198,7.53056
-336,533,0.469238,-7.76953,-0.00296527,0.00213261,0.00252029,0.00316821,-0.00400088,1.18092,0.00414837,0.0139956,888,491,0.469217,7.76953
-329,533,0.461487,-7.97635,-0.00253361,0.000117558,0.000360319,0.000165656,-0.0025817,1.43809,0.00177893,0.0133463,895,491,0.46146,7.97636
-322,533,0.450806,-8.19153,-0.00192883,0.00018107,0.000136346,0.000189845,-0.0019376,1.50653,0.00135944,0.011225,902,491,0.450828,8.19154
-315,533,0.442566,-8.43192,-0.00132796,0.000306471,-1.67553e-05,0.000306643,-0.00132813,-1.56055,0.00100338,0.0125521,909,491,0.442537,8.43192
-308,533,0.450867,-8.63913,-0.000625294,0.000407312,-0.000188747,0.00044073,-0.000658713,-1.39556,0.000638909,0.0121835,916,491,0.450887,8.63913
-301,533,0.455139,-8.85272,7.22977e-05,0.000463611,-0.000268043,0.00059981,-6.39016e-05,-1.10067,0.000422787,0.0125123,923,491,0.45516,8.85272
-294,533,0.465759,-9.06274,0.00070409,0.000417131,-0.000280793,0.000875938,0.000245284,-0.549202,0.000521782,0.0110966,930,491,0.465767,9.06275
-287,533,0.46637,-9.26874,0.00126969,0.000118831,-0.000237701,0.00131685,7.16685e-05,-0.195868,0.000855012,0.00874156,937,491,0.466375,9.26874
-280,533,0.458801,-9.4751,0.00186077,-0.000225051,-0.000205796,0.00188088,-0.000245162,-0.0974129,0.00134312,0.00835753,944,491,0.458792,9.4751
-273,533,0.463257,-9.66605,0.00231967,-0.000748991,-0.000214116,0.00233454,-0.000763859,-0.0693273,0.0018639,0.0115208,951,491,0.463258,9.66606
-266,533,0.476196,-9.87082,0.00261613,-0.00139308,-0.000182622,0.00262443,-0.00140139,-0.0454252,0.00235979,0.0111591,958,491,0.476186,9.87083
-259,533,0.493225,-10.0784,0.00303689,-0.00206459,-0.000133867,0.0030404,-0.0020681,-0.0262167,0.00296715,0.0111221,965,491,0.493237,10.0784
-252,533,0.507751,-10.2479,0.00335368,-0.00282339,-5.90369e-05,0.00335424,-0.00282395,-0.00955627,0.00357136,0.013394,972,491,0.507728,10.2479
-245,533,0.560425,-10.4222,0.00356683,-0.00416152,0.000130189,0.00356902,-0.00416371,0.0168392,0.0044689,0.0195287,979,491,0.560397,10.4222
-238,533,0.51593,-10.5299,0.00384208,-0.00567296,0.000308889,0.0038521,-0.00568298,0.0324177,0.0055388,0.0220571,986,491,0.515932,10.5299
-231,533,0.595337,-10.6713,0.00405826,-0.00701804,0.000414464,0.00407375,-0.00703352,0.0373494,0.00648823,0.0318391,993,491,0.595322,10.6713
-224,533,0.664307,-10.8181,0.00420546,-0.00840189,0.000781123,0.00425367,-0.00845011,0.0616435,0.00746673,0.0390578,1000,491,0.664304,10.8181
-217,533,0.530212,-11.1185,0.00441965,-0.00960201,0.00124545,0.00452942,-0.00971178,0.0879062,0.00840167,0.0477457,1007,491,0.530223,11.1185
-210,533,0.611023,-11.4794,0,0,0,0,0,0,0,-1,1014,491,0.611012,11.4794
-203,533,0.744934,-11.7303,0,0,0,0,0,0,0,-1,1021,491,0.744949,11.7303
-196,533,0.834351,-11.1324,0,0,0,0,0,0,0,-1,1028,491,0.834398,11.1324
-189,533,1.40491,-11.4227,0,0,0,0,0,0,0,-1,1035,491,1.4049,11.4227
-182,533,1.26123,-11.4969,0,0,0,0,0,0,0,-1,1042,491,1.26128,11.4969
-175,533,0.937744,-7.36966,0,0,0,0,0,0,0,-1,1049,491,0.937769,7.36965
-168,533,2.64807,-2.7543,0,0,0,0,0,0,0,-1,1056,491,2.64812,2.7543
-161,533,1.91833,-1.76553,0,0,0,0,0,0,0,-1,1063,491,1.91836,1.76554
-154,533,-1.24805,-5.92294,0,0,0,0,0,0,0,-1,1070,491,-1.24806,5.92295
-147,533,0.212036,-10.6896,0,0,0,0,0,0,0,-1,1077,491,0.212037,10.6896
-140,533,0.481812,-8.27359,0,0,0,0,0,0,0,-1,1084,491,0.481827,8.2736
-133,533,1.23474,-8.92532,0,0,0,0,0,0,0,-1,1091,491,1.2347,8.92532
-126,533,2.89612,-2.59003,0,0,0,0,0,0,0,-1,1098,491,2.89608,2.59003
-119,533,3.00842,-12.8239,0,0,0,0,0,0,0,-1,1105,491,3.00841,12.8239
-112,533,7.05884,-10.21,0,0,0,0,0,0,0,-1,1112,491,7.0588,10.21
-105,533,3.84839,1.12769,0,0,0,0,0,0,0,-1,1119,491,3.84843,-1.12769
-98,533,-1.39392,-5.16367,0,0,0,0,0,0,0,-1,1126,491,-1.39394,5.16367
-91,533,0.367432,4.49753,0,0,0,0,0,0,0,-1,1133,491,0.367468,-4.49754
-84,533,-0.88623,3.03604,0,0,0,0,0,0,0,-1,1140,491,-0.886288,-3.03605
-77,533,0,0,0,0,0,0,0,0,0,-1,1147,491,0,0
-70,533,0,0,0,0,0,0,0,0,0,-1,1154,491,0,0
-63,533,0,0,0,0,0,0,0,0,0,-1,1161,491,0,0
-56,533,0,0,0,0,0,0,0,0,0,-1,1168,491,0,0
-49,533,0,0,0,0,0,0,0,0,0,-1,1175,491,0,0
-42,533,0,0,0,0,0,0,0,0,0,-1,1182,491,0,0
-35,533,0,0,0,0,0,0,0,0,0,-1,1189,491,0,0
-28,533,0,0,0,0,0,0,0,0,0,-1,1196,491,0,0
-21,533,0,0,0,0,0,0,0,0,0,-1,1203,491,0,0
-14,533,0,0,0,0,0,0,0,0,0,-1,1210,491,0,0
-7,533,0,0,0,0,0,0,0,0,0,-1,1217,491,0,0
0,533,0,0,0,0,0,0,0,0,0,-1,1224,491,0,0
7,533,0,0,0,0,0,0,0,0,0,-1,1231,491,0,0
14,533,0,0,0,0,0,0,0,0,0,-1,1238,491,0,0
21,533,0,0,0,0,0,0,0,0,0,-1,1245,491,0,0
28,533,0,0,0,0,0,0,0,0,0,-1,1252,491,0,0
35,533,0,0,0,0,0,0,0,0,0,-1,1259,491,0,0
42,533,0,0,0,0,0,0,0,0,0,-1,1266,491,0,0
49,533,0,0,0,0,0,0,0,0,0,-1,1273,491,0,0
56,533,0,0,0,0,0,0,0,0,0,-1,1280,491,0,0
63,533,0,0,0,0,0,0,0,0,0,-1,1287,491,0,0
70,533,0,0,0,0,0,0,0,0,0,-1,1294,491,0,0
77,533,0,0,0,0,0,0,0,0,0,-1,1301,491,0,0
84,533,0,0,0,0,0,0,0,0,0,-1,1308,491,0,0
91,533,0,0,0,0,0,0,0,0,0,-1,1315,491,0,0
98,533,0,0,0,0,0,0,0,0,0,-1,1322,491,0,0
105,533,0,0,0,0,0,0,0,0,0,-1,1329,491,0,0
112,533,0,0,0,0,0,0,0,0,0,-1,1336,491,0,0
119,533,0,0,0,0,0,0,0,0,0,-1,1343,491,0,0
126,533,0,0,0,0,0,0,0,0,0,-1,1350,491,0,0
133,533,0,0,0,0,0,0,0,0,0,-1,1357,491,0,0
140,533,0,0,0,0,0,0,0,0,0,-1,1364,491,0,0
147,533,0,0,0,0,0,0,0,0,0,-1,1371,491,0,0
154,533,0,0,0,0,0,0,0,0,0,-1,1378,491,0,0
161,533,0,0,0,0,0,0,0,0,0,-1,1385,491,0,0
168,533,0,0,0,0,0,0,0,0,0,-1,1392,491,0,0
175,533,0,0,0,0,0,0,0,0,0,-1,1399,491,0,0
182,533,0,0,0,0,0,0,0,0,0,-1,1406,491,0,0
189,533,0,0,0,0,0,0,0,0,0,-1,1413,491,0,0
196,533,0,0,0,0,0,0,0,0,0,-1,1420,491,0,0
203,533,3.7887,1.16193,0,0,0,0,0,0,0,-1,1427,491,3.78872,-1.16193
210,533,5.09558,-0.216034,0,0,0,0,0,0,0,-1,1434,491,5.09559,0.216028
217,533,6.91614,-2.46814,0,0,0,0,0,0,0,-1,1441,491,6.91618,2.46814
224,533,7.23621,-2.1857,0,0,0,0,0,0,0,-1,1448,491,7.23621,2.1857
231,533,7.23474,-1.92282,0,0,0,0,0,0,0,-1,1455,491,7.2347,1.92282
238,533,7.23535,-1.67258,0,0,0,0,0,0,0,-1,1462,491,7.23539,1.67258
245,533,6.86682,-1.2301,0,0,0,0,0,0,0,-1,1469,491,6.86686,1.23011
252,533,6.63354,-3.07825,0,0,0,0,0,0,0,-1,1476,491,6.6335,3.07824
259,533,6.16431,-2.35037,0,0,0,0,0,0,0,-1,1483,491,6.1643,2.35037
266,533,5.68884,-1.6214,0,0,0,0,0,0,0,-1,1490,491,5.68885,1.6214
273,533,5.21399,-0.864227,0,0,0,0,0,0,0,-1,1497,491,5.21403,0.864227
280,533,1.41089,-1.97946,0,0,0,0,0,0,0,-1,1504,491,1.41087,1.97946
287,533,1.6814,-2.44443,0,0,0,0,0,0,0,-1,1511,491,1.6814,2.44444
294,533,2.2384,-2.57626,0,0,0,0,0,0,0,-1,1518,491,2.23839,2.57625
301,533,3.39941,-4.0817,0,0,0,0,0,0,0,-1,1525,491,3.3994,4.08171
308,533,4.13733,-4.14752,0,0,0,0,0,0,0,-1,1532,491,4.13727,4.14752
315,533,4.80762,-5.29349,0,0,0,0,0,0,0,-1,1539,491,4.80762,5.29347
322,533,5.47803,-6.43942,0,0,0,0,0,0,0,-1,1546,491,5.47798,6.43943
329,533,3.88477,-3.86301,0,0,0,0,0,0,0,-1,1553,491,3.88475,3.86299
336,533,4.35278,-9.26563,0,0,0,0,0,0,0,-1,1560,491,4.35282,9.26561
343,533,5.87952,-6.38858,0,0,0,0,0,0,0,-1,1567,491,5.87953,6.38857
350,533,5.62915,-8.02426,0,0,0,0,0,0,0,-1,1574,491,5.6291,8.02426
357,533,5.41956,-9.582,0,0,0,0,0,0,0,-1,1581,491,5.4196,9.582
364,533,5.25269,-9.57693,0,0,0,0,0,0,0,-1,1588,491,5.25272,9.57695
371,533,5.07068,-9.43066,0,0,0,0,0,0,0,-1,1595,491,5.07074,9.43066
378,533,5.13708,-9.15762,0,0,0,0,0,0,0,-1,1602,491,5.13705,9.15762
385,533,5.14478,-8.95181,-0.00444325,-0.004511,-0.00603091,0.00155388,-0.0105081,-0.78259,0.00757668,0.022849,1609,491,5.14479,8.9518
392,533,5.12,-8.76556,-0.00406391,-0.00376275,-0.00515181,0.00124068,-0.00906734,-0.800009,0.00649805,0.0131212,1616,491,5.11994,8.76557
399,533,5.14368,-8.5723,-0.00354306,-0.00318334,-0.00435209,0.000992599,-0.007719,-0.80605,0.00550677,0.0121944,1623,491,5.14369,8.57231
406,533,5.16492,-8.33545,-0.0029465,-0.0025724,-0.00358819,0.000833607,-0.00635251,-0.811439,0.00453847,0.0149944,1630,491,5.16489,8.33546
413,533,5.15002,-8.07309,-0.00227798,-0.0018297,-0.00279011,0.000745253,-0.00485294,-0.82548,0.00351018,0.0124859,1637,491,5.15,8.07309
420,533,5.12109,-7.82877,-0.00171035,-0.00127387,-0.00216416,0.000683028,-0.00366725,-0.83565,0.00270144,0.0115713,1644,491,5.12107,7.82878
427,533,5.15002,-7.58194,-0.000983198,-0.000698916,-0.00172382,0.000888617,-0.00257073,-0.826533,0.00207447,0.0129419,1651,491,5.14999,7.58194
434,533,5.14648,-7.36847,-0.000190063,-0.000147136,-0.00136975,0.00120132,-0.00153852,-0.793232,0.00158583,0.0129021,1658,491,5.14649,7.36848
441,533,5.16968,-7.12503,0.000710559,0.00025972,-0.00117794,0.00168446,-0.000714179,-0.690858,0.00142212,0.0163976,1665,491,5.16963,7.12502
448,533,5.17847,-6.90323,0.00170831,0.000694989,-0.00105117,0.00236856,3.47444e-05,-0.560828,0.00156758,0.0170603,1672,491,5.17847,6.90323
455,533,5.15112,-6.67401,0.00287811,0.00127892,-0.000909468,0.0032895,0.000867533,-0.4248,0.00196861,0.0158984,1679,491,5.15111,6.674
462,533,5.11938,-6.38254,0.00413915,0.00177063,-0.000869575,0.00442412,0.00148566,-0.316681,0.00259977,0.0143672,1686,491,5.11937,6.38255
469,533,5.11572,-6.16125,0.0052503,0.00186293,-0.00108281,0.00556685,0.00154638,-0.284415,0.00331814,0.0087693,1693,491,5.11578,6.16127
476,533,5.12952,-5.90466,0.00637932,0.00211846,-0.00125103,0.00671948,0.0017783,-0.265484,0.0040202,0.0102941,1700,491,5.12956,5.90465
483,533,5.16113,-5.65228,0.00739906,0.00237223,-0.00143976,0.00778222,0.00198907,-0.260101,0.00466857,0.0201652,1707,491,5.16113,5.65228
490,533,5.21838,-5.58112,0.00825039,0.00242323,-0.00157448,0.00864859,0.00202502,-0.247719,0.00522325,0.045484,1714,491,5.21836,5.58112
497,533,5.32178,-5.52823,0,0,0,0,0,0,0,-1,1721,491,5.3218,5.52823
504,533,5.50256,-4.69424,0.00929002,0.00271219,-0.00137878,0.00956733,0.00243487,-0.198483,0.00574136,0.0490519,1728,491,5.50253,4.69424
511,533,5.64771,-4.51587,0.00931513,0.00255602,-0.00110857,0.00949231,0.00237884,-0.158482,0.0057031,0.0488233,1735,491,5.64771,4.51587
518,533,5.35938,-4.85248,0,0,0,0,0,0,0,-1,1742,491,5.35932,4.85249
525,533,5.00793,-3.79895,0,0,0,0,0,0,0,-1,1749,491,5.00799,3.79896
532,533,3.24243,0.0737,0,0,0,0,0,0,0,-1,1756,491,3.24239,-0.0737072
539,533,3.61609,1.62427,0,0,0,0,0,0,0,-1,1763,491,3.61606,-1.62426
546,533,3.59607,1.65799,0,0,0,0,0,0,0,-1,1770,491,3.59605,-1.658
553,533,0,0,0,0,0,0,0,0,0,-1,1777,491,0,0
560,533,0,0,0,0,0,0,0,0,0,-1,1784,491,0,0
567,533,0,0,0,0,0,0,0,0,0,-1,1791,491,0,0
574,533,0,0,0,0,0,0,0,0,0,-1,1798,491,0,0
581,533,0,0,0,0,0,0,0,0,0,-1,1805,491,0,0
588,533,0,0,0,0,0,0,0,0,0,-1,1812,491,0,0
595,533,0,0,0,0,0,0,0,0,0,-1,1819,491,0,0
602,533,0,0,0,0,0,0,0,0,0,-1,1826,491,0,0
609,533,0,0,0,0,0,0,0,0,0,-1,1833,491,0,0
616,533,0,0,0,0,0,0,0,0,0,-1,1840,491,0,0
623,533,0,0,0,0,0,0,0,0,0,-1,1847,491,0,0
630,533,0,0,0,0,0,0,0,0,0,-1,1854,491,0,0
637,533,0,0,0,0,0,0,0,0,0,-1,1861,491,0,0
644,533,0,0,0,0,0,0,0,0,0,-1,1868,491,0,0
651,533,0,0,0,0,0,0,0,0,0,-1,1875,491,0,0
658,533,0,0,0,0,0,0,0,0,0,-1,1882,491,0,0
665,533,0,0,0,0,0,0,0,0,0,-1,1889,491,0,0
672,533,0,0,0,0,0,0,0,0,0,-1,1896,491,0,0
679,533,0,0,0,0,0,0,0,0,0,-1,1903,491,0,0
686,533,0,0,0,0,0,0,0,0,0,-1,1910,491,0,0
693,533,0,0,0,0,0,0,0,0,0,-1,1917,491,0,0
700,533,0,0,0,0,0,0,0,0,0,-1,1924,491,0,0
707,533,0,0,0,0,0,0,0,0,0,-1,1931,491,0,0
714,533,0,0,0,0,0,0,0,0,0,-1,1938,491,0,0
721,533,0,0,0,0,0,0,0,0,0,-1,1945,491,0,0
728,533,0,0,0,0,0,0,0,0,0,-1,1952,491,0,0
735,533,0,0,0,0,0,0,0,0,0,-1,1959,491,0,0
742,533,0,0,0,0,0,0,0,0,0,-1,1966,491,0,0
749,533,0,0,0,0,0,0,0,0,0,-1,1973,491,0,0
756,533,0,0,0,0,0,0,0,0,0,-1,1980,491,0,0
763,533,0,0,0,0,0,0,0,0,0,-1,1987,491,0,0
770,533,0,0,0,0,0,0,0,0,0,-1,1994,491,0,0
777,533,0,0,0,0,0,0,0,0,0,-1,2001,491,0,0
784,533,0,0,0,0,0,0,0,0,0,-1,2008,491,0,0
791,533,0,0,0,0,0,0,0,0,0,-1,2015,491,0,0
798,533,0,0,0,0,0,0,0,0,0,-1,2022,491,0,0
805,533,0,0,0,0,0,0,0,0,0,-1,2029,491,0,0
812,533,0,0,0,0,0,0,0,0,0,-1,2036,491,0,0
-700,526,0,0,0,0,0,0,0,0,0,-1,524,498,0,0
-693,526,0,0,0,0,0,0,0,0,0,-1,531,498,0,0
-686,526,0,0,0,0,0,0,0,0,0,-1,538,498,0,0
-679,526,0,0,0,0,0,0,0,0,0,-1,545,498,0,0
-672,526,0,0,0,0,0,0,0,0,0,-1,552,498,0,0
-665,526,0,0,0,0,0,0,0,0,0,-1,559,498,0,0
-658,526,0,0,0,0,0,0,0,0,0,-1,566,498,0,0
-651,526,0,0,0,0,0,0,0,0,0,-1,573,498,0,0
-644,526,0,0,0,0,0,0,0,0,0,-1,580,498,0,0
-637,526,0,0,0,0,0,0,0,0,0,-1,587,498,0,0
-630,526,0,0,0,0,0,0,0,0,0,-1,594,498,0,0
-623,526,0,0,0,0,0,0,0,0,0,-1,601,498,0,0
-616,526,0,0,0,0,0,0,0,0,0,-1,608,498,0,0
-609,526,0,0,0,0,0,0,0,0,0,-1,615,498,0,0
-602,526,0,0,0,0,0,0,0,0,0,-1,622,498,0,0
-595,526,0,0,0,0,0,0,0,0,0,-1,629,498,0,0
-588,526,0,0,0,0,0,0,0,0,0,-1,636,498,0,0
-581,526,0,0,0,0,0,0,0,0,0,-1,643,498,0,0
-574,526,0,0,0,0,0,0,0,0,0,-1,650,498,0,0
-567,526,0,0,0,0,0,0,0,0,0,-1,657,498,0,0
-560,526,0,0,0,0,0,0,0,0,0,-1,664,498,0,0
-553,526,0,0,0,0,0,0,0,0,0,-1,671,498,0,0
-546,526,0,0,0,0,0,0,0,0,0,-1,678,498,0,0
-539,526,0,0,0,0,0,0,0,0,0,-1,685,498,0,0
-532,526,0,0,0,0,0,0,0,0,0,-1,692,498,0,0
-525,526,0,0,0,0,0,0,0,0,0,-1,699,498,0,0
-518,526,0,0,0,0,0,0,0,0,0,-1,706,498,0,0
-511,526,0,0,0,0,0,0,0,0,0,-1,713,498,0,0
-504,526,0,0,0,0,0,0,0,0,0,-1,720,498,0,0
-497,526,0,0,0,0,0,0,0,0,0,-1,727,498,0,0
-490,526,0,0,0,0,0,0,0,0,0,-1,734,498,0,0
-483,526,0,0,0,0,0,0,0,0,0,-1,741,498,0,0
-476,526,0,0,0,0,0,0,0,0,0,-1,748,498,0,0
-469,526,0,0,0,0,0,0,0,0,0,-1,755,498,0,0
-462,526,0,0,0,0,0,0,0,0,0,-1,762,498,0,0
-455,526,0,0,0,0,0,0,0,0,0,-1,769,498,0,0
-448,526,0,0,0,0,0,0,0,0,0,-1,776,498,0,0
-441,526,0,0,0,0,0,0,0,0,0,-1,783,498,0,0
-434,526,-1.01361,-1.88202,0,0,0,0,0,0,0,-1,790,498,-1.01362,1.88203
-427,526,-1.38489,-2.00546,0,0,0,0,0,0,0,-1,797,498,-1.38489,2.00547
-420,526,1.20618,-5.80945,0,0,0,0,0,0,0,-1,804,498,1.20618,5.80946
-413,526,0.851685,-5.48251,-0.0439093,0.0158386,0.0488532,0.043228,-0.0712987,1.05982,0.0667808,0.0481583,811,498,0.851666,5.48252
-406,526,1.56488,-6.63019,-0.0302721,0.0193182,0.0522094,0.0523212,-0.063275,1.00709,0.0668393,0.0454694,818,498,1.56486,6.6302
-399,526,0.509583,-4.37289,-0.0206619,0.0209173,0.0523718,0.0564749,-0.0562195,0.97434,0.0650642,0.0493437,825,498,0.509582,4.3729
-392,526,0.921387,-3.81461,0,0,0,0,0,0,0,-1,832,498,0.921365,3.81461
-385,526,0.577454,-5.87598,0,0,0,0,0,0,0,-1,839,498,0.577455,5.87598
-378,526,0.281494,-6.37415,0,0,0,0,0,0,0,-1,846,498,0.281474,6.37415
-371,526,0.274231,-6.61066,-0.00435861,0.013932,0.0291705,0.0353572,-0.0257838,0.937302,0.0354437,0.0422204,853,498,0.274225,6.61065
-364,526,0.338928,-6.88089,-0.00328278,0.0110625,0.0220575,0.0270843,-0.0193046,0.942595,0.0269079,0.0234901,860,498,0.338954,6.8809
-357,526,0.252991,-7.05206,-0.00369931,0.00842641,0.0157517,0.0192417,-0.0145146,0.96911,0.0195528,0.0156192,867,498,0.252987,7.05205
-350,526,0.27832,-7.29208,-0.00339856,0.00519584,0.00952625,0.0113493,-0.00955197,0.997278,0.0120822,0.0109812,874,498,0.278321,7.29208
-343,526,0.29071,-7.53387,-0.00222412,0.00316135,0.00411447,0.0053859,-0.00444867,1.07515,0.00568658,0.0142047,881,498,0.290697,7.53388
-336,526,0.256714,-7.77258,-0.00178712,0.00149944,0.00172848,0.00224112,-0.0025288,1.16547,0.00275558,0.014312,888,498,0.256728,7.77257
-329,526,0.243103,-7.97562,-0.00130634,0.000235742,0.000242461,0.000272965,-0.00134357,1.41846,0.000999206,0.0139044,895,498,0.243076,7.97563
-322,526,0.239441,-8.19415,-0.000745857,0.000370746,1.55421e-05,0.000370963,-0.000746073,1.55688,0.00065693,0.0103594,902,498,0.23944,8.19417
-315,526,0.242554,-8.42548,-0.000188734,0.000559583,-0.000153975,0.000590027,-0.000219178,-1.3756,0.000483272,0.00953183,909,498,0.242533,8.42547
-308,526,0.247742,-8.6474,0.000458233,0.000701229,-0.000338138,0.000939035,0.000220427,-0.957873,0.000567014,0.00931061,916,498,0.247772,8.6474
-301,526,0.234985,-8.85709,0.00110203,0.000774255,-0.000445584,0.00141291,0.000463375,-0.609176,0.000831684,0.0104165,923,498,0.235005,8.85709
-294,526,0.238708,-9.06381,0.00169333,0.000697068,-0.000486636,0.00189158,0.000498815,-0.386864,0.00113203,0.00935312,930,498,0.238704,9.06381
-287,526,0.234131,-9.26028,0.00221536,0.000307902,-0.000458306,0.00231976,0.000203498,-0.22398,0.00148333,0.00953251,937,498,0.234105,9.26029
-280,526,0.234375,-9.45804,0.00276105,-0.000128429,-0.000433444,0.00282467,-0.000192049,-0.145735,0.00195028,0.0124641,944,498,0.234349,9.45804
-273,526,0.246948,-9.66583,0.00319082,-0.000832669,-0.000421577,0.00323452,-0.000876367,-0.103284,0.0025002,0.0103462,951,498,0.246936,9.66582
-266,526,0.272156,-9.86407,0.00347317,-0.0017161,-0.000344509,0.00349594,-0.00173887,-0.0660026,0.00307855,0.00999017,958,498,0.272154,9.86406
-259,526,0.299194,-10.0585,0.00394633,-0.00263755,-0.000277808,0.00395803,-0.00264925,-0.0420954,0.00383958,0.0166967,965,498,0.299199,10.0585
-252,526,0.350952,-10.2063,0.00425527,-0.00373354,-0.000128644,0.00425734,-0.00373561,-0.0160975,0.004618,0.0332575,972,498,0.35097,10.2063
-245,526,0.434387,-10.3022,0.00443011,-0.00553832,0.000107093,0.00443126,-0.00553947,0.0107415,0.00576844,0.0402788,979,498,0.434364,10.3022
-238,526,0.443054,-10.3214,0.00473067,-0.00733572,0.000268525,0.00473664,-0.00734169,0.0222393,0.00702729,0.0407946,986,498,0.443066,10.3214
-231,526,0.271057,-10.5534,0,0,0,0,0,0,0,-1,993,498,0.271074,10.5534
-224,526,0.587036,-10.5772,0,0,0,0,0,0,0,-1,1000,498,0.587025,10.5772
-217,526,0.275696,-10.9866,0,0,0,0,0,0,0,-1,1007,498,0.275722,10.9866
-210,526,0.171021,-8.39801,0,0,0,0,0,0,0,-1,1014,498,0.170997,8.398
-203,526,0.396851,-11.2669,0,0,0,0,0,0,0,-1,1021,498,0.396826,11.2669
-196,526,0.536499,-11.4486,0,0,0,0,0,0,0,-1,1028,498,0.536498,11.4486
-189,526,0.401245,-5.96826,0,0,0,0,0,0,0,-1,1035,498,0.401197,5.96826
-182,526,1.7323,-2.99405,0,0,0,0,0,0,0,-1,1042,498,1.73226,2.99404
-175,526,2.27637,-2.07983,0,0,0,0,0,0,0,-1,1049,498,2.27639,2.07984
-168,526,2.12036,-1.66049,0,0,0,0,0,0,0,-1,1056,498,2.12035,1.66048
-161,526,2.09082,-1.20572,0,0,0,0,0,0,0,-1,1063,498,2.09086,1.2057
-154,526,-1.3446,-5.37799,0,0,0,0,0,0,0,-1,1070,498,-1.34457,5.37799
-147,526,-0.472656,-6.64996,0,0,0,0,0,0,0,-1,1077,498,-0.472659,6.64997
-140,526,0.422852,-8.03339,0,0,0,0,0,0,0,-1,1084,498,0.422844,8.0334
-133,526,1.09583,-9.2215,0,0,0,0,0,0,0,-1,1091,498,1.09581,9.2215
-126,526,3.42529,-2.36053,0,0,0,0,0,0,0,-1,1098,498,3.42523,2.36052
-119,526,2.7771,-0.764099,0,0,0,0,0,0,0,-1,1105,498,2.7771,0.764107
-112,526,2.57715,-1.1893,0,0,0,0,0,0,0,-1,1112,498,2.57718,1.1893
-105,526,0,0,0,0,0,0,0,0,0,-1,1119,498,0,0
-98,526,0,0,0,0,0,0,0,0,0,-1,1126,498,0,0
-91,526,0,0,0,0,0,0,0,0,0,-1,1133,498,0,0
-84,526,0,0,0,0,0,0,0,0,0,-1,1140,498,0,0
-77,526,0,0,0,0,0,0,0,0,0,-1,1147,498,0,0
-70,526,0,0,0,0,0,0,0,0,0,-1,1154,498,0,0
-63,526,0,0,0,0,0,0,0,0,0,-1,1161,498,0,0
-56,526,0,0,0,0,0,0,0,0,0,-1,1168,498,0,0
-49,526,0,0,0,0,0,0,0,0,0,-1,1175,498,0,0
-42,526,0,0,0,0,0,0,0,0,0,-1,1182,498,0,0
-35,526,0,0,0,0,0,0,0,0,0,-1,1189,498,0,0
-28,526,0,0,0,0,0,0,0,0,0,-1,1196,498,0,0
-21,526,0,0,0,0,0,0,0,0,0,-1,1203,498,0,0
-14,526,0,0,0,0,0,0,0,0,0,-1,1210,498,0,0
-7,526,0,0,0,0,0,0,0,0,0,-1,1217,498,0,0
0,526,0,0,0,0,0,0,0,0,0,-1,1224,498,0,0
7,526,0,0,0,0,0,0,0,0,0,-1,1231,498,0,0
14,526,0,0,0,0,0,0,0,0,0,-1,1238,498,0,0
21,526,0,0,0,0,0,0,0,0,0,-1,1245,498,0,0
28,526,0,0,0,0,0,0,0,0,0,-1,1252,498,0,0
35,526,0,0,0,0,0,0,0,0,0,-1,1259,498,0,0
42,526,0,0,0,0,0,0,0,0,0,-1,1266,498,0,0
49,526,0,0,0,0,0,0,0,0,0,-1,1273,498,0,0
56,526,0,0,0,0,0,0,0,0,0,-1,1280,498,0,0
63,526,0,0,0,0,0,0,0,0,0,-1,1287,498,0,0
70,526,0,0,0,0,0,0,0,0,0,-1,1294,498,0,0
77,526,0,0,0,0,0,0,0,0,0,-1,1301,498,0,0
84,526,0,0,0,0,0,0,0,0,0,-1,1308,498,0,0
91,526,0,0,0,0,0,0,0,0,0,-1,1315,498,0,0
98,526,0,0,0,0,0,0,0,0,0,-1,1322,498,0,0
105,526,0,0,0,0,0,0,0,0,0,-1,1329,498,0,0
112,526,0,0,0,0,0,0,0,0,0,-1,1336,498,0,0
119,526,0,0,0,0,0,0,0,0,0,-1,1343,498,0,0
126,526,0,0,0,0,0,0,0,0,0,-1,1350,498,0,0
133,526,0,0,0,0,0,0,0,0,0,-1,1357,498,0,0
140,526,0,0,0,0,0,0,0,0,0,-1,1364,498,0,0
147,526,0,0,0,0,0,0,0,0,0,-1,1371,498,0,0
154,526,0,0,0,0,0,0,0,0,0,-1,1378,498,0,0
161,526,0,0,0,0,0,0,0,0,0,-1,1385,498,0,0
168,526,0,0,0,0,0,0,0,0,0,-1,1392,498,0,0
175,526,0,0,0,0,0,0,0,0,0,-1,1399,498,0,0
182,526,0,0,0,0,0,0,0,0,0,-1,1406,498,0,0
189,526,0,0,0,0,0,0,0,0,0,-1,1413,498,0,0
196,526,0,0,0,0,0,0,0,0,0,-1,1420,498,0,0
203,526,0,0,0,0,0,0,0,0,0,-1,1427,498,0,0
210,526,0,0,0,0,0,0,0,0,0,-1,1434,498,0,0
217,526,0,0,0,0,0,0,0,0,0,-1,1441,498,0,0
224,526,0,0,0,0,0,0,0,0,0,-1,1448,498,0,0
231,526,7.93237,-1.30618,0,0,0,0,0,0,0,-1,1455,498,7.93238,1.30618
238,526,7.97717,-1.08197,0,0,0,0,0,0,0,-1,1462,498,7.97723,1.08196
245,526,7.2793,-0.792938,0,0,0,0,0,0,0,-1,1469,498,7.27931,0.792926
252,526,6.73523,-2.23608,0,0,0,0,0,0,0,-1,1476,498,6.73525,2.23608
259,526,6.22949,-1.84967,0,0,0,0,0,0,0,-1,1483,498,6.22953,1.84968
266,526,5.72375,-1.46329,0,0,0,0,0,0,0,-1,1490,498,5.72381,1.46328
273,526,4.33984,0.49173,0,0,0,0,0,0,0,-1,1497,498,4.33979,-0.491727
280,526,1.4585,-1.59897,0,0,0,0,0,0,0,-1,1504,498,1.45846,1.59895
287,526,1.46411,-2.40134,0,0,0,0,0,0,0,-1,1511,498,1.46406,2.40133
294,526,5.57471,-4.59085,0,0,0,0,0,0,0,-1,1518,498,5.57466,4.59084
301,526,4.42786,-3.99677,0,0,0,0,0,0,0,-1,1525,498,4.42788,3.99676
308,526,5.79529,-4.19366,0,0,0,0,0,0,0,-1,1532,498,5.79528,4.19368
315,526,5.09851,-5.20068,0,0,0,0,0,0,0,-1,1539,498,5.09851,5.20068
322,526,5.50708,-4.72348,0,0,0,0,0,0,0,-1,1546,498,5.50713,4.72347
329,526,3.88672,-4.345,0,0,0,0,0,0,0,-1,1553,498,3.88674,4.34501
336,526,4.97876,-2.23828,0,0,0,0,0,0,0,-1,1560,498,4.97877,2.23828
343,526,3.31665,-2.69696,0,0,0,0,0,0,0,-1,1567,498,3.31667,2.69696
350,526,6.06287,-6.12015,0,0,0,0,0,0,0,-1,1574,498,6.06286,6.12014
357,526,5.79736,-7.7854,0,0,0,0,0,0,0,-1,1581,498,5.79734,7.78539
364,526,5.54773,-9.83072,0,0,0,0,0,0,0,-1,1588,498,5.54769,9.83072
371,526,5.05884,-9.0159,0,0,0,0,0,0,0,-1,1595,498,5.05882,9.01591
378,526,5.08826,-9.2757,0,0,0,0,0,0,0,-1,1602,498,5.08822,9.27569
385,526,5.3584,-9.18918,0,0,0,0,0,0,0,-1,1609,498,5.35835,9.18918
392,526,5.41309,-8.79355,-0.0060021,-0.00536137,-0.00722136,0.00154673,-0.0129102,-0.807565,0.00916598,0.0313298,1616,498,5.4131,8.79355
399,526,5.34473,-8.57089,-0.00517185,-0.00448442,-0.00611132,0.00129285,-0.0109491,-0.81349,0.00776631,0.0179418,1623,498,5.34476,8.5709
406,526,5.40613,-8.3183,-0.00430852,-0.00361624,-0.00511362,0.00116294,-0.0090877,-0.819192,0.00648099,0.012224,1630,498,5.40608,8.3183
413,526,5.38049,-8.08636,-0.00337876,-0.00261717,-0.00405512,0.00107499,-0.00707093,-0.832213,0.00511011,0.0122152,1637,498,5.38046,8.08636
420,526,5.35376,-7.85349,-0.00268353,-0.00187215,-0.00316815,0.000916173,-0.00547186,-0.849078,0.00398853,0.0130619,1644,498,5.35381,7.85348
427,526,5.38745,-7.59747,-0.00200524,-0.0012402,-0.00243684,0.000843961,-0.0040894,-0.863249,0.0030468,0.0131824,1651,498,5.3874,7.59746
434,526,5.3927,-7.35947,-0.00119744,-0.000630519,-0.00186811,0.000975509,-0.00280347,-0.860693,0.00226528,0.01172,1658,498,5.39273,7.35946
441,526,5.38306,-7.12567,-0.000339978,-0.000196882,-0.00146224,0.00119556,-0.00173242,-0.809844,0.00169992,0.0121706,1665,498,5.38302,7.12568
448,526,5.38037,-6.90137,0.000577249,0.000216369,-0.00110964,0.00152102,-0.000727402,-0.704798,0.00132481,0.011507,1672,498,5.38043,6.90136
455,526,5.375,-6.68237,0.00161346,0.000711251,-0.000753319,0.00204042,0.000284299,-0.515621,0.00127611,0.0138076,1679,498,5.37497,6.68239
462,526,5.37451,-6.41068,0.00267818,0.00104007,-0.000529624,0.00283449,0.000883748,-0.287,0.0016747,0.0102617,1686,498,5.37453,6.41067
469,526,5.36987,-6.15637,0.003557,0.00095834,-0.000562319,0.00367346,0.00084188,-0.204219,0.00222216,0.00730334,1693,498,5.36989,6.15636
476,526,5.36914,-5.89896,0.00438544,0.000975424,-0.000573455,0.00447929,0.00088157,-0.162225,0.00274002,0.00891138,1700,498,5.36909,5.89896
483,526,5.38489,-5.63144,0.00507392,0.0010019,-0.00062078,0.00516646,0.000909362,-0.147973,0.00318476,0.0111642,1707,498,5.38485,5.63145
490,526,5.44519,-5.34445,0.00559464,0.000815743,-0.000629179,0.00567608,0.000734294,-0.128736,0.00356459,0.0215349,1714,498,5.44515,5.34445
497,526,5.41663,-5.22003,0.00587023,0.000644323,-0.000576783,0.00593313,0.000581421,-0.108628,0.00377656,0.0271398,1721,498,5.41658,5.22004
504,526,5.4364,-4.91669,0.00604033,0.000793631,-0.00025502,0.0060527,0.000781265,-0.0484535,0.00380156,0.0282807,1728,498,5.43638,4.91668
511,526,5.61548,-4.64673,0.00578057,0.000653937,-7.49014e-05,0.00578166,0.000652843,-0.0146061,0.00365631,0.037274,1735,498,5.6155,4.64672
518,526,5.50696,-4.72949,0.00524574,0.000821473,0.000453249,0.00529169,0.000775517,0.101048,0.00329981,0.0492993,1742,498,5.50692,4.72951
525,526,5.53467,-4.62793,0,0,0,0,0,0,0,-1,1749,498,5.53464,4.62794
532,526,3.54285,-2.81274,0,0,0,0,0,0,0,-1,1756,498,3.54284,2.81273
539,526,3.29407,0.932312,0,0,0,0,0,0,0,-1,1763,498,3.2941,-0.93232
546,526,3.36731,1.07721,0,0,0,0,0,0,0,-1,1770,498,3.36735,-1.07719
553,526,3.40796,1.37137,0,0,0,0,0,0,0,-1,1777,498,3.40792,-1.37138
560,526,0,0,0,0,0,0,0,0,0,-1,1784,498,0,0
567,526,0,0,0,0,0,0,0,0,0,-1,1791,498,0,0
574,526,0,0,0,0,0,0,0,0,0,-1,1798,498,0,0
581,526,0,0,0,0,0,0,0,0,0,-1,1805,498,0,0
588,526,0,0,0,0,0,0,0,0,0,-1,1812,498,0,0
595,526,0,0,0,0,0,0,0,0,0,-1,1819,498,0,0
602,526,0,0,0,0,0,0,0,0,0,-1,1826,498,0,0
609,526,0,0,0,0,0,0,0,0,0,-1,1833,498,0,0
616,526,0,0,0,0,0,0,0,0,0,-1,1840,498,0,0
623,526,0,0,0,0,0,0,0,0,0,-1,1847,498,0,0
630,526,0,0,0,0,0,0,0,0,0,-1,1854,498,0,0
637,526,0,0,0,0,0,0,0,0,0,-1,1861,498,0,0
644,526,0,0,0,0,0,0,0,0,0,-1,1868,498,0,0
651,526,0,0,0,0,0,0,0,0,0,-1,1875,498,0,0
658,526,0,0,0,0,0,0,0,0,0,-1,1882,498,0,0
665,526,0,0,0,0,0,0,0,0,0,-1,1889,498,0,0
672,526,0,0,0,0,0,0,0,0,0,-1,1896,498,0,0
679,526,0,0,0,0,0,0,0,0,0,-1,1903,498,0,0
686,526,0,0,0,0,0,0,0,0,0,-1,1910,498,0,0
693,526,0,0,0,0,0,0,0,0,0,-1,1917,498,0,0
700,526,0,0,0,0,0,0,0,0,0,-1,1924,498,0,0
707,526,0,0,0,0,0,0,0,0,0,-1,1931,498,0,0
714,526,0,0,0,0,0,0,0,0,0,-1,1938,498,0,0
721,526,0,0,0,0,0,0,0,0,0,-1,1945,498,0,0
728,526,0,0,0,0,0,0,0,0,0,-1,1952,498,0,0
735,526,0,0,0,0,0,0,0,0,0,-1,1959,498,0,0
742,526,0,0,0,0,0,0,0,0,0,-1,1966,498,0,0
749,526,0,0,0,0,0,0,0,0,0,-1,1973,498,0,0
756,526,0,0,0,0,0,0,0,0,0,-1,1980,498,0,0
763,526,0,0,0,0,0,0,0,0,0,-1,1987,498,0,0
770,526,0,0,0,0,0,0,0,0,0,-1,1994,498,0,0
777,526,0,0,0,0,0,0,0,0,0,-1,2001,498,0,0
784,526,0,0,0,0,0,0,0,0,0,-1,2008,498,0,0
791,526,0,0,0,0,0,0,0,0,0,-1,2015,498,0,0
798,526,0,0,0,0,0,0,0,0,0,-1,2022,498,0,0
805,526,0,0,0,0,0,0,0,0,0,-1,2029,498,0,0
812,526,0,0,0,0,0,0,0,0,0,-1,2036,498,0,0
-700,519,0,0,0,0,0,0,0,0,0,-1,524,505,0,0
-693,519,0,0,0,0,0,0,0,0,0,-1,531,505,0,0
-686,519,0,0,0,0,0,0,0,0,0,-1,538,505,0,0
-679,519,0,0,0,0,0,0,0,0,0,-1,545,505,0,0
-672,519,0,0,0,0,0,0,0,0,0,-1,552,505,0,0
-665,519,0,0,0,0,0,0,0,0,0,-1,559,505,0,0
-658,519,0,0,0,0,0,0,0,0,0,-1,566,505,0,0
-651,519,0,0,0,0,0,0,0,0,0,-1,573,505,0,0
-644,519,0,0,0,0,0,0,0,0,0,-1,580,505,0,0
-637,519,0,0,0,0,0,0,0,0,0,-1,587,505,0,0
-630,519,0,0,0,0,0,0,0,0,0,-1,594,505,0,0
-623,519,0,0,0,0,0,0,0,0,0,-1,601,505,0,0
-616,519,0,0,0,0,0,0,0,0,0,-1,608,505,0,0
-609,519,0,0,0,0,0,0,0,0,0,-1,615,505,0,0
-602,519,0,0,0,0,0,0,0,0,0,-1,622,505,0,0
-595,519,0,0,0,0,0,0,0,0,0,-1,629,505,0,0
-588,519,0,0,0,0,0,0,0,0,0,-1,636,505,0,0
-581,519,0,0,0,0,0,0,0,0,0,-1,643,505,0,0
-574,519,0,0,0,0,0,0,0,0,0,-1,650,505,0,0
-567,519,0,0,0,0,0,0,0,0,0,-1,657,505,0,0
-560,519,0,0,0,0,0,0,0,0,0,-1,664,505,0,0
-553,519,0,0,0,0,0,0,0,0,0,-1,671,505,0,0
-546,519,0,0,0,0,0,0,0,0,0,-1,678,505,0,0
-539,519,0,0,0,0,0,0,0,0,0,-1,685,505,0,0
-532,519,0,0,0,0,0,0,0,0,0,-1,692,505,0,0
-525,519,0,0,0,0,0,0,0,0,0,-1,699,505,0,0
-518,519,0,0,0,0,0,0,0,0,0,-1,706,505,0,0
-511,519,0,0,0,0,0,0,0,0,0,-1,713,505,0,0
-504,519,0,0,0,0,0,0,0,0,0,-1,720,505,0,0
-497,519,0,0,0,0,0,0,0,0,0,-1,727,505,0,0
-490,519,0,0,0,0,0,0,0,0,0,-1,734,505,0,0
-483,519,0,0,0,0,0,0,0,0,0,-1,741,505,0,0
-476,519,0,0,0,0,0,0,0,0,0,-1,748,505,0,0
-469,519,0,0,0,0,0,0,0,0,0,-1,755,505,0,0
-462,519,0,0,0,0,0,0,0,0,0,-1,762,505,0,0
-455,519,0,0,0,0,0,0,0,0,0,-1,769,505,0,0
-448,519,0,0,0,0,0,0,0,0,0,-1,776,505,0,0
-441,519,4.284,-2.99121,0,0,0,0,0,0,0,-1,783,505,4.284,2.99121
-434,519,2.82556,-3.57144,0,0,0,0,0,0,0,-1,790,505,2.82559,3.57145
-427,519,1.48297,-3.94443,0,0,0,0,0,0,0,-1,797,505,1.48294,3.94442
-420,519,0.588867,-5.39984,0,0,0,0,0,0,0,-1,804,505,0.588893,5.39985
-413,519,0.352783,-5.47086,-0.0442272,0.00909535,0.0307171,0.0231079,-0.0582398,1.14281,0.0484041,0.0485027,811,505,0.352798,5.47085
-406,519,0.623901,-6.12128,-0.0309338,0.0120088,0.0346003,0.0312585,-0.0501835,1.0631,0.0474418,0.0443267,818,505,0.623875,6.12128
-399,519,0.274963,-5.94626,0,0,0,0,0,0,0,-1,825,505,0.274968,5.94626
-392,519,0.323792,-5.9454,0,0,0,0,0,0,0,-1,832,505,0.323802,5.94542
-385,519,0.234375,-5.97226,-0.0090342,0.0132708,0.0308941,0.0349638,-0.0307271,0.958615,0.0379529,0.0463999,839,505,0.234391,5.97225
-378,519,0.160828,-6.26422,-0.00553816,0.0114341,0.0259599,0.0302597,-0.0243637,0.94337,0.031598,0.0349758,846,505,0.160801,6.26423
-371,519,0.110779,-6.55133,-0.00330616,0.00920243,0.0208803,0.024745,-0.0188488,0.930911,0.0252455,0.0203684,853,505,0.110777,6.55134
-364,519,0.0455933,-6.78534,-0.00225888,0.00733998,0.015679,0.0189376,-0.0138565,0.933923,0.0190093,0.0126462,860,505,0.0456029,6.78533
-357,519,0.0661011,-7.05237,-0.00259129,0.00544541,0.0110537,0.0131885,-0.0103344,0.959737,0.0136142,0.00969819,867,505,0.0661272,7.05238
-350,519,0.0668945,-7.28809,-0.00231524,0.00326045,0.00640353,0.00745668,-0.00651147,0.990705,0.00807066,0.0112742,874,505,0.066919,7.28811
-343,519,0.0562744,-7.52106,-0.0013183,0.00198841,0.00243707,0.00328004,-0.00260992,1.08345,0.0034079,0.0135063,881,505,0.0562468,7.52107
-336,519,0.0281372,-7.76215,-0.00085826,0.000987718,0.000828949,0.00130532,-0.00117586,1.20491,0.00143316,0.0127611,888,505,0.0281652,7.76215
-329,519,0.0200195,-7.97748,-0.000350362,0.000292262,-0.000179868,0.000339181,-0.000397281,-1.31563,0.000425637,0.0105634,895,505,0.0199898,7.97751
-322,519,0.0314941,-8.20184,0.000176764,0.000476621,-0.000427906,0.000780104,-0.000126719,-0.953904,0.000567049,0.0100563,902,505,0.0315148,8.20184
-315,519,0.0479736,-8.43451,0.000714327,0.000706518,-0.000622463,0.0013329,8.79478e-05,-0.782262,0.000860781,0.00926945,909,505,0.0479431,8.43454
-308,519,0.034729,-8.65784,0.00133693,0.000876706,-0.000804856,0.00194392,0.000269713,-0.64616,0.00121606,0.00855024,916,505,0.0347554,8.65784
-301,519,0.000488281,-8.87781,0.00196711,0.000970586,-0.000916033,0.00251162,0.000426071,-0.536312,0.00155201,0.0132307,923,505,0.000495271,8.87778
-294,519,0.0245361,-9.05084,0.00256351,0.000877139,-0.000953553,0.00299321,0.000447444,-0.423373,0.00186431,0.0146656,930,505,0.0245081,9.05084
-287,519,0.0184937,-9.26245,0.00310944,0.000437933,-0.000905243,0.00338729,0.000160087,-0.297802,0.00220677,0.0108032,937,505,0.0184638,9.26242
-280,519,0.0219116,-9.46844,0.00368901,-3.49883e-05,-0.000889829,0.00389071,-0.000236684,-0.222901,0.00267619,0.0147435,944,505,0.0219417,9.46844
-273,519,0.0651245,-9.71619,0.00408917,-0.000903187,-0.000738377,0.00419609,-0.0010101,-0.143801,0.00318789,0.0217939,951,505,0.0651386,9.71621
-266,519,0.0579224,-9.91772,0.00442832,-0.0020036,-0.000580367,0.00448027,-0.00205555,-0.0892714,0.00385904,0.0287938,958,505,0.0579396,9.91771
-259,519,0.141785,-10.06,0.00508782,-0.00313253,-0.000483325,0.00511614,-0.00316085,-0.0585274,0.00482297,0.0455374,965,505,0.141777,10.06
-252,519,0.184082,-10.2719,0,0,0,0,0,0,0,-1,972,505,0.184098,10.2718
-245,519,0.289673,-10.1702,0,0,0,0,0,0,0,-1,979,505,0.289688,10.1702
-238,519,0.3797,-10.0718,0,0,0,0,0,0,0,-1,986,505,0.379674,10.0719
-231,519,0.330322,-10.0452,0,0,0,0,0,0,0,-1,993,505,0.330339,10.0452
-224,519,-0.0494995,-7.97394,0,0,0,0,0,0,0,-1,1000,505,-0.0495123,7.97392
-217,519,-2.97125,-4.84393,0,0,0,0,0,0,0,-1,1007,505,-2.97128,4.84393
-210,519,-2.14398,-4.74774,0,0,0,0,0,0,0,-1,1014,505,-2.14397,4.74775
-203,519,-0.513611,-5.39017,0,0,0,0,0,0,0,-1,1021,505,-0.513585,5.39017
-196,519,-0.374023,-5.41635,0,0,0,0,0,0,0,-1,1028,505,-0.374047,5.41635
-189,519,-0.234497,-5.44254,0,0,0,0,0,0,0,-1,1035,505,-0.234508,5.44253
-182,519,2.76697,-1.19659,0,0,0,0,0,0,0,-1,1042,505,2.76696,1.19661
-175,519,2.31323,-0.960938,0,0,0,0,0,0,0,-1,1049,505,2.31319,0.960941
-168,519,2.01074,-0.721405,0,0,0,0,0,0,0,-1,1056,505,2.01072,0.721407
-161,519,2.32056,-0.522339,0,0,0,0,0,0,0,-1,1063,505,2.32057,0.522328
-154,519,2.55566,0.116669,0,0,0,0,0,0,0,-1,1070,505,2.55563,-0.116661
-147,519,-0.55127,-6.14001,0,0,0,0,0,0,0,-1,1077,505,-0.551252,6.14001
-140,519,0.240601,-7.53503,0,0,0,0,0,0,0,-1,1084,505,0.240653,7.53501
-133,519,2.70911,-4.4516,0,0,0,0,0,0,0,-1,1091,505,2.70915,4.45161
-126,519,0,0,0,0,0,0,0,0,0,-1,1098,505,0,0
-119,519,0,0,0,0,0,0,0,0,0,-1,1105,505,0,0
-112,519,0,0,0,0,0,0,0,0,0,-1,1112,505,0,0
-105,519,0,0,0,0,0,0,0,0,0,-1,1119,505,0,0
-98,519,0,0,0,0,0,0,0,0,0,-1,1126,505,0,0
-91,519,0,0,0,0,0,0,0,0,0,-1,1133,505,0,0
-84,519,0,0,0,0,0,0,0,0,0,-1,1140,505,0,0
-77,519,0,0,0,0,0,0,0,0,0,-1,1147,505,0,0
-70,519,0,0,0,0,0,0,0,0,0,-1,1154,505,0,0
-63,519,0,0,0,0,0,0,0,0,0,-1,1161,505,0,0
-56,519,0,0,0,0,0,0,0,0,0,-1,1168,505,0,0
-49,519,0,0,0,0,0,0,0,0,0,-1,1175,505,0,0
-42,519,0,0,0,0,0,0,0,0,0,-1,1182,505,0,0
-35,519,0,0,0,0,0,0,0,0,0,-1,1189,505,0,0
-28,519,0,0,0,0,0,0,0,0,0,-1,1196,505,0,0
-21,519,0,0,0,0,0,0,0,0,0,-1,1203,505,0,0
-14,519,0,0,0,0,0,0,0,0,0,-1,1210,505,0,0
-7,519,0,0,0,0,0,0,0,0,0,-1,1217,505,0,0
0,519,0,0,0,0,0,0,0,0,0,-1,1224,505,0,0
7,519,0,0,0,0,0,0,0,0,0,-1,1231,505,0,0
14,519,0,0,0,0,0,0,0,0,0,-1,1238,505,0,0
21,519,0,0,0,0,0,0,0,0,0,-1,1245,505,0,0
28,519,0,0,0,0,0,0,0,0,0,-1,1252,505,0,0
35,519,0,0,0,0,0,0,0,0,0,-1,1259,505,0,0
42,519,0,0,0,0,0,0,0,0,0,-1,1266,505,0,0
49,519,0,0,0,0,0,0,0,0,0,-1,1273,505,0,0
56,519,0,0,0,0,0,0,0,0,0,-1,1280,505,0,0
63,519,0,0,0,0,0,0,0,0,0,-1,1287,505,0,0
70,519,0,0,0,0,0,0,0,0,0,-1,1294,505,0,0
77,519,0,0,0,0,0,0,0,0,0,-1,1301,505,0,0
84,519,0,0,0,0,0,0,0,0,0,-1,1308,505,0,0
91,519,0,0,0,0,0,0,0,0,0,-1,1315,505,0,0
98,519,0,0,0,0,0,0,0,0,0,-1,1322,505,0,0
105,519,0,0,0,0,0,0,0,0,0,-1,1329,505,0,0
112,519,0,0,0,0,0,0,0,0,0,-1,1336,505,0,0
119,519,0,0,0,0,0,0,0,0,0,-1,1343,505,0,0
126,519,0,0,0,0,0,0,0,0,0,-1,1350,505,0,0
133,519,0,0,0,0,0,0,0,0,0,-1,1357,505,0,0
140,519,0,0,0,0,0,0,0,0,0,-1,1364,505,0,0
147,519,0,0,0,0,0,0,0,0,0,-1,1371,505,0,0
154,519,0,0,0,0,0,0,0,0,0,-1,1378,505,0,0
161,519,0,0,0,0,0,0,0,0,0,-1,1385,505,0,0
168,519,0,0,0,0,0,0,0,0,0,-1,1392,505,0,0
175,519,0,0,0,0,0,0,0,0,0,-1,1399,505,0,0
182,519,0,0,0,0,0,0,0,0,0,-1,1406,505,0,0
189,519,0,0,0,0,0,0,0,0,0,-1,1413,505,0,0
196,519,0,0,0,0,0,0,0,0,0,-1,1420,505,0,0
203,519,0,0,0,0,0,0,0,0,0,-1,1427,505,0,0
210,519,0,0,0,0,0,0,0,0,0,-1,1434,505,0,0
217,519,0,0,0,0,0,0,0,0,0,-1,1441,505,0,0
224,519,0,0,0,0,0,0,0,0,0,-1,1448,505,0,0
231,519,0,0,0,0,0,0,0,0,0,-1,1455,505,0,0
238,519,0,0,0,0,0,0,0,0,0,-1,1462,505,0,0
245,519,0,0,0,0,0,0,0,0,0,-1,1469,505,0,0
252,519,5.26208,0.0938416,0,0,0,0,0,0,0,-1,1476,505,5.26207,-0.0938493
259,519,6.14246,-1.36441,0,0,0,0,0,0,0,-1,1483,505,6.14241,1.36441
266,519,5.31909,-0.400787,0,0,0,0,0,0,0,-1,1490,505,5.31912,0.400773
273,519,4.02393,0.325531,0,0,0,0,0,0,0,-1,1497,505,4.0239,-0.325522
280,519,4.68848,0.53006,0,0,0,0,0,0,0,-1,1504,505,4.68842,-0.530073
287,519,7.9519,-3.80801,0,0,0,0,0,0,0,-1,1511,505,7.95193,3.808
294,519,6.92273,-3.38889,0,0,0,0,0,0,0,-1,1518,505,6.92268,3.38888
301,519,5.35669,-2.92661,0,0,0,0,0,0,0,-1,1525,505,5.35675,2.9266
308,519,7.37549,-5.64529,0,0,0,0,0,0,0,-1,1532,505,7.3755,5.64529
315,519,6.30029,-4.53754,0,0,0,0,0,0,0,-1,1539,505,6.30024,4.53753
322,519,5.84302,-5.45117,0,0,0,0,0,0,0,-1,1546,505,5.84303,5.45116
329,519,4.92407,0.62384,0,0,0,0,0,0,0,-1,1553,505,4.92403,-0.623832
336,519,3.10095,-0.329285,0,0,0,0,0,0,0,-1,1560,505,3.1009,0.329283
343,519,2.49146,-2.31119,0,0,0,0,0,0,0,-1,1567,505,2.49145,2.31119
350,519,3.47729,-2.22516,0,0,0,0,0,0,0,-1,1574,505,3.47726,2.22515
357,519,4.51917,-4.51691,0,0,0,0,0,0,0,-1,1581,505,4.51914,4.51691
364,519,3.54626,-7.20673,0,0,0,0,0,0,0,-1,1588,505,3.54622,7.20675
371,519,5.349,-8.20068,0,0,0,0,0,0,0,-1,1595,505,5.34898,8.20068
378,519,5.45532,-8.96838,0,0,0,0,0,0,0,-1,1602,505,5.45535,8.96837
385,519,5.50378,-8.65417,0,0,0,0,0,0,0,-1,1609,505,5.50377,8.65415
392,519,5.86597,-8.54437,-0.00886175,-0.00775994,-0.0102158,0.00191985,-0.0185415,-0.812335,0.0130481,0.0467046,1616,505,5.866,8.54438
399,519,5.6731,-8.47369,-0.00748333,-0.00634644,-0.00855298,0.00165696,-0.0154867,-0.81858,0.0109188,0.0372346,1623,505,5.67306,8.47372
406,519,5.64001,-8.35059,-0.00615239,-0.00502825,-0.00712333,0.00155515,-0.0127358,-0.824769,0.00905354,0.0221321,1630,505,5.64005,8.35059
413,519,5.64856,-8.10889,-0.00481307,-0.00362792,-0.00564486,0.00145539,-0.00989637,-0.837695,0.00713238,0.013014,1637,505,5.64854,8.10891
420,519,5.6084,-7.85132,-0.00387601,-0.00257737,-0.00437501,0.00119625,-0.00764963,-0.859069,0.00554171,0.0144088,1644,505,5.60834,7.8513
427,519,5.62952,-7.62402,-0.00307103,-0.00173632,-0.00331956,0.000982299,-0.00578966,-0.884595,0.00422544,0.0130924,1651,505,5.62955,7.62404
434,519,5.64453,-7.38519,-0.00218067,-0.00100761,-0.00247018,0.000944718,-0.004133,-0.901962,0.00311831,0.0120371,1658,505,5.64458,7.38519
441,519,5.62671,-7.14551,-0.00132371,-0.000505919,-0.00180607,0.000936968,-0.00276659,-0.896721,0.00222353,0.0124265,1665,505,5.62673,7.14554
448,519,5.60986,-6.90958,-0.000454977,-9.09274e-05,-0.00120438,0.000945106,-0.00149101,-0.860398,0.00141821,0.0100953,1672,505,5.60982,6.90958
455,519,5.61047,-6.6886,0.000465474,0.000322358,-0.000628913,0.00102689,-0.000239054,-0.728752,0.000776638,0.0109978,1679,505,5.61052,6.68858
462,519,5.61865,-6.43616,0.00134374,0.000491867,-0.00023034,0.00140204,0.000433574,-0.247869,0.00082887,0.0101673,1686,505,5.6186,6.43614
469,519,5.63489,-6.16449,0.00201034,0.000256963,-9.79361e-05,0.00201579,0.000251509,-0.0556251,0.00126836,0.00998053,1693,505,5.63494,6.16448
476,519,5.6366,-5.90192,0.00256407,6.5051e-05,2.92183e-05,0.00256441,6.47095e-05,0.0116898,0.00168845,0.0120829,1700,505,5.63662,5.90191
483,519,5.60925,-5.62854,0.00296374,-9.75821e-05,8.39406e-05,0.00296604,-9.9882e-05,0.0273922,0.00201148,0.0130182,1707,505,5.60928,5.62853
490,519,5.60535,-5.34222,0.00321607,-0.000463488,0.000144167,0.00322171,-0.000469128,0.0391007,0.00232005,0.0111546,1714,505,5.60532,5.34222
497,519,5.59802,-5.11517,0.00325909,-0.000792024,0.000221295,0.00327115,-0.000804076,0.0544099,0.00249241,0.0135053,1721,505,5.59806,5.11519
504,519,5.58777,-4.87375,0.00323562,-0.000648449,0.000561384,0.00331513,-0.000727961,0.1407,0.00248849,0.0133967,1728,505,5.58778,4.87376
511,519,5.62427,-4.6236,0.00284294,-0.000718037,0.000694286,0.00297352,-0.000848615,0.185903,0.0023176,0.0187457,1735,505,5.62421,4.62358
518,519,5.65601,-4.54581,0.00224647,-0.0004402,0.0010844,0.00262953,-0.000823269,0.339572,0.00208242,0.0435988,1742,505,5.65596,4.54579
525,519,5.76794,-4.43701,0,0,0,0,0,0,0,-1,1749,505,5.76797,4.43703
532,519,3.5155,-2.86511,0,0,0,0,0,0,0,-1,1756,505,3.51554,2.8651
539,519,3.30005,0.0229797,0,0,0,0,0,0,0,-1,1763,505,3.30008,-0.0229869
546,519,4.62024,-2.89774,0,0,0,0,0,0,0,-1,1770,505,4.62023,2.89775
553,519,4.14136,0.0667419,0,0,0,0,0,0,0,-1,1777,505,4.14141,-0.0667503
560,519,3.77856,0.279724,0,0,0,0,0,0,0,-1,1784,505,3.77861,-0.279731
567,519,0,0,0,0,0,0,0,0,0,-1,1791,505,0,0
574,519,0,0,0,0,0,0,0,0,0,-1,1798,505,0,0
581,519,0,0,0,0,0,0,0,0,0,-1,1805,505,0,0
588,519,0,0,0,0,0,0,0,0,0,-1,1812,505,0,0
595,519,0,0,0,0,0,0,0,0,0,-1,1819,505,0,0
602,519,0,0,0,0,0,0,0,0,0,-1,1826,505,0,0
609,519,0,0,0,0,0,0,0,0,0,-1,1833,505,0,0
616,519,0,0,0,0,0,0,0,0,0,-1,1840,505,0,0
623,519,0,0,0,0,0,0,0,0,0,-1,1847,505,0,0
630,519,0,0,0,0,0,0,0,0,0,-1,1854,505,0,0
637,519,0,0,0,0,0,0,0,0,0,-1,1861,505,0,0
644,519,0,0,0,0,0,0,0,0,0,-1,1868,505,0,0
651,519,0,0,0,0,0,0,0,0,0,-1,1875,505,0,0
658,519,0,0,0,0,0,0,0,0,0,-1,1882,505,0,0
665,519,0,0,0,0,0,0,0,0,0,-1,1889,505,0,0
672,519,0,0,0,0,0,0,0,0,0,-1,1896,505,0,0
679,519,0,0,0,0,0,0,0,0,0,-1,1903,505,0,0
686,519,0,0,0,0,0,0,0,0,0,-1,1910,505,0,0
693,519,0,0,0,0,0,0,0,0,0,-1,1917,505,0,0
700,519,0,0,0,0,0,0,0,0,0,-1,1924,505,0,0
707,519,0,0,0,0,0,0,0,0,0,-1,1931,505,0,0
714,519,0,0,0,0,0,0,0,0,0,-1,1938,505,0,0
721,519,0,0,0,0,0,0,0,0,0,-1,1945,505,0,0
728,519,0,0,0,0,0,0,0,0,0,-1,1952,505,0,0
735,519,0,0,0,0,0,0,0,0,0,-1,1959,505,0,0
742,519,0,0,0,0,0,0,0,0,0,-1,1966,505,0,0
749,519,0,0,0,0,0,0,0,0,0,-1,1973,505,0,0
756,519,0,0,0,0,0,0,0,0,0,-1,1980,505,0,0
763,519,0,0,0,0,0,0,0,0,0,-1,1987,505,0,0
770,519,0,0,0,0,0,0,0,0,0,-1,1994,505,0,0
777,519,0,0,0,0,0,0,0,0,0,-1,2001,505,0,0
784,519,0,0,0,0,0,0,0,0,0,-1,2008,505,0,0
791,519,0,0,0,0,0,0,0,0,0,-1,2015,505,0,0
798,519,0,0,0,0,0,0,0,0,0,-1,2022,505,0,0
805,519,0,0,0,0,0,0,0,0,0,-1,2029,505,0,0
812,519,0,0,0,0,0,0,0,0,0,-1,2036,505,0,0
-700,512,0,0,0,0,0,0,0,0,0,-1,524,512,0,0
-693,512,0,0,0,0,0,0,0,0,0,-1,531,512,0,0
-686,512,0,0,0,0,0,0,0,0,0,-1,538,512,0,0
-679,512,0,0,0,0,0,0,0,0,0,-1,545,512,0,0
-672,512,0,0,0,0,0,0,0,0,0,-1,552,512,0,0
-665,512,0,0,0,0,0,0,0,0,0,-1,559,512,0,0
-658,512,0,0,0,0,0,0,0,0,0,-1,566,512,0,0
-651,512,0,0,0,0,0,0,0,0,0,-1,573,512,0,0
-644,512,0,0,0,0,0,0,0,0,0,-1,580,512,0,0
-637,512,0,0,0,0,0,0,0,0,0,-1,587,512,0,0
-630,512,0,0,0,0,0,0,0,0,0,-1,594,512,0,0
-623,512,0,0,0,0,0,0,0,0,0,-1,601,512,0,0
-616,512,0,0,0,0,0,0,0,0,0,-1,608,512,0,0
-609,512,0,0,0,0,0,0,0,0,0,-1,615,512,0,0
-602,512,0,0,0,0,0,0,0,0,0,-1,622,512,0,0
-595,512,0,0,0,0,0,0,0,0,0,-1,629,512,0,0
-588,512,0,0,0,0,0,0,0,0,0,-1,636,512,0,0
-581,512,0,0,0,0,0,0,0,0,0,-1,643,512,0,0
-574,512,0,0,0,0,0,0,0,0,0,-1,650,512,0,0
-567,512,0,0,0,0,0,0,0,0,0,-1,657,512,0,0
-560,512,0,0,0,0,0,0,0,0,0,-1,664,512,0,0
-553,512,0,0,0,0,0,0,0,0,0,-1,671,512,0,0
-546,512,0,0,0,0,0,0,0,0,0,-1,678,512,0,0
-539,512,0,0,0,0,0,0,0,0,0,-1,685,512,0,0
-532,512,0,0,0,0,0,0,0,0,0,-1,692,512,0,0
-525,512,0,0,0,0,0,0,0,0,0,-1,699,512,0,0
-518,512,0,0,0,0,0,0,0,0,0,-1,706,512,0,0
-511,512,0,0,0,0,0,0,0,0,0,-1,713,512,0,0
-504,512,0,0,0,0,0,0,0,0,0,-1,720,512,0,0
-497,512,0,0,0,0,0,0,0,0,0,-1,727,512,0,0
-490,512,0,0,0,0,0,0,0,0,0,-1,734,512,0,0
-483,512,0,0,0,0,0,0,0,0,0,-1,741,512,0,0
-476,512,0,0,0,0,0,0,0,0,0,-1,748,512,0,0
-469,512,0,0,0,0,0,0,0,0,0,-1,755,512,0,0
-462,512,0,0,0,0,0,0,0,0,0,-1,762,512,0,0
-455,512,0,0,0,0,0,0,0,0,0,-1,769,512,0,0
-448,512,5.08636,-2.19104,-0.128478,-0.0218467,-0.0390392,-0.00908203,-0.141243,-1.25478,0.0912854,0.043886,776,512,5.08634,2.19104
-441,512,3.90833,-3.026,-0.11355,-0.0156465,-0.0248581,-0.00969657,-0.1195,-1.33586,0.0766394,0.0470867,783,512,3.90832,3.026
-434,512,2.5174,-3.57007,-0.0980587,-0.0100212,-0.0119349,-0.00843193,-0.099648,-1.43841,0.0638073,0.0475492,790,512,2.51737,3.57006
-427,512,1.18066,-4.03986,-0.0788935,-0.00435566,-4.64365e-05,-0.00435563,-0.0788935,-1.57017,0.0512056,0.049869,797,512,1.18067,4.03988
-420,512,0.217102,-4.72491,-0.0585397,0.00120295,0.0099635,0.0028208,-0.0601575,1.40982,0.0410776,0.0485295,804,512,0.217102,4.72489
-413,512,-0.207214,-5.28107,-0.0422447,0.00500176,0.0168513,0.0103962,-0.0476391,1.26099,0.0357325,0.0449151,811,512,-0.207227,5.28108
-406,512,-0.167114,-5.50977,-0.0297778,0.00732485,0.0209351,0.0167455,-0.0391984,1.14795,0.033155,0.0425679,818,512,-0.167124,5.50979
-399,512,0.0123291,-5.76093,-0.0203204,0.00862186,0.0230587,0.0213742,-0.0330727,1.06562,0.0316759,0.0452335,825,512,0.0123327,5.76094
-392,512,-0.0303955,-5.89465,-0.0131922,0.00923556,0.0228297,0.0234568,-0.0274135,1.01369,0.0293995,0.0362069,832,512,-0.0303887,5.89465
-385,512,-0.10321,-6.07544,-0.00811237,0.00878806,0.0207768,0.0227674,-0.0220917,0.978538,0.0259004,0.0181766,839,512,-0.103197,6.07542
-378,512,-0.121582,-6.29529,-0.0045171,0.00746165,0.0175701,0.0200351,-0.0170906,0.949664,0.021457,0.0141409,846,512,-0.121574,6.29529
-371,512,-0.143188,-6.53796,-0.00235199,0.0057768,0.0141545,0.0164389,-0.0130141,0.925209,0.017043,0.0109231,853,512,-0.143209,6.53795
-364,512,-0.15509,-6.81091,-0.00140031,0.0045793,0.0104422,0.0124513,-0.0092723,0.924828,0.0125868,0.00848315,860,512,-0.155091,6.81092
-357,512,-0.15741,-7.04645,-0.00162646,0.00319477,0.00715547,0.00833477,-0.00676645,0.947873,0.00873436,0.0103643,867,512,-0.157433,7.04642
-350,512,-0.160095,-7.28351,-0.00134094,0.00180336,0.00379846,0.00434217,-0.00387975,0.981611,0.00474943,0.0112217,874,512,-0.160102,7.28353
-343,512,-0.187805,-7.51807,-0.000499225,0.00107013,0.0010196,0.00157204,-0.00100113,1.11336,0.00149776,0.0111533,881,512,-0.187778,7.51805
-336,512,-0.192078,-7.75867,-1.49595e-05,0.000529839,-2.86865e-05,0.000531345,-1.64658e-05,-1.51833,0.000359844,0.0107486,888,512,-0.192078,7.75867
-329,512,-0.188965,-7.96899,0.000523052,0.000267839,-0.000677914,0.00108526,-0.000294374,-0.69237,0.000839028,0.0108706,895,512,-0.188956,7.96901
-322,512,-0.190979,-8.20142,0.00103822,0.00049701,-0.000934331,0.00174034,-0.000205114,-0.644442,0.0012343,0.0101537,902,512,-0.190981,8.20143
-315,512,-0.169678,-8.43732,0.00157499,0.000765546,-0.00114399,0.00238374,-4.3208e-05,-0.615379,0.00160376,0.010423,909,512,-0.169696,8.43734
-308,512,-0.177734,-8.65143,0.00218815,0.000969173,-0.00130959,0.00302313,0.000134191,-0.567603,0.00197221,0.0108528,916,512,-0.17776,8.65141
-301,512,-0.192749,-8.85919,0.00282056,0.00109509,-0.00141015,0.00361096,0.000304697,-0.51087,0.00231244,0.0147137,923,512,-0.192773,8.85921
-294,512,-0.177429,-9.05414,0.0034292,0.00101254,-0.00143902,0.00409992,0.000341823,-0.436159,0.00262676,0.0145473,930,512,-0.177456,9.05411
-287,512,-0.249451,-9.19678,0.00398796,0.000605362,-0.00138553,0.00448302,0.000110299,-0.343172,0.0029526,0.0208695,937,512,-0.249434,9.19681
-280,512,-0.140259,-9.48633,0.00462893,0.000103308,-0.00139477,0.00502425,-0.000292018,-0.276191,0.00345096,0.0297665,944,512,-0.140254,9.48633
-273,512,-0.036438,-9.81104,0,0,0,0,0,0,0,-1,951,512,-0.0364681,9.81106
-266,512,-0.10498,-10.0361,0,0,0,0,0,0,0,-1,958,512,-0.105002,10.0361
-259,512,-0.0655518,-10.2255,0,0,0,0,0,0,0,-1,965,512,-0.0655625,10.2255
-252,512,1.45941,-3.43475,0,0,0,0,0,0,0,-1,972,512,1.45938,3.43475
-245,512,4.12927,-11.272,0,0,0,0,0,0,0,-1,979,512,4.1293,11.272
-238,512,0.227051,-8.92969,0,0,0,0,0,0,0,-1,986,512,0.227073,8.92968
-231,512,-2.54437,-10.169,0,0,0,0,0,0,0,-1,993,512,-2.54439,10.169
-224,512,-4.84601,-7.52783,0,0,0,0,0,0,0,-1,1000,512,-4.84602,7.52786
-217,512,-7.37274,-3.89563,0,0,0,0,0,0,0,-1,1007,512,-7.37274,3.89561
-210,512,-3.76642,-1.94702,0,0,0,0,0,0,0,-1,1014,512,-3.76641,1.94702
-203,512,-2.48328,-5.19061,0,0,0,0,0,0,0,-1,1021,512,-2.48328,5.19059
-196,512,-1.14929,-4.63202,0,0,0,0,0,0,0,-1,1028,512,-1.14934,4.632
-189,512,0.197998,4.55505,0,0,0,0,0,0,0,-1,1035,512,0.197996,-4.55506
-182,512,2.73938,0.0778503,0,0,0,0,0,0,0,-1,1042,512,2.73944,-0.077852
-175,512,2.29565,0.209808,0,0,0,0,0,0,0,-1,1049,512,2.29565,-0.209813
-168,512,2.09399,-0.302856,0,0,0,0,0,0,0,-1,1056,512,2.09403,0.302826
-161,512,2.76636,0.0921021,0,0,0,0,0,0,0,-1,1063,512,2.76633,-0.0921104
-154,512,3.41382,0.466187,0,0,0,0,0,0,0,-1,1070,512,3.41382,-0.466178
-147,512,0,0,0,0,0,0,0,0,0,-1,1077,512,0,0
-140,512,0,0,0,0,0,0,0,0,0,-1,1084,512,0,0
-133,512,0,0,0,0,0,0,0,0,0,-1,1091,512,0,0
-126,512,0,0,0,0,0,0,0,0,0,-1,1098,512,0,0
-119,512,0,0,0,0,0,0,0,0,0,-1,1105,512,0,0
-112,512,0,0,0,0,0,0,0,0,0,-1,1112,512,0,0
-105,512,0,0,0,0,0,0,0,0,0,-1,1119,512,0,0
-98,512,0,0,0,0,0,0,0,0,0,-1,1126,512,0,0
-91,512,0,0,0,0,0,0,0,0,0,-1,1133,512,0,0
-84,512,0,0,0,0,0,0,0,0,0,-1,1140,512,0,0
-77,512,0,0,0,0,0,0,0,0,0,-1,1147,512,0,0
-70,512,0,0,0,0,0,0,0,0,0,-1,1154,512,0,0
-63,512,0,0,0,0,0,0,0,0,0,-1,1161,512,0,0
-56,512,0,0,0,0,0,0,0,0,0,-1,1168,512,0,0
-49,512,0,0,0,0,0,0,0,0,0,-1,1175,512,0,0
-42,512,0,0,0,0,0,0,0,0,0,-1,1182,512,0,0
-35,512,0,0,0,0,0,0,0,0,0,-1,1189,512,0,0
-28,512,0,0,0,0,0,0,0,0,0,-1,1196,512,0,0
-21,512,0,0,0,0,0,0,0,0,0,-1,1203,512,0,0
-14,512,0,0,0,0,0,0,0,0,0,-1,1210,512,0,0
-7,512,0,0,0,0,0,0,0,0,0,-1,1217,512,0,0
0,512,0,0,0,0,0,0,0,0,0,-1,1224,512,0,0
7,512,0,0,0,0,0,0,0,0,0,-1,1231,512,0,0
14,512,0,0,0,0,0,0,0,0,0,-1,1238,512,0,0
21,512,0,0,0,0,0,0,0,0,0,-1,1245,512,0,0
28,512,0,0,0,0,0,0,0,0,0,-1,1252,512,0,0
35,512,0,0,0,0,0,0,0,0,0,-1,1259,512,0,0
42,512,0,0,0,0,0,0,0,0,0,-1,1266,512,0,0
49,512,0,0,0,0,0,0,0,0,0,-1,1273,512,0,0
56,512,0,0,0,0,0,0,0,0,0,-1,1280,512,0,0
63,512,0,0,0,0,0,0,0,0,0,-1,1287,512,0,0
70,512,0,0,0,0,0,0,0,0,0,-1,1294,512,0,0
77,512,0,0,0,0,0,0,0,0,0,-1,1301,512,0,0
84,512,0,0,0,0,0,0,0,0,0,-1,1308,512,0,0
91,512,0,0,0,0,0,0,0,0,0,-1,1315,512,0,0
98,512,0,0,0,0,0,0,0,0,0,-1,1322,512,0,0
105,512,0,0,0,0,0,0,0,0,0,-1,1329,512,0,0
112,512,0,0,0,0,0,0,0,0,0,-1,1336,512,0,0
119,512,0,0,0,0,0,0,0,0,0,-1,1343,512,0,0
126,512,0,0,0,0,0,0,0,0,0,-1,1350,512,0,0
133,512,0,0,0,0,0,0,0,0,0,-1,1357,512,0,0
140,512,0,0,0,0,0,0,0,0,0,-1,1364,512,0,0
147,512,0,0,0,0,0,0,0,0,0,-1,1371,512,0,0
154,512,0,0,0,0,0,0,0,0,0,-1,1378,512,0,0
161,512,0,0,0,0,0,0,0,0,0,-1,1385,512,0,0
168,512,0,0,0,0,0,0,0,0,0,-1,1392,512,0,0
175,512,0,0,0,0,0,0,0,0,0,-1,1399,512,0,0
182,512,0,0,0,0,0,0,0,0,0,-1,1406,512,0,0
189,512,0,0,0,0,0,0,0,0,0,-1,1413,512,0,0
196,512,0,0,0,0,0,0,0,0,0,-1,1420,512,0,0
203,512,0,0,0,0,0,0,0,0,0,-1,1427,512,0,0
210,512,0,0,0,0,0,0,0,0,0,-1,1434,512,0,0
217,512,0,0,0,0,0,0,0,0,0,-1,1441,512,0,0
224,512,0,0,0,0,0,0,0,0,0,-1,1448,512,0,0
231,512,0,0,0,0,0,0,0,0,0,-1,1455,512,0,0
238,512,0,0,0,0,0,0,0,0,0,-1,1462,512,0,0
245,512,0,0,0,0,0,0,0,0,0,-1,1469,512,0,0
252,512,0,0,0,0,0,0,0,0,0,-1,1476,512,0,0
259,512,0,0,0,0,0,0,0,0,0,-1,1483,512,0,0
266,512,0,0,0,0,0,0,0,0,0,-1,1490,512,0,0
273,512,4.00745,0.618622,0,0,0,0,0,0,0,-1,1497,512,4.00747,-0.618611
280,512,4.49609,0.649841,0,0,0,0,0,0,0,-1,1504,512,4.49612,-0.649834
287,512,4.77234,0.458069,0,0,0,0,0,0,0,-1,1511,512,4.77233,-0.458083
294,512,8.54956,-2.36273,0,0,0,0,0,0,0,-1,1518,512,8.54952,2.36274
301,512,6.302,-1.69092,0,0,0,0,0,0,0,-1,1525,512,6.30196,1.69093
308,512,8.2439,-6.22754,0,0,0,0,0,0,0,-1,1532,512,8.24394,6.22757
315,512,7.53687,-6.04211,0,0,0,0,0,0,0,-1,1539,512,7.53691,6.04211
322,512,6.82983,-5.85663,0,0,0,0,0,0,0,-1,1546,512,6.82988,5.85666
329,512,4.38147,-0.329651,0,0,0,0,0,0,0,-1,1553,512,4.38144,0.329662
336,512,4.41467,-0.741455,0,0,0,0,0,0,0,-1,1560,512,4.41467,0.741442
343,512,4.44727,-1.21667,0,0,0,0,0,0,0,-1,1567,512,4.44732,1.21666
350,512,4.55469,-1.65082,0,0,0,0,0,0,0,-1,1574,512,4.5547,1.65083
357,512,5.79993,-2.67456,0,0,0,0,0,0,0,-1,1581,512,5.79991,2.67454
364,512,5.18298,-6.80133,0,0,0,0,0,0,0,-1,1588,512,5.18296,6.80132
371,512,5.28467,-7.69269,0,0,0,0,0,0,0,-1,1595,512,5.28464,7.69269
378,512,5.58667,-7.75049,0,0,0,0,0,0,0,-1,1602,512,5.58663,7.7505
385,512,5.15771,-8.18652,0,0,0,0,0,0,0,-1,1609,512,5.15769,8.18651
392,512,6.43311,-8.28717,0,0,0,0,0,0,0,-1,1616,512,6.43315,8.28716
399,512,6.24646,-8.12421,-0.0104996,-0.00891584,-0.0115925,0.00191177,-0.0213272,-0.819499,0.0148963,0.0487235,1623,512,6.24643,8.12418
406,512,5.9563,-8.15057,-0.00851664,-0.00689105,-0.0095648,0.00189543,-0.0173031,-0.827785,0.0122163,0.0420848,1630,512,5.95631,8.15057
413,512,5.81274,-8.14813,-0.0066418,-0.00490357,-0.00754645,0.00182365,-0.013369,-0.84273,0.0095786,0.0328677,1637,512,5.81275,8.14812
420,512,5.8894,-7.88123,-0.00535359,-0.00342315,-0.00586631,0.00155681,-0.0103336,-0.866936,0.0074623,0.0179122,1644,512,5.88945,7.88123
427,512,5.89246,-7.62915,-0.00435268,-0.00225869,-0.00446036,0.00127592,-0.00788728,-0.900678,0.00573103,0.0142308,1651,512,5.89249,7.62912
434,512,5.88782,-7.38361,-0.00325537,-0.00129786,-0.00330371,0.00116902,-0.00572226,-0.929409,0.00425834,0.0111714,1658,512,5.88787,7.38362
441,512,5.87878,-7.15448,-0.00227297,-0.000633914,-0.00239103,0.00107413,-0.00398102,-0.9505,0.00307524,0.0126623,1665,512,5.87879,7.15447
448,512,5.85449,-6.9118,-0.00132015,-0.000120238,-0.0015843,0.000973902,-0.00241429,-0.966398,0.00201423,0.00930845,1672,512,5.85448,6.91182
455,512,5.84888,-6.66382,-0.000374404,0.000304537,-0.000849018,0.000879437,-0.000949304,-0.975582,0.00105608,0.00897899,1679,512,5.84889,6.66383
462,512,5.8634,-6.41168,0.000468578,0.000417731,-0.000340791,0.000784892,0.000101417,-0.748166,0.000492946,0.00930886,1686,512,5.86335,6.4117
469,512,5.86646,-6.13843,0.00108658,0.000151683,-0.000108891,0.0010991,0.000139167,-0.114433,0.000691031,0.010831,1693,512,5.86645,6.1384
476,512,5.8606,-5.88379,0.00154572,-0.000116944,7.84751e-05,0.00154941,-0.000120639,0.047059,0.00107541,0.0134976,1700,512,5.86062,5.88377
483,512,5.85315,-5.61591,0.0018383,-0.000343576,0.000161501,0.00185019,-0.000355465,0.0734853,0.00136744,0.0116814,1707,512,5.85317,5.61592
490,512,5.8551,-5.34662,0.00198246,-0.000763933,0.000222908,0.00200044,-0.000781907,0.0804621,0.00165694,0.00992641,1714,512,5.85508,5.34662
497,512,5.84839,-5.10205,0.00191336,-0.00116006,0.000258131,0.00193489,-0.00118159,0.0832114,0.00181674,0.0117908,1721,512,5.84845,5.10203
504,512,5.84485,-4.83374,0.00178567,-0.000999109,0.000556552,0.00189278,-0.00110622,0.190128,0.00175121,0.0121058,1728,512,5.8448,4.83374
511,512,5.8562,-4.55853,0.00131593,-0.00102808,0.000623247,0.00147134,-0.00118349,0.244373,0.00153577,0.0128148,1735,512,5.85623,4.55855
518,512,5.88965,-4.3418,0.000663741,-0.000729,0.00086261,0.00107599,-0.00114124,0.445815,0.0012803,0.0216939,1742,512,5.88969,4.34179
525,512,6.00134,-4.10846,0,0,0,0,0,0,0,-1,1749,512,6.00131,4.10848
532,512,5.29919,-3.54114,0,0,0,0,0,0,0,-1,1756,512,5.29923,3.54117
539,512,4.39929,-3.11737,0,0,0,0,0,0,0,-1,1763,512,4.3993,3.11735
546,512,2.77551,-0.66449,0,0,0,0,0,0,0,-1,1770,512,2.77548,0.664503
553,512,3.927,-0.448853,0,0,0,0,0,0,0,-1,1777,512,3.92704,0.448843
560,512,3.55762,-0.201233,0,0,0,0,0,0,0,-1,1784,512,3.55768,0.201259
567,512,3.09045,0.191193,0,0,0,0,0,0,0,-1,1791,512,3.09045,-0.191203
574,512,0,0,0,0,0,0,0,0,0,-1,1798,512,0,0
581,512,0,0,0,0,0,0,0,0,0,-1,1805,512,0,0
588,512,0,0,0,0,0,0,0,0,0,-1,1812,512,0,0
595,512,0,0,0,0,0,0,0,0,0,-1,1819,512,0,0
602,512,0,0,0,0,0,0,0,0,0,-1,1826,512,0,0
609,512,0,0,0,0,0,0,0,0,0,-1,1833,512,0,0
616,512,0,0,0,0,0,0,0,0,0,-1,1840,512,0,0
623,512,0,0,0,0,0,0,0,0,0,-1,1847,512,0,0
630,512,0,0,0,0,0,0,0,0,0,-1,1854,512,0,0
637,512,0,0,0,0,0,0,0,0,0,-1,1861,512,0,0
644,512,0,0,0,0,0,0,0,0,0,-1,1868,512,0,0
651,512,0,0,0,0,0,0,0,0,0,-1,1875,512,0,0
658,512,0,0,0,0,0,0,0,0,0,-1,1882,512,0,0
665,512,0,0,0,0,0,0,0,0,0,-1,1889,512,0,0
672,512,0,0,0,0,0,0,0,0,0,-1,1896,512,0,0
679,512,0,0,0,0,0,0,0,0,0,-1,1903,512,0,0
686,512,0,0,0,0,0,0,0,0,0,-1,1910,512,0,0
693,512,0,0,0,0,0,0,0,0,0,-1,1917,512,0,0
700,512,0,0,0,0,0,0,0,0,0,-1,1924,512,0,0
707,512,0,0,0,0,0,0,0,0,0,-1,1931,512,0,0
714,512,0,0,0,0,0,0,0,0,0,-1,1938,512,0,0
721,512,0,0,0,0,0,0,0,0,0,-1,1945,512,0,0
728,512,0,0,0,0,0,0,0,0,0,-1,1952,512,0,0
735,512,0,0,0,0,0,0,0,0,0,-1,1959,512,0,0
742,512,0,0,0,0,0,0,0,0,0,-1,1966,512,0,0
749,512,0,0,0,0,0,0,0,0,0,-1,1973,512,0,0
756,512,0,0,0,0,0,0,0,0,0,-1,1980,512,0,0
763,512,0,0,0,0,0,0,0,0,0,-1,1987,512,0,0
770,512,0,0,0,0,0,0,0,0,0,-1,1994,512,0,0
777,512,0,0,0,0,0,0,0,0,0,-1,2001,512,0,0
784,512,0,0,0,0,0,0,0,0,0,-1,2008,512,0,0
791,512,0,0,0,0,0,0,0,0,0,-1,2015,512,0,0
798,512,0,0,0,0,0,0,0,0,0,-1,2022,512,0,0
805,512,0,0,0,0,0,0,0,0,0,-1,2029,512,0,0
812,512,0,0,0,0,0,0,0,0,0,-1,2036,512,0,0
-700,505,0,0,0,0,0,0,0,0,0,-1,524,519,0,0
-693,505,0,0,0,0,0,0,0,0,0,-1,531,519,0,0
-686,505,0,0,0,0,0,0,0,0,0,-1,538,519,0,0
-679,505,0,0,0,0,0,0,0,0,0,-1,545,519,0,0
-672,505,0,0,0,0,0,0,0,0,0,-1,552,519,0,0
-665,505,0,0,0,0,0,0,0,0,0,-1,559,519,0,0
-658,505,0,0,0,0,0,0,0,0,0,-1,566,519,0,0
-651,505,0,0,0,0,0,0,0,0,0,-1,573,519,0,0
-644,505,0,0,0,0,0,0,0,0,0,-1,580,519,0,0
-637,505,0,0,0,0,0,0,0,0,0,-1,587,519,0,0
-630,505,0,0,0,0,0,0,0,0,0,-1,594,519,0,0
-623,505,0,0,0,0,0,0,0,0,0,-1,601,519,0,0
-616,505,0,0,0,0,0,0,0,0,0,-1,608,519,0,0
-609,505,0,0,0,0,0,0,0,0,0,-1,615,519,0,0
-602,505,0,0,0,0,0,0,0,0,0,-1,622,519,0,0
-595,505,0,0,0,0,0,0,0,0,0,-1,629,519,0,0
-588,505,0,0,0,0,0,0,0,0,0,-1,636,519,0,0
-581,505,0,0,0,0,0,0,0,0,0,-1,643,519,0,0
-574,505,0,0,0,0,0,0,0,0,0,-1,650,519,0,0
-567,505,0,0,0,0,0,0,0,0,0,-1,657,519,0,0
-560,505,0,0,0,0,0,0,0,0,0,-1,664,519,0,0
-553,505,0,0,0,0,0,0,0,0,0,-1,671,519,0,0
-546,505,0,0,0,0,0,0,0,0,0,-1,678,519,0,0
-539,505,0,0,0,0,0,0,0,0,0,-1,685,519,0,0
-532,505,0,0,0,0,0,0,0,0,0,-1,692,519,0,0
-525,505,0,0,0,0,0,0,0,0,0,-1,699,519,0,0
-518,505,0,0,0,0,0,0,0,0,0,-1,706,519,0,0
-511,505,0,0,0,0,0,0,0,0,0,-1,713,519,0,0
-504,505,0,0,0,0,0,0,0,0,0,-1,720,519,0,0
-497,505,0,0,0,0,0,0,0,0,0,-1,727,519,0,0
-490,505,0,0,0,0,0,0,0,0,0,-1,734,519,0,0
-483,505,0,0,0,0,0,0,0,0,0,-1,741,519,0,0
-476,505,0,0,0,0,0,0,0,0,0,-1,748,519,0,0
-469,505,0,0,0,0,0,0,0,0,0,-1,755,519,0,0
-462,505,0,0,0,0,0,0,0,0,0,-1,762,519,0,0
-455,505,5.71539,-0.359924,-0.0976344,-0.0139836,-0.0524461,0.0112728,-0.122891,-1.122,0.0859316,0.0493977,769,519,5.71542,0.359905
-448,505,4.6073,-1.80219,-0.0999362,-0.0131989,-0.0412579,0.00329104,-0.116426,-1.19057,0.0787374,0.0460163,776,519,4.60731,1.80221
-441,505,3.53064,-3.04553,-0.0932161,-0.0105107,-0.0294933,-0.00107063,-0.102656,-1.26103,0.0680833,0.0483913,783,519,3.53065,3.0455
-434,505,2.20184,-3.52917,-0.0854226,-0.00816615,-0.0188289,-0.00382151,-0.0897673,-1.34402,0.0586126,0.0468417,790,519,2.20184,3.5292
-427,505,0.672913,-3.76465,-0.0713295,-0.00451171,-0.00850433,-0.00344629,-0.072395,-1.44617,0.0471565,0.0459027,797,519,0.672911,3.76467
-420,505,-0.390808,-4.38116,-0.053144,-6.63279e-05,0.000508648,-6.14543e-05,-0.0531489,1.56121,0.0354121,0.0436196,804,519,-0.390802,4.38114
-413,505,-0.791016,-5.00757,0,0,0,0,0,0,0,-1,811,519,-0.790997,5.00754
-406,505,-0.626221,-4.98859,0,0,0,0,0,0,0,-1,818,519,-0.626201,4.98859
-399,505,-0.329468,-5.54071,-0.0183942,0.00564753,0.0134671,0.0116784,-0.024425,1.14976,0.0212729,0.0406358,825,519,-0.329458,5.54073
-392,505,-0.333984,-5.82184,-0.011704,0.00615031,0.0140495,0.013869,-0.0194227,1.06842,0.0193099,0.0206475,832,519,-0.333959,5.82181
-385,505,-0.364685,-6.0686,-0.00685124,0.00582093,0.0131154,0.0140505,-0.0150809,1.01042,0.0168225,0.00918054,839,519,-0.364681,6.06863
-378,505,-0.384033,-6.31586,-0.00340185,0.00476738,0.0111726,0.0125786,-0.0112131,0.960646,0.0137437,0.0105475,846,519,-0.384008,6.31588
-371,505,-0.395386,-6.57831,-0.00140956,0.00338657,0.00902331,0.010325,-0.00834802,0.915277,0.010801,0.0125889,853,519,-0.395403,6.57829
-364,505,-0.408142,-6.82343,-0.000569529,0.00257857,0.00647168,0.00766487,-0.00565583,0.904692,0.00771981,0.0132247,860,519,-0.408167,6.8234
-357,505,-0.375916,-7.04321,-0.000652117,0.00150795,0.00422334,0.00478716,-0.00393133,0.91058,0.0050417,0.0115278,867,519,-0.375927,7.04319
-350,505,-0.405823,-7.27814,-0.000315192,0.000657172,0.00189623,0.00212855,-0.00178657,0.910892,0.00226327,0.0112924,874,519,-0.405815,7.27811
-343,505,-0.434326,-7.51294,0.00041563,0.000252107,6.0338e-05,0.000435484,0.000232254,0.317881,0.000251613,0.00924221,881,519,-0.434316,7.51296
-336,505,-0.423767,-7.73425,0.000933306,-1.29537e-05,-0.000607133,0.00122989,-0.000309539,-0.454407,0.000940248,0.0104716,888,519,-0.423748,7.73426
-329,505,-0.415833,-7.94525,0.00150384,1.48933e-05,-0.00101491,0.00201805,-0.000499316,-0.468958,0.00153905,0.0131252,895,519,-0.415832,7.94526
-322,505,-0.428345,-8.19568,0.00202273,0.000285551,-0.00128524,0.00270536,-0.00039708,-0.488242,0.00194946,0.0152429,902,519,-0.428344,8.19565
-315,505,-0.409485,-8.43494,0.00257297,0.000602211,-0.0015267,0.00340468,-0.000229493,-0.49882,0.00235002,0.0131909,909,519,-0.409477,8.43495
-308,505,-0.409851,-8.6532,0.00318925,0.000860637,-0.00169374,0.00408027,-3.03828e-05,-0.484283,0.00273036,0.0120184,916,519,-0.409839,8.65319
-301,505,-0.378601,-8.87042,0.00383042,0.00106252,-0.00180885,0.00472402,0.000168923,-0.45885,0.00309458,0.0173379,923,519,-0.378605,8.87042
-294,505,-0.386292,-9.05231,0,0,0,0,0,0,0,-1,930,519,-0.386307,9.05233
-287,505,-0.441223,-9.32227,0,0,0,0,0,0,0,-1,937,519,-0.441224,9.32226
-280,505,-0.283875,-9.69604,0,0,0,0,0,0,0,-1,944,519,-0.283889,9.69602
-273,505,-0.0680542,-9.44867,0,0,0,0,0,0,0,-1,951,519,-0.0680462,9.44866
-266,505,-0.036377,-9.07922,0,0,0,0,0,0,0,-1,958,519,-0.0364055,9.0792
-259,505,0.10321,-6.69824,0,0,0,0,0,0,0,-1,965,519,0.103235,6.69826
-252,505,6.82312,-15.6972,0,0,0,0,0,0,0,-1,972,519,6.82314,15.6972
-245,505,4.26727,-12.9861,0,0,0,0,0,0,0,-1,979,519,4.2673,12.9861
-238,505,1.67432,-11.2307,0,0,0,0,0,0,0,-1,986,519,1.67429,11.2307
-231,505,-0.958435,-8.3075,0,0,0,0,0,0,0,-1,993,519,-0.958421,8.30751
-224,505,-3.69653,-5.12732,0,0,0,0,0,0,0,-1,1000,519,-3.69653,5.12733
-217,505,-6.34302,-1.65533,0,0,0,0,0,0,0,-1,1007,519,-6.34299,1.65535
-210,505,-3.06128,-0.396301,0,0,0,0,0,0,0,-1,1014,519,-3.06129,0.396294
-203,505,-4.26465,2.03607,0,0,0,0,0,0,0,-1,1021,519,-4.26462,-2.03606
-196,505,-5.47595,4.27295,0,0,0,0,0,0,0,-1,1028,519,-5.47597,-4.27292
-189,505,1.51526,5.56207,0,0,0,0,0,0,0,-1,1035,519,1.51523,-5.56209
-182,505,2.97815,7.5097,0,0,0,0,0,0,0,-1,1042,519,2.97812,-7.5097
-175,505,-2.38416,-2.17548,0,0,0,0,0,0,0,-1,1049,519,-2.38411,2.1755
-168,505,0,0,0,0,0,0,0,0,0,-1,1056,519,0,0
-161,505,0,0,0,0,0,0,0,0,0,-1,1063,519,0,0
-154,505,0,0,0,0,0,0,0,0,0,-1,1070,519,0,0
-147,505,0,0,0,0,0,0,0,0,0,-1,1077,519,0,0
-140,505,0,0,0,0,0,0,0,0,0,-1,1084,519,0,0
-133,505,0,0,0,0,0,0,0,0,0,-1,1091,519,0,0
-126,505,0,0,0,0,0,0,0,0,0,-1,1098,519,0,0
-119,505,0,0,0,0,0,0,0,0,0,-1,1105,519,0,0
-112,505,0,0,0,0,0,0,0,0,0,-1,1112,519,0,0
-105,505,0,0,0,0,0,0,0,0,0,-1,1119,519,0,0
-98,505,0,0,0,0,0,0,0,0,0,-1,1126,519,0,0
-91,505,0,0,0,0,0,0,0,0,0,-1,1133,519,0,0
-84,505,0,0,0,0,0,0,0,0,0,-1,1140,519,0,0
-77,505,0,0,0,0,0,0,0,0,0,-1,1147,519,0,0
-70,505,0,0,0,0,0,0,0,0,0,-1,1154,519,0,0
-63,505,0,0,0,0,0,0,0,0,0,-1,1161,519,0,0
-56,505,0,0,0,0,0,0,0,0,0,-1,1168,519,0,0
-49,505,0,0,0,0,0,0,0,0,0,-1,1175,519,0,0
-42,505,0,0,0,0,0,0,0,0,0,-1,1182,519,0,0
-35,505,0,0,0,0,0,0,0,0,0,-1,1189,519,0,0
-28,505,0,0,0,0,0,0,0,0,0,-1,1196,519,0,0
-21,505,0,0,0,0,0,0,0,0,0,-1,1203,519,0,0
-14,505,0,0,0,0,0,0,0,0,0,-1,1210,519,0,0
-7,505,0,0,0,0,0,0,0,0,0,-1,1217,519,0,0
0,505,0,0,0,0,0,0,0,0,0,-1,1224,519,0,0
7,505,0,0,0,0,0,0,0,0,0,-1,1231,519,0,0
14,505,0,0,0,0,0,0,0,0,0,-1,1238,519,0,0
21,505,0,0,0,0,0,0,0,0,0,-1,1245,519,0,0
28,505,0,0,0,0,0,0,0,0,0,-1,1252,519,0,0
35,505,0,0,0,0,0,0,0,0,0,-1,1259,519,0,0
42,505,0,0,0,0,0,0,0,0,0,-1,1266,519,0,0
49,505,0,0,0,0,0,0,0,0,0,-1,1273,519,0,0
56,505,0,0,0,0,0,0,0,0,0,-1,1280,519,0,0
63,505,0,0,0,0,0,0,0,0,0,-1,1287,519,0,0
70,505,0,0,0,0,0,0,0,0,0,-1,1294,519,0,0
77,505,0,0,0,0,0,0,0,0,0,-1,1301,519,0,0
84,505,0,0,0,0,0,0,0,0,0,-1,1308,519,0,0
91,505,0,0,0,0,0,0,0,0,0,-1,1315,519,0,0
98,505,0,0,0,0,0,0,0,0,0,-1,1322,519,0,0
105,505,0,0,0,0,0,0,0,0,0,-1,1329,519,0,0
112,505,0,0,0,0,0,0,0,0,0,-1,1336,519,0,0
119,505,0,0,0,0,0,0,0,0,0,-1,1343,519,0,0
126,505,0,0,0,0,0,0,0,0,0,-1,1350,519,0,0
133,505,0,0,0,0,0,0,0,0,0,-1,1357,519,0,0
140,505,0,0,0,0,0,0,0,0,0,-1,1364,519,0,0
147,505,0,0,0,0,0,0,0,0,0,-1,1371,519,0,0
154,505,0,0,0,0,0,0,0,0,0,-1,1378,519,0,0
161,505,0,0,0,0,0,0,0,0,0,-1,1385,519,0,0
168,505,0,0,0,0,0,0,0,0,0,-1,1392,519,0,0
175,505,0,0,0,0,0,0,0,0,0,-1,1399,519,0,0
182,505,0,0,0,0,0,0,0,0,0,-1,1406,519,0,0
189,505,0,0,0,0,0,0,0,0,0,-1,1413,519,0,0
196,505,0,0,0,0,0,0,0,0,0,-1,1420,519,0,0
203,505,0,0,0,0,0,0,0,0,0,-1,1427,519,0,0
210,505,0,0,0,0,0,0,0,0,0,-1,1434,519,0,0
217,505,0,0,0,0,0,0,0,0,0,-1,1441,519,0,0
224,505,0,0,0,0,0,0,0,0,0,-1,1448,519,0,0
231,505,0,0,0,0,0,0,0,0,0,-1,1455,519,0,0
238,505,0,0,0,0,0,0,0,0,0,-1,1462,519,0,0
245,505,0,0,0,0,0,0,0,0,0,-1,1469,519,0,0
252,505,0,0,0,0,0,0,0,0,0,-1,1476,519,0,0
259,505,0,0,0,0,0,0,0,0,0,-1,1483,519,0,0
266,505,0,0,0,0,0,0,0,0,0,-1,1490,519,0,0
273,505,0,0,0,0,0,0,0,0,0,-1,1497,519,0,0
280,505,0,0,0,0,0,0,0,0,0,-1,1504,519,0,0
287,505,4.39478,0.499512,0,0,0,0,0,0,0,-1,1511,519,4.39476,-0.499506
294,505,4.88867,0.0822754,0,0,0,0,0,0,0,-1,1518,519,4.88871,-0.0822748
301,505,4.82153,-0.0704346,0,0,0,0,0,0,0,-1,1525,519,4.82156,0.0704312
308,505,4.67761,-0.29187,0,0,0,0,0,0,0,-1,1532,519,4.67762,0.291845
315,505,8.44055,-6.54352,0,0,0,0,0,0,0,-1,1539,519,8.44059,6.54349
322,505,4.78955,-0.594116,0,0,0,0,0,0,0,-1,1546,519,4.78957,0.594096
329,505,5.16321,0.434631,0,0,0,0,0,0,0,-1,1553,519,5.16316,-0.434614
336,505,4.94495,-0.920471,0,0,0,0,0,0,0,-1,1560,519,4.945,0.920495
343,505,5.01855,-1.4823,0,0,0,0,0,0,0,-1,1567,519,5.01851,1.48227
350,505,5.33154,-1.77838,0,0,0,0,0,0,0,-1,1574,519,5.33152,1.77838
357,505,5.56567,-1.9425,0,0,0,0,0,0,0,-1,1581,519,5.56562,1.94248
364,505,5.85205,-2.6579,0,0,0,0,0,0,0,-1,1588,519,5.85211,2.65788
371,505,5.88477,-7.00922,0,0,0,0,0,0,0,-1,1595,519,5.88473,7.00924
378,505,5.44104,-7.10162,0,0,0,0,0,0,0,-1,1602,519,5.44099,7.10162
385,505,5.71021,-6.69141,0,0,0,0,0,0,0,-1,1609,519,5.71018,6.69143
392,505,6.14124,-7.40881,0,0,0,0,0,0,0,-1,1616,519,6.14127,7.40883
399,505,7.19836,-8.17505,0,0,0,0,0,0,0,-1,1623,519,7.19837,8.17502
406,505,6.67444,-7.9729,0,0,0,0,0,0,0,-1,1630,519,6.67441,7.97289
413,505,5.96814,-8.23517,0,0,0,0,0,0,0,-1,1637,519,5.96819,8.23515
420,505,6.20435,-7.94708,-0.00738436,-0.00435448,-0.00772582,0.00200354,-0.0137424,-0.882214,0.00989726,0.0364685,1644,519,6.2043,7.94705
427,505,6.13904,-7.63647,-0.00602694,-0.00281884,-0.00592228,0.00171278,-0.0105586,-0.91765,0.00767394,0.0142682,1651,519,6.13903,7.63647
434,505,6.12451,-7.37134,-0.00459706,-0.00156181,-0.00440206,0.00157688,-0.00773576,-0.951395,0.00575526,0.00989137,1658,519,6.12451,7.37133
441,505,6.11328,-7.11835,-0.00337278,-0.000681124,-0.00320038,0.00144489,-0.00549879,-0.984433,0.00423055,0.0100129,1665,519,6.11324,7.11835
448,505,6.11719,-6.87628,-0.00223187,-8.64693e-06,-0.00216456,0.00131305,-0.00355357,-1.02261,0.00290731,0.0102476,1672,519,6.11716,6.87628
455,505,6.1073,-6.6391,-0.00116957,0.000472327,-0.00125635,0.00115217,-0.00184941,-1.07479,0.00174848,0.0109023,1679,519,6.1073,6.6391
462,505,6.09131,-6.38855,-0.000278677,0.000588395,-0.000625348,0.000915788,-0.000606071,-1.0885,0.00088469,0.01086,1686,519,6.09127,6.38855
469,505,6.09766,-6.12726,0.000375859,0.000375464,-0.0002712,0.000646862,0.000104461,-0.785035,0.000400982,0.0110281,1693,519,6.09764,6.12727
476,505,6.0929,-5.87445,0.000834023,0.000118465,-5.55755e-07,0.000834024,0.000118465,-0.000776673,0.000521036,0.0108273,1700,519,6.09291,5.87448
483,505,6.10474,-5.62988,0.0011172,-8.97331e-05,0.000146631,0.00113476,-0.000107292,0.119181,0.00079469,0.011232,1707,519,6.10475,5.62989
490,505,6.11584,-5.37097,0.0012536,-0.000474162,0.000255847,0.00129069,-0.000511252,0.143965,0.0010723,0.0115499,1714,519,6.11579,5.37096
497,505,6.09082,-5.10913,0.00116377,-0.000873225,0.000287719,0.00120363,-0.000913084,0.13766,0.00122592,0.0120765,1721,519,6.09078,5.10913
504,505,6.08447,-4.83044,0.00101325,-0.000697276,0.000559882,0.00118021,-0.000864237,0.289812,0.00118505,0.0123868,1728,519,6.08452,4.83043
511,505,6.09216,-4.56445,0.000563305,-0.000680477,0.000623994,0.000822389,-0.000939561,0.393543,0.00101801,0.0136714,1735,519,6.09213,4.56447
518,505,6.16333,-4.34235,-5.31042e-05,-0.000382663,0.000777054,0.000576449,-0.00101222,0.680918,0.000928647,0.0249458,1742,519,6.1633,4.34232
525,505,5.85962,-4.15375,-0.000807335,0.000278697,0.00109152,0.000954815,-0.00148345,1.01621,0.00141872,0.0352181,1749,519,5.85961,4.15375
532,505,5.76709,-3.81439,-0.0016102,0.0016588,0.00183213,0.00247956,-0.00243096,1.14962,0.00283513,0.0449183,1756,519,5.76707,3.81438
539,505,5.8092,-3.53973,0,0,0,0,0,0,0,-1,1763,519,5.80923,3.53975
546,505,4.69727,-1.47705,0,0,0,0,0,0,0,-1,1770,519,4.69723,1.47703
553,505,2.82837,0.162659,0,0,0,0,0,0,0,-1,1777,519,2.82841,-0.162672
560,505,3.66223,-0.479797,0,0,0,0,0,0,0,-1,1784,519,3.66219,0.47982
567,505,4.65271,-0.950256,0,0,0,0,0,0,0,-1,1791,519,4.65274,0.95028
574,505,5.54443,-1.19977,0,0,0,0,0,0,0,-1,1798,519,5.54443,1.19974
581,505,0,0,0,0,0,0,0,0,0,-1,1805,519,0,0
588,505,0,0,0,0,0,0,0,0,0,-1,1812,519,0,0
595,505,0,0,0,0,0,0,0,0,0,-1,1819,519,0,0
602,505,0,0,0,0,0,0,0,0,0,-1,1826,519,0,0
609,505,0,0,0,0,0,0,0,0,0,-1,1833,519,0,0
616,505,0,0,0,0,0,0,0,0,0,-1,1840,519,0,0
623,505,0,0,0,0,0,0,0,0,0,-1,1847,519,0,0
630,505,0,0,0,0,0,0,0,0,0,-1,1854,519,0,0
637,505,0,0,0,0,0,0,0,0,0,-1,1861,519,0,0
644,505,0,0,0,0,0,0,0,0,0,-1,1868,519,0,0
651,505,0,0,0,0,0,0,0,0,0,-1,1875,519,0,0
658,505,0,0,0,0,0,0,0,0,0,-1,1882,519,0,0
665,505,0,0,0,0,0,0,0,0,0,-1,1889,519,0,0
672,505,0,0,0,0,0,0,0,0,0,-1,1896,519,0,0
679,505,0,0,0,0,0,0,0,0,0,-1,1903,519,0,0
686,505,0,0,0,0,0,0,0,0,0,-1,1910,519,0,0
693,505,0,0,0,0,0,0,0,0,0,-1,1917,519,0,0
700,505,0,0,0,0,0,0,0,0,0,-1,1924,519,0,0
707,505,0,0,0,0,0,0,0,0,0,-1,1931,519,0,0
714,505,0,0,0,0,0,0,0,0,0,-1,1938,519,0,0
721,505,0,0,0,0,0,0,0,0,0,-1,1945,519,0,0
728,505,0,0,0,0,0,0,0,0,0,-1,1952,519,0,0
735,505,0,0,0,0,0,0,0,0,0,-1,1959,519,0,0
742,505,0,0,0,0,0,0,0,0,0,-1,1966,519,0,0
749,505,0,0,0,0,0,0,0,0,0,-1,1973,519,0,0
756,505,0,0,0,0,0,0,0,0,0,-1,1980,519,0,0
763,505,0,0,0,0,0,0,0,0,0,-1,1987,519,0,0
770,505,0,0,0,0,0,0,0,0,0,-1,1994,519,0,0
777,505,0,0,0,0,0,0,0,0,0,-1,2001,519,0,0
784,505,0,0,0,0,0,0,0,0,0,-1,2008,519,0,0
791,505,0,0,0,0,0,0,0,0,0,-1,2015,519,0,0
798,505,0,0,0,0,0,0,0,0,0,-1,2022,519,0,0
805,505,0,0,0,0,0,0,0,0,0,-1,2029,519,0,0
812,505,0,0,0,0,0,0,0,0,0,-1,2036,519,0,0
-700,498,0,0,0,0,0,0,0,0,0,-1,524,526,0,0
-693,498,0,0,0,0,0,0,0,0,0,-1,531,526,0,0
-686,498,0,0,0,0,0,0,0,0,0,-1,538,526,0,0
-679,498,0,0,0,0,0,0,0,0,0,-1,545,526,0,0
-672,498,0,0,0,0,0,0,0,0,0,-1,552,526,0,0
-665,498,0,0,0,0,0,0,0,0,0,-1,559,526,0,0
-658,498,0,0,0,0,0,0,0,0,0,-1,566,526,0,0
-651,498,0,0,0,0,0,0,0,0,0,-1,573,526,0,0
-644,498,0,0,0,0,0,0,0,0,0,-1,580,526,0,0
-637,498,0,0,0,0,0,0,0,0,0,-1,587,526,0,0
-630,498,0,0,0,0,0,0,0,0,0,-1,594,526,0,0
-623,498,0,0,0,0,0,0,0,0,0,-1,601,526,0,0
-616,498,0,0,0,0,0,0,0,0,0,-1,608,526,0,0
-609,498,0,0,0,0,0,0,0,0,0,-1,615,526,0,0
-602,498,0,0,0,0,0,0,0,0,0,-1,622,526,0,0
-595,498,0,0,0,0,0,0,0,0,0,-1,629,526,0,0
-588,498,0,0,0,0,0,0,0,0,0,-1,636,526,0,0
-581,498,0,0,0,0,0,0,0,0,0,-1,643,526,0,0
-574,498,0,0,0,0,0,0,0,0,0,-1,650,526,0,0
-567,498,0,0,0,0,0,0,0,0,0,-1,657,526,0,0
-560,498,0,0,0,0,0,0,0,0,0,-1,664,526,0,0
-553,498,0,0,0,0,0,0,0,0,0,-1,671,526,0,0
-546,498,0,0,0,0,0,0,0,0,0,-1,678,526,0,0
-539,498,0,0,0,0,0,0,0,0,0,-1,685,526,0,0
-532,498,0,0,0,0,0,0,0,0,0,-1,692,526,0,0
-525,498,0,0,0,0,0,0,0,0,0,-1,699,526,0,0
-518,498,0,0,0,0,0,0,0,0,0,-1,706,526,0,0
-511,498,0,0,0,0,0,0,0,0,0,-1,713,526,0,0
-504,498,0,0,0,0,0,0,0,0,0,-1,720,526,0,0
-497,498,0,0,0,0,0,0,0,0,0,-1,727,526,0,0
-490,498,0,0,0,0,0,0,0,0,0,-1,734,526,0,0
-483,498,0,0,0,0,0,0,0,0,0,-1,741,526,0,0
-476,498,0,0,0,0,0,0,0,0,0,-1,748,526,0,0
-469,498,0,0,0,0,0,0,0,0,0,-1,755,526,0,0
-462,498,6.81024,1.15515,0,0,0,0,0,0,0,-1,762,526,6.81026,-1.15514
-455,498,5.67346,-0.137817,-0.0660284,-0.00366832,-0.050414,0.0244286,-0.0941254,-1.06235,0.0722825,0.0470384,769,526,5.67348,0.137819
-448,498,4.60333,-1.46698,-0.074886,-0.00589958,-0.04108,0.0132481,-0.0940337,-1.13463,0.0675397,0.045405,776,526,4.60335,1.46701
-441,498,3.39349,-2.46069,-0.0742228,-0.00576368,-0.0312228,0.00633735,-0.0863239,-1.20105,0.0597738,0.046076,783,526,3.39352,2.46072
-434,498,1.83069,-3.46899,-0.0720451,-0.00579951,-0.0222772,0.000995044,-0.0788397,-1.27476,0.0528946,0.0458643,790,526,1.83072,3.46901
-427,498,0.565247,-4.06635,-0.0621595,-0.00383336,-0.0134761,-0.000870261,-0.0651226,-1.35436,0.0431279,0.0466891,797,526,0.565268,4.06637
-420,498,-1.16351,-4.06134,0,0,0,0,0,0,0,-1,804,526,-1.16351,4.06136
-413,498,-0.824951,-4.24805,-0.0337675,0.00153263,-0.00024188,0.00153428,-0.0337692,-1.56394,0.0230413,0.0496056,811,526,-0.82493,4.24807
-406,498,-0.598816,-5.07666,-0.0239041,0.00265203,0.00342472,0.00308658,-0.0243386,1.44459,0.0173464,0.0422294,818,526,-0.598797,5.07665
-399,498,-0.593567,-5.57196,-0.016082,0.00329046,0.00603075,0.00501445,-0.017806,1.29236,0.0138481,0.0244778,825,526,-0.593571,5.57199
-392,498,-0.602844,-5.82092,-0.0100863,0.00357173,0.00704993,0.00655785,-0.0130724,1.17014,0.0115397,0.0114302,832,526,-0.602845,5.82094
-385,498,-0.608887,-6.05475,-0.00564656,0.0032698,0.00690545,0.00703115,-0.00940791,1.07204,0.0095241,0.008029,839,526,-0.608886,6.05475
-378,498,-0.625732,-6.30249,-0.00245854,0.00241733,0.00591981,0.00638156,-0.00642277,0.980728,0.00739259,0.00961729,846,526,-0.625729,6.30251
-371,498,-0.61322,-6.56635,-0.000654335,0.00129892,0.00478626,0.00520718,-0.00456259,0.886041,0.00564467,0.0153604,853,526,-0.61325,6.56632
-364,498,-0.6203,-6.80518,0.000126063,0.000817733,0.00322192,0.00371232,-0.00276853,0.838863,0.00375492,0.0156236,860,526,-0.620275,6.80516
-357,498,-0.615601,-7.03339,0.000245282,6.23293e-05,0.00185171,0.00200778,-0.00170016,0.760718,0.00214323,0.01045,867,526,-0.61563,7.03339
-350,498,-0.639832,-7.2821,0.000693283,-0.000325575,0.000412059,0.000839072,-0.000471364,0.340062,0.000766445,0.0108266,874,526,-0.639815,7.28211
-343,498,-0.650879,-7.50714,0.00137059,-0.00043282,-0.000615514,0.00156064,-0.000622871,-0.29948,0.00129883,0.0112994,881,526,-0.650901,7.50717
-336,498,-0.632019,-7.73853,0.00191876,-0.000455589,-0.000995687,0.00228103,-0.000817859,-0.34895,0.00185443,0.0134761,888,526,-0.632006,7.73853
-329,498,-0.632568,-7.95679,0.00249078,-0.000236421,-0.00131903,0.00302435,-0.00076999,-0.384393,0.00231596,0.0173744,895,526,-0.632573,7.9568
-322,498,-0.636841,-8.21484,0.00299988,9.71625e-05,-0.00166277,0.00375561,-0.000658566,-0.426591,0.00274967,0.0185416,902,526,-0.63683,8.21485
-315,498,-0.626404,-8.44989,0.00355275,0.000480626,-0.00200916,0.00454576,-0.000512386,-0.459031,0.00321494,0.0162391,909,526,-0.626396,8.44987
-308,498,-0.643982,-8.6709,0.00415944,0.000808216,-0.00226257,0.0052993,-0.000331647,-0.466676,0.00364844,0.0189328,916,526,-0.64399,8.67091
-301,498,-0.552368,-8.99377,0.00479023,0.00113242,-0.00248125,0.00604378,-0.000121126,-0.467804,0.00407016,0.0326319,923,526,-0.552377,8.99375
-294,498,-0.456055,-9.33856,0,0,0,0,0,0,0,-1,930,526,-0.456056,9.33858
-287,498,-0.220825,-8.51526,0,0,0,0,0,0,0,-1,937,526,-0.220826,8.51525
-280,498,-0.341614,-8.66608,0,0,0,0,0,0,0,-1,944,526,-0.341589,8.66606
-273,498,-0.988892,-8.62921,0,0,0,0,0,0,0,-1,951,526,-0.988906,8.62922
-266,498,0.362488,-6.33545,0,0,0,0,0,0,0,-1,958,526,0.362478,6.33547
-259,498,10.9454,-17.3615,0,0,0,0,0,0,0,-1,965,526,10.9454,17.3614
-252,498,8.56586,-14.6886,0,0,0,0,0,0,0,-1,972,526,8.56584,14.6886
-245,498,5.97382,-11.928,0,0,0,0,0,0,0,-1,979,526,5.97381,11.928
-238,498,3.31403,-9.40442,0,0,0,0,0,0,0,-1,986,526,3.31405,9.40443
-231,498,0.675598,-6.60547,0,0,0,0,0,0,0,-1,993,526,0.675587,6.60545
-224,498,-2.11243,-4.76312,0,0,0,0,0,0,0,-1,1000,526,-2.11245,4.76314
-217,498,-3.82239,-1.42841,0,0,0,0,0,0,0,-1,1007,526,-3.82241,1.42843
-210,498,-1.80591,-0.358215,0,0,0,0,0,0,0,-1,1014,526,-1.8059,0.3582
-203,498,-3.17316,1.06641,0,0,0,0,0,0,0,-1,1021,526,-3.17313,-1.0664
-196,498,-0.103271,5.40527,0,0,0,0,0,0,0,-1,1028,526,-0.103285,-5.40528
-189,498,3.00256,6.47137,0,0,0,0,0,0,0,-1,1035,526,3.00256,-6.47139
-182,498,0,0,0,0,0,0,0,0,0,-1,1042,526,0,0
-175,498,0,0,0,0,0,0,0,0,0,-1,1049,526,0,0
-168,498,0,0,0,0,0,0,0,0,0,-1,1056,526,0,0
-161,498,0,0,0,0,0,0,0,0,0,-1,1063,526,0,0
-154,498,0,0,0,0,0,0,0,0,0,-1,1070,526,0,0
-147,498,0,0,0,0,0,0,0,0,0,-1,1077,526,0,0
-140,498,0,0,0,0,0,0,0,0,0,-1,1084,526,0,0
-133,498,0,0,0,0,0,0,0,0,0,-1,1091,526,0,0
-126,498,0,0,0,0,0,0,0,0,0,-1,1098,526,0,0
-119,498,0,0,0,0,0,0,0,0,0,-1,1105,526,0,0
-112,498,0,0,0,0,0,0,0,0,0,-1,1112,526,0,0
-105,498,0,0,0,0,0,0,0,0,0,-1,1119,526,0,0
-98,498,0,0,0,0,0,0,0,0,0,-1,1126,526,0,0
-91,498,0,0,0,0,0,0,0,0,0,-1,1133,526,0,0
-84,498,0,0,0,0,0,0,0,0,0,-1,1140,526,0,0
-77,498,0,0,0,0,0,0,0,0,0,-1,1147,526,0,0
-70,498,0,0,0,0,0,0,0,0,0,-1,1154,526,0,0
-63,498,0,0,0,0,0,0,0,0,0,-1,1161,526,0,0
-56,498,0,0,0,0,0,0,0,0,0,-1,1168,526,0,0
-49,498,0,0,0,0,0,0,0,0,0,-1,1175,526,0,0
-42,498,0,0,0,0,0,0,0,0,0,-1,1182,526,0,0
-35,498,0,0,0,0,0,0,0,0,0,-1,1189,526,0,0
-28,498,0,0,0,0,0,0,0,0,0,-1,1196,526,0,0
-21,498,0,0,0,0,0,0,0,0,0,-1,1203,526,0,0
-14,498,0,0,0,0,0,0,0,0,0,-1,1210,526,0,0
-7,498,0,0,0,0,0,0,0,0,0,-1,1217,526,0,0
0,498,0,0,0,0,0,0,0,0,0,-1,1224,526,0,0
7,498,0,0,0,0,0,0,0,0,0,-1,1231,526,0,0
14,498,0,0,0,0,0,0,0,0,0,-1,1238,526,0,0
21,498,0,0,0,0,0,0,0,0,0,-1,1245,526,0,0
28,498,0,0,0,0,0,0,0,0,0,-1,1252,526,0,0
35,498,0,0,0,0,0,0,0,0,0,-1,1259,526,0,0
42,498,0,0,0,0,0,0,0,0,0,-1,1266,526,0,0
49,498,0,0,0,0,0,0,0,0,0,-1,1273,526,0,0
56,498,0,0,0,0,0,0,0,0,0,-1,1280,526,0,0
63,498,0,0,0,0,0,0,0,0,0,-1,1287,526,0,0
70,498,0,0,0,0,0,0,0,0,0,-1,1294,526,0,0
77,498,0,0,0,0,0,0,0,0,0,-1,1301,526,0,0
84,498,0,0,0,0,0,0,0,0,0,-1,1308,526,0,0
91,498,0,0,0,0,0,0,0,0,0,-1,1315,526,0,0
98,498,0,0,0,0,0,0,0,0,0,-1,1322,526,0,0
105,498,0,0,0,0,0,0,0,0,0,-1,1329,526,0,0
112,498,0,0,0,0,0,0,0,0,0,-1,1336,526,0,0
119,498,0,0,0,0,0,0,0,0,0,-1,1343,526,0,0
126,498,0,0,0,0,0,0,0,0,0,-1,1350,526,0,0
133,498,0,0,0,0,0,0,0,0,0,-1,1357,526,0,0
140,498,0,0,0,0,0,0,0,0,0,-1,1364,526,0,0
147,498,0,0,0,0,0,0,0,0,0,-1,1371,526,0,0
154,498,0,0,0,0,0,0,0,0,0,-1,1378,526,0,0
161,498,0,0,0,0,0,0,0,0,0,-1,1385,526,0,0
168,498,0,0,0,0,0,0,0,0,0,-1,1392,526,0,0
175,498,0,0,0,0,0,0,0,0,0,-1,1399,526,0,0
182,498,0,0,0,0,0,0,0,0,0,-1,1406,526,0,0
189,498,0,0,0,0,0,0,0,0,0,-1,1413,526,0,0
196,498,0,0,0,0,0,0,0,0,0,-1,1420,526,0,0
203,498,0,0,0,0,0,0,0,0,0,-1,1427,526,0,0
210,498,0,0,0,0,0,0,0,0,0,-1,1434,526,0,0
217,498,0,0,0,0,0,0,0,0,0,-1,1441,526,0,0
224,498,0,0,0,0,0,0,0,0,0,-1,1448,526,0,0
231,498,0,0,0,0,0,0,0,0,0,-1,1455,526,0,0
238,498,0,0,0,0,0,0,0,0,0,-1,1462,526,0,0
245,498,0,0,0,0,0,0,0,0,0,-1,1469,526,0,0
252,498,0,0,0,0,0,0,0,0,0,-1,1476,526,0,0
259,498,0,0,0,0,0,0,0,0,0,-1,1483,526,0,0
266,498,0,0,0,0,0,0,0,0,0,-1,1490,526,0,0
273,498,0,0,0,0,0,0,0,0,0,-1,1497,526,0,0
280,498,0,0,0,0,0,0,0,0,0,-1,1504,526,0,0
287,498,0,0,0,0,0,0,0,0,0,-1,1511,526,0,0
294,498,0,0,0,0,0,0,0,0,0,-1,1518,526,0,0
301,498,0,0,0,0,0,0,0,0,0,-1,1525,526,0,0
308,498,4.77942,-0.293884,0,0,0,0,0,0,0,-1,1532,526,4.77939,0.293899
315,498,4.56091,-0.564148,0,0,0,0,0,0,0,-1,1539,526,4.56097,0.564142
322,498,4.52344,-0.447266,0,0,0,0,0,0,0,-1,1546,526,4.52341,0.447295
329,498,4.63232,-0.156982,0,0,0,0,0,0,0,-1,1553,526,4.63238,0.156991
336,498,5.22644,0.0925903,0,0,0,0,0,0,0,-1,1560,526,5.22648,-0.0926188
343,498,6.22607,-1.67615,0,0,0,0,0,0,0,-1,1567,526,6.22605,1.67617
350,498,6.19373,-1.59906,0,0,0,0,0,0,0,-1,1574,526,6.19367,1.59906
357,498,6.21472,-1.58929,0,0,0,0,0,0,0,-1,1581,526,6.21476,1.58927
364,498,5.73547,-1.2019,0,0,0,0,0,0,0,-1,1588,526,5.73547,1.20192
371,498,3.27087,-4.55334,0,0,0,0,0,0,0,-1,1595,526,3.27089,4.55332
378,498,8.42944,-4.70624,0,0,0,0,0,0,0,-1,1602,526,8.42942,4.70624
385,498,4.7793,-5.15314,0,0,0,0,0,0,0,-1,1609,526,4.77935,5.15311
392,498,9.12439,-8.57953,0,0,0,0,0,0,0,-1,1616,526,9.12443,8.57955
399,498,8.26062,-8.32318,0,0,0,0,0,0,0,-1,1623,526,8.26066,8.32319
406,498,7.34473,-8.01544,0,0,0,0,0,0,0,-1,1630,526,7.34474,8.01547
413,498,6.58472,-7.78693,0,0,0,0,0,0,0,-1,1637,526,6.58472,7.7869
420,498,6.57471,-7.88269,0,0,0,0,0,0,0,-1,1644,526,6.5747,7.88268
427,498,6.49146,-7.59717,-0.00786005,-0.00341805,-0.00769001,0.00236527,-0.0136434,-0.925981,0.00997789,0.0395539,1651,526,6.49147,7.59719
434,498,6.44434,-7.36414,-0.0059801,-0.00177001,-0.00570163,0.00220275,-0.00995287,-0.962236,0.00747843,0.0178593,1658,526,6.44436,7.36413
441,498,6.37439,-7.10205,-0.00444494,-0.000614136,-0.00415222,0.00204317,-0.00710225,-1.0015,0.00554287,0.00958839,1665,526,6.37437,7.10202
448,498,6.3811,-6.85895,-0.00308188,0.000253086,-0.00286646,0.00190179,-0.00473058,-1.04883,0.00394359,0.00883927,1672,526,6.38114,6.85895
455,498,6.37207,-6.6297,-0.00188305,0.000814488,-0.00177493,0.00169497,-0.00276353,-1.1103,0.00259864,0.0131712,1679,526,6.3721,6.62973
462,498,6.35413,-6.39221,-0.000938545,0.000953355,-0.00101549,0.00139522,-0.00138041,-1.16038,0.00160252,0.0152779,1686,526,6.35407,6.39222
469,498,6.34912,-6.13855,-0.000237143,0.000820916,-0.000533823,0.00104344,-0.000459671,-1.17584,0.000889373,0.0128308,1693,526,6.34912,6.13856
476,498,6.35596,-5.88104,0.000237891,0.000591609,-0.000177852,0.00066557,0.00016393,-1.1767,0.000400416,0.00933963,1700,526,6.356,5.88106
483,498,6.36829,-5.61359,0.000535238,0.000401588,4.21111e-05,0.0005474,0.000389426,0.281155,0.000325322,0.00803434,1707,526,6.36827,5.61359
490,498,6.35889,-5.36908,0.000694521,5.7339e-05,0.000209152,0.00075704,-5.17978e-06,0.290462,0.000506429,0.0102248,1714,526,6.35884,5.36905
497,498,6.34229,-5.11371,0.000617097,-0.000346013,0.000250458,0.000678336,-0.000407251,0.2398,0.000633244,0.0112506,1721,526,6.34231,5.11371
504,498,6.33643,-4.83459,0.000472003,-0.000199779,0.000493101,0.000732745,-0.000460521,0.486406,0.000694883,0.0134411,1728,526,6.33648,4.83457
511,498,6.33362,-4.55475,8.60096e-05,-0.000176525,0.000572525,0.000542123,-0.000632639,0.672707,0.00067892,0.015577,1735,526,6.33364,4.55474
518,498,6.39111,-4.2951,-0.000459019,6.65811e-05,0.00068479,0.000537267,-0.000929705,0.968616,0.000856999,0.0164321,1742,526,6.39113,4.29513
525,498,6.29651,-4.05817,-0.00107202,0.000596898,0.000906278,0.000994373,-0.0014695,1.15748,0.00143131,0.0294426,1749,526,6.29657,4.05817
532,498,6.15527,-3.88318,-0.00164293,0.00170716,0.00145471,0.00225067,-0.00218643,1.21324,0.00256185,0.0440546,1756,526,6.15523,3.88319
539,498,6.18103,-3.75781,0,0,0,0,0,0,0,-1,1763,526,6.18099,3.75781
546,498,6.17566,-3.00629,0,0,0,0,0,0,0,-1,1770,526,6.1757,3.00629
553,498,6.59143,-2.03302,0,0,0,0,0,0,0,-1,1777,526,6.59144,2.03301
560,498,3.69385,-0.615112,0,0,0,0,0,0,0,-1,1784,526,3.69381,0.615118
567,498,5.12695,-0.581604,0,0,0,0,0,0,0,-1,1791,526,5.12699,0.58159
574,498,3.88,0.0286255,0,0,0,0,0,0,0,-1,1798,526,3.87999,-0.0286535
581,498,10.8722,2.58551,0,0,0,0,0,0,0,-1,1805,526,10.8723,-2.58551
588,498,0,0,0,0,0,0,0,0,0,-1,1812,526,0,0
595,498,0,0,0,0,0,0,0,0,0,-1,1819,526,0,0
602,498,0,0,0,0,0,0,0,0,0,-1,1826,526,0,0
609,498,0,0,0,0,0,0,0,0,0,-1,1833,526,0,0
616,498,0,0,0,0,0,0,0,0,0,-1,1840,526,0,0
623,498,0,0,0,0,0,0,0,0,0,-1,1847,526,0,0
630,498,0,0,0,0,0,0,0,0,0,-1,1854,526,0,0
637,498,0,0,0,0,0,0,0,0,0,-1,1861,526,0,0
644,498,0,0,0,0,0,0,0,0,0,-1,1868,526,0,0
651,498,0,0,0,0,0,0,0,0,0,-1,1875,526,0,0
658,498,0,0,0,0,0,0,0,0,0,-1,1882,526,0,0
665,498,0,0,0,0,0,0,0,0,0,-1,1889,526,0,0
672,498,0,0,0,0,0,0,0,0,0,-1,1896,526,0,0
679,498,0,0,0,0,0,0,0,0,0,-1,1903,526,0,0
686,498,0,0,0,0,0,0,0,0,0,-1,1910,526,0,0
693,498,0,0,0,0,0,0,0,0,0,-1,1917,526,0,0
700,498,0,0,0,0,0,0,0,0,0,-1,1924,526,0,0
707,498,0,0,0,0,0,0,0,0,0,-1,1931,526,0,0
714,498,0,0,0,0,0,0,0,0,0,-1,1938,526,0,0
721,498,0,0,0,0,0,0,0,0,0,-1,1945,526,0,0
728,498,0,0,0,0,0,0,0,0,0,-1,1952,526,0,0
735,498,0,0,0,0,0,0,0,0,0,-1,1959,526,0,0
742,498,0,0,0,0,0,0,0,0,0,-1,1966,526,0,0
749,498,0,0,0,0,0,0,0,0,0,-1,1973,526,0,0
756,498,0,0,0,0,0,0,0,0,0,-1,1980,526,0,0
763,498,0,0,0,0,0,0,0,0,0,-1,1987,526,0,0
770,498,0,0,0,0,0,0,0,0,0,-1,1994,526,0,0
777,498,0,0,0,0,0,0,0,0,0,-1,2001,526,0,0
784,498,0,0,0,0,0,0,0,0,0,-1,2008,526,0,0
791,498,0,0,0,0,0,0,0,0,0,-1,2015,526,0,0
798,498,0,0,0,0,0,0,0,0,0,-1,2022,526,0,0
805,498,0,0,0,0,0,0,0,0,0,-1,2029,526,0,0
812,498,0,0,0,0,0,0,0,0,0,-1,2036,526,0,0
-700,491,0,0,0,0,0,0,0,0,0,-1,524,533,0,0
-693,491,0,0,0,0,0,0,0,0,0,-1,531,533,0,0
-686,491,0,0,0,0,0,0,0,0,0,-1,538,533,0,0
-679,491,0,0,0,0,0,0,0,0,0,-1,545,533,0,0
-672,491,0,0,0,0,0,0,0,0,0,-1,552,533,0,0
-665,491,0,0,0,0,0,0,0,0,0,-1,559,533,0,0
-658,491,0,0,0,0,0,0,0,0,0,-1,566,533,0,0
-651,491,0,0,0,0,0,0,0,0,0,-1,573,533,0,0
-644,491,0,0,0,0,0,0,0,0,0,-1,580,533,0,0
-637,491,0,0,0,0,0,0,0,0,0,-1,587,533,0,0
-630,491,0,0,0,0,0,0,0,0,0,-1,594,533,0,0
-623,491,0,0,0,0,0,0,0,0,0,-1,601,533,0,0
-616,491,0,0,0,0,0,0,0,0,0,-1,608,533,0,0
-609,491,0,0,0,0,0,0,0,0,0,-1,615,533,0,0
-602,491,0,0,0,0,0,0,0,0,0,-1,622,533,0,0
-595,491,0,0,0,0,0,0,0,0,0,-1,629,533,0,0
-588,491,0,0,0,0,0,0,0,0,0,-1,636,533,0,0
-581,491,0,0,0,0,0,0,0,0,0,-1,643,533,0,0
-574,491,0,0,0,0,0,0,0,0,0,-1,650,533,0,0
-567,491,0,0,0,0,0,0,0,0,0,-1,657,533,0,0
-560,491,0,0,0,0,0,0,0,0,0,-1,664,533,0,0
-553,491,0,0,0,0,0,0,0,0,0,-1,671,533,0,0
-546,491,0,0,0,0,0,0,0,0,0,-1,678,533,0,0
-539,491,0,0,0,0,0,0,0,0,0,-1,685,533,0,0
-532,491,0,0,0,0,0,0,0,0,0,-1,692,533,0,0
-525,491,0,0,0,0,0,0,0,0,0,-1,699,533,0,0
-518,491,0,0,0,0,0,0,0,0,0,-1,706,533,0,0
-511,491,0,0,0,0,0,0,0,0,0,-1,713,533,0,0
-504,491,0,0,0,0,0,0,0,0,0,-1,720,533,0,0
-497,491,0,0,0,0,0,0,0,0,0,-1,727,533,0,0
-490,491,0,0,0,0,0,0,0,0,0,-1,734,533,0,0
-483,491,0,0,0,0,0,0,0,0,0,-1,741,533,0,0
-476,491,0,0,0,0,0,0,0,0,0,-1,748,533,0,0
-469,491,-5.85913,4.55011,0,0,0,0,0,0,0,-1,755,533,-5.8591,-4.55009
-462,491,-9.93713,4.90381,0,0,0,0,0,0,0,-1,762,533,-9.93716,-4.9038
-455,491,5.38196,0.226379,0,0,0,0,0,0,0,-1,769,533,5.38195,-0.226378
-448,491,4.34613,-1.11908,0,0,0,0,0,0,0,-1,776,533,4.34615,1.11909
-441,491,3.52155,-2.10022,0,0,0,0,0,0,0,-1,783,533,3.52154,2.10022
-434,491,1.48035,-3.46692,0,0,0,0,0,0,0,-1,790,533,1.48032,3.46693
-427,491,0.424988,-4.40619,0,0,0,0,0,0,0,-1,797,533,0.42496,4.40617
-420,491,-0.859131,-4.28156,0,0,0,0,0,0,0,-1,804,533,-0.859107,4.28153
-413,491,-0.801697,-4.78436,-0.0279479,0.000895534,-0.00481169,0.00167705,-0.0287294,-1.40978,0.0197357,0.0454126,811,533,-0.801695,4.78439
-406,491,-0.827759,-5.32306,-0.0196395,0.00150984,-0.00161459,0.00163239,-0.019762,-1.49504,0.0137511,0.0238828,818,533,-0.827773,5.32306
-399,491,-0.847778,-5.57587,-0.0128865,0.00183685,0.000892704,0.00189078,-0.0129404,1.51046,0.00932133,0.0110298,825,533,-0.847776,5.57586
-392,491,-0.862122,-5.8111,-0.00771527,0.00190307,0.00220617,0.00238496,-0.00819716,1.35575,0.00640942,0.00914357,832,533,-0.86213,5.81109
-385,491,-0.849792,-6.0589,-0.00388241,0.00159857,0.00263008,0.00265645,-0.00494029,1.18837,0.00445156,0.0089859,839,533,-0.849821,6.05893
-378,491,-0.852417,-6.30841,-0.00114413,0.000877143,0.00235912,0.00243299,-0.00269998,0.98777,0.00296486,0.0127588,846,533,-0.8524,6.30839
-371,491,-0.854614,-6.55688,0.000330285,-4.98868e-05,0.0019759,0.00212522,-0.00184482,0.737444,0.00229401,0.014209,853,533,-0.854611,6.5569
-364,491,-0.850586,-6.78748,0.000948439,-0.000337225,0.00115544,0.00162783,-0.00101662,0.531544,0.00154031,0.0138872,860,533,-0.850577,6.78746
-357,491,-0.862549,-7.01959,0.0011971,-0.000852773,0.00041947,0.00127961,-0.000935288,0.194234,0.00128391,0.0115832,867,533,-0.862561,7.01961
-350,491,-0.868774,-7.27106,0.00171311,-0.000944152,-0.000369698,0.00176358,-0.000994629,-0.135695,0.00161295,0.0140271,874,533,-0.868746,7.27107
-343,491,-0.858459,-7.49634,0.00233649,-0.000909635,-0.000859399,0.00254997,-0.00112312,-0.243481,0.00217334,0.0222294,881,533,-0.858487,7.49633
-336,491,-0.836792,-7.72546,0.00292868,-0.000865631,-0.0011799,0.00326566,-0.00120261,-0.278195,0.00266984,0.0218138,888,533,-0.836819,7.72548
-329,491,-0.865784,-7.96539,0.00356696,-0.000633654,-0.00158487,0.00409783,-0.00116453,-0.323216,0.00319168,0.0223043,895,533,-0.865799,7.96541
-322,491,-0.848511,-8.20288,0.00415395,-0.000245336,-0.00202529,0.00494433,-0.00103572,-0.372078,0.00369023,0.022343,902,533,-0.848495,8.2029
-315,491,-0.893066,-8.40686,0.00480186,0.00019811,-0.00251741,0.00591114,-0.000911169,-0.415046,0.00427696,0.0209246,909,533,-0.893081,8.40685
-308,491,-0.746643,-8.71655,0.00549346,0.000617397,-0.00292211,0.00686105,-0.000750193,-0.437733,0.0048435,0.0467593,916,533,-0.74666,8.71656
-301,491,-0.372437,-9.14893,0,0,0,0,0,0,0,-1,923,533,-0.372448,9.14894
-294,491,-0.777283,-8.60913,0,0,0,0,0,0,0,-1,930,533,-0.777288,8.6091
-287,491,-0.26123,-8.69055,0,0,0,0,0,0,0,-1,937,533,-0.261204,8.69053
-280,491,0.2948,-5.99219,0,0,0,0,0,0,0,-1,944,533,0.294811,5.99221
-273,491,0.369995,-5.33691,0,0,0,0,0,0,0,-1,951,533,0.369985,5.33693
-266,491,1.1167,-5.0321,0,0,0,0,0,0,0,-1,958,533,1.11668,5.0321
-259,491,12.0862,-16.9615,0,0,0,0,0,0,0,-1,965,533,12.0862,16.9615
-252,491,9.72443,-13.8417,0,0,0,0,0,0,0,-1,972,533,9.72444,13.8418
-245,491,7.36926,-10.7169,0,0,0,0,0,0,0,-1,979,533,7.36924,10.7169
-238,491,4.84167,-7.53986,0,0,0,0,0,0,0,-1,986,533,4.84169,7.53984
-231,491,2.15582,-5.05225,0,0,0,0,0,0,0,-1,993,533,2.1558,5.05223
-224,491,-0.429749,-3.09216,0,0,0,0,0,0,0,-1,1000,533,-0.429743,3.09215
-217,491,-2.92743,-1.0766,0,0,0,0,0,0,0,-1,1007,533,-2.92743,1.07659
-210,491,-0.92395,0.374512,0,0,0,0,0,0,0,-1,1014,533,-0.923959,-0.374531
-203,491,0.417419,4.77161,0,0,0,0,0,0,0,-1,1021,533,0.417446,-4.77162
-196,491,0,0,0,0,0,0,0,0,0,-1,1028,533,0,0
-189,491,0,0,0,0,0,0,0,0,0,-1,1035,533,0,0
-182,491,0,0,0,0,0,0,0,0,0,-1,1042,533,0,0
-175,491,0,0,0,0,0,0,0,0,0,-1,1049,533,0,0
-168,491,0,0,0,0,0,0,0,0,0,-1,1056,533,0,0
-161,491,0,0,0,0,0,0,0,0,0,-1,1063,533,0,0
-154,491,0,0,0,0,0,0,0,0,0,-1,1070,533,0,0
-147,491,0,0,0,0,0,0,0,0,0,-1,1077,533,0,0
-140,491,0,0,0,0,0,0,0,0,0,-1,1084,533,0,0
-133,491,0,0,0,0,0,0,0,0,0,-1,1091,533,0,0
-126,491,0,0,0,0,0,0,0,0,0,-1,1098,533,0,0
-119,491,0,0,0,0,0,0,0,0,0,-1,1105,533,0,0
-112,491,0,0,0,0,0,0,0,0,0,-1,1112,533,0,0
-105,491,0,0,0,0,0,0,0,0,0,-1,1119,533,0,0
-98,491,0,0,0,0,0,0,0,0,0,-1,1126,533,0,0
-91,491,0,0,0,0,0,0,0,0,0,-1,1133,533,0,0
-84,491,0,0,0,0,0,0,0,0,0,-1,1140,533,0,0
-77,491,0,0,0,0,0,0,0,0,0,-1,1147,533,0,0
-70,491,0,0,0,0,0,0,0,0,0,-1,1154,533,0,0
-63,491,0,0,0,0,0,0,0,0,0,-1,1161,533,0,0
-56,491,0,0,0,0,0,0,0,0,0,-1,1168,533,0,0
-49,491,0,0,0,0,0,0,0,0,0,-1,1175,533,0,0
-42,491,0,0,0,0,0,0,0,0,0,-1,1182,533,0,0
-35,491,0,0,0,0,0,0,0,0,0,-1,1189,533,0,0
-28,491,0,0,0,0,0,0,0,0,0,-1,1196,533,0,0
-21,491,0,0,0,0,0,0,0,0,0,-1,1203,533,0,0
-14,491,0,0,0,0,0,0,0,0,0,-1,1210,533,0,0
-7,491,0,0,0,0,0,0,0,0,0,-1,1217,533,0,0
0,491,0,0,0,0,0,0,0,0,0,-1,1224,533,0,0
7,491,0,0,0,0,0,0,0,0,0,-1,1231,533,0,0
14,491,0,0,0,0,0,0,0,0,0,-1,1238,533,0,0
21,491,0,0,0,0,0,0,0,0,0,-1,1245,533,0,0
28,491,0,0,0,0,0,0,0,0,0,-1,1252,533,0,0
35,491,0,0,0,0,0,0,0,0,0,-1,1259,533,0,0
42,491,0,0,0,0,0,0,0,0,0,-1,1266,533,0,0
49,491,0,0,0,0,0,0,0,0,0,-1,1273,533,0,0
56,491,0,0,0,0,0,0,0,0,0,-1,1280,533,0,0
63,491,0,0,0,0,0,0,0,0,0,-1,1287,533,0,0
70,491,0,0,0,0,0,0,0,0,0,-1,1294,533,0,0
77,491,0,0,0,0,0,0,0,0,0,-1,1301,533,0,0
84,491,0,0,0,0,0,0,0,0,0,-1,1308,533,0,0
91,491,0,0,0,0,0,0,0,0,0,-1,1315,533,0,0
98,491,0,0,0,0,0,0,0,0,0,-1,1322,533,0,0
105,491,0,0,0,0,0,0,0,0,0,-1,1329,533,0,0
112,491,0,0,0,0,0,0,0,0,0,-1,1336,533,0,0
119,491,0,0,0,0,0,0,0,0,0,-1,1343,533,0,0
126,491,0,0,0,0,0,0,0,0,0,-1,1350,533,0,0
133,491,0,0,0,0,0,0,0,0,0,-1,1357,533,0,0
140,491,0,0,0,0,0,0,0,0,0,-1,1364,533,0,0
147,491,0,0,0,0,0,0,0,0,0,-1,1371,533,0,0
154,491,0,0,0,0,0,0,0,0,0,-1,1378,533,0,0
161,491,0,0,0,0,0,0,0,0,0,-1,1385,533,0,0
168,491,0,0,0,0,0,0,0,0,0,-1,1392,533,0,0
175,491,0,0,0,0,0,0,0,0,0,-1,1399,533,0,0
182,491,0,0,0,0,0,0,0,0,0,-1,1406,533,0,0
189,491,0,0,0,0,0,0,0,0,0,-1,1413,533,0,0
196,491,0,0,0,0,0,0,0,0,0,-1,1420,533,0,0
203,491,0,0,0,0,0,0,0,0,0,-1,1427,533,0,0
210,491,0,0,0,0,0,0,0,0,0,-1,1434,533,0,0
217,491,0,0,0,0,0,0,0,0,0,-1,1441,533,0,0
224,491,0,0,0,0,0,0,0,0,0,-1,1448,533,0,0
231,491,0,0,0,0,0,0,0,0,0,-1,1455,533,0,0
238,491,0,0,0,0,0,0,0,0,0,-1,1462,533,0,0
245,491,0,0,0,0,0,0,0,0,0,-1,1469,533,0,0
252,491,0,0,0,0,0,0,0,0,0,-1,1476,533,0,0
259,491,0,0,0,0,0,0,0,0,0,-1,1483,533,0,0
266,491,0,0,0,0,0,0,0,0,0,-1,1490,533,0,0
273,491,0,0,0,0,0,0,0,0,0,-1,1497,533,0,0
280,491,0,0,0,0,0,0,0,0,0,-1,1504,533,0,0
287,491,0,0,0,0,0,0,0,0,0,-1,1511,533,0,0
294,491,0,0,0,0,0,0,0,0,0,-1,1518,533,0,0
301,491,0,0,0,0,0,0,0,0,0,-1,1525,533,0,0
308,491,0,0,0,0,0,0,0,0,0,-1,1532,533,0,0
315,491,0,0,0,0,0,0,0,0,0,-1,1539,533,0,0
322,491,4.26331,-0.734314,0,0,0,0,0,0,0,-1,1546,533,4.26326,0.734324
329,491,4.25354,-0.783752,0,0,0,0,0,0,0,-1,1553,533,4.25359,0.783734
336,491,4.81604,-0.722107,0,0,0,0,0,0,0,-1,1560,533,4.81605,0.722115
343,491,6.14478,-1.44281,0,0,0,0,0,0,0,-1,1567,533,6.14474,1.44281
350,491,6.36353,-1.30792,0,0,0,0,0,0,0,-1,1574,533,6.36352,1.3079
357,491,6.69482,-1.06018,0,0,0,0,0,0,0,-1,1581,533,6.69489,1.06018
364,491,8.01086,-1.69604,0,0,0,0,0,0,0,-1,1588,533,8.01087,1.69607
371,491,8.2135,-0.539307,0,0,0,0,0,0,0,-1,1595,533,8.21348,0.53929
378,491,13.3589,2.17267,0,0,0,0,0,0,0,-1,1602,533,13.3589,-2.17264
385,491,8.08228,-4.95471,0,0,0,0,0,0,0,-1,1609,533,8.08227,4.95474
392,491,2.88721,-4.30988,0,0,0,0,0,0,0,-1,1616,533,2.88716,4.30986
399,491,8.95862,-8.55518,0,0,0,0,0,0,0,-1,1623,533,8.95864,8.55516
406,491,8.10132,-8.01874,0,0,0,0,0,0,0,-1,1630,533,8.10135,8.01875
413,491,5.31848,-3.7124,0,0,0,0,0,0,0,-1,1637,533,5.31849,3.7124
420,491,4.86389,-3.95892,0,0,0,0,0,0,0,-1,1644,533,4.86387,3.95893
427,491,6.94617,-7.44025,0,0,0,0,0,0,0,-1,1651,533,6.94619,7.44023
434,491,6.854,-7.26532,-0.00747651,-0.0019251,-0.00715785,0.00297639,-0.012378,-0.970364,0.0094025,0.0416814,1658,533,6.85396,7.26529
441,491,6.66858,-7.15375,-0.00549804,-0.000422266,-0.00517844,0.00280674,-0.00872705,-1.01324,0.0069453,0.0214386,1665,533,6.66854,7.15374
448,491,6.64734,-6.87756,-0.00382429,0.000686185,-0.00360188,0.00268061,-0.00581871,-1.0651,0.00501734,0.0116633,1672,533,6.64738,6.87757
455,491,6.63623,-6.62567,-0.00242917,0.00133733,-0.00230871,0.00243347,-0.00352531,-1.12752,0.0034595,0.0115678,1679,533,6.63619,6.62567
462,491,6.62573,-6.38501,-0.00135937,0.00150025,-0.00139048,0.00206489,-0.001924,-1.18507,0.00230346,0.0146234,1686,533,6.62569,6.38504
469,491,6.60901,-6.14246,-0.000552056,0.00144537,-0.000761243,0.00170241,-0.000809098,-1.24516,0.00148028,0.013131,1693,533,6.60905,6.14243
476,491,6.61755,-5.88342,-5.55412e-06,0.00123168,-0.000304352,0.00130249,-7.63699e-05,-1.34219,0.000894871,0.0094159,1700,533,6.61758,5.88341
483,491,6.61853,-5.59503,0.000350077,0.00103193,3.44418e-06,0.00103194,0.00035006,1.56575,0.000605974,0.011196,1707,533,6.61853,5.59502
490,491,6.62048,-5.37158,0.000562985,0.000708347,0.000232033,0.000878816,0.000392517,0.937175,0.000508347,0.0100532,1714,533,6.62044,5.37159
497,491,6.6084,-5.12811,0.000512106,0.000274525,0.000283027,0.000700261,8.63708e-05,0.586705,0.00044088,0.0105574,1721,533,6.60845,5.12814
504,491,6.61816,-4.84766,0.000369538,0.000327796,0.000480388,0.000829509,-0.000132174,0.763689,0.000601921,0.0127767,1728,533,6.61813,4.84767
511,491,6.60999,-4.56439,4.19484e-05,0.000309878,0.000575836,0.000767127,-0.0004153,0.899687,0.000692675,0.0128372,1735,533,6.61003,4.56438
518,491,6.61401,-4.30847,-0.000456576,0.000451461,0.000647109,0.000787938,-0.000793052,1.0913,0.000912787,0.00960895,1742,533,6.61404,4.30844
525,491,6.62427,-4.04303,-0.000998001,0.000839366,0.000782035,0.00112715,-0.00128578,1.21818,0.00139411,0.00926705,1749,533,6.62428,4.04303
532,491,6.64392,-3.79242,-0.00147322,0.00170947,0.00117471,0.00209609,-0.00185983,1.25285,0.00228531,0.0195245,1756,533,6.6439,3.79241
539,491,6.58496,-3.6311,-0.00177276,0.0032294,0.00190894,0.00387466,-0.00241802,1.24483,0.00366538,0.0288124,1763,533,6.58494,3.63111
546,491,6.44714,-3.18591,-0.00186998,0.00530191,0.00293174,0.00634782,-0.00291589,1.22812,0.00546938,0.0384406,1770,533,6.44718,3.18593
553,491,6.61023,-2.29187,-0.00179774,0.00800999,0.00415554,0.00953391,-0.00332166,1.2193,0.00770562,0.0499195,1777,533,6.61023,2.29188
560,491,6.5481,-1.56348,0,0,0,0,0,0,0,-1,1784,533,6.5481,1.5635
567,491,5.67651,-1.3562,0,0,0,0,0,0,0,-1,1791,533,5.67649,1.3562
574,491,8.0719,1.58325,0,0,0,0,0,0,0,-1,1798,533,8.07195,-1.58326
581,491,9.44812,1.60931,0,0,0,0,0,0,0,-1,1805,533,9.44808,-1.60933
588,491,11.0497,1.54962,0,0,0,0,0,0,0,-1,1812,533,11.0496,-1.54963
595,491,0,0,0,0,0,0,0,0,0,-1,1819,533,0,0
602,491,0,0,0,0,0,0,0,0,0,-1,1826,533,0,0
609,491,0,0,0,0,0,0,0,0,0,-1,1833,533,0,0
616,491,0,0,0,0,0,0,0,0,0,-1,1840,533,0,0
623,491,0,0,0,0,0,0,0,0,0,-1,1847,533,0,0
630,491,0,0,0,0,0,0,0,0,0,-1,1854,533,0,0
637,491,0,0,0,0,0,0,0,0,0,-1,1861,533,0,0
644,491,0,0,0,0,0,0,0,0,0,-1,1868,533,0,0
651,491,0,0,0,0,0,0,0,0,0,-1,1875,533,0,0
658,491,0,0,0,0,0,0,0,0,0,-1,1882,533,0,0
665,491,0,0,0,0,0,0,0,0,0,-1,1889,533,0,0
672,491,0,0,0,0,0,0,0,0,0,-1,1896,533,0,0
679,491,0,0,0,0,0,0,0,0,0,-1,1903,533,0,0
686,491,0,0,0,0,0,0,0,0,0,-1,1910,533,0,0
693,491,0,0,0,0,0,0,0,0,0,-1,1917,533,0,0
700,491,0,0,0,0,0,0,0,0,0,-1,1924,533,0,0
707,491,0,0,0,0,0,0,0,0,0,-1,1931,533,0,0
714,491,0,0,0,0,0,0,0,0,0,-1,1938,533,0,0
721,491,0,0,0,0,0,0,0,0,0,-1,1945,533,0,0
728,491,0,0,0,0,0,0,0,0,0,-1,1952,533,0,0
735,491,0,0,0,0,0,0,0,0,0,-1,1959,533,0,0
742,491,0,0,0,0,0,0,0,0,0,-1,1966,533,0,0
749,491,0,0,0,0,0,0,0,0,0,-1,1973,533,0,0
756,491,0,0,0,0,0,0,0,0,0,-1,1980,533,0,0
763,491,0,0,0,0,0,0,0,0,0,-1,1987,533,0,0
770,491,0,0,0,0,0,0,0,0,0,-1,1994,533,0,0
777,491,0,0,0,0,0,0,0,0,0,-1,2001,533,0,0
784,491,0,0,0,0,0,0,0,0,0,-1,2008,533,0,0
791,491,0,0,0,0,0,0,0,0,0,-1,2015,533,0,0
798,491,0,0,0,0,0,0,0,0,0,-1,2022,533,0,0
805,491,0,0,0,0,0,0,0,0,0,-1,2029,533,0,0
812,491,0,0,0,0,0,0,0,0,0,-1,2036,533,0,0
-700,484,0,0,0,0,0,0,0,0,0,-1,524,540,0,0
-693,484,0,0,0,0,0,0,0,0,0,-1,531,540,0,0
-686,484,0,0,0,0,0,0,0,0,0,-1,538,540,0,0
-679,484,0,0,0,0,0,0,0,0,0,-1,545,540,0,0
-672,484,0,0,0,0,0,0,0,0,0,-1,552,540,0,0
-665,484,0,0,0,0,0,0,0,0,0,-1,559,540,0,0
-658,484,0,0,0,0,0,0,0,0,0,-1,566,540,0,0
-651,484,0,0,0,0,0,0,0,0,0,-1,573,540,0,0
-644,484,0,0,0,0,0,0,0,0,0,-1,580,540,0,0
-637,484,0,0,0,0,0,0,0,0,0,-1,587,540,0,0
-630,484,0,0,0,0,0,0,0,0,0,-1,594,540,0,0
-623,484,0,0,0,0,0,0,0,0,0,-1,601,540,0,0
-616,484,0,0,0,0,0,0,0,0,0,-1,608,540,0,0
-609,484,0,0,0,0,0,0,0,0,0,-1,615,540,0,0
-602,484,0,0,0,0,0,0,0,0,0,-1,622,540,0,0
-595,484,0,0,0,0,0,0,0,0,0,-1,629,540,0,0
-588,484,0,0,0,0,0,0,0,0,0,-1,636,540,0,0
-581,484,0,0,0,0,0,0,0,0,0,-1,643,540,0,0
-574,484,0,0,0,0,0,0,0,0,0,-1,650,540,0,0
-567,484,0,0,0,0,0,0,0,0,0,-1,657,540,0,0
-560,484,0,0,0,0,0,0,0,0,0,-1,664,540,0,0
-553,484,0,0,0,0,0,0,0,0,0,-1,671,540,0,0
-546,484,0,0,0,0,0,0,0,0,0,-1,678,540,0,0
-539,484,0,0,0,0,0,0,0,0,0,-1,685,540,0,0
-532,484,0,0,0,0,0,0,0,0,0,-1,692,540,0,0
-525,484,0,0,0,0,0,0,0,0,0,-1,699,540,0,0
-518,484,0,0,0,0,0,0,0,0,0,-1,706,540,0,0
-511,484,0,0,0,0,0,0,0,0,0,-1,713,540,0,0
-504,484,0,0,0,0,0,0,0,0,0,-1,720,540,0,0
-497,484,0,0,0,0,0,0,0,0,0,-1,727,540,0,0
-490,484,0,0,0,0,0,0,0,0,0,-1,734,540,0,0
-483,484,0,0,0,0,0,0,0,0,0,-1,741,540,0,0
-476,484,-8.46552,1.44702,0,0,0,0,0,0,0,-1,748,540,-8.46554,-1.44702
-469,484,-7.82343,1.70355,0,0,0,0,0,0,0,-1,755,540,-7.82345,-1.70355
-462,484,-8.36987,3.08612,0,0,0,0,0,0,0,-1,762,540,-8.36988,-3.0861
-455,484,-6.77197,2.07092,0,0,0,0,0,0,0,-1,769,540,-6.77197,-2.07094
-448,484,4.11273,-0.538879,0,0,0,0,0,0,0,-1,776,540,4.11275,0.538855
-441,484,-3.39404,-0.489868,0,0,0,0,0,0,0,-1,783,540,-3.39407,0.489893
-434,484,-1.552,-3.86487,0,0,0,0,0,0,0,-1,790,540,-1.55197,3.8649
-427,484,-1.61102,-3.7998,-0.0400278,-0.000822562,-0.0159246,0.00483061,-0.045681,-1.22968,0.0321852,0.0447039,797,540,-1.61103,3.79983
-420,484,-0.983704,-4.6922,-0.0301896,0.000649001,-0.011008,0.00417516,-0.0337158,-1.2608,0.0239903,0.0369392,804,540,-0.983731,4.69219
-413,484,-1.05347,-4.99982,-0.0219412,0.00139648,-0.00718338,0.0034303,-0.023975,-1.29489,0.0172409,0.0228119,811,540,-1.05344,4.99982
-406,484,-1.04901,-5.32019,-0.015231,0.00168328,-0.00431353,0.00271981,-0.0162675,-1.33497,0.0118561,0.0137539,818,540,-1.04903,5.32022
-399,484,-1.06995,-5.55908,-0.00967801,0.00176091,-0.00188214,0.00206264,-0.00997973,-1.41184,0.00743667,0.0151003,825,540,-1.06994,5.55907
-392,484,-1.0752,-5.77734,-0.00546508,0.00156484,-0.000362355,0.00158347,-0.00548371,-1.51943,0.00428235,0.0162129,832,540,-1.07519,5.77737
-385,484,-1.09113,-6.03302,-0.00236366,0.001125,0.000476649,0.00118896,-0.00242761,1.43742,0.00212846,0.0125445,839,540,-1.09112,6.03301
-378,484,-1.08368,-6.31085,-0.000154604,0.000347419,0.00070139,0.000841361,-0.000648546,0.957236,0.000862595,0.0137183,846,540,-1.0837,6.31084
-371,484,-1.10144,-6.55219,0.000992344,-0.000593206,0.000790611,0.00131919,-0.000920055,0.392016,0.00129966,0.014985,853,540,-1.10146,6.55219
-364,484,-1.10858,-6.77429,0.00150593,-0.000975058,0.000439916,0.00158162,-0.00105075,0.170397,0.00153007,0.0118567,860,540,-1.10857,6.77432
-357,484,-1.11066,-7.01178,0.00193809,-0.00147498,5.50236e-05,0.00193898,-0.00147587,0.0161159,0.0019776,0.0129007,867,540,-1.11064,7.01181
-350,484,-1.10815,-7.2547,0.00259652,-0.00157486,-0.00043086,0.00264056,-0.0016189,-0.101857,0.00248267,0.0144327,874,540,-1.10816,7.25472
-343,484,-1.11444,-7.49792,0.00327213,-0.00165879,-0.000710148,0.00337237,-0.00175903,-0.140224,0.00301103,0.0213332,881,540,-1.11445,7.49794
-336,484,-1.0575,-7.7251,0.00396888,-0.00170155,-0.00108436,0.00416917,-0.00190184,-0.182648,0.00358566,0.0244526,888,540,-1.05751,7.72511
-329,484,-1.06274,-7.9259,0.0047253,-0.0014979,-0.00158795,0.00510707,-0.00187967,-0.235939,0.00417479,0.031441,895,540,-1.06277,7.92592
-322,484,-0.93927,-8.24792,0.00546933,-0.00109274,-0.00217967,0.00612735,-0.00175076,-0.29319,0.00477666,0.0404863,902,540,-0.939285,8.24793
-315,484,-1.09839,-8.39294,0.00632267,-0.000550489,-0.00294925,0.00741468,-0.0016425,-0.354616,0.00557191,0.0457301,909,540,-1.09837,8.39293
-308,484,-0.56958,-8.69171,0,0,0,0,0,0,0,-1,916,540,-0.569555,8.69174
-301,484,-1.33453,-6.52667,0,0,0,0,0,0,0,-1,923,540,-1.33454,6.5267
-294,484,-1.61224,-8.17059,0,0,0,0,0,0,0,-1,930,540,-1.61227,8.17058
-287,484,-0.715759,-5.62103,0,0,0,0,0,0,0,-1,937,540,-0.715772,5.62105
-280,484,2.66742,-1.6795,0,0,0,0,0,0,0,-1,944,540,2.6674,1.67949
-273,484,2.53125,-2.22296,0,0,0,0,0,0,0,-1,951,540,2.53128,2.22295
-266,484,2.6778,-2.72058,0,0,0,0,0,0,0,-1,958,540,2.6778,2.72061
-259,484,2.41718,-2.59894,0,0,0,0,0,0,0,-1,965,540,2.41717,2.59892
-252,484,10.6069,-11.696,0,0,0,0,0,0,0,-1,972,540,10.6069,11.696
-245,484,8.0415,-9.22931,0,0,0,0,0,0,0,-1,979,540,8.0415,9.2293
-238,484,5.56836,-6.82672,0,0,0,0,0,0,0,-1,986,540,5.56834,6.82672
-231,484,3.39185,-3.8576,0,0,0,0,0,0,0,-1,993,540,3.39183,3.85763
-224,484,1.14313,-1.21228,0,0,0,0,0,0,0,-1,1000,540,1.14312,1.21226
-217,484,-0.745056,1.17358,0,0,0,0,0,0,0,-1,1007,540,-0.745043,-1.17359
-210,484,0,0,0,0,0,0,0,0,0,-1,1014,540,0,0
-203,484,0,0,0,0,0,0,0,0,0,-1,1021,540,0,0
-196,484,0,0,0,0,0,0,0,0,0,-1,1028,540,0,0
-189,484,0,0,0,0,0,0,0,0,0,-1,1035,540,0,0
-182,484,0,0,0,0,0,0,0,0,0,-1,1042,540,0,0
-175,484,0,0,0,0,0,0,0,0,0,-1,1049,540,0,0
-168,484,0,0,0,0,0,0,0,0,0,-1,1056,540,0,0
-161,484,0,0,0,0,0,0,0,0,0,-1,1063,540,0,0
-154,484,0,0,0,0,0,0,0,0,0,-1,1070,540,0,0
-147,484,0,0,0,0,0,0,0,0,0,-1,1077,540,0,0
-140,484,0,0,0,0,0,0,0,0,0,-1,1084,540,0,0
-133,484,0,0,0,0,0,0,0,0,0,-1,1091,540,0,0
-126,484,0,0,0,0,0,0,0,0,0,-1,1098,540,0,0
-119,484,0,0,0,0,0,0,0,0,0,-1,1105,540,0,0
-112,484,0,0,0,0,0,0,0,0,0,-1,1112,540,0,0
-105,484,0,0,0,0,0,0,0,0,0,-1,1119,540,0,0
-98,484,0,0,0,0,0,0,0,0,0,-1,1126,540,0,0
-91,484,0,0,0,0,0,0,0,0,0,-1,1133,540,0,0
-84,484,0,0,0,0,0,0,0,0,0,-1,1140,540,0,0
-77,484,0,0,0,0,0,0,0,0,0,-1,1147,540,0,0
-70,484,0,0,0,0,0,0,0,0,0,-1,1154,540,0,0
-63,484,0,0,0,0,0,0,0,0,0,-1,1161,540,0,0
-56,484,0,0,0,0,0,0,0,0,0,-1,1168,540,0,0
-49,484,0,0,0,0,0,0,0,0,0,-1,1175,540,0,0
-42,484,0,0,0,0,0,0,0,0,0,-1,1182,540,0,0
-35,484,0,0,0,0,0,0,0,0,0,-1,1189,540,0,0
-28,484,0,0,0,0,0,0,0,0,0,-1,1196,540,0,0
-21,484,0,0,0,0,0,0,0,0,0,-1,1203,540,0,0
-14,484,0,0,0,0,0,0,0,0,0,-1,1210,540,0,0
-7,484,0,0,0,0,0,0,0,0,0,-1,1217,540,0,0
0,484,0,0,0,0,0,0,0,0,0,-1,1224,540,0,0
7,484,0,0,0,0,0,0,0,0,0,-1,1231,540,0,0
14,484,0,0,0,0,0,0,0,0,0,-1,1238,540,0,0
21,484,0,0,0,0,0,0,0,0,0,-1,1245,540,0,0
28,484,0,0,0,0,0,0,0,0,0,-1,1252,540,0,0
35,484,0,0,0,0,0,0,0,0,0,-1,1259,540,0,0
42,484,0,0,0,0,0,0,0,0,0,-1,1266,540,0,0
49,484,0,0,0,0,0,0,0,0,0,-1,1273,540,0,0
56,484,0,0,0,0,0,0,0,0,0,-1,1280,540,0,0
63,484,0,0,0,0,0,0,0,0,0,-1,1287,540,0,0
70,484,0,0,0,0,0,0,0,0,0,-1,1294,540,0,0
77,484,0,0,0,0,0,0,0,0,0,-1,1301,540,0,0
84,484,0,0,0,0,0,0,0,0,0,-1,1308,540,0,0
91,484,0,0,0,0,0,0,0,0,0,-1,1315,540,0,0
98,484,0,0,0,0,0,0,0,0,0,-1,1322,540,0,0
105,484,0,0,0,0,0,0,0,0,0,-1,1329,540,0,0
112,484,0,0,0,0,0,0,0,0,0,-1,1336,540,0,0
119,484,0,0,0,0,0,0,0,0,0,-1,1343,540,0,0
126,484,0,0,0,0,0,0,0,0,0,-1,1350,540,0,0
133,484,0,0,0,0,0,0,0,0,0,-1,1357,540,0,0
140,484,0,0,0,0,0,0,0,0,0,-1,1364,540,0,0
147,484,0,0,0,0,0,0,0,0,0,-1,1371,540,0,0
154,484,0,0,0,0,0,0,0,0,0,-1,1378,540,0,0
161,484,0,0,0,0,0,0,0,0,0,-1,1385,540,0,0
168,484,0,0,0,0,0,0,0,0,0,-1,1392,540,0,0
175,484,0,0,0,0,0,0,0,0,0,-1,1399,540,0,0
182,484,0,0,0,0,0,0,0,0,0,-1,1406,540,0,0
189,484,0,0,0,0,0,0,0,0,0,-1,1413,540,0,0
196,484,0,0,0,0,0,0,0,0,0,-1,1420,540,0,0
203,484,0,0,0,0,0,0,0,0,0,-1,1427,540,0,0
210,484,0,0,0,0,0,0,0,0,0,-1,1434,540,0,0
217,484,0,0,0,0,0,0,0,0,0,-1,1441,540,0,0
224,484,0,0,0,0,0,0,0,0,0,-1,1448,540,0,0
231,484,0,0,0,0,0,0,0,0,0,-1,1455,540,0,0
238,484,0,0,0,0,0,0,0,0,0,-1,1462,540,0,0
245,484,0,0,0,0,0,0,0,0,0,-1,1469,540,0,0
252,484,0,0,0,0,0,0,0,0,0,-1,1476,540,0,0
259,484,0,0,0,0,0,0,0,0,0,-1,1483,540,0,0
266,484,0,0,0,0,0,0,0,0,0,-1,1490,540,0,0
273,484,0,0,0,0,0,0,0,0,0,-1,1497,540,0,0
280,484,0,0,0,0,0,0,0,0,0,-1,1504,540,0,0
287,484,0,0,0,0,0,0,0,0,0,-1,1511,540,0,0
294,484,0,0,0,0,0,0,0,0,0,-1,1518,540,0,0
301,484,0,0,0,0,0,0,0,0,0,-1,1525,540,0,0
308,484,0,0,0,0,0,0,0,0,0,-1,1532,540,0,0
315,484,0,0,0,0,0,0,0,0,0,-1,1539,540,0,0
322,484,0,0,0,0,0,0,0,0,0,-1,1546,540,0,0
329,484,0,0,0,0,0,0,0,0,0,-1,1553,540,0,0
336,484,4.38708,-1.64136,0,0,0,0,0,0,0,-1,1560,540,4.38704,1.64138
343,484,7.57996,-1.05457,0,0,0,0,0,0,0,-1,1567,540,7.57995,1.05454
350,484,8.10425,-1.18878,0,0,0,0,0,0,0,-1,1574,540,8.1043,1.18877
357,484,7.74902,-3.80286,0,0,0,0,0,0,0,-1,1581,540,7.74901,3.80287
364,484,6.31262,-3.87213,0,0,0,0,0,0,0,-1,1588,540,6.31263,3.87215
371,484,7.21008,0.973511,0,0,0,0,0,0,0,-1,1595,540,7.21014,-0.973541
378,484,11.0563,1.5014,0,0,0,0,0,0,0,-1,1602,540,11.0563,-1.5014
385,484,14.3469,2.5545,0,0,0,0,0,0,0,-1,1609,540,14.3469,-2.55453
392,484,7.39453,-4.95026,0,0,0,0,0,0,0,-1,1616,540,7.39448,4.95023
399,484,7.14417,-2.5639,0,0,0,0,0,0,0,-1,1623,540,7.14417,2.56391
406,484,7.88953,-2.47321,0,0,0,0,0,0,0,-1,1630,540,7.88954,2.47323
413,484,4.4895,-1.08673,0,0,0,0,0,0,0,-1,1637,540,4.48952,1.08674
420,484,4.50012,-2.11255,0,0,0,0,0,0,0,-1,1644,540,4.50012,2.11256
427,484,5.28601,-3.54053,0,0,0,0,0,0,0,-1,1651,540,5.28599,3.54051
434,484,7.36609,-7.16437,0,0,0,0,0,0,0,-1,1658,540,7.36605,7.16437
441,484,6.87976,-7.07227,0,0,0,0,0,0,0,-1,1665,540,6.87976,7.07225
448,484,6.87866,-6.85681,-0.00481215,0.00125546,-0.00433799,0.00351525,-0.00707193,-1.09055,0.00622642,0.0390292,1672,540,6.87872,6.85682
455,484,6.86658,-6.6228,-0.00308327,0.00200281,-0.00280495,0.0032459,-0.00432636,-1.15363,0.00438665,0.0197595,1679,540,6.8666,6.6228
462,484,6.88171,-6.38123,-0.00176462,0.00219254,-0.00169622,0.0028201,-0.00239217,-1.21644,0.00301268,0.0139559,1686,540,6.88175,6.38123
469,484,6.88867,-6.14655,-0.000754037,0.00220464,-0.000898277,0.00245601,-0.0010054,-1.29794,0.00205611,0.0149109,1693,540,6.88863,6.14653
476,484,6.88098,-5.87787,-4.71329e-05,0.00200861,-0.000314727,0.00205571,-9.42372e-05,-1.42223,0.00140294,0.0139239,1700,540,6.88093,5.87788
483,484,6.88416,-5.61194,0.000434776,0.00178163,9.81103e-05,0.00178874,0.000427667,1.49846,0.00107858,0.0113579,1707,540,6.88416,5.61192
490,484,6.88049,-5.37146,0.000743455,0.00147206,0.000390896,0.0016421,0.000573421,1.1605,0.000962331,0.0115151,1714,540,6.88049,5.37146
497,484,6.87427,-5.12555,0.000733532,0.000987461,0.000445738,0.00132396,0.000397029,0.924145,0.000784534,0.0124044,1721,540,6.87425,5.12555
504,484,6.88293,-4.8562,0.000584576,0.000883324,0.00057175,0.00132489,0.00014301,0.913171,0.000839659,0.0152294,1728,540,6.8829,4.85623
511,484,6.89075,-4.58508,0.000305919,0.000782345,0.000671771,0.00125689,-0.000168625,0.955783,0.000899418,0.017763,1735,540,6.89069,4.58506
518,484,6.87598,-4.32501,-0.000160257,0.000788657,0.000691294,0.00115265,-0.000524249,1.08615,0.000990559,0.0145022,1742,540,6.87596,4.32498
525,484,6.88306,-4.04852,-0.000673849,0.0010067,0.000732116,0.0012809,-0.000948049,1.21244,0.00129166,0.012145,1749,540,6.88303,4.04853
532,484,6.90991,-3.78003,-0.00112544,0.00162014,0.000972186,0.00192952,-0.00143482,1.2627,0.00194939,0.0146479,1756,540,6.90993,3.78002
539,484,6.89075,-3.49255,-0.00142912,0.00266846,0.00144214,0.00312512,-0.00188578,1.26413,0.0029224,0.0227485,1763,540,6.89075,3.49253
546,484,6.776,-3.27771,-0.00152276,0.00411111,0.00213671,0.0048298,-0.00224145,1.24633,0.00417276,0.0245179,1770,540,6.77597,3.27771
553,484,6.74255,-2.81305,-0.00147784,0.005868,0.00290286,0.00687664,-0.00248648,1.23638,0.00560037,0.0382442,1777,540,6.7425,2.81306
560,484,6.76123,-2.37341,0,0,0,0,0,0,0,-1,1784,540,6.76122,2.3734
567,484,7.78223,-1.38312,0,0,0,0,0,0,0,-1,1791,540,7.78224,1.38311
574,484,5.74463,1.50922,0,0,0,0,0,0,0,-1,1798,540,5.74463,-1.50924
581,484,10.34,2.9491,0,0,0,0,0,0,0,-1,1805,540,10.34,-2.94912
588,484,10.6669,2.88568,0,0,0,0,0,0,0,-1,1812,540,10.6669,-2.88567
595,484,10.7233,1.04767,0,0,0,0,0,0,0,-1,1819,540,10.7233,-1.04766
602,484,0,0,0,0,0,0,0,0,0,-1,1826,540,0,0
609,484,0,0,0,0,0,0,0,0,0,-1,1833,540,0,0
616,484,0,0,0,0,0,0,0,0,0,-1,1840,540,0,0
623,484,0,0,0,0,0,0,0,0,0,-1,1847,540,0,0
630,484,0,0,0,0,0,0,0,0,0,-1,1854,540,0,0
637,484,0,0,0,0,0,0,0,0,0,-1,1861,540,0,0
644,484,0,0,0,0,0,0,0,0,0,-1,1868,540,0,0
651,484,0,0,0,0,0,0,0,0,0,-1,1875,540,0,0
658,484,0,0,0,0,0,0,0,0,0,-1,1882,540,0,0
665,484,0,0,0,0,0,0,0,0,0,-1,1889,540,0,0
672,484,0,0,0,0,0,0,0,0,0,-1,1896,540,0,0
679,484,0,0,0,0,0,0,0,0,0,-1,1903,540,0,0
686,484,0,0,0,0,0,0,0,0,0,-1,1910,540,0,0
693,484,0,0,0,0,0,0,0,0,0,-1,1917,540,0,0
700,484,0,0,0,0,0,0,0,0,0,-1,1924,540,0,0
707,484,0,0,0,0,0,0,0,0,0,-1,1931,540,0,0
714,484,0,0,0,0,0,0,0,0,0,-1,1938,540,0,0
721,484,0,0,0,0,0,0,0,0,0,-1,1945,540,0,0
728,484,0,0,0,0,0,0,0,0,0,-1,1952,540,0,0
735,484,0,0,0,0,0,0,0,0,0,-1,1959,540,0,0
742,484,0,0,0,0,0,0,0,0,0,-1,1966,540,0,0
749,484,0,0,0,0,0,0,0,0,0,-1,1973,540,0,0
756,484,0,0,0,0,0,0,0,0,0,-1,1980,540,0,0
763,484,0,0,0,0,0,0,0,0,0,-1,1987,540,0,0
770,484,0,0,0,0,0,0,0,0,0,-1,1994,540,0,0
777,484,0,0,0,0,0,0,0,0,0,-1,2001,540,0,0
784,484,0,0,0,0,0,0,0,0,0,-1,2008,540,0,0
791,484,0,0,0,0,0,0,0,0,0,-1,2015,540,0,0
798,484,0,0,0,0,0,0,0,0,0,-1,2022,540,0,0
805,484,0,0,0,0,0,0,0,0,0,-1,2029,540,0,0
812,484,0,0,0,0,0,0,0,0,0,-1,2036,540,0,0
-700,477,0,0,0,0,0,0,0,0,0,-1,524,547,0,0
-693,477,0,0,0,0,0,0,0,0,0,-1,531,547,0,0
-686,477,0,0,0,0,0,0,0,0,0,-1,538,547,0,0
-679,477,0,0,0,0,0,0,0,0,0,-1,545,547,0,0
-672,477,0,0,0,0,0,0,0,0,0,-1,552,547,0,0
-665,477,0,0,0,0,0,0,0,0,0,-1,559,547,0,0
-658,477,0,0,0,0,0,0,0,0,0,-1,566,547,0,0
-651,477,0,0,0,0,0,0,0,0,0,-1,573,547,0,0
-644,477,0,0,0,0,0,0,0,0,0,-1,580,547,0,0
-637,477,0,0,0,0,0,0,0,0,0,-1,587,547,0,0
-630,477,0,0,0,0,0,0,0,0,0,-1,594,547,0,0
-623,477,0,0,0,0,0,0,0,0,0,-1,601,547,0,0
-616,477,0,0,0,0,0,0,0,0,0,-1,608,547,0,0
-609,477,0,0,0,0,0,0,0,0,0,-1,615,547,0,0
-602,477,0,0,0,0,0,0,0,0,0,-1,622,547,0,0
-595,477,0,0,0,0,0,0,0,0,0,-1,629,547,0,0
-588,477,0,0,0,0,0,0,0,0,0,-1,636,547,0,0
-581,477,0,0,0,0,0,0,0,0,0,-1,643,547,0,0
-574,477,0,0,0,0,0,0,0,0,0,-1,650,547,0,0
-567,477,0,0,0,0,0,0,0,0,0,-1,657,547,0,0
-560,477,0,0,0,0,0,0,0,0,0,-1,664,547,0,0
-553,477,0,0,0,0,0,0,0,0,0,-1,671,547,0,0
-546,477,0,0,0,0,0,0,0,0,0,-1,678,547,0,0
-539,477,0,0,0,0,0,0,0,0,0,-1,685,547,0,0
-532,477,0,0,0,0,0,0,0,0,0,-1,692,547,0,0
-525,477,0,0,0,0,0,0,0,0,0,-1,699,547,0,0
-518,477,0,0,0,0,0,0,0,0,0,-1,706,547,0,0
-511,477,0,0,0,0,0,0,0,0,0,-1,713,547,0,0
-504,477,0,0,0,0,0,0,0,0,0,-1,720,547,0,0
-497,477,0,0,0,0,0,0,0,0,0,-1,727,547,0,0
-490,477,0,0,0,0,0,0,0,0,0,-1,734,547,0,0
-483,477,-7.73151,-0.224182,0,0,0,0,0,0,0,-1,741,547,-7.73152,0.224176
-476,477,-6.25806,-0.310547,0,0,0,0,0,0,0,-1,748,547,-6.25804,0.310549
-469,477,-7.26617,0.525085,0,0,0,0,0,0,0,-1,755,547,-7.2662,-0.525111
-462,477,-6.65143,1.06042,0,0,0,0,0,0,0,-1,762,547,-6.65143,-1.06043
-455,477,-5.31757,0.429016,0,0,0,0,0,0,0,-1,769,547,-5.31756,-0.42902
-448,477,-3.77142,-0.38324,0,0,0,0,0,0,0,-1,776,547,-3.77141,0.38322
-441,477,-1.27667,-3.9447,0,0,0,0,0,0,0,-1,783,547,-1.27665,3.94468
-434,477,-1.48694,-4.13922,-0.0296385,0.00174923,-0.0197919,0.0113144,-0.0392036,-1.12061,0.0306123,0.0433784,790,547,-1.48694,4.13921
-427,477,-1.33063,-4.52289,-0.0295005,0.000531456,-0.014924,0.00668635,-0.0356554,-1.17963,0.0262841,0.0237067,797,547,-1.33064,4.52288
-420,477,-1.35504,-4.6994,-0.0224393,0.00131739,-0.010896,0.00555792,-0.0266798,-1.19965,0.0198996,0.0199378,804,547,-1.35503,4.69943
-413,477,-1.33563,-4.99805,-0.0163565,0.00160122,-0.00769985,0.00445061,-0.0192059,-1.21636,0.0145167,0.0161918,811,547,-1.33561,4.99804
-406,477,-1.32361,-5.289,-0.0112434,0.00160174,-0.00517586,0.00342774,-0.0130694,-1.23164,0.0100523,0.0113181,818,547,-1.3236,5.28898
-399,477,-1.30054,-5.56531,-0.00694723,0.00144473,-0.00293018,0.00236658,-0.00786908,-1.26599,0.00618765,0.0186481,825,547,-1.30055,5.56532
-392,477,-1.32782,-5.79987,-0.00372713,0.00100207,-0.00135219,0.00136139,-0.00408645,-1.31107,0.00327385,0.0162775,832,547,-1.3278,5.79987
-385,477,-1.33911,-6.02747,-0.00138584,0.000426774,-0.000270703,0.000466338,-0.0014254,-1.42567,0.00113802,0.014213,839,547,-1.33914,6.02748
-378,477,-1.34631,-6.29767,0.000288496,-0.000407005,0.000269307,0.000380583,-0.000499091,0.329475,0.000509414,0.0127878,846,547,-1.3463,6.29764
-371,477,-1.3252,-6.52197,0.0011359,-0.00134885,0.000655484,0.00129821,-0.00151117,0.242744,0.00162355,0.0126725,853,547,-1.32517,6.52197
-364,477,-1.34613,-6.74384,0.00157344,-0.00186359,0.000640569,0.00168894,-0.00197909,0.178396,0.00211995,0.0130646,860,547,-1.34615,6.74381
-357,477,-1.37115,-6.99512,0.00218248,-0.00237978,0.000444322,0.00222535,-0.00242265,0.0961863,0.00268433,0.0107374,867,547,-1.37118,6.99511
-350,477,-1.38086,-7.23132,0.00300171,-0.00263624,0.000131206,0.00300476,-0.0026393,0.0232551,0.00326087,0.00975409,874,547,-1.38085,7.23131
-343,477,-1.33771,-7.49207,0.00378521,-0.0029239,-7.3464e-05,0.00378601,-0.00292471,-0.0109481,0.00388506,0.0176136,881,547,-1.3377,7.49205
-336,477,-1.25775,-7.75531,0.00463659,-0.00312346,-0.000504111,0.00466921,-0.00315607,-0.0646005,0.00454599,0.0282766,888,547,-1.25774,7.75532
-329,477,-1.15851,-7.99774,0,0,0,0,0,0,0,-1,895,547,-1.1585,7.99775
-322,477,-1.18945,-8.46808,0,0,0,0,0,0,0,-1,902,547,-1.18944,8.46808
-315,477,-1.61328,-8.75739,0,0,0,0,0,0,0,-1,909,547,-1.6133,8.75736
-308,477,-1.30127,-6.55188,0,0,0,0,0,0,0,-1,916,547,-1.30128,6.55185
-301,477,-1.21185,-6.28351,0,0,0,0,0,0,0,-1,923,547,-1.21184,6.28352
-294,477,-0.352905,3.27142,0,0,0,0,0,0,0,-1,930,547,-0.35292,-3.27144
-287,477,3.54364,2.15399,0,0,0,0,0,0,0,-1,937,547,3.54362,-2.15396
-280,477,1.97308,-0.954163,0,0,0,0,0,0,0,-1,944,547,1.9731,0.954178
-273,477,2.11621,-3.76709,0,0,0,0,0,0,0,-1,951,547,2.11619,3.76706
-266,477,2.04669,-3.42389,0,0,0,0,0,0,0,-1,958,547,2.04671,3.42391
-259,477,-1.33478,-3.41205,0,0,0,0,0,0,0,-1,965,547,-1.3348,3.41206
-252,477,0.597168,-5.32922,0,0,0,0,0,0,0,-1,972,547,0.597144,5.32924
-245,477,2.27161,-7.02875,0,0,0,0,0,0,0,-1,979,547,2.27158,7.02873
-238,477,7.29095,-4.50336,0,0,0,0,0,0,0,-1,986,547,7.29093,4.50335
-231,477,4.88141,-2.23413,0,0,0,0,0,0,0,-1,993,547,4.88143,2.23413
-224,477,0,0,0,0,0,0,0,0,0,-1,1000,547,0,0
-217,477,0,0,0,0,0,0,0,0,0,-1,1007,547,0,0
-210,477,0,0,0,0,0,0,0,0,0,-1,1014,547,0,0
-203,477,0,0,0,0,0,0,0,0,0,-1,1021,547,0,0
-196,477,0,0,0,0,0,0,0,0,0,-1,1028,547,0,0
-189,477,0,0,0,0,0,0,0,0,0,-1,1035,547,0,0
-182,477,0,0,0,0,0,0,0,0,0,-1,1042,547,0,0
-175,477,0,0,0,0,0,0,0,0,0,-1,1049,547,0,0
-168,477,0,0,0,0,0,0,0,0,0,-1,1056,547,0,0
-161,477,0,0,0,0,0,0,0,0,0,-1,1063,547,0,0
-154,477,0,0,0,0,0,0,0,0,0,-1,1070,547,0,0
-147,477,0,0,0,0,0,0,0,0,0,-1,1077,547,0,0
-140,477,0,0,0,0,0,0,0,0,0,-1,1084,547,0,0
-133,477,0,0,0,0,0,0,0,0,0,-1,1091,547,0,0
-126,477,0,0,0,0,0,0,0,0,0,-1,1098,547,0,0
-119,477,0,0,0,0,0,0,0,0,0,-1,1105,547,0,0
-112,477,0,0,0,0,0,0,0,0,0,-1,1112,547,0,0
-105,477,0,0,0,0,0,0,0,0,0,-1,1119,547,0,0
-98,477,0,0,0,0,0,0,0,0,0,-1,1126,547,0,0
-91,477,0,0,0,0,0,0,0,0,0,-1,1133,547,0,0
-84,477,0,0,0,0,0,0,0,0,0,-1,1140,547,0,0
-77,477,0,0,0,0,0,0,0,0,0,-1,1147,547,0,0
-70,477,0,0,0,0,0,0,0,0,0,-1,1154,547,0,0
-63,477,0,0,0,0,0,0,0,0,0,-1,1161,547,0,0
-56,477,0,0,0,0,0,0,0,0,0,-1,1168,547,0,0
-49,477,0,0,0,0,0,0,0,0,0,-1,1175,547,0,0
-42,477,0,0,0,0,0,0,0,0,0,-1,1182,547,0,0
-35,477,0,0,0,0,0,0,0,0,0,-1,1189,547,0,0
-28,477,0,0,0,0,0,0,0,0,0,-1,1196,547,0,0
-21,477,0,0,0,0,0,0,0,0,0,-1,1203,547,0,0
-14,477,0,0,0,0,0,0,0,0,0,-1,1210,547,0,0
-7,477,0,0,0,0,0,0,0,0,0,-1,1217,547,0,0
0,477,0,0,0,0,0,0,0,0,0,-1,1224,547,0,0
7,477,0,0,0,0,0,0,0,0,0,-1,1231,547,0,0
14,477,0,0,0,0,0,0,0,0,0,-1,1238,547,0,0
21,477,0,0,0,0,0,0,0,0,0,-1,1245,547,0,0
28,477,0,0,0,0,0,0,0,0,0,-1,1252,547,0,0
35,477,0,0,0,0,0,0,0,0,0,-1,1259,547,0,0
42,477,0,0,0,0,0,0,0,0,0,-1,1266,547,0,0
49,477,0,0,0,0,0,0,0,0,0,-1,1273,547,0,0
56,477,0,0,0,0,0,0,0,0,0,-1,1280,547,0,0
63,477,0,0,0,0,0,0,0,0,0,-1,1287,547,0,0
70,477,0,0,0,0,0,0,0,0,0,-1,1294,547,0,0
77,477,0,0,0,0,0,0,0,0,0,-1,1301,547,0,0
84,477,0,0,0,0,0,0,0,0,0,-1,1308,547,0,0
91,477,0,0,0,0,0,0,0,0,0,-1,1315,547,0,0
98,477,0,0,0,0,0,0,0,0,0,-1,1322,547,0,0
105,477,0,0,0,0,0,0,0,0,0,-1,1329,547,0,0
112,477,0,0,0,0,0,0,0,0,0,-1,1336,547,0,0
119,477,0,0,0,0,0,0,0,0,0,-1,1343,547,0,0
126,477,0,0,0,0,0,0,0,0,0,-1,1350,547,0,0
133,477,0,0,0,0,0,0,0,0,0,-1,1357,547,0,0
140,477,0,0,0,0,0,0,0,0,0,-1,1364,547,0,0
147,477,0,0,0,0,0,0,0,0,0,-1,1371,547,0,0
154,477,0,0,0,0,0,0,0,0,0,-1,1378,547,0,0
161,477,0,0,0,0,0,0,0,0,0,-1,1385,547,0,0
168,477,0,0,0,0,0,0,0,0,0,-1,1392,547,0,0
175,477,0,0,0,0,0,0,0,0,0,-1,1399,547,0,0
182,477,0,0,0,0,0,0,0,0,0,-1,1406,547,0,0
189,477,0,0,0,0,0,0,0,0,0,-1,1413,547,0,0
196,477,0,0,0,0,0,0,0,0,0,-1,1420,547,0,0
203,477,0,0,0,0,0,0,0,0,0,-1,1427,547,0,0
210,477,0,0,0,0,0,0,0,0,0,-1,1434,547,0,0
217,477,0,0,0,0,0,0,0,0,0,-1,1441,547,0,0
224,477,0,0,0,0,0,0,0,0,0,-1,1448,547,0,0
231,477,0,0,0,0,0,0,0,0,0,-1,1455,547,0,0
238,477,0,0,0,0,0,0,0,0,0,-1,1462,547,0,0
245,477,0,0,0,0,0,0,0,0,0,-1,1469,547,0,0
252,477,0,0,0,0,0,0,0,0,0,-1,1476,547,0,0
259,477,0,0,0,0,0,0,0,0,0,-1,1483,547,0,0
266,477,0,0,0,0,0,0,0,0,0,-1,1490,547,0,0
273,477,0,0,0,0,0,0,0,0,0,-1,1497,547,0,0
280,477,0,0,0,0,0,0,0,0,0,-1,1504,547,0,0
287,477,0,0,0,0,0,0,0,0,0,-1,1511,547,0,0
294,477,0,0,0,0,0,0,0,0,0,-1,1518,547,0,0
301,477,0,0,0,0,0,0,0,0,0,-1,1525,547,0,0
308,477,0,0,0,0,0,0,0,0,0,-1,1532,547,0,0
315,477,0,0,0,0,0,0,0,0,0,-1,1539,547,0,0
322,477,0,0,0,0,0,0,0,0,0,-1,1546,547,0,0
329,477,0,0,0,0,0,0,0,0,0,-1,1553,547,0,0
336,477,0,0,0,0,0,0,0,0,0,-1,1560,547,0,0
343,477,0,0,0,0,0,0,0,0,0,-1,1567,547,0,0
350,477,1.7699,-3.32275,0,0,0,0,0,0,0,-1,1574,547,1.7699,3.32272
357,477,3.073,-4.83313,0,0,0,0,0,0,0,-1,1581,547,3.07303,4.83316
364,477,4.30127,-4.22864,0,0,0,0,0,0,0,-1,1588,547,4.30125,4.22865
371,477,4.57703,0.283264,0,0,0,0,0,0,0,-1,1595,547,4.57706,-0.283262
378,477,8.57947,1.05969,0,0,0,0,0,0,0,-1,1602,547,8.5795,-1.05972
385,477,12.3726,2.02356,0,0,0,0,0,0,0,-1,1609,547,12.3725,-2.02355
392,477,16.4678,2.76843,0,0,0,0,0,0,0,-1,1616,547,16.4678,-2.76845
399,477,8.00037,-2.29523,0,0,0,0,0,0,0,-1,1623,547,8.00031,2.2952
406,477,4.82495,2.7475,0,0,0,0,0,0,0,-1,1630,547,4.825,-2.74752
413,477,4.88171,-0.336426,0,0,0,0,0,0,0,-1,1637,547,4.88169,0.336398
420,477,3.34875,0.102722,0,0,0,0,0,0,0,-1,1644,547,3.34871,-0.1027
427,477,1.66772,-0.373108,0,0,0,0,0,0,0,-1,1651,547,1.66768,0.373104
434,477,3.76978,-2.30798,0,0,0,0,0,0,0,-1,1658,547,3.76974,2.30801
441,477,4.05444,-2.80402,0,0,0,0,0,0,0,-1,1665,547,4.05444,2.804
448,477,7.09546,-6.86176,0,0,0,0,0,0,0,-1,1672,547,7.09544,6.86177
455,477,7.34265,-6.57568,-0.00355772,0.00287859,-0.00329523,0.00426641,-0.00494554,-1.17218,0.00532334,0.0490786,1679,547,7.34268,6.57566
462,477,7.15686,-6.46405,-0.00190221,0.00312483,-0.00188542,0.00375338,-0.00253076,-1.24901,0.00365096,0.0368402,1686,547,7.15692,6.46408
469,477,7.1499,-6.13892,-0.000674724,0.00317805,-0.000876235,0.00336797,-0.000864643,-1.35735,0.00258224,0.0229857,1693,547,7.14986,6.13892
476,477,7.13782,-5.89093,0.000210924,0.0029863,-0.000115187,0.00299107,0.000206152,-1.52939,0.001929,0.0166121,1700,547,7.13776,5.89092
483,477,7.15515,-5.62457,0.000803342,0.00268972,0.000417638,0.00277805,0.000715014,1.36237,0.00166566,0.0112027,1707,547,7.15515,5.62459
490,477,7.14221,-5.36725,0.00116812,0.00235689,0.000752574,0.0027215,0.000803515,1.11964,0.00161457,0.0114281,1714,547,7.14224,5.36726
497,477,7.13916,-5.09845,0.0011449,0.00176844,0.000775232,0.00229224,0.000621091,0.976584,0.00136893,0.0131253,1721,547,7.13917,5.09847
504,477,7.14575,-4.85272,0.000930289,0.00142029,0.000777855,0.00199081,0.000359762,0.937964,0.00122503,0.0177726,1728,547,7.14578,4.85272
511,477,7.18445,-4.62653,0.00064873,0.00117406,0.000839673,0.0017912,3.15989e-05,0.936987,0.00118374,0.0216347,1735,547,7.18441,4.62655
518,477,7.17175,-4.35022,0.00016703,0.00100383,0.000771873,0.00146341,-0.00029255,1.03376,0.00108633,0.0186637,1742,547,7.17179,4.35022
525,477,7.15723,-4.03864,-0.000363889,0.00103147,0.000698834,0.00132127,-0.000653695,1.17768,0.00116176,0.0157752,1749,547,7.15723,4.03862
532,477,7.12756,-3.77594,-0.000837293,0.00138769,0.000777862,0.00163266,-0.00108226,1.2657,0.00157816,0.0180764,1756,547,7.12755,3.77597
539,477,7.12488,-3.4527,-0.00118202,0.00202362,0.00100137,0.00231072,-0.00146911,1.29159,0.00220024,0.0169434,1763,547,7.12487,3.45271
546,477,7.10742,-3.19922,-0.00131231,0.00295181,0.00141007,0.00337592,-0.00173641,1.27864,0.00300177,0.0208319,1770,547,7.10745,3.19924
553,477,7.10559,-2.93921,-0.0013507,0.00404896,0.00183517,0.00461363,-0.00191536,1.2723,0.00387533,0.0222757,1777,547,7.10565,2.9392
560,477,7.0708,-2.53156,-0.00123715,0.00523477,0.00228931,0.00596269,-0.00196508,1.26294,0.00476713,0.0397512,1784,547,7.07084,2.53155
567,477,7.07886,-2.11621,0,0,0,0,0,0,0,-1,1791,547,7.07887,2.11621
574,477,6.82593,-0.916992,0,0,0,0,0,0,0,-1,1798,547,6.82598,0.916977
581,477,9.29321,-0.557007,0,0,0,0,0,0,0,-1,1805,547,9.29324,0.55703
588,477,9.75195,0.422729,0,0,0,0,0,0,0,-1,1812,547,9.75198,-0.42273
595,477,9.89172,1.21326,0,0,0,0,0,0,0,-1,1819,547,9.89174,-1.21328
602,477,6.5271,-0.964417,0,0,0,0,0,0,0,-1,1826,547,6.52706,0.964427
609,477,0,0,0,0,0,0,0,0,0,-1,1833,547,0,0
616,477,0,0,0,0,0,0,0,0,0,-1,1840,547,0,0
623,477,0,0,0,0,0,0,0,0,0,-1,1847,547,0,0
630,477,0,0,0,0,0,0,0,0,0,-1,1854,547,0,0
637,477,0,0,0,0,0,0,0,0,0,-1,1861,547,0,0
644,477,0,0,0,0,0,0,0,0,0,-1,1868,547,0,0
651,477,0,0,0,0,0,0,0,0,0,-1,1875,547,0,0
658,477,0,0,0,0,0,0,0,0,0,-1,1882,547,0,0
665,477,0,0,0,0,0,0,0,0,0,-1,1889,547,0,0
672,477,0,0,0,0,0,0,0,0,0,-1,1896,547,0,0
679,477,0,0,0,0,0,0,0,0,0,-1,1903,547,0,0
686,477,0,0,0,0,0,0,0,0,0,-1,1910,547,0,0
693,477,0,0,0,0,0,0,0,0,0,-1,1917,547,0,0
700,477,0,0,0,0,0,0,0,0,0,-1,1924,547,0,0
707,477,0,0,0,0,0,0,0,0,0,-1,1931,547,0,0
714,477,0,0,0,0,0,0,0,0,0,-1,1938,547,0,0
721,477,0,0,0,0,0,0,0,0,0,-1,1945,547,0,0
728,477,0,0,0,0,0,0,0,0,0,-1,1952,547,0,0
735,477,0,0,0,0,0,0,0,0,0,-1,1959,547,0,0
742,477,0,0,0,0,0,0,0,0,0,-1,1966,547,0,0
749,477,0,0,0,0,0,0,0,0,0,-1,1973,547,0,0
756,477,0,0,0,0,0,0,0,0,0,-1,1980,547,0,0
763,477,0,0,0,0,0,0,0,0,0,-1,1987,547,0,0
770,477,0,0,0,0,0,0,0,0,0,-1,1994,547,0,0
777,477,0,0,0,0,0,0,0,0,0,-1,2001,547,0,0
784,477,0,0,0,0,0,0,0,0,0,-1,2008,547,0,0
791,477,0,0,0,0,0,0,0,0,0,-1,2015,547,0,0
798,477,0,0,0,0,0,0,0,0,0,-1,2022,547,0,0
805,477,0,0,0,0,0,0,0,0,0,-1,2029,547,0,0
812,477,0,0,0,0,0,0,0,0,0,-1,2036,547,0,0
-700,470,0,0,0,0,0,0,0,0,0,-1,524,554,0,0
-693,470,0,0,0,0,0,0,0,0,0,-1,531,554,0,0
-686,470,0,0,0,0,0,0,0,0,0,-1,538,554,0,0
-679,470,0,0,0,0,0,0,0,0,0,-1,545,554,0,0
-672,470,0,0,0,0,0,0,0,0,0,-1,552,554,0,0
-665,470,0,0,0,0,0,0,0,0,0,-1,559,554,0,0
-658,470,0,0,0,0,0,0,0,0,0,-1,566,554,0,0
-651,470,0,0,0,0,0,0,0,0,0,-1,573,554,0,0
-644,470,0,0,0,0,0,0,0,0,0,-1,580,554,0,0
-637,470,0,0,0,0,0,0,0,0,0,-1,587,554,0,0
-630,470,0,0,0,0,0,0,0,0,0,-1,594,554,0,0
-623,470,0,0,0,0,0,0,0,0,0,-1,601,554,0,0
-616,470,0,0,0,0,0,0,0,0,0,-1,608,554,0,0
-609,470,0,0,0,0,0,0,0,0,0,-1,615,554,0,0
-602,470,0,0,0,0,0,0,0,0,0,-1,622,554,0,0
-595,470,0,0,0,0,0,0,0,0,0,-1,629,554,0,0
-588,470,0,0,0,0,0,0,0,0,0,-1,636,554,0,0
-581,470,0,0,0,0,0,0,0,0,0,-1,643,554,0,0
-574,470,0,0,0,0,0,0,0,0,0,-1,650,554,0,0
-567,470,0,0,0,0,0,0,0,0,0,-1,657,554,0,0
-560,470,0,0,0,0,0,0,0,0,0,-1,664,554,0,0
-553,470,0,0,0,0,0,0,0,0,0,-1,671,554,0,0
-546,470,0,0,0,0,0,0,0,0,0,-1,678,554,0,0
-539,470,0,0,0,0,0,0,0,0,0,-1,685,554,0,0
-532,470,0,0,0,0,0,0,0,0,0,-1,692,554,0,0
-525,470,0,0,0,0,0,0,0,0,0,-1,699,554,0,0
-518,470,0,0,0,0,0,0,0,0,0,-1,706,554,0,0
-511,470,0,0,0,0,0,0,0,0,0,-1,713,554,0,0
-504,470,0,0,0,0,0,0,0,0,0,-1,720,554,0,0
-497,470,0,0,0,0,0,0,0,0,0,-1,727,554,0,0
-490,470,-9.13263,-1.03125,0.203178,0.0905428,-0.0604234,0.22946,0.0642611,-0.410276,0.136685,0.0458705,734,554,-9.1326,1.03127
-483,470,-7.68677,-1.03955,0.149457,0.0693822,-0.055699,0.178016,0.040824,-0.473775,0.10768,0.0444156,741,554,-7.68678,1.03958
-476,470,-6.17969,-1.03394,0,0,0,0,0,0,0,-1,748,554,-6.17971,1.03395
-469,470,-6.23016,-0.651855,0,0,0,0,0,0,0,-1,755,554,-6.23014,0.651829
-462,470,-4.87915,-1.03705,0,0,0,0,0,0,0,-1,762,554,-4.87914,1.03702
-455,470,-3.55457,-1.53186,0,0,0,0,0,0,0,-1,769,554,-3.55456,1.53187
-448,470,-1.58984,-3.5741,0,0,0,0,0,0,0,-1,776,554,-1.58983,3.57409
-441,470,-1.49799,-3.94104,-0.0111916,0.00736554,-0.0216164,0.0216106,-0.0254366,-0.988125,0.0271926,0.0451512,783,554,-1.49799,3.94101
-434,470,-1.44458,-4.31921,-0.0189713,0.00342377,-0.0169546,0.0125448,-0.0280924,-1.07724,0.0240275,0.0269499,790,554,-1.4446,4.31922
-427,470,-1.57532,-4.51569,-0.0206476,0.00170982,-0.0128729,0.00758029,-0.0265181,-1.14294,0.020674,0.0139814,797,554,-1.57531,4.51566
-420,470,-1.57166,-4.77734,-0.0159657,0.00192748,-0.00958642,0.00609351,-0.0201317,-1.16084,0.0158478,0.0131149,804,554,-1.57168,4.77734
-413,470,-1.57739,-5.02948,-0.0117356,0.00184046,-0.00699757,0.00480145,-0.0146966,-1.1705,0.0117305,0.0132917,811,554,-1.5774,5.02949
-406,470,-1.59967,-5.26825,-0.00800973,0.0015962,-0.00488606,0.00364467,-0.0100582,-1.17381,0.00819511,0.0100746,818,554,-1.59967,5.26822
-399,470,-1.56195,-5.5462,-0.00483098,0.00121751,-0.0029375,0.00240931,-0.00602278,-1.18537,0.00501506,0.0132638,825,554,-1.56196,5.54618
-392,470,-1.56519,-5.79523,-0.00246449,0.000527071,-0.00144073,0.00110808,-0.0030455,-1.18747,0.00248351,0.0144728,832,554,-1.56521,5.79523
-385,470,-1.59265,-6.03339,-0.000766043,-0.000216086,-0.000271247,-0.000104816,-0.000877313,-1.18151,0.000553256,0.0109052,839,554,-1.59262,6.0334
-378,470,-1.57996,-6.2995,0.000476995,-0.0011485,0.000439062,0.000588008,-0.00125951,0.247652,0.0010899,0.0148774,846,554,-1.57997,6.29949
-371,470,-1.56104,-6.50775,0.00113094,-0.00212842,0.000997795,0.00141214,-0.00240961,0.274694,0.0022314,0.0128135,853,554,-1.56105,6.50777
-364,470,-1.58514,-6.73639,0.00158151,-0.00285205,0.00124088,0.00190518,-0.00317572,0.255155,0.00296387,0.013708,860,554,-1.58517,6.7364
-357,470,-1.62476,-6.99158,0.00236981,-0.00345756,0.00119619,0.0026058,-0.00369354,0.194781,0.00365496,0.0131986,867,554,-1.62473,6.99159
-350,470,-1.60944,-7.23322,0.00339659,-0.00401841,0.00100434,0.00353022,-0.00415203,0.132272,0.00444019,0.00958155,874,554,-1.60946,7.23324
-343,470,-1.52679,-7.50366,0.00449197,-0.00459439,0.000663968,0.00454024,-0.00464265,0.0725593,0.00530185,0.0223097,881,554,-1.5268,7.50364
-336,470,-1.6908,-7.70538,0.00565585,-0.00504951,0.000191116,0.00565926,-0.00505292,0.0178448,0.00618798,0.0347741,888,554,-1.69078,7.70536
-329,470,-1.69409,-7.8855,0.00701013,-0.00514596,-0.000593951,0.00703909,-0.00517491,-0.0487057,0.00707908,0.0424171,895,554,-1.69411,7.88547
-322,470,-1.37006,-8.14398,0,0,0,0,0,0,0,-1,902,554,-1.37004,8.14398
-315,470,-1.04797,-8.29529,0,0,0,0,0,0,0,-1,909,554,-1.04797,8.29526
-308,470,-1.39368,-6.68152,0,0,0,0,0,0,0,-1,916,554,-1.39369,6.68149
-301,470,-0.0340576,3.34888,0,0,0,0,0,0,0,-1,923,554,-0.0340496,-3.3489
-294,470,-1.18378,3.22266,0,0,0,0,0,0,0,-1,930,554,-1.18376,-3.22268
-287,470,-2.15454,3.2204,0,0,0,0,0,0,0,-1,937,554,-2.15452,-3.22037
-280,470,-3.00537,3.099,0,0,0,0,0,0,0,-1,944,554,-3.00536,-3.09898
-273,470,-10.7747,3.25928,0,0,0,0,0,0,0,-1,951,554,-10.7746,-3.2593
-266,470,-7.88147,0.0951538,0,0,0,0,0,0,0,-1,958,554,-7.88148,-0.0951677
-259,470,-5.11902,-3.29401,0,0,0,0,0,0,0,-1,965,554,-5.11899,3.294
-252,470,-0.144348,-5.13593,0,0,0,0,0,0,0,-1,972,554,-0.144336,5.13594
-245,470,1.33221,-6.81122,0,0,0,0,0,0,0,-1,979,554,1.33223,6.8112
-238,470,0,0,0,0,0,0,0,0,0,-1,986,554,0,0
-231,470,0,0,0,0,0,0,0,0,0,-1,993,554,0,0
-224,470,0,0,0,0,0,0,0,0,0,-1,1000,554,0,0
-217,470,0,0,0,0,0,0,0,0,0,-1,1007,554,0,0
-210,470,0,0,0,0,0,0,0,0,0,-1,1014,554,0,0
-203,470,0,0,0,0,0,0,0,0,0,-1,1021,554,0,0
-196,470,0,0,0,0,0,0,0,0,0,-1,1028,554,0,0
-189,470,0,0,0,0,0,0,0,0,0,-1,1035,554,0,0
-182,470,0,0,0,0,0,0,0,0,0,-1,1042,554,0,0
-175,470,0,0,0,0,0,0,0,0,0,-1,1049,554,0,0
-168,470,0,0,0,0,0,0,0,0,0,-1,1056,554,0,0
-161,470,0,0,0,0,0,0,0,0,0,-1,1063,554,0,0
-154,470,0,0,0,0,0,0,0,0,0,-1,1070,554,0,0
-147,470,0,0,0,0,0,0,0,0,0,-1,1077,554,0,0
-140,470,0,0,0,0,0,0,0,0,0,-1,1084,554,0,0
-133,470,0,0,0,0,0,0,0,0,0,-1,1091,554,0,0
-126,470,0,0,0,0,0,0,0,0,0,-1,1098,554,0,0
-119,470,0,0,0,0,0,0,0,0,0,-1,1105,554,0,0
-112,470,0,0,0,0,0,0,0,0,0,-1,1112,554,0,0
-105,470,0,0,0,0,0,0,0,0,0,-1,1119,554,0,0
-98,470,0,0,0,0,0,0,0,0,0,-1,1126,554,0,0
-91,470,0,0,0,0,0,0,0,0,0,-1,1133,554,0,0
-84,470,0,0,0,0,0,0,0,0,0,-1,1140,554,0,0
-77,470,0,0,0,0,0,0,0,0,0,-1,1147,554,0,0
-70,470,0,0,0,0,0,0,0,0,0,-1,1154,554,0,0
-63,470,0,0,0,0,0,0,0,0,0,-1,1161,554,0,0
-56,470,0,0,0,0,0,0,0,0,0,-1,1168,554,0,0
-49,470,0,0,0,0,0,0,0,0,0,-1,1175,554,0,0
-42,470,0,0,0,0,0,0,0,0,0,-1,1182,554,0,0
-35,470,0,0,0,0,0,0,0,0,0,-1,1189,554,0,0
-28,470,0,0,0,0,0,0,0,0,0,-1,1196,554,0,0
-21,470,0,0,0,0,0,0,0,0,0,-1,1203,554,0,0
-14,470,0,0,0,0,0,0,0,0,0,-1,1210,554,0,0
-7,470,0,0,0,0,0,0,0,0,0,-1,1217,554,0,0
0,470,0,0,0,0,0,0,0,0,0,-1,1224,554,0,0
7,470,0,0,0,0,0,0,0,0,0,-1,1231,554,0,0
14,470,0,0,0,0,0,0,0,0,0,-1,1238,554,0,0
21,470,0,0,0,0,0,0,0,0,0,-1,1245,554,0,0
28,470,0,0,0,0,0,0,0,0,0,-1,1252,554,0,0
35,470,0,0,0,0,0,0,0,0,0,-1,1259,554,0,0
42,470,0,0,0,0,0,0,0,0,0,-1,1266,554,0,0
49,470,0,0,0,0,0,0,0,0,0,-1,1273,554,0,0
56,470,0,0,0,0,0,0,0,0,0,-1,1280,554,0,0
63,470,0,0,0,0,0,0,0,0,0,-1,1287,554,0,0
70,470,0,0,0,0,0,0,0,0,0,-1,1294,554,0,0
77,470,0,0,0,0,0,0,0,0,0,-1,1301,554,0,0
84,470,0,0,0,0,0,0,0,0,0,-1,1308,554,0,0
91,470,0,0,0,0,0,0,0,0,0,-1,1315,554,0,0
98,470,0,0,0,0,0,0,0,0,0,-1,1322,554,0,0
105,470,0,0,0,0,0,0,0,0,0,-1,1329,554,0,0
112,470,0,0,0,0,0,0,0,0,0,-1,1336,554,0,0
119,470,0,0,0,0,0,0,0,0,0,-1,1343,554,0,0
126,470,0,0,0,0,0,0,0,0,0,-1,1350,554,0,0
133,470,0,0,0,0,0,0,0,0,0,-1,1357,554,0,0
140,470,0,0,0,0,0,0,0,0,0,-1,1364,554,0,0
147,470,0,0,0,0,0,0,0,0,0,-1,1371,554,0,0
154,470,0,0,0,0,0,0,0,0,0,-1,1378,554,0,0
161,470,0,0,0,0,0,0,0,0,0,-1,1385,554,0,0
168,470,0,0,0,0,0,0,0,0,0,-1,1392,554,0,0
175,470,0,0,0,0,0,0,0,0,0,-1,1399,554,0,0
182,470,0,0,0,0,0,0,0,0,0,-1,1406,554,0,0
189,470,0,0,0,0,0,0,0,0,0,-1,1413,554,0,0
196,470,0,0,0,0,0,0,0,0,0,-1,1420,554,0,0
203,470,0,0,0,0,0,0,0,0,0,-1,1427,554,0,0
210,470,0,0,0,0,0,0,0,0,0,-1,1434,554,0,0
217,470,0,0,0,0,0,0,0,0,0,-1,1441,554,0,0
224,470,0,0,0,0,0,0,0,0,0,-1,1448,554,0,0
231,470,0,0,0,0,0,0,0,0,0,-1,1455,554,0,0
238,470,0,0,0,0,0,0,0,0,0,-1,1462,554,0,0
245,470,0,0,0,0,0,0,0,0,0,-1,1469,554,0,0
252,470,0,0,0,0,0,0,0,0,0,-1,1476,554,0,0
259,470,0,0,0,0,0,0,0,0,0,-1,1483,554,0,0
266,470,0,0,0,0,0,0,0,0,0,-1,1490,554,0,0
273,470,0,0,0,0,0,0,0,0,0,-1,1497,554,0,0
280,470,0,0,0,0,0,0,0,0,0,-1,1504,554,0,0
287,470,0,0,0,0,0,0,0,0,0,-1,1511,554,0,0
294,470,0,0,0,0,0,0,0,0,0,-1,1518,554,0,0
301,470,0,0,0,0,0,0,0,0,0,-1,1525,554,0,0
308,470,0,0,0,0,0,0,0,0,0,-1,1532,554,0,0
315,470,0,0,0,0,0,0,0,0,0,-1,1539,554,0,0
322,470,0,0,0,0,0,0,0,0,0,-1,1546,554,0,0
329,470,0,0,0,0,0,0,0,0,0,-1,1553,554,0,0
336,470,0,0,0,0,0,0,0,0,0,-1,1560,554,0,0
343,470,0,0,0,0,0,0,0,0,0,-1,1567,554,0,0
350,470,0,0,0,0,0,0,0,0,0,-1,1574,554,0,0
357,470,0,0,0,0,0,0,0,0,0,-1,1581,554,0,0
364,470,1.33423,0.293335,0,0,0,0,0,0,0,-1,1588,554,1.33422,-0.293348
371,470,2.22498,-0.0305176,0,0,0,0,0,0,0,-1,1595,554,2.22494,0.0305046
378,470,6.27051,0.710083,0,0,0,0,0,0,0,-1,1602,554,6.27054,-0.710093
385,470,10.3657,1.47296,0,0,0,0,0,0,0,-1,1609,554,10.3657,-1.47299
392,470,15.3881,3.01935,0,0,0,0,0,0,0,-1,1616,554,15.388,-3.01937
399,470,18.4479,2.93793,0,0,0,0,0,0,0,-1,1623,554,18.4479,-2.93792
406,470,15.1896,1.36676,0,0,0,0,0,0,0,-1,1630,554,15.1896,-1.36679
413,470,6.55383,1.99207,0,0,0,0,0,0,0,-1,1637,554,6.5538,-1.99208
420,470,4.47095,0.845703,0,0,0,0,0,0,0,-1,1644,554,4.47098,-0.845718
427,470,3.51038,1.19684,0,0,0,0,0,0,0,-1,1651,554,3.51039,-1.19684
434,470,3.31775,-1.37427,0,0,0,0,0,0,0,-1,1658,554,3.31781,1.37426
441,470,2.55457,-2.05902,0,0,0,0,0,0,0,-1,1665,554,2.55461,2.05904
448,470,3.27258,-2.64032,0,0,0,0,0,0,0,-1,1672,554,3.27257,2.64029
455,470,7.9458,-6.63959,0,0,0,0,0,0,0,-1,1679,554,7.94576,6.63961
462,470,7.46313,-6.50403,0,0,0,0,0,0,0,-1,1686,554,7.46315,6.50402
469,470,7.29431,-6.22998,0,0,0,0,0,0,0,-1,1693,554,7.29428,6.22996
476,470,7.34741,-5.90424,0.000609089,0.00400414,0.000338784,0.00403762,0.000575613,1.4723,0.00252187,0.031144,1700,554,7.3474,5.90423
483,470,7.4137,-5.62384,0.00136582,0.00360682,0.000964035,0.00396446,0.00100819,1.21556,0.00237921,0.0148589,1707,554,7.41372,5.62387
490,470,7.401,-5.35931,0.00181998,0.00327091,0.00129638,0.00403101,0.00105988,1.04049,0.00241293,0.011903,1714,554,7.40097,5.35929
497,470,7.40979,-5.08685,0.00179547,0.00259251,0.00124666,0.0035028,0.00088519,0.9401,0.00210317,0.0127621,1721,554,7.40976,5.08682
504,470,7.43103,-4.82867,0.0015194,0.00199313,0.0010905,0.0028722,0.000640336,0.892339,0.00174106,0.0197682,1728,554,7.43099,4.82869
511,470,7.46851,-4.61359,0.00124742,0.00162964,0.00110703,0.00256194,0.000315126,0.870872,0.00161321,0.0261295,1735,554,7.46853,4.61361
518,470,7.49231,-4.36163,0.000761552,0.00132642,0.000964265,0.00204876,3.92095e-05,0.927864,0.00135296,0.0256098,1742,554,7.49227,4.36162
525,470,7.44104,-4.02179,0.000218802,0.00121428,0.000809425,0.00166676,-0.000233677,1.06106,0.00119669,0.0163186,1749,554,7.441,4.02177
532,470,7.39941,-3.71863,-0.000278237,0.00136404,0.000764159,0.0016646,-0.000578798,1.19606,0.00134484,0.0138523,1756,554,7.3994,3.71862
539,470,7.39355,-3.45691,-0.000670651,0.00166623,0.000799533,0.00191359,-0.000918017,1.27075,0.00166817,0.0154916,1763,554,7.39359,3.45689
546,470,7.39368,-3.18921,-0.00085319,0.00221954,0.00100347,0.00251821,-0.00115186,1.2815,0.00216732,0.0137712,1770,554,7.39368,3.18919
553,470,7.41052,-2.92615,-0.000970957,0.00281621,0.00118247,0.00315509,-0.00130984,1.29169,0.00265019,0.0117053,1777,554,7.41049,2.92612
560,470,7.4187,-2.63556,-0.000965554,0.00345354,0.00136315,0.00384019,-0.00135221,1.29441,0.00311044,0.0167147,1784,554,7.41865,2.63554
567,470,7.38379,-2.34845,-0.000740552,0.00395557,0.00155394,0.00442321,-0.00120818,1.27848,0.00342335,0.0202542,1791,554,7.38376,2.34842
574,470,7.33728,-2.32275,0,0,0,0,0,0,0,-1,1798,554,7.3373,2.32273
581,470,8.24646,-4.06317,0,0,0,0,0,0,0,-1,1805,554,8.24648,4.06318
588,470,11.1803,1.74927,0,0,0,0,0,0,0,-1,1812,554,11.1803,-1.74926
595,470,4.72192,3.44116,0,0,0,0,0,0,0,-1,1819,554,4.72191,-3.44116
602,470,14.4307,2.76141,0,0,0,0,0,0,0,-1,1826,554,14.4306,-2.76139
609,470,20.9181,4.41058,0,0,0,0,0,0,0,-1,1833,554,20.9181,-4.4106
616,470,0,0,0,0,0,0,0,0,0,-1,1840,554,0,0
623,470,0,0,0,0,0,0,0,0,0,-1,1847,554,0,0
630,470,0,0,0,0,0,0,0,0,0,-1,1854,554,0,0
637,470,0,0,0,0,0,0,0,0,0,-1,1861,554,0,0
644,470,0,0,0,0,0,0,0,0,0,-1,1868,554,0,0
651,470,0,0,0,0,0,0,0,0,0,-1,1875,554,0,0
658,470,0,0,0,0,0,0,0,0,0,-1,1882,554,0,0
665,470,0,0,0,0,0,0,0,0,0,-1,1889,554,0,0
672,470,0,0,0,0,0,0,0,0,0,-1,1896,554,0,0
679,470,0,0,0,0,0,0,0,0,0,-1,1903,554,0,0
686,470,0,0,0,0,0,0,0,0,0,-1,1910,554,0,0
693,470,0,0,0,0,0,0,0,0,0,-1,1917,554,0,0
700,470,0,0,0,0,0,0,0,0,0,-1,1924,554,0,0
707,470,0,0,0,0,0,0,0,0,0,-1,1931,554,0,0
714,470,0,0,0,0,0,0,0,0,0,-1,1938,554,0,0
721,470,0,0,0,0,0,0,0,0,0,-1,1945,554,0,0
728,470,0,0,0,0,0,0,0,0,0,-1,1952,554,0,0
735,470,0,0,0,0,0,0,0,0,0,-1,1959,554,0,0
742,470,0,0,0,0,0,0,0,0,0,-1,1966,554,0,0
749,470,0,0,0,0,0,0,0,0,0,-1,1973,554,0,0
756,470,0,0,0,0,0,0,0,0,0,-1,1980,554,0,0
763,470,0,0,0,0,0,0,0,0,0,-1,1987,554,0,0
770,470,0,0,0,0,0,0,0,0,0,-1,1994,554,0,0
777,470,0,0,0,0,0,0,0,0,0,-1,2001,554,0,0
784,470,0,0,0,0,0,0,0,0,0,-1,2008,554,0,0
791,470,0,0,0,0,0,0,0,0,0,-1,2015,554,0,0
798,470,0,0,0,0,0,0,0,0,0,-1,2022,554,0,0
805,470,0,0,0,0,0,0,0,0,0,-1,2029,554,0,0
812,470,0,0,0,0,0,0,0,0,0,-1,2036,554,0,0
-700,463,0,0,0,0,0,0,0,0,0,-1,524,561,0,0
-693,463,0,0,0,0,0,0,0,0,0,-1,531,561,0,0
-686,463,0,0,0,0,0,0,0,0,0,-1,538,561,0,0
-679,463,0,0,0,0,0,0,0,0,0,-1,545,561,0,0
-672,463,0,0,0,0,0,0,0,0,0,-1,552,561,0,0
-665,463,0,0,0,0,0,0,0,0,0,-1,559,561,0,0
-658,463,0,0,0,0,0,0,0,0,0,-1,566,561,0,0
-651,463,0,0,0,0,0,0,0,0,0,-1,573,561,0,0
-644,463,0,0,0,0,0,0,0,0,0,-1,580,561,0,0
-637,463,0,0,0,0,0,0,0,0,0,-1,587,561,0,0
-630,463,0,0,0,0,0,0,0,0,0,-1,594,561,0,0
-623,463,0,0,0,0,0,0,0,0,0,-1,601,561,0,0
-616,463,0,0,0,0,0,0,0,0,0,-1,608,561,0,0
-609,463,0,0,0,0,0,0,0,0,0,-1,615,561,0,0
-602,463,0,0,0,0,0,0,0,0,0,-1,622,561,0,0
-595,463,0,0,0,0,0,0,0,0,0,-1,629,561,0,0
-588,463,0,0,0,0,0,0,0,0,0,-1,636,561,0,0
-581,463,0,0,0,0,0,0,0,0,0,-1,643,561,0,0
-574,463,0,0,0,0,0,0,0,0,0,-1,650,561,0,0
-567,463,0,0,0,0,0,0,0,0,0,-1,657,561,0,0
-560,463,0,0,0,0,0,0,0,0,0,-1,664,561,0,0
-553,463,0,0,0,0,0,0,0,0,0,-1,671,561,0,0
-546,463,0,0,0,0,0,0,0,0,0,-1,678,561,0,0
-539,463,0,0,0,0,0,0,0,0,0,-1,685,561,0,0
-532,463,0,0,0,0,0,0,0,0,0,-1,692,561,0,0
-525,463,0,0,0,0,0,0,0,0,0,-1,699,561,0,0
-518,463,0,0,0,0,0,0,0,0,0,-1,706,561,0,0
-511,463,0,0,0,0,0,0,0,0,0,-1,713,561,0,0
-504,463,0,0,0,0,0,0,0,0,0,-1,720,561,0,0
-497,463,-9.81451,-1.67126,0,0,0,0,0,0,0,-1,727,561,-9.81452,1.67127
-490,463,-8.57043,-1.58942,0.193447,0.0866735,-0.0558152,0.217297,0.0628237,-0.403816,0.129122,0.0447905,734,561,-8.57045,1.58944
-483,463,-7.29224,-1.7226,0.145694,0.067182,-0.0505106,0.17041,0.0424665,-0.455061,0.102429,0.046547,741,561,-7.29226,1.72261
-476,463,-5.77704,-1.7312,0,0,0,0,0,0,0,-1,748,561,-5.77703,1.73121
-469,463,-5.14545,-2.138,0,0,0,0,0,0,0,-1,755,561,-5.14546,2.13799
-462,463,-3.13672,-3.07977,0,0,0,0,0,0,0,-1,762,561,-3.13672,3.07974
-455,463,-1.80798,-3.18799,0,0,0,0,0,0,0,-1,769,561,-1.80798,3.18797
-448,463,-1.82813,-3.55914,0.00636717,0.0126595,-0.0223565,0.0320901,-0.0130635,-0.855302,0.0268298,0.0419516,776,561,-1.82811,3.55916
-441,463,-1.70087,-3.97003,-0.00244531,0.00864162,-0.0177382,0.0216824,-0.0154861,-0.936848,0.0215584,0.030307,783,561,-1.70088,3.97003
-434,463,-1.78723,-4.28009,-0.0103786,0.00467196,-0.0136363,0.0127216,-0.0184282,-1.03753,0.0180847,0.0140019,790,561,-1.78724,4.28006
-427,463,-1.80963,-4.52771,-0.0132179,0.0027105,-0.0101361,0.00763692,-0.0181443,-1.11839,0.0152913,0.0100428,797,561,-1.8096,4.5277
-420,463,-1.80017,-4.77478,-0.0105974,0.00243552,-0.00734804,0.00574037,-0.0139022,-1.14814,0.0116624,0.0103437,804,561,-1.80015,4.77481
-413,463,-1.81787,-5.02789,-0.00799982,0.00198734,-0.00518639,0.00419338,-0.0102059,-1.16863,0.00855157,0.00894592,811,561,-1.8179,5.02788
-406,463,-1.83795,-5.2782,-0.0055244,0.00146074,-0.00339872,0.0028415,-0.00690516,-1.18491,0.00578797,0.00798886,818,561,-1.83797,5.27817
-399,463,-1.8291,-5.5354,-0.00337291,0.000795431,-0.00172518,0.00141681,-0.00399429,-1.22508,0.00324008,0.00913138,825,561,-1.82913,5.53537
-392,463,-1.83478,-5.79089,-0.00176696,-0.000211607,-0.000360806,-0.000131984,-0.00184658,-1.3536,0.0011895,0.00951629,832,561,-1.83476,5.79089
-385,463,-1.83563,-6.04681,-0.000641775,-0.00122599,0.00078514,-9.61651e-05,-0.0017716,0.607309,0.00115035,0.0101681,839,561,-1.83566,6.04684
-378,463,-1.83313,-6.29907,0.000223665,-0.00237123,0.00152379,0.000927546,-0.00307511,0.432728,0.00241927,0.0110075,846,561,-1.8331,6.29909
-371,463,-1.82489,-6.54712,0.000729906,-0.00349283,0.00209814,0.00159513,-0.00435805,0.391128,0.00355832,0.0112141,853,561,-1.82488,6.5471
-364,463,-1.81183,-6.7655,0.00121196,-0.00452666,0.00245702,0.0021202,-0.0054349,0.354072,0.0044997,0.0147489,860,561,-1.8118,6.76552
-357,463,-1.83832,-6.99261,0.00215082,-0.00531018,0.00245702,0.00288726,-0.00604662,0.291209,0.00526439,0.0168636,867,561,-1.83834,6.9926
-350,463,-1.78577,-7.28149,0.00336214,-0.00611784,0.00230628,0.00389344,-0.00664914,0.226418,0.00615568,0.0183208,874,561,-1.78574,7.28152
-343,463,-1.65265,-7.40283,0.00475279,-0.00703682,0.00199499,0.00508123,-0.00736525,0.163166,0.0072262,0.0345653,881,561,-1.65264,7.40281
-336,463,-1.43213,-7.20355,0,0,0,0,0,0,0,-1,888,561,-1.43215,7.20353
-329,463,-1.4281,-7.91406,0,0,0,0,0,0,0,-1,895,561,-1.42811,7.91407
-322,463,-1.23309,-8.07733,0,0,0,0,0,0,0,-1,902,561,-1.23307,8.0773
-315,463,-0.944763,-5.96234,0,0,0,0,0,0,0,-1,909,561,-0.94479,5.96237
-308,463,-1.1535,-3.17889,0,0,0,0,0,0,0,-1,916,561,-1.15352,3.17889
-301,463,-1.50366,-3.15338,0,0,0,0,0,0,0,-1,923,561,-1.50364,3.15341
-294,463,-2.35889,-3.93463,0,0,0,0,0,0,0,-1,930,561,-2.35886,3.93465
-287,463,-2.80322,2.73999,0,0,0,0,0,0,0,-1,937,561,-2.80322,-2.74
-280,463,-12.1693,5.75903,0,0,0,0,0,0,0,-1,944,561,-12.1693,-5.75903
-273,463,-9.35687,2.61792,0,0,0,0,0,0,0,-1,951,561,-9.3569,-2.61791
-266,463,-6.67712,-0.441833,0,0,0,0,0,0,0,-1,958,561,-6.6771,0.441817
-259,463,-3.98285,-3.73212,0,0,0,0,0,0,0,-1,965,561,-3.98286,3.73209
-252,463,0,0,0,0,0,0,0,0,0,-1,972,561,0,0
-245,463,0,0,0,0,0,0,0,0,0,-1,979,561,0,0
-238,463,0,0,0,0,0,0,0,0,0,-1,986,561,0,0
-231,463,0,0,0,0,0,0,0,0,0,-1,993,561,0,0
-224,463,0,0,0,0,0,0,0,0,0,-1,1000,561,0,0
-217,463,0,0,0,0,0,0,0,0,0,-1,1007,561,0,0
-210,463,0,0,0,0,0,0,0,0,0,-1,1014,561,0,0
-203,463,0,0,0,0,0,0,0,0,0,-1,1021,561,0,0
-196,463,0,0,0,0,0,0,0,0,0,-1,1028,561,0,0
-189,463,0,0,0,0,0,0,0,0,0,-1,1035,561,0,0
-182,463,0,0,0,0,0,0,0,0,0,-1,1042,561,0,0
-175,463,0,0,0,0,0,0,0,0,0,-1,1049,561,0,0
-168,463,0,0,0,0,0,0,0,0,0,-1,1056,561,0,0
-161,463,0,0,0,0,0,0,0,0,0,-1,1063,561,0,0
-154,463,0,0,0,0,0,0,0,0,0,-1,1070,561,0,0
-147,463,0,0,0,0,0,0,0,0,0,-1,1077,561,0,0
-140,463,0,0,0,0,0,0,0,0,0,-1,1084,561,0,0
-133,463,0,0,0,0,0,0,0,0,0,-1,1091,561,0,0
-126,463,0,0,0,0,0,0,0,0,0,-1,1098,561,0,0
-119,463,0,0,0,0,0,0,0,0,0,-1,1105,561,0,0
-112,463,0,0,0,0,0,0,0,0,0,-1,1112,561,0,0
-105,463,0,0,0,0,0,0,0,0,0,-1,1119,561,0,0
-98,463,0,0,0,0,0,0,0,0,0,-1,1126,561,0,0
-91,463,0,0,0,0,0,0,0,0,0,-1,1133,561,0,0
-84,463,0,0,0,0,0,0,0,0,0,-1,1140,561,0,0
-77,463,0,0,0,0,0,0,0,0,0,-1,1147,561,0,0
-70,463,0,0,0,0,0,0,0,0,0,-1,1154,561,0,0
-63,463,0,0,0,0,0,0,0,0,0,-1,1161,561,0,0
-56,463,0,0,0,0,0,0,0,0,0,-1,1168,561,0,0
-49,463,0,0,0,0,0,0,0,0,0,-1,1175,561,0,0
-42,463,0,0,0,0,0,0,0,0,0,-1,1182,561,0,0
-35,463,0,0,0,0,0,0,0,0,0,-1,1189,561,0,0
-28,463,0,0,0,0,0,0,0,0,0,-1,1196,561,0,0
-21,463,0,0,0,0,0,0,0,0,0,-1,1203,561,0,0
-14,463,0,0,0,0,0,0,0,0,0,-1,1210,561,0,0
-7,463,0,0,0,0,0,0,0,0,0,-1,1217,561,0,0
0,463,0,0,0,0,0,0,0,0,0,-1,1224,561,0,0
7,463,0,0,0,0,0,0,0,0,0,-1,1231,561,0,0
14,463,0,0,0,0,0,0,0,0,0,-1,1238,561,0,0
21,463,0,0,0,0,0,0,0,0,0,-1,1245,561,0,0
28,463,0,0,0,0,0,0,0,0,0,-1,1252,561,0,0
35,463,0,0,0,0,0,0,0,0,0,-1,1259,561,0,0
42,463,0,0,0,0,0,0,0,0,0,-1,1266,561,0,0
49,463,0,0,0,0,0,0,0,0,0,-1,1273,561,0,0
56,463,0,0,0,0,0,0,0,0,0,-1,1280,561,0,0
63,463,0,0,0,0,0,0,0,0,0,-1,1287,561,0,0
70,463,0,0,0,0,0,0,0,0,0,-1,1294,561,0,0
77,463,0,0,0,0,0,0,0,0,0,-1,1301,561,0,0
84,463,0,0,0,0,0,0,0,0,0,-1,1308,561,0,0
91,463,0,0,0,0,0,0,0,0,0,-1,1315,561,0,0
98,463,0,0,0,0,0,0,0,0,0,-1,1322,561,0,0
105,463,0,0,0,0,0,0,0,0,0,-1,1329,561,0,0
112,463,0,0,0,0,0,0,0,0,0,-1,1336,561,0,0
119,463,0,0,0,0,0,0,0,0,0,-1,1343,561,0,0
126,463,0,0,0,0,0,0,0,0,0,-1,1350,561,0,0
133,463,0,0,0,0,0,0,0,0,0,-1,1357,561,0,0
140,463,0,0,0,0,0,0,0,0,0,-1,1364,561,0,0
147,463,0,0,0,0,0,0,0,0,0,-1,1371,561,0,0
154,463,0,0,0,0,0,0,0,0,0,-1,1378,561,0,0
161,463,0,0,0,0,0,0,0,0,0,-1,1385,561,0,0
168,463,0,0,0,0,0,0,0,0,0,-1,1392,561,0,0
175,463,0,0,0,0,0,0,0,0,0,-1,1399,561,0,0
182,463,0,0,0,0,0,0,0,0,0,-1,1406,561,0,0
189,463,0,0,0,0,0,0,0,0,0,-1,1413,561,0,0
196,463,0,0,0,0,0,0,0,0,0,-1,1420,561,0,0
203,463,0,0,0,0,0,0,0,0,0,-1,1427,561,0,0
210,463,0,0,0,0,0,0,0,0,0,-1,1434,561,0,0
217,463,0,0,0,0,0,0,0,0,0,-1,1441,561,0,0
224,463,0,0,0,0,0,0,0,0,0,-1,1448,561,0,0
231,463,0,0,0,0,0,0,0,0,0,-1,1455,561,0,0
238,463,0,0,0,0,0,0,0,0,0,-1,1462,561,0,0
245,463,0,0,0,0,0,0,0,0,0,-1,1469,561,0,0
252,463,0,0,0,0,0,0,0,0,0,-1,1476,561,0,0
259,463,0,0,0,0,0,0,0,0,0,-1,1483,561,0,0
266,463,0,0,0,0,0,0,0,0,0,-1,1490,561,0,0
273,463,0,0,0,0,0,0,0,0,0,-1,1497,561,0,0
280,463,0,0,0,0,0,0,0,0,0,-1,1504,561,0,0
287,463,0,0,0,0,0,0,0,0,0,-1,1511,561,0,0
294,463,0,0,0,0,0,0,0,0,0,-1,1518,561,0,0
301,463,0,0,0,0,0,0,0,0,0,-1,1525,561,0,0
308,463,0,0,0,0,0,0,0,0,0,-1,1532,561,0,0
315,463,0,0,0,0,0,0,0,0,0,-1,1539,561,0,0
322,463,0,0,0,0,0,0,0,0,0,-1,1546,561,0,0
329,463,0,0,0,0,0,0,0,0,0,-1,1553,561,0,0
336,463,0,0,0,0,0,0,0,0,0,-1,1560,561,0,0
343,463,0,0,0,0,0,0,0,0,0,-1,1567,561,0,0
350,463,0,0,0,0,0,0,0,0,0,-1,1574,561,0,0
357,463,0,0,0,0,0,0,0,0,0,-1,1581,561,0,0
364,463,0,0,0,0,0,0,0,0,0,-1,1588,561,0,0
371,463,1.75842,0.152588,0,0,0,0,0,0,0,-1,1595,561,1.75844,-0.152558
378,463,4.30493,0.169861,0,0,0,0,0,0,0,-1,1602,561,4.30489,-0.169877
385,463,8.49524,1.90533,0,0,0,0,0,0,0,-1,1609,561,8.49529,-1.90533
392,463,13.4452,2.6582,0,0,0,0,0,0,0,-1,1616,561,13.4452,-2.65821
399,463,19.6376,3.51965,0,0,0,0,0,0,0,-1,1623,561,19.6376,-3.51966
406,463,7.28088,1.38538,0,0,0,0,0,0,0,-1,1630,561,7.28091,-1.38537
413,463,8.05847,1.82239,0,0,0,0,0,0,0,-1,1637,561,8.05851,-1.82241
420,463,8.849,2.26611,0,0,0,0,0,0,0,-1,1644,561,8.84899,-2.26613
427,463,5.12207,1.69183,0,0,0,0,0,0,0,-1,1651,561,5.12206,-1.69184
434,463,4.59814,1.81995,0,0,0,0,0,0,0,-1,1658,561,4.59812,-1.81994
441,463,1.76392,-5.99225,0,0,0,0,0,0,0,-1,1665,561,1.7639,5.99225
448,463,2.49939,-4.30536,0,0,0,0,0,0,0,-1,1672,561,2.49941,4.30536
455,463,4.40295,-3.02557,0,0,0,0,0,0,0,-1,1679,561,4.40299,3.02558
462,463,5.38293,-4.06445,0,0,0,0,0,0,0,-1,1686,561,5.38289,4.06444
469,463,5.94373,-4.50647,0,0,0,0,0,0,0,-1,1693,561,5.94368,4.50646
476,463,7.49036,-6.17603,0,0,0,0,0,0,0,-1,1700,561,7.4904,6.17602
483,463,7.52698,-5.82684,0.00211802,0.00449401,0.00174386,0.00541607,0.00119595,1.08441,0.00328544,0.040023,1707,561,7.52695,5.82686
490,463,7.65796,-5.39685,0.00265265,0.00416973,0.00203322,0.0055813,0.00124108,0.963938,0.0033839,0.0199416,1714,561,7.658,5.39688
497,463,7.677,-5.08331,0.00260038,0.00338846,0.00187242,0.00490785,0.00108099,0.889107,0.00297771,0.012656,1721,561,7.67694,5.08329
504,463,7.69202,-4.81073,0.00222283,0.00251293,0.00151935,0.00389414,0.000841626,0.832988,0.00236599,0.0159546,1728,561,7.69196,4.81075
511,463,7.70508,-4.54956,0.00192647,0.00203095,0.00146938,0.00344902,0.000508403,0.803167,0.00215001,0.0225524,1735,561,7.70512,4.54957
518,463,7.74976,-4.30951,0.00140827,0.00160941,0.00124394,0.00275685,0.00026084,0.825734,0.00175742,0.0235554,1742,561,7.7497,4.30952
525,463,7.70032,-4.01874,0.000829916,0.00138482,0.00101122,0.00215596,5.87746e-05,0.919289,0.00141812,0.0193279,1749,561,7.70027,4.01875
532,463,7.70801,-3.73035,0.00029109,0.00135884,0.000847242,0.00182638,-0.000176455,1.06654,0.00128047,0.0163482,1756,561,7.70801,3.73036
539,463,7.69177,-3.42822,-0.000159581,0.00138617,0.000714229,0.00166565,-0.000439065,1.1978,0.0012821,0.0162315,1763,561,7.6918,3.42822
546,463,7.66504,-3.18964,-0.000392446,0.00164881,0.000746983,0.00189296,-0.000636596,1.25489,0.0015193,0.0128861,1770,561,7.66499,3.18965
553,463,7.66577,-2.89929,-0.000557098,0.00186356,0.000738754,0.00207121,-0.000764744,1.29679,0.00169426,0.0106659,1777,561,7.66578,2.89928
560,463,7.69287,-2.58618,-0.000630042,0.00207921,0.000711547,0.00225472,-0.000805551,1.32897,0.00183169,0.0123536,1784,561,7.69291,2.58616
567,463,7.64514,-2.34766,-0.000522726,0.00213177,0.000683757,0.00229754,-0.000688499,1.33294,0.00180549,0.018633,1791,561,7.64516,2.34767
574,463,7.59998,-2.2843,-0.000287848,0.00195096,0.000621726,0.00211203,-0.000448916,1.3173,0.00157907,0.0492472,1798,561,7.59997,2.2843
581,463,7.77832,-2.18085,0,0,0,0,0,0,0,-1,1805,561,7.77828,2.18082
588,463,1.97424,2.16016,0,0,0,0,0,0,0,-1,1812,561,1.97422,-2.16013
595,463,9.98657,2.99854,0,0,0,0,0,0,0,-1,1819,561,9.98662,-2.99856
602,463,17.2202,4.91302,0,0,0,0,0,0,0,-1,1826,561,17.2202,-4.91305
609,463,17.96,4.03131,0,0,0,0,0,0,0,-1,1833,561,17.96,-4.03132
616,463,20.8352,3.15131,0,0,0,0,0,0,0,-1,1840,561,20.8352,-3.1513
623,463,0,0,0,0,0,0,0,0,0,-1,1847,561,0,0
630,463,0,0,0,0,0,0,0,0,0,-1,1854,561,0,0
637,463,0,0,0,0,0,0,0,0,0,-1,1861,561,0,0
644,463,0,0,0,0,0,0,0,0,0,-1,1868,561,0,0
651,463,0,0,0,0,0,0,0,0,0,-1,1875,561,0,0
658,463,0,0,0,0,0,0,0,0,0,-1,1882,561,0,0
665,463,0,0,0,0,0,0,0,0,0,-1,1889,561,0,0
672,463,0,0,0,0,0,0,0,0,0,-1,1896,561,0,0
679,463,0,0,0,0,0,0,0,0,0,-1,1903,561,0,0
686,463,0,0,0,0,0,0,0,0,0,-1,1910,561,0,0
693,463,0,0,0,0,0,0,0,0,0,-1,1917,561,0,0
700,463,0,0,0,0,0,0,0,0,0,-1,1924,561,0,0
707,463,0,0,0,0,0,0,0,0,0,-1,1931,561,0,0
714,463,0,0,0,0,0,0,0,0,0,-1,1938,561,0,0
721,463,0,0,0,0,0,0,0,0,0,-1,1945,561,0,0
728,463,0,0,0,0,0,0,0,0,0,-1,1952,561,0,0
735,463,0,0,0,0,0,0,0,0,0,-1,1959,561,0,0
742,463,0,0,0,0,0,0,0,0,0,-1,1966,561,0,0
749,463,0,0,0,0,0,0,0,0,0,-1,1973,561,0,0
756,463,0,0,0,0,0,0,0,0,0,-1,1980,561,0,0
763,463,0,0,0,0,0,0,0,0,0,-1,1987,561,0,0
770,463,0,0,0,0,0,0,0,0,0,-1,1994,561,0,0
777,463,0,0,0,0,0,0,0,0,0,-1,2001,561,0,0
784,463,0,0,0,0,0,0,0,0,0,-1,2008,561,0,0
791,463,0,0,0,0,0,0,0,0,0,-1,2015,561,0,0
798,463,0,0,0,0,0,0,0,0,0,-1,2022,561,0,0
805,463,0,0,0,0,0,0,0,0,0,-1,2029,561,0,0
812,463,0,0,0,0,0,0,0,0,0,-1,2036,561,0,0
-700,456,0,0,0,0,0,0,0,0,0,-1,524,568,0,0
-693,456,0,0,0,0,0,0,0,0,0,-1,531,568,0,0
-686,456,0,0,0,0,0,0,0,0,0,-1,538,568,0,0
-679,456,0,0,0,0,0,0,0,0,0,-1,545,568,0,0
-672,456,0,0,0,0,0,0,0,0,0,-1,552,568,0,0
-665,456,0,0,0,0,0,0,0,0,0,-1,559,568,0,0
-658,456,0,0,0,0,0,0,0,0,0,-1,566,568,0,0
-651,456,0,0,0,0,0,0,0,0,0,-1,573,568,0,0
-644,456,0,0,0,0,0,0,0,0,0,-1,580,568,0,0
-637,456,0,0,0,0,0,0,0,0,0,-1,587,568,0,0
-630,456,0,0,0,0,0,0,0,0,0,-1,594,568,0,0
-623,456,0,0,0,0,0,0,0,0,0,-1,601,568,0,0
-616,456,0,0,0,0,0,0,0,0,0,-1,608,568,0,0
-609,456,0,0,0,0,0,0,0,0,0,-1,615,568,0,0
-602,456,0,0,0,0,0,0,0,0,0,-1,622,568,0,0
-595,456,0,0,0,0,0,0,0,0,0,-1,629,568,0,0
-588,456,0,0,0,0,0,0,0,0,0,-1,636,568,0,0
-581,456,0,0,0,0,0,0,0,0,0,-1,643,568,0,0
-574,456,0,0,0,0,0,0,0,0,0,-1,650,568,0,0
-567,456,0,0,0,0,0,0,0,0,0,-1,657,568,0,0
-560,456,0,0,0,0,0,0,0,0,0,-1,664,568,0,0
-553,456,0,0,0,0,0,0,0,0,0,-1,671,568,0,0
-546,456,0,0,0,0,0,0,0,0,0,-1,678,568,0,0
-539,456,0,0,0,0,0,0,0,0,0,-1,685,568,0,0
-532,456,0,0,0,0,0,0,0,0,0,-1,692,568,0,0
-525,456,0,0,0,0,0,0,0,0,0,-1,699,568,0,0
-518,456,0,0,0,0,0,0,0,0,0,-1,706,568,0,0
-511,456,0,0,0,0,0,0,0,0,0,-1,713,568,0,0
-504,456,-10.3994,-2.34839,0,0,0,0,0,0,0,-1,720,568,-10.3994,2.3484
-497,456,-9.21375,-2.38068,0,0,0,0,0,0,0,-1,727,568,-9.21372,2.38069
-490,456,-8.09058,-2.31824,0.166407,0.0656279,-0.0438879,0.18284,0.0491948,-0.358273,0.109251,0.0498452,734,568,-8.09057,2.31821
-483,456,-6.66119,-2.24329,0.131582,0.0549636,-0.0412881,0.149596,0.0369496,-0.411401,0.0899798,0.0469189,741,568,-6.66121,2.24331
-476,456,-5.1499,-2.21185,0,0,0,0,0,0,0,-1,748,568,-5.14992,2.21184
-469,456,-2.81238,-3.51501,0,0,0,0,0,0,0,-1,755,568,-2.81237,3.51501
-462,456,-2.53406,-3.711,0,0,0,0,0,0,0,-1,762,568,-2.53405,3.71102
-455,456,-1.93585,-3.18402,0,0,0,0,0,0,0,-1,769,568,-1.93587,3.18403
-448,456,-1.94293,-3.60663,0.0150138,0.0136609,-0.0186477,0.0329973,-0.00432264,-0.767268,0.0235716,0.0353246,776,568,-1.94296,3.6066
-441,456,-2.01941,-3.99982,0.00629824,0.00982269,-0.0146643,0.0228302,-0.0067093,-0.845197,0.0178812,0.0154862,783,568,-2.0194,3.99982
-434,456,-2.06506,-4.28625,-0.00172794,0.00588563,-0.0110583,0.0137741,-0.00961638,-0.951168,0.0135754,0.00950969,790,568,-2.06504,4.28623
-427,456,-2.06128,-4.526,-0.00557949,0.00371934,-0.00800612,0.00832817,-0.0101883,-1.04846,0.0107085,0.0084516,797,568,-2.06126,4.52602
-420,456,-2.06299,-4.77069,-0.00490386,0.00294131,-0.0055437,0.00580984,-0.00777239,-1.09329,0.00786894,0.00869847,804,568,-2.06299,4.77069
-413,456,-2.07379,-5.02417,-0.00390935,0.00209623,-0.00366222,0.00382932,-0.00564245,-1.12879,0.00550183,0.00784655,811,568,-2.07381,5.02417
-406,456,-2.08441,-5.27399,-0.00275776,0.00122513,-0.00207712,0.00211124,-0.00364387,-1.16757,0.00336175,0.00802477,818,568,-2.08438,5.27396
-399,456,-2.0882,-5.52203,-0.00175492,0.00020452,-0.000557347,0.000351959,-0.00190236,-1.31218,0.00140038,0.00929998,825,568,-2.08817,5.52201
-392,456,-2.08002,-5.77905,-0.00105465,-0.00119283,0.000773766,-0.000346897,-0.00190058,0.740871,0.00116871,0.00874166,832,568,-2.08,5.77904
-385,456,-2.07056,-6.02673,-0.000639293,-0.00256741,0.00199429,0.000611737,-0.00381844,0.560255,0.00277213,0.00898523,839,568,-2.07058,6.02673
-378,456,-2.07764,-6.28571,-0.000253093,-0.00403514,0.00287422,0.0012964,-0.00558463,0.494435,0.00422209,0.0102801,846,568,-2.07765,6.28569
-371,456,-2.08405,-6.55011,6.10666e-05,-0.00539753,0.00358716,0.00183918,-0.00717565,0.460193,0.0055003,0.0116767,853,568,-2.08404,6.55008
-364,456,-2.04529,-6.7735,0.000563475,-0.0068256,0.00419013,0.00245524,-0.00871737,0.424085,0.00677984,0.0161519,860,568,-2.04528,6.77349
-357,456,-2.00702,-7.03265,0.001639,-0.00790106,0.00435393,0.00332729,-0.00958935,0.369912,0.00774405,0.0184967,867,568,-2.007,7.03267
-350,456,-1.86273,-7.1698,0.00303261,-0.00900942,0.00429535,0.00440772,-0.0103845,0.309829,0.0087696,0.034916,874,568,-1.86276,7.16979
-343,456,-1.74707,-7.08765,0.00471408,-0.0102814,0.00409735,0.0057606,-0.0113279,0.250067,0.0100391,0.0423999,881,568,-1.74708,7.08765
-336,456,-1.38287,-6.75812,0,0,0,0,0,0,0,-1,888,568,-1.38286,6.75812
-329,456,-1.09528,-6.57825,0,0,0,0,0,0,0,-1,895,568,-1.09528,6.57822
-322,456,-0.662537,-7.66632,0,0,0,0,0,0,0,-1,902,568,-0.662564,7.66633
-315,456,-0.675476,-3.38397,0,0,0,0,0,0,0,-1,909,568,-0.675473,3.38399
-308,456,-1.1618,-3.15314,0,0,0,0,0,0,0,-1,916,568,-1.16178,3.15314
-301,456,-1.83551,-3.26447,0,0,0,0,0,0,0,-1,923,568,-1.8355,3.26449
-294,456,-2.93414,-3.35449,0,0,0,0,0,0,0,-1,930,568,-2.93413,3.35451
-287,456,-3.7569,-3.53101,0,0,0,0,0,0,0,-1,937,568,-3.75692,3.53101
-280,456,-3.58478,1.37744,0,0,0,0,0,0,0,-1,944,568,-3.58476,-1.37746
-273,456,-7.93915,1.9765,0,0,0,0,0,0,0,-1,951,568,-7.93916,-1.97652
-266,456,-5.47864,-0.988281,0,0,0,0,0,0,0,-1,958,568,-5.47862,0.988297
-259,456,0,0,0,0,0,0,0,0,0,-1,965,568,0,0
-252,456,0,0,0,0,0,0,0,0,0,-1,972,568,0,0
-245,456,0,0,0,0,0,0,0,0,0,-1,979,568,0,0
-238,456,0,0,0,0,0,0,0,0,0,-1,986,568,0,0
-231,456,0,0,0,0,0,0,0,0,0,-1,993,568,0,0
-224,456,0,0,0,0,0,0,0,0,0,-1,1000,568,0,0
-217,456,0,0,0,0,0,0,0,0,0,-1,1007,568,0,0
-210,456,0,0,0,0,0,0,0,0,0,-1,1014,568,0,0
-203,456,0,0,0,0,0,0,0,0,0,-1,1021,568,0,0
-196,456,0,0,0,0,0,0,0,0,0,-1,1028,568,0,0
-189,456,0,0,0,0,0,0,0,0,0,-1,1035,568,0,0
-182,456,0,0,0,0,0,0,0,0,0,-1,1042,568,0,0
-175,456,0,0,0,0,0,0,0,0,0,-1,1049,568,0,0
-168,456,0,0,0,0,0,0,0,0,0,-1,1056,568,0,0
-161,456,0,0,0,0,0,0,0,0,0,-1,1063,568,0,0
-154,456,0,0,0,0,0,0,0,0,0,-1,1070,568,0,0
-147,456,0,0,0,0,0,0,0,0,0,-1,1077,568,0,0
-140,456,0,0,0,0,0,0,0,0,0,-1,1084,568,0,0
-133,456,0,0,0,0,0,0,0,0,0,-1,1091,568,0,0
-126,456,0,0,0,0,0,0,0,0,0,-1,1098,568,0,0
-119,456,0,0,0,0,0,0,0,0,0,-1,1105,568,0,0
-112,456,0,0,0,0,0,0,0,0,0,-1,1112,568,0,0
-105,456,0,0,0,0,0,0,0,0,0,-1,1119,568,0,0
-98,456,0,0,0,0,0,0,0,0,0,-1,1126,568,0,0
-91,456,0,0,0,0,0,0,0,0,0,-1,1133,568,0,0
-84,456,0,0,0,0,0,0,0,0,0,-1,1140,568,0,0
-77,456,0,0,0,0,0,0,0,0,0,-1,1147,568,0,0
-70,456,0,0,0,0,0,0,0,0,0,-1,1154,568,0,0
-63,456,0,0,0,0,0,0,0,0,0,-1,1161,568,0,0
-56,456,0,0,0,0,0,0,0,0,0,-1,1168,568,0,0
-49,456,0,0,0,0,0,0,0,0,0,-1,1175,568,0,0
-42,456,0,0,0,0,0,0,0,0,0,-1,1182,568,0,0
-35,456,0,0,0,0,0,0,0,0,0,-1,1189,568,0,0
-28,456,0,0,0,0,0,0,0,0,0,-1,1196,568,0,0
-21,456,0,0,0,0,0,0,0,0,0,-1,1203,568,0,0
-14,456,0,0,0,0,0,0,0,0,0,-1,1210,568,0,0
-7,456,0,0,0,0,0,0,0,0,0,-1,1217,568,0,0
0,456,0,0,0,0,0,0,0,0,0,-1,1224,568,0,0
7,456,0,0,0,0,0,0,0,0,0,-1,1231,568,0,0
14,456,0,0,0,0,0,0,0,0,0,-1,1238,568,0,0
21,456,0,0,0,0,0,0,0,0,0,-1,1245,568,0,0
28,456,0,0,0,0,0,0,0,0,0,-1,1252,568,0,0
35,456,0,0,0,0,0,0,0,0,0,-1,1259,568,0,0
42,456,0,0,0,0,0,0,0,0,0,-1,1266,568,0,0
49,456,0,0,0,0,0,0,0,0,0,-1,1273,568,0,0
56,456,0,0,0,0,0,0,0,0,0,-1,1280,568,0,0
63,456,0,0,0,0,0,0,0,0,0,-1,1287,568,0,0
70,456,0,0,0,0,0,0,0,0,0,-1,1294,568,0,0
77,456,0,0,0,0,0,0,0,0,0,-1,1301,568,0,0
84,456,0,0,0,0,0,0,0,0,0,-1,1308,568,0,0
91,456,0,0,0,0,0,0,0,0,0,-1,1315,568,0,0
98,456,0,0,0,0,0,0,0,0,0,-1,1322,568,0,0
105,456,0,0,0,0,0,0,0,0,0,-1,1329,568,0,0
112,456,0,0,0,0,0,0,0,0,0,-1,1336,568,0,0
119,456,0,0,0,0,0,0,0,0,0,-1,1343,568,0,0
126,456,0,0,0,0,0,0,0,0,0,-1,1350,568,0,0
133,456,0,0,0,0,0,0,0,0,0,-1,1357,568,0,0
140,456,0,0,0,0,0,0,0,0,0,-1,1364,568,0,0
147,456,0,0,0,0,0,0,0,0,0,-1,1371,568,0,0
154,456,0,0,0,0,0,0,0,0,0,-1,1378,568,0,0
161,456,0,0,0,0,0,0,0,0,0,-1,1385,568,0,0
168,456,0,0,0,0,0,0,0,0,0,-1,1392,568,0,0
175,456,0,0,0,0,0,0,0,0,0,-1,1399,568,0,0
182,456,0,0,0,0,0,0,0,0,0,-1,1406,568,0,0
189,456,0,0,0,0,0,0,0,0,0,-1,1413,568,0,0
196,456,0,0,0,0,0,0,0,0,0,-1,1420,568,0,0
203,456,0,0,0,0,0,0,0,0,0,-1,1427,568,0,0
210,456,0,0,0,0,0,0,0,0,0,-1,1434,568,0,0
217,456,0,0,0,0,0,0,0,0,0,-1,1441,568,0,0
224,456,0,0,0,0,0,0,0,0,0,-1,1448,568,0,0
231,456,0,0,0,0,0,0,0,0,0,-1,1455,568,0,0
238,456,0,0,0,0,0,0,0,0,0,-1,1462,568,0,0
245,456,0,0,0,0,0,0,0,0,0,-1,1469,568,0,0
252,456,0,0,0,0,0,0,0,0,0,-1,1476,568,0,0
259,456,0,0,0,0,0,0,0,0,0,-1,1483,568,0,0
266,456,0,0,0,0,0,0,0,0,0,-1,1490,568,0,0
273,456,0,0,0,0,0,0,0,0,0,-1,1497,568,0,0
280,456,0,0,0,0,0,0,0,0,0,-1,1504,568,0,0
287,456,0,0,0,0,0,0,0,0,0,-1,1511,568,0,0
294,456,0,0,0,0,0,0,0,0,0,-1,1518,568,0,0
301,456,0,0,0,0,0,0,0,0,0,-1,1525,568,0,0
308,456,0,0,0,0,0,0,0,0,0,-1,1532,568,0,0
315,456,0,0,0,0,0,0,0,0,0,-1,1539,568,0,0
322,456,0,0,0,0,0,0,0,0,0,-1,1546,568,0,0
329,456,0,0,0,0,0,0,0,0,0,-1,1553,568,0,0
336,456,0,0,0,0,0,0,0,0,0,-1,1560,568,0,0
343,456,0,0,0,0,0,0,0,0,0,-1,1567,568,0,0
350,456,0,0,0,0,0,0,0,0,0,-1,1574,568,0,0
357,456,0,0,0,0,0,0,0,0,0,-1,1581,568,0,0
364,456,0,0,0,0,0,0,0,0,0,-1,1588,568,0,0
371,456,0,0,0,0,0,0,0,0,0,-1,1595,568,0,0
378,456,0,0,0,0,0,0,0,0,0,-1,1602,568,0,0
385,456,5.66284,0.660645,0,0,0,0,0,0,0,-1,1609,568,5.66285,-0.660615
392,456,15.1713,4.17755,0,0,0,0,0,0,0,-1,1616,568,15.1713,-4.17755
399,456,18.0848,4.00708,0,0,0,0,0,0,0,-1,1623,568,18.0848,-4.00706
406,456,20.4451,3.73621,0,0,0,0,0,0,0,-1,1630,568,20.445,-3.73619
413,456,9.55115,1.49933,0,0,0,0,0,0,0,-1,1637,568,9.55119,-1.49933
420,456,6.33875,1.88824,0,0,0,0,0,0,0,-1,1644,568,6.33876,-1.88827
427,456,6.21375,2.02905,0,0,0,0,0,0,0,-1,1651,568,6.21372,-2.02904
434,456,3.0719,-4.86285,0,0,0,0,0,0,0,-1,1658,568,3.07184,4.86287
441,456,2.90344,-4.70459,0,0,0,0,0,0,0,-1,1665,568,2.90346,4.7046
448,456,3.06995,-4.93689,0,0,0,0,0,0,0,-1,1672,568,3.06991,4.93687
455,456,3.46582,-3.43701,0,0,0,0,0,0,0,-1,1679,568,3.46585,3.43698
462,456,4.68445,-4.45831,0,0,0,0,0,0,0,-1,1686,568,4.68439,4.45833
469,456,4.93201,-2.289,0,0,0,0,0,0,0,-1,1693,568,4.93197,2.28903
476,456,4.8363,-2.79364,0,0,0,0,0,0,0,-1,1700,568,4.83636,2.79363
483,456,7.50061,-6.24255,0,0,0,0,0,0,0,-1,1707,568,7.50058,6.24253
490,456,8.01221,-5.63007,0,0,0,0,0,0,0,-1,1714,568,8.01223,5.63004
497,456,7.98267,-5.1781,0.00354015,0.00424829,0.00258899,0.00650731,0.00128113,0.853356,0.00398049,0.0372521,1721,568,7.98267,5.17811
504,456,7.93958,-4.84332,0.00301425,0.00302053,0.00200045,0.00501785,0.00101693,0.786182,0.00306305,0.0109447,1728,568,7.93955,4.84335
511,456,7.94373,-4.57544,0.0026639,0.00236731,0.00185652,0.00437804,0.00065317,0.745544,0.00272717,0.0132924,1735,568,7.94373,4.57543
518,456,7.95471,-4.29504,0.00209433,0.00180842,0.00154235,0.00350034,0.000402414,0.739188,0.00221166,0.0151321,1742,568,7.95475,4.29502
525,456,7.95789,-4.0354,0.00146495,0.00148459,0.00124218,0.00271699,0.000232557,0.78935,0.001739,0.0156041,1749,568,7.95783,4.0354
532,456,7.9696,-3.72791,0.000878109,0.00131184,0.000978942,0.00209765,9.22995e-05,0.894403,0.00136871,0.0157162,1756,568,7.9696,3.72788
539,456,7.96802,-3.41052,0.000370437,0.00113675,0.000716558,0.00156616,-5.89727e-05,1.03092,0.00106431,0.0188832,1763,568,7.96797,3.41051
546,456,7.92432,-3.14075,8.32976e-05,0.0011965,0.000623732,0.00147587,-0.000196071,1.14969,0.00105536,0.0211465,1770,568,7.92436,3.14073
553,456,7.91516,-2.86591,-0.000128942,0.00116897,0.00050276,0.00134094,-0.000300907,1.24123,0.00100932,0.0131886,1777,568,7.91522,2.86593
560,456,7.94458,-2.61755,-0.000268307,0.00113632,0.000370582,0.00122809,-0.000360082,1.32803,0.000961499,0.00975513,1784,568,7.94462,2.61757
567,456,7.96765,-2.34253,-0.000245304,0.000995165,0.000272404,0.00105235,-0.000302487,1.36388,0.00082118,0.0138933,1791,568,7.9677,2.34251
574,456,7.94189,-2.20605,-8.58038e-05,0.000637671,0.000157291,0.000670388,-0.000118521,1.36572,0.000491222,0.0384645,1798,568,7.94185,2.20605
581,456,7.98267,-2.04407,0,0,0,0,0,0,0,-1,1805,568,7.98269,2.04407
588,456,5.23901,-0.0901489,0,0,0,0,0,0,0,-1,1812,568,5.23906,0.0901656
595,456,6.90063,3.14886,0,0,0,0,0,0,0,-1,1819,568,6.90066,-3.14887
602,456,15.5463,4.13153,0,0,0,0,0,0,0,-1,1826,568,15.5462,-4.13155
609,456,14.9966,3.5708,0,0,0,0,0,0,0,-1,1833,568,14.9966,-3.57083
616,456,17.7407,2.6579,0,0,0,0,0,0,0,-1,1840,568,17.7408,-2.6579
623,456,20.6838,1.7121,0,0,0,0,0,0,0,-1,1847,568,20.6838,-1.71208
630,456,0,0,0,0,0,0,0,0,0,-1,1854,568,0,0
637,456,0,0,0,0,0,0,0,0,0,-1,1861,568,0,0
644,456,0,0,0,0,0,0,0,0,0,-1,1868,568,0,0
651,456,0,0,0,0,0,0,0,0,0,-1,1875,568,0,0
658,456,0,0,0,0,0,0,0,0,0,-1,1882,568,0,0
665,456,0,0,0,0,0,0,0,0,0,-1,1889,568,0,0
672,456,0,0,0,0,0,0,0,0,0,-1,1896,568,0,0
679,456,0,0,0,0,0,0,0,0,0,-1,1903,568,0,0
686,456,0,0,0,0,0,0,0,0,0,-1,1910,568,0,0
693,456,0,0,0,0,0,0,0,0,0,-1,1917,568,0,0
700,456,0,0,0,0,0,0,0,0,0,-1,1924,568,0,0
707,456,0,0,0,0,0,0,0,0,0,-1,1931,568,0,0
714,456,0,0,0,0,0,0,0,0,0,-1,1938,568,0,0
721,456,0,0,0,0,0,0,0,0,0,-1,1945,568,0,0
728,456,0,0,0,0,0,0,0,0,0,-1,1952,568,0,0
735,456,0,0,0,0,0,0,0,0,0,-1,1959,568,0,0
742,456,0,0,0,0,0,0,0,0,0,-1,1966,568,0,0
749,456,0,0,0,0,0,0,0,0,0,-1,1973,568,0,0
756,456,0,0,0,0,0,0,0,0,0,-1,1980,568,0,0
763,456,0,0,0,0,0,0,0,0,0,-1,1987,568,0,0
770,456,0,0,0,0,0,0,0,0,0,-1,1994,568,0,0
777,456,0,0,0,0,0,0,0,0,0,-1,2001,568,0,0
784,456,0,0,0,0,0,0,0,0,0,-1,2008,568,0,0
791,456,0,0,0,0,0,0,0,0,0,-1,2015,568,0,0
798,456,0,0,0,0,0,0,0,0,0,-1,2022,568,0,0
805,456,0,0,0,0,0,0,0,0,0,-1,2029,568,0,0
812,456,0,0,0,0,0,0,0,0,0,-1,2036,568,0,0
-700,449,0,0,0,0,0,0,0,0,0,-1,524,575,0,0
-693,449,0,0,0,0,0,0,0,0,0,-1,531,575,0,0
-686,449,0,0,0,0,0,0,0,0,0,-1,538,575,0,0
-679,449,0,0,0,0,0,0,0,0,0,-1,545,575,0,0
-672,449,0,0,0,0,0,0,0,0,0,-1,552,575,0,0
-665,449,0,0,0,0,0,0,0,0,0,-1,559,575,0,0
-658,449,0,0,0,0,0,0,0,0,0,-1,566,575,0,0
-651,449,0,0,0,0,0,0,0,0,0,-1,573,575,0,0
-644,449,0,0,0,0,0,0,0,0,0,-1,580,575,0,0
-637,449,0,0,0,0,0,0,0,0,0,-1,587,575,0,0
-630,449,0,0,0,0,0,0,0,0,0,-1,594,575,0,0
-623,449,0,0,0,0,0,0,0,0,0,-1,601,575,0,0
-616,449,0,0,0,0,0,0,0,0,0,-1,608,575,0,0
-609,449,0,0,0,0,0,0,0,0,0,-1,615,575,0,0
-602,449,0,0,0,0,0,0,0,0,0,-1,622,575,0,0
-595,449,0,0,0,0,0,0,0,0,0,-1,629,575,0,0
-588,449,0,0,0,0,0,0,0,0,0,-1,636,575,0,0
-581,449,0,0,0,0,0,0,0,0,0,-1,643,575,0,0
-574,449,0,0,0,0,0,0,0,0,0,-1,650,575,0,0
-567,449,0,0,0,0,0,0,0,0,0,-1,657,575,0,0
-560,449,0,0,0,0,0,0,0,0,0,-1,664,575,0,0
-553,449,0,0,0,0,0,0,0,0,0,-1,671,575,0,0
-546,449,0,0,0,0,0,0,0,0,0,-1,678,575,0,0
-539,449,0,0,0,0,0,0,0,0,0,-1,685,575,0,0
-532,449,0,0,0,0,0,0,0,0,0,-1,692,575,0,0
-525,449,0,0,0,0,0,0,0,0,0,-1,699,575,0,0
-518,449,0,0,0,0,0,0,0,0,0,-1,706,575,0,0
-511,449,-0.941345,-4.4519,0,0,0,0,0,0,0,-1,713,575,-0.941356,4.45191
-504,449,-14.1078,0.318237,0,0,0,0,0,0,0,-1,720,575,-14.1078,-0.318231
-497,449,-8.61292,-3.09009,0,0,0,0,0,0,0,-1,727,575,-8.61291,3.09011
-490,449,-7.50995,-2.96252,0,0,0,0,0,0,0,-1,734,575,-7.50995,2.96251
-483,449,-5.77789,-2.50061,0,0,0,0,0,0,0,-1,741,575,-5.77792,2.50059
-476,449,-4.1723,-2.07739,0,0,0,0,0,0,0,-1,748,575,-4.17228,2.0774
-469,449,-2.26245,-2.37378,0,0,0,0,0,0,0,-1,755,575,-2.26244,2.37376
-462,449,-2.19873,-3.18573,0,0,0,0,0,0,0,-1,762,575,-2.19872,3.18571
-455,449,-2.43164,-3.37659,0,0,0,0,0,0,0,-1,769,575,-2.43164,3.3766
-448,449,-2.28619,-3.70679,0.0210754,0.013613,-0.0140922,0.031922,0.00276638,-0.655982,0.0204217,0.0248131,776,575,-2.2862,3.70682
-441,449,-2.29175,-4.03174,0.0125505,0.00991481,-0.0108213,0.0221339,0.000331409,-0.724806,0.0146467,0.0135904,783,575,-2.29176,4.03173
-434,449,-2.3233,-4.27026,0.00469634,0.00605901,-0.00779919,0.0132066,-0.00245122,-0.828968,0.00972498,0.0114125,790,575,-2.32328,4.27029
-427,449,-2.31958,-4.52338,0.000172359,0.00374704,-0.00529257,0.00754592,-0.00362652,-0.948239,0.00658139,0.0114081,797,575,-2.31961,4.52337
-420,449,-2.3208,-4.76263,-0.000830957,0.00250692,-0.00322649,0.00447055,-0.00279459,-1.02408,0.00423157,0.0114866,804,575,-2.32082,4.76262
-413,449,-2.33124,-5.0213,-0.00121296,0.00132968,-0.00167424,0.00216059,-0.00204386,-1.11012,0.00242775,0.00928831,811,575,-2.33125,5.02129
-406,449,-2.34674,-5.27881,-0.00123037,0.000181397,-0.000327735,0.000253769,-0.00130274,-1.35346,0.000964281,0.00881236,818,575,-2.34675,5.2788
-399,449,-2.34326,-5.53058,-0.00129151,-0.00112737,0.00100961,-0.000196506,-0.00222238,0.825953,0.00142062,0.00865058,825,575,-2.34324,5.53056
-392,449,-2.32129,-5.78479,-0.00135792,-0.00279649,0.00230854,0.000340792,-0.0044952,0.634377,0.00311661,0.00940034,832,575,-2.32127,5.78482
-385,449,-2.31256,-6.02313,-0.00155472,-0.00445088,0.00361484,0.000891299,-0.00689689,0.594889,0.004922,0.0100632,839,575,-2.31253,6.02312
-378,449,-2.33215,-6.25897,-0.00157454,-0.00618742,0.00465065,0.00131019,-0.00907215,0.555201,0.0065288,0.00982195,846,575,-2.33215,6.259
-371,449,-2.32745,-6.51685,-0.00139783,-0.00779461,0.0055409,0.00180154,-0.010994,0.523643,0.00799776,0.0110149,853,575,-2.32744,6.51686
-364,449,-2.30054,-6.78986,-0.000818084,-0.00962732,0.00644013,0.0025796,-0.013025,0.485467,0.00965872,0.0202565,860,575,-2.30054,6.78986
-357,449,-2.1701,-6.95087,0.00030815,-0.0111706,0.00688355,0.00353112,-0.0143936,0.437897,0.010964,0.037254,867,575,-2.17012,6.95085
-350,449,-1.95117,-7.14331,0,0,0,0,0,0,0,-1,874,575,-1.95115,7.1433
-343,449,-1.97571,-6.98016,0,0,0,0,0,0,0,-1,881,575,-1.97574,6.98014
-336,449,-1.33356,-6.31274,0,0,0,0,0,0,0,-1,888,575,-1.33358,6.31272
-329,449,-0.733398,-7.78937,0,0,0,0,0,0,0,-1,895,575,-0.733398,7.78937
-322,449,-0.628845,-3.16669,0,0,0,0,0,0,0,-1,902,575,-0.628861,3.16667
-315,449,-0.540344,-3.21918,0,0,0,0,0,0,0,-1,909,575,-0.540336,3.21917
-308,449,-1.04413,-2.99341,0,0,0,0,0,0,0,-1,916,575,-1.04415,2.99338
-301,449,-1.58691,-2.80725,0,0,0,0,0,0,0,-1,923,575,-1.58692,2.80728
-294,449,-3.71118,-2.76086,0,0,0,0,0,0,0,-1,930,575,-3.71119,2.76087
-287,449,-4.4082,-2.69525,0,0,0,0,0,0,0,-1,937,575,-4.40822,2.69526
-280,449,-5.09955,-2.96295,0,0,0,0,0,0,0,-1,944,575,-5.09953,2.96297
-273,449,0,0,0,0,0,0,0,0,0,-1,951,575,0,0
-266,449,0,0,0,0,0,0,0,0,0,-1,958,575,0,0
-259,449,0,0,0,0,0,0,0,0,0,-1,965,575,0,0
-252,449,0,0,0,0,0,0,0,0,0,-1,972,575,0,0
-245,449,0,0,0,0,0,0,0,0,0,-1,979,575,0,0
-238,449,0,0,0,0,0,0,0,0,0,-1,986,575,0,0
-231,449,0,0,0,0,0,0,0,0,0,-1,993,575,0,0
-224,449,0,0,0,0,0,0,0,0,0,-1,1000,575,0,0
-217,449,0,0,0,0,0,0,0,0,0,-1,1007,575,0,0
-210,449,0,0,0,0,0,0,0,0,0,-1,1014,575,0,0
-203,449,0,0,0,0,0,0,0,0,0,-1,1021,575,0,0
-196,449,0,0,0,0,0,0,0,0,0,-1,1028,575,0,0
-189,449,0,0,0,0,0,0,0,0,0,-1,1035,575,0,0
-182,449,0,0,0,0,0,0,0,0,0,-1,1042,575,0,0
-175,449,0,0,0,0,0,0,0,0,0,-1,1049,575,0,0
-168,449,0,0,0,0,0,0,0,0,0,-1,1056,575,0,0
-161,449,0,0,0,0,0,0,0,0,0,-1,1063,575,0,0
-154,449,0,0,0,0,0,0,0,0,0,-1,1070,575,0,0
-147,449,0,0,0,0,0,0,0,0,0,-1,1077,575,0,0
-140,449,0,0,0,0,0,0,0,0,0,-1,1084,575,0,0
-133,449,0,0,0,0,0,0,0,0,0,-1,1091,575,0,0
-126,449,0,0,0,0,0,0,0,0,0,-1,1098,575,0,0
-119,449,0,0,0,0,0,0,0,0,0,-1,1105,575,0,0
-112,449,0,0,0,0,0,0,0,0,0,-1,1112,575,0,0
-105,449,0,0,0,0,0,0,0,0,0,-1,1119,575,0,0
-98,449,0,0,0,0,0,0,0,0,0,-1,1126,575,0,0
-91,449,0,0,0,0,0,0,0,0,0,-1,1133,575,0,0
-84,449,0,0,0,0,0,0,0,0,0,-1,1140,575,0,0
-77,449,0,0,0,0,0,0,0,0,0,-1,1147,575,0,0
-70,449,0,0,0,0,0,0,0,0,0,-1,1154,575,0,0
-63,449,0,0,0,0,0,0,0,0,0,-1,1161,575,0,0
-56,449,0,0,0,0,0,0,0,0,0,-1,1168,575,0,0
-49,449,0,0,0,0,0,0,0,0,0,-1,1175,575,0,0
-42,449,0,0,0,0,0,0,0,0,0,-1,1182,575,0,0
-35,449,0,0,0,0,0,0,0,0,0,-1,1189,575,0,0
-28,449,0,0,0,0,0,0,0,0,0,-1,1196,575,0,0
-21,449,0,0,0,0,0,0,0,0,0,-1,1203,575,0,0
-14,449,0,0,0,0,0,0,0,0,0,-1,1210,575,0,0
-7,449,0,0,0,0,0,0,0,0,0,-1,1217,575,0,0
0,449,0,0,0,0,0,0,0,0,0,-1,1224,575,0,0
7,449,0,0,0,0,0,0,0,0,0,-1,1231,575,0,0
14,449,0,0,0,0,0,0,0,0,0,-1,1238,575,0,0
21,449,0,0,0,0,0,0,0,0,0,-1,1245,575,0,0
28,449,0,0,0,0,0,0,0,0,0,-1,1252,575,0,0
35,449,0,0,0,0,0,0,0,0,0,-1,1259,575,0,0
42,449,0,0,0,0,0,0,0,0,0,-1,1266,575,0,0
49,449,0,0,0,0,0,0,0,0,0,-1,1273,575,0,0
56,449,0,0,0,0,0,0,0,0,0,-1,1280,575,0,0
63,449,0,0,0,0,0,0,0,0,0,-1,1287,575,0,0
70,449,0,0,0,0,0,0,0,0,0,-1,1294,575,0,0
77,449,0,0,0,0,0,0,0,0,0,-1,1301,575,0,0
84,449,0,0,0,0,0,0,0,0,0,-1,1308,575,0,0
91,449,0,0,0,0,0,0,0,0,0,-1,1315,575,0,0
98,449,0,0,0,0,0,0,0,0,0,-1,1322,575,0,0
105,449,0,0,0,0,0,0,0,0,0,-1,1329,575,0,0
112,449,0,0,0,0,0,0,0,0,0,-1,1336,575,0,0
119,449,0,0,0,0,0,0,0,0,0,-1,1343,575,0,0
126,449,0,0,0,0,0,0,0,0,0,-1,1350,575,0,0
133,449,0,0,0,0,0,0,0,0,0,-1,1357,575,0,0
140,449,0,0,0,0,0,0,0,0,0,-1,1364,575,0,0
147,449,0,0,0,0,0,0,0,0,0,-1,1371,575,0,0
154,449,0,0,0,0,0,0,0,0,0,-1,1378,575,0,0
161,449,0,0,0,0,0,0,0,0,0,-1,1385,575,0,0
168,449,0,0,0,0,0,0,0,0,0,-1,1392,575,0,0
175,449,0,0,0,0,0,0,0,0,0,-1,1399,575,0,0
182,449,0,0,0,0,0,0,0,0,0,-1,1406,575,0,0
189,449,0,0,0,0,0,0,0,0,0,-1,1413,575,0,0
196,449,0,0,0,0,0,0,0,0,0,-1,1420,575,0,0
203,449,0,0,0,0,0,0,0,0,0,-1,1427,575,0,0
210,449,0,0,0,0,0,0,0,0,0,-1,1434,575,0,0
217,449,0,0,0,0,0,0,0,0,0,-1,1441,575,0,0
224,449,0,0,0,0,0,0,0,0,0,-1,1448,575,0,0
231,449,0,0,0,0,0,0,0,0,0,-1,1455,575,0,0
238,449,0,0,0,0,0,0,0,0,0,-1,1462,575,0,0
245,449,0,0,0,0,0,0,0,0,0,-1,1469,575,0,0
252,449,0,0,0,0,0,0,0,0,0,-1,1476,575,0,0
259,449,0,0,0,0,0,0,0,0,0,-1,1483,575,0,0
266,449,0,0,0,0,0,0,0,0,0,-1,1490,575,0,0
273,449,0,0,0,0,0,0,0,0,0,-1,1497,575,0,0
280,449,0,0,0,0,0,0,0,0,0,-1,1504,575,0,0
287,449,0,0,0,0,0,0,0,0,0,-1,1511,575,0,0
294,449,0,0,0,0,0,0,0,0,0,-1,1518,575,0,0
301,449,0,0,0,0,0,0,0,0,0,-1,1525,575,0,0
308,449,0,0,0,0,0,0,0,0,0,-1,1532,575,0,0
315,449,0,0,0,0,0,0,0,0,0,-1,1539,575,0,0
322,449,0,0,0,0,0,0,0,0,0,-1,1546,575,0,0
329,449,0,0,0,0,0,0,0,0,0,-1,1553,575,0,0
336,449,0,0,0,0,0,0,0,0,0,-1,1560,575,0,0
343,449,0,0,0,0,0,0,0,0,0,-1,1567,575,0,0
350,449,0,0,0,0,0,0,0,0,0,-1,1574,575,0,0
357,449,0,0,0,0,0,0,0,0,0,-1,1581,575,0,0
364,449,0,0,0,0,0,0,0,0,0,-1,1588,575,0,0
371,449,0,0,0,0,0,0,0,0,0,-1,1595,575,0,0
378,449,0,0,0,0,0,0,0,0,0,-1,1602,575,0,0
385,449,0,0,0,0,0,0,0,0,0,-1,1609,575,0,0
392,449,7.95471,3.66217,0,0,0,0,0,0,0,-1,1616,575,7.95471,-3.66218
399,449,18.5619,6.24585,0,0,0,0,0,0,0,-1,1623,575,18.5619,-6.24585
406,449,18.3907,3.98096,0,0,0,0,0,0,0,-1,1630,575,18.3908,-3.98097
413,449,18.2196,1.71606,0,0,0,0,0,0,0,-1,1637,575,18.2196,-1.71609
420,449,4.70264,2.21893,0,0,0,0,0,0,0,-1,1644,575,4.70263,-2.21894
427,449,8.96924,-4.53351,0,0,0,0,0,0,0,-1,1651,575,8.96925,4.53353
434,449,4.12927,-7.06952,0,0,0,0,0,0,0,-1,1658,575,4.12932,7.06952
441,449,3.89856,-6.06458,0,0,0,0,0,0,0,-1,1665,575,3.89855,6.06459
448,449,4.03198,-5.18207,0,0,0,0,0,0,0,-1,1672,575,4.03197,5.18207
455,449,4.21948,-4.09467,0,0,0,0,0,0,0,-1,1679,575,4.21952,4.09465
462,449,4.23181,-2.96924,0,0,0,0,0,0,0,-1,1686,575,4.23185,2.96926
469,449,4.51672,-2.95135,0,0,0,0,0,0,0,-1,1693,575,4.51672,2.95135
476,449,4.71838,-1.86688,0,0,0,0,0,0,0,-1,1700,575,4.71842,1.86689
483,449,4.87878,-1.73126,0,0,0,0,0,0,0,-1,1707,575,4.87875,1.73128
490,449,5.73279,-2.74573,0,0,0,0,0,0,0,-1,1714,575,5.73282,2.74575
497,449,8.23218,-5.36499,0,0,0,0,0,0,0,-1,1721,575,8.23219,5.36497
504,449,8.18774,-4.88184,0.00355567,0.00363677,0.00247632,0.00607287,0.00111957,0.793585,0.0037318,0.0408543,1728,575,8.18777,4.88183
511,449,8.21936,-4.57147,0.00320485,0.00276195,0.00223722,0.00523155,0.000735254,0.736067,0.00327028,0.0106568,1735,575,8.21941,4.57146
518,449,8.22998,-4.29352,0.00264349,0.00205003,0.00185525,0.00422559,0.000467925,0.7061,0.00267476,0.0121122,1742,575,8.23002,4.29352
525,449,8.21643,-4.03162,0.0020141,0.00164426,0.00151832,0.00335872,0.000299637,0.7248,0.00214625,0.012446,1749,575,8.21646,4.03159
532,449,8.19458,-3.7561,0.0014232,0.00134695,0.00118769,0.00257337,0.00019678,0.769353,0.0016539,0.0107162,1756,575,8.19457,3.7561
539,449,8.18115,-3.44678,0.000897922,0.00102376,0.000837997,0.00180119,0.000120484,0.822868,0.00116272,0.0129179,1763,575,8.18114,3.44679
546,449,8.20276,-3.14752,0.000579161,0.000932969,0.00065235,0.00143198,8.01541e-05,0.917804,0.000929086,0.0221039,1770,575,8.20276,3.14752
553,449,8.2019,-2.89288,0.000341309,0.000746167,0.000458551,0.00104498,4.2493e-05,0.99326,0.000682932,0.0160711,1777,575,8.20189,2.89287
560,449,8.22046,-2.62994,0.000157255,0.000561644,0.000259352,0.000688305,3.05944e-05,1.11649,0.000449019,0.0129381,1784,575,8.22041,2.62992
567,449,8.21338,-2.3595,0.000140228,0.000325367,0.000119375,0.000383859,8.17357e-05,1.11519,0.00023348,0.00948142,1791,575,8.21342,2.35951
574,449,8.2041,-2.04034,0.000318493,-4.52516e-05,3.94107e-05,0.000322714,-4.94726e-05,0.106698,0.000233388,0.0189035,1798,575,8.20416,2.04036
581,449,8.18884,-1.77136,0.000684759,-0.000488128,0.000116865,0.00069629,-0.000499659,0.0983502,0.000693585,0.0471566,1805,575,8.18882,1.77137
588,449,8.27966,-1.60956,0,0,0,0,0,0,0,-1,1812,575,8.27968,1.60954
595,449,8.62036,-0.982178,0,0,0,0,0,0,0,-1,1819,575,8.62038,0.982177
602,449,9.46167,4.17444,0,0,0,0,0,0,0,-1,1826,575,9.46164,-4.17442
609,449,12.2028,3.18652,0,0,0,0,0,0,0,-1,1833,575,12.2027,-3.18655
616,449,14.9438,2.19867,0,0,0,0,0,0,0,-1,1840,575,14.9438,-2.19867
623,449,9.83789,-0.0820313,0,0,0,0,0,0,0,-1,1847,575,9.83794,0.0820443
630,449,8.90686,4.99329,0,0,0,0,0,0,0,-1,1854,575,8.90685,-4.99327
637,449,0,0,0,0,0,0,0,0,0,-1,1861,575,0,0
644,449,0,0,0,0,0,0,0,0,0,-1,1868,575,0,0
651,449,0,0,0,0,0,0,0,0,0,-1,1875,575,0,0
658,449,0,0,0,0,0,0,0,0,0,-1,1882,575,0,0
665,449,0,0,0,0,0,0,0,0,0,-1,1889,575,0,0
672,449,0,0,0,0,0,0,0,0,0,-1,1896,575,0,0
679,449,0,0,0,0,0,0,0,0,0,-1,1903,575,0,0
686,449,0,0,0,0,0,0,0,0,0,-1,1910,575,0,0
693,449,0,0,0,0,0,0,0,0,0,-1,1917,575,0,0
700,449,0,0,0,0,0,0,0,0,0,-1,1924,575,0,0
707,449,0,0,0,0,0,0,0,0,0,-1,1931,575,0,0
714,449,0,0,0,0,0,0,0,0,0,-1,1938,575,0,0
721,449,0,0,0,0,0,0,0,0,0,-1,1945,575,0,0
728,449,0,0,0,0,0,0,0,0,0,-1,1952,575,0,0
735,449,0,0,0,0,0,0,0,0,0,-1,1959,575,0,0
742,449,0,0,0,0,0,0,0,0,0,-1,1966,575,0,0
749,449,0,0,0,0,0,0,0,0,0,-1,1973,575,0,0
756,449,0,0,0,0,0,0,0,0,0,-1,1980,575,0,0
763,449,0,0,0,0,0,0,0,0,0,-1,1987,575,0,0
770,449,0,0,0,0,0,0,0,0,0,-1,1994,575,0,0
777,449,0,0,0,0,0,0,0,0,0,-1,2001,575,0,0
784,449,0,0,0,0,0,0,0,0,0,-1,2008,575,0,0
791,449,0,0,0,0,0,0,0,0,0,-1,2015,575,0,0
798,449,0,0,0,0,0,0,0,0,0,-1,2022,575,0,0
805,449,0,0,0,0,0,0,0,0,0,-1,2029,575,0,0
812,449,0,0,0,0,0,0,0,0,0,-1,2036,575,0,0
-700,442,0,0,0,0,0,0,0,0,0,-1,524,582,0,0
-693,442,0,0,0,0,0,0,0,0,0,-1,531,582,0,0
-686,442,0,0,0,0,0,0,0,0,0,-1,538,582,0,0
-679,442,0,0,0,0,0,0,0,0,0,-1,545,582,0,0
-672,442,0,0,0,0,0,0,0,0,0,-1,552,582,0,0
-665,442,0,0,0,0,0,0,0,0,0,-1,559,582,0,0
-658,442,0,0,0,0,0,0,0,0,0,-1,566,582,0,0
-651,442,0,0,0,0,0,0,0,0,0,-1,573,582,0,0
-644,442,0,0,0,0,0,0,0,0,0,-1,580,582,0,0
-637,442,0,0,0,0,0,0,0,0,0,-1,587,582,0,0
-630,442,0,0,0,0,0,0,0,0,0,-1,594,582,0,0
-623,442,0,0,0,0,0,0,0,0,0,-1,601,582,0,0
-616,442,0,0,0,0,0,0,0,0,0,-1,608,582,0,0
-609,442,0,0,0,0,0,0,0,0,0,-1,615,582,0,0
-602,442,0,0,0,0,0,0,0,0,0,-1,622,582,0,0
-595,442,0,0,0,0,0,0,0,0,0,-1,629,582,0,0
-588,442,0,0,0,0,0,0,0,0,0,-1,636,582,0,0
-581,442,0,0,0,0,0,0,0,0,0,-1,643,582,0,0
-574,442,0,0,0,0,0,0,0,0,0,-1,650,582,0,0
-567,442,0,0,0,0,0,0,0,0,0,-1,657,582,0,0
-560,442,0,0,0,0,0,0,0,0,0,-1,664,582,0,0
-553,442,0,0,0,0,0,0,0,0,0,-1,671,582,0,0
-546,442,0,0,0,0,0,0,0,0,0,-1,678,582,0,0
-539,442,0,0,0,0,0,0,0,0,0,-1,685,582,0,0
-532,442,0,0,0,0,0,0,0,0,0,-1,692,582,0,0
-525,442,0,0,0,0,0,0,0,0,0,-1,699,582,0,0
-518,442,-0.493774,-5.72943,0,0,0,0,0,0,0,-1,706,582,-0.493791,5.72946
-511,442,-1.68738,-5.91357,0,0,0,0,0,0,0,-1,713,582,-1.68736,5.91359
-504,442,-3.20807,-6.34082,0,0,0,0,0,0,0,-1,720,582,-3.2081,6.34083
-497,442,-13.6886,-0.250122,0,0,0,0,0,0,0,-1,727,582,-13.6886,0.250143
-490,442,-7.30066,-3.28326,0,0,0,0,0,0,0,-1,734,582,-7.30064,3.28329
-483,442,-4.65228,-1.36835,0,0,0,0,0,0,0,-1,741,582,-4.6523,1.36837
-476,442,-2.94043,-2.28052,0,0,0,0,0,0,0,-1,748,582,-2.94043,2.28052
-469,442,-2.6416,-2.62097,0.0627114,0.0247239,-0.0191512,0.0706905,0.0167449,-0.394763,0.0426554,0.0491735,755,582,-2.64159,2.62094
-462,442,-2.48181,-3.23846,0.0468538,0.0211561,-0.0163418,0.0547931,0.0132168,-0.452246,0.033017,0.0355925,762,582,-2.48184,3.23844
-455,442,-2.61945,-3.5246,0.0333718,0.0166536,-0.0132552,0.0406836,0.00934186,-0.504081,0.0246068,0.0265153,769,582,-2.61943,3.52461
-448,442,-2.5498,-3.76282,0.0224529,0.0120004,-0.00985935,0.0283855,0.00606778,-0.541688,0.0172603,0.0138356,776,582,-2.54982,3.76284
-441,442,-2.56531,-4.00226,0.0146257,0.00860866,-0.00720841,0.0194282,0.00380614,-0.587706,0.0118883,0.0134392,783,582,-2.56529,4.00223
-434,442,-2.57336,-4.25671,0.00744075,0.00501129,-0.00470249,0.0110829,0.00136916,-0.659003,0.00697712,0.0122139,790,582,-2.57335,4.25672
-427,442,-2.58716,-4.51678,0.00279347,0.00272524,-0.00267318,0.00543275,8.59576e-05,-0.779017,0.00359352,0.0120035,797,582,-2.58715,4.51677
-420,442,-2.58038,-4.78009,0.000711288,0.00118937,-0.000929801,0.00191036,-9.70939e-06,-0.911216,0.00127682,0.0123736,804,582,-2.58041,4.78006
-413,442,-2.58087,-5.02045,-0.000548355,-0.000181361,0.000351876,3.19892e-05,-0.000761705,1.02574,0.000518796,0.0104716,811,582,-2.58085,5.02044
-406,442,-2.59711,-5.28699,-0.00133961,-0.00149824,0.00150021,8.33843e-05,-0.00292123,0.758988,0.00197587,0.00920243,818,582,-2.59711,5.287
-399,442,-2.59552,-5.55396,-0.00209783,-0.00297845,0.00271211,0.00020948,-0.00528576,0.704925,0.0035957,0.00798399,825,582,-2.59552,5.55398
-392,442,-2.56934,-5.78003,-0.00265833,-0.00481331,0.00401231,0.000418653,-0.00789029,0.65422,0.00540515,0.0105194,832,582,-2.56933,5.78003
-385,442,-2.57208,-5.99939,-0.00324091,-0.00666599,0.00543246,0.000742549,-0.0106494,0.632708,0.00735965,0.0126248,839,582,-2.57207,5.99938
-378,442,-2.58594,-6.255,-0.00351095,-0.00866548,0.00668352,0.001075,-0.0132514,0.601376,0.00921355,0.0127276,846,582,-2.58595,6.25499
-371,442,-2.59149,-6.54541,-0.00337656,-0.0106179,0.00786579,0.00166187,-0.0156563,0.569703,0.0110333,0.0232297,853,582,-2.59149,6.54544
-364,442,-2.54669,-6.79376,-0.00289298,-0.0130339,0.00917867,0.00252263,-0.0184495,0.53305,0.013221,0.0372266,860,582,-2.54668,6.79377
-357,442,-2.39941,-6.96808,0,0,0,0,0,0,0,-1,867,582,-2.39941,6.96807
-350,442,-1.75372,-6.27618,0,0,0,0,0,0,0,-1,874,582,-1.75371,6.27618
-343,442,-1.4599,-4.63605,0,0,0,0,0,0,0,-1,881,582,-1.4599,4.63607
-336,442,-1.4054,-2.64313,0,0,0,0,0,0,0,-1,888,582,-1.40539,2.64315
-329,442,-0.952576,-2.76923,0,0,0,0,0,0,0,-1,895,582,-0.952571,2.7692
-322,442,-0.972534,-2.63208,0,0,0,0,0,0,0,-1,902,582,-0.972512,2.6321
-315,442,-0.445557,-2.89764,0,0,0,0,0,0,0,-1,909,582,-0.445582,2.89765
-308,442,-0.654175,-3.07831,0,0,0,0,0,0,0,-1,916,582,-0.654145,3.07832
-301,442,-1.37427,-2.41455,0,0,0,0,0,0,0,-1,923,582,-1.37425,2.41453
-294,442,-2.99963,-2.07855,0,0,0,0,0,0,0,-1,930,582,-2.99964,2.07857
-287,442,-5.62799,-2.76422,0,0,0,0,0,0,0,-1,937,582,-5.628,2.76424
-280,442,0,0,0,0,0,0,0,0,0,-1,944,582,0,0
-273,442,0,0,0,0,0,0,0,0,0,-1,951,582,0,0
-266,442,0,0,0,0,0,0,0,0,0,-1,958,582,0,0
-259,442,0,0,0,0,0,0,0,0,0,-1,965,582,0,0
-252,442,0,0,0,0,0,0,0,0,0,-1,972,582,0,0
-245,442,0,0,0,0,0,0,0,0,0,-1,979,582,0,0
-238,442,0,0,0,0,0,0,0,0,0,-1,986,582,0,0
-231,442,0,0,0,0,0,0,0,0,0,-1,993,582,0,0
-224,442,0,0,0,0,0,0,0,0,0,-1,1000,582,0,0
-217,442,0,0,0,0,0,0,0,0,0,-1,1007,582,0,0
-210,442,0,0,0,0,0,0,0,0,0,-1,1014,582,0,0
-203,442,0,0,0,0,0,0,0,0,0,-1,1021,582,0,0
-196,442,0,0,0,0,0,0,0,0,0,-1,1028,582,0,0
-189,442,0,0,0,0,0,0,0,0,0,-1,1035,582,0,0
-182,442,0,0,0,0,0,0,0,0,0,-1,1042,582,0,0
-175,442,0,0,0,0,0,0,0,0,0,-1,1049,582,0,0
-168,442,0,0,0,0,0,0,0,0,0,-1,1056,582,0,0
-161,442,0,0,0,0,0,0,0,0,0,-1,1063,582,0,0
-154,442,0,0,0,0,0,0,0,0,0,-1,1070,582,0,0
-147,442,0,0,0,0,0,0,0,0,0,-1,1077,582,0,0
-140,442,0,0,0,0,0,0,0,0,0,-1,1084,582,0,0
-133,442,0,0,0,0,0,0,0,0,0,-1,1091,582,0,0
-126,442,0,0,0,0,0,0,0,0,0,-1,1098,582,0,0
-119,442,0,0,0,0,0,0,0,0,0,-1,1105,582,0,0
-112,442,0,0,0,0,0,0,0,0,0,-1,1112,582,0,0
-105,442,0,0,0,0,0,0,0,0,0,-1,1119,582,0,0
-98,442,0,0,0,0,0,0,0,0,0,-1,1126,582,0,0
-91,442,0,0,0,0,0,0,0,0,0,-1,1133,582,0,0
-84,442,0,0,0,0,0,0,0,0,0,-1,1140,582,0,0
-77,442,0,0,0,0,0,0,0,0,0,-1,1147,582,0,0
-70,442,0,0,0,0,0,0,0,0,0,-1,1154,582,0,0
-63,442,0,0,0,0,0,0,0,0,0,-1,1161,582,0,0
-56,442,0,0,0,0,0,0,0,0,0,-1,1168,582,0,0
-49,442,0,0,0,0,0,0,0,0,0,-1,1175,582,0,0
-42,442,0,0,0,0,0,0,0,0,0,-1,1182,582,0,0
-35,442,0,0,0,0,0,0,0,0,0,-1,1189,582,0,0
-28,442,0,0,0,0,0,0,0,0,0,-1,1196,582,0,0
-21,442,0,0,0,0,0,0,0,0,0,-1,1203,582,0,0
-14,442,0,0,0,0,0,0,0,0,0,-1,1210,582,0,0
-7,442,0,0,0,0,0,0,0,0,0,-1,1217,582,0,0
0,442,0,0,0,0,0,0,0,0,0,-1,1224,582,0,0
7,442,0,0,0,0,0,0,0,0,0,-1,1231,582,0,0
14,442,0,0,0,0,0,0,0,0,0,-1,1238,582,0,0
21,442,0,0,0,0,0,0,0,0,0,-1,1245,582,0,0
28,442,0,0,0,0,0,0,0,0,0,-1,1252,582,0,0
35,442,0,0,0,0,0,0,0,0,0,-1,1259,582,0,0
42,442,0,0,0,0,0,0,0,0,0,-1,1266,582,0,0
49,442,0,0,0,0,0,0,0,0,0,-1,1273,582,0,0
56,442,0,0,0,0,0,0,0,0,0,-1,1280,582,0,0
63,442,0,0,0,0,0,0,0,0,0,-1,1287,582,0,0
70,442,0,0,0,0,0,0,0,0,0,-1,1294,582,0,0
77,442,0,0,0,0,0,0,0,0,0,-1,1301,582,0,0
84,442,0,0,0,0,0,0,0,0,0,-1,1308,582,0,0
91,442,0,0,0,0,0,0,0,0,0,-1,1315,582,0,0
98,442,0,0,0,0,0,0,0,0,0,-1,1322,582,0,0
105,442,0,0,0,0,0,0,0,0,0,-1,1329,582,0,0
112,442,0,0,0,0,0,0,0,0,0,-1,1336,582,0,0
119,442,0,0,0,0,0,0,0,0,0,-1,1343,582,0,0
126,442,0,0,0,0,0,0,0,0,0,-1,1350,582,0,0
133,442,0,0,0,0,0,0,0,0,0,-1,1357,582,0,0
140,442,0,0,0,0,0,0,0,0,0,-1,1364,582,0,0
147,442,0,0,0,0,0,0,0,0,0,-1,1371,582,0,0
154,442,0,0,0,0,0,0,0,0,0,-1,1378,582,0,0
161,442,0,0,0,0,0,0,0,0,0,-1,1385,582,0,0
168,442,0,0,0,0,0,0,0,0,0,-1,1392,582,0,0
175,442,0,0,0,0,0,0,0,0,0,-1,1399,582,0,0
182,442,0,0,0,0,0,0,0,0,0,-1,1406,582,0,0
189,442,0,0,0,0,0,0,0,0,0,-1,1413,582,0,0
196,442,0,0,0,0,0,0,0,0,0,-1,1420,582,0,0
203,442,0,0,0,0,0,0,0,0,0,-1,1427,582,0,0
210,442,0,0,0,0,0,0,0,0,0,-1,1434,582,0,0
217,442,0,0,0,0,0,0,0,0,0,-1,1441,582,0,0
224,442,0,0,0,0,0,0,0,0,0,-1,1448,582,0,0
231,442,0,0,0,0,0,0,0,0,0,-1,1455,582,0,0
238,442,0,0,0,0,0,0,0,0,0,-1,1462,582,0,0
245,442,0,0,0,0,0,0,0,0,0,-1,1469,582,0,0
252,442,0,0,0,0,0,0,0,0,0,-1,1476,582,0,0
259,442,0,0,0,0,0,0,0,0,0,-1,1483,582,0,0
266,442,0,0,0,0,0,0,0,0,0,-1,1490,582,0,0
273,442,0,0,0,0,0,0,0,0,0,-1,1497,582,0,0
280,442,0,0,0,0,0,0,0,0,0,-1,1504,582,0,0
287,442,0,0,0,0,0,0,0,0,0,-1,1511,582,0,0
294,442,0,0,0,0,0,0,0,0,0,-1,1518,582,0,0
301,442,0,0,0,0,0,0,0,0,0,-1,1525,582,0,0
308,442,0,0,0,0,0,0,0,0,0,-1,1532,582,0,0
315,442,0,0,0,0,0,0,0,0,0,-1,1539,582,0,0
322,442,0,0,0,0,0,0,0,0,0,-1,1546,582,0,0
329,442,0,0,0,0,0,0,0,0,0,-1,1553,582,0,0
336,442,0,0,0,0,0,0,0,0,0,-1,1560,582,0,0
343,442,0,0,0,0,0,0,0,0,0,-1,1567,582,0,0
350,442,0,0,0,0,0,0,0,0,0,-1,1574,582,0,0
357,442,0,0,0,0,0,0,0,0,0,-1,1581,582,0,0
364,442,0,0,0,0,0,0,0,0,0,-1,1588,582,0,0
371,442,0,0,0,0,0,0,0,0,0,-1,1595,582,0,0
378,442,0,0,0,0,0,0,0,0,0,-1,1602,582,0,0
385,442,0,0,0,0,0,0,0,0,0,-1,1609,582,0,0
392,442,0,0,0,0,0,0,0,0,0,-1,1616,582,0,0
399,442,0,0,0,0,0,0,0,0,0,-1,1623,582,0,0
406,442,16.3365,4.22577,0,0,0,0,0,0,0,-1,1630,582,16.3365,-4.22575
413,442,3.66699,2.87408,0,0,0,0,0,0,0,-1,1637,582,3.66703,-2.87408
420,442,4.69055,3.09448,0,0,0,0,0,0,0,-1,1644,582,4.69054,-3.0945
427,442,2.44519,-1.35358,0,0,0,0,0,0,0,-1,1651,582,2.44514,1.35361
434,442,8.45898,-3.86719,0,0,0,0,0,0,0,-1,1658,582,8.45904,3.86719
441,442,4.89368,-7.42456,0,0,0,0,0,0,0,-1,1665,582,4.89365,7.42457
448,442,4.7749,-5.88562,0,0,0,0,0,0,0,-1,1672,582,4.7749,5.8856
455,442,4.87024,-4.60687,0,0,0,0,0,0,0,-1,1679,582,4.87019,4.60686
462,442,5.02307,-3.72821,0,0,0,0,0,0,0,-1,1686,582,5.02311,3.7282
469,442,5.12976,-2.98834,0,0,0,0,0,0,0,-1,1693,582,5.12971,2.98834
476,442,5.4624,1.76947,0,0,0,0,0,0,0,-1,1700,582,5.46234,-1.76944
483,442,5.98486,1.87042,0,0,0,0,0,0,0,-1,1707,582,5.98492,-1.87045
490,442,5.04407,-2.35834,0,0,0,0,0,0,0,-1,1714,582,5.04411,2.35837
497,442,6.20984,-3.07831,0,0,0,0,0,0,0,-1,1721,582,6.2098,3.07833
504,442,8.3385,-4.96692,0,0,0,0,0,0,0,-1,1728,582,8.33855,4.96692
511,442,8.43958,-4.58386,0.00373169,0.00309551,0.00254162,0.00597505,0.000852158,0.723145,0.00373189,0.0253327,1735,582,8.43959,4.58387
518,442,8.51428,-4.26459,0.00314876,0.00223302,0.00212018,0.00485995,0.000521842,0.679052,0.00308078,0.0108979,1742,582,8.51428,4.26458
525,442,8.49036,-4.0094,0.00249388,0.00176829,0.00177601,0.00394377,0.0003184,0.684647,0.00252974,0.00976527,1749,582,8.49031,4.00941
532,442,8.48584,-3.73224,0.00188024,0.00137208,0.00140604,0.00305497,0.000197345,0.69601,0.00197416,0.0102709,1756,582,8.48582,3.73227
539,442,8.48694,-3.43768,0.00132529,0.000955611,0.00100272,0.00216007,0.000120836,0.694252,0.0014015,0.0110915,1763,582,8.48699,3.43767
546,442,8.50952,-3.16827,0.000957292,0.000766826,0.000745795,0.00161391,0.000110209,0.721895,0.00104115,0.0139723,1770,582,8.50955,3.16825
553,442,8.48645,-2.90295,0.000683676,0.000502214,0.000508108,0.00110909,7.67997e-05,0.697046,0.000715169,0.0154856,1777,582,8.4864,2.90298
560,442,8.49963,-2.62292,0.000454292,0.000257164,0.000274947,0.000647808,6.36478e-05,0.613291,0.000412297,0.0147473,1784,582,8.49969,2.62294
567,442,8.47729,-2.33734,0.000383137,1.51837e-05,0.000120435,0.000419051,-2.07306e-05,0.289809,0.000286528,0.0099866,1791,582,8.47733,2.33736
574,442,8.46069,-2.05176,0.000545183,-0.000282588,8.50577e-05,0.000553832,-0.000291238,0.101344,0.000495691,0.0113394,1798,582,8.46075,2.05177
581,442,8.51282,-1.72998,0.000903564,-0.000565725,0.000197752,0.000929714,-0.000591875,0.131474,0.000885679,0.017984,1805,582,8.5128,1.72998
588,442,8.46313,-1.59747,0.00158704,-0.000865385,0.000535586,0.00169891,-0.000977249,0.205903,0.00156369,0.028168,1812,582,8.46315,1.59748
595,442,8.59839,-1.23505,0.00265514,-0.000927272,0.00115682,0.00299622,-0.00126836,0.286721,0.00252862,0.0446421,1819,582,8.59838,1.23507
602,442,8.81482,-0.752869,0,0,0,0,0,0,0,-1,1826,582,8.81481,0.752866
609,442,9.38428,2.86908,0,0,0,0,0,0,0,-1,1833,582,9.38429,-2.86906
616,442,9.78345,-0.103394,0,0,0,0,0,0,0,-1,1840,582,9.78341,0.103424
623,442,9.23828,0.326721,0,0,0,0,0,0,0,-1,1847,582,9.23829,-0.326727
630,442,7.74304,2.3924,0,0,0,0,0,0,0,-1,1854,582,7.7431,-2.39238
637,442,5.87805,1.84027,0,0,0,0,0,0,0,-1,1861,582,5.87807,-1.84025
644,442,0,0,0,0,0,0,0,0,0,-1,1868,582,0,0
651,442,0,0,0,0,0,0,0,0,0,-1,1875,582,0,0
658,442,0,0,0,0,0,0,0,0,0,-1,1882,582,0,0
665,442,0,0,0,0,0,0,0,0,0,-1,1889,582,0,0
672,442,0,0,0,0,0,0,0,0,0,-1,1896,582,0,0
679,442,0,0,0,0,0,0,0,0,0,-1,1903,582,0,0
686,442,0,0,0,0,0,0,0,0,0,-1,1910,582,0,0
693,442,0,0,0,0,0,0,0,0,0,-1,1917,582,0,0
700,442,0,0,0,0,0,0,0,0,0,-1,1924,582,0,0
707,442,0,0,0,0,0,0,0,0,0,-1,1931,582,0,0
714,442,0,0,0,0,0,0,0,0,0,-1,1938,582,0,0
721,442,0,0,0,0,0,0,0,0,0,-1,1945,582,0,0
728,442,0,0,0,0,0,0,0,0,0,-1,1952,582,0,0
735,442,0,0,0,0,0,0,0,0,0,-1,1959,582,0,0
742,442,0,0,0,0,0,0,0,0,0,-1,1966,582,0,0
749,442,0,0,0,0,0,0,0,0,0,-1,1973,582,0,0
756,442,0,0,0,0,0,0,0,0,0,-1,1980,582,0,0
763,442,0,0,0,0,0,0,0,0,0,-1,1987,582,0,0
770,442,0,0,0,0,0,0,0,0,0,-1,1994,582,0,0
777,442,0,0,0,0,0,0,0,0,0,-1,2001,582,0,0
784,442,0,0,0,0,0,0,0,0,0,-1,2008,582,0,0
791,442,0,0,0,0,0,0,0,0,0,-1,2015,582,0,0
798,442,0,0,0,0,0,0,0,0,0,-1,2022,582,0,0
805,442,0,0,0,0,0,0,0,0,0,-1,2029,582,0,0
812,442,0,0,0,0,0,0,0,0,0,-1,2036,582,0,0
-700,435,0,0,0,0,0,0,0,0,0,-1,524,589,0,0
-693,435,0,0,0,0,0,0,0,0,0,-1,531,589,0,0
-686,435,0,0,0,0,0,0,0,0,0,-1,538,589,0,0
-679,435,0,0,0,0,0,0,0,0,0,-1,545,589,0,0
-672,435,0,0,0,0,0,0,0,0,0,-1,552,589,0,0
-665,435,0,0,0,0,0,0,0,0,0,-1,559,589,0,0
-658,435,0,0,0,0,0,0,0,0,0,-1,566,589,0,0
-651,435,0,0,0,0,0,0,0,0,0,-1,573,589,0,0
-644,435,0,0,0,0,0,0,0,0,0,-1,580,589,0,0
-637,435,0,0,0,0,0,0,0,0,0,-1,587,589,0,0
-630,435,0,0,0,0,0,0,0,0,0,-1,594,589,0,0
-623,435,0,0,0,0,0,0,0,0,0,-1,601,589,0,0
-616,435,0,0,0,0,0,0,0,0,0,-1,608,589,0,0
-609,435,0,0,0,0,0,0,0,0,0,-1,615,589,0,0
-602,435,0,0,0,0,0,0,0,0,0,-1,622,589,0,0
-595,435,0,0,0,0,0,0,0,0,0,-1,629,589,0,0
-588,435,0,0,0,0,0,0,0,0,0,-1,636,589,0,0
-581,435,0,0,0,0,0,0,0,0,0,-1,643,589,0,0
-574,435,0,0,0,0,0,0,0,0,0,-1,650,589,0,0
-567,435,0,0,0,0,0,0,0,0,0,-1,657,589,0,0
-560,435,0,0,0,0,0,0,0,0,0,-1,664,589,0,0
-553,435,0,0,0,0,0,0,0,0,0,-1,671,589,0,0
-546,435,0,0,0,0,0,0,0,0,0,-1,678,589,0,0
-539,435,0,0,0,0,0,0,0,0,0,-1,685,589,0,0
-532,435,0,0,0,0,0,0,0,0,0,-1,692,589,0,0
-525,435,-10.0776,10.0547,0,0,0,0,0,0,0,-1,699,589,-10.0776,-10.0547
-518,435,-0.928711,-4.91492,0,0,0,0,0,0,0,-1,706,589,-0.928723,4.91489
-511,435,-2.43555,-5.38599,0,0,0,0,0,0,0,-1,713,589,-2.43553,5.38597
-504,435,-3.89355,-5.72308,0,0,0,0,0,0,0,-1,720,589,-3.89353,5.72309
-497,435,-5.18701,-5.97711,0,0,0,0,0,0,0,-1,727,589,-5.18703,5.97714
-490,435,-5.46594,-1.20123,0,0,0,0,0,0,0,-1,734,589,-5.46594,1.20122
-483,435,-4.67786,-1.65143,0,0,0,0,0,0,0,-1,741,589,-4.67784,1.65144
-476,435,-3.89185,-2.17218,0.0605616,0.0188786,-0.0165584,0.0663387,0.0131015,-0.335686,0.04057,0.0487457,748,589,-3.89188,2.17218
-469,435,-2.89954,-2.85205,0.0466923,0.0165569,-0.0145148,0.0525463,0.0107029,-0.383356,0.0320643,0.0291085,755,589,-2.89953,2.85206
-462,435,-2.789,-3.25031,0.0349207,0.0151697,-0.0127029,0.0411352,0.00895524,-0.454987,0.0249793,0.0151365,762,589,-2.78897,3.25031
-455,435,-2.83228,-3.48145,0.0248671,0.0122371,-0.010393,0.0307132,0.00639093,-0.512398,0.0187126,0.0136201,769,589,-2.83225,3.48147
-448,435,-2.80804,-3.75226,0.0166697,0.00857934,-0.00754216,0.021183,0.00406603,-0.53925,0.0129807,0.012369,776,589,-2.80807,3.75228
-441,435,-2.80359,-4.00342,0.0107711,0.00596171,-0.00532764,0.0142116,0.00252119,-0.573407,0.00875583,0.0109763,783,589,-2.80361,4.0034
-434,435,-2.82043,-4.24445,0.00537769,0.00303956,-0.0031698,0.00758713,0.000830112,-0.60873,0.00480534,0.0118568,790,589,-2.82043,4.24446
-427,435,-2.82941,-4.51788,0.00178182,0.0011444,-0.00138164,0.00288104,4.51879e-05,-0.672044,0.00190581,0.00936846,797,589,-2.82938,4.51787
-420,435,-2.82825,-4.77332,-0.00025387,-0.000418014,0.000331417,5.48569e-06,-0.000677369,0.66402,0.000453419,0.00957842,804,589,-2.82827,4.7733
-413,435,-2.83838,-5.02313,-0.00153784,-0.00181764,0.00162678,-4.49577e-05,-0.00331052,0.742505,0.00219218,0.0102918,811,589,-2.83838,5.02315
-406,435,-2.83685,-5.28534,-0.00248,-0.00323736,0.0028497,1.60688e-05,-0.00573343,0.719343,0.00382765,0.0108755,818,589,-2.83683,5.28531
-399,435,-2.83179,-5.54309,-0.00347284,-0.00488145,0.0041987,8.02162e-05,-0.00843451,0.7023,0.00564994,0.00878578,825,589,-2.8318,5.54308
-392,435,-2.83563,-5.78644,-0.00432756,-0.00695158,0.00570718,0.000216476,-0.0114956,0.672418,0.00773691,0.0100773,832,589,-2.8356,5.78642
-385,435,-2.83118,-6.01843,-0.00529414,-0.00917454,0.00743999,0.000454474,-0.0149232,0.657849,0.0101037,0.0126729,839,589,-2.83115,6.01844
-378,435,-2.82629,-6.26862,-0.00603427,-0.0116814,0.00913627,0.000704781,-0.0184205,0.635528,0.0125219,0.0206406,846,589,-2.82631,6.26861
-371,435,-2.94159,-6.5426,-0.00631825,-0.0142297,0.0108512,0.00127574,-0.0218237,0.610613,0.0149925,0.0399675,853,589,-2.94157,6.54259
-364,435,-2.98883,-6.5968,-0.00623354,-0.017532,0.0128787,0.00218047,-0.025946,0.578711,0.0180681,0.0466558,860,589,-2.98882,6.59677
-357,435,-2.74261,-6.65216,0,0,0,0,0,0,0,-1,867,589,-2.74262,6.65213
-350,435,-0.86676,-3.69836,0,0,0,0,0,0,0,-1,874,589,-0.866784,3.69834
-343,435,-1.60706,-2.36835,0,0,0,0,0,0,0,-1,881,589,-1.60706,2.36838
-336,435,-2.07263,-1.94012,0,0,0,0,0,0,0,-1,888,589,-2.07265,1.94014
-329,435,-2.55963,-1.5517,0,0,0,0,0,0,0,-1,895,589,-2.5596,1.55168
-322,435,-3.08545,-1.55255,0,0,0,0,0,0,0,-1,902,589,-3.08544,1.55254
-315,435,-0.404297,-2.63763,0,0,0,0,0,0,0,-1,909,589,-0.404276,2.63761
-308,435,-1.70056,-1.90369,0,0,0,0,0,0,0,-1,916,589,-1.70056,1.90367
-301,435,-1.25232,-2.05511,0,0,0,0,0,0,0,-1,923,589,-1.25234,2.05514
-294,435,-1.79974,-1.97321,0,0,0,0,0,0,0,-1,930,589,-1.79973,1.97322
-287,435,0,0,0,0,0,0,0,0,0,-1,937,589,0,0
-280,435,0,0,0,0,0,0,0,0,0,-1,944,589,0,0
-273,435,0,0,0,0,0,0,0,0,0,-1,951,589,0,0
-266,435,0,0,0,0,0,0,0,0,0,-1,958,589,0,0
-259,435,0,0,0,0,0,0,0,0,0,-1,965,589,0,0
-252,435,0,0,0,0,0,0,0,0,0,-1,972,589,0,0
-245,435,0,0,0,0,0,0,0,0,0,-1,979,589,0,0
-238,435,0,0,0,0,0,0,0,0,0,-1,986,589,0,0
-231,435,0,0,0,0,0,0,0,0,0,-1,993,589,0,0
-224,435,0,0,0,0,0,0,0,0,0,-1,1000,589,0,0
-217,435,0,0,0,0,0,0,0,0,0,-1,1007,589,0,0
-210,435,0,0,0,0,0,0,0,0,0,-1,1014,589,0,0
-203,435,0,0,0,0,0,0,0,0,0,-1,1021,589,0,0
-196,435,0,0,0,0,0,0,0,0,0,-1,1028,589,0,0
-189,435,0,0,0,0,0,0,0,0,0,-1,1035,589,0,0
-182,435,0,0,0,0,0,0,0,0,0,-1,1042,589,0,0
-175,435,0,0,0,0,0,0,0,0,0,-1,1049,589,0,0
-168,435,0,0,0,0,0,0,0,0,0,-1,1056,589,0,0
-161,435,0,0,0,0,0,0,0,0,0,-1,1063,589,0,0
-154,435,0,0,0,0,0,0,0,0,0,-1,1070,589,0,0
-147,435,0,0,0,0,0,0,0,0,0,-1,1077,589,0,0
-140,435,0,0,0,0,0,0,0,0,0,-1,1084,589,0,0
-133,435,0,0,0,0,0,0,0,0,0,-1,1091,589,0,0
-126,435,0,0,0,0,0,0,0,0,0,-1,1098,589,0,0
-119,435,0,0,0,0,0,0,0,0,0,-1,1105,589,0,0
-112,435,0,0,0,0,0,0,0,0,0,-1,1112,589,0,0
-105,435,0,0,0,0,0,0,0,0,0,-1,1119,589,0,0
-98,435,0,0,0,0,0,0,0,0,0,-1,1126,589,0,0
-91,435,0,0,0,0,0,0,0,0,0,-1,1133,589,0,0
-84,435,0,0,0,0,0,0,0,0,0,-1,1140,589,0,0
-77,435,0,0,0,0,0,0,0,0,0,-1,1147,589,0,0
-70,435,0,0,0,0,0,0,0,0,0,-1,1154,589,0,0
-63,435,0,0,0,0,0,0,0,0,0,-1,1161,589,0,0
-56,435,0,0,0,0,0,0,0,0,0,-1,1168,589,0,0
-49,435,0,0,0,0,0,0,0,0,0,-1,1175,589,0,0
-42,435,0,0,0,0,0,0,0,0,0,-1,1182,589,0,0
-35,435,0,0,0,0,0,0,0,0,0,-1,1189,589,0,0
-28,435,0,0,0,0,0,0,0,0,0,-1,1196,589,0,0
-21,435,0,0,0,0,0,0,0,0,0,-1,1203,589,0,0
-14,435,0,0,0,0,0,0,0,0,0,-1,1210,589,0,0
-7,435,0,0,0,0,0,0,0,0,0,-1,1217,589,0,0
0,435,0,0,0,0,0,0,0,0,0,-1,1224,589,0,0
7,435,0,0,0,0,0,0,0,0,0,-1,1231,589,0,0
14,435,0,0,0,0,0,0,0,0,0,-1,1238,589,0,0
21,435,0,0,0,0,0,0,0,0,0,-1,1245,589,0,0
28,435,0,0,0,0,0,0,0,0,0,-1,1252,589,0,0
35,435,0,0,0,0,0,0,0,0,0,-1,1259,589,0,0
42,435,0,0,0,0,0,0,0,0,0,-1,1266,589,0,0
49,435,0,0,0,0,0,0,0,0,0,-1,1273,589,0,0
56,435,0,0,0,0,0,0,0,0,0,-1,1280,589,0,0
63,435,0,0,0,0,0,0,0,0,0,-1,1287,589,0,0
70,435,0,0,0,0,0,0,0,0,0,-1,1294,589,0,0
77,435,0,0,0,0,0,0,0,0,0,-1,1301,589,0,0
84,435,0,0,0,0,0,0,0,0,0,-1,1308,589,0,0
91,435,0,0,0,0,0,0,0,0,0,-1,1315,589,0,0
98,435,0,0,0,0,0,0,0,0,0,-1,1322,589,0,0
105,435,0,0,0,0,0,0,0,0,0,-1,1329,589,0,0
112,435,0,0,0,0,0,0,0,0,0,-1,1336,589,0,0
119,435,0,0,0,0,0,0,0,0,0,-1,1343,589,0,0
126,435,0,0,0,0,0,0,0,0,0,-1,1350,589,0,0
133,435,0,0,0,0,0,0,0,0,0,-1,1357,589,0,0
140,435,0,0,0,0,0,0,0,0,0,-1,1364,589,0,0
147,435,0,0,0,0,0,0,0,0,0,-1,1371,589,0,0
154,435,0,0,0,0,0,0,0,0,0,-1,1378,589,0,0
161,435,0,0,0,0,0,0,0,0,0,-1,1385,589,0,0
168,435,0,0,0,0,0,0,0,0,0,-1,1392,589,0,0
175,435,0,0,0,0,0,0,0,0,0,-1,1399,589,0,0
182,435,0,0,0,0,0,0,0,0,0,-1,1406,589,0,0
189,435,0,0,0,0,0,0,0,0,0,-1,1413,589,0,0
196,435,0,0,0,0,0,0,0,0,0,-1,1420,589,0,0
203,435,0,0,0,0,0,0,0,0,0,-1,1427,589,0,0
210,435,0,0,0,0,0,0,0,0,0,-1,1434,589,0,0
217,435,0,0,0,0,0,0,0,0,0,-1,1441,589,0,0
224,435,0,0,0,0,0,0,0,0,0,-1,1448,589,0,0
231,435,0,0,0,0,0,0,0,0,0,-1,1455,589,0,0
238,435,0,0,0,0,0,0,0,0,0,-1,1462,589,0,0
245,435,0,0,0,0,0,0,0,0,0,-1,1469,589,0,0
252,435,0,0,0,0,0,0,0,0,0,-1,1476,589,0,0
259,435,0,0,0,0,0,0,0,0,0,-1,1483,589,0,0
266,435,0,0,0,0,0,0,0,0,0,-1,1490,589,0,0
273,435,0,0,0,0,0,0,0,0,0,-1,1497,589,0,0
280,435,0,0,0,0,0,0,0,0,0,-1,1504,589,0,0
287,435,0,0,0,0,0,0,0,0,0,-1,1511,589,0,0
294,435,0,0,0,0,0,0,0,0,0,-1,1518,589,0,0
301,435,0,0,0,0,0,0,0,0,0,-1,1525,589,0,0
308,435,0,0,0,0,0,0,0,0,0,-1,1532,589,0,0
315,435,0,0,0,0,0,0,0,0,0,-1,1539,589,0,0
322,435,0,0,0,0,0,0,0,0,0,-1,1546,589,0,0
329,435,0,0,0,0,0,0,0,0,0,-1,1553,589,0,0
336,435,0,0,0,0,0,0,0,0,0,-1,1560,589,0,0
343,435,0,0,0,0,0,0,0,0,0,-1,1567,589,0,0
350,435,0,0,0,0,0,0,0,0,0,-1,1574,589,0,0
357,435,0,0,0,0,0,0,0,0,0,-1,1581,589,0,0
364,435,0,0,0,0,0,0,0,0,0,-1,1588,589,0,0
371,435,0,0,0,0,0,0,0,0,0,-1,1595,589,0,0
378,435,0,0,0,0,0,0,0,0,0,-1,1602,589,0,0
385,435,0,0,0,0,0,0,0,0,0,-1,1609,589,0,0
392,435,0,0,0,0,0,0,0,0,0,-1,1616,589,0,0
399,435,0,0,0,0,0,0,0,0,0,-1,1623,589,0,0
406,435,0,0,0,0,0,0,0,0,0,-1,1630,589,0,0
413,435,3.62073,3.42682,0,0,0,0,0,0,0,-1,1637,589,3.62069,-3.4268
420,435,3.6062,3.71564,0,0,0,0,0,0,0,-1,1644,589,3.60616,-3.71562
427,435,3.11963,0.640198,0,0,0,0,0,0,0,-1,1651,589,3.11967,-0.640192
434,435,2.72107,-1.34802,0,0,0,0,0,0,0,-1,1658,589,2.7211,1.34803
441,435,7.33191,-1.57452,0,0,0,0,0,0,0,-1,1665,589,7.33193,1.57452
448,435,7.4585,-0.00292969,0,0,0,0,0,0,0,-1,1672,589,7.45848,0.00294131
455,435,5.49915,-5.047,0,0,0,0,0,0,0,-1,1679,589,5.49914,5.04703
462,435,5.60669,-4.71466,0,0,0,0,0,0,0,-1,1686,589,5.60675,4.71469
469,435,5.87708,1.22351,0,0,0,0,0,0,0,-1,1693,589,5.87703,-1.22351
476,435,6.14136,1.37714,0,0,0,0,0,0,0,-1,1700,589,6.14138,-1.37712
483,435,6.49243,1.36169,0,0,0,0,0,0,0,-1,1707,589,6.49242,-1.36171
490,435,4.38391,-1.36218,0,0,0,0,0,0,0,-1,1714,589,4.38389,1.3622
497,435,7.23499,-3.64551,0,0,0,0,0,0,0,-1,1721,589,7.23495,3.64551
504,435,7.31189,-3.75909,0,0,0,0,0,0,0,-1,1728,589,7.31184,3.75911
511,435,8.73389,-4.60364,0,0,0,0,0,0,0,-1,1735,589,8.73394,4.60361
518,435,8.7865,-4.27112,0.00379164,0.00260182,0.00266184,0.00592424,0.000469225,0.675457,0.00380274,0.0186128,1742,589,8.78654,4.27111
525,435,8.76343,-3.99524,0.00299124,0.00199907,0.00216731,0.00471852,0.000271798,0.672889,0.00305911,0.0111935,1749,589,8.76337,3.99527
532,435,8.77466,-3.72137,0.00226176,0.00142913,0.00163289,0.00353057,0.000160319,0.660579,0.00230214,0.0127493,1756,589,8.77462,3.72139
539,435,8.78552,-3.44055,0.00160705,0.00087839,0.0010775,0.00238015,0.000105297,0.622368,0.00155286,0.0143779,1763,589,8.78551,3.44056
546,435,8.77832,-3.16296,0.00113564,0.000547482,0.000667822,0.00157127,0.000111857,0.577995,0.00101229,0.0134602,1770,589,8.77827,3.16298
553,435,8.76917,-2.89886,0.000800433,0.000190501,0.0003401,0.000952274,3.86602e-05,0.419905,0.000622363,0.00997022,1777,589,8.76916,2.89887
560,435,8.7699,-2.6261,0.000524499,-0.000115999,5.81975e-05,0.000529744,-0.000121244,0.0898819,0.000399754,0.00939461,1784,589,8.76989,2.62609
567,435,8.77393,-2.33368,0.00041009,-0.00035393,-0.000103269,0.000423802,-0.000367642,-0.13201,0.000457324,0.00870385,1791,589,8.77398,2.33369
574,435,8.76245,-2.0647,0.000568546,-0.000570552,-8.81971e-05,0.000575334,-0.00057734,-0.076817,0.000665497,0.00947358,1798,589,8.76246,2.06468
581,435,8.75427,-1.80054,0.000914956,-0.000701407,8.75592e-05,0.000919685,-0.000706137,0.0539601,0.000941364,0.0160829,1805,589,8.75426,1.80053
588,435,8.74329,-1.51599,0.00149846,-0.000755752,0.000485085,0.00159842,-0.000855706,0.20321,0.00143835,0.0216142,1812,589,8.74327,1.516
595,435,8.69006,-1.27405,0.00242282,-0.000565566,0.00117851,0.00283166,-0.000974399,0.333915,0.00228297,0.0244872,1819,589,8.69008,1.27403
602,435,8.75659,-1.0376,0.00363209,-0.00015543,0.00216283,0.00461308,-0.00113642,0.425816,0.00351595,0.0449699,1826,589,8.75657,1.0376
609,435,8.82458,-0.859985,0,0,0,0,0,0,0,-1,1833,589,8.82454,0.859967
616,435,5.05151,-2.75269,0,0,0,0,0,0,0,-1,1840,589,5.05157,2.7527
623,435,11.7588,3.9704,0,0,0,0,0,0,0,-1,1847,589,11.7587,-3.97043
630,435,4.72742,-0.87561,0,0,0,0,0,0,0,-1,1854,589,4.7274,0.875636
637,435,5.05286,1.48792,0,0,0,0,0,0,0,-1,1861,589,5.05291,-1.48792
644,435,0,0,0,0,0,0,0,0,0,-1,1868,589,0,0
651,435,0,0,0,0,0,0,0,0,0,-1,1875,589,0,0
658,435,0,0,0,0,0,0,0,0,0,-1,1882,589,0,0
665,435,0,0,0,0,0,0,0,0,0,-1,1889,589,0,0
672,435,0,0,0,0,0,0,0,0,0,-1,1896,589,0,0
679,435,0,0,0,0,0,0,0,0,0,-1,1903,589,0,0
686,435,0,0,0,0,0,0,0,0,0,-1,1910,589,0,0
693,435,0,0,0,0,0,0,0,0,0,-1,1917,589,0,0
700,435,0,0,0,0,0,0,0,0,0,-1,1924,589,0,0
707,435,0,0,0,0,0,0,0,0,0,-1,1931,589,0,0
714,435,0,0,0,0,0,0,0,0,0,-1,1938,589,0,0
721,435,0,0,0,0,0,0,0,0,0,-1,1945,589,0,0
728,435,0,0,0,0,0,0,0,0,0,-1,1952,589,0,0
735,435,0,0,0,0,0,0,0,0,0,-1,1959,589,0,0
742,435,0,0,0,0,0,0,0,0,0,-1,1966,589,0,0
749,435,0,0,0,0,0,0,0,0,0,-1,1973,589,0,0
756,435,0,0,0,0,0,0,0,0,0,-1,1980,589,0,0
763,435,0,0,0,0,0,0,0,0,0,-1,1987,589,0,0
770,435,0,0,0,0,0,0,0,0,0,-1,1994,589,0,0
777,435,0,0,0,0,0,0,0,0,0,-1,2001,589,0,0
784,435,0,0,0,0,0,0,0,0,0,-1,2008,589,0,0
791,435,0,0,0,0,0,0,0,0,0,-1,2015,589,0,0
798,435,0,0,0,0,0,0,0,0,0,-1,2022,589,0,0
805,435,0,0,0,0,0,0,0,0,0,-1,2029,589,0,0
812,435,0,0,0,0,0,0,0,0,0,-1,2036,589,0,0
-700,428,0,0,0,0,0,0,0,0,0,-1,524,596,0,0
-693,428,0,0,0,0,0,0,0,0,0,-1,531,596,0,0
-686,428,0,0,0,0,0,0,0,0,0,-1,538,596,0,0
-679,428,0,0,0,0,0,0,0,0,0,-1,545,596,0,0
-672,428,0,0,0,0,0,0,0,0,0,-1,552,596,0,0
-665,428,0,0,0,0,0,0,0,0,0,-1,559,596,0,0
-658,428,0,0,0,0,0,0,0,0,0,-1,566,596,0,0
-651,428,0,0,0,0,0,0,0,0,0,-1,573,596,0,0
-644,428,0,0,0,0,0,0,0,0,0,-1,580,596,0,0
-637,428,0,0,0,0,0,0,0,0,0,-1,587,596,0,0
-630,428,0,0,0,0,0,0,0,0,0,-1,594,596,0,0
-623,428,0,0,0,0,0,0,0,0,0,-1,601,596,0,0
-616,428,0,0,0,0,0,0,0,0,0,-1,608,596,0,0
-609,428,0,0,0,0,0,0,0,0,0,-1,615,596,0,0
-602,428,0,0,0,0,0,0,0,0,0,-1,622,596,0,0
-595,428,0,0,0,0,0,0,0,0,0,-1,629,596,0,0
-588,428,0,0,0,0,0,0,0,0,0,-1,636,596,0,0
-581,428,0,0,0,0,0,0,0,0,0,-1,643,596,0,0
-574,428,0,0,0,0,0,0,0,0,0,-1,650,596,0,0
-567,428,0,0,0,0,0,0,0,0,0,-1,657,596,0,0
-560,428,0,0,0,0,0,0,0,0,0,-1,664,596,0,0
-553,428,0,0,0,0,0,0,0,0,0,-1,671,596,0,0
-546,428,0,0,0,0,0,0,0,0,0,-1,678,596,0,0
-539,428,0,0,0,0,0,0,0,0,0,-1,685,596,0,0
-532,428,0,0,0,0,0,0,0,0,0,-1,692,596,0,0
-525,428,-9.59918,7.58618,0,0,0,0,0,0,0,-1,699,596,-9.59918,-7.5862
-518,428,-1.78259,-8.1123,0,0,0,0,0,0,0,-1,706,596,-1.78261,8.11233
-511,428,-3.32758,-4.85852,0,0,0,0,0,0,0,-1,713,596,-3.32759,4.85853
-504,428,-4.19916,-4.97797,0,0,0,0,0,0,0,-1,720,596,-4.19918,4.97795
-497,428,-2.85516,-3.52179,0,0,0,0,0,0,0,-1,727,596,-2.85517,3.52181
-490,428,-3.94135,-1.43488,0,0,0,0,0,0,0,-1,734,596,-3.94133,1.43488
-483,428,-4.14319,-1.93805,0,0,0,0,0,0,0,-1,741,596,-4.14317,1.93808
-476,428,-3.59924,-2.43237,0.0432089,0.0101179,-0.0113853,0.0467477,0.00657908,-0.301355,0.02922,0.0386516,748,596,-3.59927,2.43236
-469,428,-3.05811,-2.96118,0.0332543,0.00979981,-0.0102987,0.0371345,0.00591962,-0.360316,0.0230381,0.0189699,755,596,-3.05808,2.96117
-462,428,-3.05487,-3.18774,0.024898,0.010137,-0.00935212,0.0294311,0.00560392,-0.451344,0.0180452,0.0166475,762,596,-3.05486,3.18774
-455,428,-3.07837,-3.47107,0.0176548,0.00850627,-0.00773983,0.022071,0.00409004,-0.51851,0.0135579,0.0117291,769,596,-3.07837,3.47109
-448,428,-3.06934,-3.73645,0.0116421,0.00566255,-0.00538966,0.0148157,0.00248895,-0.532167,0.00916089,0.010219,776,596,-3.06934,3.73647
-441,428,-3.06323,-4.00348,0.00726091,0.00366552,-0.00355966,0.00945105,0.00147537,-0.551571,0.00587103,0.0126013,783,596,-3.06322,4.00346
-434,428,-3.07227,-4.27875,0.00327229,0.00128179,-0.00170603,0.00425215,0.000301929,-0.521347,0.00273968,0.00983219,790,596,-3.07226,4.27874
-427,428,-3.07513,-4.5343,0.000530114,-0.000304211,-0.000137033,0.000552045,-0.000326142,-0.158692,0.000512582,0.00971859,797,596,-3.07514,4.53432
-420,428,-3.07623,-4.77142,-0.00137656,-0.00188963,0.00151587,-9.56719e-05,-0.00317053,0.701576,0.00208253,0.01054,804,596,-3.07624,4.77141
-413,428,-3.08173,-5.00684,-0.00263121,-0.00334636,0.00282854,-0.000137735,-0.00583984,0.722523,0.00384813,0.0132709,811,596,-3.08173,5.00681
-406,428,-3.07318,-5.23962,-0.00371431,-0.00493542,0.00415492,-0.000125323,-0.0085244,0.712447,0.00564162,0.0160189,818,596,-3.07316,5.23962
-399,428,-3.06854,-5.51221,-0.00495617,-0.00684312,0.00568817,-0.000133762,-0.0116655,0.703214,0.00773282,0.0141252,825,596,-3.06851,5.51218
-392,428,-3.06818,-5.80255,-0.0061693,-0.00928139,0.00748829,-7.70916e-05,-0.0153736,0.682958,0.0102235,0.0129707,832,596,-3.06819,5.80257
-385,428,-3.10321,-6.08154,-0.00764469,-0.0120972,0.00967124,5.3212e-05,-0.0197951,0.672272,0.0132145,0.021814,839,596,-3.10321,6.08155
-378,428,-3.21515,-6.18121,-0.00905033,-0.0153744,0.0120018,0.000198931,-0.0246237,0.656593,0.0164825,0.0407752,846,596,-3.21513,6.18123
-371,428,-3.75842,-5.9433,-0.0102795,-0.0191373,0.0147509,0.00069308,-0.0301099,0.639556,0.0203082,0.0494806,853,596,-3.75844,5.94332
-364,428,-3.4718,-6.47498,0,0,0,0,0,0,0,-1,860,596,-3.47179,6.47495
-357,428,-3.20996,-4.70966,0,0,0,0,0,0,0,-1,867,596,-3.20997,4.70965
-350,428,-1.62793,-3.94055,0,0,0,0,0,0,0,-1,874,596,-1.62794,3.94055
-343,428,-0.0567017,-4.80994,0,0,0,0,0,0,0,-1,881,596,-0.0567096,4.80996
-336,428,-3.29175,-1.39569,0,0,0,0,0,0,0,-1,888,596,-3.29172,1.39568
-329,428,-3.71564,-0.791321,0,0,0,0,0,0,0,-1,895,596,-3.71564,0.791299
-322,428,-5.52863,-3.59827,0,0,0,0,0,0,0,-1,902,596,-5.52865,3.59829
-315,428,-4.57172,-1.22052,0,0,0,0,0,0,0,-1,909,596,-4.57171,1.22052
-308,428,-5.26538,-1.1521,0,0,0,0,0,0,0,-1,916,596,-5.26539,1.15209
-301,428,0,0,0,0,0,0,0,0,0,-1,923,596,0,0
-294,428,0,0,0,0,0,0,0,0,0,-1,930,596,0,0
-287,428,0,0,0,0,0,0,0,0,0,-1,937,596,0,0
-280,428,0,0,0,0,0,0,0,0,0,-1,944,596,0,0
-273,428,0,0,0,0,0,0,0,0,0,-1,951,596,0,0
-266,428,0,0,0,0,0,0,0,0,0,-1,958,596,0,0
-259,428,0,0,0,0,0,0,0,0,0,-1,965,596,0,0
-252,428,0,0,0,0,0,0,0,0,0,-1,972,596,0,0
-245,428,0,0,0,0,0,0,0,0,0,-1,979,596,0,0
-238,428,0,0,0,0,0,0,0,0,0,-1,986,596,0,0
-231,428,0,0,0,0,0,0,0,0,0,-1,993,596,0,0
-224,428,0,0,0,0,0,0,0,0,0,-1,1000,596,0,0
-217,428,0,0,0,0,0,0,0,0,0,-1,1007,596,0,0
-210,428,0,0,0,0,0,0,0,0,0,-1,1014,596,0,0
-203,428,0,0,0,0,0,0,0,0,0,-1,1021,596,0,0
-196,428,0,0,0,0,0,0,0,0,0,-1,1028,596,0,0
-189,428,0,0,0,0,0,0,0,0,0,-1,1035,596,0,0
-182,428,0,0,0,0,0,0,0,0,0,-1,1042,596,0,0
-175,428,0,0,0,0,0,0,0,0,0,-1,1049,596,0,0
-168,428,0,0,0,0,0,0,0,0,0,-1,1056,596,0,0
-161,428,0,0,0,0,0,0,0,0,0,-1,1063,596,0,0
-154,428,0,0,0,0,0,0,0,0,0,-1,1070,596,0,0
-147,428,0,0,0,0,0,0,0,0,0,-1,1077,596,0,0
-140,428,0,0,0,0,0,0,0,0,0,-1,1084,596,0,0
-133,428,0,0,0,0,0,0,0,0,0,-1,1091,596,0,0
-126,428,0,0,0,0,0,0,0,0,0,-1,1098,596,0,0
-119,428,0,0,0,0,0,0,0,0,0,-1,1105,596,0,0
-112,428,0,0,0,0,0,0,0,0,0,-1,1112,596,0,0
-105,428,0,0,0,0,0,0,0,0,0,-1,1119,596,0,0
-98,428,0,0,0,0,0,0,0,0,0,-1,1126,596,0,0
-91,428,0,0,0,0,0,0,0,0,0,-1,1133,596,0,0
-84,428,0,0,0,0,0,0,0,0,0,-1,1140,596,0,0
-77,428,0,0,0,0,0,0,0,0,0,-1,1147,596,0,0
-70,428,0,0,0,0,0,0,0,0,0,-1,1154,596,0,0
-63,428,0,0,0,0,0,0,0,0,0,-1,1161,596,0,0
-56,428,0,0,0,0,0,0,0,0,0,-1,1168,596,0,0
-49,428,0,0,0,0,0,0,0,0,0,-1,1175,596,0,0
-42,428,0,0,0,0,0,0,0,0,0,-1,1182,596,0,0
-35,428,0,0,0,0,0,0,0,0,0,-1,1189,596,0,0
-28,428,0,0,0,0,0,0,0,0,0,-1,1196,596,0,0
-21,428,0,0,0,0,0,0,0,0,0,-1,1203,596,0,0
-14,428,0,0,0,0,0,0,0,0,0,-1,1210,596,0,0
-7,428,0,0,0,0,0,0,0,0,0,-1,1217,596,0,0
0,428,0,0,0,0,0,0,0,0,0,-1,1224,596,0,0
7,428,0,0,0,0,0,0,0,0,0,-1,1231,596,0,0
14,428,0,0,0,0,0,0,0,0,0,-1,1238,596,0,0
21,428,0,0,0,0,0,0,0,0,0,-1,1245,596,0,0
28,428,0,0,0,0,0,0,0,0,0,-1,1252,596,0,0
35,428,0,0,0,0,0,0,0,0,0,-1,1259,596,0,0
42,428,0,0,0,0,0,0,0,0,0,-1,1266,596,0,0
49,428,0,0,0,0,0,0,0,0,0,-1,1273,596,0,0
56,428,0,0,0,0,0,0,0,0,0,-1,1280,596,0,0
63,428,0,0,0,0,0,0,0,0,0,-1,1287,596,0,0
70,428,0,0,0,0,0,0,0,0,0,-1,1294,596,0,0
77,428,0,0,0,0,0,0,0,0,0,-1,1301,596,0,0
84,428,0,0,0,0,0,0,0,0,0,-1,1308,596,0,0
91,428,0,0,0,0,0,0,0,0,0,-1,1315,596,0,0
98,428,0,0,0,0,0,0,0,0,0,-1,1322,596,0,0
105,428,0,0,0,0,0,0,0,0,0,-1,1329,596,0,0
112,428,0,0,0,0,0,0,0,0,0,-1,1336,596,0,0
119,428,0,0,0,0,0,0,0,0,0,-1,1343,596,0,0
126,428,0,0,0,0,0,0,0,0,0,-1,1350,596,0,0
133,428,0,0,0,0,0,0,0,0,0,-1,1357,596,0,0
140,428,0,0,0,0,0,0,0,0,0,-1,1364,596,0,0
147,428,0,0,0,0,0,0,0,0,0,-1,1371,596,0,0
154,428,0,0,0,0,0,0,0,0,0,-1,1378,596,0,0
161,428,0,0,0,0,0,0,0,0,0,-1,1385,596,0,0
168,428,0,0,0,0,0,0,0,0,0,-1,1392,596,0,0
175,428,0,0,0,0,0,0,0,0,0,-1,1399,596,0,0
182,428,0,0,0,0,0,0,0,0,0,-1,1406,596,0,0
189,428,0,0,0,0,0,0,0,0,0,-1,1413,596,0,0
196,428,0,0,0,0,0,0,0,0,0,-1,1420,596,0,0
203,428,0,0,0,0,0,0,0,0,0,-1,1427,596,0,0
210,428,0,0,0,0,0,0,0,0,0,-1,1434,596,0,0
217,428,0,0,0,0,0,0,0,0,0,-1,1441,596,0,0
224,428,0,0,0,0,0,0,0,0,0,-1,1448,596,0,0
231,428,0,0,0,0,0,0,0,0,0,-1,1455,596,0,0
238,428,0,0,0,0,0,0,0,0,0,-1,1462,596,0,0
245,428,0,0,0,0,0,0,0,0,0,-1,1469,596,0,0
252,428,0,0,0,0,0,0,0,0,0,-1,1476,596,0,0
259,428,0,0,0,0,0,0,0,0,0,-1,1483,596,0,0
266,428,0,0,0,0,0,0,0,0,0,-1,1490,596,0,0
273,428,0,0,0,0,0,0,0,0,0,-1,1497,596,0,0
280,428,0,0,0,0,0,0,0,0,0,-1,1504,596,0,0
287,428,0,0,0,0,0,0,0,0,0,-1,1511,596,0,0
294,428,0,0,0,0,0,0,0,0,0,-1,1518,596,0,0
301,428,0,0,0,0,0,0,0,0,0,-1,1525,596,0,0
308,428,0,0,0,0,0,0,0,0,0,-1,1532,596,0,0
315,428,0,0,0,0,0,0,0,0,0,-1,1539,596,0,0
322,428,0,0,0,0,0,0,0,0,0,-1,1546,596,0,0
329,428,0,0,0,0,0,0,0,0,0,-1,1553,596,0,0
336,428,0,0,0,0,0,0,0,0,0,-1,1560,596,0,0
343,428,0,0,0,0,0,0,0,0,0,-1,1567,596,0,0
350,428,0,0,0,0,0,0,0,0,0,-1,1574,596,0,0
357,428,0,0,0,0,0,0,0,0,0,-1,1581,596,0,0
364,428,0,0,0,0,0,0,0,0,0,-1,1588,596,0,0
371,428,0,0,0,0,0,0,0,0,0,-1,1595,596,0,0
378,428,0,0,0,0,0,0,0,0,0,-1,1602,596,0,0
385,428,0,0,0,0,0,0,0,0,0,-1,1609,596,0,0
392,428,0,0,0,0,0,0,0,0,0,-1,1616,596,0,0
399,428,0,0,0,0,0,0,0,0,0,-1,1623,596,0,0
406,428,0,0,0,0,0,0,0,0,0,-1,1630,596,0,0
413,428,0,0,0,0,0,0,0,0,0,-1,1637,596,0,0
420,428,2.95886,0.551819,0,0,0,0,0,0,0,-1,1644,596,2.9589,-0.551797
427,428,3.19385,0.384705,0,0,0,0,0,0,0,-1,1651,596,3.19383,-0.384692
434,428,8.18152,1.80432,0,0,0,0,0,0,0,-1,1658,596,8.18148,-1.80434
441,428,8.17993,0.607483,0,0,0,0,0,0,0,-1,1665,596,8.17997,-0.607513
448,428,7.84338,-0.385986,0,0,0,0,0,0,0,-1,1672,596,7.84336,0.385978
455,428,6.64038,2.1123,0,0,0,0,0,0,0,-1,1679,596,6.64037,-2.11229
462,428,4.84106,4.12341,0,0,0,0,0,0,0,-1,1686,596,4.84107,-4.12339
469,428,7.83789,3.10083,0,0,0,0,0,0,0,-1,1693,596,7.83785,-3.10086
476,428,7.61255,1.73956,0,0,0,0,0,0,0,-1,1700,596,7.61252,-1.73958
483,428,7.22766,1.05121,0,0,0,0,0,0,0,-1,1707,596,7.2277,-1.05121
490,428,5.4071,-3.2793,0,0,0,0,0,0,0,-1,1714,596,5.40707,3.27929
497,428,7.84106,-3.65491,0,0,0,0,0,0,0,-1,1721,596,7.84107,3.65491
504,428,6.92139,-2.83356,0,0,0,0,0,0,0,-1,1728,596,6.92137,2.83353
511,428,7.88501,-3.78723,0,0,0,0,0,0,0,-1,1735,596,7.88502,3.78722
518,428,9.03955,-4.29828,0,0,0,0,0,0,0,-1,1742,596,9.03951,4.29826
525,428,8.95044,-4.06488,0.00317446,0.00255377,0.00257216,0.00545494,0.000273298,0.725361,0.00354903,0.0359195,1749,596,8.9504,4.06488
532,428,9.02759,-3.7063,0.00239858,0.00183388,0.00193423,0.00407096,0.000161505,0.712922,0.00266177,0.0178231,1756,596,9.02762,3.70631
539,428,9.05688,-3.44257,0.00171838,0.00119505,0.00130434,0.00278704,0.000126389,0.686408,0.00181737,0.0199863,1763,596,9.05692,3.44256
546,428,9.05005,-3.17859,0.00121202,0.000746427,0.000808928,0.00182098,0.000137463,0.645293,0.00117086,0.0160393,1770,596,9.05009,3.17859
553,428,9.04517,-2.91302,0.000880435,0.000318597,0.000444198,0.00112509,7.39432e-05,0.50344,0.000726667,0.0109078,1777,596,9.04515,2.913
560,428,9.0531,-2.63184,0.000618267,-4.79019e-05,0.000151155,0.000650959,-8.05947e-05,0.213006,0.000463181,0.0116209,1784,596,9.05316,2.63184
567,428,9.0481,-2.34778,0.000512248,-0.00031076,-7.11361e-06,0.00051231,-0.000310822,-0.00864256,0.000479958,0.0102745,1791,596,9.04815,2.34777
574,428,9.04321,-2.07373,0.000695109,-0.000508351,3.47955e-05,0.000696114,-0.000509356,0.0288807,0.000698757,0.0119488,1798,596,9.04324,2.07371
581,428,9.0293,-1.77808,0.00105055,-0.000591481,0.000226695,0.00108127,-0.000622203,0.134702,0.000995332,0.0110364,1805,596,9.02929,1.77806
588,428,9.02576,-1.47461,0.00158159,-0.000547463,0.000628724,0.00175339,-0.000719266,0.266744,0.00146862,0.0152244,1812,596,9.02578,1.47463
595,428,8.99744,-1.19489,0.00239342,-0.000266657,0.00129261,0.00291806,-0.0007913,0.385564,0.00225588,0.010097,1819,596,8.99746,1.19488
602,428,8.9707,-0.922302,0.00345489,0.000277586,0.00222659,0.00460148,-0.000868997,0.475536,0.0033946,0.0199173,1826,596,8.97069,0.922312
609,428,8.95825,-0.565735,0,0,0,0,0,0,0,-1,1833,596,8.95827,0.565708
616,428,5.88977,-0.239319,0,0,0,0,0,0,0,-1,1840,596,5.88983,0.239293
623,428,8.10767,1.20917,0,0,0,0,0,0,0,-1,1847,596,8.10763,-1.20919
630,428,4.94434,0.773193,0,0,0,0,0,0,0,-1,1854,596,4.9443,-0.773171
637,428,3.95435,1.90857,0,0,0,0,0,0,0,-1,1861,596,3.95439,-1.90858
644,428,5.75476,0.888977,0,0,0,0,0,0,0,-1,1868,596,5.75472,-0.888955
651,428,0,0,0,0,0,0,0,0,0,-1,1875,596,0,0
658,428,0,0,0,0,0,0,0,0,0,-1,1882,596,0,0
665,428,0,0,0,0,0,0,0,0,0,-1,1889,596,0,0
672,428,0,0,0,0,0,0,0,0,0,-1,1896,596,0,0
679,428,0,0,0,0,0,0,0,0,0,-1,1903,596,0,0
686,428,0,0,0,0,0,0,0,0,0,-1,1910,596,0,0
693,428,0,0,0,0,0,0,0,0,0,-1,1917,596,0,0
700,428,0,0,0,0,0,0,0,0,0,-1,1924,596,0,0
707,428,0,0,0,0,0,0,0,0,0,-1,1931,596,0,0
714,428,0,0,0,0,0,0,0,0,0,-1,1938,596,0,0
721,428,0,0,0,0,0,0,0,0,0,-1,1945,596,0,0
728,428,0,0,0,0,0,0,0,0,0,-1,1952,596,0,0
735,428,0,0,0,0,0,0,0,0,0,-1,1959,596,0,0
742,428,0,0,0,0,0,0,0,0,0,-1,1966,596,0,0
749,428,0,0,0,0,0,0,0,0,0,-1,1973,596,0,0
756,428,0,0,0,0,0,0,0,0,0,-1,1980,596,0,0
763,428,0,0,0,0,0,0,0,0,0,-1,1987,596,0,0
770,428,0,0,0,0,0,0,0,0,0,-1,1994,596,0,0
777,428,0,0,0,0,0,0,0,0,0,-1,2001,596,0,0
784,428,0,0,0,0,0,0,0,0,0,-1,2008,596,0,0
791,428,0,0,0,0,0,0,0,0,0,-1,2015,596,0,0
798,428,0,0,0,0,0,0,0,0,0,-1,2022,596,0,0
805,428,0,0,0,0,0,0,0,0,0,-1,2029,596,0,0
812,428,0,0,0,0,0,0,0,0,0,-1,2036,596,0,0
-700,421,0,0,0,0,0,0,0,0,0,-1,524,603,0,0
-693,421,0,0,0,0,0,0,0,0,0,-1,531,603,0,0
-686,421,0,0,0,0,0,0,0,0,0,-1,538,603,0,0
-679,421,0,0,0,0,0,0,0,0,0,-1,545,603,0,0
-672,421,0,0,0,0,0,0,0,0,0,-1,552,603,0,0
-665,421,0,0,0,0,0,0,0,0,0,-1,559,603,0,0
-658,421,0,0,0,0,0,0,0,0,0,-1,566,603,0,0
-651,421,0,0,0,0,0,0,0,0,0,-1,573,603,0,0
-644,421,0,0,0,0,0,0,0,0,0,-1,580,603,0,0
-637,421,0,0,0,0,0,0,0,0,0,-1,587,603,0,0
-630,421,0,0,0,0,0,0,0,0,0,-1,594,603,0,0
-623,421,0,0,0,0,0,0,0,0,0,-1,601,603,0,0
-616,421,0,0,0,0,0,0,0,0,0,-1,608,603,0,0
-609,421,0,0,0,0,0,0,0,0,0,-1,615,603,0,0
-602,421,0,0,0,0,0,0,0,0,0,-1,622,603,0,0
-595,421,0,0,0,0,0,0,0,0,0,-1,629,603,0,0
-588,421,0,0,0,0,0,0,0,0,0,-1,636,603,0,0
-581,421,0,0,0,0,0,0,0,0,0,-1,643,603,0,0
-574,421,0,0,0,0,0,0,0,0,0,-1,650,603,0,0
-567,421,0,0,0,0,0,0,0,0,0,-1,657,603,0,0
-560,421,0,0,0,0,0,0,0,0,0,-1,664,603,0,0
-553,421,0,0,0,0,0,0,0,0,0,-1,671,603,0,0
-546,421,0,0,0,0,0,0,0,0,0,-1,678,603,0,0
-539,421,0,0,0,0,0,0,0,0,0,-1,685,603,0,0
-532,421,-8.97382,6.95636,0,0,0,0,0,0,0,-1,692,603,-8.97384,-6.95634
-525,421,-2.11481,-8.04272,0,0,0,0,0,0,0,-1,699,603,-2.11483,8.0427
-518,421,-1.93781,-7.08606,0,0,0,0,0,0,0,-1,706,603,-1.93782,7.08607
-511,421,-1.7608,-6.12946,0,0,0,0,0,0,0,-1,713,603,-1.76081,6.12944
-504,421,-4.97272,-4.38385,0,0,0,0,0,0,0,-1,720,603,-4.9727,4.38383
-497,421,-3.47833,-1.33246,0,0,0,0,0,0,0,-1,727,603,-3.47836,1.33244
-490,421,-3.62262,-1.68585,0.0436641,-0.00641692,-0.0037688,0.0439461,-0.00669895,-0.0746935,0.0317667,0.0460673,734,603,-3.62263,1.68587
-483,421,-3.55603,-2.24194,0.0366232,0.000198304,-0.00631201,0.037686,-0.000864485,-0.166811,0.025417,0.0387508,741,603,-3.55605,2.24193
-476,421,-3.34784,-2.71765,0.0295697,0.00355021,-0.00717114,0.0314152,0.0017047,-0.251887,0.020399,0.0226366,748,603,-3.34783,2.71765
-469,421,-3.32605,-2.9444,0.0228465,0.00470736,-0.00686637,0.0251525,0.00240133,-0.324008,0.016028,0.0180821,755,603,-3.32607,2.94442
-462,421,-3.35162,-3.22314,0.0172083,0.00630678,-0.006654,0.0203591,0.003156,-0.442238,0.0126526,0.0186921,762,603,-3.3516,3.22313
-455,421,-3.35162,-3.48193,0.012217,0.00569746,-0.00566128,0.0154899,0.00242452,-0.524181,0.00962081,0.0179518,769,603,-3.35161,3.48195
-448,421,-3.32953,-3.73975,0.00795435,0.00351897,-0.00378794,0.010126,0.00134729,-0.520568,0.00634942,0.0167934,776,603,-3.32951,3.73974
-441,421,-3.3407,-4.01379,0.00474628,0.001997,-0.00229323,0.00604531,0.000697967,-0.515396,0.00381887,0.0133695,783,603,-3.34067,4.01382
-434,421,-3.35236,-4.28564,0.00181238,1.76844e-05,-0.000691757,0.00204807,-0.000217999,-0.328368,0.00144354,0.0101019,790,603,-3.35234,4.28563
-427,421,-3.34357,-4.52722,-0.000311915,-0.00137377,0.000721731,5.31377e-05,-0.00173882,0.468279,0.00117733,0.00931017,797,603,-3.34358,4.52725
-420,421,-3.33398,-4.76917,-0.00213344,-0.0030388,0.00235204,-0.000190914,-0.00498133,0.69033,0.00325911,0.0106573,804,603,-3.33399,4.76914
-413,421,-3.33521,-5.00616,-0.00346624,-0.00465635,0.00377918,-0.000235551,-0.00788704,0.707311,0.00518129,0.0136641,811,603,-3.33519,5.00616
-406,421,-3.34436,-5.2525,-0.00487098,-0.00656361,0.00534882,-0.000301932,-0.0111327,0.706936,0.0073232,0.0191224,818,603,-3.34433,5.25249
-399,421,-3.30231,-5.5592,-0.00657915,-0.00891806,0.00723076,-0.000423887,-0.0150733,0.705226,0.00991061,0.0182474,825,603,-3.30232,5.55923
-392,421,-3.35358,-5.79694,-0.00843953,-0.0119529,0.00953926,-0.000496571,-0.0198959,0.694341,0.0131015,0.020747,832,603,-3.35357,5.79696
-385,421,-3.57434,-6.08575,-0.0108164,-0.0156963,0.0124616,-0.000558148,-0.0259546,0.688722,0.01712,0.0415083,839,603,-3.57434,6.08578
-378,421,-3.73834,-6.32611,0,0,0,0,0,0,0,-1,846,603,-3.73834,6.32614
-371,421,-4.73523,-5.77643,0,0,0,0,0,0,0,-1,853,603,-4.73526,5.77642
-364,421,-5.06079,-5.61859,0,0,0,0,0,0,0,-1,860,603,-5.0608,5.61861
-357,421,-5.57581,-5.5918,0,0,0,0,0,0,0,-1,867,603,-5.5758,5.59181
-350,421,-5.38019,-3.75024,0,0,0,0,0,0,0,-1,874,603,-5.38017,3.75026
-343,421,-6.22797,-2.57123,0,0,0,0,0,0,0,-1,881,603,-6.22798,2.57121
-336,421,-6.22882,-2.59369,0,0,0,0,0,0,0,-1,888,603,-6.22883,2.5937
-329,421,-4.50134,-1.49469,0,0,0,0,0,0,0,-1,895,603,-4.50137,1.49468
-322,421,-6.30377,-0.285339,0,0,0,0,0,0,0,-1,902,603,-6.30379,0.285355
-315,421,-4.47821,-1.26733,0,0,0,0,0,0,0,-1,909,603,-4.47824,1.26732
-308,421,0,0,0,0,0,0,0,0,0,-1,916,603,0,0
-301,421,0,0,0,0,0,0,0,0,0,-1,923,603,0,0
-294,421,0,0,0,0,0,0,0,0,0,-1,930,603,0,0
-287,421,0,0,0,0,0,0,0,0,0,-1,937,603,0,0
-280,421,0,0,0,0,0,0,0,0,0,-1,944,603,0,0
-273,421,0,0,0,0,0,0,0,0,0,-1,951,603,0,0
-266,421,0,0,0,0,0,0,0,0,0,-1,958,603,0,0
-259,421,0,0,0,0,0,0,0,0,0,-1,965,603,0,0
-252,421,0,0,0,0,0,0,0,0,0,-1,972,603,0,0
-245,421,0,0,0,0,0,0,0,0,0,-1,979,603,0,0
-238,421,0,0,0,0,0,0,0,0,0,-1,986,603,0,0
-231,421,0,0,0,0,0,0,0,0,0,-1,993,603,0,0
-224,421,0,0,0,0,0,0,0,0,0,-1,1000,603,0,0
-217,421,0,0,0,0,0,0,0,0,0,-1,1007,603,0,0
-210,421,0,0,0,0,0,0,0,0,0,-1,1014,603,0,0
-203,421,0,0,0,0,0,0,0,0,0,-1,1021,603,0,0
-196,421,0,0,0,0,0,0,0,0,0,-1,1028,603,0,0
-189,421,0,0,0,0,0,0,0,0,0,-1,1035,603,0,0
-182,421,0,0,0,0,0,0,0,0,0,-1,1042,603,0,0
-175,421,0,0,0,0,0,0,0,0,0,-1,1049,603,0,0
-168,421,0,0,0,0,0,0,0,0,0,-1,1056,603,0,0
-161,421,0,0,0,0,0,0,0,0,0,-1,1063,603,0,0
-154,421,0,0,0,0,0,0,0,0,0,-1,1070,603,0,0
-147,421,0,0,0,0,0,0,0,0,0,-1,1077,603,0,0
-140,421,0,0,0,0,0,0,0,0,0,-1,1084,603,0,0
-133,421,0,0,0,0,0,0,0,0,0,-1,1091,603,0,0
-126,421,0,0,0,0,0,0,0,0,0,-1,1098,603,0,0
-119,421,0,0,0,0,0,0,0,0,0,-1,1105,603,0,0
-112,421,0,0,0,0,0,0,0,0,0,-1,1112,603,0,0
-105,421,0,0,0,0,0,0,0,0,0,-1,1119,603,0,0
-98,421,0,0,0,0,0,0,0,0,0,-1,1126,603,0,0
-91,421,0,0,0,0,0,0,0,0,0,-1,1133,603,0,0
-84,421,0,0,0,0,0,0,0,0,0,-1,1140,603,0,0
-77,421,0,0,0,0,0,0,0,0,0,-1,1147,603,0,0
-70,421,0,0,0,0,0,0,0,0,0,-1,1154,603,0,0
-63,421,0,0,0,0,0,0,0,0,0,-1,1161,603,0,0
-56,421,0,0,0,0,0,0,0,0,0,-1,1168,603,0,0
-49,421,0,0,0,0,0,0,0,0,0,-1,1175,603,0,0
-42,421,0,0,0,0,0,0,0,0,0,-1,1182,603,0,0
-35,421,0,0,0,0,0,0,0,0,0,-1,1189,603,0,0
-28,421,0,0,0,0,0,0,0,0,0,-1,1196,603,0,0
-21,421,0,0,0,0,0,0,0,0,0,-1,1203,603,0,0
-14,421,0,0,0,0,0,0,0,0,0,-1,1210,603,0,0
-7,421,0,0,0,0,0,0,0,0,0,-1,1217,603,0,0
0,421,0,0,0,0,0,0,0,0,0,-1,1224,603,0,0
7,421,0,0,0,0,0,0,0,0,0,-1,1231,603,0,0
14,421,0,0,0,0,0,0,0,0,0,-1,1238,603,0,0
21,421,0,0,0,0,0,0,0,0,0,-1,1245,603,0,0
28,421,0,0,0,0,0,0,0,0,0,-1,1252,603,0,0
35,421,0,0,0,0,0,0,0,0,0,-1,1259,603,0,0
42,421,0,0,0,0,0,0,0,0,0,-1,1266,603,0,0
49,421,0,0,0,0,0,0,0,0,0,-1,1273,603,0,0
56,421,0,0,0,0,0,0,0,0,0,-1,1280,603,0,0
63,421,0,0,0,0,0,0,0,0,0,-1,1287,603,0,0
70,421,0,0,0,0,0,0,0,0,0,-1,1294,603,0,0
77,421,0,0,0,0,0,0,0,0,0,-1,1301,603,0,0
84,421,0,0,0,0,0,0,0,0,0,-1,1308,603,0,0
91,421,0,0,0,0,0,0,0,0,0,-1,1315,603,0,0
98,421,0,0,0,0,0,0,0,0,0,-1,1322,603,0,0
105,421,0,0,0,0,0,0,0,0,0,-1,1329,603,0,0
112,421,0,0,0,0,0,0,0,0,0,-1,1336,603,0,0
119,421,0,0,0,0,0,0,0,0,0,-1,1343,603,0,0
126,421,0,0,0,0,0,0,0,0,0,-1,1350,603,0,0
133,421,0,0,0,0,0,0,0,0,0,-1,1357,603,0,0
140,421,0,0,0,0,0,0,0,0,0,-1,1364,603,0,0
147,421,0,0,0,0,0,0,0,0,0,-1,1371,603,0,0
154,421,0,0,0,0,0,0,0,0,0,-1,1378,603,0,0
161,421,0,0,0,0,0,0,0,0,0,-1,1385,603,0,0
168,421,0,0,0,0,0,0,0,0,0,-1,1392,603,0,0
175,421,0,0,0,0,0,0,0,0,0,-1,1399,603,0,0
182,421,0,0,0,0,0,0,0,0,0,-1,1406,603,0,0
189,421,0,0,0,0,0,0,0,0,0,-1,1413,603,0,0
196,421,0,0,0,0,0,0,0,0,0,-1,1420,603,0,0
203,421,0,0,0,0,0,0,0,0,0,-1,1427,603,0,0
210,421,0,0,0,0,0,0,0,0,0,-1,1434,603,0,0
217,421,0,0,0,0,0,0,0,0,0,-1,1441,603,0,0
224,421,0,0,0,0,0,0,0,0,0,-1,1448,603,0,0
231,421,0,0,0,0,0,0,0,0,0,-1,1455,603,0,0
238,421,0,0,0,0,0,0,0,0,0,-1,1462,603,0,0
245,421,0,0,0,0,0,0,0,0,0,-1,1469,603,0,0
252,421,0,0,0,0,0,0,0,0,0,-1,1476,603,0,0
259,421,0,0,0,0,0,0,0,0,0,-1,1483,603,0,0
266,421,0,0,0,0,0,0,0,0,0,-1,1490,603,0,0
273,421,0,0,0,0,0,0,0,0,0,-1,1497,603,0,0
280,421,0,0,0,0,0,0,0,0,0,-1,1504,603,0,0
287,421,0,0,0,0,0,0,0,0,0,-1,1511,603,0,0
294,421,0,0,0,0,0,0,0,0,0,-1,1518,603,0,0
301,421,0,0,0,0,0,0,0,0,0,-1,1525,603,0,0
308,421,0,0,0,0,0,0,0,0,0,-1,1532,603,0,0
315,421,0,0,0,0,0,0,0,0,0,-1,1539,603,0,0
322,421,0,0,0,0,0,0,0,0,0,-1,1546,603,0,0
329,421,0,0,0,0,0,0,0,0,0,-1,1553,603,0,0
336,421,0,0,0,0,0,0,0,0,0,-1,1560,603,0,0
343,421,0,0,0,0,0,0,0,0,0,-1,1567,603,0,0
350,421,0,0,0,0,0,0,0,0,0,-1,1574,603,0,0
357,421,0,0,0,0,0,0,0,0,0,-1,1581,603,0,0
364,421,0,0,0,0,0,0,0,0,0,-1,1588,603,0,0
371,421,0,0,0,0,0,0,0,0,0,-1,1595,603,0,0
378,421,0,0,0,0,0,0,0,0,0,-1,1602,603,0,0
385,421,0,0,0,0,0,0,0,0,0,-1,1609,603,0,0
392,421,0,0,0,0,0,0,0,0,0,-1,1616,603,0,0
399,421,0,0,0,0,0,0,0,0,0,-1,1623,603,0,0
406,421,0,0,0,0,0,0,0,0,0,-1,1630,603,0,0
413,421,0,0,0,0,0,0,0,0,0,-1,1637,603,0,0
420,421,0,0,0,0,0,0,0,0,0,-1,1644,603,0,0
427,421,0,0,0,0,0,0,0,0,0,-1,1651,603,0,0
434,421,3.68176,-0.0327759,0,0,0,0,0,0,0,-1,1658,603,3.6818,0.0328037
441,421,8.06689,0.527832,0,0,0,0,0,0,0,-1,1665,603,8.06693,-0.527851
448,421,6.93921,0.802246,0,0,0,0,0,0,0,-1,1672,603,6.93923,-0.802251
455,421,7.29456,2.14825,0,0,0,0,0,0,0,-1,1679,603,7.29461,-2.14827
462,421,7.86902,3.53174,0,0,0,0,0,0,0,-1,1686,603,7.869,-3.53173
469,421,8.06604,2.81213,0,0,0,0,0,0,0,-1,1693,603,8.06606,-2.81212
476,421,8.26306,2.09253,0,0,0,0,0,0,0,-1,1700,603,8.26312,-2.09251
483,421,8.05322,0.798096,0,0,0,0,0,0,0,-1,1707,603,8.05323,-0.7981
490,421,7.51233,0.213074,0,0,0,0,0,0,0,-1,1714,603,7.51235,-0.213043
497,421,7.49634,-2.86688,0,0,0,0,0,0,0,-1,1721,603,7.4963,2.86688
504,421,6.90491,-2.18671,0,0,0,0,0,0,0,-1,1728,603,6.90491,2.18669
511,421,6.31348,-1.50653,0,0,0,0,0,0,0,-1,1735,603,6.31353,1.5065
518,421,6.27588,-2.49878,0,0,0,0,0,0,0,-1,1742,603,6.2759,2.4988
525,421,9.08801,-4.15894,0,0,0,0,0,0,0,-1,1749,603,9.08798,4.15892
532,421,9.24658,-3.73981,0.00268493,0.00266714,0.002524,0.00520005,0.000152027,0.783636,0.00341715,0.0350825,1756,603,9.24652,3.73981
539,421,9.34094,-3.42462,0.00195109,0.00196072,0.00181106,0.00376697,0.000144844,0.786728,0.00246445,0.0208743,1763,603,9.34096,3.42464
546,421,9.33215,-3.17438,0.0013782,0.00139488,0.00121233,0.0025989,0.000174175,0.788839,0.00167756,0.0128997,1770,603,9.33212,3.17439
553,421,9.32922,-2.89581,0.00101622,0.000888226,0.000781597,0.00173644,0.000168012,0.744548,0.00110588,0.0120235,1777,603,9.32918,2.89581
560,421,9.32056,-2.58899,0.000730692,0.000433034,0.000436728,0.00104325,0.000120473,0.621179,0.000659026,0.0140157,1784,603,9.3206,2.58899
567,421,9.32739,-2.31781,0.000590625,8.89994e-05,0.000226321,0.000677641,1.98348e-06,0.367056,0.000451101,0.015625,1791,603,9.32743,2.3178
574,421,9.31665,-2.05865,0.00074179,-0.000163009,0.000224691,0.000794515,-0.000215735,0.230488,0.000614347,0.016775,1798,603,9.31665,2.05865
581,421,9.31689,-1.75165,0.00105209,-0.000288822,0.000359729,0.0011425,-0.000379231,0.246227,0.000914667,0.01449,1805,603,9.31694,1.75165
588,421,9.31067,-1.48822,0.00149925,-0.000267686,0.000690677,0.00173718,-0.000505624,0.331766,0.0013584,0.0110758,1812,603,9.31064,1.48825
595,421,9.30542,-1.2276,0.00221016,-1.22014e-05,0.00126149,0.00278008,-0.000582119,0.424333,0.00207483,0.0144538,1819,603,9.30546,1.22761
602,421,9.28052,-0.981934,0.00315053,0.000503218,0.00207545,0.00428849,-0.000634741,0.501534,0.00309236,0.0146368,1826,603,9.28051,0.981958
609,421,9.19336,-0.65741,0,0,0,0,0,0,0,-1,1833,603,9.19335,0.657422
616,421,9.36877,-0.241333,0,0,0,0,0,0,0,-1,1840,603,9.36875,0.241347
623,421,6.19885,0.376648,0,0,0,0,0,0,0,-1,1847,603,6.19881,-0.376624
630,421,6.54993,0.778748,0,0,0,0,0,0,0,-1,1854,603,6.54991,-0.778744
637,421,3.74512,1.65405,0,0,0,0,0,0,0,-1,1861,603,3.74517,-1.65407
644,421,3.58081,0.354675,0,0,0,0,0,0,0,-1,1868,603,3.58082,-0.354704
651,421,3.28687,3.66351,0,0,0,0,0,0,0,-1,1875,603,3.28688,-3.66353
658,421,0,0,0,0,0,0,0,0,0,-1,1882,603,0,0
665,421,0,0,0,0,0,0,0,0,0,-1,1889,603,0,0
672,421,0,0,0,0,0,0,0,0,0,-1,1896,603,0,0
679,421,0,0,0,0,0,0,0,0,0,-1,1903,603,0,0
686,421,0,0,0,0,0,0,0,0,0,-1,1910,603,0,0
693,421,0,0,0,0,0,0,0,0,0,-1,1917,603,0,0
700,421,0,0,0,0,0,0,0,0,0,-1,1924,603,0,0
707,421,0,0,0,0,0,0,0,0,0,-1,1931,603,0,0
714,421,0,0,0,0,0,0,0,0,0,-1,1938,603,0,0
721,421,0,0,0,0,0,0,0,0,0,-1,1945,603,0,0
728,421,0,0,0,0,0,0,0,0,0,-1,1952,603,0,0
735,421,0,0,0,0,0,0,0,0,0,-1,1959,603,0,0
742,421,0,0,0,0,0,0,0,0,0,-1,1966,603,0,0
749,421,0,0,0,0,0,0,0,0,0,-1,1973,603,0,0
756,421,0,0,0,0,0,0,0,0,0,-1,1980,603,0,0
763,421,0,0,0,0,0,0,0,0,0,-1,1987,603,0,0
770,421,0,0,0,0,0,0,0,0,0,-1,1994,603,0,0
777,421,0,0,0,0,0,0,0,0,0,-1,2001,603,0,0
784,421,0,0,0,0,0,0,0,0,0,-1,2008,603,0,0
791,421,0,0,0,0,0,0,0,0,0,-1,2015,603,0,0
798,421,0,0,0,0,0,0,0,0,0,-1,2022,603,0,0
805,421,0,0,0,0,0,0,0,0,0,-1,2029,603,0,0
812,421,0,0,0,0,0,0,0,0,0,-1,2036,603,0,0
-700,414,0,0,0,0,0,0,0,0,0,-1,524,610,0,0
-693,414,0,0,0,0,0,0,0,0,0,-1,531,610,0,0
-686,414,0,0,0,0,0,0,0,0,0,-1,538,610,0,0
-679,414,0,0,0,0,0,0,0,0,0,-1,545,610,0,0
-672,414,0,0,0,0,0,0,0,0,0,-1,552,610,0,0
-665,414,0,0,0,0,0,0,0,0,0,-1,559,610,0,0
-658,414,0,0,0,0,0,0,0,0,0,-1,566,610,0,0
-651,414,0,0,0,0,0,0,0,0,0,-1,573,610,0,0
-644,414,0,0,0,0,0,0,0,0,0,-1,580,610,0,0
-637,414,0,0,0,0,0,0,0,0,0,-1,587,610,0,0
-630,414,0,0,0,0,0,0,0,0,0,-1,594,610,0,0
-623,414,0,0,0,0,0,0,0,0,0,-1,601,610,0,0
-616,414,0,0,0,0,0,0,0,0,0,-1,608,610,0,0
-609,414,0,0,0,0,0,0,0,0,0,-1,615,610,0,0
-602,414,0,0,0,0,0,0,0,0,0,-1,622,610,0,0
-595,414,0,0,0,0,0,0,0,0,0,-1,629,610,0,0
-588,414,0,0,0,0,0,0,0,0,0,-1,636,610,0,0
-581,414,0,0,0,0,0,0,0,0,0,-1,643,610,0,0
-574,414,0,0,0,0,0,0,0,0,0,-1,650,610,0,0
-567,414,0,0,0,0,0,0,0,0,0,-1,657,610,0,0
-560,414,0,0,0,0,0,0,0,0,0,-1,664,610,0,0
-553,414,0,0,0,0,0,0,0,0,0,-1,671,610,0,0
-546,414,0,0,0,0,0,0,0,0,0,-1,678,610,0,0
-539,414,-7.50146,5.65619,0,0,0,0,0,0,0,-1,685,610,-7.50149,-5.65617
-532,414,-8.15204,4.01605,0,0,0,0,0,0,0,-1,692,610,-8.15206,-4.01606
-525,414,-2.35046,-7.01758,0,0,0,0,0,0,0,-1,699,610,-2.35049,7.01757
-518,414,-2.22986,-6.07318,0,0,0,0,0,0,0,-1,706,610,-2.22985,6.07317
-511,414,-1.98743,-4.99188,0,0,0,0,0,0,0,-1,713,610,-1.9874,4.9919
-504,414,-1.62408,-3.64496,0,0,0,0,0,0,0,-1,720,610,-1.62406,3.64499
-497,414,-3.71448,-1.7547,0,0,0,0,0,0,0,-1,727,610,-3.71448,1.7547
-490,414,-3.63922,-2.03778,0.024996,-0.014847,0.0011194,0.0250275,-0.0148784,0.0280658,0.0232867,0.0376682,734,610,-3.63921,2.03778
-483,414,-3.55267,-2.3924,0.0213426,-0.00678188,-0.00206261,0.0214931,-0.00693234,-0.0728191,0.0171141,0.0169565,741,610,-3.55265,2.39237
-476,414,-3.58887,-2.6911,0.0175275,-0.00195162,-0.00365285,0.01819,-0.0026141,-0.179408,0.0130854,0.0116192,748,610,-3.58884,2.69108
-469,414,-3.59271,-2.94269,0.013733,0.000548737,-0.00405501,0.0148804,-0.000598595,-0.275734,0.0101257,0.0121369,755,610,-3.59273,2.94268
-462,414,-3.62622,-3.22968,0.010476,0.00317514,-0.00442789,0.0125642,0.00108695,-0.44067,0.00803837,0.0214385,762,610,-3.6262,3.2297
-455,414,-3.61218,-3.50543,0.00747277,0.00341787,-0.00392429,0.00986241,0.00102824,-0.546962,0.0062604,0.0238295,769,610,-3.61216,3.50543
-448,414,-3.59979,-3.73126,0.00478877,0.00184701,-0.00246377,0.00618732,0.00044846,-0.516291,0.00398382,0.0230545,776,610,-3.5998,3.73127
-441,414,-3.60272,-3.98828,0.00261366,0.000720181,-0.001236,0.00322384,0.00011,-0.458575,0.00211352,0.0161225,783,610,-3.60271,3.98828
-434,414,-3.6134,-4.25781,0.000543367,-0.000937554,0.000170245,0.000562686,-0.000956874,0.112995,0.000887103,0.00944071,790,610,-3.61343,4.25781
-427,414,-3.61182,-4.5116,-0.00114363,-0.00224693,0.00148971,-0.000106712,-0.00328386,0.608073,0.00215455,0.00989026,797,610,-3.61179,4.51161
-420,414,-3.5968,-4.76538,-0.00289477,-0.00406287,0.00311716,-0.000307408,-0.00665022,0.692789,0.00433465,0.00954605,804,610,-3.59677,4.76536
-413,414,-3.5946,-5.02515,-0.0043684,-0.00596562,0.00472652,-0.000373492,-0.00996052,0.701707,0.00651942,0.0107629,811,610,-3.5946,5.02514
-406,414,-3.59283,-5.35162,-0.00622173,-0.00836348,0.00664151,-0.000565317,-0.0140199,0.705466,0.00916397,0.0176366,818,610,-3.59281,5.3516
-399,414,-3.59314,-5.54846,-0.00856943,-0.0113854,0.00901264,-0.000855477,-0.0190994,0.707912,0.0124576,0.0249919,825,610,-3.59315,5.54844
-392,414,-3.66486,-5.66901,-0.0113338,-0.0153133,0.0120475,-0.00111289,-0.0255343,0.703557,0.0166643,0.0304971,832,610,-3.66486,5.66898
-385,414,-3.9671,-5.63812,-0.0148568,-0.0202715,0.0159138,-0.00142165,-0.0337066,0.701143,0.0220125,0.0428517,839,610,-3.96707,5.63812
-378,414,-4.23242,-5.5899,0,0,0,0,0,0,0,-1,846,610,-4.2324,5.58993
-371,414,-4.63513,-5.85254,0,0,0,0,0,0,0,-1,853,610,-4.63515,5.85252
-364,414,-3.46417,-5.16553,0,0,0,0,0,0,0,-1,860,610,-3.4642,5.1655
-357,414,-5.95874,-2.51605,0,0,0,0,0,0,0,-1,867,610,-5.95872,2.51603
-350,414,-6.4502,-2.41821,0,0,0,0,0,0,0,-1,874,610,-6.45021,2.41822
-343,414,-6.80249,-2.32117,0,0,0,0,0,0,0,-1,881,610,-6.80252,2.32116
-336,414,-7.11017,-2.52026,0,0,0,0,0,0,0,-1,888,610,-7.11016,2.52026
-329,414,-7.59747,-2.70313,0,0,0,0,0,0,0,-1,895,610,-7.59747,2.70315
-322,414,-4.42236,-1.29163,0,0,0,0,0,0,0,-1,902,610,-4.42238,1.2916
-315,414,0,0,0,0,0,0,0,0,0,-1,909,610,0,0
-308,414,0,0,0,0,0,0,0,0,0,-1,916,610,0,0
-301,414,0,0,0,0,0,0,0,0,0,-1,923,610,0,0
-294,414,0,0,0,0,0,0,0,0,0,-1,930,610,0,0
-287,414,0,0,0,0,0,0,0,0,0,-1,937,610,0,0
-280,414,0,0,0,0,0,0,0,0,0,-1,944,610,0,0
-273,414,0,0,0,0,0,0,0,0,0,-1,951,610,0,0
-266,414,0,0,0,0,0,0,0,0,0,-1,958,610,0,0
-259,414,0,0,0,0,0,0,0,0,0,-1,965,610,0,0
-252,414,0,0,0,0,0,0,0,0,0,-1,972,610,0,0
-245,414,0,0,0,0,0,0,0,0,0,-1,979,610,0,0
-238,414,0,0,0,0,0,0,0,0,0,-1,986,610,0,0
-231,414,0,0,0,0,0,0,0,0,0,-1,993,610,0,0
-224,414,0,0,0,0,0,0,0,0,0,-1,1000,610,0,0
-217,414,0,0,0,0,0,0,0,0,0,-1,1007,610,0,0
-210,414,0,0,0,0,0,0,0,0,0,-1,1014,610,0,0
-203,414,0,0,0,0,0,0,0,0,0,-1,1021,610,0,0
-196,414,0,0,0,0,0,0,0,0,0,-1,1028,610,0,0
-189,414,0,0,0,0,0,0,0,0,0,-1,1035,610,0,0
-182,414,0,0,0,0,0,0,0,0,0,-1,1042,610,0,0
-175,414,0,0,0,0,0,0,0,0,0,-1,1049,610,0,0
-168,414,0,0,0,0,0,0,0,0,0,-1,1056,610,0,0
-161,414,0,0,0,0,0,0,0,0,0,-1,1063,610,0,0
-154,414,0,0,0,0,0,0,0,0,0,-1,1070,610,0,0
-147,414,0,0,0,0,0,0,0,0,0,-1,1077,610,0,0
-140,414,0,0,0,0,0,0,0,0,0,-1,1084,610,0,0
-133,414,0,0,0,0,0,0,0,0,0,-1,1091,610,0,0
-126,414,0,0,0,0,0,0,0,0,0,-1,1098,610,0,0
-119,414,0,0,0,0,0,0,0,0,0,-1,1105,610,0,0
-112,414,0,0,0,0,0,0,0,0,0,-1,1112,610,0,0
-105,414,0,0,0,0,0,0,0,0,0,-1,1119,610,0,0
-98,414,0,0,0,0,0,0,0,0,0,-1,1126,610,0,0
-91,414,0,0,0,0,0,0,0,0,0,-1,1133,610,0,0
-84,414,0,0,0,0,0,0,0,0,0,-1,1140,610,0,0
-77,414,0,0,0,0,0,0,0,0,0,-1,1147,610,0,0
-70,414,0,0,0,0,0,0,0,0,0,-1,1154,610,0,0
-63,414,0,0,0,0,0,0,0,0,0,-1,1161,610,0,0
-56,414,0,0,0,0,0,0,0,0,0,-1,1168,610,0,0
-49,414,0,0,0,0,0,0,0,0,0,-1,1175,610,0,0
-42,414,0,0,0,0,0,0,0,0,0,-1,1182,610,0,0
-35,414,0,0,0,0,0,0,0,0,0,-1,1189,610,0,0
-28,414,0,0,0,0,0,0,0,0,0,-1,1196,610,0,0
-21,414,0,0,0,0,0,0,0,0,0,-1,1203,610,0,0
-14,414,0,0,0,0,0,0,0,0,0,-1,1210,610,0,0
-7,414,0,0,0,0,0,0,0,0,0,-1,1217,610,0,0
0,414,0,0,0,0,0,0,0,0,0,-1,1224,610,0,0
7,414,0,0,0,0,0,0,0,0,0,-1,1231,610,0,0
14,414,0,0,0,0,0,0,0,0,0,-1,1238,610,0,0
21,414,0,0,0,0,0,0,0,0,0,-1,1245,610,0,0
28,414,0,0,0,0,0,0,0,0,0,-1,1252,610,0,0
35,414,0,0,0,0,0,0,0,0,0,-1,1259,610,0,0
42,414,0,0,0,0,0,0,0,0,0,-1,1266,610,0,0
49,414,0,0,0,0,0,0,0,0,0,-1,1273,610,0,0
56,414,0,0,0,0,0,0,0,0,0,-1,1280,610,0,0
63,414,0,0,0,0,0,0,0,0,0,-1,1287,610,0,0
70,414,0,0,0,0,0,0,0,0,0,-1,1294,610,0,0
77,414,0,0,0,0,0,0,0,0,0,-1,1301,610,0,0
84,414,0,0,0,0,0,0,0,0,0,-1,1308,610,0,0
91,414,0,0,0,0,0,0,0,0,0,-1,1315,610,0,0
98,414,0,0,0,0,0,0,0,0,0,-1,1322,610,0,0
105,414,0,0,0,0,0,0,0,0,0,-1,1329,610,0,0
112,414,0,0,0,0,0,0,0,0,0,-1,1336,610,0,0
119,414,0,0,0,0,0,0,0,0,0,-1,1343,610,0,0
126,414,0,0,0,0,0,0,0,0,0,-1,1350,610,0,0
133,414,0,0,0,0,0,0,0,0,0,-1,1357,610,0,0
140,414,0,0,0,0,0,0,0,0,0,-1,1364,610,0,0
147,414,0,0,0,0,0,0,0,0,0,-1,1371,610,0,0
154,414,0,0,0,0,0,0,0,0,0,-1,1378,610,0,0
161,414,0,0,0,0,0,0,0,0,0,-1,1385,610,0,0
168,414,0,0,0,0,0,0,0,0,0,-1,1392,610,0,0
175,414,0,0,0,0,0,0,0,0,0,-1,1399,610,0,0
182,414,0,0,0,0,0,0,0,0,0,-1,1406,610,0,0
189,414,0,0,0,0,0,0,0,0,0,-1,1413,610,0,0
196,414,0,0,0,0,0,0,0,0,0,-1,1420,610,0,0
203,414,0,0,0,0,0,0,0,0,0,-1,1427,610,0,0
210,414,0,0,0,0,0,0,0,0,0,-1,1434,610,0,0
217,414,0,0,0,0,0,0,0,0,0,-1,1441,610,0,0
224,414,0,0,0,0,0,0,0,0,0,-1,1448,610,0,0
231,414,0,0,0,0,0,0,0,0,0,-1,1455,610,0,0
238,414,0,0,0,0,0,0,0,0,0,-1,1462,610,0,0
245,414,0,0,0,0,0,0,0,0,0,-1,1469,610,0,0
252,414,0,0,0,0,0,0,0,0,0,-1,1476,610,0,0
259,414,0,0,0,0,0,0,0,0,0,-1,1483,610,0,0
266,414,0,0,0,0,0,0,0,0,0,-1,1490,610,0,0
273,414,0,0,0,0,0,0,0,0,0,-1,1497,610,0,0
280,414,0,0,0,0,0,0,0,0,0,-1,1504,610,0,0
287,414,0,0,0,0,0,0,0,0,0,-1,1511,610,0,0
294,414,0,0,0,0,0,0,0,0,0,-1,1518,610,0,0
301,414,0,0,0,0,0,0,0,0,0,-1,1525,610,0,0
308,414,0,0,0,0,0,0,0,0,0,-1,1532,610,0,0
315,414,0,0,0,0,0,0,0,0,0,-1,1539,610,0,0
322,414,0,0,0,0,0,0,0,0,0,-1,1546,610,0,0
329,414,0,0,0,0,0,0,0,0,0,-1,1553,610,0,0
336,414,0,0,0,0,0,0,0,0,0,-1,1560,610,0,0
343,414,0,0,0,0,0,0,0,0,0,-1,1567,610,0,0
350,414,0,0,0,0,0,0,0,0,0,-1,1574,610,0,0
357,414,0,0,0,0,0,0,0,0,0,-1,1581,610,0,0
364,414,0,0,0,0,0,0,0,0,0,-1,1588,610,0,0
371,414,0,0,0,0,0,0,0,0,0,-1,1595,610,0,0
378,414,0,0,0,0,0,0,0,0,0,-1,1602,610,0,0
385,414,0,0,0,0,0,0,0,0,0,-1,1609,610,0,0
392,414,0,0,0,0,0,0,0,0,0,-1,1616,610,0,0
399,414,0,0,0,0,0,0,0,0,0,-1,1623,610,0,0
406,414,0,0,0,0,0,0,0,0,0,-1,1630,610,0,0
413,414,0,0,0,0,0,0,0,0,0,-1,1637,610,0,0
420,414,0,0,0,0,0,0,0,0,0,-1,1644,610,0,0
427,414,0,0,0,0,0,0,0,0,0,-1,1651,610,0,0
434,414,0,0,0,0,0,0,0,0,0,-1,1658,610,0,0
441,414,7.84375,0.584412,0,0,0,0,0,0,0,-1,1665,610,7.84379,-0.584394
448,414,7.40808,1.25446,0,0,0,0,0,0,0,-1,1672,610,7.40807,-1.25446
455,414,6.3512,1.73846,0,0,0,0,0,0,0,-1,1679,610,6.3512,-1.73847
462,414,8.18103,3.22113,0,0,0,0,0,0,0,-1,1686,610,8.18108,-3.22112
469,414,8.38513,2.49579,0,0,0,0,0,0,0,-1,1693,610,8.38516,-2.49576
476,414,8.64099,1.71161,0,0,0,0,0,0,0,-1,1700,610,8.64097,-1.71164
483,414,8.62744,0.687622,0,0,0,0,0,0,0,-1,1707,610,8.62749,-0.687615
490,414,8.38831,-0.0302734,0,0,0,0,0,0,0,-1,1714,610,8.38835,0.0302913
497,414,4.71094,-0.110046,0,0,0,0,0,0,0,-1,1721,610,4.71089,0.110024
504,414,7.19568,-1.43835,0,0,0,0,0,0,0,-1,1728,610,7.19563,1.43836
511,414,5.94153,-1.28772,0,0,0,0,0,0,0,-1,1735,610,5.94151,1.28769
518,414,4.53381,-0.0996704,0,0,0,0,0,0,0,-1,1742,610,4.53378,0.0996819
525,414,6.18811,-1.64056,0,0,0,0,0,0,0,-1,1749,610,6.18814,1.64055
532,414,9.54199,-3.94666,0,0,0,0,0,0,0,-1,1756,610,9.54203,3.94664
539,414,9.57532,-3.51337,0.00180997,0.00260922,0.00206678,0.00431465,0.000104541,0.880898,0.00284223,0.0418385,1763,610,9.57531,3.51339
546,414,9.59229,-3.16644,0.00117269,0.00195939,0.00139246,0.00301299,0.000119094,0.923054,0.00197016,0.0129537,1770,610,9.59226,3.16645
553,414,9.60632,-2.89813,0.000800604,0.00141535,0.000929783,0.00208725,0.000128704,0.945036,0.00135064,0.0120123,1777,610,9.60633,2.89815
560,414,9.60547,-2.59155,0.000527684,0.000918003,0.000572935,0.00132811,0.000117582,0.94955,0.000848928,0.0140031,1784,610,9.60545,2.59155
567,414,9.63708,-2.27734,0.000402732,0.000531109,0.000352178,0.0008249,0.000108941,0.875539,0.000517456,0.0227838,1791,610,9.63704,2.27733
574,414,9.60583,-2.00806,0.000577223,0.000263219,0.000346303,0.000800452,3.999e-05,0.572573,0.000520817,0.0201521,1798,610,9.60584,2.00803
581,414,9.60461,-1.73132,0.00091878,0.000136242,0.00047553,0.00114332,-8.82975e-05,0.441152,0.000793286,0.0152173,1805,610,9.60463,1.7313
588,414,9.5885,-1.48303,0.00138078,0.000165733,0.000785211,0.00176605,-0.000219537,0.456146,0.00125696,0.0147239,1812,610,9.58844,1.48304
595,414,9.58899,-1.20831,0.0021038,0.000422053,0.00131389,0.00282285,-0.000296998,0.500745,0.00198831,0.0208782,1819,610,9.58894,1.20829
602,414,9.60583,-0.928101,0.00296752,0.000915253,0.00203887,0.00422391,-0.00034114,0.552262,0.00293627,0.0234307,1826,610,9.60585,0.928113
609,414,9.60168,-0.651367,0,0,0,0,0,0,0,-1,1833,610,9.60169,0.651382
616,414,9.81287,-0.169922,0,0,0,0,0,0,0,-1,1840,610,9.8129,0.169907
623,414,9.6969,0.0378418,0,0,0,0,0,0,0,-1,1847,610,9.69685,-0.0378644
630,414,5.47144,0.499329,0,0,0,0,0,0,0,-1,1854,610,5.47142,-0.499303
637,414,6.57898,2.38019,0,0,0,0,0,0,0,-1,1861,610,6.579,-2.38019
644,414,5.87073,1.51422,0,0,0,0,0,0,0,-1,1868,610,5.87076,-1.51424
651,414,3.6377,0.820557,0,0,0,0,0,0,0,-1,1875,610,3.6377,-0.820543
658,414,2.29761,3.87323,0,0,0,0,0,0,0,-1,1882,610,2.29758,-3.87325
665,414,0,0,0,0,0,0,0,0,0,-1,1889,610,0,0
672,414,0,0,0,0,0,0,0,0,0,-1,1896,610,0,0
679,414,0,0,0,0,0,0,0,0,0,-1,1903,610,0,0
686,414,0,0,0,0,0,0,0,0,0,-1,1910,610,0,0
693,414,0,0,0,0,0,0,0,0,0,-1,1917,610,0,0
700,414,0,0,0,0,0,0,0,0,0,-1,1924,610,0,0
707,414,0,0,0,0,0,0,0,0,0,-1,1931,610,0,0
714,414,0,0,0,0,0,0,0,0,0,-1,1938,610,0,0
721,414,0,0,0,0,0,0,0,0,0,-1,1945,610,0,0
728,414,0,0,0,0,0,0,0,0,0,-1,1952,610,0,0
735,414,0,0,0,0,0,0,0,0,0,-1,1959,610,0,0
742,414,0,0,0,0,0,0,0,0,0,-1,1966,610,0,0
749,414,0,0,0,0,0,0,0,0,0,-1,1973,610,0,0
756,414,0,0,0,0,0,0,0,0,0,-1,1980,610,0,0
763,414,0,0,0,0,0,0,0,0,0,-1,1987,610,0,0
770,414,0,0,0,0,0,0,0,0,0,-1,1994,610,0,0
777,414,0,0,0,0,0,0,0,0,0,-1,2001,610,0,0
784,414,0,0,0,0,0,0,0,0,0,-1,2008,610,0,0
791,414,0,0,0,0,0,0,0,0,0,-1,2015,610,0,0
798,414,0,0,0,0,0,0,0,0,0,-1,2022,610,0,0
805,414,0,0,0,0,0,0,0,0,0,-1,2029,610,0,0
812,414,0,0,0,0,0,0,0,0,0,-1,2036,610,0,0
-700,407,0,0,0,0,0,0,0,0,0,-1,524,617,0,0
-693,407,0,0,0,0,0,0,0,0,0,-1,531,617,0,0
-686,407,0,0,0,0,0,0,0,0,0,-1,538,617,0,0
-679,407,0,0,0,0,0,0,0,0,0,-1,545,617,0,0
-672,407,0,0,0,0,0,0,0,0,0,-1,552,617,0,0
-665,407,0,0,0,0,0,0,0,0,0,-1,559,617,0,0
-658,407,0,0,0,0,0,0,0,0,0,-1,566,617,0,0
-651,407,0,0,0,0,0,0,0,0,0,-1,573,617,0,0
-644,407,0,0,0,0,0,0,0,0,0,-1,580,617,0,0
-637,407,0,0,0,0,0,0,0,0,0,-1,587,617,0,0
-630,407,0,0,0,0,0,0,0,0,0,-1,594,617,0,0
-623,407,0,0,0,0,0,0,0,0,0,-1,601,617,0,0
-616,407,0,0,0,0,0,0,0,0,0,-1,608,617,0,0
-609,407,0,0,0,0,0,0,0,0,0,-1,615,617,0,0
-602,407,0,0,0,0,0,0,0,0,0,-1,622,617,0,0
-595,407,0,0,0,0,0,0,0,0,0,-1,629,617,0,0
-588,407,0,0,0,0,0,0,0,0,0,-1,636,617,0,0
-581,407,0,0,0,0,0,0,0,0,0,-1,643,617,0,0
-574,407,0,0,0,0,0,0,0,0,0,-1,650,617,0,0
-567,407,0,0,0,0,0,0,0,0,0,-1,657,617,0,0
-560,407,0,0,0,0,0,0,0,0,0,-1,664,617,0,0
-553,407,0,0,0,0,0,0,0,0,0,-1,671,617,0,0
-546,407,-8.54517,-0.658142,0,0,0,0,0,0,0,-1,678,617,-8.54515,0.658112
-539,407,-6.09442,-1.01154,0,0,0,0,0,0,0,-1,685,617,-6.09441,1.01155
-532,407,-7.75665,1.62152,0,0,0,0,0,0,0,-1,692,617,-7.75667,-1.62154
-525,407,-2.66998,-6.01007,0,0,0,0,0,0,0,-1,699,617,-2.66997,6.01005
-518,407,-2.55615,-5.06769,0.0164268,-0.0964072,0.0364805,0.0271939,-0.107174,0.286999,0.0820307,0.0462765,706,617,-2.55613,5.0677
-511,407,-2.49799,-4.02051,0.0162595,-0.0683338,0.0248781,0.0230335,-0.0751078,0.265842,0.0592611,0.0492709,713,617,-2.49797,4.0205
-504,407,-3.60522,-2.5636,0,0,0,0,0,0,0,-1,720,617,-3.60523,2.56359
-497,407,-3.69897,-2.39929,0.0144712,-0.0298838,0.00871588,0.0161224,-0.031535,0.187231,0.0279906,0.0421842,727,617,-3.699,2.39928
-490,407,-3.82654,-2.1778,0.0130996,-0.0181528,0.00388527,0.0135753,-0.0186286,0.121848,0.0186691,0.0218292,734,617,-3.82654,2.17782
-483,407,-3.80768,-2.41412,0.0114852,-0.0102751,0.000798484,0.0115144,-0.0103044,0.0366289,0.0126036,0.0121528,741,617,-3.8077,2.4141
-476,407,-3.82983,-2.65198,0.00969953,-0.00501413,-0.00107792,0.00977808,-0.00509268,-0.0727419,0.00872653,0.00980601,748,617,-3.82986,2.65198
-469,407,-3.84094,-2.91107,0.00777986,-0.00185744,-0.00193516,0.00815392,-0.0022315,-0.190942,0.00631265,0.0120737,755,617,-3.84094,2.91109
-462,407,-3.8443,-3.20789,0.00603098,0.00116123,-0.00266804,0.00720818,-1.59692e-05,-0.415529,0.00481078,0.0190421,762,617,-3.84428,3.20787
-455,407,-3.82941,-3.49933,0.00430388,0.00185714,-0.00248757,0.00585263,0.000308393,-0.556868,0.00380312,0.0211662,769,617,-3.82938,3.49933
-448,407,-3.80804,-3.72052,0.0026557,0.000701703,-0.00137717,0.00336723,-9.82848e-06,-0.476887,0.0022481,0.0179427,776,617,-3.80805,3.72052
-441,407,-3.84747,-3.94421,0.00112285,-0.000201411,-0.000348774,0.00120909,-0.000287653,-0.242408,0.000917105,0.0129334,783,617,-3.84749,3.94424
-434,407,-3.86493,-4.21851,-0.000488512,-0.00167876,0.000922503,1.41739e-05,-0.00218144,0.498931,0.00145904,0.00951978,790,617,-3.86494,4.21853
-427,407,-3.86383,-4.49054,-0.00199776,-0.0030287,0.0022003,-0.000253355,-0.00477311,0.670337,0.00310107,0.010026,797,617,-3.86381,4.49055
-420,407,-3.84259,-4.7522,-0.00366394,-0.00502173,0.00382483,-0.000458221,-0.00822745,0.697564,0.00533878,0.0100889,804,617,-3.8426,4.75222
-413,407,-3.82385,-5.01141,-0.00530416,-0.00728858,0.00566608,-0.000544071,-0.0120487,0.69872,0.00785737,0.0112723,811,617,-3.82384,5.0114
-406,407,-3.8501,-5.19537,-0.00770692,-0.0103207,0.00802132,-0.000886729,-0.0171409,0.704644,0.0111435,0.0227761,818,617,-3.8501,5.19538
-399,407,-3.80273,-5.21344,-0.0108719,-0.0142377,0.0110309,-0.00139627,-0.0237134,0.709701,0.0153647,0.0389475,825,617,-3.80274,5.21342
-392,407,-3.92114,-5.64459,0,0,0,0,0,0,0,-1,832,617,-3.92112,5.64459
-385,407,-4.48895,-5.40753,0,0,0,0,0,0,0,-1,839,617,-4.48897,5.40753
-378,407,-5.32245,-5.33594,0,0,0,0,0,0,0,-1,846,617,-5.32247,5.33596
-371,407,-4.4549,-5.58197,0,0,0,0,0,0,0,-1,853,617,-4.45492,5.58199
-364,407,-6.26666,-1.91302,0,0,0,0,0,0,0,-1,860,617,-6.26669,1.91305
-357,407,-6.64447,-1.83337,0,0,0,0,0,0,0,-1,867,617,-6.64446,1.8334
-350,407,-7.03351,-1.77551,0,0,0,0,0,0,0,-1,874,617,-7.03349,1.77551
-343,407,-7.40967,-1.95026,0,0,0,0,0,0,0,-1,881,617,-7.40969,1.95026
-336,407,-8.10229,-2.40662,0,0,0,0,0,0,0,-1,888,617,-8.10229,2.40664
-329,407,-8.81232,-2.76331,0,0,0,0,0,0,0,-1,895,617,-8.81235,2.76331
-322,407,0,0,0,0,0,0,0,0,0,-1,902,617,0,0
-315,407,0,0,0,0,0,0,0,0,0,-1,909,617,0,0
-308,407,0,0,0,0,0,0,0,0,0,-1,916,617,0,0
-301,407,0,0,0,0,0,0,0,0,0,-1,923,617,0,0
-294,407,0,0,0,0,0,0,0,0,0,-1,930,617,0,0
-287,407,0,0,0,0,0,0,0,0,0,-1,937,617,0,0
-280,407,0,0,0,0,0,0,0,0,0,-1,944,617,0,0
-273,407,0,0,0,0,0,0,0,0,0,-1,951,617,0,0
-266,407,0,0,0,0,0,0,0,0,0,-1,958,617,0,0
-259,407,0,0,0,0,0,0,0,0,0,-1,965,617,0,0
-252,407,0,0,0,0,0,0,0,0,0,-1,972,617,0,0
-245,407,0,0,0,0,0,0,0,0,0,-1,979,617,0,0
-238,407,0,0,0,0,0,0,0,0,0,-1,986,617,0,0
-231,407,0,0,0,0,0,0,0,0,0,-1,993,617,0,0
-224,407,0,0,0,0,0,0,0,0,0,-1,1000,617,0,0
-217,407,0,0,0,0,0,0,0,0,0,-1,1007,617,0,0
-210,407,0,0,0,0,0,0,0,0,0,-1,1014,617,0,0
-203,407,0,0,0,0,0,0,0,0,0,-1,1021,617,0,0
-196,407,0,0,0,0,0,0,0,0,0,-1,1028,617,0,0
-189,407,0,0,0,0,0,0,0,0,0,-1,1035,617,0,0
-182,407,0,0,0,0,0,0,0,0,0,-1,1042,617,0,0
-175,407,0,0,0,0,0,0,0,0,0,-1,1049,617,0,0
-168,407,0,0,0,0,0,0,0,0,0,-1,1056,617,0,0
-161,407,0,0,0,0,0,0,0,0,0,-1,1063,617,0,0
-154,407,0,0,0,0,0,0,0,0,0,-1,1070,617,0,0
-147,407,0,0,0,0,0,0,0,0,0,-1,1077,617,0,0
-140,407,0,0,0,0,0,0,0,0,0,-1,1084,617,0,0
-133,407,0,0,0,0,0,0,0,0,0,-1,1091,617,0,0
-126,407,0,0,0,0,0,0,0,0,0,-1,1098,617,0,0
-119,407,0,0,0,0,0,0,0,0,0,-1,1105,617,0,0
-112,407,0,0,0,0,0,0,0,0,0,-1,1112,617,0,0
-105,407,0,0,0,0,0,0,0,0,0,-1,1119,617,0,0
-98,407,0,0,0,0,0,0,0,0,0,-1,1126,617,0,0
-91,407,0,0,0,0,0,0,0,0,0,-1,1133,617,0,0
-84,407,0,0,0,0,0,0,0,0,0,-1,1140,617,0,0
-77,407,0,0,0,0,0,0,0,0,0,-1,1147,617,0,0
-70,407,0,0,0,0,0,0,0,0,0,-1,1154,617,0,0
-63,407,0,0,0,0,0,0,0,0,0,-1,1161,617,0,0
-56,407,0,0,0,0,0,0,0,0,0,-1,1168,617,0,0
-49,407,0,0,0,0,0,0,0,0,0,-1,1175,617,0,0
-42,407,0,0,0,0,0,0,0,0,0,-1,1182,617,0,0
-35,407,0,0,0,0,0,0,0,0,0,-1,1189,617,0,0
-28,407,0,0,0,0,0,0,0,0,0,-1,1196,617,0,0
-21,407,0,0,0,0,0,0,0,0,0,-1,1203,617,0,0
-14,407,0,0,0,0,0,0,0,0,0,-1,1210,617,0,0
-7,407,0,0,0,0,0,0,0,0,0,-1,1217,617,0,0
0,407,0,0,0,0,0,0,0,0,0,-1,1224,617,0,0
7,407,0,0,0,0,0,0,0,0,0,-1,1231,617,0,0
14,407,0,0,0,0,0,0,0,0,0,-1,1238,617,0,0
21,407,0,0,0,0,0,0,0,0,0,-1,1245,617,0,0
28,407,0,0,0,0,0,0,0,0,0,-1,1252,617,0,0
35,407,0,0,0,0,0,0,0,0,0,-1,1259,617,0,0
42,407,0,0,0,0,0,0,0,0,0,-1,1266,617,0,0
49,407,0,0,0,0,0,0,0,0,0,-1,1273,617,0,0
56,407,0,0,0,0,0,0,0,0,0,-1,1280,617,0,0
63,407,0,0,0,0,0,0,0,0,0,-1,1287,617,0,0
70,407,0,0,0,0,0,0,0,0,0,-1,1294,617,0,0
77,407,0,0,0,0,0,0,0,0,0,-1,1301,617,0,0
84,407,0,0,0,0,0,0,0,0,0,-1,1308,617,0,0
91,407,0,0,0,0,0,0,0,0,0,-1,1315,617,0,0
98,407,0,0,0,0,0,0,0,0,0,-1,1322,617,0,0
105,407,0,0,0,0,0,0,0,0,0,-1,1329,617,0,0
112,407,0,0,0,0,0,0,0,0,0,-1,1336,617,0,0
119,407,0,0,0,0,0,0,0,0,0,-1,1343,617,0,0
126,407,0,0,0,0,0,0,0,0,0,-1,1350,617,0,0
133,407,0,0,0,0,0,0,0,0,0,-1,1357,617,0,0
140,407,0,0,0,0,0,0,0,0,0,-1,1364,617,0,0
147,407,0,0,0,0,0,0,0,0,0,-1,1371,617,0,0
154,407,0,0,0,0,0,0,0,0,0,-1,1378,617,0,0
161,407,0,0,0,0,0,0,0,0,0,-1,1385,617,0,0
168,407,0,0,0,0,0,0,0,0,0,-1,1392,617,0,0
175,407,0,0,0,0,0,0,0,0,0,-1,1399,617,0,0
182,407,0,0,0,0,0,0,0,0,0,-1,1406,617,0,0
189,407,0,0,0,0,0,0,0,0,0,-1,1413,617,0,0
196,407,0,0,0,0,0,0,0,0,0,-1,1420,617,0,0
203,407,0,0,0,0,0,0,0,0,0,-1,1427,617,0,0
210,407,0,0,0,0,0,0,0,0,0,-1,1434,617,0,0
217,407,0,0,0,0,0,0,0,0,0,-1,1441,617,0,0
224,407,0,0,0,0,0,0,0,0,0,-1,1448,617,0,0
231,407,0,0,0,0,0,0,0,0,0,-1,1455,617,0,0
238,407,0,0,0,0,0,0,0,0,0,-1,1462,617,0,0
245,407,0,0,0,0,0,0,0,0,0,-1,1469,617,0,0
252,407,0,0,0,0,0,0,0,0,0,-1,1476,617,0,0
259,407,0,0,0,0,0,0,0,0,0,-1,1483,617,0,0
266,407,0,0,0,0,0,0,0,0,0,-1,1490,617,0,0
273,407,0,0,0,0,0,0,0,0,0,-1,1497,617,0,0
280,407,0,0,0,0,0,0,0,0,0,-1,1504,617,0,0
287,407,0,0,0,0,0,0,0,0,0,-1,1511,617,0,0
294,407,0,0,0,0,0,0,0,0,0,-1,1518,617,0,0
301,407,0,0,0,0,0,0,0,0,0,-1,1525,617,0,0
308,407,0,0,0,0,0,0,0,0,0,-1,1532,617,0,0
315,407,0,0,0,0,0,0,0,0,0,-1,1539,617,0,0
322,407,0,0,0,0,0,0,0,0,0,-1,1546,617,0,0
329,407,0,0,0,0,0,0,0,0,0,-1,1553,617,0,0
336,407,0,0,0,0,0,0,0,0,0,-1,1560,617,0,0
343,407,0,0,0,0,0,0,0,0,0,-1,1567,617,0,0
350,407,0,0,0,0,0,0,0,0,0,-1,1574,617,0,0
357,407,0,0,0,0,0,0,0,0,0,-1,1581,617,0,0
364,407,0,0,0,0,0,0,0,0,0,-1,1588,617,0,0
371,407,0,0,0,0,0,0,0,0,0,-1,1595,617,0,0
378,407,0,0,0,0,0,0,0,0,0,-1,1602,617,0,0
385,407,0,0,0,0,0,0,0,0,0,-1,1609,617,0,0
392,407,0,0,0,0,0,0,0,0,0,-1,1616,617,0,0
399,407,0,0,0,0,0,0,0,0,0,-1,1623,617,0,0
406,407,0,0,0,0,0,0,0,0,0,-1,1630,617,0,0
413,407,0,0,0,0,0,0,0,0,0,-1,1637,617,0,0
420,407,0,0,0,0,0,0,0,0,0,-1,1644,617,0,0
427,407,0,0,0,0,0,0,0,0,0,-1,1651,617,0,0
434,407,0,0,0,0,0,0,0,0,0,-1,1658,617,0,0
441,407,0,0,0,0,0,0,0,0,0,-1,1665,617,0,0
448,407,7.02893,2.13843,0,0,0,0,0,0,0,-1,1672,617,7.02899,-2.13844
455,407,7.55237,2.29242,0,0,0,0,0,0,0,-1,1679,617,7.55236,-2.29244
462,407,8.2926,2.46173,0,0,0,0,0,0,0,-1,1686,617,8.29261,-2.46174
469,407,8.71509,2.22681,0,0,0,0,0,0,0,-1,1693,617,8.71511,-2.22681
476,407,8.89917,1.47766,0,0,0,0,0,0,0,-1,1700,617,8.89914,-1.47768
483,407,9.02612,0.682983,0,0,0,0,0,0,0,-1,1707,617,9.02608,-0.683004
490,407,9.12659,0.000671387,0,0,0,0,0,0,0,-1,1714,617,9.12653,-0.000675931
497,407,7.76819,0.855835,0,0,0,0,0,0,0,-1,1721,617,7.7682,-0.855865
504,407,4.69336,0.160706,0,0,0,0,0,0,0,-1,1728,617,4.69337,-0.1607
511,407,4.07104,-0.00140381,0,0,0,0,0,0,0,-1,1735,617,4.07109,0.00141425
518,407,6.09534,1.9411,0,0,0,0,0,0,0,-1,1742,617,6.09532,-1.94113
525,407,5.72534,-1.35986,0,0,0,0,0,0,0,-1,1749,617,5.72529,1.35988
532,407,7.31763,-2.34937,0,0,0,0,0,0,0,-1,1756,617,7.31766,2.34937
539,407,9.82458,-3.43073,0,0,0,0,0,0,0,-1,1763,617,9.82454,3.43075
546,407,9.87231,-3.15985,0.000772265,0.00235761,0.00141513,0.00318695,-5.70753e-05,1.0407,0.00214391,0.0146676,1770,617,9.87231,3.15983
553,407,9.87012,-2.89398,0.000414685,0.00179257,0.000950897,0.00227787,-7.06158e-05,1.09889,0.00154266,0.0146787,1777,617,9.87017,2.89397
560,407,9.89563,-2.58014,0.000171146,0.00126389,0.000606314,0.00153369,-9.86556e-05,1.15212,0.00105688,0.0151005,1784,617,9.8956,2.58016
567,407,9.93726,-2.28931,7.24007e-05,0.0008438,0.000393798,0.00100932,-9.31174e-05,1.1729,0.000705968,0.0271441,1791,617,9.93726,2.28933
574,407,9.88403,-1.99615,0.000271159,0.000575082,0.000393437,0.000844885,1.35601e-06,0.969693,0.000562805,0.0243144,1798,617,9.88408,1.99617
581,407,9.85974,-1.7243,0.000650546,0.000475338,0.000532978,0.00110307,2.28121e-05,0.703943,0.000727896,0.0169693,1805,617,9.85975,1.7243
588,407,9.86096,-1.4621,0.00114117,0.000551404,0.000843258,0.00173962,-4.70426e-05,0.617196,0.00117574,0.0123816,1812,617,9.86098,1.46209
595,407,9.8811,-1.18713,0.00188075,0.000847602,0.00135367,0.00281306,-8.47046e-05,0.60312,0.00190424,0.0233203,1819,617,9.88115,1.18713
602,407,9.89026,-0.901611,0.00270082,0.00136976,0.00203678,0.00417805,-0.000107466,0.62749,0.00282187,0.0187557,1826,617,9.89026,0.901629
609,407,9.84399,-0.60144,0.00331719,0.00178129,0.00266589,0.00532354,-0.000225063,0.645162,0.00362637,0.0156167,1833,617,9.84404,0.601461
616,407,9.89136,-0.211792,0.00389462,0.00298077,0.00363317,0.00709949,-0.000224096,0.722845,0.00480943,0.0273052,1840,617,9.89137,0.211807
623,407,10.2125,0.221497,0,0,0,0,0,0,0,-1,1847,617,10.2125,-0.221508
630,407,7.06177,0.814575,0,0,0,0,0,0,0,-1,1854,617,7.06178,-0.814579
637,407,6.27808,1.17114,0,0,0,0,0,0,0,-1,1861,617,6.27803,-1.17116
644,407,5.09766,2.27747,0,0,0,0,0,0,0,-1,1868,617,5.09764,-2.27746
651,407,7.37524,0.0513916,0,0,0,0,0,0,0,-1,1875,617,7.3752,-0.0513923
658,407,3.76685,0.594177,0,0,0,0,0,0,0,-1,1882,617,3.76683,-0.594184
665,407,5.76123,0.375061,0,0,0,0,0,0,0,-1,1889,617,5.76118,-0.37509
672,407,0,0,0,0,0,0,0,0,0,-1,1896,617,0,0
679,407,0,0,0,0,0,0,0,0,0,-1,1903,617,0,0
686,407,0,0,0,0,0,0,0,0,0,-1,1910,617,0,0
693,407,0,0,0,0,0,0,0,0,0,-1,1917,617,0,0
700,407,0,0,0,0,0,0,0,0,0,-1,1924,617,0,0
707,407,0,0,0,0,0,0,0,0,0,-1,1931,617,0,0
714,407,0,0,0,0,0,0,0,0,0,-1,1938,617,0,0
721,407,0,0,0,0,0,0,0,0,0,-1,1945,617,0,0
728,407,0,0,0,0,0,0,0,0,0,-1,1952,617,0,0
735,407,0,0,0,0,0,0,0,0,0,-1,1959,617,0,0
742,407,0,0,0,0,0,0,0,0,0,-1,1966,617,0,0
749,407,0,0,0,0,0,0,0,0,0,-1,1973,617,0,0
756,407,0,0,0,0,0,0,0,0,0,-1,1980,617,0,0
763,407,0,0,0,0,0,0,0,0,0,-1,1987,617,0,0
770,407,0,0,0,0,0,0,0,0,0,-1,1994,617,0,0
777,407,0,0,0,0,0,0,0,0,0,-1,2001,617,0,0
784,407,0,0,0,0,0,0,0,0,0,-1,2008,617,0,0
791,407,0,0,0,0,0,0,0,0,0,-1,2015,617,0,0
798,407,0,0,0,0,0,0,0,0,0,-1,2022,617,0,0
805,407,0,0,0,0,0,0,0,0,0,-1,2029,617,0,0
812,407,0,0,0,0,0,0,0,0,0,-1,2036,617,0,0
-700,400,0,0,0,0,0,0,0,0,0,-1,524,624,0,0
-693,400,0,0,0,0,0,0,0,0,0,-1,531,624,0,0
-686,400,0,0,0,0,0,0,0,0,0,-1,538,624,0,0
-679,400,0,0,0,0,0,0,0,0,0,-1,545,624,0,0
-672,400,0,0,0,0,0,0,0,0,0,-1,552,624,0,0
-665,400,0,0,0,0,0,0,0,0,0,-1,559,624,0,0
-658,400,0,0,0,0,0,0,0,0,0,-1,566,624,0,0
-651,400,0,0,0,0,0,0,0,0,0,-1,573,624,0,0
-644,400,0,0,0,0,0,0,0,0,0,-1,580,624,0,0
-637,400,0,0,0,0,0,0,0,0,0,-1,587,624,0,0
-630,400,0,0,0,0,0,0,0,0,0,-1,594,624,0,0
-623,400,0,0,0,0,0,0,0,0,0,-1,601,624,0,0
-616,400,0,0,0,0,0,0,0,0,0,-1,608,624,0,0
-609,400,0,0,0,0,0,0,0,0,0,-1,615,624,0,0
-602,400,0,0,0,0,0,0,0,0,0,-1,622,624,0,0
-595,400,0,0,0,0,0,0,0,0,0,-1,629,624,0,0
-588,400,0,0,0,0,0,0,0,0,0,-1,636,624,0,0
-581,400,0,0,0,0,0,0,0,0,0,-1,643,624,0,0
-574,400,0,0,0,0,0,0,0,0,0,-1,650,624,0,0
-567,400,0,0,0,0,0,0,0,0,0,-1,657,624,0,0
-560,400,0,0,0,0,0,0,0,0,0,-1,664,624,0,0
-553,400,0,0,0,0,0,0,0,0,0,-1,671,624,0,0
-546,400,-8.41174,-1.4599,0,0,0,0,0,0,0,-1,678,624,-8.41173,1.45989
-539,400,-5.69104,-1.7337,0,0,0,0,0,0,0,-1,685,624,-5.69103,1.7337
-532,400,-3.03632,-2.03912,0,0,0,0,0,0,0,-1,692,624,-3.03632,2.03909
-525,400,-2.73138,-3.83441,0,0,0,0,0,0,0,-1,699,624,-2.73137,3.83442
-518,400,-2.74066,-3.40765,0.00652748,-0.0784051,0.029273,0.0156392,-0.0875169,0.301762,0.0641958,0.0463276,706,624,-2.74066,3.40767
-511,400,-3.04749,-2.95441,0.00611659,-0.0579282,0.0211988,0.0124976,-0.0643092,0.292382,0.0475888,0.0464384,713,624,-3.04748,2.95439
-504,400,-3.47858,-2.58075,0,0,0,0,0,0,0,-1,720,624,-3.47861,2.58075
-497,400,-3.98761,-1.98138,0.00561326,-0.0280231,0.00906043,0.00789855,-0.0303084,0.247074,0.0232893,0.0317205,727,624,-3.98759,1.98137
-490,400,-4.06219,-2.13629,0.00541159,-0.018093,0.005018,0.00643806,-0.0191195,0.201773,0.0153492,0.0149041,734,624,-4.06217,2.13632
-483,400,-4.08136,-2.39905,0.00509466,-0.0111219,0.00226212,0.0054043,-0.0114315,0.136035,0.00992563,0.0134096,741,624,-4.08135,2.39902
-476,400,-4.08325,-2.63904,0.00466324,-0.00607095,0.000366719,0.00467576,-0.00608347,0.0341107,0.00622954,0.0126606,748,624,-4.08326,2.63902
-469,400,-4.09375,-2.90222,0.00401346,-0.00277575,-0.000707972,0.0040865,-0.00284879,-0.102805,0.00402529,0.0143452,755,624,-4.09376,2.90221
-462,400,-4.08441,-3.20642,0.0032676,0.000136986,-0.00156705,0.00391721,-0.000512618,-0.392977,0.00279804,0.0187726,762,624,-4.08443,3.20645
-455,400,-4.08527,-3.45941,0.00240432,0.000950025,-0.00153182,0.00337282,-1.84765e-05,-0.563799,0.00225473,0.0189559,769,624,-4.08529,3.45943
-448,400,-4.09155,-3.70355,0.00146619,7.09382e-05,-0.000684298,0.00174578,-0.000208649,-0.387877,0.00123927,0.0140247,776,624,-4.09153,3.70357
-441,400,-4.11316,-3.94708,0.000325639,-0.000739211,0.000228735,0.000372692,-0.000786265,0.202884,0.000683178,0.0128318,783,624,-4.11318,3.94708
-434,400,-4.13434,-4.20587,-0.00114734,-0.00214041,0.00142989,-0.000130221,-0.00315752,0.618284,0.00206298,0.0104785,790,624,-4.13431,4.20586
-427,400,-4.12457,-4.46783,-0.00275242,-0.00358895,0.00273682,-0.000402085,-0.00593929,0.709571,0.00383253,0.00963226,797,624,-4.1246,4.46783
-420,400,-4.07037,-4.75848,-0.00439427,-0.00575713,0.00437755,-0.000645436,-0.00950597,0.708185,0.0061335,0.0128374,804,624,-4.0704,4.75848
-413,400,-4.07806,-4.98279,-0.00628711,-0.00843351,0.00650543,-0.000766956,-0.0139537,0.703649,0.00905762,0.0279161,811,624,-4.07807,4.9828
-406,400,-4.30872,-5.10284,-0.00938948,-0.012207,0.00940891,-0.00128445,-0.020312,0.711087,0.0131341,0.0386442,818,624,-4.30872,5.10282
-399,400,-4.33234,-5.28131,0,0,0,0,0,0,0,-1,825,624,-4.33232,5.28132
-392,400,-4.07983,-5.99487,0,0,0,0,0,0,0,-1,832,624,-4.07984,5.9949
-385,400,-3.68738,-5.04205,0,0,0,0,0,0,0,-1,839,624,-3.68736,5.04207
-378,400,-6.84064,-1.28662,0,0,0,0,0,0,0,-1,846,624,-6.84062,1.28662
-371,400,-6.98865,-1.2572,0,0,0,0,0,0,0,-1,853,624,-6.98865,1.25721
-364,400,-6.97247,-1.24133,0,0,0,0,0,0,0,-1,860,624,-6.97249,1.24135
-357,400,-7.18329,-1.23218,0,0,0,0,0,0,0,-1,867,624,-7.18327,1.2322
-350,400,-7.40186,-1.19409,0,0,0,0,0,0,0,-1,874,624,-7.40187,1.19407
-343,400,-8.09357,-1.51147,0,0,0,0,0,0,0,-1,881,624,-8.09355,1.51148
-336,400,0,0,0,0,0,0,0,0,0,-1,888,624,0,0
-329,400,0,0,0,0,0,0,0,0,0,-1,895,624,0,0
-322,400,0,0,0,0,0,0,0,0,0,-1,902,624,0,0
-315,400,0,0,0,0,0,0,0,0,0,-1,909,624,0,0
-308,400,0,0,0,0,0,0,0,0,0,-1,916,624,0,0
-301,400,0,0,0,0,0,0,0,0,0,-1,923,624,0,0
-294,400,0,0,0,0,0,0,0,0,0,-1,930,624,0,0
-287,400,0,0,0,0,0,0,0,0,0,-1,937,624,0,0
-280,400,0,0,0,0,0,0,0,0,0,-1,944,624,0,0
-273,400,0,0,0,0,0,0,0,0,0,-1,951,624,0,0
-266,400,0,0,0,0,0,0,0,0,0,-1,958,624,0,0
-259,400,0,0,0,0,0,0,0,0,0,-1,965,624,0,0
-252,400,0,0,0,0,0,0,0,0,0,-1,972,624,0,0
-245,400,0,0,0,0,0,0,0,0,0,-1,979,624,0,0
-238,400,0,0,0,0,0,0,0,0,0,-1,986,624,0,0
-231,400,0,0,0,0,0,0,0,0,0,-1,993,624,0,0
-224,400,0,0,0,0,0,0,0,0,0,-1,1000,624,0,0
-217,400,0,0,0,0,0,0,0,0,0,-1,1007,624,0,0
-210,400,0,0,0,0,0,0,0,0,0,-1,1014,624,0,0
-203,400,0,0,0,0,0,0,0,0,0,-1,1021,624,0,0
-196,400,0,0,0,0,0,0,0,0,0,-1,1028,624,0,0
-189,400,0,0,0,0,0,0,0,0,0,-1,1035,624,0,0
-182,400,0,0,0,0,0,0,0,0,0,-1,1042,624,0,0
-175,400,0,0,0,0,0,0,0,0,0,-1,1049,624,0,0
-168,400,0,0,0,0,0,0,0,0,0,-1,1056,624,0,0
-161,400,0,0,0,0,0,0,0,0,0,-1,1063,624,0,0
-154,400,0,0,0,0,0,0,0,0,0,-1,1070,624,0,0
-147,400,0,0,0,0,0,0,0,0,0,-1,1077,624,0,0
-140,400,0,0,0,0,0,0,0,0,0,-1,1084,624,0,0
-133,400,0,0,0,0,0,0,0,0,0,-1,1091,624,0,0
-126,400,0,0,0,0,0,0,0,0,0,-1,1098,624,0,0
-119,400,0,0,0,0,0,0,0,0,0,-1,1105,624,0,0
-112,400,0,0,0,0,0,0,0,0,0,-1,1112,624,0,0
-105,400,0,0,0,0,0,0,0,0,0,-1,1119,624,0,0
-98,400,0,0,0,0,0,0,0,0,0,-1,1126,624,0,0
-91,400,0,0,0,0,0,0,0,0,0,-1,1133,624,0,0
-84,400,0,0,0,0,0,0,0,0,0,-1,1140,624,0,0
-77,400,0,0,0,0,0,0,0,0,0,-1,1147,624,0,0
-70,400,0,0,0,0,0,0,0,0,0,-1,1154,624,0,0
-63,400,0,0,0,0,0,0,0,0,0,-1,1161,624,0,0
-56,400,0,0,0,0,0,0,0,0,0,-1,1168,624,0,0
-49,400,0,0,0,0,0,0,0,0,0,-1,1175,624,0,0
-42,400,0,0,0,0,0,0,0,0,0,-1,1182,624,0,0
-35,400,0,0,0,0,0,0,0,0,0,-1,1189,624,0,0
-28,400,0,0,0,0,0,0,0,0,0,-1,1196,624,0,0
-21,400,0,0,0,0,0,0,0,0,0,-1,1203,624,0,0
-14,400,0,0,0,0,0,0,0,0,0,-1,1210,624,0,0
-7,400,0,0,0,0,0,0,0,0,0,-1,1217,624,0,0
0,400,0,0,0,0,0,0,0,0,0,-1,1224,624,0,0
7,400,0,0,0,0,0,0,0,0,0,-1,1231,624,0,0
14,400,0,0,0,0,0,0,0,0,0,-1,1238,624,0,0
21,400,0,0,0,0,0,0,0,0,0,-1,1245,624,0,0
28,400,0,0,0,0,0,0,0,0,0,-1,1252,624,0,0
35,400,0,0,0,0,0,0,0,0,0,-1,1259,624,0,0
42,400,0,0,0,0,0,0,0,0,0,-1,1266,624,0,0
49,400,0,0,0,0,0,0,0,0,0,-1,1273,624,0,0
56,400,0,0,0,0,0,0,0,0,0,-1,1280,624,0,0
63,400,0,0,0,0,0,0,0,0,0,-1,1287,624,0,0
70,400,0,0,0,0,0,0,0,0,0,-1,1294,624,0,0
77,400,0,0,0,0,0,0,0,0,0,-1,1301,624,0,0
84,400,0,0,0,0,0,0,0,0,0,-1,1308,624,0,0
91,400,0,0,0,0,0,0,0,0,0,-1,1315,624,0,0
98,400,0,0,0,0,0,0,0,0,0,-1,1322,624,0,0
105,400,0,0,0,0,0,0,0,0,0,-1,1329,624,0,0
112,400,0,0,0,0,0,0,0,0,0,-1,1336,624,0,0
119,400,0,0,0,0,0,0,0,0,0,-1,1343,624,0,0
126,400,0,0,0,0,0,0,0,0,0,-1,1350,624,0,0
133,400,0,0,0,0,0,0,0,0,0,-1,1357,624,0,0
140,400,0,0,0,0,0,0,0,0,0,-1,1364,624,0,0
147,400,0,0,0,0,0,0,0,0,0,-1,1371,624,0,0
154,400,0,0,0,0,0,0,0,0,0,-1,1378,624,0,0
161,400,0,0,0,0,0,0,0,0,0,-1,1385,624,0,0
168,400,0,0,0,0,0,0,0,0,0,-1,1392,624,0,0
175,400,0,0,0,0,0,0,0,0,0,-1,1399,624,0,0
182,400,0,0,0,0,0,0,0,0,0,-1,1406,624,0,0
189,400,0,0,0,0,0,0,0,0,0,-1,1413,624,0,0
196,400,0,0,0,0,0,0,0,0,0,-1,1420,624,0,0
203,400,0,0,0,0,0,0,0,0,0,-1,1427,624,0,0
210,400,0,0,0,0,0,0,0,0,0,-1,1434,624,0,0
217,400,0,0,0,0,0,0,0,0,0,-1,1441,624,0,0
224,400,0,0,0,0,0,0,0,0,0,-1,1448,624,0,0
231,400,0,0,0,0,0,0,0,0,0,-1,1455,624,0,0
238,400,0,0,0,0,0,0,0,0,0,-1,1462,624,0,0
245,400,0,0,0,0,0,0,0,0,0,-1,1469,624,0,0
252,400,0,0,0,0,0,0,0,0,0,-1,1476,624,0,0
259,400,0,0,0,0,0,0,0,0,0,-1,1483,624,0,0
266,400,0,0,0,0,0,0,0,0,0,-1,1490,624,0,0
273,400,0,0,0,0,0,0,0,0,0,-1,1497,624,0,0
280,400,0,0,0,0,0,0,0,0,0,-1,1504,624,0,0
287,400,0,0,0,0,0,0,0,0,0,-1,1511,624,0,0
294,400,0,0,0,0,0,0,0,0,0,-1,1518,624,0,0
301,400,0,0,0,0,0,0,0,0,0,-1,1525,624,0,0
308,400,0,0,0,0,0,0,0,0,0,-1,1532,624,0,0
315,400,0,0,0,0,0,0,0,0,0,-1,1539,624,0,0
322,400,0,0,0,0,0,0,0,0,0,-1,1546,624,0,0
329,400,0,0,0,0,0,0,0,0,0,-1,1553,624,0,0
336,400,0,0,0,0,0,0,0,0,0,-1,1560,624,0,0
343,400,0,0,0,0,0,0,0,0,0,-1,1567,624,0,0
350,400,0,0,0,0,0,0,0,0,0,-1,1574,624,0,0
357,400,0,0,0,0,0,0,0,0,0,-1,1581,624,0,0
364,400,0,0,0,0,0,0,0,0,0,-1,1588,624,0,0
371,400,0,0,0,0,0,0,0,0,0,-1,1595,624,0,0
378,400,0,0,0,0,0,0,0,0,0,-1,1602,624,0,0
385,400,0,0,0,0,0,0,0,0,0,-1,1609,624,0,0
392,400,0,0,0,0,0,0,0,0,0,-1,1616,624,0,0
399,400,0,0,0,0,0,0,0,0,0,-1,1623,624,0,0
406,400,0,0,0,0,0,0,0,0,0,-1,1630,624,0,0
413,400,0,0,0,0,0,0,0,0,0,-1,1637,624,0,0
420,400,0,0,0,0,0,0,0,0,0,-1,1644,624,0,0
427,400,0,0,0,0,0,0,0,0,0,-1,1651,624,0,0
434,400,0,0,0,0,0,0,0,0,0,-1,1658,624,0,0
441,400,0,0,0,0,0,0,0,0,0,-1,1665,624,0,0
448,400,0,0,0,0,0,0,0,0,0,-1,1672,624,0,0
455,400,8.91309,2.75885,0,0,0,0,0,0,0,-1,1679,624,8.91312,-2.75885
462,400,8.90356,2.37878,0,0,0,0,0,0,0,-1,1686,624,8.90353,-2.37878
469,400,9.14429,1.76849,0,0,0,0,0,0,0,-1,1693,624,9.14432,-1.76847
476,400,9.23254,1.25995,0,0,0,0,0,0,0,-1,1700,624,9.23252,-1.25994
483,400,9.59766,0.562439,0,0,0,0,0,0,0,-1,1707,624,9.59771,-0.56242
490,400,9.92578,-0.213745,0,0,0,0,0,0,0,-1,1714,624,9.92579,0.21376
497,400,9.19141,0.175232,0,0,0,0,0,0,0,-1,1721,624,9.19138,-0.175209
504,400,9.23438,0.00823975,0,0,0,0,0,0,0,-1,1728,624,9.23436,-0.00823766
511,400,6.16687,3.3501,0,0,0,0,0,0,0,-1,1735,624,6.16682,-3.35007
518,400,6.55237,1.74994,0,0,0,0,0,0,0,-1,1742,624,6.55236,-1.74993
525,400,6.99731,1.08783,0,0,0,0,0,0,0,-1,1749,624,6.99736,-1.08785
532,400,6.96582,-1.74982,0,0,0,0,0,0,0,-1,1756,624,6.96585,1.74983
539,400,10.2543,-3.41113,0,0,0,0,0,0,0,-1,1763,624,10.2543,3.41116
546,400,10.2144,-3.18671,0.000357602,0.00296721,0.00150941,0.00365761,-0.0003328,1.14181,0.00255657,0.0255731,1770,624,10.2144,3.18668
553,400,10.1334,-2.88287,-1.03639e-05,0.00236627,0.00101826,0.00274287,-0.000386959,1.21656,0.00197027,0.0153803,1777,624,10.1334,2.88286
560,400,10.1683,-2.57086,-0.00022977,0.00177479,0.000653316,0.00196891,-0.000423896,1.28197,0.00147436,0.0126937,1784,624,10.1683,2.57089
567,400,10.1827,-2.29407,-0.000312722,0.00127432,0.000406131,0.00137221,-0.000410614,1.33427,0.00107807,0.0165607,1791,624,10.1827,2.29407
574,400,10.1593,-2.00702,-0.000110092,0.000948165,0.000360846,0.00105949,-0.000221422,1.27154,0.000790542,0.0188092,1798,624,10.1593,2.00699
581,400,10.1122,-1.73395,0.000290272,0.000805805,0.00046808,0.0010824,1.36771e-05,1.03708,0.000717085,0.0186972,1805,624,10.1122,1.73393
588,400,10.1234,-1.45184,0.000792752,0.000854369,0.000744349,0.00156855,7.85738e-05,0.806081,0.00102052,0.015227,1812,624,10.1234,1.45185
595,400,10.1439,-1.18634,0.00151412,0.00111849,0.00120425,0.00253669,9.59147e-05,0.703994,0.00166008,0.0139227,1819,624,10.144,1.18635
602,400,10.1609,-0.904602,0.00226718,0.00159423,0.00181703,0.00377862,8.27863e-05,0.693845,0.00249195,0.0132692,1826,624,10.1609,0.904603
609,400,10.1167,-0.609375,0.0026675,0.00198017,0.0023064,0.0046557,-8.02963e-06,0.711439,0.00310648,0.0133711,1833,624,10.1167,0.609371
616,400,10.1063,-0.324524,0.00290839,0.00289647,0.00296668,0.00586911,-6.42575e-05,0.784394,0.00393433,0.0157719,1840,624,10.1063,0.324502
623,400,10.3365,0.0869141,0.00300942,0.00388137,0.0036687,0.0071399,-0.000249115,0.844539,0.00484511,0.0433252,1847,624,10.3365,-0.0869056
630,400,10.4995,0.494629,0,0,0,0,0,0,0,-1,1854,624,10.4995,-0.494605
637,400,6.92896,1.01917,0,0,0,0,0,0,0,-1,1861,624,6.92899,-1.01918
644,400,8.65381,1.4599,0,0,0,0,0,0,0,-1,1868,624,8.65379,-1.45991
651,400,7.90601,0.424072,0,0,0,0,0,0,0,-1,1875,624,7.90598,-0.424097
658,400,8.69031,1.0484,0,0,0,0,0,0,0,-1,1882,624,8.6903,-1.0484
665,400,5.98438,0.522522,0,0,0,0,0,0,0,-1,1889,624,5.98442,-0.522552
672,400,0,0,0,0,0,0,0,0,0,-1,1896,624,0,0
679,400,0,0,0,0,0,0,0,0,0,-1,1903,624,0,0
686,400,0,0,0,0,0,0,0,0,0,-1,1910,624,0,0
693,400,0,0,0,0,0,0,0,0,0,-1,1917,624,0,0
700,400,0,0,0,0,0,0,0,0,0,-1,1924,624,0,0
707,400,0,0,0,0,0,0,0,0,0,-1,1931,624,0,0
714,400,0,0,0,0,0,0,0,0,0,-1,1938,624,0,0
721,400,0,0,0,0,0,0,0,0,0,-1,1945,624,0,0
728,400,0,0,0,0,0,0,0,0,0,-1,1952,624,0,0
735,400,0,0,0,0,0,0,0,0,0,-1,1959,624,0,0
742,400,0,0,0,0,0,0,0,0,0,-1,1966,624,0,0
749,400,0,0,0,0,0,0,0,0,0,-1,1973,624,0,0
756,400,0,0,0,0,0,0,0,0,0,-1,1980,624,0,0
763,400,0,0,0,0,0,0,0,0,0,-1,1987,624,0,0
770,400,0,0,0,0,0,0,0,0,0,-1,1994,624,0,0
777,400,0,0,0,0,0,0,0,0,0,-1,2001,624,0,0
784,400,0,0,0,0,0,0,0,0,0,-1,2008,624,0,0
791,400,0,0,0,0,0,0,0,0,0,-1,2015,624,0,0
798,400,0,0,0,0,0,0,0,0,0,-1,2022,624,0,0
805,400,0,0,0,0,0,0,0,0,0,-1,2029,624,0,0
812,400,0,0,0,0,0,0,0,0,0,-1,2036,624,0,0
-700,393,0,0,0,0,0,0,0,0,0,-1,524,631,0,0
-693,393,0,0,0,0,0,0,0,0,0,-1,531,631,0,0
-686,393,0,0,0,0,0,0,0,0,0,-1,538,631,0,0
-679,393,0,0,0,0,0,0,0,0,0,-1,545,631,0,0
-672,393,0,0,0,0,0,0,0,0,0,-1,552,631,0,0
-665,393,0,0,0,0,0,0,0,0,0,-1,559,631,0,0
-658,393,0,0,0,0,0,0,0,0,0,-1,566,631,0,0
-651,393,0,0,0,0,0,0,0,0,0,-1,573,631,0,0
-644,393,0,0,0,0,0,0,0,0,0,-1,580,631,0,0
-637,393,0,0,0,0,0,0,0,0,0,-1,587,631,0,0
-630,393,0,0,0,0,0,0,0,0,0,-1,594,631,0,0
-623,393,0,0,0,0,0,0,0,0,0,-1,601,631,0,0
-616,393,0,0,0,0,0,0,0,0,0,-1,608,631,0,0
-609,393,0,0,0,0,0,0,0,0,0,-1,615,631,0,0
-602,393,0,0,0,0,0,0,0,0,0,-1,622,631,0,0
-595,393,0,0,0,0,0,0,0,0,0,-1,629,631,0,0
-588,393,0,0,0,0,0,0,0,0,0,-1,636,631,0,0
-581,393,0,0,0,0,0,0,0,0,0,-1,643,631,0,0
-574,393,0,0,0,0,0,0,0,0,0,-1,650,631,0,0
-567,393,0,0,0,0,0,0,0,0,0,-1,657,631,0,0
-560,393,0,0,0,0,0,0,0,0,0,-1,664,631,0,0
-553,393,-2.35107,3.92633,0,0,0,0,0,0,0,-1,671,631,-2.35108,-3.92634
-546,393,-1.78778,2.4856,0,0,0,0,0,0,0,-1,678,631,-1.78778,-2.48557
-539,393,-5.2113,-2.20245,0,0,0,0,0,0,0,-1,685,631,-5.21128,2.20247
-532,393,-2.83643,-2.01624,0,0,0,0,0,0,0,-1,692,631,-2.83642,2.01626
-525,393,-4.13959,-1.88464,0,0,0,0,0,0,0,-1,699,631,-4.1396,1.88466
-518,393,-3.79382,-1.99713,0.00584571,-0.0563579,0.020736,0.0121244,-0.0626366,0.294017,0.0463311,0.0457193,706,631,-3.79385,1.99712
-511,393,-3.61951,-1.9859,0.0048619,-0.0427423,0.0155577,0.00949537,-0.0473758,0.28946,0.0351788,0.0435256,713,631,-3.61951,1.98587
-504,393,-3.99127,-2.12823,0,0,0,0,0,0,0,-1,720,631,-3.99128,2.12821
-497,393,-4.34198,-1.78784,0.00381243,-0.0220825,0.00735888,0.00575757,-0.0240277,0.258416,0.0182431,0.0234462,727,631,-4.34201,1.78785
-490,393,-4.33258,-2.1391,0.00359281,-0.0146229,0.00437926,0.00459094,-0.015621,0.224094,0.0122349,0.0132706,734,631,-4.33259,2.13907
-483,393,-4.32526,-2.39899,0.00339767,-0.00924311,0.00226123,0.00379,-0.00963543,0.171789,0.00799232,0.0181069,741,631,-4.32527,2.39898
-476,393,-4.3335,-2.63287,0.00319806,-0.00506987,0.000647582,0.00324848,-0.00512028,0.0776931,0.00487182,0.0162128,748,631,-4.33349,2.63286
-469,393,-4.35309,-2.89258,0.00282101,-0.00221029,-0.000369942,0.00284807,-0.00223734,-0.073005,0.00294311,0.0134332,755,631,-4.35308,2.89259
-462,393,-4.36438,-3.19214,0.00229719,7.43996e-05,-0.00109897,0.00274878,-0.000377191,-0.389887,0.00197032,0.0151833,762,631,-4.36437,3.19213
-455,393,-4.38257,-3.45251,0.00164297,0.000626621,-0.0010072,0.00226293,6.65861e-06,-0.551761,0.00150641,0.0139649,769,631,-4.38257,3.45249
-448,393,-4.3797,-3.72321,0.000900953,-0.000155938,-0.000305735,0.000983022,-0.000238008,-0.262251,0.000747424,0.0136408,776,631,-4.37968,3.72318
-441,393,-4.39252,-3.97107,-0.000174115,-0.00101939,0.000586682,0.000126311,-0.00131981,0.473261,0.000924857,0.0125969,783,631,-4.39251,3.97108
-434,393,-4.40253,-4.20148,-0.00164921,-0.00237435,0.00176966,-0.000205355,-0.0038182,0.684357,0.00247985,0.0109697,790,631,-4.40253,4.20147
-427,393,-4.3446,-4.49347,-0.00332034,-0.00391269,0.00312149,-0.000481001,-0.00675203,0.738099,0.00434989,0.016753,797,631,-4.34463,4.49345
-420,393,-4.32056,-4.73206,-0.00496811,-0.00625729,0.00481099,-0.000758723,-0.0104667,0.718803,0.00673913,0.0340505,804,631,-4.32053,4.73203
-413,393,-4.55975,-4.7511,-0.00716131,-0.00938336,0.00727375,-0.000914224,-0.0156304,0.709612,0.0101293,0.0494947,811,631,-4.55974,4.75108
-406,393,-4.70251,-4.82684,0,0,0,0,0,0,0,-1,818,631,-4.70252,4.82683
-399,393,-5.07343,-5.92365,0,0,0,0,0,0,0,-1,825,631,-5.07344,5.92364
-392,393,-2.08063,-3.02386,0,0,0,0,0,0,0,-1,832,631,-2.08063,3.02384
-385,393,-3.16931,-0.624756,0,0,0,0,0,0,0,-1,839,631,-3.16928,0.624764
-378,393,-7.33081,-0.872314,0,0,0,0,0,0,0,-1,846,631,-7.33081,0.872325
-371,393,-7.47858,-0.811096,0,0,0,0,0,0,0,-1,853,631,-7.47859,0.811075
-364,393,-7.64917,-0.662415,0,0,0,0,0,0,0,-1,860,631,-7.64917,0.662406
-357,393,-8.09686,-0.726013,0,0,0,0,0,0,0,-1,867,631,-8.09689,0.726029
-350,393,-8.38788,-0.511841,0,0,0,0,0,0,0,-1,874,631,-8.38785,0.511811
-343,393,0,0,0,0,0,0,0,0,0,-1,881,631,0,0
-336,393,0,0,0,0,0,0,0,0,0,-1,888,631,0,0
-329,393,0,0,0,0,0,0,0,0,0,-1,895,631,0,0
-322,393,0,0,0,0,0,0,0,0,0,-1,902,631,0,0
-315,393,0,0,0,0,0,0,0,0,0,-1,909,631,0,0
-308,393,0,0,0,0,0,0,0,0,0,-1,916,631,0,0
-301,393,0,0,0,0,0,0,0,0,0,-1,923,631,0,0
-294,393,0,0,0,0,0,0,0,0,0,-1,930,631,0,0
-287,393,0,0,0,0,0,0,0,0,0,-1,937,631,0,0
-280,393,0,0,0,0,0,0,0,0,0,-1,944,631,0,0
-273,393,0,0,0,0,0,0,0,0,0,-1,951,631,0,0
-266,393,0,0,0,0,0,0,0,0,0,-1,958,631,0,0
-259,393,0,0,0,0,0,0,0,0,0,-1,965,631,0,0
-252,393,0,0,0,0,0,0,0,0,0,-1,972,631,0,0
-245,393,0,0,0,0,0,0,0,0,0,-1,979,631,0,0
-238,393,0,0,0,0,0,0,0,0,0,-1,986,631,0,0
-231,393,0,0,0,0,0,0,0,0,0,-1,993,631,0,0
-224,393,0,0,0,0,0,0,0,0,0,-1,1000,631,0,0
-217,393,0,0,0,0,0,0,0,0,0,-1,1007,631,0,0
-210,393,0,0,0,0,0,0,0,0,0,-1,1014,631,0,0
-203,393,0,0,0,0,0,0,0,0,0,-1,1021,631,0,0
-196,393,0,0,0,0,0,0,0,0,0,-1,1028,631,0,0
-189,393,0,0,0,0,0,0,0,0,0,-1,1035,631,0,0
-182,393,0,0,0,0,0,0,0,0,0,-1,1042,631,0,0
-175,393,0,0,0,0,0,0,0,0,0,-1,1049,631,0,0
-168,393,0,0,0,0,0,0,0,0,0,-1,1056,631,0,0
-161,393,0,0,0,0,0,0,0,0,0,-1,1063,631,0,0
-154,393,0,0,0,0,0,0,0,0,0,-1,1070,631,0,0
-147,393,0,0,0,0,0,0,0,0,0,-1,1077,631,0,0
-140,393,0,0,0,0,0,0,0,0,0,-1,1084,631,0,0
-133,393,0,0,0,0,0,0,0,0,0,-1,1091,631,0,0
-126,393,0,0,0,0,0,0,0,0,0,-1,1098,631,0,0
-119,393,0,0,0,0,0,0,0,0,0,-1,1105,631,0,0
-112,393,0,0,0,0,0,0,0,0,0,-1,1112,631,0,0
-105,393,0,0,0,0,0,0,0,0,0,-1,1119,631,0,0
-98,393,0,0,0,0,0,0,0,0,0,-1,1126,631,0,0
-91,393,0,0,0,0,0,0,0,0,0,-1,1133,631,0,0
-84,393,0,0,0,0,0,0,0,0,0,-1,1140,631,0,0
-77,393,0,0,0,0,0,0,0,0,0,-1,1147,631,0,0
-70,393,0,0,0,0,0,0,0,0,0,-1,1154,631,0,0
-63,393,0,0,0,0,0,0,0,0,0,-1,1161,631,0,0
-56,393,0,0,0,0,0,0,0,0,0,-1,1168,631,0,0
-49,393,0,0,0,0,0,0,0,0,0,-1,1175,631,0,0
-42,393,0,0,0,0,0,0,0,0,0,-1,1182,631,0,0
-35,393,0,0,0,0,0,0,0,0,0,-1,1189,631,0,0
-28,393,0,0,0,0,0,0,0,0,0,-1,1196,631,0,0
-21,393,0,0,0,0,0,0,0,0,0,-1,1203,631,0,0
-14,393,0,0,0,0,0,0,0,0,0,-1,1210,631,0,0
-7,393,0,0,0,0,0,0,0,0,0,-1,1217,631,0,0
0,393,0,0,0,0,0,0,0,0,0,-1,1224,631,0,0
7,393,0,0,0,0,0,0,0,0,0,-1,1231,631,0,0
14,393,0,0,0,0,0,0,0,0,0,-1,1238,631,0,0
21,393,0,0,0,0,0,0,0,0,0,-1,1245,631,0,0
28,393,0,0,0,0,0,0,0,0,0,-1,1252,631,0,0
35,393,0,0,0,0,0,0,0,0,0,-1,1259,631,0,0
42,393,0,0,0,0,0,0,0,0,0,-1,1266,631,0,0
49,393,0,0,0,0,0,0,0,0,0,-1,1273,631,0,0
56,393,0,0,0,0,0,0,0,0,0,-1,1280,631,0,0
63,393,0,0,0,0,0,0,0,0,0,-1,1287,631,0,0
70,393,0,0,0,0,0,0,0,0,0,-1,1294,631,0,0
77,393,0,0,0,0,0,0,0,0,0,-1,1301,631,0,0
84,393,0,0,0,0,0,0,0,0,0,-1,1308,631,0,0
91,393,0,0,0,0,0,0,0,0,0,-1,1315,631,0,0
98,393,0,0,0,0,0,0,0,0,0,-1,1322,631,0,0
105,393,0,0,0,0,0,0,0,0,0,-1,1329,631,0,0
112,393,0,0,0,0,0,0,0,0,0,-1,1336,631,0,0
119,393,0,0,0,0,0,0,0,0,0,-1,1343,631,0,0
126,393,0,0,0,0,0,0,0,0,0,-1,1350,631,0,0
133,393,0,0,0,0,0,0,0,0,0,-1,1357,631,0,0
140,393,0,0,0,0,0,0,0,0,0,-1,1364,631,0,0
147,393,0,0,0,0,0,0,0,0,0,-1,1371,631,0,0
154,393,0,0,0,0,0,0,0,0,0,-1,1378,631,0,0
161,393,0,0,0,0,0,0,0,0,0,-1,1385,631,0,0
168,393,0,0,0,0,0,0,0,0,0,-1,1392,631,0,0
175,393,0,0,0,0,0,0,0,0,0,-1,1399,631,0,0
182,393,0,0,0,0,0,0,0,0,0,-1,1406,631,0,0
189,393,0,0,0,0,0,0,0,0,0,-1,1413,631,0,0
196,393,0,0,0,0,0,0,0,0,0,-1,1420,631,0,0
203,393,0,0,0,0,0,0,0,0,0,-1,1427,631,0,0
210,393,0,0,0,0,0,0,0,0,0,-1,1434,631,0,0
217,393,0,0,0,0,0,0,0,0,0,-1,1441,631,0,0
224,393,0,0,0,0,0,0,0,0,0,-1,1448,631,0,0
231,393,0,0,0,0,0,0,0,0,0,-1,1455,631,0,0
238,393,0,0,0,0,0,0,0,0,0,-1,1462,631,0,0
245,393,0,0,0,0,0,0,0,0,0,-1,1469,631,0,0
252,393,0,0,0,0,0,0,0,0,0,-1,1476,631,0,0
259,393,0,0,0,0,0,0,0,0,0,-1,1483,631,0,0
266,393,0,0,0,0,0,0,0,0,0,-1,1490,631,0,0
273,393,0,0,0,0,0,0,0,0,0,-1,1497,631,0,0
280,393,0,0,0,0,0,0,0,0,0,-1,1504,631,0,0
287,393,0,0,0,0,0,0,0,0,0,-1,1511,631,0,0
294,393,0,0,0,0,0,0,0,0,0,-1,1518,631,0,0
301,393,0,0,0,0,0,0,0,0,0,-1,1525,631,0,0
308,393,0,0,0,0,0,0,0,0,0,-1,1532,631,0,0
315,393,0,0,0,0,0,0,0,0,0,-1,1539,631,0,0
322,393,0,0,0,0,0,0,0,0,0,-1,1546,631,0,0
329,393,0,0,0,0,0,0,0,0,0,-1,1553,631,0,0
336,393,0,0,0,0,0,0,0,0,0,-1,1560,631,0,0
343,393,0,0,0,0,0,0,0,0,0,-1,1567,631,0,0
350,393,0,0,0,0,0,0,0,0,0,-1,1574,631,0,0
357,393,0,0,0,0,0,0,0,0,0,-1,1581,631,0,0
364,393,0,0,0,0,0,0,0,0,0,-1,1588,631,0,0
371,393,0,0,0,0,0,0,0,0,0,-1,1595,631,0,0
378,393,0,0,0,0,0,0,0,0,0,-1,1602,631,0,0
385,393,0,0,0,0,0,0,0,0,0,-1,1609,631,0,0
392,393,0,0,0,0,0,0,0,0,0,-1,1616,631,0,0
399,393,0,0,0,0,0,0,0,0,0,-1,1623,631,0,0
406,393,0,0,0,0,0,0,0,0,0,-1,1630,631,0,0
413,393,0,0,0,0,0,0,0,0,0,-1,1637,631,0,0
420,393,0,0,0,0,0,0,0,0,0,-1,1644,631,0,0
427,393,0,0,0,0,0,0,0,0,0,-1,1651,631,0,0
434,393,0,0,0,0,0,0,0,0,0,-1,1658,631,0,0
441,393,0,0,0,0,0,0,0,0,0,-1,1665,631,0,0
448,393,0,0,0,0,0,0,0,0,0,-1,1672,631,0,0
455,393,0,0,0,0,0,0,0,0,0,-1,1679,631,0,0
462,393,8.51099,1.89502,0,0,0,0,0,0,0,-1,1686,631,8.51103,-1.89504
469,393,9.39465,1.51703,0,0,0,0,0,0,0,-1,1693,631,9.39465,-1.51703
476,393,9.95569,1.185,0,0,0,0,0,0,0,-1,1700,631,9.95575,-1.18497
483,393,10.5267,0.887329,0,0,0,0,0,0,0,-1,1707,631,10.5267,-0.887321
490,393,10.9303,0.761414,0,0,0,0,0,0,0,-1,1714,631,10.9303,-0.761386
497,393,8.32153,1.88104,0,0,0,0,0,0,0,-1,1721,631,8.32148,-1.88103
504,393,9.46985,1.78711,0,0,0,0,0,0,0,-1,1728,631,9.46986,-1.78713
511,393,9.66565,-0.375977,0,0,0,0,0,0,0,-1,1735,631,9.66571,0.375949
518,393,7.01599,1.62482,0,0,0,0,0,0,0,-1,1742,631,7.01597,-1.62483
525,393,7.88245,-1.13422,0,0,0,0,0,0,0,-1,1749,631,7.88246,1.13423
532,393,7.06335,-1.18103,0,0,0,0,0,0,0,-1,1756,631,7.06332,1.18101
539,393,9.91626,-2.46301,0,0,0,0,0,0,0,-1,1763,631,9.91625,2.46302
546,393,10.533,-3.20703,0,0,0,0,0,0,0,-1,1770,631,10.533,3.20706
553,393,10.448,-2.82977,-0.000612053,0.00310811,0.00116853,0.0034447,-0.000948645,1.29034,0.00266947,0.0237517,1777,631,10.448,2.8298
560,393,10.4456,-2.58386,-0.000783844,0.00237152,0.00071547,0.00252617,-0.000938495,1.35792,0.00206915,0.0149246,1784,631,10.4456,2.58388
567,393,10.4446,-2.28296,-0.000842283,0.00171371,0.00037681,0.0017681,-0.000896675,1.42744,0.00156569,0.013549,1791,631,10.4445,2.28294
574,393,10.4326,-2.02289,-0.000640071,0.00126784,0.000236012,0.0012966,-0.000668833,1.44953,0.00115388,0.0143082,1798,631,10.4326,2.02291
581,393,10.3929,-1.73077,-0.0002148,0.00102923,0.000282307,0.0010903,-0.000275866,1.35777,0.000834166,0.0156742,1805,631,10.3929,1.73076
588,393,10.4049,-1.43237,0.000320323,0.00101264,0.000511509,0.00128411,4.88511e-05,1.08287,0.000840264,0.017285,1812,631,10.4049,1.43235
595,393,10.4274,-1.17535,0.001048,0.0012225,0.000920257,0.00205964,0.000210869,0.832662,0.00130848,0.0138936,1819,631,10.4274,1.17538
602,393,10.4321,-0.915588,0.00176615,0.00163967,0.0014703,0.00317457,0.000231255,0.763907,0.00204366,0.0153376,1826,631,10.4322,0.915611
609,393,10.4163,-0.625427,0.00203423,0.00200195,0.00186662,0.00388478,0.000151393,0.781075,0.00254089,0.0151699,1833,631,10.4162,0.625448
616,393,10.3923,-0.340027,0.00208314,0.00265405,0.00228287,0.00466924,6.79437e-05,0.847597,0.00309043,0.0147434,1840,631,10.3923,0.340032
623,393,10.4065,-0.0100708,0.00200619,0.00346257,0.00270372,0.00553445,-6.56862e-05,0.916942,0.00371172,0.0224952,1847,631,10.4065,0.0100541
630,393,10.5566,0.380249,0.00126261,0.00422368,0.00278335,0.00589576,-0.000409472,1.02983,0.00407386,0.04568,1854,631,10.5567,-0.38025
637,393,10.6254,0.844727,0,0,0,0,0,0,0,-1,1861,631,10.6253,-0.844708
644,393,8.97583,1.30585,0,0,0,0,0,0,0,-1,1868,631,8.97586,-1.30584
651,393,9.58679,0.726563,0,0,0,0,0,0,0,-1,1875,631,9.58684,-0.726583
658,393,9.21338,1.50836,0,0,0,0,0,0,0,-1,1882,631,9.21338,-1.50834
665,393,6.1001,2.32129,0,0,0,0,0,0,0,-1,1889,631,6.10012,-2.3213
672,393,7.14575,2.43225,0,0,0,0,0,0,0,-1,1896,631,7.14572,-2.43222
679,393,0,0,0,0,0,0,0,0,0,-1,1903,631,0,0
686,393,0,0,0,0,0,0,0,0,0,-1,1910,631,0,0
693,393,0,0,0,0,0,0,0,0,0,-1,1917,631,0,0
700,393,0,0,0,0,0,0,0,0,0,-1,1924,631,0,0
707,393,0,0,0,0,0,0,0,0,0,-1,1931,631,0,0
714,393,0,0,0,0,0,0,0,0,0,-1,1938,631,0,0
721,393,0,0,0,0,0,0,0,0,0,-1,1945,631,0,0
728,393,0,0,0,0,0,0,0,0,0,-1,1952,631,0,0
735,393,0,0,0,0,0,0,0,0,0,-1,1959,631,0,0
742,393,0,0,0,0,0,0,0,0,0,-1,1966,631,0,0
749,393,0,0,0,0,0,0,0,0,0,-1,1973,631,0,0
756,393,0,0,0,0,0,0,0,0,0,-1,1980,631,0,0
763,393,0,0,0,0,0,0,0,0,0,-1,1987,631,0,0
770,393,0,0,0,0,0,0,0,0,0,-1,1994,631,0,0
777,393,0,0,0,0,0,0,0,0,0,-1,2001,631,0,0
784,393,0,0,0,0,0,0,0,0,0,-1,2008,631,0,0
791,393,0,0,0,0,0,0,0,0,0,-1,2015,631,0,0
798,393,0,0,0,0,0,0,0,0,0,-1,2022,631,0,0
805,393,0,0,0,0,0,0,0,0,0,-1,2029,631,0,0
812,393,0,0,0,0,0,0,0,0,0,-1,2036,631,0,0
-700,386,0,0,0,0,0,0,0,0,0,-1,524,638,0,0
-693,386,0,0,0,0,0,0,0,0,0,-1,531,638,0,0
-686,386,0,0,0,0,0,0,0,0,0,-1,538,638,0,0
-679,386,0,0,0,0,0,0,0,0,0,-1,545,638,0,0
-672,386,0,0,0,0,0,0,0,0,0,-1,552,638,0,0
-665,386,0,0,0,0,0,0,0,0,0,-1,559,638,0,0
-658,386,0,0,0,0,0,0,0,0,0,-1,566,638,0,0
-651,386,0,0,0,0,0,0,0,0,0,-1,573,638,0,0
-644,386,0,0,0,0,0,0,0,0,0,-1,580,638,0,0
-637,386,0,0,0,0,0,0,0,0,0,-1,587,638,0,0
-630,386,0,0,0,0,0,0,0,0,0,-1,594,638,0,0
-623,386,0,0,0,0,0,0,0,0,0,-1,601,638,0,0
-616,386,0,0,0,0,0,0,0,0,0,-1,608,638,0,0
-609,386,0,0,0,0,0,0,0,0,0,-1,615,638,0,0
-602,386,0,0,0,0,0,0,0,0,0,-1,622,638,0,0
-595,386,0,0,0,0,0,0,0,0,0,-1,629,638,0,0
-588,386,0,0,0,0,0,0,0,0,0,-1,636,638,0,0
-581,386,0,0,0,0,0,0,0,0,0,-1,643,638,0,0
-574,386,0,0,0,0,0,0,0,0,0,-1,650,638,0,0
-567,386,0,0,0,0,0,0,0,0,0,-1,657,638,0,0
-560,386,-3.97229,-5.13898,0,0,0,0,0,0,0,-1,664,638,-3.97232,5.13897
-553,386,-4.94244,-5.54309,0,0,0,0,0,0,0,-1,671,638,-4.94242,5.5431
-546,386,-1.78668,1.72827,0,0,0,0,0,0,0,-1,678,638,-1.78668,-1.72829
-539,386,-0.879456,-2.90009,0,0,0,0,0,0,0,-1,685,638,-0.879442,2.90008
-532,386,-4.83362,1.61053,0,0,0,0,0,0,0,-1,692,638,-4.83361,-1.61051
-525,386,-4.03229,-0.373779,0,0,0,0,0,0,0,-1,699,638,-4.0323,0.373779
-518,386,-4.55933,-1.37079,0,0,0,0,0,0,0,-1,706,638,-4.5593,1.37077
-511,386,-4.30939,-1.35266,0,0,0,0,0,0,0,-1,713,638,-4.30937,1.35264
-504,386,-4.52277,-1.59412,0.00326391,-0.022679,0.00792215,0.00549177,-0.0249068,0.274139,0.0187058,0.0279976,720,638,-4.52277,1.59414
-497,386,-4.62933,-1.8761,0.0027284,-0.0165186,0.00555352,0.00421586,-0.018006,0.261698,0.0136284,0.0125274,727,638,-4.62936,1.87607
-490,386,-4.61719,-2.15375,0.00245288,-0.0111735,0.00348582,0.00329282,-0.0120134,0.236453,0.00930289,0.0115597,734,638,-4.61721,2.15378
-483,386,-4.59277,-2.42963,0.00232211,-0.00720208,0.00194359,0.00270346,-0.00758344,0.193751,0.00615788,0.0153769,741,638,-4.59275,2.42961
-476,386,-4.60193,-2.6604,0.00228662,-0.00385251,0.00060691,0.00234604,-0.00391194,0.0976004,0.00365055,0.0155097,748,638,-4.60194,2.66039
-469,386,-4.62128,-2.91675,0.00211939,-0.00141695,-0.000345205,0.00215278,-0.00145034,-0.0964037,0.00209339,0.0122861,755,638,-4.62129,2.91678
-462,386,-4.6236,-3.19592,0.00177919,0.000249736,-0.000940811,0.00222687,-0.000197944,-0.444137,0.00155477,0.0111074,762,638,-4.62362,3.19594
-455,386,-4.6311,-3.44421,0.00129446,0.000506438,-0.000781562,0.00177571,2.51861e-05,-0.551925,0.0011755,0.0120576,769,638,-4.6311,3.44423
-448,386,-4.62292,-3.72021,0.000704021,-0.000159277,-0.000227421,0.000760267,-0.000215523,-0.242455,0.000591912,0.0123198,776,638,-4.62294,3.7202
-441,386,-4.64563,-3.96442,-0.000329155,-0.00108648,0.000637569,3.37207e-05,-0.00144935,0.517431,0.000977671,0.0128245,783,638,-4.64561,3.9644
-434,386,-4.61743,-4.24951,-0.00181698,-0.00237671,0.00179111,-0.000284001,-0.00390969,0.707898,0.00251714,0.0219673,790,638,-4.61743,4.24953
-427,386,-4.53046,-4.56525,0,0,0,0,0,0,0,-1,797,638,-4.53045,4.56522
-420,386,-4.56177,-4.75134,0,0,0,0,0,0,0,-1,804,638,-4.56174,4.75135
-413,386,-4.76227,-4.72852,0,0,0,0,0,0,0,-1,811,638,-4.76226,4.72849
-406,386,-4.51135,-4.10999,0,0,0,0,0,0,0,-1,818,638,-4.51135,4.10996
-399,386,-3.57117,-3.42126,0,0,0,0,0,0,0,-1,825,638,-3.57116,3.42129
-392,386,-4.00977,0.403625,0,0,0,0,0,0,0,-1,832,638,-4.0098,-0.403616
-385,386,-3.2406,-0.118469,0,0,0,0,0,0,0,-1,839,638,-3.24058,0.118485
-378,386,-2.55243,-1.22748,0,0,0,0,0,0,0,-1,846,638,-2.55243,1.22748
-371,386,-7.95807,-0.330261,0,0,0,0,0,0,0,-1,853,638,-7.95806,0.330284
-364,386,-8.90637,-0.665955,0,0,0,0,0,0,0,-1,860,638,-8.90635,0.665951
-357,386,-9.10364,-0.388733,0,0,0,0,0,0,0,-1,867,638,-9.10364,0.388744
-350,386,0,0,0,0,0,0,0,0,0,-1,874,638,0,0
-343,386,0,0,0,0,0,0,0,0,0,-1,881,638,0,0
-336,386,0,0,0,0,0,0,0,0,0,-1,888,638,0,0
-329,386,0,0,0,0,0,0,0,0,0,-1,895,638,0,0
-322,386,0,0,0,0,0,0,0,0,0,-1,902,638,0,0
-315,386,0,0,0,0,0,0,0,0,0,-1,909,638,0,0
-308,386,0,0,0,0,0,0,0,0,0,-1,916,638,0,0
-301,386,0,0,0,0,0,0,0,0,0,-1,923,638,0,0
-294,386,0,0,0,0,0,0,0,0,0,-1,930,638,0,0
-287,386,0,0,0,0,0,0,0,0,0,-1,937,638,0,0
-280,386,0,0,0,0,0,0,0,0,0,-1,944,638,0,0
-273,386,0,0,0,0,0,0,0,0,0,-1,951,638,0,0
-266,386,0,0,0,0,0,0,0,0,0,-1,958,638,0,0
-259,386,0,0,0,0,0,0,0,0,0,-1,965,638,0,0
-252,386,0,0,0,0,0,0,0,0,0,-1,972,638,0,0
-245,386,0,0,0,0,0,0,0,0,0,-1,979,638,0,0
-238,386,0,0,0,0,0,0,0,0,0,-1,986,638,0,0
-231,386,0,0,0,0,0,0,0,0,0,-1,993,638,0,0
-224,386,0,0,0,0,0,0,0,0,0,-1,1000,638,0,0
-217,386,0,0,0,0,0,0,0,0,0,-1,1007,638,0,0
-210,386,0,0,0,0,0,0,0,0,0,-1,1014,638,0,0
-203,386,0,0,0,0,0,0,0,0,0,-1,1021,638,0,0
-196,386,0,0,0,0,0,0,0,0,0,-1,1028,638,0,0
-189,386,0,0,0,0,0,0,0,0,0,-1,1035,638,0,0
-182,386,0,0,0,0,0,0,0,0,0,-1,1042,638,0,0
-175,386,0,0,0,0,0,0,0,0,0,-1,1049,638,0,0
-168,386,0,0,0,0,0,0,0,0,0,-1,1056,638,0,0
-161,386,0,0,0,0,0,0,0,0,0,-1,1063,638,0,0
-154,386,0,0,0,0,0,0,0,0,0,-1,1070,638,0,0
-147,386,0,0,0,0,0,0,0,0,0,-1,1077,638,0,0
-140,386,0,0,0,0,0,0,0,0,0,-1,1084,638,0,0
-133,386,0,0,0,0,0,0,0,0,0,-1,1091,638,0,0
-126,386,0,0,0,0,0,0,0,0,0,-1,1098,638,0,0
-119,386,0,0,0,0,0,0,0,0,0,-1,1105,638,0,0
-112,386,0,0,0,0,0,0,0,0,0,-1,1112,638,0,0
-105,386,0,0,0,0,0,0,0,0,0,-1,1119,638,0,0
-98,386,0,0,0,0,0,0,0,0,0,-1,1126,638,0,0
-91,386,0,0,0,0,0,0,0,0,0,-1,1133,638,0,0
-84,386,0,0,0,0,0,0,0,0,0,-1,1140,638,0,0
-77,386,0,0,0,0,0,0,0,0,0,-1,1147,638,0,0
-70,386,0,0,0,0,0,0,0,0,0,-1,1154,638,0,0
-63,386,0,0,0,0,0,0,0,0,0,-1,1161,638,0,0
-56,386,0,0,0,0,0,0,0,0,0,-1,1168,638,0,0
-49,386,0,0,0,0,0,0,0,0,0,-1,1175,638,0,0
-42,386,0,0,0,0,0,0,0,0,0,-1,1182,638,0,0
-35,386,0,0,0,0,0,0,0,0,0,-1,1189,638,0,0
-28,386,0,0,0,0,0,0,0,0,0,-1,1196,638,0,0
-21,386,0,0,0,0,0,0,0,0,0,-1,1203,638,0,0
-14,386,0,0,0,0,0,0,0,0,0,-1,1210,638,0,0
-7,386,0,0,0,0,0,0,0,0,0,-1,1217,638,0,0
0,386,0,0,0,0,0,0,0,0,0,-1,1224,638,0,0
7,386,0,0,0,0,0,0,0,0,0,-1,1231,638,0,0
14,386,0,0,0,0,0,0,0,0,0,-1,1238,638,0,0
21,386,0,0,0,0,0,0,0,0,0,-1,1245,638,0,0
28,386,0,0,0,0,0,0,0,0,0,-1,1252,638,0,0
35,386,0,0,0,0,0,0,0,0,0,-1,1259,638,0,0
42,386,0,0,0,0,0,0,0,0,0,-1,1266,638,0,0
49,386,0,0,0,0,0,0,0,0,0,-1,1273,638,0,0
56,386,0,0,0,0,0,0,0,0,0,-1,1280,638,0,0
63,386,0,0,0,0,0,0,0,0,0,-1,1287,638,0,0
70,386,0,0,0,0,0,0,0,0,0,-1,1294,638,0,0
77,386,0,0,0,0,0,0,0,0,0,-1,1301,638,0,0
84,386,0,0,0,0,0,0,0,0,0,-1,1308,638,0,0
91,386,0,0,0,0,0,0,0,0,0,-1,1315,638,0,0
98,386,0,0,0,0,0,0,0,0,0,-1,1322,638,0,0
105,386,0,0,0,0,0,0,0,0,0,-1,1329,638,0,0
112,386,0,0,0,0,0,0,0,0,0,-1,1336,638,0,0
119,386,0,0,0,0,0,0,0,0,0,-1,1343,638,0,0
126,386,0,0,0,0,0,0,0,0,0,-1,1350,638,0,0
133,386,0,0,0,0,0,0,0,0,0,-1,1357,638,0,0
140,386,0,0,0,0,0,0,0,0,0,-1,1364,638,0,0
147,386,0,0,0,0,0,0,0,0,0,-1,1371,638,0,0
154,386,0,0,0,0,0,0,0,0,0,-1,1378,638,0,0
161,386,0,0,0,0,0,0,0,0,0,-1,1385,638,0,0
168,386,0,0,0,0,0,0,0,0,0,-1,1392,638,0,0
175,386,0,0,0,0,0,0,0,0,0,-1,1399,638,0,0
182,386,0,0,0,0,0,0,0,0,0,-1,1406,638,0,0
189,386,0,0,0,0,0,0,0,0,0,-1,1413,638,0,0
196,386,0,0,0,0,0,0,0,0,0,-1,1420,638,0,0
203,386,0,0,0,0,0,0,0,0,0,-1,1427,638,0,0
210,386,0,0,0,0,0,0,0,0,0,-1,1434,638,0,0
217,386,0,0,0,0,0,0,0,0,0,-1,1441,638,0,0
224,386,0,0,0,0,0,0,0,0,0,-1,1448,638,0,0
231,386,0,0,0,0,0,0,0,0,0,-1,1455,638,0,0
238,386,0,0,0,0,0,0,0,0,0,-1,1462,638,0,0
245,386,0,0,0,0,0,0,0,0,0,-1,1469,638,0,0
252,386,0,0,0,0,0,0,0,0,0,-1,1476,638,0,0
259,386,0,0,0,0,0,0,0,0,0,-1,1483,638,0,0
266,386,0,0,0,0,0,0,0,0,0,-1,1490,638,0,0
273,386,0,0,0,0,0,0,0,0,0,-1,1497,638,0,0
280,386,0,0,0,0,0,0,0,0,0,-1,1504,638,0,0
287,386,0,0,0,0,0,0,0,0,0,-1,1511,638,0,0
294,386,0,0,0,0,0,0,0,0,0,-1,1518,638,0,0
301,386,0,0,0,0,0,0,0,0,0,-1,1525,638,0,0
308,386,0,0,0,0,0,0,0,0,0,-1,1532,638,0,0
315,386,0,0,0,0,0,0,0,0,0,-1,1539,638,0,0
322,386,0,0,0,0,0,0,0,0,0,-1,1546,638,0,0
329,386,0,0,0,0,0,0,0,0,0,-1,1553,638,0,0
336,386,0,0,0,0,0,0,0,0,0,-1,1560,638,0,0
343,386,0,0,0,0,0,0,0,0,0,-1,1567,638,0,0
350,386,0,0,0,0,0,0,0,0,0,-1,1574,638,0,0
357,386,0,0,0,0,0,0,0,0,0,-1,1581,638,0,0
364,386,0,0,0,0,0,0,0,0,0,-1,1588,638,0,0
371,386,0,0,0,0,0,0,0,0,0,-1,1595,638,0,0
378,386,0,0,0,0,0,0,0,0,0,-1,1602,638,0,0
385,386,0,0,0,0,0,0,0,0,0,-1,1609,638,0,0
392,386,0,0,0,0,0,0,0,0,0,-1,1616,638,0,0
399,386,0,0,0,0,0,0,0,0,0,-1,1623,638,0,0
406,386,0,0,0,0,0,0,0,0,0,-1,1630,638,0,0
413,386,0,0,0,0,0,0,0,0,0,-1,1637,638,0,0
420,386,0,0,0,0,0,0,0,0,0,-1,1644,638,0,0
427,386,0,0,0,0,0,0,0,0,0,-1,1651,638,0,0
434,386,0,0,0,0,0,0,0,0,0,-1,1658,638,0,0
441,386,0,0,0,0,0,0,0,0,0,-1,1665,638,0,0
448,386,0,0,0,0,0,0,0,0,0,-1,1672,638,0,0
455,386,0,0,0,0,0,0,0,0,0,-1,1679,638,0,0
462,386,0,0,0,0,0,0,0,0,0,-1,1686,638,0,0
469,386,9.84692,1.55804,0,0,0,0,0,0,0,-1,1693,638,9.84691,-1.55807
476,386,10.6145,0.986511,0,0,0,0,0,0,0,-1,1700,638,10.6145,-0.986529
483,386,11.4113,0.732971,0,0,0,0,0,0,0,-1,1707,638,11.4112,-0.732958
490,386,7.79785,1.79572,0,0,0,0,0,0,0,-1,1714,638,7.79788,-1.7957
497,386,8.96362,1.77081,0,0,0,0,0,0,0,-1,1721,638,8.96357,-1.77081
504,386,10.0555,1.69427,0,0,0,0,0,0,0,-1,1728,638,10.0555,-1.69426
511,386,11.2172,1.534,0,0,0,0,0,0,0,-1,1735,638,11.2172,-1.53398
518,386,7.41553,1.75238,0,0,0,0,0,0,0,-1,1742,638,7.41547,-1.75238
525,386,8.82422,-1.1449,0,0,0,0,0,0,0,-1,1749,638,8.82426,1.14492
532,386,10.6432,0.617371,0,0,0,0,0,0,0,-1,1756,638,10.6432,-0.617359
539,386,9.62061,-0.393616,0,0,0,0,0,0,0,-1,1763,638,9.62059,0.393634
546,386,10.5787,-2.72552,0,0,0,0,0,0,0,-1,1770,638,10.5787,2.72551
553,386,10.7684,-2.61047,-0.00129638,0.004266,0.00154453,0.0046661,-0.00169648,1.31733,0.00380447,0.0488073,1777,638,10.7684,2.61049
560,386,10.7581,-2.50153,-0.00139546,0.00324183,0.000947111,0.00342781,-0.00158144,1.3769,0.00295685,0.0321025,1784,638,10.758,2.50152
567,386,10.6837,-2.27502,-0.00141951,0.00231294,0.000469123,0.002371,-0.00147757,1.44766,0.00224184,0.0199864,1791,638,10.6837,2.27505
574,386,10.6991,-2.01025,-0.00123182,0.00165638,0.000189152,0.00166872,-0.00124416,1.50568,0.00168769,0.0133217,1798,638,10.6991,2.01028
581,386,10.6823,-1.74451,-0.000792164,0.00124742,0.000140392,0.00125704,-0.000801782,1.50239,0.00119831,0.0141201,1805,638,10.6823,1.74453
588,386,10.697,-1.44946,-0.000226707,0.00110874,0.000291443,0.00116958,-0.000287539,1.36502,0.000891163,0.0131263,1812,638,10.697,1.44946
595,386,10.6787,-1.18842,0.000494863,0.00121728,0.00061787,0.00157178,0.000140365,1.04991,0.00100434,0.0138325,1819,638,10.6787,1.18841
602,386,10.6846,-0.929688,0.00116928,0.00153801,0.00107582,0.00244515,0.000262136,0.870261,0.00155013,0.0153178,1826,638,10.6846,0.92969
609,386,10.7058,-0.642761,0.00133061,0.00183958,0.00136173,0.00297039,0.000199791,0.877774,0.00191714,0.014375,1833,638,10.7059,0.642741
616,386,10.6993,-0.343018,0.00122831,0.0022219,0.00153927,0.00334256,0.000107649,0.941493,0.00219337,0.0118696,1840,638,10.6994,0.343041
623,386,10.6693,-0.0548096,0.000980236,0.00283145,0.00171746,0.00385685,-4.51662e-05,1.03255,0.00258642,0.0111584,1847,638,10.6693,0.0548134
630,386,10.7594,0.222473,0.000267744,0.00330886,0.00164799,0.00403062,-0.000454011,1.158,0.00285049,0.0218668,1854,638,10.7594,-0.222454
637,386,10.6871,0.579163,-0.00117514,0.00335138,0.00121793,0.00365828,-0.00148204,1.32396,0.00305513,0.0429372,1861,638,10.6871,-0.579182
644,386,10.6235,1.01093,0,0,0,0,0,0,0,-1,1868,638,10.6236,-1.01092
651,386,9.3866,1.31097,0,0,0,0,0,0,0,-1,1875,638,9.3866,-1.31095
658,386,10.4337,1.28308,0,0,0,0,0,0,0,-1,1882,638,10.4337,-1.2831
665,386,6.33167,1.78601,0,0,0,0,0,0,0,-1,1889,638,6.33171,-1.78601
672,386,7.23352,2.14435,0,0,0,0,0,0,0,-1,1896,638,7.23353,-2.14433
679,386,8.07764,2.57104,0,0,0,0,0,0,0,-1,1903,638,8.07758,-2.57103
686,386,0,0,0,0,0,0,0,0,0,-1,1910,638,0,0
693,386,0,0,0,0,0,0,0,0,0,-1,1917,638,0,0
700,386,0,0,0,0,0,0,0,0,0,-1,1924,638,0,0
707,386,0,0,0,0,0,0,0,0,0,-1,1931,638,0,0
714,386,0,0,0,0,0,0,0,0,0,-1,1938,638,0,0
721,386,0,0,0,0,0,0,0,0,0,-1,1945,638,0,0
728,386,0,0,0,0,0,0,0,0,0,-1,1952,638,0,0
735,386,0,0,0,0,0,0,0,0,0,-1,1959,638,0,0
742,386,0,0,0,0,0,0,0,0,0,-1,1966,638,0,0
749,386,0,0,0,0,0,0,0,0,0,-1,1973,638,0,0
756,386,0,0,0,0,0,0,0,0,0,-1,1980,638,0,0
763,386,0,0,0,0,0,0,0,0,0,-1,1987,638,0,0
770,386,0,0,0,0,0,0,0,0,0,-1,1994,638,0,0
777,386,0,0,0,0,0,0,0,0,0,-1,2001,638,0,0
784,386,0,0,0,0,0,0,0,0,0,-1,2008,638,0,0
791,386,0,0,0,0,0,0,0,0,0,-1,2015,638,0,0
798,386,0,0,0,0,0,0,0,0,0,-1,2022,638,0,0
805,386,0,0,0,0,0,0,0,0,0,-1,2029,638,0,0
812,386,0,0,0,0,0,0,0,0,0,-1,2036,638,0,0
-700,379,0,0,0,0,0,0,0,0,0,-1,524,645,0,0
-693,379,0,0,0,0,0,0,0,0,0,-1,531,645,0,0
-686,379,0,0,0,0,0,0,0,0,0,-1,538,645,0,0
-679,379,0,0,0,0,0,0,0,0,0,-1,545,645,0,0
-672,379,0,0,0,0,0,0,0,0,0,-1,552,645,0,0
-665,379,0,0,0,0,0,0,0,0,0,-1,559,645,0,0
-658,379,0,0,0,0,0,0,0,0,0,-1,566,645,0,0
-651,379,0,0,0,0,0,0,0,0,0,-1,573,645,0,0
-644,379,0,0,0,0,0,0,0,0,0,-1,580,645,0,0
-637,379,0,0,0,0,0,0,0,0,0,-1,587,645,0,0
-630,379,0,0,0,0,0,0,0,0,0,-1,594,645,0,0
-623,379,0,0,0,0,0,0,0,0,0,-1,601,645,0,0
-616,379,0,0,0,0,0,0,0,0,0,-1,608,645,0,0
-609,379,0,0,0,0,0,0,0,0,0,-1,615,645,0,0
-602,379,0,0,0,0,0,0,0,0,0,-1,622,645,0,0
-595,379,0,0,0,0,0,0,0,0,0,-1,629,645,0,0
-588,379,0,0,0,0,0,0,0,0,0,-1,636,645,0,0
-581,379,0,0,0,0,0,0,0,0,0,-1,643,645,0,0
-574,379,0,0,0,0,0,0,0,0,0,-1,650,645,0,0
-567,379,-3.06555,-3.93073,0,0,0,0,0,0,0,-1,657,645,-3.06553,3.93073
-560,379,-4.68494,3.55707,0,0,0,0,0,0,0,-1,664,645,-4.68492,-3.55704
-553,379,-5.17108,-4.53119,0,0,0,0,0,0,0,-1,671,645,-5.17106,4.53117
-546,379,-6.23053,-4.92102,0,0,0,0,0,0,0,-1,678,645,-6.23054,4.92105
-539,379,-0.71698,-2.19427,0,0,0,0,0,0,0,-1,685,645,-0.716959,2.19427
-532,379,-4.15576,0.072876,0,0,0,0,0,0,0,-1,692,645,-4.15576,-0.0729009
-525,379,-4.86346,-0.33783,0,0,0,0,0,0,0,-1,699,645,-4.86349,0.337852
-518,379,-4.75415,-0.907166,0.00450225,-0.0237262,0.00824862,0.00673584,-0.0259598,0.264442,0.0199348,0.0460871,706,645,-4.75413,0.907143
-511,379,-4.73352,-1.43219,0.00309135,-0.0194007,0.0068578,0.00501736,-0.0213267,0.273796,0.0161521,0.0308371,713,645,-4.73354,1.43217
-504,379,-4.80017,-1.68628,0.00213642,-0.0152943,0.00533032,0.00363722,-0.0167951,0.274453,0.0125855,0.0178944,720,645,-4.80016,1.6863
-497,379,-4.86865,-1.88654,0.00152335,-0.011566,0.00396172,0.00262904,-0.0126716,0.272167,0.00944685,0.0106658,727,645,-4.86866,1.88654
-490,379,-4.87231,-2.14642,0.00126675,-0.00798396,0.00262171,0.00195809,-0.0086753,0.25783,0.00653476,0.00990379,734,645,-4.87234,2.14644
-483,379,-4.87054,-2.41272,0.00127294,-0.00523053,0.00154797,0.00162259,-0.00558019,0.22215,0.00436275,0.0113294,741,645,-4.87057,2.41271
-476,379,-4.86261,-2.64349,0.00148433,-0.00262498,0.000435512,0.00152998,-0.00267063,0.104436,0.00245485,0.0124447,748,645,-4.86259,2.64351
-469,379,-4.88495,-2.89606,0.00166158,-0.000571403,-0.000500347,0.00176857,-0.00067839,-0.210654,0.00145874,0.012119,755,645,-4.88495,2.89608
-462,379,-4.90527,-3.17145,0.00169976,0.000539724,-0.00102805,0.00230013,-6.06446e-05,-0.528562,0.00155403,0.00918456,762,645,-4.90525,3.17145
-455,379,-4.90271,-3.42255,0.00161304,0.000508808,-0.000864202,0.00208644,3.5411e-05,-0.501141,0.00137931,0.00907794,769,645,-4.90271,3.42255
-448,379,-4.87372,-3.68585,0.00139356,-3.82762e-07,-0.000507796,0.00155893,-0.000165749,-0.314824,0.00109871,0.0107947,776,645,-4.8737,3.68587
-441,379,-4.8656,-3.97125,0.000642377,-0.000969242,0.000270196,0.00068647,-0.00101334,0.161764,0.000987413,0.0160911,783,645,-4.86561,3.97125
-434,379,-4.80609,-4.35321,0,0,0,0,0,0,0,-1,790,645,-4.80607,4.3532
-427,379,-4.16113,-4.13452,0,0,0,0,0,0,0,-1,797,645,-4.16116,4.1345
-420,379,-4.63953,-3.46869,0,0,0,0,0,0,0,-1,804,645,-4.63953,3.46872
-413,379,-4.62543,-3.7912,0,0,0,0,0,0,0,-1,811,645,-4.62541,3.79123
-406,379,-4.64063,-4.38489,0,0,0,0,0,0,0,-1,818,645,-4.64065,4.3849
-399,379,-2.93536,-1.40118,0,0,0,0,0,0,0,-1,825,645,-2.93534,1.40119
-392,379,-4.16711,-0.466003,0,0,0,0,0,0,0,-1,832,645,-4.16714,0.465992
-385,379,-3.51862,0.441101,0,0,0,0,0,0,0,-1,839,645,-3.51859,-0.441072
-378,379,-5.3504,0.212219,0,0,0,0,0,0,0,-1,846,645,-5.35038,-0.212241
-371,379,-4.32092,-0.186707,0,0,0,0,0,0,0,-1,853,645,-4.3209,0.186707
-364,379,-3.40887,-0.549805,0,0,0,0,0,0,0,-1,860,645,-3.4089,0.549802
-357,379,0,0,0,0,0,0,0,0,0,-1,867,645,0,0
-350,379,0,0,0,0,0,0,0,0,0,-1,874,645,0,0
-343,379,0,0,0,0,0,0,0,0,0,-1,881,645,0,0
-336,379,0,0,0,0,0,0,0,0,0,-1,888,645,0,0
-329,379,0,0,0,0,0,0,0,0,0,-1,895,645,0,0
-322,379,0,0,0,0,0,0,0,0,0,-1,902,645,0,0
-315,379,0,0,0,0,0,0,0,0,0,-1,909,645,0,0
-308,379,0,0,0,0,0,0,0,0,0,-1,916,645,0,0
-301,379,0,0,0,0,0,0,0,0,0,-1,923,645,0,0
-294,379,0,0,0,0,0,0,0,0,0,-1,930,645,0,0
-287,379,0,0,0,0,0,0,0,0,0,-1,937,645,0,0
-280,379,0,0,0,0,0,0,0,0,0,-1,944,645,0,0
-273,379,0,0,0,0,0,0,0,0,0,-1,951,645,0,0
-266,379,0,0,0,0,0,0,0,0,0,-1,958,645,0,0
-259,379,0,0,0,0,0,0,0,0,0,-1,965,645,0,0
-252,379,0,0,0,0,0,0,0,0,0,-1,972,645,0,0
-245,379,0,0,0,0,0,0,0,0,0,-1,979,645,0,0
-238,379,0,0,0,0,0,0,0,0,0,-1,986,645,0,0
-231,379,0,0,0,0,0,0,0,0,0,-1,993,645,0,0
-224,379,0,0,0,0,0,0,0,0,0,-1,1000,645,0,0
-217,379,0,0,0,0,0,0,0,0,0,-1,1007,645,0,0
-210,379,0,0,0,0,0,0,0,0,0,-1,1014,645,0,0
-203,379,0,0,0,0,0,0,0,0,0,-1,1021,645,0,0
-196,379,0,0,0,0,0,0,0,0,0,-1,1028,645,0,0
-189,379,0,0,0,0,0,0,0,0,0,-1,1035,645,0,0
-182,379,0,0,0,0,0,0,0,0,0,-1,1042,645,0,0
-175,379,0,0,0,0,0,0,0,0,0,-1,1049,645,0,0
-168,379,0,0,0,0,0,0,0,0,0,-1,1056,645,0,0
-161,379,0,0,0,0,0,0,0,0,0,-1,1063,645,0,0
-154,379,0,0,0,0,0,0,0,0,0,-1,1070,645,0,0
-147,379,0,0,0,0,0,0,0,0,0,-1,1077,645,0,0
-140,379,0,0,0,0,0,0,0,0,0,-1,1084,645,0,0
-133,379,0,0,0,0,0,0,0,0,0,-1,1091,645,0,0
-126,379,0,0,0,0,0,0,0,0,0,-1,1098,645,0,0
-119,379,0,0,0,0,0,0,0,0,0,-1,1105,645,0,0
-112,379,0,0,0,0,0,0,0,0,0,-1,1112,645,0,0
-105,379,0,0,0,0,0,0,0,0,0,-1,1119,645,0,0
-98,379,0,0,0,0,0,0,0,0,0,-1,1126,645,0,0
-91,379,0,0,0,0,0,0,0,0,0,-1,1133,645,0,0
-84,379,0,0,0,0,0,0,0,0,0,-1,1140,645,0,0
-77,379,0,0,0,0,0,0,0,0,0,-1,1147,645,0,0
-70,379,0,0,0,0,0,0,0,0,0,-1,1154,645,0,0
-63,379,0,0,0,0,0,0,0,0,0,-1,1161,645,0,0
-56,379,0,0,0,0,0,0,0,0,0,-1,1168,645,0,0
-49,379,0,0,0,0,0,0,0,0,0,-1,1175,645,0,0
-42,379,0,0,0,0,0,0,0,0,0,-1,1182,645,0,0
-35,379,0,0,0,0,0,0,0,0,0,-1,1189,645,0,0
-28,379,0,0,0,0,0,0,0,0,0,-1,1196,645,0,0
-21,379,0,0,0,0,0,0,0,0,0,-1,1203,645,0,0
-14,379,0,0,0,0,0,0,0,0,0,-1,1210,645,0,0
-7,379,0,0,0,0,0,0,0,0,0,-1,1217,645,0,0
0,379,0,0,0,0,0,0,0,0,0,-1,1224,645,0,0
7,379,0,0,0,0,0,0,0,0,0,-1,1231,645,0,0
14,379,0,0,0,0,0,0,0,0,0,-1,1238,645,0,0
21,379,0,0,0,0,0,0,0,0,0,-1,1245,645,0,0
28,379,0,0,0,0,0,0,0,0,0,-1,1252,645,0,0
35,379,0,0,0,0,0,0,0,0,0,-1,1259,645,0,0
42,379,0,0,0,0,0,0,0,0,0,-1,1266,645,0,0
49,379,0,0,0,0,0,0,0,0,0,-1,1273,645,0,0
56,379,0,0,0,0,0,0,0,0,0,-1,1280,645,0,0
63,379,0,0,0,0,0,0,0,0,0,-1,1287,645,0,0
70,379,0,0,0,0,0,0,0,0,0,-1,1294,645,0,0
77,379,0,0,0,0,0,0,0,0,0,-1,1301,645,0,0
84,379,0,0,0,0,0,0,0,0,0,-1,1308,645,0,0
91,379,0,0,0,0,0,0,0,0,0,-1,1315,645,0,0
98,379,0,0,0,0,0,0,0,0,0,-1,1322,645,0,0
105,379,0,0,0,0,0,0,0,0,0,-1,1329,645,0,0
112,379,0,0,0,0,0,0,0,0,0,-1,1336,645,0,0
119,379,0,0,0,0,0,0,0,0,0,-1,1343,645,0,0
126,379,0,0,0,0,0,0,0,0,0,-1,1350,645,0,0
133,379,0,0,0,0,0,0,0,0,0,-1,1357,645,0,0
140,379,0,0,0,0,0,0,0,0,0,-1,1364,645,0,0
147,379,0,0,0,0,0,0,0,0,0,-1,1371,645,0,0
154,379,0,0,0,0,0,0,0,0,0,-1,1378,645,0,0
161,379,0,0,0,0,0,0,0,0,0,-1,1385,645,0,0
168,379,0,0,0,0,0,0,0,0,0,-1,1392,645,0,0
175,379,0,0,0,0,0,0,0,0,0,-1,1399,645,0,0
182,379,0,0,0,0,0,0,0,0,0,-1,1406,645,0,0
189,379,0,0,0,0,0,0,0,0,0,-1,1413,645,0,0
196,379,0,0,0,0,0,0,0,0,0,-1,1420,645,0,0
203,379,0,0,0,0,0,0,0,0,0,-1,1427,645,0,0
210,379,0,0,0,0,0,0,0,0,0,-1,1434,645,0,0
217,379,0,0,0,0,0,0,0,0,0,-1,1441,645,0,0
224,379,0,0,0,0,0,0,0,0,0,-1,1448,645,0,0
231,379,0,0,0,0,0,0,0,0,0,-1,1455,645,0,0
238,379,0,0,0,0,0,0,0,0,0,-1,1462,645,0,0
245,379,0,0,0,0,0,0,0,0,0,-1,1469,645,0,0
252,379,0,0,0,0,0,0,0,0,0,-1,1476,645,0,0
259,379,0,0,0,0,0,0,0,0,0,-1,1483,645,0,0
266,379,0,0,0,0,0,0,0,0,0,-1,1490,645,0,0
273,379,0,0,0,0,0,0,0,0,0,-1,1497,645,0,0
280,379,0,0,0,0,0,0,0,0,0,-1,1504,645,0,0
287,379,0,0,0,0,0,0,0,0,0,-1,1511,645,0,0
294,379,0,0,0,0,0,0,0,0,0,-1,1518,645,0,0
301,379,0,0,0,0,0,0,0,0,0,-1,1525,645,0,0
308,379,0,0,0,0,0,0,0,0,0,-1,1532,645,0,0
315,379,0,0,0,0,0,0,0,0,0,-1,1539,645,0,0
322,379,0,0,0,0,0,0,0,0,0,-1,1546,645,0,0
329,379,0,0,0,0,0,0,0,0,0,-1,1553,645,0,0
336,379,0,0,0,0,0,0,0,0,0,-1,1560,645,0,0
343,379,0,0,0,0,0,0,0,0,0,-1,1567,645,0,0
350,379,0,0,0,0,0,0,0,0,0,-1,1574,645,0,0
357,379,0,0,0,0,0,0,0,0,0,-1,1581,645,0,0
364,379,0,0,0,0,0,0,0,0,0,-1,1588,645,0,0
371,379,0,0,0,0,0,0,0,0,0,-1,1595,645,0,0
378,379,0,0,0,0,0,0,0,0,0,-1,1602,645,0,0
385,379,0,0,0,0,0,0,0,0,0,-1,1609,645,0,0
392,379,0,0,0,0,0,0,0,0,0,-1,1616,645,0,0
399,379,0,0,0,0,0,0,0,0,0,-1,1623,645,0,0
406,379,0,0,0,0,0,0,0,0,0,-1,1630,645,0,0
413,379,0,0,0,0,0,0,0,0,0,-1,1637,645,0,0
420,379,0,0,0,0,0,0,0,0,0,-1,1644,645,0,0
427,379,0,0,0,0,0,0,0,0,0,-1,1651,645,0,0
434,379,0,0,0,0,0,0,0,0,0,-1,1658,645,0,0
441,379,0,0,0,0,0,0,0,0,0,-1,1665,645,0,0
448,379,0,0,0,0,0,0,0,0,0,-1,1672,645,0,0
455,379,0,0,0,0,0,0,0,0,0,-1,1679,645,0,0
462,379,0,0,0,0,0,0,0,0,0,-1,1686,645,0,0
469,379,0,0,0,0,0,0,0,0,0,-1,1693,645,0,0
476,379,11.1787,0.830383,0,0,0,0,0,0,0,-1,1700,645,11.1787,-0.830365
483,379,7.4231,1.54321,0,0,0,0,0,0,0,-1,1707,645,7.42314,-1.54324
490,379,8.52881,1.56677,0,0,0,0,0,0,0,-1,1714,645,8.52878,-1.56677
497,379,9.63599,1.49573,0,0,0,0,0,0,0,-1,1721,645,9.63604,-1.4957
504,379,10.0833,1.35229,0,0,0,0,0,0,0,-1,1728,645,10.0832,-1.35227
511,379,8.14343,1.59912,0,0,0,0,0,0,0,-1,1735,645,8.14347,-1.59912
518,379,12.7955,-0.324097,0,0,0,0,0,0,0,-1,1742,645,12.7955,0.324101
525,379,6.03711,1.10352,0,0,0,0,0,0,0,-1,1749,645,6.03711,-1.10351
532,379,8.70947,0.887817,0,0,0,0,0,0,0,-1,1756,645,8.70953,-0.887808
539,379,9.87097,0.111389,0,0,0,0,0,0,0,-1,1763,645,9.87095,-0.111395
546,379,8.42383,-0.730652,0,0,0,0,0,0,0,-1,1770,645,8.42378,0.730638
553,379,11.1396,-3.07825,0,0,0,0,0,0,0,-1,1777,645,11.1396,3.07823
560,379,11.0574,-2.57489,-0.00219899,0.00424152,0.0012046,0.00445944,-0.00241692,1.39182,0.00402803,0.0393875,1784,645,11.0573,2.57489
567,379,10.9069,-2.2478,-0.0021322,0.00295286,0.0005517,0.00301203,-0.00219137,1.46396,0.00301661,0.0235546,1791,645,10.9069,2.24782
574,379,10.9957,-2.00415,-0.00190513,0.00202951,0.000124217,0.00203343,-0.00190905,1.53927,0.00227657,0.0121814,1798,645,10.9957,2.00416
581,379,10.9879,-1.72626,-0.00138263,0.00141827,-9.82518e-06,0.0014183,-0.00138267,-1.56729,0.00161719,0.0140043,1805,645,10.9879,1.72628
588,379,10.9773,-1.4458,-0.000721827,0.00114557,7.96652e-05,0.00114896,-0.000725219,1.52824,0.00109124,0.0163239,1812,645,10.9773,1.44581
595,379,10.9448,-1.18018,3.3667e-05,0.00115357,0.000344057,0.00125083,-6.35884e-05,1.29531,0.000855868,0.0144419,1819,645,10.9448,1.1802
602,379,10.9556,-0.92334,0.000703515,0.00139064,0.000734259,0.00185774,0.000236416,1.00422,0.00116769,0.0148861,1826,645,10.9556,0.923345
609,379,10.96,-0.658875,0.000818438,0.00164683,0.000951685,0.00227055,0.000194721,0.990647,0.00145315,0.0156323,1833,645,10.9599,0.658876
616,379,10.9528,-0.363098,0.000619941,0.00179661,0.000950928,0.00232649,9.0062e-05,1.06242,0.00152186,0.0130028,1840,645,10.9528,0.363125
623,379,10.9694,-0.0404663,0.000238624,0.00224615,0.000956132,0.00262865,-0.000143878,1.19025,0.00180231,0.0123949,1847,645,10.9694,0.0404764
630,379,10.9772,0.218811,-0.000504784,0.00250292,0.00078279,0.00269446,-0.000696317,1.33083,0.00206787,0.0130917,1854,645,10.9772,-0.218821
637,379,10.9897,0.517212,-0.00174749,0.0025172,0.000394889,0.00255346,-0.00178375,1.47924,0.0025172,0.0184949,1861,645,10.9897,-0.517233
644,379,10.9532,0.926514,-0.00371128,0.00231998,-0.000377405,0.0023435,-0.0037348,-1.50855,0.00353982,0.032496,1868,645,10.9532,-0.92652
651,379,11.1859,1.36511,0,0,0,0,0,0,0,-1,1875,645,11.1859,-1.36514
658,379,10.7722,0.752686,0,0,0,0,0,0,0,-1,1882,645,10.7723,-0.75269
665,379,10.3323,2.34113,0,0,0,0,0,0,0,-1,1889,645,10.3323,-2.34114
672,379,7.57605,2.15326,0,0,0,0,0,0,0,-1,1896,645,7.57599,-2.15326
679,379,8.55078,2.50409,0,0,0,0,0,0,0,-1,1903,645,8.55073,-2.50406
686,379,0,0,0,0,0,0,0,0,0,-1,1910,645,0,0
693,379,0,0,0,0,0,0,0,0,0,-1,1917,645,0,0
700,379,0,0,0,0,0,0,0,0,0,-1,1924,645,0,0
707,379,0,0,0,0,0,0,0,0,0,-1,1931,645,0,0
714,379,0,0,0,0,0,0,0,0,0,-1,1938,645,0,0
721,379,0,0,0,0,0,0,0,0,0,-1,1945,645,0,0
728,379,0,0,0,0,0,0,0,0,0,-1,1952,645,0,0
735,379,0,0,0,0,0,0,0,0,0,-1,1959,645,0,0
742,379,0,0,0,0,0,0,0,0,0,-1,1966,645,0,0
749,379,0,0,0,0,0,0,0,0,0,-1,1973,645,0,0
756,379,0,0,0,0,0,0,0,0,0,-1,1980,645,0,0
763,379,0,0,0,0,0,0,0,0,0,-1,1987,645,0,0
770,379,0,0,0,0,0,0,0,0,0,-1,1994,645,0,0
777,379,0,0,0,0,0,0,0,0,0,-1,2001,645,0,0
784,379,0,0,0,0,0,0,0,0,0,-1,2008,645,0,0
791,379,0,0,0,0,0,0,0,0,0,-1,2015,645,0,0
798,379,0,0,0,0,0,0,0,0,0,-1,2022,645,0,0
805,379,0,0,0,0,0,0,0,0,0,-1,2029,645,0,0
812,379,0,0,0,0,0,0,0,0,0,-1,2036,645,0,0
-700,372,0,0,0,0,0,0,0,0,0,-1,524,652,0,0
-693,372,0,0,0,0,0,0,0,0,0,-1,531,652,0,0
-686,372,0,0,0,0,0,0,0,0,0,-1,538,652,0,0
-679,372,0,0,0,0,0,0,0,0,0,-1,545,652,0,0
-672,372,0,0,0,0,0,0,0,0,0,-1,552,652,0,0
-665,372,0,0,0,0,0,0,0,0,0,-1,559,652,0,0
-658,372,0,0,0,0,0,0,0,0,0,-1,566,652,0,0
-651,372,0,0,0,0,0,0,0,0,0,-1,573,652,0,0
-644,372,0,0,0,0,0,0,0,0,0,-1,580,652,0,0
-637,372,0,0,0,0,0,0,0,0,0,-1,587,652,0,0
-630,372,0,0,0,0,0,0,0,0,0,-1,594,652,0,0
-623,372,0,0,0,0,0,0,0,0,0,-1,601,652,0,0
-616,372,0,0,0,0,0,0,0,0,0,-1,608,652,0,0
-609,372,0,0,0,0,0,0,0,0,0,-1,615,652,0,0
-602,372,0,0,0,0,0,0,0,0,0,-1,622,652,0,0
-595,372,0,0,0,0,0,0,0,0,0,-1,629,652,0,0
-588,372,0,0,0,0,0,0,0,0,0,-1,636,652,0,0
-581,372,0,0,0,0,0,0,0,0,0,-1,643,652,0,0
-574,372,0,0,0,0,0,0,0,0,0,-1,650,652,0,0
-567,372,-4.91943,3.42969,0,0,0,0,0,0,0,-1,657,652,-4.91941,-3.42967
-560,372,-4.89691,2.97308,0,0,0,0,0,0,0,-1,664,652,-4.89691,-2.97308
-553,372,-4.87439,2.51648,0,0,0,0,0,0,0,-1,671,652,-4.8744,-2.51648
-546,372,-4.2403,-3.75372,0,0,0,0,0,0,0,-1,678,652,-4.24028,3.75369
-539,372,-5.83679,1.67175,0,0,0,0,0,0,0,-1,685,652,-5.83681,-1.67178
-532,372,-5.6864,-0.0475464,0,0,0,0,0,0,0,-1,692,652,-5.68641,0.0475526
-525,372,-5.37183,-0.478088,0.0060443,-0.0141661,0.00440082,0.006961,-0.0150828,0.205366,0.0130117,0.0487471,699,652,-5.37185,0.478105
-518,372,-5.06671,-1.04126,0.00409442,-0.0128698,0.00419031,0.00507301,-0.0138484,0.229425,0.0113091,0.0319842,706,652,-5.06671,1.04125
-511,372,-5.12024,-1.40472,0.00273536,-0.0111917,0.00379537,0.00370251,-0.0121588,0.249512,0.00958155,0.0190542,713,652,-5.12021,1.4047
-504,372,-5.14502,-1.62567,0.00182445,-0.00925244,0.0030891,0.00262768,-0.0100557,0.254389,0.00773001,0.0125645,720,652,-5.14502,1.62567
-497,372,-5.13269,-1.88971,0.00124429,-0.00728147,0.00239525,0.00187113,-0.00790831,0.255961,0.00599407,0.0112128,727,652,-5.13268,1.88974
-490,372,-5.13763,-2.13379,0.00104693,-0.00505294,0.00157442,0.00142933,-0.00543534,0.238267,0.00418222,0.0109526,734,652,-5.13762,2.13378
-483,372,-5.14276,-2.39471,0.00116284,-0.00327031,0.000851131,0.00132063,-0.00342811,0.183312,0.00283026,0.0109108,741,652,-5.14276,2.39472
-476,372,-5.13995,-2.62634,0.001539,-0.00128898,-8.50757e-05,0.00154156,-0.00129153,-0.0300473,0.00163781,0.012485,748,652,-5.13993,2.62636
-469,372,-5.1377,-2.86621,0.00195451,0.000432154,-0.00101789,0.00246436,-7.76884e-05,-0.464352,0.0016694,0.0107177,755,652,-5.1377,2.86618
-462,372,-5.13477,-3.15552,0.00226588,0.00106906,-0.00149712,0.00327975,5.51919e-05,-0.59527,0.00216834,0.00963607,762,652,-5.13478,3.15552
-455,372,-5.14801,-3.41754,0.00245399,0.000779318,-0.00134446,0.00320054,3.27622e-05,-0.50689,0.00212286,0.00999601,769,652,-5.14801,3.41751
-448,372,-5.12805,-3.67853,0.00247402,0.000445985,-0.00116721,0.00300616,-8.61551e-05,-0.427757,0.00203343,0.011156,776,652,-5.12803,3.67856
-441,372,-5.02203,-4.086,0.00193856,-0.000529758,-0.000481008,0.00202898,-0.000620181,-0.185818,0.00159996,0.0337355,783,652,-5.02206,4.08597
-434,372,-5.01483,-4.58655,0,0,0,0,0,0,0,-1,790,652,-5.01482,4.58652
-427,372,-4.54248,-3.56268,0,0,0,0,0,0,0,-1,797,652,-4.54247,3.56266
-420,372,-4.66168,-2.93597,0,0,0,0,0,0,0,-1,804,652,-4.66166,2.93599
-413,372,-4.74762,-3.29541,0,0,0,0,0,0,0,-1,811,652,-4.74763,3.29542
-406,372,-0.885437,-0.583923,0,0,0,0,0,0,0,-1,818,652,-0.885437,0.5839
-399,372,-3.97357,-0.825012,0,0,0,0,0,0,0,-1,825,652,-3.97359,0.825037
-392,372,-7.64337,0.173035,0,0,0,0,0,0,0,-1,832,652,-7.64337,-0.173019
-385,372,-6.48871,-0.0271606,0,0,0,0,0,0,0,-1,839,652,-6.48874,0.0271353
-378,372,-5.33044,-0.242432,0,0,0,0,0,0,0,-1,846,652,-5.33042,0.242457
-371,372,-4.40802,-0.495667,0,0,0,0,0,0,0,-1,853,652,-4.40802,0.495661
-364,372,0,0,0,0,0,0,0,0,0,-1,860,652,0,0
-357,372,0,0,0,0,0,0,0,0,0,-1,867,652,0,0
-350,372,0,0,0,0,0,0,0,0,0,-1,874,652,0,0
-343,372,0,0,0,0,0,0,0,0,0,-1,881,652,0,0
-336,372,0,0,0,0,0,0,0,0,0,-1,888,652,0,0
-329,372,0,0,0,0,0,0,0,0,0,-1,895,652,0,0
-322,372,0,0,0,0,0,0,0,0,0,-1,902,652,0,0
-315,372,0,0,0,0,0,0,0,0,0,-1,909,652,0,0
-308,372,0,0,0,0,0,0,0,0,0,-1,916,652,0,0
-301,372,0,0,0,0,0,0,0,0,0,-1,923,652,0,0
-294,372,0,0,0,0,0,0,0,0,0,-1,930,652,0,0
-287,372,0,0,0,0,0,0,0,0,0,-1,937,652,0,0
-280,372,0,0,0,0,0,0,0,0,0,-1,944,652,0,0
-273,372,0,0,0,0,0,0,0,0,0,-1,951,652,0,0
-266,372,0,0,0,0,0,0,0,0,0,-1,958,652,0,0
-259,372,0,0,0,0,0,0,0,0,0,-1,965,652,0,0
-252,372,0,0,0,0,0,0,0,0,0,-1,972,652,0,0
-245,372,0,0,0,0,0,0,0,0,0,-1,979,652,0,0
-238,372,0,0,0,0,0,0,0,0,0,-1,986,652,0,0
-231,372,0,0,0,0,0,0,0,0,0,-1,993,652,0,0
-224,372,0,0,0,0,0,0,0,0,0,-1,1000,652,0,0
-217,372,0,0,0,0,0,0,0,0,0,-1,1007,652,0,0
-210,372,0,0,0,0,0,0,0,0,0,-1,1014,652,0,0
-203,372,0,0,0,0,0,0,0,0,0,-1,1021,652,0,0
-196,372,0,0,0,0,0,0,0,0,0,-1,1028,652,0,0
-189,372,0,0,0,0,0,0,0,0,0,-1,1035,652,0,0
-182,372,0,0,0,0,0,0,0,0,0,-1,1042,652,0,0
-175,372,0,0,0,0,0,0,0,0,0,-1,1049,652,0,0
-168,372,0,0,0,0,0,0,0,0,0,-1,1056,652,0,0
-161,372,0,0,0,0,0,0,0,0,0,-1,1063,652,0,0
-154,372,0,0,0,0,0,0,0,0,0,-1,1070,652,0,0
-147,372,0,0,0,0,0,0,0,0,0,-1,1077,652,0,0
-140,372,0,0,0,0,0,0,0,0,0,-1,1084,652,0,0
-133,372,0,0,0,0,0,0,0,0,0,-1,1091,652,0,0
-126,372,0,0,0,0,0,0,0,0,0,-1,1098,652,0,0
-119,372,0,0,0,0,0,0,0,0,0,-1,1105,652,0,0
-112,372,0,0,0,0,0,0,0,0,0,-1,1112,652,0,0
-105,372,0,0,0,0,0,0,0,0,0,-1,1119,652,0,0
-98,372,0,0,0,0,0,0,0,0,0,-1,1126,652,0,0
-91,372,0,0,0,0,0,0,0,0,0,-1,1133,652,0,0
-84,372,0,0,0,0,0,0,0,0,0,-1,1140,652,0,0
-77,372,0,0,0,0,0,0,0,0,0,-1,1147,652,0,0
-70,372,0,0,0,0,0,0,0,0,0,-1,1154,652,0,0
-63,372,0,0,0,0,0,0,0,0,0,-1,1161,652,0,0
-56,372,0,0,0,0,0,0,0,0,0,-1,1168,652,0,0
-49,372,0,0,0,0,0,0,0,0,0,-1,1175,652,0,0
-42,372,0,0,0,0,0,0,0,0,0,-1,1182,652,0,0
-35,372,0,0,0,0,0,0,0,0,0,-1,1189,652,0,0
-28,372,0,0,0,0,0,0,0,0,0,-1,1196,652,0,0
-21,372,0,0,0,0,0,0,0,0,0,-1,1203,652,0,0
-14,372,0,0,0,0,0,0,0,0,0,-1,1210,652,0,0
-7,372,0,0,0,0,0,0,0,0,0,-1,1217,652,0,0
0,372,0,0,0,0,0,0,0,0,0,-1,1224,652,0,0
7,372,0,0,0,0,0,0,0,0,0,-1,1231,652,0,0
14,372,0,0,0,0,0,0,0,0,0,-1,1238,652,0,0
21,372,0,0,0,0,0,0,0,0,0,-1,1245,652,0,0
28,372,0,0,0,0,0,0,0,0,0,-1,1252,652,0,0
35,372,0,0,0,0,0,0,0,0,0,-1,1259,652,0,0
42,372,0,0,0,0,0,0,0,0,0,-1,1266,652,0,0
49,372,0,0,0,0,0,0,0,0,0,-1,1273,652,0,0
56,372,0,0,0,0,0,0,0,0,0,-1,1280,652,0,0
63,372,0,0,0,0,0,0,0,0,0,-1,1287,652,0,0
70,372,0,0,0,0,0,0,0,0,0,-1,1294,652,0,0
77,372,0,0,0,0,0,0,0,0,0,-1,1301,652,0,0
84,372,0,0,0,0,0,0,0,0,0,-1,1308,652,0,0
91,372,0,0,0,0,0,0,0,0,0,-1,1315,652,0,0
98,372,0,0,0,0,0,0,0,0,0,-1,1322,652,0,0
105,372,0,0,0,0,0,0,0,0,0,-1,1329,652,0,0
112,372,0,0,0,0,0,0,0,0,0,-1,1336,652,0,0
119,372,0,0,0,0,0,0,0,0,0,-1,1343,652,0,0
126,372,0,0,0,0,0,0,0,0,0,-1,1350,652,0,0
133,372,0,0,0,0,0,0,0,0,0,-1,1357,652,0,0
140,372,0,0,0,0,0,0,0,0,0,-1,1364,652,0,0
147,372,0,0,0,0,0,0,0,0,0,-1,1371,652,0,0
154,372,0,0,0,0,0,0,0,0,0,-1,1378,652,0,0
161,372,0,0,0,0,0,0,0,0,0,-1,1385,652,0,0
168,372,0,0,0,0,0,0,0,0,0,-1,1392,652,0,0
175,372,0,0,0,0,0,0,0,0,0,-1,1399,652,0,0
182,372,0,0,0,0,0,0,0,0,0,-1,1406,652,0,0
189,372,0,0,0,0,0,0,0,0,0,-1,1413,652,0,0
196,372,0,0,0,0,0,0,0,0,0,-1,1420,652,0,0
203,372,0,0,0,0,0,0,0,0,0,-1,1427,652,0,0
210,372,0,0,0,0,0,0,0,0,0,-1,1434,652,0,0
217,372,0,0,0,0,0,0,0,0,0,-1,1441,652,0,0
224,372,0,0,0,0,0,0,0,0,0,-1,1448,652,0,0
231,372,0,0,0,0,0,0,0,0,0,-1,1455,652,0,0
238,372,0,0,0,0,0,0,0,0,0,-1,1462,652,0,0
245,372,0,0,0,0,0,0,0,0,0,-1,1469,652,0,0
252,372,0,0,0,0,0,0,0,0,0,-1,1476,652,0,0
259,372,0,0,0,0,0,0,0,0,0,-1,1483,652,0,0
266,372,0,0,0,0,0,0,0,0,0,-1,1490,652,0,0
273,372,0,0,0,0,0,0,0,0,0,-1,1497,652,0,0
280,372,0,0,0,0,0,0,0,0,0,-1,1504,652,0,0
287,372,0,0,0,0,0,0,0,0,0,-1,1511,652,0,0
294,372,0,0,0,0,0,0,0,0,0,-1,1518,652,0,0
301,372,0,0,0,0,0,0,0,0,0,-1,1525,652,0,0
308,372,0,0,0,0,0,0,0,0,0,-1,1532,652,0,0
315,372,0,0,0,0,0,0,0,0,0,-1,1539,652,0,0
322,372,0,0,0,0,0,0,0,0,0,-1,1546,652,0,0
329,372,0,0,0,0,0,0,0,0,0,-1,1553,652,0,0
336,372,0,0,0,0,0,0,0,0,0,-1,1560,652,0,0
343,372,0,0,0,0,0,0,0,0,0,-1,1567,652,0,0
350,372,0,0,0,0,0,0,0,0,0,-1,1574,652,0,0
357,372,0,0,0,0,0,0,0,0,0,-1,1581,652,0,0
364,372,0,0,0,0,0,0,0,0,0,-1,1588,652,0,0
371,372,0,0,0,0,0,0,0,0,0,-1,1595,652,0,0
378,372,0,0,0,0,0,0,0,0,0,-1,1602,652,0,0
385,372,0,0,0,0,0,0,0,0,0,-1,1609,652,0,0
392,372,0,0,0,0,0,0,0,0,0,-1,1616,652,0,0
399,372,0,0,0,0,0,0,0,0,0,-1,1623,652,0,0
406,372,0,0,0,0,0,0,0,0,0,-1,1630,652,0,0
413,372,0,0,0,0,0,0,0,0,0,-1,1637,652,0,0
420,372,0,0,0,0,0,0,0,0,0,-1,1644,652,0,0
427,372,0,0,0,0,0,0,0,0,0,-1,1651,652,0,0
434,372,0,0,0,0,0,0,0,0,0,-1,1658,652,0,0
441,372,0,0,0,0,0,0,0,0,0,-1,1665,652,0,0
448,372,0,0,0,0,0,0,0,0,0,-1,1672,652,0,0
455,372,0,0,0,0,0,0,0,0,0,-1,1679,652,0,0
462,372,0,0,0,0,0,0,0,0,0,-1,1686,652,0,0
469,372,0,0,0,0,0,0,0,0,0,-1,1693,652,0,0
476,372,0,0,0,0,0,0,0,0,0,-1,1700,652,0,0
483,372,8.74182,1.53125,0,0,0,0,0,0,0,-1,1707,652,8.74186,-1.53126
490,372,9.78455,1.67096,0,0,0,0,0,0,0,-1,1714,652,9.7846,-1.67093
497,372,9.97644,1.46069,0,0,0,0,0,0,0,-1,1721,652,9.97647,-1.46071
504,372,10.1216,1.28375,0,0,0,0,0,0,0,-1,1728,652,10.1216,-1.28376
511,372,11.7367,-0.0272217,0,0,0,0,0,0,0,-1,1735,652,11.7367,0.0272326
518,372,12.0657,-0.0995483,0,0,0,0,0,0,0,-1,1742,652,12.0657,0.0995285
525,372,12.3947,-0.171814,0,0,0,0,0,0,0,-1,1749,652,12.3946,0.171824
532,372,9.36597,1.72034,0,0,0,0,0,0,0,-1,1756,652,9.36597,-1.72036
539,372,7.82886,-0.0865479,0,0,0,0,0,0,0,-1,1763,652,7.82882,0.0865771
546,372,10.953,-0.187195,0,0,0,0,0,0,0,-1,1770,652,10.953,0.187181
553,372,11.0057,-3.65735,0,0,0,0,0,0,0,-1,1777,652,11.0058,3.65738
560,372,11.1692,-2.96246,-0.00341733,0.00541134,0.00145037,0.0056435,-0.00364949,1.41207,0.00540632,0.0432684,1784,652,11.1692,2.96245
567,372,11.2279,-2.31934,-0.00313958,0.00364599,0.000595415,0.00369784,-0.00319143,1.48393,0.0039811,0.024758,1791,652,11.2279,2.31934
574,372,11.3065,-1.96417,-0.00279673,0.0023772,8.93118e-06,0.00237721,-0.00279674,1.56907,0.00299045,0.0159849,1798,652,11.3065,1.96415
581,372,11.2861,-1.72217,-0.0021192,0.00150745,-0.000207067,0.00151923,-0.00213098,-1.51395,0.0021173,0.014298,1805,652,11.2861,1.72216
588,372,11.259,-1.45502,-0.00130681,0.00106138,-0.000175777,0.00107436,-0.00131979,-1.49711,0.00138468,0.014922,1812,652,11.259,1.45503
595,372,11.2341,-1.1756,-0.000479538,0.000934799,3.05052e-05,0.000935457,-0.000480196,1.54924,0.000831296,0.013199,1819,652,11.2341,1.17558
602,372,11.2511,-0.921204,0.000238717,0.00107209,0.000366845,0.00121056,0.000100243,1.20986,0.000775789,0.0132167,1826,652,11.2511,0.921188
609,372,11.2107,-0.637451,0.000403044,0.00128127,0.000556678,0.00155118,0.000133136,1.11934,0.00099272,0.0147161,1833,652,11.2107,0.637422
616,372,11.2264,-0.33728,0.00020161,0.00123265,0.000439926,0.00139485,3.94171e-05,1.21758,0.000917041,0.0153099,1840,652,11.2264,0.337275
623,372,11.2596,-0.0368652,-0.000222414,0.00155324,0.000338412,0.00161555,-0.000284723,1.38871,0.00118341,0.0128309,1847,652,11.2597,0.036853
630,372,11.269,0.237549,-0.000909111,0.00164745,0.000103791,0.00165165,-0.000913317,1.53029,0.0015012,0.0158919,1854,652,11.269,-0.237569
637,372,11.2814,0.499573,-0.00190547,0.00165388,-0.000271288,0.00167444,-0.00192603,-1.49516,0.00208042,0.0188992,1861,652,11.2814,-0.499602
644,372,11.3303,0.885193,-0.0035678,0.00139298,-0.00105646,0.0016086,-0.00378342,-1.36947,0.00319638,0.0230161,1868,652,11.3303,-0.885218
651,372,11.5529,1.30658,0,0,0,0,0,0,0,-1,1875,652,11.5529,-1.30658
658,372,10.8796,0.832336,0,0,0,0,0,0,0,-1,1882,652,10.8796,-0.832313
665,372,10.3356,0.975159,0,0,0,0,0,0,0,-1,1889,652,10.3355,-0.975184
672,372,9.34106,1.48444,0,0,0,0,0,0,0,-1,1896,652,9.34109,-1.48444
679,372,10.7308,2.32391,0,0,0,0,0,0,0,-1,1903,652,10.7309,-2.3239
686,372,11.6295,2.52997,0,0,0,0,0,0,0,-1,1910,652,11.6296,-2.52996
693,372,0,0,0,0,0,0,0,0,0,-1,1917,652,0,0
700,372,0,0,0,0,0,0,0,0,0,-1,1924,652,0,0
707,372,0,0,0,0,0,0,0,0,0,-1,1931,652,0,0
714,372,0,0,0,0,0,0,0,0,0,-1,1938,652,0,0
721,372,0,0,0,0,0,0,0,0,0,-1,1945,652,0,0
728,372,0,0,0,0,0,0,0,0,0,-1,1952,652,0,0
735,372,0,0,0,0,0,0,0,0,0,-1,1959,652,0,0
742,372,0,0,0,0,0,0,0,0,0,-1,1966,652,0,0
749,372,0,0,0,0,0,0,0,0,0,-1,1973,652,0,0
756,372,0,0,0,0,0,0,0,0,0,-1,1980,652,0,0
763,372,0,0,0,0,0,0,0,0,0,-1,1987,652,0,0
770,372,0,0,0,0,0,0,0,0,0,-1,1994,652,0,0
777,372,0,0,0,0,0,0,0,0,0,-1,2001,652,0,0
784,372,0,0,0,0,0,0,0,0,0,-1,2008,652,0,0
791,372,0,0,0,0,0,0,0,0,0,-1,2015,652,0,0
798,372,0,0,0,0,0,0,0,0,0,-1,2022,652,0,0
805,372,0,0,0,0,0,0,0,0,0,-1,2029,652,0,0
812,372,0,0,0,0,0,0,0,0,0,-1,2036,652,0,0
-700,365,0,0,0,0,0,0,0,0,0,-1,524,659,0,0
-693,365,0,0,0,0,0,0,0,0,0,-1,531,659,0,0
-686,365,0,0,0,0,0,0,0,0,0,-1,538,659,0,0
-679,365,0,0,0,0,0,0,0,0,0,-1,545,659,0,0
-672,365,0,0,0,0,0,0,0,0,0,-1,552,659,0,0
-665,365,0,0,0,0,0,0,0,0,0,-1,559,659,0,0
-658,365,0,0,0,0,0,0,0,0,0,-1,566,659,0,0
-651,365,0,0,0,0,0,0,0,0,0,-1,573,659,0,0
-644,365,0,0,0,0,0,0,0,0,0,-1,580,659,0,0
-637,365,0,0,0,0,0,0,0,0,0,-1,587,659,0,0
-630,365,0,0,0,0,0,0,0,0,0,-1,594,659,0,0
-623,365,0,0,0,0,0,0,0,0,0,-1,601,659,0,0
-616,365,0,0,0,0,0,0,0,0,0,-1,608,659,0,0
-609,365,0,0,0,0,0,0,0,0,0,-1,615,659,0,0
-602,365,0,0,0,0,0,0,0,0,0,-1,622,659,0,0
-595,365,0,0,0,0,0,0,0,0,0,-1,629,659,0,0
-588,365,0,0,0,0,0,0,0,0,0,-1,636,659,0,0
-581,365,0,0,0,0,0,0,0,0,0,-1,643,659,0,0
-574,365,-2.66309,-0.84613,0,0,0,0,0,0,0,-1,650,659,-2.6631,0.846132
-567,365,-5.1438,2.92212,0,0,0,0,0,0,0,-1,657,659,-5.14379,-2.92214
-560,365,-5.15991,2.43304,0,0,0,0,0,0,0,-1,664,659,-5.15991,-2.43304
-553,365,-5.0979,0.902771,0,0,0,0,0,0,0,-1,671,659,-5.0979,-0.902772
-546,365,-5.95624,2.06677,0,0,0,0,0,0,0,-1,678,659,-5.95625,-2.06679
-539,365,-5.82782,1.22565,0,0,0,0,0,0,0,-1,685,659,-5.82781,-1.22565
-532,365,-5.58026,-0.0552368,0,0,0,0,0,0,0,-1,692,659,-5.58028,0.0552533
-525,365,-5.37811,-0.580872,0,0,0,0,0,0,0,-1,699,659,-5.37814,0.580863
-518,365,-5.40009,-1.0636,0,0,0,0,0,0,0,-1,706,659,-5.40009,1.06362
-511,365,-5.41119,-1.35333,0.00240769,-0.00552624,0.00185433,0.0028197,-0.00593824,0.218632,0.00516214,0.0210388,713,659,-5.41119,1.35335
-504,365,-5.4068,-1.61639,0.00173775,-0.00497057,0.00155885,0.00208229,-0.00531511,0.217527,0.00440474,0.0129377,720,659,-5.4068,1.6164
-497,365,-5.38635,-1.87091,0.00131599,-0.00417073,0.00124662,0.00158594,-0.00444069,0.213259,0.00360725,0.0132239,727,659,-5.38634,1.8709
-490,365,-5.3855,-2.11749,0.00124158,-0.00287308,0.000732191,0.00136799,-0.00299949,0.170958,0.00257954,0.0133001,734,659,-5.38551,2.11747
-483,365,-5.40857,-2.38013,0.00149169,-0.00172942,0.000182637,0.00150201,-0.00173974,0.0564589,0.00187331,0.0118661,741,659,-5.40859,2.38012
-476,365,-5.40521,-2.63361,0.00202484,-0.000148884,-0.000708519,0.00223538,-0.000359431,-0.288853,0.00162338,0.0123525,748,659,-5.4052,2.63361
-469,365,-5.39154,-2.88824,0.0026539,0.00138595,-0.00173396,0.00386615,0.000173698,-0.610136,0.00252153,0.0119291,755,659,-5.39157,2.88827
-462,365,-5.37976,-3.15924,0.0032059,0.00174742,-0.00227394,0.00486467,8.86449e-05,-0.630232,0.00321398,0.0129449,762,659,-5.37973,3.15921
-455,365,-5.37897,-3.40771,0.00361482,0.00130674,-0.00223277,0.00497416,-5.26037e-05,-0.546875,0.00333378,0.0146366,769,659,-5.37895,3.40769
-448,365,-5.31415,-3.72101,0.00380925,0.00121404,-0.00228454,0.00513898,-0.000115688,-0.527121,0.0034652,0.022143,776,659,-5.31415,3.72103
-441,365,-5.23474,-4.13837,0,0,0,0,0,0,0,-1,783,659,-5.23472,4.13837
-434,365,-5.45056,-3.98041,0,0,0,0,0,0,0,-1,790,659,-5.45055,3.98042
-427,365,-5.05377,-4.74689,0,0,0,0,0,0,0,-1,797,659,-5.05376,4.7469
-420,365,-4.58813,-3.16376,0,0,0,0,0,0,0,-1,804,659,-4.58816,3.16374
-413,365,0.141357,0.672729,0,0,0,0,0,0,0,-1,811,659,0.141365,-0.672714
-406,365,-1.75067,-0.934448,0,0,0,0,0,0,0,-1,818,659,-1.7507,0.934424
-399,365,-4.10242,-1.25439,0,0,0,0,0,0,0,-1,825,659,-4.10244,1.25438
-392,365,-7.46545,-0.779724,0,0,0,0,0,0,0,-1,832,659,-7.46543,0.779744
-385,365,-6.27875,-0.887573,0,0,0,0,0,0,0,-1,839,659,-6.27874,0.887545
-378,365,-5.34503,-0.263306,0,0,0,0,0,0,0,-1,846,659,-5.34504,0.263275
-371,365,0,0,0,0,0,0,0,0,0,-1,853,659,0,0
-364,365,0,0,0,0,0,0,0,0,0,-1,860,659,0,0
-357,365,0,0,0,0,0,0,0,0,0,-1,867,659,0,0
-350,365,0,0,0,0,0,0,0,0,0,-1,874,659,0,0
-343,365,0,0,0,0,0,0,0,0,0,-1,881,659,0,0
-336,365,0,0,0,0,0,0,0,0,0,-1,888,659,0,0
-329,365,0,0,0,0,0,0,0,0,0,-1,895,659,0,0
-322,365,0,0,0,0,0,0,0,0,0,-1,902,659,0,0
-315,365,0,0,0,0,0,0,0,0,0,-1,909,659,0,0
-308,365,0,0,0,0,0,0,0,0,0,-1,916,659,0,0
-301,365,0,0,0,0,0,0,0,0,0,-1,923,659,0,0
-294,365,0,0,0,0,0,0,0,0,0,-1,930,659,0,0
-287,365,0,0,0,0,0,0,0,0,0,-1,937,659,0,0
-280,365,0,0,0,0,0,0,0,0,0,-1,944,659,0,0
-273,365,0,0,0,0,0,0,0,0,0,-1,951,659,0,0
-266,365,0,0,0,0,0,0,0,0,0,-1,958,659,0,0
-259,365,0,0,0,0,0,0,0,0,0,-1,965,659,0,0
-252,365,0,0,0,0,0,0,0,0,0,-1,972,659,0,0
-245,365,0,0,0,0,0,0,0,0,0,-1,979,659,0,0
-238,365,0,0,0,0,0,0,0,0,0,-1,986,659,0,0
-231,365,0,0,0,0,0,0,0,0,0,-1,993,659,0,0
-224,365,0,0,0,0,0,0,0,0,0,-1,1000,659,0,0
-217,365,0,0,0,0,0,0,0,0,0,-1,1007,659,0,0
-210,365,0,0,0,0,0,0,0,0,0,-1,1014,659,0,0
-203,365,0,0,0,0,0,0,0,0,0,-1,1021,659,0,0
-196,365,0,0,0,0,0,0,0,0,0,-1,1028,659,0,0
-189,365,0,0,0,0,0,0,0,0,0,-1,1035,659,0,0
-182,365,0,0,0,0,0,0,0,0,0,-1,1042,659,0,0
-175,365,0,0,0,0,0,0,0,0,0,-1,1049,659,0,0
-168,365,0,0,0,0,0,0,0,0,0,-1,1056,659,0,0
-161,365,0,0,0,0,0,0,0,0,0,-1,1063,659,0,0
-154,365,0,0,0,0,0,0,0,0,0,-1,1070,659,0,0
-147,365,0,0,0,0,0,0,0,0,0,-1,1077,659,0,0
-140,365,0,0,0,0,0,0,0,0,0,-1,1084,659,0,0
-133,365,0,0,0,0,0,0,0,0,0,-1,1091,659,0,0
-126,365,0,0,0,0,0,0,0,0,0,-1,1098,659,0,0
-119,365,0,0,0,0,0,0,0,0,0,-1,1105,659,0,0
-112,365,0,0,0,0,0,0,0,0,0,-1,1112,659,0,0
-105,365,0,0,0,0,0,0,0,0,0,-1,1119,659,0,0
-98,365,0,0,0,0,0,0,0,0,0,-1,1126,659,0,0
-91,365,0,0,0,0,0,0,0,0,0,-1,1133,659,0,0
-84,365,0,0,0,0,0,0,0,0,0,-1,1140,659,0,0
-77,365,0,0,0,0,0,0,0,0,0,-1,1147,659,0,0
-70,365,0,0,0,0,0,0,0,0,0,-1,1154,659,0,0
-63,365,0,0,0,0,0,0,0,0,0,-1,1161,659,0,0
-56,365,0,0,0,0,0,0,0,0,0,-1,1168,659,0,0
-49,365,0,0,0,0,0,0,0,0,0,-1,1175,659,0,0
-42,365,0,0,0,0,0,0,0,0,0,-1,1182,659,0,0
-35,365,0,0,0,0,0,0,0,0,0,-1,1189,659,0,0
-28,365,0,0,0,0,0,0,0,0,0,-1,1196,659,0,0
-21,365,0,0,0,0,0,0,0,0,0,-1,1203,659,0,0
-14,365,0,0,0,0,0,0,0,0,0,-1,1210,659,0,0
-7,365,0,0,0,0,0,0,0,0,0,-1,1217,659,0,0
0,365,0,0,0,0,0,0,0,0,0,-1,1224,659,0,0
7,365,0,0,0,0,0,0,0,0,0,-1,1231,659,0,0
14,365,0,0,0,0,0,0,0,0,0,-1,1238,659,0,0
21,365,0,0,0,0,0,0,0,0,0,-1,1245,659,0,0
28,365,0,0,0,0,0,0,0,0,0,-1,1252,659,0,0
35,365,0,0,0,0,0,0,0,0,0,-1,1259,659,0,0
42,365,0,0,0,0,0,0,0,0,0,-1,1266,659,0,0
49,365,0,0,0,0,0,0,0,0,0,-1,1273,659,0,0
56,365,0,0,0,0,0,0,0,0,0,-1,1280,659,0,0
63,365,0,0,0,0,0,0,0,0,0,-1,1287,659,0,0
70,365,0,0,0,0,0,0,0,0,0,-1,1294,659,0,0
77,365,0,0,0,0,0,0,0,0,0,-1,1301,659,0,0
84,365,0,0,0,0,0,0,0,0,0,-1,1308,659,0,0
91,365,0,0,0,0,0,0,0,0,0,-1,1315,659,0,0
98,365,0,0,0,0,0,0,0,0,0,-1,1322,659,0,0
105,365,0,0,0,0,0,0,0,0,0,-1,1329,659,0,0
112,365,0,0,0,0,0,0,0,0,0,-1,1336,659,0,0
119,365,0,0,0,0,0,0,0,0,0,-1,1343,659,0,0
126,365,0,0,0,0,0,0,0,0,0,-1,1350,659,0,0
133,365,0,0,0,0,0,0,0,0,0,-1,1357,659,0,0
140,365,0,0,0,0,0,0,0,0,0,-1,1364,659,0,0
147,365,0,0,0,0,0,0,0,0,0,-1,1371,659,0,0
154,365,0,0,0,0,0,0,0,0,0,-1,1378,659,0,0
161,365,0,0,0,0,0,0,0,0,0,-1,1385,659,0,0
168,365,0,0,0,0,0,0,0,0,0,-1,1392,659,0,0
175,365,0,0,0,0,0,0,0,0,0,-1,1399,659,0,0
182,365,0,0,0,0,0,0,0,0,0,-1,1406,659,0,0
189,365,0,0,0,0,0,0,0,0,0,-1,1413,659,0,0
196,365,0,0,0,0,0,0,0,0,0,-1,1420,659,0,0
203,365,0,0,0,0,0,0,0,0,0,-1,1427,659,0,0
210,365,0,0,0,0,0,0,0,0,0,-1,1434,659,0,0
217,365,0,0,0,0,0,0,0,0,0,-1,1441,659,0,0
224,365,0,0,0,0,0,0,0,0,0,-1,1448,659,0,0
231,365,0,0,0,0,0,0,0,0,0,-1,1455,659,0,0
238,365,0,0,0,0,0,0,0,0,0,-1,1462,659,0,0
245,365,0,0,0,0,0,0,0,0,0,-1,1469,659,0,0
252,365,0,0,0,0,0,0,0,0,0,-1,1476,659,0,0
259,365,0,0,0,0,0,0,0,0,0,-1,1483,659,0,0
266,365,0,0,0,0,0,0,0,0,0,-1,1490,659,0,0
273,365,0,0,0,0,0,0,0,0,0,-1,1497,659,0,0
280,365,0,0,0,0,0,0,0,0,0,-1,1504,659,0,0
287,365,0,0,0,0,0,0,0,0,0,-1,1511,659,0,0
294,365,0,0,0,0,0,0,0,0,0,-1,1518,659,0,0
301,365,0,0,0,0,0,0,0,0,0,-1,1525,659,0,0
308,365,0,0,0,0,0,0,0,0,0,-1,1532,659,0,0
315,365,0,0,0,0,0,0,0,0,0,-1,1539,659,0,0
322,365,0,0,0,0,0,0,0,0,0,-1,1546,659,0,0
329,365,0,0,0,0,0,0,0,0,0,-1,1553,659,0,0
336,365,0,0,0,0,0,0,0,0,0,-1,1560,659,0,0
343,365,0,0,0,0,0,0,0,0,0,-1,1567,659,0,0
350,365,0,0,0,0,0,0,0,0,0,-1,1574,659,0,0
357,365,0,0,0,0,0,0,0,0,0,-1,1581,659,0,0
364,365,0,0,0,0,0,0,0,0,0,-1,1588,659,0,0
371,365,0,0,0,0,0,0,0,0,0,-1,1595,659,0,0
378,365,0,0,0,0,0,0,0,0,0,-1,1602,659,0,0
385,365,0,0,0,0,0,0,0,0,0,-1,1609,659,0,0
392,365,0,0,0,0,0,0,0,0,0,-1,1616,659,0,0
399,365,0,0,0,0,0,0,0,0,0,-1,1623,659,0,0
406,365,0,0,0,0,0,0,0,0,0,-1,1630,659,0,0
413,365,0,0,0,0,0,0,0,0,0,-1,1637,659,0,0
420,365,0,0,0,0,0,0,0,0,0,-1,1644,659,0,0
427,365,0,0,0,0,0,0,0,0,0,-1,1651,659,0,0
434,365,0,0,0,0,0,0,0,0,0,-1,1658,659,0,0
441,365,0,0,0,0,0,0,0,0,0,-1,1665,659,0,0
448,365,0,0,0,0,0,0,0,0,0,-1,1672,659,0,0
455,365,0,0,0,0,0,0,0,0,0,-1,1679,659,0,0
462,365,0,0,0,0,0,0,0,0,0,-1,1686,659,0,0
469,365,0,0,0,0,0,0,0,0,0,-1,1693,659,0,0
476,365,0,0,0,0,0,0,0,0,0,-1,1700,659,0,0
483,365,0,0,0,0,0,0,0,0,0,-1,1707,659,0,0
490,365,8.39551,0.471252,0,0,0,0,0,0,0,-1,1714,659,8.39551,-0.471241
497,365,9.89233,1.35394,0,0,0,0,0,0,0,-1,1721,659,9.89237,-1.35396
504,365,10.1414,1.18005,0,0,0,0,0,0,0,-1,1728,659,10.1413,-1.18004
511,365,10.5151,0.993896,0,0,0,0,0,0,0,-1,1735,659,10.5152,-0.993894
518,365,11.2029,0.398132,0,0,0,0,0,0,0,-1,1742,659,11.2029,-0.398136
525,365,15.5748,3.85303,0,0,0,0,0,0,0,-1,1749,659,15.5748,-3.85303
532,365,11.2446,1.00629,0,0,0,0,0,0,0,-1,1756,659,11.2446,-1.00631
539,365,12.6301,1.03204,0,0,0,0,0,0,0,-1,1763,659,12.6302,-1.03204
546,365,11.647,0.84198,0,0,0,0,0,0,0,-1,1770,659,11.6469,-0.841955
553,365,12.028,-0.558899,0,0,0,0,0,0,0,-1,1777,659,12.028,0.558873
560,365,11.4537,-3.45319,0,0,0,0,0,0,0,-1,1784,659,11.4537,3.45317
567,365,11.6328,-2.53174,0,0,0,0,0,0,0,-1,1791,659,11.6328,2.53175
574,365,11.7472,-2.09033,-0.00374085,0.00268484,-0.000124392,0.00268725,-0.00374325,-1.55145,0.0037293,0.0445876,1798,659,11.7471,2.09035
581,365,11.5513,-1.78748,-0.0028888,0.00152494,-0.000419666,0.00156449,-0.00292835,-1.47684,0.00263348,0.0209504,1805,659,11.5512,1.78747
588,365,11.5236,-1.48529,-0.00188314,0.000904579,-0.000422038,0.000967071,-0.00194563,-1.42379,0.00171299,0.0121839,1812,659,11.5235,1.48527
595,365,11.5306,-1.17365,-0.000967784,0.00064218,-0.000254607,0.000681485,-0.00100709,-1.41763,0.000980922,0.0120186,1819,659,11.5306,1.17363
602,365,11.5245,-0.900513,-0.000169002,0.000686347,4.82189e-05,0.000689057,-0.000171711,1.51466,0.000526035,0.0129865,1826,659,11.5246,0.900533
609,365,11.4863,-0.609863,0.000118336,0.000872913,0.000254782,0.000950883,4.03658e-05,1.27382,0.000620904,0.0147318,1833,659,11.4863,0.609863
616,365,11.5205,-0.306885,-2.91246e-05,0.000689817,8.25776e-05,0.000699179,-3.84875e-05,1.4579,0.000479464,0.0173316,1840,659,11.5205,0.306912
623,365,11.5605,-0.0281372,-0.000451275,0.000912226,-8.23074e-05,0.000917177,-0.000456225,-1.51072,0.000807684,0.0117005,1847,659,11.5605,0.0281418
630,365,11.5557,0.240417,-0.00105561,0.000899118,-0.000338762,0.000956162,-0.00111266,-1.40397,0.00119557,0.0149478,1854,659,11.5556,-0.240426
637,365,11.5575,0.499878,-0.00183283,0.000905596,-0.000657058,0.00105509,-0.00198233,-1.34709,0.00178068,0.0196962,1861,659,11.5574,-0.499892
644,365,11.5603,0.780884,-0.00323731,0.000601752,-0.0014053,0.00106118,-0.00369674,-1.25482,0.00288405,0.0147307,1868,659,11.5603,-0.780856
651,365,11.6721,1.09259,-0.00470939,0.000102251,-0.00236195,0.0010679,-0.00567503,-1.1827,0.00418498,0.0295043,1875,659,11.6721,-1.09257
658,365,11.1484,0.990967,-0.00608382,-0.000506047,-0.0033543,0.00106732,-0.00765719,-1.13221,0.00549522,0.0454139,1882,659,11.1484,-0.990947
665,365,10.7592,1.05933,0,0,0,0,0,0,0,-1,1889,659,10.7591,-1.0593
672,365,10.0579,2.15088,0,0,0,0,0,0,0,-1,1896,659,10.0579,-2.15088
679,365,10.9718,2.19208,0,0,0,0,0,0,0,-1,1903,659,10.9718,-2.19211
686,365,12.2134,2.17108,0,0,0,0,0,0,0,-1,1910,659,12.2134,-2.17109
693,365,13.7141,1.98279,0,0,0,0,0,0,0,-1,1917,659,13.7141,-1.98278
700,365,0,0,0,0,0,0,0,0,0,-1,1924,659,0,0
707,365,0,0,0,0,0,0,0,0,0,-1,1931,659,0,0
714,365,0,0,0,0,0,0,0,0,0,-1,1938,659,0,0
721,365,0,0,0,0,0,0,0,0,0,-1,1945,659,0,0
728,365,0,0,0,0,0,0,0,0,0,-1,1952,659,0,0
735,365,0,0,0,0,0,0,0,0,0,-1,1959,659,0,0
742,365,0,0,0,0,0,0,0,0,0,-1,1966,659,0,0
749,365,0,0,0,0,0,0,0,0,0,-1,1973,659,0,0
756,365,0,0,0,0,0,0,0,0,0,-1,1980,659,0,0
763,365,0,0,0,0,0,0,0,0,0,-1,1987,659,0,0
770,365,0,0,0,0,0,0,0,0,0,-1,1994,659,0,0
777,365,0,0,0,0,0,0,0,0,0,-1,2001,659,0,0
784,365,0,0,0,0,0,0,0,0,0,-1,2008,659,0,0
791,365,0,0,0,0,0,0,0,0,0,-1,2015,659,0,0
798,365,0,0,0,0,0,0,0,0,0,-1,2022,659,0,0
805,365,0,0,0,0,0,0,0,0,0,-1,2029,659,0,0
812,365,0,0,0,0,0,0,0,0,0,-1,2036,659,0,0
-700,358,0,0,0,0,0,0,0,0,0,-1,524,666,0,0
-693,358,0,0,0,0,0,0,0,0,0,-1,531,666,0,0
-686,358,0,0,0,0,0,0,0,0,0,-1,538,666,0,0
-679,358,0,0,0,0,0,0,0,0,0,-1,545,666,0,0
-672,358,0,0,0,0,0,0,0,0,0,-1,552,666,0,0
-665,358,0,0,0,0,0,0,0,0,0,-1,559,666,0,0
-658,358,0,0,0,0,0,0,0,0,0,-1,566,666,0,0
-651,358,0,0,0,0,0,0,0,0,0,-1,573,666,0,0
-644,358,0,0,0,0,0,0,0,0,0,-1,580,666,0,0
-637,358,0,0,0,0,0,0,0,0,0,-1,587,666,0,0
-630,358,0,0,0,0,0,0,0,0,0,-1,594,666,0,0
-623,358,0,0,0,0,0,0,0,0,0,-1,601,666,0,0
-616,358,0,0,0,0,0,0,0,0,0,-1,608,666,0,0
-609,358,0,0,0,0,0,0,0,0,0,-1,615,666,0,0
-602,358,0,0,0,0,0,0,0,0,0,-1,622,666,0,0
-595,358,0,0,0,0,0,0,0,0,0,-1,629,666,0,0
-588,358,0,0,0,0,0,0,0,0,0,-1,636,666,0,0
-581,358,-3.12964,0.277771,0,0,0,0,0,0,0,-1,643,666,-3.12965,-0.277791
-574,358,-3.58069,-0.14679,0,0,0,0,0,0,0,-1,650,666,-3.58067,0.146818
-567,358,-5.35767,2.41486,0,0,0,0,0,0,0,-1,657,666,-5.35765,-2.41485
-560,358,-5.47229,1.78088,0,0,0,0,0,0,0,-1,664,666,-5.47226,-1.7809
-553,358,-5.46954,0.854248,0,0,0,0,0,0,0,-1,671,666,-5.46952,-0.854246
-546,358,-5.95081,1.65326,0,0,0,0,0,0,0,-1,678,666,-5.95083,-1.65324
-539,358,-5.86908,0.835754,0.00826431,0.00760937,-0.00212492,0.0100868,0.00578684,-0.708945,0.0058447,0.0439105,685,666,-5.86911,-0.835771
-532,358,-5.78119,-0.00256348,0.00603538,0.0039536,-0.00135285,0.00670144,0.00328754,-0.457496,0.00386931,0.0393043,692,666,-5.78121,0.00255503
-525,358,-5.57184,-0.878174,0.00430123,0.00128884,-0.000611231,0.00442053,0.00116954,-0.192753,0.00264482,0.0311011,699,666,-5.57183,0.878184
-518,358,-5.55859,-1.02533,0.00304724,-0.000438548,-1.28833e-05,0.00304728,-0.000438596,-0.00369589,0.00219239,0.0266905,706,666,-5.55862,1.02536
-511,358,-5.65283,-1.3501,0.00220947,-0.00143024,0.000360653,0.00224486,-0.00146563,0.0978209,0.00215794,0.0157286,713,666,-5.65284,1.35008
-504,358,-5.65442,-1.60962,0.00178686,-0.00175327,0.000279851,0.00180885,-0.00177525,0.0784022,0.00206931,0.0118763,720,666,-5.65444,1.60964
-497,358,-5.63861,-1.85962,0.0015379,-0.00175738,0.000202009,0.00155024,-0.00176972,0.0609982,0.00191818,0.0121587,727,666,-5.63862,1.85959
-490,358,-5.63226,-2.11041,0.00159546,-0.00114485,-9.55272e-05,0.00159879,-0.00114818,-0.0348036,0.00159306,0.0110666,734,666,-5.63225,2.1104
-483,358,-5.66071,-2.36346,0.00198052,-0.000446663,-0.000532373,0.00209216,-0.000558298,-0.206698,0.0016134,0.00953941,741,666,-5.66072,2.36344
-476,358,-5.6554,-2.60181,0.00265497,0.000816623,-0.00138753,0.00340016,7.14293e-05,-0.492858,0.00224334,0.0104744,748,666,-5.65541,2.60178
-469,358,-5.65228,-2.8739,0.00348329,0.00216294,-0.00247259,0.00538232,0.000263907,-0.654943,0.00350356,0.0124056,755,666,-5.6523,2.87389
-462,358,-5.65973,-3.16199,0.00426151,0.00232,-0.00305122,0.00649268,8.88265e-05,-0.631385,0.00429915,0.0161277,762,666,-5.65972,3.16198
-455,358,-5.60364,-3.43188,0.0048896,0.00177337,-0.00312748,0.0068256,-0.000162633,-0.554294,0.00460557,0.0229504,769,666,-5.60366,3.43187
-448,358,-5.49829,-3.75873,0,0,0,0,0,0,0,-1,776,666,-5.49831,3.7587
-441,358,-5.56293,-3.98041,0,0,0,0,0,0,0,-1,783,666,-5.56291,3.98043
-434,358,-5.21558,-4.43127,0,0,0,0,0,0,0,-1,790,666,-5.21559,4.43125
-427,358,-3.56189,-3.15729,0,0,0,0,0,0,0,-1,797,666,-3.56192,3.15729
-420,358,0.200195,1.08234,0,0,0,0,0,0,0,-1,804,666,0.200174,-1.08231
-413,358,0.0325317,0.161072,0,0,0,0,0,0,0,-1,811,666,0.0325501,-0.161098
-406,358,-3.85846,0.753113,0,0,0,0,0,0,0,-1,818,666,-3.85846,-0.753129
-399,358,-1.31213,0.190735,0,0,0,0,0,0,0,-1,825,666,-1.31215,-0.190763
-392,358,-3.73914,-0.832214,0,0,0,0,0,0,0,-1,832,666,-3.73915,0.832202
-385,358,-5.95178,-1.69141,0,0,0,0,0,0,0,-1,839,666,-5.9518,1.69143
-378,358,0,0,0,0,0,0,0,0,0,-1,846,666,0,0
-371,358,0,0,0,0,0,0,0,0,0,-1,853,666,0,0
-364,358,0,0,0,0,0,0,0,0,0,-1,860,666,0,0
-357,358,0,0,0,0,0,0,0,0,0,-1,867,666,0,0
-350,358,0,0,0,0,0,0,0,0,0,-1,874,666,0,0
-343,358,0,0,0,0,0,0,0,0,0,-1,881,666,0,0
-336,358,0,0,0,0,0,0,0,0,0,-1,888,666,0,0
-329,358,0,0,0,0,0,0,0,0,0,-1,895,666,0,0
-322,358,0,0,0,0,0,0,0,0,0,-1,902,666,0,0
-315,358,0,0,0,0,0,0,0,0,0,-1,909,666,0,0
-308,358,0,0,0,0,0,0,0,0,0,-1,916,666,0,0
-301,358,0,0,0,0,0,0,0,0,0,-1,923,666,0,0
-294,358,0,0,0,0,0,0,0,0,0,-1,930,666,0,0
-287,358,0,0,0,0,0,0,0,0,0,-1,937,666,0,0
-280,358,0,0,0,0,0,0,0,0,0,-1,944,666,0,0
-273,358,0,0,0,0,0,0,0,0,0,-1,951,666,0,0
-266,358,0,0,0,0,0,0,0,0,0,-1,958,666,0,0
-259,358,0,0,0,0,0,0,0,0,0,-1,965,666,0,0
-252,358,0,0,0,0,0,0,0,0,0,-1,972,666,0,0
-245,358,0,0,0,0,0,0,0,0,0,-1,979,666,0,0
-238,358,0,0,0,0,0,0,0,0,0,-1,986,666,0,0
-231,358,0,0,0,0,0,0,0,0,0,-1,993,666,0,0
-224,358,0,0,0,0,0,0,0,0,0,-1,1000,666,0,0
-217,358,0,0,0,0,0,0,0,0,0,-1,1007,666,0,0
-210,358,0,0,0,0,0,0,0,0,0,-1,1014,666,0,0
-203,358,0,0,0,0,0,0,0,0,0,-1,1021,666,0,0
-196,358,0,0,0,0,0,0,0,0,0,-1,1028,666,0,0
-189,358,0,0,0,0,0,0,0,0,0,-1,1035,666,0,0
-182,358,0,0,0,0,0,0,0,0,0,-1,1042,666,0,0
-175,358,0,0,0,0,0,0,0,0,0,-1,1049,666,0,0
-168,358,0,0,0,0,0,0,0,0,0,-1,1056,666,0,0
-161,358,0,0,0,0,0,0,0,0,0,-1,1063,666,0,0
-154,358,0,0,0,0,0,0,0,0,0,-1,1070,666,0,0
-147,358,0,0,0,0,0,0,0,0,0,-1,1077,666,0,0
-140,358,0,0,0,0,0,0,0,0,0,-1,1084,666,0,0
-133,358,0,0,0,0,0,0,0,0,0,-1,1091,666,0,0
-126,358,0,0,0,0,0,0,0,0,0,-1,1098,666,0,0
-119,358,0,0,0,0,0,0,0,0,0,-1,1105,666,0,0
-112,358,0,0,0,0,0,0,0,0,0,-1,1112,666,0,0
-105,358,0,0,0,0,0,0,0,0,0,-1,1119,666,0,0
-98,358,0,0,0,0,0,0,0,0,0,-1,1126,666,0,0
-91,358,0,0,0,0,0,0,0,0,0,-1,1133,666,0,0
-84,358,0,0,0,0,0,0,0,0,0,-1,1140,666,0,0
-77,358,0,0,0,0,0,0,0,0,0,-1,1147,666,0,0
-70,358,0,0,0,0,0,0,0,0,0,-1,1154,666,0,0
-63,358,0,0,0,0,0,0,0,0,0,-1,1161,666,0,0
-56,358,0,0,0,0,0,0,0,0,0,-1,1168,666,0,0
-49,358,0,0,0,0,0,0,0,0,0,-1,1175,666,0,0
-42,358,0,0,0,0,0,0,0,0,0,-1,1182,666,0,0
-35,358,0,0,0,0,0,0,0,0,0,-1,1189,666,0,0
-28,358,0,0,0,0,0,0,0,0,0,-1,1196,666,0,0
-21,358,0,0,0,0,0,0,0,0,0,-1,1203,666,0,0
-14,358,0,0,0,0,0,0,0,0,0,-1,1210,666,0,0
-7,358,0,0,0,0,0,0,0,0,0,-1,1217,666,0,0
0,358,0,0,0,0,0,0,0,0,0,-1,1224,666,0,0
7,358,0,0,0,0,0,0,0,0,0,-1,1231,666,0,0
14,358,0,0,0,0,0,0,0,0,0,-1,1238,666,0,0
21,358,0,0,0,0,0,0,0,0,0,-1,1245,666,0,0
28,358,0,0,0,0,0,0,0,0,0,-1,1252,666,0,0
35,358,0,0,0,0,0,0,0,0,0,-1,1259,666,0,0
42,358,0,0,0,0,0,0,0,0,0,-1,1266,666,0,0
49,358,0,0,0,0,0,0,0,0,0,-1,1273,666,0,0
56,358,0,0,0,0,0,0,0,0,0,-1,1280,666,0,0
63,358,0,0,0,0,0,0,0,0,0,-1,1287,666,0,0
70,358,0,0,0,0,0,0,0,0,0,-1,1294,666,0,0
77,358,0,0,0,0,0,0,0,0,0,-1,1301,666,0,0
84,358,0,0,0,0,0,0,0,0,0,-1,1308,666,0,0
91,358,0,0,0,0,0,0,0,0,0,-1,1315,666,0,0
98,358,0,0,0,0,0,0,0,0,0,-1,1322,666,0,0
105,358,0,0,0,0,0,0,0,0,0,-1,1329,666,0,0
112,358,0,0,0,0,0,0,0,0,0,-1,1336,666,0,0
119,358,0,0,0,0,0,0,0,0,0,-1,1343,666,0,0
126,358,0,0,0,0,0,0,0,0,0,-1,1350,666,0,0
133,358,0,0,0,0,0,0,0,0,0,-1,1357,666,0,0
140,358,0,0,0,0,0,0,0,0,0,-1,1364,666,0,0
147,358,0,0,0,0,0,0,0,0,0,-1,1371,666,0,0
154,358,0,0,0,0,0,0,0,0,0,-1,1378,666,0,0
161,358,0,0,0,0,0,0,0,0,0,-1,1385,666,0,0
168,358,0,0,0,0,0,0,0,0,0,-1,1392,666,0,0
175,358,0,0,0,0,0,0,0,0,0,-1,1399,666,0,0
182,358,0,0,0,0,0,0,0,0,0,-1,1406,666,0,0
189,358,0,0,0,0,0,0,0,0,0,-1,1413,666,0,0
196,358,0,0,0,0,0,0,0,0,0,-1,1420,666,0,0
203,358,0,0,0,0,0,0,0,0,0,-1,1427,666,0,0
210,358,0,0,0,0,0,0,0,0,0,-1,1434,666,0,0
217,358,0,0,0,0,0,0,0,0,0,-1,1441,666,0,0
224,358,0,0,0,0,0,0,0,0,0,-1,1448,666,0,0
231,358,0,0,0,0,0,0,0,0,0,-1,1455,666,0,0
238,358,0,0,0,0,0,0,0,0,0,-1,1462,666,0,0
245,358,0,0,0,0,0,0,0,0,0,-1,1469,666,0,0
252,358,0,0,0,0,0,0,0,0,0,-1,1476,666,0,0
259,358,0,0,0,0,0,0,0,0,0,-1,1483,666,0,0
266,358,0,0,0,0,0,0,0,0,0,-1,1490,666,0,0
273,358,0,0,0,0,0,0,0,0,0,-1,1497,666,0,0
280,358,0,0,0,0,0,0,0,0,0,-1,1504,666,0,0
287,358,0,0,0,0,0,0,0,0,0,-1,1511,666,0,0
294,358,0,0,0,0,0,0,0,0,0,-1,1518,666,0,0
301,358,0,0,0,0,0,0,0,0,0,-1,1525,666,0,0
308,358,0,0,0,0,0,0,0,0,0,-1,1532,666,0,0
315,358,0,0,0,0,0,0,0,0,0,-1,1539,666,0,0
322,358,0,0,0,0,0,0,0,0,0,-1,1546,666,0,0
329,358,0,0,0,0,0,0,0,0,0,-1,1553,666,0,0
336,358,0,0,0,0,0,0,0,0,0,-1,1560,666,0,0
343,358,0,0,0,0,0,0,0,0,0,-1,1567,666,0,0
350,358,0,0,0,0,0,0,0,0,0,-1,1574,666,0,0
357,358,0,0,0,0,0,0,0,0,0,-1,1581,666,0,0
364,358,0,0,0,0,0,0,0,0,0,-1,1588,666,0,0
371,358,0,0,0,0,0,0,0,0,0,-1,1595,666,0,0
378,358,0,0,0,0,0,0,0,0,0,-1,1602,666,0,0
385,358,0,0,0,0,0,0,0,0,0,-1,1609,666,0,0
392,358,0,0,0,0,0,0,0,0,0,-1,1616,666,0,0
399,358,0,0,0,0,0,0,0,0,0,-1,1623,666,0,0
406,358,0,0,0,0,0,0,0,0,0,-1,1630,666,0,0
413,358,0,0,0,0,0,0,0,0,0,-1,1637,666,0,0
420,358,0,0,0,0,0,0,0,0,0,-1,1644,666,0,0
427,358,0,0,0,0,0,0,0,0,0,-1,1651,666,0,0
434,358,0,0,0,0,0,0,0,0,0,-1,1658,666,0,0
441,358,0,0,0,0,0,0,0,0,0,-1,1665,666,0,0
448,358,0,0,0,0,0,0,0,0,0,-1,1672,666,0,0
455,358,0,0,0,0,0,0,0,0,0,-1,1679,666,0,0
462,358,0,0,0,0,0,0,0,0,0,-1,1686,666,0,0
469,358,0,0,0,0,0,0,0,0,0,-1,1693,666,0,0
476,358,0,0,0,0,0,0,0,0,0,-1,1700,666,0,0
483,358,0,0,0,0,0,0,0,0,0,-1,1707,666,0,0
490,358,0,0,0,0,0,0,0,0,0,-1,1714,666,0,0
497,358,8.57239,1.1322,0,0,0,0,0,0,0,-1,1721,666,8.57234,-1.13219
504,358,10.5972,0.832947,0,0,0,0,0,0,0,-1,1728,666,10.5972,-0.832968
511,358,10.6873,0.868469,0,0,0,0,0,0,0,-1,1735,666,10.6872,-0.868484
518,358,16.5884,2.34894,0,0,0,0,0,0,0,-1,1742,666,16.5884,-2.34894
525,358,15.7626,3.65344,0,0,0,0,0,0,0,-1,1749,666,15.7626,-3.65342
532,358,14.9368,4.95789,0,0,0,0,0,0,0,-1,1756,666,14.9367,-4.9579
539,358,15.1597,3.42694,0,0,0,0,0,0,0,-1,1763,666,15.1597,-3.42692
546,358,12.3792,1.53558,0,0,0,0,0,0,0,-1,1770,666,12.3792,-1.5356
553,358,11.6584,1.26172,0,0,0,0,0,0,0,-1,1777,666,11.6585,-1.26175
560,358,10.8234,1.43042,0,0,0,0,0,0,0,-1,1784,666,10.8233,-1.43041
567,358,10.1333,-0.955139,0,0,0,0,0,0,0,-1,1791,666,10.1333,0.955132
574,358,12.2362,-2.34143,0,0,0,0,0,0,0,-1,1798,666,12.2362,2.34142
581,358,11.9694,-1.69147,-0.00352275,0.0013763,-0.000599207,0.00144852,-0.00359497,-1.45084,0.00299848,0.0339243,1805,666,11.9694,1.69144
588,358,11.7697,-1.45959,-0.00236306,0.000634203,-0.000625533,0.000759514,-0.00248837,-1.37309,0.00196172,0.0172653,1812,666,11.7697,1.45959
595,358,11.8263,-1.15247,-0.00137533,0.000285149,-0.00047887,0.000413354,-0.00150353,-1.30921,0.00116485,0.0117084,1819,666,11.8263,1.15249
602,358,11.8046,-0.878296,-0.000478724,0.000276723,-0.000194914,0.000324048,-0.000526049,-1.3326,0.000495401,0.0119522,1826,666,11.8046,0.878283
609,358,11.7504,-0.628784,-1.06108e-05,0.000493781,6.52075e-05,0.000502074,-1.89044e-05,1.44429,0.000341192,0.0157095,1833,666,11.7504,0.628778
616,358,11.7585,-0.316406,-6.28616e-05,0.000262152,-0.000103324,0.000292218,-9.29277e-05,-1.28763,0.000232075,0.0156232,1840,666,11.7585,0.316415
623,358,11.8219,-0.029541,-0.000458753,0.000426058,-0.000291797,0.000513623,-0.000546317,-1.27926,0.000612054,0.0136803,1847,666,11.8218,0.0295339
630,358,11.8209,0.220215,-0.000968019,0.000363819,-0.000546401,0.000559295,-0.0011635,-1.22723,0.00101484,0.0165127,1854,666,11.821,-0.220238
637,358,11.8107,0.501831,-0.00153807,0.000412058,-0.000799302,0.0006978,-0.00182381,-1.22746,0.00150346,0.0237229,1861,666,11.8107,-0.501838
644,358,11.8038,0.774353,-0.00268703,0.000133501,-0.00146914,0.00075971,-0.00331324,-1.16787,0.00250083,0.0188316,1868,666,11.8038,-0.774338
651,358,11.8684,1.10809,-0.00377817,-0.000266485,-0.00223292,0.000818257,-0.00486292,-1.11858,0.0035463,0.0199967,1875,666,11.8684,-1.10806
658,358,11.593,1.28082,-0.00463781,-0.0007276,-0.00296587,0.000869596,-0.006235,-1.07681,0.00447479,0.0355297,1882,666,11.593,-1.28084
665,358,11.1296,1.30841,-0.00542583,-0.000886412,-0.00284703,0.00048492,-0.00679716,-1.12192,0.00470143,0.0462679,1889,666,11.1296,-1.30843
672,358,10.8036,1.46881,0,0,0,0,0,0,0,-1,1896,666,10.8035,-1.46882
679,358,11.2441,2.52136,0,0,0,0,0,0,0,-1,1903,666,11.2441,-2.52135
686,358,11.9557,2.2002,0,0,0,0,0,0,0,-1,1910,666,11.9557,-2.20021
693,358,13.188,2.52203,0,0,0,0,0,0,0,-1,1917,666,13.188,-2.52202
700,358,0,0,0,0,0,0,0,0,0,-1,1924,666,0,0
707,358,0,0,0,0,0,0,0,0,0,-1,1931,666,0,0
714,358,0,0,0,0,0,0,0,0,0,-1,1938,666,0,0
721,358,0,0,0,0,0,0,0,0,0,-1,1945,666,0,0
728,358,0,0,0,0,0,0,0,0,0,-1,1952,666,0,0
735,358,0,0,0,0,0,0,0,0,0,-1,1959,666,0,0
742,358,0,0,0,0,0,0,0,0,0,-1,1966,666,0,0
749,358,0,0,0,0,0,0,0,0,0,-1,1973,666,0,0
756,358,0,0,0,0,0,0,0,0,0,-1,1980,666,0,0
763,358,0,0,0,0,0,0,0,0,0,-1,1987,666,0,0
770,358,0,0,0,0,0,0,0,0,0,-1,1994,666,0,0
777,358,0,0,0,0,0,0,0,0,0,-1,2001,666,0,0
784,358,0,0,0,0,0,0,0,0,0,-1,2008,666,0,0
791,358,0,0,0,0,0,0,0,0,0,-1,2015,666,0,0
798,358,0,0,0,0,0,0,0,0,0,-1,2022,666,0,0
805,358,0,0,0,0,0,0,0,0,0,-1,2029,666,0,0
812,358,0,0,0,0,0,0,0,0,0,-1,2036,666,0,0
-700,351,0,0,0,0,0,0,0,0,0,-1,524,673,0,0
-693,351,0,0,0,0,0,0,0,0,0,-1,531,673,0,0
-686,351,0,0,0,0,0,0,0,0,0,-1,538,673,0,0
-679,351,0,0,0,0,0,0,0,0,0,-1,545,673,0,0
-672,351,0,0,0,0,0,0,0,0,0,-1,552,673,0,0
-665,351,0,0,0,0,0,0,0,0,0,-1,559,673,0,0
-658,351,0,0,0,0,0,0,0,0,0,-1,566,673,0,0
-651,351,0,0,0,0,0,0,0,0,0,-1,573,673,0,0
-644,351,0,0,0,0,0,0,0,0,0,-1,580,673,0,0
-637,351,0,0,0,0,0,0,0,0,0,-1,587,673,0,0
-630,351,0,0,0,0,0,0,0,0,0,-1,594,673,0,0
-623,351,0,0,0,0,0,0,0,0,0,-1,601,673,0,0
-616,351,0,0,0,0,0,0,0,0,0,-1,608,673,0,0
-609,351,0,0,0,0,0,0,0,0,0,-1,615,673,0,0
-602,351,0,0,0,0,0,0,0,0,0,-1,622,673,0,0
-595,351,0,0,0,0,0,0,0,0,0,-1,629,673,0,0
-588,351,0,0,0,0,0,0,0,0,0,-1,636,673,0,0
-581,351,-4.08875,0.467529,0,0,0,0,0,0,0,-1,643,673,-4.08874,-0.467548
-574,351,-4.07184,0.444153,0,0,0,0,0,0,0,-1,650,673,-4.07181,-0.444158
-567,351,-4.36963,-0.291565,0,0,0,0,0,0,0,-1,657,673,-4.36964,0.291565
-560,351,-6.08575,0.773071,0,0,0,0,0,0,0,-1,664,673,-6.08577,-0.773096
-553,351,-5.87433,0.810608,0.0106282,0.0234875,-0.0037252,0.0244887,0.00962703,-1.30824,0.0142458,0.0435416,671,673,-5.87435,-0.81063
-546,351,-5.77606,0.33197,0.00827374,0.0183668,-0.00426332,0.0199266,0.00671396,-1.22006,0.0117068,0.0443741,678,673,-5.77607,-0.331949
-539,351,-5.72198,0.10199,0.00627336,0.013801,-0.00399716,0.0155275,0.00454686,-1.16307,0.00921777,0.0432531,685,673,-5.722,-0.10198
-532,351,-5.75806,-0.469666,0.00464972,0.00984855,-0.00333439,0.011477,0.00302124,-1.11648,0.00686942,0.0310307,692,673,-5.75804,0.469694
-525,351,-5.8537,-0.906616,0.00340562,0.0066448,-0.00256757,0.00806091,0.00198951,-1.06677,0.00484879,0.0212269,699,673,-5.8537,0.906609
-518,351,-5.91528,-1.0694,0.0025373,0.00417956,-0.00184596,0.00537878,0.00133807,-0.994669,0.00323347,0.0123313,706,673,-5.91529,1.06942
-511,351,-5.90735,-1.33417,0.00199758,0.00236777,-0.00126146,0.00345765,0.000907708,-0.858244,0.00206997,0.011299,713,673,-5.90735,1.33419
-504,351,-5.91772,-1.60394,0.00185055,0.00124064,-0.00110803,0.00269482,0.000396367,-0.65111,0.00168008,0.0107621,720,673,-5.91771,1.60396
-497,351,-5.90503,-1.84131,0.00181599,0.000408752,-0.00089201,0.00224849,-2.37456e-05,-0.45146,0.00150697,0.0110421,727,673,-5.90501,1.84133
-490,351,-5.90796,-2.09698,0.00205198,0.000224805,-0.000881876,0.00240817,-0.00013139,-0.383869,0.00165099,0.00987413,734,673,-5.90794,2.09698
-483,351,-5.9173,-2.3562,0.00261588,0.000350771,-0.0011106,0.00306956,-0.000102902,-0.387806,0.00208152,0.0106994,741,673,-5.91732,2.3562
-476,351,-5.92725,-2.6084,0.00346047,0.00111842,-0.00181534,0.00444971,0.000129181,-0.498946,0.00292436,0.0104137,748,673,-5.92725,2.60842
-469,351,-5.91681,-2.85486,0.00451446,0.00204929,-0.00282347,0.00636267,0.000201086,-0.579593,0.00417636,0.0126677,755,673,-5.91683,2.85484
-462,351,-5.90314,-3.15955,0.0055011,0.00216445,-0.00341587,0.00763428,3.12619e-05,-0.558234,0.00507913,0.01792,762,673,-5.90312,3.15953
-455,351,-5.83862,-3.50574,0.00630859,0.00177755,-0.00383945,0.00850108,-0.000414952,-0.518857,0.00581065,0.0352877,769,673,-5.83861,3.50574
-448,351,-5.53693,-3.57275,0,0,0,0,0,0,0,-1,776,673,-5.53694,3.57273
-441,351,-4.31567,-2.3009,0,0,0,0,0,0,0,-1,783,673,-4.31565,2.30089
-434,351,-3.81708,-2.28003,0,0,0,0,0,0,0,-1,790,673,-3.81706,2.28006
-427,351,-2.05157,-2.7785,0,0,0,0,0,0,0,-1,797,673,-2.05157,2.77848
-420,351,-1.06989,-2.43665,0,0,0,0,0,0,0,-1,804,673,-1.06991,2.43663
-413,351,-0.392334,-2.06671,0,0,0,0,0,0,0,-1,811,673,-0.392363,2.06672
-406,351,-1.86316,-2.58105,0,0,0,0,0,0,0,-1,818,673,-1.86313,2.58106
-399,351,1.00952,-1.53455,0,0,0,0,0,0,0,-1,825,673,1.00954,1.53457
-392,351,-1.02197,0.877136,0,0,0,0,0,0,0,-1,832,673,-1.02195,-0.877143
-385,351,-1.47205,1.04437,0,0,0,0,0,0,0,-1,839,673,-1.47207,-1.04435
-378,351,0,0,0,0,0,0,0,0,0,-1,846,673,0,0
-371,351,0,0,0,0,0,0,0,0,0,-1,853,673,0,0
-364,351,0,0,0,0,0,0,0,0,0,-1,860,673,0,0
-357,351,0,0,0,0,0,0,0,0,0,-1,867,673,0,0
-350,351,0,0,0,0,0,0,0,0,0,-1,874,673,0,0
-343,351,0,0,0,0,0,0,0,0,0,-1,881,673,0,0
-336,351,0,0,0,0,0,0,0,0,0,-1,888,673,0,0
-329,351,0,0,0,0,0,0,0,0,0,-1,895,673,0,0
-322,351,0,0,0,0,0,0,0,0,0,-1,902,673,0,0
-315,351,0,0,0,0,0,0,0,0,0,-1,909,673,0,0
-308,351,0,0,0,0,0,0,0,0,0,-1,916,673,0,0
-301,351,0,0,0,0,0,0,0,0,0,-1,923,673,0,0
-294,351,0,0,0,0,0,0,0,0,0,-1,930,673,0,0
-287,351,0,0,0,0,0,0,0,0,0,-1,937,673,0,0
-280,351,0,0,0,0,0,0,0,0,0,-1,944,673,0,0
-273,351,0,0,0,0,0,0,0,0,0,-1,951,673,0,0
-266,351,0,0,0,0,0,0,0,0,0,-1,958,673,0,0
-259,351,0,0,0,0,0,0,0,0,0,-1,965,673,0,0
-252,351,0,0,0,0,0,0,0,0,0,-1,972,673,0,0
-245,351,0,0,0,0,0,0,0,0,0,-1,979,673,0,0
-238,351,0,0,0,0,0,0,0,0,0,-1,986,673,0,0
-231,351,0,0,0,0,0,0,0,0,0,-1,993,673,0,0
-224,351,0,0,0,0,0,0,0,0,0,-1,1000,673,0,0
-217,351,0,0,0,0,0,0,0,0,0,-1,1007,673,0,0
-210,351,0,0,0,0,0,0,0,0,0,-1,1014,673,0,0
-203,351,0,0,0,0,0,0,0,0,0,-1,1021,673,0,0
-196,351,0,0,0,0,0,0,0,0,0,-1,1028,673,0,0
-189,351,0,0,0,0,0,0,0,0,0,-1,1035,673,0,0
-182,351,0,0,0,0,0,0,0,0,0,-1,1042,673,0,0
-175,351,0,0,0,0,0,0,0,0,0,-1,1049,673,0,0
-168,351,0,0,0,0,0,0,0,0,0,-1,1056,673,0,0
-161,351,0,0,0,0,0,0,0,0,0,-1,1063,673,0,0
-154,351,0,0,0,0,0,0,0,0,0,-1,1070,673,0,0
-147,351,0,0,0,0,0,0,0,0,0,-1,1077,673,0,0
-140,351,0,0,0,0,0,0,0,0,0,-1,1084,673,0,0
-133,351,0,0,0,0,0,0,0,0,0,-1,1091,673,0,0
-126,351,0,0,0,0,0,0,0,0,0,-1,1098,673,0,0
-119,351,0,0,0,0,0,0,0,0,0,-1,1105,673,0,0
-112,351,0,0,0,0,0,0,0,0,0,-1,1112,673,0,0
-105,351,0,0,0,0,0,0,0,0,0,-1,1119,673,0,0
-98,351,0,0,0,0,0,0,0,0,0,-1,1126,673,0,0
-91,351,0,0,0,0,0,0,0,0,0,-1,1133,673,0,0
-84,351,0,0,0,0,0,0,0,0,0,-1,1140,673,0,0
-77,351,0,0,0,0,0,0,0,0,0,-1,1147,673,0,0
-70,351,0,0,0,0,0,0,0,0,0,-1,1154,673,0,0
-63,351,0,0,0,0,0,0,0,0,0,-1,1161,673,0,0
-56,351,0,0,0,0,0,0,0,0,0,-1,1168,673,0,0
-49,351,0,0,0,0,0,0,0,0,0,-1,1175,673,0,0
-42,351,0,0,0,0,0,0,0,0,0,-1,1182,673,0,0
-35,351,0,0,0,0,0,0,0,0,0,-1,1189,673,0,0
-28,351,0,0,0,0,0,0,0,0,0,-1,1196,673,0,0
-21,351,0,0,0,0,0,0,0,0,0,-1,1203,673,0,0
-14,351,0,0,0,0,0,0,0,0,0,-1,1210,673,0,0
-7,351,0,0,0,0,0,0,0,0,0,-1,1217,673,0,0
0,351,0,0,0,0,0,0,0,0,0,-1,1224,673,0,0
7,351,0,0,0,0,0,0,0,0,0,-1,1231,673,0,0
14,351,0,0,0,0,0,0,0,0,0,-1,1238,673,0,0
21,351,0,0,0,0,0,0,0,0,0,-1,1245,673,0,0
28,351,0,0,0,0,0,0,0,0,0,-1,1252,673,0,0
35,351,0,0,0,0,0,0,0,0,0,-1,1259,673,0,0
42,351,0,0,0,0,0,0,0,0,0,-1,1266,673,0,0
49,351,0,0,0,0,0,0,0,0,0,-1,1273,673,0,0
56,351,0,0,0,0,0,0,0,0,0,-1,1280,673,0,0
63,351,0,0,0,0,0,0,0,0,0,-1,1287,673,0,0
70,351,0,0,0,0,0,0,0,0,0,-1,1294,673,0,0
77,351,0,0,0,0,0,0,0,0,0,-1,1301,673,0,0
84,351,0,0,0,0,0,0,0,0,0,-1,1308,673,0,0
91,351,0,0,0,0,0,0,0,0,0,-1,1315,673,0,0
98,351,0,0,0,0,0,0,0,0,0,-1,1322,673,0,0
105,351,0,0,0,0,0,0,0,0,0,-1,1329,673,0,0
112,351,0,0,0,0,0,0,0,0,0,-1,1336,673,0,0
119,351,0,0,0,0,0,0,0,0,0,-1,1343,673,0,0
126,351,0,0,0,0,0,0,0,0,0,-1,1350,673,0,0
133,351,0,0,0,0,0,0,0,0,0,-1,1357,673,0,0
140,351,0,0,0,0,0,0,0,0,0,-1,1364,673,0,0
147,351,0,0,0,0,0,0,0,0,0,-1,1371,673,0,0
154,351,0,0,0,0,0,0,0,0,0,-1,1378,673,0,0
161,351,0,0,0,0,0,0,0,0,0,-1,1385,673,0,0
168,351,0,0,0,0,0,0,0,0,0,-1,1392,673,0,0
175,351,0,0,0,0,0,0,0,0,0,-1,1399,673,0,0
182,351,0,0,0,0,0,0,0,0,0,-1,1406,673,0,0
189,351,0,0,0,0,0,0,0,0,0,-1,1413,673,0,0
196,351,0,0,0,0,0,0,0,0,0,-1,1420,673,0,0
203,351,0,0,0,0,0,0,0,0,0,-1,1427,673,0,0
210,351,0,0,0,0,0,0,0,0,0,-1,1434,673,0,0
217,351,0,0,0,0,0,0,0,0,0,-1,1441,673,0,0
224,351,0,0,0,0,0,0,0,0,0,-1,1448,673,0,0
231,351,0,0,0,0,0,0,0,0,0,-1,1455,673,0,0
238,351,0,0,0,0,0,0,0,0,0,-1,1462,673,0,0
245,351,0,0,0,0,0,0,0,0,0,-1,1469,673,0,0
252,351,0,0,0,0,0,0,0,0,0,-1,1476,673,0,0
259,351,0,0,0,0,0,0,0,0,0,-1,1483,673,0,0
266,351,0,0,0,0,0,0,0,0,0,-1,1490,673,0,0
273,351,0,0,0,0,0,0,0,0,0,-1,1497,673,0,0
280,351,0,0,0,0,0,0,0,0,0,-1,1504,673,0,0
287,351,0,0,0,0,0,0,0,0,0,-1,1511,673,0,0
294,351,0,0,0,0,0,0,0,0,0,-1,1518,673,0,0
301,351,0,0,0,0,0,0,0,0,0,-1,1525,673,0,0
308,351,0,0,0,0,0,0,0,0,0,-1,1532,673,0,0
315,351,0,0,0,0,0,0,0,0,0,-1,1539,673,0,0
322,351,0,0,0,0,0,0,0,0,0,-1,1546,673,0,0
329,351,0,0,0,0,0,0,0,0,0,-1,1553,673,0,0
336,351,0,0,0,0,0,0,0,0,0,-1,1560,673,0,0
343,351,0,0,0,0,0,0,0,0,0,-1,1567,673,0,0
350,351,0,0,0,0,0,0,0,0,0,-1,1574,673,0,0
357,351,0,0,0,0,0,0,0,0,0,-1,1581,673,0,0
364,351,0,0,0,0,0,0,0,0,0,-1,1588,673,0,0
371,351,0,0,0,0,0,0,0,0,0,-1,1595,673,0,0
378,351,0,0,0,0,0,0,0,0,0,-1,1602,673,0,0
385,351,0,0,0,0,0,0,0,0,0,-1,1609,673,0,0
392,351,0,0,0,0,0,0,0,0,0,-1,1616,673,0,0
399,351,0,0,0,0,0,0,0,0,0,-1,1623,673,0,0
406,351,0,0,0,0,0,0,0,0,0,-1,1630,673,0,0
413,351,0,0,0,0,0,0,0,0,0,-1,1637,673,0,0
420,351,0,0,0,0,0,0,0,0,0,-1,1644,673,0,0
427,351,0,0,0,0,0,0,0,0,0,-1,1651,673,0,0
434,351,0,0,0,0,0,0,0,0,0,-1,1658,673,0,0
441,351,0,0,0,0,0,0,0,0,0,-1,1665,673,0,0
448,351,0,0,0,0,0,0,0,0,0,-1,1672,673,0,0
455,351,0,0,0,0,0,0,0,0,0,-1,1679,673,0,0
462,351,0,0,0,0,0,0,0,0,0,-1,1686,673,0,0
469,351,0,0,0,0,0,0,0,0,0,-1,1693,673,0,0
476,351,0,0,0,0,0,0,0,0,0,-1,1700,673,0,0
483,351,0,0,0,0,0,0,0,0,0,-1,1707,673,0,0
490,351,0,0,0,0,0,0,0,0,0,-1,1714,673,0,0
497,351,0,0,0,0,0,0,0,0,0,-1,1721,673,0,0
504,351,10.8842,1.61615,0,0,0,0,0,0,0,-1,1728,673,10.8842,-1.61618
511,351,15.4548,0.0236816,0,0,0,0,0,0,0,-1,1735,673,15.4549,-0.0236664
518,351,16.7448,2.49268,0,0,0,0,0,0,0,-1,1742,673,16.7448,-2.49269
525,351,16.0701,3.43225,0,0,0,0,0,0,0,-1,1749,673,16.07,-3.43227
532,351,16.4181,3.33472,0,0,0,0,0,0,0,-1,1756,673,16.4181,-3.33473
539,351,15.3387,3.54486,0,0,0,0,0,0,0,-1,1763,673,15.3387,-3.54485
546,351,13.9387,4.59357,0,0,0,0,0,0,0,-1,1770,673,13.9388,-4.59359
553,351,12.0682,2.02832,0,0,0,0,0,0,0,-1,1777,673,12.0683,-2.02831
560,351,12.0173,0.55304,0,0,0,0,0,0,0,-1,1784,673,12.0174,-0.553028
567,351,10.7827,0.130188,0,0,0,0,0,0,0,-1,1791,673,10.7827,-0.130183
574,351,13.3198,-0.969849,0,0,0,0,0,0,0,-1,1798,673,13.3198,0.969878
581,351,12.7053,-1.1427,0,0,0,0,0,0,0,-1,1805,673,12.7054,1.14272
588,351,12.0909,-1.31555,0,0,0,0,0,0,0,-1,1812,673,12.091,1.31557
595,351,12.0664,-1.19507,-0.00169806,-3.57384e-05,-0.000537973,0.000123173,-0.00185697,-1.28357,0.00128101,0.0197868,1819,673,12.0664,1.19508
602,351,12.0864,-0.883118,-0.000670869,-0.00010026,-0.000304479,3.16953e-05,-0.000802824,-1.16185,0.000546088,0.0172396,1826,673,12.0864,0.88309
609,351,12.1104,-0.615906,3.0283e-05,0.000157829,1.1925e-05,0.000158934,2.91777e-05,1.47837,9.76937e-05,0.016935,1833,673,12.1104,0.61592
616,351,12.0774,-0.335388,9.70043e-05,-7.98817e-05,-0.000127428,0.000163675,-0.000146552,-0.482034,0.0001792,0.0144583,1840,673,12.0773,0.335383
623,351,12.1074,-0.0392456,-0.000270652,3.67476e-05,-0.000326883,0.000244263,-0.000478168,-1.00516,0.00042432,0.0149733,1847,673,12.1075,0.0392205
630,351,12.1029,0.20575,-0.000708858,-4.24748e-05,-0.000581065,0.00029415,-0.00104548,-1.04572,0.000812974,0.0241193,1854,673,12.1029,-0.205766
637,351,12.1194,0.50293,-0.00112992,4.51849e-05,-0.000787878,0.000440469,-0.00152521,-1.10578,0.00119109,0.028401,1861,673,12.1193,-0.502907
644,351,12.0922,0.79425,-0.00207138,-0.000184763,-0.00138232,0.000545437,-0.00280158,-1.08481,0.00207358,0.0208939,1868,673,12.0921,-0.79428
651,351,12.1011,1.08209,-0.00287283,-0.000474681,-0.0019794,0.000640509,-0.00398802,-1.05773,0.00289589,0.015486,1875,673,12.1011,-1.08209
658,351,12.0885,1.35504,-0.0033885,-0.000787361,-0.00250856,0.000737732,-0.00491359,-1.02455,0.0035473,0.0241245,1882,673,12.0885,-1.35506
665,351,11.7738,1.44708,-0.00390646,-0.000737541,-0.00208986,0.0003006,-0.0049446,-1.10975,0.00340103,0.0315007,1889,673,11.7738,-1.44708
672,351,11.7861,1.94373,-0.0044616,-0.000254336,-0.000817596,-0.000101038,-0.00461489,-1.38545,0.00304348,0.045631,1896,673,11.7862,-1.94373
679,351,12.1929,2.12988,0,0,0,0,0,0,0,-1,1903,673,12.1929,-2.12987
686,351,12.1202,2.25208,0,0,0,0,0,0,0,-1,1910,673,12.1202,-2.25209
693,351,13.5187,2.34595,0,0,0,0,0,0,0,-1,1917,673,13.5187,-2.34596
700,351,14.5629,-2.40173,0,0,0,0,0,0,0,-1,1924,673,14.5629,2.40172
707,351,0,0,0,0,0,0,0,0,0,-1,1931,673,0,0
714,351,0,0,0,0,0,0,0,0,0,-1,1938,673,0,0
721,351,0,0,0,0,0,0,0,0,0,-1,1945,673,0,0
728,351,0,0,0,0,0,0,0,0,0,-1,1952,673,0,0
735,351,0,0,0,0,0,0,0,0,0,-1,1959,673,0,0
742,351,0,0,0,0,0,0,0,0,0,-1,1966,673,0,0
749,351,0,0,0,0,0,0,0,0,0,-1,1973,673,0,0
756,351,0,0,0,0,0,0,0,0,0,-1,1980,673,0,0
763,351,0,0,0,0,0,0,0,0,0,-1,1987,673,0,0
770,351,0,0,0,0,0,0,0,0,0,-1,1994,673,0,0
777,351,0,0,0,0,0,0,0,0,0,-1,2001,673,0,0
784,351,0,0,0,0,0,0,0,0,0,-1,2008,673,0,0
791,351,0,0,0,0,0,0,0,0,0,-1,2015,673,0,0
798,351,0,0,0,0,0,0,0,0,0,-1,2022,673,0,0
805,351,0,0,0,0,0,0,0,0,0,-1,2029,673,0,0
812,351,0,0,0,0,0,0,0,0,0,-1,2036,673,0,0
-700,344,0,0,0,0,0,0,0,0,0,-1,524,680,0,0
-693,344,0,0,0,0,0,0,0,0,0,-1,531,680,0,0
-686,344,0,0,0,0,0,0,0,0,0,-1,538,680,0,0
-679,344,0,0,0,0,0,0,0,0,0,-1,545,680,0,0
-672,344,0,0,0,0,0,0,0,0,0,-1,552,680,0,0
-665,344,0,0,0,0,0,0,0,0,0,-1,559,680,0,0
-658,344,0,0,0,0,0,0,0,0,0,-1,566,680,0,0
-651,344,0,0,0,0,0,0,0,0,0,-1,573,680,0,0
-644,344,0,0,0,0,0,0,0,0,0,-1,580,680,0,0
-637,344,0,0,0,0,0,0,0,0,0,-1,587,680,0,0
-630,344,0,0,0,0,0,0,0,0,0,-1,594,680,0,0
-623,344,0,0,0,0,0,0,0,0,0,-1,601,680,0,0
-616,344,0,0,0,0,0,0,0,0,0,-1,608,680,0,0
-609,344,0,0,0,0,0,0,0,0,0,-1,615,680,0,0
-602,344,0,0,0,0,0,0,0,0,0,-1,622,680,0,0
-595,344,0,0,0,0,0,0,0,0,0,-1,629,680,0,0
-588,344,-7.89941,5.00134,0,0,0,0,0,0,0,-1,636,680,-7.89941,-5.00132
-581,344,-7.30463,3.9386,0,0,0,0,0,0,0,-1,643,680,-7.30465,-3.93857
-574,344,-4.55396,3.9068,0,0,0,0,0,0,0,-1,650,680,-4.55396,-3.90678
-567,344,-6.51556,0.601196,0,0,0,0,0,0,0,-1,657,680,-6.51555,-0.60121
-560,344,-6.36719,0.63855,0.00602896,0.0253468,0.001783,0.02551,0.00586577,1.47953,0.0154277,0.043813,664,680,-6.36719,-0.638533
-553,344,-6.2937,0.653442,0.0057433,0.0221739,-0.00132728,0.0222804,0.00563677,-1.49071,0.0133766,0.0444734,671,680,-6.29372,-0.653431
-546,344,-6.12268,0.246582,0.00506934,0.0184958,-0.00281911,0.0190637,0.00450144,-1.37201,0.011506,0.0447476,678,680,-6.12268,-0.246565
-539,344,-6.09058,-0.224365,0.00424913,0.014876,-0.00327241,0.0158029,0.00332227,-1.29479,0.00962097,0.0396585,685,680,-6.0906,0.224365
-532,344,-6.04749,-0.58136,0.00345805,0.0114855,-0.00313097,0.0125622,0.00238129,-1.23956,0.0077047,0.0217862,692,680,-6.04751,0.581364
-525,344,-6.1676,-0.817993,0.0028018,0.0085075,-0.00270448,0.00958568,0.00172362,-1.19144,0.00590043,0.0192987,699,680,-6.16761,0.817995
-518,344,-6.19269,-1.09796,0.00239105,0.00599403,-0.00222881,0.00705836,0.00132671,-1.12528,0.0043316,0.0200048,706,680,-6.19269,1.09795
-511,344,-6.20459,-1.36755,0.00211946,0.00393631,-0.00171885,0.00497203,0.00108374,-1.02849,0.00301899,0.0169894,713,680,-6.2046,1.36758
-504,344,-6.19037,-1.62762,0.00224969,0.00246555,-0.00154706,0.00390844,0.000806797,-0.820223,0.00238267,0.0172851,720,680,-6.19035,1.62765
-497,344,-6.16162,-1.85425,0.0024558,0.0012082,-0.00124685,0.00322619,0.00043781,-0.553456,0.00202073,0.0153994,727,680,-6.16161,1.85427
-490,344,-6.18768,-2.1109,0.00300371,0.000548345,-0.00113053,0.00344495,0.000107102,-0.372113,0.00226178,0.0133335,734,680,-6.18769,2.11092
-483,344,-6.1889,-2.36517,0.00402753,0.000363996,-0.00133249,0.00446091,-6.93877e-05,-0.314452,0.00299734,0.0123278,741,680,-6.18889,2.36519
-476,344,-6.18591,-2.61023,0.00552257,0.000800945,-0.00201965,0.00626859,5.49196e-05,-0.353837,0.00416088,0.0130315,748,680,-6.18593,2.6102
-469,344,-6.17456,-2.87695,0.00755899,0.00139357,-0.00301888,0.00879099,0.000161565,-0.387469,0.00580755,0.0123812,755,680,-6.17454,2.87693
-462,344,-6.1449,-3.19452,0.0100661,0.00177875,-0.00377529,0.0115281,0.000316814,-0.369456,0.00758198,0.0244974,762,680,-6.1449,3.19449
-455,344,-6.05609,-3.46918,0,0,0,0,0,0,0,-1,769,680,-6.05607,3.46918
-448,344,-5.67657,-2.72864,0,0,0,0,0,0,0,-1,776,680,-5.6766,2.72863
-441,344,-5.09229,-2.34167,0,0,0,0,0,0,0,-1,783,680,-5.09229,2.34168
-434,344,-4.28778,-2.08807,0,0,0,0,0,0,0,-1,790,680,-4.28778,2.08809
-427,344,-3.06506,-1.45404,0,0,0,0,0,0,0,-1,797,680,-3.06505,1.45402
-420,344,-1.96582,-1.57574,0,0,0,0,0,0,0,-1,804,680,-1.96579,1.57574
-413,344,-0.817993,-1.4751,0,0,0,0,0,0,0,-1,811,680,-0.818017,1.47511
-406,344,-0.00714111,-1.25189,0,0,0,0,0,0,0,-1,818,680,-0.00714956,1.25191
-399,344,0.240051,-1.75769,0,0,0,0,0,0,0,-1,825,680,0.240079,1.75767
-392,344,1.11353,-2.05615,0,0,0,0,0,0,0,-1,832,680,1.11351,2.05616
-385,344,0,0,0,0,0,0,0,0,0,-1,839,680,0,0
-378,344,0,0,0,0,0,0,0,0,0,-1,846,680,0,0
-371,344,0,0,0,0,0,0,0,0,0,-1,853,680,0,0
-364,344,0,0,0,0,0,0,0,0,0,-1,860,680,0,0
-357,344,0,0,0,0,0,0,0,0,0,-1,867,680,0,0
-350,344,0,0,0,0,0,0,0,0,0,-1,874,680,0,0
-343,344,0,0,0,0,0,0,0,0,0,-1,881,680,0,0
-336,344,0,0,0,0,0,0,0,0,0,-1,888,680,0,0
-329,344,0,0,0,0,0,0,0,0,0,-1,895,680,0,0
-322,344,0,0,0,0,0,0,0,0,0,-1,902,680,0,0
-315,344,0,0,0,0,0,0,0,0,0,-1,909,680,0,0
-308,344,0,0,0,0,0,0,0,0,0,-1,916,680,0,0
-301,344,0,0,0,0,0,0,0,0,0,-1,923,680,0,0
-294,344,0,0,0,0,0,0,0,0,0,-1,930,680,0,0
-287,344,0,0,0,0,0,0,0,0,0,-1,937,680,0,0
-280,344,0,0,0,0,0,0,0,0,0,-1,944,680,0,0
-273,344,0,0,0,0,0,0,0,0,0,-1,951,680,0,0
-266,344,0,0,0,0,0,0,0,0,0,-1,958,680,0,0
-259,344,0,0,0,0,0,0,0,0,0,-1,965,680,0,0
-252,344,0,0,0,0,0,0,0,0,0,-1,972,680,0,0
-245,344,0,0,0,0,0,0,0,0,0,-1,979,680,0,0
-238,344,0,0,0,0,0,0,0,0,0,-1,986,680,0,0
-231,344,0,0,0,0,0,0,0,0,0,-1,993,680,0,0
-224,344,0,0,0,0,0,0,0,0,0,-1,1000,680,0,0
-217,344,0,0,0,0,0,0,0,0,0,-1,1007,680,0,0
-210,344,0,0,0,0,0,0,0,0,0,-1,1014,680,0,0
-203,344,0,0,0,0,0,0,0,0,0,-1,1021,680,0,0
-196,344,0,0,0,0,0,0,0,0,0,-1,1028,680,0,0
-189,344,0,0,0,0,0,0,0,0,0,-1,1035,680,0,0
-182,344,0,0,0,0,0,0,0,0,0,-1,1042,680,0,0
-175,344,0,0,0,0,0,0,0,0,0,-1,1049,680,0,0
-168,344,0,0,0,0,0,0,0,0,0,-1,1056,680,0,0
-161,344,0,0,0,0,0,0,0,0,0,-1,1063,680,0,0
-154,344,0,0,0,0,0,0,0,0,0,-1,1070,680,0,0
-147,344,0,0,0,0,0,0,0,0,0,-1,1077,680,0,0
-140,344,0,0,0,0,0,0,0,0,0,-1,1084,680,0,0
-133,344,0,0,0,0,0,0,0,0,0,-1,1091,680,0,0
-126,344,0,0,0,0,0,0,0,0,0,-1,1098,680,0,0
-119,344,0,0,0,0,0,0,0,0,0,-1,1105,680,0,0
-112,344,0,0,0,0,0,0,0,0,0,-1,1112,680,0,0
-105,344,0,0,0,0,0,0,0,0,0,-1,1119,680,0,0
-98,344,0,0,0,0,0,0,0,0,0,-1,1126,680,0,0
-91,344,0,0,0,0,0,0,0,0,0,-1,1133,680,0,0
-84,344,0,0,0,0,0,0,0,0,0,-1,1140,680,0,0
-77,344,0,0,0,0,0,0,0,0,0,-1,1147,680,0,0
-70,344,0,0,0,0,0,0,0,0,0,-1,1154,680,0,0
-63,344,0,0,0,0,0,0,0,0,0,-1,1161,680,0,0
-56,344,0,0,0,0,0,0,0,0,0,-1,1168,680,0,0
-49,344,0,0,0,0,0,0,0,0,0,-1,1175,680,0,0
-42,344,0,0,0,0,0,0,0,0,0,-1,1182,680,0,0
-35,344,0,0,0,0,0,0,0,0,0,-1,1189,680,0,0
-28,344,0,0,0,0,0,0,0,0,0,-1,1196,680,0,0
-21,344,0,0,0,0,0,0,0,0,0,-1,1203,680,0,0
-14,344,0,0,0,0,0,0,0,0,0,-1,1210,680,0,0
-7,344,0,0,0,0,0,0,0,0,0,-1,1217,680,0,0
0,344,0,0,0,0,0,0,0,0,0,-1,1224,680,0,0
7,344,0,0,0,0,0,0,0,0,0,-1,1231,680,0,0
14,344,0,0,0,0,0,0,0,0,0,-1,1238,680,0,0
21,344,0,0,0,0,0,0,0,0,0,-1,1245,680,0,0
28,344,0,0,0,0,0,0,0,0,0,-1,1252,680,0,0
35,344,0,0,0,0,0,0,0,0,0,-1,1259,680,0,0
42,344,0,0,0,0,0,0,0,0,0,-1,1266,680,0,0
49,344,0,0,0,0,0,0,0,0,0,-1,1273,680,0,0
56,344,0,0,0,0,0,0,0,0,0,-1,1280,680,0,0
63,344,0,0,0,0,0,0,0,0,0,-1,1287,680,0,0
70,344,0,0,0,0,0,0,0,0,0,-1,1294,680,0,0
77,344,0,0,0,0,0,0,0,0,0,-1,1301,680,0,0
84,344,0,0,0,0,0,0,0,0,0,-1,1308,680,0,0
91,344,0,0,0,0,0,0,0,0,0,-1,1315,680,0,0
98,344,0,0,0,0,0,0,0,0,0,-1,1322,680,0,0
105,344,0,0,0,0,0,0,0,0,0,-1,1329,680,0,0
112,344,0,0,0,0,0,0,0,0,0,-1,1336,680,0,0
119,344,0,0,0,0,0,0,0,0,0,-1,1343,680,0,0
126,344,0,0,0,0,0,0,0,0,0,-1,1350,680,0,0
133,344,0,0,0,0,0,0,0,0,0,-1,1357,680,0,0
140,344,0,0,0,0,0,0,0,0,0,-1,1364,680,0,0
147,344,0,0,0,0,0,0,0,0,0,-1,1371,680,0,0
154,344,0,0,0,0,0,0,0,0,0,-1,1378,680,0,0
161,344,0,0,0,0,0,0,0,0,0,-1,1385,680,0,0
168,344,0,0,0,0,0,0,0,0,0,-1,1392,680,0,0
175,344,0,0,0,0,0,0,0,0,0,-1,1399,680,0,0
182,344,0,0,0,0,0,0,0,0,0,-1,1406,680,0,0
189,344,0,0,0,0,0,0,0,0,0,-1,1413,680,0,0
196,344,0,0,0,0,0,0,0,0,0,-1,1420,680,0,0
203,344,0,0,0,0,0,0,0,0,0,-1,1427,680,0,0
210,344,0,0,0,0,0,0,0,0,0,-1,1434,680,0,0
217,344,0,0,0,0,0,0,0,0,0,-1,1441,680,0,0
224,344,0,0,0,0,0,0,0,0,0,-1,1448,680,0,0
231,344,0,0,0,0,0,0,0,0,0,-1,1455,680,0,0
238,344,0,0,0,0,0,0,0,0,0,-1,1462,680,0,0
245,344,0,0,0,0,0,0,0,0,0,-1,1469,680,0,0
252,344,0,0,0,0,0,0,0,0,0,-1,1476,680,0,0
259,344,0,0,0,0,0,0,0,0,0,-1,1483,680,0,0
266,344,0,0,0,0,0,0,0,0,0,-1,1490,680,0,0
273,344,0,0,0,0,0,0,0,0,0,-1,1497,680,0,0
280,344,0,0,0,0,0,0,0,0,0,-1,1504,680,0,0
287,344,0,0,0,0,0,0,0,0,0,-1,1511,680,0,0
294,344,0,0,0,0,0,0,0,0,0,-1,1518,680,0,0
301,344,0,0,0,0,0,0,0,0,0,-1,1525,680,0,0
308,344,0,0,0,0,0,0,0,0,0,-1,1532,680,0,0
315,344,0,0,0,0,0,0,0,0,0,-1,1539,680,0,0
322,344,0,0,0,0,0,0,0,0,0,-1,1546,680,0,0
329,344,0,0,0,0,0,0,0,0,0,-1,1553,680,0,0
336,344,0,0,0,0,0,0,0,0,0,-1,1560,680,0,0
343,344,0,0,0,0,0,0,0,0,0,-1,1567,680,0,0
350,344,0,0,0,0,0,0,0,0,0,-1,1574,680,0,0
357,344,0,0,0,0,0,0,0,0,0,-1,1581,680,0,0
364,344,0,0,0,0,0,0,0,0,0,-1,1588,680,0,0
371,344,0,0,0,0,0,0,0,0,0,-1,1595,680,0,0
378,344,0,0,0,0,0,0,0,0,0,-1,1602,680,0,0
385,344,0,0,0,0,0,0,0,0,0,-1,1609,680,0,0
392,344,0,0,0,0,0,0,0,0,0,-1,1616,680,0,0
399,344,0,0,0,0,0,0,0,0,0,-1,1623,680,0,0
406,344,0,0,0,0,0,0,0,0,0,-1,1630,680,0,0
413,344,0,0,0,0,0,0,0,0,0,-1,1637,680,0,0
420,344,0,0,0,0,0,0,0,0,0,-1,1644,680,0,0
427,344,0,0,0,0,0,0,0,0,0,-1,1651,680,0,0
434,344,0,0,0,0,0,0,0,0,0,-1,1658,680,0,0
441,344,0,0,0,0,0,0,0,0,0,-1,1665,680,0,0
448,344,0,0,0,0,0,0,0,0,0,-1,1672,680,0,0
455,344,0,0,0,0,0,0,0,0,0,-1,1679,680,0,0
462,344,0,0,0,0,0,0,0,0,0,-1,1686,680,0,0
469,344,0,0,0,0,0,0,0,0,0,-1,1693,680,0,0
476,344,0,0,0,0,0,0,0,0,0,-1,1700,680,0,0
483,344,0,0,0,0,0,0,0,0,0,-1,1707,680,0,0
490,344,0,0,0,0,0,0,0,0,0,-1,1714,680,0,0
497,344,0,0,0,0,0,0,0,0,0,-1,1721,680,0,0
504,344,0,0,0,0,0,0,0,0,0,-1,1728,680,0,0
511,344,15.4819,0.452637,0,0,0,0,0,0,0,-1,1735,680,15.4819,-0.452656
518,344,17.1357,2.31207,0,0,0,0,0,0,0,-1,1742,680,17.1358,-2.31207
525,344,16.4807,2.83368,0,0,0,0,0,0,0,-1,1749,680,16.4807,-2.83368
532,344,15.8599,3.37219,0,0,0,0,0,0,0,-1,1756,680,15.8598,-3.3722
539,344,15.3691,3.78113,0,0,0,0,0,0,0,-1,1763,680,15.3691,-3.78113
546,344,14.6722,4.30243,0,0,0,0,0,0,0,-1,1770,680,14.6722,-4.30241
553,344,14.8136,4.35681,0,0,0,0,0,0,0,-1,1777,680,14.8136,-4.35679
560,344,11.9363,2.14185,0,0,0,0,0,0,0,-1,1784,680,11.9362,-2.14182
567,344,11.397,0.925842,0,0,0,0,0,0,0,-1,1791,680,11.397,-0.92583
574,344,10.0004,0.504639,0,0,0,0,0,0,0,-1,1798,680,10.0004,-0.504645
581,344,13.4451,-0.759338,0,0,0,0,0,0,0,-1,1805,680,13.445,0.759321
588,344,12.2411,-1.49335,0,0,0,0,0,0,0,-1,1812,680,12.2411,1.49334
595,344,12.4703,-1.11591,-0.00169192,-0.00026364,-0.000402982,-0.000157786,-0.00179778,-1.31392,0.00114954,0.0453543,1819,680,12.4703,1.11591
602,344,12.4677,-0.84137,-0.000609095,-0.000381846,-0.000243797,-0.000226496,-0.000764445,-1.00346,0.000453399,0.0317132,1826,680,12.4677,0.841373
609,344,12.397,-0.589539,0.000275334,-8.32937e-05,0.000117241,0.000310261,-0.00011822,0.289532,0.000255532,0.01579,1833,680,12.397,0.589509
616,344,12.3842,-0.293091,0.000404651,-0.000296241,1.3025e-05,0.000404893,-0.000296483,0.0185748,0.000406549,0.0216438,1840,680,12.3842,0.293063
623,344,12.4111,-0.0354614,1.00023e-05,-0.000228061,-0.000203867,0.000127044,-0.000345102,-0.521161,0.000282118,0.0187507,1847,680,12.4111,0.0354606
630,344,12.3811,0.203125,-0.000422306,-0.000307119,-0.000476064,0.000114823,-0.000844248,-0.845595,0.000604751,0.0241269,1854,680,12.3811,-0.203114
637,344,12.3726,0.475403,-0.000768373,-0.000198993,-0.000669389,0.00024373,-0.0012111,-0.98646,0.000899714,0.0239854,1861,680,12.3725,-0.475409
644,344,12.3846,0.76178,-0.00153233,-0.000382099,-0.00119069,0.000365097,-0.00227952,-1.01038,0.00165486,0.0167291,1868,680,12.3846,-0.761769
651,344,12.3857,1.05585,-0.00206327,-0.000566976,-0.00162137,0.000470534,-0.00310078,-1.00156,0.00224056,0.0122335,1875,680,12.3858,-1.05583
658,344,12.3857,1.35681,-0.00221311,-0.000666164,-0.00190029,0.000612035,-0.0034913,-0.978673,0.00255609,0.018323,1882,680,12.3857,-1.35682
665,344,12.295,1.63281,-0.00249658,-0.00040253,-0.00122093,0.000158839,-0.00305795,-1.13983,0.00209359,0.0271587,1889,680,12.2951,-1.63279
672,344,12.3107,1.81421,-0.00290461,0.000343404,0.000314833,0.000373639,-0.00293485,1.47505,0.00209226,0.0219831,1896,680,12.3107,-1.81423
679,344,12.5226,2.07123,-0.00294428,0.0014589,0.00281008,0.00282713,-0.0043125,1.11769,0.00415169,0.0410273,1903,680,12.5226,-2.07122
686,344,12.812,2.43195,0,0,0,0,0,0,0,-1,1910,680,12.812,-2.43194
693,344,12.4362,-1.42346,0,0,0,0,0,0,0,-1,1917,680,12.4361,1.42348
700,344,17.5396,2.61206,0,0,0,0,0,0,0,-1,1924,680,17.5396,-2.61204
707,344,18.5829,3.29352,0,0,0,0,0,0,0,-1,1931,680,18.5828,-3.2935
714,344,0,0,0,0,0,0,0,0,0,-1,1938,680,0,0
721,344,0,0,0,0,0,0,0,0,0,-1,1945,680,0,0
728,344,0,0,0,0,0,0,0,0,0,-1,1952,680,0,0
735,344,0,0,0,0,0,0,0,0,0,-1,1959,680,0,0
742,344,0,0,0,0,0,0,0,0,0,-1,1966,680,0,0
749,344,0,0,0,0,0,0,0,0,0,-1,1973,680,0,0
756,344,0,0,0,0,0,0,0,0,0,-1,1980,680,0,0
763,344,0,0,0,0,0,0,0,0,0,-1,1987,680,0,0
770,344,0,0,0,0,0,0,0,0,0,-1,1994,680,0,0
777,344,0,0,0,0,0,0,0,0,0,-1,2001,680,0,0
784,344,0,0,0,0,0,0,0,0,0,-1,2008,680,0,0
791,344,0,0,0,0,0,0,0,0,0,-1,2015,680,0,0
798,344,0,0,0,0,0,0,0,0,0,-1,2022,680,0,0
805,344,0,0,0,0,0,0,0,0,0,-1,2029,680,0,0
812,344,0,0,0,0,0,0,0,0,0,-1,2036,680,0,0
-700,337,0,0,0,0,0,0,0,0,0,-1,524,687,0,0
-693,337,0,0,0,0,0,0,0,0,0,-1,531,687,0,0
-686,337,0,0,0,0,0,0,0,0,0,-1,538,687,0,0
-679,337,0,0,0,0,0,0,0,0,0,-1,545,687,0,0
-672,337,0,0,0,0,0,0,0,0,0,-1,552,687,0,0
-665,337,0,0,0,0,0,0,0,0,0,-1,559,687,0,0
-658,337,0,0,0,0,0,0,0,0,0,-1,566,687,0,0
-651,337,0,0,0,0,0,0,0,0,0,-1,573,687,0,0
-644,337,0,0,0,0,0,0,0,0,0,-1,580,687,0,0
-637,337,0,0,0,0,0,0,0,0,0,-1,587,687,0,0
-630,337,0,0,0,0,0,0,0,0,0,-1,594,687,0,0
-623,337,0,0,0,0,0,0,0,0,0,-1,601,687,0,0
-616,337,0,0,0,0,0,0,0,0,0,-1,608,687,0,0
-609,337,0,0,0,0,0,0,0,0,0,-1,615,687,0,0
-602,337,0,0,0,0,0,0,0,0,0,-1,622,687,0,0
-595,337,0,0,0,0,0,0,0,0,0,-1,629,687,0,0
-588,337,-8.20203,3.8374,0,0,0,0,0,0,0,-1,636,687,-8.20205,-3.8374
-581,337,-7.54236,2.87201,0,0,0,0,0,0,0,-1,643,687,-7.54236,-2.87198
-574,337,-5.24377,3.62292,0,0,0,0,0,0,0,-1,650,687,-5.24378,-3.6229
-567,337,-6.77637,0.62915,0,0,0,0,0,0,0,-1,657,687,-6.77636,-0.629169
-560,337,-6.70142,0.619202,0.000836873,0.021032,0.00565296,0.0225067,-0.0006378,1.31562,0.0152215,0.0432489,664,687,-6.7014,-0.619217
-553,337,-6.71747,0.593811,0.00125455,0.0182585,0.00154311,0.0183974,0.00111565,1.48102,0.0119105,0.0440363,671,687,-6.7175,-0.593787
-546,337,-6.54559,0.175903,0.00166935,0.0158364,-0.000672291,0.0158682,0.00163752,-1.52348,0.0100774,0.0389261,678,687,-6.5456,-0.175891
-539,337,-6.33917,-0.2854,0.00171915,0.0132598,-0.00176201,0.0135229,0.00145612,-1.42261,0.00857119,0.0257864,685,687,-6.33915,0.2854
-532,337,-6.38068,-0.574829,0.00161644,0.0106417,-0.00214478,0.0111255,0.00113268,-1.34896,0.00706972,0.0141989,692,687,-6.38069,0.574838
-525,337,-6.44043,-0.854675,0.00151316,0.0081711,-0.002113,0.00878507,0.000899187,-1.28801,0.00558118,0.0147456,699,687,-6.44041,0.854659
-518,337,-6.47357,-1.12561,0.00155905,0.00591605,-0.00194831,0.00666018,0.000814919,-1.20596,0.00419495,0.0222546,706,687,-6.47359,1.12561
-511,337,-6.49274,-1.36981,0.00165132,0.00393332,-0.00160922,0.004765,0.000819635,-1.09378,0.00294177,0.0228447,713,687,-6.49275,1.36983
-504,337,-6.46283,-1.64526,0.0022016,0.0024106,-0.00149935,0.00380909,0.000803111,-0.820191,0.00231853,0.0232356,720,687,-6.46281,1.64526
-497,337,-6.41949,-1.87012,0.0027754,0.00101073,-0.00120654,0.00338781,0.000398325,-0.469687,0.00213817,0.0166002,727,687,-6.41948,1.87009
-490,337,-6.4494,-2.11938,0.00376097,0.000120059,-0.0010782,0.0040563,-0.000175275,-0.267357,0.00276448,0.0137741,734,687,-6.44941,2.11936
-483,337,-6.44592,-2.38153,0.00534093,-0.000159192,-0.00134631,0.0056528,-0.000471057,-0.227629,0.00393496,0.0137936,741,687,-6.4459,2.38155
-476,337,-6.42273,-2.63727,0.00754497,0.000111843,-0.00210385,0.00809912,-0.000442312,-0.25755,0.00555273,0.0125531,748,687,-6.4227,2.63725
-469,337,-6.40222,-2.94244,0.0106521,0.000474095,-0.00318767,0.011568,-0.000441834,-0.279797,0.00786345,0.0216967,755,687,-6.40219,2.94243
-462,337,-6.31927,-3.16681,0,0,0,0,0,0,0,-1,762,687,-6.31927,3.16679
-455,337,-6.00574,-3.12933,0,0,0,0,0,0,0,-1,769,687,-6.00576,3.12934
-448,337,-5.30627,-2.07202,0,0,0,0,0,0,0,-1,776,687,-5.30628,2.07205
-441,337,-4.24762,-1.49597,0,0,0,0,0,0,0,-1,783,687,-4.24762,1.49598
-434,337,-6.86908,1.37531,0,0,0,0,0,0,0,-1,790,687,-6.86908,-1.3753
-427,337,-9.92004,2.487,0,0,0,0,0,0,0,-1,797,687,-9.92002,-2.48701
-420,337,-2.95996,-1.76697,0,0,0,0,0,0,0,-1,804,687,-2.95998,1.76696
-413,337,-1.29169,-1.99487,0,0,0,0,0,0,0,-1,811,687,-1.29171,1.9949
-406,337,-1.02356,-1.89563,0,0,0,0,0,0,0,-1,818,687,-1.02357,1.89564
-399,337,-0.472839,-2.21338,0,0,0,0,0,0,0,-1,825,687,-0.472837,2.2134
-392,337,0,0,0,0,0,0,0,0,0,-1,832,687,0,0
-385,337,0,0,0,0,0,0,0,0,0,-1,839,687,0,0
-378,337,0,0,0,0,0,0,0,0,0,-1,846,687,0,0
-371,337,0,0,0,0,0,0,0,0,0,-1,853,687,0,0
-364,337,0,0,0,0,0,0,0,0,0,-1,860,687,0,0
-357,337,0,0,0,0,0,0,0,0,0,-1,867,687,0,0
-350,337,0,0,0,0,0,0,0,0,0,-1,874,687,0,0
-343,337,0,0,0,0,0,0,0,0,0,-1,881,687,0,0
-336,337,0,0,0,0,0,0,0,0,0,-1,888,687,0,0
-329,337,0,0,0,0,0,0,0,0,0,-1,895,687,0,0
-322,337,0,0,0,0,0,0,0,0,0,-1,902,687,0,0
-315,337,0,0,0,0,0,0,0,0,0,-1,909,687,0,0
-308,337,0,0,0,0,0,0,0,0,0,-1,916,687,0,0
-301,337,0,0,0,0,0,0,0,0,0,-1,923,687,0,0
-294,337,0,0,0,0,0,0,0,0,0,-1,930,687,0,0
-287,337,0,0,0,0,0,0,0,0,0,-1,937,687,0,0
-280,337,0,0,0,0,0,0,0,0,0,-1,944,687,0,0
-273,337,0,0,0,0,0,0,0,0,0,-1,951,687,0,0
-266,337,0,0,0,0,0,0,0,0,0,-1,958,687,0,0
-259,337,0,0,0,0,0,0,0,0,0,-1,965,687,0,0
-252,337,0,0,0,0,0,0,0,0,0,-1,972,687,0,0
-245,337,0,0,0,0,0,0,0,0,0,-1,979,687,0,0
-238,337,0,0,0,0,0,0,0,0,0,-1,986,687,0,0
-231,337,0,0,0,0,0,0,0,0,0,-1,993,687,0,0
-224,337,0,0,0,0,0,0,0,0,0,-1,1000,687,0,0
-217,337,0,0,0,0,0,0,0,0,0,-1,1007,687,0,0
-210,337,0,0,0,0,0,0,0,0,0,-1,1014,687,0,0
-203,337,0,0,0,0,0,0,0,0,0,-1,1021,687,0,0
-196,337,0,0,0,0,0,0,0,0,0,-1,1028,687,0,0
-189,337,0,0,0,0,0,0,0,0,0,-1,1035,687,0,0
-182,337,0,0,0,0,0,0,0,0,0,-1,1042,687,0,0
-175,337,0,0,0,0,0,0,0,0,0,-1,1049,687,0,0
-168,337,0,0,0,0,0,0,0,0,0,-1,1056,687,0,0
-161,337,0,0,0,0,0,0,0,0,0,-1,1063,687,0,0
-154,337,0,0,0,0,0,0,0,0,0,-1,1070,687,0,0
-147,337,0,0,0,0,0,0,0,0,0,-1,1077,687,0,0
-140,337,0,0,0,0,0,0,0,0,0,-1,1084,687,0,0
-133,337,0,0,0,0,0,0,0,0,0,-1,1091,687,0,0
-126,337,0,0,0,0,0,0,0,0,0,-1,1098,687,0,0
-119,337,0,0,0,0,0,0,0,0,0,-1,1105,687,0,0
-112,337,0,0,0,0,0,0,0,0,0,-1,1112,687,0,0
-105,337,0,0,0,0,0,0,0,0,0,-1,1119,687,0,0
-98,337,0,0,0,0,0,0,0,0,0,-1,1126,687,0,0
-91,337,0,0,0,0,0,0,0,0,0,-1,1133,687,0,0
-84,337,0,0,0,0,0,0,0,0,0,-1,1140,687,0,0
-77,337,0,0,0,0,0,0,0,0,0,-1,1147,687,0,0
-70,337,0,0,0,0,0,0,0,0,0,-1,1154,687,0,0
-63,337,0,0,0,0,0,0,0,0,0,-1,1161,687,0,0
-56,337,0,0,0,0,0,0,0,0,0,-1,1168,687,0,0
-49,337,0,0,0,0,0,0,0,0,0,-1,1175,687,0,0
-42,337,0,0,0,0,0,0,0,0,0,-1,1182,687,0,0
-35,337,0,0,0,0,0,0,0,0,0,-1,1189,687,0,0
-28,337,0,0,0,0,0,0,0,0,0,-1,1196,687,0,0
-21,337,0,0,0,0,0,0,0,0,0,-1,1203,687,0,0
-14,337,0,0,0,0,0,0,0,0,0,-1,1210,687,0,0
-7,337,0,0,0,0,0,0,0,0,0,-1,1217,687,0,0
0,337,0,0,0,0,0,0,0,0,0,-1,1224,687,0,0
7,337,0,0,0,0,0,0,0,0,0,-1,1231,687,0,0
14,337,0,0,0,0,0,0,0,0,0,-1,1238,687,0,0
21,337,0,0,0,0,0,0,0,0,0,-1,1245,687,0,0
28,337,0,0,0,0,0,0,0,0,0,-1,1252,687,0,0
35,337,0,0,0,0,0,0,0,0,0,-1,1259,687,0,0
42,337,0,0,0,0,0,0,0,0,0,-1,1266,687,0,0
49,337,0,0,0,0,0,0,0,0,0,-1,1273,687,0,0
56,337,0,0,0,0,0,0,0,0,0,-1,1280,687,0,0
63,337,0,0,0,0,0,0,0,0,0,-1,1287,687,0,0
70,337,0,0,0,0,0,0,0,0,0,-1,1294,687,0,0
77,337,0,0,0,0,0,0,0,0,0,-1,1301,687,0,0
84,337,0,0,0,0,0,0,0,0,0,-1,1308,687,0,0
91,337,0,0,0,0,0,0,0,0,0,-1,1315,687,0,0
98,337,0,0,0,0,0,0,0,0,0,-1,1322,687,0,0
105,337,0,0,0,0,0,0,0,0,0,-1,1329,687,0,0
112,337,0,0,0,0,0,0,0,0,0,-1,1336,687,0,0
119,337,0,0,0,0,0,0,0,0,0,-1,1343,687,0,0
126,337,0,0,0,0,0,0,0,0,0,-1,1350,687,0,0
133,337,0,0,0,0,0,0,0,0,0,-1,1357,687,0,0
140,337,0,0,0,0,0,0,0,0,0,-1,1364,687,0,0
147,337,0,0,0,0,0,0,0,0,0,-1,1371,687,0,0
154,337,0,0,0,0,0,0,0,0,0,-1,1378,687,0,0
161,337,0,0,0,0,0,0,0,0,0,-1,1385,687,0,0
168,337,0,0,0,0,0,0,0,0,0,-1,1392,687,0,0
175,337,0,0,0,0,0,0,0,0,0,-1,1399,687,0,0
182,337,0,0,0,0,0,0,0,0,0,-1,1406,687,0,0
189,337,0,0,0,0,0,0,0,0,0,-1,1413,687,0,0
196,337,0,0,0,0,0,0,0,0,0,-1,1420,687,0,0
203,337,0,0,0,0,0,0,0,0,0,-1,1427,687,0,0
210,337,0,0,0,0,0,0,0,0,0,-1,1434,687,0,0
217,337,0,0,0,0,0,0,0,0,0,-1,1441,687,0,0
224,337,0,0,0,0,0,0,0,0,0,-1,1448,687,0,0
231,337,0,0,0,0,0,0,0,0,0,-1,1455,687,0,0
238,337,0,0,0,0,0,0,0,0,0,-1,1462,687,0,0
245,337,0,0,0,0,0,0,0,0,0,-1,1469,687,0,0
252,337,0,0,0,0,0,0,0,0,0,-1,1476,687,0,0
259,337,0,0,0,0,0,0,0,0,0,-1,1483,687,0,0
266,337,0,0,0,0,0,0,0,0,0,-1,1490,687,0,0
273,337,0,0,0,0,0,0,0,0,0,-1,1497,687,0,0
280,337,0,0,0,0,0,0,0,0,0,-1,1504,687,0,0
287,337,0,0,0,0,0,0,0,0,0,-1,1511,687,0,0
294,337,0,0,0,0,0,0,0,0,0,-1,1518,687,0,0
301,337,0,0,0,0,0,0,0,0,0,-1,1525,687,0,0
308,337,0,0,0,0,0,0,0,0,0,-1,1532,687,0,0
315,337,0,0,0,0,0,0,0,0,0,-1,1539,687,0,0
322,337,0,0,0,0,0,0,0,0,0,-1,1546,687,0,0
329,337,0,0,0,0,0,0,0,0,0,-1,1553,687,0,0
336,337,0,0,0,0,0,0,0,0,0,-1,1560,687,0,0
343,337,0,0,0,0,0,0,0,0,0,-1,1567,687,0,0
350,337,0,0,0,0,0,0,0,0,0,-1,1574,687,0,0
357,337,0,0,0,0,0,0,0,0,0,-1,1581,687,0,0
364,337,0,0,0,0,0,0,0,0,0,-1,1588,687,0,0
371,337,0,0,0,0,0,0,0,0,0,-1,1595,687,0,0
378,337,0,0,0,0,0,0,0,0,0,-1,1602,687,0,0
385,337,0,0,0,0,0,0,0,0,0,-1,1609,687,0,0
392,337,0,0,0,0,0,0,0,0,0,-1,1616,687,0,0
399,337,0,0,0,0,0,0,0,0,0,-1,1623,687,0,0
406,337,0,0,0,0,0,0,0,0,0,-1,1630,687,0,0
413,337,0,0,0,0,0,0,0,0,0,-1,1637,687,0,0
420,337,0,0,0,0,0,0,0,0,0,-1,1644,687,0,0
427,337,0,0,0,0,0,0,0,0,0,-1,1651,687,0,0
434,337,0,0,0,0,0,0,0,0,0,-1,1658,687,0,0
441,337,0,0,0,0,0,0,0,0,0,-1,1665,687,0,0
448,337,0,0,0,0,0,0,0,0,0,-1,1672,687,0,0
455,337,0,0,0,0,0,0,0,0,0,-1,1679,687,0,0
462,337,0,0,0,0,0,0,0,0,0,-1,1686,687,0,0
469,337,0,0,0,0,0,0,0,0,0,-1,1693,687,0,0
476,337,0,0,0,0,0,0,0,0,0,-1,1700,687,0,0
483,337,0,0,0,0,0,0,0,0,0,-1,1707,687,0,0
490,337,0,0,0,0,0,0,0,0,0,-1,1714,687,0,0
497,337,0,0,0,0,0,0,0,0,0,-1,1721,687,0,0
504,337,0,0,0,0,0,0,0,0,0,-1,1728,687,0,0
511,337,0,0,0,0,0,0,0,0,0,-1,1735,687,0,0
518,337,18.0369,1.64581,0,0,0,0,0,0,0,-1,1742,687,18.0368,-1.64581
525,337,16.9935,2.33093,0,0,0,0,0,0,0,-1,1749,687,16.9935,-2.33094
532,337,16.3579,2.91357,0,0,0,0,0,0,0,-1,1756,687,16.3579,-2.91358
539,337,15.7062,3.49115,0,0,0,0,0,0,0,-1,1763,687,15.7062,-3.49114
546,337,15.0701,4.06219,0,0,0,0,0,0,0,-1,1770,687,15.0701,-4.06219
553,337,19.068,3.61273,0,0,0,0,0,0,0,-1,1777,687,19.068,-3.6127
560,337,18.4053,3.62793,0,0,0,0,0,0,0,-1,1784,687,18.4052,-3.6279
567,337,11.9288,1.38776,0,0,0,0,0,0,0,-1,1791,687,11.9288,-1.38777
574,337,10.704,1.19476,0,0,0,0,0,0,0,-1,1798,687,10.704,-1.19478
581,337,8.50427,0.561768,0,0,0,0,0,0,0,-1,1805,687,8.5043,-0.561754
588,337,8.5885,-0.0536499,0,0,0,0,0,0,0,-1,1812,687,8.58844,0.0536788
595,337,12.4025,-1.07391,0,0,0,0,0,0,0,-1,1819,687,12.4025,1.0739
602,337,12.6422,-0.869263,-0.00039659,-0.000480847,-6.59193e-05,-0.000360487,-0.00051695,-0.501064,0.000306111,0.046946,1826,687,12.6422,0.869245
609,337,12.6713,-0.546997,0.000698851,-0.000196533,0.000332111,0.000808587,-0.000306269,0.319126,0.000665084,0.0226303,1833,687,12.6713,0.54699
616,337,12.6603,-0.283264,0.000886174,-0.00038624,0.000277162,0.000943926,-0.000443991,0.205427,0.000818459,0.0174277,1840,687,12.6603,0.283273
623,337,12.6815,-0.0359497,0.000454029,-0.00037938,4.73177e-05,0.000456707,-0.000382058,0.056534,0.0004849,0.0148151,1847,687,12.6815,0.035923
630,337,12.6697,0.222717,-1.01753e-05,-0.000456146,-0.000251587,0.000103021,-0.000569342,-0.422797,0.000418154,0.0178975,1854,687,12.6697,-0.222722
637,337,12.662,0.504028,-0.000346155,-0.000352268,-0.000461095,0.000111894,-0.000810317,-0.782084,0.000581111,0.0163304,1861,687,12.662,-0.50405
644,337,12.6633,0.79248,-0.0009953,-0.000488796,-0.000920049,0.000212219,-0.00169632,-0.919702,0.00120785,0.0108577,1868,687,12.6633,-0.792486
651,337,12.6569,1.07159,-0.00137695,-0.000581497,-0.00123917,0.000322212,-0.00228066,-0.940686,0.00163844,0.00978726,1875,687,12.6569,-1.07162
658,337,12.6522,1.34729,-0.00135867,-0.000479198,-0.00136599,0.000516093,-0.00235396,-0.941118,0.00176665,0.0113409,1882,687,12.6522,-1.3473
665,337,12.6567,1.61993,-0.00158978,-4.02119e-05,-0.000554345,0.000137679,-0.00176767,-1.26028,0.00122692,0.0127949,1889,687,12.6568,-1.61995
672,337,12.6364,1.85681,-0.00205052,0.000893366,0.00106766,0.0012398,-0.00239695,1.25703,0.00213482,0.0177458,1896,687,12.6363,-1.85679
679,337,12.6213,2.15131,-0.00223814,0.00221389,0.00356081,0.00418722,-0.00421147,1.06475,0.00484899,0.0372382,1903,687,12.6213,-2.15129
686,337,13.2388,2.63818,-0.00295737,0.00429348,0.00770745,0.0091856,-0.00784948,1.00523,0.00984529,0.0494988,1910,687,13.2387,-2.63821
693,337,13.7977,3.25104,0,0,0,0,0,0,0,-1,1917,687,13.7977,-3.25103
700,337,17.2661,2.44379,0,0,0,0,0,0,0,-1,1924,687,17.2661,-2.44378
707,337,17.3544,5.61853,0,0,0,0,0,0,0,-1,1931,687,17.3543,-5.61851
714,337,0,0,0,0,0,0,0,0,0,-1,1938,687,0,0
721,337,0,0,0,0,0,0,0,0,0,-1,1945,687,0,0
728,337,0,0,0,0,0,0,0,0,0,-1,1952,687,0,0
735,337,0,0,0,0,0,0,0,0,0,-1,1959,687,0,0
742,337,0,0,0,0,0,0,0,0,0,-1,1966,687,0,0
749,337,0,0,0,0,0,0,0,0,0,-1,1973,687,0,0
756,337,0,0,0,0,0,0,0,0,0,-1,1980,687,0,0
763,337,0,0,0,0,0,0,0,0,0,-1,1987,687,0,0
770,337,0,0,0,0,0,0,0,0,0,-1,1994,687,0,0
777,337,0,0,0,0,0,0,0,0,0,-1,2001,687,0,0
784,337,0,0,0,0,0,0,0,0,0,-1,2008,687,0,0
791,337,0,0,0,0,0,0,0,0,0,-1,2015,687,0,0
798,337,0,0,0,0,0,0,0,0,0,-1,2022,687,0,0
805,337,0,0,0,0,0,0,0,0,0,-1,2029,687,0,0
812,337,0,0,0,0,0,0,0,0,0,-1,2036,687,0,0
-700,330,0,0,0,0,0,0,0,0,0,-1,524,694,0,0
-693,330,0,0,0,0,0,0,0,0,0,-1,531,694,0,0
-686,330,0,0,0,0,0,0,0,0,0,-1,538,694,0,0
-679,330,0,0,0,0,0,0,0,0,0,-1,545,694,0,0
-672,330,0,0,0,0,0,0,0,0,0,-1,552,694,0,0
-665,330,0,0,0,0,0,0,0,0,0,-1,559,694,0,0
-658,330,0,0,0,0,0,0,0,0,0,-1,566,694,0,0
-651,330,0,0,0,0,0,0,0,0,0,-1,573,694,0,0
-644,330,0,0,0,0,0,0,0,0,0,-1,580,694,0,0
-637,330,0,0,0,0,0,0,0,0,0,-1,587,694,0,0
-630,330,0,0,0,0,0,0,0,0,0,-1,594,694,0,0
-623,330,0,0,0,0,0,0,0,0,0,-1,601,694,0,0
-616,330,0,0,0,0,0,0,0,0,0,-1,608,694,0,0
-609,330,0,0,0,0,0,0,0,0,0,-1,615,694,0,0
-602,330,0,0,0,0,0,0,0,0,0,-1,622,694,0,0
-595,330,-4.67883,1.65515,0,0,0,0,0,0,0,-1,629,694,-4.67881,-1.65515
-588,330,-8.5047,2.67346,0,0,0,0,0,0,0,-1,636,694,-8.50469,-2.67348
-581,330,-7.78009,1.80542,0,0,0,0,0,0,0,-1,643,694,-7.78008,-1.80539
-574,330,-6.66821,1.24548,0,0,0,0,0,0,0,-1,650,694,-6.66821,-1.24549
-567,330,-7.05298,0.66394,0,0,0,0,0,0,0,-1,657,694,-7.05299,-0.663926
-560,330,-6.93384,0.462097,-0.00302008,0.0218486,0.0101114,0.0254409,-0.0066124,1.22943,0.0195413,0.0464559,664,694,-6.93386,-0.462128
-553,330,-6.75189,0.234619,-0.0023509,0.0155101,0.00489616,0.0167642,-0.003605,1.32005,0.0125516,0.0377368,671,694,-6.75188,-0.234603
-546,330,-6.60693,-0.0623779,-0.00121059,0.0116227,0.00168433,0.0118401,-0.00142797,1.44245,0.00840989,0.0248002,678,694,-6.60692,0.0623975
-539,330,-6.59351,-0.339539,-0.000344358,0.00980894,0.000193259,0.00981262,-0.000348035,1.55177,0.00666079,0.0117685,685,694,-6.5935,0.33952
-532,330,-6.67303,-0.575989,0.000222154,0.0078739,-0.000595146,0.00791991,0.000176141,-1.49364,0.00522222,0.0093437,692,694,-6.67303,0.57598
-525,330,-6.68744,-0.858643,0.000661458,0.00598183,-0.000927508,0.00613889,0.000504401,-1.40305,0.00393525,0.0108048,699,694,-6.68741,0.858622
-518,330,-6.69244,-1.08759,0.00115383,0.00418795,-0.00109093,0.00453948,0.000802309,-1.25908,0.0027975,0.0140368,706,694,-6.69246,1.08756
-511,330,-6.72595,-1.34058,0.00158679,0.00257422,-0.000997976,0.00319393,0.000967081,-1.0151,0.00189122,0.0190615,713,694,-6.72593,1.34056
-504,330,-6.71033,-1.62488,0.00256103,0.0013291,-0.00102377,0.00313985,0.000750282,-0.514576,0.00189336,0.0184329,720,694,-6.71035,1.6249
-497,330,-6.68414,-1.85693,0.00350231,0.000165325,-0.000841657,0.00370258,-3.49391e-05,-0.233597,0.00248011,0.0133694,727,694,-6.68416,1.85694
-490,330,-6.69635,-2.12006,0.00495852,-0.000560778,-0.000812894,0.00507576,-0.000678013,-0.143231,0.00363101,0.0129298,734,694,-6.69637,2.12005
-483,330,-6.68958,-2.38318,0.00718256,-0.000574844,-0.0012324,0.00737365,-0.000765926,-0.153824,0.00518995,0.0131579,741,694,-6.6896,2.3832
-476,330,-6.67303,-2.64246,0.0102695,-0.000132901,-0.00212336,0.0106862,-0.000549633,-0.193797,0.00731425,0.0218204,748,694,-6.67302,2.64247
-469,330,-6.53851,-2.77679,0.0146966,0.000286135,-0.0032787,0.0154075,-0.000424772,-0.21352,0.0104162,0.0442962,755,694,-6.5385,2.77677
-462,330,-6.30634,-3.17493,0,0,0,0,0,0,0,-1,762,694,-6.30633,3.17494
-455,330,-5.04254,-1.79303,0,0,0,0,0,0,0,-1,769,694,-5.04252,1.79305
-448,330,-4.89886,-1.66156,0,0,0,0,0,0,0,-1,776,694,-4.89886,1.66157
-441,330,-5.30676,-2.34045,0,0,0,0,0,0,0,-1,783,694,-5.30679,2.34048
-434,330,-7.20428,1.00024,0,0,0,0,0,0,0,-1,790,694,-7.20431,-1.00027
-427,330,-16.0428,2.89258,0,0,0,0,0,0,0,-1,797,694,-16.0428,-2.89259
-420,330,-15.2923,3.32672,0,0,0,0,0,0,0,-1,804,694,-15.2923,-3.32675
-413,330,-10.4567,2.56183,0,0,0,0,0,0,0,-1,811,694,-10.4567,-2.56182
-406,330,-1.65375,-1.74371,0,0,0,0,0,0,0,-1,818,694,-1.65375,1.74371
-399,330,0,0,0,0,0,0,0,0,0,-1,825,694,0,0
-392,330,0,0,0,0,0,0,0,0,0,-1,832,694,0,0
-385,330,0,0,0,0,0,0,0,0,0,-1,839,694,0,0
-378,330,0,0,0,0,0,0,0,0,0,-1,846,694,0,0
-371,330,0,0,0,0,0,0,0,0,0,-1,853,694,0,0
-364,330,0,0,0,0,0,0,0,0,0,-1,860,694,0,0
-357,330,0,0,0,0,0,0,0,0,0,-1,867,694,0,0
-350,330,0,0,0,0,0,0,0,0,0,-1,874,694,0,0
-343,330,0,0,0,0,0,0,0,0,0,-1,881,694,0,0
-336,330,0,0,0,0,0,0,0,0,0,-1,888,694,0,0
-329,330,0,0,0,0,0,0,0,0,0,-1,895,694,0,0
-322,330,0,0,0,0,0,0,0,0,0,-1,902,694,0,0
-315,330,0,0,0,0,0,0,0,0,0,-1,909,694,0,0
-308,330,0,0,0,0,0,0,0,0,0,-1,916,694,0,0
-301,330,0,0,0,0,0,0,0,0,0,-1,923,694,0,0
-294,330,0,0,0,0,0,0,0,0,0,-1,930,694,0,0
-287,330,0,0,0,0,0,0,0,0,0,-1,937,694,0,0
-280,330,0,0,0,0,0,0,0,0,0,-1,944,694,0,0
-273,330,0,0,0,0,0,0,0,0,0,-1,951,694,0,0
-266,330,0,0,0,0,0,0,0,0,0,-1,958,694,0,0
-259,330,0,0,0,0,0,0,0,0,0,-1,965,694,0,0
-252,330,0,0,0,0,0,0,0,0,0,-1,972,694,0,0
-245,330,0,0,0,0,0,0,0,0,0,-1,979,694,0,0
-238,330,0,0,0,0,0,0,0,0,0,-1,986,694,0,0
-231,330,0,0,0,0,0,0,0,0,0,-1,993,694,0,0
-224,330,0,0,0,0,0,0,0,0,0,-1,1000,694,0,0
-217,330,0,0,0,0,0,0,0,0,0,-1,1007,694,0,0
-210,330,0,0,0,0,0,0,0,0,0,-1,1014,694,0,0
-203,330,0,0,0,0,0,0,0,0,0,-1,1021,694,0,0
-196,330,0,0,0,0,0,0,0,0,0,-1,1028,694,0,0
-189,330,0,0,0,0,0,0,0,0,0,-1,1035,694,0,0
-182,330,0,0,0,0,0,0,0,0,0,-1,1042,694,0,0
-175,330,0,0,0,0,0,0,0,0,0,-1,1049,694,0,0
-168,330,0,0,0,0,0,0,0,0,0,-1,1056,694,0,0
-161,330,0,0,0,0,0,0,0,0,0,-1,1063,694,0,0
-154,330,0,0,0,0,0,0,0,0,0,-1,1070,694,0,0
-147,330,0,0,0,0,0,0,0,0,0,-1,1077,694,0,0
-140,330,0,0,0,0,0,0,0,0,0,-1,1084,694,0,0
-133,330,0,0,0,0,0,0,0,0,0,-1,1091,694,0,0
-126,330,0,0,0,0,0,0,0,0,0,-1,1098,694,0,0
-119,330,0,0,0,0,0,0,0,0,0,-1,1105,694,0,0
-112,330,0,0,0,0,0,0,0,0,0,-1,1112,694,0,0
-105,330,0,0,0,0,0,0,0,0,0,-1,1119,694,0,0
-98,330,0,0,0,0,0,0,0,0,0,-1,1126,694,0,0
-91,330,0,0,0,0,0,0,0,0,0,-1,1133,694,0,0
-84,330,0,0,0,0,0,0,0,0,0,-1,1140,694,0,0
-77,330,0,0,0,0,0,0,0,0,0,-1,1147,694,0,0
-70,330,0,0,0,0,0,0,0,0,0,-1,1154,694,0,0
-63,330,0,0,0,0,0,0,0,0,0,-1,1161,694,0,0
-56,330,0,0,0,0,0,0,0,0,0,-1,1168,694,0,0
-49,330,0,0,0,0,0,0,0,0,0,-1,1175,694,0,0
-42,330,0,0,0,0,0,0,0,0,0,-1,1182,694,0,0
-35,330,0,0,0,0,0,0,0,0,0,-1,1189,694,0,0
-28,330,0,0,0,0,0,0,0,0,0,-1,1196,694,0,0
-21,330,0,0,0,0,0,0,0,0,0,-1,1203,694,0,0
-14,330,0,0,0,0,0,0,0,0,0,-1,1210,694,0,0
-7,330,0,0,0,0,0,0,0,0,0,-1,1217,694,0,0
0,330,0,0,0,0,0,0,0,0,0,-1,1224,694,0,0
7,330,0,0,0,0,0,0,0,0,0,-1,1231,694,0,0
14,330,0,0,0,0,0,0,0,0,0,-1,1238,694,0,0
21,330,0,0,0,0,0,0,0,0,0,-1,1245,694,0,0
28,330,0,0,0,0,0,0,0,0,0,-1,1252,694,0,0
35,330,0,0,0,0,0,0,0,0,0,-1,1259,694,0,0
42,330,0,0,0,0,0,0,0,0,0,-1,1266,694,0,0
49,330,0,0,0,0,0,0,0,0,0,-1,1273,694,0,0
56,330,0,0,0,0,0,0,0,0,0,-1,1280,694,0,0
63,330,0,0,0,0,0,0,0,0,0,-1,1287,694,0,0
70,330,0,0,0,0,0,0,0,0,0,-1,1294,694,0,0
77,330,0,0,0,0,0,0,0,0,0,-1,1301,694,0,0
84,330,0,0,0,0,0,0,0,0,0,-1,1308,694,0,0
91,330,0,0,0,0,0,0,0,0,0,-1,1315,694,0,0
98,330,0,0,0,0,0,0,0,0,0,-1,1322,694,0,0
105,330,0,0,0,0,0,0,0,0,0,-1,1329,694,0,0
112,330,0,0,0,0,0,0,0,0,0,-1,1336,694,0,0
119,330,0,0,0,0,0,0,0,0,0,-1,1343,694,0,0
126,330,0,0,0,0,0,0,0,0,0,-1,1350,694,0,0
133,330,0,0,0,0,0,0,0,0,0,-1,1357,694,0,0
140,330,0,0,0,0,0,0,0,0,0,-1,1364,694,0,0
147,330,0,0,0,0,0,0,0,0,0,-1,1371,694,0,0
154,330,0,0,0,0,0,0,0,0,0,-1,1378,694,0,0
161,330,0,0,0,0,0,0,0,0,0,-1,1385,694,0,0
168,330,0,0,0,0,0,0,0,0,0,-1,1392,694,0,0
175,330,0,0,0,0,0,0,0,0,0,-1,1399,694,0,0
182,330,0,0,0,0,0,0,0,0,0,-1,1406,694,0,0
189,330,0,0,0,0,0,0,0,0,0,-1,1413,694,0,0
196,330,0,0,0,0,0,0,0,0,0,-1,1420,694,0,0
203,330,0,0,0,0,0,0,0,0,0,-1,1427,694,0,0
210,330,0,0,0,0,0,0,0,0,0,-1,1434,694,0,0
217,330,0,0,0,0,0,0,0,0,0,-1,1441,694,0,0
224,330,0,0,0,0,0,0,0,0,0,-1,1448,694,0,0
231,330,0,0,0,0,0,0,0,0,0,-1,1455,694,0,0
238,330,0,0,0,0,0,0,0,0,0,-1,1462,694,0,0
245,330,0,0,0,0,0,0,0,0,0,-1,1469,694,0,0
252,330,0,0,0,0,0,0,0,0,0,-1,1476,694,0,0
259,330,0,0,0,0,0,0,0,0,0,-1,1483,694,0,0
266,330,0,0,0,0,0,0,0,0,0,-1,1490,694,0,0
273,330,0,0,0,0,0,0,0,0,0,-1,1497,694,0,0
280,330,0,0,0,0,0,0,0,0,0,-1,1504,694,0,0
287,330,0,0,0,0,0,0,0,0,0,-1,1511,694,0,0
294,330,0,0,0,0,0,0,0,0,0,-1,1518,694,0,0
301,330,0,0,0,0,0,0,0,0,0,-1,1525,694,0,0
308,330,0,0,0,0,0,0,0,0,0,-1,1532,694,0,0
315,330,0,0,0,0,0,0,0,0,0,-1,1539,694,0,0
322,330,0,0,0,0,0,0,0,0,0,-1,1546,694,0,0
329,330,0,0,0,0,0,0,0,0,0,-1,1553,694,0,0
336,330,0,0,0,0,0,0,0,0,0,-1,1560,694,0,0
343,330,0,0,0,0,0,0,0,0,0,-1,1567,694,0,0
350,330,0,0,0,0,0,0,0,0,0,-1,1574,694,0,0
357,330,0,0,0,0,0,0,0,0,0,-1,1581,694,0,0
364,330,0,0,0,0,0,0,0,0,0,-1,1588,694,0,0
371,330,0,0,0,0,0,0,0,0,0,-1,1595,694,0,0
378,330,0,0,0,0,0,0,0,0,0,-1,1602,694,0,0
385,330,0,0,0,0,0,0,0,0,0,-1,1609,694,0,0
392,330,0,0,0,0,0,0,0,0,0,-1,1616,694,0,0
399,330,0,0,0,0,0,0,0,0,0,-1,1623,694,0,0
406,330,0,0,0,0,0,0,0,0,0,-1,1630,694,0,0
413,330,0,0,0,0,0,0,0,0,0,-1,1637,694,0,0
420,330,0,0,0,0,0,0,0,0,0,-1,1644,694,0,0
427,330,0,0,0,0,0,0,0,0,0,-1,1651,694,0,0
434,330,0,0,0,0,0,0,0,0,0,-1,1658,694,0,0
441,330,0,0,0,0,0,0,0,0,0,-1,1665,694,0,0
448,330,0,0,0,0,0,0,0,0,0,-1,1672,694,0,0
455,330,0,0,0,0,0,0,0,0,0,-1,1679,694,0,0
462,330,0,0,0,0,0,0,0,0,0,-1,1686,694,0,0
469,330,0,0,0,0,0,0,0,0,0,-1,1693,694,0,0
476,330,0,0,0,0,0,0,0,0,0,-1,1700,694,0,0
483,330,0,0,0,0,0,0,0,0,0,-1,1707,694,0,0
490,330,0,0,0,0,0,0,0,0,0,-1,1714,694,0,0
497,330,0,0,0,0,0,0,0,0,0,-1,1721,694,0,0
504,330,0,0,0,0,0,0,0,0,0,-1,1728,694,0,0
511,330,0,0,0,0,0,0,0,0,0,-1,1735,694,0,0
518,330,0,0,0,0,0,0,0,0,0,-1,1742,694,0,0
525,330,17.5052,1.86627,0,0,0,0,0,0,0,-1,1749,694,17.5052,-1.86629
532,330,16.8772,2.56702,0,0,0,0,0,0,0,-1,1756,694,16.8772,-2.567
539,330,16.1982,5.49628,0,0,0,0,0,0,0,-1,1763,694,16.1983,-5.49626
546,330,20.1758,3.75854,0,0,0,0,0,0,0,-1,1770,694,20.1758,-3.75856
553,330,19.3512,3.78687,0,0,0,0,0,0,0,-1,1777,694,19.3512,-3.78684
560,330,18.6956,3.84155,0,0,0,0,0,0,0,-1,1784,694,18.6956,-3.84155
567,330,18.0321,3.98578,0,0,0,0,0,0,0,-1,1791,694,18.0321,-3.98576
574,330,12.0454,2.1662,0,0,0,0,0,0,0,-1,1798,694,12.0455,-2.16618
581,330,11.4215,4.50836,0,0,0,0,0,0,0,-1,1805,694,11.4215,-4.50837
588,330,6.45667,-0.0630493,0,0,0,0,0,0,0,-1,1812,694,6.45661,0.0630695
595,330,8.23193,-0.258484,0,0,0,0,0,0,0,-1,1819,694,8.23188,0.258459
602,330,12.7111,-1.03156,0,0,0,0,0,0,0,-1,1826,694,12.7111,1.03154
609,330,12.8414,-0.615234,0.00112196,-0.000219099,0.000500385,0.00128809,-0.000385227,0.320549,0.00101188,0.0329864,1833,694,12.8415,0.615239
616,330,12.9275,-0.293091,0.00137319,-0.000362429,0.000506809,0.00151035,-0.000499581,0.264289,0.00120835,0.011491,1840,694,12.9274,0.29312
623,330,12.9327,-0.0187988,0.000922771,-0.000409565,0.000287216,0.000982049,-0.000468843,0.203533,0.000854963,0.0130623,1847,694,12.9327,0.0188252
630,330,12.9415,0.24115,0.0004308,-0.000474557,-2.28872e-05,0.000431378,-0.000475135,-0.0252583,0.000523579,0.0132167,1854,694,12.9415,-0.241175
637,330,12.9631,0.523438,8.63011e-05,-0.000391225,-0.00025262,0.000195137,-0.000500061,-0.406795,0.000414042,0.0127468,1861,694,12.9631,-0.523462
644,330,12.9468,0.810059,-0.000470086,-0.000484732,-0.000646821,0.000169454,-0.00112427,-0.779738,0.000811915,0.00793996,1868,694,12.9468,-0.810087
651,330,12.9205,1.0744,-0.000763127,-0.000509077,-0.000894592,0.000267463,-0.00153967,-0.855923,0.00112624,0.0105432,1875,694,12.9205,-1.0744
658,330,12.9067,1.3363,-0.000643079,-0.000280822,-0.000963151,0.000518084,-0.00144198,-0.878342,0.0011728,0.0113909,1882,694,12.9067,-1.33632
665,330,12.9054,1.61658,-0.000794235,0.000159679,-0.000157127,0.000184894,-0.00081945,-1.41168,0.000617232,0.00965903,1889,694,12.9053,-1.6166
672,330,12.92,1.8916,-0.00126554,0.00110809,0.00137768,0.00173966,-0.00189711,1.14095,0.00210035,0.0137305,1896,694,12.92,-1.89162
679,330,12.8232,2.15454,-0.00150067,0.00237545,0.00362655,0.00454932,-0.00367453,1.0308,0.00475699,0.0265467,1903,694,12.8233,-2.15452
686,330,12.9591,2.5636,-0.00225561,0.00432036,0.00729348,0.00903273,-0.00696798,0.997162,0.00926362,0.0415144,1910,694,12.9591,-2.56358
693,330,13.1012,2.80829,0,0,0,0,0,0,0,-1,1917,694,13.1012,-2.80828
700,330,17.1072,4.13,0,0,0,0,0,0,0,-1,1924,694,17.1071,-4.13002
707,330,16.663,4.88672,0,0,0,0,0,0,0,-1,1931,694,16.6629,-4.88673
714,330,16.5454,5.80896,0,0,0,0,0,0,0,-1,1938,694,16.5454,-5.80899
721,330,0,0,0,0,0,0,0,0,0,-1,1945,694,0,0
728,330,0,0,0,0,0,0,0,0,0,-1,1952,694,0,0
735,330,0,0,0,0,0,0,0,0,0,-1,1959,694,0,0
742,330,0,0,0,0,0,0,0,0,0,-1,1966,694,0,0
749,330,0,0,0,0,0,0,0,0,0,-1,1973,694,0,0
756,330,0,0,0,0,0,0,0,0,0,-1,1980,694,0,0
763,330,0,0,0,0,0,0,0,0,0,-1,1987,694,0,0
770,330,0,0,0,0,0,0,0,0,0,-1,1994,694,0,0
777,330,0,0,0,0,0,0,0,0,0,-1,2001,694,0,0
784,330,0,0,0,0,0,0,0,0,0,-1,2008,694,0,0
791,330,0,0,0,0,0,0,0,0,0,-1,2015,694,0,0
798,330,0,0,0,0,0,0,0,0,0,-1,2022,694,0,0
805,330,0,0,0,0,0,0,0,0,0,-1,2029,694,0,0
812,330,0,0,0,0,0,0,0,0,0,-1,2036,694,0,0
-700,323,0,0,0,0,0,0,0,0,0,-1,524,701,0,0
-693,323,0,0,0,0,0,0,0,0,0,-1,531,701,0,0
-686,323,0,0,0,0,0,0,0,0,0,-1,538,701,0,0
-679,323,0,0,0,0,0,0,0,0,0,-1,545,701,0,0
-672,323,0,0,0,0,0,0,0,0,0,-1,552,701,0,0
-665,323,0,0,0,0,0,0,0,0,0,-1,559,701,0,0
-658,323,0,0,0,0,0,0,0,0,0,-1,566,701,0,0
-651,323,0,0,0,0,0,0,0,0,0,-1,573,701,0,0
-644,323,0,0,0,0,0,0,0,0,0,-1,580,701,0,0
-637,323,0,0,0,0,0,0,0,0,0,-1,587,701,0,0
-630,323,0,0,0,0,0,0,0,0,0,-1,594,701,0,0
-623,323,0,0,0,0,0,0,0,0,0,-1,601,701,0,0
-616,323,0,0,0,0,0,0,0,0,0,-1,608,701,0,0
-609,323,0,0,0,0,0,0,0,0,0,-1,615,701,0,0
-602,323,-4.15833,2.12256,0,0,0,0,0,0,0,-1,622,701,-4.1583,-2.12257
-595,323,-4.052,1.79156,0,0,0,0,0,0,0,-1,629,701,-4.05198,-1.79158
-588,323,-4.07019,1.94543,0,0,0,0,0,0,0,-1,636,701,-4.07019,-1.94542
-581,323,-6.63727,0.562805,0,0,0,0,0,0,0,-1,643,701,-6.63728,-0.56279
-574,323,-6.15887,0.426697,0,0,0,0,0,0,0,-1,650,701,-6.15887,-0.426727
-567,323,-6.8894,-0.0759888,0,0,0,0,0,0,0,-1,657,701,-6.88942,0.0759632
-560,323,-7.08362,0.263733,0,0,0,0,0,0,0,-1,664,701,-7.0836,-0.263716
-553,323,-6.93884,0.0995483,-0.00541024,0.0128627,0.00659512,0.0149944,-0.00754189,1.25818,0.0132464,0.030793,671,701,-6.93884,-0.0995181
-546,323,-6.91125,-0.0877075,-0.00342354,0.00822273,0.00324023,0.00906352,-0.00426434,1.31691,0.00785937,0.0117809,678,701,-6.91123,0.0876983
-539,323,-6.92633,-0.309509,-0.00196253,0.00696029,0.00158799,0.00723448,-0.00223671,1.39982,0.00571634,0.0104436,685,701,-6.9263,0.30953
-532,323,-6.93994,-0.581482,-0.000885126,0.00553939,0.000573879,0.00559025,-0.000935986,1.4824,0.00407482,0.0090702,692,701,-6.93994,0.581494
-525,323,-6.95062,-0.858704,-2.3219e-05,0.00407834,2.67604e-05,0.00407851,-2.33934e-05,1.56427,0.00272684,0.00773527,699,701,-6.95063,0.85871
-518,323,-6.94867,-1.07404,0.000816545,0.00263092,-0.000348807,0.00269566,0.000751798,-1.38726,0.00160627,0.0096442,706,701,-6.94864,1.07405
-511,323,-6.96295,-1.31604,0.00158676,0.00152951,-0.00080096,0.0023596,0.000756661,-0.767538,0.00139122,0.0132339,713,701,-6.96297,1.31605
-504,323,-6.95544,-1.58472,0.00310052,0.00072425,-0.00119531,0.00359774,0.000227029,-0.394204,0.00232651,0.0143755,720,701,-6.95544,1.58469
-497,323,-6.94305,-1.83728,0.00457075,0.000121717,-0.00164088,0.00511047,-0.000417996,-0.31777,0.00355451,0.0121145,727,701,-6.94303,1.83728
-490,323,-6.97223,-2.09863,0.00681323,0.000135048,-0.00258696,0.0076981,-0.000749828,-0.329577,0.00539939,0.0133975,734,701,-6.97221,2.09866
-483,323,-6.96857,-2.35596,0.0101679,0.00124585,-0.00449085,0.0120368,-0.000623095,-0.394366,0.0082401,0.0180132,741,701,-6.96856,2.35598
-476,323,-6.83984,-2.64886,0.0148053,0.0031868,-0.00744513,0.0184394,-0.000447319,-0.454099,0.0124447,0.0398659,748,701,-6.83984,2.64888
-469,323,-6.47131,-3.00128,0,0,0,0,0,0,0,-1,755,701,-6.47131,3.00127
-462,323,-5.29431,-1.45697,0,0,0,0,0,0,0,-1,762,701,-5.29431,1.45699
-455,323,-5.0658,-1.36639,0,0,0,0,0,0,0,-1,769,701,-5.06578,1.3664
-448,323,-4.91608,-1.59601,0,0,0,0,0,0,0,-1,776,701,-4.91606,1.59604
-441,323,-11.7404,3.01556,0,0,0,0,0,0,0,-1,783,701,-11.7404,-3.01556
-434,323,-15.3158,2.479,0,0,0,0,0,0,0,-1,790,701,-15.3158,-2.47898
-427,323,-15.4075,2.98248,0,0,0,0,0,0,0,-1,797,701,-15.4075,-2.98248
-420,323,-14.8839,3.49579,0,0,0,0,0,0,0,-1,804,701,-14.8839,-3.49579
-413,323,-14.0645,4.22607,0,0,0,0,0,0,0,-1,811,701,-14.0645,-4.22605
-406,323,0,0,0,0,0,0,0,0,0,-1,818,701,0,0
-399,323,0,0,0,0,0,0,0,0,0,-1,825,701,0,0
-392,323,0,0,0,0,0,0,0,0,0,-1,832,701,0,0
-385,323,0,0,0,0,0,0,0,0,0,-1,839,701,0,0
-378,323,0,0,0,0,0,0,0,0,0,-1,846,701,0,0
-371,323,0,0,0,0,0,0,0,0,0,-1,853,701,0,0
-364,323,0,0,0,0,0,0,0,0,0,-1,860,701,0,0
-357,323,0,0,0,0,0,0,0,0,0,-1,867,701,0,0
-350,323,0,0,0,0,0,0,0,0,0,-1,874,701,0,0
-343,323,0,0,0,0,0,0,0,0,0,-1,881,701,0,0
-336,323,0,0,0,0,0,0,0,0,0,-1,888,701,0,0
-329,323,0,0,0,0,0,0,0,0,0,-1,895,701,0,0
-322,323,0,0,0,0,0,0,0,0,0,-1,902,701,0,0
-315,323,0,0,0,0,0,0,0,0,0,-1,909,701,0,0
-308,323,0,0,0,0,0,0,0,0,0,-1,916,701,0,0
-301,323,0,0,0,0,0,0,0,0,0,-1,923,701,0,0
-294,323,0,0,0,0,0,0,0,0,0,-1,930,701,0,0
-287,323,0,0,0,0,0,0,0,0,0,-1,937,701,0,0
-280,323,0,0,0,0,0,0,0,0,0,-1,944,701,0,0
-273,323,0,0,0,0,0,0,0,0,0,-1,951,701,0,0
-266,323,0,0,0,0,0,0,0,0,0,-1,958,701,0,0
-259,323,0,0,0,0,0,0,0,0,0,-1,965,701,0,0
-252,323,0,0,0,0,0,0,0,0,0,-1,972,701,0,0
-245,323,0,0,0,0,0,0,0,0,0,-1,979,701,0,0
-238,323,0,0,0,0,0,0,0,0,0,-1,986,701,0,0
-231,323,0,0,0,0,0,0,0,0,0,-1,993,701,0,0
-224,323,0,0,0,0,0,0,0,0,0,-1,1000,701,0,0
-217,323,0,0,0,0,0,0,0,0,0,-1,1007,701,0,0
-210,323,0,0,0,0,0,0,0,0,0,-1,1014,701,0,0
-203,323,0,0,0,0,0,0,0,0,0,-1,1021,701,0,0
-196,323,0,0,0,0,0,0,0,0,0,-1,1028,701,0,0
-189,323,0,0,0,0,0,0,0,0,0,-1,1035,701,0,0
-182,323,0,0,0,0,0,0,0,0,0,-1,1042,701,0,0
-175,323,0,0,0,0,0,0,0,0,0,-1,1049,701,0,0
-168,323,0,0,0,0,0,0,0,0,0,-1,1056,701,0,0
-161,323,0,0,0,0,0,0,0,0,0,-1,1063,701,0,0
-154,323,0,0,0,0,0,0,0,0,0,-1,1070,701,0,0
-147,323,0,0,0,0,0,0,0,0,0,-1,1077,701,0,0
-140,323,0,0,0,0,0,0,0,0,0,-1,1084,701,0,0
-133,323,0,0,0,0,0,0,0,0,0,-1,1091,701,0,0
-126,323,0,0,0,0,0,0,0,0,0,-1,1098,701,0,0
-119,323,0,0,0,0,0,0,0,0,0,-1,1105,701,0,0
-112,323,0,0,0,0,0,0,0,0,0,-1,1112,701,0,0
-105,323,0,0,0,0,0,0,0,0,0,-1,1119,701,0,0
-98,323,0,0,0,0,0,0,0,0,0,-1,1126,701,0,0
-91,323,0,0,0,0,0,0,0,0,0,-1,1133,701,0,0
-84,323,0,0,0,0,0,0,0,0,0,-1,1140,701,0,0
-77,323,0,0,0,0,0,0,0,0,0,-1,1147,701,0,0
-70,323,0,0,0,0,0,0,0,0,0,-1,1154,701,0,0
-63,323,0,0,0,0,0,0,0,0,0,-1,1161,701,0,0
-56,323,0,0,0,0,0,0,0,0,0,-1,1168,701,0,0
-49,323,0,0,0,0,0,0,0,0,0,-1,1175,701,0,0
-42,323,0,0,0,0,0,0,0,0,0,-1,1182,701,0,0
-35,323,0,0,0,0,0,0,0,0,0,-1,1189,701,0,0
-28,323,0,0,0,0,0,0,0,0,0,-1,1196,701,0,0
-21,323,0,0,0,0,0,0,0,0,0,-1,1203,701,0,0
-14,323,0,0,0,0,0,0,0,0,0,-1,1210,701,0,0
-7,323,0,0,0,0,0,0,0,0,0,-1,1217,701,0,0
0,323,0,0,0,0,0,0,0,0,0,-1,1224,701,0,0
7,323,0,0,0,0,0,0,0,0,0,-1,1231,701,0,0
14,323,0,0,0,0,0,0,0,0,0,-1,1238,701,0,0
21,323,0,0,0,0,0,0,0,0,0,-1,1245,701,0,0
28,323,0,0,0,0,0,0,0,0,0,-1,1252,701,0,0
35,323,0,0,0,0,0,0,0,0,0,-1,1259,701,0,0
42,323,0,0,0,0,0,0,0,0,0,-1,1266,701,0,0
49,323,0,0,0,0,0,0,0,0,0,-1,1273,701,0,0
56,323,0,0,0,0,0,0,0,0,0,-1,1280,701,0,0
63,323,0,0,0,0,0,0,0,0,0,-1,1287,701,0,0
70,323,0,0,0,0,0,0,0,0,0,-1,1294,701,0,0
77,323,0,0,0,0,0,0,0,0,0,-1,1301,701,0,0
84,323,0,0,0,0,0,0,0,0,0,-1,1308,701,0,0
91,323,0,0,0,0,0,0,0,0,0,-1,1315,701,0,0
98,323,0,0,0,0,0,0,0,0,0,-1,1322,701,0,0
105,323,0,0,0,0,0,0,0,0,0,-1,1329,701,0,0
112,323,0,0,0,0,0,0,0,0,0,-1,1336,701,0,0
119,323,0,0,0,0,0,0,0,0,0,-1,1343,701,0,0
126,323,0,0,0,0,0,0,0,0,0,-1,1350,701,0,0
133,323,0,0,0,0,0,0,0,0,0,-1,1357,701,0,0
140,323,0,0,0,0,0,0,0,0,0,-1,1364,701,0,0
147,323,0,0,0,0,0,0,0,0,0,-1,1371,701,0,0
154,323,0,0,0,0,0,0,0,0,0,-1,1378,701,0,0
161,323,0,0,0,0,0,0,0,0,0,-1,1385,701,0,0
168,323,0,0,0,0,0,0,0,0,0,-1,1392,701,0,0
175,323,0,0,0,0,0,0,0,0,0,-1,1399,701,0,0
182,323,0,0,0,0,0,0,0,0,0,-1,1406,701,0,0
189,323,0,0,0,0,0,0,0,0,0,-1,1413,701,0,0
196,323,0,0,0,0,0,0,0,0,0,-1,1420,701,0,0
203,323,0,0,0,0,0,0,0,0,0,-1,1427,701,0,0
210,323,0,0,0,0,0,0,0,0,0,-1,1434,701,0,0
217,323,0,0,0,0,0,0,0,0,0,-1,1441,701,0,0
224,323,0,0,0,0,0,0,0,0,0,-1,1448,701,0,0
231,323,0,0,0,0,0,0,0,0,0,-1,1455,701,0,0
238,323,0,0,0,0,0,0,0,0,0,-1,1462,701,0,0
245,323,0,0,0,0,0,0,0,0,0,-1,1469,701,0,0
252,323,0,0,0,0,0,0,0,0,0,-1,1476,701,0,0
259,323,0,0,0,0,0,0,0,0,0,-1,1483,701,0,0
266,323,0,0,0,0,0,0,0,0,0,-1,1490,701,0,0
273,323,0,0,0,0,0,0,0,0,0,-1,1497,701,0,0
280,323,0,0,0,0,0,0,0,0,0,-1,1504,701,0,0
287,323,0,0,0,0,0,0,0,0,0,-1,1511,701,0,0
294,323,0,0,0,0,0,0,0,0,0,-1,1518,701,0,0
301,323,0,0,0,0,0,0,0,0,0,-1,1525,701,0,0
308,323,0,0,0,0,0,0,0,0,0,-1,1532,701,0,0
315,323,0,0,0,0,0,0,0,0,0,-1,1539,701,0,0
322,323,0,0,0,0,0,0,0,0,0,-1,1546,701,0,0
329,323,0,0,0,0,0,0,0,0,0,-1,1553,701,0,0
336,323,0,0,0,0,0,0,0,0,0,-1,1560,701,0,0
343,323,0,0,0,0,0,0,0,0,0,-1,1567,701,0,0
350,323,0,0,0,0,0,0,0,0,0,-1,1574,701,0,0
357,323,0,0,0,0,0,0,0,0,0,-1,1581,701,0,0
364,323,0,0,0,0,0,0,0,0,0,-1,1588,701,0,0
371,323,0,0,0,0,0,0,0,0,0,-1,1595,701,0,0
378,323,0,0,0,0,0,0,0,0,0,-1,1602,701,0,0
385,323,0,0,0,0,0,0,0,0,0,-1,1609,701,0,0
392,323,0,0,0,0,0,0,0,0,0,-1,1616,701,0,0
399,323,0,0,0,0,0,0,0,0,0,-1,1623,701,0,0
406,323,0,0,0,0,0,0,0,0,0,-1,1630,701,0,0
413,323,0,0,0,0,0,0,0,0,0,-1,1637,701,0,0
420,323,0,0,0,0,0,0,0,0,0,-1,1644,701,0,0
427,323,0,0,0,0,0,0,0,0,0,-1,1651,701,0,0
434,323,0,0,0,0,0,0,0,0,0,-1,1658,701,0,0
441,323,0,0,0,0,0,0,0,0,0,-1,1665,701,0,0
448,323,0,0,0,0,0,0,0,0,0,-1,1672,701,0,0
455,323,0,0,0,0,0,0,0,0,0,-1,1679,701,0,0
462,323,0,0,0,0,0,0,0,0,0,-1,1686,701,0,0
469,323,0,0,0,0,0,0,0,0,0,-1,1693,701,0,0
476,323,0,0,0,0,0,0,0,0,0,-1,1700,701,0,0
483,323,0,0,0,0,0,0,0,0,0,-1,1707,701,0,0
490,323,0,0,0,0,0,0,0,0,0,-1,1714,701,0,0
497,323,0,0,0,0,0,0,0,0,0,-1,1721,701,0,0
504,323,0,0,0,0,0,0,0,0,0,-1,1728,701,0,0
511,323,0,0,0,0,0,0,0,0,0,-1,1735,701,0,0
518,323,0,0,0,0,0,0,0,0,0,-1,1742,701,0,0
525,323,0,0,0,0,0,0,0,0,0,-1,1749,701,0,0
532,323,16.1195,3.75397,0,0,0,0,0,0,0,-1,1756,701,16.1196,-3.75396
539,323,15.8151,4.36414,0,0,0,0,0,0,0,-1,1763,701,15.8151,-4.36415
546,323,14.9697,4.06653,0,0,0,0,0,0,0,-1,1770,701,14.9697,-4.06654
553,323,19.7142,3.41541,0,0,0,0,0,0,0,-1,1777,701,19.7142,-3.41542
560,323,19.1747,3.96667,0,0,0,0,0,0,0,-1,1784,701,19.1747,-3.96669
567,323,18.6687,4.57452,0,0,0,0,0,0,0,-1,1791,701,18.6686,-4.57453
574,323,12.514,5.89685,0,0,0,0,0,0,0,-1,1798,701,12.5141,-5.89683
581,323,11.821,5.3476,0,0,0,0,0,0,0,-1,1805,701,11.821,-5.34762
588,323,11.7933,7.00818,0,0,0,0,0,0,0,-1,1812,701,11.7933,-7.00819
595,323,6.67847,0.06604,0,0,0,0,0,0,0,-1,1819,701,6.67841,-0.0660418
602,323,11.2856,-0.595459,0,0,0,0,0,0,0,-1,1826,701,11.2856,0.595433
609,323,13.0044,-0.705444,0,0,0,0,0,0,0,-1,1833,701,13.0043,0.705446
616,323,13.1991,-0.300415,0.00130748,-0.000487225,0.000650822,0.00151864,-0.00069839,0.313743,0.00130888,0.0146448,1840,701,13.1991,0.300413
623,323,13.2097,-0.0012207,0.00089518,-0.000530251,0.000447851,0.00102421,-0.00065928,0.280511,0.000979545,0.0130302,1847,701,13.2098,0.00122966
630,323,13.2147,0.279358,0.000438335,-0.000549095,0.000133995,0.000456195,-0.000566956,0.132509,0.000591869,0.0142016,1854,701,13.2148,-0.279367
637,323,13.2311,0.551575,0.000139583,-0.0004677,-0.000116345,0.00016111,-0.000489227,-0.182955,0.000391077,0.0114459,1861,701,13.2311,-0.551579
644,323,13.2177,0.808105,-0.000272006,-0.000497324,-0.000447283,7.65882e-05,-0.000845918,-0.662027,0.000591131,0.00846917,1868,701,13.2177,-0.808103
651,323,13.1996,1.08075,-0.000450502,-0.000452017,-0.000640507,0.000189249,-0.00109177,-0.784807,0.000798439,0.00960978,1875,701,13.1996,-1.08077
658,323,13.1583,1.35266,-0.000230567,-0.000135421,-0.000669021,0.000487716,-0.000853704,-0.820892,0.000784019,0.0126461,1882,701,13.1584,-1.35264
665,323,13.1525,1.62183,-0.000302986,0.00028089,8.07567e-05,0.000291854,-0.000313949,1.43586,0.000349838,0.0111496,1889,701,13.1525,-1.62184
672,323,13.1632,1.91174,-0.00067738,0.00115775,0.00143066,0.0019398,-0.00145944,1.07054,0.00196907,0.00999086,1896,701,13.1631,-1.91175
679,323,13.1282,2.17419,-0.000865559,0.00228837,0.00335197,0.00441579,-0.00299298,1.00527,0.00430367,0.0197746,1903,701,13.1282,-2.17418
686,323,13.155,2.16443,-0.0015503,0.00395016,0.0064297,0.00819312,-0.00579327,0.987492,0.00811457,0.0416139,1910,701,13.155,-2.16444
693,323,13.2563,2.17651,0,0,0,0,0,0,0,-1,1917,701,13.2563,-2.17653
700,323,10.7705,0.828613,0,0,0,0,0,0,0,-1,1924,701,10.7705,-0.828591
707,323,16.9005,4.79193,0,0,0,0,0,0,0,-1,1931,701,16.9005,-4.7919
714,323,16.3596,5.28662,0,0,0,0,0,0,0,-1,1938,701,16.3597,-5.28662
721,323,0,0,0,0,0,0,0,0,0,-1,1945,701,0,0
728,323,0,0,0,0,0,0,0,0,0,-1,1952,701,0,0
735,323,0,0,0,0,0,0,0,0,0,-1,1959,701,0,0
742,323,0,0,0,0,0,0,0,0,0,-1,1966,701,0,0
749,323,0,0,0,0,0,0,0,0,0,-1,1973,701,0,0
756,323,0,0,0,0,0,0,0,0,0,-1,1980,701,0,0
763,323,0,0,0,0,0,0,0,0,0,-1,1987,701,0,0
770,323,0,0,0,0,0,0,0,0,0,-1,1994,701,0,0
777,323,0,0,0,0,0,0,0,0,0,-1,2001,701,0,0
784,323,0,0,0,0,0,0,0,0,0,-1,2008,701,0,0
791,323,0,0,0,0,0,0,0,0,0,-1,2015,701,0,0
798,323,0,0,0,0,0,0,0,0,0,-1,2022,701,0,0
805,323,0,0,0,0,0,0,0,0,0,-1,2029,701,0,0
812,323,0,0,0,0,0,0,0,0,0,-1,2036,701,0,0
-700,316,0,0,0,0,0,0,0,0,0,-1,524,708,0,0
-693,316,0,0,0,0,0,0,0,0,0,-1,531,708,0,0
-686,316,0,0,0,0,0,0,0,0,0,-1,538,708,0,0
-679,316,0,0,0,0,0,0,0,0,0,-1,545,708,0,0
-672,316,0,0,0,0,0,0,0,0,0,-1,552,708,0,0
-665,316,0,0,0,0,0,0,0,0,0,-1,559,708,0,0
-658,316,0,0,0,0,0,0,0,0,0,-1,566,708,0,0
-651,316,0,0,0,0,0,0,0,0,0,-1,573,708,0,0
-644,316,0,0,0,0,0,0,0,0,0,-1,580,708,0,0
-637,316,0,0,0,0,0,0,0,0,0,-1,587,708,0,0
-630,316,0,0,0,0,0,0,0,0,0,-1,594,708,0,0
-623,316,0,0,0,0,0,0,0,0,0,-1,601,708,0,0
-616,316,0,0,0,0,0,0,0,0,0,-1,608,708,0,0
-609,316,0,0,0,0,0,0,0,0,0,-1,615,708,0,0
-602,316,-0.451782,-0.0494995,0,0,0,0,0,0,0,-1,622,708,-0.451768,0.0495022
-595,316,-3.3761,2.17188,0,0,0,0,0,0,0,-1,629,708,-3.37609,-2.17189
-588,316,-5.00177,2.60675,0,0,0,0,0,0,0,-1,636,708,-5.00175,-2.60676
-581,316,-3.94653,0.393433,0,0,0,0,0,0,0,-1,643,708,-3.94655,-0.39342
-574,316,-6.59229,0.232666,0,0,0,0,0,0,0,-1,650,708,-6.59229,-0.232646
-567,316,-6.24756,-0.0787354,0,0,0,0,0,0,0,-1,657,708,-6.24758,0.0787224
-560,316,-6.61151,-0.0265503,-0.00993474,0.0182685,0.0114556,0.0223352,-0.0140014,1.22968,0.0211621,0.0478559,664,708,-6.61149,0.026552
-553,316,-7.03479,0.168457,-0.00763204,0.0103776,0.00741476,0.0130375,-0.0102919,1.22637,0.0135003,0.028588,671,708,-7.0348,-0.168458
-546,316,-7.20532,-0.0490112,-0.00507291,0.00563937,0.00425122,0.00712144,-0.00655498,1.23535,0.00789834,0.0167048,678,708,-7.20534,0.0490344
-539,316,-7.19574,-0.344421,-0.00327305,0.00466874,0.00261703,0.00545357,-0.00405788,1.27944,0.00551111,0.0119437,685,708,-7.19571,0.344429
-532,316,-7.20813,-0.580505,-0.0018981,0.00351656,0.00160077,0.00395441,-0.00233594,1.30381,0.00367158,0.0101017,692,708,-7.20815,0.580529
-525,316,-7.21497,-0.831909,-0.000824838,0.00232344,0.00106328,0.0026489,-0.0011503,1.27376,0.00224963,0.00871137,699,708,-7.21495,0.831928
-518,316,-7.20074,-1.07043,0.000152659,0.00107602,0.000727615,0.00147607,-0.000247386,1.0681,0.00107603,0.00921042,706,708,-7.20073,1.07045
-511,316,-7.20142,-1.3092,0.000426614,0.000541685,0.000187337,0.000680122,0.000288177,0.934388,0.000394189,0.0107775,713,708,-7.20143,1.30917
-504,316,-7.19208,-1.59094,0.000865768,0.000172045,-7.45001e-05,0.000873678,0.000164134,-0.105785,0.000536181,0.0133383,720,708,-7.19207,1.59092
-497,316,-7.19153,-1.83978,0.000814251,0.000168959,-0.000408373,0.00101206,-2.88458e-05,-0.451067,0.000684522,0.0123901,727,708,-7.19151,1.83976
-490,316,-7.19952,-2.09247,0.000538455,0.00104172,-0.00124897,0.00206416,-0.000483982,-0.884804,0.00156262,0.0150785,734,708,-7.19953,2.09248
-483,316,-7.07458,-2.40411,-4.61016e-05,0.00335408,-0.00303021,0.00512854,-0.00182056,-1.04104,0.00416083,0.0402226,741,708,-7.07459,2.40414
-476,316,-6.95776,-2.74432,0,0,0,0,0,0,0,-1,748,708,-6.95774,2.7443
-469,316,-6.24194,-1.42725,0,0,0,0,0,0,0,-1,755,708,-6.24192,1.42725
-462,316,-5.74237,-1.40039,0,0,0,0,0,0,0,-1,762,708,-5.74238,1.40039
-455,316,-5.44745,-1.21899,0,0,0,0,0,0,0,-1,769,708,-5.44746,1.21898
-448,316,-9.22021,3.96765,0,0,0,0,0,0,0,-1,776,708,-9.22019,-3.96764
-441,316,-9.29224,3.77203,0,0,0,0,0,0,0,-1,783,708,-9.29225,-3.77201
-434,316,-15.0129,2.83905,0,0,0,0,0,0,0,-1,790,708,-15.0129,-2.83908
-427,316,-14.6848,3.17792,0,0,0,0,0,0,0,-1,797,708,-14.6848,-3.1779
-420,316,-13.5587,2.737,0,0,0,0,0,0,0,-1,804,708,-13.5587,-2.73703
-413,316,0,0,0,0,0,0,0,0,0,-1,811,708,0,0
-406,316,0,0,0,0,0,0,0,0,0,-1,818,708,0,0
-399,316,0,0,0,0,0,0,0,0,0,-1,825,708,0,0
-392,316,0,0,0,0,0,0,0,0,0,-1,832,708,0,0
-385,316,0,0,0,0,0,0,0,0,0,-1,839,708,0,0
-378,316,0,0,0,0,0,0,0,0,0,-1,846,708,0,0
-371,316,0,0,0,0,0,0,0,0,0,-1,853,708,0,0
-364,316,0,0,0,0,0,0,0,0,0,-1,860,708,0,0
-357,316,0,0,0,0,0,0,0,0,0,-1,867,708,0,0
-350,316,0,0,0,0,0,0,0,0,0,-1,874,708,0,0
-343,316,0,0,0,0,0,0,0,0,0,-1,881,708,0,0
-336,316,0,0,0,0,0,0,0,0,0,-1,888,708,0,0
-329,316,0,0,0,0,0,0,0,0,0,-1,895,708,0,0
-322,316,0,0,0,0,0,0,0,0,0,-1,902,708,0,0
-315,316,0,0,0,0,0,0,0,0,0,-1,909,708,0,0
-308,316,0,0,0,0,0,0,0,0,0,-1,916,708,0,0
-301,316,0,0,0,0,0,0,0,0,0,-1,923,708,0,0
-294,316,0,0,0,0,0,0,0,0,0,-1,930,708,0,0
-287,316,0,0,0,0,0,0,0,0,0,-1,937,708,0,0
-280,316,0,0,0,0,0,0,0,0,0,-1,944,708,0,0
-273,316,0,0,0,0,0,0,0,0,0,-1,951,708,0,0
-266,316,0,0,0,0,0,0,0,0,0,-1,958,708,0,0
-259,316,0,0,0,0,0,0,0,0,0,-1,965,708,0,0
-252,316,0,0,0,0,0,0,0,0,0,-1,972,708,0,0
-245,316,0,0,0,0,0,0,0,0,0,-1,979,708,0,0
-238,316,0,0,0,0,0,0,0,0,0,-1,986,708,0,0
-231,316,0,0,0,0,0,0,0,0,0,-1,993,708,0,0
-224,316,0,0,0,0,0,0,0,0,0,-1,1000,708,0,0
-217,316,0,0,0,0,0,0,0,0,0,-1,1007,708,0,0
-210,316,0,0,0,0,0,0,0,0,0,-1,1014,708,0,0
-203,316,0,0,0,0,0,0,0,0,0,-1,1021,708,0,0
-196,316,0,0,0,0,0,0,0,0,0,-1,1028,708,0,0
-189,316,0,0,0,0,0,0,0,0,0,-1,1035,708,0,0
-182,316,0,0,0,0,0,0,0,0,0,-1,1042,708,0,0
-175,316,0,0,0,0,0,0,0,0,0,-1,1049,708,0,0
-168,316,0,0,0,0,0,0,0,0,0,-1,1056,708,0,0
-161,316,0,0,0,0,0,0,0,0,0,-1,1063,708,0,0
-154,316,0,0,0,0,0,0,0,0,0,-1,1070,708,0,0
-147,316,0,0,0,0,0,0,0,0,0,-1,1077,708,0,0
-140,316,0,0,0,0,0,0,0,0,0,-1,1084,708,0,0
-133,316,0,0,0,0,0,0,0,0,0,-1,1091,708,0,0
-126,316,0,0,0,0,0,0,0,0,0,-1,1098,708,0,0
-119,316,0,0,0,0,0,0,0,0,0,-1,1105,708,0,0
-112,316,0,0,0,0,0,0,0,0,0,-1,1112,708,0,0
-105,316,0,0,0,0,0,0,0,0,0,-1,1119,708,0,0
-98,316,0,0,0,0,0,0,0,0,0,-1,1126,708,0,0
-91,316,0,0,0,0,0,0,0,0,0,-1,1133,708,0,0
-84,316,0,0,0,0,0,0,0,0,0,-1,1140,708,0,0
-77,316,0,0,0,0,0,0,0,0,0,-1,1147,708,0,0
-70,316,0,0,0,0,0,0,0,0,0,-1,1154,708,0,0
-63,316,0,0,0,0,0,0,0,0,0,-1,1161,708,0,0
-56,316,0,0,0,0,0,0,0,0,0,-1,1168,708,0,0
-49,316,0,0,0,0,0,0,0,0,0,-1,1175,708,0,0
-42,316,0,0,0,0,0,0,0,0,0,-1,1182,708,0,0
-35,316,0,0,0,0,0,0,0,0,0,-1,1189,708,0,0
-28,316,0,0,0,0,0,0,0,0,0,-1,1196,708,0,0
-21,316,0,0,0,0,0,0,0,0,0,-1,1203,708,0,0
-14,316,0,0,0,0,0,0,0,0,0,-1,1210,708,0,0
-7,316,0,0,0,0,0,0,0,0,0,-1,1217,708,0,0
0,316,0,0,0,0,0,0,0,0,0,-1,1224,708,0,0
7,316,0,0,0,0,0,0,0,0,0,-1,1231,708,0,0
14,316,0,0,0,0,0,0,0,0,0,-1,1238,708,0,0
21,316,0,0,0,0,0,0,0,0,0,-1,1245,708,0,0
28,316,0,0,0,0,0,0,0,0,0,-1,1252,708,0,0
35,316,0,0,0,0,0,0,0,0,0,-1,1259,708,0,0
42,316,0,0,0,0,0,0,0,0,0,-1,1266,708,0,0
49,316,0,0,0,0,0,0,0,0,0,-1,1273,708,0,0
56,316,0,0,0,0,0,0,0,0,0,-1,1280,708,0,0
63,316,0,0,0,0,0,0,0,0,0,-1,1287,708,0,0
70,316,0,0,0,0,0,0,0,0,0,-1,1294,708,0,0
77,316,0,0,0,0,0,0,0,0,0,-1,1301,708,0,0
84,316,0,0,0,0,0,0,0,0,0,-1,1308,708,0,0
91,316,0,0,0,0,0,0,0,0,0,-1,1315,708,0,0
98,316,0,0,0,0,0,0,0,0,0,-1,1322,708,0,0
105,316,0,0,0,0,0,0,0,0,0,-1,1329,708,0,0
112,316,0,0,0,0,0,0,0,0,0,-1,1336,708,0,0
119,316,0,0,0,0,0,0,0,0,0,-1,1343,708,0,0
126,316,0,0,0,0,0,0,0,0,0,-1,1350,708,0,0
133,316,0,0,0,0,0,0,0,0,0,-1,1357,708,0,0
140,316,0,0,0,0,0,0,0,0,0,-1,1364,708,0,0
147,316,0,0,0,0,0,0,0,0,0,-1,1371,708,0,0
154,316,0,0,0,0,0,0,0,0,0,-1,1378,708,0,0
161,316,0,0,0,0,0,0,0,0,0,-1,1385,708,0,0
168,316,0,0,0,0,0,0,0,0,0,-1,1392,708,0,0
175,316,0,0,0,0,0,0,0,0,0,-1,1399,708,0,0
182,316,0,0,0,0,0,0,0,0,0,-1,1406,708,0,0
189,316,0,0,0,0,0,0,0,0,0,-1,1413,708,0,0
196,316,0,0,0,0,0,0,0,0,0,-1,1420,708,0,0
203,316,0,0,0,0,0,0,0,0,0,-1,1427,708,0,0
210,316,0,0,0,0,0,0,0,0,0,-1,1434,708,0,0
217,316,0,0,0,0,0,0,0,0,0,-1,1441,708,0,0
224,316,0,0,0,0,0,0,0,0,0,-1,1448,708,0,0
231,316,0,0,0,0,0,0,0,0,0,-1,1455,708,0,0
238,316,0,0,0,0,0,0,0,0,0,-1,1462,708,0,0
245,316,0,0,0,0,0,0,0,0,0,-1,1469,708,0,0
252,316,0,0,0,0,0,0,0,0,0,-1,1476,708,0,0
259,316,0,0,0,0,0,0,0,0,0,-1,1483,708,0,0
266,316,0,0,0,0,0,0,0,0,0,-1,1490,708,0,0
273,316,0,0,0,0,0,0,0,0,0,-1,1497,708,0,0
280,316,0,0,0,0,0,0,0,0,0,-1,1504,708,0,0
287,316,0,0,0,0,0,0,0,0,0,-1,1511,708,0,0
294,316,0,0,0,0,0,0,0,0,0,-1,1518,708,0,0
301,316,0,0,0,0,0,0,0,0,0,-1,1525,708,0,0
308,316,0,0,0,0,0,0,0,0,0,-1,1532,708,0,0
315,316,0,0,0,0,0,0,0,0,0,-1,1539,708,0,0
322,316,0,0,0,0,0,0,0,0,0,-1,1546,708,0,0
329,316,0,0,0,0,0,0,0,0,0,-1,1553,708,0,0
336,316,0,0,0,0,0,0,0,0,0,-1,1560,708,0,0
343,316,0,0,0,0,0,0,0,0,0,-1,1567,708,0,0
350,316,0,0,0,0,0,0,0,0,0,-1,1574,708,0,0
357,316,0,0,0,0,0,0,0,0,0,-1,1581,708,0,0
364,316,0,0,0,0,0,0,0,0,0,-1,1588,708,0,0
371,316,0,0,0,0,0,0,0,0,0,-1,1595,708,0,0
378,316,0,0,0,0,0,0,0,0,0,-1,1602,708,0,0
385,316,0,0,0,0,0,0,0,0,0,-1,1609,708,0,0
392,316,0,0,0,0,0,0,0,0,0,-1,1616,708,0,0
399,316,0,0,0,0,0,0,0,0,0,-1,1623,708,0,0
406,316,0,0,0,0,0,0,0,0,0,-1,1630,708,0,0
413,316,0,0,0,0,0,0,0,0,0,-1,1637,708,0,0
420,316,0,0,0,0,0,0,0,0,0,-1,1644,708,0,0
427,316,0,0,0,0,0,0,0,0,0,-1,1651,708,0,0
434,316,0,0,0,0,0,0,0,0,0,-1,1658,708,0,0
441,316,0,0,0,0,0,0,0,0,0,-1,1665,708,0,0
448,316,0,0,0,0,0,0,0,0,0,-1,1672,708,0,0
455,316,0,0,0,0,0,0,0,0,0,-1,1679,708,0,0
462,316,0,0,0,0,0,0,0,0,0,-1,1686,708,0,0
469,316,0,0,0,0,0,0,0,0,0,-1,1693,708,0,0
476,316,0,0,0,0,0,0,0,0,0,-1,1700,708,0,0
483,316,0,0,0,0,0,0,0,0,0,-1,1707,708,0,0
490,316,0,0,0,0,0,0,0,0,0,-1,1714,708,0,0
497,316,0,0,0,0,0,0,0,0,0,-1,1721,708,0,0
504,316,0,0,0,0,0,0,0,0,0,-1,1728,708,0,0
511,316,0,0,0,0,0,0,0,0,0,-1,1735,708,0,0
518,316,0,0,0,0,0,0,0,0,0,-1,1742,708,0,0
525,316,0,0,0,0,0,0,0,0,0,-1,1749,708,0,0
532,316,15.6722,2.51886,0,0,0,0,0,0,0,-1,1756,708,15.6722,-2.51888
539,316,19.1591,2.70428,0,0,0,0,0,0,0,-1,1763,708,19.159,-2.70428
546,316,19.3698,3.4729,0,0,0,0,0,0,0,-1,1770,708,19.3697,-3.47291
553,316,19.9391,3.10297,0,0,0,0,0,0,0,-1,1777,708,19.9391,-3.10297
560,316,19.39,3.67322,0,0,0,0,0,0,0,-1,1784,708,19.39,-3.67322
567,316,20.8519,0.674194,0,0,0,0,0,0,0,-1,1791,708,20.8519,-0.674223
574,316,18.2991,4.84393,0,0,0,0,0,0,0,-1,1798,708,18.2991,-4.84392
581,316,19.7086,2.66235,0,0,0,0,0,0,0,-1,1805,708,19.7087,-2.66236
588,316,19.7659,2.90198,0,0,0,0,0,0,0,-1,1812,708,19.7659,-2.902
595,316,12.5363,1.50702,0,0,0,0,0,0,0,-1,1819,708,12.5363,-1.50701
602,316,7.79919,0.0422363,0,0,0,0,0,0,0,-1,1826,708,7.79923,-0.0422066
609,316,13.3866,-0.588135,0,0,0,0,0,0,0,-1,1833,708,13.3866,0.588131
616,316,13.4731,-0.290466,0.0016129,-0.00171915,0.00160791,0.00226226,-0.00236851,0.383826,0.00267381,0.0187536,1840,708,13.4731,0.290473
623,316,13.4922,-0.00878906,0.000824274,-0.00135523,0.00110249,0.0012847,-0.00181565,0.395604,0.00179872,0.0110783,1847,708,13.4922,0.00877041
630,316,13.4797,0.269165,9.59569e-05,-0.00115149,0.000646525,0.000370579,-0.00142611,0.401673,0.00109537,0.0131191,1854,708,13.4797,-0.269176
637,316,13.4829,0.561462,-0.000171414,-0.000831465,0.0001875,-0.00012187,-0.000881009,0.25833,0.000551225,0.0127917,1861,708,13.4829,-0.561464
644,316,13.4899,0.834167,-0.000403443,-0.000692126,-0.000224287,-0.000281066,-0.000814503,-0.499481,0.000477719,0.0127377,1868,708,13.4899,-0.834189
651,316,13.4733,1.09607,-0.000446499,-0.000539776,-0.000455948,-3.48101e-05,-0.000951465,-0.734431,0.000623031,0.0128138,1875,708,13.4733,-1.09607
658,316,13.4674,1.38922,-0.000109465,-9.94097e-05,-0.000497433,0.000393021,-0.000601895,-0.790452,0.000578619,0.0202529,1882,708,13.4674,-1.38924
665,316,13.4257,1.66711,-5.54903e-05,0.000341913,0.000152871,0.000393914,-0.000107491,1.24291,0.000304824,0.0160983,1889,708,13.4256,-1.66711
672,316,13.4396,1.91455,-0.000289804,0.00119373,0.00130291,0.00195122,-0.0010473,1.04417,0.00175722,0.0125693,1896,708,13.4396,-1.91457
679,316,13.4645,2.19641,-0.000362857,0.00224718,0.00289994,0.00412221,-0.00223789,0.996831,0.00372534,0.017895,1903,708,13.4644,-2.19639
686,316,13.3136,2.4024,-0.000855656,0.003676,0.00540044,0.00726668,-0.00444634,0.984027,0.00682755,0.0305855,1910,708,13.3136,-2.40238
693,316,13.0793,2.60455,-0.00200083,0.00563264,0.00917768,0.0117556,-0.00812378,0.982455,0.011541,0.0496935,1917,708,13.0794,-2.60456
700,316,12.8749,2.89136,0,0,0,0,0,0,0,-1,1924,708,12.8748,-2.89137
707,316,16.874,4.32941,0,0,0,0,0,0,0,-1,1931,708,16.8741,-4.32939
714,316,16.3013,4.85596,-0.0133057,0.0158845,0.0306178,0.0352079,-0.0326291,1.00781,0.0391751,0.0462988,1938,708,16.3012,-4.85597
721,316,15.8302,5.38635,-0.0213788,0.0205611,0.0410056,0.0456477,-0.0464653,1.02176,0.0531822,0.0467622,1945,708,15.8302,-5.38635
728,316,0,0,0,0,0,0,0,0,0,-1,1952,708,0,0
735,316,0,0,0,0,0,0,0,0,0,-1,1959,708,0,0
742,316,0,0,0,0,0,0,0,0,0,-1,1966,708,0,0
749,316,0,0,0,0,0,0,0,0,0,-1,1973,708,0,0
756,316,0,0,0,0,0,0,0,0,0,-1,1980,708,0,0
763,316,0,0,0,0,0,0,0,0,0,-1,1987,708,0,0
770,316,0,0,0,0,0,0,0,0,0,-1,1994,708,0,0
777,316,0,0,0,0,0,0,0,0,0,-1,2001,708,0,0
784,316,0,0,0,0,0,0,0,0,0,-1,2008,708,0,0
791,316,0,0,0,0,0,0,0,0,0,-1,2015,708,0,0
798,316,0,0,0,0,0,0,0,0,0,-1,2022,708,0,0
805,316,0,0,0,0,0,0,0,0,0,-1,2029,708,0,0
812,316,0,0,0,0,0,0,0,0,0,-1,2036,708,0,0
-700,309,0,0,0,0,0,0,0,0,0,-1,524,715,0,0
-693,309,0,0,0,0,0,0,0,0,0,-1,531,715,0,0
-686,309,0,0,0,0,0,0,0,0,0,-1,538,715,0,0
-679,309,0,0,0,0,0,0,0,0,0,-1,545,715,0,0
-672,309,0,0,0,0,0,0,0,0,0,-1,552,715,0,0
-665,309,0,0,0,0,0,0,0,0,0,-1,559,715,0,0
-658,309,0,0,0,0,0,0,0,0,0,-1,566,715,0,0
-651,309,0,0,0,0,0,0,0,0,0,-1,573,715,0,0
-644,309,0,0,0,0,0,0,0,0,0,-1,580,715,0,0
-637,309,0,0,0,0,0,0,0,0,0,-1,587,715,0,0
-630,309,0,0,0,0,0,0,0,0,0,-1,594,715,0,0
-623,309,0,0,0,0,0,0,0,0,0,-1,601,715,0,0
-616,309,0,0,0,0,0,0,0,0,0,-1,608,715,0,0
-609,309,-5.95392,-3.93689,0,0,0,0,0,0,0,-1,615,715,-5.95392,3.93686
-602,309,-4.99786,-3.31287,0,0,0,0,0,0,0,-1,622,715,-4.99786,3.31284
-595,309,-6.80847,2.4046,0,0,0,0,0,0,0,-1,629,715,-6.80845,-2.40458
-588,309,-6.08795,2.19324,0,0,0,0,0,0,0,-1,636,715,-6.08793,-2.19325
-581,309,-5.97552,1.3277,0,0,0,0,0,0,0,-1,643,715,-5.97552,-1.32769
-574,309,-5.27991,0.127625,0,0,0,0,0,0,0,-1,650,715,-5.2799,-0.127626
-567,309,-6.67633,0.000244141,0,0,0,0,0,0,0,-1,657,715,-6.6763,-0.000226043
-560,309,-6.98511,0.0254517,-0.00752506,0.0156024,0.0116665,0.0204651,-0.0123877,1.17589,0.0191577,0.0484093,664,715,-6.98509,-0.0254413
-553,309,-7.35071,0.140747,-0.0063462,0.00827758,0.00797541,0.0117856,-0.00985424,1.15641,0.0125104,0.0293442,671,715,-7.35069,-0.140764
-546,309,-7.46143,-0.0704346,-0.00509326,0.00355232,0.00491818,0.00577743,-0.00731837,1.14593,0.00757829,0.0159839,678,715,-7.46141,0.0704409
-539,309,-7.45844,-0.328003,-0.00389673,0.00282983,0.00325767,0.00414886,-0.00521576,1.18607,0.00541835,0.0146653,685,715,-7.45842,0.328
-532,309,-7.45447,-0.566711,-0.00241324,0.00182017,0.00230425,0.00283237,-0.00342543,1.1569,0.00361835,0.0117117,692,715,-7.45444,0.566736
-525,309,-7.44995,-0.827515,-0.00126458,0.000771764,0.00188847,0.00189905,-0.00239187,1.03264,0.00248281,0.0137641,699,715,-7.44994,0.827516
-518,309,-7.44806,-1.07043,-0.000279485,-0.000367553,0.00171213,0.00138918,-0.00203622,0.772542,0.00198938,0.0148632,706,715,-7.44804,1.07043
-511,309,-7.45642,-1.30438,-0.000337385,-0.000319051,0.00137195,0.00104376,-0.00170019,0.788739,0.00159926,0.012281,713,715,-7.45642,1.3044
-504,309,-7.42938,-1.55707,-0.000357241,-0.00025991,0.00150125,0.00119347,-0.00181062,0.801601,0.00174657,0.00944883,720,715,-7.42937,1.55705
-497,309,-7.42889,-1.82568,-0.00102164,0.000315773,0.00162889,0.00140788,-0.00211375,0.980173,0.00204678,0.0128715,727,715,-7.42887,1.82569
-490,309,-7.4043,-2.06549,-0.0021078,0.00200745,0.00137213,0.00242299,-0.00252334,1.27673,0.00285596,0.0277835,734,715,-7.40433,2.06548
-483,309,-7.06738,-2.5141,0,0,0,0,0,0,0,-1,741,715,-7.06741,2.5141
-476,309,-5.29486,-1.2262,0,0,0,0,0,0,0,-1,748,715,-5.29484,1.22622
-469,309,-4.22717,-0.592896,0,0,0,0,0,0,0,-1,755,715,-4.2272,0.592905
-462,309,-12.9673,0.390442,0,0,0,0,0,0,0,-1,762,715,-12.9674,-0.390427
-455,309,-11.8719,1.70447,0,0,0,0,0,0,0,-1,769,715,-11.8719,-1.70447
-448,309,-10.3397,2.80481,0,0,0,0,0,0,0,-1,776,715,-10.3397,-2.80481
-441,309,-10.1426,2.83881,0,0,0,0,0,0,0,-1,783,715,-10.1426,-2.83881
-434,309,-9.8681,2.92401,0,0,0,0,0,0,0,-1,790,715,-9.8681,-2.92399
-427,309,-14.1808,3.20197,0,0,0,0,0,0,0,-1,797,715,-14.1808,-3.20199
-420,309,-13.3781,3.26843,0,0,0,0,0,0,0,-1,804,715,-13.3781,-3.26842
-413,309,0,0,0,0,0,0,0,0,0,-1,811,715,0,0
-406,309,0,0,0,0,0,0,0,0,0,-1,818,715,0,0
-399,309,0,0,0,0,0,0,0,0,0,-1,825,715,0,0
-392,309,0,0,0,0,0,0,0,0,0,-1,832,715,0,0
-385,309,0,0,0,0,0,0,0,0,0,-1,839,715,0,0
-378,309,0,0,0,0,0,0,0,0,0,-1,846,715,0,0
-371,309,0,0,0,0,0,0,0,0,0,-1,853,715,0,0
-364,309,0,0,0,0,0,0,0,0,0,-1,860,715,0,0
-357,309,0,0,0,0,0,0,0,0,0,-1,867,715,0,0
-350,309,0,0,0,0,0,0,0,0,0,-1,874,715,0,0
-343,309,0,0,0,0,0,0,0,0,0,-1,881,715,0,0
-336,309,0,0,0,0,0,0,0,0,0,-1,888,715,0,0
-329,309,0,0,0,0,0,0,0,0,0,-1,895,715,0,0
-322,309,0,0,0,0,0,0,0,0,0,-1,902,715,0,0
-315,309,0,0,0,0,0,0,0,0,0,-1,909,715,0,0
-308,309,0,0,0,0,0,0,0,0,0,-1,916,715,0,0
-301,309,0,0,0,0,0,0,0,0,0,-1,923,715,0,0
-294,309,0,0,0,0,0,0,0,0,0,-1,930,715,0,0
-287,309,0,0,0,0,0,0,0,0,0,-1,937,715,0,0
-280,309,0,0,0,0,0,0,0,0,0,-1,944,715,0,0
-273,309,0,0,0,0,0,0,0,0,0,-1,951,715,0,0
-266,309,0,0,0,0,0,0,0,0,0,-1,958,715,0,0
-259,309,0,0,0,0,0,0,0,0,0,-1,965,715,0,0
-252,309,0,0,0,0,0,0,0,0,0,-1,972,715,0,0
-245,309,0,0,0,0,0,0,0,0,0,-1,979,715,0,0
-238,309,0,0,0,0,0,0,0,0,0,-1,986,715,0,0
-231,309,0,0,0,0,0,0,0,0,0,-1,993,715,0,0
-224,309,0,0,0,0,0,0,0,0,0,-1,1000,715,0,0
-217,309,0,0,0,0,0,0,0,0,0,-1,1007,715,0,0
-210,309,0,0,0,0,0,0,0,0,0,-1,1014,715,0,0
-203,309,0,0,0,0,0,0,0,0,0,-1,1021,715,0,0
-196,309,0,0,0,0,0,0,0,0,0,-1,1028,715,0,0
-189,309,0,0,0,0,0,0,0,0,0,-1,1035,715,0,0
-182,309,0,0,0,0,0,0,0,0,0,-1,1042,715,0,0
-175,309,0,0,0,0,0,0,0,0,0,-1,1049,715,0,0
-168,309,0,0,0,0,0,0,0,0,0,-1,1056,715,0,0
-161,309,0,0,0,0,0,0,0,0,0,-1,1063,715,0,0
-154,309,0,0,0,0,0,0,0,0,0,-1,1070,715,0,0
-147,309,0,0,0,0,0,0,0,0,0,-1,1077,715,0,0
-140,309,0,0,0,0,0,0,0,0,0,-1,1084,715,0,0
-133,309,0,0,0,0,0,0,0,0,0,-1,1091,715,0,0
-126,309,0,0,0,0,0,0,0,0,0,-1,1098,715,0,0
-119,309,0,0,0,0,0,0,0,0,0,-1,1105,715,0,0
-112,309,0,0,0,0,0,0,0,0,0,-1,1112,715,0,0
-105,309,0,0,0,0,0,0,0,0,0,-1,1119,715,0,0
-98,309,0,0,0,0,0,0,0,0,0,-1,1126,715,0,0
-91,309,0,0,0,0,0,0,0,0,0,-1,1133,715,0,0
-84,309,0,0,0,0,0,0,0,0,0,-1,1140,715,0,0
-77,309,0,0,0,0,0,0,0,0,0,-1,1147,715,0,0
-70,309,0,0,0,0,0,0,0,0,0,-1,1154,715,0,0
-63,309,0,0,0,0,0,0,0,0,0,-1,1161,715,0,0
-56,309,0,0,0,0,0,0,0,0,0,-1,1168,715,0,0
-49,309,0,0,0,0,0,0,0,0,0,-1,1175,715,0,0
-42,309,0,0,0,0,0,0,0,0,0,-1,1182,715,0,0
-35,309,0,0,0,0,0,0,0,0,0,-1,1189,715,0,0
-28,309,0,0,0,0,0,0,0,0,0,-1,1196,715,0,0
-21,309,0,0,0,0,0,0,0,0,0,-1,1203,715,0,0
-14,309,0,0,0,0,0,0,0,0,0,-1,1210,715,0,0
-7,309,0,0,0,0,0,0,0,0,0,-1,1217,715,0,0
0,309,0,0,0,0,0,0,0,0,0,-1,1224,715,0,0
7,309,0,0,0,0,0,0,0,0,0,-1,1231,715,0,0
14,309,0,0,0,0,0,0,0,0,0,-1,1238,715,0,0
21,309,0,0,0,0,0,0,0,0,0,-1,1245,715,0,0
28,309,0,0,0,0,0,0,0,0,0,-1,1252,715,0,0
35,309,0,0,0,0,0,0,0,0,0,-1,1259,715,0,0
42,309,0,0,0,0,0,0,0,0,0,-1,1266,715,0,0
49,309,0,0,0,0,0,0,0,0,0,-1,1273,715,0,0
56,309,0,0,0,0,0,0,0,0,0,-1,1280,715,0,0
63,309,0,0,0,0,0,0,0,0,0,-1,1287,715,0,0
70,309,0,0,0,0,0,0,0,0,0,-1,1294,715,0,0
77,309,0,0,0,0,0,0,0,0,0,-1,1301,715,0,0
84,309,0,0,0,0,0,0,0,0,0,-1,1308,715,0,0
91,309,0,0,0,0,0,0,0,0,0,-1,1315,715,0,0
98,309,0,0,0,0,0,0,0,0,0,-1,1322,715,0,0
105,309,0,0,0,0,0,0,0,0,0,-1,1329,715,0,0
112,309,0,0,0,0,0,0,0,0,0,-1,1336,715,0,0
119,309,0,0,0,0,0,0,0,0,0,-1,1343,715,0,0
126,309,0,0,0,0,0,0,0,0,0,-1,1350,715,0,0
133,309,0,0,0,0,0,0,0,0,0,-1,1357,715,0,0
140,309,0,0,0,0,0,0,0,0,0,-1,1364,715,0,0
147,309,0,0,0,0,0,0,0,0,0,-1,1371,715,0,0
154,309,0,0,0,0,0,0,0,0,0,-1,1378,715,0,0
161,309,0,0,0,0,0,0,0,0,0,-1,1385,715,0,0
168,309,0,0,0,0,0,0,0,0,0,-1,1392,715,0,0
175,309,0,0,0,0,0,0,0,0,0,-1,1399,715,0,0
182,309,0,0,0,0,0,0,0,0,0,-1,1406,715,0,0
189,309,0,0,0,0,0,0,0,0,0,-1,1413,715,0,0
196,309,0,0,0,0,0,0,0,0,0,-1,1420,715,0,0
203,309,0,0,0,0,0,0,0,0,0,-1,1427,715,0,0
210,309,0,0,0,0,0,0,0,0,0,-1,1434,715,0,0
217,309,0,0,0,0,0,0,0,0,0,-1,1441,715,0,0
224,309,0,0,0,0,0,0,0,0,0,-1,1448,715,0,0
231,309,0,0,0,0,0,0,0,0,0,-1,1455,715,0,0
238,309,0,0,0,0,0,0,0,0,0,-1,1462,715,0,0
245,309,0,0,0,0,0,0,0,0,0,-1,1469,715,0,0
252,309,0,0,0,0,0,0,0,0,0,-1,1476,715,0,0
259,309,0,0,0,0,0,0,0,0,0,-1,1483,715,0,0
266,309,0,0,0,0,0,0,0,0,0,-1,1490,715,0,0
273,309,0,0,0,0,0,0,0,0,0,-1,1497,715,0,0
280,309,0,0,0,0,0,0,0,0,0,-1,1504,715,0,0
287,309,0,0,0,0,0,0,0,0,0,-1,1511,715,0,0
294,309,0,0,0,0,0,0,0,0,0,-1,1518,715,0,0
301,309,0,0,0,0,0,0,0,0,0,-1,1525,715,0,0
308,309,0,0,0,0,0,0,0,0,0,-1,1532,715,0,0
315,309,0,0,0,0,0,0,0,0,0,-1,1539,715,0,0
322,309,0,0,0,0,0,0,0,0,0,-1,1546,715,0,0
329,309,0,0,0,0,0,0,0,0,0,-1,1553,715,0,0
336,309,0,0,0,0,0,0,0,0,0,-1,1560,715,0,0
343,309,0,0,0,0,0,0,0,0,0,-1,1567,715,0,0
350,309,0,0,0,0,0,0,0,0,0,-1,1574,715,0,0
357,309,0,0,0,0,0,0,0,0,0,-1,1581,715,0,0
364,309,0,0,0,0,0,0,0,0,0,-1,1588,715,0,0
371,309,0,0,0,0,0,0,0,0,0,-1,1595,715,0,0
378,309,0,0,0,0,0,0,0,0,0,-1,1602,715,0,0
385,309,0,0,0,0,0,0,0,0,0,-1,1609,715,0,0
392,309,0,0,0,0,0,0,0,0,0,-1,1616,715,0,0
399,309,0,0,0,0,0,0,0,0,0,-1,1623,715,0,0
406,309,0,0,0,0,0,0,0,0,0,-1,1630,715,0,0
413,309,0,0,0,0,0,0,0,0,0,-1,1637,715,0,0
420,309,0,0,0,0,0,0,0,0,0,-1,1644,715,0,0
427,309,0,0,0,0,0,0,0,0,0,-1,1651,715,0,0
434,309,0,0,0,0,0,0,0,0,0,-1,1658,715,0,0
441,309,0,0,0,0,0,0,0,0,0,-1,1665,715,0,0
448,309,0,0,0,0,0,0,0,0,0,-1,1672,715,0,0
455,309,0,0,0,0,0,0,0,0,0,-1,1679,715,0,0
462,309,0,0,0,0,0,0,0,0,0,-1,1686,715,0,0
469,309,0,0,0,0,0,0,0,0,0,-1,1693,715,0,0
476,309,0,0,0,0,0,0,0,0,0,-1,1700,715,0,0
483,309,0,0,0,0,0,0,0,0,0,-1,1707,715,0,0
490,309,0,0,0,0,0,0,0,0,0,-1,1714,715,0,0
497,309,0,0,0,0,0,0,0,0,0,-1,1721,715,0,0
504,309,0,0,0,0,0,0,0,0,0,-1,1728,715,0,0
511,309,0,0,0,0,0,0,0,0,0,-1,1735,715,0,0
518,309,0,0,0,0,0,0,0,0,0,-1,1742,715,0,0
525,309,0,0,0,0,0,0,0,0,0,-1,1749,715,0,0
532,309,0,0,0,0,0,0,0,0,0,-1,1756,715,0,0
539,309,19.4202,2.61884,0,0,0,0,0,0,0,-1,1763,715,19.4202,-2.61883
546,309,19.571,3.34857,0,0,0,0,0,0,0,-1,1770,715,19.571,-3.3486
553,309,20.3191,3.7149,0,0,0,0,0,0,0,-1,1777,715,20.3191,-3.71488
560,309,21.6508,-0.27533,0,0,0,0,0,0,0,-1,1784,715,21.6508,0.275359
567,309,18.7012,6.53198,0,0,0,0,0,0,0,-1,1791,715,18.7012,-6.53195
574,309,20.6499,1.4809,0,0,0,0,0,0,0,-1,1798,715,20.6499,-1.48087
581,309,20.2668,2.29675,0,0,0,0,0,0,0,-1,1805,715,20.2669,-2.29676
588,309,20.0039,2.70148,0,0,0,0,0,0,0,-1,1812,715,20.0039,-2.70145
595,309,19.585,3.71558,0,0,0,0,0,0,0,-1,1819,715,19.5849,-3.71555
602,309,11.0811,3.47772,0,0,0,0,0,0,0,-1,1826,715,11.0811,-3.47772
609,309,13.733,-0.534302,0,0,0,0,0,0,0,-1,1833,715,13.7331,0.534282
616,309,13.759,-0.259338,0.00196632,-0.00277274,0.00246402,0.00301527,-0.0038217,0.402472,0.00395647,0.0270677,1840,715,13.759,0.259346
623,309,13.7665,0.000732422,0.000805887,-0.00221699,0.00163024,0.00151754,-0.00292864,0.411598,0.00260974,0.0108417,1847,715,13.7665,-0.000704195
630,309,13.7498,0.276062,-0.000189362,-0.00188103,0.000994622,0.000270449,-0.00234084,0.433033,0.00165808,0.0110068,1854,715,13.7498,-0.276044
637,309,13.728,0.565369,-0.000455048,-0.00132916,0.000349427,-0.000332535,-0.00145168,0.337218,0.000878182,0.0138029,1861,715,13.7281,-0.565353
644,309,13.7209,0.843079,-0.000525034,-0.00098615,-0.000114473,-0.000498179,-0.001013,-0.230424,0.000584885,0.0150582,1868,715,13.7209,-0.843101
651,309,13.7312,1.1084,-0.000406956,-0.000697444,-0.000357242,-0.00016656,-0.00093784,-0.59232,0.000577765,0.0137022,1875,715,13.7312,-1.10843
658,309,13.7407,1.39301,6.521e-05,-0.000123409,-0.000393685,0.000375724,-0.000433923,-0.667836,0.000467852,0.0186575,1882,715,13.7407,-1.39298
665,309,13.7378,1.66516,0.000283709,0.000350143,0.000165717,0.000485939,0.000147913,0.88431,0.000287625,0.0168228,1889,715,13.7377,-1.66514
672,309,13.735,1.91595,0.000227485,0.00114797,0.00113566,0.0019131,-0.000537644,0.977917,0.00148737,0.0146001,1896,715,13.7349,-1.91597
679,309,13.7672,2.19037,0.000275428,0.0019536,0.00246142,0.00371502,-0.001486,0.949669,0.00309337,0.0144585,1903,715,13.7672,-2.19034
686,309,13.7256,2.45679,3.38914e-05,0.00303566,0.00445135,0.00623235,-0.00316279,0.948,0.00551994,0.020238,1910,715,13.7256,-2.45676
693,309,13.499,2.72186,-0.000714281,0.00430738,0.00736526,0.00957802,-0.00598492,0.949671,0.00906474,0.0371742,1917,715,13.4991,-2.72185
700,309,13.4075,3.06946,0,0,0,0,0,0,0,-1,1924,715,13.4075,-3.06947
707,309,16.2402,4.17773,0,0,0,0,0,0,0,-1,1931,715,16.2403,-4.17773
714,309,16.0376,4.71063,-0.00875252,0.0107621,0.0244557,0.0273351,-0.0253256,0.975211,0.030411,0.0465973,1938,715,16.0376,-4.71063
721,309,15.8263,5.22046,-0.0146715,0.0134123,0.0330859,0.0353127,-0.036572,0.986083,0.0415048,0.044914,1945,715,15.8263,-5.22049
728,309,0,0,0,0,0,0,0,0,0,-1,1952,715,0,0
735,309,0,0,0,0,0,0,0,0,0,-1,1959,715,0,0
742,309,0,0,0,0,0,0,0,0,0,-1,1966,715,0,0
749,309,0,0,0,0,0,0,0,0,0,-1,1973,715,0,0
756,309,0,0,0,0,0,0,0,0,0,-1,1980,715,0,0
763,309,0,0,0,0,0,0,0,0,0,-1,1987,715,0,0
770,309,0,0,0,0,0,0,0,0,0,-1,1994,715,0,0
777,309,0,0,0,0,0,0,0,0,0,-1,2001,715,0,0
784,309,0,0,0,0,0,0,0,0,0,-1,2008,715,0,0
791,309,0,0,0,0,0,0,0,0,0,-1,2015,715,0,0
798,309,0,0,0,0,0,0,0,0,0,-1,2022,715,0,0
805,309,0,0,0,0,0,0,0,0,0,-1,2029,715,0,0
812,309,0,0,0,0,0,0,0,0,0,-1,2036,715,0,0
-700,302,0,0,0,0,0,0,0,0,0,-1,524,722,0,0
-693,302,0,0,0,0,0,0,0,0,0,-1,531,722,0,0
-686,302,0,0,0,0,0,0,0,0,0,-1,538,722,0,0
-679,302,0,0,0,0,0,0,0,0,0,-1,545,722,0,0
-672,302,0,0,0,0,0,0,0,0,0,-1,552,722,0,0
-665,302,0,0,0,0,0,0,0,0,0,-1,559,722,0,0
-658,302,0,0,0,0,0,0,0,0,0,-1,566,722,0,0
-651,302,0,0,0,0,0,0,0,0,0,-1,573,722,0,0
-644,302,0,0,0,0,0,0,0,0,0,-1,580,722,0,0
-637,302,0,0,0,0,0,0,0,0,0,-1,587,722,0,0
-630,302,0,0,0,0,0,0,0,0,0,-1,594,722,0,0
-623,302,0,0,0,0,0,0,0,0,0,-1,601,722,0,0
-616,302,0,0,0,0,0,0,0,0,0,-1,608,722,0,0
-609,302,-6.14014,-3.6167,0,0,0,0,0,0,0,-1,615,722,-6.14016,3.61669
-602,302,0.92865,-1.99158,0,0,0,0,0,0,0,-1,622,722,0.928637,1.99157
-595,302,-7.89941,2.13641,0,0,0,0,0,0,0,-1,629,722,-7.89939,-2.13639
-588,302,-7.10895,1.79163,0,0,0,0,0,0,0,-1,636,722,-7.10896,-1.79163
-581,302,-5.32599,0.902771,0,0,0,0,0,0,0,-1,643,722,-5.32601,-0.902771
-574,302,-5.98859,0.333801,0,0,0,0,0,0,0,-1,650,722,-5.98859,-0.333808
-567,302,-7.09949,0.163818,0,0,0,0,0,0,0,-1,657,722,-7.09949,-0.163822
-560,302,-7.42651,0.200317,-0.00725909,0.0125864,0.0114022,0.0177789,-0.0124516,1.14346,0.0175437,0.0421242,664,722,-7.42653,-0.200336
-553,302,-7.68823,0.206726,-0.00608134,0.00615404,0.00831361,0.0103583,-0.0102856,1.10259,0.0119188,0.0176465,671,722,-7.68823,-0.20672
-546,302,-7.70801,-0.0709839,-0.00516569,0.00149729,0.00552338,0.00461612,-0.00828452,1.05677,0.00754789,0.014822,678,722,-7.70802,0.0709952
-539,302,-7.69531,-0.290344,-0.0042667,0.000996199,0.00404876,0.00319352,-0.00646401,1.07356,0.00568135,0.0146136,685,722,-7.69529,0.290331
-532,302,-7.69397,-0.536926,-0.00280795,0.000125572,0.00323677,0.00221241,-0.00489479,0.998136,0.00419963,0.0133222,692,722,-7.69395,0.536936
-525,302,-7.70117,-0.81073,-0.00167566,-0.000800977,0.00297995,0.00177355,-0.00425019,0.858259,0.00357445,0.0184346,699,722,-7.70117,0.810708
-518,302,-7.71301,-1.06012,-0.000692763,-0.00189469,0.00300311,0.00176892,-0.00435638,0.686646,0.0036401,0.0190087,706,722,-7.71301,1.06014
-511,302,-7.69849,-1.28772,-0.0010766,-0.00129757,0.00272876,0.00154391,-0.00391808,0.765164,0.00325127,0.0106552,713,722,-7.69851,1.28772
-504,302,-7.69696,-1.5495,-0.00159561,-0.000892978,0.00305486,0.0018307,-0.00431928,0.842648,0.0036463,0.00961581,720,722,-7.69696,1.54949
-497,302,-7.71204,-1.80054,-0.00279422,0.000167496,0.00329656,0.00230054,-0.00492726,0.996498,0.00426384,0.0137584,727,722,-7.71202,1.80053
-490,302,-7.61194,-1.98572,-0.00456398,0.00249873,0.00306685,0.00364456,-0.00570981,1.21324,0.00544444,0.0381916,734,722,-7.61195,1.98573
-483,302,-7.25177,-1.98761,0,0,0,0,0,0,0,-1,741,722,-7.25175,1.9876
-476,302,-4.29749,-0.203491,0,0,0,0,0,0,0,-1,748,722,-4.29751,0.203464
-469,302,-13.2776,-0.451294,0,0,0,0,0,0,0,-1,755,722,-13.2776,0.451285
-462,302,-13.2405,1.12811,0,0,0,0,0,0,0,-1,762,722,-13.2405,-1.12809
-455,302,-12.5404,1.58252,0,0,0,0,0,0,0,-1,769,722,-12.5404,-1.5825
-448,302,-11.4836,1.28436,0,0,0,0,0,0,0,-1,776,722,-11.4836,-1.28437
-441,302,-10.6285,1.82928,0,0,0,0,0,0,0,-1,783,722,-10.6285,-1.82929
-434,302,-10.0271,2.41241,0,0,0,0,0,0,0,-1,790,722,-10.0271,-2.41243
-427,302,-13.8761,3.5506,0,0,0,0,0,0,0,-1,797,722,-13.8761,-3.55061
-420,302,0,0,0,0,0,0,0,0,0,-1,804,722,0,0
-413,302,0,0,0,0,0,0,0,0,0,-1,811,722,0,0
-406,302,0,0,0,0,0,0,0,0,0,-1,818,722,0,0
-399,302,0,0,0,0,0,0,0,0,0,-1,825,722,0,0
-392,302,0,0,0,0,0,0,0,0,0,-1,832,722,0,0
-385,302,0,0,0,0,0,0,0,0,0,-1,839,722,0,0
-378,302,0,0,0,0,0,0,0,0,0,-1,846,722,0,0
-371,302,0,0,0,0,0,0,0,0,0,-1,853,722,0,0
-364,302,0,0,0,0,0,0,0,0,0,-1,860,722,0,0
-357,302,0,0,0,0,0,0,0,0,0,-1,867,722,0,0
-350,302,0,0,0,0,0,0,0,0,0,-1,874,722,0,0
-343,302,0,0,0,0,0,0,0,0,0,-1,881,722,0,0
-336,302,0,0,0,0,0,0,0,0,0,-1,888,722,0,0
-329,302,0,0,0,0,0,0,0,0,0,-1,895,722,0,0
-322,302,0,0,0,0,0,0,0,0,0,-1,902,722,0,0
-315,302,0,0,0,0,0,0,0,0,0,-1,909,722,0,0
-308,302,0,0,0,0,0,0,0,0,0,-1,916,722,0,0
-301,302,0,0,0,0,0,0,0,0,0,-1,923,722,0,0
-294,302,0,0,0,0,0,0,0,0,0,-1,930,722,0,0
-287,302,0,0,0,0,0,0,0,0,0,-1,937,722,0,0
-280,302,0,0,0,0,0,0,0,0,0,-1,944,722,0,0
-273,302,0,0,0,0,0,0,0,0,0,-1,951,722,0,0
-266,302,0,0,0,0,0,0,0,0,0,-1,958,722,0,0
-259,302,0,0,0,0,0,0,0,0,0,-1,965,722,0,0
-252,302,0,0,0,0,0,0,0,0,0,-1,972,722,0,0
-245,302,0,0,0,0,0,0,0,0,0,-1,979,722,0,0
-238,302,0,0,0,0,0,0,0,0,0,-1,986,722,0,0
-231,302,0,0,0,0,0,0,0,0,0,-1,993,722,0,0
-224,302,0,0,0,0,0,0,0,0,0,-1,1000,722,0,0
-217,302,0,0,0,0,0,0,0,0,0,-1,1007,722,0,0
-210,302,0,0,0,0,0,0,0,0,0,-1,1014,722,0,0
-203,302,0,0,0,0,0,0,0,0,0,-1,1021,722,0,0
-196,302,0,0,0,0,0,0,0,0,0,-1,1028,722,0,0
-189,302,0,0,0,0,0,0,0,0,0,-1,1035,722,0,0
-182,302,0,0,0,0,0,0,0,0,0,-1,1042,722,0,0
-175,302,0,0,0,0,0,0,0,0,0,-1,1049,722,0,0
-168,302,0,0,0,0,0,0,0,0,0,-1,1056,722,0,0
-161,302,0,0,0,0,0,0,0,0,0,-1,1063,722,0,0
-154,302,0,0,0,0,0,0,0,0,0,-1,1070,722,0,0
-147,302,0,0,0,0,0,0,0,0,0,-1,1077,722,0,0
-140,302,0,0,0,0,0,0,0,0,0,-1,1084,722,0,0
-133,302,0,0,0,0,0,0,0,0,0,-1,1091,722,0,0
-126,302,0,0,0,0,0,0,0,0,0,-1,1098,722,0,0
-119,302,0,0,0,0,0,0,0,0,0,-1,1105,722,0,0
-112,302,0,0,0,0,0,0,0,0,0,-1,1112,722,0,0
-105,302,0,0,0,0,0,0,0,0,0,-1,1119,722,0,0
-98,302,0,0,0,0,0,0,0,0,0,-1,1126,722,0,0
-91,302,0,0,0,0,0,0,0,0,0,-1,1133,722,0,0
-84,302,0,0,0,0,0,0,0,0,0,-1,1140,722,0,0
-77,302,0,0,0,0,0,0,0,0,0,-1,1147,722,0,0
-70,302,0,0,0,0,0,0,0,0,0,-1,1154,722,0,0
-63,302,0,0,0,0,0,0,0,0,0,-1,1161,722,0,0
-56,302,0,0,0,0,0,0,0,0,0,-1,1168,722,0,0
-49,302,0,0,0,0,0,0,0,0,0,-1,1175,722,0,0
-42,302,0,0,0,0,0,0,0,0,0,-1,1182,722,0,0
-35,302,0,0,0,0,0,0,0,0,0,-1,1189,722,0,0
-28,302,0,0,0,0,0,0,0,0,0,-1,1196,722,0,0
-21,302,0,0,0,0,0,0,0,0,0,-1,1203,722,0,0
-14,302,0,0,0,0,0,0,0,0,0,-1,1210,722,0,0
-7,302,0,0,0,0,0,0,0,0,0,-1,1217,722,0,0
0,302,0,0,0,0,0,0,0,0,0,-1,1224,722,0,0
7,302,0,0,0,0,0,0,0,0,0,-1,1231,722,0,0
14,302,0,0,0,0,0,0,0,0,0,-1,1238,722,0,0
21,302,0,0,0,0,0,0,0,0,0,-1,1245,722,0,0
28,302,0,0,0,0,0,0,0,0,0,-1,1252,722,0,0
35,302,0,0,0,0,0,0,0,0,0,-1,1259,722,0,0
42,302,0,0,0,0,0,0,0,0,0,-1,1266,722,0,0
49,302,0,0,0,0,0,0,0,0,0,-1,1273,722,0,0
56,302,0,0,0,0,0,0,0,0,0,-1,1280,722,0,0
63,302,0,0,0,0,0,0,0,0,0,-1,1287,722,0,0
70,302,0,0,0,0,0,0,0,0,0,-1,1294,722,0,0
77,302,0,0,0,0,0,0,0,0,0,-1,1301,722,0,0
84,302,0,0,0,0,0,0,0,0,0,-1,1308,722,0,0
91,302,0,0,0,0,0,0,0,0,0,-1,1315,722,0,0
98,302,0,0,0,0,0,0,0,0,0,-1,1322,722,0,0
105,302,0,0,0,0,0,0,0,0,0,-1,1329,722,0,0
112,302,0,0,0,0,0,0,0,0,0,-1,1336,722,0,0
119,302,0,0,0,0,0,0,0,0,0,-1,1343,722,0,0
126,302,0,0,0,0,0,0,0,0,0,-1,1350,722,0,0
133,302,0,0,0,0,0,0,0,0,0,-1,1357,722,0,0
140,302,0,0,0,0,0,0,0,0,0,-1,1364,722,0,0
147,302,0,0,0,0,0,0,0,0,0,-1,1371,722,0,0
154,302,0,0,0,0,0,0,0,0,0,-1,1378,722,0,0
161,302,0,0,0,0,0,0,0,0,0,-1,1385,722,0,0
168,302,0,0,0,0,0,0,0,0,0,-1,1392,722,0,0
175,302,0,0,0,0,0,0,0,0,0,-1,1399,722,0,0
182,302,0,0,0,0,0,0,0,0,0,-1,1406,722,0,0
189,302,0,0,0,0,0,0,0,0,0,-1,1413,722,0,0
196,302,0,0,0,0,0,0,0,0,0,-1,1420,722,0,0
203,302,0,0,0,0,0,0,0,0,0,-1,1427,722,0,0
210,302,0,0,0,0,0,0,0,0,0,-1,1434,722,0,0
217,302,0,0,0,0,0,0,0,0,0,-1,1441,722,0,0
224,302,0,0,0,0,0,0,0,0,0,-1,1448,722,0,0
231,302,0,0,0,0,0,0,0,0,0,-1,1455,722,0,0
238,302,0,0,0,0,0,0,0,0,0,-1,1462,722,0,0
245,302,0,0,0,0,0,0,0,0,0,-1,1469,722,0,0
252,302,0,0,0,0,0,0,0,0,0,-1,1476,722,0,0
259,302,0,0,0,0,0,0,0,0,0,-1,1483,722,0,0
266,302,0,0,0,0,0,0,0,0,0,-1,1490,722,0,0
273,302,0,0,0,0,0,0,0,0,0,-1,1497,722,0,0
280,302,0,0,0,0,0,0,0,0,0,-1,1504,722,0,0
287,302,0,0,0,0,0,0,0,0,0,-1,1511,722,0,0
294,302,0,0,0,0,0,0,0,0,0,-1,1518,722,0,0
301,302,0,0,0,0,0,0,0,0,0,-1,1525,722,0,0
308,302,0,0,0,0,0,0,0,0,0,-1,1532,722,0,0
315,302,0,0,0,0,0,0,0,0,0,-1,1539,722,0,0
322,302,0,0,0,0,0,0,0,0,0,-1,1546,722,0,0
329,302,0,0,0,0,0,0,0,0,0,-1,1553,722,0,0
336,302,0,0,0,0,0,0,0,0,0,-1,1560,722,0,0
343,302,0,0,0,0,0,0,0,0,0,-1,1567,722,0,0
350,302,0,0,0,0,0,0,0,0,0,-1,1574,722,0,0
357,302,0,0,0,0,0,0,0,0,0,-1,1581,722,0,0
364,302,0,0,0,0,0,0,0,0,0,-1,1588,722,0,0
371,302,0,0,0,0,0,0,0,0,0,-1,1595,722,0,0
378,302,0,0,0,0,0,0,0,0,0,-1,1602,722,0,0
385,302,0,0,0,0,0,0,0,0,0,-1,1609,722,0,0
392,302,0,0,0,0,0,0,0,0,0,-1,1616,722,0,0
399,302,0,0,0,0,0,0,0,0,0,-1,1623,722,0,0
406,302,0,0,0,0,0,0,0,0,0,-1,1630,722,0,0
413,302,0,0,0,0,0,0,0,0,0,-1,1637,722,0,0
420,302,0,0,0,0,0,0,0,0,0,-1,1644,722,0,0
427,302,0,0,0,0,0,0,0,0,0,-1,1651,722,0,0
434,302,0,0,0,0,0,0,0,0,0,-1,1658,722,0,0
441,302,0,0,0,0,0,0,0,0,0,-1,1665,722,0,0
448,302,0,0,0,0,0,0,0,0,0,-1,1672,722,0,0
455,302,0,0,0,0,0,0,0,0,0,-1,1679,722,0,0
462,302,0,0,0,0,0,0,0,0,0,-1,1686,722,0,0
469,302,0,0,0,0,0,0,0,0,0,-1,1693,722,0,0
476,302,0,0,0,0,0,0,0,0,0,-1,1700,722,0,0
483,302,0,0,0,0,0,0,0,0,0,-1,1707,722,0,0
490,302,0,0,0,0,0,0,0,0,0,-1,1714,722,0,0
497,302,0,0,0,0,0,0,0,0,0,-1,1721,722,0,0
504,302,0,0,0,0,0,0,0,0,0,-1,1728,722,0,0
511,302,0,0,0,0,0,0,0,0,0,-1,1735,722,0,0
518,302,0,0,0,0,0,0,0,0,0,-1,1742,722,0,0
525,302,0,0,0,0,0,0,0,0,0,-1,1749,722,0,0
532,302,0,0,0,0,0,0,0,0,0,-1,1756,722,0,0
539,302,0,0,0,0,0,0,0,0,0,-1,1763,722,0,0
546,302,15.8817,5.34479,0,0,0,0,0,0,0,-1,1770,722,15.8818,-5.34477
553,302,16.7661,4.97906,0,0,0,0,0,0,0,-1,1777,722,16.7661,-4.97906
560,302,18.0425,4.83038,0,0,0,0,0,0,0,-1,1784,722,18.0425,-4.83037
567,302,19.3651,5.58191,0,0,0,0,0,0,0,-1,1791,722,19.3651,-5.5819
574,302,20.6876,6.33344,0,0,0,0,0,0,0,-1,1798,722,20.6876,-6.33344
581,302,21.2574,2.7666,0,0,0,0,0,0,0,-1,1805,722,21.2575,-2.76657
588,302,20.2638,2.61786,0,0,0,0,0,0,0,-1,1812,722,20.2638,-2.61788
595,302,20.5049,3.34808,0,0,0,0,0,0,0,-1,1819,722,20.5049,-3.34808
602,302,14.7349,5.21246,0,0,0,0,0,0,0,-1,1826,722,14.7349,-5.21247
609,302,11.1578,-0.125854,0,0,0,0,0,0,0,-1,1833,722,11.1579,0.125839
616,302,13.9984,-0.223267,0,0,0,0,0,0,0,-1,1840,722,13.9984,0.223296
623,302,14.0223,0.0189819,0.000683451,-0.00194216,0.00429261,0.00385952,-0.00511823,0.637,0.00520026,0.0144897,1847,722,14.0223,-0.0190007
630,302,13.9921,0.29187,-0.000594787,-0.00171948,0.00327675,0.00216752,-0.00448179,0.700417,0.00391572,0.0115563,1854,722,13.9921,-0.291881
637,302,13.9677,0.578491,-0.000948401,-0.00116941,0.00205744,0.0010015,-0.00311931,0.758569,0.00248167,0.0147698,1861,722,13.9676,-0.578508
644,302,13.9799,0.855591,-0.000909868,-0.000800707,0.00110317,0.000249229,-0.0019598,0.810116,0.00139704,0.0156376,1868,722,13.9799,-0.855593
651,302,14.0028,1.12524,-0.000602473,-0.000555677,0.000462355,-0.000116128,-0.00104202,0.810679,0.000659389,0.014551,1875,722,14.0028,-1.12526
658,302,14.0322,1.38336,2.84744e-05,-1.62586e-05,9.80871e-05,0.000106713,-9.4497e-05,0.673301,0.00011624,0.0150669,1882,722,14.0323,-1.38334
665,302,14.0067,1.64825,0.000457947,0.000342475,0.000316706,0.000722137,7.82858e-05,0.695237,0.000457567,0.0147409,1889,722,14.0067,-1.64827
672,302,14.006,1.90051,0.000636716,0.000958856,0.000954643,0.00176592,-0.00017035,0.868972,0.00123798,0.0114107,1896,722,14.006,-1.90053
679,302,14.0159,2.17767,0.000873197,0.00152163,0.0019925,0.00321612,-0.00082129,0.866051,0.0024639,0.00874168,1903,722,14.0159,-2.17766
686,302,14.027,2.44025,0.000987036,0.00235032,0.00352411,0.0052581,-0.00192075,0.88093,0.00429141,0.0125376,1910,722,14.027,-2.44026
693,302,13.8364,2.62396,0.000742429,0.0031614,0.0057131,0.00779164,-0.0038878,0.88971,0.00686754,0.0296525,1917,722,13.8365,-2.62397
700,302,14.2336,3.04547,0,0,0,0,0,0,0,-1,1924,722,14.2337,-3.04547
707,302,14.6874,3.92834,0,0,0,0,0,0,0,-1,1931,722,14.6873,-3.92832
714,302,15.5037,4.50464,0,0,0,0,0,0,0,-1,1938,722,15.5037,-4.50461
721,302,15.7507,5.10486,0,0,0,0,0,0,0,-1,1945,722,15.7507,-5.10485
728,302,16.0975,3.23981,0,0,0,0,0,0,0,-1,1952,722,16.0975,-3.23983
735,302,0,0,0,0,0,0,0,0,0,-1,1959,722,0,0
742,302,0,0,0,0,0,0,0,0,0,-1,1966,722,0,0
749,302,0,0,0,0,0,0,0,0,0,-1,1973,722,0,0
756,302,0,0,0,0,0,0,0,0,0,-1,1980,722,0,0
763,302,0,0,0,0,0,0,0,0,0,-1,1987,722,0,0
770,302,0,0,0,0,0,0,0,0,0,-1,1994,722,0,0
777,302,0,0,0,0,0,0,0,0,0,-1,2001,722,0,0
784,302,0,0,0,0,0,0,0,0,0,-1,2008,722,0,0
791,302,0,0,0,0,0,0,0,0,0,-1,2015,722,0,0
798,302,0,0,0,0,0,0,0,0,0,-1,2022,722,0,0
805,302,0,0,0,0,0,0,0,0,0,-1,2029,722,0,0
812,302,0,0,0,0,0,0,0,0,0,-1,2036,722,0,0
-700,295,0,0,0,0,0,0,0,0,0,-1,524,729,0,0
-693,295,0,0,0,0,0,0,0,0,0,-1,531,729,0,0
-686,295,0,0,0,0,0,0,0,0,0,-1,538,729,0,0
-679,295,0,0,0,0,0,0,0,0,0,-1,545,729,0,0
-672,295,0,0,0,0,0,0,0,0,0,-1,552,729,0,0
-665,295,0,0,0,0,0,0,0,0,0,-1,559,729,0,0
-658,295,0,0,0,0,0,0,0,0,0,-1,566,729,0,0
-651,295,0,0,0,0,0,0,0,0,0,-1,573,729,0,0
-644,295,0,0,0,0,0,0,0,0,0,-1,580,729,0,0
-637,295,0,0,0,0,0,0,0,0,0,-1,587,729,0,0
-630,295,0,0,0,0,0,0,0,0,0,-1,594,729,0,0
-623,295,0,0,0,0,0,0,0,0,0,-1,601,729,0,0
-616,295,-13.4911,1.31738,0,0,0,0,0,0,0,-1,608,729,-13.4911,-1.3174
-609,295,-13.0905,2.35876,0,0,0,0,0,0,0,-1,615,729,-13.0905,-2.35875
-602,295,-0.795044,-1.32373,0,0,0,0,0,0,0,-1,622,729,-0.795031,1.32371
-595,295,-0.615479,-1.95447,0,0,0,0,0,0,0,-1,629,729,-0.615481,1.95445
-588,295,-7.98999,1.56903,0,0,0,0,0,0,0,-1,636,729,-7.98997,-1.56905
-581,295,-6.09229,1.0838,0,0,0,0,0,0,0,-1,643,729,-6.09227,-1.08378
-574,295,-6.72974,0.570129,-0.00479485,0.0248014,0.0171188,0.0326315,-0.012625,1.14181,0.0269664,0.0436622,650,729,-6.72975,-0.570122
-567,295,-7.42523,0.418091,-0.0049001,0.0170511,0.0140178,0.0238789,-0.0117279,1.11754,0.0209528,0.0427413,657,729,-7.4252,-0.418111
-560,295,-7.8952,0.403015,-0.00565571,0.0101414,0.0105648,0.0154338,-0.0109481,1.10639,0.0153048,0.0244761,664,729,-7.89521,-0.40303
-553,295,-7.90503,0.154724,-0.00537785,0.00459337,0.00788101,0.00893335,-0.00971782,1.06743,0.0107714,0.0159169,671,729,-7.90502,-0.154745
-546,295,-7.94781,-0.0564575,-0.00481338,0.000115236,0.00544261,0.00362544,-0.00832359,0.99798,0.00707429,0.0190995,678,729,-7.94781,0.0564551
-539,295,-7.92889,-0.273621,-0.00426283,-0.000218411,0.00424801,0.00246416,-0.0069454,1.00755,0.00563423,0.0177414,685,729,-7.92891,0.273639
-532,295,-7.948,-0.53717,-0.00296408,-0.000998166,0.00370474,0.0018518,-0.00581404,0.915073,0.00461874,0.0147895,692,729,-7.94802,0.537199
-525,295,-7.95276,-0.795715,-0.00202637,-0.00183547,0.0037087,0.00177901,-0.00564085,0.798264,0.00447309,0.0143601,699,729,-7.95278,0.795734
-518,295,-7.95862,-1.02582,-0.00124691,-0.00291083,0.00399507,0.00200191,-0.00615965,0.682742,0.00491166,0.0104164,706,729,-7.95862,1.0258
-511,295,-7.93506,-1.28143,-0.00216375,-0.00172119,0.0038071,0.00187105,-0.00575599,0.814427,0.00458994,0.00883518,713,729,-7.93503,1.28142
-504,295,-7.94324,-1.55304,-0.00338088,-0.000950722,0.00427967,0.00228302,-0.00661462,0.923717,0.00533611,0.0104875,720,729,-7.94321,1.55303
-497,295,-7.97632,-1.77368,-0.00526225,0.000627285,0.00451623,0.00307399,-0.00770895,1.0743,0.00641438,0.0162878,727,729,-7.97634,1.77365
-490,295,-8.00256,-1.97784,0,0,0,0,0,0,0,-1,734,729,-8.00256,1.97783
-483,295,-6.84503,-0.454651,0,0,0,0,0,0,0,-1,741,729,-6.84505,0.454639
-476,295,-13.1738,-0.836243,0,0,0,0,0,0,0,-1,748,729,-13.1738,0.836223
-469,295,-13.624,-0.496948,0,0,0,0,0,0,0,-1,755,729,-13.6239,0.496961
-462,295,-14.2062,1.91132,0,0,0,0,0,0,0,-1,762,729,-14.2063,-1.91134
-455,295,-13.173,1.6167,-0.023136,0.0446499,-0.016033,0.0482508,-0.0267369,-1.34987,0.0438841,0.0454427,769,729,-13.173,-1.61668
-448,295,-12.1517,1.29523,0,0,0,0,0,0,0,-1,776,729,-12.1517,-1.29524
-441,295,-11.0433,1.04706,0,0,0,0,0,0,0,-1,783,729,-11.0434,-1.04704
-434,295,-9.90332,1.16724,0,0,0,0,0,0,0,-1,790,729,-9.90334,-1.16725
-427,295,0,0,0,0,0,0,0,0,0,-1,797,729,0,0
-420,295,0,0,0,0,0,0,0,0,0,-1,804,729,0,0
-413,295,0,0,0,0,0,0,0,0,0,-1,811,729,0,0
-406,295,0,0,0,0,0,0,0,0,0,-1,818,729,0,0
-399,295,0,0,0,0,0,0,0,0,0,-1,825,729,0,0
-392,295,0,0,0,0,0,0,0,0,0,-1,832,729,0,0
-385,295,0,0,0,0,0,0,0,0,0,-1,839,729,0,0
-378,295,0,0,0,0,0,0,0,0,0,-1,846,729,0,0
-371,295,0,0,0,0,0,0,0,0,0,-1,853,729,0,0
-364,295,0,0,0,0,0,0,0,0,0,-1,860,729,0,0
-357,295,0,0,0,0,0,0,0,0,0,-1,867,729,0,0
-350,295,0,0,0,0,0,0,0,0,0,-1,874,729,0,0
-343,295,0,0,0,0,0,0,0,0,0,-1,881,729,0,0
-336,295,0,0,0,0,0,0,0,0,0,-1,888,729,0,0
-329,295,0,0,0,0,0,0,0,0,0,-1,895,729,0,0
-322,295,0,0,0,0,0,0,0,0,0,-1,902,729,0,0
-315,295,0,0,0,0,0,0,0,0,0,-1,909,729,0,0
-308,295,0,0,0,0,0,0,0,0,0,-1,916,729,0,0
-301,295,0,0,0,0,0,0,0,0,0,-1,923,729,0,0
-294,295,0,0,0,0,0,0,0,0,0,-1,930,729,0,0
-287,295,0,0,0,0,0,0,0,0,0,-1,937,729,0,0
-280,295,0,0,0,0,0,0,0,0,0,-1,944,729,0,0
-273,295,0,0,0,0,0,0,0,0,0,-1,951,729,0,0
-266,295,0,0,0,0,0,0,0,0,0,-1,958,729,0,0
-259,295,0,0,0,0,0,0,0,0,0,-1,965,729,0,0
-252,295,0,0,0,0,0,0,0,0,0,-1,972,729,0,0
-245,295,0,0,0,0,0,0,0,0,0,-1,979,729,0,0
-238,295,0,0,0,0,0,0,0,0,0,-1,986,729,0,0
-231,295,0,0,0,0,0,0,0,0,0,-1,993,729,0,0
-224,295,0,0,0,0,0,0,0,0,0,-1,1000,729,0,0
-217,295,0,0,0,0,0,0,0,0,0,-1,1007,729,0,0
-210,295,0,0,0,0,0,0,0,0,0,-1,1014,729,0,0
-203,295,0,0,0,0,0,0,0,0,0,-1,1021,729,0,0
-196,295,0,0,0,0,0,0,0,0,0,-1,1028,729,0,0
-189,295,0,0,0,0,0,0,0,0,0,-1,1035,729,0,0
-182,295,0,0,0,0,0,0,0,0,0,-1,1042,729,0,0
-175,295,0,0,0,0,0,0,0,0,0,-1,1049,729,0,0
-168,295,0,0,0,0,0,0,0,0,0,-1,1056,729,0,0
-161,295,0,0,0,0,0,0,0,0,0,-1,1063,729,0,0
-154,295,0,0,0,0,0,0,0,0,0,-1,1070,729,0,0
-147,295,0,0,0,0,0,0,0,0,0,-1,1077,729,0,0
-140,295,0,0,0,0,0,0,0,0,0,-1,1084,729,0,0
-133,295,0,0,0,0,0,0,0,0,0,-1,1091,729,0,0
-126,295,0,0,0,0,0,0,0,0,0,-1,1098,729,0,0
-119,295,0,0,0,0,0,0,0,0,0,-1,1105,729,0,0
-112,295,0,0,0,0,0,0,0,0,0,-1,1112,729,0,0
-105,295,0,0,0,0,0,0,0,0,0,-1,1119,729,0,0
-98,295,0,0,0,0,0,0,0,0,0,-1,1126,729,0,0
-91,295,0,0,0,0,0,0,0,0,0,-1,1133,729,0,0
-84,295,0,0,0,0,0,0,0,0,0,-1,1140,729,0,0
-77,295,0,0,0,0,0,0,0,0,0,-1,1147,729,0,0
-70,295,0,0,0,0,0,0,0,0,0,-1,1154,729,0,0
-63,295,0,0,0,0,0,0,0,0,0,-1,1161,729,0,0
-56,295,0,0,0,0,0,0,0,0,0,-1,1168,729,0,0
-49,295,0,0,0,0,0,0,0,0,0,-1,1175,729,0,0
-42,295,0,0,0,0,0,0,0,0,0,-1,1182,729,0,0
-35,295,0,0,0,0,0,0,0,0,0,-1,1189,729,0,0
-28,295,0,0,0,0,0,0,0,0,0,-1,1196,729,0,0
-21,295,0,0,0,0,0,0,0,0,0,-1,1203,729,0,0
-14,295,0,0,0,0,0,0,0,0,0,-1,1210,729,0,0
-7,295,0,0,0,0,0,0,0,0,0,-1,1217,729,0,0
0,295,0,0,0,0,0,0,0,0,0,-1,1224,729,0,0
7,295,0,0,0,0,0,0,0,0,0,-1,1231,729,0,0
14,295,0,0,0,0,0,0,0,0,0,-1,1238,729,0,0
21,295,0,0,0,0,0,0,0,0,0,-1,1245,729,0,0
28,295,0,0,0,0,0,0,0,0,0,-1,1252,729,0,0
35,295,0,0,0,0,0,0,0,0,0,-1,1259,729,0,0
42,295,0,0,0,0,0,0,0,0,0,-1,1266,729,0,0
49,295,0,0,0,0,0,0,0,0,0,-1,1273,729,0,0
56,295,0,0,0,0,0,0,0,0,0,-1,1280,729,0,0
63,295,0,0,0,0,0,0,0,0,0,-1,1287,729,0,0
70,295,0,0,0,0,0,0,0,0,0,-1,1294,729,0,0
77,295,0,0,0,0,0,0,0,0,0,-1,1301,729,0,0
84,295,0,0,0,0,0,0,0,0,0,-1,1308,729,0,0
91,295,0,0,0,0,0,0,0,0,0,-1,1315,729,0,0
98,295,0,0,0,0,0,0,0,0,0,-1,1322,729,0,0
105,295,0,0,0,0,0,0,0,0,0,-1,1329,729,0,0
112,295,0,0,0,0,0,0,0,0,0,-1,1336,729,0,0
119,295,0,0,0,0,0,0,0,0,0,-1,1343,729,0,0
126,295,0,0,0,0,0,0,0,0,0,-1,1350,729,0,0
133,295,0,0,0,0,0,0,0,0,0,-1,1357,729,0,0
140,295,0,0,0,0,0,0,0,0,0,-1,1364,729,0,0
147,295,0,0,0,0,0,0,0,0,0,-1,1371,729,0,0
154,295,0,0,0,0,0,0,0,0,0,-1,1378,729,0,0
161,295,0,0,0,0,0,0,0,0,0,-1,1385,729,0,0
168,295,0,0,0,0,0,0,0,0,0,-1,1392,729,0,0
175,295,0,0,0,0,0,0,0,0,0,-1,1399,729,0,0
182,295,0,0,0,0,0,0,0,0,0,-1,1406,729,0,0
189,295,0,0,0,0,0,0,0,0,0,-1,1413,729,0,0
196,295,0,0,0,0,0,0,0,0,0,-1,1420,729,0,0
203,295,0,0,0,0,0,0,0,0,0,-1,1427,729,0,0
210,295,0,0,0,0,0,0,0,0,0,-1,1434,729,0,0
217,295,0,0,0,0,0,0,0,0,0,-1,1441,729,0,0
224,295,0,0,0,0,0,0,0,0,0,-1,1448,729,0,0
231,295,0,0,0,0,0,0,0,0,0,-1,1455,729,0,0
238,295,0,0,0,0,0,0,0,0,0,-1,1462,729,0,0
245,295,0,0,0,0,0,0,0,0,0,-1,1469,729,0,0
252,295,0,0,0,0,0,0,0,0,0,-1,1476,729,0,0
259,295,0,0,0,0,0,0,0,0,0,-1,1483,729,0,0
266,295,0,0,0,0,0,0,0,0,0,-1,1490,729,0,0
273,295,0,0,0,0,0,0,0,0,0,-1,1497,729,0,0
280,295,0,0,0,0,0,0,0,0,0,-1,1504,729,0,0
287,295,0,0,0,0,0,0,0,0,0,-1,1511,729,0,0
294,295,0,0,0,0,0,0,0,0,0,-1,1518,729,0,0
301,295,0,0,0,0,0,0,0,0,0,-1,1525,729,0,0
308,295,0,0,0,0,0,0,0,0,0,-1,1532,729,0,0
315,295,0,0,0,0,0,0,0,0,0,-1,1539,729,0,0
322,295,0,0,0,0,0,0,0,0,0,-1,1546,729,0,0
329,295,0,0,0,0,0,0,0,0,0,-1,1553,729,0,0
336,295,0,0,0,0,0,0,0,0,0,-1,1560,729,0,0
343,295,0,0,0,0,0,0,0,0,0,-1,1567,729,0,0
350,295,0,0,0,0,0,0,0,0,0,-1,1574,729,0,0
357,295,0,0,0,0,0,0,0,0,0,-1,1581,729,0,0
364,295,0,0,0,0,0,0,0,0,0,-1,1588,729,0,0
371,295,0,0,0,0,0,0,0,0,0,-1,1595,729,0,0
378,295,0,0,0,0,0,0,0,0,0,-1,1602,729,0,0
385,295,0,0,0,0,0,0,0,0,0,-1,1609,729,0,0
392,295,0,0,0,0,0,0,0,0,0,-1,1616,729,0,0
399,295,0,0,0,0,0,0,0,0,0,-1,1623,729,0,0
406,295,0,0,0,0,0,0,0,0,0,-1,1630,729,0,0
413,295,0,0,0,0,0,0,0,0,0,-1,1637,729,0,0
420,295,0,0,0,0,0,0,0,0,0,-1,1644,729,0,0
427,295,0,0,0,0,0,0,0,0,0,-1,1651,729,0,0
434,295,0,0,0,0,0,0,0,0,0,-1,1658,729,0,0
441,295,0,0,0,0,0,0,0,0,0,-1,1665,729,0,0
448,295,0,0,0,0,0,0,0,0,0,-1,1672,729,0,0
455,295,0,0,0,0,0,0,0,0,0,-1,1679,729,0,0
462,295,0,0,0,0,0,0,0,0,0,-1,1686,729,0,0
469,295,0,0,0,0,0,0,0,0,0,-1,1693,729,0,0
476,295,0,0,0,0,0,0,0,0,0,-1,1700,729,0,0
483,295,0,0,0,0,0,0,0,0,0,-1,1707,729,0,0
490,295,0,0,0,0,0,0,0,0,0,-1,1714,729,0,0
497,295,0,0,0,0,0,0,0,0,0,-1,1721,729,0,0
504,295,0,0,0,0,0,0,0,0,0,-1,1728,729,0,0
511,295,0,0,0,0,0,0,0,0,0,-1,1735,729,0,0
518,295,0,0,0,0,0,0,0,0,0,-1,1742,729,0,0
525,295,0,0,0,0,0,0,0,0,0,-1,1749,729,0,0
532,295,0,0,0,0,0,0,0,0,0,-1,1756,729,0,0
539,295,0,0,0,0,0,0,0,0,0,-1,1763,729,0,0
546,295,16.4219,5.28088,0,0,0,0,0,0,0,-1,1770,729,16.4219,-5.28089
553,295,17.2222,4.76135,0,0,0,0,0,0,0,-1,1777,729,17.2222,-4.76137
560,295,18.548,4.12823,0,0,0,0,0,0,0,-1,1784,729,18.5479,-4.12822
567,295,19.7676,4.82178,0,0,0,0,0,0,0,-1,1791,729,19.7675,-4.82178
574,295,21.7506,1.77063,0,0,0,0,0,0,0,-1,1798,729,21.7506,-1.77061
581,295,21.4136,2.34357,0,0,0,0,0,0,0,-1,1805,729,21.4136,-2.34359
588,295,20.8696,2.55627,0,0,0,0,0,0,0,-1,1812,729,20.8697,-2.55626
595,295,20.5913,3.03241,0,0,0,0,0,0,0,-1,1819,729,20.5913,-3.03238
602,295,20.4539,3.32324,0,0,0,0,0,0,0,-1,1826,729,20.4538,-3.32322
609,295,11.7737,2.19989,0,0,0,0,0,0,0,-1,1833,729,11.7736,-2.19988
616,295,14.2863,-0.203125,0,0,0,0,0,0,0,-1,1840,729,14.2862,0.203129
623,295,14.2671,0.0411377,0.000287965,-0.00203398,0.00606505,0.00530216,-0.00704818,0.690832,0.00715419,0.0315143,1847,729,14.2671,-0.041133
630,295,14.2483,0.298523,-0.00119191,-0.00175466,0.00504176,0.00357632,-0.00652289,0.757523,0.00591292,0.0125931,1854,729,14.2483,-0.298526
637,295,14.2417,0.580627,-0.00161642,-0.00109315,0.00357329,0.00222807,-0.00493764,0.821942,0.00423457,0.0135076,1861,729,14.2417,-0.580637
644,295,14.2599,0.858521,-0.00153508,-0.000694515,0.00225352,0.00117758,-0.00340717,0.877589,0.00274936,0.0127275,1868,729,14.2599,-0.8585
651,295,14.2733,1.12219,-0.00110716,-0.000536743,0.00124864,0.000458843,-0.00210275,0.89768,0.00157719,0.0126986,1875,729,14.2733,-1.12219
658,295,14.2734,1.39642,-0.000351377,-6.31885e-05,0.000556873,0.000367931,-0.000782497,0.912,0.000678423,0.0125152,1882,729,14.2734,-1.39643
665,295,14.2635,1.65186,0.000261289,0.000170191,0.000417285,0.000635504,-0.000204024,0.731035,0.00050559,0.0116742,1889,729,14.2635,-1.65186
672,295,14.255,1.89575,0.000679383,0.000609419,0.000674014,0.00131932,-3.05198e-05,0.759471,0.000889896,0.0127377,1896,729,14.255,-1.89574
679,295,14.2546,2.18304,0.00111872,0.000951661,0.0013633,0.00240105,-0.000330666,0.754801,0.00172154,0.00941156,1903,729,14.2546,-2.18304
686,295,14.2783,2.44208,0.00159168,0.00164846,0.00250647,0.0041267,-0.000886561,0.791062,0.00308935,0.00884975,1910,729,14.2783,-2.44208
693,295,14.266,2.67767,0.00205506,0.00203657,0.00411722,0.00616305,-0.00207142,0.784276,0.00494594,0.0231139,1917,729,14.266,-2.67768
700,295,14.3363,3.02588,0.00272206,0.00237743,0.00643904,0.00899109,-0.0038916,0.772021,0.00762959,0.0375062,1924,729,14.3363,-3.02586
707,295,14.7435,3.65332,0.00322598,0.00271444,0.00973259,0.0127062,-0.00676574,0.772261,0.0114152,0.0444232,1931,729,14.7436,-3.65335
714,295,15.1436,4.06885,0,0,0,0,0,0,0,-1,1938,729,15.1436,-4.06887
721,295,15.5116,4.50592,0,0,0,0,0,0,0,-1,1945,729,15.5116,-4.50592
728,295,16.4916,3.75092,0,0,0,0,0,0,0,-1,1952,729,16.4915,-3.75091
735,295,0,0,0,0,0,0,0,0,0,-1,1959,729,0,0
742,295,0,0,0,0,0,0,0,0,0,-1,1966,729,0,0
749,295,0,0,0,0,0,0,0,0,0,-1,1973,729,0,0
756,295,0,0,0,0,0,0,0,0,0,-1,1980,729,0,0
763,295,0,0,0,0,0,0,0,0,0,-1,1987,729,0,0
770,295,0,0,0,0,0,0,0,0,0,-1,1994,729,0,0
777,295,0,0,0,0,0,0,0,0,0,-1,2001,729,0,0
784,295,0,0,0,0,0,0,0,0,0,-1,2008,729,0,0
791,295,0,0,0,0,0,0,0,0,0,-1,2015,729,0,0
798,295,0,0,0,0,0,0,0,0,0,-1,2022,729,0,0
805,295,0,0,0,0,0,0,0,0,0,-1,2029,729,0,0
812,295,0,0,0,0,0,0,0,0,0,-1,2036,729,0,0
-700,288,0,0,0,0,0,0,0,0,0,-1,524,736,0,0
-693,288,0,0,0,0,0,0,0,0,0,-1,531,736,0,0
-686,288,0,0,0,0,0,0,0,0,0,-1,538,736,0,0
-679,288,0,0,0,0,0,0,0,0,0,-1,545,736,0,0
-672,288,0,0,0,0,0,0,0,0,0,-1,552,736,0,0
-665,288,0,0,0,0,0,0,0,0,0,-1,559,736,0,0
-658,288,0,0,0,0,0,0,0,0,0,-1,566,736,0,0
-651,288,0,0,0,0,0,0,0,0,0,-1,573,736,0,0
-644,288,0,0,0,0,0,0,0,0,0,-1,580,736,0,0
-637,288,0,0,0,0,0,0,0,0,0,-1,587,736,0,0
-630,288,0,0,0,0,0,0,0,0,0,-1,594,736,0,0
-623,288,0,0,0,0,0,0,0,0,0,-1,601,736,0,0
-616,288,-13.3572,0.729797,-0.0246015,0.116295,0.0378112,0.125801,-0.0341073,1.3245,0.0972506,0.048463,608,736,-13.3572,-0.729789
-609,288,-13.1706,1.65338,-0.0165633,0.0920484,0.0352887,0.102507,-0.0270218,1.28267,0.0789029,0.0491852,615,736,-13.1706,-1.65337
-602,288,-12.9713,2.50732,0,0,0,0,0,0,0,-1,622,736,-12.9713,-2.50733
-595,288,-11.2771,-0.210388,0,0,0,0,0,0,0,-1,629,736,-11.2771,0.210363
-588,288,-8.19269,1.50598,0,0,0,0,0,0,0,-1,636,736,-8.19268,-1.50601
-581,288,-8.18262,1.06104,0,0,0,0,0,0,0,-1,643,736,-8.18263,-1.06101
-574,288,-8.05206,0.813049,-0.00205251,0.0210108,0.0155702,0.0288547,-0.0098964,1.10413,0.0232483,0.0415146,650,736,-8.05208,-0.813021
-567,288,-8.05493,0.559875,-0.00238185,0.0144774,0.0127405,0.0213245,-0.00922897,1.07766,0.018095,0.0255971,657,736,-8.0549,-0.559873
-560,288,-8.18872,0.398193,-0.00384097,0.00854616,0.0094446,0.0136469,-0.00894168,1.07561,0.0131355,0.0133857,664,736,-8.18871,-0.398165
-553,288,-8.15417,0.188721,-0.00451198,0.00368329,0.00698393,0.00768293,-0.00851162,1.0507,0.00935401,0.0167882,671,736,-8.15419,-0.188737
-546,288,-8.17737,-0.0360107,-0.00433587,-0.000592045,0.00497011,0.00284698,-0.00777489,0.965499,0.00634872,0.0178799,678,736,-8.17735,0.0359861
-539,288,-8.18182,-0.27887,-0.00424755,-0.000895805,0.00409404,0.00185209,-0.00699544,0.979666,0.00538816,0.015834,685,736,-8.18181,0.278891
-532,288,-8.17169,-0.537659,-0.00329837,-0.00167975,0.00385974,0.00145461,-0.00643273,0.888741,0.00484667,0.0127464,692,736,-8.17172,0.537652
-525,288,-8.17047,-0.790222,-0.0027575,-0.00250119,0.00412393,0.00149658,-0.00675527,0.800931,0.00507645,0.0117906,699,736,-8.17045,0.790224
-518,288,-8.18488,-1.03186,-0.00238665,-0.0035729,0.00462422,0.00168233,-0.00764188,0.721614,0.00573817,0.0112806,706,736,-8.18489,1.03185
-511,288,-8.18317,-1.29352,-0.00391369,-0.0018385,0.00449609,0.00173817,-0.00749036,0.898801,0.00566259,0.00829524,713,736,-8.1832,1.29354
-504,288,-8.18494,-1.56317,-0.00581565,-0.00072506,0.00503595,0.00237228,-0.00891299,1.01939,0.00687066,0.00959346,720,736,-8.18497,1.56316
-497,288,-8.18146,-1.71381,-0.00826723,0.00131585,0.00522755,0.00361558,-0.010567,1.15635,0.00850983,0.0214087,727,736,-8.18148,1.71382
-490,288,-8.09784,-1.82477,0,0,0,0,0,0,0,-1,734,736,-8.09785,1.82477
-483,288,-9.32886,0.553772,0,0,0,0,0,0,0,-1,741,736,-9.32885,-0.55379
-476,288,-14.1824,-1.22766,0,0,0,0,0,0,0,-1,748,736,-14.1824,1.22766
-469,288,-14.1815,-0.392822,0,0,0,0,0,0,0,-1,755,736,-14.1815,0.392829
-462,288,-14.4631,1.78772,0,0,0,0,0,0,0,-1,762,736,-14.4631,-1.78774
-455,288,-13.4423,1.56195,0,0,0,0,0,0,0,-1,769,736,-13.4423,-1.56198
-448,288,-12.4215,1.33624,0,0,0,0,0,0,0,-1,776,736,-12.4215,-1.33622
-441,288,-11.6157,0.356445,0,0,0,0,0,0,0,-1,783,736,-11.6157,-0.356446
-434,288,-12.8195,1.03143,0,0,0,0,0,0,0,-1,790,736,-12.8195,-1.03145
-427,288,0,0,0,0,0,0,0,0,0,-1,797,736,0,0
-420,288,0,0,0,0,0,0,0,0,0,-1,804,736,0,0
-413,288,0,0,0,0,0,0,0,0,0,-1,811,736,0,0
-406,288,0,0,0,0,0,0,0,0,0,-1,818,736,0,0
-399,288,0,0,0,0,0,0,0,0,0,-1,825,736,0,0
-392,288,0,0,0,0,0,0,0,0,0,-1,832,736,0,0
-385,288,0,0,0,0,0,0,0,0,0,-1,839,736,0,0
-378,288,0,0,0,0,0,0,0,0,0,-1,846,736,0,0
-371,288,0,0,0,0,0,0,0,0,0,-1,853,736,0,0
-364,288,0,0,0,0,0,0,0,0,0,-1,860,736,0,0
-357,288,0,0,0,0,0,0,0,0,0,-1,867,736,0,0
-350,288,0,0,0,0,0,0,0,0,0,-1,874,736,0,0
-343,288,0,0,0,0,0,0,0,0,0,-1,881,736,0,0
-336,288,0,0,0,0,0,0,0,0,0,-1,888,736,0,0
-329,288,0,0,0,0,0,0,0,0,0,-1,895,736,0,0
-322,288,0,0,0,0,0,0,0,0,0,-1,902,736,0,0
-315,288,0,0,0,0,0,0,0,0,0,-1,909,736,0,0
-308,288,0,0,0,0,0,0,0,0,0,-1,916,736,0,0
-301,288,0,0,0,0,0,0,0,0,0,-1,923,736,0,0
-294,288,0,0,0,0,0,0,0,0,0,-1,930,736,0,0
-287,288,0,0,0,0,0,0,0,0,0,-1,937,736,0,0
-280,288,0,0,0,0,0,0,0,0,0,-1,944,736,0,0
-273,288,0,0,0,0,0,0,0,0,0,-1,951,736,0,0
-266,288,0,0,0,0,0,0,0,0,0,-1,958,736,0,0
-259,288,0,0,0,0,0,0,0,0,0,-1,965,736,0,0
-252,288,0,0,0,0,0,0,0,0,0,-1,972,736,0,0
-245,288,0,0,0,0,0,0,0,0,0,-1,979,736,0,0
-238,288,0,0,0,0,0,0,0,0,0,-1,986,736,0,0
-231,288,0,0,0,0,0,0,0,0,0,-1,993,736,0,0
-224,288,0,0,0,0,0,0,0,0,0,-1,1000,736,0,0
-217,288,0,0,0,0,0,0,0,0,0,-1,1007,736,0,0
-210,288,0,0,0,0,0,0,0,0,0,-1,1014,736,0,0
-203,288,0,0,0,0,0,0,0,0,0,-1,1021,736,0,0
-196,288,0,0,0,0,0,0,0,0,0,-1,1028,736,0,0
-189,288,0,0,0,0,0,0,0,0,0,-1,1035,736,0,0
-182,288,0,0,0,0,0,0,0,0,0,-1,1042,736,0,0
-175,288,0,0,0,0,0,0,0,0,0,-1,1049,736,0,0
-168,288,0,0,0,0,0,0,0,0,0,-1,1056,736,0,0
-161,288,0,0,0,0,0,0,0,0,0,-1,1063,736,0,0
-154,288,0,0,0,0,0,0,0,0,0,-1,1070,736,0,0
-147,288,0,0,0,0,0,0,0,0,0,-1,1077,736,0,0
-140,288,0,0,0,0,0,0,0,0,0,-1,1084,736,0,0
-133,288,0,0,0,0,0,0,0,0,0,-1,1091,736,0,0
-126,288,0,0,0,0,0,0,0,0,0,-1,1098,736,0,0
-119,288,0,0,0,0,0,0,0,0,0,-1,1105,736,0,0
-112,288,0,0,0,0,0,0,0,0,0,-1,1112,736,0,0
-105,288,0,0,0,0,0,0,0,0,0,-1,1119,736,0,0
-98,288,0,0,0,0,0,0,0,0,0,-1,1126,736,0,0
-91,288,0,0,0,0,0,0,0,0,0,-1,1133,736,0,0
-84,288,0,0,0,0,0,0,0,0,0,-1,1140,736,0,0
-77,288,0,0,0,0,0,0,0,0,0,-1,1147,736,0,0
-70,288,0,0,0,0,0,0,0,0,0,-1,1154,736,0,0
-63,288,0,0,0,0,0,0,0,0,0,-1,1161,736,0,0
-56,288,0,0,0,0,0,0,0,0,0,-1,1168,736,0,0
-49,288,0,0,0,0,0,0,0,0,0,-1,1175,736,0,0
-42,288,0,0,0,0,0,0,0,0,0,-1,1182,736,0,0
-35,288,0,0,0,0,0,0,0,0,0,-1,1189,736,0,0
-28,288,0,0,0,0,0,0,0,0,0,-1,1196,736,0,0
-21,288,0,0,0,0,0,0,0,0,0,-1,1203,736,0,0
-14,288,0,0,0,0,0,0,0,0,0,-1,1210,736,0,0
-7,288,0,0,0,0,0,0,0,0,0,-1,1217,736,0,0
0,288,0,0,0,0,0,0,0,0,0,-1,1224,736,0,0
7,288,0,0,0,0,0,0,0,0,0,-1,1231,736,0,0
14,288,0,0,0,0,0,0,0,0,0,-1,1238,736,0,0
21,288,0,0,0,0,0,0,0,0,0,-1,1245,736,0,0
28,288,0,0,0,0,0,0,0,0,0,-1,1252,736,0,0
35,288,0,0,0,0,0,0,0,0,0,-1,1259,736,0,0
42,288,0,0,0,0,0,0,0,0,0,-1,1266,736,0,0
49,288,0,0,0,0,0,0,0,0,0,-1,1273,736,0,0
56,288,0,0,0,0,0,0,0,0,0,-1,1280,736,0,0
63,288,0,0,0,0,0,0,0,0,0,-1,1287,736,0,0
70,288,0,0,0,0,0,0,0,0,0,-1,1294,736,0,0
77,288,0,0,0,0,0,0,0,0,0,-1,1301,736,0,0
84,288,0,0,0,0,0,0,0,0,0,-1,1308,736,0,0
91,288,0,0,0,0,0,0,0,0,0,-1,1315,736,0,0
98,288,0,0,0,0,0,0,0,0,0,-1,1322,736,0,0
105,288,0,0,0,0,0,0,0,0,0,-1,1329,736,0,0
112,288,0,0,0,0,0,0,0,0,0,-1,1336,736,0,0
119,288,0,0,0,0,0,0,0,0,0,-1,1343,736,0,0
126,288,0,0,0,0,0,0,0,0,0,-1,1350,736,0,0
133,288,0,0,0,0,0,0,0,0,0,-1,1357,736,0,0
140,288,0,0,0,0,0,0,0,0,0,-1,1364,736,0,0
147,288,0,0,0,0,0,0,0,0,0,-1,1371,736,0,0
154,288,0,0,0,0,0,0,0,0,0,-1,1378,736,0,0
161,288,0,0,0,0,0,0,0,0,0,-1,1385,736,0,0
168,288,0,0,0,0,0,0,0,0,0,-1,1392,736,0,0
175,288,0,0,0,0,0,0,0,0,0,-1,1399,736,0,0
182,288,0,0,0,0,0,0,0,0,0,-1,1406,736,0,0
189,288,0,0,0,0,0,0,0,0,0,-1,1413,736,0,0
196,288,0,0,0,0,0,0,0,0,0,-1,1420,736,0,0
203,288,0,0,0,0,0,0,0,0,0,-1,1427,736,0,0
210,288,0,0,0,0,0,0,0,0,0,-1,1434,736,0,0
217,288,0,0,0,0,0,0,0,0,0,-1,1441,736,0,0
224,288,0,0,0,0,0,0,0,0,0,-1,1448,736,0,0
231,288,0,0,0,0,0,0,0,0,0,-1,1455,736,0,0
238,288,0,0,0,0,0,0,0,0,0,-1,1462,736,0,0
245,288,0,0,0,0,0,0,0,0,0,-1,1469,736,0,0
252,288,0,0,0,0,0,0,0,0,0,-1,1476,736,0,0
259,288,0,0,0,0,0,0,0,0,0,-1,1483,736,0,0
266,288,0,0,0,0,0,0,0,0,0,-1,1490,736,0,0
273,288,0,0,0,0,0,0,0,0,0,-1,1497,736,0,0
280,288,0,0,0,0,0,0,0,0,0,-1,1504,736,0,0
287,288,0,0,0,0,0,0,0,0,0,-1,1511,736,0,0
294,288,0,0,0,0,0,0,0,0,0,-1,1518,736,0,0
301,288,0,0,0,0,0,0,0,0,0,-1,1525,736,0,0
308,288,0,0,0,0,0,0,0,0,0,-1,1532,736,0,0
315,288,0,0,0,0,0,0,0,0,0,-1,1539,736,0,0
322,288,0,0,0,0,0,0,0,0,0,-1,1546,736,0,0
329,288,0,0,0,0,0,0,0,0,0,-1,1553,736,0,0
336,288,0,0,0,0,0,0,0,0,0,-1,1560,736,0,0
343,288,0,0,0,0,0,0,0,0,0,-1,1567,736,0,0
350,288,0,0,0,0,0,0,0,0,0,-1,1574,736,0,0
357,288,0,0,0,0,0,0,0,0,0,-1,1581,736,0,0
364,288,0,0,0,0,0,0,0,0,0,-1,1588,736,0,0
371,288,0,0,0,0,0,0,0,0,0,-1,1595,736,0,0
378,288,0,0,0,0,0,0,0,0,0,-1,1602,736,0,0
385,288,0,0,0,0,0,0,0,0,0,-1,1609,736,0,0
392,288,0,0,0,0,0,0,0,0,0,-1,1616,736,0,0
399,288,0,0,0,0,0,0,0,0,0,-1,1623,736,0,0
406,288,0,0,0,0,0,0,0,0,0,-1,1630,736,0,0
413,288,0,0,0,0,0,0,0,0,0,-1,1637,736,0,0
420,288,0,0,0,0,0,0,0,0,0,-1,1644,736,0,0
427,288,0,0,0,0,0,0,0,0,0,-1,1651,736,0,0
434,288,0,0,0,0,0,0,0,0,0,-1,1658,736,0,0
441,288,0,0,0,0,0,0,0,0,0,-1,1665,736,0,0
448,288,0,0,0,0,0,0,0,0,0,-1,1672,736,0,0
455,288,0,0,0,0,0,0,0,0,0,-1,1679,736,0,0
462,288,0,0,0,0,0,0,0,0,0,-1,1686,736,0,0
469,288,0,0,0,0,0,0,0,0,0,-1,1693,736,0,0
476,288,0,0,0,0,0,0,0,0,0,-1,1700,736,0,0
483,288,0,0,0,0,0,0,0,0,0,-1,1707,736,0,0
490,288,0,0,0,0,0,0,0,0,0,-1,1714,736,0,0
497,288,0,0,0,0,0,0,0,0,0,-1,1721,736,0,0
504,288,0,0,0,0,0,0,0,0,0,-1,1728,736,0,0
511,288,0,0,0,0,0,0,0,0,0,-1,1735,736,0,0
518,288,0,0,0,0,0,0,0,0,0,-1,1742,736,0,0
525,288,0,0,0,0,0,0,0,0,0,-1,1749,736,0,0
532,288,0,0,0,0,0,0,0,0,0,-1,1756,736,0,0
539,288,0,0,0,0,0,0,0,0,0,-1,1763,736,0,0
546,288,0,0,0,0,0,0,0,0,0,-1,1770,736,0,0
553,288,17.7463,4.54291,0,0,0,0,0,0,0,-1,1777,736,17.7464,-4.54293
560,288,19.995,3.67139,0,0,0,0,0,0,0,-1,1784,736,19.995,-3.6714
567,288,20.3287,4.17645,0,0,0,0,0,0,0,-1,1791,736,20.3288,-4.17648
574,288,21.9601,1.92407,0,0,0,0,0,0,0,-1,1798,736,21.9601,-1.92406
581,288,21.6361,2.25598,0,0,0,0,0,0,0,-1,1805,736,21.6361,-2.25599
588,288,21.2053,2.54883,0,0,0,0,0,0,0,-1,1812,736,21.2053,-2.54886
595,288,20.7993,2.82092,0,0,0,0,0,0,0,-1,1819,736,20.7993,-2.8209
602,288,20.5172,2.99756,0,0,0,0,0,0,0,-1,1826,736,20.5173,-2.99757
609,288,17.5223,4.86414,0,0,0,0,0,0,0,-1,1833,736,17.5223,-4.86412
616,288,13.4886,0.801331,0,0,0,0,0,0,0,-1,1840,736,13.4886,-0.80132
623,288,14.5098,0.064209,0,0,0,0,0,0,0,-1,1847,736,14.5098,-0.0642242
630,288,14.5133,0.334351,-0.00117499,-0.00200063,0.00626293,0.00468871,-0.00786433,0.752488,0.0073244,0.0207459,1854,736,14.5133,-0.334359
637,288,14.5264,0.582214,-0.00173303,-0.00123361,0.00467006,0.00319341,-0.00616005,0.812108,0.00549002,0.00994399,1861,736,14.5263,-0.582215
644,288,14.5449,0.852112,-0.00171058,-0.000786341,0.00312068,0.00190625,-0.00440317,0.858905,0.00373662,0.0101931,1868,736,14.5449,-0.852108
651,288,14.5474,1.11176,-0.0012743,-0.000689267,0.00183217,0.000873586,-0.00283715,0.864558,0.00224015,0.0114845,1875,736,14.5474,-1.11176
658,288,14.5425,1.41443,-0.000522428,-0.000263168,0.000857199,0.000474148,-0.00125974,0.860442,0.00103475,0.0164749,1882,736,14.5425,-1.4144
665,288,14.532,1.67303,0.000143099,-9.6668e-05,0.00041187,0.000452178,-0.000405747,0.643776,0.000495565,0.0168852,1889,736,14.532,-1.67305
672,288,14.5258,1.90222,0.000685928,0.000227756,0.000334616,0.000862364,5.13204e-05,0.485232,0.000558589,0.0142658,1896,736,14.5258,-1.90223
679,288,14.54,2.18201,0.00121368,0.000374163,0.000708512,0.00161744,-2.95993e-05,0.517973,0.00108829,0.0119439,1903,736,14.5401,-2.18204
686,288,14.5221,2.41949,0.00185698,0.000967654,0.00155986,0.00303432,-0.000209687,0.646548,0.00209628,0.00957686,1910,736,14.5221,-2.41951
693,288,14.5374,2.69208,0.00293242,0.00104787,0.00275665,0.00490339,-0.000923098,0.620714,0.00361612,0.0122627,1917,736,14.5373,-2.69208
700,288,14.5035,2.9917,0.00482774,0.000737321,0.00441196,0.00764548,-0.00208042,0.568362,0.00591372,0.0233188,1924,736,14.5035,-2.99172
707,288,14.6288,3.28308,0.00704166,0.000245068,0.00678704,0.0112336,-0.00394691,0.553293,0.00909483,0.0373117,1931,736,14.6288,-3.2831
714,288,14.7556,3.56824,0,0,0,0,0,0,0,-1,1938,736,14.7556,-3.56824
721,288,15.9327,4.39313,0,0,0,0,0,0,0,-1,1945,736,15.9327,-4.39312
728,288,16.871,4.44733,0,0,0,0,0,0,0,-1,1952,736,16.8709,-4.4473
735,288,16.448,3.76532,0,0,0,0,0,0,0,-1,1959,736,16.448,-3.76532
742,288,0,0,0,0,0,0,0,0,0,-1,1966,736,0,0
749,288,0,0,0,0,0,0,0,0,0,-1,1973,736,0,0
756,288,0,0,0,0,0,0,0,0,0,-1,1980,736,0,0
763,288,0,0,0,0,0,0,0,0,0,-1,1987,736,0,0
770,288,0,0,0,0,0,0,0,0,0,-1,1994,736,0,0
777,288,0,0,0,0,0,0,0,0,0,-1,2001,736,0,0
784,288,0,0,0,0,0,0,0,0,0,-1,2008,736,0,0
791,288,0,0,0,0,0,0,0,0,0,-1,2015,736,0,0
798,288,0,0,0,0,0,0,0,0,0,-1,2022,736,0,0
805,288,0,0,0,0,0,0,0,0,0,-1,2029,736,0,0
812,288,0,0,0,0,0,0,0,0,0,-1,2036,736,0,0
-700,281,0,0,0,0,0,0,0,0,0,-1,524,743,0,0
-693,281,0,0,0,0,0,0,0,0,0,-1,531,743,0,0
-686,281,0,0,0,0,0,0,0,0,0,-1,538,743,0,0
-679,281,0,0,0,0,0,0,0,0,0,-1,545,743,0,0
-672,281,0,0,0,0,0,0,0,0,0,-1,552,743,0,0
-665,281,0,0,0,0,0,0,0,0,0,-1,559,743,0,0
-658,281,0,0,0,0,0,0,0,0,0,-1,566,743,0,0
-651,281,0,0,0,0,0,0,0,0,0,-1,573,743,0,0
-644,281,0,0,0,0,0,0,0,0,0,-1,580,743,0,0
-637,281,0,0,0,0,0,0,0,0,0,-1,587,743,0,0
-630,281,0,0,0,0,0,0,0,0,0,-1,594,743,0,0
-623,281,-13.3923,-0.436707,-0.0141622,0.0811474,0.0278002,0.0886635,-0.0216783,1.30675,0.0675055,0.0475337,601,743,-13.3923,0.436709
-616,281,-13.2601,0.257324,-0.00925401,0.0812537,0.0281488,0.089294,-0.0172943,1.29257,0.0660531,0.047449,608,743,-13.2601,-0.257318
-609,281,-13.1083,0.94165,-0.00472035,0.0693403,0.0275467,0.0784626,-0.0138427,1.251,0.0574809,0.0470536,615,743,-13.1083,-0.941626
-602,281,-12.9911,1.60449,-0.000491367,0.0562286,0.0254932,0.0660025,-0.0102652,1.20469,0.0477923,0.0487499,622,743,-12.9911,-1.6045
-595,281,-12.8338,2.20514,0,0,0,0,0,0,0,-1,629,743,-12.8338,-2.20514
-588,281,-8.49609,2.35413,0,0,0,0,0,0,0,-1,636,743,-8.49607,-2.35413
-581,281,-8.41315,0.97052,0,0,0,0,0,0,0,-1,643,743,-8.41317,-0.970493
-574,281,-8.35596,0.799072,0.00166279,0.0170159,0.0138498,0.0251743,-0.0064956,1.03846,0.0193156,0.0289858,650,743,-8.35595,-0.799079
-567,281,-8.43408,0.632385,0.000760253,0.0117949,0.0113699,0.0189154,-0.00636023,1.01129,0.0151812,0.0132885,657,743,-8.43411,-0.632382
-560,281,-8.45239,0.408142,-0.00160361,0.00694388,0.00832216,0.0120255,-0.00668525,1.02261,0.0109483,0.0084911,664,743,-8.45237,-0.408134
-553,281,-8.43414,0.183167,-0.00334145,0.00283698,0.00615733,0.0066366,-0.00714106,1.01791,0.00795631,0.0132869,671,743,-8.43413,-0.183167
-546,281,-8.42279,-0.0389404,-0.003686,-0.00111387,0.00460117,0.00237759,-0.00717746,0.921674,0.00574394,0.0149394,678,743,-8.42278,0.0389353
-539,281,-8.41547,-0.286621,-0.00417681,-0.00145056,0.00405687,0.00146607,-0.00709344,0.947475,0.00528586,0.0131931,685,743,-8.41548,0.28665
-532,281,-8.42633,-0.516296,-0.00370968,-0.00226303,0.0041395,0.00121587,-0.00718857,0.871893,0.00524486,0.0121919,692,743,-8.42635,0.5163
-525,281,-8.42377,-0.76593,-0.00364903,-0.00307939,0.00464317,0.00128769,-0.00801611,0.816031,0.00582097,0.0138278,699,743,-8.4238,0.76592
-518,281,-8.43146,-1.03662,-0.00372611,-0.00415568,0.0053081,0.00137155,-0.00925334,0.765178,0.00667322,0.0116441,706,743,-8.43147,1.03663
-511,281,-8.44135,-1.31848,-0.0057583,-0.00201709,0.00526921,0.00170371,-0.0094791,0.955962,0.00695718,0.0105636,713,743,-8.44134,1.31849
-504,281,-8.44946,-1.57318,-0.0082507,-0.000662939,0.00587824,0.00253941,-0.0114531,1.07197,0.00860762,0.0125208,720,743,-8.44944,1.57318
-497,281,-8.30676,-1.78564,-0.0111464,0.00168285,0.00608899,0.00411262,-0.0135761,1.19112,0.0106887,0.0356264,727,743,-8.30679,1.78563
-490,281,-8.0647,-1.48157,0,0,0,0,0,0,0,-1,734,743,-8.06467,1.48154
-483,281,-8.00305,-1.2041,0,0,0,0,0,0,0,-1,741,743,-8.00305,1.20412
-476,281,-10.4659,-2.07819,0,0,0,0,0,0,0,-1,748,743,-10.4659,2.07816
-469,281,-14.6923,-0.273132,0,0,0,0,0,0,0,-1,755,743,-14.6923,0.273115
-462,281,-14.6428,1.21301,0,0,0,0,0,0,0,-1,762,743,-14.6428,-1.21301
-455,281,-13.9932,1.39136,0,0,0,0,0,0,0,-1,769,743,-13.9933,-1.39136
-448,281,-13.0331,1.42255,0,0,0,0,0,0,0,-1,776,743,-13.0331,-1.42254
-441,281,-13.2051,3.54559,0,0,0,0,0,0,0,-1,783,743,-13.2051,-3.5456
-434,281,0,0,0,0,0,0,0,0,0,-1,790,743,0,0
-427,281,0,0,0,0,0,0,0,0,0,-1,797,743,0,0
-420,281,0,0,0,0,0,0,0,0,0,-1,804,743,0,0
-413,281,0,0,0,0,0,0,0,0,0,-1,811,743,0,0
-406,281,0,0,0,0,0,0,0,0,0,-1,818,743,0,0
-399,281,0,0,0,0,0,0,0,0,0,-1,825,743,0,0
-392,281,0,0,0,0,0,0,0,0,0,-1,832,743,0,0
-385,281,0,0,0,0,0,0,0,0,0,-1,839,743,0,0
-378,281,0,0,0,0,0,0,0,0,0,-1,846,743,0,0
-371,281,0,0,0,0,0,0,0,0,0,-1,853,743,0,0
-364,281,0,0,0,0,0,0,0,0,0,-1,860,743,0,0
-357,281,0,0,0,0,0,0,0,0,0,-1,867,743,0,0
-350,281,0,0,0,0,0,0,0,0,0,-1,874,743,0,0
-343,281,0,0,0,0,0,0,0,0,0,-1,881,743,0,0
-336,281,0,0,0,0,0,0,0,0,0,-1,888,743,0,0
-329,281,0,0,0,0,0,0,0,0,0,-1,895,743,0,0
-322,281,0,0,0,0,0,0,0,0,0,-1,902,743,0,0
-315,281,0,0,0,0,0,0,0,0,0,-1,909,743,0,0
-308,281,0,0,0,0,0,0,0,0,0,-1,916,743,0,0
-301,281,0,0,0,0,0,0,0,0,0,-1,923,743,0,0
-294,281,0,0,0,0,0,0,0,0,0,-1,930,743,0,0
-287,281,0,0,0,0,0,0,0,0,0,-1,937,743,0,0
-280,281,0,0,0,0,0,0,0,0,0,-1,944,743,0,0
-273,281,0,0,0,0,0,0,0,0,0,-1,951,743,0,0
-266,281,0,0,0,0,0,0,0,0,0,-1,958,743,0,0
-259,281,0,0,0,0,0,0,0,0,0,-1,965,743,0,0
-252,281,0,0,0,0,0,0,0,0,0,-1,972,743,0,0
-245,281,0,0,0,0,0,0,0,0,0,-1,979,743,0,0
-238,281,0,0,0,0,0,0,0,0,0,-1,986,743,0,0
-231,281,0,0,0,0,0,0,0,0,0,-1,993,743,0,0
-224,281,0,0,0,0,0,0,0,0,0,-1,1000,743,0,0
-217,281,0,0,0,0,0,0,0,0,0,-1,1007,743,0,0
-210,281,0,0,0,0,0,0,0,0,0,-1,1014,743,0,0
-203,281,0,0,0,0,0,0,0,0,0,-1,1021,743,0,0
-196,281,0,0,0,0,0,0,0,0,0,-1,1028,743,0,0
-189,281,0,0,0,0,0,0,0,0,0,-1,1035,743,0,0
-182,281,0,0,0,0,0,0,0,0,0,-1,1042,743,0,0
-175,281,0,0,0,0,0,0,0,0,0,-1,1049,743,0,0
-168,281,0,0,0,0,0,0,0,0,0,-1,1056,743,0,0
-161,281,0,0,0,0,0,0,0,0,0,-1,1063,743,0,0
-154,281,0,0,0,0,0,0,0,0,0,-1,1070,743,0,0
-147,281,0,0,0,0,0,0,0,0,0,-1,1077,743,0,0
-140,281,0,0,0,0,0,0,0,0,0,-1,1084,743,0,0
-133,281,0,0,0,0,0,0,0,0,0,-1,1091,743,0,0
-126,281,0,0,0,0,0,0,0,0,0,-1,1098,743,0,0
-119,281,0,0,0,0,0,0,0,0,0,-1,1105,743,0,0
-112,281,0,0,0,0,0,0,0,0,0,-1,1112,743,0,0
-105,281,0,0,0,0,0,0,0,0,0,-1,1119,743,0,0
-98,281,0,0,0,0,0,0,0,0,0,-1,1126,743,0,0
-91,281,0,0,0,0,0,0,0,0,0,-1,1133,743,0,0
-84,281,0,0,0,0,0,0,0,0,0,-1,1140,743,0,0
-77,281,0,0,0,0,0,0,0,0,0,-1,1147,743,0,0
-70,281,0,0,0,0,0,0,0,0,0,-1,1154,743,0,0
-63,281,0,0,0,0,0,0,0,0,0,-1,1161,743,0,0
-56,281,0,0,0,0,0,0,0,0,0,-1,1168,743,0,0
-49,281,0,0,0,0,0,0,0,0,0,-1,1175,743,0,0
-42,281,0,0,0,0,0,0,0,0,0,-1,1182,743,0,0
-35,281,0,0,0,0,0,0,0,0,0,-1,1189,743,0,0
-28,281,0,0,0,0,0,0,0,0,0,-1,1196,743,0,0
-21,281,0,0,0,0,0,0,0,0,0,-1,1203,743,0,0
-14,281,0,0,0,0,0,0,0,0,0,-1,1210,743,0,0
-7,281,0,0,0,0,0,0,0,0,0,-1,1217,743,0,0
0,281,0,0,0,0,0,0,0,0,0,-1,1224,743,0,0
7,281,0,0,0,0,0,0,0,0,0,-1,1231,743,0,0
14,281,0,0,0,0,0,0,0,0,0,-1,1238,743,0,0
21,281,0,0,0,0,0,0,0,0,0,-1,1245,743,0,0
28,281,0,0,0,0,0,0,0,0,0,-1,1252,743,0,0
35,281,0,0,0,0,0,0,0,0,0,-1,1259,743,0,0
42,281,0,0,0,0,0,0,0,0,0,-1,1266,743,0,0
49,281,0,0,0,0,0,0,0,0,0,-1,1273,743,0,0
56,281,0,0,0,0,0,0,0,0,0,-1,1280,743,0,0
63,281,0,0,0,0,0,0,0,0,0,-1,1287,743,0,0
70,281,0,0,0,0,0,0,0,0,0,-1,1294,743,0,0
77,281,0,0,0,0,0,0,0,0,0,-1,1301,743,0,0
84,281,0,0,0,0,0,0,0,0,0,-1,1308,743,0,0
91,281,0,0,0,0,0,0,0,0,0,-1,1315,743,0,0
98,281,0,0,0,0,0,0,0,0,0,-1,1322,743,0,0
105,281,0,0,0,0,0,0,0,0,0,-1,1329,743,0,0
112,281,0,0,0,0,0,0,0,0,0,-1,1336,743,0,0
119,281,0,0,0,0,0,0,0,0,0,-1,1343,743,0,0
126,281,0,0,0,0,0,0,0,0,0,-1,1350,743,0,0
133,281,0,0,0,0,0,0,0,0,0,-1,1357,743,0,0
140,281,0,0,0,0,0,0,0,0,0,-1,1364,743,0,0
147,281,0,0,0,0,0,0,0,0,0,-1,1371,743,0,0
154,281,0,0,0,0,0,0,0,0,0,-1,1378,743,0,0
161,281,0,0,0,0,0,0,0,0,0,-1,1385,743,0,0
168,281,0,0,0,0,0,0,0,0,0,-1,1392,743,0,0
175,281,0,0,0,0,0,0,0,0,0,-1,1399,743,0,0
182,281,0,0,0,0,0,0,0,0,0,-1,1406,743,0,0
189,281,0,0,0,0,0,0,0,0,0,-1,1413,743,0,0
196,281,0,0,0,0,0,0,0,0,0,-1,1420,743,0,0
203,281,0,0,0,0,0,0,0,0,0,-1,1427,743,0,0
210,281,0,0,0,0,0,0,0,0,0,-1,1434,743,0,0
217,281,0,0,0,0,0,0,0,0,0,-1,1441,743,0,0
224,281,0,0,0,0,0,0,0,0,0,-1,1448,743,0,0
231,281,0,0,0,0,0,0,0,0,0,-1,1455,743,0,0
238,281,0,0,0,0,0,0,0,0,0,-1,1462,743,0,0
245,281,0,0,0,0,0,0,0,0,0,-1,1469,743,0,0
252,281,0,0,0,0,0,0,0,0,0,-1,1476,743,0,0
259,281,0,0,0,0,0,0,0,0,0,-1,1483,743,0,0
266,281,0,0,0,0,0,0,0,0,0,-1,1490,743,0,0
273,281,0,0,0,0,0,0,0,0,0,-1,1497,743,0,0
280,281,0,0,0,0,0,0,0,0,0,-1,1504,743,0,0
287,281,0,0,0,0,0,0,0,0,0,-1,1511,743,0,0
294,281,0,0,0,0,0,0,0,0,0,-1,1518,743,0,0
301,281,0,0,0,0,0,0,0,0,0,-1,1525,743,0,0
308,281,0,0,0,0,0,0,0,0,0,-1,1532,743,0,0
315,281,0,0,0,0,0,0,0,0,0,-1,1539,743,0,0
322,281,0,0,0,0,0,0,0,0,0,-1,1546,743,0,0
329,281,0,0,0,0,0,0,0,0,0,-1,1553,743,0,0
336,281,0,0,0,0,0,0,0,0,0,-1,1560,743,0,0
343,281,0,0,0,0,0,0,0,0,0,-1,1567,743,0,0
350,281,0,0,0,0,0,0,0,0,0,-1,1574,743,0,0
357,281,0,0,0,0,0,0,0,0,0,-1,1581,743,0,0
364,281,0,0,0,0,0,0,0,0,0,-1,1588,743,0,0
371,281,0,0,0,0,0,0,0,0,0,-1,1595,743,0,0
378,281,0,0,0,0,0,0,0,0,0,-1,1602,743,0,0
385,281,0,0,0,0,0,0,0,0,0,-1,1609,743,0,0
392,281,0,0,0,0,0,0,0,0,0,-1,1616,743,0,0
399,281,0,0,0,0,0,0,0,0,0,-1,1623,743,0,0
406,281,0,0,0,0,0,0,0,0,0,-1,1630,743,0,0
413,281,0,0,0,0,0,0,0,0,0,-1,1637,743,0,0
420,281,0,0,0,0,0,0,0,0,0,-1,1644,743,0,0
427,281,0,0,0,0,0,0,0,0,0,-1,1651,743,0,0
434,281,0,0,0,0,0,0,0,0,0,-1,1658,743,0,0
441,281,0,0,0,0,0,0,0,0,0,-1,1665,743,0,0
448,281,0,0,0,0,0,0,0,0,0,-1,1672,743,0,0
455,281,0,0,0,0,0,0,0,0,0,-1,1679,743,0,0
462,281,0,0,0,0,0,0,0,0,0,-1,1686,743,0,0
469,281,0,0,0,0,0,0,0,0,0,-1,1693,743,0,0
476,281,0,0,0,0,0,0,0,0,0,-1,1700,743,0,0
483,281,0,0,0,0,0,0,0,0,0,-1,1707,743,0,0
490,281,0,0,0,0,0,0,0,0,0,-1,1714,743,0,0
497,281,0,0,0,0,0,0,0,0,0,-1,1721,743,0,0
504,281,0,0,0,0,0,0,0,0,0,-1,1728,743,0,0
511,281,0,0,0,0,0,0,0,0,0,-1,1735,743,0,0
518,281,0,0,0,0,0,0,0,0,0,-1,1742,743,0,0
525,281,0,0,0,0,0,0,0,0,0,-1,1749,743,0,0
532,281,0,0,0,0,0,0,0,0,0,-1,1756,743,0,0
539,281,0,0,0,0,0,0,0,0,0,-1,1763,743,0,0
546,281,0,0,0,0,0,0,0,0,0,-1,1770,743,0,0
553,281,0,0,0,0,0,0,0,0,0,-1,1777,743,0,0
560,281,20.899,3.59973,0,0,0,0,0,0,0,-1,1784,743,20.899,-3.59973
567,281,20.8265,4.08087,0,0,0,0,0,0,0,-1,1791,743,20.8265,-4.08088
574,281,20.6727,4.18939,0,0,0,0,0,0,0,-1,1798,743,20.6727,-4.18936
581,281,24.4962,1.06775,0,0,0,0,0,0,0,-1,1805,743,24.4962,-1.06778
588,281,21.3323,2.54102,0,0,0,0,0,0,0,-1,1812,743,21.3323,-2.54103
595,281,23.5803,2.33472,0,0,0,0,0,0,0,-1,1819,743,23.5803,-2.3347
602,281,20.6842,2.57703,0,0,0,0,0,0,0,-1,1826,743,20.6842,-2.57702
609,281,22.1361,3.23053,0,0,0,0,0,0,0,-1,1833,743,22.1361,-3.23054
616,281,18.6517,0.414429,0,0,0,0,0,0,0,-1,1840,743,18.6518,-0.414451
623,281,14.702,0.140259,0,0,0,0,0,0,0,-1,1847,743,14.702,-0.140254
630,281,14.765,0.346375,-0.00137549,-0.00149569,0.00718448,0.00574914,-0.00862033,0.781216,0.00835124,0.0357027,1854,743,14.765,-0.346344
637,281,14.7897,0.578857,-0.0020261,-0.000655241,0.00549332,0.00419525,-0.00687658,0.847465,0.00645451,0.012697,1861,743,14.7897,-0.578827
644,281,14.8102,0.851257,-0.00209365,-0.000241689,0.00378013,0.00272422,-0.00505956,0.905513,0.00456089,0.0107649,1868,743,14.8102,-0.85125
651,281,14.8116,1.11707,-0.00168176,-0.000321609,0.0022291,0.00132885,-0.00333222,0.933458,0.00277269,0.0120894,1875,743,14.8116,-1.11704
658,281,14.8024,1.39246,-0.000952752,-0.00010212,0.000957343,0.000520133,-0.001575,0.994436,0.0012597,0.0198652,1882,743,14.8023,-1.39243
665,281,14.7798,1.65039,-0.000250852,-0.000146499,0.000184798,-6.65318e-06,-0.000390698,0.922988,0.000258276,0.0208504,1889,743,14.7798,-1.6504
672,281,14.7892,1.91168,0.000402846,-5.99521e-05,-0.000243523,0.000507377,-0.000164483,-0.405461,0.000404388,0.0119292,1896,743,14.7892,-1.91167
679,281,14.7883,2.16412,0.00102107,-0.000210449,-0.000203656,0.00105387,-0.000243253,-0.159707,0.000796152,0.0179355,1903,743,14.7883,-2.16413
686,281,14.7682,2.3941,0.00187436,0.000214587,0.000468783,0.00199761,9.1337e-05,0.257096,0.00130236,0.0144729,1910,743,14.7682,-2.39408
693,281,14.7716,2.6524,0.00359545,6.2817e-05,0.00148462,0.00413651,-0.000478241,0.349482,0.00293012,0.0106151,1917,743,14.7716,-2.6524
700,281,14.7797,2.8924,0.00676308,-0.000804402,0.00276777,0.00766732,-0.00170865,0.315774,0.00576611,0.0177638,1924,743,14.7797,-2.89238
707,281,14.816,2.85071,0.0104808,-0.0019232,0.00453268,0.0119606,-0.003403,0.315564,0.00931756,0.0369115,1931,743,14.8161,-2.85071
714,281,15.2113,2.68335,0.0159988,-0.00372029,0.00704137,0.018255,-0.00597649,0.310085,0.0145765,0.047274,1938,743,15.2113,-2.68334
721,281,15.7628,2.48218,0,0,0,0,0,0,0,-1,1945,743,15.7628,-2.48217
728,281,15.5081,3.70825,0,0,0,0,0,0,0,-1,1952,743,15.508,-3.70822
735,281,16.7875,2.70435,0,0,0,0,0,0,0,-1,1959,743,16.7875,-2.70433
742,281,0,0,0,0,0,0,0,0,0,-1,1966,743,0,0
749,281,0,0,0,0,0,0,0,0,0,-1,1973,743,0,0
756,281,0,0,0,0,0,0,0,0,0,-1,1980,743,0,0
763,281,0,0,0,0,0,0,0,0,0,-1,1987,743,0,0
770,281,0,0,0,0,0,0,0,0,0,-1,1994,743,0,0
777,281,0,0,0,0,0,0,0,0,0,-1,2001,743,0,0
784,281,0,0,0,0,0,0,0,0,0,-1,2008,743,0,0
791,281,0,0,0,0,0,0,0,0,0,-1,2015,743,0,0
798,281,0,0,0,0,0,0,0,0,0,-1,2022,743,0,0
805,281,0,0,0,0,0,0,0,0,0,-1,2029,743,0,0
812,281,0,0,0,0,0,0,0,0,0,-1,2036,743,0,0
-700,274,0,0,0,0,0,0,0,0,0,-1,524,750,0,0
-693,274,0,0,0,0,0,0,0,0,0,-1,531,750,0,0
-686,274,0,0,0,0,0,0,0,0,0,-1,538,750,0,0
-679,274,0,0,0,0,0,0,0,0,0,-1,545,750,0,0
-672,274,0,0,0,0,0,0,0,0,0,-1,552,750,0,0
-665,274,0,0,0,0,0,0,0,0,0,-1,559,750,0,0
-658,274,0,0,0,0,0,0,0,0,0,-1,566,750,0,0
-651,274,0,0,0,0,0,0,0,0,0,-1,573,750,0,0
-644,274,0,0,0,0,0,0,0,0,0,-1,580,750,0,0
-637,274,0,0,0,0,0,0,0,0,0,-1,587,750,0,0
-630,274,0,0,0,0,0,0,0,0,0,-1,594,750,0,0
-623,274,-13.3106,-0.925354,0.00400459,0.0478786,0.0239982,0.0584553,-0.00657216,1.15568,0.0413355,0.0464938,601,750,-13.3106,0.925349
-616,274,-13.126,-0.273438,0.00892123,0.0512181,0.0241555,0.0621749,-0.00203553,1.14496,0.0421448,0.0485194,608,750,-13.126,0.273459
-609,274,-13.7249,-0.966797,0.0106225,0.0467779,0.0234746,0.0583289,-0.000928469,1.11352,0.0391991,0.0451565,615,750,-13.7249,0.966783
-602,274,-14.3789,-1.29614,0.011307,0.0397218,0.0218157,0.0515485,-0.000519663,1.07402,0.0345402,0.0451712,622,750,-14.3789,1.29614
-595,274,-14.9917,-1.48334,0,0,0,0,0,0,0,-1,629,750,-14.9917,1.48331
-588,274,-8.42896,1.76862,0,0,0,0,0,0,0,-1,636,750,-8.42898,-1.76862
-581,274,-8.48602,1.26862,0.00782627,0.0187196,0.0146386,0.028892,-0.00234613,0.9635,0.0200891,0.0390122,643,750,-8.486,-1.26862
-574,274,-8.59424,0.855835,0.00524807,0.0132609,0.0119455,0.021854,-0.00334502,0.947198,0.0158028,0.019311,650,750,-8.59423,-0.855825
-567,274,-8.68823,0.621155,0.00352531,0.00926435,0.00980264,0.0166088,-0.00381918,0.927785,0.012541,0.0170234,657,750,-8.68825,-0.621127
-560,274,-8.69171,0.420593,0.000333085,0.00540789,0.00708721,0.0103982,-0.00465726,0.957301,0.00890045,0.0143506,664,750,-8.6917,-0.420614
-553,274,-8.68762,0.162842,-0.00220751,0.00208261,0.00533501,0.00568765,-0.00581254,0.976544,0.00663977,0.00924442,671,750,-8.68762,-0.162815
-546,274,-8.67773,-0.0623779,-0.00310297,-0.00145497,0.00425458,0.00205466,-0.00661261,0.881051,0.00522961,0.010927,678,750,-8.6777,0.0623791
-539,274,-8.6731,-0.293762,-0.00419081,-0.00183564,0.0040345,0.00118962,-0.00721606,0.927393,0.00525235,0.0112678,685,750,-8.67312,0.293786
-532,274,-8.68115,-0.526978,-0.00424275,-0.0026463,0.0044048,0.00103202,-0.00792107,0.875034,0.00565619,0.0115469,692,750,-8.68117,0.526988
-525,274,-8.68567,-0.76001,-0.00465702,-0.00341922,0.00509463,0.00109397,-0.00917021,0.845843,0.00650884,0.0118042,699,750,-8.68566,0.760014
-518,274,-8.6911,-1.0285,-0.00513927,-0.00447404,0.00585361,0.0010564,-0.0106697,0.813779,0.00749014,0.0117689,706,750,-8.69113,1.02853
-511,274,-8.69873,-1.31299,-0.00751126,-0.00207095,0.0059218,0.00172556,-0.0113078,1.0007,0.00817463,0.0119489,713,750,-8.69872,1.31302
-504,274,-8.7027,-1.5788,-0.0104336,-0.000575087,0.00659506,0.00272926,-0.013738,1.10632,0.010191,0.0209732,720,750,-8.70272,1.57881
-497,274,-8.72809,-1.53784,-0.0136161,0.00192575,0.00687483,0.00453031,-0.0162206,1.20865,0.0125984,0.0450791,727,750,-8.72808,1.53785
-490,274,-8.06177,-1.6062,0,0,0,0,0,0,0,-1,734,750,-8.06179,1.60619
-483,274,-9.29944,0.00421143,0,0,0,0,0,0,0,-1,741,750,-9.29943,-0.0042407
-476,274,-10.0159,0.120117,0,0,0,0,0,0,0,-1,748,750,-10.0159,-0.120127
-469,274,-10.1478,0.619446,0,0,0,0,0,0,0,-1,755,750,-10.1478,-0.619458
-462,274,-14.9766,1.25763,-0.0409272,0.0415237,-0.00448164,0.0417666,-0.0411701,-1.51665,0.0478839,0.0446038,762,750,-14.9766,-1.25762
-455,274,-14.5222,1.41278,-0.0500354,0.0563973,-0.0102997,0.0573849,-0.051023,-1.47521,0.0626252,0.0444465,769,750,-14.5221,-1.41276
-448,274,-14.0446,1.39246,0,0,0,0,0,0,0,-1,776,750,-14.0446,-1.39247
-441,274,0,0,0,0,0,0,0,0,0,-1,783,750,0,0
-434,274,0,0,0,0,0,0,0,0,0,-1,790,750,0,0
-427,274,0,0,0,0,0,0,0,0,0,-1,797,750,0,0
-420,274,0,0,0,0,0,0,0,0,0,-1,804,750,0,0
-413,274,0,0,0,0,0,0,0,0,0,-1,811,750,0,0
-406,274,0,0,0,0,0,0,0,0,0,-1,818,750,0,0
-399,274,0,0,0,0,0,0,0,0,0,-1,825,750,0,0
-392,274,0,0,0,0,0,0,0,0,0,-1,832,750,0,0
-385,274,0,0,0,0,0,0,0,0,0,-1,839,750,0,0
-378,274,0,0,0,0,0,0,0,0,0,-1,846,750,0,0
-371,274,0,0,0,0,0,0,0,0,0,-1,853,750,0,0
-364,274,0,0,0,0,0,0,0,0,0,-1,860,750,0,0
-357,274,0,0,0,0,0,0,0,0,0,-1,867,750,0,0
-350,274,0,0,0,0,0,0,0,0,0,-1,874,750,0,0
-343,274,0,0,0,0,0,0,0,0,0,-1,881,750,0,0
-336,274,0,0,0,0,0,0,0,0,0,-1,888,750,0,0
-329,274,0,0,0,0,0,0,0,0,0,-1,895,750,0,0
-322,274,0,0,0,0,0,0,0,0,0,-1,902,750,0,0
-315,274,0,0,0,0,0,0,0,0,0,-1,909,750,0,0
-308,274,0,0,0,0,0,0,0,0,0,-1,916,750,0,0
-301,274,0,0,0,0,0,0,0,0,0,-1,923,750,0,0
-294,274,0,0,0,0,0,0,0,0,0,-1,930,750,0,0
-287,274,0,0,0,0,0,0,0,0,0,-1,937,750,0,0
-280,274,0,0,0,0,0,0,0,0,0,-1,944,750,0,0
-273,274,0,0,0,0,0,0,0,0,0,-1,951,750,0,0
-266,274,0,0,0,0,0,0,0,0,0,-1,958,750,0,0
-259,274,0,0,0,0,0,0,0,0,0,-1,965,750,0,0
-252,274,0,0,0,0,0,0,0,0,0,-1,972,750,0,0
-245,274,0,0,0,0,0,0,0,0,0,-1,979,750,0,0
-238,274,0,0,0,0,0,0,0,0,0,-1,986,750,0,0
-231,274,0,0,0,0,0,0,0,0,0,-1,993,750,0,0
-224,274,0,0,0,0,0,0,0,0,0,-1,1000,750,0,0
-217,274,0,0,0,0,0,0,0,0,0,-1,1007,750,0,0
-210,274,0,0,0,0,0,0,0,0,0,-1,1014,750,0,0
-203,274,0,0,0,0,0,0,0,0,0,-1,1021,750,0,0
-196,274,0,0,0,0,0,0,0,0,0,-1,1028,750,0,0
-189,274,0,0,0,0,0,0,0,0,0,-1,1035,750,0,0
-182,274,0,0,0,0,0,0,0,0,0,-1,1042,750,0,0
-175,274,0,0,0,0,0,0,0,0,0,-1,1049,750,0,0
-168,274,0,0,0,0,0,0,0,0,0,-1,1056,750,0,0
-161,274,0,0,0,0,0,0,0,0,0,-1,1063,750,0,0
-154,274,0,0,0,0,0,0,0,0,0,-1,1070,750,0,0
-147,274,0,0,0,0,0,0,0,0,0,-1,1077,750,0,0
-140,274,0,0,0,0,0,0,0,0,0,-1,1084,750,0,0
-133,274,0,0,0,0,0,0,0,0,0,-1,1091,750,0,0
-126,274,0,0,0,0,0,0,0,0,0,-1,1098,750,0,0
-119,274,0,0,0,0,0,0,0,0,0,-1,1105,750,0,0
-112,274,0,0,0,0,0,0,0,0,0,-1,1112,750,0,0
-105,274,0,0,0,0,0,0,0,0,0,-1,1119,750,0,0
-98,274,0,0,0,0,0,0,0,0,0,-1,1126,750,0,0
-91,274,0,0,0,0,0,0,0,0,0,-1,1133,750,0,0
-84,274,0,0,0,0,0,0,0,0,0,-1,1140,750,0,0
-77,274,0,0,0,0,0,0,0,0,0,-1,1147,750,0,0
-70,274,0,0,0,0,0,0,0,0,0,-1,1154,750,0,0
-63,274,0,0,0,0,0,0,0,0,0,-1,1161,750,0,0
-56,274,0,0,0,0,0,0,0,0,0,-1,1168,750,0,0
-49,274,0,0,0,0,0,0,0,0,0,-1,1175,750,0,0
-42,274,0,0,0,0,0,0,0,0,0,-1,1182,750,0,0
-35,274,0,0,0,0,0,0,0,0,0,-1,1189,750,0,0
-28,274,0,0,0,0,0,0,0,0,0,-1,1196,750,0,0
-21,274,0,0,0,0,0,0,0,0,0,-1,1203,750,0,0
-14,274,0,0,0,0,0,0,0,0,0,-1,1210,750,0,0
-7,274,0,0,0,0,0,0,0,0,0,-1,1217,750,0,0
0,274,0,0,0,0,0,0,0,0,0,-1,1224,750,0,0
7,274,0,0,0,0,0,0,0,0,0,-1,1231,750,0,0
14,274,0,0,0,0,0,0,0,0,0,-1,1238,750,0,0
21,274,0,0,0,0,0,0,0,0,0,-1,1245,750,0,0
28,274,0,0,0,0,0,0,0,0,0,-1,1252,750,0,0
35,274,0,0,0,0,0,0,0,0,0,-1,1259,750,0,0
42,274,0,0,0,0,0,0,0,0,0,-1,1266,750,0,0
49,274,0,0,0,0,0,0,0,0,0,-1,1273,750,0,0
56,274,0,0,0,0,0,0,0,0,0,-1,1280,750,0,0
63,274,0,0,0,0,0,0,0,0,0,-1,1287,750,0,0
70,274,0,0,0,0,0,0,0,0,0,-1,1294,750,0,0
77,274,0,0,0,0,0,0,0,0,0,-1,1301,750,0,0
84,274,0,0,0,0,0,0,0,0,0,-1,1308,750,0,0
91,274,0,0,0,0,0,0,0,0,0,-1,1315,750,0,0
98,274,0,0,0,0,0,0,0,0,0,-1,1322,750,0,0
105,274,0,0,0,0,0,0,0,0,0,-1,1329,750,0,0
112,274,0,0,0,0,0,0,0,0,0,-1,1336,750,0,0
119,274,0,0,0,0,0,0,0,0,0,-1,1343,750,0,0
126,274,0,0,0,0,0,0,0,0,0,-1,1350,750,0,0
133,274,0,0,0,0,0,0,0,0,0,-1,1357,750,0,0
140,274,0,0,0,0,0,0,0,0,0,-1,1364,750,0,0
147,274,0,0,0,0,0,0,0,0,0,-1,1371,750,0,0
154,274,0,0,0,0,0,0,0,0,0,-1,1378,750,0,0
161,274,0,0,0,0,0,0,0,0,0,-1,1385,750,0,0
168,274,0,0,0,0,0,0,0,0,0,-1,1392,750,0,0
175,274,0,0,0,0,0,0,0,0,0,-1,1399,750,0,0
182,274,0,0,0,0,0,0,0,0,0,-1,1406,750,0,0
189,274,0,0,0,0,0,0,0,0,0,-1,1413,750,0,0
196,274,0,0,0,0,0,0,0,0,0,-1,1420,750,0,0
203,274,0,0,0,0,0,0,0,0,0,-1,1427,750,0,0
210,274,0,0,0,0,0,0,0,0,0,-1,1434,750,0,0
217,274,0,0,0,0,0,0,0,0,0,-1,1441,750,0,0
224,274,0,0,0,0,0,0,0,0,0,-1,1448,750,0,0
231,274,0,0,0,0,0,0,0,0,0,-1,1455,750,0,0
238,274,0,0,0,0,0,0,0,0,0,-1,1462,750,0,0
245,274,0,0,0,0,0,0,0,0,0,-1,1469,750,0,0
252,274,0,0,0,0,0,0,0,0,0,-1,1476,750,0,0
259,274,0,0,0,0,0,0,0,0,0,-1,1483,750,0,0
266,274,0,0,0,0,0,0,0,0,0,-1,1490,750,0,0
273,274,0,0,0,0,0,0,0,0,0,-1,1497,750,0,0
280,274,0,0,0,0,0,0,0,0,0,-1,1504,750,0,0
287,274,0,0,0,0,0,0,0,0,0,-1,1511,750,0,0
294,274,0,0,0,0,0,0,0,0,0,-1,1518,750,0,0
301,274,0,0,0,0,0,0,0,0,0,-1,1525,750,0,0
308,274,0,0,0,0,0,0,0,0,0,-1,1532,750,0,0
315,274,0,0,0,0,0,0,0,0,0,-1,1539,750,0,0
322,274,0,0,0,0,0,0,0,0,0,-1,1546,750,0,0
329,274,0,0,0,0,0,0,0,0,0,-1,1553,750,0,0
336,274,0,0,0,0,0,0,0,0,0,-1,1560,750,0,0
343,274,0,0,0,0,0,0,0,0,0,-1,1567,750,0,0
350,274,0,0,0,0,0,0,0,0,0,-1,1574,750,0,0
357,274,0,0,0,0,0,0,0,0,0,-1,1581,750,0,0
364,274,0,0,0,0,0,0,0,0,0,-1,1588,750,0,0
371,274,0,0,0,0,0,0,0,0,0,-1,1595,750,0,0
378,274,0,0,0,0,0,0,0,0,0,-1,1602,750,0,0
385,274,0,0,0,0,0,0,0,0,0,-1,1609,750,0,0
392,274,0,0,0,0,0,0,0,0,0,-1,1616,750,0,0
399,274,0,0,0,0,0,0,0,0,0,-1,1623,750,0,0
406,274,0,0,0,0,0,0,0,0,0,-1,1630,750,0,0
413,274,0,0,0,0,0,0,0,0,0,-1,1637,750,0,0
420,274,0,0,0,0,0,0,0,0,0,-1,1644,750,0,0
427,274,0,0,0,0,0,0,0,0,0,-1,1651,750,0,0
434,274,0,0,0,0,0,0,0,0,0,-1,1658,750,0,0
441,274,0,0,0,0,0,0,0,0,0,-1,1665,750,0,0
448,274,0,0,0,0,0,0,0,0,0,-1,1672,750,0,0
455,274,0,0,0,0,0,0,0,0,0,-1,1679,750,0,0
462,274,0,0,0,0,0,0,0,0,0,-1,1686,750,0,0
469,274,0,0,0,0,0,0,0,0,0,-1,1693,750,0,0
476,274,0,0,0,0,0,0,0,0,0,-1,1700,750,0,0
483,274,0,0,0,0,0,0,0,0,0,-1,1707,750,0,0
490,274,0,0,0,0,0,0,0,0,0,-1,1714,750,0,0
497,274,0,0,0,0,0,0,0,0,0,-1,1721,750,0,0
504,274,0,0,0,0,0,0,0,0,0,-1,1728,750,0,0
511,274,0,0,0,0,0,0,0,0,0,-1,1735,750,0,0
518,274,0,0,0,0,0,0,0,0,0,-1,1742,750,0,0
525,274,0,0,0,0,0,0,0,0,0,-1,1749,750,0,0
532,274,0,0,0,0,0,0,0,0,0,-1,1756,750,0,0
539,274,0,0,0,0,0,0,0,0,0,-1,1763,750,0,0
546,274,0,0,0,0,0,0,0,0,0,-1,1770,750,0,0
553,274,0,0,0,0,0,0,0,0,0,-1,1777,750,0,0
560,274,21.6702,3.16217,0,0,0,0,0,0,0,-1,1784,750,21.6702,-3.16215
567,274,21.3302,3.56049,0,0,0,0,0,0,0,-1,1791,750,21.3302,-3.56047
574,274,23.7234,1.5379,0,0,0,0,0,0,0,-1,1798,750,23.7233,-1.53792
581,274,23.8665,1.6803,0,0,0,0,0,0,0,-1,1805,750,23.8664,-1.68032
588,274,23.5165,2.30164,0,0,0,0,0,0,0,-1,1812,750,23.5165,-2.30163
595,274,23.368,2.30853,0,0,0,0,0,0,0,-1,1819,750,23.3681,-2.30855
602,274,23.2197,2.31549,0,0,0,0,0,0,0,-1,1826,750,23.2197,-2.31547
609,274,23.4695,2.70087,0,0,0,0,0,0,0,-1,1833,750,23.4695,-2.70086
616,274,23.4391,2.90649,0,0,0,0,0,0,0,-1,1840,750,23.4391,-2.90648
623,274,15.5306,0.0911255,0,0,0,0,0,0,0,-1,1847,750,15.5306,-0.091099
630,274,15.2897,0.329285,-0.00165272,-0.000878165,0.0077338,0.00647805,-0.00900893,0.810415,0.00898112,0.0420505,1854,750,15.2897,-0.329301
637,274,15.0508,0.587097,-0.00237427,6.09458e-05,0.00593482,0.00490177,-0.0072151,0.886576,0.00703805,0.0132949,1861,750,15.0507,-0.587078
644,274,15.0533,0.859619,-0.00255739,0.00050105,0.00415073,0.0033953,-0.00545164,0.961893,0.00515357,0.0117671,1868,750,15.0533,-0.859622
651,274,15.0475,1.13116,-0.00220063,0.000285919,0.00245727,0.00179653,-0.00371124,1.0196,0.00324333,0.0134711,1875,750,15.0475,-1.13117
658,274,15.036,1.38715,-0.00148863,0.000285914,0.000992315,0.000729785,-0.0019325,1.15018,0.00158849,0.0162606,1882,750,15.036,-1.38717
665,274,15.0455,1.65906,-0.000700313,1.26838e-06,-6.92232e-06,1.33671e-06,-0.000700381,-1.56093,0.000467367,0.0164467,1889,750,15.0455,-1.65905
672,274,15.0671,1.9079,0.000155709,-0.000205126,-0.000705387,0.000703386,-0.000752802,-0.660197,0.000840892,0.01352,1896,750,15.0671,-1.9079
679,274,15.0588,2.15942,0.000994954,-0.000731351,-0.000927563,0.00139885,-0.00113524,-0.410676,0.00146569,0.0143688,1903,750,15.0589,-2.15945
686,274,15.042,2.41663,0.00209619,-0.000526754,-0.000357832,0.00214413,-0.000574694,-0.133182,0.0016546,0.015239,1910,750,15.042,-2.4166
693,274,15.0424,2.68243,0.00429616,-0.000873455,0.000527932,0.00434953,-0.000926818,0.100737,0.00325294,0.0119925,1917,750,15.0424,-2.68244
700,274,15.0552,2.92926,0.00818351,-0.00211842,0.00152094,0.00840337,-0.00233827,0.143557,0.0065229,0.0136764,1924,750,15.0551,-2.92927
707,274,15.0559,3.14868,0.0126403,-0.00364106,0.0028027,0.0131092,-0.00411002,0.165787,0.0103842,0.0219949,1931,750,15.0559,-3.14868
714,274,15.1681,3.14221,0.0192371,-0.00601547,0.00465518,0.0200679,-0.0068463,0.176613,0.0161518,0.0400484,1938,750,15.1681,-3.14219
721,274,15.3159,3.08276,0.028856,-0.00946032,0.00735969,0.030221,-0.0108253,0.183386,0.0245642,0.0464221,1945,750,15.3159,-3.08277
728,274,15.7922,2.94958,0,0,0,0,0,0,0,-1,1952,750,15.7923,-2.94961
735,274,16.1566,2.53204,0,0,0,0,0,0,0,-1,1959,750,16.1566,-2.53207
742,274,11.7815,-0.740234,0,0,0,0,0,0,0,-1,1966,750,11.7815,0.740253
749,274,0,0,0,0,0,0,0,0,0,-1,1973,750,0,0
756,274,0,0,0,0,0,0,0,0,0,-1,1980,750,0,0
763,274,0,0,0,0,0,0,0,0,0,-1,1987,750,0,0
770,274,0,0,0,0,0,0,0,0,0,-1,1994,750,0,0
777,274,0,0,0,0,0,0,0,0,0,-1,2001,750,0,0
784,274,0,0,0,0,0,0,0,0,0,-1,2008,750,0,0
791,274,0,0,0,0,0,0,0,0,0,-1,2015,750,0,0
798,274,0,0,0,0,0,0,0,0,0,-1,2022,750,0,0
805,274,0,0,0,0,0,0,0,0,0,-1,2029,750,0,0
812,274,0,0,0,0,0,0,0,0,0,-1,2036,750,0,0
-700,267,0,0,0,0,0,0,0,0,0,-1,524,757,0,0
-693,267,0,0,0,0,0,0,0,0,0,-1,531,757,0,0
-686,267,0,0,0,0,0,0,0,0,0,-1,538,757,0,0
-679,267,0,0,0,0,0,0,0,0,0,-1,545,757,0,0
-672,267,0,0,0,0,0,0,0,0,0,-1,552,757,0,0
-665,267,0,0,0,0,0,0,0,0,0,-1,559,757,0,0
-658,267,0,0,0,0,0,0,0,0,0,-1,566,757,0,0
-651,267,0,0,0,0,0,0,0,0,0,-1,573,757,0,0
-644,267,0,0,0,0,0,0,0,0,0,-1,580,757,0,0
-637,267,0,0,0,0,0,0,0,0,0,-1,587,757,0,0
-630,267,-12.2165,0.23938,0,0,0,0,0,0,0,-1,594,757,-12.2165,-0.239406
-623,267,-12.6369,-0.445496,0.0210569,0.021035,0.021146,0.0421919,-0.000100015,0.785139,0.0281613,0.046051,601,757,-12.6369,0.445479
-616,267,-12.8431,-0.481018,0.024808,0.026854,0.0215165,0.0473718,0.00429022,0.809153,0.0302527,0.0433258,608,757,-12.8431,0.481027
-609,267,-13.2305,-0.589905,0.0247397,0.0271041,0.0207222,0.0466778,0.00516599,0.813891,0.0295475,0.0424882,615,757,-13.2305,0.589921
-602,267,-13.9137,-0.841431,0.0228718,0.0247463,0.0191022,0.0429342,0.0046838,0.809911,0.0271963,0.0461722,622,757,-13.9137,0.841401
-595,267,-8.62671,1.75342,0,0,0,0,0,0,0,-1,629,757,-8.6267,-1.75339
-588,267,-8.69183,1.49585,0.0167165,0.0172537,0.0149083,0.0318959,0.00207438,0.794406,0.0206073,0.04229,636,757,-8.69186,-1.49584
-581,267,-8.77008,1.18567,0.0129646,0.0135616,0.0125488,0.0258154,0.000710763,0.797289,0.0169783,0.0271136,643,757,-8.77007,-1.18566
-574,267,-8.87567,0.846252,0.00901869,0.00990767,0.0101272,0.0196001,-0.00067374,0.807329,0.013297,0.0147443,650,757,-8.87568,-0.846267
-567,267,-8.93121,0.65094,0.0063198,0.00704587,0.00825403,0.0149448,-0.00157918,0.807376,0.0105292,0.0206792,657,757,-8.93122,-0.650916
-560,267,-8.93494,0.439575,0.00221798,0.00409148,0.00583346,0.00906293,-0.00275347,0.86501,0.00713902,0.0207212,664,757,-8.93495,-0.439579
-553,267,-8.91382,0.206482,-0.00112361,0.00149097,0.00444164,0.00481371,-0.00444635,0.92852,0.0053477,0.0168102,671,757,-8.91382,-0.206502
-546,267,-8.91888,-0.0499878,-0.00255243,-0.00154664,0.00380689,0.00179043,-0.0058895,0.851069,0.00463976,0.0109593,678,757,-8.91891,0.0499662
-539,267,-8.92017,-0.288269,-0.00421699,-0.00199378,0.00386515,0.000916437,-0.00712721,0.925418,0.00508456,0.0100321,685,757,-8.92017,0.288259
-532,267,-8.90131,-0.545166,-0.00483289,-0.00277544,0.00446495,0.000777768,-0.00838609,0.898623,0.00586719,0.00992153,692,757,-8.90132,0.545169
-525,267,-8.9201,-0.782349,-0.00572104,-0.00347129,0.00526647,0.000789091,-0.00998143,0.890613,0.0069323,0.00968373,699,757,-8.92008,0.782364
-518,267,-8.93915,-1.02002,-0.00658217,-0.00448207,0.00605126,0.000609572,-0.0116738,0.871305,0.00799348,0.0107008,706,757,-8.93918,1.02001
-511,267,-8.93652,-1.2879,-0.00917214,-0.00198383,0.00625441,0.00163559,-0.0127916,1.04619,0.00912191,0.0150619,713,757,-8.93655,1.28787
-504,267,-8.97546,-1.495,-0.0123912,-0.000478756,0.00701005,0.00276379,-0.0156338,1.13755,0.0114555,0.0282726,720,757,-8.97544,1.49497
-497,267,-9.22626,-0.966797,-0.0157215,0.00197699,0.00743721,0.00468722,-0.0184317,1.22134,0.0141121,0.046204,727,757,-9.22623,0.966775
-490,267,-9.46594,-0.438232,-0.0197361,0.00583834,0.00738011,0.00781523,-0.021713,1.30907,0.0176663,0.0469248,734,757,-9.46596,0.438253
-483,267,-9.53473,0.107239,-0.0245045,0.0113833,0.00665973,0.0125793,-0.0257005,1.3931,0.0225295,0.0469892,741,757,-9.53471,-0.10724
-476,267,-10.1379,0.339844,-0.030191,0.0188329,0.00515989,0.0193701,-0.0307282,1.46706,0.029171,0.0461196,748,757,-10.1379,-0.33982
-469,267,-10.2946,0.834534,0,0,0,0,0,0,0,-1,755,757,-10.2946,-0.834546
-462,267,-10.5492,1.28516,-0.0454456,0.039806,-0.000517283,0.0398091,-0.0454488,-1.56473,0.0492596,0.0491534,762,757,-10.5492,-1.28515
-455,267,-14.829,1.36865,-0.0559742,0.0537274,-0.00480539,0.0539375,-0.0561843,-1.5271,0.0635833,0.0466959,769,757,-14.8291,-1.36866
-448,267,-14.5971,1.40576,0,0,0,0,0,0,0,-1,776,757,-14.5971,-1.40575
-441,267,0,0,0,0,0,0,0,0,0,-1,783,757,0,0
-434,267,0,0,0,0,0,0,0,0,0,-1,790,757,0,0
-427,267,0,0,0,0,0,0,0,0,0,-1,797,757,0,0
-420,267,0,0,0,0,0,0,0,0,0,-1,804,757,0,0
-413,267,0,0,0,0,0,0,0,0,0,-1,811,757,0,0
-406,267,0,0,0,0,0,0,0,0,0,-1,818,757,0,0
-399,267,0,0,0,0,0,0,0,0,0,-1,825,757,0,0
-392,267,0,0,0,0,0,0,0,0,0,-1,832,757,0,0
-385,267,0,0,0,0,0,0,0,0,0,-1,839,757,0,0
-378,267,0,0,0,0,0,0,0,0,0,-1,846,757,0,0
-371,267,0,0,0,0,0,0,0,0,0,-1,853,757,0,0
-364,267,0,0,0,0,0,0,0,0,0,-1,860,757,0,0
-357,267,0,0,0,0,0,0,0,0,0,-1,867,757,0,0
-350,267,0,0,0,0,0,0,0,0,0,-1,874,757,0,0
-343,267,0,0,0,0,0,0,0,0,0,-1,881,757,0,0
-336,267,0,0,0,0,0,0,0,0,0,-1,888,757,0,0
-329,267,0,0,0,0,0,0,0,0,0,-1,895,757,0,0
-322,267,0,0,0,0,0,0,0,0,0,-1,902,757,0,0
-315,267,0,0,0,0,0,0,0,0,0,-1,909,757,0,0
-308,267,0,0,0,0,0,0,0,0,0,-1,916,757,0,0
-301,267,0,0,0,0,0,0,0,0,0,-1,923,757,0,0
-294,267,0,0,0,0,0,0,0,0,0,-1,930,757,0,0
-287,267,0,0,0,0,0,0,0,0,0,-1,937,757,0,0
-280,267,0,0,0,0,0,0,0,0,0,-1,944,757,0,0
-273,267,0,0,0,0,0,0,0,0,0,-1,951,757,0,0
-266,267,0,0,0,0,0,0,0,0,0,-1,958,757,0,0
-259,267,0,0,0,0,0,0,0,0,0,-1,965,757,0,0
-252,267,0,0,0,0,0,0,0,0,0,-1,972,757,0,0
-245,267,0,0,0,0,0,0,0,0,0,-1,979,757,0,0
-238,267,0,0,0,0,0,0,0,0,0,-1,986,757,0,0
-231,267,0,0,0,0,0,0,0,0,0,-1,993,757,0,0
-224,267,0,0,0,0,0,0,0,0,0,-1,1000,757,0,0
-217,267,0,0,0,0,0,0,0,0,0,-1,1007,757,0,0
-210,267,0,0,0,0,0,0,0,0,0,-1,1014,757,0,0
-203,267,0,0,0,0,0,0,0,0,0,-1,1021,757,0,0
-196,267,0,0,0,0,0,0,0,0,0,-1,1028,757,0,0
-189,267,0,0,0,0,0,0,0,0,0,-1,1035,757,0,0
-182,267,0,0,0,0,0,0,0,0,0,-1,1042,757,0,0
-175,267,0,0,0,0,0,0,0,0,0,-1,1049,757,0,0
-168,267,0,0,0,0,0,0,0,0,0,-1,1056,757,0,0
-161,267,0,0,0,0,0,0,0,0,0,-1,1063,757,0,0
-154,267,0,0,0,0,0,0,0,0,0,-1,1070,757,0,0
-147,267,0,0,0,0,0,0,0,0,0,-1,1077,757,0,0
-140,267,0,0,0,0,0,0,0,0,0,-1,1084,757,0,0
-133,267,0,0,0,0,0,0,0,0,0,-1,1091,757,0,0
-126,267,0,0,0,0,0,0,0,0,0,-1,1098,757,0,0
-119,267,0,0,0,0,0,0,0,0,0,-1,1105,757,0,0
-112,267,0,0,0,0,0,0,0,0,0,-1,1112,757,0,0
-105,267,0,0,0,0,0,0,0,0,0,-1,1119,757,0,0
-98,267,0,0,0,0,0,0,0,0,0,-1,1126,757,0,0
-91,267,0,0,0,0,0,0,0,0,0,-1,1133,757,0,0
-84,267,0,0,0,0,0,0,0,0,0,-1,1140,757,0,0
-77,267,0,0,0,0,0,0,0,0,0,-1,1147,757,0,0
-70,267,0,0,0,0,0,0,0,0,0,-1,1154,757,0,0
-63,267,0,0,0,0,0,0,0,0,0,-1,1161,757,0,0
-56,267,0,0,0,0,0,0,0,0,0,-1,1168,757,0,0
-49,267,0,0,0,0,0,0,0,0,0,-1,1175,757,0,0
-42,267,0,0,0,0,0,0,0,0,0,-1,1182,757,0,0
-35,267,0,0,0,0,0,0,0,0,0,-1,1189,757,0,0
-28,267,0,0,0,0,0,0,0,0,0,-1,1196,757,0,0
-21,267,0,0,0,0,0,0,0,0,0,-1,1203,757,0,0
-14,267,0,0,0,0,0,0,0,0,0,-1,1210,757,0,0
-7,267,0,0,0,0,0,0,0,0,0,-1,1217,757,0,0
0,267,0,0,0,0,0,0,0,0,0,-1,1224,757,0,0
7,267,0,0,0,0,0,0,0,0,0,-1,1231,757,0,0
14,267,0,0,0,0,0,0,0,0,0,-1,1238,757,0,0
21,267,0,0,0,0,0,0,0,0,0,-1,1245,757,0,0
28,267,0,0,0,0,0,0,0,0,0,-1,1252,757,0,0
35,267,0,0,0,0,0,0,0,0,0,-1,1259,757,0,0
42,267,0,0,0,0,0,0,0,0,0,-1,1266,757,0,0
49,267,0,0,0,0,0,0,0,0,0,-1,1273,757,0,0
56,267,0,0,0,0,0,0,0,0,0,-1,1280,757,0,0
63,267,0,0,0,0,0,0,0,0,0,-1,1287,757,0,0
70,267,0,0,0,0,0,0,0,0,0,-1,1294,757,0,0
77,267,0,0,0,0,0,0,0,0,0,-1,1301,757,0,0
84,267,0,0,0,0,0,0,0,0,0,-1,1308,757,0,0
91,267,0,0,0,0,0,0,0,0,0,-1,1315,757,0,0
98,267,0,0,0,0,0,0,0,0,0,-1,1322,757,0,0
105,267,0,0,0,0,0,0,0,0,0,-1,1329,757,0,0
112,267,0,0,0,0,0,0,0,0,0,-1,1336,757,0,0
119,267,0,0,0,0,0,0,0,0,0,-1,1343,757,0,0
126,267,0,0,0,0,0,0,0,0,0,-1,1350,757,0,0
133,267,0,0,0,0,0,0,0,0,0,-1,1357,757,0,0
140,267,0,0,0,0,0,0,0,0,0,-1,1364,757,0,0
147,267,0,0,0,0,0,0,0,0,0,-1,1371,757,0,0
154,267,0,0,0,0,0,0,0,0,0,-1,1378,757,0,0
161,267,0,0,0,0,0,0,0,0,0,-1,1385,757,0,0
168,267,0,0,0,0,0,0,0,0,0,-1,1392,757,0,0
175,267,0,0,0,0,0,0,0,0,0,-1,1399,757,0,0
182,267,0,0,0,0,0,0,0,0,0,-1,1406,757,0,0
189,267,0,0,0,0,0,0,0,0,0,-1,1413,757,0,0
196,267,0,0,0,0,0,0,0,0,0,-1,1420,757,0,0
203,267,0,0,0,0,0,0,0,0,0,-1,1427,757,0,0
210,267,0,0,0,0,0,0,0,0,0,-1,1434,757,0,0
217,267,0,0,0,0,0,0,0,0,0,-1,1441,757,0,0
224,267,0,0,0,0,0,0,0,0,0,-1,1448,757,0,0
231,267,0,0,0,0,0,0,0,0,0,-1,1455,757,0,0
238,267,0,0,0,0,0,0,0,0,0,-1,1462,757,0,0
245,267,0,0,0,0,0,0,0,0,0,-1,1469,757,0,0
252,267,0,0,0,0,0,0,0,0,0,-1,1476,757,0,0
259,267,0,0,0,0,0,0,0,0,0,-1,1483,757,0,0
266,267,0,0,0,0,0,0,0,0,0,-1,1490,757,0,0
273,267,0,0,0,0,0,0,0,0,0,-1,1497,757,0,0
280,267,0,0,0,0,0,0,0,0,0,-1,1504,757,0,0
287,267,0,0,0,0,0,0,0,0,0,-1,1511,757,0,0
294,267,0,0,0,0,0,0,0,0,0,-1,1518,757,0,0
301,267,0,0,0,0,0,0,0,0,0,-1,1525,757,0,0
308,267,0,0,0,0,0,0,0,0,0,-1,1532,757,0,0
315,267,0,0,0,0,0,0,0,0,0,-1,1539,757,0,0
322,267,0,0,0,0,0,0,0,0,0,-1,1546,757,0,0
329,267,0,0,0,0,0,0,0,0,0,-1,1553,757,0,0
336,267,0,0,0,0,0,0,0,0,0,-1,1560,757,0,0
343,267,0,0,0,0,0,0,0,0,0,-1,1567,757,0,0
350,267,0,0,0,0,0,0,0,0,0,-1,1574,757,0,0
357,267,0,0,0,0,0,0,0,0,0,-1,1581,757,0,0
364,267,0,0,0,0,0,0,0,0,0,-1,1588,757,0,0
371,267,0,0,0,0,0,0,0,0,0,-1,1595,757,0,0
378,267,0,0,0,0,0,0,0,0,0,-1,1602,757,0,0
385,267,0,0,0,0,0,0,0,0,0,-1,1609,757,0,0
392,267,0,0,0,0,0,0,0,0,0,-1,1616,757,0,0
399,267,0,0,0,0,0,0,0,0,0,-1,1623,757,0,0
406,267,0,0,0,0,0,0,0,0,0,-1,1630,757,0,0
413,267,0,0,0,0,0,0,0,0,0,-1,1637,757,0,0
420,267,0,0,0,0,0,0,0,0,0,-1,1644,757,0,0
427,267,0,0,0,0,0,0,0,0,0,-1,1651,757,0,0
434,267,0,0,0,0,0,0,0,0,0,-1,1658,757,0,0
441,267,0,0,0,0,0,0,0,0,0,-1,1665,757,0,0
448,267,0,0,0,0,0,0,0,0,0,-1,1672,757,0,0
455,267,0,0,0,0,0,0,0,0,0,-1,1679,757,0,0
462,267,0,0,0,0,0,0,0,0,0,-1,1686,757,0,0
469,267,0,0,0,0,0,0,0,0,0,-1,1693,757,0,0
476,267,0,0,0,0,0,0,0,0,0,-1,1700,757,0,0
483,267,0,0,0,0,0,0,0,0,0,-1,1707,757,0,0
490,267,0,0,0,0,0,0,0,0,0,-1,1714,757,0,0
497,267,0,0,0,0,0,0,0,0,0,-1,1721,757,0,0
504,267,0,0,0,0,0,0,0,0,0,-1,1728,757,0,0
511,267,0,0,0,0,0,0,0,0,0,-1,1735,757,0,0
518,267,0,0,0,0,0,0,0,0,0,-1,1742,757,0,0
525,267,0,0,0,0,0,0,0,0,0,-1,1749,757,0,0
532,267,0,0,0,0,0,0,0,0,0,-1,1756,757,0,0
539,267,0,0,0,0,0,0,0,0,0,-1,1763,757,0,0
546,267,0,0,0,0,0,0,0,0,0,-1,1770,757,0,0
553,267,0,0,0,0,0,0,0,0,0,-1,1777,757,0,0
560,267,0,0,0,0,0,0,0,0,0,-1,1784,757,0,0
567,267,22.2509,3.19019,0,0,0,0,0,0,0,-1,1791,757,22.2508,-3.19017
574,267,22.5542,2.91168,0.0348629,-0.0174446,-0.00204097,0.0349424,-0.0175241,-0.0389399,0.030843,0.039703,1798,757,22.5542,-2.91169
581,267,23.1151,2.38123,0.0261977,-0.016306,0.00343946,0.0264743,-0.0165826,0.0802257,0.0250766,0.0408279,1805,757,23.1152,-2.38123
588,267,23.1104,2.33472,0.0189581,-0.0132664,0.00738883,0.0205715,-0.0148798,0.214985,0.0205556,0.0464649,1812,757,23.1103,-2.33472
595,267,23.1958,2.40613,0.0129768,-0.0104251,0.00950139,0.0163487,-0.0137969,0.341013,0.0174253,0.0483564,1819,757,23.1957,-2.40614
602,267,23.2708,2.49091,0.00780829,-0.00715109,0.0111274,0.0137363,-0.0130791,0.489491,0.0154834,0.0435732,1826,757,23.2707,-2.49088
609,267,23.187,2.62103,0.00410872,-0.00443624,0.0113776,0.0119896,-0.0123171,0.605787,0.0140339,0.0401052,1833,757,23.187,-2.62104
616,267,23.1224,2.68787,0.00152039,-0.00236303,0.0106674,0.0104214,-0.011264,0.695372,0.0125232,0.0448575,1840,757,23.1224,-2.68788
623,267,15.7581,0.345337,0,0,0,0,0,0,0,-1,1847,757,15.758,-0.345312
630,267,15.589,0.57428,-0.0016321,-0.000295225,0.00809035,0.00715425,-0.00908158,0.826615,0.00939575,0.0417685,1854,757,15.589,-0.5743
637,267,15.366,0.628723,-0.00230437,0.000619682,0.00620444,0.00553202,-0.00721671,0.901108,0.00738188,0.0252544,1861,757,15.366,-0.628716
644,267,15.3105,0.873535,-0.00253124,0.00105303,0.00438807,0.00400082,-0.00547903,0.979266,0.00549533,0.0122848,1868,757,15.3105,-0.873524
651,267,15.293,1.15723,-0.0022691,0.000774637,0.00266753,0.00232389,-0.00381835,1.04463,0.00358104,0.0149607,1875,757,15.293,-1.15725
658,267,15.3094,1.40344,-0.00164577,0.000640084,0.00110793,0.00108894,-0.00209463,1.18587,0.00186836,0.0157041,1882,757,15.3094,-1.40345
665,267,15.3309,1.65363,-0.000887264,0.000195473,-4.53488e-05,0.000197369,-0.00088916,-1.52901,0.000668349,0.015869,1889,757,15.3309,-1.6536
672,267,15.3472,1.9043,4.04303e-05,-0.000228004,-0.000952727,0.000868348,-0.00105592,-0.71542,0.00111274,0.0134216,1896,757,15.3472,-1.90427
679,267,15.3302,2.16168,0.000964595,-0.00106654,-0.00138784,0.00166876,-0.00177071,-0.469535,0.00198607,0.0123631,1903,757,15.3302,-2.16171
686,267,15.3167,2.44183,0.00214669,-0.00101855,-0.000837746,0.00235474,-0.0012266,-0.243422,0.00210161,0.0126013,1910,757,15.3166,-2.44184
693,267,15.307,2.67743,0.00464326,-0.00146845,1.94253e-05,0.00464332,-0.00146851,0.00317833,0.00368394,0.0126682,1917,757,15.307,-2.67744
700,267,15.2969,2.91907,0.00903506,-0.00294635,0.000850973,0.0090952,-0.00300649,0.0705525,0.00727572,0.0143698,1924,757,15.2969,-2.91904
707,267,15.311,3.15131,0.0139165,-0.00467879,0.00169655,0.01407,-0.00483231,0.0902426,0.0113394,0.0150112,1931,757,15.311,-3.15132
714,267,15.4015,3.23572,0.0210116,-0.00727749,0.00274681,0.0212758,-0.00754173,0.0959042,0.0172562,0.0285425,1938,757,15.4015,-3.23575
721,267,15.5105,3.21649,0.0312839,-0.0110001,0.00441569,0.0317401,-0.0114563,0.102949,0.0258398,0.0441213,1945,757,15.5105,-3.2165
728,267,16.0765,2.19098,0,0,0,0,0,0,0,-1,1952,757,16.0765,-2.19099
735,267,15.9551,4.39764,0,0,0,0,0,0,0,-1,1959,757,15.9551,-4.39762
742,267,16.1127,4.81091,0,0,0,0,0,0,0,-1,1966,757,16.1127,-4.81091
749,267,0,0,0,0,0,0,0,0,0,-1,1973,757,0,0
756,267,0,0,0,0,0,0,0,0,0,-1,1980,757,0,0
763,267,0,0,0,0,0,0,0,0,0,-1,1987,757,0,0
770,267,0,0,0,0,0,0,0,0,0,-1,1994,757,0,0
777,267,0,0,0,0,0,0,0,0,0,-1,2001,757,0,0
784,267,0,0,0,0,0,0,0,0,0,-1,2008,757,0,0
791,267,0,0,0,0,0,0,0,0,0,-1,2015,757,0,0
798,267,0,0,0,0,0,0,0,0,0,-1,2022,757,0,0
805,267,0,0,0,0,0,0,0,0,0,-1,2029,757,0,0
812,267,0,0,0,0,0,0,0,0,0,-1,2036,757,0,0
-700,260,0,0,0,0,0,0,0,0,0,-1,524,764,0,0
-693,260,0,0,0,0,0,0,0,0,0,-1,531,764,0,0
-686,260,0,0,0,0,0,0,0,0,0,-1,538,764,0,0
-679,260,0,0,0,0,0,0,0,0,0,-1,545,764,0,0
-672,260,0,0,0,0,0,0,0,0,0,-1,552,764,0,0
-665,260,0,0,0,0,0,0,0,0,0,-1,559,764,0,0
-658,260,0,0,0,0,0,0,0,0,0,-1,566,764,0,0
-651,260,0,0,0,0,0,0,0,0,0,-1,573,764,0,0
-644,260,0,0,0,0,0,0,0,0,0,-1,580,764,0,0
-637,260,0,0,0,0,0,0,0,0,0,-1,587,764,0,0
-630,260,-11.713,-0.434082,0,0,0,0,0,0,0,-1,594,764,-11.713,0.434094
-623,260,-12.3668,-0.141846,0.0348505,-9.48802e-05,0.0192807,0.0433979,-0.0086422,0.417276,0.0322015,0.0468427,601,764,-12.3668,0.141844
-616,260,-12.814,-0.0429688,0.0372849,0.00779811,0.0198982,0.0473066,-0.00222351,0.466559,0.0323044,0.0442708,608,764,-12.814,0.0429606
-609,260,-13.0074,-0.131287,0.035726,0.0115419,0.0190655,0.0462107,0.00105711,0.502792,0.0304609,0.0443921,615,764,-13.0074,0.131297
-602,260,-13.5203,-0.337402,0.032066,0.0126166,0.017372,0.04225,0.00243264,0.530232,0.0273918,0.0477658,622,764,-13.5203,0.337413
-595,260,-9.45636,0.930359,0.0273876,0.0120701,0.015386,0.0369156,0.00254203,0.554466,0.0238084,0.0484128,629,764,-9.45634,-0.930337
-588,260,-8.89685,1.12939,0.0224863,0.0109005,0.0132757,0.0311779,0.00220891,0.579674,0.0200895,0.0413864,636,764,-8.89682,-1.12939
-581,260,-9.09052,1.0918,0.017348,0.0092151,0.0109705,0.0249814,0.00158164,0.607913,0.0161529,0.0231615,643,764,-9.09053,-1.09178
-574,260,-9.15863,0.850464,0.0122839,0.00701276,0.00865853,0.0186991,0.000597561,0.637659,0.0122717,0.015083,650,764,-9.15863,-0.850479
-567,260,-9.17987,0.64978,0.00872678,0.00506569,0.00693511,0.0140689,-0.000276395,0.656364,0.00947272,0.0157106,657,764,-9.17988,-0.649786
-560,260,-9.16638,0.443787,0.00384357,0.00286339,0.00473414,0.00811292,-0.00140596,0.733821,0.00593306,0.0187352,664,764,-9.1664,-0.443778
-553,260,-9.14966,0.201477,-0.000216757,0.000890654,0.0036074,0.0039866,-0.0033127,0.86155,0.00422023,0.0169963,671,764,-9.14964,-0.201474
-546,260,-9.14984,-0.046814,-0.00212624,-0.00159977,0.00333603,0.00148339,-0.00520941,0.82477,0.00405879,0.0110559,678,764,-9.14986,0.0468084
-539,260,-9.13885,-0.277039,-0.00430148,-0.00205122,0.00360273,0.000597984,-0.00695068,0.936749,0.00484543,0.0108112,685,764,-9.13884,0.277031
-532,260,-9.12848,-0.500183,-0.00544047,-0.00272962,0.00434465,0.000466121,-0.00863621,0.936602,0.00591897,0.0121714,692,764,-9.12848,0.500175
-525,260,-9.14081,-0.774902,-0.00669333,-0.00328025,0.00514988,0.000438472,-0.0104121,0.945392,0.00709205,0.0116894,699,764,-9.14083,0.774918
-518,260,-9.15118,-1.0119,-0.00786324,-0.00418252,0.0058729,0.000131621,-0.0121774,0.937234,0.00816248,0.0132871,706,764,-9.15118,1.01191
-511,260,-9.15051,-1.23187,-0.0105219,-0.00176977,0.00618951,0.0014344,-0.0137261,1.09311,0.00966438,0.022266,713,764,-9.15052,1.23186
-504,260,-9.13336,-1.3858,-0.0138691,-0.000336936,0.00697809,0.00261674,-0.0168227,1.17038,0.0121815,0.0408527,720,764,-9.13334,1.38581
-497,260,-9.14301,-1.57257,0,0,0,0,0,0,0,-1,727,764,-9.14301,1.5726
-490,260,-9.77814,-0.208618,-0.0211062,0.00549736,0.00765495,0.00754275,-0.0231516,1.3097,0.0184694,0.04695,734,764,-9.77812,0.208646
-483,260,-10.0313,0.205383,-0.0257628,0.0105765,0.00729388,0.0119858,-0.0271721,1.37993,0.0231676,0.0426852,741,764,-10.0313,-0.20538
-476,260,-10.2606,0.578979,-0.031326,0.0173844,0.00632133,0.0181914,-0.0321329,1.44382,0.0294241,0.0439712,748,764,-10.2606,-0.578975
-469,260,-10.4935,0.987305,0,0,0,0,0,0,0,-1,755,764,-10.4935,-0.987304
-462,260,-15.1083,1.05109,-0.0461646,0.0364895,0.00217446,0.0365466,-0.0462217,1.54451,0.047895,0.0438645,762,764,-15.1083,-1.0511
-455,260,-15.0302,1.2597,-0.0564037,0.0493481,-0.00118673,0.0493614,-0.056417,-1.55958,0.0611165,0.0465676,769,764,-15.0302,-1.25971
-448,260,0,0,0,0,0,0,0,0,0,-1,776,764,0,0
-441,260,0,0,0,0,0,0,0,0,0,-1,783,764,0,0
-434,260,0,0,0,0,0,0,0,0,0,-1,790,764,0,0
-427,260,0,0,0,0,0,0,0,0,0,-1,797,764,0,0
-420,260,0,0,0,0,0,0,0,0,0,-1,804,764,0,0
-413,260,0,0,0,0,0,0,0,0,0,-1,811,764,0,0
-406,260,0,0,0,0,0,0,0,0,0,-1,818,764,0,0
-399,260,0,0,0,0,0,0,0,0,0,-1,825,764,0,0
-392,260,0,0,0,0,0,0,0,0,0,-1,832,764,0,0
-385,260,0,0,0,0,0,0,0,0,0,-1,839,764,0,0
-378,260,0,0,0,0,0,0,0,0,0,-1,846,764,0,0
-371,260,0,0,0,0,0,0,0,0,0,-1,853,764,0,0
-364,260,0,0,0,0,0,0,0,0,0,-1,860,764,0,0
-357,260,0,0,0,0,0,0,0,0,0,-1,867,764,0,0
-350,260,0,0,0,0,0,0,0,0,0,-1,874,764,0,0
-343,260,0,0,0,0,0,0,0,0,0,-1,881,764,0,0
-336,260,0,0,0,0,0,0,0,0,0,-1,888,764,0,0
-329,260,0,0,0,0,0,0,0,0,0,-1,895,764,0,0
-322,260,0,0,0,0,0,0,0,0,0,-1,902,764,0,0
-315,260,0,0,0,0,0,0,0,0,0,-1,909,764,0,0
-308,260,0,0,0,0,0,0,0,0,0,-1,916,764,0,0
-301,260,0,0,0,0,0,0,0,0,0,-1,923,764,0,0
-294,260,0,0,0,0,0,0,0,0,0,-1,930,764,0,0
-287,260,0,0,0,0,0,0,0,0,0,-1,937,764,0,0
-280,260,0,0,0,0,0,0,0,0,0,-1,944,764,0,0
-273,260,0,0,0,0,0,0,0,0,0,-1,951,764,0,0
-266,260,0,0,0,0,0,0,0,0,0,-1,958,764,0,0
-259,260,0,0,0,0,0,0,0,0,0,-1,965,764,0,0
-252,260,0,0,0,0,0,0,0,0,0,-1,972,764,0,0
-245,260,0,0,0,0,0,0,0,0,0,-1,979,764,0,0
-238,260,0,0,0,0,0,0,0,0,0,-1,986,764,0,0
-231,260,0,0,0,0,0,0,0,0,0,-1,993,764,0,0
-224,260,0,0,0,0,0,0,0,0,0,-1,1000,764,0,0
-217,260,0,0,0,0,0,0,0,0,0,-1,1007,764,0,0
-210,260,0,0,0,0,0,0,0,0,0,-1,1014,764,0,0
-203,260,0,0,0,0,0,0,0,0,0,-1,1021,764,0,0
-196,260,0,0,0,0,0,0,0,0,0,-1,1028,764,0,0
-189,260,0,0,0,0,0,0,0,0,0,-1,1035,764,0,0
-182,260,0,0,0,0,0,0,0,0,0,-1,1042,764,0,0
-175,260,0,0,0,0,0,0,0,0,0,-1,1049,764,0,0
-168,260,0,0,0,0,0,0,0,0,0,-1,1056,764,0,0
-161,260,0,0,0,0,0,0,0,0,0,-1,1063,764,0,0
-154,260,0,0,0,0,0,0,0,0,0,-1,1070,764,0,0
-147,260,0,0,0,0,0,0,0,0,0,-1,1077,764,0,0
-140,260,0,0,0,0,0,0,0,0,0,-1,1084,764,0,0
-133,260,0,0,0,0,0,0,0,0,0,-1,1091,764,0,0
-126,260,0,0,0,0,0,0,0,0,0,-1,1098,764,0,0
-119,260,0,0,0,0,0,0,0,0,0,-1,1105,764,0,0
-112,260,0,0,0,0,0,0,0,0,0,-1,1112,764,0,0
-105,260,0,0,0,0,0,0,0,0,0,-1,1119,764,0,0
-98,260,0,0,0,0,0,0,0,0,0,-1,1126,764,0,0
-91,260,0,0,0,0,0,0,0,0,0,-1,1133,764,0,0
-84,260,0,0,0,0,0,0,0,0,0,-1,1140,764,0,0
-77,260,0,0,0,0,0,0,0,0,0,-1,1147,764,0,0
-70,260,0,0,0,0,0,0,0,0,0,-1,1154,764,0,0
-63,260,0,0,0,0,0,0,0,0,0,-1,1161,764,0,0
-56,260,0,0,0,0,0,0,0,0,0,-1,1168,764,0,0
-49,260,0,0,0,0,0,0,0,0,0,-1,1175,764,0,0
-42,260,0,0,0,0,0,0,0,0,0,-1,1182,764,0,0
-35,260,0,0,0,0,0,0,0,0,0,-1,1189,764,0,0
-28,260,0,0,0,0,0,0,0,0,0,-1,1196,764,0,0
-21,260,0,0,0,0,0,0,0,0,0,-1,1203,764,0,0
-14,260,0,0,0,0,0,0,0,0,0,-1,1210,764,0,0
-7,260,0,0,0,0,0,0,0,0,0,-1,1217,764,0,0
0,260,0,0,0,0,0,0,0,0,0,-1,1224,764,0,0
7,260,0,0,0,0,0,0,0,0,0,-1,1231,764,0,0
14,260,0,0,0,0,0,0,0,0,0,-1,1238,764,0,0
21,260,0,0,0,0,0,0,0,0,0,-1,1245,764,0,0
28,260,0,0,0,0,0,0,0,0,0,-1,1252,764,0,0
35,260,0,0,0,0,0,0,0,0,0,-1,1259,764,0,0
42,260,0,0,0,0,0,0,0,0,0,-1,1266,764,0,0
49,260,0,0,0,0,0,0,0,0,0,-1,1273,764,0,0
56,260,0,0,0,0,0,0,0,0,0,-1,1280,764,0,0
63,260,0,0,0,0,0,0,0,0,0,-1,1287,764,0,0
70,260,0,0,0,0,0,0,0,0,0,-1,1294,764,0,0
77,260,0,0,0,0,0,0,0,0,0,-1,1301,764,0,0
84,260,0,0,0,0,0,0,0,0,0,-1,1308,764,0,0
91,260,0,0,0,0,0,0,0,0,0,-1,1315,764,0,0
98,260,0,0,0,0,0,0,0,0,0,-1,1322,764,0,0
105,260,0,0,0,0,0,0,0,0,0,-1,1329,764,0,0
112,260,0,0,0,0,0,0,0,0,0,-1,1336,764,0,0
119,260,0,0,0,0,0,0,0,0,0,-1,1343,764,0,0
126,260,0,0,0,0,0,0,0,0,0,-1,1350,764,0,0
133,260,0,0,0,0,0,0,0,0,0,-1,1357,764,0,0
140,260,0,0,0,0,0,0,0,0,0,-1,1364,764,0,0
147,260,0,0,0,0,0,0,0,0,0,-1,1371,764,0,0
154,260,0,0,0,0,0,0,0,0,0,-1,1378,764,0,0
161,260,0,0,0,0,0,0,0,0,0,-1,1385,764,0,0
168,260,0,0,0,0,0,0,0,0,0,-1,1392,764,0,0
175,260,0,0,0,0,0,0,0,0,0,-1,1399,764,0,0
182,260,0,0,0,0,0,0,0,0,0,-1,1406,764,0,0
189,260,0,0,0,0,0,0,0,0,0,-1,1413,764,0,0
196,260,0,0,0,0,0,0,0,0,0,-1,1420,764,0,0
203,260,0,0,0,0,0,0,0,0,0,-1,1427,764,0,0
210,260,0,0,0,0,0,0,0,0,0,-1,1434,764,0,0
217,260,0,0,0,0,0,0,0,0,0,-1,1441,764,0,0
224,260,0,0,0,0,0,0,0,0,0,-1,1448,764,0,0
231,260,0,0,0,0,0,0,0,0,0,-1,1455,764,0,0
238,260,0,0,0,0,0,0,0,0,0,-1,1462,764,0,0
245,260,0,0,0,0,0,0,0,0,0,-1,1469,764,0,0
252,260,0,0,0,0,0,0,0,0,0,-1,1476,764,0,0
259,260,0,0,0,0,0,0,0,0,0,-1,1483,764,0,0
266,260,0,0,0,0,0,0,0,0,0,-1,1490,764,0,0
273,260,0,0,0,0,0,0,0,0,0,-1,1497,764,0,0
280,260,0,0,0,0,0,0,0,0,0,-1,1504,764,0,0
287,260,0,0,0,0,0,0,0,0,0,-1,1511,764,0,0
294,260,0,0,0,0,0,0,0,0,0,-1,1518,764,0,0
301,260,0,0,0,0,0,0,0,0,0,-1,1525,764,0,0
308,260,0,0,0,0,0,0,0,0,0,-1,1532,764,0,0
315,260,0,0,0,0,0,0,0,0,0,-1,1539,764,0,0
322,260,0,0,0,0,0,0,0,0,0,-1,1546,764,0,0
329,260,0,0,0,0,0,0,0,0,0,-1,1553,764,0,0
336,260,0,0,0,0,0,0,0,0,0,-1,1560,764,0,0
343,260,0,0,0,0,0,0,0,0,0,-1,1567,764,0,0
350,260,0,0,0,0,0,0,0,0,0,-1,1574,764,0,0
357,260,0,0,0,0,0,0,0,0,0,-1,1581,764,0,0
364,260,0,0,0,0,0,0,0,0,0,-1,1588,764,0,0
371,260,0,0,0,0,0,0,0,0,0,-1,1595,764,0,0
378,260,0,0,0,0,0,0,0,0,0,-1,1602,764,0,0
385,260,0,0,0,0,0,0,0,0,0,-1,1609,764,0,0
392,260,0,0,0,0,0,0,0,0,0,-1,1616,764,0,0
399,260,0,0,0,0,0,0,0,0,0,-1,1623,764,0,0
406,260,0,0,0,0,0,0,0,0,0,-1,1630,764,0,0
413,260,0,0,0,0,0,0,0,0,0,-1,1637,764,0,0
420,260,0,0,0,0,0,0,0,0,0,-1,1644,764,0,0
427,260,0,0,0,0,0,0,0,0,0,-1,1651,764,0,0
434,260,0,0,0,0,0,0,0,0,0,-1,1658,764,0,0
441,260,0,0,0,0,0,0,0,0,0,-1,1665,764,0,0
448,260,0,0,0,0,0,0,0,0,0,-1,1672,764,0,0
455,260,0,0,0,0,0,0,0,0,0,-1,1679,764,0,0
462,260,0,0,0,0,0,0,0,0,0,-1,1686,764,0,0
469,260,0,0,0,0,0,0,0,0,0,-1,1693,764,0,0
476,260,0,0,0,0,0,0,0,0,0,-1,1700,764,0,0
483,260,0,0,0,0,0,0,0,0,0,-1,1707,764,0,0
490,260,0,0,0,0,0,0,0,0,0,-1,1714,764,0,0
497,260,0,0,0,0,0,0,0,0,0,-1,1721,764,0,0
504,260,0,0,0,0,0,0,0,0,0,-1,1728,764,0,0
511,260,0,0,0,0,0,0,0,0,0,-1,1735,764,0,0
518,260,0,0,0,0,0,0,0,0,0,-1,1742,764,0,0
525,260,0,0,0,0,0,0,0,0,0,-1,1749,764,0,0
532,260,0,0,0,0,0,0,0,0,0,-1,1756,764,0,0
539,260,0,0,0,0,0,0,0,0,0,-1,1763,764,0,0
546,260,0,0,0,0,0,0,0,0,0,-1,1770,764,0,0
553,260,0,0,0,0,0,0,0,0,0,-1,1777,764,0,0
560,260,0,0,0,0,0,0,0,0,0,-1,1784,764,0,0
567,260,0,0,0,0,0,0,0,0,0,-1,1791,764,0,0
574,260,22.5239,2.78589,0.0315012,-0.0164709,-0.00167465,0.0315595,-0.0165293,-0.0348522,0.0282125,0.0354662,1798,764,22.5239,-2.78589
581,260,22.7299,2.75787,0.0233151,-0.0147284,0.00512726,0.023994,-0.0154073,0.131645,0.0229277,0.0391249,1805,764,22.7298,-2.7579
588,260,22.9347,2.6394,0.0165453,-0.0115393,0.0093182,0.0193558,-0.0143497,0.292932,0.0195313,0.045453,1812,764,22.9347,-2.63943
595,260,23.0179,2.48236,0.0111289,-0.00862553,0.011326,0.0162795,-0.0137762,0.426811,0.0173728,0.0461602,1819,764,23.0179,-2.48234
602,260,22.9058,2.46985,0.00670548,-0.00573335,0.0123805,0.0143409,-0.0133688,0.552632,0.0160015,0.0425551,1826,764,22.9058,-2.46984
609,260,22.8629,2.54059,0.00350208,-0.00335073,0.0121526,0.0127021,-0.0125507,0.647991,0.0145798,0.0379835,1833,764,22.8629,-2.54057
616,260,22.8514,2.60974,0.00122442,-0.00153902,0.0110806,0.0110092,-0.0113238,0.72337,0.0128943,0.0387128,1840,764,22.8514,-2.60974
623,260,21.5771,6.03845,0,0,0,0,0,0,0,-1,1847,764,21.5772,-6.03843
630,260,15.9659,1.28387,0,0,0,0,0,0,0,-1,1854,764,15.9659,-1.28389
637,260,15.7549,1.13916,-0.00213123,0.000983284,0.00609073,0.00571268,-0.00686063,0.910555,0.00726928,0.045835,1861,764,15.7549,-1.13916
644,260,15.6171,0.883362,-0.00237675,0.00135185,0.00427825,0.00415435,-0.00517926,0.990874,0.00539958,0.0251316,1868,764,15.6171,-0.883333
651,260,15.61,1.14545,-0.00221859,0.00104083,0.00259184,0.00247275,-0.00365051,1.06606,0.003557,0.0145195,1875,764,15.61,-1.14546
658,260,15.577,1.43024,-0.00170259,0.000843433,0.00101833,0.00120062,-0.00205978,1.23344,0.00190406,0.0162919,1882,764,15.5771,-1.43021
665,260,15.5785,1.68524,-0.000985806,0.000334668,-0.000223325,0.000371415,-0.00102255,-1.40771,0.000833562,0.0156329,1889,764,15.5785,-1.68521
672,260,15.5874,1.9259,1.40854e-05,-0.000226766,-0.00128637,0.00118566,-0.00139834,-0.738726,0.00149355,0.013036,1896,764,15.5874,-1.92593
679,260,15.5724,2.18268,0.00103865,-0.00128094,-0.00191299,0.00211596,-0.00235825,-0.512889,0.00258445,0.0117164,1903,764,15.5724,-2.18265
686,260,15.5769,2.44135,0.0023233,-0.00134604,-0.00139235,0.00279181,-0.00181455,-0.324589,0.00267936,0.014125,1910,764,15.5769,-2.44137
693,260,15.5535,2.64795,0.00514387,-0.00182465,-0.00057586,0.00519113,-0.00187192,-0.081897,0.00422528,0.0141643,1917,764,15.5534,-2.64794
700,260,15.5291,2.90173,0.0100426,-0.00344573,3.75794e-05,0.0100427,-0.00344583,0.00278603,0.00809213,0.0130839,1924,764,15.5291,-2.90172
707,260,15.5422,3.1308,0.0153442,-0.00530995,0.000410495,0.0153523,-0.00531811,0.0198643,0.0123939,0.0138506,1931,764,15.5422,-3.13081
714,260,15.5879,3.28741,0.0228568,-0.00809307,0.000551634,0.0228667,-0.0081029,0.0178159,0.0185452,0.0227349,1938,764,15.5879,-3.28744
721,260,15.6718,3.19434,0.0335723,-0.0119999,0.00110482,0.033599,-0.0120267,0.0242243,0.0273059,0.0396809,1945,764,15.6717,-3.19436
728,260,15.524,3.50433,0.0485622,-0.0173182,0.00175683,0.048609,-0.017365,0.0266418,0.0394882,0.0476844,1952,764,15.5241,-3.50435
735,260,15.4161,4.73889,0,0,0,0,0,0,0,-1,1959,764,15.4161,-4.73888
742,260,15.833,4.61877,0,0,0,0,0,0,0,-1,1966,764,15.833,-4.61875
749,260,16.0095,4.91089,0,0,0,0,0,0,0,-1,1973,764,16.0095,-4.9109
756,260,0,0,0,0,0,0,0,0,0,-1,1980,764,0,0
763,260,0,0,0,0,0,0,0,0,0,-1,1987,764,0,0
770,260,0,0,0,0,0,0,0,0,0,-1,1994,764,0,0
777,260,0,0,0,0,0,0,0,0,0,-1,2001,764,0,0
784,260,0,0,0,0,0,0,0,0,0,-1,2008,764,0,0
791,260,0,0,0,0,0,0,0,0,0,-1,2015,764,0,0
798,260,0,0,0,0,0,0,0,0,0,-1,2022,764,0,0
805,260,0,0,0,0,0,0,0,0,0,-1,2029,764,0,0
812,260,0,0,0,0,0,0,0,0,0,-1,2036,764,0,0
-700,253,0,0,0,0,0,0,0,0,0,-1,524,771,0,0
-693,253,0,0,0,0,0,0,0,0,0,-1,531,771,0,0
-686,253,0,0,0,0,0,0,0,0,0,-1,538,771,0,0
-679,253,0,0,0,0,0,0,0,0,0,-1,545,771,0,0
-672,253,0,0,0,0,0,0,0,0,0,-1,552,771,0,0
-665,253,0,0,0,0,0,0,0,0,0,-1,559,771,0,0
-658,253,0,0,0,0,0,0,0,0,0,-1,566,771,0,0
-651,253,0,0,0,0,0,0,0,0,0,-1,573,771,0,0
-644,253,0,0,0,0,0,0,0,0,0,-1,580,771,0,0
-637,253,-13.5086,4.06274,0,0,0,0,0,0,0,-1,587,771,-13.5086,-4.06276
-630,253,-12.7297,-3.9447,0,0,0,0,0,0,0,-1,594,771,-12.7298,3.94469
-623,253,-12.1367,-0.130859,0.0450212,-0.0149689,0.0172283,0.0496169,-0.0195646,0.260681,0.041179,0.0470788,601,771,-12.1367,0.13083
-616,253,-12.6556,0.0656128,0.0458601,-0.00576439,0.0181523,0.0516038,-0.0115081,0.30645,0.0388115,0.0461489,608,771,-12.6556,-0.0656088
-609,253,-13.1239,-0.0100708,0.0430595,7.15455e-05,0.0175009,0.0492833,-0.00615218,0.341676,0.0350865,0.0436521,615,771,-13.1239,0.0100572
-602,253,-9.5238,1.91174,0,0,0,0,0,0,0,-1,622,771,-9.52383,-1.91175
-595,253,-9.63141,1.32507,0.0322407,0.00503008,0.0140319,0.0381802,-0.000909373,0.400416,0.0257619,0.0440127,629,771,-9.6314,-1.3251
-588,253,-9.34833,0.98053,0.0262514,0.00584342,0.0120213,0.0318155,0.000279333,0.433491,0.0211178,0.0372961,636,771,-9.3483,-0.9805
-581,253,-9.37671,1.03882,0.0201342,0.00565688,0.00973377,0.0250259,0.000765239,0.46568,0.0164348,0.0221377,643,771,-9.37669,-1.03883
-574,253,-9.41315,0.822754,0.0142838,0.00456977,0.00752948,0.0183869,0.000466677,0.498948,0.0121054,0.0185331,650,771,-9.41313,-0.82274
-567,253,-9.38922,0.621826,0.0100496,0.00337098,0.00593125,0.0135169,-9.63868e-05,0.529013,0.00904359,0.0159674,657,771,-9.38923,-0.621839
-560,253,-9.35706,0.417419,0.00460395,0.00182991,0.00393232,0.0073867,-0.000952841,0.615849,0.00527086,0.0127776,664,771,-9.35703,-0.417398
-553,253,-9.36401,0.184509,3.65879e-05,0.000417376,0.0030002,0.00323322,-0.00277926,0.817086,0.0034746,0.0123073,671,771,-9.36401,-0.184504
-546,253,-9.39502,-0.026062,-0.0022062,-0.0014953,0.00299446,0.00116473,-0.00486624,0.844472,0.00369412,0.0105193,678,771,-9.39504,0.0260899
-539,253,-9.39026,-0.269287,-0.00469609,-0.00188245,0.00338647,0.000377788,-0.00695633,0.982264,0.00476847,0.0107763,685,771,-9.39025,0.269298
-532,253,-9.37799,-0.497742,-0.00618312,-0.00238198,0.00415953,0.000290622,-0.00885572,0.999695,0.00600303,0.0133822,692,771,-9.37796,0.497758
-525,253,-9.37598,-0.762512,-0.00766554,-0.00274522,0.00488334,0.000262649,-0.0106734,1.01873,0.00720476,0.0111606,699,771,-9.37599,0.762523
-518,253,-9.38507,-0.992126,-0.00904186,-0.00350227,0.00546767,-0.000142863,-0.0124013,1.01985,0.00822031,0.0153141,706,771,-9.38508,0.992127
-511,253,-9.5166,-1.16644,-0.0116465,-0.00129141,0.00582321,0.00132314,-0.014261,1.14878,0.0099777,0.0360471,713,771,-9.51663,1.16642
-504,253,-9.62006,-0.885071,-0.0149367,2.5399e-05,0.00652802,0.00247315,-0.0173845,1.21206,0.0124959,0.0492416,720,771,-9.62009,0.885099
-497,253,-9.47443,-0.45752,0,0,0,0,0,0,0,-1,727,771,-9.47442,0.457533
-490,253,-9.3429,-0.120605,0,0,0,0,0,0,0,-1,734,771,-9.34292,0.120635
-483,253,-10.4391,0.36145,0,0,0,0,0,0,0,-1,741,771,-10.4391,-0.36147
-476,253,-10.3829,0.81897,0,0,0,0,0,0,0,-1,748,771,-10.3829,-0.818976
-469,253,-15.2867,0.550293,-0.0364065,0.023432,0.00476557,0.0238091,-0.0367836,1.49182,0.0352496,0.0421977,755,771,-15.2867,-0.550284
-462,253,-15.0706,1.06653,-0.0433574,0.0329826,0.0027119,0.0330789,-0.0434536,1.53533,0.0443212,0.042435,762,771,-15.0706,-1.06655
-455,253,-15.0335,1.12207,0,0,0,0,0,0,0,-1,769,771,-15.0335,-1.12208
-448,253,0,0,0,0,0,0,0,0,0,-1,776,771,0,0
-441,253,0,0,0,0,0,0,0,0,0,-1,783,771,0,0
-434,253,0,0,0,0,0,0,0,0,0,-1,790,771,0,0
-427,253,0,0,0,0,0,0,0,0,0,-1,797,771,0,0
-420,253,0,0,0,0,0,0,0,0,0,-1,804,771,0,0
-413,253,0,0,0,0,0,0,0,0,0,-1,811,771,0,0
-406,253,0,0,0,0,0,0,0,0,0,-1,818,771,0,0
-399,253,0,0,0,0,0,0,0,0,0,-1,825,771,0,0
-392,253,0,0,0,0,0,0,0,0,0,-1,832,771,0,0
-385,253,0,0,0,0,0,0,0,0,0,-1,839,771,0,0
-378,253,0,0,0,0,0,0,0,0,0,-1,846,771,0,0
-371,253,0,0,0,0,0,0,0,0,0,-1,853,771,0,0
-364,253,0,0,0,0,0,0,0,0,0,-1,860,771,0,0
-357,253,0,0,0,0,0,0,0,0,0,-1,867,771,0,0
-350,253,0,0,0,0,0,0,0,0,0,-1,874,771,0,0
-343,253,0,0,0,0,0,0,0,0,0,-1,881,771,0,0
-336,253,0,0,0,0,0,0,0,0,0,-1,888,771,0,0
-329,253,0,0,0,0,0,0,0,0,0,-1,895,771,0,0
-322,253,0,0,0,0,0,0,0,0,0,-1,902,771,0,0
-315,253,0,0,0,0,0,0,0,0,0,-1,909,771,0,0
-308,253,0,0,0,0,0,0,0,0,0,-1,916,771,0,0
-301,253,0,0,0,0,0,0,0,0,0,-1,923,771,0,0
-294,253,0,0,0,0,0,0,0,0,0,-1,930,771,0,0
-287,253,0,0,0,0,0,0,0,0,0,-1,937,771,0,0
-280,253,0,0,0,0,0,0,0,0,0,-1,944,771,0,0
-273,253,0,0,0,0,0,0,0,0,0,-1,951,771,0,0
-266,253,0,0,0,0,0,0,0,0,0,-1,958,771,0,0
-259,253,0,0,0,0,0,0,0,0,0,-1,965,771,0,0
-252,253,0,0,0,0,0,0,0,0,0,-1,972,771,0,0
-245,253,0,0,0,0,0,0,0,0,0,-1,979,771,0,0
-238,253,0,0,0,0,0,0,0,0,0,-1,986,771,0,0
-231,253,0,0,0,0,0,0,0,0,0,-1,993,771,0,0
-224,253,0,0,0,0,0,0,0,0,0,-1,1000,771,0,0
-217,253,0,0,0,0,0,0,0,0,0,-1,1007,771,0,0
-210,253,0,0,0,0,0,0,0,0,0,-1,1014,771,0,0
-203,253,0,0,0,0,0,0,0,0,0,-1,1021,771,0,0
-196,253,0,0,0,0,0,0,0,0,0,-1,1028,771,0,0
-189,253,0,0,0,0,0,0,0,0,0,-1,1035,771,0,0
-182,253,0,0,0,0,0,0,0,0,0,-1,1042,771,0,0
-175,253,0,0,0,0,0,0,0,0,0,-1,1049,771,0,0
-168,253,0,0,0,0,0,0,0,0,0,-1,1056,771,0,0
-161,253,0,0,0,0,0,0,0,0,0,-1,1063,771,0,0
-154,253,0,0,0,0,0,0,0,0,0,-1,1070,771,0,0
-147,253,0,0,0,0,0,0,0,0,0,-1,1077,771,0,0
-140,253,0,0,0,0,0,0,0,0,0,-1,1084,771,0,0
-133,253,0,0,0,0,0,0,0,0,0,-1,1091,771,0,0
-126,253,0,0,0,0,0,0,0,0,0,-1,1098,771,0,0
-119,253,0,0,0,0,0,0,0,0,0,-1,1105,771,0,0
-112,253,0,0,0,0,0,0,0,0,0,-1,1112,771,0,0
-105,253,0,0,0,0,0,0,0,0,0,-1,1119,771,0,0
-98,253,0,0,0,0,0,0,0,0,0,-1,1126,771,0,0
-91,253,0,0,0,0,0,0,0,0,0,-1,1133,771,0,0
-84,253,0,0,0,0,0,0,0,0,0,-1,1140,771,0,0
-77,253,0,0,0,0,0,0,0,0,0,-1,1147,771,0,0
-70,253,0,0,0,0,0,0,0,0,0,-1,1154,771,0,0
-63,253,0,0,0,0,0,0,0,0,0,-1,1161,771,0,0
-56,253,0,0,0,0,0,0,0,0,0,-1,1168,771,0,0
-49,253,0,0,0,0,0,0,0,0,0,-1,1175,771,0,0
-42,253,0,0,0,0,0,0,0,0,0,-1,1182,771,0,0
-35,253,0,0,0,0,0,0,0,0,0,-1,1189,771,0,0
-28,253,0,0,0,0,0,0,0,0,0,-1,1196,771,0,0
-21,253,0,0,0,0,0,0,0,0,0,-1,1203,771,0,0
-14,253,0,0,0,0,0,0,0,0,0,-1,1210,771,0,0
-7,253,0,0,0,0,0,0,0,0,0,-1,1217,771,0,0
0,253,0,0,0,0,0,0,0,0,0,-1,1224,771,0,0
7,253,0,0,0,0,0,0,0,0,0,-1,1231,771,0,0
14,253,0,0,0,0,0,0,0,0,0,-1,1238,771,0,0
21,253,0,0,0,0,0,0,0,0,0,-1,1245,771,0,0
28,253,0,0,0,0,0,0,0,0,0,-1,1252,771,0,0
35,253,0,0,0,0,0,0,0,0,0,-1,1259,771,0,0
42,253,0,0,0,0,0,0,0,0,0,-1,1266,771,0,0
49,253,0,0,0,0,0,0,0,0,0,-1,1273,771,0,0
56,253,0,0,0,0,0,0,0,0,0,-1,1280,771,0,0
63,253,0,0,0,0,0,0,0,0,0,-1,1287,771,0,0
70,253,0,0,0,0,0,0,0,0,0,-1,1294,771,0,0
77,253,0,0,0,0,0,0,0,0,0,-1,1301,771,0,0
84,253,0,0,0,0,0,0,0,0,0,-1,1308,771,0,0
91,253,0,0,0,0,0,0,0,0,0,-1,1315,771,0,0
98,253,0,0,0,0,0,0,0,0,0,-1,1322,771,0,0
105,253,0,0,0,0,0,0,0,0,0,-1,1329,771,0,0
112,253,0,0,0,0,0,0,0,0,0,-1,1336,771,0,0
119,253,0,0,0,0,0,0,0,0,0,-1,1343,771,0,0
126,253,0,0,0,0,0,0,0,0,0,-1,1350,771,0,0
133,253,0,0,0,0,0,0,0,0,0,-1,1357,771,0,0
140,253,0,0,0,0,0,0,0,0,0,-1,1364,771,0,0
147,253,0,0,0,0,0,0,0,0,0,-1,1371,771,0,0
154,253,0,0,0,0,0,0,0,0,0,-1,1378,771,0,0
161,253,0,0,0,0,0,0,0,0,0,-1,1385,771,0,0
168,253,0,0,0,0,0,0,0,0,0,-1,1392,771,0,0
175,253,0,0,0,0,0,0,0,0,0,-1,1399,771,0,0
182,253,0,0,0,0,0,0,0,0,0,-1,1406,771,0,0
189,253,0,0,0,0,0,0,0,0,0,-1,1413,771,0,0
196,253,0,0,0,0,0,0,0,0,0,-1,1420,771,0,0
203,253,0,0,0,0,0,0,0,0,0,-1,1427,771,0,0
210,253,0,0,0,0,0,0,0,0,0,-1,1434,771,0,0
217,253,0,0,0,0,0,0,0,0,0,-1,1441,771,0,0
224,253,0,0,0,0,0,0,0,0,0,-1,1448,771,0,0
231,253,0,0,0,0,0,0,0,0,0,-1,1455,771,0,0
238,253,0,0,0,0,0,0,0,0,0,-1,1462,771,0,0
245,253,0,0,0,0,0,0,0,0,0,-1,1469,771,0,0
252,253,0,0,0,0,0,0,0,0,0,-1,1476,771,0,0
259,253,0,0,0,0,0,0,0,0,0,-1,1483,771,0,0
266,253,0,0,0,0,0,0,0,0,0,-1,1490,771,0,0
273,253,0,0,0,0,0,0,0,0,0,-1,1497,771,0,0
280,253,0,0,0,0,0,0,0,0,0,-1,1504,771,0,0
287,253,0,0,0,0,0,0,0,0,0,-1,1511,771,0,0
294,253,0,0,0,0,0,0,0,0,0,-1,1518,771,0,0
301,253,0,0,0,0,0,0,0,0,0,-1,1525,771,0,0
308,253,0,0,0,0,0,0,0,0,0,-1,1532,771,0,0
315,253,0,0,0,0,0,0,0,0,0,-1,1539,771,0,0
322,253,0,0,0,0,0,0,0,0,0,-1,1546,771,0,0
329,253,0,0,0,0,0,0,0,0,0,-1,1553,771,0,0
336,253,0,0,0,0,0,0,0,0,0,-1,1560,771,0,0
343,253,0,0,0,0,0,0,0,0,0,-1,1567,771,0,0
350,253,0,0,0,0,0,0,0,0,0,-1,1574,771,0,0
357,253,0,0,0,0,0,0,0,0,0,-1,1581,771,0,0
364,253,0,0,0,0,0,0,0,0,0,-1,1588,771,0,0
371,253,0,0,0,0,0,0,0,0,0,-1,1595,771,0,0
378,253,0,0,0,0,0,0,0,0,0,-1,1602,771,0,0
385,253,0,0,0,0,0,0,0,0,0,-1,1609,771,0,0
392,253,0,0,0,0,0,0,0,0,0,-1,1616,771,0,0
399,253,0,0,0,0,0,0,0,0,0,-1,1623,771,0,0
406,253,0,0,0,0,0,0,0,0,0,-1,1630,771,0,0
413,253,0,0,0,0,0,0,0,0,0,-1,1637,771,0,0
420,253,0,0,0,0,0,0,0,0,0,-1,1644,771,0,0
427,253,0,0,0,0,0,0,0,0,0,-1,1651,771,0,0
434,253,0,0,0,0,0,0,0,0,0,-1,1658,771,0,0
441,253,0,0,0,0,0,0,0,0,0,-1,1665,771,0,0
448,253,0,0,0,0,0,0,0,0,0,-1,1672,771,0,0
455,253,0,0,0,0,0,0,0,0,0,-1,1679,771,0,0
462,253,0,0,0,0,0,0,0,0,0,-1,1686,771,0,0
469,253,0,0,0,0,0,0,0,0,0,-1,1693,771,0,0
476,253,0,0,0,0,0,0,0,0,0,-1,1700,771,0,0
483,253,0,0,0,0,0,0,0,0,0,-1,1707,771,0,0
490,253,0,0,0,0,0,0,0,0,0,-1,1714,771,0,0
497,253,0,0,0,0,0,0,0,0,0,-1,1721,771,0,0
504,253,0,0,0,0,0,0,0,0,0,-1,1728,771,0,0
511,253,0,0,0,0,0,0,0,0,0,-1,1735,771,0,0
518,253,0,0,0,0,0,0,0,0,0,-1,1742,771,0,0
525,253,0,0,0,0,0,0,0,0,0,-1,1749,771,0,0
532,253,0,0,0,0,0,0,0,0,0,-1,1756,771,0,0
539,253,0,0,0,0,0,0,0,0,0,-1,1763,771,0,0
546,253,0,0,0,0,0,0,0,0,0,-1,1770,771,0,0
553,253,0,0,0,0,0,0,0,0,0,-1,1777,771,0,0
560,253,0,0,0,0,0,0,0,0,0,-1,1784,771,0,0
567,253,0,0,0,0,0,0,0,0,0,-1,1791,771,0,0
574,253,22.4679,2.68353,0.029386,-0.0163906,-0.0043457,0.0297949,-0.0167995,-0.0938163,0.0272478,0.036162,1798,771,22.4679,-2.68353
581,253,22.5049,2.75079,0.0216773,-0.014025,0.00402036,0.0221244,-0.0144721,0.11076,0.0212824,0.0397495,1805,771,22.5049,-2.75078
588,253,22.6788,2.79724,0.0152338,-0.0102736,0.00915095,0.0181771,-0.0132169,0.311192,0.0182006,0.0424725,1812,771,22.6788,-2.79722
595,253,22.7371,2.63464,0,0,0,0,0,0,0,-1,1819,771,22.7371,-2.63463
602,253,22.6036,2.53662,0.00605681,-0.00426539,0.0125891,0.0145017,-0.0127103,0.590864,0.0157222,0.0449377,1826,771,22.6036,-2.5366
609,253,22.661,2.53223,0.0031873,-0.00209503,0.0121941,0.013023,-0.0119307,0.678749,0.0144116,0.0412642,1833,771,22.661,-2.53224
616,253,22.7939,2.57831,0.00114326,-0.00052018,0.0109618,0.0113048,-0.0106818,0.747533,0.0126957,0.0397262,1840,771,22.7939,-2.57833
623,253,21.8344,5.13385,-0.000147917,0.000482784,0.00926193,0.00943473,-0.00909987,0.802416,0.0107015,0.045899,1847,771,21.8344,-5.13384
630,253,22.1477,5.80231,0,0,0,0,0,0,0,-1,1854,771,22.1477,-5.80233
637,253,15.998,1.44836,0,0,0,0,0,0,0,-1,1861,771,15.998,-1.44837
644,253,15.8654,0.877136,-0.00196593,0.00164632,0.00395294,0.00418621,-0.00450581,0.99969,0.00501947,0.0429507,1868,771,15.8654,-0.877166
651,253,15.8561,1.14429,-0.00188295,0.00126393,0.00233109,0.00250291,-0.00312193,1.08227,0.00325405,0.0237211,1875,771,15.8561,-1.14426
658,253,15.8616,1.43835,-0.00149305,0.000987937,0.000797828,0.00122235,-0.00172746,1.28502,0.00171138,0.0188449,1882,771,15.8616,-1.43838
665,253,15.7775,1.68134,-0.000901323,0.000415067,-0.000461834,0.000560931,-0.00104719,-1.26487,0.00094249,0.0204335,1889,771,15.7774,-1.68134
672,253,15.76,1.90326,1.87665e-05,-0.00026011,-0.00159905,0.00148444,-0.00172579,-0.741908,0.00185517,0.0156605,1896,771,15.76,-1.90325
679,253,15.8073,2.18011,0.000965425,-0.00147774,-0.0023606,0.00240179,-0.00291411,-0.546628,0.00307389,0.0119561,1903,771,15.8073,-2.18014
686,253,15.8088,2.46527,0.00212155,-0.00166282,-0.00185772,0.00288107,-0.00242234,-0.388104,0.00306574,0.0173231,1910,771,15.8088,-2.46526
693,253,15.7855,2.68604,0.00497638,-0.00212187,-0.00104532,0.00512712,-0.00227261,-0.143215,0.00437691,0.0164632,1917,771,15.7855,-2.68604
700,253,15.7985,2.89343,0.0100713,-0.00376139,-0.000554561,0.0100935,-0.00378358,-0.0400052,0.00828339,0.0145982,1924,771,15.7984,-2.89345
707,253,15.814,3.13666,0.0155513,-0.00563393,-0.00047867,0.0155621,-0.00564474,-0.0225791,0.0126822,0.014959,1931,771,15.8139,-3.13663
714,253,15.8141,3.35706,0.0233009,-0.00844933,-0.000958967,0.0233299,-0.00847827,-0.0301668,0.01902,0.0188317,1938,771,15.8141,-3.35703
721,253,15.8165,3.58276,0.0341134,-0.0123162,-0.00114092,0.0341414,-0.0123442,-0.0245534,0.0278046,0.0325589,1945,771,15.8166,-3.58277
728,253,15.595,4.21899,0.0490762,-0.0175384,-0.00152447,0.0491111,-0.0175733,-0.0228689,0.0399097,0.0440594,1952,771,15.5949,-4.21901
735,253,15.899,4.5188,0.0689966,-0.0243816,-0.00235384,0.0690559,-0.0244409,-0.0251862,0.0559915,0.048635,1959,771,15.8991,-4.51883
742,253,16.5691,4.11249,0,0,0,0,0,0,0,-1,1966,771,16.5691,-4.11248
749,253,17.9119,4.74463,0,0,0,0,0,0,0,-1,1973,771,17.9118,-4.74463
756,253,0,0,0,0,0,0,0,0,0,-1,1980,771,0,0
763,253,0,0,0,0,0,0,0,0,0,-1,1987,771,0,0
770,253,0,0,0,0,0,0,0,0,0,-1,1994,771,0,0
777,253,0,0,0,0,0,0,0,0,0,-1,2001,771,0,0
784,253,0,0,0,0,0,0,0,0,0,-1,2008,771,0,0
791,253,0,0,0,0,0,0,0,0,0,-1,2015,771,0,0
798,253,0,0,0,0,0,0,0,0,0,-1,2022,771,0,0
805,253,0,0,0,0,0,0,0,0,0,-1,2029,771,0,0
812,253,0,0,0,0,0,0,0,0,0,-1,2036,771,0,0
-700,246,0,0,0,0,0,0,0,0,0,-1,524,778,0,0
-693,246,0,0,0,0,0,0,0,0,0,-1,531,778,0,0
-686,246,0,0,0,0,0,0,0,0,0,-1,538,778,0,0
-679,246,0,0,0,0,0,0,0,0,0,-1,545,778,0,0
-672,246,0,0,0,0,0,0,0,0,0,-1,552,778,0,0
-665,246,0,0,0,0,0,0,0,0,0,-1,559,778,0,0
-658,246,0,0,0,0,0,0,0,0,0,-1,566,778,0,0
-651,246,0,0,0,0,0,0,0,0,0,-1,573,778,0,0
-644,246,0,0,0,0,0,0,0,0,0,-1,580,778,0,0
-637,246,-13.3621,-1.94153,0,0,0,0,0,0,0,-1,587,778,-13.362,1.94155
-630,246,-12.8727,-2.40857,0,0,0,0,0,0,0,-1,594,778,-12.8727,2.40858
-623,246,-12.5314,-0.672546,0,0,0,0,0,0,0,-1,601,778,-12.5314,0.672546
-616,246,-12.5908,0.0359497,0.050308,-0.0150977,0.0156045,0.0538402,-0.0186299,0.222604,0.0434556,0.045782,608,778,-12.5908,-0.0359238
-609,246,-10.3898,2.97174,0.0465731,-0.00799995,0.0154535,0.0506452,-0.0120721,0.257651,0.0384249,0.0479068,615,778,-10.3898,-2.97172
-602,246,-9.37604,1.9433,0,0,0,0,0,0,0,-1,622,778,-9.37603,-1.94333
-595,246,-9.56476,1.53394,0.03432,-0.000160187,0.01267,0.038475,-0.00431517,0.316888,0.0272027,0.0424787,629,778,-9.56478,-1.53392
-588,246,-9.62201,1.18005,0.0278221,0.00204744,0.0109757,0.0318626,-0.00199301,0.35273,0.0219362,0.0275777,636,778,-9.62204,-1.18002
-581,246,-9.64142,1.0589,0.0212301,0.00293641,0.00879747,0.0247742,-0.000607694,0.382965,0.0167224,0.0152288,643,778,-9.64143,-1.05888
-574,246,-9.62317,0.816956,0.0149659,0.0026378,0.00669704,0.0179038,-0.000300127,0.413408,0.0120372,0.0179137,650,778,-9.62315,-0.816965
-567,246,-9.61523,0.639648,0.0103097,0.00201838,0.00520681,0.0128197,-0.000491578,0.449187,0.00871495,0.0162322,657,778,-9.61522,-0.639635
-560,246,-9.6015,0.404785,0.00463507,0.00103503,0.00340993,0.00669091,-0.00102082,0.542548,0.00483692,0.0127654,664,778,-9.6015,-0.404763
-553,246,-9.60938,0.191406,-0.000117291,7.27646e-05,0.00264378,0.00262322,-0.00266775,0.803362,0.00305478,0.0124862,671,778,-9.60936,-0.191408
-546,246,-9.617,-0.0105591,-0.00252153,-0.00133453,0.00282539,0.000959029,-0.00481508,0.888922,0.0035729,0.0104614,678,778,-9.617,0.0105533
-539,246,-9.60474,-0.262817,-0.00514842,-0.00166443,0.00326272,0.000292204,-0.00710505,1.0306,0.00483705,0.00980581,685,778,-9.60471,0.262804
-532,246,-9.6134,-0.506104,-0.00682832,-0.00200652,0.00398551,0.000240554,-0.00907539,1.05741,0.00613202,0.0111273,692,778,-9.61338,0.506082
-525,246,-9.63837,-0.732849,-0.00842017,-0.00222087,0.00457324,0.000204183,-0.0108452,1.08323,0.00729916,0.011891,699,778,-9.63837,0.732876
-518,246,-9.64813,-0.938293,-0.00993922,-0.00285524,0.00497861,-0.000287219,-0.0125072,1.09458,0.00824409,0.0188033,706,778,-9.6481,0.938317
-511,246,-9.79626,-1.03699,-0.0124256,-0.000971313,0.00530345,0.0011071,-0.014504,1.19729,0.0100587,0.0405561,713,778,-9.79627,1.03697
-504,246,-9.98187,-1.07001,-0.0155297,0.000172702,0.00583452,0.00210327,-0.0174603,1.25125,0.0124009,0.0495719,720,778,-9.98185,1.07003
-497,246,-9.98346,-1.12238,0,0,0,0,0,0,0,-1,727,778,-9.98343,1.12236
-490,246,-15.2536,1.37744,0,0,0,0,0,0,0,-1,734,778,-15.2536,-1.37742
-483,246,-10.6331,0.366516,0,0,0,0,0,0,0,-1,741,778,-10.6331,-0.366502
-476,246,-14.9943,1.5011,-0.0288055,0.0140229,0.00496496,0.014591,-0.0293735,1.45688,0.0258568,0.0476931,748,778,-14.9942,-1.50112
-469,246,-15.072,1.06976,-0.0330682,0.0207331,0.00361232,0.0209746,-0.0333097,1.50405,0.0316096,0.0438441,755,778,-15.072,-1.06973
-462,246,-15.0898,1.01862,-0.0379865,0.0292348,0.0017107,0.0292783,-0.03803,1.54537,0.0389698,0.0461217,762,778,-15.0898,-1.01859
-455,246,0,0,0,0,0,0,0,0,0,-1,769,778,0,0
-448,246,0,0,0,0,0,0,0,0,0,-1,776,778,0,0
-441,246,0,0,0,0,0,0,0,0,0,-1,783,778,0,0
-434,246,0,0,0,0,0,0,0,0,0,-1,790,778,0,0
-427,246,0,0,0,0,0,0,0,0,0,-1,797,778,0,0
-420,246,0,0,0,0,0,0,0,0,0,-1,804,778,0,0
-413,246,0,0,0,0,0,0,0,0,0,-1,811,778,0,0
-406,246,0,0,0,0,0,0,0,0,0,-1,818,778,0,0
-399,246,0,0,0,0,0,0,0,0,0,-1,825,778,0,0
-392,246,0,0,0,0,0,0,0,0,0,-1,832,778,0,0
-385,246,0,0,0,0,0,0,0,0,0,-1,839,778,0,0
-378,246,0,0,0,0,0,0,0,0,0,-1,846,778,0,0
-371,246,0,0,0,0,0,0,0,0,0,-1,853,778,0,0
-364,246,0,0,0,0,0,0,0,0,0,-1,860,778,0,0
-357,246,0,0,0,0,0,0,0,0,0,-1,867,778,0,0
-350,246,0,0,0,0,0,0,0,0,0,-1,874,778,0,0
-343,246,0,0,0,0,0,0,0,0,0,-1,881,778,0,0
-336,246,0,0,0,0,0,0,0,0,0,-1,888,778,0,0
-329,246,0,0,0,0,0,0,0,0,0,-1,895,778,0,0
-322,246,0,0,0,0,0,0,0,0,0,-1,902,778,0,0
-315,246,0,0,0,0,0,0,0,0,0,-1,909,778,0,0
-308,246,0,0,0,0,0,0,0,0,0,-1,916,778,0,0
-301,246,0,0,0,0,0,0,0,0,0,-1,923,778,0,0
-294,246,0,0,0,0,0,0,0,0,0,-1,930,778,0,0
-287,246,0,0,0,0,0,0,0,0,0,-1,937,778,0,0
-280,246,0,0,0,0,0,0,0,0,0,-1,944,778,0,0
-273,246,0,0,0,0,0,0,0,0,0,-1,951,778,0,0
-266,246,0,0,0,0,0,0,0,0,0,-1,958,778,0,0
-259,246,0,0,0,0,0,0,0,0,0,-1,965,778,0,0
-252,246,0,0,0,0,0,0,0,0,0,-1,972,778,0,0
-245,246,0,0,0,0,0,0,0,0,0,-1,979,778,0,0
-238,246,0,0,0,0,0,0,0,0,0,-1,986,778,0,0
-231,246,0,0,0,0,0,0,0,0,0,-1,993,778,0,0
-224,246,0,0,0,0,0,0,0,0,0,-1,1000,778,0,0
-217,246,0,0,0,0,0,0,0,0,0,-1,1007,778,0,0
-210,246,0,0,0,0,0,0,0,0,0,-1,1014,778,0,0
-203,246,0,0,0,0,0,0,0,0,0,-1,1021,778,0,0
-196,246,0,0,0,0,0,0,0,0,0,-1,1028,778,0,0
-189,246,0,0,0,0,0,0,0,0,0,-1,1035,778,0,0
-182,246,0,0,0,0,0,0,0,0,0,-1,1042,778,0,0
-175,246,0,0,0,0,0,0,0,0,0,-1,1049,778,0,0
-168,246,0,0,0,0,0,0,0,0,0,-1,1056,778,0,0
-161,246,0,0,0,0,0,0,0,0,0,-1,1063,778,0,0
-154,246,0,0,0,0,0,0,0,0,0,-1,1070,778,0,0
-147,246,0,0,0,0,0,0,0,0,0,-1,1077,778,0,0
-140,246,0,0,0,0,0,0,0,0,0,-1,1084,778,0,0
-133,246,0,0,0,0,0,0,0,0,0,-1,1091,778,0,0
-126,246,0,0,0,0,0,0,0,0,0,-1,1098,778,0,0
-119,246,0,0,0,0,0,0,0,0,0,-1,1105,778,0,0
-112,246,0,0,0,0,0,0,0,0,0,-1,1112,778,0,0
-105,246,0,0,0,0,0,0,0,0,0,-1,1119,778,0,0
-98,246,0,0,0,0,0,0,0,0,0,-1,1126,778,0,0
-91,246,0,0,0,0,0,0,0,0,0,-1,1133,778,0,0
-84,246,0,0,0,0,0,0,0,0,0,-1,1140,778,0,0
-77,246,0,0,0,0,0,0,0,0,0,-1,1147,778,0,0
-70,246,0,0,0,0,0,0,0,0,0,-1,1154,778,0,0
-63,246,0,0,0,0,0,0,0,0,0,-1,1161,778,0,0
-56,246,0,0,0,0,0,0,0,0,0,-1,1168,778,0,0
-49,246,0,0,0,0,0,0,0,0,0,-1,1175,778,0,0
-42,246,0,0,0,0,0,0,0,0,0,-1,1182,778,0,0
-35,246,0,0,0,0,0,0,0,0,0,-1,1189,778,0,0
-28,246,0,0,0,0,0,0,0,0,0,-1,1196,778,0,0
-21,246,0,0,0,0,0,0,0,0,0,-1,1203,778,0,0
-14,246,0,0,0,0,0,0,0,0,0,-1,1210,778,0,0
-7,246,0,0,0,0,0,0,0,0,0,-1,1217,778,0,0
0,246,0,0,0,0,0,0,0,0,0,-1,1224,778,0,0
7,246,0,0,0,0,0,0,0,0,0,-1,1231,778,0,0
14,246,0,0,0,0,0,0,0,0,0,-1,1238,778,0,0
21,246,0,0,0,0,0,0,0,0,0,-1,1245,778,0,0
28,246,0,0,0,0,0,0,0,0,0,-1,1252,778,0,0
35,246,0,0,0,0,0,0,0,0,0,-1,1259,778,0,0
42,246,0,0,0,0,0,0,0,0,0,-1,1266,778,0,0
49,246,0,0,0,0,0,0,0,0,0,-1,1273,778,0,0
56,246,0,0,0,0,0,0,0,0,0,-1,1280,778,0,0
63,246,0,0,0,0,0,0,0,0,0,-1,1287,778,0,0
70,246,0,0,0,0,0,0,0,0,0,-1,1294,778,0,0
77,246,0,0,0,0,0,0,0,0,0,-1,1301,778,0,0
84,246,0,0,0,0,0,0,0,0,0,-1,1308,778,0,0
91,246,0,0,0,0,0,0,0,0,0,-1,1315,778,0,0
98,246,0,0,0,0,0,0,0,0,0,-1,1322,778,0,0
105,246,0,0,0,0,0,0,0,0,0,-1,1329,778,0,0
112,246,0,0,0,0,0,0,0,0,0,-1,1336,778,0,0
119,246,0,0,0,0,0,0,0,0,0,-1,1343,778,0,0
126,246,0,0,0,0,0,0,0,0,0,-1,1350,778,0,0
133,246,0,0,0,0,0,0,0,0,0,-1,1357,778,0,0
140,246,0,0,0,0,0,0,0,0,0,-1,1364,778,0,0
147,246,0,0,0,0,0,0,0,0,0,-1,1371,778,0,0
154,246,0,0,0,0,0,0,0,0,0,-1,1378,778,0,0
161,246,0,0,0,0,0,0,0,0,0,-1,1385,778,0,0
168,246,0,0,0,0,0,0,0,0,0,-1,1392,778,0,0
175,246,0,0,0,0,0,0,0,0,0,-1,1399,778,0,0
182,246,0,0,0,0,0,0,0,0,0,-1,1406,778,0,0
189,246,0,0,0,0,0,0,0,0,0,-1,1413,778,0,0
196,246,0,0,0,0,0,0,0,0,0,-1,1420,778,0,0
203,246,0,0,0,0,0,0,0,0,0,-1,1427,778,0,0
210,246,0,0,0,0,0,0,0,0,0,-1,1434,778,0,0
217,246,0,0,0,0,0,0,0,0,0,-1,1441,778,0,0
224,246,0,0,0,0,0,0,0,0,0,-1,1448,778,0,0
231,246,0,0,0,0,0,0,0,0,0,-1,1455,778,0,0
238,246,0,0,0,0,0,0,0,0,0,-1,1462,778,0,0
245,246,0,0,0,0,0,0,0,0,0,-1,1469,778,0,0
252,246,0,0,0,0,0,0,0,0,0,-1,1476,778,0,0
259,246,0,0,0,0,0,0,0,0,0,-1,1483,778,0,0
266,246,0,0,0,0,0,0,0,0,0,-1,1490,778,0,0
273,246,0,0,0,0,0,0,0,0,0,-1,1497,778,0,0
280,246,0,0,0,0,0,0,0,0,0,-1,1504,778,0,0
287,246,0,0,0,0,0,0,0,0,0,-1,1511,778,0,0
294,246,0,0,0,0,0,0,0,0,0,-1,1518,778,0,0
301,246,0,0,0,0,0,0,0,0,0,-1,1525,778,0,0
308,246,0,0,0,0,0,0,0,0,0,-1,1532,778,0,0
315,246,0,0,0,0,0,0,0,0,0,-1,1539,778,0,0
322,246,0,0,0,0,0,0,0,0,0,-1,1546,778,0,0
329,246,0,0,0,0,0,0,0,0,0,-1,1553,778,0,0
336,246,0,0,0,0,0,0,0,0,0,-1,1560,778,0,0
343,246,0,0,0,0,0,0,0,0,0,-1,1567,778,0,0
350,246,0,0,0,0,0,0,0,0,0,-1,1574,778,0,0
357,246,0,0,0,0,0,0,0,0,0,-1,1581,778,0,0
364,246,0,0,0,0,0,0,0,0,0,-1,1588,778,0,0
371,246,0,0,0,0,0,0,0,0,0,-1,1595,778,0,0
378,246,0,0,0,0,0,0,0,0,0,-1,1602,778,0,0
385,246,0,0,0,0,0,0,0,0,0,-1,1609,778,0,0
392,246,0,0,0,0,0,0,0,0,0,-1,1616,778,0,0
399,246,0,0,0,0,0,0,0,0,0,-1,1623,778,0,0
406,246,0,0,0,0,0,0,0,0,0,-1,1630,778,0,0
413,246,0,0,0,0,0,0,0,0,0,-1,1637,778,0,0
420,246,0,0,0,0,0,0,0,0,0,-1,1644,778,0,0
427,246,0,0,0,0,0,0,0,0,0,-1,1651,778,0,0
434,246,0,0,0,0,0,0,0,0,0,-1,1658,778,0,0
441,246,0,0,0,0,0,0,0,0,0,-1,1665,778,0,0
448,246,0,0,0,0,0,0,0,0,0,-1,1672,778,0,0
455,246,0,0,0,0,0,0,0,0,0,-1,1679,778,0,0
462,246,0,0,0,0,0,0,0,0,0,-1,1686,778,0,0
469,246,0,0,0,0,0,0,0,0,0,-1,1693,778,0,0
476,246,0,0,0,0,0,0,0,0,0,-1,1700,778,0,0
483,246,0,0,0,0,0,0,0,0,0,-1,1707,778,0,0
490,246,0,0,0,0,0,0,0,0,0,-1,1714,778,0,0
497,246,0,0,0,0,0,0,0,0,0,-1,1721,778,0,0
504,246,0,0,0,0,0,0,0,0,0,-1,1728,778,0,0
511,246,0,0,0,0,0,0,0,0,0,-1,1735,778,0,0
518,246,0,0,0,0,0,0,0,0,0,-1,1742,778,0,0
525,246,0,0,0,0,0,0,0,0,0,-1,1749,778,0,0
532,246,0,0,0,0,0,0,0,0,0,-1,1756,778,0,0
539,246,0,0,0,0,0,0,0,0,0,-1,1763,778,0,0
546,246,0,0,0,0,0,0,0,0,0,-1,1770,778,0,0
553,246,0,0,0,0,0,0,0,0,0,-1,1777,778,0,0
560,246,0,0,0,0,0,0,0,0,0,-1,1784,778,0,0
567,246,0,0,0,0,0,0,0,0,0,-1,1791,778,0,0
574,246,0,0,0,0,0,0,0,0,0,-1,1798,778,0,0
581,246,22.4476,2.7652,0.0208739,-0.0138471,0.000958327,0.0209003,-0.0138735,0.0275729,0.0202128,0.0390499,1805,778,22.4477,-2.76519
588,246,22.4114,2.84741,0.0147895,-0.00945544,0.00710186,0.0167166,-0.0113826,0.264973,0.0163202,0.0408286,1812,778,22.4113,-2.84743
595,246,22.5332,2.89886,0.00982382,-0.00590517,0.01027,0.0148947,-0.010976,0.458637,0.0149934,0.0394947,1819,778,22.5332,-2.89889
602,246,22.6444,2.88794,0.00599759,-0.00296982,0.0115857,0.0139369,-0.0109092,0.600772,0.0143804,0.0423213,1826,778,22.6444,-2.88795
609,246,22.6,2.73438,0.00330151,-0.000878072,0.0113034,0.0127067,-0.0102833,0.69399,0.0132978,0.0453183,1833,778,22.5999,-2.73441
616,246,22.7672,2.73163,0.00138188,0.000523052,0.0101057,0.0110673,-0.00916239,0.764165,0.0116969,0.0484886,1840,778,22.7672,-2.73162
623,246,22.0957,4.23291,0.000206816,0.00131476,0.00843172,0.00921069,-0.00768912,0.818201,0.00977028,0.0412009,1847,778,22.0958,-4.23293
630,246,22.3699,4.85004,0,0,0,0,0,0,0,-1,1854,778,22.3699,-4.85002
637,246,22.4106,3.0426,0,0,0,0,0,0,0,-1,1861,778,22.4107,-3.0426
644,246,16.1116,0.910461,0,0,0,0,0,0,0,-1,1868,778,16.1116,-0.910473
651,246,15.9836,1.21851,-0.00144515,0.00141384,0.00183201,0.00230807,-0.00233939,1.1167,0.00268323,0.0325271,1875,778,15.9836,-1.21849
658,246,16.0842,1.42352,-0.00121339,0.00104325,0.000429613,0.00112227,-0.00129241,1.38889,0.00139527,0.02113,1882,778,16.0842,-1.42352
665,246,16.0348,1.66284,-0.000793504,0.0004343,-0.000750899,0.000790308,-0.00114951,-1.12808,0.00112634,0.0218273,1889,778,16.0347,-1.66286
672,246,16.0269,1.92188,-2.98156e-05,-0.000294262,-0.00184873,0.00169142,-0.0020155,-0.749698,0.00214291,0.02028,1896,778,16.0269,-1.9219
679,246,16.0602,2.15863,0.000758373,-0.00157108,-0.00264241,0.00248137,-0.00329408,-0.577817,0.00334544,0.0192962,1903,778,16.0602,-2.15865
686,246,16.0856,2.45361,0.00166876,-0.00182724,-0.00209736,0.00265103,-0.00280952,-0.438001,0.00315309,0.0199763,1910,778,16.0856,-2.45364
693,246,16.0627,2.70868,0.00434479,-0.00216702,-0.00120561,0.00456083,-0.00238306,-0.177315,0.00407425,0.0160248,1917,778,16.0627,-2.70868
700,246,16.0634,2.9007,0.00935586,-0.0036216,-0.000682759,0.00939169,-0.00365742,-0.0524182,0.00777259,0.0139846,1924,778,16.0634,-2.90072
707,246,16.0807,3.12805,0.0147556,-0.00528161,-0.000681029,0.0147787,-0.00530473,-0.033936,0.0120175,0.0138242,1931,778,16.0807,-3.12808
714,246,16.0472,3.39056,0.0223801,-0.00785256,-0.00144711,0.0224492,-0.00792167,-0.0477202,0.018191,0.0129553,1938,778,16.0473,-3.39057
721,246,16.0282,3.62134,0.0328782,-0.0113801,-0.00204065,0.0329721,-0.011474,-0.0459777,0.0266428,0.0178244,1945,778,16.0282,-3.62134
728,246,16.0757,3.91022,0.0469995,-0.0160714,-0.00304681,0.0471464,-0.0162182,-0.0481583,0.0380084,0.0376165,1952,778,16.0757,-3.91023
735,246,16.1747,4.24109,0.0655468,-0.0222454,-0.00477595,0.0658058,-0.0225045,-0.0541875,0.0529897,0.0488366,1959,778,16.1747,-4.24111
742,246,16.8597,4.62836,0.0887923,-0.0300625,-0.00762073,0.089279,-0.0305492,-0.0637699,0.0718993,0.0480032,1966,778,16.8597,-4.62834
749,246,17.8636,5.40228,0.116881,-0.0397448,-0.0122349,0.117831,-0.0406948,-0.0774889,0.0950678,0.0486208,1973,778,17.8637,-5.40225
756,246,19.0327,6.3269,0,0,0,0,0,0,0,-1,1980,778,19.0327,-6.3269
763,246,0,0,0,0,0,0,0,0,0,-1,1987,778,0,0
770,246,0,0,0,0,0,0,0,0,0,-1,1994,778,0,0
777,246,0,0,0,0,0,0,0,0,0,-1,2001,778,0,0
784,246,0,0,0,0,0,0,0,0,0,-1,2008,778,0,0
791,246,0,0,0,0,0,0,0,0,0,-1,2015,778,0,0
798,246,0,0,0,0,0,0,0,0,0,-1,2022,778,0,0
805,246,0,0,0,0,0,0,0,0,0,-1,2029,778,0,0
812,246,0,0,0,0,0,0,0,0,0,-1,2036,778,0,0
-700,239,0,0,0,0,0,0,0,0,0,-1,524,785,0,0
-693,239,0,0,0,0,0,0,0,0,0,-1,531,785,0,0
-686,239,0,0,0,0,0,0,0,0,0,-1,538,785,0,0
-679,239,0,0,0,0,0,0,0,0,0,-1,545,785,0,0
-672,239,0,0,0,0,0,0,0,0,0,-1,552,785,0,0
-665,239,0,0,0,0,0,0,0,0,0,-1,559,785,0,0
-658,239,0,0,0,0,0,0,0,0,0,-1,566,785,0,0
-651,239,0,0,0,0,0,0,0,0,0,-1,573,785,0,0
-644,239,0,0,0,0,0,0,0,0,0,-1,580,785,0,0
-637,239,-13.2827,-1.06934,0.0437846,-0.0597865,-0.000885866,0.0437921,-0.0597941,-0.00855238,0.0600429,0.046066,587,785,-13.2827,1.06936
-630,239,-13.0063,-0.80365,0.0506198,-0.0434242,0.00600465,0.0510016,-0.043806,0.0635057,0.0547897,0.0459467,594,785,-13.0064,0.80362
-623,239,-12.7018,-0.261353,0.0525911,-0.030348,0.0102338,0.0538352,-0.0315921,0.120972,0.0498757,0.0464243,601,785,-12.7018,0.26135
-616,239,-12.5828,-0.112061,0.0510122,-0.0202334,0.0123166,0.0530813,-0.0223025,0.166443,0.0447158,0.0456271,608,785,-12.5827,0.112091
-609,239,-10.4158,2.65533,0.0468844,-0.0126588,0.0127609,0.0495039,-0.0152783,0.202469,0.0391033,0.0446073,615,785,-10.4158,-2.65532
-602,239,-9.46167,1.95776,0,0,0,0,0,0,0,-1,622,785,-9.46167,-1.95778
-595,239,-9.62738,1.62054,0.0343986,-0.00328392,0.0109442,0.0373465,-0.00623182,0.263114,0.0272138,0.0391604,629,785,-9.62739,-1.62052
-588,239,-9.78839,1.27802,0.0279453,-0.00035528,0.00969337,0.030947,-0.00335702,0.300304,0.0218365,0.0164448,636,785,-9.78837,-1.27799
-581,239,-9.82617,1.07318,0.0213246,0.00116039,0.00772084,0.0239413,-0.00145634,0.326768,0.0164678,0.0100703,643,785,-9.82617,-1.07317
-574,239,-9.83344,0.845276,0.014956,0.0013851,0.00576623,0.0170752,-0.000734035,0.352187,0.0116358,0.0116086,650,785,-9.83345,-0.845263
-567,239,-9.84399,0.627258,0.0100761,0.00114795,0.00439078,0.0118736,-0.000649512,0.388559,0.00814088,0.012571,657,785,-9.84402,-0.627254
-560,239,-9.85156,0.405457,0.00440691,0.000546259,0.00284389,0.00591371,-0.000960546,0.487233,0.00429858,0.0124071,664,785,-9.85154,-0.405448
-553,239,-9.86023,0.187256,-0.000375362,-9.46267e-05,0.00224153,0.00201093,-0.00248092,0.816668,0.0025981,0.013446,671,785,-9.8602,-0.18726
-546,239,-9.8877,-0.0196533,-0.00292305,-0.00109744,0.00255705,0.000704842,-0.00472533,0.956836,0.00340954,0.0144571,678,785,-9.88768,0.0196635
-539,239,-9.86902,-0.264771,-0.00562797,-0.00133469,0.00300449,0.000211233,-0.00717389,1.09559,0.00485454,0.016095,685,785,-9.86901,0.264779
-532,239,-9.83746,-0.497498,-0.00744892,-0.00150265,0.00366326,0.000242156,-0.00919373,1.12629,0.00621144,0.0131218,692,785,-9.83748,0.497481
-525,239,-9.87347,-0.69873,-0.00910393,-0.00155723,0.00413904,0.000270297,-0.0109315,1.155,0.00737938,0.014753,699,785,-9.87349,0.698758
-518,239,-9.91077,-0.873901,-0.0107502,-0.00203046,0.00441837,-0.00018304,-0.0125976,1.17477,0.00833807,0.0351967,706,785,-9.91078,0.873903
-511,239,-10.1403,-1.20068,-0.0130906,-0.00046064,0.00469411,0.00109291,-0.0146441,1.25119,0.0101467,0.0402803,713,785,-10.1403,1.20068
-504,239,-10.1517,-1.40656,0,0,0,0,0,0,0,-1,720,785,-10.1517,1.40656
-497,239,-14.2422,1.63232,-0.0185852,0.00207884,0.00509244,0.00326566,-0.019772,1.34183,0.0143939,0.0480441,727,785,-14.2422,-1.63231
-490,239,-14.9731,1.22394,-0.0212636,0.00443728,0.00488731,0.00533528,-0.0221616,1.38908,0.016837,0.0482591,734,785,-14.9731,-1.22395
-483,239,-15.0687,1.38727,-0.0240776,0.00783784,0.00430945,0.0084095,-0.0246492,1.43892,0.0198393,0.0466886,741,785,-15.0687,-1.38728
-476,239,-15.0119,1.22675,-0.026983,0.0124379,0.0033,0.0127123,-0.0272573,1.48785,0.0235803,0.04327,748,785,-15.0119,-1.22677
-469,239,-15.1146,0.975037,-0.0299819,0.0182024,0.00181195,0.0182704,-0.0300499,1.53326,0.0281727,0.0456573,755,785,-15.1146,-0.975023
-462,239,-15.2387,0.779724,-0.0331622,0.0255546,-4.74938e-05,0.0255547,-0.0331623,-1.56999,0.0339949,0.0469806,762,785,-15.2387,-0.779721
-455,239,0,0,0,0,0,0,0,0,0,-1,769,785,0,0
-448,239,0,0,0,0,0,0,0,0,0,-1,776,785,0,0
-441,239,0,0,0,0,0,0,0,0,0,-1,783,785,0,0
-434,239,0,0,0,0,0,0,0,0,0,-1,790,785,0,0
-427,239,0,0,0,0,0,0,0,0,0,-1,797,785,0,0
-420,239,0,0,0,0,0,0,0,0,0,-1,804,785,0,0
-413,239,0,0,0,0,0,0,0,0,0,-1,811,785,0,0
-406,239,0,0,0,0,0,0,0,0,0,-1,818,785,0,0
-399,239,0,0,0,0,0,0,0,0,0,-1,825,785,0,0
-392,239,0,0,0,0,0,0,0,0,0,-1,832,785,0,0
-385,239,0,0,0,0,0,0,0,0,0,-1,839,785,0,0
-378,239,0,0,0,0,0,0,0,0,0,-1,846,785,0,0
-371,239,0,0,0,0,0,0,0,0,0,-1,853,785,0,0
-364,239,0,0,0,0,0,0,0,0,0,-1,860,785,0,0
-357,239,0,0,0,0,0,0,0,0,0,-1,867,785,0,0
-350,239,0,0,0,0,0,0,0,0,0,-1,874,785,0,0
-343,239,0,0,0,0,0,0,0,0,0,-1,881,785,0,0
-336,239,0,0,0,0,0,0,0,0,0,-1,888,785,0,0
-329,239,0,0,0,0,0,0,0,0,0,-1,895,785,0,0
-322,239,0,0,0,0,0,0,0,0,0,-1,902,785,0,0
-315,239,0,0,0,0,0,0,0,0,0,-1,909,785,0,0
-308,239,0,0,0,0,0,0,0,0,0,-1,916,785,0,0
-301,239,0,0,0,0,0,0,0,0,0,-1,923,785,0,0
-294,239,0,0,0,0,0,0,0,0,0,-1,930,785,0,0
-287,239,0,0,0,0,0,0,0,0,0,-1,937,785,0,0
-280,239,0,0,0,0,0,0,0,0,0,-1,944,785,0,0
-273,239,0,0,0,0,0,0,0,0,0,-1,951,785,0,0
-266,239,0,0,0,0,0,0,0,0,0,-1,958,785,0,0
-259,239,0,0,0,0,0,0,0,0,0,-1,965,785,0,0
-252,239,0,0,0,0,0,0,0,0,0,-1,972,785,0,0
-245,239,0,0,0,0,0,0,0,0,0,-1,979,785,0,0
-238,239,0,0,0,0,0,0,0,0,0,-1,986,785,0,0
-231,239,0,0,0,0,0,0,0,0,0,-1,993,785,0,0
-224,239,0,0,0,0,0,0,0,0,0,-1,1000,785,0,0
-217,239,0,0,0,0,0,0,0,0,0,-1,1007,785,0,0
-210,239,0,0,0,0,0,0,0,0,0,-1,1014,785,0,0
-203,239,0,0,0,0,0,0,0,0,0,-1,1021,785,0,0
-196,239,0,0,0,0,0,0,0,0,0,-1,1028,785,0,0
-189,239,0,0,0,0,0,0,0,0,0,-1,1035,785,0,0
-182,239,0,0,0,0,0,0,0,0,0,-1,1042,785,0,0
-175,239,0,0,0,0,0,0,0,0,0,-1,1049,785,0,0
-168,239,0,0,0,0,0,0,0,0,0,-1,1056,785,0,0
-161,239,0,0,0,0,0,0,0,0,0,-1,1063,785,0,0
-154,239,0,0,0,0,0,0,0,0,0,-1,1070,785,0,0
-147,239,0,0,0,0,0,0,0,0,0,-1,1077,785,0,0
-140,239,0,0,0,0,0,0,0,0,0,-1,1084,785,0,0
-133,239,0,0,0,0,0,0,0,0,0,-1,1091,785,0,0
-126,239,0,0,0,0,0,0,0,0,0,-1,1098,785,0,0
-119,239,0,0,0,0,0,0,0,0,0,-1,1105,785,0,0
-112,239,0,0,0,0,0,0,0,0,0,-1,1112,785,0,0
-105,239,0,0,0,0,0,0,0,0,0,-1,1119,785,0,0
-98,239,0,0,0,0,0,0,0,0,0,-1,1126,785,0,0
-91,239,0,0,0,0,0,0,0,0,0,-1,1133,785,0,0
-84,239,0,0,0,0,0,0,0,0,0,-1,1140,785,0,0
-77,239,0,0,0,0,0,0,0,0,0,-1,1147,785,0,0
-70,239,0,0,0,0,0,0,0,0,0,-1,1154,785,0,0
-63,239,0,0,0,0,0,0,0,0,0,-1,1161,785,0,0
-56,239,0,0,0,0,0,0,0,0,0,-1,1168,785,0,0
-49,239,0,0,0,0,0,0,0,0,0,-1,1175,785,0,0
-42,239,0,0,0,0,0,0,0,0,0,-1,1182,785,0,0
-35,239,0,0,0,0,0,0,0,0,0,-1,1189,785,0,0
-28,239,0,0,0,0,0,0,0,0,0,-1,1196,785,0,0
-21,239,0,0,0,0,0,0,0,0,0,-1,1203,785,0,0
-14,239,0,0,0,0,0,0,0,0,0,-1,1210,785,0,0
-7,239,0,0,0,0,0,0,0,0,0,-1,1217,785,0,0
0,239,0,0,0,0,0,0,0,0,0,-1,1224,785,0,0
7,239,0,0,0,0,0,0,0,0,0,-1,1231,785,0,0
14,239,0,0,0,0,0,0,0,0,0,-1,1238,785,0,0
21,239,0,0,0,0,0,0,0,0,0,-1,1245,785,0,0
28,239,0,0,0,0,0,0,0,0,0,-1,1252,785,0,0
35,239,0,0,0,0,0,0,0,0,0,-1,1259,785,0,0
42,239,0,0,0,0,0,0,0,0,0,-1,1266,785,0,0
49,239,0,0,0,0,0,0,0,0,0,-1,1273,785,0,0
56,239,0,0,0,0,0,0,0,0,0,-1,1280,785,0,0
63,239,0,0,0,0,0,0,0,0,0,-1,1287,785,0,0
70,239,0,0,0,0,0,0,0,0,0,-1,1294,785,0,0
77,239,0,0,0,0,0,0,0,0,0,-1,1301,785,0,0
84,239,0,0,0,0,0,0,0,0,0,-1,1308,785,0,0
91,239,0,0,0,0,0,0,0,0,0,-1,1315,785,0,0
98,239,0,0,0,0,0,0,0,0,0,-1,1322,785,0,0
105,239,0,0,0,0,0,0,0,0,0,-1,1329,785,0,0
112,239,0,0,0,0,0,0,0,0,0,-1,1336,785,0,0
119,239,0,0,0,0,0,0,0,0,0,-1,1343,785,0,0
126,239,0,0,0,0,0,0,0,0,0,-1,1350,785,0,0
133,239,0,0,0,0,0,0,0,0,0,-1,1357,785,0,0
140,239,0,0,0,0,0,0,0,0,0,-1,1364,785,0,0
147,239,0,0,0,0,0,0,0,0,0,-1,1371,785,0,0
154,239,0,0,0,0,0,0,0,0,0,-1,1378,785,0,0
161,239,0,0,0,0,0,0,0,0,0,-1,1385,785,0,0
168,239,0,0,0,0,0,0,0,0,0,-1,1392,785,0,0
175,239,0,0,0,0,0,0,0,0,0,-1,1399,785,0,0
182,239,0,0,0,0,0,0,0,0,0,-1,1406,785,0,0
189,239,0,0,0,0,0,0,0,0,0,-1,1413,785,0,0
196,239,0,0,0,0,0,0,0,0,0,-1,1420,785,0,0
203,239,0,0,0,0,0,0,0,0,0,-1,1427,785,0,0
210,239,0,0,0,0,0,0,0,0,0,-1,1434,785,0,0
217,239,0,0,0,0,0,0,0,0,0,-1,1441,785,0,0
224,239,0,0,0,0,0,0,0,0,0,-1,1448,785,0,0
231,239,0,0,0,0,0,0,0,0,0,-1,1455,785,0,0
238,239,0,0,0,0,0,0,0,0,0,-1,1462,785,0,0
245,239,0,0,0,0,0,0,0,0,0,-1,1469,785,0,0
252,239,0,0,0,0,0,0,0,0,0,-1,1476,785,0,0
259,239,0,0,0,0,0,0,0,0,0,-1,1483,785,0,0
266,239,0,0,0,0,0,0,0,0,0,-1,1490,785,0,0
273,239,0,0,0,0,0,0,0,0,0,-1,1497,785,0,0
280,239,0,0,0,0,0,0,0,0,0,-1,1504,785,0,0
287,239,0,0,0,0,0,0,0,0,0,-1,1511,785,0,0
294,239,0,0,0,0,0,0,0,0,0,-1,1518,785,0,0
301,239,0,0,0,0,0,0,0,0,0,-1,1525,785,0,0
308,239,0,0,0,0,0,0,0,0,0,-1,1532,785,0,0
315,239,0,0,0,0,0,0,0,0,0,-1,1539,785,0,0
322,239,0,0,0,0,0,0,0,0,0,-1,1546,785,0,0
329,239,0,0,0,0,0,0,0,0,0,-1,1553,785,0,0
336,239,0,0,0,0,0,0,0,0,0,-1,1560,785,0,0
343,239,0,0,0,0,0,0,0,0,0,-1,1567,785,0,0
350,239,0,0,0,0,0,0,0,0,0,-1,1574,785,0,0
357,239,0,0,0,0,0,0,0,0,0,-1,1581,785,0,0
364,239,0,0,0,0,0,0,0,0,0,-1,1588,785,0,0
371,239,0,0,0,0,0,0,0,0,0,-1,1595,785,0,0
378,239,0,0,0,0,0,0,0,0,0,-1,1602,785,0,0
385,239,0,0,0,0,0,0,0,0,0,-1,1609,785,0,0
392,239,0,0,0,0,0,0,0,0,0,-1,1616,785,0,0
399,239,0,0,0,0,0,0,0,0,0,-1,1623,785,0,0
406,239,0,0,0,0,0,0,0,0,0,-1,1630,785,0,0
413,239,0,0,0,0,0,0,0,0,0,-1,1637,785,0,0
420,239,0,0,0,0,0,0,0,0,0,-1,1644,785,0,0
427,239,0,0,0,0,0,0,0,0,0,-1,1651,785,0,0
434,239,0,0,0,0,0,0,0,0,0,-1,1658,785,0,0
441,239,0,0,0,0,0,0,0,0,0,-1,1665,785,0,0
448,239,0,0,0,0,0,0,0,0,0,-1,1672,785,0,0
455,239,0,0,0,0,0,0,0,0,0,-1,1679,785,0,0
462,239,0,0,0,0,0,0,0,0,0,-1,1686,785,0,0
469,239,0,0,0,0,0,0,0,0,0,-1,1693,785,0,0
476,239,0,0,0,0,0,0,0,0,0,-1,1700,785,0,0
483,239,0,0,0,0,0,0,0,0,0,-1,1707,785,0,0
490,239,0,0,0,0,0,0,0,0,0,-1,1714,785,0,0
497,239,0,0,0,0,0,0,0,0,0,-1,1721,785,0,0
504,239,0,0,0,0,0,0,0,0,0,-1,1728,785,0,0
511,239,0,0,0,0,0,0,0,0,0,-1,1735,785,0,0
518,239,0,0,0,0,0,0,0,0,0,-1,1742,785,0,0
525,239,0,0,0,0,0,0,0,0,0,-1,1749,785,0,0
532,239,0,0,0,0,0,0,0,0,0,-1,1756,785,0,0
539,239,0,0,0,0,0,0,0,0,0,-1,1763,785,0,0
546,239,0,0,0,0,0,0,0,0,0,-1,1770,785,0,0
553,239,0,0,0,0,0,0,0,0,0,-1,1777,785,0,0
560,239,0,0,0,0,0,0,0,0,0,-1,1784,785,0,0
567,239,0,0,0,0,0,0,0,0,0,-1,1791,785,0,0
574,239,0,0,0,0,0,0,0,0,0,-1,1798,785,0,0
581,239,22.2764,2.94031,0.0202894,-0.0138445,-0.0026912,0.0205002,-0.0140553,-0.0781987,0.020066,0.0392795,1805,785,22.2764,-2.94031
588,239,22.2979,3.05383,0.0146125,-0.00906254,0.00418788,0.0153314,-0.0097815,0.170019,0.0146165,0.0379076,1812,785,22.2978,-3.05382
595,239,22.4381,2.82233,0.00990264,-0.00524067,0.0080482,0.013381,-0.00871907,0.407949,0.0128538,0.0324766,1819,785,22.4381,-2.8223
602,239,22.4877,2.87463,0.00619987,-0.00214969,0.00991991,0.0127877,-0.0087375,0.586224,0.0125007,0.0368152,1826,785,22.4877,-2.87465
609,239,22.6007,2.94885,0.00364116,-9.34332e-05,0.00992041,0.0118685,-0.00832076,0.692373,0.0117161,0.0495989,1833,785,22.6007,-2.94884
616,239,22.3107,3.32886,0,0,0,0,0,0,0,-1,1840,785,22.3107,-3.32886
623,239,22.3774,3.60992,0,0,0,0,0,0,0,-1,1847,785,22.3775,-3.60991
630,239,22.652,4.05579,0,0,0,0,0,0,0,-1,1854,785,22.6519,-4.05578
637,239,21.4707,3.57098,0,0,0,0,0,0,0,-1,1861,785,21.4708,-3.57099
644,239,15.3616,1.17603,0,0,0,0,0,0,0,-1,1868,785,15.3616,-1.17602
651,239,15.8457,1.31317,-0.000771969,0.00128714,0.00114382,0.00179651,-0.00128134,1.15183,0.00178528,0.0465865,1875,785,15.8457,-1.31315
658,239,16.2883,1.47662,-0.000666288,0.000825721,-0.0001258,0.000836253,-0.00067682,-1.48727,0.000875189,0.020259,1882,785,16.2883,-1.47665
665,239,16.3175,1.71552,-0.000412163,0.000254879,-0.00120248,0.00116923,-0.00132652,-0.920678,0.00144187,0.0150072,1889,785,16.3175,-1.71551
672,239,16.2903,1.9491,0.000136781,-0.000441681,-0.00221223,0.0020786,-0.0023835,-0.720396,0.0025782,0.0216377,1896,785,16.2903,-1.94909
679,239,16.317,2.19189,0.000682511,-0.00166886,-0.00298058,0.0027109,-0.00369725,-0.597543,0.00371433,0.0222108,1903,785,16.317,-2.19192
686,239,16.3329,2.48145,0.00125133,-0.00198458,-0.00243344,0.00255561,-0.00328885,-0.492015,0.00338314,0.0225797,1910,785,16.3329,-2.48147
693,239,16.3254,2.71173,0.00356388,-0.00222894,-0.00153071,0.00394349,-0.00260854,-0.243088,0.0038089,0.0148587,1917,785,16.3254,-2.71174
700,239,16.3134,2.92432,0.0083072,-0.0034695,-0.00101674,0.00839434,-0.00355663,-0.085492,0.00708583,0.0111923,1924,785,16.3134,-2.92431
707,239,16.3032,3.14447,0.0135706,-0.00494323,-0.00104591,0.0136295,-0.00500213,-0.0562548,0.0111347,0.0109079,1931,785,16.3033,-3.1445
714,239,16.2891,3.37006,0.0210588,-0.00729714,-0.00204109,0.0212049,-0.00744331,-0.0714898,0.0171644,0.0108389,1938,785,16.289,-3.37007
721,239,16.2584,3.59076,0.0312854,-0.0105304,-0.00293383,0.0314902,-0.0107352,-0.0697058,0.0253415,0.0200775,1945,785,16.2585,-3.59079
728,239,16.2579,3.81146,0.044746,-0.014837,-0.00439345,0.0450682,-0.0151592,-0.073209,0.0361733,0.0362374,1952,785,16.2579,-3.81149
735,239,16.3755,4.09448,0,0,0,0,0,0,0,-1,1959,785,16.3755,-4.09451
742,239,17.0554,5.211,0.083542,-0.027524,-0.010357,0.0844996,-0.0284816,-0.0921919,0.0678497,0.0487104,1966,785,17.0555,-5.21097
749,239,18.2697,5.96918,0.109055,-0.0362914,-0.015874,0.110769,-0.0380049,-0.107526,0.0892534,0.0470744,1973,785,18.2697,-5.96915
756,239,19.7966,6.81586,0,0,0,0,0,0,0,-1,1980,785,19.7966,-6.81587
763,239,0,0,0,0,0,0,0,0,0,-1,1987,785,0,0
770,239,0,0,0,0,0,0,0,0,0,-1,1994,785,0,0
777,239,0,0,0,0,0,0,0,0,0,-1,2001,785,0,0
784,239,0,0,0,0,0,0,0,0,0,-1,2008,785,0,0
791,239,0,0,0,0,0,0,0,0,0,-1,2015,785,0,0
798,239,0,0,0,0,0,0,0,0,0,-1,2022,785,0,0
805,239,0,0,0,0,0,0,0,0,0,-1,2029,785,0,0
812,239,0,0,0,0,0,0,0,0,0,-1,2036,785,0,0
-700,232,0,0,0,0,0,0,0,0,0,-1,524,792,0,0
-693,232,0,0,0,0,0,0,0,0,0,-1,531,792,0,0
-686,232,0,0,0,0,0,0,0,0,0,-1,538,792,0,0
-679,232,0,0,0,0,0,0,0,0,0,-1,545,792,0,0
-672,232,0,0,0,0,0,0,0,0,0,-1,552,792,0,0
-665,232,0,0,0,0,0,0,0,0,0,-1,559,792,0,0
-658,232,0,0,0,0,0,0,0,0,0,-1,566,792,0,0
-651,232,0,0,0,0,0,0,0,0,0,-1,573,792,0,0
-644,232,-13.2858,-0.26178,0.0381275,-0.0790166,-0.0140303,0.0397845,-0.0806735,-0.117554,0.0708695,0.0441363,580,792,-13.2858,0.261755
-637,232,-13.2555,-0.230469,0.0463792,-0.0602232,-0.00426855,0.0465498,-0.0603939,-0.0399565,0.0619162,0.0429011,587,792,-13.2555,0.230462
-630,232,-13.1003,-0.0550537,0.0503219,-0.0448799,0.00251691,0.0503884,-0.0449464,0.0264131,0.0550715,0.0436144,594,792,-13.1003,0.0550707
-623,232,-12.8355,0.114258,0.0507978,-0.032496,0.00691656,0.0513683,-0.0330664,0.082287,0.0491286,0.0460395,601,792,-12.8355,-0.114285
-616,232,-12.5711,0.183899,0.0485875,-0.0227103,0.00935236,0.0497939,-0.0239167,0.128282,0.0434222,0.0461069,608,792,-12.5711,-0.183908
-609,232,-10.5482,2.1781,0.0443155,-0.0151841,0.0102292,0.046025,-0.0168936,0.165589,0.0376016,0.0436069,615,792,-10.5481,-2.1781
-602,232,-10.0987,2.01868,0,0,0,0,0,0,0,-1,622,792,-10.0987,-2.01867
-595,232,-10.0554,1.66089,0.0321705,-0.0052657,0.00926582,0.0343383,-0.00743354,0.229828,0.0257305,0.0327467,629,792,-10.0553,-1.66087
-588,232,-10.0416,1.30762,0.0260871,-0.00208502,0.00844047,0.0284224,-0.00442024,0.269918,0.0205805,0.0106363,636,792,-10.0415,-1.30764
-581,232,-10.0367,1.07806,0.0197558,-0.000231164,0.00673254,0.0218121,-0.00228745,0.296426,0.0153608,0.00730352,643,792,-10.0368,-1.07809
-574,232,-10.045,0.86145,0.0135622,0.000416219,0.00498018,0.0152358,-0.00125739,0.324197,0.0106012,0.00791466,650,792,-10.045,-0.861431
-567,232,-10.0692,0.643555,0.00870584,0.000474179,0.00379216,0.0101865,-0.00100647,0.372246,0.00715013,0.00991751,657,792,-10.0692,-0.643551
-560,232,-10.0782,0.422058,0.00330994,0.000224892,0.00254038,0.00473944,-0.00120461,0.512549,0.00362844,0.0123324,664,792,-10.0782,-0.422053
-553,232,-10.0974,0.190857,-0.00123467,-7.08022e-05,0.00210939,0.00153545,-0.00284092,0.919989,0.0025639,0.0126871,671,792,-10.0974,-0.190868
-546,232,-10.1505,-0.0286865,-0.00375148,-0.00065993,0.00247204,0.000709842,-0.00512125,1.06481,0.00367371,0.0205895,678,792,-10.1504,0.0286951
-539,232,-10.1429,-0.275452,-0.00639317,-0.000731383,0.00288644,0.000480681,-0.00760523,1.17324,0.00523774,0.025688,685,792,-10.1429,0.275435
-532,232,-10.1017,-0.49408,-0.00822099,-0.000689169,0.00345318,0.000654374,-0.00956454,1.19974,0.0066053,0.0157554,692,792,-10.1017,0.494063
-525,232,-10.1098,-0.647644,-0.00983687,-0.000556944,0.00381996,0.000813199,-0.011207,1.22641,0.00775663,0.0250696,699,792,-10.1098,0.647665
-518,232,-10.2772,-0.702271,-0.011481,-0.000825576,0.00397194,0.00049207,-0.0127987,1.25048,0.00870112,0.0485962,706,792,-10.2772,0.70224
-511,232,-10.4764,-0.848145,-0.0135876,0.000501087,0.0041527,0.00163401,-0.0147206,1.30446,0.0104012,0.0459935,713,792,-10.4764,0.848127
-504,232,-10.6376,-1.00165,0,0,0,0,0,0,0,-1,720,792,-10.6376,1.00165
-497,232,-14.3182,1.53174,-0.0180844,0.00266442,0.00404747,0.00342601,-0.018846,1.38481,0.013848,0.0446638,727,792,-14.3182,-1.53173
-490,232,-14.642,1.28094,-0.0199525,0.00457559,0.00354084,0.0050765,-0.0204534,1.43026,0.0156055,0.0421648,734,792,-14.6421,-1.28095
-483,232,-15.0895,1.07178,-0.021555,0.00730684,0.00262851,0.00754428,-0.0217924,1.48071,0.0175908,0.041752,741,792,-15.0895,-1.07176
-476,232,-15.0336,1.05957,-0.0227589,0.0109757,0.00130512,0.0110262,-0.0228093,1.53219,0.0199259,0.0361258,748,792,-15.0336,-1.05955
-469,232,-15.1517,0.882263,-0.0234942,0.0154617,-0.000419326,0.0154662,-0.0234987,-1.56003,0.0226552,0.0346949,755,792,-15.1517,-0.88228
-462,232,0,0,0,0,0,0,0,0,0,-1,762,792,0,0
-455,232,0,0,0,0,0,0,0,0,0,-1,769,792,0,0
-448,232,0,0,0,0,0,0,0,0,0,-1,776,792,0,0
-441,232,0,0,0,0,0,0,0,0,0,-1,783,792,0,0
-434,232,0,0,0,0,0,0,0,0,0,-1,790,792,0,0
-427,232,0,0,0,0,0,0,0,0,0,-1,797,792,0,0
-420,232,0,0,0,0,0,0,0,0,0,-1,804,792,0,0
-413,232,0,0,0,0,0,0,0,0,0,-1,811,792,0,0
-406,232,0,0,0,0,0,0,0,0,0,-1,818,792,0,0
-399,232,0,0,0,0,0,0,0,0,0,-1,825,792,0,0
-392,232,0,0,0,0,0,0,0,0,0,-1,832,792,0,0
-385,232,0,0,0,0,0,0,0,0,0,-1,839,792,0,0
-378,232,0,0,0,0,0,0,0,0,0,-1,846,792,0,0
-371,232,0,0,0,0,0,0,0,0,0,-1,853,792,0,0
-364,232,0,0,0,0,0,0,0,0,0,-1,860,792,0,0
-357,232,0,0,0,0,0,0,0,0,0,-1,867,792,0,0
-350,232,0,0,0,0,0,0,0,0,0,-1,874,792,0,0
-343,232,0,0,0,0,0,0,0,0,0,-1,881,792,0,0
-336,232,0,0,0,0,0,0,0,0,0,-1,888,792,0,0
-329,232,0,0,0,0,0,0,0,0,0,-1,895,792,0,0
-322,232,0,0,0,0,0,0,0,0,0,-1,902,792,0,0
-315,232,0,0,0,0,0,0,0,0,0,-1,909,792,0,0
-308,232,0,0,0,0,0,0,0,0,0,-1,916,792,0,0
-301,232,0,0,0,0,0,0,0,0,0,-1,923,792,0,0
-294,232,0,0,0,0,0,0,0,0,0,-1,930,792,0,0
-287,232,0,0,0,0,0,0,0,0,0,-1,937,792,0,0
-280,232,0,0,0,0,0,0,0,0,0,-1,944,792,0,0
-273,232,0,0,0,0,0,0,0,0,0,-1,951,792,0,0
-266,232,0,0,0,0,0,0,0,0,0,-1,958,792,0,0
-259,232,0,0,0,0,0,0,0,0,0,-1,965,792,0,0
-252,232,0,0,0,0,0,0,0,0,0,-1,972,792,0,0
-245,232,0,0,0,0,0,0,0,0,0,-1,979,792,0,0
-238,232,0,0,0,0,0,0,0,0,0,-1,986,792,0,0
-231,232,0,0,0,0,0,0,0,0,0,-1,993,792,0,0
-224,232,0,0,0,0,0,0,0,0,0,-1,1000,792,0,0
-217,232,0,0,0,0,0,0,0,0,0,-1,1007,792,0,0
-210,232,0,0,0,0,0,0,0,0,0,-1,1014,792,0,0
-203,232,0,0,0,0,0,0,0,0,0,-1,1021,792,0,0
-196,232,0,0,0,0,0,0,0,0,0,-1,1028,792,0,0
-189,232,0,0,0,0,0,0,0,0,0,-1,1035,792,0,0
-182,232,0,0,0,0,0,0,0,0,0,-1,1042,792,0,0
-175,232,0,0,0,0,0,0,0,0,0,-1,1049,792,0,0
-168,232,0,0,0,0,0,0,0,0,0,-1,1056,792,0,0
-161,232,0,0,0,0,0,0,0,0,0,-1,1063,792,0,0
-154,232,0,0,0,0,0,0,0,0,0,-1,1070,792,0,0
-147,232,0,0,0,0,0,0,0,0,0,-1,1077,792,0,0
-140,232,0,0,0,0,0,0,0,0,0,-1,1084,792,0,0
-133,232,0,0,0,0,0,0,0,0,0,-1,1091,792,0,0
-126,232,0,0,0,0,0,0,0,0,0,-1,1098,792,0,0
-119,232,0,0,0,0,0,0,0,0,0,-1,1105,792,0,0
-112,232,0,0,0,0,0,0,0,0,0,-1,1112,792,0,0
-105,232,0,0,0,0,0,0,0,0,0,-1,1119,792,0,0
-98,232,0,0,0,0,0,0,0,0,0,-1,1126,792,0,0
-91,232,0,0,0,0,0,0,0,0,0,-1,1133,792,0,0
-84,232,0,0,0,0,0,0,0,0,0,-1,1140,792,0,0
-77,232,0,0,0,0,0,0,0,0,0,-1,1147,792,0,0
-70,232,0,0,0,0,0,0,0,0,0,-1,1154,792,0,0
-63,232,0,0,0,0,0,0,0,0,0,-1,1161,792,0,0
-56,232,0,0,0,0,0,0,0,0,0,-1,1168,792,0,0
-49,232,0,0,0,0,0,0,0,0,0,-1,1175,792,0,0
-42,232,0,0,0,0,0,0,0,0,0,-1,1182,792,0,0
-35,232,0,0,0,0,0,0,0,0,0,-1,1189,792,0,0
-28,232,0,0,0,0,0,0,0,0,0,-1,1196,792,0,0
-21,232,0,0,0,0,0,0,0,0,0,-1,1203,792,0,0
-14,232,0,0,0,0,0,0,0,0,0,-1,1210,792,0,0
-7,232,0,0,0,0,0,0,0,0,0,-1,1217,792,0,0
0,232,0,0,0,0,0,0,0,0,0,-1,1224,792,0,0
7,232,0,0,0,0,0,0,0,0,0,-1,1231,792,0,0
14,232,0,0,0,0,0,0,0,0,0,-1,1238,792,0,0
21,232,0,0,0,0,0,0,0,0,0,-1,1245,792,0,0
28,232,0,0,0,0,0,0,0,0,0,-1,1252,792,0,0
35,232,0,0,0,0,0,0,0,0,0,-1,1259,792,0,0
42,232,0,0,0,0,0,0,0,0,0,-1,1266,792,0,0
49,232,0,0,0,0,0,0,0,0,0,-1,1273,792,0,0
56,232,0,0,0,0,0,0,0,0,0,-1,1280,792,0,0
63,232,0,0,0,0,0,0,0,0,0,-1,1287,792,0,0
70,232,0,0,0,0,0,0,0,0,0,-1,1294,792,0,0
77,232,0,0,0,0,0,0,0,0,0,-1,1301,792,0,0
84,232,0,0,0,0,0,0,0,0,0,-1,1308,792,0,0
91,232,0,0,0,0,0,0,0,0,0,-1,1315,792,0,0
98,232,0,0,0,0,0,0,0,0,0,-1,1322,792,0,0
105,232,0,0,0,0,0,0,0,0,0,-1,1329,792,0,0
112,232,0,0,0,0,0,0,0,0,0,-1,1336,792,0,0
119,232,0,0,0,0,0,0,0,0,0,-1,1343,792,0,0
126,232,0,0,0,0,0,0,0,0,0,-1,1350,792,0,0
133,232,0,0,0,0,0,0,0,0,0,-1,1357,792,0,0
140,232,0,0,0,0,0,0,0,0,0,-1,1364,792,0,0
147,232,0,0,0,0,0,0,0,0,0,-1,1371,792,0,0
154,232,0,0,0,0,0,0,0,0,0,-1,1378,792,0,0
161,232,0,0,0,0,0,0,0,0,0,-1,1385,792,0,0
168,232,0,0,0,0,0,0,0,0,0,-1,1392,792,0,0
175,232,0,0,0,0,0,0,0,0,0,-1,1399,792,0,0
182,232,0,0,0,0,0,0,0,0,0,-1,1406,792,0,0
189,232,0,0,0,0,0,0,0,0,0,-1,1413,792,0,0
196,232,0,0,0,0,0,0,0,0,0,-1,1420,792,0,0
203,232,0,0,0,0,0,0,0,0,0,-1,1427,792,0,0
210,232,0,0,0,0,0,0,0,0,0,-1,1434,792,0,0
217,232,0,0,0,0,0,0,0,0,0,-1,1441,792,0,0
224,232,0,0,0,0,0,0,0,0,0,-1,1448,792,0,0
231,232,0,0,0,0,0,0,0,0,0,-1,1455,792,0,0
238,232,0,0,0,0,0,0,0,0,0,-1,1462,792,0,0
245,232,0,0,0,0,0,0,0,0,0,-1,1469,792,0,0
252,232,0,0,0,0,0,0,0,0,0,-1,1476,792,0,0
259,232,0,0,0,0,0,0,0,0,0,-1,1483,792,0,0
266,232,0,0,0,0,0,0,0,0,0,-1,1490,792,0,0
273,232,0,0,0,0,0,0,0,0,0,-1,1497,792,0,0
280,232,0,0,0,0,0,0,0,0,0,-1,1504,792,0,0
287,232,0,0,0,0,0,0,0,0,0,-1,1511,792,0,0
294,232,0,0,0,0,0,0,0,0,0,-1,1518,792,0,0
301,232,0,0,0,0,0,0,0,0,0,-1,1525,792,0,0
308,232,0,0,0,0,0,0,0,0,0,-1,1532,792,0,0
315,232,0,0,0,0,0,0,0,0,0,-1,1539,792,0,0
322,232,0,0,0,0,0,0,0,0,0,-1,1546,792,0,0
329,232,0,0,0,0,0,0,0,0,0,-1,1553,792,0,0
336,232,0,0,0,0,0,0,0,0,0,-1,1560,792,0,0
343,232,0,0,0,0,0,0,0,0,0,-1,1567,792,0,0
350,232,0,0,0,0,0,0,0,0,0,-1,1574,792,0,0
357,232,0,0,0,0,0,0,0,0,0,-1,1581,792,0,0
364,232,0,0,0,0,0,0,0,0,0,-1,1588,792,0,0
371,232,0,0,0,0,0,0,0,0,0,-1,1595,792,0,0
378,232,0,0,0,0,0,0,0,0,0,-1,1602,792,0,0
385,232,0,0,0,0,0,0,0,0,0,-1,1609,792,0,0
392,232,0,0,0,0,0,0,0,0,0,-1,1616,792,0,0
399,232,0,0,0,0,0,0,0,0,0,-1,1623,792,0,0
406,232,0,0,0,0,0,0,0,0,0,-1,1630,792,0,0
413,232,0,0,0,0,0,0,0,0,0,-1,1637,792,0,0
420,232,0,0,0,0,0,0,0,0,0,-1,1644,792,0,0
427,232,0,0,0,0,0,0,0,0,0,-1,1651,792,0,0
434,232,0,0,0,0,0,0,0,0,0,-1,1658,792,0,0
441,232,0,0,0,0,0,0,0,0,0,-1,1665,792,0,0
448,232,0,0,0,0,0,0,0,0,0,-1,1672,792,0,0
455,232,0,0,0,0,0,0,0,0,0,-1,1679,792,0,0
462,232,0,0,0,0,0,0,0,0,0,-1,1686,792,0,0
469,232,0,0,0,0,0,0,0,0,0,-1,1693,792,0,0
476,232,0,0,0,0,0,0,0,0,0,-1,1700,792,0,0
483,232,0,0,0,0,0,0,0,0,0,-1,1707,792,0,0
490,232,0,0,0,0,0,0,0,0,0,-1,1714,792,0,0
497,232,0,0,0,0,0,0,0,0,0,-1,1721,792,0,0
504,232,0,0,0,0,0,0,0,0,0,-1,1728,792,0,0
511,232,0,0,0,0,0,0,0,0,0,-1,1735,792,0,0
518,232,0,0,0,0,0,0,0,0,0,-1,1742,792,0,0
525,232,0,0,0,0,0,0,0,0,0,-1,1749,792,0,0
532,232,0,0,0,0,0,0,0,0,0,-1,1756,792,0,0
539,232,0,0,0,0,0,0,0,0,0,-1,1763,792,0,0
546,232,0,0,0,0,0,0,0,0,0,-1,1770,792,0,0
553,232,0,0,0,0,0,0,0,0,0,-1,1777,792,0,0
560,232,0,0,0,0,0,0,0,0,0,-1,1784,792,0,0
567,232,0,0,0,0,0,0,0,0,0,-1,1791,792,0,0
574,232,0,0,0,0,0,0,0,0,0,-1,1798,792,0,0
581,232,0,0,0,0,0,0,0,0,0,-1,1805,792,0,0
588,232,22.2919,3.06549,0.0147219,-0.00933068,0.00115029,0.0147768,-0.00938557,0.0476789,0.0140654,0.0385271,1812,792,22.2918,-3.06548
595,232,22.3468,2.87512,0.01032,-0.00526871,0.00537802,0.0119953,-0.00694404,0.301988,0.0110635,0.0338825,1819,792,22.3468,-2.87512
602,232,22.3763,2.85205,0.00671721,-0.00194493,0.00781972,0.0113252,-0.00655289,0.532495,0.0104438,0.0337705,1826,792,22.3764,-2.85203
609,232,22.5199,2.83997,0.00427645,0.000162285,0.00816642,0.0106409,-0.00620215,0.662017,0.00983625,0.0412644,1833,792,22.5199,-2.83995
616,232,22.3663,3.09149,0.00253239,0.00136363,0.00733006,0.00930132,-0.00540531,0.74562,0.00858962,0.047119,1840,792,22.3664,-3.09147
623,232,22.3785,3.2522,0.00152312,0.00185877,0.0059156,0.00760892,-0.00422703,0.79958,0.00692585,0.0449,1847,792,22.3786,-3.25218
630,232,22.502,3.63727,0.000807541,0.00177054,0.00446219,0.00577713,-0.00319905,0.839144,0.00525317,0.0448374,1854,792,22.502,-3.63726
637,232,16.4802,1.72955,0,0,0,0,0,0,0,-1,1861,792,16.4803,-1.72953
644,232,16.6617,1.84979,0,0,0,0,0,0,0,-1,1868,792,16.6617,-1.84982
651,232,16.7405,1.69305,-2.90299e-05,0.000964316,0.000404944,0.00110847,-0.000173187,1.22879,0.000802961,0.0466791,1875,792,16.7405,-1.69303
658,232,16.6,1.50903,-3.03651e-05,0.000459587,-0.000671867,0.000929746,-0.000500524,-0.960218,0.00083807,0.0262462,1882,792,16.6,-1.50903
665,232,16.5676,1.73041,8.1469e-05,-4.6148e-05,-0.0015972,0.00161613,-0.00158081,-0.765434,0.00184579,0.0121992,1889,792,16.5676,-1.73039
672,232,16.5269,1.97552,0.000451726,-0.00066153,-0.00245834,0.00241566,-0.00262547,-0.674063,0.00291134,0.0185248,1896,792,16.5269,-1.97555
679,232,16.5515,2.22467,0.00080974,-0.00176337,-0.00312722,0.00290471,-0.00385834,-0.590248,0.00391756,0.0203537,1903,792,16.5515,-2.22464
686,232,16.5731,2.4812,0.00111951,-0.00210842,-0.00257579,0.00254521,-0.00353411,-0.505527,0.00352535,0.0192776,1910,792,16.5732,-2.48122
693,232,16.5604,2.68976,0.00305425,-0.00224412,-0.00168556,0.00354501,-0.00273489,-0.283326,0.00363574,0.0105019,1917,792,16.5604,-2.68974
700,232,16.5726,2.91602,0.00735734,-0.00321094,-0.00117842,0.00748715,-0.00334074,-0.10971,0.00640245,0.0123719,1924,792,16.5726,-2.91604
707,232,16.5665,3.15839,0.0122841,-0.0044682,-0.00117415,0.012366,-0.00455009,-0.069635,0.010108,0.0131611,1931,792,16.5665,-3.15838
714,232,16.5532,3.37946,0.0194112,-0.00656054,-0.00231707,0.0196163,-0.00676564,-0.0882859,0.0158225,0.0139592,1938,792,16.5532,-3.37943
721,232,16.5457,3.57001,0.0290985,-0.00945945,-0.00341212,0.0293981,-0.00975907,-0.0875863,0.0235361,0.0185755,1945,792,16.5457,-3.57003
728,232,16.526,3.70654,0.0415942,-0.0133049,-0.00518071,0.0420788,-0.0137895,-0.0932707,0.0336057,0.033436,1952,792,16.526,-3.70656
735,232,16.6411,3.50806,0.0575254,-0.0182587,-0.00795554,0.0583515,-0.0190849,-0.103473,0.0465845,0.0466782,1959,792,16.6411,-3.50809
742,232,17.3951,5.2337,0.0771463,-0.0245584,-0.0121874,0.0785864,-0.0259985,-0.117613,0.0628751,0.0492105,1966,792,17.3951,-5.23373
749,232,19.0947,6.60626,0.100387,-0.0323901,-0.0184772,0.102911,-0.0349135,-0.135724,0.0827379,0.0478439,1973,792,19.0948,-6.60626
756,232,20.8284,7.59955,0,0,0,0,0,0,0,-1,1980,792,20.8284,-7.59956
763,232,15.3478,2.52563,0,0,0,0,0,0,0,-1,1987,792,15.3478,-2.52561
770,232,0,0,0,0,0,0,0,0,0,-1,1994,792,0,0
777,232,0,0,0,0,0,0,0,0,0,-1,2001,792,0,0
784,232,0,0,0,0,0,0,0,0,0,-1,2008,792,0,0
791,232,0,0,0,0,0,0,0,0,0,-1,2015,792,0,0
798,232,0,0,0,0,0,0,0,0,0,-1,2022,792,0,0
805,232,0,0,0,0,0,0,0,0,0,-1,2029,792,0,0
812,232,0,0,0,0,0,0,0,0,0,-1,2036,792,0,0
-700,225,0,0,0,0,0,0,0,0,0,-1,524,799,0,0
-693,225,0,0,0,0,0,0,0,0,0,-1,531,799,0,0
-686,225,0,0,0,0,0,0,0,0,0,-1,538,799,0,0
-679,225,0,0,0,0,0,0,0,0,0,-1,545,799,0,0
-672,225,0,0,0,0,0,0,0,0,0,-1,552,799,0,0
-665,225,0,0,0,0,0,0,0,0,0,-1,559,799,0,0
-658,225,0,0,0,0,0,0,0,0,0,-1,566,799,0,0
-651,225,0,0,0,0,0,0,0,0,0,-1,573,799,0,0
-644,225,-13.1255,0.484985,0.0399925,-0.0758644,-0.0175841,0.0426025,-0.0784744,-0.147355,0.0709191,0.0450372,580,799,-13.1256,-0.485006
-637,225,-13.0317,0.513794,0.0452489,-0.0594357,-0.00831195,0.0459048,-0.0600916,-0.0787423,0.0613795,0.0408718,587,799,-13.0317,-0.513811
-630,225,-12.1843,1.85205,0,0,0,0,0,0,0,-1,594,799,-12.1843,-1.85203
-623,225,-12.9477,0.544861,0,0,0,0,0,0,0,-1,601,799,-12.9477,-0.544876
-616,225,-10.431,1.80865,0,0,0,0,0,0,0,-1,608,799,-10.431,-1.80863
-609,225,-10.5276,1.80219,0.0402873,-0.0180609,0.00712287,0.0411443,-0.0189179,0.119733,0.0354595,0.0493339,615,799,-10.5277,-1.80218
-602,225,-10.4711,1.85638,0.0349248,-0.012378,0.00739971,0.0360553,-0.0135086,0.151609,0.0295862,0.0459091,622,799,-10.4711,-1.85639
-595,225,-10.3434,1.54913,0.0288823,-0.00778537,0.0071749,0.0302362,-0.00913931,0.186513,0.0237963,0.0273277,629,799,-10.3434,-1.54916
-588,225,-10.2968,1.29279,0.0233531,-0.00437919,0.0068657,0.0249598,-0.00598586,0.229876,0.0189529,0.0111271,636,799,-10.2968,-1.2928
-581,225,-10.2719,1.07452,0.0175273,-0.0021277,0.00555273,0.0189875,-0.00358792,0.257151,0.0140083,0.00922155,643,799,-10.2718,-1.07453
-574,225,-10.2676,0.861389,0.0116779,-0.000948433,0.00410779,0.0128967,-0.0021672,0.288423,0.0094038,0.00802115,650,799,-10.2676,-0.861402
-567,225,-10.2823,0.642639,0.00705718,-0.000405259,0.00318223,0.00822989,-0.00157798,0.353078,0.00608122,0.0106221,657,799,-10.2823,-0.642615
-560,225,-10.309,0.425842,0.00217547,-0.000171847,0.00225781,0.00354645,-0.00154283,0.545709,0.00301324,0.0112681,664,799,-10.3089,-0.425812
-553,225,-10.312,0.187073,-0.00194199,9.57037e-06,0.00200932,0.00126751,-0.00319994,1.01144,0.0026585,0.0109264,671,799,-10.312,-0.187073
-546,225,-10.3307,-0.0498047,-0.00434896,1.48334e-05,0.00242583,0.00109566,-0.00542978,1.15165,0.00403497,0.0194104,678,799,-10.3308,0.0498177
-539,225,-10.3345,-0.286377,-0.00685462,0.000158255,0.00279481,0.0011358,-0.00783217,1.23433,0.00563831,0.0236241,685,799,-10.3345,0.286386
-532,225,-10.3533,-0.472351,-0.00862789,0.00042969,0.00327812,0.00149161,-0.00968981,1.25752,0.00701017,0.0171956,692,799,-10.3533,0.472332
-525,225,-10.4213,-0.4953,-0.0101771,0.000771252,0.00357601,0.00183576,-0.0112416,1.28147,0.00817534,0.0394209,699,799,-10.4213,0.495314
-518,225,-10.5598,-0.520996,-0.0117966,0.000747013,0.0036499,0.00173175,-0.0127813,1.30727,0.0091529,0.0433589,706,799,-10.5598,0.521025
-511,225,-10.7672,-0.726501,-0.013674,0.00191468,0.00376005,0.00277423,-0.0145335,1.34606,0.0107339,0.0462207,713,799,-10.7671,0.72652
-504,225,-10.9518,-0.917908,0,0,0,0,0,0,0,-1,720,799,-10.9519,0.917936
-497,225,-14.5829,1.4389,-0.0172484,0.00376844,0.0032832,0.00426939,-0.0177493,1.41938,0.0134833,0.0415031,727,799,-14.5829,-1.43888
-490,225,-14.8676,1.14282,-0.0183304,0.00523592,0.00252048,0.00550248,-0.018597,1.46543,0.0145824,0.0365985,734,799,-14.8676,-1.14283
-483,225,-15.0643,1.00671,-0.0187107,0.00726155,0.0013022,0.00732668,-0.0187758,1.52083,0.015546,0.0320503,741,799,-15.0643,-1.00673
-476,225,-14.9698,0.995117,-0.0181552,0.00989815,-0.000285727,0.00990106,-0.0181581,-1.56061,0.0164321,0.0310395,748,799,-14.9698,-0.995097
-469,225,-15.0071,1.05524,-0.0165668,0.0129137,-0.00216689,0.0130722,-0.0167253,-1.49782,0.0172466,0.035843,755,799,-15.0071,-1.05524
-462,225,0,0,0,0,0,0,0,0,0,-1,762,799,0,0
-455,225,0,0,0,0,0,0,0,0,0,-1,769,799,0,0
-448,225,0,0,0,0,0,0,0,0,0,-1,776,799,0,0
-441,225,0,0,0,0,0,0,0,0,0,-1,783,799,0,0
-434,225,0,0,0,0,0,0,0,0,0,-1,790,799,0,0
-427,225,0,0,0,0,0,0,0,0,0,-1,797,799,0,0
-420,225,0,0,0,0,0,0,0,0,0,-1,804,799,0,0
-413,225,0,0,0,0,0,0,0,0,0,-1,811,799,0,0
-406,225,0,0,0,0,0,0,0,0,0,-1,818,799,0,0
-399,225,0,0,0,0,0,0,0,0,0,-1,825,799,0,0
-392,225,0,0,0,0,0,0,0,0,0,-1,832,799,0,0
-385,225,0,0,0,0,0,0,0,0,0,-1,839,799,0,0
-378,225,0,0,0,0,0,0,0,0,0,-1,846,799,0,0
-371,225,0,0,0,0,0,0,0,0,0,-1,853,799,0,0
-364,225,0,0,0,0,0,0,0,0,0,-1,860,799,0,0
-357,225,0,0,0,0,0,0,0,0,0,-1,867,799,0,0
-350,225,0,0,0,0,0,0,0,0,0,-1,874,799,0,0
-343,225,0,0,0,0,0,0,0,0,0,-1,881,799,0,0
-336,225,0,0,0,0,0,0,0,0,0,-1,888,799,0,0
-329,225,0,0,0,0,0,0,0,0,0,-1,895,799,0,0
-322,225,0,0,0,0,0,0,0,0,0,-1,902,799,0,0
-315,225,0,0,0,0,0,0,0,0,0,-1,909,799,0,0
-308,225,0,0,0,0,0,0,0,0,0,-1,916,799,0,0
-301,225,0,0,0,0,0,0,0,0,0,-1,923,799,0,0
-294,225,0,0,0,0,0,0,0,0,0,-1,930,799,0,0
-287,225,0,0,0,0,0,0,0,0,0,-1,937,799,0,0
-280,225,0,0,0,0,0,0,0,0,0,-1,944,799,0,0
-273,225,0,0,0,0,0,0,0,0,0,-1,951,799,0,0
-266,225,0,0,0,0,0,0,0,0,0,-1,958,799,0,0
-259,225,0,0,0,0,0,0,0,0,0,-1,965,799,0,0
-252,225,0,0,0,0,0,0,0,0,0,-1,972,799,0,0
-245,225,0,0,0,0,0,0,0,0,0,-1,979,799,0,0
-238,225,0,0,0,0,0,0,0,0,0,-1,986,799,0,0
-231,225,0,0,0,0,0,0,0,0,0,-1,993,799,0,0
-224,225,0,0,0,0,0,0,0,0,0,-1,1000,799,0,0
-217,225,0,0,0,0,0,0,0,0,0,-1,1007,799,0,0
-210,225,0,0,0,0,0,0,0,0,0,-1,1014,799,0,0
-203,225,0,0,0,0,0,0,0,0,0,-1,1021,799,0,0
-196,225,0,0,0,0,0,0,0,0,0,-1,1028,799,0,0
-189,225,0,0,0,0,0,0,0,0,0,-1,1035,799,0,0
-182,225,0,0,0,0,0,0,0,0,0,-1,1042,799,0,0
-175,225,0,0,0,0,0,0,0,0,0,-1,1049,799,0,0
-168,225,0,0,0,0,0,0,0,0,0,-1,1056,799,0,0
-161,225,0,0,0,0,0,0,0,0,0,-1,1063,799,0,0
-154,225,0,0,0,0,0,0,0,0,0,-1,1070,799,0,0
-147,225,0,0,0,0,0,0,0,0,0,-1,1077,799,0,0
-140,225,0,0,0,0,0,0,0,0,0,-1,1084,799,0,0
-133,225,0,0,0,0,0,0,0,0,0,-1,1091,799,0,0
-126,225,0,0,0,0,0,0,0,0,0,-1,1098,799,0,0
-119,225,0,0,0,0,0,0,0,0,0,-1,1105,799,0,0
-112,225,0,0,0,0,0,0,0,0,0,-1,1112,799,0,0
-105,225,0,0,0,0,0,0,0,0,0,-1,1119,799,0,0
-98,225,0,0,0,0,0,0,0,0,0,-1,1126,799,0,0
-91,225,0,0,0,0,0,0,0,0,0,-1,1133,799,0,0
-84,225,0,0,0,0,0,0,0,0,0,-1,1140,799,0,0
-77,225,0,0,0,0,0,0,0,0,0,-1,1147,799,0,0
-70,225,0,0,0,0,0,0,0,0,0,-1,1154,799,0,0
-63,225,0,0,0,0,0,0,0,0,0,-1,1161,799,0,0
-56,225,0,0,0,0,0,0,0,0,0,-1,1168,799,0,0
-49,225,0,0,0,0,0,0,0,0,0,-1,1175,799,0,0
-42,225,0,0,0,0,0,0,0,0,0,-1,1182,799,0,0
-35,225,0,0,0,0,0,0,0,0,0,-1,1189,799,0,0
-28,225,0,0,0,0,0,0,0,0,0,-1,1196,799,0,0
-21,225,0,0,0,0,0,0,0,0,0,-1,1203,799,0,0
-14,225,0,0,0,0,0,0,0,0,0,-1,1210,799,0,0
-7,225,0,0,0,0,0,0,0,0,0,-1,1217,799,0,0
0,225,0,0,0,0,0,0,0,0,0,-1,1224,799,0,0
7,225,0,0,0,0,0,0,0,0,0,-1,1231,799,0,0
14,225,0,0,0,0,0,0,0,0,0,-1,1238,799,0,0
21,225,0,0,0,0,0,0,0,0,0,-1,1245,799,0,0
28,225,0,0,0,0,0,0,0,0,0,-1,1252,799,0,0
35,225,0,0,0,0,0,0,0,0,0,-1,1259,799,0,0
42,225,0,0,0,0,0,0,0,0,0,-1,1266,799,0,0
49,225,0,0,0,0,0,0,0,0,0,-1,1273,799,0,0
56,225,0,0,0,0,0,0,0,0,0,-1,1280,799,0,0
63,225,0,0,0,0,0,0,0,0,0,-1,1287,799,0,0
70,225,0,0,0,0,0,0,0,0,0,-1,1294,799,0,0
77,225,0,0,0,0,0,0,0,0,0,-1,1301,799,0,0
84,225,0,0,0,0,0,0,0,0,0,-1,1308,799,0,0
91,225,0,0,0,0,0,0,0,0,0,-1,1315,799,0,0
98,225,0,0,0,0,0,0,0,0,0,-1,1322,799,0,0
105,225,0,0,0,0,0,0,0,0,0,-1,1329,799,0,0
112,225,0,0,0,0,0,0,0,0,0,-1,1336,799,0,0
119,225,0,0,0,0,0,0,0,0,0,-1,1343,799,0,0
126,225,0,0,0,0,0,0,0,0,0,-1,1350,799,0,0
133,225,0,0,0,0,0,0,0,0,0,-1,1357,799,0,0
140,225,0,0,0,0,0,0,0,0,0,-1,1364,799,0,0
147,225,0,0,0,0,0,0,0,0,0,-1,1371,799,0,0
154,225,0,0,0,0,0,0,0,0,0,-1,1378,799,0,0
161,225,0,0,0,0,0,0,0,0,0,-1,1385,799,0,0
168,225,0,0,0,0,0,0,0,0,0,-1,1392,799,0,0
175,225,0,0,0,0,0,0,0,0,0,-1,1399,799,0,0
182,225,0,0,0,0,0,0,0,0,0,-1,1406,799,0,0
189,225,0,0,0,0,0,0,0,0,0,-1,1413,799,0,0
196,225,0,0,0,0,0,0,0,0,0,-1,1420,799,0,0
203,225,0,0,0,0,0,0,0,0,0,-1,1427,799,0,0
210,225,0,0,0,0,0,0,0,0,0,-1,1434,799,0,0
217,225,0,0,0,0,0,0,0,0,0,-1,1441,799,0,0
224,225,0,0,0,0,0,0,0,0,0,-1,1448,799,0,0
231,225,0,0,0,0,0,0,0,0,0,-1,1455,799,0,0
238,225,0,0,0,0,0,0,0,0,0,-1,1462,799,0,0
245,225,0,0,0,0,0,0,0,0,0,-1,1469,799,0,0
252,225,0,0,0,0,0,0,0,0,0,-1,1476,799,0,0
259,225,0,0,0,0,0,0,0,0,0,-1,1483,799,0,0
266,225,0,0,0,0,0,0,0,0,0,-1,1490,799,0,0
273,225,0,0,0,0,0,0,0,0,0,-1,1497,799,0,0
280,225,0,0,0,0,0,0,0,0,0,-1,1504,799,0,0
287,225,0,0,0,0,0,0,0,0,0,-1,1511,799,0,0
294,225,0,0,0,0,0,0,0,0,0,-1,1518,799,0,0
301,225,0,0,0,0,0,0,0,0,0,-1,1525,799,0,0
308,225,0,0,0,0,0,0,0,0,0,-1,1532,799,0,0
315,225,0,0,0,0,0,0,0,0,0,-1,1539,799,0,0
322,225,0,0,0,0,0,0,0,0,0,-1,1546,799,0,0
329,225,0,0,0,0,0,0,0,0,0,-1,1553,799,0,0
336,225,0,0,0,0,0,0,0,0,0,-1,1560,799,0,0
343,225,0,0,0,0,0,0,0,0,0,-1,1567,799,0,0
350,225,0,0,0,0,0,0,0,0,0,-1,1574,799,0,0
357,225,0,0,0,0,0,0,0,0,0,-1,1581,799,0,0
364,225,0,0,0,0,0,0,0,0,0,-1,1588,799,0,0
371,225,0,0,0,0,0,0,0,0,0,-1,1595,799,0,0
378,225,0,0,0,0,0,0,0,0,0,-1,1602,799,0,0
385,225,0,0,0,0,0,0,0,0,0,-1,1609,799,0,0
392,225,0,0,0,0,0,0,0,0,0,-1,1616,799,0,0
399,225,0,0,0,0,0,0,0,0,0,-1,1623,799,0,0
406,225,0,0,0,0,0,0,0,0,0,-1,1630,799,0,0
413,225,0,0,0,0,0,0,0,0,0,-1,1637,799,0,0
420,225,0,0,0,0,0,0,0,0,0,-1,1644,799,0,0
427,225,0,0,0,0,0,0,0,0,0,-1,1651,799,0,0
434,225,0,0,0,0,0,0,0,0,0,-1,1658,799,0,0
441,225,0,0,0,0,0,0,0,0,0,-1,1665,799,0,0
448,225,0,0,0,0,0,0,0,0,0,-1,1672,799,0,0
455,225,0,0,0,0,0,0,0,0,0,-1,1679,799,0,0
462,225,0,0,0,0,0,0,0,0,0,-1,1686,799,0,0
469,225,0,0,0,0,0,0,0,0,0,-1,1693,799,0,0
476,225,0,0,0,0,0,0,0,0,0,-1,1700,799,0,0
483,225,0,0,0,0,0,0,0,0,0,-1,1707,799,0,0
490,225,0,0,0,0,0,0,0,0,0,-1,1714,799,0,0
497,225,0,0,0,0,0,0,0,0,0,-1,1721,799,0,0
504,225,0,0,0,0,0,0,0,0,0,-1,1728,799,0,0
511,225,0,0,0,0,0,0,0,0,0,-1,1735,799,0,0
518,225,0,0,0,0,0,0,0,0,0,-1,1742,799,0,0
525,225,0,0,0,0,0,0,0,0,0,-1,1749,799,0,0
532,225,0,0,0,0,0,0,0,0,0,-1,1756,799,0,0
539,225,0,0,0,0,0,0,0,0,0,-1,1763,799,0,0
546,225,0,0,0,0,0,0,0,0,0,-1,1770,799,0,0
553,225,0,0,0,0,0,0,0,0,0,-1,1777,799,0,0
560,225,0,0,0,0,0,0,0,0,0,-1,1784,799,0,0
567,225,0,0,0,0,0,0,0,0,0,-1,1791,799,0,0
574,225,0,0,0,0,0,0,0,0,0,-1,1798,799,0,0
581,225,0,0,0,0,0,0,0,0,0,-1,1805,799,0,0
588,225,22.2898,3.10614,0.0147367,-0.00965142,-0.00139053,0.0148157,-0.00973045,-0.0567714,0.0142727,0.0384166,1812,799,22.2898,-3.10612
595,225,22.3226,2.88794,0.0106728,-0.0055017,0.00288441,0.0111718,-0.00600068,0.171298,0.0100633,0.0343084,1819,799,22.3226,-2.88794
602,225,22.4137,2.82001,0.00719547,-0.00205885,0.00578141,0.0099734,-0.00483677,0.44792,0.0087204,0.031886,1826,799,22.4137,-2.81999
609,225,22.4355,2.854,0.00489348,6.31618e-05,0.00643547,0.00935205,-0.00439541,0.605886,0.00810725,0.0319378,1833,799,22.4356,-2.85398
616,225,22.4236,2.9032,0.00322851,0.00120735,0.00581079,0.00811595,-0.00368008,0.699302,0.00696911,0.0394168,1840,799,22.4236,-2.90322
623,225,22.2943,3.08618,0.00225426,0.00161121,0.00455936,0.00650341,-0.00263795,0.750196,0.00543277,0.0428192,1847,799,22.2943,-3.0862
630,225,22.4559,3.03149,0.00159356,0.00144609,0.00321352,0.00473419,-0.00169454,0.773927,0.00384744,0.0424287,1854,799,22.4559,-3.03152
637,225,22.6055,2.92578,0.00118915,0.0012624,0.00180117,0.00302732,-0.000575767,0.795563,0.002235,0.0435218,1861,799,22.6055,-2.92579
644,225,17.3645,1.84149,0,0,0,0,0,0,0,-1,1868,799,17.3645,-1.84147
651,225,17.6653,1.52777,0.000635824,0.000418592,-0.000254802,0.000804195,0.000250222,-0.583923,0.000475214,0.0412697,1875,799,17.6653,-1.52777
658,225,17.1742,1.66626,0.000526257,-8.25263e-05,-0.00110292,0.00136602,-0.000922286,-0.650756,0.00132941,0.037443,1882,799,17.1742,-1.66625
665,225,16.8291,1.71796,0.000491056,-0.000483479,-0.00185069,0.00191755,-0.00190997,-0.656675,0.00220982,0.0140164,1889,799,16.8292,-1.71797
672,225,16.7959,1.99451,0.000685708,-0.000961187,-0.00252732,0.00252034,-0.00279582,-0.627912,0.00307066,0.0163298,1896,799,16.7959,-1.99452
679,225,16.8136,2.25916,0.000860697,-0.00183637,-0.00304874,0.00284583,-0.0038215,-0.577171,0.0038631,0.0169994,1903,799,16.8136,-2.25914
686,225,16.8079,2.47211,0.000938766,-0.00212295,-0.00250358,0.00234243,-0.00352662,-0.510994,0.00341141,0.0107753,1910,799,16.8079,-2.4721
693,225,16.7977,2.68976,0.00245496,-0.00209665,-0.00165097,0.00299074,-0.00263243,-0.3138,0.00324873,0.00991052,1917,799,16.7977,-2.68976
700,225,16.8003,2.92224,0.00618284,-0.00270549,-0.00116651,0.00633338,-0.00285603,-0.128345,0.00543065,0.0114977,1924,799,16.8003,-2.92224
707,225,16.7896,3.15894,0.0106695,-0.0036491,-0.00116091,0.010763,-0.00374261,-0.0803775,0.00869561,0.0122818,1931,799,16.7896,-3.15891
714,225,16.7908,3.39349,0.0173588,-0.00541247,-0.00242293,0.0176137,-0.00566742,-0.104839,0.0140188,0.0132089,1938,799,16.7907,-3.39349
721,225,16.8223,3.60303,0.0264909,-0.00794615,-0.00370259,0.0268845,-0.00833975,-0.105905,0.0212555,0.0143763,1945,799,16.8222,-3.60304
728,225,16.7891,3.71552,0.0380719,-0.0113371,-0.00572896,0.0387275,-0.0119927,-0.113936,0.0306093,0.0239387,1952,799,16.789,-3.71551
735,225,16.8646,3.85693,0.0526408,-0.0156665,-0.00881665,0.0537604,-0.0167861,-0.126316,0.0425539,0.0437947,1959,799,16.8647,-3.85695
742,225,16.9056,3.97211,0,0,0,0,0,0,0,-1,1966,799,16.9056,-3.97213
749,225,19.9211,7.22418,0,0,0,0,0,0,0,-1,1973,799,19.9212,-7.22418
756,225,16.0305,3.48865,0,0,0,0,0,0,0,-1,1980,799,16.0305,-3.48864
763,225,16.1791,2.85767,0,0,0,0,0,0,0,-1,1987,799,16.1791,-2.85769
770,225,0,0,0,0,0,0,0,0,0,-1,1994,799,0,0
777,225,0,0,0,0,0,0,0,0,0,-1,2001,799,0,0
784,225,0,0,0,0,0,0,0,0,0,-1,2008,799,0,0
791,225,0,0,0,0,0,0,0,0,0,-1,2015,799,0,0
798,225,0,0,0,0,0,0,0,0,0,-1,2022,799,0,0
805,225,0,0,0,0,0,0,0,0,0,-1,2029,799,0,0
812,225,0,0,0,0,0,0,0,0,0,-1,2036,799,0,0
-700,218,0,0,0,0,0,0,0,0,0,-1,524,806,0,0
-693,218,0,0,0,0,0,0,0,0,0,-1,531,806,0,0
-686,218,0,0,0,0,0,0,0,0,0,-1,538,806,0,0
-679,218,0,0,0,0,0,0,0,0,0,-1,545,806,0,0
-672,218,0,0,0,0,0,0,0,0,0,-1,552,806,0,0
-665,218,0,0,0,0,0,0,0,0,0,-1,559,806,0,0
-658,218,0,0,0,0,0,0,0,0,0,-1,566,806,0,0
-651,218,-13.3638,1.34473,0.0296551,-0.0825009,-0.0303153,0.0373247,-0.0901705,-0.247796,0.0756878,0.0451532,573,806,-13.3637,-1.34473
-644,218,-12.7424,1.30774,0.0358172,-0.0667549,-0.0181158,0.0389227,-0.0698605,-0.169775,0.063647,0.0437205,580,806,-12.7424,-1.30774
-637,218,-12.0181,2.14954,0,0,0,0,0,0,0,-1,587,806,-12.0181,-2.14955
-630,218,-11.978,1.84497,0,0,0,0,0,0,0,-1,594,806,-11.978,-1.84499
-623,218,-11.9378,1.54041,0,0,0,0,0,0,0,-1,601,806,-11.9378,-1.54042
-616,218,-10.5026,1.823,0,0,0,0,0,0,0,-1,608,806,-10.5026,-1.82303
-609,218,-10.5291,1.72559,0.0348884,-0.0174298,0.00612538,0.0355959,-0.0181374,0.115007,0.0315641,0.0495624,615,806,-10.5291,-1.72561
-602,218,-10.5303,1.59393,0.0302183,-0.0121821,0.00655187,0.0312076,-0.0131714,0.149868,0.0263182,0.0391732,622,806,-10.5303,-1.59392
-595,218,-10.5451,1.47693,0.0249617,-0.00786286,0.00644849,0.0261831,-0.00908424,0.187188,0.0211443,0.0167074,629,806,-10.5451,-1.47694
-588,218,-10.525,1.28564,0.0201706,-0.0047399,0.00632537,0.0216847,-0.00625403,0.234953,0.0169307,0.0107614,636,806,-10.525,-1.28562
-581,218,-10.5126,1.08844,0.0150595,-0.00250228,0.00512528,0.0164458,-0.00388862,0.264169,0.0124639,0.0101647,643,806,-10.5126,-1.08845
-574,218,-10.5161,0.871582,0.00978194,-0.00118048,0.00374461,0.0109389,-0.00233748,0.299672,0.00818382,0.00961934,650,806,-10.5161,-0.871579
-567,218,-10.4824,0.644409,0.0055474,-0.000498541,0.00290252,0.00671525,-0.00166639,0.382536,0.00512344,0.0155622,657,806,-10.4824,-0.644409
-560,218,-10.5204,0.432922,0.00124671,-3.54454e-05,0.00215838,0.0028572,-0.00164594,0.641039,0.00263105,0.0162281,664,806,-10.5204,-0.432901
-553,218,-10.5269,0.203979,-0.00241689,0.000401687,0.0019634,0.00140922,-0.00342442,1.09668,0.00287041,0.0172947,671,806,-10.5269,-0.203978
-546,218,-10.5288,-0.0479126,-0.00468311,0.000736421,0.00232249,0.00159552,-0.00554221,1.2165,0.00432587,0.014489,678,806,-10.5288,0.047913
-539,218,-10.5457,-0.289124,-0.00701223,0.00105016,0.00264036,0.00183789,-0.00779996,1.28086,0.00590867,0.019412,685,806,-10.5457,0.289119
-532,218,-10.6014,-0.397522,-0.00868917,0.0014894,0.00305357,0.00233519,-0.00953496,1.30059,0.0072613,0.0228372,692,806,-10.6014,0.3975
-525,218,-10.7344,-0.386414,0,0,0,0,0,0,0,-1,699,806,-10.7344,0.386385
-518,218,-11.0446,-0.691956,0,0,0,0,0,0,0,-1,706,806,-11.0446,0.691965
-511,218,-11.2883,-0.425659,0,0,0,0,0,0,0,-1,713,806,-11.2883,0.42564
-504,218,-14.416,1.61108,-0.0151502,0.00376755,0.00362108,0.00443698,-0.0158197,1.38799,0.0122952,0.0403399,720,806,-14.416,-1.6111
-497,218,-14.6481,1.37006,-0.0163111,0.00447748,0.00331178,0.00499232,-0.0168259,1.41657,0.0131999,0.0453926,727,806,-14.6481,-1.37004
-490,218,-14.9403,1.06946,-0.0168018,0.00532678,0.0026791,0.00564651,-0.0171215,1.45201,0.0136903,0.0345804,734,806,-14.9403,-1.06944
-483,218,-15.1141,0.927368,-0.0162517,0.00637858,0.00165221,0.00649857,-0.0163717,1.4983,0.0136081,0.0309035,741,806,-15.1141,-0.927381
-476,218,-15.0316,1.01404,-0.0144341,0.00763234,0.00041624,0.00764019,-0.0144419,1.55194,0.0129492,0.0356044,748,806,-15.0316,-1.01407
-469,218,0,0,0,0,0,0,0,0,0,-1,755,806,0,0
-462,218,0,0,0,0,0,0,0,0,0,-1,762,806,0,0
-455,218,0,0,0,0,0,0,0,0,0,-1,769,806,0,0
-448,218,0,0,0,0,0,0,0,0,0,-1,776,806,0,0
-441,218,0,0,0,0,0,0,0,0,0,-1,783,806,0,0
-434,218,0,0,0,0,0,0,0,0,0,-1,790,806,0,0
-427,218,0,0,0,0,0,0,0,0,0,-1,797,806,0,0
-420,218,0,0,0,0,0,0,0,0,0,-1,804,806,0,0
-413,218,0,0,0,0,0,0,0,0,0,-1,811,806,0,0
-406,218,0,0,0,0,0,0,0,0,0,-1,818,806,0,0
-399,218,0,0,0,0,0,0,0,0,0,-1,825,806,0,0
-392,218,0,0,0,0,0,0,0,0,0,-1,832,806,0,0
-385,218,0,0,0,0,0,0,0,0,0,-1,839,806,0,0
-378,218,0,0,0,0,0,0,0,0,0,-1,846,806,0,0
-371,218,0,0,0,0,0,0,0,0,0,-1,853,806,0,0
-364,218,0,0,0,0,0,0,0,0,0,-1,860,806,0,0
-357,218,0,0,0,0,0,0,0,0,0,-1,867,806,0,0
-350,218,0,0,0,0,0,0,0,0,0,-1,874,806,0,0
-343,218,0,0,0,0,0,0,0,0,0,-1,881,806,0,0
-336,218,0,0,0,0,0,0,0,0,0,-1,888,806,0,0
-329,218,0,0,0,0,0,0,0,0,0,-1,895,806,0,0
-322,218,0,0,0,0,0,0,0,0,0,-1,902,806,0,0
-315,218,0,0,0,0,0,0,0,0,0,-1,909,806,0,0
-308,218,0,0,0,0,0,0,0,0,0,-1,916,806,0,0
-301,218,0,0,0,0,0,0,0,0,0,-1,923,806,0,0
-294,218,0,0,0,0,0,0,0,0,0,-1,930,806,0,0
-287,218,0,0,0,0,0,0,0,0,0,-1,937,806,0,0
-280,218,0,0,0,0,0,0,0,0,0,-1,944,806,0,0
-273,218,0,0,0,0,0,0,0,0,0,-1,951,806,0,0
-266,218,0,0,0,0,0,0,0,0,0,-1,958,806,0,0
-259,218,0,0,0,0,0,0,0,0,0,-1,965,806,0,0
-252,218,0,0,0,0,0,0,0,0,0,-1,972,806,0,0
-245,218,0,0,0,0,0,0,0,0,0,-1,979,806,0,0
-238,218,0,0,0,0,0,0,0,0,0,-1,986,806,0,0
-231,218,0,0,0,0,0,0,0,0,0,-1,993,806,0,0
-224,218,0,0,0,0,0,0,0,0,0,-1,1000,806,0,0
-217,218,0,0,0,0,0,0,0,0,0,-1,1007,806,0,0
-210,218,0,0,0,0,0,0,0,0,0,-1,1014,806,0,0
-203,218,0,0,0,0,0,0,0,0,0,-1,1021,806,0,0
-196,218,0,0,0,0,0,0,0,0,0,-1,1028,806,0,0
-189,218,0,0,0,0,0,0,0,0,0,-1,1035,806,0,0
-182,218,0,0,0,0,0,0,0,0,0,-1,1042,806,0,0
-175,218,0,0,0,0,0,0,0,0,0,-1,1049,806,0,0
-168,218,0,0,0,0,0,0,0,0,0,-1,1056,806,0,0
-161,218,0,0,0,0,0,0,0,0,0,-1,1063,806,0,0
-154,218,0,0,0,0,0,0,0,0,0,-1,1070,806,0,0
-147,218,0,0,0,0,0,0,0,0,0,-1,1077,806,0,0
-140,218,0,0,0,0,0,0,0,0,0,-1,1084,806,0,0
-133,218,0,0,0,0,0,0,0,0,0,-1,1091,806,0,0
-126,218,0,0,0,0,0,0,0,0,0,-1,1098,806,0,0
-119,218,0,0,0,0,0,0,0,0,0,-1,1105,806,0,0
-112,218,0,0,0,0,0,0,0,0,0,-1,1112,806,0,0
-105,218,0,0,0,0,0,0,0,0,0,-1,1119,806,0,0
-98,218,0,0,0,0,0,0,0,0,0,-1,1126,806,0,0
-91,218,0,0,0,0,0,0,0,0,0,-1,1133,806,0,0
-84,218,0,0,0,0,0,0,0,0,0,-1,1140,806,0,0
-77,218,0,0,0,0,0,0,0,0,0,-1,1147,806,0,0
-70,218,0,0,0,0,0,0,0,0,0,-1,1154,806,0,0
-63,218,0,0,0,0,0,0,0,0,0,-1,1161,806,0,0
-56,218,0,0,0,0,0,0,0,0,0,-1,1168,806,0,0
-49,218,0,0,0,0,0,0,0,0,0,-1,1175,806,0,0
-42,218,0,0,0,0,0,0,0,0,0,-1,1182,806,0,0
-35,218,0,0,0,0,0,0,0,0,0,-1,1189,806,0,0
-28,218,0,0,0,0,0,0,0,0,0,-1,1196,806,0,0
-21,218,0,0,0,0,0,0,0,0,0,-1,1203,806,0,0
-14,218,0,0,0,0,0,0,0,0,0,-1,1210,806,0,0
-7,218,0,0,0,0,0,0,0,0,0,-1,1217,806,0,0
0,218,0,0,0,0,0,0,0,0,0,-1,1224,806,0,0
7,218,0,0,0,0,0,0,0,0,0,-1,1231,806,0,0
14,218,0,0,0,0,0,0,0,0,0,-1,1238,806,0,0
21,218,0,0,0,0,0,0,0,0,0,-1,1245,806,0,0
28,218,0,0,0,0,0,0,0,0,0,-1,1252,806,0,0
35,218,0,0,0,0,0,0,0,0,0,-1,1259,806,0,0
42,218,0,0,0,0,0,0,0,0,0,-1,1266,806,0,0
49,218,0,0,0,0,0,0,0,0,0,-1,1273,806,0,0
56,218,0,0,0,0,0,0,0,0,0,-1,1280,806,0,0
63,218,0,0,0,0,0,0,0,0,0,-1,1287,806,0,0
70,218,0,0,0,0,0,0,0,0,0,-1,1294,806,0,0
77,218,0,0,0,0,0,0,0,0,0,-1,1301,806,0,0
84,218,0,0,0,0,0,0,0,0,0,-1,1308,806,0,0
91,218,0,0,0,0,0,0,0,0,0,-1,1315,806,0,0
98,218,0,0,0,0,0,0,0,0,0,-1,1322,806,0,0
105,218,0,0,0,0,0,0,0,0,0,-1,1329,806,0,0
112,218,0,0,0,0,0,0,0,0,0,-1,1336,806,0,0
119,218,0,0,0,0,0,0,0,0,0,-1,1343,806,0,0
126,218,0,0,0,0,0,0,0,0,0,-1,1350,806,0,0
133,218,0,0,0,0,0,0,0,0,0,-1,1357,806,0,0
140,218,0,0,0,0,0,0,0,0,0,-1,1364,806,0,0
147,218,0,0,0,0,0,0,0,0,0,-1,1371,806,0,0
154,218,0,0,0,0,0,0,0,0,0,-1,1378,806,0,0
161,218,0,0,0,0,0,0,0,0,0,-1,1385,806,0,0
168,218,0,0,0,0,0,0,0,0,0,-1,1392,806,0,0
175,218,0,0,0,0,0,0,0,0,0,-1,1399,806,0,0
182,218,0,0,0,0,0,0,0,0,0,-1,1406,806,0,0
189,218,0,0,0,0,0,0,0,0,0,-1,1413,806,0,0
196,218,0,0,0,0,0,0,0,0,0,-1,1420,806,0,0
203,218,0,0,0,0,0,0,0,0,0,-1,1427,806,0,0
210,218,0,0,0,0,0,0,0,0,0,-1,1434,806,0,0
217,218,0,0,0,0,0,0,0,0,0,-1,1441,806,0,0
224,218,0,0,0,0,0,0,0,0,0,-1,1448,806,0,0
231,218,0,0,0,0,0,0,0,0,0,-1,1455,806,0,0
238,218,0,0,0,0,0,0,0,0,0,-1,1462,806,0,0
245,218,0,0,0,0,0,0,0,0,0,-1,1469,806,0,0
252,218,0,0,0,0,0,0,0,0,0,-1,1476,806,0,0
259,218,0,0,0,0,0,0,0,0,0,-1,1483,806,0,0
266,218,0,0,0,0,0,0,0,0,0,-1,1490,806,0,0
273,218,0,0,0,0,0,0,0,0,0,-1,1497,806,0,0
280,218,0,0,0,0,0,0,0,0,0,-1,1504,806,0,0
287,218,0,0,0,0,0,0,0,0,0,-1,1511,806,0,0
294,218,0,0,0,0,0,0,0,0,0,-1,1518,806,0,0
301,218,0,0,0,0,0,0,0,0,0,-1,1525,806,0,0
308,218,0,0,0,0,0,0,0,0,0,-1,1532,806,0,0
315,218,0,0,0,0,0,0,0,0,0,-1,1539,806,0,0
322,218,0,0,0,0,0,0,0,0,0,-1,1546,806,0,0
329,218,0,0,0,0,0,0,0,0,0,-1,1553,806,0,0
336,218,0,0,0,0,0,0,0,0,0,-1,1560,806,0,0
343,218,0,0,0,0,0,0,0,0,0,-1,1567,806,0,0
350,218,0,0,0,0,0,0,0,0,0,-1,1574,806,0,0
357,218,0,0,0,0,0,0,0,0,0,-1,1581,806,0,0
364,218,0,0,0,0,0,0,0,0,0,-1,1588,806,0,0
371,218,0,0,0,0,0,0,0,0,0,-1,1595,806,0,0
378,218,0,0,0,0,0,0,0,0,0,-1,1602,806,0,0
385,218,0,0,0,0,0,0,0,0,0,-1,1609,806,0,0
392,218,0,0,0,0,0,0,0,0,0,-1,1616,806,0,0
399,218,0,0,0,0,0,0,0,0,0,-1,1623,806,0,0
406,218,0,0,0,0,0,0,0,0,0,-1,1630,806,0,0
413,218,0,0,0,0,0,0,0,0,0,-1,1637,806,0,0
420,218,0,0,0,0,0,0,0,0,0,-1,1644,806,0,0
427,218,0,0,0,0,0,0,0,0,0,-1,1651,806,0,0
434,218,0,0,0,0,0,0,0,0,0,-1,1658,806,0,0
441,218,0,0,0,0,0,0,0,0,0,-1,1665,806,0,0
448,218,0,0,0,0,0,0,0,0,0,-1,1672,806,0,0
455,218,0,0,0,0,0,0,0,0,0,-1,1679,806,0,0
462,218,0,0,0,0,0,0,0,0,0,-1,1686,806,0,0
469,218,0,0,0,0,0,0,0,0,0,-1,1693,806,0,0
476,218,0,0,0,0,0,0,0,0,0,-1,1700,806,0,0
483,218,0,0,0,0,0,0,0,0,0,-1,1707,806,0,0
490,218,0,0,0,0,0,0,0,0,0,-1,1714,806,0,0
497,218,0,0,0,0,0,0,0,0,0,-1,1721,806,0,0
504,218,0,0,0,0,0,0,0,0,0,-1,1728,806,0,0
511,218,0,0,0,0,0,0,0,0,0,-1,1735,806,0,0
518,218,0,0,0,0,0,0,0,0,0,-1,1742,806,0,0
525,218,0,0,0,0,0,0,0,0,0,-1,1749,806,0,0
532,218,0,0,0,0,0,0,0,0,0,-1,1756,806,0,0
539,218,0,0,0,0,0,0,0,0,0,-1,1763,806,0,0
546,218,0,0,0,0,0,0,0,0,0,-1,1770,806,0,0
553,218,0,0,0,0,0,0,0,0,0,-1,1777,806,0,0
560,218,0,0,0,0,0,0,0,0,0,-1,1784,806,0,0
567,218,0,0,0,0,0,0,0,0,0,-1,1791,806,0,0
574,218,0,0,0,0,0,0,0,0,0,-1,1798,806,0,0
581,218,0,0,0,0,0,0,0,0,0,-1,1805,806,0,0
588,218,0,0,0,0,0,0,0,0,0,-1,1812,806,0,0
595,218,22.2625,3.01263,0.0108352,-0.0059015,0.000812695,0.0108746,-0.00594087,0.0484059,0.00984669,0.0368183,1819,806,22.2624,-3.01264
602,218,22.4163,2.86633,0.00758942,-0.00244676,0.00396126,0.00896451,-0.00382185,0.33412,0.00757863,0.0317184,1826,806,22.4163,-2.86635
609,218,22.3984,2.87109,0.00553456,-0.00033155,0.00480004,0.00822673,-0.00302372,0.511146,0.00672301,0.0287219,1833,806,22.3985,-2.87107
616,218,22.2957,2.9657,0.00405736,0.000768654,0.00434883,0.00706234,-0.00223632,0.604649,0.00560442,0.0321373,1840,806,22.2956,-2.96568
623,218,22.2894,3.0036,0.00315971,0.00112102,0.00324895,0.00554547,-0.00126475,0.633389,0.00418279,0.0386016,1847,806,22.2894,-3.00359
630,218,22.4369,2.896,0.00255533,0.000922064,0.00202001,0.00391753,-0.00044014,0.593307,0.00277008,0.0402806,1854,806,22.4369,-2.89601
637,218,22.5204,2.53046,0.00214564,0.000662302,0.000802559,0.00249676,0.000311189,0.412403,0.00157108,0.04081,1861,806,22.5204,-2.53045
644,218,18.5757,1.27673,0,0,0,0,0,0,0,-1,1868,806,18.5757,-1.27674
651,218,18.2883,1.56689,0,0,0,0,0,0,0,-1,1875,806,18.2884,-1.56689
658,218,17.1987,1.65448,0,0,0,0,0,0,0,-1,1882,806,17.1988,-1.6545
665,218,17.1217,1.79413,0.00113384,-0.000925005,-0.00206967,0.00241597,-0.00220713,-0.554622,0.00267006,0.031954,1889,806,17.1217,-1.79412
672,218,17.0518,1.97302,0.0011427,-0.00125503,-0.00255607,0.00276709,-0.00287943,-0.566117,0.00326023,0.0118637,1896,806,17.0518,-1.97305
679,218,17.062,2.22766,0.00115823,-0.00188284,-0.00290853,0.00291971,-0.00364431,-0.544544,0.00379743,0.0106517,1903,806,17.062,-2.22766
686,218,17.0627,2.45856,0.00103851,-0.00210032,-0.00237438,0.00231527,-0.00337708,-0.493371,0.00330549,0.0106613,1910,806,17.0627,-2.45856
693,218,17.0507,2.70038,0.00214452,-0.00194791,-0.00159567,0.00269313,-0.00249653,-0.331156,0.00299697,0.0110778,1917,806,17.0507,-2.70035
700,218,17.0266,2.9328,0.00524138,-0.002239,-0.00116506,0.00541863,-0.00241625,-0.150986,0.00463286,0.0096418,1924,806,17.0267,-2.93282
707,218,17.0133,3.14783,0.00920917,-0.00289873,-0.00116392,0.00932004,-0.0030096,-0.0949699,0.0074228,0.00792491,1931,806,17.0133,-3.14782
714,218,17.0302,3.38293,0.0153724,-0.00435438,-0.00248858,0.0156815,-0.00466348,-0.123573,0.012307,0.0097837,1938,806,17.0302,-3.38295
721,218,17.0634,3.61298,0.0239174,-0.00656065,-0.00389275,0.0244067,-0.00704999,-0.125049,0.0190608,0.0127837,1945,806,17.0634,-3.61299
728,218,17.0618,3.82111,0.0346381,-0.0095671,-0.00606442,0.035455,-0.010384,-0.133893,0.0277533,0.0191877,1952,806,17.0617,-3.82108
735,218,17.0753,4.06421,0.0479536,-0.0133627,-0.00927592,0.0493261,-0.0147352,-0.146902,0.0387414,0.0342281,1959,806,17.0754,-4.0642
742,218,17.15,4.28119,0,0,0,0,0,0,0,-1,1966,806,17.15,-4.28117
749,218,16.9727,4.09778,0,0,0,0,0,0,0,-1,1973,806,16.9727,-4.09778
756,218,16.8381,3.67395,0.106459,-0.0324537,-0.0298673,0.112609,-0.0386032,-0.203055,0.0907205,0.0488686,1980,806,16.8382,-3.67395
763,218,16.8557,3.17737,0.131407,-0.0419918,-0.0423266,0.141187,-0.051772,-0.227081,0.115323,0.0445568,1987,806,16.8557,-3.17735
770,218,0,0,0,0,0,0,0,0,0,-1,1994,806,0,0
777,218,0,0,0,0,0,0,0,0,0,-1,2001,806,0,0
784,218,0,0,0,0,0,0,0,0,0,-1,2008,806,0,0
791,218,0,0,0,0,0,0,0,0,0,-1,2015,806,0,0
798,218,0,0,0,0,0,0,0,0,0,-1,2022,806,0,0
805,218,0,0,0,0,0,0,0,0,0,-1,2029,806,0,0
812,218,0,0,0,0,0,0,0,0,0,-1,2036,806,0,0
-700,211,0,0,0,0,0,0,0,0,0,-1,524,813,0,0
-693,211,0,0,0,0,0,0,0,0,0,-1,531,813,0,0
-686,211,0,0,0,0,0,0,0,0,0,-1,538,813,0,0
-679,211,0,0,0,0,0,0,0,0,0,-1,545,813,0,0
-672,211,0,0,0,0,0,0,0,0,0,-1,552,813,0,0
-665,211,0,0,0,0,0,0,0,0,0,-1,559,813,0,0
-658,211,0,0,0,0,0,0,0,0,0,-1,566,813,0,0
-651,211,-12.72,2.01196,0.0201811,-0.0669705,-0.0276612,0.0282192,-0.0750086,-0.282802,0.0616055,0.0444759,573,813,-12.72,-2.01197
-644,211,-12.3947,2.14355,0.0265031,-0.0548621,-0.0166401,0.0297746,-0.0581336,-0.19413,0.0516266,0.0437887,580,813,-12.3947,-2.14355
-637,211,-12.0711,2.065,0,0,0,0,0,0,0,-1,587,813,-12.0711,-2.06503
-630,211,-11.8022,1.87006,0,0,0,0,0,0,0,-1,594,813,-11.8022,-1.87003
-623,211,-11.3839,1.33673,0,0,0,0,0,0,0,-1,601,813,-11.3839,-1.33673
-616,211,-11.2305,1.28015,0.0312088,-0.0198049,0.00421993,0.0315555,-0.0201516,0.0819789,0.0300941,0.0478557,608,813,-11.2304,-1.28013
-609,211,-10.9139,1.53613,0.0284521,-0.0143086,0.00557912,0.0291681,-0.0150245,0.127627,0.0259465,0.0389793,615,813,-10.9139,-1.53611
-602,211,-10.7095,1.62518,0.0247204,-0.00987747,0.00599509,0.0257298,-0.0108868,0.166803,0.0217119,0.0193506,622,813,-10.7094,-1.62517
-595,211,-10.7305,1.48523,0.0203947,-0.00625659,0.00589528,0.0216405,-0.00750239,0.208258,0.0174732,0.00970174,629,813,-10.7306,-1.48526
-588,211,-10.7298,1.29443,0.0164717,-0.00381608,0.00584096,0.0180331,-0.00537754,0.261222,0.0141592,0.0101965,636,813,-10.7298,-1.29446
-581,211,-10.7344,1.08759,0.0121244,-0.00196347,0.00473016,0.0135653,-0.00340431,0.295678,0.0103663,0.011039,643,813,-10.7344,-1.08761
-574,211,-10.7501,0.871521,0.00737531,-0.000827692,0.00347582,0.00865002,-0.0021024,0.351506,0.0065804,0.0119659,650,813,-10.75,-0.871538
-567,211,-10.725,0.651123,0.00348765,-0.000274797,0.0027512,0.00493931,-0.00172646,0.485519,0.00399472,0.0181471,657,813,-10.725,-0.651127
-560,211,-10.6942,0.463806,-0.000301322,0.000224645,0.00218686,0.00216428,-0.00224095,0.845239,0.00254349,0.0218419,664,813,-10.6942,-0.463783
-553,211,-10.7125,0.240906,-0.00355274,0.000752563,0.00203975,0.00156546,-0.00436564,1.19156,0.00354925,0.0187843,671,813,-10.7125,-0.240899
-546,211,-10.777,0.0873413,-0.00563193,0.0012491,0.00231883,0.00195757,-0.00634041,1.27427,0.00500864,0.0231116,678,813,-10.7771,-0.0873606
-539,211,-10.7667,-0.186951,-0.00773845,0.00172242,0.00254854,0.00236526,-0.00838128,1.32371,0.00652054,0.0176822,685,813,-10.7667,0.186941
-532,211,-10.8187,-0.282898,0,0,0,0,0,0,0,-1,692,813,-10.8187,0.282921
-525,211,-10.4468,0.0341797,0,0,0,0,0,0,0,-1,699,813,-10.4468,-0.0341982
-518,211,-11.4267,-1.12329,0,0,0,0,0,0,0,-1,706,813,-11.4267,1.12327
-511,211,-14.5046,1.55347,-0.0128234,0.00415807,0.00309361,0.00470409,-0.0133694,1.3961,0.0108271,0.0402258,713,813,-14.5045,-1.55348
-504,211,-14.6493,1.45197,-0.0134776,0.00469591,0.00289704,0.00514655,-0.0139282,1.41648,0.0113952,0.0444892,720,813,-14.6493,-1.45197
-497,211,-14.7095,1.31659,-0.0133807,0.00509042,0.00241382,0.00540065,-0.0136909,1.44297,0.0113636,0.0464441,727,813,-14.7095,-1.31658
-490,211,-14.9977,0.994934,-0.012015,0.00527187,0.00161222,0.00542095,-0.0121641,1.47859,0.0103986,0.0345338,734,813,-14.9977,-0.994929
-483,211,-15.0962,0.936768,-0.00889485,0.00516231,0.000562139,0.00518475,-0.0089173,1.53089,0.00823634,0.0318188,741,813,-15.0962,-0.936745
-476,211,-14.9763,1.07617,-0.00381886,0.00468061,-0.000283442,0.00469005,-0.0038283,-1.5375,0.00492645,0.0377574,748,813,-14.9763,-1.0762
-469,211,0,0,0,0,0,0,0,0,0,-1,755,813,0,0
-462,211,0,0,0,0,0,0,0,0,0,-1,762,813,0,0
-455,211,0,0,0,0,0,0,0,0,0,-1,769,813,0,0
-448,211,0,0,0,0,0,0,0,0,0,-1,776,813,0,0
-441,211,0,0,0,0,0,0,0,0,0,-1,783,813,0,0
-434,211,0,0,0,0,0,0,0,0,0,-1,790,813,0,0
-427,211,0,0,0,0,0,0,0,0,0,-1,797,813,0,0
-420,211,0,0,0,0,0,0,0,0,0,-1,804,813,0,0
-413,211,0,0,0,0,0,0,0,0,0,-1,811,813,0,0
-406,211,0,0,0,0,0,0,0,0,0,-1,818,813,0,0
-399,211,0,0,0,0,0,0,0,0,0,-1,825,813,0,0
-392,211,0,0,0,0,0,0,0,0,0,-1,832,813,0,0
-385,211,0,0,0,0,0,0,0,0,0,-1,839,813,0,0
-378,211,0,0,0,0,0,0,0,0,0,-1,846,813,0,0
-371,211,0,0,0,0,0,0,0,0,0,-1,853,813,0,0
-364,211,0,0,0,0,0,0,0,0,0,-1,860,813,0,0
-357,211,0,0,0,0,0,0,0,0,0,-1,867,813,0,0
-350,211,0,0,0,0,0,0,0,0,0,-1,874,813,0,0
-343,211,0,0,0,0,0,0,0,0,0,-1,881,813,0,0
-336,211,0,0,0,0,0,0,0,0,0,-1,888,813,0,0
-329,211,0,0,0,0,0,0,0,0,0,-1,895,813,0,0
-322,211,0,0,0,0,0,0,0,0,0,-1,902,813,0,0
-315,211,0,0,0,0,0,0,0,0,0,-1,909,813,0,0
-308,211,0,0,0,0,0,0,0,0,0,-1,916,813,0,0
-301,211,0,0,0,0,0,0,0,0,0,-1,923,813,0,0
-294,211,0,0,0,0,0,0,0,0,0,-1,930,813,0,0
-287,211,0,0,0,0,0,0,0,0,0,-1,937,813,0,0
-280,211,0,0,0,0,0,0,0,0,0,-1,944,813,0,0
-273,211,0,0,0,0,0,0,0,0,0,-1,951,813,0,0
-266,211,0,0,0,0,0,0,0,0,0,-1,958,813,0,0
-259,211,0,0,0,0,0,0,0,0,0,-1,965,813,0,0
-252,211,0,0,0,0,0,0,0,0,0,-1,972,813,0,0
-245,211,0,0,0,0,0,0,0,0,0,-1,979,813,0,0
-238,211,0,0,0,0,0,0,0,0,0,-1,986,813,0,0
-231,211,0,0,0,0,0,0,0,0,0,-1,993,813,0,0
-224,211,0,0,0,0,0,0,0,0,0,-1,1000,813,0,0
-217,211,0,0,0,0,0,0,0,0,0,-1,1007,813,0,0
-210,211,0,0,0,0,0,0,0,0,0,-1,1014,813,0,0
-203,211,0,0,0,0,0,0,0,0,0,-1,1021,813,0,0
-196,211,0,0,0,0,0,0,0,0,0,-1,1028,813,0,0
-189,211,0,0,0,0,0,0,0,0,0,-1,1035,813,0,0
-182,211,0,0,0,0,0,0,0,0,0,-1,1042,813,0,0
-175,211,0,0,0,0,0,0,0,0,0,-1,1049,813,0,0
-168,211,0,0,0,0,0,0,0,0,0,-1,1056,813,0,0
-161,211,0,0,0,0,0,0,0,0,0,-1,1063,813,0,0
-154,211,0,0,0,0,0,0,0,0,0,-1,1070,813,0,0
-147,211,0,0,0,0,0,0,0,0,0,-1,1077,813,0,0
-140,211,0,0,0,0,0,0,0,0,0,-1,1084,813,0,0
-133,211,0,0,0,0,0,0,0,0,0,-1,1091,813,0,0
-126,211,0,0,0,0,0,0,0,0,0,-1,1098,813,0,0
-119,211,0,0,0,0,0,0,0,0,0,-1,1105,813,0,0
-112,211,0,0,0,0,0,0,0,0,0,-1,1112,813,0,0
-105,211,0,0,0,0,0,0,0,0,0,-1,1119,813,0,0
-98,211,0,0,0,0,0,0,0,0,0,-1,1126,813,0,0
-91,211,0,0,0,0,0,0,0,0,0,-1,1133,813,0,0
-84,211,0,0,0,0,0,0,0,0,0,-1,1140,813,0,0
-77,211,0,0,0,0,0,0,0,0,0,-1,1147,813,0,0
-70,211,0,0,0,0,0,0,0,0,0,-1,1154,813,0,0
-63,211,0,0,0,0,0,0,0,0,0,-1,1161,813,0,0
-56,211,0,0,0,0,0,0,0,0,0,-1,1168,813,0,0
-49,211,0,0,0,0,0,0,0,0,0,-1,1175,813,0,0
-42,211,0,0,0,0,0,0,0,0,0,-1,1182,813,0,0
-35,211,0,0,0,0,0,0,0,0,0,-1,1189,813,0,0
-28,211,0,0,0,0,0,0,0,0,0,-1,1196,813,0,0
-21,211,0,0,0,0,0,0,0,0,0,-1,1203,813,0,0
-14,211,0,0,0,0,0,0,0,0,0,-1,1210,813,0,0
-7,211,0,0,0,0,0,0,0,0,0,-1,1217,813,0,0
0,211,0,0,0,0,0,0,0,0,0,-1,1224,813,0,0
7,211,0,0,0,0,0,0,0,0,0,-1,1231,813,0,0
14,211,0,0,0,0,0,0,0,0,0,-1,1238,813,0,0
21,211,0,0,0,0,0,0,0,0,0,-1,1245,813,0,0
28,211,0,0,0,0,0,0,0,0,0,-1,1252,813,0,0
35,211,0,0,0,0,0,0,0,0,0,-1,1259,813,0,0
42,211,0,0,0,0,0,0,0,0,0,-1,1266,813,0,0
49,211,0,0,0,0,0,0,0,0,0,-1,1273,813,0,0
56,211,0,0,0,0,0,0,0,0,0,-1,1280,813,0,0
63,211,0,0,0,0,0,0,0,0,0,-1,1287,813,0,0
70,211,0,0,0,0,0,0,0,0,0,-1,1294,813,0,0
77,211,0,0,0,0,0,0,0,0,0,-1,1301,813,0,0
84,211,0,0,0,0,0,0,0,0,0,-1,1308,813,0,0
91,211,0,0,0,0,0,0,0,0,0,-1,1315,813,0,0
98,211,0,0,0,0,0,0,0,0,0,-1,1322,813,0,0
105,211,0,0,0,0,0,0,0,0,0,-1,1329,813,0,0
112,211,0,0,0,0,0,0,0,0,0,-1,1336,813,0,0
119,211,0,0,0,0,0,0,0,0,0,-1,1343,813,0,0
126,211,0,0,0,0,0,0,0,0,0,-1,1350,813,0,0
133,211,0,0,0,0,0,0,0,0,0,-1,1357,813,0,0
140,211,0,0,0,0,0,0,0,0,0,-1,1364,813,0,0
147,211,0,0,0,0,0,0,0,0,0,-1,1371,813,0,0
154,211,0,0,0,0,0,0,0,0,0,-1,1378,813,0,0
161,211,0,0,0,0,0,0,0,0,0,-1,1385,813,0,0
168,211,0,0,0,0,0,0,0,0,0,-1,1392,813,0,0
175,211,0,0,0,0,0,0,0,0,0,-1,1399,813,0,0
182,211,0,0,0,0,0,0,0,0,0,-1,1406,813,0,0
189,211,0,0,0,0,0,0,0,0,0,-1,1413,813,0,0
196,211,0,0,0,0,0,0,0,0,0,-1,1420,813,0,0
203,211,0,0,0,0,0,0,0,0,0,-1,1427,813,0,0
210,211,0,0,0,0,0,0,0,0,0,-1,1434,813,0,0
217,211,0,0,0,0,0,0,0,0,0,-1,1441,813,0,0
224,211,0,0,0,0,0,0,0,0,0,-1,1448,813,0,0
231,211,0,0,0,0,0,0,0,0,0,-1,1455,813,0,0
238,211,0,0,0,0,0,0,0,0,0,-1,1462,813,0,0
245,211,0,0,0,0,0,0,0,0,0,-1,1469,813,0,0
252,211,0,0,0,0,0,0,0,0,0,-1,1476,813,0,0
259,211,0,0,0,0,0,0,0,0,0,-1,1483,813,0,0
266,211,0,0,0,0,0,0,0,0,0,-1,1490,813,0,0
273,211,0,0,0,0,0,0,0,0,0,-1,1497,813,0,0
280,211,0,0,0,0,0,0,0,0,0,-1,1504,813,0,0
287,211,0,0,0,0,0,0,0,0,0,-1,1511,813,0,0
294,211,0,0,0,0,0,0,0,0,0,-1,1518,813,0,0
301,211,0,0,0,0,0,0,0,0,0,-1,1525,813,0,0
308,211,0,0,0,0,0,0,0,0,0,-1,1532,813,0,0
315,211,0,0,0,0,0,0,0,0,0,-1,1539,813,0,0
322,211,0,0,0,0,0,0,0,0,0,-1,1546,813,0,0
329,211,0,0,0,0,0,0,0,0,0,-1,1553,813,0,0
336,211,0,0,0,0,0,0,0,0,0,-1,1560,813,0,0
343,211,0,0,0,0,0,0,0,0,0,-1,1567,813,0,0
350,211,0,0,0,0,0,0,0,0,0,-1,1574,813,0,0
357,211,0,0,0,0,0,0,0,0,0,-1,1581,813,0,0
364,211,0,0,0,0,0,0,0,0,0,-1,1588,813,0,0
371,211,0,0,0,0,0,0,0,0,0,-1,1595,813,0,0
378,211,0,0,0,0,0,0,0,0,0,-1,1602,813,0,0
385,211,0,0,0,0,0,0,0,0,0,-1,1609,813,0,0
392,211,0,0,0,0,0,0,0,0,0,-1,1616,813,0,0
399,211,0,0,0,0,0,0,0,0,0,-1,1623,813,0,0
406,211,0,0,0,0,0,0,0,0,0,-1,1630,813,0,0
413,211,0,0,0,0,0,0,0,0,0,-1,1637,813,0,0
420,211,0,0,0,0,0,0,0,0,0,-1,1644,813,0,0
427,211,0,0,0,0,0,0,0,0,0,-1,1651,813,0,0
434,211,0,0,0,0,0,0,0,0,0,-1,1658,813,0,0
441,211,0,0,0,0,0,0,0,0,0,-1,1665,813,0,0
448,211,0,0,0,0,0,0,0,0,0,-1,1672,813,0,0
455,211,0,0,0,0,0,0,0,0,0,-1,1679,813,0,0
462,211,0,0,0,0,0,0,0,0,0,-1,1686,813,0,0
469,211,0,0,0,0,0,0,0,0,0,-1,1693,813,0,0
476,211,0,0,0,0,0,0,0,0,0,-1,1700,813,0,0
483,211,0,0,0,0,0,0,0,0,0,-1,1707,813,0,0
490,211,0,0,0,0,0,0,0,0,0,-1,1714,813,0,0
497,211,0,0,0,0,0,0,0,0,0,-1,1721,813,0,0
504,211,0,0,0,0,0,0,0,0,0,-1,1728,813,0,0
511,211,0,0,0,0,0,0,0,0,0,-1,1735,813,0,0
518,211,0,0,0,0,0,0,0,0,0,-1,1742,813,0,0
525,211,0,0,0,0,0,0,0,0,0,-1,1749,813,0,0
532,211,0,0,0,0,0,0,0,0,0,-1,1756,813,0,0
539,211,0,0,0,0,0,0,0,0,0,-1,1763,813,0,0
546,211,0,0,0,0,0,0,0,0,0,-1,1770,813,0,0
553,211,0,0,0,0,0,0,0,0,0,-1,1777,813,0,0
560,211,0,0,0,0,0,0,0,0,0,-1,1784,813,0,0
567,211,0,0,0,0,0,0,0,0,0,-1,1791,813,0,0
574,211,0,0,0,0,0,0,0,0,0,-1,1798,813,0,0
581,211,0,0,0,0,0,0,0,0,0,-1,1805,813,0,0
588,211,0,0,0,0,0,0,0,0,0,-1,1812,813,0,0
595,211,22.2295,3.0155,0.0102102,-0.00570826,5.21034e-05,0.0102104,-0.00570843,0.0032731,0.00931243,0.0382279,1819,813,22.2294,-3.01551
602,211,22.3611,2.9549,0.00739483,-0.00234458,0.00298644,0.00823765,-0.0031874,0.27506,0.00680767,0.0357155,1826,813,22.3611,-2.95491
609,211,22.3818,2.9563,0.00572955,-0.000319912,0.00369519,0.00748012,-0.00207048,0.442421,0.0058014,0.0361457,1833,813,22.3818,-2.9563
616,211,22.3826,2.96173,0.00458547,0.000681765,0.00325548,0.00642939,-0.00116215,0.51535,0.00472156,0.0317251,1840,813,22.3826,-2.96175
623,211,22.3497,2.97943,0.00385046,0.000956614,0.00223181,0.00506334,-0.000256272,0.497803,0.00346415,0.0339906,1847,813,22.3498,-2.97942
630,211,22.3778,2.93152,0.00337765,0.000707817,0.00106907,0.00375297,0.000332497,0.33763,0.00239884,0.0378724,1854,813,22.3778,-2.93154
637,211,22.5269,2.7384,0.00298828,0.000341269,2.08657e-05,0.00298844,0.000341104,0.00788211,0.00188889,0.0390544,1861,813,22.5268,-2.73843
644,211,22.3934,2.54559,0.00261662,-8.4111e-05,-0.000733186,0.00280282,-0.000270316,-0.248709,0.00196486,0.039693,1868,813,22.3934,-2.54561
651,211,18.6622,1.4043,0,0,0,0,0,0,0,-1,1875,813,18.6622,-1.40428
658,211,16.697,2.25458,0,0,0,0,0,0,0,-1,1882,813,16.6971,-2.25458
665,211,17.2322,1.89069,0,0,0,0,0,0,0,-1,1889,813,17.2322,-1.89068
672,211,17.2189,2.02759,0.0015388,-0.00145891,-0.00248414,0.00294123,-0.00286135,-0.513951,0.00335023,0.0194508,1896,813,17.2188,-2.02758
679,211,17.2815,2.2193,0.0014304,-0.00192268,-0.00270341,0.00293494,-0.00342721,-0.507843,0.00367685,0.0122886,1903,813,17.2815,-2.21929
686,211,17.2936,2.46979,0.00118958,-0.00213395,-0.00220707,0.00229054,-0.00323491,-0.462712,0.00320561,0.0110682,1910,813,17.2936,-2.4698
693,211,17.2793,2.70221,0.00194112,-0.00194739,-0.00154113,0.00247784,-0.0024841,-0.335124,0.00286478,0.0113691,1917,813,17.2793,-2.70223
700,211,17.2181,2.92297,0.004402,-0.00201189,-0.00118172,0.0046128,-0.00222268,-0.176524,0.00402608,0.0139186,1924,813,17.2182,-2.92296
707,211,17.2324,3.15973,0.00780195,-0.00245328,-0.00116924,0.00793357,-0.0025849,-0.112097,0.00632915,0.0205509,1931,813,17.2324,-3.15971
714,211,17.2379,3.39789,0.0133605,-0.00362368,-0.00247245,0.0137131,-0.00397628,-0.141658,0.0107163,0.0204649,1938,813,17.2379,-3.39787
721,211,17.2792,3.61682,0.0212725,-0.00552423,-0.00390916,0.0218311,-0.00608286,-0.141942,0.0169495,0.0158137,1945,813,17.2792,-3.61679
728,211,17.2767,3.82953,0.0311747,-0.00817779,-0.00609164,0.0320961,-0.00909918,-0.150117,0.0249889,0.0151484,1952,813,17.2768,-3.82952
735,211,17.2604,4.03992,0.0433354,-0.0114806,-0.00922965,0.0448478,-0.0129929,-0.162411,0.0350418,0.0249457,1959,813,17.2604,-4.03991
742,211,17.3409,4.20581,0.058373,-0.01584,-0.0137495,0.0608384,-0.0183055,-0.177428,0.0478427,0.0477161,1966,813,17.3409,-4.20583
749,211,17.4894,4.03497,0.0764165,-0.0214536,-0.0200684,0.0803717,-0.0254089,-0.194593,0.0637613,0.0495466,1973,813,17.4893,-4.03499
756,211,17.7042,3.80096,0.0974257,-0.028536,-0.028693,0.103654,-0.0347641,-0.213744,0.0831493,0.043754,1980,813,17.7042,-3.80096
763,211,17.7828,3.26532,0.12108,-0.0373002,-0.0401492,0.130676,-0.0468965,-0.234615,0.106257,0.0443831,1987,813,17.7828,-3.26529
770,211,17.8934,2.78723,0,0,0,0,0,0,0,-1,1994,813,17.8935,-2.78722
777,211,0,0,0,0,0,0,0,0,0,-1,2001,813,0,0
784,211,0,0,0,0,0,0,0,0,0,-1,2008,813,0,0
791,211,0,0,0,0,0,0,0,0,0,-1,2015,813,0,0
798,211,0,0,0,0,0,0,0,0,0,-1,2022,813,0,0
805,211,0,0,0,0,0,0,0,0,0,-1,2029,813,0,0
812,211,0,0,0,0,0,0,0,0,0,-1,2036,813,0,0
-700,204,0,0,0,0,0,0,0,0,0,-1,524,820,0,0
-693,204,0,0,0,0,0,0,0,0,0,-1,531,820,0,0
-686,204,0,0,0,0,0,0,0,0,0,-1,538,820,0,0
-679,204,0,0,0,0,0,0,0,0,0,-1,545,820,0,0
-672,204,0,0,0,0,0,0,0,0,0,-1,552,820,0,0
-665,204,0,0,0,0,0,0,0,0,0,-1,559,820,0,0
-658,204,0,0,0,0,0,0,0,0,0,-1,566,820,0,0
-651,204,-12.4698,2.69946,0.00742565,-0.051158,-0.0253433,0.0168674,-0.0605998,-0.356626,0.0470414,0.0432656,573,820,-12.4699,-2.69945
-644,204,-12.0295,2.81287,0.0142555,-0.042608,-0.0160152,0.0184558,-0.0468083,-0.256493,0.0388474,0.0449993,580,820,-12.0295,-2.81284
-637,204,-11.6354,2.18597,0,0,0,0,0,0,0,-1,587,820,-11.6354,-2.18599
-630,204,-11.5665,1.82825,0.021031,-0.0273249,-0.00366257,0.0213069,-0.0276008,-0.0751704,0.0283147,0.0457233,594,820,-11.5665,-1.82825
-623,204,-11.3457,1.35455,0.0218056,-0.020983,0.000119532,0.0218059,-0.0209833,0.00279352,0.0247059,0.0434718,601,820,-11.3457,-1.35453
-616,204,-11.2288,1.20056,0.0211884,-0.0156007,0.00259346,0.0213703,-0.0157826,0.0700339,0.021531,0.0444155,608,820,-11.2288,-1.20059
-609,204,-10.9292,1.54022,0.0194372,-0.0111948,0.0039657,0.0199422,-0.0116999,0.126681,0.018474,0.0339969,615,820,-10.9292,-1.5402
-602,204,-10.9078,1.66022,0.0168052,-0.00760942,0.00452459,0.0176167,-0.00842095,0.177474,0.0153422,0.0144656,622,820,-10.9078,-1.66023
-595,204,-10.9229,1.49341,0.0135602,-0.00470672,0.0045905,0.0146489,-0.00579544,0.232864,0.0121669,0.0135069,629,820,-10.9229,-1.49343
-588,204,-10.943,1.27502,0.0107266,-0.00298347,0.004761,0.0122178,-0.0044746,0.303521,0.00997699,0.0111075,636,820,-10.943,-1.27504
-581,204,-10.9416,1.06305,0.00747467,-0.00155711,0.00395315,0.0089605,-0.00304294,0.359525,0.00720544,0.0112212,643,820,-10.9416,-1.06305
-574,204,-10.9508,0.862244,0.00364852,-0.000632055,0.00299575,0.00518999,-0.00217352,0.475222,0.00436861,0.0130385,650,820,-10.9508,-0.862258
-567,204,-10.9444,0.652161,0.00046033,-0.000209675,0.00251939,0.00266689,-0.00241624,0.719301,0.00293594,0.0134219,657,820,-10.9444,-0.652161
-560,204,-10.9239,0.42688,-0.00260591,0.000271135,0.00217534,0.00144057,-0.00377534,1.07753,0.00311035,0.0135951,664,820,-10.9239,-0.426873
-553,204,-10.9264,0.2547,-0.00530761,0.000829666,0.00210779,0.00148384,-0.00596178,1.26986,0.0045505,0.0109716,671,820,-10.9264,-0.254724
-546,204,-10.9478,0.0775146,-0.00697735,0.00137908,0.00239153,0.00201511,-0.00761337,1.31086,0.00586386,0.0166814,678,820,-10.9478,-0.0775061
-539,204,-11.006,-0.186523,-0.00868439,0.00192489,0.00259478,0.00252551,-0.00928501,1.34333,0.00718143,0.0306422,685,820,-11.006,0.18655
-532,204,-11.011,-0.49707,0,0,0,0,0,0,0,-1,692,820,-11.011,0.497046
-525,204,-14.4,1.63733,0,0,0,0,0,0,0,-1,699,820,-14.4,-1.63732
-518,204,-14.5023,1.56421,-0.0120043,0.00392566,0.0028334,0.00441462,-0.0124932,1.39991,0.0101264,0.0443118,706,820,-14.5023,-1.56423
-511,204,-14.6484,1.46088,-0.0127186,0.00460663,0.0026833,0.00501269,-0.0131247,1.4206,0.0108151,0.0468581,713,820,-14.6484,-1.46086
-504,204,-14.7275,1.35376,-0.0129579,0.00502726,0.00225054,0.0053046,-0.0132352,1.44818,0.0110256,0.0464181,720,820,-14.7275,-1.35373
-497,204,-14.7994,1.31091,0,0,0,0,0,0,0,-1,727,820,-14.7994,-1.31093
-490,204,-15.01,0.925293,-0.0102365,0.00460551,0.000248916,0.00460969,-0.0102407,1.55403,0.00877693,0.0350437,734,820,-15.01,-0.92531
-483,204,-14.9918,0.972412,-0.00636099,0.00333418,-0.00118936,0.00347795,-0.00650476,-1.4505,0.00585116,0.0388176,741,820,-14.9918,-0.972382
-476,204,0,0,0,0,0,0,0,0,0,-1,748,820,0,0
-469,204,0,0,0,0,0,0,0,0,0,-1,755,820,0,0
-462,204,0,0,0,0,0,0,0,0,0,-1,762,820,0,0
-455,204,0,0,0,0,0,0,0,0,0,-1,769,820,0,0
-448,204,0,0,0,0,0,0,0,0,0,-1,776,820,0,0
-441,204,0,0,0,0,0,0,0,0,0,-1,783,820,0,0
-434,204,0,0,0,0,0,0,0,0,0,-1,790,820,0,0
-427,204,0,0,0,0,0,0,0,0,0,-1,797,820,0,0
-420,204,0,0,0,0,0,0,0,0,0,-1,804,820,0,0
-413,204,0,0,0,0,0,0,0,0,0,-1,811,820,0,0
-406,204,0,0,0,0,0,0,0,0,0,-1,818,820,0,0
-399,204,0,0,0,0,0,0,0,0,0,-1,825,820,0,0
-392,204,0,0,0,0,0,0,0,0,0,-1,832,820,0,0
-385,204,0,0,0,0,0,0,0,0,0,-1,839,820,0,0
-378,204,0,0,0,0,0,0,0,0,0,-1,846,820,0,0
-371,204,0,0,0,0,0,0,0,0,0,-1,853,820,0,0
-364,204,0,0,0,0,0,0,0,0,0,-1,860,820,0,0
-357,204,0,0,0,0,0,0,0,0,0,-1,867,820,0,0
-350,204,0,0,0,0,0,0,0,0,0,-1,874,820,0,0
-343,204,0,0,0,0,0,0,0,0,0,-1,881,820,0,0
-336,204,0,0,0,0,0,0,0,0,0,-1,888,820,0,0
-329,204,0,0,0,0,0,0,0,0,0,-1,895,820,0,0
-322,204,0,0,0,0,0,0,0,0,0,-1,902,820,0,0
-315,204,0,0,0,0,0,0,0,0,0,-1,909,820,0,0
-308,204,0,0,0,0,0,0,0,0,0,-1,916,820,0,0
-301,204,0,0,0,0,0,0,0,0,0,-1,923,820,0,0
-294,204,0,0,0,0,0,0,0,0,0,-1,930,820,0,0
-287,204,0,0,0,0,0,0,0,0,0,-1,937,820,0,0
-280,204,0,0,0,0,0,0,0,0,0,-1,944,820,0,0
-273,204,0,0,0,0,0,0,0,0,0,-1,951,820,0,0
-266,204,0,0,0,0,0,0,0,0,0,-1,958,820,0,0
-259,204,0,0,0,0,0,0,0,0,0,-1,965,820,0,0
-252,204,0,0,0,0,0,0,0,0,0,-1,972,820,0,0
-245,204,0,0,0,0,0,0,0,0,0,-1,979,820,0,0
-238,204,0,0,0,0,0,0,0,0,0,-1,986,820,0,0
-231,204,0,0,0,0,0,0,0,0,0,-1,993,820,0,0
-224,204,0,0,0,0,0,0,0,0,0,-1,1000,820,0,0
-217,204,0,0,0,0,0,0,0,0,0,-1,1007,820,0,0
-210,204,0,0,0,0,0,0,0,0,0,-1,1014,820,0,0
-203,204,0,0,0,0,0,0,0,0,0,-1,1021,820,0,0
-196,204,0,0,0,0,0,0,0,0,0,-1,1028,820,0,0
-189,204,0,0,0,0,0,0,0,0,0,-1,1035,820,0,0
-182,204,0,0,0,0,0,0,0,0,0,-1,1042,820,0,0
-175,204,0,0,0,0,0,0,0,0,0,-1,1049,820,0,0
-168,204,0,0,0,0,0,0,0,0,0,-1,1056,820,0,0
-161,204,0,0,0,0,0,0,0,0,0,-1,1063,820,0,0
-154,204,0,0,0,0,0,0,0,0,0,-1,1070,820,0,0
-147,204,0,0,0,0,0,0,0,0,0,-1,1077,820,0,0
-140,204,0,0,0,0,0,0,0,0,0,-1,1084,820,0,0
-133,204,0,0,0,0,0,0,0,0,0,-1,1091,820,0,0
-126,204,0,0,0,0,0,0,0,0,0,-1,1098,820,0,0
-119,204,0,0,0,0,0,0,0,0,0,-1,1105,820,0,0
-112,204,0,0,0,0,0,0,0,0,0,-1,1112,820,0,0
-105,204,0,0,0,0,0,0,0,0,0,-1,1119,820,0,0
-98,204,0,0,0,0,0,0,0,0,0,-1,1126,820,0,0
-91,204,0,0,0,0,0,0,0,0,0,-1,1133,820,0,0
-84,204,0,0,0,0,0,0,0,0,0,-1,1140,820,0,0
-77,204,0,0,0,0,0,0,0,0,0,-1,1147,820,0,0
-70,204,0,0,0,0,0,0,0,0,0,-1,1154,820,0,0
-63,204,0,0,0,0,0,0,0,0,0,-1,1161,820,0,0
-56,204,0,0,0,0,0,0,0,0,0,-1,1168,820,0,0
-49,204,0,0,0,0,0,0,0,0,0,-1,1175,820,0,0
-42,204,0,0,0,0,0,0,0,0,0,-1,1182,820,0,0
-35,204,0,0,0,0,0,0,0,0,0,-1,1189,820,0,0
-28,204,0,0,0,0,0,0,0,0,0,-1,1196,820,0,0
-21,204,0,0,0,0,0,0,0,0,0,-1,1203,820,0,0
-14,204,0,0,0,0,0,0,0,0,0,-1,1210,820,0,0
-7,204,0,0,0,0,0,0,0,0,0,-1,1217,820,0,0
0,204,0,0,0,0,0,0,0,0,0,-1,1224,820,0,0
7,204,0,0,0,0,0,0,0,0,0,-1,1231,820,0,0
14,204,0,0,0,0,0,0,0,0,0,-1,1238,820,0,0
21,204,0,0,0,0,0,0,0,0,0,-1,1245,820,0,0
28,204,0,0,0,0,0,0,0,0,0,-1,1252,820,0,0
35,204,0,0,0,0,0,0,0,0,0,-1,1259,820,0,0
42,204,0,0,0,0,0,0,0,0,0,-1,1266,820,0,0
49,204,0,0,0,0,0,0,0,0,0,-1,1273,820,0,0
56,204,0,0,0,0,0,0,0,0,0,-1,1280,820,0,0
63,204,0,0,0,0,0,0,0,0,0,-1,1287,820,0,0
70,204,0,0,0,0,0,0,0,0,0,-1,1294,820,0,0
77,204,0,0,0,0,0,0,0,0,0,-1,1301,820,0,0
84,204,0,0,0,0,0,0,0,0,0,-1,1308,820,0,0
91,204,0,0,0,0,0,0,0,0,0,-1,1315,820,0,0
98,204,0,0,0,0,0,0,0,0,0,-1,1322,820,0,0
105,204,0,0,0,0,0,0,0,0,0,-1,1329,820,0,0
112,204,0,0,0,0,0,0,0,0,0,-1,1336,820,0,0
119,204,0,0,0,0,0,0,0,0,0,-1,1343,820,0,0
126,204,0,0,0,0,0,0,0,0,0,-1,1350,820,0,0
133,204,0,0,0,0,0,0,0,0,0,-1,1357,820,0,0
140,204,0,0,0,0,0,0,0,0,0,-1,1364,820,0,0
147,204,0,0,0,0,0,0,0,0,0,-1,1371,820,0,0
154,204,0,0,0,0,0,0,0,0,0,-1,1378,820,0,0
161,204,0,0,0,0,0,0,0,0,0,-1,1385,820,0,0
168,204,0,0,0,0,0,0,0,0,0,-1,1392,820,0,0
175,204,0,0,0,0,0,0,0,0,0,-1,1399,820,0,0
182,204,0,0,0,0,0,0,0,0,0,-1,1406,820,0,0
189,204,0,0,0,0,0,0,0,0,0,-1,1413,820,0,0
196,204,0,0,0,0,0,0,0,0,0,-1,1420,820,0,0
203,204,0,0,0,0,0,0,0,0,0,-1,1427,820,0,0
210,204,0,0,0,0,0,0,0,0,0,-1,1434,820,0,0
217,204,0,0,0,0,0,0,0,0,0,-1,1441,820,0,0
224,204,0,0,0,0,0,0,0,0,0,-1,1448,820,0,0
231,204,0,0,0,0,0,0,0,0,0,-1,1455,820,0,0
238,204,0,0,0,0,0,0,0,0,0,-1,1462,820,0,0
245,204,0,0,0,0,0,0,0,0,0,-1,1469,820,0,0
252,204,0,0,0,0,0,0,0,0,0,-1,1476,820,0,0
259,204,0,0,0,0,0,0,0,0,0,-1,1483,820,0,0
266,204,0,0,0,0,0,0,0,0,0,-1,1490,820,0,0
273,204,0,0,0,0,0,0,0,0,0,-1,1497,820,0,0
280,204,0,0,0,0,0,0,0,0,0,-1,1504,820,0,0
287,204,0,0,0,0,0,0,0,0,0,-1,1511,820,0,0
294,204,0,0,0,0,0,0,0,0,0,-1,1518,820,0,0
301,204,0,0,0,0,0,0,0,0,0,-1,1525,820,0,0
308,204,0,0,0,0,0,0,0,0,0,-1,1532,820,0,0
315,204,0,0,0,0,0,0,0,0,0,-1,1539,820,0,0
322,204,0,0,0,0,0,0,0,0,0,-1,1546,820,0,0
329,204,0,0,0,0,0,0,0,0,0,-1,1553,820,0,0
336,204,0,0,0,0,0,0,0,0,0,-1,1560,820,0,0
343,204,0,0,0,0,0,0,0,0,0,-1,1567,820,0,0
350,204,0,0,0,0,0,0,0,0,0,-1,1574,820,0,0
357,204,0,0,0,0,0,0,0,0,0,-1,1581,820,0,0
364,204,0,0,0,0,0,0,0,0,0,-1,1588,820,0,0
371,204,0,0,0,0,0,0,0,0,0,-1,1595,820,0,0
378,204,0,0,0,0,0,0,0,0,0,-1,1602,820,0,0
385,204,0,0,0,0,0,0,0,0,0,-1,1609,820,0,0
392,204,0,0,0,0,0,0,0,0,0,-1,1616,820,0,0
399,204,0,0,0,0,0,0,0,0,0,-1,1623,820,0,0
406,204,0,0,0,0,0,0,0,0,0,-1,1630,820,0,0
413,204,0,0,0,0,0,0,0,0,0,-1,1637,820,0,0
420,204,0,0,0,0,0,0,0,0,0,-1,1644,820,0,0
427,204,0,0,0,0,0,0,0,0,0,-1,1651,820,0,0
434,204,0,0,0,0,0,0,0,0,0,-1,1658,820,0,0
441,204,0,0,0,0,0,0,0,0,0,-1,1665,820,0,0
448,204,0,0,0,0,0,0,0,0,0,-1,1672,820,0,0
455,204,0,0,0,0,0,0,0,0,0,-1,1679,820,0,0
462,204,0,0,0,0,0,0,0,0,0,-1,1686,820,0,0
469,204,0,0,0,0,0,0,0,0,0,-1,1693,820,0,0
476,204,0,0,0,0,0,0,0,0,0,-1,1700,820,0,0
483,204,0,0,0,0,0,0,0,0,0,-1,1707,820,0,0
490,204,0,0,0,0,0,0,0,0,0,-1,1714,820,0,0
497,204,0,0,0,0,0,0,0,0,0,-1,1721,820,0,0
504,204,0,0,0,0,0,0,0,0,0,-1,1728,820,0,0
511,204,0,0,0,0,0,0,0,0,0,-1,1735,820,0,0
518,204,0,0,0,0,0,0,0,0,0,-1,1742,820,0,0
525,204,0,0,0,0,0,0,0,0,0,-1,1749,820,0,0
532,204,0,0,0,0,0,0,0,0,0,-1,1756,820,0,0
539,204,0,0,0,0,0,0,0,0,0,-1,1763,820,0,0
546,204,0,0,0,0,0,0,0,0,0,-1,1770,820,0,0
553,204,0,0,0,0,0,0,0,0,0,-1,1777,820,0,0
560,204,0,0,0,0,0,0,0,0,0,-1,1784,820,0,0
567,204,0,0,0,0,0,0,0,0,0,-1,1791,820,0,0
574,204,0,0,0,0,0,0,0,0,0,-1,1798,820,0,0
581,204,0,0,0,0,0,0,0,0,0,-1,1805,820,0,0
588,204,0,0,0,0,0,0,0,0,0,-1,1812,820,0,0
595,204,0,0,0,0,0,0,0,0,0,-1,1819,820,0,0
602,204,22.361,2.96619,0.00706835,-0.00203305,0.00216239,0.00755599,-0.00252068,0.221797,0.00605504,0.0371439,1826,820,22.361,-2.9662
609,204,22.3949,3.08319,0.00562905,-0.000250913,0.00270697,0.00668546,-0.00130733,0.372079,0.00495063,0.0404932,1833,820,22.3949,-3.08321
616,204,22.4462,3.00696,0.00478737,0.000549803,0.00229463,0.00579182,-0.000454641,0.41261,0.00402134,0.0387483,1840,820,22.4462,-3.00698
623,204,22.3607,3.00525,0.00422259,0.000705028,0.00138865,0.00470471,0.000222901,0.33417,0.00306488,0.0289954,1847,820,22.3607,-3.00526
630,204,22.3187,2.97974,0.00387303,0.000401623,0.000356585,0.00390928,0.000365373,0.101311,0.00249333,0.0259744,1854,820,22.3188,-2.97975
637,204,22.429,2.88043,0.00354346,-3.3843e-05,-0.000518523,0.0036171,-0.000107486,-0.141081,0.00244801,0.0313536,1861,820,22.4289,-2.88043
644,204,22.4647,2.76782,0.00320252,-0.000480746,-0.00110395,0.00350805,-0.000786278,-0.270005,0.00264011,0.0383746,1868,820,22.4648,-2.76782
651,204,22.6058,2.7312,0.00282527,-0.000909991,-0.00150493,0.00335615,-0.00144087,-0.339133,0.00284219,0.0449341,1875,820,22.6058,-2.73118
658,204,22.7975,2.68567,0,0,0,0,0,0,0,-1,1882,820,22.7975,-2.6857
665,204,17.4019,1.94568,0,0,0,0,0,0,0,-1,1889,820,17.4018,-1.94566
672,204,17.3888,1.98041,0.00189113,-0.00161848,-0.00229035,0.00302164,-0.002749,-0.458512,0.00333292,0.0397439,1896,820,17.3888,-1.98041
679,204,17.4919,2.1618,0.00171114,-0.00190424,-0.00240644,0.00291322,-0.00310632,-0.463267,0.00347598,0.0216326,1903,820,17.492,-2.16183
686,204,17.5256,2.47174,0.00142831,-0.00207274,-0.00196986,0.00231306,-0.0029575,-0.422143,0.00305053,0.011543,1910,820,17.5257,-2.47174
693,204,17.4874,2.71704,0.001901,-0.00187262,-0.00145354,0.00239596,-0.00236758,-0.328206,0.00275025,0.01624,1917,820,17.4874,-2.71704
700,204,17.507,2.95691,0.00377458,-0.00173839,-0.00119146,0.00402106,-0.00198487,-0.203994,0.00353333,0.018143,1924,820,17.507,-2.95691
707,204,17.4948,3.18726,0.00658897,-0.0019433,-0.00117191,0.00674701,-0.00210134,-0.134044,0.00533814,0.0164476,1931,820,17.4948,-3.18728
714,204,17.4982,3.43292,0.0114571,-0.00279326,-0.00237987,0.011844,-0.0031802,-0.161179,0.00914237,0.0238869,1938,820,17.4982,-3.4329
721,204,17.4941,3.62787,0.0186688,-0.00434295,-0.00375899,0.0192673,-0.00494142,-0.157885,0.0147701,0.0207135,1945,820,17.4941,-3.6279
728,204,17.4913,3.81506,0.0277486,-0.00662523,-0.00582211,0.0287079,-0.00758458,-0.16331,0.0221049,0.0127474,1952,820,17.4914,-3.81509
735,204,17.4609,4.01898,0.0388138,-0.00947099,-0.00870667,0.0403358,-0.010993,-0.17306,0.0312071,0.0146414,1959,820,17.4609,-4.019
742,204,17.5319,4.1264,0.0524666,-0.0132827,-0.0127902,0.054867,-0.0156832,-0.18552,0.0427751,0.0292473,1966,820,17.5318,-4.12642
749,204,18.0803,4.15735,0.0690145,-0.0182983,-0.0184311,0.0727457,-0.0220295,-0.199743,0.0572705,0.040568,1973,820,18.0803,-4.15736
756,204,18.7957,4.20038,0.0885492,-0.024773,-0.0260473,0.0942495,-0.0304733,-0.215447,0.0750812,0.0451312,1980,820,18.7957,-4.2004
763,204,19.8976,4.23767,0.110936,-0.0329876,-0.0360653,0.119468,-0.0415193,-0.232292,0.0965095,0.045752,1987,820,19.8976,-4.23767
770,204,20.8018,4.23462,0,0,0,0,0,0,0,-1,1994,820,20.8018,-4.23462
777,204,0,0,0,0,0,0,0,0,0,-1,2001,820,0,0
784,204,0,0,0,0,0,0,0,0,0,-1,2008,820,0,0
791,204,0,0,0,0,0,0,0,0,0,-1,2015,820,0,0
798,204,0,0,0,0,0,0,0,0,0,-1,2022,820,0,0
805,204,0,0,0,0,0,0,0,0,0,-1,2029,820,0,0
812,204,0,0,0,0,0,0,0,0,0,-1,2036,820,0,0
-700,197,0,0,0,0,0,0,0,0,0,-1,524,827,0,0
-693,197,0,0,0,0,0,0,0,0,0,-1,531,827,0,0
-686,197,0,0,0,0,0,0,0,0,0,-1,538,827,0,0
-679,197,0,0,0,0,0,0,0,0,0,-1,545,827,0,0
-672,197,0,0,0,0,0,0,0,0,0,-1,552,827,0,0
-665,197,0,0,0,0,0,0,0,0,0,-1,559,827,0,0
-658,197,-11.9308,2.12848,0,0,0,0,0,0,0,-1,566,827,-11.9308,-2.12849
-651,197,-12.1923,3.39264,0,0,0,0,0,0,0,-1,573,827,-12.1923,-3.39264
-644,197,-11.4194,3.27563,0.00421155,-0.0262752,-0.0143254,0.00988651,-0.0319502,-0.377181,0.0252493,0.0467056,580,827,-11.4194,-3.27563
-637,197,-11.3318,2.17645,0.00826335,-0.0225191,-0.00828928,0.0103536,-0.0246093,-0.247013,0.0207376,0.0494739,587,827,-11.3319,-2.17643
-630,197,-11.306,1.78693,0.0112224,-0.0184813,-0.00370715,0.0116781,-0.0189369,-0.122305,0.0178404,0.0443125,594,827,-11.306,-1.78696
-623,197,-11.2089,1.34796,0.0129333,-0.0145396,-0.00037215,0.0129384,-0.0145447,-0.0135427,0.0158764,0.0448878,601,827,-11.2089,-1.34797
-616,197,-10.9578,1.7594,0.0133882,-0.0111175,0.00189328,0.0135336,-0.0112629,0.0766527,0.0143363,0.0428149,608,827,-10.9577,-1.7594
-609,197,-11.0703,1.67462,0.0128315,-0.00809156,0.00318233,0.0133048,-0.00856487,0.14765,0.0127249,0.0309958,615,827,-11.0702,-1.67461
-602,197,-11.1425,1.65411,0.0113081,-0.00554096,0.00380773,0.0121286,-0.00636151,0.21225,0.010847,0.0160751,622,827,-11.1425,-1.65411
-595,197,-11.1453,1.49255,0.00905344,-0.00338702,0.00392651,0.0101891,-0.00452265,0.28154,0.0087013,0.0175492,629,827,-11.1453,-1.49256
-588,197,-11.1542,1.25885,0.00709566,-0.00239235,0.00420487,0.00869094,-0.00398763,0.362612,0.00748598,0.0172413,636,827,-11.1542,-1.25884
-581,197,-11.1465,1.05231,0.00454794,-0.00136102,0.00363044,0.00627416,-0.00308725,0.443846,0.00550822,0.010259,643,827,-11.1466,-1.05232
-574,197,-11.1517,0.86261,0.00123173,-0.000610593,0.00290985,0.00336274,-0.0027416,0.632105,0.00353042,0.0122506,650,827,-11.1518,-0.862631
-567,197,-11.1745,0.644531,-0.00159452,-0.000294782,0.00262007,0.00175481,-0.00364411,0.906963,0.00318005,0.0137932,657,827,-11.1745,-0.644526
-560,197,-11.1669,0.465576,-0.00421435,0.00016741,0.00242507,0.00124469,-0.00529164,1.15275,0.00400761,0.0141445,664,827,-11.1669,-0.465553
-553,197,-11.194,0.287964,-0.0065411,0.000709312,0.00236394,0.00141196,-0.00724375,1.28188,0.00536215,0.0148227,671,827,-11.194,-0.287977
-546,197,-11.1613,0.0497437,-0.00800002,0.00132578,0.00262917,0.00201593,-0.00869017,1.31409,0.00656935,0.0255377,678,827,-11.1613,-0.0497188
-539,197,-11.2534,-0.176025,0,0,0,0,0,0,0,-1,685,827,-11.2534,0.176053
-532,197,-12.957,1.23853,0,0,0,0,0,0,0,-1,692,827,-12.957,-1.23854
-525,197,-14.6938,1.46533,0,0,0,0,0,0,0,-1,699,827,-14.6938,-1.46536
-518,197,-14.8627,1.25427,-0.0120237,0.00409857,0.00304626,0.00465495,-0.0125801,1.39014,0.0102954,0.0470262,706,827,-14.8627,-1.2543
-511,197,-14.7655,1.28015,-0.0123986,0.00479199,0.00289778,0.00526732,-0.0128739,1.40821,0.0107764,0.0449016,713,827,-14.7655,-1.28017
-504,197,-14.8088,1.33435,-0.0121594,0.00515883,0.00251375,0.00551632,-0.0125169,1.42953,0.0106698,0.0390483,720,827,-14.8088,-1.33437
-497,197,-14.9384,1.2738,-0.0109022,0.00502296,0.00179491,0.00522276,-0.011102,1.45994,0.00962671,0.0396348,727,827,-14.9384,-1.27379
-490,197,-15.0909,1.19214,-0.00834135,0.003968,0.000756872,0.00401436,-0.00838771,1.50962,0.00730723,0.0381804,734,827,-15.0909,-1.19212
-483,197,-15.0892,1.1051,-0.0038079,0.00189457,-0.000395148,0.00192182,-0.00383515,-1.50194,0.00338443,0.0366307,741,827,-15.0892,-1.10512
-476,197,0,0,0,0,0,0,0,0,0,-1,748,827,0,0
-469,197,0,0,0,0,0,0,0,0,0,-1,755,827,0,0
-462,197,0,0,0,0,0,0,0,0,0,-1,762,827,0,0
-455,197,0,0,0,0,0,0,0,0,0,-1,769,827,0,0
-448,197,0,0,0,0,0,0,0,0,0,-1,776,827,0,0
-441,197,0,0,0,0,0,0,0,0,0,-1,783,827,0,0
-434,197,0,0,0,0,0,0,0,0,0,-1,790,827,0,0
-427,197,0,0,0,0,0,0,0,0,0,-1,797,827,0,0
-420,197,0,0,0,0,0,0,0,0,0,-1,804,827,0,0
-413,197,0,0,0,0,0,0,0,0,0,-1,811,827,0,0
-406,197,0,0,0,0,0,0,0,0,0,-1,818,827,0,0
-399,197,0,0,0,0,0,0,0,0,0,-1,825,827,0,0
-392,197,0,0,0,0,0,0,0,0,0,-1,832,827,0,0
-385,197,0,0,0,0,0,0,0,0,0,-1,839,827,0,0
-378,197,0,0,0,0,0,0,0,0,0,-1,846,827,0,0
-371,197,0,0,0,0,0,0,0,0,0,-1,853,827,0,0
-364,197,0,0,0,0,0,0,0,0,0,-1,860,827,0,0
-357,197,0,0,0,0,0,0,0,0,0,-1,867,827,0,0
-350,197,0,0,0,0,0,0,0,0,0,-1,874,827,0,0
-343,197,0,0,0,0,0,0,0,0,0,-1,881,827,0,0
-336,197,0,0,0,0,0,0,0,0,0,-1,888,827,0,0
-329,197,0,0,0,0,0,0,0,0,0,-1,895,827,0,0
-322,197,0,0,0,0,0,0,0,0,0,-1,902,827,0,0
-315,197,0,0,0,0,0,0,0,0,0,-1,909,827,0,0
-308,197,0,0,0,0,0,0,0,0,0,-1,916,827,0,0
-301,197,0,0,0,0,0,0,0,0,0,-1,923,827,0,0
-294,197,0,0,0,0,0,0,0,0,0,-1,930,827,0,0
-287,197,0,0,0,0,0,0,0,0,0,-1,937,827,0,0
-280,197,0,0,0,0,0,0,0,0,0,-1,944,827,0,0
-273,197,0,0,0,0,0,0,0,0,0,-1,951,827,0,0
-266,197,0,0,0,0,0,0,0,0,0,-1,958,827,0,0
-259,197,0,0,0,0,0,0,0,0,0,-1,965,827,0,0
-252,197,0,0,0,0,0,0,0,0,0,-1,972,827,0,0
-245,197,0,0,0,0,0,0,0,0,0,-1,979,827,0,0
-238,197,0,0,0,0,0,0,0,0,0,-1,986,827,0,0
-231,197,0,0,0,0,0,0,0,0,0,-1,993,827,0,0
-224,197,0,0,0,0,0,0,0,0,0,-1,1000,827,0,0
-217,197,0,0,0,0,0,0,0,0,0,-1,1007,827,0,0
-210,197,0,0,0,0,0,0,0,0,0,-1,1014,827,0,0
-203,197,0,0,0,0,0,0,0,0,0,-1,1021,827,0,0
-196,197,0,0,0,0,0,0,0,0,0,-1,1028,827,0,0
-189,197,0,0,0,0,0,0,0,0,0,-1,1035,827,0,0
-182,197,0,0,0,0,0,0,0,0,0,-1,1042,827,0,0
-175,197,0,0,0,0,0,0,0,0,0,-1,1049,827,0,0
-168,197,0,0,0,0,0,0,0,0,0,-1,1056,827,0,0
-161,197,0,0,0,0,0,0,0,0,0,-1,1063,827,0,0
-154,197,0,0,0,0,0,0,0,0,0,-1,1070,827,0,0
-147,197,0,0,0,0,0,0,0,0,0,-1,1077,827,0,0
-140,197,0,0,0,0,0,0,0,0,0,-1,1084,827,0,0
-133,197,0,0,0,0,0,0,0,0,0,-1,1091,827,0,0
-126,197,0,0,0,0,0,0,0,0,0,-1,1098,827,0,0
-119,197,0,0,0,0,0,0,0,0,0,-1,1105,827,0,0
-112,197,0,0,0,0,0,0,0,0,0,-1,1112,827,0,0
-105,197,0,0,0,0,0,0,0,0,0,-1,1119,827,0,0
-98,197,0,0,0,0,0,0,0,0,0,-1,1126,827,0,0
-91,197,0,0,0,0,0,0,0,0,0,-1,1133,827,0,0
-84,197,0,0,0,0,0,0,0,0,0,-1,1140,827,0,0
-77,197,0,0,0,0,0,0,0,0,0,-1,1147,827,0,0
-70,197,0,0,0,0,0,0,0,0,0,-1,1154,827,0,0
-63,197,0,0,0,0,0,0,0,0,0,-1,1161,827,0,0
-56,197,0,0,0,0,0,0,0,0,0,-1,1168,827,0,0
-49,197,0,0,0,0,0,0,0,0,0,-1,1175,827,0,0
-42,197,0,0,0,0,0,0,0,0,0,-1,1182,827,0,0
-35,197,0,0,0,0,0,0,0,0,0,-1,1189,827,0,0
-28,197,0,0,0,0,0,0,0,0,0,-1,1196,827,0,0
-21,197,0,0,0,0,0,0,0,0,0,-1,1203,827,0,0
-14,197,0,0,0,0,0,0,0,0,0,-1,1210,827,0,0
-7,197,0,0,0,0,0,0,0,0,0,-1,1217,827,0,0
0,197,0,0,0,0,0,0,0,0,0,-1,1224,827,0,0
7,197,0,0,0,0,0,0,0,0,0,-1,1231,827,0,0
14,197,0,0,0,0,0,0,0,0,0,-1,1238,827,0,0
21,197,0,0,0,0,0,0,0,0,0,-1,1245,827,0,0
28,197,0,0,0,0,0,0,0,0,0,-1,1252,827,0,0
35,197,0,0,0,0,0,0,0,0,0,-1,1259,827,0,0
42,197,0,0,0,0,0,0,0,0,0,-1,1266,827,0,0
49,197,0,0,0,0,0,0,0,0,0,-1,1273,827,0,0
56,197,0,0,0,0,0,0,0,0,0,-1,1280,827,0,0
63,197,0,0,0,0,0,0,0,0,0,-1,1287,827,0,0
70,197,0,0,0,0,0,0,0,0,0,-1,1294,827,0,0
77,197,0,0,0,0,0,0,0,0,0,-1,1301,827,0,0
84,197,0,0,0,0,0,0,0,0,0,-1,1308,827,0,0
91,197,0,0,0,0,0,0,0,0,0,-1,1315,827,0,0
98,197,0,0,0,0,0,0,0,0,0,-1,1322,827,0,0
105,197,0,0,0,0,0,0,0,0,0,-1,1329,827,0,0
112,197,0,0,0,0,0,0,0,0,0,-1,1336,827,0,0
119,197,0,0,0,0,0,0,0,0,0,-1,1343,827,0,0
126,197,0,0,0,0,0,0,0,0,0,-1,1350,827,0,0
133,197,0,0,0,0,0,0,0,0,0,-1,1357,827,0,0
140,197,0,0,0,0,0,0,0,0,0,-1,1364,827,0,0
147,197,0,0,0,0,0,0,0,0,0,-1,1371,827,0,0
154,197,0,0,0,0,0,0,0,0,0,-1,1378,827,0,0
161,197,0,0,0,0,0,0,0,0,0,-1,1385,827,0,0
168,197,0,0,0,0,0,0,0,0,0,-1,1392,827,0,0
175,197,0,0,0,0,0,0,0,0,0,-1,1399,827,0,0
182,197,0,0,0,0,0,0,0,0,0,-1,1406,827,0,0
189,197,0,0,0,0,0,0,0,0,0,-1,1413,827,0,0
196,197,0,0,0,0,0,0,0,0,0,-1,1420,827,0,0
203,197,0,0,0,0,0,0,0,0,0,-1,1427,827,0,0
210,197,0,0,0,0,0,0,0,0,0,-1,1434,827,0,0
217,197,0,0,0,0,0,0,0,0,0,-1,1441,827,0,0
224,197,0,0,0,0,0,0,0,0,0,-1,1448,827,0,0
231,197,0,0,0,0,0,0,0,0,0,-1,1455,827,0,0
238,197,0,0,0,0,0,0,0,0,0,-1,1462,827,0,0
245,197,0,0,0,0,0,0,0,0,0,-1,1469,827,0,0
252,197,0,0,0,0,0,0,0,0,0,-1,1476,827,0,0
259,197,0,0,0,0,0,0,0,0,0,-1,1483,827,0,0
266,197,0,0,0,0,0,0,0,0,0,-1,1490,827,0,0
273,197,0,0,0,0,0,0,0,0,0,-1,1497,827,0,0
280,197,0,0,0,0,0,0,0,0,0,-1,1504,827,0,0
287,197,0,0,0,0,0,0,0,0,0,-1,1511,827,0,0
294,197,0,0,0,0,0,0,0,0,0,-1,1518,827,0,0
301,197,0,0,0,0,0,0,0,0,0,-1,1525,827,0,0
308,197,0,0,0,0,0,0,0,0,0,-1,1532,827,0,0
315,197,0,0,0,0,0,0,0,0,0,-1,1539,827,0,0
322,197,0,0,0,0,0,0,0,0,0,-1,1546,827,0,0
329,197,0,0,0,0,0,0,0,0,0,-1,1553,827,0,0
336,197,0,0,0,0,0,0,0,0,0,-1,1560,827,0,0
343,197,0,0,0,0,0,0,0,0,0,-1,1567,827,0,0
350,197,0,0,0,0,0,0,0,0,0,-1,1574,827,0,0
357,197,0,0,0,0,0,0,0,0,0,-1,1581,827,0,0
364,197,0,0,0,0,0,0,0,0,0,-1,1588,827,0,0
371,197,0,0,0,0,0,0,0,0,0,-1,1595,827,0,0
378,197,0,0,0,0,0,0,0,0,0,-1,1602,827,0,0
385,197,0,0,0,0,0,0,0,0,0,-1,1609,827,0,0
392,197,0,0,0,0,0,0,0,0,0,-1,1616,827,0,0
399,197,0,0,0,0,0,0,0,0,0,-1,1623,827,0,0
406,197,0,0,0,0,0,0,0,0,0,-1,1630,827,0,0
413,197,0,0,0,0,0,0,0,0,0,-1,1637,827,0,0
420,197,0,0,0,0,0,0,0,0,0,-1,1644,827,0,0
427,197,0,0,0,0,0,0,0,0,0,-1,1651,827,0,0
434,197,0,0,0,0,0,0,0,0,0,-1,1658,827,0,0
441,197,0,0,0,0,0,0,0,0,0,-1,1665,827,0,0
448,197,0,0,0,0,0,0,0,0,0,-1,1672,827,0,0
455,197,0,0,0,0,0,0,0,0,0,-1,1679,827,0,0
462,197,0,0,0,0,0,0,0,0,0,-1,1686,827,0,0
469,197,0,0,0,0,0,0,0,0,0,-1,1693,827,0,0
476,197,0,0,0,0,0,0,0,0,0,-1,1700,827,0,0
483,197,0,0,0,0,0,0,0,0,0,-1,1707,827,0,0
490,197,0,0,0,0,0,0,0,0,0,-1,1714,827,0,0
497,197,0,0,0,0,0,0,0,0,0,-1,1721,827,0,0
504,197,0,0,0,0,0,0,0,0,0,-1,1728,827,0,0
511,197,0,0,0,0,0,0,0,0,0,-1,1735,827,0,0
518,197,0,0,0,0,0,0,0,0,0,-1,1742,827,0,0
525,197,0,0,0,0,0,0,0,0,0,-1,1749,827,0,0
532,197,0,0,0,0,0,0,0,0,0,-1,1756,827,0,0
539,197,0,0,0,0,0,0,0,0,0,-1,1763,827,0,0
546,197,0,0,0,0,0,0,0,0,0,-1,1770,827,0,0
553,197,0,0,0,0,0,0,0,0,0,-1,1777,827,0,0
560,197,0,0,0,0,0,0,0,0,0,-1,1784,827,0,0
567,197,0,0,0,0,0,0,0,0,0,-1,1791,827,0,0
574,197,0,0,0,0,0,0,0,0,0,-1,1798,827,0,0
581,197,0,0,0,0,0,0,0,0,0,-1,1805,827,0,0
588,197,0,0,0,0,0,0,0,0,0,-1,1812,827,0,0
595,197,0,0,0,0,0,0,0,0,0,-1,1819,827,0,0
602,197,22.2845,2.95313,0.00671052,-0.000710461,0.00283039,0.00766681,-0.00166675,0.325824,0.00574791,0.0380963,1826,827,22.2846,-2.95313
609,197,22.3851,2.89905,0.0054019,0.000287995,0.0023298,0.00630413,-0.000614242,0.369475,0.00442175,0.0382537,1833,827,22.3851,-2.89904
616,197,22.4429,2.89771,0.00485876,0.000459243,0.00133881,0.00523414,8.38605e-05,0.273366,0.00346181,0.0382378,1840,827,22.4428,-2.89773
623,197,22.3479,2.86005,0.00448872,0.000206561,0.000202863,0.0044983,0.000196972,0.0472331,0.00293542,0.0347718,1847,827,22.3479,-2.86006
630,197,22.2917,2.90643,0.00426617,-0.000279128,-0.000802294,0.00440363,-0.000416585,-0.169682,0.00308401,0.0289393,1854,827,22.2918,-2.90646
637,197,22.3032,2.94556,0.00399769,-0.000789638,-0.00150414,0.00443105,-0.001223,-0.280515,0.00343506,0.0273112,1861,827,22.3033,-2.94554
644,197,22.3622,2.87415,0.00369316,-0.00120596,-0.00185155,0.00431419,-0.001827,-0.323623,0.00364126,0.0331058,1868,827,22.3622,-2.87412
651,197,22.5527,2.84009,0.00331629,-0.00154164,-0.00202488,0.0040496,-0.00227495,-0.347459,0.00369909,0.0433594,1875,827,22.5528,-2.84007
658,197,22.7777,2.82733,0,0,0,0,0,0,0,-1,1882,827,22.7777,-2.82732
665,197,14.0618,1.80304,0,0,0,0,0,0,0,-1,1889,827,14.0617,-1.80303
672,197,17.6593,1.89642,0,0,0,0,0,0,0,-1,1896,827,17.6593,-1.89642
679,197,17.7987,2.25391,0.00190111,-0.00197269,-0.00212255,0.00283767,-0.00290925,-0.415549,0.00331807,0.0269181,1903,827,17.7987,-2.25392
686,197,17.7418,2.48804,0.00159747,-0.0020798,-0.0017207,0.00227704,-0.00275937,-0.376138,0.00291222,0.0154481,1910,827,17.7418,-2.48805
693,197,17.7208,2.73083,0.00186693,-0.00184247,-0.00130385,0.00227937,-0.00225492,-0.306368,0.00261789,0.0157668,1917,827,17.7208,-2.73084
700,197,17.7324,2.992,0.00322793,-0.00159476,-0.00111654,0.00347389,-0.00184071,-0.216821,0.0031163,0.0224004,1924,827,17.7324,-2.99197
707,197,17.7766,3.17828,0.00543248,-0.00164836,-0.00108699,0.00559558,-0.00181146,-0.148943,0.00445861,0.00987458,1931,827,17.7766,-3.17831
714,197,17.7445,3.38226,0.00955066,-0.00224199,-0.00216884,0.00993689,-0.00262822,-0.176235,0.00765262,0.0119795,1938,827,17.7445,-3.38228
721,197,17.7301,3.57904,0.0160091,-0.00350402,-0.00345126,0.0166015,-0.00409645,-0.17,0.0126561,0.0119033,1945,827,17.7302,-3.57901
728,197,17.7063,3.8111,0.0242529,-0.00547284,-0.005332,0.0251804,-0.00640032,-0.172222,0.0192778,0.00982789,1952,827,17.7062,-3.81107
735,197,17.6978,4.02289,0.0343,-0.00791692,-0.00789211,0.0357272,-0.00934405,-0.178896,0.0274678,0.010668,1959,827,17.6978,-4.02292
742,197,17.7052,4.21222,0.0466835,-0.0112002,-0.011444,0.0488639,-0.0133806,-0.188273,0.0378333,0.0182846,1966,827,17.7052,-4.21222
749,197,18.3677,4.37012,0.0618655,-0.0155718,-0.0162869,0.0651515,-0.0188579,-0.199089,0.0508984,0.0375832,1973,827,18.3677,-4.37009
756,197,19.3412,4.3988,0.0800913,-0.0213084,-0.0227698,0.0849697,-0.0261868,-0.211057,0.0671009,0.0443365,1980,827,19.3412,-4.39879
763,197,20.2427,4.49951,0.101406,-0.0287172,-0.0312576,0.108526,-0.0358362,-0.223934,0.0867978,0.046236,1987,827,20.2427,-4.4995
770,197,21.1742,4.49542,0.125493,-0.0381075,-0.0420314,0.135659,-0.0482742,-0.237326,0.110117,0.0460204,1994,827,21.1742,-4.49541
777,197,0,0,0,0,0,0,0,0,0,-1,2001,827,0,0
784,197,0,0,0,0,0,0,0,0,0,-1,2008,827,0,0
791,197,0,0,0,0,0,0,0,0,0,-1,2015,827,0,0
798,197,0,0,0,0,0,0,0,0,0,-1,2022,827,0,0
805,197,0,0,0,0,0,0,0,0,0,-1,2029,827,0,0
812,197,0,0,0,0,0,0,0,0,0,-1,2036,827,0,0
-700,190,0,0,0,0,0,0,0,0,0,-1,524,834,0,0
-693,190,0,0,0,0,0,0,0,0,0,-1,531,834,0,0
-686,190,0,0,0,0,0,0,0,0,0,-1,538,834,0,0
-679,190,0,0,0,0,0,0,0,0,0,-1,545,834,0,0
-672,190,0,0,0,0,0,0,0,0,0,-1,552,834,0,0
-665,190,0,0,0,0,0,0,0,0,0,-1,559,834,0,0
-658,190,-11.0315,2.69745,-0.0061275,-0.00397367,-0.0266932,0.0216643,-0.0317655,-0.805559,0.0310309,0.0493961,566,834,-11.0315,-2.69746
-651,190,-10.7728,3.14563,0,0,0,0,0,0,0,-1,573,834,-10.7728,-3.14562
-644,190,-10.6306,3.69867,-0.0059245,-0.00976459,-0.0122159,0.00452132,-0.0202104,-0.707448,0.0152064,0.0460628,580,834,-10.6306,-3.69865
-637,190,-11.123,2.59729,-0.00331129,-0.010102,-0.00739867,0.00143391,-0.0148472,-0.570276,0.0104091,0.0488941,587,834,-11.123,-2.59732
-630,190,-11.2325,1.81525,-0.000609985,-0.00938986,-0.00376005,0.000780175,-0.01078,-0.354132,0.00746035,0.0471789,594,834,-11.2325,-1.81524
-623,190,-11.0754,1.31104,0,0,0,0,0,0,0,-1,601,834,-11.0754,-1.31102
-616,190,-11.4012,2.2807,0.00314015,-0.0067654,0.000828411,0.00320895,-0.0068342,0.082864,0.005923,0.0422171,608,834,-11.4013,-2.28073
-609,190,-11.3295,1.81476,0.0039345,-0.00527789,0.00199761,0.004349,-0.0056924,0.204599,0.00581467,0.0227516,615,834,-11.3295,-1.81477
-602,190,-11.3578,1.64258,0.0037553,-0.00384802,0.00272479,0.00463094,-0.00472366,0.310935,0.00540097,0.0147894,622,834,-11.3578,-1.6426
-595,190,-11.3608,1.47614,0.00280609,-0.00252987,0.00297258,0.0041324,-0.00385618,0.419674,0.00461312,0.0179584,629,834,-11.3609,-1.47614
-588,190,-11.3653,1.25464,0.00205541,-0.00217891,0.00342561,0.0039653,-0.00408881,0.508609,0.00465022,0.0156158,636,834,-11.3653,-1.25466
-581,190,-11.347,1.06067,0.000518929,-0.0014533,0.00320071,0.00288199,-0.00381636,0.635966,0.00387982,0.0111669,643,834,-11.347,-1.0607
-574,190,-11.3489,0.857056,-0.00203128,-0.000819882,0.00281511,0.00145396,-0.00430512,0.891362,0.00345816,0.0104488,650,834,-11.3489,-0.857061
-567,190,-11.3596,0.631165,-0.00428473,-0.00056649,0.002757,0.000899653,-0.00575087,1.08204,0.00416631,0.011917,657,834,-11.3596,-0.631189
-560,190,-11.4014,0.462402,-0.00626194,-7.79337e-05,0.00275063,0.000968472,-0.00730835,1.20728,0.00522506,0.0204807,664,834,-11.4014,-0.462412
-553,190,-11.4277,0.286255,-0.00802008,0.000497743,0.00272317,0.00129393,-0.00881626,1.28635,0.00635289,0.0190168,671,834,-11.4277,-0.286251
-546,190,-11.4054,0.0773315,-0.00924238,0.00120419,0.00295153,0.00198042,-0.0100186,1.31363,0.00742775,0.0368252,678,834,-11.4054,-0.0773127
-539,190,-11.5626,-0.123535,0,0,0,0,0,0,0,-1,685,834,-11.5626,0.12356
-532,190,-14.4511,1.79816,0,0,0,0,0,0,0,-1,692,834,-14.4511,-1.79816
-525,190,-14.7703,1.30103,-0.011612,0.00351846,0.00331287,0.00421203,-0.0123055,1.36442,0.00991068,0.0460389,699,834,-14.7703,-1.30104
-518,190,-15.1271,0.776367,-0.011902,0.00432211,0.00328192,0.00496085,-0.0125407,1.37857,0.0104156,0.0478166,706,834,-15.1271,-0.776355
-511,190,-14.8215,1.25348,-0.0117002,0.00506708,0.00317151,0.00564692,-0.0122801,1.38997,0.0105837,0.0432919,713,834,-14.8215,-1.25346
-504,190,-14.9595,1.49939,-0.0107419,0.00541564,0.00286734,0.00590939,-0.0112356,1.40027,0.0100566,0.0411544,720,834,-14.9595,-1.4994
-497,190,-15.1803,1.69818,-0.00873203,0.00505601,0.00233429,0.00544048,-0.0091165,1.40756,0.00849333,0.0430193,727,834,-15.1803,-1.69816
-490,190,-14.9009,2.04633,0,0,0,0,0,0,0,-1,734,834,-14.9009,-2.0463
-483,190,0,0,0,0,0,0,0,0,0,-1,741,834,0,0
-476,190,0,0,0,0,0,0,0,0,0,-1,748,834,0,0
-469,190,0,0,0,0,0,0,0,0,0,-1,755,834,0,0
-462,190,0,0,0,0,0,0,0,0,0,-1,762,834,0,0
-455,190,0,0,0,0,0,0,0,0,0,-1,769,834,0,0
-448,190,0,0,0,0,0,0,0,0,0,-1,776,834,0,0
-441,190,0,0,0,0,0,0,0,0,0,-1,783,834,0,0
-434,190,0,0,0,0,0,0,0,0,0,-1,790,834,0,0
-427,190,0,0,0,0,0,0,0,0,0,-1,797,834,0,0
-420,190,0,0,0,0,0,0,0,0,0,-1,804,834,0,0
-413,190,0,0,0,0,0,0,0,0,0,-1,811,834,0,0
-406,190,0,0,0,0,0,0,0,0,0,-1,818,834,0,0
-399,190,0,0,0,0,0,0,0,0,0,-1,825,834,0,0
-392,190,0,0,0,0,0,0,0,0,0,-1,832,834,0,0
-385,190,0,0,0,0,0,0,0,0,0,-1,839,834,0,0
-378,190,0,0,0,0,0,0,0,0,0,-1,846,834,0,0
-371,190,0,0,0,0,0,0,0,0,0,-1,853,834,0,0
-364,190,0,0,0,0,0,0,0,0,0,-1,860,834,0,0
-357,190,0,0,0,0,0,0,0,0,0,-1,867,834,0,0
-350,190,0,0,0,0,0,0,0,0,0,-1,874,834,0,0
-343,190,0,0,0,0,0,0,0,0,0,-1,881,834,0,0
-336,190,0,0,0,0,0,0,0,0,0,-1,888,834,0,0
-329,190,0,0,0,0,0,0,0,0,0,-1,895,834,0,0
-322,190,0,0,0,0,0,0,0,0,0,-1,902,834,0,0
-315,190,0,0,0,0,0,0,0,0,0,-1,909,834,0,0
-308,190,0,0,0,0,0,0,0,0,0,-1,916,834,0,0
-301,190,0,0,0,0,0,0,0,0,0,-1,923,834,0,0
-294,190,0,0,0,0,0,0,0,0,0,-1,930,834,0,0
-287,190,0,0,0,0,0,0,0,0,0,-1,937,834,0,0
-280,190,0,0,0,0,0,0,0,0,0,-1,944,834,0,0
-273,190,0,0,0,0,0,0,0,0,0,-1,951,834,0,0
-266,190,0,0,0,0,0,0,0,0,0,-1,958,834,0,0
-259,190,0,0,0,0,0,0,0,0,0,-1,965,834,0,0
-252,190,0,0,0,0,0,0,0,0,0,-1,972,834,0,0
-245,190,0,0,0,0,0,0,0,0,0,-1,979,834,0,0
-238,190,0,0,0,0,0,0,0,0,0,-1,986,834,0,0
-231,190,0,0,0,0,0,0,0,0,0,-1,993,834,0,0
-224,190,0,0,0,0,0,0,0,0,0,-1,1000,834,0,0
-217,190,0,0,0,0,0,0,0,0,0,-1,1007,834,0,0
-210,190,0,0,0,0,0,0,0,0,0,-1,1014,834,0,0
-203,190,0,0,0,0,0,0,0,0,0,-1,1021,834,0,0
-196,190,0,0,0,0,0,0,0,0,0,-1,1028,834,0,0
-189,190,0,0,0,0,0,0,0,0,0,-1,1035,834,0,0
-182,190,0,0,0,0,0,0,0,0,0,-1,1042,834,0,0
-175,190,0,0,0,0,0,0,0,0,0,-1,1049,834,0,0
-168,190,0,0,0,0,0,0,0,0,0,-1,1056,834,0,0
-161,190,0,0,0,0,0,0,0,0,0,-1,1063,834,0,0
-154,190,0,0,0,0,0,0,0,0,0,-1,1070,834,0,0
-147,190,0,0,0,0,0,0,0,0,0,-1,1077,834,0,0
-140,190,0,0,0,0,0,0,0,0,0,-1,1084,834,0,0
-133,190,0,0,0,0,0,0,0,0,0,-1,1091,834,0,0
-126,190,0,0,0,0,0,0,0,0,0,-1,1098,834,0,0
-119,190,0,0,0,0,0,0,0,0,0,-1,1105,834,0,0
-112,190,0,0,0,0,0,0,0,0,0,-1,1112,834,0,0
-105,190,0,0,0,0,0,0,0,0,0,-1,1119,834,0,0
-98,190,0,0,0,0,0,0,0,0,0,-1,1126,834,0,0
-91,190,0,0,0,0,0,0,0,0,0,-1,1133,834,0,0
-84,190,0,0,0,0,0,0,0,0,0,-1,1140,834,0,0
-77,190,0,0,0,0,0,0,0,0,0,-1,1147,834,0,0
-70,190,0,0,0,0,0,0,0,0,0,-1,1154,834,0,0
-63,190,0,0,0,0,0,0,0,0,0,-1,1161,834,0,0
-56,190,0,0,0,0,0,0,0,0,0,-1,1168,834,0,0
-49,190,0,0,0,0,0,0,0,0,0,-1,1175,834,0,0
-42,190,0,0,0,0,0,0,0,0,0,-1,1182,834,0,0
-35,190,0,0,0,0,0,0,0,0,0,-1,1189,834,0,0
-28,190,0,0,0,0,0,0,0,0,0,-1,1196,834,0,0
-21,190,0,0,0,0,0,0,0,0,0,-1,1203,834,0,0
-14,190,0,0,0,0,0,0,0,0,0,-1,1210,834,0,0
-7,190,0,0,0,0,0,0,0,0,0,-1,1217,834,0,0
0,190,0,0,0,0,0,0,0,0,0,-1,1224,834,0,0
7,190,0,0,0,0,0,0,0,0,0,-1,1231,834,0,0
14,190,0,0,0,0,0,0,0,0,0,-1,1238,834,0,0
21,190,0,0,0,0,0,0,0,0,0,-1,1245,834,0,0
28,190,0,0,0,0,0,0,0,0,0,-1,1252,834,0,0
35,190,0,0,0,0,0,0,0,0,0,-1,1259,834,0,0
42,190,0,0,0,0,0,0,0,0,0,-1,1266,834,0,0
49,190,0,0,0,0,0,0,0,0,0,-1,1273,834,0,0
56,190,0,0,0,0,0,0,0,0,0,-1,1280,834,0,0
63,190,0,0,0,0,0,0,0,0,0,-1,1287,834,0,0
70,190,0,0,0,0,0,0,0,0,0,-1,1294,834,0,0
77,190,0,0,0,0,0,0,0,0,0,-1,1301,834,0,0
84,190,0,0,0,0,0,0,0,0,0,-1,1308,834,0,0
91,190,0,0,0,0,0,0,0,0,0,-1,1315,834,0,0
98,190,0,0,0,0,0,0,0,0,0,-1,1322,834,0,0
105,190,0,0,0,0,0,0,0,0,0,-1,1329,834,0,0
112,190,0,0,0,0,0,0,0,0,0,-1,1336,834,0,0
119,190,0,0,0,0,0,0,0,0,0,-1,1343,834,0,0
126,190,0,0,0,0,0,0,0,0,0,-1,1350,834,0,0
133,190,0,0,0,0,0,0,0,0,0,-1,1357,834,0,0
140,190,0,0,0,0,0,0,0,0,0,-1,1364,834,0,0
147,190,0,0,0,0,0,0,0,0,0,-1,1371,834,0,0
154,190,0,0,0,0,0,0,0,0,0,-1,1378,834,0,0
161,190,0,0,0,0,0,0,0,0,0,-1,1385,834,0,0
168,190,0,0,0,0,0,0,0,0,0,-1,1392,834,0,0
175,190,0,0,0,0,0,0,0,0,0,-1,1399,834,0,0
182,190,0,0,0,0,0,0,0,0,0,-1,1406,834,0,0
189,190,0,0,0,0,0,0,0,0,0,-1,1413,834,0,0
196,190,0,0,0,0,0,0,0,0,0,-1,1420,834,0,0
203,190,0,0,0,0,0,0,0,0,0,-1,1427,834,0,0
210,190,0,0,0,0,0,0,0,0,0,-1,1434,834,0,0
217,190,0,0,0,0,0,0,0,0,0,-1,1441,834,0,0
224,190,0,0,0,0,0,0,0,0,0,-1,1448,834,0,0
231,190,0,0,0,0,0,0,0,0,0,-1,1455,834,0,0
238,190,0,0,0,0,0,0,0,0,0,-1,1462,834,0,0
245,190,0,0,0,0,0,0,0,0,0,-1,1469,834,0,0
252,190,0,0,0,0,0,0,0,0,0,-1,1476,834,0,0
259,190,0,0,0,0,0,0,0,0,0,-1,1483,834,0,0
266,190,0,0,0,0,0,0,0,0,0,-1,1490,834,0,0
273,190,0,0,0,0,0,0,0,0,0,-1,1497,834,0,0
280,190,0,0,0,0,0,0,0,0,0,-1,1504,834,0,0
287,190,0,0,0,0,0,0,0,0,0,-1,1511,834,0,0
294,190,0,0,0,0,0,0,0,0,0,-1,1518,834,0,0
301,190,0,0,0,0,0,0,0,0,0,-1,1525,834,0,0
308,190,0,0,0,0,0,0,0,0,0,-1,1532,834,0,0
315,190,0,0,0,0,0,0,0,0,0,-1,1539,834,0,0
322,190,0,0,0,0,0,0,0,0,0,-1,1546,834,0,0
329,190,0,0,0,0,0,0,0,0,0,-1,1553,834,0,0
336,190,0,0,0,0,0,0,0,0,0,-1,1560,834,0,0
343,190,0,0,0,0,0,0,0,0,0,-1,1567,834,0,0
350,190,0,0,0,0,0,0,0,0,0,-1,1574,834,0,0
357,190,0,0,0,0,0,0,0,0,0,-1,1581,834,0,0
364,190,0,0,0,0,0,0,0,0,0,-1,1588,834,0,0
371,190,0,0,0,0,0,0,0,0,0,-1,1595,834,0,0
378,190,0,0,0,0,0,0,0,0,0,-1,1602,834,0,0
385,190,0,0,0,0,0,0,0,0,0,-1,1609,834,0,0
392,190,0,0,0,0,0,0,0,0,0,-1,1616,834,0,0
399,190,0,0,0,0,0,0,0,0,0,-1,1623,834,0,0
406,190,0,0,0,0,0,0,0,0,0,-1,1630,834,0,0
413,190,0,0,0,0,0,0,0,0,0,-1,1637,834,0,0
420,190,0,0,0,0,0,0,0,0,0,-1,1644,834,0,0
427,190,0,0,0,0,0,0,0,0,0,-1,1651,834,0,0
434,190,0,0,0,0,0,0,0,0,0,-1,1658,834,0,0
441,190,0,0,0,0,0,0,0,0,0,-1,1665,834,0,0
448,190,0,0,0,0,0,0,0,0,0,-1,1672,834,0,0
455,190,0,0,0,0,0,0,0,0,0,-1,1679,834,0,0
462,190,0,0,0,0,0,0,0,0,0,-1,1686,834,0,0
469,190,0,0,0,0,0,0,0,0,0,-1,1693,834,0,0
476,190,0,0,0,0,0,0,0,0,0,-1,1700,834,0,0
483,190,0,0,0,0,0,0,0,0,0,-1,1707,834,0,0
490,190,0,0,0,0,0,0,0,0,0,-1,1714,834,0,0
497,190,0,0,0,0,0,0,0,0,0,-1,1721,834,0,0
504,190,0,0,0,0,0,0,0,0,0,-1,1728,834,0,0
511,190,0,0,0,0,0,0,0,0,0,-1,1735,834,0,0
518,190,0,0,0,0,0,0,0,0,0,-1,1742,834,0,0
525,190,0,0,0,0,0,0,0,0,0,-1,1749,834,0,0
532,190,0,0,0,0,0,0,0,0,0,-1,1756,834,0,0
539,190,0,0,0,0,0,0,0,0,0,-1,1763,834,0,0
546,190,0,0,0,0,0,0,0,0,0,-1,1770,834,0,0
553,190,0,0,0,0,0,0,0,0,0,-1,1777,834,0,0
560,190,0,0,0,0,0,0,0,0,0,-1,1784,834,0,0
567,190,0,0,0,0,0,0,0,0,0,-1,1791,834,0,0
574,190,0,0,0,0,0,0,0,0,0,-1,1798,834,0,0
581,190,0,0,0,0,0,0,0,0,0,-1,1805,834,0,0
588,190,0,0,0,0,0,0,0,0,0,-1,1812,834,0,0
595,190,0,0,0,0,0,0,0,0,0,-1,1819,834,0,0
602,190,22.38,2.66516,0.00658846,0.00113466,0.00373616,0.00848702,-0.0007639,0.470153,0.00592908,0.0417207,1826,834,22.38,-2.66519
609,190,22.3055,2.84924,0.00523574,0.00132794,0.00260037,0.00653448,2.92021e-05,0.463202,0.00434662,0.0395642,1833,834,22.3055,-2.84925
616,190,22.4707,2.86914,0.0048543,0.000867266,0.00127307,0.00522611,0.000495448,0.284161,0.00333123,0.0377717,1840,834,22.4707,-2.86913
623,190,22.4124,3.02551,0.00459847,0.000163249,-3.27458e-05,0.00459871,0.000163007,-0.00738258,0.00301294,0.0372017,1847,834,22.4124,-3.02549
630,190,22.3346,3.0191,0.00445982,-0.000552188,-0.00106789,0.00467787,-0.000770235,-0.201415,0.00340449,0.0408314,1854,834,22.3346,-3.01913
637,190,22.3101,2.87897,0.00421932,-0.00117463,-0.00171133,0.00471645,-0.00167176,-0.282714,0.00382532,0.034515,1861,834,22.3101,-2.879
644,190,22.319,2.93207,0.00392744,-0.00160116,-0.00196144,0.00455262,-0.00222635,-0.308557,0.00398991,0.0290008,1868,834,22.3189,-2.93205
651,190,22.4545,2.88788,0.00355453,-0.00187508,-0.00202795,0.00422835,-0.0025489,-0.320789,0.00395269,0.042156,1875,834,22.4545,-2.8879
658,190,22.8926,2.60992,0.00316863,-0.00214067,-0.00204179,0.00386302,-0.00283506,-0.327819,0.00388229,0.049754,1882,834,22.8926,-2.60994
665,190,23.2333,2.38293,0,0,0,0,0,0,0,-1,1889,834,23.2333,-2.38296
672,190,18.2252,2.22064,0,0,0,0,0,0,0,-1,1896,834,18.2252,-2.22066
679,190,18.0446,2.42957,0.00186091,-0.00193709,-0.00176326,0.0025533,-0.00262948,-0.374175,0.00299238,0.0325231,1903,834,18.0446,-2.42957
686,190,17.9238,2.54364,0.0015492,-0.00199121,-0.00139768,0.00203446,-0.00247647,-0.33417,0.00260855,0.0136514,1910,834,17.9239,-2.54366
693,190,17.9365,2.72821,0.00164471,-0.00171793,-0.00107039,0.00195652,-0.00202974,-0.283461,0.0023016,0.0123561,1917,834,17.9365,-2.72823
700,190,17.9435,2.94366,0.00254882,-0.00138946,-0.000939437,0.00276144,-0.00160207,-0.222572,0.00254874,0.0112185,1924,834,17.9434,-2.94364
707,190,17.9794,3.15277,0.00416645,-0.00131889,-0.000890015,0.00430724,-0.00145968,-0.156893,0.00346219,0.0125107,1931,834,17.9793,-3.1528
714,190,17.9875,3.36499,0.00747247,-0.00165808,-0.00182829,0.00782496,-0.00201056,-0.190459,0.00600018,0.0117089,1938,834,17.9876,-3.36497
721,190,17.9418,3.59204,0.0130069,-0.00260068,-0.00298011,0.0135566,-0.00315034,-0.182394,0.0102505,0.0109328,1945,834,17.9417,-3.59205
728,190,17.9176,3.80182,0.020258,-0.00419473,-0.00466067,0.0211162,-0.00505293,-0.182097,0.0160295,0.0119928,1952,834,17.9176,-3.80181
735,190,17.9323,4.00403,0.0291805,-0.00617819,-0.00690594,0.0304815,-0.00747914,-0.186198,0.0232191,0.0114884,1959,834,17.9323,-4.00403
742,190,17.9519,4.2168,0.0402334,-0.00886856,-0.00996258,0.0421777,-0.0108129,-0.192745,0.0323312,0.0148798,1966,834,17.9519,-4.21678
749,190,18.1531,4.48602,0.0539163,-0.0125091,-0.0140569,0.0567685,-0.0153613,-0.200188,0.0438719,0.0374304,1973,834,18.1531,-4.48604
756,190,19.6809,4.39697,0.070664,-0.0173987,-0.0194858,0.074783,-0.0215177,-0.208318,0.0583654,0.0468986,1980,834,19.6809,-4.39694
763,190,20.6508,4.70148,0.09066,-0.0238485,-0.0265436,0.0965137,-0.0297022,-0.217056,0.0761979,0.0484386,1987,834,20.6507,-4.70145
770,190,21.5397,4.86084,0.113832,-0.0322402,-0.0354438,0.121978,-0.0403862,-0.225906,0.0976066,0.0449221,1994,834,21.5397,-4.86084
777,190,22.6034,4.91205,0.139808,-0.0431883,-0.0463913,0.150896,-0.054277,-0.234624,0.122757,0.0430156,2001,834,22.6034,-4.91203
784,190,0,0,0,0,0,0,0,0,0,-1,2008,834,0,0
791,190,0,0,0,0,0,0,0,0,0,-1,2015,834,0,0
798,190,0,0,0,0,0,0,0,0,0,-1,2022,834,0,0
805,190,0,0,0,0,0,0,0,0,0,-1,2029,834,0,0
812,190,0,0,0,0,0,0,0,0,0,-1,2036,834,0,0
-700,183,0,0,0,0,0,0,0,0,0,-1,524,841,0,0
-693,183,0,0,0,0,0,0,0,0,0,-1,531,841,0,0
-686,183,0,0,0,0,0,0,0,0,0,-1,538,841,0,0
-679,183,0,0,0,0,0,0,0,0,0,-1,545,841,0,0
-672,183,0,0,0,0,0,0,0,0,0,-1,552,841,0,0
-665,183,0,0,0,0,0,0,0,0,0,-1,559,841,0,0
-658,183,-10.4244,3.32916,0,0,0,0,0,0,0,-1,566,841,-10.4244,-3.32914
-651,183,-10.0355,1.84314,0,0,0,0,0,0,0,-1,573,841,-10.0355,-1.84317
-644,183,-10.5649,1.99579,-0.0127945,0.00566947,-0.0104821,0.0104055,-0.0175305,-1.14643,0.0163027,0.0485393,580,841,-10.5649,-1.99576
-637,183,-11.1304,2.08868,-0.0110428,0.0018237,-0.00635613,0.00443406,-0.0136532,-1.18111,0.0108855,0.046289,587,841,-11.1304,-2.08871
-630,183,-11.8345,2.51385,-0.00852329,-0.000544649,-0.00337994,0.000694669,-0.00976261,-1.21935,0.00675188,0.0396588,594,841,-11.8345,-2.51385
-623,183,-11.7133,2.08948,-0.00589793,-0.00175489,-0.00126109,-0.00140122,-0.0062516,-1.29737,0.00378805,0.0472902,601,841,-11.7133,-2.08947
-616,183,-11.5944,1.9635,-0.00377938,-0.00261676,0.000344803,-0.00252219,-0.00387395,1.30311,0.0022704,0.0402767,608,841,-11.5944,-1.96351
-609,183,-11.5462,1.83258,-0.00209982,-0.0027008,0.00134095,-0.0010261,-0.00377452,0.675175,0.00225358,0.0174682,615,841,-11.5462,-1.83257
-602,183,-11.5588,1.63727,-0.00140128,-0.00241559,0.00199093,0.000146073,-0.00396294,0.660684,0.00269197,0.0114807,622,841,-11.5588,-1.63727
-595,183,-11.5652,1.44196,-0.00146631,-0.00193868,0.00227934,0.00058905,-0.00399403,0.733773,0.00287919,0.0105564,629,841,-11.5652,-1.44197
-588,183,-11.5533,1.26105,-0.00142514,-0.00213409,0.00279021,0.00103302,-0.00459225,0.722216,0.00345767,0.010901,636,841,-11.5533,-1.26106
-581,183,-11.5648,1.07184,-0.00235751,-0.00167243,0.00282001,0.000825763,-0.00485571,0.845836,0.0035446,0.0119959,643,841,-11.5648,-1.07183
-574,183,-11.554,0.887329,-0.00442045,-0.00112664,0.00270206,0.000390857,-0.00593795,1.05909,0.00409514,0.0112608,650,841,-11.554,-0.887305
-567,183,-11.5109,0.676208,-0.00626449,-0.000900385,0.00281686,0.000307048,-0.00747193,1.16584,0.00508672,0.0177197,657,841,-11.5109,-0.676184
-560,183,-11.6343,0.523254,-0.0077822,-0.000370057,0.0029113,0.000636687,-0.00878894,1.23786,0.00608264,0.0222042,664,841,-11.6343,-0.523234
-553,183,-11.5724,0.257202,-0.00909525,0.000270291,0.00298751,0.00114212,-0.00996708,1.28686,0.0070563,0.0189812,671,841,-11.5724,-0.257209
-546,183,-11.4623,0.110168,-0.0100438,0.00103937,0.00320079,0.00189733,-0.0109018,1.30891,0.00797589,0.0448119,678,841,-11.4623,-0.110184
-539,183,-13.6798,1.32489,0,0,0,0,0,0,0,-1,685,841,-13.6798,-1.32491
-532,183,-14.2183,1.25348,-0.0113349,0.00260208,0.0034016,0.00338799,-0.0121208,1.34374,0.00941528,0.0490975,692,841,-14.2183,-1.25349
-525,183,-14.8467,1.16913,-0.0113579,0.00352856,0.00346881,0.00429717,-0.0121265,1.35274,0.00983478,0.0455531,699,841,-14.8467,-1.16916
-518,183,-14.9445,0.998962,-0.011087,0.00439543,0.00343487,0.00512327,-0.0118148,1.36199,0.0100303,0.0425136,706,841,-14.9445,-0.998948
-511,183,-14.83,1.14801,-0.0101743,0.00510734,0.00333293,0.00580262,-0.0108696,1.36514,0.00977278,0.0387114,713,841,-14.83,-1.14799
-504,183,-14.9534,1.42603,-0.00839804,0.00529795,0.00305065,0.00594672,-0.00904682,1.36125,0.00871798,0.0406953,720,841,-14.9533,-1.426
-497,183,-15.1187,1.66602,-0.00568488,0.00444663,0.0026586,0.00510189,-0.00634014,1.32914,0.00661894,0.0444151,727,841,-15.1187,-1.66599
-490,183,-14.8264,1.49139,0,0,0,0,0,0,0,-1,734,841,-14.8264,-1.49138
-483,183,0,0,0,0,0,0,0,0,0,-1,741,841,0,0
-476,183,0,0,0,0,0,0,0,0,0,-1,748,841,0,0
-469,183,0,0,0,0,0,0,0,0,0,-1,755,841,0,0
-462,183,0,0,0,0,0,0,0,0,0,-1,762,841,0,0
-455,183,0,0,0,0,0,0,0,0,0,-1,769,841,0,0
-448,183,0,0,0,0,0,0,0,0,0,-1,776,841,0,0
-441,183,0,0,0,0,0,0,0,0,0,-1,783,841,0,0
-434,183,0,0,0,0,0,0,0,0,0,-1,790,841,0,0
-427,183,0,0,0,0,0,0,0,0,0,-1,797,841,0,0
-420,183,0,0,0,0,0,0,0,0,0,-1,804,841,0,0
-413,183,0,0,0,0,0,0,0,0,0,-1,811,841,0,0
-406,183,0,0,0,0,0,0,0,0,0,-1,818,841,0,0
-399,183,0,0,0,0,0,0,0,0,0,-1,825,841,0,0
-392,183,0,0,0,0,0,0,0,0,0,-1,832,841,0,0
-385,183,0,0,0,0,0,0,0,0,0,-1,839,841,0,0
-378,183,0,0,0,0,0,0,0,0,0,-1,846,841,0,0
-371,183,0,0,0,0,0,0,0,0,0,-1,853,841,0,0
-364,183,0,0,0,0,0,0,0,0,0,-1,860,841,0,0
-357,183,0,0,0,0,0,0,0,0,0,-1,867,841,0,0
-350,183,0,0,0,0,0,0,0,0,0,-1,874,841,0,0
-343,183,0,0,0,0,0,0,0,0,0,-1,881,841,0,0
-336,183,0,0,0,0,0,0,0,0,0,-1,888,841,0,0
-329,183,0,0,0,0,0,0,0,0,0,-1,895,841,0,0
-322,183,0,0,0,0,0,0,0,0,0,-1,902,841,0,0
-315,183,0,0,0,0,0,0,0,0,0,-1,909,841,0,0
-308,183,0,0,0,0,0,0,0,0,0,-1,916,841,0,0
-301,183,0,0,0,0,0,0,0,0,0,-1,923,841,0,0
-294,183,0,0,0,0,0,0,0,0,0,-1,930,841,0,0
-287,183,0,0,0,0,0,0,0,0,0,-1,937,841,0,0
-280,183,0,0,0,0,0,0,0,0,0,-1,944,841,0,0
-273,183,0,0,0,0,0,0,0,0,0,-1,951,841,0,0
-266,183,0,0,0,0,0,0,0,0,0,-1,958,841,0,0
-259,183,0,0,0,0,0,0,0,0,0,-1,965,841,0,0
-252,183,0,0,0,0,0,0,0,0,0,-1,972,841,0,0
-245,183,0,0,0,0,0,0,0,0,0,-1,979,841,0,0
-238,183,0,0,0,0,0,0,0,0,0,-1,986,841,0,0
-231,183,0,0,0,0,0,0,0,0,0,-1,993,841,0,0
-224,183,0,0,0,0,0,0,0,0,0,-1,1000,841,0,0
-217,183,0,0,0,0,0,0,0,0,0,-1,1007,841,0,0
-210,183,0,0,0,0,0,0,0,0,0,-1,1014,841,0,0
-203,183,0,0,0,0,0,0,0,0,0,-1,1021,841,0,0
-196,183,0,0,0,0,0,0,0,0,0,-1,1028,841,0,0
-189,183,0,0,0,0,0,0,0,0,0,-1,1035,841,0,0
-182,183,0,0,0,0,0,0,0,0,0,-1,1042,841,0,0
-175,183,0,0,0,0,0,0,0,0,0,-1,1049,841,0,0
-168,183,0,0,0,0,0,0,0,0,0,-1,1056,841,0,0
-161,183,0,0,0,0,0,0,0,0,0,-1,1063,841,0,0
-154,183,0,0,0,0,0,0,0,0,0,-1,1070,841,0,0
-147,183,0,0,0,0,0,0,0,0,0,-1,1077,841,0,0
-140,183,0,0,0,0,0,0,0,0,0,-1,1084,841,0,0
-133,183,0,0,0,0,0,0,0,0,0,-1,1091,841,0,0
-126,183,0,0,0,0,0,0,0,0,0,-1,1098,841,0,0
-119,183,0,0,0,0,0,0,0,0,0,-1,1105,841,0,0
-112,183,0,0,0,0,0,0,0,0,0,-1,1112,841,0,0
-105,183,0,0,0,0,0,0,0,0,0,-1,1119,841,0,0
-98,183,0,0,0,0,0,0,0,0,0,-1,1126,841,0,0
-91,183,0,0,0,0,0,0,0,0,0,-1,1133,841,0,0
-84,183,0,0,0,0,0,0,0,0,0,-1,1140,841,0,0
-77,183,0,0,0,0,0,0,0,0,0,-1,1147,841,0,0
-70,183,0,0,0,0,0,0,0,0,0,-1,1154,841,0,0
-63,183,0,0,0,0,0,0,0,0,0,-1,1161,841,0,0
-56,183,0,0,0,0,0,0,0,0,0,-1,1168,841,0,0
-49,183,0,0,0,0,0,0,0,0,0,-1,1175,841,0,0
-42,183,0,0,0,0,0,0,0,0,0,-1,1182,841,0,0
-35,183,0,0,0,0,0,0,0,0,0,-1,1189,841,0,0
-28,183,0,0,0,0,0,0,0,0,0,-1,1196,841,0,0
-21,183,0,0,0,0,0,0,0,0,0,-1,1203,841,0,0
-14,183,0,0,0,0,0,0,0,0,0,-1,1210,841,0,0
-7,183,0,0,0,0,0,0,0,0,0,-1,1217,841,0,0
0,183,0,0,0,0,0,0,0,0,0,-1,1224,841,0,0
7,183,0,0,0,0,0,0,0,0,0,-1,1231,841,0,0
14,183,0,0,0,0,0,0,0,0,0,-1,1238,841,0,0
21,183,0,0,0,0,0,0,0,0,0,-1,1245,841,0,0
28,183,0,0,0,0,0,0,0,0,0,-1,1252,841,0,0
35,183,0,0,0,0,0,0,0,0,0,-1,1259,841,0,0
42,183,0,0,0,0,0,0,0,0,0,-1,1266,841,0,0
49,183,0,0,0,0,0,0,0,0,0,-1,1273,841,0,0
56,183,0,0,0,0,0,0,0,0,0,-1,1280,841,0,0
63,183,0,0,0,0,0,0,0,0,0,-1,1287,841,0,0
70,183,0,0,0,0,0,0,0,0,0,-1,1294,841,0,0
77,183,0,0,0,0,0,0,0,0,0,-1,1301,841,0,0
84,183,0,0,0,0,0,0,0,0,0,-1,1308,841,0,0
91,183,0,0,0,0,0,0,0,0,0,-1,1315,841,0,0
98,183,0,0,0,0,0,0,0,0,0,-1,1322,841,0,0
105,183,0,0,0,0,0,0,0,0,0,-1,1329,841,0,0
112,183,0,0,0,0,0,0,0,0,0,-1,1336,841,0,0
119,183,0,0,0,0,0,0,0,0,0,-1,1343,841,0,0
126,183,0,0,0,0,0,0,0,0,0,-1,1350,841,0,0
133,183,0,0,0,0,0,0,0,0,0,-1,1357,841,0,0
140,183,0,0,0,0,0,0,0,0,0,-1,1364,841,0,0
147,183,0,0,0,0,0,0,0,0,0,-1,1371,841,0,0
154,183,0,0,0,0,0,0,0,0,0,-1,1378,841,0,0
161,183,0,0,0,0,0,0,0,0,0,-1,1385,841,0,0
168,183,0,0,0,0,0,0,0,0,0,-1,1392,841,0,0
175,183,0,0,0,0,0,0,0,0,0,-1,1399,841,0,0
182,183,0,0,0,0,0,0,0,0,0,-1,1406,841,0,0
189,183,0,0,0,0,0,0,0,0,0,-1,1413,841,0,0
196,183,0,0,0,0,0,0,0,0,0,-1,1420,841,0,0
203,183,0,0,0,0,0,0,0,0,0,-1,1427,841,0,0
210,183,0,0,0,0,0,0,0,0,0,-1,1434,841,0,0
217,183,0,0,0,0,0,0,0,0,0,-1,1441,841,0,0
224,183,0,0,0,0,0,0,0,0,0,-1,1448,841,0,0
231,183,0,0,0,0,0,0,0,0,0,-1,1455,841,0,0
238,183,0,0,0,0,0,0,0,0,0,-1,1462,841,0,0
245,183,0,0,0,0,0,0,0,0,0,-1,1469,841,0,0
252,183,0,0,0,0,0,0,0,0,0,-1,1476,841,0,0
259,183,0,0,0,0,0,0,0,0,0,-1,1483,841,0,0
266,183,0,0,0,0,0,0,0,0,0,-1,1490,841,0,0
273,183,0,0,0,0,0,0,0,0,0,-1,1497,841,0,0
280,183,0,0,0,0,0,0,0,0,0,-1,1504,841,0,0
287,183,0,0,0,0,0,0,0,0,0,-1,1511,841,0,0
294,183,0,0,0,0,0,0,0,0,0,-1,1518,841,0,0
301,183,0,0,0,0,0,0,0,0,0,-1,1525,841,0,0
308,183,0,0,0,0,0,0,0,0,0,-1,1532,841,0,0
315,183,0,0,0,0,0,0,0,0,0,-1,1539,841,0,0
322,183,0,0,0,0,0,0,0,0,0,-1,1546,841,0,0
329,183,0,0,0,0,0,0,0,0,0,-1,1553,841,0,0
336,183,0,0,0,0,0,0,0,0,0,-1,1560,841,0,0
343,183,0,0,0,0,0,0,0,0,0,-1,1567,841,0,0
350,183,0,0,0,0,0,0,0,0,0,-1,1574,841,0,0
357,183,0,0,0,0,0,0,0,0,0,-1,1581,841,0,0
364,183,0,0,0,0,0,0,0,0,0,-1,1588,841,0,0
371,183,0,0,0,0,0,0,0,0,0,-1,1595,841,0,0
378,183,0,0,0,0,0,0,0,0,0,-1,1602,841,0,0
385,183,0,0,0,0,0,0,0,0,0,-1,1609,841,0,0
392,183,0,0,0,0,0,0,0,0,0,-1,1616,841,0,0
399,183,0,0,0,0,0,0,0,0,0,-1,1623,841,0,0
406,183,0,0,0,0,0,0,0,0,0,-1,1630,841,0,0
413,183,0,0,0,0,0,0,0,0,0,-1,1637,841,0,0
420,183,0,0,0,0,0,0,0,0,0,-1,1644,841,0,0
427,183,0,0,0,0,0,0,0,0,0,-1,1651,841,0,0
434,183,0,0,0,0,0,0,0,0,0,-1,1658,841,0,0
441,183,0,0,0,0,0,0,0,0,0,-1,1665,841,0,0
448,183,0,0,0,0,0,0,0,0,0,-1,1672,841,0,0
455,183,0,0,0,0,0,0,0,0,0,-1,1679,841,0,0
462,183,0,0,0,0,0,0,0,0,0,-1,1686,841,0,0
469,183,0,0,0,0,0,0,0,0,0,-1,1693,841,0,0
476,183,0,0,0,0,0,0,0,0,0,-1,1700,841,0,0
483,183,0,0,0,0,0,0,0,0,0,-1,1707,841,0,0
490,183,0,0,0,0,0,0,0,0,0,-1,1714,841,0,0
497,183,0,0,0,0,0,0,0,0,0,-1,1721,841,0,0
504,183,0,0,0,0,0,0,0,0,0,-1,1728,841,0,0
511,183,0,0,0,0,0,0,0,0,0,-1,1735,841,0,0
518,183,0,0,0,0,0,0,0,0,0,-1,1742,841,0,0
525,183,0,0,0,0,0,0,0,0,0,-1,1749,841,0,0
532,183,0,0,0,0,0,0,0,0,0,-1,1756,841,0,0
539,183,0,0,0,0,0,0,0,0,0,-1,1763,841,0,0
546,183,0,0,0,0,0,0,0,0,0,-1,1770,841,0,0
553,183,0,0,0,0,0,0,0,0,0,-1,1777,841,0,0
560,183,0,0,0,0,0,0,0,0,0,-1,1784,841,0,0
567,183,0,0,0,0,0,0,0,0,0,-1,1791,841,0,0
574,183,0,0,0,0,0,0,0,0,0,-1,1798,841,0,0
581,183,0,0,0,0,0,0,0,0,0,-1,1805,841,0,0
588,183,0,0,0,0,0,0,0,0,0,-1,1812,841,0,0
595,183,0,0,0,0,0,0,0,0,0,-1,1819,841,0,0
602,183,0,0,0,0,0,0,0,0,0,-1,1826,841,0,0
609,183,22.231,2.99609,0.0051206,0.00231339,0.00270815,0.00676727,0.000666723,0.546312,0.00430651,0.042738,1833,841,22.2309,-2.99611
616,183,22.3643,3.16809,0.00461093,0.00147574,0.00141251,0.00515344,0.000933237,0.366702,0.00317066,0.039462,1840,841,22.3643,-3.16807
623,183,22.4471,3.17383,0.00426208,0.000499693,0.000176034,0.0042703,0.000491475,0.0466519,0.00269801,0.0413848,1847,841,22.4471,-3.17386
630,183,22.4178,3.08246,0.00411133,-0.000362578,-0.000801063,0.00425044,-0.000501684,-0.171938,0.0030148,0.0413093,1854,841,22.4179,-3.08246
637,183,22.3479,2.90704,0.00388255,-0.00107115,-0.00140137,0.00425151,-0.00144011,-0.257442,0.00341707,0.0364342,1861,841,22.3478,-2.90701
644,183,22.2947,2.90912,0.0035024,-0.00149885,-0.00165385,0.00399984,-0.00199628,-0.292166,0.00352569,0.0308835,1868,841,22.2947,-2.90914
651,183,22.3887,2.86798,0.00305326,-0.0017487,-0.00171701,0.00360403,-0.00229947,-0.310404,0.00343602,0.0287613,1875,841,22.3886,-2.86796
658,183,22.6221,2.74219,0.00261199,-0.00196204,-0.00171757,0.00318513,-0.00253518,-0.322074,0.00330972,0.0456328,1882,841,22.6221,-2.74217
665,183,22.8582,2.61963,0,0,0,0,0,0,0,-1,1889,841,22.8581,-2.61965
672,183,18.2528,2.16669,0,0,0,0,0,0,0,-1,1896,841,18.2528,-2.1667
679,183,18.2472,2.34387,0.00112881,-0.00168323,-0.00148184,0.00176552,-0.00231994,-0.405824,0.00236597,0.0401018,1903,841,18.2472,-2.3439
686,183,18.2076,2.53656,0.000805922,-0.00169541,-0.00117195,0.00126921,-0.00215869,-0.376459,0.00200119,0.0177375,1910,841,18.2076,-2.53656
693,183,18.2015,2.75116,0.000741964,-0.0014289,-0.000938018,0.00109112,-0.00177805,-0.356337,0.00167227,0.0134305,1917,841,18.2016,-2.75113
700,183,18.1899,2.97369,0.00131488,-0.00108571,-0.000842747,0.00158119,-0.00135202,-0.306073,0.00169521,0.014167,1924,841,18.19,-2.97369
707,183,18.1729,3.17578,0.00254007,-0.000949664,-0.000771996,0.00270322,-0.00111282,-0.208274,0.00226607,0.01145,1931,841,18.1728,-3.17577
714,183,18.2013,3.37927,0.00518031,-0.00109185,-0.00150928,0.00552459,-0.00143613,-0.224273,0.00424356,0.015515,1938,841,18.2013,-3.37924
721,183,18.1636,3.59381,0.00985182,-0.00175097,-0.00243062,0.0103404,-0.00223957,-0.198377,0.00774878,0.0147611,1945,841,18.1636,-3.59381
728,183,18.1465,3.78827,0.0161057,-0.00299092,-0.00379565,0.0168325,-0.00371769,-0.189183,0.0126444,0.0126556,1952,841,18.1465,-3.7883
735,183,18.1589,3.98077,0.0238824,-0.00455504,-0.005624,0.0249543,-0.00562689,-0.188325,0.0187947,0.0114789,1959,841,18.159,-3.98078
742,183,18.1663,4.19647,0.0335656,-0.00671046,-0.00810719,0.0351363,-0.00828111,-0.191365,0.0266175,0.0109985,1966,841,18.1663,-4.19648
749,183,18.1459,4.42371,0.0456418,-0.00969772,-0.0114269,0.0479085,-0.0119644,-0.195821,0.0365852,0.0326953,1973,841,18.1459,-4.42372
756,183,18.2396,4.96753,0.0606995,-0.0138314,-0.0158422,0.0639271,-0.017059,-0.200985,0.0492983,0.047168,1980,841,18.2396,-4.96752
763,183,17.8861,5.65869,0,0,0,0,0,0,0,-1,1987,841,17.8861,-5.6587
770,183,21.4923,5.08771,0,0,0,0,0,0,0,-1,1994,841,21.4923,-5.08771
777,183,23.0175,5.51587,0,0,0,0,0,0,0,-1,2001,841,23.0175,-5.51589
784,183,0,0,0,0,0,0,0,0,0,-1,2008,841,0,0
791,183,0,0,0,0,0,0,0,0,0,-1,2015,841,0,0
798,183,0,0,0,0,0,0,0,0,0,-1,2022,841,0,0
805,183,0,0,0,0,0,0,0,0,0,-1,2029,841,0,0
812,183,0,0,0,0,0,0,0,0,0,-1,2036,841,0,0
-700,176,0,0,0,0,0,0,0,0,0,-1,524,848,0,0
-693,176,0,0,0,0,0,0,0,0,0,-1,531,848,0,0
-686,176,0,0,0,0,0,0,0,0,0,-1,538,848,0,0
-679,176,0,0,0,0,0,0,0,0,0,-1,545,848,0,0
-672,176,0,0,0,0,0,0,0,0,0,-1,552,848,0,0
-665,176,-8.54559,-0.396179,0,0,0,0,0,0,0,-1,559,848,-8.54559,0.396152
-658,176,-10.2045,3.92017,0,0,0,0,0,0,0,-1,566,848,-10.2045,-3.92018
-651,176,-9.7851,1.13153,0,0,0,0,0,0,0,-1,573,848,-9.78511,-1.13152
-644,176,-10.3417,1.4129,-0.0200644,0.0203122,-0.0081653,0.021901,-0.0216532,-1.37863,0.0251461,0.0467675,580,848,-10.3417,-1.41288
-637,176,-10.9636,1.63818,-0.0180301,0.0132058,-0.00445523,0.0138289,-0.0186531,-1.43185,0.0188223,0.0449417,587,848,-10.9636,-1.6382
-630,176,-11.8093,2.16925,0,0,0,0,0,0,0,-1,594,848,-11.8093,-2.16928
-623,176,-11.7982,2.03107,-0.0118711,0.00409926,-0.000276707,0.00410405,-0.0118759,-1.55348,0.00958281,0.0424251,601,848,-11.7981,-2.03106
-616,176,-11.7681,1.94244,-0.00907521,0.00120066,0.000986804,0.00129457,-0.00916912,1.47592,0.00658681,0.0289146,608,848,-11.768,-1.94244
-609,176,-11.7471,1.81726,-0.00648198,-0.000414013,0.00164811,4.72902e-06,-0.00690072,1.32199,0.00460206,0.0124389,615,848,-11.747,-1.81726
-602,176,-11.7617,1.62445,-0.00492723,-0.00121126,0.0021002,-0.000265148,-0.00587334,1.14754,0.00383024,0.0127756,622,848,-11.7617,-1.62446
-595,176,-11.7607,1.43213,-0.0044433,-0.0014921,0.00226691,-0.000262834,-0.00567256,1.07391,0.00369721,0.0112791,629,848,-11.7607,-1.43215
-588,176,-11.7388,1.25116,-0.00396594,-0.00219583,0.00267336,-0.000264832,-0.00589694,0.945252,0.00384606,0.0113222,636,848,-11.7389,-1.25117
-581,176,-11.7474,1.08521,-0.00460523,-0.00198685,0.00279361,-0.000210882,-0.0063812,1.00452,0.00418561,0.0109452,643,848,-11.7474,-1.08522
-574,176,-11.7534,0.901611,-0.00635037,-0.00156086,0.00281316,-0.000261197,-0.00765004,1.13801,0.00501523,0.0128187,650,848,-11.7533,-0.901632
-567,176,-11.7051,0.764832,-0.00788874,-0.0014112,0.00300619,-0.000231054,-0.00906888,1.19671,0.00597039,0.0243377,657,848,-11.7052,-0.764851
-560,176,-11.8326,0.539673,-0.0090633,-0.00092775,0.00313356,0.000139258,-0.0101303,1.2426,0.00680043,0.0201698,664,848,-11.8326,-0.539677
-553,176,-11.723,0.265198,-0.0100393,-0.000287287,0.0032543,0.000698949,-0.0110256,1.27654,0.00759409,0.0347288,671,848,-11.7229,-0.265187
-546,176,-11.512,-0.0514526,0,0,0,0,0,0,0,-1,678,848,-11.512,0.0514248
-539,176,-14.5792,1.33484,0,0,0,0,0,0,0,-1,685,848,-14.5792,-1.33482
-532,176,-14.7457,1.14026,-0.0114089,0.00217743,0.00350052,0.0030263,-0.0122578,1.33289,0.00934543,0.0401892,692,848,-14.7457,-1.14023
-525,176,-14.9423,0.971069,-0.0109984,0.00317594,0.003481,0.00398468,-0.0118071,1.34252,0.00948293,0.048711,699,848,-14.9423,-0.971076
-518,176,-14.9961,0.822937,-0.0101147,0.00413842,0.00339211,0.00490453,-0.0108809,1.34867,0.00932888,0.0418116,706,848,-14.9961,-0.822912
-511,176,-14.9087,0.906189,-0.0084045,0.00488665,0.00323966,0.00563425,-0.0091521,1.344,0.00861706,0.0388303,713,848,-14.9087,-0.906173
-504,176,-14.9761,1.05597,-0.00569726,0.00499319,0.00296192,0.00575897,-0.00646304,1.31779,0.00706028,0.0420121,720,848,-14.9761,-1.05594
-497,176,-14.9846,1.21912,-0.00230915,0.00370383,0.0028758,0.00485777,-0.00346309,1.1892,0.00482649,0.0437806,727,848,-14.9846,-1.21912
-490,176,-14.7518,0.936462,0,0,0,0,0,0,0,-1,734,848,-14.7518,-0.936464
-483,176,0,0,0,0,0,0,0,0,0,-1,741,848,0,0
-476,176,0,0,0,0,0,0,0,0,0,-1,748,848,0,0
-469,176,0,0,0,0,0,0,0,0,0,-1,755,848,0,0
-462,176,0,0,0,0,0,0,0,0,0,-1,762,848,0,0
-455,176,0,0,0,0,0,0,0,0,0,-1,769,848,0,0
-448,176,0,0,0,0,0,0,0,0,0,-1,776,848,0,0
-441,176,0,0,0,0,0,0,0,0,0,-1,783,848,0,0
-434,176,0,0,0,0,0,0,0,0,0,-1,790,848,0,0
-427,176,0,0,0,0,0,0,0,0,0,-1,797,848,0,0
-420,176,0,0,0,0,0,0,0,0,0,-1,804,848,0,0
-413,176,0,0,0,0,0,0,0,0,0,-1,811,848,0,0
-406,176,0,0,0,0,0,0,0,0,0,-1,818,848,0,0
-399,176,0,0,0,0,0,0,0,0,0,-1,825,848,0,0
-392,176,0,0,0,0,0,0,0,0,0,-1,832,848,0,0
-385,176,0,0,0,0,0,0,0,0,0,-1,839,848,0,0
-378,176,0,0,0,0,0,0,0,0,0,-1,846,848,0,0
-371,176,0,0,0,0,0,0,0,0,0,-1,853,848,0,0
-364,176,0,0,0,0,0,0,0,0,0,-1,860,848,0,0
-357,176,0,0,0,0,0,0,0,0,0,-1,867,848,0,0
-350,176,0,0,0,0,0,0,0,0,0,-1,874,848,0,0
-343,176,0,0,0,0,0,0,0,0,0,-1,881,848,0,0
-336,176,0,0,0,0,0,0,0,0,0,-1,888,848,0,0
-329,176,0,0,0,0,0,0,0,0,0,-1,895,848,0,0
-322,176,0,0,0,0,0,0,0,0,0,-1,902,848,0,0
-315,176,0,0,0,0,0,0,0,0,0,-1,909,848,0,0
-308,176,0,0,0,0,0,0,0,0,0,-1,916,848,0,0
-301,176,0,0,0,0,0,0,0,0,0,-1,923,848,0,0
-294,176,0,0,0,0,0,0,0,0,0,-1,930,848,0,0
-287,176,0,0,0,0,0,0,0,0,0,-1,937,848,0,0
-280,176,0,0,0,0,0,0,0,0,0,-1,944,848,0,0
-273,176,0,0,0,0,0,0,0,0,0,-1,951,848,0,0
-266,176,0,0,0,0,0,0,0,0,0,-1,958,848,0,0
-259,176,0,0,0,0,0,0,0,0,0,-1,965,848,0,0
-252,176,0,0,0,0,0,0,0,0,0,-1,972,848,0,0
-245,176,0,0,0,0,0,0,0,0,0,-1,979,848,0,0
-238,176,0,0,0,0,0,0,0,0,0,-1,986,848,0,0
-231,176,0,0,0,0,0,0,0,0,0,-1,993,848,0,0
-224,176,0,0,0,0,0,0,0,0,0,-1,1000,848,0,0
-217,176,0,0,0,0,0,0,0,0,0,-1,1007,848,0,0
-210,176,0,0,0,0,0,0,0,0,0,-1,1014,848,0,0
-203,176,0,0,0,0,0,0,0,0,0,-1,1021,848,0,0
-196,176,0,0,0,0,0,0,0,0,0,-1,1028,848,0,0
-189,176,0,0,0,0,0,0,0,0,0,-1,1035,848,0,0
-182,176,0,0,0,0,0,0,0,0,0,-1,1042,848,0,0
-175,176,0,0,0,0,0,0,0,0,0,-1,1049,848,0,0
-168,176,0,0,0,0,0,0,0,0,0,-1,1056,848,0,0
-161,176,0,0,0,0,0,0,0,0,0,-1,1063,848,0,0
-154,176,0,0,0,0,0,0,0,0,0,-1,1070,848,0,0
-147,176,0,0,0,0,0,0,0,0,0,-1,1077,848,0,0
-140,176,0,0,0,0,0,0,0,0,0,-1,1084,848,0,0
-133,176,0,0,0,0,0,0,0,0,0,-1,1091,848,0,0
-126,176,0,0,0,0,0,0,0,0,0,-1,1098,848,0,0
-119,176,0,0,0,0,0,0,0,0,0,-1,1105,848,0,0
-112,176,0,0,0,0,0,0,0,0,0,-1,1112,848,0,0
-105,176,0,0,0,0,0,0,0,0,0,-1,1119,848,0,0
-98,176,0,0,0,0,0,0,0,0,0,-1,1126,848,0,0
-91,176,0,0,0,0,0,0,0,0,0,-1,1133,848,0,0
-84,176,0,0,0,0,0,0,0,0,0,-1,1140,848,0,0
-77,176,0,0,0,0,0,0,0,0,0,-1,1147,848,0,0
-70,176,0,0,0,0,0,0,0,0,0,-1,1154,848,0,0
-63,176,0,0,0,0,0,0,0,0,0,-1,1161,848,0,0
-56,176,0,0,0,0,0,0,0,0,0,-1,1168,848,0,0
-49,176,0,0,0,0,0,0,0,0,0,-1,1175,848,0,0
-42,176,0,0,0,0,0,0,0,0,0,-1,1182,848,0,0
-35,176,0,0,0,0,0,0,0,0,0,-1,1189,848,0,0
-28,176,0,0,0,0,0,0,0,0,0,-1,1196,848,0,0
-21,176,0,0,0,0,0,0,0,0,0,-1,1203,848,0,0
-14,176,0,0,0,0,0,0,0,0,0,-1,1210,848,0,0
-7,176,0,0,0,0,0,0,0,0,0,-1,1217,848,0,0
0,176,0,0,0,0,0,0,0,0,0,-1,1224,848,0,0
7,176,0,0,0,0,0,0,0,0,0,-1,1231,848,0,0
14,176,0,0,0,0,0,0,0,0,0,-1,1238,848,0,0
21,176,0,0,0,0,0,0,0,0,0,-1,1245,848,0,0
28,176,0,0,0,0,0,0,0,0,0,-1,1252,848,0,0
35,176,0,0,0,0,0,0,0,0,0,-1,1259,848,0,0
42,176,0,0,0,0,0,0,0,0,0,-1,1266,848,0,0
49,176,0,0,0,0,0,0,0,0,0,-1,1273,848,0,0
56,176,0,0,0,0,0,0,0,0,0,-1,1280,848,0,0
63,176,0,0,0,0,0,0,0,0,0,-1,1287,848,0,0
70,176,0,0,0,0,0,0,0,0,0,-1,1294,848,0,0
77,176,0,0,0,0,0,0,0,0,0,-1,1301,848,0,0
84,176,0,0,0,0,0,0,0,0,0,-1,1308,848,0,0
91,176,0,0,0,0,0,0,0,0,0,-1,1315,848,0,0
98,176,0,0,0,0,0,0,0,0,0,-1,1322,848,0,0
105,176,0,0,0,0,0,0,0,0,0,-1,1329,848,0,0
112,176,0,0,0,0,0,0,0,0,0,-1,1336,848,0,0
119,176,0,0,0,0,0,0,0,0,0,-1,1343,848,0,0
126,176,0,0,0,0,0,0,0,0,0,-1,1350,848,0,0
133,176,0,0,0,0,0,0,0,0,0,-1,1357,848,0,0
140,176,0,0,0,0,0,0,0,0,0,-1,1364,848,0,0
147,176,0,0,0,0,0,0,0,0,0,-1,1371,848,0,0
154,176,0,0,0,0,0,0,0,0,0,-1,1378,848,0,0
161,176,0,0,0,0,0,0,0,0,0,-1,1385,848,0,0
168,176,0,0,0,0,0,0,0,0,0,-1,1392,848,0,0
175,176,0,0,0,0,0,0,0,0,0,-1,1399,848,0,0
182,176,0,0,0,0,0,0,0,0,0,-1,1406,848,0,0
189,176,0,0,0,0,0,0,0,0,0,-1,1413,848,0,0
196,176,0,0,0,0,0,0,0,0,0,-1,1420,848,0,0
203,176,0,0,0,0,0,0,0,0,0,-1,1427,848,0,0
210,176,0,0,0,0,0,0,0,0,0,-1,1434,848,0,0
217,176,0,0,0,0,0,0,0,0,0,-1,1441,848,0,0
224,176,0,0,0,0,0,0,0,0,0,-1,1448,848,0,0
231,176,0,0,0,0,0,0,0,0,0,-1,1455,848,0,0
238,176,0,0,0,0,0,0,0,0,0,-1,1462,848,0,0
245,176,0,0,0,0,0,0,0,0,0,-1,1469,848,0,0
252,176,0,0,0,0,0,0,0,0,0,-1,1476,848,0,0
259,176,0,0,0,0,0,0,0,0,0,-1,1483,848,0,0
266,176,0,0,0,0,0,0,0,0,0,-1,1490,848,0,0
273,176,0,0,0,0,0,0,0,0,0,-1,1497,848,0,0
280,176,0,0,0,0,0,0,0,0,0,-1,1504,848,0,0
287,176,0,0,0,0,0,0,0,0,0,-1,1511,848,0,0
294,176,0,0,0,0,0,0,0,0,0,-1,1518,848,0,0
301,176,0,0,0,0,0,0,0,0,0,-1,1525,848,0,0
308,176,0,0,0,0,0,0,0,0,0,-1,1532,848,0,0
315,176,0,0,0,0,0,0,0,0,0,-1,1539,848,0,0
322,176,0,0,0,0,0,0,0,0,0,-1,1546,848,0,0
329,176,0,0,0,0,0,0,0,0,0,-1,1553,848,0,0
336,176,0,0,0,0,0,0,0,0,0,-1,1560,848,0,0
343,176,0,0,0,0,0,0,0,0,0,-1,1567,848,0,0
350,176,0,0,0,0,0,0,0,0,0,-1,1574,848,0,0
357,176,0,0,0,0,0,0,0,0,0,-1,1581,848,0,0
364,176,0,0,0,0,0,0,0,0,0,-1,1588,848,0,0
371,176,0,0,0,0,0,0,0,0,0,-1,1595,848,0,0
378,176,0,0,0,0,0,0,0,0,0,-1,1602,848,0,0
385,176,0,0,0,0,0,0,0,0,0,-1,1609,848,0,0
392,176,0,0,0,0,0,0,0,0,0,-1,1616,848,0,0
399,176,0,0,0,0,0,0,0,0,0,-1,1623,848,0,0
406,176,0,0,0,0,0,0,0,0,0,-1,1630,848,0,0
413,176,0,0,0,0,0,0,0,0,0,-1,1637,848,0,0
420,176,0,0,0,0,0,0,0,0,0,-1,1644,848,0,0
427,176,0,0,0,0,0,0,0,0,0,-1,1651,848,0,0
434,176,0,0,0,0,0,0,0,0,0,-1,1658,848,0,0
441,176,0,0,0,0,0,0,0,0,0,-1,1665,848,0,0
448,176,0,0,0,0,0,0,0,0,0,-1,1672,848,0,0
455,176,0,0,0,0,0,0,0,0,0,-1,1679,848,0,0
462,176,0,0,0,0,0,0,0,0,0,-1,1686,848,0,0
469,176,0,0,0,0,0,0,0,0,0,-1,1693,848,0,0
476,176,0,0,0,0,0,0,0,0,0,-1,1700,848,0,0
483,176,0,0,0,0,0,0,0,0,0,-1,1707,848,0,0
490,176,0,0,0,0,0,0,0,0,0,-1,1714,848,0,0
497,176,0,0,0,0,0,0,0,0,0,-1,1721,848,0,0
504,176,0,0,0,0,0,0,0,0,0,-1,1728,848,0,0
511,176,0,0,0,0,0,0,0,0,0,-1,1735,848,0,0
518,176,0,0,0,0,0,0,0,0,0,-1,1742,848,0,0
525,176,0,0,0,0,0,0,0,0,0,-1,1749,848,0,0
532,176,0,0,0,0,0,0,0,0,0,-1,1756,848,0,0
539,176,0,0,0,0,0,0,0,0,0,-1,1763,848,0,0
546,176,0,0,0,0,0,0,0,0,0,-1,1770,848,0,0
553,176,0,0,0,0,0,0,0,0,0,-1,1777,848,0,0
560,176,0,0,0,0,0,0,0,0,0,-1,1784,848,0,0
567,176,0,0,0,0,0,0,0,0,0,-1,1791,848,0,0
574,176,0,0,0,0,0,0,0,0,0,-1,1798,848,0,0
581,176,0,0,0,0,0,0,0,0,0,-1,1805,848,0,0
588,176,0,0,0,0,0,0,0,0,0,-1,1812,848,0,0
595,176,0,0,0,0,0,0,0,0,0,-1,1819,848,0,0
602,176,0,0,0,0,0,0,0,0,0,-1,1826,848,0,0
609,176,22.2428,2.92468,0.00508582,0.00367336,0.00284837,0.0073142,0.00144498,0.663877,0.00447296,0.0397825,1833,848,22.2429,-2.9247
616,176,22.2837,3.10449,0.00452298,0.00233801,0.00144907,0.00524525,0.00161574,0.462394,0.00310185,0.0397528,1840,848,22.2837,-3.10446
623,176,22.4121,3.12585,0.0041625,0.00095428,0.000260516,0.00418352,0.000933263,0.0804998,0.00253583,0.0438216,1847,848,22.4121,-3.12585
630,176,22.4344,3.06018,0.00406835,-0.00017169,-0.00061078,0.00415458,-0.000257919,-0.140252,0.00285957,0.0408863,1854,848,22.4345,-3.06017
637,176,22.3785,2.92804,0.00382548,-0.000992999,-0.0011181,0.00407228,-0.0012398,-0.217253,0.00320898,0.0335327,1861,848,22.3786,-2.92807
644,176,22.2799,2.92383,0.00324739,-0.0014428,-0.00133658,0.00360154,-0.00179695,-0.259015,0.00317434,0.0345124,1868,848,22.2799,-2.92385
651,176,22.3375,2.90814,0.0025811,-0.00167949,-0.00137421,0.00298588,-0.00208427,-0.286455,0.00294264,0.0356991,1875,848,22.3375,-2.90816
658,176,22.3705,2.91559,0.00197129,-0.0018579,-0.00136551,0.00240835,-0.00229496,-0.309769,0.00271572,0.0386922,1882,848,22.3705,-2.91557
665,176,22.5259,2.78809,0,0,0,0,0,0,0,-1,1889,848,22.5259,-2.78806
672,176,16.9304,2.80719,0,0,0,0,0,0,0,-1,1896,848,16.9305,-2.80719
679,176,18.6296,2.263,0,0,0,0,0,0,0,-1,1903,848,18.6296,-2.26299
686,176,18.5277,2.55585,-0.000463508,-0.00141574,-0.000912198,8.93536e-05,-0.0019686,-0.544875,0.00134317,0.0258025,1910,848,18.5278,-2.55583
693,176,18.4443,2.80615,-0.000762932,-0.00118812,-0.000807411,-0.000140595,-0.00181046,-0.656669,0.00116294,0.0130742,1917,848,18.4443,-2.80618
700,176,18.4186,3.00519,-0.000510021,-0.000866657,-0.00078724,0.000118844,-0.00149552,-0.674022,0.0010389,0.0154113,1924,848,18.4186,-3.00517
707,176,18.4128,3.20581,0.000384141,-0.000679287,-0.000774249,0.000791672,-0.00108682,-0.48451,0.001089,0.013954,1931,848,18.4129,-3.20578
714,176,18.396,3.40839,0.00252582,-0.000675258,-0.00139023,0.0030453,-0.00119473,-0.357597,0.00252451,0.0121474,1938,848,18.396,-3.4084
721,176,18.3955,3.59589,0.00653211,-0.00107523,-0.00214551,0.00709549,-0.00163861,-0.256789,0.00536067,0.0115431,1945,848,18.3955,-3.59591
728,176,18.3763,3.80432,0.0119333,-0.00197069,-0.00326103,0.0126601,-0.00269753,-0.219303,0.00946823,0.0141977,1952,848,18.3763,-3.80433
735,176,18.3645,4.00336,0.0187045,-0.00313113,-0.0047697,0.0197009,-0.00412754,-0.205942,0.0147042,0.0135594,1959,848,18.3645,-4.00334
742,176,18.3745,4.18127,0.0271652,-0.00476906,-0.00681656,0.0285594,-0.00616323,-0.201744,0.021392,0.0167677,1966,848,18.3745,-4.18127
749,176,18.3337,4.36938,0.0377316,-0.00711166,-0.00954718,0.0396796,-0.00905964,-0.201275,0.0299335,0.028466,1973,848,18.3337,-4.36938
756,176,18.2439,4.79639,0.0511158,-0.0104631,-0.013193,0.0538232,-0.0131706,-0.202412,0.040984,0.0429901,1980,848,18.2439,-4.79636
763,176,18.2831,4.87018,0,0,0,0,0,0,0,-1,1987,848,18.283,-4.87019
770,176,18.5793,4.66376,0,0,0,0,0,0,0,-1,1994,848,18.5794,-4.66376
777,176,23.2141,6.21539,0,0,0,0,0,0,0,-1,2001,848,23.2141,-6.21538
784,176,0,0,0,0,0,0,0,0,0,-1,2008,848,0,0
791,176,0,0,0,0,0,0,0,0,0,-1,2015,848,0,0
798,176,0,0,0,0,0,0,0,0,0,-1,2022,848,0,0
805,176,0,0,0,0,0,0,0,0,0,-1,2029,848,0,0
812,176,0,0,0,0,0,0,0,0,0,-1,2036,848,0,0
-700,169,0,0,0,0,0,0,0,0,0,-1,524,855,0,0
-693,169,0,0,0,0,0,0,0,0,0,-1,531,855,0,0
-686,169,0,0,0,0,0,0,0,0,0,-1,538,855,0,0
-679,169,0,0,0,0,0,0,0,0,0,-1,545,855,0,0
-672,169,0,0,0,0,0,0,0,0,0,-1,552,855,0,0
-665,169,-8.36151,-1.34485,0,0,0,0,0,0,0,-1,559,855,-8.36152,1.34484
-658,169,-8.73865,-0.919739,0,0,0,0,0,0,0,-1,566,855,-8.73864,0.919734
-651,169,-9.37878,-0.173096,-0.0233487,0.0426047,-0.011209,0.0444576,-0.0252016,-1.40697,0.0407268,0.0498082,573,855,-9.37881,0.173116
-644,169,-10.026,0.590515,-0.0224065,0.0311001,-0.00617493,0.0318035,-0.0231099,-1.45738,0.0318364,0.0443615,580,855,-10.026,-0.59049
-637,169,-10.6367,1.4054,-0.0199101,0.0216551,-0.00269687,0.0218294,-0.0200843,-1.50627,0.0242059,0.0444483,587,855,-10.6367,-1.40542
-630,169,-11.293,1.69342,-0.0166781,0.0142417,-0.000414664,0.0142473,-0.0166837,-1.55739,0.0178765,0.0435854,594,855,-11.293,-1.6934
-623,169,-11.8984,2.02832,-0.0134256,0.00842035,0.0010305,0.00846885,-0.0134741,1.52376,0.0127782,0.0380027,601,855,-11.8984,-2.02831
-616,169,-11.9562,1.95587,-0.0103793,0.00392283,0.00210193,0.00422534,-0.0106818,1.42786,0.00887166,0.0213902,608,855,-11.9562,-1.95586
-609,169,-11.945,1.81854,-0.00752526,0.00105554,0.00251839,0.00174006,-0.00820978,1.3054,0.00613601,0.0129446,615,855,-11.945,-1.81853
-602,169,-11.9572,1.62421,-0.0059282,-0.00061159,0.00280358,0.00059361,-0.0071334,1.1648,0.00496531,0.0134858,622,855,-11.9571,-1.62419
-595,169,-11.9533,1.42566,-0.00549856,-0.00150988,0.00281445,-5.47967e-05,-0.00695364,1.09364,0.0046176,0.0123323,629,855,-11.9533,-1.42566
-588,169,-11.9304,1.25671,-0.0050926,-0.00251675,0.002996,-0.000543583,-0.00706577,0.988397,0.00454018,0.00969374,636,855,-11.9304,-1.25673
-581,169,-11.9438,1.08527,-0.00581007,-0.00246705,0.00305501,-0.000656173,-0.00762094,1.03572,0.00487664,0.0101315,643,855,-11.9439,-1.08524
-574,169,-12.0208,0.898376,-0.00749934,-0.00211625,0.00308015,-0.000717354,-0.00889824,1.14448,0.00570809,0.0136222,650,855,-12.0208,-0.898368
-567,169,-11.9374,0.775269,-0.00893306,-0.00205646,0.00326644,-0.000752237,-0.0102373,1.19091,0.00658844,0.0231183,657,855,-11.9374,-0.775288
-560,169,-11.9903,0.593262,-0.0099766,-0.0016645,0.00337513,-0.000466647,-0.0111745,1.22976,0.00729906,0.0228053,664,855,-11.9903,-0.593234
-553,169,-11.9186,0.303894,-0.0108417,-0.00109815,0.00346709,9.62242e-06,-0.0119494,1.26154,0.0079695,0.0318737,671,855,-11.9186,-0.303913
-546,169,-11.6664,-0.0349121,0,0,0,0,0,0,0,-1,678,855,-11.6664,0.0348941
-539,169,-14.9543,1.04224,0,0,0,0,0,0,0,-1,685,855,-14.9544,-1.04224
-532,169,-14.9068,1.04828,-0.0114273,0.00141084,0.00352712,0.00231605,-0.0123325,1.31958,0.00909254,0.0390122,692,855,-14.9068,-1.04828
-525,169,-14.9252,0.962463,-0.0105862,0.00248644,0.00339572,0.00331589,-0.0114156,1.33123,0.00892347,0.0449507,699,855,-14.9252,-0.962476
-518,169,-15.0515,0.769958,-0.00908213,0.00359136,0.00320643,0.00435641,-0.00984719,1.33658,0.00840222,0.0414383,706,855,-15.0515,-0.769949
-511,169,-15.0736,0.816895,-0.00654959,0.00446663,0.00295483,0.00520914,-0.0072921,1.32461,0.00725091,0.0415903,713,855,-15.0736,-0.816909
-504,169,-15.0824,0.733643,-0.00294252,0.0046608,0.00265368,0.00549537,-0.00377709,1.26609,0.00538401,0.0427512,720,855,-15.0824,-0.733628
-497,169,-15.1049,0.90332,0.000775289,0.00317946,0.00302995,0.00523707,-0.00128232,0.974242,0.00398814,0.0416619,727,855,-15.1048,-0.903322
-490,169,0,0,0,0,0,0,0,0,0,-1,734,855,0,0
-483,169,0,0,0,0,0,0,0,0,0,-1,741,855,0,0
-476,169,0,0,0,0,0,0,0,0,0,-1,748,855,0,0
-469,169,0,0,0,0,0,0,0,0,0,-1,755,855,0,0
-462,169,0,0,0,0,0,0,0,0,0,-1,762,855,0,0
-455,169,0,0,0,0,0,0,0,0,0,-1,769,855,0,0
-448,169,0,0,0,0,0,0,0,0,0,-1,776,855,0,0
-441,169,0,0,0,0,0,0,0,0,0,-1,783,855,0,0
-434,169,0,0,0,0,0,0,0,0,0,-1,790,855,0,0
-427,169,0,0,0,0,0,0,0,0,0,-1,797,855,0,0
-420,169,0,0,0,0,0,0,0,0,0,-1,804,855,0,0
-413,169,0,0,0,0,0,0,0,0,0,-1,811,855,0,0
-406,169,0,0,0,0,0,0,0,0,0,-1,818,855,0,0
-399,169,0,0,0,0,0,0,0,0,0,-1,825,855,0,0
-392,169,0,0,0,0,0,0,0,0,0,-1,832,855,0,0
-385,169,0,0,0,0,0,0,0,0,0,-1,839,855,0,0
-378,169,0,0,0,0,0,0,0,0,0,-1,846,855,0,0
-371,169,0,0,0,0,0,0,0,0,0,-1,853,855,0,0
-364,169,0,0,0,0,0,0,0,0,0,-1,860,855,0,0
-357,169,0,0,0,0,0,0,0,0,0,-1,867,855,0,0
-350,169,0,0,0,0,0,0,0,0,0,-1,874,855,0,0
-343,169,0,0,0,0,0,0,0,0,0,-1,881,855,0,0
-336,169,0,0,0,0,0,0,0,0,0,-1,888,855,0,0
-329,169,0,0,0,0,0,0,0,0,0,-1,895,855,0,0
-322,169,0,0,0,0,0,0,0,0,0,-1,902,855,0,0
-315,169,0,0,0,0,0,0,0,0,0,-1,909,855,0,0
-308,169,0,0,0,0,0,0,0,0,0,-1,916,855,0,0
-301,169,0,0,0,0,0,0,0,0,0,-1,923,855,0,0
-294,169,0,0,0,0,0,0,0,0,0,-1,930,855,0,0
-287,169,0,0,0,0,0,0,0,0,0,-1,937,855,0,0
-280,169,0,0,0,0,0,0,0,0,0,-1,944,855,0,0
-273,169,0,0,0,0,0,0,0,0,0,-1,951,855,0,0
-266,169,0,0,0,0,0,0,0,0,0,-1,958,855,0,0
-259,169,0,0,0,0,0,0,0,0,0,-1,965,855,0,0
-252,169,0,0,0,0,0,0,0,0,0,-1,972,855,0,0
-245,169,0,0,0,0,0,0,0,0,0,-1,979,855,0,0
-238,169,0,0,0,0,0,0,0,0,0,-1,986,855,0,0
-231,169,0,0,0,0,0,0,0,0,0,-1,993,855,0,0
-224,169,0,0,0,0,0,0,0,0,0,-1,1000,855,0,0
-217,169,0,0,0,0,0,0,0,0,0,-1,1007,855,0,0
-210,169,0,0,0,0,0,0,0,0,0,-1,1014,855,0,0
-203,169,0,0,0,0,0,0,0,0,0,-1,1021,855,0,0
-196,169,0,0,0,0,0,0,0,0,0,-1,1028,855,0,0
-189,169,0,0,0,0,0,0,0,0,0,-1,1035,855,0,0
-182,169,0,0,0,0,0,0,0,0,0,-1,1042,855,0,0
-175,169,0,0,0,0,0,0,0,0,0,-1,1049,855,0,0
-168,169,0,0,0,0,0,0,0,0,0,-1,1056,855,0,0
-161,169,0,0,0,0,0,0,0,0,0,-1,1063,855,0,0
-154,169,0,0,0,0,0,0,0,0,0,-1,1070,855,0,0
-147,169,0,0,0,0,0,0,0,0,0,-1,1077,855,0,0
-140,169,0,0,0,0,0,0,0,0,0,-1,1084,855,0,0
-133,169,0,0,0,0,0,0,0,0,0,-1,1091,855,0,0
-126,169,0,0,0,0,0,0,0,0,0,-1,1098,855,0,0
-119,169,0,0,0,0,0,0,0,0,0,-1,1105,855,0,0
-112,169,0,0,0,0,0,0,0,0,0,-1,1112,855,0,0
-105,169,0,0,0,0,0,0,0,0,0,-1,1119,855,0,0
-98,169,0,0,0,0,0,0,0,0,0,-1,1126,855,0,0
-91,169,0,0,0,0,0,0,0,0,0,-1,1133,855,0,0
-84,169,0,0,0,0,0,0,0,0,0,-1,1140,855,0,0
-77,169,0,0,0,0,0,0,0,0,0,-1,1147,855,0,0
-70,169,0,0,0,0,0,0,0,0,0,-1,1154,855,0,0
-63,169,0,0,0,0,0,0,0,0,0,-1,1161,855,0,0
-56,169,0,0,0,0,0,0,0,0,0,-1,1168,855,0,0
-49,169,0,0,0,0,0,0,0,0,0,-1,1175,855,0,0
-42,169,0,0,0,0,0,0,0,0,0,-1,1182,855,0,0
-35,169,0,0,0,0,0,0,0,0,0,-1,1189,855,0,0
-28,169,0,0,0,0,0,0,0,0,0,-1,1196,855,0,0
-21,169,0,0,0,0,0,0,0,0,0,-1,1203,855,0,0
-14,169,0,0,0,0,0,0,0,0,0,-1,1210,855,0,0
-7,169,0,0,0,0,0,0,0,0,0,-1,1217,855,0,0
0,169,0,0,0,0,0,0,0,0,0,-1,1224,855,0,0
7,169,0,0,0,0,0,0,0,0,0,-1,1231,855,0,0
14,169,0,0,0,0,0,0,0,0,0,-1,1238,855,0,0
21,169,0,0,0,0,0,0,0,0,0,-1,1245,855,0,0
28,169,0,0,0,0,0,0,0,0,0,-1,1252,855,0,0
35,169,0,0,0,0,0,0,0,0,0,-1,1259,855,0,0
42,169,0,0,0,0,0,0,0,0,0,-1,1266,855,0,0
49,169,0,0,0,0,0,0,0,0,0,-1,1273,855,0,0
56,169,0,0,0,0,0,0,0,0,0,-1,1280,855,0,0
63,169,0,0,0,0,0,0,0,0,0,-1,1287,855,0,0
70,169,0,0,0,0,0,0,0,0,0,-1,1294,855,0,0
77,169,0,0,0,0,0,0,0,0,0,-1,1301,855,0,0
84,169,0,0,0,0,0,0,0,0,0,-1,1308,855,0,0
91,169,0,0,0,0,0,0,0,0,0,-1,1315,855,0,0
98,169,0,0,0,0,0,0,0,0,0,-1,1322,855,0,0
105,169,0,0,0,0,0,0,0,0,0,-1,1329,855,0,0
112,169,0,0,0,0,0,0,0,0,0,-1,1336,855,0,0
119,169,0,0,0,0,0,0,0,0,0,-1,1343,855,0,0
126,169,0,0,0,0,0,0,0,0,0,-1,1350,855,0,0
133,169,0,0,0,0,0,0,0,0,0,-1,1357,855,0,0
140,169,0,0,0,0,0,0,0,0,0,-1,1364,855,0,0
147,169,0,0,0,0,0,0,0,0,0,-1,1371,855,0,0
154,169,0,0,0,0,0,0,0,0,0,-1,1378,855,0,0
161,169,0,0,0,0,0,0,0,0,0,-1,1385,855,0,0
168,169,0,0,0,0,0,0,0,0,0,-1,1392,855,0,0
175,169,0,0,0,0,0,0,0,0,0,-1,1399,855,0,0
182,169,0,0,0,0,0,0,0,0,0,-1,1406,855,0,0
189,169,0,0,0,0,0,0,0,0,0,-1,1413,855,0,0
196,169,0,0,0,0,0,0,0,0,0,-1,1420,855,0,0
203,169,0,0,0,0,0,0,0,0,0,-1,1427,855,0,0
210,169,0,0,0,0,0,0,0,0,0,-1,1434,855,0,0
217,169,0,0,0,0,0,0,0,0,0,-1,1441,855,0,0
224,169,0,0,0,0,0,0,0,0,0,-1,1448,855,0,0
231,169,0,0,0,0,0,0,0,0,0,-1,1455,855,0,0
238,169,0,0,0,0,0,0,0,0,0,-1,1462,855,0,0
245,169,0,0,0,0,0,0,0,0,0,-1,1469,855,0,0
252,169,0,0,0,0,0,0,0,0,0,-1,1476,855,0,0
259,169,0,0,0,0,0,0,0,0,0,-1,1483,855,0,0
266,169,0,0,0,0,0,0,0,0,0,-1,1490,855,0,0
273,169,0,0,0,0,0,0,0,0,0,-1,1497,855,0,0
280,169,0,0,0,0,0,0,0,0,0,-1,1504,855,0,0
287,169,0,0,0,0,0,0,0,0,0,-1,1511,855,0,0
294,169,0,0,0,0,0,0,0,0,0,-1,1518,855,0,0
301,169,0,0,0,0,0,0,0,0,0,-1,1525,855,0,0
308,169,0,0,0,0,0,0,0,0,0,-1,1532,855,0,0
315,169,0,0,0,0,0,0,0,0,0,-1,1539,855,0,0
322,169,0,0,0,0,0,0,0,0,0,-1,1546,855,0,0
329,169,0,0,0,0,0,0,0,0,0,-1,1553,855,0,0
336,169,0,0,0,0,0,0,0,0,0,-1,1560,855,0,0
343,169,0,0,0,0,0,0,0,0,0,-1,1567,855,0,0
350,169,0,0,0,0,0,0,0,0,0,-1,1574,855,0,0
357,169,0,0,0,0,0,0,0,0,0,-1,1581,855,0,0
364,169,0,0,0,0,0,0,0,0,0,-1,1588,855,0,0
371,169,0,0,0,0,0,0,0,0,0,-1,1595,855,0,0
378,169,0,0,0,0,0,0,0,0,0,-1,1602,855,0,0
385,169,0,0,0,0,0,0,0,0,0,-1,1609,855,0,0
392,169,0,0,0,0,0,0,0,0,0,-1,1616,855,0,0
399,169,0,0,0,0,0,0,0,0,0,-1,1623,855,0,0
406,169,0,0,0,0,0,0,0,0,0,-1,1630,855,0,0
413,169,0,0,0,0,0,0,0,0,0,-1,1637,855,0,0
420,169,0,0,0,0,0,0,0,0,0,-1,1644,855,0,0
427,169,0,0,0,0,0,0,0,0,0,-1,1651,855,0,0
434,169,0,0,0,0,0,0,0,0,0,-1,1658,855,0,0
441,169,0,0,0,0,0,0,0,0,0,-1,1665,855,0,0
448,169,0,0,0,0,0,0,0,0,0,-1,1672,855,0,0
455,169,0,0,0,0,0,0,0,0,0,-1,1679,855,0,0
462,169,0,0,0,0,0,0,0,0,0,-1,1686,855,0,0
469,169,0,0,0,0,0,0,0,0,0,-1,1693,855,0,0
476,169,0,0,0,0,0,0,0,0,0,-1,1700,855,0,0
483,169,0,0,0,0,0,0,0,0,0,-1,1707,855,0,0
490,169,0,0,0,0,0,0,0,0,0,-1,1714,855,0,0
497,169,0,0,0,0,0,0,0,0,0,-1,1721,855,0,0
504,169,0,0,0,0,0,0,0,0,0,-1,1728,855,0,0
511,169,0,0,0,0,0,0,0,0,0,-1,1735,855,0,0
518,169,0,0,0,0,0,0,0,0,0,-1,1742,855,0,0
525,169,0,0,0,0,0,0,0,0,0,-1,1749,855,0,0
532,169,0,0,0,0,0,0,0,0,0,-1,1756,855,0,0
539,169,0,0,0,0,0,0,0,0,0,-1,1763,855,0,0
546,169,0,0,0,0,0,0,0,0,0,-1,1770,855,0,0
553,169,0,0,0,0,0,0,0,0,0,-1,1777,855,0,0
560,169,0,0,0,0,0,0,0,0,0,-1,1784,855,0,0
567,169,0,0,0,0,0,0,0,0,0,-1,1791,855,0,0
574,169,0,0,0,0,0,0,0,0,0,-1,1798,855,0,0
581,169,0,0,0,0,0,0,0,0,0,-1,1805,855,0,0
588,169,0,0,0,0,0,0,0,0,0,-1,1812,855,0,0
595,169,0,0,0,0,0,0,0,0,0,-1,1819,855,0,0
602,169,0,0,0,0,0,0,0,0,0,-1,1826,855,0,0
609,169,0,0,0,0,0,0,0,0,0,-1,1833,855,0,0
616,169,22.2994,3.23932,0.00422021,0.00387284,0.00141383,0.00547099,0.00262207,0.72428,0.00315958,0.0438105,1840,855,22.2994,-3.23933
623,169,22.4734,3.34186,0.00392821,0.00203497,0.000327598,0.00398329,0.00197989,0.166585,0.00229977,0.0477599,1847,855,22.4734,-3.34184
630,169,22.4362,3.19708,0.00396485,0.000498867,-0.000424146,0.004016,0.000447717,-0.120015,0.00254128,0.0426495,1854,855,22.4361,-3.19711
637,169,22.4427,2.95264,0.00380064,-0.000587201,-0.000855,0.00396135,-0.000747917,-0.185804,0.00292229,0.0367019,1861,855,22.4428,-2.95265
644,169,22.3585,3.04803,0.00309337,-0.00118503,-0.00107369,0.0033477,-0.00143936,-0.232588,0.00283607,0.0382196,1868,855,22.3586,-3.04803
651,169,22.3289,2.99274,0.00227123,-0.00149143,-0.00111335,0.00257598,-0.00179618,-0.267179,0.00253762,0.0397459,1875,855,22.3289,-2.99274
658,169,22.3699,2.83911,0.0015252,-0.00169847,-0.00111742,0.00187465,-0.00204792,-0.303095,0.00226544,0.0377927,1882,855,22.3699,-2.83914
665,169,22.478,2.76947,0.000684046,-0.00165753,-0.00113347,0.00114283,-0.00211631,-0.384602,0.00190944,0.0481957,1889,855,22.478,-2.7695
672,169,22.6095,2.68567,0,0,0,0,0,0,0,-1,1896,855,22.6095,-2.68564
679,169,18.5803,2.29388,0,0,0,0,0,0,0,-1,1903,855,18.5803,-2.2939
686,169,18.609,2.56317,-0.00140308,-0.00122864,-0.000793252,-0.000517825,-0.00211389,-0.840154,0.00127228,0.0241618,1910,855,18.6091,-2.56319
693,169,18.6383,2.81903,-0.00181163,-0.000994229,-0.00074568,-0.00055259,-0.00225326,-1.03609,0.00135604,0.0125238,1917,855,18.6383,-2.81905
700,169,18.647,3.03925,-0.00169842,-0.000727185,-0.000750597,-0.000318812,-0.0021068,-1.07252,0.00131124,0.0122827,1924,855,18.6469,-3.03922
707,169,18.6121,3.21045,-0.00102561,-0.000488331,-0.000727714,1.87462e-05,-0.00153269,-0.962216,0.0010281,0.0142251,1931,855,18.6121,-3.21043
714,169,18.6012,3.38605,0.000801084,-0.000392618,-0.0011875,0.00153329,-0.00112482,-0.552531,0.00154069,0.0140201,1938,855,18.6013,-3.38606
721,169,18.5928,3.58423,0.00435886,-0.00062101,-0.0017259,0.00489853,-0.00116068,-0.303057,0.00371354,0.0156065,1945,855,18.5928,-3.58423
728,169,18.5973,3.81238,0.00914759,-0.00124678,-0.00252616,0.00972901,-0.0018282,-0.226218,0.00717348,0.0130154,1952,855,18.5973,-3.81236
735,169,18.5741,4.01764,0.0151706,-0.00210335,-0.0036664,0.0159166,-0.00284933,-0.200724,0.0116773,0.0189938,1959,855,18.5741,-4.01761
742,169,18.5839,4.17365,0.0224407,-0.00350485,-0.00513192,0.0234189,-0.00448304,-0.18835,0.0173017,0.0144348,1966,855,18.5839,-4.17366
749,169,18.5665,4.3363,0.0310894,-0.00561104,-0.00699176,0.0323763,-0.00689791,-0.182018,0.0242133,0.0234411,1973,855,18.5665,-4.3363
756,169,18.5814,4.4519,0.0418831,-0.00870191,-0.00949378,0.0436062,-0.010425,-0.179543,0.0330977,0.0458566,1980,855,18.5814,-4.45188
763,169,18.6255,4.57074,0,0,0,0,0,0,0,-1,1987,855,18.6255,-4.57072
770,169,18.3391,4.24249,0,0,0,0,0,0,0,-1,1994,855,18.3391,-4.24251
777,169,18.0718,4.20892,0,0,0,0,0,0,0,-1,2001,855,18.0717,-4.20894
784,169,17.3473,3.60822,0,0,0,0,0,0,0,-1,2008,855,17.3473,-3.60821
791,169,0,0,0,0,0,0,0,0,0,-1,2015,855,0,0
798,169,0,0,0,0,0,0,0,0,0,-1,2022,855,0,0
805,169,0,0,0,0,0,0,0,0,0,-1,2029,855,0,0
812,169,0,0,0,0,0,0,0,0,0,-1,2036,855,0,0
-700,162,0,0,0,0,0,0,0,0,0,-1,524,862,0,0
-693,162,0,0,0,0,0,0,0,0,0,-1,531,862,0,0
-686,162,0,0,0,0,0,0,0,0,0,-1,538,862,0,0
-679,162,0,0,0,0,0,0,0,0,0,-1,545,862,0,0
-672,162,0,0,0,0,0,0,0,0,0,-1,552,862,0,0
-665,162,-8.23126,-1.98969,0,0,0,0,0,0,0,-1,559,862,-8.23128,1.9897
-658,162,-8.7066,-1.18805,0,0,0,0,0,0,0,-1,566,862,-8.70658,1.18803
-651,162,-9.19293,-0.414429,-0.0267157,0.0529162,-0.00871798,0.0538594,-0.027659,-1.46302,0.0478681,0.0476363,573,862,-9.1929,0.414449
-644,162,-9.92828,0.396362,-0.0247041,0.0394098,-0.00444662,0.0397167,-0.025011,-1.50188,0.0376907,0.0434032,580,862,-9.92828,-0.396391
-637,162,-12.1555,2.46631,-0.0215723,0.028184,-0.00143141,0.0282252,-0.0216134,-1.54206,0.0288586,0.043902,587,862,-12.1555,-2.46633
-630,162,-12.1356,2.22437,-0.017958,0.0191891,0.000554215,0.0191973,-0.0179663,1.55588,0.0214604,0.044925,594,862,-12.1356,-2.22435
-623,162,-12.1094,2.09839,-0.014535,0.0119226,0.0017342,0.0120358,-0.0146482,1.50562,0.0154306,0.033293,601,862,-12.1094,-2.09838
-616,162,-12.1287,1.97272,-0.0113048,0.00613731,0.00266382,0.00653507,-0.0117026,1.42257,0.0106695,0.0183404,608,862,-12.1286,-1.97269
-609,162,-12.1419,1.81293,-0.00821917,0.00229595,0.00301769,0.00310043,-0.00902365,1.31027,0.00727297,0.0127483,615,862,-12.1419,-1.81295
-602,162,-12.1587,1.61725,-0.00651284,-9.62088e-05,0.00322628,0.00124544,-0.00785448,1.1767,0.00569703,0.0117824,622,862,-12.1587,-1.61722
-595,162,-12.1545,1.44012,-0.00609796,-0.0015098,0.00314407,8.81604e-05,-0.00769592,1.10057,0.00516025,0.0111275,629,862,-12.1545,-1.44015
-588,162,-12.1462,1.26581,-0.00579208,-0.00266885,0.0031447,-0.000719374,-0.00774155,1.01585,0.00493874,0.0109547,636,862,-12.1462,-1.26581
-581,162,-12.197,1.07166,-0.00658762,-0.00270954,0.0031657,-0.000936236,-0.00836093,1.06018,0.00528956,0.012706,643,862,-12.197,-1.07166
-574,162,-12.2949,0.873779,-0.00820815,-0.00246673,0.00322389,-0.00102068,-0.0096542,1.14916,0.00612433,0.0178747,650,862,-12.2949,-0.87375
-567,162,-12.22,0.739075,-0.00955961,-0.00249431,0.00342281,-0.0011081,-0.0109458,1.18599,0.00695733,0.027722,657,862,-12.2201,-0.739054
-560,162,-12.1755,0.454956,-0.0105349,-0.00223196,0.00353983,-0.000927687,-0.0118392,1.21778,0.00760244,0.0237864,664,862,-12.1756,-0.454973
-553,162,-12.0925,0.215881,-0.0113343,-0.00180063,0.00362888,-0.000576514,-0.0125584,1.24546,0.00818687,0.0294024,671,862,-12.0925,-0.215876
-546,162,-13.3739,0.511475,-0.0118154,-0.00108226,0.00375962,0.000103636,-0.0130013,1.26525,0.00870231,0.0403067,678,862,-13.3739,-0.511447
-539,162,-14.5666,0.74646,0,0,0,0,0,0,0,-1,685,862,-14.5666,-0.746471
-532,162,-14.8953,0.970337,-0.011341,0.000610419,0.00355174,0.00158626,-0.0123168,1.30266,0.00878781,0.0373894,692,862,-14.8953,-0.970325
-525,162,-14.847,1.0426,-0.0101101,0.00175094,0.00330264,0.00260854,-0.0109677,1.31674,0.00831875,0.038448,699,862,-14.847,-1.04259
-518,162,-14.9582,0.998169,-0.0080041,0.00295915,0.00297381,0.00371385,-0.0087588,1.32226,0.00739484,0.0389022,706,862,-14.9582,-0.998156
-511,162,-15.1091,0.818359,-0.00468443,0.00399318,0.00256514,0.00469473,-0.00538597,1.30383,0.00582466,0.0435979,713,862,-15.1091,-0.818329
-504,162,-15.1508,0.646729,-0.00036454,0.00438166,0.00218231,0.00523254,-0.00121542,1.19903,0.00395623,0.0435659,720,862,-15.1508,-0.646709
-497,162,-15.1261,0.813721,0.00310466,0.00294824,0.0030572,0.00608465,-3.17488e-05,0.77261,0.00406706,0.0402184,727,862,-15.1261,-0.813741
-490,162,0,0,0,0,0,0,0,0,0,-1,734,862,0,0
-483,162,0,0,0,0,0,0,0,0,0,-1,741,862,0,0
-476,162,0,0,0,0,0,0,0,0,0,-1,748,862,0,0
-469,162,0,0,0,0,0,0,0,0,0,-1,755,862,0,0
-462,162,0,0,0,0,0,0,0,0,0,-1,762,862,0,0
-455,162,0,0,0,0,0,0,0,0,0,-1,769,862,0,0
-448,162,0,0,0,0,0,0,0,0,0,-1,776,862,0,0
-441,162,0,0,0,0,0,0,0,0,0,-1,783,862,0,0
-434,162,0,0,0,0,0,0,0,0,0,-1,790,862,0,0
-427,162,0,0,0,0,0,0,0,0,0,-1,797,862,0,0
-420,162,0,0,0,0,0,0,0,0,0,-1,804,862,0,0
-413,162,0,0,0,0,0,0,0,0,0,-1,811,862,0,0
-406,162,0,0,0,0,0,0,0,0,0,-1,818,862,0,0
-399,162,0,0,0,0,0,0,0,0,0,-1,825,862,0,0
-392,162,0,0,0,0,0,0,0,0,0,-1,832,862,0,0
-385,162,0,0,0,0,0,0,0,0,0,-1,839,862,0,0
-378,162,0,0,0,0,0,0,0,0,0,-1,846,862,0,0
-371,162,0,0,0,0,0,0,0,0,0,-1,853,862,0,0
-364,162,0,0,0,0,0,0,0,0,0,-1,860,862,0,0
-357,162,0,0,0,0,0,0,0,0,0,-1,867,862,0,0
-350,162,0,0,0,0,0,0,0,0,0,-1,874,862,0,0
-343,162,0,0,0,0,0,0,0,0,0,-1,881,862,0,0
-336,162,0,0,0,0,0,0,0,0,0,-1,888,862,0,0
-329,162,0,0,0,0,0,0,0,0,0,-1,895,862,0,0
-322,162,0,0,0,0,0,0,0,0,0,-1,902,862,0,0
-315,162,0,0,0,0,0,0,0,0,0,-1,909,862,0,0
-308,162,0,0,0,0,0,0,0,0,0,-1,916,862,0,0
-301,162,0,0,0,0,0,0,0,0,0,-1,923,862,0,0
-294,162,0,0,0,0,0,0,0,0,0,-1,930,862,0,0
-287,162,0,0,0,0,0,0,0,0,0,-1,937,862,0,0
-280,162,0,0,0,0,0,0,0,0,0,-1,944,862,0,0
-273,162,0,0,0,0,0,0,0,0,0,-1,951,862,0,0
-266,162,0,0,0,0,0,0,0,0,0,-1,958,862,0,0
-259,162,0,0,0,0,0,0,0,0,0,-1,965,862,0,0
-252,162,0,0,0,0,0,0,0,0,0,-1,972,862,0,0
-245,162,0,0,0,0,0,0,0,0,0,-1,979,862,0,0
-238,162,0,0,0,0,0,0,0,0,0,-1,986,862,0,0
-231,162,0,0,0,0,0,0,0,0,0,-1,993,862,0,0
-224,162,0,0,0,0,0,0,0,0,0,-1,1000,862,0,0
-217,162,0,0,0,0,0,0,0,0,0,-1,1007,862,0,0
-210,162,0,0,0,0,0,0,0,0,0,-1,1014,862,0,0
-203,162,0,0,0,0,0,0,0,0,0,-1,1021,862,0,0
-196,162,0,0,0,0,0,0,0,0,0,-1,1028,862,0,0
-189,162,0,0,0,0,0,0,0,0,0,-1,1035,862,0,0
-182,162,0,0,0,0,0,0,0,0,0,-1,1042,862,0,0
-175,162,0,0,0,0,0,0,0,0,0,-1,1049,862,0,0
-168,162,0,0,0,0,0,0,0,0,0,-1,1056,862,0,0
-161,162,0,0,0,0,0,0,0,0,0,-1,1063,862,0,0
-154,162,0,0,0,0,0,0,0,0,0,-1,1070,862,0,0
-147,162,0,0,0,0,0,0,0,0,0,-1,1077,862,0,0
-140,162,0,0,0,0,0,0,0,0,0,-1,1084,862,0,0
-133,162,0,0,0,0,0,0,0,0,0,-1,1091,862,0,0
-126,162,0,0,0,0,0,0,0,0,0,-1,1098,862,0,0
-119,162,0,0,0,0,0,0,0,0,0,-1,1105,862,0,0
-112,162,0,0,0,0,0,0,0,0,0,-1,1112,862,0,0
-105,162,0,0,0,0,0,0,0,0,0,-1,1119,862,0,0
-98,162,0,0,0,0,0,0,0,0,0,-1,1126,862,0,0
-91,162,0,0,0,0,0,0,0,0,0,-1,1133,862,0,0
-84,162,0,0,0,0,0,0,0,0,0,-1,1140,862,0,0
-77,162,0,0,0,0,0,0,0,0,0,-1,1147,862,0,0
-70,162,0,0,0,0,0,0,0,0,0,-1,1154,862,0,0
-63,162,0,0,0,0,0,0,0,0,0,-1,1161,862,0,0
-56,162,0,0,0,0,0,0,0,0,0,-1,1168,862,0,0
-49,162,0,0,0,0,0,0,0,0,0,-1,1175,862,0,0
-42,162,0,0,0,0,0,0,0,0,0,-1,1182,862,0,0
-35,162,0,0,0,0,0,0,0,0,0,-1,1189,862,0,0
-28,162,0,0,0,0,0,0,0,0,0,-1,1196,862,0,0
-21,162,0,0,0,0,0,0,0,0,0,-1,1203,862,0,0
-14,162,0,0,0,0,0,0,0,0,0,-1,1210,862,0,0
-7,162,0,0,0,0,0,0,0,0,0,-1,1217,862,0,0
0,162,0,0,0,0,0,0,0,0,0,-1,1224,862,0,0
7,162,0,0,0,0,0,0,0,0,0,-1,1231,862,0,0
14,162,0,0,0,0,0,0,0,0,0,-1,1238,862,0,0
21,162,0,0,0,0,0,0,0,0,0,-1,1245,862,0,0
28,162,0,0,0,0,0,0,0,0,0,-1,1252,862,0,0
35,162,0,0,0,0,0,0,0,0,0,-1,1259,862,0,0
42,162,0,0,0,0,0,0,0,0,0,-1,1266,862,0,0
49,162,0,0,0,0,0,0,0,0,0,-1,1273,862,0,0
56,162,0,0,0,0,0,0,0,0,0,-1,1280,862,0,0
63,162,0,0,0,0,0,0,0,0,0,-1,1287,862,0,0
70,162,0,0,0,0,0,0,0,0,0,-1,1294,862,0,0
77,162,0,0,0,0,0,0,0,0,0,-1,1301,862,0,0
84,162,0,0,0,0,0,0,0,0,0,-1,1308,862,0,0
91,162,0,0,0,0,0,0,0,0,0,-1,1315,862,0,0
98,162,0,0,0,0,0,0,0,0,0,-1,1322,862,0,0
105,162,0,0,0,0,0,0,0,0,0,-1,1329,862,0,0
112,162,0,0,0,0,0,0,0,0,0,-1,1336,862,0,0
119,162,0,0,0,0,0,0,0,0,0,-1,1343,862,0,0
126,162,0,0,0,0,0,0,0,0,0,-1,1350,862,0,0
133,162,0,0,0,0,0,0,0,0,0,-1,1357,862,0,0
140,162,0,0,0,0,0,0,0,0,0,-1,1364,862,0,0
147,162,0,0,0,0,0,0,0,0,0,-1,1371,862,0,0
154,162,0,0,0,0,0,0,0,0,0,-1,1378,862,0,0
161,162,0,0,0,0,0,0,0,0,0,-1,1385,862,0,0
168,162,0,0,0,0,0,0,0,0,0,-1,1392,862,0,0
175,162,0,0,0,0,0,0,0,0,0,-1,1399,862,0,0
182,162,0,0,0,0,0,0,0,0,0,-1,1406,862,0,0
189,162,0,0,0,0,0,0,0,0,0,-1,1413,862,0,0
196,162,0,0,0,0,0,0,0,0,0,-1,1420,862,0,0
203,162,0,0,0,0,0,0,0,0,0,-1,1427,862,0,0
210,162,0,0,0,0,0,0,0,0,0,-1,1434,862,0,0
217,162,0,0,0,0,0,0,0,0,0,-1,1441,862,0,0
224,162,0,0,0,0,0,0,0,0,0,-1,1448,862,0,0
231,162,0,0,0,0,0,0,0,0,0,-1,1455,862,0,0
238,162,0,0,0,0,0,0,0,0,0,-1,1462,862,0,0
245,162,0,0,0,0,0,0,0,0,0,-1,1469,862,0,0
252,162,0,0,0,0,0,0,0,0,0,-1,1476,862,0,0
259,162,0,0,0,0,0,0,0,0,0,-1,1483,862,0,0
266,162,0,0,0,0,0,0,0,0,0,-1,1490,862,0,0
273,162,0,0,0,0,0,0,0,0,0,-1,1497,862,0,0
280,162,0,0,0,0,0,0,0,0,0,-1,1504,862,0,0
287,162,0,0,0,0,0,0,0,0,0,-1,1511,862,0,0
294,162,0,0,0,0,0,0,0,0,0,-1,1518,862,0,0
301,162,0,0,0,0,0,0,0,0,0,-1,1525,862,0,0
308,162,0,0,0,0,0,0,0,0,0,-1,1532,862,0,0
315,162,0,0,0,0,0,0,0,0,0,-1,1539,862,0,0
322,162,0,0,0,0,0,0,0,0,0,-1,1546,862,0,0
329,162,0,0,0,0,0,0,0,0,0,-1,1553,862,0,0
336,162,0,0,0,0,0,0,0,0,0,-1,1560,862,0,0
343,162,0,0,0,0,0,0,0,0,0,-1,1567,862,0,0
350,162,0,0,0,0,0,0,0,0,0,-1,1574,862,0,0
357,162,0,0,0,0,0,0,0,0,0,-1,1581,862,0,0
364,162,0,0,0,0,0,0,0,0,0,-1,1588,862,0,0
371,162,0,0,0,0,0,0,0,0,0,-1,1595,862,0,0
378,162,0,0,0,0,0,0,0,0,0,-1,1602,862,0,0
385,162,0,0,0,0,0,0,0,0,0,-1,1609,862,0,0
392,162,0,0,0,0,0,0,0,0,0,-1,1616,862,0,0
399,162,0,0,0,0,0,0,0,0,0,-1,1623,862,0,0
406,162,0,0,0,0,0,0,0,0,0,-1,1630,862,0,0
413,162,0,0,0,0,0,0,0,0,0,-1,1637,862,0,0
420,162,0,0,0,0,0,0,0,0,0,-1,1644,862,0,0
427,162,0,0,0,0,0,0,0,0,0,-1,1651,862,0,0
434,162,0,0,0,0,0,0,0,0,0,-1,1658,862,0,0
441,162,0,0,0,0,0,0,0,0,0,-1,1665,862,0,0
448,162,0,0,0,0,0,0,0,0,0,-1,1672,862,0,0
455,162,0,0,0,0,0,0,0,0,0,-1,1679,862,0,0
462,162,0,0,0,0,0,0,0,0,0,-1,1686,862,0,0
469,162,0,0,0,0,0,0,0,0,0,-1,1693,862,0,0
476,162,0,0,0,0,0,0,0,0,0,-1,1700,862,0,0
483,162,0,0,0,0,0,0,0,0,0,-1,1707,862,0,0
490,162,0,0,0,0,0,0,0,0,0,-1,1714,862,0,0
497,162,0,0,0,0,0,0,0,0,0,-1,1721,862,0,0
504,162,0,0,0,0,0,0,0,0,0,-1,1728,862,0,0
511,162,0,0,0,0,0,0,0,0,0,-1,1735,862,0,0
518,162,0,0,0,0,0,0,0,0,0,-1,1742,862,0,0
525,162,0,0,0,0,0,0,0,0,0,-1,1749,862,0,0
532,162,0,0,0,0,0,0,0,0,0,-1,1756,862,0,0
539,162,0,0,0,0,0,0,0,0,0,-1,1763,862,0,0
546,162,0,0,0,0,0,0,0,0,0,-1,1770,862,0,0
553,162,0,0,0,0,0,0,0,0,0,-1,1777,862,0,0
560,162,0,0,0,0,0,0,0,0,0,-1,1784,862,0,0
567,162,0,0,0,0,0,0,0,0,0,-1,1791,862,0,0
574,162,0,0,0,0,0,0,0,0,0,-1,1798,862,0,0
581,162,0,0,0,0,0,0,0,0,0,-1,1805,862,0,0
588,162,0,0,0,0,0,0,0,0,0,-1,1812,862,0,0
595,162,0,0,0,0,0,0,0,0,0,-1,1819,862,0,0
602,162,0,0,0,0,0,0,0,0,0,-1,1826,862,0,0
609,162,0,0,0,0,0,0,0,0,0,-1,1833,862,0,0
616,162,22.2793,3.14215,0.0044558,0.00525914,0.00134842,0.00626445,0.0034505,0.930153,0.003623,0.0469646,1840,862,22.2793,-3.14212
623,162,22.4745,3.32208,0.00395865,0.00335087,0.000428746,0.00418028,0.00312924,0.477097,0.00251093,0.0450933,1847,862,22.4745,-3.32208
630,162,22.4148,3.14508,0.00379016,0.00164534,-0.000209882,0.0038105,0.001625,-0.0966343,0.00220792,0.0403121,1854,862,22.4148,-3.14508
637,162,22.3907,2.97919,0.00346202,0.000365367,-0.000612419,0.00357873,0.000248649,-0.188326,0.00230741,0.0381729,1861,862,22.3907,-2.97917
644,162,22.3973,2.98401,0.00245772,-0.00042173,-0.000862654,0.00269638,-0.000660391,-0.269908,0.00205342,0.0367876,1868,862,22.3974,-2.984
651,162,22.3611,2.95258,0.00134414,-0.000873938,-0.000950256,0.00169556,-0.00122536,-0.354222,0.00169367,0.0350484,1875,862,22.3611,-2.95257
658,162,22.3236,2.87476,0.000362597,-0.00117895,-0.000989245,0.000845896,-0.00166225,-0.454449,0.00147342,0.0356295,1882,862,22.3236,-2.87478
665,162,22.3727,2.82269,-0.000640994,-0.0012247,-0.00102259,0.000130581,-0.00199627,-0.646392,0.00137644,0.0414755,1889,862,22.3727,-2.82271
672,162,22.3864,2.79437,0,0,0,0,0,0,0,-1,1896,862,22.3864,-2.79435
679,162,18.8947,2.41925,0,0,0,0,0,0,0,-1,1903,862,18.8947,-2.41925
686,162,18.8159,2.63251,-0.00292358,-0.000989858,-0.000789966,-0.000708173,-0.00320526,-1.22827,0.00194426,0.0334856,1910,862,18.8159,-2.63253
693,162,18.8055,2.83148,-0.00337228,-0.000804583,-0.000783692,-0.000584291,-0.00359257,-1.29677,0.002226,0.0163137,1917,862,18.8056,-2.83148
700,162,18.8527,3.02563,-0.00329549,-0.000595861,-0.000797094,-0.000378079,-0.00351327,-1.30409,0.00222688,0.0144442,1924,862,18.8527,-3.02564
707,162,18.8403,3.19403,-0.00266929,-0.000338686,-0.000709629,-0.000139619,-0.00286836,-1.2973,0.00186744,0.0112733,1931,862,18.8403,-3.19402
714,162,18.8226,3.37189,-0.00100806,-0.000176728,-0.000977099,0.000469446,-0.00165423,-0.986505,0.00128814,0.0154538,1938,862,18.8226,-3.37192
721,162,18.7433,3.65558,0.00219368,-0.000293063,-0.00130741,0.00275455,-0.000853933,-0.405249,0.00217755,0.0283646,1945,862,18.7432,-3.65556
728,162,18.756,3.81189,0.00646051,-0.000693186,-0.00179339,0.00688492,-0.0011176,-0.232379,0.00500425,0.0235168,1952,862,18.756,-3.81188
735,162,18.7926,4.00549,0.0118613,-0.0013011,-0.00253969,0.0123343,-0.00177413,-0.184147,0.00887356,0.0119711,1959,862,18.7926,-4.00546
742,162,18.7982,4.19135,0.0181109,-0.00258097,-0.00336982,0.0186459,-0.00311594,-0.157439,0.0135888,0.0123632,1966,862,18.7982,-4.19137
749,162,18.7732,4.36816,0.0250709,-0.00464117,-0.00430291,0.0256815,-0.00525177,-0.140963,0.0191136,0.0165755,1973,862,18.7731,-4.36814
756,162,18.7889,4.51471,0.0335802,-0.00766443,-0.00559499,0.0343257,-0.00840994,-0.132465,0.026142,0.0392233,1980,862,18.789,-4.51469
763,162,18.868,4.71802,0,0,0,0,0,0,0,-1,1987,862,18.868,-4.71804
770,162,18.4939,4.16443,0,0,0,0,0,0,0,-1,1994,862,18.4939,-4.16444
777,162,17.947,3.97723,0,0,0,0,0,0,0,-1,2001,862,17.947,-3.97721
784,162,17.6012,3.58612,0,0,0,0,0,0,0,-1,2008,862,17.6012,-3.58613
791,162,0,0,0,0,0,0,0,0,0,-1,2015,862,0,0
798,162,0,0,0,0,0,0,0,0,0,-1,2022,862,0,0
805,162,0,0,0,0,0,0,0,0,0,-1,2029,862,0,0
812,162,0,0,0,0,0,0,0,0,0,-1,2036,862,0,0
-700,155,0,0,0,0,0,0,0,0,0,-1,524,869,0,0
-693,155,0,0,0,0,0,0,0,0,0,-1,531,869,0,0
-686,155,0,0,0,0,0,0,0,0,0,-1,538,869,0,0
-679,155,0,0,0,0,0,0,0,0,0,-1,545,869,0,0
-672,155,0,0,0,0,0,0,0,0,0,-1,552,869,0,0
-665,155,-8.01715,-2.42883,0,0,0,0,0,0,0,-1,559,869,-8.01713,2.42881
-658,155,-8.49677,-1.60022,0,0,0,0,0,0,0,-1,566,869,-8.49678,1.60019
-651,155,-8.99353,-0.760254,0,0,0,0,0,0,0,-1,573,869,-8.99353,0.760228
-644,155,-9.76904,0.24762,0,0,0,0,0,0,0,-1,580,869,-9.76902,-0.247619
-637,155,-13.0175,2.56165,0,0,0,0,0,0,0,-1,587,869,-13.0175,-2.56167
-630,155,-12.4214,2.26428,0,0,0,0,0,0,0,-1,594,869,-12.4214,-2.26429
-623,155,-12.2762,2.16571,-0.0143963,0.014464,0.00215851,0.0146245,-0.0145568,1.49655,0.0168479,0.0259589,601,869,-12.2762,-2.16571
-616,155,-12.312,1.97266,-0.0115052,0.00785105,0.00292702,0.00828398,-0.0119381,1.42395,0.0117386,0.014052,608,869,-12.312,-1.97264
-609,155,-12.3297,1.79913,-0.00853862,0.00325347,0.00320205,0.00406685,-0.00935201,1.32204,0.00794516,0.012921,615,869,-12.3297,-1.79912
-602,155,-12.3416,1.60284,-0.00689806,0.000338986,0.00336212,0.00165985,-0.00821893,1.19645,0.00610821,0.0122861,622,869,-12.3415,-1.60287
-595,155,-12.3441,1.42712,-0.00668507,-0.00139798,0.00325371,0.000150725,-0.00823378,1.12655,0.00554011,0.0113853,629,869,-12.3441,-1.42715
-588,155,-12.3285,1.27063,-0.00658796,-0.0025906,0.00312892,-0.000876484,-0.00830208,1.06962,0.00526692,0.0122672,636,869,-12.3285,-1.27063
-581,155,-12.4075,1.10431,-0.00744171,-0.00270474,0.00312946,-0.00114853,-0.00899792,1.10933,0.00565478,0.0172696,643,869,-12.4075,-1.10433
-574,155,-12.4646,0.956238,-0.00894674,-0.0025588,0.00322844,-0.00121137,-0.0102942,1.17541,0.00649674,0.0225288,650,869,-12.4646,-0.956241
-567,155,-12.4302,0.730957,-0.0101603,-0.00264234,0.00343906,-0.00130651,-0.0114961,1.2003,0.00726782,0.023215,657,869,-12.4302,-0.730968
-560,155,-12.3851,0.490906,-0.0110137,-0.00251008,0.00356964,-0.00121029,-0.0123135,1.2216,0.00783677,0.0220808,664,869,-12.3851,-0.490927
-553,155,-12.3937,0.397095,-0.0116953,-0.00220834,0.00365896,-0.000961108,-0.0129425,1.24228,0.00832648,0.0424418,671,869,-12.3937,-0.397086
-546,155,-13.6857,0.661865,-0.0120392,-0.00158439,0.00376498,-0.000369681,-0.0132539,1.25871,0.00871534,0.0479629,678,869,-13.6857,-0.661836
-539,155,-14.8024,0.834656,0,0,0,0,0,0,0,-1,685,869,-14.8024,-0.834665
-532,155,-14.8888,1.00665,-0.0110305,5.59937e-05,0.00341763,0.00102487,-0.0119994,1.29455,0.00836219,0.0349063,692,869,-14.8888,-1.00668
-525,155,-14.8441,1.11139,-0.00938756,0.00124771,0.00303963,0.00205515,-0.010195,1.31115,0.00757522,0.0363121,699,869,-14.8441,-1.11139
-518,155,-14.9187,1.05988,-0.00665126,0.00257216,0.00254743,0.00322897,-0.00730806,1.31846,0.00623366,0.0419075,706,869,-14.9187,-1.05986
-511,155,-14.9376,0.802002,-0.0026343,0.0038093,0.0019596,0.00435845,-0.00318344,1.29757,0.00437189,0.0448045,713,869,-14.9376,-0.801972
-504,155,-14.9385,0.646484,0.00213062,0.00448993,0.00150546,0.00522286,0.00139769,1.11772,0.0031221,0.0411485,720,869,-14.9385,-0.646512
-497,155,0,0,0,0,0,0,0,0,0,-1,727,869,0,0
-490,155,0,0,0,0,0,0,0,0,0,-1,734,869,0,0
-483,155,0,0,0,0,0,0,0,0,0,-1,741,869,0,0
-476,155,0,0,0,0,0,0,0,0,0,-1,748,869,0,0
-469,155,0,0,0,0,0,0,0,0,0,-1,755,869,0,0
-462,155,0,0,0,0,0,0,0,0,0,-1,762,869,0,0
-455,155,0,0,0,0,0,0,0,0,0,-1,769,869,0,0
-448,155,0,0,0,0,0,0,0,0,0,-1,776,869,0,0
-441,155,0,0,0,0,0,0,0,0,0,-1,783,869,0,0
-434,155,0,0,0,0,0,0,0,0,0,-1,790,869,0,0
-427,155,0,0,0,0,0,0,0,0,0,-1,797,869,0,0
-420,155,0,0,0,0,0,0,0,0,0,-1,804,869,0,0
-413,155,0,0,0,0,0,0,0,0,0,-1,811,869,0,0
-406,155,0,0,0,0,0,0,0,0,0,-1,818,869,0,0
-399,155,0,0,0,0,0,0,0,0,0,-1,825,869,0,0
-392,155,0,0,0,0,0,0,0,0,0,-1,832,869,0,0
-385,155,0,0,0,0,0,0,0,0,0,-1,839,869,0,0
-378,155,0,0,0,0,0,0,0,0,0,-1,846,869,0,0
-371,155,0,0,0,0,0,0,0,0,0,-1,853,869,0,0
-364,155,0,0,0,0,0,0,0,0,0,-1,860,869,0,0
-357,155,0,0,0,0,0,0,0,0,0,-1,867,869,0,0
-350,155,0,0,0,0,0,0,0,0,0,-1,874,869,0,0
-343,155,0,0,0,0,0,0,0,0,0,-1,881,869,0,0
-336,155,0,0,0,0,0,0,0,0,0,-1,888,869,0,0
-329,155,0,0,0,0,0,0,0,0,0,-1,895,869,0,0
-322,155,0,0,0,0,0,0,0,0,0,-1,902,869,0,0
-315,155,0,0,0,0,0,0,0,0,0,-1,909,869,0,0
-308,155,0,0,0,0,0,0,0,0,0,-1,916,869,0,0
-301,155,0,0,0,0,0,0,0,0,0,-1,923,869,0,0
-294,155,0,0,0,0,0,0,0,0,0,-1,930,869,0,0
-287,155,0,0,0,0,0,0,0,0,0,-1,937,869,0,0
-280,155,0,0,0,0,0,0,0,0,0,-1,944,869,0,0
-273,155,0,0,0,0,0,0,0,0,0,-1,951,869,0,0
-266,155,0,0,0,0,0,0,0,0,0,-1,958,869,0,0
-259,155,0,0,0,0,0,0,0,0,0,-1,965,869,0,0
-252,155,0,0,0,0,0,0,0,0,0,-1,972,869,0,0
-245,155,0,0,0,0,0,0,0,0,0,-1,979,869,0,0
-238,155,0,0,0,0,0,0,0,0,0,-1,986,869,0,0
-231,155,0,0,0,0,0,0,0,0,0,-1,993,869,0,0
-224,155,0,0,0,0,0,0,0,0,0,-1,1000,869,0,0
-217,155,0,0,0,0,0,0,0,0,0,-1,1007,869,0,0
-210,155,0,0,0,0,0,0,0,0,0,-1,1014,869,0,0
-203,155,0,0,0,0,0,0,0,0,0,-1,1021,869,0,0
-196,155,0,0,0,0,0,0,0,0,0,-1,1028,869,0,0
-189,155,0,0,0,0,0,0,0,0,0,-1,1035,869,0,0
-182,155,0,0,0,0,0,0,0,0,0,-1,1042,869,0,0
-175,155,0,0,0,0,0,0,0,0,0,-1,1049,869,0,0
-168,155,0,0,0,0,0,0,0,0,0,-1,1056,869,0,0
-161,155,0,0,0,0,0,0,0,0,0,-1,1063,869,0,0
-154,155,0,0,0,0,0,0,0,0,0,-1,1070,869,0,0
-147,155,0,0,0,0,0,0,0,0,0,-1,1077,869,0,0
-140,155,0,0,0,0,0,0,0,0,0,-1,1084,869,0,0
-133,155,0,0,0,0,0,0,0,0,0,-1,1091,869,0,0
-126,155,0,0,0,0,0,0,0,0,0,-1,1098,869,0,0
-119,155,0,0,0,0,0,0,0,0,0,-1,1105,869,0,0
-112,155,0,0,0,0,0,0,0,0,0,-1,1112,869,0,0
-105,155,0,0,0,0,0,0,0,0,0,-1,1119,869,0,0
-98,155,0,0,0,0,0,0,0,0,0,-1,1126,869,0,0
-91,155,0,0,0,0,0,0,0,0,0,-1,1133,869,0,0
-84,155,0,0,0,0,0,0,0,0,0,-1,1140,869,0,0
-77,155,0,0,0,0,0,0,0,0,0,-1,1147,869,0,0
-70,155,0,0,0,0,0,0,0,0,0,-1,1154,869,0,0
-63,155,0,0,0,0,0,0,0,0,0,-1,1161,869,0,0
-56,155,0,0,0,0,0,0,0,0,0,-1,1168,869,0,0
-49,155,0,0,0,0,0,0,0,0,0,-1,1175,869,0,0
-42,155,0,0,0,0,0,0,0,0,0,-1,1182,869,0,0
-35,155,0,0,0,0,0,0,0,0,0,-1,1189,869,0,0
-28,155,0,0,0,0,0,0,0,0,0,-1,1196,869,0,0
-21,155,0,0,0,0,0,0,0,0,0,-1,1203,869,0,0
-14,155,0,0,0,0,0,0,0,0,0,-1,1210,869,0,0
-7,155,0,0,0,0,0,0,0,0,0,-1,1217,869,0,0
0,155,0,0,0,0,0,0,0,0,0,-1,1224,869,0,0
7,155,0,0,0,0,0,0,0,0,0,-1,1231,869,0,0
14,155,0,0,0,0,0,0,0,0,0,-1,1238,869,0,0
21,155,0,0,0,0,0,0,0,0,0,-1,1245,869,0,0
28,155,0,0,0,0,0,0,0,0,0,-1,1252,869,0,0
35,155,0,0,0,0,0,0,0,0,0,-1,1259,869,0,0
42,155,0,0,0,0,0,0,0,0,0,-1,1266,869,0,0
49,155,0,0,0,0,0,0,0,0,0,-1,1273,869,0,0
56,155,0,0,0,0,0,0,0,0,0,-1,1280,869,0,0
63,155,0,0,0,0,0,0,0,0,0,-1,1287,869,0,0
70,155,0,0,0,0,0,0,0,0,0,-1,1294,869,0,0
77,155,0,0,0,0,0,0,0,0,0,-1,1301,869,0,0
84,155,0,0,0,0,0,0,0,0,0,-1,1308,869,0,0
91,155,0,0,0,0,0,0,0,0,0,-1,1315,869,0,0
98,155,0,0,0,0,0,0,0,0,0,-1,1322,869,0,0
105,155,0,0,0,0,0,0,0,0,0,-1,1329,869,0,0
112,155,0,0,0,0,0,0,0,0,0,-1,1336,869,0,0
119,155,0,0,0,0,0,0,0,0,0,-1,1343,869,0,0
126,155,0,0,0,0,0,0,0,0,0,-1,1350,869,0,0
133,155,0,0,0,0,0,0,0,0,0,-1,1357,869,0,0
140,155,0,0,0,0,0,0,0,0,0,-1,1364,869,0,0
147,155,0,0,0,0,0,0,0,0,0,-1,1371,869,0,0
154,155,0,0,0,0,0,0,0,0,0,-1,1378,869,0,0
161,155,0,0,0,0,0,0,0,0,0,-1,1385,869,0,0
168,155,0,0,0,0,0,0,0,0,0,-1,1392,869,0,0
175,155,0,0,0,0,0,0,0,0,0,-1,1399,869,0,0
182,155,0,0,0,0,0,0,0,0,0,-1,1406,869,0,0
189,155,0,0,0,0,0,0,0,0,0,-1,1413,869,0,0
196,155,0,0,0,0,0,0,0,0,0,-1,1420,869,0,0
203,155,0,0,0,0,0,0,0,0,0,-1,1427,869,0,0
210,155,0,0,0,0,0,0,0,0,0,-1,1434,869,0,0
217,155,0,0,0,0,0,0,0,0,0,-1,1441,869,0,0
224,155,0,0,0,0,0,0,0,0,0,-1,1448,869,0,0
231,155,0,0,0,0,0,0,0,0,0,-1,1455,869,0,0
238,155,0,0,0,0,0,0,0,0,0,-1,1462,869,0,0
245,155,0,0,0,0,0,0,0,0,0,-1,1469,869,0,0
252,155,0,0,0,0,0,0,0,0,0,-1,1476,869,0,0
259,155,0,0,0,0,0,0,0,0,0,-1,1483,869,0,0
266,155,0,0,0,0,0,0,0,0,0,-1,1490,869,0,0
273,155,0,0,0,0,0,0,0,0,0,-1,1497,869,0,0
280,155,0,0,0,0,0,0,0,0,0,-1,1504,869,0,0
287,155,0,0,0,0,0,0,0,0,0,-1,1511,869,0,0
294,155,0,0,0,0,0,0,0,0,0,-1,1518,869,0,0
301,155,0,0,0,0,0,0,0,0,0,-1,1525,869,0,0
308,155,0,0,0,0,0,0,0,0,0,-1,1532,869,0,0
315,155,0,0,0,0,0,0,0,0,0,-1,1539,869,0,0
322,155,0,0,0,0,0,0,0,0,0,-1,1546,869,0,0
329,155,0,0,0,0,0,0,0,0,0,-1,1553,869,0,0
336,155,0,0,0,0,0,0,0,0,0,-1,1560,869,0,0
343,155,0,0,0,0,0,0,0,0,0,-1,1567,869,0,0
350,155,0,0,0,0,0,0,0,0,0,-1,1574,869,0,0
357,155,0,0,0,0,0,0,0,0,0,-1,1581,869,0,0
364,155,0,0,0,0,0,0,0,0,0,-1,1588,869,0,0
371,155,0,0,0,0,0,0,0,0,0,-1,1595,869,0,0
378,155,0,0,0,0,0,0,0,0,0,-1,1602,869,0,0
385,155,0,0,0,0,0,0,0,0,0,-1,1609,869,0,0
392,155,0,0,0,0,0,0,0,0,0,-1,1616,869,0,0
399,155,0,0,0,0,0,0,0,0,0,-1,1623,869,0,0
406,155,0,0,0,0,0,0,0,0,0,-1,1630,869,0,0
413,155,0,0,0,0,0,0,0,0,0,-1,1637,869,0,0
420,155,0,0,0,0,0,0,0,0,0,-1,1644,869,0,0
427,155,0,0,0,0,0,0,0,0,0,-1,1651,869,0,0
434,155,0,0,0,0,0,0,0,0,0,-1,1658,869,0,0
441,155,0,0,0,0,0,0,0,0,0,-1,1665,869,0,0
448,155,0,0,0,0,0,0,0,0,0,-1,1672,869,0,0
455,155,0,0,0,0,0,0,0,0,0,-1,1679,869,0,0
462,155,0,0,0,0,0,0,0,0,0,-1,1686,869,0,0
469,155,0,0,0,0,0,0,0,0,0,-1,1693,869,0,0
476,155,0,0,0,0,0,0,0,0,0,-1,1700,869,0,0
483,155,0,0,0,0,0,0,0,0,0,-1,1707,869,0,0
490,155,0,0,0,0,0,0,0,0,0,-1,1714,869,0,0
497,155,0,0,0,0,0,0,0,0,0,-1,1721,869,0,0
504,155,0,0,0,0,0,0,0,0,0,-1,1728,869,0,0
511,155,0,0,0,0,0,0,0,0,0,-1,1735,869,0,0
518,155,0,0,0,0,0,0,0,0,0,-1,1742,869,0,0
525,155,0,0,0,0,0,0,0,0,0,-1,1749,869,0,0
532,155,0,0,0,0,0,0,0,0,0,-1,1756,869,0,0
539,155,0,0,0,0,0,0,0,0,0,-1,1763,869,0,0
546,155,0,0,0,0,0,0,0,0,0,-1,1770,869,0,0
553,155,0,0,0,0,0,0,0,0,0,-1,1777,869,0,0
560,155,0,0,0,0,0,0,0,0,0,-1,1784,869,0,0
567,155,0,0,0,0,0,0,0,0,0,-1,1791,869,0,0
574,155,0,0,0,0,0,0,0,0,0,-1,1798,869,0,0
581,155,0,0,0,0,0,0,0,0,0,-1,1805,869,0,0
588,155,0,0,0,0,0,0,0,0,0,-1,1812,869,0,0
595,155,0,0,0,0,0,0,0,0,0,-1,1819,869,0,0
602,155,0,0,0,0,0,0,0,0,0,-1,1826,869,0,0
609,155,0,0,0,0,0,0,0,0,0,-1,1833,869,0,0
616,155,22.4313,3.25562,0.00441151,0.0062956,0.00148953,0.00711598,0.00359113,1.06737,0.00410847,0.0454241,1840,869,22.4313,-3.25563
623,155,22.3467,3.09888,0.00389221,0.00461884,0.000712063,0.00505492,0.00345613,1.0213,0.00298341,0.0396609,1847,869,22.3467,-3.09888
630,155,22.3417,2.93964,0.00359097,0.00300152,0.000151543,0.00362765,0.00296484,0.237464,0.00223057,0.0402358,1854,869,22.3417,-2.93963
637,155,22.2919,2.93311,0.00314107,0.00169258,-0.000262429,0.00318714,0.0016465,-0.173817,0.00184044,0.0404625,1861,869,22.2919,-2.93313
644,155,22.3898,2.88934,0.00189643,0.000768667,-0.000563924,0.00213003,0.00053507,-0.392718,0.00127951,0.0370533,1868,869,22.3898,-2.88933
651,155,22.4495,2.88397,0.000436465,0.000170768,-0.000728292,0.00104393,-0.000436692,-0.695184,0.000878472,0.0339072,1875,869,22.4495,-2.88399
658,155,22.3661,2.85999,-0.000849509,-0.000267792,-0.000828254,0.00031919,-0.00143649,-0.954257,0.0010799,0.0283164,1882,869,22.3661,-2.85997
665,155,22.3323,2.83685,-0.00204813,-0.000454785,-0.000903126,-4.71629e-05,-0.00245575,-1.14682,0.00162167,0.0332443,1889,869,22.3323,-2.83682
672,155,22.3484,2.83209,-0.00310852,-0.000435948,-0.000912475,-0.000154127,-0.00339034,-1.27124,0.00221065,0.043419,1896,869,22.3484,-2.83212
679,155,22.3651,2.83997,0,0,0,0,0,0,0,-1,1903,869,22.3651,-2.83997
686,155,19.0303,2.76007,0,0,0,0,0,0,0,-1,1910,869,19.0302,-2.76008
693,155,18.9893,2.82703,-0.00497566,-0.000495511,-0.000819564,-0.000350294,-0.00512088,-1.39543,0.00330335,0.0229604,1917,869,18.9892,-2.82703
700,155,19.0565,3.04028,-0.00491826,-0.000376764,-0.000835793,-0.000227833,-0.00506719,-1.39446,0.0033048,0.0166938,1924,869,19.0565,-3.04028
707,155,19.1178,3.26563,-0.00429225,-0.000166554,-0.000693045,-5.32467e-05,-0.00440555,-1.40874,0.00291945,0.0124431,1931,869,19.1178,-3.26561
714,155,19.0594,3.41718,-0.00272322,1.40987e-05,-0.000789263,0.000225365,-0.00293448,-1.30925,0.00203561,0.0208296,1938,869,19.0595,-3.41716
721,155,18.9619,3.63489,0.000180011,-1.63084e-05,-0.000956255,0.00104313,-0.000879428,-0.734252,0.00111133,0.0230644,1945,869,18.9619,-3.63489
728,155,18.9508,3.82257,0.00388049,-0.00017328,-0.00117759,0.00419775,-0.00049053,-0.263159,0.00297552,0.0192974,1952,869,18.9507,-3.82259
735,155,18.9939,3.98346,0.00847687,-0.000389922,-0.00157663,0.00874887,-0.000661924,-0.170839,0.00606527,0.015822,1959,869,18.9939,-3.98348
742,155,19.0144,4.18555,0.0135233,-0.00121037,-0.00184187,0.01375,-0.00143714,-0.1225,0.00968137,0.0166822,1966,869,19.0143,-4.18552
749,155,18.9995,4.37616,0.0186254,-0.0028699,-0.00191065,0.0187939,-0.00303841,-0.0879681,0.0136552,0.0137593,1973,869,18.9995,-4.37618
756,155,19.0096,4.56927,0.0245643,-0.00513496,-0.00212776,0.0247159,-0.00528663,-0.0711594,0.0184931,0.0245944,1980,869,19.0097,-4.5693
763,155,19.0219,4.77454,0.03115,-0.0088368,-0.00192458,0.0312425,-0.00892921,-0.0479826,0.0243565,0.0448603,1987,869,19.0218,-4.77456
770,155,19.0221,4.97888,0,0,0,0,0,0,0,-1,1994,869,19.0221,-4.97891
777,155,19.3446,4.60803,0,0,0,0,0,0,0,-1,2001,869,19.3446,-4.60801
784,155,18.4559,2.99426,0,0,0,0,0,0,0,-1,2008,869,18.4559,-2.99428
791,155,0,0,0,0,0,0,0,0,0,-1,2015,869,0,0
798,155,0,0,0,0,0,0,0,0,0,-1,2022,869,0,0
805,155,0,0,0,0,0,0,0,0,0,-1,2029,869,0,0
812,155,0,0,0,0,0,0,0,0,0,-1,2036,869,0,0
-700,148,0,0,0,0,0,0,0,0,0,-1,524,876,0,0
-693,148,0,0,0,0,0,0,0,0,0,-1,531,876,0,0
-686,148,0,0,0,0,0,0,0,0,0,-1,538,876,0,0
-679,148,0,0,0,0,0,0,0,0,0,-1,545,876,0,0
-672,148,-11.7074,5.49036,-0.0169617,0.123409,-0.0220831,0.126801,-0.0203539,-1.41838,0.0920717,0.0472284,552,876,-11.7074,-5.49038
-665,148,-11.6753,4.65082,-0.0225985,0.0995294,-0.0145182,0.101232,-0.0243007,-1.45409,0.0768789,0.0494626,559,876,-11.6753,-4.65079
-658,148,-11.721,3.91687,-0.0244344,0.0789568,-0.00880666,0.0797016,-0.0251792,-1.48643,0.0632215,0.0499012,566,876,-11.721,-3.91685
-651,148,-11.0856,3.23315,0,0,0,0,0,0,0,-1,573,876,-11.0857,-3.23316
-644,148,-13.0835,2.58447,0,0,0,0,0,0,0,-1,580,876,-13.0835,-2.5845
-637,148,-12.2764,2.63898,0,0,0,0,0,0,0,-1,587,876,-12.2764,-2.63896
-630,148,-12.3286,2.40924,-0.016398,0.0239231,0.00202782,0.0240248,-0.0164997,1.52067,0.0235309,0.0460859,594,876,-12.3285,-2.40921
-623,148,-12.3745,2.13794,-0.013883,0.0156352,0.00266549,0.015874,-0.0141218,1.48146,0.0173279,0.0231085,601,876,-12.3745,-2.13793
-616,148,-12.4734,1.9469,-0.0113553,0.00879651,0.00326406,0.00931201,-0.0118708,1.41416,0.0122596,0.0129384,608,876,-12.4734,-1.94693
-609,148,-12.5021,1.78156,-0.00851299,0.0037995,0.00345009,0.00470034,-0.00941383,1.31539,0.00829891,0.0119096,615,876,-12.5021,-1.78154
-602,148,-12.5258,1.5885,-0.0069961,0.000646216,0.00350152,0.0020079,-0.00835779,1.19991,0.00634791,0.0129914,622,876,-12.5258,-1.5885
-595,148,-12.5259,1.41986,-0.00701049,-0.00123684,0.00332895,0.000282657,-0.00852999,1.14259,0.00578318,0.0114795,629,876,-12.5259,-1.41986
-588,148,-12.533,1.24353,-0.0071319,-0.00240391,0.0030603,-0.000900879,-0.00863494,1.11426,0.00548107,0.0142993,636,876,-12.533,-1.24352
-581,148,-12.5996,1.07697,-0.00803608,-0.00261076,0.00300131,-0.00127789,-0.00936896,1.15286,0.00586659,0.0216912,643,876,-12.5996,-1.07696
-574,148,-12.4727,0.97644,-0.00941668,-0.00258074,0.00308977,-0.0013912,-0.0106062,1.20329,0.00665573,0.0250968,650,876,-12.4727,-0.976421
-567,148,-12.5751,0.767761,-0.0104948,-0.00275321,0.00327234,-0.00155535,-0.0116927,1.21989,0.00733188,0.031871,657,876,-12.5751,-0.767738
-560,148,-12.5482,0.517395,-0.0112343,-0.00276705,0.00339829,-0.00157187,-0.0124294,1.23261,0.00781521,0.0325393,664,876,-12.5482,-0.517394
-553,148,-13.4378,0.796143,-0.0118042,-0.00259399,0.00347901,-0.00142757,-0.0129706,1.2473,0.0082127,0.0418655,671,876,-13.4378,-0.796131
-546,148,-14.0236,0.87616,0,0,0,0,0,0,0,-1,678,876,-14.0235,-0.876136
-539,148,-14.9043,0.949829,-0.0117021,-0.00144835,0.00339237,-0.00042762,-0.0127228,1.27852,0.00834298,0.0368503,685,876,-14.9043,-0.949803
-532,148,-14.8777,1.02771,-0.0105955,-0.0005364,0.00307131,0.000327205,-0.0114591,1.29669,0.00775078,0.0356996,692,876,-14.8777,-1.02769
-525,148,-14.858,1.13068,-0.00861994,0.000658445,0.00258031,0.00132775,-0.00928924,1.317,0.00667954,0.0372062,699,876,-14.858,-1.13066
-518,148,-14.8887,1.16632,-0.00539301,0.00208669,0.00193091,0.00255575,-0.00586207,1.33249,0.00498342,0.0444067,706,876,-14.8887,-1.16634
-511,148,-14.8843,1.20282,-0.000961796,0.00354553,0.00116877,0.00383058,-0.00124684,1.33158,0.00305534,0.0439451,713,876,-14.8843,-1.20283
-504,148,-14.8889,1.44226,0.00382702,0.00456056,0.00066571,0.00495385,0.00343373,1.03718,0.00293037,0.0437085,720,876,-14.8889,-1.44225
-497,148,0,0,0,0,0,0,0,0,0,-1,727,876,0,0
-490,148,0,0,0,0,0,0,0,0,0,-1,734,876,0,0
-483,148,0,0,0,0,0,0,0,0,0,-1,741,876,0,0
-476,148,0,0,0,0,0,0,0,0,0,-1,748,876,0,0
-469,148,0,0,0,0,0,0,0,0,0,-1,755,876,0,0
-462,148,0,0,0,0,0,0,0,0,0,-1,762,876,0,0
-455,148,0,0,0,0,0,0,0,0,0,-1,769,876,0,0
-448,148,0,0,0,0,0,0,0,0,0,-1,776,876,0,0
-441,148,0,0,0,0,0,0,0,0,0,-1,783,876,0,0
-434,148,0,0,0,0,0,0,0,0,0,-1,790,876,0,0
-427,148,0,0,0,0,0,0,0,0,0,-1,797,876,0,0
-420,148,0,0,0,0,0,0,0,0,0,-1,804,876,0,0
-413,148,0,0,0,0,0,0,0,0,0,-1,811,876,0,0
-406,148,0,0,0,0,0,0,0,0,0,-1,818,876,0,0
-399,148,0,0,0,0,0,0,0,0,0,-1,825,876,0,0
-392,148,0,0,0,0,0,0,0,0,0,-1,832,876,0,0
-385,148,0,0,0,0,0,0,0,0,0,-1,839,876,0,0
-378,148,0,0,0,0,0,0,0,0,0,-1,846,876,0,0
-371,148,0,0,0,0,0,0,0,0,0,-1,853,876,0,0
-364,148,0,0,0,0,0,0,0,0,0,-1,860,876,0,0
-357,148,0,0,0,0,0,0,0,0,0,-1,867,876,0,0
-350,148,0,0,0,0,0,0,0,0,0,-1,874,876,0,0
-343,148,0,0,0,0,0,0,0,0,0,-1,881,876,0,0
-336,148,0,0,0,0,0,0,0,0,0,-1,888,876,0,0
-329,148,0,0,0,0,0,0,0,0,0,-1,895,876,0,0
-322,148,0,0,0,0,0,0,0,0,0,-1,902,876,0,0
-315,148,0,0,0,0,0,0,0,0,0,-1,909,876,0,0
-308,148,0,0,0,0,0,0,0,0,0,-1,916,876,0,0
-301,148,0,0,0,0,0,0,0,0,0,-1,923,876,0,0
-294,148,0,0,0,0,0,0,0,0,0,-1,930,876,0,0
-287,148,0,0,0,0,0,0,0,0,0,-1,937,876,0,0
-280,148,0,0,0,0,0,0,0,0,0,-1,944,876,0,0
-273,148,0,0,0,0,0,0,0,0,0,-1,951,876,0,0
-266,148,0,0,0,0,0,0,0,0,0,-1,958,876,0,0
-259,148,0,0,0,0,0,0,0,0,0,-1,965,876,0,0
-252,148,0,0,0,0,0,0,0,0,0,-1,972,876,0,0
-245,148,0,0,0,0,0,0,0,0,0,-1,979,876,0,0
-238,148,0,0,0,0,0,0,0,0,0,-1,986,876,0,0
-231,148,0,0,0,0,0,0,0,0,0,-1,993,876,0,0
-224,148,0,0,0,0,0,0,0,0,0,-1,1000,876,0,0
-217,148,0,0,0,0,0,0,0,0,0,-1,1007,876,0,0
-210,148,0,0,0,0,0,0,0,0,0,-1,1014,876,0,0
-203,148,0,0,0,0,0,0,0,0,0,-1,1021,876,0,0
-196,148,0,0,0,0,0,0,0,0,0,-1,1028,876,0,0
-189,148,0,0,0,0,0,0,0,0,0,-1,1035,876,0,0
-182,148,0,0,0,0,0,0,0,0,0,-1,1042,876,0,0
-175,148,0,0,0,0,0,0,0,0,0,-1,1049,876,0,0
-168,148,0,0,0,0,0,0,0,0,0,-1,1056,876,0,0
-161,148,0,0,0,0,0,0,0,0,0,-1,1063,876,0,0
-154,148,0,0,0,0,0,0,0,0,0,-1,1070,876,0,0
-147,148,0,0,0,0,0,0,0,0,0,-1,1077,876,0,0
-140,148,0,0,0,0,0,0,0,0,0,-1,1084,876,0,0
-133,148,0,0,0,0,0,0,0,0,0,-1,1091,876,0,0
-126,148,0,0,0,0,0,0,0,0,0,-1,1098,876,0,0
-119,148,0,0,0,0,0,0,0,0,0,-1,1105,876,0,0
-112,148,0,0,0,0,0,0,0,0,0,-1,1112,876,0,0
-105,148,0,0,0,0,0,0,0,0,0,-1,1119,876,0,0
-98,148,0,0,0,0,0,0,0,0,0,-1,1126,876,0,0
-91,148,0,0,0,0,0,0,0,0,0,-1,1133,876,0,0
-84,148,0,0,0,0,0,0,0,0,0,-1,1140,876,0,0
-77,148,0,0,0,0,0,0,0,0,0,-1,1147,876,0,0
-70,148,0,0,0,0,0,0,0,0,0,-1,1154,876,0,0
-63,148,0,0,0,0,0,0,0,0,0,-1,1161,876,0,0
-56,148,0,0,0,0,0,0,0,0,0,-1,1168,876,0,0
-49,148,0,0,0,0,0,0,0,0,0,-1,1175,876,0,0
-42,148,0,0,0,0,0,0,0,0,0,-1,1182,876,0,0
-35,148,0,0,0,0,0,0,0,0,0,-1,1189,876,0,0
-28,148,0,0,0,0,0,0,0,0,0,-1,1196,876,0,0
-21,148,0,0,0,0,0,0,0,0,0,-1,1203,876,0,0
-14,148,0,0,0,0,0,0,0,0,0,-1,1210,876,0,0
-7,148,0,0,0,0,0,0,0,0,0,-1,1217,876,0,0
0,148,0,0,0,0,0,0,0,0,0,-1,1224,876,0,0
7,148,0,0,0,0,0,0,0,0,0,-1,1231,876,0,0
14,148,0,0,0,0,0,0,0,0,0,-1,1238,876,0,0
21,148,0,0,0,0,0,0,0,0,0,-1,1245,876,0,0
28,148,0,0,0,0,0,0,0,0,0,-1,1252,876,0,0
35,148,0,0,0,0,0,0,0,0,0,-1,1259,876,0,0
42,148,0,0,0,0,0,0,0,0,0,-1,1266,876,0,0
49,148,0,0,0,0,0,0,0,0,0,-1,1273,876,0,0
56,148,0,0,0,0,0,0,0,0,0,-1,1280,876,0,0
63,148,0,0,0,0,0,0,0,0,0,-1,1287,876,0,0
70,148,0,0,0,0,0,0,0,0,0,-1,1294,876,0,0
77,148,0,0,0,0,0,0,0,0,0,-1,1301,876,0,0
84,148,0,0,0,0,0,0,0,0,0,-1,1308,876,0,0
91,148,0,0,0,0,0,0,0,0,0,-1,1315,876,0,0
98,148,0,0,0,0,0,0,0,0,0,-1,1322,876,0,0
105,148,0,0,0,0,0,0,0,0,0,-1,1329,876,0,0
112,148,0,0,0,0,0,0,0,0,0,-1,1336,876,0,0
119,148,0,0,0,0,0,0,0,0,0,-1,1343,876,0,0
126,148,0,0,0,0,0,0,0,0,0,-1,1350,876,0,0
133,148,0,0,0,0,0,0,0,0,0,-1,1357,876,0,0
140,148,0,0,0,0,0,0,0,0,0,-1,1364,876,0,0
147,148,0,0,0,0,0,0,0,0,0,-1,1371,876,0,0
154,148,0,0,0,0,0,0,0,0,0,-1,1378,876,0,0
161,148,0,0,0,0,0,0,0,0,0,-1,1385,876,0,0
168,148,0,0,0,0,0,0,0,0,0,-1,1392,876,0,0
175,148,0,0,0,0,0,0,0,0,0,-1,1399,876,0,0
182,148,0,0,0,0,0,0,0,0,0,-1,1406,876,0,0
189,148,0,0,0,0,0,0,0,0,0,-1,1413,876,0,0
196,148,0,0,0,0,0,0,0,0,0,-1,1420,876,0,0
203,148,0,0,0,0,0,0,0,0,0,-1,1427,876,0,0
210,148,0,0,0,0,0,0,0,0,0,-1,1434,876,0,0
217,148,0,0,0,0,0,0,0,0,0,-1,1441,876,0,0
224,148,0,0,0,0,0,0,0,0,0,-1,1448,876,0,0
231,148,0,0,0,0,0,0,0,0,0,-1,1455,876,0,0
238,148,0,0,0,0,0,0,0,0,0,-1,1462,876,0,0
245,148,0,0,0,0,0,0,0,0,0,-1,1469,876,0,0
252,148,0,0,0,0,0,0,0,0,0,-1,1476,876,0,0
259,148,0,0,0,0,0,0,0,0,0,-1,1483,876,0,0
266,148,0,0,0,0,0,0,0,0,0,-1,1490,876,0,0
273,148,0,0,0,0,0,0,0,0,0,-1,1497,876,0,0
280,148,0,0,0,0,0,0,0,0,0,-1,1504,876,0,0
287,148,0,0,0,0,0,0,0,0,0,-1,1511,876,0,0
294,148,0,0,0,0,0,0,0,0,0,-1,1518,876,0,0
301,148,0,0,0,0,0,0,0,0,0,-1,1525,876,0,0
308,148,0,0,0,0,0,0,0,0,0,-1,1532,876,0,0
315,148,0,0,0,0,0,0,0,0,0,-1,1539,876,0,0
322,148,0,0,0,0,0,0,0,0,0,-1,1546,876,0,0
329,148,0,0,0,0,0,0,0,0,0,-1,1553,876,0,0
336,148,0,0,0,0,0,0,0,0,0,-1,1560,876,0,0
343,148,0,0,0,0,0,0,0,0,0,-1,1567,876,0,0
350,148,0,0,0,0,0,0,0,0,0,-1,1574,876,0,0
357,148,0,0,0,0,0,0,0,0,0,-1,1581,876,0,0
364,148,0,0,0,0,0,0,0,0,0,-1,1588,876,0,0
371,148,0,0,0,0,0,0,0,0,0,-1,1595,876,0,0
378,148,0,0,0,0,0,0,0,0,0,-1,1602,876,0,0
385,148,0,0,0,0,0,0,0,0,0,-1,1609,876,0,0
392,148,0,0,0,0,0,0,0,0,0,-1,1616,876,0,0
399,148,0,0,0,0,0,0,0,0,0,-1,1623,876,0,0
406,148,0,0,0,0,0,0,0,0,0,-1,1630,876,0,0
413,148,0,0,0,0,0,0,0,0,0,-1,1637,876,0,0
420,148,0,0,0,0,0,0,0,0,0,-1,1644,876,0,0
427,148,0,0,0,0,0,0,0,0,0,-1,1651,876,0,0
434,148,0,0,0,0,0,0,0,0,0,-1,1658,876,0,0
441,148,0,0,0,0,0,0,0,0,0,-1,1665,876,0,0
448,148,0,0,0,0,0,0,0,0,0,-1,1672,876,0,0
455,148,0,0,0,0,0,0,0,0,0,-1,1679,876,0,0
462,148,0,0,0,0,0,0,0,0,0,-1,1686,876,0,0
469,148,0,0,0,0,0,0,0,0,0,-1,1693,876,0,0
476,148,0,0,0,0,0,0,0,0,0,-1,1700,876,0,0
483,148,0,0,0,0,0,0,0,0,0,-1,1707,876,0,0
490,148,0,0,0,0,0,0,0,0,0,-1,1714,876,0,0
497,148,0,0,0,0,0,0,0,0,0,-1,1721,876,0,0
504,148,0,0,0,0,0,0,0,0,0,-1,1728,876,0,0
511,148,0,0,0,0,0,0,0,0,0,-1,1735,876,0,0
518,148,0,0,0,0,0,0,0,0,0,-1,1742,876,0,0
525,148,0,0,0,0,0,0,0,0,0,-1,1749,876,0,0
532,148,0,0,0,0,0,0,0,0,0,-1,1756,876,0,0
539,148,0,0,0,0,0,0,0,0,0,-1,1763,876,0,0
546,148,0,0,0,0,0,0,0,0,0,-1,1770,876,0,0
553,148,0,0,0,0,0,0,0,0,0,-1,1777,876,0,0
560,148,0,0,0,0,0,0,0,0,0,-1,1784,876,0,0
567,148,0,0,0,0,0,0,0,0,0,-1,1791,876,0,0
574,148,0,0,0,0,0,0,0,0,0,-1,1798,876,0,0
581,148,0,0,0,0,0,0,0,0,0,-1,1805,876,0,0
588,148,0,0,0,0,0,0,0,0,0,-1,1812,876,0,0
595,148,0,0,0,0,0,0,0,0,0,-1,1819,876,0,0
602,148,0,0,0,0,0,0,0,0,0,-1,1826,876,0,0
609,148,0,0,0,0,0,0,0,0,0,-1,1833,876,0,0
616,148,0,0,0,0,0,0,0,0,0,-1,1840,876,0,0
623,148,22.3354,2.99481,0.00441077,0.0056349,0.000840737,0.00606277,0.00398291,1.10004,0.00355736,0.0397041,1847,876,22.3355,-2.99479
630,148,22.2705,2.83661,0.00378033,0.00413543,0.000385577,0.00438237,0.00353339,1.00116,0.00268373,0.0395883,1854,876,22.2705,-2.83661
637,148,22.3237,2.87799,0.00306967,0.00287504,-1.46836e-05,0.00307078,0.00287394,-0.0748765,0.00198483,0.0376916,1861,876,22.3237,-2.87801
644,148,22.3479,2.87421,0.00152237,0.00188404,-0.00033001,0.00207952,0.0013269,-1.03604,0.00121577,0.0378407,1868,876,22.3479,-2.87422
651,148,22.3801,2.86163,-0.000385171,0.0012019,-0.000553045,0.0013756,-0.000558878,-1.26646,0.00114958,0.03752,1875,876,22.3802,-2.86163
658,148,22.4077,2.90784,-0.00207324,0.000675886,-0.000698746,0.000843293,-0.00224064,-1.33565,0.00184043,0.0317325,1882,876,22.4078,-2.90784
665,148,22.3126,2.92395,-0.00352267,0.000376449,-0.000808493,0.000537445,-0.00368367,-1.37424,0.00265313,0.0257555,1889,876,22.3126,-2.92393
672,148,22.3151,2.85706,-0.00471552,0.000278313,-0.000847267,0.000418148,-0.00485535,-1.40723,0.0033849,0.0332264,1896,876,22.315,-2.85705
679,148,22.2115,2.95203,0,0,0,0,0,0,0,-1,1903,876,22.2115,-2.95201
686,148,19.1366,2.49231,0,0,0,0,0,0,0,-1,1910,876,19.1366,-2.49228
693,148,19.1783,2.75122,-0.00665292,-7.01763e-05,-0.000830225,3.29181e-05,-0.00675602,-1.44725,0.00451502,0.0399805,1917,876,19.1783,-2.75119
700,148,19.2635,3.07684,-0.00661197,-4.28067e-05,-0.000851521,6.57761e-05,-0.00672055,-1.44396,0.00450245,0.0174195,1924,876,19.2635,-3.07685
707,148,19.3356,3.33398,-0.00601953,8.9175e-05,-0.000701792,0.000168763,-0.00609911,-1.45787,0.00412348,0.0141744,1931,876,19.3356,-3.33397
714,148,19.2958,3.46173,-0.00458622,0.000251214,-0.000729694,0.000358886,-0.0046939,-1.42429,0.00325549,0.0131656,1938,876,19.2958,-3.46176
721,148,19.1875,3.61603,-0.00200388,0.000256592,-0.000845243,0.000537692,-0.00228498,-1.24974,0.00173062,0.0157544,1945,876,19.1874,-3.61601
728,148,19.1857,3.79968,0.0010671,0.000283405,-0.00095885,0.00171108,-0.000360574,-0.591421,0.00127798,0.0192707,1952,876,19.1856,-3.79966
735,148,19.1989,3.98608,0.00474145,0.000412868,-0.00124018,0.0050716,8.27238e-05,-0.260172,0.00335383,0.0179032,1959,876,19.1989,-3.98607
742,148,19.1956,4.19434,0.00846069,0.000109423,-0.00129836,0.00865789,-8.77739e-05,-0.15073,0.0058014,0.0193782,1966,876,19.1955,-4.19436
749,148,19.1924,4.38574,0.0117493,-0.00103153,-0.000986283,0.011825,-0.00110719,-0.0765648,0.0082771,0.0152566,1973,876,19.1923,-4.38573
756,148,19.1858,4.57135,0.0152443,-0.00243241,-0.000783264,0.015279,-0.00246705,-0.044195,0.0111001,0.0200288,1980,876,19.1858,-4.57137
763,148,19.163,4.90839,0.0187535,-0.00493545,-2.32074e-05,0.0187535,-0.00493547,-0.000979671,0.0144316,0.0439463,1987,876,19.163,-4.90836
770,148,19.783,4.47949,0.0220624,-0.00914273,0.00175204,0.0221605,-0.00924079,0.0559116,0.018634,0.0458313,1994,876,19.7829,-4.4795
777,148,19.9133,4.60767,0,0,0,0,0,0,0,-1,2001,876,19.9133,-4.60767
784,148,19.8948,5.39691,0,0,0,0,0,0,0,-1,2008,876,19.8948,-5.39692
791,148,22.1697,4.59912,0,0,0,0,0,0,0,-1,2015,876,22.1697,-4.59909
798,148,0,0,0,0,0,0,0,0,0,-1,2022,876,0,0
805,148,0,0,0,0,0,0,0,0,0,-1,2029,876,0,0
812,148,0,0,0,0,0,0,0,0,0,-1,2036,876,0,0
-700,141,0,0,0,0,0,0,0,0,0,-1,524,883,0,0
-693,141,0,0,0,0,0,0,0,0,0,-1,531,883,0,0
-686,141,0,0,0,0,0,0,0,0,0,-1,538,883,0,0
-679,141,0,0,0,0,0,0,0,0,0,-1,545,883,0,0
-672,141,-11.8979,4.50616,-0.0115168,0.119442,-0.0168887,0.121585,-0.0136597,-1.44459,0.0859725,0.0430477,552,883,-11.8979,-4.50619
-665,141,-11.9814,3.95459,-0.0170126,0.0968167,-0.0107688,0.0978265,-0.0180224,-1.4773,0.0719812,0.0457466,559,883,-11.9814,-3.95456
-658,141,-12.0079,2.98749,-0.0191799,0.0771411,-0.00605647,0.0775205,-0.0195592,-1.50825,0.0592855,0.0484263,566,883,-12.0079,-2.98747
-651,141,-12.0377,2.35364,-0.0192882,0.0602302,-0.00253043,0.0603107,-0.0193686,-1.53902,0.0479845,0.0451279,573,883,-12.0377,-2.35366
-644,141,-12.3078,1.43719,0,0,0,0,0,0,0,-1,580,883,-12.3078,-1.43721
-637,141,-12.4688,2.66827,0,0,0,0,0,0,0,-1,587,883,-12.4688,-2.66828
-630,141,-12.519,2.3811,-0.0138255,0.0240793,0.00269415,0.0242698,-0.014016,1.50019,0.022367,0.0416148,594,883,-12.519,-2.38108
-623,141,-12.5375,2.05829,-0.0120999,0.0160285,0.00301559,0.0163482,-0.0124196,1.46519,0.0166606,0.0235162,601,883,-12.5375,-2.0583
-616,141,-12.6458,1.91553,-0.0102381,0.00926802,0.00340497,0.0098453,-0.0108154,1.40285,0.0119329,0.0127515,608,883,-12.6458,-1.91554
-609,141,-12.6731,1.76453,-0.00787797,0.00405202,0.00353296,0.00501977,-0.00884572,1.30343,0.0081062,0.0134841,615,883,-12.6731,-1.76455
-602,141,-12.6918,1.59454,-0.00671671,0.000853043,0.00350221,0.00222479,-0.00808846,1.19748,0.00626695,0.0130288,622,883,-12.6918,-1.59456
-595,141,-12.6952,1.43854,-0.00708003,-0.00104403,0.00329299,0.000404753,-0.00852881,1.15632,0.00582548,0.0108828,629,883,-12.6952,-1.43852
-588,141,-12.7863,1.27448,-0.00741205,-0.00217482,0.00288505,-0.000897201,-0.00868967,1.15391,0.00551841,0.0152462,636,883,-12.7863,-1.27445
-581,141,-12.7846,1.11859,-0.00833436,-0.00249457,0.00275942,-0.00139699,-0.00943195,1.19222,0.0058779,0.0218538,643,883,-12.7846,-1.1186
-574,141,-12.6261,1.02454,-0.00958941,-0.00257771,0.00285051,-0.0015651,-0.010602,1.22947,0.00660837,0.0259924,650,883,-12.6261,-1.02452
-567,141,-12.6617,0.913696,-0.01054,-0.00282144,0.00301617,-0.00178263,-0.0115788,1.23911,0.00719896,0.0299142,657,883,-12.6617,-0.913721
-560,141,-12.8818,0.859924,-0.0111885,-0.00295378,0.00314467,-0.00189025,-0.012252,1.24467,0.0076165,0.0397392,664,883,-12.8818,-0.859947
-553,141,-13.9544,0.985229,-0.0116556,-0.00286533,0.00320686,-0.00181976,-0.0127011,1.25562,0.00793073,0.0489572,671,883,-13.9544,-0.985226
-546,141,-14.9765,1.06012,0,0,0,0,0,0,0,-1,678,883,-14.9765,-1.06012
-539,141,-14.8803,0.993652,-0.0112227,-0.00178823,0.00304946,-0.00088839,-0.0121225,1.28386,0.00780241,0.0295672,685,883,-14.8803,-0.993655
-532,141,-14.8858,0.985413,-0.00988831,-0.000855886,0.00267837,-0.000121397,-0.0106228,1.30315,0.00704175,0.0297035,692,883,-14.8858,-0.985394
-525,141,-14.8513,1.02679,-0.00759983,0.000415743,0.00210949,0.000937006,-0.00812109,1.32855,0.00575189,0.0368405,699,883,-14.8513,-1.02681
-518,141,-14.866,1.12732,-0.00393872,0.00205089,0.00135234,0.00234207,-0.00422989,1.35872,0.00384615,0.0409951,706,883,-14.866,-1.12729
-511,141,-14.8954,1.23322,0.000676535,0.00385647,0.000509598,0.00393614,0.000596866,1.41571,0.0024495,0.0401396,713,883,-14.8954,-1.23323
-504,141,-14.8325,1.19208,0.00522551,0.00534085,0.000125221,0.00542105,0.00514532,1.00119,0.00352572,0.0412704,720,883,-14.8325,-1.19207
-497,141,0,0,0,0,0,0,0,0,0,-1,727,883,0,0
-490,141,0,0,0,0,0,0,0,0,0,-1,734,883,0,0
-483,141,0,0,0,0,0,0,0,0,0,-1,741,883,0,0
-476,141,0,0,0,0,0,0,0,0,0,-1,748,883,0,0
-469,141,0,0,0,0,0,0,0,0,0,-1,755,883,0,0
-462,141,0,0,0,0,0,0,0,0,0,-1,762,883,0,0
-455,141,0,0,0,0,0,0,0,0,0,-1,769,883,0,0
-448,141,0,0,0,0,0,0,0,0,0,-1,776,883,0,0
-441,141,0,0,0,0,0,0,0,0,0,-1,783,883,0,0
-434,141,0,0,0,0,0,0,0,0,0,-1,790,883,0,0
-427,141,0,0,0,0,0,0,0,0,0,-1,797,883,0,0
-420,141,0,0,0,0,0,0,0,0,0,-1,804,883,0,0
-413,141,0,0,0,0,0,0,0,0,0,-1,811,883,0,0
-406,141,0,0,0,0,0,0,0,0,0,-1,818,883,0,0
-399,141,0,0,0,0,0,0,0,0,0,-1,825,883,0,0
-392,141,0,0,0,0,0,0,0,0,0,-1,832,883,0,0
-385,141,0,0,0,0,0,0,0,0,0,-1,839,883,0,0
-378,141,0,0,0,0,0,0,0,0,0,-1,846,883,0,0
-371,141,0,0,0,0,0,0,0,0,0,-1,853,883,0,0
-364,141,0,0,0,0,0,0,0,0,0,-1,860,883,0,0
-357,141,0,0,0,0,0,0,0,0,0,-1,867,883,0,0
-350,141,0,0,0,0,0,0,0,0,0,-1,874,883,0,0
-343,141,0,0,0,0,0,0,0,0,0,-1,881,883,0,0
-336,141,0,0,0,0,0,0,0,0,0,-1,888,883,0,0
-329,141,0,0,0,0,0,0,0,0,0,-1,895,883,0,0
-322,141,0,0,0,0,0,0,0,0,0,-1,902,883,0,0
-315,141,0,0,0,0,0,0,0,0,0,-1,909,883,0,0
-308,141,0,0,0,0,0,0,0,0,0,-1,916,883,0,0
-301,141,0,0,0,0,0,0,0,0,0,-1,923,883,0,0
-294,141,0,0,0,0,0,0,0,0,0,-1,930,883,0,0
-287,141,0,0,0,0,0,0,0,0,0,-1,937,883,0,0
-280,141,0,0,0,0,0,0,0,0,0,-1,944,883,0,0
-273,141,0,0,0,0,0,0,0,0,0,-1,951,883,0,0
-266,141,0,0,0,0,0,0,0,0,0,-1,958,883,0,0
-259,141,0,0,0,0,0,0,0,0,0,-1,965,883,0,0
-252,141,0,0,0,0,0,0,0,0,0,-1,972,883,0,0
-245,141,0,0,0,0,0,0,0,0,0,-1,979,883,0,0
-238,141,0,0,0,0,0,0,0,0,0,-1,986,883,0,0
-231,141,0,0,0,0,0,0,0,0,0,-1,993,883,0,0
-224,141,0,0,0,0,0,0,0,0,0,-1,1000,883,0,0
-217,141,0,0,0,0,0,0,0,0,0,-1,1007,883,0,0
-210,141,0,0,0,0,0,0,0,0,0,-1,1014,883,0,0
-203,141,0,0,0,0,0,0,0,0,0,-1,1021,883,0,0
-196,141,0,0,0,0,0,0,0,0,0,-1,1028,883,0,0
-189,141,0,0,0,0,0,0,0,0,0,-1,1035,883,0,0
-182,141,0,0,0,0,0,0,0,0,0,-1,1042,883,0,0
-175,141,0,0,0,0,0,0,0,0,0,-1,1049,883,0,0
-168,141,0,0,0,0,0,0,0,0,0,-1,1056,883,0,0
-161,141,0,0,0,0,0,0,0,0,0,-1,1063,883,0,0
-154,141,0,0,0,0,0,0,0,0,0,-1,1070,883,0,0
-147,141,0,0,0,0,0,0,0,0,0,-1,1077,883,0,0
-140,141,0,0,0,0,0,0,0,0,0,-1,1084,883,0,0
-133,141,0,0,0,0,0,0,0,0,0,-1,1091,883,0,0
-126,141,0,0,0,0,0,0,0,0,0,-1,1098,883,0,0
-119,141,0,0,0,0,0,0,0,0,0,-1,1105,883,0,0
-112,141,0,0,0,0,0,0,0,0,0,-1,1112,883,0,0
-105,141,0,0,0,0,0,0,0,0,0,-1,1119,883,0,0
-98,141,0,0,0,0,0,0,0,0,0,-1,1126,883,0,0
-91,141,0,0,0,0,0,0,0,0,0,-1,1133,883,0,0
-84,141,0,0,0,0,0,0,0,0,0,-1,1140,883,0,0
-77,141,0,0,0,0,0,0,0,0,0,-1,1147,883,0,0
-70,141,0,0,0,0,0,0,0,0,0,-1,1154,883,0,0
-63,141,0,0,0,0,0,0,0,0,0,-1,1161,883,0,0
-56,141,0,0,0,0,0,0,0,0,0,-1,1168,883,0,0
-49,141,0,0,0,0,0,0,0,0,0,-1,1175,883,0,0
-42,141,0,0,0,0,0,0,0,0,0,-1,1182,883,0,0
-35,141,0,0,0,0,0,0,0,0,0,-1,1189,883,0,0
-28,141,0,0,0,0,0,0,0,0,0,-1,1196,883,0,0
-21,141,0,0,0,0,0,0,0,0,0,-1,1203,883,0,0
-14,141,0,0,0,0,0,0,0,0,0,-1,1210,883,0,0
-7,141,0,0,0,0,0,0,0,0,0,-1,1217,883,0,0
0,141,0,0,0,0,0,0,0,0,0,-1,1224,883,0,0
7,141,0,0,0,0,0,0,0,0,0,-1,1231,883,0,0
14,141,0,0,0,0,0,0,0,0,0,-1,1238,883,0,0
21,141,0,0,0,0,0,0,0,0,0,-1,1245,883,0,0
28,141,0,0,0,0,0,0,0,0,0,-1,1252,883,0,0
35,141,0,0,0,0,0,0,0,0,0,-1,1259,883,0,0
42,141,0,0,0,0,0,0,0,0,0,-1,1266,883,0,0
49,141,0,0,0,0,0,0,0,0,0,-1,1273,883,0,0
56,141,0,0,0,0,0,0,0,0,0,-1,1280,883,0,0
63,141,0,0,0,0,0,0,0,0,0,-1,1287,883,0,0
70,141,0,0,0,0,0,0,0,0,0,-1,1294,883,0,0
77,141,0,0,0,0,0,0,0,0,0,-1,1301,883,0,0
84,141,0,0,0,0,0,0,0,0,0,-1,1308,883,0,0
91,141,0,0,0,0,0,0,0,0,0,-1,1315,883,0,0
98,141,0,0,0,0,0,0,0,0,0,-1,1322,883,0,0
105,141,0,0,0,0,0,0,0,0,0,-1,1329,883,0,0
112,141,0,0,0,0,0,0,0,0,0,-1,1336,883,0,0
119,141,0,0,0,0,0,0,0,0,0,-1,1343,883,0,0
126,141,0,0,0,0,0,0,0,0,0,-1,1350,883,0,0
133,141,0,0,0,0,0,0,0,0,0,-1,1357,883,0,0
140,141,0,0,0,0,0,0,0,0,0,-1,1364,883,0,0
147,141,0,0,0,0,0,0,0,0,0,-1,1371,883,0,0
154,141,0,0,0,0,0,0,0,0,0,-1,1378,883,0,0
161,141,0,0,0,0,0,0,0,0,0,-1,1385,883,0,0
168,141,0,0,0,0,0,0,0,0,0,-1,1392,883,0,0
175,141,0,0,0,0,0,0,0,0,0,-1,1399,883,0,0
182,141,0,0,0,0,0,0,0,0,0,-1,1406,883,0,0
189,141,0,0,0,0,0,0,0,0,0,-1,1413,883,0,0
196,141,0,0,0,0,0,0,0,0,0,-1,1420,883,0,0
203,141,0,0,0,0,0,0,0,0,0,-1,1427,883,0,0
210,141,0,0,0,0,0,0,0,0,0,-1,1434,883,0,0
217,141,0,0,0,0,0,0,0,0,0,-1,1441,883,0,0
224,141,0,0,0,0,0,0,0,0,0,-1,1448,883,0,0
231,141,0,0,0,0,0,0,0,0,0,-1,1455,883,0,0
238,141,0,0,0,0,0,0,0,0,0,-1,1462,883,0,0
245,141,0,0,0,0,0,0,0,0,0,-1,1469,883,0,0
252,141,0,0,0,0,0,0,0,0,0,-1,1476,883,0,0
259,141,0,0,0,0,0,0,0,0,0,-1,1483,883,0,0
266,141,0,0,0,0,0,0,0,0,0,-1,1490,883,0,0
273,141,0,0,0,0,0,0,0,0,0,-1,1497,883,0,0
280,141,0,0,0,0,0,0,0,0,0,-1,1504,883,0,0
287,141,0,0,0,0,0,0,0,0,0,-1,1511,883,0,0
294,141,0,0,0,0,0,0,0,0,0,-1,1518,883,0,0
301,141,0,0,0,0,0,0,0,0,0,-1,1525,883,0,0
308,141,0,0,0,0,0,0,0,0,0,-1,1532,883,0,0
315,141,0,0,0,0,0,0,0,0,0,-1,1539,883,0,0
322,141,0,0,0,0,0,0,0,0,0,-1,1546,883,0,0
329,141,0,0,0,0,0,0,0,0,0,-1,1553,883,0,0
336,141,0,0,0,0,0,0,0,0,0,-1,1560,883,0,0
343,141,0,0,0,0,0,0,0,0,0,-1,1567,883,0,0
350,141,0,0,0,0,0,0,0,0,0,-1,1574,883,0,0
357,141,0,0,0,0,0,0,0,0,0,-1,1581,883,0,0
364,141,0,0,0,0,0,0,0,0,0,-1,1588,883,0,0
371,141,0,0,0,0,0,0,0,0,0,-1,1595,883,0,0
378,141,0,0,0,0,0,0,0,0,0,-1,1602,883,0,0
385,141,0,0,0,0,0,0,0,0,0,-1,1609,883,0,0
392,141,0,0,0,0,0,0,0,0,0,-1,1616,883,0,0
399,141,0,0,0,0,0,0,0,0,0,-1,1623,883,0,0
406,141,0,0,0,0,0,0,0,0,0,-1,1630,883,0,0
413,141,0,0,0,0,0,0,0,0,0,-1,1637,883,0,0
420,141,0,0,0,0,0,0,0,0,0,-1,1644,883,0,0
427,141,0,0,0,0,0,0,0,0,0,-1,1651,883,0,0
434,141,0,0,0,0,0,0,0,0,0,-1,1658,883,0,0
441,141,0,0,0,0,0,0,0,0,0,-1,1665,883,0,0
448,141,0,0,0,0,0,0,0,0,0,-1,1672,883,0,0
455,141,0,0,0,0,0,0,0,0,0,-1,1679,883,0,0
462,141,0,0,0,0,0,0,0,0,0,-1,1686,883,0,0
469,141,0,0,0,0,0,0,0,0,0,-1,1693,883,0,0
476,141,0,0,0,0,0,0,0,0,0,-1,1700,883,0,0
483,141,0,0,0,0,0,0,0,0,0,-1,1707,883,0,0
490,141,0,0,0,0,0,0,0,0,0,-1,1714,883,0,0
497,141,0,0,0,0,0,0,0,0,0,-1,1721,883,0,0
504,141,0,0,0,0,0,0,0,0,0,-1,1728,883,0,0
511,141,0,0,0,0,0,0,0,0,0,-1,1735,883,0,0
518,141,0,0,0,0,0,0,0,0,0,-1,1742,883,0,0
525,141,0,0,0,0,0,0,0,0,0,-1,1749,883,0,0
532,141,0,0,0,0,0,0,0,0,0,-1,1756,883,0,0
539,141,0,0,0,0,0,0,0,0,0,-1,1763,883,0,0
546,141,0,0,0,0,0,0,0,0,0,-1,1770,883,0,0
553,141,0,0,0,0,0,0,0,0,0,-1,1777,883,0,0
560,141,0,0,0,0,0,0,0,0,0,-1,1784,883,0,0
567,141,0,0,0,0,0,0,0,0,0,-1,1791,883,0,0
574,141,0,0,0,0,0,0,0,0,0,-1,1798,883,0,0
581,141,0,0,0,0,0,0,0,0,0,-1,1805,883,0,0
588,141,0,0,0,0,0,0,0,0,0,-1,1812,883,0,0
595,141,0,0,0,0,0,0,0,0,0,-1,1819,883,0,0
602,141,0,0,0,0,0,0,0,0,0,-1,1826,883,0,0
609,141,0,0,0,0,0,0,0,0,0,-1,1833,883,0,0
616,141,0,0,0,0,0,0,0,0,0,-1,1840,883,0,0
623,141,22.2263,2.80029,0.00506434,0.00620878,0.00106633,0.00684673,0.0044264,1.03166,0.00400912,0.0437218,1847,883,22.2263,-2.80031
630,141,22.2416,2.81476,0.00409175,0.0048136,0.000736579,0.00527292,0.00363242,1.01321,0.00311589,0.0435184,1854,883,22.2415,-2.81476
637,141,22.2643,2.87781,0.00319223,0.00363471,0.000372091,0.00384637,0.00298058,1.05361,0.0023299,0.0413655,1861,883,22.2642,-2.87779
644,141,22.266,2.93652,0.00146647,0.00261499,8.49004e-05,0.00262123,0.00146023,1.49741,0.00151665,0.038227,1868,883,22.2659,-2.93651
651,141,22.3986,2.92932,-0.000851436,0.00188663,-0.000183544,0.00189888,-0.000863685,-1.50416,0.00163187,0.0369503,1875,883,22.3985,-2.92932
658,141,22.4954,2.87671,-0.0029615,0.00131318,-0.00038442,0.00134748,-0.0029958,-1.48182,0.00256708,0.0361603,1882,883,22.4953,-2.8767
665,141,22.3315,2.93781,-0.00467552,0.000928606,-0.000537285,0.000979651,-0.00472657,-1.47607,0.00352329,0.0292123,1889,883,22.3316,-2.9378
672,141,22.2888,2.91846,-0.00601405,0.000733998,-0.000617935,0.000790117,-0.00607017,-1.48023,0.00433422,0.0238505,1896,883,22.2888,-2.91846
679,141,22.2338,2.91644,-0.00688306,0.00047487,-0.000652149,0.000532225,-0.00694042,-1.48308,0.00481417,0.0291948,1903,883,22.2338,-2.91642
686,141,22.1901,2.95044,0,0,0,0,0,0,0,-1,1910,883,22.19,-2.95042
693,141,19.2726,2.79987,0,0,0,0,0,0,0,-1,1917,883,19.2725,-2.79987
700,141,19.4175,3.04633,-0.00793929,0.000127783,-0.00076533,0.000199749,-0.00801125,-1.47704,0.00540865,0.0177145,1924,883,19.4175,-3.04634
707,141,19.425,3.25238,-0.00734294,0.000204752,-0.000670804,0.000263906,-0.00740209,-1.48284,0.00502501,0.0151327,1931,883,19.425,-3.25236
714,141,19.3636,3.4126,-0.00598102,0.000351963,-0.000737324,0.000436674,-0.00606573,-1.45641,0.00419696,0.0152822,1938,883,19.3636,-3.4126
721,141,19.3834,3.60712,-0.00370709,0.000387699,-0.000878236,0.000568111,-0.0038875,-1.36819,0.00280032,0.0122673,1945,883,19.3834,-3.60715
728,141,19.3929,3.76752,-0.0012096,0.000539791,-0.00100107,0.000994469,-0.00166428,-1.14446,0.00155118,0.0146198,1952,883,19.3929,-3.76753
735,141,19.3655,3.99634,0.00162097,0.000909085,-0.00130654,0.00261919,-8.91313e-05,-0.65241,0.00177658,0.0154352,1959,883,19.3655,-3.99632
742,141,19.3547,4.19324,0.00411454,0.000966356,-0.00133722,0.00460586,0.00047504,-0.352106,0.00292511,0.0163437,1966,883,19.3547,-4.19324
749,141,19.3798,4.36078,0.00574746,0.000155661,-0.000881576,0.00588316,1.99687e-05,-0.152721,0.00391546,0.0130786,1973,883,19.3798,-4.36077
756,141,19.3962,4.53778,0.00706024,-0.000671576,-0.000524915,0.00709572,-0.00070705,-0.0674776,0.00498291,0.020097,1980,883,19.3962,-4.53776
763,141,19.5183,4.52197,0.00784699,-0.00240963,0.000445421,0.00786629,-0.00242893,0.043319,0.00621414,0.0428486,1987,883,19.5183,-4.52199
770,141,19.762,4.46661,0.00795949,-0.00563747,0.0024945,0.00840269,-0.00608067,0.175834,0.00839771,0.0456148,1994,883,19.7619,-4.46659
777,141,19.9232,4.35913,0,0,0,0,0,0,0,-1,2001,883,19.9232,-4.35911
784,141,20.1797,4.36493,0,0,0,0,0,0,0,-1,2008,883,20.1797,-4.36492
791,141,22.0294,4.47809,0,0,0,0,0,0,0,-1,2015,883,22.0294,-4.47807
798,141,0,0,0,0,0,0,0,0,0,-1,2022,883,0,0
805,141,0,0,0,0,0,0,0,0,0,-1,2029,883,0,0
812,141,0,0,0,0,0,0,0,0,0,-1,2036,883,0,0
-700,134,0,0,0,0,0,0,0,0,0,-1,524,890,0,0
-693,134,0,0,0,0,0,0,0,0,0,-1,531,890,0,0
-686,134,0,0,0,0,0,0,0,0,0,-1,538,890,0,0
-679,134,0,0,0,0,0,0,0,0,0,-1,545,890,0,0
-672,134,-12.4327,4.1087,-0.00360013,0.111975,-0.012674,0.113349,-0.00497363,-1.46285,0.077277,0.0455964,552,890,-12.4327,-4.10871
-665,134,-12.4148,3.15735,-0.00945211,0.0913066,-0.00790679,0.0919233,-0.0100688,-1.49296,0.0648993,0.0461523,559,890,-12.4148,-3.15735
-658,134,-12.3243,2.19928,-0.0122683,0.0729883,-0.00407298,0.0731825,-0.0124625,-1.52317,0.0534292,0.042785,566,890,-12.3243,-2.19929
-651,134,-12.4819,1.57837,-0.0131754,0.0570724,-0.00115414,0.0570914,-0.0131943,-1.55437,0.043137,0.0405564,573,890,-12.4818,-1.57836
-644,134,-12.5518,0.696411,0,0,0,0,0,0,0,-1,580,890,-12.5518,-0.696432
-637,134,-12.6964,2.45807,0,0,0,0,0,0,0,-1,587,890,-12.6964,-2.45808
-630,134,-12.7115,2.27393,-0.0103873,0.022883,0.00306373,0.0231628,-0.010667,1.47973,0.0199709,0.0427864,594,890,-12.7115,-2.2739
-623,134,-12.7413,2.07751,-0.00962042,0.0153126,0.00315668,0.015706,-0.0100139,1.4468,0.0149701,0.0222297,601,890,-12.7413,-2.07748
-616,134,-12.8311,1.91101,-0.00866945,0.00890478,0.00339062,0.00953624,-0.00930092,1.38667,0.0108759,0.0121214,608,890,-12.8311,-1.91104
-609,134,-12.8574,1.75531,-0.00700758,0.00371994,0.00351385,0.00476844,-0.00805607,1.28082,0.00748489,0.0115516,615,890,-12.8574,-1.75528
-602,134,-12.8552,1.59357,-0.00627919,0.000651213,0.00340755,0.00204595,-0.00767393,1.18229,0.00591704,0.0121444,622,890,-12.8551,-1.59355
-595,134,-12.8444,1.44897,-0.00701397,-0.00107802,0.00318831,0.000309946,-0.00840193,1.16021,0.00570741,0.0115879,629,890,-12.8444,-1.44895
-588,134,-12.9985,1.33826,-0.00755926,-0.0020287,0.00267731,-0.000944983,-0.00864298,1.18618,0.00547424,0.0195691,636,890,-12.9985,-1.33825
-581,134,-12.9542,1.10925,-0.00848589,-0.00238283,0.00247921,-0.00150265,-0.00936607,1.22965,0.00580832,0.026,643,890,-12.9541,-1.10927
-574,134,-12.9514,0.955872,-0.00959557,-0.00255323,0.00257257,-0.00171358,-0.0104352,1.25531,0.00646181,0.027465,650,890,-12.9513,-0.955854
-567,134,-12.4238,0.637573,0,0,0,0,0,0,0,-1,657,890,-12.4238,-0.637545
-560,134,-13.3152,1.01514,0,0,0,0,0,0,0,-1,664,890,-13.3152,-1.01516
-553,134,-14.8918,0.687561,0,0,0,0,0,0,0,-1,671,890,-14.8918,-0.687564
-546,134,-14.8702,0.9646,-0.0111145,-0.00242998,0.00285423,-0.00157591,-0.0119686,1.28005,0.00750906,0.0244273,678,890,-14.8702,-0.96457
-539,134,-14.8778,0.986328,-0.0103732,-0.00182764,0.00264603,-0.00107468,-0.0111262,1.29356,0.00708646,0.0170614,685,890,-14.8778,-0.986325
-532,134,-14.8796,0.994873,-0.00881105,-0.000907809,0.00224629,-0.00031398,-0.00940487,1.31235,0.00616792,0.0223293,692,890,-14.8796,-0.994895
-525,134,-14.8256,1.02014,-0.00626811,0.000362745,0.00162094,0.000737778,-0.00664314,1.34343,0.00469405,0.0339459,699,890,-14.8256,-1.02015
-518,134,-14.7818,1.013,-0.00236733,0.00202066,0.000765201,0.00215027,-0.00249694,1.40301,0.00268556,0.040467,706,890,-14.7818,-1.01299
-511,134,-14.7026,0.825134,0.00199058,0.00382763,-0.000175456,0.00384424,0.00197397,-1.47642,0.00221974,0.0431105,713,890,-14.7026,-0.825107
-504,134,0,0,0,0,0,0,0,0,0,-1,720,890,0,0
-497,134,0,0,0,0,0,0,0,0,0,-1,727,890,0,0
-490,134,0,0,0,0,0,0,0,0,0,-1,734,890,0,0
-483,134,0,0,0,0,0,0,0,0,0,-1,741,890,0,0
-476,134,0,0,0,0,0,0,0,0,0,-1,748,890,0,0
-469,134,0,0,0,0,0,0,0,0,0,-1,755,890,0,0
-462,134,0,0,0,0,0,0,0,0,0,-1,762,890,0,0
-455,134,0,0,0,0,0,0,0,0,0,-1,769,890,0,0
-448,134,0,0,0,0,0,0,0,0,0,-1,776,890,0,0
-441,134,0,0,0,0,0,0,0,0,0,-1,783,890,0,0
-434,134,0,0,0,0,0,0,0,0,0,-1,790,890,0,0
-427,134,0,0,0,0,0,0,0,0,0,-1,797,890,0,0
-420,134,0,0,0,0,0,0,0,0,0,-1,804,890,0,0
-413,134,0,0,0,0,0,0,0,0,0,-1,811,890,0,0
-406,134,0,0,0,0,0,0,0,0,0,-1,818,890,0,0
-399,134,0,0,0,0,0,0,0,0,0,-1,825,890,0,0
-392,134,0,0,0,0,0,0,0,0,0,-1,832,890,0,0
-385,134,0,0,0,0,0,0,0,0,0,-1,839,890,0,0
-378,134,0,0,0,0,0,0,0,0,0,-1,846,890,0,0
-371,134,0,0,0,0,0,0,0,0,0,-1,853,890,0,0
-364,134,0,0,0,0,0,0,0,0,0,-1,860,890,0,0
-357,134,0,0,0,0,0,0,0,0,0,-1,867,890,0,0
-350,134,0,0,0,0,0,0,0,0,0,-1,874,890,0,0
-343,134,0,0,0,0,0,0,0,0,0,-1,881,890,0,0
-336,134,0,0,0,0,0,0,0,0,0,-1,888,890,0,0
-329,134,0,0,0,0,0,0,0,0,0,-1,895,890,0,0
-322,134,0,0,0,0,0,0,0,0,0,-1,902,890,0,0
-315,134,0,0,0,0,0,0,0,0,0,-1,909,890,0,0
-308,134,0,0,0,0,0,0,0,0,0,-1,916,890,0,0
-301,134,0,0,0,0,0,0,0,0,0,-1,923,890,0,0
-294,134,0,0,0,0,0,0,0,0,0,-1,930,890,0,0
-287,134,0,0,0,0,0,0,0,0,0,-1,937,890,0,0
-280,134,0,0,0,0,0,0,0,0,0,-1,944,890,0,0
-273,134,0,0,0,0,0,0,0,0,0,-1,951,890,0,0
-266,134,0,0,0,0,0,0,0,0,0,-1,958,890,0,0
-259,134,0,0,0,0,0,0,0,0,0,-1,965,890,0,0
-252,134,0,0,0,0,0,0,0,0,0,-1,972,890,0,0
-245,134,0,0,0,0,0,0,0,0,0,-1,979,890,0,0
-238,134,0,0,0,0,0,0,0,0,0,-1,986,890,0,0
-231,134,0,0,0,0,0,0,0,0,0,-1,993,890,0,0
-224,134,0,0,0,0,0,0,0,0,0,-1,1000,890,0,0
-217,134,0,0,0,0,0,0,0,0,0,-1,1007,890,0,0
-210,134,0,0,0,0,0,0,0,0,0,-1,1014,890,0,0
-203,134,0,0,0,0,0,0,0,0,0,-1,1021,890,0,0
-196,134,0,0,0,0,0,0,0,0,0,-1,1028,890,0,0
-189,134,0,0,0,0,0,0,0,0,0,-1,1035,890,0,0
-182,134,0,0,0,0,0,0,0,0,0,-1,1042,890,0,0
-175,134,0,0,0,0,0,0,0,0,0,-1,1049,890,0,0
-168,134,0,0,0,0,0,0,0,0,0,-1,1056,890,0,0
-161,134,0,0,0,0,0,0,0,0,0,-1,1063,890,0,0
-154,134,0,0,0,0,0,0,0,0,0,-1,1070,890,0,0
-147,134,0,0,0,0,0,0,0,0,0,-1,1077,890,0,0
-140,134,0,0,0,0,0,0,0,0,0,-1,1084,890,0,0
-133,134,0,0,0,0,0,0,0,0,0,-1,1091,890,0,0
-126,134,0,0,0,0,0,0,0,0,0,-1,1098,890,0,0
-119,134,0,0,0,0,0,0,0,0,0,-1,1105,890,0,0
-112,134,0,0,0,0,0,0,0,0,0,-1,1112,890,0,0
-105,134,0,0,0,0,0,0,0,0,0,-1,1119,890,0,0
-98,134,0,0,0,0,0,0,0,0,0,-1,1126,890,0,0
-91,134,0,0,0,0,0,0,0,0,0,-1,1133,890,0,0
-84,134,0,0,0,0,0,0,0,0,0,-1,1140,890,0,0
-77,134,0,0,0,0,0,0,0,0,0,-1,1147,890,0,0
-70,134,0,0,0,0,0,0,0,0,0,-1,1154,890,0,0
-63,134,0,0,0,0,0,0,0,0,0,-1,1161,890,0,0
-56,134,0,0,0,0,0,0,0,0,0,-1,1168,890,0,0
-49,134,0,0,0,0,0,0,0,0,0,-1,1175,890,0,0
-42,134,0,0,0,0,0,0,0,0,0,-1,1182,890,0,0
-35,134,0,0,0,0,0,0,0,0,0,-1,1189,890,0,0
-28,134,0,0,0,0,0,0,0,0,0,-1,1196,890,0,0
-21,134,0,0,0,0,0,0,0,0,0,-1,1203,890,0,0
-14,134,0,0,0,0,0,0,0,0,0,-1,1210,890,0,0
-7,134,0,0,0,0,0,0,0,0,0,-1,1217,890,0,0
0,134,0,0,0,0,0,0,0,0,0,-1,1224,890,0,0
7,134,0,0,0,0,0,0,0,0,0,-1,1231,890,0,0
14,134,0,0,0,0,0,0,0,0,0,-1,1238,890,0,0
21,134,0,0,0,0,0,0,0,0,0,-1,1245,890,0,0
28,134,0,0,0,0,0,0,0,0,0,-1,1252,890,0,0
35,134,0,0,0,0,0,0,0,0,0,-1,1259,890,0,0
42,134,0,0,0,0,0,0,0,0,0,-1,1266,890,0,0
49,134,0,0,0,0,0,0,0,0,0,-1,1273,890,0,0
56,134,0,0,0,0,0,0,0,0,0,-1,1280,890,0,0
63,134,0,0,0,0,0,0,0,0,0,-1,1287,890,0,0
70,134,0,0,0,0,0,0,0,0,0,-1,1294,890,0,0
77,134,0,0,0,0,0,0,0,0,0,-1,1301,890,0,0
84,134,0,0,0,0,0,0,0,0,0,-1,1308,890,0,0
91,134,0,0,0,0,0,0,0,0,0,-1,1315,890,0,0
98,134,0,0,0,0,0,0,0,0,0,-1,1322,890,0,0
105,134,0,0,0,0,0,0,0,0,0,-1,1329,890,0,0
112,134,0,0,0,0,0,0,0,0,0,-1,1336,890,0,0
119,134,0,0,0,0,0,0,0,0,0,-1,1343,890,0,0
126,134,0,0,0,0,0,0,0,0,0,-1,1350,890,0,0
133,134,0,0,0,0,0,0,0,0,0,-1,1357,890,0,0
140,134,0,0,0,0,0,0,0,0,0,-1,1364,890,0,0
147,134,0,0,0,0,0,0,0,0,0,-1,1371,890,0,0
154,134,0,0,0,0,0,0,0,0,0,-1,1378,890,0,0
161,134,0,0,0,0,0,0,0,0,0,-1,1385,890,0,0
168,134,0,0,0,0,0,0,0,0,0,-1,1392,890,0,0
175,134,0,0,0,0,0,0,0,0,0,-1,1399,890,0,0
182,134,0,0,0,0,0,0,0,0,0,-1,1406,890,0,0
189,134,0,0,0,0,0,0,0,0,0,-1,1413,890,0,0
196,134,0,0,0,0,0,0,0,0,0,-1,1420,890,0,0
203,134,0,0,0,0,0,0,0,0,0,-1,1427,890,0,0
210,134,0,0,0,0,0,0,0,0,0,-1,1434,890,0,0
217,134,0,0,0,0,0,0,0,0,0,-1,1441,890,0,0
224,134,0,0,0,0,0,0,0,0,0,-1,1448,890,0,0
231,134,0,0,0,0,0,0,0,0,0,-1,1455,890,0,0
238,134,0,0,0,0,0,0,0,0,0,-1,1462,890,0,0
245,134,0,0,0,0,0,0,0,0,0,-1,1469,890,0,0
252,134,0,0,0,0,0,0,0,0,0,-1,1476,890,0,0
259,134,0,0,0,0,0,0,0,0,0,-1,1483,890,0,0
266,134,0,0,0,0,0,0,0,0,0,-1,1490,890,0,0
273,134,0,0,0,0,0,0,0,0,0,-1,1497,890,0,0
280,134,0,0,0,0,0,0,0,0,0,-1,1504,890,0,0
287,134,0,0,0,0,0,0,0,0,0,-1,1511,890,0,0
294,134,0,0,0,0,0,0,0,0,0,-1,1518,890,0,0
301,134,0,0,0,0,0,0,0,0,0,-1,1525,890,0,0
308,134,0,0,0,0,0,0,0,0,0,-1,1532,890,0,0
315,134,0,0,0,0,0,0,0,0,0,-1,1539,890,0,0
322,134,0,0,0,0,0,0,0,0,0,-1,1546,890,0,0
329,134,0,0,0,0,0,0,0,0,0,-1,1553,890,0,0
336,134,0,0,0,0,0,0,0,0,0,-1,1560,890,0,0
343,134,0,0,0,0,0,0,0,0,0,-1,1567,890,0,0
350,134,0,0,0,0,0,0,0,0,0,-1,1574,890,0,0
357,134,0,0,0,0,0,0,0,0,0,-1,1581,890,0,0
364,134,0,0,0,0,0,0,0,0,0,-1,1588,890,0,0
371,134,0,0,0,0,0,0,0,0,0,-1,1595,890,0,0
378,134,0,0,0,0,0,0,0,0,0,-1,1602,890,0,0
385,134,0,0,0,0,0,0,0,0,0,-1,1609,890,0,0
392,134,0,0,0,0,0,0,0,0,0,-1,1616,890,0,0
399,134,0,0,0,0,0,0,0,0,0,-1,1623,890,0,0
406,134,0,0,0,0,0,0,0,0,0,-1,1630,890,0,0
413,134,0,0,0,0,0,0,0,0,0,-1,1637,890,0,0
420,134,0,0,0,0,0,0,0,0,0,-1,1644,890,0,0
427,134,0,0,0,0,0,0,0,0,0,-1,1651,890,0,0
434,134,0,0,0,0,0,0,0,0,0,-1,1658,890,0,0
441,134,0,0,0,0,0,0,0,0,0,-1,1665,890,0,0
448,134,0,0,0,0,0,0,0,0,0,-1,1672,890,0,0
455,134,0,0,0,0,0,0,0,0,0,-1,1679,890,0,0
462,134,0,0,0,0,0,0,0,0,0,-1,1686,890,0,0
469,134,0,0,0,0,0,0,0,0,0,-1,1693,890,0,0
476,134,0,0,0,0,0,0,0,0,0,-1,1700,890,0,0
483,134,0,0,0,0,0,0,0,0,0,-1,1707,890,0,0
490,134,0,0,0,0,0,0,0,0,0,-1,1714,890,0,0
497,134,0,0,0,0,0,0,0,0,0,-1,1721,890,0,0
504,134,0,0,0,0,0,0,0,0,0,-1,1728,890,0,0
511,134,0,0,0,0,0,0,0,0,0,-1,1735,890,0,0
518,134,0,0,0,0,0,0,0,0,0,-1,1742,890,0,0
525,134,0,0,0,0,0,0,0,0,0,-1,1749,890,0,0
532,134,0,0,0,0,0,0,0,0,0,-1,1756,890,0,0
539,134,0,0,0,0,0,0,0,0,0,-1,1763,890,0,0
546,134,0,0,0,0,0,0,0,0,0,-1,1770,890,0,0
553,134,0,0,0,0,0,0,0,0,0,-1,1777,890,0,0
560,134,0,0,0,0,0,0,0,0,0,-1,1784,890,0,0
567,134,0,0,0,0,0,0,0,0,0,-1,1791,890,0,0
574,134,0,0,0,0,0,0,0,0,0,-1,1798,890,0,0
581,134,0,0,0,0,0,0,0,0,0,-1,1805,890,0,0
588,134,0,0,0,0,0,0,0,0,0,-1,1812,890,0,0
595,134,0,0,0,0,0,0,0,0,0,-1,1819,890,0,0
602,134,0,0,0,0,0,0,0,0,0,-1,1826,890,0,0
609,134,0,0,0,0,0,0,0,0,0,-1,1833,890,0,0
616,134,0,0,0,0,0,0,0,0,0,-1,1840,890,0,0
623,134,22.2122,2.85297,0.00580605,0.0068033,0.00111512,0.0075262,0.00508315,0.995639,0.00443347,0.043488,1847,890,22.2122,-2.85297
630,134,22.1647,2.81281,0.00432323,0.00550747,0.00106149,0.00613082,0.00369988,1.03981,0.00356481,0.0461894,1854,890,22.1646,-2.81278
637,134,22.2571,2.89459,0.00323729,0.00439201,0.000798335,0.00479988,0.00282941,1.09847,0.00278597,0.0447944,1861,890,22.257,-2.8946
644,134,22.3575,3.04059,0.00143803,0.00333743,0.000597802,0.00350992,0.00126555,1.2899,0.00205255,0.0378977,1868,890,22.3575,-3.04057
651,134,22.4288,2.99451,-0.00121301,0.00256113,0.000300436,0.0025849,-0.00123678,1.49186,0.00225174,0.0381482,1875,890,22.4288,-2.99449
658,134,22.421,2.97919,-0.00370673,0.00193957,4.48012e-05,0.00193992,-0.00370709,1.56286,0.00331309,0.0402165,1882,890,22.421,-2.97916
665,134,22.3248,2.93054,-0.00566844,0.0014629,-0.000166361,0.00146678,-0.00567232,-1.54749,0.00435363,0.033215,1889,890,22.3248,-2.93056
672,134,22.2878,2.87128,-0.00711876,0.00116777,-0.000301195,0.0011787,-0.00712969,-1.53451,0.00519083,0.0224165,1896,890,22.2879,-2.87129
679,134,22.278,2.84247,-0.00802905,0.000832777,-0.000391708,0.000850057,-0.00804633,-1.52671,0.00566886,0.0186769,1903,890,22.278,-2.84246
686,134,22.2659,2.88348,0,0,0,0,0,0,0,-1,1910,890,22.2658,-2.88351
693,134,20.4592,2.99811,-0.00900328,0.000410147,-0.000539846,0.000441005,-0.00903414,-1.5137,0.00617501,0.0409368,1917,890,20.4593,-2.9981
700,134,19.5132,3.01733,-0.00890978,0.000322535,-0.000656662,0.000369007,-0.00895626,-1.50014,0.00609756,0.0216899,1924,890,19.5132,-3.01733
707,134,19.376,3.09564,-0.00828508,0.000345675,-0.000677527,0.000398538,-0.00833794,-1.49293,0.00569612,0.0201254,1931,890,19.376,-3.09565
714,134,19.4281,3.35486,-0.0069518,0.000445795,-0.000806675,0.000532738,-0.00703874,-1.46343,0.00487978,0.0190158,1938,890,19.4281,-3.35489
721,134,19.5696,3.60486,-0.00498544,0.000476761,-0.000994967,0.000652354,-0.00516103,-1.39611,0.00367748,0.0150705,1945,890,19.5696,-3.60488
728,134,19.5912,3.7865,-0.00307637,0.000752741,-0.00115667,0.00107502,-0.00339865,-1.29906,0.0026965,0.014887,1952,890,19.5912,-3.78647
735,134,19.5786,3.99091,-0.00102256,0.00131015,-0.00153937,0.00207513,-0.00178754,-1.1096,0.00223217,0.0210851,1959,890,19.5786,-3.99091
742,134,19.5493,4.18341,0.000416632,0.00166803,-0.00162908,0.00278743,-0.000702772,-0.968753,0.00213152,0.0151374,1966,890,19.5493,-4.18341
749,134,19.58,4.33575,0.00109188,0.00131424,-0.00136503,0.00257261,-0.000166491,-0.826033,0.00177318,0.0127897,1973,890,19.5799,-4.33574
756,134,19.5699,4.48511,0.0013406,0.00118335,-0.00131353,0.00257786,-5.39038e-05,-0.755504,0.00173682,0.016791,1980,890,19.5699,-4.48508
763,134,19.5396,4.60101,0.000685463,0.000383562,-0.000670895,0.00122218,-0.000153154,-0.674742,0.000870341,0.0358133,1987,890,19.5395,-4.60102
770,134,19.5092,4.71625,0,0,0,0,0,0,0,-1,1994,890,19.5092,-4.71625
777,134,19.9448,4.34338,0,0,0,0,0,0,0,-1,2001,890,19.9449,-4.3434
784,134,21.4988,4.07019,0,0,0,0,0,0,0,-1,2008,890,21.4988,-4.07017
791,134,22.1859,4.17438,0,0,0,0,0,0,0,-1,2015,890,22.1859,-4.17436
798,134,0,0,0,0,0,0,0,0,0,-1,2022,890,0,0
805,134,0,0,0,0,0,0,0,0,0,-1,2029,890,0,0
812,134,0,0,0,0,0,0,0,0,0,-1,2036,890,0,0
-700,127,0,0,0,0,0,0,0,0,0,-1,524,897,0,0
-693,127,0,0,0,0,0,0,0,0,0,-1,531,897,0,0
-686,127,0,0,0,0,0,0,0,0,0,-1,538,897,0,0
-679,127,-12.8329,3.61676,0.0195826,0.115626,-0.0120651,0.117118,0.0180901,-1.44772,0.072802,0.0434437,545,897,-12.8329,-3.61675
-672,127,-12.5827,3.10504,0.00695678,0.0976217,-0.00914947,0.0985358,0.00604268,-1.47122,0.0637718,0.0444246,552,897,-12.5827,-3.10502
-665,127,-12.1046,2.53925,-0.000464392,0.0803777,-0.00616069,0.0808444,-0.000931185,-1.49517,0.0542094,0.0468798,559,897,-12.1046,-2.53922
-658,127,-14.8941,1.88605,-0.00471894,0.0647085,-0.003452,0.0648797,-0.00489016,-1.52124,0.0449719,0.0461095,566,897,-14.8941,-1.88607
-651,127,-14.3109,2.0871,0,0,0,0,0,0,0,-1,573,897,-14.3109,-2.08709
-644,127,-13.6066,2.09039,0,0,0,0,0,0,0,-1,580,897,-13.6066,-2.09038
-637,127,-13.15,2.20001,-0.007808,0.028749,0.00169522,0.0288274,-0.00788644,1.52456,0.0223165,0.044799,587,897,-13.1499,-2.20002
-630,127,-12.8978,2.20972,-0.00723069,0.020487,0.00238168,0.0206902,-0.00743385,1.4857,0.0168279,0.0334975,594,897,-12.8978,-2.20971
-623,127,-12.9725,2.01727,-0.00737976,0.0136944,0.00245612,0.0139769,-0.00766222,1.45629,0.0126694,0.0135447,601,897,-12.9725,-2.01726
-616,127,-13.0067,1.90259,-0.00724077,0.00791096,0.00269714,0.00837675,-0.00770657,1.39978,0.0092884,0.00959172,608,897,-13.0067,-1.9026
-609,127,-13.0189,1.75311,-0.00622514,0.00307345,0.0029625,0.00393709,-0.00708877,1.28714,0.00645189,0.0129801,615,897,-13.0189,-1.75309
-602,127,-13.0135,1.60272,-0.00593517,0.000376972,0.00294041,0.00153446,-0.00709266,1.19578,0.00531429,0.0147101,622,897,-13.0135,-1.60274
-595,127,-12.9994,1.46375,-0.00693825,-0.00108216,0.0028,4.11458e-05,-0.00806156,1.18927,0.00538814,0.0146399,629,897,-12.9994,-1.46375
-588,127,-13.1086,1.3316,-0.00762974,-0.00178693,0.00230465,-0.000987309,-0.00842936,1.23683,0.00532109,0.0194198,636,897,-13.1086,-1.33158
-581,127,-13.1505,1.14081,-0.00851715,-0.00211052,0.00208265,-0.00149302,-0.00913465,1.28255,0.00565814,0.029037,643,897,-13.1505,-1.14081
-574,127,-13.092,0.979736,-0.0094771,-0.00232311,0.00216272,-0.00172012,-0.0100801,1.29889,0.00622639,0.0268777,650,897,-13.092,-0.979739
-567,127,-12.9745,0.767212,0,0,0,0,0,0,0,-1,657,897,-12.9746,-0.767225
-560,127,-13.7561,0.890442,0,0,0,0,0,0,0,-1,664,897,-13.7561,-0.890438
-553,127,-14.9418,0.82373,-0.0105783,-0.00254077,0.00233233,-0.001913,-0.0112061,1.30787,0.00692173,0.0414309,671,897,-14.9418,-0.823703
-546,127,-14.8956,0.919373,-0.0102847,-0.00215761,0.00229088,-0.00155633,-0.010886,1.31412,0.00679819,0.023611,678,897,-14.8956,-0.919379
-539,127,-14.8752,0.949341,-0.00933183,-0.00158905,0.00206815,-0.00107126,-0.00984962,1.32547,0.00624006,0.0199659,685,897,-14.8752,-0.949312
-532,127,-14.8421,0.976135,-0.00759426,-0.000726666,0.00167555,-0.000339675,-0.00798125,1.34381,0.0052113,0.0163343,692,897,-14.8421,-0.976114
-525,127,-14.8103,1.01471,-0.00491136,0.000456917,0.00107527,0.000664283,-0.00511872,1.38028,0.00365409,0.0322782,699,897,-14.8103,-1.01468
-518,127,-14.7745,1.02228,-0.00105804,0.00200603,0.000273243,0.00203021,-0.00108222,1.48255,0.00182453,0.0418563,706,897,-14.7745,-1.0223
-511,127,-14.753,0.947571,0.00251873,0.00365735,-0.000532273,0.00386742,0.00230867,-1.1949,0.00224681,0.0437987,713,897,-14.753,-0.947544
-504,127,0,0,0,0,0,0,0,0,0,-1,720,897,0,0
-497,127,0,0,0,0,0,0,0,0,0,-1,727,897,0,0
-490,127,0,0,0,0,0,0,0,0,0,-1,734,897,0,0
-483,127,0,0,0,0,0,0,0,0,0,-1,741,897,0,0
-476,127,0,0,0,0,0,0,0,0,0,-1,748,897,0,0
-469,127,0,0,0,0,0,0,0,0,0,-1,755,897,0,0
-462,127,0,0,0,0,0,0,0,0,0,-1,762,897,0,0
-455,127,0,0,0,0,0,0,0,0,0,-1,769,897,0,0
-448,127,0,0,0,0,0,0,0,0,0,-1,776,897,0,0
-441,127,0,0,0,0,0,0,0,0,0,-1,783,897,0,0
-434,127,0,0,0,0,0,0,0,0,0,-1,790,897,0,0
-427,127,0,0,0,0,0,0,0,0,0,-1,797,897,0,0
-420,127,0,0,0,0,0,0,0,0,0,-1,804,897,0,0
-413,127,0,0,0,0,0,0,0,0,0,-1,811,897,0,0
-406,127,0,0,0,0,0,0,0,0,0,-1,818,897,0,0
-399,127,0,0,0,0,0,0,0,0,0,-1,825,897,0,0
-392,127,0,0,0,0,0,0,0,0,0,-1,832,897,0,0
-385,127,0,0,0,0,0,0,0,0,0,-1,839,897,0,0
-378,127,0,0,0,0,0,0,0,0,0,-1,846,897,0,0
-371,127,0,0,0,0,0,0,0,0,0,-1,853,897,0,0
-364,127,0,0,0,0,0,0,0,0,0,-1,860,897,0,0
-357,127,0,0,0,0,0,0,0,0,0,-1,867,897,0,0
-350,127,0,0,0,0,0,0,0,0,0,-1,874,897,0,0
-343,127,0,0,0,0,0,0,0,0,0,-1,881,897,0,0
-336,127,0,0,0,0,0,0,0,0,0,-1,888,897,0,0
-329,127,0,0,0,0,0,0,0,0,0,-1,895,897,0,0
-322,127,0,0,0,0,0,0,0,0,0,-1,902,897,0,0
-315,127,0,0,0,0,0,0,0,0,0,-1,909,897,0,0
-308,127,0,0,0,0,0,0,0,0,0,-1,916,897,0,0
-301,127,0,0,0,0,0,0,0,0,0,-1,923,897,0,0
-294,127,0,0,0,0,0,0,0,0,0,-1,930,897,0,0
-287,127,0,0,0,0,0,0,0,0,0,-1,937,897,0,0
-280,127,0,0,0,0,0,0,0,0,0,-1,944,897,0,0
-273,127,0,0,0,0,0,0,0,0,0,-1,951,897,0,0
-266,127,0,0,0,0,0,0,0,0,0,-1,958,897,0,0
-259,127,0,0,0,0,0,0,0,0,0,-1,965,897,0,0
-252,127,0,0,0,0,0,0,0,0,0,-1,972,897,0,0
-245,127,0,0,0,0,0,0,0,0,0,-1,979,897,0,0
-238,127,0,0,0,0,0,0,0,0,0,-1,986,897,0,0
-231,127,0,0,0,0,0,0,0,0,0,-1,993,897,0,0
-224,127,0,0,0,0,0,0,0,0,0,-1,1000,897,0,0
-217,127,0,0,0,0,0,0,0,0,0,-1,1007,897,0,0
-210,127,0,0,0,0,0,0,0,0,0,-1,1014,897,0,0
-203,127,0,0,0,0,0,0,0,0,0,-1,1021,897,0,0
-196,127,0,0,0,0,0,0,0,0,0,-1,1028,897,0,0
-189,127,0,0,0,0,0,0,0,0,0,-1,1035,897,0,0
-182,127,0,0,0,0,0,0,0,0,0,-1,1042,897,0,0
-175,127,0,0,0,0,0,0,0,0,0,-1,1049,897,0,0
-168,127,0,0,0,0,0,0,0,0,0,-1,1056,897,0,0
-161,127,0,0,0,0,0,0,0,0,0,-1,1063,897,0,0
-154,127,0,0,0,0,0,0,0,0,0,-1,1070,897,0,0
-147,127,0,0,0,0,0,0,0,0,0,-1,1077,897,0,0
-140,127,0,0,0,0,0,0,0,0,0,-1,1084,897,0,0
-133,127,0,0,0,0,0,0,0,0,0,-1,1091,897,0,0
-126,127,0,0,0,0,0,0,0,0,0,-1,1098,897,0,0
-119,127,0,0,0,0,0,0,0,0,0,-1,1105,897,0,0
-112,127,0,0,0,0,0,0,0,0,0,-1,1112,897,0,0
-105,127,0,0,0,0,0,0,0,0,0,-1,1119,897,0,0
-98,127,0,0,0,0,0,0,0,0,0,-1,1126,897,0,0
-91,127,0,0,0,0,0,0,0,0,0,-1,1133,897,0,0
-84,127,0,0,0,0,0,0,0,0,0,-1,1140,897,0,0
-77,127,0,0,0,0,0,0,0,0,0,-1,1147,897,0,0
-70,127,0,0,0,0,0,0,0,0,0,-1,1154,897,0,0
-63,127,0,0,0,0,0,0,0,0,0,-1,1161,897,0,0
-56,127,0,0,0,0,0,0,0,0,0,-1,1168,897,0,0
-49,127,0,0,0,0,0,0,0,0,0,-1,1175,897,0,0
-42,127,0,0,0,0,0,0,0,0,0,-1,1182,897,0,0
-35,127,0,0,0,0,0,0,0,0,0,-1,1189,897,0,0
-28,127,0,0,0,0,0,0,0,0,0,-1,1196,897,0,0
-21,127,0,0,0,0,0,0,0,0,0,-1,1203,897,0,0
-14,127,0,0,0,0,0,0,0,0,0,-1,1210,897,0,0
-7,127,0,0,0,0,0,0,0,0,0,-1,1217,897,0,0
0,127,0,0,0,0,0,0,0,0,0,-1,1224,897,0,0
7,127,0,0,0,0,0,0,0,0,0,-1,1231,897,0,0
14,127,0,0,0,0,0,0,0,0,0,-1,1238,897,0,0
21,127,0,0,0,0,0,0,0,0,0,-1,1245,897,0,0
28,127,0,0,0,0,0,0,0,0,0,-1,1252,897,0,0
35,127,0,0,0,0,0,0,0,0,0,-1,1259,897,0,0
42,127,0,0,0,0,0,0,0,0,0,-1,1266,897,0,0
49,127,0,0,0,0,0,0,0,0,0,-1,1273,897,0,0
56,127,0,0,0,0,0,0,0,0,0,-1,1280,897,0,0
63,127,0,0,0,0,0,0,0,0,0,-1,1287,897,0,0
70,127,0,0,0,0,0,0,0,0,0,-1,1294,897,0,0
77,127,0,0,0,0,0,0,0,0,0,-1,1301,897,0,0
84,127,0,0,0,0,0,0,0,0,0,-1,1308,897,0,0
91,127,0,0,0,0,0,0,0,0,0,-1,1315,897,0,0
98,127,0,0,0,0,0,0,0,0,0,-1,1322,897,0,0
105,127,0,0,0,0,0,0,0,0,0,-1,1329,897,0,0
112,127,0,0,0,0,0,0,0,0,0,-1,1336,897,0,0
119,127,0,0,0,0,0,0,0,0,0,-1,1343,897,0,0
126,127,0,0,0,0,0,0,0,0,0,-1,1350,897,0,0
133,127,0,0,0,0,0,0,0,0,0,-1,1357,897,0,0
140,127,0,0,0,0,0,0,0,0,0,-1,1364,897,0,0
147,127,0,0,0,0,0,0,0,0,0,-1,1371,897,0,0
154,127,0,0,0,0,0,0,0,0,0,-1,1378,897,0,0
161,127,0,0,0,0,0,0,0,0,0,-1,1385,897,0,0
168,127,0,0,0,0,0,0,0,0,0,-1,1392,897,0,0
175,127,0,0,0,0,0,0,0,0,0,-1,1399,897,0,0
182,127,0,0,0,0,0,0,0,0,0,-1,1406,897,0,0
189,127,0,0,0,0,0,0,0,0,0,-1,1413,897,0,0
196,127,0,0,0,0,0,0,0,0,0,-1,1420,897,0,0
203,127,0,0,0,0,0,0,0,0,0,-1,1427,897,0,0
210,127,0,0,0,0,0,0,0,0,0,-1,1434,897,0,0
217,127,0,0,0,0,0,0,0,0,0,-1,1441,897,0,0
224,127,0,0,0,0,0,0,0,0,0,-1,1448,897,0,0
231,127,0,0,0,0,0,0,0,0,0,-1,1455,897,0,0
238,127,0,0,0,0,0,0,0,0,0,-1,1462,897,0,0
245,127,0,0,0,0,0,0,0,0,0,-1,1469,897,0,0
252,127,0,0,0,0,0,0,0,0,0,-1,1476,897,0,0
259,127,0,0,0,0,0,0,0,0,0,-1,1483,897,0,0
266,127,0,0,0,0,0,0,0,0,0,-1,1490,897,0,0
273,127,0,0,0,0,0,0,0,0,0,-1,1497,897,0,0
280,127,0,0,0,0,0,0,0,0,0,-1,1504,897,0,0
287,127,0,0,0,0,0,0,0,0,0,-1,1511,897,0,0
294,127,0,0,0,0,0,0,0,0,0,-1,1518,897,0,0
301,127,0,0,0,0,0,0,0,0,0,-1,1525,897,0,0
308,127,0,0,0,0,0,0,0,0,0,-1,1532,897,0,0
315,127,0,0,0,0,0,0,0,0,0,-1,1539,897,0,0
322,127,0,0,0,0,0,0,0,0,0,-1,1546,897,0,0
329,127,0,0,0,0,0,0,0,0,0,-1,1553,897,0,0
336,127,0,0,0,0,0,0,0,0,0,-1,1560,897,0,0
343,127,0,0,0,0,0,0,0,0,0,-1,1567,897,0,0
350,127,0,0,0,0,0,0,0,0,0,-1,1574,897,0,0
357,127,0,0,0,0,0,0,0,0,0,-1,1581,897,0,0
364,127,0,0,0,0,0,0,0,0,0,-1,1588,897,0,0
371,127,0,0,0,0,0,0,0,0,0,-1,1595,897,0,0
378,127,0,0,0,0,0,0,0,0,0,-1,1602,897,0,0
385,127,0,0,0,0,0,0,0,0,0,-1,1609,897,0,0
392,127,0,0,0,0,0,0,0,0,0,-1,1616,897,0,0
399,127,0,0,0,0,0,0,0,0,0,-1,1623,897,0,0
406,127,0,0,0,0,0,0,0,0,0,-1,1630,897,0,0
413,127,0,0,0,0,0,0,0,0,0,-1,1637,897,0,0
420,127,0,0,0,0,0,0,0,0,0,-1,1644,897,0,0
427,127,0,0,0,0,0,0,0,0,0,-1,1651,897,0,0
434,127,0,0,0,0,0,0,0,0,0,-1,1658,897,0,0
441,127,0,0,0,0,0,0,0,0,0,-1,1665,897,0,0
448,127,0,0,0,0,0,0,0,0,0,-1,1672,897,0,0
455,127,0,0,0,0,0,0,0,0,0,-1,1679,897,0,0
462,127,0,0,0,0,0,0,0,0,0,-1,1686,897,0,0
469,127,0,0,0,0,0,0,0,0,0,-1,1693,897,0,0
476,127,0,0,0,0,0,0,0,0,0,-1,1700,897,0,0
483,127,0,0,0,0,0,0,0,0,0,-1,1707,897,0,0
490,127,0,0,0,0,0,0,0,0,0,-1,1714,897,0,0
497,127,0,0,0,0,0,0,0,0,0,-1,1721,897,0,0
504,127,0,0,0,0,0,0,0,0,0,-1,1728,897,0,0
511,127,0,0,0,0,0,0,0,0,0,-1,1735,897,0,0
518,127,0,0,0,0,0,0,0,0,0,-1,1742,897,0,0
525,127,0,0,0,0,0,0,0,0,0,-1,1749,897,0,0
532,127,0,0,0,0,0,0,0,0,0,-1,1756,897,0,0
539,127,0,0,0,0,0,0,0,0,0,-1,1763,897,0,0
546,127,0,0,0,0,0,0,0,0,0,-1,1770,897,0,0
553,127,0,0,0,0,0,0,0,0,0,-1,1777,897,0,0
560,127,0,0,0,0,0,0,0,0,0,-1,1784,897,0,0
567,127,0,0,0,0,0,0,0,0,0,-1,1791,897,0,0
574,127,0,0,0,0,0,0,0,0,0,-1,1798,897,0,0
581,127,0,0,0,0,0,0,0,0,0,-1,1805,897,0,0
588,127,0,0,0,0,0,0,0,0,0,-1,1812,897,0,0
595,127,0,0,0,0,0,0,0,0,0,-1,1819,897,0,0
602,127,0,0,0,0,0,0,0,0,0,-1,1826,897,0,0
609,127,0,0,0,0,0,0,0,0,0,-1,1833,897,0,0
616,127,0,0,0,0,0,0,0,0,0,-1,1840,897,0,0
623,127,0,0,0,0,0,0,0,0,0,-1,1847,897,0,0
630,127,22.1398,2.81799,0.00391782,0.00580414,0.00129512,0.00646313,0.00325882,1.10011,0.00373154,0.0440647,1854,897,22.1398,-2.81798
637,127,22.3451,2.84491,0.00300737,0.00481532,0.00110085,0.00533579,0.0024869,1.12915,0.00308298,0.0417757,1861,897,22.3451,-2.84491
644,127,22.4502,2.88361,0.00145374,0.00383299,0.000983703,0.00418703,0.00109971,1.22533,0.00250653,0.0394228,1868,897,22.4502,-2.88363
651,127,22.3765,2.93573,-0.00130677,0.00311441,0.000668678,0.00321333,-0.00140569,1.42393,0.00273402,0.0406998,1875,897,22.3764,-2.93573
658,127,22.3345,2.97827,-0.00404242,0.00251851,0.000378122,0.00254023,-0.00406414,1.51342,0.00384672,0.0411309,1882,897,22.3345,-2.97826
665,127,22.3085,2.90875,-0.00621378,0.00202663,0.000131725,0.00202873,-0.00621589,1.55482,0.00496044,0.0360487,1889,897,22.3085,-2.90873
672,127,22.2594,2.80017,-0.00776658,0.00168002,-3.41121e-05,0.00168014,-0.0077667,-1.56719,0.00581927,0.0302006,1896,897,22.2594,-2.80018
679,127,22.332,2.77631,-0.00872421,0.00130895,-0.000154729,0.00131133,-0.00872659,-1.55538,0.0063005,0.0233103,1903,897,22.3321,-2.77632
686,127,22.3058,2.85455,-0.00933619,0.000965798,-0.000226078,0.000970757,-0.00934115,-1.54887,0.00657495,0.0275371,1910,897,22.3058,-2.85457
693,127,20.9518,2.92542,-0.0095811,0.000819472,-0.000343634,0.000830814,-0.00959244,-1.5378,0.00668912,0.0403155,1917,897,20.9517,-2.92541
700,127,19.7549,3.02533,-0.00938719,0.000689652,-0.000488112,0.00071324,-0.00941077,-1.52251,0.0065246,0.0298693,1924,897,19.7549,-3.02535
707,127,19.584,3.159,-0.00866869,0.000641243,-0.000592948,0.000678856,-0.0087063,-1.50745,0.00604321,0.0244036,1931,897,19.5839,-3.15901
714,127,19.6241,3.38232,-0.0072829,0.000641194,-0.000763023,0.000713998,-0.0073557,-1.47567,0.0051583,0.0205184,1938,897,19.6242,-3.38232
721,127,19.7828,3.64502,-0.00541472,0.000584671,-0.00100898,0.000749815,-0.00557986,-1.40856,0.00399338,0.0133525,1945,897,19.7828,-3.64505
728,127,19.7853,3.79779,-0.00369962,0.000824821,-0.00125166,0.001148,-0.0040228,-1.31811,0.00313539,0.0125576,1952,897,19.7852,-3.7978
735,127,19.7834,4.00244,-0.00186657,0.00139401,-0.00175239,0.0021572,-0.00262976,-1.16006,0.00276824,0.0188599,1959,897,19.7835,-4.00245
742,127,19.7668,4.18219,-0.000619258,0.00180455,-0.00201623,0.00294507,-0.00175978,-1.056,0.00274493,0.0173208,1966,897,19.7669,-4.18216
749,127,19.7378,4.32477,0.00010763,0.00166104,-0.00203511,0.00306262,-0.00129395,-0.967694,0.00258344,0.0126219,1973,897,19.7378,-4.32478
756,127,19.7152,4.46033,0.000322774,0.0018155,-0.00235771,0.00354216,-0.00140389,-0.938689,0.00294321,0.0141207,1980,897,19.7152,-4.46034
763,127,19.7137,4.56,-0.00049207,0.00148536,-0.00216416,0.00287596,-0.00188268,-0.999669,0.00276728,0.0208382,1987,897,19.7137,-4.55999
770,127,20.0015,4.34869,-0.00186666,0.000302128,-0.00132236,0.000927865,-0.0024924,-1.12882,0.00204239,0.0398732,1994,897,20.0014,-4.34868
777,127,20.5708,3.97229,0,0,0,0,0,0,0,-1,2001,897,20.5708,-3.9723
784,127,21.1206,3.88593,0,0,0,0,0,0,0,-1,2008,897,21.1207,-3.8859
791,127,19.5059,4.68213,0,0,0,0,0,0,0,-1,2015,897,19.5058,-4.68211
798,127,0,0,0,0,0,0,0,0,0,-1,2022,897,0,0
805,127,0,0,0,0,0,0,0,0,0,-1,2029,897,0,0
812,127,0,0,0,0,0,0,0,0,0,-1,2036,897,0,0
-700,120,0,0,0,0,0,0,0,0,0,-1,524,904,0,0
-693,120,0,0,0,0,0,0,0,0,0,-1,531,904,0,0
-686,120,0,0,0,0,0,0,0,0,0,-1,538,904,0,0
-679,120,-12.9011,2.25073,0.0324607,0.094708,-0.00442645,0.0950212,0.0321475,-1.50016,0.0558084,0.0437097,545,904,-12.9011,-2.2507
-672,120,-12.5878,2.33118,0.0178678,0.0813685,-0.00407626,0.0816291,0.0176072,-1.50695,0.0496032,0.042452,552,904,-12.5878,-2.33119
-665,120,-14.7542,1.56506,0.00853816,0.06786,-0.00292257,0.0680036,0.00839452,-1.52169,0.0428128,0.0439663,559,904,-14.7542,-1.56506
-658,120,-14.5134,1.79297,0.00261611,0.0551445,-0.00150226,0.0551874,0.00257318,-1.54223,0.0359646,0.0424539,566,904,-14.5134,-1.79295
-651,120,-13.8516,2.03009,-0.000996334,0.0436119,-0.000141397,0.0436123,-0.00099678,-1.56763,0.0294128,0.0473748,573,904,-13.8516,-2.03006
-644,120,-13.4044,2.00513,-0.00306458,0.0334654,0.000995359,0.0334925,-0.00309168,1.54358,0.023427,0.0466591,580,904,-13.4043,-2.00511
-637,120,-13.2936,2.07074,-0.00410406,0.0248139,0.00180862,0.0249266,-0.00421673,1.50858,0.018187,0.0414151,587,904,-13.2936,-2.07071
-630,120,-13.1436,2.1062,-0.00440672,0.0176915,0.00226959,0.0179222,-0.0046374,1.4695,0.013757,0.0229934,594,904,-13.1436,-2.10622
-623,120,-13.1754,2.00763,-0.00542821,0.0118265,0.00218946,0.0121,-0.0057017,1.44653,0.0104968,0.0106044,601,904,-13.1753,-2.00766
-616,120,-13.173,1.88812,-0.00608418,0.0068179,0.00230345,0.00721681,-0.00648309,1.39932,0.00791342,0.00931659,608,904,-13.1731,-1.88811
-609,120,-13.184,1.74854,-0.00570149,0.00243926,0.00259331,0.00319519,-0.00645742,1.28716,0.00567804,0.0129316,615,904,-13.184,-1.74854
-602,120,-13.1977,1.60516,-0.00579182,0.000160696,0.00256121,0.001111,-0.00674213,1.2155,0.00490719,0.0138394,622,904,-13.1977,-1.60515
-595,120,-13.176,1.47375,-0.00694704,-0.00104174,0.00241373,-0.000180702,-0.00780808,1.22814,0.00514621,0.0177272,629,904,-13.176,-1.47376
-588,120,-13.2339,1.32379,-0.00771779,-0.00157971,0.00190437,-0.00103688,-0.00826062,1.29311,0.00519606,0.0235688,636,904,-13.234,-1.32378
-581,120,-13.3184,1.16956,-0.00858811,-0.00186237,0.00165913,-0.00147536,-0.00897512,1.34163,0.0055573,0.0296206,643,904,-13.3184,-1.16953
-574,120,-13.1981,0.960083,-0.00944532,-0.00207331,0.00171825,-0.0016925,-0.00982613,1.35269,0.00606581,0.0238543,650,904,-13.1981,-0.960101
-567,120,-13.1857,0.966187,0,0,0,0,0,0,0,-1,657,904,-13.1857,-0.966215
-560,120,-14.9085,0.84967,0,0,0,0,0,0,0,-1,664,904,-14.9085,-0.849687
-553,120,-14.8879,1.00909,-0.0101532,-0.00222745,0.00181544,-0.0018314,-0.0105492,1.35601,0.00650881,0.0392626,671,904,-14.8879,-1.0091
-546,120,-14.8423,1.07391,-0.00967748,-0.00189495,0.00175555,-0.00151727,-0.0100552,1.35889,0.00625929,0.0338793,678,904,-14.8423,-1.07392
-539,120,-14.8253,1.01019,-0.00854167,-0.00136051,0.00154761,-0.00104118,-0.00886099,1.36732,0.00559267,0.026403,685,904,-14.8253,-1.01021
-532,120,-14.7309,0.974731,-0.00666641,-0.000570422,0.00120235,-0.000341846,-0.00689498,1.38293,0.00448705,0.0273828,692,904,-14.7309,-0.97473
-525,120,-14.8261,0.990662,-0.00389854,0.000481012,0.000676787,0.000583213,-0.00400074,1.42092,0.00288131,0.0357188,699,904,-14.8261,-0.990669
-518,120,-14.9408,1.04608,-0.000248452,0.00182683,-1.10499e-05,0.00182688,-0.00024851,-1.56547,0.00130865,0.0416211,706,904,-14.9408,-1.04607
-511,120,-14.9534,1.14276,0.00232846,0.00315206,-0.000643648,0.00350437,0.00197615,-1.06998,0.00202875,0.0420022,713,904,-14.9534,-1.14275
-504,120,0,0,0,0,0,0,0,0,0,-1,720,904,0,0
-497,120,0,0,0,0,0,0,0,0,0,-1,727,904,0,0
-490,120,0,0,0,0,0,0,0,0,0,-1,734,904,0,0
-483,120,0,0,0,0,0,0,0,0,0,-1,741,904,0,0
-476,120,0,0,0,0,0,0,0,0,0,-1,748,904,0,0
-469,120,0,0,0,0,0,0,0,0,0,-1,755,904,0,0
-462,120,0,0,0,0,0,0,0,0,0,-1,762,904,0,0
-455,120,0,0,0,0,0,0,0,0,0,-1,769,904,0,0
-448,120,0,0,0,0,0,0,0,0,0,-1,776,904,0,0
-441,120,0,0,0,0,0,0,0,0,0,-1,783,904,0,0
-434,120,0,0,0,0,0,0,0,0,0,-1,790,904,0,0
-427,120,0,0,0,0,0,0,0,0,0,-1,797,904,0,0
-420,120,0,0,0,0,0,0,0,0,0,-1,804,904,0,0
-413,120,0,0,0,0,0,0,0,0,0,-1,811,904,0,0
-406,120,0,0,0,0,0,0,0,0,0,-1,818,904,0,0
-399,120,0,0,0,0,0,0,0,0,0,-1,825,904,0,0
-392,120,0,0,0,0,0,0,0,0,0,-1,832,904,0,0
-385,120,0,0,0,0,0,0,0,0,0,-1,839,904,0,0
-378,120,0,0,0,0,0,0,0,0,0,-1,846,904,0,0
-371,120,0,0,0,0,0,0,0,0,0,-1,853,904,0,0
-364,120,0,0,0,0,0,0,0,0,0,-1,860,904,0,0
-357,120,0,0,0,0,0,0,0,0,0,-1,867,904,0,0
-350,120,0,0,0,0,0,0,0,0,0,-1,874,904,0,0
-343,120,0,0,0,0,0,0,0,0,0,-1,881,904,0,0
-336,120,0,0,0,0,0,0,0,0,0,-1,888,904,0,0
-329,120,0,0,0,0,0,0,0,0,0,-1,895,904,0,0
-322,120,0,0,0,0,0,0,0,0,0,-1,902,904,0,0
-315,120,0,0,0,0,0,0,0,0,0,-1,909,904,0,0
-308,120,0,0,0,0,0,0,0,0,0,-1,916,904,0,0
-301,120,0,0,0,0,0,0,0,0,0,-1,923,904,0,0
-294,120,0,0,0,0,0,0,0,0,0,-1,930,904,0,0
-287,120,0,0,0,0,0,0,0,0,0,-1,937,904,0,0
-280,120,0,0,0,0,0,0,0,0,0,-1,944,904,0,0
-273,120,0,0,0,0,0,0,0,0,0,-1,951,904,0,0
-266,120,0,0,0,0,0,0,0,0,0,-1,958,904,0,0
-259,120,0,0,0,0,0,0,0,0,0,-1,965,904,0,0
-252,120,0,0,0,0,0,0,0,0,0,-1,972,904,0,0
-245,120,0,0,0,0,0,0,0,0,0,-1,979,904,0,0
-238,120,0,0,0,0,0,0,0,0,0,-1,986,904,0,0
-231,120,0,0,0,0,0,0,0,0,0,-1,993,904,0,0
-224,120,0,0,0,0,0,0,0,0,0,-1,1000,904,0,0
-217,120,0,0,0,0,0,0,0,0,0,-1,1007,904,0,0
-210,120,0,0,0,0,0,0,0,0,0,-1,1014,904,0,0
-203,120,0,0,0,0,0,0,0,0,0,-1,1021,904,0,0
-196,120,0,0,0,0,0,0,0,0,0,-1,1028,904,0,0
-189,120,0,0,0,0,0,0,0,0,0,-1,1035,904,0,0
-182,120,0,0,0,0,0,0,0,0,0,-1,1042,904,0,0
-175,120,0,0,0,0,0,0,0,0,0,-1,1049,904,0,0
-168,120,0,0,0,0,0,0,0,0,0,-1,1056,904,0,0
-161,120,0,0,0,0,0,0,0,0,0,-1,1063,904,0,0
-154,120,0,0,0,0,0,0,0,0,0,-1,1070,904,0,0
-147,120,0,0,0,0,0,0,0,0,0,-1,1077,904,0,0
-140,120,0,0,0,0,0,0,0,0,0,-1,1084,904,0,0
-133,120,0,0,0,0,0,0,0,0,0,-1,1091,904,0,0
-126,120,0,0,0,0,0,0,0,0,0,-1,1098,904,0,0
-119,120,0,0,0,0,0,0,0,0,0,-1,1105,904,0,0
-112,120,0,0,0,0,0,0,0,0,0,-1,1112,904,0,0
-105,120,0,0,0,0,0,0,0,0,0,-1,1119,904,0,0
-98,120,0,0,0,0,0,0,0,0,0,-1,1126,904,0,0
-91,120,0,0,0,0,0,0,0,0,0,-1,1133,904,0,0
-84,120,0,0,0,0,0,0,0,0,0,-1,1140,904,0,0
-77,120,0,0,0,0,0,0,0,0,0,-1,1147,904,0,0
-70,120,0,0,0,0,0,0,0,0,0,-1,1154,904,0,0
-63,120,0,0,0,0,0,0,0,0,0,-1,1161,904,0,0
-56,120,0,0,0,0,0,0,0,0,0,-1,1168,904,0,0
-49,120,0,0,0,0,0,0,0,0,0,-1,1175,904,0,0
-42,120,0,0,0,0,0,0,0,0,0,-1,1182,904,0,0
-35,120,0,0,0,0,0,0,0,0,0,-1,1189,904,0,0
-28,120,0,0,0,0,0,0,0,0,0,-1,1196,904,0,0
-21,120,0,0,0,0,0,0,0,0,0,-1,1203,904,0,0
-14,120,0,0,0,0,0,0,0,0,0,-1,1210,904,0,0
-7,120,0,0,0,0,0,0,0,0,0,-1,1217,904,0,0
0,120,0,0,0,0,0,0,0,0,0,-1,1224,904,0,0
7,120,0,0,0,0,0,0,0,0,0,-1,1231,904,0,0
14,120,0,0,0,0,0,0,0,0,0,-1,1238,904,0,0
21,120,0,0,0,0,0,0,0,0,0,-1,1245,904,0,0
28,120,0,0,0,0,0,0,0,0,0,-1,1252,904,0,0
35,120,0,0,0,0,0,0,0,0,0,-1,1259,904,0,0
42,120,0,0,0,0,0,0,0,0,0,-1,1266,904,0,0
49,120,0,0,0,0,0,0,0,0,0,-1,1273,904,0,0
56,120,0,0,0,0,0,0,0,0,0,-1,1280,904,0,0
63,120,0,0,0,0,0,0,0,0,0,-1,1287,904,0,0
70,120,0,0,0,0,0,0,0,0,0,-1,1294,904,0,0
77,120,0,0,0,0,0,0,0,0,0,-1,1301,904,0,0
84,120,0,0,0,0,0,0,0,0,0,-1,1308,904,0,0
91,120,0,0,0,0,0,0,0,0,0,-1,1315,904,0,0
98,120,0,0,0,0,0,0,0,0,0,-1,1322,904,0,0
105,120,0,0,0,0,0,0,0,0,0,-1,1329,904,0,0
112,120,0,0,0,0,0,0,0,0,0,-1,1336,904,0,0
119,120,0,0,0,0,0,0,0,0,0,-1,1343,904,0,0
126,120,0,0,0,0,0,0,0,0,0,-1,1350,904,0,0
133,120,0,0,0,0,0,0,0,0,0,-1,1357,904,0,0
140,120,0,0,0,0,0,0,0,0,0,-1,1364,904,0,0
147,120,0,0,0,0,0,0,0,0,0,-1,1371,904,0,0
154,120,0,0,0,0,0,0,0,0,0,-1,1378,904,0,0
161,120,0,0,0,0,0,0,0,0,0,-1,1385,904,0,0
168,120,0,0,0,0,0,0,0,0,0,-1,1392,904,0,0
175,120,0,0,0,0,0,0,0,0,0,-1,1399,904,0,0
182,120,0,0,0,0,0,0,0,0,0,-1,1406,904,0,0
189,120,0,0,0,0,0,0,0,0,0,-1,1413,904,0,0
196,120,0,0,0,0,0,0,0,0,0,-1,1420,904,0,0
203,120,0,0,0,0,0,0,0,0,0,-1,1427,904,0,0
210,120,0,0,0,0,0,0,0,0,0,-1,1434,904,0,0
217,120,0,0,0,0,0,0,0,0,0,-1,1441,904,0,0
224,120,0,0,0,0,0,0,0,0,0,-1,1448,904,0,0
231,120,0,0,0,0,0,0,0,0,0,-1,1455,904,0,0
238,120,0,0,0,0,0,0,0,0,0,-1,1462,904,0,0
245,120,0,0,0,0,0,0,0,0,0,-1,1469,904,0,0
252,120,0,0,0,0,0,0,0,0,0,-1,1476,904,0,0
259,120,0,0,0,0,0,0,0,0,0,-1,1483,904,0,0
266,120,0,0,0,0,0,0,0,0,0,-1,1490,904,0,0
273,120,0,0,0,0,0,0,0,0,0,-1,1497,904,0,0
280,120,0,0,0,0,0,0,0,0,0,-1,1504,904,0,0
287,120,0,0,0,0,0,0,0,0,0,-1,1511,904,0,0
294,120,0,0,0,0,0,0,0,0,0,-1,1518,904,0,0
301,120,0,0,0,0,0,0,0,0,0,-1,1525,904,0,0
308,120,0,0,0,0,0,0,0,0,0,-1,1532,904,0,0
315,120,0,0,0,0,0,0,0,0,0,-1,1539,904,0,0
322,120,0,0,0,0,0,0,0,0,0,-1,1546,904,0,0
329,120,0,0,0,0,0,0,0,0,0,-1,1553,904,0,0
336,120,0,0,0,0,0,0,0,0,0,-1,1560,904,0,0
343,120,0,0,0,0,0,0,0,0,0,-1,1567,904,0,0
350,120,0,0,0,0,0,0,0,0,0,-1,1574,904,0,0
357,120,0,0,0,0,0,0,0,0,0,-1,1581,904,0,0
364,120,0,0,0,0,0,0,0,0,0,-1,1588,904,0,0
371,120,0,0,0,0,0,0,0,0,0,-1,1595,904,0,0
378,120,0,0,0,0,0,0,0,0,0,-1,1602,904,0,0
385,120,0,0,0,0,0,0,0,0,0,-1,1609,904,0,0
392,120,0,0,0,0,0,0,0,0,0,-1,1616,904,0,0
399,120,0,0,0,0,0,0,0,0,0,-1,1623,904,0,0
406,120,0,0,0,0,0,0,0,0,0,-1,1630,904,0,0
413,120,0,0,0,0,0,0,0,0,0,-1,1637,904,0,0
420,120,0,0,0,0,0,0,0,0,0,-1,1644,904,0,0
427,120,0,0,0,0,0,0,0,0,0,-1,1651,904,0,0
434,120,0,0,0,0,0,0,0,0,0,-1,1658,904,0,0
441,120,0,0,0,0,0,0,0,0,0,-1,1665,904,0,0
448,120,0,0,0,0,0,0,0,0,0,-1,1672,904,0,0
455,120,0,0,0,0,0,0,0,0,0,-1,1679,904,0,0
462,120,0,0,0,0,0,0,0,0,0,-1,1686,904,0,0
469,120,0,0,0,0,0,0,0,0,0,-1,1693,904,0,0
476,120,0,0,0,0,0,0,0,0,0,-1,1700,904,0,0
483,120,0,0,0,0,0,0,0,0,0,-1,1707,904,0,0
490,120,0,0,0,0,0,0,0,0,0,-1,1714,904,0,0
497,120,0,0,0,0,0,0,0,0,0,-1,1721,904,0,0
504,120,0,0,0,0,0,0,0,0,0,-1,1728,904,0,0
511,120,0,0,0,0,0,0,0,0,0,-1,1735,904,0,0
518,120,0,0,0,0,0,0,0,0,0,-1,1742,904,0,0
525,120,0,0,0,0,0,0,0,0,0,-1,1749,904,0,0
532,120,0,0,0,0,0,0,0,0,0,-1,1756,904,0,0
539,120,0,0,0,0,0,0,0,0,0,-1,1763,904,0,0
546,120,0,0,0,0,0,0,0,0,0,-1,1770,904,0,0
553,120,0,0,0,0,0,0,0,0,0,-1,1777,904,0,0
560,120,0,0,0,0,0,0,0,0,0,-1,1784,904,0,0
567,120,0,0,0,0,0,0,0,0,0,-1,1791,904,0,0
574,120,0,0,0,0,0,0,0,0,0,-1,1798,904,0,0
581,120,0,0,0,0,0,0,0,0,0,-1,1805,904,0,0
588,120,0,0,0,0,0,0,0,0,0,-1,1812,904,0,0
595,120,0,0,0,0,0,0,0,0,0,-1,1819,904,0,0
602,120,0,0,0,0,0,0,0,0,0,-1,1826,904,0,0
609,120,0,0,0,0,0,0,0,0,0,-1,1833,904,0,0
616,120,0,0,0,0,0,0,0,0,0,-1,1840,904,0,0
623,120,0,0,0,0,0,0,0,0,0,-1,1847,904,0,0
630,120,22.2028,2.73566,0.00338468,0.00543833,0.00142099,0.00616467,0.00265835,1.09827,0.00357038,0.0418623,1854,904,22.2027,-2.73568
637,120,22.3021,2.742,0.00274061,0.00469259,0.00132413,0.00536156,0.00207164,1.10299,0.00312202,0.0424794,1861,904,22.3021,-2.742
644,120,22.3799,2.7926,0.00158611,0.00391204,0.00131382,0.00450367,0.000994474,1.14768,0.00273197,0.0410628,1868,904,22.3799,-2.79261
651,120,22.3467,2.9812,-0.00108689,0.00336043,0.00101462,0.00358097,-0.00130743,1.35676,0.0029223,0.0441786,1875,904,22.3467,-2.98119
658,120,22.3522,2.96704,-0.00391955,0.00288664,0.00072717,0.00296347,-0.00399637,1.46554,0.00403299,0.0411319,1882,904,22.3522,-2.96705
665,120,22.3354,2.98267,-0.00626829,0.00246404,0.000465463,0.00248878,-0.00629303,1.51769,0.00522636,0.0353911,1889,904,22.3354,-2.98267
672,120,22.3013,2.8396,-0.00795282,0.00212155,0.000278872,0.00212926,-0.00796054,1.54314,0.00614108,0.0360247,1896,904,22.3013,-2.8396
679,120,22.3361,2.71295,-0.00900392,0.00174458,0.000141994,0.00174645,-0.00900579,1.55759,0.00666275,0.0311416,1903,904,22.336,-2.71296
686,120,22.3044,2.8429,-0.00965062,0.00137936,5.06371e-05,0.00137959,-0.00965085,1.56621,0.00693963,0.0186101,1910,904,22.3045,-2.84292
693,120,21.6165,2.9718,-0.00987283,0.00122447,-7.39622e-05,0.00122497,-0.00987332,-1.56413,0.00702622,0.0451235,1917,904,21.6165,-2.97181
700,120,19.9166,3.11584,0,0,0,0,0,0,0,-1,1924,904,19.9167,-3.11586
707,120,19.8552,3.3078,-0.00895987,0.00092873,-0.000350413,0.000941132,-0.00897227,-1.53542,0.00631863,0.0218148,1931,904,19.8553,-3.30777
714,120,19.9451,3.50775,-0.00762693,0.000858467,-0.000541108,0.000892834,-0.0076613,-1.50737,0.00542967,0.0173129,1938,904,19.9451,-3.50775
721,120,19.96,3.65747,-0.00591439,0.00071706,-0.000806515,0.000813738,-0.00601107,-1.45149,0.00430434,0.0129223,1945,904,19.96,-3.65749
728,120,19.9637,3.82751,-0.00439098,0.000883269,-0.00107818,0.00109516,-0.00460287,-1.37674,0.00349136,0.00967987,1952,904,19.9638,-3.82751
735,120,19.9417,3.99695,-0.00272142,0.00140747,-0.00163065,0.00197379,-0.00328775,-1.23653,0.00306916,0.0125713,1959,904,19.9416,-3.99694
742,120,19.924,4.16516,-0.00152933,0.00182048,-0.00199875,0.00275332,-0.00246217,-1.13413,0.00301273,0.0138554,1966,904,19.924,-4.16513
749,120,19.9022,4.3042,-0.000541692,0.0017763,-0.00221926,0.00312097,-0.00188637,-1.02604,0.00292013,0.0108313,1973,904,19.9023,-4.30419
756,120,19.8988,4.42627,-5.08459e-05,0.00208385,-0.00285642,0.00406582,-0.00203282,-0.964198,0.00358567,0.0116721,1980,904,19.8988,-4.42629
763,120,19.8839,4.53149,-0.00069213,0.00207729,-0.00304757,0.00403998,-0.00265482,-0.998638,0.00389272,0.0209525,1987,904,19.8839,-4.53147
770,120,20.1066,4.37445,-0.00181535,0.00144849,-0.00281302,0.00306868,-0.00343554,-1.04824,0.00375721,0.0417051,1994,904,20.1066,-4.37444
777,120,20.4246,4.16187,0,0,0,0,0,0,0,-1,2001,904,20.4246,-4.16185
784,120,19.7102,4.06793,0,0,0,0,0,0,0,-1,2008,904,19.7102,-4.0679
791,120,19.0483,5.17969,-0.0094052,-0.00887147,0.00415025,-0.00497951,-0.0132972,0.817505,0.00775733,0.0461334,2015,904,19.0484,-5.17971
798,120,18.4708,6.06696,-0.0139085,-0.0172003,0.0100516,-0.0053689,-0.0257399,0.704244,0.0156797,0.0468627,2022,904,18.4708,-6.06694
805,120,0,0,0,0,0,0,0,0,0,-1,2029,904,0,0
812,120,0,0,0,0,0,0,0,0,0,-1,2036,904,0,0
-700,113,0,0,0,0,0,0,0,0,0,-1,524,911,0,0
-693,113,0,0,0,0,0,0,0,0,0,-1,531,911,0,0
-686,113,0,0,0,0,0,0,0,0,0,-1,538,911,0,0
-679,113,-12.6577,1.72638,0.0457981,0.0727234,0.00445455,0.0734413,0.0450803,1.41103,0.042766,0.0471146,545,911,-12.6577,-1.72637
-672,113,-12.6277,1.75476,0.0286709,0.064837,0.00195603,0.0649425,0.0285655,1.51692,0.0375849,0.0475239,552,911,-12.6277,-1.75476
-665,113,-12.5508,1.66827,0.01724,0.0555271,0.000976307,0.055552,0.0172151,1.54532,0.0328366,0.0446796,559,911,-12.5509,-1.6683
-658,113,-12.7881,1.6701,0.0096131,0.0460359,0.000842837,0.0460554,0.0095936,1.54767,0.0280579,0.0445263,566,911,-12.7881,-1.67011
-651,113,-12.9764,1.74048,0.00463232,0.0369813,0.00110639,0.0370191,0.00459453,1.53665,0.0232994,0.0479226,573,911,-12.9764,-1.74047
-644,113,-13.2299,1.92548,0.00145532,0.0287341,0.0014991,0.0288162,0.00137318,1.51606,0.0187698,0.0459874,580,911,-13.2299,-1.9255
-637,113,-13.3267,2.11548,-0.00049882,0.0215233,0.00183248,0.0216748,-0.000650261,1.48834,0.0146714,0.0357412,587,911,-13.3267,-2.11545
-630,113,-13.2973,2.10754,-0.00161544,0.0154807,0.00200971,0.0157138,-0.00184851,1.45534,0.0111433,0.0161603,594,911,-13.2973,-2.10752
-623,113,-13.3168,2.0033,-0.00342906,0.0104861,0.00175232,0.0107034,-0.00364633,1.44743,0.0086123,0.0105649,601,911,-13.3168,-2.00331
-616,113,-13.322,1.86554,-0.00483527,0.0061885,0.0017228,0.00645147,-0.00509824,1.41933,0.00668347,0.00930907,608,911,-13.322,-1.86556
-609,113,-13.3372,1.75336,-0.00508609,0.00219026,0.00203222,0.00271937,-0.0056152,1.31609,0.00490783,0.0107596,615,911,-13.3372,-1.75339
-602,113,-13.3549,1.61365,-0.00554304,0.000188333,0.00198549,0.000808953,-0.00616366,1.26784,0.0044036,0.0145877,622,911,-13.3549,-1.61364
-595,113,-13.3423,1.4978,-0.0068763,-0.000849883,0.00187274,-0.000315335,-0.00741085,1.29275,0.00483888,0.0183632,629,911,-13.3423,-1.49783
-588,113,-13.3499,1.34918,-0.00775842,-0.00134872,0.00140991,-0.0010523,-0.00805485,1.36357,0.00505577,0.0195226,636,911,-13.3499,-1.34919
-581,113,-13.3513,1.20892,-0.00867661,-0.0016811,0.00120301,-0.00148,-0.00887771,1.40516,0.00549202,0.0211849,643,911,-13.3513,-1.20894
-574,113,-13.246,0.995422,-0.00951508,-0.00192324,0.00127833,-0.00171377,-0.00972455,1.40838,0.00599401,0.0212112,650,911,-13.2461,-0.995412
-567,113,-13.358,0.763855,0,0,0,0,0,0,0,-1,657,911,-13.3579,-0.763862
-560,113,-14.9327,0.856201,0,0,0,0,0,0,0,-1,664,911,-14.9327,-0.8562
-553,113,-14.8776,1.12708,-0.00990191,-0.00196255,0.00136376,-0.00173482,-0.0101296,1.40534,0.00625552,0.0396371,671,911,-14.8776,-1.12705
-546,113,-14.7936,1.2132,-0.00924068,-0.00161827,0.00131247,-0.00139861,-0.00946034,1.40497,0.00589624,0.036251,678,911,-14.7937,-1.21321
-539,113,-14.6929,1.06885,-0.0079199,-0.00105229,0.00115441,-0.000863429,-0.00810876,1.40864,0.00514225,0.0358962,685,911,-14.6929,-1.06887
-532,113,-14.5966,0.906982,-0.00589466,-0.000239097,0.000893863,-0.000101185,-0.00603257,1.41772,0.00398842,0.0373398,692,911,-14.5965,-0.907003
-525,113,-14.7747,0.951843,-0.00303899,0.000810827,0.000478395,0.000869384,-0.00309755,1.449,0.00240773,0.0393704,699,911,-14.7747,-0.951822
-518,113,-15.0695,1.1311,0.000316683,0.00213121,-6.93474e-05,0.00213386,0.000314036,-1.53265,0.0013303,0.04136,706,911,-15.0695,-1.13108
-511,113,-15.1857,1.16302,0.00174439,0.00329943,-0.000558124,0.00347901,0.00156481,-1.2595,0.00201198,0.0406583,713,911,-15.1858,-1.16301
-504,113,0,0,0,0,0,0,0,0,0,-1,720,911,0,0
-497,113,0,0,0,0,0,0,0,0,0,-1,727,911,0,0
-490,113,0,0,0,0,0,0,0,0,0,-1,734,911,0,0
-483,113,0,0,0,0,0,0,0,0,0,-1,741,911,0,0
-476,113,0,0,0,0,0,0,0,0,0,-1,748,911,0,0
-469,113,0,0,0,0,0,0,0,0,0,-1,755,911,0,0
-462,113,0,0,0,0,0,0,0,0,0,-1,762,911,0,0
-455,113,0,0,0,0,0,0,0,0,0,-1,769,911,0,0
-448,113,0,0,0,0,0,0,0,0,0,-1,776,911,0,0
-441,113,0,0,0,0,0,0,0,0,0,-1,783,911,0,0
-434,113,0,0,0,0,0,0,0,0,0,-1,790,911,0,0
-427,113,0,0,0,0,0,0,0,0,0,-1,797,911,0,0
-420,113,0,0,0,0,0,0,0,0,0,-1,804,911,0,0
-413,113,0,0,0,0,0,0,0,0,0,-1,811,911,0,0
-406,113,0,0,0,0,0,0,0,0,0,-1,818,911,0,0
-399,113,0,0,0,0,0,0,0,0,0,-1,825,911,0,0
-392,113,0,0,0,0,0,0,0,0,0,-1,832,911,0,0
-385,113,0,0,0,0,0,0,0,0,0,-1,839,911,0,0
-378,113,0,0,0,0,0,0,0,0,0,-1,846,911,0,0
-371,113,0,0,0,0,0,0,0,0,0,-1,853,911,0,0
-364,113,0,0,0,0,0,0,0,0,0,-1,860,911,0,0
-357,113,0,0,0,0,0,0,0,0,0,-1,867,911,0,0
-350,113,0,0,0,0,0,0,0,0,0,-1,874,911,0,0
-343,113,0,0,0,0,0,0,0,0,0,-1,881,911,0,0
-336,113,0,0,0,0,0,0,0,0,0,-1,888,911,0,0
-329,113,0,0,0,0,0,0,0,0,0,-1,895,911,0,0
-322,113,0,0,0,0,0,0,0,0,0,-1,902,911,0,0
-315,113,0,0,0,0,0,0,0,0,0,-1,909,911,0,0
-308,113,0,0,0,0,0,0,0,0,0,-1,916,911,0,0
-301,113,0,0,0,0,0,0,0,0,0,-1,923,911,0,0
-294,113,0,0,0,0,0,0,0,0,0,-1,930,911,0,0
-287,113,0,0,0,0,0,0,0,0,0,-1,937,911,0,0
-280,113,0,0,0,0,0,0,0,0,0,-1,944,911,0,0
-273,113,0,0,0,0,0,0,0,0,0,-1,951,911,0,0
-266,113,0,0,0,0,0,0,0,0,0,-1,958,911,0,0
-259,113,0,0,0,0,0,0,0,0,0,-1,965,911,0,0
-252,113,0,0,0,0,0,0,0,0,0,-1,972,911,0,0
-245,113,0,0,0,0,0,0,0,0,0,-1,979,911,0,0
-238,113,0,0,0,0,0,0,0,0,0,-1,986,911,0,0
-231,113,0,0,0,0,0,0,0,0,0,-1,993,911,0,0
-224,113,0,0,0,0,0,0,0,0,0,-1,1000,911,0,0
-217,113,0,0,0,0,0,0,0,0,0,-1,1007,911,0,0
-210,113,0,0,0,0,0,0,0,0,0,-1,1014,911,0,0
-203,113,0,0,0,0,0,0,0,0,0,-1,1021,911,0,0
-196,113,0,0,0,0,0,0,0,0,0,-1,1028,911,0,0
-189,113,0,0,0,0,0,0,0,0,0,-1,1035,911,0,0
-182,113,0,0,0,0,0,0,0,0,0,-1,1042,911,0,0
-175,113,0,0,0,0,0,0,0,0,0,-1,1049,911,0,0
-168,113,0,0,0,0,0,0,0,0,0,-1,1056,911,0,0
-161,113,0,0,0,0,0,0,0,0,0,-1,1063,911,0,0
-154,113,0,0,0,0,0,0,0,0,0,-1,1070,911,0,0
-147,113,0,0,0,0,0,0,0,0,0,-1,1077,911,0,0
-140,113,0,0,0,0,0,0,0,0,0,-1,1084,911,0,0
-133,113,0,0,0,0,0,0,0,0,0,-1,1091,911,0,0
-126,113,0,0,0,0,0,0,0,0,0,-1,1098,911,0,0
-119,113,0,0,0,0,0,0,0,0,0,-1,1105,911,0,0
-112,113,0,0,0,0,0,0,0,0,0,-1,1112,911,0,0
-105,113,0,0,0,0,0,0,0,0,0,-1,1119,911,0,0
-98,113,0,0,0,0,0,0,0,0,0,-1,1126,911,0,0
-91,113,0,0,0,0,0,0,0,0,0,-1,1133,911,0,0
-84,113,0,0,0,0,0,0,0,0,0,-1,1140,911,0,0
-77,113,0,0,0,0,0,0,0,0,0,-1,1147,911,0,0
-70,113,0,0,0,0,0,0,0,0,0,-1,1154,911,0,0
-63,113,0,0,0,0,0,0,0,0,0,-1,1161,911,0,0
-56,113,0,0,0,0,0,0,0,0,0,-1,1168,911,0,0
-49,113,0,0,0,0,0,0,0,0,0,-1,1175,911,0,0
-42,113,0,0,0,0,0,0,0,0,0,-1,1182,911,0,0
-35,113,0,0,0,0,0,0,0,0,0,-1,1189,911,0,0
-28,113,0,0,0,0,0,0,0,0,0,-1,1196,911,0,0
-21,113,0,0,0,0,0,0,0,0,0,-1,1203,911,0,0
-14,113,0,0,0,0,0,0,0,0,0,-1,1210,911,0,0
-7,113,0,0,0,0,0,0,0,0,0,-1,1217,911,0,0
0,113,0,0,0,0,0,0,0,0,0,-1,1224,911,0,0
7,113,0,0,0,0,0,0,0,0,0,-1,1231,911,0,0
14,113,0,0,0,0,0,0,0,0,0,-1,1238,911,0,0
21,113,0,0,0,0,0,0,0,0,0,-1,1245,911,0,0
28,113,0,0,0,0,0,0,0,0,0,-1,1252,911,0,0
35,113,0,0,0,0,0,0,0,0,0,-1,1259,911,0,0
42,113,0,0,0,0,0,0,0,0,0,-1,1266,911,0,0
49,113,0,0,0,0,0,0,0,0,0,-1,1273,911,0,0
56,113,0,0,0,0,0,0,0,0,0,-1,1280,911,0,0
63,113,0,0,0,0,0,0,0,0,0,-1,1287,911,0,0
70,113,0,0,0,0,0,0,0,0,0,-1,1294,911,0,0
77,113,0,0,0,0,0,0,0,0,0,-1,1301,911,0,0
84,113,0,0,0,0,0,0,0,0,0,-1,1308,911,0,0
91,113,0,0,0,0,0,0,0,0,0,-1,1315,911,0,0
98,113,0,0,0,0,0,0,0,0,0,-1,1322,911,0,0
105,113,0,0,0,0,0,0,0,0,0,-1,1329,911,0,0
112,113,0,0,0,0,0,0,0,0,0,-1,1336,911,0,0
119,113,0,0,0,0,0,0,0,0,0,-1,1343,911,0,0
126,113,0,0,0,0,0,0,0,0,0,-1,1350,911,0,0
133,113,0,0,0,0,0,0,0,0,0,-1,1357,911,0,0
140,113,0,0,0,0,0,0,0,0,0,-1,1364,911,0,0
147,113,0,0,0,0,0,0,0,0,0,-1,1371,911,0,0
154,113,0,0,0,0,0,0,0,0,0,-1,1378,911,0,0
161,113,0,0,0,0,0,0,0,0,0,-1,1385,911,0,0
168,113,0,0,0,0,0,0,0,0,0,-1,1392,911,0,0
175,113,0,0,0,0,0,0,0,0,0,-1,1399,911,0,0
182,113,0,0,0,0,0,0,0,0,0,-1,1406,911,0,0
189,113,0,0,0,0,0,0,0,0,0,-1,1413,911,0,0
196,113,0,0,0,0,0,0,0,0,0,-1,1420,911,0,0
203,113,0,0,0,0,0,0,0,0,0,-1,1427,911,0,0
210,113,0,0,0,0,0,0,0,0,0,-1,1434,911,0,0
217,113,0,0,0,0,0,0,0,0,0,-1,1441,911,0,0
224,113,0,0,0,0,0,0,0,0,0,-1,1448,911,0,0
231,113,0,0,0,0,0,0,0,0,0,-1,1455,911,0,0
238,113,0,0,0,0,0,0,0,0,0,-1,1462,911,0,0
245,113,0,0,0,0,0,0,0,0,0,-1,1469,911,0,0
252,113,0,0,0,0,0,0,0,0,0,-1,1476,911,0,0
259,113,0,0,0,0,0,0,0,0,0,-1,1483,911,0,0
266,113,0,0,0,0,0,0,0,0,0,-1,1490,911,0,0
273,113,0,0,0,0,0,0,0,0,0,-1,1497,911,0,0
280,113,0,0,0,0,0,0,0,0,0,-1,1504,911,0,0
287,113,0,0,0,0,0,0,0,0,0,-1,1511,911,0,0
294,113,0,0,0,0,0,0,0,0,0,-1,1518,911,0,0
301,113,0,0,0,0,0,0,0,0,0,-1,1525,911,0,0
308,113,0,0,0,0,0,0,0,0,0,-1,1532,911,0,0
315,113,0,0,0,0,0,0,0,0,0,-1,1539,911,0,0
322,113,0,0,0,0,0,0,0,0,0,-1,1546,911,0,0
329,113,0,0,0,0,0,0,0,0,0,-1,1553,911,0,0
336,113,0,0,0,0,0,0,0,0,0,-1,1560,911,0,0
343,113,0,0,0,0,0,0,0,0,0,-1,1567,911,0,0
350,113,0,0,0,0,0,0,0,0,0,-1,1574,911,0,0
357,113,0,0,0,0,0,0,0,0,0,-1,1581,911,0,0
364,113,0,0,0,0,0,0,0,0,0,-1,1588,911,0,0
371,113,0,0,0,0,0,0,0,0,0,-1,1595,911,0,0
378,113,0,0,0,0,0,0,0,0,0,-1,1602,911,0,0
385,113,0,0,0,0,0,0,0,0,0,-1,1609,911,0,0
392,113,0,0,0,0,0,0,0,0,0,-1,1616,911,0,0
399,113,0,0,0,0,0,0,0,0,0,-1,1623,911,0,0
406,113,0,0,0,0,0,0,0,0,0,-1,1630,911,0,0
413,113,0,0,0,0,0,0,0,0,0,-1,1637,911,0,0
420,113,0,0,0,0,0,0,0,0,0,-1,1644,911,0,0
427,113,0,0,0,0,0,0,0,0,0,-1,1651,911,0,0
434,113,0,0,0,0,0,0,0,0,0,-1,1658,911,0,0
441,113,0,0,0,0,0,0,0,0,0,-1,1665,911,0,0
448,113,0,0,0,0,0,0,0,0,0,-1,1672,911,0,0
455,113,0,0,0,0,0,0,0,0,0,-1,1679,911,0,0
462,113,0,0,0,0,0,0,0,0,0,-1,1686,911,0,0
469,113,0,0,0,0,0,0,0,0,0,-1,1693,911,0,0
476,113,0,0,0,0,0,0,0,0,0,-1,1700,911,0,0
483,113,0,0,0,0,0,0,0,0,0,-1,1707,911,0,0
490,113,0,0,0,0,0,0,0,0,0,-1,1714,911,0,0
497,113,0,0,0,0,0,0,0,0,0,-1,1721,911,0,0
504,113,0,0,0,0,0,0,0,0,0,-1,1728,911,0,0
511,113,0,0,0,0,0,0,0,0,0,-1,1735,911,0,0
518,113,0,0,0,0,0,0,0,0,0,-1,1742,911,0,0
525,113,0,0,0,0,0,0,0,0,0,-1,1749,911,0,0
532,113,0,0,0,0,0,0,0,0,0,-1,1756,911,0,0
539,113,0,0,0,0,0,0,0,0,0,-1,1763,911,0,0
546,113,0,0,0,0,0,0,0,0,0,-1,1770,911,0,0
553,113,0,0,0,0,0,0,0,0,0,-1,1777,911,0,0
560,113,0,0,0,0,0,0,0,0,0,-1,1784,911,0,0
567,113,0,0,0,0,0,0,0,0,0,-1,1791,911,0,0
574,113,0,0,0,0,0,0,0,0,0,-1,1798,911,0,0
581,113,0,0,0,0,0,0,0,0,0,-1,1805,911,0,0
588,113,0,0,0,0,0,0,0,0,0,-1,1812,911,0,0
595,113,0,0,0,0,0,0,0,0,0,-1,1819,911,0,0
602,113,0,0,0,0,0,0,0,0,0,-1,1826,911,0,0
609,113,0,0,0,0,0,0,0,0,0,-1,1833,911,0,0
616,113,0,0,0,0,0,0,0,0,0,-1,1840,911,0,0
623,113,0,0,0,0,0,0,0,0,0,-1,1847,911,0,0
630,113,22.4008,2.56866,0.00263971,0.0048873,0.00156692,0.00569176,0.00183525,1.09649,0.0033545,0.0418282,1854,911,22.4007,-2.56864
637,113,22.4805,2.65112,0.00231779,0.00433131,0.00154516,0.00516875,0.00148035,1.07413,0.00307361,0.0397873,1861,911,22.4805,-2.65112
644,113,22.5891,2.63306,0.00160803,0.00375589,0.00163697,0.00463977,0.000724154,1.07571,0.00288228,0.0382756,1868,911,22.5891,-2.63306
651,113,22.3654,3.13068,-0.000857667,0.00339043,0.00137363,0.0037959,-0.00126313,1.28377,0.0030404,0.0432884,1875,911,22.3653,-3.1307
658,113,22.3066,3.03204,-0.00363687,0.00307756,0.00112298,0.0032604,-0.0038197,1.4094,0.00409195,0.0431829,1882,911,22.3067,-3.03203
665,113,22.3376,2.97382,-0.00606555,0.00276447,0.000871956,0.00284975,-0.00615083,1.4733,0.00531171,0.0366172,1889,911,22.3376,-2.97381
672,113,22.2798,2.93665,-0.00785417,0.00246705,0.000691933,0.00251323,-0.00790035,1.50415,0.00627472,0.0362161,1896,911,22.2798,-2.93663
679,113,22.3395,2.71838,-0.00900269,0.00210695,0.000556727,0.00213478,-0.00903052,1.52085,0.00684384,0.0307254,1903,911,22.3395,-2.71837
686,113,22.3088,2.79962,-0.00970466,0.00173143,0.000450732,0.00174917,-0.00972239,1.53146,0.00713647,0.0247833,1910,911,22.3088,-2.79961
693,113,22.1682,2.95111,-0.00993977,0.00156659,0.000321414,0.00157556,-0.00994874,1.54289,0.00721525,0.0342423,1917,911,22.1683,-2.9511
700,113,20.9685,3.18341,0,0,0,0,0,0,0,-1,1924,911,20.9685,-3.18341
707,113,20.0731,3.30859,0,0,0,0,0,0,0,-1,1931,911,20.0731,-3.30858
714,113,20.0839,3.45282,-0.00789609,0.00107484,-0.00018889,0.00107881,-0.00790007,-1.54975,0.00566069,0.0178209,1938,911,20.0839,-3.45282
721,113,20.0922,3.61951,-0.00637882,0.000869103,-0.000463016,0.000898562,-0.00640828,-1.50726,0.00460105,0.015939,1945,911,20.0922,-3.61951
728,113,20.1316,3.82434,-0.00507493,0.000985138,-0.000771204,0.00108174,-0.00517153,-1.44618,0.00385914,0.0159678,1952,911,20.1316,-3.82437
735,113,20.1106,3.99915,-0.00357119,0.00147021,-0.00138,0.00182324,-0.00392421,-1.32035,0.00339139,0.0154772,1959,911,20.1105,-3.99913
742,113,20.0852,4.16223,-0.00239937,0.00188323,-0.00186849,0.00258384,-0.00309997,-1.21206,0.00328606,0.0130458,1966,911,20.0852,-4.16224
749,113,20.0919,4.31287,-0.00109781,0.0019838,-0.00234379,0.00324789,-0.0023619,-1.07618,0.00325225,0.00994652,1973,911,20.092,-4.31285
756,113,20.1012,4.43335,-0.000157598,0.00246981,-0.00333306,0.00473871,-0.00242651,-0.973122,0.00420803,0.0107062,1980,911,20.1012,-4.43338
763,113,20.0741,4.56329,-0.000364729,0.00280803,-0.00396616,0.00549331,-0.00305,-0.975642,0.00499927,0.0205195,1987,911,20.0741,-4.5633
770,113,20.0637,4.77765,-0.000915635,0.00274006,-0.004381,0.00565923,-0.0038348,-0.98303,0.00551501,0.0420228,1994,911,20.0637,-4.77763
777,113,20.0929,4.98804,0,0,0,0,0,0,0,-1,2001,911,20.0929,-4.98807
784,113,19.2194,5.50055,0,0,0,0,0,0,0,-1,2008,911,19.2194,-5.50055
791,113,18.7714,5.95349,-0.00426277,-0.00328309,-0.00196288,-0.00174986,-0.00579601,-0.907676,0.00343275,0.0487729,2015,911,18.7714,-5.95346
798,113,18.328,6.49023,-0.00573843,-0.00860864,0.000928065,-0.00546449,-0.00888258,0.287022,0.00517353,0.0454058,2022,911,18.328,-6.49023
805,113,0,0,0,0,0,0,0,0,0,-1,2029,911,0,0
812,113,0,0,0,0,0,0,0,0,0,-1,2036,911,0,0
-700,106,0,0,0,0,0,0,0,0,0,-1,524,918,0,0
-693,106,0,0,0,0,0,0,0,0,0,-1,531,918,0,0
-686,106,0,0,0,0,0,0,0,0,0,-1,538,918,0,0
-679,106,-14.227,1.35931,0.0578271,0.0525511,0.0132626,0.0687115,0.0416666,0.687227,0.0399689,0.0417733,545,918,-14.227,-1.35932
-672,106,-13.5416,0.479004,0.038678,0.0490915,0.00844275,0.053804,0.0339656,1.06171,0.0314186,0.042837,552,918,-13.5415,-0.479015
-665,106,-12.5062,1.08563,0.0253316,0.0434135,0.00556811,0.0449905,0.0237546,1.29479,0.0259889,0.0470764,559,918,-12.5061,-1.08565
-658,106,-12.8923,1.23499,0.0160581,0.0368504,0.00394116,0.0375724,0.0153361,1.38962,0.021814,0.0440927,566,918,-12.8924,-1.23498
-651,106,-13.1674,1.41687,0,0,0,0,0,0,0,-1,573,918,-13.1673,-1.41684
-644,106,-13.2664,1.7851,0.00542018,0.0237628,0.00263423,0.0241336,0.00504937,1.43095,0.0146979,0.0424066,580,918,-13.2664,-1.7851
-637,106,-13.4011,2.20148,0.00255573,0.0180136,0.00239041,0.0183748,0.00219452,1.42082,0.0115879,0.0284258,587,918,-13.4011,-2.20149
-630,106,-13.4442,2.13208,0.00063549,0.0130999,0.0021852,0.0134719,0.000263494,1.40218,0.00889475,0.0117225,594,918,-13.4441,-2.13209
-623,106,-13.4601,1.99725,-0.00188857,0.0090417,0.00167116,0.0092915,-0.00213837,1.42242,0.00701659,0.0102774,601,918,-13.4601,-1.99723
-616,106,-13.466,1.8551,-0.00398588,0.00551715,0.00143228,0.00572832,-0.00419706,1.42441,0.00575311,0.0106477,608,918,-13.466,-1.85507
-609,106,-13.4734,1.7356,-0.00480577,0.00198199,0.00166666,0.00236914,-0.00519291,1.34255,0.00446626,0.00995904,615,918,-13.4734,-1.73557
-602,106,-13.4769,1.60571,-0.00552247,0.000300069,0.00152759,0.000676507,-0.00589891,1.32918,0.00417641,0.0122813,622,918,-13.4769,-1.60573
-595,106,-13.5264,1.47455,-0.00683541,-0.000554628,0.00138496,-0.000262794,-0.00712724,1.36312,0.00466636,0.0158003,629,918,-13.5264,-1.47456
-588,106,-13.5079,1.30786,-0.00771871,-0.00101999,0.000955273,-0.000886422,-0.00785228,1.43188,0.00496582,0.0169993,636,918,-13.5079,-1.30787
-581,106,-13.4266,1.17523,-0.00855871,-0.00135676,0.000750851,-0.00127931,-0.00863615,1.46801,0.00538192,0.0139015,643,918,-13.4266,-1.1752
-574,106,-13.457,1.05164,-0.00922107,-0.00158911,0.000754849,-0.00151517,-0.00929502,1.47315,0.00575845,0.0218466,650,918,-13.457,-1.05164
-567,106,-14.1324,1.00183,-0.00945384,-0.00159057,0.000746317,-0.00152037,-0.00952405,1.477,0.00590815,0.0405739,657,918,-14.1325,-1.00183
-560,106,-14.9653,0.966125,0,0,0,0,0,0,0,-1,664,918,-14.9654,-0.966101
-553,106,-14.8363,1.11926,-0.00908145,-0.00146031,0.000731654,-0.0013907,-0.00915105,1.47595,0.00569403,0.0356121,671,918,-14.8363,-1.11926
-546,106,-14.7023,1.16559,-0.00822127,-0.00108108,0.00066138,-0.00102033,-0.00828202,1.47921,0.00521462,0.0388394,678,918,-14.7024,-1.1656
-539,106,-14.6483,0.944519,-0.00675379,-0.000479072,0.000524335,-0.000435558,-0.0067973,1.488,0.00439355,0.0396548,685,918,-14.6483,-0.944541
-532,106,-14.6124,0.746216,-0.00467922,0.00035753,0.000321385,0.000377954,-0.00469964,1.50733,0.00326638,0.039437,692,918,-14.6124,-0.746211
-525,106,-14.8717,0.868591,-0.00196912,0.00142236,-6.67828e-06,0.00142237,-0.00196913,-1.56883,0.00196655,0.0403397,699,918,-14.8717,-0.868567
-518,106,-14.9377,0.957153,0.000609299,0.00278721,-0.000411473,0.00286236,0.000534153,-1.39016,0.00175746,0.0419626,706,918,-14.9378,-0.957181
-511,106,0,0,0,0,0,0,0,0,0,-1,713,918,0,0
-504,106,0,0,0,0,0,0,0,0,0,-1,720,918,0,0
-497,106,0,0,0,0,0,0,0,0,0,-1,727,918,0,0
-490,106,0,0,0,0,0,0,0,0,0,-1,734,918,0,0
-483,106,0,0,0,0,0,0,0,0,0,-1,741,918,0,0
-476,106,0,0,0,0,0,0,0,0,0,-1,748,918,0,0
-469,106,0,0,0,0,0,0,0,0,0,-1,755,918,0,0
-462,106,0,0,0,0,0,0,0,0,0,-1,762,918,0,0
-455,106,0,0,0,0,0,0,0,0,0,-1,769,918,0,0
-448,106,0,0,0,0,0,0,0,0,0,-1,776,918,0,0
-441,106,0,0,0,0,0,0,0,0,0,-1,783,918,0,0
-434,106,0,0,0,0,0,0,0,0,0,-1,790,918,0,0
-427,106,0,0,0,0,0,0,0,0,0,-1,797,918,0,0
-420,106,0,0,0,0,0,0,0,0,0,-1,804,918,0,0
-413,106,0,0,0,0,0,0,0,0,0,-1,811,918,0,0
-406,106,0,0,0,0,0,0,0,0,0,-1,818,918,0,0
-399,106,0,0,0,0,0,0,0,0,0,-1,825,918,0,0
-392,106,0,0,0,0,0,0,0,0,0,-1,832,918,0,0
-385,106,0,0,0,0,0,0,0,0,0,-1,839,918,0,0
-378,106,0,0,0,0,0,0,0,0,0,-1,846,918,0,0
-371,106,0,0,0,0,0,0,0,0,0,-1,853,918,0,0
-364,106,0,0,0,0,0,0,0,0,0,-1,860,918,0,0
-357,106,0,0,0,0,0,0,0,0,0,-1,867,918,0,0
-350,106,0,0,0,0,0,0,0,0,0,-1,874,918,0,0
-343,106,0,0,0,0,0,0,0,0,0,-1,881,918,0,0
-336,106,0,0,0,0,0,0,0,0,0,-1,888,918,0,0
-329,106,0,0,0,0,0,0,0,0,0,-1,895,918,0,0
-322,106,0,0,0,0,0,0,0,0,0,-1,902,918,0,0
-315,106,0,0,0,0,0,0,0,0,0,-1,909,918,0,0
-308,106,0,0,0,0,0,0,0,0,0,-1,916,918,0,0
-301,106,0,0,0,0,0,0,0,0,0,-1,923,918,0,0
-294,106,0,0,0,0,0,0,0,0,0,-1,930,918,0,0
-287,106,0,0,0,0,0,0,0,0,0,-1,937,918,0,0
-280,106,0,0,0,0,0,0,0,0,0,-1,944,918,0,0
-273,106,0,0,0,0,0,0,0,0,0,-1,951,918,0,0
-266,106,0,0,0,0,0,0,0,0,0,-1,958,918,0,0
-259,106,0,0,0,0,0,0,0,0,0,-1,965,918,0,0
-252,106,0,0,0,0,0,0,0,0,0,-1,972,918,0,0
-245,106,0,0,0,0,0,0,0,0,0,-1,979,918,0,0
-238,106,0,0,0,0,0,0,0,0,0,-1,986,918,0,0
-231,106,0,0,0,0,0,0,0,0,0,-1,993,918,0,0
-224,106,0,0,0,0,0,0,0,0,0,-1,1000,918,0,0
-217,106,0,0,0,0,0,0,0,0,0,-1,1007,918,0,0
-210,106,0,0,0,0,0,0,0,0,0,-1,1014,918,0,0
-203,106,0,0,0,0,0,0,0,0,0,-1,1021,918,0,0
-196,106,0,0,0,0,0,0,0,0,0,-1,1028,918,0,0
-189,106,0,0,0,0,0,0,0,0,0,-1,1035,918,0,0
-182,106,0,0,0,0,0,0,0,0,0,-1,1042,918,0,0
-175,106,0,0,0,0,0,0,0,0,0,-1,1049,918,0,0
-168,106,0,0,0,0,0,0,0,0,0,-1,1056,918,0,0
-161,106,0,0,0,0,0,0,0,0,0,-1,1063,918,0,0
-154,106,0,0,0,0,0,0,0,0,0,-1,1070,918,0,0
-147,106,0,0,0,0,0,0,0,0,0,-1,1077,918,0,0
-140,106,0,0,0,0,0,0,0,0,0,-1,1084,918,0,0
-133,106,0,0,0,0,0,0,0,0,0,-1,1091,918,0,0
-126,106,0,0,0,0,0,0,0,0,0,-1,1098,918,0,0
-119,106,0,0,0,0,0,0,0,0,0,-1,1105,918,0,0
-112,106,0,0,0,0,0,0,0,0,0,-1,1112,918,0,0
-105,106,0,0,0,0,0,0,0,0,0,-1,1119,918,0,0
-98,106,0,0,0,0,0,0,0,0,0,-1,1126,918,0,0
-91,106,0,0,0,0,0,0,0,0,0,-1,1133,918,0,0
-84,106,0,0,0,0,0,0,0,0,0,-1,1140,918,0,0
-77,106,0,0,0,0,0,0,0,0,0,-1,1147,918,0,0
-70,106,0,0,0,0,0,0,0,0,0,-1,1154,918,0,0
-63,106,0,0,0,0,0,0,0,0,0,-1,1161,918,0,0
-56,106,0,0,0,0,0,0,0,0,0,-1,1168,918,0,0
-49,106,0,0,0,0,0,0,0,0,0,-1,1175,918,0,0
-42,106,0,0,0,0,0,0,0,0,0,-1,1182,918,0,0
-35,106,0,0,0,0,0,0,0,0,0,-1,1189,918,0,0
-28,106,0,0,0,0,0,0,0,0,0,-1,1196,918,0,0
-21,106,0,0,0,0,0,0,0,0,0,-1,1203,918,0,0
-14,106,0,0,0,0,0,0,0,0,0,-1,1210,918,0,0
-7,106,0,0,0,0,0,0,0,0,0,-1,1217,918,0,0
0,106,0,0,0,0,0,0,0,0,0,-1,1224,918,0,0
7,106,0,0,0,0,0,0,0,0,0,-1,1231,918,0,0
14,106,0,0,0,0,0,0,0,0,0,-1,1238,918,0,0
21,106,0,0,0,0,0,0,0,0,0,-1,1245,918,0,0
28,106,0,0,0,0,0,0,0,0,0,-1,1252,918,0,0
35,106,0,0,0,0,0,0,0,0,0,-1,1259,918,0,0
42,106,0,0,0,0,0,0,0,0,0,-1,1266,918,0,0
49,106,0,0,0,0,0,0,0,0,0,-1,1273,918,0,0
56,106,0,0,0,0,0,0,0,0,0,-1,1280,918,0,0
63,106,0,0,0,0,0,0,0,0,0,-1,1287,918,0,0
70,106,0,0,0,0,0,0,0,0,0,-1,1294,918,0,0
77,106,0,0,0,0,0,0,0,0,0,-1,1301,918,0,0
84,106,0,0,0,0,0,0,0,0,0,-1,1308,918,0,0
91,106,0,0,0,0,0,0,0,0,0,-1,1315,918,0,0
98,106,0,0,0,0,0,0,0,0,0,-1,1322,918,0,0
105,106,0,0,0,0,0,0,0,0,0,-1,1329,918,0,0
112,106,0,0,0,0,0,0,0,0,0,-1,1336,918,0,0
119,106,0,0,0,0,0,0,0,0,0,-1,1343,918,0,0
126,106,0,0,0,0,0,0,0,0,0,-1,1350,918,0,0
133,106,0,0,0,0,0,0,0,0,0,-1,1357,918,0,0
140,106,0,0,0,0,0,0,0,0,0,-1,1364,918,0,0
147,106,0,0,0,0,0,0,0,0,0,-1,1371,918,0,0
154,106,0,0,0,0,0,0,0,0,0,-1,1378,918,0,0
161,106,0,0,0,0,0,0,0,0,0,-1,1385,918,0,0
168,106,0,0,0,0,0,0,0,0,0,-1,1392,918,0,0
175,106,0,0,0,0,0,0,0,0,0,-1,1399,918,0,0
182,106,0,0,0,0,0,0,0,0,0,-1,1406,918,0,0
189,106,0,0,0,0,0,0,0,0,0,-1,1413,918,0,0
196,106,0,0,0,0,0,0,0,0,0,-1,1420,918,0,0
203,106,0,0,0,0,0,0,0,0,0,-1,1427,918,0,0
210,106,0,0,0,0,0,0,0,0,0,-1,1434,918,0,0
217,106,0,0,0,0,0,0,0,0,0,-1,1441,918,0,0
224,106,0,0,0,0,0,0,0,0,0,-1,1448,918,0,0
231,106,0,0,0,0,0,0,0,0,0,-1,1455,918,0,0
238,106,0,0,0,0,0,0,0,0,0,-1,1462,918,0,0
245,106,0,0,0,0,0,0,0,0,0,-1,1469,918,0,0
252,106,0,0,0,0,0,0,0,0,0,-1,1476,918,0,0
259,106,0,0,0,0,0,0,0,0,0,-1,1483,918,0,0
266,106,0,0,0,0,0,0,0,0,0,-1,1490,918,0,0
273,106,0,0,0,0,0,0,0,0,0,-1,1497,918,0,0
280,106,0,0,0,0,0,0,0,0,0,-1,1504,918,0,0
287,106,0,0,0,0,0,0,0,0,0,-1,1511,918,0,0
294,106,0,0,0,0,0,0,0,0,0,-1,1518,918,0,0
301,106,0,0,0,0,0,0,0,0,0,-1,1525,918,0,0
308,106,0,0,0,0,0,0,0,0,0,-1,1532,918,0,0
315,106,0,0,0,0,0,0,0,0,0,-1,1539,918,0,0
322,106,0,0,0,0,0,0,0,0,0,-1,1546,918,0,0
329,106,0,0,0,0,0,0,0,0,0,-1,1553,918,0,0
336,106,0,0,0,0,0,0,0,0,0,-1,1560,918,0,0
343,106,0,0,0,0,0,0,0,0,0,-1,1567,918,0,0
350,106,0,0,0,0,0,0,0,0,0,-1,1574,918,0,0
357,106,0,0,0,0,0,0,0,0,0,-1,1581,918,0,0
364,106,0,0,0,0,0,0,0,0,0,-1,1588,918,0,0
371,106,0,0,0,0,0,0,0,0,0,-1,1595,918,0,0
378,106,0,0,0,0,0,0,0,0,0,-1,1602,918,0,0
385,106,0,0,0,0,0,0,0,0,0,-1,1609,918,0,0
392,106,0,0,0,0,0,0,0,0,0,-1,1616,918,0,0
399,106,0,0,0,0,0,0,0,0,0,-1,1623,918,0,0
406,106,0,0,0,0,0,0,0,0,0,-1,1630,918,0,0
413,106,0,0,0,0,0,0,0,0,0,-1,1637,918,0,0
420,106,0,0,0,0,0,0,0,0,0,-1,1644,918,0,0
427,106,0,0,0,0,0,0,0,0,0,-1,1651,918,0,0
434,106,0,0,0,0,0,0,0,0,0,-1,1658,918,0,0
441,106,0,0,0,0,0,0,0,0,0,-1,1665,918,0,0
448,106,0,0,0,0,0,0,0,0,0,-1,1672,918,0,0
455,106,0,0,0,0,0,0,0,0,0,-1,1679,918,0,0
462,106,0,0,0,0,0,0,0,0,0,-1,1686,918,0,0
469,106,0,0,0,0,0,0,0,0,0,-1,1693,918,0,0
476,106,0,0,0,0,0,0,0,0,0,-1,1700,918,0,0
483,106,0,0,0,0,0,0,0,0,0,-1,1707,918,0,0
490,106,0,0,0,0,0,0,0,0,0,-1,1714,918,0,0
497,106,0,0,0,0,0,0,0,0,0,-1,1721,918,0,0
504,106,0,0,0,0,0,0,0,0,0,-1,1728,918,0,0
511,106,0,0,0,0,0,0,0,0,0,-1,1735,918,0,0
518,106,0,0,0,0,0,0,0,0,0,-1,1742,918,0,0
525,106,0,0,0,0,0,0,0,0,0,-1,1749,918,0,0
532,106,0,0,0,0,0,0,0,0,0,-1,1756,918,0,0
539,106,0,0,0,0,0,0,0,0,0,-1,1763,918,0,0
546,106,0,0,0,0,0,0,0,0,0,-1,1770,918,0,0
553,106,0,0,0,0,0,0,0,0,0,-1,1777,918,0,0
560,106,0,0,0,0,0,0,0,0,0,-1,1784,918,0,0
567,106,0,0,0,0,0,0,0,0,0,-1,1791,918,0,0
574,106,0,0,0,0,0,0,0,0,0,-1,1798,918,0,0
581,106,0,0,0,0,0,0,0,0,0,-1,1805,918,0,0
588,106,0,0,0,0,0,0,0,0,0,-1,1812,918,0,0
595,106,0,0,0,0,0,0,0,0,0,-1,1819,918,0,0
602,106,0,0,0,0,0,0,0,0,0,-1,1826,918,0,0
609,106,0,0,0,0,0,0,0,0,0,-1,1833,918,0,0
616,106,0,0,0,0,0,0,0,0,0,-1,1840,918,0,0
623,106,0,0,0,0,0,0,0,0,0,-1,1847,918,0,0
630,106,22.5358,2.48633,0.00152487,0.00343878,0.00136021,0.00414494,0.000818716,1.09194,0.00253485,0.0426371,1854,918,22.5358,-2.48635
637,106,22.4362,2.70264,0.00159742,0.0032301,0.00141726,0.00404931,0.000778205,1.04669,0.00248116,0.0386829,1861,918,22.4361,-2.70261
644,106,22.4855,2.73511,0.00141156,0.00300769,0.00162478,0.00401982,0.000399428,1.01368,0.00255716,0.0358332,1868,918,22.4855,-2.73508
651,106,22.4159,3.01117,-0.000673017,0.0029457,0.00145253,0.00345661,-0.00118392,1.23258,0.00278426,0.0400604,1875,918,22.4159,-3.01116
658,106,22.4077,2.86505,-0.00319507,0.00291021,0.00131971,0.00318327,-0.00346813,1.36677,0.00384136,0.040984,1882,918,22.4078,-2.86508
665,106,22.366,2.78778,-0.0055424,0.00280907,0.00116885,0.00296957,-0.00570291,1.43433,0.00508928,0.0402785,1889,918,22.366,-2.78781
672,106,22.2002,3.04224,-0.00732717,0.00263834,0.00107131,0.0027522,-0.00744104,1.46491,0.00608908,0.0384988,1896,918,22.2002,-3.04224
679,106,22.1803,3.11407,-0.00850727,0.00236335,0.00100156,0.00245486,-0.00859878,1.47968,0.00670237,0.0334955,1903,918,22.1803,-3.11408
686,106,22.2793,2.89435,-0.00923497,0.00202311,0.000920568,0.00209788,-0.00930975,1.48974,0.00701121,0.0285677,1910,918,22.2793,-2.89434
693,106,22.162,3.00873,-0.00947241,0.00186782,0.000807406,0.00192502,-0.00952961,1.50007,0.00708249,0.0224909,1917,918,22.162,-3.00874
700,106,21.3773,3.35669,0,0,0,0,0,0,0,-1,1924,918,21.3774,-3.35671
707,106,20.2285,3.31,0,0,0,0,0,0,0,-1,1931,918,20.2285,-3.30999
714,106,20.2767,3.45422,-0.00770457,0.00131961,0.00026714,0.00132751,-0.00771247,1.54123,0.0056365,0.0193818,1938,918,20.2768,-3.45424
721,106,20.2849,3.62415,-0.00643673,0.00107776,-2.37834e-05,0.00107784,-0.0064368,-1.56763,0.00469193,0.0175333,1945,918,20.2849,-3.62417
728,106,20.3214,3.83209,-0.00537602,0.00116533,-0.000394061,0.00118898,-0.00539967,-1.51084,0.00405464,0.0164382,1952,918,20.3214,-3.83207
735,106,20.3038,3.99866,-0.00405975,0.00160117,-0.00106965,0.00179654,-0.00425513,-1.39014,0.00358876,0.0150487,1959,918,20.3038,-3.99868
742,106,20.2728,4.14001,-0.00290131,0.00196936,-0.00168755,0.00249691,-0.00342886,-1.26781,0.00343531,0.0113347,1966,918,20.2729,-4.14002
749,106,20.2628,4.29095,-0.0013685,0.00221902,-0.00243885,0.00345273,-0.00260221,-1.10247,0.0035073,0.00881181,1973,918,20.2628,-4.29095
756,106,20.2555,4.42035,-3.86925e-05,0.00285716,-0.00375901,0.00543747,-0.002619,-0.969234,0.00474533,0.00937233,1980,918,20.2555,-4.42033
763,106,20.2242,4.56726,0.000265341,0.00349428,-0.00482894,0.00697149,-0.00321187,-0.946723,0.00601144,0.0165712,1987,918,20.2242,-4.56723
770,106,20.1659,4.74585,0.000421103,0.00391016,-0.00585243,0.00827254,-0.00394128,-0.930248,0.00719793,0.0351654,1994,918,20.1659,-4.74588
777,106,19.7399,5.15863,0.000622415,0.00390609,-0.0067892,0.00924915,-0.00472065,-0.904036,0.00820551,0.042666,2001,918,19.7398,-5.15864
784,106,19.0374,5.64923,0.00106465,0.00323791,-0.00749746,0.00972707,-0.00542451,-0.857364,0.00886456,0.0449615,2008,918,19.0373,-5.64925
791,106,18.6047,6.37262,0.001938,0.00164197,-0.00795513,0.00974649,-0.00616652,-0.776096,0.00926456,0.0458627,2015,918,18.6048,-6.37265
798,106,18.3254,7.08429,0.00369617,-0.00117321,-0.00804859,0.00967025,-0.00714729,-0.638524,0.00974597,0.046847,2022,918,18.3255,-7.08428
805,106,0,0,0,0,0,0,0,0,0,-1,2029,918,0,0
812,106,0,0,0,0,0,0,0,0,0,-1,2036,918,0,0
-700,99,0,0,0,0,0,0,0,0,0,-1,524,925,0,0
-693,99,0,0,0,0,0,0,0,0,0,-1,531,925,0,0
-686,99,0,0,0,0,0,0,0,0,0,-1,538,925,0,0
-679,99,-14.713,1.60266,0.0587832,0.0453158,0.0162119,0.0696042,0.0344948,0.588561,0.0401865,0.0427323,545,925,-14.7129,-1.60266
-672,99,-14.0624,1.5097,0.042187,0.040257,0.0122939,0.0535537,0.0288902,0.746232,0.0309513,0.0431956,552,925,-14.0624,-1.50972
-665,99,-12.9044,0.73938,0,0,0,0,0,0,0,-1,559,925,-12.9044,-0.739387
-658,99,-13.113,1.06885,0.0194722,0.0291514,0.00734934,0.0331115,0.0155121,1.07656,0.0191296,0.0447746,566,925,-13.113,-1.06885
-651,99,-13.3199,1.44476,0.0123577,0.0236922,0.00590234,0.0262076,0.00984229,1.16794,0.0152864,0.0471509,573,925,-13.3199,-1.44477
-644,99,-13.385,1.84943,0.00733413,0.0186095,0.0048716,0.0204227,0.00552092,1.21448,0.0121987,0.0446351,580,925,-13.385,-1.84943
-637,99,-13.4945,2.19672,0.00392529,0.0139975,0.00408997,0.0154491,0.0024737,1.22975,0.00958186,0.0288338,587,925,-13.4945,-2.19669
-630,99,-13.5847,2.11816,0.00149652,0.0101219,0.00339717,0.0112992,0.000319214,1.23719,0.0074287,0.0123551,594,925,-13.5846,-2.11815
-623,99,-13.626,1.98541,-0.00147141,0.00708393,0.00248732,0.00775451,-0.00214199,1.30746,0.00601224,0.00766807,601,925,-13.626,-1.98538
-616,99,-13.6245,1.8642,-0.0039579,0.00442593,0.0018854,0.00483042,-0.00436238,1.35946,0.00530976,0.00921639,608,925,-13.6245,-1.86418
-609,99,-13.6206,1.73981,-0.00509678,0.00151732,0.00183285,0.00199126,-0.00557072,1.31776,0.00452601,0.00948515,615,925,-13.6206,-1.7398
-602,99,-13.6208,1.61475,-0.00589162,0.000250987,0.00143717,0.000570605,-0.00621124,1.35196,0.00434354,0.0101232,622,925,-13.6208,-1.61473
-595,99,-13.6667,1.4931,-0.00701905,-0.000365658,0.00111463,-0.000183891,-0.00720081,1.40915,0.00474044,0.0133702,629,925,-13.6667,-1.4931
-588,99,-13.6575,1.34534,-0.00778407,-0.000735341,0.000605142,-0.000683766,-0.00783564,1.48577,0.00501141,0.0130091,636,925,-13.6575,-1.34533
-581,99,-13.5899,1.17511,-0.00849696,-0.000989124,0.000310378,-0.000976315,-0.00850976,1.52955,0.00537736,0.010217,643,925,-13.5899,-1.1751
-574,99,-13.7121,1.0274,-0.00900779,-0.00115103,0.000202625,-0.00114581,-0.00901301,1.54503,0.00566549,0.0183082,650,925,-13.7121,-1.0274
-567,99,-14.2411,0.822388,-0.00910487,-0.00108729,0.00012102,-0.00108546,-0.00910669,1.55571,0.0057436,0.0412533,657,925,-14.2411,-0.822414
-560,99,-14.7484,0.620911,0,0,0,0,0,0,0,-1,664,925,-14.7483,-0.620893
-553,99,-14.7307,1.2124,0,0,0,0,0,0,0,-1,671,925,-14.7307,-1.21238
-546,99,-14.6449,1.07068,-0.00733121,-0.000299723,-6.77127e-05,-0.00029907,-0.00733186,-1.56117,0.00479133,0.0411713,678,925,-14.6449,-1.07067
-539,99,-14.6246,0.872131,-0.00570559,0.000387958,-0.000206011,0.000394915,-0.00571254,-1.53704,0.00394659,0.0391252,685,925,-14.6246,-0.872129
-532,99,-14.7281,0.798889,-0.00354494,0.00131784,-0.000389861,0.0013489,-0.003576,-1.4913,0.0029387,0.0413476,692,925,-14.7281,-0.798863
-525,99,-14.8756,0.828979,-0.000955314,0.0025228,-0.000694436,0.00265632,-0.00108884,-1.38084,0.0022245,0.0431384,699,925,-14.8756,-0.828956
-518,99,-14.9925,0.846008,0.000862844,0.00415898,-0.00101688,0.00444745,0.000574375,-1.29438,0.00279326,0.0440108,706,925,-14.9925,-0.845985
-511,99,0,0,0,0,0,0,0,0,0,-1,713,925,0,0
-504,99,0,0,0,0,0,0,0,0,0,-1,720,925,0,0
-497,99,0,0,0,0,0,0,0,0,0,-1,727,925,0,0
-490,99,0,0,0,0,0,0,0,0,0,-1,734,925,0,0
-483,99,0,0,0,0,0,0,0,0,0,-1,741,925,0,0
-476,99,0,0,0,0,0,0,0,0,0,-1,748,925,0,0
-469,99,0,0,0,0,0,0,0,0,0,-1,755,925,0,0
-462,99,0,0,0,0,0,0,0,0,0,-1,762,925,0,0
-455,99,0,0,0,0,0,0,0,0,0,-1,769,925,0,0
-448,99,0,0,0,0,0,0,0,0,0,-1,776,925,0,0
-441,99,0,0,0,0,0,0,0,0,0,-1,783,925,0,0
-434,99,0,0,0,0,0,0,0,0,0,-1,790,925,0,0
-427,99,0,0,0,0,0,0,0,0,0,-1,797,925,0,0
-420,99,0,0,0,0,0,0,0,0,0,-1,804,925,0,0
-413,99,0,0,0,0,0,0,0,0,0,-1,811,925,0,0
-406,99,0,0,0,0,0,0,0,0,0,-1,818,925,0,0
-399,99,0,0,0,0,0,0,0,0,0,-1,825,925,0,0
-392,99,0,0,0,0,0,0,0,0,0,-1,832,925,0,0
-385,99,0,0,0,0,0,0,0,0,0,-1,839,925,0,0
-378,99,0,0,0,0,0,0,0,0,0,-1,846,925,0,0
-371,99,0,0,0,0,0,0,0,0,0,-1,853,925,0,0
-364,99,0,0,0,0,0,0,0,0,0,-1,860,925,0,0
-357,99,0,0,0,0,0,0,0,0,0,-1,867,925,0,0
-350,99,0,0,0,0,0,0,0,0,0,-1,874,925,0,0
-343,99,0,0,0,0,0,0,0,0,0,-1,881,925,0,0
-336,99,0,0,0,0,0,0,0,0,0,-1,888,925,0,0
-329,99,0,0,0,0,0,0,0,0,0,-1,895,925,0,0
-322,99,0,0,0,0,0,0,0,0,0,-1,902,925,0,0
-315,99,0,0,0,0,0,0,0,0,0,-1,909,925,0,0
-308,99,0,0,0,0,0,0,0,0,0,-1,916,925,0,0
-301,99,0,0,0,0,0,0,0,0,0,-1,923,925,0,0
-294,99,0,0,0,0,0,0,0,0,0,-1,930,925,0,0
-287,99,0,0,0,0,0,0,0,0,0,-1,937,925,0,0
-280,99,0,0,0,0,0,0,0,0,0,-1,944,925,0,0
-273,99,0,0,0,0,0,0,0,0,0,-1,951,925,0,0
-266,99,0,0,0,0,0,0,0,0,0,-1,958,925,0,0
-259,99,0,0,0,0,0,0,0,0,0,-1,965,925,0,0
-252,99,0,0,0,0,0,0,0,0,0,-1,972,925,0,0
-245,99,0,0,0,0,0,0,0,0,0,-1,979,925,0,0
-238,99,0,0,0,0,0,0,0,0,0,-1,986,925,0,0
-231,99,0,0,0,0,0,0,0,0,0,-1,993,925,0,0
-224,99,0,0,0,0,0,0,0,0,0,-1,1000,925,0,0
-217,99,0,0,0,0,0,0,0,0,0,-1,1007,925,0,0
-210,99,0,0,0,0,0,0,0,0,0,-1,1014,925,0,0
-203,99,0,0,0,0,0,0,0,0,0,-1,1021,925,0,0
-196,99,0,0,0,0,0,0,0,0,0,-1,1028,925,0,0
-189,99,0,0,0,0,0,0,0,0,0,-1,1035,925,0,0
-182,99,0,0,0,0,0,0,0,0,0,-1,1042,925,0,0
-175,99,0,0,0,0,0,0,0,0,0,-1,1049,925,0,0
-168,99,0,0,0,0,0,0,0,0,0,-1,1056,925,0,0
-161,99,0,0,0,0,0,0,0,0,0,-1,1063,925,0,0
-154,99,0,0,0,0,0,0,0,0,0,-1,1070,925,0,0
-147,99,0,0,0,0,0,0,0,0,0,-1,1077,925,0,0
-140,99,0,0,0,0,0,0,0,0,0,-1,1084,925,0,0
-133,99,0,0,0,0,0,0,0,0,0,-1,1091,925,0,0
-126,99,0,0,0,0,0,0,0,0,0,-1,1098,925,0,0
-119,99,0,0,0,0,0,0,0,0,0,-1,1105,925,0,0
-112,99,0,0,0,0,0,0,0,0,0,-1,1112,925,0,0
-105,99,0,0,0,0,0,0,0,0,0,-1,1119,925,0,0
-98,99,0,0,0,0,0,0,0,0,0,-1,1126,925,0,0
-91,99,0,0,0,0,0,0,0,0,0,-1,1133,925,0,0
-84,99,0,0,0,0,0,0,0,0,0,-1,1140,925,0,0
-77,99,0,0,0,0,0,0,0,0,0,-1,1147,925,0,0
-70,99,0,0,0,0,0,0,0,0,0,-1,1154,925,0,0
-63,99,0,0,0,0,0,0,0,0,0,-1,1161,925,0,0
-56,99,0,0,0,0,0,0,0,0,0,-1,1168,925,0,0
-49,99,0,0,0,0,0,0,0,0,0,-1,1175,925,0,0
-42,99,0,0,0,0,0,0,0,0,0,-1,1182,925,0,0
-35,99,0,0,0,0,0,0,0,0,0,-1,1189,925,0,0
-28,99,0,0,0,0,0,0,0,0,0,-1,1196,925,0,0
-21,99,0,0,0,0,0,0,0,0,0,-1,1203,925,0,0
-14,99,0,0,0,0,0,0,0,0,0,-1,1210,925,0,0
-7,99,0,0,0,0,0,0,0,0,0,-1,1217,925,0,0
0,99,0,0,0,0,0,0,0,0,0,-1,1224,925,0,0
7,99,0,0,0,0,0,0,0,0,0,-1,1231,925,0,0
14,99,0,0,0,0,0,0,0,0,0,-1,1238,925,0,0
21,99,0,0,0,0,0,0,0,0,0,-1,1245,925,0,0
28,99,0,0,0,0,0,0,0,0,0,-1,1252,925,0,0
35,99,0,0,0,0,0,0,0,0,0,-1,1259,925,0,0
42,99,0,0,0,0,0,0,0,0,0,-1,1266,925,0,0
49,99,0,0,0,0,0,0,0,0,0,-1,1273,925,0,0
56,99,0,0,0,0,0,0,0,0,0,-1,1280,925,0,0
63,99,0,0,0,0,0,0,0,0,0,-1,1287,925,0,0
70,99,0,0,0,0,0,0,0,0,0,-1,1294,925,0,0
77,99,0,0,0,0,0,0,0,0,0,-1,1301,925,0,0
84,99,0,0,0,0,0,0,0,0,0,-1,1308,925,0,0
91,99,0,0,0,0,0,0,0,0,0,-1,1315,925,0,0
98,99,0,0,0,0,0,0,0,0,0,-1,1322,925,0,0
105,99,0,0,0,0,0,0,0,0,0,-1,1329,925,0,0
112,99,0,0,0,0,0,0,0,0,0,-1,1336,925,0,0
119,99,0,0,0,0,0,0,0,0,0,-1,1343,925,0,0
126,99,0,0,0,0,0,0,0,0,0,-1,1350,925,0,0
133,99,0,0,0,0,0,0,0,0,0,-1,1357,925,0,0
140,99,0,0,0,0,0,0,0,0,0,-1,1364,925,0,0
147,99,0,0,0,0,0,0,0,0,0,-1,1371,925,0,0
154,99,0,0,0,0,0,0,0,0,0,-1,1378,925,0,0
161,99,0,0,0,0,0,0,0,0,0,-1,1385,925,0,0
168,99,0,0,0,0,0,0,0,0,0,-1,1392,925,0,0
175,99,0,0,0,0,0,0,0,0,0,-1,1399,925,0,0
182,99,0,0,0,0,0,0,0,0,0,-1,1406,925,0,0
189,99,0,0,0,0,0,0,0,0,0,-1,1413,925,0,0
196,99,0,0,0,0,0,0,0,0,0,-1,1420,925,0,0
203,99,0,0,0,0,0,0,0,0,0,-1,1427,925,0,0
210,99,0,0,0,0,0,0,0,0,0,-1,1434,925,0,0
217,99,0,0,0,0,0,0,0,0,0,-1,1441,925,0,0
224,99,0,0,0,0,0,0,0,0,0,-1,1448,925,0,0
231,99,0,0,0,0,0,0,0,0,0,-1,1455,925,0,0
238,99,0,0,0,0,0,0,0,0,0,-1,1462,925,0,0
245,99,0,0,0,0,0,0,0,0,0,-1,1469,925,0,0
252,99,0,0,0,0,0,0,0,0,0,-1,1476,925,0,0
259,99,0,0,0,0,0,0,0,0,0,-1,1483,925,0,0
266,99,0,0,0,0,0,0,0,0,0,-1,1490,925,0,0
273,99,0,0,0,0,0,0,0,0,0,-1,1497,925,0,0
280,99,0,0,0,0,0,0,0,0,0,-1,1504,925,0,0
287,99,0,0,0,0,0,0,0,0,0,-1,1511,925,0,0
294,99,0,0,0,0,0,0,0,0,0,-1,1518,925,0,0
301,99,0,0,0,0,0,0,0,0,0,-1,1525,925,0,0
308,99,0,0,0,0,0,0,0,0,0,-1,1532,925,0,0
315,99,0,0,0,0,0,0,0,0,0,-1,1539,925,0,0
322,99,0,0,0,0,0,0,0,0,0,-1,1546,925,0,0
329,99,0,0,0,0,0,0,0,0,0,-1,1553,925,0,0
336,99,0,0,0,0,0,0,0,0,0,-1,1560,925,0,0
343,99,0,0,0,0,0,0,0,0,0,-1,1567,925,0,0
350,99,0,0,0,0,0,0,0,0,0,-1,1574,925,0,0
357,99,0,0,0,0,0,0,0,0,0,-1,1581,925,0,0
364,99,0,0,0,0,0,0,0,0,0,-1,1588,925,0,0
371,99,0,0,0,0,0,0,0,0,0,-1,1595,925,0,0
378,99,0,0,0,0,0,0,0,0,0,-1,1602,925,0,0
385,99,0,0,0,0,0,0,0,0,0,-1,1609,925,0,0
392,99,0,0,0,0,0,0,0,0,0,-1,1616,925,0,0
399,99,0,0,0,0,0,0,0,0,0,-1,1623,925,0,0
406,99,0,0,0,0,0,0,0,0,0,-1,1630,925,0,0
413,99,0,0,0,0,0,0,0,0,0,-1,1637,925,0,0
420,99,0,0,0,0,0,0,0,0,0,-1,1644,925,0,0
427,99,0,0,0,0,0,0,0,0,0,-1,1651,925,0,0
434,99,0,0,0,0,0,0,0,0,0,-1,1658,925,0,0
441,99,0,0,0,0,0,0,0,0,0,-1,1665,925,0,0
448,99,0,0,0,0,0,0,0,0,0,-1,1672,925,0,0
455,99,0,0,0,0,0,0,0,0,0,-1,1679,925,0,0
462,99,0,0,0,0,0,0,0,0,0,-1,1686,925,0,0
469,99,0,0,0,0,0,0,0,0,0,-1,1693,925,0,0
476,99,0,0,0,0,0,0,0,0,0,-1,1700,925,0,0
483,99,0,0,0,0,0,0,0,0,0,-1,1707,925,0,0
490,99,0,0,0,0,0,0,0,0,0,-1,1714,925,0,0
497,99,0,0,0,0,0,0,0,0,0,-1,1721,925,0,0
504,99,0,0,0,0,0,0,0,0,0,-1,1728,925,0,0
511,99,0,0,0,0,0,0,0,0,0,-1,1735,925,0,0
518,99,0,0,0,0,0,0,0,0,0,-1,1742,925,0,0
525,99,0,0,0,0,0,0,0,0,0,-1,1749,925,0,0
532,99,0,0,0,0,0,0,0,0,0,-1,1756,925,0,0
539,99,0,0,0,0,0,0,0,0,0,-1,1763,925,0,0
546,99,0,0,0,0,0,0,0,0,0,-1,1770,925,0,0
553,99,0,0,0,0,0,0,0,0,0,-1,1777,925,0,0
560,99,0,0,0,0,0,0,0,0,0,-1,1784,925,0,0
567,99,0,0,0,0,0,0,0,0,0,-1,1791,925,0,0
574,99,0,0,0,0,0,0,0,0,0,-1,1798,925,0,0
581,99,0,0,0,0,0,0,0,0,0,-1,1805,925,0,0
588,99,0,0,0,0,0,0,0,0,0,-1,1812,925,0,0
595,99,0,0,0,0,0,0,0,0,0,-1,1819,925,0,0
602,99,0,0,0,0,0,0,0,0,0,-1,1826,925,0,0
609,99,0,0,0,0,0,0,0,0,0,-1,1833,925,0,0
616,99,0,0,0,0,0,0,0,0,0,-1,1840,925,0,0
623,99,0,0,0,0,0,0,0,0,0,-1,1847,925,0,0
630,99,0,0,0,0,0,0,0,0,0,-1,1854,925,0,0
637,99,22.3673,2.69598,0.00110684,0.00193975,0.00125404,0.00284467,0.000201915,0.945715,0.00183285,0.0406238,1861,925,22.3673,-2.69596
644,99,22.3475,2.77405,0.00128518,0.00206605,0.00144698,0.00317435,0.000176879,0.917174,0.0020598,0.0378309,1868,925,22.3476,-2.77404
651,99,22.5833,2.57098,-0.000423548,0.00229001,0.00131481,0.00282257,-0.000956099,1.18595,0.00226859,0.0388608,1875,925,22.5832,-2.57096
658,99,22.51,2.58319,-0.00261555,0.00254059,0.00129926,0.00284948,-0.00292443,1.33739,0.00333366,0.0403174,1882,925,22.5101,-2.58322
665,99,22.3651,2.6488,-0.00481334,0.00271664,0.00130139,0.00293521,-0.00503192,1.4044,0.00465262,0.0410487,1889,925,22.3651,-2.64881
672,99,22.3,2.87225,-0.00658345,0.00272951,0.00133322,0.00291661,-0.00677055,1.43137,0.00573852,0.0389983,1896,925,22.3,-2.87223
679,99,22.2932,2.95978,-0.00779334,0.00260406,0.0013791,0.00278388,-0.00797316,1.44114,0.00644696,0.0371276,1903,925,22.2932,-2.95975
686,99,22.2808,2.89404,-0.00856519,0.00235672,0.00137376,0.00252686,-0.00873533,1.44757,0.00682362,0.0292059,1910,925,22.2807,-2.89406
693,99,22.2255,3.00989,-0.00884336,0.00225532,0.00130637,0.00240701,-0.00899506,1.4552,0.00693961,0.0241064,1917,925,22.2255,-3.00992
700,99,22.2336,3.04712,0,0,0,0,0,0,0,-1,1924,925,22.2336,-3.04712
707,99,20.496,3.31543,0,0,0,0,0,0,0,-1,1931,925,20.496,-3.31545
714,99,20.517,3.47974,-0.00745167,0.00175354,0.000794211,0.00182156,-0.00751969,1.48536,0.00571786,0.0189772,1938,925,20.517,-3.47971
721,99,20.4624,3.62256,-0.00643046,0.00150644,0.000486259,0.00153612,-0.00646014,1.50983,0.00489974,0.0202321,1945,925,20.4624,-3.62258
728,99,20.4802,3.80945,-0.00557211,0.00156215,5.33261e-05,0.00156255,-0.0055725,1.56332,0.00433086,0.0163143,1952,925,20.4802,-3.80945
735,99,20.4526,3.97211,-0.00442461,0.00191812,-0.000683064,0.00199084,-0.00449733,-1.46472,0.00383799,0.0136401,1959,925,20.4527,-3.97211
742,99,20.4357,4.11462,-0.00330935,0.00219133,-0.00141076,0.00253204,-0.00365006,-1.33382,0.00358864,0.0111355,1966,925,20.4356,-4.11463
749,99,20.4144,4.26678,-0.00160861,0.00251583,-0.00243695,0.00364602,-0.0027388,-1.13655,0.00369866,0.00917425,1973,925,20.4145,-4.26678
756,99,20.3994,4.38684,0.000111346,0.00318938,-0.00407014,0.00600175,-0.00270102,-0.966152,0.0051436,0.0101729,1980,925,20.3994,-4.38682
763,99,20.4021,4.50708,0.0010042,0.00398802,-0.00556183,0.00825456,-0.00326234,-0.916434,0.00685435,0.0130338,1987,925,20.4021,-4.50711
770,99,20.3749,4.66217,0.00195597,0.00473585,-0.00713189,0.010612,-0.00392016,-0.881637,0.00868159,0.0263688,1994,925,20.3749,-4.66218
777,99,20.1364,4.91687,0.00329717,0.00527985,-0.00892097,0.0132644,-0.00468737,-0.840733,0.0107516,0.0414245,2001,925,20.1363,-4.91688
784,99,19.9287,5.12433,0.00541574,0.00546211,-0.0109182,0.0163571,-0.00547925,-0.78646,0.0131183,0.0417617,2008,925,19.9287,-5.12432
791,99,19.8116,5.24738,0.00870752,0.00511007,-0.0132192,0.0202498,-0.0064322,-0.717779,0.0160787,0.0440095,2015,925,19.8116,-5.2474
798,99,19.9047,4.89185,0,0,0,0,0,0,0,-1,2022,925,19.9046,-4.89183
805,99,0,0,0,0,0,0,0,0,0,-1,2029,925,0,0
812,99,0,0,0,0,0,0,0,0,0,-1,2036,925,0,0
-700,92,0,0,0,0,0,0,0,0,0,-1,524,932,0,0
-693,92,0,0,0,0,0,0,0,0,0,-1,531,932,0,0
-686,92,-16.1535,2.07007,0,0,0,0,0,0,0,-1,538,932,-16.1535,-2.07004
-679,92,-15.3942,2.10388,0.0551934,0.0438114,0.0169537,0.0673858,0.031619,0.623468,0.0389298,0.042806,545,932,-15.3941,-2.10387
-672,92,-14.6581,2.16809,0.0421249,0.0360387,0.0144104,0.05381,0.0243537,0.681341,0.0311137,0.0445827,552,932,-14.6581,-2.16808
-665,92,-14.093,2.25549,0.0306925,0.0294638,0.0120171,0.0421109,0.0180454,0.759858,0.0243954,0.0447017,559,932,-14.0929,-2.25551
-658,92,-13.7754,2.06818,0.0213122,0.0237675,0.00994246,0.0325579,0.0125219,0.846825,0.0189634,0.0430485,566,932,-13.7754,-2.06819
-651,92,-13.4395,1.90552,0.0140329,0.0187892,0.00819776,0.0249468,0.0078753,0.926575,0.0147256,0.0460433,573,932,-13.4395,-1.90555
-644,92,-13.4771,2.09442,0.00865778,0.0144681,0.00674971,0.0189113,0.00421459,0.988623,0.0114639,0.0428848,580,932,-13.4771,-2.09444
-637,92,-13.6415,2.17328,0.00497351,0.0105607,0.00556838,0.0139969,0.00153725,1.0179,0.00886342,0.0244074,587,932,-13.6416,-2.17326
-630,92,-13.7272,2.10236,0.0021865,0.00746736,0.0044493,0.0100007,-0.000346868,1.05319,0.00678573,0.0116258,594,932,-13.7272,-2.10238
-623,92,-13.7668,1.96674,-0.0011132,0.00530132,0.00317518,0.00660719,-0.00241907,1.18061,0.00539506,0.00840639,601,932,-13.7668,-1.96673
-616,92,-13.7734,1.84558,-0.00386053,0.00343867,0.00222656,0.00406425,-0.00448611,1.2969,0.00493856,0.00817206,608,932,-13.7734,-1.8456
-609,92,-13.7761,1.73859,-0.00522062,0.00113112,0.00189289,0.00165244,-0.00574194,1.30205,0.0044815,0.0080998,615,932,-13.7761,-1.7386
-602,92,-13.7615,1.60681,-0.00607433,0.000259744,0.00125151,0.000498057,-0.00631264,1.38263,0.00438389,0.00828058,622,932,-13.7615,-1.60682
-595,92,-13.7246,1.45898,-0.00714107,-0.00014949,0.000798839,-5.93781e-05,-0.00723118,1.45847,0.00480112,0.0147891,629,932,-13.7246,-1.45897
-588,92,-13.7332,1.3335,-0.00786561,-0.000422051,0.000230514,-0.000414919,-0.00787275,1.53987,0.0051158,0.0161766,636,932,-13.7332,-1.33347
-581,92,-13.7352,1.19434,-0.00852855,-0.000601235,-0.000119774,-0.000599426,-0.00853036,-1.55569,0.005498,0.0135703,643,932,-13.7352,-1.19434
-574,92,-13.9833,1.08258,-0.00897034,-0.000699861,-0.000312086,-0.000688101,-0.0089821,-1.53313,0.00577239,0.0239163,650,932,-13.9833,-1.08259
-567,92,-14.5079,0.858704,-0.00899831,-0.000578345,-0.000457583,-0.000553552,-0.00902311,-1.51666,0.00583964,0.04213,657,932,-14.5079,-0.858687
-560,92,-14.7877,0.886597,-0.00875335,-0.000449381,-0.000531006,-0.000415564,-0.00878717,-1.5072,0.00572462,0.034907,664,932,-14.7877,-0.886597
-553,92,-14.8309,0.974854,-0.00803905,-0.000102364,-0.000666833,-4.67277e-05,-0.00809469,-1.48756,0.00538095,0.0378499,671,932,-14.8309,-0.974839
-546,92,-14.7637,0.895142,-0.00679776,0.000418417,-0.000820644,0.000510566,-0.00688991,-1.45898,0.00477257,0.0390072,678,932,-14.7637,-0.895153
-539,92,-14.7416,0.867737,-0.00498717,0.00116311,-0.00102479,0.00132938,-0.00515343,-1.40996,0.00395395,0.0375594,685,932,-14.7416,-0.867736
-532,92,-14.8288,0.890808,-0.00264122,0.00215623,-0.00131427,0.00249268,-0.00297767,-1.32018,0.00316244,0.0422367,692,932,-14.8288,-0.890795
-525,92,-14.9329,0.955688,-1.80176e-05,0.00348073,-0.00181518,0.0042523,-0.000789595,-1.16887,0.00313143,0.0417238,699,932,-14.9328,-0.955712
-518,92,-14.8823,0.987854,0.00133244,0.0053671,-0.00241927,0.00649977,0.000199773,-1.13292,0.00426815,0.0421411,706,932,-14.8823,-0.987824
-511,92,0,0,0,0,0,0,0,0,0,-1,713,932,0,0
-504,92,0,0,0,0,0,0,0,0,0,-1,720,932,0,0
-497,92,0,0,0,0,0,0,0,0,0,-1,727,932,0,0
-490,92,0,0,0,0,0,0,0,0,0,-1,734,932,0,0
-483,92,0,0,0,0,0,0,0,0,0,-1,741,932,0,0
-476,92,0,0,0,0,0,0,0,0,0,-1,748,932,0,0
-469,92,0,0,0,0,0,0,0,0,0,-1,755,932,0,0
-462,92,0,0,0,0,0,0,0,0,0,-1,762,932,0,0
-455,92,0,0,0,0,0,0,0,0,0,-1,769,932,0,0
-448,92,0,0,0,0,0,0,0,0,0,-1,776,932,0,0
-441,92,0,0,0,0,0,0,0,0,0,-1,783,932,0,0
-434,92,0,0,0,0,0,0,0,0,0,-1,790,932,0,0
-427,92,0,0,0,0,0,0,0,0,0,-1,797,932,0,0
-420,92,0,0,0,0,0,0,0,0,0,-1,804,932,0,0
-413,92,0,0,0,0,0,0,0,0,0,-1,811,932,0,0
-406,92,0,0,0,0,0,0,0,0,0,-1,818,932,0,0
-399,92,0,0,0,0,0,0,0,0,0,-1,825,932,0,0
-392,92,0,0,0,0,0,0,0,0,0,-1,832,932,0,0
-385,92,0,0,0,0,0,0,0,0,0,-1,839,932,0,0
-378,92,0,0,0,0,0,0,0,0,0,-1,846,932,0,0
-371,92,0,0,0,0,0,0,0,0,0,-1,853,932,0,0
-364,92,0,0,0,0,0,0,0,0,0,-1,860,932,0,0
-357,92,0,0,0,0,0,0,0,0,0,-1,867,932,0,0
-350,92,0,0,0,0,0,0,0,0,0,-1,874,932,0,0
-343,92,0,0,0,0,0,0,0,0,0,-1,881,932,0,0
-336,92,0,0,0,0,0,0,0,0,0,-1,888,932,0,0
-329,92,0,0,0,0,0,0,0,0,0,-1,895,932,0,0
-322,92,0,0,0,0,0,0,0,0,0,-1,902,932,0,0
-315,92,0,0,0,0,0,0,0,0,0,-1,909,932,0,0
-308,92,0,0,0,0,0,0,0,0,0,-1,916,932,0,0
-301,92,0,0,0,0,0,0,0,0,0,-1,923,932,0,0
-294,92,0,0,0,0,0,0,0,0,0,-1,930,932,0,0
-287,92,0,0,0,0,0,0,0,0,0,-1,937,932,0,0
-280,92,0,0,0,0,0,0,0,0,0,-1,944,932,0,0
-273,92,0,0,0,0,0,0,0,0,0,-1,951,932,0,0
-266,92,0,0,0,0,0,0,0,0,0,-1,958,932,0,0
-259,92,0,0,0,0,0,0,0,0,0,-1,965,932,0,0
-252,92,0,0,0,0,0,0,0,0,0,-1,972,932,0,0
-245,92,0,0,0,0,0,0,0,0,0,-1,979,932,0,0
-238,92,0,0,0,0,0,0,0,0,0,-1,986,932,0,0
-231,92,0,0,0,0,0,0,0,0,0,-1,993,932,0,0
-224,92,0,0,0,0,0,0,0,0,0,-1,1000,932,0,0
-217,92,0,0,0,0,0,0,0,0,0,-1,1007,932,0,0
-210,92,0,0,0,0,0,0,0,0,0,-1,1014,932,0,0
-203,92,0,0,0,0,0,0,0,0,0,-1,1021,932,0,0
-196,92,0,0,0,0,0,0,0,0,0,-1,1028,932,0,0
-189,92,0,0,0,0,0,0,0,0,0,-1,1035,932,0,0
-182,92,0,0,0,0,0,0,0,0,0,-1,1042,932,0,0
-175,92,0,0,0,0,0,0,0,0,0,-1,1049,932,0,0
-168,92,0,0,0,0,0,0,0,0,0,-1,1056,932,0,0
-161,92,0,0,0,0,0,0,0,0,0,-1,1063,932,0,0
-154,92,0,0,0,0,0,0,0,0,0,-1,1070,932,0,0
-147,92,0,0,0,0,0,0,0,0,0,-1,1077,932,0,0
-140,92,0,0,0,0,0,0,0,0,0,-1,1084,932,0,0
-133,92,0,0,0,0,0,0,0,0,0,-1,1091,932,0,0
-126,92,0,0,0,0,0,0,0,0,0,-1,1098,932,0,0
-119,92,0,0,0,0,0,0,0,0,0,-1,1105,932,0,0
-112,92,0,0,0,0,0,0,0,0,0,-1,1112,932,0,0
-105,92,0,0,0,0,0,0,0,0,0,-1,1119,932,0,0
-98,92,0,0,0,0,0,0,0,0,0,-1,1126,932,0,0
-91,92,0,0,0,0,0,0,0,0,0,-1,1133,932,0,0
-84,92,0,0,0,0,0,0,0,0,0,-1,1140,932,0,0
-77,92,0,0,0,0,0,0,0,0,0,-1,1147,932,0,0
-70,92,0,0,0,0,0,0,0,0,0,-1,1154,932,0,0
-63,92,0,0,0,0,0,0,0,0,0,-1,1161,932,0,0
-56,92,0,0,0,0,0,0,0,0,0,-1,1168,932,0,0
-49,92,0,0,0,0,0,0,0,0,0,-1,1175,932,0,0
-42,92,0,0,0,0,0,0,0,0,0,-1,1182,932,0,0
-35,92,0,0,0,0,0,0,0,0,0,-1,1189,932,0,0
-28,92,0,0,0,0,0,0,0,0,0,-1,1196,932,0,0
-21,92,0,0,0,0,0,0,0,0,0,-1,1203,932,0,0
-14,92,0,0,0,0,0,0,0,0,0,-1,1210,932,0,0
-7,92,0,0,0,0,0,0,0,0,0,-1,1217,932,0,0
0,92,0,0,0,0,0,0,0,0,0,-1,1224,932,0,0
7,92,0,0,0,0,0,0,0,0,0,-1,1231,932,0,0
14,92,0,0,0,0,0,0,0,0,0,-1,1238,932,0,0
21,92,0,0,0,0,0,0,0,0,0,-1,1245,932,0,0
28,92,0,0,0,0,0,0,0,0,0,-1,1252,932,0,0
35,92,0,0,0,0,0,0,0,0,0,-1,1259,932,0,0
42,92,0,0,0,0,0,0,0,0,0,-1,1266,932,0,0
49,92,0,0,0,0,0,0,0,0,0,-1,1273,932,0,0
56,92,0,0,0,0,0,0,0,0,0,-1,1280,932,0,0
63,92,0,0,0,0,0,0,0,0,0,-1,1287,932,0,0
70,92,0,0,0,0,0,0,0,0,0,-1,1294,932,0,0
77,92,0,0,0,0,0,0,0,0,0,-1,1301,932,0,0
84,92,0,0,0,0,0,0,0,0,0,-1,1308,932,0,0
91,92,0,0,0,0,0,0,0,0,0,-1,1315,932,0,0
98,92,0,0,0,0,0,0,0,0,0,-1,1322,932,0,0
105,92,0,0,0,0,0,0,0,0,0,-1,1329,932,0,0
112,92,0,0,0,0,0,0,0,0,0,-1,1336,932,0,0
119,92,0,0,0,0,0,0,0,0,0,-1,1343,932,0,0
126,92,0,0,0,0,0,0,0,0,0,-1,1350,932,0,0
133,92,0,0,0,0,0,0,0,0,0,-1,1357,932,0,0
140,92,0,0,0,0,0,0,0,0,0,-1,1364,932,0,0
147,92,0,0,0,0,0,0,0,0,0,-1,1371,932,0,0
154,92,0,0,0,0,0,0,0,0,0,-1,1378,932,0,0
161,92,0,0,0,0,0,0,0,0,0,-1,1385,932,0,0
168,92,0,0,0,0,0,0,0,0,0,-1,1392,932,0,0
175,92,0,0,0,0,0,0,0,0,0,-1,1399,932,0,0
182,92,0,0,0,0,0,0,0,0,0,-1,1406,932,0,0
189,92,0,0,0,0,0,0,0,0,0,-1,1413,932,0,0
196,92,0,0,0,0,0,0,0,0,0,-1,1420,932,0,0
203,92,0,0,0,0,0,0,0,0,0,-1,1427,932,0,0
210,92,0,0,0,0,0,0,0,0,0,-1,1434,932,0,0
217,92,0,0,0,0,0,0,0,0,0,-1,1441,932,0,0
224,92,0,0,0,0,0,0,0,0,0,-1,1448,932,0,0
231,92,0,0,0,0,0,0,0,0,0,-1,1455,932,0,0
238,92,0,0,0,0,0,0,0,0,0,-1,1462,932,0,0
245,92,0,0,0,0,0,0,0,0,0,-1,1469,932,0,0
252,92,0,0,0,0,0,0,0,0,0,-1,1476,932,0,0
259,92,0,0,0,0,0,0,0,0,0,-1,1483,932,0,0
266,92,0,0,0,0,0,0,0,0,0,-1,1490,932,0,0
273,92,0,0,0,0,0,0,0,0,0,-1,1497,932,0,0
280,92,0,0,0,0,0,0,0,0,0,-1,1504,932,0,0
287,92,0,0,0,0,0,0,0,0,0,-1,1511,932,0,0
294,92,0,0,0,0,0,0,0,0,0,-1,1518,932,0,0
301,92,0,0,0,0,0,0,0,0,0,-1,1525,932,0,0
308,92,0,0,0,0,0,0,0,0,0,-1,1532,932,0,0
315,92,0,0,0,0,0,0,0,0,0,-1,1539,932,0,0
322,92,0,0,0,0,0,0,0,0,0,-1,1546,932,0,0
329,92,0,0,0,0,0,0,0,0,0,-1,1553,932,0,0
336,92,0,0,0,0,0,0,0,0,0,-1,1560,932,0,0
343,92,0,0,0,0,0,0,0,0,0,-1,1567,932,0,0
350,92,0,0,0,0,0,0,0,0,0,-1,1574,932,0,0
357,92,0,0,0,0,0,0,0,0,0,-1,1581,932,0,0
364,92,0,0,0,0,0,0,0,0,0,-1,1588,932,0,0
371,92,0,0,0,0,0,0,0,0,0,-1,1595,932,0,0
378,92,0,0,0,0,0,0,0,0,0,-1,1602,932,0,0
385,92,0,0,0,0,0,0,0,0,0,-1,1609,932,0,0
392,92,0,0,0,0,0,0,0,0,0,-1,1616,932,0,0
399,92,0,0,0,0,0,0,0,0,0,-1,1623,932,0,0
406,92,0,0,0,0,0,0,0,0,0,-1,1630,932,0,0
413,92,0,0,0,0,0,0,0,0,0,-1,1637,932,0,0
420,92,0,0,0,0,0,0,0,0,0,-1,1644,932,0,0
427,92,0,0,0,0,0,0,0,0,0,-1,1651,932,0,0
434,92,0,0,0,0,0,0,0,0,0,-1,1658,932,0,0
441,92,0,0,0,0,0,0,0,0,0,-1,1665,932,0,0
448,92,0,0,0,0,0,0,0,0,0,-1,1672,932,0,0
455,92,0,0,0,0,0,0,0,0,0,-1,1679,932,0,0
462,92,0,0,0,0,0,0,0,0,0,-1,1686,932,0,0
469,92,0,0,0,0,0,0,0,0,0,-1,1693,932,0,0
476,92,0,0,0,0,0,0,0,0,0,-1,1700,932,0,0
483,92,0,0,0,0,0,0,0,0,0,-1,1707,932,0,0
490,92,0,0,0,0,0,0,0,0,0,-1,1714,932,0,0
497,92,0,0,0,0,0,0,0,0,0,-1,1721,932,0,0
504,92,0,0,0,0,0,0,0,0,0,-1,1728,932,0,0
511,92,0,0,0,0,0,0,0,0,0,-1,1735,932,0,0
518,92,0,0,0,0,0,0,0,0,0,-1,1742,932,0,0
525,92,0,0,0,0,0,0,0,0,0,-1,1749,932,0,0
532,92,0,0,0,0,0,0,0,0,0,-1,1756,932,0,0
539,92,0,0,0,0,0,0,0,0,0,-1,1763,932,0,0
546,92,0,0,0,0,0,0,0,0,0,-1,1770,932,0,0
553,92,0,0,0,0,0,0,0,0,0,-1,1777,932,0,0
560,92,0,0,0,0,0,0,0,0,0,-1,1784,932,0,0
567,92,0,0,0,0,0,0,0,0,0,-1,1791,932,0,0
574,92,0,0,0,0,0,0,0,0,0,-1,1798,932,0,0
581,92,0,0,0,0,0,0,0,0,0,-1,1805,932,0,0
588,92,0,0,0,0,0,0,0,0,0,-1,1812,932,0,0
595,92,0,0,0,0,0,0,0,0,0,-1,1819,932,0,0
602,92,0,0,0,0,0,0,0,0,0,-1,1826,932,0,0
609,92,0,0,0,0,0,0,0,0,0,-1,1833,932,0,0
616,92,0,0,0,0,0,0,0,0,0,-1,1840,932,0,0
623,92,0,0,0,0,0,0,0,0,0,-1,1847,932,0,0
630,92,0,0,0,0,0,0,0,0,0,-1,1854,932,0,0
637,92,22.3275,2.74951,0.00075912,0.000351913,0.000765171,0.00134731,-0.00023628,0.655367,0.000986446,0.0421199,1861,932,22.3275,-2.74953
644,92,22.408,2.68512,0.00122378,0.000811782,0.000999857,0.00203864,-3.07616e-06,0.683806,0.00136012,0.0391737,1868,932,22.408,-2.68511
651,92,22.5667,2.60016,-0.000103909,0.00127746,0.000943438,0.00175601,-0.000582464,1.10137,0.00140565,0.0393199,1875,932,22.5667,-2.60018
658,92,22.3933,2.56335,-0.00192426,0.00177055,0.00107214,0.00205912,-0.00221283,1.30787,0.00246695,0.0409742,1882,932,22.3933,-2.56336
665,92,22.0519,2.77374,-0.00393915,0.0022025,0.0012701,0.00245479,-0.00419144,1.37471,0.00388063,0.041546,1889,932,22.0519,-2.77374
672,92,22.275,2.77124,-0.00568315,0.00241898,0.00147877,0.00268044,-0.00594461,1.39579,0.00509716,0.0400786,1896,932,22.275,-2.77125
679,92,22.3469,2.8103,-0.00695338,0.00245934,0.00166514,0.00274523,-0.00723926,1.40077,0.00595601,0.0381724,1903,932,22.3469,-2.81032
686,92,22.3096,2.86963,-0.00780618,0.00233237,0.00175677,0.00262815,-0.00810196,1.404,0.00645814,0.0300583,1910,932,22.3095,-2.8696
693,92,22.2729,2.93243,-0.00816766,0.00230734,0.0017473,0.00259112,-0.00845143,1.40979,0.00666798,0.0262431,1917,932,22.273,-2.93246
700,92,22.2625,3.02454,-0.00826151,0.00221096,0.00169658,0.00247896,-0.00852951,1.41413,0.00666807,0.0477855,1924,932,22.2625,-3.02457
707,92,20.8945,3.40619,0,0,0,0,0,0,0,-1,1931,932,20.8945,-3.40616
714,92,20.6208,3.54114,-0.00727265,0.00192438,0.00129988,0.00210458,-0.00745285,1.43305,0.00579882,0.0386803,1938,932,20.6209,-3.54112
721,92,20.6599,3.6684,-0.00653475,0.00171326,0.00100099,0.001833,-0.00665449,1.45174,0.00515708,0.0230636,1945,932,20.6599,-3.66839
728,92,20.6071,3.86475,-0.00587476,0.00176184,0.000522043,0.00179736,-0.00591029,1.50286,0.00465641,0.0179746,1952,932,20.6071,-3.86475
735,92,20.5908,3.99139,-0.00486728,0.00205173,-0.000253747,0.00206102,-0.00487657,-1.53419,0.0041139,0.0151595,1959,932,20.5908,-3.99137
742,92,20.6064,4.09808,-0.00375943,0.0022502,-0.00106225,0.00243243,-0.00394166,-1.40089,0.00371431,0.0154816,1966,932,20.6064,-4.09809
749,92,20.5778,4.24646,-0.00192852,0.00262713,-0.00231157,0.00359458,-0.00289598,-1.17442,0.00375456,0.0133962,1973,932,20.5778,-4.24647
756,92,20.5435,4.38672,0.000171687,0.00328266,-0.00418533,0.00619221,-0.00273786,-0.963314,0.0052828,0.0130465,1980,932,20.5435,-4.38671
763,92,20.5796,4.5127,0.0016966,0.00414279,-0.00602531,0.00906789,-0.0032285,-0.885534,0.00736133,0.0156081,1987,932,20.5796,-4.51268
770,92,20.5631,4.6875,0.00348566,0.00507534,-0.00804055,0.0123602,-0.00379925,-0.834665,0.00975635,0.0248715,1994,932,20.5631,-4.6875
777,92,20.5735,4.71948,0.00596139,0.0059647,-0.0105033,0.0164663,-0.00454023,-0.785477,0.012763,0.0422076,2001,932,20.5735,-4.71949
784,92,20.5342,4.80707,0.00966835,0.00668398,-0.0135153,0.0217736,-0.00542124,-0.730417,0.0166202,0.0440062,2008,932,20.5342,-4.80705
791,92,20.2911,4.97369,0.0151837,0.00712092,-0.0172614,0.0288782,-0.00657363,-0.67068,0.0217767,0.0406425,2015,932,20.2911,-4.97371
798,92,19.9255,4.83734,0.023355,0.00718875,-0.0219683,0.03868,-0.00813633,-0.609113,0.0288834,0.0411377,2022,932,19.9255,-4.83732
805,92,0,0,0,0,0,0,0,0,0,-1,2029,932,0,0
812,92,0,0,0,0,0,0,0,0,0,-1,2036,932,0,0
-700,85,0,0,0,0,0,0,0,0,0,-1,524,939,0,0
-693,85,0,0,0,0,0,0,0,0,0,-1,531,939,0,0
-686,85,-16.8694,2.58527,0,0,0,0,0,0,0,-1,538,939,-16.8694,-2.58529
-679,85,-16.1912,2.59772,0.0501756,0.0428697,0.017205,0.0641112,0.0289341,0.680793,0.0370731,0.0441178,545,939,-16.1911,-2.59774
-672,85,-15.4909,2.58661,0.0395909,0.0337133,0.0154649,0.0523938,0.0209104,0.691501,0.0304542,0.0463993,552,939,-15.4909,-2.58662
-665,85,-13.9096,1.57513,0.0297045,0.0263699,0.013476,0.0416159,0.0144585,0.723848,0.024397,0.042148,559,939,-13.9096,-1.57514
-658,85,-13.8705,2.15466,0.0211681,0.0204191,0.0114973,0.032297,0.00929013,0.769118,0.0191991,0.0472418,566,939,-13.8705,-2.15465
-651,85,-13.5863,2.21173,0.0142627,0.0155721,0.00964242,0.024582,0.00525275,0.819294,0.014948,0.0434869,573,939,-13.5863,-2.21172
-644,85,-13.6614,2.18726,0.00899969,0.0116339,0.00796283,0.0183878,0.00224576,0.867359,0.0115828,0.0323958,580,939,-13.6614,-2.18726
-637,85,-13.8132,2.18018,0.00535619,0.00813933,0.00652327,0.0134178,7.77165e-05,0.890485,0.00891941,0.0159876,587,939,-13.8131,-2.18016
-630,85,-13.8647,2.0719,0.00246857,0.00555651,0.00510585,0.00934673,-0.00132164,0.932223,0.00671519,0.0104193,594,939,-13.8647,-2.07193
-623,85,-13.8938,1.9541,-0.000928467,0.00400432,0.00356662,0.00587427,-0.00279842,1.0879,0.00511107,0.0094529,601,939,-13.8938,-1.95413
-616,85,-13.897,1.84259,-0.00372927,0.00268595,0.00236546,0.00346383,-0.00450715,1.25309,0.00461517,0.00932975,608,939,-13.897,-1.84261
-609,85,-13.9024,1.72864,-0.00519284,0.00086177,0.0017876,0.00135016,-0.00568123,1.3041,0.00430864,0.0114471,615,939,-13.9024,-1.72865
-602,85,-13.8959,1.60449,-0.00609487,0.000285048,0.000959261,0.000426158,-0.00623598,1.42474,0.00430641,0.0145582,622,939,-13.8959,-1.60449
-595,85,-13.8487,1.49097,-0.00709806,0.000104412,0.000391499,0.000125629,-0.00711927,1.51665,0.00478861,0.0167683,629,939,-13.8487,-1.49094
-588,85,-13.8507,1.36139,-0.00777814,-8.08493e-05,-0.000196872,-7.58171e-05,-0.00778317,-1.54524,0.00516369,0.0155834,636,939,-13.8507,-1.36137
-581,85,-13.8574,1.2431,-0.00837614,-0.000167137,-0.000578486,-0.000126571,-0.0084167,-1.50079,0.00556942,0.0162406,643,939,-13.8574,-1.24308
-574,85,-14.1285,1.15125,-0.00873364,-0.00016441,-0.000836489,-8.35191e-05,-0.00881453,-1.47439,0.00584871,0.0287439,650,939,-14.1285,-1.15122
-567,85,-14.6421,1.06561,-0.00868721,2.8456e-05,-0.00102236,0.000146773,-0.00880553,-1.45558,0.00591988,0.0365673,657,939,-14.6421,-1.06561
-560,85,-14.7697,0.974915,-0.00833843,0.000229948,-0.00113147,0.000376842,-0.00848532,-1.44169,0.00578659,0.0343554,664,939,-14.7697,-0.974902
-553,85,-14.8047,0.952698,-0.0074914,0.000621175,-0.00129659,0.000823363,-0.00769358,-1.4161,0.00542438,0.0400867,671,939,-14.8047,-0.952684
-546,85,-14.8655,0.884644,-0.00610734,0.00119827,-0.00150015,0.00149431,-0.00640339,-1.37596,0.00484447,0.0418119,678,939,-14.8655,-0.884623
-539,85,-14.9028,0.906616,-0.00417394,0.00198624,-0.00178329,0.00246523,-0.00465294,-1.30839,0.00417388,0.0399995,685,939,-14.9027,-0.906622
-532,85,-14.8526,1.02258,-0.00175667,0.00301019,-0.00222771,0.00388919,-0.00263567,-1.19498,0.00379023,0.040364,692,939,-14.8526,-1.02257
-525,85,-14.9066,1.04358,0.000668554,0.00437984,-0.00302133,0.00606987,-0.00102148,-1.06079,0.00442654,0.037745,699,939,-14.9066,-1.04356
-518,85,-14.7897,0.956726,0.00130805,0.00630861,-0.00410918,0.00861839,-0.00100174,-1.05871,0.00610696,0.0376439,706,939,-14.7897,-0.9567
-511,85,0,0,0,0,0,0,0,0,0,-1,713,939,0,0
-504,85,0,0,0,0,0,0,0,0,0,-1,720,939,0,0
-497,85,0,0,0,0,0,0,0,0,0,-1,727,939,0,0
-490,85,0,0,0,0,0,0,0,0,0,-1,734,939,0,0
-483,85,0,0,0,0,0,0,0,0,0,-1,741,939,0,0
-476,85,0,0,0,0,0,0,0,0,0,-1,748,939,0,0
-469,85,0,0,0,0,0,0,0,0,0,-1,755,939,0,0
-462,85,0,0,0,0,0,0,0,0,0,-1,762,939,0,0
-455,85,0,0,0,0,0,0,0,0,0,-1,769,939,0,0
-448,85,0,0,0,0,0,0,0,0,0,-1,776,939,0,0
-441,85,0,0,0,0,0,0,0,0,0,-1,783,939,0,0
-434,85,0,0,0,0,0,0,0,0,0,-1,790,939,0,0
-427,85,0,0,0,0,0,0,0,0,0,-1,797,939,0,0
-420,85,0,0,0,0,0,0,0,0,0,-1,804,939,0,0
-413,85,0,0,0,0,0,0,0,0,0,-1,811,939,0,0
-406,85,0,0,0,0,0,0,0,0,0,-1,818,939,0,0
-399,85,0,0,0,0,0,0,0,0,0,-1,825,939,0,0
-392,85,0,0,0,0,0,0,0,0,0,-1,832,939,0,0
-385,85,0,0,0,0,0,0,0,0,0,-1,839,939,0,0
-378,85,0,0,0,0,0,0,0,0,0,-1,846,939,0,0
-371,85,0,0,0,0,0,0,0,0,0,-1,853,939,0,0
-364,85,0,0,0,0,0,0,0,0,0,-1,860,939,0,0
-357,85,0,0,0,0,0,0,0,0,0,-1,867,939,0,0
-350,85,0,0,0,0,0,0,0,0,0,-1,874,939,0,0
-343,85,0,0,0,0,0,0,0,0,0,-1,881,939,0,0
-336,85,0,0,0,0,0,0,0,0,0,-1,888,939,0,0
-329,85,0,0,0,0,0,0,0,0,0,-1,895,939,0,0
-322,85,0,0,0,0,0,0,0,0,0,-1,902,939,0,0
-315,85,0,0,0,0,0,0,0,0,0,-1,909,939,0,0
-308,85,0,0,0,0,0,0,0,0,0,-1,916,939,0,0
-301,85,0,0,0,0,0,0,0,0,0,-1,923,939,0,0
-294,85,0,0,0,0,0,0,0,0,0,-1,930,939,0,0
-287,85,0,0,0,0,0,0,0,0,0,-1,937,939,0,0
-280,85,0,0,0,0,0,0,0,0,0,-1,944,939,0,0
-273,85,0,0,0,0,0,0,0,0,0,-1,951,939,0,0
-266,85,0,0,0,0,0,0,0,0,0,-1,958,939,0,0
-259,85,0,0,0,0,0,0,0,0,0,-1,965,939,0,0
-252,85,0,0,0,0,0,0,0,0,0,-1,972,939,0,0
-245,85,0,0,0,0,0,0,0,0,0,-1,979,939,0,0
-238,85,0,0,0,0,0,0,0,0,0,-1,986,939,0,0
-231,85,0,0,0,0,0,0,0,0,0,-1,993,939,0,0
-224,85,0,0,0,0,0,0,0,0,0,-1,1000,939,0,0
-217,85,0,0,0,0,0,0,0,0,0,-1,1007,939,0,0
-210,85,0,0,0,0,0,0,0,0,0,-1,1014,939,0,0
-203,85,0,0,0,0,0,0,0,0,0,-1,1021,939,0,0
-196,85,0,0,0,0,0,0,0,0,0,-1,1028,939,0,0
-189,85,0,0,0,0,0,0,0,0,0,-1,1035,939,0,0
-182,85,0,0,0,0,0,0,0,0,0,-1,1042,939,0,0
-175,85,0,0,0,0,0,0,0,0,0,-1,1049,939,0,0
-168,85,0,0,0,0,0,0,0,0,0,-1,1056,939,0,0
-161,85,0,0,0,0,0,0,0,0,0,-1,1063,939,0,0
-154,85,0,0,0,0,0,0,0,0,0,-1,1070,939,0,0
-147,85,0,0,0,0,0,0,0,0,0,-1,1077,939,0,0
-140,85,0,0,0,0,0,0,0,0,0,-1,1084,939,0,0
-133,85,0,0,0,0,0,0,0,0,0,-1,1091,939,0,0
-126,85,0,0,0,0,0,0,0,0,0,-1,1098,939,0,0
-119,85,0,0,0,0,0,0,0,0,0,-1,1105,939,0,0
-112,85,0,0,0,0,0,0,0,0,0,-1,1112,939,0,0
-105,85,0,0,0,0,0,0,0,0,0,-1,1119,939,0,0
-98,85,0,0,0,0,0,0,0,0,0,-1,1126,939,0,0
-91,85,0,0,0,0,0,0,0,0,0,-1,1133,939,0,0
-84,85,0,0,0,0,0,0,0,0,0,-1,1140,939,0,0
-77,85,0,0,0,0,0,0,0,0,0,-1,1147,939,0,0
-70,85,0,0,0,0,0,0,0,0,0,-1,1154,939,0,0
-63,85,0,0,0,0,0,0,0,0,0,-1,1161,939,0,0
-56,85,0,0,0,0,0,0,0,0,0,-1,1168,939,0,0
-49,85,0,0,0,0,0,0,0,0,0,-1,1175,939,0,0
-42,85,0,0,0,0,0,0,0,0,0,-1,1182,939,0,0
-35,85,0,0,0,0,0,0,0,0,0,-1,1189,939,0,0
-28,85,0,0,0,0,0,0,0,0,0,-1,1196,939,0,0
-21,85,0,0,0,0,0,0,0,0,0,-1,1203,939,0,0
-14,85,0,0,0,0,0,0,0,0,0,-1,1210,939,0,0
-7,85,0,0,0,0,0,0,0,0,0,-1,1217,939,0,0
0,85,0,0,0,0,0,0,0,0,0,-1,1224,939,0,0
7,85,0,0,0,0,0,0,0,0,0,-1,1231,939,0,0
14,85,0,0,0,0,0,0,0,0,0,-1,1238,939,0,0
21,85,0,0,0,0,0,0,0,0,0,-1,1245,939,0,0
28,85,0,0,0,0,0,0,0,0,0,-1,1252,939,0,0
35,85,0,0,0,0,0,0,0,0,0,-1,1259,939,0,0
42,85,0,0,0,0,0,0,0,0,0,-1,1266,939,0,0
49,85,0,0,0,0,0,0,0,0,0,-1,1273,939,0,0
56,85,0,0,0,0,0,0,0,0,0,-1,1280,939,0,0
63,85,0,0,0,0,0,0,0,0,0,-1,1287,939,0,0
70,85,0,0,0,0,0,0,0,0,0,-1,1294,939,0,0
77,85,0,0,0,0,0,0,0,0,0,-1,1301,939,0,0
84,85,0,0,0,0,0,0,0,0,0,-1,1308,939,0,0
91,85,0,0,0,0,0,0,0,0,0,-1,1315,939,0,0
98,85,0,0,0,0,0,0,0,0,0,-1,1322,939,0,0
105,85,0,0,0,0,0,0,0,0,0,-1,1329,939,0,0
112,85,0,0,0,0,0,0,0,0,0,-1,1336,939,0,0
119,85,0,0,0,0,0,0,0,0,0,-1,1343,939,0,0
126,85,0,0,0,0,0,0,0,0,0,-1,1350,939,0,0
133,85,0,0,0,0,0,0,0,0,0,-1,1357,939,0,0
140,85,0,0,0,0,0,0,0,0,0,-1,1364,939,0,0
147,85,0,0,0,0,0,0,0,0,0,-1,1371,939,0,0
154,85,0,0,0,0,0,0,0,0,0,-1,1378,939,0,0
161,85,0,0,0,0,0,0,0,0,0,-1,1385,939,0,0
168,85,0,0,0,0,0,0,0,0,0,-1,1392,939,0,0
175,85,0,0,0,0,0,0,0,0,0,-1,1399,939,0,0
182,85,0,0,0,0,0,0,0,0,0,-1,1406,939,0,0
189,85,0,0,0,0,0,0,0,0,0,-1,1413,939,0,0
196,85,0,0,0,0,0,0,0,0,0,-1,1420,939,0,0
203,85,0,0,0,0,0,0,0,0,0,-1,1427,939,0,0
210,85,0,0,0,0,0,0,0,0,0,-1,1434,939,0,0
217,85,0,0,0,0,0,0,0,0,0,-1,1441,939,0,0
224,85,0,0,0,0,0,0,0,0,0,-1,1448,939,0,0
231,85,0,0,0,0,0,0,0,0,0,-1,1455,939,0,0
238,85,0,0,0,0,0,0,0,0,0,-1,1462,939,0,0
245,85,0,0,0,0,0,0,0,0,0,-1,1469,939,0,0
252,85,0,0,0,0,0,0,0,0,0,-1,1476,939,0,0
259,85,0,0,0,0,0,0,0,0,0,-1,1483,939,0,0
266,85,0,0,0,0,0,0,0,0,0,-1,1490,939,0,0
273,85,0,0,0,0,0,0,0,0,0,-1,1497,939,0,0
280,85,0,0,0,0,0,0,0,0,0,-1,1504,939,0,0
287,85,0,0,0,0,0,0,0,0,0,-1,1511,939,0,0
294,85,0,0,0,0,0,0,0,0,0,-1,1518,939,0,0
301,85,0,0,0,0,0,0,0,0,0,-1,1525,939,0,0
308,85,0,0,0,0,0,0,0,0,0,-1,1532,939,0,0
315,85,0,0,0,0,0,0,0,0,0,-1,1539,939,0,0
322,85,0,0,0,0,0,0,0,0,0,-1,1546,939,0,0
329,85,0,0,0,0,0,0,0,0,0,-1,1553,939,0,0
336,85,0,0,0,0,0,0,0,0,0,-1,1560,939,0,0
343,85,0,0,0,0,0,0,0,0,0,-1,1567,939,0,0
350,85,0,0,0,0,0,0,0,0,0,-1,1574,939,0,0
357,85,0,0,0,0,0,0,0,0,0,-1,1581,939,0,0
364,85,0,0,0,0,0,0,0,0,0,-1,1588,939,0,0
371,85,0,0,0,0,0,0,0,0,0,-1,1595,939,0,0
378,85,0,0,0,0,0,0,0,0,0,-1,1602,939,0,0
385,85,0,0,0,0,0,0,0,0,0,-1,1609,939,0,0
392,85,0,0,0,0,0,0,0,0,0,-1,1616,939,0,0
399,85,0,0,0,0,0,0,0,0,0,-1,1623,939,0,0
406,85,0,0,0,0,0,0,0,0,0,-1,1630,939,0,0
413,85,0,0,0,0,0,0,0,0,0,-1,1637,939,0,0
420,85,0,0,0,0,0,0,0,0,0,-1,1644,939,0,0
427,85,0,0,0,0,0,0,0,0,0,-1,1651,939,0,0
434,85,0,0,0,0,0,0,0,0,0,-1,1658,939,0,0
441,85,0,0,0,0,0,0,0,0,0,-1,1665,939,0,0
448,85,0,0,0,0,0,0,0,0,0,-1,1672,939,0,0
455,85,0,0,0,0,0,0,0,0,0,-1,1679,939,0,0
462,85,0,0,0,0,0,0,0,0,0,-1,1686,939,0,0
469,85,0,0,0,0,0,0,0,0,0,-1,1693,939,0,0
476,85,0,0,0,0,0,0,0,0,0,-1,1700,939,0,0
483,85,0,0,0,0,0,0,0,0,0,-1,1707,939,0,0
490,85,0,0,0,0,0,0,0,0,0,-1,1714,939,0,0
497,85,0,0,0,0,0,0,0,0,0,-1,1721,939,0,0
504,85,0,0,0,0,0,0,0,0,0,-1,1728,939,0,0
511,85,0,0,0,0,0,0,0,0,0,-1,1735,939,0,0
518,85,0,0,0,0,0,0,0,0,0,-1,1742,939,0,0
525,85,0,0,0,0,0,0,0,0,0,-1,1749,939,0,0
532,85,0,0,0,0,0,0,0,0,0,-1,1756,939,0,0
539,85,0,0,0,0,0,0,0,0,0,-1,1763,939,0,0
546,85,0,0,0,0,0,0,0,0,0,-1,1770,939,0,0
553,85,0,0,0,0,0,0,0,0,0,-1,1777,939,0,0
560,85,0,0,0,0,0,0,0,0,0,-1,1784,939,0,0
567,85,0,0,0,0,0,0,0,0,0,-1,1791,939,0,0
574,85,0,0,0,0,0,0,0,0,0,-1,1798,939,0,0
581,85,0,0,0,0,0,0,0,0,0,-1,1805,939,0,0
588,85,0,0,0,0,0,0,0,0,0,-1,1812,939,0,0
595,85,0,0,0,0,0,0,0,0,0,-1,1819,939,0,0
602,85,0,0,0,0,0,0,0,0,0,-1,1826,939,0,0
609,85,0,0,0,0,0,0,0,0,0,-1,1833,939,0,0
616,85,0,0,0,0,0,0,0,0,0,-1,1840,939,0,0
623,85,0,0,0,0,0,0,0,0,0,-1,1847,939,0,0
630,85,0,0,0,0,0,0,0,0,0,-1,1854,939,0,0
637,85,22.354,2.67725,0.000386632,-0.000869175,0.000331195,0.000468624,-0.000951168,0.242687,0.00083535,0.0464433,1861,939,22.3539,-2.67724
644,85,22.3083,2.61676,0.00108465,-0.000250036,0.000570457,0.00129524,-0.000460627,0.353642,0.00105123,0.0402719,1868,939,22.3083,-2.61675
651,85,22.3306,2.60413,0.00015404,0.000300407,0.000560782,0.00079276,-0.000338313,0.850283,0.000670365,0.0393881,1875,939,22.3306,-2.60415
658,85,21.8873,2.92743,-0.00124777,0.000884937,0.0008072,0.001156,-0.00151883,1.24682,0.00154904,0.0412018,1882,939,21.8873,-2.92742
665,85,21.8896,2.99438,-0.00300623,0.00145037,0.00119507,0.00175061,-0.00330647,1.32466,0.00296541,0.0403925,1889,939,21.8896,-2.99436
672,85,22.1238,2.98511,-0.00467963,0.00180054,0.00158481,0.00216736,-0.00504645,1.34334,0.00427404,0.0403052,1896,939,22.1238,-2.98509
679,85,22.3639,2.78809,-0.00599177,0.0019681,0.00192283,0.00240825,-0.00643192,1.34577,0.00527716,0.0409908,1903,939,22.3639,-2.78808
686,85,22.2899,2.83453,-0.00693117,0.00195534,0.00212061,0.00243545,-0.00741128,1.34815,0.00592202,0.0337728,1910,939,22.29,-2.83452
693,85,22.2274,2.94128,-0.00739785,0.0020087,0.00217458,0.00248709,-0.00787623,1.35426,0.00624711,0.0289731,1917,939,22.2274,-2.94128
700,85,22.2546,2.98346,-0.00763898,0.00196441,0.00216566,0.0024302,-0.00810477,1.35895,0.0063697,0.0339247,1924,939,22.2546,-2.98346
707,85,21.9774,3.30164,0,0,0,0,0,0,0,-1,1931,939,21.9774,-3.30163
714,85,20.7487,3.51245,0,0,0,0,0,0,0,-1,1938,939,20.7487,-3.51245
721,85,20.7592,3.68848,-0.00654808,0.00165816,0.00148445,0.00191843,-0.00680835,1.39723,0.0052955,0.0220913,1945,939,20.7591,-3.68849
728,85,20.7506,3.8819,-0.00602522,0.00173312,0.000958184,0.00184971,-0.00614181,1.44972,0.00483063,0.0161905,1952,939,20.7506,-3.8819
735,85,20.743,3.98944,-0.00508463,0.0019942,0.000134884,0.00199677,-0.0050872,1.55175,0.00421767,0.0146226,1959,939,20.7431,-3.98947
742,85,20.7645,4.09851,-0.00393598,0.00215325,-0.000740118,0.00224191,-0.00402464,-1.45156,0.00366648,0.0137443,1966,939,20.7645,-4.09851
749,85,20.7526,4.23181,-0.00196862,0.00258316,-0.00217563,0.00345577,-0.00284123,-1.18936,0.00364134,0.0131163,1973,939,20.7526,-4.23178
756,85,20.7211,4.3681,0.00053202,0.00320594,-0.00422516,0.00630062,-0.00256266,-0.938628,0.00526672,0.0123254,1980,939,20.7211,-4.36807
763,85,20.7231,4.52136,0.00274741,0.0040531,-0.00633137,0.0097652,-0.00296469,-0.836773,0.00769124,0.0128249,1987,939,20.7232,-4.52139
770,85,20.7104,4.63062,0.00543112,0.00503834,-0.00868368,0.0139206,-0.00345116,-0.774092,0.0106194,0.0185357,1994,939,20.7105,-4.63062
777,85,20.691,4.73785,0.00900985,0.00609032,-0.01163,0.0192714,-0.00417119,-0.722966,0.0144402,0.0401448,2001,939,20.691,-4.73785
784,85,20.728,4.86389,0.0141382,0.00707311,-0.0153501,0.026357,-0.00514563,-0.672301,0.019514,0.0489043,2008,939,20.728,-4.86392
791,85,20.6899,4.95612,0,0,0,0,0,0,0,-1,2015,939,20.6899,-4.95614
798,85,20.1034,4.87665,0.032101,0.00858826,-0.0261869,0.0490494,-0.00836021,-0.574412,0.0358131,0.0409923,2022,939,20.1034,-4.87663
805,85,21.8118,3.4942,0.047201,0.00900215,-0.0339845,0.0670853,-0.0108822,-0.529392,0.0487574,0.0479225,2029,939,21.8116,-3.49421
812,85,0,0,0,0,0,0,0,0,0,-1,2036,939,0,0
-700,78,0,0,0,0,0,0,0,0,0,-1,524,946,0,0
-693,78,0,0,0,0,0,0,0,0,0,-1,531,946,0,0
-686,78,-17.097,2.77405,0,0,0,0,0,0,0,-1,538,946,-17.097,-2.77408
-679,78,-16.5756,2.87079,0,0,0,0,0,0,0,-1,545,946,-16.5756,-2.87078
-672,78,-16.1204,3.09442,0,0,0,0,0,0,0,-1,552,946,-16.1204,-3.09441
-665,78,-13.5008,0.956848,0,0,0,0,0,0,0,-1,559,946,-13.5008,-0.956872
-658,78,-13.415,2.32941,0,0,0,0,0,0,0,-1,566,946,-13.415,-2.32938
-651,78,-13.6366,2.29889,0.0125844,0.0139822,0.0111788,0.0244839,0.00208268,0.816619,0.0156746,0.0451709,573,946,-13.6366,-2.29891
-644,78,-13.8536,2.26935,0.00810144,0.0100978,0.00902493,0.0181796,1.96686e-05,0.840476,0.0121132,0.0257644,580,946,-13.8536,-2.26937
-637,78,-13.9405,2.16705,0.00500066,0.00669615,0.0071237,0.0130224,-0.00132556,0.844622,0.00915548,0.0126071,587,946,-13.9405,-2.16705
-630,78,-13.9854,2.03882,0.00235199,0.00430992,0.00536027,0.00877989,-0.00211798,0.875719,0.00667226,0.0115706,594,946,-13.9854,-2.03883
-623,78,-14.0076,1.90814,-0.000912202,0.0031848,0.00365048,0.00532228,-0.00304968,1.04108,0.00489255,0.0109504,601,946,-14.0076,-1.90817
-616,78,-14.0043,1.81299,-0.00356504,0.00223086,0.00227806,0.00301906,-0.00435324,1.23769,0.00427957,0.0101594,608,946,-14.0043,-1.81296
-609,78,-13.9962,1.72736,-0.00505312,0.000747796,0.00153069,0.00112692,-0.00543224,1.328,0.00404974,0.0114958,615,946,-13.9962,-1.72734
-602,78,-14.0128,1.60699,-0.00608042,0.000307786,0.000645502,0.000372359,-0.00614499,1.47109,0.00422625,0.015651,622,946,-14.0128,-1.60702
-595,78,-13.9839,1.47662,-0.0070819,0.000223524,9.26677e-06,0.000223536,-0.00708192,1.56953,0.00479753,0.0154045,629,946,-13.9839,-1.4766
-588,78,-13.9816,1.41467,-0.00778633,5.37783e-05,-0.000553511,9.26633e-05,-0.00782521,-1.50066,0.00524797,0.0130786,636,946,-13.9815,-1.4147
-581,78,-14.0318,1.31763,-0.00838971,2.09592e-06,-0.000926239,0.000103112,-0.00849072,-1.46216,0.00569516,0.0193775,643,946,-14.0318,-1.31761
-574,78,-14.3569,1.11865,-0.00873525,6.89005e-05,-0.0012152,0.000233549,-0.0088999,-1.43613,0.00601263,0.0252299,650,946,-14.3569,-1.11865
-567,78,-14.7432,0.965149,0,0,0,0,0,0,0,-1,657,946,-14.7432,-0.965137
-560,78,-14.756,0.957214,-0.00824603,0.000570794,-0.00153005,0.000828768,-0.00850401,-1.40376,0.00596482,0.0320424,664,946,-14.756,-0.957206
-553,78,-14.7816,0.901672,-0.00725384,0.00105017,-0.00172743,0.00139518,-0.00759885,-1.37367,0.00558931,0.0419338,671,946,-14.7816,-0.901698
-546,78,-14.8994,0.788879,-0.00566368,0.0017468,-0.00200147,0.00225281,-0.0061697,-1.32316,0.00503496,0.0441805,678,946,-14.8994,-0.788872
-539,78,-14.8262,0.887451,-0.00346971,0.00269653,-0.00241279,0.0035284,-0.00430159,-1.23878,0.00452799,0.0403218,685,946,-14.8262,-0.887439
-532,78,-14.7988,1.02502,-0.00076971,0.00394807,-0.00309801,0.00548302,-0.00230466,-1.11078,0.00461936,0.0394734,692,946,-14.7988,-1.02499
-525,78,-14.8271,0.909851,0.0017937,0.00567285,-0.00430798,0.00845775,-0.000991199,-0.99692,0.00599627,0.0389435,699,946,-14.8271,-0.909827
-518,78,-14.7156,0.800476,0.00248606,0.00811447,-0.00605049,0.0119732,-0.00137267,-1.00308,0.00847683,0.0409794,706,946,-14.7156,-0.800492
-511,78,0,0,0,0,0,0,0,0,0,-1,713,946,0,0
-504,78,0,0,0,0,0,0,0,0,0,-1,720,946,0,0
-497,78,0,0,0,0,0,0,0,0,0,-1,727,946,0,0
-490,78,0,0,0,0,0,0,0,0,0,-1,734,946,0,0
-483,78,0,0,0,0,0,0,0,0,0,-1,741,946,0,0
-476,78,0,0,0,0,0,0,0,0,0,-1,748,946,0,0
-469,78,0,0,0,0,0,0,0,0,0,-1,755,946,0,0
-462,78,0,0,0,0,0,0,0,0,0,-1,762,946,0,0
-455,78,0,0,0,0,0,0,0,0,0,-1,769,946,0,0
-448,78,0,0,0,0,0,0,0,0,0,-1,776,946,0,0
-441,78,0,0,0,0,0,0,0,0,0,-1,783,946,0,0
-434,78,0,0,0,0,0,0,0,0,0,-1,790,946,0,0
-427,78,0,0,0,0,0,0,0,0,0,-1,797,946,0,0
-420,78,0,0,0,0,0,0,0,0,0,-1,804,946,0,0
-413,78,0,0,0,0,0,0,0,0,0,-1,811,946,0,0
-406,78,0,0,0,0,0,0,0,0,0,-1,818,946,0,0
-399,78,0,0,0,0,0,0,0,0,0,-1,825,946,0,0
-392,78,0,0,0,0,0,0,0,0,0,-1,832,946,0,0
-385,78,0,0,0,0,0,0,0,0,0,-1,839,946,0,0
-378,78,0,0,0,0,0,0,0,0,0,-1,846,946,0,0
-371,78,0,0,0,0,0,0,0,0,0,-1,853,946,0,0
-364,78,0,0,0,0,0,0,0,0,0,-1,860,946,0,0
-357,78,0,0,0,0,0,0,0,0,0,-1,867,946,0,0
-350,78,0,0,0,0,0,0,0,0,0,-1,874,946,0,0
-343,78,0,0,0,0,0,0,0,0,0,-1,881,946,0,0
-336,78,0,0,0,0,0,0,0,0,0,-1,888,946,0,0
-329,78,0,0,0,0,0,0,0,0,0,-1,895,946,0,0
-322,78,0,0,0,0,0,0,0,0,0,-1,902,946,0,0
-315,78,0,0,0,0,0,0,0,0,0,-1,909,946,0,0
-308,78,0,0,0,0,0,0,0,0,0,-1,916,946,0,0
-301,78,0,0,0,0,0,0,0,0,0,-1,923,946,0,0
-294,78,0,0,0,0,0,0,0,0,0,-1,930,946,0,0
-287,78,0,0,0,0,0,0,0,0,0,-1,937,946,0,0
-280,78,0,0,0,0,0,0,0,0,0,-1,944,946,0,0
-273,78,0,0,0,0,0,0,0,0,0,-1,951,946,0,0
-266,78,0,0,0,0,0,0,0,0,0,-1,958,946,0,0
-259,78,0,0,0,0,0,0,0,0,0,-1,965,946,0,0
-252,78,0,0,0,0,0,0,0,0,0,-1,972,946,0,0
-245,78,0,0,0,0,0,0,0,0,0,-1,979,946,0,0
-238,78,0,0,0,0,0,0,0,0,0,-1,986,946,0,0
-231,78,0,0,0,0,0,0,0,0,0,-1,993,946,0,0
-224,78,0,0,0,0,0,0,0,0,0,-1,1000,946,0,0
-217,78,0,0,0,0,0,0,0,0,0,-1,1007,946,0,0
-210,78,0,0,0,0,0,0,0,0,0,-1,1014,946,0,0
-203,78,0,0,0,0,0,0,0,0,0,-1,1021,946,0,0
-196,78,0,0,0,0,0,0,0,0,0,-1,1028,946,0,0
-189,78,0,0,0,0,0,0,0,0,0,-1,1035,946,0,0
-182,78,0,0,0,0,0,0,0,0,0,-1,1042,946,0,0
-175,78,0,0,0,0,0,0,0,0,0,-1,1049,946,0,0
-168,78,0,0,0,0,0,0,0,0,0,-1,1056,946,0,0
-161,78,0,0,0,0,0,0,0,0,0,-1,1063,946,0,0
-154,78,0,0,0,0,0,0,0,0,0,-1,1070,946,0,0
-147,78,0,0,0,0,0,0,0,0,0,-1,1077,946,0,0
-140,78,0,0,0,0,0,0,0,0,0,-1,1084,946,0,0
-133,78,0,0,0,0,0,0,0,0,0,-1,1091,946,0,0
-126,78,0,0,0,0,0,0,0,0,0,-1,1098,946,0,0
-119,78,0,0,0,0,0,0,0,0,0,-1,1105,946,0,0
-112,78,0,0,0,0,0,0,0,0,0,-1,1112,946,0,0
-105,78,0,0,0,0,0,0,0,0,0,-1,1119,946,0,0
-98,78,0,0,0,0,0,0,0,0,0,-1,1126,946,0,0
-91,78,0,0,0,0,0,0,0,0,0,-1,1133,946,0,0
-84,78,0,0,0,0,0,0,0,0,0,-1,1140,946,0,0
-77,78,0,0,0,0,0,0,0,0,0,-1,1147,946,0,0
-70,78,0,0,0,0,0,0,0,0,0,-1,1154,946,0,0
-63,78,0,0,0,0,0,0,0,0,0,-1,1161,946,0,0
-56,78,0,0,0,0,0,0,0,0,0,-1,1168,946,0,0
-49,78,0,0,0,0,0,0,0,0,0,-1,1175,946,0,0
-42,78,0,0,0,0,0,0,0,0,0,-1,1182,946,0,0
-35,78,0,0,0,0,0,0,0,0,0,-1,1189,946,0,0
-28,78,0,0,0,0,0,0,0,0,0,-1,1196,946,0,0
-21,78,0,0,0,0,0,0,0,0,0,-1,1203,946,0,0
-14,78,0,0,0,0,0,0,0,0,0,-1,1210,946,0,0
-7,78,0,0,0,0,0,0,0,0,0,-1,1217,946,0,0
0,78,0,0,0,0,0,0,0,0,0,-1,1224,946,0,0
7,78,0,0,0,0,0,0,0,0,0,-1,1231,946,0,0
14,78,0,0,0,0,0,0,0,0,0,-1,1238,946,0,0
21,78,0,0,0,0,0,0,0,0,0,-1,1245,946,0,0
28,78,0,0,0,0,0,0,0,0,0,-1,1252,946,0,0
35,78,0,0,0,0,0,0,0,0,0,-1,1259,946,0,0
42,78,0,0,0,0,0,0,0,0,0,-1,1266,946,0,0
49,78,0,0,0,0,0,0,0,0,0,-1,1273,946,0,0
56,78,0,0,0,0,0,0,0,0,0,-1,1280,946,0,0
63,78,0,0,0,0,0,0,0,0,0,-1,1287,946,0,0
70,78,0,0,0,0,0,0,0,0,0,-1,1294,946,0,0
77,78,0,0,0,0,0,0,0,0,0,-1,1301,946,0,0
84,78,0,0,0,0,0,0,0,0,0,-1,1308,946,0,0
91,78,0,0,0,0,0,0,0,0,0,-1,1315,946,0,0
98,78,0,0,0,0,0,0,0,0,0,-1,1322,946,0,0
105,78,0,0,0,0,0,0,0,0,0,-1,1329,946,0,0
112,78,0,0,0,0,0,0,0,0,0,-1,1336,946,0,0
119,78,0,0,0,0,0,0,0,0,0,-1,1343,946,0,0
126,78,0,0,0,0,0,0,0,0,0,-1,1350,946,0,0
133,78,0,0,0,0,0,0,0,0,0,-1,1357,946,0,0
140,78,0,0,0,0,0,0,0,0,0,-1,1364,946,0,0
147,78,0,0,0,0,0,0,0,0,0,-1,1371,946,0,0
154,78,0,0,0,0,0,0,0,0,0,-1,1378,946,0,0
161,78,0,0,0,0,0,0,0,0,0,-1,1385,946,0,0
168,78,0,0,0,0,0,0,0,0,0,-1,1392,946,0,0
175,78,0,0,0,0,0,0,0,0,0,-1,1399,946,0,0
182,78,0,0,0,0,0,0,0,0,0,-1,1406,946,0,0
189,78,0,0,0,0,0,0,0,0,0,-1,1413,946,0,0
196,78,0,0,0,0,0,0,0,0,0,-1,1420,946,0,0
203,78,0,0,0,0,0,0,0,0,0,-1,1427,946,0,0
210,78,0,0,0,0,0,0,0,0,0,-1,1434,946,0,0
217,78,0,0,0,0,0,0,0,0,0,-1,1441,946,0,0
224,78,0,0,0,0,0,0,0,0,0,-1,1448,946,0,0
231,78,0,0,0,0,0,0,0,0,0,-1,1455,946,0,0
238,78,0,0,0,0,0,0,0,0,0,-1,1462,946,0,0
245,78,0,0,0,0,0,0,0,0,0,-1,1469,946,0,0
252,78,0,0,0,0,0,0,0,0,0,-1,1476,946,0,0
259,78,0,0,0,0,0,0,0,0,0,-1,1483,946,0,0
266,78,0,0,0,0,0,0,0,0,0,-1,1490,946,0,0
273,78,0,0,0,0,0,0,0,0,0,-1,1497,946,0,0
280,78,0,0,0,0,0,0,0,0,0,-1,1504,946,0,0
287,78,0,0,0,0,0,0,0,0,0,-1,1511,946,0,0
294,78,0,0,0,0,0,0,0,0,0,-1,1518,946,0,0
301,78,0,0,0,0,0,0,0,0,0,-1,1525,946,0,0
308,78,0,0,0,0,0,0,0,0,0,-1,1532,946,0,0
315,78,0,0,0,0,0,0,0,0,0,-1,1539,946,0,0
322,78,0,0,0,0,0,0,0,0,0,-1,1546,946,0,0
329,78,0,0,0,0,0,0,0,0,0,-1,1553,946,0,0
336,78,0,0,0,0,0,0,0,0,0,-1,1560,946,0,0
343,78,0,0,0,0,0,0,0,0,0,-1,1567,946,0,0
350,78,0,0,0,0,0,0,0,0,0,-1,1574,946,0,0
357,78,0,0,0,0,0,0,0,0,0,-1,1581,946,0,0
364,78,0,0,0,0,0,0,0,0,0,-1,1588,946,0,0
371,78,0,0,0,0,0,0,0,0,0,-1,1595,946,0,0
378,78,0,0,0,0,0,0,0,0,0,-1,1602,946,0,0
385,78,0,0,0,0,0,0,0,0,0,-1,1609,946,0,0
392,78,0,0,0,0,0,0,0,0,0,-1,1616,946,0,0
399,78,0,0,0,0,0,0,0,0,0,-1,1623,946,0,0
406,78,0,0,0,0,0,0,0,0,0,-1,1630,946,0,0
413,78,0,0,0,0,0,0,0,0,0,-1,1637,946,0,0
420,78,0,0,0,0,0,0,0,0,0,-1,1644,946,0,0
427,78,0,0,0,0,0,0,0,0,0,-1,1651,946,0,0
434,78,0,0,0,0,0,0,0,0,0,-1,1658,946,0,0
441,78,0,0,0,0,0,0,0,0,0,-1,1665,946,0,0
448,78,0,0,0,0,0,0,0,0,0,-1,1672,946,0,0
455,78,0,0,0,0,0,0,0,0,0,-1,1679,946,0,0
462,78,0,0,0,0,0,0,0,0,0,-1,1686,946,0,0
469,78,0,0,0,0,0,0,0,0,0,-1,1693,946,0,0
476,78,0,0,0,0,0,0,0,0,0,-1,1700,946,0,0
483,78,0,0,0,0,0,0,0,0,0,-1,1707,946,0,0
490,78,0,0,0,0,0,0,0,0,0,-1,1714,946,0,0
497,78,0,0,0,0,0,0,0,0,0,-1,1721,946,0,0
504,78,0,0,0,0,0,0,0,0,0,-1,1728,946,0,0
511,78,0,0,0,0,0,0,0,0,0,-1,1735,946,0,0
518,78,0,0,0,0,0,0,0,0,0,-1,1742,946,0,0
525,78,0,0,0,0,0,0,0,0,0,-1,1749,946,0,0
532,78,0,0,0,0,0,0,0,0,0,-1,1756,946,0,0
539,78,0,0,0,0,0,0,0,0,0,-1,1763,946,0,0
546,78,0,0,0,0,0,0,0,0,0,-1,1770,946,0,0
553,78,0,0,0,0,0,0,0,0,0,-1,1777,946,0,0
560,78,0,0,0,0,0,0,0,0,0,-1,1784,946,0,0
567,78,0,0,0,0,0,0,0,0,0,-1,1791,946,0,0
574,78,0,0,0,0,0,0,0,0,0,-1,1798,946,0,0
581,78,0,0,0,0,0,0,0,0,0,-1,1805,946,0,0
588,78,0,0,0,0,0,0,0,0,0,-1,1812,946,0,0
595,78,0,0,0,0,0,0,0,0,0,-1,1819,946,0,0
602,78,0,0,0,0,0,0,0,0,0,-1,1826,946,0,0
609,78,0,0,0,0,0,0,0,0,0,-1,1833,946,0,0
616,78,0,0,0,0,0,0,0,0,0,-1,1840,946,0,0
623,78,0,0,0,0,0,0,0,0,0,-1,1847,946,0,0
630,78,0,0,0,0,0,0,0,0,0,-1,1854,946,0,0
637,78,22.3641,2.83582,0.000593804,-0.00142854,-0.000122968,0.000601253,-0.00143599,-0.0605076,0.00120867,0.046467,1861,946,22.3641,-2.83584
644,78,22.1752,2.75037,0.001264,-0.000767613,6.58257e-05,0.00126613,-0.000769744,0.0323555,0.001187,0.0405815,1868,946,22.1752,-2.75034
651,78,22.2056,2.60938,0.000662787,-0.000208407,0.000109716,0.000676392,-0.000222012,0.123372,0.000540355,0.0392442,1875,946,22.2056,-2.60937
658,78,22.1923,2.65509,-0.000315604,0.000391638,0.000487912,0.0006406,-0.000564566,1.09897,0.000696264,0.0406976,1882,946,22.1922,-2.65508
665,78,22.1404,2.81995,-0.00177255,0.00103814,0.00110199,0.00141867,-0.00215309,1.2383,0.00207664,0.0428175,1889,946,22.1404,-2.81996
672,78,22.2421,2.90588,-0.00333086,0.001503,0.00171393,0.00204902,-0.00387689,1.26238,0.00347515,0.0415652,1896,946,22.242,-2.90588
679,78,22.4253,2.73944,-0.00466144,0.00177861,0.00223597,0.00247881,-0.00536163,1.26732,0.00462755,0.0403052,1903,946,22.4254,-2.73946
686,78,22.3079,2.75043,-0.0056781,0.00186891,0.0025695,0.00266067,-0.00646986,1.27189,0.00542228,0.0349834,1910,946,22.3079,-2.75044
693,78,22.2312,2.81531,-0.00625507,0.00199204,0.00270437,0.00279974,-0.00706277,1.28056,0.00586876,0.0298949,1917,946,22.2313,-2.81531
700,78,22.2147,2.89832,-0.00666402,0.00199518,0.00274604,0.00279259,-0.00746142,1.28819,0.00612129,0.0252866,1924,946,22.2147,-2.89833
707,78,22.0063,3.26508,-0.00677084,0.00192764,0.00261192,0.00265167,-0.00749486,1.30039,0.00607648,0.0409564,1931,946,22.0064,-3.26509
714,78,20.7704,3.58661,0,0,0,0,0,0,0,-1,1938,946,20.7704,-3.58662
721,78,20.8564,3.70636,-0.00623493,0.0018166,0.00203383,0.00230118,-0.00671951,1.3369,0.00541234,0.0220124,1945,946,20.8565,-3.70637
728,78,20.9313,3.88763,-0.00584817,0.00188774,0.00144644,0.00214935,-0.00610977,1.39187,0.00494777,0.0179734,1952,946,20.9313,-3.88765
735,78,20.9047,3.99951,-0.00499279,0.00208235,0.00056872,0.00212777,-0.00503821,1.4911,0.0042495,0.0121055,1959,946,20.9047,-3.99952
742,78,20.905,4.11902,-0.00384991,0.00216771,-0.000356241,0.00218873,-0.00387093,-1.51187,0.00354319,0.0122578,1966,946,20.905,-4.11904
749,78,20.9034,4.23206,-0.00187678,0.00260265,-0.00193099,0.00332014,-0.00259427,-1.21504,0.00342325,0.0131918,1973,946,20.9034,-4.23207
756,78,20.8965,4.36481,0.000860084,0.00313104,-0.00405722,0.00620868,-0.00221756,-0.92184,0.00504352,0.0138306,1980,946,20.8965,-4.36478
763,78,20.8844,4.49365,0.00360132,0.00386665,-0.00629121,0.0100266,-0.00255862,-0.79594,0.00768066,0.0131683,1987,946,20.8845,-4.49366
770,78,20.8688,4.59369,0.00697887,0.00477162,-0.00879778,0.014742,-0.00299148,-0.723002,0.0109621,0.0170506,1994,946,20.8688,-4.59368
777,78,20.9241,4.57422,0.0113577,0.00581591,-0.0119546,0.0208583,-0.00368469,-0.671516,0.0152826,0.0372753,2001,946,20.9241,-4.57423
784,78,20.9303,4.85248,0,0,0,0,0,0,0,-1,2008,946,20.9303,-4.85245
791,78,21.5905,3.62537,0.0260282,0.00775148,-0.0211949,0.0399709,-0.00619118,-0.58186,0.0289327,0.0422882,2015,946,21.5905,-3.62534
798,78,21.6818,3.4989,0.0380904,0.00858927,-0.0279475,0.0549411,-0.00826143,-0.54258,0.039669,0.0401373,2022,946,21.6817,-3.49891
805,78,21.7566,3.33643,0.0548867,0.00930167,-0.0366268,0.0752338,-0.0110453,-0.507074,0.054214,0.0458875,2029,946,21.7565,-3.33641
812,78,0,0,0,0,0,0,0,0,0,-1,2036,946,0,0
-700,71,0,0,0,0,0,0,0,0,0,-1,524,953,0,0
-693,71,0,0,0,0,0,0,0,0,0,-1,531,953,0,0
-686,71,-17.4293,3.09241,0,0,0,0,0,0,0,-1,538,953,-17.4293,-3.09239
-679,71,-16.8821,3.17322,0,0,0,0,0,0,0,-1,545,953,-16.8821,-3.1732
-672,71,-16.3349,3.25403,0,0,0,0,0,0,0,-1,552,953,-16.3349,-3.254
-665,71,-15.3458,2.22333,0,0,0,0,0,0,0,-1,559,953,-15.3457,-2.22332
-658,71,-13.921,2.38885,0,0,0,0,0,0,0,-1,566,953,-13.9209,-2.38884
-651,71,-13.995,2.29718,0.0103946,0.0129141,0.0120962,0.023816,-0.000507335,0.837283,0.0160491,0.0441672,573,953,-13.995,-2.2972
-644,71,-14.0235,2.22882,0.00682325,0.00920403,0.00952617,0.0176139,-0.00158662,0.847556,0.0123056,0.0306751,580,953,-14.0235,-2.22881
-637,71,-14.0688,2.14038,0.00436662,0.00588387,0.0072142,0.0123792,-0.00212874,0.837784,0.00904627,0.0134373,587,953,-14.0688,-2.14037
-630,71,-14.1124,2.01514,0.00207268,0.00361248,0.00518493,0.00808436,-0.0023992,0.859104,0.00634242,0.0123635,594,953,-14.1124,-2.01516
-623,71,-14.1401,1.87738,-0.000921126,0.00289202,0.00338529,0.0048707,-0.00289981,1.04186,0.00453415,0.0121373,601,953,-14.1401,-1.87741
-616,71,-14.1381,1.78076,-0.00329056,0.00217267,0.00195599,0.00280076,-0.00391865,1.26009,0.00389731,0.0119778,608,953,-14.1381,-1.78075
-609,71,-14.1024,1.72351,-0.00477646,0.000947508,0.00113432,0.0011641,-0.00499305,1.38212,0.00377701,0.0139367,615,953,-14.1024,-1.72349
-602,71,-14.0836,1.61584,-0.00599363,0.000545926,0.000219594,0.000553291,-0.006001,1.53727,0.00419727,0.0162255,622,953,-14.0836,-1.61585
-595,71,-14.1082,1.52197,-0.00692119,0.000455325,-0.000432275,0.000480571,-0.00694644,-1.51246,0.00479917,0.0169766,629,953,-14.1081,-1.52197
-588,71,-14.1121,1.45953,-0.00760615,0.00029309,-0.000965937,0.000409492,-0.00772255,-1.45087,0.00529015,0.0178669,636,953,-14.1121,-1.45951
-581,71,-14.2371,1.25427,-0.00816287,0.000267605,-0.00131599,0.000468253,-0.00836351,-1.41949,0.00573813,0.0249167,643,953,-14.2371,-1.25428
-574,71,-14.6277,1.02948,-0.0084692,0.000366208,-0.00161906,0.000653551,-0.00875655,-1.39515,0.00606729,0.0285172,650,953,-14.6277,-1.02947
-567,71,-14.8103,0.851196,-0.00837225,0.000609031,-0.00181361,0.000961432,-0.00872465,-1.37888,0.00616196,0.0197101,657,953,-14.8103,-0.851225
-560,71,-14.8067,0.898926,-0.00787269,0.000919827,-0.00196116,0.00133743,-0.00829029,-1.36099,0.00602238,0.0278658,664,953,-14.8067,-0.898951
-553,71,-14.8287,0.918701,-0.00676049,0.00143373,-0.00220026,0.00198715,-0.00731391,-1.32438,0.00565591,0.0402425,671,953,-14.8287,-0.918719
-546,71,-14.8127,0.899109,-0.00500668,0.00218241,-0.00256599,0.00300432,-0.00582858,-1.26081,0.00518584,0.0412753,678,953,-14.8127,-0.899109
-539,71,-14.807,0.849731,-0.00259786,0.00321681,-0.00314722,0.00459405,-0.0039751,-1.1583,0.0049517,0.0400249,685,953,-14.807,-0.849728
-532,71,-14.8362,0.875732,0.000339857,0.00462797,-0.00415137,0.00715626,-0.00218844,-1.02377,0.00564358,0.0439566,692,953,-14.8362,-0.875703
-525,71,-14.9715,0.791382,0,0,0,0,0,0,0,-1,699,953,-14.9715,-0.791355
-518,71,0,0,0,0,0,0,0,0,0,-1,706,953,0,0
-511,71,0,0,0,0,0,0,0,0,0,-1,713,953,0,0
-504,71,0,0,0,0,0,0,0,0,0,-1,720,953,0,0
-497,71,0,0,0,0,0,0,0,0,0,-1,727,953,0,0
-490,71,0,0,0,0,0,0,0,0,0,-1,734,953,0,0
-483,71,0,0,0,0,0,0,0,0,0,-1,741,953,0,0
-476,71,0,0,0,0,0,0,0,0,0,-1,748,953,0,0
-469,71,0,0,0,0,0,0,0,0,0,-1,755,953,0,0
-462,71,0,0,0,0,0,0,0,0,0,-1,762,953,0,0
-455,71,0,0,0,0,0,0,0,0,0,-1,769,953,0,0
-448,71,0,0,0,0,0,0,0,0,0,-1,776,953,0,0
-441,71,0,0,0,0,0,0,0,0,0,-1,783,953,0,0
-434,71,0,0,0,0,0,0,0,0,0,-1,790,953,0,0
-427,71,0,0,0,0,0,0,0,0,0,-1,797,953,0,0
-420,71,0,0,0,0,0,0,0,0,0,-1,804,953,0,0
-413,71,0,0,0,0,0,0,0,0,0,-1,811,953,0,0
-406,71,0,0,0,0,0,0,0,0,0,-1,818,953,0,0
-399,71,0,0,0,0,0,0,0,0,0,-1,825,953,0,0
-392,71,0,0,0,0,0,0,0,0,0,-1,832,953,0,0
-385,71,0,0,0,0,0,0,0,0,0,-1,839,953,0,0
-378,71,0,0,0,0,0,0,0,0,0,-1,846,953,0,0
-371,71,0,0,0,0,0,0,0,0,0,-1,853,953,0,0
-364,71,0,0,0,0,0,0,0,0,0,-1,860,953,0,0
-357,71,0,0,0,0,0,0,0,0,0,-1,867,953,0,0
-350,71,0,0,0,0,0,0,0,0,0,-1,874,953,0,0
-343,71,0,0,0,0,0,0,0,0,0,-1,881,953,0,0
-336,71,0,0,0,0,0,0,0,0,0,-1,888,953,0,0
-329,71,0,0,0,0,0,0,0,0,0,-1,895,953,0,0
-322,71,0,0,0,0,0,0,0,0,0,-1,902,953,0,0
-315,71,0,0,0,0,0,0,0,0,0,-1,909,953,0,0
-308,71,0,0,0,0,0,0,0,0,0,-1,916,953,0,0
-301,71,0,0,0,0,0,0,0,0,0,-1,923,953,0,0
-294,71,0,0,0,0,0,0,0,0,0,-1,930,953,0,0
-287,71,0,0,0,0,0,0,0,0,0,-1,937,953,0,0
-280,71,0,0,0,0,0,0,0,0,0,-1,944,953,0,0
-273,71,0,0,0,0,0,0,0,0,0,-1,951,953,0,0
-266,71,0,0,0,0,0,0,0,0,0,-1,958,953,0,0
-259,71,0,0,0,0,0,0,0,0,0,-1,965,953,0,0
-252,71,0,0,0,0,0,0,0,0,0,-1,972,953,0,0
-245,71,0,0,0,0,0,0,0,0,0,-1,979,953,0,0
-238,71,0,0,0,0,0,0,0,0,0,-1,986,953,0,0
-231,71,0,0,0,0,0,0,0,0,0,-1,993,953,0,0
-224,71,0,0,0,0,0,0,0,0,0,-1,1000,953,0,0
-217,71,0,0,0,0,0,0,0,0,0,-1,1007,953,0,0
-210,71,0,0,0,0,0,0,0,0,0,-1,1014,953,0,0
-203,71,0,0,0,0,0,0,0,0,0,-1,1021,953,0,0
-196,71,0,0,0,0,0,0,0,0,0,-1,1028,953,0,0
-189,71,0,0,0,0,0,0,0,0,0,-1,1035,953,0,0
-182,71,0,0,0,0,0,0,0,0,0,-1,1042,953,0,0
-175,71,0,0,0,0,0,0,0,0,0,-1,1049,953,0,0
-168,71,0,0,0,0,0,0,0,0,0,-1,1056,953,0,0
-161,71,0,0,0,0,0,0,0,0,0,-1,1063,953,0,0
-154,71,0,0,0,0,0,0,0,0,0,-1,1070,953,0,0
-147,71,0,0,0,0,0,0,0,0,0,-1,1077,953,0,0
-140,71,0,0,0,0,0,0,0,0,0,-1,1084,953,0,0
-133,71,0,0,0,0,0,0,0,0,0,-1,1091,953,0,0
-126,71,0,0,0,0,0,0,0,0,0,-1,1098,953,0,0
-119,71,0,0,0,0,0,0,0,0,0,-1,1105,953,0,0
-112,71,0,0,0,0,0,0,0,0,0,-1,1112,953,0,0
-105,71,0,0,0,0,0,0,0,0,0,-1,1119,953,0,0
-98,71,0,0,0,0,0,0,0,0,0,-1,1126,953,0,0
-91,71,0,0,0,0,0,0,0,0,0,-1,1133,953,0,0
-84,71,0,0,0,0,0,0,0,0,0,-1,1140,953,0,0
-77,71,0,0,0,0,0,0,0,0,0,-1,1147,953,0,0
-70,71,0,0,0,0,0,0,0,0,0,-1,1154,953,0,0
-63,71,0,0,0,0,0,0,0,0,0,-1,1161,953,0,0
-56,71,0,0,0,0,0,0,0,0,0,-1,1168,953,0,0
-49,71,0,0,0,0,0,0,0,0,0,-1,1175,953,0,0
-42,71,0,0,0,0,0,0,0,0,0,-1,1182,953,0,0
-35,71,0,0,0,0,0,0,0,0,0,-1,1189,953,0,0
-28,71,0,0,0,0,0,0,0,0,0,-1,1196,953,0,0
-21,71,0,0,0,0,0,0,0,0,0,-1,1203,953,0,0
-14,71,0,0,0,0,0,0,0,0,0,-1,1210,953,0,0
-7,71,0,0,0,0,0,0,0,0,0,-1,1217,953,0,0
0,71,0,0,0,0,0,0,0,0,0,-1,1224,953,0,0
7,71,0,0,0,0,0,0,0,0,0,-1,1231,953,0,0
14,71,0,0,0,0,0,0,0,0,0,-1,1238,953,0,0
21,71,0,0,0,0,0,0,0,0,0,-1,1245,953,0,0
28,71,0,0,0,0,0,0,0,0,0,-1,1252,953,0,0
35,71,0,0,0,0,0,0,0,0,0,-1,1259,953,0,0
42,71,0,0,0,0,0,0,0,0,0,-1,1266,953,0,0
49,71,0,0,0,0,0,0,0,0,0,-1,1273,953,0,0
56,71,0,0,0,0,0,0,0,0,0,-1,1280,953,0,0
63,71,0,0,0,0,0,0,0,0,0,-1,1287,953,0,0
70,71,0,0,0,0,0,0,0,0,0,-1,1294,953,0,0
77,71,0,0,0,0,0,0,0,0,0,-1,1301,953,0,0
84,71,0,0,0,0,0,0,0,0,0,-1,1308,953,0,0
91,71,0,0,0,0,0,0,0,0,0,-1,1315,953,0,0
98,71,0,0,0,0,0,0,0,0,0,-1,1322,953,0,0
105,71,0,0,0,0,0,0,0,0,0,-1,1329,953,0,0
112,71,0,0,0,0,0,0,0,0,0,-1,1336,953,0,0
119,71,0,0,0,0,0,0,0,0,0,-1,1343,953,0,0
126,71,0,0,0,0,0,0,0,0,0,-1,1350,953,0,0
133,71,0,0,0,0,0,0,0,0,0,-1,1357,953,0,0
140,71,0,0,0,0,0,0,0,0,0,-1,1364,953,0,0
147,71,0,0,0,0,0,0,0,0,0,-1,1371,953,0,0
154,71,0,0,0,0,0,0,0,0,0,-1,1378,953,0,0
161,71,0,0,0,0,0,0,0,0,0,-1,1385,953,0,0
168,71,0,0,0,0,0,0,0,0,0,-1,1392,953,0,0
175,71,0,0,0,0,0,0,0,0,0,-1,1399,953,0,0
182,71,0,0,0,0,0,0,0,0,0,-1,1406,953,0,0
189,71,0,0,0,0,0,0,0,0,0,-1,1413,953,0,0
196,71,0,0,0,0,0,0,0,0,0,-1,1420,953,0,0
203,71,0,0,0,0,0,0,0,0,0,-1,1427,953,0,0
210,71,0,0,0,0,0,0,0,0,0,-1,1434,953,0,0
217,71,0,0,0,0,0,0,0,0,0,-1,1441,953,0,0
224,71,0,0,0,0,0,0,0,0,0,-1,1448,953,0,0
231,71,0,0,0,0,0,0,0,0,0,-1,1455,953,0,0
238,71,0,0,0,0,0,0,0,0,0,-1,1462,953,0,0
245,71,0,0,0,0,0,0,0,0,0,-1,1469,953,0,0
252,71,0,0,0,0,0,0,0,0,0,-1,1476,953,0,0
259,71,0,0,0,0,0,0,0,0,0,-1,1483,953,0,0
266,71,0,0,0,0,0,0,0,0,0,-1,1490,953,0,0
273,71,0,0,0,0,0,0,0,0,0,-1,1497,953,0,0
280,71,0,0,0,0,0,0,0,0,0,-1,1504,953,0,0
287,71,0,0,0,0,0,0,0,0,0,-1,1511,953,0,0
294,71,0,0,0,0,0,0,0,0,0,-1,1518,953,0,0
301,71,0,0,0,0,0,0,0,0,0,-1,1525,953,0,0
308,71,0,0,0,0,0,0,0,0,0,-1,1532,953,0,0
315,71,0,0,0,0,0,0,0,0,0,-1,1539,953,0,0
322,71,0,0,0,0,0,0,0,0,0,-1,1546,953,0,0
329,71,0,0,0,0,0,0,0,0,0,-1,1553,953,0,0
336,71,0,0,0,0,0,0,0,0,0,-1,1560,953,0,0
343,71,0,0,0,0,0,0,0,0,0,-1,1567,953,0,0
350,71,0,0,0,0,0,0,0,0,0,-1,1574,953,0,0
357,71,0,0,0,0,0,0,0,0,0,-1,1581,953,0,0
364,71,0,0,0,0,0,0,0,0,0,-1,1588,953,0,0
371,71,0,0,0,0,0,0,0,0,0,-1,1595,953,0,0
378,71,0,0,0,0,0,0,0,0,0,-1,1602,953,0,0
385,71,0,0,0,0,0,0,0,0,0,-1,1609,953,0,0
392,71,0,0,0,0,0,0,0,0,0,-1,1616,953,0,0
399,71,0,0,0,0,0,0,0,0,0,-1,1623,953,0,0
406,71,0,0,0,0,0,0,0,0,0,-1,1630,953,0,0
413,71,0,0,0,0,0,0,0,0,0,-1,1637,953,0,0
420,71,0,0,0,0,0,0,0,0,0,-1,1644,953,0,0
427,71,0,0,0,0,0,0,0,0,0,-1,1651,953,0,0
434,71,0,0,0,0,0,0,0,0,0,-1,1658,953,0,0
441,71,0,0,0,0,0,0,0,0,0,-1,1665,953,0,0
448,71,0,0,0,0,0,0,0,0,0,-1,1672,953,0,0
455,71,0,0,0,0,0,0,0,0,0,-1,1679,953,0,0
462,71,0,0,0,0,0,0,0,0,0,-1,1686,953,0,0
469,71,0,0,0,0,0,0,0,0,0,-1,1693,953,0,0
476,71,0,0,0,0,0,0,0,0,0,-1,1700,953,0,0
483,71,0,0,0,0,0,0,0,0,0,-1,1707,953,0,0
490,71,0,0,0,0,0,0,0,0,0,-1,1714,953,0,0
497,71,0,0,0,0,0,0,0,0,0,-1,1721,953,0,0
504,71,0,0,0,0,0,0,0,0,0,-1,1728,953,0,0
511,71,0,0,0,0,0,0,0,0,0,-1,1735,953,0,0
518,71,0,0,0,0,0,0,0,0,0,-1,1742,953,0,0
525,71,0,0,0,0,0,0,0,0,0,-1,1749,953,0,0
532,71,0,0,0,0,0,0,0,0,0,-1,1756,953,0,0
539,71,0,0,0,0,0,0,0,0,0,-1,1763,953,0,0
546,71,0,0,0,0,0,0,0,0,0,-1,1770,953,0,0
553,71,0,0,0,0,0,0,0,0,0,-1,1777,953,0,0
560,71,0,0,0,0,0,0,0,0,0,-1,1784,953,0,0
567,71,0,0,0,0,0,0,0,0,0,-1,1791,953,0,0
574,71,0,0,0,0,0,0,0,0,0,-1,1798,953,0,0
581,71,0,0,0,0,0,0,0,0,0,-1,1805,953,0,0
588,71,0,0,0,0,0,0,0,0,0,-1,1812,953,0,0
595,71,0,0,0,0,0,0,0,0,0,-1,1819,953,0,0
602,71,0,0,0,0,0,0,0,0,0,-1,1826,953,0,0
609,71,0,0,0,0,0,0,0,0,0,-1,1833,953,0,0
616,71,0,0,0,0,0,0,0,0,0,-1,1840,953,0,0
623,71,0,0,0,0,0,0,0,0,0,-1,1847,953,0,0
630,71,0,0,0,0,0,0,0,0,0,-1,1854,953,0,0
637,71,22.266,2.95117,0.000366553,-0.00196387,-0.000545075,0.000487742,-0.00208506,-0.218775,0.00157795,0.0408678,1861,953,22.266,-2.95119
644,71,22.1176,2.91547,0.0010969,-0.0011445,-0.000421268,0.00117346,-0.00122107,-0.179778,0.00138257,0.0416228,1868,953,22.1175,-2.91545
651,71,22.1705,2.72955,0.000883907,-0.000464188,-0.000351348,0.000969982,-0.000550262,-0.240251,0.000888794,0.0387859,1875,953,22.1706,-2.72957
658,71,22.2937,2.6665,0.000359509,0.00020292,0.000102468,0.00041017,0.000152258,0.459169,0.000239416,0.0406003,1882,953,22.2937,-2.66649
665,71,22.3026,2.69958,-0.000731287,0.00095594,0.000893621,0.00134125,-0.00111659,1.16371,0.00142101,0.0448122,1889,953,22.3026,-2.69958
672,71,22.3142,2.73645,-0.0020966,0.00156881,0.00170493,0.00223922,-0.00276701,1.19615,0.0028957,0.0446599,1896,953,22.3142,-2.73647
679,71,22.3381,2.7179,-0.0033763,0.00197222,0.0024024,0.00289284,-0.00429692,1.20485,0.00417732,0.0399062,1903,953,22.3381,-2.7179
686,71,22.3119,2.69012,-0.00441131,0.00216574,0.00287473,0.00324511,-0.00549068,1.21162,0.00509885,0.0359944,1910,953,22.3118,-2.6901
693,71,22.2997,2.68378,-0.00506592,0.00234482,0.00310306,0.00347254,-0.00619364,1.22221,0.005654,0.0324784,1917,953,22.2997,-2.68377
700,71,22.2098,2.80969,-0.00561308,0.00238468,0.00320961,0.00351344,-0.00674184,1.23263,0.00601788,0.0309411,1924,953,22.2098,-2.8097
707,71,22.1361,3.16962,-0.00591582,0.00233734,0.0031015,0.00337293,-0.00695141,1.24854,0.00607894,0.0311412,1931,953,22.1361,-3.16964
714,71,21.4691,3.65259,-0.00591576,0.00228357,0.00284847,0.003176,-0.00680819,1.26718,0.00589015,0.0399368,1938,953,21.4691,-3.65259
721,71,21.0952,3.729,-0.00582795,0.00221878,0.0025328,0.00294963,-0.0065588,1.28987,0.00561998,0.0306615,1945,953,21.0952,-3.72898
728,71,21.0111,3.90448,-0.00558167,0.00224053,0.00191957,0.0026862,-0.00602734,1.34267,0.00515257,0.0169037,1952,953,21.0111,-3.90449
735,71,21.0052,4.00952,-0.00485227,0.00232736,0.00102397,0.00247055,-0.00499545,1.43186,0.00439189,0.0108589,1959,953,21.0053,-4.0095
742,71,21.0204,4.09821,-0.00378852,0.00227946,8.02725e-05,0.00228052,-0.00378958,1.55757,0.00354049,0.0121027,1966,953,21.0204,-4.09818
749,71,21.037,4.22992,-0.00190611,0.00263001,-0.00155107,0.00310966,-0.00238576,-1.27088,0.00318194,0.0155598,1973,953,21.037,-4.22992
756,71,21.0212,4.36328,0.000891754,0.00301114,-0.00366528,0.00576684,-0.00186395,-0.926119,0.00459371,0.01515,1980,953,21.0212,-4.3633
763,71,21.0013,4.48962,0.00391452,0.00356628,-0.00591491,0.00965787,-0.00217706,-0.770684,0.00727369,0.0130109,1987,953,21.0014,-4.48961
770,71,20.9901,4.58557,0.00770805,0.00430541,-0.00843823,0.0146148,-0.00260131,-0.685922,0.010716,0.0146691,1994,953,20.9901,-4.58559
777,71,20.983,4.65649,0.0125857,0.00523551,-0.0116173,0.0210953,-0.00327409,-0.632205,0.0152723,0.0338504,2001,953,20.983,-4.65652
784,71,21.3405,4.25195,0.0192597,0.00611227,-0.0156916,0.0296989,-0.00432692,-0.587038,0.0213879,0.0431266,2008,953,21.3404,-4.25198
791,71,21.5995,3.67853,0.028587,0.00691399,-0.0210222,0.0414014,-0.00590036,-0.547421,0.0297633,0.0398094,2015,953,21.5995,-3.67851
798,71,21.7571,3.52002,0.0415844,0.00763191,-0.0279904,0.0573444,-0.00812802,-0.512805,0.041207,0.0395372,2022,953,21.7571,-3.52001
805,71,22.0313,3.33832,0.0594704,0.00826145,-0.0369936,0.0788561,-0.0111242,-0.482685,0.0566441,0.0431438,2029,953,22.0312,-3.33834
812,71,0,0,0,0,0,0,0,0,0,-1,2036,953,0,0
-700,64,0,0,0,0,0,0,0,0,0,-1,524,960,0,0
-693,64,0,0,0,0,0,0,0,0,0,-1,531,960,0,0
-686,64,-16.4142,2.55402,0,0,0,0,0,0,0,-1,538,960,-16.4142,-2.55404
-679,64,-17.2857,3.48505,0,0,0,0,0,0,0,-1,545,960,-17.2857,-3.48504
-672,64,-15.6802,0.618958,0,0,0,0,0,0,0,-1,552,960,-15.6802,-0.618979
-665,64,-14.2061,1.59814,0,0,0,0,0,0,0,-1,559,960,-14.2061,-1.59815
-658,64,-14.4022,1.92804,0.01004,0.0175535,0.0171672,0.0313702,-0.00377666,0.893117,0.0222793,0.0432082,566,960,-14.4022,-1.92804
-651,64,-14.3503,2.04993,0.00688859,0.0126975,0.0135129,0.0236145,-0.00402845,0.891257,0.0172434,0.041663,573,960,-14.3504,-2.04991
-644,64,-14.2094,2.10809,0.00429392,0.00901919,0.0104065,0.0173278,-0.00401474,0.897024,0.0130969,0.0302201,580,960,-14.2093,-2.10811
-637,64,-14.2003,2.08502,0.00263717,0.00563729,0.00761941,0.0119029,-0.00362843,0.882592,0.00938162,0.0149059,587,960,-14.2003,-2.08501
-630,64,-14.2318,2.01111,0.000958739,0.00333919,0.00516202,0.00744643,-0.0031485,0.898705,0.00628251,0.0130702,594,960,-14.2318,-2.0111
-623,64,-14.2433,1.89752,-0.00150961,0.00289854,0.00317586,0.00456021,-0.00317129,1.08874,0.00448773,0.013623,601,960,-14.2433,-1.89752
-616,64,-14.2446,1.77734,-0.00345763,0.00228721,0.00165777,0.00273127,-0.00390168,1.30908,0.00384936,0.0165286,608,960,-14.2446,-1.77732
-609,64,-14.2081,1.71594,-0.0046999,0.00124877,0.000712612,0.00133295,-0.00478408,1.45322,0.0037143,0.0159888,615,960,-14.2081,-1.71594
-602,64,-14.1674,1.63086,-0.00578322,0.000851395,-0.000258468,0.000861448,-0.00579327,-1.53192,0.00417903,0.0166193,622,960,-14.1674,-1.63085
-595,64,-14.2006,1.5509,-0.00655662,0.00077479,-0.000944123,0.00089442,-0.00667625,-1.44476,0.00477697,0.0168186,629,960,-14.2006,-1.5509
-588,64,-14.2172,1.50647,-0.0071755,0.000617485,-0.00144552,0.000876974,-0.00743499,-1.39318,0.00527335,0.0230004,636,960,-14.2172,-1.50646
-581,64,-14.4039,1.26855,-0.00768041,0.000588301,-0.00176344,0.000948676,-0.00804078,-1.36921,0.00570311,0.0295068,643,960,-14.4039,-1.26857
-574,64,-14.7169,1.03619,-0.0079282,0.000702769,-0.00205894,0.00116877,-0.0083942,-1.34821,0.00602364,0.0335289,650,960,-14.7169,-1.03617
-567,64,-14.7698,0.878235,-0.00779103,0.000931735,-0.00223938,0.00147306,-0.00833235,-1.33362,0.00610544,0.0246503,657,960,-14.7698,-0.878238
-560,64,-14.8403,0.913635,-0.0072346,0.00124623,-0.00240385,0.0018802,-0.00786857,-1.31294,0.00597194,0.033527,664,960,-14.8403,-0.913636
-553,64,-14.8725,0.968872,-0.00605437,0.00175275,-0.00268029,0.00258435,-0.00688597,-1.26995,0.00565258,0.0390226,671,960,-14.8725,-0.968898
-546,64,-14.7692,0.989014,-0.00421769,0.00249939,-0.00314901,0.00374477,-0.00546307,-1.19419,0.00534691,0.0404411,678,960,-14.7692,-0.98901
-539,64,-14.9758,1.04834,-0.0017037,0.00355128,-0.0039446,0.00566337,-0.00381579,-1.0792,0.00550733,0.0404561,685,960,-14.9758,-1.04831
-532,64,-14.8508,0.753174,0,0,0,0,0,0,0,-1,692,960,-14.8508,-0.753154
-525,64,-14.8738,0.865967,0,0,0,0,0,0,0,-1,699,960,-14.8738,-0.865959
-518,64,0,0,0,0,0,0,0,0,0,-1,706,960,0,0
-511,64,0,0,0,0,0,0,0,0,0,-1,713,960,0,0
-504,64,0,0,0,0,0,0,0,0,0,-1,720,960,0,0
-497,64,0,0,0,0,0,0,0,0,0,-1,727,960,0,0
-490,64,0,0,0,0,0,0,0,0,0,-1,734,960,0,0
-483,64,0,0,0,0,0,0,0,0,0,-1,741,960,0,0
-476,64,0,0,0,0,0,0,0,0,0,-1,748,960,0,0
-469,64,0,0,0,0,0,0,0,0,0,-1,755,960,0,0
-462,64,0,0,0,0,0,0,0,0,0,-1,762,960,0,0
-455,64,0,0,0,0,0,0,0,0,0,-1,769,960,0,0
-448,64,0,0,0,0,0,0,0,0,0,-1,776,960,0,0
-441,64,0,0,0,0,0,0,0,0,0,-1,783,960,0,0
-434,64,0,0,0,0,0,0,0,0,0,-1,790,960,0,0
-427,64,0,0,0,0,0,0,0,0,0,-1,797,960,0,0
-420,64,0,0,0,0,0,0,0,0,0,-1,804,960,0,0
-413,64,0,0,0,0,0,0,0,0,0,-1,811,960,0,0
-406,64,0,0,0,0,0,0,0,0,0,-1,818,960,0,0
-399,64,0,0,0,0,0,0,0,0,0,-1,825,960,0,0
-392,64,0,0,0,0,0,0,0,0,0,-1,832,960,0,0
-385,64,0,0,0,0,0,0,0,0,0,-1,839,960,0,0
-378,64,0,0,0,0,0,0,0,0,0,-1,846,960,0,0
-371,64,0,0,0,0,0,0,0,0,0,-1,853,960,0,0
-364,64,0,0,0,0,0,0,0,0,0,-1,860,960,0,0
-357,64,0,0,0,0,0,0,0,0,0,-1,867,960,0,0
-350,64,0,0,0,0,0,0,0,0,0,-1,874,960,0,0
-343,64,0,0,0,0,0,0,0,0,0,-1,881,960,0,0
-336,64,0,0,0,0,0,0,0,0,0,-1,888,960,0,0
-329,64,0,0,0,0,0,0,0,0,0,-1,895,960,0,0
-322,64,0,0,0,0,0,0,0,0,0,-1,902,960,0,0
-315,64,0,0,0,0,0,0,0,0,0,-1,909,960,0,0
-308,64,0,0,0,0,0,0,0,0,0,-1,916,960,0,0
-301,64,0,0,0,0,0,0,0,0,0,-1,923,960,0,0
-294,64,0,0,0,0,0,0,0,0,0,-1,930,960,0,0
-287,64,0,0,0,0,0,0,0,0,0,-1,937,960,0,0
-280,64,0,0,0,0,0,0,0,0,0,-1,944,960,0,0
-273,64,0,0,0,0,0,0,0,0,0,-1,951,960,0,0
-266,64,0,0,0,0,0,0,0,0,0,-1,958,960,0,0
-259,64,0,0,0,0,0,0,0,0,0,-1,965,960,0,0
-252,64,0,0,0,0,0,0,0,0,0,-1,972,960,0,0
-245,64,0,0,0,0,0,0,0,0,0,-1,979,960,0,0
-238,64,0,0,0,0,0,0,0,0,0,-1,986,960,0,0
-231,64,0,0,0,0,0,0,0,0,0,-1,993,960,0,0
-224,64,0,0,0,0,0,0,0,0,0,-1,1000,960,0,0
-217,64,0,0,0,0,0,0,0,0,0,-1,1007,960,0,0
-210,64,0,0,0,0,0,0,0,0,0,-1,1014,960,0,0
-203,64,0,0,0,0,0,0,0,0,0,-1,1021,960,0,0
-196,64,0,0,0,0,0,0,0,0,0,-1,1028,960,0,0
-189,64,0,0,0,0,0,0,0,0,0,-1,1035,960,0,0
-182,64,0,0,0,0,0,0,0,0,0,-1,1042,960,0,0
-175,64,0,0,0,0,0,0,0,0,0,-1,1049,960,0,0
-168,64,0,0,0,0,0,0,0,0,0,-1,1056,960,0,0
-161,64,0,0,0,0,0,0,0,0,0,-1,1063,960,0,0
-154,64,0,0,0,0,0,0,0,0,0,-1,1070,960,0,0
-147,64,0,0,0,0,0,0,0,0,0,-1,1077,960,0,0
-140,64,0,0,0,0,0,0,0,0,0,-1,1084,960,0,0
-133,64,0,0,0,0,0,0,0,0,0,-1,1091,960,0,0
-126,64,0,0,0,0,0,0,0,0,0,-1,1098,960,0,0
-119,64,0,0,0,0,0,0,0,0,0,-1,1105,960,0,0
-112,64,0,0,0,0,0,0,0,0,0,-1,1112,960,0,0
-105,64,0,0,0,0,0,0,0,0,0,-1,1119,960,0,0
-98,64,0,0,0,0,0,0,0,0,0,-1,1126,960,0,0
-91,64,0,0,0,0,0,0,0,0,0,-1,1133,960,0,0
-84,64,0,0,0,0,0,0,0,0,0,-1,1140,960,0,0
-77,64,0,0,0,0,0,0,0,0,0,-1,1147,960,0,0
-70,64,0,0,0,0,0,0,0,0,0,-1,1154,960,0,0
-63,64,0,0,0,0,0,0,0,0,0,-1,1161,960,0,0
-56,64,0,0,0,0,0,0,0,0,0,-1,1168,960,0,0
-49,64,0,0,0,0,0,0,0,0,0,-1,1175,960,0,0
-42,64,0,0,0,0,0,0,0,0,0,-1,1182,960,0,0
-35,64,0,0,0,0,0,0,0,0,0,-1,1189,960,0,0
-28,64,0,0,0,0,0,0,0,0,0,-1,1196,960,0,0
-21,64,0,0,0,0,0,0,0,0,0,-1,1203,960,0,0
-14,64,0,0,0,0,0,0,0,0,0,-1,1210,960,0,0
-7,64,0,0,0,0,0,0,0,0,0,-1,1217,960,0,0
0,64,0,0,0,0,0,0,0,0,0,-1,1224,960,0,0
7,64,0,0,0,0,0,0,0,0,0,-1,1231,960,0,0
14,64,0,0,0,0,0,0,0,0,0,-1,1238,960,0,0
21,64,0,0,0,0,0,0,0,0,0,-1,1245,960,0,0
28,64,0,0,0,0,0,0,0,0,0,-1,1252,960,0,0
35,64,0,0,0,0,0,0,0,0,0,-1,1259,960,0,0
42,64,0,0,0,0,0,0,0,0,0,-1,1266,960,0,0
49,64,0,0,0,0,0,0,0,0,0,-1,1273,960,0,0
56,64,0,0,0,0,0,0,0,0,0,-1,1280,960,0,0
63,64,0,0,0,0,0,0,0,0,0,-1,1287,960,0,0
70,64,0,0,0,0,0,0,0,0,0,-1,1294,960,0,0
77,64,0,0,0,0,0,0,0,0,0,-1,1301,960,0,0
84,64,0,0,0,0,0,0,0,0,0,-1,1308,960,0,0
91,64,0,0,0,0,0,0,0,0,0,-1,1315,960,0,0
98,64,0,0,0,0,0,0,0,0,0,-1,1322,960,0,0
105,64,0,0,0,0,0,0,0,0,0,-1,1329,960,0,0
112,64,0,0,0,0,0,0,0,0,0,-1,1336,960,0,0
119,64,0,0,0,0,0,0,0,0,0,-1,1343,960,0,0
126,64,0,0,0,0,0,0,0,0,0,-1,1350,960,0,0
133,64,0,0,0,0,0,0,0,0,0,-1,1357,960,0,0
140,64,0,0,0,0,0,0,0,0,0,-1,1364,960,0,0
147,64,0,0,0,0,0,0,0,0,0,-1,1371,960,0,0
154,64,0,0,0,0,0,0,0,0,0,-1,1378,960,0,0
161,64,0,0,0,0,0,0,0,0,0,-1,1385,960,0,0
168,64,0,0,0,0,0,0,0,0,0,-1,1392,960,0,0
175,64,0,0,0,0,0,0,0,0,0,-1,1399,960,0,0
182,64,0,0,0,0,0,0,0,0,0,-1,1406,960,0,0
189,64,0,0,0,0,0,0,0,0,0,-1,1413,960,0,0
196,64,0,0,0,0,0,0,0,0,0,-1,1420,960,0,0
203,64,0,0,0,0,0,0,0,0,0,-1,1427,960,0,0
210,64,0,0,0,0,0,0,0,0,0,-1,1434,960,0,0
217,64,0,0,0,0,0,0,0,0,0,-1,1441,960,0,0
224,64,0,0,0,0,0,0,0,0,0,-1,1448,960,0,0
231,64,0,0,0,0,0,0,0,0,0,-1,1455,960,0,0
238,64,0,0,0,0,0,0,0,0,0,-1,1462,960,0,0
245,64,0,0,0,0,0,0,0,0,0,-1,1469,960,0,0
252,64,0,0,0,0,0,0,0,0,0,-1,1476,960,0,0
259,64,0,0,0,0,0,0,0,0,0,-1,1483,960,0,0
266,64,0,0,0,0,0,0,0,0,0,-1,1490,960,0,0
273,64,0,0,0,0,0,0,0,0,0,-1,1497,960,0,0
280,64,0,0,0,0,0,0,0,0,0,-1,1504,960,0,0
287,64,0,0,0,0,0,0,0,0,0,-1,1511,960,0,0
294,64,0,0,0,0,0,0,0,0,0,-1,1518,960,0,0
301,64,0,0,0,0,0,0,0,0,0,-1,1525,960,0,0
308,64,0,0,0,0,0,0,0,0,0,-1,1532,960,0,0
315,64,0,0,0,0,0,0,0,0,0,-1,1539,960,0,0
322,64,0,0,0,0,0,0,0,0,0,-1,1546,960,0,0
329,64,0,0,0,0,0,0,0,0,0,-1,1553,960,0,0
336,64,0,0,0,0,0,0,0,0,0,-1,1560,960,0,0
343,64,0,0,0,0,0,0,0,0,0,-1,1567,960,0,0
350,64,0,0,0,0,0,0,0,0,0,-1,1574,960,0,0
357,64,0,0,0,0,0,0,0,0,0,-1,1581,960,0,0
364,64,0,0,0,0,0,0,0,0,0,-1,1588,960,0,0
371,64,0,0,0,0,0,0,0,0,0,-1,1595,960,0,0
378,64,0,0,0,0,0,0,0,0,0,-1,1602,960,0,0
385,64,0,0,0,0,0,0,0,0,0,-1,1609,960,0,0
392,64,0,0,0,0,0,0,0,0,0,-1,1616,960,0,0
399,64,0,0,0,0,0,0,0,0,0,-1,1623,960,0,0
406,64,0,0,0,0,0,0,0,0,0,-1,1630,960,0,0
413,64,0,0,0,0,0,0,0,0,0,-1,1637,960,0,0
420,64,0,0,0,0,0,0,0,0,0,-1,1644,960,0,0
427,64,0,0,0,0,0,0,0,0,0,-1,1651,960,0,0
434,64,0,0,0,0,0,0,0,0,0,-1,1658,960,0,0
441,64,0,0,0,0,0,0,0,0,0,-1,1665,960,0,0
448,64,0,0,0,0,0,0,0,0,0,-1,1672,960,0,0
455,64,0,0,0,0,0,0,0,0,0,-1,1679,960,0,0
462,64,0,0,0,0,0,0,0,0,0,-1,1686,960,0,0
469,64,0,0,0,0,0,0,0,0,0,-1,1693,960,0,0
476,64,0,0,0,0,0,0,0,0,0,-1,1700,960,0,0
483,64,0,0,0,0,0,0,0,0,0,-1,1707,960,0,0
490,64,0,0,0,0,0,0,0,0,0,-1,1714,960,0,0
497,64,0,0,0,0,0,0,0,0,0,-1,1721,960,0,0
504,64,0,0,0,0,0,0,0,0,0,-1,1728,960,0,0
511,64,0,0,0,0,0,0,0,0,0,-1,1735,960,0,0
518,64,0,0,0,0,0,0,0,0,0,-1,1742,960,0,0
525,64,0,0,0,0,0,0,0,0,0,-1,1749,960,0,0
532,64,0,0,0,0,0,0,0,0,0,-1,1756,960,0,0
539,64,0,0,0,0,0,0,0,0,0,-1,1763,960,0,0
546,64,0,0,0,0,0,0,0,0,0,-1,1770,960,0,0
553,64,0,0,0,0,0,0,0,0,0,-1,1777,960,0,0
560,64,0,0,0,0,0,0,0,0,0,-1,1784,960,0,0
567,64,0,0,0,0,0,0,0,0,0,-1,1791,960,0,0
574,64,0,0,0,0,0,0,0,0,0,-1,1798,960,0,0
581,64,0,0,0,0,0,0,0,0,0,-1,1805,960,0,0
588,64,0,0,0,0,0,0,0,0,0,-1,1812,960,0,0
595,64,0,0,0,0,0,0,0,0,0,-1,1819,960,0,0
602,64,0,0,0,0,0,0,0,0,0,-1,1826,960,0,0
609,64,0,0,0,0,0,0,0,0,0,-1,1833,960,0,0
616,64,0,0,0,0,0,0,0,0,0,-1,1840,960,0,0
623,64,0,0,0,0,0,0,0,0,0,-1,1847,960,0,0
630,64,0,0,0,0,0,0,0,0,0,-1,1854,960,0,0
637,64,0,0,0,0,0,0,0,0,0,-1,1861,960,0,0
644,64,22.2151,2.82672,0.00156755,-0.00139462,-0.000863951,0.00180111,-0.00162819,-0.264033,0.00198075,0.0420427,1868,960,22.2151,-2.82675
651,64,22.1827,2.77319,0.00150868,-0.000589949,-0.000777266,0.0017652,-0.000846469,-0.318773,0.00153863,0.0392261,1875,960,22.1827,-2.7732
658,64,22.1932,2.85028,0.00111671,0.000104613,-0.000292185,0.00119501,2.63185e-05,-0.261812,0.000788044,0.0371454,1882,960,22.1933,-2.85025
665,64,22.2465,2.77551,0.000116003,0.000896161,0.000613133,0.00123278,-0.000220619,1.06871,0.000904409,0.0445909,1889,960,22.2465,-2.77552
672,64,22.3311,2.6283,-0.00125078,0.00160009,0.00157833,0.00230139,-0.00195208,1.15267,0.0024585,0.0468395,1896,960,22.3311,-2.62831
679,64,22.2997,2.5816,-0.00261156,0.00209443,0.00242318,0.00311906,-0.00363619,1.17075,0.00390396,0.0406079,1903,960,22.2997,-2.58163
686,64,22.2813,2.6814,-0.00375028,0.00237071,0.00302097,0.00361055,-0.00499012,1.18135,0.00498685,0.0356381,1910,960,22.2813,-2.68142
693,64,22.3153,2.64124,-0.00451853,0.00258857,0.00334329,0.00391408,-0.00584405,1.19334,0.00567047,0.0331018,1917,960,22.3153,-2.64126
700,64,22.2953,2.75885,-0.00517561,0.00265624,0.00351735,0.00400398,-0.00652335,1.20488,0.0061357,0.0277573,1924,960,22.2953,-2.75888
707,64,22.1731,3.12482,-0.0056034,0.00262863,0.00344222,0.00387829,-0.00685306,1.22255,0.00627459,0.0331661,1931,960,22.1732,-3.12483
714,64,21.8582,3.5777,-0.00573877,0.00258055,0.00320216,0.00367032,-0.00682855,1.24277,0.00615226,0.0441919,1938,960,21.8582,-3.57771
721,64,21.2349,3.75134,-0.005735,0.00253934,0.00289152,0.00344965,-0.00664531,1.2658,0.00592487,0.0305041,1945,960,21.2349,-3.75134
728,64,21.0991,3.93494,-0.00553238,0.00252923,0.00226065,0.00311989,-0.00612304,1.31523,0.00542949,0.0141877,1952,960,21.0991,-3.93496
735,64,21.0963,4.04871,-0.00485476,0.00256801,0.00137186,0.00281344,-0.00510019,1.39377,0.00463209,0.0158134,1959,960,21.0963,-4.04868
742,64,21.1359,4.09167,-0.00375931,0.00248211,0.000416544,0.00250979,-0.00378699,1.50445,0.00366029,0.01451,1966,960,21.1359,-4.09166
749,64,21.1289,4.2052,-0.00194658,0.00286873,-0.00126176,0.00317932,-0.00225717,-1.32944,0.00315377,0.0131735,1973,960,21.1289,-4.20517
756,64,21.1296,4.33008,0.000743133,0.0033,-0.00336608,0.00562224,-0.00157911,-0.966884,0.00437068,0.0137716,1980,960,21.1296,-4.33006
763,64,21.1158,4.46143,0.00377004,0.00390762,-0.00564442,0.00948367,-0.00180601,-0.791492,0.00700251,0.0118011,1987,960,21.1159,-4.46144
770,64,21.0959,4.54553,0.00757203,0.00479029,-0.00821887,0.0145169,-0.00215457,-0.701578,0.0104703,0.012595,1994,960,21.0959,-4.54551
777,64,21.0751,4.65247,0.0123667,0.006007,-0.0114575,0.0210775,-0.00270375,-0.650038,0.0150342,0.0302053,2001,960,21.0751,-4.65246
784,64,21.4192,4.22192,0.0187117,0.00729125,-0.0155926,0.0296068,-0.00360376,-0.609874,0.0210422,0.0412767,2008,960,21.4192,-4.22195
791,64,21.7117,3.90698,0.0273735,0.00867971,-0.0210095,0.0410215,-0.00496828,-0.5761,0.0291453,0.044613,2015,960,21.7117,-3.90699
798,64,22.0015,3.63519,0.0391454,0.0102313,-0.0280801,0.0562716,-0.00689485,-0.54767,0.0400112,0.044784,2022,960,22.0014,-3.63518
805,64,22.6311,3.44342,0.0548028,0.0120572,-0.0371422,0.0762825,-0.00942257,-0.524319,0.0542692,0.0456285,2029,960,22.6311,-3.4434
812,64,0,0,0,0,0,0,0,0,0,-1,2036,960,0,0
-700,57,0,0,0,0,0,0,0,0,0,-1,524,967,0,0
-693,57,0,0,0,0,0,0,0,0,0,-1,531,967,0,0
-686,57,-15.5654,0.149475,0,0,0,0,0,0,0,-1,538,967,-15.5654,-0.149489
-679,57,-15.4738,0.357666,0,0,0,0,0,0,0,-1,545,967,-15.4738,-0.357688
-672,57,-15.3693,0.554321,0.00989619,0.0310048,0.0293629,0.0516527,-0.0107517,0.957929,0.0385224,0.0447134,552,967,-15.3692,-0.55432
-665,57,-15.1725,0.88501,0,0,0,0,0,0,0,-1,559,967,-15.1725,-0.885008
-658,57,-14.8182,1.3009,0.0054431,0.0171071,0.0190622,0.0312095,-0.0086593,0.933849,0.0242145,0.0468165,566,967,-14.8182,-1.30091
-651,57,-14.4597,1.7088,0.00355061,0.0123523,0.0147874,0.0233798,-0.0074769,0.930028,0.018587,0.0429228,573,967,-14.4597,-1.70878
-644,57,-14.3199,2.04401,0.00201776,0.00876442,0.0111555,0.0170455,-0.00626332,0.932222,0.013929,0.0291923,580,967,-14.3199,-2.04398
-637,57,-14.307,2.03296,0.00117524,0.00536233,0.00789761,0.0114392,-0.0049016,0.914961,0.00968276,0.0151817,587,967,-14.307,-2.03296
-630,57,-14.3386,1.98236,0.000112188,0.00304832,0.00506311,0.00685191,-0.0036914,0.926505,0.00617767,0.0129543,594,967,-14.3386,-1.98234
-623,57,-14.329,1.91687,-0.00180711,0.00281611,0.00288357,0.00420024,-0.00319125,1.12327,0.00428071,0.0121845,601,967,-14.3291,-1.91686
-616,57,-14.326,1.80829,-0.00325913,0.0023029,0.00127048,0.00257937,-0.00353559,1.35653,0.00354483,0.0135628,608,967,-14.326,-1.8083
-609,57,-14.3411,1.69916,-0.00425264,0.00138607,0.000202037,0.0013933,-0.00425987,1.53503,0.00340085,0.0138347,615,967,-14.3411,-1.69915
-602,57,-14.3236,1.63983,-0.00529295,0.000998058,-0.000783894,0.00109426,-0.00538916,-1.44868,0.00400764,0.010576,622,967,-14.3236,-1.63981
-595,57,-14.313,1.57166,-0.00598985,0.000906216,-0.00147773,0.00120953,-0.00629316,-1.36835,0.00465134,0.0114941,629,967,-14.3131,-1.57168
-588,57,-14.3519,1.53534,-0.0065531,0.000755306,-0.00194232,0.00123944,-0.00703723,-1.32652,0.00515454,0.0164215,636,967,-14.3518,-1.53534
-581,57,-14.5504,1.24719,-0.00698598,0.000708044,-0.00224587,0.00131563,-0.00759357,-1.30659,0.00555312,0.0267492,643,967,-14.5504,-1.24722
-574,57,-14.7575,0.915466,-0.0071634,0.000836781,-0.00254477,0.00157764,-0.00790426,-1.2875,0.00586653,0.0295521,650,967,-14.7575,-0.915467
-567,57,-14.7325,0.868835,-0.00697905,0.00104785,-0.00270542,0.00187455,-0.00780576,-1.27423,0.00592832,0.0302125,657,967,-14.7325,-0.868829
-560,57,-14.834,0.898376,-0.00636555,0.00135715,-0.00287506,0.00230995,-0.00731834,-1.25079,0.00580418,0.0391007,664,967,-14.834,-0.898369
-553,57,-14.8849,0.946594,-0.00513295,0.00185227,-0.00317816,0.00308185,-0.00636252,-1.20165,0.00556129,0.0409443,671,967,-14.8849,-0.946619
-546,57,-14.8789,1.17908,-0.0032333,0.00258871,-0.00373061,0.00440966,-0.00505425,-1.11671,0.00546822,0.0411787,678,967,-14.8789,-1.17906
-539,57,-14.9572,1.47308,-0.0006242,0.00364395,-0.0047199,0.00668981,-0.00367006,-0.997716,0.00606538,0.0439971,685,967,-14.9572,-1.47307
-532,57,-14.985,1.24786,0.00248002,0.00524001,-0.00652537,0.0105297,-0.00280968,-0.889604,0.00812005,0.0424198,692,967,-14.985,-1.24787
-525,57,-14.8427,0.804382,0.00516102,0.0077153,-0.00960995,0.0161326,-0.00325628,-0.85146,0.0119888,0.0423792,699,967,-14.8427,-0.804395
-518,57,0,0,0,0,0,0,0,0,0,-1,706,967,0,0
-511,57,0,0,0,0,0,0,0,0,0,-1,713,967,0,0
-504,57,0,0,0,0,0,0,0,0,0,-1,720,967,0,0
-497,57,0,0,0,0,0,0,0,0,0,-1,727,967,0,0
-490,57,0,0,0,0,0,0,0,0,0,-1,734,967,0,0
-483,57,0,0,0,0,0,0,0,0,0,-1,741,967,0,0
-476,57,0,0,0,0,0,0,0,0,0,-1,748,967,0,0
-469,57,0,0,0,0,0,0,0,0,0,-1,755,967,0,0
-462,57,0,0,0,0,0,0,0,0,0,-1,762,967,0,0
-455,57,0,0,0,0,0,0,0,0,0,-1,769,967,0,0
-448,57,0,0,0,0,0,0,0,0,0,-1,776,967,0,0
-441,57,0,0,0,0,0,0,0,0,0,-1,783,967,0,0
-434,57,0,0,0,0,0,0,0,0,0,-1,790,967,0,0
-427,57,0,0,0,0,0,0,0,0,0,-1,797,967,0,0
-420,57,0,0,0,0,0,0,0,0,0,-1,804,967,0,0
-413,57,0,0,0,0,0,0,0,0,0,-1,811,967,0,0
-406,57,0,0,0,0,0,0,0,0,0,-1,818,967,0,0
-399,57,0,0,0,0,0,0,0,0,0,-1,825,967,0,0
-392,57,0,0,0,0,0,0,0,0,0,-1,832,967,0,0
-385,57,0,0,0,0,0,0,0,0,0,-1,839,967,0,0
-378,57,0,0,0,0,0,0,0,0,0,-1,846,967,0,0
-371,57,0,0,0,0,0,0,0,0,0,-1,853,967,0,0
-364,57,0,0,0,0,0,0,0,0,0,-1,860,967,0,0
-357,57,0,0,0,0,0,0,0,0,0,-1,867,967,0,0
-350,57,0,0,0,0,0,0,0,0,0,-1,874,967,0,0
-343,57,0,0,0,0,0,0,0,0,0,-1,881,967,0,0
-336,57,0,0,0,0,0,0,0,0,0,-1,888,967,0,0
-329,57,0,0,0,0,0,0,0,0,0,-1,895,967,0,0
-322,57,0,0,0,0,0,0,0,0,0,-1,902,967,0,0
-315,57,0,0,0,0,0,0,0,0,0,-1,909,967,0,0
-308,57,0,0,0,0,0,0,0,0,0,-1,916,967,0,0
-301,57,0,0,0,0,0,0,0,0,0,-1,923,967,0,0
-294,57,0,0,0,0,0,0,0,0,0,-1,930,967,0,0
-287,57,0,0,0,0,0,0,0,0,0,-1,937,967,0,0
-280,57,0,0,0,0,0,0,0,0,0,-1,944,967,0,0
-273,57,0,0,0,0,0,0,0,0,0,-1,951,967,0,0
-266,57,0,0,0,0,0,0,0,0,0,-1,958,967,0,0
-259,57,0,0,0,0,0,0,0,0,0,-1,965,967,0,0
-252,57,0,0,0,0,0,0,0,0,0,-1,972,967,0,0
-245,57,0,0,0,0,0,0,0,0,0,-1,979,967,0,0
-238,57,0,0,0,0,0,0,0,0,0,-1,986,967,0,0
-231,57,0,0,0,0,0,0,0,0,0,-1,993,967,0,0
-224,57,0,0,0,0,0,0,0,0,0,-1,1000,967,0,0
-217,57,0,0,0,0,0,0,0,0,0,-1,1007,967,0,0
-210,57,0,0,0,0,0,0,0,0,0,-1,1014,967,0,0
-203,57,0,0,0,0,0,0,0,0,0,-1,1021,967,0,0
-196,57,0,0,0,0,0,0,0,0,0,-1,1028,967,0,0
-189,57,0,0,0,0,0,0,0,0,0,-1,1035,967,0,0
-182,57,0,0,0,0,0,0,0,0,0,-1,1042,967,0,0
-175,57,0,0,0,0,0,0,0,0,0,-1,1049,967,0,0
-168,57,0,0,0,0,0,0,0,0,0,-1,1056,967,0,0
-161,57,0,0,0,0,0,0,0,0,0,-1,1063,967,0,0
-154,57,0,0,0,0,0,0,0,0,0,-1,1070,967,0,0
-147,57,0,0,0,0,0,0,0,0,0,-1,1077,967,0,0
-140,57,0,0,0,0,0,0,0,0,0,-1,1084,967,0,0
-133,57,0,0,0,0,0,0,0,0,0,-1,1091,967,0,0
-126,57,0,0,0,0,0,0,0,0,0,-1,1098,967,0,0
-119,57,0,0,0,0,0,0,0,0,0,-1,1105,967,0,0
-112,57,0,0,0,0,0,0,0,0,0,-1,1112,967,0,0
-105,57,0,0,0,0,0,0,0,0,0,-1,1119,967,0,0
-98,57,0,0,0,0,0,0,0,0,0,-1,1126,967,0,0
-91,57,0,0,0,0,0,0,0,0,0,-1,1133,967,0,0
-84,57,0,0,0,0,0,0,0,0,0,-1,1140,967,0,0
-77,57,0,0,0,0,0,0,0,0,0,-1,1147,967,0,0
-70,57,0,0,0,0,0,0,0,0,0,-1,1154,967,0,0
-63,57,0,0,0,0,0,0,0,0,0,-1,1161,967,0,0
-56,57,0,0,0,0,0,0,0,0,0,-1,1168,967,0,0
-49,57,0,0,0,0,0,0,0,0,0,-1,1175,967,0,0
-42,57,0,0,0,0,0,0,0,0,0,-1,1182,967,0,0
-35,57,0,0,0,0,0,0,0,0,0,-1,1189,967,0,0
-28,57,0,0,0,0,0,0,0,0,0,-1,1196,967,0,0
-21,57,0,0,0,0,0,0,0,0,0,-1,1203,967,0,0
-14,57,0,0,0,0,0,0,0,0,0,-1,1210,967,0,0
-7,57,0,0,0,0,0,0,0,0,0,-1,1217,967,0,0
0,57,0,0,0,0,0,0,0,0,0,-1,1224,967,0,0
7,57,0,0,0,0,0,0,0,0,0,-1,1231,967,0,0
14,57,0,0,0,0,0,0,0,0,0,-1,1238,967,0,0
21,57,0,0,0,0,0,0,0,0,0,-1,1245,967,0,0
28,57,0,0,0,0,0,0,0,0,0,-1,1252,967,0,0
35,57,0,0,0,0,0,0,0,0,0,-1,1259,967,0,0
42,57,0,0,0,0,0,0,0,0,0,-1,1266,967,0,0
49,57,0,0,0,0,0,0,0,0,0,-1,1273,967,0,0
56,57,0,0,0,0,0,0,0,0,0,-1,1280,967,0,0
63,57,0,0,0,0,0,0,0,0,0,-1,1287,967,0,0
70,57,0,0,0,0,0,0,0,0,0,-1,1294,967,0,0
77,57,0,0,0,0,0,0,0,0,0,-1,1301,967,0,0
84,57,0,0,0,0,0,0,0,0,0,-1,1308,967,0,0
91,57,0,0,0,0,0,0,0,0,0,-1,1315,967,0,0
98,57,0,0,0,0,0,0,0,0,0,-1,1322,967,0,0
105,57,0,0,0,0,0,0,0,0,0,-1,1329,967,0,0
112,57,0,0,0,0,0,0,0,0,0,-1,1336,967,0,0
119,57,0,0,0,0,0,0,0,0,0,-1,1343,967,0,0
126,57,0,0,0,0,0,0,0,0,0,-1,1350,967,0,0
133,57,0,0,0,0,0,0,0,0,0,-1,1357,967,0,0
140,57,0,0,0,0,0,0,0,0,0,-1,1364,967,0,0
147,57,0,0,0,0,0,0,0,0,0,-1,1371,967,0,0
154,57,0,0,0,0,0,0,0,0,0,-1,1378,967,0,0
161,57,0,0,0,0,0,0,0,0,0,-1,1385,967,0,0
168,57,0,0,0,0,0,0,0,0,0,-1,1392,967,0,0
175,57,0,0,0,0,0,0,0,0,0,-1,1399,967,0,0
182,57,0,0,0,0,0,0,0,0,0,-1,1406,967,0,0
189,57,0,0,0,0,0,0,0,0,0,-1,1413,967,0,0
196,57,0,0,0,0,0,0,0,0,0,-1,1420,967,0,0
203,57,0,0,0,0,0,0,0,0,0,-1,1427,967,0,0
210,57,0,0,0,0,0,0,0,0,0,-1,1434,967,0,0
217,57,0,0,0,0,0,0,0,0,0,-1,1441,967,0,0
224,57,0,0,0,0,0,0,0,0,0,-1,1448,967,0,0
231,57,0,0,0,0,0,0,0,0,0,-1,1455,967,0,0
238,57,0,0,0,0,0,0,0,0,0,-1,1462,967,0,0
245,57,0,0,0,0,0,0,0,0,0,-1,1469,967,0,0
252,57,0,0,0,0,0,0,0,0,0,-1,1476,967,0,0
259,57,0,0,0,0,0,0,0,0,0,-1,1483,967,0,0
266,57,0,0,0,0,0,0,0,0,0,-1,1490,967,0,0
273,57,0,0,0,0,0,0,0,0,0,-1,1497,967,0,0
280,57,0,0,0,0,0,0,0,0,0,-1,1504,967,0,0
287,57,0,0,0,0,0,0,0,0,0,-1,1511,967,0,0
294,57,0,0,0,0,0,0,0,0,0,-1,1518,967,0,0
301,57,0,0,0,0,0,0,0,0,0,-1,1525,967,0,0
308,57,0,0,0,0,0,0,0,0,0,-1,1532,967,0,0
315,57,0,0,0,0,0,0,0,0,0,-1,1539,967,0,0
322,57,0,0,0,0,0,0,0,0,0,-1,1546,967,0,0
329,57,0,0,0,0,0,0,0,0,0,-1,1553,967,0,0
336,57,0,0,0,0,0,0,0,0,0,-1,1560,967,0,0
343,57,0,0,0,0,0,0,0,0,0,-1,1567,967,0,0
350,57,0,0,0,0,0,0,0,0,0,-1,1574,967,0,0
357,57,0,0,0,0,0,0,0,0,0,-1,1581,967,0,0
364,57,0,0,0,0,0,0,0,0,0,-1,1588,967,0,0
371,57,0,0,0,0,0,0,0,0,0,-1,1595,967,0,0
378,57,0,0,0,0,0,0,0,0,0,-1,1602,967,0,0
385,57,0,0,0,0,0,0,0,0,0,-1,1609,967,0,0
392,57,0,0,0,0,0,0,0,0,0,-1,1616,967,0,0
399,57,0,0,0,0,0,0,0,0,0,-1,1623,967,0,0
406,57,0,0,0,0,0,0,0,0,0,-1,1630,967,0,0
413,57,0,0,0,0,0,0,0,0,0,-1,1637,967,0,0
420,57,0,0,0,0,0,0,0,0,0,-1,1644,967,0,0
427,57,0,0,0,0,0,0,0,0,0,-1,1651,967,0,0
434,57,0,0,0,0,0,0,0,0,0,-1,1658,967,0,0
441,57,0,0,0,0,0,0,0,0,0,-1,1665,967,0,0
448,57,0,0,0,0,0,0,0,0,0,-1,1672,967,0,0
455,57,0,0,0,0,0,0,0,0,0,-1,1679,967,0,0
462,57,0,0,0,0,0,0,0,0,0,-1,1686,967,0,0
469,57,0,0,0,0,0,0,0,0,0,-1,1693,967,0,0
476,57,0,0,0,0,0,0,0,0,0,-1,1700,967,0,0
483,57,0,0,0,0,0,0,0,0,0,-1,1707,967,0,0
490,57,0,0,0,0,0,0,0,0,0,-1,1714,967,0,0
497,57,0,0,0,0,0,0,0,0,0,-1,1721,967,0,0
504,57,0,0,0,0,0,0,0,0,0,-1,1728,967,0,0
511,57,0,0,0,0,0,0,0,0,0,-1,1735,967,0,0
518,57,0,0,0,0,0,0,0,0,0,-1,1742,967,0,0
525,57,0,0,0,0,0,0,0,0,0,-1,1749,967,0,0
532,57,0,0,0,0,0,0,0,0,0,-1,1756,967,0,0
539,57,0,0,0,0,0,0,0,0,0,-1,1763,967,0,0
546,57,0,0,0,0,0,0,0,0,0,-1,1770,967,0,0
553,57,0,0,0,0,0,0,0,0,0,-1,1777,967,0,0
560,57,0,0,0,0,0,0,0,0,0,-1,1784,967,0,0
567,57,0,0,0,0,0,0,0,0,0,-1,1791,967,0,0
574,57,0,0,0,0,0,0,0,0,0,-1,1798,967,0,0
581,57,0,0,0,0,0,0,0,0,0,-1,1805,967,0,0
588,57,0,0,0,0,0,0,0,0,0,-1,1812,967,0,0
595,57,0,0,0,0,0,0,0,0,0,-1,1819,967,0,0
602,57,0,0,0,0,0,0,0,0,0,-1,1826,967,0,0
609,57,0,0,0,0,0,0,0,0,0,-1,1833,967,0,0
616,57,0,0,0,0,0,0,0,0,0,-1,1840,967,0,0
623,57,0,0,0,0,0,0,0,0,0,-1,1847,967,0,0
630,57,0,0,0,0,0,0,0,0,0,-1,1854,967,0,0
637,57,0,0,0,0,0,0,0,0,0,-1,1861,967,0,0
644,57,22.2721,2.91656,0.00225467,-0.00154889,-0.0013632,0.00269278,-0.001987,-0.310958,0.0027121,0.0407847,1868,967,22.2721,-2.91657
651,57,22.2371,2.79608,0.0022537,-0.000758869,-0.00122598,0.00268956,-0.00119473,-0.341582,0.00229728,0.0333338,1875,967,22.2371,-2.79609
658,57,22.1852,2.91602,0.00188021,-0.000124725,-0.000704416,0.00210296,-0.000347468,-0.306262,0.00153099,0.0332255,1882,967,22.1852,-2.91603
665,57,22.3623,2.63757,0.000914678,0.000614247,0.000268768,0.00107236,0.000456565,0.530572,0.000621398,0.0430083,1889,967,22.3623,-2.63759
672,57,22.2963,2.56238,-0.000461234,0.00133601,0.00133788,0.00204904,-0.00117427,1.08113,0.00188369,0.0467928,1896,967,22.2962,-2.56238
679,57,22.1254,2.69159,-0.00189333,0.00188151,0.00229118,0.00296257,-0.00297438,1.12993,0.0034277,0.0450166,1903,967,22.1254,-2.6916
686,57,22.2251,2.52979,-0.00311459,0.00222141,0.00298727,0.00355866,-0.00445184,1.1499,0.00463443,0.0395263,1910,967,22.2251,-2.5298
693,57,22.2798,2.60724,-0.0039746,0.00247528,0.00338722,0.00392725,-0.00542657,1.16583,0.00542351,0.0332665,1917,967,22.2798,-2.60726
700,57,22.2903,2.73779,-0.00470658,0.0025727,0.00362007,0.00406647,-0.00620034,1.17945,0.00597007,0.025265,1924,967,22.2903,-2.73779
707,57,22.1849,3.14728,-0.00522676,0.00259406,0.00357847,0.00398429,-0.00661699,1.20024,0.00618324,0.0356636,1931,967,22.1849,-3.14729
714,57,21.9905,3.88696,0,0,0,0,0,0,0,-1,1938,967,21.9905,-3.88699
721,57,21.2717,3.82361,0,0,0,0,0,0,0,-1,1945,967,21.2717,-3.82364
728,57,21.2098,3.97876,-0.00531873,0.00261147,0.00240718,0.00328496,-0.00599222,1.29799,0.00543167,0.020372,1952,967,21.2099,-3.97877
735,57,21.25,4.09198,-0.00473083,0.00264982,0.00151264,0.0029478,-0.00502881,1.37629,0.00465725,0.0195316,1959,967,21.2499,-4.092
742,57,21.282,4.12537,-0.00366264,0.0025706,0.000582077,0.00262449,-0.00371653,1.47848,0.00367904,0.0146476,1966,967,21.282,-4.12537
749,57,21.2517,4.21661,-0.00205407,0.00303556,-0.00105955,0.00324733,-0.00226583,-1.37353,0.00319979,0.0131356,1973,967,21.2517,-4.21661
756,57,21.2295,4.30334,0.000317101,0.00358371,-0.00310358,0.00545753,-0.00155671,-1.02762,0.0042533,0.0108984,1980,967,21.2295,-4.30332
763,57,21.2383,4.39392,0.00304942,0.00430392,-0.00533248,0.00904591,-0.00169257,-0.843944,0.0066668,0.010604,1987,967,21.2382,-4.39394
770,57,21.2189,4.47925,0.00646863,0.00539527,-0.00785599,0.0138062,-0.00194235,-0.751294,0.00991524,0.0108901,1994,967,21.2189,-4.47923
777,57,21.2035,4.59717,0.0106869,0.0069886,-0.0110147,0.0200066,-0.00233105,-0.702232,0.0141788,0.0260245,2001,967,21.2035,-4.59714
784,57,21.4232,4.50684,0.0160546,0.00883674,-0.015031,0.0279039,-0.00301255,-0.667579,0.0196838,0.0429115,2008,967,21.4232,-4.50685
791,57,21.9628,4.22174,0.0232207,0.0110606,-0.0203042,0.0383357,-0.00405437,-0.639923,0.0270102,0.0491694,2015,967,21.9627,-4.22173
798,57,22.163,3.98315,0,0,0,0,0,0,0,-1,2022,967,22.163,-3.98313
805,57,22.8528,3.43073,0,0,0,0,0,0,0,-1,2029,967,22.8529,-3.4307
812,57,0,0,0,0,0,0,0,0,0,-1,2036,967,0,0
-700,50,0,0,0,0,0,0,0,0,0,-1,524,974,0,0
-693,50,-14.4695,-1.33551,-0.00121865,0.0717831,0.0510426,0.0980331,-0.0274686,1.09579,0.0761806,0.0456198,531,974,-14.4696,1.33551
-686,50,-14.8408,-0.557129,5.85302e-05,0.0547047,0.0446513,0.0797295,-0.0249662,1.05997,0.0631423,0.0418087,538,974,-14.8408,0.557155
-679,50,-15.1295,0.149902,0,0,0,0,0,0,0,-1,545,974,-15.1295,-0.149885
-672,50,-15.0482,0.464478,0,0,0,0,0,0,0,-1,552,974,-15.0482,-0.464466
-665,50,-14.3367,1.10724,0,0,0,0,0,0,0,-1,559,974,-14.3367,-1.10721
-658,50,-14.3322,1.32343,-0.000646371,0.0171185,0.019838,0.0299718,-0.0134997,0.995888,0.0256919,0.0486358,566,974,-14.3322,-1.32341
-651,50,-14.3412,1.64893,-0.00092547,0.012331,0.015072,0.0221679,-0.0107623,0.992556,0.0193887,0.0422713,573,974,-14.3412,-1.64893
-644,50,-14.375,1.98517,-0.00110046,0.0087398,0.0110778,0.015941,-0.00830162,0.994384,0.0142262,0.0255051,580,974,-14.375,-1.98517
-637,50,-14.4113,1.98145,-0.000928839,0.00529191,0.00749807,0.0102991,-0.00593606,0.982008,0.00948555,0.013917,587,974,-14.4113,-1.98145
-630,50,-14.4005,1.95929,-0.00118444,0.00292197,0.00443185,0.00575313,-0.0040156,1.00232,0.00566964,0.010219,594,974,-14.4005,-1.95932
-623,50,-14.3939,1.90338,-0.00229366,0.00281839,0.00215011,0.00360247,-0.00307773,1.22112,0.00386078,0.0101398,601,974,-14.3938,-1.90335
-616,50,-14.413,1.83173,-0.00304843,0.00230908,0.00053659,0.0023623,-0.00310165,1.47195,0.00316422,0.0101703,608,974,-14.413,-1.83174
-609,50,-14.4339,1.71844,-0.00366652,0.00151364,-0.000519087,0.00156515,-0.00371803,-1.4719,0.00313352,0.00993505,615,974,-14.4339,-1.71844
-602,50,-14.4422,1.63806,-0.00457003,0.00115404,-0.0014476,0.00149931,-0.0049153,-1.33666,0.00387457,0.010525,622,974,-14.4422,-1.63806
-595,50,-14.4158,1.58099,-0.00510419,0.00104603,-0.00211631,0.00170389,-0.00576205,-1.26941,0.00451773,0.0107756,629,974,-14.4158,-1.58101
-588,50,-14.4579,1.48108,-0.00553065,0.000934873,-0.00255034,0.00181975,-0.00641553,-1.23683,0.00499534,0.0125194,636,974,-14.4579,-1.48105
-581,50,-14.659,1.15002,-0.00583219,0.00091731,-0.00283635,0.00195094,-0.00686583,-1.22133,0.0053475,0.0214067,643,974,-14.659,-1.15
-574,50,-14.7559,0.891907,-0.00592329,0.00109762,-0.00312663,0.00228814,-0.00711381,-1.20698,0.00566153,0.02659,650,974,-14.7559,-0.891922
-567,50,-14.7199,0.819214,-0.00571354,0.00133417,-0.0032446,0.00260041,-0.00697978,-1.19871,0.00572052,0.0338881,657,974,-14.7199,-0.819204
-560,50,-14.7418,0.844482,-0.0051049,0.00168216,-0.00336427,0.00306717,-0.00648991,-1.18026,0.0056345,0.0419768,664,974,-14.7418,-0.844509
-553,50,-14.8165,0.958191,-0.00394705,0.00221184,-0.0036211,0.00388585,-0.00562106,-1.13777,0.00551921,0.0437222,671,974,-14.8165,-0.958163
-546,50,-14.8955,1.1886,-0.00218962,0.00297693,-0.00414965,0.00528169,-0.00449438,-1.06381,0.00565031,0.0424552,678,974,-14.8955,-1.18863
-539,50,-14.8628,1.36304,0.000224158,0.00405695,-0.00518213,0.00766568,-0.00338457,-0.962504,0.00653751,0.0456922,685,974,-14.8628,-1.36306
-532,50,-14.8802,1.1452,0.00302681,0.00575342,-0.00717485,0.0116933,-0.00291311,-0.879285,0.00892647,0.0450031,692,974,-14.8802,-1.14519
-525,50,-14.7739,0.741394,0.005314,0.00836023,-0.0106036,0.0175495,-0.00387529,-0.856731,0.0131827,0.0427109,699,974,-14.7739,-0.741425
-518,50,0,0,0,0,0,0,0,0,0,-1,706,974,0,0
-511,50,0,0,0,0,0,0,0,0,0,-1,713,974,0,0
-504,50,0,0,0,0,0,0,0,0,0,-1,720,974,0,0
-497,50,0,0,0,0,0,0,0,0,0,-1,727,974,0,0
-490,50,0,0,0,0,0,0,0,0,0,-1,734,974,0,0
-483,50,0,0,0,0,0,0,0,0,0,-1,741,974,0,0
-476,50,0,0,0,0,0,0,0,0,0,-1,748,974,0,0
-469,50,0,0,0,0,0,0,0,0,0,-1,755,974,0,0
-462,50,0,0,0,0,0,0,0,0,0,-1,762,974,0,0
-455,50,0,0,0,0,0,0,0,0,0,-1,769,974,0,0
-448,50,0,0,0,0,0,0,0,0,0,-1,776,974,0,0
-441,50,0,0,0,0,0,0,0,0,0,-1,783,974,0,0
-434,50,0,0,0,0,0,0,0,0,0,-1,790,974,0,0
-427,50,0,0,0,0,0,0,0,0,0,-1,797,974,0,0
-420,50,0,0,0,0,0,0,0,0,0,-1,804,974,0,0
-413,50,0,0,0,0,0,0,0,0,0,-1,811,974,0,0
-406,50,0,0,0,0,0,0,0,0,0,-1,818,974,0,0
-399,50,0,0,0,0,0,0,0,0,0,-1,825,974,0,0
-392,50,0,0,0,0,0,0,0,0,0,-1,832,974,0,0
-385,50,0,0,0,0,0,0,0,0,0,-1,839,974,0,0
-378,50,0,0,0,0,0,0,0,0,0,-1,846,974,0,0
-371,50,0,0,0,0,0,0,0,0,0,-1,853,974,0,0
-364,50,0,0,0,0,0,0,0,0,0,-1,860,974,0,0
-357,50,0,0,0,0,0,0,0,0,0,-1,867,974,0,0
-350,50,0,0,0,0,0,0,0,0,0,-1,874,974,0,0
-343,50,0,0,0,0,0,0,0,0,0,-1,881,974,0,0
-336,50,0,0,0,0,0,0,0,0,0,-1,888,974,0,0
-329,50,0,0,0,0,0,0,0,0,0,-1,895,974,0,0
-322,50,0,0,0,0,0,0,0,0,0,-1,902,974,0,0
-315,50,0,0,0,0,0,0,0,0,0,-1,909,974,0,0
-308,50,0,0,0,0,0,0,0,0,0,-1,916,974,0,0
-301,50,0,0,0,0,0,0,0,0,0,-1,923,974,0,0
-294,50,0,0,0,0,0,0,0,0,0,-1,930,974,0,0
-287,50,0,0,0,0,0,0,0,0,0,-1,937,974,0,0
-280,50,0,0,0,0,0,0,0,0,0,-1,944,974,0,0
-273,50,0,0,0,0,0,0,0,0,0,-1,951,974,0,0
-266,50,0,0,0,0,0,0,0,0,0,-1,958,974,0,0
-259,50,0,0,0,0,0,0,0,0,0,-1,965,974,0,0
-252,50,0,0,0,0,0,0,0,0,0,-1,972,974,0,0
-245,50,0,0,0,0,0,0,0,0,0,-1,979,974,0,0
-238,50,0,0,0,0,0,0,0,0,0,-1,986,974,0,0
-231,50,0,0,0,0,0,0,0,0,0,-1,993,974,0,0
-224,50,0,0,0,0,0,0,0,0,0,-1,1000,974,0,0
-217,50,0,0,0,0,0,0,0,0,0,-1,1007,974,0,0
-210,50,0,0,0,0,0,0,0,0,0,-1,1014,974,0,0
-203,50,0,0,0,0,0,0,0,0,0,-1,1021,974,0,0
-196,50,0,0,0,0,0,0,0,0,0,-1,1028,974,0,0
-189,50,0,0,0,0,0,0,0,0,0,-1,1035,974,0,0
-182,50,0,0,0,0,0,0,0,0,0,-1,1042,974,0,0
-175,50,0,0,0,0,0,0,0,0,0,-1,1049,974,0,0
-168,50,0,0,0,0,0,0,0,0,0,-1,1056,974,0,0
-161,50,0,0,0,0,0,0,0,0,0,-1,1063,974,0,0
-154,50,0,0,0,0,0,0,0,0,0,-1,1070,974,0,0
-147,50,0,0,0,0,0,0,0,0,0,-1,1077,974,0,0
-140,50,0,0,0,0,0,0,0,0,0,-1,1084,974,0,0
-133,50,0,0,0,0,0,0,0,0,0,-1,1091,974,0,0
-126,50,0,0,0,0,0,0,0,0,0,-1,1098,974,0,0
-119,50,0,0,0,0,0,0,0,0,0,-1,1105,974,0,0
-112,50,0,0,0,0,0,0,0,0,0,-1,1112,974,0,0
-105,50,0,0,0,0,0,0,0,0,0,-1,1119,974,0,0
-98,50,0,0,0,0,0,0,0,0,0,-1,1126,974,0,0
-91,50,0,0,0,0,0,0,0,0,0,-1,1133,974,0,0
-84,50,0,0,0,0,0,0,0,0,0,-1,1140,974,0,0
-77,50,0,0,0,0,0,0,0,0,0,-1,1147,974,0,0
-70,50,0,0,0,0,0,0,0,0,0,-1,1154,974,0,0
-63,50,0,0,0,0,0,0,0,0,0,-1,1161,974,0,0
-56,50,0,0,0,0,0,0,0,0,0,-1,1168,974,0,0
-49,50,0,0,0,0,0,0,0,0,0,-1,1175,974,0,0
-42,50,0,0,0,0,0,0,0,0,0,-1,1182,974,0,0
-35,50,0,0,0,0,0,0,0,0,0,-1,1189,974,0,0
-28,50,0,0,0,0,0,0,0,0,0,-1,1196,974,0,0
-21,50,0,0,0,0,0,0,0,0,0,-1,1203,974,0,0
-14,50,0,0,0,0,0,0,0,0,0,-1,1210,974,0,0
-7,50,0,0,0,0,0,0,0,0,0,-1,1217,974,0,0
0,50,0,0,0,0,0,0,0,0,0,-1,1224,974,0,0
7,50,0,0,0,0,0,0,0,0,0,-1,1231,974,0,0
14,50,0,0,0,0,0,0,0,0,0,-1,1238,974,0,0
21,50,0,0,0,0,0,0,0,0,0,-1,1245,974,0,0
28,50,0,0,0,0,0,0,0,0,0,-1,1252,974,0,0
35,50,0,0,0,0,0,0,0,0,0,-1,1259,974,0,0
42,50,0,0,0,0,0,0,0,0,0,-1,1266,974,0,0
49,50,0,0,0,0,0,0,0,0,0,-1,1273,974,0,0
56,50,0,0,0,0,0,0,0,0,0,-1,1280,974,0,0
63,50,0,0,0,0,0,0,0,0,0,-1,1287,974,0,0
70,50,0,0,0,0,0,0,0,0,0,-1,1294,974,0,0
77,50,0,0,0,0,0,0,0,0,0,-1,1301,974,0,0
84,50,0,0,0,0,0,0,0,0,0,-1,1308,974,0,0
91,50,0,0,0,0,0,0,0,0,0,-1,1315,974,0,0
98,50,0,0,0,0,0,0,0,0,0,-1,1322,974,0,0
105,50,0,0,0,0,0,0,0,0,0,-1,1329,974,0,0
112,50,0,0,0,0,0,0,0,0,0,-1,1336,974,0,0
119,50,0,0,0,0,0,0,0,0,0,-1,1343,974,0,0
126,50,0,0,0,0,0,0,0,0,0,-1,1350,974,0,0
133,50,0,0,0,0,0,0,0,0,0,-1,1357,974,0,0
140,50,0,0,0,0,0,0,0,0,0,-1,1364,974,0,0
147,50,0,0,0,0,0,0,0,0,0,-1,1371,974,0,0
154,50,0,0,0,0,0,0,0,0,0,-1,1378,974,0,0
161,50,0,0,0,0,0,0,0,0,0,-1,1385,974,0,0
168,50,0,0,0,0,0,0,0,0,0,-1,1392,974,0,0
175,50,0,0,0,0,0,0,0,0,0,-1,1399,974,0,0
182,50,0,0,0,0,0,0,0,0,0,-1,1406,974,0,0
189,50,0,0,0,0,0,0,0,0,0,-1,1413,974,0,0
196,50,0,0,0,0,0,0,0,0,0,-1,1420,974,0,0
203,50,0,0,0,0,0,0,0,0,0,-1,1427,974,0,0
210,50,0,0,0,0,0,0,0,0,0,-1,1434,974,0,0
217,50,0,0,0,0,0,0,0,0,0,-1,1441,974,0,0
224,50,0,0,0,0,0,0,0,0,0,-1,1448,974,0,0
231,50,0,0,0,0,0,0,0,0,0,-1,1455,974,0,0
238,50,0,0,0,0,0,0,0,0,0,-1,1462,974,0,0
245,50,0,0,0,0,0,0,0,0,0,-1,1469,974,0,0
252,50,0,0,0,0,0,0,0,0,0,-1,1476,974,0,0
259,50,0,0,0,0,0,0,0,0,0,-1,1483,974,0,0
266,50,0,0,0,0,0,0,0,0,0,-1,1490,974,0,0
273,50,0,0,0,0,0,0,0,0,0,-1,1497,974,0,0
280,50,0,0,0,0,0,0,0,0,0,-1,1504,974,0,0
287,50,0,0,0,0,0,0,0,0,0,-1,1511,974,0,0
294,50,0,0,0,0,0,0,0,0,0,-1,1518,974,0,0
301,50,0,0,0,0,0,0,0,0,0,-1,1525,974,0,0
308,50,0,0,0,0,0,0,0,0,0,-1,1532,974,0,0
315,50,0,0,0,0,0,0,0,0,0,-1,1539,974,0,0
322,50,0,0,0,0,0,0,0,0,0,-1,1546,974,0,0
329,50,0,0,0,0,0,0,0,0,0,-1,1553,974,0,0
336,50,0,0,0,0,0,0,0,0,0,-1,1560,974,0,0
343,50,0,0,0,0,0,0,0,0,0,-1,1567,974,0,0
350,50,0,0,0,0,0,0,0,0,0,-1,1574,974,0,0
357,50,0,0,0,0,0,0,0,0,0,-1,1581,974,0,0
364,50,0,0,0,0,0,0,0,0,0,-1,1588,974,0,0
371,50,0,0,0,0,0,0,0,0,0,-1,1595,974,0,0
378,50,0,0,0,0,0,0,0,0,0,-1,1602,974,0,0
385,50,0,0,0,0,0,0,0,0,0,-1,1609,974,0,0
392,50,0,0,0,0,0,0,0,0,0,-1,1616,974,0,0
399,50,0,0,0,0,0,0,0,0,0,-1,1623,974,0,0
406,50,0,0,0,0,0,0,0,0,0,-1,1630,974,0,0
413,50,0,0,0,0,0,0,0,0,0,-1,1637,974,0,0
420,50,0,0,0,0,0,0,0,0,0,-1,1644,974,0,0
427,50,0,0,0,0,0,0,0,0,0,-1,1651,974,0,0
434,50,0,0,0,0,0,0,0,0,0,-1,1658,974,0,0
441,50,0,0,0,0,0,0,0,0,0,-1,1665,974,0,0
448,50,0,0,0,0,0,0,0,0,0,-1,1672,974,0,0
455,50,0,0,0,0,0,0,0,0,0,-1,1679,974,0,0
462,50,0,0,0,0,0,0,0,0,0,-1,1686,974,0,0
469,50,0,0,0,0,0,0,0,0,0,-1,1693,974,0,0
476,50,0,0,0,0,0,0,0,0,0,-1,1700,974,0,0
483,50,0,0,0,0,0,0,0,0,0,-1,1707,974,0,0
490,50,0,0,0,0,0,0,0,0,0,-1,1714,974,0,0
497,50,0,0,0,0,0,0,0,0,0,-1,1721,974,0,0
504,50,0,0,0,0,0,0,0,0,0,-1,1728,974,0,0
511,50,0,0,0,0,0,0,0,0,0,-1,1735,974,0,0
518,50,0,0,0,0,0,0,0,0,0,-1,1742,974,0,0
525,50,0,0,0,0,0,0,0,0,0,-1,1749,974,0,0
532,50,0,0,0,0,0,0,0,0,0,-1,1756,974,0,0
539,50,0,0,0,0,0,0,0,0,0,-1,1763,974,0,0
546,50,0,0,0,0,0,0,0,0,0,-1,1770,974,0,0
553,50,0,0,0,0,0,0,0,0,0,-1,1777,974,0,0
560,50,0,0,0,0,0,0,0,0,0,-1,1784,974,0,0
567,50,0,0,0,0,0,0,0,0,0,-1,1791,974,0,0
574,50,0,0,0,0,0,0,0,0,0,-1,1798,974,0,0
581,50,0,0,0,0,0,0,0,0,0,-1,1805,974,0,0
588,50,0,0,0,0,0,0,0,0,0,-1,1812,974,0,0
595,50,0,0,0,0,0,0,0,0,0,-1,1819,974,0,0
602,50,0,0,0,0,0,0,0,0,0,-1,1826,974,0,0
609,50,0,0,0,0,0,0,0,0,0,-1,1833,974,0,0
616,50,0,0,0,0,0,0,0,0,0,-1,1840,974,0,0
623,50,0,0,0,0,0,0,0,0,0,-1,1847,974,0,0
630,50,0,0,0,0,0,0,0,0,0,-1,1854,974,0,0
637,50,0,0,0,0,0,0,0,0,0,-1,1861,974,0,0
644,50,22.2041,2.96082,0.00361711,-0.00149393,-0.00201952,0.00431876,-0.00219558,-0.334386,0.00382706,0.0382686,1868,974,22.2041,-2.96082
651,50,22.2001,2.78973,0.00338993,-0.000967635,-0.00172491,0.00399006,-0.00156777,-0.334825,0.00330884,0.0313511,1875,974,22.2,-2.78975
658,50,22.2823,2.83789,0.00281647,-0.000552132,-0.00111299,0.00315098,-0.000886644,-0.291965,0.00245027,0.0356907,1882,974,22.2824,-2.83788
665,50,22.368,2.68262,0.00173945,2.84628e-05,-5.89553e-05,0.00174148,2.64338e-05,-0.0344024,0.00115228,0.0412929,1889,974,22.3681,-2.68264
672,50,22.3684,2.6145,0.000267065,0.000681416,0.00113602,0.00162899,-0.000680513,0.875592,0.00137036,0.0427707,1896,974,22.3684,-2.61448
679,50,22.2871,2.64453,-0.00129231,0.00122203,0.00223483,0.00252902,-0.0025993,1.04161,0.00296093,0.0439761,1903,974,22.2871,-2.64454
686,50,22.2607,2.62616,-0.00262814,0.00160203,0.00306392,0.00321001,-0.00423611,1.0875,0.0043126,0.0446063,1910,974,22.2608,-2.62619
693,50,22.2594,2.65991,-0.00358836,0.00189414,0.00357192,0.00365545,-0.00534967,1.11268,0.00522969,0.0404084,1917,974,22.2594,-2.65992
700,50,22.2391,2.78247,-0.00438459,0.00202467,0.003883,0.00385466,-0.00621457,1.13039,0.00586645,0.0223254,1924,974,22.2392,-2.78245
707,50,22.2042,3.07355,-0.00497615,0.00211634,0.00389585,0.00383826,-0.00669806,1.15463,0.00615739,0.0301093,1931,974,22.2042,-3.07353
714,50,22.1093,3.47522,-0.00526914,0.00217253,0.00369989,0.00369896,-0.00679557,1.17951,0.00614631,0.0461086,1938,974,22.1093,-3.47521
721,50,21.3948,3.7442,0,0,0,0,0,0,0,-1,1945,974,21.3948,-3.74419
728,50,21.3351,3.94568,-0.00514286,0.00231144,0.00278482,0.00323691,-0.00606833,1.24995,0.00545466,0.0213367,1952,974,21.3351,-3.9457
735,50,21.3737,4.0354,-0.00460682,0.0023595,0.00186513,0.00282743,-0.00507475,1.32499,0.00462342,0.0192779,1959,974,21.3737,-4.03537
742,50,21.3827,4.11365,-0.00357955,0.00226318,0.000940274,0.00241077,-0.00372714,1.4151,0.00357079,0.0141389,1966,974,21.3826,-4.11366
749,50,21.3673,4.18433,-0.00212434,0.0027463,-0.00066859,0.00283641,-0.00221445,-1.43683,0.00292348,0.0146308,1973,974,21.3673,-4.1843
756,50,21.343,4.28156,-3.52587e-05,0.00332454,-0.00265754,0.00478861,-0.00149933,-1.06725,0.0037923,0.0116777,1980,974,21.343,-4.28154
763,50,21.3452,4.37317,0.00238718,0.00403957,-0.00482832,0.00811187,-0.00168512,-0.870134,0.00604839,0.0108725,1987,974,21.3453,-4.37315
770,50,21.3256,4.44446,0.00535445,0.00518429,-0.00727858,0.0125484,-0.00200971,-0.779554,0.00910973,0.0110963,1994,974,21.3255,-4.44448
777,50,21.3044,4.52985,0.0088919,0.00693762,-0.0102887,0.0182498,-0.00242026,-0.738054,0.0130483,0.0216591,2001,974,21.3045,-4.52985
784,50,21.2361,4.63763,0.0131493,0.00911098,-0.0140736,0.0253479,-0.00308762,-0.71415,0.0180162,0.0387388,2008,974,21.236,-4.63764
791,50,21.177,4.90979,0.0186492,0.0119232,-0.0190503,0.0346311,-0.00405871,-0.698032,0.0245524,0.0455111,2015,974,21.1771,-4.90982
798,50,21.248,5.04303,0,0,0,0,0,0,0,-1,2022,974,21.2481,-5.04305
805,50,21.1272,5.12634,0,0,0,0,0,0,0,-1,2029,974,21.1271,-5.12632
812,50,0,0,0,0,0,0,0,0,0,-1,2036,974,0,0
-700,43,0,0,0,0,0,0,0,0,0,-1,524,981,0,0
-693,43,-13.4783,-2.13013,-0.0146624,0.0764281,0.0571735,0.10398,-0.0422142,1.12173,0.08688,0.0461067,531,981,-13.4783,2.13011
-686,43,-13.8115,-1.43964,-0.0116261,0.0589979,0.0487916,0.0839151,-0.0365433,1.09864,0.0713168,0.0428964,538,981,-13.8115,1.43965
-679,43,-14.0931,-0.522217,0,0,0,0,0,0,0,-1,545,981,-14.0931,0.522244
-672,43,-14.6644,0.286377,0,0,0,0,0,0,0,-1,552,981,-14.6644,-0.286386
-665,43,-15.0743,0.750732,0,0,0,0,0,0,0,-1,559,981,-15.0744,-0.750749
-658,43,-14.2406,1.96423,0,0,0,0,0,0,0,-1,566,981,-14.2406,-1.96424
-651,43,-14.337,1.98602,-0.00452303,0.0138511,0.0148943,0.0221638,-0.0128357,1.06175,0.0204448,0.038387,573,981,-14.337,-1.98602
-644,43,-14.4479,2.00433,-0.00361716,0.00987875,0.010646,0.0157353,-0.00947367,1.06787,0.0147033,0.0178735,580,981,-14.4479,-2.00432
-637,43,-14.4821,1.98511,-0.00266183,0.00615613,0.00682381,0.0098714,-0.0063771,1.07222,0.00945311,0.0122207,587,981,-14.4821,-1.98511
-630,43,-14.4641,1.9375,-0.00226691,0.00351629,0.00360287,0.00524443,-0.00399505,1.12356,0.00535065,0.0116793,594,981,-14.4641,-1.93747
-623,43,-14.4608,1.86438,-0.00268634,0.00325081,0.00131184,0.00352774,-0.00296328,1.36274,0.00375232,0.0108372,601,981,-14.4608,-1.86437
-616,43,-14.4709,1.7912,-0.00286782,0.00257869,-0.000267846,0.00259183,-0.00288096,-1.52178,0.00316119,0.00989156,608,981,-14.4709,-1.79117
-609,43,-14.4879,1.7088,-0.00314209,0.00180798,-0.00129078,0.00212434,-0.00345846,-1.33044,0.00325376,0.0120466,615,981,-14.4879,-1.7088
-602,43,-14.4899,1.62598,-0.0038458,0.00145437,-0.00213868,0.00220971,-0.00460113,-1.23129,0.00401223,0.0145697,622,981,-14.4899,-1.62598
-595,43,-14.4794,1.57214,-0.00421234,0.00133602,-0.00276421,0.00247808,-0.0053544,-1.179,0.00462261,0.0132583,629,981,-14.4794,-1.57213
-588,43,-14.5011,1.40948,-0.00448577,0.00127685,-0.00316684,0.00267699,-0.00588591,-1.15451,0.00505818,0.0131178,636,981,-14.5011,-1.40951
-581,43,-14.6545,1.09717,-0.00464777,0.0013183,-0.00340744,0.00286396,-0.00619344,-1.14494,0.00534577,0.0191697,643,981,-14.6545,-1.09715
-574,43,-14.7405,0.936646,-0.00465578,0.00157519,-0.00364438,0.00325426,-0.00633485,-1.13906,0.0056307,0.0261778,650,981,-14.7405,-0.936636
-567,43,-14.6887,0.84668,-0.00441082,0.00187327,-0.00367234,0.00356429,-0.00610184,-1.13927,0.00564448,0.0360537,657,981,-14.6887,-0.846668
-560,43,-14.6761,0.927551,-0.00380331,0.00228035,-0.00368146,0.00401407,-0.00553704,-1.13067,0.00553765,0.0426187,664,981,-14.6761,-0.927545
-553,43,-14.7283,1.07373,-0.00272079,0.00285607,-0.00381122,0.00479,-0.00465472,-1.10122,0.0054531,0.0439447,671,981,-14.7283,-1.07371
-546,43,-14.793,1.24683,-0.00111627,0.00365004,-0.00421119,0.00610564,-0.00357187,-1.04289,0.00565079,0.0455166,678,981,-14.793,-1.24681
-539,43,-14.822,1.05664,0.00107897,0.00474314,-0.00516104,0.00838763,-0.00256552,-0.955952,0.0066149,0.0468729,685,981,-14.822,-1.05666
-532,43,-14.905,0.93396,0,0,0,0,0,0,0,-1,692,981,-14.905,-0.933953
-525,43,-14.9547,1.05402,0,0,0,0,0,0,0,-1,699,981,-14.9547,-1.05402
-518,43,0,0,0,0,0,0,0,0,0,-1,706,981,0,0
-511,43,0,0,0,0,0,0,0,0,0,-1,713,981,0,0
-504,43,0,0,0,0,0,0,0,0,0,-1,720,981,0,0
-497,43,0,0,0,0,0,0,0,0,0,-1,727,981,0,0
-490,43,0,0,0,0,0,0,0,0,0,-1,734,981,0,0
-483,43,0,0,0,0,0,0,0,0,0,-1,741,981,0,0
-476,43,0,0,0,0,0,0,0,0,0,-1,748,981,0,0
-469,43,0,0,0,0,0,0,0,0,0,-1,755,981,0,0
-462,43,0,0,0,0,0,0,0,0,0,-1,762,981,0,0
-455,43,0,0,0,0,0,0,0,0,0,-1,769,981,0,0
-448,43,0,0,0,0,0,0,0,0,0,-1,776,981,0,0
-441,43,0,0,0,0,0,0,0,0,0,-1,783,981,0,0
-434,43,0,0,0,0,0,0,0,0,0,-1,790,981,0,0
-427,43,0,0,0,0,0,0,0,0,0,-1,797,981,0,0
-420,43,0,0,0,0,0,0,0,0,0,-1,804,981,0,0
-413,43,0,0,0,0,0,0,0,0,0,-1,811,981,0,0
-406,43,0,0,0,0,0,0,0,0,0,-1,818,981,0,0
-399,43,0,0,0,0,0,0,0,0,0,-1,825,981,0,0
-392,43,0,0,0,0,0,0,0,0,0,-1,832,981,0,0
-385,43,0,0,0,0,0,0,0,0,0,-1,839,981,0,0
-378,43,0,0,0,0,0,0,0,0,0,-1,846,981,0,0
-371,43,0,0,0,0,0,0,0,0,0,-1,853,981,0,0
-364,43,0,0,0,0,0,0,0,0,0,-1,860,981,0,0
-357,43,0,0,0,0,0,0,0,0,0,-1,867,981,0,0
-350,43,0,0,0,0,0,0,0,0,0,-1,874,981,0,0
-343,43,0,0,0,0,0,0,0,0,0,-1,881,981,0,0
-336,43,0,0,0,0,0,0,0,0,0,-1,888,981,0,0
-329,43,0,0,0,0,0,0,0,0,0,-1,895,981,0,0
-322,43,0,0,0,0,0,0,0,0,0,-1,902,981,0,0
-315,43,0,0,0,0,0,0,0,0,0,-1,909,981,0,0
-308,43,0,0,0,0,0,0,0,0,0,-1,916,981,0,0
-301,43,0,0,0,0,0,0,0,0,0,-1,923,981,0,0
-294,43,0,0,0,0,0,0,0,0,0,-1,930,981,0,0
-287,43,0,0,0,0,0,0,0,0,0,-1,937,981,0,0
-280,43,0,0,0,0,0,0,0,0,0,-1,944,981,0,0
-273,43,0,0,0,0,0,0,0,0,0,-1,951,981,0,0
-266,43,0,0,0,0,0,0,0,0,0,-1,958,981,0,0
-259,43,0,0,0,0,0,0,0,0,0,-1,965,981,0,0
-252,43,0,0,0,0,0,0,0,0,0,-1,972,981,0,0
-245,43,0,0,0,0,0,0,0,0,0,-1,979,981,0,0
-238,43,0,0,0,0,0,0,0,0,0,-1,986,981,0,0
-231,43,0,0,0,0,0,0,0,0,0,-1,993,981,0,0
-224,43,0,0,0,0,0,0,0,0,0,-1,1000,981,0,0
-217,43,0,0,0,0,0,0,0,0,0,-1,1007,981,0,0
-210,43,0,0,0,0,0,0,0,0,0,-1,1014,981,0,0
-203,43,0,0,0,0,0,0,0,0,0,-1,1021,981,0,0
-196,43,0,0,0,0,0,0,0,0,0,-1,1028,981,0,0
-189,43,0,0,0,0,0,0,0,0,0,-1,1035,981,0,0
-182,43,0,0,0,0,0,0,0,0,0,-1,1042,981,0,0
-175,43,0,0,0,0,0,0,0,0,0,-1,1049,981,0,0
-168,43,0,0,0,0,0,0,0,0,0,-1,1056,981,0,0
-161,43,0,0,0,0,0,0,0,0,0,-1,1063,981,0,0
-154,43,0,0,0,0,0,0,0,0,0,-1,1070,981,0,0
-147,43,0,0,0,0,0,0,0,0,0,-1,1077,981,0,0
-140,43,0,0,0,0,0,0,0,0,0,-1,1084,981,0,0
-133,43,0,0,0,0,0,0,0,0,0,-1,1091,981,0,0
-126,43,0,0,0,0,0,0,0,0,0,-1,1098,981,0,0
-119,43,0,0,0,0,0,0,0,0,0,-1,1105,981,0,0
-112,43,0,0,0,0,0,0,0,0,0,-1,1112,981,0,0
-105,43,0,0,0,0,0,0,0,0,0,-1,1119,981,0,0
-98,43,0,0,0,0,0,0,0,0,0,-1,1126,981,0,0
-91,43,0,0,0,0,0,0,0,0,0,-1,1133,981,0,0
-84,43,0,0,0,0,0,0,0,0,0,-1,1140,981,0,0
-77,43,0,0,0,0,0,0,0,0,0,-1,1147,981,0,0
-70,43,0,0,0,0,0,0,0,0,0,-1,1154,981,0,0
-63,43,0,0,0,0,0,0,0,0,0,-1,1161,981,0,0
-56,43,0,0,0,0,0,0,0,0,0,-1,1168,981,0,0
-49,43,0,0,0,0,0,0,0,0,0,-1,1175,981,0,0
-42,43,0,0,0,0,0,0,0,0,0,-1,1182,981,0,0
-35,43,0,0,0,0,0,0,0,0,0,-1,1189,981,0,0
-28,43,0,0,0,0,0,0,0,0,0,-1,1196,981,0,0
-21,43,0,0,0,0,0,0,0,0,0,-1,1203,981,0,0
-14,43,0,0,0,0,0,0,0,0,0,-1,1210,981,0,0
-7,43,0,0,0,0,0,0,0,0,0,-1,1217,981,0,0
0,43,0,0,0,0,0,0,0,0,0,-1,1224,981,0,0
7,43,0,0,0,0,0,0,0,0,0,-1,1231,981,0,0
14,43,0,0,0,0,0,0,0,0,0,-1,1238,981,0,0
21,43,0,0,0,0,0,0,0,0,0,-1,1245,981,0,0
28,43,0,0,0,0,0,0,0,0,0,-1,1252,981,0,0
35,43,0,0,0,0,0,0,0,0,0,-1,1259,981,0,0
42,43,0,0,0,0,0,0,0,0,0,-1,1266,981,0,0
49,43,0,0,0,0,0,0,0,0,0,-1,1273,981,0,0
56,43,0,0,0,0,0,0,0,0,0,-1,1280,981,0,0
63,43,0,0,0,0,0,0,0,0,0,-1,1287,981,0,0
70,43,0,0,0,0,0,0,0,0,0,-1,1294,981,0,0
77,43,0,0,0,0,0,0,0,0,0,-1,1301,981,0,0
84,43,0,0,0,0,0,0,0,0,0,-1,1308,981,0,0
91,43,0,0,0,0,0,0,0,0,0,-1,1315,981,0,0
98,43,0,0,0,0,0,0,0,0,0,-1,1322,981,0,0
105,43,0,0,0,0,0,0,0,0,0,-1,1329,981,0,0
112,43,0,0,0,0,0,0,0,0,0,-1,1336,981,0,0
119,43,0,0,0,0,0,0,0,0,0,-1,1343,981,0,0
126,43,0,0,0,0,0,0,0,0,0,-1,1350,981,0,0
133,43,0,0,0,0,0,0,0,0,0,-1,1357,981,0,0
140,43,0,0,0,0,0,0,0,0,0,-1,1364,981,0,0
147,43,0,0,0,0,0,0,0,0,0,-1,1371,981,0,0
154,43,0,0,0,0,0,0,0,0,0,-1,1378,981,0,0
161,43,0,0,0,0,0,0,0,0,0,-1,1385,981,0,0
168,43,0,0,0,0,0,0,0,0,0,-1,1392,981,0,0
175,43,0,0,0,0,0,0,0,0,0,-1,1399,981,0,0
182,43,0,0,0,0,0,0,0,0,0,-1,1406,981,0,0
189,43,0,0,0,0,0,0,0,0,0,-1,1413,981,0,0
196,43,0,0,0,0,0,0,0,0,0,-1,1420,981,0,0
203,43,0,0,0,0,0,0,0,0,0,-1,1427,981,0,0
210,43,0,0,0,0,0,0,0,0,0,-1,1434,981,0,0
217,43,0,0,0,0,0,0,0,0,0,-1,1441,981,0,0
224,43,0,0,0,0,0,0,0,0,0,-1,1448,981,0,0
231,43,0,0,0,0,0,0,0,0,0,-1,1455,981,0,0
238,43,0,0,0,0,0,0,0,0,0,-1,1462,981,0,0
245,43,0,0,0,0,0,0,0,0,0,-1,1469,981,0,0
252,43,0,0,0,0,0,0,0,0,0,-1,1476,981,0,0
259,43,0,0,0,0,0,0,0,0,0,-1,1483,981,0,0
266,43,0,0,0,0,0,0,0,0,0,-1,1490,981,0,0
273,43,0,0,0,0,0,0,0,0,0,-1,1497,981,0,0
280,43,0,0,0,0,0,0,0,0,0,-1,1504,981,0,0
287,43,0,0,0,0,0,0,0,0,0,-1,1511,981,0,0
294,43,0,0,0,0,0,0,0,0,0,-1,1518,981,0,0
301,43,0,0,0,0,0,0,0,0,0,-1,1525,981,0,0
308,43,0,0,0,0,0,0,0,0,0,-1,1532,981,0,0
315,43,0,0,0,0,0,0,0,0,0,-1,1539,981,0,0
322,43,0,0,0,0,0,0,0,0,0,-1,1546,981,0,0
329,43,0,0,0,0,0,0,0,0,0,-1,1553,981,0,0
336,43,0,0,0,0,0,0,0,0,0,-1,1560,981,0,0
343,43,0,0,0,0,0,0,0,0,0,-1,1567,981,0,0
350,43,0,0,0,0,0,0,0,0,0,-1,1574,981,0,0
357,43,0,0,0,0,0,0,0,0,0,-1,1581,981,0,0
364,43,0,0,0,0,0,0,0,0,0,-1,1588,981,0,0
371,43,0,0,0,0,0,0,0,0,0,-1,1595,981,0,0
378,43,0,0,0,0,0,0,0,0,0,-1,1602,981,0,0
385,43,0,0,0,0,0,0,0,0,0,-1,1609,981,0,0
392,43,0,0,0,0,0,0,0,0,0,-1,1616,981,0,0
399,43,0,0,0,0,0,0,0,0,0,-1,1623,981,0,0
406,43,0,0,0,0,0,0,0,0,0,-1,1630,981,0,0
413,43,0,0,0,0,0,0,0,0,0,-1,1637,981,0,0
420,43,0,0,0,0,0,0,0,0,0,-1,1644,981,0,0
427,43,0,0,0,0,0,0,0,0,0,-1,1651,981,0,0
434,43,0,0,0,0,0,0,0,0,0,-1,1658,981,0,0
441,43,0,0,0,0,0,0,0,0,0,-1,1665,981,0,0
448,43,0,0,0,0,0,0,0,0,0,-1,1672,981,0,0
455,43,0,0,0,0,0,0,0,0,0,-1,1679,981,0,0
462,43,0,0,0,0,0,0,0,0,0,-1,1686,981,0,0
469,43,0,0,0,0,0,0,0,0,0,-1,1693,981,0,0
476,43,0,0,0,0,0,0,0,0,0,-1,1700,981,0,0
483,43,0,0,0,0,0,0,0,0,0,-1,1707,981,0,0
490,43,0,0,0,0,0,0,0,0,0,-1,1714,981,0,0
497,43,0,0,0,0,0,0,0,0,0,-1,1721,981,0,0
504,43,0,0,0,0,0,0,0,0,0,-1,1728,981,0,0
511,43,0,0,0,0,0,0,0,0,0,-1,1735,981,0,0
518,43,0,0,0,0,0,0,0,0,0,-1,1742,981,0,0
525,43,0,0,0,0,0,0,0,0,0,-1,1749,981,0,0
532,43,0,0,0,0,0,0,0,0,0,-1,1756,981,0,0
539,43,0,0,0,0,0,0,0,0,0,-1,1763,981,0,0
546,43,0,0,0,0,0,0,0,0,0,-1,1770,981,0,0
553,43,0,0,0,0,0,0,0,0,0,-1,1777,981,0,0
560,43,0,0,0,0,0,0,0,0,0,-1,1784,981,0,0
567,43,0,0,0,0,0,0,0,0,0,-1,1791,981,0,0
574,43,0,0,0,0,0,0,0,0,0,-1,1798,981,0,0
581,43,0,0,0,0,0,0,0,0,0,-1,1805,981,0,0
588,43,0,0,0,0,0,0,0,0,0,-1,1812,981,0,0
595,43,0,0,0,0,0,0,0,0,0,-1,1819,981,0,0
602,43,0,0,0,0,0,0,0,0,0,-1,1826,981,0,0
609,43,0,0,0,0,0,0,0,0,0,-1,1833,981,0,0
616,43,0,0,0,0,0,0,0,0,0,-1,1840,981,0,0
623,43,0,0,0,0,0,0,0,0,0,-1,1847,981,0,0
630,43,0,0,0,0,0,0,0,0,0,-1,1854,981,0,0
637,43,0,0,0,0,0,0,0,0,0,-1,1861,981,0,0
644,43,22.1154,2.88245,0.00432943,-0.000953881,-0.00217946,0.00511245,-0.0017369,-0.344911,0.00411144,0.0378153,1868,981,22.1154,-2.88244
651,43,22.2986,2.80469,0.00395169,-0.000779993,-0.00181388,0.00456702,-0.00139532,-0.327051,0.00360105,0.0359248,1875,981,22.2986,-2.8047
658,43,22.4519,2.90442,0.0032641,-0.000643324,-0.00119729,0.00360178,-0.000981005,-0.274898,0.00278636,0.0390471,1882,981,22.4519,-2.90442
665,43,22.3419,2.75122,0.00217035,-0.000281275,-0.00015943,0.00218068,-0.000291599,-0.0646671,0.0015601,0.0385167,1889,981,22.342,-2.75124
672,43,22.319,2.68903,0.000719566,0.000229604,0.001073,0.00157519,-0.000626024,0.673165,0.00130966,0.0377558,1896,981,22.3189,-2.689
679,43,22.3743,2.67389,-0.000852762,0.000693033,0.00225461,0.00230354,-0.00246327,0.950525,0.00275263,0.0402832,1903,981,22.3743,-2.67386
686,43,22.329,2.69623,-0.00219962,0.00105029,0.00316549,0.00298354,-0.00413287,1.02253,0.00412648,0.0423367,1910,981,22.329,-2.69624
693,43,22.257,2.71643,-0.00319216,0.00133857,0.00375707,0.0034604,-0.00531399,1.05669,0.00510344,0.0384645,1917,981,22.2569,-2.71645
700,43,22.2488,2.68805,-0.00400289,0.00148408,0.00412674,0.00369606,-0.00621488,1.07876,0.00578335,0.0315938,1924,981,22.2487,-2.68805
707,43,22.26,2.83008,-0.00461839,0.00161187,0.00418762,0.00371595,-0.00672248,1.10519,0.00610939,0.0269399,1931,981,22.26,-2.83008
714,43,22.2216,3.12976,-0.00496102,0.00170985,0.00403168,0.00360697,-0.00685814,1.13098,0.00613845,0.0338024,1938,981,22.2215,-3.12973
721,43,21.9199,3.63409,0,0,0,0,0,0,0,-1,1945,981,21.92,-3.63408
728,43,21.5717,3.89032,-0.00490366,0.00195413,0.00316777,0.00319343,-0.00614297,1.19788,0.0054793,0.0192334,1952,981,21.5716,-3.89031
735,43,21.454,4.03009,-0.00450614,0.00205969,0.00224626,0.00275462,-0.00520106,1.27077,0.00466504,0.0144221,1959,981,21.454,-4.03008
742,43,21.4563,4.09442,-0.00365786,0.00194759,0.00140587,0.00228043,-0.0039907,1.33833,0.00366524,0.0156698,1966,981,21.4563,-4.09441
749,43,21.4597,4.16443,-0.0025769,0.00244855,-1.57659e-05,0.0024486,-0.00257695,-1.56766,0.00290182,0.0161388,1973,981,21.4597,-4.16444
756,43,21.4573,4.2453,-0.00101508,0.00308163,-0.00181364,0.00376915,-0.00170261,-1.20845,0.00323335,0.0151427,1980,981,21.4573,-4.24532
763,43,21.4476,4.32935,0.000759602,0.0038148,-0.00371922,0.00630792,-0.00173351,-0.98026,0.00488671,0.0173572,1987,981,21.4476,-4.32938
770,43,21.4271,4.43213,0.00282147,0.00502176,-0.00580132,0.00982632,-0.0019831,-0.879104,0.00730223,0.0149143,1994,981,21.4272,-4.43212
777,43,21.3723,4.4975,0.00513484,0.00690632,-0.00825328,0.0143213,-0.00228009,-0.838853,0.0103913,0.0191806,2001,981,21.3724,-4.49751
784,43,21.2805,4.6026,0.00769173,0.00933138,-0.0112802,0.0198215,-0.00279838,-0.821674,0.0142391,0.0368447,2008,981,21.2805,-4.60258
791,43,21.5366,4.89429,0.0108859,0.0126054,-0.0152906,0.0270604,-0.0035691,-0.813482,0.0193401,0.0409462,2015,981,21.5366,-4.89428
798,43,21.2067,5.14056,0,0,0,0,0,0,0,-1,2022,981,21.2067,-5.14055
805,43,21.5005,4.1554,0,0,0,0,0,0,0,-1,2029,981,21.5004,-4.1554
812,43,18.8206,6.32977,0,0,0,0,0,0,0,-1,2036,981,18.8206,-6.32977
-700,36,0,0,0,0,0,0,0,0,0,-1,524,988,0,0
-693,36,-12.1643,-3.15466,0,0,0,0,0,0,0,-1,531,988,-12.1643,3.15466
-686,36,-8.22424,-6.0069,0,0,0,0,0,0,0,-1,538,988,-8.22421,6.00688
-679,36,-13.8394,-0.52478,0,0,0,0,0,0,0,-1,545,988,-13.8394,0.524767
-672,36,-14.2388,-0.0148315,-0.0149981,0.0320815,0.0357375,0.0513353,-0.0342519,1.07663,0.0497408,0.0491217,552,988,-14.2388,0.0148437
-665,36,-14.6132,0.477966,-0.0124681,0.0241326,0.027915,0.0392111,-0.0275466,1.07554,0.0387382,0.0488481,559,988,-14.6132,-0.477982
-658,36,-14.3727,2.01758,0,0,0,0,0,0,0,-1,566,988,-14.3727,-2.01758
-651,36,-14.4453,2.00061,-0.00802605,0.0131176,0.0154306,0.0212505,-0.016159,1.08573,0.021665,0.0362736,573,988,-14.4453,-2.00061
-644,36,-14.5199,1.97961,-0.00616998,0.00946991,0.0107898,0.0149755,-0.0116756,1.09897,0.0154263,0.0184694,580,988,-14.5199,-1.97962
-637,36,-14.5468,1.95203,-0.00451249,0.00601293,0.00661662,0.00920455,-0.00770411,1.12136,0.00977502,0.0133241,587,988,-14.5468,-1.952
-630,36,-14.5498,1.92114,-0.00349062,0.00357741,0.00310195,0.00474567,-0.00465887,1.21061,0.00542979,0.011557,594,988,-14.5498,-1.92114
-623,36,-14.5474,1.85022,-0.00320329,0.00342547,0.000659504,0.00349045,-0.00326827,1.47259,0.00390285,0.0120682,601,988,-14.5474,-1.85022
-616,36,-14.5291,1.78381,-0.0028348,0.00272419,-0.000940729,0.00287907,-0.00298968,-1.40762,0.00338853,0.00985214,608,988,-14.5291,-1.78382
-609,36,-14.5255,1.72797,-0.00271591,0.00202629,-0.00198019,0.00274441,-0.00343403,-1.2229,0.00357452,0.0136105,615,988,-14.5255,-1.72799
-602,36,-14.5296,1.64233,-0.00318475,0.00168593,-0.0028044,0.00296482,-0.00446364,-1.14294,0.00431783,0.0180934,622,988,-14.5296,-1.64231
-595,36,-14.5316,1.57465,-0.00339023,0.00156385,-0.00341677,0.00330701,-0.00513338,-1.09904,0.00491094,0.0198571,629,988,-14.5315,-1.57464
-588,36,-14.5695,1.35321,-0.00352734,0.0015332,-0.0038014,0.00356943,-0.00556357,-1.07903,0.00531467,0.0193743,636,988,-14.5695,-1.35319
-581,36,-14.6602,1.04736,-0.00355925,0.00159031,-0.00399045,0.00376455,-0.00573349,-1.07191,0.00552283,0.0222466,643,988,-14.6602,-1.04737
-574,36,-14.7036,0.968079,-0.00350497,0.00188469,-0.00416361,0.00414948,-0.00576975,-1.07261,0.00575228,0.0258217,650,988,-14.7036,-0.968107
-567,36,-14.6871,0.879822,-0.00324984,0.00219425,-0.00409098,0.00438603,-0.00544161,-1.07895,0.00568489,0.0333875,657,988,-14.6871,-0.879822
-560,36,-14.6586,0.871887,-0.00266711,0.00259306,-0.00396977,0.00472495,-0.004799,-1.07796,0.00549871,0.0395046,664,988,-14.6586,-0.871875
-553,36,-14.6899,0.914246,-0.00168265,0.00312838,-0.0039355,0.00533532,-0.00388959,-1.05972,0.00534776,0.0442443,671,988,-14.6899,-0.914228
-546,36,-14.7213,0.874329,-0.000259496,0.00384169,-0.00414313,0.00641392,-0.00283172,-1.01519,0.00546989,0.0470467,678,988,-14.7213,-0.87432
-539,36,-14.687,0.851196,0.00168192,0.00481106,-0.00491882,0.00840814,-0.00191516,-0.939377,0.00634096,0.0440999,685,988,-14.687,-0.851204
-532,36,-14.7236,0.83075,0.00380614,0.00652351,-0.0068455,0.0121439,-0.00181421,-0.883364,0.00876346,0.0449183,692,988,-14.7236,-0.830738
-525,36,-14.8044,0.88623,0.0053349,0.0091526,-0.0103024,0.0177215,-0.00323402,-0.877,0.0130269,0.0473684,699,988,-14.8045,-0.886249
-518,36,0,0,0,0,0,0,0,0,0,-1,706,988,0,0
-511,36,0,0,0,0,0,0,0,0,0,-1,713,988,0,0
-504,36,0,0,0,0,0,0,0,0,0,-1,720,988,0,0
-497,36,0,0,0,0,0,0,0,0,0,-1,727,988,0,0
-490,36,0,0,0,0,0,0,0,0,0,-1,734,988,0,0
-483,36,0,0,0,0,0,0,0,0,0,-1,741,988,0,0
-476,36,0,0,0,0,0,0,0,0,0,-1,748,988,0,0
-469,36,0,0,0,0,0,0,0,0,0,-1,755,988,0,0
-462,36,0,0,0,0,0,0,0,0,0,-1,762,988,0,0
-455,36,0,0,0,0,0,0,0,0,0,-1,769,988,0,0
-448,36,0,0,0,0,0,0,0,0,0,-1,776,988,0,0
-441,36,0,0,0,0,0,0,0,0,0,-1,783,988,0,0
-434,36,0,0,0,0,0,0,0,0,0,-1,790,988,0,0
-427,36,0,0,0,0,0,0,0,0,0,-1,797,988,0,0
-420,36,0,0,0,0,0,0,0,0,0,-1,804,988,0,0
-413,36,0,0,0,0,0,0,0,0,0,-1,811,988,0,0
-406,36,0,0,0,0,0,0,0,0,0,-1,818,988,0,0
-399,36,0,0,0,0,0,0,0,0,0,-1,825,988,0,0
-392,36,0,0,0,0,0,0,0,0,0,-1,832,988,0,0
-385,36,0,0,0,0,0,0,0,0,0,-1,839,988,0,0
-378,36,0,0,0,0,0,0,0,0,0,-1,846,988,0,0
-371,36,0,0,0,0,0,0,0,0,0,-1,853,988,0,0
-364,36,0,0,0,0,0,0,0,0,0,-1,860,988,0,0
-357,36,0,0,0,0,0,0,0,0,0,-1,867,988,0,0
-350,36,0,0,0,0,0,0,0,0,0,-1,874,988,0,0
-343,36,0,0,0,0,0,0,0,0,0,-1,881,988,0,0
-336,36,0,0,0,0,0,0,0,0,0,-1,888,988,0,0
-329,36,0,0,0,0,0,0,0,0,0,-1,895,988,0,0
-322,36,0,0,0,0,0,0,0,0,0,-1,902,988,0,0
-315,36,0,0,0,0,0,0,0,0,0,-1,909,988,0,0
-308,36,0,0,0,0,0,0,0,0,0,-1,916,988,0,0
-301,36,0,0,0,0,0,0,0,0,0,-1,923,988,0,0
-294,36,0,0,0,0,0,0,0,0,0,-1,930,988,0,0
-287,36,0,0,0,0,0,0,0,0,0,-1,937,988,0,0
-280,36,0,0,0,0,0,0,0,0,0,-1,944,988,0,0
-273,36,0,0,0,0,0,0,0,0,0,-1,951,988,0,0
-266,36,0,0,0,0,0,0,0,0,0,-1,958,988,0,0
-259,36,0,0,0,0,0,0,0,0,0,-1,965,988,0,0
-252,36,0,0,0,0,0,0,0,0,0,-1,972,988,0,0
-245,36,0,0,0,0,0,0,0,0,0,-1,979,988,0,0
-238,36,0,0,0,0,0,0,0,0,0,-1,986,988,0,0
-231,36,0,0,0,0,0,0,0,0,0,-1,993,988,0,0
-224,36,0,0,0,0,0,0,0,0,0,-1,1000,988,0,0
-217,36,0,0,0,0,0,0,0,0,0,-1,1007,988,0,0
-210,36,0,0,0,0,0,0,0,0,0,-1,1014,988,0,0
-203,36,0,0,0,0,0,0,0,0,0,-1,1021,988,0,0
-196,36,0,0,0,0,0,0,0,0,0,-1,1028,988,0,0
-189,36,0,0,0,0,0,0,0,0,0,-1,1035,988,0,0
-182,36,0,0,0,0,0,0,0,0,0,-1,1042,988,0,0
-175,36,0,0,0,0,0,0,0,0,0,-1,1049,988,0,0
-168,36,0,0,0,0,0,0,0,0,0,-1,1056,988,0,0
-161,36,0,0,0,0,0,0,0,0,0,-1,1063,988,0,0
-154,36,0,0,0,0,0,0,0,0,0,-1,1070,988,0,0
-147,36,0,0,0,0,0,0,0,0,0,-1,1077,988,0,0
-140,36,0,0,0,0,0,0,0,0,0,-1,1084,988,0,0
-133,36,0,0,0,0,0,0,0,0,0,-1,1091,988,0,0
-126,36,0,0,0,0,0,0,0,0,0,-1,1098,988,0,0
-119,36,0,0,0,0,0,0,0,0,0,-1,1105,988,0,0
-112,36,0,0,0,0,0,0,0,0,0,-1,1112,988,0,0
-105,36,0,0,0,0,0,0,0,0,0,-1,1119,988,0,0
-98,36,0,0,0,0,0,0,0,0,0,-1,1126,988,0,0
-91,36,0,0,0,0,0,0,0,0,0,-1,1133,988,0,0
-84,36,0,0,0,0,0,0,0,0,0,-1,1140,988,0,0
-77,36,0,0,0,0,0,0,0,0,0,-1,1147,988,0,0
-70,36,0,0,0,0,0,0,0,0,0,-1,1154,988,0,0
-63,36,0,0,0,0,0,0,0,0,0,-1,1161,988,0,0
-56,36,0,0,0,0,0,0,0,0,0,-1,1168,988,0,0
-49,36,0,0,0,0,0,0,0,0,0,-1,1175,988,0,0
-42,36,0,0,0,0,0,0,0,0,0,-1,1182,988,0,0
-35,36,0,0,0,0,0,0,0,0,0,-1,1189,988,0,0
-28,36,0,0,0,0,0,0,0,0,0,-1,1196,988,0,0
-21,36,0,0,0,0,0,0,0,0,0,-1,1203,988,0,0
-14,36,0,0,0,0,0,0,0,0,0,-1,1210,988,0,0
-7,36,0,0,0,0,0,0,0,0,0,-1,1217,988,0,0
0,36,0,0,0,0,0,0,0,0,0,-1,1224,988,0,0
7,36,0,0,0,0,0,0,0,0,0,-1,1231,988,0,0
14,36,0,0,0,0,0,0,0,0,0,-1,1238,988,0,0
21,36,0,0,0,0,0,0,0,0,0,-1,1245,988,0,0
28,36,0,0,0,0,0,0,0,0,0,-1,1252,988,0,0
35,36,0,0,0,0,0,0,0,0,0,-1,1259,988,0,0
42,36,0,0,0,0,0,0,0,0,0,-1,1266,988,0,0
49,36,0,0,0,0,0,0,0,0,0,-1,1273,988,0,0
56,36,0,0,0,0,0,0,0,0,0,-1,1280,988,0,0
63,36,0,0,0,0,0,0,0,0,0,-1,1287,988,0,0
70,36,0,0,0,0,0,0,0,0,0,-1,1294,988,0,0
77,36,0,0,0,0,0,0,0,0,0,-1,1301,988,0,0
84,36,0,0,0,0,0,0,0,0,0,-1,1308,988,0,0
91,36,0,0,0,0,0,0,0,0,0,-1,1315,988,0,0
98,36,0,0,0,0,0,0,0,0,0,-1,1322,988,0,0
105,36,0,0,0,0,0,0,0,0,0,-1,1329,988,0,0
112,36,0,0,0,0,0,0,0,0,0,-1,1336,988,0,0
119,36,0,0,0,0,0,0,0,0,0,-1,1343,988,0,0
126,36,0,0,0,0,0,0,0,0,0,-1,1350,988,0,0
133,36,0,0,0,0,0,0,0,0,0,-1,1357,988,0,0
140,36,0,0,0,0,0,0,0,0,0,-1,1364,988,0,0
147,36,0,0,0,0,0,0,0,0,0,-1,1371,988,0,0
154,36,0,0,0,0,0,0,0,0,0,-1,1378,988,0,0
161,36,0,0,0,0,0,0,0,0,0,-1,1385,988,0,0
168,36,0,0,0,0,0,0,0,0,0,-1,1392,988,0,0
175,36,0,0,0,0,0,0,0,0,0,-1,1399,988,0,0
182,36,0,0,0,0,0,0,0,0,0,-1,1406,988,0,0
189,36,0,0,0,0,0,0,0,0,0,-1,1413,988,0,0
196,36,0,0,0,0,0,0,0,0,0,-1,1420,988,0,0
203,36,0,0,0,0,0,0,0,0,0,-1,1427,988,0,0
210,36,0,0,0,0,0,0,0,0,0,-1,1434,988,0,0
217,36,0,0,0,0,0,0,0,0,0,-1,1441,988,0,0
224,36,0,0,0,0,0,0,0,0,0,-1,1448,988,0,0
231,36,0,0,0,0,0,0,0,0,0,-1,1455,988,0,0
238,36,0,0,0,0,0,0,0,0,0,-1,1462,988,0,0
245,36,0,0,0,0,0,0,0,0,0,-1,1469,988,0,0
252,36,0,0,0,0,0,0,0,0,0,-1,1476,988,0,0
259,36,0,0,0,0,0,0,0,0,0,-1,1483,988,0,0
266,36,0,0,0,0,0,0,0,0,0,-1,1490,988,0,0
273,36,0,0,0,0,0,0,0,0,0,-1,1497,988,0,0
280,36,0,0,0,0,0,0,0,0,0,-1,1504,988,0,0
287,36,0,0,0,0,0,0,0,0,0,-1,1511,988,0,0
294,36,0,0,0,0,0,0,0,0,0,-1,1518,988,0,0
301,36,0,0,0,0,0,0,0,0,0,-1,1525,988,0,0
308,36,0,0,0,0,0,0,0,0,0,-1,1532,988,0,0
315,36,0,0,0,0,0,0,0,0,0,-1,1539,988,0,0
322,36,0,0,0,0,0,0,0,0,0,-1,1546,988,0,0
329,36,0,0,0,0,0,0,0,0,0,-1,1553,988,0,0
336,36,0,0,0,0,0,0,0,0,0,-1,1560,988,0,0
343,36,0,0,0,0,0,0,0,0,0,-1,1567,988,0,0
350,36,0,0,0,0,0,0,0,0,0,-1,1574,988,0,0
357,36,0,0,0,0,0,0,0,0,0,-1,1581,988,0,0
364,36,0,0,0,0,0,0,0,0,0,-1,1588,988,0,0
371,36,0,0,0,0,0,0,0,0,0,-1,1595,988,0,0
378,36,0,0,0,0,0,0,0,0,0,-1,1602,988,0,0
385,36,0,0,0,0,0,0,0,0,0,-1,1609,988,0,0
392,36,0,0,0,0,0,0,0,0,0,-1,1616,988,0,0
399,36,0,0,0,0,0,0,0,0,0,-1,1623,988,0,0
406,36,0,0,0,0,0,0,0,0,0,-1,1630,988,0,0
413,36,0,0,0,0,0,0,0,0,0,-1,1637,988,0,0
420,36,0,0,0,0,0,0,0,0,0,-1,1644,988,0,0
427,36,0,0,0,0,0,0,0,0,0,-1,1651,988,0,0
434,36,0,0,0,0,0,0,0,0,0,-1,1658,988,0,0
441,36,0,0,0,0,0,0,0,0,0,-1,1665,988,0,0
448,36,0,0,0,0,0,0,0,0,0,-1,1672,988,0,0
455,36,0,0,0,0,0,0,0,0,0,-1,1679,988,0,0
462,36,0,0,0,0,0,0,0,0,0,-1,1686,988,0,0
469,36,0,0,0,0,0,0,0,0,0,-1,1693,988,0,0
476,36,0,0,0,0,0,0,0,0,0,-1,1700,988,0,0
483,36,0,0,0,0,0,0,0,0,0,-1,1707,988,0,0
490,36,0,0,0,0,0,0,0,0,0,-1,1714,988,0,0
497,36,0,0,0,0,0,0,0,0,0,-1,1721,988,0,0
504,36,0,0,0,0,0,0,0,0,0,-1,1728,988,0,0
511,36,0,0,0,0,0,0,0,0,0,-1,1735,988,0,0
518,36,0,0,0,0,0,0,0,0,0,-1,1742,988,0,0
525,36,0,0,0,0,0,0,0,0,0,-1,1749,988,0,0
532,36,0,0,0,0,0,0,0,0,0,-1,1756,988,0,0
539,36,0,0,0,0,0,0,0,0,0,-1,1763,988,0,0
546,36,0,0,0,0,0,0,0,0,0,-1,1770,988,0,0
553,36,0,0,0,0,0,0,0,0,0,-1,1777,988,0,0
560,36,0,0,0,0,0,0,0,0,0,-1,1784,988,0,0
567,36,0,0,0,0,0,0,0,0,0,-1,1791,988,0,0
574,36,0,0,0,0,0,0,0,0,0,-1,1798,988,0,0
581,36,0,0,0,0,0,0,0,0,0,-1,1805,988,0,0
588,36,0,0,0,0,0,0,0,0,0,-1,1812,988,0,0
595,36,0,0,0,0,0,0,0,0,0,-1,1819,988,0,0
602,36,0,0,0,0,0,0,0,0,0,-1,1826,988,0,0
609,36,0,0,0,0,0,0,0,0,0,-1,1833,988,0,0
616,36,0,0,0,0,0,0,0,0,0,-1,1840,988,0,0
623,36,0,0,0,0,0,0,0,0,0,-1,1847,988,0,0
630,36,0,0,0,0,0,0,0,0,0,-1,1854,988,0,0
637,36,0,0,0,0,0,0,0,0,0,-1,1861,988,0,0
644,36,22.0979,2.80023,0.00457067,-0.00045063,-0.00212655,0.00535024,-0.0012302,-0.351378,0.00403982,0.0395445,1868,988,22.0979,-2.80023
651,36,22.1844,2.92743,0.00412179,-0.000375291,-0.00177619,0.0047387,-0.000992198,-0.334285,0.00353657,0.0402892,1875,988,22.1844,-2.92744
658,36,22.3883,3.04443,0.0033806,-0.00036676,-0.00122786,0.00374708,-0.000733238,-0.290052,0.00277495,0.0404263,1882,988,22.3883,-3.04445
665,36,22.4443,3.06049,0.00232202,-0.000142812,-0.00027285,0.00235186,-0.000172654,-0.10894,0.00162851,0.0374976,1889,988,22.4443,-3.0605
672,36,22.3007,2.97888,0.00095734,0.000249155,0.000939405,0.00160717,-0.000400676,0.605166,0.00122701,0.0366191,1896,988,22.3007,-2.97891
679,36,22.3149,2.95282,-0.000557193,0.000615106,0.00216479,0.00227169,-0.00221378,0.917611,0.00258976,0.0385113,1903,988,22.315,-2.95281
686,36,22.3044,2.96112,-0.00186021,0.000899996,0.00313985,0.00294967,-0.00390988,0.992461,0.00397328,0.0377984,1910,988,22.3044,-2.96111
693,36,22.2467,2.88116,-0.00283583,0.0011292,0.00380804,0.00343988,-0.00514651,1.0254,0.00498989,0.0381945,1917,988,22.2467,-2.88119
700,36,22.2094,2.88025,-0.00362903,0.00124586,0.00424032,0.00369936,-0.00608254,1.04625,0.00570318,0.0348085,1924,988,22.2093,-2.88026
707,36,22.2531,2.83795,-0.00423596,0.0013535,0.00436473,0.00374157,-0.00662403,1.07016,0.00606122,0.0258187,1931,988,22.2531,-2.83794
714,36,22.2367,3.06982,-0.0046069,0.00143388,0.00426787,0.00364202,-0.00681503,1.09334,0.00612932,0.0302868,1938,988,22.2367,-3.0698
721,36,21.9093,3.82599,0,0,0,0,0,0,0,-1,1945,988,21.9093,-3.82601
728,36,21.735,3.95258,-0.00463997,0.00170575,0.00349072,0.00325012,-0.00618433,1.15426,0.00553409,0.0211264,1952,988,21.735,-3.95256
735,36,21.5502,4.05963,-0.00441076,0.001863,0.00258126,0.0027885,-0.00533626,1.22653,0.00476708,0.0168973,1959,988,21.5502,-4.05961
742,36,21.5369,4.12836,-0.00378145,0.00177952,0.00181744,0.00232081,-0.00432273,1.28133,0.00389327,0.0138433,1966,988,21.5369,-4.12835
749,36,21.5464,4.17584,-0.00306729,0.00236638,0.000550703,0.00242163,-0.00312254,1.4708,0.00320944,0.0150777,1973,988,21.5464,-4.17584
756,36,21.5287,4.2301,-0.00203012,0.00316118,-0.00110365,0.00338607,-0.00225501,-1.36978,0.00327863,0.0131293,1980,988,21.5287,-4.23012
763,36,21.5145,4.32239,-0.000875,0.00405758,-0.00282809,0.00534372,-0.00216114,-1.14398,0.00446091,0.0147101,1987,988,21.5145,-4.32241
770,36,21.5145,4.40466,0.000365655,0.00550304,-0.00465992,0.00825534,-0.00238665,-1.03729,0.00644806,0.0120973,1994,988,21.5146,-4.40466
777,36,21.4655,4.49219,0.00164715,0.00771077,-0.0066954,0.0120288,-0.00267089,-0.997996,0.00904197,0.0198472,2001,988,21.4655,-4.4922
784,36,21.4547,4.57709,0.00288822,0.0105453,-0.00913158,0.0166185,-0.00318492,-0.9839,0.0122791,0.038087,2008,988,21.4547,-4.57712
791,36,21.5638,4.59143,0.00443277,0.0143782,-0.0123742,0.0227415,-0.00393051,-0.976453,0.0166267,0.0423896,2015,988,21.5639,-4.59144
798,36,21.5122,4.47125,0,0,0,0,0,0,0,-1,2022,988,21.5122,-4.47128
805,36,21.3472,4.24652,0,0,0,0,0,0,0,-1,2029,988,21.3471,-4.24651
812,36,21.1946,4.04529,0,0,0,0,0,0,0,-1,2036,988,21.1945,-4.04529
-700,29,0,0,0,0,0,0,0,0,0,-1,524,995,0,0
-693,29,-8.93475,-7.46216,-0.031507,0.0566489,0.0738827,0.098603,-0.0734611,1.05435,0.0996942,0.0465087,531,995,-8.93478,7.46216
-686,29,-9.19916,-6.37177,-0.0282499,0.0445593,0.0607462,0.0789741,-0.0626648,1.05535,0.0819558,0.0449116,538,995,-9.19917,6.37178
-679,29,-9.67468,-5.25232,0,0,0,0,0,0,0,-1,545,995,-9.67471,5.25231
-672,29,-13.8616,-0.281982,-0.0211898,0.026372,0.0391517,0.0483992,-0.043217,1.05832,0.0529228,0.0477243,552,995,-13.8617,0.281997
-665,29,-14.1954,0.187622,-0.0176058,0.0199015,0.0302547,0.0367435,-0.0344477,1.06285,0.0411094,0.0480254,559,995,-14.1954,-0.187637
-658,29,-14.3504,2.00916,0,0,0,0,0,0,0,-1,566,995,-14.3504,-2.00917
-651,29,-14.4284,1.9718,-0.0110883,0.0110062,0.0163075,0.019656,-0.0197381,1.08311,0.0227442,0.0367672,573,995,-14.4284,-1.97179
-644,29,-14.5176,1.92261,-0.00836698,0.00806552,0.0111863,0.0137287,-0.0140302,1.10215,0.0160269,0.0182078,580,995,-14.5176,-1.92263
-637,29,-14.5935,1.89893,-0.00609727,0.00518392,0.00661969,0.00824025,-0.0091536,1.13825,0.010047,0.0123289,587,995,-14.5935,-1.89895
-630,29,-14.6101,1.89374,-0.00450765,0.00321755,0.00276891,0.00410748,-0.00539758,1.25982,0.00550457,0.0106192,594,995,-14.6101,-1.89374
-623,29,-14.6047,1.85852,-0.00359985,0.00330807,9.31056e-05,0.00330932,-0.00360111,1.55732,0.00399092,0.0105976,601,995,-14.6047,-1.8585
-616,29,-14.5708,1.79004,-0.00276095,0.00264237,-0.00156646,0.00306365,-0.00318224,-1.30807,0.00360628,0.0116392,608,995,-14.5708,-1.79005
-609,29,-14.5699,1.75372,-0.00230857,0.00199446,-0.00262522,0.00323717,-0.00355129,-1.12867,0.00392071,0.016845,615,995,-14.57,-1.75369
-602,29,-14.5845,1.69318,-0.00257998,0.00171973,-0.00342102,0.00361033,-0.00447058,-1.06593,0.00467432,0.0195701,622,995,-14.5845,-1.69315
-595,29,-14.5677,1.58667,-0.00265845,0.0016176,-0.00401748,0.00403054,-0.00507139,-1.02993,0.00526644,0.0196612,629,995,-14.5677,-1.58665
-588,29,-14.6077,1.29999,-0.00269082,0.00160947,-0.00437445,0.00433363,-0.00541498,-1.01382,0.0056399,0.0247713,636,995,-14.6077,-1.29996
-581,29,-14.6658,1.07062,-0.00262642,0.00165842,-0.00448099,0.00448281,-0.00545081,-1.00839,0.00574425,0.0344767,643,995,-14.6658,-1.07063
-574,29,-14.6895,0.952209,-0.00254349,0.00195964,-0.00454755,0.00478249,-0.00536634,-1.01526,0.00586266,0.0314959,650,995,-14.6895,-0.952194
-567,29,-14.7116,0.877808,-0.00231729,0.00224773,-0.00432508,0.00485563,-0.00492519,-1.02819,0.00564701,0.0322595,657,995,-14.7116,-0.877816
-560,29,-14.6976,0.881897,-0.00181165,0.00259961,-0.00401153,0.00497188,-0.00418392,-1.03675,0.00529262,0.0355839,664,995,-14.6976,-0.881867
-553,29,-14.6835,0.857544,-0.000989318,0.00303407,-0.00373218,0.0052622,-0.00321745,-1.03258,0.00494294,0.0412111,671,995,-14.6835,-0.857534
-546,29,-14.6887,0.540161,0.000172826,0.00357,-0.00364242,0.00589043,-0.00214759,-1.00358,0.00480553,0.0438893,678,995,-14.6887,-0.540156
-539,29,-14.6788,0.676208,0.00175718,0.00425676,-0.00412145,0.00731374,-0.0012998,-0.932612,0.00536187,0.0408533,685,995,-14.6788,-0.676214
-532,29,-14.5493,0.702332,0.00341499,0.00564479,-0.00580505,0.010441,-0.00138125,-0.880271,0.00746383,0.0457207,692,995,-14.5493,-0.702337
-525,29,-14.5946,0.690796,0.00441582,0.00781713,-0.0089621,0.0152385,-0.00300555,-0.879164,0.0112949,0.0459674,699,995,-14.5946,-0.690819
-518,29,0,0,0,0,0,0,0,0,0,-1,706,995,0,0
-511,29,0,0,0,0,0,0,0,0,0,-1,713,995,0,0
-504,29,0,0,0,0,0,0,0,0,0,-1,720,995,0,0
-497,29,0,0,0,0,0,0,0,0,0,-1,727,995,0,0
-490,29,0,0,0,0,0,0,0,0,0,-1,734,995,0,0
-483,29,0,0,0,0,0,0,0,0,0,-1,741,995,0,0
-476,29,0,0,0,0,0,0,0,0,0,-1,748,995,0,0
-469,29,0,0,0,0,0,0,0,0,0,-1,755,995,0,0
-462,29,0,0,0,0,0,0,0,0,0,-1,762,995,0,0
-455,29,0,0,0,0,0,0,0,0,0,-1,769,995,0,0
-448,29,0,0,0,0,0,0,0,0,0,-1,776,995,0,0
-441,29,0,0,0,0,0,0,0,0,0,-1,783,995,0,0
-434,29,0,0,0,0,0,0,0,0,0,-1,790,995,0,0
-427,29,0,0,0,0,0,0,0,0,0,-1,797,995,0,0
-420,29,0,0,0,0,0,0,0,0,0,-1,804,995,0,0
-413,29,0,0,0,0,0,0,0,0,0,-1,811,995,0,0
-406,29,0,0,0,0,0,0,0,0,0,-1,818,995,0,0
-399,29,0,0,0,0,0,0,0,0,0,-1,825,995,0,0
-392,29,0,0,0,0,0,0,0,0,0,-1,832,995,0,0
-385,29,0,0,0,0,0,0,0,0,0,-1,839,995,0,0
-378,29,0,0,0,0,0,0,0,0,0,-1,846,995,0,0
-371,29,0,0,0,0,0,0,0,0,0,-1,853,995,0,0
-364,29,0,0,0,0,0,0,0,0,0,-1,860,995,0,0
-357,29,0,0,0,0,0,0,0,0,0,-1,867,995,0,0
-350,29,0,0,0,0,0,0,0,0,0,-1,874,995,0,0
-343,29,0,0,0,0,0,0,0,0,0,-1,881,995,0,0
-336,29,0,0,0,0,0,0,0,0,0,-1,888,995,0,0
-329,29,0,0,0,0,0,0,0,0,0,-1,895,995,0,0
-322,29,0,0,0,0,0,0,0,0,0,-1,902,995,0,0
-315,29,0,0,0,0,0,0,0,0,0,-1,909,995,0,0
-308,29,0,0,0,0,0,0,0,0,0,-1,916,995,0,0
-301,29,0,0,0,0,0,0,0,0,0,-1,923,995,0,0
-294,29,0,0,0,0,0,0,0,0,0,-1,930,995,0,0
-287,29,0,0,0,0,0,0,0,0,0,-1,937,995,0,0
-280,29,0,0,0,0,0,0,0,0,0,-1,944,995,0,0
-273,29,0,0,0,0,0,0,0,0,0,-1,951,995,0,0
-266,29,0,0,0,0,0,0,0,0,0,-1,958,995,0,0
-259,29,0,0,0,0,0,0,0,0,0,-1,965,995,0,0
-252,29,0,0,0,0,0,0,0,0,0,-1,972,995,0,0
-245,29,0,0,0,0,0,0,0,0,0,-1,979,995,0,0
-238,29,0,0,0,0,0,0,0,0,0,-1,986,995,0,0
-231,29,0,0,0,0,0,0,0,0,0,-1,993,995,0,0
-224,29,0,0,0,0,0,0,0,0,0,-1,1000,995,0,0
-217,29,0,0,0,0,0,0,0,0,0,-1,1007,995,0,0
-210,29,0,0,0,0,0,0,0,0,0,-1,1014,995,0,0
-203,29,0,0,0,0,0,0,0,0,0,-1,1021,995,0,0
-196,29,0,0,0,0,0,0,0,0,0,-1,1028,995,0,0
-189,29,0,0,0,0,0,0,0,0,0,-1,1035,995,0,0
-182,29,0,0,0,0,0,0,0,0,0,-1,1042,995,0,0
-175,29,0,0,0,0,0,0,0,0,0,-1,1049,995,0,0
-168,29,0,0,0,0,0,0,0,0,0,-1,1056,995,0,0
-161,29,0,0,0,0,0,0,0,0,0,-1,1063,995,0,0
-154,29,0,0,0,0,0,0,0,0,0,-1,1070,995,0,0
-147,29,0,0,0,0,0,0,0,0,0,-1,1077,995,0,0
-140,29,0,0,0,0,0,0,0,0,0,-1,1084,995,0,0
-133,29,0,0,0,0,0,0,0,0,0,-1,1091,995,0,0
-126,29,0,0,0,0,0,0,0,0,0,-1,1098,995,0,0
-119,29,0,0,0,0,0,0,0,0,0,-1,1105,995,0,0
-112,29,0,0,0,0,0,0,0,0,0,-1,1112,995,0,0
-105,29,0,0,0,0,0,0,0,0,0,-1,1119,995,0,0
-98,29,0,0,0,0,0,0,0,0,0,-1,1126,995,0,0
-91,29,0,0,0,0,0,0,0,0,0,-1,1133,995,0,0
-84,29,0,0,0,0,0,0,0,0,0,-1,1140,995,0,0
-77,29,0,0,0,0,0,0,0,0,0,-1,1147,995,0,0
-70,29,0,0,0,0,0,0,0,0,0,-1,1154,995,0,0
-63,29,0,0,0,0,0,0,0,0,0,-1,1161,995,0,0
-56,29,0,0,0,0,0,0,0,0,0,-1,1168,995,0,0
-49,29,0,0,0,0,0,0,0,0,0,-1,1175,995,0,0
-42,29,0,0,0,0,0,0,0,0,0,-1,1182,995,0,0
-35,29,0,0,0,0,0,0,0,0,0,-1,1189,995,0,0
-28,29,0,0,0,0,0,0,0,0,0,-1,1196,995,0,0
-21,29,0,0,0,0,0,0,0,0,0,-1,1203,995,0,0
-14,29,0,0,0,0,0,0,0,0,0,-1,1210,995,0,0
-7,29,0,0,0,0,0,0,0,0,0,-1,1217,995,0,0
0,29,0,0,0,0,0,0,0,0,0,-1,1224,995,0,0
7,29,0,0,0,0,0,0,0,0,0,-1,1231,995,0,0
14,29,0,0,0,0,0,0,0,0,0,-1,1238,995,0,0
21,29,0,0,0,0,0,0,0,0,0,-1,1245,995,0,0
28,29,0,0,0,0,0,0,0,0,0,-1,1252,995,0,0
35,29,0,0,0,0,0,0,0,0,0,-1,1259,995,0,0
42,29,0,0,0,0,0,0,0,0,0,-1,1266,995,0,0
49,29,0,0,0,0,0,0,0,0,0,-1,1273,995,0,0
56,29,0,0,0,0,0,0,0,0,0,-1,1280,995,0,0
63,29,0,0,0,0,0,0,0,0,0,-1,1287,995,0,0
70,29,0,0,0,0,0,0,0,0,0,-1,1294,995,0,0
77,29,0,0,0,0,0,0,0,0,0,-1,1301,995,0,0
84,29,0,0,0,0,0,0,0,0,0,-1,1308,995,0,0
91,29,0,0,0,0,0,0,0,0,0,-1,1315,995,0,0
98,29,0,0,0,0,0,0,0,0,0,-1,1322,995,0,0
105,29,0,0,0,0,0,0,0,0,0,-1,1329,995,0,0
112,29,0,0,0,0,0,0,0,0,0,-1,1336,995,0,0
119,29,0,0,0,0,0,0,0,0,0,-1,1343,995,0,0
126,29,0,0,0,0,0,0,0,0,0,-1,1350,995,0,0
133,29,0,0,0,0,0,0,0,0,0,-1,1357,995,0,0
140,29,0,0,0,0,0,0,0,0,0,-1,1364,995,0,0
147,29,0,0,0,0,0,0,0,0,0,-1,1371,995,0,0
154,29,0,0,0,0,0,0,0,0,0,-1,1378,995,0,0
161,29,0,0,0,0,0,0,0,0,0,-1,1385,995,0,0
168,29,0,0,0,0,0,0,0,0,0,-1,1392,995,0,0
175,29,0,0,0,0,0,0,0,0,0,-1,1399,995,0,0
182,29,0,0,0,0,0,0,0,0,0,-1,1406,995,0,0
189,29,0,0,0,0,0,0,0,0,0,-1,1413,995,0,0
196,29,0,0,0,0,0,0,0,0,0,-1,1420,995,0,0
203,29,0,0,0,0,0,0,0,0,0,-1,1427,995,0,0
210,29,0,0,0,0,0,0,0,0,0,-1,1434,995,0,0
217,29,0,0,0,0,0,0,0,0,0,-1,1441,995,0,0
224,29,0,0,0,0,0,0,0,0,0,-1,1448,995,0,0
231,29,0,0,0,0,0,0,0,0,0,-1,1455,995,0,0
238,29,0,0,0,0,0,0,0,0,0,-1,1462,995,0,0
245,29,0,0,0,0,0,0,0,0,0,-1,1469,995,0,0
252,29,0,0,0,0,0,0,0,0,0,-1,1476,995,0,0
259,29,0,0,0,0,0,0,0,0,0,-1,1483,995,0,0
266,29,0,0,0,0,0,0,0,0,0,-1,1490,995,0,0
273,29,0,0,0,0,0,0,0,0,0,-1,1497,995,0,0
280,29,0,0,0,0,0,0,0,0,0,-1,1504,995,0,0
287,29,0,0,0,0,0,0,0,0,0,-1,1511,995,0,0
294,29,0,0,0,0,0,0,0,0,0,-1,1518,995,0,0
301,29,0,0,0,0,0,0,0,0,0,-1,1525,995,0,0
308,29,0,0,0,0,0,0,0,0,0,-1,1532,995,0,0
315,29,0,0,0,0,0,0,0,0,0,-1,1539,995,0,0
322,29,0,0,0,0,0,0,0,0,0,-1,1546,995,0,0
329,29,0,0,0,0,0,0,0,0,0,-1,1553,995,0,0
336,29,0,0,0,0,0,0,0,0,0,-1,1560,995,0,0
343,29,0,0,0,0,0,0,0,0,0,-1,1567,995,0,0
350,29,0,0,0,0,0,0,0,0,0,-1,1574,995,0,0
357,29,0,0,0,0,0,0,0,0,0,-1,1581,995,0,0
364,29,0,0,0,0,0,0,0,0,0,-1,1588,995,0,0
371,29,0,0,0,0,0,0,0,0,0,-1,1595,995,0,0
378,29,0,0,0,0,0,0,0,0,0,-1,1602,995,0,0
385,29,0,0,0,0,0,0,0,0,0,-1,1609,995,0,0
392,29,0,0,0,0,0,0,0,0,0,-1,1616,995,0,0
399,29,0,0,0,0,0,0,0,0,0,-1,1623,995,0,0
406,29,0,0,0,0,0,0,0,0,0,-1,1630,995,0,0
413,29,0,0,0,0,0,0,0,0,0,-1,1637,995,0,0
420,29,0,0,0,0,0,0,0,0,0,-1,1644,995,0,0
427,29,0,0,0,0,0,0,0,0,0,-1,1651,995,0,0
434,29,0,0,0,0,0,0,0,0,0,-1,1658,995,0,0
441,29,0,0,0,0,0,0,0,0,0,-1,1665,995,0,0
448,29,0,0,0,0,0,0,0,0,0,-1,1672,995,0,0
455,29,0,0,0,0,0,0,0,0,0,-1,1679,995,0,0
462,29,0,0,0,0,0,0,0,0,0,-1,1686,995,0,0
469,29,0,0,0,0,0,0,0,0,0,-1,1693,995,0,0
476,29,0,0,0,0,0,0,0,0,0,-1,1700,995,0,0
483,29,0,0,0,0,0,0,0,0,0,-1,1707,995,0,0
490,29,0,0,0,0,0,0,0,0,0,-1,1714,995,0,0
497,29,0,0,0,0,0,0,0,0,0,-1,1721,995,0,0
504,29,0,0,0,0,0,0,0,0,0,-1,1728,995,0,0
511,29,0,0,0,0,0,0,0,0,0,-1,1735,995,0,0
518,29,0,0,0,0,0,0,0,0,0,-1,1742,995,0,0
525,29,0,0,0,0,0,0,0,0,0,-1,1749,995,0,0
532,29,0,0,0,0,0,0,0,0,0,-1,1756,995,0,0
539,29,0,0,0,0,0,0,0,0,0,-1,1763,995,0,0
546,29,0,0,0,0,0,0,0,0,0,-1,1770,995,0,0
553,29,0,0,0,0,0,0,0,0,0,-1,1777,995,0,0
560,29,0,0,0,0,0,0,0,0,0,-1,1784,995,0,0
567,29,0,0,0,0,0,0,0,0,0,-1,1791,995,0,0
574,29,0,0,0,0,0,0,0,0,0,-1,1798,995,0,0
581,29,0,0,0,0,0,0,0,0,0,-1,1805,995,0,0
588,29,0,0,0,0,0,0,0,0,0,-1,1812,995,0,0
595,29,0,0,0,0,0,0,0,0,0,-1,1819,995,0,0
602,29,0,0,0,0,0,0,0,0,0,-1,1826,995,0,0
609,29,0,0,0,0,0,0,0,0,0,-1,1833,995,0,0
616,29,0,0,0,0,0,0,0,0,0,-1,1840,995,0,0
623,29,0,0,0,0,0,0,0,0,0,-1,1847,995,0,0
630,29,0,0,0,0,0,0,0,0,0,-1,1854,995,0,0
637,29,0,0,0,0,0,0,0,0,0,-1,1861,995,0,0
644,29,22.0756,2.73706,0.00502774,-0.000122378,-0.00223289,0.00586101,-0.00095565,-0.357175,0.00426176,0.0437451,1868,995,22.0756,-2.73704
651,29,22.1633,2.75391,0.00442251,-0.00020271,-0.00176041,0.00501631,-0.000796507,-0.325322,0.00363888,0.044047,1875,995,22.1634,-2.75388
658,29,22.3948,2.84674,0.00355399,-0.000322749,-0.00119632,0.00389344,-0.0006622,-0.276478,0.00284219,0.0427234,1882,995,22.3948,-2.84676
665,29,22.5944,2.97119,0,0,0,0,0,0,0,-1,1889,995,22.5944,-2.97122
672,29,22.1971,2.88232,0.0011733,8.33693e-05,0.000875708,0.00165977,-0.000403098,0.507066,0.00126251,0.0380774,1896,995,22.1972,-2.88233
679,29,22.2257,2.88281,-0.000283039,0.000369599,0.00210915,0.00217753,-0.00209097,0.862147,0.00246459,0.0398293,1903,995,22.2257,-2.88283
686,29,22.2316,3.07874,-0.00152854,0.000599188,0.00310912,0.00282142,-0.00375077,0.950242,0.00380708,0.040053,1910,995,22.2316,-3.07875
693,29,22.1995,3.12537,-0.00247428,0.000783633,0.003818,0.00330565,-0.0049963,0.987033,0.00482615,0.0397329,1917,995,22.1994,-3.12538
700,29,22.1775,3.02948,-0.003239,0.000880464,0.00429031,0.00357986,-0.0059384,1.00919,0.00555132,0.0352575,1924,995,22.1774,-3.02947
707,29,22.1677,2.90643,-0.00382665,0.000980132,0.00446548,0.00364791,-0.00649443,1.03227,0.00593206,0.022636,1931,995,22.1677,-2.90644
714,29,22.2078,3.11499,-0.004201,0.00106912,0.00441003,0.00357137,-0.00670325,1.05469,0.00602321,0.0255661,1938,995,22.2078,-3.11498
721,29,21.9877,3.7608,0,0,0,0,0,0,0,-1,1945,995,21.9877,-3.76081
728,29,21.7644,3.94049,-0.00430997,0.00138949,0.00369363,0.00320494,-0.00612542,1.11397,0.00547414,0.0220985,1952,995,21.7644,-3.94052
735,29,21.6433,4.08392,-0.0042531,0.00161202,0.00279454,0.00273031,-0.00537139,1.19014,0.00475964,0.0136381,1959,995,21.6434,-4.08391
742,29,21.6407,4.13733,-0.00388378,0.00160527,0.00209608,0.00231414,-0.00459265,1.24468,0.00405932,0.0115421,1966,995,21.6407,-4.13732
749,29,21.6332,4.18634,-0.00369998,0.00228637,0.00105067,0.00246542,-0.00387903,1.402,0.00369315,0.012629,1973,995,21.6332,-4.18636
756,29,21.6086,4.25995,-0.00340748,0.0032683,-0.000374023,0.00328919,-0.00342837,-1.515,0.00387866,0.0117826,1980,995,21.6086,-4.25997
763,29,21.6104,4.31519,-0.00316525,0.00435336,-0.00182459,0.00477276,-0.00358464,-1.34487,0.00484137,0.0112177,1987,995,21.6104,-4.31521
770,29,21.5986,4.35846,-0.00322465,0.00605283,-0.00325391,0.0070803,-0.00425211,-1.26494,0.00661034,0.0119479,1994,995,21.5986,-4.35847
777,29,21.5764,4.44659,-0.00368998,0.00858994,-0.00463138,0.0101408,-0.00524085,-1.24767,0.00902955,0.0196935,2001,995,21.5764,-4.44662
784,29,21.4169,4.45575,-0.00468567,0.0117991,-0.00611703,0.013821,-0.00670754,-1.25157,0.012087,0.0390062,2008,995,21.4168,-4.45573
791,29,21.1444,4.45911,-0.00605759,0.0161095,-0.00804093,0.0187191,-0.00866716,-1.25698,0.0161626,0.0445485,2015,995,21.1444,-4.45908
798,29,21.0299,4.57397,0,0,0,0,0,0,0,-1,2022,995,21.03,-4.57398
805,29,21.4324,4.65784,0,0,0,0,0,0,0,-1,2029,995,21.4323,-4.65783
812,29,21.3821,4.46588,0,0,0,0,0,0,0,-1,2036,995,21.3821,-4.46587
-700,22,0,0,0,0,0,0,0,0,0,-1,524,1002,0,0
-693,22,-9.91827,-7.58807,-0.0336496,0.034565,0.0815086,0.0888147,-0.0878993,0.983553,0.102026,0.0447678,531,1002,-9.91825,7.5881
-686,22,-10.0114,-6.83032,-0.0299252,0.0273624,0.0663789,0.0710141,-0.0735768,0.989088,0.0834839,0.0450783,538,1002,-10.0114,6.83035
-679,22,-10.2358,-6.6778,0,0,0,0,0,0,0,-1,545,1002,-10.2358,6.67777
-672,22,-13.4324,-0.270691,-0.0222169,0.0166819,0.0419058,0.0434318,-0.0489669,1.00267,0.0533783,0.0472541,552,1002,-13.4325,0.270706
-665,22,-13.9937,0.0623169,-0.0183769,0.0129491,0.0320844,0.0329895,-0.0384174,1.01247,0.0412665,0.0492308,559,1002,-13.9937,-0.0623212
-658,22,-14.1488,2.14044,0,0,0,0,0,0,0,-1,566,1002,-14.1488,-2.14045
-651,22,-14.3398,2.02545,-0.0114777,0.00779692,0.0169898,0.0176925,-0.0213732,1.04339,0.0225879,0.0373153,573,1002,-14.3398,-2.02548
-644,22,-14.551,1.90863,-0.00861715,0.00599679,0.0114941,0.0123099,-0.0149302,1.06853,0.0157513,0.0183868,580,1002,-14.551,-1.90865
-637,22,-14.6289,1.8772,-0.0062282,0.00404956,0.00659624,0.00727241,-0.00945104,1.11632,0.00968256,0.0129569,587,1002,-14.6289,-1.87722
-630,22,-14.661,1.85333,-0.00450937,0.00273248,0.00249889,0.00351105,-0.00528794,1.26876,0.00511451,0.0105245,594,1002,-14.661,-1.85335
-623,22,-14.6556,1.82654,-0.00342445,0.00310692,-0.000398349,0.00313113,-0.00344865,-1.51011,0.00380031,0.00949203,601,1002,-14.6556,-1.82656
-616,22,-14.6119,1.77319,-0.002489,0.00247479,-0.00212052,0.00325732,-0.00327152,-1.21728,0.00376943,0.0146576,608,1002,-14.6119,-1.77321
-609,22,-14.6552,1.71985,-0.00189904,0.00178434,-0.00318311,0.00362014,-0.00373485,-1.04766,0.00424658,0.0231945,615,1002,-14.6552,-1.71986
-602,22,-14.7054,1.66772,-0.00204362,0.00156736,-0.00398138,0.0041335,-0.00460976,-0.998271,0.00505042,0.0236716,622,1002,-14.7054,-1.66773
-595,22,-14.6742,1.58179,-0.00206551,0.00150046,-0.00454805,0.00460253,-0.00516759,-0.972208,0.00564392,0.0213798,629,1002,-14.6742,-1.58177
-588,22,-14.6151,1.38507,-0.00202726,0.00150444,-0.00485383,0.00490365,-0.00542648,-0.959858,0.00596665,0.0292616,636,1002,-14.6151,-1.38509
-581,22,-14.689,1.03503,-0.00188681,0.00154559,-0.00487026,0.00499319,-0.00533441,-0.954797,0.00596373,0.0382795,643,1002,-14.689,-1.03505
-574,22,-14.7143,0.900696,-0.00179381,0.00184578,-0.00480104,0.00516034,-0.00510837,-0.966553,0.00592867,0.033753,650,1002,-14.7143,-0.900687
-567,22,-14.7077,0.868713,-0.0016007,0.00212151,-0.00440112,0.00503885,-0.00451804,-0.985431,0.0055204,0.0312178,657,1002,-14.7077,-0.868685
-560,22,-14.7207,0.867126,-0.00116643,0.00243793,-0.00385726,0.00489324,-0.00362175,-1.00394,0.00493437,0.0354332,664,1002,-14.7207,-0.867149
-553,22,-14.8127,1.05347,-0.000476574,0.00277821,-0.00328579,0.00481754,-0.0025159,-1.01533,0.00430291,0.0395914,671,1002,-14.8127,-1.05348
-546,22,-14.6875,1.02863,0.000487098,0.00313138,-0.00284084,0.00494268,-0.0013242,-1.00319,0.00381393,0.0403738,678,1002,-14.6875,-1.02861
-539,22,-14.7181,0.738647,0.00181529,0.00349614,-0.00296168,0.00573432,-0.000422895,-0.923647,0.00397136,0.0390741,685,1002,-14.7181,-0.738656
-532,22,-14.6753,0.6521,0.00316249,0.00447502,-0.00436348,0.00823131,-0.000593806,-0.860038,0.0056958,0.0437775,692,1002,-14.6753,-0.652105
-525,22,0,0,0,0,0,0,0,0,0,-1,699,1002,0,0
-518,22,0,0,0,0,0,0,0,0,0,-1,706,1002,0,0
-511,22,0,0,0,0,0,0,0,0,0,-1,713,1002,0,0
-504,22,0,0,0,0,0,0,0,0,0,-1,720,1002,0,0
-497,22,0,0,0,0,0,0,0,0,0,-1,727,1002,0,0
-490,22,0,0,0,0,0,0,0,0,0,-1,734,1002,0,0
-483,22,0,0,0,0,0,0,0,0,0,-1,741,1002,0,0
-476,22,0,0,0,0,0,0,0,0,0,-1,748,1002,0,0
-469,22,0,0,0,0,0,0,0,0,0,-1,755,1002,0,0
-462,22,0,0,0,0,0,0,0,0,0,-1,762,1002,0,0
-455,22,0,0,0,0,0,0,0,0,0,-1,769,1002,0,0
-448,22,0,0,0,0,0,0,0,0,0,-1,776,1002,0,0
-441,22,0,0,0,0,0,0,0,0,0,-1,783,1002,0,0
-434,22,0,0,0,0,0,0,0,0,0,-1,790,1002,0,0
-427,22,0,0,0,0,0,0,0,0,0,-1,797,1002,0,0
-420,22,0,0,0,0,0,0,0,0,0,-1,804,1002,0,0
-413,22,0,0,0,0,0,0,0,0,0,-1,811,1002,0,0
-406,22,0,0,0,0,0,0,0,0,0,-1,818,1002,0,0
-399,22,0,0,0,0,0,0,0,0,0,-1,825,1002,0,0
-392,22,0,0,0,0,0,0,0,0,0,-1,832,1002,0,0
-385,22,0,0,0,0,0,0,0,0,0,-1,839,1002,0,0
-378,22,0,0,0,0,0,0,0,0,0,-1,846,1002,0,0
-371,22,0,0,0,0,0,0,0,0,0,-1,853,1002,0,0
-364,22,0,0,0,0,0,0,0,0,0,-1,860,1002,0,0
-357,22,0,0,0,0,0,0,0,0,0,-1,867,1002,0,0
-350,22,0,0,0,0,0,0,0,0,0,-1,874,1002,0,0
-343,22,0,0,0,0,0,0,0,0,0,-1,881,1002,0,0
-336,22,0,0,0,0,0,0,0,0,0,-1,888,1002,0,0
-329,22,0,0,0,0,0,0,0,0,0,-1,895,1002,0,0
-322,22,0,0,0,0,0,0,0,0,0,-1,902,1002,0,0
-315,22,0,0,0,0,0,0,0,0,0,-1,909,1002,0,0
-308,22,0,0,0,0,0,0,0,0,0,-1,916,1002,0,0
-301,22,0,0,0,0,0,0,0,0,0,-1,923,1002,0,0
-294,22,0,0,0,0,0,0,0,0,0,-1,930,1002,0,0
-287,22,0,0,0,0,0,0,0,0,0,-1,937,1002,0,0
-280,22,0,0,0,0,0,0,0,0,0,-1,944,1002,0,0
-273,22,0,0,0,0,0,0,0,0,0,-1,951,1002,0,0
-266,22,0,0,0,0,0,0,0,0,0,-1,958,1002,0,0
-259,22,0,0,0,0,0,0,0,0,0,-1,965,1002,0,0
-252,22,0,0,0,0,0,0,0,0,0,-1,972,1002,0,0
-245,22,0,0,0,0,0,0,0,0,0,-1,979,1002,0,0
-238,22,0,0,0,0,0,0,0,0,0,-1,986,1002,0,0
-231,22,0,0,0,0,0,0,0,0,0,-1,993,1002,0,0
-224,22,0,0,0,0,0,0,0,0,0,-1,1000,1002,0,0
-217,22,0,0,0,0,0,0,0,0,0,-1,1007,1002,0,0
-210,22,0,0,0,0,0,0,0,0,0,-1,1014,1002,0,0
-203,22,0,0,0,0,0,0,0,0,0,-1,1021,1002,0,0
-196,22,0,0,0,0,0,0,0,0,0,-1,1028,1002,0,0
-189,22,0,0,0,0,0,0,0,0,0,-1,1035,1002,0,0
-182,22,0,0,0,0,0,0,0,0,0,-1,1042,1002,0,0
-175,22,0,0,0,0,0,0,0,0,0,-1,1049,1002,0,0
-168,22,0,0,0,0,0,0,0,0,0,-1,1056,1002,0,0
-161,22,0,0,0,0,0,0,0,0,0,-1,1063,1002,0,0
-154,22,0,0,0,0,0,0,0,0,0,-1,1070,1002,0,0
-147,22,0,0,0,0,0,0,0,0,0,-1,1077,1002,0,0
-140,22,0,0,0,0,0,0,0,0,0,-1,1084,1002,0,0
-133,22,0,0,0,0,0,0,0,0,0,-1,1091,1002,0,0
-126,22,0,0,0,0,0,0,0,0,0,-1,1098,1002,0,0
-119,22,0,0,0,0,0,0,0,0,0,-1,1105,1002,0,0
-112,22,0,0,0,0,0,0,0,0,0,-1,1112,1002,0,0
-105,22,0,0,0,0,0,0,0,0,0,-1,1119,1002,0,0
-98,22,0,0,0,0,0,0,0,0,0,-1,1126,1002,0,0
-91,22,0,0,0,0,0,0,0,0,0,-1,1133,1002,0,0
-84,22,0,0,0,0,0,0,0,0,0,-1,1140,1002,0,0
-77,22,0,0,0,0,0,0,0,0,0,-1,1147,1002,0,0
-70,22,0,0,0,0,0,0,0,0,0,-1,1154,1002,0,0
-63,22,0,0,0,0,0,0,0,0,0,-1,1161,1002,0,0
-56,22,0,0,0,0,0,0,0,0,0,-1,1168,1002,0,0
-49,22,0,0,0,0,0,0,0,0,0,-1,1175,1002,0,0
-42,22,0,0,0,0,0,0,0,0,0,-1,1182,1002,0,0
-35,22,0,0,0,0,0,0,0,0,0,-1,1189,1002,0,0
-28,22,0,0,0,0,0,0,0,0,0,-1,1196,1002,0,0
-21,22,0,0,0,0,0,0,0,0,0,-1,1203,1002,0,0
-14,22,0,0,0,0,0,0,0,0,0,-1,1210,1002,0,0
-7,22,0,0,0,0,0,0,0,0,0,-1,1217,1002,0,0
0,22,0,0,0,0,0,0,0,0,0,-1,1224,1002,0,0
7,22,0,0,0,0,0,0,0,0,0,-1,1231,1002,0,0
14,22,0,0,0,0,0,0,0,0,0,-1,1238,1002,0,0
21,22,0,0,0,0,0,0,0,0,0,-1,1245,1002,0,0
28,22,0,0,0,0,0,0,0,0,0,-1,1252,1002,0,0
35,22,0,0,0,0,0,0,0,0,0,-1,1259,1002,0,0
42,22,0,0,0,0,0,0,0,0,0,-1,1266,1002,0,0
49,22,0,0,0,0,0,0,0,0,0,-1,1273,1002,0,0
56,22,0,0,0,0,0,0,0,0,0,-1,1280,1002,0,0
63,22,0,0,0,0,0,0,0,0,0,-1,1287,1002,0,0
70,22,0,0,0,0,0,0,0,0,0,-1,1294,1002,0,0
77,22,0,0,0,0,0,0,0,0,0,-1,1301,1002,0,0
84,22,0,0,0,0,0,0,0,0,0,-1,1308,1002,0,0
91,22,0,0,0,0,0,0,0,0,0,-1,1315,1002,0,0
98,22,0,0,0,0,0,0,0,0,0,-1,1322,1002,0,0
105,22,0,0,0,0,0,0,0,0,0,-1,1329,1002,0,0
112,22,0,0,0,0,0,0,0,0,0,-1,1336,1002,0,0
119,22,0,0,0,0,0,0,0,0,0,-1,1343,1002,0,0
126,22,0,0,0,0,0,0,0,0,0,-1,1350,1002,0,0
133,22,0,0,0,0,0,0,0,0,0,-1,1357,1002,0,0
140,22,0,0,0,0,0,0,0,0,0,-1,1364,1002,0,0
147,22,0,0,0,0,0,0,0,0,0,-1,1371,1002,0,0
154,22,0,0,0,0,0,0,0,0,0,-1,1378,1002,0,0
161,22,0,0,0,0,0,0,0,0,0,-1,1385,1002,0,0
168,22,0,0,0,0,0,0,0,0,0,-1,1392,1002,0,0
175,22,0,0,0,0,0,0,0,0,0,-1,1399,1002,0,0
182,22,0,0,0,0,0,0,0,0,0,-1,1406,1002,0,0
189,22,0,0,0,0,0,0,0,0,0,-1,1413,1002,0,0
196,22,0,0,0,0,0,0,0,0,0,-1,1420,1002,0,0
203,22,0,0,0,0,0,0,0,0,0,-1,1427,1002,0,0
210,22,0,0,0,0,0,0,0,0,0,-1,1434,1002,0,0
217,22,0,0,0,0,0,0,0,0,0,-1,1441,1002,0,0
224,22,0,0,0,0,0,0,0,0,0,-1,1448,1002,0,0
231,22,0,0,0,0,0,0,0,0,0,-1,1455,1002,0,0
238,22,0,0,0,0,0,0,0,0,0,-1,1462,1002,0,0
245,22,0,0,0,0,0,0,0,0,0,-1,1469,1002,0,0
252,22,0,0,0,0,0,0,0,0,0,-1,1476,1002,0,0
259,22,0,0,0,0,0,0,0,0,0,-1,1483,1002,0,0
266,22,0,0,0,0,0,0,0,0,0,-1,1490,1002,0,0
273,22,0,0,0,0,0,0,0,0,0,-1,1497,1002,0,0
280,22,0,0,0,0,0,0,0,0,0,-1,1504,1002,0,0
287,22,0,0,0,0,0,0,0,0,0,-1,1511,1002,0,0
294,22,0,0,0,0,0,0,0,0,0,-1,1518,1002,0,0
301,22,0,0,0,0,0,0,0,0,0,-1,1525,1002,0,0
308,22,0,0,0,0,0,0,0,0,0,-1,1532,1002,0,0
315,22,0,0,0,0,0,0,0,0,0,-1,1539,1002,0,0
322,22,0,0,0,0,0,0,0,0,0,-1,1546,1002,0,0
329,22,0,0,0,0,0,0,0,0,0,-1,1553,1002,0,0
336,22,0,0,0,0,0,0,0,0,0,-1,1560,1002,0,0
343,22,0,0,0,0,0,0,0,0,0,-1,1567,1002,0,0
350,22,0,0,0,0,0,0,0,0,0,-1,1574,1002,0,0
357,22,0,0,0,0,0,0,0,0,0,-1,1581,1002,0,0
364,22,0,0,0,0,0,0,0,0,0,-1,1588,1002,0,0
371,22,0,0,0,0,0,0,0,0,0,-1,1595,1002,0,0
378,22,0,0,0,0,0,0,0,0,0,-1,1602,1002,0,0
385,22,0,0,0,0,0,0,0,0,0,-1,1609,1002,0,0
392,22,0,0,0,0,0,0,0,0,0,-1,1616,1002,0,0
399,22,0,0,0,0,0,0,0,0,0,-1,1623,1002,0,0
406,22,0,0,0,0,0,0,0,0,0,-1,1630,1002,0,0
413,22,0,0,0,0,0,0,0,0,0,-1,1637,1002,0,0
420,22,0,0,0,0,0,0,0,0,0,-1,1644,1002,0,0
427,22,0,0,0,0,0,0,0,0,0,-1,1651,1002,0,0
434,22,0,0,0,0,0,0,0,0,0,-1,1658,1002,0,0
441,22,0,0,0,0,0,0,0,0,0,-1,1665,1002,0,0
448,22,0,0,0,0,0,0,0,0,0,-1,1672,1002,0,0
455,22,0,0,0,0,0,0,0,0,0,-1,1679,1002,0,0
462,22,0,0,0,0,0,0,0,0,0,-1,1686,1002,0,0
469,22,0,0,0,0,0,0,0,0,0,-1,1693,1002,0,0
476,22,0,0,0,0,0,0,0,0,0,-1,1700,1002,0,0
483,22,0,0,0,0,0,0,0,0,0,-1,1707,1002,0,0
490,22,0,0,0,0,0,0,0,0,0,-1,1714,1002,0,0
497,22,0,0,0,0,0,0,0,0,0,-1,1721,1002,0,0
504,22,0,0,0,0,0,0,0,0,0,-1,1728,1002,0,0
511,22,0,0,0,0,0,0,0,0,0,-1,1735,1002,0,0
518,22,0,0,0,0,0,0,0,0,0,-1,1742,1002,0,0
525,22,0,0,0,0,0,0,0,0,0,-1,1749,1002,0,0
532,22,0,0,0,0,0,0,0,0,0,-1,1756,1002,0,0
539,22,0,0,0,0,0,0,0,0,0,-1,1763,1002,0,0
546,22,0,0,0,0,0,0,0,0,0,-1,1770,1002,0,0
553,22,0,0,0,0,0,0,0,0,0,-1,1777,1002,0,0
560,22,0,0,0,0,0,0,0,0,0,-1,1784,1002,0,0
567,22,0,0,0,0,0,0,0,0,0,-1,1791,1002,0,0
574,22,0,0,0,0,0,0,0,0,0,-1,1798,1002,0,0
581,22,0,0,0,0,0,0,0,0,0,-1,1805,1002,0,0
588,22,0,0,0,0,0,0,0,0,0,-1,1812,1002,0,0
595,22,0,0,0,0,0,0,0,0,0,-1,1819,1002,0,0
602,22,0,0,0,0,0,0,0,0,0,-1,1826,1002,0,0
609,22,0,0,0,0,0,0,0,0,0,-1,1833,1002,0,0
616,22,0,0,0,0,0,0,0,0,0,-1,1840,1002,0,0
623,22,0,0,0,0,0,0,0,0,0,-1,1847,1002,0,0
630,22,0,0,0,0,0,0,0,0,0,-1,1854,1002,0,0
637,22,0,0,0,0,0,0,0,0,0,-1,1861,1002,0,0
644,22,22.2087,2.67859,0.00469735,0.000226072,-0.00184398,0.0053597,-0.000436277,-0.344844,0.00372708,0.0424995,1868,1002,22.2087,-2.6786
651,22,22.1995,2.6416,0.00411837,-0.000139286,-0.0012423,0.00445434,-0.000475256,-0.264123,0.00313999,0.0429077,1875,1002,22.1994,-2.64162
658,22,22.3263,2.68921,0.00329759,-0.000441388,-0.000702034,0.00342506,-0.000568857,-0.179614,0.00249471,0.0407534,1882,1002,22.3263,-2.68921
665,22,22.2435,2.91858,0.00234614,-0.000480772,6.98296e-05,0.00234787,-0.000482496,0.0246816,0.00174841,0.0385735,1889,1002,22.2435,-2.91859
672,22,22.1655,2.74304,0.00123651,-0.000290032,0.00112286,0.00183095,-0.000884478,0.486893,0.00159918,0.0394606,1896,1002,22.1655,-2.74304
679,22,22.2257,2.62604,-5.99767e-05,-9.10843e-05,0.00228856,0.00221308,-0.00236414,0.782,0.00264314,0.0404337,1903,1002,22.2257,-2.62603
686,22,22.2473,2.80981,-0.00118143,8.38934e-05,0.00324683,0.00275912,-0.00385666,0.88162,0.00383711,0.0408975,1910,1002,22.2473,-2.80979
693,22,22.2128,2.92334,-0.00206119,0.000227903,0.00394449,0.00319055,-0.00502383,0.926602,0.00478178,0.0383089,1917,1002,22.2128,-2.92336
700,22,22.1932,2.8858,-0.00278103,0.000312203,0.00441963,0.00344801,-0.00591684,0.95371,0.00546907,0.0334774,1924,1002,22.1933,-2.8858
707,22,22.1558,2.89142,-0.00332877,0.000411876,0.00460589,0.0035127,-0.0064296,0.978263,0.00582195,0.0281727,1931,1002,22.1558,-2.8914
714,22,22.1885,3.03723,-0.00369658,0.000536629,0.00456187,0.00344901,-0.00660896,1.00261,0.00590172,0.0268319,1938,1002,22.1885,-3.03725
721,22,22.2821,3.22369,0,0,0,0,0,0,0,-1,1945,1002,22.2821,-3.22366
728,22,21.6727,4.01056,0,0,0,0,0,0,0,-1,1952,1002,21.6727,-4.01058
735,22,21.7109,4.0882,-0.00402745,0.00123442,0.00300883,0.00260034,-0.00539337,1.14464,0.00470814,0.013988,1959,1002,21.7109,-4.08819
742,22,21.7231,4.14948,-0.0039154,0.00132601,0.00236199,0.00223335,-0.00482274,1.20404,0.00416427,0.014159,1966,1002,21.7232,-4.14948
749,22,21.7003,4.19098,-0.00403073,0.00215954,0.0014406,0.00247838,-0.00434956,1.35299,0.00399115,0.0112721,1973,1002,21.7003,-4.19101
756,22,21.6871,4.23352,-0.0040859,0.0033992,0.000138296,0.00340176,-0.00408845,1.55233,0.00433053,0.0158905,1980,1002,21.6871,-4.23352
763,22,21.6644,4.31152,-0.00429904,0.00476329,-0.00118877,0.00491663,-0.00445239,-1.44251,0.00541142,0.0169946,1987,1002,21.6644,-4.31155
770,22,21.6573,4.35132,-0.00492706,0.00682821,-0.0024682,0.00732542,-0.00542427,-1.37201,0.00738826,0.0113585,1994,1002,21.6573,-4.35133
777,22,21.6233,4.40027,-0.00607951,0.00985562,-0.00355936,0.0106145,-0.00683841,-1.36073,0.0101548,0.0196322,2001,1002,21.6233,-4.40028
784,22,21.4071,4.28961,-0.00784875,0.0136348,-0.00459911,0.014578,-0.0087919,-1.36853,0.0136298,0.0405558,2008,1002,21.4071,-4.28962
791,22,21.1162,4.54065,0,0,0,0,0,0,0,-1,2015,1002,21.1163,-4.54068
798,22,19.5107,7.5036,0,0,0,0,0,0,0,-1,2022,1002,19.5108,-7.50357
805,22,21.6411,5.2688,0,0,0,0,0,0,0,-1,2029,1002,21.6411,-5.2688
812,22,18.6997,6.67957,0,0,0,0,0,0,0,-1,2036,1002,18.6997,-6.67955
-700,15,0,0,0,0,0,0,0,0,0,-1,524,1009,0,0
-693,15,-10.5168,-7.9278,0,0,0,0,0,0,0,-1,531,1009,-10.5169,7.92779
-686,15,-10.625,-7.02179,-0.0317227,0.0119653,0.0711228,0.064523,-0.0842804,0.934391,0.0861637,0.0443747,538,1009,-10.625,7.0218
-679,15,-10.7397,-6.21198,-0.0273889,0.00981864,0.0568318,0.0510142,-0.0685844,0.943575,0.0692982,0.0486643,545,1009,-10.7397,6.21197
-672,15,-10.9393,-5.50769,0,0,0,0,0,0,0,-1,552,1009,-10.9393,5.50768
-665,15,-13.7606,-0.0914307,0,0,0,0,0,0,0,-1,559,1009,-13.7606,0.0914466
-658,15,-14.2642,1.87787,0,0,0,0,0,0,0,-1,566,1009,-14.2642,-1.87788
-651,15,-14.4365,1.86438,-0.0117592,0.00507527,0.0177403,0.0162939,-0.0229778,1.00691,0.0227827,0.035916,573,1009,-14.4365,-1.86441
-644,15,-14.6503,1.86127,-0.00878214,0.00424908,0.0118887,0.0112906,-0.0158236,1.03607,0.0157272,0.0195072,580,1009,-14.6503,-1.86124
-637,15,-14.648,1.88245,-0.00627876,0.00313537,0.00668388,0.00660331,-0.0097467,1.09218,0.00949766,0.0147413,587,1009,-14.648,-1.88246
-630,15,-14.6675,1.81818,-0.00443908,0.00240142,0.0023636,0.00313866,-0.00517631,1.26845,0.00484846,0.0106405,594,1009,-14.6675,-1.81817
-623,15,-14.69,1.78931,-0.00323618,0.00295035,-0.000706238,0.00302995,-0.00331578,-1.45856,0.00366495,0.00895991,601,1009,-14.69,-1.78932
-616,15,-14.6859,1.76453,-0.00221827,0.00231263,-0.00254435,0.00345393,-0.00335957,-1.14914,0.00393391,0.0136424,608,1009,-14.6859,-1.7645
-609,15,-14.712,1.76172,-0.00151622,0.00158791,-0.00360944,0.00396484,-0.00389314,-0.988448,0.00453687,0.019635,615,1009,-14.712,-1.7617
-602,15,-14.6862,1.70251,-0.00156143,0.00143054,-0.00439975,0.00458168,-0.00471257,-0.949275,0.00536621,0.0190974,622,1009,-14.6862,-1.70251
-595,15,-14.6823,1.39398,-0.00156114,0.00138737,-0.00492003,0.00504928,-0.00522305,-0.930963,0.00593101,0.0234724,629,1009,-14.6822,-1.394
-588,15,-14.6437,1.10779,-0.00146906,0.0013854,-0.00515017,0.00530245,-0.00538611,-0.920568,0.0061711,0.0288317,636,1009,-14.6437,-1.10777
-581,15,-14.6803,0.861023,-0.00127579,0.00137497,-0.00505646,0.00527687,-0.00517769,-0.913573,0.00603603,0.0376843,643,1009,-14.6803,-0.861013
-574,15,-14.715,0.865723,-0.00119359,0.00163387,-0.00484904,0.00527107,-0.00483079,-0.927241,0.00583415,0.035176,650,1009,-14.715,-0.86571
-567,15,-14.7777,0.924744,-0.00104162,0.00185685,-0.00428187,0.00492809,-0.00411286,-0.948576,0.00522686,0.0340732,657,1009,-14.7777,-0.92474
-560,15,-14.7789,0.994568,-0.000687046,0.00207928,-0.00351061,0.00446938,-0.00307715,-0.973057,0.00438163,0.0379289,664,1009,-14.779,-0.994581
-553,15,-14.8109,1.06781,-0.000115985,0.00225684,-0.00264301,0.00396751,-0.00182666,-0.996362,0.00342053,0.0397809,671,1009,-14.8109,-1.06782
-546,15,-14.7474,1.12421,0.000690155,0.00234736,-0.00182267,0.00352094,-0.000483423,-0.998738,0.00252391,0.0394191,678,1009,-14.7474,-1.12421
-539,15,-14.7416,0.909729,0.00184442,0.00229694,-0.00151498,0.00360246,0.0005389,-0.859525,0.00224369,0.0391304,685,1009,-14.7416,-0.909708
-532,15,-14.8008,0.788147,0.00304131,0.00270961,-0.00244881,0.00532988,0.000421043,-0.751587,0.00342155,0.0431373,692,1009,-14.8008,-0.788168
-525,15,0,0,0,0,0,0,0,0,0,-1,699,1009,0,0
-518,15,0,0,0,0,0,0,0,0,0,-1,706,1009,0,0
-511,15,0,0,0,0,0,0,0,0,0,-1,713,1009,0,0
-504,15,0,0,0,0,0,0,0,0,0,-1,720,1009,0,0
-497,15,0,0,0,0,0,0,0,0,0,-1,727,1009,0,0
-490,15,0,0,0,0,0,0,0,0,0,-1,734,1009,0,0
-483,15,0,0,0,0,0,0,0,0,0,-1,741,1009,0,0
-476,15,0,0,0,0,0,0,0,0,0,-1,748,1009,0,0
-469,15,0,0,0,0,0,0,0,0,0,-1,755,1009,0,0
-462,15,0,0,0,0,0,0,0,0,0,-1,762,1009,0,0
-455,15,0,0,0,0,0,0,0,0,0,-1,769,1009,0,0
-448,15,0,0,0,0,0,0,0,0,0,-1,776,1009,0,0
-441,15,0,0,0,0,0,0,0,0,0,-1,783,1009,0,0
-434,15,0,0,0,0,0,0,0,0,0,-1,790,1009,0,0
-427,15,0,0,0,0,0,0,0,0,0,-1,797,1009,0,0
-420,15,0,0,0,0,0,0,0,0,0,-1,804,1009,0,0
-413,15,0,0,0,0,0,0,0,0,0,-1,811,1009,0,0
-406,15,0,0,0,0,0,0,0,0,0,-1,818,1009,0,0
-399,15,0,0,0,0,0,0,0,0,0,-1,825,1009,0,0
-392,15,0,0,0,0,0,0,0,0,0,-1,832,1009,0,0
-385,15,0,0,0,0,0,0,0,0,0,-1,839,1009,0,0
-378,15,0,0,0,0,0,0,0,0,0,-1,846,1009,0,0
-371,15,0,0,0,0,0,0,0,0,0,-1,853,1009,0,0
-364,15,0,0,0,0,0,0,0,0,0,-1,860,1009,0,0
-357,15,0,0,0,0,0,0,0,0,0,-1,867,1009,0,0
-350,15,0,0,0,0,0,0,0,0,0,-1,874,1009,0,0
-343,15,0,0,0,0,0,0,0,0,0,-1,881,1009,0,0
-336,15,0,0,0,0,0,0,0,0,0,-1,888,1009,0,0
-329,15,0,0,0,0,0,0,0,0,0,-1,895,1009,0,0
-322,15,0,0,0,0,0,0,0,0,0,-1,902,1009,0,0
-315,15,0,0,0,0,0,0,0,0,0,-1,909,1009,0,0
-308,15,0,0,0,0,0,0,0,0,0,-1,916,1009,0,0
-301,15,0,0,0,0,0,0,0,0,0,-1,923,1009,0,0
-294,15,0,0,0,0,0,0,0,0,0,-1,930,1009,0,0
-287,15,0,0,0,0,0,0,0,0,0,-1,937,1009,0,0
-280,15,0,0,0,0,0,0,0,0,0,-1,944,1009,0,0
-273,15,0,0,0,0,0,0,0,0,0,-1,951,1009,0,0
-266,15,0,0,0,0,0,0,0,0,0,-1,958,1009,0,0
-259,15,0,0,0,0,0,0,0,0,0,-1,965,1009,0,0
-252,15,0,0,0,0,0,0,0,0,0,-1,972,1009,0,0
-245,15,0,0,0,0,0,0,0,0,0,-1,979,1009,0,0
-238,15,0,0,0,0,0,0,0,0,0,-1,986,1009,0,0
-231,15,0,0,0,0,0,0,0,0,0,-1,993,1009,0,0
-224,15,0,0,0,0,0,0,0,0,0,-1,1000,1009,0,0
-217,15,0,0,0,0,0,0,0,0,0,-1,1007,1009,0,0
-210,15,0,0,0,0,0,0,0,0,0,-1,1014,1009,0,0
-203,15,0,0,0,0,0,0,0,0,0,-1,1021,1009,0,0
-196,15,0,0,0,0,0,0,0,0,0,-1,1028,1009,0,0
-189,15,0,0,0,0,0,0,0,0,0,-1,1035,1009,0,0
-182,15,0,0,0,0,0,0,0,0,0,-1,1042,1009,0,0
-175,15,0,0,0,0,0,0,0,0,0,-1,1049,1009,0,0
-168,15,0,0,0,0,0,0,0,0,0,-1,1056,1009,0,0
-161,15,0,0,0,0,0,0,0,0,0,-1,1063,1009,0,0
-154,15,0,0,0,0,0,0,0,0,0,-1,1070,1009,0,0
-147,15,0,0,0,0,0,0,0,0,0,-1,1077,1009,0,0
-140,15,0,0,0,0,0,0,0,0,0,-1,1084,1009,0,0
-133,15,0,0,0,0,0,0,0,0,0,-1,1091,1009,0,0
-126,15,0,0,0,0,0,0,0,0,0,-1,1098,1009,0,0
-119,15,0,0,0,0,0,0,0,0,0,-1,1105,1009,0,0
-112,15,0,0,0,0,0,0,0,0,0,-1,1112,1009,0,0
-105,15,0,0,0,0,0,0,0,0,0,-1,1119,1009,0,0
-98,15,0,0,0,0,0,0,0,0,0,-1,1126,1009,0,0
-91,15,0,0,0,0,0,0,0,0,0,-1,1133,1009,0,0
-84,15,0,0,0,0,0,0,0,0,0,-1,1140,1009,0,0
-77,15,0,0,0,0,0,0,0,0,0,-1,1147,1009,0,0
-70,15,0,0,0,0,0,0,0,0,0,-1,1154,1009,0,0
-63,15,0,0,0,0,0,0,0,0,0,-1,1161,1009,0,0
-56,15,0,0,0,0,0,0,0,0,0,-1,1168,1009,0,0
-49,15,0,0,0,0,0,0,0,0,0,-1,1175,1009,0,0
-42,15,0,0,0,0,0,0,0,0,0,-1,1182,1009,0,0
-35,15,0,0,0,0,0,0,0,0,0,-1,1189,1009,0,0
-28,15,0,0,0,0,0,0,0,0,0,-1,1196,1009,0,0
-21,15,0,0,0,0,0,0,0,0,0,-1,1203,1009,0,0
-14,15,0,0,0,0,0,0,0,0,0,-1,1210,1009,0,0
-7,15,0,0,0,0,0,0,0,0,0,-1,1217,1009,0,0
0,15,0,0,0,0,0,0,0,0,0,-1,1224,1009,0,0
7,15,0,0,0,0,0,0,0,0,0,-1,1231,1009,0,0
14,15,0,0,0,0,0,0,0,0,0,-1,1238,1009,0,0
21,15,0,0,0,0,0,0,0,0,0,-1,1245,1009,0,0
28,15,0,0,0,0,0,0,0,0,0,-1,1252,1009,0,0
35,15,0,0,0,0,0,0,0,0,0,-1,1259,1009,0,0
42,15,0,0,0,0,0,0,0,0,0,-1,1266,1009,0,0
49,15,0,0,0,0,0,0,0,0,0,-1,1273,1009,0,0
56,15,0,0,0,0,0,0,0,0,0,-1,1280,1009,0,0
63,15,0,0,0,0,0,0,0,0,0,-1,1287,1009,0,0
70,15,0,0,0,0,0,0,0,0,0,-1,1294,1009,0,0
77,15,0,0,0,0,0,0,0,0,0,-1,1301,1009,0,0
84,15,0,0,0,0,0,0,0,0,0,-1,1308,1009,0,0
91,15,0,0,0,0,0,0,0,0,0,-1,1315,1009,0,0
98,15,0,0,0,0,0,0,0,0,0,-1,1322,1009,0,0
105,15,0,0,0,0,0,0,0,0,0,-1,1329,1009,0,0
112,15,0,0,0,0,0,0,0,0,0,-1,1336,1009,0,0
119,15,0,0,0,0,0,0,0,0,0,-1,1343,1009,0,0
126,15,0,0,0,0,0,0,0,0,0,-1,1350,1009,0,0
133,15,0,0,0,0,0,0,0,0,0,-1,1357,1009,0,0
140,15,0,0,0,0,0,0,0,0,0,-1,1364,1009,0,0
147,15,0,0,0,0,0,0,0,0,0,-1,1371,1009,0,0
154,15,0,0,0,0,0,0,0,0,0,-1,1378,1009,0,0
161,15,0,0,0,0,0,0,0,0,0,-1,1385,1009,0,0
168,15,0,0,0,0,0,0,0,0,0,-1,1392,1009,0,0
175,15,0,0,0,0,0,0,0,0,0,-1,1399,1009,0,0
182,15,0,0,0,0,0,0,0,0,0,-1,1406,1009,0,0
189,15,0,0,0,0,0,0,0,0,0,-1,1413,1009,0,0
196,15,0,0,0,0,0,0,0,0,0,-1,1420,1009,0,0
203,15,0,0,0,0,0,0,0,0,0,-1,1427,1009,0,0
210,15,0,0,0,0,0,0,0,0,0,-1,1434,1009,0,0
217,15,0,0,0,0,0,0,0,0,0,-1,1441,1009,0,0
224,15,0,0,0,0,0,0,0,0,0,-1,1448,1009,0,0
231,15,0,0,0,0,0,0,0,0,0,-1,1455,1009,0,0
238,15,0,0,0,0,0,0,0,0,0,-1,1462,1009,0,0
245,15,0,0,0,0,0,0,0,0,0,-1,1469,1009,0,0
252,15,0,0,0,0,0,0,0,0,0,-1,1476,1009,0,0
259,15,0,0,0,0,0,0,0,0,0,-1,1483,1009,0,0
266,15,0,0,0,0,0,0,0,0,0,-1,1490,1009,0,0
273,15,0,0,0,0,0,0,0,0,0,-1,1497,1009,0,0
280,15,0,0,0,0,0,0,0,0,0,-1,1504,1009,0,0
287,15,0,0,0,0,0,0,0,0,0,-1,1511,1009,0,0
294,15,0,0,0,0,0,0,0,0,0,-1,1518,1009,0,0
301,15,0,0,0,0,0,0,0,0,0,-1,1525,1009,0,0
308,15,0,0,0,0,0,0,0,0,0,-1,1532,1009,0,0
315,15,0,0,0,0,0,0,0,0,0,-1,1539,1009,0,0
322,15,0,0,0,0,0,0,0,0,0,-1,1546,1009,0,0
329,15,0,0,0,0,0,0,0,0,0,-1,1553,1009,0,0
336,15,0,0,0,0,0,0,0,0,0,-1,1560,1009,0,0
343,15,0,0,0,0,0,0,0,0,0,-1,1567,1009,0,0
350,15,0,0,0,0,0,0,0,0,0,-1,1574,1009,0,0
357,15,0,0,0,0,0,0,0,0,0,-1,1581,1009,0,0
364,15,0,0,0,0,0,0,0,0,0,-1,1588,1009,0,0
371,15,0,0,0,0,0,0,0,0,0,-1,1595,1009,0,0
378,15,0,0,0,0,0,0,0,0,0,-1,1602,1009,0,0
385,15,0,0,0,0,0,0,0,0,0,-1,1609,1009,0,0
392,15,0,0,0,0,0,0,0,0,0,-1,1616,1009,0,0
399,15,0,0,0,0,0,0,0,0,0,-1,1623,1009,0,0
406,15,0,0,0,0,0,0,0,0,0,-1,1630,1009,0,0
413,15,0,0,0,0,0,0,0,0,0,-1,1637,1009,0,0
420,15,0,0,0,0,0,0,0,0,0,-1,1644,1009,0,0
427,15,0,0,0,0,0,0,0,0,0,-1,1651,1009,0,0
434,15,0,0,0,0,0,0,0,0,0,-1,1658,1009,0,0
441,15,0,0,0,0,0,0,0,0,0,-1,1665,1009,0,0
448,15,0,0,0,0,0,0,0,0,0,-1,1672,1009,0,0
455,15,0,0,0,0,0,0,0,0,0,-1,1679,1009,0,0
462,15,0,0,0,0,0,0,0,0,0,-1,1686,1009,0,0
469,15,0,0,0,0,0,0,0,0,0,-1,1693,1009,0,0
476,15,0,0,0,0,0,0,0,0,0,-1,1700,1009,0,0
483,15,0,0,0,0,0,0,0,0,0,-1,1707,1009,0,0
490,15,0,0,0,0,0,0,0,0,0,-1,1714,1009,0,0
497,15,0,0,0,0,0,0,0,0,0,-1,1721,1009,0,0
504,15,0,0,0,0,0,0,0,0,0,-1,1728,1009,0,0
511,15,0,0,0,0,0,0,0,0,0,-1,1735,1009,0,0
518,15,0,0,0,0,0,0,0,0,0,-1,1742,1009,0,0
525,15,0,0,0,0,0,0,0,0,0,-1,1749,1009,0,0
532,15,0,0,0,0,0,0,0,0,0,-1,1756,1009,0,0
539,15,0,0,0,0,0,0,0,0,0,-1,1763,1009,0,0
546,15,0,0,0,0,0,0,0,0,0,-1,1770,1009,0,0
553,15,0,0,0,0,0,0,0,0,0,-1,1777,1009,0,0
560,15,0,0,0,0,0,0,0,0,0,-1,1784,1009,0,0
567,15,0,0,0,0,0,0,0,0,0,-1,1791,1009,0,0
574,15,0,0,0,0,0,0,0,0,0,-1,1798,1009,0,0
581,15,0,0,0,0,0,0,0,0,0,-1,1805,1009,0,0
588,15,0,0,0,0,0,0,0,0,0,-1,1812,1009,0,0
595,15,0,0,0,0,0,0,0,0,0,-1,1819,1009,0,0
602,15,0,0,0,0,0,0,0,0,0,-1,1826,1009,0,0
609,15,0,0,0,0,0,0,0,0,0,-1,1833,1009,0,0
616,15,0,0,0,0,0,0,0,0,0,-1,1840,1009,0,0
623,15,0,0,0,0,0,0,0,0,0,-1,1847,1009,0,0
630,15,0,0,0,0,0,0,0,0,0,-1,1854,1009,0,0
637,15,0,0,0,0,0,0,0,0,0,-1,1861,1009,0,0
644,15,22.1991,2.74823,0.00327203,0.000613269,-0.00124059,0.00376098,0.000124322,-0.375431,0.00246692,0.0397593,1868,1009,22.1991,-2.74821
651,15,22.2557,2.59241,0.00302126,7.23002e-06,-0.00062361,0.00314519,-0.0001167,-0.196175,0.00213676,0.0383987,1875,1009,22.2558,-2.59242
658,15,22.1943,2.59796,0.00246999,-0.000469375,-0.000167146,0.00247947,-0.00047885,-0.0566212,0.00183356,0.0377715,1882,1009,22.1943,-2.59795
665,15,22.1205,2.58093,0.00181242,-0.000661727,0.000429167,0.00188475,-0.000734056,0.166965,0.00155986,0.037974,1889,1009,22.1205,-2.58096
672,15,22.1709,2.57446,0.00105511,-0.000606068,0.00133551,0.00179724,-0.0013482,0.507205,0.00182218,0.0392508,1896,1009,22.1708,-2.57447
679,15,22.3081,2.59094,7.93531e-05,-0.000533832,0.00241884,0.00221095,-0.00266543,0.722358,0.00281945,0.040036,1903,1009,22.3081,-2.59092
686,15,22.3412,2.54633,-0.000799724,-0.000446143,0.00333088,0.00271263,-0.0039585,0.811911,0.0038739,0.0432367,1910,1009,22.3412,-2.54632
693,15,22.3086,2.63257,-0.00152123,-0.000363113,0.00402166,0.00312096,-0.0050053,0.856899,0.00473356,0.0392275,1917,1009,22.3086,-2.63256
700,15,22.2417,2.77942,-0.00213324,-0.000296069,0.00450097,0.0033791,-0.0058084,0.886059,0.00536586,0.0301328,1924,1009,22.2416,-2.77943
707,15,22.2039,2.854,-0.00259705,-0.000209658,0.00469239,0.00343848,-0.00624519,0.909951,0.00566861,0.025171,1931,1009,22.2039,-2.85399
714,15,22.201,2.89764,-0.00293789,-7.40179e-05,0.00466734,0.00337611,-0.00638802,0.93424,0.00572602,0.0282362,1938,1009,22.201,-2.89765
721,15,22.2853,2.95514,0,0,0,0,0,0,0,-1,1945,1009,22.2853,-2.95514
728,15,21.7869,4.02399,0,0,0,0,0,0,0,-1,1952,1009,21.7869,-4.02401
735,15,21.7534,4.10675,-0.00357148,0.000807071,0.0032059,0.0024999,-0.0052643,1.08497,0.00457639,0.0155915,1959,1009,21.7534,-4.10674
742,15,21.7494,4.17731,-0.00374334,0.00101715,0.00261182,0.00217062,-0.00489681,1.15492,0.00418035,0.0156218,1966,1009,21.7493,-4.17732
749,15,21.7198,4.20831,-0.00417866,0.00204972,0.00178544,0.00252524,-0.00465417,1.31051,0.00420534,0.0099061,1973,1009,21.7199,-4.20829
756,15,21.7471,4.22229,-0.0045982,0.00354764,0.000604886,0.00359232,-0.00464287,1.49708,0.00476747,0.0118394,1980,1009,21.7471,-4.22226
763,15,21.7175,4.27124,-0.00530788,0.00523075,-0.000597801,0.00526455,-0.00534168,-1.51431,0.00612356,0.0115304,1987,1009,21.7175,-4.27126
770,15,21.6891,4.31281,-0.0065873,0.00773911,-0.00173335,0.00794585,-0.00679403,-1.45209,0.00851873,0.0107109,1994,1009,21.689,-4.31283
777,15,21.6493,4.32257,-0.0085357,0.0113667,-0.00255355,0.0116891,-0.00885811,-1.4452,0.0119004,0.0198542,2001,1009,21.6493,-4.3226
784,15,21.491,4.21655,-0.0112359,0.0158798,-0.00317404,0.0162464,-0.0116025,-1.45581,0.0161529,0.0405535,2008,1009,21.4909,-4.21657
791,15,21.3134,4.1001,0,0,0,0,0,0,0,-1,2015,1009,21.3133,-4.10012
798,15,19.806,6.79327,-0.0188815,0.0300921,-0.00491083,0.0305797,-0.0193691,-1.47183,0.029079,0.0481185,2022,1009,19.806,-6.79328
805,15,19.2368,6.72003,-0.024031,0.0410903,-0.00640538,0.0417143,-0.024655,-1.47368,0.038738,0.0479608,2029,1009,19.2368,-6.72006
812,15,18.6399,6.35767,0,0,0,0,0,0,0,-1,2036,1009,18.6398,-6.35769
-700,8,0,0,0,0,0,0,0,0,0,-1,524,1016,0,0
-693,8,-12.8221,0.771667,0,0,0,0,0,0,0,-1,531,1016,-12.8221,-0.77167
-686,8,-11.0207,-6.4339,0,0,0,0,0,0,0,-1,538,1016,-11.0207,6.43389
-679,8,-11.2314,-5.74127,-0.0281286,-0.000526925,0.0606718,0.0478938,-0.0765493,0.897229,0.0724794,0.0482865,545,1016,-11.2315,5.74125
-672,8,-11.3849,-4.8786,-0.0235882,0.000510969,0.0472867,0.0372591,-0.0603364,0.910153,0.0568695,0.046796,552,1016,-11.385,4.8786
-665,8,-11.3822,-4.02875,0,0,0,0,0,0,0,-1,559,1016,-11.3822,4.02873
-658,8,-14.6544,1.62878,-0.0153347,0.00208255,0.0263534,0.0211289,-0.0343811,0.944977,0.0323517,0.0332693,566,1016,-14.6543,-1.62876
-651,8,-14.5895,1.71173,-0.0118465,0.00247772,0.0186228,0.0152682,-0.024637,0.968973,0.02325,0.0186527,573,1016,-14.5895,-1.71172
-644,8,-14.5849,1.7865,-0.00882419,0.00254104,0.0123676,0.0104691,-0.0167523,1.00075,0.0158552,0.0189053,580,1016,-14.5849,-1.78652
-637,8,-14.6199,1.82806,-0.00626623,0.00217628,0.00685204,0.00600297,-0.0100929,1.06147,0.00939244,0.0162952,587,1016,-14.6199,-1.82804
-630,8,-14.6852,1.80243,-0.0043362,0.00202301,0.00226947,0.00274986,-0.00506304,1.26085,0.00457621,0.0123039,594,1016,-14.6853,-1.80242
-623,8,-14.6883,1.79938,-0.00306461,0.00273257,-0.00103417,0.00291154,-0.00324357,-1.39944,0.00355538,0.0123619,601,1016,-14.6883,-1.7994
-616,8,-14.6857,1.77979,-0.00203805,0.0020865,-0.00300546,0.00366919,-0.00362073,-1.08609,0.00420887,0.0119981,608,1016,-14.6857,-1.77978
-609,8,-14.6717,1.76373,-0.0012518,0.00132693,-0.00404742,0.00428539,-0.00421027,-0.939599,0.00490504,0.0156564,615,1016,-14.6717,-1.76374
-602,8,-14.6613,1.77271,-0.00119556,0.00119346,-0.00480491,0.00495011,-0.00495221,-0.907229,0.00571711,0.0213028,622,1016,-14.6613,-1.77271
-595,8,-14.6127,1.40302,-0.00118112,0.00112885,-0.00528924,0.00538774,-0.00544001,-0.892893,0.00625143,0.0301805,629,1016,-14.6127,-1.40301
-588,8,-14.662,0.832336,0,0,0,0,0,0,0,-1,636,1016,-14.662,-0.832323
-581,8,-14.6482,0.851318,-0.000834607,0.00102791,-0.00524284,0.00542155,-0.00522825,-0.873294,0.00614901,0.0307719,643,1016,-14.6482,-0.851302
-574,8,-14.7475,0.964966,-0.000772678,0.00122423,-0.0048979,0.00522441,-0.00477286,-0.885947,0.00577389,0.0381606,650,1016,-14.7475,-0.964988
-567,8,-14.8393,1.02356,-0.000666984,0.00138898,-0.0041634,0.00464943,-0.00392743,-0.906432,0.0049577,0.0411122,657,1016,-14.8393,-1.02356
-560,8,-14.7457,1.0437,-0.000396101,0.0015324,-0.00316029,0.00387227,-0.00273597,-0.933469,0.00383402,0.0395872,664,1016,-14.7456,-1.04371
-553,8,-14.709,1.09216,4.98645e-05,0.00159052,-0.00198288,0.00294745,-0.00130707,-0.97067,0.00251647,0.0379878,671,1016,-14.709,-1.09217
-546,8,-14.7638,1.06335,0.000680709,0.00149102,-0.000760579,0.00194763,0.000224104,-1.03013,0.00123054,0.0375924,678,1016,-14.7638,-1.06336
-539,8,-14.7104,1.10382,0.00161595,0.00112169,2.66197e-05,0.00161738,0.00112026,0.0536508,0.000956617,0.0395902,685,1016,-14.7105,-1.10382
-532,8,-14.6528,1.02887,0.00259803,0.0010594,-0.000424949,0.0027076,0.000949839,-0.252332,0.00158626,0.0422535,692,1016,-14.6528,-1.02888
-525,8,0,0,0,0,0,0,0,0,0,-1,699,1016,0,0
-518,8,0,0,0,0,0,0,0,0,0,-1,706,1016,0,0
-511,8,0,0,0,0,0,0,0,0,0,-1,713,1016,0,0
-504,8,0,0,0,0,0,0,0,0,0,-1,720,1016,0,0
-497,8,0,0,0,0,0,0,0,0,0,-1,727,1016,0,0
-490,8,0,0,0,0,0,0,0,0,0,-1,734,1016,0,0
-483,8,0,0,0,0,0,0,0,0,0,-1,741,1016,0,0
-476,8,0,0,0,0,0,0,0,0,0,-1,748,1016,0,0
-469,8,0,0,0,0,0,0,0,0,0,-1,755,1016,0,0
-462,8,0,0,0,0,0,0,0,0,0,-1,762,1016,0,0
-455,8,0,0,0,0,0,0,0,0,0,-1,769,1016,0,0
-448,8,0,0,0,0,0,0,0,0,0,-1,776,1016,0,0
-441,8,0,0,0,0,0,0,0,0,0,-1,783,1016,0,0
-434,8,0,0,0,0,0,0,0,0,0,-1,790,1016,0,0
-427,8,0,0,0,0,0,0,0,0,0,-1,797,1016,0,0
-420,8,0,0,0,0,0,0,0,0,0,-1,804,1016,0,0
-413,8,0,0,0,0,0,0,0,0,0,-1,811,1016,0,0
-406,8,0,0,0,0,0,0,0,0,0,-1,818,1016,0,0
-399,8,0,0,0,0,0,0,0,0,0,-1,825,1016,0,0
-392,8,0,0,0,0,0,0,0,0,0,-1,832,1016,0,0
-385,8,0,0,0,0,0,0,0,0,0,-1,839,1016,0,0
-378,8,0,0,0,0,0,0,0,0,0,-1,846,1016,0,0
-371,8,0,0,0,0,0,0,0,0,0,-1,853,1016,0,0
-364,8,0,0,0,0,0,0,0,0,0,-1,860,1016,0,0
-357,8,0,0,0,0,0,0,0,0,0,-1,867,1016,0,0
-350,8,0,0,0,0,0,0,0,0,0,-1,874,1016,0,0
-343,8,0,0,0,0,0,0,0,0,0,-1,881,1016,0,0
-336,8,0,0,0,0,0,0,0,0,0,-1,888,1016,0,0
-329,8,0,0,0,0,0,0,0,0,0,-1,895,1016,0,0
-322,8,0,0,0,0,0,0,0,0,0,-1,902,1016,0,0
-315,8,0,0,0,0,0,0,0,0,0,-1,909,1016,0,0
-308,8,0,0,0,0,0,0,0,0,0,-1,916,1016,0,0
-301,8,0,0,0,0,0,0,0,0,0,-1,923,1016,0,0
-294,8,0,0,0,0,0,0,0,0,0,-1,930,1016,0,0
-287,8,0,0,0,0,0,0,0,0,0,-1,937,1016,0,0
-280,8,0,0,0,0,0,0,0,0,0,-1,944,1016,0,0
-273,8,0,0,0,0,0,0,0,0,0,-1,951,1016,0,0
-266,8,0,0,0,0,0,0,0,0,0,-1,958,1016,0,0
-259,8,0,0,0,0,0,0,0,0,0,-1,965,1016,0,0
-252,8,0,0,0,0,0,0,0,0,0,-1,972,1016,0,0
-245,8,0,0,0,0,0,0,0,0,0,-1,979,1016,0,0
-238,8,0,0,0,0,0,0,0,0,0,-1,986,1016,0,0
-231,8,0,0,0,0,0,0,0,0,0,-1,993,1016,0,0
-224,8,0,0,0,0,0,0,0,0,0,-1,1000,1016,0,0
-217,8,0,0,0,0,0,0,0,0,0,-1,1007,1016,0,0
-210,8,0,0,0,0,0,0,0,0,0,-1,1014,1016,0,0
-203,8,0,0,0,0,0,0,0,0,0,-1,1021,1016,0,0
-196,8,0,0,0,0,0,0,0,0,0,-1,1028,1016,0,0
-189,8,0,0,0,0,0,0,0,0,0,-1,1035,1016,0,0
-182,8,0,0,0,0,0,0,0,0,0,-1,1042,1016,0,0
-175,8,0,0,0,0,0,0,0,0,0,-1,1049,1016,0,0
-168,8,0,0,0,0,0,0,0,0,0,-1,1056,1016,0,0
-161,8,0,0,0,0,0,0,0,0,0,-1,1063,1016,0,0
-154,8,0,0,0,0,0,0,0,0,0,-1,1070,1016,0,0
-147,8,0,0,0,0,0,0,0,0,0,-1,1077,1016,0,0
-140,8,0,0,0,0,0,0,0,0,0,-1,1084,1016,0,0
-133,8,0,0,0,0,0,0,0,0,0,-1,1091,1016,0,0
-126,8,0,0,0,0,0,0,0,0,0,-1,1098,1016,0,0
-119,8,0,0,0,0,0,0,0,0,0,-1,1105,1016,0,0
-112,8,0,0,0,0,0,0,0,0,0,-1,1112,1016,0,0
-105,8,0,0,0,0,0,0,0,0,0,-1,1119,1016,0,0
-98,8,0,0,0,0,0,0,0,0,0,-1,1126,1016,0,0
-91,8,0,0,0,0,0,0,0,0,0,-1,1133,1016,0,0
-84,8,0,0,0,0,0,0,0,0,0,-1,1140,1016,0,0
-77,8,0,0,0,0,0,0,0,0,0,-1,1147,1016,0,0
-70,8,0,0,0,0,0,0,0,0,0,-1,1154,1016,0,0
-63,8,0,0,0,0,0,0,0,0,0,-1,1161,1016,0,0
-56,8,0,0,0,0,0,0,0,0,0,-1,1168,1016,0,0
-49,8,0,0,0,0,0,0,0,0,0,-1,1175,1016,0,0
-42,8,0,0,0,0,0,0,0,0,0,-1,1182,1016,0,0
-35,8,0,0,0,0,0,0,0,0,0,-1,1189,1016,0,0
-28,8,0,0,0,0,0,0,0,0,0,-1,1196,1016,0,0
-21,8,0,0,0,0,0,0,0,0,0,-1,1203,1016,0,0
-14,8,0,0,0,0,0,0,0,0,0,-1,1210,1016,0,0
-7,8,0,0,0,0,0,0,0,0,0,-1,1217,1016,0,0
0,8,0,0,0,0,0,0,0,0,0,-1,1224,1016,0,0
7,8,0,0,0,0,0,0,0,0,0,-1,1231,1016,0,0
14,8,0,0,0,0,0,0,0,0,0,-1,1238,1016,0,0
21,8,0,0,0,0,0,0,0,0,0,-1,1245,1016,0,0
28,8,0,0,0,0,0,0,0,0,0,-1,1252,1016,0,0
35,8,0,0,0,0,0,0,0,0,0,-1,1259,1016,0,0
42,8,0,0,0,0,0,0,0,0,0,-1,1266,1016,0,0
49,8,0,0,0,0,0,0,0,0,0,-1,1273,1016,0,0
56,8,0,0,0,0,0,0,0,0,0,-1,1280,1016,0,0
63,8,0,0,0,0,0,0,0,0,0,-1,1287,1016,0,0
70,8,0,0,0,0,0,0,0,0,0,-1,1294,1016,0,0
77,8,0,0,0,0,0,0,0,0,0,-1,1301,1016,0,0
84,8,0,0,0,0,0,0,0,0,0,-1,1308,1016,0,0
91,8,0,0,0,0,0,0,0,0,0,-1,1315,1016,0,0
98,8,0,0,0,0,0,0,0,0,0,-1,1322,1016,0,0
105,8,0,0,0,0,0,0,0,0,0,-1,1329,1016,0,0
112,8,0,0,0,0,0,0,0,0,0,-1,1336,1016,0,0
119,8,0,0,0,0,0,0,0,0,0,-1,1343,1016,0,0
126,8,0,0,0,0,0,0,0,0,0,-1,1350,1016,0,0
133,8,0,0,0,0,0,0,0,0,0,-1,1357,1016,0,0
140,8,0,0,0,0,0,0,0,0,0,-1,1364,1016,0,0
147,8,0,0,0,0,0,0,0,0,0,-1,1371,1016,0,0
154,8,0,0,0,0,0,0,0,0,0,-1,1378,1016,0,0
161,8,0,0,0,0,0,0,0,0,0,-1,1385,1016,0,0
168,8,0,0,0,0,0,0,0,0,0,-1,1392,1016,0,0
175,8,0,0,0,0,0,0,0,0,0,-1,1399,1016,0,0
182,8,0,0,0,0,0,0,0,0,0,-1,1406,1016,0,0
189,8,0,0,0,0,0,0,0,0,0,-1,1413,1016,0,0
196,8,0,0,0,0,0,0,0,0,0,-1,1420,1016,0,0
203,8,0,0,0,0,0,0,0,0,0,-1,1427,1016,0,0
210,8,0,0,0,0,0,0,0,0,0,-1,1434,1016,0,0
217,8,0,0,0,0,0,0,0,0,0,-1,1441,1016,0,0
224,8,0,0,0,0,0,0,0,0,0,-1,1448,1016,0,0
231,8,0,0,0,0,0,0,0,0,0,-1,1455,1016,0,0
238,8,0,0,0,0,0,0,0,0,0,-1,1462,1016,0,0
245,8,0,0,0,0,0,0,0,0,0,-1,1469,1016,0,0
252,8,0,0,0,0,0,0,0,0,0,-1,1476,1016,0,0
259,8,0,0,0,0,0,0,0,0,0,-1,1483,1016,0,0
266,8,0,0,0,0,0,0,0,0,0,-1,1490,1016,0,0
273,8,0,0,0,0,0,0,0,0,0,-1,1497,1016,0,0
280,8,0,0,0,0,0,0,0,0,0,-1,1504,1016,0,0
287,8,0,0,0,0,0,0,0,0,0,-1,1511,1016,0,0
294,8,0,0,0,0,0,0,0,0,0,-1,1518,1016,0,0
301,8,0,0,0,0,0,0,0,0,0,-1,1525,1016,0,0
308,8,0,0,0,0,0,0,0,0,0,-1,1532,1016,0,0
315,8,0,0,0,0,0,0,0,0,0,-1,1539,1016,0,0
322,8,0,0,0,0,0,0,0,0,0,-1,1546,1016,0,0
329,8,0,0,0,0,0,0,0,0,0,-1,1553,1016,0,0
336,8,0,0,0,0,0,0,0,0,0,-1,1560,1016,0,0
343,8,0,0,0,0,0,0,0,0,0,-1,1567,1016,0,0
350,8,0,0,0,0,0,0,0,0,0,-1,1574,1016,0,0
357,8,0,0,0,0,0,0,0,0,0,-1,1581,1016,0,0
364,8,0,0,0,0,0,0,0,0,0,-1,1588,1016,0,0
371,8,0,0,0,0,0,0,0,0,0,-1,1595,1016,0,0
378,8,0,0,0,0,0,0,0,0,0,-1,1602,1016,0,0
385,8,0,0,0,0,0,0,0,0,0,-1,1609,1016,0,0
392,8,0,0,0,0,0,0,0,0,0,-1,1616,1016,0,0
399,8,0,0,0,0,0,0,0,0,0,-1,1623,1016,0,0
406,8,0,0,0,0,0,0,0,0,0,-1,1630,1016,0,0
413,8,0,0,0,0,0,0,0,0,0,-1,1637,1016,0,0
420,8,0,0,0,0,0,0,0,0,0,-1,1644,1016,0,0
427,8,0,0,0,0,0,0,0,0,0,-1,1651,1016,0,0
434,8,0,0,0,0,0,0,0,0,0,-1,1658,1016,0,0
441,8,0,0,0,0,0,0,0,0,0,-1,1665,1016,0,0
448,8,0,0,0,0,0,0,0,0,0,-1,1672,1016,0,0
455,8,0,0,0,0,0,0,0,0,0,-1,1679,1016,0,0
462,8,0,0,0,0,0,0,0,0,0,-1,1686,1016,0,0
469,8,0,0,0,0,0,0,0,0,0,-1,1693,1016,0,0
476,8,0,0,0,0,0,0,0,0,0,-1,1700,1016,0,0
483,8,0,0,0,0,0,0,0,0,0,-1,1707,1016,0,0
490,8,0,0,0,0,0,0,0,0,0,-1,1714,1016,0,0
497,8,0,0,0,0,0,0,0,0,0,-1,1721,1016,0,0
504,8,0,0,0,0,0,0,0,0,0,-1,1728,1016,0,0
511,8,0,0,0,0,0,0,0,0,0,-1,1735,1016,0,0
518,8,0,0,0,0,0,0,0,0,0,-1,1742,1016,0,0
525,8,0,0,0,0,0,0,0,0,0,-1,1749,1016,0,0
532,8,0,0,0,0,0,0,0,0,0,-1,1756,1016,0,0
539,8,0,0,0,0,0,0,0,0,0,-1,1763,1016,0,0
546,8,0,0,0,0,0,0,0,0,0,-1,1770,1016,0,0
553,8,0,0,0,0,0,0,0,0,0,-1,1777,1016,0,0
560,8,0,0,0,0,0,0,0,0,0,-1,1784,1016,0,0
567,8,0,0,0,0,0,0,0,0,0,-1,1791,1016,0,0
574,8,0,0,0,0,0,0,0,0,0,-1,1798,1016,0,0
581,8,0,0,0,0,0,0,0,0,0,-1,1805,1016,0,0
588,8,0,0,0,0,0,0,0,0,0,-1,1812,1016,0,0
595,8,0,0,0,0,0,0,0,0,0,-1,1819,1016,0,0
602,8,0,0,0,0,0,0,0,0,0,-1,1826,1016,0,0
609,8,0,0,0,0,0,0,0,0,0,-1,1833,1016,0,0
616,8,0,0,0,0,0,0,0,0,0,-1,1840,1016,0,0
623,8,0,0,0,0,0,0,0,0,0,-1,1847,1016,0,0
630,8,0,0,0,0,0,0,0,0,0,-1,1854,1016,0,0
637,8,0,0,0,0,0,0,0,0,0,-1,1861,1016,0,0
644,8,22.2328,2.76813,0.00123991,0.00065781,-0.000256501,0.00133681,0.000560913,-0.361193,0.000775124,0.0427511,1868,1016,22.2328,-2.76813
651,8,22.1887,2.66376,0.0015434,3.09386e-05,0.000241836,0.00158113,-6.78899e-06,0.154757,0.00105636,0.0388794,1875,1016,22.1887,-2.66378
658,8,22.1731,2.58423,0.00142482,-0.000473479,0.00052753,0.00156157,-0.000610227,0.25364,0.00129336,0.038213,1882,1016,22.1731,-2.58423
665,8,22.0989,2.56909,0.00111836,-0.00070938,0.000875746,0.00147023,-0.00106125,0.382049,0.00146789,0.0399592,1889,1016,22.0988,-2.5691
672,8,22.1219,2.4895,0.000713335,-0.000722039,0.00156745,0.00171959,-0.00172829,0.570709,0.00199064,0.0421665,1896,1016,22.1219,-2.48947
679,8,22.291,2.57104,5.53169e-05,-0.000739467,0.0025041,0.00219337,-0.00287751,0.706706,0.00293654,0.0417397,1903,1016,22.291,-2.57103
686,8,22.3608,2.4967,-0.000595927,-0.000731779,0.00332451,0.00266136,-0.00398906,0.775184,0.00386504,0.0423215,1910,1016,22.3609,-2.49668
693,8,22.4194,2.62286,-0.00115912,-0.000711201,0.00397557,0.00304671,-0.00491704,0.813536,0.00463995,0.0380402,1917,1016,22.4195,-2.62288
700,8,22.318,2.78156,-0.00166089,-0.000676998,0.00444619,0.00330437,-0.00564226,0.840496,0.0052238,0.0289809,1924,1016,22.318,-2.78154
707,8,22.2167,2.84674,-0.00204067,-0.000618963,0.00464087,0.00336518,-0.00602481,0.861394,0.00549333,0.0210875,1931,1016,22.2166,-2.84676
714,8,22.2136,2.82526,-0.0023501,-0.000497796,0.00463732,0.00330495,-0.00615285,0.88396,0.00554236,0.0245605,1938,1016,22.2136,-2.82525
721,8,22.3242,2.84509,0,0,0,0,0,0,0,-1,1945,1016,22.3243,-2.84512
728,8,21.7649,4.08276,0,0,0,0,0,0,0,-1,1952,1016,21.7649,-4.08279
735,8,21.7532,4.09711,-0.00316239,0.000437479,0.0032965,0.00239343,-0.00511834,1.03529,0.00443102,0.0175555,1959,1016,21.7532,-4.09708
742,8,21.7672,4.13086,-0.0035441,0.000759272,0.00276032,0.00210746,-0.00489229,1.11646,0.00414655,0.0156848,1966,1016,21.7672,-4.13087
749,8,21.7698,4.18127,-0.00418803,0.0019629,0.00201876,0.00256627,-0.00479141,1.28036,0.00431223,0.0111275,1973,1016,21.7697,-4.18127
756,8,21.7615,4.19263,-0.00484929,0.00365462,0.000939705,0.00375722,-0.0049519,1.46204,0.00504396,0.012875,1980,1016,21.7615,-4.19263
763,8,21.7538,4.24359,-0.00588746,0.00559172,-0.000174709,0.00559438,-0.00589012,-1.55558,0.00663131,0.0133522,1987,1016,21.7538,-4.24361
770,8,21.7399,4.27289,-0.00764877,0.00846924,-0.00123145,0.00856279,-0.00774231,-1.49498,0.00941773,0.0134857,1994,1016,21.7399,-4.2729
777,8,21.6997,4.28082,-0.0102179,0.0126019,-0.00187962,0.0127557,-0.0103717,-1.48916,0.0133762,0.017118,2001,1016,21.6997,-4.28085
784,8,21.5211,3.73511,-0.0136624,0.0177237,-0.00219897,0.017877,-0.0138158,-1.50119,0.0183478,0.0353634,2008,1016,21.5212,-3.73513
791,8,21.2911,3.05695,0,0,0,0,0,0,0,-1,2015,1016,21.2911,-3.05693
798,8,20.1123,6.27307,-0.0238195,0.0339061,-0.00277353,0.0340391,-0.0239524,-1.5229,0.0336498,0.0478094,2022,1016,20.1123,-6.27305
805,8,19.6702,6.16998,-0.0309607,0.0464518,-0.00325658,0.0465886,-0.0310975,-1.52883,0.0451483,0.0488086,2029,1016,19.6703,-6.16997
812,8,19.3081,6.05304,0,0,0,0,0,0,0,-1,2036,1016,19.308,-6.05306
-700,1,0,0,0,0,0,0,0,0,0,-1,524,1023,0,0
-693,1,-11.6643,-7.08716,0,0,0,0,0,0,0,-1,531,1023,-11.6643,7.08718
-686,1,-11.5914,-6.13818,0,0,0,0,0,0,0,-1,538,1023,-11.5913,6.13824
-679,1,-11.7083,-5.31104,-0.0300142,-0.00859826,0.0641145,0.0456963,-0.0843087,0.868141,0.076154,0.049594,545,1023,-11.7082,5.31106
-672,1,-11.8596,-4.62671,-0.0249248,-0.00532831,0.0501225,0.0359447,-0.0661978,0.881924,0.059828,0.0480591,552,1023,-11.8595,4.6267
-665,1,-12.009,-3.96289,0,0,0,0,0,0,0,-1,559,1023,-12.009,3.96285
-658,1,-14.6914,1.68335,-0.015959,-0.000605238,0.028053,0.0208023,-0.0373666,0.918956,0.0340347,0.0302503,566,1023,-14.6914,-1.68336
-651,1,-14.6279,1.789,-0.0122556,0.000786136,0.0198533,0.015162,-0.0266315,0.944074,0.0244305,0.0146305,573,1023,-14.6279,-1.78902
-644,1,-14.5613,1.86682,-0.00906678,0.00152947,0.0131763,0.0104329,-0.0179702,0.976554,0.0165899,0.0188276,580,1023,-14.5613,-1.86682
-637,1,-14.6342,1.81909,-0.00634719,0.00173496,0.00729389,0.00603241,-0.0106446,1.03837,0.00975047,0.0160751,587,1023,-14.6342,-1.81907
-630,1,-14.7267,1.78357,-0.00426948,0.00200092,0.00243151,0.0028333,-0.00510187,1.24097,0.00464336,0.015024,594,1023,-14.7267,-1.7836
-623,1,-14.6923,1.80908,-0.00293225,0.00269364,-0.00113853,0.00291531,-0.00315392,-1.3785,0.00350498,0.0119591,601,1023,-14.6922,-1.80911
-616,1,-14.6985,1.79321,-0.00191741,0.0019181,-0.0033078,0.00382387,-0.00382318,-1.0481,0.00441503,0.014494,608,1023,-14.6986,-1.79322
-609,1,-14.7026,1.77686,-0.00107363,0.00103561,-0.00436299,0.00446963,-0.00450765,-0.903983,0.00518305,0.0161973,615,1023,-14.7026,-1.77684
-602,1,-14.6834,1.76038,-0.000916796,0.000812255,-0.00514711,0.00516694,-0.00527148,-0.868603,0.00602673,0.0129556,622,1023,-14.6834,-1.76039
-595,1,-14.6624,1.7312,-0.000910209,0.00070765,-0.00562976,0.0055863,-0.00578886,-0.856754,0.0065678,0.0177243,629,1023,-14.6624,-1.73118
-588,1,-14.6539,1.33234,-0.000791303,0.000663416,-0.00572321,0.0057053,-0.00583319,-0.848604,0.00666189,0.0251369,636,1023,-14.6539,-1.33232
-581,1,-14.6597,0.96283,-0.000572485,0.000559384,-0.00541116,0.00543413,-0.00544723,-0.837502,0.00628235,0.0275048,643,1023,-14.6596,-0.962856
-574,1,-14.7362,1.03937,-0.000551048,0.000737739,-0.00492215,0.0050575,-0.00487081,-0.850487,0.00573245,0.0359303,650,1023,-14.7362,-1.03935
-567,1,-14.7128,0.955505,-0.000508608,0.000921056,-0.00401006,0.0042795,-0.00386705,-0.873602,0.00470542,0.0415558,657,1023,-14.7128,-0.955502
-560,1,-14.5303,0.903625,-0.000345908,0.00109856,-0.00274788,0.00321754,-0.00246488,-0.913908,0.00329033,0.0392832,664,1023,-14.5303,-0.903635
-553,1,-14.5367,0.942566,-5.76016e-05,0.00119403,-0.00120848,0.00192912,-0.000792695,-1.02431,0.00161646,0.037886,671,1023,-14.5367,-0.942552
-546,1,-14.6671,1.19611,0.000353071,0.00110974,0.00050079,0.00135904,0.000103769,1.1089,0.000873496,0.0395753,678,1023,-14.6671,-1.19612
-539,1,-14.5831,0.931885,0.00100446,0.000677415,0.00187512,0.00272317,-0.00104129,0.741904,0.00224456,0.0408075,685,1023,-14.5832,-0.931868
-532,1,-14.4899,1.04309,0.00168724,0.000434146,0.00199065,0.00314761,-0.00102623,0.632934,0.00251138,0.0419034,692,1023,-14.4899,-1.0431
-525,1,0,0,0,0,0,0,0,0,0,-1,699,1023,0,0
-518,1,0,0,0,0,0,0,0,0,0,-1,706,1023,0,0
-511,1,0,0,0,0,0,0,0,0,0,-1,713,1023,0,0
-504,1,0,0,0,0,0,0,0,0,0,-1,720,1023,0,0
-497,1,0,0,0,0,0,0,0,0,0,-1,727,1023,0,0
-490,1,0,0,0,0,0,0,0,0,0,-1,734,1023,0,0
-483,1,0,0,0,0,0,0,0,0,0,-1,741,1023,0,0
-476,1,0,0,0,0,0,0,0,0,0,-1,748,1023,0,0
-469,1,0,0,0,0,0,0,0,0,0,-1,755,1023,0,0
-462,1,0,0,0,0,0,0,0,0,0,-1,762,1023,0,0
-455,1,0,0,0,0,0,0,0,0,0,-1,769,1023,0,0
-448,1,0,0,0,0,0,0,0,0,0,-1,776,1023,0,0
-441,1,0,0,0,0,0,0,0,0,0,-1,783,1023,0,0
-434,1,0,0,0,0,0,0,0,0,0,-1,790,1023,0,0
-427,1,0,0,0,0,0,0,0,0,0,-1,797,1023,0,0
-420,1,0,0,0,0,0,0,0,0,0,-1,804,1023,0,0
-413,1,0,0,0,0,0,0,0,0,0,-1,811,1023,0,0
-406,1,0,0,0,0,0,0,0,0,0,-1,818,1023,0,0
-399,1,0,0,0,0,0,0,0,0,0,-1,825,1023,0,0
-392,1,0,0,0,0,0,0,0,0,0,-1,832,1023,0,0
-385,1,0,0,0,0,0,0,0,0,0,-1,839,1023,0,0
-378,1,0,0,0,0,0,0,0,0,0,-1,846,1023,0,0
-371,1,0,0,0,0,0,0,0,0,0,-1,853,1023,0,0
-364,1,0,0,0,0,0,0,0,0,0,-1,860,1023,0,0
-357,1,0,0,0,0,0,0,0,0,0,-1,867,1023,0,0
-350,1,0,0,0,0,0,0,0,0,0,-1,874,1023,0,0
-343,1,0,0,0,0,0,0,0,0,0,-1,881,1023,0,0
-336,1,0,0,0,0,0,0,0,0,0,-1,888,1023,0,0
-329,1,0,0,0,0,0,0,0,0,0,-1,895,1023,0,0
-322,1,0,0,0,0,0,0,0,0,0,-1,902,1023,0,0
-315,1,0,0,0,0,0,0,0,0,0,-1,909,1023,0,0
-308,1,0,0,0,0,0,0,0,0,0,-1,916,1023,0,0
-301,1,0,0,0,0,0,0,0,0,0,-1,923,1023,0,0
-294,1,0,0,0,0,0,0,0,0,0,-1,930,1023,0,0
-287,1,0,0,0,0,0,0,0,0,0,-1,937,1023,0,0
-280,1,0,0,0,0,0,0,0,0,0,-1,944,1023,0,0
-273,1,0,0,0,0,0,0,0,0,0,-1,951,1023,0,0
-266,1,0,0,0,0,0,0,0,0,0,-1,958,1023,0,0
-259,1,0,0,0,0,0,0,0,0,0,-1,965,1023,0,0
-252,1,0,0,0,0,0,0,0,0,0,-1,972,1023,0,0
-245,1,0,0,0,0,0,0,0,0,0,-1,979,1023,0,0
-238,1,0,0,0,0,0,0,0,0,0,-1,986,1023,0,0
-231,1,0,0,0,0,0,0,0,0,0,-1,993,1023,0,0
-224,1,0,0,0,0,0,0,0,0,0,-1,1000,1023,0,0
-217,1,0,0,0,0,0,0,0,0,0,-1,1007,1023,0,0
-210,1,0,0,0,0,0,0,0,0,0,-1,1014,1023,0,0
-203,1,0,0,0,0,0,0,0,0,0,-1,1021,1023,0,0
-196,1,0,0,0,0,0,0,0,0,0,-1,1028,1023,0,0
-189,1,0,0,0,0,0,0,0,0,0,-1,1035,1023,0,0
-182,1,0,0,0,0,0,0,0,0,0,-1,1042,1023,0,0
-175,1,0,0,0,0,0,0,0,0,0,-1,1049,1023,0,0
-168,1,0,0,0,0,0,0,0,0,0,-1,1056,1023,0,0
-161,1,0,0,0,0,0,0,0,0,0,-1,1063,1023,0,0
-154,1,0,0,0,0,0,0,0,0,0,-1,1070,1023,0,0
-147,1,0,0,0,0,0,0,0,0,0,-1,1077,1023,0,0
-140,1,0,0,0,0,0,0,0,0,0,-1,1084,1023,0,0
-133,1,0,0,0,0,0,0,0,0,0,-1,1091,1023,0,0
-126,1,0,0,0,0,0,0,0,0,0,-1,1098,1023,0,0
-119,1,0,0,0,0,0,0,0,0,0,-1,1105,1023,0,0
-112,1,0,0,0,0,0,0,0,0,0,-1,1112,1023,0,0
-105,1,0,0,0,0,0,0,0,0,0,-1,1119,1023,0,0
-98,1,0,0,0,0,0,0,0,0,0,-1,1126,1023,0,0
-91,1,0,0,0,0,0,0,0,0,0,-1,1133,1023,0,0
-84,1,0,0,0,0,0,0,0,0,0,-1,1140,1023,0,0
-77,1,0,0,0,0,0,0,0,0,0,-1,1147,1023,0,0
-70,1,0,0,0,0,0,0,0,0,0,-1,1154,1023,0,0
-63,1,0,0,0,0,0,0,0,0,0,-1,1161,1023,0,0
-56,1,0,0,0,0,0,0,0,0,0,-1,1168,1023,0,0
-49,1,0,0,0,0,0,0,0,0,0,-1,1175,1023,0,0
-42,1,0,0,0,0,0,0,0,0,0,-1,1182,1023,0,0
-35,1,0,0,0,0,0,0,0,0,0,-1,1189,1023,0,0
-28,1,0,0,0,0,0,0,0,0,0,-1,1196,1023,0,0
-21,1,0,0,0,0,0,0,0,0,0,-1,1203,1023,0,0
-14,1,0,0,0,0,0,0,0,0,0,-1,1210,1023,0,0
-7,1,0,0,0,0,0,0,0,0,0,-1,1217,1023,0,0
0,1,0,0,0,0,0,0,0,0,0,-1,1224,1023,0,0
7,1,0,0,0,0,0,0,0,0,0,-1,1231,1023,0,0
14,1,0,0,0,0,0,0,0,0,0,-1,1238,1023,0,0
21,1,0,0,0,0,0,0,0,0,0,-1,1245,1023,0,0
28,1,0,0,0,0,0,0,0,0,0,-1,1252,1023,0,0
35,1,0,0,0,0,0,0,0,0,0,-1,1259,1023,0,0
42,1,0,0,0,0,0,0,0,0,0,-1,1266,1023,0,0
49,1,0,0,0,0,0,0,0,0,0,-1,1273,1023,0,0
56,1,0,0,0,0,0,0,0,0,0,-1,1280,1023,0,0
63,1,0,0,0,0,0,0,0,0,0,-1,1287,1023,0,0
70,1,0,0,0,0,0,0,0,0,0,-1,1294,1023,0,0
77,1,0,0,0,0,0,0,0,0,0,-1,1301,1023,0,0
84,1,0,0,0,0,0,0,0,0,0,-1,1308,1023,0,0
91,1,0,0,0,0,0,0,0,0,0,-1,1315,1023,0,0
98,1,0,0,0,0,0,0,0,0,0,-1,1322,1023,0,0
105,1,0,0,0,0,0,0,0,0,0,-1,1329,1023,0,0
112,1,0,0,0,0,0,0,0,0,0,-1,1336,1023,0,0
119,1,0,0,0,0,0,0,0,0,0,-1,1343,1023,0,0
126,1,0,0,0,0,0,0,0,0,0,-1,1350,1023,0,0
133,1,0,0,0,0,0,0,0,0,0,-1,1357,1023,0,0
140,1,0,0,0,0,0,0,0,0,0,-1,1364,1023,0,0
147,1,0,0,0,0,0,0,0,0,0,-1,1371,1023,0,0
154,1,0,0,0,0,0,0,0,0,0,-1,1378,1023,0,0
161,1,0,0,0,0,0,0,0,0,0,-1,1385,1023,0,0
168,1,0,0,0,0,0,0,0,0,0,-1,1392,1023,0,0
175,1,0,0,0,0,0,0,0,0,0,-1,1399,1023,0,0
182,1,0,0,0,0,0,0,0,0,0,-1,1406,1023,0,0
189,1,0,0,0,0,0,0,0,0,0,-1,1413,1023,0,0
196,1,0,0,0,0,0,0,0,0,0,-1,1420,1023,0,0
203,1,0,0,0,0,0,0,0,0,0,-1,1427,1023,0,0
210,1,0,0,0,0,0,0,0,0,0,-1,1434,1023,0,0
217,1,0,0,0,0,0,0,0,0,0,-1,1441,1023,0,0
224,1,0,0,0,0,0,0,0,0,0,-1,1448,1023,0,0
231,1,0,0,0,0,0,0,0,0,0,-1,1455,1023,0,0
238,1,0,0,0,0,0,0,0,0,0,-1,1462,1023,0,0
245,1,0,0,0,0,0,0,0,0,0,-1,1469,1023,0,0
252,1,0,0,0,0,0,0,0,0,0,-1,1476,1023,0,0
259,1,0,0,0,0,0,0,0,0,0,-1,1483,1023,0,0
266,1,0,0,0,0,0,0,0,0,0,-1,1490,1023,0,0
273,1,0,0,0,0,0,0,0,0,0,-1,1497,1023,0,0
280,1,0,0,0,0,0,0,0,0,0,-1,1504,1023,0,0
287,1,0,0,0,0,0,0,0,0,0,-1,1511,1023,0,0
294,1,0,0,0,0,0,0,0,0,0,-1,1518,1023,0,0
301,1,0,0,0,0,0,0,0,0,0,-1,1525,1023,0,0
308,1,0,0,0,0,0,0,0,0,0,-1,1532,1023,0,0
315,1,0,0,0,0,0,0,0,0,0,-1,1539,1023,0,0
322,1,0,0,0,0,0,0,0,0,0,-1,1546,1023,0,0
329,1,0,0,0,0,0,0,0,0,0,-1,1553,1023,0,0
336,1,0,0,0,0,0,0,0,0,0,-1,1560,1023,0,0
343,1,0,0,0,0,0,0,0,0,0,-1,1567,1023,0,0
350,1,0,0,0,0,0,0,0,0,0,-1,1574,1023,0,0
357,1,0,0,0,0,0,0,0,0,0,-1,1581,1023,0,0
364,1,0,0,0,0,0,0,0,0,0,-1,1588,1023,0,0
371,1,0,0,0,0,0,0,0,0,0,-1,1595,1023,0,0
378,1,0,0,0,0,0,0,0,0,0,-1,1602,1023,0,0
385,1,0,0,0,0,0,0,0,0,0,-1,1609,1023,0,0
392,1,0,0,0,0,0,0,0,0,0,-1,1616,1023,0,0
399,1,0,0,0,0,0,0,0,0,0,-1,1623,1023,0,0
406,1,0,0,0,0,0,0,0,0,0,-1,1630,1023,0,0
413,1,0,0,0,0,0,0,0,0,0,-1,1637,1023,0,0
420,1,0,0,0,0,0,0,0,0,0,-1,1644,1023,0,0
427,1,0,0,0,0,0,0,0,0,0,-1,1651,1023,0,0
434,1,0,0,0,0,0,0,0,0,0,-1,1658,1023,0,0
441,1,0,0,0,0,0,0,0,0,0,-1,1665,1023,0,0
448,1,0,0,0,0,0,0,0,0,0,-1,1672,1023,0,0
455,1,0,0,0,0,0,0,0,0,0,-1,1679,1023,0,0
462,1,0,0,0,0,0,0,0,0,0,-1,1686,1023,0,0
469,1,0,0,0,0,0,0,0,0,0,-1,1693,1023,0,0
476,1,0,0,0,0,0,0,0,0,0,-1,1700,1023,0,0
483,1,0,0,0,0,0,0,0,0,0,-1,1707,1023,0,0
490,1,0,0,0,0,0,0,0,0,0,-1,1714,1023,0,0
497,1,0,0,0,0,0,0,0,0,0,-1,1721,1023,0,0
504,1,0,0,0,0,0,0,0,0,0,-1,1728,1023,0,0
511,1,0,0,0,0,0,0,0,0,0,-1,1735,1023,0,0
518,1,0,0,0,0,0,0,0,0,0,-1,1742,1023,0,0
525,1,0,0,0,0,0,0,0,0,0,-1,1749,1023,0,0
532,1,0,0,0,0,0,0,0,0,0,-1,1756,1023,0,0
539,1,0,0,0,0,0,0,0,0,0,-1,1763,1023,0,0
546,1,0,0,0,0,0,0,0,0,0,-1,1770,1023,0,0
553,1,0,0,0,0,0,0,0,0,0,-1,1777,1023,0,0
560,1,0,0,0,0,0,0,0,0,0,-1,1784,1023,0,0
567,1,0,0,0,0,0,0,0,0,0,-1,1791,1023,0,0
574,1,0,0,0,0,0,0,0,0,0,-1,1798,1023,0,0
581,1,0,0,0,0,0,0,0,0,0,-1,1805,1023,0,0
588,1,0,0,0,0,0,0,0,0,0,-1,1812,1023,0,0
595,1,0,0,0,0,0,0,0,0,0,-1,1819,1023,0,0
602,1,0,0,0,0,0,0,0,0,0,-1,1826,1023,0,0
609,1,0,0,0,0,0,0,0,0,0,-1,1833,1023,0,0
616,1,0,0,0,0,0,0,0,0,0,-1,1840,1023,0,0
623,1,0,0,0,0,0,0,0,0,0,-1,1847,1023,0,0
630,1,0,0,0,0,0,0,0,0,0,-1,1854,1023,0,0
637,1,0,0,0,0,0,0,0,0,0,-1,1861,1023,0,0
644,1,0,0,0,0,0,0,0,0,0,-1,1868,1023,0,0
651,1,22.1691,2.75146,-0.000186053,-0.000399489,0.0011201,0.000832397,-0.00141794,0.737904,0.00131381,0.0406128,1875,1023,22.1691,-2.75145
658,1,22.2476,2.71191,0.00023564,-0.000691447,0.00124236,0.00109812,-0.00155392,0.60684,0.00153868,0.0394469,1882,1023,22.2475,-2.71189
665,1,22.2251,2.79944,0.000344644,-0.000786408,0.00135499,0.00124739,-0.00168915,0.587705,0.00170179,0.0414241,1889,1023,22.2251,-2.79943
672,1,22.1372,2.62439,0.000266951,-0.000728937,0.00185829,0.00169285,-0.00215484,0.654494,0.0022268,0.0433594,1896,1023,22.1373,-2.6244
679,1,22.1478,2.71558,-0.00013174,-0.000736398,0.00267338,0.00225636,-0.00312449,0.729093,0.00312008,0.040852,1903,1023,22.1478,-2.71557
686,1,22.2386,2.70496,-0.000626502,-0.000764991,0.00342795,0.00273291,-0.0041244,0.7753,0.00398615,0.0383187,1910,1023,22.2387,-2.70494
693,1,22.4612,2.78839,-0.00109965,-0.000800698,0.00405979,0.00311237,-0.00501271,0.803799,0.0047336,0.0345993,1917,1023,22.4612,-2.78838
700,1,22.3362,2.81451,-0.00154355,-0.000823855,0.00453841,0.00336895,-0.00573635,0.82496,0.00531585,0.0288136,1924,1023,22.3361,-2.81454
707,1,22.2002,2.85144,-0.00186956,-0.000803025,0.00475257,0.0034461,-0.00611869,0.841268,0.00559363,0.0234734,1931,1023,22.2002,-2.85143
714,1,22.1985,2.82587,-0.00215209,-0.000715599,0.00477482,0.00339469,-0.00626239,0.86005,0.00565687,0.0238834,1938,1023,22.1985,-2.82587
721,1,22.217,3.25317,-0.00231978,-0.000521234,0.00470173,0.00336645,-0.00620746,0.879889,0.00560804,0.032137,1945,1023,22.217,-3.25318
728,1,21.8499,3.93335,-0.00259246,-0.000222316,0.00430215,0.003055,-0.00586978,0.919795,0.00523745,0.026341,1952,1023,21.8498,-3.93332
735,1,21.766,4.12421,-0.00304702,0.000106707,0.00350217,0.00237063,-0.00531095,0.996931,0.00454197,0.0154041,1959,1023,21.766,-4.12418
742,1,21.804,4.12122,-0.00354741,0.000496317,0.00295338,0.00205361,-0.0051047,1.08555,0.00425615,0.0150499,1966,1023,21.804,-4.12123
749,1,21.7977,4.1532,-0.00421961,0.00180566,0.00222229,0.00253663,-0.00495058,1.25302,0.00439699,0.0129864,1973,1023,21.7978,-4.15322
756,1,21.7786,4.18707,-0.00486689,0.0036038,0.00115402,0.00375821,-0.0050213,1.43779,0.0050863,0.0123933,1980,1023,21.7786,-4.18708
763,1,21.7689,4.21912,-0.00592121,0.00569914,8.13428e-06,0.00569914,-0.00592121,1.5701,0.00670942,0.0138292,1987,1023,21.7689,-4.21914
770,1,21.7708,4.22858,-0.00770057,0.00877445,-0.00114154,0.00885317,-0.00777929,-1.50195,0.00960943,0.0129377,1994,1023,21.7707,-4.22856
777,1,21.754,4.20862,-0.0102686,0.01316,-0.00186876,0.0133082,-0.0104167,-1.4917,0.0137314,0.0140864,2001,1023,21.7541,-4.20864
784,1,21.6899,3.86377,-0.013651,0.0185419,-0.00219675,0.0186911,-0.0138002,-1.50298,0.0188296,0.0332083,2008,1023,21.6899,-3.86376
791,1,21.6025,3.44531,0,0,0,0,0,0,0,-1,2015,1023,21.6026,-3.44529
798,1,20.5491,5.77527,0,0,0,0,0,0,0,-1,2022,1023,20.549,-5.77528
805,1,20.2869,5.87897,0,0,0,0,0,0,0,-1,2029,1023,20.2868,-5.879
812,1,20.0029,3.18469,0,0,0,0,0,0,0,-1,2036,1023,20.003,-3.18468
-700,-6,0,0,0,0,0,0,0,0,0,-1,524,1030,0,0
-693,-6,-12.89,-0.475586,0,0,0,0,0,0,0,-1,531,1030,-12.89,0.475544
-686,-6,-12.0767,-5.12854,0,0,0,0,0,0,0,-1,538,1030,-12.0767,5.12853
-679,-6,-12.1563,-4.7052,0,0,0,0,0,0,0,-1,545,1030,-12.1563,4.70516
-672,-6,-12.2969,-4.0885,0,0,0,0,0,0,0,-1,552,1030,-12.2969,4.08847
-665,-6,-14.5239,1.75427,-0.0203819,-0.0068624,0.0404922,0.0274304,-0.0546747,0.868105,0.0482655,0.0434923,559,1030,-14.5239,-1.75428
-658,-6,-14.5833,1.75781,-0.0158235,-0.00324731,0.0298763,0.0209955,-0.0400663,0.88912,0.0358226,0.0359567,566,1030,-14.5832,-1.75781
-651,-6,-14.6674,1.71521,-0.011959,-0.000763696,0.0212115,0.0155764,-0.0282991,0.914405,0.025684,0.031319,573,1030,-14.6674,-1.71519
-644,-6,-14.6132,1.76453,-0.00869899,0.000692227,0.0141233,0.01088,-0.0188868,0.945886,0.0173919,0.0332585,580,1030,-14.6132,-1.76455
-637,-6,-14.6734,1.83777,-0.00592456,0.00148103,0.00786094,0.00646759,-0.0109111,1.0055,0.0101423,0.020051,587,1030,-14.6734,-1.83773
-630,-6,-14.7142,1.78369,-0.00383192,0.00212716,0.00272345,0.00318431,-0.00488907,1.20053,0.00469568,0.0135907,594,1030,-14.7141,-1.78365
-623,-6,-14.6934,1.79187,-0.00257147,0.00267319,-0.00102915,0.00286791,-0.00276619,-1.3838,0.00325302,0.0125715,601,1030,-14.6934,-1.79191
-616,-6,-14.6818,1.79163,-0.00169201,0.00170547,-0.00336313,0.00377454,-0.00376108,-1.01926,0.00435069,0.0135081,608,1030,-14.6818,-1.79159
-609,-6,-14.6694,1.7876,-0.000895293,0.000686031,-0.00448221,0.00444678,-0.00465604,-0.8727,0.00525598,0.0150467,615,1030,-14.6694,-1.78764
-602,-6,-14.6843,1.79895,-0.000732677,0.000349897,-0.0053657,0.00520154,-0.00558432,-0.835668,0.00622853,0.0121238,622,1030,-14.6843,-1.7989
-595,-6,-14.6395,1.77869,-0.000778949,0.000176955,-0.00587309,0.00559151,-0.0061935,-0.825999,0.00680704,0.014863,629,1030,-14.6395,-1.77872
-588,-6,-14.6539,1.30457,-0.00070168,9.50169e-05,-0.00590768,0.00561777,-0.00622443,-0.819062,0.00684008,0.0171158,636,1030,-14.6539,-1.30452
-581,-6,-14.6973,0.971436,-0.000513039,-2.31108e-05,-0.00548049,0.00521789,-0.00575404,-0.807732,0.00633717,0.0217557,643,1030,-14.6973,-0.971462
-574,-6,-14.6899,0.915161,-0.000527558,0.000148039,-0.00486523,0.00468718,-0.0050667,-0.820058,0.00563282,0.0295947,650,1030,-14.69,-0.915175
-567,-6,-14.6785,0.743408,-0.000543671,0.000367845,-0.00377657,0.00371605,-0.00389188,-0.845448,0.00439283,0.0386624,657,1030,-14.6785,-0.743362
-560,-6,-14.6354,0.644897,-0.00047832,0.000606911,-0.00224177,0.0023708,-0.00224221,-0.904138,0.00266367,0.0416626,664,1030,-14.6355,-0.64489
-553,-6,-14.4724,0.68457,-0.000333376,0.000778217,-0.00030251,0.000855209,-0.000410369,-1.32157,0.000745576,0.0420261,671,1030,-14.4724,-0.684575
-546,-6,-14.6194,0.869629,-0.000130251,0.000764914,0.00197358,0.00234103,-0.00170637,0.896905,0.00234632,0.0443886,678,1030,-14.6194,-0.869607
-539,-6,-14.653,0.700073,0.000238892,0.000355695,0.00406604,0.00436375,-0.00376916,0.792579,0.00469972,0.0438936,685,1030,-14.653,-0.700017
-532,-6,-14.5403,0.921875,0.000580464,-3.21767e-06,0.00492359,0.00522085,-0.0046436,0.755796,0.00569849,0.0418302,692,1030,-14.5403,-0.921833
-525,-6,0,0,0,0,0,0,0,0,0,-1,699,1030,0,0
-518,-6,0,0,0,0,0,0,0,0,0,-1,706,1030,0,0
-511,-6,0,0,0,0,0,0,0,0,0,-1,713,1030,0,0
-504,-6,0,0,0,0,0,0,0,0,0,-1,720,1030,0,0
-497,-6,0,0,0,0,0,0,0,0,0,-1,727,1030,0,0
-490,-6,0,0,0,0,0,0,0,0,0,-1,734,1030,0,0
-483,-6,0,0,0,0,0,0,0,0,0,-1,741,1030,0,0
-476,-6,0,0,0,0,0,0,0,0,0,-1,748,1030,0,0
-469,-6,0,0,0,0,0,0,0,0,0,-1,755,1030,0,0
-462,-6,0,0,0,0,0,0,0,0,0,-1,762,1030,0,0
-455,-6,0,0,0,0,0,0,0,0,0,-1,769,1030,0,0
-448,-6,0,0,0,0,0,0,0,0,0,-1,776,1030,0,0
-441,-6,0,0,0,0,0,0,0,0,0,-1,783,1030,0,0
-434,-6,0,0,0,0,0,0,0,0,0,-1,790,1030,0,0
-427,-6,0,0,0,0,0,0,0,0,0,-1,797,1030,0,0
-420,-6,0,0,0,0,0,0,0,0,0,-1,804,1030,0,0
-413,-6,0,0,0,0,0,0,0,0,0,-1,811,1030,0,0
-406,-6,0,0,0,0,0,0,0,0,0,-1,818,1030,0,0
-399,-6,0,0,0,0,0,0,0,0,0,-1,825,1030,0,0
-392,-6,0,0,0,0,0,0,0,0,0,-1,832,1030,0,0
-385,-6,0,0,0,0,0,0,0,0,0,-1,839,1030,0,0
-378,-6,0,0,0,0,0,0,0,0,0,-1,846,1030,0,0
-371,-6,0,0,0,0,0,0,0,0,0,-1,853,1030,0,0
-364,-6,0,0,0,0,0,0,0,0,0,-1,860,1030,0,0
-357,-6,0,0,0,0,0,0,0,0,0,-1,867,1030,0,0
-350,-6,0,0,0,0,0,0,0,0,0,-1,874,1030,0,0
-343,-6,0,0,0,0,0,0,0,0,0,-1,881,1030,0,0
-336,-6,0,0,0,0,0,0,0,0,0,-1,888,1030,0,0
-329,-6,0,0,0,0,0,0,0,0,0,-1,895,1030,0,0
-322,-6,0,0,0,0,0,0,0,0,0,-1,902,1030,0,0
-315,-6,0,0,0,0,0,0,0,0,0,-1,909,1030,0,0
-308,-6,0,0,0,0,0,0,0,0,0,-1,916,1030,0,0
-301,-6,0,0,0,0,0,0,0,0,0,-1,923,1030,0,0
-294,-6,0,0,0,0,0,0,0,0,0,-1,930,1030,0,0
-287,-6,0,0,0,0,0,0,0,0,0,-1,937,1030,0,0
-280,-6,0,0,0,0,0,0,0,0,0,-1,944,1030,0,0
-273,-6,0,0,0,0,0,0,0,0,0,-1,951,1030,0,0
-266,-6,0,0,0,0,0,0,0,0,0,-1,958,1030,0,0
-259,-6,0,0,0,0,0,0,0,0,0,-1,965,1030,0,0
-252,-6,0,0,0,0,0,0,0,0,0,-1,972,1030,0,0
-245,-6,0,0,0,0,0,0,0,0,0,-1,979,1030,0,0
-238,-6,0,0,0,0,0,0,0,0,0,-1,986,1030,0,0
-231,-6,0,0,0,0,0,0,0,0,0,-1,993,1030,0,0
-224,-6,0,0,0,0,0,0,0,0,0,-1,1000,1030,0,0
-217,-6,0,0,0,0,0,0,0,0,0,-1,1007,1030,0,0
-210,-6,0,0,0,0,0,0,0,0,0,-1,1014,1030,0,0
-203,-6,0,0,0,0,0,0,0,0,0,-1,1021,1030,0,0
-196,-6,0,0,0,0,0,0,0,0,0,-1,1028,1030,0,0
-189,-6,0,0,0,0,0,0,0,0,0,-1,1035,1030,0,0
-182,-6,0,0,0,0,0,0,0,0,0,-1,1042,1030,0,0
-175,-6,0,0,0,0,0,0,0,0,0,-1,1049,1030,0,0
-168,-6,0,0,0,0,0,0,0,0,0,-1,1056,1030,0,0
-161,-6,0,0,0,0,0,0,0,0,0,-1,1063,1030,0,0
-154,-6,0,0,0,0,0,0,0,0,0,-1,1070,1030,0,0
-147,-6,0,0,0,0,0,0,0,0,0,-1,1077,1030,0,0
-140,-6,0,0,0,0,0,0,0,0,0,-1,1084,1030,0,0
-133,-6,0,0,0,0,0,0,0,0,0,-1,1091,1030,0,0
-126,-6,0,0,0,0,0,0,0,0,0,-1,1098,1030,0,0
-119,-6,0,0,0,0,0,0,0,0,0,-1,1105,1030,0,0
-112,-6,0,0,0,0,0,0,0,0,0,-1,1112,1030,0,0
-105,-6,0,0,0,0,0,0,0,0,0,-1,1119,1030,0,0
-98,-6,0,0,0,0,0,0,0,0,0,-1,1126,1030,0,0
-91,-6,0,0,0,0,0,0,0,0,0,-1,1133,1030,0,0
-84,-6,0,0,0,0,0,0,0,0,0,-1,1140,1030,0,0
-77,-6,0,0,0,0,0,0,0,0,0,-1,1147,1030,0,0
-70,-6,0,0,0,0,0,0,0,0,0,-1,1154,1030,0,0
-63,-6,0,0,0,0,0,0,0,0,0,-1,1161,1030,0,0
-56,-6,0,0,0,0,0,0,0,0,0,-1,1168,1030,0,0
-49,-6,0,0,0,0,0,0,0,0,0,-1,1175,1030,0,0
-42,-6,0,0,0,0,0,0,0,0,0,-1,1182,1030,0,0
-35,-6,0,0,0,0,0,0,0,0,0,-1,1189,1030,0,0
-28,-6,0,0,0,0,0,0,0,0,0,-1,1196,1030,0,0
-21,-6,0,0,0,0,0,0,0,0,0,-1,1203,1030,0,0
-14,-6,0,0,0,0,0,0,0,0,0,-1,1210,1030,0,0
-7,-6,0,0,0,0,0,0,0,0,0,-1,1217,1030,0,0
0,-6,0,0,0,0,0,0,0,0,0,-1,1224,1030,0,0
7,-6,0,0,0,0,0,0,0,0,0,-1,1231,1030,0,0
14,-6,0,0,0,0,0,0,0,0,0,-1,1238,1030,0,0
21,-6,0,0,0,0,0,0,0,0,0,-1,1245,1030,0,0
28,-6,0,0,0,0,0,0,0,0,0,-1,1252,1030,0,0
35,-6,0,0,0,0,0,0,0,0,0,-1,1259,1030,0,0
42,-6,0,0,0,0,0,0,0,0,0,-1,1266,1030,0,0
49,-6,0,0,0,0,0,0,0,0,0,-1,1273,1030,0,0
56,-6,0,0,0,0,0,0,0,0,0,-1,1280,1030,0,0
63,-6,0,0,0,0,0,0,0,0,0,-1,1287,1030,0,0
70,-6,0,0,0,0,0,0,0,0,0,-1,1294,1030,0,0
77,-6,0,0,0,0,0,0,0,0,0,-1,1301,1030,0,0
84,-6,0,0,0,0,0,0,0,0,0,-1,1308,1030,0,0
91,-6,0,0,0,0,0,0,0,0,0,-1,1315,1030,0,0
98,-6,0,0,0,0,0,0,0,0,0,-1,1322,1030,0,0
105,-6,0,0,0,0,0,0,0,0,0,-1,1329,1030,0,0
112,-6,0,0,0,0,0,0,0,0,0,-1,1336,1030,0,0
119,-6,0,0,0,0,0,0,0,0,0,-1,1343,1030,0,0
126,-6,0,0,0,0,0,0,0,0,0,-1,1350,1030,0,0
133,-6,0,0,0,0,0,0,0,0,0,-1,1357,1030,0,0
140,-6,0,0,0,0,0,0,0,0,0,-1,1364,1030,0,0
147,-6,0,0,0,0,0,0,0,0,0,-1,1371,1030,0,0
154,-6,0,0,0,0,0,0,0,0,0,-1,1378,1030,0,0
161,-6,0,0,0,0,0,0,0,0,0,-1,1385,1030,0,0
168,-6,0,0,0,0,0,0,0,0,0,-1,1392,1030,0,0
175,-6,0,0,0,0,0,0,0,0,0,-1,1399,1030,0,0
182,-6,0,0,0,0,0,0,0,0,0,-1,1406,1030,0,0
189,-6,0,0,0,0,0,0,0,0,0,-1,1413,1030,0,0
196,-6,0,0,0,0,0,0,0,0,0,-1,1420,1030,0,0
203,-6,0,0,0,0,0,0,0,0,0,-1,1427,1030,0,0
210,-6,0,0,0,0,0,0,0,0,0,-1,1434,1030,0,0
217,-6,0,0,0,0,0,0,0,0,0,-1,1441,1030,0,0
224,-6,0,0,0,0,0,0,0,0,0,-1,1448,1030,0,0
231,-6,0,0,0,0,0,0,0,0,0,-1,1455,1030,0,0
238,-6,0,0,0,0,0,0,0,0,0,-1,1462,1030,0,0
245,-6,0,0,0,0,0,0,0,0,0,-1,1469,1030,0,0
252,-6,0,0,0,0,0,0,0,0,0,-1,1476,1030,0,0
259,-6,0,0,0,0,0,0,0,0,0,-1,1483,1030,0,0
266,-6,0,0,0,0,0,0,0,0,0,-1,1490,1030,0,0
273,-6,0,0,0,0,0,0,0,0,0,-1,1497,1030,0,0
280,-6,0,0,0,0,0,0,0,0,0,-1,1504,1030,0,0
287,-6,0,0,0,0,0,0,0,0,0,-1,1511,1030,0,0
294,-6,0,0,0,0,0,0,0,0,0,-1,1518,1030,0,0
301,-6,0,0,0,0,0,0,0,0,0,-1,1525,1030,0,0
308,-6,0,0,0,0,0,0,0,0,0,-1,1532,1030,0,0
315,-6,0,0,0,0,0,0,0,0,0,-1,1539,1030,0,0
322,-6,0,0,0,0,0,0,0,0,0,-1,1546,1030,0,0
329,-6,0,0,0,0,0,0,0,0,0,-1,1553,1030,0,0
336,-6,0,0,0,0,0,0,0,0,0,-1,1560,1030,0,0
343,-6,0,0,0,0,0,0,0,0,0,-1,1567,1030,0,0
350,-6,0,0,0,0,0,0,0,0,0,-1,1574,1030,0,0
357,-6,0,0,0,0,0,0,0,0,0,-1,1581,1030,0,0
364,-6,0,0,0,0,0,0,0,0,0,-1,1588,1030,0,0
371,-6,0,0,0,0,0,0,0,0,0,-1,1595,1030,0,0
378,-6,0,0,0,0,0,0,0,0,0,-1,1602,1030,0,0
385,-6,0,0,0,0,0,0,0,0,0,-1,1609,1030,0,0
392,-6,0,0,0,0,0,0,0,0,0,-1,1616,1030,0,0
399,-6,0,0,0,0,0,0,0,0,0,-1,1623,1030,0,0
406,-6,0,0,0,0,0,0,0,0,0,-1,1630,1030,0,0
413,-6,0,0,0,0,0,0,0,0,0,-1,1637,1030,0,0
420,-6,0,0,0,0,0,0,0,0,0,-1,1644,1030,0,0
427,-6,0,0,0,0,0,0,0,0,0,-1,1651,1030,0,0
434,-6,0,0,0,0,0,0,0,0,0,-1,1658,1030,0,0
441,-6,0,0,0,0,0,0,0,0,0,-1,1665,1030,0,0
448,-6,0,0,0,0,0,0,0,0,0,-1,1672,1030,0,0
455,-6,0,0,0,0,0,0,0,0,0,-1,1679,1030,0,0
462,-6,0,0,0,0,0,0,0,0,0,-1,1686,1030,0,0
469,-6,0,0,0,0,0,0,0,0,0,-1,1693,1030,0,0
476,-6,0,0,0,0,0,0,0,0,0,-1,1700,1030,0,0
483,-6,0,0,0,0,0,0,0,0,0,-1,1707,1030,0,0
490,-6,0,0,0,0,0,0,0,0,0,-1,1714,1030,0,0
497,-6,0,0,0,0,0,0,0,0,0,-1,1721,1030,0,0
504,-6,0,0,0,0,0,0,0,0,0,-1,1728,1030,0,0
511,-6,0,0,0,0,0,0,0,0,0,-1,1735,1030,0,0
518,-6,0,0,0,0,0,0,0,0,0,-1,1742,1030,0,0
525,-6,0,0,0,0,0,0,0,0,0,-1,1749,1030,0,0
532,-6,0,0,0,0,0,0,0,0,0,-1,1756,1030,0,0
539,-6,0,0,0,0,0,0,0,0,0,-1,1763,1030,0,0
546,-6,0,0,0,0,0,0,0,0,0,-1,1770,1030,0,0
553,-6,0,0,0,0,0,0,0,0,0,-1,1777,1030,0,0
560,-6,0,0,0,0,0,0,0,0,0,-1,1784,1030,0,0
567,-6,0,0,0,0,0,0,0,0,0,-1,1791,1030,0,0
574,-6,0,0,0,0,0,0,0,0,0,-1,1798,1030,0,0
581,-6,0,0,0,0,0,0,0,0,0,-1,1805,1030,0,0
588,-6,0,0,0,0,0,0,0,0,0,-1,1812,1030,0,0
595,-6,0,0,0,0,0,0,0,0,0,-1,1819,1030,0,0
602,-6,0,0,0,0,0,0,0,0,0,-1,1826,1030,0,0
609,-6,0,0,0,0,0,0,0,0,0,-1,1833,1030,0,0
616,-6,0,0,0,0,0,0,0,0,0,-1,1840,1030,0,0
623,-6,0,0,0,0,0,0,0,0,0,-1,1847,1030,0,0
630,-6,0,0,0,0,0,0,0,0,0,-1,1854,1030,0,0
637,-6,0,0,0,0,0,0,0,0,0,-1,1861,1030,0,0
644,-6,0,0,0,0,0,0,0,0,0,-1,1868,1030,0,0
651,-6,22.3446,2.69763,-0.00218903,-0.000707786,0.00171241,0.000417299,-0.00331412,0.989503,0.00236084,0.0373799,1875,1030,22.3446,-2.69769
658,-6,22.281,2.83618,-0.00115983,-0.000766884,0.00169694,0.000744918,-0.00267164,0.843032,0.00207447,0.038506,1882,1030,22.281,-2.83624
665,-6,22.2656,2.80579,-0.000583917,-0.000713649,0.00163209,0.000984599,-0.00228216,0.765537,0.00193503,0.0411944,1889,1030,22.2656,-2.80585
672,-6,22.2567,2.82617,-0.000283224,-0.000607024,0.00200302,0.00156443,-0.00245468,0.745072,0.00233933,0.0414808,1896,1030,22.2567,-2.82611
679,-6,22.1702,3.01123,-0.000369153,-0.00062706,0.00275445,0.00225936,-0.00325557,0.762007,0.00320132,0.0402384,1903,1030,22.1702,-3.01122
686,-6,22.0223,3.0365,-0.000660937,-0.000715463,0.00348936,0.00280126,-0.00417767,0.781492,0.00405532,0.0373912,1910,1030,22.0223,-3.03651
693,-6,22.1398,2.95251,-0.0010066,-0.000832805,0.00413177,0.00321299,-0.00505239,0.795912,0.00481124,0.0357709,1917,1030,22.1397,-2.9525
700,-6,22.2468,2.87244,-0.00136798,-0.000935978,0.00463423,0.00348728,-0.00579124,0.808686,0.00541173,0.0308796,1924,1030,22.2468,-2.87248
707,-6,22.1899,2.82214,-0.00162415,-0.000975254,0.00487295,0.00358403,-0.00618344,0.81864,0.00570543,0.0273456,1931,1030,22.19,-2.82211
714,-6,22.1681,2.89233,-0.00187037,-0.000934425,0.00492554,0.00354532,-0.00635011,0.832761,0.00578912,0.0317717,1938,1030,22.1681,-2.89229
721,-6,22.0746,3.48047,-0.00204669,-0.000789291,0.00487716,0.00349953,-0.00633551,0.849498,0.00575641,0.0344758,1945,1030,22.0746,-3.4805
728,-6,21.8267,4.04004,-0.00231294,-0.000523613,0.00451157,0.00318115,-0.0060177,0.88328,0.00539447,0.0298561,1952,1030,21.8267,-4.04003
735,-6,21.8003,4.10925,-0.00276717,-0.00025623,0.00372702,0.0024211,-0.0054445,0.947857,0.00465169,0.0164669,1959,1030,21.8003,-4.10928
742,-6,21.8265,4.1272,-0.00330867,0.000150455,0.0031494,0.00201396,-0.00517217,1.0365,0.00428039,0.0135774,1966,1030,21.8265,-4.12722
749,-6,21.8088,4.16577,-0.00393713,0.00149515,0.00241575,0.00241402,-0.00485599,1.20733,0.00427554,0.0122815,1973,1030,21.8088,-4.16578
756,-6,21.8171,4.16309,-0.004465,0.00333262,0.00135452,0.00356121,-0.00469359,1.40361,0.00478084,0.0133113,1980,1030,21.8172,-4.16312
763,-6,21.7925,4.17798,-0.00537224,0.00550977,0.000176374,0.00551262,-0.0053751,1.55459,0.0062862,0.0128534,1987,1030,21.7925,-4.17793
770,-6,21.7815,4.19751,-0.00693865,0.00868382,-0.00104401,0.00875328,-0.00700811,-1.50436,0.00911841,0.0116946,1994,1030,21.7815,-4.19756
777,-6,21.7712,4.1886,-0.00918234,0.0131351,-0.00183092,0.0132843,-0.00933155,-1.48948,0.0131236,0.0137695,2001,1030,21.7713,-4.18863
784,-6,21.7844,3.94226,-0.0121249,0.0185664,-0.00214953,0.0187162,-0.0122748,-1.50121,0.018021,0.0331183,2008,1030,21.7845,-3.9422
791,-6,21.5125,3.77881,-0.015873,0.0257132,-0.00229521,0.0258395,-0.0159993,-1.51583,0.0243773,0.0448094,2015,1030,21.5124,-3.77881
798,-6,20.9684,5.24353,-0.0203823,0.0351653,-0.00229645,0.0352601,-0.0204771,-1.52955,0.032555,0.0491382,2022,1030,20.9684,-5.2435
805,-6,20.9116,5.52356,0,0,0,0,0,0,0,-1,2029,1030,20.9116,-5.52361
812,-6,19.981,2.79431,0,0,0,0,0,0,0,-1,2036,1030,19.9809,-2.79431
-700,-13,0,0,0,0,0,0,0,0,0,-1,524,1037,0,0
-693,-13,-12.7206,-5.0835,0,0,0,0,0,0,0,-1,531,1037,-12.7206,5.08344
-686,-13,-12.7405,-4.5636,-0.0392056,-0.0346385,0.0873901,0.0504978,-0.124342,0.79846,0.103902,0.0474279,538,1037,-12.7406,4.56357
-679,-13,-12.8233,-4.12964,-0.0319741,-0.0246692,0.0705676,0.0423404,-0.0989837,0.811254,0.0837496,0.0491095,545,1037,-12.8233,4.12965
-672,-13,-14.3631,1.80615,0,0,0,0,0,0,0,-1,552,1037,-14.3631,-1.80621
-665,-13,-14.4473,1.76062,-0.0199521,-0.0100604,0.0425751,0.0278551,-0.0578676,0.843223,0.050493,0.0476964,559,1037,-14.4473,-1.76066
-658,-13,-14.614,1.62476,-0.0151555,-0.00525905,0.0315698,0.021748,-0.0421625,0.863135,0.0375209,0.0441278,566,1037,-14.614,-1.6247
-651,-13,-14.6116,1.60645,-0.0112013,-0.001965,0.0225366,0.0164217,-0.0295881,0.886459,0.0269239,0.0388719,573,1037,-14.6117,-1.60645
-644,-13,-14.6217,1.71899,-0.00794331,5.93284e-05,0.015064,0.0116444,-0.0195283,0.915211,0.0181884,0.0276329,580,1037,-14.6217,-1.71894
-637,-13,-14.6625,1.75256,-0.00520559,0.00126922,0.00844256,0.0070738,-0.0110102,0.968483,0.0105229,0.0188924,587,1037,-14.6625,-1.75254
-630,-13,-14.6873,1.7406,-0.00318428,0.00217317,0.00304544,0.00355034,-0.00456144,1.14611,0.00469545,0.0124138,594,1037,-14.6873,-1.74064
-623,-13,-14.668,1.78418,-0.00209248,0.00253055,-0.000853594,0.00268313,-0.00224505,-1.39392,0.00284903,0.0112781,601,1037,-14.6679,-1.78421
-616,-13,-14.6406,1.78296,-0.00141933,0.00140662,-0.00334015,0.00362037,-0.00363308,-0.985497,0.00418778,0.0105946,608,1037,-14.6406,-1.78294
-609,-13,-14.6058,1.78076,-0.000734026,0.000286873,-0.0045261,0.00433122,-0.00477837,-0.84155,0.00526154,0.0151691,615,1037,-14.6058,-1.78072
-602,-13,-14.6444,1.80176,-0.00065855,-0.000141772,-0.00550624,0.00511214,-0.00591246,-0.808844,0.00637064,0.0113691,622,1037,-14.6444,-1.80172
-595,-13,-14.645,1.76758,-0.000801371,-0.000417156,-0.00603103,0.00542483,-0.00664336,-0.801319,0.0069794,0.0173747,629,1037,-14.645,-1.76757
-588,-13,-14.5579,1.24634,-0.000772293,-0.000584261,-0.00600859,0.00533105,-0.0066876,-0.793221,0.00695369,0.0249647,636,1037,-14.5579,-1.24639
-581,-13,-14.6481,0.877808,-0.000613386,-0.000727277,-0.00550165,0.00483161,-0.00617228,-0.780223,0.0063688,0.0230199,643,1037,-14.6481,-0.877754
-574,-13,-14.6601,0.831665,-0.000644365,-0.000606841,-0.00480521,0.00417965,-0.00543085,-0.78735,0.00556428,0.0322507,650,1037,-14.6601,-0.831655
-567,-13,-14.7336,0.706665,-0.000690883,-0.000404557,-0.00358669,0.00304182,-0.00413726,-0.805345,0.0041609,0.0400335,657,1037,-14.7336,-0.706627
-560,-13,-14.6918,0.698242,-0.000678114,-0.000157477,-0.00184903,0.00144947,-0.00228506,-0.855332,0.00217404,0.0446464,664,1037,-14.6918,-0.698248
-553,-13,-14.4854,0.591675,0,0,0,0,0,0,0,-1,671,1037,-14.4854,-0.591649
-546,-13,-14.7363,0.770996,-0.000535444,9.2779e-05,0.0030899,0.0028845,-0.00332716,0.836053,0.00358934,0.0422408,678,1037,-14.7363,-0.770954
-539,-13,-14.8206,0.804321,-0.000350026,-0.0002427,0.00571018,0.00541407,-0.0060068,0.790097,0.0065968,0.0426699,685,1037,-14.8205,-0.80434
-532,-13,-14.6178,0.907715,-0.000267998,-0.000629106,0.0070674,0.00662116,-0.00751826,0.772627,0.00816887,0.0410049,692,1037,-14.6178,-0.90768
-525,-13,0,0,0,0,0,0,0,0,0,-1,699,1037,0,0
-518,-13,0,0,0,0,0,0,0,0,0,-1,706,1037,0,0
-511,-13,0,0,0,0,0,0,0,0,0,-1,713,1037,0,0
-504,-13,0,0,0,0,0,0,0,0,0,-1,720,1037,0,0
-497,-13,0,0,0,0,0,0,0,0,0,-1,727,1037,0,0
-490,-13,0,0,0,0,0,0,0,0,0,-1,734,1037,0,0
-483,-13,0,0,0,0,0,0,0,0,0,-1,741,1037,0,0
-476,-13,0,0,0,0,0,0,0,0,0,-1,748,1037,0,0
-469,-13,0,0,0,0,0,0,0,0,0,-1,755,1037,0,0
-462,-13,0,0,0,0,0,0,0,0,0,-1,762,1037,0,0
-455,-13,0,0,0,0,0,0,0,0,0,-1,769,1037,0,0
-448,-13,0,0,0,0,0,0,0,0,0,-1,776,1037,0,0
-441,-13,0,0,0,0,0,0,0,0,0,-1,783,1037,0,0
-434,-13,0,0,0,0,0,0,0,0,0,-1,790,1037,0,0
-427,-13,0,0,0,0,0,0,0,0,0,-1,797,1037,0,0
-420,-13,0,0,0,0,0,0,0,0,0,-1,804,1037,0,0
-413,-13,0,0,0,0,0,0,0,0,0,-1,811,1037,0,0
-406,-13,0,0,0,0,0,0,0,0,0,-1,818,1037,0,0
-399,-13,0,0,0,0,0,0,0,0,0,-1,825,1037,0,0
-392,-13,0,0,0,0,0,0,0,0,0,-1,832,1037,0,0
-385,-13,0,0,0,0,0,0,0,0,0,-1,839,1037,0,0
-378,-13,0,0,0,0,0,0,0,0,0,-1,846,1037,0,0
-371,-13,0,0,0,0,0,0,0,0,0,-1,853,1037,0,0
-364,-13,0,0,0,0,0,0,0,0,0,-1,860,1037,0,0
-357,-13,0,0,0,0,0,0,0,0,0,-1,867,1037,0,0
-350,-13,0,0,0,0,0,0,0,0,0,-1,874,1037,0,0
-343,-13,0,0,0,0,0,0,0,0,0,-1,881,1037,0,0
-336,-13,0,0,0,0,0,0,0,0,0,-1,888,1037,0,0
-329,-13,0,0,0,0,0,0,0,0,0,-1,895,1037,0,0
-322,-13,0,0,0,0,0,0,0,0,0,-1,902,1037,0,0
-315,-13,0,0,0,0,0,0,0,0,0,-1,909,1037,0,0
-308,-13,0,0,0,0,0,0,0,0,0,-1,916,1037,0,0
-301,-13,0,0,0,0,0,0,0,0,0,-1,923,1037,0,0
-294,-13,0,0,0,0,0,0,0,0,0,-1,930,1037,0,0
-287,-13,0,0,0,0,0,0,0,0,0,-1,937,1037,0,0
-280,-13,0,0,0,0,0,0,0,0,0,-1,944,1037,0,0
-273,-13,0,0,0,0,0,0,0,0,0,-1,951,1037,0,0
-266,-13,0,0,0,0,0,0,0,0,0,-1,958,1037,0,0
-259,-13,0,0,0,0,0,0,0,0,0,-1,965,1037,0,0
-252,-13,0,0,0,0,0,0,0,0,0,-1,972,1037,0,0
-245,-13,0,0,0,0,0,0,0,0,0,-1,979,1037,0,0
-238,-13,0,0,0,0,0,0,0,0,0,-1,986,1037,0,0
-231,-13,0,0,0,0,0,0,0,0,0,-1,993,1037,0,0
-224,-13,0,0,0,0,0,0,0,0,0,-1,1000,1037,0,0
-217,-13,0,0,0,0,0,0,0,0,0,-1,1007,1037,0,0
-210,-13,0,0,0,0,0,0,0,0,0,-1,1014,1037,0,0
-203,-13,0,0,0,0,0,0,0,0,0,-1,1021,1037,0,0
-196,-13,0,0,0,0,0,0,0,0,0,-1,1028,1037,0,0
-189,-13,0,0,0,0,0,0,0,0,0,-1,1035,1037,0,0
-182,-13,0,0,0,0,0,0,0,0,0,-1,1042,1037,0,0
-175,-13,0,0,0,0,0,0,0,0,0,-1,1049,1037,0,0
-168,-13,0,0,0,0,0,0,0,0,0,-1,1056,1037,0,0
-161,-13,0,0,0,0,0,0,0,0,0,-1,1063,1037,0,0
-154,-13,0,0,0,0,0,0,0,0,0,-1,1070,1037,0,0
-147,-13,0,0,0,0,0,0,0,0,0,-1,1077,1037,0,0
-140,-13,0,0,0,0,0,0,0,0,0,-1,1084,1037,0,0
-133,-13,0,0,0,0,0,0,0,0,0,-1,1091,1037,0,0
-126,-13,0,0,0,0,0,0,0,0,0,-1,1098,1037,0,0
-119,-13,0,0,0,0,0,0,0,0,0,-1,1105,1037,0,0
-112,-13,0,0,0,0,0,0,0,0,0,-1,1112,1037,0,0
-105,-13,0,0,0,0,0,0,0,0,0,-1,1119,1037,0,0
-98,-13,0,0,0,0,0,0,0,0,0,-1,1126,1037,0,0
-91,-13,0,0,0,0,0,0,0,0,0,-1,1133,1037,0,0
-84,-13,0,0,0,0,0,0,0,0,0,-1,1140,1037,0,0
-77,-13,0,0,0,0,0,0,0,0,0,-1,1147,1037,0,0
-70,-13,0,0,0,0,0,0,0,0,0,-1,1154,1037,0,0
-63,-13,0,0,0,0,0,0,0,0,0,-1,1161,1037,0,0
-56,-13,0,0,0,0,0,0,0,0,0,-1,1168,1037,0,0
-49,-13,0,0,0,0,0,0,0,0,0,-1,1175,1037,0,0
-42,-13,0,0,0,0,0,0,0,0,0,-1,1182,1037,0,0
-35,-13,0,0,0,0,0,0,0,0,0,-1,1189,1037,0,0
-28,-13,0,0,0,0,0,0,0,0,0,-1,1196,1037,0,0
-21,-13,0,0,0,0,0,0,0,0,0,-1,1203,1037,0,0
-14,-13,0,0,0,0,0,0,0,0,0,-1,1210,1037,0,0
-7,-13,0,0,0,0,0,0,0,0,0,-1,1217,1037,0,0
0,-13,0,0,0,0,0,0,0,0,0,-1,1224,1037,0,0
7,-13,0,0,0,0,0,0,0,0,0,-1,1231,1037,0,0
14,-13,0,0,0,0,0,0,0,0,0,-1,1238,1037,0,0
21,-13,0,0,0,0,0,0,0,0,0,-1,1245,1037,0,0
28,-13,0,0,0,0,0,0,0,0,0,-1,1252,1037,0,0
35,-13,0,0,0,0,0,0,0,0,0,-1,1259,1037,0,0
42,-13,0,0,0,0,0,0,0,0,0,-1,1266,1037,0,0
49,-13,0,0,0,0,0,0,0,0,0,-1,1273,1037,0,0
56,-13,0,0,0,0,0,0,0,0,0,-1,1280,1037,0,0
63,-13,0,0,0,0,0,0,0,0,0,-1,1287,1037,0,0
70,-13,0,0,0,0,0,0,0,0,0,-1,1294,1037,0,0
77,-13,0,0,0,0,0,0,0,0,0,-1,1301,1037,0,0
84,-13,0,0,0,0,0,0,0,0,0,-1,1308,1037,0,0
91,-13,0,0,0,0,0,0,0,0,0,-1,1315,1037,0,0
98,-13,0,0,0,0,0,0,0,0,0,-1,1322,1037,0,0
105,-13,0,0,0,0,0,0,0,0,0,-1,1329,1037,0,0
112,-13,0,0,0,0,0,0,0,0,0,-1,1336,1037,0,0
119,-13,0,0,0,0,0,0,0,0,0,-1,1343,1037,0,0
126,-13,0,0,0,0,0,0,0,0,0,-1,1350,1037,0,0
133,-13,0,0,0,0,0,0,0,0,0,-1,1357,1037,0,0
140,-13,0,0,0,0,0,0,0,0,0,-1,1364,1037,0,0
147,-13,0,0,0,0,0,0,0,0,0,-1,1371,1037,0,0
154,-13,0,0,0,0,0,0,0,0,0,-1,1378,1037,0,0
161,-13,0,0,0,0,0,0,0,0,0,-1,1385,1037,0,0
168,-13,0,0,0,0,0,0,0,0,0,-1,1392,1037,0,0
175,-13,0,0,0,0,0,0,0,0,0,-1,1399,1037,0,0
182,-13,0,0,0,0,0,0,0,0,0,-1,1406,1037,0,0
189,-13,0,0,0,0,0,0,0,0,0,-1,1413,1037,0,0
196,-13,0,0,0,0,0,0,0,0,0,-1,1420,1037,0,0
203,-13,0,0,0,0,0,0,0,0,0,-1,1427,1037,0,0
210,-13,0,0,0,0,0,0,0,0,0,-1,1434,1037,0,0
217,-13,0,0,0,0,0,0,0,0,0,-1,1441,1037,0,0
224,-13,0,0,0,0,0,0,0,0,0,-1,1448,1037,0,0
231,-13,0,0,0,0,0,0,0,0,0,-1,1455,1037,0,0
238,-13,0,0,0,0,0,0,0,0,0,-1,1462,1037,0,0
245,-13,0,0,0,0,0,0,0,0,0,-1,1469,1037,0,0
252,-13,0,0,0,0,0,0,0,0,0,-1,1476,1037,0,0
259,-13,0,0,0,0,0,0,0,0,0,-1,1483,1037,0,0
266,-13,0,0,0,0,0,0,0,0,0,-1,1490,1037,0,0
273,-13,0,0,0,0,0,0,0,0,0,-1,1497,1037,0,0
280,-13,0,0,0,0,0,0,0,0,0,-1,1504,1037,0,0
287,-13,0,0,0,0,0,0,0,0,0,-1,1511,1037,0,0
294,-13,0,0,0,0,0,0,0,0,0,-1,1518,1037,0,0
301,-13,0,0,0,0,0,0,0,0,0,-1,1525,1037,0,0
308,-13,0,0,0,0,0,0,0,0,0,-1,1532,1037,0,0
315,-13,0,0,0,0,0,0,0,0,0,-1,1539,1037,0,0
322,-13,0,0,0,0,0,0,0,0,0,-1,1546,1037,0,0
329,-13,0,0,0,0,0,0,0,0,0,-1,1553,1037,0,0
336,-13,0,0,0,0,0,0,0,0,0,-1,1560,1037,0,0
343,-13,0,0,0,0,0,0,0,0,0,-1,1567,1037,0,0
350,-13,0,0,0,0,0,0,0,0,0,-1,1574,1037,0,0
357,-13,0,0,0,0,0,0,0,0,0,-1,1581,1037,0,0
364,-13,0,0,0,0,0,0,0,0,0,-1,1588,1037,0,0
371,-13,0,0,0,0,0,0,0,0,0,-1,1595,1037,0,0
378,-13,0,0,0,0,0,0,0,0,0,-1,1602,1037,0,0
385,-13,0,0,0,0,0,0,0,0,0,-1,1609,1037,0,0
392,-13,0,0,0,0,0,0,0,0,0,-1,1616,1037,0,0
399,-13,0,0,0,0,0,0,0,0,0,-1,1623,1037,0,0
406,-13,0,0,0,0,0,0,0,0,0,-1,1630,1037,0,0
413,-13,0,0,0,0,0,0,0,0,0,-1,1637,1037,0,0
420,-13,0,0,0,0,0,0,0,0,0,-1,1644,1037,0,0
427,-13,0,0,0,0,0,0,0,0,0,-1,1651,1037,0,0
434,-13,0,0,0,0,0,0,0,0,0,-1,1658,1037,0,0
441,-13,0,0,0,0,0,0,0,0,0,-1,1665,1037,0,0
448,-13,0,0,0,0,0,0,0,0,0,-1,1672,1037,0,0
455,-13,0,0,0,0,0,0,0,0,0,-1,1679,1037,0,0
462,-13,0,0,0,0,0,0,0,0,0,-1,1686,1037,0,0
469,-13,0,0,0,0,0,0,0,0,0,-1,1693,1037,0,0
476,-13,0,0,0,0,0,0,0,0,0,-1,1700,1037,0,0
483,-13,0,0,0,0,0,0,0,0,0,-1,1707,1037,0,0
490,-13,0,0,0,0,0,0,0,0,0,-1,1714,1037,0,0
497,-13,0,0,0,0,0,0,0,0,0,-1,1721,1037,0,0
504,-13,0,0,0,0,0,0,0,0,0,-1,1728,1037,0,0
511,-13,0,0,0,0,0,0,0,0,0,-1,1735,1037,0,0
518,-13,0,0,0,0,0,0,0,0,0,-1,1742,1037,0,0
525,-13,0,0,0,0,0,0,0,0,0,-1,1749,1037,0,0
532,-13,0,0,0,0,0,0,0,0,0,-1,1756,1037,0,0
539,-13,0,0,0,0,0,0,0,0,0,-1,1763,1037,0,0
546,-13,0,0,0,0,0,0,0,0,0,-1,1770,1037,0,0
553,-13,0,0,0,0,0,0,0,0,0,-1,1777,1037,0,0
560,-13,0,0,0,0,0,0,0,0,0,-1,1784,1037,0,0
567,-13,0,0,0,0,0,0,0,0,0,-1,1791,1037,0,0
574,-13,0,0,0,0,0,0,0,0,0,-1,1798,1037,0,0
581,-13,0,0,0,0,0,0,0,0,0,-1,1805,1037,0,0
588,-13,0,0,0,0,0,0,0,0,0,-1,1812,1037,0,0
595,-13,0,0,0,0,0,0,0,0,0,-1,1819,1037,0,0
602,-13,0,0,0,0,0,0,0,0,0,-1,1826,1037,0,0
609,-13,0,0,0,0,0,0,0,0,0,-1,1833,1037,0,0
616,-13,0,0,0,0,0,0,0,0,0,-1,1840,1037,0,0
623,-13,0,0,0,0,0,0,0,0,0,-1,1847,1037,0,0
630,-13,0,0,0,0,0,0,0,0,0,-1,1854,1037,0,0
637,-13,0,0,0,0,0,0,0,0,0,-1,1861,1037,0,0
644,-13,0,0,0,0,0,0,0,0,0,-1,1868,1037,0,0
651,-13,22.3629,2.74609,-0.00391281,-0.000411952,0.00248054,0.000873586,-0.00519834,1.09266,0.00379046,0.0378216,1875,1037,22.3629,-2.74613
658,-13,22.2217,2.84119,-0.00234364,-0.000332559,0.0022488,0.00112528,-0.00380148,0.995637,0.00298106,0.0407618,1882,1037,22.2217,-2.84113
665,-13,22.2208,2.83582,-0.00136308,-0.000215831,0.00196962,0.00126199,-0.0028409,0.927097,0.00242657,0.0414634,1889,1037,22.2208,-2.83586
672,-13,22.2435,2.88208,-0.000721427,-0.000110675,0.00219834,0.00180339,-0.0026355,0.854413,0.00257776,0.0376973,1896,1037,22.2435,-2.88206
679,-13,22.1139,2.95239,-0.000501014,-0.00017145,0.00288737,0.00255584,-0.0032283,0.813902,0.00334699,0.0391281,1903,1037,22.1138,-2.95238
686,-13,22.0565,2.85803,-0.000577892,-0.000335539,0.00360739,0.00315271,-0.00406614,0.802187,0.00417892,0.0406345,1910,1037,22.0565,-2.85803
693,-13,22.1442,2.80701,-0.000780564,-0.000542519,0.004264,0.00360412,-0.00492721,0.799351,0.00494527,0.0401895,1917,1037,22.1441,-2.80704
700,-13,22.2262,2.84485,-0.00103789,-0.000726152,0.00479254,0.00391306,-0.0056771,0.801654,0.00556801,0.0376477,1924,1037,22.2262,-2.84481
707,-13,22.2043,2.81531,-0.00122194,-0.000844109,0.00504806,0.00401857,-0.00608462,0.804101,0.00587359,0.0308419,1931,1037,22.2044,-2.81535
714,-13,22.1851,2.96155,-0.00143369,-0.000866824,0.00512311,0.00398069,-0.0062812,0.813032,0.00597413,0.0271385,1938,1037,22.1851,-2.96149
721,-13,22.1204,3.56958,-0.00161691,-0.000784018,0.00508898,0.00390552,-0.00630646,0.826224,0.00594996,0.0311232,1945,1037,22.1203,-3.56955
728,-13,21.8773,4.09399,0,0,0,0,0,0,0,-1,1952,1037,21.8774,-4.09396
735,-13,21.8502,4.12915,-0.00232156,-0.000390836,0.00400111,0.00275972,-0.00547212,0.903772,0.00483789,0.0174667,1959,1037,21.8502,-4.1292
742,-13,21.8086,4.15747,-0.00291104,-3.10785e-05,0.003395,0.0022167,-0.00515882,0.985972,0.00436973,0.0104446,1966,1037,21.8086,-4.15742
749,-13,21.8127,4.15515,-0.00348203,0.00121994,0.00262157,0.00239028,-0.00465237,1.15092,0.0041354,0.014767,1973,1037,21.8127,-4.15519
756,-13,21.8237,4.16321,-0.00385095,0.00290731,0.00156212,0.00325091,-0.00419455,1.35429,0.00431013,0.012772,1980,1037,21.8237,-4.16321
763,-13,21.8209,4.17603,-0.00448185,0.00492071,0.000427438,0.0049401,-0.00450124,1.52546,0.00545292,0.0127299,1987,1037,21.8209,-4.17604
770,-13,21.7924,4.18298,-0.00566771,0.00783475,-0.00080285,0.00788232,-0.00571528,-1.51161,0.00788374,0.0120296,1994,1037,21.7924,-4.18299
777,-13,21.7681,4.15466,-0.00728118,0.0118814,-0.00155122,0.0120061,-0.00740594,-1.49054,0.011312,0.0121929,2001,1037,21.768,-4.15462
784,-13,21.7871,4.10583,-0.0093325,0.0167659,-0.00171707,0.0168784,-0.00944498,-1.50538,0.0153985,0.0271536,2008,1037,21.7871,-4.10581
791,-13,21.5618,4.00806,-0.0118014,0.0230904,-0.00157776,0.0231616,-0.0118726,-1.5257,0.0205741,0.0438917,2015,1037,21.5618,-4.00807
798,-13,21.3274,4.98254,-0.014513,0.0313638,-0.00107546,0.031389,-0.0145382,-1.54737,0.0271045,0.0498834,2022,1037,21.3274,-4.98251
805,-13,21.3369,5.24939,-0.0173101,0.0422027,-3.53049e-05,0.0422027,-0.0173102,-1.5702,0.0353475,0.0454456,2029,1037,21.337,-5.24934
812,-13,21.4592,5.56628,0,0,0,0,0,0,0,-1,2036,1037,21.4592,-5.56634
-700,-20,-11.2477,3.57874,0,0,0,0,0,0,0,-1,524,1044,-11.2477,-3.57875
-693,-20,-12.572,-4.20349,0,0,0,0,0,0,0,-1,531,1044,-12.572,4.2035
-686,-20,-13.2989,-3.87756,-0.0393446,-0.0371497,0.087304,0.0490638,-0.125558,0.791683,0.103992,0.0464364,538,1044,-13.2989,3.8776
-679,-20,-13.7215,-3.16016,-0.0317753,-0.0264686,0.071518,0.0424452,-0.100689,0.80394,0.0848886,0.0499539,545,1044,-13.7215,3.16016
-672,-20,-14.585,1.47888,0,0,0,0,0,0,0,-1,552,1044,-14.585,-1.47886
-665,-20,-14.592,1.48743,-0.0193646,-0.0109599,0.0442846,0.0293212,-0.0596458,0.832704,0.0523503,0.0477074,559,1044,-14.5921,-1.48739
-658,-20,-14.6068,1.52454,-0.0145069,-0.00587466,0.0332386,0.0233268,-0.0437084,0.849963,0.0392946,0.0455162,566,1044,-14.6068,-1.52455
-651,-20,-14.5774,1.6051,-0.0105587,-0.0023718,0.0240113,0.0178925,-0.030823,0.869827,0.0284543,0.0373225,573,1044,-14.5774,-1.60515
-644,-20,-14.5758,1.65576,-0.00735362,-0.000134534,0.0162107,0.0128637,-0.0203518,0.894943,0.0193387,0.0243013,580,1044,-14.5758,-1.65582
-637,-20,-14.6274,1.63916,-0.00467211,0.00117874,0.00926374,0.00796799,-0.0114614,0.938339,0.0112778,0.0156664,587,1044,-14.6274,-1.63914
-630,-20,-14.6403,1.74084,-0.00272693,0.00219486,0.00355124,0.00405454,-0.0045866,1.08839,0.00499212,0.0131114,594,1044,-14.6403,-1.74089
-623,-20,-14.6272,1.76367,-0.00179306,0.00239943,-0.000580708,0.00247838,-0.00187201,-1.43567,0.00251982,0.0132026,601,1044,-14.6272,-1.76362
-616,-20,-14.6168,1.76624,-0.00132135,0.00116962,-0.00329229,0.00344413,-0.00359587,-0.96623,0.00406486,0.0126984,608,1044,-14.6168,-1.76628
-609,-20,-14.6118,1.77698,-0.000765128,1.58409e-05,-0.00459412,0.00423604,-0.00498533,-0.827795,0.00532981,0.0141022,615,1044,-14.6118,-1.77703
-602,-20,-14.6235,1.80762,-0.000753677,-0.000485943,-0.00564537,0.00502714,-0.00626676,-0.797252,0.00653362,0.0109923,622,1044,-14.6235,-1.80767
-595,-20,-14.6443,1.78931,-0.000967639,-0.000830603,-0.00619417,0.00529542,-0.00709367,-0.790929,0.00717792,0.0138602,629,1044,-14.6443,-1.78932
-588,-20,-14.6171,1.31433,-0.00098076,-0.0010407,-0.00614155,0.00513089,-0.00715235,-0.782958,0.00712367,0.0207122,636,1044,-14.6171,-1.31431
-581,-20,-14.656,0.878052,-0.000843098,-0.0011894,-0.00558277,0.00456921,-0.0066017,-0.769895,0.00648501,0.0294121,643,1044,-14.656,-0.878109
-574,-20,-14.7159,0.774536,-0.000867288,-0.00111531,-0.00482131,0.0038316,-0.0058142,-0.77254,0.00560809,0.0391145,650,1044,-14.7159,-0.774523
-567,-20,-14.7943,0.747681,-0.00090302,-0.000934216,-0.0034956,0.00257702,-0.00441425,-0.783167,0.0040826,0.0446009,657,1044,-14.7942,-0.747698
-560,-20,-14.6075,0.822998,-0.00088231,-0.000692494,-0.00158185,0.000797289,-0.00237209,-0.815361,0.00190365,0.0427343,664,1044,-14.6075,-0.823041
-553,-20,-14.4932,0.891357,-0.000816451,-0.000476138,0.000923493,0.000292744,-0.00158533,0.876503,0.00116678,0.0411171,671,1044,-14.4932,-0.891411
-546,-20,-14.6146,0.942871,-0.000748543,-0.000400264,0.00401449,0.00344386,-0.00459267,0.807073,0.00465567,0.0410325,678,1044,-14.6146,-0.942832
-539,-20,-14.9006,0.960205,-0.000598487,-0.000679755,0.007091,0.006452,-0.00773024,0.782533,0.0081992,0.0433491,685,1044,-14.9006,-0.960261
-532,-20,-14.8821,1.06982,-0.000620981,-0.00116683,0.00882951,0.00793982,-0.00972763,0.769948,0.0102177,0.0429079,692,1044,-14.8821,-1.06987
-525,-20,0,0,0,0,0,0,0,0,0,-1,699,1044,0,0
-518,-20,0,0,0,0,0,0,0,0,0,-1,706,1044,0,0
-511,-20,0,0,0,0,0,0,0,0,0,-1,713,1044,0,0
-504,-20,0,0,0,0,0,0,0,0,0,-1,720,1044,0,0
-497,-20,0,0,0,0,0,0,0,0,0,-1,727,1044,0,0
-490,-20,0,0,0,0,0,0,0,0,0,-1,734,1044,0,0
-483,-20,0,0,0,0,0,0,0,0,0,-1,741,1044,0,0
-476,-20,0,0,0,0,0,0,0,0,0,-1,748,1044,0,0
-469,-20,0,0,0,0,0,0,0,0,0,-1,755,1044,0,0
-462,-20,0,0,0,0,0,0,0,0,0,-1,762,1044,0,0
-455,-20,0,0,0,0,0,0,0,0,0,-1,769,1044,0,0
-448,-20,0,0,0,0,0,0,0,0,0,-1,776,1044,0,0
-441,-20,0,0,0,0,0,0,0,0,0,-1,783,1044,0,0
-434,-20,0,0,0,0,0,0,0,0,0,-1,790,1044,0,0
-427,-20,0,0,0,0,0,0,0,0,0,-1,797,1044,0,0
-420,-20,0,0,0,0,0,0,0,0,0,-1,804,1044,0,0
-413,-20,0,0,0,0,0,0,0,0,0,-1,811,1044,0,0
-406,-20,0,0,0,0,0,0,0,0,0,-1,818,1044,0,0
-399,-20,0,0,0,0,0,0,0,0,0,-1,825,1044,0,0
-392,-20,0,0,0,0,0,0,0,0,0,-1,832,1044,0,0
-385,-20,0,0,0,0,0,0,0,0,0,-1,839,1044,0,0
-378,-20,0,0,0,0,0,0,0,0,0,-1,846,1044,0,0
-371,-20,0,0,0,0,0,0,0,0,0,-1,853,1044,0,0
-364,-20,0,0,0,0,0,0,0,0,0,-1,860,1044,0,0
-357,-20,0,0,0,0,0,0,0,0,0,-1,867,1044,0,0
-350,-20,0,0,0,0,0,0,0,0,0,-1,874,1044,0,0
-343,-20,0,0,0,0,0,0,0,0,0,-1,881,1044,0,0
-336,-20,0,0,0,0,0,0,0,0,0,-1,888,1044,0,0
-329,-20,0,0,0,0,0,0,0,0,0,-1,895,1044,0,0
-322,-20,0,0,0,0,0,0,0,0,0,-1,902,1044,0,0
-315,-20,0,0,0,0,0,0,0,0,0,-1,909,1044,0,0
-308,-20,0,0,0,0,0,0,0,0,0,-1,916,1044,0,0
-301,-20,0,0,0,0,0,0,0,0,0,-1,923,1044,0,0
-294,-20,0,0,0,0,0,0,0,0,0,-1,930,1044,0,0
-287,-20,0,0,0,0,0,0,0,0,0,-1,937,1044,0,0
-280,-20,0,0,0,0,0,0,0,0,0,-1,944,1044,0,0
-273,-20,0,0,0,0,0,0,0,0,0,-1,951,1044,0,0
-266,-20,0,0,0,0,0,0,0,0,0,-1,958,1044,0,0
-259,-20,0,0,0,0,0,0,0,0,0,-1,965,1044,0,0
-252,-20,0,0,0,0,0,0,0,0,0,-1,972,1044,0,0
-245,-20,0,0,0,0,0,0,0,0,0,-1,979,1044,0,0
-238,-20,0,0,0,0,0,0,0,0,0,-1,986,1044,0,0
-231,-20,0,0,0,0,0,0,0,0,0,-1,993,1044,0,0
-224,-20,0,0,0,0,0,0,0,0,0,-1,1000,1044,0,0
-217,-20,0,0,0,0,0,0,0,0,0,-1,1007,1044,0,0
-210,-20,0,0,0,0,0,0,0,0,0,-1,1014,1044,0,0
-203,-20,0,0,0,0,0,0,0,0,0,-1,1021,1044,0,0
-196,-20,0,0,0,0,0,0,0,0,0,-1,1028,1044,0,0
-189,-20,0,0,0,0,0,0,0,0,0,-1,1035,1044,0,0
-182,-20,0,0,0,0,0,0,0,0,0,-1,1042,1044,0,0
-175,-20,0,0,0,0,0,0,0,0,0,-1,1049,1044,0,0
-168,-20,0,0,0,0,0,0,0,0,0,-1,1056,1044,0,0
-161,-20,0,0,0,0,0,0,0,0,0,-1,1063,1044,0,0
-154,-20,0,0,0,0,0,0,0,0,0,-1,1070,1044,0,0
-147,-20,0,0,0,0,0,0,0,0,0,-1,1077,1044,0,0
-140,-20,0,0,0,0,0,0,0,0,0,-1,1084,1044,0,0
-133,-20,0,0,0,0,0,0,0,0,0,-1,1091,1044,0,0
-126,-20,0,0,0,0,0,0,0,0,0,-1,1098,1044,0,0
-119,-20,0,0,0,0,0,0,0,0,0,-1,1105,1044,0,0
-112,-20,0,0,0,0,0,0,0,0,0,-1,1112,1044,0,0
-105,-20,0,0,0,0,0,0,0,0,0,-1,1119,1044,0,0
-98,-20,0,0,0,0,0,0,0,0,0,-1,1126,1044,0,0
-91,-20,0,0,0,0,0,0,0,0,0,-1,1133,1044,0,0
-84,-20,0,0,0,0,0,0,0,0,0,-1,1140,1044,0,0
-77,-20,0,0,0,0,0,0,0,0,0,-1,1147,1044,0,0
-70,-20,0,0,0,0,0,0,0,0,0,-1,1154,1044,0,0
-63,-20,0,0,0,0,0,0,0,0,0,-1,1161,1044,0,0
-56,-20,0,0,0,0,0,0,0,0,0,-1,1168,1044,0,0
-49,-20,0,0,0,0,0,0,0,0,0,-1,1175,1044,0,0
-42,-20,0,0,0,0,0,0,0,0,0,-1,1182,1044,0,0
-35,-20,0,0,0,0,0,0,0,0,0,-1,1189,1044,0,0
-28,-20,0,0,0,0,0,0,0,0,0,-1,1196,1044,0,0
-21,-20,0,0,0,0,0,0,0,0,0,-1,1203,1044,0,0
-14,-20,0,0,0,0,0,0,0,0,0,-1,1210,1044,0,0
-7,-20,0,0,0,0,0,0,0,0,0,-1,1217,1044,0,0
0,-20,0,0,0,0,0,0,0,0,0,-1,1224,1044,0,0
7,-20,0,0,0,0,0,0,0,0,0,-1,1231,1044,0,0
14,-20,0,0,0,0,0,0,0,0,0,-1,1238,1044,0,0
21,-20,0,0,0,0,0,0,0,0,0,-1,1245,1044,0,0
28,-20,0,0,0,0,0,0,0,0,0,-1,1252,1044,0,0
35,-20,0,0,0,0,0,0,0,0,0,-1,1259,1044,0,0
42,-20,0,0,0,0,0,0,0,0,0,-1,1266,1044,0,0
49,-20,0,0,0,0,0,0,0,0,0,-1,1273,1044,0,0
56,-20,0,0,0,0,0,0,0,0,0,-1,1280,1044,0,0
63,-20,0,0,0,0,0,0,0,0,0,-1,1287,1044,0,0
70,-20,0,0,0,0,0,0,0,0,0,-1,1294,1044,0,0
77,-20,0,0,0,0,0,0,0,0,0,-1,1301,1044,0,0
84,-20,0,0,0,0,0,0,0,0,0,-1,1308,1044,0,0
91,-20,0,0,0,0,0,0,0,0,0,-1,1315,1044,0,0
98,-20,0,0,0,0,0,0,0,0,0,-1,1322,1044,0,0
105,-20,0,0,0,0,0,0,0,0,0,-1,1329,1044,0,0
112,-20,0,0,0,0,0,0,0,0,0,-1,1336,1044,0,0
119,-20,0,0,0,0,0,0,0,0,0,-1,1343,1044,0,0
126,-20,0,0,0,0,0,0,0,0,0,-1,1350,1044,0,0
133,-20,0,0,0,0,0,0,0,0,0,-1,1357,1044,0,0
140,-20,0,0,0,0,0,0,0,0,0,-1,1364,1044,0,0
147,-20,0,0,0,0,0,0,0,0,0,-1,1371,1044,0,0
154,-20,0,0,0,0,0,0,0,0,0,-1,1378,1044,0,0
161,-20,0,0,0,0,0,0,0,0,0,-1,1385,1044,0,0
168,-20,0,0,0,0,0,0,0,0,0,-1,1392,1044,0,0
175,-20,0,0,0,0,0,0,0,0,0,-1,1399,1044,0,0
182,-20,0,0,0,0,0,0,0,0,0,-1,1406,1044,0,0
189,-20,0,0,0,0,0,0,0,0,0,-1,1413,1044,0,0
196,-20,0,0,0,0,0,0,0,0,0,-1,1420,1044,0,0
203,-20,0,0,0,0,0,0,0,0,0,-1,1427,1044,0,0
210,-20,0,0,0,0,0,0,0,0,0,-1,1434,1044,0,0
217,-20,0,0,0,0,0,0,0,0,0,-1,1441,1044,0,0
224,-20,0,0,0,0,0,0,0,0,0,-1,1448,1044,0,0
231,-20,0,0,0,0,0,0,0,0,0,-1,1455,1044,0,0
238,-20,0,0,0,0,0,0,0,0,0,-1,1462,1044,0,0
245,-20,0,0,0,0,0,0,0,0,0,-1,1469,1044,0,0
252,-20,0,0,0,0,0,0,0,0,0,-1,1476,1044,0,0
259,-20,0,0,0,0,0,0,0,0,0,-1,1483,1044,0,0
266,-20,0,0,0,0,0,0,0,0,0,-1,1490,1044,0,0
273,-20,0,0,0,0,0,0,0,0,0,-1,1497,1044,0,0
280,-20,0,0,0,0,0,0,0,0,0,-1,1504,1044,0,0
287,-20,0,0,0,0,0,0,0,0,0,-1,1511,1044,0,0
294,-20,0,0,0,0,0,0,0,0,0,-1,1518,1044,0,0
301,-20,0,0,0,0,0,0,0,0,0,-1,1525,1044,0,0
308,-20,0,0,0,0,0,0,0,0,0,-1,1532,1044,0,0
315,-20,0,0,0,0,0,0,0,0,0,-1,1539,1044,0,0
322,-20,0,0,0,0,0,0,0,0,0,-1,1546,1044,0,0
329,-20,0,0,0,0,0,0,0,0,0,-1,1553,1044,0,0
336,-20,0,0,0,0,0,0,0,0,0,-1,1560,1044,0,0
343,-20,0,0,0,0,0,0,0,0,0,-1,1567,1044,0,0
350,-20,0,0,0,0,0,0,0,0,0,-1,1574,1044,0,0
357,-20,0,0,0,0,0,0,0,0,0,-1,1581,1044,0,0
364,-20,0,0,0,0,0,0,0,0,0,-1,1588,1044,0,0
371,-20,0,0,0,0,0,0,0,0,0,-1,1595,1044,0,0
378,-20,0,0,0,0,0,0,0,0,0,-1,1602,1044,0,0
385,-20,0,0,0,0,0,0,0,0,0,-1,1609,1044,0,0
392,-20,0,0,0,0,0,0,0,0,0,-1,1616,1044,0,0
399,-20,0,0,0,0,0,0,0,0,0,-1,1623,1044,0,0
406,-20,0,0,0,0,0,0,0,0,0,-1,1630,1044,0,0
413,-20,0,0,0,0,0,0,0,0,0,-1,1637,1044,0,0
420,-20,0,0,0,0,0,0,0,0,0,-1,1644,1044,0,0
427,-20,0,0,0,0,0,0,0,0,0,-1,1651,1044,0,0
434,-20,0,0,0,0,0,0,0,0,0,-1,1658,1044,0,0
441,-20,0,0,0,0,0,0,0,0,0,-1,1665,1044,0,0
448,-20,0,0,0,0,0,0,0,0,0,-1,1672,1044,0,0
455,-20,0,0,0,0,0,0,0,0,0,-1,1679,1044,0,0
462,-20,0,0,0,0,0,0,0,0,0,-1,1686,1044,0,0
469,-20,0,0,0,0,0,0,0,0,0,-1,1693,1044,0,0
476,-20,0,0,0,0,0,0,0,0,0,-1,1700,1044,0,0
483,-20,0,0,0,0,0,0,0,0,0,-1,1707,1044,0,0
490,-20,0,0,0,0,0,0,0,0,0,-1,1714,1044,0,0
497,-20,0,0,0,0,0,0,0,0,0,-1,1721,1044,0,0
504,-20,0,0,0,0,0,0,0,0,0,-1,1728,1044,0,0
511,-20,0,0,0,0,0,0,0,0,0,-1,1735,1044,0,0
518,-20,0,0,0,0,0,0,0,0,0,-1,1742,1044,0,0
525,-20,0,0,0,0,0,0,0,0,0,-1,1749,1044,0,0
532,-20,0,0,0,0,0,0,0,0,0,-1,1756,1044,0,0
539,-20,0,0,0,0,0,0,0,0,0,-1,1763,1044,0,0
546,-20,0,0,0,0,0,0,0,0,0,-1,1770,1044,0,0
553,-20,0,0,0,0,0,0,0,0,0,-1,1777,1044,0,0
560,-20,0,0,0,0,0,0,0,0,0,-1,1784,1044,0,0
567,-20,0,0,0,0,0,0,0,0,0,-1,1791,1044,0,0
574,-20,0,0,0,0,0,0,0,0,0,-1,1798,1044,0,0
581,-20,0,0,0,0,0,0,0,0,0,-1,1805,1044,0,0
588,-20,0,0,0,0,0,0,0,0,0,-1,1812,1044,0,0
595,-20,0,0,0,0,0,0,0,0,0,-1,1819,1044,0,0
602,-20,0,0,0,0,0,0,0,0,0,-1,1826,1044,0,0
609,-20,0,0,0,0,0,0,0,0,0,-1,1833,1044,0,0
616,-20,0,0,0,0,0,0,0,0,0,-1,1840,1044,0,0
623,-20,0,0,0,0,0,0,0,0,0,-1,1847,1044,0,0
630,-20,0,0,0,0,0,0,0,0,0,-1,1854,1044,0,0
637,-20,0,0,0,0,0,0,0,0,0,-1,1861,1044,0,0
644,-20,0,0,0,0,0,0,0,0,0,-1,1868,1044,0,0
651,-20,22.2174,2.91284,-0.00539081,-0.000111843,0.00294513,0.0012035,-0.00670615,1.15076,0.00492123,0.0393979,1875,1044,22.2174,-2.91285
658,-20,22.2008,2.86853,-0.00336709,0.000114924,0.00254915,0.00146087,-0.00471304,1.085,0.00372571,0.0412799,1882,1044,22.2008,-2.86857
665,-20,22.2579,2.92236,-0.00202873,0.000310211,0.00210482,0.00154862,-0.00326715,1.03897,0.00283878,0.0389511,1889,1044,22.258,-2.92235
672,-20,22.2693,2.8623,-0.00109474,0.000450466,0.00221705,0.00202568,-0.00266995,0.953059,0.00271952,0.02533,1896,1044,22.2693,-2.86225
679,-20,22.2186,2.88928,-0.000620382,0.00039176,0.00284878,0.00277907,-0.00300769,0.873304,0.00334186,0.0281958,1903,1044,22.2187,-2.88927
686,-20,22.2684,2.82983,-0.000529859,0.00018914,0.00355297,0.00340075,-0.00374147,0.835818,0.00412512,0.0395031,1910,1044,22.2684,-2.82987
693,-20,22.3782,2.76855,-0.000629977,-7.77331e-05,0.00421552,0.0038707,-0.00457841,0.818102,0.0048838,0.0442836,1917,1044,22.3782,-2.7686
700,-20,22.2946,2.83838,-0.000820635,-0.00032599,0.00476651,0.00419961,-0.00534624,0.811319,0.00552453,0.039746,1924,1044,22.2946,-2.83833
707,-20,22.2189,2.81604,-0.000959063,-0.000502714,0.00503871,0.00431299,-0.00577476,0.808025,0.00584451,0.0298867,1931,1044,22.2188,-2.81598
714,-20,22.2164,2.85852,-0.00115017,-0.000586065,0.00513918,0.0042788,-0.00601503,0.812812,0.00597126,0.0241615,1938,1044,22.2164,-2.85854
721,-20,22.225,2.94238,0,0,0,0,0,0,0,-1,1945,1044,22.225,-2.94243
728,-20,21.7819,4.07422,0,0,0,0,0,0,0,-1,1952,1044,21.7819,-4.07422
735,-20,21.7874,4.12915,-0.00202825,-0.000359831,0.004148,0.00303701,-0.00542509,0.88463,0.00495002,0.0156515,1959,1044,21.7874,-4.12913
742,-20,21.8076,4.1488,-0.00259344,-4.7881e-05,0.0035491,0.00244976,-0.00509109,0.957565,0.00444185,0.0137853,1966,1044,21.8076,-4.14886
749,-20,21.8286,4.13672,-0.00304024,0.00108159,0.00276731,0.00247109,-0.00442974,1.10546,0.00403734,0.0152555,1973,1044,21.8287,-4.13672
756,-20,21.8289,4.15198,-0.00320199,0.0025574,0.0017316,0.00303793,-0.00368252,1.3001,0.003886,0.0118165,1980,1044,21.8288,-4.15197
763,-20,21.8066,4.16138,-0.00349653,0.00436041,0.000677138,0.00441834,-0.00355446,1.48545,0.0046121,0.0137647,1987,1044,21.8067,-4.16132
770,-20,21.7927,4.1825,-0.0042017,0.00695496,-0.000530802,0.00698015,-0.0042269,-1.52336,0.00653516,0.0133997,1994,1044,21.7928,-4.18248
777,-20,21.7538,4.15112,-0.00511187,0.0105383,-0.00124252,0.0106363,-0.00520991,-1.49206,0.00932593,0.0127546,2001,1044,21.7538,-4.15112
784,-20,21.7808,4.18176,-0.00626317,0.0148141,-0.0012942,0.0148933,-0.00634234,-1.5097,0.0125873,0.017121,2008,1044,21.7808,-4.18177
791,-20,21.7828,4.24084,-0.00755384,0.0202532,-0.000951393,0.0202857,-0.00758635,-1.53664,0.0166394,0.0347231,2015,1044,21.7829,-4.24082
798,-20,21.5997,4.61145,-0.00874107,0.0272853,-0.000101628,0.0272856,-0.00874136,-1.56798,0.0216992,0.0445367,2022,1044,21.5998,-4.61139
805,-20,21.667,5.07275,-0.0095702,0.0363998,0.0015374,0.0364512,-0.00962156,1.5374,0.0280632,0.0441843,2029,1044,21.667,-5.07273
812,-20,21.6868,5.31921,0,0,0,0,0,0,0,-1,2036,1044,21.6868,-5.31917
-700,-27,-12.5136,-4.05627,0,0,0,0,0,0,0,-1,524,1051,-12.5136,4.05622
-693,-27,-13.0966,-3.53589,-0.0497293,-0.0542618,0.101175,0.0492053,-0.153196,0.7742,0.12189,0.0491392,531,1051,-13.0966,3.53587
-686,-27,-13.6843,-2.99438,-0.0403949,-0.0397095,0.0865307,0.0464792,-0.126584,0.787378,0.103424,0.046422,538,1051,-13.6843,2.99436
-679,-27,-14.3,-2.4856,-0.032287,-0.0279426,0.0719061,0.0418241,-0.102054,0.800498,0.0854596,0.0479963,545,1051,-14.3,2.48559
-672,-27,-14.1853,1.07312,0,0,0,0,0,0,0,-1,552,1051,-14.1853,-1.07314
-665,-27,-14.5419,1.12549,-0.0192206,-0.0113703,0.0456505,0.0305235,-0.0611144,0.828284,0.0538808,0.0438874,559,1051,-14.5419,-1.12549
-658,-27,-14.7133,1.37024,-0.0142029,-0.00606012,0.0346616,0.0247684,-0.0450314,0.843861,0.040861,0.0423147,566,1051,-14.7133,-1.37025
-651,-27,-14.5236,1.66748,-0.0101787,-0.00243944,0.0253282,0.019313,-0.0319312,0.861202,0.0298833,0.0341434,573,1051,-14.5236,-1.66747
-644,-27,-14.5506,1.61768,-0.00696313,-9.51731e-05,0.0172902,0.0140987,-0.021157,0.883427,0.0204905,0.0157972,580,1051,-14.5506,-1.6177
-637,-27,-14.5729,1.60999,-0.00431739,0.001246,0.0101081,0.00894816,-0.0120196,0.919672,0.0121489,0.01289,587,1051,-14.5729,-1.60995
-630,-27,-14.5883,1.71521,-0.00245167,0.00229757,0.00413233,0.00468898,-0.00484307,1.04618,0.00550357,0.01744,594,1051,-14.5883,-1.71518
-623,-27,-14.5759,1.74902,-0.00163983,0.00232892,-0.000241037,0.0023435,-0.00165442,-1.51036,0.0023196,0.0161246,601,1051,-14.5758,-1.74907
-616,-27,-14.5656,1.78442,-0.0013366,0.00101394,-0.00321821,0.00326477,-0.00358743,-0.960471,0.00395758,0.0137221,608,1051,-14.5656,-1.78446
-609,-27,-14.5844,1.81665,-0.000916008,-0.000131095,-0.0046913,0.00418413,-0.00523124,-0.827129,0.00544716,0.0128946,615,1051,-14.5844,-1.81664
-602,-27,-14.5793,1.86108,-0.000980376,-0.000648355,-0.0058318,0.0050198,-0.00664853,-0.799628,0.00675855,0.0103896,622,1051,-14.5794,-1.8611
-595,-27,-14.6061,1.89758,-0.0012567,-0.00100265,-0.00643179,0.00530337,-0.00756272,-0.795272,0.00746632,0.010562,629,1051,-14.6061,-1.89755
-588,-27,-14.6318,1.42188,-0.00131456,-0.00119661,-0.00637588,0.00512057,-0.00763174,-0.790023,0.00740998,0.0178272,636,1051,-14.6319,-1.42186
-581,-27,-14.6445,0.748047,0,0,0,0,0,0,0,-1,643,1051,-14.6446,-0.74805
-574,-27,-14.6483,0.787842,-0.00122131,-0.00120135,-0.00498051,0.00376919,-0.00619185,-0.7864,0.00580743,0.03705,650,1051,-14.6483,-0.787819
-567,-27,-14.6956,0.925049,-0.00123513,-0.000972834,-0.00356882,0.00246724,-0.00467521,-0.803764,0.00418886,0.0446885,657,1051,-14.6956,-0.925055
-560,-27,-14.6117,0.91687,-0.00119191,-0.000665158,-0.00150071,0.000595117,-0.00245218,-0.872263,0.00186508,0.0418476,664,1051,-14.6117,-0.916922
-553,-27,-14.5575,0.803589,-0.00110933,-0.000361618,0.00124921,0.000568483,-0.00203943,0.930793,0.0015835,0.0394899,671,1051,-14.5575,-0.803634
-546,-27,-14.663,0.825684,-0.0010397,-0.000183306,0.00470721,0.00411515,-0.00533815,0.830756,0.00547307,0.0418422,678,1051,-14.663,-0.825735
-539,-27,-14.7528,1.02026,-0.000931429,-0.000343286,0.00821886,0.00758677,-0.00886148,0.803281,0.0095059,0.0443958,685,1051,-14.7528,-1.02027
-532,-27,-14.7844,1.28186,0,0,0,0,0,0,0,-1,692,1051,-14.7843,-1.28187
-525,-27,0,0,0,0,0,0,0,0,0,-1,699,1051,0,0
-518,-27,0,0,0,0,0,0,0,0,0,-1,706,1051,0,0
-511,-27,0,0,0,0,0,0,0,0,0,-1,713,1051,0,0
-504,-27,0,0,0,0,0,0,0,0,0,-1,720,1051,0,0
-497,-27,0,0,0,0,0,0,0,0,0,-1,727,1051,0,0
-490,-27,0,0,0,0,0,0,0,0,0,-1,734,1051,0,0
-483,-27,0,0,0,0,0,0,0,0,0,-1,741,1051,0,0
-476,-27,0,0,0,0,0,0,0,0,0,-1,748,1051,0,0
-469,-27,0,0,0,0,0,0,0,0,0,-1,755,1051,0,0
-462,-27,0,0,0,0,0,0,0,0,0,-1,762,1051,0,0
-455,-27,0,0,0,0,0,0,0,0,0,-1,769,1051,0,0
-448,-27,0,0,0,0,0,0,0,0,0,-1,776,1051,0,0
-441,-27,0,0,0,0,0,0,0,0,0,-1,783,1051,0,0
-434,-27,0,0,0,0,0,0,0,0,0,-1,790,1051,0,0
-427,-27,0,0,0,0,0,0,0,0,0,-1,797,1051,0,0
-420,-27,0,0,0,0,0,0,0,0,0,-1,804,1051,0,0
-413,-27,0,0,0,0,0,0,0,0,0,-1,811,1051,0,0
-406,-27,0,0,0,0,0,0,0,0,0,-1,818,1051,0,0
-399,-27,0,0,0,0,0,0,0,0,0,-1,825,1051,0,0
-392,-27,0,0,0,0,0,0,0,0,0,-1,832,1051,0,0
-385,-27,0,0,0,0,0,0,0,0,0,-1,839,1051,0,0
-378,-27,0,0,0,0,0,0,0,0,0,-1,846,1051,0,0
-371,-27,0,0,0,0,0,0,0,0,0,-1,853,1051,0,0
-364,-27,0,0,0,0,0,0,0,0,0,-1,860,1051,0,0
-357,-27,0,0,0,0,0,0,0,0,0,-1,867,1051,0,0
-350,-27,0,0,0,0,0,0,0,0,0,-1,874,1051,0,0
-343,-27,0,0,0,0,0,0,0,0,0,-1,881,1051,0,0
-336,-27,0,0,0,0,0,0,0,0,0,-1,888,1051,0,0
-329,-27,0,0,0,0,0,0,0,0,0,-1,895,1051,0,0
-322,-27,0,0,0,0,0,0,0,0,0,-1,902,1051,0,0
-315,-27,0,0,0,0,0,0,0,0,0,-1,909,1051,0,0
-308,-27,0,0,0,0,0,0,0,0,0,-1,916,1051,0,0
-301,-27,0,0,0,0,0,0,0,0,0,-1,923,1051,0,0
-294,-27,0,0,0,0,0,0,0,0,0,-1,930,1051,0,0
-287,-27,0,0,0,0,0,0,0,0,0,-1,937,1051,0,0
-280,-27,0,0,0,0,0,0,0,0,0,-1,944,1051,0,0
-273,-27,0,0,0,0,0,0,0,0,0,-1,951,1051,0,0
-266,-27,0,0,0,0,0,0,0,0,0,-1,958,1051,0,0
-259,-27,0,0,0,0,0,0,0,0,0,-1,965,1051,0,0
-252,-27,0,0,0,0,0,0,0,0,0,-1,972,1051,0,0
-245,-27,0,0,0,0,0,0,0,0,0,-1,979,1051,0,0
-238,-27,0,0,0,0,0,0,0,0,0,-1,986,1051,0,0
-231,-27,0,0,0,0,0,0,0,0,0,-1,993,1051,0,0
-224,-27,0,0,0,0,0,0,0,0,0,-1,1000,1051,0,0
-217,-27,0,0,0,0,0,0,0,0,0,-1,1007,1051,0,0
-210,-27,0,0,0,0,0,0,0,0,0,-1,1014,1051,0,0
-203,-27,0,0,0,0,0,0,0,0,0,-1,1021,1051,0,0
-196,-27,0,0,0,0,0,0,0,0,0,-1,1028,1051,0,0
-189,-27,0,0,0,0,0,0,0,0,0,-1,1035,1051,0,0
-182,-27,0,0,0,0,0,0,0,0,0,-1,1042,1051,0,0
-175,-27,0,0,0,0,0,0,0,0,0,-1,1049,1051,0,0
-168,-27,0,0,0,0,0,0,0,0,0,-1,1056,1051,0,0
-161,-27,0,0,0,0,0,0,0,0,0,-1,1063,1051,0,0
-154,-27,0,0,0,0,0,0,0,0,0,-1,1070,1051,0,0
-147,-27,0,0,0,0,0,0,0,0,0,-1,1077,1051,0,0
-140,-27,0,0,0,0,0,0,0,0,0,-1,1084,1051,0,0
-133,-27,0,0,0,0,0,0,0,0,0,-1,1091,1051,0,0
-126,-27,0,0,0,0,0,0,0,0,0,-1,1098,1051,0,0
-119,-27,0,0,0,0,0,0,0,0,0,-1,1105,1051,0,0
-112,-27,0,0,0,0,0,0,0,0,0,-1,1112,1051,0,0
-105,-27,0,0,0,0,0,0,0,0,0,-1,1119,1051,0,0
-98,-27,0,0,0,0,0,0,0,0,0,-1,1126,1051,0,0
-91,-27,0,0,0,0,0,0,0,0,0,-1,1133,1051,0,0
-84,-27,0,0,0,0,0,0,0,0,0,-1,1140,1051,0,0
-77,-27,0,0,0,0,0,0,0,0,0,-1,1147,1051,0,0
-70,-27,0,0,0,0,0,0,0,0,0,-1,1154,1051,0,0
-63,-27,0,0,0,0,0,0,0,0,0,-1,1161,1051,0,0
-56,-27,0,0,0,0,0,0,0,0,0,-1,1168,1051,0,0
-49,-27,0,0,0,0,0,0,0,0,0,-1,1175,1051,0,0
-42,-27,0,0,0,0,0,0,0,0,0,-1,1182,1051,0,0
-35,-27,0,0,0,0,0,0,0,0,0,-1,1189,1051,0,0
-28,-27,0,0,0,0,0,0,0,0,0,-1,1196,1051,0,0
-21,-27,0,0,0,0,0,0,0,0,0,-1,1203,1051,0,0
-14,-27,0,0,0,0,0,0,0,0,0,-1,1210,1051,0,0
-7,-27,0,0,0,0,0,0,0,0,0,-1,1217,1051,0,0
0,-27,0,0,0,0,0,0,0,0,0,-1,1224,1051,0,0
7,-27,0,0,0,0,0,0,0,0,0,-1,1231,1051,0,0
14,-27,0,0,0,0,0,0,0,0,0,-1,1238,1051,0,0
21,-27,0,0,0,0,0,0,0,0,0,-1,1245,1051,0,0
28,-27,0,0,0,0,0,0,0,0,0,-1,1252,1051,0,0
35,-27,0,0,0,0,0,0,0,0,0,-1,1259,1051,0,0
42,-27,0,0,0,0,0,0,0,0,0,-1,1266,1051,0,0
49,-27,0,0,0,0,0,0,0,0,0,-1,1273,1051,0,0
56,-27,0,0,0,0,0,0,0,0,0,-1,1280,1051,0,0
63,-27,0,0,0,0,0,0,0,0,0,-1,1287,1051,0,0
70,-27,0,0,0,0,0,0,0,0,0,-1,1294,1051,0,0
77,-27,0,0,0,0,0,0,0,0,0,-1,1301,1051,0,0
84,-27,0,0,0,0,0,0,0,0,0,-1,1308,1051,0,0
91,-27,0,0,0,0,0,0,0,0,0,-1,1315,1051,0,0
98,-27,0,0,0,0,0,0,0,0,0,-1,1322,1051,0,0
105,-27,0,0,0,0,0,0,0,0,0,-1,1329,1051,0,0
112,-27,0,0,0,0,0,0,0,0,0,-1,1336,1051,0,0
119,-27,0,0,0,0,0,0,0,0,0,-1,1343,1051,0,0
126,-27,0,0,0,0,0,0,0,0,0,-1,1350,1051,0,0
133,-27,0,0,0,0,0,0,0,0,0,-1,1357,1051,0,0
140,-27,0,0,0,0,0,0,0,0,0,-1,1364,1051,0,0
147,-27,0,0,0,0,0,0,0,0,0,-1,1371,1051,0,0
154,-27,0,0,0,0,0,0,0,0,0,-1,1378,1051,0,0
161,-27,0,0,0,0,0,0,0,0,0,-1,1385,1051,0,0
168,-27,0,0,0,0,0,0,0,0,0,-1,1392,1051,0,0
175,-27,0,0,0,0,0,0,0,0,0,-1,1399,1051,0,0
182,-27,0,0,0,0,0,0,0,0,0,-1,1406,1051,0,0
189,-27,0,0,0,0,0,0,0,0,0,-1,1413,1051,0,0
196,-27,0,0,0,0,0,0,0,0,0,-1,1420,1051,0,0
203,-27,0,0,0,0,0,0,0,0,0,-1,1427,1051,0,0
210,-27,0,0,0,0,0,0,0,0,0,-1,1434,1051,0,0
217,-27,0,0,0,0,0,0,0,0,0,-1,1441,1051,0,0
224,-27,0,0,0,0,0,0,0,0,0,-1,1448,1051,0,0
231,-27,0,0,0,0,0,0,0,0,0,-1,1455,1051,0,0
238,-27,0,0,0,0,0,0,0,0,0,-1,1462,1051,0,0
245,-27,0,0,0,0,0,0,0,0,0,-1,1469,1051,0,0
252,-27,0,0,0,0,0,0,0,0,0,-1,1476,1051,0,0
259,-27,0,0,0,0,0,0,0,0,0,-1,1483,1051,0,0
266,-27,0,0,0,0,0,0,0,0,0,-1,1490,1051,0,0
273,-27,0,0,0,0,0,0,0,0,0,-1,1497,1051,0,0
280,-27,0,0,0,0,0,0,0,0,0,-1,1504,1051,0,0
287,-27,0,0,0,0,0,0,0,0,0,-1,1511,1051,0,0
294,-27,0,0,0,0,0,0,0,0,0,-1,1518,1051,0,0
301,-27,0,0,0,0,0,0,0,0,0,-1,1525,1051,0,0
308,-27,0,0,0,0,0,0,0,0,0,-1,1532,1051,0,0
315,-27,0,0,0,0,0,0,0,0,0,-1,1539,1051,0,0
322,-27,0,0,0,0,0,0,0,0,0,-1,1546,1051,0,0
329,-27,0,0,0,0,0,0,0,0,0,-1,1553,1051,0,0
336,-27,0,0,0,0,0,0,0,0,0,-1,1560,1051,0,0
343,-27,0,0,0,0,0,0,0,0,0,-1,1567,1051,0,0
350,-27,0,0,0,0,0,0,0,0,0,-1,1574,1051,0,0
357,-27,0,0,0,0,0,0,0,0,0,-1,1581,1051,0,0
364,-27,0,0,0,0,0,0,0,0,0,-1,1588,1051,0,0
371,-27,0,0,0,0,0,0,0,0,0,-1,1595,1051,0,0
378,-27,0,0,0,0,0,0,0,0,0,-1,1602,1051,0,0
385,-27,0,0,0,0,0,0,0,0,0,-1,1609,1051,0,0
392,-27,0,0,0,0,0,0,0,0,0,-1,1616,1051,0,0
399,-27,0,0,0,0,0,0,0,0,0,-1,1623,1051,0,0
406,-27,0,0,0,0,0,0,0,0,0,-1,1630,1051,0,0
413,-27,0,0,0,0,0,0,0,0,0,-1,1637,1051,0,0
420,-27,0,0,0,0,0,0,0,0,0,-1,1644,1051,0,0
427,-27,0,0,0,0,0,0,0,0,0,-1,1651,1051,0,0
434,-27,0,0,0,0,0,0,0,0,0,-1,1658,1051,0,0
441,-27,0,0,0,0,0,0,0,0,0,-1,1665,1051,0,0
448,-27,0,0,0,0,0,0,0,0,0,-1,1672,1051,0,0
455,-27,0,0,0,0,0,0,0,0,0,-1,1679,1051,0,0
462,-27,0,0,0,0,0,0,0,0,0,-1,1686,1051,0,0
469,-27,0,0,0,0,0,0,0,0,0,-1,1693,1051,0,0
476,-27,0,0,0,0,0,0,0,0,0,-1,1700,1051,0,0
483,-27,0,0,0,0,0,0,0,0,0,-1,1707,1051,0,0
490,-27,0,0,0,0,0,0,0,0,0,-1,1714,1051,0,0
497,-27,0,0,0,0,0,0,0,0,0,-1,1721,1051,0,0
504,-27,0,0,0,0,0,0,0,0,0,-1,1728,1051,0,0
511,-27,0,0,0,0,0,0,0,0,0,-1,1735,1051,0,0
518,-27,0,0,0,0,0,0,0,0,0,-1,1742,1051,0,0
525,-27,0,0,0,0,0,0,0,0,0,-1,1749,1051,0,0
532,-27,0,0,0,0,0,0,0,0,0,-1,1756,1051,0,0
539,-27,0,0,0,0,0,0,0,0,0,-1,1763,1051,0,0
546,-27,0,0,0,0,0,0,0,0,0,-1,1770,1051,0,0
553,-27,0,0,0,0,0,0,0,0,0,-1,1777,1051,0,0
560,-27,0,0,0,0,0,0,0,0,0,-1,1784,1051,0,0
567,-27,0,0,0,0,0,0,0,0,0,-1,1791,1051,0,0
574,-27,0,0,0,0,0,0,0,0,0,-1,1798,1051,0,0
581,-27,0,0,0,0,0,0,0,0,0,-1,1805,1051,0,0
588,-27,0,0,0,0,0,0,0,0,0,-1,1812,1051,0,0
595,-27,0,0,0,0,0,0,0,0,0,-1,1819,1051,0,0
602,-27,0,0,0,0,0,0,0,0,0,-1,1826,1051,0,0
609,-27,0,0,0,0,0,0,0,0,0,-1,1833,1051,0,0
616,-27,0,0,0,0,0,0,0,0,0,-1,1840,1051,0,0
623,-27,0,0,0,0,0,0,0,0,0,-1,1847,1051,0,0
630,-27,0,0,0,0,0,0,0,0,0,-1,1854,1051,0,0
637,-27,0,0,0,0,0,0,0,0,0,-1,1861,1051,0,0
644,-27,0,0,0,0,0,0,0,0,0,-1,1868,1051,0,0
651,-27,22.2596,2.84314,-0.00656498,0.000182139,0.00340427,0.00160128,-0.00798412,1.17583,0.00592903,0.0392183,1875,1051,22.2597,-2.84312
658,-27,22.2212,3.00037,-0.00423427,0.00040437,0.00277148,0.00169896,-0.00552887,1.1338,0.0043639,0.0413386,1882,1051,22.2212,-3.00037
665,-27,22.1576,2.97839,-0.00261911,0.00057943,0.00214006,0.00165177,-0.00369145,1.10628,0.00315895,0.0375301,1889,1051,22.1576,-2.97837
672,-27,22.1066,2.88489,-0.00145009,0.000700309,0.00213775,0.00201802,-0.0027678,1.0184,0.00277437,0.0291766,1896,1051,22.1065,-2.88488
679,-27,22.0459,2.86206,-0.000773577,0.000621562,0.00271987,0.00273189,-0.00288391,0.910928,0.00324268,0.0278125,1903,1051,22.0459,-2.862
686,-27,22.238,2.87,-0.000552931,0.000392769,0.00341861,0.00337108,-0.00353124,0.85412,0.00398542,0.0415046,1910,1051,22.238,-2.86999
693,-27,22.4026,2.85583,-0.000566701,9.6788e-05,0.00409755,0.003876,-0.00434591,0.825791,0.00474951,0.0467472,1917,1051,22.4025,-2.85589
700,-27,22.307,2.74963,-0.000701002,-0.000180488,0.00467128,0.00423778,-0.00511927,0.813227,0.00541028,0.0393117,1924,1051,22.307,-2.74963
707,-27,22.1956,2.75415,-0.00080489,-0.000378641,0.00496442,0.00437723,-0.00556076,0.80685,0.00575125,0.0244173,1931,1051,22.1956,-2.75421
714,-27,22.1884,2.80823,-0.000973855,-0.000480489,0.0050985,0.00437729,-0.00583163,0.809571,0.00591403,0.0201211,1938,1051,22.1884,-2.80827
721,-27,22.197,2.896,0,0,0,0,0,0,0,-1,1945,1051,22.197,-2.896
728,-27,21.741,4.10828,0,0,0,0,0,0,0,-1,1952,1051,21.741,-4.10834
735,-27,21.7755,4.15881,-0.001792,-0.000368604,0.00427219,0.00325077,-0.00541137,0.867935,0.00505268,0.0164733,1959,1051,21.7755,-4.15882
742,-27,21.7941,4.16943,-0.00228558,-4.51186e-05,0.00368059,0.00268194,-0.00501264,0.933125,0.00450989,0.0151594,1966,1051,21.7941,-4.16947
749,-27,21.8162,4.15686,-0.00256883,0.000983218,0.0029043,0.00261149,-0.0041971,1.05982,0.00396632,0.0115115,1973,1051,21.8161,-4.15687
756,-27,21.8043,4.17468,-0.00251114,0.00229486,0.00189298,0.00295091,-0.00316719,1.23718,0.00353302,0.0107793,1980,1051,21.8043,-4.17467
763,-27,21.7981,4.14685,-0.00245356,0.00392973,0.000895887,0.00405309,-0.00257691,1.43397,0.00385933,0.0126821,1987,1051,21.7981,-4.14682
770,-27,21.7776,4.11304,-0.00263733,0.00627104,-0.000297387,0.00628096,-0.00264724,-1.53746,0.0052951,0.0144668,1994,1051,21.7776,-4.11303
777,-27,21.748,4.12781,-0.002818,0.0094562,-0.000977208,0.00953351,-0.00289532,-1.49184,0.0075092,0.0147501,2001,1051,21.7481,-4.12777
784,-27,21.7494,4.18201,-0.00306055,0.0132152,-0.00094528,0.0132699,-0.00311527,-1.51298,0.0100473,0.0214866,2008,1051,21.7494,-4.18202
791,-27,21.8207,4.15454,-0.00319833,0.0179187,-0.000462291,0.0179288,-0.00320845,-1.54892,0.0131531,0.040671,2015,1051,21.8206,-4.15459
798,-27,21.8815,4.19702,-0.00290159,0.0239174,0.000633611,0.0239323,-0.00291656,1.54719,0.0170106,0.0452766,2022,1051,21.8814,-4.197
805,-27,21.8591,4.56458,-0.00183745,0.0316014,0.00270422,0.0318187,-0.00205473,1.49062,0.0219295,0.0447559,2029,1051,21.8592,-4.56461
812,-27,21.9036,4.86755,0,0,0,0,0,0,0,-1,2036,1051,21.9036,-4.86754
-700,-34,-13.2831,-3.31055,0,0,0,0,0,0,0,-1,524,1058,-13.2831,3.31055
-693,-34,-13.6508,-3.09485,-0.0344206,-0.0563401,0.0954276,0.0506746,-0.141435,0.728224,0.114967,0.0476869,531,1058,-13.6508,3.09482
-686,-34,-14.1528,-2.4729,-0.0269284,-0.0409465,0.0830806,0.0494383,-0.117313,0.743316,0.0988968,0.0474771,538,1058,-14.1528,2.47294
-679,-34,-14.1935,-0.345581,0,0,0,0,0,0,0,-1,545,1058,-14.1936,0.345585
-672,-34,-14.2071,0.232544,-0.0163822,-0.019133,0.0575813,0.0398402,-0.0753554,0.773457,0.0675536,0.0424043,552,1058,-14.2071,-0.232563
-665,-34,-14.5195,0.727661,-0.0124936,-0.0117637,0.0458592,0.033732,-0.0579894,0.789377,0.0535691,0.0417053,559,1058,-14.5195,-0.727712
-658,-34,-14.7731,1.11682,-0.0093112,-0.00634944,0.0353049,0.0275056,-0.0431662,0.806359,0.041135,0.0414383,566,1058,-14.7731,-1.11687
-651,-34,-14.4739,1.63037,-0.00676244,-0.00265078,0.0261497,0.0215238,-0.030937,0.824626,0.0304503,0.0283732,573,1058,-14.4739,-1.63038
-644,-34,-14.535,1.57788,-0.00466741,-0.000204141,0.018065,0.0157666,-0.0206381,0.846854,0.0210809,0.0120838,580,1058,-14.535,-1.57792
-637,-34,-14.5461,1.5946,-0.00326785,0.00125295,0.0109965,0.0102189,-0.0122339,0.886765,0.0129805,0.0131548,587,1058,-14.5462,-1.59455
-630,-34,-14.5441,1.67627,-0.00219005,0.00230336,0.00469803,0.00526426,-0.00515095,1.00844,0.00601334,0.0159093,594,1058,-14.5441,-1.67633
-623,-34,-14.5347,1.74768,-0.00152328,0.00211769,0.000142817,0.00212328,-0.00152888,1.53165,0.00211786,0.0130043,601,1058,-14.5347,-1.74765
-616,-34,-14.5001,1.82495,-0.00138635,0.000721073,-0.00303722,0.00288217,-0.00354745,-0.952368,0.00371876,0.0190582,608,1058,-14.5001,-1.82499
-609,-34,-14.4979,1.85571,-0.00110309,-0.000424806,-0.00464712,0.00389553,-0.00542343,-0.821823,0.00540436,0.0183164,615,1058,-14.4979,-1.85568
-602,-34,-14.5325,1.87195,-0.0012153,-0.000968438,-0.0058916,0.00480102,-0.00698476,-0.795872,0.00684335,0.0137863,622,1058,-14.5325,-1.87192
-595,-34,-14.6041,2.07068,0,0,0,0,0,0,0,-1,629,1058,-14.604,-2.07069
-588,-34,-14.6182,1.42139,0,0,0,0,0,0,0,-1,636,1058,-14.6182,-1.42139
-581,-34,-14.6324,0.772095,0,0,0,0,0,0,0,-1,643,1058,-14.6324,-0.77209
-574,-34,-14.5836,0.843628,-0.00158239,-0.00145317,-0.00508871,0.00357134,-0.00660691,-0.791746,0.00596289,0.0354898,650,1058,-14.5836,-0.843641
-567,-34,-14.5654,0.843872,-0.00158242,-0.00114127,-0.00364981,0.00229463,-0.00501831,-0.815579,0.00431864,0.0402747,657,1058,-14.5653,-0.843904
-560,-34,-14.6451,0.816895,-0.00153114,-0.000697566,-0.0015186,0.000460408,-0.00268911,-0.919327,0.00196428,0.039011,664,1058,-14.6451,-0.816951
-553,-34,-14.6439,0.734253,-0.00145512,-0.00018918,0.00134459,0.000663973,-0.00230827,1.00539,0.00180143,0.04179,671,1058,-14.6439,-0.734261
-546,-34,-14.7919,0.798706,-0.00142027,0.000278661,0.00499042,0.0044914,-0.005633,0.8697,0.0058577,0.0449706,678,1058,-14.7919,-0.798696
-539,-34,-14.8785,1.20349,-0.00142874,0.000479859,0.00872844,0.00830602,-0.00925489,0.839848,0.0101437,0.0439157,685,1058,-14.8785,-1.20351
-532,-34,-14.8705,1.34021,-0.00196454,0.000257346,0.0110129,0.0102152,-0.0119224,0.835666,0.0127938,0.0439469,692,1058,-14.8705,-1.34019
-525,-34,0,0,0,0,0,0,0,0,0,-1,699,1058,0,0
-518,-34,0,0,0,0,0,0,0,0,0,-1,706,1058,0,0
-511,-34,0,0,0,0,0,0,0,0,0,-1,713,1058,0,0
-504,-34,0,0,0,0,0,0,0,0,0,-1,720,1058,0,0
-497,-34,0,0,0,0,0,0,0,0,0,-1,727,1058,0,0
-490,-34,0,0,0,0,0,0,0,0,0,-1,734,1058,0,0
-483,-34,0,0,0,0,0,0,0,0,0,-1,741,1058,0,0
-476,-34,0,0,0,0,0,0,0,0,0,-1,748,1058,0,0
-469,-34,0,0,0,0,0,0,0,0,0,-1,755,1058,0,0
-462,-34,0,0,0,0,0,0,0,0,0,-1,762,1058,0,0
-455,-34,0,0,0,0,0,0,0,0,0,-1,769,1058,0,0
-448,-34,0,0,0,0,0,0,0,0,0,-1,776,1058,0,0
-441,-34,0,0,0,0,0,0,0,0,0,-1,783,1058,0,0
-434,-34,0,0,0,0,0,0,0,0,0,-1,790,1058,0,0
-427,-34,0,0,0,0,0,0,0,0,0,-1,797,1058,0,0
-420,-34,0,0,0,0,0,0,0,0,0,-1,804,1058,0,0
-413,-34,0,0,0,0,0,0,0,0,0,-1,811,1058,0,0
-406,-34,0,0,0,0,0,0,0,0,0,-1,818,1058,0,0
-399,-34,0,0,0,0,0,0,0,0,0,-1,825,1058,0,0
-392,-34,0,0,0,0,0,0,0,0,0,-1,832,1058,0,0
-385,-34,0,0,0,0,0,0,0,0,0,-1,839,1058,0,0
-378,-34,0,0,0,0,0,0,0,0,0,-1,846,1058,0,0
-371,-34,0,0,0,0,0,0,0,0,0,-1,853,1058,0,0
-364,-34,0,0,0,0,0,0,0,0,0,-1,860,1058,0,0
-357,-34,0,0,0,0,0,0,0,0,0,-1,867,1058,0,0
-350,-34,0,0,0,0,0,0,0,0,0,-1,874,1058,0,0
-343,-34,0,0,0,0,0,0,0,0,0,-1,881,1058,0,0
-336,-34,0,0,0,0,0,0,0,0,0,-1,888,1058,0,0
-329,-34,0,0,0,0,0,0,0,0,0,-1,895,1058,0,0
-322,-34,0,0,0,0,0,0,0,0,0,-1,902,1058,0,0
-315,-34,0,0,0,0,0,0,0,0,0,-1,909,1058,0,0
-308,-34,0,0,0,0,0,0,0,0,0,-1,916,1058,0,0
-301,-34,0,0,0,0,0,0,0,0,0,-1,923,1058,0,0
-294,-34,0,0,0,0,0,0,0,0,0,-1,930,1058,0,0
-287,-34,0,0,0,0,0,0,0,0,0,-1,937,1058,0,0
-280,-34,0,0,0,0,0,0,0,0,0,-1,944,1058,0,0
-273,-34,0,0,0,0,0,0,0,0,0,-1,951,1058,0,0
-266,-34,0,0,0,0,0,0,0,0,0,-1,958,1058,0,0
-259,-34,0,0,0,0,0,0,0,0,0,-1,965,1058,0,0
-252,-34,0,0,0,0,0,0,0,0,0,-1,972,1058,0,0
-245,-34,0,0,0,0,0,0,0,0,0,-1,979,1058,0,0
-238,-34,0,0,0,0,0,0,0,0,0,-1,986,1058,0,0
-231,-34,0,0,0,0,0,0,0,0,0,-1,993,1058,0,0
-224,-34,0,0,0,0,0,0,0,0,0,-1,1000,1058,0,0
-217,-34,0,0,0,0,0,0,0,0,0,-1,1007,1058,0,0
-210,-34,0,0,0,0,0,0,0,0,0,-1,1014,1058,0,0
-203,-34,0,0,0,0,0,0,0,0,0,-1,1021,1058,0,0
-196,-34,0,0,0,0,0,0,0,0,0,-1,1028,1058,0,0
-189,-34,0,0,0,0,0,0,0,0,0,-1,1035,1058,0,0
-182,-34,0,0,0,0,0,0,0,0,0,-1,1042,1058,0,0
-175,-34,0,0,0,0,0,0,0,0,0,-1,1049,1058,0,0
-168,-34,0,0,0,0,0,0,0,0,0,-1,1056,1058,0,0
-161,-34,0,0,0,0,0,0,0,0,0,-1,1063,1058,0,0
-154,-34,0,0,0,0,0,0,0,0,0,-1,1070,1058,0,0
-147,-34,0,0,0,0,0,0,0,0,0,-1,1077,1058,0,0
-140,-34,0,0,0,0,0,0,0,0,0,-1,1084,1058,0,0
-133,-34,0,0,0,0,0,0,0,0,0,-1,1091,1058,0,0
-126,-34,0,0,0,0,0,0,0,0,0,-1,1098,1058,0,0
-119,-34,0,0,0,0,0,0,0,0,0,-1,1105,1058,0,0
-112,-34,0,0,0,0,0,0,0,0,0,-1,1112,1058,0,0
-105,-34,0,0,0,0,0,0,0,0,0,-1,1119,1058,0,0
-98,-34,0,0,0,0,0,0,0,0,0,-1,1126,1058,0,0
-91,-34,0,0,0,0,0,0,0,0,0,-1,1133,1058,0,0
-84,-34,0,0,0,0,0,0,0,0,0,-1,1140,1058,0,0
-77,-34,0,0,0,0,0,0,0,0,0,-1,1147,1058,0,0
-70,-34,0,0,0,0,0,0,0,0,0,-1,1154,1058,0,0
-63,-34,0,0,0,0,0,0,0,0,0,-1,1161,1058,0,0
-56,-34,0,0,0,0,0,0,0,0,0,-1,1168,1058,0,0
-49,-34,0,0,0,0,0,0,0,0,0,-1,1175,1058,0,0
-42,-34,0,0,0,0,0,0,0,0,0,-1,1182,1058,0,0
-35,-34,0,0,0,0,0,0,0,0,0,-1,1189,1058,0,0
-28,-34,0,0,0,0,0,0,0,0,0,-1,1196,1058,0,0
-21,-34,0,0,0,0,0,0,0,0,0,-1,1203,1058,0,0
-14,-34,0,0,0,0,0,0,0,0,0,-1,1210,1058,0,0
-7,-34,0,0,0,0,0,0,0,0,0,-1,1217,1058,0,0
0,-34,0,0,0,0,0,0,0,0,0,-1,1224,1058,0,0
7,-34,0,0,0,0,0,0,0,0,0,-1,1231,1058,0,0
14,-34,0,0,0,0,0,0,0,0,0,-1,1238,1058,0,0
21,-34,0,0,0,0,0,0,0,0,0,-1,1245,1058,0,0
28,-34,0,0,0,0,0,0,0,0,0,-1,1252,1058,0,0
35,-34,0,0,0,0,0,0,0,0,0,-1,1259,1058,0,0
42,-34,0,0,0,0,0,0,0,0,0,-1,1266,1058,0,0
49,-34,0,0,0,0,0,0,0,0,0,-1,1273,1058,0,0
56,-34,0,0,0,0,0,0,0,0,0,-1,1280,1058,0,0
63,-34,0,0,0,0,0,0,0,0,0,-1,1287,1058,0,0
70,-34,0,0,0,0,0,0,0,0,0,-1,1294,1058,0,0
77,-34,0,0,0,0,0,0,0,0,0,-1,1301,1058,0,0
84,-34,0,0,0,0,0,0,0,0,0,-1,1308,1058,0,0
91,-34,0,0,0,0,0,0,0,0,0,-1,1315,1058,0,0
98,-34,0,0,0,0,0,0,0,0,0,-1,1322,1058,0,0
105,-34,0,0,0,0,0,0,0,0,0,-1,1329,1058,0,0
112,-34,0,0,0,0,0,0,0,0,0,-1,1336,1058,0,0
119,-34,0,0,0,0,0,0,0,0,0,-1,1343,1058,0,0
126,-34,0,0,0,0,0,0,0,0,0,-1,1350,1058,0,0
133,-34,0,0,0,0,0,0,0,0,0,-1,1357,1058,0,0
140,-34,0,0,0,0,0,0,0,0,0,-1,1364,1058,0,0
147,-34,0,0,0,0,0,0,0,0,0,-1,1371,1058,0,0
154,-34,0,0,0,0,0,0,0,0,0,-1,1378,1058,0,0
161,-34,0,0,0,0,0,0,0,0,0,-1,1385,1058,0,0
168,-34,0,0,0,0,0,0,0,0,0,-1,1392,1058,0,0
175,-34,0,0,0,0,0,0,0,0,0,-1,1399,1058,0,0
182,-34,0,0,0,0,0,0,0,0,0,-1,1406,1058,0,0
189,-34,0,0,0,0,0,0,0,0,0,-1,1413,1058,0,0
196,-34,0,0,0,0,0,0,0,0,0,-1,1420,1058,0,0
203,-34,0,0,0,0,0,0,0,0,0,-1,1427,1058,0,0
210,-34,0,0,0,0,0,0,0,0,0,-1,1434,1058,0,0
217,-34,0,0,0,0,0,0,0,0,0,-1,1441,1058,0,0
224,-34,0,0,0,0,0,0,0,0,0,-1,1448,1058,0,0
231,-34,0,0,0,0,0,0,0,0,0,-1,1455,1058,0,0
238,-34,0,0,0,0,0,0,0,0,0,-1,1462,1058,0,0
245,-34,0,0,0,0,0,0,0,0,0,-1,1469,1058,0,0
252,-34,0,0,0,0,0,0,0,0,0,-1,1476,1058,0,0
259,-34,0,0,0,0,0,0,0,0,0,-1,1483,1058,0,0
266,-34,0,0,0,0,0,0,0,0,0,-1,1490,1058,0,0
273,-34,0,0,0,0,0,0,0,0,0,-1,1497,1058,0,0
280,-34,0,0,0,0,0,0,0,0,0,-1,1504,1058,0,0
287,-34,0,0,0,0,0,0,0,0,0,-1,1511,1058,0,0
294,-34,0,0,0,0,0,0,0,0,0,-1,1518,1058,0,0
301,-34,0,0,0,0,0,0,0,0,0,-1,1525,1058,0,0
308,-34,0,0,0,0,0,0,0,0,0,-1,1532,1058,0,0
315,-34,0,0,0,0,0,0,0,0,0,-1,1539,1058,0,0
322,-34,0,0,0,0,0,0,0,0,0,-1,1546,1058,0,0
329,-34,0,0,0,0,0,0,0,0,0,-1,1553,1058,0,0
336,-34,0,0,0,0,0,0,0,0,0,-1,1560,1058,0,0
343,-34,0,0,0,0,0,0,0,0,0,-1,1567,1058,0,0
350,-34,0,0,0,0,0,0,0,0,0,-1,1574,1058,0,0
357,-34,0,0,0,0,0,0,0,0,0,-1,1581,1058,0,0
364,-34,0,0,0,0,0,0,0,0,0,-1,1588,1058,0,0
371,-34,0,0,0,0,0,0,0,0,0,-1,1595,1058,0,0
378,-34,0,0,0,0,0,0,0,0,0,-1,1602,1058,0,0
385,-34,0,0,0,0,0,0,0,0,0,-1,1609,1058,0,0
392,-34,0,0,0,0,0,0,0,0,0,-1,1616,1058,0,0
399,-34,0,0,0,0,0,0,0,0,0,-1,1623,1058,0,0
406,-34,0,0,0,0,0,0,0,0,0,-1,1630,1058,0,0
413,-34,0,0,0,0,0,0,0,0,0,-1,1637,1058,0,0
420,-34,0,0,0,0,0,0,0,0,0,-1,1644,1058,0,0
427,-34,0,0,0,0,0,0,0,0,0,-1,1651,1058,0,0
434,-34,0,0,0,0,0,0,0,0,0,-1,1658,1058,0,0
441,-34,0,0,0,0,0,0,0,0,0,-1,1665,1058,0,0
448,-34,0,0,0,0,0,0,0,0,0,-1,1672,1058,0,0
455,-34,0,0,0,0,0,0,0,0,0,-1,1679,1058,0,0
462,-34,0,0,0,0,0,0,0,0,0,-1,1686,1058,0,0
469,-34,0,0,0,0,0,0,0,0,0,-1,1693,1058,0,0
476,-34,0,0,0,0,0,0,0,0,0,-1,1700,1058,0,0
483,-34,0,0,0,0,0,0,0,0,0,-1,1707,1058,0,0
490,-34,0,0,0,0,0,0,0,0,0,-1,1714,1058,0,0
497,-34,0,0,0,0,0,0,0,0,0,-1,1721,1058,0,0
504,-34,0,0,0,0,0,0,0,0,0,-1,1728,1058,0,0
511,-34,0,0,0,0,0,0,0,0,0,-1,1735,1058,0,0
518,-34,0,0,0,0,0,0,0,0,0,-1,1742,1058,0,0
525,-34,0,0,0,0,0,0,0,0,0,-1,1749,1058,0,0
532,-34,0,0,0,0,0,0,0,0,0,-1,1756,1058,0,0
539,-34,0,0,0,0,0,0,0,0,0,-1,1763,1058,0,0
546,-34,0,0,0,0,0,0,0,0,0,-1,1770,1058,0,0
553,-34,0,0,0,0,0,0,0,0,0,-1,1777,1058,0,0
560,-34,0,0,0,0,0,0,0,0,0,-1,1784,1058,0,0
567,-34,0,0,0,0,0,0,0,0,0,-1,1791,1058,0,0
574,-34,0,0,0,0,0,0,0,0,0,-1,1798,1058,0,0
581,-34,0,0,0,0,0,0,0,0,0,-1,1805,1058,0,0
588,-34,0,0,0,0,0,0,0,0,0,-1,1812,1058,0,0
595,-34,0,0,0,0,0,0,0,0,0,-1,1819,1058,0,0
602,-34,0,0,0,0,0,0,0,0,0,-1,1826,1058,0,0
609,-34,0,0,0,0,0,0,0,0,0,-1,1833,1058,0,0
616,-34,0,0,0,0,0,0,0,0,0,-1,1840,1058,0,0
623,-34,0,0,0,0,0,0,0,0,0,-1,1847,1058,0,0
630,-34,0,0,0,0,0,0,0,0,0,-1,1854,1058,0,0
637,-34,0,0,0,0,0,0,0,0,0,-1,1861,1058,0,0
644,-34,0,0,0,0,0,0,0,0,0,-1,1868,1058,0,0
651,-34,22.2213,2.83899,-0.00662912,-0.000574743,0.00366594,0.00115233,-0.00835619,1.13052,0.00599195,0.0402533,1875,1058,22.2213,-2.83895
658,-34,22.1025,3.04041,-0.00433362,-1.04067e-05,0.00287603,0.00142577,-0.0057698,1.10766,0.00439949,0.0442811,1882,1058,22.1026,-3.04046
665,-34,22.0513,2.96436,-0.00267587,0.000360844,0.0021277,0.0014564,-0.00377143,1.0953,0.00311537,0.0413047,1889,1058,22.0513,-2.96439
672,-34,21.9398,2.87891,-0.00144122,0.000565887,0.00207465,0.00186696,-0.00274229,1.01067,0.0026771,0.0385341,1896,1058,21.9399,-2.87893
679,-34,21.7823,2.87402,0,0,0,0,0,0,0,-1,1903,1058,21.7824,-2.87405
686,-34,22.038,2.89185,-0.000429354,0.000317066,0.00334916,0.00331375,-0.00342604,0.840886,0.0038914,0.0460227,1910,1058,22.038,-2.8918
693,-34,22.2673,2.90979,-0.000410433,2.31705e-05,0.00404713,0.0038593,-0.00424656,0.812157,0.0046817,0.0478757,1917,1058,22.2673,-2.90979
700,-34,22.2854,2.82678,-0.000526871,-0.000225183,0.00464072,0.00426714,-0.0050192,0.801645,0.00536733,0.0396195,1924,1058,22.2854,-2.82675
707,-34,22.174,2.83594,-0.000625005,-0.000436816,0.00494845,0.00441844,-0.00548026,0.794904,0.00572596,0.0236693,1931,1058,22.174,-2.83592
714,-34,22.162,2.84705,-0.000794263,-0.000546203,0.00510894,0.00444022,-0.00578068,0.797534,0.00591793,0.0181887,1938,1058,22.162,-2.84708
721,-34,22.1483,3.23364,0,0,0,0,0,0,0,-1,1945,1058,22.1483,-3.23361
728,-34,22.0045,3.8678,0,0,0,0,0,0,0,-1,1952,1058,22.0045,-3.86774
735,-34,21.7499,4.21094,-0.00157597,-0.000447776,0.00439664,0.00342081,-0.00544456,0.8492,0.00516268,0.0138985,1959,1058,21.7499,-4.21092
742,-34,21.7408,4.18469,-0.0020148,-7.29839e-05,0.00382143,0.00289895,-0.00498674,0.9098,0.00460569,0.0136315,1966,1058,21.7409,-4.1847
749,-34,21.7751,4.17651,-0.00214586,0.000877497,0.00304195,0.00276267,-0.00403104,1.016,0.00394507,0.0125194,1973,1058,21.7751,-4.17656
756,-34,21.796,4.177,-0.00190785,0.0020338,0.00206335,0.00291632,-0.00279037,1.16663,0.00329503,0.00964641,1980,1058,21.796,-4.17704
763,-34,21.7963,4.13806,-0.0015633,0.00351236,0.00116325,0.00376626,-0.0018172,1.3559,0.00328843,0.0104528,1987,1058,21.7963,-4.13805
770,-34,21.7582,4.09595,-0.0013037,0.00558188,2.9347e-05,0.00558201,-0.00130383,1.56653,0.00422357,0.0150437,1994,1058,21.7582,-4.09593
777,-34,21.7167,4.08569,-0.000870127,0.00831989,-0.00055585,0.00835338,-0.000903625,-1.5106,0.00589327,0.0156403,2001,1058,21.7166,-4.08567
784,-34,21.6895,4.08728,-0.000353702,0.0115049,-0.000378799,0.011517,-0.00036579,-1.5389,0.00780279,0.0307644,2008,1058,21.6894,-4.08725
791,-34,21.7081,4.01599,0.000418805,0.0154115,0.000304269,0.0154177,0.000412633,1.55051,0.0101437,0.043694,2015,1058,21.7081,-4.01601
798,-34,21.7382,3.82495,0,0,0,0,0,0,0,-1,2022,1058,21.7381,-3.82499
805,-34,22.1929,3.93237,0,0,0,0,0,0,0,-1,2029,1058,22.1929,-3.93232
812,-34,22.1204,4.41589,0,0,0,0,0,0,0,-1,2036,1058,22.1205,-4.4159
-700,-41,-13.7535,-3.32605,0,0,0,0,0,0,0,-1,524,1065,-13.7536,3.32601
-693,-41,-14.3356,-2.86841,0,0,0,0,0,0,0,-1,531,1065,-14.3356,2.86846
-686,-41,-14.7997,-2.15417,-0.0188287,-0.0394691,0.0780661,0.0495964,-0.107894,0.71968,0.0929806,0.0433983,538,1065,-14.7997,2.15416
-679,-41,-15.2118,-1.17847,-0.0148481,-0.0280416,0.0664942,0.0453758,-0.0882655,0.735956,0.0784712,0.0430298,545,1065,-15.2118,1.1785
-672,-41,-15.1324,-0.158325,-0.011679,-0.0189629,0.0551074,0.0399066,-0.0705485,0.752402,0.0645841,0.0401311,552,1065,-15.1324,0.158358
-665,-41,-14.2644,1.25793,0,0,0,0,0,0,0,-1,559,1065,-14.2644,-1.25799
-658,-41,-14.2697,1.38623,-0.00690714,-0.00669398,0.0345171,0.0277167,-0.0413178,0.786942,0.0401141,0.040063,566,1065,-14.2697,-1.38628
-651,-41,-14.356,1.521,-0.00513828,-0.00306582,0.0258807,0.0217994,-0.0300035,0.805407,0.0300332,0.0261837,573,1065,-14.356,-1.52097
-644,-41,-14.491,1.5509,-0.00362709,-0.000580766,0.0180801,0.0160402,-0.0202481,0.827422,0.020998,0.0119495,580,1065,-14.491,-1.55085
-637,-41,-14.5012,1.5929,-0.00287951,0.000952523,0.0113565,0.0105535,-0.0124805,0.868969,0.0133142,0.0131704,587,1065,-14.5011,-1.5929
-630,-41,-14.5082,1.65881,-0.00220949,0.00200586,0.00503389,0.00535551,-0.00555914,0.983658,0.00630194,0.0125142,594,1065,-14.5082,-1.6588
-623,-41,-14.4775,1.73145,-0.00162508,0.0017028,0.000474828,0.00176923,-0.00169151,1.43181,0.00199822,0.01129,601,1065,-14.4775,-1.73149
-616,-41,-14.4634,1.80481,-0.00153224,0.000337847,-0.00281124,0.00236546,-0.00355986,-0.945948,0.00344408,0.0152844,608,1065,-14.4634,-1.80478
-609,-41,-14.4288,1.84888,-0.00132129,-0.000753485,-0.00452856,0.00350006,-0.00557483,-0.816703,0.00528484,0.0213436,615,1065,-14.4288,-1.84891
-602,-41,-14.4669,1.89661,-0.00146638,-0.00130067,-0.00584956,0.00446662,-0.00723367,-0.79248,0.00681784,0.0128018,622,1065,-14.4669,-1.89658
-595,-41,-14.5334,1.94946,0,0,0,0,0,0,0,-1,629,1065,-14.5334,-1.94944
-588,-41,-14.584,1.37842,-0.00193452,-0.00189327,-0.00653415,0.00462029,-0.00844808,-0.786976,0.00765215,0.0249613,636,1065,-14.5841,-1.37847
-581,-41,-14.6078,0.824585,-0.0018872,-0.00188878,-0.00596466,0.00407667,-0.00785265,-0.785332,0.00700146,0.0341853,643,1065,-14.6079,-0.824575
-574,-41,-14.699,0.78125,-0.00189429,-0.00170717,-0.0051915,0.00339161,-0.00699307,-0.794408,0.0061146,0.0382406,650,1065,-14.699,-0.781252
-567,-41,-14.7164,0.829956,-0.00186383,-0.00131113,-0.00377915,0.00220176,-0.00537672,-0.821895,0.00450161,0.0419338,657,1065,-14.7165,-0.829999
-560,-41,-14.6293,0.937012,-0.00177672,-0.000722382,-0.00165991,0.000492057,-0.00299116,-0.939156,0.00217675,0.0403173,664,1065,-14.6293,-0.937054
-553,-41,-14.5361,1.0907,-0.00167003,1.27281e-05,0.00121416,0.000648546,-0.00230585,1.08839,0.00179295,0.0436029,671,1065,-14.5361,-1.09071
-546,-41,-14.5952,1.10803,-0.00162063,0.000817739,0.00491508,0.00466258,-0.00546548,0.906969,0.00585356,0.0432346,678,1065,-14.5952,-1.10802
-539,-41,-14.8149,1.37646,-0.00168068,0.00146674,0.0087518,0.0087852,-0.00899914,0.874355,0.010268,0.0410091,685,1065,-14.8149,-1.37649
-532,-41,-14.8962,1.54236,-0.00247858,0.00165046,0.0110748,0.0108515,-0.0116797,0.877548,0.0130113,0.0407483,692,1065,-14.8962,-1.54231
-525,-41,0,0,0,0,0,0,0,0,0,-1,699,1065,0,0
-518,-41,0,0,0,0,0,0,0,0,0,-1,706,1065,0,0
-511,-41,0,0,0,0,0,0,0,0,0,-1,713,1065,0,0
-504,-41,0,0,0,0,0,0,0,0,0,-1,720,1065,0,0
-497,-41,0,0,0,0,0,0,0,0,0,-1,727,1065,0,0
-490,-41,0,0,0,0,0,0,0,0,0,-1,734,1065,0,0
-483,-41,0,0,0,0,0,0,0,0,0,-1,741,1065,0,0
-476,-41,0,0,0,0,0,0,0,0,0,-1,748,1065,0,0
-469,-41,0,0,0,0,0,0,0,0,0,-1,755,1065,0,0
-462,-41,0,0,0,0,0,0,0,0,0,-1,762,1065,0,0
-455,-41,0,0,0,0,0,0,0,0,0,-1,769,1065,0,0
-448,-41,0,0,0,0,0,0,0,0,0,-1,776,1065,0,0
-441,-41,0,0,0,0,0,0,0,0,0,-1,783,1065,0,0
-434,-41,0,0,0,0,0,0,0,0,0,-1,790,1065,0,0
-427,-41,0,0,0,0,0,0,0,0,0,-1,797,1065,0,0
-420,-41,0,0,0,0,0,0,0,0,0,-1,804,1065,0,0
-413,-41,0,0,0,0,0,0,0,0,0,-1,811,1065,0,0
-406,-41,0,0,0,0,0,0,0,0,0,-1,818,1065,0,0
-399,-41,0,0,0,0,0,0,0,0,0,-1,825,1065,0,0
-392,-41,0,0,0,0,0,0,0,0,0,-1,832,1065,0,0
-385,-41,0,0,0,0,0,0,0,0,0,-1,839,1065,0,0
-378,-41,0,0,0,0,0,0,0,0,0,-1,846,1065,0,0
-371,-41,0,0,0,0,0,0,0,0,0,-1,853,1065,0,0
-364,-41,0,0,0,0,0,0,0,0,0,-1,860,1065,0,0
-357,-41,0,0,0,0,0,0,0,0,0,-1,867,1065,0,0
-350,-41,0,0,0,0,0,0,0,0,0,-1,874,1065,0,0
-343,-41,0,0,0,0,0,0,0,0,0,-1,881,1065,0,0
-336,-41,0,0,0,0,0,0,0,0,0,-1,888,1065,0,0
-329,-41,0,0,0,0,0,0,0,0,0,-1,895,1065,0,0
-322,-41,0,0,0,0,0,0,0,0,0,-1,902,1065,0,0
-315,-41,0,0,0,0,0,0,0,0,0,-1,909,1065,0,0
-308,-41,0,0,0,0,0,0,0,0,0,-1,916,1065,0,0
-301,-41,0,0,0,0,0,0,0,0,0,-1,923,1065,0,0
-294,-41,0,0,0,0,0,0,0,0,0,-1,930,1065,0,0
-287,-41,0,0,0,0,0,0,0,0,0,-1,937,1065,0,0
-280,-41,0,0,0,0,0,0,0,0,0,-1,944,1065,0,0
-273,-41,0,0,0,0,0,0,0,0,0,-1,951,1065,0,0
-266,-41,0,0,0,0,0,0,0,0,0,-1,958,1065,0,0
-259,-41,0,0,0,0,0,0,0,0,0,-1,965,1065,0,0
-252,-41,0,0,0,0,0,0,0,0,0,-1,972,1065,0,0
-245,-41,0,0,0,0,0,0,0,0,0,-1,979,1065,0,0
-238,-41,0,0,0,0,0,0,0,0,0,-1,986,1065,0,0
-231,-41,0,0,0,0,0,0,0,0,0,-1,993,1065,0,0
-224,-41,0,0,0,0,0,0,0,0,0,-1,1000,1065,0,0
-217,-41,0,0,0,0,0,0,0,0,0,-1,1007,1065,0,0
-210,-41,0,0,0,0,0,0,0,0,0,-1,1014,1065,0,0
-203,-41,0,0,0,0,0,0,0,0,0,-1,1021,1065,0,0
-196,-41,0,0,0,0,0,0,0,0,0,-1,1028,1065,0,0
-189,-41,0,0,0,0,0,0,0,0,0,-1,1035,1065,0,0
-182,-41,0,0,0,0,0,0,0,0,0,-1,1042,1065,0,0
-175,-41,0,0,0,0,0,0,0,0,0,-1,1049,1065,0,0
-168,-41,0,0,0,0,0,0,0,0,0,-1,1056,1065,0,0
-161,-41,0,0,0,0,0,0,0,0,0,-1,1063,1065,0,0
-154,-41,0,0,0,0,0,0,0,0,0,-1,1070,1065,0,0
-147,-41,0,0,0,0,0,0,0,0,0,-1,1077,1065,0,0
-140,-41,0,0,0,0,0,0,0,0,0,-1,1084,1065,0,0
-133,-41,0,0,0,0,0,0,0,0,0,-1,1091,1065,0,0
-126,-41,0,0,0,0,0,0,0,0,0,-1,1098,1065,0,0
-119,-41,0,0,0,0,0,0,0,0,0,-1,1105,1065,0,0
-112,-41,0,0,0,0,0,0,0,0,0,-1,1112,1065,0,0
-105,-41,0,0,0,0,0,0,0,0,0,-1,1119,1065,0,0
-98,-41,0,0,0,0,0,0,0,0,0,-1,1126,1065,0,0
-91,-41,0,0,0,0,0,0,0,0,0,-1,1133,1065,0,0
-84,-41,0,0,0,0,0,0,0,0,0,-1,1140,1065,0,0
-77,-41,0,0,0,0,0,0,0,0,0,-1,1147,1065,0,0
-70,-41,0,0,0,0,0,0,0,0,0,-1,1154,1065,0,0
-63,-41,0,0,0,0,0,0,0,0,0,-1,1161,1065,0,0
-56,-41,0,0,0,0,0,0,0,0,0,-1,1168,1065,0,0
-49,-41,0,0,0,0,0,0,0,0,0,-1,1175,1065,0,0
-42,-41,0,0,0,0,0,0,0,0,0,-1,1182,1065,0,0
-35,-41,0,0,0,0,0,0,0,0,0,-1,1189,1065,0,0
-28,-41,0,0,0,0,0,0,0,0,0,-1,1196,1065,0,0
-21,-41,0,0,0,0,0,0,0,0,0,-1,1203,1065,0,0
-14,-41,0,0,0,0,0,0,0,0,0,-1,1210,1065,0,0
-7,-41,0,0,0,0,0,0,0,0,0,-1,1217,1065,0,0
0,-41,0,0,0,0,0,0,0,0,0,-1,1224,1065,0,0
7,-41,0,0,0,0,0,0,0,0,0,-1,1231,1065,0,0
14,-41,0,0,0,0,0,0,0,0,0,-1,1238,1065,0,0
21,-41,0,0,0,0,0,0,0,0,0,-1,1245,1065,0,0
28,-41,0,0,0,0,0,0,0,0,0,-1,1252,1065,0,0
35,-41,0,0,0,0,0,0,0,0,0,-1,1259,1065,0,0
42,-41,0,0,0,0,0,0,0,0,0,-1,1266,1065,0,0
49,-41,0,0,0,0,0,0,0,0,0,-1,1273,1065,0,0
56,-41,0,0,0,0,0,0,0,0,0,-1,1280,1065,0,0
63,-41,0,0,0,0,0,0,0,0,0,-1,1287,1065,0,0
70,-41,0,0,0,0,0,0,0,0,0,-1,1294,1065,0,0
77,-41,0,0,0,0,0,0,0,0,0,-1,1301,1065,0,0
84,-41,0,0,0,0,0,0,0,0,0,-1,1308,1065,0,0
91,-41,0,0,0,0,0,0,0,0,0,-1,1315,1065,0,0
98,-41,0,0,0,0,0,0,0,0,0,-1,1322,1065,0,0
105,-41,0,0,0,0,0,0,0,0,0,-1,1329,1065,0,0
112,-41,0,0,0,0,0,0,0,0,0,-1,1336,1065,0,0
119,-41,0,0,0,0,0,0,0,0,0,-1,1343,1065,0,0
126,-41,0,0,0,0,0,0,0,0,0,-1,1350,1065,0,0
133,-41,0,0,0,0,0,0,0,0,0,-1,1357,1065,0,0
140,-41,0,0,0,0,0,0,0,0,0,-1,1364,1065,0,0
147,-41,0,0,0,0,0,0,0,0,0,-1,1371,1065,0,0
154,-41,0,0,0,0,0,0,0,0,0,-1,1378,1065,0,0
161,-41,0,0,0,0,0,0,0,0,0,-1,1385,1065,0,0
168,-41,0,0,0,0,0,0,0,0,0,-1,1392,1065,0,0
175,-41,0,0,0,0,0,0,0,0,0,-1,1399,1065,0,0
182,-41,0,0,0,0,0,0,0,0,0,-1,1406,1065,0,0
189,-41,0,0,0,0,0,0,0,0,0,-1,1413,1065,0,0
196,-41,0,0,0,0,0,0,0,0,0,-1,1420,1065,0,0
203,-41,0,0,0,0,0,0,0,0,0,-1,1427,1065,0,0
210,-41,0,0,0,0,0,0,0,0,0,-1,1434,1065,0,0
217,-41,0,0,0,0,0,0,0,0,0,-1,1441,1065,0,0
224,-41,0,0,0,0,0,0,0,0,0,-1,1448,1065,0,0
231,-41,0,0,0,0,0,0,0,0,0,-1,1455,1065,0,0
238,-41,0,0,0,0,0,0,0,0,0,-1,1462,1065,0,0
245,-41,0,0,0,0,0,0,0,0,0,-1,1469,1065,0,0
252,-41,0,0,0,0,0,0,0,0,0,-1,1476,1065,0,0
259,-41,0,0,0,0,0,0,0,0,0,-1,1483,1065,0,0
266,-41,0,0,0,0,0,0,0,0,0,-1,1490,1065,0,0
273,-41,0,0,0,0,0,0,0,0,0,-1,1497,1065,0,0
280,-41,0,0,0,0,0,0,0,0,0,-1,1504,1065,0,0
287,-41,0,0,0,0,0,0,0,0,0,-1,1511,1065,0,0
294,-41,0,0,0,0,0,0,0,0,0,-1,1518,1065,0,0
301,-41,0,0,0,0,0,0,0,0,0,-1,1525,1065,0,0
308,-41,0,0,0,0,0,0,0,0,0,-1,1532,1065,0,0
315,-41,0,0,0,0,0,0,0,0,0,-1,1539,1065,0,0
322,-41,0,0,0,0,0,0,0,0,0,-1,1546,1065,0,0
329,-41,0,0,0,0,0,0,0,0,0,-1,1553,1065,0,0
336,-41,0,0,0,0,0,0,0,0,0,-1,1560,1065,0,0
343,-41,0,0,0,0,0,0,0,0,0,-1,1567,1065,0,0
350,-41,0,0,0,0,0,0,0,0,0,-1,1574,1065,0,0
357,-41,0,0,0,0,0,0,0,0,0,-1,1581,1065,0,0
364,-41,0,0,0,0,0,0,0,0,0,-1,1588,1065,0,0
371,-41,0,0,0,0,0,0,0,0,0,-1,1595,1065,0,0
378,-41,0,0,0,0,0,0,0,0,0,-1,1602,1065,0,0
385,-41,0,0,0,0,0,0,0,0,0,-1,1609,1065,0,0
392,-41,0,0,0,0,0,0,0,0,0,-1,1616,1065,0,0
399,-41,0,0,0,0,0,0,0,0,0,-1,1623,1065,0,0
406,-41,0,0,0,0,0,0,0,0,0,-1,1630,1065,0,0
413,-41,0,0,0,0,0,0,0,0,0,-1,1637,1065,0,0
420,-41,0,0,0,0,0,0,0,0,0,-1,1644,1065,0,0
427,-41,0,0,0,0,0,0,0,0,0,-1,1651,1065,0,0
434,-41,0,0,0,0,0,0,0,0,0,-1,1658,1065,0,0
441,-41,0,0,0,0,0,0,0,0,0,-1,1665,1065,0,0
448,-41,0,0,0,0,0,0,0,0,0,-1,1672,1065,0,0
455,-41,0,0,0,0,0,0,0,0,0,-1,1679,1065,0,0
462,-41,0,0,0,0,0,0,0,0,0,-1,1686,1065,0,0
469,-41,0,0,0,0,0,0,0,0,0,-1,1693,1065,0,0
476,-41,0,0,0,0,0,0,0,0,0,-1,1700,1065,0,0
483,-41,0,0,0,0,0,0,0,0,0,-1,1707,1065,0,0
490,-41,0,0,0,0,0,0,0,0,0,-1,1714,1065,0,0
497,-41,0,0,0,0,0,0,0,0,0,-1,1721,1065,0,0
504,-41,0,0,0,0,0,0,0,0,0,-1,1728,1065,0,0
511,-41,0,0,0,0,0,0,0,0,0,-1,1735,1065,0,0
518,-41,0,0,0,0,0,0,0,0,0,-1,1742,1065,0,0
525,-41,0,0,0,0,0,0,0,0,0,-1,1749,1065,0,0
532,-41,0,0,0,0,0,0,0,0,0,-1,1756,1065,0,0
539,-41,0,0,0,0,0,0,0,0,0,-1,1763,1065,0,0
546,-41,0,0,0,0,0,0,0,0,0,-1,1770,1065,0,0
553,-41,0,0,0,0,0,0,0,0,0,-1,1777,1065,0,0
560,-41,0,0,0,0,0,0,0,0,0,-1,1784,1065,0,0
567,-41,0,0,0,0,0,0,0,0,0,-1,1791,1065,0,0
574,-41,0,0,0,0,0,0,0,0,0,-1,1798,1065,0,0
581,-41,0,0,0,0,0,0,0,0,0,-1,1805,1065,0,0
588,-41,0,0,0,0,0,0,0,0,0,-1,1812,1065,0,0
595,-41,0,0,0,0,0,0,0,0,0,-1,1819,1065,0,0
602,-41,0,0,0,0,0,0,0,0,0,-1,1826,1065,0,0
609,-41,0,0,0,0,0,0,0,0,0,-1,1833,1065,0,0
616,-41,0,0,0,0,0,0,0,0,0,-1,1840,1065,0,0
623,-41,0,0,0,0,0,0,0,0,0,-1,1847,1065,0,0
630,-41,0,0,0,0,0,0,0,0,0,-1,1854,1065,0,0
637,-41,0,0,0,0,0,0,0,0,0,-1,1861,1065,0,0
644,-41,0,0,0,0,0,0,0,0,0,-1,1868,1065,0,0
651,-41,22.1516,2.61877,-0.00638658,-0.00106943,0.00320797,0.000438424,-0.00789443,1.13141,0.00541502,0.0355493,1875,1065,22.1516,-2.61877
658,-41,22.0778,2.71619,-0.0042334,-0.000136871,0.00249337,0.00104167,-0.00541194,1.12925,0.00400065,0.0412466,1882,1065,22.0778,-2.71624
665,-41,22.1368,2.96179,-0.00261789,0.000446885,0.0018072,0.00128392,-0.00345493,1.13705,0.00283007,0.0419289,1889,1065,22.1368,-2.96174
672,-41,21.9354,3.14026,-0.00139154,0.000720457,0.00185448,0.00179852,-0.00246961,1.04422,0.00247434,0.0433608,1896,1065,21.9354,-3.14026
679,-41,21.9021,3.16138,-0.000630672,0.000702696,0.00251155,0.00263454,-0.00256251,0.91513,0.00300062,0.0434125,1903,1065,21.9021,-3.16141
686,-41,22.0942,3.07336,-0.000359186,0.000465787,0.00328639,0.00336548,-0.00325887,0.847829,0.00382474,0.0445086,1910,1065,22.0943,-3.07331
693,-41,22.1779,3.0144,-0.00032776,0.000131588,0.00403272,0.00394117,-0.00413734,0.813844,0.00466459,0.0462478,1917,1065,22.1778,-3.01441
700,-41,22.2915,2.94458,-0.000433101,-0.000131927,0.00466886,0.00438878,-0.0049538,0.801519,0.00539723,0.039495,1924,1065,22.2916,-2.94464
707,-41,22.193,2.83142,-0.000537599,-0.000381371,0.00499807,0.0045392,-0.00545817,0.793212,0.00578011,0.0249418,1931,1065,22.1929,-2.83139
714,-41,22.1876,2.66187,0,0,0,0,0,0,0,-1,1938,1065,22.1876,-2.66187
721,-41,22.1881,3.25696,0,0,0,0,0,0,0,-1,1945,1065,22.1881,-3.25698
728,-41,21.8351,4.23376,0,0,0,0,0,0,0,-1,1952,1065,21.835,-4.23379
735,-41,21.7397,4.20459,-0.001441,-0.00053144,0.00453191,0.00356845,-0.00554089,0.835406,0.00530022,0.015121,1959,1065,21.7397,-4.20456
742,-41,21.6953,4.17322,-0.00181126,-0.000144181,0.00395183,0.00306106,-0.0050165,0.889337,0.00470891,0.0127947,1966,1065,21.6953,-4.17317
749,-41,21.7454,4.16125,-0.00177216,0.000674017,0.00316561,0.00284461,-0.00394275,0.969748,0.00393574,0.0128496,1973,1065,21.7453,-4.16131
756,-41,21.7946,4.14954,-0.00134223,0.00160527,0.0022295,0.00280409,-0.00254105,1.07744,0.00308726,0.012917,1980,1065,21.7945,-4.14956
763,-41,21.7572,4.12329,-0.000719426,0.0028847,0.00143647,0.00338717,-0.00122189,1.2343,0.00275719,0.0106133,1987,1065,21.7572,-4.12327
770,-41,21.7208,4.08911,-2.12313e-05,0.00461141,0.000391606,0.00464428,-5.41012e-05,1.48706,0.00311438,0.0117907,1994,1065,21.7209,-4.08914
777,-41,21.6906,4.03992,0.00100422,0.00680645,-3.13264e-05,0.00680662,0.00100405,-1.5654,0.00424285,0.012763,2001,1065,21.6905,-4.03997
784,-41,21.689,3.97705,0.0022503,0.00931524,0.000358212,0.00933335,0.00223219,1.52027,0.00562772,0.0226128,2008,1065,21.689,-3.977
791,-41,21.7791,3.65479,0.00388586,0.0123421,0.00132349,0.0125444,0.00368356,1.41912,0.00744529,0.0416309,2015,1065,21.7791,-3.65478
798,-41,21.8923,3.2395,0.00632728,0.0161121,0.00310528,0.0170144,0.00542501,1.28802,0.0100359,0.0464792,2022,1065,21.8923,-3.23948
805,-41,21.9675,2.91199,0,0,0,0,0,0,0,-1,2029,1065,21.9675,-2.91195
812,-41,22.7014,4.45178,0,0,0,0,0,0,0,-1,2036,1065,22.7013,-4.45179
-700,-48,-14.481,-3.16296,0,0,0,0,0,0,0,-1,524,1072,-14.481,3.16298
-693,-48,-14.9106,-2.50781,-0.00990155,-0.0502761,0.0814736,0.0538485,-0.114026,0.663956,0.0989764,0.0442485,531,1072,-14.9106,2.5078
-686,-48,-15.3678,-1.84302,-0.00835464,-0.0375112,0.0722821,0.0508047,-0.0966705,0.68589,0.0865066,0.0452144,538,1072,-15.3678,1.84306
-679,-48,-16.0234,-1.25122,-0.00715266,-0.0270964,0.0621589,0.0458292,-0.0800783,0.705863,0.0735837,0.0463746,545,1072,-16.0234,1.25123
-672,-48,-15.9484,-0.237793,-0.00610578,-0.0187001,0.0519913,0.0399684,-0.0647742,0.725132,0.0610358,0.0449182,552,1072,-15.9484,0.2378
-665,-48,-15.893,0.816406,0,0,0,0,0,0,0,-1,559,1072,-15.893,-0.816436
-658,-48,-14.1957,0.972534,-0.00422123,-0.00710681,0.0331973,0.0275646,-0.0388927,0.763681,0.0385545,0.045776,566,1072,-14.1957,-0.972533
-651,-48,-14.3366,1.31921,-0.00337657,-0.00357241,0.0251577,0.0216834,-0.0286324,0.783452,0.029142,0.0299975,573,1072,-14.3366,-1.31917
-644,-48,-14.4033,1.53906,-0.00254779,-0.00103757,0.0177518,0.0159752,-0.0195605,0.806654,0.0205513,0.0132036,580,1072,-14.4032,-1.53903
-637,-48,-14.3827,1.56812,-0.00255162,0.000599363,0.0114792,0.0106106,-0.0125629,0.853596,0.0133951,0.013586,587,1072,-14.3827,-1.56809
-630,-48,-14.3782,1.63611,-0.00233626,0.00171671,0.00518411,0.00525634,-0.00587589,0.971718,0.00643051,0.0158017,594,1072,-14.3782,-1.63616
-623,-48,-14.4001,1.71716,-0.0017986,0.00143458,0.000667691,0.00156704,-0.00193106,1.37495,0.00202327,0.0103576,601,1072,-14.4001,-1.71713
-616,-48,-14.4062,1.78735,-0.00174273,0.000188196,-0.00265096,0.00204403,-0.00359856,-0.960029,0.00329871,0.00954991,608,1072,-14.4062,-1.78732
-609,-48,-14.4017,1.85559,-0.00159982,-0.000754837,-0.00448063,0.00332317,-0.00567783,-0.832406,0.00525567,0.0113332,615,1072,-14.4017,-1.85558
-602,-48,-14.4153,1.91321,-0.00175039,-0.00122995,-0.00588258,0.00439816,-0.0073785,-0.807502,0.00687145,0.0116377,622,1072,-14.4153,-1.9132
-595,-48,-14.4357,1.96594,0,0,0,0,0,0,0,-1,629,1072,-14.4357,-1.96594
-588,-48,-14.5313,1.43616,-0.00223669,-0.00175383,-0.0066975,0.00470659,-0.00869711,-0.803414,0.00785212,0.0309626,636,1072,-14.5313,-1.43618
-581,-48,-14.595,0.840088,-0.0022228,-0.00167702,-0.00618011,0.00423622,-0.00813605,-0.807462,0.00726045,0.0411859,643,1072,-14.595,-0.840102
-574,-48,-14.6429,0.733887,-0.00222176,-0.00144412,-0.00546358,0.00364445,-0.00731033,-0.820921,0.00644171,0.0442379,650,1072,-14.643,-0.733927
-567,-48,-14.6962,0.910156,-0.00216123,-0.000982155,-0.00410326,0.00257371,-0.00571709,-0.856747,0.00490003,0.0440452,657,1072,-14.6962,-0.910123
-560,-48,-14.5055,1.26514,-0.00204045,-0.000304185,-0.0020267,0.00103248,-0.00337712,-0.98775,0.00266315,0.0423598,664,1072,-14.5055,-1.26513
-553,-48,-14.4645,1.20801,-0.00191144,0.000554212,0.000819511,0.000801743,-0.00215897,1.27746,0.00176822,0.0434239,671,1072,-14.4645,-1.20798
-546,-48,-14.4611,1.02454,-0.00186216,0.00153309,0.00451602,0.00466002,-0.0049891,0.965183,0.005572,0.0412107,678,1072,-14.4611,-1.02453
-539,-48,-14.6545,1.24561,-0.00199336,0.0024436,0.00840443,0.00891741,-0.00846718,0.914438,0.0100381,0.0408512,685,1072,-14.6545,-1.24563
-532,-48,-14.6853,1.52649,-0.00307181,0.00288296,0.0107435,0.011054,-0.0112428,0.920573,0.0128732,0.0401653,692,1072,-14.6853,-1.52648
-525,-48,0,0,0,0,0,0,0,0,0,-1,699,1072,0,0
-518,-48,0,0,0,0,0,0,0,0,0,-1,706,1072,0,0
-511,-48,0,0,0,0,0,0,0,0,0,-1,713,1072,0,0
-504,-48,0,0,0,0,0,0,0,0,0,-1,720,1072,0,0
-497,-48,0,0,0,0,0,0,0,0,0,-1,727,1072,0,0
-490,-48,0,0,0,0,0,0,0,0,0,-1,734,1072,0,0
-483,-48,0,0,0,0,0,0,0,0,0,-1,741,1072,0,0
-476,-48,0,0,0,0,0,0,0,0,0,-1,748,1072,0,0
-469,-48,0,0,0,0,0,0,0,0,0,-1,755,1072,0,0
-462,-48,0,0,0,0,0,0,0,0,0,-1,762,1072,0,0
-455,-48,0,0,0,0,0,0,0,0,0,-1,769,1072,0,0
-448,-48,0,0,0,0,0,0,0,0,0,-1,776,1072,0,0
-441,-48,0,0,0,0,0,0,0,0,0,-1,783,1072,0,0
-434,-48,0,0,0,0,0,0,0,0,0,-1,790,1072,0,0
-427,-48,0,0,0,0,0,0,0,0,0,-1,797,1072,0,0
-420,-48,0,0,0,0,0,0,0,0,0,-1,804,1072,0,0
-413,-48,0,0,0,0,0,0,0,0,0,-1,811,1072,0,0
-406,-48,0,0,0,0,0,0,0,0,0,-1,818,1072,0,0
-399,-48,0,0,0,0,0,0,0,0,0,-1,825,1072,0,0
-392,-48,0,0,0,0,0,0,0,0,0,-1,832,1072,0,0
-385,-48,0,0,0,0,0,0,0,0,0,-1,839,1072,0,0
-378,-48,0,0,0,0,0,0,0,0,0,-1,846,1072,0,0
-371,-48,0,0,0,0,0,0,0,0,0,-1,853,1072,0,0
-364,-48,0,0,0,0,0,0,0,0,0,-1,860,1072,0,0
-357,-48,0,0,0,0,0,0,0,0,0,-1,867,1072,0,0
-350,-48,0,0,0,0,0,0,0,0,0,-1,874,1072,0,0
-343,-48,0,0,0,0,0,0,0,0,0,-1,881,1072,0,0
-336,-48,0,0,0,0,0,0,0,0,0,-1,888,1072,0,0
-329,-48,0,0,0,0,0,0,0,0,0,-1,895,1072,0,0
-322,-48,0,0,0,0,0,0,0,0,0,-1,902,1072,0,0
-315,-48,0,0,0,0,0,0,0,0,0,-1,909,1072,0,0
-308,-48,0,0,0,0,0,0,0,0,0,-1,916,1072,0,0
-301,-48,0,0,0,0,0,0,0,0,0,-1,923,1072,0,0
-294,-48,0,0,0,0,0,0,0,0,0,-1,930,1072,0,0
-287,-48,0,0,0,0,0,0,0,0,0,-1,937,1072,0,0
-280,-48,0,0,0,0,0,0,0,0,0,-1,944,1072,0,0
-273,-48,0,0,0,0,0,0,0,0,0,-1,951,1072,0,0
-266,-48,0,0,0,0,0,0,0,0,0,-1,958,1072,0,0
-259,-48,0,0,0,0,0,0,0,0,0,-1,965,1072,0,0
-252,-48,0,0,0,0,0,0,0,0,0,-1,972,1072,0,0
-245,-48,0,0,0,0,0,0,0,0,0,-1,979,1072,0,0
-238,-48,0,0,0,0,0,0,0,0,0,-1,986,1072,0,0
-231,-48,0,0,0,0,0,0,0,0,0,-1,993,1072,0,0
-224,-48,0,0,0,0,0,0,0,0,0,-1,1000,1072,0,0
-217,-48,0,0,0,0,0,0,0,0,0,-1,1007,1072,0,0
-210,-48,0,0,0,0,0,0,0,0,0,-1,1014,1072,0,0
-203,-48,0,0,0,0,0,0,0,0,0,-1,1021,1072,0,0
-196,-48,0,0,0,0,0,0,0,0,0,-1,1028,1072,0,0
-189,-48,0,0,0,0,0,0,0,0,0,-1,1035,1072,0,0
-182,-48,0,0,0,0,0,0,0,0,0,-1,1042,1072,0,0
-175,-48,0,0,0,0,0,0,0,0,0,-1,1049,1072,0,0
-168,-48,0,0,0,0,0,0,0,0,0,-1,1056,1072,0,0
-161,-48,0,0,0,0,0,0,0,0,0,-1,1063,1072,0,0
-154,-48,0,0,0,0,0,0,0,0,0,-1,1070,1072,0,0
-147,-48,0,0,0,0,0,0,0,0,0,-1,1077,1072,0,0
-140,-48,0,0,0,0,0,0,0,0,0,-1,1084,1072,0,0
-133,-48,0,0,0,0,0,0,0,0,0,-1,1091,1072,0,0
-126,-48,0,0,0,0,0,0,0,0,0,-1,1098,1072,0,0
-119,-48,0,0,0,0,0,0,0,0,0,-1,1105,1072,0,0
-112,-48,0,0,0,0,0,0,0,0,0,-1,1112,1072,0,0
-105,-48,0,0,0,0,0,0,0,0,0,-1,1119,1072,0,0
-98,-48,0,0,0,0,0,0,0,0,0,-1,1126,1072,0,0
-91,-48,0,0,0,0,0,0,0,0,0,-1,1133,1072,0,0
-84,-48,0,0,0,0,0,0,0,0,0,-1,1140,1072,0,0
-77,-48,0,0,0,0,0,0,0,0,0,-1,1147,1072,0,0
-70,-48,0,0,0,0,0,0,0,0,0,-1,1154,1072,0,0
-63,-48,0,0,0,0,0,0,0,0,0,-1,1161,1072,0,0
-56,-48,0,0,0,0,0,0,0,0,0,-1,1168,1072,0,0
-49,-48,0,0,0,0,0,0,0,0,0,-1,1175,1072,0,0
-42,-48,0,0,0,0,0,0,0,0,0,-1,1182,1072,0,0
-35,-48,0,0,0,0,0,0,0,0,0,-1,1189,1072,0,0
-28,-48,0,0,0,0,0,0,0,0,0,-1,1196,1072,0,0
-21,-48,0,0,0,0,0,0,0,0,0,-1,1203,1072,0,0
-14,-48,0,0,0,0,0,0,0,0,0,-1,1210,1072,0,0
-7,-48,0,0,0,0,0,0,0,0,0,-1,1217,1072,0,0
0,-48,0,0,0,0,0,0,0,0,0,-1,1224,1072,0,0
7,-48,0,0,0,0,0,0,0,0,0,-1,1231,1072,0,0
14,-48,0,0,0,0,0,0,0,0,0,-1,1238,1072,0,0
21,-48,0,0,0,0,0,0,0,0,0,-1,1245,1072,0,0
28,-48,0,0,0,0,0,0,0,0,0,-1,1252,1072,0,0
35,-48,0,0,0,0,0,0,0,0,0,-1,1259,1072,0,0
42,-48,0,0,0,0,0,0,0,0,0,-1,1266,1072,0,0
49,-48,0,0,0,0,0,0,0,0,0,-1,1273,1072,0,0
56,-48,0,0,0,0,0,0,0,0,0,-1,1280,1072,0,0
63,-48,0,0,0,0,0,0,0,0,0,-1,1287,1072,0,0
70,-48,0,0,0,0,0,0,0,0,0,-1,1294,1072,0,0
77,-48,0,0,0,0,0,0,0,0,0,-1,1301,1072,0,0
84,-48,0,0,0,0,0,0,0,0,0,-1,1308,1072,0,0
91,-48,0,0,0,0,0,0,0,0,0,-1,1315,1072,0,0
98,-48,0,0,0,0,0,0,0,0,0,-1,1322,1072,0,0
105,-48,0,0,0,0,0,0,0,0,0,-1,1329,1072,0,0
112,-48,0,0,0,0,0,0,0,0,0,-1,1336,1072,0,0
119,-48,0,0,0,0,0,0,0,0,0,-1,1343,1072,0,0
126,-48,0,0,0,0,0,0,0,0,0,-1,1350,1072,0,0
133,-48,0,0,0,0,0,0,0,0,0,-1,1357,1072,0,0
140,-48,0,0,0,0,0,0,0,0,0,-1,1364,1072,0,0
147,-48,0,0,0,0,0,0,0,0,0,-1,1371,1072,0,0
154,-48,0,0,0,0,0,0,0,0,0,-1,1378,1072,0,0
161,-48,0,0,0,0,0,0,0,0,0,-1,1385,1072,0,0
168,-48,0,0,0,0,0,0,0,0,0,-1,1392,1072,0,0
175,-48,0,0,0,0,0,0,0,0,0,-1,1399,1072,0,0
182,-48,0,0,0,0,0,0,0,0,0,-1,1406,1072,0,0
189,-48,0,0,0,0,0,0,0,0,0,-1,1413,1072,0,0
196,-48,0,0,0,0,0,0,0,0,0,-1,1420,1072,0,0
203,-48,0,0,0,0,0,0,0,0,0,-1,1427,1072,0,0
210,-48,0,0,0,0,0,0,0,0,0,-1,1434,1072,0,0
217,-48,0,0,0,0,0,0,0,0,0,-1,1441,1072,0,0
224,-48,0,0,0,0,0,0,0,0,0,-1,1448,1072,0,0
231,-48,0,0,0,0,0,0,0,0,0,-1,1455,1072,0,0
238,-48,0,0,0,0,0,0,0,0,0,-1,1462,1072,0,0
245,-48,0,0,0,0,0,0,0,0,0,-1,1469,1072,0,0
252,-48,0,0,0,0,0,0,0,0,0,-1,1476,1072,0,0
259,-48,0,0,0,0,0,0,0,0,0,-1,1483,1072,0,0
266,-48,0,0,0,0,0,0,0,0,0,-1,1490,1072,0,0
273,-48,0,0,0,0,0,0,0,0,0,-1,1497,1072,0,0
280,-48,0,0,0,0,0,0,0,0,0,-1,1504,1072,0,0
287,-48,0,0,0,0,0,0,0,0,0,-1,1511,1072,0,0
294,-48,0,0,0,0,0,0,0,0,0,-1,1518,1072,0,0
301,-48,0,0,0,0,0,0,0,0,0,-1,1525,1072,0,0
308,-48,0,0,0,0,0,0,0,0,0,-1,1532,1072,0,0
315,-48,0,0,0,0,0,0,0,0,0,-1,1539,1072,0,0
322,-48,0,0,0,0,0,0,0,0,0,-1,1546,1072,0,0
329,-48,0,0,0,0,0,0,0,0,0,-1,1553,1072,0,0
336,-48,0,0,0,0,0,0,0,0,0,-1,1560,1072,0,0
343,-48,0,0,0,0,0,0,0,0,0,-1,1567,1072,0,0
350,-48,0,0,0,0,0,0,0,0,0,-1,1574,1072,0,0
357,-48,0,0,0,0,0,0,0,0,0,-1,1581,1072,0,0
364,-48,0,0,0,0,0,0,0,0,0,-1,1588,1072,0,0
371,-48,0,0,0,0,0,0,0,0,0,-1,1595,1072,0,0
378,-48,0,0,0,0,0,0,0,0,0,-1,1602,1072,0,0
385,-48,0,0,0,0,0,0,0,0,0,-1,1609,1072,0,0
392,-48,0,0,0,0,0,0,0,0,0,-1,1616,1072,0,0
399,-48,0,0,0,0,0,0,0,0,0,-1,1623,1072,0,0
406,-48,0,0,0,0,0,0,0,0,0,-1,1630,1072,0,0
413,-48,0,0,0,0,0,0,0,0,0,-1,1637,1072,0,0
420,-48,0,0,0,0,0,0,0,0,0,-1,1644,1072,0,0
427,-48,0,0,0,0,0,0,0,0,0,-1,1651,1072,0,0
434,-48,0,0,0,0,0,0,0,0,0,-1,1658,1072,0,0
441,-48,0,0,0,0,0,0,0,0,0,-1,1665,1072,0,0
448,-48,0,0,0,0,0,0,0,0,0,-1,1672,1072,0,0
455,-48,0,0,0,0,0,0,0,0,0,-1,1679,1072,0,0
462,-48,0,0,0,0,0,0,0,0,0,-1,1686,1072,0,0
469,-48,0,0,0,0,0,0,0,0,0,-1,1693,1072,0,0
476,-48,0,0,0,0,0,0,0,0,0,-1,1700,1072,0,0
483,-48,0,0,0,0,0,0,0,0,0,-1,1707,1072,0,0
490,-48,0,0,0,0,0,0,0,0,0,-1,1714,1072,0,0
497,-48,0,0,0,0,0,0,0,0,0,-1,1721,1072,0,0
504,-48,0,0,0,0,0,0,0,0,0,-1,1728,1072,0,0
511,-48,0,0,0,0,0,0,0,0,0,-1,1735,1072,0,0
518,-48,0,0,0,0,0,0,0,0,0,-1,1742,1072,0,0
525,-48,0,0,0,0,0,0,0,0,0,-1,1749,1072,0,0
532,-48,0,0,0,0,0,0,0,0,0,-1,1756,1072,0,0
539,-48,0,0,0,0,0,0,0,0,0,-1,1763,1072,0,0
546,-48,0,0,0,0,0,0,0,0,0,-1,1770,1072,0,0
553,-48,0,0,0,0,0,0,0,0,0,-1,1777,1072,0,0
560,-48,0,0,0,0,0,0,0,0,0,-1,1784,1072,0,0
567,-48,0,0,0,0,0,0,0,0,0,-1,1791,1072,0,0
574,-48,0,0,0,0,0,0,0,0,0,-1,1798,1072,0,0
581,-48,0,0,0,0,0,0,0,0,0,-1,1805,1072,0,0
588,-48,0,0,0,0,0,0,0,0,0,-1,1812,1072,0,0
595,-48,0,0,0,0,0,0,0,0,0,-1,1819,1072,0,0
602,-48,0,0,0,0,0,0,0,0,0,-1,1826,1072,0,0
609,-48,0,0,0,0,0,0,0,0,0,-1,1833,1072,0,0
616,-48,0,0,0,0,0,0,0,0,0,-1,1840,1072,0,0
623,-48,0,0,0,0,0,0,0,0,0,-1,1847,1072,0,0
630,-48,0,0,0,0,0,0,0,0,0,-1,1854,1072,0,0
637,-48,0,0,0,0,0,0,0,0,0,-1,1861,1072,0,0
644,-48,0,0,0,0,0,0,0,0,0,-1,1868,1072,0,0
651,-48,22.1792,2.67041,-0.00583311,-0.000586148,0.00252535,0.000431805,-0.00685106,1.18763,0.0047179,0.0338911,1875,1072,22.1792,-2.67039
658,-48,22.094,2.75378,-0.0039824,0.00053256,0.00188491,0.00121601,-0.00466586,1.22295,0.00358532,0.0377198,1882,1072,22.0941,-2.75374
665,-48,21.9293,2.8811,-0.0024777,0.00120233,0.00126405,0.00159469,-0.00287006,1.26983,0.00261254,0.04211,1889,1072,21.9293,-2.88105
672,-48,21.8727,2.828,-0.00136011,0.0014346,0.00147461,0.00206876,-0.00199427,1.16465,0.00234592,0.042248,1896,1072,21.8727,-2.82801
679,-48,21.9894,2.90857,-0.000705557,0.00133231,0.00229951,0.00282852,-0.00220177,0.993952,0.00291175,0.0395899,1903,1072,21.9893,-2.90854
686,-48,22.2162,2.95911,-0.000518652,0.000988556,0.0032176,0.00353963,-0.00306972,0.900431,0.00381913,0.0391896,1910,1072,22.2161,-2.9591
693,-48,22.1975,3.04639,-0.000543801,0.000540665,0.00407995,0.00411426,-0.00411739,0.851462,0.00475255,0.0408856,1917,1072,22.1975,-3.04644
700,-48,22.1534,2.93481,-0.000687985,0.000186997,0.00481067,0.00458002,-0.00508101,0.830744,0.0055803,0.0360719,1924,1072,22.1534,-2.93484
707,-48,22.1815,2.77844,-0.000820001,-0.000146712,0.00519921,0.00472674,-0.00569346,0.817728,0.00602473,0.0254737,1931,1072,22.1815,-2.77839
714,-48,22.1932,2.79712,-0.000999074,-0.000391093,0.00541331,0.00472675,-0.00611692,0.813447,0.00627772,0.0252168,1938,1072,22.1933,-2.79709
721,-48,22.0479,3.62146,-0.00114986,-0.000538721,0.00548215,0.00464637,-0.00633495,0.813239,0.006365,0.041464,1945,1072,22.0479,-3.62144
728,-48,21.7715,4.27979,0,0,0,0,0,0,0,-1,1952,1072,21.7715,-4.27977
735,-48,21.7244,4.24377,-0.00163473,-0.000569293,0.00487749,0.00380449,-0.00600851,0.839792,0.00571297,0.0165955,1959,1072,21.7244,-4.24378
742,-48,21.6752,4.19434,-0.00189293,-0.000208867,0.00428845,0.00331944,-0.00542124,0.882339,0.00509483,0.0134654,1966,1072,21.6752,-4.1944
749,-48,21.7073,4.13843,-0.00167766,0.000521985,0.003497,0.00308803,-0.0042437,0.937753,0.00425047,0.0130644,1973,1072,21.7072,-4.13848
756,-48,21.7195,4.12268,-0.00106785,0.00128538,0.00257614,0.00294089,-0.00272335,0.999619,0.00327106,0.0126033,1980,1072,21.7194,-4.12264
763,-48,21.6996,4.11035,-0.000181363,0.00244439,0.00186305,0.00341068,-0.00114766,1.09233,0.00273773,0.0120479,1987,1072,21.6996,-4.11029
770,-48,21.7114,4.06677,0.000921837,0.00394021,0.00088632,0.00418123,0.000680822,1.30529,0.00259054,0.0130052,1994,1072,21.7114,-4.06672
777,-48,21.67,4.00806,0.00242405,0.00574125,0.00062244,0.0058542,0.0023111,1.39129,0.00340478,0.0109479,2001,1072,21.67,-4.00802
784,-48,21.6486,3.92139,0.00423698,0.00774552,0.00121478,0.00812506,0.00385744,1.26797,0.004693,0.0220783,2008,1072,21.6486,-3.92135
791,-48,21.7029,3.46143,0.00655325,0.0100948,0.00242264,0.0113248,0.00532322,1.10099,0.00654231,0.040875,2015,1072,21.7029,-3.46137
798,-48,21.8075,3.01819,0.00983785,0.0129388,0.00450926,0.0161567,0.00661994,0.950985,0.00937859,0.0463254,2022,1072,21.8074,-3.01821
805,-48,21.8708,2.65674,0,0,0,0,0,0,0,-1,2029,1072,21.8709,-2.65674
812,-48,22.7249,4.45642,0,0,0,0,0,0,0,-1,2036,1072,22.7249,-4.45646
-700,-55,-15.2085,-3,0,0,0,0,0,0,0,-1,524,1079,-15.2085,2.99996
-693,-55,-15.6049,-2.37073,0.00395649,-0.0487519,0.0724092,0.0546583,-0.0994537,0.610869,0.0902208,0.0472857,531,1079,-15.6049,2.37071
-686,-55,-16.0975,-1.67554,0.00179888,-0.0369389,0.0652657,0.0505091,-0.0856491,0.641153,0.0794788,0.0456503,538,1079,-16.0975,1.67551
-679,-55,-16.8365,-1.30188,0,0,0,0,0,0,0,-1,545,1079,-16.8365,1.30182
-672,-55,-16.7096,-0.293945,0,0,0,0,0,0,0,-1,552,1079,-16.7096,0.293927
-665,-55,-14.058,0.336792,0,0,0,0,0,0,0,-1,559,1079,-14.058,-0.336809
-658,-55,-14.3113,0.681641,-0.00154707,-0.00794442,0.0312516,0.0266691,-0.0361606,0.7344,0.0364125,0.0472597,566,1079,-14.3113,-0.681683
-651,-55,-14.4125,1.32104,-0.00158217,-0.00440118,0.0239181,0.0209679,-0.0269513,0.755967,0.027738,0.0337999,573,1079,-14.4125,-1.32108
-644,-55,-14.3409,1.50952,-0.00141943,-0.00174389,0.01704,0.0154591,-0.0186224,0.780638,0.0197052,0.0153163,580,1079,-14.3409,-1.50958
-637,-55,-14.3248,1.54126,-0.00210911,5.90557e-05,0.0113326,0.0103593,-0.0124094,0.833083,0.0131633,0.0126959,587,1079,-14.3248,-1.54122
-630,-55,-14.317,1.62964,-0.00240442,0.00128628,0.00517077,0.00493112,-0.00604926,0.956794,0.00635048,0.0150184,594,1079,-14.3169,-1.62958
-623,-55,-14.3383,1.71692,-0.00197927,0.00110075,0.000769107,0.00128213,-0.00216065,1.33921,0.00200914,0.0142868,601,1079,-14.3382,-1.7169
-616,-55,-14.3375,1.78503,-0.00199092,2.18393e-05,-0.00251825,0.00172736,-0.00369643,-0.975494,0.00319948,0.0133927,608,1079,-14.3375,-1.78507
-609,-55,-14.3514,1.86133,-0.00193598,-0.000755339,-0.00443739,0.00313083,-0.00582214,-0.851526,0.00524627,0.0130571,615,1079,-14.3514,-1.8613
-602,-55,-14.3665,1.93274,-0.00209048,-0.00114278,-0.00591404,0.00431637,-0.00754962,-0.825374,0.00693509,0.0124872,622,1079,-14.3665,-1.93276
-595,-55,-14.2923,2.06396,0,0,0,0,0,0,0,-1,629,1079,-14.2923,-2.06393
-588,-55,-14.3839,1.48901,-0.00253783,-0.00162407,-0.00687662,0.00481083,-0.00897272,-0.818569,0.00807796,0.0302991,636,1079,-14.3839,-1.48906
-581,-55,-14.5796,0.90979,-0.00253959,-0.00151548,-0.00645672,0.00444946,-0.00850453,-0.824968,0.00760015,0.0401515,643,1079,-14.5796,-0.909846
-574,-55,-14.5863,1.15344,-0.00250195,-0.00128258,-0.00585418,0.00399358,-0.00777811,-0.837284,0.00691247,0.0409696,650,1079,-14.5863,-1.15347
-567,-55,-14.3985,1.20813,-0.00235902,-0.000816661,-0.00462111,0.00309717,-0.00627286,-0.868077,0.00551238,0.0409216,657,1079,-14.3985,-1.20811
-560,-55,-14.3862,1.10449,-0.00213602,-0.000143897,-0.00269678,0.00173489,-0.00401481,-0.962303,0.00340548,0.0429362,664,1079,-14.3861,-1.10451
-553,-55,-14.5006,0.96582,-0.00190335,0.000697834,-3.65263e-05,0.000698347,-0.00190386,-1.55676,0.0015552,0.0413299,671,1079,-14.5006,-0.965832
-546,-55,-14.4233,0.710083,-0.00176322,0.0016425,0.00342943,0.00376857,-0.00388929,1.01584,0.00442145,0.03895,678,1079,-14.4233,-0.710039
-539,-55,-14.3483,0.555542,-0.00189232,0.00251087,0.00710207,0.00774476,-0.00712621,0.935698,0.00858824,0.0395149,685,1079,-14.3483,-0.555547
-532,-55,-14.5568,1.39185,-0.0031931,0.00281231,0.00915892,0.00944818,-0.00982897,0.943799,0.0111304,0.0381169,692,1079,-14.5569,-1.39186
-525,-55,0,0,0,0,0,0,0,0,0,-1,699,1079,0,0
-518,-55,0,0,0,0,0,0,0,0,0,-1,706,1079,0,0
-511,-55,0,0,0,0,0,0,0,0,0,-1,713,1079,0,0
-504,-55,0,0,0,0,0,0,0,0,0,-1,720,1079,0,0
-497,-55,0,0,0,0,0,0,0,0,0,-1,727,1079,0,0
-490,-55,0,0,0,0,0,0,0,0,0,-1,734,1079,0,0
-483,-55,0,0,0,0,0,0,0,0,0,-1,741,1079,0,0
-476,-55,0,0,0,0,0,0,0,0,0,-1,748,1079,0,0
-469,-55,0,0,0,0,0,0,0,0,0,-1,755,1079,0,0
-462,-55,0,0,0,0,0,0,0,0,0,-1,762,1079,0,0
-455,-55,0,0,0,0,0,0,0,0,0,-1,769,1079,0,0
-448,-55,0,0,0,0,0,0,0,0,0,-1,776,1079,0,0
-441,-55,0,0,0,0,0,0,0,0,0,-1,783,1079,0,0
-434,-55,0,0,0,0,0,0,0,0,0,-1,790,1079,0,0
-427,-55,0,0,0,0,0,0,0,0,0,-1,797,1079,0,0
-420,-55,0,0,0,0,0,0,0,0,0,-1,804,1079,0,0
-413,-55,0,0,0,0,0,0,0,0,0,-1,811,1079,0,0
-406,-55,0,0,0,0,0,0,0,0,0,-1,818,1079,0,0
-399,-55,0,0,0,0,0,0,0,0,0,-1,825,1079,0,0
-392,-55,0,0,0,0,0,0,0,0,0,-1,832,1079,0,0
-385,-55,0,0,0,0,0,0,0,0,0,-1,839,1079,0,0
-378,-55,0,0,0,0,0,0,0,0,0,-1,846,1079,0,0
-371,-55,0,0,0,0,0,0,0,0,0,-1,853,1079,0,0
-364,-55,0,0,0,0,0,0,0,0,0,-1,860,1079,0,0
-357,-55,0,0,0,0,0,0,0,0,0,-1,867,1079,0,0
-350,-55,0,0,0,0,0,0,0,0,0,-1,874,1079,0,0
-343,-55,0,0,0,0,0,0,0,0,0,-1,881,1079,0,0
-336,-55,0,0,0,0,0,0,0,0,0,-1,888,1079,0,0
-329,-55,0,0,0,0,0,0,0,0,0,-1,895,1079,0,0
-322,-55,0,0,0,0,0,0,0,0,0,-1,902,1079,0,0
-315,-55,0,0,0,0,0,0,0,0,0,-1,909,1079,0,0
-308,-55,0,0,0,0,0,0,0,0,0,-1,916,1079,0,0
-301,-55,0,0,0,0,0,0,0,0,0,-1,923,1079,0,0
-294,-55,0,0,0,0,0,0,0,0,0,-1,930,1079,0,0
-287,-55,0,0,0,0,0,0,0,0,0,-1,937,1079,0,0
-280,-55,0,0,0,0,0,0,0,0,0,-1,944,1079,0,0
-273,-55,0,0,0,0,0,0,0,0,0,-1,951,1079,0,0
-266,-55,0,0,0,0,0,0,0,0,0,-1,958,1079,0,0
-259,-55,0,0,0,0,0,0,0,0,0,-1,965,1079,0,0
-252,-55,0,0,0,0,0,0,0,0,0,-1,972,1079,0,0
-245,-55,0,0,0,0,0,0,0,0,0,-1,979,1079,0,0
-238,-55,0,0,0,0,0,0,0,0,0,-1,986,1079,0,0
-231,-55,0,0,0,0,0,0,0,0,0,-1,993,1079,0,0
-224,-55,0,0,0,0,0,0,0,0,0,-1,1000,1079,0,0
-217,-55,0,0,0,0,0,0,0,0,0,-1,1007,1079,0,0
-210,-55,0,0,0,0,0,0,0,0,0,-1,1014,1079,0,0
-203,-55,0,0,0,0,0,0,0,0,0,-1,1021,1079,0,0
-196,-55,0,0,0,0,0,0,0,0,0,-1,1028,1079,0,0
-189,-55,0,0,0,0,0,0,0,0,0,-1,1035,1079,0,0
-182,-55,0,0,0,0,0,0,0,0,0,-1,1042,1079,0,0
-175,-55,0,0,0,0,0,0,0,0,0,-1,1049,1079,0,0
-168,-55,0,0,0,0,0,0,0,0,0,-1,1056,1079,0,0
-161,-55,0,0,0,0,0,0,0,0,0,-1,1063,1079,0,0
-154,-55,0,0,0,0,0,0,0,0,0,-1,1070,1079,0,0
-147,-55,0,0,0,0,0,0,0,0,0,-1,1077,1079,0,0
-140,-55,0,0,0,0,0,0,0,0,0,-1,1084,1079,0,0
-133,-55,0,0,0,0,0,0,0,0,0,-1,1091,1079,0,0
-126,-55,0,0,0,0,0,0,0,0,0,-1,1098,1079,0,0
-119,-55,0,0,0,0,0,0,0,0,0,-1,1105,1079,0,0
-112,-55,0,0,0,0,0,0,0,0,0,-1,1112,1079,0,0
-105,-55,0,0,0,0,0,0,0,0,0,-1,1119,1079,0,0
-98,-55,0,0,0,0,0,0,0,0,0,-1,1126,1079,0,0
-91,-55,0,0,0,0,0,0,0,0,0,-1,1133,1079,0,0
-84,-55,0,0,0,0,0,0,0,0,0,-1,1140,1079,0,0
-77,-55,0,0,0,0,0,0,0,0,0,-1,1147,1079,0,0
-70,-55,0,0,0,0,0,0,0,0,0,-1,1154,1079,0,0
-63,-55,0,0,0,0,0,0,0,0,0,-1,1161,1079,0,0
-56,-55,0,0,0,0,0,0,0,0,0,-1,1168,1079,0,0
-49,-55,0,0,0,0,0,0,0,0,0,-1,1175,1079,0,0
-42,-55,0,0,0,0,0,0,0,0,0,-1,1182,1079,0,0
-35,-55,0,0,0,0,0,0,0,0,0,-1,1189,1079,0,0
-28,-55,0,0,0,0,0,0,0,0,0,-1,1196,1079,0,0
-21,-55,0,0,0,0,0,0,0,0,0,-1,1203,1079,0,0
-14,-55,0,0,0,0,0,0,0,0,0,-1,1210,1079,0,0
-7,-55,0,0,0,0,0,0,0,0,0,-1,1217,1079,0,0
0,-55,0,0,0,0,0,0,0,0,0,-1,1224,1079,0,0
7,-55,0,0,0,0,0,0,0,0,0,-1,1231,1079,0,0
14,-55,0,0,0,0,0,0,0,0,0,-1,1238,1079,0,0
21,-55,0,0,0,0,0,0,0,0,0,-1,1245,1079,0,0
28,-55,0,0,0,0,0,0,0,0,0,-1,1252,1079,0,0
35,-55,0,0,0,0,0,0,0,0,0,-1,1259,1079,0,0
42,-55,0,0,0,0,0,0,0,0,0,-1,1266,1079,0,0
49,-55,0,0,0,0,0,0,0,0,0,-1,1273,1079,0,0
56,-55,0,0,0,0,0,0,0,0,0,-1,1280,1079,0,0
63,-55,0,0,0,0,0,0,0,0,0,-1,1287,1079,0,0
70,-55,0,0,0,0,0,0,0,0,0,-1,1294,1079,0,0
77,-55,0,0,0,0,0,0,0,0,0,-1,1301,1079,0,0
84,-55,0,0,0,0,0,0,0,0,0,-1,1308,1079,0,0
91,-55,0,0,0,0,0,0,0,0,0,-1,1315,1079,0,0
98,-55,0,0,0,0,0,0,0,0,0,-1,1322,1079,0,0
105,-55,0,0,0,0,0,0,0,0,0,-1,1329,1079,0,0
112,-55,0,0,0,0,0,0,0,0,0,-1,1336,1079,0,0
119,-55,0,0,0,0,0,0,0,0,0,-1,1343,1079,0,0
126,-55,0,0,0,0,0,0,0,0,0,-1,1350,1079,0,0
133,-55,0,0,0,0,0,0,0,0,0,-1,1357,1079,0,0
140,-55,0,0,0,0,0,0,0,0,0,-1,1364,1079,0,0
147,-55,0,0,0,0,0,0,0,0,0,-1,1371,1079,0,0
154,-55,0,0,0,0,0,0,0,0,0,-1,1378,1079,0,0
161,-55,0,0,0,0,0,0,0,0,0,-1,1385,1079,0,0
168,-55,0,0,0,0,0,0,0,0,0,-1,1392,1079,0,0
175,-55,0,0,0,0,0,0,0,0,0,-1,1399,1079,0,0
182,-55,0,0,0,0,0,0,0,0,0,-1,1406,1079,0,0
189,-55,0,0,0,0,0,0,0,0,0,-1,1413,1079,0,0
196,-55,0,0,0,0,0,0,0,0,0,-1,1420,1079,0,0
203,-55,0,0,0,0,0,0,0,0,0,-1,1427,1079,0,0
210,-55,0,0,0,0,0,0,0,0,0,-1,1434,1079,0,0
217,-55,0,0,0,0,0,0,0,0,0,-1,1441,1079,0,0
224,-55,0,0,0,0,0,0,0,0,0,-1,1448,1079,0,0
231,-55,0,0,0,0,0,0,0,0,0,-1,1455,1079,0,0
238,-55,0,0,0,0,0,0,0,0,0,-1,1462,1079,0,0
245,-55,0,0,0,0,0,0,0,0,0,-1,1469,1079,0,0
252,-55,0,0,0,0,0,0,0,0,0,-1,1476,1079,0,0
259,-55,0,0,0,0,0,0,0,0,0,-1,1483,1079,0,0
266,-55,0,0,0,0,0,0,0,0,0,-1,1490,1079,0,0
273,-55,0,0,0,0,0,0,0,0,0,-1,1497,1079,0,0
280,-55,0,0,0,0,0,0,0,0,0,-1,1504,1079,0,0
287,-55,0,0,0,0,0,0,0,0,0,-1,1511,1079,0,0
294,-55,0,0,0,0,0,0,0,0,0,-1,1518,1079,0,0
301,-55,0,0,0,0,0,0,0,0,0,-1,1525,1079,0,0
308,-55,0,0,0,0,0,0,0,0,0,-1,1532,1079,0,0
315,-55,0,0,0,0,0,0,0,0,0,-1,1539,1079,0,0
322,-55,0,0,0,0,0,0,0,0,0,-1,1546,1079,0,0
329,-55,0,0,0,0,0,0,0,0,0,-1,1553,1079,0,0
336,-55,0,0,0,0,0,0,0,0,0,-1,1560,1079,0,0
343,-55,0,0,0,0,0,0,0,0,0,-1,1567,1079,0,0
350,-55,0,0,0,0,0,0,0,0,0,-1,1574,1079,0,0
357,-55,0,0,0,0,0,0,0,0,0,-1,1581,1079,0,0
364,-55,0,0,0,0,0,0,0,0,0,-1,1588,1079,0,0
371,-55,0,0,0,0,0,0,0,0,0,-1,1595,1079,0,0
378,-55,0,0,0,0,0,0,0,0,0,-1,1602,1079,0,0
385,-55,0,0,0,0,0,0,0,0,0,-1,1609,1079,0,0
392,-55,0,0,0,0,0,0,0,0,0,-1,1616,1079,0,0
399,-55,0,0,0,0,0,0,0,0,0,-1,1623,1079,0,0
406,-55,0,0,0,0,0,0,0,0,0,-1,1630,1079,0,0
413,-55,0,0,0,0,0,0,0,0,0,-1,1637,1079,0,0
420,-55,0,0,0,0,0,0,0,0,0,-1,1644,1079,0,0
427,-55,0,0,0,0,0,0,0,0,0,-1,1651,1079,0,0
434,-55,0,0,0,0,0,0,0,0,0,-1,1658,1079,0,0
441,-55,0,0,0,0,0,0,0,0,0,-1,1665,1079,0,0
448,-55,0,0,0,0,0,0,0,0,0,-1,1672,1079,0,0
455,-55,0,0,0,0,0,0,0,0,0,-1,1679,1079,0,0
462,-55,0,0,0,0,0,0,0,0,0,-1,1686,1079,0,0
469,-55,0,0,0,0,0,0,0,0,0,-1,1693,1079,0,0
476,-55,0,0,0,0,0,0,0,0,0,-1,1700,1079,0,0
483,-55,0,0,0,0,0,0,0,0,0,-1,1707,1079,0,0
490,-55,0,0,0,0,0,0,0,0,0,-1,1714,1079,0,0
497,-55,0,0,0,0,0,0,0,0,0,-1,1721,1079,0,0
504,-55,0,0,0,0,0,0,0,0,0,-1,1728,1079,0,0
511,-55,0,0,0,0,0,0,0,0,0,-1,1735,1079,0,0
518,-55,0,0,0,0,0,0,0,0,0,-1,1742,1079,0,0
525,-55,0,0,0,0,0,0,0,0,0,-1,1749,1079,0,0
532,-55,0,0,0,0,0,0,0,0,0,-1,1756,1079,0,0
539,-55,0,0,0,0,0,0,0,0,0,-1,1763,1079,0,0
546,-55,0,0,0,0,0,0,0,0,0,-1,1770,1079,0,0
553,-55,0,0,0,0,0,0,0,0,0,-1,1777,1079,0,0
560,-55,0,0,0,0,0,0,0,0,0,-1,1784,1079,0,0
567,-55,0,0,0,0,0,0,0,0,0,-1,1791,1079,0,0
574,-55,0,0,0,0,0,0,0,0,0,-1,1798,1079,0,0
581,-55,0,0,0,0,0,0,0,0,0,-1,1805,1079,0,0
588,-55,0,0,0,0,0,0,0,0,0,-1,1812,1079,0,0
595,-55,0,0,0,0,0,0,0,0,0,-1,1819,1079,0,0
602,-55,0,0,0,0,0,0,0,0,0,-1,1826,1079,0,0
609,-55,0,0,0,0,0,0,0,0,0,-1,1833,1079,0,0
616,-55,0,0,0,0,0,0,0,0,0,-1,1840,1079,0,0
623,-55,0,0,0,0,0,0,0,0,0,-1,1847,1079,0,0
630,-55,0,0,0,0,0,0,0,0,0,-1,1854,1079,0,0
637,-55,0,0,0,0,0,0,0,0,0,-1,1861,1079,0,0
644,-55,0,0,0,0,0,0,0,0,0,-1,1868,1079,0,0
651,-55,22.2262,2.99377,-0.0050685,6.45246e-05,0.00187992,0.000679375,-0.00568335,1.2547,0.00403447,0.0377965,1875,1079,22.2262,-2.99374
658,-55,22.1292,2.86523,-0.00355324,0.00133496,0.00138978,0.00170247,-0.00392075,1.31228,0.0033297,0.0345291,1882,1079,22.1292,-2.86518
665,-55,21.9916,2.79773,-0.00219944,0.00205512,0.000870862,0.00222648,-0.0023708,1.37651,0.00265468,0.0385861,1889,1079,21.9916,-2.79776
672,-55,22.0356,2.77136,-0.00126449,0.00222319,0.00125367,0.00262707,-0.00166837,1.25914,0.00250047,0.0394937,1896,1079,22.0356,-2.77138
679,-55,22.0791,2.73438,-0.000778918,0.00203093,0.00220078,0.00323699,-0.00198498,1.06948,0.00304365,0.0365574,1903,1079,22.0791,-2.73432
686,-55,22.0938,2.7793,-0.000716912,0.00158327,0.00320471,0.00383801,-0.00297165,0.957678,0.00394215,0.036547,1910,1079,22.0937,-2.77935
693,-55,22.105,2.82776,-0.000820779,0.00103504,0.00412602,0.0043362,-0.00412194,0.896004,0.00488383,0.0395657,1917,1079,22.105,-2.82781
700,-55,22.0698,2.74756,-0.00100196,0.000608949,0.0048981,0.00476738,-0.00516039,0.86689,0.0057333,0.0352437,1924,1079,22.0698,-2.74752
707,-55,22.1553,2.74915,-0.00115089,0.000208464,0.00530365,0.0048758,-0.00581824,0.849127,0.00618219,0.0241749,1931,1079,22.1552,-2.74913
714,-55,22.1871,2.87134,-0.00133435,-0.000115174,0.00552827,0.00483702,-0.00628654,0.84031,0.00644034,0.0304369,1938,1079,22.1872,-2.87137
721,-55,22.077,3.68872,-0.00146587,-0.000345044,0.00559683,0.00471936,-0.00653027,0.835297,0.00652297,0.0406349,1945,1079,22.077,-3.68874
728,-55,21.7169,4.29834,0,0,0,0,0,0,0,-1,1952,1079,21.7169,-4.29829
735,-55,21.6772,4.25366,-0.00184932,-0.00046623,0.00503781,0.00392728,-0.00624283,0.853607,0.00592223,0.0161659,1959,1079,21.6773,-4.25363
742,-55,21.6687,4.22156,-0.00199316,-0.000137992,0.00446549,0.00349524,-0.00562639,0.887803,0.00531407,0.0161473,1966,1079,21.6687,-4.22154
749,-55,21.6893,4.1698,-0.00168201,0.000535245,0.00372634,0.00331437,-0.00446114,0.929984,0.00450544,0.0123075,1973,1079,21.6893,-4.16976
756,-55,21.6483,4.12915,-0.00099865,0.00119262,0.00283948,0.00314052,-0.00294655,0.969526,0.00351496,0.0108945,1980,1079,21.6483,-4.12913
763,-55,21.6329,4.10583,1.63957e-05,0.00228487,0.00222319,0.00364644,-0.00134517,1.02128,0.00298225,0.0133195,1987,1079,21.6329,-4.10587
770,-55,21.6606,4.04602,0.00132175,0.00363812,0.00134341,0.00425368,0.000706199,1.14114,0.00263216,0.0148417,1994,1079,21.6606,-4.04596
777,-55,21.6356,3.99255,0.00298608,0.00518356,0.00126719,0.00576202,0.00240762,1.14256,0.00334164,0.0124151,2001,1079,21.6356,-3.99251
784,-55,21.5819,3.89905,0.0049694,0.00688171,0.00204288,0.00818112,0.00366999,1.00428,0.00473169,0.029096,2008,1079,21.5819,-3.89904
791,-55,21.5919,3.33057,0,0,0,0,0,0,0,-1,2015,1079,21.5919,-3.33054
798,-55,21.6804,2.90686,0,0,0,0,0,0,0,-1,2022,1079,21.6804,-2.90686
805,-55,22.3792,3.81335,0,0,0,0,0,0,0,-1,2029,1079,22.3791,-3.81334
812,-55,22.6606,4.31287,0,0,0,0,0,0,0,-1,2036,1079,22.6607,-4.31289
-700,-62,-16.1588,-3.27673,0.0257664,-0.0619285,0.0618139,0.0577052,-0.0938673,0.476913,0.0883367,0.0476598,524,1086,-16.1588,3.27668
-693,-62,-16.3475,-2.27417,0.0177742,-0.0486888,0.0609533,0.0539663,-0.0848809,0.535825,0.0808231,0.0463991,531,1086,-16.3475,2.27411
-686,-62,-16.6005,-1.35486,0.0120001,-0.0374485,0.0563082,0.048773,-0.0742214,0.578526,0.0715157,0.0482053,538,1086,-16.6004,1.3549
-679,-62,-16.8585,-0.445435,0,0,0,0,0,0,0,-1,545,1086,-16.8585,0.445388
-672,-62,-17.0081,0.976807,0,0,0,0,0,0,0,-1,552,1086,-17.0081,-0.976828
-665,-62,-16.9507,1.65515,0,0,0,0,0,0,0,-1,559,1086,-16.9507,-1.65518
-658,-62,-14.7093,1.04431,0.00120375,-0.00917378,0.028429,0.0249136,-0.0328836,0.695133,0.0334748,0.0427442,566,1086,-14.7093,-1.04435
-651,-62,-14.2958,1.37817,0.000296166,-0.00554734,0.0219773,0.0195451,-0.0247963,0.719314,0.0256603,0.0338135,573,1086,-14.2959,-1.37823
-644,-62,-14.273,1.45325,-0.00020412,-0.00273243,0.0158185,0.0144007,-0.0173372,0.745525,0.01835,0.0120195,580,1086,-14.273,-1.45327
-637,-62,-14.272,1.53491,-0.00156577,-0.00073209,0.0108149,0.00967403,-0.0119719,0.80466,0.0125207,0.0106113,587,1086,-14.272,-1.53486
-630,-62,-14.275,1.63184,-0.00237512,0.000617789,0.00497882,0.00432018,-0.00607751,0.931385,0.00603162,0.0118313,594,1086,-14.275,-1.63178
-623,-62,-14.2659,1.71729,-0.00206817,0.000605824,0.000799379,0.000826572,-0.00228891,1.30136,0.0018636,0.0133281,601,1086,-14.2659,-1.71729
-616,-62,-14.2497,1.78967,-0.00210328,-0.000282825,-0.00237399,0.00134946,-0.00373556,-0.968463,0.00304167,0.0136107,608,1086,-14.2497,-1.78965
-609,-62,-14.2519,1.87378,-0.00208624,-0.000903234,-0.00432776,0.00287326,-0.00586273,-0.853315,0.00514122,0.0129828,615,1086,-14.2519,-1.87375
-602,-62,-14.2509,1.97046,-0.00222459,-0.00121195,-0.00582997,0.00413365,-0.00757019,-0.828713,0.00685362,0.0129457,622,1086,-14.2509,-1.9705
-595,-62,-14.1695,2.1842,0,0,0,0,0,0,0,-1,629,1086,-14.1695,-2.18426
-588,-62,-14.3162,1.63782,-0.00260511,-0.00165604,-0.00693165,0.0048173,-0.00907845,-0.819574,0.00814748,0.0283425,636,1086,-14.3162,-1.63777
-581,-62,-14.5687,1.08936,-0.00259301,-0.00152979,-0.00663576,0.00459562,-0.00871842,-0.825369,0.00780875,0.0365173,643,1086,-14.5687,-1.08934
-574,-62,-14.6644,1.18823,-0.00251033,-0.0013331,-0.00619989,0.00430605,-0.00814949,-0.832726,0.00730444,0.0364237,650,1086,-14.6644,-1.18817
-567,-62,-14.4948,1.1449,-0.00229398,-0.000893288,-0.00516976,0.00362335,-0.00681062,-0.852723,0.00611702,0.0378527,657,1086,-14.4948,-1.14487
-560,-62,-14.3339,1.04541,-0.00200212,-0.000262803,-0.00349977,0.00247374,-0.00473867,-0.907177,0.00423198,0.0406878,664,1086,-14.3339,-1.0454
-553,-62,-14.4223,1.0354,-0.00173676,0.000515682,-0.00115143,0.0010001,-0.00222118,-1.17256,0.00190383,0.0358669,671,1086,-14.4223,-1.03542
-546,-62,-14.5428,0.89502,-0.00161515,0.00136596,0.00194439,0.00232538,-0.00257457,1.11242,0.00283021,0.0305587,678,1086,-14.5428,-0.894993
-539,-62,-14.4904,0.703125,-0.00187155,0.00209981,0.00529819,0.0057722,-0.00554393,0.964689,0.00653381,0.0356671,685,1086,-14.4904,-0.703128
-532,-62,-14.4943,1.12317,-0.00351408,0.00217792,0.0070064,0.00689428,-0.00823044,0.978318,0.00874361,0.0378862,692,1086,-14.4943,-1.12316
-525,-62,0,0,0,0,0,0,0,0,0,-1,699,1086,0,0
-518,-62,0,0,0,0,0,0,0,0,0,-1,706,1086,0,0
-511,-62,0,0,0,0,0,0,0,0,0,-1,713,1086,0,0
-504,-62,0,0,0,0,0,0,0,0,0,-1,720,1086,0,0
-497,-62,0,0,0,0,0,0,0,0,0,-1,727,1086,0,0
-490,-62,0,0,0,0,0,0,0,0,0,-1,734,1086,0,0
-483,-62,0,0,0,0,0,0,0,0,0,-1,741,1086,0,0
-476,-62,0,0,0,0,0,0,0,0,0,-1,748,1086,0,0
-469,-62,0,0,0,0,0,0,0,0,0,-1,755,1086,0,0
-462,-62,0,0,0,0,0,0,0,0,0,-1,762,1086,0,0
-455,-62,0,0,0,0,0,0,0,0,0,-1,769,1086,0,0
-448,-62,0,0,0,0,0,0,0,0,0,-1,776,1086,0,0
-441,-62,0,0,0,0,0,0,0,0,0,-1,783,1086,0,0
-434,-62,0,0,0,0,0,0,0,0,0,-1,790,1086,0,0
-427,-62,0,0,0,0,0,0,0,0,0,-1,797,1086,0,0
-420,-62,0,0,0,0,0,0,0,0,0,-1,804,1086,0,0
-413,-62,0,0,0,0,0,0,0,0,0,-1,811,1086,0,0
-406,-62,0,0,0,0,0,0,0,0,0,-1,818,1086,0,0
-399,-62,0,0,0,0,0,0,0,0,0,-1,825,1086,0,0
-392,-62,0,0,0,0,0,0,0,0,0,-1,832,1086,0,0
-385,-62,0,0,0,0,0,0,0,0,0,-1,839,1086,0,0
-378,-62,0,0,0,0,0,0,0,0,0,-1,846,1086,0,0
-371,-62,0,0,0,0,0,0,0,0,0,-1,853,1086,0,0
-364,-62,0,0,0,0,0,0,0,0,0,-1,860,1086,0,0
-357,-62,0,0,0,0,0,0,0,0,0,-1,867,1086,0,0
-350,-62,0,0,0,0,0,0,0,0,0,-1,874,1086,0,0
-343,-62,0,0,0,0,0,0,0,0,0,-1,881,1086,0,0
-336,-62,0,0,0,0,0,0,0,0,0,-1,888,1086,0,0
-329,-62,0,0,0,0,0,0,0,0,0,-1,895,1086,0,0
-322,-62,0,0,0,0,0,0,0,0,0,-1,902,1086,0,0
-315,-62,0,0,0,0,0,0,0,0,0,-1,909,1086,0,0
-308,-62,0,0,0,0,0,0,0,0,0,-1,916,1086,0,0
-301,-62,0,0,0,0,0,0,0,0,0,-1,923,1086,0,0
-294,-62,0,0,0,0,0,0,0,0,0,-1,930,1086,0,0
-287,-62,0,0,0,0,0,0,0,0,0,-1,937,1086,0,0
-280,-62,0,0,0,0,0,0,0,0,0,-1,944,1086,0,0
-273,-62,0,0,0,0,0,0,0,0,0,-1,951,1086,0,0
-266,-62,0,0,0,0,0,0,0,0,0,-1,958,1086,0,0
-259,-62,0,0,0,0,0,0,0,0,0,-1,965,1086,0,0
-252,-62,0,0,0,0,0,0,0,0,0,-1,972,1086,0,0
-245,-62,0,0,0,0,0,0,0,0,0,-1,979,1086,0,0
-238,-62,0,0,0,0,0,0,0,0,0,-1,986,1086,0,0
-231,-62,0,0,0,0,0,0,0,0,0,-1,993,1086,0,0
-224,-62,0,0,0,0,0,0,0,0,0,-1,1000,1086,0,0
-217,-62,0,0,0,0,0,0,0,0,0,-1,1007,1086,0,0
-210,-62,0,0,0,0,0,0,0,0,0,-1,1014,1086,0,0
-203,-62,0,0,0,0,0,0,0,0,0,-1,1021,1086,0,0
-196,-62,0,0,0,0,0,0,0,0,0,-1,1028,1086,0,0
-189,-62,0,0,0,0,0,0,0,0,0,-1,1035,1086,0,0
-182,-62,0,0,0,0,0,0,0,0,0,-1,1042,1086,0,0
-175,-62,0,0,0,0,0,0,0,0,0,-1,1049,1086,0,0
-168,-62,0,0,0,0,0,0,0,0,0,-1,1056,1086,0,0
-161,-62,0,0,0,0,0,0,0,0,0,-1,1063,1086,0,0
-154,-62,0,0,0,0,0,0,0,0,0,-1,1070,1086,0,0
-147,-62,0,0,0,0,0,0,0,0,0,-1,1077,1086,0,0
-140,-62,0,0,0,0,0,0,0,0,0,-1,1084,1086,0,0
-133,-62,0,0,0,0,0,0,0,0,0,-1,1091,1086,0,0
-126,-62,0,0,0,0,0,0,0,0,0,-1,1098,1086,0,0
-119,-62,0,0,0,0,0,0,0,0,0,-1,1105,1086,0,0
-112,-62,0,0,0,0,0,0,0,0,0,-1,1112,1086,0,0
-105,-62,0,0,0,0,0,0,0,0,0,-1,1119,1086,0,0
-98,-62,0,0,0,0,0,0,0,0,0,-1,1126,1086,0,0
-91,-62,0,0,0,0,0,0,0,0,0,-1,1133,1086,0,0
-84,-62,0,0,0,0,0,0,0,0,0,-1,1140,1086,0,0
-77,-62,0,0,0,0,0,0,0,0,0,-1,1147,1086,0,0
-70,-62,0,0,0,0,0,0,0,0,0,-1,1154,1086,0,0
-63,-62,0,0,0,0,0,0,0,0,0,-1,1161,1086,0,0
-56,-62,0,0,0,0,0,0,0,0,0,-1,1168,1086,0,0
-49,-62,0,0,0,0,0,0,0,0,0,-1,1175,1086,0,0
-42,-62,0,0,0,0,0,0,0,0,0,-1,1182,1086,0,0
-35,-62,0,0,0,0,0,0,0,0,0,-1,1189,1086,0,0
-28,-62,0,0,0,0,0,0,0,0,0,-1,1196,1086,0,0
-21,-62,0,0,0,0,0,0,0,0,0,-1,1203,1086,0,0
-14,-62,0,0,0,0,0,0,0,0,0,-1,1210,1086,0,0
-7,-62,0,0,0,0,0,0,0,0,0,-1,1217,1086,0,0
0,-62,0,0,0,0,0,0,0,0,0,-1,1224,1086,0,0
7,-62,0,0,0,0,0,0,0,0,0,-1,1231,1086,0,0
14,-62,0,0,0,0,0,0,0,0,0,-1,1238,1086,0,0
21,-62,0,0,0,0,0,0,0,0,0,-1,1245,1086,0,0
28,-62,0,0,0,0,0,0,0,0,0,-1,1252,1086,0,0
35,-62,0,0,0,0,0,0,0,0,0,-1,1259,1086,0,0
42,-62,0,0,0,0,0,0,0,0,0,-1,1266,1086,0,0
49,-62,0,0,0,0,0,0,0,0,0,-1,1273,1086,0,0
56,-62,0,0,0,0,0,0,0,0,0,-1,1280,1086,0,0
63,-62,0,0,0,0,0,0,0,0,0,-1,1287,1086,0,0
70,-62,0,0,0,0,0,0,0,0,0,-1,1294,1086,0,0
77,-62,0,0,0,0,0,0,0,0,0,-1,1301,1086,0,0
84,-62,0,0,0,0,0,0,0,0,0,-1,1308,1086,0,0
91,-62,0,0,0,0,0,0,0,0,0,-1,1315,1086,0,0
98,-62,0,0,0,0,0,0,0,0,0,-1,1322,1086,0,0
105,-62,0,0,0,0,0,0,0,0,0,-1,1329,1086,0,0
112,-62,0,0,0,0,0,0,0,0,0,-1,1336,1086,0,0
119,-62,0,0,0,0,0,0,0,0,0,-1,1343,1086,0,0
126,-62,0,0,0,0,0,0,0,0,0,-1,1350,1086,0,0
133,-62,0,0,0,0,0,0,0,0,0,-1,1357,1086,0,0
140,-62,0,0,0,0,0,0,0,0,0,-1,1364,1086,0,0
147,-62,0,0,0,0,0,0,0,0,0,-1,1371,1086,0,0
154,-62,0,0,0,0,0,0,0,0,0,-1,1378,1086,0,0
161,-62,0,0,0,0,0,0,0,0,0,-1,1385,1086,0,0
168,-62,0,0,0,0,0,0,0,0,0,-1,1392,1086,0,0
175,-62,0,0,0,0,0,0,0,0,0,-1,1399,1086,0,0
182,-62,0,0,0,0,0,0,0,0,0,-1,1406,1086,0,0
189,-62,0,0,0,0,0,0,0,0,0,-1,1413,1086,0,0
196,-62,0,0,0,0,0,0,0,0,0,-1,1420,1086,0,0
203,-62,0,0,0,0,0,0,0,0,0,-1,1427,1086,0,0
210,-62,0,0,0,0,0,0,0,0,0,-1,1434,1086,0,0
217,-62,0,0,0,0,0,0,0,0,0,-1,1441,1086,0,0
224,-62,0,0,0,0,0,0,0,0,0,-1,1448,1086,0,0
231,-62,0,0,0,0,0,0,0,0,0,-1,1455,1086,0,0
238,-62,0,0,0,0,0,0,0,0,0,-1,1462,1086,0,0
245,-62,0,0,0,0,0,0,0,0,0,-1,1469,1086,0,0
252,-62,0,0,0,0,0,0,0,0,0,-1,1476,1086,0,0
259,-62,0,0,0,0,0,0,0,0,0,-1,1483,1086,0,0
266,-62,0,0,0,0,0,0,0,0,0,-1,1490,1086,0,0
273,-62,0,0,0,0,0,0,0,0,0,-1,1497,1086,0,0
280,-62,0,0,0,0,0,0,0,0,0,-1,1504,1086,0,0
287,-62,0,0,0,0,0,0,0,0,0,-1,1511,1086,0,0
294,-62,0,0,0,0,0,0,0,0,0,-1,1518,1086,0,0
301,-62,0,0,0,0,0,0,0,0,0,-1,1525,1086,0,0
308,-62,0,0,0,0,0,0,0,0,0,-1,1532,1086,0,0
315,-62,0,0,0,0,0,0,0,0,0,-1,1539,1086,0,0
322,-62,0,0,0,0,0,0,0,0,0,-1,1546,1086,0,0
329,-62,0,0,0,0,0,0,0,0,0,-1,1553,1086,0,0
336,-62,0,0,0,0,0,0,0,0,0,-1,1560,1086,0,0
343,-62,0,0,0,0,0,0,0,0,0,-1,1567,1086,0,0
350,-62,0,0,0,0,0,0,0,0,0,-1,1574,1086,0,0
357,-62,0,0,0,0,0,0,0,0,0,-1,1581,1086,0,0
364,-62,0,0,0,0,0,0,0,0,0,-1,1588,1086,0,0
371,-62,0,0,0,0,0,0,0,0,0,-1,1595,1086,0,0
378,-62,0,0,0,0,0,0,0,0,0,-1,1602,1086,0,0
385,-62,0,0,0,0,0,0,0,0,0,-1,1609,1086,0,0
392,-62,0,0,0,0,0,0,0,0,0,-1,1616,1086,0,0
399,-62,0,0,0,0,0,0,0,0,0,-1,1623,1086,0,0
406,-62,0,0,0,0,0,0,0,0,0,-1,1630,1086,0,0
413,-62,0,0,0,0,0,0,0,0,0,-1,1637,1086,0,0
420,-62,0,0,0,0,0,0,0,0,0,-1,1644,1086,0,0
427,-62,0,0,0,0,0,0,0,0,0,-1,1651,1086,0,0
434,-62,0,0,0,0,0,0,0,0,0,-1,1658,1086,0,0
441,-62,0,0,0,0,0,0,0,0,0,-1,1665,1086,0,0
448,-62,0,0,0,0,0,0,0,0,0,-1,1672,1086,0,0
455,-62,0,0,0,0,0,0,0,0,0,-1,1679,1086,0,0
462,-62,0,0,0,0,0,0,0,0,0,-1,1686,1086,0,0
469,-62,0,0,0,0,0,0,0,0,0,-1,1693,1086,0,0
476,-62,0,0,0,0,0,0,0,0,0,-1,1700,1086,0,0
483,-62,0,0,0,0,0,0,0,0,0,-1,1707,1086,0,0
490,-62,0,0,0,0,0,0,0,0,0,-1,1714,1086,0,0
497,-62,0,0,0,0,0,0,0,0,0,-1,1721,1086,0,0
504,-62,0,0,0,0,0,0,0,0,0,-1,1728,1086,0,0
511,-62,0,0,0,0,0,0,0,0,0,-1,1735,1086,0,0
518,-62,0,0,0,0,0,0,0,0,0,-1,1742,1086,0,0
525,-62,0,0,0,0,0,0,0,0,0,-1,1749,1086,0,0
532,-62,0,0,0,0,0,0,0,0,0,-1,1756,1086,0,0
539,-62,0,0,0,0,0,0,0,0,0,-1,1763,1086,0,0
546,-62,0,0,0,0,0,0,0,0,0,-1,1770,1086,0,0
553,-62,0,0,0,0,0,0,0,0,0,-1,1777,1086,0,0
560,-62,0,0,0,0,0,0,0,0,0,-1,1784,1086,0,0
567,-62,0,0,0,0,0,0,0,0,0,-1,1791,1086,0,0
574,-62,0,0,0,0,0,0,0,0,0,-1,1798,1086,0,0
581,-62,0,0,0,0,0,0,0,0,0,-1,1805,1086,0,0
588,-62,0,0,0,0,0,0,0,0,0,-1,1812,1086,0,0
595,-62,0,0,0,0,0,0,0,0,0,-1,1819,1086,0,0
602,-62,0,0,0,0,0,0,0,0,0,-1,1826,1086,0,0
609,-62,0,0,0,0,0,0,0,0,0,-1,1833,1086,0,0
616,-62,0,0,0,0,0,0,0,0,0,-1,1840,1086,0,0
623,-62,0,0,0,0,0,0,0,0,0,-1,1847,1086,0,0
630,-62,0,0,0,0,0,0,0,0,0,-1,1854,1086,0,0
637,-62,0,0,0,0,0,0,0,0,0,-1,1861,1086,0,0
644,-62,0,0,0,0,0,0,0,0,0,-1,1868,1086,0,0
651,-62,22.0471,2.70679,-0.00394158,2.54924e-05,0.000805377,0.000182761,-0.00409885,1.37795,0.00279548,0.0408678,1875,1086,22.0471,-2.70677
658,-62,22.1332,2.82373,-0.00274312,0.00139934,0.000647608,0.00149822,-0.002842,1.41928,0.00254555,0.039792,1882,1086,22.1332,-2.82375
665,-62,22.1057,2.83618,-0.00158734,0.00217366,0.000373376,0.00221037,-0.00162405,1.4728,0.00222241,0.0387318,1889,1086,22.1057,-2.83623
672,-62,22.1683,2.79846,-0.000921517,0.00230794,0.00103435,0.00261082,-0.0012244,1.28594,0.00226198,0.0377071,1896,1086,22.1683,-2.7985
679,-62,22.1307,2.7417,-0.00071489,0.0020689,0.00217386,0.00325829,-0.00190428,1.07016,0.00301459,0.0374884,1903,1086,22.1307,-2.74175
686,-62,22.087,2.71399,-0.00087019,0.00157605,0.00330697,0.00387884,-0.00317298,0.962527,0.00407817,0.038804,1910,1086,22.087,-2.71403
693,-62,22.0841,2.77234,-0.00112495,0.000996599,0.0043064,0.00437095,-0.0044993,0.906157,0.00512142,0.0403397,1917,1086,22.0841,-2.77238
700,-62,22.0803,2.7052,-0.00138928,0.000574687,0.00512898,0.00481484,-0.00562944,0.879983,0.00603612,0.0328097,1924,1086,22.0803,-2.70521
707,-62,22.127,2.73535,-0.00159943,0.000162045,0.00555824,0.0049089,-0.00634628,0.863973,0.00651582,0.0205691,1931,1086,22.1269,-2.73534
714,-62,22.1925,2.7981,-0.00182496,-0.000174541,0.0057943,0.00485302,-0.00685252,0.856131,0.00679098,0.0258251,1938,1086,22.1925,-2.79813
721,-62,22.2178,3.66443,-0.00195155,-0.000421284,0.00585423,0.0047176,-0.00709044,0.850379,0.0068631,0.0390928,1945,1086,22.2178,-3.66437
728,-62,21.6484,4.32788,0,0,0,0,0,0,0,-1,1952,1086,21.6485,-4.32784
735,-62,21.6316,4.27417,-0.00224654,-0.000538432,0.00528205,0.00395816,-0.00674313,0.865549,0.00624775,0.0167128,1959,1086,21.6316,-4.27419
742,-62,21.6195,4.2583,-0.00227913,-0.000204805,0.0046963,0.0035675,-0.00605143,0.894077,0.00561487,0.0145047,1966,1086,21.6195,-4.25828
749,-62,21.6057,4.17981,-0.00186039,0.000366623,0.00393816,0.00334567,-0.00483944,0.923176,0.00475183,0.0126994,1973,1086,21.6057,-4.17985
756,-62,21.5865,4.146,-0.00110257,0.000890863,0.00304589,0.00309897,-0.00331068,0.943524,0.00370129,0.0132386,1980,1086,21.5866,-4.14597
763,-62,21.5823,4.09412,1.11891e-05,0.00185658,0.00245807,0.00355943,-0.00169166,0.964948,0.00309498,0.0139207,1987,1086,21.5822,-4.09408
770,-62,21.5974,4.02185,0.0014435,0.00296787,0.00160518,0.00398262,0.000428739,1.00705,0.00252434,0.0118859,1994,1086,21.5974,-4.02183
777,-62,21.5641,3.92737,0.00315932,0.00413442,0.00162484,0.00534328,0.00195046,0.931155,0.00312218,0.0129979,2001,1086,21.564,-3.92742
784,-62,21.5204,3.86462,0.00518213,0.00539704,0.0024672,0.00775913,0.00282004,0.80716,0.00453508,0.0266895,2008,1086,21.5204,-3.86463
791,-62,21.4683,3.84717,0.00770975,0.00683095,0.00387082,0.011166,0.00337467,0.728882,0.00661268,0.0442158,2015,1086,21.4682,-3.84712
798,-62,21.5833,3.74939,0.0111817,0.00851301,0.00608194,0.0160739,0.00362076,0.677412,0.00973611,0.0465966,2022,1086,21.5832,-3.74942
805,-62,21.7729,3.27112,0.0159747,0.0105898,0.00949313,0.0231499,0.00341473,0.647217,0.0144303,0.0460129,2029,1086,21.7729,-3.27117
812,-62,22.3662,4.17615,0.0223463,0.0133195,0.0147324,0.0332411,0.00242461,0.636758,0.0213984,0.0476385,2036,1086,22.3663,-4.17621
-700,-69,-16.5563,-2.89734,0.0414694,-0.0593588,0.046395,0.0595687,-0.0774581,0.371953,0.0793369,0.0459677,524,1093,-16.5563,2.89736
-693,-69,-16.7098,-1.90747,0.0295387,-0.0470292,0.0484041,0.0529688,-0.0704592,0.450807,0.0714993,0.0437218,531,1093,-16.7098,1.90753
-686,-69,-16.9926,-0.853271,0.0208219,-0.0364936,0.0461535,0.0464911,-0.0621628,0.507567,0.0629484,0.0458093,538,1093,-16.9926,0.853252
-679,-69,-17.2343,0.143188,0.0143677,-0.0276635,0.0417386,0.0400828,-0.0533787,0.552174,0.0541417,0.048896,545,1093,-17.2342,-0.143202
-672,-69,-17.4408,1.01868,0.0095907,-0.0203422,0.0362975,0.0338862,-0.0446377,0.589854,0.0454772,0.04748,552,1093,-17.4408,-1.01867
-665,-69,-17.4821,1.69995,0.00608373,-0.0143904,0.0304563,0.0279774,-0.0362841,0.623269,0.0372046,0.0492534,559,1093,-17.482,-1.69999
-658,-69,-17.5565,2.47681,0,0,0,0,0,0,0,-1,566,1093,-17.5565,-2.47679
-651,-69,-14.1767,1.33923,0.00186006,-0.00614509,0.019225,0.0174947,-0.0217798,0.682766,0.0227201,0.0325256,573,1093,-14.1767,-1.33923
-644,-69,-14.1791,1.43652,0.000769037,-0.00333322,0.0139556,0.0128235,-0.0153876,0.712433,0.0163101,0.00985239,580,1093,-14.1791,-1.43649
-637,-69,-14.1744,1.53162,-0.00119876,-0.00125777,0.00981939,0.00859116,-0.0110477,0.783896,0.011368,0.0117425,587,1093,-14.1744,-1.53156
-630,-69,-14.1696,1.63586,-0.00244749,9.08118e-05,0.00448342,0.00348125,-0.00583793,0.923328,0.00543748,0.0134227,594,1093,-14.1696,-1.63581
-623,-69,-14.154,1.7262,-0.00219235,0.000197137,0.000662261,0.00036841,-0.00236362,1.31772,0.00171182,0.0123473,601,1093,-14.154,-1.72621
-616,-69,-14.1533,1.80359,-0.00218653,-0.000479213,-0.00230962,0.00112946,-0.00379521,-0.962416,0.00297887,0.01306,608,1093,-14.1533,-1.80354
-609,-69,-14.1471,1.8645,-0.00214027,-0.000909116,-0.00424888,0.00276854,-0.00581793,-0.857338,0.00506054,0.0127475,615,1093,-14.1471,-1.86453
-602,-69,-14.1342,1.99207,-0.00218371,-0.00110194,-0.00570154,0.00408431,-0.00736997,-0.83269,0.00670321,0.0157266,622,1093,-14.1342,-1.99212
-595,-69,-14.1147,2.0752,-0.00233552,-0.00132175,-0.00662463,0.00481536,-0.00847263,-0.823582,0.00776808,0.0190326,629,1093,-14.1147,-2.07516
-588,-69,-14.2762,1.78809,-0.00243488,-0.00139441,-0.00686224,0.00496729,-0.00879658,-0.823231,0.00804844,0.0255615,636,1093,-14.2763,-1.78806
-581,-69,-14.526,1.2511,-0.00239896,-0.00120654,-0.00667375,0.00489758,-0.00850309,-0.829948,0.00782967,0.03323,643,1093,-14.526,-1.25111
-574,-69,-14.6458,1.07764,-0.00226994,-0.00100115,-0.00637736,0.00477329,-0.00804438,-0.834973,0.00748018,0.032708,650,1093,-14.6458,-1.07759
-567,-69,-14.5357,1.07263,-0.002008,-0.000545902,-0.00552313,0.00429435,-0.00684826,-0.851196,0.00648927,0.037049,657,1093,-14.5357,-1.07267
-560,-69,-14.4926,1.05908,-0.00169637,6.82124e-05,-0.00408207,0.00336225,-0.0049904,-0.89183,0.00485285,0.0393223,664,1093,-14.4926,-1.05913
-553,-69,-14.5356,1.15356,-0.00146885,0.000784799,-0.0020251,0.00197546,-0.00265951,-1.03928,0.0026857,0.0373861,671,1093,-14.5356,-1.15362
-546,-69,-14.5704,0.999512,-0.00145302,0.00151256,0.000711705,0.00167451,-0.00161497,1.34705,0.00189929,0.0339649,678,1093,-14.5704,-0.99946
-539,-69,-14.4976,0.911743,-0.00190099,0.00207176,0.00374119,0.0043212,-0.00415043,1.02945,0.00489143,0.0370735,685,1093,-14.4976,-0.91179
-532,-69,-14.3778,0.927002,-0.00382855,0.00184763,0.00517928,0.00491544,-0.00689636,1.03604,0.00685144,0.0389922,692,1093,-14.3778,-0.927013
-525,-69,0,0,0,0,0,0,0,0,0,-1,699,1093,0,0
-518,-69,0,0,0,0,0,0,0,0,0,-1,706,1093,0,0
-511,-69,0,0,0,0,0,0,0,0,0,-1,713,1093,0,0
-504,-69,0,0,0,0,0,0,0,0,0,-1,720,1093,0,0
-497,-69,0,0,0,0,0,0,0,0,0,-1,727,1093,0,0
-490,-69,0,0,0,0,0,0,0,0,0,-1,734,1093,0,0
-483,-69,0,0,0,0,0,0,0,0,0,-1,741,1093,0,0
-476,-69,0,0,0,0,0,0,0,0,0,-1,748,1093,0,0
-469,-69,0,0,0,0,0,0,0,0,0,-1,755,1093,0,0
-462,-69,0,0,0,0,0,0,0,0,0,-1,762,1093,0,0
-455,-69,0,0,0,0,0,0,0,0,0,-1,769,1093,0,0
-448,-69,0,0,0,0,0,0,0,0,0,-1,776,1093,0,0
-441,-69,0,0,0,0,0,0,0,0,0,-1,783,1093,0,0
-434,-69,0,0,0,0,0,0,0,0,0,-1,790,1093,0,0
-427,-69,0,0,0,0,0,0,0,0,0,-1,797,1093,0,0
-420,-69,0,0,0,0,0,0,0,0,0,-1,804,1093,0,0
-413,-69,0,0,0,0,0,0,0,0,0,-1,811,1093,0,0
-406,-69,0,0,0,0,0,0,0,0,0,-1,818,1093,0,0
-399,-69,0,0,0,0,0,0,0,0,0,-1,825,1093,0,0
-392,-69,0,0,0,0,0,0,0,0,0,-1,832,1093,0,0
-385,-69,0,0,0,0,0,0,0,0,0,-1,839,1093,0,0
-378,-69,0,0,0,0,0,0,0,0,0,-1,846,1093,0,0
-371,-69,0,0,0,0,0,0,0,0,0,-1,853,1093,0,0
-364,-69,0,0,0,0,0,0,0,0,0,-1,860,1093,0,0
-357,-69,0,0,0,0,0,0,0,0,0,-1,867,1093,0,0
-350,-69,0,0,0,0,0,0,0,0,0,-1,874,1093,0,0
-343,-69,0,0,0,0,0,0,0,0,0,-1,881,1093,0,0
-336,-69,0,0,0,0,0,0,0,0,0,-1,888,1093,0,0
-329,-69,0,0,0,0,0,0,0,0,0,-1,895,1093,0,0
-322,-69,0,0,0,0,0,0,0,0,0,-1,902,1093,0,0
-315,-69,0,0,0,0,0,0,0,0,0,-1,909,1093,0,0
-308,-69,0,0,0,0,0,0,0,0,0,-1,916,1093,0,0
-301,-69,0,0,0,0,0,0,0,0,0,-1,923,1093,0,0
-294,-69,0,0,0,0,0,0,0,0,0,-1,930,1093,0,0
-287,-69,0,0,0,0,0,0,0,0,0,-1,937,1093,0,0
-280,-69,0,0,0,0,0,0,0,0,0,-1,944,1093,0,0
-273,-69,0,0,0,0,0,0,0,0,0,-1,951,1093,0,0
-266,-69,0,0,0,0,0,0,0,0,0,-1,958,1093,0,0
-259,-69,0,0,0,0,0,0,0,0,0,-1,965,1093,0,0
-252,-69,0,0,0,0,0,0,0,0,0,-1,972,1093,0,0
-245,-69,0,0,0,0,0,0,0,0,0,-1,979,1093,0,0
-238,-69,0,0,0,0,0,0,0,0,0,-1,986,1093,0,0
-231,-69,0,0,0,0,0,0,0,0,0,-1,993,1093,0,0
-224,-69,0,0,0,0,0,0,0,0,0,-1,1000,1093,0,0
-217,-69,0,0,0,0,0,0,0,0,0,-1,1007,1093,0,0
-210,-69,0,0,0,0,0,0,0,0,0,-1,1014,1093,0,0
-203,-69,0,0,0,0,0,0,0,0,0,-1,1021,1093,0,0
-196,-69,0,0,0,0,0,0,0,0,0,-1,1028,1093,0,0
-189,-69,0,0,0,0,0,0,0,0,0,-1,1035,1093,0,0
-182,-69,0,0,0,0,0,0,0,0,0,-1,1042,1093,0,0
-175,-69,0,0,0,0,0,0,0,0,0,-1,1049,1093,0,0
-168,-69,0,0,0,0,0,0,0,0,0,-1,1056,1093,0,0
-161,-69,0,0,0,0,0,0,0,0,0,-1,1063,1093,0,0
-154,-69,0,0,0,0,0,0,0,0,0,-1,1070,1093,0,0
-147,-69,0,0,0,0,0,0,0,0,0,-1,1077,1093,0,0
-140,-69,0,0,0,0,0,0,0,0,0,-1,1084,1093,0,0
-133,-69,0,0,0,0,0,0,0,0,0,-1,1091,1093,0,0
-126,-69,0,0,0,0,0,0,0,0,0,-1,1098,1093,0,0
-119,-69,0,0,0,0,0,0,0,0,0,-1,1105,1093,0,0
-112,-69,0,0,0,0,0,0,0,0,0,-1,1112,1093,0,0
-105,-69,0,0,0,0,0,0,0,0,0,-1,1119,1093,0,0
-98,-69,0,0,0,0,0,0,0,0,0,-1,1126,1093,0,0
-91,-69,0,0,0,0,0,0,0,0,0,-1,1133,1093,0,0
-84,-69,0,0,0,0,0,0,0,0,0,-1,1140,1093,0,0
-77,-69,0,0,0,0,0,0,0,0,0,-1,1147,1093,0,0
-70,-69,0,0,0,0,0,0,0,0,0,-1,1154,1093,0,0
-63,-69,0,0,0,0,0,0,0,0,0,-1,1161,1093,0,0
-56,-69,0,0,0,0,0,0,0,0,0,-1,1168,1093,0,0
-49,-69,0,0,0,0,0,0,0,0,0,-1,1175,1093,0,0
-42,-69,0,0,0,0,0,0,0,0,0,-1,1182,1093,0,0
-35,-69,0,0,0,0,0,0,0,0,0,-1,1189,1093,0,0
-28,-69,0,0,0,0,0,0,0,0,0,-1,1196,1093,0,0
-21,-69,0,0,0,0,0,0,0,0,0,-1,1203,1093,0,0
-14,-69,0,0,0,0,0,0,0,0,0,-1,1210,1093,0,0
-7,-69,0,0,0,0,0,0,0,0,0,-1,1217,1093,0,0
0,-69,0,0,0,0,0,0,0,0,0,-1,1224,1093,0,0
7,-69,0,0,0,0,0,0,0,0,0,-1,1231,1093,0,0
14,-69,0,0,0,0,0,0,0,0,0,-1,1238,1093,0,0
21,-69,0,0,0,0,0,0,0,0,0,-1,1245,1093,0,0
28,-69,0,0,0,0,0,0,0,0,0,-1,1252,1093,0,0
35,-69,0,0,0,0,0,0,0,0,0,-1,1259,1093,0,0
42,-69,0,0,0,0,0,0,0,0,0,-1,1266,1093,0,0
49,-69,0,0,0,0,0,0,0,0,0,-1,1273,1093,0,0
56,-69,0,0,0,0,0,0,0,0,0,-1,1280,1093,0,0
63,-69,0,0,0,0,0,0,0,0,0,-1,1287,1093,0,0
70,-69,0,0,0,0,0,0,0,0,0,-1,1294,1093,0,0
77,-69,0,0,0,0,0,0,0,0,0,-1,1301,1093,0,0
84,-69,0,0,0,0,0,0,0,0,0,-1,1308,1093,0,0
91,-69,0,0,0,0,0,0,0,0,0,-1,1315,1093,0,0
98,-69,0,0,0,0,0,0,0,0,0,-1,1322,1093,0,0
105,-69,0,0,0,0,0,0,0,0,0,-1,1329,1093,0,0
112,-69,0,0,0,0,0,0,0,0,0,-1,1336,1093,0,0
119,-69,0,0,0,0,0,0,0,0,0,-1,1343,1093,0,0
126,-69,0,0,0,0,0,0,0,0,0,-1,1350,1093,0,0
133,-69,0,0,0,0,0,0,0,0,0,-1,1357,1093,0,0
140,-69,0,0,0,0,0,0,0,0,0,-1,1364,1093,0,0
147,-69,0,0,0,0,0,0,0,0,0,-1,1371,1093,0,0
154,-69,0,0,0,0,0,0,0,0,0,-1,1378,1093,0,0
161,-69,0,0,0,0,0,0,0,0,0,-1,1385,1093,0,0
168,-69,0,0,0,0,0,0,0,0,0,-1,1392,1093,0,0
175,-69,0,0,0,0,0,0,0,0,0,-1,1399,1093,0,0
182,-69,0,0,0,0,0,0,0,0,0,-1,1406,1093,0,0
189,-69,0,0,0,0,0,0,0,0,0,-1,1413,1093,0,0
196,-69,0,0,0,0,0,0,0,0,0,-1,1420,1093,0,0
203,-69,0,0,0,0,0,0,0,0,0,-1,1427,1093,0,0
210,-69,0,0,0,0,0,0,0,0,0,-1,1434,1093,0,0
217,-69,0,0,0,0,0,0,0,0,0,-1,1441,1093,0,0
224,-69,0,0,0,0,0,0,0,0,0,-1,1448,1093,0,0
231,-69,0,0,0,0,0,0,0,0,0,-1,1455,1093,0,0
238,-69,0,0,0,0,0,0,0,0,0,-1,1462,1093,0,0
245,-69,0,0,0,0,0,0,0,0,0,-1,1469,1093,0,0
252,-69,0,0,0,0,0,0,0,0,0,-1,1476,1093,0,0
259,-69,0,0,0,0,0,0,0,0,0,-1,1483,1093,0,0
266,-69,0,0,0,0,0,0,0,0,0,-1,1490,1093,0,0
273,-69,0,0,0,0,0,0,0,0,0,-1,1497,1093,0,0
280,-69,0,0,0,0,0,0,0,0,0,-1,1504,1093,0,0
287,-69,0,0,0,0,0,0,0,0,0,-1,1511,1093,0,0
294,-69,0,0,0,0,0,0,0,0,0,-1,1518,1093,0,0
301,-69,0,0,0,0,0,0,0,0,0,-1,1525,1093,0,0
308,-69,0,0,0,0,0,0,0,0,0,-1,1532,1093,0,0
315,-69,0,0,0,0,0,0,0,0,0,-1,1539,1093,0,0
322,-69,0,0,0,0,0,0,0,0,0,-1,1546,1093,0,0
329,-69,0,0,0,0,0,0,0,0,0,-1,1553,1093,0,0
336,-69,0,0,0,0,0,0,0,0,0,-1,1560,1093,0,0
343,-69,0,0,0,0,0,0,0,0,0,-1,1567,1093,0,0
350,-69,0,0,0,0,0,0,0,0,0,-1,1574,1093,0,0
357,-69,0,0,0,0,0,0,0,0,0,-1,1581,1093,0,0
364,-69,0,0,0,0,0,0,0,0,0,-1,1588,1093,0,0
371,-69,0,0,0,0,0,0,0,0,0,-1,1595,1093,0,0
378,-69,0,0,0,0,0,0,0,0,0,-1,1602,1093,0,0
385,-69,0,0,0,0,0,0,0,0,0,-1,1609,1093,0,0
392,-69,0,0,0,0,0,0,0,0,0,-1,1616,1093,0,0
399,-69,0,0,0,0,0,0,0,0,0,-1,1623,1093,0,0
406,-69,0,0,0,0,0,0,0,0,0,-1,1630,1093,0,0
413,-69,0,0,0,0,0,0,0,0,0,-1,1637,1093,0,0
420,-69,0,0,0,0,0,0,0,0,0,-1,1644,1093,0,0
427,-69,0,0,0,0,0,0,0,0,0,-1,1651,1093,0,0
434,-69,0,0,0,0,0,0,0,0,0,-1,1658,1093,0,0
441,-69,0,0,0,0,0,0,0,0,0,-1,1665,1093,0,0
448,-69,0,0,0,0,0,0,0,0,0,-1,1672,1093,0,0
455,-69,0,0,0,0,0,0,0,0,0,-1,1679,1093,0,0
462,-69,0,0,0,0,0,0,0,0,0,-1,1686,1093,0,0
469,-69,0,0,0,0,0,0,0,0,0,-1,1693,1093,0,0
476,-69,0,0,0,0,0,0,0,0,0,-1,1700,1093,0,0
483,-69,0,0,0,0,0,0,0,0,0,-1,1707,1093,0,0
490,-69,0,0,0,0,0,0,0,0,0,-1,1714,1093,0,0
497,-69,0,0,0,0,0,0,0,0,0,-1,1721,1093,0,0
504,-69,0,0,0,0,0,0,0,0,0,-1,1728,1093,0,0
511,-69,0,0,0,0,0,0,0,0,0,-1,1735,1093,0,0
518,-69,0,0,0,0,0,0,0,0,0,-1,1742,1093,0,0
525,-69,0,0,0,0,0,0,0,0,0,-1,1749,1093,0,0
532,-69,0,0,0,0,0,0,0,0,0,-1,1756,1093,0,0
539,-69,0,0,0,0,0,0,0,0,0,-1,1763,1093,0,0
546,-69,0,0,0,0,0,0,0,0,0,-1,1770,1093,0,0
553,-69,0,0,0,0,0,0,0,0,0,-1,1777,1093,0,0
560,-69,0,0,0,0,0,0,0,0,0,-1,1784,1093,0,0
567,-69,0,0,0,0,0,0,0,0,0,-1,1791,1093,0,0
574,-69,0,0,0,0,0,0,0,0,0,-1,1798,1093,0,0
581,-69,0,0,0,0,0,0,0,0,0,-1,1805,1093,0,0
588,-69,0,0,0,0,0,0,0,0,0,-1,1812,1093,0,0
595,-69,0,0,0,0,0,0,0,0,0,-1,1819,1093,0,0
602,-69,0,0,0,0,0,0,0,0,0,-1,1826,1093,0,0
609,-69,0,0,0,0,0,0,0,0,0,-1,1833,1093,0,0
616,-69,0,0,0,0,0,0,0,0,0,-1,1840,1093,0,0
623,-69,0,0,0,0,0,0,0,0,0,-1,1847,1093,0,0
630,-69,0,0,0,0,0,0,0,0,0,-1,1854,1093,0,0
637,-69,0,0,0,0,0,0,0,0,0,-1,1861,1093,0,0
644,-69,0,0,0,0,0,0,0,0,0,-1,1868,1093,0,0
651,-69,22.0818,2.65942,-0.00310134,0.000102922,-0.000844084,0.000311675,-0.0033101,-1.32835,0.00231762,0.0406165,1875,1093,22.0817,-2.6594
658,-69,22.1219,2.74805,-0.00209211,0.00133616,-0.000449112,0.00139402,-0.00214996,-1.44267,0.00206158,0.0438953,1882,1093,22.1219,-2.74803
665,-69,22.1195,2.78613,-0.00107281,0.0020362,-0.000299879,0.00206486,-0.00110147,-1.47551,0.00185607,0.043806,1889,1093,22.1195,-2.78617
672,-69,21.988,2.84326,-0.000683897,0.00205351,0.000769293,0.00225489,-0.000885277,1.31477,0.00186958,0.0399648,1896,1093,21.988,-2.84321
679,-69,21.9846,2.72266,-0.000793465,0.00171233,0.00219142,0.00298372,-0.00206486,1.04508,0.00293085,0.0390649,1903,1093,21.9846,-2.72264
686,-69,22.0594,2.75342,-0.00119884,0.00115926,0.00350724,0.00368033,-0.00371991,0.947551,0.00427255,0.0399003,1910,1093,22.0594,-2.75346
693,-69,22.0765,2.80737,-0.00163884,0.00055301,0.00461873,0.00420406,-0.00528988,0.901883,0.00549326,0.0367403,1917,1093,22.0765,-2.80742
700,-69,22.079,2.7157,-0.00200237,0.000144242,0.00552149,0.00469578,-0.0065539,0.881394,0.00652447,0.0277637,1924,1093,22.079,-2.71567
707,-69,22.1343,2.74597,-0.00230016,-0.000281863,0.00599134,0.00478473,-0.00736675,0.868832,0.00706825,0.0184301,1931,1093,22.1343,-2.74603
714,-69,22.1744,2.68652,-0.0025953,-0.000600188,0.00624142,0.0047229,-0.00791838,0.864642,0.00737576,0.0209424,1938,1093,22.1745,-2.68647
721,-69,22.2279,4.26489,0,0,0,0,0,0,0,-1,1945,1093,22.2279,-4.26488
728,-69,21.7672,4.29321,-0.00278262,-0.000890716,0.00602417,0.00426132,-0.00793466,0.863275,0.00714702,0.0297002,1952,1093,21.7672,-4.29324
735,-69,21.562,4.32739,-0.00290113,-0.000823734,0.00563914,0.00387157,-0.00759643,0.876475,0.00673646,0.0175155,1959,1093,21.562,-4.32741
742,-69,21.5516,4.27344,-0.00283074,-0.000444546,0.00503474,0.00353653,-0.00681182,0.901739,0.00607356,0.0134999,1966,1093,21.5516,-4.27349
749,-69,21.4918,4.18933,-0.00236509,9.26503e-05,0.00429792,0.00333393,-0.00560637,0.924644,0.00521697,0.0152704,1973,1093,21.4918,-4.18939
756,-69,21.5291,4.14197,-0.00157973,0.000552741,0.00342927,0.00307772,-0.0041047,0.936121,0.00416088,0.0150607,1980,1093,21.529,-4.14199
763,-69,21.526,4.07703,-0.000451477,0.0014645,0.00291083,0.00357093,-0.00255791,0.944371,0.00355456,0.0151458,1987,1093,21.526,-4.07707
770,-69,21.5115,4.02136,0.000959576,0.00244449,0.00216365,0.00398953,-0.000585461,0.950678,0.00287478,0.0148902,1994,1093,21.5115,-4.02133
777,-69,21.5048,3.9303,0.00249727,0.00334444,0.00238577,0.00534393,0.000497774,0.873255,0.00340883,0.0189967,2001,1093,21.5048,-3.93025
784,-69,21.4922,3.83948,0.0042767,0.00428764,0.00342279,0.00770497,0.000859376,0.786197,0.0048755,0.0303969,2008,1093,21.4922,-3.83953
791,-69,21.6425,4.00903,0.00653459,0.00533586,0.00502177,0.0109926,0.00087781,0.726003,0.00705405,0.0448834,2015,1093,21.6424,-4.00902
798,-69,21.8617,4.25317,0.00969679,0.00655882,0.00740835,0.0157005,0.000555137,0.681047,0.0102869,0.0472174,2022,1093,21.8617,-4.2532
805,-69,21.9197,3.61682,0.0141479,0.00809762,0.0109301,0.0224638,-0.000218248,0.650391,0.0150491,0.0467816,2029,1093,21.9196,-3.61684
812,-69,22.0776,4.08374,0.020172,0.0102238,0.0161479,0.0320945,-0.00169876,0.635993,0.0219845,0.0461281,2036,1093,22.0777,-4.08379
-700,-76,0,0,0,0,0,0,0,0,0,-1,524,1100,0,0
-693,-76,-16.9691,-1.81555,0,0,0,0,0,0,0,-1,531,1100,-16.9691,1.8156
-686,-76,-17.3855,-0.388306,0,0,0,0,0,0,0,-1,538,1100,-17.3855,0.388271
-679,-76,-17.4842,0.342773,0.0202527,-0.0274366,0.0328582,0.0370064,-0.0441903,0.47152,0.0469401,0.0481191,545,1100,-17.4842,-0.342771
-672,-76,-17.8803,0.877197,0.0138776,-0.0205163,0.0292432,0.0306056,-0.0372442,0.519599,0.0392356,0.0472993,552,1100,-17.8803,-0.877226
-665,-76,-18.0241,1.75439,0.009078,-0.0148127,0.0249786,0.0248206,-0.0305553,0.562361,0.0320284,0.048612,559,1100,-18.0241,-1.75444
-658,-76,-18.0106,2.39246,0,0,0,0,0,0,0,-1,566,1100,-18.0106,-2.39242
-651,-76,-14.0244,1.18909,0.00309011,-0.00671396,0.0161998,0.0151133,-0.0187371,0.638478,0.0195808,0.0288456,573,1100,-14.0244,-1.18914
-644,-76,-14.0259,1.42676,0.00148377,-0.00388339,0.0118948,0.0109939,-0.0133936,0.674451,0.0141028,0.0106889,580,1100,-14.026,-1.42678
-637,-76,-14.0389,1.51025,-0.00100715,-0.00171312,0.00867776,0.0073248,-0.0100451,0.765071,0.0100694,0.0136479,587,1100,-14.0389,-1.51026
-630,-76,-14.0391,1.61816,-0.00268841,-0.000341423,0.00390699,0.0025645,-0.00559433,0.93129,0.00481756,0.01435,594,1100,-14.0392,-1.61811
-623,-76,-14.0403,1.7262,-0.00250621,-6.59173e-05,0.000436696,9.87656e-06,-0.00258201,1.39895,0.00172464,0.0127411,601,1100,-14.0403,-1.72619
-616,-76,-14.0552,1.80725,-0.002481,-0.000511892,-0.00231846,0.00102241,-0.0040153,-0.986188,0.00307486,0.0117074,608,1100,-14.0552,-1.80724
-609,-76,-14.061,1.88379,-0.00242015,-0.000744965,-0.00422363,0.00272332,-0.00588844,-0.883284,0.00508271,0.0126162,615,1100,-14.061,-1.88381
-602,-76,-14.0507,1.98938,-0.00239036,-0.000839989,-0.00564258,0.0040804,-0.00731075,-0.853661,0.00666425,0.017286,622,1100,-14.0506,-1.98939
-595,-76,-14.0303,2.06873,-0.00246924,-0.00095948,-0.00656258,0.0048915,-0.00832022,-0.84266,0.00771293,0.0217816,629,1100,-14.0303,-2.06877
-588,-76,-14.1771,1.8446,-0.00252115,-0.000993634,-0.006842,0.00512711,-0.00864189,-0.840982,0.00803541,0.0281403,636,1100,-14.1771,-1.84464
-581,-76,-14.4456,1.1051,-0.00242871,-0.000771642,-0.00675849,0.00520891,-0.00840926,-0.84639,0.00793449,0.0319697,643,1100,-14.4456,-1.10509
-574,-76,-14.5497,0.840942,-0.00219678,-0.000574014,-0.00658467,0.00524907,-0.00801987,-0.846701,0.0077163,0.0362955,650,1100,-14.5498,-0.841003
-567,-76,-14.5408,0.876831,-0.00181043,-0.00013682,-0.00588153,0.00496714,-0.00691439,-0.856062,0.00689045,0.0401177,657,1100,-14.5408,-0.876881
-560,-76,-14.5691,0.849731,-0.00133294,0.000411066,-0.00463838,0.0042587,-0.00518058,-0.878313,0.00545843,0.0417335,664,1100,-14.5691,-0.849752
-553,-76,-14.5974,0.97583,-0.000904307,0.00100039,-0.00284384,0.00304711,-0.00295103,-0.946969,0.00346317,0.0435733,671,1100,-14.5974,-0.97585
-546,-76,-14.5398,0.874512,-0.000635171,0.00152744,-0.000451464,0.0016179,-0.000725634,-1.37304,0.00138534,0.0415804,678,1100,-14.5398,-0.874529
-539,-76,-14.5426,0.911133,-0.000754867,0.00182977,0.00223283,0.0031173,-0.0020424,1.04773,0.00300042,0.0403986,685,1100,-14.5426,-0.911117
-532,-76,-14.4142,0.877075,-0.00230335,0.00126716,0.00338682,0.00331044,-0.00434664,1.02795,0.00443429,0.0407336,692,1100,-14.4142,-0.877047
-525,-76,0,0,0,0,0,0,0,0,0,-1,699,1100,0,0
-518,-76,0,0,0,0,0,0,0,0,0,-1,706,1100,0,0
-511,-76,0,0,0,0,0,0,0,0,0,-1,713,1100,0,0
-504,-76,0,0,0,0,0,0,0,0,0,-1,720,1100,0,0
-497,-76,0,0,0,0,0,0,0,0,0,-1,727,1100,0,0
-490,-76,0,0,0,0,0,0,0,0,0,-1,734,1100,0,0
-483,-76,0,0,0,0,0,0,0,0,0,-1,741,1100,0,0
-476,-76,0,0,0,0,0,0,0,0,0,-1,748,1100,0,0
-469,-76,0,0,0,0,0,0,0,0,0,-1,755,1100,0,0
-462,-76,0,0,0,0,0,0,0,0,0,-1,762,1100,0,0
-455,-76,0,0,0,0,0,0,0,0,0,-1,769,1100,0,0
-448,-76,0,0,0,0,0,0,0,0,0,-1,776,1100,0,0
-441,-76,0,0,0,0,0,0,0,0,0,-1,783,1100,0,0
-434,-76,0,0,0,0,0,0,0,0,0,-1,790,1100,0,0
-427,-76,0,0,0,0,0,0,0,0,0,-1,797,1100,0,0
-420,-76,0,0,0,0,0,0,0,0,0,-1,804,1100,0,0
-413,-76,0,0,0,0,0,0,0,0,0,-1,811,1100,0,0
-406,-76,0,0,0,0,0,0,0,0,0,-1,818,1100,0,0
-399,-76,0,0,0,0,0,0,0,0,0,-1,825,1100,0,0
-392,-76,0,0,0,0,0,0,0,0,0,-1,832,1100,0,0
-385,-76,0,0,0,0,0,0,0,0,0,-1,839,1100,0,0
-378,-76,0,0,0,0,0,0,0,0,0,-1,846,1100,0,0
-371,-76,0,0,0,0,0,0,0,0,0,-1,853,1100,0,0
-364,-76,0,0,0,0,0,0,0,0,0,-1,860,1100,0,0
-357,-76,0,0,0,0,0,0,0,0,0,-1,867,1100,0,0
-350,-76,0,0,0,0,0,0,0,0,0,-1,874,1100,0,0
-343,-76,0,0,0,0,0,0,0,0,0,-1,881,1100,0,0
-336,-76,0,0,0,0,0,0,0,0,0,-1,888,1100,0,0
-329,-76,0,0,0,0,0,0,0,0,0,-1,895,1100,0,0
-322,-76,0,0,0,0,0,0,0,0,0,-1,902,1100,0,0
-315,-76,0,0,0,0,0,0,0,0,0,-1,909,1100,0,0
-308,-76,0,0,0,0,0,0,0,0,0,-1,916,1100,0,0
-301,-76,0,0,0,0,0,0,0,0,0,-1,923,1100,0,0
-294,-76,0,0,0,0,0,0,0,0,0,-1,930,1100,0,0
-287,-76,0,0,0,0,0,0,0,0,0,-1,937,1100,0,0
-280,-76,0,0,0,0,0,0,0,0,0,-1,944,1100,0,0
-273,-76,0,0,0,0,0,0,0,0,0,-1,951,1100,0,0
-266,-76,0,0,0,0,0,0,0,0,0,-1,958,1100,0,0
-259,-76,0,0,0,0,0,0,0,0,0,-1,965,1100,0,0
-252,-76,0,0,0,0,0,0,0,0,0,-1,972,1100,0,0
-245,-76,0,0,0,0,0,0,0,0,0,-1,979,1100,0,0
-238,-76,0,0,0,0,0,0,0,0,0,-1,986,1100,0,0
-231,-76,0,0,0,0,0,0,0,0,0,-1,993,1100,0,0
-224,-76,0,0,0,0,0,0,0,0,0,-1,1000,1100,0,0
-217,-76,0,0,0,0,0,0,0,0,0,-1,1007,1100,0,0
-210,-76,0,0,0,0,0,0,0,0,0,-1,1014,1100,0,0
-203,-76,0,0,0,0,0,0,0,0,0,-1,1021,1100,0,0
-196,-76,0,0,0,0,0,0,0,0,0,-1,1028,1100,0,0
-189,-76,0,0,0,0,0,0,0,0,0,-1,1035,1100,0,0
-182,-76,0,0,0,0,0,0,0,0,0,-1,1042,1100,0,0
-175,-76,0,0,0,0,0,0,0,0,0,-1,1049,1100,0,0
-168,-76,0,0,0,0,0,0,0,0,0,-1,1056,1100,0,0
-161,-76,0,0,0,0,0,0,0,0,0,-1,1063,1100,0,0
-154,-76,0,0,0,0,0,0,0,0,0,-1,1070,1100,0,0
-147,-76,0,0,0,0,0,0,0,0,0,-1,1077,1100,0,0
-140,-76,0,0,0,0,0,0,0,0,0,-1,1084,1100,0,0
-133,-76,0,0,0,0,0,0,0,0,0,-1,1091,1100,0,0
-126,-76,0,0,0,0,0,0,0,0,0,-1,1098,1100,0,0
-119,-76,0,0,0,0,0,0,0,0,0,-1,1105,1100,0,0
-112,-76,0,0,0,0,0,0,0,0,0,-1,1112,1100,0,0
-105,-76,0,0,0,0,0,0,0,0,0,-1,1119,1100,0,0
-98,-76,0,0,0,0,0,0,0,0,0,-1,1126,1100,0,0
-91,-76,0,0,0,0,0,0,0,0,0,-1,1133,1100,0,0
-84,-76,0,0,0,0,0,0,0,0,0,-1,1140,1100,0,0
-77,-76,0,0,0,0,0,0,0,0,0,-1,1147,1100,0,0
-70,-76,0,0,0,0,0,0,0,0,0,-1,1154,1100,0,0
-63,-76,0,0,0,0,0,0,0,0,0,-1,1161,1100,0,0
-56,-76,0,0,0,0,0,0,0,0,0,-1,1168,1100,0,0
-49,-76,0,0,0,0,0,0,0,0,0,-1,1175,1100,0,0
-42,-76,0,0,0,0,0,0,0,0,0,-1,1182,1100,0,0
-35,-76,0,0,0,0,0,0,0,0,0,-1,1189,1100,0,0
-28,-76,0,0,0,0,0,0,0,0,0,-1,1196,1100,0,0
-21,-76,0,0,0,0,0,0,0,0,0,-1,1203,1100,0,0
-14,-76,0,0,0,0,0,0,0,0,0,-1,1210,1100,0,0
-7,-76,0,0,0,0,0,0,0,0,0,-1,1217,1100,0,0
0,-76,0,0,0,0,0,0,0,0,0,-1,1224,1100,0,0
7,-76,0,0,0,0,0,0,0,0,0,-1,1231,1100,0,0
14,-76,0,0,0,0,0,0,0,0,0,-1,1238,1100,0,0
21,-76,0,0,0,0,0,0,0,0,0,-1,1245,1100,0,0
28,-76,0,0,0,0,0,0,0,0,0,-1,1252,1100,0,0
35,-76,0,0,0,0,0,0,0,0,0,-1,1259,1100,0,0
42,-76,0,0,0,0,0,0,0,0,0,-1,1266,1100,0,0
49,-76,0,0,0,0,0,0,0,0,0,-1,1273,1100,0,0
56,-76,0,0,0,0,0,0,0,0,0,-1,1280,1100,0,0
63,-76,0,0,0,0,0,0,0,0,0,-1,1287,1100,0,0
70,-76,0,0,0,0,0,0,0,0,0,-1,1294,1100,0,0
77,-76,0,0,0,0,0,0,0,0,0,-1,1301,1100,0,0
84,-76,0,0,0,0,0,0,0,0,0,-1,1308,1100,0,0
91,-76,0,0,0,0,0,0,0,0,0,-1,1315,1100,0,0
98,-76,0,0,0,0,0,0,0,0,0,-1,1322,1100,0,0
105,-76,0,0,0,0,0,0,0,0,0,-1,1329,1100,0,0
112,-76,0,0,0,0,0,0,0,0,0,-1,1336,1100,0,0
119,-76,0,0,0,0,0,0,0,0,0,-1,1343,1100,0,0
126,-76,0,0,0,0,0,0,0,0,0,-1,1350,1100,0,0
133,-76,0,0,0,0,0,0,0,0,0,-1,1357,1100,0,0
140,-76,0,0,0,0,0,0,0,0,0,-1,1364,1100,0,0
147,-76,0,0,0,0,0,0,0,0,0,-1,1371,1100,0,0
154,-76,0,0,0,0,0,0,0,0,0,-1,1378,1100,0,0
161,-76,0,0,0,0,0,0,0,0,0,-1,1385,1100,0,0
168,-76,0,0,0,0,0,0,0,0,0,-1,1392,1100,0,0
175,-76,0,0,0,0,0,0,0,0,0,-1,1399,1100,0,0
182,-76,0,0,0,0,0,0,0,0,0,-1,1406,1100,0,0
189,-76,0,0,0,0,0,0,0,0,0,-1,1413,1100,0,0
196,-76,0,0,0,0,0,0,0,0,0,-1,1420,1100,0,0
203,-76,0,0,0,0,0,0,0,0,0,-1,1427,1100,0,0
210,-76,0,0,0,0,0,0,0,0,0,-1,1434,1100,0,0
217,-76,0,0,0,0,0,0,0,0,0,-1,1441,1100,0,0
224,-76,0,0,0,0,0,0,0,0,0,-1,1448,1100,0,0
231,-76,0,0,0,0,0,0,0,0,0,-1,1455,1100,0,0
238,-76,0,0,0,0,0,0,0,0,0,-1,1462,1100,0,0
245,-76,0,0,0,0,0,0,0,0,0,-1,1469,1100,0,0
252,-76,0,0,0,0,0,0,0,0,0,-1,1476,1100,0,0
259,-76,0,0,0,0,0,0,0,0,0,-1,1483,1100,0,0
266,-76,0,0,0,0,0,0,0,0,0,-1,1490,1100,0,0
273,-76,0,0,0,0,0,0,0,0,0,-1,1497,1100,0,0
280,-76,0,0,0,0,0,0,0,0,0,-1,1504,1100,0,0
287,-76,0,0,0,0,0,0,0,0,0,-1,1511,1100,0,0
294,-76,0,0,0,0,0,0,0,0,0,-1,1518,1100,0,0
301,-76,0,0,0,0,0,0,0,0,0,-1,1525,1100,0,0
308,-76,0,0,0,0,0,0,0,0,0,-1,1532,1100,0,0
315,-76,0,0,0,0,0,0,0,0,0,-1,1539,1100,0,0
322,-76,0,0,0,0,0,0,0,0,0,-1,1546,1100,0,0
329,-76,0,0,0,0,0,0,0,0,0,-1,1553,1100,0,0
336,-76,0,0,0,0,0,0,0,0,0,-1,1560,1100,0,0
343,-76,0,0,0,0,0,0,0,0,0,-1,1567,1100,0,0
350,-76,0,0,0,0,0,0,0,0,0,-1,1574,1100,0,0
357,-76,0,0,0,0,0,0,0,0,0,-1,1581,1100,0,0
364,-76,0,0,0,0,0,0,0,0,0,-1,1588,1100,0,0
371,-76,0,0,0,0,0,0,0,0,0,-1,1595,1100,0,0
378,-76,0,0,0,0,0,0,0,0,0,-1,1602,1100,0,0
385,-76,0,0,0,0,0,0,0,0,0,-1,1609,1100,0,0
392,-76,0,0,0,0,0,0,0,0,0,-1,1616,1100,0,0
399,-76,0,0,0,0,0,0,0,0,0,-1,1623,1100,0,0
406,-76,0,0,0,0,0,0,0,0,0,-1,1630,1100,0,0
413,-76,0,0,0,0,0,0,0,0,0,-1,1637,1100,0,0
420,-76,0,0,0,0,0,0,0,0,0,-1,1644,1100,0,0
427,-76,0,0,0,0,0,0,0,0,0,-1,1651,1100,0,0
434,-76,0,0,0,0,0,0,0,0,0,-1,1658,1100,0,0
441,-76,0,0,0,0,0,0,0,0,0,-1,1665,1100,0,0
448,-76,0,0,0,0,0,0,0,0,0,-1,1672,1100,0,0
455,-76,0,0,0,0,0,0,0,0,0,-1,1679,1100,0,0
462,-76,0,0,0,0,0,0,0,0,0,-1,1686,1100,0,0
469,-76,0,0,0,0,0,0,0,0,0,-1,1693,1100,0,0
476,-76,0,0,0,0,0,0,0,0,0,-1,1700,1100,0,0
483,-76,0,0,0,0,0,0,0,0,0,-1,1707,1100,0,0
490,-76,0,0,0,0,0,0,0,0,0,-1,1714,1100,0,0
497,-76,0,0,0,0,0,0,0,0,0,-1,1721,1100,0,0
504,-76,0,0,0,0,0,0,0,0,0,-1,1728,1100,0,0
511,-76,0,0,0,0,0,0,0,0,0,-1,1735,1100,0,0
518,-76,0,0,0,0,0,0,0,0,0,-1,1742,1100,0,0
525,-76,0,0,0,0,0,0,0,0,0,-1,1749,1100,0,0
532,-76,0,0,0,0,0,0,0,0,0,-1,1756,1100,0,0
539,-76,0,0,0,0,0,0,0,0,0,-1,1763,1100,0,0
546,-76,0,0,0,0,0,0,0,0,0,-1,1770,1100,0,0
553,-76,0,0,0,0,0,0,0,0,0,-1,1777,1100,0,0
560,-76,0,0,0,0,0,0,0,0,0,-1,1784,1100,0,0
567,-76,0,0,0,0,0,0,0,0,0,-1,1791,1100,0,0
574,-76,0,0,0,0,0,0,0,0,0,-1,1798,1100,0,0
581,-76,0,0,0,0,0,0,0,0,0,-1,1805,1100,0,0
588,-76,0,0,0,0,0,0,0,0,0,-1,1812,1100,0,0
595,-76,0,0,0,0,0,0,0,0,0,-1,1819,1100,0,0
602,-76,0,0,0,0,0,0,0,0,0,-1,1826,1100,0,0
609,-76,0,0,0,0,0,0,0,0,0,-1,1833,1100,0,0
616,-76,0,0,0,0,0,0,0,0,0,-1,1840,1100,0,0
623,-76,0,0,0,0,0,0,0,0,0,-1,1847,1100,0,0
630,-76,0,0,0,0,0,0,0,0,0,-1,1854,1100,0,0
637,-76,0,0,0,0,0,0,0,0,0,-1,1861,1100,0,0
644,-76,0,0,0,0,0,0,0,0,0,-1,1868,1100,0,0
651,-76,22.1249,2.65295,-0.00298239,0.000139783,-0.00236716,0.00141426,-0.00425687,-1.0769,0.00340858,0.0408821,1875,1100,22.1249,-2.65299
658,-76,22.1501,2.69006,-0.00196279,0.00119541,-0.00147322,0.00177593,-0.00254331,-1.19543,0.00250679,0.0439026,1882,1100,22.1501,-2.69009
665,-76,22.1904,2.68799,-0.000950777,0.00179924,-0.000910329,0.00207327,-0.00122481,-1.2784,0.00192504,0.0417667,1889,1100,22.1905,-2.68797
672,-76,22.094,2.65979,-0.000770758,0.00167735,0.00055405,0.0017969,-0.000890311,1.35827,0.00158062,0.0379927,1896,1100,22.094,-2.65974
679,-76,22.0852,2.71338,-0.00113666,0.00122403,0.00223999,0.00257564,-0.00248827,1.02788,0.00292379,0.0388146,1903,1100,22.0852,-2.71338
686,-76,22.1664,2.84277,-0.00175716,0.000608362,0.00373469,0.0033431,-0.0044919,0.93875,0.00453972,0.0391643,1910,1100,22.1664,-2.84273
693,-76,22.1256,2.91138,-0.00236879,-2.27781e-05,0.00496835,0.00390916,-0.00630072,0.901323,0.00594834,0.0388918,1917,1100,22.1256,-2.91141
700,-76,22.0261,2.72888,-0.00280584,-0.00042537,0.00597257,0.0044744,-0.00770561,0.883751,0.00711414,0.0315116,1924,1100,22.0261,-2.72888
707,-76,22.1293,2.78174,-0.00318541,-0.000850575,0.0065015,0.00458748,-0.00862347,0.874232,0.00774509,0.0206982,1931,1100,22.1293,-2.7818
714,-76,22.121,3.05505,0,0,0,0,0,0,0,-1,1938,1100,22.1209,-3.05504
721,-76,21.8945,3.7666,0,0,0,0,0,0,0,-1,1945,1100,21.8946,-3.76657
728,-76,21.5978,4.35303,-0.00368096,-0.0013314,0.0064808,0.00408024,-0.00909259,0.87506,0.0077867,0.0241637,1952,1100,21.5978,-4.35297
735,-76,21.3707,4.34009,-0.00369593,-0.00116447,0.00606022,0.00376078,-0.00862119,0.888348,0.00733002,0.019634,1959,1100,21.3707,-4.34012
742,-76,21.4518,4.26672,-0.00351682,-0.000713595,0.0054355,0.0034981,-0.00772851,0.911581,0.00663331,0.0138856,1966,1100,21.4518,-4.26671
749,-76,21.4208,4.18811,-0.00299736,-0.000158827,0.00470943,0.00334055,-0.00649674,0.931753,0.00577618,0.0149671,1973,1100,21.4207,-4.18809
756,-76,21.4464,4.14014,-0.00215174,0.000272737,0.0038166,0.003065,-0.004944,0.93917,0.00466622,0.0152928,1980,1100,21.4464,-4.14015
763,-76,21.4502,4.04431,-0.000996429,0.00117063,0.00330955,0.0035695,-0.0033953,0.943596,0.00402155,0.0153722,1987,1100,21.4502,-4.04428
770,-76,21.4375,3.9823,0.000419593,0.00208179,0.00259313,0.00397375,-0.00147237,0.940477,0.00325299,0.0142887,1994,1100,21.4375,-3.98233
777,-76,21.4521,3.95264,0.00178794,0.00275943,0.00290908,0.00522305,-0.000675671,0.868123,0.00372772,0.0167229,2001,1100,21.4522,-3.95264
784,-76,21.4948,3.88879,0.00332163,0.00340359,0.00401878,0.00738159,-0.000656375,0.790497,0.00515381,0.0298836,2008,1100,21.4947,-3.88882
791,-76,21.5317,3.94775,0.00529328,0.00405904,0.00565349,0.0103632,-0.00101091,0.731035,0.00726926,0.0424728,2015,1100,21.5318,-3.94774
798,-76,21.5773,4.02795,0.00810425,0.00478398,0.00800346,0.0146179,-0.00172971,0.683135,0.0103701,0.0454449,2022,1100,21.5772,-4.02798
805,-76,21.5854,4.10718,0,0,0,0,0,0,0,-1,2029,1100,21.5856,-4.10713
812,-76,21.8489,3.90869,0,0,0,0,0,0,0,-1,2036,1100,21.8489,-3.90863
-700,-83,0,0,0,0,0,0,0,0,0,-1,524,1107,0,0
-693,-83,-17.3237,-1.56409,0.0480128,-0.0441949,0.0219082,0.0529534,-0.0491355,0.221803,0.0589548,0.0471121,531,1107,-17.3237,1.56405
-686,-83,-13.4978,0.25769,0.0349484,-0.0351008,0.0244689,0.0426491,-0.0428015,0.3049,0.0493349,0.0476694,538,1107,-13.4978,-0.257704
-679,-83,-17.7423,0.37561,0,0,0,0,0,0,0,-1,545,1107,-17.7423,-0.375576
-672,-83,-18.2181,0.642944,0,0,0,0,0,0,0,-1,552,1107,-18.2181,-0.642962
-665,-83,-18.4797,1.74414,0,0,0,0,0,0,0,-1,559,1107,-18.4798,-1.7442
-658,-83,-13.6586,0.562988,0.00691002,-0.0105561,0.0165243,0.016867,-0.0205131,0.542305,0.0216156,0.0435788,566,1107,-13.6586,-0.563014
-651,-83,-13.9164,1.02637,0.00387541,-0.00705,0.0132681,0.0127613,-0.0159359,0.590114,0.0166021,0.0299456,573,1107,-13.9164,-1.02632
-644,-83,-13.9124,1.34961,0.00191693,-0.00423783,0.00987503,0.00918298,-0.0115039,0.634351,0.0119686,0.014296,580,1107,-13.9124,-1.34958
-637,-83,-13.928,1.49915,-0.000927004,-0.0020281,0.00751664,0.00605922,-0.00901433,0.748842,0.00875829,0.0113103,587,1107,-13.928,-1.49918
-630,-83,-13.9301,1.62,-0.00289379,-0.000648941,0.0033179,0.00173125,-0.00527398,0.948502,0.00421335,0.0163281,594,1107,-13.93,-1.61995
-623,-83,-13.9419,1.71899,-0.00278829,-0.000217227,0.000202005,-0.000201453,-0.00280407,1.49287,0.00180598,0.0150003,601,1107,-13.9419,-1.71895
-616,-83,-13.9448,1.79382,-0.00273649,-0.000500739,-0.00232191,0.000958381,-0.00419561,-1.00975,0.00316527,0.0109371,608,1107,-13.9448,-1.79379
-609,-83,-13.96,1.89099,-0.00265601,-0.000614137,-0.00417704,0.00266492,-0.00593507,-0.905257,0.00508345,0.0104726,615,1107,-13.96,-1.89093
-602,-83,-13.9647,2.01477,-0.00256455,-0.000661518,-0.00555844,0.00402626,-0.00725233,-0.870169,0.00659989,0.0133205,622,1107,-13.9647,-2.01482
-595,-83,-13.9154,2.13745,-0.00259873,-0.000727725,-0.00647876,0.00488273,-0.00820918,-0.8571,0.00763951,0.017109,629,1107,-13.9154,-2.1374
-588,-83,-14.0587,1.82629,-0.00261843,-0.000760126,-0.00680005,0.00517396,-0.00855252,-0.853297,0.0080046,0.0321429,636,1107,-14.0586,-1.82625
-581,-83,-14.501,0.641602,0,0,0,0,0,0,0,-1,643,1107,-14.501,-0.641574
-574,-83,-14.494,0.685791,-0.0021241,-0.000396846,-0.00675076,0.00554531,-0.00806625,-0.849018,0.00790344,0.0364105,650,1107,-14.494,-0.685843
-567,-83,-14.4838,0.733643,-0.00161435,-1.45916e-05,-0.00619088,0.00542787,-0.00705681,-0.849644,0.00722845,0.0410032,657,1107,-14.4838,-0.73369
-560,-83,-14.5142,0.815308,-0.000963625,0.000450112,-0.00513409,0.00492576,-0.00543928,-0.853809,0.00598671,0.0426197,664,1107,-14.5142,-0.815286
-553,-83,-14.5853,0.889893,-0.000307252,0.0009273,-0.0035841,0.00394689,-0.00332684,-0.870675,0.00420458,0.0444898,671,1107,-14.5853,-0.889917
-546,-83,-14.4915,0.994751,0.000258873,0.00130727,-0.00151358,0.00238486,-0.000818714,-0.952099,0.00192185,0.0419547,678,1107,-14.4915,-0.994696
-539,-83,-14.5734,1.04712,0.000555054,0.00143499,0.000845651,0.00194827,4.17646e-05,1.02526,0.00128515,0.0421583,685,1107,-14.5734,-1.04712
-532,-83,-14.6301,0.932983,-0.000445506,0.000702107,0.00182892,0.00204512,-0.00178852,0.937406,0.002215,0.0446998,692,1107,-14.6302,-0.933031
-525,-83,0,0,0,0,0,0,0,0,0,-1,699,1107,0,0
-518,-83,0,0,0,0,0,0,0,0,0,-1,706,1107,0,0
-511,-83,0,0,0,0,0,0,0,0,0,-1,713,1107,0,0
-504,-83,0,0,0,0,0,0,0,0,0,-1,720,1107,0,0
-497,-83,0,0,0,0,0,0,0,0,0,-1,727,1107,0,0
-490,-83,0,0,0,0,0,0,0,0,0,-1,734,1107,0,0
-483,-83,0,0,0,0,0,0,0,0,0,-1,741,1107,0,0
-476,-83,0,0,0,0,0,0,0,0,0,-1,748,1107,0,0
-469,-83,0,0,0,0,0,0,0,0,0,-1,755,1107,0,0
-462,-83,0,0,0,0,0,0,0,0,0,-1,762,1107,0,0
-455,-83,0,0,0,0,0,0,0,0,0,-1,769,1107,0,0
-448,-83,0,0,0,0,0,0,0,0,0,-1,776,1107,0,0
-441,-83,0,0,0,0,0,0,0,0,0,-1,783,1107,0,0
-434,-83,0,0,0,0,0,0,0,0,0,-1,790,1107,0,0
-427,-83,0,0,0,0,0,0,0,0,0,-1,797,1107,0,0
-420,-83,0,0,0,0,0,0,0,0,0,-1,804,1107,0,0
-413,-83,0,0,0,0,0,0,0,0,0,-1,811,1107,0,0
-406,-83,0,0,0,0,0,0,0,0,0,-1,818,1107,0,0
-399,-83,0,0,0,0,0,0,0,0,0,-1,825,1107,0,0
-392,-83,0,0,0,0,0,0,0,0,0,-1,832,1107,0,0
-385,-83,0,0,0,0,0,0,0,0,0,-1,839,1107,0,0
-378,-83,0,0,0,0,0,0,0,0,0,-1,846,1107,0,0
-371,-83,0,0,0,0,0,0,0,0,0,-1,853,1107,0,0
-364,-83,0,0,0,0,0,0,0,0,0,-1,860,1107,0,0
-357,-83,0,0,0,0,0,0,0,0,0,-1,867,1107,0,0
-350,-83,0,0,0,0,0,0,0,0,0,-1,874,1107,0,0
-343,-83,0,0,0,0,0,0,0,0,0,-1,881,1107,0,0
-336,-83,0,0,0,0,0,0,0,0,0,-1,888,1107,0,0
-329,-83,0,0,0,0,0,0,0,0,0,-1,895,1107,0,0
-322,-83,0,0,0,0,0,0,0,0,0,-1,902,1107,0,0
-315,-83,0,0,0,0,0,0,0,0,0,-1,909,1107,0,0
-308,-83,0,0,0,0,0,0,0,0,0,-1,916,1107,0,0
-301,-83,0,0,0,0,0,0,0,0,0,-1,923,1107,0,0
-294,-83,0,0,0,0,0,0,0,0,0,-1,930,1107,0,0
-287,-83,0,0,0,0,0,0,0,0,0,-1,937,1107,0,0
-280,-83,0,0,0,0,0,0,0,0,0,-1,944,1107,0,0
-273,-83,0,0,0,0,0,0,0,0,0,-1,951,1107,0,0
-266,-83,0,0,0,0,0,0,0,0,0,-1,958,1107,0,0
-259,-83,0,0,0,0,0,0,0,0,0,-1,965,1107,0,0
-252,-83,0,0,0,0,0,0,0,0,0,-1,972,1107,0,0
-245,-83,0,0,0,0,0,0,0,0,0,-1,979,1107,0,0
-238,-83,0,0,0,0,0,0,0,0,0,-1,986,1107,0,0
-231,-83,0,0,0,0,0,0,0,0,0,-1,993,1107,0,0
-224,-83,0,0,0,0,0,0,0,0,0,-1,1000,1107,0,0
-217,-83,0,0,0,0,0,0,0,0,0,-1,1007,1107,0,0
-210,-83,0,0,0,0,0,0,0,0,0,-1,1014,1107,0,0
-203,-83,0,0,0,0,0,0,0,0,0,-1,1021,1107,0,0
-196,-83,0,0,0,0,0,0,0,0,0,-1,1028,1107,0,0
-189,-83,0,0,0,0,0,0,0,0,0,-1,1035,1107,0,0
-182,-83,0,0,0,0,0,0,0,0,0,-1,1042,1107,0,0
-175,-83,0,0,0,0,0,0,0,0,0,-1,1049,1107,0,0
-168,-83,0,0,0,0,0,0,0,0,0,-1,1056,1107,0,0
-161,-83,0,0,0,0,0,0,0,0,0,-1,1063,1107,0,0
-154,-83,0,0,0,0,0,0,0,0,0,-1,1070,1107,0,0
-147,-83,0,0,0,0,0,0,0,0,0,-1,1077,1107,0,0
-140,-83,0,0,0,0,0,0,0,0,0,-1,1084,1107,0,0
-133,-83,0,0,0,0,0,0,0,0,0,-1,1091,1107,0,0
-126,-83,0,0,0,0,0,0,0,0,0,-1,1098,1107,0,0
-119,-83,0,0,0,0,0,0,0,0,0,-1,1105,1107,0,0
-112,-83,0,0,0,0,0,0,0,0,0,-1,1112,1107,0,0
-105,-83,0,0,0,0,0,0,0,0,0,-1,1119,1107,0,0
-98,-83,0,0,0,0,0,0,0,0,0,-1,1126,1107,0,0
-91,-83,0,0,0,0,0,0,0,0,0,-1,1133,1107,0,0
-84,-83,0,0,0,0,0,0,0,0,0,-1,1140,1107,0,0
-77,-83,0,0,0,0,0,0,0,0,0,-1,1147,1107,0,0
-70,-83,0,0,0,0,0,0,0,0,0,-1,1154,1107,0,0
-63,-83,0,0,0,0,0,0,0,0,0,-1,1161,1107,0,0
-56,-83,0,0,0,0,0,0,0,0,0,-1,1168,1107,0,0
-49,-83,0,0,0,0,0,0,0,0,0,-1,1175,1107,0,0
-42,-83,0,0,0,0,0,0,0,0,0,-1,1182,1107,0,0
-35,-83,0,0,0,0,0,0,0,0,0,-1,1189,1107,0,0
-28,-83,0,0,0,0,0,0,0,0,0,-1,1196,1107,0,0
-21,-83,0,0,0,0,0,0,0,0,0,-1,1203,1107,0,0
-14,-83,0,0,0,0,0,0,0,0,0,-1,1210,1107,0,0
-7,-83,0,0,0,0,0,0,0,0,0,-1,1217,1107,0,0
0,-83,0,0,0,0,0,0,0,0,0,-1,1224,1107,0,0
7,-83,0,0,0,0,0,0,0,0,0,-1,1231,1107,0,0
14,-83,0,0,0,0,0,0,0,0,0,-1,1238,1107,0,0
21,-83,0,0,0,0,0,0,0,0,0,-1,1245,1107,0,0
28,-83,0,0,0,0,0,0,0,0,0,-1,1252,1107,0,0
35,-83,0,0,0,0,0,0,0,0,0,-1,1259,1107,0,0
42,-83,0,0,0,0,0,0,0,0,0,-1,1266,1107,0,0
49,-83,0,0,0,0,0,0,0,0,0,-1,1273,1107,0,0
56,-83,0,0,0,0,0,0,0,0,0,-1,1280,1107,0,0
63,-83,0,0,0,0,0,0,0,0,0,-1,1287,1107,0,0
70,-83,0,0,0,0,0,0,0,0,0,-1,1294,1107,0,0
77,-83,0,0,0,0,0,0,0,0,0,-1,1301,1107,0,0
84,-83,0,0,0,0,0,0,0,0,0,-1,1308,1107,0,0
91,-83,0,0,0,0,0,0,0,0,0,-1,1315,1107,0,0
98,-83,0,0,0,0,0,0,0,0,0,-1,1322,1107,0,0
105,-83,0,0,0,0,0,0,0,0,0,-1,1329,1107,0,0
112,-83,0,0,0,0,0,0,0,0,0,-1,1336,1107,0,0
119,-83,0,0,0,0,0,0,0,0,0,-1,1343,1107,0,0
126,-83,0,0,0,0,0,0,0,0,0,-1,1350,1107,0,0
133,-83,0,0,0,0,0,0,0,0,0,-1,1357,1107,0,0
140,-83,0,0,0,0,0,0,0,0,0,-1,1364,1107,0,0
147,-83,0,0,0,0,0,0,0,0,0,-1,1371,1107,0,0
154,-83,0,0,0,0,0,0,0,0,0,-1,1378,1107,0,0
161,-83,0,0,0,0,0,0,0,0,0,-1,1385,1107,0,0
168,-83,0,0,0,0,0,0,0,0,0,-1,1392,1107,0,0
175,-83,0,0,0,0,0,0,0,0,0,-1,1399,1107,0,0
182,-83,0,0,0,0,0,0,0,0,0,-1,1406,1107,0,0
189,-83,0,0,0,0,0,0,0,0,0,-1,1413,1107,0,0
196,-83,0,0,0,0,0,0,0,0,0,-1,1420,1107,0,0
203,-83,0,0,0,0,0,0,0,0,0,-1,1427,1107,0,0
210,-83,0,0,0,0,0,0,0,0,0,-1,1434,1107,0,0
217,-83,0,0,0,0,0,0,0,0,0,-1,1441,1107,0,0
224,-83,0,0,0,0,0,0,0,0,0,-1,1448,1107,0,0
231,-83,0,0,0,0,0,0,0,0,0,-1,1455,1107,0,0
238,-83,0,0,0,0,0,0,0,0,0,-1,1462,1107,0,0
245,-83,0,0,0,0,0,0,0,0,0,-1,1469,1107,0,0
252,-83,0,0,0,0,0,0,0,0,0,-1,1476,1107,0,0
259,-83,0,0,0,0,0,0,0,0,0,-1,1483,1107,0,0
266,-83,0,0,0,0,0,0,0,0,0,-1,1490,1107,0,0
273,-83,0,0,0,0,0,0,0,0,0,-1,1497,1107,0,0
280,-83,0,0,0,0,0,0,0,0,0,-1,1504,1107,0,0
287,-83,0,0,0,0,0,0,0,0,0,-1,1511,1107,0,0
294,-83,0,0,0,0,0,0,0,0,0,-1,1518,1107,0,0
301,-83,0,0,0,0,0,0,0,0,0,-1,1525,1107,0,0
308,-83,0,0,0,0,0,0,0,0,0,-1,1532,1107,0,0
315,-83,0,0,0,0,0,0,0,0,0,-1,1539,1107,0,0
322,-83,0,0,0,0,0,0,0,0,0,-1,1546,1107,0,0
329,-83,0,0,0,0,0,0,0,0,0,-1,1553,1107,0,0
336,-83,0,0,0,0,0,0,0,0,0,-1,1560,1107,0,0
343,-83,0,0,0,0,0,0,0,0,0,-1,1567,1107,0,0
350,-83,0,0,0,0,0,0,0,0,0,-1,1574,1107,0,0
357,-83,0,0,0,0,0,0,0,0,0,-1,1581,1107,0,0
364,-83,0,0,0,0,0,0,0,0,0,-1,1588,1107,0,0
371,-83,0,0,0,0,0,0,0,0,0,-1,1595,1107,0,0
378,-83,0,0,0,0,0,0,0,0,0,-1,1602,1107,0,0
385,-83,0,0,0,0,0,0,0,0,0,-1,1609,1107,0,0
392,-83,0,0,0,0,0,0,0,0,0,-1,1616,1107,0,0
399,-83,0,0,0,0,0,0,0,0,0,-1,1623,1107,0,0
406,-83,0,0,0,0,0,0,0,0,0,-1,1630,1107,0,0
413,-83,0,0,0,0,0,0,0,0,0,-1,1637,1107,0,0
420,-83,0,0,0,0,0,0,0,0,0,-1,1644,1107,0,0
427,-83,0,0,0,0,0,0,0,0,0,-1,1651,1107,0,0
434,-83,0,0,0,0,0,0,0,0,0,-1,1658,1107,0,0
441,-83,0,0,0,0,0,0,0,0,0,-1,1665,1107,0,0
448,-83,0,0,0,0,0,0,0,0,0,-1,1672,1107,0,0
455,-83,0,0,0,0,0,0,0,0,0,-1,1679,1107,0,0
462,-83,0,0,0,0,0,0,0,0,0,-1,1686,1107,0,0
469,-83,0,0,0,0,0,0,0,0,0,-1,1693,1107,0,0
476,-83,0,0,0,0,0,0,0,0,0,-1,1700,1107,0,0
483,-83,0,0,0,0,0,0,0,0,0,-1,1707,1107,0,0
490,-83,0,0,0,0,0,0,0,0,0,-1,1714,1107,0,0
497,-83,0,0,0,0,0,0,0,0,0,-1,1721,1107,0,0
504,-83,0,0,0,0,0,0,0,0,0,-1,1728,1107,0,0
511,-83,0,0,0,0,0,0,0,0,0,-1,1735,1107,0,0
518,-83,0,0,0,0,0,0,0,0,0,-1,1742,1107,0,0
525,-83,0,0,0,0,0,0,0,0,0,-1,1749,1107,0,0
532,-83,0,0,0,0,0,0,0,0,0,-1,1756,1107,0,0
539,-83,0,0,0,0,0,0,0,0,0,-1,1763,1107,0,0
546,-83,0,0,0,0,0,0,0,0,0,-1,1770,1107,0,0
553,-83,0,0,0,0,0,0,0,0,0,-1,1777,1107,0,0
560,-83,0,0,0,0,0,0,0,0,0,-1,1784,1107,0,0
567,-83,0,0,0,0,0,0,0,0,0,-1,1791,1107,0,0
574,-83,0,0,0,0,0,0,0,0,0,-1,1798,1107,0,0
581,-83,0,0,0,0,0,0,0,0,0,-1,1805,1107,0,0
588,-83,0,0,0,0,0,0,0,0,0,-1,1812,1107,0,0
595,-83,0,0,0,0,0,0,0,0,0,-1,1819,1107,0,0
602,-83,0,0,0,0,0,0,0,0,0,-1,1826,1107,0,0
609,-83,0,0,0,0,0,0,0,0,0,-1,1833,1107,0,0
616,-83,0,0,0,0,0,0,0,0,0,-1,1840,1107,0,0
623,-83,0,0,0,0,0,0,0,0,0,-1,1847,1107,0,0
630,-83,0,0,0,0,0,0,0,0,0,-1,1854,1107,0,0
637,-83,0,0,0,0,0,0,0,0,0,-1,1861,1107,0,0
644,-83,22.1417,2.57727,-0.00417156,-0.00173753,-0.00601693,0.00318423,-0.00909332,-0.885185,0.00735702,0.0364511,1868,1107,22.1417,-2.57728
651,-83,22.1853,2.55371,-0.00279235,-9.16183e-05,-0.00367017,0.00246872,-0.00535269,-0.961677,0.00461688,0.0421824,1875,1107,22.1853,-2.55367
658,-83,22.2332,2.6908,-0.0017807,0.000792616,-0.00240004,0.00222913,-0.00321722,-1.03145,0.00316166,0.0458663,1882,1107,22.2331,-2.69082
665,-83,22.1981,2.63354,-0.00083477,0.00129958,-0.00147915,0.00205634,-0.00159153,-1.0979,0.00211179,0.0403255,1889,1107,22.1981,-2.63348
672,-83,22.0492,2.65576,-0.000855957,0.00109719,0.00029702,0.00114136,-0.000900127,1.42317,0.00118139,0.0369964,1896,1107,22.0492,-2.65578
679,-83,22.1152,2.79089,-0.00143049,0.000607277,0.00215843,0.00197522,-0.00279844,1.00592,0.0027697,0.0392859,1903,1107,22.1152,-2.79091
686,-83,22.235,2.89294,-0.00221808,-1.29392e-06,0.00376992,0.0028198,-0.00503917,0.928374,0.00459729,0.0376646,1910,1107,22.235,-2.89291
693,-83,22.2264,2.6709,-0.00296221,-0.000594407,0.00508051,0.00343831,-0.00699493,0.89987,0.0061392,0.0370612,1917,1107,22.2265,-2.67094
700,-83,22.0869,2.74548,-0.00343868,-0.000951865,0.00615143,0.00408057,-0.00847112,0.885121,0.00739303,0.0317343,1924,1107,22.0869,-2.74551
707,-83,22.1432,2.78308,-0.00388234,-0.00132296,0.00674052,0.00425826,-0.00946357,0.879207,0.00811008,0.0218629,1931,1107,22.1432,-2.78305
714,-83,22.1807,3.0603,-0.00432559,-0.00156234,0.0070275,0.00421807,-0.010106,0.882462,0.0084997,0.0361238,1938,1107,22.1806,-3.06036
721,-83,21.3564,4.45398,0,0,0,0,0,0,0,-1,1945,1107,21.3564,-4.45404
728,-83,21.3756,4.35962,-0.00440416,-0.00161616,0.00671005,0.00384317,-0.00986348,0.887815,0.00816402,0.0210112,1952,1107,21.3756,-4.35966
735,-83,21.2915,4.29602,-0.00431056,-0.00135951,0.00628482,0.00362067,-0.00929074,0.900698,0.00769027,0.0213474,1959,1107,21.2916,-4.29601
742,-83,21.3331,4.26343,-0.00403294,-0.000840743,0.00569044,0.0034732,-0.00834688,0.922129,0.00701503,0.0132161,1966,1107,21.3331,-4.26338
749,-83,21.3611,4.17639,-0.0034908,-0.000285929,0.00502984,0.00339057,-0.0071673,0.939608,0.00622423,0.0114132,1973,1107,21.3611,-4.17638
756,-83,21.3856,4.11572,-0.0026157,9.15005e-05,0.0041739,0.0031258,-0.00565,0.942198,0.0051361,0.0138857,1980,1107,21.3857,-4.11574
763,-83,21.3782,4.0188,-0.00147639,0.000938111,0.00370782,0.00363027,-0.00416855,0.942783,0.00450622,0.0119478,1987,1107,21.3782,-4.01881
770,-83,21.3589,3.95178,-0.000101134,0.00174773,0.00307355,0.00403286,-0.00238626,0.93148,0.0037465,0.0134148,1994,1107,21.3588,-3.95183
777,-83,21.3646,3.89868,0.00106646,0.00220091,0.00352,0.00519909,-0.00193172,0.865283,0.0042586,0.0136432,2001,1107,21.3646,-3.89871
784,-83,21.3947,3.82581,0.00232083,0.00254602,0.00472608,0.00716085,-0.00229399,0.797308,0.00569472,0.0227938,2008,1107,21.3946,-3.82583
791,-83,21.3618,3.85913,0.00395559,0.00281066,0.00641641,0.00982503,-0.00305877,0.740907,0.00777288,0.0411055,2015,1107,21.3618,-3.85908
798,-83,21.3497,3.91675,0.00634444,0.00304908,0.00873488,0.0135857,-0.00419217,0.692177,0.010731,0.0464766,2022,1107,21.3498,-3.91673
805,-83,21.5068,3.82214,0.00986726,0.00336589,0.0119038,0.0189563,-0.0057231,0.652108,0.0149158,0.0473391,2029,1107,21.5069,-3.82212
812,-83,21.4917,3.91907,0.0147808,0.00400164,0.016313,0.0265715,-0.00778901,0.62585,0.0208025,0.0465509,2036,1107,21.4918,-3.91906
-700,-90,0,0,0,0,0,0,0,0,0,-1,524,1114,0,0
-693,-90,-13.6119,0.990479,0.0508307,-0.0423477,0.00911567,0.0517141,-0.0432311,0.0966099,0.0548895,0.0453741,531,1114,-13.6119,-0.990436
-686,-90,-13.3572,0.718994,0.0371358,-0.0340531,0.0138774,0.0397454,-0.0366627,0.185874,0.0441262,0.0417079,538,1114,-13.3572,-0.719049
-679,-90,-13.1797,0.613159,0.0264561,-0.0267173,0.0156348,0.0307125,-0.0309737,0.2658,0.0356146,0.0439345,545,1114,-13.1797,-0.613219
-672,-90,-13.2974,0.751099,0.0182025,-0.0203684,0.0155532,0.0236926,-0.0258585,0.339338,0.0286175,0.0452082,552,1114,-13.2974,-0.751151
-665,-90,-13.4673,0.704834,0.0119123,-0.0150015,0.0143154,0.0181027,-0.0211919,0.408151,0.0227101,0.0473512,559,1114,-13.4674,-0.704856
-658,-90,-13.67,0.664063,0.00725607,-0.0105976,0.012408,0.0136147,-0.0169563,0.47357,0.0176853,0.0449418,566,1114,-13.67,-0.66406
-651,-90,-13.7595,0.99231,0.00400924,-0.00713454,0.0102157,0.0100738,-0.0131991,0.535737,0.013477,0.0298533,573,1114,-13.7595,-0.992329
-644,-90,-13.8323,1.31567,0.00195152,-0.00440459,0.00771928,0.00712136,-0.00957443,0.590121,0.00967394,0.0140036,580,1114,-13.8323,-1.31563
-637,-90,-13.8376,1.48083,-0.000953038,-0.00221079,0.00617279,0.00462282,-0.00778665,0.734634,0.00724182,0.0120997,587,1114,-13.8376,-1.48084
-630,-90,-13.835,1.59241,-0.00301,-0.000860711,0.00260832,0.000885667,-0.00475638,0.980805,0.00350366,0.0111972,594,1114,-13.835,-1.59241
-623,-90,-13.8215,1.70496,-0.00293603,-0.000308918,-0.000126966,-0.000302796,-0.00294215,-1.52262,0.0018687,0.0088293,601,1114,-13.8215,-1.70501
-616,-90,-13.8292,1.82666,-0.00287564,-0.000533347,-0.00236466,0.000934294,-0.00434328,-1.01533,0.003252,0.00765222,608,1114,-13.8292,-1.82667
-609,-90,-13.8542,1.92322,-0.00275057,-0.000629761,-0.00413741,0.00258097,-0.0059613,-0.910846,0.00505896,0.010483,615,1114,-13.8542,-1.92326
-602,-90,-13.8682,2.02905,-0.00257998,-0.000709699,-0.00547022,0.00390474,-0.00719442,-0.870056,0.00650124,0.0107209,622,1114,-13.8682,-2.02906
-595,-90,-13.791,2.15125,-0.00256275,-0.00076,-0.006373,0.00477506,-0.0080978,-0.85565,0.00751423,0.0122508,629,1114,-13.791,-2.15125
-588,-90,-13.8856,1.97119,-0.00254526,-0.000790101,-0.00673281,0.00512208,-0.00845744,-0.850205,0.00791857,0.0273066,636,1114,-13.8856,-1.97121
-581,-90,-14.5854,0.814697,0,0,0,0,0,0,0,-1,643,1114,-14.5854,-0.814659
-574,-90,-14.4786,0.797485,-0.00190787,-0.000435993,-0.00686985,0.00573723,-0.00808109,-0.838758,0.00801618,0.033052,650,1114,-14.4787,-0.797507
-567,-90,-14.4666,0.830444,-0.0013162,-5.36796e-05,-0.00644053,0.00578645,-0.00715633,-0.834249,0.00748645,0.034828,657,1114,-14.4666,-0.830469
-560,-90,-14.5098,0.95813,-0.000565795,0.000430153,-0.00555371,0.00550817,-0.00564381,-0.830111,0.00643876,0.0387727,664,1114,-14.5098,-0.958101
-553,-90,-14.4673,0.979736,0.000207353,0.000955813,-0.00422066,0.0048188,-0.00365564,-0.829616,0.00490806,0.041199,671,1114,-14.4673,-0.979794
-546,-90,-14.3903,1.09277,0.000909159,0.00141962,-0.00242371,0.0036015,-0.00127272,-0.837858,0.00291923,0.0427938,678,1114,-14.3903,-1.09283
-539,-90,-14.5858,1.1759,0.00141649,0.00166951,-0.000329165,0.00189564,0.00119036,-0.968867,0.00110633,0.0424274,685,1114,-14.5857,-1.17589
-532,-90,-14.6461,0.983643,0.000740868,0.0011462,0.000572759,0.00155109,0.000335976,0.955444,0.000942251,0.0426896,692,1114,-14.6461,-0.983608
-525,-90,0,0,0,0,0,0,0,0,0,-1,699,1114,0,0
-518,-90,0,0,0,0,0,0,0,0,0,-1,706,1114,0,0
-511,-90,0,0,0,0,0,0,0,0,0,-1,713,1114,0,0
-504,-90,0,0,0,0,0,0,0,0,0,-1,720,1114,0,0
-497,-90,0,0,0,0,0,0,0,0,0,-1,727,1114,0,0
-490,-90,0,0,0,0,0,0,0,0,0,-1,734,1114,0,0
-483,-90,0,0,0,0,0,0,0,0,0,-1,741,1114,0,0
-476,-90,0,0,0,0,0,0,0,0,0,-1,748,1114,0,0
-469,-90,0,0,0,0,0,0,0,0,0,-1,755,1114,0,0
-462,-90,0,0,0,0,0,0,0,0,0,-1,762,1114,0,0
-455,-90,0,0,0,0,0,0,0,0,0,-1,769,1114,0,0
-448,-90,0,0,0,0,0,0,0,0,0,-1,776,1114,0,0
-441,-90,0,0,0,0,0,0,0,0,0,-1,783,1114,0,0
-434,-90,0,0,0,0,0,0,0,0,0,-1,790,1114,0,0
-427,-90,0,0,0,0,0,0,0,0,0,-1,797,1114,0,0
-420,-90,0,0,0,0,0,0,0,0,0,-1,804,1114,0,0
-413,-90,0,0,0,0,0,0,0,0,0,-1,811,1114,0,0
-406,-90,0,0,0,0,0,0,0,0,0,-1,818,1114,0,0
-399,-90,0,0,0,0,0,0,0,0,0,-1,825,1114,0,0
-392,-90,0,0,0,0,0,0,0,0,0,-1,832,1114,0,0
-385,-90,0,0,0,0,0,0,0,0,0,-1,839,1114,0,0
-378,-90,0,0,0,0,0,0,0,0,0,-1,846,1114,0,0
-371,-90,0,0,0,0,0,0,0,0,0,-1,853,1114,0,0
-364,-90,0,0,0,0,0,0,0,0,0,-1,860,1114,0,0
-357,-90,0,0,0,0,0,0,0,0,0,-1,867,1114,0,0
-350,-90,0,0,0,0,0,0,0,0,0,-1,874,1114,0,0
-343,-90,0,0,0,0,0,0,0,0,0,-1,881,1114,0,0
-336,-90,0,0,0,0,0,0,0,0,0,-1,888,1114,0,0
-329,-90,0,0,0,0,0,0,0,0,0,-1,895,1114,0,0
-322,-90,0,0,0,0,0,0,0,0,0,-1,902,1114,0,0
-315,-90,0,0,0,0,0,0,0,0,0,-1,909,1114,0,0
-308,-90,0,0,0,0,0,0,0,0,0,-1,916,1114,0,0
-301,-90,0,0,0,0,0,0,0,0,0,-1,923,1114,0,0
-294,-90,0,0,0,0,0,0,0,0,0,-1,930,1114,0,0
-287,-90,0,0,0,0,0,0,0,0,0,-1,937,1114,0,0
-280,-90,0,0,0,0,0,0,0,0,0,-1,944,1114,0,0
-273,-90,0,0,0,0,0,0,0,0,0,-1,951,1114,0,0
-266,-90,0,0,0,0,0,0,0,0,0,-1,958,1114,0,0
-259,-90,0,0,0,0,0,0,0,0,0,-1,965,1114,0,0
-252,-90,0,0,0,0,0,0,0,0,0,-1,972,1114,0,0
-245,-90,0,0,0,0,0,0,0,0,0,-1,979,1114,0,0
-238,-90,0,0,0,0,0,0,0,0,0,-1,986,1114,0,0
-231,-90,0,0,0,0,0,0,0,0,0,-1,993,1114,0,0
-224,-90,0,0,0,0,0,0,0,0,0,-1,1000,1114,0,0
-217,-90,0,0,0,0,0,0,0,0,0,-1,1007,1114,0,0
-210,-90,0,0,0,0,0,0,0,0,0,-1,1014,1114,0,0
-203,-90,0,0,0,0,0,0,0,0,0,-1,1021,1114,0,0
-196,-90,0,0,0,0,0,0,0,0,0,-1,1028,1114,0,0
-189,-90,0,0,0,0,0,0,0,0,0,-1,1035,1114,0,0
-182,-90,0,0,0,0,0,0,0,0,0,-1,1042,1114,0,0
-175,-90,0,0,0,0,0,0,0,0,0,-1,1049,1114,0,0
-168,-90,0,0,0,0,0,0,0,0,0,-1,1056,1114,0,0
-161,-90,0,0,0,0,0,0,0,0,0,-1,1063,1114,0,0
-154,-90,0,0,0,0,0,0,0,0,0,-1,1070,1114,0,0
-147,-90,0,0,0,0,0,0,0,0,0,-1,1077,1114,0,0
-140,-90,0,0,0,0,0,0,0,0,0,-1,1084,1114,0,0
-133,-90,0,0,0,0,0,0,0,0,0,-1,1091,1114,0,0
-126,-90,0,0,0,0,0,0,0,0,0,-1,1098,1114,0,0
-119,-90,0,0,0,0,0,0,0,0,0,-1,1105,1114,0,0
-112,-90,0,0,0,0,0,0,0,0,0,-1,1112,1114,0,0
-105,-90,0,0,0,0,0,0,0,0,0,-1,1119,1114,0,0
-98,-90,0,0,0,0,0,0,0,0,0,-1,1126,1114,0,0
-91,-90,0,0,0,0,0,0,0,0,0,-1,1133,1114,0,0
-84,-90,0,0,0,0,0,0,0,0,0,-1,1140,1114,0,0
-77,-90,0,0,0,0,0,0,0,0,0,-1,1147,1114,0,0
-70,-90,0,0,0,0,0,0,0,0,0,-1,1154,1114,0,0
-63,-90,0,0,0,0,0,0,0,0,0,-1,1161,1114,0,0
-56,-90,0,0,0,0,0,0,0,0,0,-1,1168,1114,0,0
-49,-90,0,0,0,0,0,0,0,0,0,-1,1175,1114,0,0
-42,-90,0,0,0,0,0,0,0,0,0,-1,1182,1114,0,0
-35,-90,0,0,0,0,0,0,0,0,0,-1,1189,1114,0,0
-28,-90,0,0,0,0,0,0,0,0,0,-1,1196,1114,0,0
-21,-90,0,0,0,0,0,0,0,0,0,-1,1203,1114,0,0
-14,-90,0,0,0,0,0,0,0,0,0,-1,1210,1114,0,0
-7,-90,0,0,0,0,0,0,0,0,0,-1,1217,1114,0,0
0,-90,0,0,0,0,0,0,0,0,0,-1,1224,1114,0,0
7,-90,0,0,0,0,0,0,0,0,0,-1,1231,1114,0,0
14,-90,0,0,0,0,0,0,0,0,0,-1,1238,1114,0,0
21,-90,0,0,0,0,0,0,0,0,0,-1,1245,1114,0,0
28,-90,0,0,0,0,0,0,0,0,0,-1,1252,1114,0,0
35,-90,0,0,0,0,0,0,0,0,0,-1,1259,1114,0,0
42,-90,0,0,0,0,0,0,0,0,0,-1,1266,1114,0,0
49,-90,0,0,0,0,0,0,0,0,0,-1,1273,1114,0,0
56,-90,0,0,0,0,0,0,0,0,0,-1,1280,1114,0,0
63,-90,0,0,0,0,0,0,0,0,0,-1,1287,1114,0,0
70,-90,0,0,0,0,0,0,0,0,0,-1,1294,1114,0,0
77,-90,0,0,0,0,0,0,0,0,0,-1,1301,1114,0,0
84,-90,0,0,0,0,0,0,0,0,0,-1,1308,1114,0,0
91,-90,0,0,0,0,0,0,0,0,0,-1,1315,1114,0,0
98,-90,0,0,0,0,0,0,0,0,0,-1,1322,1114,0,0
105,-90,0,0,0,0,0,0,0,0,0,-1,1329,1114,0,0
112,-90,0,0,0,0,0,0,0,0,0,-1,1336,1114,0,0
119,-90,0,0,0,0,0,0,0,0,0,-1,1343,1114,0,0
126,-90,0,0,0,0,0,0,0,0,0,-1,1350,1114,0,0
133,-90,0,0,0,0,0,0,0,0,0,-1,1357,1114,0,0
140,-90,0,0,0,0,0,0,0,0,0,-1,1364,1114,0,0
147,-90,0,0,0,0,0,0,0,0,0,-1,1371,1114,0,0
154,-90,0,0,0,0,0,0,0,0,0,-1,1378,1114,0,0
161,-90,0,0,0,0,0,0,0,0,0,-1,1385,1114,0,0
168,-90,0,0,0,0,0,0,0,0,0,-1,1392,1114,0,0
175,-90,0,0,0,0,0,0,0,0,0,-1,1399,1114,0,0
182,-90,0,0,0,0,0,0,0,0,0,-1,1406,1114,0,0
189,-90,0,0,0,0,0,0,0,0,0,-1,1413,1114,0,0
196,-90,0,0,0,0,0,0,0,0,0,-1,1420,1114,0,0
203,-90,0,0,0,0,0,0,0,0,0,-1,1427,1114,0,0
210,-90,0,0,0,0,0,0,0,0,0,-1,1434,1114,0,0
217,-90,0,0,0,0,0,0,0,0,0,-1,1441,1114,0,0
224,-90,0,0,0,0,0,0,0,0,0,-1,1448,1114,0,0
231,-90,0,0,0,0,0,0,0,0,0,-1,1455,1114,0,0
238,-90,0,0,0,0,0,0,0,0,0,-1,1462,1114,0,0
245,-90,0,0,0,0,0,0,0,0,0,-1,1469,1114,0,0
252,-90,0,0,0,0,0,0,0,0,0,-1,1476,1114,0,0
259,-90,0,0,0,0,0,0,0,0,0,-1,1483,1114,0,0
266,-90,0,0,0,0,0,0,0,0,0,-1,1490,1114,0,0
273,-90,0,0,0,0,0,0,0,0,0,-1,1497,1114,0,0
280,-90,0,0,0,0,0,0,0,0,0,-1,1504,1114,0,0
287,-90,0,0,0,0,0,0,0,0,0,-1,1511,1114,0,0
294,-90,0,0,0,0,0,0,0,0,0,-1,1518,1114,0,0
301,-90,0,0,0,0,0,0,0,0,0,-1,1525,1114,0,0
308,-90,0,0,0,0,0,0,0,0,0,-1,1532,1114,0,0
315,-90,0,0,0,0,0,0,0,0,0,-1,1539,1114,0,0
322,-90,0,0,0,0,0,0,0,0,0,-1,1546,1114,0,0
329,-90,0,0,0,0,0,0,0,0,0,-1,1553,1114,0,0
336,-90,0,0,0,0,0,0,0,0,0,-1,1560,1114,0,0
343,-90,0,0,0,0,0,0,0,0,0,-1,1567,1114,0,0
350,-90,0,0,0,0,0,0,0,0,0,-1,1574,1114,0,0
357,-90,0,0,0,0,0,0,0,0,0,-1,1581,1114,0,0
364,-90,0,0,0,0,0,0,0,0,0,-1,1588,1114,0,0
371,-90,0,0,0,0,0,0,0,0,0,-1,1595,1114,0,0
378,-90,0,0,0,0,0,0,0,0,0,-1,1602,1114,0,0
385,-90,0,0,0,0,0,0,0,0,0,-1,1609,1114,0,0
392,-90,0,0,0,0,0,0,0,0,0,-1,1616,1114,0,0
399,-90,0,0,0,0,0,0,0,0,0,-1,1623,1114,0,0
406,-90,0,0,0,0,0,0,0,0,0,-1,1630,1114,0,0
413,-90,0,0,0,0,0,0,0,0,0,-1,1637,1114,0,0
420,-90,0,0,0,0,0,0,0,0,0,-1,1644,1114,0,0
427,-90,0,0,0,0,0,0,0,0,0,-1,1651,1114,0,0
434,-90,0,0,0,0,0,0,0,0,0,-1,1658,1114,0,0
441,-90,0,0,0,0,0,0,0,0,0,-1,1665,1114,0,0
448,-90,0,0,0,0,0,0,0,0,0,-1,1672,1114,0,0
455,-90,0,0,0,0,0,0,0,0,0,-1,1679,1114,0,0
462,-90,0,0,0,0,0,0,0,0,0,-1,1686,1114,0,0
469,-90,0,0,0,0,0,0,0,0,0,-1,1693,1114,0,0
476,-90,0,0,0,0,0,0,0,0,0,-1,1700,1114,0,0
483,-90,0,0,0,0,0,0,0,0,0,-1,1707,1114,0,0
490,-90,0,0,0,0,0,0,0,0,0,-1,1714,1114,0,0
497,-90,0,0,0,0,0,0,0,0,0,-1,1721,1114,0,0
504,-90,0,0,0,0,0,0,0,0,0,-1,1728,1114,0,0
511,-90,0,0,0,0,0,0,0,0,0,-1,1735,1114,0,0
518,-90,0,0,0,0,0,0,0,0,0,-1,1742,1114,0,0
525,-90,0,0,0,0,0,0,0,0,0,-1,1749,1114,0,0
532,-90,0,0,0,0,0,0,0,0,0,-1,1756,1114,0,0
539,-90,0,0,0,0,0,0,0,0,0,-1,1763,1114,0,0
546,-90,0,0,0,0,0,0,0,0,0,-1,1770,1114,0,0
553,-90,0,0,0,0,0,0,0,0,0,-1,1777,1114,0,0
560,-90,0,0,0,0,0,0,0,0,0,-1,1784,1114,0,0
567,-90,0,0,0,0,0,0,0,0,0,-1,1791,1114,0,0
574,-90,0,0,0,0,0,0,0,0,0,-1,1798,1114,0,0
581,-90,0,0,0,0,0,0,0,0,0,-1,1805,1114,0,0
588,-90,0,0,0,0,0,0,0,0,0,-1,1812,1114,0,0
595,-90,0,0,0,0,0,0,0,0,0,-1,1819,1114,0,0
602,-90,0,0,0,0,0,0,0,0,0,-1,1826,1114,0,0
609,-90,0,0,0,0,0,0,0,0,0,-1,1833,1114,0,0
616,-90,0,0,0,0,0,0,0,0,0,-1,1840,1114,0,0
623,-90,0,0,0,0,0,0,0,0,0,-1,1847,1114,0,0
630,-90,0,0,0,0,0,0,0,0,0,-1,1854,1114,0,0
637,-90,0,0,0,0,0,0,0,0,0,-1,1861,1114,0,0
644,-90,22.1981,3.0929,-0.00376975,-0.00164992,-0.00707333,0.00444247,-0.00986214,-0.859768,0.00845405,0.0374034,1868,1114,22.1981,-3.09286
651,-90,22.1997,2.66528,-0.00245138,-0.000329125,-0.00438465,0.00312098,-0.00590148,-0.90412,0.00529093,0.0416338,1875,1114,22.1997,-2.66529
658,-90,22.2529,2.72888,-0.00142056,0.000419047,-0.00291134,0.00255243,-0.00355394,-0.938405,0.00354128,0.0451788,1882,1114,22.2529,-2.72884
665,-90,22.1891,2.59143,-0.000675624,0.000818,-0.00166806,0.0018988,-0.00175642,-0.995873,0.00211088,0.0419909,1889,1114,22.1891,-2.59146
672,-90,22.1083,2.65833,-0.00103717,0.000544398,0.000378272,0.000630215,-0.00112298,1.34771,0.00102545,0.0406316,1896,1114,22.1083,-2.65828
679,-90,22.1621,2.87622,-0.00191521,3.04219e-05,0.00237474,0.00162388,-0.00350867,0.979797,0.00302915,0.0397396,1903,1114,22.1621,-2.87624
686,-90,22.2705,2.83667,-0.00293524,-0.000567127,0.00407337,0.00249078,-0.00599315,0.926842,0.00503541,0.035579,1910,1114,22.2705,-2.83662
693,-90,22.2562,2.79236,-0.00385278,-0.00112589,0.00542936,0.0031086,-0.00808728,0.908416,0.00667358,0.03434,1917,1114,22.2562,-2.79242
700,-90,22.2037,2.77124,-0.00439658,-0.00145841,0.00653247,0.00376813,-0.00962312,0.896003,0.00797397,0.0278491,1924,1114,22.2037,-2.77119
707,-90,22.1653,2.74475,-0.00491147,-0.00178771,0.00715185,0.00397082,-0.01067,0.892904,0.00874287,0.0199034,1931,1114,22.1653,-2.7448
714,-90,22.0629,3.26208,-0.00540773,-0.00196544,0.00742971,0.00393988,-0.0113131,0.899219,0.00914281,0.0376509,1938,1114,22.0629,-3.2621
721,-90,21.2974,4.4834,0,0,0,0,0,0,0,-1,1945,1114,21.2974,-4.48334
728,-90,21.3215,4.41919,-0.00538523,-0.00189691,0.00702688,0.00359904,-0.0108812,0.907046,0.00870542,0.0177159,1952,1114,21.3216,-4.41917
735,-90,21.307,4.32434,-0.00513793,-0.00157566,0.00656701,0.00344747,-0.0101611,0.917825,0.00816938,0.0197681,1959,1114,21.307,-4.32439
742,-90,21.2861,4.25159,-0.00466112,-0.000999166,0.00599196,0.00343532,-0.00909561,0.933679,0.00747672,0.0169595,1966,1114,21.2862,-4.25162
749,-90,21.3101,4.14441,-0.00399251,-0.000434201,0.00537827,0.00345155,-0.00787827,0.945135,0.00670564,0.0124419,1973,1114,21.3101,-4.14444
756,-90,21.3317,4.07813,-0.00299757,-3.4001e-05,0.00453363,0.00325385,-0.00628542,0.943347,0.00559944,0.0132835,1980,1114,21.3317,-4.07812
763,-90,21.3118,4.00012,-0.001754,0.000821738,0.00405251,0.0037861,-0.00471836,0.939249,0.00491987,0.0124627,1987,1114,21.3118,-4.00015
770,-90,21.2822,3.9231,-0.000321778,0.00161176,0.00347152,0.00424861,-0.00295863,0.9212,0.00418326,0.0144692,1994,1114,21.2823,-3.92313
777,-90,21.2841,3.87244,0.000744425,0.00197651,0.00399424,0.00540194,-0.002681,0.861912,0.00475401,0.0124545,2001,1114,21.2841,-3.87241
784,-90,21.3008,3.81885,0.00181078,0.00220472,0.00520799,0.00721946,-0.00320396,0.8043,0.00616502,0.0252961,2008,1114,21.3007,-3.8189
791,-90,21.3228,3.80859,0.00318679,0.00231795,0.00681639,0.00958259,-0.00407785,0.753575,0.0080975,0.0433245,2015,1114,21.3227,-3.8086
798,-90,21.3616,3.90283,0.00520402,0.00236282,0.00889389,0.0127901,-0.00522321,0.706203,0.0107015,0.0464115,2022,1114,21.3616,-3.90279
805,-90,21.3823,3.81238,0.00820579,0.00242935,0.0115704,0.017243,-0.00660787,0.663087,0.0142193,0.0461276,2029,1114,21.3823,-3.81235
812,-90,21.2876,3.68164,0.0124206,0.00273696,0.0151033,0.0234392,-0.00828168,0.630284,0.0189982,0.046573,2036,1114,21.2875,-3.68159
-700,-97,0,0,0,0,0,0,0,0,0,-1,524,1121,0,0
-693,-97,-13.4401,1.30237,0.0477888,-0.0382283,-0.00152643,0.0478159,-0.0382554,-0.0177382,0.0497954,0.0461498,531,1121,-13.4401,-1.30241
-686,-97,-12.9528,0.983032,0.035012,-0.030931,0.00481894,0.0353623,-0.0312813,0.0725636,0.0385007,0.0453315,538,1121,-12.9528,-0.983011
-679,-97,-13.4352,1.08679,0.0249261,-0.0243269,0.0081388,0.0262361,-0.025637,0.159595,0.0299496,0.0450032,545,1121,-13.4353,-1.08683
-672,-97,-13.3945,1.00208,0.0170768,-0.0185306,0.0095103,0.0194577,-0.0209115,0.245306,0.0233122,0.0441048,552,1121,-13.3945,-1.00203
-665,-97,-13.5313,0.852051,0.0110754,-0.0135918,0.00957581,0.0143563,-0.0168728,0.330092,0.0180496,0.0454456,559,1121,-13.5313,-0.852033
-658,-97,-13.5956,0.918457,0.00663271,-0.00952825,0.00879778,0.0104977,-0.0133933,0.413936,0.0138272,0.0425582,566,1121,-13.5956,-0.918484
-651,-97,-13.6855,1.11462,0.00354512,-0.00633721,0.00755564,0.00763184,-0.0104239,0.495817,0.010466,0.0311516,573,1121,-13.6855,-1.11456
-644,-97,-13.7233,1.34534,0.00162649,-0.00388429,0.00586233,0.00534868,-0.00760648,0.565711,0.00751743,0.0121562,580,1121,-13.7233,-1.34539
-637,-97,-13.7328,1.4574,-0.00102604,-0.00186533,0.00499575,0.00356766,-0.00645903,0.743496,0.0058686,0.0129328,587,1121,-13.7328,-1.45743
-630,-97,-13.7244,1.57397,-0.00303227,-0.000696615,0.00205916,0.000502824,-0.00423171,1.04335,0.00300282,0.009472,594,1121,-13.7244,-1.57395
-623,-97,-13.7151,1.71667,-0.00301945,-0.000173243,-0.000274591,-0.000146993,-0.0030457,-1.47549,0.00198328,0.00975674,601,1121,-13.7151,-1.71673
-616,-97,-13.7217,1.84082,-0.00298223,-0.000454885,-0.00229475,0.000901123,-0.00433824,-1.03708,0.00323465,0.0109153,608,1121,-13.7217,-1.84086
-609,-97,-13.7362,1.93726,-0.00284488,-0.000580656,-0.00399958,0.00244395,-0.00586949,-0.923319,0.00493372,0.0137723,615,1121,-13.7362,-1.93724
-602,-97,-13.7446,2.01721,-0.00264282,-0.000682196,-0.0052822,0.00370989,-0.00703491,-0.877148,0.00630175,0.0133606,622,1121,-13.7446,-2.01727
-595,-97,-13.6855,2.13159,-0.0026186,-0.00069124,-0.00615109,0.0045712,-0.00788104,-0.8631,0.00727347,0.0161451,629,1121,-13.6855,-2.13156
-588,-97,-13.913,2.07935,0,0,0,0,0,0,0,-1,636,1121,-13.913,-2.07938
-581,-97,-14.3104,1.38074,-0.00229814,-0.000479152,-0.00669445,0.0053673,-0.0081446,-0.852914,0.00785584,0.0416337,643,1121,-14.3104,-1.38071
-574,-97,-14.5385,0.96875,-0.00178174,-0.000353074,-0.00677474,0.00574489,-0.00787971,-0.837924,0.00789829,0.0367699,650,1121,-14.5385,-0.968805
-567,-97,-14.4718,0.986938,-0.00110521,2.22794e-05,-0.00644708,0.00593022,-0.00701314,-0.829008,0.00748157,0.034499,657,1121,-14.4718,-0.986964
-560,-97,-14.515,0.96814,-0.000241064,0.000492275,-0.00569708,0.00583447,-0.00558326,-0.817534,0.00659256,0.0385676,664,1121,-14.515,-0.968171
-553,-97,-14.2781,0.870239,0.000688764,0.000990679,-0.00454009,0.00538232,-0.00370287,-0.802017,0.00527513,0.0450186,671,1121,-14.2781,-0.870189
-546,-97,-14.1423,0.844727,0.00159236,0.0014054,-0.00296454,0.00446489,-0.00146713,-0.769637,0.00356765,0.0465148,678,1121,-14.1424,-0.844676
-539,-97,-14.5138,1.02417,0.00240181,0.00156189,-0.00107787,0.00313865,0.000825059,-0.599635,0.0018788,0.0423904,685,1121,-14.5138,-1.02421
-532,-97,-14.5739,0.934082,0.00221699,0.000960947,-0.000140875,0.0022326,0.00094534,-0.110331,0.00129402,0.0385173,692,1121,-14.5739,-0.934088
-525,-97,0,0,0,0,0,0,0,0,0,-1,699,1121,0,0
-518,-97,0,0,0,0,0,0,0,0,0,-1,706,1121,0,0
-511,-97,0,0,0,0,0,0,0,0,0,-1,713,1121,0,0
-504,-97,0,0,0,0,0,0,0,0,0,-1,720,1121,0,0
-497,-97,0,0,0,0,0,0,0,0,0,-1,727,1121,0,0
-490,-97,0,0,0,0,0,0,0,0,0,-1,734,1121,0,0
-483,-97,0,0,0,0,0,0,0,0,0,-1,741,1121,0,0
-476,-97,0,0,0,0,0,0,0,0,0,-1,748,1121,0,0
-469,-97,0,0,0,0,0,0,0,0,0,-1,755,1121,0,0
-462,-97,0,0,0,0,0,0,0,0,0,-1,762,1121,0,0
-455,-97,0,0,0,0,0,0,0,0,0,-1,769,1121,0,0
-448,-97,0,0,0,0,0,0,0,0,0,-1,776,1121,0,0
-441,-97,0,0,0,0,0,0,0,0,0,-1,783,1121,0,0
-434,-97,0,0,0,0,0,0,0,0,0,-1,790,1121,0,0
-427,-97,0,0,0,0,0,0,0,0,0,-1,797,1121,0,0
-420,-97,0,0,0,0,0,0,0,0,0,-1,804,1121,0,0
-413,-97,0,0,0,0,0,0,0,0,0,-1,811,1121,0,0
-406,-97,0,0,0,0,0,0,0,0,0,-1,818,1121,0,0
-399,-97,0,0,0,0,0,0,0,0,0,-1,825,1121,0,0
-392,-97,0,0,0,0,0,0,0,0,0,-1,832,1121,0,0
-385,-97,0,0,0,0,0,0,0,0,0,-1,839,1121,0,0
-378,-97,0,0,0,0,0,0,0,0,0,-1,846,1121,0,0
-371,-97,0,0,0,0,0,0,0,0,0,-1,853,1121,0,0
-364,-97,0,0,0,0,0,0,0,0,0,-1,860,1121,0,0
-357,-97,0,0,0,0,0,0,0,0,0,-1,867,1121,0,0
-350,-97,0,0,0,0,0,0,0,0,0,-1,874,1121,0,0
-343,-97,0,0,0,0,0,0,0,0,0,-1,881,1121,0,0
-336,-97,0,0,0,0,0,0,0,0,0,-1,888,1121,0,0
-329,-97,0,0,0,0,0,0,0,0,0,-1,895,1121,0,0
-322,-97,0,0,0,0,0,0,0,0,0,-1,902,1121,0,0
-315,-97,0,0,0,0,0,0,0,0,0,-1,909,1121,0,0
-308,-97,0,0,0,0,0,0,0,0,0,-1,916,1121,0,0
-301,-97,0,0,0,0,0,0,0,0,0,-1,923,1121,0,0
-294,-97,0,0,0,0,0,0,0,0,0,-1,930,1121,0,0
-287,-97,0,0,0,0,0,0,0,0,0,-1,937,1121,0,0
-280,-97,0,0,0,0,0,0,0,0,0,-1,944,1121,0,0
-273,-97,0,0,0,0,0,0,0,0,0,-1,951,1121,0,0
-266,-97,0,0,0,0,0,0,0,0,0,-1,958,1121,0,0
-259,-97,0,0,0,0,0,0,0,0,0,-1,965,1121,0,0
-252,-97,0,0,0,0,0,0,0,0,0,-1,972,1121,0,0
-245,-97,0,0,0,0,0,0,0,0,0,-1,979,1121,0,0
-238,-97,0,0,0,0,0,0,0,0,0,-1,986,1121,0,0
-231,-97,0,0,0,0,0,0,0,0,0,-1,993,1121,0,0
-224,-97,0,0,0,0,0,0,0,0,0,-1,1000,1121,0,0
-217,-97,0,0,0,0,0,0,0,0,0,-1,1007,1121,0,0
-210,-97,0,0,0,0,0,0,0,0,0,-1,1014,1121,0,0
-203,-97,0,0,0,0,0,0,0,0,0,-1,1021,1121,0,0
-196,-97,0,0,0,0,0,0,0,0,0,-1,1028,1121,0,0
-189,-97,0,0,0,0,0,0,0,0,0,-1,1035,1121,0,0
-182,-97,0,0,0,0,0,0,0,0,0,-1,1042,1121,0,0
-175,-97,0,0,0,0,0,0,0,0,0,-1,1049,1121,0,0
-168,-97,0,0,0,0,0,0,0,0,0,-1,1056,1121,0,0
-161,-97,0,0,0,0,0,0,0,0,0,-1,1063,1121,0,0
-154,-97,0,0,0,0,0,0,0,0,0,-1,1070,1121,0,0
-147,-97,0,0,0,0,0,0,0,0,0,-1,1077,1121,0,0
-140,-97,0,0,0,0,0,0,0,0,0,-1,1084,1121,0,0
-133,-97,0,0,0,0,0,0,0,0,0,-1,1091,1121,0,0
-126,-97,0,0,0,0,0,0,0,0,0,-1,1098,1121,0,0
-119,-97,0,0,0,0,0,0,0,0,0,-1,1105,1121,0,0
-112,-97,0,0,0,0,0,0,0,0,0,-1,1112,1121,0,0
-105,-97,0,0,0,0,0,0,0,0,0,-1,1119,1121,0,0
-98,-97,0,0,0,0,0,0,0,0,0,-1,1126,1121,0,0
-91,-97,0,0,0,0,0,0,0,0,0,-1,1133,1121,0,0
-84,-97,0,0,0,0,0,0,0,0,0,-1,1140,1121,0,0
-77,-97,0,0,0,0,0,0,0,0,0,-1,1147,1121,0,0
-70,-97,0,0,0,0,0,0,0,0,0,-1,1154,1121,0,0
-63,-97,0,0,0,0,0,0,0,0,0,-1,1161,1121,0,0
-56,-97,0,0,0,0,0,0,0,0,0,-1,1168,1121,0,0
-49,-97,0,0,0,0,0,0,0,0,0,-1,1175,1121,0,0
-42,-97,0,0,0,0,0,0,0,0,0,-1,1182,1121,0,0
-35,-97,0,0,0,0,0,0,0,0,0,-1,1189,1121,0,0
-28,-97,0,0,0,0,0,0,0,0,0,-1,1196,1121,0,0
-21,-97,0,0,0,0,0,0,0,0,0,-1,1203,1121,0,0
-14,-97,0,0,0,0,0,0,0,0,0,-1,1210,1121,0,0
-7,-97,0,0,0,0,0,0,0,0,0,-1,1217,1121,0,0
0,-97,0,0,0,0,0,0,0,0,0,-1,1224,1121,0,0
7,-97,0,0,0,0,0,0,0,0,0,-1,1231,1121,0,0
14,-97,0,0,0,0,0,0,0,0,0,-1,1238,1121,0,0
21,-97,0,0,0,0,0,0,0,0,0,-1,1245,1121,0,0
28,-97,0,0,0,0,0,0,0,0,0,-1,1252,1121,0,0
35,-97,0,0,0,0,0,0,0,0,0,-1,1259,1121,0,0
42,-97,0,0,0,0,0,0,0,0,0,-1,1266,1121,0,0
49,-97,0,0,0,0,0,0,0,0,0,-1,1273,1121,0,0
56,-97,0,0,0,0,0,0,0,0,0,-1,1280,1121,0,0
63,-97,0,0,0,0,0,0,0,0,0,-1,1287,1121,0,0
70,-97,0,0,0,0,0,0,0,0,0,-1,1294,1121,0,0
77,-97,0,0,0,0,0,0,0,0,0,-1,1301,1121,0,0
84,-97,0,0,0,0,0,0,0,0,0,-1,1308,1121,0,0
91,-97,0,0,0,0,0,0,0,0,0,-1,1315,1121,0,0
98,-97,0,0,0,0,0,0,0,0,0,-1,1322,1121,0,0
105,-97,0,0,0,0,0,0,0,0,0,-1,1329,1121,0,0
112,-97,0,0,0,0,0,0,0,0,0,-1,1336,1121,0,0
119,-97,0,0,0,0,0,0,0,0,0,-1,1343,1121,0,0
126,-97,0,0,0,0,0,0,0,0,0,-1,1350,1121,0,0
133,-97,0,0,0,0,0,0,0,0,0,-1,1357,1121,0,0
140,-97,0,0,0,0,0,0,0,0,0,-1,1364,1121,0,0
147,-97,0,0,0,0,0,0,0,0,0,-1,1371,1121,0,0
154,-97,0,0,0,0,0,0,0,0,0,-1,1378,1121,0,0
161,-97,0,0,0,0,0,0,0,0,0,-1,1385,1121,0,0
168,-97,0,0,0,0,0,0,0,0,0,-1,1392,1121,0,0
175,-97,0,0,0,0,0,0,0,0,0,-1,1399,1121,0,0
182,-97,0,0,0,0,0,0,0,0,0,-1,1406,1121,0,0
189,-97,0,0,0,0,0,0,0,0,0,-1,1413,1121,0,0
196,-97,0,0,0,0,0,0,0,0,0,-1,1420,1121,0,0
203,-97,0,0,0,0,0,0,0,0,0,-1,1427,1121,0,0
210,-97,0,0,0,0,0,0,0,0,0,-1,1434,1121,0,0
217,-97,0,0,0,0,0,0,0,0,0,-1,1441,1121,0,0
224,-97,0,0,0,0,0,0,0,0,0,-1,1448,1121,0,0
231,-97,0,0,0,0,0,0,0,0,0,-1,1455,1121,0,0
238,-97,0,0,0,0,0,0,0,0,0,-1,1462,1121,0,0
245,-97,0,0,0,0,0,0,0,0,0,-1,1469,1121,0,0
252,-97,0,0,0,0,0,0,0,0,0,-1,1476,1121,0,0
259,-97,0,0,0,0,0,0,0,0,0,-1,1483,1121,0,0
266,-97,0,0,0,0,0,0,0,0,0,-1,1490,1121,0,0
273,-97,0,0,0,0,0,0,0,0,0,-1,1497,1121,0,0
280,-97,0,0,0,0,0,0,0,0,0,-1,1504,1121,0,0
287,-97,0,0,0,0,0,0,0,0,0,-1,1511,1121,0,0
294,-97,0,0,0,0,0,0,0,0,0,-1,1518,1121,0,0
301,-97,0,0,0,0,0,0,0,0,0,-1,1525,1121,0,0
308,-97,0,0,0,0,0,0,0,0,0,-1,1532,1121,0,0
315,-97,0,0,0,0,0,0,0,0,0,-1,1539,1121,0,0
322,-97,0,0,0,0,0,0,0,0,0,-1,1546,1121,0,0
329,-97,0,0,0,0,0,0,0,0,0,-1,1553,1121,0,0
336,-97,0,0,0,0,0,0,0,0,0,-1,1560,1121,0,0
343,-97,0,0,0,0,0,0,0,0,0,-1,1567,1121,0,0
350,-97,0,0,0,0,0,0,0,0,0,-1,1574,1121,0,0
357,-97,0,0,0,0,0,0,0,0,0,-1,1581,1121,0,0
364,-97,0,0,0,0,0,0,0,0,0,-1,1588,1121,0,0
371,-97,0,0,0,0,0,0,0,0,0,-1,1595,1121,0,0
378,-97,0,0,0,0,0,0,0,0,0,-1,1602,1121,0,0
385,-97,0,0,0,0,0,0,0,0,0,-1,1609,1121,0,0
392,-97,0,0,0,0,0,0,0,0,0,-1,1616,1121,0,0
399,-97,0,0,0,0,0,0,0,0,0,-1,1623,1121,0,0
406,-97,0,0,0,0,0,0,0,0,0,-1,1630,1121,0,0
413,-97,0,0,0,0,0,0,0,0,0,-1,1637,1121,0,0
420,-97,0,0,0,0,0,0,0,0,0,-1,1644,1121,0,0
427,-97,0,0,0,0,0,0,0,0,0,-1,1651,1121,0,0
434,-97,0,0,0,0,0,0,0,0,0,-1,1658,1121,0,0
441,-97,0,0,0,0,0,0,0,0,0,-1,1665,1121,0,0
448,-97,0,0,0,0,0,0,0,0,0,-1,1672,1121,0,0
455,-97,0,0,0,0,0,0,0,0,0,-1,1679,1121,0,0
462,-97,0,0,0,0,0,0,0,0,0,-1,1686,1121,0,0
469,-97,0,0,0,0,0,0,0,0,0,-1,1693,1121,0,0
476,-97,0,0,0,0,0,0,0,0,0,-1,1700,1121,0,0
483,-97,0,0,0,0,0,0,0,0,0,-1,1707,1121,0,0
490,-97,0,0,0,0,0,0,0,0,0,-1,1714,1121,0,0
497,-97,0,0,0,0,0,0,0,0,0,-1,1721,1121,0,0
504,-97,0,0,0,0,0,0,0,0,0,-1,1728,1121,0,0
511,-97,0,0,0,0,0,0,0,0,0,-1,1735,1121,0,0
518,-97,0,0,0,0,0,0,0,0,0,-1,1742,1121,0,0
525,-97,0,0,0,0,0,0,0,0,0,-1,1749,1121,0,0
532,-97,0,0,0,0,0,0,0,0,0,-1,1756,1121,0,0
539,-97,0,0,0,0,0,0,0,0,0,-1,1763,1121,0,0
546,-97,0,0,0,0,0,0,0,0,0,-1,1770,1121,0,0
553,-97,0,0,0,0,0,0,0,0,0,-1,1777,1121,0,0
560,-97,0,0,0,0,0,0,0,0,0,-1,1784,1121,0,0
567,-97,0,0,0,0,0,0,0,0,0,-1,1791,1121,0,0
574,-97,0,0,0,0,0,0,0,0,0,-1,1798,1121,0,0
581,-97,0,0,0,0,0,0,0,0,0,-1,1805,1121,0,0
588,-97,0,0,0,0,0,0,0,0,0,-1,1812,1121,0,0
595,-97,0,0,0,0,0,0,0,0,0,-1,1819,1121,0,0
602,-97,0,0,0,0,0,0,0,0,0,-1,1826,1121,0,0
609,-97,0,0,0,0,0,0,0,0,0,-1,1833,1121,0,0
616,-97,0,0,0,0,0,0,0,0,0,-1,1840,1121,0,0
623,-97,0,0,0,0,0,0,0,0,0,-1,1847,1121,0,0
630,-97,0,0,0,0,0,0,0,0,0,-1,1854,1121,0,0
637,-97,0,0,0,0,0,0,0,0,0,-1,1861,1121,0,0
644,-97,22.2898,3.06335,-0.00370025,-0.00225475,-0.00778665,0.00484262,-0.0107976,-0.831675,0.0092455,0.0368594,1868,1121,22.2898,-3.0634
651,-97,22.2666,2.87268,-0.00237955,-0.0010778,-0.00487488,0.00318946,-0.00664681,-0.851764,0.00579473,0.0378507,1875,1121,22.2666,-2.87273
658,-97,22.2606,2.68054,-0.00126789,-0.000340934,-0.00324592,0.00247443,-0.00408325,-0.856313,0.00382387,0.0409484,1882,1121,22.2606,-2.68056
665,-97,22.1763,2.52319,-0.000709046,2.95473e-05,-0.00169734,0.0013973,-0.0020768,-0.892516,0.00201852,0.0426532,1889,1121,22.1763,-2.52319
672,-97,22.1434,3.00574,0,0,0,0,0,0,0,-1,1896,1121,22.1434,-3.00575
679,-97,22.1805,2.95386,-0.00247105,-0.000686594,0.00263287,0.00120112,-0.00435877,0.948766,0.00337816,0.0422171,1903,1121,22.1805,-2.95386
686,-97,22.1667,2.89014,-0.00367227,-0.00121512,0.00437523,0.00210076,-0.00698815,0.922274,0.00549456,0.0363132,1910,1121,22.1668,-2.89011
693,-97,22.1534,2.82007,-0.00473216,-0.00168639,0.00574855,0.00273758,-0.00915612,0.914882,0.00719242,0.0341073,1917,1121,22.1534,-2.82006
700,-97,22.1653,2.76282,-0.00532238,-0.00197154,0.00686459,0.00341913,-0.010713,0.905092,0.00851376,0.0255784,1924,1121,22.1653,-2.76287
707,-97,22.225,2.64941,0,0,0,0,0,0,0,-1,1931,1121,22.225,-2.64941
714,-97,21.9358,3.54089,-0.00643571,-0.00236232,0.00774099,0.00360543,-0.0124035,0.914035,0.00969684,0.0374408,1938,1121,21.9358,-3.54091
721,-97,21.4375,4.43115,-0.00657011,-0.00229471,0.00770653,0.00356511,-0.0124299,0.920691,0.00969598,0.0277767,1945,1121,21.4375,-4.4312
728,-97,21.2692,4.44641,-0.0063258,-0.0021486,0.00725831,0.00331564,-0.01179,0.92549,0.00916733,0.0169706,1952,1121,21.2692,-4.44644
735,-97,21.2323,4.34961,-0.00592784,-0.00175504,0.00675498,0.00322841,-0.0109113,0.935185,0.00855583,0.0179299,1959,1121,21.2323,-4.34959
742,-97,21.2014,4.27026,-0.00531323,-0.00111806,0.00618491,0.00331527,-0.00974656,0.948884,0.00784004,0.0146854,1966,1121,21.2015,-4.27023
749,-97,21.2041,4.17651,-0.00458242,-0.00055257,0.00561338,0.00339656,-0.00853155,0.957711,0.00709622,0.0159057,1973,1121,21.2042,-4.17648
756,-97,21.2261,4.06885,-0.00350511,-0.000127369,0.00478974,0.00326253,-0.00689502,0.954894,0.00598816,0.013657,1980,1121,21.2261,-4.06886
763,-97,21.2244,3.99243,-0.00221802,0.000731927,0.00429979,0.00380269,-0.00528878,0.950626,0.00527229,0.0117175,1987,1121,21.2244,-3.99243
770,-97,21.2119,3.91077,-0.000842607,0.00147719,0.0038116,0.00430147,-0.00366688,0.9331,0.00460539,0.00945673,1994,1121,21.2119,-3.91076
777,-97,21.213,3.83093,1.69961e-05,0.0017455,0.00443028,0.00539504,-0.00363255,0.881727,0.00524509,0.0123905,2001,1121,21.213,-3.83098
784,-97,21.2269,3.81616,0.000813189,0.00183969,0.00565887,0.00700854,-0.00435566,0.830624,0.00662045,0.0332228,2008,1121,21.2269,-3.81617
791,-97,21.2654,3.8429,0.00188725,0.00176804,0.0071876,0.00901549,-0.0053602,0.781252,0.00838877,0.0470183,2015,1121,21.2654,-3.84288
798,-97,21.2686,3.88269,0.00355645,0.00155485,0.00901944,0.0116304,-0.00651915,0.730144,0.0106163,0.0469642,2022,1121,21.2686,-3.88273
805,-97,21.2095,3.83728,0,0,0,0,0,0,0,-1,2029,1121,21.2095,-3.83724
812,-97,20.6409,3.32751,0,0,0,0,0,0,0,-1,2036,1121,20.6409,-3.32757
-700,-104,0,0,0,0,0,0,0,0,0,-1,524,1128,0,0
-693,-104,-12.9971,1.24329,0.0428685,-0.0318248,-0.00803687,0.0437235,-0.0326797,-0.105982,0.0442648,0.0498965,531,1128,-12.9971,-1.24329
-686,-104,-13.6223,1.24731,0.0318356,-0.0258839,-0.000935351,0.0318508,-0.0258991,-0.0161994,0.0334009,0.0484587,538,1128,-13.6222,-1.24736
-679,-104,-13.7284,1.34827,0.0228581,-0.0203475,0.0032342,0.0230989,-0.0205882,0.0743043,0.0252366,0.0433602,545,1128,-13.7284,-1.34829
-672,-104,-13.4835,1.29761,0.0157346,-0.0154075,0.0054528,0.0166617,-0.0163347,0.168421,0.0190508,0.0426498,552,1128,-13.4835,-1.29758
-665,-104,-13.5971,1.16919,0.0102187,-0.0111658,0.00631644,0.0119451,-0.0128921,0.266795,0.0143433,0.0432577,559,1128,-13.5971,-1.16925
-658,-104,-13.5525,0.998535,0.00609657,-0.00767647,0.00625311,0.00851196,-0.0100919,0.368614,0.0107538,0.04334,566,1128,-13.5525,-0.998543
-651,-104,-13.5784,1.14575,0.00320777,-0.00495564,0.00562859,0.00607886,-0.00782672,0.471687,0.0080495,0.0364211,573,1128,-13.5784,-1.14573
-644,-104,-13.594,1.30981,0.00142032,-0.00292199,0.00448739,0.0042342,-0.00573588,0.560082,0.00577795,0.0152003,580,1128,-13.594,-1.30978
-637,-104,-13.5997,1.43591,-0.000942612,-0.00122865,0.00408214,0.00299901,-0.00517028,0.767888,0.00477175,0.0111443,587,1128,-13.5997,-1.43591
-630,-104,-13.6009,1.54883,-0.002841,-0.000341723,0.00164948,0.000478034,-0.00366075,1.10957,0.00261446,0.0124424,594,1128,-13.6009,-1.54885
-623,-104,-13.5972,1.70203,-0.00293223,7.55461e-05,-0.000350497,0.00011585,-0.00297253,-1.45631,0.00202141,0.0137862,601,1128,-13.5971,-1.70201
-616,-104,-13.6498,1.84436,-0.00296631,-0.00029519,-0.0022051,0.000947265,-0.00420877,-1.05769,0.00316915,0.0142547,608,1128,-13.6498,-1.8444
-609,-104,-13.6761,1.88831,-0.00284205,-0.000466456,-0.00382818,0.00235397,-0.00566248,-0.935827,0.00475788,0.0177662,615,1128,-13.6761,-1.88828
-602,-104,-13.6136,2.02344,-0.0026315,-0.00059345,-0.00502411,0.00351394,-0.00673888,-0.885454,0.00601628,0.0159753,622,1128,-13.6136,-2.02343
-595,-104,-13.5765,2.17432,-0.002604,-0.000572741,-0.00582038,0.00431996,-0.0074967,-0.871776,0.00690404,0.014203,629,1128,-13.5765,-2.17427
-588,-104,-13.652,2.19019,0,0,0,0,0,0,0,-1,636,1128,-13.652,-2.19013
-581,-104,-14.0969,1.41003,-0.0022073,-0.000372589,-0.00639028,0.00516584,-0.00774573,-0.856689,0.00750394,0.043794,643,1128,-14.0969,-1.41007
-574,-104,-14.4974,0.81604,-0.00164729,-0.00028234,-0.0064965,0.00556743,-0.00749706,-0.837733,0.00757017,0.0420519,650,1128,-14.4974,-0.816056
-567,-104,-14.4266,0.865356,-0.000943349,4.37544e-05,-0.00625087,0.00582052,-0.00672012,-0.824795,0.00724655,0.035075,657,1128,-14.4266,-0.865358
-560,-104,-14.4442,0.720337,-3.86273e-05,0.000434642,-0.00562138,0.00582436,-0.00542835,-0.806433,0.0064981,0.0409483,664,1128,-14.4441,-0.720326
-553,-104,-14.1996,0.593506,0.000964753,0.000812167,-0.00462606,0.00551515,-0.00373822,-0.777153,0.00537517,0.0499052,671,1128,-14.1996,-0.593557
-546,-104,-13.931,0.618652,0.00198115,0.00104446,-0.00325971,0.00480599,-0.00178038,-0.714048,0.00393411,0.0498963,678,1128,-13.9309,-0.618666
-539,-104,-13.7466,0.936401,0,0,0,0,0,0,0,-1,685,1128,-13.7466,-0.93641
-532,-104,-14.4579,0.952148,0.00324037,4.80292e-06,-0.000627334,0.00335774,-0.000112571,-0.184961,0.00227695,0.0390457,692,1128,-14.4579,-0.952154
-525,-104,-14.5942,0.665405,0.000456483,-0.00202004,-0.00227927,0.00181213,-0.00337569,-0.536567,0.0030402,0.0391185,699,1128,-14.5942,-0.665393
-518,-104,0,0,0,0,0,0,0,0,0,-1,706,1128,0,0
-511,-104,0,0,0,0,0,0,0,0,0,-1,713,1128,0,0
-504,-104,0,0,0,0,0,0,0,0,0,-1,720,1128,0,0
-497,-104,0,0,0,0,0,0,0,0,0,-1,727,1128,0,0
-490,-104,0,0,0,0,0,0,0,0,0,-1,734,1128,0,0
-483,-104,0,0,0,0,0,0,0,0,0,-1,741,1128,0,0
-476,-104,0,0,0,0,0,0,0,0,0,-1,748,1128,0,0
-469,-104,0,0,0,0,0,0,0,0,0,-1,755,1128,0,0
-462,-104,0,0,0,0,0,0,0,0,0,-1,762,1128,0,0
-455,-104,0,0,0,0,0,0,0,0,0,-1,769,1128,0,0
-448,-104,0,0,0,0,0,0,0,0,0,-1,776,1128,0,0
-441,-104,0,0,0,0,0,0,0,0,0,-1,783,1128,0,0
-434,-104,0,0,0,0,0,0,0,0,0,-1,790,1128,0,0
-427,-104,0,0,0,0,0,0,0,0,0,-1,797,1128,0,0
-420,-104,0,0,0,0,0,0,0,0,0,-1,804,1128,0,0
-413,-104,0,0,0,0,0,0,0,0,0,-1,811,1128,0,0
-406,-104,0,0,0,0,0,0,0,0,0,-1,818,1128,0,0
-399,-104,0,0,0,0,0,0,0,0,0,-1,825,1128,0,0
-392,-104,0,0,0,0,0,0,0,0,0,-1,832,1128,0,0
-385,-104,0,0,0,0,0,0,0,0,0,-1,839,1128,0,0
-378,-104,0,0,0,0,0,0,0,0,0,-1,846,1128,0,0
-371,-104,0,0,0,0,0,0,0,0,0,-1,853,1128,0,0
-364,-104,0,0,0,0,0,0,0,0,0,-1,860,1128,0,0
-357,-104,0,0,0,0,0,0,0,0,0,-1,867,1128,0,0
-350,-104,0,0,0,0,0,0,0,0,0,-1,874,1128,0,0
-343,-104,0,0,0,0,0,0,0,0,0,-1,881,1128,0,0
-336,-104,0,0,0,0,0,0,0,0,0,-1,888,1128,0,0
-329,-104,0,0,0,0,0,0,0,0,0,-1,895,1128,0,0
-322,-104,0,0,0,0,0,0,0,0,0,-1,902,1128,0,0
-315,-104,0,0,0,0,0,0,0,0,0,-1,909,1128,0,0
-308,-104,0,0,0,0,0,0,0,0,0,-1,916,1128,0,0
-301,-104,0,0,0,0,0,0,0,0,0,-1,923,1128,0,0
-294,-104,0,0,0,0,0,0,0,0,0,-1,930,1128,0,0
-287,-104,0,0,0,0,0,0,0,0,0,-1,937,1128,0,0
-280,-104,0,0,0,0,0,0,0,0,0,-1,944,1128,0,0
-273,-104,0,0,0,0,0,0,0,0,0,-1,951,1128,0,0
-266,-104,0,0,0,0,0,0,0,0,0,-1,958,1128,0,0
-259,-104,0,0,0,0,0,0,0,0,0,-1,965,1128,0,0
-252,-104,0,0,0,0,0,0,0,0,0,-1,972,1128,0,0
-245,-104,0,0,0,0,0,0,0,0,0,-1,979,1128,0,0
-238,-104,0,0,0,0,0,0,0,0,0,-1,986,1128,0,0
-231,-104,0,0,0,0,0,0,0,0,0,-1,993,1128,0,0
-224,-104,0,0,0,0,0,0,0,0,0,-1,1000,1128,0,0
-217,-104,0,0,0,0,0,0,0,0,0,-1,1007,1128,0,0
-210,-104,0,0,0,0,0,0,0,0,0,-1,1014,1128,0,0
-203,-104,0,0,0,0,0,0,0,0,0,-1,1021,1128,0,0
-196,-104,0,0,0,0,0,0,0,0,0,-1,1028,1128,0,0
-189,-104,0,0,0,0,0,0,0,0,0,-1,1035,1128,0,0
-182,-104,0,0,0,0,0,0,0,0,0,-1,1042,1128,0,0
-175,-104,0,0,0,0,0,0,0,0,0,-1,1049,1128,0,0
-168,-104,0,0,0,0,0,0,0,0,0,-1,1056,1128,0,0
-161,-104,0,0,0,0,0,0,0,0,0,-1,1063,1128,0,0
-154,-104,0,0,0,0,0,0,0,0,0,-1,1070,1128,0,0
-147,-104,0,0,0,0,0,0,0,0,0,-1,1077,1128,0,0
-140,-104,0,0,0,0,0,0,0,0,0,-1,1084,1128,0,0
-133,-104,0,0,0,0,0,0,0,0,0,-1,1091,1128,0,0
-126,-104,0,0,0,0,0,0,0,0,0,-1,1098,1128,0,0
-119,-104,0,0,0,0,0,0,0,0,0,-1,1105,1128,0,0
-112,-104,0,0,0,0,0,0,0,0,0,-1,1112,1128,0,0
-105,-104,0,0,0,0,0,0,0,0,0,-1,1119,1128,0,0
-98,-104,0,0,0,0,0,0,0,0,0,-1,1126,1128,0,0
-91,-104,0,0,0,0,0,0,0,0,0,-1,1133,1128,0,0
-84,-104,0,0,0,0,0,0,0,0,0,-1,1140,1128,0,0
-77,-104,0,0,0,0,0,0,0,0,0,-1,1147,1128,0,0
-70,-104,0,0,0,0,0,0,0,0,0,-1,1154,1128,0,0
-63,-104,0,0,0,0,0,0,0,0,0,-1,1161,1128,0,0
-56,-104,0,0,0,0,0,0,0,0,0,-1,1168,1128,0,0
-49,-104,0,0,0,0,0,0,0,0,0,-1,1175,1128,0,0
-42,-104,0,0,0,0,0,0,0,0,0,-1,1182,1128,0,0
-35,-104,0,0,0,0,0,0,0,0,0,-1,1189,1128,0,0
-28,-104,0,0,0,0,0,0,0,0,0,-1,1196,1128,0,0
-21,-104,0,0,0,0,0,0,0,0,0,-1,1203,1128,0,0
-14,-104,0,0,0,0,0,0,0,0,0,-1,1210,1128,0,0
-7,-104,0,0,0,0,0,0,0,0,0,-1,1217,1128,0,0
0,-104,0,0,0,0,0,0,0,0,0,-1,1224,1128,0,0
7,-104,0,0,0,0,0,0,0,0,0,-1,1231,1128,0,0
14,-104,0,0,0,0,0,0,0,0,0,-1,1238,1128,0,0
21,-104,0,0,0,0,0,0,0,0,0,-1,1245,1128,0,0
28,-104,0,0,0,0,0,0,0,0,0,-1,1252,1128,0,0
35,-104,0,0,0,0,0,0,0,0,0,-1,1259,1128,0,0
42,-104,0,0,0,0,0,0,0,0,0,-1,1266,1128,0,0
49,-104,0,0,0,0,0,0,0,0,0,-1,1273,1128,0,0
56,-104,0,0,0,0,0,0,0,0,0,-1,1280,1128,0,0
63,-104,0,0,0,0,0,0,0,0,0,-1,1287,1128,0,0
70,-104,0,0,0,0,0,0,0,0,0,-1,1294,1128,0,0
77,-104,0,0,0,0,0,0,0,0,0,-1,1301,1128,0,0
84,-104,0,0,0,0,0,0,0,0,0,-1,1308,1128,0,0
91,-104,0,0,0,0,0,0,0,0,0,-1,1315,1128,0,0
98,-104,0,0,0,0,0,0,0,0,0,-1,1322,1128,0,0
105,-104,0,0,0,0,0,0,0,0,0,-1,1329,1128,0,0
112,-104,0,0,0,0,0,0,0,0,0,-1,1336,1128,0,0
119,-104,0,0,0,0,0,0,0,0,0,-1,1343,1128,0,0
126,-104,0,0,0,0,0,0,0,0,0,-1,1350,1128,0,0
133,-104,0,0,0,0,0,0,0,0,0,-1,1357,1128,0,0
140,-104,0,0,0,0,0,0,0,0,0,-1,1364,1128,0,0
147,-104,0,0,0,0,0,0,0,0,0,-1,1371,1128,0,0
154,-104,0,0,0,0,0,0,0,0,0,-1,1378,1128,0,0
161,-104,0,0,0,0,0,0,0,0,0,-1,1385,1128,0,0
168,-104,0,0,0,0,0,0,0,0,0,-1,1392,1128,0,0
175,-104,0,0,0,0,0,0,0,0,0,-1,1399,1128,0,0
182,-104,0,0,0,0,0,0,0,0,0,-1,1406,1128,0,0
189,-104,0,0,0,0,0,0,0,0,0,-1,1413,1128,0,0
196,-104,0,0,0,0,0,0,0,0,0,-1,1420,1128,0,0
203,-104,0,0,0,0,0,0,0,0,0,-1,1427,1128,0,0
210,-104,0,0,0,0,0,0,0,0,0,-1,1434,1128,0,0
217,-104,0,0,0,0,0,0,0,0,0,-1,1441,1128,0,0
224,-104,0,0,0,0,0,0,0,0,0,-1,1448,1128,0,0
231,-104,0,0,0,0,0,0,0,0,0,-1,1455,1128,0,0
238,-104,0,0,0,0,0,0,0,0,0,-1,1462,1128,0,0
245,-104,0,0,0,0,0,0,0,0,0,-1,1469,1128,0,0
252,-104,0,0,0,0,0,0,0,0,0,-1,1476,1128,0,0
259,-104,0,0,0,0,0,0,0,0,0,-1,1483,1128,0,0
266,-104,0,0,0,0,0,0,0,0,0,-1,1490,1128,0,0
273,-104,0,0,0,0,0,0,0,0,0,-1,1497,1128,0,0
280,-104,0,0,0,0,0,0,0,0,0,-1,1504,1128,0,0
287,-104,0,0,0,0,0,0,0,0,0,-1,1511,1128,0,0
294,-104,0,0,0,0,0,0,0,0,0,-1,1518,1128,0,0
301,-104,0,0,0,0,0,0,0,0,0,-1,1525,1128,0,0
308,-104,0,0,0,0,0,0,0,0,0,-1,1532,1128,0,0
315,-104,0,0,0,0,0,0,0,0,0,-1,1539,1128,0,0
322,-104,0,0,0,0,0,0,0,0,0,-1,1546,1128,0,0
329,-104,0,0,0,0,0,0,0,0,0,-1,1553,1128,0,0
336,-104,0,0,0,0,0,0,0,0,0,-1,1560,1128,0,0
343,-104,0,0,0,0,0,0,0,0,0,-1,1567,1128,0,0
350,-104,0,0,0,0,0,0,0,0,0,-1,1574,1128,0,0
357,-104,0,0,0,0,0,0,0,0,0,-1,1581,1128,0,0
364,-104,0,0,0,0,0,0,0,0,0,-1,1588,1128,0,0
371,-104,0,0,0,0,0,0,0,0,0,-1,1595,1128,0,0
378,-104,0,0,0,0,0,0,0,0,0,-1,1602,1128,0,0
385,-104,0,0,0,0,0,0,0,0,0,-1,1609,1128,0,0
392,-104,0,0,0,0,0,0,0,0,0,-1,1616,1128,0,0
399,-104,0,0,0,0,0,0,0,0,0,-1,1623,1128,0,0
406,-104,0,0,0,0,0,0,0,0,0,-1,1630,1128,0,0
413,-104,0,0,0,0,0,0,0,0,0,-1,1637,1128,0,0
420,-104,0,0,0,0,0,0,0,0,0,-1,1644,1128,0,0
427,-104,0,0,0,0,0,0,0,0,0,-1,1651,1128,0,0
434,-104,0,0,0,0,0,0,0,0,0,-1,1658,1128,0,0
441,-104,0,0,0,0,0,0,0,0,0,-1,1665,1128,0,0
448,-104,0,0,0,0,0,0,0,0,0,-1,1672,1128,0,0
455,-104,0,0,0,0,0,0,0,0,0,-1,1679,1128,0,0
462,-104,0,0,0,0,0,0,0,0,0,-1,1686,1128,0,0
469,-104,0,0,0,0,0,0,0,0,0,-1,1693,1128,0,0
476,-104,0,0,0,0,0,0,0,0,0,-1,1700,1128,0,0
483,-104,0,0,0,0,0,0,0,0,0,-1,1707,1128,0,0
490,-104,0,0,0,0,0,0,0,0,0,-1,1714,1128,0,0
497,-104,0,0,0,0,0,0,0,0,0,-1,1721,1128,0,0
504,-104,0,0,0,0,0,0,0,0,0,-1,1728,1128,0,0
511,-104,0,0,0,0,0,0,0,0,0,-1,1735,1128,0,0
518,-104,0,0,0,0,0,0,0,0,0,-1,1742,1128,0,0
525,-104,0,0,0,0,0,0,0,0,0,-1,1749,1128,0,0
532,-104,0,0,0,0,0,0,0,0,0,-1,1756,1128,0,0
539,-104,0,0,0,0,0,0,0,0,0,-1,1763,1128,0,0
546,-104,0,0,0,0,0,0,0,0,0,-1,1770,1128,0,0
553,-104,0,0,0,0,0,0,0,0,0,-1,1777,1128,0,0
560,-104,0,0,0,0,0,0,0,0,0,-1,1784,1128,0,0
567,-104,0,0,0,0,0,0,0,0,0,-1,1791,1128,0,0
574,-104,0,0,0,0,0,0,0,0,0,-1,1798,1128,0,0
581,-104,0,0,0,0,0,0,0,0,0,-1,1805,1128,0,0
588,-104,0,0,0,0,0,0,0,0,0,-1,1812,1128,0,0
595,-104,0,0,0,0,0,0,0,0,0,-1,1819,1128,0,0
602,-104,0,0,0,0,0,0,0,0,0,-1,1826,1128,0,0
609,-104,0,0,0,0,0,0,0,0,0,-1,1833,1128,0,0
616,-104,0,0,0,0,0,0,0,0,0,-1,1840,1128,0,0
623,-104,0,0,0,0,0,0,0,0,0,-1,1847,1128,0,0
630,-104,0,0,0,0,0,0,0,0,0,-1,1854,1128,0,0
637,-104,0,0,0,0,0,0,0,0,0,-1,1861,1128,0,0
644,-104,22.2136,2.90625,-0.00374949,-0.00273543,-0.00780467,0.00457866,-0.0110636,-0.817835,0.00928615,0.0361197,1868,1128,22.2137,-2.90631
651,-104,22.1327,2.7467,-0.00240844,-0.0017654,-0.00491678,0.00284036,-0.00701419,-0.818048,0.00585717,0.0371954,1875,1128,22.1326,-2.74669
658,-104,22.173,2.49646,-0.00118383,-0.00110461,-0.00327648,0.00213249,-0.00442094,-0.791442,0.00385975,0.042909,1882,1128,22.173,-2.49649
665,-104,22.3416,2.43274,-0.000840431,-0.000814992,-0.00155854,0.000730881,-0.0023863,-0.789479,0.0018824,0.0432089,1889,1128,22.3416,-2.43268
672,-104,22.3809,2.80725,-0.00176188,-0.00105178,0.00075524,-0.000572295,-0.00224137,1.00513,0.00134471,0.0417469,1896,1128,22.3808,-2.80731
679,-104,22.1772,2.97644,-0.00307785,-0.00144739,0.00279466,0.000648517,-0.00517375,0.927316,0.00368441,0.0421178,1903,1128,22.1772,-2.97647
686,-104,22.0939,2.85571,-0.00443948,-0.00188277,0.00449918,0.00151614,-0.00783839,0.923815,0.00579744,0.0401453,1910,1128,22.0939,-2.85575
693,-104,22.1046,2.80029,-0.00561371,-0.00223347,0.00583007,0.00214652,-0.0099937,0.926479,0.00748133,0.0356755,1917,1128,22.1046,-2.80029
700,-104,22.1599,2.76294,-0.00623367,-0.00244369,0.00691931,0.00283543,-0.0115128,0.919056,0.0087744,0.0252526,1924,1128,22.16,-2.76293
707,-104,22.1787,2.83911,0,0,0,0,0,0,0,-1,1931,1128,22.1787,-2.83911
714,-104,21.7428,3.70251,-0.00741339,-0.00266939,0.00773769,0.00305171,-0.0131345,0.934126,0.00993111,0.0358196,1938,1128,21.7428,-3.70246
721,-104,21.2075,4.53931,-0.00753866,-0.00250316,0.00767439,0.00305593,-0.0130978,0.943902,0.00990882,0.0236917,1945,1128,21.2075,-4.53934
728,-104,21.1844,4.41296,-0.00720379,-0.00227861,0.00721211,0.00287976,-0.0123621,0.949918,0.00935036,0.0210647,1952,1128,21.1844,-4.41299
735,-104,21.166,4.32996,-0.00665485,-0.00180536,0.00669908,0.00289429,-0.0113545,0.95904,0.00869649,0.0201822,1959,1128,21.166,-4.33
742,-104,21.0973,4.27661,-0.00589733,-0.00106567,0.00616312,0.00313819,-0.0101012,0.972186,0.00798837,0.0136329,1966,1128,21.0973,-4.2766
749,-104,21.0986,4.19141,-0.00493008,-0.000634824,0.0056483,0.00326036,-0.00882526,0.96707,0.00722,0.0159632,1973,1128,21.0987,-4.19135
756,-104,21.1298,4.07312,-0.00347645,-0.000249223,0.00492651,0.0033212,-0.00704687,0.943661,0.00611348,0.0151492,1980,1128,21.1297,-4.07317
763,-104,21.1202,3.99524,-0.00179106,0.000467494,0.0044739,0.00395244,-0.00527601,0.909023,0.00534629,0.0130176,1987,1128,21.1202,-3.99521
770,-104,21.1008,3.91431,-1.09375e-05,0.000960787,0.00415002,0.00465329,-0.00370344,0.84367,0.00483514,0.0105941,1994,1128,21.1008,-3.91425
777,-104,21.103,3.81702,0.00132867,0.000853414,0.00493106,0.00602783,-0.00384574,0.761322,0.00574672,0.018299,2001,1128,21.103,-3.81704
784,-104,21.1896,3.85437,0.00279979,0.00044543,0.00626443,0.00799668,-0.00475147,0.692524,0.00743922,0.0391301,2008,1128,21.1896,-3.85439
791,-104,21.2866,3.89722,0,0,0,0,0,0,0,-1,2015,1128,21.2866,-3.89722
798,-104,20.8805,2.59595,0.00787673,-0.00144155,0.00970885,0.0139865,-0.00755132,0.561685,0.0126185,0.0471097,2022,1128,20.8804,-2.59589
805,-104,20.51,3.30713,0,0,0,0,0,0,0,-1,2029,1128,20.51,-3.30714
812,-104,20.2485,3.06604,0,0,0,0,0,0,0,-1,2036,1128,20.2486,-3.06609
-700,-111,0,0,0,0,0,0,0,0,0,-1,524,1135,0,0
-693,-111,-13.2802,1.74951,0.0362383,-0.0246298,-0.00917331,0.0375908,-0.0259822,-0.146378,0.0369073,0.0486092,531,1135,-13.2802,-1.74952
-686,-111,-13.757,1.78003,0.0269092,-0.019618,-0.00247951,0.027041,-0.0197498,-0.0530911,0.0271238,0.0483921,538,1135,-13.757,-1.78001
-679,-111,-13.6274,1.62964,0.0192101,-0.015051,0.00158544,0.0192834,-0.0151242,0.0461438,0.0199135,0.0414198,545,1135,-13.6274,-1.62961
-672,-111,-13.3301,1.43787,0.0130587,-0.0110454,0.00385968,0.0136617,-0.0116484,0.154965,0.0146282,0.042854,552,1135,-13.3301,-1.43782
-665,-111,-13.6523,1.2522,0.00828372,-0.00766657,0.0048719,0.00965407,-0.00903692,0.274193,0.0107932,0.0467928,559,1135,-13.6523,-1.25221
-658,-111,-14.0029,1.23352,0.00470886,-0.00495009,0.00499898,0.00683018,-0.00707142,0.401321,0.00802649,0.0464362,566,1135,-14.0029,-1.23347
-651,-111,-13.4143,1.17725,0.00220264,-0.00289377,0.00457992,0.00489552,-0.00558665,0.531532,0.00605627,0.0378848,573,1135,-13.4143,-1.1773
-644,-111,-13.427,1.32019,0.000684514,-0.00142708,0.00369669,0.00347323,-0.00421579,0.646298,0.00444615,0.0219348,580,1135,-13.427,-1.32024
-637,-111,-13.4695,1.44189,-0.00122765,-0.000207209,0.00347137,0.00279123,-0.00422609,0.858366,0.00407959,0.00875191,587,1135,-13.4695,-1.44194
-630,-111,-13.477,1.54187,-0.00291417,0.000316298,0.00136608,0.000816521,-0.00341439,1.21979,0.00259167,0.0146464,594,1135,-13.477,-1.54186
-623,-111,-13.4766,1.68909,-0.00302059,0.000494743,-0.000422742,0.000544865,-0.00307071,-1.45278,0.00225086,0.013575,601,1135,-13.4766,-1.68912
-616,-111,-13.5106,1.79517,-0.00306419,-4.10411e-05,-0.00216862,0.00109082,-0.00419606,-1.08976,0.00322311,0.0132292,608,1135,-13.5105,-1.7952
-609,-111,-13.5809,1.90894,-0.00289048,-0.000295018,-0.00366808,0.00229813,-0.00548363,-0.955422,0.00461657,0.0170637,615,1135,-13.5809,-1.90892
-602,-111,-13.5258,2.04053,-0.00264502,-0.000514626,-0.00474379,0.00328209,-0.00644174,-0.895839,0.005712,0.0166482,622,1135,-13.5257,-2.04057
-595,-111,-13.4988,2.19971,-0.00258976,-0.000515739,-0.00543444,0.00397975,-0.00708525,-0.879676,0.0064717,0.0126975,629,1135,-13.4988,-2.19974
-588,-111,-13.3765,2.30396,0,0,0,0,0,0,0,-1,636,1135,-13.3766,-2.30391
-581,-111,-13.8512,1.37073,0,0,0,0,0,0,0,-1,643,1135,-13.8512,-1.37072
-574,-111,-14.3856,0.530273,0,0,0,0,0,0,0,-1,650,1135,-14.3856,-0.530224
-567,-111,-14.4542,1.08862,-0.000765431,1.00064e-05,-0.00586229,0.00549739,-0.00625281,-0.818419,0.00678865,0.0368576,657,1135,-14.4542,-1.08863
-560,-111,-14.3285,0.856567,0.000153147,0.000337763,-0.00531319,0.00555944,-0.00506853,-0.794084,0.00613825,0.0385557,664,1135,-14.3285,-0.856625
-553,-111,-14.0771,0.560181,0.00119484,0.000631678,-0.00443878,0.00536096,-0.00353445,-0.753723,0.00517173,0.0449536,671,1135,-14.0772,-0.560219
-546,-111,-13.7919,0.368286,0,0,0,0,0,0,0,-1,678,1135,-13.7919,-0.3683
-539,-111,-14.392,0.992188,0.00340645,0.000448241,-0.00175057,0.00421912,-0.000364429,-0.434627,0.00294176,0.0410334,685,1135,-14.3919,-0.992192
-532,-111,-14.4717,1.05469,0.00398626,-0.000656455,-0.000781178,0.00411418,-0.000784371,-0.162307,0.00303818,0.0405304,692,1135,-14.4718,-1.05469
-525,-111,-14.5947,0.788208,0.00159927,-0.00311347,-0.00242795,0.0026263,-0.0041405,-0.400179,0.00393928,0.0403148,699,1135,-14.5946,-0.788251
-518,-111,0,0,0,0,0,0,0,0,0,-1,706,1135,0,0
-511,-111,0,0,0,0,0,0,0,0,0,-1,713,1135,0,0
-504,-111,0,0,0,0,0,0,0,0,0,-1,720,1135,0,0
-497,-111,0,0,0,0,0,0,0,0,0,-1,727,1135,0,0
-490,-111,0,0,0,0,0,0,0,0,0,-1,734,1135,0,0
-483,-111,0,0,0,0,0,0,0,0,0,-1,741,1135,0,0
-476,-111,0,0,0,0,0,0,0,0,0,-1,748,1135,0,0
-469,-111,0,0,0,0,0,0,0,0,0,-1,755,1135,0,0
-462,-111,0,0,0,0,0,0,0,0,0,-1,762,1135,0,0
-455,-111,0,0,0,0,0,0,0,0,0,-1,769,1135,0,0
-448,-111,0,0,0,0,0,0,0,0,0,-1,776,1135,0,0
-441,-111,0,0,0,0,0,0,0,0,0,-1,783,1135,0,0
-434,-111,0,0,0,0,0,0,0,0,0,-1,790,1135,0,0
-427,-111,0,0,0,0,0,0,0,0,0,-1,797,1135,0,0
-420,-111,0,0,0,0,0,0,0,0,0,-1,804,1135,0,0
-413,-111,0,0,0,0,0,0,0,0,0,-1,811,1135,0,0
-406,-111,0,0,0,0,0,0,0,0,0,-1,818,1135,0,0
-399,-111,0,0,0,0,0,0,0,0,0,-1,825,1135,0,0
-392,-111,0,0,0,0,0,0,0,0,0,-1,832,1135,0,0
-385,-111,0,0,0,0,0,0,0,0,0,-1,839,1135,0,0
-378,-111,0,0,0,0,0,0,0,0,0,-1,846,1135,0,0
-371,-111,0,0,0,0,0,0,0,0,0,-1,853,1135,0,0
-364,-111,0,0,0,0,0,0,0,0,0,-1,860,1135,0,0
-357,-111,0,0,0,0,0,0,0,0,0,-1,867,1135,0,0
-350,-111,0,0,0,0,0,0,0,0,0,-1,874,1135,0,0
-343,-111,0,0,0,0,0,0,0,0,0,-1,881,1135,0,0
-336,-111,0,0,0,0,0,0,0,0,0,-1,888,1135,0,0
-329,-111,0,0,0,0,0,0,0,0,0,-1,895,1135,0,0
-322,-111,0,0,0,0,0,0,0,0,0,-1,902,1135,0,0
-315,-111,0,0,0,0,0,0,0,0,0,-1,909,1135,0,0
-308,-111,0,0,0,0,0,0,0,0,0,-1,916,1135,0,0
-301,-111,0,0,0,0,0,0,0,0,0,-1,923,1135,0,0
-294,-111,0,0,0,0,0,0,0,0,0,-1,930,1135,0,0
-287,-111,0,0,0,0,0,0,0,0,0,-1,937,1135,0,0
-280,-111,0,0,0,0,0,0,0,0,0,-1,944,1135,0,0
-273,-111,0,0,0,0,0,0,0,0,0,-1,951,1135,0,0
-266,-111,0,0,0,0,0,0,0,0,0,-1,958,1135,0,0
-259,-111,0,0,0,0,0,0,0,0,0,-1,965,1135,0,0
-252,-111,0,0,0,0,0,0,0,0,0,-1,972,1135,0,0
-245,-111,0,0,0,0,0,0,0,0,0,-1,979,1135,0,0
-238,-111,0,0,0,0,0,0,0,0,0,-1,986,1135,0,0
-231,-111,0,0,0,0,0,0,0,0,0,-1,993,1135,0,0
-224,-111,0,0,0,0,0,0,0,0,0,-1,1000,1135,0,0
-217,-111,0,0,0,0,0,0,0,0,0,-1,1007,1135,0,0
-210,-111,0,0,0,0,0,0,0,0,0,-1,1014,1135,0,0
-203,-111,0,0,0,0,0,0,0,0,0,-1,1021,1135,0,0
-196,-111,0,0,0,0,0,0,0,0,0,-1,1028,1135,0,0
-189,-111,0,0,0,0,0,0,0,0,0,-1,1035,1135,0,0
-182,-111,0,0,0,0,0,0,0,0,0,-1,1042,1135,0,0
-175,-111,0,0,0,0,0,0,0,0,0,-1,1049,1135,0,0
-168,-111,0,0,0,0,0,0,0,0,0,-1,1056,1135,0,0
-161,-111,0,0,0,0,0,0,0,0,0,-1,1063,1135,0,0
-154,-111,0,0,0,0,0,0,0,0,0,-1,1070,1135,0,0
-147,-111,0,0,0,0,0,0,0,0,0,-1,1077,1135,0,0
-140,-111,0,0,0,0,0,0,0,0,0,-1,1084,1135,0,0
-133,-111,0,0,0,0,0,0,0,0,0,-1,1091,1135,0,0
-126,-111,0,0,0,0,0,0,0,0,0,-1,1098,1135,0,0
-119,-111,0,0,0,0,0,0,0,0,0,-1,1105,1135,0,0
-112,-111,0,0,0,0,0,0,0,0,0,-1,1112,1135,0,0
-105,-111,0,0,0,0,0,0,0,0,0,-1,1119,1135,0,0
-98,-111,0,0,0,0,0,0,0,0,0,-1,1126,1135,0,0
-91,-111,0,0,0,0,0,0,0,0,0,-1,1133,1135,0,0
-84,-111,0,0,0,0,0,0,0,0,0,-1,1140,1135,0,0
-77,-111,0,0,0,0,0,0,0,0,0,-1,1147,1135,0,0
-70,-111,0,0,0,0,0,0,0,0,0,-1,1154,1135,0,0
-63,-111,0,0,0,0,0,0,0,0,0,-1,1161,1135,0,0
-56,-111,0,0,0,0,0,0,0,0,0,-1,1168,1135,0,0
-49,-111,0,0,0,0,0,0,0,0,0,-1,1175,1135,0,0
-42,-111,0,0,0,0,0,0,0,0,0,-1,1182,1135,0,0
-35,-111,0,0,0,0,0,0,0,0,0,-1,1189,1135,0,0
-28,-111,0,0,0,0,0,0,0,0,0,-1,1196,1135,0,0
-21,-111,0,0,0,0,0,0,0,0,0,-1,1203,1135,0,0
-14,-111,0,0,0,0,0,0,0,0,0,-1,1210,1135,0,0
-7,-111,0,0,0,0,0,0,0,0,0,-1,1217,1135,0,0
0,-111,0,0,0,0,0,0,0,0,0,-1,1224,1135,0,0
7,-111,0,0,0,0,0,0,0,0,0,-1,1231,1135,0,0
14,-111,0,0,0,0,0,0,0,0,0,-1,1238,1135,0,0
21,-111,0,0,0,0,0,0,0,0,0,-1,1245,1135,0,0
28,-111,0,0,0,0,0,0,0,0,0,-1,1252,1135,0,0
35,-111,0,0,0,0,0,0,0,0,0,-1,1259,1135,0,0
42,-111,0,0,0,0,0,0,0,0,0,-1,1266,1135,0,0
49,-111,0,0,0,0,0,0,0,0,0,-1,1273,1135,0,0
56,-111,0,0,0,0,0,0,0,0,0,-1,1280,1135,0,0
63,-111,0,0,0,0,0,0,0,0,0,-1,1287,1135,0,0
70,-111,0,0,0,0,0,0,0,0,0,-1,1294,1135,0,0
77,-111,0,0,0,0,0,0,0,0,0,-1,1301,1135,0,0
84,-111,0,0,0,0,0,0,0,0,0,-1,1308,1135,0,0
91,-111,0,0,0,0,0,0,0,0,0,-1,1315,1135,0,0
98,-111,0,0,0,0,0,0,0,0,0,-1,1322,1135,0,0
105,-111,0,0,0,0,0,0,0,0,0,-1,1329,1135,0,0
112,-111,0,0,0,0,0,0,0,0,0,-1,1336,1135,0,0
119,-111,0,0,0,0,0,0,0,0,0,-1,1343,1135,0,0
126,-111,0,0,0,0,0,0,0,0,0,-1,1350,1135,0,0
133,-111,0,0,0,0,0,0,0,0,0,-1,1357,1135,0,0
140,-111,0,0,0,0,0,0,0,0,0,-1,1364,1135,0,0
147,-111,0,0,0,0,0,0,0,0,0,-1,1371,1135,0,0
154,-111,0,0,0,0,0,0,0,0,0,-1,1378,1135,0,0
161,-111,0,0,0,0,0,0,0,0,0,-1,1385,1135,0,0
168,-111,0,0,0,0,0,0,0,0,0,-1,1392,1135,0,0
175,-111,0,0,0,0,0,0,0,0,0,-1,1399,1135,0,0
182,-111,0,0,0,0,0,0,0,0,0,-1,1406,1135,0,0
189,-111,0,0,0,0,0,0,0,0,0,-1,1413,1135,0,0
196,-111,0,0,0,0,0,0,0,0,0,-1,1420,1135,0,0
203,-111,0,0,0,0,0,0,0,0,0,-1,1427,1135,0,0
210,-111,0,0,0,0,0,0,0,0,0,-1,1434,1135,0,0
217,-111,0,0,0,0,0,0,0,0,0,-1,1441,1135,0,0
224,-111,0,0,0,0,0,0,0,0,0,-1,1448,1135,0,0
231,-111,0,0,0,0,0,0,0,0,0,-1,1455,1135,0,0
238,-111,0,0,0,0,0,0,0,0,0,-1,1462,1135,0,0
245,-111,0,0,0,0,0,0,0,0,0,-1,1469,1135,0,0
252,-111,0,0,0,0,0,0,0,0,0,-1,1476,1135,0,0
259,-111,0,0,0,0,0,0,0,0,0,-1,1483,1135,0,0
266,-111,0,0,0,0,0,0,0,0,0,-1,1490,1135,0,0
273,-111,0,0,0,0,0,0,0,0,0,-1,1497,1135,0,0
280,-111,0,0,0,0,0,0,0,0,0,-1,1504,1135,0,0
287,-111,0,0,0,0,0,0,0,0,0,-1,1511,1135,0,0
294,-111,0,0,0,0,0,0,0,0,0,-1,1518,1135,0,0
301,-111,0,0,0,0,0,0,0,0,0,-1,1525,1135,0,0
308,-111,0,0,0,0,0,0,0,0,0,-1,1532,1135,0,0
315,-111,0,0,0,0,0,0,0,0,0,-1,1539,1135,0,0
322,-111,0,0,0,0,0,0,0,0,0,-1,1546,1135,0,0
329,-111,0,0,0,0,0,0,0,0,0,-1,1553,1135,0,0
336,-111,0,0,0,0,0,0,0,0,0,-1,1560,1135,0,0
343,-111,0,0,0,0,0,0,0,0,0,-1,1567,1135,0,0
350,-111,0,0,0,0,0,0,0,0,0,-1,1574,1135,0,0
357,-111,0,0,0,0,0,0,0,0,0,-1,1581,1135,0,0
364,-111,0,0,0,0,0,0,0,0,0,-1,1588,1135,0,0
371,-111,0,0,0,0,0,0,0,0,0,-1,1595,1135,0,0
378,-111,0,0,0,0,0,0,0,0,0,-1,1602,1135,0,0
385,-111,0,0,0,0,0,0,0,0,0,-1,1609,1135,0,0
392,-111,0,0,0,0,0,0,0,0,0,-1,1616,1135,0,0
399,-111,0,0,0,0,0,0,0,0,0,-1,1623,1135,0,0
406,-111,0,0,0,0,0,0,0,0,0,-1,1630,1135,0,0
413,-111,0,0,0,0,0,0,0,0,0,-1,1637,1135,0,0
420,-111,0,0,0,0,0,0,0,0,0,-1,1644,1135,0,0
427,-111,0,0,0,0,0,0,0,0,0,-1,1651,1135,0,0
434,-111,0,0,0,0,0,0,0,0,0,-1,1658,1135,0,0
441,-111,0,0,0,0,0,0,0,0,0,-1,1665,1135,0,0
448,-111,0,0,0,0,0,0,0,0,0,-1,1672,1135,0,0
455,-111,0,0,0,0,0,0,0,0,0,-1,1679,1135,0,0
462,-111,0,0,0,0,0,0,0,0,0,-1,1686,1135,0,0
469,-111,0,0,0,0,0,0,0,0,0,-1,1693,1135,0,0
476,-111,0,0,0,0,0,0,0,0,0,-1,1700,1135,0,0
483,-111,0,0,0,0,0,0,0,0,0,-1,1707,1135,0,0
490,-111,0,0,0,0,0,0,0,0,0,-1,1714,1135,0,0
497,-111,0,0,0,0,0,0,0,0,0,-1,1721,1135,0,0
504,-111,0,0,0,0,0,0,0,0,0,-1,1728,1135,0,0
511,-111,0,0,0,0,0,0,0,0,0,-1,1735,1135,0,0
518,-111,0,0,0,0,0,0,0,0,0,-1,1742,1135,0,0
525,-111,0,0,0,0,0,0,0,0,0,-1,1749,1135,0,0
532,-111,0,0,0,0,0,0,0,0,0,-1,1756,1135,0,0
539,-111,0,0,0,0,0,0,0,0,0,-1,1763,1135,0,0
546,-111,0,0,0,0,0,0,0,0,0,-1,1770,1135,0,0
553,-111,0,0,0,0,0,0,0,0,0,-1,1777,1135,0,0
560,-111,0,0,0,0,0,0,0,0,0,-1,1784,1135,0,0
567,-111,0,0,0,0,0,0,0,0,0,-1,1791,1135,0,0
574,-111,0,0,0,0,0,0,0,0,0,-1,1798,1135,0,0
581,-111,0,0,0,0,0,0,0,0,0,-1,1805,1135,0,0
588,-111,0,0,0,0,0,0,0,0,0,-1,1812,1135,0,0
595,-111,0,0,0,0,0,0,0,0,0,-1,1819,1135,0,0
602,-111,0,0,0,0,0,0,0,0,0,-1,1826,1135,0,0
609,-111,0,0,0,0,0,0,0,0,0,-1,1833,1135,0,0
616,-111,0,0,0,0,0,0,0,0,0,-1,1840,1135,0,0
623,-111,0,0,0,0,0,0,0,0,0,-1,1847,1135,0,0
630,-111,0,0,0,0,0,0,0,0,0,-1,1854,1135,0,0
637,-111,0,0,0,0,0,0,0,0,0,-1,1861,1135,0,0
644,-111,21.963,2.91687,-0.00386551,-0.00309911,-0.00716656,0.00369449,-0.0106591,-0.812108,0.00860609,0.0396844,1868,1135,21.963,-2.9169
651,-111,21.7491,2.74829,-0.00249284,-0.00226379,-0.00449212,0.00211526,-0.0068719,-0.798143,0.00542559,0.0413395,1875,1135,21.7492,-2.74833
658,-111,21.9075,2.51575,-0.00119717,-0.00164296,-0.00296186,0.00155017,-0.0043903,-0.747842,0.00355799,0.044913,1882,1135,21.9075,-2.51579
665,-111,22.2391,2.30798,-0.00103096,-0.0014042,-0.00121975,1.63626e-05,-0.00245153,-0.709488,0.00163983,0.0443878,1889,1135,22.2391,-2.308
672,-111,22.2852,2.57739,-0.00212576,-0.00161461,0.000998434,-0.000839556,-0.00290081,0.910695,0.00172358,0.0412315,1896,1135,22.2852,-2.57741
679,-111,22.2476,2.90356,-0.00355069,-0.00195141,0.0028973,0.00025458,-0.00575667,0.920043,0.00392539,0.0396903,1903,1135,22.2476,-2.9036
686,-111,22.1249,2.99023,-0.00499792,-0.002317,0.00448168,0.00102038,-0.00833531,0.930713,0.00592635,0.0394143,1910,1135,22.1248,-2.99029
693,-111,22.1062,2.96582,-0.00622729,-0.00257194,0.00570978,0.00159555,-0.0103948,0.940293,0.00751835,0.036989,1917,1135,22.1063,-2.96582
700,-111,22.1633,2.81677,-0.00684876,-0.00275344,0.00673262,0.00223602,-0.0118382,0.933024,0.00873343,0.024727,1924,1135,22.1633,-2.81672
707,-111,22.0405,2.96814,0,0,0,0,0,0,0,-1,1931,1135,22.0405,-2.96808
714,-111,21.505,3.80212,-0.0080655,-0.0028382,0.00746205,0.00245468,-0.0133584,0.953851,0.00982655,0.0255275,1938,1135,21.505,-3.80208
721,-111,21.0737,4.53027,-0.00819726,-0.00260935,0.0073862,0.00249366,-0.0133003,0.966214,0.00980436,0.0134289,1945,1135,21.0737,-4.53033
728,-111,21.0571,4.42114,-0.00781243,-0.00233853,0.00693899,0.00238378,-0.0125347,0.973246,0.009254,0.0158169,1952,1135,21.0572,-4.42118
735,-111,21.0463,4.3313,-0.00716476,-0.00180474,0.00642131,0.00247338,-0.0114429,0.98309,0.00857282,0.0153246,1959,1135,21.0463,-4.33129
742,-111,21.0299,4.28833,-0.00628935,-0.000958378,0.00591465,0.00286366,-0.0101114,0.997099,0.00787108,0.010691,1966,1135,21.0299,-4.28837
749,-111,21.0261,4.18933,-0.00507661,-0.000625646,0.00537638,0.00296766,-0.00866991,0.98163,0.00698264,0.0137502,1973,1135,21.0261,-4.18933
756,-111,21.0323,4.06226,-0.00324938,-0.000232006,0.00461772,0.00311723,-0.00659862,0.94329,0.00572823,0.0152008,1980,1135,21.0323,-4.06224
763,-111,21.0192,3.979,-0.00114718,0.000394211,0.0040388,0.00373519,-0.00448816,0.879676,0.00475438,0.0122713,1987,1135,21.0192,-3.97905
770,-111,20.9998,3.91455,0.00106994,0.000720223,0.00363661,0.0045359,-0.00274573,0.761375,0.00424619,0.0103799,1994,1135,20.9997,-3.91461
777,-111,20.9717,3.81287,0.00298684,0.000350537,0.00420499,0.00607544,-0.00273806,0.633513,0.00520866,0.0221364,2001,1135,20.9717,-3.81285
784,-111,20.9923,3.81226,0.00528028,-0.00043879,0.00517022,0.00832905,-0.00348756,0.532796,0.00701061,0.0384432,2008,1135,20.9923,-3.81226
791,-111,20.7222,4.04114,0.00848561,-0.00175081,0.00624672,0.0114431,-0.00470834,0.442185,0.00959148,0.0430647,2015,1135,20.7221,-4.04119
798,-111,20.3043,3.72363,0.013077,-0.00366591,0.00735661,0.0158501,-0.006439,0.360482,0.0132455,0.0449398,2022,1135,20.3043,-3.72369
805,-111,20.1794,3.19385,0,0,0,0,0,0,0,-1,2029,1135,20.1795,-3.19386
812,-111,19.7305,2.88745,0,0,0,0,0,0,0,-1,2036,1135,19.7304,-2.88747
-700,-118,0,0,0,0,0,0,0,0,0,-1,524,1142,0,0
-693,-118,-13.1895,1.63745,0.0299086,-0.0171983,-0.00971081,0.0318319,-0.0191216,-0.195527,0.0297215,0.0483569,531,1142,-13.1895,-1.63749
-686,-118,-13.2347,1.82068,0.0219608,-0.0130657,-0.00317541,0.0222463,-0.0133512,-0.0896831,0.020765,0.0491254,538,1142,-13.2347,-1.8207
-679,-118,-13.3308,1.73633,0.0153202,-0.00941662,0.000825994,0.0153478,-0.00944418,0.0333418,0.0144483,0.0434545,545,1142,-13.3308,-1.7363
-672,-118,-13.3942,1.34436,0.0100102,-0.00631353,0.00309427,0.0105771,-0.00688039,0.181186,0.0101541,0.0422282,552,1142,-13.3942,-1.34436
-665,-118,-13.7519,1.27734,0,0,0,0,0,0,0,-1,559,1142,-13.7519,-1.27739
-658,-118,-13.1115,1.10364,0.00289247,-0.00186016,0.00434756,0.00547076,-0.00443845,0.535289,0.00573143,0.0457534,566,1142,-13.1115,-1.10362
-651,-118,-13.1797,1.17139,0.000806764,-0.00050066,0.00401402,0.00421995,-0.00391385,0.704678,0.00469716,0.0388773,573,1142,-13.1797,-1.17133
-644,-118,-13.2795,1.28491,-0.00040271,0.000353082,0.00331445,0.0033111,-0.00336073,0.84216,0.00385202,0.025048,580,1142,-13.2795,-1.28489
-637,-118,-13.3208,1.43176,-0.00179597,0.00104445,0.00311226,0.00304523,-0.00379675,0.99945,0.00395816,0.0138597,587,1142,-13.3208,-1.43179
-630,-118,-13.3403,1.55237,-0.00316978,0.00114784,0.00125829,0.00148778,-0.00350972,1.30693,0.00296298,0.0172687,594,1142,-13.3403,-1.5524
-623,-118,-13.3361,1.6748,-0.00330621,0.001009,-0.000368264,0.00104021,-0.00333741,-1.48627,0.00264087,0.0150988,601,1142,-13.3361,-1.67484
-616,-118,-13.3374,1.79187,-0.00336615,0.000259987,-0.00202836,0.00116748,-0.00427364,-1.1501,0.00330766,0.013036,608,1142,-13.3374,-1.79188
-609,-118,-13.3779,1.88904,-0.00318937,-9.86795e-05,-0.00345788,0.00214346,-0.00543151,-0.995537,0.00450866,0.0154832,615,1142,-13.3779,-1.88907
-602,-118,-13.377,2.05957,-0.00294623,-0.000441293,-0.00445479,0.00293375,-0.00632127,-0.922436,0.00546139,0.015555,622,1142,-13.377,-2.05954
-595,-118,-13.418,2.18665,-0.00289865,-0.000506192,-0.00508692,0.00352326,-0.0069281,-0.900879,0.00613991,0.0131917,629,1142,-13.418,-2.18667
-588,-118,-13.269,2.34595,-0.00271715,-0.000499644,-0.00537236,0.00387718,-0.00709397,-0.88716,0.00642431,0.0220547,636,1142,-13.269,-2.34601
-581,-118,-13.666,1.38452,0,0,0,0,0,0,0,-1,643,1142,-13.666,-1.38458
-574,-118,-14.6711,1.44531,0,0,0,0,0,0,0,-1,650,1142,-14.6711,-1.44528
-567,-118,-14.5807,1.31653,-0.00104115,-1.55722e-05,-0.00540334,0.00489925,-0.00595598,-0.832708,0.00627716,0.0402027,657,1142,-14.5808,-1.31649
-560,-118,-14.416,1.08875,-0.00012124,0.000311231,-0.00486443,0.00496422,-0.00477423,-0.80761,0.00562286,0.0349117,664,1142,-14.416,-1.08869
-553,-118,-14.1299,0.829468,0.000965987,0.000630178,-0.00400196,0.00480356,-0.0032074,-0.764433,0.00465563,0.0375035,671,1142,-14.1299,-0.829475
-546,-118,-14.2323,0.831787,0.00214619,0.000805445,-0.00280836,0.00436308,-0.00141144,-0.668237,0.00347607,0.0393038,678,1142,-14.2323,-0.831782
-539,-118,-14.4318,0.992432,0.00341557,0.000632815,-0.00125964,0.00390106,0.000147326,-0.367873,0.00255302,0.0422595,685,1142,-14.4318,-0.992438
-532,-118,-14.5829,1.14685,0.00434471,-0.000244177,3.66584e-05,0.00434501,-0.00024447,0.00798782,0.0029815,0.0426164,692,1142,-14.5829,-1.14686
-525,-118,-14.5005,1.13086,0.00241587,-0.00252872,-0.00107295,0.00263866,-0.00275151,-0.204731,0.00311224,0.0426514,699,1142,-14.5006,-1.13092
-518,-118,0,0,0,0,0,0,0,0,0,-1,706,1142,0,0
-511,-118,0,0,0,0,0,0,0,0,0,-1,713,1142,0,0
-504,-118,0,0,0,0,0,0,0,0,0,-1,720,1142,0,0
-497,-118,0,0,0,0,0,0,0,0,0,-1,727,1142,0,0
-490,-118,0,0,0,0,0,0,0,0,0,-1,734,1142,0,0
-483,-118,0,0,0,0,0,0,0,0,0,-1,741,1142,0,0
-476,-118,0,0,0,0,0,0,0,0,0,-1,748,1142,0,0
-469,-118,0,0,0,0,0,0,0,0,0,-1,755,1142,0,0
-462,-118,0,0,0,0,0,0,0,0,0,-1,762,1142,0,0
-455,-118,0,0,0,0,0,0,0,0,0,-1,769,1142,0,0
-448,-118,0,0,0,0,0,0,0,0,0,-1,776,1142,0,0
-441,-118,0,0,0,0,0,0,0,0,0,-1,783,1142,0,0
-434,-118,0,0,0,0,0,0,0,0,0,-1,790,1142,0,0
-427,-118,0,0,0,0,0,0,0,0,0,-1,797,1142,0,0
-420,-118,0,0,0,0,0,0,0,0,0,-1,804,1142,0,0
-413,-118,0,0,0,0,0,0,0,0,0,-1,811,1142,0,0
-406,-118,0,0,0,0,0,0,0,0,0,-1,818,1142,0,0
-399,-118,0,0,0,0,0,0,0,0,0,-1,825,1142,0,0
-392,-118,0,0,0,0,0,0,0,0,0,-1,832,1142,0,0
-385,-118,0,0,0,0,0,0,0,0,0,-1,839,1142,0,0
-378,-118,0,0,0,0,0,0,0,0,0,-1,846,1142,0,0
-371,-118,0,0,0,0,0,0,0,0,0,-1,853,1142,0,0
-364,-118,0,0,0,0,0,0,0,0,0,-1,860,1142,0,0
-357,-118,0,0,0,0,0,0,0,0,0,-1,867,1142,0,0
-350,-118,0,0,0,0,0,0,0,0,0,-1,874,1142,0,0
-343,-118,0,0,0,0,0,0,0,0,0,-1,881,1142,0,0
-336,-118,0,0,0,0,0,0,0,0,0,-1,888,1142,0,0
-329,-118,0,0,0,0,0,0,0,0,0,-1,895,1142,0,0
-322,-118,0,0,0,0,0,0,0,0,0,-1,902,1142,0,0
-315,-118,0,0,0,0,0,0,0,0,0,-1,909,1142,0,0
-308,-118,0,0,0,0,0,0,0,0,0,-1,916,1142,0,0
-301,-118,0,0,0,0,0,0,0,0,0,-1,923,1142,0,0
-294,-118,0,0,0,0,0,0,0,0,0,-1,930,1142,0,0
-287,-118,0,0,0,0,0,0,0,0,0,-1,937,1142,0,0
-280,-118,0,0,0,0,0,0,0,0,0,-1,944,1142,0,0
-273,-118,0,0,0,0,0,0,0,0,0,-1,951,1142,0,0
-266,-118,0,0,0,0,0,0,0,0,0,-1,958,1142,0,0
-259,-118,0,0,0,0,0,0,0,0,0,-1,965,1142,0,0
-252,-118,0,0,0,0,0,0,0,0,0,-1,972,1142,0,0
-245,-118,0,0,0,0,0,0,0,0,0,-1,979,1142,0,0
-238,-118,0,0,0,0,0,0,0,0,0,-1,986,1142,0,0
-231,-118,0,0,0,0,0,0,0,0,0,-1,993,1142,0,0
-224,-118,0,0,0,0,0,0,0,0,0,-1,1000,1142,0,0
-217,-118,0,0,0,0,0,0,0,0,0,-1,1007,1142,0,0
-210,-118,0,0,0,0,0,0,0,0,0,-1,1014,1142,0,0
-203,-118,0,0,0,0,0,0,0,0,0,-1,1021,1142,0,0
-196,-118,0,0,0,0,0,0,0,0,0,-1,1028,1142,0,0
-189,-118,0,0,0,0,0,0,0,0,0,-1,1035,1142,0,0
-182,-118,0,0,0,0,0,0,0,0,0,-1,1042,1142,0,0
-175,-118,0,0,0,0,0,0,0,0,0,-1,1049,1142,0,0
-168,-118,0,0,0,0,0,0,0,0,0,-1,1056,1142,0,0
-161,-118,0,0,0,0,0,0,0,0,0,-1,1063,1142,0,0
-154,-118,0,0,0,0,0,0,0,0,0,-1,1070,1142,0,0
-147,-118,0,0,0,0,0,0,0,0,0,-1,1077,1142,0,0
-140,-118,0,0,0,0,0,0,0,0,0,-1,1084,1142,0,0
-133,-118,0,0,0,0,0,0,0,0,0,-1,1091,1142,0,0
-126,-118,0,0,0,0,0,0,0,0,0,-1,1098,1142,0,0
-119,-118,0,0,0,0,0,0,0,0,0,-1,1105,1142,0,0
-112,-118,0,0,0,0,0,0,0,0,0,-1,1112,1142,0,0
-105,-118,0,0,0,0,0,0,0,0,0,-1,1119,1142,0,0
-98,-118,0,0,0,0,0,0,0,0,0,-1,1126,1142,0,0
-91,-118,0,0,0,0,0,0,0,0,0,-1,1133,1142,0,0
-84,-118,0,0,0,0,0,0,0,0,0,-1,1140,1142,0,0
-77,-118,0,0,0,0,0,0,0,0,0,-1,1147,1142,0,0
-70,-118,0,0,0,0,0,0,0,0,0,-1,1154,1142,0,0
-63,-118,0,0,0,0,0,0,0,0,0,-1,1161,1142,0,0
-56,-118,0,0,0,0,0,0,0,0,0,-1,1168,1142,0,0
-49,-118,0,0,0,0,0,0,0,0,0,-1,1175,1142,0,0
-42,-118,0,0,0,0,0,0,0,0,0,-1,1182,1142,0,0
-35,-118,0,0,0,0,0,0,0,0,0,-1,1189,1142,0,0
-28,-118,0,0,0,0,0,0,0,0,0,-1,1196,1142,0,0
-21,-118,0,0,0,0,0,0,0,0,0,-1,1203,1142,0,0
-14,-118,0,0,0,0,0,0,0,0,0,-1,1210,1142,0,0
-7,-118,0,0,0,0,0,0,0,0,0,-1,1217,1142,0,0
0,-118,0,0,0,0,0,0,0,0,0,-1,1224,1142,0,0
7,-118,0,0,0,0,0,0,0,0,0,-1,1231,1142,0,0
14,-118,0,0,0,0,0,0,0,0,0,-1,1238,1142,0,0
21,-118,0,0,0,0,0,0,0,0,0,-1,1245,1142,0,0
28,-118,0,0,0,0,0,0,0,0,0,-1,1252,1142,0,0
35,-118,0,0,0,0,0,0,0,0,0,-1,1259,1142,0,0
42,-118,0,0,0,0,0,0,0,0,0,-1,1266,1142,0,0
49,-118,0,0,0,0,0,0,0,0,0,-1,1273,1142,0,0
56,-118,0,0,0,0,0,0,0,0,0,-1,1280,1142,0,0
63,-118,0,0,0,0,0,0,0,0,0,-1,1287,1142,0,0
70,-118,0,0,0,0,0,0,0,0,0,-1,1294,1142,0,0
77,-118,0,0,0,0,0,0,0,0,0,-1,1301,1142,0,0
84,-118,0,0,0,0,0,0,0,0,0,-1,1308,1142,0,0
91,-118,0,0,0,0,0,0,0,0,0,-1,1315,1142,0,0
98,-118,0,0,0,0,0,0,0,0,0,-1,1322,1142,0,0
105,-118,0,0,0,0,0,0,0,0,0,-1,1329,1142,0,0
112,-118,0,0,0,0,0,0,0,0,0,-1,1336,1142,0,0
119,-118,0,0,0,0,0,0,0,0,0,-1,1343,1142,0,0
126,-118,0,0,0,0,0,0,0,0,0,-1,1350,1142,0,0
133,-118,0,0,0,0,0,0,0,0,0,-1,1357,1142,0,0
140,-118,0,0,0,0,0,0,0,0,0,-1,1364,1142,0,0
147,-118,0,0,0,0,0,0,0,0,0,-1,1371,1142,0,0
154,-118,0,0,0,0,0,0,0,0,0,-1,1378,1142,0,0
161,-118,0,0,0,0,0,0,0,0,0,-1,1385,1142,0,0
168,-118,0,0,0,0,0,0,0,0,0,-1,1392,1142,0,0
175,-118,0,0,0,0,0,0,0,0,0,-1,1399,1142,0,0
182,-118,0,0,0,0,0,0,0,0,0,-1,1406,1142,0,0
189,-118,0,0,0,0,0,0,0,0,0,-1,1413,1142,0,0
196,-118,0,0,0,0,0,0,0,0,0,-1,1420,1142,0,0
203,-118,0,0,0,0,0,0,0,0,0,-1,1427,1142,0,0
210,-118,0,0,0,0,0,0,0,0,0,-1,1434,1142,0,0
217,-118,0,0,0,0,0,0,0,0,0,-1,1441,1142,0,0
224,-118,0,0,0,0,0,0,0,0,0,-1,1448,1142,0,0
231,-118,0,0,0,0,0,0,0,0,0,-1,1455,1142,0,0
238,-118,0,0,0,0,0,0,0,0,0,-1,1462,1142,0,0
245,-118,0,0,0,0,0,0,0,0,0,-1,1469,1142,0,0
252,-118,0,0,0,0,0,0,0,0,0,-1,1476,1142,0,0
259,-118,0,0,0,0,0,0,0,0,0,-1,1483,1142,0,0
266,-118,0,0,0,0,0,0,0,0,0,-1,1490,1142,0,0
273,-118,0,0,0,0,0,0,0,0,0,-1,1497,1142,0,0
280,-118,0,0,0,0,0,0,0,0,0,-1,1504,1142,0,0
287,-118,0,0,0,0,0,0,0,0,0,-1,1511,1142,0,0
294,-118,0,0,0,0,0,0,0,0,0,-1,1518,1142,0,0
301,-118,0,0,0,0,0,0,0,0,0,-1,1525,1142,0,0
308,-118,0,0,0,0,0,0,0,0,0,-1,1532,1142,0,0
315,-118,0,0,0,0,0,0,0,0,0,-1,1539,1142,0,0
322,-118,0,0,0,0,0,0,0,0,0,-1,1546,1142,0,0
329,-118,0,0,0,0,0,0,0,0,0,-1,1553,1142,0,0
336,-118,0,0,0,0,0,0,0,0,0,-1,1560,1142,0,0
343,-118,0,0,0,0,0,0,0,0,0,-1,1567,1142,0,0
350,-118,0,0,0,0,0,0,0,0,0,-1,1574,1142,0,0
357,-118,0,0,0,0,0,0,0,0,0,-1,1581,1142,0,0
364,-118,0,0,0,0,0,0,0,0,0,-1,1588,1142,0,0
371,-118,0,0,0,0,0,0,0,0,0,-1,1595,1142,0,0
378,-118,0,0,0,0,0,0,0,0,0,-1,1602,1142,0,0
385,-118,0,0,0,0,0,0,0,0,0,-1,1609,1142,0,0
392,-118,0,0,0,0,0,0,0,0,0,-1,1616,1142,0,0
399,-118,0,0,0,0,0,0,0,0,0,-1,1623,1142,0,0
406,-118,0,0,0,0,0,0,0,0,0,-1,1630,1142,0,0
413,-118,0,0,0,0,0,0,0,0,0,-1,1637,1142,0,0
420,-118,0,0,0,0,0,0,0,0,0,-1,1644,1142,0,0
427,-118,0,0,0,0,0,0,0,0,0,-1,1651,1142,0,0
434,-118,0,0,0,0,0,0,0,0,0,-1,1658,1142,0,0
441,-118,0,0,0,0,0,0,0,0,0,-1,1665,1142,0,0
448,-118,0,0,0,0,0,0,0,0,0,-1,1672,1142,0,0
455,-118,0,0,0,0,0,0,0,0,0,-1,1679,1142,0,0
462,-118,0,0,0,0,0,0,0,0,0,-1,1686,1142,0,0
469,-118,0,0,0,0,0,0,0,0,0,-1,1693,1142,0,0
476,-118,0,0,0,0,0,0,0,0,0,-1,1700,1142,0,0
483,-118,0,0,0,0,0,0,0,0,0,-1,1707,1142,0,0
490,-118,0,0,0,0,0,0,0,0,0,-1,1714,1142,0,0
497,-118,0,0,0,0,0,0,0,0,0,-1,1721,1142,0,0
504,-118,0,0,0,0,0,0,0,0,0,-1,1728,1142,0,0
511,-118,0,0,0,0,0,0,0,0,0,-1,1735,1142,0,0
518,-118,0,0,0,0,0,0,0,0,0,-1,1742,1142,0,0
525,-118,0,0,0,0,0,0,0,0,0,-1,1749,1142,0,0
532,-118,0,0,0,0,0,0,0,0,0,-1,1756,1142,0,0
539,-118,0,0,0,0,0,0,0,0,0,-1,1763,1142,0,0
546,-118,0,0,0,0,0,0,0,0,0,-1,1770,1142,0,0
553,-118,0,0,0,0,0,0,0,0,0,-1,1777,1142,0,0
560,-118,0,0,0,0,0,0,0,0,0,-1,1784,1142,0,0
567,-118,0,0,0,0,0,0,0,0,0,-1,1791,1142,0,0
574,-118,0,0,0,0,0,0,0,0,0,-1,1798,1142,0,0
581,-118,0,0,0,0,0,0,0,0,0,-1,1805,1142,0,0
588,-118,0,0,0,0,0,0,0,0,0,-1,1812,1142,0,0
595,-118,0,0,0,0,0,0,0,0,0,-1,1819,1142,0,0
602,-118,0,0,0,0,0,0,0,0,0,-1,1826,1142,0,0
609,-118,0,0,0,0,0,0,0,0,0,-1,1833,1142,0,0
616,-118,0,0,0,0,0,0,0,0,0,-1,1840,1142,0,0
623,-118,0,0,0,0,0,0,0,0,0,-1,1847,1142,0,0
630,-118,0,0,0,0,0,0,0,0,0,-1,1854,1142,0,0
637,-118,0,0,0,0,0,0,0,0,0,-1,1861,1142,0,0
644,-118,21.9972,3.02209,-0.00453808,-0.00352517,-0.00632444,0.00231306,-0.0103763,-0.825352,0.00780368,0.0439184,1868,1142,21.9972,-3.02205
651,-118,21.6727,2.68591,-0.00301358,-0.00268407,-0.00395029,0.0011049,-0.00680255,-0.80624,0.00494466,0.0422948,1875,1142,21.6727,-2.68589
658,-118,21.8099,2.6405,-0.00157752,-0.00200234,-0.0025731,0.000791917,-0.00437178,-0.744217,0.00321121,0.0430622,1882,1142,21.8099,-2.6405
665,-118,22.1068,2.53271,-0.00145806,-0.00174105,-0.000887211,-0.000701134,-0.00249798,-0.706323,0.00148774,0.0438368,1889,1142,22.1068,-2.53268
672,-118,22.1682,2.4856,-0.00257119,-0.00188852,0.00115914,-0.00102151,-0.00343821,0.928587,0.0020388,0.0458337,1896,1142,22.1682,-2.48564
679,-118,22.132,2.83179,-0.00397816,-0.00215724,0.00287848,-4.86607e-05,-0.00608674,0.938569,0.00404171,0.0407576,1903,1142,22.1319,-2.83173
686,-118,22.0527,2.99585,-0.0054103,-0.00246219,0.00431487,0.000623465,-0.00849596,0.949994,0.00588282,0.0363438,1910,1142,22.0527,-2.99584
693,-118,22.0607,2.91663,-0.00661476,-0.0026473,0.00542353,0.0011439,-0.010406,0.960723,0.00734835,0.0344573,1917,1142,22.0606,-2.91659
700,-118,22.1428,2.80457,-0.00719299,-0.00282788,0.00635658,0.0017104,-0.0117313,0.950769,0.00844889,0.019522,1924,1142,22.1428,-2.80459
707,-118,22.0582,3.18604,0,0,0,0,0,0,0,-1,1931,1142,22.0582,-3.18602
714,-118,21.4757,3.92932,-0.00840023,-0.00284037,0.00700419,0.0019154,-0.013156,0.974312,0.00947389,0.0389284,1938,1142,21.4757,-3.92933
721,-118,20.9606,4.5575,-0.00855182,-0.00259495,0.00693112,0.00197058,-0.0131174,0.988329,0.00947035,0.0106391,1945,1142,20.9605,-4.55753
728,-118,20.9481,4.45654,-0.00815808,-0.00232088,0.0065084,0.00189336,-0.0123723,0.996174,0.00894637,0.0133584,1952,1142,20.9481,-4.45651
735,-118,20.9424,4.38208,-0.00746676,-0.00180053,0.00596241,0.00196763,-0.0112349,1.00719,0.00822466,0.012905,1959,1142,20.9424,-4.38209
742,-118,20.9579,4.31287,-0.00650991,-0.000894136,0.00546462,0.00244178,-0.00984583,1.02272,0.00751129,0.0192872,1966,1142,20.9578,-4.31289
749,-118,20.9521,4.19507,-0.00502053,-0.000630365,0.00487654,0.00252236,-0.00817326,0.99688,0.00645602,0.019266,1973,1142,20.9522,-4.19502
756,-118,20.9744,4.06152,-0.0027981,-0.000206193,0.00406735,0.00276667,-0.00577097,0.939625,0.0050299,0.0177895,1980,1142,20.9743,-4.0615
763,-118,20.9304,3.96191,-0.000309444,0.000365598,0.0033114,0.00335663,-0.00330048,0.836186,0.00384353,0.0101403,1987,1142,20.9304,-3.96187
770,-118,20.9033,3.89368,0.00236901,0.000600249,0.0027945,0.00441572,-0.00144647,0.632149,0.00352629,0.0118691,1994,1142,20.9033,-3.89371
777,-118,20.8662,3.81946,0.0049547,0.000123484,0.00308759,0.00645934,-0.00138116,0.453452,0.00483285,0.023259,2001,1142,20.8663,-3.81941
784,-118,20.7018,4.04578,0.00819706,-0.000822701,0.00362217,0.00947157,-0.00209721,0.338334,0.0071172,0.0383,2008,1142,20.7018,-4.04578
791,-118,20.363,4.34912,0.0126741,-0.00236641,0.00412545,0.0137313,-0.00342366,0.250876,0.0104835,0.0432961,2015,1142,20.3631,-4.34917
798,-118,19.9257,4.26843,0.0188997,-0.00461345,0.00447462,0.0197225,-0.0054362,0.181838,0.0152861,0.0468588,2022,1142,19.9257,-4.26843
805,-118,19.6541,4.17944,0,0,0,0,0,0,0,-1,2029,1142,19.6542,-4.17947
812,-118,19.512,2.82117,0,0,0,0,0,0,0,-1,2036,1142,19.5119,-2.82112
-700,-125,0,0,0,0,0,0,0,0,0,-1,524,1149,0,0
-693,-125,-12.9454,1.48169,0.0223569,-0.00987357,-0.00802114,0.0242428,-0.0117594,-0.230917,0.0211983,0.0478244,531,1149,-12.9454,-1.48165
-686,-125,-12.9463,1.61584,0.0161001,-0.00669304,-0.00258783,0.0163902,-0.00698316,-0.111642,0.0138541,0.0460596,538,1149,-12.9463,-1.61581
-679,-125,-13.7577,1.74292,0,0,0,0,0,0,0,-1,545,1149,-13.7577,-1.7429
-672,-125,-13.5065,1.2616,0,0,0,0,0,0,0,-1,552,1149,-13.5065,-1.26155
-665,-125,-12.8292,0.384155,0,0,0,0,0,0,0,-1,559,1149,-12.8292,-0.384164
-658,-125,-12.7516,0.938843,0.000787101,0.00113186,0.00377066,0.00473407,-0.00281512,0.80824,0.00440521,0.0444766,566,1149,-12.7516,-0.93887
-651,-125,-12.8477,1.06665,-0.00078688,0.00181888,0.00348,0.00423189,-0.00319989,0.964517,0.00430451,0.0376126,573,1149,-12.8477,-1.06661
-644,-125,-13.1419,1.22705,-0.00161728,0.00207708,0.00293043,0.00369393,-0.00323413,1.06661,0.00400285,0.0247619,580,1149,-13.1419,-1.22702
-637,-125,-13.1746,1.39929,-0.00248784,0.00224814,0.00272571,0.00349081,-0.00373051,1.14304,0.00417,0.0131645,587,1149,-13.1746,-1.39927
-630,-125,-13.1749,1.53577,-0.00353022,0.00192441,0.00111602,0.00214391,-0.00374973,1.37659,0.00344454,0.0134007,594,1149,-13.1749,-1.53572
-623,-125,-13.1754,1.68323,-0.00367319,0.00141386,-0.000298307,0.00143129,-0.00369062,-1.51242,0.00305153,0.0124599,601,1149,-13.1754,-1.68321
-616,-125,-13.1762,1.80127,-0.00371251,0.000435294,-0.00184762,0.00113894,-0.00441616,-1.20692,0.00338818,0.0124996,608,1149,-13.1762,-1.80124
-609,-125,-13.2343,1.89526,-0.00355208,-6.41574e-05,-0.00317598,0.00181518,-0.00543141,-1.03648,0.00435401,0.0153796,615,1149,-13.2343,-1.89524
-602,-125,-13.2745,2.06494,-0.00337683,-0.000525884,-0.00411073,0.00239951,-0.00630223,-0.952295,0.00518965,0.0147884,622,1149,-13.2745,-2.06493
-595,-125,-13.258,2.22595,-0.00336376,-0.000692018,-0.00468662,0.0028454,-0.00690118,-0.924236,0.00578731,0.0130581,629,1149,-13.258,-2.22595
-588,-125,-13.0992,2.38855,-0.003153,-0.000741971,-0.00495671,0.00315372,-0.00704869,-0.904687,0.00603175,0.0189094,636,1149,-13.0993,-2.3886
-581,-125,-13.687,2.03369,-0.00272849,-0.000590688,-0.0051914,0.00364071,-0.00695989,-0.886929,0.00621946,0.0463635,643,1149,-13.6869,-2.03366
-574,-125,-14.5324,1.20349,0,0,0,0,0,0,0,-1,650,1149,-14.5324,-1.2035
-567,-125,-14.5386,1.10168,-0.00151167,-0.000280601,-0.00485679,0.00399951,-0.00579177,-0.84843,0.00568448,0.0385559,657,1149,-14.5386,-1.10169
-560,-125,-14.5072,0.978516,-0.000604025,6.57806e-05,-0.00430959,0.00405346,-0.00459171,-0.824176,0.00499452,0.037832,664,1149,-14.5072,-0.978488
-553,-125,-14.4739,0.908691,0.000519971,0.000451334,-0.00343445,0.00392027,-0.00294896,-0.780402,0.00397915,0.0388364,671,1149,-14.474,-0.908637
-546,-125,-14.5656,0.785767,0.0017934,0.00076499,-0.00221093,0.00354914,-0.000990746,-0.671142,0.00275635,0.0391446,678,1149,-14.5656,-0.785785
-539,-125,-14.5899,1.19507,0.00319413,0.000849553,-0.000571881,0.00332618,0.000717499,-0.226933,0.0020212,0.0422938,685,1149,-14.5899,-1.19505
-532,-125,-14.521,1.14539,0.00444515,0.000410747,0.00107922,0.0047157,0.000140193,0.245631,0.00309813,0.0413732,692,1149,-14.521,-1.14533
-525,-125,-14.1626,1.15723,0.0030142,-0.00138066,0.000688918,0.00311966,-0.00148612,0.151903,0.00271432,0.0407997,699,1149,-14.1626,-1.15721
-518,-125,0,0,0,0,0,0,0,0,0,-1,706,1149,0,0
-511,-125,0,0,0,0,0,0,0,0,0,-1,713,1149,0,0
-504,-125,0,0,0,0,0,0,0,0,0,-1,720,1149,0,0
-497,-125,0,0,0,0,0,0,0,0,0,-1,727,1149,0,0
-490,-125,0,0,0,0,0,0,0,0,0,-1,734,1149,0,0
-483,-125,0,0,0,0,0,0,0,0,0,-1,741,1149,0,0
-476,-125,0,0,0,0,0,0,0,0,0,-1,748,1149,0,0
-469,-125,0,0,0,0,0,0,0,0,0,-1,755,1149,0,0
-462,-125,0,0,0,0,0,0,0,0,0,-1,762,1149,0,0
-455,-125,0,0,0,0,0,0,0,0,0,-1,769,1149,0,0
-448,-125,0,0,0,0,0,0,0,0,0,-1,776,1149,0,0
-441,-125,0,0,0,0,0,0,0,0,0,-1,783,1149,0,0
-434,-125,0,0,0,0,0,0,0,0,0,-1,790,1149,0,0
-427,-125,0,0,0,0,0,0,0,0,0,-1,797,1149,0,0
-420,-125,0,0,0,0,0,0,0,0,0,-1,804,1149,0,0
-413,-125,0,0,0,0,0,0,0,0,0,-1,811,1149,0,0
-406,-125,0,0,0,0,0,0,0,0,0,-1,818,1149,0,0
-399,-125,0,0,0,0,0,0,0,0,0,-1,825,1149,0,0
-392,-125,0,0,0,0,0,0,0,0,0,-1,832,1149,0,0
-385,-125,0,0,0,0,0,0,0,0,0,-1,839,1149,0,0
-378,-125,0,0,0,0,0,0,0,0,0,-1,846,1149,0,0
-371,-125,0,0,0,0,0,0,0,0,0,-1,853,1149,0,0
-364,-125,0,0,0,0,0,0,0,0,0,-1,860,1149,0,0
-357,-125,0,0,0,0,0,0,0,0,0,-1,867,1149,0,0
-350,-125,0,0,0,0,0,0,0,0,0,-1,874,1149,0,0
-343,-125,0,0,0,0,0,0,0,0,0,-1,881,1149,0,0
-336,-125,0,0,0,0,0,0,0,0,0,-1,888,1149,0,0
-329,-125,0,0,0,0,0,0,0,0,0,-1,895,1149,0,0
-322,-125,0,0,0,0,0,0,0,0,0,-1,902,1149,0,0
-315,-125,0,0,0,0,0,0,0,0,0,-1,909,1149,0,0
-308,-125,0,0,0,0,0,0,0,0,0,-1,916,1149,0,0
-301,-125,0,0,0,0,0,0,0,0,0,-1,923,1149,0,0
-294,-125,0,0,0,0,0,0,0,0,0,-1,930,1149,0,0
-287,-125,0,0,0,0,0,0,0,0,0,-1,937,1149,0,0
-280,-125,0,0,0,0,0,0,0,0,0,-1,944,1149,0,0
-273,-125,0,0,0,0,0,0,0,0,0,-1,951,1149,0,0
-266,-125,0,0,0,0,0,0,0,0,0,-1,958,1149,0,0
-259,-125,0,0,0,0,0,0,0,0,0,-1,965,1149,0,0
-252,-125,0,0,0,0,0,0,0,0,0,-1,972,1149,0,0
-245,-125,0,0,0,0,0,0,0,0,0,-1,979,1149,0,0
-238,-125,0,0,0,0,0,0,0,0,0,-1,986,1149,0,0
-231,-125,0,0,0,0,0,0,0,0,0,-1,993,1149,0,0
-224,-125,0,0,0,0,0,0,0,0,0,-1,1000,1149,0,0
-217,-125,0,0,0,0,0,0,0,0,0,-1,1007,1149,0,0
-210,-125,0,0,0,0,0,0,0,0,0,-1,1014,1149,0,0
-203,-125,0,0,0,0,0,0,0,0,0,-1,1021,1149,0,0
-196,-125,0,0,0,0,0,0,0,0,0,-1,1028,1149,0,0
-189,-125,0,0,0,0,0,0,0,0,0,-1,1035,1149,0,0
-182,-125,0,0,0,0,0,0,0,0,0,-1,1042,1149,0,0
-175,-125,0,0,0,0,0,0,0,0,0,-1,1049,1149,0,0
-168,-125,0,0,0,0,0,0,0,0,0,-1,1056,1149,0,0
-161,-125,0,0,0,0,0,0,0,0,0,-1,1063,1149,0,0
-154,-125,0,0,0,0,0,0,0,0,0,-1,1070,1149,0,0
-147,-125,0,0,0,0,0,0,0,0,0,-1,1077,1149,0,0
-140,-125,0,0,0,0,0,0,0,0,0,-1,1084,1149,0,0
-133,-125,0,0,0,0,0,0,0,0,0,-1,1091,1149,0,0
-126,-125,0,0,0,0,0,0,0,0,0,-1,1098,1149,0,0
-119,-125,0,0,0,0,0,0,0,0,0,-1,1105,1149,0,0
-112,-125,0,0,0,0,0,0,0,0,0,-1,1112,1149,0,0
-105,-125,0,0,0,0,0,0,0,0,0,-1,1119,1149,0,0
-98,-125,0,0,0,0,0,0,0,0,0,-1,1126,1149,0,0
-91,-125,0,0,0,0,0,0,0,0,0,-1,1133,1149,0,0
-84,-125,0,0,0,0,0,0,0,0,0,-1,1140,1149,0,0
-77,-125,0,0,0,0,0,0,0,0,0,-1,1147,1149,0,0
-70,-125,0,0,0,0,0,0,0,0,0,-1,1154,1149,0,0
-63,-125,0,0,0,0,0,0,0,0,0,-1,1161,1149,0,0
-56,-125,0,0,0,0,0,0,0,0,0,-1,1168,1149,0,0
-49,-125,0,0,0,0,0,0,0,0,0,-1,1175,1149,0,0
-42,-125,0,0,0,0,0,0,0,0,0,-1,1182,1149,0,0
-35,-125,0,0,0,0,0,0,0,0,0,-1,1189,1149,0,0
-28,-125,0,0,0,0,0,0,0,0,0,-1,1196,1149,0,0
-21,-125,0,0,0,0,0,0,0,0,0,-1,1203,1149,0,0
-14,-125,0,0,0,0,0,0,0,0,0,-1,1210,1149,0,0
-7,-125,0,0,0,0,0,0,0,0,0,-1,1217,1149,0,0
0,-125,0,0,0,0,0,0,0,0,0,-1,1224,1149,0,0
7,-125,0,0,0,0,0,0,0,0,0,-1,1231,1149,0,0
14,-125,0,0,0,0,0,0,0,0,0,-1,1238,1149,0,0
21,-125,0,0,0,0,0,0,0,0,0,-1,1245,1149,0,0
28,-125,0,0,0,0,0,0,0,0,0,-1,1252,1149,0,0
35,-125,0,0,0,0,0,0,0,0,0,-1,1259,1149,0,0
42,-125,0,0,0,0,0,0,0,0,0,-1,1266,1149,0,0
49,-125,0,0,0,0,0,0,0,0,0,-1,1273,1149,0,0
56,-125,0,0,0,0,0,0,0,0,0,-1,1280,1149,0,0
63,-125,0,0,0,0,0,0,0,0,0,-1,1287,1149,0,0
70,-125,0,0,0,0,0,0,0,0,0,-1,1294,1149,0,0
77,-125,0,0,0,0,0,0,0,0,0,-1,1301,1149,0,0
84,-125,0,0,0,0,0,0,0,0,0,-1,1308,1149,0,0
91,-125,0,0,0,0,0,0,0,0,0,-1,1315,1149,0,0
98,-125,0,0,0,0,0,0,0,0,0,-1,1322,1149,0,0
105,-125,0,0,0,0,0,0,0,0,0,-1,1329,1149,0,0
112,-125,0,0,0,0,0,0,0,0,0,-1,1336,1149,0,0
119,-125,0,0,0,0,0,0,0,0,0,-1,1343,1149,0,0
126,-125,0,0,0,0,0,0,0,0,0,-1,1350,1149,0,0
133,-125,0,0,0,0,0,0,0,0,0,-1,1357,1149,0,0
140,-125,0,0,0,0,0,0,0,0,0,-1,1364,1149,0,0
147,-125,0,0,0,0,0,0,0,0,0,-1,1371,1149,0,0
154,-125,0,0,0,0,0,0,0,0,0,-1,1378,1149,0,0
161,-125,0,0,0,0,0,0,0,0,0,-1,1385,1149,0,0
168,-125,0,0,0,0,0,0,0,0,0,-1,1392,1149,0,0
175,-125,0,0,0,0,0,0,0,0,0,-1,1399,1149,0,0
182,-125,0,0,0,0,0,0,0,0,0,-1,1406,1149,0,0
189,-125,0,0,0,0,0,0,0,0,0,-1,1413,1149,0,0
196,-125,0,0,0,0,0,0,0,0,0,-1,1420,1149,0,0
203,-125,0,0,0,0,0,0,0,0,0,-1,1427,1149,0,0
210,-125,0,0,0,0,0,0,0,0,0,-1,1434,1149,0,0
217,-125,0,0,0,0,0,0,0,0,0,-1,1441,1149,0,0
224,-125,0,0,0,0,0,0,0,0,0,-1,1448,1149,0,0
231,-125,0,0,0,0,0,0,0,0,0,-1,1455,1149,0,0
238,-125,0,0,0,0,0,0,0,0,0,-1,1462,1149,0,0
245,-125,0,0,0,0,0,0,0,0,0,-1,1469,1149,0,0
252,-125,0,0,0,0,0,0,0,0,0,-1,1476,1149,0,0
259,-125,0,0,0,0,0,0,0,0,0,-1,1483,1149,0,0
266,-125,0,0,0,0,0,0,0,0,0,-1,1490,1149,0,0
273,-125,0,0,0,0,0,0,0,0,0,-1,1497,1149,0,0
280,-125,0,0,0,0,0,0,0,0,0,-1,1504,1149,0,0
287,-125,0,0,0,0,0,0,0,0,0,-1,1511,1149,0,0
294,-125,0,0,0,0,0,0,0,0,0,-1,1518,1149,0,0
301,-125,0,0,0,0,0,0,0,0,0,-1,1525,1149,0,0
308,-125,0,0,0,0,0,0,0,0,0,-1,1532,1149,0,0
315,-125,0,0,0,0,0,0,0,0,0,-1,1539,1149,0,0
322,-125,0,0,0,0,0,0,0,0,0,-1,1546,1149,0,0
329,-125,0,0,0,0,0,0,0,0,0,-1,1553,1149,0,0
336,-125,0,0,0,0,0,0,0,0,0,-1,1560,1149,0,0
343,-125,0,0,0,0,0,0,0,0,0,-1,1567,1149,0,0
350,-125,0,0,0,0,0,0,0,0,0,-1,1574,1149,0,0
357,-125,0,0,0,0,0,0,0,0,0,-1,1581,1149,0,0
364,-125,0,0,0,0,0,0,0,0,0,-1,1588,1149,0,0
371,-125,0,0,0,0,0,0,0,0,0,-1,1595,1149,0,0
378,-125,0,0,0,0,0,0,0,0,0,-1,1602,1149,0,0
385,-125,0,0,0,0,0,0,0,0,0,-1,1609,1149,0,0
392,-125,0,0,0,0,0,0,0,0,0,-1,1616,1149,0,0
399,-125,0,0,0,0,0,0,0,0,0,-1,1623,1149,0,0
406,-125,0,0,0,0,0,0,0,0,0,-1,1630,1149,0,0
413,-125,0,0,0,0,0,0,0,0,0,-1,1637,1149,0,0
420,-125,0,0,0,0,0,0,0,0,0,-1,1644,1149,0,0
427,-125,0,0,0,0,0,0,0,0,0,-1,1651,1149,0,0
434,-125,0,0,0,0,0,0,0,0,0,-1,1658,1149,0,0
441,-125,0,0,0,0,0,0,0,0,0,-1,1665,1149,0,0
448,-125,0,0,0,0,0,0,0,0,0,-1,1672,1149,0,0
455,-125,0,0,0,0,0,0,0,0,0,-1,1679,1149,0,0
462,-125,0,0,0,0,0,0,0,0,0,-1,1686,1149,0,0
469,-125,0,0,0,0,0,0,0,0,0,-1,1693,1149,0,0
476,-125,0,0,0,0,0,0,0,0,0,-1,1700,1149,0,0
483,-125,0,0,0,0,0,0,0,0,0,-1,1707,1149,0,0
490,-125,0,0,0,0,0,0,0,0,0,-1,1714,1149,0,0
497,-125,0,0,0,0,0,0,0,0,0,-1,1721,1149,0,0
504,-125,0,0,0,0,0,0,0,0,0,-1,1728,1149,0,0
511,-125,0,0,0,0,0,0,0,0,0,-1,1735,1149,0,0
518,-125,0,0,0,0,0,0,0,0,0,-1,1742,1149,0,0
525,-125,0,0,0,0,0,0,0,0,0,-1,1749,1149,0,0
532,-125,0,0,0,0,0,0,0,0,0,-1,1756,1149,0,0
539,-125,0,0,0,0,0,0,0,0,0,-1,1763,1149,0,0
546,-125,0,0,0,0,0,0,0,0,0,-1,1770,1149,0,0
553,-125,0,0,0,0,0,0,0,0,0,-1,1777,1149,0,0
560,-125,0,0,0,0,0,0,0,0,0,-1,1784,1149,0,0
567,-125,0,0,0,0,0,0,0,0,0,-1,1791,1149,0,0
574,-125,0,0,0,0,0,0,0,0,0,-1,1798,1149,0,0
581,-125,0,0,0,0,0,0,0,0,0,-1,1805,1149,0,0
588,-125,0,0,0,0,0,0,0,0,0,-1,1812,1149,0,0
595,-125,0,0,0,0,0,0,0,0,0,-1,1819,1149,0,0
602,-125,0,0,0,0,0,0,0,0,0,-1,1826,1149,0,0
609,-125,0,0,0,0,0,0,0,0,0,-1,1833,1149,0,0
616,-125,0,0,0,0,0,0,0,0,0,-1,1840,1149,0,0
623,-125,0,0,0,0,0,0,0,0,0,-1,1847,1149,0,0
630,-125,0,0,0,0,0,0,0,0,0,-1,1854,1149,0,0
637,-125,0,0,0,0,0,0,0,0,0,-1,1861,1149,0,0
644,-125,22.1997,2.77576,-0.00483043,-0.00439856,-0.00520812,0.000598102,-0.0098271,-0.806117,0.00675959,0.0441673,1868,1149,22.1997,-2.77572
651,-125,21.807,2.34924,-0.00325377,-0.00336705,-0.0032381,-7.18117e-05,-0.00654901,-0.776653,0.00434227,0.0409867,1875,1149,21.807,-2.34928
658,-125,22.0309,2.64197,-0.00175994,-0.0025004,-0.00207309,-2.42847e-05,-0.00423606,-0.697036,0.00281598,0.0426718,1882,1149,22.0309,-2.64192
665,-125,22.1094,2.96204,-0.00171985,-0.00212016,-0.00050351,-0.00137818,-0.00246184,-0.596215,0.00142473,0.0445942,1889,1149,22.1094,-2.96205
672,-125,22.1638,2.69324,-0.00281873,-0.00212633,0.00133826,-0.00109022,-0.00385485,0.91197,0.00229452,0.0430039,1896,1149,22.1638,-2.69323
679,-125,22.0873,2.72205,-0.00417086,-0.00227277,0.00287303,-0.000196085,-0.00624754,0.94492,0.00410122,0.039065,1903,1149,22.0872,-2.72202
686,-125,22.0669,2.82385,-0.00554612,-0.00247922,0.00415938,0.000420375,-0.00844572,0.962004,0.00577571,0.03624,1910,1149,22.0669,-2.82389
693,-125,22.0828,2.80969,-0.00668787,-0.00255831,0.00514151,0.000917525,-0.0101637,0.976336,0.00710144,0.0309504,1917,1149,22.0828,-2.80975
700,-125,22.1334,2.82581,-0.00722079,-0.00271239,0.00598884,0.00143245,-0.0113656,0.965397,0.00809691,0.0139892,1924,1149,22.1334,-2.82585
707,-125,22.001,3.91589,0,0,0,0,0,0,0,-1,1931,1149,22.0009,-3.91584
714,-125,21.329,4.29773,-0.00838468,-0.00267244,0.00656606,0.00163178,-0.0126889,0.990546,0.00905236,0.0389766,1938,1149,21.329,-4.2977
721,-125,20.7927,4.59998,-0.00853639,-0.00242446,0.00650395,0.00170569,-0.0126665,1.00502,0.00906657,0.0179284,1945,1149,20.7927,-4.6
728,-125,20.809,4.48157,-0.0081069,-0.00215578,0.00611498,0.00166917,-0.0119319,1.01183,0.00856534,0.0131215,1952,1149,20.8089,-4.48159
735,-125,20.8163,4.37927,-0.00733225,-0.00170292,0.00553946,0.00169595,-0.0107311,1.02046,0.00778125,0.0156701,1959,1149,20.8163,-4.37931
742,-125,20.8176,4.29382,-0.00627571,-0.000803233,0.00501527,0.00217367,-0.00925261,1.03512,0.00700627,0.0225894,1966,1149,20.8176,-4.29379
749,-125,20.8152,4.18774,-0.00440795,-0.000708216,0.00432998,0.0021505,-0.00726667,0.987274,0.00569819,0.0247391,1973,1149,20.8152,-4.1877
756,-125,20.8702,4.09875,-0.00163494,-0.000354191,0.00345002,0.00251438,-0.00450351,0.877161,0.00410567,0.0210074,1980,1149,20.8703,-4.09876
763,-125,20.83,3.95789,0.00147628,3.33767e-05,0.00252571,0.00338155,-0.0018719,0.646281,0.00307454,0.011788,1987,1149,20.8299,-3.95794
770,-125,20.8234,3.84888,0.00488594,4.53773e-05,0.00187626,0.00552803,-0.000596714,0.329725,0.00389951,0.0133385,1994,1149,20.8234,-3.84883
777,-125,20.7939,3.78784,0.00850936,-0.000662463,0.00189558,0.00888569,-0.00103879,0.195981,0.00629867,0.0235174,2001,1149,20.7939,-3.78784
784,-125,20.6665,3.8313,0.0131616,-0.00189006,0.00204667,0.0134349,-0.0021634,0.132765,0.00975802,0.0407961,2008,1149,20.6665,-3.8313
791,-125,20.5333,3.98401,0.0194344,-0.00376976,0.00208909,0.0196209,-0.00395634,0.0890763,0.0145795,0.0439706,2015,1149,20.5334,-3.98404
798,-125,20.3397,4.25269,0.0278626,-0.00640935,0.00190159,0.0279678,-0.00651453,0.0552593,0.0211537,0.0431934,2022,1149,20.3397,-4.25274
805,-125,20.7703,4.14014,0.0390633,-0.00993664,0.00131732,0.0390987,-0.00997203,0.0268583,0.0299484,0.0458025,2029,1149,20.7703,-4.14015
812,-125,21.0972,4.28223,0,0,0,0,0,0,0,-1,2036,1149,21.0972,-4.28218
-700,-132,0,0,0,0,0,0,0,0,0,-1,524,1156,0,0
-693,-132,-12.8116,1.35376,0,0,0,0,0,0,0,-1,531,1156,-12.8116,-1.35379
-686,-132,-12.7556,1.30945,0,0,0,0,0,0,0,-1,538,1156,-12.7556,-1.3094
-679,-132,-12.4052,-0.334473,0,0,0,0,0,0,0,-1,545,1156,-12.4052,0.334501
-672,-132,-12.5653,0.0184326,0.00191928,0.00224887,0.00383652,0.00592413,-0.00175599,0.806862,0.00464669,0.043076,552,1156,-12.5653,-0.0184824
-665,-132,-12.7853,0.365234,-0.000375598,0.00319641,0.0041513,0.0059296,-0.00310879,0.988543,0.00530235,0.0424371,559,1156,-12.7853,-0.36518
-658,-132,-13.0157,0.69104,-0.00192126,0.00367368,0.00395749,0.0057226,-0.00397019,1.09306,0.00562654,0.0460286,566,1156,-13.0157,-0.69103
-651,-132,-13.0436,0.955322,-0.00284309,0.00374134,0.00345413,0.00522089,-0.00432263,1.1661,0.00551808,0.0399356,573,1156,-13.0436,-0.955283
-644,-132,-13.0519,1.21851,-0.00317326,0.00347988,0.00281079,0.00450837,-0.00420175,1.22002,0.00502983,0.0207404,580,1156,-13.0519,-1.21848
-637,-132,-13.0322,1.39661,-0.00345962,0.00318746,0.00246855,0.00400393,-0.00427609,1.25137,0.00478133,0.0118253,587,1156,-13.0322,-1.3966
-630,-132,-13.0311,1.53369,-0.00409617,0.00252057,0.00100535,0.00266995,-0.00424555,1.42329,0.00402706,0.0100433,594,1156,-13.0311,-1.53371
-623,-132,-13.0376,1.68152,-0.00415827,0.00165841,-0.000241732,0.00166844,-0.0041683,-1.52933,0.00347134,0.0152657,601,1156,-13.0376,-1.68146
-616,-132,-13.0299,1.8064,-0.00412574,0.000462871,-0.0016752,0.00100937,-0.00467223,-1.25546,0.00350013,0.0203641,608,1156,-13.0299,-1.80636
-609,-132,-13.0177,1.91833,-0.00394678,-0.000176849,-0.00288298,0.0013827,-0.00550633,-1.07493,0.0042082,0.0142775,615,1156,-13.0177,-1.91832
-602,-132,-13.0961,2.03589,-0.00380293,-0.000730772,-0.00375289,0.00178824,-0.00632194,-0.979649,0.00492025,0.0127804,622,1156,-13.0961,-2.03586
-595,-132,-13.1119,2.22241,-0.00380117,-0.00100165,-0.0042683,0.00209055,-0.00689337,-0.943844,0.00542832,0.0143693,629,1156,-13.1119,-2.22243
-588,-132,-13.0107,2.43176,-0.00356096,-0.00109252,-0.0045242,0.00236279,-0.00701627,-0.91856,0.00563279,0.0163232,636,1156,-13.0108,-2.43182
-581,-132,-13.4692,2.13831,-0.00311307,-0.000953585,-0.00474477,0.00283274,-0.0068994,-0.897276,0.00578006,0.0449656,643,1156,-13.4693,-2.13827
-574,-132,-14.3655,1.01782,0,0,0,0,0,0,0,-1,650,1156,-14.3655,-1.01778
-567,-132,-14.4499,0.953369,-0.00194691,-0.000629146,-0.0042898,0.00305207,-0.00562813,-0.861599,0.00508455,0.0390144,657,1156,-14.4499,-0.953336
-560,-132,-14.5113,0.869019,-0.00105706,-0.000256493,-0.0037384,0.00310299,-0.00441654,-0.838732,0.00436343,0.0356652,664,1156,-14.5113,-0.869038
-553,-132,-14.6613,0.884033,9.10377e-05,0.000201726,-0.00286099,0.0030079,-0.00271514,-0.795069,0.00330564,0.0376658,671,1156,-14.6613,-0.883983
-546,-132,-14.7132,0.728271,0.00144099,0.000663427,-0.00162657,0.0027246,-0.000620186,-0.66809,0.00205457,0.0415193,678,1156,-14.7132,-0.728306
-539,-132,-14.5928,1.35486,0.00293757,0.0010177,5.81895e-05,0.00293933,0.00101594,0.030272,0.00172377,0.0432806,685,1156,-14.5928,-1.35491
-532,-132,-14.4313,1.26331,0.00443507,0.00103505,0.0019815,0.00534588,0.000124241,0.430856,0.00352324,0.0411146,692,1156,-14.4313,-1.26329
-525,-132,-14.1056,1.13708,0.00350941,-0.000161566,0.00231299,0.00462671,-0.00127886,0.449998,0.00358756,0.0404523,699,1156,-14.1056,-1.13711
-518,-132,0,0,0,0,0,0,0,0,0,-1,706,1156,0,0
-511,-132,0,0,0,0,0,0,0,0,0,-1,713,1156,0,0
-504,-132,0,0,0,0,0,0,0,0,0,-1,720,1156,0,0
-497,-132,0,0,0,0,0,0,0,0,0,-1,727,1156,0,0
-490,-132,0,0,0,0,0,0,0,0,0,-1,734,1156,0,0
-483,-132,0,0,0,0,0,0,0,0,0,-1,741,1156,0,0
-476,-132,0,0,0,0,0,0,0,0,0,-1,748,1156,0,0
-469,-132,0,0,0,0,0,0,0,0,0,-1,755,1156,0,0
-462,-132,0,0,0,0,0,0,0,0,0,-1,762,1156,0,0
-455,-132,0,0,0,0,0,0,0,0,0,-1,769,1156,0,0
-448,-132,0,0,0,0,0,0,0,0,0,-1,776,1156,0,0
-441,-132,0,0,0,0,0,0,0,0,0,-1,783,1156,0,0
-434,-132,0,0,0,0,0,0,0,0,0,-1,790,1156,0,0
-427,-132,0,0,0,0,0,0,0,0,0,-1,797,1156,0,0
-420,-132,0,0,0,0,0,0,0,0,0,-1,804,1156,0,0
-413,-132,0,0,0,0,0,0,0,0,0,-1,811,1156,0,0
-406,-132,0,0,0,0,0,0,0,0,0,-1,818,1156,0,0
-399,-132,0,0,0,0,0,0,0,0,0,-1,825,1156,0,0
-392,-132,0,0,0,0,0,0,0,0,0,-1,832,1156,0,0
-385,-132,0,0,0,0,0,0,0,0,0,-1,839,1156,0,0
-378,-132,0,0,0,0,0,0,0,0,0,-1,846,1156,0,0
-371,-132,0,0,0,0,0,0,0,0,0,-1,853,1156,0,0
-364,-132,0,0,0,0,0,0,0,0,0,-1,860,1156,0,0
-357,-132,0,0,0,0,0,0,0,0,0,-1,867,1156,0,0
-350,-132,0,0,0,0,0,0,0,0,0,-1,874,1156,0,0
-343,-132,0,0,0,0,0,0,0,0,0,-1,881,1156,0,0
-336,-132,0,0,0,0,0,0,0,0,0,-1,888,1156,0,0
-329,-132,0,0,0,0,0,0,0,0,0,-1,895,1156,0,0
-322,-132,0,0,0,0,0,0,0,0,0,-1,902,1156,0,0
-315,-132,0,0,0,0,0,0,0,0,0,-1,909,1156,0,0
-308,-132,0,0,0,0,0,0,0,0,0,-1,916,1156,0,0
-301,-132,0,0,0,0,0,0,0,0,0,-1,923,1156,0,0
-294,-132,0,0,0,0,0,0,0,0,0,-1,930,1156,0,0
-287,-132,0,0,0,0,0,0,0,0,0,-1,937,1156,0,0
-280,-132,0,0,0,0,0,0,0,0,0,-1,944,1156,0,0
-273,-132,0,0,0,0,0,0,0,0,0,-1,951,1156,0,0
-266,-132,0,0,0,0,0,0,0,0,0,-1,958,1156,0,0
-259,-132,0,0,0,0,0,0,0,0,0,-1,965,1156,0,0
-252,-132,0,0,0,0,0,0,0,0,0,-1,972,1156,0,0
-245,-132,0,0,0,0,0,0,0,0,0,-1,979,1156,0,0
-238,-132,0,0,0,0,0,0,0,0,0,-1,986,1156,0,0
-231,-132,0,0,0,0,0,0,0,0,0,-1,993,1156,0,0
-224,-132,0,0,0,0,0,0,0,0,0,-1,1000,1156,0,0
-217,-132,0,0,0,0,0,0,0,0,0,-1,1007,1156,0,0
-210,-132,0,0,0,0,0,0,0,0,0,-1,1014,1156,0,0
-203,-132,0,0,0,0,0,0,0,0,0,-1,1021,1156,0,0
-196,-132,0,0,0,0,0,0,0,0,0,-1,1028,1156,0,0
-189,-132,0,0,0,0,0,0,0,0,0,-1,1035,1156,0,0
-182,-132,0,0,0,0,0,0,0,0,0,-1,1042,1156,0,0
-175,-132,0,0,0,0,0,0,0,0,0,-1,1049,1156,0,0
-168,-132,0,0,0,0,0,0,0,0,0,-1,1056,1156,0,0
-161,-132,0,0,0,0,0,0,0,0,0,-1,1063,1156,0,0
-154,-132,0,0,0,0,0,0,0,0,0,-1,1070,1156,0,0
-147,-132,0,0,0,0,0,0,0,0,0,-1,1077,1156,0,0
-140,-132,0,0,0,0,0,0,0,0,0,-1,1084,1156,0,0
-133,-132,0,0,0,0,0,0,0,0,0,-1,1091,1156,0,0
-126,-132,0,0,0,0,0,0,0,0,0,-1,1098,1156,0,0
-119,-132,0,0,0,0,0,0,0,0,0,-1,1105,1156,0,0
-112,-132,0,0,0,0,0,0,0,0,0,-1,1112,1156,0,0
-105,-132,0,0,0,0,0,0,0,0,0,-1,1119,1156,0,0
-98,-132,0,0,0,0,0,0,0,0,0,-1,1126,1156,0,0
-91,-132,0,0,0,0,0,0,0,0,0,-1,1133,1156,0,0
-84,-132,0,0,0,0,0,0,0,0,0,-1,1140,1156,0,0
-77,-132,0,0,0,0,0,0,0,0,0,-1,1147,1156,0,0
-70,-132,0,0,0,0,0,0,0,0,0,-1,1154,1156,0,0
-63,-132,0,0,0,0,0,0,0,0,0,-1,1161,1156,0,0
-56,-132,0,0,0,0,0,0,0,0,0,-1,1168,1156,0,0
-49,-132,0,0,0,0,0,0,0,0,0,-1,1175,1156,0,0
-42,-132,0,0,0,0,0,0,0,0,0,-1,1182,1156,0,0
-35,-132,0,0,0,0,0,0,0,0,0,-1,1189,1156,0,0
-28,-132,0,0,0,0,0,0,0,0,0,-1,1196,1156,0,0
-21,-132,0,0,0,0,0,0,0,0,0,-1,1203,1156,0,0
-14,-132,0,0,0,0,0,0,0,0,0,-1,1210,1156,0,0
-7,-132,0,0,0,0,0,0,0,0,0,-1,1217,1156,0,0
0,-132,0,0,0,0,0,0,0,0,0,-1,1224,1156,0,0
7,-132,0,0,0,0,0,0,0,0,0,-1,1231,1156,0,0
14,-132,0,0,0,0,0,0,0,0,0,-1,1238,1156,0,0
21,-132,0,0,0,0,0,0,0,0,0,-1,1245,1156,0,0
28,-132,0,0,0,0,0,0,0,0,0,-1,1252,1156,0,0
35,-132,0,0,0,0,0,0,0,0,0,-1,1259,1156,0,0
42,-132,0,0,0,0,0,0,0,0,0,-1,1266,1156,0,0
49,-132,0,0,0,0,0,0,0,0,0,-1,1273,1156,0,0
56,-132,0,0,0,0,0,0,0,0,0,-1,1280,1156,0,0
63,-132,0,0,0,0,0,0,0,0,0,-1,1287,1156,0,0
70,-132,0,0,0,0,0,0,0,0,0,-1,1294,1156,0,0
77,-132,0,0,0,0,0,0,0,0,0,-1,1301,1156,0,0
84,-132,0,0,0,0,0,0,0,0,0,-1,1308,1156,0,0
91,-132,0,0,0,0,0,0,0,0,0,-1,1315,1156,0,0
98,-132,0,0,0,0,0,0,0,0,0,-1,1322,1156,0,0
105,-132,0,0,0,0,0,0,0,0,0,-1,1329,1156,0,0
112,-132,0,0,0,0,0,0,0,0,0,-1,1336,1156,0,0
119,-132,0,0,0,0,0,0,0,0,0,-1,1343,1156,0,0
126,-132,0,0,0,0,0,0,0,0,0,-1,1350,1156,0,0
133,-132,0,0,0,0,0,0,0,0,0,-1,1357,1156,0,0
140,-132,0,0,0,0,0,0,0,0,0,-1,1364,1156,0,0
147,-132,0,0,0,0,0,0,0,0,0,-1,1371,1156,0,0
154,-132,0,0,0,0,0,0,0,0,0,-1,1378,1156,0,0
161,-132,0,0,0,0,0,0,0,0,0,-1,1385,1156,0,0
168,-132,0,0,0,0,0,0,0,0,0,-1,1392,1156,0,0
175,-132,0,0,0,0,0,0,0,0,0,-1,1399,1156,0,0
182,-132,0,0,0,0,0,0,0,0,0,-1,1406,1156,0,0
189,-132,0,0,0,0,0,0,0,0,0,-1,1413,1156,0,0
196,-132,0,0,0,0,0,0,0,0,0,-1,1420,1156,0,0
203,-132,0,0,0,0,0,0,0,0,0,-1,1427,1156,0,0
210,-132,0,0,0,0,0,0,0,0,0,-1,1434,1156,0,0
217,-132,0,0,0,0,0,0,0,0,0,-1,1441,1156,0,0
224,-132,0,0,0,0,0,0,0,0,0,-1,1448,1156,0,0
231,-132,0,0,0,0,0,0,0,0,0,-1,1455,1156,0,0
238,-132,0,0,0,0,0,0,0,0,0,-1,1462,1156,0,0
245,-132,0,0,0,0,0,0,0,0,0,-1,1469,1156,0,0
252,-132,0,0,0,0,0,0,0,0,0,-1,1476,1156,0,0
259,-132,0,0,0,0,0,0,0,0,0,-1,1483,1156,0,0
266,-132,0,0,0,0,0,0,0,0,0,-1,1490,1156,0,0
273,-132,0,0,0,0,0,0,0,0,0,-1,1497,1156,0,0
280,-132,0,0,0,0,0,0,0,0,0,-1,1504,1156,0,0
287,-132,0,0,0,0,0,0,0,0,0,-1,1511,1156,0,0
294,-132,0,0,0,0,0,0,0,0,0,-1,1518,1156,0,0
301,-132,0,0,0,0,0,0,0,0,0,-1,1525,1156,0,0
308,-132,0,0,0,0,0,0,0,0,0,-1,1532,1156,0,0
315,-132,0,0,0,0,0,0,0,0,0,-1,1539,1156,0,0
322,-132,0,0,0,0,0,0,0,0,0,-1,1546,1156,0,0
329,-132,0,0,0,0,0,0,0,0,0,-1,1553,1156,0,0
336,-132,0,0,0,0,0,0,0,0,0,-1,1560,1156,0,0
343,-132,0,0,0,0,0,0,0,0,0,-1,1567,1156,0,0
350,-132,0,0,0,0,0,0,0,0,0,-1,1574,1156,0,0
357,-132,0,0,0,0,0,0,0,0,0,-1,1581,1156,0,0
364,-132,0,0,0,0,0,0,0,0,0,-1,1588,1156,0,0
371,-132,0,0,0,0,0,0,0,0,0,-1,1595,1156,0,0
378,-132,0,0,0,0,0,0,0,0,0,-1,1602,1156,0,0
385,-132,0,0,0,0,0,0,0,0,0,-1,1609,1156,0,0
392,-132,0,0,0,0,0,0,0,0,0,-1,1616,1156,0,0
399,-132,0,0,0,0,0,0,0,0,0,-1,1623,1156,0,0
406,-132,0,0,0,0,0,0,0,0,0,-1,1630,1156,0,0
413,-132,0,0,0,0,0,0,0,0,0,-1,1637,1156,0,0
420,-132,0,0,0,0,0,0,0,0,0,-1,1644,1156,0,0
427,-132,0,0,0,0,0,0,0,0,0,-1,1651,1156,0,0
434,-132,0,0,0,0,0,0,0,0,0,-1,1658,1156,0,0
441,-132,0,0,0,0,0,0,0,0,0,-1,1665,1156,0,0
448,-132,0,0,0,0,0,0,0,0,0,-1,1672,1156,0,0
455,-132,0,0,0,0,0,0,0,0,0,-1,1679,1156,0,0
462,-132,0,0,0,0,0,0,0,0,0,-1,1686,1156,0,0
469,-132,0,0,0,0,0,0,0,0,0,-1,1693,1156,0,0
476,-132,0,0,0,0,0,0,0,0,0,-1,1700,1156,0,0
483,-132,0,0,0,0,0,0,0,0,0,-1,1707,1156,0,0
490,-132,0,0,0,0,0,0,0,0,0,-1,1714,1156,0,0
497,-132,0,0,0,0,0,0,0,0,0,-1,1721,1156,0,0
504,-132,0,0,0,0,0,0,0,0,0,-1,1728,1156,0,0
511,-132,0,0,0,0,0,0,0,0,0,-1,1735,1156,0,0
518,-132,0,0,0,0,0,0,0,0,0,-1,1742,1156,0,0
525,-132,0,0,0,0,0,0,0,0,0,-1,1749,1156,0,0
532,-132,0,0,0,0,0,0,0,0,0,-1,1756,1156,0,0
539,-132,0,0,0,0,0,0,0,0,0,-1,1763,1156,0,0
546,-132,0,0,0,0,0,0,0,0,0,-1,1770,1156,0,0
553,-132,0,0,0,0,0,0,0,0,0,-1,1777,1156,0,0
560,-132,0,0,0,0,0,0,0,0,0,-1,1784,1156,0,0
567,-132,0,0,0,0,0,0,0,0,0,-1,1791,1156,0,0
574,-132,0,0,0,0,0,0,0,0,0,-1,1798,1156,0,0
581,-132,0,0,0,0,0,0,0,0,0,-1,1805,1156,0,0
588,-132,0,0,0,0,0,0,0,0,0,-1,1812,1156,0,0
595,-132,0,0,0,0,0,0,0,0,0,-1,1819,1156,0,0
602,-132,0,0,0,0,0,0,0,0,0,-1,1826,1156,0,0
609,-132,0,0,0,0,0,0,0,0,0,-1,1833,1156,0,0
616,-132,0,0,0,0,0,0,0,0,0,-1,1840,1156,0,0
623,-132,0,0,0,0,0,0,0,0,0,-1,1847,1156,0,0
630,-132,0,0,0,0,0,0,0,0,0,-1,1854,1156,0,0
637,-132,0,0,0,0,0,0,0,0,0,-1,1861,1156,0,0
644,-132,22.2441,2.68237,-0.004646,-0.00518532,-0.003886,-0.00102032,-0.008811,-0.750757,0.00556516,0.04386,1868,1156,22.2442,-2.68234
651,-132,22.1599,2.57666,-0.00320337,-0.00400965,-0.00238169,-0.00119094,-0.00602208,-0.701559,0.0036825,0.043816,1875,1156,22.1599,-2.5766
658,-132,22.1094,2.77344,-0.00178826,-0.00298627,-0.00147215,-0.000797915,-0.00397661,-0.592183,0.00242919,0.0440602,1882,1156,22.1094,-2.7735
665,-132,22.0588,3.03455,-0.00187632,-0.00249545,-8.36157e-05,-0.00186523,-0.00250655,-0.131906,0.00150356,0.0444058,1889,1156,22.0589,-3.03457
672,-132,22.0938,2.86292,-0.00294185,-0.0023563,0.00149022,-0.00113036,-0.00416778,0.882394,0.00248882,0.0397695,1896,1156,22.0937,-2.86288
679,-132,22.1125,2.71057,-0.0042168,-0.0023765,0.00280174,-0.000347681,-0.00624561,0.944059,0.00405282,0.038246,1903,1156,22.1125,-2.71057
686,-132,22.1227,2.79858,-0.00551076,-0.00247956,0.00390334,0.000192093,-0.00818241,0.970581,0.00552009,0.036007,1910,1156,22.1226,-2.79863
693,-132,22.0892,2.85229,-0.0065779,-0.00244406,0.00474122,0.000661192,-0.00968315,0.990951,0.00668674,0.0266153,1917,1156,22.0893,-2.85234
700,-132,22.1472,2.80127,-0.0070798,-0.00255809,0.00548277,0.00111167,-0.0107496,0.980955,0.00756421,0.0264234,1924,1156,22.1472,-2.8013
707,-132,21.3929,3.66248,0,0,0,0,0,0,0,-1,1931,1156,21.3929,-3.66246
714,-132,20.6066,4.73096,0,0,0,0,0,0,0,-1,1938,1156,20.6065,-4.73101
721,-132,20.6573,4.6217,-0.00832035,-0.00221086,0.00593752,0.00141164,-0.0119428,1.02298,0.00847174,0.0238793,1945,1156,20.6573,-4.62164
728,-132,20.6687,4.4939,-0.00784966,-0.00193431,0.00561124,0.00145103,-0.011235,1.02794,0.00801757,0.0141433,1952,1156,20.6686,-4.49387
735,-132,20.6858,4.35913,-0.00702498,-0.00151755,0.00502828,0.00146167,-0.0100042,1.03591,0.00720627,0.0162038,1959,1156,20.6857,-4.35907
742,-132,20.6821,4.22693,-0.00586263,-0.000629937,0.00449499,0.0019547,-0.00844727,1.04896,0.00638363,0.020147,1966,1156,20.6821,-4.22687
749,-132,20.6909,4.13806,-0.00358336,-0.000714919,0.00371195,0.00183026,-0.00612854,0.969753,0.0048132,0.0240761,1973,1156,20.691,-4.13809
756,-132,20.724,4.06213,-0.000205761,-0.00048049,0.00275953,0.00241982,-0.00310608,0.76053,0.00319857,0.022232,1980,1156,20.7239,-4.06219
763,-132,20.7285,3.96021,0.00358274,-0.000303391,0.00172297,0.00423662,-0.000957273,0.362717,0.00319172,0.012916,1987,1156,20.7285,-3.96016
770,-132,20.7291,3.86401,0.0078114,-0.000575397,0.000957986,0.00791943,-0.000683432,0.112298,0.00552155,0.0125828,1994,1156,20.7291,-3.86403
777,-132,20.6849,3.72424,0.0126501,-0.00159205,0.000688337,0.0126832,-0.00162524,0.0481814,0.00904604,0.0207128,2001,1156,20.685,-3.72428
784,-132,20.6576,3.55823,0.0189832,-0.00323115,0.000415654,0.018991,-0.00323893,0.0187023,0.013867,0.0414193,2008,1156,20.6576,-3.55819
791,-132,20.7108,3.39673,0.0274074,-0.00563877,-4.86494e-05,0.0274075,-0.00563885,-0.00147216,0.0204126,0.0496075,2015,1156,20.7109,-3.39668
798,-132,20.9266,4.26587,0.0384956,-0.00892978,-0.000817602,0.0385097,-0.00894387,-0.0172329,0.029116,0.0451974,2022,1156,20.9267,-4.26583
805,-132,21.1782,4.55444,0.0528742,-0.0132374,-0.00202367,0.0529361,-0.0132993,-0.0305718,0.0404591,0.0434916,2029,1156,21.1783,-4.55449
812,-132,21.4265,4.93079,0,0,0,0,0,0,0,-1,2036,1156,21.4265,-4.93076
-700,-139,0,0,0,0,0,0,0,0,0,-1,524,1163,0,0
-693,-139,-12.6536,0.850098,0,0,0,0,0,0,0,-1,531,1163,-12.6536,-0.850158
-686,-139,-13.2427,-1.87781,0,0,0,0,0,0,0,-1,538,1163,-13.2427,1.87775
-679,-139,-12.9468,-0.989258,0,0,0,0,0,0,0,-1,545,1163,-12.9467,0.989257
-672,-139,-12.8282,-0.146362,-0.00815951,0.00650248,0.00688309,0.00922735,-0.0108844,1.19385,0.0116246,0.0437245,552,1163,-12.8282,0.146317
-665,-139,-12.9434,0.241333,-0.00790377,0.00659007,0.00616217,0.00885578,-0.0101695,1.21846,0.010993,0.0420446,559,1163,-12.9434,-0.241363
-658,-139,-13.0244,0.620728,-0.00735767,0.00627248,0.00521143,0.0080367,-0.00912189,1.24438,0.00991312,0.045466,566,1163,-13.0244,-0.620701
-651,-139,-12.9716,1.01941,-0.0066627,0.00565391,0.00417562,0.00693607,-0.00794486,1.27288,0.00859808,0.0410562,573,1163,-12.9716,-1.01947
-644,-139,-12.8937,1.23254,-0.00582127,0.00483639,0.00318576,0.00571606,-0.00670094,1.30138,0.00717647,0.0211449,580,1163,-12.8938,-1.23253
-637,-139,-12.8748,1.37695,-0.00487703,0.00402691,0.00242051,0.00464238,-0.0054925,1.3218,0.00585823,0.0123468,587,1163,-12.8748,-1.37692
-630,-139,-12.8912,1.51013,-0.00470182,0.00306974,0.00104184,0.00320698,-0.00483907,1.43982,0.00467714,0.0106027,594,1163,-12.8912,-1.51018
-623,-139,-12.8935,1.64185,-0.00462095,0.00197034,-0.000156598,0.00197406,-0.00462467,-1.54706,0.00391089,0.0164991,601,1163,-12.8935,-1.64184
-616,-139,-12.8948,1.77002,-0.00449899,0.00063107,-0.00154907,0.00106254,-0.00493045,-1.29915,0.00369246,0.0176311,608,1163,-12.8948,-1.77006
-609,-139,-12.8588,1.93799,-0.00431349,-5.56681e-05,-0.00268685,0.00124345,-0.00561261,-1.12043,0.00421777,0.0216794,615,1163,-12.8588,-1.93796
-602,-139,-12.944,2.08813,-0.00420615,-0.000649118,-0.00345965,0.00146239,-0.00631766,-1.02282,0.00477448,0.0146719,622,1163,-12.944,-2.08819
-595,-139,-12.9805,2.24988,-0.00419278,-0.000980854,-0.0039217,0.00165097,-0.00682461,-0.979736,0.00518838,0.0136493,629,1163,-12.9805,-2.24991
-588,-139,-12.9076,2.42297,-0.00388611,-0.00108086,-0.00416821,0.0019144,-0.00688136,-0.947699,0.00534132,0.0165581,636,1163,-12.9076,-2.42295
-581,-139,-13.0234,2.34802,-0.00338125,-0.000928963,-0.00435601,0.00237018,-0.0066804,-0.92259,0.00541928,0.0420021,643,1163,-13.0234,-2.34797
-574,-139,-13.2534,2.17322,0,0,0,0,0,0,0,-1,650,1163,-13.2534,-2.17323
-567,-139,-14.4703,1.01392,-0.00224966,-0.00057639,-0.00375608,0.0024351,-0.00526115,-0.89498,0.00454219,0.0432848,657,1163,-14.4703,-1.01392
-560,-139,-14.506,0.977905,-0.00138158,-0.000213286,-0.0032089,0.0024642,-0.00405906,-0.875432,0.00380354,0.0343953,664,1163,-14.506,-0.97792
-553,-139,-14.5166,0.947144,-0.000225055,0.000259205,-0.00233958,0.00236915,-0.002335,-0.836961,0.00271597,0.0368665,671,1163,-14.5166,-0.94709
-546,-139,-14.5133,0.963257,0.00116838,0.000776091,-0.00111583,0.00210518,-0.000160708,-0.698396,0.00145997,0.041629,678,1163,-14.5133,-0.963307
-539,-139,-14.4968,1.2229,0.00269261,0.0012665,0.000568291,0.00289137,0.00106774,0.336449,0.00168824,0.0416866,685,1163,-14.4968,-1.22295
-532,-139,-14.4313,0.80957,0.0042881,0.00157301,0.00265682,0.00591411,-5.30053e-05,0.549207,0.00396052,0.0393507,692,1163,-14.4313,-0.809596
-525,-139,-14.3992,0.955078,0.00377001,0.000916369,0.00362744,0.00624116,-0.00155478,0.598022,0.00476436,0.0391032,699,1163,-14.3991,-0.955104
-518,-139,0,0,0,0,0,0,0,0,0,-1,706,1163,0,0
-511,-139,0,0,0,0,0,0,0,0,0,-1,713,1163,0,0
-504,-139,0,0,0,0,0,0,0,0,0,-1,720,1163,0,0
-497,-139,0,0,0,0,0,0,0,0,0,-1,727,1163,0,0
-490,-139,0,0,0,0,0,0,0,0,0,-1,734,1163,0,0
-483,-139,0,0,0,0,0,0,0,0,0,-1,741,1163,0,0
-476,-139,0,0,0,0,0,0,0,0,0,-1,748,1163,0,0
-469,-139,0,0,0,0,0,0,0,0,0,-1,755,1163,0,0
-462,-139,0,0,0,0,0,0,0,0,0,-1,762,1163,0,0
-455,-139,0,0,0,0,0,0,0,0,0,-1,769,1163,0,0
-448,-139,0,0,0,0,0,0,0,0,0,-1,776,1163,0,0
-441,-139,0,0,0,0,0,0,0,0,0,-1,783,1163,0,0
-434,-139,0,0,0,0,0,0,0,0,0,-1,790,1163,0,0
-427,-139,0,0,0,0,0,0,0,0,0,-1,797,1163,0,0
-420,-139,0,0,0,0,0,0,0,0,0,-1,804,1163,0,0
-413,-139,0,0,0,0,0,0,0,0,0,-1,811,1163,0,0
-406,-139,0,0,0,0,0,0,0,0,0,-1,818,1163,0,0
-399,-139,0,0,0,0,0,0,0,0,0,-1,825,1163,0,0
-392,-139,0,0,0,0,0,0,0,0,0,-1,832,1163,0,0
-385,-139,0,0,0,0,0,0,0,0,0,-1,839,1163,0,0
-378,-139,0,0,0,0,0,0,0,0,0,-1,846,1163,0,0
-371,-139,0,0,0,0,0,0,0,0,0,-1,853,1163,0,0
-364,-139,0,0,0,0,0,0,0,0,0,-1,860,1163,0,0
-357,-139,0,0,0,0,0,0,0,0,0,-1,867,1163,0,0
-350,-139,0,0,0,0,0,0,0,0,0,-1,874,1163,0,0
-343,-139,0,0,0,0,0,0,0,0,0,-1,881,1163,0,0
-336,-139,0,0,0,0,0,0,0,0,0,-1,888,1163,0,0
-329,-139,0,0,0,0,0,0,0,0,0,-1,895,1163,0,0
-322,-139,0,0,0,0,0,0,0,0,0,-1,902,1163,0,0
-315,-139,0,0,0,0,0,0,0,0,0,-1,909,1163,0,0
-308,-139,0,0,0,0,0,0,0,0,0,-1,916,1163,0,0
-301,-139,0,0,0,0,0,0,0,0,0,-1,923,1163,0,0
-294,-139,0,0,0,0,0,0,0,0,0,-1,930,1163,0,0
-287,-139,0,0,0,0,0,0,0,0,0,-1,937,1163,0,0
-280,-139,0,0,0,0,0,0,0,0,0,-1,944,1163,0,0
-273,-139,0,0,0,0,0,0,0,0,0,-1,951,1163,0,0
-266,-139,0,0,0,0,0,0,0,0,0,-1,958,1163,0,0
-259,-139,0,0,0,0,0,0,0,0,0,-1,965,1163,0,0
-252,-139,0,0,0,0,0,0,0,0,0,-1,972,1163,0,0
-245,-139,0,0,0,0,0,0,0,0,0,-1,979,1163,0,0
-238,-139,0,0,0,0,0,0,0,0,0,-1,986,1163,0,0
-231,-139,0,0,0,0,0,0,0,0,0,-1,993,1163,0,0
-224,-139,0,0,0,0,0,0,0,0,0,-1,1000,1163,0,0
-217,-139,0,0,0,0,0,0,0,0,0,-1,1007,1163,0,0
-210,-139,0,0,0,0,0,0,0,0,0,-1,1014,1163,0,0
-203,-139,0,0,0,0,0,0,0,0,0,-1,1021,1163,0,0
-196,-139,0,0,0,0,0,0,0,0,0,-1,1028,1163,0,0
-189,-139,0,0,0,0,0,0,0,0,0,-1,1035,1163,0,0
-182,-139,0,0,0,0,0,0,0,0,0,-1,1042,1163,0,0
-175,-139,0,0,0,0,0,0,0,0,0,-1,1049,1163,0,0
-168,-139,0,0,0,0,0,0,0,0,0,-1,1056,1163,0,0
-161,-139,0,0,0,0,0,0,0,0,0,-1,1063,1163,0,0
-154,-139,0,0,0,0,0,0,0,0,0,-1,1070,1163,0,0
-147,-139,0,0,0,0,0,0,0,0,0,-1,1077,1163,0,0
-140,-139,0,0,0,0,0,0,0,0,0,-1,1084,1163,0,0
-133,-139,0,0,0,0,0,0,0,0,0,-1,1091,1163,0,0
-126,-139,0,0,0,0,0,0,0,0,0,-1,1098,1163,0,0
-119,-139,0,0,0,0,0,0,0,0,0,-1,1105,1163,0,0
-112,-139,0,0,0,0,0,0,0,0,0,-1,1112,1163,0,0
-105,-139,0,0,0,0,0,0,0,0,0,-1,1119,1163,0,0
-98,-139,0,0,0,0,0,0,0,0,0,-1,1126,1163,0,0
-91,-139,0,0,0,0,0,0,0,0,0,-1,1133,1163,0,0
-84,-139,0,0,0,0,0,0,0,0,0,-1,1140,1163,0,0
-77,-139,0,0,0,0,0,0,0,0,0,-1,1147,1163,0,0
-70,-139,0,0,0,0,0,0,0,0,0,-1,1154,1163,0,0
-63,-139,0,0,0,0,0,0,0,0,0,-1,1161,1163,0,0
-56,-139,0,0,0,0,0,0,0,0,0,-1,1168,1163,0,0
-49,-139,0,0,0,0,0,0,0,0,0,-1,1175,1163,0,0
-42,-139,0,0,0,0,0,0,0,0,0,-1,1182,1163,0,0
-35,-139,0,0,0,0,0,0,0,0,0,-1,1189,1163,0,0
-28,-139,0,0,0,0,0,0,0,0,0,-1,1196,1163,0,0
-21,-139,0,0,0,0,0,0,0,0,0,-1,1203,1163,0,0
-14,-139,0,0,0,0,0,0,0,0,0,-1,1210,1163,0,0
-7,-139,0,0,0,0,0,0,0,0,0,-1,1217,1163,0,0
0,-139,0,0,0,0,0,0,0,0,0,-1,1224,1163,0,0
7,-139,0,0,0,0,0,0,0,0,0,-1,1231,1163,0,0
14,-139,0,0,0,0,0,0,0,0,0,-1,1238,1163,0,0
21,-139,0,0,0,0,0,0,0,0,0,-1,1245,1163,0,0
28,-139,0,0,0,0,0,0,0,0,0,-1,1252,1163,0,0
35,-139,0,0,0,0,0,0,0,0,0,-1,1259,1163,0,0
42,-139,0,0,0,0,0,0,0,0,0,-1,1266,1163,0,0
49,-139,0,0,0,0,0,0,0,0,0,-1,1273,1163,0,0
56,-139,0,0,0,0,0,0,0,0,0,-1,1280,1163,0,0
63,-139,0,0,0,0,0,0,0,0,0,-1,1287,1163,0,0
70,-139,0,0,0,0,0,0,0,0,0,-1,1294,1163,0,0
77,-139,0,0,0,0,0,0,0,0,0,-1,1301,1163,0,0
84,-139,0,0,0,0,0,0,0,0,0,-1,1308,1163,0,0
91,-139,0,0,0,0,0,0,0,0,0,-1,1315,1163,0,0
98,-139,0,0,0,0,0,0,0,0,0,-1,1322,1163,0,0
105,-139,0,0,0,0,0,0,0,0,0,-1,1329,1163,0,0
112,-139,0,0,0,0,0,0,0,0,0,-1,1336,1163,0,0
119,-139,0,0,0,0,0,0,0,0,0,-1,1343,1163,0,0
126,-139,0,0,0,0,0,0,0,0,0,-1,1350,1163,0,0
133,-139,0,0,0,0,0,0,0,0,0,-1,1357,1163,0,0
140,-139,0,0,0,0,0,0,0,0,0,-1,1364,1163,0,0
147,-139,0,0,0,0,0,0,0,0,0,-1,1371,1163,0,0
154,-139,0,0,0,0,0,0,0,0,0,-1,1378,1163,0,0
161,-139,0,0,0,0,0,0,0,0,0,-1,1385,1163,0,0
168,-139,0,0,0,0,0,0,0,0,0,-1,1392,1163,0,0
175,-139,0,0,0,0,0,0,0,0,0,-1,1399,1163,0,0
182,-139,0,0,0,0,0,0,0,0,0,-1,1406,1163,0,0
189,-139,0,0,0,0,0,0,0,0,0,-1,1413,1163,0,0
196,-139,0,0,0,0,0,0,0,0,0,-1,1420,1163,0,0
203,-139,0,0,0,0,0,0,0,0,0,-1,1427,1163,0,0
210,-139,0,0,0,0,0,0,0,0,0,-1,1434,1163,0,0
217,-139,0,0,0,0,0,0,0,0,0,-1,1441,1163,0,0
224,-139,0,0,0,0,0,0,0,0,0,-1,1448,1163,0,0
231,-139,0,0,0,0,0,0,0,0,0,-1,1455,1163,0,0
238,-139,0,0,0,0,0,0,0,0,0,-1,1462,1163,0,0
245,-139,0,0,0,0,0,0,0,0,0,-1,1469,1163,0,0
252,-139,0,0,0,0,0,0,0,0,0,-1,1476,1163,0,0
259,-139,0,0,0,0,0,0,0,0,0,-1,1483,1163,0,0
266,-139,0,0,0,0,0,0,0,0,0,-1,1490,1163,0,0
273,-139,0,0,0,0,0,0,0,0,0,-1,1497,1163,0,0
280,-139,0,0,0,0,0,0,0,0,0,-1,1504,1163,0,0
287,-139,0,0,0,0,0,0,0,0,0,-1,1511,1163,0,0
294,-139,0,0,0,0,0,0,0,0,0,-1,1518,1163,0,0
301,-139,0,0,0,0,0,0,0,0,0,-1,1525,1163,0,0
308,-139,0,0,0,0,0,0,0,0,0,-1,1532,1163,0,0
315,-139,0,0,0,0,0,0,0,0,0,-1,1539,1163,0,0
322,-139,0,0,0,0,0,0,0,0,0,-1,1546,1163,0,0
329,-139,0,0,0,0,0,0,0,0,0,-1,1553,1163,0,0
336,-139,0,0,0,0,0,0,0,0,0,-1,1560,1163,0,0
343,-139,0,0,0,0,0,0,0,0,0,-1,1567,1163,0,0
350,-139,0,0,0,0,0,0,0,0,0,-1,1574,1163,0,0
357,-139,0,0,0,0,0,0,0,0,0,-1,1581,1163,0,0
364,-139,0,0,0,0,0,0,0,0,0,-1,1588,1163,0,0
371,-139,0,0,0,0,0,0,0,0,0,-1,1595,1163,0,0
378,-139,0,0,0,0,0,0,0,0,0,-1,1602,1163,0,0
385,-139,0,0,0,0,0,0,0,0,0,-1,1609,1163,0,0
392,-139,0,0,0,0,0,0,0,0,0,-1,1616,1163,0,0
399,-139,0,0,0,0,0,0,0,0,0,-1,1623,1163,0,0
406,-139,0,0,0,0,0,0,0,0,0,-1,1630,1163,0,0
413,-139,0,0,0,0,0,0,0,0,0,-1,1637,1163,0,0
420,-139,0,0,0,0,0,0,0,0,0,-1,1644,1163,0,0
427,-139,0,0,0,0,0,0,0,0,0,-1,1651,1163,0,0
434,-139,0,0,0,0,0,0,0,0,0,-1,1658,1163,0,0
441,-139,0,0,0,0,0,0,0,0,0,-1,1665,1163,0,0
448,-139,0,0,0,0,0,0,0,0,0,-1,1672,1163,0,0
455,-139,0,0,0,0,0,0,0,0,0,-1,1679,1163,0,0
462,-139,0,0,0,0,0,0,0,0,0,-1,1686,1163,0,0
469,-139,0,0,0,0,0,0,0,0,0,-1,1693,1163,0,0
476,-139,0,0,0,0,0,0,0,0,0,-1,1700,1163,0,0
483,-139,0,0,0,0,0,0,0,0,0,-1,1707,1163,0,0
490,-139,0,0,0,0,0,0,0,0,0,-1,1714,1163,0,0
497,-139,0,0,0,0,0,0,0,0,0,-1,1721,1163,0,0
504,-139,0,0,0,0,0,0,0,0,0,-1,1728,1163,0,0
511,-139,0,0,0,0,0,0,0,0,0,-1,1735,1163,0,0
518,-139,0,0,0,0,0,0,0,0,0,-1,1742,1163,0,0
525,-139,0,0,0,0,0,0,0,0,0,-1,1749,1163,0,0
532,-139,0,0,0,0,0,0,0,0,0,-1,1756,1163,0,0
539,-139,0,0,0,0,0,0,0,0,0,-1,1763,1163,0,0
546,-139,0,0,0,0,0,0,0,0,0,-1,1770,1163,0,0
553,-139,0,0,0,0,0,0,0,0,0,-1,1777,1163,0,0
560,-139,0,0,0,0,0,0,0,0,0,-1,1784,1163,0,0
567,-139,0,0,0,0,0,0,0,0,0,-1,1791,1163,0,0
574,-139,0,0,0,0,0,0,0,0,0,-1,1798,1163,0,0
581,-139,0,0,0,0,0,0,0,0,0,-1,1805,1163,0,0
588,-139,0,0,0,0,0,0,0,0,0,-1,1812,1163,0,0
595,-139,0,0,0,0,0,0,0,0,0,-1,1819,1163,0,0
602,-139,0,0,0,0,0,0,0,0,0,-1,1826,1163,0,0
609,-139,0,0,0,0,0,0,0,0,0,-1,1833,1163,0,0
616,-139,0,0,0,0,0,0,0,0,0,-1,1840,1163,0,0
623,-139,0,0,0,0,0,0,0,0,0,-1,1847,1163,0,0
630,-139,0,0,0,0,0,0,0,0,0,-1,1854,1163,0,0
637,-139,0,0,0,0,0,0,0,0,0,-1,1861,1163,0,0
644,-139,22.2039,2.5166,-0.00438969,-0.0048686,-0.00266102,-0.00195737,-0.00730092,-0.740526,0.0043637,0.0431172,1868,1163,22.2038,-2.51666
651,-139,22.3096,2.64758,-0.00303968,-0.00381725,-0.00158792,-0.00179364,-0.00506329,-0.665341,0.0029644,0.0442463,1875,1163,22.3095,-2.64759
658,-139,22.2538,2.88916,-0.00170899,-0.00285856,-0.000934757,-0.00118644,-0.00338111,-0.509744,0.00198081,0.0444581,1882,1163,22.2538,-2.88915
665,-139,22.1178,3.0885,-0.00187851,-0.00241445,0.000238442,-0.00178779,-0.00250517,0.363581,0.00148972,0.0424169,1889,1163,22.1179,-3.08855
672,-139,22.1329,2.95203,-0.00286874,-0.00225433,0.00152753,-0.00100342,-0.00411966,0.88463,0.00248056,0.0397274,1896,1163,22.1329,-2.95198
679,-139,22.1639,2.7915,-0.00405572,-0.00224144,0.0026163,-0.000379475,-0.00591768,0.952276,0.00382491,0.0356454,1903,1163,22.1639,-2.79147
686,-139,22.1115,2.92273,-0.00525482,-0.00231534,0.00353733,4.54288e-05,-0.0076156,0.982294,0.00509227,0.0316191,1910,1163,22.1115,-2.92277
693,-139,22.1251,2.87512,-0.00623904,-0.0022184,0.00423906,0.000462872,-0.00892032,1.00681,0.00610702,0.0198279,1917,1163,22.1251,-2.87512
700,-139,22.0209,3.19312,0,0,0,0,0,0,0,-1,1924,1163,22.0209,-3.19309
707,-139,21.2882,3.89673,-0.00722523,-0.00229968,0.00523588,0.00102371,-0.0105486,1.00523,0.0073973,0.0291921,1931,1163,21.2883,-3.89669
714,-139,20.6108,4.74878,-0.00778284,-0.00219032,0.00531132,0.00101585,-0.010989,1.0277,0.00768703,0.028682,1938,1163,20.6108,-4.74881
721,-139,20.5829,4.58826,-0.00793953,-0.00197311,0.00529713,0.00112308,-0.0110357,1.04185,0.00775865,0.0223336,1945,1163,20.5829,-4.58822
728,-139,20.578,4.46472,-0.00747505,-0.00171119,0.00503703,0.00121009,-0.0103963,1.04524,0.00736744,0.0222268,1952,1163,20.578,-4.46468
735,-139,20.5784,4.40149,-0.00663088,-0.00135671,0.00444802,0.0011772,-0.00916479,1.05298,0.00653768,0.0170294,1959,1163,20.5784,-4.40153
742,-139,20.6049,4.22363,-0.00539763,-0.000513761,0.00389267,0.00163951,-0.0075509,1.06553,0.00566015,0.0225467,1966,1163,20.6048,-4.22365
749,-139,20.5778,4.11206,-0.00272949,-0.000760731,0.00301077,0.0014225,-0.00491272,0.943396,0.00383821,0.0206951,1973,1163,20.5777,-4.11212
756,-139,20.5615,4.04395,0.00124303,-0.000643798,0.00196547,0.00247977,-0.00188054,0.561641,0.00252534,0.0114373,1980,1163,20.5616,-4.04401
763,-139,20.5619,3.93701,0.0056722,-0.000692853,0.000786442,0.00576793,-0.000788583,0.12113,0.0041333,0.0108803,1987,1163,20.5619,-3.93706
770,-139,20.5604,3.82434,0.0107462,-0.0012503,-0.000138296,0.0107478,-0.00125189,-0.011526,0.00761687,0.0124968,1994,1163,20.5604,-3.82438
777,-139,20.5219,3.67468,0.0168596,-0.00255737,-0.000744743,0.0168881,-0.00258589,-0.0382803,0.0122123,0.0222466,2001,1163,20.5218,-3.6747
784,-139,20.5294,3.45288,0.0249602,-0.00457255,-0.00147223,0.0250334,-0.00464576,-0.0496865,0.0184337,0.0398602,2008,1163,20.5294,-3.45283
791,-139,20.6665,3.13745,0.0356572,-0.00744974,-0.00244773,0.0357958,-0.00758828,-0.0565404,0.0267544,0.0497951,2015,1163,20.6665,-3.13743
798,-139,21.7478,4.5481,0.049593,-0.0113084,-0.00377229,0.0498257,-0.0115412,-0.061627,0.0376584,0.0497675,2022,1163,21.7479,-4.54813
805,-139,21.6563,4.72241,0.0674051,-0.0162932,-0.00552608,0.0677684,-0.0166565,-0.065644,0.0516345,0.0446265,2029,1163,21.6561,-4.72239
812,-139,0,0,0,0,0,0,0,0,0,-1,2036,1163,0,0
-700,-146,0,0,0,0,0,0,0,0,0,-1,524,1170,0,0
-693,-146,-12.2485,0.258301,0,0,0,0,0,0,0,-1,531,1170,-12.2485,-0.258324
-686,-146,-13.5521,-3.38818,0,0,0,0,0,0,0,-1,538,1170,-13.5521,3.38815
-679,-146,-12.8611,-1.2395,0,0,0,0,0,0,0,-1,545,1170,-12.8612,1.23946
-672,-146,-12.8915,-0.782837,-0.00970313,0.0100863,0.00914089,0.0136624,-0.0132792,1.19789,0.0155552,0.0451305,552,1170,-12.8915,0.782858
-665,-146,-12.7037,-0.0142822,-0.00935638,0.00960754,0.00767971,0.0123274,-0.0120763,1.23041,0.0140897,0.0443335,559,1170,-12.7037,0.0142802
-658,-146,-12.8417,0.407471,-0.00864962,0.00868965,0.00618145,0.0106677,-0.0106277,1.2611,0.0122949,0.0457308,566,1170,-12.8417,-0.407518
-651,-146,-12.7792,0.920654,-0.0077653,0.00750832,0.00475751,0.008869,-0.00912598,1.29223,0.0103898,0.0372784,573,1170,-12.7793,-0.92066
-644,-146,-12.7123,1.20349,-0.00676065,0.00620609,0.00350722,0.00709393,-0.00764848,1.32286,0.00851354,0.0189872,580,1170,-12.7124,-1.20355
-637,-146,-12.7043,1.34802,-0.00563315,0.00496814,0.00249031,0.00552398,-0.006189,1.35119,0.00676612,0.0102805,587,1170,-12.7043,-1.34799
-630,-146,-12.7322,1.49243,-0.00527523,0.00374416,0.00108893,0.00387377,-0.00540483,1.45233,0.00538126,0.0102059,594,1170,-12.7322,-1.49248
-623,-146,-12.7598,1.63892,-0.00505518,0.00239288,-6.97138e-05,0.00239353,-0.00505583,-1.56144,0.00439149,0.0127574,601,1170,-12.7598,-1.63886
-616,-146,-12.7751,1.80676,-0.00483724,0.000923157,-0.00141617,0.00125249,-0.00516657,-1.34231,0.003929,0.0179663,608,1170,-12.7751,-1.80671
-609,-146,-12.7015,1.98389,-0.004658,0.000183044,-0.00249562,0.00123916,-0.00571412,-1.17046,0.00428265,0.0172822,615,1170,-12.7015,-1.98389
-602,-146,-12.7766,2.18103,-0.00460469,-0.000453077,-0.00321187,0.00129539,-0.00635316,-1.07228,0.00472678,0.0225212,622,1170,-12.7766,-2.18106
-595,-146,-12.8776,2.26599,-0.00459556,-0.000830329,-0.00367439,0.00141566,-0.00684155,-1.02214,0.00509885,0.01378,629,1170,-12.8776,-2.26596
-588,-146,-12.7861,2.42822,-0.00424831,-0.000955743,-0.00394751,0.00167501,-0.00687907,-0.982955,0.00523449,0.0159381,636,1170,-12.7861,-2.42823
-581,-146,-12.6677,2.57129,-0.00369206,-0.000822801,-0.00411846,0.00210374,-0.00661861,-0.952997,0.00525592,0.030881,643,1170,-12.6677,-2.57125
-574,-146,-13.5544,1.73267,0,0,0,0,0,0,0,-1,650,1170,-13.5544,-1.73266
-567,-146,-14.5198,1.06201,0,0,0,0,0,0,0,-1,657,1170,-14.5198,-1.06196
-560,-146,-14.4622,0.990845,-0.0017734,-0.00013764,-0.00286779,0.00202662,-0.00393766,-0.924308,0.0035019,0.0356198,664,1170,-14.4622,-0.990845
-553,-146,-14.4351,1.10181,-0.00063024,0.000303887,-0.00201227,0.00190259,-0.00222894,-0.899433,0.00238782,0.0371858,671,1170,-14.4351,-1.10186
-546,-146,-14.6219,1.03357,0,0,0,0,0,0,0,-1,678,1170,-14.6219,-1.03358
-539,-146,-14.5744,0.871338,0.00231305,0.00134817,0.000932021,0.00288009,0.000781124,0.546573,0.00171986,0.0400329,685,1170,-14.5744,-0.871338
-532,-146,-14.5241,0.710327,0.00395546,0.00181467,0.00323414,0.00629173,-0.000521606,0.625588,0.00437873,0.0370658,692,1170,-14.5241,-0.710371
-525,-146,-14.5239,0.897461,0.00384374,0.00158888,0.00499141,0.00783346,-0.00240084,0.674325,0.00618004,0.0380078,699,1170,-14.5239,-0.897492
-518,-146,0,0,0,0,0,0,0,0,0,-1,706,1170,0,0
-511,-146,0,0,0,0,0,0,0,0,0,-1,713,1170,0,0
-504,-146,0,0,0,0,0,0,0,0,0,-1,720,1170,0,0
-497,-146,0,0,0,0,0,0,0,0,0,-1,727,1170,0,0
-490,-146,0,0,0,0,0,0,0,0,0,-1,734,1170,0,0
-483,-146,0,0,0,0,0,0,0,0,0,-1,741,1170,0,0
-476,-146,0,0,0,0,0,0,0,0,0,-1,748,1170,0,0
-469,-146,0,0,0,0,0,0,0,0,0,-1,755,1170,0,0
-462,-146,0,0,0,0,0,0,0,0,0,-1,762,1170,0,0
-455,-146,0,0,0,0,0,0,0,0,0,-1,769,1170,0,0
-448,-146,0,0,0,0,0,0,0,0,0,-1,776,1170,0,0
-441,-146,0,0,0,0,0,0,0,0,0,-1,783,1170,0,0
-434,-146,0,0,0,0,0,0,0,0,0,-1,790,1170,0,0
-427,-146,0,0,0,0,0,0,0,0,0,-1,797,1170,0,0
-420,-146,0,0,0,0,0,0,0,0,0,-1,804,1170,0,0
-413,-146,0,0,0,0,0,0,0,0,0,-1,811,1170,0,0
-406,-146,0,0,0,0,0,0,0,0,0,-1,818,1170,0,0
-399,-146,0,0,0,0,0,0,0,0,0,-1,825,1170,0,0
-392,-146,0,0,0,0,0,0,0,0,0,-1,832,1170,0,0
-385,-146,0,0,0,0,0,0,0,0,0,-1,839,1170,0,0
-378,-146,0,0,0,0,0,0,0,0,0,-1,846,1170,0,0
-371,-146,0,0,0,0,0,0,0,0,0,-1,853,1170,0,0
-364,-146,0,0,0,0,0,0,0,0,0,-1,860,1170,0,0
-357,-146,0,0,0,0,0,0,0,0,0,-1,867,1170,0,0
-350,-146,0,0,0,0,0,0,0,0,0,-1,874,1170,0,0
-343,-146,0,0,0,0,0,0,0,0,0,-1,881,1170,0,0
-336,-146,0,0,0,0,0,0,0,0,0,-1,888,1170,0,0
-329,-146,0,0,0,0,0,0,0,0,0,-1,895,1170,0,0
-322,-146,0,0,0,0,0,0,0,0,0,-1,902,1170,0,0
-315,-146,0,0,0,0,0,0,0,0,0,-1,909,1170,0,0
-308,-146,0,0,0,0,0,0,0,0,0,-1,916,1170,0,0
-301,-146,0,0,0,0,0,0,0,0,0,-1,923,1170,0,0
-294,-146,0,0,0,0,0,0,0,0,0,-1,930,1170,0,0
-287,-146,0,0,0,0,0,0,0,0,0,-1,937,1170,0,0
-280,-146,0,0,0,0,0,0,0,0,0,-1,944,1170,0,0
-273,-146,0,0,0,0,0,0,0,0,0,-1,951,1170,0,0
-266,-146,0,0,0,0,0,0,0,0,0,-1,958,1170,0,0
-259,-146,0,0,0,0,0,0,0,0,0,-1,965,1170,0,0
-252,-146,0,0,0,0,0,0,0,0,0,-1,972,1170,0,0
-245,-146,0,0,0,0,0,0,0,0,0,-1,979,1170,0,0
-238,-146,0,0,0,0,0,0,0,0,0,-1,986,1170,0,0
-231,-146,0,0,0,0,0,0,0,0,0,-1,993,1170,0,0
-224,-146,0,0,0,0,0,0,0,0,0,-1,1000,1170,0,0
-217,-146,0,0,0,0,0,0,0,0,0,-1,1007,1170,0,0
-210,-146,0,0,0,0,0,0,0,0,0,-1,1014,1170,0,0
-203,-146,0,0,0,0,0,0,0,0,0,-1,1021,1170,0,0
-196,-146,0,0,0,0,0,0,0,0,0,-1,1028,1170,0,0
-189,-146,0,0,0,0,0,0,0,0,0,-1,1035,1170,0,0
-182,-146,0,0,0,0,0,0,0,0,0,-1,1042,1170,0,0
-175,-146,0,0,0,0,0,0,0,0,0,-1,1049,1170,0,0
-168,-146,0,0,0,0,0,0,0,0,0,-1,1056,1170,0,0
-161,-146,0,0,0,0,0,0,0,0,0,-1,1063,1170,0,0
-154,-146,0,0,0,0,0,0,0,0,0,-1,1070,1170,0,0
-147,-146,0,0,0,0,0,0,0,0,0,-1,1077,1170,0,0
-140,-146,0,0,0,0,0,0,0,0,0,-1,1084,1170,0,0
-133,-146,0,0,0,0,0,0,0,0,0,-1,1091,1170,0,0
-126,-146,0,0,0,0,0,0,0,0,0,-1,1098,1170,0,0
-119,-146,0,0,0,0,0,0,0,0,0,-1,1105,1170,0,0
-112,-146,0,0,0,0,0,0,0,0,0,-1,1112,1170,0,0
-105,-146,0,0,0,0,0,0,0,0,0,-1,1119,1170,0,0
-98,-146,0,0,0,0,0,0,0,0,0,-1,1126,1170,0,0
-91,-146,0,0,0,0,0,0,0,0,0,-1,1133,1170,0,0
-84,-146,0,0,0,0,0,0,0,0,0,-1,1140,1170,0,0
-77,-146,0,0,0,0,0,0,0,0,0,-1,1147,1170,0,0
-70,-146,0,0,0,0,0,0,0,0,0,-1,1154,1170,0,0
-63,-146,0,0,0,0,0,0,0,0,0,-1,1161,1170,0,0
-56,-146,0,0,0,0,0,0,0,0,0,-1,1168,1170,0,0
-49,-146,0,0,0,0,0,0,0,0,0,-1,1175,1170,0,0
-42,-146,0,0,0,0,0,0,0,0,0,-1,1182,1170,0,0
-35,-146,0,0,0,0,0,0,0,0,0,-1,1189,1170,0,0
-28,-146,0,0,0,0,0,0,0,0,0,-1,1196,1170,0,0
-21,-146,0,0,0,0,0,0,0,0,0,-1,1203,1170,0,0
-14,-146,0,0,0,0,0,0,0,0,0,-1,1210,1170,0,0
-7,-146,0,0,0,0,0,0,0,0,0,-1,1217,1170,0,0
0,-146,0,0,0,0,0,0,0,0,0,-1,1224,1170,0,0
7,-146,0,0,0,0,0,0,0,0,0,-1,1231,1170,0,0
14,-146,0,0,0,0,0,0,0,0,0,-1,1238,1170,0,0
21,-146,0,0,0,0,0,0,0,0,0,-1,1245,1170,0,0
28,-146,0,0,0,0,0,0,0,0,0,-1,1252,1170,0,0
35,-146,0,0,0,0,0,0,0,0,0,-1,1259,1170,0,0
42,-146,0,0,0,0,0,0,0,0,0,-1,1266,1170,0,0
49,-146,0,0,0,0,0,0,0,0,0,-1,1273,1170,0,0
56,-146,0,0,0,0,0,0,0,0,0,-1,1280,1170,0,0
63,-146,0,0,0,0,0,0,0,0,0,-1,1287,1170,0,0
70,-146,0,0,0,0,0,0,0,0,0,-1,1294,1170,0,0
77,-146,0,0,0,0,0,0,0,0,0,-1,1301,1170,0,0
84,-146,0,0,0,0,0,0,0,0,0,-1,1308,1170,0,0
91,-146,0,0,0,0,0,0,0,0,0,-1,1315,1170,0,0
98,-146,0,0,0,0,0,0,0,0,0,-1,1322,1170,0,0
105,-146,0,0,0,0,0,0,0,0,0,-1,1329,1170,0,0
112,-146,0,0,0,0,0,0,0,0,0,-1,1336,1170,0,0
119,-146,0,0,0,0,0,0,0,0,0,-1,1343,1170,0,0
126,-146,0,0,0,0,0,0,0,0,0,-1,1350,1170,0,0
133,-146,0,0,0,0,0,0,0,0,0,-1,1357,1170,0,0
140,-146,0,0,0,0,0,0,0,0,0,-1,1364,1170,0,0
147,-146,0,0,0,0,0,0,0,0,0,-1,1371,1170,0,0
154,-146,0,0,0,0,0,0,0,0,0,-1,1378,1170,0,0
161,-146,0,0,0,0,0,0,0,0,0,-1,1385,1170,0,0
168,-146,0,0,0,0,0,0,0,0,0,-1,1392,1170,0,0
175,-146,0,0,0,0,0,0,0,0,0,-1,1399,1170,0,0
182,-146,0,0,0,0,0,0,0,0,0,-1,1406,1170,0,0
189,-146,0,0,0,0,0,0,0,0,0,-1,1413,1170,0,0
196,-146,0,0,0,0,0,0,0,0,0,-1,1420,1170,0,0
203,-146,0,0,0,0,0,0,0,0,0,-1,1427,1170,0,0
210,-146,0,0,0,0,0,0,0,0,0,-1,1434,1170,0,0
217,-146,0,0,0,0,0,0,0,0,0,-1,1441,1170,0,0
224,-146,0,0,0,0,0,0,0,0,0,-1,1448,1170,0,0
231,-146,0,0,0,0,0,0,0,0,0,-1,1455,1170,0,0
238,-146,0,0,0,0,0,0,0,0,0,-1,1462,1170,0,0
245,-146,0,0,0,0,0,0,0,0,0,-1,1469,1170,0,0
252,-146,0,0,0,0,0,0,0,0,0,-1,1476,1170,0,0
259,-146,0,0,0,0,0,0,0,0,0,-1,1483,1170,0,0
266,-146,0,0,0,0,0,0,0,0,0,-1,1490,1170,0,0
273,-146,0,0,0,0,0,0,0,0,0,-1,1497,1170,0,0
280,-146,0,0,0,0,0,0,0,0,0,-1,1504,1170,0,0
287,-146,0,0,0,0,0,0,0,0,0,-1,1511,1170,0,0
294,-146,0,0,0,0,0,0,0,0,0,-1,1518,1170,0,0
301,-146,0,0,0,0,0,0,0,0,0,-1,1525,1170,0,0
308,-146,0,0,0,0,0,0,0,0,0,-1,1532,1170,0,0
315,-146,0,0,0,0,0,0,0,0,0,-1,1539,1170,0,0
322,-146,0,0,0,0,0,0,0,0,0,-1,1546,1170,0,0
329,-146,0,0,0,0,0,0,0,0,0,-1,1553,1170,0,0
336,-146,0,0,0,0,0,0,0,0,0,-1,1560,1170,0,0
343,-146,0,0,0,0,0,0,0,0,0,-1,1567,1170,0,0
350,-146,0,0,0,0,0,0,0,0,0,-1,1574,1170,0,0
357,-146,0,0,0,0,0,0,0,0,0,-1,1581,1170,0,0
364,-146,0,0,0,0,0,0,0,0,0,-1,1588,1170,0,0
371,-146,0,0,0,0,0,0,0,0,0,-1,1595,1170,0,0
378,-146,0,0,0,0,0,0,0,0,0,-1,1602,1170,0,0
385,-146,0,0,0,0,0,0,0,0,0,-1,1609,1170,0,0
392,-146,0,0,0,0,0,0,0,0,0,-1,1616,1170,0,0
399,-146,0,0,0,0,0,0,0,0,0,-1,1623,1170,0,0
406,-146,0,0,0,0,0,0,0,0,0,-1,1630,1170,0,0
413,-146,0,0,0,0,0,0,0,0,0,-1,1637,1170,0,0
420,-146,0,0,0,0,0,0,0,0,0,-1,1644,1170,0,0
427,-146,0,0,0,0,0,0,0,0,0,-1,1651,1170,0,0
434,-146,0,0,0,0,0,0,0,0,0,-1,1658,1170,0,0
441,-146,0,0,0,0,0,0,0,0,0,-1,1665,1170,0,0
448,-146,0,0,0,0,0,0,0,0,0,-1,1672,1170,0,0
455,-146,0,0,0,0,0,0,0,0,0,-1,1679,1170,0,0
462,-146,0,0,0,0,0,0,0,0,0,-1,1686,1170,0,0
469,-146,0,0,0,0,0,0,0,0,0,-1,1693,1170,0,0
476,-146,0,0,0,0,0,0,0,0,0,-1,1700,1170,0,0
483,-146,0,0,0,0,0,0,0,0,0,-1,1707,1170,0,0
490,-146,0,0,0,0,0,0,0,0,0,-1,1714,1170,0,0
497,-146,0,0,0,0,0,0,0,0,0,-1,1721,1170,0,0
504,-146,0,0,0,0,0,0,0,0,0,-1,1728,1170,0,0
511,-146,0,0,0,0,0,0,0,0,0,-1,1735,1170,0,0
518,-146,0,0,0,0,0,0,0,0,0,-1,1742,1170,0,0
525,-146,0,0,0,0,0,0,0,0,0,-1,1749,1170,0,0
532,-146,0,0,0,0,0,0,0,0,0,-1,1756,1170,0,0
539,-146,0,0,0,0,0,0,0,0,0,-1,1763,1170,0,0
546,-146,0,0,0,0,0,0,0,0,0,-1,1770,1170,0,0
553,-146,0,0,0,0,0,0,0,0,0,-1,1777,1170,0,0
560,-146,0,0,0,0,0,0,0,0,0,-1,1784,1170,0,0
567,-146,0,0,0,0,0,0,0,0,0,-1,1791,1170,0,0
574,-146,0,0,0,0,0,0,0,0,0,-1,1798,1170,0,0
581,-146,0,0,0,0,0,0,0,0,0,-1,1805,1170,0,0
588,-146,0,0,0,0,0,0,0,0,0,-1,1812,1170,0,0
595,-146,0,0,0,0,0,0,0,0,0,-1,1819,1170,0,0
602,-146,0,0,0,0,0,0,0,0,0,-1,1826,1170,0,0
609,-146,0,0,0,0,0,0,0,0,0,-1,1833,1170,0,0
616,-146,0,0,0,0,0,0,0,0,0,-1,1840,1170,0,0
623,-146,0,0,0,0,0,0,0,0,0,-1,1847,1170,0,0
630,-146,0,0,0,0,0,0,0,0,0,-1,1854,1170,0,0
637,-146,22.1605,2.69751,-0.00553016,-0.00563981,-0.0023012,-0.00328313,-0.00788684,-0.773489,0.0045747,0.0378509,1861,1170,22.1606,-2.69757
644,-146,22.2181,2.56702,-0.00404373,-0.00471763,-0.00118998,-0.00314392,-0.00561745,-0.647433,0.00325092,0.0388658,1868,1170,22.2182,-2.56702
651,-146,22.2563,2.58057,-0.0027083,-0.003634,-0.000663412,-0.00236223,-0.00398006,-0.480816,0.00231125,0.0380744,1875,1170,22.2564,-2.58061
658,-146,22.2003,2.74512,-0.00148536,-0.00267014,-0.000341443,-0.00139401,-0.00276149,-0.261437,0.00159437,0.0409402,1882,1170,22.2003,-2.74509
665,-146,22.1503,2.99878,-0.00168539,-0.00222181,0.000533166,-0.00135678,-0.00255043,0.552356,0.0014735,0.0408774,1889,1170,22.1503,-2.99879
672,-146,22.1857,3.02747,-0.00255423,-0.00203305,0.00149937,-0.000771791,-0.00381548,0.871439,0.00232941,0.0397962,1896,1170,22.1857,-3.02741
679,-146,22.1465,2.84473,-0.00363244,-0.00199798,0.00235857,-0.000319071,-0.00531135,0.952172,0.00343948,0.0306049,1903,1170,22.1465,-2.8447
686,-146,22.0743,2.82007,-0.00471804,-0.00206281,0.00309662,-2.12062e-05,-0.00675965,0.987911,0.00449938,0.0212831,1910,1170,22.0744,-2.82005
693,-146,22.1205,2.75635,-0.00561323,-0.00192654,0.00367423,0.00034082,-0.00788059,1.0179,0.00537094,0.0139608,1917,1170,22.1204,-2.7564
700,-146,21.9308,3.33252,0,0,0,0,0,0,0,-1,1924,1170,21.9308,-3.33247
707,-146,21.14,4.0946,-0.00656235,-0.00199611,0.00451418,0.00077947,-0.00933793,1.01952,0.0065007,0.0346432,1931,1170,21.14,-4.09455
714,-146,20.5341,4.75879,-0.00711344,-0.00189798,0.00459234,0.000775366,-0.00978679,1.04362,0.00679774,0.0279427,1938,1170,20.5341,-4.75876
721,-146,20.5341,4.61401,-0.00726707,-0.00171752,0.00462155,0.00089826,-0.00988286,1.05575,0.00690749,0.0363609,1945,1170,20.5341,-4.61399
728,-146,20.5891,4.43945,-0.00679587,-0.0014873,0.00442379,0.00101741,-0.00930057,1.05561,0.00656584,0.0256361,1952,1170,20.5891,-4.43947
735,-146,20.4926,4.4115,-0.00595526,-0.00121627,0.00383726,0.000924118,-0.00809565,1.06199,0.00573003,0.0164872,1959,1170,20.4926,-4.41152
742,-146,20.4877,4.26709,-0.00464063,-0.000440777,0.00326167,0.0013385,-0.0064199,1.07141,0.00478886,0.0177874,1966,1170,20.4876,-4.26708
749,-146,20.4474,4.16162,-0.00158446,-0.00083984,0.00228274,0.00110075,-0.00352505,0.866235,0.00279029,0.017056,1973,1170,20.4474,-4.16164
756,-146,20.4316,4.04199,0.00297735,-0.000832054,0.00112915,0.0032869,-0.0011416,0.267563,0.00265491,0.0124044,1980,1170,20.4317,-4.04198
763,-146,20.4202,3.91382,0.00800273,-0.00111028,-0.000180216,0.0080063,-0.00111384,-0.0197654,0.00574492,0.0109694,1987,1170,20.4201,-3.91382
770,-146,20.4203,3.79163,0.0139188,-0.00193317,-0.0012883,0.0140228,-0.00203719,-0.0805662,0.0100963,0.0120941,1994,1170,20.4203,-3.79167
777,-146,20.4031,3.66101,0.0213312,-0.003497,-0.00226132,0.0215355,-0.00370127,-0.0900909,0.0157365,0.0200224,2001,1170,20.4031,-3.66106
784,-146,20.3817,3.55042,0.0312102,-0.00581924,-0.00346293,0.0315312,-0.0061403,-0.0924501,0.0233384,0.0379913,2008,1170,20.3818,-3.55047
791,-146,20.3441,3.45496,0,0,0,0,0,0,0,-1,2015,1170,20.3441,-3.45491
798,-146,22.5122,4.66919,0,0,0,0,0,0,0,-1,2022,1170,22.5123,-4.6692
805,-146,22.4001,4.74036,0,0,0,0,0,0,0,-1,2029,1170,22.4002,-4.74038
812,-146,0,0,0,0,0,0,0,0,0,-1,2036,1170,0,0
-700,-153,0,0,0,0,0,0,0,0,0,-1,524,1177,0,0
-693,-153,0,0,0,0,0,0,0,0,0,-1,531,1177,0,0
-686,-153,-14.0209,-2.92761,0,0,0,0,0,0,0,-1,538,1177,-14.021,2.92756
-679,-153,-13.51,-1.97009,0,0,0,0,0,0,0,-1,545,1177,-13.51,1.97013
-672,-153,-13.1234,-1.2074,-0.011408,0.0121339,0.00960706,0.0155568,-0.0148308,1.22854,0.0175459,0.0471594,552,1177,-13.1234,1.20737
-665,-153,-12.6764,-0.394775,-0.011008,0.0113779,0.00788933,0.0138789,-0.013509,1.26381,0.0158129,0.0455547,559,1177,-12.6764,0.394747
-658,-153,-12.4604,0.279175,-0.0101453,0.0101027,0.00622701,0.0118645,-0.0119071,1.29508,0.0137245,0.0473134,566,1177,-12.4604,-0.279153
-651,-153,-12.5011,1.03308,-0.00904955,0.0085652,0.00471075,0.00974587,-0.0102302,1.32522,0.0115343,0.0448493,573,1177,-12.5011,-1.03308
-644,-153,-12.5398,1.17017,-0.00784279,0.00696079,0.00341805,0.00771189,-0.00859389,1.35449,0.00941874,0.0259516,580,1177,-12.5398,-1.17022
-637,-153,-12.5455,1.33716,-0.0065008,0.0054776,0.00235956,0.00592564,-0.00694884,1.38315,0.00744091,0.010873,587,1177,-12.5455,-1.33714
-630,-153,-12.5625,1.4884,-0.00593095,0.00409382,0.00102979,0.00419851,-0.00603564,1.46948,0.00594034,0.010229,594,1177,-12.5625,-1.48842
-623,-153,-12.5862,1.63928,-0.00553945,0.00258164,-3.9064e-05,0.00258182,-0.00553964,-1.56599,0.00479147,0.0107631,601,1177,-12.5862,-1.63929
-616,-153,-12.5936,1.8031,-0.00515944,0.00102372,-0.00128398,0.00127975,-0.00541547,-1.37398,0.00410395,0.0132855,608,1177,-12.5936,-1.80309
-609,-153,-12.5796,1.94421,-0.00495356,0.000208603,-0.00226276,0.00106003,-0.00580498,-1.21091,0.00426744,0.0168984,615,1177,-12.5796,-1.94416
-602,-153,-12.6012,2.08472,-0.00493336,-0.000498679,-0.00289857,0.000933409,-0.00636545,-1.11191,0.00458654,0.024457,622,1177,-12.6012,-2.08474
-595,-153,-12.711,2.26257,-0.00496195,-0.000910246,-0.00335208,0.000980597,-0.00685279,-1.05721,0.00492802,0.021177,629,1177,-12.711,-2.26252
-588,-153,-12.6712,2.4342,-0.00463195,-0.00108279,-0.00365116,0.0012022,-0.00691694,-1.0116,0.00505986,0.0136012,636,1177,-12.6712,-2.4342
-581,-153,-12.5467,2.54565,-0.00407566,-0.000993213,-0.00381192,0.00157726,-0.00664614,-0.97751,0.00503947,0.0222302,643,1177,-12.5467,-2.54563
-574,-153,-12.5807,2.59424,0,0,0,0,0,0,0,-1,650,1177,-12.5807,-2.59419
-567,-153,-14.3963,0.682373,0,0,0,0,0,0,0,-1,657,1177,-14.3963,-0.682324
-560,-153,-14.3703,0.732788,-0.00234202,-0.000347358,-0.00248196,0.00133015,-0.00401953,-0.97644,0.00321611,0.0377043,664,1177,-14.3703,-0.732779
-553,-153,-14.3488,0.76062,-0.00126611,7.52838e-05,-0.00166624,0.00120074,-0.00239157,-0.976738,0.00211167,0.0371273,671,1177,-14.3487,-0.760581
-546,-153,-14.5174,0.830811,0.000113652,0.000586135,-0.000492089,0.000895752,-0.000195965,-1.00919,0.000672081,0.0397223,678,1177,-14.5174,-0.830843
-539,-153,-14.4935,0.817871,0.00164647,0.00118141,0.00119192,0.00262833,0.000199551,0.689065,0.00168963,0.0391947,685,1177,-14.4935,-0.817846
-532,-153,-14.3995,0.72937,0.00336337,0.0018071,0.00355674,0.0062261,-0.00105563,0.677706,0.00454368,0.0405794,692,1177,-14.3995,-0.729368
-525,-153,-14.5095,1.02063,0.00380601,0.00201131,0.00588455,0.00886124,-0.00304391,0.709735,0.00714174,0.0394039,699,1177,-14.5095,-1.02059
-518,-153,0,0,0,0,0,0,0,0,0,-1,706,1177,0,0
-511,-153,0,0,0,0,0,0,0,0,0,-1,713,1177,0,0
-504,-153,0,0,0,0,0,0,0,0,0,-1,720,1177,0,0
-497,-153,0,0,0,0,0,0,0,0,0,-1,727,1177,0,0
-490,-153,0,0,0,0,0,0,0,0,0,-1,734,1177,0,0
-483,-153,0,0,0,0,0,0,0,0,0,-1,741,1177,0,0
-476,-153,0,0,0,0,0,0,0,0,0,-1,748,1177,0,0
-469,-153,0,0,0,0,0,0,0,0,0,-1,755,1177,0,0
-462,-153,0,0,0,0,0,0,0,0,0,-1,762,1177,0,0
-455,-153,0,0,0,0,0,0,0,0,0,-1,769,1177,0,0
-448,-153,0,0,0,0,0,0,0,0,0,-1,776,1177,0,0
-441,-153,0,0,0,0,0,0,0,0,0,-1,783,1177,0,0
-434,-153,0,0,0,0,0,0,0,0,0,-1,790,1177,0,0
-427,-153,0,0,0,0,0,0,0,0,0,-1,797,1177,0,0
-420,-153,0,0,0,0,0,0,0,0,0,-1,804,1177,0,0
-413,-153,0,0,0,0,0,0,0,0,0,-1,811,1177,0,0
-406,-153,0,0,0,0,0,0,0,0,0,-1,818,1177,0,0
-399,-153,0,0,0,0,0,0,0,0,0,-1,825,1177,0,0
-392,-153,0,0,0,0,0,0,0,0,0,-1,832,1177,0,0
-385,-153,0,0,0,0,0,0,0,0,0,-1,839,1177,0,0
-378,-153,0,0,0,0,0,0,0,0,0,-1,846,1177,0,0
-371,-153,0,0,0,0,0,0,0,0,0,-1,853,1177,0,0
-364,-153,0,0,0,0,0,0,0,0,0,-1,860,1177,0,0
-357,-153,0,0,0,0,0,0,0,0,0,-1,867,1177,0,0
-350,-153,0,0,0,0,0,0,0,0,0,-1,874,1177,0,0
-343,-153,0,0,0,0,0,0,0,0,0,-1,881,1177,0,0
-336,-153,0,0,0,0,0,0,0,0,0,-1,888,1177,0,0
-329,-153,0,0,0,0,0,0,0,0,0,-1,895,1177,0,0
-322,-153,0,0,0,0,0,0,0,0,0,-1,902,1177,0,0
-315,-153,0,0,0,0,0,0,0,0,0,-1,909,1177,0,0
-308,-153,0,0,0,0,0,0,0,0,0,-1,916,1177,0,0
-301,-153,0,0,0,0,0,0,0,0,0,-1,923,1177,0,0
-294,-153,0,0,0,0,0,0,0,0,0,-1,930,1177,0,0
-287,-153,0,0,0,0,0,0,0,0,0,-1,937,1177,0,0
-280,-153,0,0,0,0,0,0,0,0,0,-1,944,1177,0,0
-273,-153,0,0,0,0,0,0,0,0,0,-1,951,1177,0,0
-266,-153,0,0,0,0,0,0,0,0,0,-1,958,1177,0,0
-259,-153,0,0,0,0,0,0,0,0,0,-1,965,1177,0,0
-252,-153,0,0,0,0,0,0,0,0,0,-1,972,1177,0,0
-245,-153,0,0,0,0,0,0,0,0,0,-1,979,1177,0,0
-238,-153,0,0,0,0,0,0,0,0,0,-1,986,1177,0,0
-231,-153,0,0,0,0,0,0,0,0,0,-1,993,1177,0,0
-224,-153,0,0,0,0,0,0,0,0,0,-1,1000,1177,0,0
-217,-153,0,0,0,0,0,0,0,0,0,-1,1007,1177,0,0
-210,-153,0,0,0,0,0,0,0,0,0,-1,1014,1177,0,0
-203,-153,0,0,0,0,0,0,0,0,0,-1,1021,1177,0,0
-196,-153,0,0,0,0,0,0,0,0,0,-1,1028,1177,0,0
-189,-153,0,0,0,0,0,0,0,0,0,-1,1035,1177,0,0
-182,-153,0,0,0,0,0,0,0,0,0,-1,1042,1177,0,0
-175,-153,0,0,0,0,0,0,0,0,0,-1,1049,1177,0,0
-168,-153,0,0,0,0,0,0,0,0,0,-1,1056,1177,0,0
-161,-153,0,0,0,0,0,0,0,0,0,-1,1063,1177,0,0
-154,-153,0,0,0,0,0,0,0,0,0,-1,1070,1177,0,0
-147,-153,0,0,0,0,0,0,0,0,0,-1,1077,1177,0,0
-140,-153,0,0,0,0,0,0,0,0,0,-1,1084,1177,0,0
-133,-153,0,0,0,0,0,0,0,0,0,-1,1091,1177,0,0
-126,-153,0,0,0,0,0,0,0,0,0,-1,1098,1177,0,0
-119,-153,0,0,0,0,0,0,0,0,0,-1,1105,1177,0,0
-112,-153,0,0,0,0,0,0,0,0,0,-1,1112,1177,0,0
-105,-153,0,0,0,0,0,0,0,0,0,-1,1119,1177,0,0
-98,-153,0,0,0,0,0,0,0,0,0,-1,1126,1177,0,0
-91,-153,0,0,0,0,0,0,0,0,0,-1,1133,1177,0,0
-84,-153,0,0,0,0,0,0,0,0,0,-1,1140,1177,0,0
-77,-153,0,0,0,0,0,0,0,0,0,-1,1147,1177,0,0
-70,-153,0,0,0,0,0,0,0,0,0,-1,1154,1177,0,0
-63,-153,0,0,0,0,0,0,0,0,0,-1,1161,1177,0,0
-56,-153,0,0,0,0,0,0,0,0,0,-1,1168,1177,0,0
-49,-153,0,0,0,0,0,0,0,0,0,-1,1175,1177,0,0
-42,-153,0,0,0,0,0,0,0,0,0,-1,1182,1177,0,0
-35,-153,0,0,0,0,0,0,0,0,0,-1,1189,1177,0,0
-28,-153,0,0,0,0,0,0,0,0,0,-1,1196,1177,0,0
-21,-153,0,0,0,0,0,0,0,0,0,-1,1203,1177,0,0
-14,-153,0,0,0,0,0,0,0,0,0,-1,1210,1177,0,0
-7,-153,0,0,0,0,0,0,0,0,0,-1,1217,1177,0,0
0,-153,0,0,0,0,0,0,0,0,0,-1,1224,1177,0,0
7,-153,0,0,0,0,0,0,0,0,0,-1,1231,1177,0,0
14,-153,0,0,0,0,0,0,0,0,0,-1,1238,1177,0,0
21,-153,0,0,0,0,0,0,0,0,0,-1,1245,1177,0,0
28,-153,0,0,0,0,0,0,0,0,0,-1,1252,1177,0,0
35,-153,0,0,0,0,0,0,0,0,0,-1,1259,1177,0,0
42,-153,0,0,0,0,0,0,0,0,0,-1,1266,1177,0,0
49,-153,0,0,0,0,0,0,0,0,0,-1,1273,1177,0,0
56,-153,0,0,0,0,0,0,0,0,0,-1,1280,1177,0,0
63,-153,0,0,0,0,0,0,0,0,0,-1,1287,1177,0,0
70,-153,0,0,0,0,0,0,0,0,0,-1,1294,1177,0,0
77,-153,0,0,0,0,0,0,0,0,0,-1,1301,1177,0,0
84,-153,0,0,0,0,0,0,0,0,0,-1,1308,1177,0,0
91,-153,0,0,0,0,0,0,0,0,0,-1,1315,1177,0,0
98,-153,0,0,0,0,0,0,0,0,0,-1,1322,1177,0,0
105,-153,0,0,0,0,0,0,0,0,0,-1,1329,1177,0,0
112,-153,0,0,0,0,0,0,0,0,0,-1,1336,1177,0,0
119,-153,0,0,0,0,0,0,0,0,0,-1,1343,1177,0,0
126,-153,0,0,0,0,0,0,0,0,0,-1,1350,1177,0,0
133,-153,0,0,0,0,0,0,0,0,0,-1,1357,1177,0,0
140,-153,0,0,0,0,0,0,0,0,0,-1,1364,1177,0,0
147,-153,0,0,0,0,0,0,0,0,0,-1,1371,1177,0,0
154,-153,0,0,0,0,0,0,0,0,0,-1,1378,1177,0,0
161,-153,0,0,0,0,0,0,0,0,0,-1,1385,1177,0,0
168,-153,0,0,0,0,0,0,0,0,0,-1,1392,1177,0,0
175,-153,0,0,0,0,0,0,0,0,0,-1,1399,1177,0,0
182,-153,0,0,0,0,0,0,0,0,0,-1,1406,1177,0,0
189,-153,0,0,0,0,0,0,0,0,0,-1,1413,1177,0,0
196,-153,0,0,0,0,0,0,0,0,0,-1,1420,1177,0,0
203,-153,0,0,0,0,0,0,0,0,0,-1,1427,1177,0,0
210,-153,0,0,0,0,0,0,0,0,0,-1,1434,1177,0,0
217,-153,0,0,0,0,0,0,0,0,0,-1,1441,1177,0,0
224,-153,0,0,0,0,0,0,0,0,0,-1,1448,1177,0,0
231,-153,0,0,0,0,0,0,0,0,0,-1,1455,1177,0,0
238,-153,0,0,0,0,0,0,0,0,0,-1,1462,1177,0,0
245,-153,0,0,0,0,0,0,0,0,0,-1,1469,1177,0,0
252,-153,0,0,0,0,0,0,0,0,0,-1,1476,1177,0,0
259,-153,0,0,0,0,0,0,0,0,0,-1,1483,1177,0,0
266,-153,0,0,0,0,0,0,0,0,0,-1,1490,1177,0,0
273,-153,0,0,0,0,0,0,0,0,0,-1,1497,1177,0,0
280,-153,0,0,0,0,0,0,0,0,0,-1,1504,1177,0,0
287,-153,0,0,0,0,0,0,0,0,0,-1,1511,1177,0,0
294,-153,0,0,0,0,0,0,0,0,0,-1,1518,1177,0,0
301,-153,0,0,0,0,0,0,0,0,0,-1,1525,1177,0,0
308,-153,0,0,0,0,0,0,0,0,0,-1,1532,1177,0,0
315,-153,0,0,0,0,0,0,0,0,0,-1,1539,1177,0,0
322,-153,0,0,0,0,0,0,0,0,0,-1,1546,1177,0,0
329,-153,0,0,0,0,0,0,0,0,0,-1,1553,1177,0,0
336,-153,0,0,0,0,0,0,0,0,0,-1,1560,1177,0,0
343,-153,0,0,0,0,0,0,0,0,0,-1,1567,1177,0,0
350,-153,0,0,0,0,0,0,0,0,0,-1,1574,1177,0,0
357,-153,0,0,0,0,0,0,0,0,0,-1,1581,1177,0,0
364,-153,0,0,0,0,0,0,0,0,0,-1,1588,1177,0,0
371,-153,0,0,0,0,0,0,0,0,0,-1,1595,1177,0,0
378,-153,0,0,0,0,0,0,0,0,0,-1,1602,1177,0,0
385,-153,0,0,0,0,0,0,0,0,0,-1,1609,1177,0,0
392,-153,0,0,0,0,0,0,0,0,0,-1,1616,1177,0,0
399,-153,0,0,0,0,0,0,0,0,0,-1,1623,1177,0,0
406,-153,0,0,0,0,0,0,0,0,0,-1,1630,1177,0,0
413,-153,0,0,0,0,0,0,0,0,0,-1,1637,1177,0,0
420,-153,0,0,0,0,0,0,0,0,0,-1,1644,1177,0,0
427,-153,0,0,0,0,0,0,0,0,0,-1,1651,1177,0,0
434,-153,0,0,0,0,0,0,0,0,0,-1,1658,1177,0,0
441,-153,0,0,0,0,0,0,0,0,0,-1,1665,1177,0,0
448,-153,0,0,0,0,0,0,0,0,0,-1,1672,1177,0,0
455,-153,0,0,0,0,0,0,0,0,0,-1,1679,1177,0,0
462,-153,0,0,0,0,0,0,0,0,0,-1,1686,1177,0,0
469,-153,0,0,0,0,0,0,0,0,0,-1,1693,1177,0,0
476,-153,0,0,0,0,0,0,0,0,0,-1,1700,1177,0,0
483,-153,0,0,0,0,0,0,0,0,0,-1,1707,1177,0,0
490,-153,0,0,0,0,0,0,0,0,0,-1,1714,1177,0,0
497,-153,0,0,0,0,0,0,0,0,0,-1,1721,1177,0,0
504,-153,0,0,0,0,0,0,0,0,0,-1,1728,1177,0,0
511,-153,0,0,0,0,0,0,0,0,0,-1,1735,1177,0,0
518,-153,0,0,0,0,0,0,0,0,0,-1,1742,1177,0,0
525,-153,0,0,0,0,0,0,0,0,0,-1,1749,1177,0,0
532,-153,0,0,0,0,0,0,0,0,0,-1,1756,1177,0,0
539,-153,0,0,0,0,0,0,0,0,0,-1,1763,1177,0,0
546,-153,0,0,0,0,0,0,0,0,0,-1,1770,1177,0,0
553,-153,0,0,0,0,0,0,0,0,0,-1,1777,1177,0,0
560,-153,0,0,0,0,0,0,0,0,0,-1,1784,1177,0,0
567,-153,0,0,0,0,0,0,0,0,0,-1,1791,1177,0,0
574,-153,0,0,0,0,0,0,0,0,0,-1,1798,1177,0,0
581,-153,0,0,0,0,0,0,0,0,0,-1,1805,1177,0,0
588,-153,0,0,0,0,0,0,0,0,0,-1,1812,1177,0,0
595,-153,0,0,0,0,0,0,0,0,0,-1,1819,1177,0,0
602,-153,0,0,0,0,0,0,0,0,0,-1,1826,1177,0,0
609,-153,0,0,0,0,0,0,0,0,0,-1,1833,1177,0,0
616,-153,0,0,0,0,0,0,0,0,0,-1,1840,1177,0,0
623,-153,0,0,0,0,0,0,0,0,0,-1,1847,1177,0,0
630,-153,0,0,0,0,0,0,0,0,0,-1,1854,1177,0,0
637,-153,22.2013,2.91968,-0.00495922,-0.00593506,-0.000428543,-0.00479774,-0.00609653,-0.360351,0.00370804,0.0394431,1861,1177,22.2013,-2.91967
644,-153,22.2145,2.90259,-0.00352153,-0.00483323,4.74338e-05,-0.00351981,-0.00483495,0.036099,0.00288657,0.0371539,1868,1177,22.2145,-2.90261
651,-153,22.2211,2.86267,-0.00211864,-0.00356064,9.70062e-05,-0.00211214,-0.00356714,0.0668701,0.00207111,0.0307772,1875,1177,22.2211,-2.86272
658,-153,22.1819,2.85254,-0.000927192,-0.00249369,0.000123693,-0.000917486,-0.0025034,0.0783149,0.00146241,0.0363754,1882,1177,22.1818,-2.85249
665,-153,22.1516,2.99915,-0.00101747,-0.00197267,0.000686302,-0.000658936,-0.0023312,0.481412,0.00138765,0.0374347,1889,1177,22.1516,-2.99915
672,-153,22.1545,2.96143,-0.00167443,-0.00173153,0.00132308,-0.000379596,-0.00302637,0.77461,0.0019037,0.0369994,1896,1177,22.1545,-2.96144
679,-153,22.104,2.76831,-0.00259423,-0.00167827,0.0019514,-0.00013183,-0.00414067,0.900659,0.00271757,0.0279262,1903,1177,22.104,-2.76827
686,-153,22.1221,2.81079,-0.00354494,-0.00174685,0.00249626,7.32369e-06,-0.00529911,0.958245,0.00353519,0.0163987,1910,1177,22.1221,-2.81076
693,-153,22.1608,2.71399,-0.00435462,-0.00159901,0.00294446,0.00027406,-0.00622769,1.00423,0.0042461,0.0254929,1917,1177,22.1607,-2.71399
700,-153,21.8811,3.66028,0,0,0,0,0,0,0,-1,1924,1177,21.8811,-3.66029
707,-153,21.0916,4.18311,-0.00529876,-0.00166379,0.00362881,0.000577241,-0.00753979,1.01756,0.00522957,0.0467985,1931,1177,21.0915,-4.18309
714,-153,20.4481,4.646,-0.00587408,-0.0015934,0.00370662,0.000546452,-0.00801394,1.04723,0.00553378,0.0285696,1938,1177,20.4482,-4.64603
721,-153,20.4673,4.54517,-0.00605331,-0.00146485,0.00377131,0.00065525,-0.00817341,1.05866,0.00567997,0.0236137,1945,1177,20.4672,-4.5452
728,-153,20.5154,4.4447,-0.005618,-0.00127753,0.00365183,0.000800266,-0.0076958,1.0535,0.00541703,0.0280241,1952,1177,20.5154,-4.44469
735,-153,20.3302,4.38745,-0.00482038,-0.00112067,0.00310719,0.000645627,-0.00658668,1.05389,0.00462139,0.0161521,1959,1177,20.3302,-4.3874
742,-153,20.3378,4.28259,-0.00343476,-0.000437133,0.0025481,0.00102028,-0.00489218,1.05125,0.0036494,0.0142074,1966,1177,20.3377,-4.28257
749,-153,20.3286,4.17725,-2.35772e-05,-0.00101144,0.00151816,0.00107898,-0.002114,0.628125,0.00187548,0.0158365,1973,1177,20.3286,-4.17726
756,-153,20.3177,4.03821,0.00505106,-0.00114865,0.000312715,0.00506679,-0.00116438,0.0502703,0.00382552,0.0113269,1980,1177,20.3177,-4.03823
763,-153,20.3176,3.90698,0.0105793,-0.00166383,-0.00105476,0.0106695,-0.00175404,-0.0853137,0.00776398,0.0104612,1987,1177,20.3176,-3.90702
770,-153,20.3365,3.78748,0.0172908,-0.00276153,-0.00232169,0.0175561,-0.00302683,-0.113776,0.0128325,0.009698,1994,1177,20.3366,-3.78748
777,-153,20.3273,3.65686,0.0259214,-0.00458013,-0.00364487,0.0263509,-0.00500964,-0.117297,0.0194534,0.0199835,2001,1177,20.3273,-3.65682
784,-153,20.3312,3.48413,0.0373913,-0.0071587,-0.0053075,0.0380149,-0.00778228,-0.116955,0.0282964,0.0413479,2008,1177,20.3311,-3.48419
791,-153,20.451,3.35718,0,0,0,0,0,0,0,-1,2015,1177,20.4511,-3.35717
798,-153,21.0057,3.10974,0.0716417,-0.014884,-0.00984053,0.0727467,-0.015989,-0.111827,0.0546133,0.0446856,2022,1177,21.0057,-3.10976
805,-153,22.4204,4.66809,0.0959001,-0.020042,-0.0127769,0.0972914,-0.0214334,-0.108467,0.073061,0.0439372,2029,1177,22.4204,-4.66815
812,-153,0,0,0,0,0,0,0,0,0,-1,2036,1177,0,0
-700,-160,0,0,0,0,0,0,0,0,0,-1,524,1184,0,0
-693,-160,0,0,0,0,0,0,0,0,0,-1,531,1184,0,0
-686,-160,-14.3821,-2.573,4.93879e-05,0.0130309,0.00486969,0.0146545,-0.00157427,1.24897,0.0103345,0.0446522,538,1184,-14.3821,2.57303
-679,-160,-13.9014,-1.95337,0,0,0,0,0,0,0,-1,545,1184,-13.9013,1.9534
-672,-160,-13.4347,-1.32495,0,0,0,0,0,0,0,-1,552,1184,-13.4347,1.325
-665,-160,-11.8444,-0.0107422,0,0,0,0,0,0,0,-1,559,1184,-11.8444,0.0107718
-658,-160,-11.8381,0.743774,0,0,0,0,0,0,0,-1,566,1184,-11.8381,-0.743806
-651,-160,-11.9376,1.07849,-0.00877513,0.00940631,0.00296732,0.00987834,-0.00924716,1.41304,0.0110441,0.0496592,573,1184,-11.9376,-1.07847
-644,-160,-12.1891,1.25745,-0.00790104,0.0075577,0.00217503,0.0078579,-0.00820124,1.43364,0.00927245,0.0355932,580,1184,-12.1892,-1.25748
-637,-160,-12.3817,1.33582,-0.00677421,0.00587547,0.00147948,0.0060462,-0.00694494,1.4559,0.00750642,0.0140385,587,1184,-12.3817,-1.33583
-630,-160,-12.4133,1.47449,-0.00618634,0.00437788,0.000490518,0.00440061,-0.00620907,1.5245,0.00615509,0.00888789,594,1184,-12.4133,-1.47452
-623,-160,-12.4424,1.61475,-0.00577013,0.00275211,-0.000254637,0.00275971,-0.00577773,-1.54095,0.00503071,0.0121321,601,1184,-12.4425,-1.61469
-616,-160,-12.4523,1.77454,-0.00533315,0.00113751,-0.0012284,0.00136286,-0.00555851,-1.38936,0.00423372,0.0107361,608,1184,-12.4524,-1.7746
-609,-160,-12.4424,1.95544,-0.0051315,0.000238969,-0.00202788,0.000918665,-0.0058112,-1.24739,0.00421387,0.0121502,615,1184,-12.4424,-1.95545
-602,-160,-12.4098,2.14954,-0.00513901,-0.000563266,-0.0025703,0.000589906,-0.00629218,-1.14906,0.00440461,0.0195862,622,1184,-12.4098,-2.14951
-595,-160,-12.4031,2.34534,-0.0052253,-0.00106811,-0.0030108,0.000511914,-0.00680532,-1.08752,0.00471679,0.0241179,629,1184,-12.4031,-2.34531
-588,-160,-12.5251,2.43091,-0.00496342,-0.00132922,-0.00332577,0.000643483,-0.00693613,-1.03542,0.00485282,0.0222788,636,1184,-12.5251,-2.43091
-581,-160,-12.3941,2.60535,-0.00445993,-0.00131403,-0.00347206,0.000924758,-0.00669872,-0.998084,0.00480383,0.01879,643,1184,-12.3941,-2.60529
-574,-160,-12.5464,2.77942,0,0,0,0,0,0,0,-1,650,1184,-12.5464,-2.77945
-567,-160,-13.9423,2.04688,0,0,0,0,0,0,0,-1,657,1184,-13.9423,-2.04691
-560,-160,-14.3361,0.515747,-0.00293109,-0.000721556,-0.00210363,0.000549761,-0.0042024,-1.02719,0.00300168,0.0381586,664,1184,-14.3361,-0.515761
-553,-160,-14.3052,0.670044,-0.00194339,-0.000305635,-0.00134525,0.00045037,-0.0026994,-1.0588,0.00196698,0.0372185,671,1184,-14.3052,-0.670051
-546,-160,-14.3726,0.661743,-0.000630772,0.000241171,-0.000245258,0.000305422,-0.000695023,-1.31458,0.000592026,0.0366829,678,1184,-14.3726,-0.661735
-539,-160,-14.3432,0.680298,0.000865233,0.000955564,0.00135654,0.0022677,-0.000446898,0.802039,0.00168069,0.0396947,685,1184,-14.3432,-0.680308
-532,-160,-14.2265,0.74585,0.00259546,0.00185214,0.00369443,0.00593688,-0.00148928,0.735267,0.00453657,0.0459806,692,1184,-14.2265,-0.745896
-525,-160,-14.183,0.91394,0.00349804,0.00267942,0.00644019,0.00954191,-0.00336445,0.753663,0.00773078,0.0452915,699,1184,-14.183,-0.913978
-518,-160,-14.3854,1.20056,0.00106335,0.00304771,0.00943905,0.0115466,-0.00743553,0.837763,0.0110447,0.0417074,706,1184,-14.3854,-1.2006
-511,-160,0,0,0,0,0,0,0,0,0,-1,713,1184,0,0
-504,-160,0,0,0,0,0,0,0,0,0,-1,720,1184,0,0
-497,-160,0,0,0,0,0,0,0,0,0,-1,727,1184,0,0
-490,-160,0,0,0,0,0,0,0,0,0,-1,734,1184,0,0
-483,-160,0,0,0,0,0,0,0,0,0,-1,741,1184,0,0
-476,-160,0,0,0,0,0,0,0,0,0,-1,748,1184,0,0
-469,-160,0,0,0,0,0,0,0,0,0,-1,755,1184,0,0
-462,-160,0,0,0,0,0,0,0,0,0,-1,762,1184,0,0
-455,-160,0,0,0,0,0,0,0,0,0,-1,769,1184,0,0
-448,-160,0,0,0,0,0,0,0,0,0,-1,776,1184,0,0
-441,-160,0,0,0,0,0,0,0,0,0,-1,783,1184,0,0
-434,-160,0,0,0,0,0,0,0,0,0,-1,790,1184,0,0
-427,-160,0,0,0,0,0,0,0,0,0,-1,797,1184,0,0
-420,-160,0,0,0,0,0,0,0,0,0,-1,804,1184,0,0
-413,-160,0,0,0,0,0,0,0,0,0,-1,811,1184,0,0
-406,-160,0,0,0,0,0,0,0,0,0,-1,818,1184,0,0
-399,-160,0,0,0,0,0,0,0,0,0,-1,825,1184,0,0
-392,-160,0,0,0,0,0,0,0,0,0,-1,832,1184,0,0
-385,-160,0,0,0,0,0,0,0,0,0,-1,839,1184,0,0
-378,-160,0,0,0,0,0,0,0,0,0,-1,846,1184,0,0
-371,-160,0,0,0,0,0,0,0,0,0,-1,853,1184,0,0
-364,-160,0,0,0,0,0,0,0,0,0,-1,860,1184,0,0
-357,-160,0,0,0,0,0,0,0,0,0,-1,867,1184,0,0
-350,-160,0,0,0,0,0,0,0,0,0,-1,874,1184,0,0
-343,-160,0,0,0,0,0,0,0,0,0,-1,881,1184,0,0
-336,-160,0,0,0,0,0,0,0,0,0,-1,888,1184,0,0
-329,-160,0,0,0,0,0,0,0,0,0,-1,895,1184,0,0
-322,-160,0,0,0,0,0,0,0,0,0,-1,902,1184,0,0
-315,-160,0,0,0,0,0,0,0,0,0,-1,909,1184,0,0
-308,-160,0,0,0,0,0,0,0,0,0,-1,916,1184,0,0
-301,-160,0,0,0,0,0,0,0,0,0,-1,923,1184,0,0
-294,-160,0,0,0,0,0,0,0,0,0,-1,930,1184,0,0
-287,-160,0,0,0,0,0,0,0,0,0,-1,937,1184,0,0
-280,-160,0,0,0,0,0,0,0,0,0,-1,944,1184,0,0
-273,-160,0,0,0,0,0,0,0,0,0,-1,951,1184,0,0
-266,-160,0,0,0,0,0,0,0,0,0,-1,958,1184,0,0
-259,-160,0,0,0,0,0,0,0,0,0,-1,965,1184,0,0
-252,-160,0,0,0,0,0,0,0,0,0,-1,972,1184,0,0
-245,-160,0,0,0,0,0,0,0,0,0,-1,979,1184,0,0
-238,-160,0,0,0,0,0,0,0,0,0,-1,986,1184,0,0
-231,-160,0,0,0,0,0,0,0,0,0,-1,993,1184,0,0
-224,-160,0,0,0,0,0,0,0,0,0,-1,1000,1184,0,0
-217,-160,0,0,0,0,0,0,0,0,0,-1,1007,1184,0,0
-210,-160,0,0,0,0,0,0,0,0,0,-1,1014,1184,0,0
-203,-160,0,0,0,0,0,0,0,0,0,-1,1021,1184,0,0
-196,-160,0,0,0,0,0,0,0,0,0,-1,1028,1184,0,0
-189,-160,0,0,0,0,0,0,0,0,0,-1,1035,1184,0,0
-182,-160,0,0,0,0,0,0,0,0,0,-1,1042,1184,0,0
-175,-160,0,0,0,0,0,0,0,0,0,-1,1049,1184,0,0
-168,-160,0,0,0,0,0,0,0,0,0,-1,1056,1184,0,0
-161,-160,0,0,0,0,0,0,0,0,0,-1,1063,1184,0,0
-154,-160,0,0,0,0,0,0,0,0,0,-1,1070,1184,0,0
-147,-160,0,0,0,0,0,0,0,0,0,-1,1077,1184,0,0
-140,-160,0,0,0,0,0,0,0,0,0,-1,1084,1184,0,0
-133,-160,0,0,0,0,0,0,0,0,0,-1,1091,1184,0,0
-126,-160,0,0,0,0,0,0,0,0,0,-1,1098,1184,0,0
-119,-160,0,0,0,0,0,0,0,0,0,-1,1105,1184,0,0
-112,-160,0,0,0,0,0,0,0,0,0,-1,1112,1184,0,0
-105,-160,0,0,0,0,0,0,0,0,0,-1,1119,1184,0,0
-98,-160,0,0,0,0,0,0,0,0,0,-1,1126,1184,0,0
-91,-160,0,0,0,0,0,0,0,0,0,-1,1133,1184,0,0
-84,-160,0,0,0,0,0,0,0,0,0,-1,1140,1184,0,0
-77,-160,0,0,0,0,0,0,0,0,0,-1,1147,1184,0,0
-70,-160,0,0,0,0,0,0,0,0,0,-1,1154,1184,0,0
-63,-160,0,0,0,0,0,0,0,0,0,-1,1161,1184,0,0
-56,-160,0,0,0,0,0,0,0,0,0,-1,1168,1184,0,0
-49,-160,0,0,0,0,0,0,0,0,0,-1,1175,1184,0,0
-42,-160,0,0,0,0,0,0,0,0,0,-1,1182,1184,0,0
-35,-160,0,0,0,0,0,0,0,0,0,-1,1189,1184,0,0
-28,-160,0,0,0,0,0,0,0,0,0,-1,1196,1184,0,0
-21,-160,0,0,0,0,0,0,0,0,0,-1,1203,1184,0,0
-14,-160,0,0,0,0,0,0,0,0,0,-1,1210,1184,0,0
-7,-160,0,0,0,0,0,0,0,0,0,-1,1217,1184,0,0
0,-160,0,0,0,0,0,0,0,0,0,-1,1224,1184,0,0
7,-160,0,0,0,0,0,0,0,0,0,-1,1231,1184,0,0
14,-160,0,0,0,0,0,0,0,0,0,-1,1238,1184,0,0
21,-160,0,0,0,0,0,0,0,0,0,-1,1245,1184,0,0
28,-160,0,0,0,0,0,0,0,0,0,-1,1252,1184,0,0
35,-160,0,0,0,0,0,0,0,0,0,-1,1259,1184,0,0
42,-160,0,0,0,0,0,0,0,0,0,-1,1266,1184,0,0
49,-160,0,0,0,0,0,0,0,0,0,-1,1273,1184,0,0
56,-160,0,0,0,0,0,0,0,0,0,-1,1280,1184,0,0
63,-160,0,0,0,0,0,0,0,0,0,-1,1287,1184,0,0
70,-160,0,0,0,0,0,0,0,0,0,-1,1294,1184,0,0
77,-160,0,0,0,0,0,0,0,0,0,-1,1301,1184,0,0
84,-160,0,0,0,0,0,0,0,0,0,-1,1308,1184,0,0
91,-160,0,0,0,0,0,0,0,0,0,-1,1315,1184,0,0
98,-160,0,0,0,0,0,0,0,0,0,-1,1322,1184,0,0
105,-160,0,0,0,0,0,0,0,0,0,-1,1329,1184,0,0
112,-160,0,0,0,0,0,0,0,0,0,-1,1336,1184,0,0
119,-160,0,0,0,0,0,0,0,0,0,-1,1343,1184,0,0
126,-160,0,0,0,0,0,0,0,0,0,-1,1350,1184,0,0
133,-160,0,0,0,0,0,0,0,0,0,-1,1357,1184,0,0
140,-160,0,0,0,0,0,0,0,0,0,-1,1364,1184,0,0
147,-160,0,0,0,0,0,0,0,0,0,-1,1371,1184,0,0
154,-160,0,0,0,0,0,0,0,0,0,-1,1378,1184,0,0
161,-160,0,0,0,0,0,0,0,0,0,-1,1385,1184,0,0
168,-160,0,0,0,0,0,0,0,0,0,-1,1392,1184,0,0
175,-160,0,0,0,0,0,0,0,0,0,-1,1399,1184,0,0
182,-160,0,0,0,0,0,0,0,0,0,-1,1406,1184,0,0
189,-160,0,0,0,0,0,0,0,0,0,-1,1413,1184,0,0
196,-160,0,0,0,0,0,0,0,0,0,-1,1420,1184,0,0
203,-160,0,0,0,0,0,0,0,0,0,-1,1427,1184,0,0
210,-160,0,0,0,0,0,0,0,0,0,-1,1434,1184,0,0
217,-160,0,0,0,0,0,0,0,0,0,-1,1441,1184,0,0
224,-160,0,0,0,0,0,0,0,0,0,-1,1448,1184,0,0
231,-160,0,0,0,0,0,0,0,0,0,-1,1455,1184,0,0
238,-160,0,0,0,0,0,0,0,0,0,-1,1462,1184,0,0
245,-160,0,0,0,0,0,0,0,0,0,-1,1469,1184,0,0
252,-160,0,0,0,0,0,0,0,0,0,-1,1476,1184,0,0
259,-160,0,0,0,0,0,0,0,0,0,-1,1483,1184,0,0
266,-160,0,0,0,0,0,0,0,0,0,-1,1490,1184,0,0
273,-160,0,0,0,0,0,0,0,0,0,-1,1497,1184,0,0
280,-160,0,0,0,0,0,0,0,0,0,-1,1504,1184,0,0
287,-160,0,0,0,0,0,0,0,0,0,-1,1511,1184,0,0
294,-160,0,0,0,0,0,0,0,0,0,-1,1518,1184,0,0
301,-160,0,0,0,0,0,0,0,0,0,-1,1525,1184,0,0
308,-160,0,0,0,0,0,0,0,0,0,-1,1532,1184,0,0
315,-160,0,0,0,0,0,0,0,0,0,-1,1539,1184,0,0
322,-160,0,0,0,0,0,0,0,0,0,-1,1546,1184,0,0
329,-160,0,0,0,0,0,0,0,0,0,-1,1553,1184,0,0
336,-160,0,0,0,0,0,0,0,0,0,-1,1560,1184,0,0
343,-160,0,0,0,0,0,0,0,0,0,-1,1567,1184,0,0
350,-160,0,0,0,0,0,0,0,0,0,-1,1574,1184,0,0
357,-160,0,0,0,0,0,0,0,0,0,-1,1581,1184,0,0
364,-160,0,0,0,0,0,0,0,0,0,-1,1588,1184,0,0
371,-160,0,0,0,0,0,0,0,0,0,-1,1595,1184,0,0
378,-160,0,0,0,0,0,0,0,0,0,-1,1602,1184,0,0
385,-160,0,0,0,0,0,0,0,0,0,-1,1609,1184,0,0
392,-160,0,0,0,0,0,0,0,0,0,-1,1616,1184,0,0
399,-160,0,0,0,0,0,0,0,0,0,-1,1623,1184,0,0
406,-160,0,0,0,0,0,0,0,0,0,-1,1630,1184,0,0
413,-160,0,0,0,0,0,0,0,0,0,-1,1637,1184,0,0
420,-160,0,0,0,0,0,0,0,0,0,-1,1644,1184,0,0
427,-160,0,0,0,0,0,0,0,0,0,-1,1651,1184,0,0
434,-160,0,0,0,0,0,0,0,0,0,-1,1658,1184,0,0
441,-160,0,0,0,0,0,0,0,0,0,-1,1665,1184,0,0
448,-160,0,0,0,0,0,0,0,0,0,-1,1672,1184,0,0
455,-160,0,0,0,0,0,0,0,0,0,-1,1679,1184,0,0
462,-160,0,0,0,0,0,0,0,0,0,-1,1686,1184,0,0
469,-160,0,0,0,0,0,0,0,0,0,-1,1693,1184,0,0
476,-160,0,0,0,0,0,0,0,0,0,-1,1700,1184,0,0
483,-160,0,0,0,0,0,0,0,0,0,-1,1707,1184,0,0
490,-160,0,0,0,0,0,0,0,0,0,-1,1714,1184,0,0
497,-160,0,0,0,0,0,0,0,0,0,-1,1721,1184,0,0
504,-160,0,0,0,0,0,0,0,0,0,-1,1728,1184,0,0
511,-160,0,0,0,0,0,0,0,0,0,-1,1735,1184,0,0
518,-160,0,0,0,0,0,0,0,0,0,-1,1742,1184,0,0
525,-160,0,0,0,0,0,0,0,0,0,-1,1749,1184,0,0
532,-160,0,0,0,0,0,0,0,0,0,-1,1756,1184,0,0
539,-160,0,0,0,0,0,0,0,0,0,-1,1763,1184,0,0
546,-160,0,0,0,0,0,0,0,0,0,-1,1770,1184,0,0
553,-160,0,0,0,0,0,0,0,0,0,-1,1777,1184,0,0
560,-160,0,0,0,0,0,0,0,0,0,-1,1784,1184,0,0
567,-160,0,0,0,0,0,0,0,0,0,-1,1791,1184,0,0
574,-160,0,0,0,0,0,0,0,0,0,-1,1798,1184,0,0
581,-160,0,0,0,0,0,0,0,0,0,-1,1805,1184,0,0
588,-160,0,0,0,0,0,0,0,0,0,-1,1812,1184,0,0
595,-160,0,0,0,0,0,0,0,0,0,-1,1819,1184,0,0
602,-160,0,0,0,0,0,0,0,0,0,-1,1826,1184,0,0
609,-160,0,0,0,0,0,0,0,0,0,-1,1833,1184,0,0
616,-160,0,0,0,0,0,0,0,0,0,-1,1840,1184,0,0
623,-160,0,0,0,0,0,0,0,0,0,-1,1847,1184,0,0
630,-160,0,0,0,0,0,0,0,0,0,-1,1854,1184,0,0
637,-160,22.2294,3.03162,-0.00431357,-0.0060936,0.000568139,-0.00414769,-0.00625948,0.28407,0.00367708,0.0439655,1861,1184,22.2293,-3.03163
644,-160,22.2272,3.02808,-0.0029687,-0.0047383,0.000603829,-0.0027823,-0.00492471,0.299424,0.00285127,0.0428338,1868,1184,22.2271,-3.02805
651,-160,22.157,3.0448,-0.00153756,-0.00322081,0.00034221,-0.00147064,-0.00328772,0.193094,0.00190168,0.0395998,1875,1184,22.157,-3.04481
658,-160,22.1246,3.11316,-0.00043274,-0.0020539,0.000218218,-0.00040388,-0.00208276,0.131489,0.00127538,0.0393191,1882,1184,22.1247,-3.11313
665,-160,22.1957,3.02075,-0.000413503,-0.00148565,0.000569139,-0.000167724,-0.00173143,0.407653,0.00110264,0.0369979,1889,1184,22.1956,-3.0208
672,-160,22.1611,2.85059,-0.000874548,-0.00124253,0.00098379,-5.76931e-05,-0.00205939,0.692954,0.0013541,0.0318656,1896,1184,22.1611,-2.85058
679,-160,22.1182,2.78638,-0.00163292,-0.00121025,0.00145899,5.26335e-05,-0.00289581,0.857323,0.00194832,0.023788,1903,1184,22.1182,-2.78634
686,-160,22.1506,2.81775,-0.00243747,-0.00132708,0.00186909,6.75321e-05,-0.00383208,0.929767,0.00257753,0.0145848,1910,1184,22.1506,-2.8177
693,-160,22.119,2.64258,-0.00315818,-0.00122081,0.00222218,0.00023464,-0.00461363,0.990938,0.00315688,0.0407002,1917,1184,22.1191,-2.64257
700,-160,20.9255,3.81323,0,0,0,0,0,0,0,-1,1924,1184,20.9256,-3.81319
707,-160,20.1945,5.07153,0,0,0,0,0,0,0,-1,1931,1184,20.1944,-5.07148
714,-160,20.3568,4.75928,-0.00466394,-0.00134289,0.00290791,0.000345204,-0.00635204,1.04482,0.00435432,0.0350778,1938,1184,20.3568,-4.75922
721,-160,20.3616,4.50391,-0.00487347,-0.00128387,0.00302291,0.00043691,-0.00659425,1.0533,0.00454881,0.0170478,1945,1184,20.3615,-4.50387
728,-160,20.3219,4.46094,-0.00449066,-0.00116848,0.00296238,0.000566741,-0.00622588,1.04092,0.00435182,0.0151275,1952,1184,20.322,-4.46093
735,-160,20.2039,4.36804,-0.003755,-0.00108309,0.00244493,0.000367077,-0.00520517,1.03544,0.00359872,0.0135079,1959,1184,20.2038,-4.36804
742,-160,20.2179,4.2561,-0.00234371,-0.000491595,0.00188623,0.000683646,-0.00351896,1.01359,0.00260394,0.0145932,1966,1184,20.2179,-4.25609
749,-160,20.207,4.14893,0.00135252,-0.00114314,0.000774235,0.0015732,-0.00136382,0.277666,0.00169713,0.0160375,1973,1184,20.2071,-4.14889
756,-160,20.1931,4.0166,0.0068145,-0.00135318,-0.000497038,0.00684463,-0.00138332,-0.0605564,0.00508728,0.0112752,1980,1184,20.1931,-4.01663
763,-160,20.2076,3.88904,0.012716,-0.00200671,-0.0019467,0.0129691,-0.00225976,-0.129265,0.00948942,0.0117607,1987,1184,20.2076,-3.88907
770,-160,20.2002,3.77185,0.0201178,-0.0032543,-0.00342493,0.0206093,-0.00374585,-0.142548,0.0151434,0.0179016,1994,1184,20.2002,-3.77189
777,-160,20.1102,3.59229,0.029858,-0.00517986,-0.0051508,0.0305995,-0.00592137,-0.142978,0.0226331,0.0313712,2001,1184,20.1102,-3.59226
784,-160,20.0905,3.17297,0.0427844,-0.00783122,-0.00731909,0.0438216,-0.00886832,-0.140761,0.0325754,0.0422273,2008,1184,20.0904,-3.17297
791,-160,20.181,2.84692,0,0,0,0,0,0,0,-1,2015,1184,20.1811,-2.84688
798,-160,21.6576,5.2793,0.0811321,-0.0153147,-0.0131008,0.08288,-0.0170626,-0.132633,0.0617319,0.0439461,2022,1184,21.6576,-5.27927
805,-160,22.4849,4.58215,0.108016,-0.0199313,-0.0167105,0.110163,-0.0220778,-0.12775,0.0818003,0.0453731,2029,1184,22.4848,-4.58215
812,-160,0,0,0,0,0,0,0,0,0,-1,2036,1184,0,0
-700,-167,0,0,0,0,0,0,0,0,0,-1,524,1191,0,0
-693,-167,0,0,0,0,0,0,0,0,0,-1,531,1191,0,0
-686,-167,-14.7375,-2.2533,0,0,0,0,0,0,0,-1,538,1191,-14.7375,2.25326
-679,-167,-11.5272,-0.245117,0,0,0,0,0,0,0,-1,545,1191,-11.5272,0.245128
-672,-167,-11.4804,-0.0477295,-0.0056513,0.0159767,0.000880714,0.0160125,-0.0056871,1.53017,0.0129925,0.047948,552,1191,-11.4804,0.0477725
-665,-167,-11.5831,0.29895,-0.00841611,0.0142502,0.00118522,0.014312,-0.00847792,1.5187,0.0133007,0.0471264,559,1191,-11.5831,-0.298987
-658,-167,-11.7327,0.559082,-0.00940553,0.0122148,0.00118666,0.0122798,-0.00947047,1.51613,0.0125924,0.0486578,566,1191,-11.7327,-0.559106
-651,-167,-11.6739,0.855225,-0.00928582,0.0101221,0.00100922,0.0101744,-0.00933816,1.51898,0.011269,0.0475741,573,1191,-11.6739,-0.85525
-644,-167,-11.9162,1.11169,-0.00853467,0.00813636,0.000762728,0.00817118,-0.00856949,1.52517,0.00966614,0.0380348,580,1191,-11.9162,-1.11164
-637,-167,-12.1961,1.32239,-0.00742948,0.00633245,0.000486327,0.00634961,-0.00744664,1.53552,0.00797366,0.0164521,587,1191,-12.1961,-1.32242
-630,-167,-12.2383,1.46118,-0.00670175,0.0047812,-0.000164112,0.00478354,-0.00670409,-1.55651,0.00666321,0.00861805,594,1191,-12.2383,-1.46112
-623,-167,-12.2697,1.59875,-0.00619243,0.00309595,-0.000570615,0.00313087,-0.00622735,-1.50967,0.00550068,0.0112081,601,1191,-12.2697,-1.5987
-616,-167,-12.2931,1.77539,-0.00564057,0.00147966,-0.00124552,0.00169125,-0.00585216,-1.40252,0.0045707,0.0143348,608,1191,-12.2931,-1.77537
-609,-167,-12.291,1.95886,-0.00538032,0.000522065,-0.00189175,0.00107633,-0.00593458,-1.28578,0.00435968,0.0135213,615,1191,-12.291,-1.95886
-602,-167,-12.2933,2.08923,-0.00535934,-0.000338425,-0.0023649,0.000600049,-0.00629782,-1.19302,0.00441218,0.0145099,622,1191,-12.2933,-2.08927
-595,-167,-12.2534,2.30261,-0.00544797,-0.000864908,-0.00281777,0.000475494,-0.00678837,-1.12678,0.00469212,0.0206541,629,1191,-12.2534,-2.30264
-588,-167,-12.2821,2.47949,-0.00517812,-0.00124154,-0.00318086,0.000530767,-0.00695043,-1.06246,0.00482029,0.0200367,636,1191,-12.2821,-2.47951
-581,-167,-12.2562,2.54932,-0.00465808,-0.00132037,-0.00337297,0.000774024,-0.00675247,-1.01513,0.00478059,0.0214307,643,1191,-12.2562,-2.54937
-574,-167,-12.474,2.49817,-0.00413888,-0.00125846,-0.00305128,0.000675424,-0.00607277,-1.0059,0.00429141,0.044446,650,1191,-12.474,-2.49814
-567,-167,-13.642,1.8678,0,0,0,0,0,0,0,-1,657,1191,-13.642,-1.86783
-560,-167,-14.6658,1.11304,0,0,0,0,0,0,0,-1,664,1191,-14.6658,-1.11305
-553,-167,-14.3509,0.813477,-0.00224255,-0.000471264,-0.00145965,0.000350414,-0.00306423,-1.05808,0.00216908,0.0388241,671,1191,-14.3509,-0.813473
-546,-167,-14.4052,0.850586,-0.000983908,2.37628e-05,-0.000471979,0.0002103,-0.00117045,-1.19441,0.000859021,0.0342917,678,1191,-14.4052,-0.850646
-539,-167,-14.3146,0.712891,0.000446085,0.000717414,0.0010113,0.00160211,-0.000438612,0.852074,0.0012404,0.0384343,685,1191,-14.3146,-0.712889
-532,-167,-14.2526,0.683105,0.00206224,0.00165466,0.0032768,0.00514158,-0.00142468,0.754343,0.00398835,0.0452705,692,1191,-14.2526,-0.683081
-525,-167,-14.3004,0.947876,0.00308619,0.00274404,0.00631435,0.00923178,-0.00340155,0.771855,0.00754832,0.044576,699,1191,-14.3003,-0.947845
-518,-167,-14.5515,1.43982,0.000675339,0.00347436,0.00997602,0.0121486,-0.00799886,0.855087,0.0117141,0.0429982,706,1191,-14.5515,-1.43982
-511,-167,0,0,0,0,0,0,0,0,0,-1,713,1191,0,0
-504,-167,0,0,0,0,0,0,0,0,0,-1,720,1191,0,0
-497,-167,0,0,0,0,0,0,0,0,0,-1,727,1191,0,0
-490,-167,0,0,0,0,0,0,0,0,0,-1,734,1191,0,0
-483,-167,0,0,0,0,0,0,0,0,0,-1,741,1191,0,0
-476,-167,0,0,0,0,0,0,0,0,0,-1,748,1191,0,0
-469,-167,0,0,0,0,0,0,0,0,0,-1,755,1191,0,0
-462,-167,0,0,0,0,0,0,0,0,0,-1,762,1191,0,0
-455,-167,0,0,0,0,0,0,0,0,0,-1,769,1191,0,0
-448,-167,0,0,0,0,0,0,0,0,0,-1,776,1191,0,0
-441,-167,0,0,0,0,0,0,0,0,0,-1,783,1191,0,0
-434,-167,0,0,0,0,0,0,0,0,0,-1,790,1191,0,0
-427,-167,0,0,0,0,0,0,0,0,0,-1,797,1191,0,0
-420,-167,0,0,0,0,0,0,0,0,0,-1,804,1191,0,0
-413,-167,0,0,0,0,0,0,0,0,0,-1,811,1191,0,0
-406,-167,0,0,0,0,0,0,0,0,0,-1,818,1191,0,0
-399,-167,0,0,0,0,0,0,0,0,0,-1,825,1191,0,0
-392,-167,0,0,0,0,0,0,0,0,0,-1,832,1191,0,0
-385,-167,0,0,0,0,0,0,0,0,0,-1,839,1191,0,0
-378,-167,0,0,0,0,0,0,0,0,0,-1,846,1191,0,0
-371,-167,0,0,0,0,0,0,0,0,0,-1,853,1191,0,0
-364,-167,0,0,0,0,0,0,0,0,0,-1,860,1191,0,0
-357,-167,0,0,0,0,0,0,0,0,0,-1,867,1191,0,0
-350,-167,0,0,0,0,0,0,0,0,0,-1,874,1191,0,0
-343,-167,0,0,0,0,0,0,0,0,0,-1,881,1191,0,0
-336,-167,0,0,0,0,0,0,0,0,0,-1,888,1191,0,0
-329,-167,0,0,0,0,0,0,0,0,0,-1,895,1191,0,0
-322,-167,0,0,0,0,0,0,0,0,0,-1,902,1191,0,0
-315,-167,0,0,0,0,0,0,0,0,0,-1,909,1191,0,0
-308,-167,0,0,0,0,0,0,0,0,0,-1,916,1191,0,0
-301,-167,0,0,0,0,0,0,0,0,0,-1,923,1191,0,0
-294,-167,0,0,0,0,0,0,0,0,0,-1,930,1191,0,0
-287,-167,0,0,0,0,0,0,0,0,0,-1,937,1191,0,0
-280,-167,0,0,0,0,0,0,0,0,0,-1,944,1191,0,0
-273,-167,0,0,0,0,0,0,0,0,0,-1,951,1191,0,0
-266,-167,0,0,0,0,0,0,0,0,0,-1,958,1191,0,0
-259,-167,0,0,0,0,0,0,0,0,0,-1,965,1191,0,0
-252,-167,0,0,0,0,0,0,0,0,0,-1,972,1191,0,0
-245,-167,0,0,0,0,0,0,0,0,0,-1,979,1191,0,0
-238,-167,0,0,0,0,0,0,0,0,0,-1,986,1191,0,0
-231,-167,0,0,0,0,0,0,0,0,0,-1,993,1191,0,0
-224,-167,0,0,0,0,0,0,0,0,0,-1,1000,1191,0,0
-217,-167,0,0,0,0,0,0,0,0,0,-1,1007,1191,0,0
-210,-167,0,0,0,0,0,0,0,0,0,-1,1014,1191,0,0
-203,-167,0,0,0,0,0,0,0,0,0,-1,1021,1191,0,0
-196,-167,0,0,0,0,0,0,0,0,0,-1,1028,1191,0,0
-189,-167,0,0,0,0,0,0,0,0,0,-1,1035,1191,0,0
-182,-167,0,0,0,0,0,0,0,0,0,-1,1042,1191,0,0
-175,-167,0,0,0,0,0,0,0,0,0,-1,1049,1191,0,0
-168,-167,0,0,0,0,0,0,0,0,0,-1,1056,1191,0,0
-161,-167,0,0,0,0,0,0,0,0,0,-1,1063,1191,0,0
-154,-167,0,0,0,0,0,0,0,0,0,-1,1070,1191,0,0
-147,-167,0,0,0,0,0,0,0,0,0,-1,1077,1191,0,0
-140,-167,0,0,0,0,0,0,0,0,0,-1,1084,1191,0,0
-133,-167,0,0,0,0,0,0,0,0,0,-1,1091,1191,0,0
-126,-167,0,0,0,0,0,0,0,0,0,-1,1098,1191,0,0
-119,-167,0,0,0,0,0,0,0,0,0,-1,1105,1191,0,0
-112,-167,0,0,0,0,0,0,0,0,0,-1,1112,1191,0,0
-105,-167,0,0,0,0,0,0,0,0,0,-1,1119,1191,0,0
-98,-167,0,0,0,0,0,0,0,0,0,-1,1126,1191,0,0
-91,-167,0,0,0,0,0,0,0,0,0,-1,1133,1191,0,0
-84,-167,0,0,0,0,0,0,0,0,0,-1,1140,1191,0,0
-77,-167,0,0,0,0,0,0,0,0,0,-1,1147,1191,0,0
-70,-167,0,0,0,0,0,0,0,0,0,-1,1154,1191,0,0
-63,-167,0,0,0,0,0,0,0,0,0,-1,1161,1191,0,0
-56,-167,0,0,0,0,0,0,0,0,0,-1,1168,1191,0,0
-49,-167,0,0,0,0,0,0,0,0,0,-1,1175,1191,0,0
-42,-167,0,0,0,0,0,0,0,0,0,-1,1182,1191,0,0
-35,-167,0,0,0,0,0,0,0,0,0,-1,1189,1191,0,0
-28,-167,0,0,0,0,0,0,0,0,0,-1,1196,1191,0,0
-21,-167,0,0,0,0,0,0,0,0,0,-1,1203,1191,0,0
-14,-167,0,0,0,0,0,0,0,0,0,-1,1210,1191,0,0
-7,-167,0,0,0,0,0,0,0,0,0,-1,1217,1191,0,0
0,-167,0,0,0,0,0,0,0,0,0,-1,1224,1191,0,0
7,-167,0,0,0,0,0,0,0,0,0,-1,1231,1191,0,0
14,-167,0,0,0,0,0,0,0,0,0,-1,1238,1191,0,0
21,-167,0,0,0,0,0,0,0,0,0,-1,1245,1191,0,0
28,-167,0,0,0,0,0,0,0,0,0,-1,1252,1191,0,0
35,-167,0,0,0,0,0,0,0,0,0,-1,1259,1191,0,0
42,-167,0,0,0,0,0,0,0,0,0,-1,1266,1191,0,0
49,-167,0,0,0,0,0,0,0,0,0,-1,1273,1191,0,0
56,-167,0,0,0,0,0,0,0,0,0,-1,1280,1191,0,0
63,-167,0,0,0,0,0,0,0,0,0,-1,1287,1191,0,0
70,-167,0,0,0,0,0,0,0,0,0,-1,1294,1191,0,0
77,-167,0,0,0,0,0,0,0,0,0,-1,1301,1191,0,0
84,-167,0,0,0,0,0,0,0,0,0,-1,1308,1191,0,0
91,-167,0,0,0,0,0,0,0,0,0,-1,1315,1191,0,0
98,-167,0,0,0,0,0,0,0,0,0,-1,1322,1191,0,0
105,-167,0,0,0,0,0,0,0,0,0,-1,1329,1191,0,0
112,-167,0,0,0,0,0,0,0,0,0,-1,1336,1191,0,0
119,-167,0,0,0,0,0,0,0,0,0,-1,1343,1191,0,0
126,-167,0,0,0,0,0,0,0,0,0,-1,1350,1191,0,0
133,-167,0,0,0,0,0,0,0,0,0,-1,1357,1191,0,0
140,-167,0,0,0,0,0,0,0,0,0,-1,1364,1191,0,0
147,-167,0,0,0,0,0,0,0,0,0,-1,1371,1191,0,0
154,-167,0,0,0,0,0,0,0,0,0,-1,1378,1191,0,0
161,-167,0,0,0,0,0,0,0,0,0,-1,1385,1191,0,0
168,-167,0,0,0,0,0,0,0,0,0,-1,1392,1191,0,0
175,-167,0,0,0,0,0,0,0,0,0,-1,1399,1191,0,0
182,-167,0,0,0,0,0,0,0,0,0,-1,1406,1191,0,0
189,-167,0,0,0,0,0,0,0,0,0,-1,1413,1191,0,0
196,-167,0,0,0,0,0,0,0,0,0,-1,1420,1191,0,0
203,-167,0,0,0,0,0,0,0,0,0,-1,1427,1191,0,0
210,-167,0,0,0,0,0,0,0,0,0,-1,1434,1191,0,0
217,-167,0,0,0,0,0,0,0,0,0,-1,1441,1191,0,0
224,-167,0,0,0,0,0,0,0,0,0,-1,1448,1191,0,0
231,-167,0,0,0,0,0,0,0,0,0,-1,1455,1191,0,0
238,-167,0,0,0,0,0,0,0,0,0,-1,1462,1191,0,0
245,-167,0,0,0,0,0,0,0,0,0,-1,1469,1191,0,0
252,-167,0,0,0,0,0,0,0,0,0,-1,1476,1191,0,0
259,-167,0,0,0,0,0,0,0,0,0,-1,1483,1191,0,0
266,-167,0,0,0,0,0,0,0,0,0,-1,1490,1191,0,0
273,-167,0,0,0,0,0,0,0,0,0,-1,1497,1191,0,0
280,-167,0,0,0,0,0,0,0,0,0,-1,1504,1191,0,0
287,-167,0,0,0,0,0,0,0,0,0,-1,1511,1191,0,0
294,-167,0,0,0,0,0,0,0,0,0,-1,1518,1191,0,0
301,-167,0,0,0,0,0,0,0,0,0,-1,1525,1191,0,0
308,-167,0,0,0,0,0,0,0,0,0,-1,1532,1191,0,0
315,-167,0,0,0,0,0,0,0,0,0,-1,1539,1191,0,0
322,-167,0,0,0,0,0,0,0,0,0,-1,1546,1191,0,0
329,-167,0,0,0,0,0,0,0,0,0,-1,1553,1191,0,0
336,-167,0,0,0,0,0,0,0,0,0,-1,1560,1191,0,0
343,-167,0,0,0,0,0,0,0,0,0,-1,1567,1191,0,0
350,-167,0,0,0,0,0,0,0,0,0,-1,1574,1191,0,0
357,-167,0,0,0,0,0,0,0,0,0,-1,1581,1191,0,0
364,-167,0,0,0,0,0,0,0,0,0,-1,1588,1191,0,0
371,-167,0,0,0,0,0,0,0,0,0,-1,1595,1191,0,0
378,-167,0,0,0,0,0,0,0,0,0,-1,1602,1191,0,0
385,-167,0,0,0,0,0,0,0,0,0,-1,1609,1191,0,0
392,-167,0,0,0,0,0,0,0,0,0,-1,1616,1191,0,0
399,-167,0,0,0,0,0,0,0,0,0,-1,1623,1191,0,0
406,-167,0,0,0,0,0,0,0,0,0,-1,1630,1191,0,0
413,-167,0,0,0,0,0,0,0,0,0,-1,1637,1191,0,0
420,-167,0,0,0,0,0,0,0,0,0,-1,1644,1191,0,0
427,-167,0,0,0,0,0,0,0,0,0,-1,1651,1191,0,0
434,-167,0,0,0,0,0,0,0,0,0,-1,1658,1191,0,0
441,-167,0,0,0,0,0,0,0,0,0,-1,1665,1191,0,0
448,-167,0,0,0,0,0,0,0,0,0,-1,1672,1191,0,0
455,-167,0,0,0,0,0,0,0,0,0,-1,1679,1191,0,0
462,-167,0,0,0,0,0,0,0,0,0,-1,1686,1191,0,0
469,-167,0,0,0,0,0,0,0,0,0,-1,1693,1191,0,0
476,-167,0,0,0,0,0,0,0,0,0,-1,1700,1191,0,0
483,-167,0,0,0,0,0,0,0,0,0,-1,1707,1191,0,0
490,-167,0,0,0,0,0,0,0,0,0,-1,1714,1191,0,0
497,-167,0,0,0,0,0,0,0,0,0,-1,1721,1191,0,0
504,-167,0,0,0,0,0,0,0,0,0,-1,1728,1191,0,0
511,-167,0,0,0,0,0,0,0,0,0,-1,1735,1191,0,0
518,-167,0,0,0,0,0,0,0,0,0,-1,1742,1191,0,0
525,-167,0,0,0,0,0,0,0,0,0,-1,1749,1191,0,0
532,-167,0,0,0,0,0,0,0,0,0,-1,1756,1191,0,0
539,-167,0,0,0,0,0,0,0,0,0,-1,1763,1191,0,0
546,-167,0,0,0,0,0,0,0,0,0,-1,1770,1191,0,0
553,-167,0,0,0,0,0,0,0,0,0,-1,1777,1191,0,0
560,-167,0,0,0,0,0,0,0,0,0,-1,1784,1191,0,0
567,-167,0,0,0,0,0,0,0,0,0,-1,1791,1191,0,0
574,-167,0,0,0,0,0,0,0,0,0,-1,1798,1191,0,0
581,-167,0,0,0,0,0,0,0,0,0,-1,1805,1191,0,0
588,-167,0,0,0,0,0,0,0,0,0,-1,1812,1191,0,0
595,-167,0,0,0,0,0,0,0,0,0,-1,1819,1191,0,0
602,-167,0,0,0,0,0,0,0,0,0,-1,1826,1191,0,0
609,-167,0,0,0,0,0,0,0,0,0,-1,1833,1191,0,0
616,-167,0,0,0,0,0,0,0,0,0,-1,1840,1191,0,0
623,-167,0,0,0,0,0,0,0,0,0,-1,1847,1191,0,0
630,-167,0,0,0,0,0,0,0,0,0,-1,1854,1191,0,0
637,-167,22.2145,3.04199,0,0,0,0,0,0,0,-1,1861,1191,22.2145,-3.042
644,-167,22.243,2.69165,-0.00234973,-0.00418994,0.00101097,-0.00190285,-0.00463682,0.416211,0.00269137,0.0431104,1868,1191,22.2431,-2.69167
651,-167,21.9946,2.92603,-0.0009247,-0.0025313,0.000384344,-0.000837488,-0.00261851,0.223132,0.00154417,0.0420948,1875,1191,21.9946,-2.92605
658,-167,22.0128,3.10437,7.55348e-05,-0.00139039,7.27559e-05,7.91369e-05,-0.00139399,0.0494694,0.000956798,0.0419888,1882,1191,22.0129,-3.10431
665,-167,22.2166,2.96021,0.000198149,-0.000866983,0.000217325,0.000240784,-0.000909618,0.193723,0.000700604,0.0379605,1889,1191,22.2165,-2.96015
672,-167,22.1696,2.85706,-0.000104651,-0.000697974,0.000470597,0.000154987,-0.000957612,0.504164,0.000695848,0.027333,1896,1191,22.1695,-2.85708
679,-167,22.1033,2.83057,-0.000718269,-0.000719389,0.000852719,0.00013389,-0.00157155,0.78507,0.00109506,0.019751,1903,1191,22.1032,-2.83053
686,-167,22.1018,2.79248,-0.00139422,-0.000902415,0.00119015,6.69751e-05,-0.00236361,0.887271,0.00159853,0.0247657,1910,1191,22.1018,-2.79249
693,-167,21.8333,3.19592,0,0,0,0,0,0,0,-1,1917,1191,21.8332,-3.19588
700,-167,20.8496,4.0603,0,0,0,0,0,0,0,-1,1924,1191,20.8497,-4.06032
707,-167,19.9941,4.98889,-0.00294068,-0.00108392,0.00206653,0.00025319,-0.00427779,0.996511,0.00293989,0.0385147,1931,1191,19.9942,-4.98891
714,-167,20.2606,4.83032,-0.00352694,-0.00113555,0.00221995,0.000190235,-0.00485273,1.03243,0.00330039,0.0267373,1938,1191,20.2606,-4.83032
721,-167,20.283,4.53699,-0.00375225,-0.00114941,0.00242123,0.000297994,-0.00519966,1.032,0.00356992,0.0225595,1945,1191,20.283,-4.53702
728,-167,20.1697,4.48999,-0.00339402,-0.00109003,0.00243382,0.000450664,-0.00493471,1.00644,0.00344986,0.0157453,1952,1191,20.1697,-4.49002
735,-167,20.0688,4.41162,-0.00269508,-0.00108577,0.00191348,0.000185355,-0.00396621,0.984433,0.00270804,0.0137354,1959,1191,20.0688,-4.41158
742,-167,20.0663,4.28027,-0.00122447,-0.000624584,0.00126578,0.000376309,-0.00222536,0.901734,0.00162361,0.0142878,1966,1191,20.0663,-4.28022
749,-167,20.0793,4.15283,0.0026736,-0.00127776,4.80916e-05,0.00267418,-0.00127835,0.0121685,0.00232894,0.0134366,1973,1191,20.0793,-4.15289
756,-167,20.0675,4.01709,0.0083596,-0.00156802,-0.00135625,0.00854155,-0.00174997,-0.133359,0.00635847,0.0103131,1980,1191,20.0675,-4.01704
763,-167,20.0612,3.88806,0.0144914,-0.00235859,-0.00298737,0.0150053,-0.00287255,-0.170377,0.0110858,0.0119204,1987,1191,20.0612,-3.88805
770,-167,20.0313,3.80688,0.0223537,-0.00374125,-0.00481267,0.023213,-0.00460055,-0.176688,0.017215,0.023096,1994,1191,20.0313,-3.80688
777,-167,19.9237,3.54065,0.0327786,-0.00577814,-0.00706958,0.034034,-0.00703351,-0.175742,0.025361,0.0397204,2001,1191,19.9237,-3.54068
784,-167,19.7933,3.09338,0.046494,-0.00851533,-0.0098707,0.0482115,-0.0102329,-0.172279,0.0360395,0.0475335,2008,1191,19.7933,-3.09334
791,-167,21.2233,5.53516,0,0,0,0,0,0,0,-1,2015,1191,21.2233,-5.5351
798,-167,21.739,4.90051,0.0867316,-0.0158859,-0.0171823,0.0895321,-0.0186865,-0.161571,0.066794,0.0457725,2022,1191,21.739,-4.90052
805,-167,22.5378,4.35742,0.11465,-0.0201423,-0.0215884,0.118023,-0.0235155,-0.154998,0.0875792,0.0479868,2029,1191,22.5379,-4.35743
812,-167,0,0,0,0,0,0,0,0,0,-1,2036,1191,0,0
-700,-174,0,0,0,0,0,0,0,0,0,-1,524,1198,0,0
-693,-174,0,0,0,0,0,0,0,0,0,-1,531,1198,0,0
-686,-174,-15.0954,-1.95911,0,0,0,0,0,0,0,-1,538,1198,-15.0954,1.95912
-679,-174,-9.56976,-0.305664,0,0,0,0,0,0,0,-1,545,1198,-9.56976,0.305603
-672,-174,-10.4316,0.0179443,-0.00266686,0.0150262,-0.00494436,0.0163141,-0.00395482,-1.31597,0.0124063,0.0468799,552,1198,-10.4316,-0.017958
-665,-174,-11.3029,0.593018,-0.00643588,0.0133154,-0.00360029,0.0139512,-0.00707168,-1.396,0.0123523,0.0421895,559,1198,-11.3028,-0.593037
-658,-174,-11.345,0.644653,-0.00808333,0.0114115,-0.00253845,0.0117366,-0.00840845,-1.44341,0.0116835,0.0412147,566,1198,-11.345,-0.644634
-651,-174,-11.4399,0.697998,-0.00839773,0.00950343,-0.00175965,0.00967476,-0.00856906,-1.47374,0.0105395,0.0435378,573,1198,-11.4399,-0.698002
-644,-174,-11.8121,0.760742,-0.00794135,0.00771072,-0.00120651,0.00780317,-0.00803381,-1.49432,0.00914381,0.0406382,580,1198,-11.8121,-0.760734
-637,-174,-11.9833,1.26135,-0.00702722,0.00607809,-0.000858917,0.00613414,-0.00708327,-1.50563,0.00763763,0.0221275,587,1198,-11.9833,-1.2614
-630,-174,-12.0374,1.44592,-0.00637069,0.00467849,-0.00100809,0.00476971,-0.00646191,-1.48055,0.00650907,0.0119594,594,1198,-12.0373,-1.44588
-623,-174,-12.0855,1.5968,-0.00597561,0.00310001,-0.000992561,0.0032073,-0.00608289,-1.46313,0.00544867,0.0133936,601,1198,-12.0855,-1.59677
-616,-174,-12.0958,1.77612,-0.00545554,0.00158529,-0.0012555,0.00180247,-0.00567272,-1.39951,0.00450449,0.0188406,608,1198,-12.0958,-1.77618
-609,-174,-12.0981,1.97021,-0.00516523,0.000654312,-0.00166038,0.00109471,-0.00560563,-1.31153,0.00415039,0.0213479,615,1198,-12.0981,-1.97026
-602,-174,-12.1279,2.09937,-0.0051014,-0.000228772,-0.00207856,0.000537416,-0.00586759,-1.21763,0.00410261,0.0142422,622,1198,-12.128,-2.09942
-595,-174,-12.1184,2.28772,-0.00514302,-0.000771873,-0.00258101,0.000424612,-0.00633951,-1.13671,0.00437475,0.0131301,629,1198,-12.1184,-2.28766
-588,-174,-12.1674,2.45776,-0.0048296,-0.00123244,-0.00303151,0.000493885,-0.00655593,-1.05314,0.0045442,0.0155932,636,1198,-12.1673,-2.45779
-581,-174,-12.1603,2.57861,-0.0042597,-0.00140393,-0.00329989,0.000763762,-0.00642738,-0.989588,0.00456088,0.0187325,643,1198,-12.1603,-2.57859
-574,-174,-12.6796,2.51746,-0.00370067,-0.00141126,-0.00306569,0.000716465,-0.0058284,-0.964078,0.00414511,0.0463194,650,1198,-12.6795,-2.51743
-567,-174,-13.4346,2.37073,0,0,0,0,0,0,0,-1,657,1198,-13.4346,-2.37077
-560,-174,-14.3271,0.992798,0,0,0,0,0,0,0,-1,664,1198,-14.3271,-0.992849
-553,-174,-14.345,0.939087,-0.00188124,-0.000812678,-0.00179955,0.000530225,-0.00322415,-0.929703,0.00234623,0.0377351,671,1198,-14.345,-0.939106
-546,-174,-14.3711,0.910034,-0.000750801,-0.000406776,-0.00100178,0.000437652,-0.00159523,-0.870422,0.00123549,0.0301628,678,1198,-14.3711,-0.909981
-539,-174,-14.368,0.961182,0.000478017,0.000203866,0.000245669,0.000622265,5.96177e-05,0.530929,0.000396468,0.0359446,685,1198,-14.368,-0.961229
-532,-174,-14.2342,0.749146,0.00175303,0.00108911,0.00224956,0.00369499,-0.000852855,0.712143,0.00279139,0.0459692,692,1198,-14.2342,-0.74917
-525,-174,-14.2766,0.847534,0.00248512,0.00227573,0.00519124,0.00757272,-0.00281187,0.775316,0.00620202,0.044329,699,1198,-14.2766,-0.847564
-518,-174,-14.3655,1.20386,-8.37206e-06,0.0033055,0.00907091,0.0108696,-0.00757244,0.875735,0.0107041,0.0424278,706,1198,-14.3655,-1.20386
-511,-174,0,0,0,0,0,0,0,0,0,-1,713,1198,0,0
-504,-174,0,0,0,0,0,0,0,0,0,-1,720,1198,0,0
-497,-174,0,0,0,0,0,0,0,0,0,-1,727,1198,0,0
-490,-174,0,0,0,0,0,0,0,0,0,-1,734,1198,0,0
-483,-174,0,0,0,0,0,0,0,0,0,-1,741,1198,0,0
-476,-174,0,0,0,0,0,0,0,0,0,-1,748,1198,0,0
-469,-174,0,0,0,0,0,0,0,0,0,-1,755,1198,0,0
-462,-174,0,0,0,0,0,0,0,0,0,-1,762,1198,0,0
-455,-174,0,0,0,0,0,0,0,0,0,-1,769,1198,0,0
-448,-174,0,0,0,0,0,0,0,0,0,-1,776,1198,0,0
-441,-174,0,0,0,0,0,0,0,0,0,-1,783,1198,0,0
-434,-174,0,0,0,0,0,0,0,0,0,-1,790,1198,0,0
-427,-174,0,0,0,0,0,0,0,0,0,-1,797,1198,0,0
-420,-174,0,0,0,0,0,0,0,0,0,-1,804,1198,0,0
-413,-174,0,0,0,0,0,0,0,0,0,-1,811,1198,0,0
-406,-174,0,0,0,0,0,0,0,0,0,-1,818,1198,0,0
-399,-174,0,0,0,0,0,0,0,0,0,-1,825,1198,0,0
-392,-174,0,0,0,0,0,0,0,0,0,-1,832,1198,0,0
-385,-174,0,0,0,0,0,0,0,0,0,-1,839,1198,0,0
-378,-174,0,0,0,0,0,0,0,0,0,-1,846,1198,0,0
-371,-174,0,0,0,0,0,0,0,0,0,-1,853,1198,0,0
-364,-174,0,0,0,0,0,0,0,0,0,-1,860,1198,0,0
-357,-174,0,0,0,0,0,0,0,0,0,-1,867,1198,0,0
-350,-174,0,0,0,0,0,0,0,0,0,-1,874,1198,0,0
-343,-174,0,0,0,0,0,0,0,0,0,-1,881,1198,0,0
-336,-174,0,0,0,0,0,0,0,0,0,-1,888,1198,0,0
-329,-174,0,0,0,0,0,0,0,0,0,-1,895,1198,0,0
-322,-174,0,0,0,0,0,0,0,0,0,-1,902,1198,0,0
-315,-174,0,0,0,0,0,0,0,0,0,-1,909,1198,0,0
-308,-174,0,0,0,0,0,0,0,0,0,-1,916,1198,0,0
-301,-174,0,0,0,0,0,0,0,0,0,-1,923,1198,0,0
-294,-174,0,0,0,0,0,0,0,0,0,-1,930,1198,0,0
-287,-174,0,0,0,0,0,0,0,0,0,-1,937,1198,0,0
-280,-174,0,0,0,0,0,0,0,0,0,-1,944,1198,0,0
-273,-174,0,0,0,0,0,0,0,0,0,-1,951,1198,0,0
-266,-174,0,0,0,0,0,0,0,0,0,-1,958,1198,0,0
-259,-174,0,0,0,0,0,0,0,0,0,-1,965,1198,0,0
-252,-174,0,0,0,0,0,0,0,0,0,-1,972,1198,0,0
-245,-174,0,0,0,0,0,0,0,0,0,-1,979,1198,0,0
-238,-174,0,0,0,0,0,0,0,0,0,-1,986,1198,0,0
-231,-174,0,0,0,0,0,0,0,0,0,-1,993,1198,0,0
-224,-174,0,0,0,0,0,0,0,0,0,-1,1000,1198,0,0
-217,-174,0,0,0,0,0,0,0,0,0,-1,1007,1198,0,0
-210,-174,0,0,0,0,0,0,0,0,0,-1,1014,1198,0,0
-203,-174,0,0,0,0,0,0,0,0,0,-1,1021,1198,0,0
-196,-174,0,0,0,0,0,0,0,0,0,-1,1028,1198,0,0
-189,-174,0,0,0,0,0,0,0,0,0,-1,1035,1198,0,0
-182,-174,0,0,0,0,0,0,0,0,0,-1,1042,1198,0,0
-175,-174,0,0,0,0,0,0,0,0,0,-1,1049,1198,0,0
-168,-174,0,0,0,0,0,0,0,0,0,-1,1056,1198,0,0
-161,-174,0,0,0,0,0,0,0,0,0,-1,1063,1198,0,0
-154,-174,0,0,0,0,0,0,0,0,0,-1,1070,1198,0,0
-147,-174,0,0,0,0,0,0,0,0,0,-1,1077,1198,0,0
-140,-174,0,0,0,0,0,0,0,0,0,-1,1084,1198,0,0
-133,-174,0,0,0,0,0,0,0,0,0,-1,1091,1198,0,0
-126,-174,0,0,0,0,0,0,0,0,0,-1,1098,1198,0,0
-119,-174,0,0,0,0,0,0,0,0,0,-1,1105,1198,0,0
-112,-174,0,0,0,0,0,0,0,0,0,-1,1112,1198,0,0
-105,-174,0,0,0,0,0,0,0,0,0,-1,1119,1198,0,0
-98,-174,0,0,0,0,0,0,0,0,0,-1,1126,1198,0,0
-91,-174,0,0,0,0,0,0,0,0,0,-1,1133,1198,0,0
-84,-174,0,0,0,0,0,0,0,0,0,-1,1140,1198,0,0
-77,-174,0,0,0,0,0,0,0,0,0,-1,1147,1198,0,0
-70,-174,0,0,0,0,0,0,0,0,0,-1,1154,1198,0,0
-63,-174,0,0,0,0,0,0,0,0,0,-1,1161,1198,0,0
-56,-174,0,0,0,0,0,0,0,0,0,-1,1168,1198,0,0
-49,-174,0,0,0,0,0,0,0,0,0,-1,1175,1198,0,0
-42,-174,0,0,0,0,0,0,0,0,0,-1,1182,1198,0,0
-35,-174,0,0,0,0,0,0,0,0,0,-1,1189,1198,0,0
-28,-174,0,0,0,0,0,0,0,0,0,-1,1196,1198,0,0
-21,-174,0,0,0,0,0,0,0,0,0,-1,1203,1198,0,0
-14,-174,0,0,0,0,0,0,0,0,0,-1,1210,1198,0,0
-7,-174,0,0,0,0,0,0,0,0,0,-1,1217,1198,0,0
0,-174,0,0,0,0,0,0,0,0,0,-1,1224,1198,0,0
7,-174,0,0,0,0,0,0,0,0,0,-1,1231,1198,0,0
14,-174,0,0,0,0,0,0,0,0,0,-1,1238,1198,0,0
21,-174,0,0,0,0,0,0,0,0,0,-1,1245,1198,0,0
28,-174,0,0,0,0,0,0,0,0,0,-1,1252,1198,0,0
35,-174,0,0,0,0,0,0,0,0,0,-1,1259,1198,0,0
42,-174,0,0,0,0,0,0,0,0,0,-1,1266,1198,0,0
49,-174,0,0,0,0,0,0,0,0,0,-1,1273,1198,0,0
56,-174,0,0,0,0,0,0,0,0,0,-1,1280,1198,0,0
63,-174,0,0,0,0,0,0,0,0,0,-1,1287,1198,0,0
70,-174,0,0,0,0,0,0,0,0,0,-1,1294,1198,0,0
77,-174,0,0,0,0,0,0,0,0,0,-1,1301,1198,0,0
84,-174,0,0,0,0,0,0,0,0,0,-1,1308,1198,0,0
91,-174,0,0,0,0,0,0,0,0,0,-1,1315,1198,0,0
98,-174,0,0,0,0,0,0,0,0,0,-1,1322,1198,0,0
105,-174,0,0,0,0,0,0,0,0,0,-1,1329,1198,0,0
112,-174,0,0,0,0,0,0,0,0,0,-1,1336,1198,0,0
119,-174,0,0,0,0,0,0,0,0,0,-1,1343,1198,0,0
126,-174,0,0,0,0,0,0,0,0,0,-1,1350,1198,0,0
133,-174,0,0,0,0,0,0,0,0,0,-1,1357,1198,0,0
140,-174,0,0,0,0,0,0,0,0,0,-1,1364,1198,0,0
147,-174,0,0,0,0,0,0,0,0,0,-1,1371,1198,0,0
154,-174,0,0,0,0,0,0,0,0,0,-1,1378,1198,0,0
161,-174,0,0,0,0,0,0,0,0,0,-1,1385,1198,0,0
168,-174,0,0,0,0,0,0,0,0,0,-1,1392,1198,0,0
175,-174,0,0,0,0,0,0,0,0,0,-1,1399,1198,0,0
182,-174,0,0,0,0,0,0,0,0,0,-1,1406,1198,0,0
189,-174,0,0,0,0,0,0,0,0,0,-1,1413,1198,0,0
196,-174,0,0,0,0,0,0,0,0,0,-1,1420,1198,0,0
203,-174,0,0,0,0,0,0,0,0,0,-1,1427,1198,0,0
210,-174,0,0,0,0,0,0,0,0,0,-1,1434,1198,0,0
217,-174,0,0,0,0,0,0,0,0,0,-1,1441,1198,0,0
224,-174,0,0,0,0,0,0,0,0,0,-1,1448,1198,0,0
231,-174,0,0,0,0,0,0,0,0,0,-1,1455,1198,0,0
238,-174,0,0,0,0,0,0,0,0,0,-1,1462,1198,0,0
245,-174,0,0,0,0,0,0,0,0,0,-1,1469,1198,0,0
252,-174,0,0,0,0,0,0,0,0,0,-1,1476,1198,0,0
259,-174,0,0,0,0,0,0,0,0,0,-1,1483,1198,0,0
266,-174,0,0,0,0,0,0,0,0,0,-1,1490,1198,0,0
273,-174,0,0,0,0,0,0,0,0,0,-1,1497,1198,0,0
280,-174,0,0,0,0,0,0,0,0,0,-1,1504,1198,0,0
287,-174,0,0,0,0,0,0,0,0,0,-1,1511,1198,0,0
294,-174,0,0,0,0,0,0,0,0,0,-1,1518,1198,0,0
301,-174,0,0,0,0,0,0,0,0,0,-1,1525,1198,0,0
308,-174,0,0,0,0,0,0,0,0,0,-1,1532,1198,0,0
315,-174,0,0,0,0,0,0,0,0,0,-1,1539,1198,0,0
322,-174,0,0,0,0,0,0,0,0,0,-1,1546,1198,0,0
329,-174,0,0,0,0,0,0,0,0,0,-1,1553,1198,0,0
336,-174,0,0,0,0,0,0,0,0,0,-1,1560,1198,0,0
343,-174,0,0,0,0,0,0,0,0,0,-1,1567,1198,0,0
350,-174,0,0,0,0,0,0,0,0,0,-1,1574,1198,0,0
357,-174,0,0,0,0,0,0,0,0,0,-1,1581,1198,0,0
364,-174,0,0,0,0,0,0,0,0,0,-1,1588,1198,0,0
371,-174,0,0,0,0,0,0,0,0,0,-1,1595,1198,0,0
378,-174,0,0,0,0,0,0,0,0,0,-1,1602,1198,0,0
385,-174,0,0,0,0,0,0,0,0,0,-1,1609,1198,0,0
392,-174,0,0,0,0,0,0,0,0,0,-1,1616,1198,0,0
399,-174,0,0,0,0,0,0,0,0,0,-1,1623,1198,0,0
406,-174,0,0,0,0,0,0,0,0,0,-1,1630,1198,0,0
413,-174,0,0,0,0,0,0,0,0,0,-1,1637,1198,0,0
420,-174,0,0,0,0,0,0,0,0,0,-1,1644,1198,0,0
427,-174,0,0,0,0,0,0,0,0,0,-1,1651,1198,0,0
434,-174,0,0,0,0,0,0,0,0,0,-1,1658,1198,0,0
441,-174,0,0,0,0,0,0,0,0,0,-1,1665,1198,0,0
448,-174,0,0,0,0,0,0,0,0,0,-1,1672,1198,0,0
455,-174,0,0,0,0,0,0,0,0,0,-1,1679,1198,0,0
462,-174,0,0,0,0,0,0,0,0,0,-1,1686,1198,0,0
469,-174,0,0,0,0,0,0,0,0,0,-1,1693,1198,0,0
476,-174,0,0,0,0,0,0,0,0,0,-1,1700,1198,0,0
483,-174,0,0,0,0,0,0,0,0,0,-1,1707,1198,0,0
490,-174,0,0,0,0,0,0,0,0,0,-1,1714,1198,0,0
497,-174,0,0,0,0,0,0,0,0,0,-1,1721,1198,0,0
504,-174,0,0,0,0,0,0,0,0,0,-1,1728,1198,0,0
511,-174,0,0,0,0,0,0,0,0,0,-1,1735,1198,0,0
518,-174,0,0,0,0,0,0,0,0,0,-1,1742,1198,0,0
525,-174,0,0,0,0,0,0,0,0,0,-1,1749,1198,0,0
532,-174,0,0,0,0,0,0,0,0,0,-1,1756,1198,0,0
539,-174,0,0,0,0,0,0,0,0,0,-1,1763,1198,0,0
546,-174,0,0,0,0,0,0,0,0,0,-1,1770,1198,0,0
553,-174,0,0,0,0,0,0,0,0,0,-1,1777,1198,0,0
560,-174,0,0,0,0,0,0,0,0,0,-1,1784,1198,0,0
567,-174,0,0,0,0,0,0,0,0,0,-1,1791,1198,0,0
574,-174,0,0,0,0,0,0,0,0,0,-1,1798,1198,0,0
581,-174,0,0,0,0,0,0,0,0,0,-1,1805,1198,0,0
588,-174,0,0,0,0,0,0,0,0,0,-1,1812,1198,0,0
595,-174,0,0,0,0,0,0,0,0,0,-1,1819,1198,0,0
602,-174,0,0,0,0,0,0,0,0,0,-1,1826,1198,0,0
609,-174,0,0,0,0,0,0,0,0,0,-1,1833,1198,0,0
616,-174,0,0,0,0,0,0,0,0,0,-1,1840,1198,0,0
623,-174,0,0,0,0,0,0,0,0,0,-1,1847,1198,0,0
630,-174,0,0,0,0,0,0,0,0,0,-1,1854,1198,0,0
637,-174,22.2286,2.7373,-0.00264922,-0.00517907,0.00216559,-0.0014062,-0.00642209,0.521073,0.00389814,0.0412403,1861,1198,22.2286,-2.73728
644,-174,22.2252,2.83203,-0.00137897,-0.00343261,0.00128981,-0.000757164,-0.00405441,0.449218,0.00248924,0.042758,1868,1198,22.2252,-2.83206
651,-174,21.9679,2.83728,5.38941e-05,-0.001835,0.000360343,0.000120302,-0.00190141,0.182246,0.00130955,0.0432772,1875,1198,21.9678,-2.83726
658,-174,21.9523,2.80151,0.000977608,-0.000865972,-0.000112136,0.000984403,-0.000872767,-0.0605277,0.00107288,0.0400058,1882,1198,21.9523,-2.80154
665,-174,22.1104,2.83167,0.00119053,-0.000464442,-0.00013975,0.00120225,-0.00047616,-0.083653,0.0009988,0.0337351,1889,1198,22.1104,-2.83166
672,-174,22.1064,2.79553,0.00098841,-0.000402855,-6.87009e-06,0.000988444,-0.000402889,-0.00493786,0.00082666,0.02612,1896,1198,22.1065,-2.7955
679,-174,22.0872,2.79199,0.000462552,-0.00047788,0.000311591,0.000556421,-0.000571749,0.29261,0.00065137,0.0216401,1903,1198,22.0872,-2.79201
686,-174,22.2021,2.92249,-0.00014066,-0.000707026,0.00059948,0.000239157,-0.00108684,0.564744,0.000816047,0.0438117,1910,1198,22.2022,-2.92249
693,-174,22.3591,3.07227,0,0,0,0,0,0,0,-1,1917,1198,22.3592,-3.07222
700,-174,19.8721,5.11816,0,0,0,0,0,0,0,-1,1924,1198,19.8721,-5.11819
707,-174,20.0399,4.99146,-0.00170291,-0.000947468,0.001432,0.000155783,-0.00280617,0.914348,0.00192481,0.0400435,1931,1198,20.0399,-4.99149
714,-174,20.1686,4.82813,-0.00232728,-0.00102539,0.00164246,9.04121e-05,-0.00344308,0.974064,0.00232611,0.0246842,1938,1198,20.1686,-4.82809
721,-174,20.1069,4.62415,-0.00261794,-0.00109269,0.00192003,0.000210625,-0.00392125,0.974441,0.00268713,0.0186918,1945,1198,20.1069,-4.62421
728,-174,19.9783,4.52576,-0.00232596,-0.00101345,0.00200404,0.00043905,-0.00377846,0.943628,0.00267735,0.0127191,1952,1198,19.9782,-4.5257
735,-174,19.9424,4.42761,-0.00165204,-0.00108691,0.0014763,0.000133628,-0.00287257,0.879954,0.00196111,0.0106823,1959,1198,19.9423,-4.42762
742,-174,19.9297,4.302,-0.000111523,-0.000796544,0.000716791,0.000340386,-0.00124845,0.562517,0.000965966,0.0190239,1966,1198,19.9297,-4.30199
749,-174,19.947,4.16736,0.00387095,-0.00152316,-0.000601975,0.00393731,-0.00158952,-0.109799,0.00328548,0.0176983,1973,1198,19.947,-4.16739
756,-174,19.9291,4.01843,0.00960056,-0.00198777,-0.00215448,0.00998815,-0.00237536,-0.177997,0.00757572,0.0104193,1980,1198,19.9291,-4.01848
763,-174,19.9124,3.88501,0.0158363,-0.00303549,-0.00400958,0.0166529,-0.00385205,-0.200905,0.012584,0.0126691,1987,1198,19.9124,-3.88496
770,-174,19.9258,3.8136,0.023974,-0.00470888,-0.0062427,0.0252738,-0.00600867,-0.205278,0.0191686,0.0243272,1994,1198,19.9258,-3.81363
777,-174,20.3185,3.80554,0.0347822,-0.00706595,-0.00909258,0.0366724,-0.00895617,-0.204966,0.0279167,0.0432243,2001,1198,20.3184,-3.80553
784,-174,20.7411,3.81775,0.0488523,-0.0101393,-0.0126142,0.0514364,-0.0127234,-0.202061,0.039226,0.0485876,2008,1198,20.7411,-3.81776
791,-174,21.083,5.43884,0,0,0,0,0,0,0,-1,2015,1198,21.083,-5.43888
798,-174,21.6797,4.65735,0.0895506,-0.0180132,-0.0217649,0.0937877,-0.0222503,-0.192271,0.0711119,0.0459856,2022,1198,21.6797,-4.6573
805,-174,22.3904,4.27917,0.117367,-0.0222498,-0.0272187,0.122485,-0.0273685,-0.185887,0.0921446,0.0462514,2029,1198,22.3904,-4.27918
812,-174,0,0,0,0,0,0,0,0,0,-1,2036,1198,0,0
-700,-181,0,0,0,0,0,0,0,0,0,-1,524,1205,0,0
-693,-181,0,0,0,0,0,0,0,0,0,-1,531,1205,0,0
-686,-181,-8.24054,-0.708618,0,0,0,0,0,0,0,-1,538,1205,-8.24056,0.708582
-679,-181,-8.9566,-0.318237,0,0,0,0,0,0,0,-1,545,1205,-8.95661,0.318184
-672,-181,-9.67816,0.00158691,-9.56693e-05,0.012937,-0.0134202,0.0213393,-0.00849796,-1.01141,0.0177504,0.0485939,552,1205,-9.67818,-0.00162418
-665,-181,-10.1423,0.262085,-0.00443284,0.0115997,-0.0103477,0.0166729,-0.00950606,-1.11496,0.0153021,0.0456161,559,1205,-10.1423,-0.262104
-658,-181,-10.7939,0.803101,-0.00652514,0.0100915,-0.00770366,0.0131134,-0.00954707,-1.19697,0.0131369,0.0416202,566,1205,-10.7939,-0.80316
-651,-181,-11.2497,0.777344,-0.00719696,0.00855598,-0.00557986,0.0103322,-0.00897314,-1.26262,0.0111551,0.0448015,573,1205,-11.2497,-0.777304
-644,-181,-11.327,0.373535,0,0,0,0,0,0,0,-1,580,1205,-11.327,-0.373528
-637,-181,-11.8123,1.2085,-0.00632829,0.00570092,-0.00274437,0.00629744,-0.00692481,-1.35676,0.00763674,0.0232733,587,1205,-11.8122,-1.20844
-630,-181,-11.86,1.43811,-0.00574071,0.00450086,-0.00219484,0.00495141,-0.00619126,-1.36833,0.00644648,0.012244,594,1205,-11.86,-1.43816
-623,-181,-11.9173,1.5968,-0.00545025,0.00306846,-0.00161203,0.0033633,-0.0057451,-1.38989,0.00531833,0.014061,601,1205,-11.9173,-1.59678
-616,-181,-11.9158,1.7843,-0.00494041,0.00166423,-0.00137079,0.00193743,-0.00521362,-1.37407,0.00427065,0.0144797,608,1205,-11.9158,-1.78431
-609,-181,-11.9056,1.96692,-0.00455773,0.000757519,-0.00143222,0.00111887,-0.00491908,-1.32365,0.00370903,0.0141088,615,1205,-11.9056,-1.9669
-602,-181,-11.9059,2.12585,-0.0043651,-0.000183057,-0.00172118,0.000434211,-0.00498236,-1.22645,0.00347537,0.0116529,622,1205,-11.9059,-2.1258
-595,-181,-11.9363,2.28821,-0.00432826,-0.000767222,-0.00222134,0.000299114,-0.00539459,-1.12324,0.00370013,0.0114599,629,1205,-11.9363,-2.2882
-588,-181,-11.9597,2.48767,-0.00399571,-0.00131801,-0.00271631,0.00037148,-0.0056852,-1.01437,0.00391983,0.0125754,636,1205,-11.9597,-2.48762
-581,-181,-11.937,2.71484,-0.0033985,-0.00158005,-0.00305448,0.000697654,-0.0056762,-0.930057,0.00403683,0.0146419,643,1205,-11.937,-2.71484
-574,-181,-12.3105,2.6947,-0.00284525,-0.00170625,-0.00290637,0.000685896,-0.00523739,-0.882146,0.00374125,0.0373956,650,1205,-12.3105,-2.69475
-567,-181,-12.9417,2.58826,0,0,0,0,0,0,0,-1,657,1205,-12.9417,-2.5882
-560,-181,-14.2848,1.14246,0,0,0,0,0,0,0,-1,664,1205,-14.2848,-1.14248
-553,-181,-14.4385,1.02148,-0.0012571,-0.00135244,-0.00196578,0.000661587,-0.00327113,-0.773275,0.00243147,0.0401049,671,1205,-14.4384,-1.02143
-546,-181,-14.3586,0.933594,-0.000336247,-0.00106308,-0.00137618,0.000723696,-0.00212302,-0.656308,0.00170846,0.0345283,678,1205,-14.3586,-0.933548
-539,-181,-14.3785,1.00403,0.000591664,-0.000582219,-0.000409321,0.000720295,-0.00071085,-0.304482,0.000826278,0.0391634,685,1205,-14.3785,-1.00405
-532,-181,-14.2422,0.914795,0.00140415,0.000180175,0.00123544,0.00217087,-0.000586544,0.555433,0.0016773,0.0449417,692,1205,-14.2422,-0.914738
-525,-181,-14.2357,0.790161,0.00169722,0.00133759,0.00385645,0.00537804,-0.00234323,0.762101,0.00457122,0.0429749,699,1205,-14.2357,-0.790133
-518,-181,-14.2195,0.976563,-0.000925911,0.00254776,0.0076176,0.00862401,-0.00700217,0.897484,0.00903796,0.0402853,706,1205,-14.2195,-0.976607
-511,-181,0,0,0,0,0,0,0,0,0,-1,713,1205,0,0
-504,-181,0,0,0,0,0,0,0,0,0,-1,720,1205,0,0
-497,-181,0,0,0,0,0,0,0,0,0,-1,727,1205,0,0
-490,-181,0,0,0,0,0,0,0,0,0,-1,734,1205,0,0
-483,-181,0,0,0,0,0,0,0,0,0,-1,741,1205,0,0
-476,-181,0,0,0,0,0,0,0,0,0,-1,748,1205,0,0
-469,-181,0,0,0,0,0,0,0,0,0,-1,755,1205,0,0
-462,-181,0,0,0,0,0,0,0,0,0,-1,762,1205,0,0
-455,-181,0,0,0,0,0,0,0,0,0,-1,769,1205,0,0
-448,-181,0,0,0,0,0,0,0,0,0,-1,776,1205,0,0
-441,-181,0,0,0,0,0,0,0,0,0,-1,783,1205,0,0
-434,-181,0,0,0,0,0,0,0,0,0,-1,790,1205,0,0
-427,-181,0,0,0,0,0,0,0,0,0,-1,797,1205,0,0
-420,-181,0,0,0,0,0,0,0,0,0,-1,804,1205,0,0
-413,-181,0,0,0,0,0,0,0,0,0,-1,811,1205,0,0
-406,-181,0,0,0,0,0,0,0,0,0,-1,818,1205,0,0
-399,-181,0,0,0,0,0,0,0,0,0,-1,825,1205,0,0
-392,-181,0,0,0,0,0,0,0,0,0,-1,832,1205,0,0
-385,-181,0,0,0,0,0,0,0,0,0,-1,839,1205,0,0
-378,-181,0,0,0,0,0,0,0,0,0,-1,846,1205,0,0
-371,-181,0,0,0,0,0,0,0,0,0,-1,853,1205,0,0
-364,-181,0,0,0,0,0,0,0,0,0,-1,860,1205,0,0
-357,-181,0,0,0,0,0,0,0,0,0,-1,867,1205,0,0
-350,-181,0,0,0,0,0,0,0,0,0,-1,874,1205,0,0
-343,-181,0,0,0,0,0,0,0,0,0,-1,881,1205,0,0
-336,-181,0,0,0,0,0,0,0,0,0,-1,888,1205,0,0
-329,-181,0,0,0,0,0,0,0,0,0,-1,895,1205,0,0
-322,-181,0,0,0,0,0,0,0,0,0,-1,902,1205,0,0
-315,-181,0,0,0,0,0,0,0,0,0,-1,909,1205,0,0
-308,-181,0,0,0,0,0,0,0,0,0,-1,916,1205,0,0
-301,-181,0,0,0,0,0,0,0,0,0,-1,923,1205,0,0
-294,-181,0,0,0,0,0,0,0,0,0,-1,930,1205,0,0
-287,-181,0,0,0,0,0,0,0,0,0,-1,937,1205,0,0
-280,-181,0,0,0,0,0,0,0,0,0,-1,944,1205,0,0
-273,-181,0,0,0,0,0,0,0,0,0,-1,951,1205,0,0
-266,-181,0,0,0,0,0,0,0,0,0,-1,958,1205,0,0
-259,-181,0,0,0,0,0,0,0,0,0,-1,965,1205,0,0
-252,-181,0,0,0,0,0,0,0,0,0,-1,972,1205,0,0
-245,-181,0,0,0,0,0,0,0,0,0,-1,979,1205,0,0
-238,-181,0,0,0,0,0,0,0,0,0,-1,986,1205,0,0
-231,-181,0,0,0,0,0,0,0,0,0,-1,993,1205,0,0
-224,-181,0,0,0,0,0,0,0,0,0,-1,1000,1205,0,0
-217,-181,0,0,0,0,0,0,0,0,0,-1,1007,1205,0,0
-210,-181,0,0,0,0,0,0,0,0,0,-1,1014,1205,0,0
-203,-181,0,0,0,0,0,0,0,0,0,-1,1021,1205,0,0
-196,-181,0,0,0,0,0,0,0,0,0,-1,1028,1205,0,0
-189,-181,0,0,0,0,0,0,0,0,0,-1,1035,1205,0,0
-182,-181,0,0,0,0,0,0,0,0,0,-1,1042,1205,0,0
-175,-181,0,0,0,0,0,0,0,0,0,-1,1049,1205,0,0
-168,-181,0,0,0,0,0,0,0,0,0,-1,1056,1205,0,0
-161,-181,0,0,0,0,0,0,0,0,0,-1,1063,1205,0,0
-154,-181,0,0,0,0,0,0,0,0,0,-1,1070,1205,0,0
-147,-181,0,0,0,0,0,0,0,0,0,-1,1077,1205,0,0
-140,-181,0,0,0,0,0,0,0,0,0,-1,1084,1205,0,0
-133,-181,0,0,0,0,0,0,0,0,0,-1,1091,1205,0,0
-126,-181,0,0,0,0,0,0,0,0,0,-1,1098,1205,0,0
-119,-181,0,0,0,0,0,0,0,0,0,-1,1105,1205,0,0
-112,-181,0,0,0,0,0,0,0,0,0,-1,1112,1205,0,0
-105,-181,0,0,0,0,0,0,0,0,0,-1,1119,1205,0,0
-98,-181,0,0,0,0,0,0,0,0,0,-1,1126,1205,0,0
-91,-181,0,0,0,0,0,0,0,0,0,-1,1133,1205,0,0
-84,-181,0,0,0,0,0,0,0,0,0,-1,1140,1205,0,0
-77,-181,0,0,0,0,0,0,0,0,0,-1,1147,1205,0,0
-70,-181,0,0,0,0,0,0,0,0,0,-1,1154,1205,0,0
-63,-181,0,0,0,0,0,0,0,0,0,-1,1161,1205,0,0
-56,-181,0,0,0,0,0,0,0,0,0,-1,1168,1205,0,0
-49,-181,0,0,0,0,0,0,0,0,0,-1,1175,1205,0,0
-42,-181,0,0,0,0,0,0,0,0,0,-1,1182,1205,0,0
-35,-181,0,0,0,0,0,0,0,0,0,-1,1189,1205,0,0
-28,-181,0,0,0,0,0,0,0,0,0,-1,1196,1205,0,0
-21,-181,0,0,0,0,0,0,0,0,0,-1,1203,1205,0,0
-14,-181,0,0,0,0,0,0,0,0,0,-1,1210,1205,0,0
-7,-181,0,0,0,0,0,0,0,0,0,-1,1217,1205,0,0
0,-181,0,0,0,0,0,0,0,0,0,-1,1224,1205,0,0
7,-181,0,0,0,0,0,0,0,0,0,-1,1231,1205,0,0
14,-181,0,0,0,0,0,0,0,0,0,-1,1238,1205,0,0
21,-181,0,0,0,0,0,0,0,0,0,-1,1245,1205,0,0
28,-181,0,0,0,0,0,0,0,0,0,-1,1252,1205,0,0
35,-181,0,0,0,0,0,0,0,0,0,-1,1259,1205,0,0
42,-181,0,0,0,0,0,0,0,0,0,-1,1266,1205,0,0
49,-181,0,0,0,0,0,0,0,0,0,-1,1273,1205,0,0
56,-181,0,0,0,0,0,0,0,0,0,-1,1280,1205,0,0
63,-181,0,0,0,0,0,0,0,0,0,-1,1287,1205,0,0
70,-181,0,0,0,0,0,0,0,0,0,-1,1294,1205,0,0
77,-181,0,0,0,0,0,0,0,0,0,-1,1301,1205,0,0
84,-181,0,0,0,0,0,0,0,0,0,-1,1308,1205,0,0
91,-181,0,0,0,0,0,0,0,0,0,-1,1315,1205,0,0
98,-181,0,0,0,0,0,0,0,0,0,-1,1322,1205,0,0
105,-181,0,0,0,0,0,0,0,0,0,-1,1329,1205,0,0
112,-181,0,0,0,0,0,0,0,0,0,-1,1336,1205,0,0
119,-181,0,0,0,0,0,0,0,0,0,-1,1343,1205,0,0
126,-181,0,0,0,0,0,0,0,0,0,-1,1350,1205,0,0
133,-181,0,0,0,0,0,0,0,0,0,-1,1357,1205,0,0
140,-181,0,0,0,0,0,0,0,0,0,-1,1364,1205,0,0
147,-181,0,0,0,0,0,0,0,0,0,-1,1371,1205,0,0
154,-181,0,0,0,0,0,0,0,0,0,-1,1378,1205,0,0
161,-181,0,0,0,0,0,0,0,0,0,-1,1385,1205,0,0
168,-181,0,0,0,0,0,0,0,0,0,-1,1392,1205,0,0
175,-181,0,0,0,0,0,0,0,0,0,-1,1399,1205,0,0
182,-181,0,0,0,0,0,0,0,0,0,-1,1406,1205,0,0
189,-181,0,0,0,0,0,0,0,0,0,-1,1413,1205,0,0
196,-181,0,0,0,0,0,0,0,0,0,-1,1420,1205,0,0
203,-181,0,0,0,0,0,0,0,0,0,-1,1427,1205,0,0
210,-181,0,0,0,0,0,0,0,0,0,-1,1434,1205,0,0
217,-181,0,0,0,0,0,0,0,0,0,-1,1441,1205,0,0
224,-181,0,0,0,0,0,0,0,0,0,-1,1448,1205,0,0
231,-181,0,0,0,0,0,0,0,0,0,-1,1455,1205,0,0
238,-181,0,0,0,0,0,0,0,0,0,-1,1462,1205,0,0
245,-181,0,0,0,0,0,0,0,0,0,-1,1469,1205,0,0
252,-181,0,0,0,0,0,0,0,0,0,-1,1476,1205,0,0
259,-181,0,0,0,0,0,0,0,0,0,-1,1483,1205,0,0
266,-181,0,0,0,0,0,0,0,0,0,-1,1490,1205,0,0
273,-181,0,0,0,0,0,0,0,0,0,-1,1497,1205,0,0
280,-181,0,0,0,0,0,0,0,0,0,-1,1504,1205,0,0
287,-181,0,0,0,0,0,0,0,0,0,-1,1511,1205,0,0
294,-181,0,0,0,0,0,0,0,0,0,-1,1518,1205,0,0
301,-181,0,0,0,0,0,0,0,0,0,-1,1525,1205,0,0
308,-181,0,0,0,0,0,0,0,0,0,-1,1532,1205,0,0
315,-181,0,0,0,0,0,0,0,0,0,-1,1539,1205,0,0
322,-181,0,0,0,0,0,0,0,0,0,-1,1546,1205,0,0
329,-181,0,0,0,0,0,0,0,0,0,-1,1553,1205,0,0
336,-181,0,0,0,0,0,0,0,0,0,-1,1560,1205,0,0
343,-181,0,0,0,0,0,0,0,0,0,-1,1567,1205,0,0
350,-181,0,0,0,0,0,0,0,0,0,-1,1574,1205,0,0
357,-181,0,0,0,0,0,0,0,0,0,-1,1581,1205,0,0
364,-181,0,0,0,0,0,0,0,0,0,-1,1588,1205,0,0
371,-181,0,0,0,0,0,0,0,0,0,-1,1595,1205,0,0
378,-181,0,0,0,0,0,0,0,0,0,-1,1602,1205,0,0
385,-181,0,0,0,0,0,0,0,0,0,-1,1609,1205,0,0
392,-181,0,0,0,0,0,0,0,0,0,-1,1616,1205,0,0
399,-181,0,0,0,0,0,0,0,0,0,-1,1623,1205,0,0
406,-181,0,0,0,0,0,0,0,0,0,-1,1630,1205,0,0
413,-181,0,0,0,0,0,0,0,0,0,-1,1637,1205,0,0
420,-181,0,0,0,0,0,0,0,0,0,-1,1644,1205,0,0
427,-181,0,0,0,0,0,0,0,0,0,-1,1651,1205,0,0
434,-181,0,0,0,0,0,0,0,0,0,-1,1658,1205,0,0
441,-181,0,0,0,0,0,0,0,0,0,-1,1665,1205,0,0
448,-181,0,0,0,0,0,0,0,0,0,-1,1672,1205,0,0
455,-181,0,0,0,0,0,0,0,0,0,-1,1679,1205,0,0
462,-181,0,0,0,0,0,0,0,0,0,-1,1686,1205,0,0
469,-181,0,0,0,0,0,0,0,0,0,-1,1693,1205,0,0
476,-181,0,0,0,0,0,0,0,0,0,-1,1700,1205,0,0
483,-181,0,0,0,0,0,0,0,0,0,-1,1707,1205,0,0
490,-181,0,0,0,0,0,0,0,0,0,-1,1714,1205,0,0
497,-181,0,0,0,0,0,0,0,0,0,-1,1721,1205,0,0
504,-181,0,0,0,0,0,0,0,0,0,-1,1728,1205,0,0
511,-181,0,0,0,0,0,0,0,0,0,-1,1735,1205,0,0
518,-181,0,0,0,0,0,0,0,0,0,-1,1742,1205,0,0
525,-181,0,0,0,0,0,0,0,0,0,-1,1749,1205,0,0
532,-181,0,0,0,0,0,0,0,0,0,-1,1756,1205,0,0
539,-181,0,0,0,0,0,0,0,0,0,-1,1763,1205,0,0
546,-181,0,0,0,0,0,0,0,0,0,-1,1770,1205,0,0
553,-181,0,0,0,0,0,0,0,0,0,-1,1777,1205,0,0
560,-181,0,0,0,0,0,0,0,0,0,-1,1784,1205,0,0
567,-181,0,0,0,0,0,0,0,0,0,-1,1791,1205,0,0
574,-181,0,0,0,0,0,0,0,0,0,-1,1798,1205,0,0
581,-181,0,0,0,0,0,0,0,0,0,-1,1805,1205,0,0
588,-181,0,0,0,0,0,0,0,0,0,-1,1812,1205,0,0
595,-181,0,0,0,0,0,0,0,0,0,-1,1819,1205,0,0
602,-181,0,0,0,0,0,0,0,0,0,-1,1826,1205,0,0
609,-181,0,0,0,0,0,0,0,0,0,-1,1833,1205,0,0
616,-181,0,0,0,0,0,0,0,0,0,-1,1840,1205,0,0
623,-181,0,0,0,0,0,0,0,0,0,-1,1847,1205,0,0
630,-181,22.1049,3.04785,-0.00258686,-0.00609286,0.00380003,-0.000154973,-0.00852475,0.569287,0.00563222,0.0385133,1854,1205,22.1049,-3.04779
637,-181,22.1467,2.94958,-0.00168682,-0.0037807,0.00243785,-8.06157e-05,-0.00538691,0.582581,0.00356471,0.0384352,1861,1205,22.1467,-2.94963
644,-181,22.2289,2.94824,-0.000406219,-0.00210913,0.00125867,0.000261938,-0.00277729,0.488018,0.00194473,0.0398935,1868,1205,22.2289,-2.94827
651,-181,22.1976,2.87842,0.000979166,-0.000724653,0.000157801,0.000993658,-0.000739144,0.0915779,0.00100402,0.0428393,1875,1205,22.1976,-2.87844
658,-181,22.0406,2.71814,0.00181363,-1.76834e-05,-0.000382279,0.00189023,-9.42789e-05,-0.197747,0.00129272,0.036747,1882,1205,22.0406,-2.7181
665,-181,22.0564,2.75171,0.00209165,0.000203362,-0.00049627,0.00221413,8.08801e-05,-0.24197,0.00144988,0.0302029,1889,1205,22.0564,-2.75169
672,-181,22.0865,2.797,0.00196528,0.00010412,-0.00042212,0.00205655,1.28562e-05,-0.212926,0.00136677,0.0227675,1896,1205,22.0866,-2.79698
679,-181,22.1273,2.84399,0.00151625,-6.63609e-05,-0.000132458,0.00152726,-7.73706e-05,-0.0829273,0.00104492,0.0283943,1903,1205,22.1273,-2.84397
686,-181,22.2413,2.99365,0.00098295,-0.000369893,0.000132327,0.000995772,-0.000382715,0.0965942,0.000821686,0.0491387,1910,1205,22.2413,-2.99371
693,-181,22.3962,3.14478,0,0,0,0,0,0,0,-1,1917,1205,22.3963,-3.14477
700,-181,20.2112,5.05066,0,0,0,0,0,0,0,-1,1924,1205,20.2112,-5.05065
707,-181,20.0674,4.92957,-0.000572873,-0.00077533,0.000947192,0.000278484,-0.00162669,0.732164,0.00118821,0.0312926,1931,1205,20.0673,-4.92956
714,-181,20.0211,4.78748,-0.00122396,-0.000894179,0.00122055,0.000172571,-0.00229071,0.852539,0.00158779,0.0225039,1938,1205,20.0212,-4.78742
721,-181,19.9032,4.66162,-0.00158377,-0.000993875,0.00155135,0.000290318,-0.00286796,0.879338,0.00201573,0.0145402,1945,1205,19.9032,-4.6616
728,-181,19.7982,4.55798,-0.00136156,-0.000938287,0.00166847,0.000531915,-0.00283176,0.848483,0.00208785,0.010605,1952,1205,19.7982,-4.55794
735,-181,19.8182,4.41321,-0.00072534,-0.00107954,0.00114059,0.000251821,-0.0020567,0.708379,0.00146232,0.00993708,1959,1205,19.8182,-4.4132
742,-181,19.8251,4.29358,0.000831178,-0.00095748,0.000318968,0.000886356,-0.00101266,0.171296,0.0010972,0.0165533,1966,1205,19.825,-4.29364
749,-181,19.8251,4.14966,0.00469588,-0.00175941,-0.0010417,0.00485982,-0.00192335,-0.156095,0.00403673,0.0162478,1973,1205,19.825,-4.14969
756,-181,19.8047,3.99561,0.0102337,-0.0023601,-0.00266415,0.0107741,-0.0029005,-0.200125,0.00831986,0.011607,1980,1205,19.8047,-3.99557
763,-181,19.7765,3.85791,0.0163813,-0.00364548,-0.00466362,0.0174141,-0.00467823,-0.217932,0.0134429,0.011589,1987,1205,19.7765,-3.85794
770,-181,19.787,3.75232,0.0245589,-0.00559161,-0.0072034,0.0261915,-0.0072242,-0.222877,0.0203021,0.0240827,1994,1205,19.787,-3.75228
777,-181,20.3113,3.77954,0.0354715,-0.00826302,-0.010523,0.0378717,-0.0106632,-0.224255,0.0294528,0.0437778,2001,1205,20.3113,-3.77956
784,-181,20.7839,3.80078,0,0,0,0,0,0,0,-1,2008,1205,20.7839,-3.80083
791,-181,21.1604,5.4209,0,0,0,0,0,0,0,-1,2015,1205,21.1604,-5.42085
798,-181,21.7917,4.61841,0,0,0,0,0,0,0,-1,2022,1205,21.7917,-4.61842
805,-181,0,0,0,0,0,0,0,0,0,-1,2029,1205,0,0
812,-181,0,0,0,0,0,0,0,0,0,-1,2036,1205,0,0
-700,-188,0,0,0,0,0,0,0,0,0,-1,524,1212,0,0
-693,-188,0,0,0,0,0,0,0,0,0,-1,531,1212,0,0
-686,-188,0,0,0,0,0,0,0,0,0,-1,538,1212,0,0
-679,-188,-8.34344,-0.330811,0,0,0,0,0,0,0,-1,545,1212,-8.34347,0.330764
-672,-188,-9.05212,0.0135498,0,0,0,0,0,0,0,-1,552,1212,-9.0521,-0.0134889
-665,-188,-11.6408,0.335571,0,0,0,0,0,0,0,-1,559,1212,-11.6408,-0.335593
-658,-188,-11.0774,1.26978,-0.00332588,0.0107534,-0.0129798,0.0184797,-0.0110521,-1.03388,0.017229,0.0452876,566,1212,-11.0774,-1.26983
-651,-188,-11.4075,0.920166,-0.00467462,0.00945701,-0.00934857,0.0141096,-0.00932723,-1.10901,0.0136249,0.0475574,573,1212,-11.4075,-0.92014
-644,-188,-11.64,1.12695,-0.00509721,0.00806728,-0.006558,0.0107766,-0.00780654,-1.17902,0.0107746,0.0435758,580,1212,-11.64,-1.12695
-637,-188,-11.6713,1.27917,-0.00488012,0.00665962,-0.00450605,0.00821067,-0.00643117,-1.23928,0.00847426,0.0221955,587,1212,-11.6713,-1.2792
-630,-188,-11.7136,1.44263,-0.00459829,0.00536137,-0.00327628,0.00634247,-0.00557939,-1.27984,0.00688779,0.0101201,594,1212,-11.7136,-1.44266
-623,-188,-11.7331,1.60938,-0.00456387,0.00381367,-0.00216719,0.0043411,-0.0050913,-1.33207,0.00545154,0.0102532,601,1212,-11.7331,-1.6094
-616,-188,-11.7288,1.78833,-0.00422551,0.00230626,-0.00145673,0.00261641,-0.00453566,-1.36102,0.00417852,0.0106328,608,1212,-11.7288,-1.78836
-609,-188,-11.7039,1.96631,-0.00383511,0.00126242,-0.0012089,0.00153458,-0.00410727,-1.34936,0.00336832,0.0134669,615,1212,-11.7038,-1.96632
-602,-188,-11.6928,2.14856,-0.00353466,0.00014921,-0.00136954,0.000602568,-0.00398802,-1.25112,0.00288062,0.0151831,622,1212,-11.6928,-2.14858
-595,-188,-11.7415,2.32715,-0.00342307,-0.000559821,-0.00183557,0.0003364,-0.00431929,-1.11659,0.00299796,0.011186,629,1212,-11.7415,-2.32711
-588,-188,-11.751,2.50708,-0.00306938,-0.00126215,-0.0023472,0.000349358,-0.00468089,-0.969142,0.00324333,0.00952951,636,1212,-11.7511,-2.50705
-581,-188,-11.7374,2.70642,-0.00253176,-0.00162813,-0.00274375,0.000700759,-0.00486065,-0.867002,0.0034975,0.00958138,643,1212,-11.7374,-2.70643
-574,-188,-11.877,2.7251,0,0,0,0,0,0,0,-1,650,1212,-11.8769,-2.72505
-567,-188,-11.4511,2.60742,0,0,0,0,0,0,0,-1,657,1212,-11.4511,-2.60746
-560,-188,-14.6893,1.229,0,0,0,0,0,0,0,-1,664,1212,-14.6893,-1.22904
-553,-188,-14.5695,1.13977,-0.000747394,-0.00183406,-0.00207182,0.000851152,-0.00343261,-0.657161,0.00261864,0.0480851,671,1212,-14.5695,-1.13974
-546,-188,-14.4971,1.12427,-8.69172e-05,-0.00166483,-0.00169908,0.000997445,-0.00274919,-0.568039,0.00224055,0.0419889,678,1212,-14.4971,-1.12426
-539,-188,-14.3391,0.973999,0.000535917,-0.00135076,-0.00103161,0.000990476,-0.00180531,-0.415033,0.00163684,0.0368486,685,1212,-14.3391,-0.974053
-532,-188,-14.3582,0.858521,0.000962054,-0.000770401,0.000190116,0.000982672,-0.000791019,0.108025,0.00102603,0.040412,692,1212,-14.3582,-0.858553
-525,-188,-14.218,0.828491,0.000974996,0.000242336,0.00228675,0.00292457,-0.00170724,0.705974,0.00270478,0.0402342,699,1212,-14.218,-0.828469
-518,-188,-14.1823,1.01917,-0.00129467,0.00153437,0.00554342,0.0058409,-0.0056012,0.910318,0.00660658,0.0429433,706,1212,-14.1823,-1.01919
-511,-188,-14.2516,1.01465,-0.00400225,0.00344821,0.0101873,0.01057,-0.0111241,0.960683,0.0125264,0.0417821,713,1212,-14.2516,-1.01466
-504,-188,0,0,0,0,0,0,0,0,0,-1,720,1212,0,0
-497,-188,0,0,0,0,0,0,0,0,0,-1,727,1212,0,0
-490,-188,0,0,0,0,0,0,0,0,0,-1,734,1212,0,0
-483,-188,0,0,0,0,0,0,0,0,0,-1,741,1212,0,0
-476,-188,0,0,0,0,0,0,0,0,0,-1,748,1212,0,0
-469,-188,0,0,0,0,0,0,0,0,0,-1,755,1212,0,0
-462,-188,0,0,0,0,0,0,0,0,0,-1,762,1212,0,0
-455,-188,0,0,0,0,0,0,0,0,0,-1,769,1212,0,0
-448,-188,0,0,0,0,0,0,0,0,0,-1,776,1212,0,0
-441,-188,0,0,0,0,0,0,0,0,0,-1,783,1212,0,0
-434,-188,0,0,0,0,0,0,0,0,0,-1,790,1212,0,0
-427,-188,0,0,0,0,0,0,0,0,0,-1,797,1212,0,0
-420,-188,0,0,0,0,0,0,0,0,0,-1,804,1212,0,0
-413,-188,0,0,0,0,0,0,0,0,0,-1,811,1212,0,0
-406,-188,0,0,0,0,0,0,0,0,0,-1,818,1212,0,0
-399,-188,0,0,0,0,0,0,0,0,0,-1,825,1212,0,0
-392,-188,0,0,0,0,0,0,0,0,0,-1,832,1212,0,0
-385,-188,0,0,0,0,0,0,0,0,0,-1,839,1212,0,0
-378,-188,0,0,0,0,0,0,0,0,0,-1,846,1212,0,0
-371,-188,0,0,0,0,0,0,0,0,0,-1,853,1212,0,0
-364,-188,0,0,0,0,0,0,0,0,0,-1,860,1212,0,0
-357,-188,0,0,0,0,0,0,0,0,0,-1,867,1212,0,0
-350,-188,0,0,0,0,0,0,0,0,0,-1,874,1212,0,0
-343,-188,0,0,0,0,0,0,0,0,0,-1,881,1212,0,0
-336,-188,0,0,0,0,0,0,0,0,0,-1,888,1212,0,0
-329,-188,0,0,0,0,0,0,0,0,0,-1,895,1212,0,0
-322,-188,0,0,0,0,0,0,0,0,0,-1,902,1212,0,0
-315,-188,0,0,0,0,0,0,0,0,0,-1,909,1212,0,0
-308,-188,0,0,0,0,0,0,0,0,0,-1,916,1212,0,0
-301,-188,0,0,0,0,0,0,0,0,0,-1,923,1212,0,0
-294,-188,0,0,0,0,0,0,0,0,0,-1,930,1212,0,0
-287,-188,0,0,0,0,0,0,0,0,0,-1,937,1212,0,0
-280,-188,0,0,0,0,0,0,0,0,0,-1,944,1212,0,0
-273,-188,0,0,0,0,0,0,0,0,0,-1,951,1212,0,0
-266,-188,0,0,0,0,0,0,0,0,0,-1,958,1212,0,0
-259,-188,0,0,0,0,0,0,0,0,0,-1,965,1212,0,0
-252,-188,0,0,0,0,0,0,0,0,0,-1,972,1212,0,0
-245,-188,0,0,0,0,0,0,0,0,0,-1,979,1212,0,0
-238,-188,0,0,0,0,0,0,0,0,0,-1,986,1212,0,0
-231,-188,0,0,0,0,0,0,0,0,0,-1,993,1212,0,0
-224,-188,0,0,0,0,0,0,0,0,0,-1,1000,1212,0,0
-217,-188,0,0,0,0,0,0,0,0,0,-1,1007,1212,0,0
-210,-188,0,0,0,0,0,0,0,0,0,-1,1014,1212,0,0
-203,-188,0,0,0,0,0,0,0,0,0,-1,1021,1212,0,0
-196,-188,0,0,0,0,0,0,0,0,0,-1,1028,1212,0,0
-189,-188,0,0,0,0,0,0,0,0,0,-1,1035,1212,0,0
-182,-188,0,0,0,0,0,0,0,0,0,-1,1042,1212,0,0
-175,-188,0,0,0,0,0,0,0,0,0,-1,1049,1212,0,0
-168,-188,0,0,0,0,0,0,0,0,0,-1,1056,1212,0,0
-161,-188,0,0,0,0,0,0,0,0,0,-1,1063,1212,0,0
-154,-188,0,0,0,0,0,0,0,0,0,-1,1070,1212,0,0
-147,-188,0,0,0,0,0,0,0,0,0,-1,1077,1212,0,0
-140,-188,0,0,0,0,0,0,0,0,0,-1,1084,1212,0,0
-133,-188,0,0,0,0,0,0,0,0,0,-1,1091,1212,0,0
-126,-188,0,0,0,0,0,0,0,0,0,-1,1098,1212,0,0
-119,-188,0,0,0,0,0,0,0,0,0,-1,1105,1212,0,0
-112,-188,0,0,0,0,0,0,0,0,0,-1,1112,1212,0,0
-105,-188,0,0,0,0,0,0,0,0,0,-1,1119,1212,0,0
-98,-188,0,0,0,0,0,0,0,0,0,-1,1126,1212,0,0
-91,-188,0,0,0,0,0,0,0,0,0,-1,1133,1212,0,0
-84,-188,0,0,0,0,0,0,0,0,0,-1,1140,1212,0,0
-77,-188,0,0,0,0,0,0,0,0,0,-1,1147,1212,0,0
-70,-188,0,0,0,0,0,0,0,0,0,-1,1154,1212,0,0
-63,-188,0,0,0,0,0,0,0,0,0,-1,1161,1212,0,0
-56,-188,0,0,0,0,0,0,0,0,0,-1,1168,1212,0,0
-49,-188,0,0,0,0,0,0,0,0,0,-1,1175,1212,0,0
-42,-188,0,0,0,0,0,0,0,0,0,-1,1182,1212,0,0
-35,-188,0,0,0,0,0,0,0,0,0,-1,1189,1212,0,0
-28,-188,0,0,0,0,0,0,0,0,0,-1,1196,1212,0,0
-21,-188,0,0,0,0,0,0,0,0,0,-1,1203,1212,0,0
-14,-188,0,0,0,0,0,0,0,0,0,-1,1210,1212,0,0
-7,-188,0,0,0,0,0,0,0,0,0,-1,1217,1212,0,0
0,-188,0,0,0,0,0,0,0,0,0,-1,1224,1212,0,0
7,-188,0,0,0,0,0,0,0,0,0,-1,1231,1212,0,0
14,-188,0,0,0,0,0,0,0,0,0,-1,1238,1212,0,0
21,-188,0,0,0,0,0,0,0,0,0,-1,1245,1212,0,0
28,-188,0,0,0,0,0,0,0,0,0,-1,1252,1212,0,0
35,-188,0,0,0,0,0,0,0,0,0,-1,1259,1212,0,0
42,-188,0,0,0,0,0,0,0,0,0,-1,1266,1212,0,0
49,-188,0,0,0,0,0,0,0,0,0,-1,1273,1212,0,0
56,-188,0,0,0,0,0,0,0,0,0,-1,1280,1212,0,0
63,-188,0,0,0,0,0,0,0,0,0,-1,1287,1212,0,0
70,-188,0,0,0,0,0,0,0,0,0,-1,1294,1212,0,0
77,-188,0,0,0,0,0,0,0,0,0,-1,1301,1212,0,0
84,-188,0,0,0,0,0,0,0,0,0,-1,1308,1212,0,0
91,-188,0,0,0,0,0,0,0,0,0,-1,1315,1212,0,0
98,-188,0,0,0,0,0,0,0,0,0,-1,1322,1212,0,0
105,-188,0,0,0,0,0,0,0,0,0,-1,1329,1212,0,0
112,-188,0,0,0,0,0,0,0,0,0,-1,1336,1212,0,0
119,-188,0,0,0,0,0,0,0,0,0,-1,1343,1212,0,0
126,-188,0,0,0,0,0,0,0,0,0,-1,1350,1212,0,0
133,-188,0,0,0,0,0,0,0,0,0,-1,1357,1212,0,0
140,-188,0,0,0,0,0,0,0,0,0,-1,1364,1212,0,0
147,-188,0,0,0,0,0,0,0,0,0,-1,1371,1212,0,0
154,-188,0,0,0,0,0,0,0,0,0,-1,1378,1212,0,0
161,-188,0,0,0,0,0,0,0,0,0,-1,1385,1212,0,0
168,-188,0,0,0,0,0,0,0,0,0,-1,1392,1212,0,0
175,-188,0,0,0,0,0,0,0,0,0,-1,1399,1212,0,0
182,-188,0,0,0,0,0,0,0,0,0,-1,1406,1212,0,0
189,-188,0,0,0,0,0,0,0,0,0,-1,1413,1212,0,0
196,-188,0,0,0,0,0,0,0,0,0,-1,1420,1212,0,0
203,-188,0,0,0,0,0,0,0,0,0,-1,1427,1212,0,0
210,-188,0,0,0,0,0,0,0,0,0,-1,1434,1212,0,0
217,-188,0,0,0,0,0,0,0,0,0,-1,1441,1212,0,0
224,-188,0,0,0,0,0,0,0,0,0,-1,1448,1212,0,0
231,-188,0,0,0,0,0,0,0,0,0,-1,1455,1212,0,0
238,-188,0,0,0,0,0,0,0,0,0,-1,1462,1212,0,0
245,-188,0,0,0,0,0,0,0,0,0,-1,1469,1212,0,0
252,-188,0,0,0,0,0,0,0,0,0,-1,1476,1212,0,0
259,-188,0,0,0,0,0,0,0,0,0,-1,1483,1212,0,0
266,-188,0,0,0,0,0,0,0,0,0,-1,1490,1212,0,0
273,-188,0,0,0,0,0,0,0,0,0,-1,1497,1212,0,0
280,-188,0,0,0,0,0,0,0,0,0,-1,1504,1212,0,0
287,-188,0,0,0,0,0,0,0,0,0,-1,1511,1212,0,0
294,-188,0,0,0,0,0,0,0,0,0,-1,1518,1212,0,0
301,-188,0,0,0,0,0,0,0,0,0,-1,1525,1212,0,0
308,-188,0,0,0,0,0,0,0,0,0,-1,1532,1212,0,0
315,-188,0,0,0,0,0,0,0,0,0,-1,1539,1212,0,0
322,-188,0,0,0,0,0,0,0,0,0,-1,1546,1212,0,0
329,-188,0,0,0,0,0,0,0,0,0,-1,1553,1212,0,0
336,-188,0,0,0,0,0,0,0,0,0,-1,1560,1212,0,0
343,-188,0,0,0,0,0,0,0,0,0,-1,1567,1212,0,0
350,-188,0,0,0,0,0,0,0,0,0,-1,1574,1212,0,0
357,-188,0,0,0,0,0,0,0,0,0,-1,1581,1212,0,0
364,-188,0,0,0,0,0,0,0,0,0,-1,1588,1212,0,0
371,-188,0,0,0,0,0,0,0,0,0,-1,1595,1212,0,0
378,-188,0,0,0,0,0,0,0,0,0,-1,1602,1212,0,0
385,-188,0,0,0,0,0,0,0,0,0,-1,1609,1212,0,0
392,-188,0,0,0,0,0,0,0,0,0,-1,1616,1212,0,0
399,-188,0,0,0,0,0,0,0,0,0,-1,1623,1212,0,0
406,-188,0,0,0,0,0,0,0,0,0,-1,1630,1212,0,0
413,-188,0,0,0,0,0,0,0,0,0,-1,1637,1212,0,0
420,-188,0,0,0,0,0,0,0,0,0,-1,1644,1212,0,0
427,-188,0,0,0,0,0,0,0,0,0,-1,1651,1212,0,0
434,-188,0,0,0,0,0,0,0,0,0,-1,1658,1212,0,0
441,-188,0,0,0,0,0,0,0,0,0,-1,1665,1212,0,0
448,-188,0,0,0,0,0,0,0,0,0,-1,1672,1212,0,0
455,-188,0,0,0,0,0,0,0,0,0,-1,1679,1212,0,0
462,-188,0,0,0,0,0,0,0,0,0,-1,1686,1212,0,0
469,-188,0,0,0,0,0,0,0,0,0,-1,1693,1212,0,0
476,-188,0,0,0,0,0,0,0,0,0,-1,1700,1212,0,0
483,-188,0,0,0,0,0,0,0,0,0,-1,1707,1212,0,0
490,-188,0,0,0,0,0,0,0,0,0,-1,1714,1212,0,0
497,-188,0,0,0,0,0,0,0,0,0,-1,1721,1212,0,0
504,-188,0,0,0,0,0,0,0,0,0,-1,1728,1212,0,0
511,-188,0,0,0,0,0,0,0,0,0,-1,1735,1212,0,0
518,-188,0,0,0,0,0,0,0,0,0,-1,1742,1212,0,0
525,-188,0,0,0,0,0,0,0,0,0,-1,1749,1212,0,0
532,-188,0,0,0,0,0,0,0,0,0,-1,1756,1212,0,0
539,-188,0,0,0,0,0,0,0,0,0,-1,1763,1212,0,0
546,-188,0,0,0,0,0,0,0,0,0,-1,1770,1212,0,0
553,-188,0,0,0,0,0,0,0,0,0,-1,1777,1212,0,0
560,-188,0,0,0,0,0,0,0,0,0,-1,1784,1212,0,0
567,-188,0,0,0,0,0,0,0,0,0,-1,1791,1212,0,0
574,-188,0,0,0,0,0,0,0,0,0,-1,1798,1212,0,0
581,-188,0,0,0,0,0,0,0,0,0,-1,1805,1212,0,0
588,-188,0,0,0,0,0,0,0,0,0,-1,1812,1212,0,0
595,-188,0,0,0,0,0,0,0,0,0,-1,1819,1212,0,0
602,-188,0,0,0,0,0,0,0,0,0,-1,1826,1212,0,0
609,-188,0,0,0,0,0,0,0,0,0,-1,1833,1212,0,0
616,-188,0,0,0,0,0,0,0,0,0,-1,1840,1212,0,0
623,-188,0,0,0,0,0,0,0,0,0,-1,1847,1212,0,0
630,-188,21.9734,3.04028,-0.00209426,-0.00429568,0.0036842,0.000650143,-0.00704008,0.640236,0.00492442,0.0431013,1854,1212,21.9733,-3.04026
637,-188,21.9507,3.01062,-0.000895718,-0.00212747,0.00221817,0.000790488,-0.00381368,0.649984,0.00284282,0.0412707,1861,1212,21.9507,-3.01061
644,-188,21.9814,2.96631,0.000470917,-0.000561978,0.000879796,0.000974645,-0.00106571,0.519992,0.00117839,0.0365782,1868,1212,21.9815,-2.96625
651,-188,22.0771,2.93628,0.00177806,0.000544748,-0.000242397,0.00182399,0.000498817,-0.187264,0.00108851,0.0334821,1875,1212,22.0771,-2.9363
658,-188,22.0771,2.76587,0.00250244,0.000968441,-0.000766399,0.00281972,0.000651164,-0.392503,0.00170473,0.0318551,1882,1212,22.0772,-2.76586
665,-188,22.0574,2.75525,0.00274009,0.000961246,-0.000883372,0.00310423,0.000597106,-0.390992,0.00190196,0.0279293,1889,1212,22.0574,-2.75525
672,-188,22.1306,2.8468,0.00258746,0.000676531,-0.00080544,0.00288165,0.000382337,-0.350203,0.00180719,0.0225126,1896,1212,22.1306,-2.8468
679,-188,22.2034,2.87695,0.00216008,0.000386672,-0.00051243,0.0022975,0.000249253,-0.262007,0.00145571,0.0429784,1903,1212,22.2034,-2.87691
686,-188,22.2615,3.00977,0.00166111,-5.60631e-06,-0.000241325,0.00169534,-3.98447e-05,-0.140936,0.00114374,0.0436456,1910,1212,22.2614,-3.0098
693,-188,22.3464,3.04321,0,0,0,0,0,0,0,-1,1917,1212,22.3465,-3.04325
700,-188,19.9752,5.08569,0,0,0,0,0,0,0,-1,1924,1212,19.9752,-5.08573
707,-188,19.7919,4.95947,7.55888e-05,-0.000701045,0.000634185,0.000430898,-0.00105635,0.510688,0.000883613,0.0164857,1931,1212,19.7919,-4.95942
714,-188,19.7483,4.85059,-0.000614496,-0.000868642,0.000970467,0.000237182,-0.00172032,0.720298,0.00123357,0.0128646,1938,1212,19.7483,-4.85064
721,-188,19.6748,4.71948,-0.00100909,-0.00100725,0.00136858,0.000360413,-0.00237676,0.785735,0.0017173,0.0111298,1945,1212,19.6748,-4.71948
728,-188,19.6525,4.56458,-0.000804991,-0.000970166,0.00151938,0.000634048,-0.0024092,0.758247,0.00185398,0.00858461,1952,1212,19.6525,-4.5646
735,-188,19.6652,4.41992,-0.000128838,-0.0011929,0.000978211,0.000452664,-0.0017744,0.536332,0.00135918,0.0113397,1959,1212,19.6651,-4.41992
742,-188,19.6588,4.27356,0.00150057,-0.00126071,7.29797e-05,0.00150249,-0.00126263,0.0264052,0.00159845,0.0139756,1966,1212,19.6588,-4.27358
749,-188,19.6636,4.1333,0.00518957,-0.00211347,-0.00134122,0.0054281,-0.002352,-0.176003,0.00460739,0.0140672,1973,1212,19.6636,-4.13336
756,-188,19.6665,3.97913,0.0104513,-0.00288929,-0.00307186,0.0111246,-0.00356265,-0.215787,0.00884642,0.0122141,1980,1212,19.6666,-3.97914
763,-188,19.6376,3.83423,0.0164227,-0.00444321,-0.00527092,0.0176786,-0.0056991,-0.233907,0.0140754,0.0131337,1987,1212,19.6376,-3.83419
770,-188,19.6432,3.71326,0.0244703,-0.00673286,-0.00819199,0.0264903,-0.0087528,-0.241753,0.0211892,0.0201649,1994,1212,19.6432,-3.71326
777,-188,19.7335,3.58142,0.0352161,-0.0098378,-0.0120849,0.038253,-0.0128746,-0.246195,0.0307068,0.0418103,2001,1212,19.7336,-3.58138
784,-188,19.8163,3.43127,0.0491306,-0.0137366,-0.0170082,0.053437,-0.0180431,-0.247986,0.0429223,0.0491416,2008,1212,19.8163,-3.43125
791,-188,19.8834,3.29199,0,0,0,0,0,0,0,-1,2015,1212,19.8834,-3.29201
798,-188,20.4855,2.70129,0,0,0,0,0,0,0,-1,2022,1212,20.4855,-2.70129
805,-188,0,0,0,0,0,0,0,0,0,-1,2029,1212,0,0
812,-188,0,0,0,0,0,0,0,0,0,-1,2036,1212,0,0
-700,-195,0,0,0,0,0,0,0,0,0,-1,524,1219,0,0
-693,-195,0,0,0,0,0,0,0,0,0,-1,531,1219,0,0
-686,-195,0,0,0,0,0,0,0,0,0,-1,538,1219,0,0
-679,-195,-10.5098,0.342407,0,0,0,0,0,0,0,-1,545,1219,-10.5098,-0.34235
-672,-195,-11.3522,-0.0643311,0,0,0,0,0,0,0,-1,552,1219,-11.3521,0.0643871
-665,-195,-11.4105,0.285278,0.00473244,0.0129597,-0.0244848,0.033674,-0.0159818,-0.868625,0.0292691,0.0493345,559,1219,-11.4104,-0.285247
-658,-195,-11.4641,0.580078,0.00107622,0.0124091,-0.0180333,0.0256453,-0.0121599,-0.937625,0.0222849,0.0455552,566,1219,-11.464,-0.580104
-651,-195,-11.5881,0.95105,-0.00110211,0.0113356,-0.0129598,0.0194915,-0.00925792,-1.0091,0.0169454,0.0461321,573,1219,-11.5881,-0.951012
-644,-195,-11.4901,1.18811,-0.00229037,0.00994749,-0.00906625,0.0147665,-0.00710937,-1.08224,0.0128853,0.0417638,580,1219,-11.4901,-1.18815
-637,-195,-11.4177,1.30029,-0.00275008,0.00838812,-0.0061855,0.0111422,-0.00550416,-1.1519,0.0097928,0.0223425,587,1219,-11.4177,-1.30024
-630,-195,-11.5186,1.44556,-0.00296807,0.00684416,-0.00430074,0.00846233,-0.00458624,-1.21093,0.00764358,0.00788164,594,1219,-11.5186,-1.44557
-623,-195,-11.5399,1.60413,-0.00332754,0.00505782,-0.0026868,0.00584485,-0.00411457,-1.28584,0.00577892,0.00745614,601,1219,-11.5399,-1.60415
-616,-195,-11.5265,1.78198,-0.00331917,0.00333775,-0.00154568,0.00367913,-0.00366055,-1.35342,0.00423757,0.00940968,608,1219,-11.5265,-1.782
-609,-195,-11.5325,1.96301,-0.0030616,0.00207341,-0.00100953,0.00226476,-0.00325295,-1.38348,0.00320263,0.018053,615,1219,-11.5324,-1.96303
-602,-195,-11.535,2.11133,-0.00273251,0.000763831,-0.00104202,0.00105083,-0.00301951,-1.30204,0.00243992,0.0208588,622,1219,-11.535,-2.11138
-595,-195,-11.5621,2.349,-0.00257622,-0.000107367,-0.0014415,0.000556026,-0.00323961,-1.13948,0.00236695,0.0148092,629,1219,-11.5621,-2.34894
-588,-195,-11.5634,2.50989,-0.00218901,-0.000968482,-0.00191752,0.000433537,-0.00359103,-0.939459,0.00255084,0.00785645,636,1219,-11.5634,-2.50988
-581,-195,-11.5751,2.64404,-0.00161941,-0.00141617,-0.00234752,0.000831933,-0.00386751,-0.807028,0.00289576,0.00979592,643,1219,-11.5751,-2.64405
-574,-195,-11.605,2.65515,-0.00101364,-0.00184572,-0.0024084,0.00101438,-0.00387375,-0.69987,0.00297877,0.0236828,650,1219,-11.605,-2.65516
-567,-195,-11.603,2.64282,0,0,0,0,0,0,0,-1,657,1219,-11.603,-2.64278
-560,-195,-13.6769,0.898438,0,0,0,0,0,0,0,-1,664,1219,-13.6769,-0.898463
-553,-195,-14.6649,1.2594,0,0,0,0,0,0,0,-1,671,1219,-14.6649,-1.25945
-546,-195,-14.4318,1.30566,0.000927698,-0.00201309,-0.00204062,0.0019725,-0.00305788,-0.473202,0.00292674,0.0477228,678,1219,-14.4318,-1.30566
-539,-195,-14.4117,1.07019,0.00143786,-0.00188682,-0.0017058,0.00215735,-0.00260631,-0.39915,0.00275437,0.0385938,685,1219,-14.4117,-1.07019
-532,-195,-14.3423,0.791748,0.00168291,-0.00153614,-0.000966118,0.0019506,-0.00180384,-0.270301,0.00216818,0.0340912,692,1219,-14.3423,-0.791803
-525,-195,-14.184,0.794556,0.00152408,-0.000784649,0.000456885,0.00161121,-0.000871776,0.188435,0.00145459,0.0385631,699,1219,-14.184,-0.794499
-518,-195,-14.1728,0.930298,-0.000481106,0.000400278,0.00290202,0.00289488,-0.00297571,0.860751,0.00338949,0.0430261,706,1219,-14.1728,-0.930333
-511,-195,-14.1567,1.05835,-0.00330714,0.002464,0.00691052,0.00706721,-0.00791034,0.983175,0.00865186,0.0433693,713,1219,-14.1567,-1.0583
-504,-195,0,0,0,0,0,0,0,0,0,-1,720,1219,0,0
-497,-195,0,0,0,0,0,0,0,0,0,-1,727,1219,0,0
-490,-195,0,0,0,0,0,0,0,0,0,-1,734,1219,0,0
-483,-195,0,0,0,0,0,0,0,0,0,-1,741,1219,0,0
-476,-195,0,0,0,0,0,0,0,0,0,-1,748,1219,0,0
-469,-195,0,0,0,0,0,0,0,0,0,-1,755,1219,0,0
-462,-195,0,0,0,0,0,0,0,0,0,-1,762,1219,0,0
-455,-195,0,0,0,0,0,0,0,0,0,-1,769,1219,0,0
-448,-195,0,0,0,0,0,0,0,0,0,-1,776,1219,0,0
-441,-195,0,0,0,0,0,0,0,0,0,-1,783,1219,0,0
-434,-195,0,0,0,0,0,0,0,0,0,-1,790,1219,0,0
-427,-195,0,0,0,0,0,0,0,0,0,-1,797,1219,0,0
-420,-195,0,0,0,0,0,0,0,0,0,-1,804,1219,0,0
-413,-195,0,0,0,0,0,0,0,0,0,-1,811,1219,0,0
-406,-195,0,0,0,0,0,0,0,0,0,-1,818,1219,0,0
-399,-195,0,0,0,0,0,0,0,0,0,-1,825,1219,0,0
-392,-195,0,0,0,0,0,0,0,0,0,-1,832,1219,0,0
-385,-195,0,0,0,0,0,0,0,0,0,-1,839,1219,0,0
-378,-195,0,0,0,0,0,0,0,0,0,-1,846,1219,0,0
-371,-195,0,0,0,0,0,0,0,0,0,-1,853,1219,0,0
-364,-195,0,0,0,0,0,0,0,0,0,-1,860,1219,0,0
-357,-195,0,0,0,0,0,0,0,0,0,-1,867,1219,0,0
-350,-195,0,0,0,0,0,0,0,0,0,-1,874,1219,0,0
-343,-195,0,0,0,0,0,0,0,0,0,-1,881,1219,0,0
-336,-195,0,0,0,0,0,0,0,0,0,-1,888,1219,0,0
-329,-195,0,0,0,0,0,0,0,0,0,-1,895,1219,0,0
-322,-195,0,0,0,0,0,0,0,0,0,-1,902,1219,0,0
-315,-195,0,0,0,0,0,0,0,0,0,-1,909,1219,0,0
-308,-195,0,0,0,0,0,0,0,0,0,-1,916,1219,0,0
-301,-195,0,0,0,0,0,0,0,0,0,-1,923,1219,0,0
-294,-195,0,0,0,0,0,0,0,0,0,-1,930,1219,0,0
-287,-195,0,0,0,0,0,0,0,0,0,-1,937,1219,0,0
-280,-195,0,0,0,0,0,0,0,0,0,-1,944,1219,0,0
-273,-195,0,0,0,0,0,0,0,0,0,-1,951,1219,0,0
-266,-195,0,0,0,0,0,0,0,0,0,-1,958,1219,0,0
-259,-195,0,0,0,0,0,0,0,0,0,-1,965,1219,0,0
-252,-195,0,0,0,0,0,0,0,0,0,-1,972,1219,0,0
-245,-195,0,0,0,0,0,0,0,0,0,-1,979,1219,0,0
-238,-195,0,0,0,0,0,0,0,0,0,-1,986,1219,0,0
-231,-195,0,0,0,0,0,0,0,0,0,-1,993,1219,0,0
-224,-195,0,0,0,0,0,0,0,0,0,-1,1000,1219,0,0
-217,-195,0,0,0,0,0,0,0,0,0,-1,1007,1219,0,0
-210,-195,0,0,0,0,0,0,0,0,0,-1,1014,1219,0,0
-203,-195,0,0,0,0,0,0,0,0,0,-1,1021,1219,0,0
-196,-195,0,0,0,0,0,0,0,0,0,-1,1028,1219,0,0
-189,-195,0,0,0,0,0,0,0,0,0,-1,1035,1219,0,0
-182,-195,0,0,0,0,0,0,0,0,0,-1,1042,1219,0,0
-175,-195,0,0,0,0,0,0,0,0,0,-1,1049,1219,0,0
-168,-195,0,0,0,0,0,0,0,0,0,-1,1056,1219,0,0
-161,-195,0,0,0,0,0,0,0,0,0,-1,1063,1219,0,0
-154,-195,0,0,0,0,0,0,0,0,0,-1,1070,1219,0,0
-147,-195,0,0,0,0,0,0,0,0,0,-1,1077,1219,0,0
-140,-195,0,0,0,0,0,0,0,0,0,-1,1084,1219,0,0
-133,-195,0,0,0,0,0,0,0,0,0,-1,1091,1219,0,0
-126,-195,0,0,0,0,0,0,0,0,0,-1,1098,1219,0,0
-119,-195,0,0,0,0,0,0,0,0,0,-1,1105,1219,0,0
-112,-195,0,0,0,0,0,0,0,0,0,-1,1112,1219,0,0
-105,-195,0,0,0,0,0,0,0,0,0,-1,1119,1219,0,0
-98,-195,0,0,0,0,0,0,0,0,0,-1,1126,1219,0,0
-91,-195,0,0,0,0,0,0,0,0,0,-1,1133,1219,0,0
-84,-195,0,0,0,0,0,0,0,0,0,-1,1140,1219,0,0
-77,-195,0,0,0,0,0,0,0,0,0,-1,1147,1219,0,0
-70,-195,0,0,0,0,0,0,0,0,0,-1,1154,1219,0,0
-63,-195,0,0,0,0,0,0,0,0,0,-1,1161,1219,0,0
-56,-195,0,0,0,0,0,0,0,0,0,-1,1168,1219,0,0
-49,-195,0,0,0,0,0,0,0,0,0,-1,1175,1219,0,0
-42,-195,0,0,0,0,0,0,0,0,0,-1,1182,1219,0,0
-35,-195,0,0,0,0,0,0,0,0,0,-1,1189,1219,0,0
-28,-195,0,0,0,0,0,0,0,0,0,-1,1196,1219,0,0
-21,-195,0,0,0,0,0,0,0,0,0,-1,1203,1219,0,0
-14,-195,0,0,0,0,0,0,0,0,0,-1,1210,1219,0,0
-7,-195,0,0,0,0,0,0,0,0,0,-1,1217,1219,0,0
0,-195,0,0,0,0,0,0,0,0,0,-1,1224,1219,0,0
7,-195,0,0,0,0,0,0,0,0,0,-1,1231,1219,0,0
14,-195,0,0,0,0,0,0,0,0,0,-1,1238,1219,0,0
21,-195,0,0,0,0,0,0,0,0,0,-1,1245,1219,0,0
28,-195,0,0,0,0,0,0,0,0,0,-1,1252,1219,0,0
35,-195,0,0,0,0,0,0,0,0,0,-1,1259,1219,0,0
42,-195,0,0,0,0,0,0,0,0,0,-1,1266,1219,0,0
49,-195,0,0,0,0,0,0,0,0,0,-1,1273,1219,0,0
56,-195,0,0,0,0,0,0,0,0,0,-1,1280,1219,0,0
63,-195,0,0,0,0,0,0,0,0,0,-1,1287,1219,0,0
70,-195,0,0,0,0,0,0,0,0,0,-1,1294,1219,0,0
77,-195,0,0,0,0,0,0,0,0,0,-1,1301,1219,0,0
84,-195,0,0,0,0,0,0,0,0,0,-1,1308,1219,0,0
91,-195,0,0,0,0,0,0,0,0,0,-1,1315,1219,0,0
98,-195,0,0,0,0,0,0,0,0,0,-1,1322,1219,0,0
105,-195,0,0,0,0,0,0,0,0,0,-1,1329,1219,0,0
112,-195,0,0,0,0,0,0,0,0,0,-1,1336,1219,0,0
119,-195,0,0,0,0,0,0,0,0,0,-1,1343,1219,0,0
126,-195,0,0,0,0,0,0,0,0,0,-1,1350,1219,0,0
133,-195,0,0,0,0,0,0,0,0,0,-1,1357,1219,0,0
140,-195,0,0,0,0,0,0,0,0,0,-1,1364,1219,0,0
147,-195,0,0,0,0,0,0,0,0,0,-1,1371,1219,0,0
154,-195,0,0,0,0,0,0,0,0,0,-1,1378,1219,0,0
161,-195,0,0,0,0,0,0,0,0,0,-1,1385,1219,0,0
168,-195,0,0,0,0,0,0,0,0,0,-1,1392,1219,0,0
175,-195,0,0,0,0,0,0,0,0,0,-1,1399,1219,0,0
182,-195,0,0,0,0,0,0,0,0,0,-1,1406,1219,0,0
189,-195,0,0,0,0,0,0,0,0,0,-1,1413,1219,0,0
196,-195,0,0,0,0,0,0,0,0,0,-1,1420,1219,0,0
203,-195,0,0,0,0,0,0,0,0,0,-1,1427,1219,0,0
210,-195,0,0,0,0,0,0,0,0,0,-1,1434,1219,0,0
217,-195,0,0,0,0,0,0,0,0,0,-1,1441,1219,0,0
224,-195,0,0,0,0,0,0,0,0,0,-1,1448,1219,0,0
231,-195,0,0,0,0,0,0,0,0,0,-1,1455,1219,0,0
238,-195,0,0,0,0,0,0,0,0,0,-1,1462,1219,0,0
245,-195,0,0,0,0,0,0,0,0,0,-1,1469,1219,0,0
252,-195,0,0,0,0,0,0,0,0,0,-1,1476,1219,0,0
259,-195,0,0,0,0,0,0,0,0,0,-1,1483,1219,0,0
266,-195,0,0,0,0,0,0,0,0,0,-1,1490,1219,0,0
273,-195,0,0,0,0,0,0,0,0,0,-1,1497,1219,0,0
280,-195,0,0,0,0,0,0,0,0,0,-1,1504,1219,0,0
287,-195,0,0,0,0,0,0,0,0,0,-1,1511,1219,0,0
294,-195,0,0,0,0,0,0,0,0,0,-1,1518,1219,0,0
301,-195,0,0,0,0,0,0,0,0,0,-1,1525,1219,0,0
308,-195,0,0,0,0,0,0,0,0,0,-1,1532,1219,0,0
315,-195,0,0,0,0,0,0,0,0,0,-1,1539,1219,0,0
322,-195,0,0,0,0,0,0,0,0,0,-1,1546,1219,0,0
329,-195,0,0,0,0,0,0,0,0,0,-1,1553,1219,0,0
336,-195,0,0,0,0,0,0,0,0,0,-1,1560,1219,0,0
343,-195,0,0,0,0,0,0,0,0,0,-1,1567,1219,0,0
350,-195,0,0,0,0,0,0,0,0,0,-1,1574,1219,0,0
357,-195,0,0,0,0,0,0,0,0,0,-1,1581,1219,0,0
364,-195,0,0,0,0,0,0,0,0,0,-1,1588,1219,0,0
371,-195,0,0,0,0,0,0,0,0,0,-1,1595,1219,0,0
378,-195,0,0,0,0,0,0,0,0,0,-1,1602,1219,0,0
385,-195,0,0,0,0,0,0,0,0,0,-1,1609,1219,0,0
392,-195,0,0,0,0,0,0,0,0,0,-1,1616,1219,0,0
399,-195,0,0,0,0,0,0,0,0,0,-1,1623,1219,0,0
406,-195,0,0,0,0,0,0,0,0,0,-1,1630,1219,0,0
413,-195,0,0,0,0,0,0,0,0,0,-1,1637,1219,0,0
420,-195,0,0,0,0,0,0,0,0,0,-1,1644,1219,0,0
427,-195,0,0,0,0,0,0,0,0,0,-1,1651,1219,0,0
434,-195,0,0,0,0,0,0,0,0,0,-1,1658,1219,0,0
441,-195,0,0,0,0,0,0,0,0,0,-1,1665,1219,0,0
448,-195,0,0,0,0,0,0,0,0,0,-1,1672,1219,0,0
455,-195,0,0,0,0,0,0,0,0,0,-1,1679,1219,0,0
462,-195,0,0,0,0,0,0,0,0,0,-1,1686,1219,0,0
469,-195,0,0,0,0,0,0,0,0,0,-1,1693,1219,0,0
476,-195,0,0,0,0,0,0,0,0,0,-1,1700,1219,0,0
483,-195,0,0,0,0,0,0,0,0,0,-1,1707,1219,0,0
490,-195,0,0,0,0,0,0,0,0,0,-1,1714,1219,0,0
497,-195,0,0,0,0,0,0,0,0,0,-1,1721,1219,0,0
504,-195,0,0,0,0,0,0,0,0,0,-1,1728,1219,0,0
511,-195,0,0,0,0,0,0,0,0,0,-1,1735,1219,0,0
518,-195,0,0,0,0,0,0,0,0,0,-1,1742,1219,0,0
525,-195,0,0,0,0,0,0,0,0,0,-1,1749,1219,0,0
532,-195,0,0,0,0,0,0,0,0,0,-1,1756,1219,0,0
539,-195,0,0,0,0,0,0,0,0,0,-1,1763,1219,0,0
546,-195,0,0,0,0,0,0,0,0,0,-1,1770,1219,0,0
553,-195,0,0,0,0,0,0,0,0,0,-1,1777,1219,0,0
560,-195,0,0,0,0,0,0,0,0,0,-1,1784,1219,0,0
567,-195,0,0,0,0,0,0,0,0,0,-1,1791,1219,0,0
574,-195,0,0,0,0,0,0,0,0,0,-1,1798,1219,0,0
581,-195,0,0,0,0,0,0,0,0,0,-1,1805,1219,0,0
588,-195,0,0,0,0,0,0,0,0,0,-1,1812,1219,0,0
595,-195,0,0,0,0,0,0,0,0,0,-1,1819,1219,0,0
602,-195,0,0,0,0,0,0,0,0,0,-1,1826,1219,0,0
609,-195,0,0,0,0,0,0,0,0,0,-1,1833,1219,0,0
616,-195,0,0,0,0,0,0,0,0,0,-1,1840,1219,0,0
623,-195,0,0,0,0,0,0,0,0,0,-1,1847,1219,0,0
630,-195,22.0326,2.81128,-0.0021108,-0.0029542,0.00299665,0.000493673,-0.00555868,0.715495,0.00388082,0.0425613,1854,1219,22.0326,-2.81134
637,-195,22.016,2.93848,-0.000470947,-0.000825009,0.00154618,0.0009083,-0.00220426,0.728398,0.00184823,0.0388981,1861,1219,22.016,-2.93842
644,-195,22.0793,2.94373,0.00113109,0.000679115,0.000236543,0.00123224,0.000577959,0.404108,0.000711892,0.0337047,1868,1219,22.0794,-2.94376
651,-195,22.0814,2.88452,0.00248091,0.0015438,-0.000746842,0.00289401,0.0011307,-0.505243,0.00168411,0.0267487,1875,1219,22.0815,-2.88452
658,-195,22.0828,2.84082,0.00323909,0.00175242,-0.00121055,0.00391631,0.0010752,-0.510056,0.00233645,0.0234218,1882,1219,22.0827,-2.84077
665,-195,22.084,2.80981,0.00352514,0.00156947,-0.00131659,0.00418729,0.000907312,-0.46599,0.00254362,0.0217226,1889,1219,22.084,-2.80978
672,-195,22.194,2.81189,0.00340431,0.00115777,-0.00123824,0.00395286,0.000609224,-0.417022,0.00245746,0.031922,1896,1219,22.194,-2.81194
679,-195,22.3953,2.85144,0.00303484,0.000792325,-0.000959311,0.00338921,0.000437948,-0.353859,0.00212856,0.0451623,1903,1219,22.3953,-2.85141
686,-195,22.3402,3.10938,0,0,0,0,0,0,0,-1,1910,1219,22.3402,-3.10934
693,-195,19.8414,5.00867,0,0,0,0,0,0,0,-1,1917,1219,19.8415,-5.00868
700,-195,19.6676,5.05347,0.00156321,-0.000266055,-0.000128059,0.00157213,-0.000274976,-0.0695534,0.00115075,0.0378522,1924,1219,19.6677,-5.0535
707,-195,19.4991,5.05713,0.00102915,-0.000598864,0.000192732,0.00105166,-0.000621369,0.116244,0.000976512,0.0165036,1931,1219,19.4991,-5.05707
714,-195,19.4816,4.88525,0.000240536,-0.000786967,0.000592516,0.000511013,-0.00105744,0.428238,0.000923686,0.0165111,1938,1219,19.4816,-4.88525
721,-195,19.4904,4.74084,-0.000262443,-0.000934239,0.0011123,0.000563573,-0.00176026,0.63876,0.00139971,0.0117451,1945,1219,19.4903,-4.74082
728,-195,19.4923,4.58521,-0.000175562,-0.000896638,0.0013713,0.000881802,-0.001954,0.656849,0.00167581,0.00996394,1952,1219,19.4924,-4.58521
735,-195,19.4951,4.41943,0.000392662,-0.00118529,0.000928838,0.000822383,-0.00161501,0.433319,0.00143182,0.012285,1959,1219,19.4952,-4.41941
742,-195,19.4934,4.25952,0.00182443,-0.00142497,7.85018e-05,0.00182633,-0.00142686,0.0241401,0.00188294,0.0142036,1966,1219,19.4934,-4.25952
749,-195,19.5065,4.11169,0.00497273,-0.00230832,-0.0011991,0.00516512,-0.00250072,-0.159092,0.00451411,0.0141937,1973,1219,19.5064,-4.11169
756,-195,19.4987,3.98438,0.00962282,-0.00328982,-0.00284731,0.0102228,-0.00388979,-0.207677,0.00841693,0.0132178,1980,1219,19.4987,-3.98438
763,-195,19.4828,3.81531,0.0150745,-0.00511488,-0.00510326,0.0162912,-0.00633151,-0.234034,0.0134765,0.0141834,1987,1219,19.4827,-3.81531
770,-195,19.4961,3.66235,0.022592,-0.00777566,-0.00828244,0.0247041,-0.00988771,-0.249682,0.0205732,0.0253691,1994,1219,19.4961,-3.66233
777,-195,20.1064,3.71631,0.032719,-0.0113934,-0.0126516,0.0360899,-0.0147643,-0.260393,0.030209,0.0429334,2001,1219,20.1065,-3.71629
784,-195,20.0626,3.54126,0.0459619,-0.0159615,-0.0183451,0.0509887,-0.0209883,-0.267447,0.0427422,0.0460459,2008,1219,20.0626,-3.54124
791,-195,20.1017,3.17969,0,0,0,0,0,0,0,-1,2015,1219,20.1016,-3.17965
798,-195,20.6459,2.72766,0,0,0,0,0,0,0,-1,2022,1219,20.6458,-2.7276
805,-195,0,0,0,0,0,0,0,0,0,-1,2029,1219,0,0
812,-195,0,0,0,0,0,0,0,0,0,-1,2036,1219,0,0
-700,-202,0,0,0,0,0,0,0,0,0,-1,524,1226,0,0
-693,-202,0,0,0,0,0,0,0,0,0,-1,531,1226,0,0
-686,-202,0,0,0,0,0,0,0,0,0,-1,538,1226,0,0
-679,-202,-12.7414,2.7533,0,0,0,0,0,0,0,-1,545,1226,-12.7414,-2.75326
-672,-202,-11.1727,-0.117065,0,0,0,0,0,0,0,-1,552,1226,-11.1727,0.117029
-665,-202,-11.1695,0.256592,0.00939525,0.016732,-0.031152,0.0444308,-0.0183036,-0.844007,0.0372521,0.0460755,559,1226,-11.1695,-0.256566
-658,-202,-11.1,0.359497,0.00502091,0.016481,-0.0228493,0.0343078,-0.0128059,-0.908252,0.0281295,0.0428492,566,1226,-11.1,-0.359477
-651,-202,-11.3196,0.811157,0.00211815,0.0153131,-0.0163657,0.0263611,-0.00892985,-0.976999,0.0211876,0.0462855,573,1226,-11.3197,-0.8112
-644,-202,-11.4993,1.43481,0.000259783,0.0135728,-0.0114008,0.0201181,-0.00628546,-1.04963,0.0159262,0.040544,580,1226,-11.4993,-1.43475
-637,-202,-11.1844,1.26904,-0.000799881,0.0115161,-0.00771435,0.0152289,-0.00451265,-1.12224,0.0119444,0.0324773,587,1226,-11.1845,-1.26904
-630,-202,-11.2807,1.41028,-0.00146385,0.00940039,-0.00519855,0.0114871,-0.00355056,-1.18908,0.00907611,0.0130199,594,1226,-11.2807,-1.41028
-623,-202,-11.3399,1.59033,-0.0021593,0.00711313,-0.00311263,0.00806109,-0.00310726,-1.27517,0.00665613,0.00761788,601,1226,-11.3399,-1.59029
-616,-202,-11.3476,1.77026,-0.00242174,0.00494008,-0.00157512,0.00526293,-0.00274459,-1.36863,0.00469873,0.00820522,608,1226,-11.3476,-1.77026
-609,-202,-11.3346,1.93384,-0.00225263,0.00320259,-0.000742747,0.00330191,-0.00235195,-1.43787,0.00327958,0.0213399,615,1226,-11.3346,-1.9338
-602,-202,-11.3752,2.07153,-0.00191227,0.00151767,-0.000691307,0.00165177,-0.00204636,-1.37921,0.00213916,0.0216632,622,1226,-11.3752,-2.07152
-595,-202,-11.3947,2.34473,-0.00166706,0.000279427,-0.00103684,0.000728239,-0.00211588,-1.16228,0.00170595,0.0157217,629,1226,-11.3947,-2.34469
-588,-202,-11.3387,2.53174,-0.00121398,-0.000822868,-0.00148451,0.000478907,-0.00251576,-0.850887,0.0018575,0.00799594,636,1226,-11.3387,-2.53178
-581,-202,-11.3374,2.65369,-0.000610293,-0.00135972,-0.00197017,0.00102048,-0.00299049,-0.691424,0.00240704,0.0126847,643,1226,-11.3374,-2.6537
-574,-202,-11.418,2.68408,8.14814e-05,-0.00192016,-0.00216388,0.00146478,-0.00330346,-0.568793,0.00282035,0.0206696,650,1226,-11.418,-2.68406
-567,-202,-11.4702,2.70691,0,0,0,0,0,0,0,-1,657,1226,-11.4702,-2.70688
-560,-202,-10.929,2.73096,0,0,0,0,0,0,0,-1,664,1226,-10.929,-2.73092
-553,-202,-14.1456,1.24939,0,0,0,0,0,0,0,-1,671,1226,-14.1456,-1.24943
-546,-202,-14.024,0.885864,0.00189263,-0.00229459,-0.00236467,0.00295732,-0.00335929,-0.423062,0.00364936,0.0464246,678,1226,-14.0241,-0.885909
-539,-202,-14.3799,1.08899,0.00223264,-0.00223913,-0.00230297,0.00320656,-0.00321305,-0.400089,0.00370637,0.0421262,685,1226,-14.3799,-1.08897
-532,-202,-14.3351,0.890991,0.00226114,-0.00196215,-0.00194942,0.00302339,-0.00272441,-0.372737,0.00331999,0.0290094,692,1226,-14.3351,-0.890992
-525,-202,-14.2134,0.728638,0.0018765,-0.00127333,-0.00108045,0.00221149,-0.00160832,-0.300646,0.00221451,0.0346518,699,1226,-14.2135,-0.728693
-518,-202,-14.1556,0.864624,5.51036e-05,5.53429e-06,0.000661558,0.000692341,-0.000631703,0.766675,0.000764705,0.0404693,706,1226,-14.1556,-0.864616
-511,-202,-14.0826,0.987305,-0.00275499,0.00233273,0.00396602,0.00450062,-0.00492288,1.07056,0.00544248,0.0399482,713,1226,-14.0826,-0.987351
-504,-202,0,0,0,0,0,0,0,0,0,-1,720,1226,0,0
-497,-202,0,0,0,0,0,0,0,0,0,-1,727,1226,0,0
-490,-202,0,0,0,0,0,0,0,0,0,-1,734,1226,0,0
-483,-202,0,0,0,0,0,0,0,0,0,-1,741,1226,0,0
-476,-202,0,0,0,0,0,0,0,0,0,-1,748,1226,0,0
-469,-202,0,0,0,0,0,0,0,0,0,-1,755,1226,0,0
-462,-202,0,0,0,0,0,0,0,0,0,-1,762,1226,0,0
-455,-202,0,0,0,0,0,0,0,0,0,-1,769,1226,0,0
-448,-202,0,0,0,0,0,0,0,0,0,-1,776,1226,0,0
-441,-202,0,0,0,0,0,0,0,0,0,-1,783,1226,0,0
-434,-202,0,0,0,0,0,0,0,0,0,-1,790,1226,0,0
-427,-202,0,0,0,0,0,0,0,0,0,-1,797,1226,0,0
-420,-202,0,0,0,0,0,0,0,0,0,-1,804,1226,0,0
-413,-202,0,0,0,0,0,0,0,0,0,-1,811,1226,0,0
-406,-202,0,0,0,0,0,0,0,0,0,-1,818,1226,0,0
-399,-202,0,0,0,0,0,0,0,0,0,-1,825,1226,0,0
-392,-202,0,0,0,0,0,0,0,0,0,-1,832,1226,0,0
-385,-202,0,0,0,0,0,0,0,0,0,-1,839,1226,0,0
-378,-202,0,0,0,0,0,0,0,0,0,-1,846,1226,0,0
-371,-202,0,0,0,0,0,0,0,0,0,-1,853,1226,0,0
-364,-202,0,0,0,0,0,0,0,0,0,-1,860,1226,0,0
-357,-202,0,0,0,0,0,0,0,0,0,-1,867,1226,0,0
-350,-202,0,0,0,0,0,0,0,0,0,-1,874,1226,0,0
-343,-202,0,0,0,0,0,0,0,0,0,-1,881,1226,0,0
-336,-202,0,0,0,0,0,0,0,0,0,-1,888,1226,0,0
-329,-202,0,0,0,0,0,0,0,0,0,-1,895,1226,0,0
-322,-202,0,0,0,0,0,0,0,0,0,-1,902,1226,0,0
-315,-202,0,0,0,0,0,0,0,0,0,-1,909,1226,0,0
-308,-202,0,0,0,0,0,0,0,0,0,-1,916,1226,0,0
-301,-202,0,0,0,0,0,0,0,0,0,-1,923,1226,0,0
-294,-202,0,0,0,0,0,0,0,0,0,-1,930,1226,0,0
-287,-202,0,0,0,0,0,0,0,0,0,-1,937,1226,0,0
-280,-202,0,0,0,0,0,0,0,0,0,-1,944,1226,0,0
-273,-202,0,0,0,0,0,0,0,0,0,-1,951,1226,0,0
-266,-202,0,0,0,0,0,0,0,0,0,-1,958,1226,0,0
-259,-202,0,0,0,0,0,0,0,0,0,-1,965,1226,0,0
-252,-202,0,0,0,0,0,0,0,0,0,-1,972,1226,0,0
-245,-202,0,0,0,0,0,0,0,0,0,-1,979,1226,0,0
-238,-202,0,0,0,0,0,0,0,0,0,-1,986,1226,0,0
-231,-202,0,0,0,0,0,0,0,0,0,-1,993,1226,0,0
-224,-202,0,0,0,0,0,0,0,0,0,-1,1000,1226,0,0
-217,-202,0,0,0,0,0,0,0,0,0,-1,1007,1226,0,0
-210,-202,0,0,0,0,0,0,0,0,0,-1,1014,1226,0,0
-203,-202,0,0,0,0,0,0,0,0,0,-1,1021,1226,0,0
-196,-202,0,0,0,0,0,0,0,0,0,-1,1028,1226,0,0
-189,-202,0,0,0,0,0,0,0,0,0,-1,1035,1226,0,0
-182,-202,0,0,0,0,0,0,0,0,0,-1,1042,1226,0,0
-175,-202,0,0,0,0,0,0,0,0,0,-1,1049,1226,0,0
-168,-202,0,0,0,0,0,0,0,0,0,-1,1056,1226,0,0
-161,-202,0,0,0,0,0,0,0,0,0,-1,1063,1226,0,0
-154,-202,0,0,0,0,0,0,0,0,0,-1,1070,1226,0,0
-147,-202,0,0,0,0,0,0,0,0,0,-1,1077,1226,0,0
-140,-202,0,0,0,0,0,0,0,0,0,-1,1084,1226,0,0
-133,-202,0,0,0,0,0,0,0,0,0,-1,1091,1226,0,0
-126,-202,0,0,0,0,0,0,0,0,0,-1,1098,1226,0,0
-119,-202,0,0,0,0,0,0,0,0,0,-1,1105,1226,0,0
-112,-202,0,0,0,0,0,0,0,0,0,-1,1112,1226,0,0
-105,-202,0,0,0,0,0,0,0,0,0,-1,1119,1226,0,0
-98,-202,0,0,0,0,0,0,0,0,0,-1,1126,1226,0,0
-91,-202,0,0,0,0,0,0,0,0,0,-1,1133,1226,0,0
-84,-202,0,0,0,0,0,0,0,0,0,-1,1140,1226,0,0
-77,-202,0,0,0,0,0,0,0,0,0,-1,1147,1226,0,0
-70,-202,0,0,0,0,0,0,0,0,0,-1,1154,1226,0,0
-63,-202,0,0,0,0,0,0,0,0,0,-1,1161,1226,0,0
-56,-202,0,0,0,0,0,0,0,0,0,-1,1168,1226,0,0
-49,-202,0,0,0,0,0,0,0,0,0,-1,1175,1226,0,0
-42,-202,0,0,0,0,0,0,0,0,0,-1,1182,1226,0,0
-35,-202,0,0,0,0,0,0,0,0,0,-1,1189,1226,0,0
-28,-202,0,0,0,0,0,0,0,0,0,-1,1196,1226,0,0
-21,-202,0,0,0,0,0,0,0,0,0,-1,1203,1226,0,0
-14,-202,0,0,0,0,0,0,0,0,0,-1,1210,1226,0,0
-7,-202,0,0,0,0,0,0,0,0,0,-1,1217,1226,0,0
0,-202,0,0,0,0,0,0,0,0,0,-1,1224,1226,0,0
7,-202,0,0,0,0,0,0,0,0,0,-1,1231,1226,0,0
14,-202,0,0,0,0,0,0,0,0,0,-1,1238,1226,0,0
21,-202,0,0,0,0,0,0,0,0,0,-1,1245,1226,0,0
28,-202,0,0,0,0,0,0,0,0,0,-1,1252,1226,0,0
35,-202,0,0,0,0,0,0,0,0,0,-1,1259,1226,0,0
42,-202,0,0,0,0,0,0,0,0,0,-1,1266,1226,0,0
49,-202,0,0,0,0,0,0,0,0,0,-1,1273,1226,0,0
56,-202,0,0,0,0,0,0,0,0,0,-1,1280,1226,0,0
63,-202,0,0,0,0,0,0,0,0,0,-1,1287,1226,0,0
70,-202,0,0,0,0,0,0,0,0,0,-1,1294,1226,0,0
77,-202,0,0,0,0,0,0,0,0,0,-1,1301,1226,0,0
84,-202,0,0,0,0,0,0,0,0,0,-1,1308,1226,0,0
91,-202,0,0,0,0,0,0,0,0,0,-1,1315,1226,0,0
98,-202,0,0,0,0,0,0,0,0,0,-1,1322,1226,0,0
105,-202,0,0,0,0,0,0,0,0,0,-1,1329,1226,0,0
112,-202,0,0,0,0,0,0,0,0,0,-1,1336,1226,0,0
119,-202,0,0,0,0,0,0,0,0,0,-1,1343,1226,0,0
126,-202,0,0,0,0,0,0,0,0,0,-1,1350,1226,0,0
133,-202,0,0,0,0,0,0,0,0,0,-1,1357,1226,0,0
140,-202,0,0,0,0,0,0,0,0,0,-1,1364,1226,0,0
147,-202,0,0,0,0,0,0,0,0,0,-1,1371,1226,0,0
154,-202,0,0,0,0,0,0,0,0,0,-1,1378,1226,0,0
161,-202,0,0,0,0,0,0,0,0,0,-1,1385,1226,0,0
168,-202,0,0,0,0,0,0,0,0,0,-1,1392,1226,0,0
175,-202,0,0,0,0,0,0,0,0,0,-1,1399,1226,0,0
182,-202,0,0,0,0,0,0,0,0,0,-1,1406,1226,0,0
189,-202,0,0,0,0,0,0,0,0,0,-1,1413,1226,0,0
196,-202,0,0,0,0,0,0,0,0,0,-1,1420,1226,0,0
203,-202,0,0,0,0,0,0,0,0,0,-1,1427,1226,0,0
210,-202,0,0,0,0,0,0,0,0,0,-1,1434,1226,0,0
217,-202,0,0,0,0,0,0,0,0,0,-1,1441,1226,0,0
224,-202,0,0,0,0,0,0,0,0,0,-1,1448,1226,0,0
231,-202,0,0,0,0,0,0,0,0,0,-1,1455,1226,0,0
238,-202,0,0,0,0,0,0,0,0,0,-1,1462,1226,0,0
245,-202,0,0,0,0,0,0,0,0,0,-1,1469,1226,0,0
252,-202,0,0,0,0,0,0,0,0,0,-1,1476,1226,0,0
259,-202,0,0,0,0,0,0,0,0,0,-1,1483,1226,0,0
266,-202,0,0,0,0,0,0,0,0,0,-1,1490,1226,0,0
273,-202,0,0,0,0,0,0,0,0,0,-1,1497,1226,0,0
280,-202,0,0,0,0,0,0,0,0,0,-1,1504,1226,0,0
287,-202,0,0,0,0,0,0,0,0,0,-1,1511,1226,0,0
294,-202,0,0,0,0,0,0,0,0,0,-1,1518,1226,0,0
301,-202,0,0,0,0,0,0,0,0,0,-1,1525,1226,0,0
308,-202,0,0,0,0,0,0,0,0,0,-1,1532,1226,0,0
315,-202,0,0,0,0,0,0,0,0,0,-1,1539,1226,0,0
322,-202,0,0,0,0,0,0,0,0,0,-1,1546,1226,0,0
329,-202,0,0,0,0,0,0,0,0,0,-1,1553,1226,0,0
336,-202,0,0,0,0,0,0,0,0,0,-1,1560,1226,0,0
343,-202,0,0,0,0,0,0,0,0,0,-1,1567,1226,0,0
350,-202,0,0,0,0,0,0,0,0,0,-1,1574,1226,0,0
357,-202,0,0,0,0,0,0,0,0,0,-1,1581,1226,0,0
364,-202,0,0,0,0,0,0,0,0,0,-1,1588,1226,0,0
371,-202,0,0,0,0,0,0,0,0,0,-1,1595,1226,0,0
378,-202,0,0,0,0,0,0,0,0,0,-1,1602,1226,0,0
385,-202,0,0,0,0,0,0,0,0,0,-1,1609,1226,0,0
392,-202,0,0,0,0,0,0,0,0,0,-1,1616,1226,0,0
399,-202,0,0,0,0,0,0,0,0,0,-1,1623,1226,0,0
406,-202,0,0,0,0,0,0,0,0,0,-1,1630,1226,0,0
413,-202,0,0,0,0,0,0,0,0,0,-1,1637,1226,0,0
420,-202,0,0,0,0,0,0,0,0,0,-1,1644,1226,0,0
427,-202,0,0,0,0,0,0,0,0,0,-1,1651,1226,0,0
434,-202,0,0,0,0,0,0,0,0,0,-1,1658,1226,0,0
441,-202,0,0,0,0,0,0,0,0,0,-1,1665,1226,0,0
448,-202,0,0,0,0,0,0,0,0,0,-1,1672,1226,0,0
455,-202,0,0,0,0,0,0,0,0,0,-1,1679,1226,0,0
462,-202,0,0,0,0,0,0,0,0,0,-1,1686,1226,0,0
469,-202,0,0,0,0,0,0,0,0,0,-1,1693,1226,0,0
476,-202,0,0,0,0,0,0,0,0,0,-1,1700,1226,0,0
483,-202,0,0,0,0,0,0,0,0,0,-1,1707,1226,0,0
490,-202,0,0,0,0,0,0,0,0,0,-1,1714,1226,0,0
497,-202,0,0,0,0,0,0,0,0,0,-1,1721,1226,0,0
504,-202,0,0,0,0,0,0,0,0,0,-1,1728,1226,0,0
511,-202,0,0,0,0,0,0,0,0,0,-1,1735,1226,0,0
518,-202,0,0,0,0,0,0,0,0,0,-1,1742,1226,0,0
525,-202,0,0,0,0,0,0,0,0,0,-1,1749,1226,0,0
532,-202,0,0,0,0,0,0,0,0,0,-1,1756,1226,0,0
539,-202,0,0,0,0,0,0,0,0,0,-1,1763,1226,0,0
546,-202,0,0,0,0,0,0,0,0,0,-1,1770,1226,0,0
553,-202,0,0,0,0,0,0,0,0,0,-1,1777,1226,0,0
560,-202,0,0,0,0,0,0,0,0,0,-1,1784,1226,0,0
567,-202,0,0,0,0,0,0,0,0,0,-1,1791,1226,0,0
574,-202,0,0,0,0,0,0,0,0,0,-1,1798,1226,0,0
581,-202,0,0,0,0,0,0,0,0,0,-1,1805,1226,0,0
588,-202,0,0,0,0,0,0,0,0,0,-1,1812,1226,0,0
595,-202,0,0,0,0,0,0,0,0,0,-1,1819,1226,0,0
602,-202,0,0,0,0,0,0,0,0,0,-1,1826,1226,0,0
609,-202,0,0,0,0,0,0,0,0,0,-1,1833,1226,0,0
616,-202,0,0,0,0,0,0,0,0,0,-1,1840,1226,0,0
623,-202,0,0,0,0,0,0,0,0,0,-1,1847,1226,0,0
630,-202,22.0504,2.77356,-0.00186335,-0.00110681,0.00241823,0.000962553,-0.00393271,0.862981,0.00299467,0.0399925,1854,1226,22.0504,-2.77356
637,-202,22.1051,2.96411,-8.83224e-05,0.000891747,0.000927551,0.00145075,-0.000647328,1.02842,0.00124058,0.0353299,1861,1226,22.1051,-2.96412
644,-202,22.1788,2.91675,0.00151339,0.00213613,-0.000351199,0.00229411,0.00135541,-1.14808,0.00133177,0.0319823,1868,1226,22.1789,-2.91671
651,-202,22.1396,2.87683,0.00276412,0.00260292,-0.00119575,0.00388198,0.00148506,-0.751746,0.00226178,0.0265126,1875,1226,22.1397,-2.87689
658,-202,22.0892,2.85669,0.0034999,0.00249596,-0.0015901,0.00466538,0.00133048,-0.632506,0.00277519,0.0212088,1882,1226,22.0893,-2.85672
665,-202,22.0948,2.77588,0.00381417,0.00207655,-0.00166421,0.00482271,0.00106801,-0.54483,0.00292487,0.0193609,1889,1226,22.0948,-2.77586
672,-202,22.2428,2.79126,0.00373369,0.00150948,-0.00157322,0.00454819,0.000694978,-0.477728,0.00282907,0.0394091,1896,1226,22.2428,-2.7913
679,-202,22.6676,2.68457,0.0034481,0.00105434,-0.00129674,0.00401588,0.000486549,-0.412711,0.00253071,0.0467115,1903,1226,22.6677,-2.68457
686,-202,23.0229,2.69824,0,0,0,0,0,0,0,-1,1910,1226,23.023,-2.69822
693,-202,19.3329,5.32898,0,0,0,0,0,0,0,-1,1917,1226,19.3328,-5.32894
700,-202,19.2872,5.1936,0.00220338,-0.000304859,-0.000450375,0.0022818,-0.000383276,-0.172387,0.00166374,0.0273153,1924,1226,19.2873,-5.19361
707,-202,19.276,5.03247,0.00163602,-0.00070586,-0.000112305,0.00164139,-0.000711233,-0.0478089,0.00139323,0.0221174,1931,1226,19.276,-5.03252
714,-202,19.3126,4.89929,0.000773126,-0.000862857,0.000356184,0.00084731,-0.000937041,0.205339,0.00103063,0.0151912,1938,1226,19.3127,-4.89928
721,-202,19.3397,4.74121,0.000172201,-0.000924144,0.000979263,0.00074628,-0.00149822,0.530238,0.00131988,0.0123965,1945,1226,19.3397,-4.74116
728,-202,19.3307,4.57898,0.000114489,-0.000793053,0.00133952,0.00107501,-0.00175358,0.622087,0.00164868,0.0108186,1952,1226,19.3307,-4.57895
735,-202,19.3271,4.41968,0.000525,-0.00103322,0.000978256,0.000996488,-0.00150471,0.449118,0.00145397,0.0111252,1959,1226,19.3271,-4.41967
742,-202,19.3368,4.25928,0.00173539,-0.00130211,0.000208206,0.00174959,-0.00131632,0.0681204,0.00177599,0.0102309,1966,1226,19.3367,-4.25933
749,-202,19.3296,4.12366,0.00431252,-0.00209187,-0.000898354,0.00443615,-0.00221549,-0.136756,0.00391102,0.0100027,1973,1226,19.3296,-4.12361
756,-202,19.3125,3.98279,0.00822834,-0.00312939,-0.00243995,0.00873032,-0.00363137,-0.202904,0.00733662,0.0107056,1980,1226,19.3125,-3.98283
763,-202,19.3116,3.80615,0.0130388,-0.00504737,-0.00469981,0.0141872,-0.00619573,-0.239646,0.0120658,0.0151996,1987,1226,19.3116,-3.80616
770,-202,19.3021,3.64868,0.0198003,-0.00790412,-0.00804688,0.021968,-0.0100718,-0.263132,0.0189184,0.03764,1994,1226,19.3021,-3.64866
777,-202,20.0128,3.73584,0.0289416,-0.0118772,-0.012793,0.0326196,-0.0155552,-0.279952,0.0283894,0.0481397,2001,1226,20.0128,-3.73584
784,-202,20.4337,3.77893,0.0409602,-0.0170188,-0.0191928,0.0467378,-0.0227965,-0.292404,0.0409312,0.0442753,2008,1226,20.4337,-3.7789
791,-202,20.463,3.02539,0,0,0,0,0,0,0,-1,2015,1226,20.463,-3.02544
798,-202,20.7648,2.61609,0,0,0,0,0,0,0,-1,2022,1226,20.7648,-2.61605
805,-202,0,0,0,0,0,0,0,0,0,-1,2029,1226,0,0
812,-202,0,0,0,0,0,0,0,0,0,-1,2036,1226,0,0
-700,-209,0,0,0,0,0,0,0,0,0,-1,524,1233,0,0
-693,-209,0,0,0,0,0,0,0,0,0,-1,531,1233,0,0
-686,-209,0,0,0,0,0,0,0,0,0,-1,538,1233,0,0
-679,-209,-12.3348,2.65784,0.0319847,0.0149189,-0.0653714,0.0893777,-0.0424742,-0.7205,0.0777136,0.0488416,545,1233,-12.3348,-2.6579
-672,-209,-12.0048,1.88269,0.0222397,0.0193554,-0.0498163,0.0706347,-0.0290396,-0.770928,0.0591937,0.0465769,552,1233,-12.0048,-1.88274
-665,-209,-10.9417,0.335205,0.0148441,0.0210035,-0.0371285,0.0551798,-0.0193323,-0.826777,0.0446483,0.0440684,559,1233,-10.9417,-0.335215
-658,-209,-10.8091,0.247559,0.00939046,0.0208265,-0.0270079,0.0427151,-0.0124981,-0.889716,0.0334308,0.0454309,566,1233,-10.8091,-0.247606
-651,-209,-10.7711,0.652832,0.00548719,0.0194337,-0.019143,0.0328339,-0.00791306,-0.960064,0.0249488,0.0462961,573,1233,-10.7711,-0.652842
-644,-209,-11.6702,1.64111,0.00276455,0.0172737,-0.0131474,0.0250352,-0.00499697,-1.03751,0.0185811,0.0438943,580,1233,-11.6702,-1.6411
-637,-209,-11.192,1.4198,0.000991386,0.0146928,-0.00870728,0.0189213,-0.00323712,-1.11871,0.0138202,0.0399597,587,1233,-11.1919,-1.41975
-630,-209,-11.0597,1.34338,-0.000184423,0.0119988,-0.00563961,0.0142086,-0.0023942,-1.19735,0.010363,0.0213096,594,1233,-11.0597,-1.3434
-623,-209,-11.1478,1.55957,-0.00122346,0.00922204,-0.00316991,0.0101087,-0.00211017,-1.29804,0.00754161,0.011031,601,1233,-11.1478,-1.55953
-616,-209,-11.1664,1.76709,-0.00174006,0.00659891,-0.001347,0.00681109,-0.00195225,-1.41456,0.00531242,0.0128046,608,1233,-11.1664,-1.76705
-609,-209,-11.1616,1.95874,-0.001654,0.00444804,-0.000325863,0.0044654,-0.00167136,-1.5176,0.00366342,0.0149251,615,1233,-11.1616,-1.95879
-602,-209,-11.1651,2.14954,-0.0012962,0.00235116,-0.000260358,0.00236966,-0.00131469,-1.49989,0.00215603,0.0170179,622,1233,-11.1651,-2.14948
-595,-209,-11.1508,2.33484,-0.000956415,0.000603708,-0.000622801,0.000821833,-0.00117454,-1.23391,0.00115859,0.0120047,629,1233,-11.1508,-2.3348
-588,-209,-11.1266,2.52954,-0.000406162,-0.000786959,-0.00107215,0.000492368,-0.00168549,-0.697522,0.00131878,0.0127772,636,1233,-11.1266,-2.52951
-581,-209,-11.0893,2.71289,0.000265118,-0.0014638,-0.00162175,0.00123842,-0.0024371,-0.540533,0.00215935,0.0139956,643,1233,-11.0893,-2.71292
-574,-209,-11.2084,2.85022,0.00106192,-0.0022117,-0.00193416,0.00195891,-0.00310869,-0.434238,0.00295077,0.0184889,650,1233,-11.2085,-2.85023
-567,-209,-11.4244,3.14673,0.00168426,-0.00251644,-0.00208043,0.0025402,-0.00337238,-0.390316,0.00342488,0.0393453,657,1233,-11.4243,-3.14669
-560,-209,-11.6761,3.58984,0,0,0,0,0,0,0,-1,664,1233,-11.6761,-3.5899
-553,-209,-13.8408,1.09595,0,0,0,0,0,0,0,-1,671,1233,-13.8408,-1.09597
-546,-209,-13.4802,0.407227,0,0,0,0,0,0,0,-1,678,1233,-13.4802,-0.407239
-539,-209,-13.1196,-0.281494,0,0,0,0,0,0,0,-1,685,1233,-13.1196,0.281493
-532,-209,-14.2796,0.932861,0.00294862,-0.00266345,-0.00275667,0.00407616,-0.003791,-0.388262,0.0045431,0.0294648,692,1233,-14.2796,-0.93286
-525,-209,-14.2512,0.834961,0.00241766,-0.00198425,-0.00235774,0.0034421,-0.00300868,-0.409888,0.00372716,0.0332355,699,1233,-14.2512,-0.834953
-518,-209,-14.1848,0.782959,0.000720985,-0.000587037,-0.001286,0.00150972,-0.00137578,-0.550161,0.00166654,0.0419449,706,1233,-14.1848,-0.782954
-511,-209,-14.1516,0.780762,-0.00194269,0.00203396,0.00118155,0.00235854,-0.00226726,1.30271,0.00267088,0.0422498,713,1233,-14.1516,-0.780796
-504,-209,0,0,0,0,0,0,0,0,0,-1,720,1233,0,0
-497,-209,0,0,0,0,0,0,0,0,0,-1,727,1233,0,0
-490,-209,0,0,0,0,0,0,0,0,0,-1,734,1233,0,0
-483,-209,0,0,0,0,0,0,0,0,0,-1,741,1233,0,0
-476,-209,0,0,0,0,0,0,0,0,0,-1,748,1233,0,0
-469,-209,0,0,0,0,0,0,0,0,0,-1,755,1233,0,0
-462,-209,0,0,0,0,0,0,0,0,0,-1,762,1233,0,0
-455,-209,0,0,0,0,0,0,0,0,0,-1,769,1233,0,0
-448,-209,0,0,0,0,0,0,0,0,0,-1,776,1233,0,0
-441,-209,0,0,0,0,0,0,0,0,0,-1,783,1233,0,0
-434,-209,0,0,0,0,0,0,0,0,0,-1,790,1233,0,0
-427,-209,0,0,0,0,0,0,0,0,0,-1,797,1233,0,0
-420,-209,0,0,0,0,0,0,0,0,0,-1,804,1233,0,0
-413,-209,0,0,0,0,0,0,0,0,0,-1,811,1233,0,0
-406,-209,0,0,0,0,0,0,0,0,0,-1,818,1233,0,0
-399,-209,0,0,0,0,0,0,0,0,0,-1,825,1233,0,0
-392,-209,0,0,0,0,0,0,0,0,0,-1,832,1233,0,0
-385,-209,0,0,0,0,0,0,0,0,0,-1,839,1233,0,0
-378,-209,0,0,0,0,0,0,0,0,0,-1,846,1233,0,0
-371,-209,0,0,0,0,0,0,0,0,0,-1,853,1233,0,0
-364,-209,0,0,0,0,0,0,0,0,0,-1,860,1233,0,0
-357,-209,0,0,0,0,0,0,0,0,0,-1,867,1233,0,0
-350,-209,0,0,0,0,0,0,0,0,0,-1,874,1233,0,0
-343,-209,0,0,0,0,0,0,0,0,0,-1,881,1233,0,0
-336,-209,0,0,0,0,0,0,0,0,0,-1,888,1233,0,0
-329,-209,0,0,0,0,0,0,0,0,0,-1,895,1233,0,0
-322,-209,0,0,0,0,0,0,0,0,0,-1,902,1233,0,0
-315,-209,0,0,0,0,0,0,0,0,0,-1,909,1233,0,0
-308,-209,0,0,0,0,0,0,0,0,0,-1,916,1233,0,0
-301,-209,0,0,0,0,0,0,0,0,0,-1,923,1233,0,0
-294,-209,0,0,0,0,0,0,0,0,0,-1,930,1233,0,0
-287,-209,0,0,0,0,0,0,0,0,0,-1,937,1233,0,0
-280,-209,0,0,0,0,0,0,0,0,0,-1,944,1233,0,0
-273,-209,0,0,0,0,0,0,0,0,0,-1,951,1233,0,0
-266,-209,0,0,0,0,0,0,0,0,0,-1,958,1233,0,0
-259,-209,0,0,0,0,0,0,0,0,0,-1,965,1233,0,0
-252,-209,0,0,0,0,0,0,0,0,0,-1,972,1233,0,0
-245,-209,0,0,0,0,0,0,0,0,0,-1,979,1233,0,0
-238,-209,0,0,0,0,0,0,0,0,0,-1,986,1233,0,0
-231,-209,0,0,0,0,0,0,0,0,0,-1,993,1233,0,0
-224,-209,0,0,0,0,0,0,0,0,0,-1,1000,1233,0,0
-217,-209,0,0,0,0,0,0,0,0,0,-1,1007,1233,0,0
-210,-209,0,0,0,0,0,0,0,0,0,-1,1014,1233,0,0
-203,-209,0,0,0,0,0,0,0,0,0,-1,1021,1233,0,0
-196,-209,0,0,0,0,0,0,0,0,0,-1,1028,1233,0,0
-189,-209,0,0,0,0,0,0,0,0,0,-1,1035,1233,0,0
-182,-209,0,0,0,0,0,0,0,0,0,-1,1042,1233,0,0
-175,-209,0,0,0,0,0,0,0,0,0,-1,1049,1233,0,0
-168,-209,0,0,0,0,0,0,0,0,0,-1,1056,1233,0,0
-161,-209,0,0,0,0,0,0,0,0,0,-1,1063,1233,0,0
-154,-209,0,0,0,0,0,0,0,0,0,-1,1070,1233,0,0
-147,-209,0,0,0,0,0,0,0,0,0,-1,1077,1233,0,0
-140,-209,0,0,0,0,0,0,0,0,0,-1,1084,1233,0,0
-133,-209,0,0,0,0,0,0,0,0,0,-1,1091,1233,0,0
-126,-209,0,0,0,0,0,0,0,0,0,-1,1098,1233,0,0
-119,-209,0,0,0,0,0,0,0,0,0,-1,1105,1233,0,0
-112,-209,0,0,0,0,0,0,0,0,0,-1,1112,1233,0,0
-105,-209,0,0,0,0,0,0,0,0,0,-1,1119,1233,0,0
-98,-209,0,0,0,0,0,0,0,0,0,-1,1126,1233,0,0
-91,-209,0,0,0,0,0,0,0,0,0,-1,1133,1233,0,0
-84,-209,0,0,0,0,0,0,0,0,0,-1,1140,1233,0,0
-77,-209,0,0,0,0,0,0,0,0,0,-1,1147,1233,0,0
-70,-209,0,0,0,0,0,0,0,0,0,-1,1154,1233,0,0
-63,-209,0,0,0,0,0,0,0,0,0,-1,1161,1233,0,0
-56,-209,0,0,0,0,0,0,0,0,0,-1,1168,1233,0,0
-49,-209,0,0,0,0,0,0,0,0,0,-1,1175,1233,0,0
-42,-209,0,0,0,0,0,0,0,0,0,-1,1182,1233,0,0
-35,-209,0,0,0,0,0,0,0,0,0,-1,1189,1233,0,0
-28,-209,0,0,0,0,0,0,0,0,0,-1,1196,1233,0,0
-21,-209,0,0,0,0,0,0,0,0,0,-1,1203,1233,0,0
-14,-209,0,0,0,0,0,0,0,0,0,-1,1210,1233,0,0
-7,-209,0,0,0,0,0,0,0,0,0,-1,1217,1233,0,0
0,-209,0,0,0,0,0,0,0,0,0,-1,1224,1233,0,0
7,-209,0,0,0,0,0,0,0,0,0,-1,1231,1233,0,0
14,-209,0,0,0,0,0,0,0,0,0,-1,1238,1233,0,0
21,-209,0,0,0,0,0,0,0,0,0,-1,1245,1233,0,0
28,-209,0,0,0,0,0,0,0,0,0,-1,1252,1233,0,0
35,-209,0,0,0,0,0,0,0,0,0,-1,1259,1233,0,0
42,-209,0,0,0,0,0,0,0,0,0,-1,1266,1233,0,0
49,-209,0,0,0,0,0,0,0,0,0,-1,1273,1233,0,0
56,-209,0,0,0,0,0,0,0,0,0,-1,1280,1233,0,0
63,-209,0,0,0,0,0,0,0,0,0,-1,1287,1233,0,0
70,-209,0,0,0,0,0,0,0,0,0,-1,1294,1233,0,0
77,-209,0,0,0,0,0,0,0,0,0,-1,1301,1233,0,0
84,-209,0,0,0,0,0,0,0,0,0,-1,1308,1233,0,0
91,-209,0,0,0,0,0,0,0,0,0,-1,1315,1233,0,0
98,-209,0,0,0,0,0,0,0,0,0,-1,1322,1233,0,0
105,-209,0,0,0,0,0,0,0,0,0,-1,1329,1233,0,0
112,-209,0,0,0,0,0,0,0,0,0,-1,1336,1233,0,0
119,-209,0,0,0,0,0,0,0,0,0,-1,1343,1233,0,0
126,-209,0,0,0,0,0,0,0,0,0,-1,1350,1233,0,0
133,-209,0,0,0,0,0,0,0,0,0,-1,1357,1233,0,0
140,-209,0,0,0,0,0,0,0,0,0,-1,1364,1233,0,0
147,-209,0,0,0,0,0,0,0,0,0,-1,1371,1233,0,0
154,-209,0,0,0,0,0,0,0,0,0,-1,1378,1233,0,0
161,-209,0,0,0,0,0,0,0,0,0,-1,1385,1233,0,0
168,-209,0,0,0,0,0,0,0,0,0,-1,1392,1233,0,0
175,-209,0,0,0,0,0,0,0,0,0,-1,1399,1233,0,0
182,-209,0,0,0,0,0,0,0,0,0,-1,1406,1233,0,0
189,-209,0,0,0,0,0,0,0,0,0,-1,1413,1233,0,0
196,-209,0,0,0,0,0,0,0,0,0,-1,1420,1233,0,0
203,-209,0,0,0,0,0,0,0,0,0,-1,1427,1233,0,0
210,-209,0,0,0,0,0,0,0,0,0,-1,1434,1233,0,0
217,-209,0,0,0,0,0,0,0,0,0,-1,1441,1233,0,0
224,-209,0,0,0,0,0,0,0,0,0,-1,1448,1233,0,0
231,-209,0,0,0,0,0,0,0,0,0,-1,1455,1233,0,0
238,-209,0,0,0,0,0,0,0,0,0,-1,1462,1233,0,0
245,-209,0,0,0,0,0,0,0,0,0,-1,1469,1233,0,0
252,-209,0,0,0,0,0,0,0,0,0,-1,1476,1233,0,0
259,-209,0,0,0,0,0,0,0,0,0,-1,1483,1233,0,0
266,-209,0,0,0,0,0,0,0,0,0,-1,1490,1233,0,0
273,-209,0,0,0,0,0,0,0,0,0,-1,1497,1233,0,0
280,-209,0,0,0,0,0,0,0,0,0,-1,1504,1233,0,0
287,-209,0,0,0,0,0,0,0,0,0,-1,1511,1233,0,0
294,-209,0,0,0,0,0,0,0,0,0,-1,1518,1233,0,0
301,-209,0,0,0,0,0,0,0,0,0,-1,1525,1233,0,0
308,-209,0,0,0,0,0,0,0,0,0,-1,1532,1233,0,0
315,-209,0,0,0,0,0,0,0,0,0,-1,1539,1233,0,0
322,-209,0,0,0,0,0,0,0,0,0,-1,1546,1233,0,0
329,-209,0,0,0,0,0,0,0,0,0,-1,1553,1233,0,0
336,-209,0,0,0,0,0,0,0,0,0,-1,1560,1233,0,0
343,-209,0,0,0,0,0,0,0,0,0,-1,1567,1233,0,0
350,-209,0,0,0,0,0,0,0,0,0,-1,1574,1233,0,0
357,-209,0,0,0,0,0,0,0,0,0,-1,1581,1233,0,0
364,-209,0,0,0,0,0,0,0,0,0,-1,1588,1233,0,0
371,-209,0,0,0,0,0,0,0,0,0,-1,1595,1233,0,0
378,-209,0,0,0,0,0,0,0,0,0,-1,1602,1233,0,0
385,-209,0,0,0,0,0,0,0,0,0,-1,1609,1233,0,0
392,-209,0,0,0,0,0,0,0,0,0,-1,1616,1233,0,0
399,-209,0,0,0,0,0,0,0,0,0,-1,1623,1233,0,0
406,-209,0,0,0,0,0,0,0,0,0,-1,1630,1233,0,0
413,-209,0,0,0,0,0,0,0,0,0,-1,1637,1233,0,0
420,-209,0,0,0,0,0,0,0,0,0,-1,1644,1233,0,0
427,-209,0,0,0,0,0,0,0,0,0,-1,1651,1233,0,0
434,-209,0,0,0,0,0,0,0,0,0,-1,1658,1233,0,0
441,-209,0,0,0,0,0,0,0,0,0,-1,1665,1233,0,0
448,-209,0,0,0,0,0,0,0,0,0,-1,1672,1233,0,0
455,-209,0,0,0,0,0,0,0,0,0,-1,1679,1233,0,0
462,-209,0,0,0,0,0,0,0,0,0,-1,1686,1233,0,0
469,-209,0,0,0,0,0,0,0,0,0,-1,1693,1233,0,0
476,-209,0,0,0,0,0,0,0,0,0,-1,1700,1233,0,0
483,-209,0,0,0,0,0,0,0,0,0,-1,1707,1233,0,0
490,-209,0,0,0,0,0,0,0,0,0,-1,1714,1233,0,0
497,-209,0,0,0,0,0,0,0,0,0,-1,1721,1233,0,0
504,-209,0,0,0,0,0,0,0,0,0,-1,1728,1233,0,0
511,-209,0,0,0,0,0,0,0,0,0,-1,1735,1233,0,0
518,-209,0,0,0,0,0,0,0,0,0,-1,1742,1233,0,0
525,-209,0,0,0,0,0,0,0,0,0,-1,1749,1233,0,0
532,-209,0,0,0,0,0,0,0,0,0,-1,1756,1233,0,0
539,-209,0,0,0,0,0,0,0,0,0,-1,1763,1233,0,0
546,-209,0,0,0,0,0,0,0,0,0,-1,1770,1233,0,0
553,-209,0,0,0,0,0,0,0,0,0,-1,1777,1233,0,0
560,-209,0,0,0,0,0,0,0,0,0,-1,1784,1233,0,0
567,-209,0,0,0,0,0,0,0,0,0,-1,1791,1233,0,0
574,-209,0,0,0,0,0,0,0,0,0,-1,1798,1233,0,0
581,-209,0,0,0,0,0,0,0,0,0,-1,1805,1233,0,0
588,-209,0,0,0,0,0,0,0,0,0,-1,1812,1233,0,0
595,-209,0,0,0,0,0,0,0,0,0,-1,1819,1233,0,0
602,-209,0,0,0,0,0,0,0,0,0,-1,1826,1233,0,0
609,-209,0,0,0,0,0,0,0,0,0,-1,1833,1233,0,0
616,-209,0,0,0,0,0,0,0,0,0,-1,1840,1233,0,0
623,-209,22.0146,2.72021,-0.00216533,-0.00154064,0.00279667,0.000961068,-0.00466704,0.84101,0.00347628,0.0340616,1847,1233,22.0146,-2.72024
630,-209,22.0105,2.67029,-0.00150585,0.000669083,0.00159665,0.00151343,-0.00235019,1.08436,0.00224803,0.0373099,1854,1233,22.0105,-2.67024
637,-209,22.032,2.76379,0.000188055,0.00256169,0.000222184,0.00258231,0.000167437,1.47826,0.00166853,0.0365589,1861,1233,22.0319,-2.76384
644,-209,22.1489,2.81531,0.00162103,0.00352803,-0.000876739,0.00386984,0.00127922,-1.19905,0.00227661,0.0320207,1868,1233,22.149,-2.8153
651,-209,22.0951,2.81616,0.00269105,0.00363466,-0.00151089,0.0047457,0.00158001,-0.936735,0.00279045,0.0245852,1875,1233,22.0951,-2.81617
658,-209,22.0532,2.802,0.00336929,0.00324905,-0.001797,0.00510718,0.00151116,-0.768677,0.00302942,0.0194823,1882,1233,22.0533,-2.80202
665,-209,22.1133,2.71631,0.0036914,0.00263052,-0.00182458,0.00506108,0.00126084,-0.643937,0.00304215,0.0316755,1889,1233,22.1133,-2.71626
672,-209,22.1725,2.65784,0.0036568,0.00192677,-0.0017293,0.00472537,0.000858204,-0.553491,0.00290672,0.0468985,1896,1233,22.1725,-2.65788
679,-209,22.3541,2.73975,0,0,0,0,0,0,0,-1,1903,1233,22.3541,-2.73975
686,-209,22.1779,3.19214,0,0,0,0,0,0,0,-1,1910,1233,22.1778,-3.19215
693,-209,19.0895,5.47925,0,0,0,0,0,0,0,-1,1917,1233,19.0895,-5.47925
700,-209,19.0923,5.26184,0.0025289,-0.000314682,-0.000634192,0.00266393,-0.000449712,-0.209783,0.00194328,0.0234072,1924,1233,19.0923,-5.26182
707,-209,19.1224,5.05591,0.00193328,-0.000797758,-0.000322751,0.00197091,-0.000835382,-0.116049,0.00166384,0.0186877,1931,1233,19.1224,-5.05596
714,-209,19.1621,4.90466,0.00099728,-0.000921641,0.000163309,0.00101108,-0.000935441,0.0842969,0.00112411,0.0117459,1938,1233,19.1622,-4.90463
721,-209,19.1777,4.74255,0.000309229,-0.000908547,0.000850925,0.000746676,-0.00134599,0.474852,0.00122461,0.0115214,1945,1233,19.1777,-4.74257
728,-209,19.1851,4.58191,7.69379e-05,-0.000670401,0.00128118,0.00103783,-0.00163129,0.643504,0.00155367,0.0120024,1952,1233,19.185,-4.58196
735,-209,19.1786,4.42578,0.000268052,-0.000869642,0.000972687,0.000826018,-0.00142761,0.520806,0.00131649,0.0130422,1959,1233,19.1786,-4.42572
742,-209,19.1837,4.27515,0.00114704,-0.00118282,0.000254586,0.00117453,-0.00121031,0.10758,0.00137694,0.010535,1966,1233,19.1838,-4.27517
749,-209,19.1714,4.12036,0.00288768,-0.00173899,-0.000736927,0.00300222,-0.00185353,-0.154196,0.0028295,0.00907693,1973,1233,19.1714,-4.12038
756,-209,19.1455,3.96021,0.00569377,-0.00276018,-0.00232851,0.00629269,-0.0033591,-0.251755,0.00565761,0.00968781,1980,1233,19.1455,-3.96024
763,-209,19.1279,3.80493,0.00944975,-0.00463499,-0.00474818,0.0109009,-0.00608616,-0.296611,0.00993794,0.0160214,1987,1233,19.128,-3.80495
770,-209,19.1641,3.61914,0.0148809,-0.00749004,-0.00850791,0.0177489,-0.010358,-0.325132,0.0164135,0.0408297,1994,1233,19.1641,-3.61913
777,-209,19.197,3.42517,0,0,0,0,0,0,0,-1,2001,1233,19.197,-3.42519
784,-209,20.7919,4.36279,0,0,0,0,0,0,0,-1,2008,1233,20.7919,-4.3628
791,-209,20.7507,2.85474,0,0,0,0,0,0,0,-1,2015,1233,20.7507,-2.85469
798,-209,20.2488,3.8667,0,0,0,0,0,0,0,-1,2022,1233,20.2487,-3.86673
805,-209,0,0,0,0,0,0,0,0,0,-1,2029,1233,0,0
812,-209,0,0,0,0,0,0,0,0,0,-1,2036,1233,0,0
-700,-216,0,0,0,0,0,0,0,0,0,-1,524,1240,0,0
-693,-216,0,0,0,0,0,0,0,0,0,-1,531,1240,0,0
-686,-216,0,0,0,0,0,0,0,0,0,-1,538,1240,0,0
-679,-216,-11.9803,2.49268,0.0395741,0.0214772,-0.0757797,0.106844,-0.0457923,-0.725977,0.0904437,0.0469562,545,1240,-11.9803,-2.49265
-672,-216,-11.7117,1.77527,0.0292361,0.0265761,-0.0565929,0.0845146,-0.0287024,-0.77365,0.0679618,0.0466365,552,1240,-11.7117,-1.77532
-665,-216,-11.1138,0.618896,0,0,0,0,0,0,0,-1,559,1240,-11.1137,-0.618896
-658,-216,-10.7024,0.267456,0,0,0,0,0,0,0,-1,566,1240,-10.7024,-0.267451
-651,-216,-10.2473,0.629272,0,0,0,0,0,0,0,-1,573,1240,-10.2472,-0.629258
-644,-216,-10.6069,1.09558,0.00562036,0.0223375,-0.0137948,0.0301085,-0.00215061,-1.05778,0.0208262,0.0470244,580,1240,-10.6069,-1.09553
-637,-216,-10.9728,1.21594,0.00305985,0.0188905,-0.00882784,0.022832,-0.000881592,-1.15087,0.0155235,0.0412727,587,1240,-10.9728,-1.21597
-630,-216,-10.9213,1.22412,0.00133699,0.0153216,-0.00536705,0.0171439,-0.000485328,-1.24347,0.0115944,0.0273547,594,1240,-10.9213,-1.22418
-623,-216,-10.9451,1.54468,-0.000122019,0.0118666,-0.00272242,0.0124559,-0.000711274,-1.35764,0.00855087,0.0126108,601,1240,-10.9451,-1.54471
-616,-216,-10.9792,1.77576,-0.000985379,0.00864363,-0.000826112,0.00871399,-0.00105574,-1.48583,0.00619132,0.014491,608,1240,-10.9792,-1.77579
-609,-216,-10.9741,1.97046,-0.0010456,0.00597097,0.000254978,0.00598022,-0.00105485,1.53452,0.00438097,0.0143024,615,1240,-10.9741,-1.97045
-602,-216,-10.9656,2.11108,-0.000719919,0.00343895,0.000272221,0.00345669,-0.000737662,1.50571,0.00258567,0.0134354,622,1240,-10.9656,-2.11105
-595,-216,-10.9679,2.30078,-0.00031572,0.0011652,-0.000135202,0.00117744,-0.000327962,-1.48049,0.000914108,0.0176882,629,1240,-10.9679,-2.30078
-588,-216,-10.9543,2.51941,0.000336203,-0.000511502,-0.0006029,0.000649331,-0.000824629,-0.479022,0.000852995,0.019845,636,1240,-10.9543,-2.51946
-581,-216,-10.954,2.70959,0.00106199,-0.00130526,-0.00121657,0.00157573,-0.00181899,-0.399562,0.00196162,0.016257,643,1240,-10.954,-2.70955
-574,-216,-10.954,3.00879,0.00194355,-0.00223067,-0.00164035,0.00251101,-0.00279814,-0.333056,0.00306674,0.0172447,650,1240,-10.954,-3.00875
-567,-216,-11.0187,3.30774,0.00266412,-0.00267042,-0.00195458,0.00330362,-0.00330992,-0.316201,0.00381833,0.0298565,657,1240,-11.0187,-3.30779
-560,-216,-10.2851,3.61279,0,0,0,0,0,0,0,-1,664,1240,-10.2851,-3.61274
-553,-216,-12.2567,-0.189087,0,0,0,0,0,0,0,-1,671,1240,-12.2567,0.189105
-546,-216,-12.8211,-0.210693,0,0,0,0,0,0,0,-1,678,1240,-12.8211,0.210669
-539,-216,-14.5252,1.25293,0.003656,-0.00302342,-0.00327675,0.00499505,-0.00436247,-0.387941,0.00540667,0.0402756,685,1240,-14.5252,-1.25293
-532,-216,-14.2557,0.997559,0.00335777,-0.00276876,-0.00353966,0.00497561,-0.0043866,-0.428711,0.00540884,0.0377507,692,1240,-14.2557,-0.997552
-525,-216,-14.2214,0.867432,0.00264969,-0.00205233,-0.00356645,0.00457031,-0.00397295,-0.49399,0.00493647,0.0379795,699,1240,-14.2214,-0.867444
-518,-216,-14.2009,0.766357,0.000967968,-0.000558714,-0.00311359,0.00341042,-0.00300117,-0.665187,0.00370425,0.0418928,706,1240,-14.2009,-0.766379
-511,-216,-14.3603,0.889526,-0.0016739,0.00224214,-0.0015382,0.00277408,-0.00220584,-1.23785,0.00288139,0.0425185,713,1240,-14.3603,-0.889515
-504,-216,-14.3485,0.969971,-0.00356639,0.0074556,0.00283109,0.00814026,-0.00425105,1.33352,0.00727064,0.0418542,720,1240,-14.3485,-0.96995
-497,-216,0,0,0,0,0,0,0,0,0,-1,727,1240,0,0
-490,-216,0,0,0,0,0,0,0,0,0,-1,734,1240,0,0
-483,-216,0,0,0,0,0,0,0,0,0,-1,741,1240,0,0
-476,-216,0,0,0,0,0,0,0,0,0,-1,748,1240,0,0
-469,-216,0,0,0,0,0,0,0,0,0,-1,755,1240,0,0
-462,-216,0,0,0,0,0,0,0,0,0,-1,762,1240,0,0
-455,-216,0,0,0,0,0,0,0,0,0,-1,769,1240,0,0
-448,-216,0,0,0,0,0,0,0,0,0,-1,776,1240,0,0
-441,-216,0,0,0,0,0,0,0,0,0,-1,783,1240,0,0
-434,-216,0,0,0,0,0,0,0,0,0,-1,790,1240,0,0
-427,-216,0,0,0,0,0,0,0,0,0,-1,797,1240,0,0
-420,-216,0,0,0,0,0,0,0,0,0,-1,804,1240,0,0
-413,-216,0,0,0,0,0,0,0,0,0,-1,811,1240,0,0
-406,-216,0,0,0,0,0,0,0,0,0,-1,818,1240,0,0
-399,-216,0,0,0,0,0,0,0,0,0,-1,825,1240,0,0
-392,-216,0,0,0,0,0,0,0,0,0,-1,832,1240,0,0
-385,-216,0,0,0,0,0,0,0,0,0,-1,839,1240,0,0
-378,-216,0,0,0,0,0,0,0,0,0,-1,846,1240,0,0
-371,-216,0,0,0,0,0,0,0,0,0,-1,853,1240,0,0
-364,-216,0,0,0,0,0,0,0,0,0,-1,860,1240,0,0
-357,-216,0,0,0,0,0,0,0,0,0,-1,867,1240,0,0
-350,-216,0,0,0,0,0,0,0,0,0,-1,874,1240,0,0
-343,-216,0,0,0,0,0,0,0,0,0,-1,881,1240,0,0
-336,-216,0,0,0,0,0,0,0,0,0,-1,888,1240,0,0
-329,-216,0,0,0,0,0,0,0,0,0,-1,895,1240,0,0
-322,-216,0,0,0,0,0,0,0,0,0,-1,902,1240,0,0
-315,-216,0,0,0,0,0,0,0,0,0,-1,909,1240,0,0
-308,-216,0,0,0,0,0,0,0,0,0,-1,916,1240,0,0
-301,-216,0,0,0,0,0,0,0,0,0,-1,923,1240,0,0
-294,-216,0,0,0,0,0,0,0,0,0,-1,930,1240,0,0
-287,-216,0,0,0,0,0,0,0,0,0,-1,937,1240,0,0
-280,-216,0,0,0,0,0,0,0,0,0,-1,944,1240,0,0
-273,-216,0,0,0,0,0,0,0,0,0,-1,951,1240,0,0
-266,-216,0,0,0,0,0,0,0,0,0,-1,958,1240,0,0
-259,-216,0,0,0,0,0,0,0,0,0,-1,965,1240,0,0
-252,-216,0,0,0,0,0,0,0,0,0,-1,972,1240,0,0
-245,-216,0,0,0,0,0,0,0,0,0,-1,979,1240,0,0
-238,-216,0,0,0,0,0,0,0,0,0,-1,986,1240,0,0
-231,-216,0,0,0,0,0,0,0,0,0,-1,993,1240,0,0
-224,-216,0,0,0,0,0,0,0,0,0,-1,1000,1240,0,0
-217,-216,0,0,0,0,0,0,0,0,0,-1,1007,1240,0,0
-210,-216,0,0,0,0,0,0,0,0,0,-1,1014,1240,0,0
-203,-216,0,0,0,0,0,0,0,0,0,-1,1021,1240,0,0
-196,-216,0,0,0,0,0,0,0,0,0,-1,1028,1240,0,0
-189,-216,0,0,0,0,0,0,0,0,0,-1,1035,1240,0,0
-182,-216,0,0,0,0,0,0,0,0,0,-1,1042,1240,0,0
-175,-216,0,0,0,0,0,0,0,0,0,-1,1049,1240,0,0
-168,-216,0,0,0,0,0,0,0,0,0,-1,1056,1240,0,0
-161,-216,0,0,0,0,0,0,0,0,0,-1,1063,1240,0,0
-154,-216,0,0,0,0,0,0,0,0,0,-1,1070,1240,0,0
-147,-216,0,0,0,0,0,0,0,0,0,-1,1077,1240,0,0
-140,-216,0,0,0,0,0,0,0,0,0,-1,1084,1240,0,0
-133,-216,0,0,0,0,0,0,0,0,0,-1,1091,1240,0,0
-126,-216,0,0,0,0,0,0,0,0,0,-1,1098,1240,0,0
-119,-216,0,0,0,0,0,0,0,0,0,-1,1105,1240,0,0
-112,-216,0,0,0,0,0,0,0,0,0,-1,1112,1240,0,0
-105,-216,0,0,0,0,0,0,0,0,0,-1,1119,1240,0,0
-98,-216,0,0,0,0,0,0,0,0,0,-1,1126,1240,0,0
-91,-216,0,0,0,0,0,0,0,0,0,-1,1133,1240,0,0
-84,-216,0,0,0,0,0,0,0,0,0,-1,1140,1240,0,0
-77,-216,0,0,0,0,0,0,0,0,0,-1,1147,1240,0,0
-70,-216,0,0,0,0,0,0,0,0,0,-1,1154,1240,0,0
-63,-216,0,0,0,0,0,0,0,0,0,-1,1161,1240,0,0
-56,-216,0,0,0,0,0,0,0,0,0,-1,1168,1240,0,0
-49,-216,0,0,0,0,0,0,0,0,0,-1,1175,1240,0,0
-42,-216,0,0,0,0,0,0,0,0,0,-1,1182,1240,0,0
-35,-216,0,0,0,0,0,0,0,0,0,-1,1189,1240,0,0
-28,-216,0,0,0,0,0,0,0,0,0,-1,1196,1240,0,0
-21,-216,0,0,0,0,0,0,0,0,0,-1,1203,1240,0,0
-14,-216,0,0,0,0,0,0,0,0,0,-1,1210,1240,0,0
-7,-216,0,0,0,0,0,0,0,0,0,-1,1217,1240,0,0
0,-216,0,0,0,0,0,0,0,0,0,-1,1224,1240,0,0
7,-216,0,0,0,0,0,0,0,0,0,-1,1231,1240,0,0
14,-216,0,0,0,0,0,0,0,0,0,-1,1238,1240,0,0
21,-216,0,0,0,0,0,0,0,0,0,-1,1245,1240,0,0
28,-216,0,0,0,0,0,0,0,0,0,-1,1252,1240,0,0
35,-216,0,0,0,0,0,0,0,0,0,-1,1259,1240,0,0
42,-216,0,0,0,0,0,0,0,0,0,-1,1266,1240,0,0
49,-216,0,0,0,0,0,0,0,0,0,-1,1273,1240,0,0
56,-216,0,0,0,0,0,0,0,0,0,-1,1280,1240,0,0
63,-216,0,0,0,0,0,0,0,0,0,-1,1287,1240,0,0
70,-216,0,0,0,0,0,0,0,0,0,-1,1294,1240,0,0
77,-216,0,0,0,0,0,0,0,0,0,-1,1301,1240,0,0
84,-216,0,0,0,0,0,0,0,0,0,-1,1308,1240,0,0
91,-216,0,0,0,0,0,0,0,0,0,-1,1315,1240,0,0
98,-216,0,0,0,0,0,0,0,0,0,-1,1322,1240,0,0
105,-216,0,0,0,0,0,0,0,0,0,-1,1329,1240,0,0
112,-216,0,0,0,0,0,0,0,0,0,-1,1336,1240,0,0
119,-216,0,0,0,0,0,0,0,0,0,-1,1343,1240,0,0
126,-216,0,0,0,0,0,0,0,0,0,-1,1350,1240,0,0
133,-216,0,0,0,0,0,0,0,0,0,-1,1357,1240,0,0
140,-216,0,0,0,0,0,0,0,0,0,-1,1364,1240,0,0
147,-216,0,0,0,0,0,0,0,0,0,-1,1371,1240,0,0
154,-216,0,0,0,0,0,0,0,0,0,-1,1378,1240,0,0
161,-216,0,0,0,0,0,0,0,0,0,-1,1385,1240,0,0
168,-216,0,0,0,0,0,0,0,0,0,-1,1392,1240,0,0
175,-216,0,0,0,0,0,0,0,0,0,-1,1399,1240,0,0
182,-216,0,0,0,0,0,0,0,0,0,-1,1406,1240,0,0
189,-216,0,0,0,0,0,0,0,0,0,-1,1413,1240,0,0
196,-216,0,0,0,0,0,0,0,0,0,-1,1420,1240,0,0
203,-216,0,0,0,0,0,0,0,0,0,-1,1427,1240,0,0
210,-216,0,0,0,0,0,0,0,0,0,-1,1434,1240,0,0
217,-216,0,0,0,0,0,0,0,0,0,-1,1441,1240,0,0
224,-216,0,0,0,0,0,0,0,0,0,-1,1448,1240,0,0
231,-216,0,0,0,0,0,0,0,0,0,-1,1455,1240,0,0
238,-216,0,0,0,0,0,0,0,0,0,-1,1462,1240,0,0
245,-216,0,0,0,0,0,0,0,0,0,-1,1469,1240,0,0
252,-216,0,0,0,0,0,0,0,0,0,-1,1476,1240,0,0
259,-216,0,0,0,0,0,0,0,0,0,-1,1483,1240,0,0
266,-216,0,0,0,0,0,0,0,0,0,-1,1490,1240,0,0
273,-216,0,0,0,0,0,0,0,0,0,-1,1497,1240,0,0
280,-216,0,0,0,0,0,0,0,0,0,-1,1504,1240,0,0
287,-216,0,0,0,0,0,0,0,0,0,-1,1511,1240,0,0
294,-216,0,0,0,0,0,0,0,0,0,-1,1518,1240,0,0
301,-216,0,0,0,0,0,0,0,0,0,-1,1525,1240,0,0
308,-216,0,0,0,0,0,0,0,0,0,-1,1532,1240,0,0
315,-216,0,0,0,0,0,0,0,0,0,-1,1539,1240,0,0
322,-216,0,0,0,0,0,0,0,0,0,-1,1546,1240,0,0
329,-216,0,0,0,0,0,0,0,0,0,-1,1553,1240,0,0
336,-216,0,0,0,0,0,0,0,0,0,-1,1560,1240,0,0
343,-216,0,0,0,0,0,0,0,0,0,-1,1567,1240,0,0
350,-216,0,0,0,0,0,0,0,0,0,-1,1574,1240,0,0
357,-216,0,0,0,0,0,0,0,0,0,-1,1581,1240,0,0
364,-216,0,0,0,0,0,0,0,0,0,-1,1588,1240,0,0
371,-216,0,0,0,0,0,0,0,0,0,-1,1595,1240,0,0
378,-216,0,0,0,0,0,0,0,0,0,-1,1602,1240,0,0
385,-216,0,0,0,0,0,0,0,0,0,-1,1609,1240,0,0
392,-216,0,0,0,0,0,0,0,0,0,-1,1616,1240,0,0
399,-216,0,0,0,0,0,0,0,0,0,-1,1623,1240,0,0
406,-216,0,0,0,0,0,0,0,0,0,-1,1630,1240,0,0
413,-216,0,0,0,0,0,0,0,0,0,-1,1637,1240,0,0
420,-216,0,0,0,0,0,0,0,0,0,-1,1644,1240,0,0
427,-216,0,0,0,0,0,0,0,0,0,-1,1651,1240,0,0
434,-216,0,0,0,0,0,0,0,0,0,-1,1658,1240,0,0
441,-216,0,0,0,0,0,0,0,0,0,-1,1665,1240,0,0
448,-216,0,0,0,0,0,0,0,0,0,-1,1672,1240,0,0
455,-216,0,0,0,0,0,0,0,0,0,-1,1679,1240,0,0
462,-216,0,0,0,0,0,0,0,0,0,-1,1686,1240,0,0
469,-216,0,0,0,0,0,0,0,0,0,-1,1693,1240,0,0
476,-216,0,0,0,0,0,0,0,0,0,-1,1700,1240,0,0
483,-216,0,0,0,0,0,0,0,0,0,-1,1707,1240,0,0
490,-216,0,0,0,0,0,0,0,0,0,-1,1714,1240,0,0
497,-216,0,0,0,0,0,0,0,0,0,-1,1721,1240,0,0
504,-216,0,0,0,0,0,0,0,0,0,-1,1728,1240,0,0
511,-216,0,0,0,0,0,0,0,0,0,-1,1735,1240,0,0
518,-216,0,0,0,0,0,0,0,0,0,-1,1742,1240,0,0
525,-216,0,0,0,0,0,0,0,0,0,-1,1749,1240,0,0
532,-216,0,0,0,0,0,0,0,0,0,-1,1756,1240,0,0
539,-216,0,0,0,0,0,0,0,0,0,-1,1763,1240,0,0
546,-216,0,0,0,0,0,0,0,0,0,-1,1770,1240,0,0
553,-216,0,0,0,0,0,0,0,0,0,-1,1777,1240,0,0
560,-216,0,0,0,0,0,0,0,0,0,-1,1784,1240,0,0
567,-216,0,0,0,0,0,0,0,0,0,-1,1791,1240,0,0
574,-216,0,0,0,0,0,0,0,0,0,-1,1798,1240,0,0
581,-216,0,0,0,0,0,0,0,0,0,-1,1805,1240,0,0
588,-216,0,0,0,0,0,0,0,0,0,-1,1812,1240,0,0
595,-216,0,0,0,0,0,0,0,0,0,-1,1819,1240,0,0
602,-216,0,0,0,0,0,0,0,0,0,-1,1826,1240,0,0
609,-216,0,0,0,0,0,0,0,0,0,-1,1833,1240,0,0
616,-216,0,0,0,0,0,0,0,0,0,-1,1840,1240,0,0
623,-216,22.0347,2.83777,-0.00184069,-0.000351824,0.00195293,0.000993748,-0.00318626,0.96749,0.00252156,0.0375894,1847,1240,22.0347,-2.83779
630,-216,22.0021,2.7804,-0.00119855,0.00204741,0.000688726,0.0021875,-0.00133864,1.37013,0.00205538,0.0361351,1854,1240,22.002,-2.7804
637,-216,22.0116,2.75403,0.000267824,0.00382371,-0.000515161,0.00389684,0.000194693,-1.42978,0.00253549,0.0340951,1861,1240,22.0116,-2.75403
644,-216,22.0645,2.78613,0.00148436,0.00451232,-0.00135989,0.0050334,0.000963286,-1.20488,0.00308505,0.0275747,1868,1240,22.0644,-2.78608
651,-216,22.0624,2.77844,0.00238682,0.0043287,-0.0017549,0.00536335,0.00135217,-1.03808,0.00322089,0.0216359,1875,1240,22.0624,-2.77847
658,-216,22.0819,2.80518,0.00295707,0.00374495,-0.00188827,0.00527994,0.00142209,-0.888235,0.00315465,0.0289544,1882,1240,22.0819,-2.80514
665,-216,22.1987,2.66528,0.00324363,0.00300241,-0.00182933,0.00495632,0.00128972,-0.75248,0.00296919,0.0415181,1889,1240,22.1987,-2.66531
672,-216,22.0734,1.92175,0.00324348,0.00221093,-0.00171277,0.00451609,0.000938321,-0.639016,0.0027518,0.044614,1896,1240,22.0734,-1.92175
679,-216,21.9036,2.14941,0,0,0,0,0,0,0,-1,1903,1240,21.9036,-2.14937
686,-216,18.9166,5.32556,0,0,0,0,0,0,0,-1,1910,1240,18.9167,-5.32561
693,-216,18.9402,5.32251,0.00284637,0.000335638,-0.000848667,0.00310632,7.56894e-05,-0.297229,0.00204612,0.0424932,1917,1240,18.9402,-5.32254
700,-216,18.9558,5.29944,0.00242711,-0.000313574,-0.000560456,0.00253729,-0.000423755,-0.194116,0.00184903,0.0192633,1924,1240,18.9558,-5.29941
707,-216,18.9833,5.07825,0.00175431,-0.000855996,-0.000280137,0.00178404,-0.000885722,-0.105716,0.0015702,0.0162338,1931,1240,18.9833,-5.07823
714,-216,19.0242,4.89099,0.00072331,-0.000942791,0.000184227,0.000743438,-0.000962919,0.108822,0.000987878,0.0125124,1938,1240,19.0241,-4.89094
721,-216,19.0404,4.74255,-6.37604e-05,-0.000856144,0.000887766,0.000512208,-0.00143211,0.57552,0.00116368,0.0114727,1945,1240,19.0404,-4.7426
728,-216,19.0424,4.57959,-0.000482923,-0.000548537,0.00133281,0.000817483,-0.00184894,0.773093,0.00157739,0.0106284,1952,1240,19.0424,-4.57962
735,-216,19.0436,4.42761,-0.000536863,-0.000742153,0.0010244,0.000390024,-0.00166904,0.735465,0.00126294,0.0101929,1959,1240,19.0436,-4.42767
742,-216,19.0304,4.29797,-3.48425e-05,-0.00113316,0.000307667,4.54698e-05,-0.00121347,0.255339,0.000824558,0.0101373,1966,1240,19.0304,-4.29794
749,-216,19.0287,4.11401,0.000981459,-0.00167992,-0.000547627,0.00108974,-0.0017882,-0.195206,0.00167781,0.00799363,1973,1240,19.0287,-4.11401
756,-216,18.995,3.94836,0.00287934,-0.00283003,-0.00197621,0.00349664,-0.00344732,-0.302759,0.00400913,0.00876203,1980,1240,18.995,-3.94842
763,-216,18.973,3.79932,0.00571511,-0.00486573,-0.00429945,0.00724186,-0.00639247,-0.341214,0.00787688,0.0140473,1987,1240,18.973,-3.79931
770,-216,18.9701,3.63513,0.0100471,-0.00800312,-0.00800698,0.013087,-0.011043,-0.362846,0.0139481,0.0361996,1994,1240,18.97,-3.63517
777,-216,18.9512,3.47534,0,0,0,0,0,0,0,-1,2001,1240,18.9512,-3.47531
784,-216,20.7441,5.03735,0.0246436,-0.0188071,-0.021848,0.0337294,-0.0278929,-0.394106,0.0356308,0.0435562,2008,1240,20.7441,-5.03735
791,-216,20.7589,3.53503,0.036124,-0.0268657,-0.0333641,0.0505104,-0.0412521,-0.407105,0.0530689,0.0420995,2015,1240,20.759,-3.53503
798,-216,0,0,0,0,0,0,0,0,0,-1,2022,1240,0,0
805,-216,0,0,0,0,0,0,0,0,0,-1,2029,1240,0,0
812,-216,0,0,0,0,0,0,0,0,0,-1,2036,1240,0,0
-700,-223,0,0,0,0,0,0,0,0,0,-1,524,1247,0,0
-693,-223,0,0,0,0,0,0,0,0,0,-1,531,1247,0,0
-686,-223,0,0,0,0,0,0,0,0,0,-1,538,1247,0,0
-679,-223,0,0,0,0,0,0,0,0,0,-1,545,1247,0,0
-672,-223,-11.3572,1.58252,0.035911,0.0354861,-0.0604753,0.0961742,-0.0247771,-0.783642,0.0737753,0.0466398,552,1247,-11.3572,-1.58257
-665,-223,-11.1151,0.787476,0.02634,0.0367751,-0.0440958,0.0759609,-0.0128458,-0.844285,0.055421,0.0468546,559,1247,-11.1151,-0.787511
-658,-223,-10.6509,0.293457,0.01866,0.0353644,-0.0312638,0.0593724,-0.00534799,-0.915926,0.0414794,0.0472267,566,1247,-10.6509,-0.293485
-651,-223,-10.2758,-0.0477295,0,0,0,0,0,0,0,-1,573,1247,-10.2758,0.0476749
-644,-223,-10.7487,0.909668,0,0,0,0,0,0,0,-1,580,1247,-10.7487,-0.909729
-637,-223,-10.9562,0.801147,0,0,0,0,0,0,0,-1,587,1247,-10.9563,-0.801134
-630,-223,-10.8403,1.1593,0.00255603,0.0191134,-0.00495017,0.0204805,0.00118895,-1.30134,0.0132751,0.0376631,594,1247,-10.8403,-1.15929
-623,-223,-10.7662,1.50244,0.000731922,0.0148107,-0.00213897,0.0151285,0.000414123,-1.4233,0.00995047,0.0211734,601,1247,-10.7662,-1.50245
-616,-223,-10.7899,1.75757,-0.000416021,0.0108651,-0.000197383,0.0108686,-0.000419474,-1.55331,0.00738952,0.0157847,608,1247,-10.7899,-1.75755
-609,-223,-10.7754,1.95496,-0.000557408,0.00760411,0.000941364,0.00771128,-0.000664579,1.45744,0.00537609,0.0122158,615,1247,-10.7754,-1.95497
-602,-223,-10.7692,2.10315,-0.000185689,0.00463909,0.000904747,0.00480316,-0.000349769,1.39139,0.00332484,0.0139566,622,1247,-10.7692,-2.10312
-595,-223,-10.7913,2.30469,0.000365647,0.00186088,0.000458016,0.00199003,0.000236503,1.29597,0.0012553,0.0199314,629,1247,-10.7912,-2.30473
-588,-223,-10.7719,2.50647,0.00119868,-4.93348e-05,-2.11416e-05,0.00119904,-4.96929e-05,-0.0169337,0.000816428,0.0226697,636,1247,-10.7718,-2.50651
-581,-223,-10.7541,2.71997,0.00204674,-0.000896895,-0.000683908,0.00219787,-0.00104803,-0.217493,0.00191282,0.0196965,643,1247,-10.7541,-2.71997
-574,-223,-10.7516,2.9657,0.003019,-0.00193203,-0.00122739,0.00330657,-0.0022196,-0.230146,0.00321104,0.0164279,650,1247,-10.7516,-2.96567
-567,-223,-10.5302,3.26221,0.00380151,-0.00254344,-0.00172316,0.00423928,-0.00298121,-0.248788,0.00418979,0.0263566,657,1247,-10.5302,-3.2622
-560,-223,-10.1676,3.56519,0.00423948,-0.00284718,-0.00211808,0.00482428,-0.00343198,-0.269388,0.00478929,0.0441715,664,1247,-10.1676,-3.56515
-553,-223,-9.46417,3.89966,0,0,0,0,0,0,0,-1,671,1247,-9.4642,-3.89965
-546,-223,-14.5252,1.40173,0,0,0,0,0,0,0,-1,678,1247,-14.5252,-1.40177
-539,-223,-14.3577,1.37256,0.00434827,-0.0028603,-0.00367496,0.00589143,-0.00440346,-0.397553,0.00596442,0.0465748,685,1247,-14.3577,-1.37254
-532,-223,-14.3129,1.17236,0.00390453,-0.00262183,-0.00419064,0.00595263,-0.00466994,-0.454595,0.00614783,0.0454442,692,1247,-14.3129,-1.17242
-525,-223,-14.2341,0.942749,0.00309184,-0.00194368,-0.00456982,0.00579158,-0.00464343,-0.533611,0.0060368,0.046889,699,1247,-14.2341,-0.942724
-518,-223,-14.1272,0.746704,0,0,0,0,0,0,0,-1,706,1247,-14.1272,-0.746671
-511,-223,-14.4826,1.08826,-0.000862432,0.00210315,-0.00384464,0.00474103,-0.00350031,-0.969448,0.00477608,0.0401782,713,1247,-14.4826,-1.0883
-504,-223,-14.4883,1.11414,-0.00274367,0.00714073,-0.000678585,0.0071871,-0.00279004,-1.50257,0.00594385,0.0415959,720,1247,-14.4883,-1.11412
-497,-223,0,0,0,0,0,0,0,0,0,-1,727,1247,0,0
-490,-223,0,0,0,0,0,0,0,0,0,-1,734,1247,0,0
-483,-223,0,0,0,0,0,0,0,0,0,-1,741,1247,0,0
-476,-223,0,0,0,0,0,0,0,0,0,-1,748,1247,0,0
-469,-223,0,0,0,0,0,0,0,0,0,-1,755,1247,0,0
-462,-223,0,0,0,0,0,0,0,0,0,-1,762,1247,0,0
-455,-223,0,0,0,0,0,0,0,0,0,-1,769,1247,0,0
-448,-223,0,0,0,0,0,0,0,0,0,-1,776,1247,0,0
-441,-223,0,0,0,0,0,0,0,0,0,-1,783,1247,0,0
-434,-223,0,0,0,0,0,0,0,0,0,-1,790,1247,0,0
-427,-223,0,0,0,0,0,0,0,0,0,-1,797,1247,0,0
-420,-223,0,0,0,0,0,0,0,0,0,-1,804,1247,0,0
-413,-223,0,0,0,0,0,0,0,0,0,-1,811,1247,0,0
-406,-223,0,0,0,0,0,0,0,0,0,-1,818,1247,0,0
-399,-223,0,0,0,0,0,0,0,0,0,-1,825,1247,0,0
-392,-223,0,0,0,0,0,0,0,0,0,-1,832,1247,0,0
-385,-223,0,0,0,0,0,0,0,0,0,-1,839,1247,0,0
-378,-223,0,0,0,0,0,0,0,0,0,-1,846,1247,0,0
-371,-223,0,0,0,0,0,0,0,0,0,-1,853,1247,0,0
-364,-223,0,0,0,0,0,0,0,0,0,-1,860,1247,0,0
-357,-223,0,0,0,0,0,0,0,0,0,-1,867,1247,0,0
-350,-223,0,0,0,0,0,0,0,0,0,-1,874,1247,0,0
-343,-223,0,0,0,0,0,0,0,0,0,-1,881,1247,0,0
-336,-223,0,0,0,0,0,0,0,0,0,-1,888,1247,0,0
-329,-223,0,0,0,0,0,0,0,0,0,-1,895,1247,0,0
-322,-223,0,0,0,0,0,0,0,0,0,-1,902,1247,0,0
-315,-223,0,0,0,0,0,0,0,0,0,-1,909,1247,0,0
-308,-223,0,0,0,0,0,0,0,0,0,-1,916,1247,0,0
-301,-223,0,0,0,0,0,0,0,0,0,-1,923,1247,0,0
-294,-223,0,0,0,0,0,0,0,0,0,-1,930,1247,0,0
-287,-223,0,0,0,0,0,0,0,0,0,-1,937,1247,0,0
-280,-223,0,0,0,0,0,0,0,0,0,-1,944,1247,0,0
-273,-223,0,0,0,0,0,0,0,0,0,-1,951,1247,0,0
-266,-223,0,0,0,0,0,0,0,0,0,-1,958,1247,0,0
-259,-223,0,0,0,0,0,0,0,0,0,-1,965,1247,0,0
-252,-223,0,0,0,0,0,0,0,0,0,-1,972,1247,0,0
-245,-223,0,0,0,0,0,0,0,0,0,-1,979,1247,0,0
-238,-223,0,0,0,0,0,0,0,0,0,-1,986,1247,0,0
-231,-223,0,0,0,0,0,0,0,0,0,-1,993,1247,0,0
-224,-223,0,0,0,0,0,0,0,0,0,-1,1000,1247,0,0
-217,-223,0,0,0,0,0,0,0,0,0,-1,1007,1247,0,0
-210,-223,0,0,0,0,0,0,0,0,0,-1,1014,1247,0,0
-203,-223,0,0,0,0,0,0,0,0,0,-1,1021,1247,0,0
-196,-223,0,0,0,0,0,0,0,0,0,-1,1028,1247,0,0
-189,-223,0,0,0,0,0,0,0,0,0,-1,1035,1247,0,0
-182,-223,0,0,0,0,0,0,0,0,0,-1,1042,1247,0,0
-175,-223,0,0,0,0,0,0,0,0,0,-1,1049,1247,0,0
-168,-223,0,0,0,0,0,0,0,0,0,-1,1056,1247,0,0
-161,-223,0,0,0,0,0,0,0,0,0,-1,1063,1247,0,0
-154,-223,0,0,0,0,0,0,0,0,0,-1,1070,1247,0,0
-147,-223,0,0,0,0,0,0,0,0,0,-1,1077,1247,0,0
-140,-223,0,0,0,0,0,0,0,0,0,-1,1084,1247,0,0
-133,-223,0,0,0,0,0,0,0,0,0,-1,1091,1247,0,0
-126,-223,0,0,0,0,0,0,0,0,0,-1,1098,1247,0,0
-119,-223,0,0,0,0,0,0,0,0,0,-1,1105,1247,0,0
-112,-223,0,0,0,0,0,0,0,0,0,-1,1112,1247,0,0
-105,-223,0,0,0,0,0,0,0,0,0,-1,1119,1247,0,0
-98,-223,0,0,0,0,0,0,0,0,0,-1,1126,1247,0,0
-91,-223,0,0,0,0,0,0,0,0,0,-1,1133,1247,0,0
-84,-223,0,0,0,0,0,0,0,0,0,-1,1140,1247,0,0
-77,-223,0,0,0,0,0,0,0,0,0,-1,1147,1247,0,0
-70,-223,0,0,0,0,0,0,0,0,0,-1,1154,1247,0,0
-63,-223,0,0,0,0,0,0,0,0,0,-1,1161,1247,0,0
-56,-223,0,0,0,0,0,0,0,0,0,-1,1168,1247,0,0
-49,-223,0,0,0,0,0,0,0,0,0,-1,1175,1247,0,0
-42,-223,0,0,0,0,0,0,0,0,0,-1,1182,1247,0,0
-35,-223,0,0,0,0,0,0,0,0,0,-1,1189,1247,0,0
-28,-223,0,0,0,0,0,0,0,0,0,-1,1196,1247,0,0
-21,-223,0,0,0,0,0,0,0,0,0,-1,1203,1247,0,0
-14,-223,0,0,0,0,0,0,0,0,0,-1,1210,1247,0,0
-7,-223,0,0,0,0,0,0,0,0,0,-1,1217,1247,0,0
0,-223,0,0,0,0,0,0,0,0,0,-1,1224,1247,0,0
7,-223,0,0,0,0,0,0,0,0,0,-1,1231,1247,0,0
14,-223,0,0,0,0,0,0,0,0,0,-1,1238,1247,0,0
21,-223,0,0,0,0,0,0,0,0,0,-1,1245,1247,0,0
28,-223,0,0,0,0,0,0,0,0,0,-1,1252,1247,0,0
35,-223,0,0,0,0,0,0,0,0,0,-1,1259,1247,0,0
42,-223,0,0,0,0,0,0,0,0,0,-1,1266,1247,0,0
49,-223,0,0,0,0,0,0,0,0,0,-1,1273,1247,0,0
56,-223,0,0,0,0,0,0,0,0,0,-1,1280,1247,0,0
63,-223,0,0,0,0,0,0,0,0,0,-1,1287,1247,0,0
70,-223,0,0,0,0,0,0,0,0,0,-1,1294,1247,0,0
77,-223,0,0,0,0,0,0,0,0,0,-1,1301,1247,0,0
84,-223,0,0,0,0,0,0,0,0,0,-1,1308,1247,0,0
91,-223,0,0,0,0,0,0,0,0,0,-1,1315,1247,0,0
98,-223,0,0,0,0,0,0,0,0,0,-1,1322,1247,0,0
105,-223,0,0,0,0,0,0,0,0,0,-1,1329,1247,0,0
112,-223,0,0,0,0,0,0,0,0,0,-1,1336,1247,0,0
119,-223,0,0,0,0,0,0,0,0,0,-1,1343,1247,0,0
126,-223,0,0,0,0,0,0,0,0,0,-1,1350,1247,0,0
133,-223,0,0,0,0,0,0,0,0,0,-1,1357,1247,0,0
140,-223,0,0,0,0,0,0,0,0,0,-1,1364,1247,0,0
147,-223,0,0,0,0,0,0,0,0,0,-1,1371,1247,0,0
154,-223,0,0,0,0,0,0,0,0,0,-1,1378,1247,0,0
161,-223,0,0,0,0,0,0,0,0,0,-1,1385,1247,0,0
168,-223,0,0,0,0,0,0,0,0,0,-1,1392,1247,0,0
175,-223,0,0,0,0,0,0,0,0,0,-1,1399,1247,0,0
182,-223,0,0,0,0,0,0,0,0,0,-1,1406,1247,0,0
189,-223,0,0,0,0,0,0,0,0,0,-1,1413,1247,0,0
196,-223,0,0,0,0,0,0,0,0,0,-1,1420,1247,0,0
203,-223,0,0,0,0,0,0,0,0,0,-1,1427,1247,0,0
210,-223,0,0,0,0,0,0,0,0,0,-1,1434,1247,0,0
217,-223,0,0,0,0,0,0,0,0,0,-1,1441,1247,0,0
224,-223,0,0,0,0,0,0,0,0,0,-1,1448,1247,0,0
231,-223,0,0,0,0,0,0,0,0,0,-1,1455,1247,0,0
238,-223,0,0,0,0,0,0,0,0,0,-1,1462,1247,0,0
245,-223,0,0,0,0,0,0,0,0,0,-1,1469,1247,0,0
252,-223,0,0,0,0,0,0,0,0,0,-1,1476,1247,0,0
259,-223,0,0,0,0,0,0,0,0,0,-1,1483,1247,0,0
266,-223,0,0,0,0,0,0,0,0,0,-1,1490,1247,0,0
273,-223,0,0,0,0,0,0,0,0,0,-1,1497,1247,0,0
280,-223,0,0,0,0,0,0,0,0,0,-1,1504,1247,0,0
287,-223,0,0,0,0,0,0,0,0,0,-1,1511,1247,0,0
294,-223,0,0,0,0,0,0,0,0,0,-1,1518,1247,0,0
301,-223,0,0,0,0,0,0,0,0,0,-1,1525,1247,0,0
308,-223,0,0,0,0,0,0,0,0,0,-1,1532,1247,0,0
315,-223,0,0,0,0,0,0,0,0,0,-1,1539,1247,0,0
322,-223,0,0,0,0,0,0,0,0,0,-1,1546,1247,0,0
329,-223,0,0,0,0,0,0,0,0,0,-1,1553,1247,0,0
336,-223,0,0,0,0,0,0,0,0,0,-1,1560,1247,0,0
343,-223,0,0,0,0,0,0,0,0,0,-1,1567,1247,0,0
350,-223,0,0,0,0,0,0,0,0,0,-1,1574,1247,0,0
357,-223,0,0,0,0,0,0,0,0,0,-1,1581,1247,0,0
364,-223,0,0,0,0,0,0,0,0,0,-1,1588,1247,0,0
371,-223,0,0,0,0,0,0,0,0,0,-1,1595,1247,0,0
378,-223,0,0,0,0,0,0,0,0,0,-1,1602,1247,0,0
385,-223,0,0,0,0,0,0,0,0,0,-1,1609,1247,0,0
392,-223,0,0,0,0,0,0,0,0,0,-1,1616,1247,0,0
399,-223,0,0,0,0,0,0,0,0,0,-1,1623,1247,0,0
406,-223,0,0,0,0,0,0,0,0,0,-1,1630,1247,0,0
413,-223,0,0,0,0,0,0,0,0,0,-1,1637,1247,0,0
420,-223,0,0,0,0,0,0,0,0,0,-1,1644,1247,0,0
427,-223,0,0,0,0,0,0,0,0,0,-1,1651,1247,0,0
434,-223,0,0,0,0,0,0,0,0,0,-1,1658,1247,0,0
441,-223,0,0,0,0,0,0,0,0,0,-1,1665,1247,0,0
448,-223,0,0,0,0,0,0,0,0,0,-1,1672,1247,0,0
455,-223,0,0,0,0,0,0,0,0,0,-1,1679,1247,0,0
462,-223,0,0,0,0,0,0,0,0,0,-1,1686,1247,0,0
469,-223,0,0,0,0,0,0,0,0,0,-1,1693,1247,0,0
476,-223,0,0,0,0,0,0,0,0,0,-1,1700,1247,0,0
483,-223,0,0,0,0,0,0,0,0,0,-1,1707,1247,0,0
490,-223,0,0,0,0,0,0,0,0,0,-1,1714,1247,0,0
497,-223,0,0,0,0,0,0,0,0,0,-1,1721,1247,0,0
504,-223,0,0,0,0,0,0,0,0,0,-1,1728,1247,0,0
511,-223,0,0,0,0,0,0,0,0,0,-1,1735,1247,0,0
518,-223,0,0,0,0,0,0,0,0,0,-1,1742,1247,0,0
525,-223,0,0,0,0,0,0,0,0,0,-1,1749,1247,0,0
532,-223,0,0,0,0,0,0,0,0,0,-1,1756,1247,0,0
539,-223,0,0,0,0,0,0,0,0,0,-1,1763,1247,0,0
546,-223,0,0,0,0,0,0,0,0,0,-1,1770,1247,0,0
553,-223,0,0,0,0,0,0,0,0,0,-1,1777,1247,0,0
560,-223,0,0,0,0,0,0,0,0,0,-1,1784,1247,0,0
567,-223,0,0,0,0,0,0,0,0,0,-1,1791,1247,0,0
574,-223,0,0,0,0,0,0,0,0,0,-1,1798,1247,0,0
581,-223,0,0,0,0,0,0,0,0,0,-1,1805,1247,0,0
588,-223,0,0,0,0,0,0,0,0,0,-1,1812,1247,0,0
595,-223,0,0,0,0,0,0,0,0,0,-1,1819,1247,0,0
602,-223,0,0,0,0,0,0,0,0,0,-1,1826,1247,0,0
609,-223,0,0,0,0,0,0,0,0,0,-1,1833,1247,0,0
616,-223,0,0,0,0,0,0,0,0,0,-1,1840,1247,0,0
623,-223,21.9082,3.10986,-0.00169079,0.000959062,0.000695691,0.0011306,-0.00186233,1.32904,0.0017451,0.0363784,1847,1247,21.9082,-3.10985
630,-223,21.9442,2.95422,-0.00102633,0.00355578,-0.000427537,0.00359533,-0.00106588,-1.47855,0.00282014,0.0347215,1854,1247,21.9442,-2.95419
637,-223,22.0026,2.80823,0.000193508,0.0050933,-0.0012883,0.00541138,-0.000124577,-1.32874,0.00364982,0.0303192,1861,1247,22.0026,-2.80823
644,-223,22.0618,2.79797,0.00118188,0.00540586,-0.00177848,0.00605493,0.000532801,-1.22086,0.00387126,0.0224176,1868,1247,22.0618,-2.79792
651,-223,22.0634,2.76111,0.00192381,0.00491711,-0.00192037,0.00585516,0.000985755,-1.11641,0.00361988,0.0244745,1875,1247,22.0634,-2.76106
658,-223,22.0667,2.86743,0.00238297,0.00413793,-0.00189021,0.00534441,0.0011765,-1.00271,0.00324271,0.0451272,1882,1247,22.0666,-2.86742
665,-223,22.2653,2.58118,0.00263076,0.00326755,-0.00175048,0.00472835,0.00116996,-0.875359,0.00284364,0.0473907,1889,1247,22.2653,-2.58123
672,-223,22.3771,2.46436,0.00266261,0.0023854,-0.00162322,0.00415313,0.000894881,-0.742808,0.00252391,0.0472919,1896,1247,22.3771,-2.46434
679,-223,22.4445,1.34094,0,0,0,0,0,0,0,-1,1903,1247,22.4444,-1.34089
686,-223,18.7004,5.48816,0,0,0,0,0,0,0,-1,1910,1247,18.7004,-5.48816
693,-223,18.7744,5.41626,0.00254485,0.000301617,-0.000735476,0.00276448,8.19847e-05,-0.290196,0.00181628,0.0259774,1917,1247,18.7744,-5.41623
700,-223,18.8296,5.28345,0.00210895,-0.000402789,-0.000435085,0.00218218,-0.00047602,-0.166751,0.0016367,0.012139,1924,1247,18.8296,-5.28344
707,-223,18.8463,5.08838,0.00137069,-0.000980494,-0.000196961,0.00138707,-0.00099688,-0.0830001,0.00138251,0.0128476,1931,1247,18.8463,-5.08833
714,-223,18.8812,4.9082,0.000295092,-0.00100344,0.000204428,0.000326515,-0.00103486,0.152517,0.000820691,0.0110546,1938,1247,18.8812,-4.90815
721,-223,18.8818,4.74023,-0.000558321,-0.000856185,0.000895158,0.00020021,-0.00161472,0.702966,0.00114904,0.0130452,1945,1247,18.8818,-4.74018
728,-223,18.8645,4.57043,-0.0011302,-0.000528778,0.00132715,0.000531304,-0.00219028,0.896809,0.00166578,0.0142719,1952,1247,18.8645,-4.57049
735,-223,18.8568,4.42932,-0.00139804,-0.00071893,0.00101842,1.50494e-05,-0.00213202,0.94631,0.00142639,0.0126568,1959,1247,18.8568,-4.42931
742,-223,18.8263,4.28369,-0.00124027,-0.0012071,0.000299808,-0.000923418,-0.00152395,0.813029,0.000886412,0.0107845,1966,1247,18.8263,-4.28366
749,-223,18.8339,4.09216,-0.000855001,-0.00189503,-0.000472676,-0.000672279,-0.00207775,-0.368875,0.00122423,0.00964835,1973,1247,18.8339,-4.09211
756,-223,18.8303,3.92615,0.000205053,-0.0032429,-0.00180577,0.000977654,-0.0040155,-0.404283,0.00305547,0.0106724,1980,1247,18.8303,-3.92615
763,-223,18.7915,3.79626,0.00211942,-0.00554083,-0.0040795,0.00388502,-0.00730643,-0.408458,0.00656127,0.0136702,1987,1247,18.7915,-3.7963
770,-223,18.7012,3.64221,0.00532455,-0.00913112,-0.00780404,0.00873366,-0.0125402,-0.411856,0.0123479,0.0347117,1994,1247,18.7011,-3.64219
777,-223,18.6042,3.48694,0,0,0,0,0,0,0,-1,2001,1247,18.6043,-3.48688
784,-223,20.2888,5.42029,0.0172352,-0.0221043,-0.0224708,0.0274291,-0.0322982,-0.425885,0.0345218,0.0453407,2008,1247,20.2888,-5.42035
791,-223,20.4586,3.98438,0.0272344,-0.0324892,-0.0352817,0.0435951,-0.04885,-0.434203,0.0534019,0.0460175,2015,1247,20.4586,-3.98436
798,-223,0,0,0,0,0,0,0,0,0,-1,2022,1247,0,0
805,-223,0,0,0,0,0,0,0,0,0,-1,2029,1247,0,0
812,-223,0,0,0,0,0,0,0,0,0,-1,2036,1247,0,0
-700,-230,0,0,0,0,0,0,0,0,0,-1,524,1254,0,0
-693,-230,0,0,0,0,0,0,0,0,0,-1,531,1254,0,0
-686,-230,0,0,0,0,0,0,0,0,0,-1,538,1254,0,0
-679,-230,0,0,0,0,0,0,0,0,0,-1,545,1254,0,0
-672,-230,-10.9014,1.53809,0,0,0,0,0,0,0,-1,552,1254,-10.9014,-1.5381
-665,-230,-10.6087,1.08728,0.0307555,0.0464507,-0.0448047,0.0840899,-0.00688363,-0.872095,0.0584896,0.0468968,559,1254,-10.6087,-1.08731
-658,-230,-10.586,0.467896,0.0223183,0.0438928,-0.0308855,0.0658207,0.000390355,-0.953408,0.0437509,0.047128,566,1254,-10.586,-0.467857
-651,-230,-10.3852,0.123413,0,0,0,0,0,0,0,-1,573,1254,-10.3852,-0.123398
-644,-230,-10.7808,0.664185,0,0,0,0,0,0,0,-1,580,1254,-10.7808,-0.664178
-637,-230,-10.6158,0.989258,0,0,0,0,0,0,0,-1,587,1254,-10.6158,-0.989237
-630,-230,-10.6009,1.16516,0.00356658,0.023062,-0.00311353,0.0235472,0.0030814,-1.41621,0.0147784,0.0429827,594,1254,-10.6009,-1.16522
-623,-230,-10.5229,1.50659,0.00140307,0.0179216,-0.000394366,0.017931,0.00139366,-1.54694,0.0115176,0.0261328,601,1254,-10.5229,-1.50654
-616,-230,-10.5652,1.74304,-4.4408e-05,0.0132772,0.00135674,0.013414,-0.000181181,1.47033,0.00900365,0.0154383,608,1254,-10.5652,-1.74298
-609,-230,-10.5612,1.95447,-0.00027421,0.00946501,0.00229807,0.00998003,-0.000789227,1.35033,0.00693142,0.0116055,615,1254,-10.5612,-1.95448
-602,-230,-10.5535,2.13367,0.000123289,0.00608684,0.00199353,0.00669187,-0.000481741,1.27614,0.00463019,0.010824,622,1254,-10.5534,-2.13362
-595,-230,-10.5745,2.31702,0.000778361,0.00278266,0.00133178,0.00344722,0.000113797,1.10794,0.00226117,0.0182944,629,1254,-10.5745,-2.31697
-588,-230,-10.563,2.51611,0.00177658,0.000570233,0.000702455,0.00209929,0.000247522,0.430646,0.00132475,0.0254211,636,1254,-10.5631,-2.51616
-581,-230,-10.5543,2.73438,0.00275777,-0.000389973,-6.40457e-05,0.00275907,-0.000391275,-0.0203353,0.00198272,0.0226825,643,1254,-10.5543,-2.73442
-574,-230,-10.5569,2.96484,0.00379922,-0.00155322,-0.000743669,0.00390062,-0.00165462,-0.135521,0.00329354,0.0157602,650,1254,-10.5569,-2.96487
-567,-230,-10.4127,3.24133,0.00461142,-0.00241631,-0.00139367,0.00487771,-0.00268259,-0.188794,0.00442585,0.0218514,657,1254,-10.4127,-3.24134
-560,-230,-10.2167,3.52393,0.00499156,-0.00281823,-0.00194389,0.00544865,-0.00327532,-0.230946,0.00508862,0.0380067,664,1254,-10.2166,-3.52391
-553,-230,-9.82416,3.75,0,0,0,0,0,0,0,-1,671,1254,-9.82415,-3.75005
-546,-230,-10.7707,1.62012,0,0,0,0,0,0,0,-1,678,1254,-10.7707,-1.62008
-539,-230,-14.2651,1.38098,0,0,0,0,0,0,0,-1,685,1254,-14.2651,-1.38096
-532,-230,-14.3732,1.15698,0.00449952,-0.00271765,-0.00447472,0.00663941,-0.00485754,-0.446071,0.00666429,0.0486424,692,1254,-14.3732,-1.15692
-525,-230,-14.212,1.14148,0.00377728,-0.0020939,-0.005059,0.00669072,-0.00500734,-0.522505,0.00677714,0.0479194,699,1254,-14.212,-1.14148
-518,-230,-14.2553,0.994385,0.00250891,-0.000787246,-0.00542181,0.00652759,-0.00480593,-0.63785,0.00656853,0.0433699,706,1254,-14.2553,-0.994414
-511,-230,-14.4033,1.04761,0.000567689,0.00164282,-0.00519147,0.00632448,-0.00411397,-0.836988,0.00607152,0.0384715,713,1254,-14.4033,-1.04763
-504,-230,-14.3818,1.07166,-0.00121463,0.00632403,-0.00311604,0.00744526,-0.00233586,-1.2254,0.00589837,0.0388885,720,1254,-14.3818,-1.07161
-497,-230,0,0,0,0,0,0,0,0,0,-1,727,1254,0,0
-490,-230,0,0,0,0,0,0,0,0,0,-1,734,1254,0,0
-483,-230,0,0,0,0,0,0,0,0,0,-1,741,1254,0,0
-476,-230,0,0,0,0,0,0,0,0,0,-1,748,1254,0,0
-469,-230,0,0,0,0,0,0,0,0,0,-1,755,1254,0,0
-462,-230,0,0,0,0,0,0,0,0,0,-1,762,1254,0,0
-455,-230,0,0,0,0,0,0,0,0,0,-1,769,1254,0,0
-448,-230,0,0,0,0,0,0,0,0,0,-1,776,1254,0,0
-441,-230,0,0,0,0,0,0,0,0,0,-1,783,1254,0,0
-434,-230,0,0,0,0,0,0,0,0,0,-1,790,1254,0,0
-427,-230,0,0,0,0,0,0,0,0,0,-1,797,1254,0,0
-420,-230,0,0,0,0,0,0,0,0,0,-1,804,1254,0,0
-413,-230,0,0,0,0,0,0,0,0,0,-1,811,1254,0,0
-406,-230,0,0,0,0,0,0,0,0,0,-1,818,1254,0,0
-399,-230,0,0,0,0,0,0,0,0,0,-1,825,1254,0,0
-392,-230,0,0,0,0,0,0,0,0,0,-1,832,1254,0,0
-385,-230,0,0,0,0,0,0,0,0,0,-1,839,1254,0,0
-378,-230,0,0,0,0,0,0,0,0,0,-1,846,1254,0,0
-371,-230,0,0,0,0,0,0,0,0,0,-1,853,1254,0,0
-364,-230,0,0,0,0,0,0,0,0,0,-1,860,1254,0,0
-357,-230,0,0,0,0,0,0,0,0,0,-1,867,1254,0,0
-350,-230,0,0,0,0,0,0,0,0,0,-1,874,1254,0,0
-343,-230,0,0,0,0,0,0,0,0,0,-1,881,1254,0,0
-336,-230,0,0,0,0,0,0,0,0,0,-1,888,1254,0,0
-329,-230,0,0,0,0,0,0,0,0,0,-1,895,1254,0,0
-322,-230,0,0,0,0,0,0,0,0,0,-1,902,1254,0,0
-315,-230,0,0,0,0,0,0,0,0,0,-1,909,1254,0,0
-308,-230,0,0,0,0,0,0,0,0,0,-1,916,1254,0,0
-301,-230,0,0,0,0,0,0,0,0,0,-1,923,1254,0,0
-294,-230,0,0,0,0,0,0,0,0,0,-1,930,1254,0,0
-287,-230,0,0,0,0,0,0,0,0,0,-1,937,1254,0,0
-280,-230,0,0,0,0,0,0,0,0,0,-1,944,1254,0,0
-273,-230,0,0,0,0,0,0,0,0,0,-1,951,1254,0,0
-266,-230,0,0,0,0,0,0,0,0,0,-1,958,1254,0,0
-259,-230,0,0,0,0,0,0,0,0,0,-1,965,1254,0,0
-252,-230,0,0,0,0,0,0,0,0,0,-1,972,1254,0,0
-245,-230,0,0,0,0,0,0,0,0,0,-1,979,1254,0,0
-238,-230,0,0,0,0,0,0,0,0,0,-1,986,1254,0,0
-231,-230,0,0,0,0,0,0,0,0,0,-1,993,1254,0,0
-224,-230,0,0,0,0,0,0,0,0,0,-1,1000,1254,0,0
-217,-230,0,0,0,0,0,0,0,0,0,-1,1007,1254,0,0
-210,-230,0,0,0,0,0,0,0,0,0,-1,1014,1254,0,0
-203,-230,0,0,0,0,0,0,0,0,0,-1,1021,1254,0,0
-196,-230,0,0,0,0,0,0,0,0,0,-1,1028,1254,0,0
-189,-230,0,0,0,0,0,0,0,0,0,-1,1035,1254,0,0
-182,-230,0,0,0,0,0,0,0,0,0,-1,1042,1254,0,0
-175,-230,0,0,0,0,0,0,0,0,0,-1,1049,1254,0,0
-168,-230,0,0,0,0,0,0,0,0,0,-1,1056,1254,0,0
-161,-230,0,0,0,0,0,0,0,0,0,-1,1063,1254,0,0
-154,-230,0,0,0,0,0,0,0,0,0,-1,1070,1254,0,0
-147,-230,0,0,0,0,0,0,0,0,0,-1,1077,1254,0,0
-140,-230,0,0,0,0,0,0,0,0,0,-1,1084,1254,0,0
-133,-230,0,0,0,0,0,0,0,0,0,-1,1091,1254,0,0
-126,-230,0,0,0,0,0,0,0,0,0,-1,1098,1254,0,0
-119,-230,0,0,0,0,0,0,0,0,0,-1,1105,1254,0,0
-112,-230,0,0,0,0,0,0,0,0,0,-1,1112,1254,0,0
-105,-230,0,0,0,0,0,0,0,0,0,-1,1119,1254,0,0
-98,-230,0,0,0,0,0,0,0,0,0,-1,1126,1254,0,0
-91,-230,0,0,0,0,0,0,0,0,0,-1,1133,1254,0,0
-84,-230,0,0,0,0,0,0,0,0,0,-1,1140,1254,0,0
-77,-230,0,0,0,0,0,0,0,0,0,-1,1147,1254,0,0
-70,-230,0,0,0,0,0,0,0,0,0,-1,1154,1254,0,0
-63,-230,0,0,0,0,0,0,0,0,0,-1,1161,1254,0,0
-56,-230,0,0,0,0,0,0,0,0,0,-1,1168,1254,0,0
-49,-230,0,0,0,0,0,0,0,0,0,-1,1175,1254,0,0
-42,-230,0,0,0,0,0,0,0,0,0,-1,1182,1254,0,0
-35,-230,0,0,0,0,0,0,0,0,0,-1,1189,1254,0,0
-28,-230,0,0,0,0,0,0,0,0,0,-1,1196,1254,0,0
-21,-230,0,0,0,0,0,0,0,0,0,-1,1203,1254,0,0
-14,-230,0,0,0,0,0,0,0,0,0,-1,1210,1254,0,0
-7,-230,0,0,0,0,0,0,0,0,0,-1,1217,1254,0,0
0,-230,0,0,0,0,0,0,0,0,0,-1,1224,1254,0,0
7,-230,0,0,0,0,0,0,0,0,0,-1,1231,1254,0,0
14,-230,0,0,0,0,0,0,0,0,0,-1,1238,1254,0,0
21,-230,0,0,0,0,0,0,0,0,0,-1,1245,1254,0,0
28,-230,0,0,0,0,0,0,0,0,0,-1,1252,1254,0,0
35,-230,0,0,0,0,0,0,0,0,0,-1,1259,1254,0,0
42,-230,0,0,0,0,0,0,0,0,0,-1,1266,1254,0,0
49,-230,0,0,0,0,0,0,0,0,0,-1,1273,1254,0,0
56,-230,0,0,0,0,0,0,0,0,0,-1,1280,1254,0,0
63,-230,0,0,0,0,0,0,0,0,0,-1,1287,1254,0,0
70,-230,0,0,0,0,0,0,0,0,0,-1,1294,1254,0,0
77,-230,0,0,0,0,0,0,0,0,0,-1,1301,1254,0,0
84,-230,0,0,0,0,0,0,0,0,0,-1,1308,1254,0,0
91,-230,0,0,0,0,0,0,0,0,0,-1,1315,1254,0,0
98,-230,0,0,0,0,0,0,0,0,0,-1,1322,1254,0,0
105,-230,0,0,0,0,0,0,0,0,0,-1,1329,1254,0,0
112,-230,0,0,0,0,0,0,0,0,0,-1,1336,1254,0,0
119,-230,0,0,0,0,0,0,0,0,0,-1,1343,1254,0,0
126,-230,0,0,0,0,0,0,0,0,0,-1,1350,1254,0,0
133,-230,0,0,0,0,0,0,0,0,0,-1,1357,1254,0,0
140,-230,0,0,0,0,0,0,0,0,0,-1,1364,1254,0,0
147,-230,0,0,0,0,0,0,0,0,0,-1,1371,1254,0,0
154,-230,0,0,0,0,0,0,0,0,0,-1,1378,1254,0,0
161,-230,0,0,0,0,0,0,0,0,0,-1,1385,1254,0,0
168,-230,0,0,0,0,0,0,0,0,0,-1,1392,1254,0,0
175,-230,0,0,0,0,0,0,0,0,0,-1,1399,1254,0,0
182,-230,0,0,0,0,0,0,0,0,0,-1,1406,1254,0,0
189,-230,0,0,0,0,0,0,0,0,0,-1,1413,1254,0,0
196,-230,0,0,0,0,0,0,0,0,0,-1,1420,1254,0,0
203,-230,0,0,0,0,0,0,0,0,0,-1,1427,1254,0,0
210,-230,0,0,0,0,0,0,0,0,0,-1,1434,1254,0,0
217,-230,0,0,0,0,0,0,0,0,0,-1,1441,1254,0,0
224,-230,0,0,0,0,0,0,0,0,0,-1,1448,1254,0,0
231,-230,0,0,0,0,0,0,0,0,0,-1,1455,1254,0,0
238,-230,0,0,0,0,0,0,0,0,0,-1,1462,1254,0,0
245,-230,0,0,0,0,0,0,0,0,0,-1,1469,1254,0,0
252,-230,0,0,0,0,0,0,0,0,0,-1,1476,1254,0,0
259,-230,0,0,0,0,0,0,0,0,0,-1,1483,1254,0,0
266,-230,0,0,0,0,0,0,0,0,0,-1,1490,1254,0,0
273,-230,0,0,0,0,0,0,0,0,0,-1,1497,1254,0,0
280,-230,0,0,0,0,0,0,0,0,0,-1,1504,1254,0,0
287,-230,0,0,0,0,0,0,0,0,0,-1,1511,1254,0,0
294,-230,0,0,0,0,0,0,0,0,0,-1,1518,1254,0,0
301,-230,0,0,0,0,0,0,0,0,0,-1,1525,1254,0,0
308,-230,0,0,0,0,0,0,0,0,0,-1,1532,1254,0,0
315,-230,0,0,0,0,0,0,0,0,0,-1,1539,1254,0,0
322,-230,0,0,0,0,0,0,0,0,0,-1,1546,1254,0,0
329,-230,0,0,0,0,0,0,0,0,0,-1,1553,1254,0,0
336,-230,0,0,0,0,0,0,0,0,0,-1,1560,1254,0,0
343,-230,0,0,0,0,0,0,0,0,0,-1,1567,1254,0,0
350,-230,0,0,0,0,0,0,0,0,0,-1,1574,1254,0,0
357,-230,0,0,0,0,0,0,0,0,0,-1,1581,1254,0,0
364,-230,0,0,0,0,0,0,0,0,0,-1,1588,1254,0,0
371,-230,0,0,0,0,0,0,0,0,0,-1,1595,1254,0,0
378,-230,0,0,0,0,0,0,0,0,0,-1,1602,1254,0,0
385,-230,0,0,0,0,0,0,0,0,0,-1,1609,1254,0,0
392,-230,0,0,0,0,0,0,0,0,0,-1,1616,1254,0,0
399,-230,0,0,0,0,0,0,0,0,0,-1,1623,1254,0,0
406,-230,0,0,0,0,0,0,0,0,0,-1,1630,1254,0,0
413,-230,0,0,0,0,0,0,0,0,0,-1,1637,1254,0,0
420,-230,0,0,0,0,0,0,0,0,0,-1,1644,1254,0,0
427,-230,0,0,0,0,0,0,0,0,0,-1,1651,1254,0,0
434,-230,0,0,0,0,0,0,0,0,0,-1,1658,1254,0,0
441,-230,0,0,0,0,0,0,0,0,0,-1,1665,1254,0,0
448,-230,0,0,0,0,0,0,0,0,0,-1,1672,1254,0,0
455,-230,0,0,0,0,0,0,0,0,0,-1,1679,1254,0,0
462,-230,0,0,0,0,0,0,0,0,0,-1,1686,1254,0,0
469,-230,0,0,0,0,0,0,0,0,0,-1,1693,1254,0,0
476,-230,0,0,0,0,0,0,0,0,0,-1,1700,1254,0,0
483,-230,0,0,0,0,0,0,0,0,0,-1,1707,1254,0,0
490,-230,0,0,0,0,0,0,0,0,0,-1,1714,1254,0,0
497,-230,0,0,0,0,0,0,0,0,0,-1,1721,1254,0,0
504,-230,0,0,0,0,0,0,0,0,0,-1,1728,1254,0,0
511,-230,0,0,0,0,0,0,0,0,0,-1,1735,1254,0,0
518,-230,0,0,0,0,0,0,0,0,0,-1,1742,1254,0,0
525,-230,0,0,0,0,0,0,0,0,0,-1,1749,1254,0,0
532,-230,0,0,0,0,0,0,0,0,0,-1,1756,1254,0,0
539,-230,0,0,0,0,0,0,0,0,0,-1,1763,1254,0,0
546,-230,0,0,0,0,0,0,0,0,0,-1,1770,1254,0,0
553,-230,0,0,0,0,0,0,0,0,0,-1,1777,1254,0,0
560,-230,0,0,0,0,0,0,0,0,0,-1,1784,1254,0,0
567,-230,0,0,0,0,0,0,0,0,0,-1,1791,1254,0,0
574,-230,0,0,0,0,0,0,0,0,0,-1,1798,1254,0,0
581,-230,0,0,0,0,0,0,0,0,0,-1,1805,1254,0,0
588,-230,0,0,0,0,0,0,0,0,0,-1,1812,1254,0,0
595,-230,0,0,0,0,0,0,0,0,0,-1,1819,1254,0,0
602,-230,0,0,0,0,0,0,0,0,0,-1,1826,1254,0,0
609,-230,0,0,0,0,0,0,0,0,0,-1,1833,1254,0,0
616,-230,22.1239,2.83521,-0.00195435,-0.00032372,-0.000308177,-0.000267421,-0.00201065,-1.3901,0.00126078,0.0353045,1840,1254,22.1239,-2.83521
623,-230,22.1178,3.01831,-0.00177303,0.00323392,-0.000778041,0.00335203,-0.00189115,-1.42014,0.00306607,0.0347411,1847,1254,22.1178,-3.01835
630,-230,22.1149,2.99219,-0.00116317,0.00579191,-0.00156856,0.00612929,-0.00150055,-1.35893,0.00466749,0.0319748,1854,1254,22.1149,-2.99213
637,-230,22.0587,2.84778,-0.000305909,0.00678907,-0.00193205,0.00728108,-0.000797913,-1.32144,0.00514071,0.0265941,1861,1254,22.0587,-2.84773
644,-230,22.0787,2.79773,0.000399951,0.00653432,-0.00199565,0.00712641,-0.000192133,-1.28238,0.00481626,0.0195338,1868,1254,22.0788,-2.79774
651,-230,22.09,2.76978,0.000971807,0.00564578,-0.00186247,0.00629715,0.000320434,-1.23436,0.00409547,0.0351226,1875,1254,22.0899,-2.76973
658,-230,22.0504,2.79712,0.00134688,0.00461318,-0.00164469,0.00529783,0.000662237,-1.17634,0.00333314,0.0458276,1882,1254,22.0504,-2.79718
665,-230,22,2.8147,0,0,0,0,0,0,0,-1,1889,1254,22,-2.81475
672,-230,22.2036,2.78772,0,0,0,0,0,0,0,-1,1896,1254,22.2036,-2.78768
679,-230,18.6361,5.66846,0,0,0,0,0,0,0,-1,1903,1254,18.6361,-5.66842
686,-230,18.6455,5.54529,0.0018917,0.000883844,-0.000759165,0.00229897,0.000476578,-0.492393,0.00140107,0.0481505,1910,1254,18.6454,-5.54534
693,-230,18.6165,5.41675,0.00194827,0.000114564,-0.000440713,0.00204869,1.41431e-05,-0.224036,0.00136111,0.0205909,1917,1254,18.6165,-5.41672
700,-230,18.6783,5.29211,0.00157747,-0.000641801,-0.000192574,0.00159406,-0.000658388,-0.0859177,0.00133733,0.0106232,1924,1254,18.6784,-5.29206
707,-230,18.6829,5.12,0.000839236,-0.00120529,-5.24756e-05,0.000840582,-0.00120664,-0.0256439,0.00118824,0.00931507,1931,1254,18.6828,-5.12002
714,-230,18.7003,4.93774,-0.000236497,-0.00112088,0.000264415,-0.000163472,-0.00119391,0.26946,0.000747431,0.0123883,1938,1254,18.7004,-4.93772
721,-230,18.7131,4.74744,-0.00115435,-0.000877414,0.00092726,-7.8342e-05,-0.00195343,0.859517,0.00127697,0.0128041,1945,1254,18.7132,-4.7474
728,-230,18.6847,4.57471,-0.00193475,-0.000475555,0.00132392,0.000306499,-0.0027168,1.03724,0.00192153,0.0132428,1952,1254,18.6847,-4.57469
735,-230,18.6815,4.42505,-0.00257566,-0.000581737,0.00103801,-0.000139462,-0.00301794,1.16801,0.00196712,0.013402,1959,1254,18.6815,-4.42501
742,-230,18.6538,4.25842,-0.0029635,-0.00107311,0.000372211,-0.00100246,-0.00303415,1.38322,0.00178504,0.0108671,1966,1254,18.6539,-4.2584
749,-230,18.6533,4.07385,-0.00343599,-0.00176076,-0.000290264,-0.00171189,-0.00348486,-1.404,0.00201209,0.010428,1973,1254,18.6533,-4.07384
756,-230,18.6473,3.90735,-0.0035153,-0.00311389,-0.00151169,-0.00178964,-0.00483955,-0.851396,0.00282552,0.0123885,1980,1254,18.6473,-3.90736
763,-230,18.5898,3.74854,-0.00292189,-0.00543008,-0.00370549,-0.000264028,-0.00808794,-0.622227,0.00530614,0.0237944,1987,1254,18.5898,-3.74858
770,-230,18.5729,3.58167,-0.00128042,-0.00915623,-0.00742997,0.00319069,-0.0136273,-0.541718,0.0103143,0.0400095,1994,1254,18.5729,-3.58162
777,-230,18.5262,3.43457,0,0,0,0,0,0,0,-1,2001,1254,18.5263,-3.43451
784,-230,20.1188,5.73706,0,0,0,0,0,0,0,-1,2008,1254,20.1187,-5.73708
791,-230,20.334,4.36169,0,0,0,0,0,0,0,-1,2015,1254,20.334,-4.36173
798,-230,0,0,0,0,0,0,0,0,0,-1,2022,1254,0,0
805,-230,0,0,0,0,0,0,0,0,0,-1,2029,1254,0,0
812,-230,0,0,0,0,0,0,0,0,0,-1,2036,1254,0,0
-700,-237,0,0,0,0,0,0,0,0,0,-1,524,1261,0,0
-693,-237,0,0,0,0,0,0,0,0,0,-1,531,1261,0,0
-686,-237,0,0,0,0,0,0,0,0,0,-1,538,1261,0,0
-679,-237,0,0,0,0,0,0,0,0,0,-1,545,1261,0,0
-672,-237,-11.8849,1.61633,0,0,0,0,0,0,0,-1,552,1261,-11.885,-1.61638
-665,-237,-10.2126,1.62817,0,0,0,0,0,0,0,-1,559,1261,-10.2127,-1.62818
-658,-237,-10.6408,0.603394,0,0,0,0,0,0,0,-1,566,1261,-10.6408,-0.603387
-651,-237,-11.1204,1.15479,0.017545,0.0483745,-0.0186051,0.057121,0.00879848,-1.13134,0.035513,0.046667,573,1261,-11.1204,-1.15474
-644,-237,-10.8032,1.81262,0.0119507,0.0417007,-0.0105059,0.0450366,0.00861479,-1.26333,0.0276046,0.0489257,580,1261,-10.8032,-1.81264
-637,-237,-10.238,0.813965,0,0,0,0,0,0,0,-1,587,1261,-10.238,-0.813988
-630,-237,-10.2502,1.14551,0.00434374,0.0277956,-0.00113377,0.0278503,0.00428906,-1.5226,0.0173151,0.0431333,594,1261,-10.2502,-1.14547
-623,-237,-10.248,1.50073,0.00192005,0.0216149,0.00139444,0.0217131,0.00182181,1.50046,0.013908,0.0261432,601,1261,-10.248,-1.50073
-616,-237,-10.3392,1.74353,0.000256196,0.0161032,0.00288559,0.0166123,-0.000252889,1.39617,0.0111601,0.0130456,608,1261,-10.3392,-1.74353
-609,-237,-10.3587,1.94482,-8.74024e-05,0.0116196,0.00360313,0.0126397,-0.00110747,1.29491,0.00881882,0.0156021,615,1261,-10.3587,-1.94479
-602,-237,-10.3365,2.14331,0.000238613,0.00773215,0.00306631,0.00882692,-0.000856161,1.22787,0.00618977,0.0114231,622,1261,-10.3365,-2.14333
-595,-237,-10.3612,2.32837,0.000895244,0.00385779,0.00220781,0.0050352,-0.000282167,1.08087,0.0034547,0.0146241,629,1261,-10.3612,-2.32833
-588,-237,-10.3557,2.52808,0.00198704,0.00125165,0.00142073,0.00308688,0.000151802,0.658774,0.00200923,0.0253698,636,1261,-10.3557,-2.52812
-581,-237,-10.3398,2.73938,0.00307565,9.79837e-05,0.000540945,0.00317087,2.75683e-06,0.174253,0.002113,0.0236534,643,1261,-10.3399,-2.73944
-574,-237,-10.3544,2.96533,0.00418059,-0.00120719,-0.00023736,0.00419102,-0.00121763,-0.0439418,0.0032762,0.0142854,650,1261,-10.3544,-2.96531
-567,-237,-10.314,3.229,0.00502146,-0.00228617,-0.0010094,0.00515833,-0.00242303,-0.134769,0.00447106,0.0145583,657,1261,-10.314,-3.22898
-560,-237,-10.1091,3.52393,0.00533758,-0.00278834,-0.00171071,0.00568304,-0.0031338,-0.19926,0.00516084,0.0285774,664,1261,-10.109,-3.52387
-553,-237,-9.88727,3.755,0,0,0,0,0,0,0,-1,671,1261,-9.88724,-3.75505
-546,-237,-11.192,1.14014,0,0,0,0,0,0,0,-1,678,1261,-11.192,-1.14011
-539,-237,-13.4818,0.418091,0,0,0,0,0,0,0,-1,685,1261,-13.4818,-0.418099
-532,-237,-13.862,1.20667,0.0046238,-0.00256951,-0.00466747,0.00691961,-0.00486532,-0.457127,0.00683841,0.0489911,692,1261,-13.862,-1.20666
-525,-237,-14.3776,1.49731,0.00396045,-0.00186386,-0.00541497,0.00719667,-0.00510008,-0.538685,0.00713385,0.0454299,699,1261,-14.3776,-1.49726
-518,-237,-14.3108,1.14502,0.00290206,-0.000497801,-0.00601862,0.00745621,-0.00505195,-0.647761,0.00726592,0.0432121,706,1261,-14.3108,-1.14499
-511,-237,-14.3044,0.992065,0.00132936,0.00190899,-0.00621185,0.00783779,-0.00459943,-0.808709,0.00726132,0.0421296,713,1261,-14.3044,-0.992103
-504,-237,-14.3439,1.01929,-0.000229362,0.00632607,-0.00504041,0.00906078,-0.00296406,-1.07369,0.00723387,0.0427131,720,1261,-14.3439,-1.01933
-497,-237,-14.4046,1.08057,-0.00239687,0.0139023,-0.00219175,0.0141919,-0.00268645,-1.43943,0.0104722,0.0460207,727,1261,-14.4046,-1.08057
-490,-237,0,0,0,0,0,0,0,0,0,-1,734,1261,0,0
-483,-237,0,0,0,0,0,0,0,0,0,-1,741,1261,0,0
-476,-237,0,0,0,0,0,0,0,0,0,-1,748,1261,0,0
-469,-237,0,0,0,0,0,0,0,0,0,-1,755,1261,0,0
-462,-237,0,0,0,0,0,0,0,0,0,-1,762,1261,0,0
-455,-237,0,0,0,0,0,0,0,0,0,-1,769,1261,0,0
-448,-237,0,0,0,0,0,0,0,0,0,-1,776,1261,0,0
-441,-237,0,0,0,0,0,0,0,0,0,-1,783,1261,0,0
-434,-237,0,0,0,0,0,0,0,0,0,-1,790,1261,0,0
-427,-237,0,0,0,0,0,0,0,0,0,-1,797,1261,0,0
-420,-237,0,0,0,0,0,0,0,0,0,-1,804,1261,0,0
-413,-237,0,0,0,0,0,0,0,0,0,-1,811,1261,0,0
-406,-237,0,0,0,0,0,0,0,0,0,-1,818,1261,0,0
-399,-237,0,0,0,0,0,0,0,0,0,-1,825,1261,0,0
-392,-237,0,0,0,0,0,0,0,0,0,-1,832,1261,0,0
-385,-237,0,0,0,0,0,0,0,0,0,-1,839,1261,0,0
-378,-237,0,0,0,0,0,0,0,0,0,-1,846,1261,0,0
-371,-237,0,0,0,0,0,0,0,0,0,-1,853,1261,0,0
-364,-237,0,0,0,0,0,0,0,0,0,-1,860,1261,0,0
-357,-237,0,0,0,0,0,0,0,0,0,-1,867,1261,0,0
-350,-237,0,0,0,0,0,0,0,0,0,-1,874,1261,0,0
-343,-237,0,0,0,0,0,0,0,0,0,-1,881,1261,0,0
-336,-237,0,0,0,0,0,0,0,0,0,-1,888,1261,0,0
-329,-237,0,0,0,0,0,0,0,0,0,-1,895,1261,0,0
-322,-237,0,0,0,0,0,0,0,0,0,-1,902,1261,0,0
-315,-237,0,0,0,0,0,0,0,0,0,-1,909,1261,0,0
-308,-237,0,0,0,0,0,0,0,0,0,-1,916,1261,0,0
-301,-237,0,0,0,0,0,0,0,0,0,-1,923,1261,0,0
-294,-237,0,0,0,0,0,0,0,0,0,-1,930,1261,0,0
-287,-237,0,0,0,0,0,0,0,0,0,-1,937,1261,0,0
-280,-237,0,0,0,0,0,0,0,0,0,-1,944,1261,0,0
-273,-237,0,0,0,0,0,0,0,0,0,-1,951,1261,0,0
-266,-237,0,0,0,0,0,0,0,0,0,-1,958,1261,0,0
-259,-237,0,0,0,0,0,0,0,0,0,-1,965,1261,0,0
-252,-237,0,0,0,0,0,0,0,0,0,-1,972,1261,0,0
-245,-237,0,0,0,0,0,0,0,0,0,-1,979,1261,0,0
-238,-237,0,0,0,0,0,0,0,0,0,-1,986,1261,0,0
-231,-237,0,0,0,0,0,0,0,0,0,-1,993,1261,0,0
-224,-237,0,0,0,0,0,0,0,0,0,-1,1000,1261,0,0
-217,-237,0,0,0,0,0,0,0,0,0,-1,1007,1261,0,0
-210,-237,0,0,0,0,0,0,0,0,0,-1,1014,1261,0,0
-203,-237,0,0,0,0,0,0,0,0,0,-1,1021,1261,0,0
-196,-237,0,0,0,0,0,0,0,0,0,-1,1028,1261,0,0
-189,-237,0,0,0,0,0,0,0,0,0,-1,1035,1261,0,0
-182,-237,0,0,0,0,0,0,0,0,0,-1,1042,1261,0,0
-175,-237,0,0,0,0,0,0,0,0,0,-1,1049,1261,0,0
-168,-237,0,0,0,0,0,0,0,0,0,-1,1056,1261,0,0
-161,-237,0,0,0,0,0,0,0,0,0,-1,1063,1261,0,0
-154,-237,0,0,0,0,0,0,0,0,0,-1,1070,1261,0,0
-147,-237,0,0,0,0,0,0,0,0,0,-1,1077,1261,0,0
-140,-237,0,0,0,0,0,0,0,0,0,-1,1084,1261,0,0
-133,-237,0,0,0,0,0,0,0,0,0,-1,1091,1261,0,0
-126,-237,0,0,0,0,0,0,0,0,0,-1,1098,1261,0,0
-119,-237,0,0,0,0,0,0,0,0,0,-1,1105,1261,0,0
-112,-237,0,0,0,0,0,0,0,0,0,-1,1112,1261,0,0
-105,-237,0,0,0,0,0,0,0,0,0,-1,1119,1261,0,0
-98,-237,0,0,0,0,0,0,0,0,0,-1,1126,1261,0,0
-91,-237,0,0,0,0,0,0,0,0,0,-1,1133,1261,0,0
-84,-237,0,0,0,0,0,0,0,0,0,-1,1140,1261,0,0
-77,-237,0,0,0,0,0,0,0,0,0,-1,1147,1261,0,0
-70,-237,0,0,0,0,0,0,0,0,0,-1,1154,1261,0,0
-63,-237,0,0,0,0,0,0,0,0,0,-1,1161,1261,0,0
-56,-237,0,0,0,0,0,0,0,0,0,-1,1168,1261,0,0
-49,-237,0,0,0,0,0,0,0,0,0,-1,1175,1261,0,0
-42,-237,0,0,0,0,0,0,0,0,0,-1,1182,1261,0,0
-35,-237,0,0,0,0,0,0,0,0,0,-1,1189,1261,0,0
-28,-237,0,0,0,0,0,0,0,0,0,-1,1196,1261,0,0
-21,-237,0,0,0,0,0,0,0,0,0,-1,1203,1261,0,0
-14,-237,0,0,0,0,0,0,0,0,0,-1,1210,1261,0,0
-7,-237,0,0,0,0,0,0,0,0,0,-1,1217,1261,0,0
0,-237,0,0,0,0,0,0,0,0,0,-1,1224,1261,0,0
7,-237,0,0,0,0,0,0,0,0,0,-1,1231,1261,0,0
14,-237,0,0,0,0,0,0,0,0,0,-1,1238,1261,0,0
21,-237,0,0,0,0,0,0,0,0,0,-1,1245,1261,0,0
28,-237,0,0,0,0,0,0,0,0,0,-1,1252,1261,0,0
35,-237,0,0,0,0,0,0,0,0,0,-1,1259,1261,0,0
42,-237,0,0,0,0,0,0,0,0,0,-1,1266,1261,0,0
49,-237,0,0,0,0,0,0,0,0,0,-1,1273,1261,0,0
56,-237,0,0,0,0,0,0,0,0,0,-1,1280,1261,0,0
63,-237,0,0,0,0,0,0,0,0,0,-1,1287,1261,0,0
70,-237,0,0,0,0,0,0,0,0,0,-1,1294,1261,0,0
77,-237,0,0,0,0,0,0,0,0,0,-1,1301,1261,0,0
84,-237,0,0,0,0,0,0,0,0,0,-1,1308,1261,0,0
91,-237,0,0,0,0,0,0,0,0,0,-1,1315,1261,0,0
98,-237,0,0,0,0,0,0,0,0,0,-1,1322,1261,0,0
105,-237,0,0,0,0,0,0,0,0,0,-1,1329,1261,0,0
112,-237,0,0,0,0,0,0,0,0,0,-1,1336,1261,0,0
119,-237,0,0,0,0,0,0,0,0,0,-1,1343,1261,0,0
126,-237,0,0,0,0,0,0,0,0,0,-1,1350,1261,0,0
133,-237,0,0,0,0,0,0,0,0,0,-1,1357,1261,0,0
140,-237,0,0,0,0,0,0,0,0,0,-1,1364,1261,0,0
147,-237,0,0,0,0,0,0,0,0,0,-1,1371,1261,0,0
154,-237,0,0,0,0,0,0,0,0,0,-1,1378,1261,0,0
161,-237,0,0,0,0,0,0,0,0,0,-1,1385,1261,0,0
168,-237,0,0,0,0,0,0,0,0,0,-1,1392,1261,0,0
175,-237,0,0,0,0,0,0,0,0,0,-1,1399,1261,0,0
182,-237,0,0,0,0,0,0,0,0,0,-1,1406,1261,0,0
189,-237,0,0,0,0,0,0,0,0,0,-1,1413,1261,0,0
196,-237,0,0,0,0,0,0,0,0,0,-1,1420,1261,0,0
203,-237,0,0,0,0,0,0,0,0,0,-1,1427,1261,0,0
210,-237,0,0,0,0,0,0,0,0,0,-1,1434,1261,0,0
217,-237,0,0,0,0,0,0,0,0,0,-1,1441,1261,0,0
224,-237,0,0,0,0,0,0,0,0,0,-1,1448,1261,0,0
231,-237,0,0,0,0,0,0,0,0,0,-1,1455,1261,0,0
238,-237,0,0,0,0,0,0,0,0,0,-1,1462,1261,0,0
245,-237,0,0,0,0,0,0,0,0,0,-1,1469,1261,0,0
252,-237,0,0,0,0,0,0,0,0,0,-1,1476,1261,0,0
259,-237,0,0,0,0,0,0,0,0,0,-1,1483,1261,0,0
266,-237,0,0,0,0,0,0,0,0,0,-1,1490,1261,0,0
273,-237,0,0,0,0,0,0,0,0,0,-1,1497,1261,0,0
280,-237,0,0,0,0,0,0,0,0,0,-1,1504,1261,0,0
287,-237,0,0,0,0,0,0,0,0,0,-1,1511,1261,0,0
294,-237,0,0,0,0,0,0,0,0,0,-1,1518,1261,0,0
301,-237,0,0,0,0,0,0,0,0,0,-1,1525,1261,0,0
308,-237,0,0,0,0,0,0,0,0,0,-1,1532,1261,0,0
315,-237,0,0,0,0,0,0,0,0,0,-1,1539,1261,0,0
322,-237,0,0,0,0,0,0,0,0,0,-1,1546,1261,0,0
329,-237,0,0,0,0,0,0,0,0,0,-1,1553,1261,0,0
336,-237,0,0,0,0,0,0,0,0,0,-1,1560,1261,0,0
343,-237,0,0,0,0,0,0,0,0,0,-1,1567,1261,0,0
350,-237,0,0,0,0,0,0,0,0,0,-1,1574,1261,0,0
357,-237,0,0,0,0,0,0,0,0,0,-1,1581,1261,0,0
364,-237,0,0,0,0,0,0,0,0,0,-1,1588,1261,0,0
371,-237,0,0,0,0,0,0,0,0,0,-1,1595,1261,0,0
378,-237,0,0,0,0,0,0,0,0,0,-1,1602,1261,0,0
385,-237,0,0,0,0,0,0,0,0,0,-1,1609,1261,0,0
392,-237,0,0,0,0,0,0,0,0,0,-1,1616,1261,0,0
399,-237,0,0,0,0,0,0,0,0,0,-1,1623,1261,0,0
406,-237,0,0,0,0,0,0,0,0,0,-1,1630,1261,0,0
413,-237,0,0,0,0,0,0,0,0,0,-1,1637,1261,0,0
420,-237,0,0,0,0,0,0,0,0,0,-1,1644,1261,0,0
427,-237,0,0,0,0,0,0,0,0,0,-1,1651,1261,0,0
434,-237,0,0,0,0,0,0,0,0,0,-1,1658,1261,0,0
441,-237,0,0,0,0,0,0,0,0,0,-1,1665,1261,0,0
448,-237,0,0,0,0,0,0,0,0,0,-1,1672,1261,0,0
455,-237,0,0,0,0,0,0,0,0,0,-1,1679,1261,0,0
462,-237,0,0,0,0,0,0,0,0,0,-1,1686,1261,0,0
469,-237,0,0,0,0,0,0,0,0,0,-1,1693,1261,0,0
476,-237,0,0,0,0,0,0,0,0,0,-1,1700,1261,0,0
483,-237,0,0,0,0,0,0,0,0,0,-1,1707,1261,0,0
490,-237,0,0,0,0,0,0,0,0,0,-1,1714,1261,0,0
497,-237,0,0,0,0,0,0,0,0,0,-1,1721,1261,0,0
504,-237,0,0,0,0,0,0,0,0,0,-1,1728,1261,0,0
511,-237,0,0,0,0,0,0,0,0,0,-1,1735,1261,0,0
518,-237,0,0,0,0,0,0,0,0,0,-1,1742,1261,0,0
525,-237,0,0,0,0,0,0,0,0,0,-1,1749,1261,0,0
532,-237,0,0,0,0,0,0,0,0,0,-1,1756,1261,0,0
539,-237,0,0,0,0,0,0,0,0,0,-1,1763,1261,0,0
546,-237,0,0,0,0,0,0,0,0,0,-1,1770,1261,0,0
553,-237,0,0,0,0,0,0,0,0,0,-1,1777,1261,0,0
560,-237,0,0,0,0,0,0,0,0,0,-1,1784,1261,0,0
567,-237,0,0,0,0,0,0,0,0,0,-1,1791,1261,0,0
574,-237,0,0,0,0,0,0,0,0,0,-1,1798,1261,0,0
581,-237,0,0,0,0,0,0,0,0,0,-1,1805,1261,0,0
588,-237,0,0,0,0,0,0,0,0,0,-1,1812,1261,0,0
595,-237,0,0,0,0,0,0,0,0,0,-1,1819,1261,0,0
602,-237,0,0,0,0,0,0,0,0,0,-1,1826,1261,0,0
609,-237,0,0,0,0,0,0,0,0,0,-1,1833,1261,0,0
616,-237,22.17,2.70654,-0.00139284,0.00151535,-0.00183405,0.00240179,-0.00227929,-1.12058,0.00270293,0.0363053,1840,1261,22.1701,-2.70655
623,-237,22.2079,2.85168,-0.00158164,0.00564459,-0.00208141,0.00620122,-0.00213828,-1.30948,0.00500166,0.0311932,1847,1261,22.2079,-2.85164
630,-237,22.1511,2.85413,-0.00150658,0.00812251,-0.00233475,0.00865875,-0.00204282,-1.34503,0.00656033,0.0252899,1854,1261,22.1511,-2.85408
637,-237,22.0729,2.78894,-0.00122803,0.00859336,-0.00216299,0.00904862,-0.00168328,-1.36335,0.00666474,0.019585,1861,1261,22.0729,-2.78898
644,-237,21.9512,2.67505,-0.00085702,0.00784745,-0.00185714,0.00822712,-0.00123669,-1.36914,0.00594005,0.0358571,1868,1261,21.9511,-2.67505
651,-237,22.093,2.61853,-0.000465943,0.00664239,-0.00150928,0.00694957,-0.000773127,-1.37001,0.00491108,0.0454783,1875,1261,22.093,-2.61857
658,-237,22.1768,2.70886,-0.000141798,0.0053966,-0.00114952,0.00562571,-0.000370907,-1.37407,0.00388002,0.0462894,1882,1261,22.1768,-2.70891
665,-237,22.136,2.72119,0,0,0,0,0,0,0,-1,1889,1261,22.1359,-2.72124
672,-237,22.9266,4.46301,0,0,0,0,0,0,0,-1,1896,1261,22.9266,-4.46306
679,-237,19.0704,5.98096,0,0,0,0,0,0,0,-1,1903,1261,19.0704,-5.98093
686,-237,18.7843,5.68823,0.00091859,0.000938525,-0.000319381,0.00124809,0.000609022,-0.800997,0.000720657,0.0344569,1910,1261,18.7844,-5.6882
693,-237,18.4758,5.453,0.00119011,7.78073e-05,-5.22853e-05,0.00119256,7.53551e-05,-0.0468685,0.000771153,0.0186851,1917,1261,18.4758,-5.45301
700,-237,18.4989,5.2948,0.000966487,-0.000724479,0.000106971,0.000973227,-0.000731219,0.0629257,0.000987363,0.0101843,1924,1261,18.4988,-5.2948
707,-237,18.506,5.11877,0.000293896,-0.00128893,0.000117051,0.000302505,-0.00129754,0.0734186,0.000981524,0.00890941,1931,1261,18.5059,-5.11879
714,-237,18.489,4.95288,-0.000760881,-0.00115204,0.000300314,-0.000598075,-0.00131484,0.496773,0.000760155,0.0125744,1938,1261,18.489,-4.95292
721,-237,18.4922,4.7666,-0.00172213,-0.000867787,0.000875204,-0.000321072,-0.00226885,1.01243,0.00141771,0.0150047,1945,1261,18.4922,-4.76659
728,-237,18.5177,4.57458,-0.00274526,-0.000455637,0.00118946,5.04322e-05,-0.00325133,1.16853,0.00218456,0.014226,1952,1261,18.5176,-4.57456
735,-237,18.509,4.38391,-0.00377002,-0.000563687,0.000902219,-0.00032725,-0.00400646,1.3145,0.00256885,0.0185104,1959,1261,18.5091,-4.38389
742,-237,18.5087,4.24695,-0.00474645,-0.00109055,0.000272797,-0.00107031,-0.0047667,1.49672,0.00288792,0.0142728,1966,1261,18.5087,-4.2469
749,-237,18.4972,4.08618,-0.00599738,-0.00179419,-0.000339891,-0.00176688,-0.00602468,-1.49063,0.00357608,0.009508,1973,1261,18.4971,-4.08613
756,-237,18.4669,3.89636,-0.00706534,-0.00313205,-0.0015021,-0.00262403,-0.00757337,-1.24466,0.00444066,0.0132892,1980,1261,18.4669,-3.89642
763,-237,18.4313,3.71057,-0.00765534,-0.00538152,-0.00363087,-0.00271372,-0.0103231,-0.937125,0.00617944,0.0277213,1987,1261,18.4313,-3.71052
770,-237,18.5952,3.46558,-0.00735501,-0.00898321,-0.00728843,-0.00083536,-0.0155029,-0.72978,0.0100683,0.0413457,1994,1261,18.5953,-3.46555
777,-237,18.6787,3.20801,0,0,0,0,0,0,0,-1,2001,1261,18.6787,-3.20796
784,-237,20.797,2.92993,0,0,0,0,0,0,0,-1,2008,1261,20.797,-2.92999
791,-237,20.4677,2.75208,0,0,0,0,0,0,0,-1,2015,1261,20.4677,-2.75212
798,-237,0,0,0,0,0,0,0,0,0,-1,2022,1261,0,0
805,-237,0,0,0,0,0,0,0,0,0,-1,2029,1261,0,0
812,-237,0,0,0,0,0,0,0,0,0,-1,2036,1261,0,0
-700,-244,0,0,0,0,0,0,0,0,0,-1,524,1268,0,0
-693,-244,0,0,0,0,0,0,0,0,0,-1,531,1268,0,0
-686,-244,0,0,0,0,0,0,0,0,0,-1,538,1268,0,0
-679,-244,0,0,0,0,0,0,0,0,0,-1,545,1268,0,0
-672,-244,-10.7446,2.24573,0,0,0,0,0,0,0,-1,552,1268,-10.7446,-2.24576
-665,-244,-10.4579,-1.21191,0,0,0,0,0,0,0,-1,559,1268,-10.4579,1.21191
-658,-244,-10.7715,-0.417358,0,0,0,0,0,0,0,-1,566,1268,-10.7715,0.417325
-651,-244,-10.6626,0.289795,0.0178429,0.0566657,-0.015888,0.0623388,0.0121698,-1.22784,0.0381551,0.0468322,573,1268,-10.6626,-0.289782
-644,-244,-10.2823,0.855835,0.0124214,0.0483817,-0.00780442,0.0500025,0.0108006,-1.36604,0.0303816,0.0467311,580,1268,-10.2823,-0.855892
-637,-244,-9.90344,0.873413,0,0,0,0,0,0,0,-1,587,1268,-9.90346,-0.873427
-630,-244,-10.082,1.09253,0,0,0,0,0,0,0,-1,594,1268,-10.082,-1.09257
-623,-244,-10.0851,1.41016,0.00222026,0.024665,0.00338123,0.0251633,0.00172195,1.42447,0.016232,0.0308721,601,1268,-10.0851,-1.41021
-616,-244,-10.1479,1.76196,0.000479725,0.0183748,0.00451254,0.0194483,-0.000593786,1.33724,0.0131679,0.0165742,608,1268,-10.1479,-1.76191
-609,-244,-10.1285,1.94043,5.09562e-05,0.0132588,0.00494282,0.0149037,-0.00159395,1.24954,0.0105075,0.0145973,615,1268,-10.1285,-1.94042
-602,-244,-10.1164,2.12671,0.000236128,0.00899046,0.00410918,0.010617,-0.00139045,1.19388,0.00758412,0.014674,622,1268,-10.1164,-2.12676
-595,-244,-10.1299,2.34558,0.000769227,0.00468772,0.00302628,0.00633361,-0.000876663,1.07267,0.00454291,0.0153971,629,1268,-10.13,-2.34556
-588,-244,-10.1241,2.57898,0.00179351,0.00175349,0.0020415,0.0038151,-0.000268097,0.780497,0.00263731,0.0203274,636,1268,-10.1241,-2.57902
-581,-244,-10.1135,2.77014,0.00291283,0.000387923,0.00101062,0.00326751,3.32393e-05,0.337528,0.00216735,0.0183189,643,1268,-10.1135,-2.77011
-574,-244,-10.1503,2.98315,0.00404931,-0.00102856,0.000122405,0.00405226,-0.00103151,0.024087,0.00310303,0.0128988,650,1268,-10.1503,-2.9831
-567,-244,-10.1468,3.19641,0.00494071,-0.00227661,-0.000735949,0.00501499,-0.00235089,-0.10059,0.00434442,0.00962937,657,1268,-10.1468,-3.1964
-560,-244,-10.0835,3.43445,0.00526863,-0.00283266,-0.00156116,0.00555906,-0.00312309,-0.183933,0.00507799,0.017039,664,1268,-10.0835,-3.4345
-553,-244,-9.85095,3.72534,0.00540703,-0.00292052,-0.00230849,0.00600415,-0.00351764,-0.253116,0.00555954,0.0457367,671,1268,-9.85096,-3.72536
-546,-244,-9.51721,3.9939,0,0,0,0,0,0,0,-1,678,1268,-9.51719,-3.99386
-539,-244,-11.3214,0.720459,0,0,0,0,0,0,0,-1,685,1268,-11.3214,-0.720417
-532,-244,-14.6893,2.07544,0,0,0,0,0,0,0,-1,692,1268,-14.6893,-2.07541
-525,-244,-14.5427,1.70142,0.00423923,-0.00149486,-0.00560158,0.00766485,-0.00492048,-0.548865,0.0073235,0.0471411,699,1268,-14.5427,-1.70136
-518,-244,-14.2543,1.18347,0.0035182,-3.61452e-05,-0.00632882,0.00831463,-0.00483258,-0.64852,0.00767877,0.0437709,706,1268,-14.2543,-1.18347
-511,-244,-14.184,0.948364,0.00246971,0.00237124,-0.00677095,0.00919161,-0.00435066,-0.781763,0.00798341,0.0460626,713,1268,-14.184,-0.948316
-504,-244,-14.1479,0.855591,0.00145632,0.00651827,-0.00620604,0.0106896,-0.002715,-0.979015,0.00818293,0.047784,720,1268,-14.1479,-0.855583
-497,-244,-14.2327,0.887939,-0.000242802,0.0135949,-0.00435226,0.01485,-0.00149785,-1.29005,0.0104352,0.0493795,727,1268,-14.2327,-0.887911
-490,-244,0,0,0,0,0,0,0,0,0,-1,734,1268,0,0
-483,-244,0,0,0,0,0,0,0,0,0,-1,741,1268,0,0
-476,-244,0,0,0,0,0,0,0,0,0,-1,748,1268,0,0
-469,-244,0,0,0,0,0,0,0,0,0,-1,755,1268,0,0
-462,-244,0,0,0,0,0,0,0,0,0,-1,762,1268,0,0
-455,-244,0,0,0,0,0,0,0,0,0,-1,769,1268,0,0
-448,-244,0,0,0,0,0,0,0,0,0,-1,776,1268,0,0
-441,-244,0,0,0,0,0,0,0,0,0,-1,783,1268,0,0
-434,-244,0,0,0,0,0,0,0,0,0,-1,790,1268,0,0
-427,-244,0,0,0,0,0,0,0,0,0,-1,797,1268,0,0
-420,-244,0,0,0,0,0,0,0,0,0,-1,804,1268,0,0
-413,-244,0,0,0,0,0,0,0,0,0,-1,811,1268,0,0
-406,-244,0,0,0,0,0,0,0,0,0,-1,818,1268,0,0
-399,-244,0,0,0,0,0,0,0,0,0,-1,825,1268,0,0
-392,-244,0,0,0,0,0,0,0,0,0,-1,832,1268,0,0
-385,-244,0,0,0,0,0,0,0,0,0,-1,839,1268,0,0
-378,-244,0,0,0,0,0,0,0,0,0,-1,846,1268,0,0
-371,-244,0,0,0,0,0,0,0,0,0,-1,853,1268,0,0
-364,-244,0,0,0,0,0,0,0,0,0,-1,860,1268,0,0
-357,-244,0,0,0,0,0,0,0,0,0,-1,867,1268,0,0
-350,-244,0,0,0,0,0,0,0,0,0,-1,874,1268,0,0
-343,-244,0,0,0,0,0,0,0,0,0,-1,881,1268,0,0
-336,-244,0,0,0,0,0,0,0,0,0,-1,888,1268,0,0
-329,-244,0,0,0,0,0,0,0,0,0,-1,895,1268,0,0
-322,-244,0,0,0,0,0,0,0,0,0,-1,902,1268,0,0
-315,-244,0,0,0,0,0,0,0,0,0,-1,909,1268,0,0
-308,-244,0,0,0,0,0,0,0,0,0,-1,916,1268,0,0
-301,-244,0,0,0,0,0,0,0,0,0,-1,923,1268,0,0
-294,-244,0,0,0,0,0,0,0,0,0,-1,930,1268,0,0
-287,-244,0,0,0,0,0,0,0,0,0,-1,937,1268,0,0
-280,-244,0,0,0,0,0,0,0,0,0,-1,944,1268,0,0
-273,-244,0,0,0,0,0,0,0,0,0,-1,951,1268,0,0
-266,-244,0,0,0,0,0,0,0,0,0,-1,958,1268,0,0
-259,-244,0,0,0,0,0,0,0,0,0,-1,965,1268,0,0
-252,-244,0,0,0,0,0,0,0,0,0,-1,972,1268,0,0
-245,-244,0,0,0,0,0,0,0,0,0,-1,979,1268,0,0
-238,-244,0,0,0,0,0,0,0,0,0,-1,986,1268,0,0
-231,-244,0,0,0,0,0,0,0,0,0,-1,993,1268,0,0
-224,-244,0,0,0,0,0,0,0,0,0,-1,1000,1268,0,0
-217,-244,0,0,0,0,0,0,0,0,0,-1,1007,1268,0,0
-210,-244,0,0,0,0,0,0,0,0,0,-1,1014,1268,0,0
-203,-244,0,0,0,0,0,0,0,0,0,-1,1021,1268,0,0
-196,-244,0,0,0,0,0,0,0,0,0,-1,1028,1268,0,0
-189,-244,0,0,0,0,0,0,0,0,0,-1,1035,1268,0,0
-182,-244,0,0,0,0,0,0,0,0,0,-1,1042,1268,0,0
-175,-244,0,0,0,0,0,0,0,0,0,-1,1049,1268,0,0
-168,-244,0,0,0,0,0,0,0,0,0,-1,1056,1268,0,0
-161,-244,0,0,0,0,0,0,0,0,0,-1,1063,1268,0,0
-154,-244,0,0,0,0,0,0,0,0,0,-1,1070,1268,0,0
-147,-244,0,0,0,0,0,0,0,0,0,-1,1077,1268,0,0
-140,-244,0,0,0,0,0,0,0,0,0,-1,1084,1268,0,0
-133,-244,0,0,0,0,0,0,0,0,0,-1,1091,1268,0,0
-126,-244,0,0,0,0,0,0,0,0,0,-1,1098,1268,0,0
-119,-244,0,0,0,0,0,0,0,0,0,-1,1105,1268,0,0
-112,-244,0,0,0,0,0,0,0,0,0,-1,1112,1268,0,0
-105,-244,0,0,0,0,0,0,0,0,0,-1,1119,1268,0,0
-98,-244,0,0,0,0,0,0,0,0,0,-1,1126,1268,0,0
-91,-244,0,0,0,0,0,0,0,0,0,-1,1133,1268,0,0
-84,-244,0,0,0,0,0,0,0,0,0,-1,1140,1268,0,0
-77,-244,0,0,0,0,0,0,0,0,0,-1,1147,1268,0,0
-70,-244,0,0,0,0,0,0,0,0,0,-1,1154,1268,0,0
-63,-244,0,0,0,0,0,0,0,0,0,-1,1161,1268,0,0
-56,-244,0,0,0,0,0,0,0,0,0,-1,1168,1268,0,0
-49,-244,0,0,0,0,0,0,0,0,0,-1,1175,1268,0,0
-42,-244,0,0,0,0,0,0,0,0,0,-1,1182,1268,0,0
-35,-244,0,0,0,0,0,0,0,0,0,-1,1189,1268,0,0
-28,-244,0,0,0,0,0,0,0,0,0,-1,1196,1268,0,0
-21,-244,0,0,0,0,0,0,0,0,0,-1,1203,1268,0,0
-14,-244,0,0,0,0,0,0,0,0,0,-1,1210,1268,0,0
-7,-244,0,0,0,0,0,0,0,0,0,-1,1217,1268,0,0
0,-244,0,0,0,0,0,0,0,0,0,-1,1224,1268,0,0
7,-244,0,0,0,0,0,0,0,0,0,-1,1231,1268,0,0
14,-244,0,0,0,0,0,0,0,0,0,-1,1238,1268,0,0
21,-244,0,0,0,0,0,0,0,0,0,-1,1245,1268,0,0
28,-244,0,0,0,0,0,0,0,0,0,-1,1252,1268,0,0
35,-244,0,0,0,0,0,0,0,0,0,-1,1259,1268,0,0
42,-244,0,0,0,0,0,0,0,0,0,-1,1266,1268,0,0
49,-244,0,0,0,0,0,0,0,0,0,-1,1273,1268,0,0
56,-244,0,0,0,0,0,0,0,0,0,-1,1280,1268,0,0
63,-244,0,0,0,0,0,0,0,0,0,-1,1287,1268,0,0
70,-244,0,0,0,0,0,0,0,0,0,-1,1294,1268,0,0
77,-244,0,0,0,0,0,0,0,0,0,-1,1301,1268,0,0
84,-244,0,0,0,0,0,0,0,0,0,-1,1308,1268,0,0
91,-244,0,0,0,0,0,0,0,0,0,-1,1315,1268,0,0
98,-244,0,0,0,0,0,0,0,0,0,-1,1322,1268,0,0
105,-244,0,0,0,0,0,0,0,0,0,-1,1329,1268,0,0
112,-244,0,0,0,0,0,0,0,0,0,-1,1336,1268,0,0
119,-244,0,0,0,0,0,0,0,0,0,-1,1343,1268,0,0
126,-244,0,0,0,0,0,0,0,0,0,-1,1350,1268,0,0
133,-244,0,0,0,0,0,0,0,0,0,-1,1357,1268,0,0
140,-244,0,0,0,0,0,0,0,0,0,-1,1364,1268,0,0
147,-244,0,0,0,0,0,0,0,0,0,-1,1371,1268,0,0
154,-244,0,0,0,0,0,0,0,0,0,-1,1378,1268,0,0
161,-244,0,0,0,0,0,0,0,0,0,-1,1385,1268,0,0
168,-244,0,0,0,0,0,0,0,0,0,-1,1392,1268,0,0
175,-244,0,0,0,0,0,0,0,0,0,-1,1399,1268,0,0
182,-244,0,0,0,0,0,0,0,0,0,-1,1406,1268,0,0
189,-244,0,0,0,0,0,0,0,0,0,-1,1413,1268,0,0
196,-244,0,0,0,0,0,0,0,0,0,-1,1420,1268,0,0
203,-244,0,0,0,0,0,0,0,0,0,-1,1427,1268,0,0
210,-244,0,0,0,0,0,0,0,0,0,-1,1434,1268,0,0
217,-244,0,0,0,0,0,0,0,0,0,-1,1441,1268,0,0
224,-244,0,0,0,0,0,0,0,0,0,-1,1448,1268,0,0
231,-244,0,0,0,0,0,0,0,0,0,-1,1455,1268,0,0
238,-244,0,0,0,0,0,0,0,0,0,-1,1462,1268,0,0
245,-244,0,0,0,0,0,0,0,0,0,-1,1469,1268,0,0
252,-244,0,0,0,0,0,0,0,0,0,-1,1476,1268,0,0
259,-244,0,0,0,0,0,0,0,0,0,-1,1483,1268,0,0
266,-244,0,0,0,0,0,0,0,0,0,-1,1490,1268,0,0
273,-244,0,0,0,0,0,0,0,0,0,-1,1497,1268,0,0
280,-244,0,0,0,0,0,0,0,0,0,-1,1504,1268,0,0
287,-244,0,0,0,0,0,0,0,0,0,-1,1511,1268,0,0
294,-244,0,0,0,0,0,0,0,0,0,-1,1518,1268,0,0
301,-244,0,0,0,0,0,0,0,0,0,-1,1525,1268,0,0
308,-244,0,0,0,0,0,0,0,0,0,-1,1532,1268,0,0
315,-244,0,0,0,0,0,0,0,0,0,-1,1539,1268,0,0
322,-244,0,0,0,0,0,0,0,0,0,-1,1546,1268,0,0
329,-244,0,0,0,0,0,0,0,0,0,-1,1553,1268,0,0
336,-244,0,0,0,0,0,0,0,0,0,-1,1560,1268,0,0
343,-244,0,0,0,0,0,0,0,0,0,-1,1567,1268,0,0
350,-244,0,0,0,0,0,0,0,0,0,-1,1574,1268,0,0
357,-244,0,0,0,0,0,0,0,0,0,-1,1581,1268,0,0
364,-244,0,0,0,0,0,0,0,0,0,-1,1588,1268,0,0
371,-244,0,0,0,0,0,0,0,0,0,-1,1595,1268,0,0
378,-244,0,0,0,0,0,0,0,0,0,-1,1602,1268,0,0
385,-244,0,0,0,0,0,0,0,0,0,-1,1609,1268,0,0
392,-244,0,0,0,0,0,0,0,0,0,-1,1616,1268,0,0
399,-244,0,0,0,0,0,0,0,0,0,-1,1623,1268,0,0
406,-244,0,0,0,0,0,0,0,0,0,-1,1630,1268,0,0
413,-244,0,0,0,0,0,0,0,0,0,-1,1637,1268,0,0
420,-244,0,0,0,0,0,0,0,0,0,-1,1644,1268,0,0
427,-244,0,0,0,0,0,0,0,0,0,-1,1651,1268,0,0
434,-244,0,0,0,0,0,0,0,0,0,-1,1658,1268,0,0
441,-244,0,0,0,0,0,0,0,0,0,-1,1665,1268,0,0
448,-244,0,0,0,0,0,0,0,0,0,-1,1672,1268,0,0
455,-244,0,0,0,0,0,0,0,0,0,-1,1679,1268,0,0
462,-244,0,0,0,0,0,0,0,0,0,-1,1686,1268,0,0
469,-244,0,0,0,0,0,0,0,0,0,-1,1693,1268,0,0
476,-244,0,0,0,0,0,0,0,0,0,-1,1700,1268,0,0
483,-244,0,0,0,0,0,0,0,0,0,-1,1707,1268,0,0
490,-244,0,0,0,0,0,0,0,0,0,-1,1714,1268,0,0
497,-244,0,0,0,0,0,0,0,0,0,-1,1721,1268,0,0
504,-244,0,0,0,0,0,0,0,0,0,-1,1728,1268,0,0
511,-244,0,0,0,0,0,0,0,0,0,-1,1735,1268,0,0
518,-244,0,0,0,0,0,0,0,0,0,-1,1742,1268,0,0
525,-244,0,0,0,0,0,0,0,0,0,-1,1749,1268,0,0
532,-244,0,0,0,0,0,0,0,0,0,-1,1756,1268,0,0
539,-244,0,0,0,0,0,0,0,0,0,-1,1763,1268,0,0
546,-244,0,0,0,0,0,0,0,0,0,-1,1770,1268,0,0
553,-244,0,0,0,0,0,0,0,0,0,-1,1777,1268,0,0
560,-244,0,0,0,0,0,0,0,0,0,-1,1784,1268,0,0
567,-244,0,0,0,0,0,0,0,0,0,-1,1791,1268,0,0
574,-244,0,0,0,0,0,0,0,0,0,-1,1798,1268,0,0
581,-244,0,0,0,0,0,0,0,0,0,-1,1805,1268,0,0
588,-244,0,0,0,0,0,0,0,0,0,-1,1812,1268,0,0
595,-244,0,0,0,0,0,0,0,0,0,-1,1819,1268,0,0
602,-244,0,0,0,0,0,0,0,0,0,-1,1826,1268,0,0
609,-244,0,0,0,0,0,0,0,0,0,-1,1833,1268,0,0
616,-244,22.1387,2.72571,-0.0014276,0.00420102,-0.0032903,0.00571642,-0.00294301,-1.13919,0.00508428,0.0313858,1840,1268,22.1386,-2.72568
623,-244,22.0964,2.76697,-0.00205773,0.00829124,-0.0031765,0.00918844,-0.00295493,-1.29552,0.0073124,0.024244,1847,1268,22.0964,-2.76698
630,-244,22.0798,2.84338,-0.0025107,0.0101185,-0.00274765,0.0106903,-0.00308259,-1.36559,0.00834639,0.0228426,1854,1268,22.0798,-2.84339
637,-244,22.024,2.77979,-0.00264111,0.00991241,-0.00205608,0.0102406,-0.00296928,-1.41252,0.0080026,0.037451,1861,1268,22.024,-2.77976
644,-244,21.7909,2.48364,-0.00246153,0.00872458,-0.00143696,0.00890622,-0.00264317,-1.44506,0.00698722,0.0412744,1868,1268,21.7909,-2.48366
651,-244,21.8851,2.34644,-0.00213687,0.00727037,-0.00091697,0.00735892,-0.00222542,-1.47453,0.00579206,0.0444852,1875,1268,21.8851,-2.34647
658,-244,22.2596,2.63354,-0.00179522,0.00589229,-0.000444382,0.00591789,-0.00182082,-1.51325,0.00467201,0.0496268,1882,1268,22.2597,-2.63359
665,-244,22.2623,2.70593,0,0,0,0,0,0,0,-1,1889,1268,22.2623,-2.70598
672,-244,17.7415,5.33276,0,0,0,0,0,0,0,-1,1896,1268,17.7415,-5.33278
679,-244,18.2385,5.5033,0,0,0,0,0,0,0,-1,1903,1268,18.2385,-5.50326
686,-244,18.3429,5.65613,-0.000211386,0.000905211,0.000307039,0.000984071,-0.000290246,1.31939,0.000771221,0.0300967,1910,1268,18.3429,-5.65607
693,-244,18.2949,5.49854,0.000283932,1.10749e-06,0.000486346,0.000649008,-0.000363968,0.643917,0.00059251,0.0122158,1917,1268,18.2949,-5.49851
700,-244,18.3,5.29395,0.000248609,-0.000763835,0.00051386,0.000463714,-0.00097894,0.396443,0.000850439,0.00862034,1924,1268,18.3,-5.29397
707,-244,18.3235,5.10999,-0.000300563,-0.00127183,0.000372722,-0.000174019,-0.00139837,0.327302,0.000879997,0.00905384,1931,1268,18.3234,-5.11002
714,-244,18.3209,4.94495,-0.00127329,-0.00107064,0.000360911,-0.000797098,-0.00154683,0.922252,0.000893202,0.0106234,1938,1268,18.3209,-4.94498
721,-244,18.2843,4.77881,-0.00225112,-0.000718561,0.000793557,-0.000381701,-0.00258798,1.16936,0.00161321,0.0137037,1945,1268,18.2843,-4.77876
728,-244,18.3051,4.57129,-0.00343812,-0.000266899,0.000996077,2.00104e-05,-0.00372503,1.29035,0.00249005,0.017678,1952,1268,18.3051,-4.57134
735,-244,18.2992,4.38306,-0.00478578,-0.000303494,0.000719733,-0.00019076,-0.00489851,1.41543,0.00320398,0.0217477,1959,1268,18.2992,-4.38305
742,-244,18.3433,4.24207,-0.00626646,-0.00077331,0.000133849,-0.00077005,-0.00626972,1.54645,0.00394824,0.0149233,1966,1268,18.3433,-4.24208
749,-244,18.3268,4.07837,-0.00819011,-0.0013996,-0.000433989,-0.00137197,-0.00821773,-1.50723,0.00508326,0.0183094,1973,1268,18.3268,-4.07841
756,-244,18.2395,3.92505,-0.0101494,-0.00260227,-0.00153519,-0.00230194,-0.0104497,-1.37761,0.00634002,0.0247064,1980,1268,18.2395,-3.92505
763,-244,18.2567,3.67859,-0.0118421,-0.00463227,-0.00359519,-0.00314593,-0.0133284,-1.17877,0.00804467,0.0397874,1987,1268,18.2567,-3.67859
770,-244,17.5785,4.4292,-0.012856,-0.0079292,-0.00716973,-0.00281148,-0.0179737,-0.950871,0.0111639,0.0447762,1994,1268,17.5785,-4.42922
777,-244,17.173,5.13599,0,0,0,0,0,0,0,-1,2001,1268,17.173,-5.13597
784,-244,20.9817,3.09277,0,0,0,0,0,0,0,-1,2008,1268,20.9817,-3.09277
791,-244,0,0,0,0,0,0,0,0,0,-1,2015,1268,0,0
798,-244,0,0,0,0,0,0,0,0,0,-1,2022,1268,0,0
805,-244,0,0,0,0,0,0,0,0,0,-1,2029,1268,0,0
812,-244,0,0,0,0,0,0,0,0,0,-1,2036,1268,0,0
-700,-251,0,0,0,0,0,0,0,0,0,-1,524,1275,0,0
-693,-251,0,0,0,0,0,0,0,0,0,-1,531,1275,0,0
-686,-251,0,0,0,0,0,0,0,0,0,-1,538,1275,0,0
-679,-251,0,0,0,0,0,0,0,0,0,-1,545,1275,0,0
-672,-251,0,0,0,0,0,0,0,0,0,-1,552,1275,0,0
-665,-251,-9.19891,-1.67957,0.0295807,0.0815413,-0.0388696,0.102314,0.00880825,-1.08,0.0654709,0.0478483,559,1275,-9.19892,1.67956
-658,-251,-9.56567,-1.21985,0,0,0,0,0,0,0,-1,566,1275,-9.56566,1.21984
-651,-251,-9.82953,-0.643555,0.0178146,0.0641263,-0.012567,0.0673167,0.0146242,-1.32218,0.0408844,0.0485587,573,1275,-9.82956,0.643497
-644,-251,-9.72852,-0.138428,0.012569,0.0543104,-0.0045892,0.054809,0.0120704,-1.46258,0.0332543,0.0464586,580,1275,-9.72851,0.138445
-637,-251,-9.44531,0.248169,0.00818935,0.044541,0.000738403,0.044556,0.00817436,1.55049,0.0273889,0.0425637,587,1275,-9.44533,-0.248155
-630,-251,-9.55005,0.763184,0.00484999,0.0353072,0.00389436,0.0357973,0.00435993,1.44562,0.0225525,0.0415109,594,1275,-9.55003,-0.763162
-623,-251,-9.79828,1.26416,0.00231802,0.0272128,0.00568221,0.0284484,0.00108239,1.35667,0.0186153,0.0367667,601,1275,-9.7983,-1.26413
-616,-251,-9.91321,1.70056,0.000567572,0.0202106,0.00637205,0.0220966,-0.00131839,1.28304,0.0151896,0.0205214,608,1275,-9.91319,-1.70057
-609,-251,-9.9314,1.93213,9.84551e-05,0.014511,0.00643536,0.0169662,-0.00235675,1.20632,0.0121727,0.0193103,615,1275,-9.93139,-1.93207
-602,-251,-9.92841,2.13196,0.000207622,0.00997642,0.00528553,0.0122888,-0.0021048,1.15839,0.00897679,0.0144218,622,1275,-9.92842,-2.13195
-595,-251,-9.91083,2.33521,0.000651811,0.00539352,0.00398094,0.00765611,-0.00161078,1.05397,0.00571715,0.0125064,629,1275,-9.9108,-2.33522
-588,-251,-9.91083,2.54443,0.00157808,0.00220107,0.00279498,0.00470186,-0.000922705,0.840893,0.00348312,0.0149455,636,1275,-9.91082,-2.54443
-581,-251,-9.91571,2.78052,0.00263944,0.000605889,0.00159426,0.00351356,-0.000268236,0.501533,0.00243671,0.014071,643,1275,-9.91571,-2.78056
-574,-251,-9.92242,3.01184,0.0037447,-0.000938045,0.000589094,0.00381767,-0.00101102,0.123243,0.00294063,0.0124548,650,1275,-9.92245,-3.01182
-567,-251,-9.92188,3.22388,0.00463203,-0.00237063,-0.000342163,0.00464871,-0.00238731,-0.0487072,0.0041316,0.0106631,657,1275,-9.92185,-3.22385
-560,-251,-9.89081,3.46265,0.00493889,-0.00299919,-0.00130057,0.00514654,-0.00320684,-0.158326,0.00486597,0.0157933,664,1275,-9.8908,-3.46265
-553,-251,-9.77515,3.46899,0.00508902,-0.00307548,-0.00214363,0.00561762,-0.00360408,-0.241766,0.00536629,0.0384501,671,1275,-9.77514,-3.46902
-546,-251,-9.73755,3.3894,0,0,0,0,0,0,0,-1,678,1275,-9.73755,-3.38937
-539,-251,-10.7916,0.366333,0,0,0,0,0,0,0,-1,685,1275,-10.7916,-0.366282
-532,-251,-10.7391,-0.00769043,0,0,0,0,0,0,0,-1,692,1275,-10.7391,0.00773227
-525,-251,-14.6299,1.94556,0,0,0,0,0,0,0,-1,699,1275,-14.6299,-1.94551
-518,-251,-14.2767,1.56421,0,0,0,0,0,0,0,-1,706,1275,-14.2767,-1.56422
-511,-251,-14.1349,1.05066,0,0,0,0,0,0,0,-1,713,1275,-14.135,-1.05069
-504,-251,-13.8173,0.59375,0.00341557,0.00669226,-0.00688715,0.0121333,-0.00202542,-0.90217,0.00884165,0.048602,720,1275,-13.8173,-0.593752
-497,-251,-13.9599,0.716064,0.00289538,0.0130941,-0.00574051,0.0156731,0.000316401,-1.14856,0.0103449,0.0498788,727,1275,-13.9599,-0.716102
-490,-251,0,0,0,0,0,0,0,0,0,-1,734,1275,0,0
-483,-251,0,0,0,0,0,0,0,0,0,-1,741,1275,0,0
-476,-251,0,0,0,0,0,0,0,0,0,-1,748,1275,0,0
-469,-251,0,0,0,0,0,0,0,0,0,-1,755,1275,0,0
-462,-251,0,0,0,0,0,0,0,0,0,-1,762,1275,0,0
-455,-251,0,0,0,0,0,0,0,0,0,-1,769,1275,0,0
-448,-251,0,0,0,0,0,0,0,0,0,-1,776,1275,0,0
-441,-251,0,0,0,0,0,0,0,0,0,-1,783,1275,0,0
-434,-251,0,0,0,0,0,0,0,0,0,-1,790,1275,0,0
-427,-251,0,0,0,0,0,0,0,0,0,-1,797,1275,0,0
-420,-251,0,0,0,0,0,0,0,0,0,-1,804,1275,0,0
-413,-251,0,0,0,0,0,0,0,0,0,-1,811,1275,0,0
-406,-251,0,0,0,0,0,0,0,0,0,-1,818,1275,0,0
-399,-251,0,0,0,0,0,0,0,0,0,-1,825,1275,0,0
-392,-251,0,0,0,0,0,0,0,0,0,-1,832,1275,0,0
-385,-251,0,0,0,0,0,0,0,0,0,-1,839,1275,0,0
-378,-251,0,0,0,0,0,0,0,0,0,-1,846,1275,0,0
-371,-251,0,0,0,0,0,0,0,0,0,-1,853,1275,0,0
-364,-251,0,0,0,0,0,0,0,0,0,-1,860,1275,0,0
-357,-251,0,0,0,0,0,0,0,0,0,-1,867,1275,0,0
-350,-251,0,0,0,0,0,0,0,0,0,-1,874,1275,0,0
-343,-251,0,0,0,0,0,0,0,0,0,-1,881,1275,0,0
-336,-251,0,0,0,0,0,0,0,0,0,-1,888,1275,0,0
-329,-251,0,0,0,0,0,0,0,0,0,-1,895,1275,0,0
-322,-251,0,0,0,0,0,0,0,0,0,-1,902,1275,0,0
-315,-251,0,0,0,0,0,0,0,0,0,-1,909,1275,0,0
-308,-251,0,0,0,0,0,0,0,0,0,-1,916,1275,0,0
-301,-251,0,0,0,0,0,0,0,0,0,-1,923,1275,0,0
-294,-251,0,0,0,0,0,0,0,0,0,-1,930,1275,0,0
-287,-251,0,0,0,0,0,0,0,0,0,-1,937,1275,0,0
-280,-251,0,0,0,0,0,0,0,0,0,-1,944,1275,0,0
-273,-251,0,0,0,0,0,0,0,0,0,-1,951,1275,0,0
-266,-251,0,0,0,0,0,0,0,0,0,-1,958,1275,0,0
-259,-251,0,0,0,0,0,0,0,0,0,-1,965,1275,0,0
-252,-251,0,0,0,0,0,0,0,0,0,-1,972,1275,0,0
-245,-251,0,0,0,0,0,0,0,0,0,-1,979,1275,0,0
-238,-251,0,0,0,0,0,0,0,0,0,-1,986,1275,0,0
-231,-251,0,0,0,0,0,0,0,0,0,-1,993,1275,0,0
-224,-251,0,0,0,0,0,0,0,0,0,-1,1000,1275,0,0
-217,-251,0,0,0,0,0,0,0,0,0,-1,1007,1275,0,0
-210,-251,0,0,0,0,0,0,0,0,0,-1,1014,1275,0,0
-203,-251,0,0,0,0,0,0,0,0,0,-1,1021,1275,0,0
-196,-251,0,0,0,0,0,0,0,0,0,-1,1028,1275,0,0
-189,-251,0,0,0,0,0,0,0,0,0,-1,1035,1275,0,0
-182,-251,0,0,0,0,0,0,0,0,0,-1,1042,1275,0,0
-175,-251,0,0,0,0,0,0,0,0,0,-1,1049,1275,0,0
-168,-251,0,0,0,0,0,0,0,0,0,-1,1056,1275,0,0
-161,-251,0,0,0,0,0,0,0,0,0,-1,1063,1275,0,0
-154,-251,0,0,0,0,0,0,0,0,0,-1,1070,1275,0,0
-147,-251,0,0,0,0,0,0,0,0,0,-1,1077,1275,0,0
-140,-251,0,0,0,0,0,0,0,0,0,-1,1084,1275,0,0
-133,-251,0,0,0,0,0,0,0,0,0,-1,1091,1275,0,0
-126,-251,0,0,0,0,0,0,0,0,0,-1,1098,1275,0,0
-119,-251,0,0,0,0,0,0,0,0,0,-1,1105,1275,0,0
-112,-251,0,0,0,0,0,0,0,0,0,-1,1112,1275,0,0
-105,-251,0,0,0,0,0,0,0,0,0,-1,1119,1275,0,0
-98,-251,0,0,0,0,0,0,0,0,0,-1,1126,1275,0,0
-91,-251,0,0,0,0,0,0,0,0,0,-1,1133,1275,0,0
-84,-251,0,0,0,0,0,0,0,0,0,-1,1140,1275,0,0
-77,-251,0,0,0,0,0,0,0,0,0,-1,1147,1275,0,0
-70,-251,0,0,0,0,0,0,0,0,0,-1,1154,1275,0,0
-63,-251,0,0,0,0,0,0,0,0,0,-1,1161,1275,0,0
-56,-251,0,0,0,0,0,0,0,0,0,-1,1168,1275,0,0
-49,-251,0,0,0,0,0,0,0,0,0,-1,1175,1275,0,0
-42,-251,0,0,0,0,0,0,0,0,0,-1,1182,1275,0,0
-35,-251,0,0,0,0,0,0,0,0,0,-1,1189,1275,0,0
-28,-251,0,0,0,0,0,0,0,0,0,-1,1196,1275,0,0
-21,-251,0,0,0,0,0,0,0,0,0,-1,1203,1275,0,0
-14,-251,0,0,0,0,0,0,0,0,0,-1,1210,1275,0,0
-7,-251,0,0,0,0,0,0,0,0,0,-1,1217,1275,0,0
0,-251,0,0,0,0,0,0,0,0,0,-1,1224,1275,0,0
7,-251,0,0,0,0,0,0,0,0,0,-1,1231,1275,0,0
14,-251,0,0,0,0,0,0,0,0,0,-1,1238,1275,0,0
21,-251,0,0,0,0,0,0,0,0,0,-1,1245,1275,0,0
28,-251,0,0,0,0,0,0,0,0,0,-1,1252,1275,0,0
35,-251,0,0,0,0,0,0,0,0,0,-1,1259,1275,0,0
42,-251,0,0,0,0,0,0,0,0,0,-1,1266,1275,0,0
49,-251,0,0,0,0,0,0,0,0,0,-1,1273,1275,0,0
56,-251,0,0,0,0,0,0,0,0,0,-1,1280,1275,0,0
63,-251,0,0,0,0,0,0,0,0,0,-1,1287,1275,0,0
70,-251,0,0,0,0,0,0,0,0,0,-1,1294,1275,0,0
77,-251,0,0,0,0,0,0,0,0,0,-1,1301,1275,0,0
84,-251,0,0,0,0,0,0,0,0,0,-1,1308,1275,0,0
91,-251,0,0,0,0,0,0,0,0,0,-1,1315,1275,0,0
98,-251,0,0,0,0,0,0,0,0,0,-1,1322,1275,0,0
105,-251,0,0,0,0,0,0,0,0,0,-1,1329,1275,0,0
112,-251,0,0,0,0,0,0,0,0,0,-1,1336,1275,0,0
119,-251,0,0,0,0,0,0,0,0,0,-1,1343,1275,0,0
126,-251,0,0,0,0,0,0,0,0,0,-1,1350,1275,0,0
133,-251,0,0,0,0,0,0,0,0,0,-1,1357,1275,0,0
140,-251,0,0,0,0,0,0,0,0,0,-1,1364,1275,0,0
147,-251,0,0,0,0,0,0,0,0,0,-1,1371,1275,0,0
154,-251,0,0,0,0,0,0,0,0,0,-1,1378,1275,0,0
161,-251,0,0,0,0,0,0,0,0,0,-1,1385,1275,0,0
168,-251,0,0,0,0,0,0,0,0,0,-1,1392,1275,0,0
175,-251,0,0,0,0,0,0,0,0,0,-1,1399,1275,0,0
182,-251,0,0,0,0,0,0,0,0,0,-1,1406,1275,0,0
189,-251,0,0,0,0,0,0,0,0,0,-1,1413,1275,0,0
196,-251,0,0,0,0,0,0,0,0,0,-1,1420,1275,0,0
203,-251,0,0,0,0,0,0,0,0,0,-1,1427,1275,0,0
210,-251,0,0,0,0,0,0,0,0,0,-1,1434,1275,0,0
217,-251,0,0,0,0,0,0,0,0,0,-1,1441,1275,0,0
224,-251,0,0,0,0,0,0,0,0,0,-1,1448,1275,0,0
231,-251,0,0,0,0,0,0,0,0,0,-1,1455,1275,0,0
238,-251,0,0,0,0,0,0,0,0,0,-1,1462,1275,0,0
245,-251,0,0,0,0,0,0,0,0,0,-1,1469,1275,0,0
252,-251,0,0,0,0,0,0,0,0,0,-1,1476,1275,0,0
259,-251,0,0,0,0,0,0,0,0,0,-1,1483,1275,0,0
266,-251,0,0,0,0,0,0,0,0,0,-1,1490,1275,0,0
273,-251,0,0,0,0,0,0,0,0,0,-1,1497,1275,0,0
280,-251,0,0,0,0,0,0,0,0,0,-1,1504,1275,0,0
287,-251,0,0,0,0,0,0,0,0,0,-1,1511,1275,0,0
294,-251,0,0,0,0,0,0,0,0,0,-1,1518,1275,0,0
301,-251,0,0,0,0,0,0,0,0,0,-1,1525,1275,0,0
308,-251,0,0,0,0,0,0,0,0,0,-1,1532,1275,0,0
315,-251,0,0,0,0,0,0,0,0,0,-1,1539,1275,0,0
322,-251,0,0,0,0,0,0,0,0,0,-1,1546,1275,0,0
329,-251,0,0,0,0,0,0,0,0,0,-1,1553,1275,0,0
336,-251,0,0,0,0,0,0,0,0,0,-1,1560,1275,0,0
343,-251,0,0,0,0,0,0,0,0,0,-1,1567,1275,0,0
350,-251,0,0,0,0,0,0,0,0,0,-1,1574,1275,0,0
357,-251,0,0,0,0,0,0,0,0,0,-1,1581,1275,0,0
364,-251,0,0,0,0,0,0,0,0,0,-1,1588,1275,0,0
371,-251,0,0,0,0,0,0,0,0,0,-1,1595,1275,0,0
378,-251,0,0,0,0,0,0,0,0,0,-1,1602,1275,0,0
385,-251,0,0,0,0,0,0,0,0,0,-1,1609,1275,0,0
392,-251,0,0,0,0,0,0,0,0,0,-1,1616,1275,0,0
399,-251,0,0,0,0,0,0,0,0,0,-1,1623,1275,0,0
406,-251,0,0,0,0,0,0,0,0,0,-1,1630,1275,0,0
413,-251,0,0,0,0,0,0,0,0,0,-1,1637,1275,0,0
420,-251,0,0,0,0,0,0,0,0,0,-1,1644,1275,0,0
427,-251,0,0,0,0,0,0,0,0,0,-1,1651,1275,0,0
434,-251,0,0,0,0,0,0,0,0,0,-1,1658,1275,0,0
441,-251,0,0,0,0,0,0,0,0,0,-1,1665,1275,0,0
448,-251,0,0,0,0,0,0,0,0,0,-1,1672,1275,0,0
455,-251,0,0,0,0,0,0,0,0,0,-1,1679,1275,0,0
462,-251,0,0,0,0,0,0,0,0,0,-1,1686,1275,0,0
469,-251,0,0,0,0,0,0,0,0,0,-1,1693,1275,0,0
476,-251,0,0,0,0,0,0,0,0,0,-1,1700,1275,0,0
483,-251,0,0,0,0,0,0,0,0,0,-1,1707,1275,0,0
490,-251,0,0,0,0,0,0,0,0,0,-1,1714,1275,0,0
497,-251,0,0,0,0,0,0,0,0,0,-1,1721,1275,0,0
504,-251,0,0,0,0,0,0,0,0,0,-1,1728,1275,0,0
511,-251,0,0,0,0,0,0,0,0,0,-1,1735,1275,0,0
518,-251,0,0,0,0,0,0,0,0,0,-1,1742,1275,0,0
525,-251,0,0,0,0,0,0,0,0,0,-1,1749,1275,0,0
532,-251,0,0,0,0,0,0,0,0,0,-1,1756,1275,0,0
539,-251,0,0,0,0,0,0,0,0,0,-1,1763,1275,0,0
546,-251,0,0,0,0,0,0,0,0,0,-1,1770,1275,0,0
553,-251,0,0,0,0,0,0,0,0,0,-1,1777,1275,0,0
560,-251,0,0,0,0,0,0,0,0,0,-1,1784,1275,0,0
567,-251,0,0,0,0,0,0,0,0,0,-1,1791,1275,0,0
574,-251,0,0,0,0,0,0,0,0,0,-1,1798,1275,0,0
581,-251,0,0,0,0,0,0,0,0,0,-1,1805,1275,0,0
588,-251,0,0,0,0,0,0,0,0,0,-1,1812,1275,0,0
595,-251,0,0,0,0,0,0,0,0,0,-1,1819,1275,0,0
602,-251,0,0,0,0,0,0,0,0,0,-1,1826,1275,0,0
609,-251,22.1133,2.82642,-0.00045342,0.00239722,-0.00495196,0.0061249,-0.0041811,-0.925525,0.00598535,0.0298054,1833,1275,22.1133,-2.82636
616,-251,22.0801,2.78772,-0.00160095,0.00741101,-0.00454073,0.00930207,-0.00349201,-1.17618,0.00763633,0.0244797,1840,1275,22.08,-2.78772
623,-251,22.0599,2.81763,-0.00271914,0.0108144,-0.00369835,0.0117591,-0.00366385,-1.3207,0.00930432,0.0210661,1847,1275,22.0599,-2.81761
630,-251,22.0527,2.79785,-0.003595,0.0116394,-0.00257293,0.0120622,-0.0040178,-1.40792,0.0096633,0.0335831,1854,1275,22.0527,-2.79779
637,-251,21.9838,2.58923,-0.00399822,0.0107708,-0.001504,0.0109224,-0.00414982,-1.47034,0.00899,0.0428387,1861,1275,21.9838,-2.58922
644,-251,21.688,2.33179,-0.00396031,0.00922442,-0.000702663,0.00926176,-0.00399766,-1.5177,0.00785385,0.0442767,1868,1275,21.6879,-2.3318
651,-251,21.6678,2.1665,-0.00368487,0.00759178,-0.000111609,0.00759289,-0.00368597,-1.5609,0.0066408,0.0465181,1875,1275,21.6679,-2.16655
658,-251,21.8738,2.2157,0,0,0,0,0,0,0,-1,1882,1275,21.8737,-2.21575
665,-251,20.2781,3.79688,0,0,0,0,0,0,0,-1,1889,1275,20.2781,-3.79692
672,-251,18.2826,5.42896,0,0,0,0,0,0,0,-1,1896,1275,18.2827,-5.42892
679,-251,18.079,5.57434,-0.00210345,0.00174561,0.00096965,0.00197608,-0.00233393,1.33744,0.00249124,0.0483748,1903,1275,18.079,-5.57434
686,-251,18.0917,5.6427,-0.00136676,0.000678217,0.00103603,0.00111135,-0.0017999,1.17481,0.00169641,0.0266577,1910,1275,18.0916,-5.6427
693,-251,18.1334,5.495,-0.000638985,-0.000222672,0.00108795,0.000676852,-0.00153851,0.879921,0.00131089,0.00978035,1917,1275,18.1334,-5.49497
700,-251,18.1364,5.30359,-0.000461082,-0.000872017,0.000930496,0.000286361,-0.00161946,0.676734,0.00118667,0.00870417,1924,1275,18.1364,-5.30363
707,-251,18.1514,5.12805,-0.00085183,-0.00125613,0.000606627,-0.000414556,-0.0016934,0.624568,0.00101925,0.00996575,1931,1275,18.1513,-5.12805
714,-251,18.1532,4.93982,-0.00170002,-0.000952063,0.000342601,-0.000818858,-0.00183323,1.19998,0.00106042,0.011033,1938,1275,18.1533,-4.93981
721,-251,18.1051,4.7522,-0.00267302,-0.000489745,0.000546869,-0.000360425,-0.00280234,1.33859,0.00176042,0.0133683,1945,1275,18.1052,-4.75222
728,-251,18.1008,4.56787,-0.00400086,4.90458e-05,0.000546585,0.000121517,-0.00407333,1.43898,0.00275695,0.0149919,1952,1275,18.1009,-4.56782
735,-251,18.1108,4.39307,-0.00563068,0.000152549,0.000180408,0.000158171,-0.0056363,1.53964,0.00381135,0.0138782,1959,1275,18.1108,-4.39311
742,-251,18.1597,4.2323,-0.00758814,-0.0001617,-0.000475923,-0.000131325,-0.00761852,-1.50706,0.00503581,0.013945,1966,1275,18.1596,-4.23224
749,-251,18.0939,4.10413,-0.0101608,-0.000596561,-0.00115185,-0.000459795,-0.0102975,-1.45261,0.00671699,0.023062,1973,1275,18.0939,-4.10414
756,-251,17.9094,3.99988,-0.0129679,-0.00149619,-0.00237969,-0.00102213,-0.0134419,-1.37416,0.00864075,0.0388919,1980,1275,17.9094,-3.99987
763,-251,17.4377,3.87073,-0.0157526,-0.00311213,-0.00455042,-0.00164445,-0.0172203,-1.25879,0.0109732,0.0450401,1987,1275,17.4377,-3.87076
770,-251,17.0968,3.87146,-0.018132,-0.005865,-0.00819408,-0.00176312,-0.0222338,-1.10668,0.0142712,0.0481552,1994,1275,17.0969,-3.87151
777,-251,16.672,3.8678,0,0,0,0,0,0,0,-1,2001,1275,16.672,-3.86776
784,-251,21.0864,3.24976,0,0,0,0,0,0,0,-1,2008,1275,21.0864,-3.2497
791,-251,0,0,0,0,0,0,0,0,0,-1,2015,1275,0,0
798,-251,0,0,0,0,0,0,0,0,0,-1,2022,1275,0,0
805,-251,0,0,0,0,0,0,0,0,0,-1,2029,1275,0,0
812,-251,0,0,0,0,0,0,0,0,0,-1,2036,1275,0,0
-700,-258,0,0,0,0,0,0,0,0,0,-1,524,1282,0,0
-693,-258,0,0,0,0,0,0,0,0,0,-1,531,1282,0,0
-686,-258,0,0,0,0,0,0,0,0,0,-1,538,1282,0,0
-679,-258,0,0,0,0,0,0,0,0,0,-1,545,1282,0,0
-672,-258,0,0,0,0,0,0,0,0,0,-1,552,1282,0,0
-665,-258,-7.73267,-2.37048,0,0,0,0,0,0,0,-1,559,1282,-7.73267,2.3705
-658,-258,-8.35986,-2.02234,0,0,0,0,0,0,0,-1,566,1282,-8.35987,2.02234
-651,-258,-8.81396,-1.77002,0,0,0,0,0,0,0,-1,573,1282,-8.81398,1.77004
-644,-258,-8.96295,-0.745728,0,0,0,0,0,0,0,-1,580,1282,-8.96298,0.745715
-637,-258,-9.02484,-0.100586,0.0084525,0.0490552,0.00408445,0.049462,0.0080457,1.47153,0.0306469,0.0451908,587,1282,-9.02482,0.100602
-630,-258,-9.34888,0.743286,0.00508274,0.0387793,0.00690837,0.0401407,0.0037214,1.37623,0.0256103,0.0464474,594,1282,-9.34886,-0.743307
-623,-258,-9.53741,1.16394,0.00254059,0.0298048,0.00822881,0.0320959,0.00024952,1.29925,0.0213146,0.0444015,601,1282,-9.5374,-1.16398
-616,-258,-9.64819,1.57886,0.000799619,0.0221244,0.00840265,0.0250374,-0.00211338,1.23709,0.0174388,0.0319599,608,1282,-9.64818,-1.57887
-609,-258,-9.71222,1.91565,0.000294991,0.0158711,0.00801433,0.0192582,-0.00309207,1.17094,0.0139839,0.017553,615,1282,-9.71223,-1.91568
-602,-258,-9.70209,2.13269,0.00030589,0.0110524,0.00650554,0.0141168,-0.0027585,1.13058,0.0104527,0.0137013,622,1282,-9.70209,-2.13268
-595,-258,-9.69507,2.33508,0.00063967,0.00628905,0.00495427,0.00916731,-0.00223859,1.04449,0.00697847,0.0105326,629,1282,-9.69507,-2.33505
-588,-258,-9.69971,2.54749,0.00145592,0.00287242,0.00353521,0.00576963,-0.00144129,0.88426,0.00440614,0.0117677,636,1282,-9.6997,-2.54754
-581,-258,-9.69397,2.78455,0.00246254,0.000996102,0.00211792,0.00397057,-0.000511925,0.618756,0.00283314,0.0134943,643,1282,-9.69398,-2.78455
-574,-258,-9.67889,3.01257,0.00354064,-0.000718901,0.00094644,0.00374146,-0.000919725,0.209088,0.00285077,0.0137733,650,1282,-9.67889,-3.01259
-567,-258,-9.69647,3.23169,0.00445746,-0.00235118,-8.19289e-05,0.00445844,-0.00235217,-0.0120307,0.0039943,0.0137822,657,1282,-9.69648,-3.23169
-560,-258,-9.70105,3.44214,0.00481037,-0.00310378,-0.0011625,0.00497759,-0.00327101,-0.142869,0.00479619,0.022304,664,1282,-9.70104,-3.44218
-553,-258,-9.6311,3.58679,0.00503849,-0.00321176,-0.00207248,0.00552983,-0.00370311,-0.232784,0.00536531,0.0330602,671,1282,-9.63109,-3.58678
-546,-258,-9.60541,3.53809,0.00491924,-0.00293457,-0.00296218,0.00591118,-0.00392652,-0.323133,0.0057182,0.0468114,678,1282,-9.60543,-3.53806
-539,-258,-9.54138,3.5376,0,0,0,0,0,0,0,-1,685,1282,-9.54135,-3.53762
-532,-258,-10.2173,-0.353882,0,0,0,0,0,0,0,-1,692,1282,-10.2173,0.353836
-525,-258,-14.4655,1.79712,0,0,0,0,0,0,0,-1,699,1282,-14.4655,-1.79713
-518,-258,-14.1886,1.92383,0,0,0,0,0,0,0,-1,706,1282,-14.1886,-1.92377
-511,-258,-13.9117,2.05042,0,0,0,0,0,0,0,-1,713,1282,-13.9117,-2.05041
-504,-258,-13.4001,0.292603,0,0,0,0,0,0,0,-1,720,1282,-13.4002,-0.292588
-497,-258,-13.485,0.132813,0,0,0,0,0,0,0,-1,727,1282,-13.485,-0.132835
-490,-258,-14.3521,1.05969,0,0,0,0,0,0,0,-1,734,1282,-14.352,-1.05973
-483,-258,0,0,0,0,0,0,0,0,0,-1,741,1282,0,0
-476,-258,0,0,0,0,0,0,0,0,0,-1,748,1282,0,0
-469,-258,0,0,0,0,0,0,0,0,0,-1,755,1282,0,0
-462,-258,0,0,0,0,0,0,0,0,0,-1,762,1282,0,0
-455,-258,0,0,0,0,0,0,0,0,0,-1,769,1282,0,0
-448,-258,0,0,0,0,0,0,0,0,0,-1,776,1282,0,0
-441,-258,0,0,0,0,0,0,0,0,0,-1,783,1282,0,0
-434,-258,0,0,0,0,0,0,0,0,0,-1,790,1282,0,0
-427,-258,0,0,0,0,0,0,0,0,0,-1,797,1282,0,0
-420,-258,0,0,0,0,0,0,0,0,0,-1,804,1282,0,0
-413,-258,0,0,0,0,0,0,0,0,0,-1,811,1282,0,0
-406,-258,0,0,0,0,0,0,0,0,0,-1,818,1282,0,0
-399,-258,0,0,0,0,0,0,0,0,0,-1,825,1282,0,0
-392,-258,0,0,0,0,0,0,0,0,0,-1,832,1282,0,0
-385,-258,0,0,0,0,0,0,0,0,0,-1,839,1282,0,0
-378,-258,0,0,0,0,0,0,0,0,0,-1,846,1282,0,0
-371,-258,0,0,0,0,0,0,0,0,0,-1,853,1282,0,0
-364,-258,0,0,0,0,0,0,0,0,0,-1,860,1282,0,0
-357,-258,0,0,0,0,0,0,0,0,0,-1,867,1282,0,0
-350,-258,0,0,0,0,0,0,0,0,0,-1,874,1282,0,0
-343,-258,0,0,0,0,0,0,0,0,0,-1,881,1282,0,0
-336,-258,0,0,0,0,0,0,0,0,0,-1,888,1282,0,0
-329,-258,0,0,0,0,0,0,0,0,0,-1,895,1282,0,0
-322,-258,0,0,0,0,0,0,0,0,0,-1,902,1282,0,0
-315,-258,0,0,0,0,0,0,0,0,0,-1,909,1282,0,0
-308,-258,0,0,0,0,0,0,0,0,0,-1,916,1282,0,0
-301,-258,0,0,0,0,0,0,0,0,0,-1,923,1282,0,0
-294,-258,0,0,0,0,0,0,0,0,0,-1,930,1282,0,0
-287,-258,0,0,0,0,0,0,0,0,0,-1,937,1282,0,0
-280,-258,0,0,0,0,0,0,0,0,0,-1,944,1282,0,0
-273,-258,0,0,0,0,0,0,0,0,0,-1,951,1282,0,0
-266,-258,0,0,0,0,0,0,0,0,0,-1,958,1282,0,0
-259,-258,0,0,0,0,0,0,0,0,0,-1,965,1282,0,0
-252,-258,0,0,0,0,0,0,0,0,0,-1,972,1282,0,0
-245,-258,0,0,0,0,0,0,0,0,0,-1,979,1282,0,0
-238,-258,0,0,0,0,0,0,0,0,0,-1,986,1282,0,0
-231,-258,0,0,0,0,0,0,0,0,0,-1,993,1282,0,0
-224,-258,0,0,0,0,0,0,0,0,0,-1,1000,1282,0,0
-217,-258,0,0,0,0,0,0,0,0,0,-1,1007,1282,0,0
-210,-258,0,0,0,0,0,0,0,0,0,-1,1014,1282,0,0
-203,-258,0,0,0,0,0,0,0,0,0,-1,1021,1282,0,0
-196,-258,0,0,0,0,0,0,0,0,0,-1,1028,1282,0,0
-189,-258,0,0,0,0,0,0,0,0,0,-1,1035,1282,0,0
-182,-258,0,0,0,0,0,0,0,0,0,-1,1042,1282,0,0
-175,-258,0,0,0,0,0,0,0,0,0,-1,1049,1282,0,0
-168,-258,0,0,0,0,0,0,0,0,0,-1,1056,1282,0,0
-161,-258,0,0,0,0,0,0,0,0,0,-1,1063,1282,0,0
-154,-258,0,0,0,0,0,0,0,0,0,-1,1070,1282,0,0
-147,-258,0,0,0,0,0,0,0,0,0,-1,1077,1282,0,0
-140,-258,0,0,0,0,0,0,0,0,0,-1,1084,1282,0,0
-133,-258,0,0,0,0,0,0,0,0,0,-1,1091,1282,0,0
-126,-258,0,0,0,0,0,0,0,0,0,-1,1098,1282,0,0
-119,-258,0,0,0,0,0,0,0,0,0,-1,1105,1282,0,0
-112,-258,0,0,0,0,0,0,0,0,0,-1,1112,1282,0,0
-105,-258,0,0,0,0,0,0,0,0,0,-1,1119,1282,0,0
-98,-258,0,0,0,0,0,0,0,0,0,-1,1126,1282,0,0
-91,-258,0,0,0,0,0,0,0,0,0,-1,1133,1282,0,0
-84,-258,0,0,0,0,0,0,0,0,0,-1,1140,1282,0,0
-77,-258,0,0,0,0,0,0,0,0,0,-1,1147,1282,0,0
-70,-258,0,0,0,0,0,0,0,0,0,-1,1154,1282,0,0
-63,-258,0,0,0,0,0,0,0,0,0,-1,1161,1282,0,0
-56,-258,0,0,0,0,0,0,0,0,0,-1,1168,1282,0,0
-49,-258,0,0,0,0,0,0,0,0,0,-1,1175,1282,0,0
-42,-258,0,0,0,0,0,0,0,0,0,-1,1182,1282,0,0
-35,-258,0,0,0,0,0,0,0,0,0,-1,1189,1282,0,0
-28,-258,0,0,0,0,0,0,0,0,0,-1,1196,1282,0,0
-21,-258,0,0,0,0,0,0,0,0,0,-1,1203,1282,0,0
-14,-258,0,0,0,0,0,0,0,0,0,-1,1210,1282,0,0
-7,-258,0,0,0,0,0,0,0,0,0,-1,1217,1282,0,0
0,-258,0,0,0,0,0,0,0,0,0,-1,1224,1282,0,0
7,-258,0,0,0,0,0,0,0,0,0,-1,1231,1282,0,0
14,-258,0,0,0,0,0,0,0,0,0,-1,1238,1282,0,0
21,-258,0,0,0,0,0,0,0,0,0,-1,1245,1282,0,0
28,-258,0,0,0,0,0,0,0,0,0,-1,1252,1282,0,0
35,-258,0,0,0,0,0,0,0,0,0,-1,1259,1282,0,0
42,-258,0,0,0,0,0,0,0,0,0,-1,1266,1282,0,0
49,-258,0,0,0,0,0,0,0,0,0,-1,1273,1282,0,0
56,-258,0,0,0,0,0,0,0,0,0,-1,1280,1282,0,0
63,-258,0,0,0,0,0,0,0,0,0,-1,1287,1282,0,0
70,-258,0,0,0,0,0,0,0,0,0,-1,1294,1282,0,0
77,-258,0,0,0,0,0,0,0,0,0,-1,1301,1282,0,0
84,-258,0,0,0,0,0,0,0,0,0,-1,1308,1282,0,0
91,-258,0,0,0,0,0,0,0,0,0,-1,1315,1282,0,0
98,-258,0,0,0,0,0,0,0,0,0,-1,1322,1282,0,0
105,-258,0,0,0,0,0,0,0,0,0,-1,1329,1282,0,0
112,-258,0,0,0,0,0,0,0,0,0,-1,1336,1282,0,0
119,-258,0,0,0,0,0,0,0,0,0,-1,1343,1282,0,0
126,-258,0,0,0,0,0,0,0,0,0,-1,1350,1282,0,0
133,-258,0,0,0,0,0,0,0,0,0,-1,1357,1282,0,0
140,-258,0,0,0,0,0,0,0,0,0,-1,1364,1282,0,0
147,-258,0,0,0,0,0,0,0,0,0,-1,1371,1282,0,0
154,-258,0,0,0,0,0,0,0,0,0,-1,1378,1282,0,0
161,-258,0,0,0,0,0,0,0,0,0,-1,1385,1282,0,0
168,-258,0,0,0,0,0,0,0,0,0,-1,1392,1282,0,0
175,-258,0,0,0,0,0,0,0,0,0,-1,1399,1282,0,0
182,-258,0,0,0,0,0,0,0,0,0,-1,1406,1282,0,0
189,-258,0,0,0,0,0,0,0,0,0,-1,1413,1282,0,0
196,-258,0,0,0,0,0,0,0,0,0,-1,1420,1282,0,0
203,-258,0,0,0,0,0,0,0,0,0,-1,1427,1282,0,0
210,-258,0,0,0,0,0,0,0,0,0,-1,1434,1282,0,0
217,-258,0,0,0,0,0,0,0,0,0,-1,1441,1282,0,0
224,-258,0,0,0,0,0,0,0,0,0,-1,1448,1282,0,0
231,-258,0,0,0,0,0,0,0,0,0,-1,1455,1282,0,0
238,-258,0,0,0,0,0,0,0,0,0,-1,1462,1282,0,0
245,-258,0,0,0,0,0,0,0,0,0,-1,1469,1282,0,0
252,-258,0,0,0,0,0,0,0,0,0,-1,1476,1282,0,0
259,-258,0,0,0,0,0,0,0,0,0,-1,1483,1282,0,0
266,-258,0,0,0,0,0,0,0,0,0,-1,1490,1282,0,0
273,-258,0,0,0,0,0,0,0,0,0,-1,1497,1282,0,0
280,-258,0,0,0,0,0,0,0,0,0,-1,1504,1282,0,0
287,-258,0,0,0,0,0,0,0,0,0,-1,1511,1282,0,0
294,-258,0,0,0,0,0,0,0,0,0,-1,1518,1282,0,0
301,-258,0,0,0,0,0,0,0,0,0,-1,1525,1282,0,0
308,-258,0,0,0,0,0,0,0,0,0,-1,1532,1282,0,0
315,-258,0,0,0,0,0,0,0,0,0,-1,1539,1282,0,0
322,-258,0,0,0,0,0,0,0,0,0,-1,1546,1282,0,0
329,-258,0,0,0,0,0,0,0,0,0,-1,1553,1282,0,0
336,-258,0,0,0,0,0,0,0,0,0,-1,1560,1282,0,0
343,-258,0,0,0,0,0,0,0,0,0,-1,1567,1282,0,0
350,-258,0,0,0,0,0,0,0,0,0,-1,1574,1282,0,0
357,-258,0,0,0,0,0,0,0,0,0,-1,1581,1282,0,0
364,-258,0,0,0,0,0,0,0,0,0,-1,1588,1282,0,0
371,-258,0,0,0,0,0,0,0,0,0,-1,1595,1282,0,0
378,-258,0,0,0,0,0,0,0,0,0,-1,1602,1282,0,0
385,-258,0,0,0,0,0,0,0,0,0,-1,1609,1282,0,0
392,-258,0,0,0,0,0,0,0,0,0,-1,1616,1282,0,0
399,-258,0,0,0,0,0,0,0,0,0,-1,1623,1282,0,0
406,-258,0,0,0,0,0,0,0,0,0,-1,1630,1282,0,0
413,-258,0,0,0,0,0,0,0,0,0,-1,1637,1282,0,0
420,-258,0,0,0,0,0,0,0,0,0,-1,1644,1282,0,0
427,-258,0,0,0,0,0,0,0,0,0,-1,1651,1282,0,0
434,-258,0,0,0,0,0,0,0,0,0,-1,1658,1282,0,0
441,-258,0,0,0,0,0,0,0,0,0,-1,1665,1282,0,0
448,-258,0,0,0,0,0,0,0,0,0,-1,1672,1282,0,0
455,-258,0,0,0,0,0,0,0,0,0,-1,1679,1282,0,0
462,-258,0,0,0,0,0,0,0,0,0,-1,1686,1282,0,0
469,-258,0,0,0,0,0,0,0,0,0,-1,1693,1282,0,0
476,-258,0,0,0,0,0,0,0,0,0,-1,1700,1282,0,0
483,-258,0,0,0,0,0,0,0,0,0,-1,1707,1282,0,0
490,-258,0,0,0,0,0,0,0,0,0,-1,1714,1282,0,0
497,-258,0,0,0,0,0,0,0,0,0,-1,1721,1282,0,0
504,-258,0,0,0,0,0,0,0,0,0,-1,1728,1282,0,0
511,-258,0,0,0,0,0,0,0,0,0,-1,1735,1282,0,0
518,-258,0,0,0,0,0,0,0,0,0,-1,1742,1282,0,0
525,-258,0,0,0,0,0,0,0,0,0,-1,1749,1282,0,0
532,-258,0,0,0,0,0,0,0,0,0,-1,1756,1282,0,0
539,-258,0,0,0,0,0,0,0,0,0,-1,1763,1282,0,0
546,-258,0,0,0,0,0,0,0,0,0,-1,1770,1282,0,0
553,-258,0,0,0,0,0,0,0,0,0,-1,1777,1282,0,0
560,-258,0,0,0,0,0,0,0,0,0,-1,1784,1282,0,0
567,-258,0,0,0,0,0,0,0,0,0,-1,1791,1282,0,0
574,-258,0,0,0,0,0,0,0,0,0,-1,1798,1282,0,0
581,-258,0,0,0,0,0,0,0,0,0,-1,1805,1282,0,0
588,-258,0,0,0,0,0,0,0,0,0,-1,1812,1282,0,0
595,-258,0,0,0,0,0,0,0,0,0,-1,1819,1282,0,0
602,-258,0,0,0,0,0,0,0,0,0,-1,1826,1282,0,0
609,-258,22.0828,2.83777,5.65117e-05,0.00609577,-0.00636296,0.0101193,-0.00396697,-1.00694,0.00838727,0.0237037,1833,1282,22.0827,-2.83774
616,-258,22.0483,2.8689,-0.00122195,0.0105772,-0.00505966,0.0124497,-0.00309444,-1.21634,0.00950077,0.022088,1840,1282,22.0484,-2.86894
623,-258,22.03,2.85291,-0.00280436,0.0128806,-0.0034193,0.0135936,-0.00351735,-1.36522,0.0104344,0.0321456,1847,1282,22.03,-2.85285
630,-258,21.9504,2.56873,-0.00410648,0.012694,-0.00182265,0.0128895,-0.00430194,-1.46396,0.01033,0.0429812,1854,1282,21.9504,-2.56877
637,-258,21.7657,2.35425,-0.0048321,0.0112994,-0.000594981,0.0113213,-0.00485401,-1.53398,0.00958441,0.0467412,1861,1282,21.7658,-2.3542
644,-258,21.5336,2.16431,-0.00503715,0.0095007,0.000240639,0.00950468,-0.00504113,1.55425,0.00852881,0.0485346,1868,1282,21.5335,-2.16435
651,-258,21.4873,2.09241,-0.00494658,0.007751,0.000825852,0.00780449,-0.00500007,1.50612,0.00745158,0.0490831,1875,1282,21.4874,-2.09242
658,-258,21.5344,2.16724,0,0,0,0,0,0,0,-1,1882,1282,21.5345,-2.16718
665,-258,18.5518,2.34216,0,0,0,0,0,0,0,-1,1889,1282,18.5518,-2.34213
672,-258,18.3654,5.55518,0,0,0,0,0,0,0,-1,1896,1282,18.3654,-5.55514
679,-258,18.0226,5.71692,-0.00367003,0.00145811,0.00185757,0.00206027,-0.00427219,1.25732,0.00372965,0.0426089,1903,1282,18.0226,-5.71696
686,-258,17.9164,5.71436,-0.00275412,0.000314944,0.00186431,0.00119504,-0.00363421,1.12974,0.0029043,0.0261686,1910,1282,17.9164,-5.71436
693,-258,17.981,5.5177,-0.00178165,-0.000527354,0.00177038,0.000723674,-0.00303268,0.955624,0.00230126,0.0100825,1917,1282,17.9809,-5.51772
700,-258,17.9731,5.3136,-0.00133453,-0.00100549,0.00137458,0.000214381,-0.0025544,0.844959,0.00177871,0.00875356,1924,1282,17.9731,-5.31361
707,-258,17.9729,5.13586,-0.00147049,-0.00121933,0.00079749,-0.000537596,-0.00215223,0.863491,0.00129341,0.0103269,1931,1282,17.9729,-5.13589
714,-258,17.9702,4.94373,-0.00205408,-0.000784007,0.000147131,-0.000767185,-0.0020709,1.45696,0.00120894,0.0100614,1938,1282,17.9702,-4.94369
721,-258,17.9541,4.74646,-0.00285116,-0.000191871,-7.26156e-05,-0.000189889,-0.00285314,-1.54352,0.00184206,0.0115061,1945,1282,17.9541,-4.74642
728,-258,17.9479,4.57703,-0.00414472,0.000445598,-0.000528244,0.000505603,-0.00420473,-1.45769,0.00298599,0.0117551,1952,1282,17.9479,-4.57698
735,-258,17.9563,4.4054,-0.00592633,0.000729532,-0.00127851,0.00096667,-0.00616346,-1.3874,0.00446621,0.0144563,1959,1282,17.9563,-4.40541
742,-258,17.9675,4.24573,-0.00820838,0.000632812,-0.00234921,0.00121826,-0.00879383,-1.32656,0.00630797,0.0164606,1966,1282,17.9675,-4.24576
749,-258,17.8971,4.10962,-0.0112861,0.000469668,-0.00356994,0.00146885,-0.0122852,-1.29789,0.0087211,0.028291,1973,1282,17.897,-4.10966
756,-258,17.66,3.93225,-0.0148516,-1.79201e-05,-0.00542647,0.00175524,-0.0166247,-1.25497,0.0117122,0.0401511,1980,1282,17.66,-3.93222
763,-258,17.0884,3.49585,-0.018744,-0.00107633,-0.00827079,0.00219118,-0.0220115,-1.19455,0.0154566,0.0443901,1987,1282,17.0884,-3.49582
770,-258,16.5483,3.24463,0,0,0,0,0,0,0,-1,1994,1282,16.5484,-3.24459
777,-258,15.3475,2.91589,0,0,0,0,0,0,0,-1,2001,1282,15.3475,-2.91589
784,-258,16.9154,2.36511,0,0,0,0,0,0,0,-1,2008,1282,16.9154,-2.36516
791,-258,0,0,0,0,0,0,0,0,0,-1,2015,1282,0,0
798,-258,0,0,0,0,0,0,0,0,0,-1,2022,1282,0,0
805,-258,0,0,0,0,0,0,0,0,0,-1,2029,1282,0,0
812,-258,0,0,0,0,0,0,0,0,0,-1,2036,1282,0,0
-700,-265,0,0,0,0,0,0,0,0,0,-1,524,1289,0,0
-693,-265,0,0,0,0,0,0,0,0,0,-1,531,1289,0,0
-686,-265,0,0,0,0,0,0,0,0,0,-1,538,1289,0,0
-679,-265,0,0,0,0,0,0,0,0,0,-1,545,1289,0,0
-672,-265,0,0,0,0,0,0,0,0,0,-1,552,1289,0,0
-665,-265,-6.55103,-2.97937,0,0,0,0,0,0,0,-1,559,1289,-6.55104,2.97938
-658,-265,-7.29919,1.92493,0,0,0,0,0,0,0,-1,566,1289,-7.29922,-1.92495
-651,-265,-8.02893,1.65479,0,0,0,0,0,0,0,-1,573,1289,-8.02893,-1.65473
-644,-265,-8.84399,-1.08032,0,0,0,0,0,0,0,-1,580,1289,-8.84402,1.0803
-637,-265,-8.896,-0.401123,0.00779507,0.0534852,0.00934813,0.0553238,0.00595644,1.37659,0.0350661,0.0476273,587,1289,-8.89597,0.401172
-630,-265,-8.9259,0.32312,0.00476333,0.0418139,0.0113092,0.0449931,0.00158413,1.29675,0.0294816,0.048627,594,1289,-8.92591,-0.3231
-623,-265,-9.29065,1.01257,0.00251568,0.0317554,0.0115872,0.0357904,-0.00151933,1.2357,0.0243825,0.0451941,601,1289,-9.29064,-1.01259
-616,-265,-9.34137,1.35229,0.0010153,0.0234259,0.0108081,0.027789,-0.00334776,1.18712,0.0197368,0.0363068,608,1289,-9.34136,-1.35224
-609,-265,-9.4693,1.89063,0.000553922,0.0167559,0.00971385,0.0213035,-0.0039936,1.13295,0.0157037,0.0172271,615,1289,-9.46928,-1.89058
-602,-265,-9.46967,2.14709,0.000464801,0.0117785,0.00773413,0.0157038,-0.00346044,1.10115,0.0117931,0.0141954,622,1289,-9.46966,-2.14714
-595,-265,-9.47247,2.37,0.00064323,0.00705513,0.00587265,0.0105399,-0.00284157,1.03525,0.00814083,0.0115981,629,1289,-9.47245,-2.37
-588,-265,-9.4765,2.56873,0.00128425,0.00363302,0.00418524,0.00680552,-0.00188825,0.922181,0.0052802,0.0107053,636,1289,-9.47649,-2.56872
-581,-265,-9.46808,2.79688,0.00217074,0.00160817,0.00253415,0.00443917,-0.000660259,0.730125,0.0032023,0.0121344,643,1289,-9.46807,-2.79686
-574,-265,-9.46997,3.03809,0.00310658,-0.000169411,0.00114849,0.0034691,-0.000531931,0.305751,0.00250891,0.0132623,650,1289,-9.46996,-3.03807
-567,-265,-9.51013,3.25513,0.00394093,-0.00189987,3.05713e-05,0.00394109,-0.00190003,0.0052339,0.00344032,0.0194203,657,1289,-9.51015,-3.25515
-560,-265,-9.53473,3.44775,0.00430376,-0.00274327,-0.00115017,0.00448673,-0.00292624,-0.157761,0.00431138,0.0214927,664,1289,-9.53474,-3.44781
-553,-265,-9.44446,3.69836,0.00461817,-0.00294777,-0.00209754,0.00516077,-0.00349037,-0.253134,0.00502568,0.0254626,671,1289,-9.44445,-3.69838
-546,-265,-9.40936,3.93982,0.00460347,-0.00274626,-0.00301219,0.00568023,-0.00382302,-0.343311,0.00552152,0.0354177,678,1289,-9.40937,-3.9398
-539,-265,-9.41974,4.15735,0,0,0,0,0,0,0,-1,685,1289,-9.41975,-4.15739
-532,-265,-8.53998,3.41467,0,0,0,0,0,0,0,-1,692,1289,-8.53996,-3.41473
-525,-265,-12.1317,0.514648,0,0,0,0,0,0,0,-1,699,1289,-12.1317,-0.514634
-518,-265,-14.1621,2.06909,0,0,0,0,0,0,0,-1,706,1289,-14.1621,-2.06906
-511,-265,-13.1678,0.0421143,0.00590359,0.00267103,-0.00721421,0.0116804,-0.00310574,-0.675197,0.00900253,0.0494368,713,1289,-13.1678,-0.0420688
-504,-265,-13.0839,0.0256348,0.00779513,0.00606298,-0.00682335,0.0138071,5.0955e-05,-0.722272,0.00918783,0.0499926,720,1289,-13.0839,-0.0256707
-497,-265,-12.9779,0.0490723,0.0102086,0.0111176,-0.00581217,0.016493,0.00483315,-0.824418,0.00979035,0.0493749,727,1289,-12.9779,-0.0491266
-490,-265,-13.8417,0.702393,0,0,0,0,0,0,0,-1,734,1289,-13.8416,-0.702389
-483,-265,0,0,0,0,0,0,0,0,0,-1,741,1289,0,0
-476,-265,0,0,0,0,0,0,0,0,0,-1,748,1289,0,0
-469,-265,0,0,0,0,0,0,0,0,0,-1,755,1289,0,0
-462,-265,0,0,0,0,0,0,0,0,0,-1,762,1289,0,0
-455,-265,0,0,0,0,0,0,0,0,0,-1,769,1289,0,0
-448,-265,0,0,0,0,0,0,0,0,0,-1,776,1289,0,0
-441,-265,0,0,0,0,0,0,0,0,0,-1,783,1289,0,0
-434,-265,0,0,0,0,0,0,0,0,0,-1,790,1289,0,0
-427,-265,0,0,0,0,0,0,0,0,0,-1,797,1289,0,0
-420,-265,0,0,0,0,0,0,0,0,0,-1,804,1289,0,0
-413,-265,0,0,0,0,0,0,0,0,0,-1,811,1289,0,0
-406,-265,0,0,0,0,0,0,0,0,0,-1,818,1289,0,0
-399,-265,0,0,0,0,0,0,0,0,0,-1,825,1289,0,0
-392,-265,0,0,0,0,0,0,0,0,0,-1,832,1289,0,0
-385,-265,0,0,0,0,0,0,0,0,0,-1,839,1289,0,0
-378,-265,0,0,0,0,0,0,0,0,0,-1,846,1289,0,0
-371,-265,0,0,0,0,0,0,0,0,0,-1,853,1289,0,0
-364,-265,0,0,0,0,0,0,0,0,0,-1,860,1289,0,0
-357,-265,0,0,0,0,0,0,0,0,0,-1,867,1289,0,0
-350,-265,0,0,0,0,0,0,0,0,0,-1,874,1289,0,0
-343,-265,0,0,0,0,0,0,0,0,0,-1,881,1289,0,0
-336,-265,0,0,0,0,0,0,0,0,0,-1,888,1289,0,0
-329,-265,0,0,0,0,0,0,0,0,0,-1,895,1289,0,0
-322,-265,0,0,0,0,0,0,0,0,0,-1,902,1289,0,0
-315,-265,0,0,0,0,0,0,0,0,0,-1,909,1289,0,0
-308,-265,0,0,0,0,0,0,0,0,0,-1,916,1289,0,0
-301,-265,0,0,0,0,0,0,0,0,0,-1,923,1289,0,0
-294,-265,0,0,0,0,0,0,0,0,0,-1,930,1289,0,0
-287,-265,0,0,0,0,0,0,0,0,0,-1,937,1289,0,0
-280,-265,0,0,0,0,0,0,0,0,0,-1,944,1289,0,0
-273,-265,0,0,0,0,0,0,0,0,0,-1,951,1289,0,0
-266,-265,0,0,0,0,0,0,0,0,0,-1,958,1289,0,0
-259,-265,0,0,0,0,0,0,0,0,0,-1,965,1289,0,0
-252,-265,0,0,0,0,0,0,0,0,0,-1,972,1289,0,0
-245,-265,0,0,0,0,0,0,0,0,0,-1,979,1289,0,0
-238,-265,0,0,0,0,0,0,0,0,0,-1,986,1289,0,0
-231,-265,0,0,0,0,0,0,0,0,0,-1,993,1289,0,0
-224,-265,0,0,0,0,0,0,0,0,0,-1,1000,1289,0,0
-217,-265,0,0,0,0,0,0,0,0,0,-1,1007,1289,0,0
-210,-265,0,0,0,0,0,0,0,0,0,-1,1014,1289,0,0
-203,-265,0,0,0,0,0,0,0,0,0,-1,1021,1289,0,0
-196,-265,0,0,0,0,0,0,0,0,0,-1,1028,1289,0,0
-189,-265,0,0,0,0,0,0,0,0,0,-1,1035,1289,0,0
-182,-265,0,0,0,0,0,0,0,0,0,-1,1042,1289,0,0
-175,-265,0,0,0,0,0,0,0,0,0,-1,1049,1289,0,0
-168,-265,0,0,0,0,0,0,0,0,0,-1,1056,1289,0,0
-161,-265,0,0,0,0,0,0,0,0,0,-1,1063,1289,0,0
-154,-265,0,0,0,0,0,0,0,0,0,-1,1070,1289,0,0
-147,-265,0,0,0,0,0,0,0,0,0,-1,1077,1289,0,0
-140,-265,0,0,0,0,0,0,0,0,0,-1,1084,1289,0,0
-133,-265,0,0,0,0,0,0,0,0,0,-1,1091,1289,0,0
-126,-265,0,0,0,0,0,0,0,0,0,-1,1098,1289,0,0
-119,-265,0,0,0,0,0,0,0,0,0,-1,1105,1289,0,0
-112,-265,0,0,0,0,0,0,0,0,0,-1,1112,1289,0,0
-105,-265,0,0,0,0,0,0,0,0,0,-1,1119,1289,0,0
-98,-265,0,0,0,0,0,0,0,0,0,-1,1126,1289,0,0
-91,-265,0,0,0,0,0,0,0,0,0,-1,1133,1289,0,0
-84,-265,0,0,0,0,0,0,0,0,0,-1,1140,1289,0,0
-77,-265,0,0,0,0,0,0,0,0,0,-1,1147,1289,0,0
-70,-265,0,0,0,0,0,0,0,0,0,-1,1154,1289,0,0
-63,-265,0,0,0,0,0,0,0,0,0,-1,1161,1289,0,0
-56,-265,0,0,0,0,0,0,0,0,0,-1,1168,1289,0,0
-49,-265,0,0,0,0,0,0,0,0,0,-1,1175,1289,0,0
-42,-265,0,0,0,0,0,0,0,0,0,-1,1182,1289,0,0
-35,-265,0,0,0,0,0,0,0,0,0,-1,1189,1289,0,0
-28,-265,0,0,0,0,0,0,0,0,0,-1,1196,1289,0,0
-21,-265,0,0,0,0,0,0,0,0,0,-1,1203,1289,0,0
-14,-265,0,0,0,0,0,0,0,0,0,-1,1210,1289,0,0
-7,-265,0,0,0,0,0,0,0,0,0,-1,1217,1289,0,0
0,-265,0,0,0,0,0,0,0,0,0,-1,1224,1289,0,0
7,-265,0,0,0,0,0,0,0,0,0,-1,1231,1289,0,0
14,-265,0,0,0,0,0,0,0,0,0,-1,1238,1289,0,0
21,-265,0,0,0,0,0,0,0,0,0,-1,1245,1289,0,0
28,-265,0,0,0,0,0,0,0,0,0,-1,1252,1289,0,0
35,-265,0,0,0,0,0,0,0,0,0,-1,1259,1289,0,0
42,-265,0,0,0,0,0,0,0,0,0,-1,1266,1289,0,0
49,-265,0,0,0,0,0,0,0,0,0,-1,1273,1289,0,0
56,-265,0,0,0,0,0,0,0,0,0,-1,1280,1289,0,0
63,-265,0,0,0,0,0,0,0,0,0,-1,1287,1289,0,0
70,-265,0,0,0,0,0,0,0,0,0,-1,1294,1289,0,0
77,-265,0,0,0,0,0,0,0,0,0,-1,1301,1289,0,0
84,-265,0,0,0,0,0,0,0,0,0,-1,1308,1289,0,0
91,-265,0,0,0,0,0,0,0,0,0,-1,1315,1289,0,0
98,-265,0,0,0,0,0,0,0,0,0,-1,1322,1289,0,0
105,-265,0,0,0,0,0,0,0,0,0,-1,1329,1289,0,0
112,-265,0,0,0,0,0,0,0,0,0,-1,1336,1289,0,0
119,-265,0,0,0,0,0,0,0,0,0,-1,1343,1289,0,0
126,-265,0,0,0,0,0,0,0,0,0,-1,1350,1289,0,0
133,-265,0,0,0,0,0,0,0,0,0,-1,1357,1289,0,0
140,-265,0,0,0,0,0,0,0,0,0,-1,1364,1289,0,0
147,-265,0,0,0,0,0,0,0,0,0,-1,1371,1289,0,0
154,-265,0,0,0,0,0,0,0,0,0,-1,1378,1289,0,0
161,-265,0,0,0,0,0,0,0,0,0,-1,1385,1289,0,0
168,-265,0,0,0,0,0,0,0,0,0,-1,1392,1289,0,0
175,-265,0,0,0,0,0,0,0,0,0,-1,1399,1289,0,0
182,-265,0,0,0,0,0,0,0,0,0,-1,1406,1289,0,0
189,-265,0,0,0,0,0,0,0,0,0,-1,1413,1289,0,0
196,-265,0,0,0,0,0,0,0,0,0,-1,1420,1289,0,0
203,-265,0,0,0,0,0,0,0,0,0,-1,1427,1289,0,0
210,-265,0,0,0,0,0,0,0,0,0,-1,1434,1289,0,0
217,-265,0,0,0,0,0,0,0,0,0,-1,1441,1289,0,0
224,-265,0,0,0,0,0,0,0,0,0,-1,1448,1289,0,0
231,-265,0,0,0,0,0,0,0,0,0,-1,1455,1289,0,0
238,-265,0,0,0,0,0,0,0,0,0,-1,1462,1289,0,0
245,-265,0,0,0,0,0,0,0,0,0,-1,1469,1289,0,0
252,-265,0,0,0,0,0,0,0,0,0,-1,1476,1289,0,0
259,-265,0,0,0,0,0,0,0,0,0,-1,1483,1289,0,0
266,-265,0,0,0,0,0,0,0,0,0,-1,1490,1289,0,0
273,-265,0,0,0,0,0,0,0,0,0,-1,1497,1289,0,0
280,-265,0,0,0,0,0,0,0,0,0,-1,1504,1289,0,0
287,-265,0,0,0,0,0,0,0,0,0,-1,1511,1289,0,0
294,-265,0,0,0,0,0,0,0,0,0,-1,1518,1289,0,0
301,-265,0,0,0,0,0,0,0,0,0,-1,1525,1289,0,0
308,-265,0,0,0,0,0,0,0,0,0,-1,1532,1289,0,0
315,-265,0,0,0,0,0,0,0,0,0,-1,1539,1289,0,0
322,-265,0,0,0,0,0,0,0,0,0,-1,1546,1289,0,0
329,-265,0,0,0,0,0,0,0,0,0,-1,1553,1289,0,0
336,-265,0,0,0,0,0,0,0,0,0,-1,1560,1289,0,0
343,-265,0,0,0,0,0,0,0,0,0,-1,1567,1289,0,0
350,-265,0,0,0,0,0,0,0,0,0,-1,1574,1289,0,0
357,-265,0,0,0,0,0,0,0,0,0,-1,1581,1289,0,0
364,-265,0,0,0,0,0,0,0,0,0,-1,1588,1289,0,0
371,-265,0,0,0,0,0,0,0,0,0,-1,1595,1289,0,0
378,-265,0,0,0,0,0,0,0,0,0,-1,1602,1289,0,0
385,-265,0,0,0,0,0,0,0,0,0,-1,1609,1289,0,0
392,-265,0,0,0,0,0,0,0,0,0,-1,1616,1289,0,0
399,-265,0,0,0,0,0,0,0,0,0,-1,1623,1289,0,0
406,-265,0,0,0,0,0,0,0,0,0,-1,1630,1289,0,0
413,-265,0,0,0,0,0,0,0,0,0,-1,1637,1289,0,0
420,-265,0,0,0,0,0,0,0,0,0,-1,1644,1289,0,0
427,-265,0,0,0,0,0,0,0,0,0,-1,1651,1289,0,0
434,-265,0,0,0,0,0,0,0,0,0,-1,1658,1289,0,0
441,-265,0,0,0,0,0,0,0,0,0,-1,1665,1289,0,0
448,-265,0,0,0,0,0,0,0,0,0,-1,1672,1289,0,0
455,-265,0,0,0,0,0,0,0,0,0,-1,1679,1289,0,0
462,-265,0,0,0,0,0,0,0,0,0,-1,1686,1289,0,0
469,-265,0,0,0,0,0,0,0,0,0,-1,1693,1289,0,0
476,-265,0,0,0,0,0,0,0,0,0,-1,1700,1289,0,0
483,-265,0,0,0,0,0,0,0,0,0,-1,1707,1289,0,0
490,-265,0,0,0,0,0,0,0,0,0,-1,1714,1289,0,0
497,-265,0,0,0,0,0,0,0,0,0,-1,1721,1289,0,0
504,-265,0,0,0,0,0,0,0,0,0,-1,1728,1289,0,0
511,-265,0,0,0,0,0,0,0,0,0,-1,1735,1289,0,0
518,-265,0,0,0,0,0,0,0,0,0,-1,1742,1289,0,0
525,-265,0,0,0,0,0,0,0,0,0,-1,1749,1289,0,0
532,-265,0,0,0,0,0,0,0,0,0,-1,1756,1289,0,0
539,-265,0,0,0,0,0,0,0,0,0,-1,1763,1289,0,0
546,-265,0,0,0,0,0,0,0,0,0,-1,1770,1289,0,0
553,-265,0,0,0,0,0,0,0,0,0,-1,1777,1289,0,0
560,-265,0,0,0,0,0,0,0,0,0,-1,1784,1289,0,0
567,-265,0,0,0,0,0,0,0,0,0,-1,1791,1289,0,0
574,-265,0,0,0,0,0,0,0,0,0,-1,1798,1289,0,0
581,-265,0,0,0,0,0,0,0,0,0,-1,1805,1289,0,0
588,-265,0,0,0,0,0,0,0,0,0,-1,1812,1289,0,0
595,-265,0,0,0,0,0,0,0,0,0,-1,1819,1289,0,0
602,-265,22.0145,2.88684,0.00395371,0.00344376,-0.00860223,0.0123047,-0.00490726,-0.770582,0.0102387,0.0258689,1826,1289,22.0145,-2.88683
609,-265,22.0432,2.83569,0.00155117,0.0102129,-0.00686785,0.0140014,-0.0022373,-1.06671,0.0101625,0.0267343,1833,1289,22.0432,-2.83564
616,-265,22.0137,2.8468,-0.000395495,0.013687,-0.00466336,0.0150912,-0.00179973,-1.27831,0.0107112,0.0323652,1840,1289,22.0136,-2.84681
623,-265,22.0686,2.71521,-0.00269026,0.0146393,-0.00245887,0.0149815,-0.00303239,-1.43254,0.0111369,0.045604,1847,1289,22.0686,-2.71517
630,-265,21.9491,2.48889,-0.00441885,0.0134987,-0.000710088,0.0135268,-0.00444695,-1.53125,0.0108095,0.0480547,1854,1289,21.9491,-2.4889
637,-265,21.7336,2.28406,-0.00540981,0.0116574,0.000485887,0.0116713,-0.00542363,1.54236,0.0100871,0.0491001,1861,1289,21.7336,-2.28404
644,-265,21.4216,1.94617,0,0,0,0,0,0,0,-1,1868,1289,21.4216,-1.94612
651,-265,21.1619,1.89429,0,0,0,0,0,0,0,-1,1875,1289,21.1619,-1.89423
658,-265,19.0532,1.97144,0,0,0,0,0,0,0,-1,1882,1289,19.0532,-1.97148
665,-265,18.2394,2.09839,0,0,0,0,0,0,0,-1,1889,1289,18.2394,-2.09836
672,-265,17.7728,5.68042,0,0,0,0,0,0,0,-1,1896,1289,17.7729,-5.68047
679,-265,17.7627,5.75659,-0.00491822,0.000942917,0.00271132,0.00200478,-0.00598008,1.19752,0.00479672,0.0386794,1903,1289,17.7627,-5.75657
686,-265,17.7517,5.70776,-0.00378008,-0.000223237,0.00260699,0.00115416,-0.00515747,1.08473,0.00388067,0.0166024,1910,1289,17.7517,-5.70777
693,-265,17.7742,5.51355,-0.00251588,-0.000904194,0.00233801,0.000762955,-0.00418303,0.951357,0.00307472,0.0106834,1917,1289,17.7741,-5.5135
700,-265,17.7848,5.31665,-0.00169776,-0.00111065,0.00169384,0.000314883,-0.00312329,0.8712,0.0021947,0.0107012,1924,1289,17.7848,-5.31668
707,-265,17.8042,5.11609,-0.00143599,-0.00108273,0.000847413,-0.000393731,-0.00212498,0.888145,0.00130536,0.0104767,1931,1289,17.8041,-5.11603
714,-265,17.785,4.93652,-0.00153235,-0.000469619,-0.000211158,-0.000429201,-0.00157277,-1.38167,0.000938743,0.00985326,1938,1289,17.7851,-4.93655
721,-265,17.7666,4.76208,-0.00180077,0.000280075,-0.000871865,0.000597086,-0.00211779,-1.22206,0.00164736,0.00890127,1945,1289,17.7666,-4.76208
728,-265,17.7672,4.59436,-0.00253521,0.00104766,-0.0017903,0.0017889,-0.00327644,-1.17825,0.00296621,0.0123721,1952,1289,17.7672,-4.59432
735,-265,17.7738,4.40491,-0.00377661,0.00148223,-0.0029927,0.00283654,-0.00513092,-1.14583,0.00466316,0.0164592,1959,1289,17.7739,-4.40496
742,-265,17.795,4.21802,-0.00554211,0.00162184,-0.00459708,0.0038677,-0.00778797,-1.11636,0.00685511,0.0211511,1966,1289,17.795,-4.21798
749,-265,17.714,4.17444,-0.00805156,0.00173179,-0.0065556,0.00501962,-0.0113394,-1.10593,0.00967696,0.0409754,1973,1289,17.7139,-4.17447
756,-265,17.4438,3.93689,-0.0110817,0.00162101,-0.00928342,0.00651783,-0.0159785,-1.08541,0.0133656,0.0432825,1980,1289,17.4439,-3.93692
763,-265,17.0371,3.17932,-0.0145714,0.00106717,-0.0131231,0.00852393,-0.0220282,-1.05408,0.0182046,0.0439644,1987,1289,17.0371,-3.17928
770,-265,16.3088,2.7854,0,0,0,0,0,0,0,-1,1994,1289,16.3089,-2.78538
777,-265,15.3627,2.44385,0,0,0,0,0,0,0,-1,2001,1289,15.3626,-2.44379
784,-265,0,0,0,0,0,0,0,0,0,-1,2008,1289,0,0
791,-265,0,0,0,0,0,0,0,0,0,-1,2015,1289,0,0
798,-265,0,0,0,0,0,0,0,0,0,-1,2022,1289,0,0
805,-265,0,0,0,0,0,0,0,0,0,-1,2029,1289,0,0
812,-265,0,0,0,0,0,0,0,0,0,-1,2036,1289,0,0
-700,-272,0,0,0,0,0,0,0,0,0,-1,524,1296,0,0
-693,-272,0,0,0,0,0,0,0,0,0,-1,531,1296,0,0
-686,-272,0,0,0,0,0,0,0,0,0,-1,538,1296,0,0
-679,-272,0,0,0,0,0,0,0,0,0,-1,545,1296,0,0
-672,-272,0,0,0,0,0,0,0,0,0,-1,552,1296,0,0
-665,-272,0,0,0,0,0,0,0,0,0,-1,559,1296,0,0
-658,-272,-8.21265,1.17627,0,0,0,0,0,0,0,-1,566,1296,-8.21267,-1.17628
-651,-272,-8.90027,0.859619,0,0,0,0,0,0,0,-1,573,1296,-8.90029,-0.859647
-644,-272,-9.42505,1.77161,0,0,0,0,0,0,0,-1,580,1296,-9.42506,-1.77158
-637,-272,-8.76099,-0.659302,0,0,0,0,0,0,0,-1,587,1296,-8.761,0.659343
-630,-272,-8.76862,0.119873,0,0,0,0,0,0,0,-1,594,1296,-8.76861,-0.119816
-623,-272,-8.77496,0.75,0.00414241,0.0324018,0.0141518,0.0382701,-0.00172596,1.17771,0.0261078,0.0437282,601,1296,-8.77499,-0.74995
-616,-272,-8.83612,1.45996,0.00239653,0.0239193,0.0126401,0.0297585,-0.00344268,1.13804,0.0210805,0.0361723,608,1296,-8.83612,-1.4599
-609,-272,-9.22748,1.94775,0.00157283,0.0172078,0.0110378,0.0229161,-0.00413547,1.09352,0.0168261,0.020292,615,1296,-9.22751,-1.94779
-602,-272,-9.25281,2.15283,0.00113987,0.0122377,0.00870055,0.0170082,-0.00363061,1.06926,0.0127229,0.0138604,622,1296,-9.2528,-2.15278
-595,-272,-9.26434,2.39319,0.00101273,0.00765692,0.00660304,0.0117265,-0.00305682,1.01847,0.00901111,0.0117941,629,1296,-9.26434,-2.39314
-588,-272,-9.24567,2.60107,0.0012921,0.00430046,0.00470226,0.00773327,-0.00214071,0.940197,0.0059978,0.0102718,636,1296,-9.24568,-2.60105
-581,-272,-9.23761,2.79919,0.00186813,0.0021471,0.0029068,0.00491777,-0.000902534,0.809373,0.00361709,0.00962182,643,1296,-9.23759,-2.79917
-574,-272,-9.26813,3.03748,0.00253343,0.000293608,0.00139655,0.00320365,-0.00037661,0.447446,0.00227173,0.0143742,650,1296,-9.26815,-3.0375
-567,-272,-9.27863,3.25562,0.00321911,-0.00149195,0.000239536,0.00323126,-0.0015041,0.0506711,0.00279392,0.020637,657,1296,-9.27861,-3.25556
-560,-272,-9.30402,3.47266,0.00359561,-0.00236264,-0.000976348,0.00375152,-0.00251855,-0.158349,0.00364328,0.0205091,664,1296,-9.304,-3.47262
-553,-272,-9.2406,3.68408,0.00406624,-0.00262123,-0.00193108,0.00458381,-0.0031388,-0.261864,0.00448459,0.0152069,671,1296,-9.24057,-3.68403
-546,-272,-9.2063,3.91394,0.00425322,-0.00246852,-0.00283461,0.00528899,-0.0035043,-0.35033,0.00511154,0.0219479,678,1296,-9.20627,-3.91397
-539,-272,-9.23871,4.14136,0,0,0,0,0,0,0,-1,685,1296,-9.2387,-4.14136
-532,-272,-8.68652,3.61316,0,0,0,0,0,0,0,-1,692,1296,-8.68652,-3.61314
-525,-272,-12.1011,0.747559,0,0,0,0,0,0,0,-1,699,1296,-12.1011,-0.747606
-518,-272,-12.9409,-0.236328,0,0,0,0,0,0,0,-1,706,1296,-12.9409,0.23627
-511,-272,-12.9195,-0.0841064,0.00736492,0.00216368,-0.00701521,0.012246,-0.00271744,-0.607895,0.00920454,0.0495842,713,1296,-12.9195,0.0841492
-504,-272,-12.9696,-0.0543213,0.0103555,0.00491453,-0.00643008,0.0146169,0.000653109,-0.585274,0.00953436,0.0469993,720,1296,-12.9696,0.0543248
-497,-272,-12.6763,-0.0264893,0.0147021,0.00903019,-0.00507885,0.0176831,0.00604915,-0.53077,0.0103777,0.0467392,727,1296,-12.6763,0.0264758
-490,-272,-12.6295,-0.28772,0,0,0,0,0,0,0,-1,734,1296,-12.6295,0.287773
-483,-272,-13.7029,1.57068,0,0,0,0,0,0,0,-1,741,1296,-13.7029,-1.57068
-476,-272,0,0,0,0,0,0,0,0,0,-1,748,1296,0,0
-469,-272,0,0,0,0,0,0,0,0,0,-1,755,1296,0,0
-462,-272,0,0,0,0,0,0,0,0,0,-1,762,1296,0,0
-455,-272,0,0,0,0,0,0,0,0,0,-1,769,1296,0,0
-448,-272,0,0,0,0,0,0,0,0,0,-1,776,1296,0,0
-441,-272,0,0,0,0,0,0,0,0,0,-1,783,1296,0,0
-434,-272,0,0,0,0,0,0,0,0,0,-1,790,1296,0,0
-427,-272,0,0,0,0,0,0,0,0,0,-1,797,1296,0,0
-420,-272,0,0,0,0,0,0,0,0,0,-1,804,1296,0,0
-413,-272,0,0,0,0,0,0,0,0,0,-1,811,1296,0,0
-406,-272,0,0,0,0,0,0,0,0,0,-1,818,1296,0,0
-399,-272,0,0,0,0,0,0,0,0,0,-1,825,1296,0,0
-392,-272,0,0,0,0,0,0,0,0,0,-1,832,1296,0,0
-385,-272,0,0,0,0,0,0,0,0,0,-1,839,1296,0,0
-378,-272,0,0,0,0,0,0,0,0,0,-1,846,1296,0,0
-371,-272,0,0,0,0,0,0,0,0,0,-1,853,1296,0,0
-364,-272,0,0,0,0,0,0,0,0,0,-1,860,1296,0,0
-357,-272,0,0,0,0,0,0,0,0,0,-1,867,1296,0,0
-350,-272,0,0,0,0,0,0,0,0,0,-1,874,1296,0,0
-343,-272,0,0,0,0,0,0,0,0,0,-1,881,1296,0,0
-336,-272,0,0,0,0,0,0,0,0,0,-1,888,1296,0,0
-329,-272,0,0,0,0,0,0,0,0,0,-1,895,1296,0,0
-322,-272,0,0,0,0,0,0,0,0,0,-1,902,1296,0,0
-315,-272,0,0,0,0,0,0,0,0,0,-1,909,1296,0,0
-308,-272,0,0,0,0,0,0,0,0,0,-1,916,1296,0,0
-301,-272,0,0,0,0,0,0,0,0,0,-1,923,1296,0,0
-294,-272,0,0,0,0,0,0,0,0,0,-1,930,1296,0,0
-287,-272,0,0,0,0,0,0,0,0,0,-1,937,1296,0,0
-280,-272,0,0,0,0,0,0,0,0,0,-1,944,1296,0,0
-273,-272,0,0,0,0,0,0,0,0,0,-1,951,1296,0,0
-266,-272,0,0,0,0,0,0,0,0,0,-1,958,1296,0,0
-259,-272,0,0,0,0,0,0,0,0,0,-1,965,1296,0,0
-252,-272,0,0,0,0,0,0,0,0,0,-1,972,1296,0,0
-245,-272,0,0,0,0,0,0,0,0,0,-1,979,1296,0,0
-238,-272,0,0,0,0,0,0,0,0,0,-1,986,1296,0,0
-231,-272,0,0,0,0,0,0,0,0,0,-1,993,1296,0,0
-224,-272,0,0,0,0,0,0,0,0,0,-1,1000,1296,0,0
-217,-272,0,0,0,0,0,0,0,0,0,-1,1007,1296,0,0
-210,-272,0,0,0,0,0,0,0,0,0,-1,1014,1296,0,0
-203,-272,0,0,0,0,0,0,0,0,0,-1,1021,1296,0,0
-196,-272,0,0,0,0,0,0,0,0,0,-1,1028,1296,0,0
-189,-272,0,0,0,0,0,0,0,0,0,-1,1035,1296,0,0
-182,-272,0,0,0,0,0,0,0,0,0,-1,1042,1296,0,0
-175,-272,0,0,0,0,0,0,0,0,0,-1,1049,1296,0,0
-168,-272,0,0,0,0,0,0,0,0,0,-1,1056,1296,0,0
-161,-272,0,0,0,0,0,0,0,0,0,-1,1063,1296,0,0
-154,-272,0,0,0,0,0,0,0,0,0,-1,1070,1296,0,0
-147,-272,0,0,0,0,0,0,0,0,0,-1,1077,1296,0,0
-140,-272,0,0,0,0,0,0,0,0,0,-1,1084,1296,0,0
-133,-272,0,0,0,0,0,0,0,0,0,-1,1091,1296,0,0
-126,-272,0,0,0,0,0,0,0,0,0,-1,1098,1296,0,0
-119,-272,0,0,0,0,0,0,0,0,0,-1,1105,1296,0,0
-112,-272,0,0,0,0,0,0,0,0,0,-1,1112,1296,0,0
-105,-272,0,0,0,0,0,0,0,0,0,-1,1119,1296,0,0
-98,-272,0,0,0,0,0,0,0,0,0,-1,1126,1296,0,0
-91,-272,0,0,0,0,0,0,0,0,0,-1,1133,1296,0,0
-84,-272,0,0,0,0,0,0,0,0,0,-1,1140,1296,0,0
-77,-272,0,0,0,0,0,0,0,0,0,-1,1147,1296,0,0
-70,-272,0,0,0,0,0,0,0,0,0,-1,1154,1296,0,0
-63,-272,0,0,0,0,0,0,0,0,0,-1,1161,1296,0,0
-56,-272,0,0,0,0,0,0,0,0,0,-1,1168,1296,0,0
-49,-272,0,0,0,0,0,0,0,0,0,-1,1175,1296,0,0
-42,-272,0,0,0,0,0,0,0,0,0,-1,1182,1296,0,0
-35,-272,0,0,0,0,0,0,0,0,0,-1,1189,1296,0,0
-28,-272,0,0,0,0,0,0,0,0,0,-1,1196,1296,0,0
-21,-272,0,0,0,0,0,0,0,0,0,-1,1203,1296,0,0
-14,-272,0,0,0,0,0,0,0,0,0,-1,1210,1296,0,0
-7,-272,0,0,0,0,0,0,0,0,0,-1,1217,1296,0,0
0,-272,0,0,0,0,0,0,0,0,0,-1,1224,1296,0,0
7,-272,0,0,0,0,0,0,0,0,0,-1,1231,1296,0,0
14,-272,0,0,0,0,0,0,0,0,0,-1,1238,1296,0,0
21,-272,0,0,0,0,0,0,0,0,0,-1,1245,1296,0,0
28,-272,0,0,0,0,0,0,0,0,0,-1,1252,1296,0,0
35,-272,0,0,0,0,0,0,0,0,0,-1,1259,1296,0,0
42,-272,0,0,0,0,0,0,0,0,0,-1,1266,1296,0,0
49,-272,0,0,0,0,0,0,0,0,0,-1,1273,1296,0,0
56,-272,0,0,0,0,0,0,0,0,0,-1,1280,1296,0,0
63,-272,0,0,0,0,0,0,0,0,0,-1,1287,1296,0,0
70,-272,0,0,0,0,0,0,0,0,0,-1,1294,1296,0,0
77,-272,0,0,0,0,0,0,0,0,0,-1,1301,1296,0,0
84,-272,0,0,0,0,0,0,0,0,0,-1,1308,1296,0,0
91,-272,0,0,0,0,0,0,0,0,0,-1,1315,1296,0,0
98,-272,0,0,0,0,0,0,0,0,0,-1,1322,1296,0,0
105,-272,0,0,0,0,0,0,0,0,0,-1,1329,1296,0,0
112,-272,0,0,0,0,0,0,0,0,0,-1,1336,1296,0,0
119,-272,0,0,0,0,0,0,0,0,0,-1,1343,1296,0,0
126,-272,0,0,0,0,0,0,0,0,0,-1,1350,1296,0,0
133,-272,0,0,0,0,0,0,0,0,0,-1,1357,1296,0,0
140,-272,0,0,0,0,0,0,0,0,0,-1,1364,1296,0,0
147,-272,0,0,0,0,0,0,0,0,0,-1,1371,1296,0,0
154,-272,0,0,0,0,0,0,0,0,0,-1,1378,1296,0,0
161,-272,0,0,0,0,0,0,0,0,0,-1,1385,1296,0,0
168,-272,0,0,0,0,0,0,0,0,0,-1,1392,1296,0,0
175,-272,0,0,0,0,0,0,0,0,0,-1,1399,1296,0,0
182,-272,0,0,0,0,0,0,0,0,0,-1,1406,1296,0,0
189,-272,0,0,0,0,0,0,0,0,0,-1,1413,1296,0,0
196,-272,0,0,0,0,0,0,0,0,0,-1,1420,1296,0,0
203,-272,0,0,0,0,0,0,0,0,0,-1,1427,1296,0,0
210,-272,0,0,0,0,0,0,0,0,0,-1,1434,1296,0,0
217,-272,0,0,0,0,0,0,0,0,0,-1,1441,1296,0,0
224,-272,0,0,0,0,0,0,0,0,0,-1,1448,1296,0,0
231,-272,0,0,0,0,0,0,0,0,0,-1,1455,1296,0,0
238,-272,0,0,0,0,0,0,0,0,0,-1,1462,1296,0,0
245,-272,0,0,0,0,0,0,0,0,0,-1,1469,1296,0,0
252,-272,0,0,0,0,0,0,0,0,0,-1,1476,1296,0,0
259,-272,0,0,0,0,0,0,0,0,0,-1,1483,1296,0,0
266,-272,0,0,0,0,0,0,0,0,0,-1,1490,1296,0,0
273,-272,0,0,0,0,0,0,0,0,0,-1,1497,1296,0,0
280,-272,0,0,0,0,0,0,0,0,0,-1,1504,1296,0,0
287,-272,0,0,0,0,0,0,0,0,0,-1,1511,1296,0,0
294,-272,0,0,0,0,0,0,0,0,0,-1,1518,1296,0,0
301,-272,0,0,0,0,0,0,0,0,0,-1,1525,1296,0,0
308,-272,0,0,0,0,0,0,0,0,0,-1,1532,1296,0,0
315,-272,0,0,0,0,0,0,0,0,0,-1,1539,1296,0,0
322,-272,0,0,0,0,0,0,0,0,0,-1,1546,1296,0,0
329,-272,0,0,0,0,0,0,0,0,0,-1,1553,1296,0,0
336,-272,0,0,0,0,0,0,0,0,0,-1,1560,1296,0,0
343,-272,0,0,0,0,0,0,0,0,0,-1,1567,1296,0,0
350,-272,0,0,0,0,0,0,0,0,0,-1,1574,1296,0,0
357,-272,0,0,0,0,0,0,0,0,0,-1,1581,1296,0,0
364,-272,0,0,0,0,0,0,0,0,0,-1,1588,1296,0,0
371,-272,0,0,0,0,0,0,0,0,0,-1,1595,1296,0,0
378,-272,0,0,0,0,0,0,0,0,0,-1,1602,1296,0,0
385,-272,0,0,0,0,0,0,0,0,0,-1,1609,1296,0,0
392,-272,0,0,0,0,0,0,0,0,0,-1,1616,1296,0,0
399,-272,0,0,0,0,0,0,0,0,0,-1,1623,1296,0,0
406,-272,0,0,0,0,0,0,0,0,0,-1,1630,1296,0,0
413,-272,0,0,0,0,0,0,0,0,0,-1,1637,1296,0,0
420,-272,0,0,0,0,0,0,0,0,0,-1,1644,1296,0,0
427,-272,0,0,0,0,0,0,0,0,0,-1,1651,1296,0,0
434,-272,0,0,0,0,0,0,0,0,0,-1,1658,1296,0,0
441,-272,0,0,0,0,0,0,0,0,0,-1,1665,1296,0,0
448,-272,0,0,0,0,0,0,0,0,0,-1,1672,1296,0,0
455,-272,0,0,0,0,0,0,0,0,0,-1,1679,1296,0,0
462,-272,0,0,0,0,0,0,0,0,0,-1,1686,1296,0,0
469,-272,0,0,0,0,0,0,0,0,0,-1,1693,1296,0,0
476,-272,0,0,0,0,0,0,0,0,0,-1,1700,1296,0,0
483,-272,0,0,0,0,0,0,0,0,0,-1,1707,1296,0,0
490,-272,0,0,0,0,0,0,0,0,0,-1,1714,1296,0,0
497,-272,0,0,0,0,0,0,0,0,0,-1,1721,1296,0,0
504,-272,0,0,0,0,0,0,0,0,0,-1,1728,1296,0,0
511,-272,0,0,0,0,0,0,0,0,0,-1,1735,1296,0,0
518,-272,0,0,0,0,0,0,0,0,0,-1,1742,1296,0,0
525,-272,0,0,0,0,0,0,0,0,0,-1,1749,1296,0,0
532,-272,0,0,0,0,0,0,0,0,0,-1,1756,1296,0,0
539,-272,0,0,0,0,0,0,0,0,0,-1,1763,1296,0,0
546,-272,0,0,0,0,0,0,0,0,0,-1,1770,1296,0,0
553,-272,0,0,0,0,0,0,0,0,0,-1,1777,1296,0,0
560,-272,0,0,0,0,0,0,0,0,0,-1,1784,1296,0,0
567,-272,0,0,0,0,0,0,0,0,0,-1,1791,1296,0,0
574,-272,0,0,0,0,0,0,0,0,0,-1,1798,1296,0,0
581,-272,0,0,0,0,0,0,0,0,0,-1,1805,1296,0,0
588,-272,0,0,0,0,0,0,0,0,0,-1,1812,1296,0,0
595,-272,0,0,0,0,0,0,0,0,0,-1,1819,1296,0,0
602,-272,22.0249,2.89294,0.00638068,0.00850102,-0.00974323,0.0172416,-0.00235989,-0.83959,0.0123564,0.0308006,1826,1296,22.0249,-2.8929
609,-272,21.9813,2.75452,0.00378824,0.0147415,-0.00692698,0.0180953,0.000434438,-1.1199,0.0119214,0.0368484,1833,1296,21.9814,-2.75452
616,-272,21.7955,2.47839,0.00100371,0.0168356,-0.00401085,0.0177937,4.55827e-05,-1.33631,0.0118473,0.0435875,1840,1296,21.7955,-2.47843
623,-272,21.9769,2.40149,-0.00199616,0.0163771,-0.00150485,0.0164995,-0.0021186,-1.48961,0.0117696,0.0457964,1847,1296,21.977,-2.40144
630,-272,21.9033,2.37402,0,0,0,0,0,0,0,-1,1854,1296,21.9033,-2.37397
637,-272,21.4291,2.31641,0,0,0,0,0,0,0,-1,1861,1296,21.429,-2.31639
644,-272,19.0209,1.93945,0,0,0,0,0,0,0,-1,1868,1296,19.0209,-1.93943
651,-272,18.3567,1.43445,0,0,0,0,0,0,0,-1,1875,1296,18.3567,-1.43446
658,-272,17.7793,1.00098,0,0,0,0,0,0,0,-1,1882,1296,17.7793,-1.00092
665,-272,17.4078,3.08142,0,0,0,0,0,0,0,-1,1889,1296,17.4079,-3.08142
672,-272,17.3718,5.63159,0,0,0,0,0,0,0,-1,1896,1296,17.3718,-5.63164
679,-272,17.5682,5.76672,-0.00596109,0.000597683,0.00361836,0.00220163,-0.00756503,1.15355,0.00591541,0.02909,1903,1296,17.5682,-5.7667
686,-272,17.5815,5.71191,-0.00460515,-0.000553763,0.00335229,0.00133734,-0.00649625,1.05717,0.00483862,0.014709,1910,1296,17.5815,-5.71187
693,-272,17.5803,5.51172,-0.00306137,-0.00104662,0.00283992,0.000959303,-0.00506729,0.955834,0.00373921,0.0123726,1917,1296,17.5803,-5.5117
700,-272,17.5883,5.31689,-0.00182526,-0.000954922,0.00190348,0.0005625,-0.00334268,0.897776,0.00243768,0.0116795,1924,1296,17.5882,-5.31691
707,-272,17.6056,5.11755,-0.00107014,-0.000667513,0.000764457,-7.83064e-05,-0.00165935,0.914146,0.00108107,0.0108209,1931,1296,17.6056,-5.11758
714,-272,17.577,4.93262,-0.000562657,0.000155945,-0.000676624,0.000562749,-0.000969461,-1.02948,0.00089495,0.0103128,1938,1296,17.5771,-4.93258
721,-272,17.5571,4.77307,-0.000161208,0.0011317,-0.00175066,0.00235145,-0.00138096,-0.962264,0.00217906,0.0117141,1945,1296,17.5571,-4.77309
728,-272,17.5708,4.59253,-0.00015534,0.00213212,-0.0030715,0.00426592,-0.00228914,-0.963629,0.0038415,0.0147894,1952,1296,17.5708,-4.59249
735,-272,17.6025,4.40393,-0.000648994,0.00292359,-0.00461348,0.00608452,-0.00380993,-0.970105,0.00576266,0.0138989,1959,1296,17.6025,-4.40392
742,-272,17.6108,4.19519,-0.00164076,0.00360833,-0.00656214,0.00805131,-0.00608374,-0.975631,0.00818719,0.0245851,1966,1296,17.6109,-4.19514
749,-272,17.6068,4.25769,-0.00326018,0.00436318,-0.0090151,0.0103393,-0.0092363,-0.985406,0.011308,0.0439529,1973,1296,17.6068,-4.25763
756,-272,17.4734,4.42798,-0.00545908,0.00511167,-0.0122092,0.0131304,-0.0134778,-0.98967,0.0153627,0.0463711,1980,1296,17.4734,-4.42796
763,-272,17.4948,3.45435,-0.00837905,0.00573936,-0.0163489,0.016488,-0.0191277,-0.989199,0.0205816,0.0464626,1987,1296,17.4947,-3.45438
770,-272,17.3463,2.46082,0,0,0,0,0,0,0,-1,1994,1296,17.3464,-2.4608
777,-272,15.3461,2.01282,0,0,0,0,0,0,0,-1,2001,1296,15.3461,-2.01279
784,-272,0,0,0,0,0,0,0,0,0,-1,2008,1296,0,0
791,-272,0,0,0,0,0,0,0,0,0,-1,2015,1296,0,0
798,-272,0,0,0,0,0,0,0,0,0,-1,2022,1296,0,0
805,-272,0,0,0,0,0,0,0,0,0,-1,2029,1296,0,0
812,-272,0,0,0,0,0,0,0,0,0,-1,2036,1296,0,0
-700,-279,0,0,0,0,0,0,0,0,0,-1,524,1303,0,0
-693,-279,0,0,0,0,0,0,0,0,0,-1,531,1303,0,0
-686,-279,0,0,0,0,0,0,0,0,0,-1,538,1303,0,0
-679,-279,0,0,0,0,0,0,0,0,0,-1,545,1303,0,0
-672,-279,0,0,0,0,0,0,0,0,0,-1,552,1303,0,0
-665,-279,0,0,0,0,0,0,0,0,0,-1,559,1303,0,0
-658,-279,-5.32288,-0.600464,0,0,0,0,0,0,0,-1,566,1303,-5.32287,0.600442
-651,-279,-9.73877,0.120972,0,0,0,0,0,0,0,-1,573,1303,-9.7388,-0.12092
-644,-279,-7.85162,0.356934,0,0,0,0,0,0,0,-1,580,1303,-7.8516,-0.356903
-637,-279,-8.83655,-0.855957,0,0,0,0,0,0,0,-1,587,1303,-8.83657,0.855968
-630,-279,-8.54694,-0.326538,0.007874,0.0443641,0.0181398,0.0518471,0.000390936,1.17954,0.0344352,0.0453269,594,1303,-8.54693,0.326485
-623,-279,-8.32153,0.200439,0.00549296,0.0332325,0.016662,0.041042,-0.00231661,1.1325,0.0281653,0.0424413,601,1303,-8.32151,-0.200446
-616,-279,-9.00134,1.6394,0.00368771,0.0244768,0.0143027,0.0317632,-0.00359867,1.09963,0.0224713,0.0422164,608,1303,-9.00133,-1.63939
-609,-279,-9.1236,1.83362,0.00260694,0.0176088,0.0121011,0.0243451,-0.00412943,1.06284,0.0177673,0.0306036,615,1303,-9.12361,-1.83364
-602,-279,-9.03503,2.13782,0.00184355,0.0125854,0.00943322,0.0180695,-0.00364061,1.04419,0.0134254,0.0126066,622,1303,-9.03504,-2.13785
-595,-279,-9.04773,2.3866,0.00136379,0.00816894,0.00715627,0.0126904,-0.00315763,1.00731,0.00968589,0.0105973,629,1303,-9.04771,-2.38665
-588,-279,-9.03308,2.61292,0.00128078,0.00485707,0.00511985,0.00849205,-0.0023542,0.953405,0.00658784,0.0105094,636,1303,-9.03309,-2.6129
-581,-279,-9.03033,2.80005,0.00150508,0.00258656,0.00320313,0.00529427,-0.00120263,0.869018,0.00399125,0.0117348,643,1303,-9.03031,-2.80004
-574,-279,-9.05884,3.00415,0.00184563,0.000668037,0.0015709,0.00293446,-0.000420785,0.606094,0.00211059,0.0116346,650,1303,-9.05884,-3.00419
-567,-279,-9.05524,3.2262,0.00226511,-0.0011189,0.000361159,0.00230322,-0.00115701,0.105147,0.00203398,0.015274,657,1303,-9.05522,-3.22625
-560,-279,-9.04333,3.47461,0.00248223,-0.00204212,-0.00087201,0.00264448,-0.00220437,-0.183961,0.00280333,0.0161019,664,1303,-9.04334,-3.47466
-553,-279,-9.0365,3.72131,0.0028855,-0.00242721,-0.00173189,0.00340021,-0.00294192,-0.288883,0.00366481,0.0123165,671,1303,-9.03647,-3.72131
-546,-279,-9.04456,3.92517,0.0031478,-0.00238337,-0.00254238,0.00413883,-0.0033744,-0.371686,0.00434524,0.0147081,678,1303,-9.04457,-3.92522
-539,-279,-8.98785,4.11511,0.0033056,-0.00235886,-0.00349828,0.00497443,-0.00402769,-0.445113,0.00520695,0.0480047,685,1303,-8.98787,-4.11514
-532,-279,-8.90912,4.29822,0,0,0,0,0,0,0,-1,692,1303,-8.90914,-4.29822
-525,-279,-11.4238,0.625,0,0,0,0,0,0,0,-1,699,1303,-11.4238,-0.624982
-518,-279,-12.4736,1.16479,0,0,0,0,0,0,0,-1,706,1303,-12.4736,-1.16477
-511,-279,-12.8517,-0.240967,0,0,0,0,0,0,0,-1,713,1303,-12.8518,0.241018
-504,-279,-13.1453,0.0987549,0.00596076,0.00236811,-0.00556505,0.0100122,-0.00168334,-0.629283,0.0073009,0.0497193,720,1303,-13.1453,-0.0987283
-497,-279,-12.71,0.115967,0.00901032,0.00494565,-0.00386887,0.0113482,0.0026078,-0.543555,0.00686336,0.0433814,727,1303,-12.71,-0.116015
-490,-279,-12.4471,-0.173096,0,0,0,0,0,0,0,-1,734,1303,-12.4471,0.173109
-483,-279,-13.6173,2.46045,0,0,0,0,0,0,0,-1,741,1303,-13.6173,-2.4605
-476,-279,0,0,0,0,0,0,0,0,0,-1,748,1303,0,0
-469,-279,0,0,0,0,0,0,0,0,0,-1,755,1303,0,0
-462,-279,0,0,0,0,0,0,0,0,0,-1,762,1303,0,0
-455,-279,0,0,0,0,0,0,0,0,0,-1,769,1303,0,0
-448,-279,0,0,0,0,0,0,0,0,0,-1,776,1303,0,0
-441,-279,0,0,0,0,0,0,0,0,0,-1,783,1303,0,0
-434,-279,0,0,0,0,0,0,0,0,0,-1,790,1303,0,0
-427,-279,0,0,0,0,0,0,0,0,0,-1,797,1303,0,0
-420,-279,0,0,0,0,0,0,0,0,0,-1,804,1303,0,0
-413,-279,0,0,0,0,0,0,0,0,0,-1,811,1303,0,0
-406,-279,0,0,0,0,0,0,0,0,0,-1,818,1303,0,0
-399,-279,0,0,0,0,0,0,0,0,0,-1,825,1303,0,0
-392,-279,0,0,0,0,0,0,0,0,0,-1,832,1303,0,0
-385,-279,0,0,0,0,0,0,0,0,0,-1,839,1303,0,0
-378,-279,0,0,0,0,0,0,0,0,0,-1,846,1303,0,0
-371,-279,0,0,0,0,0,0,0,0,0,-1,853,1303,0,0
-364,-279,0,0,0,0,0,0,0,0,0,-1,860,1303,0,0
-357,-279,0,0,0,0,0,0,0,0,0,-1,867,1303,0,0
-350,-279,0,0,0,0,0,0,0,0,0,-1,874,1303,0,0
-343,-279,0,0,0,0,0,0,0,0,0,-1,881,1303,0,0
-336,-279,0,0,0,0,0,0,0,0,0,-1,888,1303,0,0
-329,-279,0,0,0,0,0,0,0,0,0,-1,895,1303,0,0
-322,-279,0,0,0,0,0,0,0,0,0,-1,902,1303,0,0
-315,-279,0,0,0,0,0,0,0,0,0,-1,909,1303,0,0
-308,-279,0,0,0,0,0,0,0,0,0,-1,916,1303,0,0
-301,-279,0,0,0,0,0,0,0,0,0,-1,923,1303,0,0
-294,-279,0,0,0,0,0,0,0,0,0,-1,930,1303,0,0
-287,-279,0,0,0,0,0,0,0,0,0,-1,937,1303,0,0
-280,-279,0,0,0,0,0,0,0,0,0,-1,944,1303,0,0
-273,-279,0,0,0,0,0,0,0,0,0,-1,951,1303,0,0
-266,-279,0,0,0,0,0,0,0,0,0,-1,958,1303,0,0
-259,-279,0,0,0,0,0,0,0,0,0,-1,965,1303,0,0
-252,-279,0,0,0,0,0,0,0,0,0,-1,972,1303,0,0
-245,-279,0,0,0,0,0,0,0,0,0,-1,979,1303,0,0
-238,-279,0,0,0,0,0,0,0,0,0,-1,986,1303,0,0
-231,-279,0,0,0,0,0,0,0,0,0,-1,993,1303,0,0
-224,-279,0,0,0,0,0,0,0,0,0,-1,1000,1303,0,0
-217,-279,0,0,0,0,0,0,0,0,0,-1,1007,1303,0,0
-210,-279,0,0,0,0,0,0,0,0,0,-1,1014,1303,0,0
-203,-279,0,0,0,0,0,0,0,0,0,-1,1021,1303,0,0
-196,-279,0,0,0,0,0,0,0,0,0,-1,1028,1303,0,0
-189,-279,0,0,0,0,0,0,0,0,0,-1,1035,1303,0,0
-182,-279,0,0,0,0,0,0,0,0,0,-1,1042,1303,0,0
-175,-279,0,0,0,0,0,0,0,0,0,-1,1049,1303,0,0
-168,-279,0,0,0,0,0,0,0,0,0,-1,1056,1303,0,0
-161,-279,0,0,0,0,0,0,0,0,0,-1,1063,1303,0,0
-154,-279,0,0,0,0,0,0,0,0,0,-1,1070,1303,0,0
-147,-279,0,0,0,0,0,0,0,0,0,-1,1077,1303,0,0
-140,-279,0,0,0,0,0,0,0,0,0,-1,1084,1303,0,0
-133,-279,0,0,0,0,0,0,0,0,0,-1,1091,1303,0,0
-126,-279,0,0,0,0,0,0,0,0,0,-1,1098,1303,0,0
-119,-279,0,0,0,0,0,0,0,0,0,-1,1105,1303,0,0
-112,-279,0,0,0,0,0,0,0,0,0,-1,1112,1303,0,0
-105,-279,0,0,0,0,0,0,0,0,0,-1,1119,1303,0,0
-98,-279,0,0,0,0,0,0,0,0,0,-1,1126,1303,0,0
-91,-279,0,0,0,0,0,0,0,0,0,-1,1133,1303,0,0
-84,-279,0,0,0,0,0,0,0,0,0,-1,1140,1303,0,0
-77,-279,0,0,0,0,0,0,0,0,0,-1,1147,1303,0,0
-70,-279,0,0,0,0,0,0,0,0,0,-1,1154,1303,0,0
-63,-279,0,0,0,0,0,0,0,0,0,-1,1161,1303,0,0
-56,-279,0,0,0,0,0,0,0,0,0,-1,1168,1303,0,0
-49,-279,0,0,0,0,0,0,0,0,0,-1,1175,1303,0,0
-42,-279,0,0,0,0,0,0,0,0,0,-1,1182,1303,0,0
-35,-279,0,0,0,0,0,0,0,0,0,-1,1189,1303,0,0
-28,-279,0,0,0,0,0,0,0,0,0,-1,1196,1303,0,0
-21,-279,0,0,0,0,0,0,0,0,0,-1,1203,1303,0,0
-14,-279,0,0,0,0,0,0,0,0,0,-1,1210,1303,0,0
-7,-279,0,0,0,0,0,0,0,0,0,-1,1217,1303,0,0
0,-279,0,0,0,0,0,0,0,0,0,-1,1224,1303,0,0
7,-279,0,0,0,0,0,0,0,0,0,-1,1231,1303,0,0
14,-279,0,0,0,0,0,0,0,0,0,-1,1238,1303,0,0
21,-279,0,0,0,0,0,0,0,0,0,-1,1245,1303,0,0
28,-279,0,0,0,0,0,0,0,0,0,-1,1252,1303,0,0
35,-279,0,0,0,0,0,0,0,0,0,-1,1259,1303,0,0
42,-279,0,0,0,0,0,0,0,0,0,-1,1266,1303,0,0
49,-279,0,0,0,0,0,0,0,0,0,-1,1273,1303,0,0
56,-279,0,0,0,0,0,0,0,0,0,-1,1280,1303,0,0
63,-279,0,0,0,0,0,0,0,0,0,-1,1287,1303,0,0
70,-279,0,0,0,0,0,0,0,0,0,-1,1294,1303,0,0
77,-279,0,0,0,0,0,0,0,0,0,-1,1301,1303,0,0
84,-279,0,0,0,0,0,0,0,0,0,-1,1308,1303,0,0
91,-279,0,0,0,0,0,0,0,0,0,-1,1315,1303,0,0
98,-279,0,0,0,0,0,0,0,0,0,-1,1322,1303,0,0
105,-279,0,0,0,0,0,0,0,0,0,-1,1329,1303,0,0
112,-279,0,0,0,0,0,0,0,0,0,-1,1336,1303,0,0
119,-279,0,0,0,0,0,0,0,0,0,-1,1343,1303,0,0
126,-279,0,0,0,0,0,0,0,0,0,-1,1350,1303,0,0
133,-279,0,0,0,0,0,0,0,0,0,-1,1357,1303,0,0
140,-279,0,0,0,0,0,0,0,0,0,-1,1364,1303,0,0
147,-279,0,0,0,0,0,0,0,0,0,-1,1371,1303,0,0
154,-279,0,0,0,0,0,0,0,0,0,-1,1378,1303,0,0
161,-279,0,0,0,0,0,0,0,0,0,-1,1385,1303,0,0
168,-279,0,0,0,0,0,0,0,0,0,-1,1392,1303,0,0
175,-279,0,0,0,0,0,0,0,0,0,-1,1399,1303,0,0
182,-279,0,0,0,0,0,0,0,0,0,-1,1406,1303,0,0
189,-279,0,0,0,0,0,0,0,0,0,-1,1413,1303,0,0
196,-279,0,0,0,0,0,0,0,0,0,-1,1420,1303,0,0
203,-279,0,0,0,0,0,0,0,0,0,-1,1427,1303,0,0
210,-279,0,0,0,0,0,0,0,0,0,-1,1434,1303,0,0
217,-279,0,0,0,0,0,0,0,0,0,-1,1441,1303,0,0
224,-279,0,0,0,0,0,0,0,0,0,-1,1448,1303,0,0
231,-279,0,0,0,0,0,0,0,0,0,-1,1455,1303,0,0
238,-279,0,0,0,0,0,0,0,0,0,-1,1462,1303,0,0
245,-279,0,0,0,0,0,0,0,0,0,-1,1469,1303,0,0
252,-279,0,0,0,0,0,0,0,0,0,-1,1476,1303,0,0
259,-279,0,0,0,0,0,0,0,0,0,-1,1483,1303,0,0
266,-279,0,0,0,0,0,0,0,0,0,-1,1490,1303,0,0
273,-279,0,0,0,0,0,0,0,0,0,-1,1497,1303,0,0
280,-279,0,0,0,0,0,0,0,0,0,-1,1504,1303,0,0
287,-279,0,0,0,0,0,0,0,0,0,-1,1511,1303,0,0
294,-279,0,0,0,0,0,0,0,0,0,-1,1518,1303,0,0
301,-279,0,0,0,0,0,0,0,0,0,-1,1525,1303,0,0
308,-279,0,0,0,0,0,0,0,0,0,-1,1532,1303,0,0
315,-279,0,0,0,0,0,0,0,0,0,-1,1539,1303,0,0
322,-279,0,0,0,0,0,0,0,0,0,-1,1546,1303,0,0
329,-279,0,0,0,0,0,0,0,0,0,-1,1553,1303,0,0
336,-279,0,0,0,0,0,0,0,0,0,-1,1560,1303,0,0
343,-279,0,0,0,0,0,0,0,0,0,-1,1567,1303,0,0
350,-279,0,0,0,0,0,0,0,0,0,-1,1574,1303,0,0
357,-279,0,0,0,0,0,0,0,0,0,-1,1581,1303,0,0
364,-279,0,0,0,0,0,0,0,0,0,-1,1588,1303,0,0
371,-279,0,0,0,0,0,0,0,0,0,-1,1595,1303,0,0
378,-279,0,0,0,0,0,0,0,0,0,-1,1602,1303,0,0
385,-279,0,0,0,0,0,0,0,0,0,-1,1609,1303,0,0
392,-279,0,0,0,0,0,0,0,0,0,-1,1616,1303,0,0
399,-279,0,0,0,0,0,0,0,0,0,-1,1623,1303,0,0
406,-279,0,0,0,0,0,0,0,0,0,-1,1630,1303,0,0
413,-279,0,0,0,0,0,0,0,0,0,-1,1637,1303,0,0
420,-279,0,0,0,0,0,0,0,0,0,-1,1644,1303,0,0
427,-279,0,0,0,0,0,0,0,0,0,-1,1651,1303,0,0
434,-279,0,0,0,0,0,0,0,0,0,-1,1658,1303,0,0
441,-279,0,0,0,0,0,0,0,0,0,-1,1665,1303,0,0
448,-279,0,0,0,0,0,0,0,0,0,-1,1672,1303,0,0
455,-279,0,0,0,0,0,0,0,0,0,-1,1679,1303,0,0
462,-279,0,0,0,0,0,0,0,0,0,-1,1686,1303,0,0
469,-279,0,0,0,0,0,0,0,0,0,-1,1693,1303,0,0
476,-279,0,0,0,0,0,0,0,0,0,-1,1700,1303,0,0
483,-279,0,0,0,0,0,0,0,0,0,-1,1707,1303,0,0
490,-279,0,0,0,0,0,0,0,0,0,-1,1714,1303,0,0
497,-279,0,0,0,0,0,0,0,0,0,-1,1721,1303,0,0
504,-279,0,0,0,0,0,0,0,0,0,-1,1728,1303,0,0
511,-279,0,0,0,0,0,0,0,0,0,-1,1735,1303,0,0
518,-279,0,0,0,0,0,0,0,0,0,-1,1742,1303,0,0
525,-279,0,0,0,0,0,0,0,0,0,-1,1749,1303,0,0
532,-279,0,0,0,0,0,0,0,0,0,-1,1756,1303,0,0
539,-279,0,0,0,0,0,0,0,0,0,-1,1763,1303,0,0
546,-279,0,0,0,0,0,0,0,0,0,-1,1770,1303,0,0
553,-279,0,0,0,0,0,0,0,0,0,-1,1777,1303,0,0
560,-279,0,0,0,0,0,0,0,0,0,-1,1784,1303,0,0
567,-279,0,0,0,0,0,0,0,0,0,-1,1791,1303,0,0
574,-279,0,0,0,0,0,0,0,0,0,-1,1798,1303,0,0
581,-279,0,0,0,0,0,0,0,0,0,-1,1805,1303,0,0
588,-279,0,0,0,0,0,0,0,0,0,-1,1812,1303,0,0
595,-279,0,0,0,0,0,0,0,0,0,-1,1819,1303,0,0
602,-279,22.1188,2.86914,0.00896614,0.0128832,-0.00982482,0.0209428,0.000906556,-0.883782,0.0136697,0.0412623,1826,1303,22.1188,-2.86911
609,-279,22.0249,2.6709,0.00589867,0.0181,-0.00586331,0.0204608,0.00353786,-1.18802,0.0126275,0.0482725,1833,1303,22.0249,-2.67084
616,-279,21.9729,2.33704,0.0023373,0.0187262,-0.00253411,0.0191091,0.00195441,-1.42084,0.0121405,0.0449239,1840,1303,21.9729,-2.33699
623,-279,22.0029,2.17188,-0.00115737,0.0172094,-8.35991e-05,0.0172097,-0.00115775,-1.56624,0.0118779,0.0463797,1847,1303,22.003,-2.17183
630,-279,22.0537,2.11792,-0.00362295,0.014849,0.00147554,0.0149661,-0.00374008,1.49159,0.0114299,0.0454925,1854,1303,22.0538,-2.11793
637,-279,22.1031,2.01172,0,0,0,0,0,0,0,-1,1861,1303,22.1031,-2.01174
644,-279,18.9938,2.15161,0,0,0,0,0,0,0,-1,1868,1303,18.9938,-2.15162
651,-279,17.864,1.4137,0,0,0,0,0,0,0,-1,1875,1303,17.864,-1.41372
658,-279,18.4926,6.76965,0,0,0,0,0,0,0,-1,1882,1303,18.4925,-6.7697
665,-279,18.2816,6.38855,0,0,0,0,0,0,0,-1,1889,1303,18.2816,-6.38854
672,-279,17.7004,5.83972,-0.00751431,0.00237133,0.00449999,0.00411293,-0.0092559,1.20153,0.00790659,0.0468778,1896,1303,17.7005,-5.83969
679,-279,17.4224,5.93201,-0.00703134,0.0004689,0.00441995,0.00251528,-0.00907772,1.1372,0.00704161,0.0303898,1903,1303,17.4224,-5.93196
686,-279,17.408,5.72095,-0.00544424,-0.000615025,0.00393441,0.00158663,-0.0076459,1.06062,0.00570023,0.020608,1910,1303,17.408,-5.72096
693,-279,17.3947,5.52258,-0.00358702,-0.000908305,0.00314399,0.00116973,-0.00566506,0.986759,0.00422099,0.0166412,1917,1303,17.3947,-5.52255
700,-279,17.3997,5.32495,-0.00185491,-0.000527661,0.00191983,0.000840003,-0.00322257,0.951804,0.00247634,0.0113914,1924,1303,17.3997,-5.32498
707,-279,17.3831,5.13135,-0.000519147,1.83855e-06,0.000528891,0.000330907,-0.000848215,1.01422,0.000702266,0.00867056,1931,1303,17.383,-5.13138
714,-279,17.3516,4.94958,0.000679022,0.00103143,-0.00122175,0.00208961,-0.000379164,-0.857015,0.00153515,0.00939473,1938,1303,17.3516,-4.94961
721,-279,17.3555,4.76917,0.0018614,0.00225634,-0.00264414,0.00471038,-0.000592635,-0.82267,0.00335529,0.0123309,1945,1303,17.3554,-4.76912
728,-279,17.391,4.57324,0.00275939,0.00355142,-0.00432697,0.00750046,-0.00118965,-0.831033,0.00544039,0.0142595,1952,1303,17.3909,-4.57323
735,-279,17.4122,4.40417,0.00324092,0.00481522,-0.00623543,0.010313,-0.00225685,-0.848185,0.0077381,0.012667,1959,1303,17.4122,-4.40419
742,-279,17.4025,4.21619,0.00335102,0.00620206,-0.00858977,0.0134838,-0.00393071,-0.867626,0.0105465,0.0245077,1966,1303,17.4025,-4.21613
749,-279,17.4434,4.52405,0,0,0,0,0,0,0,-1,1973,1303,17.4434,-4.52408
756,-279,17.5671,4.9989,0,0,0,0,0,0,0,-1,1980,1303,17.5671,-4.99891
763,-279,17.8236,3.82422,0,0,0,0,0,0,0,-1,1987,1303,17.8237,-3.82416
770,-279,18.4252,3.7168,0,0,0,0,0,0,0,-1,1994,1303,18.4251,-3.71675
777,-279,15.3864,1.55225,0,0,0,0,0,0,0,-1,2001,1303,15.3863,-1.55222
784,-279,0,0,0,0,0,0,0,0,0,-1,2008,1303,0,0
791,-279,0,0,0,0,0,0,0,0,0,-1,2015,1303,0,0
798,-279,0,0,0,0,0,0,0,0,0,-1,2022,1303,0,0
805,-279,0,0,0,0,0,0,0,0,0,-1,2029,1303,0,0
812,-279,0,0,0,0,0,0,0,0,0,-1,2036,1303,0,0
-700,-286,0,0,0,0,0,0,0,0,0,-1,524,1310,0,0
-693,-286,0,0,0,0,0,0,0,0,0,-1,531,1310,0,0
-686,-286,0,0,0,0,0,0,0,0,0,-1,538,1310,0,0
-679,-286,0,0,0,0,0,0,0,0,0,-1,545,1310,0,0
-672,-286,0,0,0,0,0,0,0,0,0,-1,552,1310,0,0
-665,-286,0,0,0,0,0,0,0,0,0,-1,559,1310,0,0
-658,-286,-5.61487,-0.955811,0,0,0,0,0,0,0,-1,566,1310,-5.61486,0.955829
-651,-286,-5.48895,-1.53699,0,0,0,0,0,0,0,-1,573,1310,-5.48894,1.53696
-644,-286,-11.061,0.129028,0,0,0,0,0,0,0,-1,580,1310,-11.061,-0.129077
-637,-286,-10.3266,0.065918,0,0,0,0,0,0,0,-1,587,1310,-10.3266,-0.0659509
-630,-286,-9.76904,0.276978,0,0,0,0,0,0,0,-1,594,1310,-9.76903,-0.276931
-623,-286,-9.22156,0.411255,0,0,0,0,0,0,0,-1,601,1310,-9.22155,-0.411217
-616,-286,-9.03699,0.965698,0.00558498,0.0245747,0.0151731,0.0329788,-0.00281918,1.06497,0.0229833,0.045992,608,1310,-9.03698,-0.965678
-609,-286,-8.9007,1.53674,0.00394393,0.0176883,0.0125439,0.0251192,-0.00348692,1.03599,0.0180212,0.0357277,615,1310,-8.90071,-1.53668
-602,-286,-8.82281,2.10034,0.00267289,0.0126835,0.00968062,0.0185762,-0.00321985,1.02399,0.0135852,0.0142401,622,1310,-8.82281,-2.10029
-595,-286,-8.83344,2.36328,0.00181835,0.00847254,0.00732196,0.0131879,-0.00289698,0.998652,0.00989989,0.0108471,629,1310,-8.83346,-2.3633
-588,-286,-8.81647,2.58643,0.00141189,0.00526621,0.00523871,0.00892099,-0.00224289,0.96165,0.00681904,0.0121036,636,1310,-8.81647,-2.58637
-581,-286,-8.79736,2.78149,0.00133896,0.00295933,0.00329858,0.00554576,-0.00124747,0.905823,0.00417558,0.0133364,643,1310,-8.79734,-2.78148
-574,-286,-8.82452,2.99182,0.00139864,0.00102229,0.00161221,0.00283362,-0.000412686,0.727302,0.0020406,0.0131294,650,1310,-8.82453,-2.99179
-567,-286,-8.83466,3.23669,0.00159182,-0.000706756,0.00036645,0.00164882,-0.000763764,0.15433,0.00142381,0.0128006,657,1310,-8.83466,-3.23666
-560,-286,-8.82312,3.48352,0.00162009,-0.00169066,-0.000880643,0.00183977,-0.00191033,-0.244455,0.00216525,0.0133431,664,1310,-8.8231,-3.48346
-553,-286,-8.8067,3.72522,0.00180064,-0.0022546,-0.00164536,0.00238424,-0.00283819,-0.340848,0.00301897,0.0102615,671,1310,-8.80671,-3.72516
-546,-286,-8.79993,3.95691,0.00201117,-0.00237416,-0.00236366,0.00304258,-0.00340558,-0.411455,0.00372481,0.0126369,678,1310,-8.79991,-3.95688
-539,-286,-8.73401,4.18945,0.0019896,-0.00249081,-0.00319384,0.00365057,-0.00415177,-0.479561,0.00450778,0.0333361,685,1310,-8.73398,-4.18939
-532,-286,-8.59467,4.42712,0,0,0,0,0,0,0,-1,692,1310,-8.59465,-4.42711
-525,-286,-11.1047,1.33667,0,0,0,0,0,0,0,-1,699,1310,-11.1047,-1.33665
-518,-286,-12.2775,1.7124,0,0,0,0,0,0,0,-1,706,1310,-12.2775,-1.71238
-511,-286,-13.8542,0.0738525,0,0,0,0,0,0,0,-1,713,1310,-13.8543,-0.0738266
-504,-286,-13.1345,0.295532,0,0,0,0,0,0,0,-1,720,1310,-13.1344,-0.295488
-497,-286,-12.4146,0.51709,0,0,0,0,0,0,0,-1,727,1310,-12.4146,-0.51715
-490,-286,-13.5369,3.21143,0,0,0,0,0,0,0,-1,734,1310,-13.5369,-3.21137
-483,-286,-12.438,1.09753,0,0,0,0,0,0,0,-1,741,1310,-12.4381,-1.09753
-476,-286,-13.0179,1.65625,0,0,0,0,0,0,0,-1,748,1310,-13.0179,-1.65628
-469,-286,0,0,0,0,0,0,0,0,0,-1,755,1310,0,0
-462,-286,0,0,0,0,0,0,0,0,0,-1,762,1310,0,0
-455,-286,0,0,0,0,0,0,0,0,0,-1,769,1310,0,0
-448,-286,0,0,0,0,0,0,0,0,0,-1,776,1310,0,0
-441,-286,0,0,0,0,0,0,0,0,0,-1,783,1310,0,0
-434,-286,0,0,0,0,0,0,0,0,0,-1,790,1310,0,0
-427,-286,0,0,0,0,0,0,0,0,0,-1,797,1310,0,0
-420,-286,0,0,0,0,0,0,0,0,0,-1,804,1310,0,0
-413,-286,0,0,0,0,0,0,0,0,0,-1,811,1310,0,0
-406,-286,0,0,0,0,0,0,0,0,0,-1,818,1310,0,0
-399,-286,0,0,0,0,0,0,0,0,0,-1,825,1310,0,0
-392,-286,0,0,0,0,0,0,0,0,0,-1,832,1310,0,0
-385,-286,0,0,0,0,0,0,0,0,0,-1,839,1310,0,0
-378,-286,0,0,0,0,0,0,0,0,0,-1,846,1310,0,0
-371,-286,0,0,0,0,0,0,0,0,0,-1,853,1310,0,0
-364,-286,0,0,0,0,0,0,0,0,0,-1,860,1310,0,0
-357,-286,0,0,0,0,0,0,0,0,0,-1,867,1310,0,0
-350,-286,0,0,0,0,0,0,0,0,0,-1,874,1310,0,0
-343,-286,0,0,0,0,0,0,0,0,0,-1,881,1310,0,0
-336,-286,0,0,0,0,0,0,0,0,0,-1,888,1310,0,0
-329,-286,0,0,0,0,0,0,0,0,0,-1,895,1310,0,0
-322,-286,0,0,0,0,0,0,0,0,0,-1,902,1310,0,0
-315,-286,0,0,0,0,0,0,0,0,0,-1,909,1310,0,0
-308,-286,0,0,0,0,0,0,0,0,0,-1,916,1310,0,0
-301,-286,0,0,0,0,0,0,0,0,0,-1,923,1310,0,0
-294,-286,0,0,0,0,0,0,0,0,0,-1,930,1310,0,0
-287,-286,0,0,0,0,0,0,0,0,0,-1,937,1310,0,0
-280,-286,0,0,0,0,0,0,0,0,0,-1,944,1310,0,0
-273,-286,0,0,0,0,0,0,0,0,0,-1,951,1310,0,0
-266,-286,0,0,0,0,0,0,0,0,0,-1,958,1310,0,0
-259,-286,0,0,0,0,0,0,0,0,0,-1,965,1310,0,0
-252,-286,0,0,0,0,0,0,0,0,0,-1,972,1310,0,0
-245,-286,0,0,0,0,0,0,0,0,0,-1,979,1310,0,0
-238,-286,0,0,0,0,0,0,0,0,0,-1,986,1310,0,0
-231,-286,0,0,0,0,0,0,0,0,0,-1,993,1310,0,0
-224,-286,0,0,0,0,0,0,0,0,0,-1,1000,1310,0,0
-217,-286,0,0,0,0,0,0,0,0,0,-1,1007,1310,0,0
-210,-286,0,0,0,0,0,0,0,0,0,-1,1014,1310,0,0
-203,-286,0,0,0,0,0,0,0,0,0,-1,1021,1310,0,0
-196,-286,0,0,0,0,0,0,0,0,0,-1,1028,1310,0,0
-189,-286,0,0,0,0,0,0,0,0,0,-1,1035,1310,0,0
-182,-286,0,0,0,0,0,0,0,0,0,-1,1042,1310,0,0
-175,-286,0,0,0,0,0,0,0,0,0,-1,1049,1310,0,0
-168,-286,0,0,0,0,0,0,0,0,0,-1,1056,1310,0,0
-161,-286,0,0,0,0,0,0,0,0,0,-1,1063,1310,0,0
-154,-286,0,0,0,0,0,0,0,0,0,-1,1070,1310,0,0
-147,-286,0,0,0,0,0,0,0,0,0,-1,1077,1310,0,0
-140,-286,0,0,0,0,0,0,0,0,0,-1,1084,1310,0,0
-133,-286,0,0,0,0,0,0,0,0,0,-1,1091,1310,0,0
-126,-286,0,0,0,0,0,0,0,0,0,-1,1098,1310,0,0
-119,-286,0,0,0,0,0,0,0,0,0,-1,1105,1310,0,0
-112,-286,0,0,0,0,0,0,0,0,0,-1,1112,1310,0,0
-105,-286,0,0,0,0,0,0,0,0,0,-1,1119,1310,0,0
-98,-286,0,0,0,0,0,0,0,0,0,-1,1126,1310,0,0
-91,-286,0,0,0,0,0,0,0,0,0,-1,1133,1310,0,0
-84,-286,0,0,0,0,0,0,0,0,0,-1,1140,1310,0,0
-77,-286,0,0,0,0,0,0,0,0,0,-1,1147,1310,0,0
-70,-286,0,0,0,0,0,0,0,0,0,-1,1154,1310,0,0
-63,-286,0,0,0,0,0,0,0,0,0,-1,1161,1310,0,0
-56,-286,0,0,0,0,0,0,0,0,0,-1,1168,1310,0,0
-49,-286,0,0,0,0,0,0,0,0,0,-1,1175,1310,0,0
-42,-286,0,0,0,0,0,0,0,0,0,-1,1182,1310,0,0
-35,-286,0,0,0,0,0,0,0,0,0,-1,1189,1310,0,0
-28,-286,0,0,0,0,0,0,0,0,0,-1,1196,1310,0,0
-21,-286,0,0,0,0,0,0,0,0,0,-1,1203,1310,0,0
-14,-286,0,0,0,0,0,0,0,0,0,-1,1210,1310,0,0
-7,-286,0,0,0,0,0,0,0,0,0,-1,1217,1310,0,0
0,-286,0,0,0,0,0,0,0,0,0,-1,1224,1310,0,0
7,-286,0,0,0,0,0,0,0,0,0,-1,1231,1310,0,0
14,-286,0,0,0,0,0,0,0,0,0,-1,1238,1310,0,0
21,-286,0,0,0,0,0,0,0,0,0,-1,1245,1310,0,0
28,-286,0,0,0,0,0,0,0,0,0,-1,1252,1310,0,0
35,-286,0,0,0,0,0,0,0,0,0,-1,1259,1310,0,0
42,-286,0,0,0,0,0,0,0,0,0,-1,1266,1310,0,0
49,-286,0,0,0,0,0,0,0,0,0,-1,1273,1310,0,0
56,-286,0,0,0,0,0,0,0,0,0,-1,1280,1310,0,0
63,-286,0,0,0,0,0,0,0,0,0,-1,1287,1310,0,0
70,-286,0,0,0,0,0,0,0,0,0,-1,1294,1310,0,0
77,-286,0,0,0,0,0,0,0,0,0,-1,1301,1310,0,0
84,-286,0,0,0,0,0,0,0,0,0,-1,1308,1310,0,0
91,-286,0,0,0,0,0,0,0,0,0,-1,1315,1310,0,0
98,-286,0,0,0,0,0,0,0,0,0,-1,1322,1310,0,0
105,-286,0,0,0,0,0,0,0,0,0,-1,1329,1310,0,0
112,-286,0,0,0,0,0,0,0,0,0,-1,1336,1310,0,0
119,-286,0,0,0,0,0,0,0,0,0,-1,1343,1310,0,0
126,-286,0,0,0,0,0,0,0,0,0,-1,1350,1310,0,0
133,-286,0,0,0,0,0,0,0,0,0,-1,1357,1310,0,0
140,-286,0,0,0,0,0,0,0,0,0,-1,1364,1310,0,0
147,-286,0,0,0,0,0,0,0,0,0,-1,1371,1310,0,0
154,-286,0,0,0,0,0,0,0,0,0,-1,1378,1310,0,0
161,-286,0,0,0,0,0,0,0,0,0,-1,1385,1310,0,0
168,-286,0,0,0,0,0,0,0,0,0,-1,1392,1310,0,0
175,-286,0,0,0,0,0,0,0,0,0,-1,1399,1310,0,0
182,-286,0,0,0,0,0,0,0,0,0,-1,1406,1310,0,0
189,-286,0,0,0,0,0,0,0,0,0,-1,1413,1310,0,0
196,-286,0,0,0,0,0,0,0,0,0,-1,1420,1310,0,0
203,-286,0,0,0,0,0,0,0,0,0,-1,1427,1310,0,0
210,-286,0,0,0,0,0,0,0,0,0,-1,1434,1310,0,0
217,-286,0,0,0,0,0,0,0,0,0,-1,1441,1310,0,0
224,-286,0,0,0,0,0,0,0,0,0,-1,1448,1310,0,0
231,-286,0,0,0,0,0,0,0,0,0,-1,1455,1310,0,0
238,-286,0,0,0,0,0,0,0,0,0,-1,1462,1310,0,0
245,-286,0,0,0,0,0,0,0,0,0,-1,1469,1310,0,0
252,-286,0,0,0,0,0,0,0,0,0,-1,1476,1310,0,0
259,-286,0,0,0,0,0,0,0,0,0,-1,1483,1310,0,0
266,-286,0,0,0,0,0,0,0,0,0,-1,1490,1310,0,0
273,-286,0,0,0,0,0,0,0,0,0,-1,1497,1310,0,0
280,-286,0,0,0,0,0,0,0,0,0,-1,1504,1310,0,0
287,-286,0,0,0,0,0,0,0,0,0,-1,1511,1310,0,0
294,-286,0,0,0,0,0,0,0,0,0,-1,1518,1310,0,0
301,-286,0,0,0,0,0,0,0,0,0,-1,1525,1310,0,0
308,-286,0,0,0,0,0,0,0,0,0,-1,1532,1310,0,0
315,-286,0,0,0,0,0,0,0,0,0,-1,1539,1310,0,0
322,-286,0,0,0,0,0,0,0,0,0,-1,1546,1310,0,0
329,-286,0,0,0,0,0,0,0,0,0,-1,1553,1310,0,0
336,-286,0,0,0,0,0,0,0,0,0,-1,1560,1310,0,0
343,-286,0,0,0,0,0,0,0,0,0,-1,1567,1310,0,0
350,-286,0,0,0,0,0,0,0,0,0,-1,1574,1310,0,0
357,-286,0,0,0,0,0,0,0,0,0,-1,1581,1310,0,0
364,-286,0,0,0,0,0,0,0,0,0,-1,1588,1310,0,0
371,-286,0,0,0,0,0,0,0,0,0,-1,1595,1310,0,0
378,-286,0,0,0,0,0,0,0,0,0,-1,1602,1310,0,0
385,-286,0,0,0,0,0,0,0,0,0,-1,1609,1310,0,0
392,-286,0,0,0,0,0,0,0,0,0,-1,1616,1310,0,0
399,-286,0,0,0,0,0,0,0,0,0,-1,1623,1310,0,0
406,-286,0,0,0,0,0,0,0,0,0,-1,1630,1310,0,0
413,-286,0,0,0,0,0,0,0,0,0,-1,1637,1310,0,0
420,-286,0,0,0,0,0,0,0,0,0,-1,1644,1310,0,0
427,-286,0,0,0,0,0,0,0,0,0,-1,1651,1310,0,0
434,-286,0,0,0,0,0,0,0,0,0,-1,1658,1310,0,0
441,-286,0,0,0,0,0,0,0,0,0,-1,1665,1310,0,0
448,-286,0,0,0,0,0,0,0,0,0,-1,1672,1310,0,0
455,-286,0,0,0,0,0,0,0,0,0,-1,1679,1310,0,0
462,-286,0,0,0,0,0,0,0,0,0,-1,1686,1310,0,0
469,-286,0,0,0,0,0,0,0,0,0,-1,1693,1310,0,0
476,-286,0,0,0,0,0,0,0,0,0,-1,1700,1310,0,0
483,-286,0,0,0,0,0,0,0,0,0,-1,1707,1310,0,0
490,-286,0,0,0,0,0,0,0,0,0,-1,1714,1310,0,0
497,-286,0,0,0,0,0,0,0,0,0,-1,1721,1310,0,0
504,-286,0,0,0,0,0,0,0,0,0,-1,1728,1310,0,0
511,-286,0,0,0,0,0,0,0,0,0,-1,1735,1310,0,0
518,-286,0,0,0,0,0,0,0,0,0,-1,1742,1310,0,0
525,-286,0,0,0,0,0,0,0,0,0,-1,1749,1310,0,0
532,-286,0,0,0,0,0,0,0,0,0,-1,1756,1310,0,0
539,-286,0,0,0,0,0,0,0,0,0,-1,1763,1310,0,0
546,-286,0,0,0,0,0,0,0,0,0,-1,1770,1310,0,0
553,-286,0,0,0,0,0,0,0,0,0,-1,1777,1310,0,0
560,-286,0,0,0,0,0,0,0,0,0,-1,1784,1310,0,0
567,-286,0,0,0,0,0,0,0,0,0,-1,1791,1310,0,0
574,-286,0,0,0,0,0,0,0,0,0,-1,1798,1310,0,0
581,-286,0,0,0,0,0,0,0,0,0,-1,1805,1310,0,0
588,-286,0,0,0,0,0,0,0,0,0,-1,1812,1310,0,0
595,-286,22.2583,2.95972,0.017955,0.0134917,-0.0151981,0.0310844,0.000362203,-0.712501,0.0206033,0.0377203,1819,1310,22.2583,-2.95977
602,-286,22.4235,2.92761,0.0113192,0.0168803,-0.00856178,0.0231017,0.00509779,-0.942405,0.0140144,0.043411,1826,1310,22.4234,-2.92758
609,-286,22.0284,2.57434,0,0,0,0,0,0,0,-1,1833,1310,22.0284,-2.57435
616,-286,22.1216,1.82288,0.00229153,0.0187685,0.000636071,0.018793,0.00226701,1.53227,0.0118455,0.0474473,1840,1310,22.1216,-1.8229
623,-286,22.238,1.71106,-0.0012381,0.0165691,0.0026181,0.016946,-0.00161505,1.4278,0.0118724,0.0482732,1847,1310,22.238,-1.71108
630,-286,21.9915,1.96655,-0.00363061,0.0140575,0.00364867,0.0147806,-0.00435369,1.37515,0.011581,0.0476906,1854,1310,21.9914,-1.9665
637,-286,22.05,1.84924,0,0,0,0,0,0,0,-1,1861,1310,22.05,-1.84927
644,-286,19.051,2.16736,0,0,0,0,0,0,0,-1,1868,1310,19.051,-2.1673
651,-286,18.1475,6.72192,0,0,0,0,0,0,0,-1,1875,1310,18.1474,-6.72191
658,-286,17.9331,6.00696,0,0,0,0,0,0,0,-1,1882,1310,17.9331,-6.00697
665,-286,17.7396,6.25806,-0.00789305,0.00379351,0.00539313,0.00590194,-0.0100015,1.19812,0.00928298,0.0475023,1889,1310,17.7396,-6.25807
672,-286,17.369,6.14209,-0.00800917,0.00164196,0.00513603,0.00386372,-0.0102309,1.16252,0.00840978,0.0311929,1896,1310,17.369,-6.14209
679,-286,17.1846,5.95752,-0.00744902,-0.00013278,0.00487739,0.00230589,-0.00988768,1.10715,0.00747985,0.0231571,1903,1310,17.1846,-5.95748
686,-286,17.2106,5.74109,-0.00568798,-0.000963346,0.00414479,0.00144506,-0.00809639,1.04441,0.00593818,0.0204996,1910,1310,17.2106,-5.74111
693,-286,17.191,5.52551,-0.00361642,-0.000914937,0.00309379,0.00111013,-0.00564149,0.991224,0.00418046,0.0158459,1917,1310,17.191,-5.52554
700,-286,17.1895,5.31897,-0.00146915,-0.00015615,0.00162268,0.000937805,-0.0025631,0.977621,0.00209259,0.0112958,1924,1310,17.1895,-5.31896
707,-286,17.1819,5.14478,0.000363076,0.000673338,2.31126e-05,0.000675051,0.000361364,1.49685,0.000390065,0.00868046,1931,1310,17.1819,-5.14481
714,-286,17.165,4.96423,0.00218,0.00193583,-0.00198809,0.00404975,6.60848e-05,-0.754733,0.00267808,0.00866732,1938,1310,17.1651,-4.96426
721,-286,17.1802,4.77112,0.00411276,0.00341932,-0.00374581,0.00752786,4.21517e-06,-0.739248,0.00501717,0.0105204,1945,1310,17.1801,-4.77106
728,-286,17.1849,4.58105,0.00598194,0.00504496,-0.00583634,0.0113686,-0.000341667,-0.745348,0.00769546,0.0128584,1952,1310,17.1849,-4.58111
735,-286,17.1941,4.39673,0.0077551,0.00674407,-0.00831629,0.0155812,-0.00108205,-0.755043,0.0107663,0.0145489,1959,1310,17.194,-4.39678
742,-286,17.1628,4.14563,0.00954167,0.0087003,-0.0114347,0.0205634,-0.00232143,-0.767011,0.0145446,0.0268838,1966,1310,17.1628,-4.14569
749,-286,17.4702,6.43933,0,0,0,0,0,0,0,-1,1973,1310,17.4702,-6.43936
756,-286,17.5848,5.35034,0,0,0,0,0,0,0,-1,1980,1310,17.5849,-5.35038
763,-286,17.6996,4.26135,0,0,0,0,0,0,0,-1,1987,1310,17.6996,-4.26141
770,-286,18.5909,2.68787,0,0,0,0,0,0,0,-1,1994,1310,18.5909,-2.68783
777,-286,0,0,0,0,0,0,0,0,0,-1,2001,1310,0,0
784,-286,0,0,0,0,0,0,0,0,0,-1,2008,1310,0,0
791,-286,0,0,0,0,0,0,0,0,0,-1,2015,1310,0,0
798,-286,0,0,0,0,0,0,0,0,0,-1,2022,1310,0,0
805,-286,0,0,0,0,0,0,0,0,0,-1,2029,1310,0,0
812,-286,0,0,0,0,0,0,0,0,0,-1,2036,1310,0,0
-700,-293,0,0,0,0,0,0,0,0,0,-1,524,1317,0,0
-693,-293,0,0,0,0,0,0,0,0,0,-1,531,1317,0,0
-686,-293,0,0,0,0,0,0,0,0,0,-1,538,1317,0,0
-679,-293,0,0,0,0,0,0,0,0,0,-1,545,1317,0,0
-672,-293,0,0,0,0,0,0,0,0,0,-1,552,1317,0,0
-665,-293,0,0,0,0,0,0,0,0,0,-1,559,1317,0,0
-658,-293,0,0,0,0,0,0,0,0,0,-1,566,1317,0,0
-651,-293,-5.72198,-2.12341,0,0,0,0,0,0,0,-1,573,1317,-5.722,2.12342
-644,-293,-5.97998,-1.71765,0,0,0,0,0,0,0,-1,580,1317,-5.98,1.71761
-637,-293,-9.72754,0.101196,0,0,0,0,0,0,0,-1,587,1317,-9.72753,-0.101198
-630,-293,-9.36414,0.354004,0,0,0,0,0,0,0,-1,594,1317,-9.36414,-0.35395
-623,-293,-9.03857,0.619141,0.0100408,0.0315048,0.0173389,0.0411643,0.000381315,1.06252,0.0273167,0.0454706,601,1317,-9.0386,-0.619192
-616,-293,-8.73706,0.879883,0.00711563,0.0235616,0.0147541,0.0322294,-0.00155222,1.03963,0.0220219,0.044347,608,1317,-8.73707,-0.879853
-609,-293,-8.50946,1.47046,0.00490261,0.01719,0.0122103,0.0247152,-0.00262253,1.01848,0.0174169,0.0401237,615,1317,-8.50945,-1.47042
-602,-293,-8.53235,2.05701,0.00313617,0.0124409,0.00942271,0.0182972,-0.00272014,1.01471,0.0131986,0.0285661,622,1317,-8.53234,-2.05703
-595,-293,-8.60791,2.3429,0.00197744,0.00854672,0.00709599,0.0130814,-0.00255725,1.00216,0.00968654,0.0150457,629,1317,-8.60792,-2.34286
-588,-293,-8.59009,2.56445,0.00133719,0.00553011,0.00506829,0.00891842,-0.00205112,0.981504,0.00673426,0.0149889,636,1317,-8.59007,-2.56451
-581,-293,-8.56897,2.77991,0.00108579,0.00323232,0.00321224,0.00554585,-0.00122774,0.946626,0.00416721,0.0175731,643,1317,-8.56898,-2.77995
-574,-293,-8.58423,3.01147,0.00100836,0.00128799,0.00158146,0.0027358,-0.000439452,0.829487,0.00198662,0.0162609,650,1317,-8.58422,-3.01142
-567,-293,-8.61005,3.2688,0.00113277,-0.000350772,0.000381393,0.00122508,-0.000443078,0.237458,0.00099776,0.0158584,657,1317,-8.61003,-3.26874
-560,-293,-8.60651,3.51306,0.00115644,-0.00138103,-0.000840894,0.00140981,-0.00163439,-0.292654,0.00175916,0.0161722,664,1317,-8.60652,-3.51306
-553,-293,-8.57727,3.72546,0.00130848,-0.00211335,-0.00153727,0.00189766,-0.00270252,-0.365995,0.00266944,0.0109701,671,1317,-8.57729,-3.72542
-546,-293,-8.55988,3.96484,0.00160506,-0.00247486,-0.0021845,0.002554,-0.00342379,-0.4098,0.00346344,0.0105932,678,1317,-8.55986,-3.96488
-539,-293,-8.53339,4.19019,0.00160217,-0.00280625,-0.00292957,0.00306414,-0.00426823,-0.462881,0.00425233,0.025575,685,1317,-8.5334,-4.19013
-532,-293,-8.51056,4.37573,0,0,0,0,0,0,0,-1,692,1317,-8.51057,-4.37577
-525,-293,-7.92993,3.77283,0,0,0,0,0,0,0,-1,699,1317,-7.92991,-3.77282
-518,-293,-12.2349,2.0022,0,0,0,0,0,0,0,-1,706,1317,-12.2349,-2.00224
-511,-293,-10.0718,1.38525,0,0,0,0,0,0,0,-1,713,1317,-10.0718,-1.3853
-504,-293,-13.2881,0.241089,0,0,0,0,0,0,0,-1,720,1317,-13.2881,-0.241112
-497,-293,-10.2943,1.21912,0,0,0,0,0,0,0,-1,727,1317,-10.2943,-1.21914
-490,-293,-11.7103,0.624146,0,0,0,0,0,0,0,-1,734,1317,-11.7103,-0.624093
-483,-293,-12.3591,1.34912,0,0,0,0,0,0,0,-1,741,1317,-12.3591,-1.34914
-476,-293,-11.3431,0.133301,0,0,0,0,0,0,0,-1,748,1317,-11.3431,-0.133249
-469,-293,0,0,0,0,0,0,0,0,0,-1,755,1317,0,0
-462,-293,0,0,0,0,0,0,0,0,0,-1,762,1317,0,0
-455,-293,0,0,0,0,0,0,0,0,0,-1,769,1317,0,0
-448,-293,0,0,0,0,0,0,0,0,0,-1,776,1317,0,0
-441,-293,0,0,0,0,0,0,0,0,0,-1,783,1317,0,0
-434,-293,0,0,0,0,0,0,0,0,0,-1,790,1317,0,0
-427,-293,0,0,0,0,0,0,0,0,0,-1,797,1317,0,0
-420,-293,0,0,0,0,0,0,0,0,0,-1,804,1317,0,0
-413,-293,0,0,0,0,0,0,0,0,0,-1,811,1317,0,0
-406,-293,0,0,0,0,0,0,0,0,0,-1,818,1317,0,0
-399,-293,0,0,0,0,0,0,0,0,0,-1,825,1317,0,0
-392,-293,0,0,0,0,0,0,0,0,0,-1,832,1317,0,0
-385,-293,0,0,0,0,0,0,0,0,0,-1,839,1317,0,0
-378,-293,0,0,0,0,0,0,0,0,0,-1,846,1317,0,0
-371,-293,0,0,0,0,0,0,0,0,0,-1,853,1317,0,0
-364,-293,0,0,0,0,0,0,0,0,0,-1,860,1317,0,0
-357,-293,0,0,0,0,0,0,0,0,0,-1,867,1317,0,0
-350,-293,0,0,0,0,0,0,0,0,0,-1,874,1317,0,0
-343,-293,0,0,0,0,0,0,0,0,0,-1,881,1317,0,0
-336,-293,0,0,0,0,0,0,0,0,0,-1,888,1317,0,0
-329,-293,0,0,0,0,0,0,0,0,0,-1,895,1317,0,0
-322,-293,0,0,0,0,0,0,0,0,0,-1,902,1317,0,0
-315,-293,0,0,0,0,0,0,0,0,0,-1,909,1317,0,0
-308,-293,0,0,0,0,0,0,0,0,0,-1,916,1317,0,0
-301,-293,0,0,0,0,0,0,0,0,0,-1,923,1317,0,0
-294,-293,0,0,0,0,0,0,0,0,0,-1,930,1317,0,0
-287,-293,0,0,0,0,0,0,0,0,0,-1,937,1317,0,0
-280,-293,0,0,0,0,0,0,0,0,0,-1,944,1317,0,0
-273,-293,0,0,0,0,0,0,0,0,0,-1,951,1317,0,0
-266,-293,0,0,0,0,0,0,0,0,0,-1,958,1317,0,0
-259,-293,0,0,0,0,0,0,0,0,0,-1,965,1317,0,0
-252,-293,0,0,0,0,0,0,0,0,0,-1,972,1317,0,0
-245,-293,0,0,0,0,0,0,0,0,0,-1,979,1317,0,0
-238,-293,0,0,0,0,0,0,0,0,0,-1,986,1317,0,0
-231,-293,0,0,0,0,0,0,0,0,0,-1,993,1317,0,0
-224,-293,0,0,0,0,0,0,0,0,0,-1,1000,1317,0,0
-217,-293,0,0,0,0,0,0,0,0,0,-1,1007,1317,0,0
-210,-293,0,0,0,0,0,0,0,0,0,-1,1014,1317,0,0
-203,-293,0,0,0,0,0,0,0,0,0,-1,1021,1317,0,0
-196,-293,0,0,0,0,0,0,0,0,0,-1,1028,1317,0,0
-189,-293,0,0,0,0,0,0,0,0,0,-1,1035,1317,0,0
-182,-293,0,0,0,0,0,0,0,0,0,-1,1042,1317,0,0
-175,-293,0,0,0,0,0,0,0,0,0,-1,1049,1317,0,0
-168,-293,0,0,0,0,0,0,0,0,0,-1,1056,1317,0,0
-161,-293,0,0,0,0,0,0,0,0,0,-1,1063,1317,0,0
-154,-293,0,0,0,0,0,0,0,0,0,-1,1070,1317,0,0
-147,-293,0,0,0,0,0,0,0,0,0,-1,1077,1317,0,0
-140,-293,0,0,0,0,0,0,0,0,0,-1,1084,1317,0,0
-133,-293,0,0,0,0,0,0,0,0,0,-1,1091,1317,0,0
-126,-293,0,0,0,0,0,0,0,0,0,-1,1098,1317,0,0
-119,-293,0,0,0,0,0,0,0,0,0,-1,1105,1317,0,0
-112,-293,0,0,0,0,0,0,0,0,0,-1,1112,1317,0,0
-105,-293,0,0,0,0,0,0,0,0,0,-1,1119,1317,0,0
-98,-293,0,0,0,0,0,0,0,0,0,-1,1126,1317,0,0
-91,-293,0,0,0,0,0,0,0,0,0,-1,1133,1317,0,0
-84,-293,0,0,0,0,0,0,0,0,0,-1,1140,1317,0,0
-77,-293,0,0,0,0,0,0,0,0,0,-1,1147,1317,0,0
-70,-293,0,0,0,0,0,0,0,0,0,-1,1154,1317,0,0
-63,-293,0,0,0,0,0,0,0,0,0,-1,1161,1317,0,0
-56,-293,0,0,0,0,0,0,0,0,0,-1,1168,1317,0,0
-49,-293,0,0,0,0,0,0,0,0,0,-1,1175,1317,0,0
-42,-293,0,0,0,0,0,0,0,0,0,-1,1182,1317,0,0
-35,-293,0,0,0,0,0,0,0,0,0,-1,1189,1317,0,0
-28,-293,0,0,0,0,0,0,0,0,0,-1,1196,1317,0,0
-21,-293,0,0,0,0,0,0,0,0,0,-1,1203,1317,0,0
-14,-293,0,0,0,0,0,0,0,0,0,-1,1210,1317,0,0
-7,-293,0,0,0,0,0,0,0,0,0,-1,1217,1317,0,0
0,-293,0,0,0,0,0,0,0,0,0,-1,1224,1317,0,0
7,-293,0,0,0,0,0,0,0,0,0,-1,1231,1317,0,0
14,-293,0,0,0,0,0,0,0,0,0,-1,1238,1317,0,0
21,-293,0,0,0,0,0,0,0,0,0,-1,1245,1317,0,0
28,-293,0,0,0,0,0,0,0,0,0,-1,1252,1317,0,0
35,-293,0,0,0,0,0,0,0,0,0,-1,1259,1317,0,0
42,-293,0,0,0,0,0,0,0,0,0,-1,1266,1317,0,0
49,-293,0,0,0,0,0,0,0,0,0,-1,1273,1317,0,0
56,-293,0,0,0,0,0,0,0,0,0,-1,1280,1317,0,0
63,-293,0,0,0,0,0,0,0,0,0,-1,1287,1317,0,0
70,-293,0,0,0,0,0,0,0,0,0,-1,1294,1317,0,0
77,-293,0,0,0,0,0,0,0,0,0,-1,1301,1317,0,0
84,-293,0,0,0,0,0,0,0,0,0,-1,1308,1317,0,0
91,-293,0,0,0,0,0,0,0,0,0,-1,1315,1317,0,0
98,-293,0,0,0,0,0,0,0,0,0,-1,1322,1317,0,0
105,-293,0,0,0,0,0,0,0,0,0,-1,1329,1317,0,0
112,-293,0,0,0,0,0,0,0,0,0,-1,1336,1317,0,0
119,-293,0,0,0,0,0,0,0,0,0,-1,1343,1317,0,0
126,-293,0,0,0,0,0,0,0,0,0,-1,1350,1317,0,0
133,-293,0,0,0,0,0,0,0,0,0,-1,1357,1317,0,0
140,-293,0,0,0,0,0,0,0,0,0,-1,1364,1317,0,0
147,-293,0,0,0,0,0,0,0,0,0,-1,1371,1317,0,0
154,-293,0,0,0,0,0,0,0,0,0,-1,1378,1317,0,0
161,-293,0,0,0,0,0,0,0,0,0,-1,1385,1317,0,0
168,-293,0,0,0,0,0,0,0,0,0,-1,1392,1317,0,0
175,-293,0,0,0,0,0,0,0,0,0,-1,1399,1317,0,0
182,-293,0,0,0,0,0,0,0,0,0,-1,1406,1317,0,0
189,-293,0,0,0,0,0,0,0,0,0,-1,1413,1317,0,0
196,-293,0,0,0,0,0,0,0,0,0,-1,1420,1317,0,0
203,-293,0,0,0,0,0,0,0,0,0,-1,1427,1317,0,0
210,-293,0,0,0,0,0,0,0,0,0,-1,1434,1317,0,0
217,-293,0,0,0,0,0,0,0,0,0,-1,1441,1317,0,0
224,-293,0,0,0,0,0,0,0,0,0,-1,1448,1317,0,0
231,-293,0,0,0,0,0,0,0,0,0,-1,1455,1317,0,0
238,-293,0,0,0,0,0,0,0,0,0,-1,1462,1317,0,0
245,-293,0,0,0,0,0,0,0,0,0,-1,1469,1317,0,0
252,-293,0,0,0,0,0,0,0,0,0,-1,1476,1317,0,0
259,-293,0,0,0,0,0,0,0,0,0,-1,1483,1317,0,0
266,-293,0,0,0,0,0,0,0,0,0,-1,1490,1317,0,0
273,-293,0,0,0,0,0,0,0,0,0,-1,1497,1317,0,0
280,-293,0,0,0,0,0,0,0,0,0,-1,1504,1317,0,0
287,-293,0,0,0,0,0,0,0,0,0,-1,1511,1317,0,0
294,-293,0,0,0,0,0,0,0,0,0,-1,1518,1317,0,0
301,-293,0,0,0,0,0,0,0,0,0,-1,1525,1317,0,0
308,-293,0,0,0,0,0,0,0,0,0,-1,1532,1317,0,0
315,-293,0,0,0,0,0,0,0,0,0,-1,1539,1317,0,0
322,-293,0,0,0,0,0,0,0,0,0,-1,1546,1317,0,0
329,-293,0,0,0,0,0,0,0,0,0,-1,1553,1317,0,0
336,-293,0,0,0,0,0,0,0,0,0,-1,1560,1317,0,0
343,-293,0,0,0,0,0,0,0,0,0,-1,1567,1317,0,0
350,-293,0,0,0,0,0,0,0,0,0,-1,1574,1317,0,0
357,-293,0,0,0,0,0,0,0,0,0,-1,1581,1317,0,0
364,-293,0,0,0,0,0,0,0,0,0,-1,1588,1317,0,0
371,-293,0,0,0,0,0,0,0,0,0,-1,1595,1317,0,0
378,-293,0,0,0,0,0,0,0,0,0,-1,1602,1317,0,0
385,-293,0,0,0,0,0,0,0,0,0,-1,1609,1317,0,0
392,-293,0,0,0,0,0,0,0,0,0,-1,1616,1317,0,0
399,-293,0,0,0,0,0,0,0,0,0,-1,1623,1317,0,0
406,-293,0,0,0,0,0,0,0,0,0,-1,1630,1317,0,0
413,-293,0,0,0,0,0,0,0,0,0,-1,1637,1317,0,0
420,-293,0,0,0,0,0,0,0,0,0,-1,1644,1317,0,0
427,-293,0,0,0,0,0,0,0,0,0,-1,1651,1317,0,0
434,-293,0,0,0,0,0,0,0,0,0,-1,1658,1317,0,0
441,-293,0,0,0,0,0,0,0,0,0,-1,1665,1317,0,0
448,-293,0,0,0,0,0,0,0,0,0,-1,1672,1317,0,0
455,-293,0,0,0,0,0,0,0,0,0,-1,1679,1317,0,0
462,-293,0,0,0,0,0,0,0,0,0,-1,1686,1317,0,0
469,-293,0,0,0,0,0,0,0,0,0,-1,1693,1317,0,0
476,-293,0,0,0,0,0,0,0,0,0,-1,1700,1317,0,0
483,-293,0,0,0,0,0,0,0,0,0,-1,1707,1317,0,0
490,-293,0,0,0,0,0,0,0,0,0,-1,1714,1317,0,0
497,-293,0,0,0,0,0,0,0,0,0,-1,1721,1317,0,0
504,-293,0,0,0,0,0,0,0,0,0,-1,1728,1317,0,0
511,-293,0,0,0,0,0,0,0,0,0,-1,1735,1317,0,0
518,-293,0,0,0,0,0,0,0,0,0,-1,1742,1317,0,0
525,-293,0,0,0,0,0,0,0,0,0,-1,1749,1317,0,0
532,-293,0,0,0,0,0,0,0,0,0,-1,1756,1317,0,0
539,-293,0,0,0,0,0,0,0,0,0,-1,1763,1317,0,0
546,-293,0,0,0,0,0,0,0,0,0,-1,1770,1317,0,0
553,-293,0,0,0,0,0,0,0,0,0,-1,1777,1317,0,0
560,-293,0,0,0,0,0,0,0,0,0,-1,1784,1317,0,0
567,-293,0,0,0,0,0,0,0,0,0,-1,1791,1317,0,0
574,-293,0,0,0,0,0,0,0,0,0,-1,1798,1317,0,0
581,-293,0,0,0,0,0,0,0,0,0,-1,1805,1317,0,0
588,-293,0,0,0,0,0,0,0,0,0,-1,1812,1317,0,0
595,-293,22.3412,3.00757,0,0,0,0,0,0,0,-1,1819,1317,22.3411,-3.00754
602,-293,22.7233,3.00647,0,0,0,0,0,0,0,-1,1826,1317,22.7232,-3.00644
609,-293,21.6176,1.31848,0,0,0,0,0,0,0,-1,1833,1317,21.6175,-1.31847
616,-293,22.0515,1.61267,0,0,0,0,0,0,0,-1,1840,1317,22.0515,-1.61267
623,-293,22.2321,1.49951,0,0,0,0,0,0,0,-1,1847,1317,22.2321,-1.49955
630,-293,21.9838,1.78271,0,0,0,0,0,0,0,-1,1854,1317,21.9837,-1.78266
637,-293,18.6764,2.03015,0,0,0,0,0,0,0,-1,1861,1317,18.6764,-2.0302
644,-293,18.5667,1.84424,0,0,0,0,0,0,0,-1,1868,1317,18.5667,-1.84425
651,-293,17.8721,6.21936,0,0,0,0,0,0,0,-1,1875,1317,17.8721,-6.21932
658,-293,17.5056,6.25928,-0.00844398,0.00451325,0.00658761,0.00727417,-0.0112049,1.17393,0.0107491,0.0412905,1882,1317,17.5056,-6.25926
665,-293,17.2427,6.16907,-0.0081577,0.00279433,0.00610004,0.0055157,-0.0108791,1.15117,0.00963289,0.0345917,1889,1317,17.2426,-6.16901
672,-293,17.028,6.1272,-0.00814926,0.000722438,0.00547707,0.00333464,-0.0107615,1.12577,0.00850659,0.017127,1896,1317,17.0279,-6.12721
679,-293,17.0037,5.93689,-0.0074357,-0.000805862,0.00501013,0.00188672,-0.0101283,1.07766,0.00746104,0.012158,1903,1317,17.0037,-5.93684
686,-293,17.0107,5.72522,-0.00552919,-0.00127616,0.00405111,0.00117265,-0.007978,1.02709,0.00574955,0.0140452,1910,1317,17.0108,-5.72517
693,-293,16.9946,5.53247,-0.0033814,-0.000762273,0.00272957,0.000955618,-0.00509929,1.00906,0.00375878,0.0112376,1917,1317,16.9946,-5.53248
700,-293,16.9807,5.32129,-0.001004,0.000499994,0.000980951,0.000984025,-0.00148803,1.11242,0.00143709,0.0102224,1924,1317,16.9807,-5.32125
707,-293,16.9846,5.14221,0.00105167,0.0018173,-0.000881783,0.00239578,0.000473189,-0.99019,0.00146515,0.0112437,1931,1317,16.9847,-5.1422
714,-293,16.9816,4.96509,0.00315022,0.00354775,-0.0032149,0.00657002,0.000127943,-0.816272,0.004338,0.00840218,1938,1317,16.9815,-4.96505
721,-293,16.9961,4.75916,0.00543795,0.00563724,-0.00544648,0.010985,9.02074e-05,-0.794545,0.00729344,0.00928169,1945,1317,16.996,-4.75916
728,-293,16.9965,4.55066,0.00787856,0.00798676,-0.0081021,0.0160349,-0.00016962,-0.788737,0.0107469,0.0106308,1952,1317,16.9964,-4.55067
735,-293,16.9941,4.34009,0.0105428,0.0106073,-0.0113445,0.0219196,-0.000769447,-0.786818,0.0148762,0.0159379,1959,1317,16.9941,-4.34005
742,-293,16.9468,4.13123,0.0135776,0.0136915,-0.0154346,0.0290693,-0.00180017,-0.787244,0.0200066,0.0277839,1966,1317,16.9468,-4.13124
749,-293,16.9889,3.90479,0.0168791,0.0172534,-0.0206248,0.0376919,-0.00355946,-0.789935,0.0263945,0.0416556,1973,1317,16.9889,-3.90481
756,-293,17.7438,5.55078,0,0,0,0,0,0,0,-1,1980,1317,17.7437,-5.55082
763,-293,16.7382,2.78931,0,0,0,0,0,0,0,-1,1987,1317,16.7381,-2.78933
770,-293,18.6544,1.7428,0,0,0,0,0,0,0,-1,1994,1317,18.6544,-1.74274
777,-293,0,0,0,0,0,0,0,0,0,-1,2001,1317,0,0
784,-293,0,0,0,0,0,0,0,0,0,-1,2008,1317,0,0
791,-293,0,0,0,0,0,0,0,0,0,-1,2015,1317,0,0
798,-293,0,0,0,0,0,0,0,0,0,-1,2022,1317,0,0
805,-293,0,0,0,0,0,0,0,0,0,-1,2029,1317,0,0
812,-293,0,0,0,0,0,0,0,0,0,-1,2036,1317,0,0
-700,-300,0,0,0,0,0,0,0,0,0,-1,524,1324,0,0
-693,-300,0,0,0,0,0,0,0,0,0,-1,531,1324,0,0
-686,-300,0,0,0,0,0,0,0,0,0,-1,538,1324,0,0
-679,-300,0,0,0,0,0,0,0,0,0,-1,545,1324,0,0
-672,-300,0,0,0,0,0,0,0,0,0,-1,552,1324,0,0
-665,-300,0,0,0,0,0,0,0,0,0,-1,559,1324,0,0
-658,-300,0,0,0,0,0,0,0,0,0,-1,566,1324,0,0
-651,-300,-5.48572,-2.77991,0,0,0,0,0,0,0,-1,573,1324,-5.48573,2.77996
-644,-300,-5.89404,-2.39197,0,0,0,0,0,0,0,-1,580,1324,-5.89407,2.39193
-637,-300,-6.24988,-2.25439,0,0,0,0,0,0,0,-1,587,1324,-6.24986,2.25436
-630,-300,-8.95575,0.349609,0,0,0,0,0,0,0,-1,594,1324,-8.95576,-0.349617
-623,-300,-8.63849,0.630615,0.0112252,0.0295617,0.0166542,0.0394045,0.0013824,1.03701,0.0258212,0.0482127,601,1324,-8.63847,-0.630658
-616,-300,-8.43121,0.883667,0.00757551,0.0223241,0.0143751,0.031106,-0.00120637,1.02239,0.0211509,0.0448291,608,1324,-8.43121,-0.883611
-609,-300,-8.29584,1.5249,0.00479982,0.0163995,0.0120173,0.0239433,-0.002744,1.01022,0.0169511,0.0433764,615,1324,-8.29586,-1.52487
-602,-300,-8.24109,2.02747,0.00267828,0.0119012,0.00937902,0.0177411,-0.00316166,1.01388,0.01301,0.0356452,622,1324,-8.24108,-2.02744
-595,-300,-8.37415,2.32166,0.00134099,0.00827662,0.00706922,0.0126828,-0.00306518,1.01343,0.00964073,0.0190112,629,1324,-8.37414,-2.32164
-588,-300,-8.3479,2.58875,0.000621303,0.00543406,0.00506692,0.00863699,-0.00258163,1.00709,0.00678429,0.0187404,636,1324,-8.34787,-2.58874
-581,-300,-8.33307,2.82983,0.000337085,0.00319252,0.00326383,0.00532724,-0.00179764,0.991576,0.0042785,0.0198296,643,1324,-8.33304,-2.82979
-574,-300,-8.35248,3.04553,0.000201042,0.00126869,0.00169582,0.00251273,-0.00104299,0.937883,0.00211054,0.0161018,650,1324,-8.35246,-3.04547
-567,-300,-8.37079,3.28101,0.000285045,-0.00021893,0.000516541,0.000607786,-0.000541671,0.558463,0.000664005,0.0158422,657,1324,-8.37081,-3.28097
-560,-300,-8.36823,3.53699,0.00024174,-0.00123559,-0.0006697,0.000500132,-0.00149398,-0.368235,0.00119802,0.0146814,664,1324,-8.3682,-3.53696
-553,-300,-8.34723,3.74939,0.000175381,-0.00208763,-0.00127242,0.000746623,-0.00265887,-0.421974,0.0020669,0.010473,671,1324,-8.34724,-3.74942
-546,-300,-8.32715,3.96729,0.000305934,-0.00264185,-0.00178075,0.00114363,-0.00347954,-0.439701,0.00278044,0.00922985,678,1324,-8.32716,-3.96733
-539,-300,-8.31335,4.21448,-2.46206e-05,-0.00317223,-0.00228523,0.0011763,-0.00437315,-0.483852,0.00337654,0.0152393,685,1324,-8.31338,-4.21449
-532,-300,-8.51978,4.32751,-0.000569065,-0.00369094,-0.00277911,0.00105747,-0.00531747,-0.52952,0.003945,0.0372852,692,1324,-8.51976,-4.3275
-525,-300,-8.73987,4.33179,0,0,0,0,0,0,0,-1,699,1324,-8.73988,-4.33181
-518,-300,-10.7194,1.948,0,0,0,0,0,0,0,-1,706,1324,-10.7194,-1.94801
-511,-300,-10.7047,1.87549,0,0,0,0,0,0,0,-1,713,1324,-10.7046,-1.87548
-504,-300,-10.8234,1.79138,0,0,0,0,0,0,0,-1,720,1324,-10.8234,-1.79143
-497,-300,-10.8891,1.70959,0,0,0,0,0,0,0,-1,727,1324,-10.8891,-1.70964
-490,-300,-13.5217,1.43018,0,0,0,0,0,0,0,-1,734,1324,-13.5217,-1.4302
-483,-300,-12.8365,1.04858,0,0,0,0,0,0,0,-1,741,1324,-12.8365,-1.04862
-476,-300,-12.5635,1.01038,0,0,0,0,0,0,0,-1,748,1324,-12.5635,-1.01043
-469,-300,0,0,0,0,0,0,0,0,0,-1,755,1324,0,0
-462,-300,0,0,0,0,0,0,0,0,0,-1,762,1324,0,0
-455,-300,0,0,0,0,0,0,0,0,0,-1,769,1324,0,0
-448,-300,0,0,0,0,0,0,0,0,0,-1,776,1324,0,0
-441,-300,0,0,0,0,0,0,0,0,0,-1,783,1324,0,0
-434,-300,0,0,0,0,0,0,0,0,0,-1,790,1324,0,0
-427,-300,0,0,0,0,0,0,0,0,0,-1,797,1324,0,0
-420,-300,0,0,0,0,0,0,0,0,0,-1,804,1324,0,0
-413,-300,0,0,0,0,0,0,0,0,0,-1,811,1324,0,0
-406,-300,0,0,0,0,0,0,0,0,0,-1,818,1324,0,0
-399,-300,0,0,0,0,0,0,0,0,0,-1,825,1324,0,0
-392,-300,0,0,0,0,0,0,0,0,0,-1,832,1324,0,0
-385,-300,0,0,0,0,0,0,0,0,0,-1,839,1324,0,0
-378,-300,0,0,0,0,0,0,0,0,0,-1,846,1324,0,0
-371,-300,0,0,0,0,0,0,0,0,0,-1,853,1324,0,0
-364,-300,0,0,0,0,0,0,0,0,0,-1,860,1324,0,0
-357,-300,0,0,0,0,0,0,0,0,0,-1,867,1324,0,0
-350,-300,0,0,0,0,0,0,0,0,0,-1,874,1324,0,0
-343,-300,0,0,0,0,0,0,0,0,0,-1,881,1324,0,0
-336,-300,0,0,0,0,0,0,0,0,0,-1,888,1324,0,0
-329,-300,0,0,0,0,0,0,0,0,0,-1,895,1324,0,0
-322,-300,0,0,0,0,0,0,0,0,0,-1,902,1324,0,0
-315,-300,0,0,0,0,0,0,0,0,0,-1,909,1324,0,0
-308,-300,0,0,0,0,0,0,0,0,0,-1,916,1324,0,0
-301,-300,0,0,0,0,0,0,0,0,0,-1,923,1324,0,0
-294,-300,0,0,0,0,0,0,0,0,0,-1,930,1324,0,0
-287,-300,0,0,0,0,0,0,0,0,0,-1,937,1324,0,0
-280,-300,0,0,0,0,0,0,0,0,0,-1,944,1324,0,0
-273,-300,0,0,0,0,0,0,0,0,0,-1,951,1324,0,0
-266,-300,0,0,0,0,0,0,0,0,0,-1,958,1324,0,0
-259,-300,0,0,0,0,0,0,0,0,0,-1,965,1324,0,0
-252,-300,0,0,0,0,0,0,0,0,0,-1,972,1324,0,0
-245,-300,0,0,0,0,0,0,0,0,0,-1,979,1324,0,0
-238,-300,0,0,0,0,0,0,0,0,0,-1,986,1324,0,0
-231,-300,0,0,0,0,0,0,0,0,0,-1,993,1324,0,0
-224,-300,0,0,0,0,0,0,0,0,0,-1,1000,1324,0,0
-217,-300,0,0,0,0,0,0,0,0,0,-1,1007,1324,0,0
-210,-300,0,0,0,0,0,0,0,0,0,-1,1014,1324,0,0
-203,-300,0,0,0,0,0,0,0,0,0,-1,1021,1324,0,0
-196,-300,0,0,0,0,0,0,0,0,0,-1,1028,1324,0,0
-189,-300,0,0,0,0,0,0,0,0,0,-1,1035,1324,0,0
-182,-300,0,0,0,0,0,0,0,0,0,-1,1042,1324,0,0
-175,-300,0,0,0,0,0,0,0,0,0,-1,1049,1324,0,0
-168,-300,0,0,0,0,0,0,0,0,0,-1,1056,1324,0,0
-161,-300,0,0,0,0,0,0,0,0,0,-1,1063,1324,0,0
-154,-300,0,0,0,0,0,0,0,0,0,-1,1070,1324,0,0
-147,-300,0,0,0,0,0,0,0,0,0,-1,1077,1324,0,0
-140,-300,0,0,0,0,0,0,0,0,0,-1,1084,1324,0,0
-133,-300,0,0,0,0,0,0,0,0,0,-1,1091,1324,0,0
-126,-300,0,0,0,0,0,0,0,0,0,-1,1098,1324,0,0
-119,-300,0,0,0,0,0,0,0,0,0,-1,1105,1324,0,0
-112,-300,0,0,0,0,0,0,0,0,0,-1,1112,1324,0,0
-105,-300,0,0,0,0,0,0,0,0,0,-1,1119,1324,0,0
-98,-300,0,0,0,0,0,0,0,0,0,-1,1126,1324,0,0
-91,-300,0,0,0,0,0,0,0,0,0,-1,1133,1324,0,0
-84,-300,0,0,0,0,0,0,0,0,0,-1,1140,1324,0,0
-77,-300,0,0,0,0,0,0,0,0,0,-1,1147,1324,0,0
-70,-300,0,0,0,0,0,0,0,0,0,-1,1154,1324,0,0
-63,-300,0,0,0,0,0,0,0,0,0,-1,1161,1324,0,0
-56,-300,0,0,0,0,0,0,0,0,0,-1,1168,1324,0,0
-49,-300,0,0,0,0,0,0,0,0,0,-1,1175,1324,0,0
-42,-300,0,0,0,0,0,0,0,0,0,-1,1182,1324,0,0
-35,-300,0,0,0,0,0,0,0,0,0,-1,1189,1324,0,0
-28,-300,0,0,0,0,0,0,0,0,0,-1,1196,1324,0,0
-21,-300,0,0,0,0,0,0,0,0,0,-1,1203,1324,0,0
-14,-300,0,0,0,0,0,0,0,0,0,-1,1210,1324,0,0
-7,-300,0,0,0,0,0,0,0,0,0,-1,1217,1324,0,0
0,-300,0,0,0,0,0,0,0,0,0,-1,1224,1324,0,0
7,-300,0,0,0,0,0,0,0,0,0,-1,1231,1324,0,0
14,-300,0,0,0,0,0,0,0,0,0,-1,1238,1324,0,0
21,-300,0,0,0,0,0,0,0,0,0,-1,1245,1324,0,0
28,-300,0,0,0,0,0,0,0,0,0,-1,1252,1324,0,0
35,-300,0,0,0,0,0,0,0,0,0,-1,1259,1324,0,0
42,-300,0,0,0,0,0,0,0,0,0,-1,1266,1324,0,0
49,-300,0,0,0,0,0,0,0,0,0,-1,1273,1324,0,0
56,-300,0,0,0,0,0,0,0,0,0,-1,1280,1324,0,0
63,-300,0,0,0,0,0,0,0,0,0,-1,1287,1324,0,0
70,-300,0,0,0,0,0,0,0,0,0,-1,1294,1324,0,0
77,-300,0,0,0,0,0,0,0,0,0,-1,1301,1324,0,0
84,-300,0,0,0,0,0,0,0,0,0,-1,1308,1324,0,0
91,-300,0,0,0,0,0,0,0,0,0,-1,1315,1324,0,0
98,-300,0,0,0,0,0,0,0,0,0,-1,1322,1324,0,0
105,-300,0,0,0,0,0,0,0,0,0,-1,1329,1324,0,0
112,-300,0,0,0,0,0,0,0,0,0,-1,1336,1324,0,0
119,-300,0,0,0,0,0,0,0,0,0,-1,1343,1324,0,0
126,-300,0,0,0,0,0,0,0,0,0,-1,1350,1324,0,0
133,-300,0,0,0,0,0,0,0,0,0,-1,1357,1324,0,0
140,-300,0,0,0,0,0,0,0,0,0,-1,1364,1324,0,0
147,-300,0,0,0,0,0,0,0,0,0,-1,1371,1324,0,0
154,-300,0,0,0,0,0,0,0,0,0,-1,1378,1324,0,0
161,-300,0,0,0,0,0,0,0,0,0,-1,1385,1324,0,0
168,-300,0,0,0,0,0,0,0,0,0,-1,1392,1324,0,0
175,-300,0,0,0,0,0,0,0,0,0,-1,1399,1324,0,0
182,-300,0,0,0,0,0,0,0,0,0,-1,1406,1324,0,0
189,-300,0,0,0,0,0,0,0,0,0,-1,1413,1324,0,0
196,-300,0,0,0,0,0,0,0,0,0,-1,1420,1324,0,0
203,-300,0,0,0,0,0,0,0,0,0,-1,1427,1324,0,0
210,-300,0,0,0,0,0,0,0,0,0,-1,1434,1324,0,0
217,-300,0,0,0,0,0,0,0,0,0,-1,1441,1324,0,0
224,-300,0,0,0,0,0,0,0,0,0,-1,1448,1324,0,0
231,-300,0,0,0,0,0,0,0,0,0,-1,1455,1324,0,0
238,-300,0,0,0,0,0,0,0,0,0,-1,1462,1324,0,0
245,-300,0,0,0,0,0,0,0,0,0,-1,1469,1324,0,0
252,-300,0,0,0,0,0,0,0,0,0,-1,1476,1324,0,0
259,-300,0,0,0,0,0,0,0,0,0,-1,1483,1324,0,0
266,-300,0,0,0,0,0,0,0,0,0,-1,1490,1324,0,0
273,-300,0,0,0,0,0,0,0,0,0,-1,1497,1324,0,0
280,-300,0,0,0,0,0,0,0,0,0,-1,1504,1324,0,0
287,-300,0,0,0,0,0,0,0,0,0,-1,1511,1324,0,0
294,-300,0,0,0,0,0,0,0,0,0,-1,1518,1324,0,0
301,-300,0,0,0,0,0,0,0,0,0,-1,1525,1324,0,0
308,-300,0,0,0,0,0,0,0,0,0,-1,1532,1324,0,0
315,-300,0,0,0,0,0,0,0,0,0,-1,1539,1324,0,0
322,-300,0,0,0,0,0,0,0,0,0,-1,1546,1324,0,0
329,-300,0,0,0,0,0,0,0,0,0,-1,1553,1324,0,0
336,-300,0,0,0,0,0,0,0,0,0,-1,1560,1324,0,0
343,-300,0,0,0,0,0,0,0,0,0,-1,1567,1324,0,0
350,-300,0,0,0,0,0,0,0,0,0,-1,1574,1324,0,0
357,-300,0,0,0,0,0,0,0,0,0,-1,1581,1324,0,0
364,-300,0,0,0,0,0,0,0,0,0,-1,1588,1324,0,0
371,-300,0,0,0,0,0,0,0,0,0,-1,1595,1324,0,0
378,-300,0,0,0,0,0,0,0,0,0,-1,1602,1324,0,0
385,-300,0,0,0,0,0,0,0,0,0,-1,1609,1324,0,0
392,-300,0,0,0,0,0,0,0,0,0,-1,1616,1324,0,0
399,-300,0,0,0,0,0,0,0,0,0,-1,1623,1324,0,0
406,-300,0,0,0,0,0,0,0,0,0,-1,1630,1324,0,0
413,-300,0,0,0,0,0,0,0,0,0,-1,1637,1324,0,0
420,-300,0,0,0,0,0,0,0,0,0,-1,1644,1324,0,0
427,-300,0,0,0,0,0,0,0,0,0,-1,1651,1324,0,0
434,-300,0,0,0,0,0,0,0,0,0,-1,1658,1324,0,0
441,-300,0,0,0,0,0,0,0,0,0,-1,1665,1324,0,0
448,-300,0,0,0,0,0,0,0,0,0,-1,1672,1324,0,0
455,-300,0,0,0,0,0,0,0,0,0,-1,1679,1324,0,0
462,-300,0,0,0,0,0,0,0,0,0,-1,1686,1324,0,0
469,-300,0,0,0,0,0,0,0,0,0,-1,1693,1324,0,0
476,-300,0,0,0,0,0,0,0,0,0,-1,1700,1324,0,0
483,-300,0,0,0,0,0,0,0,0,0,-1,1707,1324,0,0
490,-300,0,0,0,0,0,0,0,0,0,-1,1714,1324,0,0
497,-300,0,0,0,0,0,0,0,0,0,-1,1721,1324,0,0
504,-300,0,0,0,0,0,0,0,0,0,-1,1728,1324,0,0
511,-300,0,0,0,0,0,0,0,0,0,-1,1735,1324,0,0
518,-300,0,0,0,0,0,0,0,0,0,-1,1742,1324,0,0
525,-300,0,0,0,0,0,0,0,0,0,-1,1749,1324,0,0
532,-300,0,0,0,0,0,0,0,0,0,-1,1756,1324,0,0
539,-300,0,0,0,0,0,0,0,0,0,-1,1763,1324,0,0
546,-300,0,0,0,0,0,0,0,0,0,-1,1770,1324,0,0
553,-300,0,0,0,0,0,0,0,0,0,-1,1777,1324,0,0
560,-300,0,0,0,0,0,0,0,0,0,-1,1784,1324,0,0
567,-300,0,0,0,0,0,0,0,0,0,-1,1791,1324,0,0
574,-300,0,0,0,0,0,0,0,0,0,-1,1798,1324,0,0
581,-300,0,0,0,0,0,0,0,0,0,-1,1805,1324,0,0
588,-300,21.7333,3.1908,0,0,0,0,0,0,0,-1,1812,1324,21.7333,-3.19081
595,-300,21.9816,3.25684,0,0,0,0,0,0,0,-1,1819,1324,21.9815,-3.25679
602,-300,22.1687,3.56372,0,0,0,0,0,0,0,-1,1826,1324,22.1687,-3.5637
609,-300,22.4626,3.85229,0,0,0,0,0,0,0,-1,1833,1324,22.4627,-3.85225
616,-300,22.7036,3.6123,0.00126999,0.0186996,0.0087986,0.0223688,-0.00239918,1.17571,0.0157732,0.0458921,1840,1324,22.7036,-3.61233
623,-300,22.8104,3.40637,-0.00159033,0.0155407,0.00886993,0.0193058,-0.00535543,1.16937,0.0149783,0.0460351,1847,1324,22.8104,-3.40643
630,-300,22.5442,3.47668,0,0,0,0,0,0,0,-1,1854,1324,22.5442,-3.47669
637,-300,21.9565,3.53076,0,0,0,0,0,0,0,-1,1861,1324,21.9565,-3.53072
644,-300,17.8668,1.66101,0,0,0,0,0,0,0,-1,1868,1324,17.8668,-1.66097
651,-300,17.4884,6.02893,0,0,0,0,0,0,0,-1,1875,1324,17.4884,-6.02897
658,-300,17.0851,6.25476,-0.00853367,0.00346284,0.00732112,0.00692914,-0.012,1.1286,0.0110587,0.0454445,1882,1324,17.085,-6.25471
665,-300,16.855,6.32288,-0.00822208,0.00174468,0.00647258,0.00493005,-0.0114074,1.11346,0.00967641,0.0292845,1889,1324,16.8549,-6.32285
672,-300,16.7937,6.19019,-0.0081104,-0.000181722,0.00545681,0.00259877,-0.0108909,1.09954,0.00826419,0.0112372,1896,1324,16.7937,-6.19023
679,-300,16.8083,5.95618,-0.00726122,-0.00135939,0.00476412,0.00129369,-0.0099143,1.06268,0.00708027,0.0113131,1903,1324,16.8083,-5.95614
686,-300,16.8152,5.74805,-0.00529468,-0.0013905,0.00363603,0.000784317,-0.00746949,1.03175,0.00526063,0.0111531,1910,1324,16.8152,-5.74804
693,-300,16.7875,5.55762,-0.0031861,-0.000336021,0.00212317,0.000796005,-0.00431813,1.08096,0.0031775,0.0100493,1917,1324,16.7875,-5.55759
700,-300,16.7715,5.35181,-0.000685597,0.00147223,0.000199461,0.00149052,-0.00070388,1.47939,0.00129379,0.0115805,1924,1324,16.7715,-5.35185
707,-300,16.7971,5.12598,0.00147682,0.00336994,-0.00182829,0.00448217,0.000364586,-1.02426,0.0028743,0.00881955,1931,1324,16.7972,-5.12592
714,-300,16.8069,4.94568,0.00377647,0.00570804,-0.00439408,0.00924122,0.000243283,-0.893574,0.00608134,0.0106881,1938,1324,16.8068,-4.94569
721,-300,16.8062,4.75574,0.00640266,0.00853822,-0.00707,0.0146206,0.00032026,-0.860347,0.00964209,0.0118843,1945,1324,16.8062,-4.75574
728,-300,16.8176,4.5238,0.00939512,0.0117903,-0.0102641,0.0209264,0.000259009,-0.843474,0.0138654,0.0107271,1952,1324,16.8176,-4.52377
735,-300,16.735,4.39429,0.0130022,0.0155398,-0.0142805,0.0286077,-6.57337e-05,-0.829706,0.0190938,0.017499,1959,1324,16.735,-4.39423
742,-300,16.708,4.10339,0.0174072,0.0199244,-0.0194119,0.0381184,-0.000786813,-0.817772,0.0256786,0.0303996,1966,1324,16.708,-4.10337
749,-300,16.7928,3.46289,0.0225918,0.0249175,-0.0259639,0.0497445,-0.00223524,-0.807777,0.0339326,0.0449079,1973,1324,16.7928,-3.46291
756,-300,16.7542,3.06091,0,0,0,0,0,0,0,-1,1980,1324,16.7542,-3.06092
763,-300,16.283,3.80542,0,0,0,0,0,0,0,-1,1987,1324,16.283,-3.80545
770,-300,16.4082,5.24438,0,0,0,0,0,0,0,-1,1994,1324,16.4082,-5.24439
777,-300,0,0,0,0,0,0,0,0,0,-1,2001,1324,0,0
784,-300,0,0,0,0,0,0,0,0,0,-1,2008,1324,0,0
791,-300,0,0,0,0,0,0,0,0,0,-1,2015,1324,0,0
798,-300,0,0,0,0,0,0,0,0,0,-1,2022,1324,0,0
805,-300,0,0,0,0,0,0,0,0,0,-1,2029,1324,0,0
812,-300,0,0,0,0,0,0,0,0,0,-1,2036,1324,0,0
-700,-307,0,0,0,0,0,0,0,0,0,-1,524,1331,0,0
-693,-307,0,0,0,0,0,0,0,0,0,-1,531,1331,0,0
-686,-307,0,0,0,0,0,0,0,0,0,-1,538,1331,0,0
-679,-307,0,0,0,0,0,0,0,0,0,-1,545,1331,0,0
-672,-307,0,0,0,0,0,0,0,0,0,-1,552,1331,0,0
-665,-307,0,0,0,0,0,0,0,0,0,-1,559,1331,0,0
-658,-307,0,0,0,0,0,0,0,0,0,-1,566,1331,0,0
-651,-307,-5.08685,-3.48474,0,0,0,0,0,0,0,-1,573,1331,-5.08688,3.48473
-644,-307,-5.3916,-3.59741,0,0,0,0,0,0,0,-1,580,1331,-5.39161,3.59736
-637,-307,-8.50629,-0.0561523,0,0,0,0,0,0,0,-1,587,1331,-8.50631,0.0561074
-630,-307,-8.4101,0.201538,0.0210906,0.0344111,0.0186959,0.0475976,0.00790403,0.95651,0.0294528,0.0475789,594,1331,-8.41008,-0.201488
-623,-307,-8.46393,0.522095,0.0151414,0.0267528,0.0168211,0.0387419,0.00315232,0.951569,0.0248439,0.0441377,601,1331,-8.46395,-0.522068
-616,-307,-8.19531,0.932007,0.0102162,0.0203341,0.0144204,0.0305572,-6.87409e-06,0.9541,0.0203738,0.0431398,608,1331,-8.19534,-0.93203
-609,-307,-8.08014,1.23926,0.00640558,0.0150475,0.0118571,0.0233464,-0.00189334,0.960129,0.0162322,0.0451366,615,1331,-8.08015,-1.23927
-602,-307,-8.02557,1.94263,0.00369619,0.0108015,0.00930964,0.0172133,-0.00271564,0.967674,0.0124796,0.0364357,622,1331,-8.02558,-1.94258
-595,-307,-8.15131,2.328,0.00190714,0.00749705,0.00697737,0.0122184,-0.00281425,0.975899,0.00922788,0.0189366,629,1331,-8.15129,-2.32798
-588,-307,-8.10779,2.60913,0.000871929,0.00490676,0.00498494,0.00826704,-0.00248835,0.977674,0.00650153,0.0174108,636,1331,-8.10777,-2.60914
-581,-307,-8.10791,2.83521,0.000369556,0.00285214,0.00324576,0.00508586,-0.00186417,0.968034,0.00415383,0.0158998,643,1331,-8.10791,-2.83524
-574,-307,-8.13708,3.03943,2.3588e-05,0.00104268,0.0017856,0.00239001,-0.00132374,0.924386,0.0021734,0.0131851,650,1331,-8.13711,-3.03941
-567,-307,-8.14807,3.28406,-2.93052e-05,-0.000203184,0.000644572,0.000534164,-0.000766653,0.718363,0.000755015,0.0121439,657,1331,-8.14805,-3.2841
-560,-307,-8.13452,3.53882,-0.000185446,-0.00109533,-0.000494909,3.18521e-05,-0.00131263,-0.413725,0.000885894,0.0137968,664,1331,-8.13454,-3.53877
-553,-307,-8.1062,3.7522,-0.000450712,-0.00197748,-0.0010612,9.31557e-05,-0.00252135,-0.473598,0.0017128,0.0116805,671,1331,-8.1062,-3.75224
-546,-307,-8.09998,3.97278,-0.000481941,-0.00266085,-0.00151749,0.000296672,-0.00343946,-0.474068,0.00239799,0.0106198,678,1331,-8.1,-3.9728
-539,-307,-8.08569,4.23596,-0.00101147,-0.00340269,-0.00188536,2.54198e-05,-0.00443958,-0.50282,0.00296823,0.0122427,685,1331,-8.08569,-4.23591
-532,-307,-8.07452,4.41846,-0.00187763,-0.00432597,-0.00222248,-0.00056448,-0.00563912,-0.533664,0.00358609,0.0313681,692,1331,-8.07451,-4.4185
-525,-307,-8.50549,4.40137,0,0,0,0,0,0,0,-1,699,1331,-8.50548,-4.40137
-518,-307,-8.46375,4.50427,0,0,0,0,0,0,0,-1,706,1331,-8.46376,-4.50424
-511,-307,-11.0256,2.38391,0,0,0,0,0,0,0,-1,713,1331,-11.0255,-2.38387
-504,-307,-11.2647,2.33118,0,0,0,0,0,0,0,-1,720,1331,-11.2647,-2.33115
-497,-307,-11.4005,2.43311,0,0,0,0,0,0,0,-1,727,1331,-11.4004,-2.43307
-490,-307,-13.4395,2.09045,0,0,0,0,0,0,0,-1,734,1331,-13.4395,-2.09039
-483,-307,-12.6616,1.67786,0,0,0,0,0,0,0,-1,741,1331,-12.6616,-1.6779
-476,-307,-12.2773,1.3584,0,0,0,0,0,0,0,-1,748,1331,-12.2773,-1.35835
-469,-307,-12.7632,1.31787,0,0,0,0,0,0,0,-1,755,1331,-12.7632,-1.31793
-462,-307,0,0,0,0,0,0,0,0,0,-1,762,1331,0,0
-455,-307,0,0,0,0,0,0,0,0,0,-1,769,1331,0,0
-448,-307,0,0,0,0,0,0,0,0,0,-1,776,1331,0,0
-441,-307,0,0,0,0,0,0,0,0,0,-1,783,1331,0,0
-434,-307,0,0,0,0,0,0,0,0,0,-1,790,1331,0,0
-427,-307,0,0,0,0,0,0,0,0,0,-1,797,1331,0,0
-420,-307,0,0,0,0,0,0,0,0,0,-1,804,1331,0,0
-413,-307,0,0,0,0,0,0,0,0,0,-1,811,1331,0,0
-406,-307,0,0,0,0,0,0,0,0,0,-1,818,1331,0,0
-399,-307,0,0,0,0,0,0,0,0,0,-1,825,1331,0,0
-392,-307,0,0,0,0,0,0,0,0,0,-1,832,1331,0,0
-385,-307,0,0,0,0,0,0,0,0,0,-1,839,1331,0,0
-378,-307,0,0,0,0,0,0,0,0,0,-1,846,1331,0,0
-371,-307,0,0,0,0,0,0,0,0,0,-1,853,1331,0,0
-364,-307,0,0,0,0,0,0,0,0,0,-1,860,1331,0,0
-357,-307,0,0,0,0,0,0,0,0,0,-1,867,1331,0,0
-350,-307,0,0,0,0,0,0,0,0,0,-1,874,1331,0,0
-343,-307,0,0,0,0,0,0,0,0,0,-1,881,1331,0,0
-336,-307,0,0,0,0,0,0,0,0,0,-1,888,1331,0,0
-329,-307,0,0,0,0,0,0,0,0,0,-1,895,1331,0,0
-322,-307,0,0,0,0,0,0,0,0,0,-1,902,1331,0,0
-315,-307,0,0,0,0,0,0,0,0,0,-1,909,1331,0,0
-308,-307,0,0,0,0,0,0,0,0,0,-1,916,1331,0,0
-301,-307,0,0,0,0,0,0,0,0,0,-1,923,1331,0,0
-294,-307,0,0,0,0,0,0,0,0,0,-1,930,1331,0,0
-287,-307,0,0,0,0,0,0,0,0,0,-1,937,1331,0,0
-280,-307,0,0,0,0,0,0,0,0,0,-1,944,1331,0,0
-273,-307,0,0,0,0,0,0,0,0,0,-1,951,1331,0,0
-266,-307,0,0,0,0,0,0,0,0,0,-1,958,1331,0,0
-259,-307,0,0,0,0,0,0,0,0,0,-1,965,1331,0,0
-252,-307,0,0,0,0,0,0,0,0,0,-1,972,1331,0,0
-245,-307,0,0,0,0,0,0,0,0,0,-1,979,1331,0,0
-238,-307,0,0,0,0,0,0,0,0,0,-1,986,1331,0,0
-231,-307,0,0,0,0,0,0,0,0,0,-1,993,1331,0,0
-224,-307,0,0,0,0,0,0,0,0,0,-1,1000,1331,0,0
-217,-307,0,0,0,0,0,0,0,0,0,-1,1007,1331,0,0
-210,-307,0,0,0,0,0,0,0,0,0,-1,1014,1331,0,0
-203,-307,0,0,0,0,0,0,0,0,0,-1,1021,1331,0,0
-196,-307,0,0,0,0,0,0,0,0,0,-1,1028,1331,0,0
-189,-307,0,0,0,0,0,0,0,0,0,-1,1035,1331,0,0
-182,-307,0,0,0,0,0,0,0,0,0,-1,1042,1331,0,0
-175,-307,0,0,0,0,0,0,0,0,0,-1,1049,1331,0,0
-168,-307,0,0,0,0,0,0,0,0,0,-1,1056,1331,0,0
-161,-307,0,0,0,0,0,0,0,0,0,-1,1063,1331,0,0
-154,-307,0,0,0,0,0,0,0,0,0,-1,1070,1331,0,0
-147,-307,0,0,0,0,0,0,0,0,0,-1,1077,1331,0,0
-140,-307,0,0,0,0,0,0,0,0,0,-1,1084,1331,0,0
-133,-307,0,0,0,0,0,0,0,0,0,-1,1091,1331,0,0
-126,-307,0,0,0,0,0,0,0,0,0,-1,1098,1331,0,0
-119,-307,0,0,0,0,0,0,0,0,0,-1,1105,1331,0,0
-112,-307,0,0,0,0,0,0,0,0,0,-1,1112,1331,0,0
-105,-307,0,0,0,0,0,0,0,0,0,-1,1119,1331,0,0
-98,-307,0,0,0,0,0,0,0,0,0,-1,1126,1331,0,0
-91,-307,0,0,0,0,0,0,0,0,0,-1,1133,1331,0,0
-84,-307,0,0,0,0,0,0,0,0,0,-1,1140,1331,0,0
-77,-307,0,0,0,0,0,0,0,0,0,-1,1147,1331,0,0
-70,-307,0,0,0,0,0,0,0,0,0,-1,1154,1331,0,0
-63,-307,0,0,0,0,0,0,0,0,0,-1,1161,1331,0,0
-56,-307,0,0,0,0,0,0,0,0,0,-1,1168,1331,0,0
-49,-307,0,0,0,0,0,0,0,0,0,-1,1175,1331,0,0
-42,-307,0,0,0,0,0,0,0,0,0,-1,1182,1331,0,0
-35,-307,0,0,0,0,0,0,0,0,0,-1,1189,1331,0,0
-28,-307,0,0,0,0,0,0,0,0,0,-1,1196,1331,0,0
-21,-307,0,0,0,0,0,0,0,0,0,-1,1203,1331,0,0
-14,-307,0,0,0,0,0,0,0,0,0,-1,1210,1331,0,0
-7,-307,0,0,0,0,0,0,0,0,0,-1,1217,1331,0,0
0,-307,0,0,0,0,0,0,0,0,0,-1,1224,1331,0,0
7,-307,0,0,0,0,0,0,0,0,0,-1,1231,1331,0,0
14,-307,0,0,0,0,0,0,0,0,0,-1,1238,1331,0,0
21,-307,0,0,0,0,0,0,0,0,0,-1,1245,1331,0,0
28,-307,0,0,0,0,0,0,0,0,0,-1,1252,1331,0,0
35,-307,0,0,0,0,0,0,0,0,0,-1,1259,1331,0,0
42,-307,0,0,0,0,0,0,0,0,0,-1,1266,1331,0,0
49,-307,0,0,0,0,0,0,0,0,0,-1,1273,1331,0,0
56,-307,0,0,0,0,0,0,0,0,0,-1,1280,1331,0,0
63,-307,0,0,0,0,0,0,0,0,0,-1,1287,1331,0,0
70,-307,0,0,0,0,0,0,0,0,0,-1,1294,1331,0,0
77,-307,0,0,0,0,0,0,0,0,0,-1,1301,1331,0,0
84,-307,0,0,0,0,0,0,0,0,0,-1,1308,1331,0,0
91,-307,0,0,0,0,0,0,0,0,0,-1,1315,1331,0,0
98,-307,0,0,0,0,0,0,0,0,0,-1,1322,1331,0,0
105,-307,0,0,0,0,0,0,0,0,0,-1,1329,1331,0,0
112,-307,0,0,0,0,0,0,0,0,0,-1,1336,1331,0,0
119,-307,0,0,0,0,0,0,0,0,0,-1,1343,1331,0,0
126,-307,0,0,0,0,0,0,0,0,0,-1,1350,1331,0,0
133,-307,0,0,0,0,0,0,0,0,0,-1,1357,1331,0,0
140,-307,0,0,0,0,0,0,0,0,0,-1,1364,1331,0,0
147,-307,0,0,0,0,0,0,0,0,0,-1,1371,1331,0,0
154,-307,0,0,0,0,0,0,0,0,0,-1,1378,1331,0,0
161,-307,0,0,0,0,0,0,0,0,0,-1,1385,1331,0,0
168,-307,0,0,0,0,0,0,0,0,0,-1,1392,1331,0,0
175,-307,0,0,0,0,0,0,0,0,0,-1,1399,1331,0,0
182,-307,0,0,0,0,0,0,0,0,0,-1,1406,1331,0,0
189,-307,0,0,0,0,0,0,0,0,0,-1,1413,1331,0,0
196,-307,0,0,0,0,0,0,0,0,0,-1,1420,1331,0,0
203,-307,0,0,0,0,0,0,0,0,0,-1,1427,1331,0,0
210,-307,0,0,0,0,0,0,0,0,0,-1,1434,1331,0,0
217,-307,0,0,0,0,0,0,0,0,0,-1,1441,1331,0,0
224,-307,0,0,0,0,0,0,0,0,0,-1,1448,1331,0,0
231,-307,0,0,0,0,0,0,0,0,0,-1,1455,1331,0,0
238,-307,0,0,0,0,0,0,0,0,0,-1,1462,1331,0,0
245,-307,0,0,0,0,0,0,0,0,0,-1,1469,1331,0,0
252,-307,0,0,0,0,0,0,0,0,0,-1,1476,1331,0,0
259,-307,0,0,0,0,0,0,0,0,0,-1,1483,1331,0,0
266,-307,0,0,0,0,0,0,0,0,0,-1,1490,1331,0,0
273,-307,0,0,0,0,0,0,0,0,0,-1,1497,1331,0,0
280,-307,0,0,0,0,0,0,0,0,0,-1,1504,1331,0,0
287,-307,0,0,0,0,0,0,0,0,0,-1,1511,1331,0,0
294,-307,0,0,0,0,0,0,0,0,0,-1,1518,1331,0,0
301,-307,0,0,0,0,0,0,0,0,0,-1,1525,1331,0,0
308,-307,0,0,0,0,0,0,0,0,0,-1,1532,1331,0,0
315,-307,0,0,0,0,0,0,0,0,0,-1,1539,1331,0,0
322,-307,0,0,0,0,0,0,0,0,0,-1,1546,1331,0,0
329,-307,0,0,0,0,0,0,0,0,0,-1,1553,1331,0,0
336,-307,0,0,0,0,0,0,0,0,0,-1,1560,1331,0,0
343,-307,0,0,0,0,0,0,0,0,0,-1,1567,1331,0,0
350,-307,0,0,0,0,0,0,0,0,0,-1,1574,1331,0,0
357,-307,0,0,0,0,0,0,0,0,0,-1,1581,1331,0,0
364,-307,0,0,0,0,0,0,0,0,0,-1,1588,1331,0,0
371,-307,0,0,0,0,0,0,0,0,0,-1,1595,1331,0,0
378,-307,0,0,0,0,0,0,0,0,0,-1,1602,1331,0,0
385,-307,0,0,0,0,0,0,0,0,0,-1,1609,1331,0,0
392,-307,0,0,0,0,0,0,0,0,0,-1,1616,1331,0,0
399,-307,0,0,0,0,0,0,0,0,0,-1,1623,1331,0,0
406,-307,0,0,0,0,0,0,0,0,0,-1,1630,1331,0,0
413,-307,0,0,0,0,0,0,0,0,0,-1,1637,1331,0,0
420,-307,0,0,0,0,0,0,0,0,0,-1,1644,1331,0,0
427,-307,0,0,0,0,0,0,0,0,0,-1,1651,1331,0,0
434,-307,0,0,0,0,0,0,0,0,0,-1,1658,1331,0,0
441,-307,0,0,0,0,0,0,0,0,0,-1,1665,1331,0,0
448,-307,0,0,0,0,0,0,0,0,0,-1,1672,1331,0,0
455,-307,0,0,0,0,0,0,0,0,0,-1,1679,1331,0,0
462,-307,0,0,0,0,0,0,0,0,0,-1,1686,1331,0,0
469,-307,0,0,0,0,0,0,0,0,0,-1,1693,1331,0,0
476,-307,0,0,0,0,0,0,0,0,0,-1,1700,1331,0,0
483,-307,0,0,0,0,0,0,0,0,0,-1,1707,1331,0,0
490,-307,0,0,0,0,0,0,0,0,0,-1,1714,1331,0,0
497,-307,0,0,0,0,0,0,0,0,0,-1,1721,1331,0,0
504,-307,0,0,0,0,0,0,0,0,0,-1,1728,1331,0,0
511,-307,0,0,0,0,0,0,0,0,0,-1,1735,1331,0,0
518,-307,0,0,0,0,0,0,0,0,0,-1,1742,1331,0,0
525,-307,0,0,0,0,0,0,0,0,0,-1,1749,1331,0,0
532,-307,0,0,0,0,0,0,0,0,0,-1,1756,1331,0,0
539,-307,0,0,0,0,0,0,0,0,0,-1,1763,1331,0,0
546,-307,0,0,0,0,0,0,0,0,0,-1,1770,1331,0,0
553,-307,0,0,0,0,0,0,0,0,0,-1,1777,1331,0,0
560,-307,0,0,0,0,0,0,0,0,0,-1,1784,1331,0,0
567,-307,0,0,0,0,0,0,0,0,0,-1,1791,1331,0,0
574,-307,0,0,0,0,0,0,0,0,0,-1,1798,1331,0,0
581,-307,0,0,0,0,0,0,0,0,0,-1,1805,1331,0,0
588,-307,21.1969,4.12646,0,0,0,0,0,0,0,-1,1812,1331,21.1969,-4.12649
595,-307,21.6742,3.63782,0,0,0,0,0,0,0,-1,1819,1331,21.6742,-3.63781
602,-307,21.933,3.45422,0.010577,0.0277017,0.00869798,0.0313446,0.00693411,1.17417,0.0190113,0.0426587,1826,1331,21.933,-3.45424
609,-307,22.0679,3.41406,0.00433045,0.0226759,0.0124651,0.0289795,-0.00197316,1.1026,0.0200099,0.0446391,1833,1331,22.0679,-3.41402
616,-307,22.2173,3.47595,0.000781358,0.0185152,0.0126396,0.0250878,-0.00579133,1.09127,0.0189529,0.0457043,1840,1331,22.2173,-3.47592
623,-307,22.3763,3.57019,-0.00152521,0.0150891,0.0117284,0.0211543,-0.00759038,1.09353,0.0172006,0.0471948,1847,1331,22.3763,-3.57024
630,-307,22.557,3.61707,0,0,0,0,0,0,0,-1,1854,1331,22.5571,-3.6171
637,-307,16.6766,1.98096,0,0,0,0,0,0,0,-1,1861,1331,16.6766,-1.98096
644,-307,16.6293,5.94641,0,0,0,0,0,0,0,-1,1868,1331,16.6293,-5.94645
651,-307,17.1429,6.15259,0,0,0,0,0,0,0,-1,1875,1331,17.143,-6.1526
658,-307,16.8584,6.23767,-0.00815917,0.00238072,0.0081564,0.00682155,-0.0126,1.07222,0.0113773,0.0497776,1882,1331,16.8584,-6.23767
665,-307,16.6147,6.33496,-0.00762644,0.000752339,0.00679696,0.00454728,-0.0114214,1.06158,0.00949999,0.01858,1889,1331,16.6147,-6.33492
672,-307,16.6101,6.16687,-0.00728513,-0.000838957,0.00529757,0.00213897,-0.010263,1.05869,0.00765529,0.00936591,1896,1331,16.6101,-6.16685
679,-307,16.6096,5.96106,-0.00637685,-0.00156254,0.00435617,0.00100731,-0.00894671,1.03781,0.00632703,0.0103197,1903,1331,16.6096,-5.96105
686,-307,16.6038,5.76379,-0.00457933,-0.00111938,0.00306074,0.000666458,-0.00636517,1.04262,0.00448215,0.00932764,1910,1331,16.6038,-5.76385
693,-307,16.5876,5.57312,-0.00266051,0.000383945,0.00137665,0.000914115,-0.00319068,1.20319,0.00248843,0.0105268,1917,1331,16.5877,-5.57314
700,-307,16.5927,5.34839,-0.000101933,0.00260618,-0.000690107,0.00277189,-0.000267652,-1.33512,0.0019433,0.0123355,1924,1331,16.5926,-5.3484
707,-307,16.5963,5.12451,0.00213412,0.00498186,-0.00287895,0.00676981,0.000346178,-1.01505,0.00440235,0.0137715,1931,1331,16.5963,-5.12454
714,-307,16.6096,4.93835,0.00466055,0.00785239,-0.00563018,0.0121085,0.000404468,-0.923504,0.00794093,0.0127489,1938,1331,16.6096,-4.93835
721,-307,16.6241,4.75366,0.00771516,0.0113182,-0.00864849,0.0183508,0.000682533,-0.888081,0.0120128,0.0148705,1945,1331,16.6242,-4.75368
728,-307,16.5847,4.59265,0.0114489,0.0154081,-0.0123028,0.0258896,0.000967403,-0.865168,0.0169465,0.0213842,1952,1331,16.5847,-4.59261
735,-307,16.4651,4.39282,0.0162786,0.0201945,-0.0169566,0.0353058,0.00116721,-0.842878,0.023158,0.031132,1959,1331,16.4651,-4.39281
742,-307,16.739,3.98096,0.0224948,0.0256964,-0.0229077,0.0470591,0.00113206,-0.820281,0.0310023,0.0400109,1966,1331,16.7391,-3.98099
749,-307,16.9312,2.82166,0.0302739,0.0317395,-0.0304949,0.0615104,0.000503017,-0.797411,0.0408403,0.0424603,1973,1331,16.9311,-2.82161
756,-307,16.8722,2.53284,0,0,0,0,0,0,0,-1,1980,1331,16.8722,-2.53287
763,-307,17.4347,2.33398,0,0,0,0,0,0,0,-1,1987,1331,17.4347,-2.33399
770,-307,0,0,0,0,0,0,0,0,0,-1,1994,1331,0,0
777,-307,0,0,0,0,0,0,0,0,0,-1,2001,1331,0,0
784,-307,0,0,0,0,0,0,0,0,0,-1,2008,1331,0,0
791,-307,0,0,0,0,0,0,0,0,0,-1,2015,1331,0,0
798,-307,0,0,0,0,0,0,0,0,0,-1,2022,1331,0,0
805,-307,0,0,0,0,0,0,0,0,0,-1,2029,1331,0,0
812,-307,0,0,0,0,0,0,0,0,0,-1,2036,1331,0,0
-700,-314,0,0,0,0,0,0,0,0,0,-1,524,1338,0,0
-693,-314,0,0,0,0,0,0,0,0,0,-1,531,1338,0,0
-686,-314,0,0,0,0,0,0,0,0,0,-1,538,1338,0,0
-679,-314,0,0,0,0,0,0,0,0,0,-1,545,1338,0,0
-672,-314,0,0,0,0,0,0,0,0,0,-1,552,1338,0,0
-665,-314,0,0,0,0,0,0,0,0,0,-1,559,1338,0,0
-658,-314,0,0,0,0,0,0,0,0,0,-1,566,1338,0,0
-651,-314,0,0,0,0,0,0,0,0,0,-1,573,1338,0,0
-644,-314,-8.53882,-1.54834,0,0,0,0,0,0,0,-1,580,1338,-8.53883,1.54832
-637,-314,-8.29694,-1.02417,0,0,0,0,0,0,0,-1,587,1338,-8.29694,1.02419
-630,-314,-8.01935,-0.370239,0,0,0,0,0,0,0,-1,594,1338,-8.01932,0.370238
-623,-314,-8.44257,0.419678,0,0,0,0,0,0,0,-1,601,1338,-8.44256,-0.419669
-616,-314,-8.17377,0.703247,0,0,0,0,0,0,0,-1,608,1338,-8.17374,-0.703296
-609,-314,-8.00879,0.928467,0,0,0,0,0,0,0,-1,615,1338,-8.0088,-0.928493
-602,-314,-7.85358,1.78601,0,0,0,0,0,0,0,-1,622,1338,-7.85357,-1.78604
-595,-314,-7.67273,2.33899,0,0,0,0,0,0,0,-1,629,1338,-7.67275,-2.33898
-588,-314,-7.88354,2.56799,0.000121449,0.00440773,0.00437394,0.00713536,-0.00260618,1.0132,0.00582339,0.0162144,636,1338,-7.88357,-2.56793
-581,-314,-7.86182,2.81287,-0.000438577,0.00255315,0.00282025,0.00424968,-0.00213511,1.02923,0.00375304,0.0130956,643,1338,-7.86184,-2.81291
-574,-314,-7.91119,3.01868,-0.000781472,0.00089631,0.00155774,0.00182669,-0.00171185,1.0324,0.00204333,0.0126629,650,1338,-7.91122,-3.01865
-567,-314,-7.90308,3.27209,-0.000724718,-8.7059e-05,0.000540803,0.000221901,-0.00103368,1.05175,0.000773766,0.0132434,657,1338,-7.90308,-3.27207
-560,-314,-7.86133,3.52148,-0.000764154,-0.000805578,-0.000454863,-0.000329531,-0.0012402,-0.762646,0.000741771,0.0145333,664,1338,-7.86135,-3.5215
-553,-314,-7.85205,3.729,-0.00103427,-0.00156289,-0.000916055,-0.000345154,-0.002252,-0.644948,0.00140053,0.0181282,671,1338,-7.85207,-3.72899
-546,-314,-7.88593,3.96753,-0.001152,-0.00216784,-0.00127943,-0.000283362,-0.00303648,-0.596443,0.00193679,0.0179336,678,1338,-7.88592,-3.96752
-539,-314,-7.88287,4.24121,-0.001821,-0.00286257,-0.00151776,-0.000737161,-0.00394641,-0.620129,0.00242289,0.0152591,685,1338,-7.88288,-4.24116
-532,-314,-7.73749,4.49463,-0.00301822,-0.0038157,-0.00171236,-0.0016588,-0.00517513,-0.671006,0.00305135,0.0276616,692,1338,-7.73746,-4.49462
-525,-314,-8.01947,4.53333,-0.00477753,-0.00499692,-0.00198444,-0.00289976,-0.0068747,-0.757788,0.00398526,0.0470065,699,1338,-8.01948,-4.53337
-518,-314,-8.01428,4.43616,0,0,0,0,0,0,0,-1,706,1338,-8.01427,-4.43617
-511,-314,-8.06921,4.27441,0,0,0,0,0,0,0,-1,713,1338,-8.06924,-4.27446
-504,-314,-11.2832,3.00952,0,0,0,0,0,0,0,-1,720,1338,-11.2832,-3.00952
-497,-314,-11.6288,2.9679,0,0,0,0,0,0,0,-1,727,1338,-11.6288,-2.96789
-490,-314,-11.6192,2.64307,0,0,0,0,0,0,0,-1,734,1338,-11.6192,-2.64308
-483,-314,-12.2106,2.35986,0,0,0,0,0,0,0,-1,741,1338,-12.2106,-2.35988
-476,-314,-11.9917,2.04443,0,0,0,0,0,0,0,-1,748,1338,-11.9917,-2.04444
-469,-314,-12.4243,1.89099,0,0,0,0,0,0,0,-1,755,1338,-12.4243,-1.89101
-462,-314,0,0,0,0,0,0,0,0,0,-1,762,1338,0,0
-455,-314,0,0,0,0,0,0,0,0,0,-1,769,1338,0,0
-448,-314,0,0,0,0,0,0,0,0,0,-1,776,1338,0,0
-441,-314,0,0,0,0,0,0,0,0,0,-1,783,1338,0,0
-434,-314,0,0,0,0,0,0,0,0,0,-1,790,1338,0,0
-427,-314,0,0,0,0,0,0,0,0,0,-1,797,1338,0,0
-420,-314,0,0,0,0,0,0,0,0,0,-1,804,1338,0,0
-413,-314,0,0,0,0,0,0,0,0,0,-1,811,1338,0,0
-406,-314,0,0,0,0,0,0,0,0,0,-1,818,1338,0,0
-399,-314,0,0,0,0,0,0,0,0,0,-1,825,1338,0,0
-392,-314,0,0,0,0,0,0,0,0,0,-1,832,1338,0,0
-385,-314,0,0,0,0,0,0,0,0,0,-1,839,1338,0,0
-378,-314,0,0,0,0,0,0,0,0,0,-1,846,1338,0,0
-371,-314,0,0,0,0,0,0,0,0,0,-1,853,1338,0,0
-364,-314,0,0,0,0,0,0,0,0,0,-1,860,1338,0,0
-357,-314,0,0,0,0,0,0,0,0,0,-1,867,1338,0,0
-350,-314,0,0,0,0,0,0,0,0,0,-1,874,1338,0,0
-343,-314,0,0,0,0,0,0,0,0,0,-1,881,1338,0,0
-336,-314,0,0,0,0,0,0,0,0,0,-1,888,1338,0,0
-329,-314,0,0,0,0,0,0,0,0,0,-1,895,1338,0,0
-322,-314,0,0,0,0,0,0,0,0,0,-1,902,1338,0,0
-315,-314,0,0,0,0,0,0,0,0,0,-1,909,1338,0,0
-308,-314,0,0,0,0,0,0,0,0,0,-1,916,1338,0,0
-301,-314,0,0,0,0,0,0,0,0,0,-1,923,1338,0,0
-294,-314,0,0,0,0,0,0,0,0,0,-1,930,1338,0,0
-287,-314,0,0,0,0,0,0,0,0,0,-1,937,1338,0,0
-280,-314,0,0,0,0,0,0,0,0,0,-1,944,1338,0,0
-273,-314,0,0,0,0,0,0,0,0,0,-1,951,1338,0,0
-266,-314,0,0,0,0,0,0,0,0,0,-1,958,1338,0,0
-259,-314,0,0,0,0,0,0,0,0,0,-1,965,1338,0,0
-252,-314,0,0,0,0,0,0,0,0,0,-1,972,1338,0,0
-245,-314,0,0,0,0,0,0,0,0,0,-1,979,1338,0,0
-238,-314,0,0,0,0,0,0,0,0,0,-1,986,1338,0,0
-231,-314,0,0,0,0,0,0,0,0,0,-1,993,1338,0,0
-224,-314,0,0,0,0,0,0,0,0,0,-1,1000,1338,0,0
-217,-314,0,0,0,0,0,0,0,0,0,-1,1007,1338,0,0
-210,-314,0,0,0,0,0,0,0,0,0,-1,1014,1338,0,0
-203,-314,0,0,0,0,0,0,0,0,0,-1,1021,1338,0,0
-196,-314,0,0,0,0,0,0,0,0,0,-1,1028,1338,0,0
-189,-314,0,0,0,0,0,0,0,0,0,-1,1035,1338,0,0
-182,-314,0,0,0,0,0,0,0,0,0,-1,1042,1338,0,0
-175,-314,0,0,0,0,0,0,0,0,0,-1,1049,1338,0,0
-168,-314,0,0,0,0,0,0,0,0,0,-1,1056,1338,0,0
-161,-314,0,0,0,0,0,0,0,0,0,-1,1063,1338,0,0
-154,-314,0,0,0,0,0,0,0,0,0,-1,1070,1338,0,0
-147,-314,0,0,0,0,0,0,0,0,0,-1,1077,1338,0,0
-140,-314,0,0,0,0,0,0,0,0,0,-1,1084,1338,0,0
-133,-314,0,0,0,0,0,0,0,0,0,-1,1091,1338,0,0
-126,-314,0,0,0,0,0,0,0,0,0,-1,1098,1338,0,0
-119,-314,0,0,0,0,0,0,0,0,0,-1,1105,1338,0,0
-112,-314,0,0,0,0,0,0,0,0,0,-1,1112,1338,0,0
-105,-314,0,0,0,0,0,0,0,0,0,-1,1119,1338,0,0
-98,-314,0,0,0,0,0,0,0,0,0,-1,1126,1338,0,0
-91,-314,0,0,0,0,0,0,0,0,0,-1,1133,1338,0,0
-84,-314,0,0,0,0,0,0,0,0,0,-1,1140,1338,0,0
-77,-314,0,0,0,0,0,0,0,0,0,-1,1147,1338,0,0
-70,-314,0,0,0,0,0,0,0,0,0,-1,1154,1338,0,0
-63,-314,0,0,0,0,0,0,0,0,0,-1,1161,1338,0,0
-56,-314,0,0,0,0,0,0,0,0,0,-1,1168,1338,0,0
-49,-314,0,0,0,0,0,0,0,0,0,-1,1175,1338,0,0
-42,-314,0,0,0,0,0,0,0,0,0,-1,1182,1338,0,0
-35,-314,0,0,0,0,0,0,0,0,0,-1,1189,1338,0,0
-28,-314,0,0,0,0,0,0,0,0,0,-1,1196,1338,0,0
-21,-314,0,0,0,0,0,0,0,0,0,-1,1203,1338,0,0
-14,-314,0,0,0,0,0,0,0,0,0,-1,1210,1338,0,0
-7,-314,0,0,0,0,0,0,0,0,0,-1,1217,1338,0,0
0,-314,0,0,0,0,0,0,0,0,0,-1,1224,1338,0,0
7,-314,0,0,0,0,0,0,0,0,0,-1,1231,1338,0,0
14,-314,0,0,0,0,0,0,0,0,0,-1,1238,1338,0,0
21,-314,0,0,0,0,0,0,0,0,0,-1,1245,1338,0,0
28,-314,0,0,0,0,0,0,0,0,0,-1,1252,1338,0,0
35,-314,0,0,0,0,0,0,0,0,0,-1,1259,1338,0,0
42,-314,0,0,0,0,0,0,0,0,0,-1,1266,1338,0,0
49,-314,0,0,0,0,0,0,0,0,0,-1,1273,1338,0,0
56,-314,0,0,0,0,0,0,0,0,0,-1,1280,1338,0,0
63,-314,0,0,0,0,0,0,0,0,0,-1,1287,1338,0,0
70,-314,0,0,0,0,0,0,0,0,0,-1,1294,1338,0,0
77,-314,0,0,0,0,0,0,0,0,0,-1,1301,1338,0,0
84,-314,0,0,0,0,0,0,0,0,0,-1,1308,1338,0,0
91,-314,0,0,0,0,0,0,0,0,0,-1,1315,1338,0,0
98,-314,0,0,0,0,0,0,0,0,0,-1,1322,1338,0,0
105,-314,0,0,0,0,0,0,0,0,0,-1,1329,1338,0,0
112,-314,0,0,0,0,0,0,0,0,0,-1,1336,1338,0,0
119,-314,0,0,0,0,0,0,0,0,0,-1,1343,1338,0,0
126,-314,0,0,0,0,0,0,0,0,0,-1,1350,1338,0,0
133,-314,0,0,0,0,0,0,0,0,0,-1,1357,1338,0,0
140,-314,0,0,0,0,0,0,0,0,0,-1,1364,1338,0,0
147,-314,0,0,0,0,0,0,0,0,0,-1,1371,1338,0,0
154,-314,0,0,0,0,0,0,0,0,0,-1,1378,1338,0,0
161,-314,0,0,0,0,0,0,0,0,0,-1,1385,1338,0,0
168,-314,0,0,0,0,0,0,0,0,0,-1,1392,1338,0,0
175,-314,0,0,0,0,0,0,0,0,0,-1,1399,1338,0,0
182,-314,0,0,0,0,0,0,0,0,0,-1,1406,1338,0,0
189,-314,0,0,0,0,0,0,0,0,0,-1,1413,1338,0,0
196,-314,0,0,0,0,0,0,0,0,0,-1,1420,1338,0,0
203,-314,0,0,0,0,0,0,0,0,0,-1,1427,1338,0,0
210,-314,0,0,0,0,0,0,0,0,0,-1,1434,1338,0,0
217,-314,0,0,0,0,0,0,0,0,0,-1,1441,1338,0,0
224,-314,0,0,0,0,0,0,0,0,0,-1,1448,1338,0,0
231,-314,0,0,0,0,0,0,0,0,0,-1,1455,1338,0,0
238,-314,0,0,0,0,0,0,0,0,0,-1,1462,1338,0,0
245,-314,0,0,0,0,0,0,0,0,0,-1,1469,1338,0,0
252,-314,0,0,0,0,0,0,0,0,0,-1,1476,1338,0,0
259,-314,0,0,0,0,0,0,0,0,0,-1,1483,1338,0,0
266,-314,0,0,0,0,0,0,0,0,0,-1,1490,1338,0,0
273,-314,0,0,0,0,0,0,0,0,0,-1,1497,1338,0,0
280,-314,0,0,0,0,0,0,0,0,0,-1,1504,1338,0,0
287,-314,0,0,0,0,0,0,0,0,0,-1,1511,1338,0,0
294,-314,0,0,0,0,0,0,0,0,0,-1,1518,1338,0,0
301,-314,0,0,0,0,0,0,0,0,0,-1,1525,1338,0,0
308,-314,0,0,0,0,0,0,0,0,0,-1,1532,1338,0,0
315,-314,0,0,0,0,0,0,0,0,0,-1,1539,1338,0,0
322,-314,0,0,0,0,0,0,0,0,0,-1,1546,1338,0,0
329,-314,0,0,0,0,0,0,0,0,0,-1,1553,1338,0,0
336,-314,0,0,0,0,0,0,0,0,0,-1,1560,1338,0,0
343,-314,0,0,0,0,0,0,0,0,0,-1,1567,1338,0,0
350,-314,0,0,0,0,0,0,0,0,0,-1,1574,1338,0,0
357,-314,0,0,0,0,0,0,0,0,0,-1,1581,1338,0,0
364,-314,0,0,0,0,0,0,0,0,0,-1,1588,1338,0,0
371,-314,0,0,0,0,0,0,0,0,0,-1,1595,1338,0,0
378,-314,0,0,0,0,0,0,0,0,0,-1,1602,1338,0,0
385,-314,0,0,0,0,0,0,0,0,0,-1,1609,1338,0,0
392,-314,0,0,0,0,0,0,0,0,0,-1,1616,1338,0,0
399,-314,0,0,0,0,0,0,0,0,0,-1,1623,1338,0,0
406,-314,0,0,0,0,0,0,0,0,0,-1,1630,1338,0,0
413,-314,0,0,0,0,0,0,0,0,0,-1,1637,1338,0,0
420,-314,0,0,0,0,0,0,0,0,0,-1,1644,1338,0,0
427,-314,0,0,0,0,0,0,0,0,0,-1,1651,1338,0,0
434,-314,0,0,0,0,0,0,0,0,0,-1,1658,1338,0,0
441,-314,0,0,0,0,0,0,0,0,0,-1,1665,1338,0,0
448,-314,0,0,0,0,0,0,0,0,0,-1,1672,1338,0,0
455,-314,0,0,0,0,0,0,0,0,0,-1,1679,1338,0,0
462,-314,0,0,0,0,0,0,0,0,0,-1,1686,1338,0,0
469,-314,0,0,0,0,0,0,0,0,0,-1,1693,1338,0,0
476,-314,0,0,0,0,0,0,0,0,0,-1,1700,1338,0,0
483,-314,0,0,0,0,0,0,0,0,0,-1,1707,1338,0,0
490,-314,0,0,0,0,0,0,0,0,0,-1,1714,1338,0,0
497,-314,0,0,0,0,0,0,0,0,0,-1,1721,1338,0,0
504,-314,0,0,0,0,0,0,0,0,0,-1,1728,1338,0,0
511,-314,0,0,0,0,0,0,0,0,0,-1,1735,1338,0,0
518,-314,0,0,0,0,0,0,0,0,0,-1,1742,1338,0,0
525,-314,0,0,0,0,0,0,0,0,0,-1,1749,1338,0,0
532,-314,0,0,0,0,0,0,0,0,0,-1,1756,1338,0,0
539,-314,0,0,0,0,0,0,0,0,0,-1,1763,1338,0,0
546,-314,0,0,0,0,0,0,0,0,0,-1,1770,1338,0,0
553,-314,0,0,0,0,0,0,0,0,0,-1,1777,1338,0,0
560,-314,0,0,0,0,0,0,0,0,0,-1,1784,1338,0,0
567,-314,0,0,0,0,0,0,0,0,0,-1,1791,1338,0,0
574,-314,0,0,0,0,0,0,0,0,0,-1,1798,1338,0,0
581,-314,20.7045,3.93848,0,0,0,0,0,0,0,-1,1805,1338,20.7044,-3.93853
588,-314,21.209,3.79358,0,0,0,0,0,0,0,-1,1812,1338,21.209,-3.79355
595,-314,21.6539,3.52722,0.0186239,0.0382261,0.00711437,0.040536,0.0163141,1.25686,0.0235515,0.0439801,1819,1338,21.6539,-3.52725
602,-314,22.0366,3.22388,0.00712941,0.0295541,0.017169,0.0388476,-0.00216417,1.07466,0.0266491,0.0392648,1826,1338,22.0366,-3.2239
609,-314,21.9266,3.15918,0.0021347,0.0228897,0.0182949,0.0335454,-0.00852101,1.04339,0.0256796,0.0387892,1833,1338,21.9267,-3.15924
616,-314,21.8898,3.50659,-0.000375418,0.0181707,0.0168011,0.0280879,-0.0102927,1.03756,0.0229392,0.0429761,1840,1338,21.8898,-3.50663
623,-314,22.2689,3.2356,0,0,0,0,0,0,0,-1,1847,1338,22.2689,-3.23564
630,-314,19.7841,5.08118,0,0,0,0,0,0,0,-1,1854,1338,19.784,-5.08116
637,-314,20.4666,6.4209,0,0,0,0,0,0,0,-1,1861,1338,20.4666,-6.42087
644,-314,17.0294,5.60413,0,0,0,0,0,0,0,-1,1868,1338,17.0295,-5.60408
651,-314,16.723,6.0686,0,0,0,0,0,0,0,-1,1875,1338,16.7231,-6.06856
658,-314,16.5768,6.27185,-0.00760558,0.00120125,0.00885967,0.00669146,-0.0130958,1.01603,0.0116219,0.0408261,1882,1338,16.5768,-6.2719
665,-314,16.3781,6.38245,-0.00672036,-0.000205039,0.00687549,0.0041455,-0.0110709,1.00664,0.00908343,0.0163542,1889,1338,16.3781,-6.38243
672,-314,16.4032,6.16699,-0.00607791,-0.00132769,0.00487416,0.00171925,-0.00912485,1.01211,0.00672992,0.011492,1896,1338,16.4031,-6.167
679,-314,16.4099,5.94543,-0.00518452,-0.00158028,0.00372962,0.000759787,-0.00752459,1.01045,0.00528788,0.00961166,1903,1338,16.4099,-5.9454
686,-314,16.3929,5.74634,-0.00371227,-0.000688865,0.00232336,0.000571302,-0.00497244,1.07382,0.00352088,0.0107228,1910,1338,16.3929,-5.74636
693,-314,16.3905,5.55432,-0.00213106,0.0012119,0.000521393,0.00129133,-0.00221049,1.41961,0.00204486,0.0105526,1917,1338,16.3905,-5.55436
700,-314,16.403,5.34302,0.000326685,0.00382078,-0.00163046,0.00446341,-0.000315946,-1.19535,0.00308632,0.0120578,1924,1338,16.4029,-5.34307
707,-314,16.408,5.1311,0.00240771,0.0066997,-0.00394157,0.00904161,6.58021e-05,-1.03469,0.00600593,0.0126285,1931,1338,16.408,-5.13107
714,-314,16.3915,4.95654,0.00490098,0.0101826,-0.00681107,0.0148469,0.000236681,-0.970337,0.00981998,0.0116163,1938,1338,16.3915,-4.95657
721,-314,16.4141,4.76489,0.00799538,0.014499,-0.010062,0.0218216,0.000672737,-0.941689,0.0143288,0.0168926,1945,1338,16.4141,-4.76483
728,-314,16.2831,4.60461,0.0120359,0.0196769,-0.0140442,0.030411,0.00130181,-0.9182,0.0198543,0.0303012,1952,1338,16.2831,-4.60467
735,-314,16.291,4.34216,0.0175569,0.0258286,-0.0190862,0.0412219,0.00216364,-0.892095,0.0267892,0.0409843,1959,1338,16.291,-4.34222
742,-314,17.2063,3.65417,0.0249848,0.0328794,-0.0254053,0.0546422,0.00322197,-0.862468,0.0354031,0.0447489,1966,1338,17.2063,-3.65416
749,-314,18.4055,3.25244,0.0347872,0.040544,-0.0332801,0.0710699,0.00426131,-0.828536,0.0460253,0.0432681,1973,1338,18.4056,-3.25238
756,-314,19.6914,2.82251,0,0,0,0,0,0,0,-1,1980,1338,19.6915,-2.82255
763,-314,20.9163,2.52234,0,0,0,0,0,0,0,-1,1987,1338,20.9163,-2.52229
770,-314,0,0,0,0,0,0,0,0,0,-1,1994,1338,0,0
777,-314,0,0,0,0,0,0,0,0,0,-1,2001,1338,0,0
784,-314,0,0,0,0,0,0,0,0,0,-1,2008,1338,0,0
791,-314,0,0,0,0,0,0,0,0,0,-1,2015,1338,0,0
798,-314,0,0,0,0,0,0,0,0,0,-1,2022,1338,0,0
805,-314,0,0,0,0,0,0,0,0,0,-1,2029,1338,0,0
812,-314,0,0,0,0,0,0,0,0,0,-1,2036,1338,0,0
-700,-321,0,0,0,0,0,0,0,0,0,-1,524,1345,0,0
-693,-321,0,0,0,0,0,0,0,0,0,-1,531,1345,0,0
-686,-321,0,0,0,0,0,0,0,0,0,-1,538,1345,0,0
-679,-321,0,0,0,0,0,0,0,0,0,-1,545,1345,0,0
-672,-321,0,0,0,0,0,0,0,0,0,-1,552,1345,0,0
-665,-321,0,0,0,0,0,0,0,0,0,-1,559,1345,0,0
-658,-321,0,0,0,0,0,0,0,0,0,-1,566,1345,0,0
-651,-321,0,0,0,0,0,0,0,0,0,-1,573,1345,0,0
-644,-321,-4.64539,-8.12524,0,0,0,0,0,0,0,-1,580,1345,-4.64538,8.12521
-637,-321,-7.81842,-1.34912,0,0,0,0,0,0,0,-1,587,1345,-7.81844,1.3491
-630,-321,-7.06873,-0.651489,0.028864,0.0354065,0.00961577,0.0422922,0.0219783,0.949355,0.0244237,0.0436874,594,1345,-7.0687,0.651494
-623,-321,-6.70807,0.338501,0,0,0,0,0,0,0,-1,601,1345,-6.70807,-0.338557
-616,-321,-8.15558,0.4646,0,0,0,0,0,0,0,-1,608,1345,-8.15556,-0.464626
-609,-321,-7.95209,1.14758,0,0,0,0,0,0,0,-1,615,1345,-7.95208,-1.14757
-602,-321,-7.74084,1.62891,0,0,0,0,0,0,0,-1,622,1345,-7.74082,-1.62894
-595,-321,-7.52954,2.11035,0,0,0,0,0,0,0,-1,629,1345,-7.52956,-2.11032
-588,-321,-7.659,2.51917,-0.000822927,0.00365649,0.00383316,0.00585631,-0.00302274,1.0498,0.00521261,0.0201758,636,1345,-7.65897,-2.51914
-581,-321,-7.63525,2.81226,-0.00134928,0.00201962,0.00241047,0.00327587,-0.00260553,1.09036,0.00340297,0.0126107,643,1345,-7.63524,-2.81226
-574,-321,-7.65985,3.02783,-0.00164668,0.000541591,0.00129841,0.00114539,-0.00225049,1.13551,0.00199492,0.0150686,650,1345,-7.65986,-3.02788
-567,-321,-7.63812,3.25342,-0.00144634,-0.000202768,0.000358529,-0.000106807,-0.0015423,1.30927,0.000994514,0.0205106,657,1345,-7.63812,-3.25343
-560,-321,-7.58887,3.52588,-0.00133141,-0.000783417,-0.000518534,-0.00047094,-0.00164389,-1.02846,0.000977521,0.0241925,664,1345,-7.58887,-3.52594
-553,-321,-7.62573,3.70325,-0.00154997,-0.00144685,-0.000883543,-0.000613364,-0.00238346,-0.814544,0.00142909,0.0264617,671,1345,-7.62575,-3.7032
-546,-321,-7.67322,3.94446,-0.00165236,-0.00202455,-0.00115587,-0.000667695,-0.00300921,-0.705583,0.00182476,0.0259494,678,1345,-7.67322,-3.94446
-539,-321,-7.68158,4.22571,-0.00236503,-0.00274084,-0.00126893,-0.00127016,-0.0038357,-0.711892,0.00225624,0.0227487,685,1345,-7.68157,-4.22575
-532,-321,-7.60114,4.47217,-0.0037599,-0.00381019,-0.00129825,-0.00248655,-0.00508354,-0.775716,0.00293521,0.0183422,692,1345,-7.60113,-4.47221
-525,-321,-7.55981,4.7644,-0.00595343,-0.00526982,-0.00143341,-0.00413803,-0.00708522,-0.90244,0.00410987,0.0362718,699,1345,-7.55984,-4.76439
-518,-321,-7.61304,5.00903,0,0,0,0,0,0,0,-1,706,1345,-7.61302,-5.00901
-511,-321,-8.16992,4.75903,0,0,0,0,0,0,0,-1,713,1345,-8.1699,-4.75904
-504,-321,-8.54242,5.06934,0,0,0,0,0,0,0,-1,720,1345,-8.54242,-5.0693
-497,-321,-11.2621,3.44556,0,0,0,0,0,0,0,-1,727,1345,-11.2621,-3.4455
-490,-321,-11.342,3.23376,0,0,0,0,0,0,0,-1,734,1345,-11.342,-3.23375
-483,-321,-11.5651,3.07239,0,0,0,0,0,0,0,-1,741,1345,-11.5651,-3.07241
-476,-321,-11.7875,2.90894,0,0,0,0,0,0,0,-1,748,1345,-11.7875,-2.90897
-469,-321,-12.0922,2.69458,0,0,0,0,0,0,0,-1,755,1345,-12.0922,-2.69461
-462,-321,-12.5012,2.43164,0,0,0,0,0,0,0,-1,762,1345,-12.5012,-2.43164
-455,-321,0,0,0,0,0,0,0,0,0,-1,769,1345,0,0
-448,-321,0,0,0,0,0,0,0,0,0,-1,776,1345,0,0
-441,-321,0,0,0,0,0,0,0,0,0,-1,783,1345,0,0
-434,-321,0,0,0,0,0,0,0,0,0,-1,790,1345,0,0
-427,-321,0,0,0,0,0,0,0,0,0,-1,797,1345,0,0
-420,-321,0,0,0,0,0,0,0,0,0,-1,804,1345,0,0
-413,-321,0,0,0,0,0,0,0,0,0,-1,811,1345,0,0
-406,-321,0,0,0,0,0,0,0,0,0,-1,818,1345,0,0
-399,-321,0,0,0,0,0,0,0,0,0,-1,825,1345,0,0
-392,-321,0,0,0,0,0,0,0,0,0,-1,832,1345,0,0
-385,-321,0,0,0,0,0,0,0,0,0,-1,839,1345,0,0
-378,-321,0,0,0,0,0,0,0,0,0,-1,846,1345,0,0
-371,-321,0,0,0,0,0,0,0,0,0,-1,853,1345,0,0
-364,-321,0,0,0,0,0,0,0,0,0,-1,860,1345,0,0
-357,-321,0,0,0,0,0,0,0,0,0,-1,867,1345,0,0
-350,-321,0,0,0,0,0,0,0,0,0,-1,874,1345,0,0
-343,-321,0,0,0,0,0,0,0,0,0,-1,881,1345,0,0
-336,-321,0,0,0,0,0,0,0,0,0,-1,888,1345,0,0
-329,-321,0,0,0,0,0,0,0,0,0,-1,895,1345,0,0
-322,-321,0,0,0,0,0,0,0,0,0,-1,902,1345,0,0
-315,-321,0,0,0,0,0,0,0,0,0,-1,909,1345,0,0
-308,-321,0,0,0,0,0,0,0,0,0,-1,916,1345,0,0
-301,-321,0,0,0,0,0,0,0,0,0,-1,923,1345,0,0
-294,-321,0,0,0,0,0,0,0,0,0,-1,930,1345,0,0
-287,-321,0,0,0,0,0,0,0,0,0,-1,937,1345,0,0
-280,-321,0,0,0,0,0,0,0,0,0,-1,944,1345,0,0
-273,-321,0,0,0,0,0,0,0,0,0,-1,951,1345,0,0
-266,-321,0,0,0,0,0,0,0,0,0,-1,958,1345,0,0
-259,-321,0,0,0,0,0,0,0,0,0,-1,965,1345,0,0
-252,-321,0,0,0,0,0,0,0,0,0,-1,972,1345,0,0
-245,-321,0,0,0,0,0,0,0,0,0,-1,979,1345,0,0
-238,-321,0,0,0,0,0,0,0,0,0,-1,986,1345,0,0
-231,-321,0,0,0,0,0,0,0,0,0,-1,993,1345,0,0
-224,-321,0,0,0,0,0,0,0,0,0,-1,1000,1345,0,0
-217,-321,0,0,0,0,0,0,0,0,0,-1,1007,1345,0,0
-210,-321,0,0,0,0,0,0,0,0,0,-1,1014,1345,0,0
-203,-321,0,0,0,0,0,0,0,0,0,-1,1021,1345,0,0
-196,-321,0,0,0,0,0,0,0,0,0,-1,1028,1345,0,0
-189,-321,0,0,0,0,0,0,0,0,0,-1,1035,1345,0,0
-182,-321,0,0,0,0,0,0,0,0,0,-1,1042,1345,0,0
-175,-321,0,0,0,0,0,0,0,0,0,-1,1049,1345,0,0
-168,-321,0,0,0,0,0,0,0,0,0,-1,1056,1345,0,0
-161,-321,0,0,0,0,0,0,0,0,0,-1,1063,1345,0,0
-154,-321,0,0,0,0,0,0,0,0,0,-1,1070,1345,0,0
-147,-321,0,0,0,0,0,0,0,0,0,-1,1077,1345,0,0
-140,-321,0,0,0,0,0,0,0,0,0,-1,1084,1345,0,0
-133,-321,0,0,0,0,0,0,0,0,0,-1,1091,1345,0,0
-126,-321,0,0,0,0,0,0,0,0,0,-1,1098,1345,0,0
-119,-321,0,0,0,0,0,0,0,0,0,-1,1105,1345,0,0
-112,-321,0,0,0,0,0,0,0,0,0,-1,1112,1345,0,0
-105,-321,0,0,0,0,0,0,0,0,0,-1,1119,1345,0,0
-98,-321,0,0,0,0,0,0,0,0,0,-1,1126,1345,0,0
-91,-321,0,0,0,0,0,0,0,0,0,-1,1133,1345,0,0
-84,-321,0,0,0,0,0,0,0,0,0,-1,1140,1345,0,0
-77,-321,0,0,0,0,0,0,0,0,0,-1,1147,1345,0,0
-70,-321,0,0,0,0,0,0,0,0,0,-1,1154,1345,0,0
-63,-321,0,0,0,0,0,0,0,0,0,-1,1161,1345,0,0
-56,-321,0,0,0,0,0,0,0,0,0,-1,1168,1345,0,0
-49,-321,0,0,0,0,0,0,0,0,0,-1,1175,1345,0,0
-42,-321,0,0,0,0,0,0,0,0,0,-1,1182,1345,0,0
-35,-321,0,0,0,0,0,0,0,0,0,-1,1189,1345,0,0
-28,-321,0,0,0,0,0,0,0,0,0,-1,1196,1345,0,0
-21,-321,0,0,0,0,0,0,0,0,0,-1,1203,1345,0,0
-14,-321,0,0,0,0,0,0,0,0,0,-1,1210,1345,0,0
-7,-321,0,0,0,0,0,0,0,0,0,-1,1217,1345,0,0
0,-321,0,0,0,0,0,0,0,0,0,-1,1224,1345,0,0
7,-321,0,0,0,0,0,0,0,0,0,-1,1231,1345,0,0
14,-321,0,0,0,0,0,0,0,0,0,-1,1238,1345,0,0
21,-321,0,0,0,0,0,0,0,0,0,-1,1245,1345,0,0
28,-321,0,0,0,0,0,0,0,0,0,-1,1252,1345,0,0
35,-321,0,0,0,0,0,0,0,0,0,-1,1259,1345,0,0
42,-321,0,0,0,0,0,0,0,0,0,-1,1266,1345,0,0
49,-321,0,0,0,0,0,0,0,0,0,-1,1273,1345,0,0
56,-321,0,0,0,0,0,0,0,0,0,-1,1280,1345,0,0
63,-321,0,0,0,0,0,0,0,0,0,-1,1287,1345,0,0
70,-321,0,0,0,0,0,0,0,0,0,-1,1294,1345,0,0
77,-321,0,0,0,0,0,0,0,0,0,-1,1301,1345,0,0
84,-321,0,0,0,0,0,0,0,0,0,-1,1308,1345,0,0
91,-321,0,0,0,0,0,0,0,0,0,-1,1315,1345,0,0
98,-321,0,0,0,0,0,0,0,0,0,-1,1322,1345,0,0
105,-321,0,0,0,0,0,0,0,0,0,-1,1329,1345,0,0
112,-321,0,0,0,0,0,0,0,0,0,-1,1336,1345,0,0
119,-321,0,0,0,0,0,0,0,0,0,-1,1343,1345,0,0
126,-321,0,0,0,0,0,0,0,0,0,-1,1350,1345,0,0
133,-321,0,0,0,0,0,0,0,0,0,-1,1357,1345,0,0
140,-321,0,0,0,0,0,0,0,0,0,-1,1364,1345,0,0
147,-321,0,0,0,0,0,0,0,0,0,-1,1371,1345,0,0
154,-321,0,0,0,0,0,0,0,0,0,-1,1378,1345,0,0
161,-321,0,0,0,0,0,0,0,0,0,-1,1385,1345,0,0
168,-321,0,0,0,0,0,0,0,0,0,-1,1392,1345,0,0
175,-321,0,0,0,0,0,0,0,0,0,-1,1399,1345,0,0
182,-321,0,0,0,0,0,0,0,0,0,-1,1406,1345,0,0
189,-321,0,0,0,0,0,0,0,0,0,-1,1413,1345,0,0
196,-321,0,0,0,0,0,0,0,0,0,-1,1420,1345,0,0
203,-321,0,0,0,0,0,0,0,0,0,-1,1427,1345,0,0
210,-321,0,0,0,0,0,0,0,0,0,-1,1434,1345,0,0
217,-321,0,0,0,0,0,0,0,0,0,-1,1441,1345,0,0
224,-321,0,0,0,0,0,0,0,0,0,-1,1448,1345,0,0
231,-321,0,0,0,0,0,0,0,0,0,-1,1455,1345,0,0
238,-321,0,0,0,0,0,0,0,0,0,-1,1462,1345,0,0
245,-321,0,0,0,0,0,0,0,0,0,-1,1469,1345,0,0
252,-321,0,0,0,0,0,0,0,0,0,-1,1476,1345,0,0
259,-321,0,0,0,0,0,0,0,0,0,-1,1483,1345,0,0
266,-321,0,0,0,0,0,0,0,0,0,-1,1490,1345,0,0
273,-321,0,0,0,0,0,0,0,0,0,-1,1497,1345,0,0
280,-321,0,0,0,0,0,0,0,0,0,-1,1504,1345,0,0
287,-321,0,0,0,0,0,0,0,0,0,-1,1511,1345,0,0
294,-321,0,0,0,0,0,0,0,0,0,-1,1518,1345,0,0
301,-321,0,0,0,0,0,0,0,0,0,-1,1525,1345,0,0
308,-321,0,0,0,0,0,0,0,0,0,-1,1532,1345,0,0
315,-321,0,0,0,0,0,0,0,0,0,-1,1539,1345,0,0
322,-321,0,0,0,0,0,0,0,0,0,-1,1546,1345,0,0
329,-321,0,0,0,0,0,0,0,0,0,-1,1553,1345,0,0
336,-321,0,0,0,0,0,0,0,0,0,-1,1560,1345,0,0
343,-321,0,0,0,0,0,0,0,0,0,-1,1567,1345,0,0
350,-321,0,0,0,0,0,0,0,0,0,-1,1574,1345,0,0
357,-321,0,0,0,0,0,0,0,0,0,-1,1581,1345,0,0
364,-321,0,0,0,0,0,0,0,0,0,-1,1588,1345,0,0
371,-321,0,0,0,0,0,0,0,0,0,-1,1595,1345,0,0
378,-321,0,0,0,0,0,0,0,0,0,-1,1602,1345,0,0
385,-321,0,0,0,0,0,0,0,0,0,-1,1609,1345,0,0
392,-321,0,0,0,0,0,0,0,0,0,-1,1616,1345,0,0
399,-321,0,0,0,0,0,0,0,0,0,-1,1623,1345,0,0
406,-321,0,0,0,0,0,0,0,0,0,-1,1630,1345,0,0
413,-321,0,0,0,0,0,0,0,0,0,-1,1637,1345,0,0
420,-321,0,0,0,0,0,0,0,0,0,-1,1644,1345,0,0
427,-321,0,0,0,0,0,0,0,0,0,-1,1651,1345,0,0
434,-321,0,0,0,0,0,0,0,0,0,-1,1658,1345,0,0
441,-321,0,0,0,0,0,0,0,0,0,-1,1665,1345,0,0
448,-321,0,0,0,0,0,0,0,0,0,-1,1672,1345,0,0
455,-321,0,0,0,0,0,0,0,0,0,-1,1679,1345,0,0
462,-321,0,0,0,0,0,0,0,0,0,-1,1686,1345,0,0
469,-321,0,0,0,0,0,0,0,0,0,-1,1693,1345,0,0
476,-321,0,0,0,0,0,0,0,0,0,-1,1700,1345,0,0
483,-321,0,0,0,0,0,0,0,0,0,-1,1707,1345,0,0
490,-321,0,0,0,0,0,0,0,0,0,-1,1714,1345,0,0
497,-321,0,0,0,0,0,0,0,0,0,-1,1721,1345,0,0
504,-321,0,0,0,0,0,0,0,0,0,-1,1728,1345,0,0
511,-321,0,0,0,0,0,0,0,0,0,-1,1735,1345,0,0
518,-321,0,0,0,0,0,0,0,0,0,-1,1742,1345,0,0
525,-321,0,0,0,0,0,0,0,0,0,-1,1749,1345,0,0
532,-321,0,0,0,0,0,0,0,0,0,-1,1756,1345,0,0
539,-321,0,0,0,0,0,0,0,0,0,-1,1763,1345,0,0
546,-321,0,0,0,0,0,0,0,0,0,-1,1770,1345,0,0
553,-321,0,0,0,0,0,0,0,0,0,-1,1777,1345,0,0
560,-321,0,0,0,0,0,0,0,0,0,-1,1784,1345,0,0
567,-321,0,0,0,0,0,0,0,0,0,-1,1791,1345,0,0
574,-321,0,0,0,0,0,0,0,0,0,-1,1798,1345,0,0
581,-321,25.6232,2.73877,0,0,0,0,0,0,0,-1,1805,1345,25.6232,-2.73882
588,-321,21.2211,3.46057,0,0,0,0,0,0,0,-1,1812,1345,21.2211,-3.4606
595,-321,21.5221,3.19763,0.0120574,0.0423364,0.0196225,0.0519809,0.00241287,1.11397,0.0338783,0.0487454,1819,1345,21.5221,-3.19764
602,-321,21.8239,2.75464,0.00202443,0.030526,0.0257997,0.0457491,-0.0131986,1.03773,0.0357212,0.0418028,1826,1345,21.8238,-2.75464
609,-321,22.3036,2.53967,0,0,0,0,0,0,0,-1,1833,1345,22.3036,-2.53966
616,-321,21.302,3.77356,0,0,0,0,0,0,0,-1,1840,1345,21.302,-3.77357
623,-321,21.7684,4.09827,0,0,0,0,0,0,0,-1,1847,1345,21.7684,-4.0983
630,-321,21.0529,6.62036,0,0,0,0,0,0,0,-1,1854,1345,21.0529,-6.62038
637,-321,17.0188,7.375,0,0,0,0,0,0,0,-1,1861,1345,17.0188,-7.37504
644,-321,16.8844,6.71973,0,0,0,0,0,0,0,-1,1868,1345,16.8844,-6.71971
651,-321,16.5514,6.45313,0,0,0,0,0,0,0,-1,1875,1345,16.5514,-6.45312
658,-321,16.2694,6.5321,-0.00706417,-0.000113105,0.00918854,0.00623524,-0.0134125,0.966205,0.0115932,0.0326562,1882,1345,16.2694,-6.53212
665,-321,16.1704,6.40491,-0.00574706,-0.00106668,0.00656264,0.00356054,-0.0103743,0.956666,0.00835972,0.0170237,1889,1345,16.1704,-6.40497
672,-321,16.1971,6.16772,-0.00477504,-0.00155766,0.00417684,0.00130957,-0.00764228,0.969216,0.00558281,0.0122247,1896,1345,16.1971,-6.1677
679,-321,16.2113,5.94373,-0.00390024,-0.00138871,0.00292888,0.000542263,-0.00583121,0.98792,0.00408026,0.0101433,1903,1345,16.2113,-5.94375
686,-321,16.1814,5.75403,-0.00275186,-8.85962e-05,0.0014453,0.000545005,-0.00338546,1.15764,0.00245886,0.0102637,1910,1345,16.1813,-5.75404
693,-321,16.1713,5.56055,-0.00151928,0.00210072,-0.00043163,0.00215147,-0.00157003,-1.45375,0.00215733,0.0108548,1917,1345,16.1713,-5.56058
700,-321,16.1934,5.34521,0.00078601,0.00501139,-0.0026135,0.00625933,-0.000461929,-1.12531,0.00433507,0.0110716,1924,1345,16.1934,-5.34526
707,-321,16.2064,5.14685,0.00260174,0.00838989,-0.00501706,0.0112878,-0.000296118,-1.04701,0.00762579,0.0128952,1931,1345,16.2065,-5.14685
714,-321,16.1956,4.9469,0.00484602,0.0125869,-0.00797319,0.0175794,-0.000146513,-1.01136,0.0117687,0.0124045,1938,1345,16.1956,-4.94688
721,-321,16.1847,4.73816,0.00763452,0.0178994,-0.0114272,0.0252939,0.000240039,-0.996468,0.0167832,0.0202007,1945,1345,16.1847,-4.73821
728,-321,16.0598,4.65515,0.0114377,0.0244109,-0.0156876,0.0349001,0.000948524,-0.981436,0.0229571,0.0329978,1952,1345,16.0598,-4.65509
735,-321,16.3103,3.95776,0.0168426,0.0322637,-0.021008,0.0469315,0.00217484,-0.961281,0.0305885,0.0469434,1959,1345,16.3103,-3.95775
742,-321,16.9337,3.37292,0.0244392,0.0413547,-0.0274889,0.0616576,0.00413633,-0.934641,0.039798,0.0467794,1966,1345,16.9337,-3.37295
749,-321,17.8248,3.18262,0.0351082,0.0513692,-0.0353058,0.0794686,0.00700889,-0.898569,0.0508042,0.0432511,1973,1345,17.8248,-3.18266
756,-321,18.4807,2.99707,0,0,0,0,0,0,0,-1,1980,1345,18.4807,-2.99702
763,-321,16.5902,1.14172,0,0,0,0,0,0,0,-1,1987,1345,16.5902,-1.14172
770,-321,0,0,0,0,0,0,0,0,0,-1,1994,1345,0,0
777,-321,0,0,0,0,0,0,0,0,0,-1,2001,1345,0,0
784,-321,0,0,0,0,0,0,0,0,0,-1,2008,1345,0,0
791,-321,0,0,0,0,0,0,0,0,0,-1,2015,1345,0,0
798,-321,0,0,0,0,0,0,0,0,0,-1,2022,1345,0,0
805,-321,0,0,0,0,0,0,0,0,0,-1,2029,1345,0,0
812,-321,0,0,0,0,0,0,0,0,0,-1,2036,1345,0,0
-700,-328,0,0,0,0,0,0,0,0,0,-1,524,1352,0,0
-693,-328,0,0,0,0,0,0,0,0,0,-1,531,1352,0,0
-686,-328,0,0,0,0,0,0,0,0,0,-1,538,1352,0,0
-679,-328,0,0,0,0,0,0,0,0,0,-1,545,1352,0,0
-672,-328,0,0,0,0,0,0,0,0,0,-1,552,1352,0,0
-665,-328,0,0,0,0,0,0,0,0,0,-1,559,1352,0,0
-658,-328,0,0,0,0,0,0,0,0,0,-1,566,1352,0,0
-651,-328,0,0,0,0,0,0,0,0,0,-1,573,1352,0,0
-644,-328,0,0,0,0,0,0,0,0,0,-1,580,1352,0,0
-637,-328,-6.42798,-2.17993,0,0,0,0,0,0,0,-1,587,1352,-6.42797,2.17988
-630,-328,-5.72601,-0.857422,0,0,0,0,0,0,0,-1,594,1352,-5.72602,0.857463
-623,-328,-5.02405,0.464966,0,0,0,0,0,0,0,-1,601,1352,-5.02407,-0.464951
-616,-328,-3.60748,-3.00574,0,0,0,0,0,0,0,-1,608,1352,-3.60747,3.00572
-609,-328,-7.87439,0.192871,0,0,0,0,0,0,0,-1,615,1352,-7.87441,-0.192822
-602,-328,-7.63062,1.31665,0,0,0,0,0,0,0,-1,622,1352,-7.63064,-1.3166
-595,-328,-7.56708,2.10535,0,0,0,0,0,0,0,-1,629,1352,-7.56705,-2.10531
-588,-328,-7.36053,2.44287,-0.00201527,0.002926,0.00337695,0.0046396,-0.00372887,1.10121,0.00484107,0.0385019,636,1352,-7.36056,-2.44289
-581,-328,-7.40887,2.78589,-0.00242006,0.00144883,0.00202256,0.0023131,-0.00328433,1.16696,0.00324785,0.0147258,643,1352,-7.40887,-2.78595
-574,-328,-7.40948,3.0332,-0.00259369,0.00010958,0.00103699,0.000461547,-0.00294566,1.24358,0.00213432,0.0143088,650,1352,-7.40951,-3.03315
-567,-328,-7.41998,3.28125,-0.00219312,-0.00040763,0.000182166,-0.000389234,-0.00221151,1.47015,0.00136325,0.0186839,657,1352,-7.41999,-3.28126
-560,-328,-7.36719,3.54822,-0.00187534,-0.000868688,-0.000561655,-0.00061783,-0.0021262,-1.15074,0.00126294,0.0267896,664,1352,-7.36719,-3.54824
-553,-328,-7.39886,3.75867,-0.00193899,-0.0014082,-0.000849148,-0.000783939,-0.00256325,-0.936861,0.00151663,0.0298014,671,1352,-7.39884,-3.7587
-546,-328,-7.43701,3.97327,-0.00200035,-0.00189841,-0.0010173,-0.000930806,-0.00296796,-0.810428,0.00175279,0.0275048,678,1352,-7.43704,-3.97324
-539,-328,-7.43689,4.2345,-0.00266905,-0.0025469,-0.00103394,-0.00157224,-0.00364372,-0.814899,0.00211027,0.02271,685,1352,-7.43689,-4.23446
-532,-328,-7.42432,4.48193,-0.00414877,-0.00355142,-0.000917608,-0.00288511,-0.00481509,-0.942736,0.00279816,0.0159892,692,1352,-7.42429,-4.4819
-525,-328,-7.37622,4.74719,-0.00667362,-0.00500774,-0.000897658,-0.00461611,-0.00706525,-1.15941,0.00414259,0.0135722,699,1352,-7.37625,-4.74715
-518,-328,-7.32806,5.04822,-0.0104495,-0.00688847,-0.000803615,-0.00671552,-0.0106225,-1.35881,0.00620392,0.0393252,706,1352,-7.32806,-5.04823
-511,-328,-7.75171,4.9104,-0.0153159,-0.00931441,-0.000311374,-0.0092983,-0.015332,-1.5191,0.00891856,0.0463297,713,1352,-7.75173,-4.91041
-504,-328,-8.32471,5.49072,-0.0212541,-0.0122752,0.000807072,-0.0122033,-0.0213261,1.48186,0.0123554,0.0457517,720,1352,-8.32473,-5.49073
-497,-328,-8.82092,6.18188,0,0,0,0,0,0,0,-1,727,1352,-8.82091,-6.18189
-490,-328,-11.0875,3.83716,0,0,0,0,0,0,0,-1,734,1352,-11.0875,-3.83713
-483,-328,-11.3681,3.75415,0,0,0,0,0,0,0,-1,741,1352,-11.3681,-3.75413
-476,-328,-11.5327,3.73169,0,0,0,0,0,0,0,-1,748,1352,-11.5327,-3.73173
-469,-328,-11.8047,3.55981,0,0,0,0,0,0,0,-1,755,1352,-11.8047,-3.55978
-462,-328,-12.7908,2.91858,0,0,0,0,0,0,0,-1,762,1352,-12.7908,-2.91857
-455,-328,0,0,0,0,0,0,0,0,0,-1,769,1352,0,0
-448,-328,0,0,0,0,0,0,0,0,0,-1,776,1352,0,0
-441,-328,0,0,0,0,0,0,0,0,0,-1,783,1352,0,0
-434,-328,0,0,0,0,0,0,0,0,0,-1,790,1352,0,0
-427,-328,0,0,0,0,0,0,0,0,0,-1,797,1352,0,0
-420,-328,0,0,0,0,0,0,0,0,0,-1,804,1352,0,0
-413,-328,0,0,0,0,0,0,0,0,0,-1,811,1352,0,0
-406,-328,0,0,0,0,0,0,0,0,0,-1,818,1352,0,0
-399,-328,0,0,0,0,0,0,0,0,0,-1,825,1352,0,0
-392,-328,0,0,0,0,0,0,0,0,0,-1,832,1352,0,0
-385,-328,0,0,0,0,0,0,0,0,0,-1,839,1352,0,0
-378,-328,0,0,0,0,0,0,0,0,0,-1,846,1352,0,0
-371,-328,0,0,0,0,0,0,0,0,0,-1,853,1352,0,0
-364,-328,0,0,0,0,0,0,0,0,0,-1,860,1352,0,0
-357,-328,0,0,0,0,0,0,0,0,0,-1,867,1352,0,0
-350,-328,0,0,0,0,0,0,0,0,0,-1,874,1352,0,0
-343,-328,0,0,0,0,0,0,0,0,0,-1,881,1352,0,0
-336,-328,0,0,0,0,0,0,0,0,0,-1,888,1352,0,0
-329,-328,0,0,0,0,0,0,0,0,0,-1,895,1352,0,0
-322,-328,0,0,0,0,0,0,0,0,0,-1,902,1352,0,0
-315,-328,0,0,0,0,0,0,0,0,0,-1,909,1352,0,0
-308,-328,0,0,0,0,0,0,0,0,0,-1,916,1352,0,0
-301,-328,0,0,0,0,0,0,0,0,0,-1,923,1352,0,0
-294,-328,0,0,0,0,0,0,0,0,0,-1,930,1352,0,0
-287,-328,0,0,0,0,0,0,0,0,0,-1,937,1352,0,0
-280,-328,0,0,0,0,0,0,0,0,0,-1,944,1352,0,0
-273,-328,0,0,0,0,0,0,0,0,0,-1,951,1352,0,0
-266,-328,0,0,0,0,0,0,0,0,0,-1,958,1352,0,0
-259,-328,0,0,0,0,0,0,0,0,0,-1,965,1352,0,0
-252,-328,0,0,0,0,0,0,0,0,0,-1,972,1352,0,0
-245,-328,0,0,0,0,0,0,0,0,0,-1,979,1352,0,0
-238,-328,0,0,0,0,0,0,0,0,0,-1,986,1352,0,0
-231,-328,0,0,0,0,0,0,0,0,0,-1,993,1352,0,0
-224,-328,0,0,0,0,0,0,0,0,0,-1,1000,1352,0,0
-217,-328,0,0,0,0,0,0,0,0,0,-1,1007,1352,0,0
-210,-328,0,0,0,0,0,0,0,0,0,-1,1014,1352,0,0
-203,-328,0,0,0,0,0,0,0,0,0,-1,1021,1352,0,0
-196,-328,0,0,0,0,0,0,0,0,0,-1,1028,1352,0,0
-189,-328,0,0,0,0,0,0,0,0,0,-1,1035,1352,0,0
-182,-328,0,0,0,0,0,0,0,0,0,-1,1042,1352,0,0
-175,-328,0,0,0,0,0,0,0,0,0,-1,1049,1352,0,0
-168,-328,0,0,0,0,0,0,0,0,0,-1,1056,1352,0,0
-161,-328,0,0,0,0,0,0,0,0,0,-1,1063,1352,0,0
-154,-328,0,0,0,0,0,0,0,0,0,-1,1070,1352,0,0
-147,-328,0,0,0,0,0,0,0,0,0,-1,1077,1352,0,0
-140,-328,0,0,0,0,0,0,0,0,0,-1,1084,1352,0,0
-133,-328,0,0,0,0,0,0,0,0,0,-1,1091,1352,0,0
-126,-328,0,0,0,0,0,0,0,0,0,-1,1098,1352,0,0
-119,-328,0,0,0,0,0,0,0,0,0,-1,1105,1352,0,0
-112,-328,0,0,0,0,0,0,0,0,0,-1,1112,1352,0,0
-105,-328,0,0,0,0,0,0,0,0,0,-1,1119,1352,0,0
-98,-328,0,0,0,0,0,0,0,0,0,-1,1126,1352,0,0
-91,-328,0,0,0,0,0,0,0,0,0,-1,1133,1352,0,0
-84,-328,0,0,0,0,0,0,0,0,0,-1,1140,1352,0,0
-77,-328,0,0,0,0,0,0,0,0,0,-1,1147,1352,0,0
-70,-328,0,0,0,0,0,0,0,0,0,-1,1154,1352,0,0
-63,-328,0,0,0,0,0,0,0,0,0,-1,1161,1352,0,0
-56,-328,0,0,0,0,0,0,0,0,0,-1,1168,1352,0,0
-49,-328,0,0,0,0,0,0,0,0,0,-1,1175,1352,0,0
-42,-328,0,0,0,0,0,0,0,0,0,-1,1182,1352,0,0
-35,-328,0,0,0,0,0,0,0,0,0,-1,1189,1352,0,0
-28,-328,0,0,0,0,0,0,0,0,0,-1,1196,1352,0,0
-21,-328,0,0,0,0,0,0,0,0,0,-1,1203,1352,0,0
-14,-328,0,0,0,0,0,0,0,0,0,-1,1210,1352,0,0
-7,-328,0,0,0,0,0,0,0,0,0,-1,1217,1352,0,0
0,-328,0,0,0,0,0,0,0,0,0,-1,1224,1352,0,0
7,-328,0,0,0,0,0,0,0,0,0,-1,1231,1352,0,0
14,-328,0,0,0,0,0,0,0,0,0,-1,1238,1352,0,0
21,-328,0,0,0,0,0,0,0,0,0,-1,1245,1352,0,0
28,-328,0,0,0,0,0,0,0,0,0,-1,1252,1352,0,0
35,-328,0,0,0,0,0,0,0,0,0,-1,1259,1352,0,0
42,-328,0,0,0,0,0,0,0,0,0,-1,1266,1352,0,0
49,-328,0,0,0,0,0,0,0,0,0,-1,1273,1352,0,0
56,-328,0,0,0,0,0,0,0,0,0,-1,1280,1352,0,0
63,-328,0,0,0,0,0,0,0,0,0,-1,1287,1352,0,0
70,-328,0,0,0,0,0,0,0,0,0,-1,1294,1352,0,0
77,-328,0,0,0,0,0,0,0,0,0,-1,1301,1352,0,0
84,-328,0,0,0,0,0,0,0,0,0,-1,1308,1352,0,0
91,-328,0,0,0,0,0,0,0,0,0,-1,1315,1352,0,0
98,-328,0,0,0,0,0,0,0,0,0,-1,1322,1352,0,0
105,-328,0,0,0,0,0,0,0,0,0,-1,1329,1352,0,0
112,-328,0,0,0,0,0,0,0,0,0,-1,1336,1352,0,0
119,-328,0,0,0,0,0,0,0,0,0,-1,1343,1352,0,0
126,-328,0,0,0,0,0,0,0,0,0,-1,1350,1352,0,0
133,-328,0,0,0,0,0,0,0,0,0,-1,1357,1352,0,0
140,-328,0,0,0,0,0,0,0,0,0,-1,1364,1352,0,0
147,-328,0,0,0,0,0,0,0,0,0,-1,1371,1352,0,0
154,-328,0,0,0,0,0,0,0,0,0,-1,1378,1352,0,0
161,-328,0,0,0,0,0,0,0,0,0,-1,1385,1352,0,0
168,-328,0,0,0,0,0,0,0,0,0,-1,1392,1352,0,0
175,-328,0,0,0,0,0,0,0,0,0,-1,1399,1352,0,0
182,-328,0,0,0,0,0,0,0,0,0,-1,1406,1352,0,0
189,-328,0,0,0,0,0,0,0,0,0,-1,1413,1352,0,0
196,-328,0,0,0,0,0,0,0,0,0,-1,1420,1352,0,0
203,-328,0,0,0,0,0,0,0,0,0,-1,1427,1352,0,0
210,-328,0,0,0,0,0,0,0,0,0,-1,1434,1352,0,0
217,-328,0,0,0,0,0,0,0,0,0,-1,1441,1352,0,0
224,-328,0,0,0,0,0,0,0,0,0,-1,1448,1352,0,0
231,-328,0,0,0,0,0,0,0,0,0,-1,1455,1352,0,0
238,-328,0,0,0,0,0,0,0,0,0,-1,1462,1352,0,0
245,-328,0,0,0,0,0,0,0,0,0,-1,1469,1352,0,0
252,-328,0,0,0,0,0,0,0,0,0,-1,1476,1352,0,0
259,-328,0,0,0,0,0,0,0,0,0,-1,1483,1352,0,0
266,-328,0,0,0,0,0,0,0,0,0,-1,1490,1352,0,0
273,-328,0,0,0,0,0,0,0,0,0,-1,1497,1352,0,0
280,-328,0,0,0,0,0,0,0,0,0,-1,1504,1352,0,0
287,-328,0,0,0,0,0,0,0,0,0,-1,1511,1352,0,0
294,-328,0,0,0,0,0,0,0,0,0,-1,1518,1352,0,0
301,-328,0,0,0,0,0,0,0,0,0,-1,1525,1352,0,0
308,-328,0,0,0,0,0,0,0,0,0,-1,1532,1352,0,0
315,-328,0,0,0,0,0,0,0,0,0,-1,1539,1352,0,0
322,-328,0,0,0,0,0,0,0,0,0,-1,1546,1352,0,0
329,-328,0,0,0,0,0,0,0,0,0,-1,1553,1352,0,0
336,-328,0,0,0,0,0,0,0,0,0,-1,1560,1352,0,0
343,-328,0,0,0,0,0,0,0,0,0,-1,1567,1352,0,0
350,-328,0,0,0,0,0,0,0,0,0,-1,1574,1352,0,0
357,-328,0,0,0,0,0,0,0,0,0,-1,1581,1352,0,0
364,-328,0,0,0,0,0,0,0,0,0,-1,1588,1352,0,0
371,-328,0,0,0,0,0,0,0,0,0,-1,1595,1352,0,0
378,-328,0,0,0,0,0,0,0,0,0,-1,1602,1352,0,0
385,-328,0,0,0,0,0,0,0,0,0,-1,1609,1352,0,0
392,-328,0,0,0,0,0,0,0,0,0,-1,1616,1352,0,0
399,-328,0,0,0,0,0,0,0,0,0,-1,1623,1352,0,0
406,-328,0,0,0,0,0,0,0,0,0,-1,1630,1352,0,0
413,-328,0,0,0,0,0,0,0,0,0,-1,1637,1352,0,0
420,-328,0,0,0,0,0,0,0,0,0,-1,1644,1352,0,0
427,-328,0,0,0,0,0,0,0,0,0,-1,1651,1352,0,0
434,-328,0,0,0,0,0,0,0,0,0,-1,1658,1352,0,0
441,-328,0,0,0,0,0,0,0,0,0,-1,1665,1352,0,0
448,-328,0,0,0,0,0,0,0,0,0,-1,1672,1352,0,0
455,-328,0,0,0,0,0,0,0,0,0,-1,1679,1352,0,0
462,-328,0,0,0,0,0,0,0,0,0,-1,1686,1352,0,0
469,-328,0,0,0,0,0,0,0,0,0,-1,1693,1352,0,0
476,-328,0,0,0,0,0,0,0,0,0,-1,1700,1352,0,0
483,-328,0,0,0,0,0,0,0,0,0,-1,1707,1352,0,0
490,-328,0,0,0,0,0,0,0,0,0,-1,1714,1352,0,0
497,-328,0,0,0,0,0,0,0,0,0,-1,1721,1352,0,0
504,-328,0,0,0,0,0,0,0,0,0,-1,1728,1352,0,0
511,-328,0,0,0,0,0,0,0,0,0,-1,1735,1352,0,0
518,-328,0,0,0,0,0,0,0,0,0,-1,1742,1352,0,0
525,-328,0,0,0,0,0,0,0,0,0,-1,1749,1352,0,0
532,-328,0,0,0,0,0,0,0,0,0,-1,1756,1352,0,0
539,-328,0,0,0,0,0,0,0,0,0,-1,1763,1352,0,0
546,-328,0,0,0,0,0,0,0,0,0,-1,1770,1352,0,0
553,-328,0,0,0,0,0,0,0,0,0,-1,1777,1352,0,0
560,-328,0,0,0,0,0,0,0,0,0,-1,1784,1352,0,0
567,-328,0,0,0,0,0,0,0,0,0,-1,1791,1352,0,0
574,-328,28.2292,2.03394,0,0,0,0,0,0,0,-1,1798,1352,28.2293,-2.03394
581,-328,27.3054,2.1604,0,0,0,0,0,0,0,-1,1805,1352,27.3054,-2.16042
588,-328,26.1967,2.43884,0,0,0,0,0,0,0,-1,1812,1352,26.1966,-2.43889
595,-328,21.2974,2.68811,0,0,0,0,0,0,0,-1,1819,1352,21.2974,-2.68816
602,-328,21.37,2.04822,0,0,0,0,0,0,0,-1,1826,1352,21.37,-2.04822
609,-328,21.8478,2.00488,0,0,0,0,0,0,0,-1,1833,1352,21.8478,-2.00486
616,-328,20.8374,3.76013,0,0,0,0,0,0,0,-1,1840,1352,20.8373,-3.76015
623,-328,20.527,4.10889,0,0,0,0,0,0,0,-1,1847,1352,20.5269,-4.10884
630,-328,17.3185,7.62988,0,0,0,0,0,0,0,-1,1854,1352,17.3184,-7.62987
637,-328,16.8966,7.19812,0,0,0,0,0,0,0,-1,1861,1352,16.8966,-7.19806
644,-328,16.4474,6.76929,0,0,0,0,0,0,0,-1,1868,1352,16.4474,-6.76928
651,-328,16.1046,6.77576,0,0,0,0,0,0,0,-1,1875,1352,16.1046,-6.77571
658,-328,15.9763,6.60327,-0.00644294,-0.00113965,0.00869408,0.00529816,-0.0128808,0.933414,0.0107957,0.0230815,1882,1352,15.9763,-6.60327
665,-328,15.9762,6.40332,-0.00474695,-0.00155842,0.00564328,0.00271147,-0.00901684,0.923064,0.00709003,0.0133814,1889,1352,15.9762,-6.40332
672,-328,15.9955,6.1842,-0.00352541,-0.00149651,0.00315905,0.000806977,-0.0058289,0.940759,0.00418097,0.0105685,1896,1352,15.9954,-6.18425
679,-328,16.0155,5.96411,-0.00268732,-0.00106906,0.00200969,0.00028827,-0.00404465,0.976777,0.00279748,0.0119414,1903,1352,16.0155,-5.96414
686,-328,15.9863,5.75378,-0.00192825,0.000547451,0.000567213,0.000671219,-0.00205202,1.35596,0.00163825,0.010947,1910,1352,15.9863,-5.75381
693,-328,15.9811,5.5553,-0.00113562,0.00295001,-0.00132988,0.00334475,-0.00153035,-1.28226,0.00287889,0.00818393,1917,1352,15.981,-5.55533
700,-328,15.9857,5.36572,0.000863102,0.00611396,-0.00352641,0.00788495,-0.000907884,-1.10539,0.00558392,0.011751,1924,1352,15.9857,-5.36569
707,-328,15.9989,5.16724,0.00221122,0.00998055,-0.00602094,0.0132612,-0.00106947,-1.07189,0.00921802,0.0139255,1931,1352,15.9989,-5.16723
714,-328,16.0135,4.95374,0.00384219,0.0149501,-0.009046,0.020011,-0.00121878,-1.06071,0.0137649,0.0133513,1938,1352,16.0136,-4.95371
721,-328,15.9083,4.7677,0.00585703,0.0213547,-0.0126988,0.0284822,-0.00127045,-1.05934,0.0194255,0.0273234,1945,1352,15.9084,-4.76768
728,-328,15.9213,4.53162,0.00871219,0.0293763,-0.0172226,0.0391283,-0.00103984,-1.05558,0.026439,0.0436567,1952,1352,15.9213,-4.53158
735,-328,16.0771,4.1842,0,0,0,0,0,0,0,-1,1959,1352,16.0772,-4.18417
742,-328,16.6348,3.0658,0.0191709,0.0507208,-0.0292867,0.0682108,0.00168088,-1.03244,0.0449241,0.0474687,1966,1352,16.6348,-3.06577
749,-328,17.2422,2.7655,0.0286189,0.0637594,-0.0368177,0.0869844,0.00539386,-1.00803,0.0562779,0.0418829,1973,1352,17.2422,-2.76546
756,-328,17.6788,2.54285,0,0,0,0,0,0,0,-1,1980,1352,17.6789,-2.5429
763,-328,0,0,0,0,0,0,0,0,0,-1,1987,1352,0,0
770,-328,0,0,0,0,0,0,0,0,0,-1,1994,1352,0,0
777,-328,0,0,0,0,0,0,0,0,0,-1,2001,1352,0,0
784,-328,0,0,0,0,0,0,0,0,0,-1,2008,1352,0,0
791,-328,0,0,0,0,0,0,0,0,0,-1,2015,1352,0,0
798,-328,0,0,0,0,0,0,0,0,0,-1,2022,1352,0,0
805,-328,0,0,0,0,0,0,0,0,0,-1,2029,1352,0,0
812,-328,0,0,0,0,0,0,0,0,0,-1,2036,1352,0,0
-700,-335,0,0,0,0,0,0,0,0,0,-1,524,1359,0,0
-693,-335,0,0,0,0,0,0,0,0,0,-1,531,1359,0,0
-686,-335,0,0,0,0,0,0,0,0,0,-1,538,1359,0,0
-679,-335,0,0,0,0,0,0,0,0,0,-1,545,1359,0,0
-672,-335,0,0,0,0,0,0,0,0,0,-1,552,1359,0,0
-665,-335,0,0,0,0,0,0,0,0,0,-1,559,1359,0,0
-658,-335,0,0,0,0,0,0,0,0,0,-1,566,1359,0,0
-651,-335,0,0,0,0,0,0,0,0,0,-1,573,1359,0,0
-644,-335,0,0,0,0,0,0,0,0,0,-1,580,1359,0,0
-637,-335,-5.32825,-2.35059,0,0,0,0,0,0,0,-1,587,1359,-5.32827,2.35061
-630,-335,-4.62103,-0.999512,0,0,0,0,0,0,0,-1,594,1359,-4.62104,0.99953
-623,-335,-3.91382,0.351563,0,0,0,0,0,0,0,-1,601,1359,-3.9138,-0.351551
-616,-335,-2.34357,0.0516357,0,0,0,0,0,0,0,-1,608,1359,-2.3436,-0.051622
-609,-335,-7.664,-2.79272,0,0,0,0,0,0,0,-1,615,1359,-7.66403,2.79271
-602,-335,-6.82416,2.07495,0,0,0,0,0,0,0,-1,622,1359,-6.82414,-2.07492
-595,-335,-6.8653,2.39038,-0.00220545,0.00382884,0.00399429,0.00581745,-0.00419405,1.10886,0.00580541,0.0474439,629,1359,-6.86531,-2.39044
-588,-335,-6.95508,2.66345,-0.00347305,0.00169911,0.00247034,0.0026894,-0.00446334,1.18954,0.00417175,0.0389536,636,1359,-6.9551,-2.66345
-581,-335,-7.14893,2.82202,-0.00368607,0.000468993,0.00130938,0.000847194,-0.00406427,1.28961,0.00303163,0.0198829,643,1359,-7.14895,-2.82199
-574,-335,-7.16315,3.02136,-0.00363968,-0.00067238,0.000605691,-0.000553508,-0.00375855,1.377,0.00234309,0.0119819,650,1359,-7.16317,-3.02139
-567,-335,-7.16864,3.29431,-0.00299604,-0.000849713,-0.000120459,-0.000842973,-0.00300277,-1.51491,0.00178836,0.0157504,657,1359,-7.16867,-3.29437
-560,-335,-7.13104,3.52051,-0.00243524,-0.00105688,-0.00069635,-0.000766327,-0.00272579,-1.17551,0.00162321,0.0242948,664,1359,-7.13105,-3.52055
-553,-335,-7.15613,3.76636,-0.00228401,-0.00136883,-0.000898905,-0.000817749,-0.00283509,-1.02083,0.00168498,0.0282957,671,1359,-7.1561,-3.7664
-546,-335,-7.18573,4.01807,-0.0022573,-0.00166298,-0.000966324,-0.000949158,-0.00297112,-0.934567,0.00175226,0.0255355,678,1359,-7.18573,-4.01802
-539,-335,-7.17749,4.24915,-0.00279011,-0.00210733,-0.00091298,-0.001474,-0.00342344,-0.964313,0.00198287,0.0199266,685,1359,-7.17748,-4.24913
-532,-335,-7.17139,4.49731,-0.00419076,-0.0028259,-0.000693433,-0.00253542,-0.00448124,-1.1741,0.0025947,0.0143161,692,1359,-7.17139,-4.49728
-525,-335,-7.12488,4.74585,-0.00672758,-0.00393469,-0.000548342,-0.00383089,-0.00683138,-1.38371,0.0039538,0.00980382,699,1359,-7.1249,-4.74585
-518,-335,-7.10919,5.00269,-0.0107823,-0.00538282,-0.000389933,-0.0053548,-0.0108103,-1.49908,0.00624142,0.01967,706,1359,-7.10919,-5.00274
-511,-335,-7.38727,5.03381,-0.016551,-0.00738704,2.38639e-05,-0.00738698,-0.0165511,1.56819,0.00957413,0.0448408,713,1359,-7.38725,-5.03376
-504,-335,-8.0459,5.65076,-0.0244032,-0.00993433,0.000938534,-0.00987371,-0.0244638,1.50629,0.0142114,0.0470086,720,1359,-8.04593,-5.65081
-497,-335,-8.64069,6.18774,0,0,0,0,0,0,0,-1,727,1359,-8.64071,-6.18775
-490,-335,-10.8923,4.43506,0,0,0,0,0,0,0,-1,734,1359,-10.8923,-4.43506
-483,-335,-10.9349,4.52917,0,0,0,0,0,0,0,-1,741,1359,-10.9349,-4.52922
-476,-335,-11.0251,4.48193,0,0,0,0,0,0,0,-1,748,1359,-11.0251,-4.48189
-469,-335,-11.5682,4.16162,0,0,0,0,0,0,0,-1,755,1359,-11.5682,-4.16167
-462,-335,-10.4181,4.06299,0,0,0,0,0,0,0,-1,762,1359,-10.4181,-4.06293
-455,-335,-10.342,3.89612,0,0,0,0,0,0,0,-1,769,1359,-10.342,-3.89611
-448,-335,0,0,0,0,0,0,0,0,0,-1,776,1359,0,0
-441,-335,0,0,0,0,0,0,0,0,0,-1,783,1359,0,0
-434,-335,0,0,0,0,0,0,0,0,0,-1,790,1359,0,0
-427,-335,0,0,0,0,0,0,0,0,0,-1,797,1359,0,0
-420,-335,0,0,0,0,0,0,0,0,0,-1,804,1359,0,0
-413,-335,0,0,0,0,0,0,0,0,0,-1,811,1359,0,0
-406,-335,0,0,0,0,0,0,0,0,0,-1,818,1359,0,0
-399,-335,0,0,0,0,0,0,0,0,0,-1,825,1359,0,0
-392,-335,0,0,0,0,0,0,0,0,0,-1,832,1359,0,0
-385,-335,0,0,0,0,0,0,0,0,0,-1,839,1359,0,0
-378,-335,0,0,0,0,0,0,0,0,0,-1,846,1359,0,0
-371,-335,0,0,0,0,0,0,0,0,0,-1,853,1359,0,0
-364,-335,0,0,0,0,0,0,0,0,0,-1,860,1359,0,0
-357,-335,0,0,0,0,0,0,0,0,0,-1,867,1359,0,0
-350,-335,0,0,0,0,0,0,0,0,0,-1,874,1359,0,0
-343,-335,0,0,0,0,0,0,0,0,0,-1,881,1359,0,0
-336,-335,0,0,0,0,0,0,0,0,0,-1,888,1359,0,0
-329,-335,0,0,0,0,0,0,0,0,0,-1,895,1359,0,0
-322,-335,0,0,0,0,0,0,0,0,0,-1,902,1359,0,0
-315,-335,0,0,0,0,0,0,0,0,0,-1,909,1359,0,0
-308,-335,0,0,0,0,0,0,0,0,0,-1,916,1359,0,0
-301,-335,0,0,0,0,0,0,0,0,0,-1,923,1359,0,0
-294,-335,0,0,0,0,0,0,0,0,0,-1,930,1359,0,0
-287,-335,0,0,0,0,0,0,0,0,0,-1,937,1359,0,0
-280,-335,0,0,0,0,0,0,0,0,0,-1,944,1359,0,0
-273,-335,0,0,0,0,0,0,0,0,0,-1,951,1359,0,0
-266,-335,0,0,0,0,0,0,0,0,0,-1,958,1359,0,0
-259,-335,0,0,0,0,0,0,0,0,0,-1,965,1359,0,0
-252,-335,0,0,0,0,0,0,0,0,0,-1,972,1359,0,0
-245,-335,0,0,0,0,0,0,0,0,0,-1,979,1359,0,0
-238,-335,0,0,0,0,0,0,0,0,0,-1,986,1359,0,0
-231,-335,0,0,0,0,0,0,0,0,0,-1,993,1359,0,0
-224,-335,0,0,0,0,0,0,0,0,0,-1,1000,1359,0,0
-217,-335,0,0,0,0,0,0,0,0,0,-1,1007,1359,0,0
-210,-335,0,0,0,0,0,0,0,0,0,-1,1014,1359,0,0
-203,-335,0,0,0,0,0,0,0,0,0,-1,1021,1359,0,0
-196,-335,0,0,0,0,0,0,0,0,0,-1,1028,1359,0,0
-189,-335,0,0,0,0,0,0,0,0,0,-1,1035,1359,0,0
-182,-335,0,0,0,0,0,0,0,0,0,-1,1042,1359,0,0
-175,-335,0,0,0,0,0,0,0,0,0,-1,1049,1359,0,0
-168,-335,0,0,0,0,0,0,0,0,0,-1,1056,1359,0,0
-161,-335,0,0,0,0,0,0,0,0,0,-1,1063,1359,0,0
-154,-335,0,0,0,0,0,0,0,0,0,-1,1070,1359,0,0
-147,-335,0,0,0,0,0,0,0,0,0,-1,1077,1359,0,0
-140,-335,0,0,0,0,0,0,0,0,0,-1,1084,1359,0,0
-133,-335,0,0,0,0,0,0,0,0,0,-1,1091,1359,0,0
-126,-335,0,0,0,0,0,0,0,0,0,-1,1098,1359,0,0
-119,-335,0,0,0,0,0,0,0,0,0,-1,1105,1359,0,0
-112,-335,0,0,0,0,0,0,0,0,0,-1,1112,1359,0,0
-105,-335,0,0,0,0,0,0,0,0,0,-1,1119,1359,0,0
-98,-335,0,0,0,0,0,0,0,0,0,-1,1126,1359,0,0
-91,-335,0,0,0,0,0,0,0,0,0,-1,1133,1359,0,0
-84,-335,0,0,0,0,0,0,0,0,0,-1,1140,1359,0,0
-77,-335,0,0,0,0,0,0,0,0,0,-1,1147,1359,0,0
-70,-335,0,0,0,0,0,0,0,0,0,-1,1154,1359,0,0
-63,-335,0,0,0,0,0,0,0,0,0,-1,1161,1359,0,0
-56,-335,0,0,0,0,0,0,0,0,0,-1,1168,1359,0,0
-49,-335,0,0,0,0,0,0,0,0,0,-1,1175,1359,0,0
-42,-335,0,0,0,0,0,0,0,0,0,-1,1182,1359,0,0
-35,-335,0,0,0,0,0,0,0,0,0,-1,1189,1359,0,0
-28,-335,0,0,0,0,0,0,0,0,0,-1,1196,1359,0,0
-21,-335,0,0,0,0,0,0,0,0,0,-1,1203,1359,0,0
-14,-335,0,0,0,0,0,0,0,0,0,-1,1210,1359,0,0
-7,-335,0,0,0,0,0,0,0,0,0,-1,1217,1359,0,0
0,-335,0,0,0,0,0,0,0,0,0,-1,1224,1359,0,0
7,-335,0,0,0,0,0,0,0,0,0,-1,1231,1359,0,0
14,-335,0,0,0,0,0,0,0,0,0,-1,1238,1359,0,0
21,-335,0,0,0,0,0,0,0,0,0,-1,1245,1359,0,0
28,-335,0,0,0,0,0,0,0,0,0,-1,1252,1359,0,0
35,-335,0,0,0,0,0,0,0,0,0,-1,1259,1359,0,0
42,-335,0,0,0,0,0,0,0,0,0,-1,1266,1359,0,0
49,-335,0,0,0,0,0,0,0,0,0,-1,1273,1359,0,0
56,-335,0,0,0,0,0,0,0,0,0,-1,1280,1359,0,0
63,-335,0,0,0,0,0,0,0,0,0,-1,1287,1359,0,0
70,-335,0,0,0,0,0,0,0,0,0,-1,1294,1359,0,0
77,-335,0,0,0,0,0,0,0,0,0,-1,1301,1359,0,0
84,-335,0,0,0,0,0,0,0,0,0,-1,1308,1359,0,0
91,-335,0,0,0,0,0,0,0,0,0,-1,1315,1359,0,0
98,-335,0,0,0,0,0,0,0,0,0,-1,1322,1359,0,0
105,-335,0,0,0,0,0,0,0,0,0,-1,1329,1359,0,0
112,-335,0,0,0,0,0,0,0,0,0,-1,1336,1359,0,0
119,-335,0,0,0,0,0,0,0,0,0,-1,1343,1359,0,0
126,-335,0,0,0,0,0,0,0,0,0,-1,1350,1359,0,0
133,-335,0,0,0,0,0,0,0,0,0,-1,1357,1359,0,0
140,-335,0,0,0,0,0,0,0,0,0,-1,1364,1359,0,0
147,-335,0,0,0,0,0,0,0,0,0,-1,1371,1359,0,0
154,-335,0,0,0,0,0,0,0,0,0,-1,1378,1359,0,0
161,-335,0,0,0,0,0,0,0,0,0,-1,1385,1359,0,0
168,-335,0,0,0,0,0,0,0,0,0,-1,1392,1359,0,0
175,-335,0,0,0,0,0,0,0,0,0,-1,1399,1359,0,0
182,-335,0,0,0,0,0,0,0,0,0,-1,1406,1359,0,0
189,-335,0,0,0,0,0,0,0,0,0,-1,1413,1359,0,0
196,-335,0,0,0,0,0,0,0,0,0,-1,1420,1359,0,0
203,-335,0,0,0,0,0,0,0,0,0,-1,1427,1359,0,0
210,-335,0,0,0,0,0,0,0,0,0,-1,1434,1359,0,0
217,-335,0,0,0,0,0,0,0,0,0,-1,1441,1359,0,0
224,-335,0,0,0,0,0,0,0,0,0,-1,1448,1359,0,0
231,-335,0,0,0,0,0,0,0,0,0,-1,1455,1359,0,0
238,-335,0,0,0,0,0,0,0,0,0,-1,1462,1359,0,0
245,-335,0,0,0,0,0,0,0,0,0,-1,1469,1359,0,0
252,-335,0,0,0,0,0,0,0,0,0,-1,1476,1359,0,0
259,-335,0,0,0,0,0,0,0,0,0,-1,1483,1359,0,0
266,-335,0,0,0,0,0,0,0,0,0,-1,1490,1359,0,0
273,-335,0,0,0,0,0,0,0,0,0,-1,1497,1359,0,0
280,-335,0,0,0,0,0,0,0,0,0,-1,1504,1359,0,0
287,-335,0,0,0,0,0,0,0,0,0,-1,1511,1359,0,0
294,-335,0,0,0,0,0,0,0,0,0,-1,1518,1359,0,0
301,-335,0,0,0,0,0,0,0,0,0,-1,1525,1359,0,0
308,-335,0,0,0,0,0,0,0,0,0,-1,1532,1359,0,0
315,-335,0,0,0,0,0,0,0,0,0,-1,1539,1359,0,0
322,-335,0,0,0,0,0,0,0,0,0,-1,1546,1359,0,0
329,-335,0,0,0,0,0,0,0,0,0,-1,1553,1359,0,0
336,-335,0,0,0,0,0,0,0,0,0,-1,1560,1359,0,0
343,-335,0,0,0,0,0,0,0,0,0,-1,1567,1359,0,0
350,-335,0,0,0,0,0,0,0,0,0,-1,1574,1359,0,0
357,-335,0,0,0,0,0,0,0,0,0,-1,1581,1359,0,0
364,-335,0,0,0,0,0,0,0,0,0,-1,1588,1359,0,0
371,-335,0,0,0,0,0,0,0,0,0,-1,1595,1359,0,0
378,-335,0,0,0,0,0,0,0,0,0,-1,1602,1359,0,0
385,-335,0,0,0,0,0,0,0,0,0,-1,1609,1359,0,0
392,-335,0,0,0,0,0,0,0,0,0,-1,1616,1359,0,0
399,-335,0,0,0,0,0,0,0,0,0,-1,1623,1359,0,0
406,-335,0,0,0,0,0,0,0,0,0,-1,1630,1359,0,0
413,-335,0,0,0,0,0,0,0,0,0,-1,1637,1359,0,0
420,-335,0,0,0,0,0,0,0,0,0,-1,1644,1359,0,0
427,-335,0,0,0,0,0,0,0,0,0,-1,1651,1359,0,0
434,-335,0,0,0,0,0,0,0,0,0,-1,1658,1359,0,0
441,-335,0,0,0,0,0,0,0,0,0,-1,1665,1359,0,0
448,-335,0,0,0,0,0,0,0,0,0,-1,1672,1359,0,0
455,-335,0,0,0,0,0,0,0,0,0,-1,1679,1359,0,0
462,-335,0,0,0,0,0,0,0,0,0,-1,1686,1359,0,0
469,-335,0,0,0,0,0,0,0,0,0,-1,1693,1359,0,0
476,-335,0,0,0,0,0,0,0,0,0,-1,1700,1359,0,0
483,-335,0,0,0,0,0,0,0,0,0,-1,1707,1359,0,0
490,-335,0,0,0,0,0,0,0,0,0,-1,1714,1359,0,0
497,-335,0,0,0,0,0,0,0,0,0,-1,1721,1359,0,0
504,-335,0,0,0,0,0,0,0,0,0,-1,1728,1359,0,0
511,-335,0,0,0,0,0,0,0,0,0,-1,1735,1359,0,0
518,-335,0,0,0,0,0,0,0,0,0,-1,1742,1359,0,0
525,-335,0,0,0,0,0,0,0,0,0,-1,1749,1359,0,0
532,-335,0,0,0,0,0,0,0,0,0,-1,1756,1359,0,0
539,-335,0,0,0,0,0,0,0,0,0,-1,1763,1359,0,0
546,-335,0,0,0,0,0,0,0,0,0,-1,1770,1359,0,0
553,-335,0,0,0,0,0,0,0,0,0,-1,1777,1359,0,0
560,-335,0,0,0,0,0,0,0,0,0,-1,1784,1359,0,0
567,-335,0,0,0,0,0,0,0,0,0,-1,1791,1359,0,0
574,-335,18.209,6.4624,0,0,0,0,0,0,0,-1,1798,1359,18.209,-6.46235
581,-335,27.9615,1.13257,0,0,0,0,0,0,0,-1,1805,1359,27.9616,-1.1326
588,-335,27.0668,1.55286,0,0,0,0,0,0,0,-1,1812,1359,27.0668,-1.55285
595,-335,25.3955,3.65173,0,0,0,0,0,0,0,-1,1819,1359,25.3955,-3.65172
602,-335,20.9724,1.40479,0,0,0,0,0,0,0,-1,1826,1359,20.9724,-1.4048
609,-335,20.7448,3.45325,-0.00733843,0.0220693,0.0329699,0.0434655,-0.0287346,0.995151,0.041973,0.0466607,1833,1359,20.7448,-3.45319
616,-335,20.235,3.80811,-0.00644811,0.015628,0.0273124,0.0340485,-0.0248686,0.977433,0.0341532,0.0472374,1840,1359,20.235,-3.80812
623,-335,19.657,4.21265,0,0,0,0,0,0,0,-1,1847,1359,19.6569,-4.2127
630,-335,15.4825,6.28235,0,0,0,0,0,0,0,-1,1854,1359,15.4826,-6.28231
637,-335,16.4896,6.57104,0,0,0,0,0,0,0,-1,1861,1359,16.4897,-6.57107
644,-335,15.8595,6.97473,0,0,0,0,0,0,0,-1,1868,1359,15.8595,-6.97478
651,-335,15.7896,6.79138,-0.00584442,-0.000240658,0.0100747,0.00741454,-0.0134996,0.921026,0.012244,0.0236204,1875,1359,15.7896,-6.79137
658,-335,15.7402,6.64697,-0.00559403,-0.00184213,0.00801861,0.00451704,-0.0119532,0.900306,0.00982685,0.0147479,1882,1359,15.7402,-6.64696
665,-335,15.7716,6.41541,-0.00359776,-0.00175952,0.00468437,0.00209505,-0.00745233,0.882272,0.00579423,0.0135897,1889,1359,15.7717,-6.41545
672,-335,15.7915,6.16504,-0.00225134,-0.00129324,0.00222512,0.000503811,-0.00404839,0.891426,0.00288158,0.0150813,1896,1359,15.7915,-6.16509
679,-335,15.8035,5.98389,-0.00152874,-0.000753906,0.00121649,0.000135365,-0.00241801,0.939556,0.00165897,0.0125822,1903,1359,15.8034,-5.98394
686,-335,15.7955,5.78394,-0.00118062,0.00110835,-0.000163126,0.00111992,-0.00119218,-1.50001,0.00133511,0.00992418,1910,1359,15.7955,-5.78392
693,-335,15.7869,5.55811,-0.000939966,0.00365919,-0.00203727,0.00443183,-0.00171261,-1.2083,0.00366146,0.00927566,1917,1359,15.7869,-5.55816
700,-335,15.7758,5.36328,0.000580915,0.00701046,-0.00418713,0.00907459,-0.00148322,-1.11279,0.00659992,0.0101021,1924,1359,15.7758,-5.36324
707,-335,15.7792,5.17395,0.00124574,0.0112636,-0.00675191,0.0146616,-0.00215234,-1.10453,0.0105652,0.0131691,1931,1359,15.7792,-5.17396
714,-335,15.7996,4.91467,0.00191708,0.0169143,-0.00991906,0.0218502,-0.00301882,-1.10906,0.0156703,0.0203913,1938,1359,15.7996,-4.91465
721,-335,15.6351,4.62659,0.00263963,0.0243582,-0.01383,0.0310828,-0.00408492,-1.11822,0.0222091,0.0383825,1945,1359,15.6352,-4.62664
728,-335,15.6445,4.35913,0,0,0,0,0,0,0,-1,1952,1359,15.6446,-4.35908
735,-335,17.4161,3.82312,0,0,0,0,0,0,0,-1,1959,1359,17.4161,-3.82314
742,-335,16.1804,2.85046,0,0,0,0,0,0,0,-1,1966,1359,16.1805,-2.85046
749,-335,16.4974,2.45703,0,0,0,0,0,0,0,-1,1973,1359,16.4974,-2.45707
756,-335,14.8652,1.00085,0,0,0,0,0,0,0,-1,1980,1359,14.8652,-1.00091
763,-335,0,0,0,0,0,0,0,0,0,-1,1987,1359,0,0
770,-335,0,0,0,0,0,0,0,0,0,-1,1994,1359,0,0
777,-335,0,0,0,0,0,0,0,0,0,-1,2001,1359,0,0
784,-335,0,0,0,0,0,0,0,0,0,-1,2008,1359,0,0
791,-335,0,0,0,0,0,0,0,0,0,-1,2015,1359,0,0
798,-335,0,0,0,0,0,0,0,0,0,-1,2022,1359,0,0
805,-335,0,0,0,0,0,0,0,0,0,-1,2029,1359,0,0
812,-335,0,0,0,0,0,0,0,0,0,-1,2036,1359,0,0
-700,-342,0,0,0,0,0,0,0,0,0,-1,524,1366,0,0
-693,-342,0,0,0,0,0,0,0,0,0,-1,531,1366,0,0
-686,-342,0,0,0,0,0,0,0,0,0,-1,538,1366,0,0
-679,-342,0,0,0,0,0,0,0,0,0,-1,545,1366,0,0
-672,-342,0,0,0,0,0,0,0,0,0,-1,552,1366,0,0
-665,-342,0,0,0,0,0,0,0,0,0,-1,559,1366,0,0
-658,-342,0,0,0,0,0,0,0,0,0,-1,566,1366,0,0
-651,-342,0,0,0,0,0,0,0,0,0,-1,573,1366,0,0
-644,-342,0,0,0,0,0,0,0,0,0,-1,580,1366,0,0
-637,-342,-8.67786,-4.58557,0,0,0,0,0,0,0,-1,587,1366,-8.67788,4.5856
-630,-342,-3.5603,-1.10559,0,0,0,0,0,0,0,-1,594,1366,-3.56032,1.10562
-623,-342,-4.90741,-5.52271,0,0,0,0,0,0,0,-1,601,1366,-4.90742,5.52265
-616,-342,-1.0625,0.0172119,0,0,0,0,0,0,0,-1,608,1366,-1.06251,-0.0172578
-609,-342,-6.84503,2.71887,0,0,0,0,0,0,0,-1,615,1366,-6.84506,-2.7189
-602,-342,-6.74878,2.61841,0,0,0,0,0,0,0,-1,622,1366,-6.7488,-2.61844
-595,-342,-6.32404,2.4967,-0.00446245,0.00217606,0.00387556,0.0039595,-0.00624588,1.13951,0.00594116,0.0432402,629,1366,-6.32403,-2.49674
-588,-342,-6.55701,2.68604,-0.00546778,0.000362824,0.00209649,0.00103838,-0.00614333,1.25907,0.00448196,0.0434994,636,1366,-6.55702,-2.68601
-581,-342,-6.88495,2.77832,-0.00533079,-0.000518137,0.000830491,-0.000378855,-0.00547007,1.40463,0.00352722,0.0356503,643,1366,-6.88495,-2.77833
-574,-342,-6.94135,3.0498,-0.00497503,-0.00132558,0.000119629,-0.00132167,-0.00497895,1.53806,0.00297816,0.0116744,650,1366,-6.94136,-3.04978
-567,-342,-6.90094,3.28467,-0.00398694,-0.0012649,-0.000545331,-0.00115972,-0.00409213,-1.38025,0.00243536,0.0164058,657,1366,-6.90092,-3.28463
-560,-342,-6.91748,3.52466,-0.00307922,-0.00122002,-0.000976994,-0.000801039,-0.0034982,-1.16567,0.00211627,0.0242856,664,1366,-6.91751,-3.5247
-553,-342,-6.94543,3.75415,-0.00259099,-0.00134346,-0.00106974,-0.000728911,-0.00320553,-1.04935,0.00194024,0.0271181,671,1366,-6.94542,-3.7542
-546,-342,-6.89697,3.99158,-0.00226668,-0.00150012,-0.00100702,-0.000805907,-0.00296089,-0.967239,0.00176763,0.0269094,678,1366,-6.89697,-3.99156
-539,-342,-6.86932,4.2876,-0.00239642,-0.00180147,-0.00087514,-0.00117463,-0.00302326,-0.949229,0.00175988,0.0223617,685,1366,-6.8693,-4.2876
-532,-342,-6.8866,4.53235,-0.00322066,-0.00232457,-0.000544385,-0.00206756,-0.00347767,-1.12971,0.00201976,0.0166036,692,1366,-6.88658,-4.53234
-525,-342,-6.87787,4.76233,-0.00489703,-0.00317851,-0.000213466,-0.00315239,-0.00492315,-1.44905,0.00287945,0.0104711,699,1366,-6.87788,-4.76232
-518,-342,-6.86072,5.02197,-0.00768653,-0.00430332,0.000101868,-0.00430025,-0.0076896,1.54072,0.00444996,0.0141798,706,1366,-6.86069,-5.02192
-511,-342,-6.8985,5.11731,-0.0117555,-0.00592201,0.000541689,-0.00587214,-0.0118053,1.47898,0.00681585,0.040526,713,1366,-6.89847,-5.11727
-504,-342,-6.83905,5.18237,0,0,0,0,0,0,0,-1,720,1366,-6.83906,-5.18238
-497,-342,-6.69183,5.16785,0,0,0,0,0,0,0,-1,727,1366,-6.69185,-5.16783
-490,-342,-10.7191,5.06116,0,0,0,0,0,0,0,-1,734,1366,-10.719,-5.06113
-483,-342,-10.5609,5.42004,0,0,0,0,0,0,0,-1,741,1366,-10.5609,-5.42006
-476,-342,-10.4836,5.12231,0,0,0,0,0,0,0,-1,748,1366,-10.4836,-5.12236
-469,-342,-10.3543,5.60779,0,0,0,0,0,0,0,-1,755,1366,-10.3543,-5.60774
-462,-342,-9.56256,5.11755,0,0,0,0,0,0,0,-1,762,1366,-9.56255,-5.11756
-455,-342,-9.48853,5.49353,0,0,0,0,0,0,0,-1,769,1366,-9.48854,-5.49352
-448,-342,-9.64563,6.00867,0,0,0,0,0,0,0,-1,776,1366,-9.64564,-6.00867
-441,-342,0,0,0,0,0,0,0,0,0,-1,783,1366,0,0
-434,-342,0,0,0,0,0,0,0,0,0,-1,790,1366,0,0
-427,-342,0,0,0,0,0,0,0,0,0,-1,797,1366,0,0
-420,-342,0,0,0,0,0,0,0,0,0,-1,804,1366,0,0
-413,-342,0,0,0,0,0,0,0,0,0,-1,811,1366,0,0
-406,-342,0,0,0,0,0,0,0,0,0,-1,818,1366,0,0
-399,-342,0,0,0,0,0,0,0,0,0,-1,825,1366,0,0
-392,-342,0,0,0,0,0,0,0,0,0,-1,832,1366,0,0
-385,-342,0,0,0,0,0,0,0,0,0,-1,839,1366,0,0
-378,-342,0,0,0,0,0,0,0,0,0,-1,846,1366,0,0
-371,-342,0,0,0,0,0,0,0,0,0,-1,853,1366,0,0
-364,-342,0,0,0,0,0,0,0,0,0,-1,860,1366,0,0
-357,-342,0,0,0,0,0,0,0,0,0,-1,867,1366,0,0
-350,-342,0,0,0,0,0,0,0,0,0,-1,874,1366,0,0
-343,-342,0,0,0,0,0,0,0,0,0,-1,881,1366,0,0
-336,-342,0,0,0,0,0,0,0,0,0,-1,888,1366,0,0
-329,-342,0,0,0,0,0,0,0,0,0,-1,895,1366,0,0
-322,-342,0,0,0,0,0,0,0,0,0,-1,902,1366,0,0
-315,-342,0,0,0,0,0,0,0,0,0,-1,909,1366,0,0
-308,-342,0,0,0,0,0,0,0,0,0,-1,916,1366,0,0
-301,-342,0,0,0,0,0,0,0,0,0,-1,923,1366,0,0
-294,-342,0,0,0,0,0,0,0,0,0,-1,930,1366,0,0
-287,-342,0,0,0,0,0,0,0,0,0,-1,937,1366,0,0
-280,-342,0,0,0,0,0,0,0,0,0,-1,944,1366,0,0
-273,-342,0,0,0,0,0,0,0,0,0,-1,951,1366,0,0
-266,-342,0,0,0,0,0,0,0,0,0,-1,958,1366,0,0
-259,-342,0,0,0,0,0,0,0,0,0,-1,965,1366,0,0
-252,-342,0,0,0,0,0,0,0,0,0,-1,972,1366,0,0
-245,-342,0,0,0,0,0,0,0,0,0,-1,979,1366,0,0
-238,-342,0,0,0,0,0,0,0,0,0,-1,986,1366,0,0
-231,-342,0,0,0,0,0,0,0,0,0,-1,993,1366,0,0
-224,-342,0,0,0,0,0,0,0,0,0,-1,1000,1366,0,0
-217,-342,0,0,0,0,0,0,0,0,0,-1,1007,1366,0,0
-210,-342,0,0,0,0,0,0,0,0,0,-1,1014,1366,0,0
-203,-342,0,0,0,0,0,0,0,0,0,-1,1021,1366,0,0
-196,-342,0,0,0,0,0,0,0,0,0,-1,1028,1366,0,0
-189,-342,0,0,0,0,0,0,0,0,0,-1,1035,1366,0,0
-182,-342,0,0,0,0,0,0,0,0,0,-1,1042,1366,0,0
-175,-342,0,0,0,0,0,0,0,0,0,-1,1049,1366,0,0
-168,-342,0,0,0,0,0,0,0,0,0,-1,1056,1366,0,0
-161,-342,0,0,0,0,0,0,0,0,0,-1,1063,1366,0,0
-154,-342,0,0,0,0,0,0,0,0,0,-1,1070,1366,0,0
-147,-342,0,0,0,0,0,0,0,0,0,-1,1077,1366,0,0
-140,-342,0,0,0,0,0,0,0,0,0,-1,1084,1366,0,0
-133,-342,0,0,0,0,0,0,0,0,0,-1,1091,1366,0,0
-126,-342,0,0,0,0,0,0,0,0,0,-1,1098,1366,0,0
-119,-342,0,0,0,0,0,0,0,0,0,-1,1105,1366,0,0
-112,-342,0,0,0,0,0,0,0,0,0,-1,1112,1366,0,0
-105,-342,0,0,0,0,0,0,0,0,0,-1,1119,1366,0,0
-98,-342,0,0,0,0,0,0,0,0,0,-1,1126,1366,0,0
-91,-342,0,0,0,0,0,0,0,0,0,-1,1133,1366,0,0
-84,-342,0,0,0,0,0,0,0,0,0,-1,1140,1366,0,0
-77,-342,0,0,0,0,0,0,0,0,0,-1,1147,1366,0,0
-70,-342,0,0,0,0,0,0,0,0,0,-1,1154,1366,0,0
-63,-342,0,0,0,0,0,0,0,0,0,-1,1161,1366,0,0
-56,-342,0,0,0,0,0,0,0,0,0,-1,1168,1366,0,0
-49,-342,0,0,0,0,0,0,0,0,0,-1,1175,1366,0,0
-42,-342,0,0,0,0,0,0,0,0,0,-1,1182,1366,0,0
-35,-342,0,0,0,0,0,0,0,0,0,-1,1189,1366,0,0
-28,-342,0,0,0,0,0,0,0,0,0,-1,1196,1366,0,0
-21,-342,0,0,0,0,0,0,0,0,0,-1,1203,1366,0,0
-14,-342,0,0,0,0,0,0,0,0,0,-1,1210,1366,0,0
-7,-342,0,0,0,0,0,0,0,0,0,-1,1217,1366,0,0
0,-342,0,0,0,0,0,0,0,0,0,-1,1224,1366,0,0
7,-342,0,0,0,0,0,0,0,0,0,-1,1231,1366,0,0
14,-342,0,0,0,0,0,0,0,0,0,-1,1238,1366,0,0
21,-342,0,0,0,0,0,0,0,0,0,-1,1245,1366,0,0
28,-342,0,0,0,0,0,0,0,0,0,-1,1252,1366,0,0
35,-342,0,0,0,0,0,0,0,0,0,-1,1259,1366,0,0
42,-342,0,0,0,0,0,0,0,0,0,-1,1266,1366,0,0
49,-342,0,0,0,0,0,0,0,0,0,-1,1273,1366,0,0
56,-342,0,0,0,0,0,0,0,0,0,-1,1280,1366,0,0
63,-342,0,0,0,0,0,0,0,0,0,-1,1287,1366,0,0
70,-342,0,0,0,0,0,0,0,0,0,-1,1294,1366,0,0
77,-342,0,0,0,0,0,0,0,0,0,-1,1301,1366,0,0
84,-342,0,0,0,0,0,0,0,0,0,-1,1308,1366,0,0
91,-342,0,0,0,0,0,0,0,0,0,-1,1315,1366,0,0
98,-342,0,0,0,0,0,0,0,0,0,-1,1322,1366,0,0
105,-342,0,0,0,0,0,0,0,0,0,-1,1329,1366,0,0
112,-342,0,0,0,0,0,0,0,0,0,-1,1336,1366,0,0
119,-342,0,0,0,0,0,0,0,0,0,-1,1343,1366,0,0
126,-342,0,0,0,0,0,0,0,0,0,-1,1350,1366,0,0
133,-342,0,0,0,0,0,0,0,0,0,-1,1357,1366,0,0
140,-342,0,0,0,0,0,0,0,0,0,-1,1364,1366,0,0
147,-342,0,0,0,0,0,0,0,0,0,-1,1371,1366,0,0
154,-342,0,0,0,0,0,0,0,0,0,-1,1378,1366,0,0
161,-342,0,0,0,0,0,0,0,0,0,-1,1385,1366,0,0
168,-342,0,0,0,0,0,0,0,0,0,-1,1392,1366,0,0
175,-342,0,0,0,0,0,0,0,0,0,-1,1399,1366,0,0
182,-342,0,0,0,0,0,0,0,0,0,-1,1406,1366,0,0
189,-342,0,0,0,0,0,0,0,0,0,-1,1413,1366,0,0
196,-342,0,0,0,0,0,0,0,0,0,-1,1420,1366,0,0
203,-342,0,0,0,0,0,0,0,0,0,-1,1427,1366,0,0
210,-342,0,0,0,0,0,0,0,0,0,-1,1434,1366,0,0
217,-342,0,0,0,0,0,0,0,0,0,-1,1441,1366,0,0
224,-342,0,0,0,0,0,0,0,0,0,-1,1448,1366,0,0
231,-342,0,0,0,0,0,0,0,0,0,-1,1455,1366,0,0
238,-342,0,0,0,0,0,0,0,0,0,-1,1462,1366,0,0
245,-342,0,0,0,0,0,0,0,0,0,-1,1469,1366,0,0
252,-342,0,0,0,0,0,0,0,0,0,-1,1476,1366,0,0
259,-342,0,0,0,0,0,0,0,0,0,-1,1483,1366,0,0
266,-342,0,0,0,0,0,0,0,0,0,-1,1490,1366,0,0
273,-342,0,0,0,0,0,0,0,0,0,-1,1497,1366,0,0
280,-342,0,0,0,0,0,0,0,0,0,-1,1504,1366,0,0
287,-342,0,0,0,0,0,0,0,0,0,-1,1511,1366,0,0
294,-342,0,0,0,0,0,0,0,0,0,-1,1518,1366,0,0
301,-342,0,0,0,0,0,0,0,0,0,-1,1525,1366,0,0
308,-342,0,0,0,0,0,0,0,0,0,-1,1532,1366,0,0
315,-342,0,0,0,0,0,0,0,0,0,-1,1539,1366,0,0
322,-342,0,0,0,0,0,0,0,0,0,-1,1546,1366,0,0
329,-342,0,0,0,0,0,0,0,0,0,-1,1553,1366,0,0
336,-342,0,0,0,0,0,0,0,0,0,-1,1560,1366,0,0
343,-342,0,0,0,0,0,0,0,0,0,-1,1567,1366,0,0
350,-342,0,0,0,0,0,0,0,0,0,-1,1574,1366,0,0
357,-342,0,0,0,0,0,0,0,0,0,-1,1581,1366,0,0
364,-342,0,0,0,0,0,0,0,0,0,-1,1588,1366,0,0
371,-342,0,0,0,0,0,0,0,0,0,-1,1595,1366,0,0
378,-342,0,0,0,0,0,0,0,0,0,-1,1602,1366,0,0
385,-342,0,0,0,0,0,0,0,0,0,-1,1609,1366,0,0
392,-342,0,0,0,0,0,0,0,0,0,-1,1616,1366,0,0
399,-342,0,0,0,0,0,0,0,0,0,-1,1623,1366,0,0
406,-342,0,0,0,0,0,0,0,0,0,-1,1630,1366,0,0
413,-342,0,0,0,0,0,0,0,0,0,-1,1637,1366,0,0
420,-342,0,0,0,0,0,0,0,0,0,-1,1644,1366,0,0
427,-342,0,0,0,0,0,0,0,0,0,-1,1651,1366,0,0
434,-342,0,0,0,0,0,0,0,0,0,-1,1658,1366,0,0
441,-342,0,0,0,0,0,0,0,0,0,-1,1665,1366,0,0
448,-342,0,0,0,0,0,0,0,0,0,-1,1672,1366,0,0
455,-342,0,0,0,0,0,0,0,0,0,-1,1679,1366,0,0
462,-342,0,0,0,0,0,0,0,0,0,-1,1686,1366,0,0
469,-342,0,0,0,0,0,0,0,0,0,-1,1693,1366,0,0
476,-342,0,0,0,0,0,0,0,0,0,-1,1700,1366,0,0
483,-342,0,0,0,0,0,0,0,0,0,-1,1707,1366,0,0
490,-342,0,0,0,0,0,0,0,0,0,-1,1714,1366,0,0
497,-342,0,0,0,0,0,0,0,0,0,-1,1721,1366,0,0
504,-342,0,0,0,0,0,0,0,0,0,-1,1728,1366,0,0
511,-342,0,0,0,0,0,0,0,0,0,-1,1735,1366,0,0
518,-342,0,0,0,0,0,0,0,0,0,-1,1742,1366,0,0
525,-342,0,0,0,0,0,0,0,0,0,-1,1749,1366,0,0
532,-342,0,0,0,0,0,0,0,0,0,-1,1756,1366,0,0
539,-342,0,0,0,0,0,0,0,0,0,-1,1763,1366,0,0
546,-342,0,0,0,0,0,0,0,0,0,-1,1770,1366,0,0
553,-342,0,0,0,0,0,0,0,0,0,-1,1777,1366,0,0
560,-342,0,0,0,0,0,0,0,0,0,-1,1784,1366,0,0
567,-342,19.0521,6.35071,0,0,0,0,0,0,0,-1,1791,1366,19.0521,-6.35065
574,-342,16.8334,6.3042,0,0,0,0,0,0,0,-1,1798,1366,16.8333,-6.30423
581,-342,17.3655,6.37537,0,0,0,0,0,0,0,-1,1805,1366,17.3654,-6.37543
588,-342,18.308,5.646,0,0,0,0,0,0,0,-1,1812,1366,18.308,-5.64597
595,-342,19.873,2.38867,0,0,0,0,0,0,0,-1,1819,1366,19.8731,-2.38873
602,-342,20.436,3.20898,0,0,0,0,0,0,0,-1,1826,1366,20.4361,-3.20903
609,-342,19.9427,3.68262,-0.011292,0.020397,0.0361498,0.0440222,-0.0349172,0.991939,0.0456766,0.0441157,1833,1366,19.9428,-3.6826
616,-342,19.4271,4.00525,-0.00973488,0.0135876,0.0301619,0.034264,-0.0304113,0.969859,0.0373624,0.044609,1840,1366,19.4271,-4.00523
623,-342,18.7646,4.39221,0,0,0,0,0,0,0,-1,1847,1366,18.7646,-4.39221
630,-342,15.5282,6.36682,0,0,0,0,0,0,0,-1,1854,1366,15.5281,-6.36686
637,-342,15.584,6.40881,0,0,0,0,0,0,0,-1,1861,1366,15.5839,-6.40887
644,-342,15.451,7.10388,0,0,0,0,0,0,0,-1,1868,1366,15.4511,-7.1039
651,-342,15.5519,6.89319,-0.00530292,-0.00167484,0.00932241,0.00600839,-0.0129861,0.881492,0.0112104,0.0222178,1875,1366,15.5519,-6.89315
658,-342,15.5333,6.64331,-0.00443379,-0.00259446,0.00684029,0.00338771,-0.010416,0.852222,0.00830677,0.0188897,1882,1366,15.5333,-6.64331
665,-342,15.5673,6.41089,-0.00236002,-0.00209375,0.00363011,0.00140567,-0.00585944,0.803728,0.00444949,0.0162461,1889,1366,15.5672,-6.41094
672,-342,15.5853,6.17993,-0.00100466,-0.00129522,0.00137312,0.000230843,-0.00253073,0.732692,0.00176913,0.0129586,1896,1366,15.5853,-6.1799
679,-342,15.5634,5.98743,-0.000443243,-0.000723478,0.000536926,-2.8453e-05,-0.00113827,0.657763,0.000749541,0.0124655,1903,1366,15.5634,-5.98739
686,-342,15.5765,5.79907,-0.000514474,0.00134351,-0.00077702,0.00162563,-0.000796592,-1.22252,0.00142551,0.0103209,1910,1366,15.5765,-5.79902
693,-342,15.5736,5.56836,-0.000831207,0.00401918,-0.00263719,0.00517677,-0.00198879,-1.15717,0.00427134,0.0110194,1917,1366,15.5736,-5.56837
700,-342,15.5692,5.36108,0.000157684,0.00754643,-0.00475824,0.00987611,-0.002172,-1.1155,0.00741488,0.0132034,1924,1366,15.5693,-5.36111
707,-342,15.5663,5.15466,7.50005e-05,0.0121991,-0.00741595,0.0157154,-0.0034413,-1.12804,0.0117926,0.013129,1931,1366,15.5663,-5.15467
714,-342,15.5646,4.95361,-0.000386044,0.0185748,-0.0107521,0.0234292,-0.00524044,-1.14671,0.0176279,0.0311195,1938,1366,15.5646,-4.95365
721,-342,15.463,4.5647,-0.00118829,0.0270829,-0.0149578,0.0335277,-0.00763302,-1.16397,0.0252831,0.0434404,1945,1366,15.463,-4.56468
728,-342,15.6195,3.95203,0,0,0,0,0,0,0,-1,1952,1366,15.6195,-3.95201
735,-342,18.151,2.8009,-0.00338582,0.0514774,-0.0264351,0.0621418,-0.0140502,-1.18735,0.0468194,0.0494852,1959,1366,18.151,-2.80086
742,-342,17.0383,2.09973,-0.00470142,0.0674063,-0.0334561,0.0805376,-0.0178328,-1.19677,0.0605183,0.049241,1966,1366,17.0383,-2.09969
749,-342,15.6202,1.57239,0,0,0,0,0,0,0,-1,1973,1366,15.6203,-1.57237
756,-342,0,0,0,0,0,0,0,0,0,-1,1980,1366,0,0
763,-342,0,0,0,0,0,0,0,0,0,-1,1987,1366,0,0
770,-342,0,0,0,0,0,0,0,0,0,-1,1994,1366,0,0
777,-342,0,0,0,0,0,0,0,0,0,-1,2001,1366,0,0
784,-342,0,0,0,0,0,0,0,0,0,-1,2008,1366,0,0
791,-342,0,0,0,0,0,0,0,0,0,-1,2015,1366,0,0
798,-342,0,0,0,0,0,0,0,0,0,-1,2022,1366,0,0
805,-342,0,0,0,0,0,0,0,0,0,-1,2029,1366,0,0
812,-342,0,0,0,0,0,0,0,0,0,-1,2036,1366,0,0
-700,-349,0,0,0,0,0,0,0,0,0,-1,524,1373,0,0
-693,-349,0,0,0,0,0,0,0,0,0,-1,531,1373,0,0
-686,-349,0,0,0,0,0,0,0,0,0,-1,538,1373,0,0
-679,-349,0,0,0,0,0,0,0,0,0,-1,545,1373,0,0
-672,-349,0,0,0,0,0,0,0,0,0,-1,552,1373,0,0
-665,-349,0,0,0,0,0,0,0,0,0,-1,559,1373,0,0
-658,-349,0,0,0,0,0,0,0,0,0,-1,566,1373,0,0
-651,-349,0,0,0,0,0,0,0,0,0,-1,573,1373,0,0
-644,-349,0,0,0,0,0,0,0,0,0,-1,580,1373,0,0
-637,-349,0,0,0,0,0,0,0,0,0,-1,587,1373,0,0
-630,-349,-7.64117,-5.06177,0,0,0,0,0,0,0,-1,594,1373,-7.64118,5.0618
-623,-349,-5.31732,-5.55432,0,0,0,0,0,0,0,-1,601,1373,-5.3173,5.55429
-616,-349,-5.2066,-0.188232,0,0,0,0,0,0,0,-1,608,1373,-5.20659,0.188211
-609,-349,-6.83978,0.513672,0,0,0,0,0,0,0,-1,615,1373,-6.83978,-0.513629
-602,-349,-5.92725,2.21179,0,0,0,0,0,0,0,-1,622,1373,-5.92726,-2.21176
-595,-349,-5.79089,2.20471,-0.00713237,0.00141299,0.00428035,0.00318822,-0.0089076,1.17765,0.00723908,0.0487227,629,1373,-5.7909,-2.20476
-588,-349,-6.45245,2.88416,-0.00772585,-0.000204088,0.00198202,0.000286222,-0.00821616,1.32829,0.0055753,0.0439729,636,1373,-6.45242,-2.88414
-581,-349,-6.49213,3.05164,-0.00711569,-0.000847715,0.000455498,-0.000814786,-0.00714862,1.49863,0.0045187,0.0398459,643,1373,-6.49212,-3.05167
-574,-349,-6.6745,3.05444,-0.0063613,-0.00140809,-0.00034524,-0.00138414,-0.00638525,-1.50154,0.00387867,0.0204414,650,1373,-6.67449,-3.05444
-567,-349,-6.68671,3.30933,-0.00495618,-0.00121817,-0.000990427,-0.000971961,-0.00520239,-1.32715,0.00319395,0.0167904,657,1373,-6.68674,-3.30936
-560,-349,-6.69586,3.54846,-0.00369972,-0.00105577,-0.00130065,-0.000523205,-0.00423229,-1.18216,0.0026643,0.0207523,664,1373,-6.69587,-3.54848
-553,-349,-6.65466,3.72083,-0.00287505,-0.00108352,-0.00128583,-0.000412203,-0.00354637,-1.08963,0.00223953,0.0259411,671,1373,-6.65464,-3.72087
-546,-349,-6.62701,3.99878,-0.0022576,-0.00117989,-0.00109723,-0.000496339,-0.00294115,-1.01365,0.00181804,0.0288939,678,1373,-6.62703,-3.99878
-539,-349,-6.646,4.31873,-0.00200176,-0.00141351,-0.000894846,-0.000765693,-0.00264958,-0.944179,0.00157449,0.0230494,685,1373,-6.64598,-4.31878
-532,-349,-6.63965,4.54846,-0.00228225,-0.00182169,-0.000477025,-0.00152227,-0.00258167,-1.01027,0.00149849,0.0158917,692,1373,-6.63963,-4.54851
-525,-349,-6.65564,4.77966,-0.00316849,-0.00256564,-4.62226e-05,-0.00256212,-0.00317201,-1.49471,0.00194354,0.0115351,699,1373,-6.65562,-4.77971
-518,-349,-6.6485,5.03931,-0.00484016,-0.00351761,0.000331215,-0.0034393,-0.00491847,1.33862,0.00291388,0.0124752,706,1373,-6.64848,-5.03934
-511,-349,-6.52386,5.28088,-0.00744457,-0.00489329,0.000677929,-0.00472434,-0.00761352,1.32655,0.00443803,0.0340704,713,1373,-6.52386,-5.28084
-504,-349,-6.40936,5.43738,0,0,0,0,0,0,0,-1,720,1373,-6.40937,-5.43735
-497,-349,-7.9339,5.58789,0,0,0,0,0,0,0,-1,727,1373,-7.93388,-5.58785
-490,-349,-6.74347,4.78418,0,0,0,0,0,0,0,-1,734,1373,-6.74346,-4.78422
-483,-349,-5.66974,3.7395,0,0,0,0,0,0,0,-1,741,1373,-5.66975,-3.73949
-476,-349,-10.0748,5.01782,0,0,0,0,0,0,0,-1,748,1373,-10.0748,-5.01778
-469,-349,-9.67529,5.65527,0,0,0,0,0,0,0,-1,755,1373,-9.67526,-5.65532
-462,-349,-8.99353,6.39392,0,0,0,0,0,0,0,-1,762,1373,-8.99356,-6.39394
-455,-349,-8.48639,6.92773,0,0,0,0,0,0,0,-1,769,1373,-8.48637,-6.9277
-448,-349,-12.627,2.69104,0,0,0,0,0,0,0,-1,776,1373,-12.627,-2.69107
-441,-349,0,0,0,0,0,0,0,0,0,-1,783,1373,0,0
-434,-349,0,0,0,0,0,0,0,0,0,-1,790,1373,0,0
-427,-349,0,0,0,0,0,0,0,0,0,-1,797,1373,0,0
-420,-349,0,0,0,0,0,0,0,0,0,-1,804,1373,0,0
-413,-349,0,0,0,0,0,0,0,0,0,-1,811,1373,0,0
-406,-349,0,0,0,0,0,0,0,0,0,-1,818,1373,0,0
-399,-349,0,0,0,0,0,0,0,0,0,-1,825,1373,0,0
-392,-349,0,0,0,0,0,0,0,0,0,-1,832,1373,0,0
-385,-349,0,0,0,0,0,0,0,0,0,-1,839,1373,0,0
-378,-349,0,0,0,0,0,0,0,0,0,-1,846,1373,0,0
-371,-349,0,0,0,0,0,0,0,0,0,-1,853,1373,0,0
-364,-349,0,0,0,0,0,0,0,0,0,-1,860,1373,0,0
-357,-349,0,0,0,0,0,0,0,0,0,-1,867,1373,0,0
-350,-349,0,0,0,0,0,0,0,0,0,-1,874,1373,0,0
-343,-349,0,0,0,0,0,0,0,0,0,-1,881,1373,0,0
-336,-349,0,0,0,0,0,0,0,0,0,-1,888,1373,0,0
-329,-349,0,0,0,0,0,0,0,0,0,-1,895,1373,0,0
-322,-349,0,0,0,0,0,0,0,0,0,-1,902,1373,0,0
-315,-349,0,0,0,0,0,0,0,0,0,-1,909,1373,0,0
-308,-349,0,0,0,0,0,0,0,0,0,-1,916,1373,0,0
-301,-349,0,0,0,0,0,0,0,0,0,-1,923,1373,0,0
-294,-349,0,0,0,0,0,0,0,0,0,-1,930,1373,0,0
-287,-349,0,0,0,0,0,0,0,0,0,-1,937,1373,0,0
-280,-349,0,0,0,0,0,0,0,0,0,-1,944,1373,0,0
-273,-349,0,0,0,0,0,0,0,0,0,-1,951,1373,0,0
-266,-349,0,0,0,0,0,0,0,0,0,-1,958,1373,0,0
-259,-349,0,0,0,0,0,0,0,0,0,-1,965,1373,0,0
-252,-349,0,0,0,0,0,0,0,0,0,-1,972,1373,0,0
-245,-349,0,0,0,0,0,0,0,0,0,-1,979,1373,0,0
-238,-349,0,0,0,0,0,0,0,0,0,-1,986,1373,0,0
-231,-349,0,0,0,0,0,0,0,0,0,-1,993,1373,0,0
-224,-349,0,0,0,0,0,0,0,0,0,-1,1000,1373,0,0
-217,-349,0,0,0,0,0,0,0,0,0,-1,1007,1373,0,0
-210,-349,0,0,0,0,0,0,0,0,0,-1,1014,1373,0,0
-203,-349,0,0,0,0,0,0,0,0,0,-1,1021,1373,0,0
-196,-349,0,0,0,0,0,0,0,0,0,-1,1028,1373,0,0
-189,-349,0,0,0,0,0,0,0,0,0,-1,1035,1373,0,0
-182,-349,0,0,0,0,0,0,0,0,0,-1,1042,1373,0,0
-175,-349,0,0,0,0,0,0,0,0,0,-1,1049,1373,0,0
-168,-349,0,0,0,0,0,0,0,0,0,-1,1056,1373,0,0
-161,-349,0,0,0,0,0,0,0,0,0,-1,1063,1373,0,0
-154,-349,0,0,0,0,0,0,0,0,0,-1,1070,1373,0,0
-147,-349,0,0,0,0,0,0,0,0,0,-1,1077,1373,0,0
-140,-349,0,0,0,0,0,0,0,0,0,-1,1084,1373,0,0
-133,-349,0,0,0,0,0,0,0,0,0,-1,1091,1373,0,0
-126,-349,0,0,0,0,0,0,0,0,0,-1,1098,1373,0,0
-119,-349,0,0,0,0,0,0,0,0,0,-1,1105,1373,0,0
-112,-349,0,0,0,0,0,0,0,0,0,-1,1112,1373,0,0
-105,-349,0,0,0,0,0,0,0,0,0,-1,1119,1373,0,0
-98,-349,0,0,0,0,0,0,0,0,0,-1,1126,1373,0,0
-91,-349,0,0,0,0,0,0,0,0,0,-1,1133,1373,0,0
-84,-349,0,0,0,0,0,0,0,0,0,-1,1140,1373,0,0
-77,-349,0,0,0,0,0,0,0,0,0,-1,1147,1373,0,0
-70,-349,0,0,0,0,0,0,0,0,0,-1,1154,1373,0,0
-63,-349,0,0,0,0,0,0,0,0,0,-1,1161,1373,0,0
-56,-349,0,0,0,0,0,0,0,0,0,-1,1168,1373,0,0
-49,-349,0,0,0,0,0,0,0,0,0,-1,1175,1373,0,0
-42,-349,0,0,0,0,0,0,0,0,0,-1,1182,1373,0,0
-35,-349,0,0,0,0,0,0,0,0,0,-1,1189,1373,0,0
-28,-349,0,0,0,0,0,0,0,0,0,-1,1196,1373,0,0
-21,-349,0,0,0,0,0,0,0,0,0,-1,1203,1373,0,0
-14,-349,0,0,0,0,0,0,0,0,0,-1,1210,1373,0,0
-7,-349,0,0,0,0,0,0,0,0,0,-1,1217,1373,0,0
0,-349,0,0,0,0,0,0,0,0,0,-1,1224,1373,0,0
7,-349,0,0,0,0,0,0,0,0,0,-1,1231,1373,0,0
14,-349,0,0,0,0,0,0,0,0,0,-1,1238,1373,0,0
21,-349,0,0,0,0,0,0,0,0,0,-1,1245,1373,0,0
28,-349,0,0,0,0,0,0,0,0,0,-1,1252,1373,0,0
35,-349,0,0,0,0,0,0,0,0,0,-1,1259,1373,0,0
42,-349,0,0,0,0,0,0,0,0,0,-1,1266,1373,0,0
49,-349,0,0,0,0,0,0,0,0,0,-1,1273,1373,0,0
56,-349,0,0,0,0,0,0,0,0,0,-1,1280,1373,0,0
63,-349,0,0,0,0,0,0,0,0,0,-1,1287,1373,0,0
70,-349,0,0,0,0,0,0,0,0,0,-1,1294,1373,0,0
77,-349,0,0,0,0,0,0,0,0,0,-1,1301,1373,0,0
84,-349,0,0,0,0,0,0,0,0,0,-1,1308,1373,0,0
91,-349,0,0,0,0,0,0,0,0,0,-1,1315,1373,0,0
98,-349,0,0,0,0,0,0,0,0,0,-1,1322,1373,0,0
105,-349,0,0,0,0,0,0,0,0,0,-1,1329,1373,0,0
112,-349,0,0,0,0,0,0,0,0,0,-1,1336,1373,0,0
119,-349,0,0,0,0,0,0,0,0,0,-1,1343,1373,0,0
126,-349,0,0,0,0,0,0,0,0,0,-1,1350,1373,0,0
133,-349,0,0,0,0,0,0,0,0,0,-1,1357,1373,0,0
140,-349,0,0,0,0,0,0,0,0,0,-1,1364,1373,0,0
147,-349,0,0,0,0,0,0,0,0,0,-1,1371,1373,0,0
154,-349,0,0,0,0,0,0,0,0,0,-1,1378,1373,0,0
161,-349,0,0,0,0,0,0,0,0,0,-1,1385,1373,0,0
168,-349,0,0,0,0,0,0,0,0,0,-1,1392,1373,0,0
175,-349,0,0,0,0,0,0,0,0,0,-1,1399,1373,0,0
182,-349,0,0,0,0,0,0,0,0,0,-1,1406,1373,0,0
189,-349,0,0,0,0,0,0,0,0,0,-1,1413,1373,0,0
196,-349,0,0,0,0,0,0,0,0,0,-1,1420,1373,0,0
203,-349,0,0,0,0,0,0,0,0,0,-1,1427,1373,0,0
210,-349,0,0,0,0,0,0,0,0,0,-1,1434,1373,0,0
217,-349,0,0,0,0,0,0,0,0,0,-1,1441,1373,0,0
224,-349,0,0,0,0,0,0,0,0,0,-1,1448,1373,0,0
231,-349,0,0,0,0,0,0,0,0,0,-1,1455,1373,0,0
238,-349,0,0,0,0,0,0,0,0,0,-1,1462,1373,0,0
245,-349,0,0,0,0,0,0,0,0,0,-1,1469,1373,0,0
252,-349,0,0,0,0,0,0,0,0,0,-1,1476,1373,0,0
259,-349,0,0,0,0,0,0,0,0,0,-1,1483,1373,0,0
266,-349,0,0,0,0,0,0,0,0,0,-1,1490,1373,0,0
273,-349,0,0,0,0,0,0,0,0,0,-1,1497,1373,0,0
280,-349,0,0,0,0,0,0,0,0,0,-1,1504,1373,0,0
287,-349,0,0,0,0,0,0,0,0,0,-1,1511,1373,0,0
294,-349,0,0,0,0,0,0,0,0,0,-1,1518,1373,0,0
301,-349,0,0,0,0,0,0,0,0,0,-1,1525,1373,0,0
308,-349,0,0,0,0,0,0,0,0,0,-1,1532,1373,0,0
315,-349,0,0,0,0,0,0,0,0,0,-1,1539,1373,0,0
322,-349,0,0,0,0,0,0,0,0,0,-1,1546,1373,0,0
329,-349,0,0,0,0,0,0,0,0,0,-1,1553,1373,0,0
336,-349,0,0,0,0,0,0,0,0,0,-1,1560,1373,0,0
343,-349,0,0,0,0,0,0,0,0,0,-1,1567,1373,0,0
350,-349,0,0,0,0,0,0,0,0,0,-1,1574,1373,0,0
357,-349,0,0,0,0,0,0,0,0,0,-1,1581,1373,0,0
364,-349,0,0,0,0,0,0,0,0,0,-1,1588,1373,0,0
371,-349,0,0,0,0,0,0,0,0,0,-1,1595,1373,0,0
378,-349,0,0,0,0,0,0,0,0,0,-1,1602,1373,0,0
385,-349,0,0,0,0,0,0,0,0,0,-1,1609,1373,0,0
392,-349,0,0,0,0,0,0,0,0,0,-1,1616,1373,0,0
399,-349,0,0,0,0,0,0,0,0,0,-1,1623,1373,0,0
406,-349,0,0,0,0,0,0,0,0,0,-1,1630,1373,0,0
413,-349,0,0,0,0,0,0,0,0,0,-1,1637,1373,0,0
420,-349,0,0,0,0,0,0,0,0,0,-1,1644,1373,0,0
427,-349,0,0,0,0,0,0,0,0,0,-1,1651,1373,0,0
434,-349,0,0,0,0,0,0,0,0,0,-1,1658,1373,0,0
441,-349,0,0,0,0,0,0,0,0,0,-1,1665,1373,0,0
448,-349,0,0,0,0,0,0,0,0,0,-1,1672,1373,0,0
455,-349,0,0,0,0,0,0,0,0,0,-1,1679,1373,0,0
462,-349,0,0,0,0,0,0,0,0,0,-1,1686,1373,0,0
469,-349,0,0,0,0,0,0,0,0,0,-1,1693,1373,0,0
476,-349,0,0,0,0,0,0,0,0,0,-1,1700,1373,0,0
483,-349,0,0,0,0,0,0,0,0,0,-1,1707,1373,0,0
490,-349,0,0,0,0,0,0,0,0,0,-1,1714,1373,0,0
497,-349,0,0,0,0,0,0,0,0,0,-1,1721,1373,0,0
504,-349,0,0,0,0,0,0,0,0,0,-1,1728,1373,0,0
511,-349,0,0,0,0,0,0,0,0,0,-1,1735,1373,0,0
518,-349,0,0,0,0,0,0,0,0,0,-1,1742,1373,0,0
525,-349,0,0,0,0,0,0,0,0,0,-1,1749,1373,0,0
532,-349,0,0,0,0,0,0,0,0,0,-1,1756,1373,0,0
539,-349,0,0,0,0,0,0,0,0,0,-1,1763,1373,0,0
546,-349,0,0,0,0,0,0,0,0,0,-1,1770,1373,0,0
553,-349,0,0,0,0,0,0,0,0,0,-1,1777,1373,0,0
560,-349,20.231,3.6106,0,0,0,0,0,0,0,-1,1784,1373,20.231,-3.61055
567,-349,20.3247,3.48193,0,0,0,0,0,0,0,-1,1791,1373,20.3247,-3.48192
574,-349,18.3553,5.01379,0,0,0,0,0,0,0,-1,1798,1373,18.3553,-5.01381
581,-349,16.1492,6.32056,0,0,0,0,0,0,0,-1,1805,1373,16.1492,-6.32053
588,-349,19.1313,1.23157,0,0,0,0,0,0,0,-1,1812,1373,19.1314,-1.23155
595,-349,19.0753,1.89917,-0.0168349,0.0474779,0.0555708,0.0795254,-0.0488825,1.04769,0.0748367,0.0486722,1819,1373,19.0754,-1.8992
602,-349,18.9071,2.76489,0,0,0,0,0,0,0,-1,1826,1373,18.907,-2.76491
609,-349,18.8986,3.72205,0,0,0,0,0,0,0,-1,1833,1373,18.8986,-3.722
616,-349,18.7052,4.13635,0,0,0,0,0,0,0,-1,1840,1373,18.7052,-4.13637
623,-349,15.7223,6.51917,0,0,0,0,0,0,0,-1,1847,1373,15.7222,-6.51914
630,-349,15.4948,6.47644,0,0,0,0,0,0,0,-1,1854,1373,15.4947,-6.4765
637,-349,15.3479,7.26526,0,0,0,0,0,0,0,-1,1861,1373,15.3479,-7.26521
644,-349,15.2271,7.11499,-0.00528532,9.17065e-05,0.011265,0.00898454,-0.0141782,0.902538,0.0134846,0.0485654,1868,1373,15.227,-7.115
651,-349,15.3829,6.849,-0.00439091,-0.00191203,0.00761355,0.0045623,-0.0108653,0.866087,0.00915153,0.0240062,1875,1373,15.383,-6.84895
658,-349,15.3049,6.62366,-0.00325979,-0.00239493,0.00526604,0.00245641,-0.00811113,0.826365,0.0063857,0.0262132,1882,1373,15.3049,-6.62371
665,-349,15.3258,6.41284,-0.00132954,-0.00186864,0.00253397,0.000949175,-0.00414735,0.73241,0.00312965,0.0204312,1889,1373,15.3258,-6.41279
672,-349,15.3624,6.1875,-0.000135914,-0.00118692,0.000743987,0.000249446,-0.00157228,0.477917,0.00114046,0.0146342,1896,1373,15.3625,-6.18747
679,-349,15.3395,5.98669,0.000315807,-0.000841979,0.000178274,0.000342636,-0.000868808,0.14937,0.000721083,0.0133844,1903,1373,15.3395,-5.98667
686,-349,15.3503,5.80273,-6.17918e-05,0.00124691,-0.000996275,0.00178451,-0.000599387,-1.07597,0.00143191,0.0117976,1910,1373,15.3504,-5.80279
693,-349,15.3494,5.57959,-0.000871773,0.00390702,-0.00276324,0.00517066,-0.00213542,-1.14188,0.00433781,0.0138985,1917,1373,15.3493,-5.57965
700,-349,15.3678,5.36365,-0.000409875,0.00746089,-0.00481966,0.00974775,-0.00269674,-1.12777,0.00755949,0.0160452,1924,1373,15.3678,-5.36365
707,-349,15.3894,5.13489,-0.00122153,0.0124011,-0.00755389,0.015761,-0.00458152,-1.15227,0.0123218,0.0225003,1931,1373,15.3894,-5.13484
714,-349,15.4027,5.01257,0,0,0,0,0,0,0,-1,1938,1373,15.4027,-5.01255
721,-349,15.3828,4.54712,0,0,0,0,0,0,0,-1,1945,1373,15.3828,-4.54708
728,-349,19.152,2.28552,0,0,0,0,0,0,0,-1,1952,1373,19.152,-2.28552
735,-349,18.7469,1.53979,-0.0134163,0.0565237,-0.0279141,0.0662985,-0.0231911,-1.23397,0.0536277,0.0486937,1959,1373,18.747,-1.53976
742,-349,17.6053,1.63403,-0.0199408,0.0748288,-0.0353503,0.0865622,-0.0316742,-1.25032,0.0706731,0.0499642,1966,1373,17.6054,-1.63399
749,-349,16.1857,1.26624,0,0,0,0,0,0,0,-1,1973,1373,16.1856,-1.26625
756,-349,0,0,0,0,0,0,0,0,0,-1,1980,1373,0,0
763,-349,0,0,0,0,0,0,0,0,0,-1,1987,1373,0,0
770,-349,0,0,0,0,0,0,0,0,0,-1,1994,1373,0,0
777,-349,0,0,0,0,0,0,0,0,0,-1,2001,1373,0,0
784,-349,0,0,0,0,0,0,0,0,0,-1,2008,1373,0,0
791,-349,0,0,0,0,0,0,0,0,0,-1,2015,1373,0,0
798,-349,0,0,0,0,0,0,0,0,0,-1,2022,1373,0,0
805,-349,0,0,0,0,0,0,0,0,0,-1,2029,1373,0,0
812,-349,0,0,0,0,0,0,0,0,0,-1,2036,1373,0,0
-700,-356,0,0,0,0,0,0,0,0,0,-1,524,1380,0,0
-693,-356,0,0,0,0,0,0,0,0,0,-1,531,1380,0,0
-686,-356,0,0,0,0,0,0,0,0,0,-1,538,1380,0,0
-679,-356,0,0,0,0,0,0,0,0,0,-1,545,1380,0,0
-672,-356,0,0,0,0,0,0,0,0,0,-1,552,1380,0,0
-665,-356,0,0,0,0,0,0,0,0,0,-1,559,1380,0,0
-658,-356,0,0,0,0,0,0,0,0,0,-1,566,1380,0,0
-651,-356,0,0,0,0,0,0,0,0,0,-1,573,1380,0,0
-644,-356,0,0,0,0,0,0,0,0,0,-1,580,1380,0,0
-637,-356,0,0,0,0,0,0,0,0,0,-1,587,1380,0,0
-630,-356,-8.23126,-5.01917,0,0,0,0,0,0,0,-1,594,1380,-8.23124,5.0192
-623,-356,-0.263855,-0.675781,0,0,0,0,0,0,0,-1,601,1380,-0.263835,0.675841
-616,-356,-8.26532,-3.43945,0,0,0,0,0,0,0,-1,608,1380,-8.2653,3.43948
-609,-356,-4.88483,0.734497,0,0,0,0,0,0,0,-1,615,1380,-4.88485,-0.734532
-602,-356,-7.22406,1.75867,0,0,0,0,0,0,0,-1,622,1380,-7.22405,-1.75863
-595,-356,-6.85718,2.27527,-0.00943316,0.000603238,0.00485942,0.00257047,-0.0114004,1.18613,0.00858631,0.0456531,629,1380,-6.85721,-2.27531
-588,-356,-6.35077,2.98962,-0.00970923,-0.000701991,0.00192326,-0.000308517,-0.0101027,1.36899,0.00663469,0.0424257,636,1380,-6.35077,-2.98965
-581,-356,-6.19446,3.27795,-0.00872116,-0.00106256,7.90691e-05,-0.00106174,-0.00872197,1.56047,0.00549503,0.037586,643,1380,-6.19446,-3.27799
-574,-356,-6.29828,3.19421,-0.00756608,-0.00134594,-0.000801484,-0.00124433,-0.00766769,-1.44469,0.00475164,0.0267248,650,1380,-6.29827,-3.19427
-567,-356,-6.45691,3.27808,-0.00578653,-0.00102709,-0.00138723,-0.000652276,-0.00616135,-1.30691,0.00390833,0.0161628,657,1380,-6.45689,-3.27803
-560,-356,-6.42334,3.54944,-0.00421754,-0.000775197,-0.00156003,-0.000173416,-0.00481932,-1.20263,0.00315667,0.0172151,664,1380,-6.42333,-3.54942
-553,-356,-6.38776,3.74646,-0.00307405,-0.000724934,-0.0014374,-4.32304e-05,-0.00375576,-1.12795,0.00248955,0.0200545,671,1380,-6.38778,-3.74648
-546,-356,-6.40869,3.99109,-0.00218192,-0.000786926,-0.00113188,-0.000154895,-0.00281395,-1.06153,0.00182653,0.0226738,678,1380,-6.40871,-3.99109
-539,-356,-6.42273,4.28662,-0.0015912,-0.000980508,-0.000868076,-0.000365639,-0.00220606,-0.954514,0.00136525,0.0158393,685,1380,-6.4227,-4.2866
-532,-356,-6.43481,4.51978,-0.00140504,-0.00130291,-0.000379234,-0.000971316,-0.00173663,-0.852321,0.00100499,0.0136376,692,1380,-6.43481,-4.51978
-525,-356,-6.43958,4.76465,-0.00163035,-0.00196665,0.000130569,-0.0015856,-0.00201139,0.330123,0.00122394,0.0111645,699,1380,-6.43956,-4.7647
-518,-356,-6.41199,5.02979,-0.00238479,-0.00283308,0.00052878,-0.00203461,-0.00318326,0.58493,0.00186143,0.0113274,706,1380,-6.41201,-5.02984
-511,-356,-6.29547,5.31958,-0.00376802,-0.00404765,0.000815042,-0.00308089,-0.00473479,0.700454,0.00277471,0.0236845,713,1380,-6.29548,-5.31959
-504,-356,-6.17859,5.66602,0,0,0,0,0,0,0,-1,720,1380,-6.17861,-5.66598
-497,-356,-5.68604,4.96387,0,0,0,0,0,0,0,-1,727,1380,-5.68605,-4.96385
-490,-356,-7.95288,5.5625,0,0,0,0,0,0,0,-1,734,1380,-7.95285,-5.56246
-483,-356,-7.2627,4.07446,0,0,0,0,0,0,0,-1,741,1380,-7.2627,-4.07441
-476,-356,-5.1936,4.16016,0,0,0,0,0,0,0,-1,748,1380,-5.1936,-4.16012
-469,-356,-9.87476,6.46399,0,0,0,0,0,0,0,-1,755,1380,-9.87473,-6.46401
-462,-356,-8.45734,7.80469,0,0,0,0,0,0,0,-1,762,1380,-8.45736,-7.80465
-455,-356,-11.2014,2.23572,0,0,0,0,0,0,0,-1,769,1380,-11.2014,-2.23576
-448,-356,-11.7062,2.1864,0,0,0,0,0,0,0,-1,776,1380,-11.7062,-2.18639
-441,-356,-12.4677,2.37158,0,0,0,0,0,0,0,-1,783,1380,-12.4677,-2.37161
-434,-356,0,0,0,0,0,0,0,0,0,-1,790,1380,0,0
-427,-356,0,0,0,0,0,0,0,0,0,-1,797,1380,0,0
-420,-356,0,0,0,0,0,0,0,0,0,-1,804,1380,0,0
-413,-356,0,0,0,0,0,0,0,0,0,-1,811,1380,0,0
-406,-356,0,0,0,0,0,0,0,0,0,-1,818,1380,0,0
-399,-356,0,0,0,0,0,0,0,0,0,-1,825,1380,0,0
-392,-356,0,0,0,0,0,0,0,0,0,-1,832,1380,0,0
-385,-356,0,0,0,0,0,0,0,0,0,-1,839,1380,0,0
-378,-356,0,0,0,0,0,0,0,0,0,-1,846,1380,0,0
-371,-356,0,0,0,0,0,0,0,0,0,-1,853,1380,0,0
-364,-356,0,0,0,0,0,0,0,0,0,-1,860,1380,0,0
-357,-356,0,0,0,0,0,0,0,0,0,-1,867,1380,0,0
-350,-356,0,0,0,0,0,0,0,0,0,-1,874,1380,0,0
-343,-356,0,0,0,0,0,0,0,0,0,-1,881,1380,0,0
-336,-356,0,0,0,0,0,0,0,0,0,-1,888,1380,0,0
-329,-356,0,0,0,0,0,0,0,0,0,-1,895,1380,0,0
-322,-356,0,0,0,0,0,0,0,0,0,-1,902,1380,0,0
-315,-356,0,0,0,0,0,0,0,0,0,-1,909,1380,0,0
-308,-356,0,0,0,0,0,0,0,0,0,-1,916,1380,0,0
-301,-356,0,0,0,0,0,0,0,0,0,-1,923,1380,0,0
-294,-356,0,0,0,0,0,0,0,0,0,-1,930,1380,0,0
-287,-356,0,0,0,0,0,0,0,0,0,-1,937,1380,0,0
-280,-356,0,0,0,0,0,0,0,0,0,-1,944,1380,0,0
-273,-356,0,0,0,0,0,0,0,0,0,-1,951,1380,0,0
-266,-356,0,0,0,0,0,0,0,0,0,-1,958,1380,0,0
-259,-356,0,0,0,0,0,0,0,0,0,-1,965,1380,0,0
-252,-356,0,0,0,0,0,0,0,0,0,-1,972,1380,0,0
-245,-356,0,0,0,0,0,0,0,0,0,-1,979,1380,0,0
-238,-356,0,0,0,0,0,0,0,0,0,-1,986,1380,0,0
-231,-356,0,0,0,0,0,0,0,0,0,-1,993,1380,0,0
-224,-356,0,0,0,0,0,0,0,0,0,-1,1000,1380,0,0
-217,-356,0,0,0,0,0,0,0,0,0,-1,1007,1380,0,0
-210,-356,0,0,0,0,0,0,0,0,0,-1,1014,1380,0,0
-203,-356,0,0,0,0,0,0,0,0,0,-1,1021,1380,0,0
-196,-356,0,0,0,0,0,0,0,0,0,-1,1028,1380,0,0
-189,-356,0,0,0,0,0,0,0,0,0,-1,1035,1380,0,0
-182,-356,0,0,0,0,0,0,0,0,0,-1,1042,1380,0,0
-175,-356,0,0,0,0,0,0,0,0,0,-1,1049,1380,0,0
-168,-356,0,0,0,0,0,0,0,0,0,-1,1056,1380,0,0
-161,-356,0,0,0,0,0,0,0,0,0,-1,1063,1380,0,0
-154,-356,0,0,0,0,0,0,0,0,0,-1,1070,1380,0,0
-147,-356,0,0,0,0,0,0,0,0,0,-1,1077,1380,0,0
-140,-356,0,0,0,0,0,0,0,0,0,-1,1084,1380,0,0
-133,-356,0,0,0,0,0,0,0,0,0,-1,1091,1380,0,0
-126,-356,0,0,0,0,0,0,0,0,0,-1,1098,1380,0,0
-119,-356,0,0,0,0,0,0,0,0,0,-1,1105,1380,0,0
-112,-356,0,0,0,0,0,0,0,0,0,-1,1112,1380,0,0
-105,-356,0,0,0,0,0,0,0,0,0,-1,1119,1380,0,0
-98,-356,0,0,0,0,0,0,0,0,0,-1,1126,1380,0,0
-91,-356,0,0,0,0,0,0,0,0,0,-1,1133,1380,0,0
-84,-356,0,0,0,0,0,0,0,0,0,-1,1140,1380,0,0
-77,-356,0,0,0,0,0,0,0,0,0,-1,1147,1380,0,0
-70,-356,0,0,0,0,0,0,0,0,0,-1,1154,1380,0,0
-63,-356,0,0,0,0,0,0,0,0,0,-1,1161,1380,0,0
-56,-356,0,0,0,0,0,0,0,0,0,-1,1168,1380,0,0
-49,-356,0,0,0,0,0,0,0,0,0,-1,1175,1380,0,0
-42,-356,0,0,0,0,0,0,0,0,0,-1,1182,1380,0,0
-35,-356,0,0,0,0,0,0,0,0,0,-1,1189,1380,0,0
-28,-356,0,0,0,0,0,0,0,0,0,-1,1196,1380,0,0
-21,-356,0,0,0,0,0,0,0,0,0,-1,1203,1380,0,0
-14,-356,0,0,0,0,0,0,0,0,0,-1,1210,1380,0,0
-7,-356,0,0,0,0,0,0,0,0,0,-1,1217,1380,0,0
0,-356,0,0,0,0,0,0,0,0,0,-1,1224,1380,0,0
7,-356,0,0,0,0,0,0,0,0,0,-1,1231,1380,0,0
14,-356,0,0,0,0,0,0,0,0,0,-1,1238,1380,0,0
21,-356,0,0,0,0,0,0,0,0,0,-1,1245,1380,0,0
28,-356,0,0,0,0,0,0,0,0,0,-1,1252,1380,0,0
35,-356,0,0,0,0,0,0,0,0,0,-1,1259,1380,0,0
42,-356,0,0,0,0,0,0,0,0,0,-1,1266,1380,0,0
49,-356,0,0,0,0,0,0,0,0,0,-1,1273,1380,0,0
56,-356,0,0,0,0,0,0,0,0,0,-1,1280,1380,0,0
63,-356,0,0,0,0,0,0,0,0,0,-1,1287,1380,0,0
70,-356,0,0,0,0,0,0,0,0,0,-1,1294,1380,0,0
77,-356,0,0,0,0,0,0,0,0,0,-1,1301,1380,0,0
84,-356,0,0,0,0,0,0,0,0,0,-1,1308,1380,0,0
91,-356,0,0,0,0,0,0,0,0,0,-1,1315,1380,0,0
98,-356,0,0,0,0,0,0,0,0,0,-1,1322,1380,0,0
105,-356,0,0,0,0,0,0,0,0,0,-1,1329,1380,0,0
112,-356,0,0,0,0,0,0,0,0,0,-1,1336,1380,0,0
119,-356,0,0,0,0,0,0,0,0,0,-1,1343,1380,0,0
126,-356,0,0,0,0,0,0,0,0,0,-1,1350,1380,0,0
133,-356,0,0,0,0,0,0,0,0,0,-1,1357,1380,0,0
140,-356,0,0,0,0,0,0,0,0,0,-1,1364,1380,0,0
147,-356,0,0,0,0,0,0,0,0,0,-1,1371,1380,0,0
154,-356,0,0,0,0,0,0,0,0,0,-1,1378,1380,0,0
161,-356,0,0,0,0,0,0,0,0,0,-1,1385,1380,0,0
168,-356,0,0,0,0,0,0,0,0,0,-1,1392,1380,0,0
175,-356,0,0,0,0,0,0,0,0,0,-1,1399,1380,0,0
182,-356,0,0,0,0,0,0,0,0,0,-1,1406,1380,0,0
189,-356,0,0,0,0,0,0,0,0,0,-1,1413,1380,0,0
196,-356,0,0,0,0,0,0,0,0,0,-1,1420,1380,0,0
203,-356,0,0,0,0,0,0,0,0,0,-1,1427,1380,0,0
210,-356,0,0,0,0,0,0,0,0,0,-1,1434,1380,0,0
217,-356,0,0,0,0,0,0,0,0,0,-1,1441,1380,0,0
224,-356,0,0,0,0,0,0,0,0,0,-1,1448,1380,0,0
231,-356,0,0,0,0,0,0,0,0,0,-1,1455,1380,0,0
238,-356,0,0,0,0,0,0,0,0,0,-1,1462,1380,0,0
245,-356,0,0,0,0,0,0,0,0,0,-1,1469,1380,0,0
252,-356,0,0,0,0,0,0,0,0,0,-1,1476,1380,0,0
259,-356,0,0,0,0,0,0,0,0,0,-1,1483,1380,0,0
266,-356,0,0,0,0,0,0,0,0,0,-1,1490,1380,0,0
273,-356,0,0,0,0,0,0,0,0,0,-1,1497,1380,0,0
280,-356,0,0,0,0,0,0,0,0,0,-1,1504,1380,0,0
287,-356,0,0,0,0,0,0,0,0,0,-1,1511,1380,0,0
294,-356,0,0,0,0,0,0,0,0,0,-1,1518,1380,0,0
301,-356,0,0,0,0,0,0,0,0,0,-1,1525,1380,0,0
308,-356,0,0,0,0,0,0,0,0,0,-1,1532,1380,0,0
315,-356,0,0,0,0,0,0,0,0,0,-1,1539,1380,0,0
322,-356,0,0,0,0,0,0,0,0,0,-1,1546,1380,0,0
329,-356,0,0,0,0,0,0,0,0,0,-1,1553,1380,0,0
336,-356,0,0,0,0,0,0,0,0,0,-1,1560,1380,0,0
343,-356,0,0,0,0,0,0,0,0,0,-1,1567,1380,0,0
350,-356,0,0,0,0,0,0,0,0,0,-1,1574,1380,0,0
357,-356,0,0,0,0,0,0,0,0,0,-1,1581,1380,0,0
364,-356,0,0,0,0,0,0,0,0,0,-1,1588,1380,0,0
371,-356,0,0,0,0,0,0,0,0,0,-1,1595,1380,0,0
378,-356,0,0,0,0,0,0,0,0,0,-1,1602,1380,0,0
385,-356,0,0,0,0,0,0,0,0,0,-1,1609,1380,0,0
392,-356,0,0,0,0,0,0,0,0,0,-1,1616,1380,0,0
399,-356,0,0,0,0,0,0,0,0,0,-1,1623,1380,0,0
406,-356,0,0,0,0,0,0,0,0,0,-1,1630,1380,0,0
413,-356,0,0,0,0,0,0,0,0,0,-1,1637,1380,0,0
420,-356,0,0,0,0,0,0,0,0,0,-1,1644,1380,0,0
427,-356,0,0,0,0,0,0,0,0,0,-1,1651,1380,0,0
434,-356,0,0,0,0,0,0,0,0,0,-1,1658,1380,0,0
441,-356,0,0,0,0,0,0,0,0,0,-1,1665,1380,0,0
448,-356,0,0,0,0,0,0,0,0,0,-1,1672,1380,0,0
455,-356,0,0,0,0,0,0,0,0,0,-1,1679,1380,0,0
462,-356,0,0,0,0,0,0,0,0,0,-1,1686,1380,0,0
469,-356,0,0,0,0,0,0,0,0,0,-1,1693,1380,0,0
476,-356,0,0,0,0,0,0,0,0,0,-1,1700,1380,0,0
483,-356,0,0,0,0,0,0,0,0,0,-1,1707,1380,0,0
490,-356,0,0,0,0,0,0,0,0,0,-1,1714,1380,0,0
497,-356,0,0,0,0,0,0,0,0,0,-1,1721,1380,0,0
504,-356,0,0,0,0,0,0,0,0,0,-1,1728,1380,0,0
511,-356,0,0,0,0,0,0,0,0,0,-1,1735,1380,0,0
518,-356,0,0,0,0,0,0,0,0,0,-1,1742,1380,0,0
525,-356,0,0,0,0,0,0,0,0,0,-1,1749,1380,0,0
532,-356,0,0,0,0,0,0,0,0,0,-1,1756,1380,0,0
539,-356,0,0,0,0,0,0,0,0,0,-1,1763,1380,0,0
546,-356,0,0,0,0,0,0,0,0,0,-1,1770,1380,0,0
553,-356,0,0,0,0,0,0,0,0,0,-1,1777,1380,0,0
560,-356,20.2863,3.19324,0,0,0,0,0,0,0,-1,1784,1380,20.2863,-3.19324
567,-356,20.293,3.20374,0,0,0,0,0,0,0,-1,1791,1380,20.293,-3.20372
574,-356,14.5682,6.27368,0,0,0,0,0,0,0,-1,1798,1380,14.5682,-6.27365
581,-356,15.6521,5.05688,0,0,0,0,0,0,0,-1,1805,1380,15.6521,-5.05694
588,-356,18.3274,0.448364,0,0,0,0,0,0,0,-1,1812,1380,18.3274,-0.448374
595,-356,18.4769,1.26306,0,0,0,0,0,0,0,-1,1819,1380,18.4769,-1.26304
602,-356,17.934,2.41858,0,0,0,0,0,0,0,-1,1826,1380,17.9339,-2.41856
609,-356,17.91,3.41785,0,0,0,0,0,0,0,-1,1833,1380,17.91,-3.41785
616,-356,15.8739,6.0708,0,0,0,0,0,0,0,-1,1840,1380,15.8739,-6.07083
623,-356,15.6245,6.91626,0,0,0,0,0,0,0,-1,1847,1380,15.6246,-6.91624
630,-356,15.4697,6.60168,0,0,0,0,0,0,0,-1,1854,1380,15.4697,-6.60166
637,-356,15.1594,6.83582,0,0,0,0,0,0,0,-1,1861,1380,15.1595,-6.83577
644,-356,15.1222,7.14758,-0.00549019,-0.000632381,0.00976115,0.00699752,-0.0131201,0.907339,0.0117928,0.0281302,1868,1380,15.1221,-7.14758
651,-356,15.1539,6.85205,-0.004009,-0.00208757,0.00610583,0.00313267,-0.00922924,0.86343,0.00742083,0.0161501,1875,1380,15.154,-6.85211
658,-356,15.1157,6.61072,-0.00247848,-0.00213524,0.00389873,0.00159564,-0.00620936,0.807394,0.00476143,0.0149992,1882,1380,15.1157,-6.61072
665,-356,15.1172,6.42407,-0.000641063,-0.00161337,0.00165681,0.000599445,-0.00285388,0.64269,0.0021307,0.0142389,1889,1380,15.1172,-6.42412
672,-356,15.1158,6.22986,0.000413797,-0.00105384,0.000311009,0.000476983,-0.00111703,0.200436,0.000944708,0.0144493,1896,1380,15.1159,-6.22982
679,-356,15.1104,5.99158,0.000822628,-0.000921899,-5.42715e-05,0.000824315,-0.000923586,-0.0310695,0.00100969,0.0157584,1903,1380,15.1103,-5.99153
686,-356,15.109,5.78784,0.000252905,0.00112722,-0.00113021,0.00190187,-0.000521744,-0.969934,0.00147296,0.0146952,1910,1380,15.1091,-5.78785
693,-356,15.1324,5.57874,-0.000948592,0.00369697,-0.00280245,0.00501411,-0.00226573,-1.13144,0.0043017,0.0129692,1917,1380,15.1325,-5.57877
700,-356,15.1614,5.34595,-0.000976769,0.00720139,-0.00477615,0.00939977,-0.00317515,-1.13942,0.00755081,0.017726,1924,1380,15.1613,-5.34595
707,-356,15.1853,4.90039,-0.0024713,0.0123367,-0.00756282,0.0155165,-0.00565103,-1.17279,0.0126558,0.0405944,1931,1380,15.1853,-4.90042
714,-356,15.2755,4.51465,0,0,0,0,0,0,0,-1,1938,1380,15.2755,-4.51459
721,-356,15.1661,4.30249,0,0,0,0,0,0,0,-1,1945,1380,15.1661,-4.3025
728,-356,13.2661,3.90723,0,0,0,0,0,0,0,-1,1952,1380,13.2661,-3.90722
735,-356,18.5663,2.40906,0,0,0,0,0,0,0,-1,1959,1380,18.5663,-2.40912
742,-356,17.9935,1.47119,0,0,0,0,0,0,0,-1,1966,1380,17.9935,-1.47116
749,-356,17.4208,0.533203,0,0,0,0,0,0,0,-1,1973,1380,17.4207,-0.533201
756,-356,0,0,0,0,0,0,0,0,0,-1,1980,1380,0,0
763,-356,0,0,0,0,0,0,0,0,0,-1,1987,1380,0,0
770,-356,0,0,0,0,0,0,0,0,0,-1,1994,1380,0,0
777,-356,0,0,0,0,0,0,0,0,0,-1,2001,1380,0,0
784,-356,0,0,0,0,0,0,0,0,0,-1,2008,1380,0,0
791,-356,0,0,0,0,0,0,0,0,0,-1,2015,1380,0,0
798,-356,0,0,0,0,0,0,0,0,0,-1,2022,1380,0,0
805,-356,0,0,0,0,0,0,0,0,0,-1,2029,1380,0,0
812,-356,0,0,0,0,0,0,0,0,0,-1,2036,1380,0,0
-700,-363,0,0,0,0,0,0,0,0,0,-1,524,1387,0,0
-693,-363,0,0,0,0,0,0,0,0,0,-1,531,1387,0,0
-686,-363,0,0,0,0,0,0,0,0,0,-1,538,1387,0,0
-679,-363,0,0,0,0,0,0,0,0,0,-1,545,1387,0,0
-672,-363,0,0,0,0,0,0,0,0,0,-1,552,1387,0,0
-665,-363,0,0,0,0,0,0,0,0,0,-1,559,1387,0,0
-658,-363,0,0,0,0,0,0,0,0,0,-1,566,1387,0,0
-651,-363,0,0,0,0,0,0,0,0,0,-1,573,1387,0,0
-644,-363,0,0,0,0,0,0,0,0,0,-1,580,1387,0,0
-637,-363,0,0,0,0,0,0,0,0,0,-1,587,1387,0,0
-630,-363,0,0,0,0,0,0,0,0,0,-1,594,1387,0,0
-623,-363,-9.67566,-5.91846,0,0,0,0,0,0,0,-1,601,1387,-9.67563,5.91847
-616,-363,-9.02985,-2.98083,0,0,0,0,0,0,0,-1,608,1387,-9.02987,2.98079
-609,-363,-4.90265,0.195679,0,0,0,0,0,0,0,-1,615,1387,-4.90263,-0.195721
-602,-363,-6.56665,2.28394,0,0,0,0,0,0,0,-1,622,1387,-6.56667,-2.284
-595,-363,-6.07709,2.70544,0,0,0,0,0,0,0,-1,629,1387,-6.07706,-2.70547
-588,-363,-5.47095,3.03748,0,0,0,0,0,0,0,-1,636,1387,-5.47094,-3.03742
-581,-363,-5.72906,3.17346,-0.0103418,-0.00191389,-0.000588709,-0.00187297,-0.0103827,-1.50139,0.00638965,0.0376293,643,1387,-5.72906,-3.17341
-574,-363,-6.01221,3.24219,-0.0087877,-0.00154384,-0.00152574,-0.00123559,-0.00909594,-1.37145,0.00569694,0.0315701,650,1387,-6.01218,-3.24216
-567,-363,-6.17993,3.29126,-0.00671901,-0.00106293,-0.00199055,-0.000432633,-0.00734931,-1.26414,0.00476188,0.0215314,657,1387,-6.17995,-3.29129
-560,-363,-6.17712,3.51392,-0.00490615,-0.000703964,-0.00201153,0.000103696,-0.00571381,-1.18898,0.00384424,0.0128087,664,1387,-6.17714,-3.51394
-553,-363,-6.17786,3.76831,-0.00350979,-0.000565868,-0.00178311,0.000274346,-0.00435,-1.13045,0.00299564,0.0129675,671,1387,-6.17786,-3.76836
-546,-363,-6.17822,4.00562,-0.00239939,-0.000580188,-0.00135784,0.000144558,-0.00312414,-1.08051,0.00213258,0.0132496,678,1387,-6.17821,-4.00562
-539,-363,-6.14703,4.23926,-0.00154356,-0.000714498,-0.00102808,-2.05263e-05,-0.00223753,-0.977033,0.00148489,0.0150951,685,1387,-6.14705,-4.23923
-532,-363,-6.17767,4.50854,-0.000977158,-0.000934019,-0.000471977,-0.000483119,-0.00142806,-0.808233,0.000838737,0.012051,692,1387,-6.17769,-4.50859
-525,-363,-6.1925,4.76416,-0.00067375,-0.00147783,0.000114318,-0.000657813,-0.00149376,0.138517,0.000864466,0.0101412,699,1387,-6.1925,-4.76413
-518,-363,-6.17444,5.0199,-0.000731192,-0.00222145,0.000552533,-0.000548685,-0.00240396,0.319027,0.00145466,0.00944632,706,1387,-6.17444,-5.01995
-511,-363,-6.13013,5.29895,-0.00119706,-0.00321685,0.000846601,-0.000889143,-0.00352476,0.348833,0.00211665,0.0161187,713,1387,-6.13014,-5.29899
-504,-363,-6.02795,5.57324,-0.00193882,-0.00443369,0.00104254,-0.00156053,-0.00481198,0.34808,0.0028348,0.0408318,720,1387,-6.02793,-5.57326
-497,-363,-5.76563,5.7406,0,0,0,0,0,0,0,-1,727,1387,-5.76565,-5.7406
-490,-363,-5.42413,4.6958,0,0,0,0,0,0,0,-1,734,1387,-5.42412,-4.69583
-483,-363,-6.28375,4.1394,0,0,0,0,0,0,0,-1,741,1387,-6.28374,-4.13944
-476,-363,-5.83807,4.31018,0,0,0,0,0,0,0,-1,748,1387,-5.8381,-4.31013
-469,-363,-4.31604,1.66943,0,0,0,0,0,0,0,-1,755,1387,-4.31606,-1.66944
-462,-363,-9.94159,2.40771,0,0,0,0,0,0,0,-1,762,1387,-9.94157,-2.4077
-455,-363,-10.5774,1.9292,0,0,0,0,0,0,0,-1,769,1387,-10.5774,-1.92915
-448,-363,-11.0799,1.61865,0,0,0,0,0,0,0,-1,776,1387,-11.0799,-1.61866
-441,-363,-11.8578,1.90332,0,0,0,0,0,0,0,-1,783,1387,-11.8578,-1.90326
-434,-363,-12.5151,2.19995,0,0,0,0,0,0,0,-1,790,1387,-12.5151,-2.19996
-427,-363,0,0,0,0,0,0,0,0,0,-1,797,1387,0,0
-420,-363,0,0,0,0,0,0,0,0,0,-1,804,1387,0,0
-413,-363,0,0,0,0,0,0,0,0,0,-1,811,1387,0,0
-406,-363,0,0,0,0,0,0,0,0,0,-1,818,1387,0,0
-399,-363,0,0,0,0,0,0,0,0,0,-1,825,1387,0,0
-392,-363,0,0,0,0,0,0,0,0,0,-1,832,1387,0,0
-385,-363,0,0,0,0,0,0,0,0,0,-1,839,1387,0,0
-378,-363,0,0,0,0,0,0,0,0,0,-1,846,1387,0,0
-371,-363,0,0,0,0,0,0,0,0,0,-1,853,1387,0,0
-364,-363,0,0,0,0,0,0,0,0,0,-1,860,1387,0,0
-357,-363,0,0,0,0,0,0,0,0,0,-1,867,1387,0,0
-350,-363,0,0,0,0,0,0,0,0,0,-1,874,1387,0,0
-343,-363,0,0,0,0,0,0,0,0,0,-1,881,1387,0,0
-336,-363,0,0,0,0,0,0,0,0,0,-1,888,1387,0,0
-329,-363,0,0,0,0,0,0,0,0,0,-1,895,1387,0,0
-322,-363,0,0,0,0,0,0,0,0,0,-1,902,1387,0,0
-315,-363,0,0,0,0,0,0,0,0,0,-1,909,1387,0,0
-308,-363,0,0,0,0,0,0,0,0,0,-1,916,1387,0,0
-301,-363,0,0,0,0,0,0,0,0,0,-1,923,1387,0,0
-294,-363,0,0,0,0,0,0,0,0,0,-1,930,1387,0,0
-287,-363,0,0,0,0,0,0,0,0,0,-1,937,1387,0,0
-280,-363,0,0,0,0,0,0,0,0,0,-1,944,1387,0,0
-273,-363,0,0,0,0,0,0,0,0,0,-1,951,1387,0,0
-266,-363,0,0,0,0,0,0,0,0,0,-1,958,1387,0,0
-259,-363,0,0,0,0,0,0,0,0,0,-1,965,1387,0,0
-252,-363,0,0,0,0,0,0,0,0,0,-1,972,1387,0,0
-245,-363,0,0,0,0,0,0,0,0,0,-1,979,1387,0,0
-238,-363,0,0,0,0,0,0,0,0,0,-1,986,1387,0,0
-231,-363,0,0,0,0,0,0,0,0,0,-1,993,1387,0,0
-224,-363,0,0,0,0,0,0,0,0,0,-1,1000,1387,0,0
-217,-363,0,0,0,0,0,0,0,0,0,-1,1007,1387,0,0
-210,-363,0,0,0,0,0,0,0,0,0,-1,1014,1387,0,0
-203,-363,0,0,0,0,0,0,0,0,0,-1,1021,1387,0,0
-196,-363,0,0,0,0,0,0,0,0,0,-1,1028,1387,0,0
-189,-363,0,0,0,0,0,0,0,0,0,-1,1035,1387,0,0
-182,-363,0,0,0,0,0,0,0,0,0,-1,1042,1387,0,0
-175,-363,0,0,0,0,0,0,0,0,0,-1,1049,1387,0,0
-168,-363,0,0,0,0,0,0,0,0,0,-1,1056,1387,0,0
-161,-363,0,0,0,0,0,0,0,0,0,-1,1063,1387,0,0
-154,-363,0,0,0,0,0,0,0,0,0,-1,1070,1387,0,0
-147,-363,0,0,0,0,0,0,0,0,0,-1,1077,1387,0,0
-140,-363,0,0,0,0,0,0,0,0,0,-1,1084,1387,0,0
-133,-363,0,0,0,0,0,0,0,0,0,-1,1091,1387,0,0
-126,-363,0,0,0,0,0,0,0,0,0,-1,1098,1387,0,0
-119,-363,0,0,0,0,0,0,0,0,0,-1,1105,1387,0,0
-112,-363,0,0,0,0,0,0,0,0,0,-1,1112,1387,0,0
-105,-363,0,0,0,0,0,0,0,0,0,-1,1119,1387,0,0
-98,-363,0,0,0,0,0,0,0,0,0,-1,1126,1387,0,0
-91,-363,0,0,0,0,0,0,0,0,0,-1,1133,1387,0,0
-84,-363,0,0,0,0,0,0,0,0,0,-1,1140,1387,0,0
-77,-363,0,0,0,0,0,0,0,0,0,-1,1147,1387,0,0
-70,-363,0,0,0,0,0,0,0,0,0,-1,1154,1387,0,0
-63,-363,0,0,0,0,0,0,0,0,0,-1,1161,1387,0,0
-56,-363,0,0,0,0,0,0,0,0,0,-1,1168,1387,0,0
-49,-363,0,0,0,0,0,0,0,0,0,-1,1175,1387,0,0
-42,-363,0,0,0,0,0,0,0,0,0,-1,1182,1387,0,0
-35,-363,0,0,0,0,0,0,0,0,0,-1,1189,1387,0,0
-28,-363,0,0,0,0,0,0,0,0,0,-1,1196,1387,0,0
-21,-363,0,0,0,0,0,0,0,0,0,-1,1203,1387,0,0
-14,-363,0,0,0,0,0,0,0,0,0,-1,1210,1387,0,0
-7,-363,0,0,0,0,0,0,0,0,0,-1,1217,1387,0,0
0,-363,0,0,0,0,0,0,0,0,0,-1,1224,1387,0,0
7,-363,0,0,0,0,0,0,0,0,0,-1,1231,1387,0,0
14,-363,0,0,0,0,0,0,0,0,0,-1,1238,1387,0,0
21,-363,0,0,0,0,0,0,0,0,0,-1,1245,1387,0,0
28,-363,0,0,0,0,0,0,0,0,0,-1,1252,1387,0,0
35,-363,0,0,0,0,0,0,0,0,0,-1,1259,1387,0,0
42,-363,0,0,0,0,0,0,0,0,0,-1,1266,1387,0,0
49,-363,0,0,0,0,0,0,0,0,0,-1,1273,1387,0,0
56,-363,0,0,0,0,0,0,0,0,0,-1,1280,1387,0,0
63,-363,0,0,0,0,0,0,0,0,0,-1,1287,1387,0,0
70,-363,0,0,0,0,0,0,0,0,0,-1,1294,1387,0,0
77,-363,0,0,0,0,0,0,0,0,0,-1,1301,1387,0,0
84,-363,0,0,0,0,0,0,0,0,0,-1,1308,1387,0,0
91,-363,0,0,0,0,0,0,0,0,0,-1,1315,1387,0,0
98,-363,0,0,0,0,0,0,0,0,0,-1,1322,1387,0,0
105,-363,0,0,0,0,0,0,0,0,0,-1,1329,1387,0,0
112,-363,0,0,0,0,0,0,0,0,0,-1,1336,1387,0,0
119,-363,0,0,0,0,0,0,0,0,0,-1,1343,1387,0,0
126,-363,0,0,0,0,0,0,0,0,0,-1,1350,1387,0,0
133,-363,0,0,0,0,0,0,0,0,0,-1,1357,1387,0,0
140,-363,0,0,0,0,0,0,0,0,0,-1,1364,1387,0,0
147,-363,0,0,0,0,0,0,0,0,0,-1,1371,1387,0,0
154,-363,0,0,0,0,0,0,0,0,0,-1,1378,1387,0,0
161,-363,0,0,0,0,0,0,0,0,0,-1,1385,1387,0,0
168,-363,0,0,0,0,0,0,0,0,0,-1,1392,1387,0,0
175,-363,0,0,0,0,0,0,0,0,0,-1,1399,1387,0,0
182,-363,0,0,0,0,0,0,0,0,0,-1,1406,1387,0,0
189,-363,0,0,0,0,0,0,0,0,0,-1,1413,1387,0,0
196,-363,0,0,0,0,0,0,0,0,0,-1,1420,1387,0,0
203,-363,0,0,0,0,0,0,0,0,0,-1,1427,1387,0,0
210,-363,0,0,0,0,0,0,0,0,0,-1,1434,1387,0,0
217,-363,0,0,0,0,0,0,0,0,0,-1,1441,1387,0,0
224,-363,0,0,0,0,0,0,0,0,0,-1,1448,1387,0,0
231,-363,0,0,0,0,0,0,0,0,0,-1,1455,1387,0,0
238,-363,0,0,0,0,0,0,0,0,0,-1,1462,1387,0,0
245,-363,0,0,0,0,0,0,0,0,0,-1,1469,1387,0,0
252,-363,0,0,0,0,0,0,0,0,0,-1,1476,1387,0,0
259,-363,0,0,0,0,0,0,0,0,0,-1,1483,1387,0,0
266,-363,0,0,0,0,0,0,0,0,0,-1,1490,1387,0,0
273,-363,0,0,0,0,0,0,0,0,0,-1,1497,1387,0,0
280,-363,0,0,0,0,0,0,0,0,0,-1,1504,1387,0,0
287,-363,0,0,0,0,0,0,0,0,0,-1,1511,1387,0,0
294,-363,0,0,0,0,0,0,0,0,0,-1,1518,1387,0,0
301,-363,0,0,0,0,0,0,0,0,0,-1,1525,1387,0,0
308,-363,0,0,0,0,0,0,0,0,0,-1,1532,1387,0,0
315,-363,0,0,0,0,0,0,0,0,0,-1,1539,1387,0,0
322,-363,0,0,0,0,0,0,0,0,0,-1,1546,1387,0,0
329,-363,0,0,0,0,0,0,0,0,0,-1,1553,1387,0,0
336,-363,0,0,0,0,0,0,0,0,0,-1,1560,1387,0,0
343,-363,0,0,0,0,0,0,0,0,0,-1,1567,1387,0,0
350,-363,0,0,0,0,0,0,0,0,0,-1,1574,1387,0,0
357,-363,0,0,0,0,0,0,0,0,0,-1,1581,1387,0,0
364,-363,0,0,0,0,0,0,0,0,0,-1,1588,1387,0,0
371,-363,0,0,0,0,0,0,0,0,0,-1,1595,1387,0,0
378,-363,0,0,0,0,0,0,0,0,0,-1,1602,1387,0,0
385,-363,0,0,0,0,0,0,0,0,0,-1,1609,1387,0,0
392,-363,0,0,0,0,0,0,0,0,0,-1,1616,1387,0,0
399,-363,0,0,0,0,0,0,0,0,0,-1,1623,1387,0,0
406,-363,0,0,0,0,0,0,0,0,0,-1,1630,1387,0,0
413,-363,0,0,0,0,0,0,0,0,0,-1,1637,1387,0,0
420,-363,0,0,0,0,0,0,0,0,0,-1,1644,1387,0,0
427,-363,0,0,0,0,0,0,0,0,0,-1,1651,1387,0,0
434,-363,0,0,0,0,0,0,0,0,0,-1,1658,1387,0,0
441,-363,0,0,0,0,0,0,0,0,0,-1,1665,1387,0,0
448,-363,0,0,0,0,0,0,0,0,0,-1,1672,1387,0,0
455,-363,0,0,0,0,0,0,0,0,0,-1,1679,1387,0,0
462,-363,0,0,0,0,0,0,0,0,0,-1,1686,1387,0,0
469,-363,0,0,0,0,0,0,0,0,0,-1,1693,1387,0,0
476,-363,0,0,0,0,0,0,0,0,0,-1,1700,1387,0,0
483,-363,0,0,0,0,0,0,0,0,0,-1,1707,1387,0,0
490,-363,0,0,0,0,0,0,0,0,0,-1,1714,1387,0,0
497,-363,0,0,0,0,0,0,0,0,0,-1,1721,1387,0,0
504,-363,0,0,0,0,0,0,0,0,0,-1,1728,1387,0,0
511,-363,0,0,0,0,0,0,0,0,0,-1,1735,1387,0,0
518,-363,0,0,0,0,0,0,0,0,0,-1,1742,1387,0,0
525,-363,0,0,0,0,0,0,0,0,0,-1,1749,1387,0,0
532,-363,0,0,0,0,0,0,0,0,0,-1,1756,1387,0,0
539,-363,0,0,0,0,0,0,0,0,0,-1,1763,1387,0,0
546,-363,0,0,0,0,0,0,0,0,0,-1,1770,1387,0,0
553,-363,20.5176,1.28699,0,0,0,0,0,0,0,-1,1777,1387,20.5176,-1.28699
560,-363,20.1282,2.86011,0,0,0,0,0,0,0,-1,1784,1387,20.1282,-2.86016
567,-363,20.1196,3.49683,0,0,0,0,0,0,0,-1,1791,1387,20.1196,-3.49686
574,-363,13.896,5.84314,0,0,0,0,0,0,0,-1,1798,1387,13.896,-5.84314
581,-363,15.1686,4.47595,0,0,0,0,0,0,0,-1,1805,1387,15.1686,-4.47596
588,-363,16.2867,3.32141,0,0,0,0,0,0,0,-1,1812,1387,16.2868,-3.32145
595,-363,17.8364,0.548096,0,0,0,0,0,0,0,-1,1819,1387,17.8364,-0.548141
602,-363,14.0654,6.11243,0,0,0,0,0,0,0,-1,1826,1387,14.0654,-6.11239
609,-363,14.3435,6.41492,0,0,0,0,0,0,0,-1,1833,1387,14.3435,-6.41488
616,-363,15.5922,7.22815,0,0,0,0,0,0,0,-1,1840,1387,15.5921,-7.22811
623,-363,15.3691,7.1864,0,0,0,0,0,0,0,-1,1847,1387,15.3692,-7.18638
630,-363,15.1019,6.95227,0,0,0,0,0,0,0,-1,1854,1387,15.102,-6.95233
637,-363,15.0398,7.07678,0,0,0,0,0,0,0,-1,1861,1387,15.0398,-7.07673
644,-363,14.9242,7.09253,-0.00604314,-0.00172686,0.00831015,0.00470081,-0.0124708,0.912442,0.0102468,0.0119747,1868,1387,14.9242,-7.09258
651,-363,14.9349,6.84192,-0.0037953,-0.00238215,0.00470558,0.00166961,-0.00784706,0.85992,0.00586763,0.0109396,1875,1387,14.9349,-6.84188
658,-363,14.9324,6.61975,-0.00187655,-0.00202211,0.00271083,0.000762477,-0.00466115,0.771978,0.00339029,0.0118745,1882,1387,14.9324,-6.61978
665,-363,14.8969,6.43738,-0.000125356,-0.00154195,0.00102178,0.000409613,-0.00207692,0.482324,0.00153942,0.0113449,1889,1387,14.8968,-6.43737
672,-363,14.8947,6.22583,0.000811267,-0.00118533,0.000115043,0.000817874,-0.00119193,0.0573667,0.00116704,0.012399,1896,1387,14.8946,-6.22578
679,-363,14.9015,5.99097,0.00124622,-0.00127974,-8.64851e-05,0.00124918,-0.0012827,-0.0341851,0.00146182,0.0143494,1903,1387,14.9015,-5.99099
686,-363,14.9105,5.78577,0.000571642,0.000584736,-0.00103245,0.00161066,-0.000454287,-0.788569,0.00125296,0.0145499,1910,1387,14.9105,-5.78577
693,-363,14.9183,5.55396,-0.00093739,0.00292247,-0.00253054,0.00417504,-0.00218996,-1.11117,0.00373393,0.013125,1917,1387,14.9184,-5.55393
700,-363,14.9951,5.30493,-0.00144628,0.00630644,-0.00425833,0.00818852,-0.00332836,-1.15464,0.00684378,0.0174931,1924,1387,14.9951,-5.3049
707,-363,14.9183,4.93286,-0.00360961,0.0115217,-0.00692246,0.0142108,-0.0062987,-1.20028,0.0121313,0.0402791,1931,1387,14.9184,-4.93286
714,-363,14.8647,4.78638,0,0,0,0,0,0,0,-1,1938,1387,14.8648,-4.78632
721,-363,14.4045,4.51685,0,0,0,0,0,0,0,-1,1945,1387,14.4045,-4.51685
728,-363,13.8644,4.52063,0,0,0,0,0,0,0,-1,1952,1387,13.8644,-4.52064
735,-363,14.8151,4.4552,0,0,0,0,0,0,0,-1,1959,1387,14.8151,-4.45516
742,-363,18.7352,1.20129,0,0,0,0,0,0,0,-1,1966,1387,18.7353,-1.20129
749,-363,0,0,0,0,0,0,0,0,0,-1,1973,1387,0,0
756,-363,0,0,0,0,0,0,0,0,0,-1,1980,1387,0,0
763,-363,0,0,0,0,0,0,0,0,0,-1,1987,1387,0,0
770,-363,0,0,0,0,0,0,0,0,0,-1,1994,1387,0,0
777,-363,0,0,0,0,0,0,0,0,0,-1,2001,1387,0,0
784,-363,0,0,0,0,0,0,0,0,0,-1,2008,1387,0,0
791,-363,0,0,0,0,0,0,0,0,0,-1,2015,1387,0,0
798,-363,0,0,0,0,0,0,0,0,0,-1,2022,1387,0,0
805,-363,0,0,0,0,0,0,0,0,0,-1,2029,1387,0,0
812,-363,0,0,0,0,0,0,0,0,0,-1,2036,1387,0,0
-700,-370,0,0,0,0,0,0,0,0,0,-1,524,1394,0,0
-693,-370,0,0,0,0,0,0,0,0,0,-1,531,1394,0,0
-686,-370,0,0,0,0,0,0,0,0,0,-1,538,1394,0,0
-679,-370,0,0,0,0,0,0,0,0,0,-1,545,1394,0,0
-672,-370,0,0,0,0,0,0,0,0,0,-1,552,1394,0,0
-665,-370,0,0,0,0,0,0,0,0,0,-1,559,1394,0,0
-658,-370,0,0,0,0,0,0,0,0,0,-1,566,1394,0,0
-651,-370,0,0,0,0,0,0,0,0,0,-1,573,1394,0,0
-644,-370,0,0,0,0,0,0,0,0,0,-1,580,1394,0,0
-637,-370,0,0,0,0,0,0,0,0,0,-1,587,1394,0,0
-630,-370,0,0,0,0,0,0,0,0,0,-1,594,1394,0,0
-623,-370,-10.1758,-7.10486,0,0,0,0,0,0,0,-1,601,1394,-10.1758,7.10483
-616,-370,-8.85925,-1.61475,0,0,0,0,0,0,0,-1,608,1394,-8.85925,1.61476
-609,-370,-5.39325,0.0421143,0,0,0,0,0,0,0,-1,615,1394,-5.39328,-0.0421372
-602,-370,-5.4397,0.881836,0,0,0,0,0,0,0,-1,622,1394,-5.43972,-0.881813
-595,-370,-5.40826,3.07837,0,0,0,0,0,0,0,-1,629,1394,-5.40828,-3.07841
-588,-370,-5.93701,3.89331,0,0,0,0,0,0,0,-1,636,1394,-5.93701,-3.89335
-581,-370,-5.38818,3.19519,0,0,0,0,0,0,0,-1,643,1394,-5.38819,-3.19514
-574,-370,-5.75537,3.17639,-0.00948016,-0.00125961,-0.00202981,-0.000785728,-0.00995405,-1.34144,0.00639024,0.0386797,650,1394,-5.75534,-3.17643
-567,-370,-5.85278,3.32898,-0.00737664,-0.000897049,-0.0024647,-6.60932e-05,-0.0082076,-1.24562,0.00544984,0.0261862,657,1394,-5.85277,-3.32899
-560,-370,-5.9447,3.49585,-0.00547725,-0.000582414,-0.0023986,0.000396995,-0.00645666,-1.18313,0.00444269,0.0160918,664,1394,-5.94468,-3.4959
-553,-370,-5.93951,3.77307,-0.00392433,-0.000456903,-0.00210479,0.000536272,-0.00491751,-1.12991,0.00347093,0.0111723,671,1394,-5.93951,-3.77311
-546,-370,-5.9176,4.01599,-0.00265582,-0.000451285,-0.0015944,0.000384774,-0.00349188,-1.08784,0.0024662,0.0141177,678,1394,-5.9176,-4.01604
-539,-370,-5.88226,4.29675,-0.00160023,-0.000525409,-0.00119776,0.000249979,-0.00237561,-0.996275,0.0016733,0.0168238,685,1394,-5.88227,-4.29681
-532,-370,-5.92084,4.56641,-0.000743184,-0.00064531,-0.000582232,-0.000109962,-0.00127853,-0.827325,0.000818167,0.0183803,692,1394,-5.92086,-4.5664
-525,-370,-5.93317,4.77136,-4.45401e-05,-0.00106661,6.3217e-05,-4.06449e-05,-0.0010705,0.0615395,0.000700513,0.0139862,699,1394,-5.93319,-4.77133
-518,-370,-5.92932,5.00085,0.000410291,-0.00167654,0.000544496,0.000543818,-0.00181007,0.240483,0.00142305,0.0104965,706,1394,-5.92933,-5.00086
-511,-370,-5.90631,5.26636,0.000607978,-0.00244877,0.000874535,0.000840495,-0.00268129,0.259863,0.00212387,0.0136142,713,1394,-5.9063,-5.26641
-504,-370,-5.84576,5.54285,0.000320178,-0.00342755,0.000965955,0.000554497,-0.00366187,0.237981,0.00264552,0.0255302,720,1394,-5.84574,-5.5428
-497,-370,-5.4715,5.82703,0,0,0,0,0,0,0,-1,727,1394,-5.47151,-5.82707
-490,-370,-5.30695,4.5271,0,0,0,0,0,0,0,-1,734,1394,-5.30698,-4.52704
-483,-370,-6.02997,4.59253,0,0,0,0,0,0,0,-1,741,1394,-6.02994,-4.5925
-476,-370,-6.75293,4.65796,0,0,0,0,0,0,0,-1,748,1394,-6.7529,-4.65795
-469,-370,-6.71899,4.70483,0,0,0,0,0,0,0,-1,755,1394,-6.71897,-4.70487
-462,-370,-9.86481,2.61072,0,0,0,0,0,0,0,-1,762,1394,-9.86479,-2.61068
-455,-370,-8.96338,1.39319,0,0,0,0,0,0,0,-1,769,1394,-8.96335,-1.39315
-448,-370,-9.96106,1.12341,0,0,0,0,0,0,0,-1,776,1394,-9.96106,-1.12339
-441,-370,-11.2067,1.4259,0,0,0,0,0,0,0,-1,783,1394,-11.2067,-1.42593
-434,-370,-11.8126,1.54004,0,0,0,0,0,0,0,-1,790,1394,-11.8126,-1.5401
-427,-370,0,0,0,0,0,0,0,0,0,-1,797,1394,0,0
-420,-370,0,0,0,0,0,0,0,0,0,-1,804,1394,0,0
-413,-370,0,0,0,0,0,0,0,0,0,-1,811,1394,0,0
-406,-370,0,0,0,0,0,0,0,0,0,-1,818,1394,0,0
-399,-370,0,0,0,0,0,0,0,0,0,-1,825,1394,0,0
-392,-370,0,0,0,0,0,0,0,0,0,-1,832,1394,0,0
-385,-370,0,0,0,0,0,0,0,0,0,-1,839,1394,0,0
-378,-370,0,0,0,0,0,0,0,0,0,-1,846,1394,0,0
-371,-370,0,0,0,0,0,0,0,0,0,-1,853,1394,0,0
-364,-370,0,0,0,0,0,0,0,0,0,-1,860,1394,0,0
-357,-370,0,0,0,0,0,0,0,0,0,-1,867,1394,0,0
-350,-370,0,0,0,0,0,0,0,0,0,-1,874,1394,0,0
-343,-370,0,0,0,0,0,0,0,0,0,-1,881,1394,0,0
-336,-370,0,0,0,0,0,0,0,0,0,-1,888,1394,0,0
-329,-370,0,0,0,0,0,0,0,0,0,-1,895,1394,0,0
-322,-370,0,0,0,0,0,0,0,0,0,-1,902,1394,0,0
-315,-370,0,0,0,0,0,0,0,0,0,-1,909,1394,0,0
-308,-370,0,0,0,0,0,0,0,0,0,-1,916,1394,0,0
-301,-370,0,0,0,0,0,0,0,0,0,-1,923,1394,0,0
-294,-370,0,0,0,0,0,0,0,0,0,-1,930,1394,0,0
-287,-370,0,0,0,0,0,0,0,0,0,-1,937,1394,0,0
-280,-370,0,0,0,0,0,0,0,0,0,-1,944,1394,0,0
-273,-370,0,0,0,0,0,0,0,0,0,-1,951,1394,0,0
-266,-370,0,0,0,0,0,0,0,0,0,-1,958,1394,0,0
-259,-370,0,0,0,0,0,0,0,0,0,-1,965,1394,0,0
-252,-370,0,0,0,0,0,0,0,0,0,-1,972,1394,0,0
-245,-370,0,0,0,0,0,0,0,0,0,-1,979,1394,0,0
-238,-370,0,0,0,0,0,0,0,0,0,-1,986,1394,0,0
-231,-370,0,0,0,0,0,0,0,0,0,-1,993,1394,0,0
-224,-370,0,0,0,0,0,0,0,0,0,-1,1000,1394,0,0
-217,-370,0,0,0,0,0,0,0,0,0,-1,1007,1394,0,0
-210,-370,0,0,0,0,0,0,0,0,0,-1,1014,1394,0,0
-203,-370,0,0,0,0,0,0,0,0,0,-1,1021,1394,0,0
-196,-370,0,0,0,0,0,0,0,0,0,-1,1028,1394,0,0
-189,-370,0,0,0,0,0,0,0,0,0,-1,1035,1394,0,0
-182,-370,0,0,0,0,0,0,0,0,0,-1,1042,1394,0,0
-175,-370,0,0,0,0,0,0,0,0,0,-1,1049,1394,0,0
-168,-370,0,0,0,0,0,0,0,0,0,-1,1056,1394,0,0
-161,-370,0,0,0,0,0,0,0,0,0,-1,1063,1394,0,0
-154,-370,0,0,0,0,0,0,0,0,0,-1,1070,1394,0,0
-147,-370,0,0,0,0,0,0,0,0,0,-1,1077,1394,0,0
-140,-370,0,0,0,0,0,0,0,0,0,-1,1084,1394,0,0
-133,-370,0,0,0,0,0,0,0,0,0,-1,1091,1394,0,0
-126,-370,0,0,0,0,0,0,0,0,0,-1,1098,1394,0,0
-119,-370,0,0,0,0,0,0,0,0,0,-1,1105,1394,0,0
-112,-370,0,0,0,0,0,0,0,0,0,-1,1112,1394,0,0
-105,-370,0,0,0,0,0,0,0,0,0,-1,1119,1394,0,0
-98,-370,0,0,0,0,0,0,0,0,0,-1,1126,1394,0,0
-91,-370,0,0,0,0,0,0,0,0,0,-1,1133,1394,0,0
-84,-370,0,0,0,0,0,0,0,0,0,-1,1140,1394,0,0
-77,-370,0,0,0,0,0,0,0,0,0,-1,1147,1394,0,0
-70,-370,0,0,0,0,0,0,0,0,0,-1,1154,1394,0,0
-63,-370,0,0,0,0,0,0,0,0,0,-1,1161,1394,0,0
-56,-370,0,0,0,0,0,0,0,0,0,-1,1168,1394,0,0
-49,-370,0,0,0,0,0,0,0,0,0,-1,1175,1394,0,0
-42,-370,0,0,0,0,0,0,0,0,0,-1,1182,1394,0,0
-35,-370,0,0,0,0,0,0,0,0,0,-1,1189,1394,0,0
-28,-370,0,0,0,0,0,0,0,0,0,-1,1196,1394,0,0
-21,-370,0,0,0,0,0,0,0,0,0,-1,1203,1394,0,0
-14,-370,0,0,0,0,0,0,0,0,0,-1,1210,1394,0,0
-7,-370,0,0,0,0,0,0,0,0,0,-1,1217,1394,0,0
0,-370,0,0,0,0,0,0,0,0,0,-1,1224,1394,0,0
7,-370,0,0,0,0,0,0,0,0,0,-1,1231,1394,0,0
14,-370,0,0,0,0,0,0,0,0,0,-1,1238,1394,0,0
21,-370,0,0,0,0,0,0,0,0,0,-1,1245,1394,0,0
28,-370,0,0,0,0,0,0,0,0,0,-1,1252,1394,0,0
35,-370,0,0,0,0,0,0,0,0,0,-1,1259,1394,0,0
42,-370,0,0,0,0,0,0,0,0,0,-1,1266,1394,0,0
49,-370,0,0,0,0,0,0,0,0,0,-1,1273,1394,0,0
56,-370,0,0,0,0,0,0,0,0,0,-1,1280,1394,0,0
63,-370,0,0,0,0,0,0,0,0,0,-1,1287,1394,0,0
70,-370,0,0,0,0,0,0,0,0,0,-1,1294,1394,0,0
77,-370,0,0,0,0,0,0,0,0,0,-1,1301,1394,0,0
84,-370,0,0,0,0,0,0,0,0,0,-1,1308,1394,0,0
91,-370,0,0,0,0,0,0,0,0,0,-1,1315,1394,0,0
98,-370,0,0,0,0,0,0,0,0,0,-1,1322,1394,0,0
105,-370,0,0,0,0,0,0,0,0,0,-1,1329,1394,0,0
112,-370,0,0,0,0,0,0,0,0,0,-1,1336,1394,0,0
119,-370,0,0,0,0,0,0,0,0,0,-1,1343,1394,0,0
126,-370,0,0,0,0,0,0,0,0,0,-1,1350,1394,0,0
133,-370,0,0,0,0,0,0,0,0,0,-1,1357,1394,0,0
140,-370,0,0,0,0,0,0,0,0,0,-1,1364,1394,0,0
147,-370,0,0,0,0,0,0,0,0,0,-1,1371,1394,0,0
154,-370,0,0,0,0,0,0,0,0,0,-1,1378,1394,0,0
161,-370,0,0,0,0,0,0,0,0,0,-1,1385,1394,0,0
168,-370,0,0,0,0,0,0,0,0,0,-1,1392,1394,0,0
175,-370,0,0,0,0,0,0,0,0,0,-1,1399,1394,0,0
182,-370,0,0,0,0,0,0,0,0,0,-1,1406,1394,0,0
189,-370,0,0,0,0,0,0,0,0,0,-1,1413,1394,0,0
196,-370,0,0,0,0,0,0,0,0,0,-1,1420,1394,0,0
203,-370,0,0,0,0,0,0,0,0,0,-1,1427,1394,0,0
210,-370,0,0,0,0,0,0,0,0,0,-1,1434,1394,0,0
217,-370,0,0,0,0,0,0,0,0,0,-1,1441,1394,0,0
224,-370,0,0,0,0,0,0,0,0,0,-1,1448,1394,0,0
231,-370,0,0,0,0,0,0,0,0,0,-1,1455,1394,0,0
238,-370,0,0,0,0,0,0,0,0,0,-1,1462,1394,0,0
245,-370,0,0,0,0,0,0,0,0,0,-1,1469,1394,0,0
252,-370,0,0,0,0,0,0,0,0,0,-1,1476,1394,0,0
259,-370,0,0,0,0,0,0,0,0,0,-1,1483,1394,0,0
266,-370,0,0,0,0,0,0,0,0,0,-1,1490,1394,0,0
273,-370,0,0,0,0,0,0,0,0,0,-1,1497,1394,0,0
280,-370,0,0,0,0,0,0,0,0,0,-1,1504,1394,0,0
287,-370,0,0,0,0,0,0,0,0,0,-1,1511,1394,0,0
294,-370,0,0,0,0,0,0,0,0,0,-1,1518,1394,0,0
301,-370,0,0,0,0,0,0,0,0,0,-1,1525,1394,0,0
308,-370,0,0,0,0,0,0,0,0,0,-1,1532,1394,0,0
315,-370,0,0,0,0,0,0,0,0,0,-1,1539,1394,0,0
322,-370,0,0,0,0,0,0,0,0,0,-1,1546,1394,0,0
329,-370,0,0,0,0,0,0,0,0,0,-1,1553,1394,0,0
336,-370,0,0,0,0,0,0,0,0,0,-1,1560,1394,0,0
343,-370,0,0,0,0,0,0,0,0,0,-1,1567,1394,0,0
350,-370,0,0,0,0,0,0,0,0,0,-1,1574,1394,0,0
357,-370,0,0,0,0,0,0,0,0,0,-1,1581,1394,0,0
364,-370,0,0,0,0,0,0,0,0,0,-1,1588,1394,0,0
371,-370,0,0,0,0,0,0,0,0,0,-1,1595,1394,0,0
378,-370,0,0,0,0,0,0,0,0,0,-1,1602,1394,0,0
385,-370,0,0,0,0,0,0,0,0,0,-1,1609,1394,0,0
392,-370,0,0,0,0,0,0,0,0,0,-1,1616,1394,0,0
399,-370,0,0,0,0,0,0,0,0,0,-1,1623,1394,0,0
406,-370,0,0,0,0,0,0,0,0,0,-1,1630,1394,0,0
413,-370,0,0,0,0,0,0,0,0,0,-1,1637,1394,0,0
420,-370,0,0,0,0,0,0,0,0,0,-1,1644,1394,0,0
427,-370,0,0,0,0,0,0,0,0,0,-1,1651,1394,0,0
434,-370,0,0,0,0,0,0,0,0,0,-1,1658,1394,0,0
441,-370,0,0,0,0,0,0,0,0,0,-1,1665,1394,0,0
448,-370,0,0,0,0,0,0,0,0,0,-1,1672,1394,0,0
455,-370,0,0,0,0,0,0,0,0,0,-1,1679,1394,0,0
462,-370,0,0,0,0,0,0,0,0,0,-1,1686,1394,0,0
469,-370,0,0,0,0,0,0,0,0,0,-1,1693,1394,0,0
476,-370,0,0,0,0,0,0,0,0,0,-1,1700,1394,0,0
483,-370,0,0,0,0,0,0,0,0,0,-1,1707,1394,0,0
490,-370,0,0,0,0,0,0,0,0,0,-1,1714,1394,0,0
497,-370,0,0,0,0,0,0,0,0,0,-1,1721,1394,0,0
504,-370,0,0,0,0,0,0,0,0,0,-1,1728,1394,0,0
511,-370,0,0,0,0,0,0,0,0,0,-1,1735,1394,0,0
518,-370,0,0,0,0,0,0,0,0,0,-1,1742,1394,0,0
525,-370,0,0,0,0,0,0,0,0,0,-1,1749,1394,0,0
532,-370,0,0,0,0,0,0,0,0,0,-1,1756,1394,0,0
539,-370,0,0,0,0,0,0,0,0,0,-1,1763,1394,0,0
546,-370,21.7084,0.258667,0,0,0,0,0,0,0,-1,1770,1394,21.7084,-0.258678
553,-370,20.9537,1.46118,0,0,0,0,0,0,0,-1,1777,1394,20.9537,-1.46115
560,-370,20.2441,2.65051,0,0,0,0,0,0,0,-1,1784,1394,20.2442,-2.65048
567,-370,19.6786,3.53052,0,0,0,0,0,0,0,-1,1791,1394,19.6786,-3.53051
574,-370,13.203,4.47705,0,0,0,0,0,0,0,-1,1798,1394,13.203,-4.47703
581,-370,14.5411,3.60901,0,0,0,0,0,0,0,-1,1805,1394,14.5411,-3.60901
588,-370,15.6494,2.86951,0,0,0,0,0,0,0,-1,1812,1394,15.6494,-2.86946
595,-370,14.8816,2.97034,0,0,0,0,0,0,0,-1,1819,1394,14.8816,-2.97028
602,-370,13.8323,4.88599,0,0,0,0,0,0,0,-1,1826,1394,13.8323,-4.88596
609,-370,14.3762,6.26929,0,0,0,0,0,0,0,-1,1833,1394,14.3763,-6.26928
616,-370,14.4376,6.76196,0,0,0,0,0,0,0,-1,1840,1394,14.4377,-6.76201
623,-370,14.9702,7.06042,0,0,0,0,0,0,0,-1,1847,1394,14.9702,-7.06037
630,-370,14.7692,7.31018,-0.0144031,-0.00365974,0.0165545,0.00837277,-0.0264356,0.942281,0.0209792,0.0401104,1854,1394,14.7692,-7.3102
637,-370,14.58,7.36731,-0.00955889,-0.0033153,0.0108658,0.00486829,-0.0177425,0.925283,0.0137416,0.0276083,1861,1394,14.58,-7.36732
644,-370,14.7092,7.08704,-0.00584612,-0.00254759,0.0066764,0.00268024,-0.0110739,0.906488,0.00841947,0.0112553,1868,1394,14.7093,-7.08709
651,-370,14.7288,6.8479,-0.00313133,-0.00241168,0.00345289,0.000700087,-0.00624309,0.837316,0.00441397,0.0110432,1875,1394,14.7288,-6.84795
658,-370,14.7242,6.65161,-0.00119321,-0.00184248,0.00185926,0.000369541,-0.00340523,0.698968,0.00240282,0.0121733,1882,1394,14.7243,-6.65164
665,-370,14.6887,6.43372,0.000293092,-0.001529,0.000739379,0.000555368,-0.00179128,0.340878,0.00141609,0.0127578,1889,1394,14.6887,-6.43376
672,-370,14.681,6.21082,0.00105398,-0.00144442,0.000239627,0.00107675,-0.0014672,0.094761,0.00147451,0.0134118,1896,1394,14.681,-6.21081
679,-370,14.6821,5.98877,0.0014995,-0.00179447,0.000195115,0.00151102,-0.00180598,0.0589592,0.00191759,0.0135335,1903,1394,14.6821,-5.98874
686,-370,14.6875,5.77209,0.000763211,-0.000322827,-0.000524854,0.000975401,-0.000535017,-0.384194,0.000884309,0.0138678,1910,1394,14.6876,-5.77204
693,-370,14.6913,5.53906,-0.00107764,0.00159493,-0.00179937,0.00249994,-0.00198265,-1.10479,0.00259376,0.0121148,1917,1394,14.6912,-5.53912
700,-370,14.7705,5.28711,-0.00235111,0.00469639,-0.00334416,0.00603064,-0.00368536,-1.19117,0.00566375,0.0182935,1924,1394,14.7705,-5.2871
707,-370,14.691,5.10425,-0.00549007,0.00977321,-0.00589124,0.0117826,-0.00749942,-1.2421,0.0112236,0.0286913,1931,1394,14.6911,-5.10422
714,-370,15.1267,4.2439,-0.0109675,0.0177428,-0.00946965,0.0205849,-0.0138096,-1.27923,0.0199857,0.0400158,1938,1394,15.1267,-4.24393
721,-370,15.6377,3.3667,0,0,0,0,0,0,0,-1,1945,1394,15.6377,-3.36667
728,-370,14.614,4.88318,0,0,0,0,0,0,0,-1,1952,1394,14.6141,-4.88324
735,-370,15.9586,5.35278,0,0,0,0,0,0,0,-1,1959,1394,15.9586,-5.35274
742,-370,12.6914,4.10376,0,0,0,0,0,0,0,-1,1966,1394,12.6914,-4.10374
749,-370,0,0,0,0,0,0,0,0,0,-1,1973,1394,0,0
756,-370,0,0,0,0,0,0,0,0,0,-1,1980,1394,0,0
763,-370,0,0,0,0,0,0,0,0,0,-1,1987,1394,0,0
770,-370,0,0,0,0,0,0,0,0,0,-1,1994,1394,0,0
777,-370,0,0,0,0,0,0,0,0,0,-1,2001,1394,0,0
784,-370,0,0,0,0,0,0,0,0,0,-1,2008,1394,0,0
791,-370,0,0,0,0,0,0,0,0,0,-1,2015,1394,0,0
798,-370,0,0,0,0,0,0,0,0,0,-1,2022,1394,0,0
805,-370,0,0,0,0,0,0,0,0,0,-1,2029,1394,0,0
812,-370,0,0,0,0,0,0,0,0,0,-1,2036,1394,0,0
-700,-377,0,0,0,0,0,0,0,0,0,-1,524,1401,0,0
-693,-377,0,0,0,0,0,0,0,0,0,-1,531,1401,0,0
-686,-377,0,0,0,0,0,0,0,0,0,-1,538,1401,0,0
-679,-377,0,0,0,0,0,0,0,0,0,-1,545,1401,0,0
-672,-377,0,0,0,0,0,0,0,0,0,-1,552,1401,0,0
-665,-377,0,0,0,0,0,0,0,0,0,-1,559,1401,0,0
-658,-377,0,0,0,0,0,0,0,0,0,-1,566,1401,0,0
-651,-377,0,0,0,0,0,0,0,0,0,-1,573,1401,0,0
-644,-377,0,0,0,0,0,0,0,0,0,-1,580,1401,0,0
-637,-377,0,0,0,0,0,0,0,0,0,-1,587,1401,0,0
-630,-377,0,0,0,0,0,0,0,0,0,-1,594,1401,0,0
-623,-377,0,0,0,0,0,0,0,0,0,-1,601,1401,0,0
-616,-377,-9.43915,-2.4906,0,0,0,0,0,0,0,-1,608,1401,-9.43915,2.49062
-609,-377,-7.2821,-1.35278,0,0,0,0,0,0,0,-1,615,1401,-7.28208,1.35279
-602,-377,-5.72253,0.430298,0,0,0,0,0,0,0,-1,622,1401,-5.72251,-0.430334
-595,-377,-5.17291,0.74292,0,0,0,0,0,0,0,-1,629,1401,-5.17289,-0.74293
-588,-377,-5.33911,1.99048,0,0,0,0,0,0,0,-1,636,1401,-5.33909,-1.99045
-581,-377,-5.47406,2.68176,0,0,0,0,0,0,0,-1,643,1401,-5.47404,-2.68175
-574,-377,-5.54254,3.03845,-0.0100475,-0.000806609,-0.00249874,-0.000174224,-0.0106799,-1.32292,0.00706256,0.0483329,650,1401,-5.54256,-3.03848
-567,-377,-5.56763,3.34485,-0.00792886,-0.000615007,-0.00290061,0.00039568,-0.00893955,-1.23551,0.00609588,0.0295685,657,1401,-5.56761,-3.34487
-560,-377,-5.71564,3.547,-0.0059906,-0.000398313,-0.00276592,0.000738577,-0.00712749,-1.18081,0.00501601,0.0221537,664,1401,-5.71567,-3.54698
-553,-377,-5.67969,3.77014,-0.00435098,-0.000335169,-0.00243135,0.000810198,-0.00549635,-1.13055,0.00396201,0.0131883,671,1401,-5.67968,-3.77017
-546,-377,-5.69891,4.06384,-0.0029992,-0.000352754,-0.0018803,0.000623251,-0.0039752,-1.09201,0.00288045,0.0163174,678,1401,-5.69894,-4.06382
-539,-377,-5.66412,4.3009,-0.00183336,-0.000407452,-0.00145422,0.000499179,-0.00273999,-1.01331,0.00201378,0.0202287,685,1401,-5.66412,-4.30095
-532,-377,-5.69482,4.53589,-0.000802583,-0.00047822,-0.000829429,0.000204735,-0.00148554,-0.881947,0.00106518,0.0191374,692,1401,-5.69482,-4.53591
-525,-377,-5.64661,4.78625,0.000134256,-0.00083047,-0.000190436,0.000170488,-0.000866701,-0.188007,0.000642218,0.0176734,699,1401,-5.6466,-4.7862
-518,-377,-5.67981,5.01794,0.000905434,-0.00135985,0.000273091,0.000937891,-0.0013923,0.118297,0.00135384,0.0117811,706,1401,-5.67983,-5.01789
-511,-377,-5.67621,5.28162,0.00151172,-0.00196729,0.000597487,0.00161147,-0.00206704,0.165428,0.00212922,0.010875,713,1401,-5.67622,-5.28157
-504,-377,-5.68408,5.55176,0.00159722,-0.00281336,0.0005421,0.00166287,-0.00287901,0.120519,0.00265341,0.0117484,720,1401,-5.68409,-5.55178
-497,-377,-5.48761,5.80188,0.00100739,-0.00374361,-0.000320065,0.00102885,-0.00376508,-0.0669646,0.00291418,0.0247414,727,1401,-5.48759,-5.80188
-490,-377,-5.21259,6.14417,0,0,0,0,0,0,0,-1,734,1401,-5.2126,-6.14413
-483,-377,-5.6524,5.07324,0,0,0,0,0,0,0,-1,741,1401,-5.6524,-5.07325
-476,-377,-6.11682,5.10535,0,0,0,0,0,0,0,-1,748,1401,-6.11681,-5.10537
-469,-377,-7.84436,5.07422,0,0,0,0,0,0,0,-1,755,1401,-7.84437,-5.07423
-462,-377,-9.59265,6.021,0,0,0,0,0,0,0,-1,762,1401,-9.59264,-6.02104
-455,-377,-10.957,7.35364,0,0,0,0,0,0,0,-1,769,1401,-10.957,-7.35362
-448,-377,-9.05334,0.877319,0,0,0,0,0,0,0,-1,776,1401,-9.05332,-0.877324
-441,-377,-10.5236,0.856934,0,0,0,0,0,0,0,-1,783,1401,-10.5236,-0.856874
-434,-377,-11.0984,0.996216,0,0,0,0,0,0,0,-1,790,1401,-11.0984,-0.996265
-427,-377,-11.1733,1.25732,0,0,0,0,0,0,0,-1,797,1401,-11.1733,-1.25732
-420,-377,0,0,0,0,0,0,0,0,0,-1,804,1401,0,0
-413,-377,0,0,0,0,0,0,0,0,0,-1,811,1401,0,0
-406,-377,0,0,0,0,0,0,0,0,0,-1,818,1401,0,0
-399,-377,0,0,0,0,0,0,0,0,0,-1,825,1401,0,0
-392,-377,0,0,0,0,0,0,0,0,0,-1,832,1401,0,0
-385,-377,0,0,0,0,0,0,0,0,0,-1,839,1401,0,0
-378,-377,0,0,0,0,0,0,0,0,0,-1,846,1401,0,0
-371,-377,0,0,0,0,0,0,0,0,0,-1,853,1401,0,0
-364,-377,0,0,0,0,0,0,0,0,0,-1,860,1401,0,0
-357,-377,0,0,0,0,0,0,0,0,0,-1,867,1401,0,0
-350,-377,0,0,0,0,0,0,0,0,0,-1,874,1401,0,0
-343,-377,0,0,0,0,0,0,0,0,0,-1,881,1401,0,0
-336,-377,0,0,0,0,0,0,0,0,0,-1,888,1401,0,0
-329,-377,0,0,0,0,0,0,0,0,0,-1,895,1401,0,0
-322,-377,0,0,0,0,0,0,0,0,0,-1,902,1401,0,0
-315,-377,0,0,0,0,0,0,0,0,0,-1,909,1401,0,0
-308,-377,0,0,0,0,0,0,0,0,0,-1,916,1401,0,0
-301,-377,0,0,0,0,0,0,0,0,0,-1,923,1401,0,0
-294,-377,0,0,0,0,0,0,0,0,0,-1,930,1401,0,0
-287,-377,0,0,0,0,0,0,0,0,0,-1,937,1401,0,0
-280,-377,0,0,0,0,0,0,0,0,0,-1,944,1401,0,0
-273,-377,0,0,0,0,0,0,0,0,0,-1,951,1401,0,0
-266,-377,0,0,0,0,0,0,0,0,0,-1,958,1401,0,0
-259,-377,0,0,0,0,0,0,0,0,0,-1,965,1401,0,0
-252,-377,0,0,0,0,0,0,0,0,0,-1,972,1401,0,0
-245,-377,0,0,0,0,0,0,0,0,0,-1,979,1401,0,0
-238,-377,0,0,0,0,0,0,0,0,0,-1,986,1401,0,0
-231,-377,0,0,0,0,0,0,0,0,0,-1,993,1401,0,0
-224,-377,0,0,0,0,0,0,0,0,0,-1,1000,1401,0,0
-217,-377,0,0,0,0,0,0,0,0,0,-1,1007,1401,0,0
-210,-377,0,0,0,0,0,0,0,0,0,-1,1014,1401,0,0
-203,-377,0,0,0,0,0,0,0,0,0,-1,1021,1401,0,0
-196,-377,0,0,0,0,0,0,0,0,0,-1,1028,1401,0,0
-189,-377,0,0,0,0,0,0,0,0,0,-1,1035,1401,0,0
-182,-377,0,0,0,0,0,0,0,0,0,-1,1042,1401,0,0
-175,-377,0,0,0,0,0,0,0,0,0,-1,1049,1401,0,0
-168,-377,0,0,0,0,0,0,0,0,0,-1,1056,1401,0,0
-161,-377,0,0,0,0,0,0,0,0,0,-1,1063,1401,0,0
-154,-377,0,0,0,0,0,0,0,0,0,-1,1070,1401,0,0
-147,-377,0,0,0,0,0,0,0,0,0,-1,1077,1401,0,0
-140,-377,0,0,0,0,0,0,0,0,0,-1,1084,1401,0,0
-133,-377,0,0,0,0,0,0,0,0,0,-1,1091,1401,0,0
-126,-377,0,0,0,0,0,0,0,0,0,-1,1098,1401,0,0
-119,-377,0,0,0,0,0,0,0,0,0,-1,1105,1401,0,0
-112,-377,0,0,0,0,0,0,0,0,0,-1,1112,1401,0,0
-105,-377,0,0,0,0,0,0,0,0,0,-1,1119,1401,0,0
-98,-377,0,0,0,0,0,0,0,0,0,-1,1126,1401,0,0
-91,-377,0,0,0,0,0,0,0,0,0,-1,1133,1401,0,0
-84,-377,0,0,0,0,0,0,0,0,0,-1,1140,1401,0,0
-77,-377,0,0,0,0,0,0,0,0,0,-1,1147,1401,0,0
-70,-377,0,0,0,0,0,0,0,0,0,-1,1154,1401,0,0
-63,-377,0,0,0,0,0,0,0,0,0,-1,1161,1401,0,0
-56,-377,0,0,0,0,0,0,0,0,0,-1,1168,1401,0,0
-49,-377,0,0,0,0,0,0,0,0,0,-1,1175,1401,0,0
-42,-377,0,0,0,0,0,0,0,0,0,-1,1182,1401,0,0
-35,-377,0,0,0,0,0,0,0,0,0,-1,1189,1401,0,0
-28,-377,0,0,0,0,0,0,0,0,0,-1,1196,1401,0,0
-21,-377,0,0,0,0,0,0,0,0,0,-1,1203,1401,0,0
-14,-377,0,0,0,0,0,0,0,0,0,-1,1210,1401,0,0
-7,-377,0,0,0,0,0,0,0,0,0,-1,1217,1401,0,0
0,-377,0,0,0,0,0,0,0,0,0,-1,1224,1401,0,0
7,-377,0,0,0,0,0,0,0,0,0,-1,1231,1401,0,0
14,-377,0,0,0,0,0,0,0,0,0,-1,1238,1401,0,0
21,-377,0,0,0,0,0,0,0,0,0,-1,1245,1401,0,0
28,-377,0,0,0,0,0,0,0,0,0,-1,1252,1401,0,0
35,-377,0,0,0,0,0,0,0,0,0,-1,1259,1401,0,0
42,-377,0,0,0,0,0,0,0,0,0,-1,1266,1401,0,0
49,-377,0,0,0,0,0,0,0,0,0,-1,1273,1401,0,0
56,-377,0,0,0,0,0,0,0,0,0,-1,1280,1401,0,0
63,-377,0,0,0,0,0,0,0,0,0,-1,1287,1401,0,0
70,-377,0,0,0,0,0,0,0,0,0,-1,1294,1401,0,0
77,-377,0,0,0,0,0,0,0,0,0,-1,1301,1401,0,0
84,-377,0,0,0,0,0,0,0,0,0,-1,1308,1401,0,0
91,-377,0,0,0,0,0,0,0,0,0,-1,1315,1401,0,0
98,-377,0,0,0,0,0,0,0,0,0,-1,1322,1401,0,0
105,-377,0,0,0,0,0,0,0,0,0,-1,1329,1401,0,0
112,-377,0,0,0,0,0,0,0,0,0,-1,1336,1401,0,0
119,-377,0,0,0,0,0,0,0,0,0,-1,1343,1401,0,0
126,-377,0,0,0,0,0,0,0,0,0,-1,1350,1401,0,0
133,-377,0,0,0,0,0,0,0,0,0,-1,1357,1401,0,0
140,-377,0,0,0,0,0,0,0,0,0,-1,1364,1401,0,0
147,-377,0,0,0,0,0,0,0,0,0,-1,1371,1401,0,0
154,-377,0,0,0,0,0,0,0,0,0,-1,1378,1401,0,0
161,-377,0,0,0,0,0,0,0,0,0,-1,1385,1401,0,0
168,-377,0,0,0,0,0,0,0,0,0,-1,1392,1401,0,0
175,-377,0,0,0,0,0,0,0,0,0,-1,1399,1401,0,0
182,-377,0,0,0,0,0,0,0,0,0,-1,1406,1401,0,0
189,-377,0,0,0,0,0,0,0,0,0,-1,1413,1401,0,0
196,-377,0,0,0,0,0,0,0,0,0,-1,1420,1401,0,0
203,-377,0,0,0,0,0,0,0,0,0,-1,1427,1401,0,0
210,-377,0,0,0,0,0,0,0,0,0,-1,1434,1401,0,0
217,-377,0,0,0,0,0,0,0,0,0,-1,1441,1401,0,0
224,-377,0,0,0,0,0,0,0,0,0,-1,1448,1401,0,0
231,-377,0,0,0,0,0,0,0,0,0,-1,1455,1401,0,0
238,-377,0,0,0,0,0,0,0,0,0,-1,1462,1401,0,0
245,-377,0,0,0,0,0,0,0,0,0,-1,1469,1401,0,0
252,-377,0,0,0,0,0,0,0,0,0,-1,1476,1401,0,0
259,-377,0,0,0,0,0,0,0,0,0,-1,1483,1401,0,0
266,-377,0,0,0,0,0,0,0,0,0,-1,1490,1401,0,0
273,-377,0,0,0,0,0,0,0,0,0,-1,1497,1401,0,0
280,-377,0,0,0,0,0,0,0,0,0,-1,1504,1401,0,0
287,-377,0,0,0,0,0,0,0,0,0,-1,1511,1401,0,0
294,-377,0,0,0,0,0,0,0,0,0,-1,1518,1401,0,0
301,-377,0,0,0,0,0,0,0,0,0,-1,1525,1401,0,0
308,-377,0,0,0,0,0,0,0,0,0,-1,1532,1401,0,0
315,-377,0,0,0,0,0,0,0,0,0,-1,1539,1401,0,0
322,-377,0,0,0,0,0,0,0,0,0,-1,1546,1401,0,0
329,-377,0,0,0,0,0,0,0,0,0,-1,1553,1401,0,0
336,-377,0,0,0,0,0,0,0,0,0,-1,1560,1401,0,0
343,-377,0,0,0,0,0,0,0,0,0,-1,1567,1401,0,0
350,-377,0,0,0,0,0,0,0,0,0,-1,1574,1401,0,0
357,-377,0,0,0,0,0,0,0,0,0,-1,1581,1401,0,0
364,-377,0,0,0,0,0,0,0,0,0,-1,1588,1401,0,0
371,-377,0,0,0,0,0,0,0,0,0,-1,1595,1401,0,0
378,-377,0,0,0,0,0,0,0,0,0,-1,1602,1401,0,0
385,-377,0,0,0,0,0,0,0,0,0,-1,1609,1401,0,0
392,-377,0,0,0,0,0,0,0,0,0,-1,1616,1401,0,0
399,-377,0,0,0,0,0,0,0,0,0,-1,1623,1401,0,0
406,-377,0,0,0,0,0,0,0,0,0,-1,1630,1401,0,0
413,-377,0,0,0,0,0,0,0,0,0,-1,1637,1401,0,0
420,-377,0,0,0,0,0,0,0,0,0,-1,1644,1401,0,0
427,-377,0,0,0,0,0,0,0,0,0,-1,1651,1401,0,0
434,-377,0,0,0,0,0,0,0,0,0,-1,1658,1401,0,0
441,-377,0,0,0,0,0,0,0,0,0,-1,1665,1401,0,0
448,-377,0,0,0,0,0,0,0,0,0,-1,1672,1401,0,0
455,-377,0,0,0,0,0,0,0,0,0,-1,1679,1401,0,0
462,-377,0,0,0,0,0,0,0,0,0,-1,1686,1401,0,0
469,-377,0,0,0,0,0,0,0,0,0,-1,1693,1401,0,0
476,-377,0,0,0,0,0,0,0,0,0,-1,1700,1401,0,0
483,-377,0,0,0,0,0,0,0,0,0,-1,1707,1401,0,0
490,-377,0,0,0,0,0,0,0,0,0,-1,1714,1401,0,0
497,-377,0,0,0,0,0,0,0,0,0,-1,1721,1401,0,0
504,-377,0,0,0,0,0,0,0,0,0,-1,1728,1401,0,0
511,-377,0,0,0,0,0,0,0,0,0,-1,1735,1401,0,0
518,-377,0,0,0,0,0,0,0,0,0,-1,1742,1401,0,0
525,-377,0,0,0,0,0,0,0,0,0,-1,1749,1401,0,0
532,-377,0,0,0,0,0,0,0,0,0,-1,1756,1401,0,0
539,-377,0,0,0,0,0,0,0,0,0,-1,1763,1401,0,0
546,-377,22.3663,0.877319,0,0,0,0,0,0,0,-1,1770,1401,22.3663,-0.877268
553,-377,21.2521,1.89001,0,0,0,0,0,0,0,-1,1777,1401,21.252,-1.89003
560,-377,20.1377,2.90283,0,0,0,0,0,0,0,-1,1784,1401,20.1378,-2.90279
567,-377,15.1582,2.81689,0,0,0,0,0,0,0,-1,1791,1401,15.1583,-2.81688
574,-377,12.252,3.49695,0,0,0,0,0,0,0,-1,1798,1401,12.2519,-3.49692
581,-377,13.7461,2.83679,0,0,0,0,0,0,0,-1,1805,1401,13.7461,-2.8368
588,-377,15.2402,2.17664,0,0,0,0,0,0,0,-1,1812,1401,15.2402,-2.17669
595,-377,13.0044,2.7074,0,0,0,0,0,0,0,-1,1819,1401,13.0044,-2.70745
602,-377,13.0537,3.23193,0,0,0,0,0,0,0,-1,1826,1401,13.0537,-3.23191
609,-377,15.0223,4.76135,0,0,0,0,0,0,0,-1,1833,1401,15.0224,-4.76129
616,-377,14.1842,5.78992,0,0,0,0,0,0,0,-1,1840,1401,14.1842,-5.78987
623,-377,14.5787,7.93848,0,0,0,0,0,0,0,-1,1847,1401,14.5788,-7.93846
630,-377,14.4413,7.6062,-0.0143592,-0.00571114,0.0143857,0.00498635,-0.0250566,0.931391,0.0185908,0.040611,1854,1401,14.4413,-7.60618
637,-377,14.427,7.35083,-0.00913671,-0.00431389,0.00911861,0.00270676,-0.0161574,0.914664,0.011778,0.0151503,1861,1401,14.427,-7.35085
644,-377,14.4828,7.09753,-0.00536224,-0.00297807,0.00547848,0.00143652,-0.00977683,0.892525,0.00704571,0.0105785,1868,1401,14.4827,-7.09759
651,-377,14.5016,6.85071,-0.00258396,-0.00232398,0.00275748,0.000306566,-0.00521451,0.808951,0.0035829,0.0126848,1875,1401,14.5016,-6.85068
658,-377,14.4857,6.63977,-0.000702871,-0.00168422,0.00146564,0.000352049,-0.00273914,0.62387,0.00195404,0.0147698,1882,1401,14.4857,-6.63975
665,-377,14.4912,6.40662,0.000570529,-0.00160318,0.000747668,0.000802864,-0.00183552,0.301286,0.00156168,0.0165732,1889,1401,14.4912,-6.40665
672,-377,14.5006,6.19141,0.00120425,-0.00177772,0.000518403,0.0012918,-0.00186527,0.167309,0.00183273,0.0161424,1896,1401,14.5006,-6.19144
679,-377,14.4529,6.00952,0.0016652,-0.00240975,0.00062118,0.00175779,-0.00250234,0.147963,0.00247208,0.0165695,1903,1401,14.4528,-6.00951
686,-377,14.4462,5.76099,0.00095499,-0.00150774,0.00018204,0.000968374,-0.00152113,0.0733863,0.00144908,0.0145349,1910,1401,14.4461,-5.76101
693,-377,14.4913,5.53259,-0.000997585,-0.000190376,-0.000854726,0.000351246,-0.00153921,-1.00598,0.00116107,0.0124092,1917,1401,14.4913,-5.53253
700,-377,14.4692,5.32373,-0.0027657,0.002236,-0.00235495,0.00317027,-0.00369996,-1.19312,0.00397046,0.0246236,1924,1401,14.4693,-5.32376
707,-377,14.3743,5.05896,-0.00663129,0.00670789,-0.00487154,0.00829755,-0.00822096,-1.25537,0.009537,0.0389661,1931,1401,14.3742,-5.05894
714,-377,14.5533,4.3042,-0.0135609,0.0143468,-0.00864086,0.0168056,-0.0160196,-1.29357,0.0189535,0.0448667,1938,1401,14.5533,-4.30426
721,-377,14.84,3.60156,0,0,0,0,0,0,0,-1,1945,1401,14.84,-3.60155
728,-377,14.5396,2.79724,0,0,0,0,0,0,0,-1,1952,1401,14.5396,-2.7972
735,-377,16.2814,5.49353,0,0,0,0,0,0,0,-1,1959,1401,16.2814,-5.49358
742,-377,0,0,0,0,0,0,0,0,0,-1,1966,1401,0,0
749,-377,0,0,0,0,0,0,0,0,0,-1,1973,1401,0,0
756,-377,0,0,0,0,0,0,0,0,0,-1,1980,1401,0,0
763,-377,0,0,0,0,0,0,0,0,0,-1,1987,1401,0,0
770,-377,0,0,0,0,0,0,0,0,0,-1,1994,1401,0,0
777,-377,0,0,0,0,0,0,0,0,0,-1,2001,1401,0,0
784,-377,0,0,0,0,0,0,0,0,0,-1,2008,1401,0,0
791,-377,0,0,0,0,0,0,0,0,0,-1,2015,1401,0,0
798,-377,0,0,0,0,0,0,0,0,0,-1,2022,1401,0,0
805,-377,0,0,0,0,0,0,0,0,0,-1,2029,1401,0,0
812,-377,0,0,0,0,0,0,0,0,0,-1,2036,1401,0,0
-700,-384,0,0,0,0,0,0,0,0,0,-1,524,1408,0,0
-693,-384,0,0,0,0,0,0,0,0,0,-1,531,1408,0,0
-686,-384,0,0,0,0,0,0,0,0,0,-1,538,1408,0,0
-679,-384,0,0,0,0,0,0,0,0,0,-1,545,1408,0,0
-672,-384,0,0,0,0,0,0,0,0,0,-1,552,1408,0,0
-665,-384,0,0,0,0,0,0,0,0,0,-1,559,1408,0,0
-658,-384,0,0,0,0,0,0,0,0,0,-1,566,1408,0,0
-651,-384,0,0,0,0,0,0,0,0,0,-1,573,1408,0,0
-644,-384,0,0,0,0,0,0,0,0,0,-1,580,1408,0,0
-637,-384,0,0,0,0,0,0,0,0,0,-1,587,1408,0,0
-630,-384,0,0,0,0,0,0,0,0,0,-1,594,1408,0,0
-623,-384,0,0,0,0,0,0,0,0,0,-1,601,1408,0,0
-616,-384,-10.019,-3.36646,0,0,0,0,0,0,0,-1,608,1408,-10.019,3.36648
-609,-384,-7.72357,-2.3418,0,0,0,0,0,0,0,-1,615,1408,-7.72358,2.34182
-602,-384,-5.59833,-1.04639,0,0,0,0,0,0,0,-1,622,1408,-5.59835,1.04638
-595,-384,-4.96649,-0.175171,0,0,0,0,0,0,0,-1,629,1408,-4.96649,0.175129
-588,-384,-4.84338,0.629761,0,0,0,0,0,0,0,-1,636,1408,-4.84336,-0.629786
-581,-384,-4.83069,1.54089,0,0,0,0,0,0,0,-1,643,1408,-4.83069,-1.54089
-574,-384,-5.32178,2.9718,0,0,0,0,0,0,0,-1,650,1408,-5.32175,-2.97176
-567,-384,-5.35864,3.33118,-0.00826502,-0.000220899,-0.00334919,0.000990971,-0.00947689,-1.22361,0.00667282,0.0398024,657,1408,-5.35865,-3.33116
-560,-384,-5.36908,3.53455,-0.00636001,-0.000179386,-0.00312633,0.00112621,-0.00766561,-1.1752,0.00552421,0.0280499,664,1408,-5.36908,-3.53458
-553,-384,-5.42065,3.77124,-0.00466206,-0.000230214,-0.00271078,0.0010551,-0.00594738,-1.12804,0.00435939,0.0196436,671,1408,-5.42064,-3.77123
-546,-384,-5.43109,4.06897,-0.00318487,-0.000286032,-0.00211383,0.000827571,-0.00429848,-1.08593,0.00317764,0.0146944,678,1408,-5.43109,-4.06894
-539,-384,-5.45148,4.30188,-0.00186399,-0.000325069,-0.00164713,0.000723461,-0.00291252,-1.00391,0.00222244,0.0157119,685,1408,-5.45145,-4.30188
-532,-384,-5.4187,4.51135,-0.000626453,-0.000352675,-0.00101666,0.000536266,-0.00151539,-0.852319,0.00122867,0.0210637,692,1408,-5.4187,-4.51138
-525,-384,-5.38635,4.78271,0.000566109,-0.000622766,-0.000403475,0.000690106,-0.000746763,-0.298161,0.000829791,0.0199101,699,1408,-5.38632,-4.78265
-518,-384,-5.42737,5.02454,0.0016453,-0.00106156,2.13553e-05,0.00164547,-0.00106173,0.00788864,0.00157507,0.0118202,706,1408,-5.42735,-5.02453
-511,-384,-5.44604,5.29724,0.00264195,-0.00151602,0.000327347,0.00266756,-0.00154164,0.0780866,0.00245899,0.0098555,713,1408,-5.44602,-5.29722
-504,-384,-5.43628,5.56165,0.00311443,-0.00225118,0.000172249,0.00311995,-0.0022567,0.0320585,0.00311752,0.0111065,720,1408,-5.4363,-5.56163
-497,-384,-5.4151,5.82153,0.00299931,-0.00305382,-0.000977956,0.00315339,-0.0032079,-0.156267,0.00367274,0.0150234,727,1408,-5.4151,-5.82154
-490,-384,-5.28461,6.0824,0.00300582,-0.00491562,-0.00334235,0.00422763,-0.00613743,-0.350463,0.00601803,0.0372813,734,1408,-5.2846,-6.08244
-483,-384,-5.06927,6.38916,0,0,0,0,0,0,0,-1,741,1408,-5.06927,-6.38918
-476,-384,-6.02734,5.67761,0,0,0,0,0,0,0,-1,748,1408,-6.02736,-5.6776
-469,-384,-6.84015,5.88599,0,0,0,0,0,0,0,-1,755,1408,-6.84013,-5.88601
-462,-384,-7.52692,6.00439,0,0,0,0,0,0,0,-1,762,1408,-7.52693,-6.00435
-455,-384,-8.48425,6.66223,0,0,0,0,0,0,0,-1,769,1408,-8.48426,-6.66229
-448,-384,-9.35529,7.19226,0,0,0,0,0,0,0,-1,776,1408,-9.35531,-7.19226
-441,-384,-10.4697,1.79004,0,0,0,0,0,0,0,-1,783,1408,-10.4697,-1.79003
-434,-384,-10.6449,0.552246,0,0,0,0,0,0,0,-1,790,1408,-10.6449,-0.552216
-427,-384,-10.968,1.10583,0,0,0,0,0,0,0,-1,797,1408,-10.968,-1.10588
-420,-384,-12.5607,4.54858,0,0,0,0,0,0,0,-1,804,1408,-12.5607,-4.54859
-413,-384,0,0,0,0,0,0,0,0,0,-1,811,1408,0,0
-406,-384,0,0,0,0,0,0,0,0,0,-1,818,1408,0,0
-399,-384,0,0,0,0,0,0,0,0,0,-1,825,1408,0,0
-392,-384,0,0,0,0,0,0,0,0,0,-1,832,1408,0,0
-385,-384,0,0,0,0,0,0,0,0,0,-1,839,1408,0,0
-378,-384,0,0,0,0,0,0,0,0,0,-1,846,1408,0,0
-371,-384,0,0,0,0,0,0,0,0,0,-1,853,1408,0,0
-364,-384,0,0,0,0,0,0,0,0,0,-1,860,1408,0,0
-357,-384,0,0,0,0,0,0,0,0,0,-1,867,1408,0,0
-350,-384,0,0,0,0,0,0,0,0,0,-1,874,1408,0,0
-343,-384,0,0,0,0,0,0,0,0,0,-1,881,1408,0,0
-336,-384,0,0,0,0,0,0,0,0,0,-1,888,1408,0,0
-329,-384,0,0,0,0,0,0,0,0,0,-1,895,1408,0,0
-322,-384,0,0,0,0,0,0,0,0,0,-1,902,1408,0,0
-315,-384,0,0,0,0,0,0,0,0,0,-1,909,1408,0,0
-308,-384,0,0,0,0,0,0,0,0,0,-1,916,1408,0,0
-301,-384,0,0,0,0,0,0,0,0,0,-1,923,1408,0,0
-294,-384,0,0,0,0,0,0,0,0,0,-1,930,1408,0,0
-287,-384,0,0,0,0,0,0,0,0,0,-1,937,1408,0,0
-280,-384,0,0,0,0,0,0,0,0,0,-1,944,1408,0,0
-273,-384,0,0,0,0,0,0,0,0,0,-1,951,1408,0,0
-266,-384,0,0,0,0,0,0,0,0,0,-1,958,1408,0,0
-259,-384,0,0,0,0,0,0,0,0,0,-1,965,1408,0,0
-252,-384,0,0,0,0,0,0,0,0,0,-1,972,1408,0,0
-245,-384,0,0,0,0,0,0,0,0,0,-1,979,1408,0,0
-238,-384,0,0,0,0,0,0,0,0,0,-1,986,1408,0,0
-231,-384,0,0,0,0,0,0,0,0,0,-1,993,1408,0,0
-224,-384,0,0,0,0,0,0,0,0,0,-1,1000,1408,0,0
-217,-384,0,0,0,0,0,0,0,0,0,-1,1007,1408,0,0
-210,-384,0,0,0,0,0,0,0,0,0,-1,1014,1408,0,0
-203,-384,0,0,0,0,0,0,0,0,0,-1,1021,1408,0,0
-196,-384,0,0,0,0,0,0,0,0,0,-1,1028,1408,0,0
-189,-384,0,0,0,0,0,0,0,0,0,-1,1035,1408,0,0
-182,-384,0,0,0,0,0,0,0,0,0,-1,1042,1408,0,0
-175,-384,0,0,0,0,0,0,0,0,0,-1,1049,1408,0,0
-168,-384,0,0,0,0,0,0,0,0,0,-1,1056,1408,0,0
-161,-384,0,0,0,0,0,0,0,0,0,-1,1063,1408,0,0
-154,-384,0,0,0,0,0,0,0,0,0,-1,1070,1408,0,0
-147,-384,0,0,0,0,0,0,0,0,0,-1,1077,1408,0,0
-140,-384,0,0,0,0,0,0,0,0,0,-1,1084,1408,0,0
-133,-384,0,0,0,0,0,0,0,0,0,-1,1091,1408,0,0
-126,-384,0,0,0,0,0,0,0,0,0,-1,1098,1408,0,0
-119,-384,0,0,0,0,0,0,0,0,0,-1,1105,1408,0,0
-112,-384,0,0,0,0,0,0,0,0,0,-1,1112,1408,0,0
-105,-384,0,0,0,0,0,0,0,0,0,-1,1119,1408,0,0
-98,-384,0,0,0,0,0,0,0,0,0,-1,1126,1408,0,0
-91,-384,0,0,0,0,0,0,0,0,0,-1,1133,1408,0,0
-84,-384,0,0,0,0,0,0,0,0,0,-1,1140,1408,0,0
-77,-384,0,0,0,0,0,0,0,0,0,-1,1147,1408,0,0
-70,-384,0,0,0,0,0,0,0,0,0,-1,1154,1408,0,0
-63,-384,0,0,0,0,0,0,0,0,0,-1,1161,1408,0,0
-56,-384,0,0,0,0,0,0,0,0,0,-1,1168,1408,0,0
-49,-384,0,0,0,0,0,0,0,0,0,-1,1175,1408,0,0
-42,-384,0,0,0,0,0,0,0,0,0,-1,1182,1408,0,0
-35,-384,0,0,0,0,0,0,0,0,0,-1,1189,1408,0,0
-28,-384,0,0,0,0,0,0,0,0,0,-1,1196,1408,0,0
-21,-384,0,0,0,0,0,0,0,0,0,-1,1203,1408,0,0
-14,-384,0,0,0,0,0,0,0,0,0,-1,1210,1408,0,0
-7,-384,0,0,0,0,0,0,0,0,0,-1,1217,1408,0,0
0,-384,0,0,0,0,0,0,0,0,0,-1,1224,1408,0,0
7,-384,0,0,0,0,0,0,0,0,0,-1,1231,1408,0,0
14,-384,0,0,0,0,0,0,0,0,0,-1,1238,1408,0,0
21,-384,0,0,0,0,0,0,0,0,0,-1,1245,1408,0,0
28,-384,0,0,0,0,0,0,0,0,0,-1,1252,1408,0,0
35,-384,0,0,0,0,0,0,0,0,0,-1,1259,1408,0,0
42,-384,0,0,0,0,0,0,0,0,0,-1,1266,1408,0,0
49,-384,0,0,0,0,0,0,0,0,0,-1,1273,1408,0,0
56,-384,0,0,0,0,0,0,0,0,0,-1,1280,1408,0,0
63,-384,0,0,0,0,0,0,0,0,0,-1,1287,1408,0,0
70,-384,0,0,0,0,0,0,0,0,0,-1,1294,1408,0,0
77,-384,0,0,0,0,0,0,0,0,0,-1,1301,1408,0,0
84,-384,0,0,0,0,0,0,0,0,0,-1,1308,1408,0,0
91,-384,0,0,0,0,0,0,0,0,0,-1,1315,1408,0,0
98,-384,0,0,0,0,0,0,0,0,0,-1,1322,1408,0,0
105,-384,0,0,0,0,0,0,0,0,0,-1,1329,1408,0,0
112,-384,0,0,0,0,0,0,0,0,0,-1,1336,1408,0,0
119,-384,0,0,0,0,0,0,0,0,0,-1,1343,1408,0,0
126,-384,0,0,0,0,0,0,0,0,0,-1,1350,1408,0,0
133,-384,0,0,0,0,0,0,0,0,0,-1,1357,1408,0,0
140,-384,0,0,0,0,0,0,0,0,0,-1,1364,1408,0,0
147,-384,0,0,0,0,0,0,0,0,0,-1,1371,1408,0,0
154,-384,0,0,0,0,0,0,0,0,0,-1,1378,1408,0,0
161,-384,0,0,0,0,0,0,0,0,0,-1,1385,1408,0,0
168,-384,0,0,0,0,0,0,0,0,0,-1,1392,1408,0,0
175,-384,0,0,0,0,0,0,0,0,0,-1,1399,1408,0,0
182,-384,0,0,0,0,0,0,0,0,0,-1,1406,1408,0,0
189,-384,0,0,0,0,0,0,0,0,0,-1,1413,1408,0,0
196,-384,0,0,0,0,0,0,0,0,0,-1,1420,1408,0,0
203,-384,0,0,0,0,0,0,0,0,0,-1,1427,1408,0,0
210,-384,0,0,0,0,0,0,0,0,0,-1,1434,1408,0,0
217,-384,0,0,0,0,0,0,0,0,0,-1,1441,1408,0,0
224,-384,0,0,0,0,0,0,0,0,0,-1,1448,1408,0,0
231,-384,0,0,0,0,0,0,0,0,0,-1,1455,1408,0,0
238,-384,0,0,0,0,0,0,0,0,0,-1,1462,1408,0,0
245,-384,0,0,0,0,0,0,0,0,0,-1,1469,1408,0,0
252,-384,0,0,0,0,0,0,0,0,0,-1,1476,1408,0,0
259,-384,0,0,0,0,0,0,0,0,0,-1,1483,1408,0,0
266,-384,0,0,0,0,0,0,0,0,0,-1,1490,1408,0,0
273,-384,0,0,0,0,0,0,0,0,0,-1,1497,1408,0,0
280,-384,0,0,0,0,0,0,0,0,0,-1,1504,1408,0,0
287,-384,0,0,0,0,0,0,0,0,0,-1,1511,1408,0,0
294,-384,0,0,0,0,0,0,0,0,0,-1,1518,1408,0,0
301,-384,0,0,0,0,0,0,0,0,0,-1,1525,1408,0,0
308,-384,0,0,0,0,0,0,0,0,0,-1,1532,1408,0,0
315,-384,0,0,0,0,0,0,0,0,0,-1,1539,1408,0,0
322,-384,0,0,0,0,0,0,0,0,0,-1,1546,1408,0,0
329,-384,0,0,0,0,0,0,0,0,0,-1,1553,1408,0,0
336,-384,0,0,0,0,0,0,0,0,0,-1,1560,1408,0,0
343,-384,0,0,0,0,0,0,0,0,0,-1,1567,1408,0,0
350,-384,0,0,0,0,0,0,0,0,0,-1,1574,1408,0,0
357,-384,0,0,0,0,0,0,0,0,0,-1,1581,1408,0,0
364,-384,0,0,0,0,0,0,0,0,0,-1,1588,1408,0,0
371,-384,0,0,0,0,0,0,0,0,0,-1,1595,1408,0,0
378,-384,0,0,0,0,0,0,0,0,0,-1,1602,1408,0,0
385,-384,0,0,0,0,0,0,0,0,0,-1,1609,1408,0,0
392,-384,0,0,0,0,0,0,0,0,0,-1,1616,1408,0,0
399,-384,0,0,0,0,0,0,0,0,0,-1,1623,1408,0,0
406,-384,0,0,0,0,0,0,0,0,0,-1,1630,1408,0,0
413,-384,0,0,0,0,0,0,0,0,0,-1,1637,1408,0,0
420,-384,0,0,0,0,0,0,0,0,0,-1,1644,1408,0,0
427,-384,0,0,0,0,0,0,0,0,0,-1,1651,1408,0,0
434,-384,0,0,0,0,0,0,0,0,0,-1,1658,1408,0,0
441,-384,0,0,0,0,0,0,0,0,0,-1,1665,1408,0,0
448,-384,0,0,0,0,0,0,0,0,0,-1,1672,1408,0,0
455,-384,0,0,0,0,0,0,0,0,0,-1,1679,1408,0,0
462,-384,0,0,0,0,0,0,0,0,0,-1,1686,1408,0,0
469,-384,0,0,0,0,0,0,0,0,0,-1,1693,1408,0,0
476,-384,0,0,0,0,0,0,0,0,0,-1,1700,1408,0,0
483,-384,0,0,0,0,0,0,0,0,0,-1,1707,1408,0,0
490,-384,0,0,0,0,0,0,0,0,0,-1,1714,1408,0,0
497,-384,0,0,0,0,0,0,0,0,0,-1,1721,1408,0,0
504,-384,0,0,0,0,0,0,0,0,0,-1,1728,1408,0,0
511,-384,0,0,0,0,0,0,0,0,0,-1,1735,1408,0,0
518,-384,0,0,0,0,0,0,0,0,0,-1,1742,1408,0,0
525,-384,0,0,0,0,0,0,0,0,0,-1,1749,1408,0,0
532,-384,0,0,0,0,0,0,0,0,0,-1,1756,1408,0,0
539,-384,23.4208,1.19556,0,0,0,0,0,0,0,-1,1763,1408,23.4207,-1.19561
546,-384,22.3715,1.52161,0,0,0,0,0,0,0,-1,1770,1408,22.3715,-1.52159
553,-384,21.0801,2.1532,0,0,0,0,0,0,0,-1,1777,1408,21.0801,-2.15317
560,-384,19.7887,2.78479,0,0,0,0,0,0,0,-1,1784,1408,19.7887,-2.78475
567,-384,19.0348,2.75549,0,0,0,0,0,0,0,-1,1791,1408,19.0348,-2.75544
574,-384,11.5477,2.34216,0,0,0,0,0,0,0,-1,1798,1408,11.5477,-2.34214
581,-384,13.024,2.0072,0,0,0,0,0,0,0,-1,1805,1408,13.024,-2.00726
588,-384,14.5002,1.67236,0,0,0,0,0,0,0,-1,1812,1408,14.5002,-1.67238
595,-384,17.2017,4.63574,0,0,0,0,0,0,0,-1,1819,1408,17.2016,-4.63576
602,-384,14.5807,4.99976,0,0,0,0,0,0,0,-1,1826,1408,14.5806,-4.99972
609,-384,14.158,5.49475,0,0,0,0,0,0,0,-1,1833,1408,14.158,-5.49474
616,-384,14.5609,7.48218,0,0,0,0,0,0,0,-1,1840,1408,14.5609,-7.48223
623,-384,14.1353,7.86194,0,0,0,0,0,0,0,-1,1847,1408,14.1353,-7.86197
630,-384,14.2623,7.54016,-0.0121328,-0.00587134,0.0111851,0.00261296,-0.0206171,0.921856,0.0146933,0.0242196,1854,1408,14.2623,-7.54012
637,-384,14.2253,7.35315,-0.00771576,-0.00422183,0.00709939,0.00134238,-0.01328,0.906037,0.009333,0.0155196,1861,1408,14.2254,-7.35313
644,-384,14.2117,7.12122,-0.00455571,-0.00288552,0.00433204,0.000691189,-0.00813241,0.880616,0.00566608,0.0148642,1868,1408,14.2117,-7.12117
651,-384,14.2471,6.86316,-0.00223014,-0.00211115,0.00228562,0.00011575,-0.00445704,0.79841,0.00301069,0.0153555,1875,1408,14.247,-6.86322
658,-384,14.2563,6.65369,-0.000730384,-0.00157049,0.00131243,0.000227576,-0.00252845,0.630521,0.00176638,0.0159385,1882,1408,14.2563,-6.65365
665,-384,14.264,6.43799,0.000167831,-0.00161181,0.000929561,0.000564814,-0.00200879,0.403619,0.00156189,0.0161295,1889,1408,14.264,-6.43802
672,-384,14.2797,6.2168,0.000478863,-0.00194168,0.000947602,0.000805701,-0.00226852,0.332134,0.00184066,0.013705,1896,1408,14.2797,-6.21685
679,-384,14.2476,5.9928,0.000728668,-0.00275436,0.00120807,0.00110666,-0.00313235,0.30324,0.00253883,0.013812,1903,1408,14.2476,-5.99276
686,-384,14.2305,5.7334,-2.34103e-05,-0.00233767,0.00102476,0.000365124,-0.0027262,0.362402,0.0019506,0.0119337,1910,1408,14.2304,-5.73341
693,-384,14.2817,5.52368,-0.00204292,-0.00159862,0.000225895,-0.00150394,-0.00213759,1.17392,0.00126778,0.0179294,1917,1408,14.2817,-5.52363
700,-384,14.1433,5.58679,-0.00410835,7.61314e-07,-0.00120316,0.000327129,-0.00443472,-1.30591,0.00307133,0.0412944,1924,1408,14.1433,-5.58685
707,-384,14.1437,5.65564,0,0,0,0,0,0,0,-1,1931,1408,14.1436,-5.65564
714,-384,14.1552,4.13806,0,0,0,0,0,0,0,-1,1938,1408,14.1552,-4.13809
721,-384,13.8843,2.8717,0,0,0,0,0,0,0,-1,1945,1408,13.8843,-2.87171
728,-384,15.4409,6.25745,0,0,0,0,0,0,0,-1,1952,1408,15.4409,-6.2574
735,-384,16.7598,6.71289,0,0,0,0,0,0,0,-1,1959,1408,16.7598,-6.71287
742,-384,0,0,0,0,0,0,0,0,0,-1,1966,1408,0,0
749,-384,0,0,0,0,0,0,0,0,0,-1,1973,1408,0,0
756,-384,0,0,0,0,0,0,0,0,0,-1,1980,1408,0,0
763,-384,0,0,0,0,0,0,0,0,0,-1,1987,1408,0,0
770,-384,0,0,0,0,0,0,0,0,0,-1,1994,1408,0,0
777,-384,0,0,0,0,0,0,0,0,0,-1,2001,1408,0,0
784,-384,0,0,0,0,0,0,0,0,0,-1,2008,1408,0,0
791,-384,0,0,0,0,0,0,0,0,0,-1,2015,1408,0,0
798,-384,0,0,0,0,0,0,0,0,0,-1,2022,1408,0,0
805,-384,0,0,0,0,0,0,0,0,0,-1,2029,1408,0,0
812,-384,0,0,0,0,0,0,0,0,0,-1,2036,1408,0,0
-700,-391,0,0,0,0,0,0,0,0,0,-1,524,1415,0,0
-693,-391,0,0,0,0,0,0,0,0,0,-1,531,1415,0,0
-686,-391,0,0,0,0,0,0,0,0,0,-1,538,1415,0,0
-679,-391,0,0,0,0,0,0,0,0,0,-1,545,1415,0,0
-672,-391,0,0,0,0,0,0,0,0,0,-1,552,1415,0,0
-665,-391,0,0,0,0,0,0,0,0,0,-1,559,1415,0,0
-658,-391,0,0,0,0,0,0,0,0,0,-1,566,1415,0,0
-651,-391,0,0,0,0,0,0,0,0,0,-1,573,1415,0,0
-644,-391,0,0,0,0,0,0,0,0,0,-1,580,1415,0,0
-637,-391,0,0,0,0,0,0,0,0,0,-1,587,1415,0,0
-630,-391,0,0,0,0,0,0,0,0,0,-1,594,1415,0,0
-623,-391,0,0,0,0,0,0,0,0,0,-1,601,1415,0,0
-616,-391,0,0,0,0,0,0,0,0,0,-1,608,1415,0,0
-609,-391,-7.71753,-3.69763,0,0,0,0,0,0,0,-1,615,1415,-7.71751,3.69759
-602,-391,-3.36749,-2.07458,0,0,0,0,0,0,0,-1,622,1415,-3.36751,2.07453
-595,-391,-4.64984,-1.29736,0,0,0,0,0,0,0,-1,629,1415,-4.64985,1.29742
-588,-391,-4.32947,-0.476685,0,0,0,0,0,0,0,-1,636,1415,-4.32944,0.476715
-581,-391,-5.31158,5.48718,0,0,0,0,0,0,0,-1,643,1415,-5.31156,-5.48714
-574,-391,-4.77521,3.46948,0,0,0,0,0,0,0,-1,650,1415,-4.77519,-3.46947
-567,-391,-4.92035,3.58313,-0.00847855,0.000358103,-0.00362185,0.00165286,-0.00977332,-1.22747,0.00713064,0.0453449,657,1415,-4.92036,-3.58309
-560,-391,-5.03888,3.70422,-0.00667786,0.000168558,-0.00334239,0.00152969,-0.00803899,-1.18407,0.0059353,0.0341554,664,1415,-5.03887,-3.70421
-553,-391,-5.13519,3.75415,-0.00503012,-3.46401e-05,-0.00285713,0.0012626,-0.00632736,-1.14459,0.00469603,0.0259429,671,1415,-5.13522,-3.75421
-546,-391,-5.17773,4.0376,-0.00349484,-0.00014559,-0.00224472,0.00098034,-0.00462077,-1.10588,0.00345399,0.0125861,678,1415,-5.17773,-4.03754
-539,-391,-5.14252,4.29883,-0.00209231,-0.000196585,-0.0017632,0.000857383,-0.00314628,-1.03203,0.00243418,0.0143315,685,1415,-5.14251,-4.2988
-532,-391,-5.0943,4.5614,-0.000747797,-0.000204682,-0.0011486,0.000704021,-0.0016565,-0.901479,0.00139934,0.0235365,692,1415,-5.09433,-4.56135
-525,-391,-5.07501,4.82446,0.000574486,-0.000416297,-0.000580909,0.000842552,-0.000684363,-0.432343,0.000883141,0.0222978,699,1415,-5.07502,-4.82447
-518,-391,-5.16534,5.04138,0.00181125,-0.000805463,-0.000203793,0.00182702,-0.000821239,-0.0772607,0.0015653,0.0138933,706,1415,-5.16534,-5.04132
-511,-391,-5.1839,5.29944,0.00300688,-0.00117641,8.00393e-05,0.00300841,-0.00117794,0.0191238,0.00249282,0.0118427,713,1415,-5.18387,-5.29949
-504,-391,-5.18829,5.55725,0.00364947,-0.00187163,-0.000131051,0.00365257,-0.00187474,-0.0237186,0.00324575,0.010503,720,1415,-5.18828,-5.55722
-497,-391,-5.17999,5.8042,0.00372963,-0.00259291,-0.00141795,0.00403307,-0.00289635,-0.210819,0.0040186,0.00934713,727,1415,-5.17999,-5.80422
-490,-391,-5.12445,6.10596,0.0040493,-0.00451265,-0.00394277,0.00558831,-0.00605166,-0.372148,0.00672211,0.0173799,734,1415,-5.12442,-6.10597
-483,-391,-5.08386,6.25757,0.0050725,-0.00869242,-0.00823865,0.0089252,-0.0125451,-0.437424,0.0124545,0.0437711,741,1415,-5.08384,-6.25758
-476,-391,-4.89343,6.4928,0,0,0,0,0,0,0,-1,748,1415,-4.8934,-6.49284
-469,-391,-3.88953,5.0979,0,0,0,0,0,0,0,-1,755,1415,-3.88955,-5.09794
-462,-391,-5.32281,5.88391,0,0,0,0,0,0,0,-1,762,1415,-5.32282,-5.88388
-455,-391,-6.25281,3.52515,0,0,0,0,0,0,0,-1,769,1415,-6.25278,-3.52511
-448,-391,-7.63867,2.89478,0,0,0,0,0,0,0,-1,776,1415,-7.63864,-2.89483
-441,-391,-9.77704,2.5946,0,0,0,0,0,0,0,-1,783,1415,-9.77702,-2.5946
-434,-391,-11.5403,2.12878,0,0,0,0,0,0,0,-1,790,1415,-11.5403,-2.12881
-427,-391,-10.5311,2.50403,0,0,0,0,0,0,0,-1,797,1415,-10.5311,-2.504
-420,-391,-14.7087,1.24365,0,0,0,0,0,0,0,-1,804,1415,-14.7088,-1.24365
-413,-391,0,0,0,0,0,0,0,0,0,-1,811,1415,0,0
-406,-391,0,0,0,0,0,0,0,0,0,-1,818,1415,0,0
-399,-391,0,0,0,0,0,0,0,0,0,-1,825,1415,0,0
-392,-391,0,0,0,0,0,0,0,0,0,-1,832,1415,0,0
-385,-391,0,0,0,0,0,0,0,0,0,-1,839,1415,0,0
-378,-391,0,0,0,0,0,0,0,0,0,-1,846,1415,0,0
-371,-391,0,0,0,0,0,0,0,0,0,-1,853,1415,0,0
-364,-391,0,0,0,0,0,0,0,0,0,-1,860,1415,0,0
-357,-391,0,0,0,0,0,0,0,0,0,-1,867,1415,0,0
-350,-391,0,0,0,0,0,0,0,0,0,-1,874,1415,0,0
-343,-391,0,0,0,0,0,0,0,0,0,-1,881,1415,0,0
-336,-391,0,0,0,0,0,0,0,0,0,-1,888,1415,0,0
-329,-391,0,0,0,0,0,0,0,0,0,-1,895,1415,0,0
-322,-391,0,0,0,0,0,0,0,0,0,-1,902,1415,0,0
-315,-391,0,0,0,0,0,0,0,0,0,-1,909,1415,0,0
-308,-391,0,0,0,0,0,0,0,0,0,-1,916,1415,0,0
-301,-391,0,0,0,0,0,0,0,0,0,-1,923,1415,0,0
-294,-391,0,0,0,0,0,0,0,0,0,-1,930,1415,0,0
-287,-391,0,0,0,0,0,0,0,0,0,-1,937,1415,0,0
-280,-391,0,0,0,0,0,0,0,0,0,-1,944,1415,0,0
-273,-391,0,0,0,0,0,0,0,0,0,-1,951,1415,0,0
-266,-391,0,0,0,0,0,0,0,0,0,-1,958,1415,0,0
-259,-391,0,0,0,0,0,0,0,0,0,-1,965,1415,0,0
-252,-391,0,0,0,0,0,0,0,0,0,-1,972,1415,0,0
-245,-391,0,0,0,0,0,0,0,0,0,-1,979,1415,0,0
-238,-391,0,0,0,0,0,0,0,0,0,-1,986,1415,0,0
-231,-391,0,0,0,0,0,0,0,0,0,-1,993,1415,0,0
-224,-391,0,0,0,0,0,0,0,0,0,-1,1000,1415,0,0
-217,-391,0,0,0,0,0,0,0,0,0,-1,1007,1415,0,0
-210,-391,0,0,0,0,0,0,0,0,0,-1,1014,1415,0,0
-203,-391,0,0,0,0,0,0,0,0,0,-1,1021,1415,0,0
-196,-391,0,0,0,0,0,0,0,0,0,-1,1028,1415,0,0
-189,-391,0,0,0,0,0,0,0,0,0,-1,1035,1415,0,0
-182,-391,0,0,0,0,0,0,0,0,0,-1,1042,1415,0,0
-175,-391,0,0,0,0,0,0,0,0,0,-1,1049,1415,0,0
-168,-391,0,0,0,0,0,0,0,0,0,-1,1056,1415,0,0
-161,-391,0,0,0,0,0,0,0,0,0,-1,1063,1415,0,0
-154,-391,0,0,0,0,0,0,0,0,0,-1,1070,1415,0,0
-147,-391,0,0,0,0,0,0,0,0,0,-1,1077,1415,0,0
-140,-391,0,0,0,0,0,0,0,0,0,-1,1084,1415,0,0
-133,-391,0,0,0,0,0,0,0,0,0,-1,1091,1415,0,0
-126,-391,0,0,0,0,0,0,0,0,0,-1,1098,1415,0,0
-119,-391,0,0,0,0,0,0,0,0,0,-1,1105,1415,0,0
-112,-391,0,0,0,0,0,0,0,0,0,-1,1112,1415,0,0
-105,-391,0,0,0,0,0,0,0,0,0,-1,1119,1415,0,0
-98,-391,0,0,0,0,0,0,0,0,0,-1,1126,1415,0,0
-91,-391,0,0,0,0,0,0,0,0,0,-1,1133,1415,0,0
-84,-391,0,0,0,0,0,0,0,0,0,-1,1140,1415,0,0
-77,-391,0,0,0,0,0,0,0,0,0,-1,1147,1415,0,0
-70,-391,0,0,0,0,0,0,0,0,0,-1,1154,1415,0,0
-63,-391,0,0,0,0,0,0,0,0,0,-1,1161,1415,0,0
-56,-391,0,0,0,0,0,0,0,0,0,-1,1168,1415,0,0
-49,-391,0,0,0,0,0,0,0,0,0,-1,1175,1415,0,0
-42,-391,0,0,0,0,0,0,0,0,0,-1,1182,1415,0,0
-35,-391,0,0,0,0,0,0,0,0,0,-1,1189,1415,0,0
-28,-391,0,0,0,0,0,0,0,0,0,-1,1196,1415,0,0
-21,-391,0,0,0,0,0,0,0,0,0,-1,1203,1415,0,0
-14,-391,0,0,0,0,0,0,0,0,0,-1,1210,1415,0,0
-7,-391,0,0,0,0,0,0,0,0,0,-1,1217,1415,0,0
0,-391,0,0,0,0,0,0,0,0,0,-1,1224,1415,0,0
7,-391,0,0,0,0,0,0,0,0,0,-1,1231,1415,0,0
14,-391,0,0,0,0,0,0,0,0,0,-1,1238,1415,0,0
21,-391,0,0,0,0,0,0,0,0,0,-1,1245,1415,0,0
28,-391,0,0,0,0,0,0,0,0,0,-1,1252,1415,0,0
35,-391,0,0,0,0,0,0,0,0,0,-1,1259,1415,0,0
42,-391,0,0,0,0,0,0,0,0,0,-1,1266,1415,0,0
49,-391,0,0,0,0,0,0,0,0,0,-1,1273,1415,0,0
56,-391,0,0,0,0,0,0,0,0,0,-1,1280,1415,0,0
63,-391,0,0,0,0,0,0,0,0,0,-1,1287,1415,0,0
70,-391,0,0,0,0,0,0,0,0,0,-1,1294,1415,0,0
77,-391,0,0,0,0,0,0,0,0,0,-1,1301,1415,0,0
84,-391,0,0,0,0,0,0,0,0,0,-1,1308,1415,0,0
91,-391,0,0,0,0,0,0,0,0,0,-1,1315,1415,0,0
98,-391,0,0,0,0,0,0,0,0,0,-1,1322,1415,0,0
105,-391,0,0,0,0,0,0,0,0,0,-1,1329,1415,0,0
112,-391,0,0,0,0,0,0,0,0,0,-1,1336,1415,0,0
119,-391,0,0,0,0,0,0,0,0,0,-1,1343,1415,0,0
126,-391,0,0,0,0,0,0,0,0,0,-1,1350,1415,0,0
133,-391,0,0,0,0,0,0,0,0,0,-1,1357,1415,0,0
140,-391,0,0,0,0,0,0,0,0,0,-1,1364,1415,0,0
147,-391,0,0,0,0,0,0,0,0,0,-1,1371,1415,0,0
154,-391,0,0,0,0,0,0,0,0,0,-1,1378,1415,0,0
161,-391,0,0,0,0,0,0,0,0,0,-1,1385,1415,0,0
168,-391,0,0,0,0,0,0,0,0,0,-1,1392,1415,0,0
175,-391,0,0,0,0,0,0,0,0,0,-1,1399,1415,0,0
182,-391,0,0,0,0,0,0,0,0,0,-1,1406,1415,0,0
189,-391,0,0,0,0,0,0,0,0,0,-1,1413,1415,0,0
196,-391,0,0,0,0,0,0,0,0,0,-1,1420,1415,0,0
203,-391,0,0,0,0,0,0,0,0,0,-1,1427,1415,0,0
210,-391,0,0,0,0,0,0,0,0,0,-1,1434,1415,0,0
217,-391,0,0,0,0,0,0,0,0,0,-1,1441,1415,0,0
224,-391,0,0,0,0,0,0,0,0,0,-1,1448,1415,0,0
231,-391,0,0,0,0,0,0,0,0,0,-1,1455,1415,0,0
238,-391,0,0,0,0,0,0,0,0,0,-1,1462,1415,0,0
245,-391,0,0,0,0,0,0,0,0,0,-1,1469,1415,0,0
252,-391,0,0,0,0,0,0,0,0,0,-1,1476,1415,0,0
259,-391,0,0,0,0,0,0,0,0,0,-1,1483,1415,0,0
266,-391,0,0,0,0,0,0,0,0,0,-1,1490,1415,0,0
273,-391,0,0,0,0,0,0,0,0,0,-1,1497,1415,0,0
280,-391,0,0,0,0,0,0,0,0,0,-1,1504,1415,0,0
287,-391,0,0,0,0,0,0,0,0,0,-1,1511,1415,0,0
294,-391,0,0,0,0,0,0,0,0,0,-1,1518,1415,0,0
301,-391,0,0,0,0,0,0,0,0,0,-1,1525,1415,0,0
308,-391,0,0,0,0,0,0,0,0,0,-1,1532,1415,0,0
315,-391,0,0,0,0,0,0,0,0,0,-1,1539,1415,0,0
322,-391,0,0,0,0,0,0,0,0,0,-1,1546,1415,0,0
329,-391,0,0,0,0,0,0,0,0,0,-1,1553,1415,0,0
336,-391,0,0,0,0,0,0,0,0,0,-1,1560,1415,0,0
343,-391,0,0,0,0,0,0,0,0,0,-1,1567,1415,0,0
350,-391,0,0,0,0,0,0,0,0,0,-1,1574,1415,0,0
357,-391,0,0,0,0,0,0,0,0,0,-1,1581,1415,0,0
364,-391,0,0,0,0,0,0,0,0,0,-1,1588,1415,0,0
371,-391,0,0,0,0,0,0,0,0,0,-1,1595,1415,0,0
378,-391,0,0,0,0,0,0,0,0,0,-1,1602,1415,0,0
385,-391,0,0,0,0,0,0,0,0,0,-1,1609,1415,0,0
392,-391,0,0,0,0,0,0,0,0,0,-1,1616,1415,0,0
399,-391,0,0,0,0,0,0,0,0,0,-1,1623,1415,0,0
406,-391,0,0,0,0,0,0,0,0,0,-1,1630,1415,0,0
413,-391,0,0,0,0,0,0,0,0,0,-1,1637,1415,0,0
420,-391,0,0,0,0,0,0,0,0,0,-1,1644,1415,0,0
427,-391,0,0,0,0,0,0,0,0,0,-1,1651,1415,0,0
434,-391,0,0,0,0,0,0,0,0,0,-1,1658,1415,0,0
441,-391,0,0,0,0,0,0,0,0,0,-1,1665,1415,0,0
448,-391,0,0,0,0,0,0,0,0,0,-1,1672,1415,0,0
455,-391,0,0,0,0,0,0,0,0,0,-1,1679,1415,0,0
462,-391,0,0,0,0,0,0,0,0,0,-1,1686,1415,0,0
469,-391,0,0,0,0,0,0,0,0,0,-1,1693,1415,0,0
476,-391,0,0,0,0,0,0,0,0,0,-1,1700,1415,0,0
483,-391,0,0,0,0,0,0,0,0,0,-1,1707,1415,0,0
490,-391,0,0,0,0,0,0,0,0,0,-1,1714,1415,0,0
497,-391,0,0,0,0,0,0,0,0,0,-1,1721,1415,0,0
504,-391,0,0,0,0,0,0,0,0,0,-1,1728,1415,0,0
511,-391,0,0,0,0,0,0,0,0,0,-1,1735,1415,0,0
518,-391,0,0,0,0,0,0,0,0,0,-1,1742,1415,0,0
525,-391,0,0,0,0,0,0,0,0,0,-1,1749,1415,0,0
532,-391,23.3541,1.15771,0,0,0,0,0,0,0,-1,1756,1415,23.3541,-1.15771
539,-391,22.6211,1.52905,0,0,0,0,0,0,0,-1,1763,1415,22.6211,-1.529
546,-391,21.671,2.0199,0,0,0,0,0,0,0,-1,1770,1415,21.671,-2.01994
553,-391,20.5422,2.27222,0,0,0,0,0,0,0,-1,1777,1415,20.5423,-2.27224
560,-391,19.1654,2.27197,0,0,0,0,0,0,0,-1,1784,1415,19.1654,-2.27193
567,-391,18.4855,3.01099,0,0,0,0,0,0,0,-1,1791,1415,18.4854,-3.01096
574,-391,17.8459,3.70581,0,0,0,0,0,0,0,-1,1798,1415,17.8459,-3.70584
581,-391,12.551,1.32678,0,0,0,0,0,0,0,-1,1805,1415,12.5511,-1.32684
588,-391,16.6328,4.5874,0,0,0,0,0,0,0,-1,1812,1415,16.6328,-4.5874
595,-391,18.2269,5.96387,0,0,0,0,0,0,0,-1,1819,1415,18.2269,-5.96392
602,-391,15.1635,5.69849,0,0,0,0,0,0,0,-1,1826,1415,15.1635,-5.69847
609,-391,14.757,7.84082,0,0,0,0,0,0,0,-1,1833,1415,14.757,-7.84079
616,-391,14.298,7.70081,-0.0219261,-0.0102869,0.0181769,0.00297929,-0.0351923,0.940324,0.024515,0.0464164,1840,1415,14.298,-7.70078
623,-391,14.0531,7.72217,-0.0151816,-0.0075685,0.0122912,0.00149205,-0.0242422,0.935564,0.0166811,0.0235693,1847,1415,14.0531,-7.72212
630,-391,14.0468,7.52234,-0.00985618,-0.00558759,0.00807252,0.000628014,-0.0160718,0.914636,0.0109299,0.0163346,1854,1415,14.0468,-7.52236
637,-391,14.0175,7.32898,-0.00623068,-0.00385128,0.00509718,0.0001932,-0.0102752,0.900048,0.0069154,0.0150204,1861,1415,14.0174,-7.32899
644,-391,13.9906,7.10498,-0.0036737,-0.00261187,0.00315704,5.85928e-05,-0.00634416,0.868703,0.0042491,0.0151521,1868,1415,13.9906,-7.10493
651,-391,14.0178,6.87585,-0.00177731,-0.00179551,0.00171749,-6.88926e-05,-0.00350393,0.782748,0.00231333,0.0160852,1875,1415,14.0179,-6.87588
658,-391,14.0498,6.67468,-0.000622432,-0.00134664,0.00105848,0.000134169,-0.00210324,0.62059,0.00144895,0.0159819,1882,1415,14.0498,-6.67466
665,-391,14.0361,6.46643,-4.69974e-05,-0.0014644,0.000953992,0.000432727,-0.00194413,0.465933,0.00146184,0.0126609,1889,1415,14.0362,-6.46647
672,-391,14.0446,6.22607,5.25445e-05,-0.00189609,0.00113759,0.000576027,-0.00241957,0.431278,0.00183544,0.0107293,1896,1415,14.0446,-6.22613
679,-391,14.0297,5.99109,0.000158256,-0.00279087,0.0014873,0.000778063,-0.00341068,0.394848,0.00257266,0.0100373,1903,1415,14.0297,-5.99113
686,-391,14.0302,5.74438,-0.000570074,-0.00280046,0.00151339,0.000194626,-0.00356516,0.467871,0.00244423,0.0131681,1910,1415,14.0302,-5.74441
693,-391,14.0236,5.6488,-0.0023547,-0.00251089,0.00095394,-0.00147567,-0.00338993,0.744556,0.00196263,0.0290699,1917,1415,14.0236,-5.64884
700,-391,14.0664,5.57007,0,0,0,0,0,0,0,-1,1924,1415,14.0665,-5.57011
707,-391,12.9524,5.96851,0,0,0,0,0,0,0,-1,1931,1415,12.9524,-5.96849
714,-391,12.5084,7.60242,0,0,0,0,0,0,0,-1,1938,1415,12.5084,-7.60241
721,-391,14.1808,8.08435,0,0,0,0,0,0,0,-1,1945,1415,14.1808,-8.08439
728,-391,13.8102,7.28174,0,0,0,0,0,0,0,-1,1952,1415,13.8102,-7.28174
735,-391,0,0,0,0,0,0,0,0,0,-1,1959,1415,0,0
742,-391,0,0,0,0,0,0,0,0,0,-1,1966,1415,0,0
749,-391,0,0,0,0,0,0,0,0,0,-1,1973,1415,0,0
756,-391,0,0,0,0,0,0,0,0,0,-1,1980,1415,0,0
763,-391,0,0,0,0,0,0,0,0,0,-1,1987,1415,0,0
770,-391,0,0,0,0,0,0,0,0,0,-1,1994,1415,0,0
777,-391,0,0,0,0,0,0,0,0,0,-1,2001,1415,0,0
784,-391,0,0,0,0,0,0,0,0,0,-1,2008,1415,0,0
791,-391,0,0,0,0,0,0,0,0,0,-1,2015,1415,0,0
798,-391,0,0,0,0,0,0,0,0,0,-1,2022,1415,0,0
805,-391,0,0,0,0,0,0,0,0,0,-1,2029,1415,0,0
812,-391,0,0,0,0,0,0,0,0,0,-1,2036,1415,0,0
-700,-398,0,0,0,0,0,0,0,0,0,-1,524,1422,0,0
-693,-398,0,0,0,0,0,0,0,0,0,-1,531,1422,0,0
-686,-398,0,0,0,0,0,0,0,0,0,-1,538,1422,0,0
-679,-398,0,0,0,0,0,0,0,0,0,-1,545,1422,0,0
-672,-398,0,0,0,0,0,0,0,0,0,-1,552,1422,0,0
-665,-398,0,0,0,0,0,0,0,0,0,-1,559,1422,0,0
-658,-398,0,0,0,0,0,0,0,0,0,-1,566,1422,0,0
-651,-398,0,0,0,0,0,0,0,0,0,-1,573,1422,0,0
-644,-398,0,0,0,0,0,0,0,0,0,-1,580,1422,0,0
-637,-398,0,0,0,0,0,0,0,0,0,-1,587,1422,0,0
-630,-398,0,0,0,0,0,0,0,0,0,-1,594,1422,0,0
-623,-398,0,0,0,0,0,0,0,0,0,-1,601,1422,0,0
-616,-398,0,0,0,0,0,0,0,0,0,-1,608,1422,0,0
-609,-398,-7.47125,-4.05322,0,0,0,0,0,0,0,-1,615,1422,-7.47128,4.05317
-602,-398,-4.58868,-2.77026,0,0,0,0,0,0,0,-1,622,1422,-4.58869,2.77023
-595,-398,-10.0841,3.23071,0,0,0,0,0,0,0,-1,629,1422,-10.0841,-3.23069
-588,-398,-7.38361,3.66968,0,0,0,0,0,0,0,-1,636,1422,-7.38363,-3.66968
-581,-398,-6.0307,4.58813,0,0,0,0,0,0,0,-1,643,1422,-6.03071,-4.58818
-574,-398,-4.69012,3.26941,0,0,0,0,0,0,0,-1,650,1422,-4.69013,-3.26945
-567,-398,-4.6452,3.48828,-0.00322463,-0.00038774,-0.000358328,-0.000343179,-0.00326919,-1.44707,0.00207455,0.0453986,657,1422,-4.6452,-3.48829
-560,-398,-4.789,3.54761,-0.00264191,-0.000401781,-0.000818729,-0.000134451,-0.00290924,-1.25519,0.00189626,0.0386656,664,1422,-4.78898,-3.54755
-553,-398,-4.84009,3.81799,-0.0019641,-0.000424041,-0.000861771,-3.83912e-05,-0.00234975,-1.15002,0.00155386,0.0318299,671,1422,-4.84008,-3.81794
-546,-398,-4.92194,4.02039,-0.00124991,-0.000366944,-0.000710699,2.82341e-05,-0.00164509,-1.06333,0.00110626,0.0162932,678,1422,-4.92194,-4.02044
-539,-398,-4.88373,4.31555,-0.00056222,-0.00026612,-0.000614478,0.000217892,-0.00104623,-0.903613,0.000780325,0.0125344,685,1422,-4.8837,-4.31556
-532,-398,-4.84552,4.58997,0.000158566,-0.000172542,-0.000345284,0.000375934,-0.00038991,-0.561852,0.000442185,0.0192339,692,1422,-4.84553,-4.59
-525,-398,-4.83942,4.81714,0.000933105,-0.000289182,-9.48459e-05,0.000940421,-0.000296498,-0.0769829,0.000745695,0.019231,699,1422,-4.83945,-4.81711
-518,-398,-4.87567,5.06262,0.00170153,-0.000617941,2.67954e-05,0.00170184,-0.00061825,0.0115503,0.00138735,0.0175522,706,1422,-4.8757,-5.06267
-511,-398,-4.91266,5.29639,0.00249941,-0.000939151,0.000130697,0.00250437,-0.000944112,0.0379362,0.00205779,0.0126525,713,1422,-4.91264,-5.2964
-504,-398,-4.92493,5.55713,0.00276219,-0.00163469,-0.000232346,0.00277443,-0.00164693,-0.0526481,0.00258019,0.0122359,720,1422,-4.9249,-5.55715
-497,-398,-4.91827,5.81018,0.00266661,-0.00232846,-0.00155065,0.00310884,-0.00277069,-0.277813,0.00339641,0.00958237,727,1422,-4.91829,-5.81019
-490,-398,-4.90918,6.06567,0.00282589,-0.00422578,-0.00408311,0.0046948,-0.00609469,-0.429253,0.00624677,0.0109597,734,1422,-4.90921,-6.06571
-483,-398,-4.81744,6.3927,0.00368662,-0.00826169,-0.00820153,0.00785917,-0.0124342,-0.470625,0.0118152,0.0232181,741,1422,-4.81745,-6.39265
-476,-398,-4.80621,6.28564,0.00408978,-0.0121762,-0.0135341,0.0117465,-0.019833,-0.514848,0.0184306,0.0450457,748,1422,-4.80619,-6.2856
-469,-398,-4.86755,6.2019,0,0,0,0,0,0,0,-1,755,1422,-4.86754,-6.20194
-462,-398,-4.44244,5.17358,0,0,0,0,0,0,0,-1,762,1422,-4.44245,-5.17353
-455,-398,-6.56195,5.96252,0,0,0,0,0,0,0,-1,769,1422,-6.56198,-5.96255
-448,-398,-7.00696,4.01135,0,0,0,0,0,0,0,-1,776,1422,-7.00693,-4.01141
-441,-398,-8.95007,3.48877,0,0,0,0,0,0,0,-1,783,1422,-8.95005,-3.48871
-434,-398,-10.7618,3.297,0,0,0,0,0,0,0,-1,790,1422,-10.7618,-3.29704
-427,-398,-11.9061,2.24939,0,0,0,0,0,0,0,-1,797,1422,-11.9061,-2.24941
-420,-398,-13.467,2.32788,0,0,0,0,0,0,0,-1,804,1422,-13.467,-2.32787
-413,-398,-14.7983,2.15515,0,0,0,0,0,0,0,-1,811,1422,-14.7983,-2.15516
-406,-398,0,0,0,0,0,0,0,0,0,-1,818,1422,0,0
-399,-398,0,0,0,0,0,0,0,0,0,-1,825,1422,0,0
-392,-398,0,0,0,0,0,0,0,0,0,-1,832,1422,0,0
-385,-398,0,0,0,0,0,0,0,0,0,-1,839,1422,0,0
-378,-398,0,0,0,0,0,0,0,0,0,-1,846,1422,0,0
-371,-398,0,0,0,0,0,0,0,0,0,-1,853,1422,0,0
-364,-398,0,0,0,0,0,0,0,0,0,-1,860,1422,0,0
-357,-398,0,0,0,0,0,0,0,0,0,-1,867,1422,0,0
-350,-398,0,0,0,0,0,0,0,0,0,-1,874,1422,0,0
-343,-398,0,0,0,0,0,0,0,0,0,-1,881,1422,0,0
-336,-398,0,0,0,0,0,0,0,0,0,-1,888,1422,0,0
-329,-398,0,0,0,0,0,0,0,0,0,-1,895,1422,0,0
-322,-398,0,0,0,0,0,0,0,0,0,-1,902,1422,0,0
-315,-398,0,0,0,0,0,0,0,0,0,-1,909,1422,0,0
-308,-398,0,0,0,0,0,0,0,0,0,-1,916,1422,0,0
-301,-398,0,0,0,0,0,0,0,0,0,-1,923,1422,0,0
-294,-398,0,0,0,0,0,0,0,0,0,-1,930,1422,0,0
-287,-398,0,0,0,0,0,0,0,0,0,-1,937,1422,0,0
-280,-398,0,0,0,0,0,0,0,0,0,-1,944,1422,0,0
-273,-398,0,0,0,0,0,0,0,0,0,-1,951,1422,0,0
-266,-398,0,0,0,0,0,0,0,0,0,-1,958,1422,0,0
-259,-398,0,0,0,0,0,0,0,0,0,-1,965,1422,0,0
-252,-398,0,0,0,0,0,0,0,0,0,-1,972,1422,0,0
-245,-398,0,0,0,0,0,0,0,0,0,-1,979,1422,0,0
-238,-398,0,0,0,0,0,0,0,0,0,-1,986,1422,0,0
-231,-398,0,0,0,0,0,0,0,0,0,-1,993,1422,0,0
-224,-398,0,0,0,0,0,0,0,0,0,-1,1000,1422,0,0
-217,-398,0,0,0,0,0,0,0,0,0,-1,1007,1422,0,0
-210,-398,0,0,0,0,0,0,0,0,0,-1,1014,1422,0,0
-203,-398,0,0,0,0,0,0,0,0,0,-1,1021,1422,0,0
-196,-398,0,0,0,0,0,0,0,0,0,-1,1028,1422,0,0
-189,-398,0,0,0,0,0,0,0,0,0,-1,1035,1422,0,0
-182,-398,0,0,0,0,0,0,0,0,0,-1,1042,1422,0,0
-175,-398,0,0,0,0,0,0,0,0,0,-1,1049,1422,0,0
-168,-398,0,0,0,0,0,0,0,0,0,-1,1056,1422,0,0
-161,-398,0,0,0,0,0,0,0,0,0,-1,1063,1422,0,0
-154,-398,0,0,0,0,0,0,0,0,0,-1,1070,1422,0,0
-147,-398,0,0,0,0,0,0,0,0,0,-1,1077,1422,0,0
-140,-398,0,0,0,0,0,0,0,0,0,-1,1084,1422,0,0
-133,-398,0,0,0,0,0,0,0,0,0,-1,1091,1422,0,0
-126,-398,0,0,0,0,0,0,0,0,0,-1,1098,1422,0,0
-119,-398,0,0,0,0,0,0,0,0,0,-1,1105,1422,0,0
-112,-398,0,0,0,0,0,0,0,0,0,-1,1112,1422,0,0
-105,-398,0,0,0,0,0,0,0,0,0,-1,1119,1422,0,0
-98,-398,0,0,0,0,0,0,0,0,0,-1,1126,1422,0,0
-91,-398,0,0,0,0,0,0,0,0,0,-1,1133,1422,0,0
-84,-398,0,0,0,0,0,0,0,0,0,-1,1140,1422,0,0
-77,-398,0,0,0,0,0,0,0,0,0,-1,1147,1422,0,0
-70,-398,0,0,0,0,0,0,0,0,0,-1,1154,1422,0,0
-63,-398,0,0,0,0,0,0,0,0,0,-1,1161,1422,0,0
-56,-398,0,0,0,0,0,0,0,0,0,-1,1168,1422,0,0
-49,-398,0,0,0,0,0,0,0,0,0,-1,1175,1422,0,0
-42,-398,0,0,0,0,0,0,0,0,0,-1,1182,1422,0,0
-35,-398,0,0,0,0,0,0,0,0,0,-1,1189,1422,0,0
-28,-398,0,0,0,0,0,0,0,0,0,-1,1196,1422,0,0
-21,-398,0,0,0,0,0,0,0,0,0,-1,1203,1422,0,0
-14,-398,0,0,0,0,0,0,0,0,0,-1,1210,1422,0,0
-7,-398,0,0,0,0,0,0,0,0,0,-1,1217,1422,0,0
0,-398,0,0,0,0,0,0,0,0,0,-1,1224,1422,0,0
7,-398,0,0,0,0,0,0,0,0,0,-1,1231,1422,0,0
14,-398,0,0,0,0,0,0,0,0,0,-1,1238,1422,0,0
21,-398,0,0,0,0,0,0,0,0,0,-1,1245,1422,0,0
28,-398,0,0,0,0,0,0,0,0,0,-1,1252,1422,0,0
35,-398,0,0,0,0,0,0,0,0,0,-1,1259,1422,0,0
42,-398,0,0,0,0,0,0,0,0,0,-1,1266,1422,0,0
49,-398,0,0,0,0,0,0,0,0,0,-1,1273,1422,0,0
56,-398,0,0,0,0,0,0,0,0,0,-1,1280,1422,0,0
63,-398,0,0,0,0,0,0,0,0,0,-1,1287,1422,0,0
70,-398,0,0,0,0,0,0,0,0,0,-1,1294,1422,0,0
77,-398,0,0,0,0,0,0,0,0,0,-1,1301,1422,0,0
84,-398,0,0,0,0,0,0,0,0,0,-1,1308,1422,0,0
91,-398,0,0,0,0,0,0,0,0,0,-1,1315,1422,0,0
98,-398,0,0,0,0,0,0,0,0,0,-1,1322,1422,0,0
105,-398,0,0,0,0,0,0,0,0,0,-1,1329,1422,0,0
112,-398,0,0,0,0,0,0,0,0,0,-1,1336,1422,0,0
119,-398,0,0,0,0,0,0,0,0,0,-1,1343,1422,0,0
126,-398,0,0,0,0,0,0,0,0,0,-1,1350,1422,0,0
133,-398,0,0,0,0,0,0,0,0,0,-1,1357,1422,0,0
140,-398,0,0,0,0,0,0,0,0,0,-1,1364,1422,0,0
147,-398,0,0,0,0,0,0,0,0,0,-1,1371,1422,0,0
154,-398,0,0,0,0,0,0,0,0,0,-1,1378,1422,0,0
161,-398,0,0,0,0,0,0,0,0,0,-1,1385,1422,0,0
168,-398,0,0,0,0,0,0,0,0,0,-1,1392,1422,0,0
175,-398,0,0,0,0,0,0,0,0,0,-1,1399,1422,0,0
182,-398,0,0,0,0,0,0,0,0,0,-1,1406,1422,0,0
189,-398,0,0,0,0,0,0,0,0,0,-1,1413,1422,0,0
196,-398,0,0,0,0,0,0,0,0,0,-1,1420,1422,0,0
203,-398,0,0,0,0,0,0,0,0,0,-1,1427,1422,0,0
210,-398,0,0,0,0,0,0,0,0,0,-1,1434,1422,0,0
217,-398,0,0,0,0,0,0,0,0,0,-1,1441,1422,0,0
224,-398,0,0,0,0,0,0,0,0,0,-1,1448,1422,0,0
231,-398,0,0,0,0,0,0,0,0,0,-1,1455,1422,0,0
238,-398,0,0,0,0,0,0,0,0,0,-1,1462,1422,0,0
245,-398,0,0,0,0,0,0,0,0,0,-1,1469,1422,0,0
252,-398,0,0,0,0,0,0,0,0,0,-1,1476,1422,0,0
259,-398,0,0,0,0,0,0,0,0,0,-1,1483,1422,0,0
266,-398,0,0,0,0,0,0,0,0,0,-1,1490,1422,0,0
273,-398,0,0,0,0,0,0,0,0,0,-1,1497,1422,0,0
280,-398,0,0,0,0,0,0,0,0,0,-1,1504,1422,0,0
287,-398,0,0,0,0,0,0,0,0,0,-1,1511,1422,0,0
294,-398,0,0,0,0,0,0,0,0,0,-1,1518,1422,0,0
301,-398,0,0,0,0,0,0,0,0,0,-1,1525,1422,0,0
308,-398,0,0,0,0,0,0,0,0,0,-1,1532,1422,0,0
315,-398,0,0,0,0,0,0,0,0,0,-1,1539,1422,0,0
322,-398,0,0,0,0,0,0,0,0,0,-1,1546,1422,0,0
329,-398,0,0,0,0,0,0,0,0,0,-1,1553,1422,0,0
336,-398,0,0,0,0,0,0,0,0,0,-1,1560,1422,0,0
343,-398,0,0,0,0,0,0,0,0,0,-1,1567,1422,0,0
350,-398,0,0,0,0,0,0,0,0,0,-1,1574,1422,0,0
357,-398,0,0,0,0,0,0,0,0,0,-1,1581,1422,0,0
364,-398,0,0,0,0,0,0,0,0,0,-1,1588,1422,0,0
371,-398,0,0,0,0,0,0,0,0,0,-1,1595,1422,0,0
378,-398,0,0,0,0,0,0,0,0,0,-1,1602,1422,0,0
385,-398,0,0,0,0,0,0,0,0,0,-1,1609,1422,0,0
392,-398,0,0,0,0,0,0,0,0,0,-1,1616,1422,0,0
399,-398,0,0,0,0,0,0,0,0,0,-1,1623,1422,0,0
406,-398,0,0,0,0,0,0,0,0,0,-1,1630,1422,0,0
413,-398,0,0,0,0,0,0,0,0,0,-1,1637,1422,0,0
420,-398,0,0,0,0,0,0,0,0,0,-1,1644,1422,0,0
427,-398,0,0,0,0,0,0,0,0,0,-1,1651,1422,0,0
434,-398,0,0,0,0,0,0,0,0,0,-1,1658,1422,0,0
441,-398,0,0,0,0,0,0,0,0,0,-1,1665,1422,0,0
448,-398,0,0,0,0,0,0,0,0,0,-1,1672,1422,0,0
455,-398,0,0,0,0,0,0,0,0,0,-1,1679,1422,0,0
462,-398,0,0,0,0,0,0,0,0,0,-1,1686,1422,0,0
469,-398,0,0,0,0,0,0,0,0,0,-1,1693,1422,0,0
476,-398,0,0,0,0,0,0,0,0,0,-1,1700,1422,0,0
483,-398,0,0,0,0,0,0,0,0,0,-1,1707,1422,0,0
490,-398,0,0,0,0,0,0,0,0,0,-1,1714,1422,0,0
497,-398,0,0,0,0,0,0,0,0,0,-1,1721,1422,0,0
504,-398,0,0,0,0,0,0,0,0,0,-1,1728,1422,0,0
511,-398,0,0,0,0,0,0,0,0,0,-1,1735,1422,0,0
518,-398,0,0,0,0,0,0,0,0,0,-1,1742,1422,0,0
525,-398,0,0,0,0,0,0,0,0,0,-1,1749,1422,0,0
532,-398,23.488,1.61963,0,0,0,0,0,0,0,-1,1756,1422,23.4881,-1.61959
539,-398,21.8323,1.8689,0,0,0,0,0,0,0,-1,1763,1422,21.8322,-1.86887
546,-398,20.865,2.10522,0,0,0,0,0,0,0,-1,1770,1422,20.865,-2.10518
553,-398,19.873,2.31494,0,0,0,0,0,0,0,-1,1777,1422,19.873,-2.31496
560,-398,18.7664,2.58093,0,0,0,0,0,0,0,-1,1784,1422,18.7664,-2.58089
567,-398,17.8256,3.19897,0,0,0,0,0,0,0,-1,1791,1422,17.8255,-3.199
574,-398,17.1724,3.84631,0,0,0,0,0,0,0,-1,1798,1422,17.1723,-3.84628
581,-398,16.6462,4.40747,0,0,0,0,0,0,0,-1,1805,1422,16.6463,-4.40747
588,-398,18.2119,6.75757,0,0,0,0,0,0,0,-1,1812,1422,18.2119,-6.75756
595,-398,17.0194,6.8916,0,0,0,0,0,0,0,-1,1819,1422,17.0194,-6.89162
602,-398,15.0568,7.83618,0,0,0,0,0,0,0,-1,1826,1422,15.0567,-7.83618
609,-398,13.9774,8.23132,0,0,0,0,0,0,0,-1,1833,1422,13.9775,-8.23135
616,-398,13.8796,7.97656,-0.0183779,-0.0104263,0.0133696,-0.000453919,-0.0283503,0.929922,0.0187507,0.0211906,1840,1422,13.8797,-7.97658
623,-398,13.8014,7.77295,-0.0126691,-0.0072911,0.00899979,-0.00058718,-0.019373,0.930569,0.0127241,0.0112738,1847,1422,13.8013,-7.77296
630,-398,13.8053,7.5542,-0.00819559,-0.00524364,0.00592404,-0.000614469,-0.0128248,0.907487,0.00835255,0.0110636,1854,1422,13.8053,-7.55419
637,-398,13.804,7.33313,-0.00518078,-0.00348713,0.00376178,-0.000478036,-0.00818988,0.896109,0.00530775,0.0126696,1861,1422,13.804,-7.3331
644,-398,13.7593,7.073,-0.00307149,-0.00236452,0.00241564,-0.000276637,-0.00515937,0.858049,0.00335117,0.0181406,1868,1422,13.7592,-7.07295
651,-398,13.8674,6.87695,-0.00150511,-0.00153752,0.00141044,-0.000110779,-0.00293184,0.779653,0.0019187,0.0248887,1875,1422,13.8674,-6.87697
658,-398,13.8668,6.70068,-0.00065073,-0.00116567,0.000996557,0.00012108,-0.00193748,0.658983,0.00133385,0.0203754,1882,1422,13.8668,-6.70069
665,-398,13.8188,6.46533,-0.000351419,-0.00132,0.00108111,0.000348913,-0.00202033,0.574821,0.00147699,0.0140411,1889,1422,13.8188,-6.46532
672,-398,13.8149,6.22815,-0.00046895,-0.00183657,0.00141476,0.00041859,-0.00272411,0.560283,0.00197048,0.0127589,1896,1422,13.815,-6.22809
679,-398,13.8092,5.98865,-0.00058054,-0.00279727,0.00189285,0.000504578,-0.00388238,0.520534,0.0027718,0.0118249,1903,1422,13.8093,-5.98864
686,-398,13.8357,5.77246,-0.00109069,-0.00364375,0.00238418,0.000337187,-0.00507163,0.539609,0.0034989,0.0189787,1910,1422,13.8357,-5.77251
693,-398,13.7897,6.22253,-0.00196513,-0.00446375,0.00258518,-0.000343214,-0.00608567,0.560316,0.00394768,0.0461896,1917,1422,13.7896,-6.22255
700,-398,13.7607,6.77966,0,0,0,0,0,0,0,-1,1924,1422,13.7608,-6.77965
707,-398,10.9731,5.479,0,0,0,0,0,0,0,-1,1931,1422,10.9732,-5.47896
714,-398,11.7313,6.17346,0,0,0,0,0,0,0,-1,1938,1422,11.7313,-6.17348
721,-398,13.9371,8.05103,0,0,0,0,0,0,0,-1,1945,1422,13.9372,-8.05102
728,-398,14.786,7.0282,0,0,0,0,0,0,0,-1,1952,1422,14.786,-7.0282
735,-398,0,0,0,0,0,0,0,0,0,-1,1959,1422,0,0
742,-398,0,0,0,0,0,0,0,0,0,-1,1966,1422,0,0
749,-398,0,0,0,0,0,0,0,0,0,-1,1973,1422,0,0
756,-398,0,0,0,0,0,0,0,0,0,-1,1980,1422,0,0
763,-398,0,0,0,0,0,0,0,0,0,-1,1987,1422,0,0
770,-398,0,0,0,0,0,0,0,0,0,-1,1994,1422,0,0
777,-398,0,0,0,0,0,0,0,0,0,-1,2001,1422,0,0
784,-398,0,0,0,0,0,0,0,0,0,-1,2008,1422,0,0
791,-398,0,0,0,0,0,0,0,0,0,-1,2015,1422,0,0
798,-398,0,0,0,0,0,0,0,0,0,-1,2022,1422,0,0
805,-398,0,0,0,0,0,0,0,0,0,-1,2029,1422,0,0
812,-398,0,0,0,0,0,0,0,0,0,-1,2036,1422,0,0
-700,-405,0,0,0,0,0,0,0,0,0,-1,524,1429,0,0
-693,-405,0,0,0,0,0,0,0,0,0,-1,531,1429,0,0
-686,-405,0,0,0,0,0,0,0,0,0,-1,538,1429,0,0
-679,-405,0,0,0,0,0,0,0,0,0,-1,545,1429,0,0
-672,-405,0,0,0,0,0,0,0,0,0,-1,552,1429,0,0
-665,-405,0,0,0,0,0,0,0,0,0,-1,559,1429,0,0
-658,-405,0,0,0,0,0,0,0,0,0,-1,566,1429,0,0
-651,-405,0,0,0,0,0,0,0,0,0,-1,573,1429,0,0
-644,-405,0,0,0,0,0,0,0,0,0,-1,580,1429,0,0
-637,-405,0,0,0,0,0,0,0,0,0,-1,587,1429,0,0
-630,-405,0,0,0,0,0,0,0,0,0,-1,594,1429,0,0
-623,-405,0,0,0,0,0,0,0,0,0,-1,601,1429,0,0
-616,-405,0,0,0,0,0,0,0,0,0,-1,608,1429,0,0
-609,-405,0,0,0,0,0,0,0,0,0,-1,615,1429,0,0
-602,-405,-5.80988,-3.46594,0,0,0,0,0,0,0,-1,622,1429,-5.80987,3.46592
-595,-405,-7.80023,0.702637,0,0,0,0,0,0,0,-1,629,1429,-7.80026,-0.702685
-588,-405,-8.16199,2.65613,0,0,0,0,0,0,0,-1,636,1429,-8.16199,-2.65614
-581,-405,-6.67957,3.68311,0,0,0,0,0,0,0,-1,643,1429,-6.67956,-3.68314
-574,-405,-5.19714,4.71008,0,0,0,0,0,0,0,-1,650,1429,-5.19714,-4.71013
-567,-405,-4.15234,3.43091,0,0,0,0,0,0,0,-1,657,1429,-4.15237,-3.43091
-560,-405,-4.46539,3.30957,0.00133116,-0.000606523,0.00106864,0.00180477,-0.00108013,0.417171,0.00168302,0.0480174,664,1429,-4.46542,-3.30962
-553,-405,-4.41486,3.70105,0.000905101,-0.000505075,0.000764947,0.00124035,-0.00084032,0.413047,0.00120865,0.0441238,671,1429,-4.41483,-3.70102
-546,-405,-4.65747,3.99341,0.000781945,-0.000333703,0.000616101,0.00105523,-0.000606992,0.4175,0.000971247,0.0236755,678,1429,-4.65745,-3.99341
-539,-405,-4.66333,4.29004,0.000771377,-0.000130391,0.000495858,0.000990695,-0.00034971,0.416433,0.000802837,0.0113446,685,1429,-4.66335,-4.29002
-532,-405,-4.64789,4.56213,0.000968489,1.1513e-05,0.000483865,0.0011705,-0.000190496,0.395493,0.000850968,0.0144782,692,1429,-4.64787,-4.56216
-525,-405,-4.63593,4.82922,0.00130458,-5.25734e-05,0.000453816,0.00144235,-0.000190339,0.29473,0.00103089,0.014546,699,1429,-4.63592,-4.8292
-518,-405,-4.63513,5.06885,0.00169218,-0.000347116,0.000344918,0.00174894,-0.000403874,0.163094,0.00132132,0.0160762,706,1429,-4.63516,-5.06885
-511,-405,-4.67261,5.31091,0.00217475,-0.000653867,0.000280873,0.00220237,-0.000681487,0.0980216,0.00174047,0.0158012,713,1429,-4.67263,-5.3109
-504,-405,-4.67206,5.55798,0.00217017,-0.00136207,-0.000220153,0.00218384,-0.00137574,-0.062007,0.0020727,0.0160605,720,1429,-4.67205,-5.55793
-497,-405,-4.64764,5.82092,0.00183808,-0.00198663,-0.00167,0.00246462,-0.00261317,-0.358925,0.00293208,0.0131077,727,1429,-4.64766,-5.82096
-490,-405,-4.65314,6.08044,0.00192302,-0.00380773,-0.0041906,0.00413421,-0.00601892,-0.485526,0.00589548,0.0125833,734,1429,-4.65312,-6.08045
-483,-405,-4.64594,6.34949,0.00270949,-0.00764862,-0.00810367,0.00714771,-0.0120868,-0.501061,0.0112265,0.0117704,741,1429,-4.64593,-6.34946
-476,-405,-4.58319,6.54004,0.00304202,-0.0113136,-0.0130156,0.0107278,-0.0189994,-0.53341,0.0173831,0.0282552,748,1429,-4.58317,-6.54001
-469,-405,-4.49823,6.58545,0.0034547,-0.0164244,-0.0201746,0.0160054,-0.0289751,-0.556512,0.0263269,0.0394469,755,1429,-4.49822,-6.58543
-462,-405,-4.92743,6.64307,0,0,0,0,0,0,0,-1,762,1429,-4.92742,-6.64306
-455,-405,-5.86536,6.34631,0,0,0,0,0,0,0,-1,769,1429,-5.86538,-6.3463
-448,-405,-6.80334,6.04956,0,0,0,0,0,0,0,-1,776,1429,-6.80333,-6.04953
-441,-405,-8.04755,4.44971,0,0,0,0,0,0,0,-1,783,1429,-8.04752,-4.44977
-434,-405,-9.62549,3.94189,0,0,0,0,0,0,0,-1,790,1429,-9.62546,-3.94191
-427,-405,-10.9764,3.73926,0,0,0,0,0,0,0,-1,797,1429,-10.9764,-3.73923
-420,-405,-12.1187,3.68506,0,0,0,0,0,0,0,-1,804,1429,-12.1187,-3.68512
-413,-405,-13.5353,3.75659,0,0,0,0,0,0,0,-1,811,1429,-13.5353,-3.75655
-406,-405,-14.7374,3.99817,0,0,0,0,0,0,0,-1,818,1429,-14.7374,-3.99814
-399,-405,0,0,0,0,0,0,0,0,0,-1,825,1429,0,0
-392,-405,0,0,0,0,0,0,0,0,0,-1,832,1429,0,0
-385,-405,0,0,0,0,0,0,0,0,0,-1,839,1429,0,0
-378,-405,0,0,0,0,0,0,0,0,0,-1,846,1429,0,0
-371,-405,0,0,0,0,0,0,0,0,0,-1,853,1429,0,0
-364,-405,0,0,0,0,0,0,0,0,0,-1,860,1429,0,0
-357,-405,0,0,0,0,0,0,0,0,0,-1,867,1429,0,0
-350,-405,0,0,0,0,0,0,0,0,0,-1,874,1429,0,0
-343,-405,0,0,0,0,0,0,0,0,0,-1,881,1429,0,0
-336,-405,0,0,0,0,0,0,0,0,0,-1,888,1429,0,0
-329,-405,0,0,0,0,0,0,0,0,0,-1,895,1429,0,0
-322,-405,0,0,0,0,0,0,0,0,0,-1,902,1429,0,0
-315,-405,0,0,0,0,0,0,0,0,0,-1,909,1429,0,0
-308,-405,0,0,0,0,0,0,0,0,0,-1,916,1429,0,0
-301,-405,0,0,0,0,0,0,0,0,0,-1,923,1429,0,0
-294,-405,0,0,0,0,0,0,0,0,0,-1,930,1429,0,0
-287,-405,0,0,0,0,0,0,0,0,0,-1,937,1429,0,0
-280,-405,0,0,0,0,0,0,0,0,0,-1,944,1429,0,0
-273,-405,0,0,0,0,0,0,0,0,0,-1,951,1429,0,0
-266,-405,0,0,0,0,0,0,0,0,0,-1,958,1429,0,0
-259,-405,0,0,0,0,0,0,0,0,0,-1,965,1429,0,0
-252,-405,0,0,0,0,0,0,0,0,0,-1,972,1429,0,0
-245,-405,0,0,0,0,0,0,0,0,0,-1,979,1429,0,0
-238,-405,0,0,0,0,0,0,0,0,0,-1,986,1429,0,0
-231,-405,0,0,0,0,0,0,0,0,0,-1,993,1429,0,0
-224,-405,0,0,0,0,0,0,0,0,0,-1,1000,1429,0,0
-217,-405,0,0,0,0,0,0,0,0,0,-1,1007,1429,0,0
-210,-405,0,0,0,0,0,0,0,0,0,-1,1014,1429,0,0
-203,-405,0,0,0,0,0,0,0,0,0,-1,1021,1429,0,0
-196,-405,0,0,0,0,0,0,0,0,0,-1,1028,1429,0,0
-189,-405,0,0,0,0,0,0,0,0,0,-1,1035,1429,0,0
-182,-405,0,0,0,0,0,0,0,0,0,-1,1042,1429,0,0
-175,-405,0,0,0,0,0,0,0,0,0,-1,1049,1429,0,0
-168,-405,0,0,0,0,0,0,0,0,0,-1,1056,1429,0,0
-161,-405,0,0,0,0,0,0,0,0,0,-1,1063,1429,0,0
-154,-405,0,0,0,0,0,0,0,0,0,-1,1070,1429,0,0
-147,-405,0,0,0,0,0,0,0,0,0,-1,1077,1429,0,0
-140,-405,0,0,0,0,0,0,0,0,0,-1,1084,1429,0,0
-133,-405,0,0,0,0,0,0,0,0,0,-1,1091,1429,0,0
-126,-405,0,0,0,0,0,0,0,0,0,-1,1098,1429,0,0
-119,-405,0,0,0,0,0,0,0,0,0,-1,1105,1429,0,0
-112,-405,0,0,0,0,0,0,0,0,0,-1,1112,1429,0,0
-105,-405,0,0,0,0,0,0,0,0,0,-1,1119,1429,0,0
-98,-405,0,0,0,0,0,0,0,0,0,-1,1126,1429,0,0
-91,-405,0,0,0,0,0,0,0,0,0,-1,1133,1429,0,0
-84,-405,0,0,0,0,0,0,0,0,0,-1,1140,1429,0,0
-77,-405,0,0,0,0,0,0,0,0,0,-1,1147,1429,0,0
-70,-405,0,0,0,0,0,0,0,0,0,-1,1154,1429,0,0
-63,-405,0,0,0,0,0,0,0,0,0,-1,1161,1429,0,0
-56,-405,0,0,0,0,0,0,0,0,0,-1,1168,1429,0,0
-49,-405,0,0,0,0,0,0,0,0,0,-1,1175,1429,0,0
-42,-405,0,0,0,0,0,0,0,0,0,-1,1182,1429,0,0
-35,-405,0,0,0,0,0,0,0,0,0,-1,1189,1429,0,0
-28,-405,0,0,0,0,0,0,0,0,0,-1,1196,1429,0,0
-21,-405,0,0,0,0,0,0,0,0,0,-1,1203,1429,0,0
-14,-405,0,0,0,0,0,0,0,0,0,-1,1210,1429,0,0
-7,-405,0,0,0,0,0,0,0,0,0,-1,1217,1429,0,0
0,-405,0,0,0,0,0,0,0,0,0,-1,1224,1429,0,0
7,-405,0,0,0,0,0,0,0,0,0,-1,1231,1429,0,0
14,-405,0,0,0,0,0,0,0,0,0,-1,1238,1429,0,0
21,-405,0,0,0,0,0,0,0,0,0,-1,1245,1429,0,0
28,-405,0,0,0,0,0,0,0,0,0,-1,1252,1429,0,0
35,-405,0,0,0,0,0,0,0,0,0,-1,1259,1429,0,0
42,-405,0,0,0,0,0,0,0,0,0,-1,1266,1429,0,0
49,-405,0,0,0,0,0,0,0,0,0,-1,1273,1429,0,0
56,-405,0,0,0,0,0,0,0,0,0,-1,1280,1429,0,0
63,-405,0,0,0,0,0,0,0,0,0,-1,1287,1429,0,0
70,-405,0,0,0,0,0,0,0,0,0,-1,1294,1429,0,0
77,-405,0,0,0,0,0,0,0,0,0,-1,1301,1429,0,0
84,-405,0,0,0,0,0,0,0,0,0,-1,1308,1429,0,0
91,-405,0,0,0,0,0,0,0,0,0,-1,1315,1429,0,0
98,-405,0,0,0,0,0,0,0,0,0,-1,1322,1429,0,0
105,-405,0,0,0,0,0,0,0,0,0,-1,1329,1429,0,0
112,-405,0,0,0,0,0,0,0,0,0,-1,1336,1429,0,0
119,-405,0,0,0,0,0,0,0,0,0,-1,1343,1429,0,0
126,-405,0,0,0,0,0,0,0,0,0,-1,1350,1429,0,0
133,-405,0,0,0,0,0,0,0,0,0,-1,1357,1429,0,0
140,-405,0,0,0,0,0,0,0,0,0,-1,1364,1429,0,0
147,-405,0,0,0,0,0,0,0,0,0,-1,1371,1429,0,0
154,-405,0,0,0,0,0,0,0,0,0,-1,1378,1429,0,0
161,-405,0,0,0,0,0,0,0,0,0,-1,1385,1429,0,0
168,-405,0,0,0,0,0,0,0,0,0,-1,1392,1429,0,0
175,-405,0,0,0,0,0,0,0,0,0,-1,1399,1429,0,0
182,-405,0,0,0,0,0,0,0,0,0,-1,1406,1429,0,0
189,-405,0,0,0,0,0,0,0,0,0,-1,1413,1429,0,0
196,-405,0,0,0,0,0,0,0,0,0,-1,1420,1429,0,0
203,-405,0,0,0,0,0,0,0,0,0,-1,1427,1429,0,0
210,-405,0,0,0,0,0,0,0,0,0,-1,1434,1429,0,0
217,-405,0,0,0,0,0,0,0,0,0,-1,1441,1429,0,0
224,-405,0,0,0,0,0,0,0,0,0,-1,1448,1429,0,0
231,-405,0,0,0,0,0,0,0,0,0,-1,1455,1429,0,0
238,-405,0,0,0,0,0,0,0,0,0,-1,1462,1429,0,0
245,-405,0,0,0,0,0,0,0,0,0,-1,1469,1429,0,0
252,-405,0,0,0,0,0,0,0,0,0,-1,1476,1429,0,0
259,-405,0,0,0,0,0,0,0,0,0,-1,1483,1429,0,0
266,-405,0,0,0,0,0,0,0,0,0,-1,1490,1429,0,0
273,-405,0,0,0,0,0,0,0,0,0,-1,1497,1429,0,0
280,-405,0,0,0,0,0,0,0,0,0,-1,1504,1429,0,0
287,-405,0,0,0,0,0,0,0,0,0,-1,1511,1429,0,0
294,-405,0,0,0,0,0,0,0,0,0,-1,1518,1429,0,0
301,-405,0,0,0,0,0,0,0,0,0,-1,1525,1429,0,0
308,-405,0,0,0,0,0,0,0,0,0,-1,1532,1429,0,0
315,-405,0,0,0,0,0,0,0,0,0,-1,1539,1429,0,0
322,-405,0,0,0,0,0,0,0,0,0,-1,1546,1429,0,0
329,-405,0,0,0,0,0,0,0,0,0,-1,1553,1429,0,0
336,-405,0,0,0,0,0,0,0,0,0,-1,1560,1429,0,0
343,-405,0,0,0,0,0,0,0,0,0,-1,1567,1429,0,0
350,-405,0,0,0,0,0,0,0,0,0,-1,1574,1429,0,0
357,-405,0,0,0,0,0,0,0,0,0,-1,1581,1429,0,0
364,-405,0,0,0,0,0,0,0,0,0,-1,1588,1429,0,0
371,-405,0,0,0,0,0,0,0,0,0,-1,1595,1429,0,0
378,-405,0,0,0,0,0,0,0,0,0,-1,1602,1429,0,0
385,-405,0,0,0,0,0,0,0,0,0,-1,1609,1429,0,0
392,-405,0,0,0,0,0,0,0,0,0,-1,1616,1429,0,0
399,-405,0,0,0,0,0,0,0,0,0,-1,1623,1429,0,0
406,-405,0,0,0,0,0,0,0,0,0,-1,1630,1429,0,0
413,-405,0,0,0,0,0,0,0,0,0,-1,1637,1429,0,0
420,-405,0,0,0,0,0,0,0,0,0,-1,1644,1429,0,0
427,-405,0,0,0,0,0,0,0,0,0,-1,1651,1429,0,0
434,-405,0,0,0,0,0,0,0,0,0,-1,1658,1429,0,0
441,-405,0,0,0,0,0,0,0,0,0,-1,1665,1429,0,0
448,-405,0,0,0,0,0,0,0,0,0,-1,1672,1429,0,0
455,-405,0,0,0,0,0,0,0,0,0,-1,1679,1429,0,0
462,-405,0,0,0,0,0,0,0,0,0,-1,1686,1429,0,0
469,-405,0,0,0,0,0,0,0,0,0,-1,1693,1429,0,0
476,-405,0,0,0,0,0,0,0,0,0,-1,1700,1429,0,0
483,-405,0,0,0,0,0,0,0,0,0,-1,1707,1429,0,0
490,-405,0,0,0,0,0,0,0,0,0,-1,1714,1429,0,0
497,-405,0,0,0,0,0,0,0,0,0,-1,1721,1429,0,0
504,-405,0,0,0,0,0,0,0,0,0,-1,1728,1429,0,0
511,-405,0,0,0,0,0,0,0,0,0,-1,1735,1429,0,0
518,-405,0,0,0,0,0,0,0,0,0,-1,1742,1429,0,0
525,-405,14.6423,1.7583,0,0,0,0,0,0,0,-1,1749,1429,14.6424,-1.75824
532,-405,22.7542,1.85034,0,0,0,0,0,0,0,-1,1756,1429,22.7541,-1.85038
539,-405,21.1149,1.93384,0,0,0,0,0,0,0,-1,1763,1429,21.1149,-1.93381
546,-405,20.1537,2.11157,0,0,0,0,0,0,0,-1,1770,1429,20.1537,-2.11163
553,-405,19.1523,2.2356,0,0,0,0,0,0,0,-1,1777,1429,19.1523,-2.23566
560,-405,17.9702,2.44043,0,0,0,0,0,0,0,-1,1784,1429,17.9703,-2.44041
567,-405,16.8976,3.23425,0,0,0,0,0,0,0,-1,1791,1429,16.8976,-3.2343
574,-405,16.168,4.06287,0,0,0,0,0,0,0,-1,1798,1429,16.168,-4.06291
581,-405,15.5306,4.74963,0,0,0,0,0,0,0,-1,1805,1429,15.5306,-4.74958
588,-405,17.1189,7.43933,0,0,0,0,0,0,0,-1,1812,1429,17.1189,-7.43928
595,-405,15.2657,7.94604,0,0,0,0,0,0,0,-1,1819,1429,15.2657,-7.94602
602,-405,14.4534,8.04968,-0.0290608,-0.0250522,0.0187865,-0.00816338,-0.0459497,0.838541,0.0283071,0.041651,1826,1429,14.4534,-8.04971
609,-405,13.6244,8.18408,-0.0223195,-0.0162963,0.0145418,-0.00445753,-0.0341583,0.887505,0.0214413,0.0207739,1833,1429,13.6243,-8.18411
616,-405,13.5848,8.03589,-0.0163999,-0.0109208,0.010556,-0.0027546,-0.0245661,0.91236,0.0155408,0.00999663,1840,1429,13.5848,-8.03588
623,-405,13.5667,7.79285,-0.011378,-0.00733283,0.00724868,-0.00182986,-0.016881,0.921453,0.0106964,0.0094402,1847,1429,13.5666,-7.79283
630,-405,13.5719,7.55652,-0.00747133,-0.00507237,0.00486568,-0.0012605,-0.0112832,0.906247,0.00713916,0.00983953,1854,1429,13.5719,-7.55647
637,-405,13.5613,7.33594,-0.00479035,-0.00320312,0.00313336,-0.000764439,-0.00722904,0.90943,0.00458583,0.0106431,1861,1429,13.5613,-7.33588
644,-405,13.5824,7.03931,-0.00291569,-0.00208114,0.00206062,-0.000395965,-0.00460086,0.885298,0.00294414,0.0265467,1868,1429,13.5824,-7.03927
651,-405,13.6223,6.8446,-0.00156427,-0.0011607,0.00128221,-6.44989e-05,-0.00266047,0.863443,0.00175255,0.0299517,1875,1429,13.6223,-6.84456
658,-405,13.5879,6.69946,-0.000954605,-0.000814309,0.000938641,5.6802e-05,-0.00182572,0.822696,0.00123651,0.0222331,1882,1429,13.5879,-6.69952
665,-405,13.5905,6.4657,-0.000899824,-0.000924674,0.00104787,0.000135695,-0.00196019,0.77947,0.00135429,0.0171236,1889,1429,13.5904,-6.46565
672,-405,13.5918,6.22766,-0.00130728,-0.00143073,0.00144921,8.15233e-05,-0.00281953,0.764117,0.00190744,0.0226124,1896,1429,13.5918,-6.22769
679,-405,13.6107,5.9502,-0.00175796,-0.00235028,0.00199568,-3.65851e-05,-0.00407166,0.711736,0.00270233,0.0217694,1903,1429,13.6107,-5.9502
686,-405,13.568,5.71851,-0.00219045,-0.00393228,0.00272024,-0.000205113,-0.00591762,0.630474,0.00387851,0.035123,1910,1429,13.568,-5.7185
693,-405,13.5938,6.68237,0,0,0,0,0,0,0,-1,1917,1429,13.5937,-6.68243
700,-405,9.1958,4.02026,0,0,0,0,0,0,0,-1,1924,1429,9.19579,-4.02025
707,-405,7.40308,3.83191,0,0,0,0,0,0,0,-1,1931,1429,7.40311,-3.83194
714,-405,7.33252,3.47388,0,0,0,0,0,0,0,-1,1938,1429,7.33255,-3.47383
721,-405,9.23523,0.993896,0,0,0,0,0,0,0,-1,1945,1429,9.23523,-0.993884
728,-405,0,0,0,0,0,0,0,0,0,-1,1952,1429,0,0
735,-405,0,0,0,0,0,0,0,0,0,-1,1959,1429,0,0
742,-405,0,0,0,0,0,0,0,0,0,-1,1966,1429,0,0
749,-405,0,0,0,0,0,0,0,0,0,-1,1973,1429,0,0
756,-405,0,0,0,0,0,0,0,0,0,-1,1980,1429,0,0
763,-405,0,0,0,0,0,0,0,0,0,-1,1987,1429,0,0
770,-405,0,0,0,0,0,0,0,0,0,-1,1994,1429,0,0
777,-405,0,0,0,0,0,0,0,0,0,-1,2001,1429,0,0
784,-405,0,0,0,0,0,0,0,0,0,-1,2008,1429,0,0
791,-405,0,0,0,0,0,0,0,0,0,-1,2015,1429,0,0
798,-405,0,0,0,0,0,0,0,0,0,-1,2022,1429,0,0
805,-405,0,0,0,0,0,0,0,0,0,-1,2029,1429,0,0
812,-405,0,0,0,0,0,0,0,0,0,-1,2036,1429,0,0
-700,-412,0,0,0,0,0,0,0,0,0,-1,524,1436,0,0
-693,-412,0,0,0,0,0,0,0,0,0,-1,531,1436,0,0
-686,-412,0,0,0,0,0,0,0,0,0,-1,538,1436,0,0
-679,-412,0,0,0,0,0,0,0,0,0,-1,545,1436,0,0
-672,-412,0,0,0,0,0,0,0,0,0,-1,552,1436,0,0
-665,-412,0,0,0,0,0,0,0,0,0,-1,559,1436,0,0
-658,-412,0,0,0,0,0,0,0,0,0,-1,566,1436,0,0
-651,-412,0,0,0,0,0,0,0,0,0,-1,573,1436,0,0
-644,-412,0,0,0,0,0,0,0,0,0,-1,580,1436,0,0
-637,-412,0,0,0,0,0,0,0,0,0,-1,587,1436,0,0
-630,-412,0,0,0,0,0,0,0,0,0,-1,594,1436,0,0
-623,-412,0,0,0,0,0,0,0,0,0,-1,601,1436,0,0
-616,-412,0,0,0,0,0,0,0,0,0,-1,608,1436,0,0
-609,-412,0,0,0,0,0,0,0,0,0,-1,615,1436,0,0
-602,-412,-3.72766,-3.50012,0,0,0,0,0,0,0,-1,622,1436,-3.72764,3.50017
-595,-412,-3.48932,-2.58386,0,0,0,0,0,0,0,-1,629,1436,-3.48931,2.58391
-588,-412,-8.8241,1.72058,0,0,0,0,0,0,0,-1,636,1436,-8.82408,-1.72058
-581,-412,-7.11981,2.70435,0,0,0,0,0,0,0,-1,643,1436,-7.11979,-2.70437
-574,-412,-5.41547,3.68811,0,0,0,0,0,0,0,-1,650,1436,-5.41549,-3.68817
-567,-412,-4.06519,2.4209,0,0,0,0,0,0,0,-1,657,1436,-4.06521,-2.42089
-560,-412,-4.13654,3.49438,0,0,0,0,0,0,0,-1,664,1436,-4.13655,-3.49433
-553,-412,-4.12689,3.84302,0.00442116,-0.000855632,0.00360729,0.00625196,-0.00268643,0.469651,0.00529567,0.044647,671,1436,-4.12689,-3.84306
-546,-412,-4.22968,4.07373,0.00349218,-0.000482734,0.00283644,0.00496815,-0.00195871,0.479804,0.00412312,0.0343981,678,1436,-4.2297,-4.07379
-539,-412,-4.39935,4.24304,0.00285785,-0.000150552,0.00224514,0.00405611,-0.00134881,0.490252,0.0032484,0.0157626,685,1436,-4.39936,-4.24306
-532,-412,-4.40094,4.54565,0.00242757,0.000115548,0.00178436,0.00339766,-0.000854542,0.497965,0.00259724,0.013229,692,1436,-4.40097,-4.54569
-525,-412,-4.4032,4.82336,0.00219007,0.000170271,0.00136498,0.00287813,-0.00051779,0.466907,0.00211261,0.0153801,699,1436,-4.40319,-4.82333
-518,-412,-4.39227,5.07837,0.00210162,-5.45705e-05,0.000950658,0.0024609,-0.000413848,0.361332,0.00179453,0.0163957,706,1436,-4.39228,-5.07833
-511,-412,-4.41559,5.32959,0.00220672,-0.000334133,0.000659518,0.0023677,-0.000495122,0.239418,0.00176679,0.0186676,713,1436,-4.41558,-5.32959
-504,-412,-4.42401,5.56482,0.00194329,-0.00101969,6.96759e-06,0.00194331,-0.0010197,0.00235153,0.00173818,0.0173432,720,1436,-4.42402,-5.56484
-497,-412,-4.4035,5.83362,0.00137975,-0.00156579,-0.00156236,0.00205407,-0.00224012,-0.407454,0.00248003,0.0135176,727,1436,-4.40352,-5.83364
-490,-412,-4.40051,6.09302,0.00141819,-0.00329917,-0.00401518,0.00371623,-0.00559721,-0.519832,0.00541355,0.0130553,734,1436,-4.4005,-6.09305
-483,-412,-4.4126,6.32556,0.0021614,-0.00692217,-0.0076708,0.00653415,-0.0112949,-0.518108,0.0104152,0.00898168,741,1436,-4.41263,-6.32559
-476,-412,-4.33948,6.63721,0.00244506,-0.0103817,-0.0121318,0.00975436,-0.017691,-0.542249,0.0160649,0.0163109,748,1436,-4.33945,-6.63719
-469,-412,-4.33777,6.77881,0.00283227,-0.0151166,-0.0184251,0.0143523,-0.0266367,-0.558769,0.0240166,0.0285757,755,1436,-4.33778,-6.77881
-462,-412,-4.53125,6.92688,0,0,0,0,0,0,0,-1,762,1436,-4.53124,-6.92692
-455,-412,-5.10718,6.72986,0,0,0,0,0,0,0,-1,769,1436,-5.1072,-6.72986
-448,-412,-5.68317,6.53284,0,0,0,0,0,0,0,-1,776,1436,-5.68316,-6.53279
-441,-412,-7.19946,5.18103,0,0,0,0,0,0,0,-1,783,1436,-7.19949,-5.18107
-434,-412,-8.68597,5.14258,0,0,0,0,0,0,0,-1,790,1436,-8.68596,-5.14261
-427,-412,-10.0004,5.15271,0,0,0,0,0,0,0,-1,797,1436,-10.0004,-5.15266
-420,-412,-10.4468,4.9043,0,0,0,0,0,0,0,-1,804,1436,-10.4468,-4.90429
-413,-412,-11.5704,4.97766,0,0,0,0,0,0,0,-1,811,1436,-11.5704,-4.97771
-406,-412,-13.1968,5.70093,0,0,0,0,0,0,0,-1,818,1436,-13.1968,-5.70096
-399,-412,-10.5506,0.771973,0,0,0,0,0,0,0,-1,825,1436,-10.5506,-0.771954
-392,-412,0,0,0,0,0,0,0,0,0,-1,832,1436,0,0
-385,-412,0,0,0,0,0,0,0,0,0,-1,839,1436,0,0
-378,-412,0,0,0,0,0,0,0,0,0,-1,846,1436,0,0
-371,-412,0,0,0,0,0,0,0,0,0,-1,853,1436,0,0
-364,-412,0,0,0,0,0,0,0,0,0,-1,860,1436,0,0
-357,-412,0,0,0,0,0,0,0,0,0,-1,867,1436,0,0
-350,-412,0,0,0,0,0,0,0,0,0,-1,874,1436,0,0
-343,-412,0,0,0,0,0,0,0,0,0,-1,881,1436,0,0
-336,-412,0,0,0,0,0,0,0,0,0,-1,888,1436,0,0
-329,-412,0,0,0,0,0,0,0,0,0,-1,895,1436,0,0
-322,-412,0,0,0,0,0,0,0,0,0,-1,902,1436,0,0
-315,-412,0,0,0,0,0,0,0,0,0,-1,909,1436,0,0
-308,-412,0,0,0,0,0,0,0,0,0,-1,916,1436,0,0
-301,-412,0,0,0,0,0,0,0,0,0,-1,923,1436,0,0
-294,-412,0,0,0,0,0,0,0,0,0,-1,930,1436,0,0
-287,-412,0,0,0,0,0,0,0,0,0,-1,937,1436,0,0
-280,-412,0,0,0,0,0,0,0,0,0,-1,944,1436,0,0
-273,-412,0,0,0,0,0,0,0,0,0,-1,951,1436,0,0
-266,-412,0,0,0,0,0,0,0,0,0,-1,958,1436,0,0
-259,-412,0,0,0,0,0,0,0,0,0,-1,965,1436,0,0
-252,-412,0,0,0,0,0,0,0,0,0,-1,972,1436,0,0
-245,-412,0,0,0,0,0,0,0,0,0,-1,979,1436,0,0
-238,-412,0,0,0,0,0,0,0,0,0,-1,986,1436,0,0
-231,-412,0,0,0,0,0,0,0,0,0,-1,993,1436,0,0
-224,-412,0,0,0,0,0,0,0,0,0,-1,1000,1436,0,0
-217,-412,0,0,0,0,0,0,0,0,0,-1,1007,1436,0,0
-210,-412,0,0,0,0,0,0,0,0,0,-1,1014,1436,0,0
-203,-412,0,0,0,0,0,0,0,0,0,-1,1021,1436,0,0
-196,-412,0,0,0,0,0,0,0,0,0,-1,1028,1436,0,0
-189,-412,0,0,0,0,0,0,0,0,0,-1,1035,1436,0,0
-182,-412,0,0,0,0,0,0,0,0,0,-1,1042,1436,0,0
-175,-412,0,0,0,0,0,0,0,0,0,-1,1049,1436,0,0
-168,-412,0,0,0,0,0,0,0,0,0,-1,1056,1436,0,0
-161,-412,0,0,0,0,0,0,0,0,0,-1,1063,1436,0,0
-154,-412,0,0,0,0,0,0,0,0,0,-1,1070,1436,0,0
-147,-412,0,0,0,0,0,0,0,0,0,-1,1077,1436,0,0
-140,-412,0,0,0,0,0,0,0,0,0,-1,1084,1436,0,0
-133,-412,0,0,0,0,0,0,0,0,0,-1,1091,1436,0,0
-126,-412,0,0,0,0,0,0,0,0,0,-1,1098,1436,0,0
-119,-412,0,0,0,0,0,0,0,0,0,-1,1105,1436,0,0
-112,-412,0,0,0,0,0,0,0,0,0,-1,1112,1436,0,0
-105,-412,0,0,0,0,0,0,0,0,0,-1,1119,1436,0,0
-98,-412,0,0,0,0,0,0,0,0,0,-1,1126,1436,0,0
-91,-412,0,0,0,0,0,0,0,0,0,-1,1133,1436,0,0
-84,-412,0,0,0,0,0,0,0,0,0,-1,1140,1436,0,0
-77,-412,0,0,0,0,0,0,0,0,0,-1,1147,1436,0,0
-70,-412,0,0,0,0,0,0,0,0,0,-1,1154,1436,0,0
-63,-412,0,0,0,0,0,0,0,0,0,-1,1161,1436,0,0
-56,-412,0,0,0,0,0,0,0,0,0,-1,1168,1436,0,0
-49,-412,0,0,0,0,0,0,0,0,0,-1,1175,1436,0,0
-42,-412,0,0,0,0,0,0,0,0,0,-1,1182,1436,0,0
-35,-412,0,0,0,0,0,0,0,0,0,-1,1189,1436,0,0
-28,-412,0,0,0,0,0,0,0,0,0,-1,1196,1436,0,0
-21,-412,0,0,0,0,0,0,0,0,0,-1,1203,1436,0,0
-14,-412,0,0,0,0,0,0,0,0,0,-1,1210,1436,0,0
-7,-412,0,0,0,0,0,0,0,0,0,-1,1217,1436,0,0
0,-412,0,0,0,0,0,0,0,0,0,-1,1224,1436,0,0
7,-412,0,0,0,0,0,0,0,0,0,-1,1231,1436,0,0
14,-412,0,0,0,0,0,0,0,0,0,-1,1238,1436,0,0
21,-412,0,0,0,0,0,0,0,0,0,-1,1245,1436,0,0
28,-412,0,0,0,0,0,0,0,0,0,-1,1252,1436,0,0
35,-412,0,0,0,0,0,0,0,0,0,-1,1259,1436,0,0
42,-412,0,0,0,0,0,0,0,0,0,-1,1266,1436,0,0
49,-412,0,0,0,0,0,0,0,0,0,-1,1273,1436,0,0
56,-412,0,0,0,0,0,0,0,0,0,-1,1280,1436,0,0
63,-412,0,0,0,0,0,0,0,0,0,-1,1287,1436,0,0
70,-412,0,0,0,0,0,0,0,0,0,-1,1294,1436,0,0
77,-412,0,0,0,0,0,0,0,0,0,-1,1301,1436,0,0
84,-412,0,0,0,0,0,0,0,0,0,-1,1308,1436,0,0
91,-412,0,0,0,0,0,0,0,0,0,-1,1315,1436,0,0
98,-412,0,0,0,0,0,0,0,0,0,-1,1322,1436,0,0
105,-412,0,0,0,0,0,0,0,0,0,-1,1329,1436,0,0
112,-412,0,0,0,0,0,0,0,0,0,-1,1336,1436,0,0
119,-412,0,0,0,0,0,0,0,0,0,-1,1343,1436,0,0
126,-412,0,0,0,0,0,0,0,0,0,-1,1350,1436,0,0
133,-412,0,0,0,0,0,0,0,0,0,-1,1357,1436,0,0
140,-412,0,0,0,0,0,0,0,0,0,-1,1364,1436,0,0
147,-412,0,0,0,0,0,0,0,0,0,-1,1371,1436,0,0
154,-412,0,0,0,0,0,0,0,0,0,-1,1378,1436,0,0
161,-412,0,0,0,0,0,0,0,0,0,-1,1385,1436,0,0
168,-412,0,0,0,0,0,0,0,0,0,-1,1392,1436,0,0
175,-412,0,0,0,0,0,0,0,0,0,-1,1399,1436,0,0
182,-412,0,0,0,0,0,0,0,0,0,-1,1406,1436,0,0
189,-412,0,0,0,0,0,0,0,0,0,-1,1413,1436,0,0
196,-412,0,0,0,0,0,0,0,0,0,-1,1420,1436,0,0
203,-412,0,0,0,0,0,0,0,0,0,-1,1427,1436,0,0
210,-412,0,0,0,0,0,0,0,0,0,-1,1434,1436,0,0
217,-412,0,0,0,0,0,0,0,0,0,-1,1441,1436,0,0
224,-412,0,0,0,0,0,0,0,0,0,-1,1448,1436,0,0
231,-412,0,0,0,0,0,0,0,0,0,-1,1455,1436,0,0
238,-412,0,0,0,0,0,0,0,0,0,-1,1462,1436,0,0
245,-412,0,0,0,0,0,0,0,0,0,-1,1469,1436,0,0
252,-412,0,0,0,0,0,0,0,0,0,-1,1476,1436,0,0
259,-412,0,0,0,0,0,0,0,0,0,-1,1483,1436,0,0
266,-412,0,0,0,0,0,0,0,0,0,-1,1490,1436,0,0
273,-412,0,0,0,0,0,0,0,0,0,-1,1497,1436,0,0
280,-412,0,0,0,0,0,0,0,0,0,-1,1504,1436,0,0
287,-412,0,0,0,0,0,0,0,0,0,-1,1511,1436,0,0
294,-412,0,0,0,0,0,0,0,0,0,-1,1518,1436,0,0
301,-412,0,0,0,0,0,0,0,0,0,-1,1525,1436,0,0
308,-412,0,0,0,0,0,0,0,0,0,-1,1532,1436,0,0
315,-412,0,0,0,0,0,0,0,0,0,-1,1539,1436,0,0
322,-412,0,0,0,0,0,0,0,0,0,-1,1546,1436,0,0
329,-412,0,0,0,0,0,0,0,0,0,-1,1553,1436,0,0
336,-412,0,0,0,0,0,0,0,0,0,-1,1560,1436,0,0
343,-412,0,0,0,0,0,0,0,0,0,-1,1567,1436,0,0
350,-412,0,0,0,0,0,0,0,0,0,-1,1574,1436,0,0
357,-412,0,0,0,0,0,0,0,0,0,-1,1581,1436,0,0
364,-412,0,0,0,0,0,0,0,0,0,-1,1588,1436,0,0
371,-412,0,0,0,0,0,0,0,0,0,-1,1595,1436,0,0
378,-412,0,0,0,0,0,0,0,0,0,-1,1602,1436,0,0
385,-412,0,0,0,0,0,0,0,0,0,-1,1609,1436,0,0
392,-412,0,0,0,0,0,0,0,0,0,-1,1616,1436,0,0
399,-412,0,0,0,0,0,0,0,0,0,-1,1623,1436,0,0
406,-412,0,0,0,0,0,0,0,0,0,-1,1630,1436,0,0
413,-412,0,0,0,0,0,0,0,0,0,-1,1637,1436,0,0
420,-412,0,0,0,0,0,0,0,0,0,-1,1644,1436,0,0
427,-412,0,0,0,0,0,0,0,0,0,-1,1651,1436,0,0
434,-412,0,0,0,0,0,0,0,0,0,-1,1658,1436,0,0
441,-412,0,0,0,0,0,0,0,0,0,-1,1665,1436,0,0
448,-412,0,0,0,0,0,0,0,0,0,-1,1672,1436,0,0
455,-412,0,0,0,0,0,0,0,0,0,-1,1679,1436,0,0
462,-412,0,0,0,0,0,0,0,0,0,-1,1686,1436,0,0
469,-412,0,0,0,0,0,0,0,0,0,-1,1693,1436,0,0
476,-412,0,0,0,0,0,0,0,0,0,-1,1700,1436,0,0
483,-412,0,0,0,0,0,0,0,0,0,-1,1707,1436,0,0
490,-412,0,0,0,0,0,0,0,0,0,-1,1714,1436,0,0
497,-412,0,0,0,0,0,0,0,0,0,-1,1721,1436,0,0
504,-412,0,0,0,0,0,0,0,0,0,-1,1728,1436,0,0
511,-412,0,0,0,0,0,0,0,0,0,-1,1735,1436,0,0
518,-412,13.5378,1.3866,0,0,0,0,0,0,0,-1,1742,1436,13.5379,-1.38663
525,-412,22.8384,2.03333,0,0,0,0,0,0,0,-1,1749,1436,22.8384,-2.03331
532,-412,21.8945,2.29199,0,0,0,0,0,0,0,-1,1756,1436,21.8946,-2.29203
539,-412,20.7961,2.47241,0,0,0,0,0,0,0,-1,1763,1436,20.7962,-2.47239
546,-412,19.4315,2.4071,0,0,0,0,0,0,0,-1,1770,1436,19.4315,-2.40706
553,-412,18.1896,2.19727,0,0,0,0,0,0,0,-1,1777,1436,18.1896,-2.19725
560,-412,16.8402,2.41418,0,0,0,0,0,0,0,-1,1784,1436,16.8402,-2.41425
567,-412,15.9099,3.43774,0,0,0,0,0,0,0,-1,1791,1436,15.9099,-3.43772
574,-412,15.1012,4.30872,0,0,0,0,0,0,0,-1,1798,1436,15.1012,-4.30869
581,-412,13.5082,7.22974,0,0,0,0,0,0,0,-1,1805,1436,13.5082,-7.22971
588,-412,15.0737,7.6272,0,0,0,0,0,0,0,-1,1812,1436,15.0737,-7.6272
595,-412,14.4155,7.99463,-0.0296894,-0.0310501,0.019729,-0.010629,-0.0501105,0.768163,0.030488,0.0428038,1819,1436,14.4156,-7.99464
602,-412,13.6003,8.41797,-0.023502,-0.0215614,0.0154948,-0.00700657,-0.0380568,0.816668,0.0233882,0.0237147,1826,1436,13.6004,-8.41794
609,-412,13.3717,8.26331,-0.0184416,-0.0138501,0.0122887,-0.00364457,-0.0286472,0.877742,0.0180066,0.00920719,1833,1436,13.3716,-8.26327
616,-412,13.3365,8.04614,-0.0137245,-0.00919169,0.00903763,-0.00214062,-0.0207756,0.908252,0.0131948,0.00731883,1840,1436,13.3365,-8.04619
623,-412,13.3356,7.80396,-0.00958841,-0.00609833,0.00623608,-0.00136773,-0.014319,0.921824,0.00912432,0.00898764,1847,1436,13.3355,-7.80397
630,-412,13.3628,7.54675,-0.00633766,-0.00413633,0.00414476,-0.000948587,-0.00952541,0.91518,0.00605888,0.0107886,1854,1436,13.3628,-7.54672
637,-412,13.3456,7.33411,-0.00399022,-0.00246352,0.00257868,-0.000537576,-0.00591616,0.929301,0.00377769,0.0122943,1861,1436,13.3455,-7.33407
644,-412,13.3535,7.09863,-0.00232908,-0.00148396,0.00158787,-0.000263386,-0.00354966,0.915443,0.00228371,0.0135818,1868,1436,13.3535,-7.09859
651,-412,13.3623,6.85742,-0.00118081,-0.000635087,0.000858181,-7.43213e-06,-0.00180846,0.93932,0.00120317,0.0240055,1875,1436,13.3623,-6.85738
658,-412,13.3364,6.66711,-0.000823822,-0.00028129,0.000564069,7.33504e-05,-0.00117846,1.00953,0.000811198,0.0158869,1882,1436,13.3365,-6.66705
665,-412,13.3589,6.46704,-0.00102546,-0.000288037,0.000650203,9.07222e-05,-0.00140422,1.04333,0.000967805,0.0203289,1889,1436,13.3589,-6.46704
672,-412,13.389,6.24597,-0.00175352,-0.00069223,0.00106199,-3.56924e-05,-0.00241006,1.01709,0.00159494,0.0260371,1896,1436,13.3891,-6.24596
679,-412,13.4246,5.95227,-0.00262903,-0.00144693,0.0016153,-0.000317944,-0.00375801,0.960786,0.00240637,0.0348912,1903,1436,13.4246,-5.95229
686,-412,13.4218,5.60071,0,0,0,0,0,0,0,-1,1910,1436,13.4217,-5.60067
693,-412,11.9346,6.02344,0,0,0,0,0,0,0,-1,1917,1436,11.9346,-6.02343
700,-412,8.82764,5.8844,0,0,0,0,0,0,0,-1,1924,1436,8.82761,-5.88444
707,-412,6.59998,1.68994,0,0,0,0,0,0,0,-1,1931,1436,6.60002,-1.68995
714,-412,4.77283,-2.39832,0,0,0,0,0,0,0,-1,1938,1436,4.77288,2.39835
721,-412,0,0,0,0,0,0,0,0,0,-1,1945,1436,0,0
728,-412,0,0,0,0,0,0,0,0,0,-1,1952,1436,0,0
735,-412,0,0,0,0,0,0,0,0,0,-1,1959,1436,0,0
742,-412,0,0,0,0,0,0,0,0,0,-1,1966,1436,0,0
749,-412,0,0,0,0,0,0,0,0,0,-1,1973,1436,0,0
756,-412,0,0,0,0,0,0,0,0,0,-1,1980,1436,0,0
763,-412,0,0,0,0,0,0,0,0,0,-1,1987,1436,0,0
770,-412,0,0,0,0,0,0,0,0,0,-1,1994,1436,0,0
777,-412,0,0,0,0,0,0,0,0,0,-1,2001,1436,0,0
784,-412,0,0,0,0,0,0,0,0,0,-1,2008,1436,0,0
791,-412,0,0,0,0,0,0,0,0,0,-1,2015,1436,0,0
798,-412,0,0,0,0,0,0,0,0,0,-1,2022,1436,0,0
805,-412,0,0,0,0,0,0,0,0,0,-1,2029,1436,0,0
812,-412,0,0,0,0,0,0,0,0,0,-1,2036,1436,0,0
-700,-419,0,0,0,0,0,0,0,0,0,-1,524,1443,0,0
-693,-419,0,0,0,0,0,0,0,0,0,-1,531,1443,0,0
-686,-419,0,0,0,0,0,0,0,0,0,-1,538,1443,0,0
-679,-419,0,0,0,0,0,0,0,0,0,-1,545,1443,0,0
-672,-419,0,0,0,0,0,0,0,0,0,-1,552,1443,0,0
-665,-419,0,0,0,0,0,0,0,0,0,-1,559,1443,0,0
-658,-419,0,0,0,0,0,0,0,0,0,-1,566,1443,0,0
-651,-419,0,0,0,0,0,0,0,0,0,-1,573,1443,0,0
-644,-419,0,0,0,0,0,0,0,0,0,-1,580,1443,0,0
-637,-419,0,0,0,0,0,0,0,0,0,-1,587,1443,0,0
-630,-419,0,0,0,0,0,0,0,0,0,-1,594,1443,0,0
-623,-419,0,0,0,0,0,0,0,0,0,-1,601,1443,0,0
-616,-419,0,0,0,0,0,0,0,0,0,-1,608,1443,0,0
-609,-419,0,0,0,0,0,0,0,0,0,-1,615,1443,0,0
-602,-419,0,0,0,0,0,0,0,0,0,-1,622,1443,0,0
-595,-419,-4.27423,-0.479492,0,0,0,0,0,0,0,-1,629,1443,-4.27421,0.479525
-588,-419,-3.75415,0.426147,0,0,0,0,0,0,0,-1,636,1443,-3.75414,-0.426145
-581,-419,-7.65991,1.80701,0,0,0,0,0,0,0,-1,643,1443,-7.65989,-1.80706
-574,-419,-2.68231,0.384277,0,0,0,0,0,0,0,-1,650,1443,-2.68231,-0.384297
-567,-419,-6.14038,3.22498,0,0,0,0,0,0,0,-1,657,1443,-6.14037,-3.22497
-560,-419,-4.0744,3.57349,0,0,0,0,0,0,0,-1,664,1443,-4.0744,-3.57353
-553,-419,-3.8844,3.94421,0.0129452,-0.00165477,0.00761667,0.0161952,-0.00490483,0.403313,0.0127502,0.043839,671,1443,-3.88439,-3.9442
-546,-419,-3.76996,4.29016,0.00999841,-0.000766471,0.00568148,0.0124422,-0.00321026,0.40621,0.00954654,0.0413056,678,1443,-3.76998,-4.29019
-539,-419,-4.01813,4.31702,0.00780077,-0.000122972,0.00425299,0.00965133,-0.00197353,0.41041,0.00718301,0.0318057,685,1443,-4.01812,-4.31703
-532,-419,-4.14276,4.53821,0.00611816,0.000322734,0.00320637,0.0075422,-0.00110131,0.41796,0.00543258,0.0155788,692,1443,-4.14277,-4.53818
-525,-419,-4.12433,4.83521,0.00483618,0.000509924,0.00236572,0.00587864,-0.000532531,0.415051,0.00410812,0.0131098,699,1443,-4.12436,-4.83522
-518,-419,-4.11707,5.08264,0.00389637,0.000346409,0.0016588,0.00455083,-0.000308046,0.375788,0.00314161,0.0162779,706,1443,-4.11708,-5.08266
-511,-419,-4.13177,5.34363,0.00328998,6.49037e-05,0.00115134,0.00365882,-0.000303935,0.310027,0.00254658,0.017673,713,1443,-4.13175,-5.34359
-504,-419,-4.16351,5.57727,0.00249699,-0.000597951,0.000384223,0.00254398,-0.000644937,0.121685,0.0019469,0.0174103,720,1443,-4.16353,-5.57722
-497,-419,-4.14575,5.82825,0.00147529,-0.00108315,-0.00125091,0.00198525,-0.00159311,-0.387104,0.0020701,0.0130611,727,1443,-4.14576,-5.82819
-490,-419,-4.14154,6.09595,0.00127399,-0.00272982,-0.00356073,0.00335699,-0.00481281,-0.52931,0.00474173,0.010681,734,1443,-4.14155,-6.09598
-483,-419,-4.1449,6.32947,0.00180881,-0.00609427,-0.0068847,0.00579539,-0.0100809,-0.524872,0.0092768,0.00910755,741,1443,-4.14492,-6.32947
-476,-419,-4.14063,6.59253,0.00200951,-0.00933496,-0.0108609,0.00859021,-0.0159157,-0.54475,0.0143576,0.00991657,748,1443,-4.14063,-6.59255
-469,-419,-4.10846,6.87598,0.00251014,-0.0136858,-0.0163592,0.0126659,-0.0238416,-0.555574,0.0214043,0.0157607,755,1443,-4.10846,-6.87601
-462,-419,-4.07648,7.06738,0,0,0,0,0,0,0,-1,762,1443,-4.07649,-7.06733
-455,-419,-4.35748,7.09546,0.00438247,-0.0271158,-0.0338168,0.0259376,-0.048671,-0.567474,0.0437368,0.0419706,769,1443,-4.3575,-7.09552
-448,-419,-5.14032,7.11816,0.00612937,-0.0372517,-0.046614,0.0358523,-0.0669746,-0.567637,0.0602667,0.0455055,776,1443,-5.14031,-7.11814
-441,-419,-5.97858,7.02454,0,0,0,0,0,0,0,-1,783,1443,-5.97857,-7.0245
-434,-419,-3.94873,3.65662,0,0,0,0,0,0,0,-1,790,1443,-3.94872,-3.65663
-427,-419,-7.5979,6.1925,0,0,0,0,0,0,0,-1,797,1443,-7.59788,-6.19245
-420,-419,-8.74091,6.36597,0,0,0,0,0,0,0,-1,804,1443,-8.74089,-6.366
-413,-419,-9.88391,6.53955,0,0,0,0,0,0,0,-1,811,1443,-9.8839,-6.53955
-406,-419,-10.3372,2.75195,0,0,0,0,0,0,0,-1,818,1443,-10.3372,-2.75201
-399,-419,-11.5999,1.40002,0,0,0,0,0,0,0,-1,825,1443,-11.5999,-1.39998
-392,-419,0,0,0,0,0,0,0,0,0,-1,832,1443,0,0
-385,-419,0,0,0,0,0,0,0,0,0,-1,839,1443,0,0
-378,-419,0,0,0,0,0,0,0,0,0,-1,846,1443,0,0
-371,-419,0,0,0,0,0,0,0,0,0,-1,853,1443,0,0
-364,-419,0,0,0,0,0,0,0,0,0,-1,860,1443,0,0
-357,-419,0,0,0,0,0,0,0,0,0,-1,867,1443,0,0
-350,-419,0,0,0,0,0,0,0,0,0,-1,874,1443,0,0
-343,-419,0,0,0,0,0,0,0,0,0,-1,881,1443,0,0
-336,-419,0,0,0,0,0,0,0,0,0,-1,888,1443,0,0
-329,-419,0,0,0,0,0,0,0,0,0,-1,895,1443,0,0
-322,-419,0,0,0,0,0,0,0,0,0,-1,902,1443,0,0
-315,-419,0,0,0,0,0,0,0,0,0,-1,909,1443,0,0
-308,-419,0,0,0,0,0,0,0,0,0,-1,916,1443,0,0
-301,-419,0,0,0,0,0,0,0,0,0,-1,923,1443,0,0
-294,-419,0,0,0,0,0,0,0,0,0,-1,930,1443,0,0
-287,-419,0,0,0,0,0,0,0,0,0,-1,937,1443,0,0
-280,-419,0,0,0,0,0,0,0,0,0,-1,944,1443,0,0
-273,-419,0,0,0,0,0,0,0,0,0,-1,951,1443,0,0
-266,-419,0,0,0,0,0,0,0,0,0,-1,958,1443,0,0
-259,-419,0,0,0,0,0,0,0,0,0,-1,965,1443,0,0
-252,-419,0,0,0,0,0,0,0,0,0,-1,972,1443,0,0
-245,-419,0,0,0,0,0,0,0,0,0,-1,979,1443,0,0
-238,-419,0,0,0,0,0,0,0,0,0,-1,986,1443,0,0
-231,-419,0,0,0,0,0,0,0,0,0,-1,993,1443,0,0
-224,-419,0,0,0,0,0,0,0,0,0,-1,1000,1443,0,0
-217,-419,0,0,0,0,0,0,0,0,0,-1,1007,1443,0,0
-210,-419,0,0,0,0,0,0,0,0,0,-1,1014,1443,0,0
-203,-419,0,0,0,0,0,0,0,0,0,-1,1021,1443,0,0
-196,-419,0,0,0,0,0,0,0,0,0,-1,1028,1443,0,0
-189,-419,0,0,0,0,0,0,0,0,0,-1,1035,1443,0,0
-182,-419,0,0,0,0,0,0,0,0,0,-1,1042,1443,0,0
-175,-419,0,0,0,0,0,0,0,0,0,-1,1049,1443,0,0
-168,-419,0,0,0,0,0,0,0,0,0,-1,1056,1443,0,0
-161,-419,0,0,0,0,0,0,0,0,0,-1,1063,1443,0,0
-154,-419,0,0,0,0,0,0,0,0,0,-1,1070,1443,0,0
-147,-419,0,0,0,0,0,0,0,0,0,-1,1077,1443,0,0
-140,-419,0,0,0,0,0,0,0,0,0,-1,1084,1443,0,0
-133,-419,0,0,0,0,0,0,0,0,0,-1,1091,1443,0,0
-126,-419,0,0,0,0,0,0,0,0,0,-1,1098,1443,0,0
-119,-419,0,0,0,0,0,0,0,0,0,-1,1105,1443,0,0
-112,-419,0,0,0,0,0,0,0,0,0,-1,1112,1443,0,0
-105,-419,0,0,0,0,0,0,0,0,0,-1,1119,1443,0,0
-98,-419,0,0,0,0,0,0,0,0,0,-1,1126,1443,0,0
-91,-419,0,0,0,0,0,0,0,0,0,-1,1133,1443,0,0
-84,-419,0,0,0,0,0,0,0,0,0,-1,1140,1443,0,0
-77,-419,0,0,0,0,0,0,0,0,0,-1,1147,1443,0,0
-70,-419,0,0,0,0,0,0,0,0,0,-1,1154,1443,0,0
-63,-419,0,0,0,0,0,0,0,0,0,-1,1161,1443,0,0
-56,-419,0,0,0,0,0,0,0,0,0,-1,1168,1443,0,0
-49,-419,0,0,0,0,0,0,0,0,0,-1,1175,1443,0,0
-42,-419,0,0,0,0,0,0,0,0,0,-1,1182,1443,0,0
-35,-419,0,0,0,0,0,0,0,0,0,-1,1189,1443,0,0
-28,-419,0,0,0,0,0,0,0,0,0,-1,1196,1443,0,0
-21,-419,0,0,0,0,0,0,0,0,0,-1,1203,1443,0,0
-14,-419,0,0,0,0,0,0,0,0,0,-1,1210,1443,0,0
-7,-419,0,0,0,0,0,0,0,0,0,-1,1217,1443,0,0
0,-419,0,0,0,0,0,0,0,0,0,-1,1224,1443,0,0
7,-419,0,0,0,0,0,0,0,0,0,-1,1231,1443,0,0
14,-419,0,0,0,0,0,0,0,0,0,-1,1238,1443,0,0
21,-419,0,0,0,0,0,0,0,0,0,-1,1245,1443,0,0
28,-419,0,0,0,0,0,0,0,0,0,-1,1252,1443,0,0
35,-419,0,0,0,0,0,0,0,0,0,-1,1259,1443,0,0
42,-419,0,0,0,0,0,0,0,0,0,-1,1266,1443,0,0
49,-419,0,0,0,0,0,0,0,0,0,-1,1273,1443,0,0
56,-419,0,0,0,0,0,0,0,0,0,-1,1280,1443,0,0
63,-419,0,0,0,0,0,0,0,0,0,-1,1287,1443,0,0
70,-419,0,0,0,0,0,0,0,0,0,-1,1294,1443,0,0
77,-419,0,0,0,0,0,0,0,0,0,-1,1301,1443,0,0
84,-419,0,0,0,0,0,0,0,0,0,-1,1308,1443,0,0
91,-419,0,0,0,0,0,0,0,0,0,-1,1315,1443,0,0
98,-419,0,0,0,0,0,0,0,0,0,-1,1322,1443,0,0
105,-419,0,0,0,0,0,0,0,0,0,-1,1329,1443,0,0
112,-419,0,0,0,0,0,0,0,0,0,-1,1336,1443,0,0
119,-419,0,0,0,0,0,0,0,0,0,-1,1343,1443,0,0
126,-419,0,0,0,0,0,0,0,0,0,-1,1350,1443,0,0
133,-419,0,0,0,0,0,0,0,0,0,-1,1357,1443,0,0
140,-419,0,0,0,0,0,0,0,0,0,-1,1364,1443,0,0
147,-419,0,0,0,0,0,0,0,0,0,-1,1371,1443,0,0
154,-419,0,0,0,0,0,0,0,0,0,-1,1378,1443,0,0
161,-419,0,0,0,0,0,0,0,0,0,-1,1385,1443,0,0
168,-419,0,0,0,0,0,0,0,0,0,-1,1392,1443,0,0
175,-419,0,0,0,0,0,0,0,0,0,-1,1399,1443,0,0
182,-419,0,0,0,0,0,0,0,0,0,-1,1406,1443,0,0
189,-419,0,0,0,0,0,0,0,0,0,-1,1413,1443,0,0
196,-419,0,0,0,0,0,0,0,0,0,-1,1420,1443,0,0
203,-419,0,0,0,0,0,0,0,0,0,-1,1427,1443,0,0
210,-419,0,0,0,0,0,0,0,0,0,-1,1434,1443,0,0
217,-419,0,0,0,0,0,0,0,0,0,-1,1441,1443,0,0
224,-419,0,0,0,0,0,0,0,0,0,-1,1448,1443,0,0
231,-419,0,0,0,0,0,0,0,0,0,-1,1455,1443,0,0
238,-419,0,0,0,0,0,0,0,0,0,-1,1462,1443,0,0
245,-419,0,0,0,0,0,0,0,0,0,-1,1469,1443,0,0
252,-419,0,0,0,0,0,0,0,0,0,-1,1476,1443,0,0
259,-419,0,0,0,0,0,0,0,0,0,-1,1483,1443,0,0
266,-419,0,0,0,0,0,0,0,0,0,-1,1490,1443,0,0
273,-419,0,0,0,0,0,0,0,0,0,-1,1497,1443,0,0
280,-419,0,0,0,0,0,0,0,0,0,-1,1504,1443,0,0
287,-419,0,0,0,0,0,0,0,0,0,-1,1511,1443,0,0
294,-419,0,0,0,0,0,0,0,0,0,-1,1518,1443,0,0
301,-419,0,0,0,0,0,0,0,0,0,-1,1525,1443,0,0
308,-419,0,0,0,0,0,0,0,0,0,-1,1532,1443,0,0
315,-419,0,0,0,0,0,0,0,0,0,-1,1539,1443,0,0
322,-419,0,0,0,0,0,0,0,0,0,-1,1546,1443,0,0
329,-419,0,0,0,0,0,0,0,0,0,-1,1553,1443,0,0
336,-419,0,0,0,0,0,0,0,0,0,-1,1560,1443,0,0
343,-419,0,0,0,0,0,0,0,0,0,-1,1567,1443,0,0
350,-419,0,0,0,0,0,0,0,0,0,-1,1574,1443,0,0
357,-419,0,0,0,0,0,0,0,0,0,-1,1581,1443,0,0
364,-419,0,0,0,0,0,0,0,0,0,-1,1588,1443,0,0
371,-419,0,0,0,0,0,0,0,0,0,-1,1595,1443,0,0
378,-419,0,0,0,0,0,0,0,0,0,-1,1602,1443,0,0
385,-419,0,0,0,0,0,0,0,0,0,-1,1609,1443,0,0
392,-419,0,0,0,0,0,0,0,0,0,-1,1616,1443,0,0
399,-419,0,0,0,0,0,0,0,0,0,-1,1623,1443,0,0
406,-419,0,0,0,0,0,0,0,0,0,-1,1630,1443,0,0
413,-419,0,0,0,0,0,0,0,0,0,-1,1637,1443,0,0
420,-419,0,0,0,0,0,0,0,0,0,-1,1644,1443,0,0
427,-419,0,0,0,0,0,0,0,0,0,-1,1651,1443,0,0
434,-419,0,0,0,0,0,0,0,0,0,-1,1658,1443,0,0
441,-419,0,0,0,0,0,0,0,0,0,-1,1665,1443,0,0
448,-419,0,0,0,0,0,0,0,0,0,-1,1672,1443,0,0
455,-419,0,0,0,0,0,0,0,0,0,-1,1679,1443,0,0
462,-419,0,0,0,0,0,0,0,0,0,-1,1686,1443,0,0
469,-419,0,0,0,0,0,0,0,0,0,-1,1693,1443,0,0
476,-419,0,0,0,0,0,0,0,0,0,-1,1700,1443,0,0
483,-419,0,0,0,0,0,0,0,0,0,-1,1707,1443,0,0
490,-419,0,0,0,0,0,0,0,0,0,-1,1714,1443,0,0
497,-419,0,0,0,0,0,0,0,0,0,-1,1721,1443,0,0
504,-419,0,0,0,0,0,0,0,0,0,-1,1728,1443,0,0
511,-419,20.3005,3.7959,0,0,0,0,0,0,0,-1,1735,1443,20.3005,-3.79584
518,-419,21.3154,2.03027,0,0,0,0,0,0,0,-1,1742,1443,21.3155,-2.03029
525,-419,20.1991,2.2738,0,0,0,0,0,0,0,-1,1749,1443,20.1991,-2.2738
532,-419,21.035,2.73364,0,0,0,0,0,0,0,-1,1756,1443,21.035,-2.73368
539,-419,20.0294,2.92896,0,0,0,0,0,0,0,-1,1763,1443,20.0294,-2.929
546,-419,18.7786,2.69104,0,0,0,0,0,0,0,-1,1770,1443,18.7785,-2.69107
553,-419,17.1881,2.40491,0,0,0,0,0,0,0,-1,1777,1443,17.1881,-2.40488
560,-419,11.8199,8.26343,0,0,0,0,0,0,0,-1,1784,1443,11.82,-8.26341
567,-419,15.7008,5.70764,0,0,0,0,0,0,0,-1,1791,1443,15.7009,-5.70764
574,-419,13.748,7.5249,0,0,0,0,0,0,0,-1,1798,1443,13.7481,-7.5249
581,-419,13.1829,7.57349,0,0,0,0,0,0,0,-1,1805,1443,13.1829,-7.57347
588,-419,14.0745,9.02502,0,0,0,0,0,0,0,-1,1812,1443,14.0745,-9.02505
595,-419,13.6394,8.75684,-0.0231728,-0.0263902,0.0157237,-0.00897574,-0.0405873,0.734421,0.0246179,0.0368943,1819,1443,13.6395,-8.75688
602,-419,13.1713,8.50623,-0.0185701,-0.0183582,0.0124965,-0.00596718,-0.0309612,0.789638,0.0189672,0.0143472,1826,1443,13.1713,-8.50617
609,-419,13.1207,8.28943,-0.0147069,-0.0115872,0.0100268,-0.00299964,-0.0232944,0.862565,0.0146326,0.010119,1833,1443,13.1208,-8.28949
616,-419,13.1101,8.09155,-0.0109608,-0.00754259,0.00739361,-0.00166311,-0.0168403,0.898982,0.0107156,0.0106772,1840,1443,13.1101,-8.09155
623,-419,13.1179,7.83606,-0.00762621,-0.00488813,0.00507008,-0.00100551,-0.0115088,0.917265,0.00736032,0.00899611,1847,1443,13.1179,-7.83609
630,-419,13.1428,7.57483,-0.00503708,-0.00317712,0.00327086,-0.000706602,-0.00750759,0.923904,0.00478694,0.0112734,1854,1443,13.1428,-7.57486
637,-419,13.1198,7.35803,-0.00308198,-0.00169339,0.00189865,-0.000366074,-0.0044093,0.960685,0.00282543,0.0122808,1861,1443,13.1197,-7.35809
644,-419,13.1182,7.14673,-0.00171952,-0.000816567,0.00102014,-0.000152466,-0.00238362,0.993725,0.00154078,0.0113729,1868,1443,13.1182,-7.14672
651,-419,13.1161,6.92285,-0.000886926,-2.72293e-05,0.000386735,0.000121138,-0.00103529,1.20447,0.000733915,0.011116,1875,1443,13.1161,-6.92285
658,-419,13.1176,6.68079,-0.000883285,0.000400308,0.000168795,0.000422134,-0.000905111,1.44221,0.000783014,0.0125612,1882,1443,13.1175,-6.68075
665,-419,13.1332,6.4696,-0.00143126,0.000590278,0.000232116,0.000616588,-0.00145757,1.45793,0.00122989,0.0196887,1889,1443,13.1331,-6.46956
672,-419,13.1797,6.21167,-0.00256186,0.000441728,0.000619974,0.000564665,-0.0026848,1.37504,0.00200477,0.0249804,1896,1443,13.1797,-6.21162
679,-419,13.1572,6.11157,-0.00396662,6.78419e-05,0.00111383,0.000354919,-0.00425369,1.31855,0.0029612,0.0455671,1903,1443,13.1572,-6.11156
686,-419,13.1106,6.18457,0,0,0,0,0,0,0,-1,1910,1443,13.1106,-6.18452
693,-419,8.76086,5.60535,0,0,0,0,0,0,0,-1,1917,1443,8.76091,-5.6054
700,-419,11.0498,4.85156,0,0,0,0,0,0,0,-1,1924,1443,11.0498,-4.85153
707,-419,9.5752,1.80042,0,0,0,0,0,0,0,-1,1931,1443,9.57523,-1.80037
714,-419,5.77576,-1.25061,0,0,0,0,0,0,0,-1,1938,1443,5.7757,1.25056
721,-419,0,0,0,0,0,0,0,0,0,-1,1945,1443,0,0
728,-419,0,0,0,0,0,0,0,0,0,-1,1952,1443,0,0
735,-419,0,0,0,0,0,0,0,0,0,-1,1959,1443,0,0
742,-419,0,0,0,0,0,0,0,0,0,-1,1966,1443,0,0
749,-419,0,0,0,0,0,0,0,0,0,-1,1973,1443,0,0
756,-419,0,0,0,0,0,0,0,0,0,-1,1980,1443,0,0
763,-419,0,0,0,0,0,0,0,0,0,-1,1987,1443,0,0
770,-419,0,0,0,0,0,0,0,0,0,-1,1994,1443,0,0
777,-419,0,0,0,0,0,0,0,0,0,-1,2001,1443,0,0
784,-419,0,0,0,0,0,0,0,0,0,-1,2008,1443,0,0
791,-419,0,0,0,0,0,0,0,0,0,-1,2015,1443,0,0
798,-419,0,0,0,0,0,0,0,0,0,-1,2022,1443,0,0
805,-419,0,0,0,0,0,0,0,0,0,-1,2029,1443,0,0
812,-419,0,0,0,0,0,0,0,0,0,-1,2036,1443,0,0
-700,-426,0,0,0,0,0,0,0,0,0,-1,524,1450,0,0
-693,-426,0,0,0,0,0,0,0,0,0,-1,531,1450,0,0
-686,-426,0,0,0,0,0,0,0,0,0,-1,538,1450,0,0
-679,-426,0,0,0,0,0,0,0,0,0,-1,545,1450,0,0
-672,-426,0,0,0,0,0,0,0,0,0,-1,552,1450,0,0
-665,-426,0,0,0,0,0,0,0,0,0,-1,559,1450,0,0
-658,-426,0,0,0,0,0,0,0,0,0,-1,566,1450,0,0
-651,-426,0,0,0,0,0,0,0,0,0,-1,573,1450,0,0
-644,-426,0,0,0,0,0,0,0,0,0,-1,580,1450,0,0
-637,-426,0,0,0,0,0,0,0,0,0,-1,587,1450,0,0
-630,-426,0,0,0,0,0,0,0,0,0,-1,594,1450,0,0
-623,-426,0,0,0,0,0,0,0,0,0,-1,601,1450,0,0
-616,-426,0,0,0,0,0,0,0,0,0,-1,608,1450,0,0
-609,-426,0,0,0,0,0,0,0,0,0,-1,615,1450,0,0
-602,-426,0,0,0,0,0,0,0,0,0,-1,622,1450,0,0
-595,-426,0,0,0,0,0,0,0,0,0,-1,629,1450,0,0
-588,-426,-4.39026,0.156494,0,0,0,0,0,0,0,-1,636,1450,-4.39027,-0.156543
-581,-426,-4.30518,-1.34998,0,0,0,0,0,0,0,-1,643,1450,-4.30517,1.34996
-574,-426,-3.67657,0.188232,0,0,0,0,0,0,0,-1,650,1450,-3.67657,-0.188214
-567,-426,-3.04797,1.72644,0,0,0,0,0,0,0,-1,657,1450,-3.04797,-1.72639
-560,-426,-4.54633,3.86047,0,0,0,0,0,0,0,-1,664,1450,-4.54633,-3.86043
-553,-426,-3.79718,3.94055,0,0,0,0,0,0,0,-1,671,1450,-3.79716,-3.9405
-546,-426,-3.8208,4.34961,0.01925,-0.00153841,0.00920141,0.0227377,-0.00502604,0.362301,0.0170821,0.0497085,678,1450,-3.82082,-4.34963
-539,-426,-3.73535,4.44641,0.0148886,-0.000469012,0.0068099,0.0174732,-0.00305368,0.36275,0.0127888,0.0414457,685,1450,-3.73537,-4.44646
-532,-426,-3.82538,4.55981,0.0115016,0.000230126,0.00509263,0.0134617,-0.00172995,0.367408,0.0096032,0.0273024,692,1450,-3.82541,-4.55977
-525,-426,-3.87695,4.79285,0.00885851,0.000591342,0.00378466,0.0103294,-0.00087955,0.37068,0.00719739,0.0137326,699,1450,-3.87693,-4.7928
-518,-426,-3.86926,5.07068,0.00681234,0.000557702,0.0027324,0.00783787,-0.000467826,0.359052,0.00538796,0.0144188,706,1450,-3.86926,-5.07074
-511,-426,-3.86993,5.35217,0.00529326,0.000331319,0.00195609,0.00597164,-0.000347062,0.333826,0.00410168,0.0136768,713,1450,-3.8699,-5.35222
-504,-426,-3.90381,5.5885,0.00383208,-0.000245867,0.00103683,0.00408056,-0.000494344,0.235215,0.00289923,0.0141094,720,1450,-3.90381,-5.58856
-497,-426,-3.89191,5.83594,0.00225675,-0.000634846,-0.000680962,0.00240909,-0.000787185,-0.220087,0.00192294,0.01189,727,1450,-3.89193,-5.83597
-490,-426,-3.88812,6.09399,0.00172774,-0.0021542,-0.00284981,0.00323478,-0.00366124,-0.486438,0.00398395,0.0116398,734,1450,-3.88812,-6.09405
-483,-426,-3.8916,6.33679,0.00197238,-0.00520806,-0.0058541,0.00524948,-0.00848517,-0.510334,0.00800272,0.0117012,741,1450,-3.8916,-6.33678
-476,-426,-3.8916,6.60229,0.00197738,-0.00819242,-0.00935634,0.0075413,-0.0137563,-0.53649,0.0124695,0.0097232,748,1450,-3.89158,-6.60224
-469,-426,-3.89862,6.85706,0.00245007,-0.0121487,-0.0140502,0.0109839,-0.0206825,-0.545827,0.0185662,0.00810654,755,1450,-3.8986,-6.85709
-462,-426,-3.80115,7.13623,0.00323381,-0.0171605,-0.0203747,0.0158207,-0.0297474,-0.553382,0.0267151,0.016217,762,1450,-3.80114,-7.13619
-455,-426,-3.85468,7.19641,0.00454808,-0.0239389,-0.0284553,0.0221257,-0.0415166,-0.553352,0.037308,0.0345029,769,1450,-3.85466,-7.19635
-448,-426,-4.02411,6.77466,0.00645746,-0.0327775,-0.0387411,0.0302648,-0.0565848,-0.551031,0.0509044,0.0447217,776,1450,-4.02409,-6.77465
-441,-426,-4.16467,6.09473,0.00904986,-0.0438313,-0.0514411,0.0404478,-0.0752292,-0.548007,0.067785,0.0434667,783,1450,-4.16469,-6.09471
-434,-426,-3.56427,4.60876,0.0126233,-0.0572587,-0.0664783,0.0527839,-0.0974193,-0.543439,0.0879869,0.0454873,790,1450,-3.5643,-4.6088
-427,-426,-2.85968,4.22791,0,0,0,0,0,0,0,-1,797,1450,-2.85966,-4.22793
-420,-426,-3.79675,5.41992,0,0,0,0,0,0,0,-1,804,1450,-3.79676,-5.41996
-413,-426,-10.1148,5.0415,0,0,0,0,0,0,0,-1,811,1450,-10.1148,-5.04152
-406,-426,-11.4199,3.6438,0,0,0,0,0,0,0,-1,818,1450,-11.4198,-3.64382
-399,-426,-12.7595,2.29004,0,0,0,0,0,0,0,-1,825,1450,-12.7595,-2.29003
-392,-426,-12.4147,0.537354,0,0,0,0,0,0,0,-1,832,1450,-12.4147,-0.53731
-385,-426,0,0,0,0,0,0,0,0,0,-1,839,1450,0,0
-378,-426,0,0,0,0,0,0,0,0,0,-1,846,1450,0,0
-371,-426,0,0,0,0,0,0,0,0,0,-1,853,1450,0,0
-364,-426,0,0,0,0,0,0,0,0,0,-1,860,1450,0,0
-357,-426,0,0,0,0,0,0,0,0,0,-1,867,1450,0,0
-350,-426,0,0,0,0,0,0,0,0,0,-1,874,1450,0,0
-343,-426,0,0,0,0,0,0,0,0,0,-1,881,1450,0,0
-336,-426,0,0,0,0,0,0,0,0,0,-1,888,1450,0,0
-329,-426,0,0,0,0,0,0,0,0,0,-1,895,1450,0,0
-322,-426,0,0,0,0,0,0,0,0,0,-1,902,1450,0,0
-315,-426,0,0,0,0,0,0,0,0,0,-1,909,1450,0,0
-308,-426,0,0,0,0,0,0,0,0,0,-1,916,1450,0,0
-301,-426,0,0,0,0,0,0,0,0,0,-1,923,1450,0,0
-294,-426,0,0,0,0,0,0,0,0,0,-1,930,1450,0,0
-287,-426,0,0,0,0,0,0,0,0,0,-1,937,1450,0,0
-280,-426,0,0,0,0,0,0,0,0,0,-1,944,1450,0,0
-273,-426,0,0,0,0,0,0,0,0,0,-1,951,1450,0,0
-266,-426,0,0,0,0,0,0,0,0,0,-1,958,1450,0,0
-259,-426,0,0,0,0,0,0,0,0,0,-1,965,1450,0,0
-252,-426,0,0,0,0,0,0,0,0,0,-1,972,1450,0,0
-245,-426,0,0,0,0,0,0,0,0,0,-1,979,1450,0,0
-238,-426,0,0,0,0,0,0,0,0,0,-1,986,1450,0,0
-231,-426,0,0,0,0,0,0,0,0,0,-1,993,1450,0,0
-224,-426,0,0,0,0,0,0,0,0,0,-1,1000,1450,0,0
-217,-426,0,0,0,0,0,0,0,0,0,-1,1007,1450,0,0
-210,-426,0,0,0,0,0,0,0,0,0,-1,1014,1450,0,0
-203,-426,0,0,0,0,0,0,0,0,0,-1,1021,1450,0,0
-196,-426,0,0,0,0,0,0,0,0,0,-1,1028,1450,0,0
-189,-426,0,0,0,0,0,0,0,0,0,-1,1035,1450,0,0
-182,-426,0,0,0,0,0,0,0,0,0,-1,1042,1450,0,0
-175,-426,0,0,0,0,0,0,0,0,0,-1,1049,1450,0,0
-168,-426,0,0,0,0,0,0,0,0,0,-1,1056,1450,0,0
-161,-426,0,0,0,0,0,0,0,0,0,-1,1063,1450,0,0
-154,-426,0,0,0,0,0,0,0,0,0,-1,1070,1450,0,0
-147,-426,0,0,0,0,0,0,0,0,0,-1,1077,1450,0,0
-140,-426,0,0,0,0,0,0,0,0,0,-1,1084,1450,0,0
-133,-426,0,0,0,0,0,0,0,0,0,-1,1091,1450,0,0
-126,-426,0,0,0,0,0,0,0,0,0,-1,1098,1450,0,0
-119,-426,0,0,0,0,0,0,0,0,0,-1,1105,1450,0,0
-112,-426,0,0,0,0,0,0,0,0,0,-1,1112,1450,0,0
-105,-426,0,0,0,0,0,0,0,0,0,-1,1119,1450,0,0
-98,-426,0,0,0,0,0,0,0,0,0,-1,1126,1450,0,0
-91,-426,0,0,0,0,0,0,0,0,0,-1,1133,1450,0,0
-84,-426,0,0,0,0,0,0,0,0,0,-1,1140,1450,0,0
-77,-426,0,0,0,0,0,0,0,0,0,-1,1147,1450,0,0
-70,-426,0,0,0,0,0,0,0,0,0,-1,1154,1450,0,0
-63,-426,0,0,0,0,0,0,0,0,0,-1,1161,1450,0,0
-56,-426,0,0,0,0,0,0,0,0,0,-1,1168,1450,0,0
-49,-426,0,0,0,0,0,0,0,0,0,-1,1175,1450,0,0
-42,-426,0,0,0,0,0,0,0,0,0,-1,1182,1450,0,0
-35,-426,0,0,0,0,0,0,0,0,0,-1,1189,1450,0,0
-28,-426,0,0,0,0,0,0,0,0,0,-1,1196,1450,0,0
-21,-426,0,0,0,0,0,0,0,0,0,-1,1203,1450,0,0
-14,-426,0,0,0,0,0,0,0,0,0,-1,1210,1450,0,0
-7,-426,0,0,0,0,0,0,0,0,0,-1,1217,1450,0,0
0,-426,0,0,0,0,0,0,0,0,0,-1,1224,1450,0,0
7,-426,0,0,0,0,0,0,0,0,0,-1,1231,1450,0,0
14,-426,0,0,0,0,0,0,0,0,0,-1,1238,1450,0,0
21,-426,0,0,0,0,0,0,0,0,0,-1,1245,1450,0,0
28,-426,0,0,0,0,0,0,0,0,0,-1,1252,1450,0,0
35,-426,0,0,0,0,0,0,0,0,0,-1,1259,1450,0,0
42,-426,0,0,0,0,0,0,0,0,0,-1,1266,1450,0,0
49,-426,0,0,0,0,0,0,0,0,0,-1,1273,1450,0,0
56,-426,0,0,0,0,0,0,0,0,0,-1,1280,1450,0,0
63,-426,0,0,0,0,0,0,0,0,0,-1,1287,1450,0,0
70,-426,0,0,0,0,0,0,0,0,0,-1,1294,1450,0,0
77,-426,0,0,0,0,0,0,0,0,0,-1,1301,1450,0,0
84,-426,0,0,0,0,0,0,0,0,0,-1,1308,1450,0,0
91,-426,0,0,0,0,0,0,0,0,0,-1,1315,1450,0,0
98,-426,0,0,0,0,0,0,0,0,0,-1,1322,1450,0,0
105,-426,0,0,0,0,0,0,0,0,0,-1,1329,1450,0,0
112,-426,0,0,0,0,0,0,0,0,0,-1,1336,1450,0,0
119,-426,0,0,0,0,0,0,0,0,0,-1,1343,1450,0,0
126,-426,0,0,0,0,0,0,0,0,0,-1,1350,1450,0,0
133,-426,0,0,0,0,0,0,0,0,0,-1,1357,1450,0,0
140,-426,0,0,0,0,0,0,0,0,0,-1,1364,1450,0,0
147,-426,0,0,0,0,0,0,0,0,0,-1,1371,1450,0,0
154,-426,0,0,0,0,0,0,0,0,0,-1,1378,1450,0,0
161,-426,0,0,0,0,0,0,0,0,0,-1,1385,1450,0,0
168,-426,0,0,0,0,0,0,0,0,0,-1,1392,1450,0,0
175,-426,0,0,0,0,0,0,0,0,0,-1,1399,1450,0,0
182,-426,0,0,0,0,0,0,0,0,0,-1,1406,1450,0,0
189,-426,0,0,0,0,0,0,0,0,0,-1,1413,1450,0,0
196,-426,0,0,0,0,0,0,0,0,0,-1,1420,1450,0,0
203,-426,0,0,0,0,0,0,0,0,0,-1,1427,1450,0,0
210,-426,0,0,0,0,0,0,0,0,0,-1,1434,1450,0,0
217,-426,0,0,0,0,0,0,0,0,0,-1,1441,1450,0,0
224,-426,0,0,0,0,0,0,0,0,0,-1,1448,1450,0,0
231,-426,0,0,0,0,0,0,0,0,0,-1,1455,1450,0,0
238,-426,0,0,0,0,0,0,0,0,0,-1,1462,1450,0,0
245,-426,0,0,0,0,0,0,0,0,0,-1,1469,1450,0,0
252,-426,0,0,0,0,0,0,0,0,0,-1,1476,1450,0,0
259,-426,0,0,0,0,0,0,0,0,0,-1,1483,1450,0,0
266,-426,0,0,0,0,0,0,0,0,0,-1,1490,1450,0,0
273,-426,0,0,0,0,0,0,0,0,0,-1,1497,1450,0,0
280,-426,0,0,0,0,0,0,0,0,0,-1,1504,1450,0,0
287,-426,0,0,0,0,0,0,0,0,0,-1,1511,1450,0,0
294,-426,0,0,0,0,0,0,0,0,0,-1,1518,1450,0,0
301,-426,0,0,0,0,0,0,0,0,0,-1,1525,1450,0,0
308,-426,0,0,0,0,0,0,0,0,0,-1,1532,1450,0,0
315,-426,0,0,0,0,0,0,0,0,0,-1,1539,1450,0,0
322,-426,0,0,0,0,0,0,0,0,0,-1,1546,1450,0,0
329,-426,0,0,0,0,0,0,0,0,0,-1,1553,1450,0,0
336,-426,0,0,0,0,0,0,0,0,0,-1,1560,1450,0,0
343,-426,0,0,0,0,0,0,0,0,0,-1,1567,1450,0,0
350,-426,0,0,0,0,0,0,0,0,0,-1,1574,1450,0,0
357,-426,0,0,0,0,0,0,0,0,0,-1,1581,1450,0,0
364,-426,0,0,0,0,0,0,0,0,0,-1,1588,1450,0,0
371,-426,0,0,0,0,0,0,0,0,0,-1,1595,1450,0,0
378,-426,0,0,0,0,0,0,0,0,0,-1,1602,1450,0,0
385,-426,0,0,0,0,0,0,0,0,0,-1,1609,1450,0,0
392,-426,0,0,0,0,0,0,0,0,0,-1,1616,1450,0,0
399,-426,0,0,0,0,0,0,0,0,0,-1,1623,1450,0,0
406,-426,0,0,0,0,0,0,0,0,0,-1,1630,1450,0,0
413,-426,0,0,0,0,0,0,0,0,0,-1,1637,1450,0,0
420,-426,0,0,0,0,0,0,0,0,0,-1,1644,1450,0,0
427,-426,0,0,0,0,0,0,0,0,0,-1,1651,1450,0,0
434,-426,0,0,0,0,0,0,0,0,0,-1,1658,1450,0,0
441,-426,0,0,0,0,0,0,0,0,0,-1,1665,1450,0,0
448,-426,0,0,0,0,0,0,0,0,0,-1,1672,1450,0,0
455,-426,0,0,0,0,0,0,0,0,0,-1,1679,1450,0,0
462,-426,0,0,0,0,0,0,0,0,0,-1,1686,1450,0,0
469,-426,0,0,0,0,0,0,0,0,0,-1,1693,1450,0,0
476,-426,0,0,0,0,0,0,0,0,0,-1,1700,1450,0,0
483,-426,0,0,0,0,0,0,0,0,0,-1,1707,1450,0,0
490,-426,0,0,0,0,0,0,0,0,0,-1,1714,1450,0,0
497,-426,0,0,0,0,0,0,0,0,0,-1,1721,1450,0,0
504,-426,20.6873,3.38367,0,0,0,0,0,0,0,-1,1728,1450,20.6873,-3.38361
511,-426,19.6676,3.53748,0,0,0,0,0,0,0,-1,1735,1450,19.6676,-3.53749
518,-426,18.6853,3.32288,0,0,0,0,0,0,0,-1,1742,1450,18.6853,-3.3229
525,-426,18.9552,2.71033,0,0,0,0,0,0,0,-1,1749,1450,18.9552,-2.71034
532,-426,17.764,2.81616,0,0,0,0,0,0,0,-1,1756,1450,17.764,-2.81611
539,-426,16.9565,3.07593,0,0,0,0,0,0,0,-1,1763,1450,16.9566,-3.07593
546,-426,16.1915,3.49744,0,0,0,0,0,0,0,-1,1770,1450,16.1916,-3.4975
553,-426,12.4441,8.65613,0,0,0,0,0,0,0,-1,1777,1450,12.4441,-8.65615
560,-426,11.7726,8.02771,0,0,0,0,0,0,0,-1,1784,1450,11.7725,-8.02773
567,-426,11.1727,8.76721,0,0,0,0,0,0,0,-1,1791,1450,11.1727,-8.76724
574,-426,12.8683,8.1709,0,0,0,0,0,0,0,-1,1798,1450,12.8683,-8.17084
581,-426,13.0684,8.46045,0,0,0,0,0,0,0,-1,1805,1450,13.0683,-8.4604
588,-426,13.0032,9.06177,0,0,0,0,0,0,0,-1,1812,1450,13.0032,-9.06171
595,-426,12.9518,8.74133,-0.0178496,-0.0221366,0.0124062,-0.00740303,-0.0325831,0.699854,0.0197231,0.026576,1819,1450,12.9518,-8.74139
602,-426,12.9119,8.48987,-0.0143581,-0.0153283,0.00988996,-0.00494136,-0.024745,0.760895,0.0151211,0.0148627,1826,1450,12.9119,-8.48989
609,-426,12.9047,8.2605,-0.0113609,-0.00941436,0.00793175,-0.0023964,-0.0183789,0.846447,0.0115371,0.0117991,1833,1450,12.9047,-8.26055
616,-426,12.9103,8.06055,-0.00836148,-0.00592988,0.00578817,-0.0012312,-0.0130602,0.888918,0.00832677,0.0135135,1840,1450,12.9102,-8.06053
623,-426,12.9161,7.82666,-0.00568413,-0.00368272,0.00386795,-0.000688121,-0.00867873,0.911981,0.00557063,0.0105469,1847,1450,12.9162,-7.82663
630,-426,12.9114,7.58899,-0.00365765,-0.00219123,0.00230894,-0.000501882,-0.005347,0.939139,0.00340971,0.0110119,1854,1450,12.9114,-7.58898
637,-426,12.8912,7.35779,-0.00205317,-0.00090181,0.00110351,-0.000232841,-0.00272213,1.02582,0.00174234,0.0120487,1861,1450,12.8913,-7.35784
644,-426,12.8799,7.14929,-0.000970157,-0.000111166,0.000311104,-1.03292e-05,-0.00107099,1.25736,0.000710578,0.0115554,1868,1450,12.8798,-7.14926
651,-426,12.8882,6.93054,-0.000463498,0.000624489,-0.000250852,0.000679541,-0.00051855,-1.35476,0.000693797,0.0113156,1875,1450,12.8882,-6.9305
658,-426,12.8966,6.66577,-0.000873488,0.00114967,-0.00042183,0.0012341,-0.000957917,-1.37326,0.00126891,0.0116951,1882,1450,12.8966,-6.66579
665,-426,12.9503,6.37781,-0.00195093,0.00160449,-0.0003958,0.00164802,-0.00199446,-1.46126,0.00210615,0.0186586,1889,1450,12.9503,-6.37782
672,-426,12.8671,6.07507,0,0,0,0,0,0,0,-1,1896,1450,12.8671,-6.07509
679,-426,12.4836,6.28918,0,0,0,0,0,0,0,-1,1903,1450,12.4836,-6.28914
686,-426,12.1001,6.50317,0,0,0,0,0,0,0,-1,1910,1450,12.1001,-6.50319
693,-426,11.8607,6.45215,0,0,0,0,0,0,0,-1,1917,1450,11.8607,-6.45215
700,-426,9.24304,2.95447,0,0,0,0,0,0,0,-1,1924,1450,9.24305,-2.95442
707,-426,8.44519,-1.21448,0,0,0,0,0,0,0,-1,1931,1450,8.44514,1.21454
714,-426,0,0,0,0,0,0,0,0,0,-1,1938,1450,0,0
721,-426,0,0,0,0,0,0,0,0,0,-1,1945,1450,0,0
728,-426,0,0,0,0,0,0,0,0,0,-1,1952,1450,0,0
735,-426,0,0,0,0,0,0,0,0,0,-1,1959,1450,0,0
742,-426,0,0,0,0,0,0,0,0,0,-1,1966,1450,0,0
749,-426,0,0,0,0,0,0,0,0,0,-1,1973,1450,0,0
756,-426,0,0,0,0,0,0,0,0,0,-1,1980,1450,0,0
763,-426,0,0,0,0,0,0,0,0,0,-1,1987,1450,0,0
770,-426,0,0,0,0,0,0,0,0,0,-1,1994,1450,0,0
777,-426,0,0,0,0,0,0,0,0,0,-1,2001,1450,0,0
784,-426,0,0,0,0,0,0,0,0,0,-1,2008,1450,0,0
791,-426,0,0,0,0,0,0,0,0,0,-1,2015,1450,0,0
798,-426,0,0,0,0,0,0,0,0,0,-1,2022,1450,0,0
805,-426,0,0,0,0,0,0,0,0,0,-1,2029,1450,0,0
812,-426,0,0,0,0,0,0,0,0,0,-1,2036,1450,0,0
-700,-433,0,0,0,0,0,0,0,0,0,-1,524,1457,0,0
-693,-433,0,0,0,0,0,0,0,0,0,-1,531,1457,0,0
-686,-433,0,0,0,0,0,0,0,0,0,-1,538,1457,0,0
-679,-433,0,0,0,0,0,0,0,0,0,-1,545,1457,0,0
-672,-433,0,0,0,0,0,0,0,0,0,-1,552,1457,0,0
-665,-433,0,0,0,0,0,0,0,0,0,-1,559,1457,0,0
-658,-433,0,0,0,0,0,0,0,0,0,-1,566,1457,0,0
-651,-433,0,0,0,0,0,0,0,0,0,-1,573,1457,0,0
-644,-433,0,0,0,0,0,0,0,0,0,-1,580,1457,0,0
-637,-433,0,0,0,0,0,0,0,0,0,-1,587,1457,0,0
-630,-433,0,0,0,0,0,0,0,0,0,-1,594,1457,0,0
-623,-433,0,0,0,0,0,0,0,0,0,-1,601,1457,0,0
-616,-433,0,0,0,0,0,0,0,0,0,-1,608,1457,0,0
-609,-433,0,0,0,0,0,0,0,0,0,-1,615,1457,0,0
-602,-433,0,0,0,0,0,0,0,0,0,-1,622,1457,0,0
-595,-433,0,0,0,0,0,0,0,0,0,-1,629,1457,0,0
-588,-433,-4.99121,-0.205688,0,0,0,0,0,0,0,-1,636,1457,-4.99119,0.205667
-581,-433,-4.98511,-1.28406,0,0,0,0,0,0,0,-1,643,1457,-4.9851,1.28405
-574,-433,-4.46533,0.146606,0,0,0,0,0,0,0,-1,650,1457,-4.46531,-0.146606
-567,-433,-5.42255,1.16833,0,0,0,0,0,0,0,-1,657,1457,-5.42254,-1.1683
-560,-433,-4.78809,2.01306,0,0,0,0,0,0,0,-1,664,1457,-4.78806,-2.01303
-553,-433,-4.32501,2.20544,0,0,0,0,0,0,0,-1,671,1457,-4.32499,-2.20549
-546,-433,-3.72174,4.7063,0,0,0,0,0,0,0,-1,678,1457,-3.72176,-4.70632
-539,-433,-3.81128,4.51135,0.0230756,-0.0014073,0.0100777,0.0266902,-0.00502188,0.344378,0.0196821,0.0464686,685,1457,-3.81126,-4.51133
-532,-433,-3.56543,4.63367,0.0176608,-0.000295162,0.00744995,0.0203493,-0.00298362,0.346325,0.0146623,0.0326256,692,1457,-3.56546,-4.63373
-525,-433,-3.60388,4.81177,0.0134535,0.000344022,0.00550181,0.0154565,-0.00165895,0.349143,0.0108995,0.0196395,699,1457,-3.60387,-4.81181
-518,-433,-3.62769,5.07056,0.0101856,0.000518236,0.00399086,0.0116202,-0.000916376,0.34509,0.00806961,0.0166772,706,1457,-3.62771,-5.07057
-511,-433,-3.63074,5.34875,0.00769609,0.000405848,0.00287048,0.00869064,-0.000588702,0.333531,0.00599963,0.016069,713,1457,-3.63075,-5.34872
-504,-433,-3.61694,5.57898,0.00554092,-3.70514e-05,0.0017551,0.0060472,-0.000543339,0.280842,0.00422425,0.0127166,720,1457,-3.61695,-5.57894
-497,-433,-3.6192,5.82422,0.00340091,-0.000309521,-4.52955e-05,0.00340146,-0.000310073,-0.0122052,0.00237775,0.0130331,727,1457,-3.61922,-5.82416
-490,-433,-3.64069,6.0752,0.0025175,-0.00167322,-0.00205318,0.00335575,-0.00251147,-0.387615,0.00339911,0.0143489,734,1457,-3.64066,-6.07517
-483,-433,-3.64514,6.36414,0.00243367,-0.00438413,-0.00472661,0.00485242,-0.00680287,-0.472987,0.00676052,0.0155163,741,1457,-3.64513,-6.36416
-476,-433,-3.62549,6.6322,0.00213883,-0.0070932,-0.00773966,0.00653448,-0.0114888,-0.51651,0.010536,0.0109744,748,1457,-3.62548,-6.63221
-469,-433,-3.62628,6.87598,0.00245128,-0.0106117,-0.0116436,0.00927018,-0.0174306,-0.529791,0.0156539,0.0104408,755,1457,-3.62628,-6.87592
-462,-433,-3.64496,7.11987,0.00321673,-0.0149367,-0.0168468,0.0132764,-0.0249964,-0.538303,0.0224395,0.0096449,762,1457,-3.64499,-7.11987
-455,-433,-3.49158,7.40149,0.00449357,-0.020725,-0.023292,0.0183704,-0.0346018,-0.537307,0.0310584,0.0248901,769,1457,-3.49158,-7.4015
-448,-433,-3.45178,7.12598,0.00636996,-0.0281784,-0.0314222,0.0249531,-0.0467616,-0.534074,0.0420378,0.0377722,776,1457,-3.45179,-7.12592
-441,-433,-3.3349,6.50806,0.00879803,-0.0373619,-0.0413497,0.0330729,-0.0616368,-0.530853,0.0555034,0.0432318,783,1457,-3.33493,-6.50801
-434,-433,-3.19653,5.60901,0.0117987,-0.0483307,-0.0530723,0.0427304,-0.0792624,-0.527692,0.0714775,0.0431082,790,1457,-3.19654,-5.60903
-427,-433,-2.57092,5.2417,0,0,0,0,0,0,0,-1,797,1457,-2.57091,-5.24164
-420,-433,-2.01154,4.89258,0,0,0,0,0,0,0,-1,804,1457,-2.01156,-4.89256
-413,-433,-3.63074,5.5813,0,0,0,0,0,0,0,-1,811,1457,-3.63072,-5.58129
-406,-433,-12.3472,4.69373,0,0,0,0,0,0,0,-1,818,1457,-12.3472,-4.69374
-399,-433,-12.055,2.83594,0,0,0,0,0,0,0,-1,825,1457,-12.055,-2.83594
-392,-433,-12.9772,1.6228,0,0,0,0,0,0,0,-1,832,1457,-12.9772,-1.62282
-385,-433,-13.7999,0.514771,0,0,0,0,0,0,0,-1,839,1457,-13.7999,-0.514788
-378,-433,0,0,0,0,0,0,0,0,0,-1,846,1457,0,0
-371,-433,0,0,0,0,0,0,0,0,0,-1,853,1457,0,0
-364,-433,0,0,0,0,0,0,0,0,0,-1,860,1457,0,0
-357,-433,0,0,0,0,0,0,0,0,0,-1,867,1457,0,0
-350,-433,0,0,0,0,0,0,0,0,0,-1,874,1457,0,0
-343,-433,0,0,0,0,0,0,0,0,0,-1,881,1457,0,0
-336,-433,0,0,0,0,0,0,0,0,0,-1,888,1457,0,0
-329,-433,0,0,0,0,0,0,0,0,0,-1,895,1457,0,0
-322,-433,0,0,0,0,0,0,0,0,0,-1,902,1457,0,0
-315,-433,0,0,0,0,0,0,0,0,0,-1,909,1457,0,0
-308,-433,0,0,0,0,0,0,0,0,0,-1,916,1457,0,0
-301,-433,0,0,0,0,0,0,0,0,0,-1,923,1457,0,0
-294,-433,0,0,0,0,0,0,0,0,0,-1,930,1457,0,0
-287,-433,0,0,0,0,0,0,0,0,0,-1,937,1457,0,0
-280,-433,0,0,0,0,0,0,0,0,0,-1,944,1457,0,0
-273,-433,0,0,0,0,0,0,0,0,0,-1,951,1457,0,0
-266,-433,0,0,0,0,0,0,0,0,0,-1,958,1457,0,0
-259,-433,0,0,0,0,0,0,0,0,0,-1,965,1457,0,0
-252,-433,0,0,0,0,0,0,0,0,0,-1,972,1457,0,0
-245,-433,0,0,0,0,0,0,0,0,0,-1,979,1457,0,0
-238,-433,0,0,0,0,0,0,0,0,0,-1,986,1457,0,0
-231,-433,0,0,0,0,0,0,0,0,0,-1,993,1457,0,0
-224,-433,0,0,0,0,0,0,0,0,0,-1,1000,1457,0,0
-217,-433,0,0,0,0,0,0,0,0,0,-1,1007,1457,0,0
-210,-433,0,0,0,0,0,0,0,0,0,-1,1014,1457,0,0
-203,-433,0,0,0,0,0,0,0,0,0,-1,1021,1457,0,0
-196,-433,0,0,0,0,0,0,0,0,0,-1,1028,1457,0,0
-189,-433,0,0,0,0,0,0,0,0,0,-1,1035,1457,0,0
-182,-433,0,0,0,0,0,0,0,0,0,-1,1042,1457,0,0
-175,-433,0,0,0,0,0,0,0,0,0,-1,1049,1457,0,0
-168,-433,0,0,0,0,0,0,0,0,0,-1,1056,1457,0,0
-161,-433,0,0,0,0,0,0,0,0,0,-1,1063,1457,0,0
-154,-433,0,0,0,0,0,0,0,0,0,-1,1070,1457,0,0
-147,-433,0,0,0,0,0,0,0,0,0,-1,1077,1457,0,0
-140,-433,0,0,0,0,0,0,0,0,0,-1,1084,1457,0,0
-133,-433,0,0,0,0,0,0,0,0,0,-1,1091,1457,0,0
-126,-433,0,0,0,0,0,0,0,0,0,-1,1098,1457,0,0
-119,-433,0,0,0,0,0,0,0,0,0,-1,1105,1457,0,0
-112,-433,0,0,0,0,0,0,0,0,0,-1,1112,1457,0,0
-105,-433,0,0,0,0,0,0,0,0,0,-1,1119,1457,0,0
-98,-433,0,0,0,0,0,0,0,0,0,-1,1126,1457,0,0
-91,-433,0,0,0,0,0,0,0,0,0,-1,1133,1457,0,0
-84,-433,0,0,0,0,0,0,0,0,0,-1,1140,1457,0,0
-77,-433,0,0,0,0,0,0,0,0,0,-1,1147,1457,0,0
-70,-433,0,0,0,0,0,0,0,0,0,-1,1154,1457,0,0
-63,-433,0,0,0,0,0,0,0,0,0,-1,1161,1457,0,0
-56,-433,0,0,0,0,0,0,0,0,0,-1,1168,1457,0,0
-49,-433,0,0,0,0,0,0,0,0,0,-1,1175,1457,0,0
-42,-433,0,0,0,0,0,0,0,0,0,-1,1182,1457,0,0
-35,-433,0,0,0,0,0,0,0,0,0,-1,1189,1457,0,0
-28,-433,0,0,0,0,0,0,0,0,0,-1,1196,1457,0,0
-21,-433,0,0,0,0,0,0,0,0,0,-1,1203,1457,0,0
-14,-433,0,0,0,0,0,0,0,0,0,-1,1210,1457,0,0
-7,-433,0,0,0,0,0,0,0,0,0,-1,1217,1457,0,0
0,-433,0,0,0,0,0,0,0,0,0,-1,1224,1457,0,0
7,-433,0,0,0,0,0,0,0,0,0,-1,1231,1457,0,0
14,-433,0,0,0,0,0,0,0,0,0,-1,1238,1457,0,0
21,-433,0,0,0,0,0,0,0,0,0,-1,1245,1457,0,0
28,-433,0,0,0,0,0,0,0,0,0,-1,1252,1457,0,0
35,-433,0,0,0,0,0,0,0,0,0,-1,1259,1457,0,0
42,-433,0,0,0,0,0,0,0,0,0,-1,1266,1457,0,0
49,-433,0,0,0,0,0,0,0,0,0,-1,1273,1457,0,0
56,-433,0,0,0,0,0,0,0,0,0,-1,1280,1457,0,0
63,-433,0,0,0,0,0,0,0,0,0,-1,1287,1457,0,0
70,-433,0,0,0,0,0,0,0,0,0,-1,1294,1457,0,0
77,-433,0,0,0,0,0,0,0,0,0,-1,1301,1457,0,0
84,-433,0,0,0,0,0,0,0,0,0,-1,1308,1457,0,0
91,-433,0,0,0,0,0,0,0,0,0,-1,1315,1457,0,0
98,-433,0,0,0,0,0,0,0,0,0,-1,1322,1457,0,0
105,-433,0,0,0,0,0,0,0,0,0,-1,1329,1457,0,0
112,-433,0,0,0,0,0,0,0,0,0,-1,1336,1457,0,0
119,-433,0,0,0,0,0,0,0,0,0,-1,1343,1457,0,0
126,-433,0,0,0,0,0,0,0,0,0,-1,1350,1457,0,0
133,-433,0,0,0,0,0,0,0,0,0,-1,1357,1457,0,0
140,-433,0,0,0,0,0,0,0,0,0,-1,1364,1457,0,0
147,-433,0,0,0,0,0,0,0,0,0,-1,1371,1457,0,0
154,-433,0,0,0,0,0,0,0,0,0,-1,1378,1457,0,0
161,-433,0,0,0,0,0,0,0,0,0,-1,1385,1457,0,0
168,-433,0,0,0,0,0,0,0,0,0,-1,1392,1457,0,0
175,-433,0,0,0,0,0,0,0,0,0,-1,1399,1457,0,0
182,-433,0,0,0,0,0,0,0,0,0,-1,1406,1457,0,0
189,-433,0,0,0,0,0,0,0,0,0,-1,1413,1457,0,0
196,-433,0,0,0,0,0,0,0,0,0,-1,1420,1457,0,0
203,-433,0,0,0,0,0,0,0,0,0,-1,1427,1457,0,0
210,-433,0,0,0,0,0,0,0,0,0,-1,1434,1457,0,0
217,-433,0,0,0,0,0,0,0,0,0,-1,1441,1457,0,0
224,-433,0,0,0,0,0,0,0,0,0,-1,1448,1457,0,0
231,-433,0,0,0,0,0,0,0,0,0,-1,1455,1457,0,0
238,-433,0,0,0,0,0,0,0,0,0,-1,1462,1457,0,0
245,-433,0,0,0,0,0,0,0,0,0,-1,1469,1457,0,0
252,-433,0,0,0,0,0,0,0,0,0,-1,1476,1457,0,0
259,-433,0,0,0,0,0,0,0,0,0,-1,1483,1457,0,0
266,-433,0,0,0,0,0,0,0,0,0,-1,1490,1457,0,0
273,-433,0,0,0,0,0,0,0,0,0,-1,1497,1457,0,0
280,-433,0,0,0,0,0,0,0,0,0,-1,1504,1457,0,0
287,-433,0,0,0,0,0,0,0,0,0,-1,1511,1457,0,0
294,-433,0,0,0,0,0,0,0,0,0,-1,1518,1457,0,0
301,-433,0,0,0,0,0,0,0,0,0,-1,1525,1457,0,0
308,-433,0,0,0,0,0,0,0,0,0,-1,1532,1457,0,0
315,-433,0,0,0,0,0,0,0,0,0,-1,1539,1457,0,0
322,-433,0,0,0,0,0,0,0,0,0,-1,1546,1457,0,0
329,-433,0,0,0,0,0,0,0,0,0,-1,1553,1457,0,0
336,-433,0,0,0,0,0,0,0,0,0,-1,1560,1457,0,0
343,-433,0,0,0,0,0,0,0,0,0,-1,1567,1457,0,0
350,-433,0,0,0,0,0,0,0,0,0,-1,1574,1457,0,0
357,-433,0,0,0,0,0,0,0,0,0,-1,1581,1457,0,0
364,-433,0,0,0,0,0,0,0,0,0,-1,1588,1457,0,0
371,-433,0,0,0,0,0,0,0,0,0,-1,1595,1457,0,0
378,-433,0,0,0,0,0,0,0,0,0,-1,1602,1457,0,0
385,-433,0,0,0,0,0,0,0,0,0,-1,1609,1457,0,0
392,-433,0,0,0,0,0,0,0,0,0,-1,1616,1457,0,0
399,-433,0,0,0,0,0,0,0,0,0,-1,1623,1457,0,0
406,-433,0,0,0,0,0,0,0,0,0,-1,1630,1457,0,0
413,-433,0,0,0,0,0,0,0,0,0,-1,1637,1457,0,0
420,-433,0,0,0,0,0,0,0,0,0,-1,1644,1457,0,0
427,-433,0,0,0,0,0,0,0,0,0,-1,1651,1457,0,0
434,-433,0,0,0,0,0,0,0,0,0,-1,1658,1457,0,0
441,-433,0,0,0,0,0,0,0,0,0,-1,1665,1457,0,0
448,-433,0,0,0,0,0,0,0,0,0,-1,1672,1457,0,0
455,-433,0,0,0,0,0,0,0,0,0,-1,1679,1457,0,0
462,-433,0,0,0,0,0,0,0,0,0,-1,1686,1457,0,0
469,-433,0,0,0,0,0,0,0,0,0,-1,1693,1457,0,0
476,-433,0,0,0,0,0,0,0,0,0,-1,1700,1457,0,0
483,-433,0,0,0,0,0,0,0,0,0,-1,1707,1457,0,0
490,-433,0,0,0,0,0,0,0,0,0,-1,1714,1457,0,0
497,-433,0,0,0,0,0,0,0,0,0,-1,1721,1457,0,0
504,-433,19.9058,3.03662,0,0,0,0,0,0,0,-1,1728,1457,19.9058,-3.03656
511,-433,19.0145,3.07837,0,0,0,0,0,0,0,-1,1735,1457,19.0146,-3.07834
518,-433,18.071,3.06433,0,0,0,0,0,0,0,-1,1742,1457,18.071,-3.06432
525,-433,17.2048,3.37085,0,0,0,0,0,0,0,-1,1749,1457,17.2049,-3.37083
532,-433,16.5637,3.36646,0,0,0,0,0,0,0,-1,1756,1457,16.5637,-3.36643
539,-433,15.9193,3.30396,0,0,0,0,0,0,0,-1,1763,1457,15.9193,-3.30394
546,-433,12.4159,7.8667,0,0,0,0,0,0,0,-1,1770,1457,12.4159,-7.86674
553,-433,12.4485,8.224,0,0,0,0,0,0,0,-1,1777,1457,12.4485,-8.22406
560,-433,12.6196,8.51672,0,0,0,0,0,0,0,-1,1784,1457,12.6196,-8.51671
567,-433,12.7766,8.07556,0,0,0,0,0,0,0,-1,1791,1457,12.7766,-8.07553
574,-433,12.6639,8.99927,0,0,0,0,0,0,0,-1,1798,1457,12.6639,-8.99928
581,-433,12.8596,8.8844,-0.0200827,-0.0362741,0.0136443,-0.0123131,-0.0440436,0.517644,0.0262394,0.0445289,1805,1457,12.8596,-8.88437
588,-433,12.8303,8.83386,-0.0165949,-0.026188,0.0116982,-0.00874807,-0.0340348,0.590839,0.0204087,0.0382289,1812,1457,12.8303,-8.83382
595,-433,12.6581,8.74622,-0.0134354,-0.0183994,0.00966881,-0.00593509,-0.0258997,0.65976,0.0156674,0.0222515,1819,1457,12.6581,-8.74625
602,-433,12.6788,8.48218,-0.0107721,-0.0126511,0.00770494,-0.00394959,-0.0194736,0.724729,0.0118867,0.0198388,1826,1457,12.6789,-8.48222
609,-433,12.6958,8.22937,-0.00841421,-0.00753221,0.00613079,-0.00182658,-0.0141198,0.821302,0.0088673,0.0157977,1833,1457,12.6958,-8.2294
616,-433,12.7063,8.05457,-0.00600123,-0.00455261,0.00439009,-0.000827475,-0.00972636,0.867155,0.00622677,0.0133352,1840,1457,12.7063,-8.05459
623,-433,12.6836,7.82227,-0.00385593,-0.00266306,0.00281251,-0.000384437,-0.00613455,0.889882,0.00396777,0.0103427,1847,1457,12.6836,-7.82229
630,-433,12.6697,7.58472,-0.00229071,-0.00133334,0.0014424,-0.000292272,-0.00333178,0.945612,0.00213045,0.0126847,1854,1457,12.6697,-7.58476
637,-433,12.6703,7.35437,-0.000977708,-0.00020275,0.00036229,-5.97631e-05,-0.00112069,1.19489,0.000728027,0.0130813,1861,1457,12.6703,-7.35434
644,-433,12.6602,7.15039,-0.000118263,0.000555581,-0.000400488,0.00074202,-0.000304702,-1.1351,0.000621658,0.0135255,1868,1457,12.6602,-7.15044
651,-433,12.6819,6.92151,0.000109607,0.00130158,-0.000956171,0.00183229,-0.000421112,-1.06409,0.00138343,0.0106717,1875,1457,12.6819,-6.92151
658,-433,12.6727,6.65027,-0.000619428,0.00199598,-0.0011901,0.00245644,-0.00107989,-1.20162,0.00209263,0.0143252,1882,1457,12.6728,-6.65026
665,-433,12.6425,6.36401,-0.00206079,0.0028376,-0.00134758,0.00318385,-0.00240704,-1.31929,0.00323827,0.0221927,1889,1457,12.6424,-6.36398
672,-433,12.6707,6.35828,-0.00433274,0.00364214,-0.00126569,0.00383819,-0.00452879,-1.41712,0.00483616,0.0418454,1896,1457,12.6706,-6.35833
679,-433,11.8737,6.71252,-0.00761457,0.00467065,-0.00115097,0.00477755,-0.00772147,-1.47818,0.00728273,0.0436903,1903,1457,11.8736,-6.71253
686,-433,11.246,6.93835,0,0,0,0,0,0,0,-1,1910,1457,11.2459,-6.93839
693,-433,12.4923,5.4408,0,0,0,0,0,0,0,-1,1917,1457,12.4923,-5.44083
700,-433,7.16809,-1.5166,0,0,0,0,0,0,0,-1,1924,1457,7.16806,1.51656
707,-433,8.68359,-2.82202,0,0,0,0,0,0,0,-1,1931,1457,8.68359,2.82197
714,-433,0,0,0,0,0,0,0,0,0,-1,1938,1457,0,0
721,-433,0,0,0,0,0,0,0,0,0,-1,1945,1457,0,0
728,-433,0,0,0,0,0,0,0,0,0,-1,1952,1457,0,0
735,-433,0,0,0,0,0,0,0,0,0,-1,1959,1457,0,0
742,-433,0,0,0,0,0,0,0,0,0,-1,1966,1457,0,0
749,-433,0,0,0,0,0,0,0,0,0,-1,1973,1457,0,0
756,-433,0,0,0,0,0,0,0,0,0,-1,1980,1457,0,0
763,-433,0,0,0,0,0,0,0,0,0,-1,1987,1457,0,0
770,-433,0,0,0,0,0,0,0,0,0,-1,1994,1457,0,0
777,-433,0,0,0,0,0,0,0,0,0,-1,2001,1457,0,0
784,-433,0,0,0,0,0,0,0,0,0,-1,2008,1457,0,0
791,-433,0,0,0,0,0,0,0,0,0,-1,2015,1457,0,0
798,-433,0,0,0,0,0,0,0,0,0,-1,2022,1457,0,0
805,-433,0,0,0,0,0,0,0,0,0,-1,2029,1457,0,0
812,-433,0,0,0,0,0,0,0,0,0,-1,2036,1457,0,0
-700,-440,0,0,0,0,0,0,0,0,0,-1,524,1464,0,0
-693,-440,0,0,0,0,0,0,0,0,0,-1,531,1464,0,0
-686,-440,0,0,0,0,0,0,0,0,0,-1,538,1464,0,0
-679,-440,0,0,0,0,0,0,0,0,0,-1,545,1464,0,0
-672,-440,0,0,0,0,0,0,0,0,0,-1,552,1464,0,0
-665,-440,0,0,0,0,0,0,0,0,0,-1,559,1464,0,0
-658,-440,0,0,0,0,0,0,0,0,0,-1,566,1464,0,0
-651,-440,0,0,0,0,0,0,0,0,0,-1,573,1464,0,0
-644,-440,0,0,0,0,0,0,0,0,0,-1,580,1464,0,0
-637,-440,0,0,0,0,0,0,0,0,0,-1,587,1464,0,0
-630,-440,0,0,0,0,0,0,0,0,0,-1,594,1464,0,0
-623,-440,0,0,0,0,0,0,0,0,0,-1,601,1464,0,0
-616,-440,0,0,0,0,0,0,0,0,0,-1,608,1464,0,0
-609,-440,0,0,0,0,0,0,0,0,0,-1,615,1464,0,0
-602,-440,0,0,0,0,0,0,0,0,0,-1,622,1464,0,0
-595,-440,0,0,0,0,0,0,0,0,0,-1,629,1464,0,0
-588,-440,0,0,0,0,0,0,0,0,0,-1,636,1464,0,0
-581,-440,-5.65979,-1.33923,0,0,0,0,0,0,0,-1,643,1464,-5.65977,1.33928
-574,-440,-7.00818,-0.918579,0,0,0,0,0,0,0,-1,650,1464,-7.00817,0.918538
-567,-440,-6.12152,-0.0766602,0,0,0,0,0,0,0,-1,657,1464,-6.12151,0.0767097
-560,-440,-5.46747,0.82251,0,0,0,0,0,0,0,-1,664,1464,-5.46748,-0.822551
-553,-440,-6.20166,2.59509,0,0,0,0,0,0,0,-1,671,1464,-6.20164,-2.59505
-546,-440,-4.92297,3.0968,0,0,0,0,0,0,0,-1,678,1464,-4.923,-3.09681
-539,-440,-3.79907,4.59961,0,0,0,0,0,0,0,-1,685,1464,-3.79905,-4.59961
-532,-440,-3.44562,4.60608,0.0264223,-0.000210895,0.0104442,0.0300295,-0.00381805,0.332547,0.0214061,0.0410631,692,1464,-3.44564,-4.60607
-525,-440,-3.37866,4.84167,0.0201939,0.000602495,0.00767614,0.0228433,-0.00204683,0.332337,0.0159549,0.0202288,699,1464,-3.37866,-4.84174
-518,-440,-3.39331,5.05432,0.0153208,0.000864365,0.00557349,0.0172201,-0.00103489,0.328426,0.0118401,0.0142846,706,1464,-3.39333,-5.05437
-511,-440,-3.36188,5.31763,0.0115366,0.000766488,0.0040107,0.0128661,-0.000562953,0.320076,0.00877106,0.0153703,713,1464,-3.36188,-5.31764
-504,-440,-3.34656,5.55725,0.00838827,0.00036827,0.0026303,0.00917396,-0.000417414,0.290268,0.00625975,0.0181007,720,1464,-3.34653,-5.55726
-497,-440,-3.3548,5.78064,0.00544731,0.000126038,0.000715345,0.00554179,3.15506e-05,0.131326,0.00368406,0.0209508,727,1464,-3.35481,-5.78061
-490,-440,-3.37347,6.026,0.00397423,-0.00114366,-0.00116899,0.0042286,-0.00139803,-0.214258,0.00338278,0.0207786,734,1464,-3.37345,-6.02596
-483,-440,-3.39282,6.31519,0.00336689,-0.00355627,-0.00354765,0.00486195,-0.00505133,-0.398838,0.00572379,0.0190443,741,1464,-3.39281,-6.31524
-476,-440,-3.37726,6.59021,0.00260831,-0.00602059,-0.00611446,0.00577725,-0.00918953,-0.478156,0.00871561,0.0133481,748,1464,-3.37727,-6.59023
-469,-440,-3.37897,6.85999,0.002594,-0.00908185,-0.00931219,0.0077469,-0.0142347,-0.505411,0.0128741,0.0124968,755,1464,-3.37896,-6.86004
-462,-440,-3.37842,7.1311,0.00323577,-0.0126954,-0.0135073,0.0109513,-0.0204109,-0.518983,0.0183795,0.0133129,762,1464,-3.37841,-7.13111
-455,-440,-3.33276,7.4292,0.00443735,-0.0175307,-0.0185612,0.015021,-0.0281144,-0.518223,0.0252838,0.0188815,769,1464,-3.33279,-7.42914
-448,-440,-3.11633,7.53455,0.00625421,-0.0236563,-0.02482,0.0202764,-0.0376785,-0.514252,0.0339593,0.0316073,776,1464,-3.11632,-7.53454
-441,-440,-3.16278,7.07983,0.00849491,-0.0310721,-0.0324136,0.0266855,-0.0492627,-0.511402,0.0444898,0.0375704,783,1464,-3.16276,-7.07984
-434,-440,-3.04236,6.66833,0.0111571,-0.0398288,-0.0413244,0.0342192,-0.062891,-0.509022,0.0568754,0.0446523,790,1464,-3.04238,-6.66833
-427,-440,-2.63,6.44519,0,0,0,0,0,0,0,-1,797,1464,-2.63001,-6.44516
-420,-440,-3.36182,6.51855,0,0,0,0,0,0,0,-1,804,1464,-3.3618,-6.51852
-413,-440,-3.46796,5.72278,0,0,0,0,0,0,0,-1,811,1464,-3.46797,-5.72276
-406,-440,-5.2887,5.20264,0,0,0,0,0,0,0,-1,818,1464,-5.2887,-5.20261
-399,-440,-12.7318,3.94421,0,0,0,0,0,0,0,-1,825,1464,-12.7318,-3.94419
-392,-440,-13.5565,2.51855,0,0,0,0,0,0,0,-1,832,1464,-13.5565,-2.51861
-385,-440,-14.6741,1.39795,0,0,0,0,0,0,0,-1,839,1464,-14.6741,-1.39801
-378,-440,-15.8063,0.293457,0,0,0,0,0,0,0,-1,846,1464,-15.8063,-0.293412
-371,-440,0,0,0,0,0,0,0,0,0,-1,853,1464,0,0
-364,-440,0,0,0,0,0,0,0,0,0,-1,860,1464,0,0
-357,-440,0,0,0,0,0,0,0,0,0,-1,867,1464,0,0
-350,-440,0,0,0,0,0,0,0,0,0,-1,874,1464,0,0
-343,-440,0,0,0,0,0,0,0,0,0,-1,881,1464,0,0
-336,-440,0,0,0,0,0,0,0,0,0,-1,888,1464,0,0
-329,-440,0,0,0,0,0,0,0,0,0,-1,895,1464,0,0
-322,-440,0,0,0,0,0,0,0,0,0,-1,902,1464,0,0
-315,-440,0,0,0,0,0,0,0,0,0,-1,909,1464,0,0
-308,-440,0,0,0,0,0,0,0,0,0,-1,916,1464,0,0
-301,-440,0,0,0,0,0,0,0,0,0,-1,923,1464,0,0
-294,-440,0,0,0,0,0,0,0,0,0,-1,930,1464,0,0
-287,-440,0,0,0,0,0,0,0,0,0,-1,937,1464,0,0
-280,-440,0,0,0,0,0,0,0,0,0,-1,944,1464,0,0
-273,-440,0,0,0,0,0,0,0,0,0,-1,951,1464,0,0
-266,-440,0,0,0,0,0,0,0,0,0,-1,958,1464,0,0
-259,-440,0,0,0,0,0,0,0,0,0,-1,965,1464,0,0
-252,-440,0,0,0,0,0,0,0,0,0,-1,972,1464,0,0
-245,-440,0,0,0,0,0,0,0,0,0,-1,979,1464,0,0
-238,-440,0,0,0,0,0,0,0,0,0,-1,986,1464,0,0
-231,-440,0,0,0,0,0,0,0,0,0,-1,993,1464,0,0
-224,-440,0,0,0,0,0,0,0,0,0,-1,1000,1464,0,0
-217,-440,0,0,0,0,0,0,0,0,0,-1,1007,1464,0,0
-210,-440,0,0,0,0,0,0,0,0,0,-1,1014,1464,0,0
-203,-440,0,0,0,0,0,0,0,0,0,-1,1021,1464,0,0
-196,-440,0,0,0,0,0,0,0,0,0,-1,1028,1464,0,0
-189,-440,0,0,0,0,0,0,0,0,0,-1,1035,1464,0,0
-182,-440,0,0,0,0,0,0,0,0,0,-1,1042,1464,0,0
-175,-440,0,0,0,0,0,0,0,0,0,-1,1049,1464,0,0
-168,-440,0,0,0,0,0,0,0,0,0,-1,1056,1464,0,0
-161,-440,0,0,0,0,0,0,0,0,0,-1,1063,1464,0,0
-154,-440,0,0,0,0,0,0,0,0,0,-1,1070,1464,0,0
-147,-440,0,0,0,0,0,0,0,0,0,-1,1077,1464,0,0
-140,-440,0,0,0,0,0,0,0,0,0,-1,1084,1464,0,0
-133,-440,0,0,0,0,0,0,0,0,0,-1,1091,1464,0,0
-126,-440,0,0,0,0,0,0,0,0,0,-1,1098,1464,0,0
-119,-440,0,0,0,0,0,0,0,0,0,-1,1105,1464,0,0
-112,-440,0,0,0,0,0,0,0,0,0,-1,1112,1464,0,0
-105,-440,0,0,0,0,0,0,0,0,0,-1,1119,1464,0,0
-98,-440,0,0,0,0,0,0,0,0,0,-1,1126,1464,0,0
-91,-440,0,0,0,0,0,0,0,0,0,-1,1133,1464,0,0
-84,-440,0,0,0,0,0,0,0,0,0,-1,1140,1464,0,0
-77,-440,0,0,0,0,0,0,0,0,0,-1,1147,1464,0,0
-70,-440,0,0,0,0,0,0,0,0,0,-1,1154,1464,0,0
-63,-440,0,0,0,0,0,0,0,0,0,-1,1161,1464,0,0
-56,-440,0,0,0,0,0,0,0,0,0,-1,1168,1464,0,0
-49,-440,0,0,0,0,0,0,0,0,0,-1,1175,1464,0,0
-42,-440,0,0,0,0,0,0,0,0,0,-1,1182,1464,0,0
-35,-440,0,0,0,0,0,0,0,0,0,-1,1189,1464,0,0
-28,-440,0,0,0,0,0,0,0,0,0,-1,1196,1464,0,0
-21,-440,0,0,0,0,0,0,0,0,0,-1,1203,1464,0,0
-14,-440,0,0,0,0,0,0,0,0,0,-1,1210,1464,0,0
-7,-440,0,0,0,0,0,0,0,0,0,-1,1217,1464,0,0
0,-440,0,0,0,0,0,0,0,0,0,-1,1224,1464,0,0
7,-440,0,0,0,0,0,0,0,0,0,-1,1231,1464,0,0
14,-440,0,0,0,0,0,0,0,0,0,-1,1238,1464,0,0
21,-440,0,0,0,0,0,0,0,0,0,-1,1245,1464,0,0
28,-440,0,0,0,0,0,0,0,0,0,-1,1252,1464,0,0
35,-440,0,0,0,0,0,0,0,0,0,-1,1259,1464,0,0
42,-440,0,0,0,0,0,0,0,0,0,-1,1266,1464,0,0
49,-440,0,0,0,0,0,0,0,0,0,-1,1273,1464,0,0
56,-440,0,0,0,0,0,0,0,0,0,-1,1280,1464,0,0
63,-440,0,0,0,0,0,0,0,0,0,-1,1287,1464,0,0
70,-440,0,0,0,0,0,0,0,0,0,-1,1294,1464,0,0
77,-440,0,0,0,0,0,0,0,0,0,-1,1301,1464,0,0
84,-440,0,0,0,0,0,0,0,0,0,-1,1308,1464,0,0
91,-440,0,0,0,0,0,0,0,0,0,-1,1315,1464,0,0
98,-440,0,0,0,0,0,0,0,0,0,-1,1322,1464,0,0
105,-440,0,0,0,0,0,0,0,0,0,-1,1329,1464,0,0
112,-440,0,0,0,0,0,0,0,0,0,-1,1336,1464,0,0
119,-440,0,0,0,0,0,0,0,0,0,-1,1343,1464,0,0
126,-440,0,0,0,0,0,0,0,0,0,-1,1350,1464,0,0
133,-440,0,0,0,0,0,0,0,0,0,-1,1357,1464,0,0
140,-440,0,0,0,0,0,0,0,0,0,-1,1364,1464,0,0
147,-440,0,0,0,0,0,0,0,0,0,-1,1371,1464,0,0
154,-440,0,0,0,0,0,0,0,0,0,-1,1378,1464,0,0
161,-440,0,0,0,0,0,0,0,0,0,-1,1385,1464,0,0
168,-440,0,0,0,0,0,0,0,0,0,-1,1392,1464,0,0
175,-440,0,0,0,0,0,0,0,0,0,-1,1399,1464,0,0
182,-440,0,0,0,0,0,0,0,0,0,-1,1406,1464,0,0
189,-440,0,0,0,0,0,0,0,0,0,-1,1413,1464,0,0
196,-440,0,0,0,0,0,0,0,0,0,-1,1420,1464,0,0
203,-440,0,0,0,0,0,0,0,0,0,-1,1427,1464,0,0
210,-440,0,0,0,0,0,0,0,0,0,-1,1434,1464,0,0
217,-440,0,0,0,0,0,0,0,0,0,-1,1441,1464,0,0
224,-440,0,0,0,0,0,0,0,0,0,-1,1448,1464,0,0
231,-440,0,0,0,0,0,0,0,0,0,-1,1455,1464,0,0
238,-440,0,0,0,0,0,0,0,0,0,-1,1462,1464,0,0
245,-440,0,0,0,0,0,0,0,0,0,-1,1469,1464,0,0
252,-440,0,0,0,0,0,0,0,0,0,-1,1476,1464,0,0
259,-440,0,0,0,0,0,0,0,0,0,-1,1483,1464,0,0
266,-440,0,0,0,0,0,0,0,0,0,-1,1490,1464,0,0
273,-440,0,0,0,0,0,0,0,0,0,-1,1497,1464,0,0
280,-440,0,0,0,0,0,0,0,0,0,-1,1504,1464,0,0
287,-440,0,0,0,0,0,0,0,0,0,-1,1511,1464,0,0
294,-440,0,0,0,0,0,0,0,0,0,-1,1518,1464,0,0
301,-440,0,0,0,0,0,0,0,0,0,-1,1525,1464,0,0
308,-440,0,0,0,0,0,0,0,0,0,-1,1532,1464,0,0
315,-440,0,0,0,0,0,0,0,0,0,-1,1539,1464,0,0
322,-440,0,0,0,0,0,0,0,0,0,-1,1546,1464,0,0
329,-440,0,0,0,0,0,0,0,0,0,-1,1553,1464,0,0
336,-440,0,0,0,0,0,0,0,0,0,-1,1560,1464,0,0
343,-440,0,0,0,0,0,0,0,0,0,-1,1567,1464,0,0
350,-440,0,0,0,0,0,0,0,0,0,-1,1574,1464,0,0
357,-440,0,0,0,0,0,0,0,0,0,-1,1581,1464,0,0
364,-440,0,0,0,0,0,0,0,0,0,-1,1588,1464,0,0
371,-440,0,0,0,0,0,0,0,0,0,-1,1595,1464,0,0
378,-440,0,0,0,0,0,0,0,0,0,-1,1602,1464,0,0
385,-440,0,0,0,0,0,0,0,0,0,-1,1609,1464,0,0
392,-440,0,0,0,0,0,0,0,0,0,-1,1616,1464,0,0
399,-440,0,0,0,0,0,0,0,0,0,-1,1623,1464,0,0
406,-440,0,0,0,0,0,0,0,0,0,-1,1630,1464,0,0
413,-440,0,0,0,0,0,0,0,0,0,-1,1637,1464,0,0
420,-440,0,0,0,0,0,0,0,0,0,-1,1644,1464,0,0
427,-440,0,0,0,0,0,0,0,0,0,-1,1651,1464,0,0
434,-440,0,0,0,0,0,0,0,0,0,-1,1658,1464,0,0
441,-440,0,0,0,0,0,0,0,0,0,-1,1665,1464,0,0
448,-440,0,0,0,0,0,0,0,0,0,-1,1672,1464,0,0
455,-440,0,0,0,0,0,0,0,0,0,-1,1679,1464,0,0
462,-440,0,0,0,0,0,0,0,0,0,-1,1686,1464,0,0
469,-440,0,0,0,0,0,0,0,0,0,-1,1693,1464,0,0
476,-440,0,0,0,0,0,0,0,0,0,-1,1700,1464,0,0
483,-440,0,0,0,0,0,0,0,0,0,-1,1707,1464,0,0
490,-440,0,0,0,0,0,0,0,0,0,-1,1714,1464,0,0
497,-440,16.965,-0.528442,0,0,0,0,0,0,0,-1,1721,1464,16.965,0.528492
504,-440,15.8052,0.670166,0,0,0,0,0,0,0,-1,1728,1464,15.8052,-0.670145
511,-440,17.5754,2.77832,0,0,0,0,0,0,0,-1,1735,1464,17.5754,-2.77826
518,-440,16.9017,3.07861,0,0,0,0,0,0,0,-1,1742,1464,16.9018,-3.07859
525,-440,18.4495,12.0867,0,0,0,0,0,0,0,-1,1749,1464,18.4495,-12.0867
532,-440,15.4319,3.64392,0,0,0,0,0,0,0,-1,1756,1464,15.4318,-3.64391
539,-440,14.8214,3.41321,0,0,0,0,0,0,0,-1,1763,1464,14.8214,-3.4132
546,-440,12.5454,7.78723,0,0,0,0,0,0,0,-1,1770,1464,12.5454,-7.78725
553,-440,12.6135,8.0127,-0.0376803,-0.0832436,0.0212203,-0.0293283,-0.0915956,0.374964,0.0540106,0.0439882,1777,1464,12.6135,-8.01273
560,-440,12.7161,8.28223,-0.0303126,-0.0670371,0.0179752,-0.0229789,-0.0743707,0.387373,0.0439701,0.044472,1784,1464,12.716,-8.28223
567,-440,12.6838,8.52222,-0.0233939,-0.053209,0.0145178,-0.0174927,-0.0591102,0.386077,0.0350619,0.0481962,1791,1464,12.6839,-8.52216
574,-440,12.4861,9.09766,0,0,0,0,0,0,0,-1,1798,1464,12.4861,-9.09769
581,-440,12.5417,9.06348,-0.0153983,-0.0296376,0.0105745,-0.00977007,-0.0352659,0.489111,0.0210247,0.0418122,1805,1464,12.5417,-9.06347
588,-440,12.4247,9.02869,-0.0123341,-0.0214604,0.00896683,-0.00683613,-0.0269584,0.55003,0.0161822,0.0296093,1812,1464,12.4247,-9.02871
595,-440,12.4204,8.77063,-0.0097481,-0.0150176,0.00736373,-0.00456197,-0.0202038,0.613593,0.0122354,0.0192457,1819,1464,12.4204,-8.77065
602,-440,12.4427,8.47583,-0.00771259,-0.0102344,0.00582938,-0.00300932,-0.0149377,0.678887,0.00912235,0.0184403,1826,1464,12.4427,-8.47586
609,-440,12.4436,8.25818,-0.00583408,-0.0058837,0.00453908,-0.00131975,-0.010398,0.782665,0.00653667,0.0161356,1833,1464,12.4436,-8.25818
616,-440,12.4458,8.08618,-0.00389423,-0.00338168,0.00313297,-0.000494513,-0.00678139,0.826207,0.00436543,0.0168317,1840,1464,12.4458,-8.08624
623,-440,12.4714,7.82471,-0.0021916,-0.00182565,0.00185736,-0.000142271,-0.00387497,0.834497,0.00253722,0.0127088,1847,1464,12.4714,-7.82473
630,-440,12.449,7.55957,-0.00100691,-0.000626851,0.000654239,-0.000135601,-0.00149816,0.926738,0.00095678,0.0107086,1854,1464,12.449,-7.55956
637,-440,12.4556,7.35559,6.00251e-05,0.000373647,-0.000315569,0.000569219,-0.000135547,-1.01599,0.000431812,0.0151502,1861,1464,12.4556,-7.35565
644,-440,12.467,7.15259,0.000746721,0.00114356,-0.0010815,0.00204469,-0.000154412,-0.876122,0.0014174,0.013859,1868,1464,12.467,-7.15264
651,-440,12.4873,6.91467,0.000763345,0.0019633,-0.00169939,0.00316551,-0.000438866,-0.955095,0.00227081,0.0118471,1875,1464,12.4873,-6.91466
658,-440,12.4491,6.68945,-0.000163521,0.00292438,-0.00212751,0.00400913,-0.00124827,-1.09928,0.0031718,0.0184296,1882,1464,12.4491,-6.68944
665,-440,12.501,6.44397,-0.00173316,0.00428517,-0.00268289,0.0053075,-0.0027555,-1.20673,0.00473226,0.0312049,1889,1464,12.501,-6.44403
672,-440,12.46,6.41858,-0.00420685,0.00592736,-0.00319387,0.00684994,-0.00512943,-1.28959,0.00694003,0.0439934,1896,1464,12.46,-6.41854
679,-440,12.4648,6.32874,-0.00793759,0.00827014,-0.00396873,0.00918977,-0.00885721,-1.3431,0.01042,0.0463584,1903,1464,12.4649,-6.32876
686,-440,12.2858,6.1543,0,0,0,0,0,0,0,-1,1910,1464,12.2858,-6.15433
693,-440,9.88635,2.89795,0,0,0,0,0,0,0,-1,1917,1464,9.88638,-2.89798
700,-440,7.07825,-2.62061,0,0,0,0,0,0,0,-1,1924,1464,7.07829,2.62057
707,-440,0,0,0,0,0,0,0,0,0,-1,1931,1464,0,0
714,-440,0,0,0,0,0,0,0,0,0,-1,1938,1464,0,0
721,-440,0,0,0,0,0,0,0,0,0,-1,1945,1464,0,0
728,-440,0,0,0,0,0,0,0,0,0,-1,1952,1464,0,0
735,-440,0,0,0,0,0,0,0,0,0,-1,1959,1464,0,0
742,-440,0,0,0,0,0,0,0,0,0,-1,1966,1464,0,0
749,-440,0,0,0,0,0,0,0,0,0,-1,1973,1464,0,0
756,-440,0,0,0,0,0,0,0,0,0,-1,1980,1464,0,0
763,-440,0,0,0,0,0,0,0,0,0,-1,1987,1464,0,0
770,-440,0,0,0,0,0,0,0,0,0,-1,1994,1464,0,0
777,-440,0,0,0,0,0,0,0,0,0,-1,2001,1464,0,0
784,-440,0,0,0,0,0,0,0,0,0,-1,2008,1464,0,0
791,-440,0,0,0,0,0,0,0,0,0,-1,2015,1464,0,0
798,-440,0,0,0,0,0,0,0,0,0,-1,2022,1464,0,0
805,-440,0,0,0,0,0,0,0,0,0,-1,2029,1464,0,0
812,-440,0,0,0,0,0,0,0,0,0,-1,2036,1464,0,0
-700,-447,0,0,0,0,0,0,0,0,0,-1,524,1471,0,0
-693,-447,0,0,0,0,0,0,0,0,0,-1,531,1471,0,0
-686,-447,0,0,0,0,0,0,0,0,0,-1,538,1471,0,0
-679,-447,0,0,0,0,0,0,0,0,0,-1,545,1471,0,0
-672,-447,0,0,0,0,0,0,0,0,0,-1,552,1471,0,0
-665,-447,0,0,0,0,0,0,0,0,0,-1,559,1471,0,0
-658,-447,0,0,0,0,0,0,0,0,0,-1,566,1471,0,0
-651,-447,0,0,0,0,0,0,0,0,0,-1,573,1471,0,0
-644,-447,0,0,0,0,0,0,0,0,0,-1,580,1471,0,0
-637,-447,0,0,0,0,0,0,0,0,0,-1,587,1471,0,0
-630,-447,0,0,0,0,0,0,0,0,0,-1,594,1471,0,0
-623,-447,0,0,0,0,0,0,0,0,0,-1,601,1471,0,0
-616,-447,0,0,0,0,0,0,0,0,0,-1,608,1471,0,0
-609,-447,0,0,0,0,0,0,0,0,0,-1,615,1471,0,0
-602,-447,0,0,0,0,0,0,0,0,0,-1,622,1471,0,0
-595,-447,0,0,0,0,0,0,0,0,0,-1,629,1471,0,0
-588,-447,0,0,0,0,0,0,0,0,0,-1,636,1471,0,0
-581,-447,-7.06482,-1.50476,0,0,0,0,0,0,0,-1,643,1471,-7.0648,1.50474
-574,-447,-6.88092,-0.00585938,0,0,0,0,0,0,0,-1,650,1471,-6.88095,0.00589852
-567,-447,-6.8205,-1.32178,0,0,0,0,0,0,0,-1,657,1471,-6.82047,1.32172
-560,-447,-8.85748,2.80774,0,0,0,0,0,0,0,-1,664,1471,-8.85748,-2.80775
-553,-447,-7.60486,3.26794,0.0796753,-0.00972978,0.0350262,0.0917632,-0.0218177,0.332312,0.0695975,0.0462018,671,1471,-7.60487,-3.26799
-546,-447,-6.28131,3.74207,0,0,0,0,0,0,0,-1,678,1471,-6.28132,-3.74206
-539,-447,-4.8241,3.96753,0,0,0,0,0,0,0,-1,685,1471,-4.82412,-3.96755
-532,-447,-3.55536,4.19946,0.0371878,0.000203217,0.0136069,0.0416545,-0.00426343,0.31718,0.0292944,0.0474607,692,1471,-3.55536,-4.1995
-525,-447,-2.98932,4.83691,0.028458,0.00116929,0.00997589,0.0317159,-0.00208863,0.31566,0.0218734,0.0306645,699,1471,-2.98933,-4.83686
-518,-447,-3.10822,5.04285,0.0216158,0.00147226,0.00727191,0.0239667,-0.00087858,0.312672,0.0162785,0.0220545,706,1471,-3.10819,-5.04279
-511,-447,-3.11011,5.32019,0.0162617,0.00134221,0.00526359,0.0179318,-0.000327838,0.307237,0.0120653,0.0158556,713,1471,-3.11012,-5.32025
-504,-447,-3.11475,5.57788,0.0119117,0.000938195,0.00361921,0.0129978,-0.000147961,0.291557,0.00871496,0.0197827,720,1471,-3.11476,-5.57789
-497,-447,-3.12927,5.8252,0.00803273,0.000672387,0.00159801,0.0083647,0.000340416,0.204827,0.00546653,0.0236054,727,1471,-3.12926,-5.82516
-490,-447,-3.08771,6.08105,0.00584304,-0.000528921,-0.000176065,0.0058479,-0.000533782,-0.0276031,0.00408816,0.023476,734,1471,-3.08769,-6.08103
-483,-447,-3.11981,6.31689,0.00461182,-0.00266205,-0.00229496,0.00527537,-0.00332559,-0.281456,0.00500812,0.0218331,741,1471,-3.11979,-6.31684
-476,-447,-3.12946,6.57141,0.00332566,-0.0048912,-0.00448182,0.00529719,-0.00686273,-0.414419,0.0070399,0.0139682,748,1471,-3.12944,-6.57146
-469,-447,-3.13232,6.86682,0.00289453,-0.00751119,-0.00711845,0.00650882,-0.0111255,-0.469817,0.0102968,0.0131244,755,1471,-3.13232,-6.86678
-462,-447,-3.12891,7.14465,0.00327447,-0.0104692,-0.0104981,0.0089498,-0.0161445,-0.495604,0.0146854,0.0129082,762,1471,-3.12892,-7.14471
-455,-447,-3.16077,7.41272,0.00429676,-0.0144328,-0.0144115,0.0121189,-0.022255,-0.497276,0.0201313,0.0144781,769,1471,-3.16076,-7.4127
-448,-447,-3.09778,7.66919,0.00591073,-0.0193414,-0.0191269,0.0162031,-0.0296338,-0.493669,0.0268399,0.0199939,776,1471,-3.0978,-7.66916
-441,-447,-3.05975,7.80188,0.00788371,-0.0251689,-0.0248358,0.0211892,-0.0384744,-0.491828,0.0349253,0.0267044,783,1471,-3.05972,-7.80185
-434,-447,-2.75336,7.67737,0,0,0,0,0,0,0,-1,790,1471,-2.75334,-7.67735
-427,-447,-3.33649,7.37634,0,0,0,0,0,0,0,-1,797,1471,-3.33649,-7.37633
-420,-447,-3.65393,7.52258,0,0,0,0,0,0,0,-1,804,1471,-3.65394,-7.52263
-413,-447,-3.4707,8.44543,0,0,0,0,0,0,0,-1,811,1471,-3.47072,-8.44539
-406,-447,-1.04279,6.18591,0,0,0,0,0,0,0,-1,818,1471,-1.04276,-6.18586
-399,-447,0.0134888,0.687622,0,0,0,0,0,0,0,-1,825,1471,0.0134841,-0.68767
-392,-447,-14.0646,3.76147,0,0,0,0,0,0,0,-1,832,1471,-14.0646,-3.7615
-385,-447,-15.1695,2.61865,0,0,0,0,0,0,0,-1,839,1471,-15.1695,-2.61871
-378,-447,-15.9424,1.49316,0,0,0,0,0,0,0,-1,846,1471,-15.9424,-1.49313
-371,-447,-17.3655,0.73291,0,0,0,0,0,0,0,-1,853,1471,-17.3655,-0.732946
-364,-447,0,0,0,0,0,0,0,0,0,-1,860,1471,0,0
-357,-447,0,0,0,0,0,0,0,0,0,-1,867,1471,0,0
-350,-447,0,0,0,0,0,0,0,0,0,-1,874,1471,0,0
-343,-447,0,0,0,0,0,0,0,0,0,-1,881,1471,0,0
-336,-447,0,0,0,0,0,0,0,0,0,-1,888,1471,0,0
-329,-447,0,0,0,0,0,0,0,0,0,-1,895,1471,0,0
-322,-447,0,0,0,0,0,0,0,0,0,-1,902,1471,0,0
-315,-447,0,0,0,0,0,0,0,0,0,-1,909,1471,0,0
-308,-447,0,0,0,0,0,0,0,0,0,-1,916,1471,0,0
-301,-447,0,0,0,0,0,0,0,0,0,-1,923,1471,0,0
-294,-447,0,0,0,0,0,0,0,0,0,-1,930,1471,0,0
-287,-447,0,0,0,0,0,0,0,0,0,-1,937,1471,0,0
-280,-447,0,0,0,0,0,0,0,0,0,-1,944,1471,0,0
-273,-447,0,0,0,0,0,0,0,0,0,-1,951,1471,0,0
-266,-447,0,0,0,0,0,0,0,0,0,-1,958,1471,0,0
-259,-447,0,0,0,0,0,0,0,0,0,-1,965,1471,0,0
-252,-447,0,0,0,0,0,0,0,0,0,-1,972,1471,0,0
-245,-447,0,0,0,0,0,0,0,0,0,-1,979,1471,0,0
-238,-447,0,0,0,0,0,0,0,0,0,-1,986,1471,0,0
-231,-447,0,0,0,0,0,0,0,0,0,-1,993,1471,0,0
-224,-447,0,0,0,0,0,0,0,0,0,-1,1000,1471,0,0
-217,-447,0,0,0,0,0,0,0,0,0,-1,1007,1471,0,0
-210,-447,0,0,0,0,0,0,0,0,0,-1,1014,1471,0,0
-203,-447,0,0,0,0,0,0,0,0,0,-1,1021,1471,0,0
-196,-447,0,0,0,0,0,0,0,0,0,-1,1028,1471,0,0
-189,-447,0,0,0,0,0,0,0,0,0,-1,1035,1471,0,0
-182,-447,0,0,0,0,0,0,0,0,0,-1,1042,1471,0,0
-175,-447,0,0,0,0,0,0,0,0,0,-1,1049,1471,0,0
-168,-447,0,0,0,0,0,0,0,0,0,-1,1056,1471,0,0
-161,-447,0,0,0,0,0,0,0,0,0,-1,1063,1471,0,0
-154,-447,0,0,0,0,0,0,0,0,0,-1,1070,1471,0,0
-147,-447,0,0,0,0,0,0,0,0,0,-1,1077,1471,0,0
-140,-447,0,0,0,0,0,0,0,0,0,-1,1084,1471,0,0
-133,-447,0,0,0,0,0,0,0,0,0,-1,1091,1471,0,0
-126,-447,0,0,0,0,0,0,0,0,0,-1,1098,1471,0,0
-119,-447,0,0,0,0,0,0,0,0,0,-1,1105,1471,0,0
-112,-447,0,0,0,0,0,0,0,0,0,-1,1112,1471,0,0
-105,-447,0,0,0,0,0,0,0,0,0,-1,1119,1471,0,0
-98,-447,0,0,0,0,0,0,0,0,0,-1,1126,1471,0,0
-91,-447,0,0,0,0,0,0,0,0,0,-1,1133,1471,0,0
-84,-447,0,0,0,0,0,0,0,0,0,-1,1140,1471,0,0
-77,-447,0,0,0,0,0,0,0,0,0,-1,1147,1471,0,0
-70,-447,0,0,0,0,0,0,0,0,0,-1,1154,1471,0,0
-63,-447,0,0,0,0,0,0,0,0,0,-1,1161,1471,0,0
-56,-447,0,0,0,0,0,0,0,0,0,-1,1168,1471,0,0
-49,-447,0,0,0,0,0,0,0,0,0,-1,1175,1471,0,0
-42,-447,0,0,0,0,0,0,0,0,0,-1,1182,1471,0,0
-35,-447,0,0,0,0,0,0,0,0,0,-1,1189,1471,0,0
-28,-447,0,0,0,0,0,0,0,0,0,-1,1196,1471,0,0
-21,-447,0,0,0,0,0,0,0,0,0,-1,1203,1471,0,0
-14,-447,0,0,0,0,0,0,0,0,0,-1,1210,1471,0,0
-7,-447,0,0,0,0,0,0,0,0,0,-1,1217,1471,0,0
0,-447,0,0,0,0,0,0,0,0,0,-1,1224,1471,0,0
7,-447,0,0,0,0,0,0,0,0,0,-1,1231,1471,0,0
14,-447,0,0,0,0,0,0,0,0,0,-1,1238,1471,0,0
21,-447,0,0,0,0,0,0,0,0,0,-1,1245,1471,0,0
28,-447,0,0,0,0,0,0,0,0,0,-1,1252,1471,0,0
35,-447,0,0,0,0,0,0,0,0,0,-1,1259,1471,0,0
42,-447,0,0,0,0,0,0,0,0,0,-1,1266,1471,0,0
49,-447,0,0,0,0,0,0,0,0,0,-1,1273,1471,0,0
56,-447,0,0,0,0,0,0,0,0,0,-1,1280,1471,0,0
63,-447,0,0,0,0,0,0,0,0,0,-1,1287,1471,0,0
70,-447,0,0,0,0,0,0,0,0,0,-1,1294,1471,0,0
77,-447,0,0,0,0,0,0,0,0,0,-1,1301,1471,0,0
84,-447,0,0,0,0,0,0,0,0,0,-1,1308,1471,0,0
91,-447,0,0,0,0,0,0,0,0,0,-1,1315,1471,0,0
98,-447,0,0,0,0,0,0,0,0,0,-1,1322,1471,0,0
105,-447,0,0,0,0,0,0,0,0,0,-1,1329,1471,0,0
112,-447,0,0,0,0,0,0,0,0,0,-1,1336,1471,0,0
119,-447,0,0,0,0,0,0,0,0,0,-1,1343,1471,0,0
126,-447,0,0,0,0,0,0,0,0,0,-1,1350,1471,0,0
133,-447,0,0,0,0,0,0,0,0,0,-1,1357,1471,0,0
140,-447,0,0,0,0,0,0,0,0,0,-1,1364,1471,0,0
147,-447,0,0,0,0,0,0,0,0,0,-1,1371,1471,0,0
154,-447,0,0,0,0,0,0,0,0,0,-1,1378,1471,0,0
161,-447,0,0,0,0,0,0,0,0,0,-1,1385,1471,0,0
168,-447,0,0,0,0,0,0,0,0,0,-1,1392,1471,0,0
175,-447,0,0,0,0,0,0,0,0,0,-1,1399,1471,0,0
182,-447,0,0,0,0,0,0,0,0,0,-1,1406,1471,0,0
189,-447,0,0,0,0,0,0,0,0,0,-1,1413,1471,0,0
196,-447,0,0,0,0,0,0,0,0,0,-1,1420,1471,0,0
203,-447,0,0,0,0,0,0,0,0,0,-1,1427,1471,0,0
210,-447,0,0,0,0,0,0,0,0,0,-1,1434,1471,0,0
217,-447,0,0,0,0,0,0,0,0,0,-1,1441,1471,0,0
224,-447,0,0,0,0,0,0,0,0,0,-1,1448,1471,0,0
231,-447,0,0,0,0,0,0,0,0,0,-1,1455,1471,0,0
238,-447,0,0,0,0,0,0,0,0,0,-1,1462,1471,0,0
245,-447,0,0,0,0,0,0,0,0,0,-1,1469,1471,0,0
252,-447,0,0,0,0,0,0,0,0,0,-1,1476,1471,0,0
259,-447,0,0,0,0,0,0,0,0,0,-1,1483,1471,0,0
266,-447,0,0,0,0,0,0,0,0,0,-1,1490,1471,0,0
273,-447,0,0,0,0,0,0,0,0,0,-1,1497,1471,0,0
280,-447,0,0,0,0,0,0,0,0,0,-1,1504,1471,0,0
287,-447,0,0,0,0,0,0,0,0,0,-1,1511,1471,0,0
294,-447,0,0,0,0,0,0,0,0,0,-1,1518,1471,0,0
301,-447,0,0,0,0,0,0,0,0,0,-1,1525,1471,0,0
308,-447,0,0,0,0,0,0,0,0,0,-1,1532,1471,0,0
315,-447,0,0,0,0,0,0,0,0,0,-1,1539,1471,0,0
322,-447,0,0,0,0,0,0,0,0,0,-1,1546,1471,0,0
329,-447,0,0,0,0,0,0,0,0,0,-1,1553,1471,0,0
336,-447,0,0,0,0,0,0,0,0,0,-1,1560,1471,0,0
343,-447,0,0,0,0,0,0,0,0,0,-1,1567,1471,0,0
350,-447,0,0,0,0,0,0,0,0,0,-1,1574,1471,0,0
357,-447,0,0,0,0,0,0,0,0,0,-1,1581,1471,0,0
364,-447,0,0,0,0,0,0,0,0,0,-1,1588,1471,0,0
371,-447,0,0,0,0,0,0,0,0,0,-1,1595,1471,0,0
378,-447,0,0,0,0,0,0,0,0,0,-1,1602,1471,0,0
385,-447,0,0,0,0,0,0,0,0,0,-1,1609,1471,0,0
392,-447,0,0,0,0,0,0,0,0,0,-1,1616,1471,0,0
399,-447,0,0,0,0,0,0,0,0,0,-1,1623,1471,0,0
406,-447,0,0,0,0,0,0,0,0,0,-1,1630,1471,0,0
413,-447,0,0,0,0,0,0,0,0,0,-1,1637,1471,0,0
420,-447,0,0,0,0,0,0,0,0,0,-1,1644,1471,0,0
427,-447,0,0,0,0,0,0,0,0,0,-1,1651,1471,0,0
434,-447,0,0,0,0,0,0,0,0,0,-1,1658,1471,0,0
441,-447,0,0,0,0,0,0,0,0,0,-1,1665,1471,0,0
448,-447,0,0,0,0,0,0,0,0,0,-1,1672,1471,0,0
455,-447,0,0,0,0,0,0,0,0,0,-1,1679,1471,0,0
462,-447,0,0,0,0,0,0,0,0,0,-1,1686,1471,0,0
469,-447,0,0,0,0,0,0,0,0,0,-1,1693,1471,0,0
476,-447,0,0,0,0,0,0,0,0,0,-1,1700,1471,0,0
483,-447,0,0,0,0,0,0,0,0,0,-1,1707,1471,0,0
490,-447,18.2214,-0.810303,0,0,0,0,0,0,0,-1,1714,1471,18.2215,0.810307
497,-447,17.0237,0.352417,0,0,0,0,0,0,0,-1,1721,1471,17.0237,-0.352442
504,-447,15.8998,1.53479,0,0,0,0,0,0,0,-1,1728,1471,15.8997,-1.53478
511,-447,14.7201,2.76111,0,0,0,0,0,0,0,-1,1735,1471,14.7201,-2.76107
518,-447,17.7618,13.2864,0,0,0,0,0,0,0,-1,1742,1471,17.7619,-13.2863
525,-447,17.1191,11.9014,0,0,0,0,0,0,0,-1,1749,1471,17.1191,-11.9013
532,-447,16.3959,10.0455,0,0,0,0,0,0,0,-1,1756,1471,16.3959,-10.0456
539,-447,15.5768,8.48901,0,0,0,0,0,0,0,-1,1763,1471,15.5767,-8.48897
546,-447,13.3422,9.32239,0,0,0,0,0,0,0,-1,1770,1471,13.3421,-9.32234
553,-447,12.9478,9.23291,-0.0355196,-0.066027,0.0200217,-0.025603,-0.0759435,0.459874,0.0446146,0.045239,1777,1471,12.9478,-9.23291
560,-447,12.7847,9.05237,-0.0271231,-0.0536386,0.0161934,-0.0194526,-0.0613092,0.442374,0.0361761,0.0457697,1784,1471,12.7846,-9.05232
567,-447,12.5719,9.08826,-0.0198135,-0.04275,0.0123082,-0.0144588,-0.0481047,0.410354,0.0285002,0.0423808,1791,1471,12.572,-9.08831
574,-447,12.3446,9.25232,-0.0146404,-0.0324776,0.00958377,-0.0104674,-0.0366506,0.410667,0.021799,0.0313705,1798,1471,12.3447,-9.25231
581,-447,12.2216,9.25049,-0.0117687,-0.0238309,0.00819075,-0.00762818,-0.0279715,0.468052,0.0166962,0.0170351,1805,1471,12.2215,-9.25045
588,-447,12.2256,8.99207,-0.00901284,-0.0172334,0.00678718,-0.00518837,-0.0210579,0.513137,0.0126684,0.0131421,1812,1471,12.2256,-8.9921
595,-447,12.2001,8.74512,-0.00684361,-0.0119427,0.00549022,-0.00333982,-0.0154464,0.568026,0.00938459,0.0119698,1819,1471,12.2001,-8.74514
602,-447,12.2017,8.47876,-0.00526534,-0.0080006,0.00428019,-0.0021396,-0.0111263,0.630762,0.00681722,0.0108955,1826,1471,12.2017,-8.47876
609,-447,12.2032,8.25903,-0.00373589,-0.00436237,0.00319115,-0.000842648,-0.00725562,0.736475,0.0045821,0.0120915,1833,1471,12.2032,-8.25901
616,-447,12.2195,8.04932,-0.00217168,-0.00230779,0.00205971,-0.000178908,-0.00430057,0.768884,0.00280931,0.0128519,1840,1471,12.2195,-8.04929
623,-447,12.2388,7.83533,-0.000829092,-0.00107188,0.0010494,0.00010591,-0.00200688,0.727815,0.00137458,0.0138759,1847,1471,12.2388,-7.83536
630,-447,12.223,7.58801,5.19544e-05,-5.85939e-06,3.15011e-06,5.21255e-05,-6.03052e-06,0.054273,3.6925e-05,0.0088744,1854,1471,12.223,-7.58806
637,-447,12.2433,7.36157,0.00092095,0.000862923,-0.000863118,0.00175554,2.83306e-05,-0.768597,0.00116103,0.0100066,1861,1471,12.2433,-7.36158
644,-447,12.2495,7.14709,0.00147602,0.00166737,-0.00163832,0.0032128,-6.94159e-05,-0.814565,0.00216538,0.0100261,1868,1471,12.2495,-7.14707
651,-447,12.2788,6.91101,0.00132092,0.00253408,-0.00231112,0.0043169,-0.000461903,-0.913734,0.0030436,0.0205082,1875,1471,12.2789,-6.91106
658,-447,12.1475,6.72656,0.000266089,0.00376603,-0.00296732,0.00546096,-0.00142885,-1.05182,0.00419876,0.0291725,1882,1471,12.1475,-6.72653
665,-447,12.3135,6.45654,-0.00136192,0.005678,-0.00397225,0.00746547,-0.00314939,-1.14795,0.0062951,0.0448845,1889,1471,12.3135,-6.45654
672,-447,12.4365,6.19739,0,0,0,0,0,0,0,-1,1896,1471,12.4366,-6.19734
679,-447,12.5027,6.02161,0,0,0,0,0,0,0,-1,1903,1471,12.5027,-6.02159
686,-447,9.81079,4.30859,0,0,0,0,0,0,0,-1,1910,1471,9.8108,-4.30864
693,-447,10.48,2.08643,0,0,0,0,0,0,0,-1,1917,1471,10.48,-2.08642
700,-447,0,0,0,0,0,0,0,0,0,-1,1924,1471,0,0
707,-447,0,0,0,0,0,0,0,0,0,-1,1931,1471,0,0
714,-447,0,0,0,0,0,0,0,0,0,-1,1938,1471,0,0
721,-447,0,0,0,0,0,0,0,0,0,-1,1945,1471,0,0
728,-447,0,0,0,0,0,0,0,0,0,-1,1952,1471,0,0
735,-447,0,0,0,0,0,0,0,0,0,-1,1959,1471,0,0
742,-447,0,0,0,0,0,0,0,0,0,-1,1966,1471,0,0
749,-447,0,0,0,0,0,0,0,0,0,-1,1973,1471,0,0
756,-447,0,0,0,0,0,0,0,0,0,-1,1980,1471,0,0
763,-447,0,0,0,0,0,0,0,0,0,-1,1987,1471,0,0
770,-447,0,0,0,0,0,0,0,0,0,-1,1994,1471,0,0
777,-447,0,0,0,0,0,0,0,0,0,-1,2001,1471,0,0
784,-447,0,0,0,0,0,0,0,0,0,-1,2008,1471,0,0
791,-447,0,0,0,0,0,0,0,0,0,-1,2015,1471,0,0
798,-447,0,0,0,0,0,0,0,0,0,-1,2022,1471,0,0
805,-447,0,0,0,0,0,0,0,0,0,-1,2029,1471,0,0
812,-447,0,0,0,0,0,0,0,0,0,-1,2036,1471,0,0
-700,-454,0,0,0,0,0,0,0,0,0,-1,524,1478,0,0
-693,-454,0,0,0,0,0,0,0,0,0,-1,531,1478,0,0
-686,-454,0,0,0,0,0,0,0,0,0,-1,538,1478,0,0
-679,-454,0,0,0,0,0,0,0,0,0,-1,545,1478,0,0
-672,-454,0,0,0,0,0,0,0,0,0,-1,552,1478,0,0
-665,-454,0,0,0,0,0,0,0,0,0,-1,559,1478,0,0
-658,-454,0,0,0,0,0,0,0,0,0,-1,566,1478,0,0
-651,-454,0,0,0,0,0,0,0,0,0,-1,573,1478,0,0
-644,-454,0,0,0,0,0,0,0,0,0,-1,580,1478,0,0
-637,-454,0,0,0,0,0,0,0,0,0,-1,587,1478,0,0
-630,-454,0,0,0,0,0,0,0,0,0,-1,594,1478,0,0
-623,-454,0,0,0,0,0,0,0,0,0,-1,601,1478,0,0
-616,-454,0,0,0,0,0,0,0,0,0,-1,608,1478,0,0
-609,-454,0,0,0,0,0,0,0,0,0,-1,615,1478,0,0
-602,-454,0,0,0,0,0,0,0,0,0,-1,622,1478,0,0
-595,-454,0,0,0,0,0,0,0,0,0,-1,629,1478,0,0
-588,-454,0,0,0,0,0,0,0,0,0,-1,636,1478,0,0
-581,-454,0,0,0,0,0,0,0,0,0,-1,643,1478,0,0
-574,-454,-8.4881,-0.465942,0,0,0,0,0,0,0,-1,650,1478,-8.4881,0.465885
-567,-454,-8.10046,0.922974,0,0,0,0,0,0,0,-1,657,1478,-8.10047,-0.923034
-560,-454,-10.656,3.51172,0,0,0,0,0,0,0,-1,664,1478,-10.656,-3.51176
-553,-454,-9.01129,3.95251,0,0,0,0,0,0,0,-1,671,1478,-9.0113,-3.95256
-546,-454,-7.63965,4.38733,0,0,0,0,0,0,0,-1,678,1478,-7.63964,-4.3873
-539,-454,-5.53857,4.14587,0,0,0,0,0,0,0,-1,685,1478,-5.53858,-4.14582
-532,-454,-3.24152,3.93469,0,0,0,0,0,0,0,-1,692,1478,-3.24155,-3.93464
-525,-454,-2.99078,4.52063,0.0378383,0.00187296,0.0119946,0.0414716,-0.00176029,0.294121,0.0282528,0.0405421,699,1478,-2.99081,-4.52065
-518,-454,-2.80682,5.13586,0.0287353,0.00221941,0.00873709,0.0313554,-0.000400608,0.291341,0.0210384,0.0288181,706,1478,-2.80683,-5.13587
-511,-454,-2.88623,5.31909,0.0215817,0.002058,0.00633224,0.0234556,0.000184083,0.28772,0.0155761,0.0188214,713,1478,-2.88623,-5.31911
-504,-454,-2.84314,5.58118,0.015851,0.00162204,0.00446684,0.0171371,0.000336019,0.280323,0.0113144,0.0154785,720,1478,-2.84312,-5.58115
-497,-454,-2.85004,5.82446,0.0109168,0.0012922,0.00238294,0.0114745,0.000734526,0.229891,0.00741696,0.0183461,727,1478,-2.85002,-5.82446
-490,-454,-2.83179,6.13464,0.00788802,0.000141464,0.000727079,0.00795567,7.3812e-05,0.0927786,0.00527935,0.0178537,734,1478,-2.83179,-6.13458
-483,-454,-2.86328,6.38684,0.00594389,-0.00172687,-0.00113819,0.00610921,-0.00189219,-0.144241,0.00482874,0.016845,741,1478,-2.8633,-6.38689
-476,-454,-2.88519,6.62598,0.0040884,-0.0037184,-0.00297776,0.00509454,-0.00472454,-0.325842,0.00567039,0.0131645,748,1478,-2.88518,-6.62592
-469,-454,-2.88586,6.88245,0.00320759,-0.00591942,-0.00514853,0.00552398,-0.0082358,-0.422781,0.00799548,0.0101499,755,1478,-2.88588,-6.88246
-462,-454,-2.89136,7.13831,0.00324731,-0.0083105,-0.00786009,0.00722426,-0.0122875,-0.46841,0.0113908,0.0106318,762,1478,-2.89135,-7.13831
-455,-454,-2.90143,7.38831,0.0040088,-0.0115082,-0.0108528,0.0095911,-0.0170905,-0.475074,0.0156062,0.0115928,769,1478,-2.90143,-7.38826
-448,-454,-2.90063,7.6543,0.00544253,-0.0153358,-0.0143251,0.0127492,-0.0226424,-0.471664,0.0206978,0.0122542,776,1478,-2.90066,-7.65435
-441,-454,-2.75751,7.90515,0.00718258,-0.0197401,-0.0184955,0.0165968,-0.0291544,-0.470822,0.0267441,0.0211286,783,1478,-2.75751,-7.90515
-434,-454,-2.62488,8.03918,0.0090977,-0.0249556,-0.0234452,0.0210466,-0.0369045,-0.47134,0.0338731,0.0301991,790,1478,-2.6249,-8.03917
-427,-454,-2.60114,8.01453,0.0111518,-0.0307197,-0.0291946,0.0261414,-0.0457093,-0.474339,0.0419927,0.0430458,797,1478,-2.60114,-8.01453
-420,-454,-2.8186,7.99426,0,0,0,0,0,0,0,-1,804,1478,-2.81863,-7.99426
-413,-454,-3.18433,8.51746,0,0,0,0,0,0,0,-1,811,1478,-3.18435,-8.51747
-406,-454,-3.61273,8.34985,0,0,0,0,0,0,0,-1,818,1478,-3.61273,-8.34986
-399,-454,-1.21033,6.95447,0,0,0,0,0,0,0,-1,825,1478,-1.21035,-6.95452
-392,-454,0.0967407,0.985474,0,0,0,0,0,0,0,-1,832,1478,0.0967364,-0.985529
-385,-454,2.38629,3.297,0,0,0,0,0,0,0,-1,839,1478,2.38629,-3.29702
-378,-454,-15.9756,2.83997,0,0,0,0,0,0,0,-1,846,1478,-15.9756,-2.83994
-371,-454,-17.2753,2.01453,0,0,0,0,0,0,0,-1,853,1478,-17.2753,-2.01455
-364,-454,1.08124,0.819458,0,0,0,0,0,0,0,-1,860,1478,1.08124,-0.819513
-357,-454,0,0,0,0,0,0,0,0,0,-1,867,1478,0,0
-350,-454,0,0,0,0,0,0,0,0,0,-1,874,1478,0,0
-343,-454,0,0,0,0,0,0,0,0,0,-1,881,1478,0,0
-336,-454,0,0,0,0,0,0,0,0,0,-1,888,1478,0,0
-329,-454,0,0,0,0,0,0,0,0,0,-1,895,1478,0,0
-322,-454,0,0,0,0,0,0,0,0,0,-1,902,1478,0,0
-315,-454,0,0,0,0,0,0,0,0,0,-1,909,1478,0,0
-308,-454,0,0,0,0,0,0,0,0,0,-1,916,1478,0,0
-301,-454,0,0,0,0,0,0,0,0,0,-1,923,1478,0,0
-294,-454,0,0,0,0,0,0,0,0,0,-1,930,1478,0,0
-287,-454,0,0,0,0,0,0,0,0,0,-1,937,1478,0,0
-280,-454,0,0,0,0,0,0,0,0,0,-1,944,1478,0,0
-273,-454,0,0,0,0,0,0,0,0,0,-1,951,1478,0,0
-266,-454,0,0,0,0,0,0,0,0,0,-1,958,1478,0,0
-259,-454,0,0,0,0,0,0,0,0,0,-1,965,1478,0,0
-252,-454,0,0,0,0,0,0,0,0,0,-1,972,1478,0,0
-245,-454,0,0,0,0,0,0,0,0,0,-1,979,1478,0,0
-238,-454,0,0,0,0,0,0,0,0,0,-1,986,1478,0,0
-231,-454,0,0,0,0,0,0,0,0,0,-1,993,1478,0,0
-224,-454,0,0,0,0,0,0,0,0,0,-1,1000,1478,0,0
-217,-454,0,0,0,0,0,0,0,0,0,-1,1007,1478,0,0
-210,-454,0,0,0,0,0,0,0,0,0,-1,1014,1478,0,0
-203,-454,0,0,0,0,0,0,0,0,0,-1,1021,1478,0,0
-196,-454,0,0,0,0,0,0,0,0,0,-1,1028,1478,0,0
-189,-454,0,0,0,0,0,0,0,0,0,-1,1035,1478,0,0
-182,-454,0,0,0,0,0,0,0,0,0,-1,1042,1478,0,0
-175,-454,0,0,0,0,0,0,0,0,0,-1,1049,1478,0,0
-168,-454,0,0,0,0,0,0,0,0,0,-1,1056,1478,0,0
-161,-454,0,0,0,0,0,0,0,0,0,-1,1063,1478,0,0
-154,-454,0,0,0,0,0,0,0,0,0,-1,1070,1478,0,0
-147,-454,0,0,0,0,0,0,0,0,0,-1,1077,1478,0,0
-140,-454,0,0,0,0,0,0,0,0,0,-1,1084,1478,0,0
-133,-454,0,0,0,0,0,0,0,0,0,-1,1091,1478,0,0
-126,-454,0,0,0,0,0,0,0,0,0,-1,1098,1478,0,0
-119,-454,0,0,0,0,0,0,0,0,0,-1,1105,1478,0,0
-112,-454,0,0,0,0,0,0,0,0,0,-1,1112,1478,0,0
-105,-454,0,0,0,0,0,0,0,0,0,-1,1119,1478,0,0
-98,-454,0,0,0,0,0,0,0,0,0,-1,1126,1478,0,0
-91,-454,0,0,0,0,0,0,0,0,0,-1,1133,1478,0,0
-84,-454,0,0,0,0,0,0,0,0,0,-1,1140,1478,0,0
-77,-454,0,0,0,0,0,0,0,0,0,-1,1147,1478,0,0
-70,-454,0,0,0,0,0,0,0,0,0,-1,1154,1478,0,0
-63,-454,0,0,0,0,0,0,0,0,0,-1,1161,1478,0,0
-56,-454,0,0,0,0,0,0,0,0,0,-1,1168,1478,0,0
-49,-454,0,0,0,0,0,0,0,0,0,-1,1175,1478,0,0
-42,-454,0,0,0,0,0,0,0,0,0,-1,1182,1478,0,0
-35,-454,0,0,0,0,0,0,0,0,0,-1,1189,1478,0,0
-28,-454,0,0,0,0,0,0,0,0,0,-1,1196,1478,0,0
-21,-454,0,0,0,0,0,0,0,0,0,-1,1203,1478,0,0
-14,-454,0,0,0,0,0,0,0,0,0,-1,1210,1478,0,0
-7,-454,0,0,0,0,0,0,0,0,0,-1,1217,1478,0,0
0,-454,0,0,0,0,0,0,0,0,0,-1,1224,1478,0,0
7,-454,0,0,0,0,0,0,0,0,0,-1,1231,1478,0,0
14,-454,0,0,0,0,0,0,0,0,0,-1,1238,1478,0,0
21,-454,0,0,0,0,0,0,0,0,0,-1,1245,1478,0,0
28,-454,0,0,0,0,0,0,0,0,0,-1,1252,1478,0,0
35,-454,0,0,0,0,0,0,0,0,0,-1,1259,1478,0,0
42,-454,0,0,0,0,0,0,0,0,0,-1,1266,1478,0,0
49,-454,0,0,0,0,0,0,0,0,0,-1,1273,1478,0,0
56,-454,0,0,0,0,0,0,0,0,0,-1,1280,1478,0,0
63,-454,0,0,0,0,0,0,0,0,0,-1,1287,1478,0,0
70,-454,0,0,0,0,0,0,0,0,0,-1,1294,1478,0,0
77,-454,0,0,0,0,0,0,0,0,0,-1,1301,1478,0,0
84,-454,0,0,0,0,0,0,0,0,0,-1,1308,1478,0,0
91,-454,0,0,0,0,0,0,0,0,0,-1,1315,1478,0,0
98,-454,0,0,0,0,0,0,0,0,0,-1,1322,1478,0,0
105,-454,0,0,0,0,0,0,0,0,0,-1,1329,1478,0,0
112,-454,0,0,0,0,0,0,0,0,0,-1,1336,1478,0,0
119,-454,0,0,0,0,0,0,0,0,0,-1,1343,1478,0,0
126,-454,0,0,0,0,0,0,0,0,0,-1,1350,1478,0,0
133,-454,0,0,0,0,0,0,0,0,0,-1,1357,1478,0,0
140,-454,0,0,0,0,0,0,0,0,0,-1,1364,1478,0,0
147,-454,0,0,0,0,0,0,0,0,0,-1,1371,1478,0,0
154,-454,0,0,0,0,0,0,0,0,0,-1,1378,1478,0,0
161,-454,0,0,0,0,0,0,0,0,0,-1,1385,1478,0,0
168,-454,0,0,0,0,0,0,0,0,0,-1,1392,1478,0,0
175,-454,0,0,0,0,0,0,0,0,0,-1,1399,1478,0,0
182,-454,0,0,0,0,0,0,0,0,0,-1,1406,1478,0,0
189,-454,0,0,0,0,0,0,0,0,0,-1,1413,1478,0,0
196,-454,0,0,0,0,0,0,0,0,0,-1,1420,1478,0,0
203,-454,0,0,0,0,0,0,0,0,0,-1,1427,1478,0,0
210,-454,0,0,0,0,0,0,0,0,0,-1,1434,1478,0,0
217,-454,0,0,0,0,0,0,0,0,0,-1,1441,1478,0,0
224,-454,0,0,0,0,0,0,0,0,0,-1,1448,1478,0,0
231,-454,0,0,0,0,0,0,0,0,0,-1,1455,1478,0,0
238,-454,0,0,0,0,0,0,0,0,0,-1,1462,1478,0,0
245,-454,0,0,0,0,0,0,0,0,0,-1,1469,1478,0,0
252,-454,0,0,0,0,0,0,0,0,0,-1,1476,1478,0,0
259,-454,0,0,0,0,0,0,0,0,0,-1,1483,1478,0,0
266,-454,0,0,0,0,0,0,0,0,0,-1,1490,1478,0,0
273,-454,0,0,0,0,0,0,0,0,0,-1,1497,1478,0,0
280,-454,0,0,0,0,0,0,0,0,0,-1,1504,1478,0,0
287,-454,0,0,0,0,0,0,0,0,0,-1,1511,1478,0,0
294,-454,0,0,0,0,0,0,0,0,0,-1,1518,1478,0,0
301,-454,0,0,0,0,0,0,0,0,0,-1,1525,1478,0,0
308,-454,0,0,0,0,0,0,0,0,0,-1,1532,1478,0,0
315,-454,0,0,0,0,0,0,0,0,0,-1,1539,1478,0,0
322,-454,0,0,0,0,0,0,0,0,0,-1,1546,1478,0,0
329,-454,0,0,0,0,0,0,0,0,0,-1,1553,1478,0,0
336,-454,0,0,0,0,0,0,0,0,0,-1,1560,1478,0,0
343,-454,0,0,0,0,0,0,0,0,0,-1,1567,1478,0,0
350,-454,0,0,0,0,0,0,0,0,0,-1,1574,1478,0,0
357,-454,0,0,0,0,0,0,0,0,0,-1,1581,1478,0,0
364,-454,0,0,0,0,0,0,0,0,0,-1,1588,1478,0,0
371,-454,0,0,0,0,0,0,0,0,0,-1,1595,1478,0,0
378,-454,0,0,0,0,0,0,0,0,0,-1,1602,1478,0,0
385,-454,0,0,0,0,0,0,0,0,0,-1,1609,1478,0,0
392,-454,0,0,0,0,0,0,0,0,0,-1,1616,1478,0,0
399,-454,0,0,0,0,0,0,0,0,0,-1,1623,1478,0,0
406,-454,0,0,0,0,0,0,0,0,0,-1,1630,1478,0,0
413,-454,0,0,0,0,0,0,0,0,0,-1,1637,1478,0,0
420,-454,0,0,0,0,0,0,0,0,0,-1,1644,1478,0,0
427,-454,0,0,0,0,0,0,0,0,0,-1,1651,1478,0,0
434,-454,0,0,0,0,0,0,0,0,0,-1,1658,1478,0,0
441,-454,0,0,0,0,0,0,0,0,0,-1,1665,1478,0,0
448,-454,0,0,0,0,0,0,0,0,0,-1,1672,1478,0,0
455,-454,0,0,0,0,0,0,0,0,0,-1,1679,1478,0,0
462,-454,0,0,0,0,0,0,0,0,0,-1,1686,1478,0,0
469,-454,0,0,0,0,0,0,0,0,0,-1,1693,1478,0,0
476,-454,0,0,0,0,0,0,0,0,0,-1,1700,1478,0,0
483,-454,14.2399,3.97498,0,0,0,0,0,0,0,-1,1707,1478,14.2399,-3.97502
490,-454,18.1821,-0.175781,0,0,0,0,0,0,0,-1,1714,1478,18.1821,0.175822
497,-454,16.8854,1.01208,0,0,0,0,0,0,0,-1,1721,1478,16.8854,-1.01209
504,-454,15.587,2.05994,0,0,0,0,0,0,0,-1,1728,1478,15.5871,-2.05998
511,-454,17.0273,14.5258,0,0,0,0,0,0,0,-1,1735,1478,17.0273,-14.5258
518,-454,16.4158,13.1039,0,0,0,0,0,0,0,-1,1742,1478,16.4157,-13.1038
525,-454,15.7842,11.6628,0,0,0,0,0,0,0,-1,1749,1478,15.7841,-11.6629
532,-454,15.1094,10.2476,0,0,0,0,0,0,0,-1,1756,1478,15.1094,-10.2475
539,-454,12.9286,8.30676,0,0,0,0,0,0,0,-1,1763,1478,12.9286,-8.30681
546,-454,11.8816,9.5752,0,0,0,0,0,0,0,-1,1770,1478,11.8815,-9.57524
553,-454,11.9333,9.31702,0,0,0,0,0,0,0,-1,1777,1478,11.9334,-9.31703
560,-454,12.1704,9.93005,0,0,0,0,0,0,0,-1,1784,1478,12.1705,-9.93003
567,-454,12.1312,9.61621,-0.0169389,-0.0338269,0.0105351,-0.0118815,-0.0388844,0.447568,0.0230088,0.028535,1791,1478,12.1312,-9.61618
574,-454,12.0194,9.37561,-0.0118157,-0.0256561,0.00772989,-0.00836093,-0.0291109,0.420306,0.0173071,0.0135957,1798,1478,12.0195,-9.37561
581,-454,12.0193,9.18115,-0.00911933,-0.0188477,0.00643022,-0.00592076,-0.0220463,0.461588,0.0131751,0.0102557,1805,1478,12.0192,-9.18112
588,-454,12.0067,8.96191,-0.00660401,-0.0135859,0.00518473,-0.0038445,-0.0163454,0.489104,0.00986828,0.0113483,1812,1478,12.0067,-8.96191
595,-454,11.9669,8.74011,-0.00475759,-0.00929642,0.00412021,-0.00232314,-0.0117309,0.533669,0.00717273,0.0114718,1819,1478,11.9669,-8.74006
602,-454,11.9789,8.49414,-0.00353051,-0.0060971,0.00315642,-0.00140648,-0.00822112,0.592321,0.00507728,0.00866321,1826,1478,11.9789,-8.49408
609,-454,11.9971,8.27051,-0.00226747,-0.00312943,0.00220709,-0.00044968,-0.00494723,0.688976,0.00315894,0.0095874,1833,1478,11.9971,-8.27051
616,-454,12.0037,8.04919,-0.00100661,-0.00149118,0.00128505,5.87913e-05,-0.00255658,0.69222,0.00172432,0.0111433,1840,1478,12.0037,-8.04915
623,-454,12.0074,7.82251,5.46557e-05,-0.000543338,0.00047689,0.000318529,-0.000807212,0.50539,0.000670049,0.00982258,1847,1478,12.0074,-7.82252
630,-454,12.0024,7.59119,0.000722361,0.000413205,-0.000461265,0.00105426,8.13059e-05,-0.62372,0.000677367,0.00970882,1854,1478,12.0024,-7.59119
637,-454,12.007,7.37341,0.00147017,0.00118148,-0.00129467,0.00262851,2.31275e-05,-0.729881,0.00174468,0.00922372,1861,1478,12.0069,-7.37342
644,-454,12.0592,7.14868,0.00198636,0.00207983,-0.00218688,0.00422047,-0.000154282,-0.796082,0.00286646,0.0146117,1868,1478,12.0592,-7.14864
651,-454,11.9174,7.00232,0.0018024,0.00306774,-0.00305083,0.00555081,-0.000680671,-0.887637,0.00394705,0.0282336,1875,1478,11.9174,-7.00226
658,-454,11.9592,6.6698,0.00082107,0.004656,-0.00413226,0.007294,-0.00181693,-1.00263,0.00556802,0.0353655,1882,1478,11.9592,-6.66976
665,-454,12.2516,6.3396,0,0,0,0,0,0,0,-1,1889,1478,12.2515,-6.33957
672,-454,12.4471,6.1366,0,0,0,0,0,0,0,-1,1896,1478,12.4472,-6.13663
679,-454,12.3354,3.91602,0,0,0,0,0,0,0,-1,1903,1478,12.3354,-3.91597
686,-454,10.3767,2.12842,0,0,0,0,0,0,0,-1,1910,1478,10.3767,-2.12839
693,-454,11.1857,1.48486,0,0,0,0,0,0,0,-1,1917,1478,11.1857,-1.48487
700,-454,0,0,0,0,0,0,0,0,0,-1,1924,1478,0,0
707,-454,0,0,0,0,0,0,0,0,0,-1,1931,1478,0,0
714,-454,0,0,0,0,0,0,0,0,0,-1,1938,1478,0,0
721,-454,0,0,0,0,0,0,0,0,0,-1,1945,1478,0,0
728,-454,0,0,0,0,0,0,0,0,0,-1,1952,1478,0,0
735,-454,0,0,0,0,0,0,0,0,0,-1,1959,1478,0,0
742,-454,0,0,0,0,0,0,0,0,0,-1,1966,1478,0,0
749,-454,0,0,0,0,0,0,0,0,0,-1,1973,1478,0,0
756,-454,0,0,0,0,0,0,0,0,0,-1,1980,1478,0,0
763,-454,0,0,0,0,0,0,0,0,0,-1,1987,1478,0,0
770,-454,0,0,0,0,0,0,0,0,0,-1,1994,1478,0,0
777,-454,0,0,0,0,0,0,0,0,0,-1,2001,1478,0,0
784,-454,0,0,0,0,0,0,0,0,0,-1,2008,1478,0,0
791,-454,0,0,0,0,0,0,0,0,0,-1,2015,1478,0,0
798,-454,0,0,0,0,0,0,0,0,0,-1,2022,1478,0,0
805,-454,0,0,0,0,0,0,0,0,0,-1,2029,1478,0,0
812,-454,0,0,0,0,0,0,0,0,0,-1,2036,1478,0,0
-700,-461,0,0,0,0,0,0,0,0,0,-1,524,1485,0,0
-693,-461,0,0,0,0,0,0,0,0,0,-1,531,1485,0,0
-686,-461,0,0,0,0,0,0,0,0,0,-1,538,1485,0,0
-679,-461,0,0,0,0,0,0,0,0,0,-1,545,1485,0,0
-672,-461,0,0,0,0,0,0,0,0,0,-1,552,1485,0,0
-665,-461,0,0,0,0,0,0,0,0,0,-1,559,1485,0,0
-658,-461,0,0,0,0,0,0,0,0,0,-1,566,1485,0,0
-651,-461,0,0,0,0,0,0,0,0,0,-1,573,1485,0,0
-644,-461,0,0,0,0,0,0,0,0,0,-1,580,1485,0,0
-637,-461,0,0,0,0,0,0,0,0,0,-1,587,1485,0,0
-630,-461,0,0,0,0,0,0,0,0,0,-1,594,1485,0,0
-623,-461,0,0,0,0,0,0,0,0,0,-1,601,1485,0,0
-616,-461,0,0,0,0,0,0,0,0,0,-1,608,1485,0,0
-609,-461,0,0,0,0,0,0,0,0,0,-1,615,1485,0,0
-602,-461,0,0,0,0,0,0,0,0,0,-1,622,1485,0,0
-595,-461,0,0,0,0,0,0,0,0,0,-1,629,1485,0,0
-588,-461,0,0,0,0,0,0,0,0,0,-1,636,1485,0,0
-581,-461,0,0,0,0,0,0,0,0,0,-1,643,1485,0,0
-574,-461,0,0,0,0,0,0,0,0,0,-1,650,1485,0,0
-567,-461,-9.69031,0.513306,0,0,0,0,0,0,0,-1,657,1485,-9.69032,-0.513305
-560,-461,-7.28815,1.54004,0,0,0,0,0,0,0,-1,664,1485,-7.28817,-1.54005
-553,-461,-10.1774,4.61963,0,0,0,0,0,0,0,-1,671,1485,-10.1774,-4.61957
-546,-461,-6.27081,2.92163,0,0,0,0,0,0,0,-1,678,1485,-6.27081,-2.92158
-539,-461,-4.80194,4.67981,0,0,0,0,0,0,0,-1,685,1485,-4.80194,-4.6798
-532,-461,-3.94885,4.84326,0,0,0,0,0,0,0,-1,692,1485,-3.94882,-4.84328
-525,-461,-2.71252,4.34204,0,0,0,0,0,0,0,-1,699,1485,-2.71254,-4.34204
-518,-461,-2.65033,4.88843,0.0365054,0.00268076,0.0101589,0.039322,-0.000135828,0.27046,0.0262601,0.035834,706,1485,-2.65032,-4.88844
-511,-461,-2.58557,5.37183,0.0273544,0.00248587,0.00736379,0.0293713,0.000468961,0.267339,0.0194264,0.0198207,713,1485,-2.58556,-5.37182
-504,-461,-2.60272,5.58704,0.0200398,0.00204323,0.00524243,0.0214556,0.000627478,0.263765,0.0140992,0.0112659,720,1485,-2.60274,-5.58702
-497,-461,-2.5813,5.86255,0.0139097,0.00167511,0.00307491,0.0146391,0.000945772,0.232886,0.0094599,0.0105573,727,1485,-2.58131,-5.86255
-490,-461,-2.59412,6.12878,0.00992036,0.000625203,0.00148942,0.0101532,0.000392376,0.155066,0.00664186,0.0125551,734,1485,-2.5941,-6.12875
-483,-461,-2.61578,6.3844,0.00719509,-0.000941664,-0.000175981,0.00719889,-0.000945468,-0.0216145,0.00514346,0.0126008,741,1485,-2.6158,-6.38443
-476,-461,-2.63196,6.64917,0.00475854,-0.00266741,-0.00173636,0.00514448,-0.00305335,-0.218715,0.00478407,0.0106136,748,1485,-2.63194,-6.64912
-469,-461,-2.62354,6.89685,0.00342843,-0.00445701,-0.00354939,0.00479073,-0.0058193,-0.366474,0.00613529,0.0122069,755,1485,-2.62356,-6.89685
-462,-461,-2.61536,7.14404,0.00310465,-0.00636261,-0.00572928,0.00580283,-0.00906079,-0.440136,0.00864996,0.017167,762,1485,-2.61538,-7.14406
-455,-461,-2.63525,7.40735,0.00356243,-0.00892009,-0.00800043,0.0074681,-0.0128258,-0.454149,0.011852,0.0206032,769,1485,-2.63527,-7.4073
-448,-461,-2.61169,7.66113,0.00481819,-0.0118586,-0.010505,0.00989187,-0.0169323,-0.449937,0.0156638,0.0173477,776,1485,-2.61169,-7.66114
-441,-461,-2.59314,7.92456,0.00636475,-0.0151272,-0.0134821,0.0128595,-0.021622,-0.448928,0.020121,0.0138868,783,1485,-2.59313,-7.92459
-434,-461,-2.43909,8.12061,0.00804613,-0.0191028,-0.0170715,0.0162822,-0.0273389,-0.449508,0.0254529,0.0190004,790,1485,-2.43911,-8.12063
-427,-461,-2.33002,8.23645,0.00982237,-0.0235526,-0.0212778,0.0201759,-0.0339062,-0.452861,0.0315579,0.0285265,797,1485,-2.33,-8.23647
-420,-461,-2.5871,8.25757,0.0116082,-0.0282328,-0.0261238,0.02454,-0.0411647,-0.459658,0.0383372,0.0465599,804,1485,-2.58708,-8.2576
-413,-461,-3.07697,8.47815,0.0133904,-0.0332945,-0.0316727,0.029393,-0.049297,-0.467836,0.0459136,0.0482991,811,1485,-3.07698,-8.4781
-406,-461,-3.60376,8.37622,0,0,0,0,0,0,0,-1,818,1485,-3.60375,-8.3762
-399,-461,-0.411499,9.14136,0,0,0,0,0,0,0,-1,825,1485,-0.411481,-9.14138
-392,-461,-0.357544,5.55225,0,0,0,0,0,0,0,-1,832,1485,-0.357536,-5.55228
-385,-461,1.71509,3.35254,0,0,0,0,0,0,0,-1,839,1485,1.71511,-3.35255
-378,-461,1.95996,3.01111,0,0,0,0,0,0,0,-1,846,1485,1.95993,-3.01111
-371,-461,0.702881,2.33459,0,0,0,0,0,0,0,-1,853,1485,0.702859,-2.33459
-364,-461,-1.93097,2.56458,0,0,0,0,0,0,0,-1,860,1485,-1.93095,-2.56456
-357,-461,-2.41516,3.49487,0,0,0,0,0,0,0,-1,867,1485,-2.41517,-3.49487
-350,-461,0,0,0,0,0,0,0,0,0,-1,874,1485,0,0
-343,-461,0,0,0,0,0,0,0,0,0,-1,881,1485,0,0
-336,-461,0,0,0,0,0,0,0,0,0,-1,888,1485,0,0
-329,-461,0,0,0,0,0,0,0,0,0,-1,895,1485,0,0
-322,-461,0,0,0,0,0,0,0,0,0,-1,902,1485,0,0
-315,-461,0,0,0,0,0,0,0,0,0,-1,909,1485,0,0
-308,-461,0,0,0,0,0,0,0,0,0,-1,916,1485,0,0
-301,-461,0,0,0,0,0,0,0,0,0,-1,923,1485,0,0
-294,-461,0,0,0,0,0,0,0,0,0,-1,930,1485,0,0
-287,-461,0,0,0,0,0,0,0,0,0,-1,937,1485,0,0
-280,-461,0,0,0,0,0,0,0,0,0,-1,944,1485,0,0
-273,-461,0,0,0,0,0,0,0,0,0,-1,951,1485,0,0
-266,-461,0,0,0,0,0,0,0,0,0,-1,958,1485,0,0
-259,-461,0,0,0,0,0,0,0,0,0,-1,965,1485,0,0
-252,-461,0,0,0,0,0,0,0,0,0,-1,972,1485,0,0
-245,-461,0,0,0,0,0,0,0,0,0,-1,979,1485,0,0
-238,-461,0,0,0,0,0,0,0,0,0,-1,986,1485,0,0
-231,-461,0,0,0,0,0,0,0,0,0,-1,993,1485,0,0
-224,-461,0,0,0,0,0,0,0,0,0,-1,1000,1485,0,0
-217,-461,0,0,0,0,0,0,0,0,0,-1,1007,1485,0,0
-210,-461,0,0,0,0,0,0,0,0,0,-1,1014,1485,0,0
-203,-461,0,0,0,0,0,0,0,0,0,-1,1021,1485,0,0
-196,-461,0,0,0,0,0,0,0,0,0,-1,1028,1485,0,0
-189,-461,0,0,0,0,0,0,0,0,0,-1,1035,1485,0,0
-182,-461,0,0,0,0,0,0,0,0,0,-1,1042,1485,0,0
-175,-461,0,0,0,0,0,0,0,0,0,-1,1049,1485,0,0
-168,-461,0,0,0,0,0,0,0,0,0,-1,1056,1485,0,0
-161,-461,0,0,0,0,0,0,0,0,0,-1,1063,1485,0,0
-154,-461,0,0,0,0,0,0,0,0,0,-1,1070,1485,0,0
-147,-461,0,0,0,0,0,0,0,0,0,-1,1077,1485,0,0
-140,-461,0,0,0,0,0,0,0,0,0,-1,1084,1485,0,0
-133,-461,0,0,0,0,0,0,0,0,0,-1,1091,1485,0,0
-126,-461,0,0,0,0,0,0,0,0,0,-1,1098,1485,0,0
-119,-461,0,0,0,0,0,0,0,0,0,-1,1105,1485,0,0
-112,-461,0,0,0,0,0,0,0,0,0,-1,1112,1485,0,0
-105,-461,0,0,0,0,0,0,0,0,0,-1,1119,1485,0,0
-98,-461,0,0,0,0,0,0,0,0,0,-1,1126,1485,0,0
-91,-461,0,0,0,0,0,0,0,0,0,-1,1133,1485,0,0
-84,-461,0,0,0,0,0,0,0,0,0,-1,1140,1485,0,0
-77,-461,0,0,0,0,0,0,0,0,0,-1,1147,1485,0,0
-70,-461,0,0,0,0,0,0,0,0,0,-1,1154,1485,0,0
-63,-461,0,0,0,0,0,0,0,0,0,-1,1161,1485,0,0
-56,-461,0,0,0,0,0,0,0,0,0,-1,1168,1485,0,0
-49,-461,0,0,0,0,0,0,0,0,0,-1,1175,1485,0,0
-42,-461,0,0,0,0,0,0,0,0,0,-1,1182,1485,0,0
-35,-461,0,0,0,0,0,0,0,0,0,-1,1189,1485,0,0
-28,-461,0,0,0,0,0,0,0,0,0,-1,1196,1485,0,0
-21,-461,0,0,0,0,0,0,0,0,0,-1,1203,1485,0,0
-14,-461,0,0,0,0,0,0,0,0,0,-1,1210,1485,0,0
-7,-461,0,0,0,0,0,0,0,0,0,-1,1217,1485,0,0
0,-461,0,0,0,0,0,0,0,0,0,-1,1224,1485,0,0
7,-461,0,0,0,0,0,0,0,0,0,-1,1231,1485,0,0
14,-461,0,0,0,0,0,0,0,0,0,-1,1238,1485,0,0
21,-461,0,0,0,0,0,0,0,0,0,-1,1245,1485,0,0
28,-461,0,0,0,0,0,0,0,0,0,-1,1252,1485,0,0
35,-461,0,0,0,0,0,0,0,0,0,-1,1259,1485,0,0
42,-461,0,0,0,0,0,0,0,0,0,-1,1266,1485,0,0
49,-461,0,0,0,0,0,0,0,0,0,-1,1273,1485,0,0
56,-461,0,0,0,0,0,0,0,0,0,-1,1280,1485,0,0
63,-461,0,0,0,0,0,0,0,0,0,-1,1287,1485,0,0
70,-461,0,0,0,0,0,0,0,0,0,-1,1294,1485,0,0
77,-461,0,0,0,0,0,0,0,0,0,-1,1301,1485,0,0
84,-461,0,0,0,0,0,0,0,0,0,-1,1308,1485,0,0
91,-461,0,0,0,0,0,0,0,0,0,-1,1315,1485,0,0
98,-461,0,0,0,0,0,0,0,0,0,-1,1322,1485,0,0
105,-461,0,0,0,0,0,0,0,0,0,-1,1329,1485,0,0
112,-461,0,0,0,0,0,0,0,0,0,-1,1336,1485,0,0
119,-461,0,0,0,0,0,0,0,0,0,-1,1343,1485,0,0
126,-461,0,0,0,0,0,0,0,0,0,-1,1350,1485,0,0
133,-461,0,0,0,0,0,0,0,0,0,-1,1357,1485,0,0
140,-461,0,0,0,0,0,0,0,0,0,-1,1364,1485,0,0
147,-461,0,0,0,0,0,0,0,0,0,-1,1371,1485,0,0
154,-461,0,0,0,0,0,0,0,0,0,-1,1378,1485,0,0
161,-461,0,0,0,0,0,0,0,0,0,-1,1385,1485,0,0
168,-461,0,0,0,0,0,0,0,0,0,-1,1392,1485,0,0
175,-461,0,0,0,0,0,0,0,0,0,-1,1399,1485,0,0
182,-461,0,0,0,0,0,0,0,0,0,-1,1406,1485,0,0
189,-461,0,0,0,0,0,0,0,0,0,-1,1413,1485,0,0
196,-461,0,0,0,0,0,0,0,0,0,-1,1420,1485,0,0
203,-461,0,0,0,0,0,0,0,0,0,-1,1427,1485,0,0
210,-461,0,0,0,0,0,0,0,0,0,-1,1434,1485,0,0
217,-461,0,0,0,0,0,0,0,0,0,-1,1441,1485,0,0
224,-461,0,0,0,0,0,0,0,0,0,-1,1448,1485,0,0
231,-461,0,0,0,0,0,0,0,0,0,-1,1455,1485,0,0
238,-461,0,0,0,0,0,0,0,0,0,-1,1462,1485,0,0
245,-461,0,0,0,0,0,0,0,0,0,-1,1469,1485,0,0
252,-461,0,0,0,0,0,0,0,0,0,-1,1476,1485,0,0
259,-461,0,0,0,0,0,0,0,0,0,-1,1483,1485,0,0
266,-461,0,0,0,0,0,0,0,0,0,-1,1490,1485,0,0
273,-461,0,0,0,0,0,0,0,0,0,-1,1497,1485,0,0
280,-461,0,0,0,0,0,0,0,0,0,-1,1504,1485,0,0
287,-461,0,0,0,0,0,0,0,0,0,-1,1511,1485,0,0
294,-461,0,0,0,0,0,0,0,0,0,-1,1518,1485,0,0
301,-461,0,0,0,0,0,0,0,0,0,-1,1525,1485,0,0
308,-461,0,0,0,0,0,0,0,0,0,-1,1532,1485,0,0
315,-461,0,0,0,0,0,0,0,0,0,-1,1539,1485,0,0
322,-461,0,0,0,0,0,0,0,0,0,-1,1546,1485,0,0
329,-461,0,0,0,0,0,0,0,0,0,-1,1553,1485,0,0
336,-461,0,0,0,0,0,0,0,0,0,-1,1560,1485,0,0
343,-461,0,0,0,0,0,0,0,0,0,-1,1567,1485,0,0
350,-461,0,0,0,0,0,0,0,0,0,-1,1574,1485,0,0
357,-461,0,0,0,0,0,0,0,0,0,-1,1581,1485,0,0
364,-461,0,0,0,0,0,0,0,0,0,-1,1588,1485,0,0
371,-461,0,0,0,0,0,0,0,0,0,-1,1595,1485,0,0
378,-461,0,0,0,0,0,0,0,0,0,-1,1602,1485,0,0
385,-461,0,0,0,0,0,0,0,0,0,-1,1609,1485,0,0
392,-461,0,0,0,0,0,0,0,0,0,-1,1616,1485,0,0
399,-461,0,0,0,0,0,0,0,0,0,-1,1623,1485,0,0
406,-461,0,0,0,0,0,0,0,0,0,-1,1630,1485,0,0
413,-461,0,0,0,0,0,0,0,0,0,-1,1637,1485,0,0
420,-461,0,0,0,0,0,0,0,0,0,-1,1644,1485,0,0
427,-461,0,0,0,0,0,0,0,0,0,-1,1651,1485,0,0
434,-461,0,0,0,0,0,0,0,0,0,-1,1658,1485,0,0
441,-461,0,0,0,0,0,0,0,0,0,-1,1665,1485,0,0
448,-461,0,0,0,0,0,0,0,0,0,-1,1672,1485,0,0
455,-461,0,0,0,0,0,0,0,0,0,-1,1679,1485,0,0
462,-461,0,0,0,0,0,0,0,0,0,-1,1686,1485,0,0
469,-461,0,0,0,0,0,0,0,0,0,-1,1693,1485,0,0
476,-461,14.1906,0.690552,0,0,0,0,0,0,0,-1,1700,1485,14.1906,-0.690525
483,-461,10.6361,3.09106,0,0,0,0,0,0,0,-1,1707,1485,10.6361,-3.091
490,-461,17.9972,0.665894,0,0,0,0,0,0,0,-1,1714,1485,17.9972,-0.665876
497,-461,16.6829,1.87732,0,0,0,0,0,0,0,-1,1721,1485,16.6828,-1.87736
504,-461,15.3884,3.09216,0,0,0,0,0,0,0,-1,1728,1485,15.3885,-3.09212
511,-461,15.4292,14.3512,0,0,0,0,0,0,0,-1,1735,1485,15.4292,-14.3512
518,-461,14.8081,10.0085,0,0,0,0,0,0,0,-1,1742,1485,14.8081,-10.0086
525,-461,14.0022,10.8033,0,0,0,0,0,0,0,-1,1749,1485,14.0022,-10.8033
532,-461,13.4395,9.64661,0,0,0,0,0,0,0,-1,1756,1485,13.4394,-9.64658
539,-461,12.6163,8.87024,0,0,0,0,0,0,0,-1,1763,1485,12.6163,-8.87027
546,-461,11.7516,9.48792,0,0,0,0,0,0,0,-1,1770,1485,11.7516,-9.48788
553,-461,11.7853,9.52856,-0.0298824,-0.0403958,0.0175478,-0.0168209,-0.0534573,0.639868,0.0315625,0.0423294,1777,1485,11.7853,-9.52855
560,-461,11.7081,9.68237,-0.0213234,-0.0330619,0.0130384,-0.0128941,-0.0414912,0.573908,0.0245202,0.0314704,1784,1485,11.7081,-9.68234
567,-461,11.7744,9.57959,-0.0142743,-0.0264256,0.00895866,-0.00952542,-0.0311745,0.487432,0.0184467,0.0142944,1791,1485,11.7744,-9.57953
574,-461,11.7678,9.38696,-0.00930128,-0.0199657,0.00614918,-0.00649439,-0.0227726,0.428218,0.0135462,0.0127924,1798,1485,11.7678,-9.38701
581,-461,11.7942,9.17725,-0.00678254,-0.01464,0.00493267,-0.00440522,-0.0170173,0.449107,0.0101987,0.0119191,1805,1485,11.7942,-9.17724
588,-461,11.7671,8.9707,-0.00446786,-0.0104405,0.00380435,-0.00261774,-0.0122906,0.452641,0.00747556,0.0101533,1812,1485,11.7671,-8.97076
595,-461,11.7546,8.74365,-0.0028828,-0.00696661,0.00292151,-0.00136035,-0.00848906,0.480397,0.00526483,0.00875862,1819,1485,11.7546,-8.74368
602,-461,11.7725,8.51135,-0.00194255,-0.00439267,0.00216334,-0.000681484,-0.00565373,0.52777,0.00356378,0.00938128,1826,1485,11.7724,-8.51135
609,-461,11.7803,8.26038,-0.000929635,-0.00204648,0.0013459,-3.09123e-05,-0.0029452,0.588752,0.00195325,0.0102703,1833,1485,11.7803,-8.26043
616,-461,11.7859,8.02661,1.65881e-05,-0.000808652,0.000631494,0.000358316,-0.00115038,0.496016,0.00091018,0.0115951,1840,1485,11.7859,-8.02659
623,-461,11.7856,7.81274,0.000767719,-0.000152861,4.10265e-05,0.000769544,-0.000154686,0.0444485,0.000571611,0.0110852,1847,1485,11.7856,-7.81275
630,-461,11.777,7.59351,0.00118686,0.000672822,-0.000750504,0.00172314,0.000136548,-0.620426,0.00110605,0.0104777,1854,1485,11.777,-7.59348
637,-461,11.792,7.36743,0.00176268,0.00131912,-0.00149115,0.00304845,3.33478e-05,-0.711574,0.00202128,0.0117832,1861,1485,11.792,-7.36748
644,-461,11.8204,7.17822,0.00218901,0.00217934,-0.00238857,0.00457274,-0.000204397,-0.784387,0.00311886,0.0221952,1868,1485,11.8204,-7.17826
651,-461,11.6832,6.98291,0.00197179,0.00319714,-0.00336652,0.00600628,-0.000837347,-0.875408,0.0043105,0.0285565,1875,1485,11.6832,-6.98297
658,-461,12.1262,6.46582,0.00146686,0.00509586,-0.00496366,0.00856627,-0.00200355,-0.960632,0.00648274,0.0415313,1882,1485,12.1262,-6.46585
665,-461,12.589,5.98547,0,0,0,0,0,0,0,-1,1889,1485,12.589,-5.98543
672,-461,11.9205,5.45056,0,0,0,0,0,0,0,-1,1896,1485,11.9206,-5.45057
679,-461,10.0535,2.16321,0,0,0,0,0,0,0,-1,1903,1485,10.0535,-2.16317
686,-461,10.8195,1.84192,0,0,0,0,0,0,0,-1,1910,1485,10.8194,-1.84195
693,-461,0,0,0,0,0,0,0,0,0,-1,1917,1485,0,0
700,-461,0,0,0,0,0,0,0,0,0,-1,1924,1485,0,0
707,-461,0,0,0,0,0,0,0,0,0,-1,1931,1485,0,0
714,-461,0,0,0,0,0,0,0,0,0,-1,1938,1485,0,0
721,-461,0,0,0,0,0,0,0,0,0,-1,1945,1485,0,0
728,-461,0,0,0,0,0,0,0,0,0,-1,1952,1485,0,0
735,-461,0,0,0,0,0,0,0,0,0,-1,1959,1485,0,0
742,-461,0,0,0,0,0,0,0,0,0,-1,1966,1485,0,0
749,-461,0,0,0,0,0,0,0,0,0,-1,1973,1485,0,0
756,-461,0,0,0,0,0,0,0,0,0,-1,1980,1485,0,0
763,-461,0,0,0,0,0,0,0,0,0,-1,1987,1485,0,0
770,-461,0,0,0,0,0,0,0,0,0,-1,1994,1485,0,0
777,-461,0,0,0,0,0,0,0,0,0,-1,2001,1485,0,0
784,-461,0,0,0,0,0,0,0,0,0,-1,2008,1485,0,0
791,-461,0,0,0,0,0,0,0,0,0,-1,2015,1485,0,0
798,-461,0,0,0,0,0,0,0,0,0,-1,2022,1485,0,0
805,-461,0,0,0,0,0,0,0,0,0,-1,2029,1485,0,0
812,-461,0,0,0,0,0,0,0,0,0,-1,2036,1485,0,0
-700,-468,0,0,0,0,0,0,0,0,0,-1,524,1492,0,0
-693,-468,0,0,0,0,0,0,0,0,0,-1,531,1492,0,0
-686,-468,0,0,0,0,0,0,0,0,0,-1,538,1492,0,0
-679,-468,0,0,0,0,0,0,0,0,0,-1,545,1492,0,0
-672,-468,0,0,0,0,0,0,0,0,0,-1,552,1492,0,0
-665,-468,0,0,0,0,0,0,0,0,0,-1,559,1492,0,0
-658,-468,0,0,0,0,0,0,0,0,0,-1,566,1492,0,0
-651,-468,0,0,0,0,0,0,0,0,0,-1,573,1492,0,0
-644,-468,0,0,0,0,0,0,0,0,0,-1,580,1492,0,0
-637,-468,0,0,0,0,0,0,0,0,0,-1,587,1492,0,0
-630,-468,0,0,0,0,0,0,0,0,0,-1,594,1492,0,0
-623,-468,0,0,0,0,0,0,0,0,0,-1,601,1492,0,0
-616,-468,0,0,0,0,0,0,0,0,0,-1,608,1492,0,0
-609,-468,0,0,0,0,0,0,0,0,0,-1,615,1492,0,0
-602,-468,0,0,0,0,0,0,0,0,0,-1,622,1492,0,0
-595,-468,0,0,0,0,0,0,0,0,0,-1,629,1492,0,0
-588,-468,0,0,0,0,0,0,0,0,0,-1,636,1492,0,0
-581,-468,0,0,0,0,0,0,0,0,0,-1,643,1492,0,0
-574,-468,0,0,0,0,0,0,0,0,0,-1,650,1492,0,0
-567,-468,-11.2603,1.8042,0,0,0,0,0,0,0,-1,657,1492,-11.2603,-1.80424
-560,-468,-8.77441,2.23694,0,0,0,0,0,0,0,-1,664,1492,-8.77443,-2.23692
-553,-468,-5.94061,9.26318,0,0,0,0,0,0,0,-1,671,1492,-5.94062,-9.26322
-546,-468,-5.33777,4.42896,0,0,0,0,0,0,0,-1,678,1492,-5.33776,-4.42896
-539,-468,-4.56708,4.61377,0,0,0,0,0,0,0,-1,685,1492,-4.56708,-4.61373
-532,-468,-3.76941,4.75525,0.0766553,0.00238993,0.021715,0.0825387,-0.00349339,0.264582,0.0562264,0.0436638,692,1492,-3.76938,-4.75522
-525,-468,-3.06635,4.75024,0.0591265,0.00345467,0.0159069,0.063351,-0.000769798,0.259582,0.0424929,0.0457819,699,1492,-3.06634,-4.75021
-518,-468,-2.61639,4.93616,0.0449208,0.00356601,0.0116344,0.0479692,0.000517586,0.256257,0.0318084,0.04072,706,1492,-2.61638,-4.93614
-511,-468,-2.39453,5.29614,0.0335685,0.00317677,0.00846076,0.0357651,0.000980143,0.254017,0.0235235,0.0318987,713,1492,-2.39452,-5.29613
-504,-468,-2.31537,5.59351,0.024515,0.00258148,0.00607752,0.0260864,0.00101006,0.253022,0.0170642,0.0155942,720,1492,-2.31535,-5.59348
-497,-468,-2.34949,5.85828,0.0170604,0.00208753,0.00380986,0.0179741,0.00117386,0.235372,0.0116112,0.00956795,727,1492,-2.34951,-5.85831
-490,-468,-2.33417,6.1366,0.0119982,0.00108095,0.00223696,0.0124388,0.000640374,0.194464,0.00808752,0.0081,734,1492,-2.33416,-6.13664
-483,-468,-2.35059,6.396,0.00842765,-0.000248672,0.00070656,0.00848481,-0.000305834,0.0807266,0.00576119,0.00831676,741,1492,-2.3506,-6.39604
-476,-468,-2.3623,6.65857,0.00540234,-0.00175082,-0.000647774,0.00546052,-0.00180901,-0.0895866,0.00437,0.00860673,748,1492,-2.36229,-6.65858
-469,-468,-2.34521,6.90564,0.00362279,-0.00319034,-0.00220688,0.00427517,-0.00384271,-0.287424,0.00468908,0.0121654,755,1492,-2.34519,-6.90566
-462,-468,-2.33411,7.1814,0.00291631,-0.00471875,-0.00397731,0.00461172,-0.00641416,-0.402947,0.00639408,0.0214294,762,1492,-2.33412,-7.18139
-455,-468,-2.3653,7.4032,0.00306859,-0.00676221,-0.00571163,0.00568869,-0.00938232,-0.430092,0.00878793,0.0214966,769,1492,-2.36531,-7.40319
-448,-468,-2.37286,7.63354,0.00416881,-0.008984,-0.0074943,0.00756305,-0.0123782,-0.42527,0.0116244,0.0131047,776,1492,-2.37284,-7.6336
-441,-468,-2.36469,7.90173,0.00556015,-0.0113601,-0.00959316,0.00989073,-0.0156907,-0.424038,0.0148955,0.0117406,783,1492,-2.36466,-7.90169
-434,-468,-2.34229,8.16418,0.00706491,-0.014315,-0.0121537,0.012561,-0.0198111,-0.424693,0.0188456,0.0118616,790,1492,-2.34229,-8.16422
-427,-468,-2.27765,8.38977,0.00866251,-0.0177295,-0.0152124,0.0156048,-0.0246718,-0.428129,0.0234493,0.0170643,797,1492,-2.27762,-8.38978
-420,-468,-2.17444,8.55127,0.0102752,-0.0214333,-0.0188504,0.0190522,-0.0302102,-0.435759,0.0286838,0.0307368,804,1492,-2.17446,-8.5513
-413,-468,-1.85168,8.36292,0.01191,-0.0256066,-0.0230485,0.0228688,-0.0365654,-0.44383,0.0346168,0.0498532,811,1492,-1.85168,-8.36289
-406,-468,-1.35394,7.87463,0,0,0,0,0,0,0,-1,818,1492,-1.35394,-7.87461
-399,-468,-0.555359,7.56531,0,0,0,0,0,0,0,-1,825,1492,-0.555343,-7.56527
-392,-468,-0.674316,6.88867,0,0,0,0,0,0,0,-1,832,1492,-0.67434,-6.88868
-385,-468,0.465759,5.35864,0,0,0,0,0,0,0,-1,839,1492,0.465732,-5.35864
-378,-468,1.99835,3.25391,0,0,0,0,0,0,0,-1,846,1492,1.99837,-3.2539
-371,-468,-0.31842,3.1532,0,0,0,0,0,0,0,-1,853,1492,-0.318441,-3.15324
-364,-468,-0.966736,2.14563,0,0,0,0,0,0,0,-1,860,1492,-0.966735,-2.14557
-357,-468,-3.06787,3.22742,0,0,0,0,0,0,0,-1,867,1492,-3.06784,-3.2274
-350,-468,-3.18658,4.12659,0,0,0,0,0,0,0,-1,874,1492,-3.18659,-4.12658
-343,-468,0,0,0,0,0,0,0,0,0,-1,881,1492,0,0
-336,-468,0,0,0,0,0,0,0,0,0,-1,888,1492,0,0
-329,-468,0,0,0,0,0,0,0,0,0,-1,895,1492,0,0
-322,-468,0,0,0,0,0,0,0,0,0,-1,902,1492,0,0
-315,-468,0,0,0,0,0,0,0,0,0,-1,909,1492,0,0
-308,-468,0,0,0,0,0,0,0,0,0,-1,916,1492,0,0
-301,-468,0,0,0,0,0,0,0,0,0,-1,923,1492,0,0
-294,-468,0,0,0,0,0,0,0,0,0,-1,930,1492,0,0
-287,-468,0,0,0,0,0,0,0,0,0,-1,937,1492,0,0
-280,-468,0,0,0,0,0,0,0,0,0,-1,944,1492,0,0
-273,-468,0,0,0,0,0,0,0,0,0,-1,951,1492,0,0
-266,-468,0,0,0,0,0,0,0,0,0,-1,958,1492,0,0
-259,-468,0,0,0,0,0,0,0,0,0,-1,965,1492,0,0
-252,-468,0,0,0,0,0,0,0,0,0,-1,972,1492,0,0
-245,-468,0,0,0,0,0,0,0,0,0,-1,979,1492,0,0
-238,-468,0,0,0,0,0,0,0,0,0,-1,986,1492,0,0
-231,-468,0,0,0,0,0,0,0,0,0,-1,993,1492,0,0
-224,-468,0,0,0,0,0,0,0,0,0,-1,1000,1492,0,0
-217,-468,0,0,0,0,0,0,0,0,0,-1,1007,1492,0,0
-210,-468,0,0,0,0,0,0,0,0,0,-1,1014,1492,0,0
-203,-468,0,0,0,0,0,0,0,0,0,-1,1021,1492,0,0
-196,-468,0,0,0,0,0,0,0,0,0,-1,1028,1492,0,0
-189,-468,0,0,0,0,0,0,0,0,0,-1,1035,1492,0,0
-182,-468,0,0,0,0,0,0,0,0,0,-1,1042,1492,0,0
-175,-468,0,0,0,0,0,0,0,0,0,-1,1049,1492,0,0
-168,-468,0,0,0,0,0,0,0,0,0,-1,1056,1492,0,0
-161,-468,0,0,0,0,0,0,0,0,0,-1,1063,1492,0,0
-154,-468,0,0,0,0,0,0,0,0,0,-1,1070,1492,0,0
-147,-468,0,0,0,0,0,0,0,0,0,-1,1077,1492,0,0
-140,-468,0,0,0,0,0,0,0,0,0,-1,1084,1492,0,0
-133,-468,0,0,0,0,0,0,0,0,0,-1,1091,1492,0,0
-126,-468,0,0,0,0,0,0,0,0,0,-1,1098,1492,0,0
-119,-468,0,0,0,0,0,0,0,0,0,-1,1105,1492,0,0
-112,-468,0,0,0,0,0,0,0,0,0,-1,1112,1492,0,0
-105,-468,0,0,0,0,0,0,0,0,0,-1,1119,1492,0,0
-98,-468,0,0,0,0,0,0,0,0,0,-1,1126,1492,0,0
-91,-468,0,0,0,0,0,0,0,0,0,-1,1133,1492,0,0
-84,-468,0,0,0,0,0,0,0,0,0,-1,1140,1492,0,0
-77,-468,0,0,0,0,0,0,0,0,0,-1,1147,1492,0,0
-70,-468,0,0,0,0,0,0,0,0,0,-1,1154,1492,0,0
-63,-468,0,0,0,0,0,0,0,0,0,-1,1161,1492,0,0
-56,-468,0,0,0,0,0,0,0,0,0,-1,1168,1492,0,0
-49,-468,0,0,0,0,0,0,0,0,0,-1,1175,1492,0,0
-42,-468,0,0,0,0,0,0,0,0,0,-1,1182,1492,0,0
-35,-468,0,0,0,0,0,0,0,0,0,-1,1189,1492,0,0
-28,-468,0,0,0,0,0,0,0,0,0,-1,1196,1492,0,0
-21,-468,0,0,0,0,0,0,0,0,0,-1,1203,1492,0,0
-14,-468,0,0,0,0,0,0,0,0,0,-1,1210,1492,0,0
-7,-468,0,0,0,0,0,0,0,0,0,-1,1217,1492,0,0
0,-468,0,0,0,0,0,0,0,0,0,-1,1224,1492,0,0
7,-468,0,0,0,0,0,0,0,0,0,-1,1231,1492,0,0
14,-468,0,0,0,0,0,0,0,0,0,-1,1238,1492,0,0
21,-468,0,0,0,0,0,0,0,0,0,-1,1245,1492,0,0
28,-468,0,0,0,0,0,0,0,0,0,-1,1252,1492,0,0
35,-468,0,0,0,0,0,0,0,0,0,-1,1259,1492,0,0
42,-468,0,0,0,0,0,0,0,0,0,-1,1266,1492,0,0
49,-468,0,0,0,0,0,0,0,0,0,-1,1273,1492,0,0
56,-468,0,0,0,0,0,0,0,0,0,-1,1280,1492,0,0
63,-468,0,0,0,0,0,0,0,0,0,-1,1287,1492,0,0
70,-468,0,0,0,0,0,0,0,0,0,-1,1294,1492,0,0
77,-468,0,0,0,0,0,0,0,0,0,-1,1301,1492,0,0
84,-468,0,0,0,0,0,0,0,0,0,-1,1308,1492,0,0
91,-468,0,0,0,0,0,0,0,0,0,-1,1315,1492,0,0
98,-468,0,0,0,0,0,0,0,0,0,-1,1322,1492,0,0
105,-468,0,0,0,0,0,0,0,0,0,-1,1329,1492,0,0
112,-468,0,0,0,0,0,0,0,0,0,-1,1336,1492,0,0
119,-468,0,0,0,0,0,0,0,0,0,-1,1343,1492,0,0
126,-468,0,0,0,0,0,0,0,0,0,-1,1350,1492,0,0
133,-468,0,0,0,0,0,0,0,0,0,-1,1357,1492,0,0
140,-468,0,0,0,0,0,0,0,0,0,-1,1364,1492,0,0
147,-468,0,0,0,0,0,0,0,0,0,-1,1371,1492,0,0
154,-468,0,0,0,0,0,0,0,0,0,-1,1378,1492,0,0
161,-468,0,0,0,0,0,0,0,0,0,-1,1385,1492,0,0
168,-468,0,0,0,0,0,0,0,0,0,-1,1392,1492,0,0
175,-468,0,0,0,0,0,0,0,0,0,-1,1399,1492,0,0
182,-468,0,0,0,0,0,0,0,0,0,-1,1406,1492,0,0
189,-468,0,0,0,0,0,0,0,0,0,-1,1413,1492,0,0
196,-468,0,0,0,0,0,0,0,0,0,-1,1420,1492,0,0
203,-468,0,0,0,0,0,0,0,0,0,-1,1427,1492,0,0
210,-468,0,0,0,0,0,0,0,0,0,-1,1434,1492,0,0
217,-468,0,0,0,0,0,0,0,0,0,-1,1441,1492,0,0
224,-468,0,0,0,0,0,0,0,0,0,-1,1448,1492,0,0
231,-468,0,0,0,0,0,0,0,0,0,-1,1455,1492,0,0
238,-468,0,0,0,0,0,0,0,0,0,-1,1462,1492,0,0
245,-468,0,0,0,0,0,0,0,0,0,-1,1469,1492,0,0
252,-468,0,0,0,0,0,0,0,0,0,-1,1476,1492,0,0
259,-468,0,0,0,0,0,0,0,0,0,-1,1483,1492,0,0
266,-468,0,0,0,0,0,0,0,0,0,-1,1490,1492,0,0
273,-468,0,0,0,0,0,0,0,0,0,-1,1497,1492,0,0
280,-468,0,0,0,0,0,0,0,0,0,-1,1504,1492,0,0
287,-468,0,0,0,0,0,0,0,0,0,-1,1511,1492,0,0
294,-468,0,0,0,0,0,0,0,0,0,-1,1518,1492,0,0
301,-468,0,0,0,0,0,0,0,0,0,-1,1525,1492,0,0
308,-468,0,0,0,0,0,0,0,0,0,-1,1532,1492,0,0
315,-468,0,0,0,0,0,0,0,0,0,-1,1539,1492,0,0
322,-468,0,0,0,0,0,0,0,0,0,-1,1546,1492,0,0
329,-468,0,0,0,0,0,0,0,0,0,-1,1553,1492,0,0
336,-468,0,0,0,0,0,0,0,0,0,-1,1560,1492,0,0
343,-468,0,0,0,0,0,0,0,0,0,-1,1567,1492,0,0
350,-468,0,0,0,0,0,0,0,0,0,-1,1574,1492,0,0
357,-468,0,0,0,0,0,0,0,0,0,-1,1581,1492,0,0
364,-468,0,0,0,0,0,0,0,0,0,-1,1588,1492,0,0
371,-468,0,0,0,0,0,0,0,0,0,-1,1595,1492,0,0
378,-468,0,0,0,0,0,0,0,0,0,-1,1602,1492,0,0
385,-468,0,0,0,0,0,0,0,0,0,-1,1609,1492,0,0
392,-468,0,0,0,0,0,0,0,0,0,-1,1616,1492,0,0
399,-468,0,0,0,0,0,0,0,0,0,-1,1623,1492,0,0
406,-468,0,0,0,0,0,0,0,0,0,-1,1630,1492,0,0
413,-468,0,0,0,0,0,0,0,0,0,-1,1637,1492,0,0
420,-468,0,0,0,0,0,0,0,0,0,-1,1644,1492,0,0
427,-468,0,0,0,0,0,0,0,0,0,-1,1651,1492,0,0
434,-468,0,0,0,0,0,0,0,0,0,-1,1658,1492,0,0
441,-468,0,0,0,0,0,0,0,0,0,-1,1665,1492,0,0
448,-468,0,0,0,0,0,0,0,0,0,-1,1672,1492,0,0
455,-468,0,0,0,0,0,0,0,0,0,-1,1679,1492,0,0
462,-468,0,0,0,0,0,0,0,0,0,-1,1686,1492,0,0
469,-468,15.6879,1.2677,0,0,0,0,0,0,0,-1,1693,1492,15.6879,-1.26772
476,-468,14.9318,1.61865,0,0,0,0,0,0,0,-1,1700,1492,14.9318,-1.61869
483,-468,11.265,4.64795,0,0,0,0,0,0,0,-1,1707,1492,11.265,-4.64798
490,-468,12.1316,3.51624,0,0,0,0,0,0,0,-1,1714,1492,12.1316,-3.51628
497,-468,16.5355,3.14587,0,0,0,0,0,0,0,-1,1721,1492,16.5356,-3.14583
504,-468,15.0642,4.10437,0,0,0,0,0,0,0,-1,1728,1492,15.0643,-4.10431
511,-468,15.6575,9.59875,0,0,0,0,0,0,0,-1,1735,1492,15.6575,-9.59878
518,-468,14.371,10.0905,0,0,0,0,0,0,0,-1,1742,1492,14.371,-10.0904
525,-468,13.3622,10.6064,0,0,0,0,0,0,0,-1,1749,1492,13.3622,-10.6064
532,-468,12.8418,9.97156,-0.0657781,-0.0481939,0.0402675,-0.0157698,-0.0982021,0.892882,0.060896,0.0464871,1756,1492,12.8419,-9.97158
539,-468,12.2856,9.66797,-0.0496231,-0.0431379,0.0300023,-0.0162035,-0.0765576,0.839228,0.0465862,0.0496453,1763,1492,12.2856,-9.66797
546,-468,11.797,9.81738,0,0,0,0,0,0,0,-1,1770,1492,11.797,-9.81744
553,-468,11.7007,9.80042,-0.0265537,-0.0310867,0.0159246,-0.0127351,-0.0449053,0.71471,0.0267232,0.0341585,1777,1492,11.7007,-9.80037
560,-468,11.5656,9.8031,-0.0185718,-0.0253694,0.0114676,-0.0100099,-0.0339313,0.64133,0.0201316,0.0204558,1784,1492,11.5656,-9.80311
567,-468,11.543,9.64526,-0.0119816,-0.0201436,0.00752534,-0.00750195,-0.0246233,0.536943,0.0145734,0.0139297,1791,1492,11.543,-9.64523
574,-468,11.5494,9.401,-0.00727984,-0.0150136,0.00479715,-0.00498511,-0.0173083,0.446181,0.010288,0.0128704,1798,1492,11.5494,-9.40095
581,-468,11.5626,9.18896,-0.00494888,-0.0108696,0.00366684,-0.00319655,-0.0126219,0.445799,0.0075773,0.0134347,1805,1492,11.5626,-9.189
588,-468,11.5455,8.96899,-0.0028147,-0.00754176,0.00263948,-0.00163519,-0.00872127,0.42025,0.00535303,0.0118905,1812,1492,11.5456,-8.96902
595,-468,11.5514,8.74646,-0.00143392,-0.00476326,0.0019125,-0.000563083,-0.00563409,0.427284,0.00358315,0.0104706,1819,1492,11.5514,-8.74647
602,-468,11.5532,8.50293,-0.000702064,-0.00273943,0.00134311,-3.50282e-05,-0.00340647,0.460953,0.00225939,0.00893038,1826,1492,11.5532,-8.50294
609,-468,11.5436,8.25256,0.000103538,-0.000979837,0.000673578,0.000426218,-0.00130252,0.446752,0.00103995,0.00916068,1833,1492,11.5436,-8.25254
616,-468,11.5524,8.03027,0.000780519,-0.000140328,0.00017135,0.00081137,-0.000171179,0.178138,0.000606085,0.00929295,1840,1492,11.5524,-8.03028
623,-468,11.5541,7.82214,0.00126113,0.000200546,-0.000188488,0.00129363,0.000168044,-0.170757,0.000812223,0.00983298,1847,1492,11.554,-7.82217
630,-468,11.5745,7.59009,0.00146333,0.000855331,-0.000801706,0.00201674,0.000301922,-0.604179,0.00125601,0.0104613,1854,1492,11.5744,-7.5901
637,-468,11.5829,7.3269,0.00186178,0.00134328,-0.00141031,0.00303647,0.000168592,-0.694499,0.00197052,0.0146811,1861,1492,11.5829,-7.32692
644,-468,11.5676,7.14832,0.00219013,0.00212275,-0.00228694,0.00444363,-0.000130746,-0.778032,0.00300695,0.0339206,1868,1492,11.5677,-7.14833
651,-468,11.6288,7.00134,0,0,0,0,0,0,0,-1,1875,1492,11.6287,-7.00135
658,-468,12.3152,6.54907,0,0,0,0,0,0,0,-1,1882,1492,12.3152,-6.54908
665,-468,12.9772,6.02271,0,0,0,0,0,0,0,-1,1889,1492,12.9772,-6.02272
672,-468,9.96814,3.61133,0,0,0,0,0,0,0,-1,1896,1492,9.96817,-3.61139
679,-468,11.2191,1.91968,0,0,0,0,0,0,0,-1,1903,1492,11.2191,-1.91965
686,-468,11.9252,1.42285,0,0,0,0,0,0,0,-1,1910,1492,11.9252,-1.42291
693,-468,0,0,0,0,0,0,0,0,0,-1,1917,1492,0,0
700,-468,0,0,0,0,0,0,0,0,0,-1,1924,1492,0,0
707,-468,0,0,0,0,0,0,0,0,0,-1,1931,1492,0,0
714,-468,0,0,0,0,0,0,0,0,0,-1,1938,1492,0,0
721,-468,0,0,0,0,0,0,0,0,0,-1,1945,1492,0,0
728,-468,0,0,0,0,0,0,0,0,0,-1,1952,1492,0,0
735,-468,0,0,0,0,0,0,0,0,0,-1,1959,1492,0,0
742,-468,0,0,0,0,0,0,0,0,0,-1,1966,1492,0,0
749,-468,0,0,0,0,0,0,0,0,0,-1,1973,1492,0,0
756,-468,0,0,0,0,0,0,0,0,0,-1,1980,1492,0,0
763,-468,0,0,0,0,0,0,0,0,0,-1,1987,1492,0,0
770,-468,0,0,0,0,0,0,0,0,0,-1,1994,1492,0,0
777,-468,0,0,0,0,0,0,0,0,0,-1,2001,1492,0,0
784,-468,0,0,0,0,0,0,0,0,0,-1,2008,1492,0,0
791,-468,0,0,0,0,0,0,0,0,0,-1,2015,1492,0,0
798,-468,0,0,0,0,0,0,0,0,0,-1,2022,1492,0,0
805,-468,0,0,0,0,0,0,0,0,0,-1,2029,1492,0,0
812,-468,0,0,0,0,0,0,0,0,0,-1,2036,1492,0,0
-700,-475,0,0,0,0,0,0,0,0,0,-1,524,1499,0,0
-693,-475,0,0,0,0,0,0,0,0,0,-1,531,1499,0,0
-686,-475,0,0,0,0,0,0,0,0,0,-1,538,1499,0,0
-679,-475,0,0,0,0,0,0,0,0,0,-1,545,1499,0,0
-672,-475,0,0,0,0,0,0,0,0,0,-1,552,1499,0,0
-665,-475,0,0,0,0,0,0,0,0,0,-1,559,1499,0,0
-658,-475,0,0,0,0,0,0,0,0,0,-1,566,1499,0,0
-651,-475,0,0,0,0,0,0,0,0,0,-1,573,1499,0,0
-644,-475,0,0,0,0,0,0,0,0,0,-1,580,1499,0,0
-637,-475,0,0,0,0,0,0,0,0,0,-1,587,1499,0,0
-630,-475,0,0,0,0,0,0,0,0,0,-1,594,1499,0,0
-623,-475,0,0,0,0,0,0,0,0,0,-1,601,1499,0,0
-616,-475,0,0,0,0,0,0,0,0,0,-1,608,1499,0,0
-609,-475,0,0,0,0,0,0,0,0,0,-1,615,1499,0,0
-602,-475,0,0,0,0,0,0,0,0,0,-1,622,1499,0,0
-595,-475,0,0,0,0,0,0,0,0,0,-1,629,1499,0,0
-588,-475,0,0,0,0,0,0,0,0,0,-1,636,1499,0,0
-581,-475,0,0,0,0,0,0,0,0,0,-1,643,1499,0,0
-574,-475,0,0,0,0,0,0,0,0,0,-1,650,1499,0,0
-567,-475,0,0,0,0,0,0,0,0,0,-1,657,1499,0,0
-560,-475,-9.42731,9.29517,0,0,0,0,0,0,0,-1,664,1499,-9.42731,-9.29519
-553,-475,-8.15131,8.78369,0,0,0,0,0,0,0,-1,671,1499,-8.15131,-8.78367
-546,-475,-8.41254,8.20654,0,0,0,0,0,0,0,-1,678,1499,-8.41251,-8.20655
-539,-475,-4.33221,4.54761,0,0,0,0,0,0,0,-1,685,1499,-4.33221,-4.54766
-532,-475,-3.58142,4.66309,0.0915558,0.00421786,0.0239644,0.0976992,-0.00192554,0.250951,0.065784,0.045087,692,1499,-3.58145,-4.66313
-525,-475,-2.62274,4.7041,0.0708451,0.00505836,0.0177849,0.0753452,0.000558194,0.247831,0.0500451,0.047229,699,1499,-2.62273,-4.70406
-518,-475,-2.44891,5.0387,0.0539291,0.00490023,0.0132025,0.0572582,0.00157111,0.247009,0.0376594,0.0490723,706,1499,-2.44892,-5.03871
-511,-475,-2.50006,5.20361,0.0402769,0.00425223,0.00974566,0.0427444,0.00178477,0.247975,0.0279203,0.0450878,713,1499,-2.50005,-5.20359
-504,-475,-2.11365,5.68542,0.0293782,0.00342779,0.00713289,0.0312095,0.00159644,0.251319,0.0202951,0.0271247,720,1499,-2.11368,-5.68543
-497,-475,-2.09021,5.90137,0.0205489,0.00274164,0.00476885,0.0217456,0.00154494,0.245863,0.0140105,0.0143149,727,1499,-2.09021,-5.90135
-490,-475,-2.08093,6.14038,0.0143827,0.00168146,0.00317894,0.0151339,0.000930246,0.232052,0.00979394,0.00827994,734,1499,-2.08092,-6.14034
-483,-475,-2.08948,6.42224,0.00998321,0.000449457,0.00171911,0.0102837,0.000148944,0.173059,0.00680671,0.00810777,741,1499,-2.08949,-6.42229
-476,-475,-2.09631,6.66895,0.00643317,-0.000941748,0.000497125,0.00646653,-0.000975107,0.0670035,0.00467012,0.00930843,748,1499,-2.09632,-6.66893
-469,-475,-2.08765,6.90894,0.00427717,-0.00216758,-0.000897154,0.00439973,-0.00229013,-0.135769,0.00392589,0.0110573,755,1499,-2.08763,-6.90892
-462,-475,-2.06885,7.16113,0.00323465,-0.0034868,-0.00236809,0.00398517,-0.00423732,-0.306916,0.00474801,0.0151235,762,1499,-2.06882,-7.16118
-455,-475,-2.09833,7.39526,0.00313638,-0.00520652,-0.00372849,0.00455981,-0.00662995,-0.364693,0.00649716,0.0135487,769,1499,-2.09836,-7.39529
-448,-475,-2.12726,7.65186,0.00412205,-0.00693185,-0.00500179,0.0060493,-0.0088591,-0.36778,0.00865818,0.0118748,776,1499,-2.12727,-7.6518
-441,-475,-2.11536,7.92322,0.00538182,-0.00868562,-0.00648894,0.00791782,-0.0112216,-0.372567,0.0111049,0.0161171,783,1499,-2.11534,-7.92319
-434,-475,-2.11298,8.15283,0.00674087,-0.0108912,-0.00830623,0.0100375,-0.0141878,-0.377817,0.0140547,0.0108983,790,1499,-2.11296,-8.15285
-427,-475,-2.07233,8.44019,0.00821414,-0.0134727,-0.0104697,0.0124437,-0.0177023,-0.383934,0.0174928,0.0144576,797,1499,-2.07233,-8.44018
-420,-475,-1.96533,8.65662,0.00968322,-0.016421,-0.0131209,0.0151383,-0.0218761,-0.394013,0.0214879,0.0225247,804,1499,-1.96535,-8.65658
-413,-475,-1.75012,8.57227,0.0110755,-0.0199177,-0.0162599,0.0180406,-0.0268828,-0.404714,0.0261035,0.0421762,811,1499,-1.75015,-8.57227
-406,-475,-1.33289,8.59363,0,0,0,0,0,0,0,-1,818,1499,-1.33291,-8.59358
-399,-475,-1.67731,5.84595,0,0,0,0,0,0,0,-1,825,1499,-1.67733,-5.84596
-392,-475,0.217163,8.61389,0,0,0,0,0,0,0,-1,832,1499,0.217167,-8.6139
-385,-475,1.18372,2.73999,0,0,0,0,0,0,0,-1,839,1499,1.18372,-2.73995
-378,-475,1.31409,2.90149,0,0,0,0,0,0,0,-1,846,1499,1.31411,-2.90151
-371,-475,2.3476,3.31116,0,0,0,0,0,0,0,-1,853,1499,2.34761,-3.31121
-364,-475,1.04462,9.05823,0,0,0,0,0,0,0,-1,860,1499,1.04461,-9.05825
-357,-475,-0.262756,7.97205,0,0,0,0,0,0,0,-1,867,1499,-0.262784,-7.97205
-350,-475,-2.77173,4.35486,0,0,0,0,0,0,0,-1,874,1499,-2.77175,-4.35491
-343,-475,-6.81641,-1.95203,0,0,0,0,0,0,0,-1,881,1499,-6.81643,1.95198
-336,-475,0,0,0,0,0,0,0,0,0,-1,888,1499,0,0
-329,-475,0,0,0,0,0,0,0,0,0,-1,895,1499,0,0
-322,-475,0,0,0,0,0,0,0,0,0,-1,902,1499,0,0
-315,-475,0,0,0,0,0,0,0,0,0,-1,909,1499,0,0
-308,-475,0,0,0,0,0,0,0,0,0,-1,916,1499,0,0
-301,-475,0,0,0,0,0,0,0,0,0,-1,923,1499,0,0
-294,-475,0,0,0,0,0,0,0,0,0,-1,930,1499,0,0
-287,-475,0,0,0,0,0,0,0,0,0,-1,937,1499,0,0
-280,-475,0,0,0,0,0,0,0,0,0,-1,944,1499,0,0
-273,-475,0,0,0,0,0,0,0,0,0,-1,951,1499,0,0
-266,-475,0,0,0,0,0,0,0,0,0,-1,958,1499,0,0
-259,-475,0,0,0,0,0,0,0,0,0,-1,965,1499,0,0
-252,-475,0,0,0,0,0,0,0,0,0,-1,972,1499,0,0
-245,-475,0,0,0,0,0,0,0,0,0,-1,979,1499,0,0
-238,-475,0,0,0,0,0,0,0,0,0,-1,986,1499,0,0
-231,-475,0,0,0,0,0,0,0,0,0,-1,993,1499,0,0
-224,-475,0,0,0,0,0,0,0,0,0,-1,1000,1499,0,0
-217,-475,0,0,0,0,0,0,0,0,0,-1,1007,1499,0,0
-210,-475,0,0,0,0,0,0,0,0,0,-1,1014,1499,0,0
-203,-475,0,0,0,0,0,0,0,0,0,-1,1021,1499,0,0
-196,-475,0,0,0,0,0,0,0,0,0,-1,1028,1499,0,0
-189,-475,0,0,0,0,0,0,0,0,0,-1,1035,1499,0,0
-182,-475,0,0,0,0,0,0,0,0,0,-1,1042,1499,0,0
-175,-475,0,0,0,0,0,0,0,0,0,-1,1049,1499,0,0
-168,-475,0,0,0,0,0,0,0,0,0,-1,1056,1499,0,0
-161,-475,0,0,0,0,0,0,0,0,0,-1,1063,1499,0,0
-154,-475,0,0,0,0,0,0,0,0,0,-1,1070,1499,0,0
-147,-475,0,0,0,0,0,0,0,0,0,-1,1077,1499,0,0
-140,-475,0,0,0,0,0,0,0,0,0,-1,1084,1499,0,0
-133,-475,0,0,0,0,0,0,0,0,0,-1,1091,1499,0,0
-126,-475,0,0,0,0,0,0,0,0,0,-1,1098,1499,0,0
-119,-475,0,0,0,0,0,0,0,0,0,-1,1105,1499,0,0
-112,-475,0,0,0,0,0,0,0,0,0,-1,1112,1499,0,0
-105,-475,0,0,0,0,0,0,0,0,0,-1,1119,1499,0,0
-98,-475,0,0,0,0,0,0,0,0,0,-1,1126,1499,0,0
-91,-475,0,0,0,0,0,0,0,0,0,-1,1133,1499,0,0
-84,-475,0,0,0,0,0,0,0,0,0,-1,1140,1499,0,0
-77,-475,0,0,0,0,0,0,0,0,0,-1,1147,1499,0,0
-70,-475,0,0,0,0,0,0,0,0,0,-1,1154,1499,0,0
-63,-475,0,0,0,0,0,0,0,0,0,-1,1161,1499,0,0
-56,-475,0,0,0,0,0,0,0,0,0,-1,1168,1499,0,0
-49,-475,0,0,0,0,0,0,0,0,0,-1,1175,1499,0,0
-42,-475,0,0,0,0,0,0,0,0,0,-1,1182,1499,0,0
-35,-475,0,0,0,0,0,0,0,0,0,-1,1189,1499,0,0
-28,-475,0,0,0,0,0,0,0,0,0,-1,1196,1499,0,0
-21,-475,0,0,0,0,0,0,0,0,0,-1,1203,1499,0,0
-14,-475,0,0,0,0,0,0,0,0,0,-1,1210,1499,0,0
-7,-475,0,0,0,0,0,0,0,0,0,-1,1217,1499,0,0
0,-475,0,0,0,0,0,0,0,0,0,-1,1224,1499,0,0
7,-475,0,0,0,0,0,0,0,0,0,-1,1231,1499,0,0
14,-475,0,0,0,0,0,0,0,0,0,-1,1238,1499,0,0
21,-475,0,0,0,0,0,0,0,0,0,-1,1245,1499,0,0
28,-475,0,0,0,0,0,0,0,0,0,-1,1252,1499,0,0
35,-475,0,0,0,0,0,0,0,0,0,-1,1259,1499,0,0
42,-475,0,0,0,0,0,0,0,0,0,-1,1266,1499,0,0
49,-475,0,0,0,0,0,0,0,0,0,-1,1273,1499,0,0
56,-475,0,0,0,0,0,0,0,0,0,-1,1280,1499,0,0
63,-475,0,0,0,0,0,0,0,0,0,-1,1287,1499,0,0
70,-475,0,0,0,0,0,0,0,0,0,-1,1294,1499,0,0
77,-475,0,0,0,0,0,0,0,0,0,-1,1301,1499,0,0
84,-475,0,0,0,0,0,0,0,0,0,-1,1308,1499,0,0
91,-475,0,0,0,0,0,0,0,0,0,-1,1315,1499,0,0
98,-475,0,0,0,0,0,0,0,0,0,-1,1322,1499,0,0
105,-475,0,0,0,0,0,0,0,0,0,-1,1329,1499,0,0
112,-475,0,0,0,0,0,0,0,0,0,-1,1336,1499,0,0
119,-475,0,0,0,0,0,0,0,0,0,-1,1343,1499,0,0
126,-475,0,0,0,0,0,0,0,0,0,-1,1350,1499,0,0
133,-475,0,0,0,0,0,0,0,0,0,-1,1357,1499,0,0
140,-475,0,0,0,0,0,0,0,0,0,-1,1364,1499,0,0
147,-475,0,0,0,0,0,0,0,0,0,-1,1371,1499,0,0
154,-475,0,0,0,0,0,0,0,0,0,-1,1378,1499,0,0
161,-475,0,0,0,0,0,0,0,0,0,-1,1385,1499,0,0
168,-475,0,0,0,0,0,0,0,0,0,-1,1392,1499,0,0
175,-475,0,0,0,0,0,0,0,0,0,-1,1399,1499,0,0
182,-475,0,0,0,0,0,0,0,0,0,-1,1406,1499,0,0
189,-475,0,0,0,0,0,0,0,0,0,-1,1413,1499,0,0
196,-475,0,0,0,0,0,0,0,0,0,-1,1420,1499,0,0
203,-475,0,0,0,0,0,0,0,0,0,-1,1427,1499,0,0
210,-475,0,0,0,0,0,0,0,0,0,-1,1434,1499,0,0
217,-475,0,0,0,0,0,0,0,0,0,-1,1441,1499,0,0
224,-475,0,0,0,0,0,0,0,0,0,-1,1448,1499,0,0
231,-475,0,0,0,0,0,0,0,0,0,-1,1455,1499,0,0
238,-475,0,0,0,0,0,0,0,0,0,-1,1462,1499,0,0
245,-475,0,0,0,0,0,0,0,0,0,-1,1469,1499,0,0
252,-475,0,0,0,0,0,0,0,0,0,-1,1476,1499,0,0
259,-475,0,0,0,0,0,0,0,0,0,-1,1483,1499,0,0
266,-475,0,0,0,0,0,0,0,0,0,-1,1490,1499,0,0
273,-475,0,0,0,0,0,0,0,0,0,-1,1497,1499,0,0
280,-475,0,0,0,0,0,0,0,0,0,-1,1504,1499,0,0
287,-475,0,0,0,0,0,0,0,0,0,-1,1511,1499,0,0
294,-475,0,0,0,0,0,0,0,0,0,-1,1518,1499,0,0
301,-475,0,0,0,0,0,0,0,0,0,-1,1525,1499,0,0
308,-475,0,0,0,0,0,0,0,0,0,-1,1532,1499,0,0
315,-475,0,0,0,0,0,0,0,0,0,-1,1539,1499,0,0
322,-475,0,0,0,0,0,0,0,0,0,-1,1546,1499,0,0
329,-475,0,0,0,0,0,0,0,0,0,-1,1553,1499,0,0
336,-475,0,0,0,0,0,0,0,0,0,-1,1560,1499,0,0
343,-475,0,0,0,0,0,0,0,0,0,-1,1567,1499,0,0
350,-475,0,0,0,0,0,0,0,0,0,-1,1574,1499,0,0
357,-475,0,0,0,0,0,0,0,0,0,-1,1581,1499,0,0
364,-475,0,0,0,0,0,0,0,0,0,-1,1588,1499,0,0
371,-475,0,0,0,0,0,0,0,0,0,-1,1595,1499,0,0
378,-475,0,0,0,0,0,0,0,0,0,-1,1602,1499,0,0
385,-475,0,0,0,0,0,0,0,0,0,-1,1609,1499,0,0
392,-475,0,0,0,0,0,0,0,0,0,-1,1616,1499,0,0
399,-475,0,0,0,0,0,0,0,0,0,-1,1623,1499,0,0
406,-475,0,0,0,0,0,0,0,0,0,-1,1630,1499,0,0
413,-475,0,0,0,0,0,0,0,0,0,-1,1637,1499,0,0
420,-475,0,0,0,0,0,0,0,0,0,-1,1644,1499,0,0
427,-475,0,0,0,0,0,0,0,0,0,-1,1651,1499,0,0
434,-475,0,0,0,0,0,0,0,0,0,-1,1658,1499,0,0
441,-475,0,0,0,0,0,0,0,0,0,-1,1665,1499,0,0
448,-475,0,0,0,0,0,0,0,0,0,-1,1672,1499,0,0
455,-475,0,0,0,0,0,0,0,0,0,-1,1679,1499,0,0
462,-475,12.6372,0.275391,0,0,0,0,0,0,0,-1,1686,1499,12.6372,-0.27536
469,-475,15.6437,2.28296,0,0,0,0,0,0,0,-1,1693,1499,15.6437,-2.28293
476,-475,15.3302,2.71436,0,0,0,0,0,0,0,-1,1700,1499,15.3303,-2.7143
483,-475,10.7461,5.91479,0,0,0,0,0,0,0,-1,1707,1499,10.7461,-5.91476
490,-475,11.9305,4.4364,0,0,0,0,0,0,0,-1,1714,1499,11.9305,-4.43644
497,-475,15.3451,4.3479,0,0,0,0,0,0,0,-1,1721,1499,15.3451,-4.34789
504,-475,16.1669,8.5481,0,0,0,0,0,0,0,-1,1728,1499,16.1669,-8.54806
511,-475,14.9714,9.62366,-0.118283,-0.0474314,0.0808151,0.00538158,-0.171096,0.991961,0.115899,0.0420967,1735,1499,14.9715,-9.62361
518,-475,13.7964,10.4025,-0.0957562,-0.0458891,0.0638961,-0.00223411,-0.139411,0.971422,0.0922051,0.0439099,1742,1499,13.7964,-10.4025
525,-475,12.6974,10.6067,0,0,0,0,0,0,0,-1,1749,1499,12.6974,-10.6067
532,-475,12.3086,10.3152,-0.0586229,-0.038588,0.0374403,-0.0098482,-0.0873627,0.916115,0.0552524,0.0455088,1756,1499,12.3086,-10.3151
539,-475,11.8912,10.0396,-0.0442069,-0.033804,0.0277614,-0.010761,-0.0672499,0.878006,0.0417115,0.0486137,1763,1499,11.8913,-10.0396
546,-475,11.4747,9.94019,-0.0324793,-0.0287332,0.0202479,-0.0102719,-0.0509406,0.831519,0.031107,0.0393007,1770,1499,11.4748,-9.94022
553,-475,11.4298,9.98291,-0.0232602,-0.0238099,0.0143424,-0.00919003,-0.0378801,0.775817,0.0228156,0.0201088,1777,1499,11.4299,-9.98297
560,-475,11.2766,9.87964,-0.0160447,-0.019342,0.0101363,-0.00742385,-0.0279629,0.704781,0.0167258,0.0145901,1784,1499,11.2766,-9.87961
567,-475,11.3303,9.63757,-0.0101053,-0.0151969,0.00647648,-0.00569224,-0.01961,0.598134,0.0116491,0.0135679,1791,1499,11.3303,-9.63755
574,-475,11.3201,9.41077,-0.00579586,-0.0110923,0.00390681,-0.0037243,-0.0131638,0.487548,0.00783527,0.014239,1798,1499,11.3201,-9.41078
581,-475,11.3191,9.19751,-0.00368358,-0.00784847,0.00286044,-0.00222785,-0.00930421,0.470758,0.00560964,0.0115052,1805,1499,11.3191,-9.19747
588,-475,11.3163,8.96985,-0.00174118,-0.00519183,0.00190817,-0.000893985,-0.00603902,0.417838,0.00376358,0.00956349,1812,1499,11.3163,-8.96984
595,-475,11.3313,8.75232,-0.000531765,-0.00294407,0.00127693,1.86043e-05,-0.00349444,0.406948,0.00233585,0.0111097,1819,1499,11.3312,-8.75237
602,-475,11.3408,8.50928,6.54968e-05,-0.00131235,0.000815359,0.000444012,-0.00169087,0.434626,0.00130076,0.0125147,1826,1499,11.3408,-8.50925
609,-475,11.3243,8.27136,0.000723707,1.1493e-05,0.000235821,0.000794711,-5.95111e-05,0.292459,0.000550717,0.0116519,1833,1499,11.3244,-8.27139
616,-475,11.3289,8.06482,0.00121663,0.000592734,-0.000142641,0.00124769,0.000561669,-0.214438,0.000721547,0.0108796,1840,1499,11.3289,-8.06485
623,-475,11.337,7.84399,0.0015197,0.000745088,-0.000369444,0.00166764,0.000597141,-0.380901,0.000975657,0.0104164,1847,1499,11.337,-7.84401
630,-475,11.3702,7.6106,0.0016002,0.00132823,-0.000912536,0.00238683,0.000541605,-0.711432,0.00144493,0.0139199,1854,1499,11.3703,-7.61059
637,-475,11.3915,7.37463,0.00189097,0.00175374,-0.00148411,0.00330805,0.000336659,-0.762297,0.00210215,0.0279313,1861,1499,11.3915,-7.37457
644,-475,11.4481,7.08716,0,0,0,0,0,0,0,-1,1868,1499,11.4482,-7.08712
651,-475,11.7965,7.57593,0,0,0,0,0,0,0,-1,1875,1499,11.7965,-7.5759
658,-475,12.371,6.85522,0,0,0,0,0,0,0,-1,1882,1499,12.371,-6.85518
665,-475,9.33435,5.43335,0,0,0,0,0,0,0,-1,1889,1499,9.33439,-5.43332
672,-475,9.38635,1.10474,0,0,0,0,0,0,0,-1,1896,1499,9.38629,-1.10475
679,-475,12.2594,1.31079,0,0,0,0,0,0,0,-1,1903,1499,12.2594,-1.31077
686,-475,0,0,0,0,0,0,0,0,0,-1,1910,1499,0,0
693,-475,0,0,0,0,0,0,0,0,0,-1,1917,1499,0,0
700,-475,0,0,0,0,0,0,0,0,0,-1,1924,1499,0,0
707,-475,0,0,0,0,0,0,0,0,0,-1,1931,1499,0,0
714,-475,0,0,0,0,0,0,0,0,0,-1,1938,1499,0,0
721,-475,0,0,0,0,0,0,0,0,0,-1,1945,1499,0,0
728,-475,0,0,0,0,0,0,0,0,0,-1,1952,1499,0,0
735,-475,0,0,0,0,0,0,0,0,0,-1,1959,1499,0,0
742,-475,0,0,0,0,0,0,0,0,0,-1,1966,1499,0,0
749,-475,0,0,0,0,0,0,0,0,0,-1,1973,1499,0,0
756,-475,0,0,0,0,0,0,0,0,0,-1,1980,1499,0,0
763,-475,0,0,0,0,0,0,0,0,0,-1,1987,1499,0,0
770,-475,0,0,0,0,0,0,0,0,0,-1,1994,1499,0,0
777,-475,0,0,0,0,0,0,0,0,0,-1,2001,1499,0,0
784,-475,0,0,0,0,0,0,0,0,0,-1,2008,1499,0,0
791,-475,0,0,0,0,0,0,0,0,0,-1,2015,1499,0,0
798,-475,0,0,0,0,0,0,0,0,0,-1,2022,1499,0,0
805,-475,0,0,0,0,0,0,0,0,0,-1,2029,1499,0,0
812,-475,0,0,0,0,0,0,0,0,0,-1,2036,1499,0,0
-700,-482,0,0,0,0,0,0,0,0,0,-1,524,1506,0,0
-693,-482,0,0,0,0,0,0,0,0,0,-1,531,1506,0,0
-686,-482,0,0,0,0,0,0,0,0,0,-1,538,1506,0,0
-679,-482,0,0,0,0,0,0,0,0,0,-1,545,1506,0,0
-672,-482,0,0,0,0,0,0,0,0,0,-1,552,1506,0,0
-665,-482,0,0,0,0,0,0,0,0,0,-1,559,1506,0,0
-658,-482,0,0,0,0,0,0,0,0,0,-1,566,1506,0,0
-651,-482,0,0,0,0,0,0,0,0,0,-1,573,1506,0,0
-644,-482,0,0,0,0,0,0,0,0,0,-1,580,1506,0,0
-637,-482,0,0,0,0,0,0,0,0,0,-1,587,1506,0,0
-630,-482,0,0,0,0,0,0,0,0,0,-1,594,1506,0,0
-623,-482,0,0,0,0,0,0,0,0,0,-1,601,1506,0,0
-616,-482,0,0,0,0,0,0,0,0,0,-1,608,1506,0,0
-609,-482,0,0,0,0,0,0,0,0,0,-1,615,1506,0,0
-602,-482,0,0,0,0,0,0,0,0,0,-1,622,1506,0,0
-595,-482,0,0,0,0,0,0,0,0,0,-1,629,1506,0,0
-588,-482,0,0,0,0,0,0,0,0,0,-1,636,1506,0,0
-581,-482,0,0,0,0,0,0,0,0,0,-1,643,1506,0,0
-574,-482,0,0,0,0,0,0,0,0,0,-1,650,1506,0,0
-567,-482,0,0,0,0,0,0,0,0,0,-1,657,1506,0,0
-560,-482,0,0,0,0,0,0,0,0,0,-1,664,1506,0,0
-553,-482,-9.06055,9.34314,0,0,0,0,0,0,0,-1,671,1506,-9.06056,-9.34312
-546,-482,-4.08624,8.34241,0,0,0,0,0,0,0,-1,678,1506,-4.08624,-8.3424
-539,-482,-5.94067,7.21851,0,0,0,0,0,0,0,-1,685,1506,-5.94069,-7.21847
-532,-482,-3.00043,5.24622,0,0,0,0,0,0,0,-1,692,1506,-3.0004,-5.24623
-525,-482,-2.87225,5.29944,0.0823717,0.00718127,0.0193525,0.0870603,0.00249267,0.237693,0.0572274,0.043203,699,1506,-2.87222,-5.29945
-518,-482,-2.56866,5.27686,0.062966,0.00678875,0.0146775,0.0665696,0.0031851,0.240759,0.0433571,0.0498517,706,1506,-2.56867,-5.27687
-511,-482,-2.33954,5.58972,0,0,0,0,0,0,0,-1,713,1506,-2.33955,-5.58974
-504,-482,-2.06653,5.78809,0.03446,0.00480331,0.00824544,0.0365983,0.00266501,0.253742,0.0235608,0.0407216,720,1506,-2.06652,-5.78809
-497,-482,-1.8197,5.92932,0.0242126,0.00388749,0.00575945,0.0257312,0.00236891,0.257799,0.0164215,0.0235412,727,1506,-1.81969,-5.92936
-490,-482,-1.84045,6.1272,0.0168225,0.00271854,0.00410689,0.0179312,0.00160982,0.263679,0.0114553,0.0145679,734,1506,-1.84045,-6.12717
-483,-482,-1.83295,6.40735,0.0114531,0.00152454,0.00270935,0.0121443,0.000833319,0.249795,0.00783322,0.00828945,741,1506,-1.83293,-6.40729
-476,-482,-1.82568,6.65698,0.00722425,0.000224609,0.00161817,0.00758023,-0.000131373,0.216542,0.00509784,0.00943202,748,1506,-1.82566,-6.65693
-469,-482,-1.83484,6.9165,0.00453084,-0.000812202,0.000403762,0.00456118,-0.00084254,0.0750001,0.00335706,0.0107526,755,1506,-1.83487,-6.91648
-462,-482,-1.84381,7.17554,0.00298651,-0.0019581,-0.000753006,0.00309864,-0.00207024,-0.147825,0.00300387,0.0111754,762,1506,-1.84381,-7.17549
-455,-482,-1.86481,7.41919,0.00245656,-0.00338696,-0.0017356,0.00293318,-0.00386359,-0.268008,0.00393635,0.0116413,769,1506,-1.86478,-7.41922
-448,-482,-1.86517,7.67505,0.00314897,-0.00467708,-0.00252368,0.0038922,-0.00542031,-0.286406,0.00540065,0.0122346,776,1506,-1.86516,-7.6751
-441,-482,-1.84076,7.92212,0.00412184,-0.00591578,-0.00345505,0.00519612,-0.00699007,-0.301456,0.00706107,0.0121851,783,1506,-1.84079,-7.92215
-434,-482,-1.84479,8.16565,0.00519743,-0.0075215,-0.00464155,0.00671114,-0.0090352,-0.315245,0.0091241,0.0154194,790,1506,-1.84479,-8.16568
-427,-482,-1.84216,8.44299,0.00643729,-0.00941385,-0.00604534,0.00847971,-0.0114563,-0.32581,0.0115527,0.0174102,797,1506,-1.84217,-8.44296
-420,-482,-1.79071,8.78906,0.00767652,-0.0116268,-0.00782928,0.0104527,-0.014403,-0.340762,0.0144108,0.0254446,804,1506,-1.79069,-8.78906
-413,-482,-1.63098,8.84155,0.00879429,-0.0144048,-0.0100064,0.0125139,-0.0181245,-0.355897,0.0177877,0.0363839,811,1506,-1.631,-8.84152
-406,-482,-1.6236,8.89185,0,0,0,0,0,0,0,-1,818,1506,-1.6236,-8.89179
-399,-482,-1.3822,9.22595,0,0,0,0,0,0,0,-1,825,1506,-1.38221,-9.22598
-392,-482,-1.06836,9.22729,0,0,0,0,0,0,0,-1,832,1506,-1.06835,-9.2273
-385,-482,0.0647583,8.90649,0,0,0,0,0,0,0,-1,839,1506,0.0647778,-8.90644
-378,-482,0.215698,5.96948,0,0,0,0,0,0,0,-1,846,1506,0.215681,-5.9695
-371,-482,-0.10907,8.10437,0,0,0,0,0,0,0,-1,853,1506,-0.109063,-8.10433
-364,-482,-0.154968,10.5032,0,0,0,0,0,0,0,-1,860,1506,-0.154976,-10.5032
-357,-482,2.14807,4.60144,0,0,0,0,0,0,0,-1,867,1506,2.14807,-4.60144
-350,-482,-7.5813,-1.45935,0,0,0,0,0,0,0,-1,874,1506,-7.58133,1.45937
-343,-482,-7.19983,-1.26416,0,0,0,0,0,0,0,-1,881,1506,-7.19981,1.26414
-336,-482,-6.78491,-1.18127,0,0,0,0,0,0,0,-1,888,1506,-6.78488,1.18125
-329,-482,0,0,0,0,0,0,0,0,0,-1,895,1506,0,0
-322,-482,0,0,0,0,0,0,0,0,0,-1,902,1506,0,0
-315,-482,0,0,0,0,0,0,0,0,0,-1,909,1506,0,0
-308,-482,0,0,0,0,0,0,0,0,0,-1,916,1506,0,0
-301,-482,0,0,0,0,0,0,0,0,0,-1,923,1506,0,0
-294,-482,0,0,0,0,0,0,0,0,0,-1,930,1506,0,0
-287,-482,0,0,0,0,0,0,0,0,0,-1,937,1506,0,0
-280,-482,0,0,0,0,0,0,0,0,0,-1,944,1506,0,0
-273,-482,0,0,0,0,0,0,0,0,0,-1,951,1506,0,0
-266,-482,0,0,0,0,0,0,0,0,0,-1,958,1506,0,0
-259,-482,0,0,0,0,0,0,0,0,0,-1,965,1506,0,0
-252,-482,0,0,0,0,0,0,0,0,0,-1,972,1506,0,0
-245,-482,0,0,0,0,0,0,0,0,0,-1,979,1506,0,0
-238,-482,0,0,0,0,0,0,0,0,0,-1,986,1506,0,0
-231,-482,0,0,0,0,0,0,0,0,0,-1,993,1506,0,0
-224,-482,0,0,0,0,0,0,0,0,0,-1,1000,1506,0,0
-217,-482,0,0,0,0,0,0,0,0,0,-1,1007,1506,0,0
-210,-482,0,0,0,0,0,0,0,0,0,-1,1014,1506,0,0
-203,-482,0,0,0,0,0,0,0,0,0,-1,1021,1506,0,0
-196,-482,0,0,0,0,0,0,0,0,0,-1,1028,1506,0,0
-189,-482,0,0,0,0,0,0,0,0,0,-1,1035,1506,0,0
-182,-482,0,0,0,0,0,0,0,0,0,-1,1042,1506,0,0
-175,-482,0,0,0,0,0,0,0,0,0,-1,1049,1506,0,0
-168,-482,0,0,0,0,0,0,0,0,0,-1,1056,1506,0,0
-161,-482,0,0,0,0,0,0,0,0,0,-1,1063,1506,0,0
-154,-482,0,0,0,0,0,0,0,0,0,-1,1070,1506,0,0
-147,-482,0,0,0,0,0,0,0,0,0,-1,1077,1506,0,0
-140,-482,0,0,0,0,0,0,0,0,0,-1,1084,1506,0,0
-133,-482,0,0,0,0,0,0,0,0,0,-1,1091,1506,0,0
-126,-482,0,0,0,0,0,0,0,0,0,-1,1098,1506,0,0
-119,-482,0,0,0,0,0,0,0,0,0,-1,1105,1506,0,0
-112,-482,0,0,0,0,0,0,0,0,0,-1,1112,1506,0,0
-105,-482,0,0,0,0,0,0,0,0,0,-1,1119,1506,0,0
-98,-482,0,0,0,0,0,0,0,0,0,-1,1126,1506,0,0
-91,-482,0,0,0,0,0,0,0,0,0,-1,1133,1506,0,0
-84,-482,0,0,0,0,0,0,0,0,0,-1,1140,1506,0,0
-77,-482,0,0,0,0,0,0,0,0,0,-1,1147,1506,0,0
-70,-482,0,0,0,0,0,0,0,0,0,-1,1154,1506,0,0
-63,-482,0,0,0,0,0,0,0,0,0,-1,1161,1506,0,0
-56,-482,0,0,0,0,0,0,0,0,0,-1,1168,1506,0,0
-49,-482,0,0,0,0,0,0,0,0,0,-1,1175,1506,0,0
-42,-482,0,0,0,0,0,0,0,0,0,-1,1182,1506,0,0
-35,-482,0,0,0,0,0,0,0,0,0,-1,1189,1506,0,0
-28,-482,0,0,0,0,0,0,0,0,0,-1,1196,1506,0,0
-21,-482,0,0,0,0,0,0,0,0,0,-1,1203,1506,0,0
-14,-482,0,0,0,0,0,0,0,0,0,-1,1210,1506,0,0
-7,-482,0,0,0,0,0,0,0,0,0,-1,1217,1506,0,0
0,-482,0,0,0,0,0,0,0,0,0,-1,1224,1506,0,0
7,-482,0,0,0,0,0,0,0,0,0,-1,1231,1506,0,0
14,-482,0,0,0,0,0,0,0,0,0,-1,1238,1506,0,0
21,-482,0,0,0,0,0,0,0,0,0,-1,1245,1506,0,0
28,-482,0,0,0,0,0,0,0,0,0,-1,1252,1506,0,0
35,-482,0,0,0,0,0,0,0,0,0,-1,1259,1506,0,0
42,-482,0,0,0,0,0,0,0,0,0,-1,1266,1506,0,0
49,-482,0,0,0,0,0,0,0,0,0,-1,1273,1506,0,0
56,-482,0,0,0,0,0,0,0,0,0,-1,1280,1506,0,0
63,-482,0,0,0,0,0,0,0,0,0,-1,1287,1506,0,0
70,-482,0,0,0,0,0,0,0,0,0,-1,1294,1506,0,0
77,-482,0,0,0,0,0,0,0,0,0,-1,1301,1506,0,0
84,-482,0,0,0,0,0,0,0,0,0,-1,1308,1506,0,0
91,-482,0,0,0,0,0,0,0,0,0,-1,1315,1506,0,0
98,-482,0,0,0,0,0,0,0,0,0,-1,1322,1506,0,0
105,-482,0,0,0,0,0,0,0,0,0,-1,1329,1506,0,0
112,-482,0,0,0,0,0,0,0,0,0,-1,1336,1506,0,0
119,-482,0,0,0,0,0,0,0,0,0,-1,1343,1506,0,0
126,-482,0,0,0,0,0,0,0,0,0,-1,1350,1506,0,0
133,-482,0,0,0,0,0,0,0,0,0,-1,1357,1506,0,0
140,-482,0,0,0,0,0,0,0,0,0,-1,1364,1506,0,0
147,-482,0,0,0,0,0,0,0,0,0,-1,1371,1506,0,0
154,-482,0,0,0,0,0,0,0,0,0,-1,1378,1506,0,0
161,-482,0,0,0,0,0,0,0,0,0,-1,1385,1506,0,0
168,-482,0,0,0,0,0,0,0,0,0,-1,1392,1506,0,0
175,-482,0,0,0,0,0,0,0,0,0,-1,1399,1506,0,0
182,-482,0,0,0,0,0,0,0,0,0,-1,1406,1506,0,0
189,-482,0,0,0,0,0,0,0,0,0,-1,1413,1506,0,0
196,-482,0,0,0,0,0,0,0,0,0,-1,1420,1506,0,0
203,-482,0,0,0,0,0,0,0,0,0,-1,1427,1506,0,0
210,-482,0,0,0,0,0,0,0,0,0,-1,1434,1506,0,0
217,-482,0,0,0,0,0,0,0,0,0,-1,1441,1506,0,0
224,-482,0,0,0,0,0,0,0,0,0,-1,1448,1506,0,0
231,-482,0,0,0,0,0,0,0,0,0,-1,1455,1506,0,0
238,-482,0,0,0,0,0,0,0,0,0,-1,1462,1506,0,0
245,-482,0,0,0,0,0,0,0,0,0,-1,1469,1506,0,0
252,-482,0,0,0,0,0,0,0,0,0,-1,1476,1506,0,0
259,-482,0,0,0,0,0,0,0,0,0,-1,1483,1506,0,0
266,-482,0,0,0,0,0,0,0,0,0,-1,1490,1506,0,0
273,-482,0,0,0,0,0,0,0,0,0,-1,1497,1506,0,0
280,-482,0,0,0,0,0,0,0,0,0,-1,1504,1506,0,0
287,-482,0,0,0,0,0,0,0,0,0,-1,1511,1506,0,0
294,-482,0,0,0,0,0,0,0,0,0,-1,1518,1506,0,0
301,-482,0,0,0,0,0,0,0,0,0,-1,1525,1506,0,0
308,-482,0,0,0,0,0,0,0,0,0,-1,1532,1506,0,0
315,-482,0,0,0,0,0,0,0,0,0,-1,1539,1506,0,0
322,-482,0,0,0,0,0,0,0,0,0,-1,1546,1506,0,0
329,-482,0,0,0,0,0,0,0,0,0,-1,1553,1506,0,0
336,-482,0,0,0,0,0,0,0,0,0,-1,1560,1506,0,0
343,-482,0,0,0,0,0,0,0,0,0,-1,1567,1506,0,0
350,-482,0,0,0,0,0,0,0,0,0,-1,1574,1506,0,0
357,-482,0,0,0,0,0,0,0,0,0,-1,1581,1506,0,0
364,-482,0,0,0,0,0,0,0,0,0,-1,1588,1506,0,0
371,-482,0,0,0,0,0,0,0,0,0,-1,1595,1506,0,0
378,-482,0,0,0,0,0,0,0,0,0,-1,1602,1506,0,0
385,-482,0,0,0,0,0,0,0,0,0,-1,1609,1506,0,0
392,-482,0,0,0,0,0,0,0,0,0,-1,1616,1506,0,0
399,-482,0,0,0,0,0,0,0,0,0,-1,1623,1506,0,0
406,-482,0,0,0,0,0,0,0,0,0,-1,1630,1506,0,0
413,-482,0,0,0,0,0,0,0,0,0,-1,1637,1506,0,0
420,-482,0,0,0,0,0,0,0,0,0,-1,1644,1506,0,0
427,-482,0,0,0,0,0,0,0,0,0,-1,1651,1506,0,0
434,-482,0,0,0,0,0,0,0,0,0,-1,1658,1506,0,0
441,-482,0,0,0,0,0,0,0,0,0,-1,1665,1506,0,0
448,-482,4.24146,1.55383,0,0,0,0,0,0,0,-1,1672,1506,4.24149,-1.55381
455,-482,12.4122,1.09729,0,0,0,0,0,0,0,-1,1679,1506,12.4122,-1.09734
462,-482,15.0673,3.13135,0,0,0,0,0,0,0,-1,1686,1506,15.0672,-3.13134
469,-482,15.3793,3.46301,0,0,0,0,0,0,0,-1,1693,1506,15.3793,-3.46307
476,-482,8.69751,9.18738,0,0,0,0,0,0,0,-1,1700,1506,8.69753,-9.18739
483,-482,10.0902,7.17432,0,0,0,0,0,0,0,-1,1707,1506,10.0902,-7.1743
490,-482,11.6289,5.4928,0,0,0,0,0,0,0,-1,1714,1506,11.6289,-5.49283
497,-482,15.9539,7.40222,0,0,0,0,0,0,0,-1,1721,1506,15.9538,-7.40219
504,-482,15.1053,8.61194,0,0,0,0,0,0,0,-1,1728,1506,15.1053,-8.61199
511,-482,14.1112,9.73108,-0.101804,-0.0430975,0.0730402,0.00626684,-0.151169,0.976461,0.102932,0.0428063,1735,1506,14.1112,-9.73106
518,-482,12.9192,10.7327,-0.0824333,-0.0396137,0.0576083,0.000434536,-0.122482,0.963311,0.0817996,0.0453612,1742,1506,12.9192,-10.7326
525,-482,12.1663,10.7717,0,0,0,0,0,0,0,-1,1749,1506,12.1663,-10.7718
532,-482,11.8213,10.495,-0.0505153,-0.0311836,0.0336979,-0.00579273,-0.0759062,0.925067,0.048788,0.0441525,1756,1506,11.8213,-10.495
539,-482,11.3499,10.3145,-0.038101,-0.0265707,0.0248479,-0.00682789,-0.0578438,0.89939,0.0365001,0.0334209,1763,1506,11.3499,-10.3145
546,-482,11.1592,10.2351,-0.0279592,-0.0221608,0.0180042,-0.00682393,-0.0432962,0.865227,0.0268798,0.0173965,1770,1506,11.1592,-10.2351
553,-482,11.0994,10.0774,-0.0199279,-0.0181268,0.0126078,-0.00638745,-0.0316672,0.821052,0.0193372,0.0138205,1777,1506,11.0994,-10.0774
560,-482,11.0873,9.86316,-0.0136023,-0.0145743,0.00875615,-0.00531868,-0.0228579,0.757677,0.0138114,0.0120168,1784,1506,11.0873,-9.86316
567,-482,11.1074,9.63367,-0.00838133,-0.0112206,0.00543391,-0.00418468,-0.0154173,0.657626,0.00920597,0.014235,1791,1506,11.1074,-9.63373
574,-482,11.095,9.43115,-0.0045242,-0.00788997,0.0030556,-0.00271871,-0.00969546,0.533686,0.00577482,0.0130977,1798,1506,11.0949,-9.4312
581,-482,11.097,9.20532,-0.00263957,-0.00531676,0.0020743,-0.00150945,-0.00644688,0.498858,0.00389355,0.0091223,1805,1506,11.097,-9.2053
588,-482,11.0962,8.96924,-0.00089895,-0.00317527,0.00117643,-0.000400225,-0.003674,0.400965,0.00232742,0.00993512,1812,1506,11.0962,-8.96922
595,-482,11.094,8.72778,0.000162431,-0.00133854,0.000604546,0.000375639,-0.00155175,0.339054,0.00117982,0.0160828,1819,1506,11.094,-8.72779
602,-482,11.1267,8.48523,0.000680498,4.79222e-06,0.000211422,0.000741197,-5.59069e-05,0.27958,0.000513782,0.0199637,1826,1506,11.1268,-8.48524
609,-482,11.106,8.27539,0.00124145,0.00100379,-0.000289702,0.00143575,0.000809496,-0.590777,0.000831176,0.0155085,1833,1506,11.1059,-8.27538
616,-482,11.0955,8.05994,0.00161476,0.00143311,-0.000566979,0.00209814,0.000949728,-0.705976,0.00121317,0.0109655,1840,1506,11.0955,-8.05989
623,-482,11.1125,7.84839,0.00180361,0.00151083,-0.000674283,0.00234721,0.000967229,-0.678507,0.00136213,0.0111991,1847,1506,11.1125,-7.84835
630,-482,11.1588,7.62781,0.00180675,0.00206724,-0.00108694,0.00303172,0.000842281,-0.845027,0.00180705,0.0234654,1854,1506,11.1588,-7.62785
637,-482,11.1221,7.4314,0,0,0,0,0,0,0,-1,1861,1506,11.122,-7.43138
644,-482,10.8596,7.62085,0,0,0,0,0,0,0,-1,1868,1506,10.8596,-7.62084
651,-482,4.03845,7.05273,0,0,0,0,0,0,0,-1,1875,1506,4.03843,-7.05279
658,-482,10.0278,5.87903,0,0,0,0,0,0,0,-1,1882,1506,10.0279,-5.87902
665,-482,8.15198,3.22229,0,0,0,0,0,0,0,-1,1889,1506,8.15199,-3.22232
672,-482,9.87415,1.3147,0,0,0,0,0,0,0,-1,1896,1506,9.87416,-1.31473
679,-482,0,0,0,0,0,0,0,0,0,-1,1903,1506,0,0
686,-482,0,0,0,0,0,0,0,0,0,-1,1910,1506,0,0
693,-482,0,0,0,0,0,0,0,0,0,-1,1917,1506,0,0
700,-482,0,0,0,0,0,0,0,0,0,-1,1924,1506,0,0
707,-482,0,0,0,0,0,0,0,0,0,-1,1931,1506,0,0
714,-482,0,0,0,0,0,0,0,0,0,-1,1938,1506,0,0
721,-482,0,0,0,0,0,0,0,0,0,-1,1945,1506,0,0
728,-482,0,0,0,0,0,0,0,0,0,-1,1952,1506,0,0
735,-482,0,0,0,0,0,0,0,0,0,-1,1959,1506,0,0
742,-482,0,0,0,0,0,0,0,0,0,-1,1966,1506,0,0
749,-482,0,0,0,0,0,0,0,0,0,-1,1973,1506,0,0
756,-482,0,0,0,0,0,0,0,0,0,-1,1980,1506,0,0
763,-482,0,0,0,0,0,0,0,0,0,-1,1987,1506,0,0
770,-482,0,0,0,0,0,0,0,0,0,-1,1994,1506,0,0
777,-482,0,0,0,0,0,0,0,0,0,-1,2001,1506,0,0
784,-482,0,0,0,0,0,0,0,0,0,-1,2008,1506,0,0
791,-482,0,0,0,0,0,0,0,0,0,-1,2015,1506,0,0
798,-482,0,0,0,0,0,0,0,0,0,-1,2022,1506,0,0
805,-482,0,0,0,0,0,0,0,0,0,-1,2029,1506,0,0
812,-482,0,0,0,0,0,0,0,0,0,-1,2036,1506,0,0
-700,-489,0,0,0,0,0,0,0,0,0,-1,524,1513,0,0
-693,-489,0,0,0,0,0,0,0,0,0,-1,531,1513,0,0
-686,-489,0,0,0,0,0,0,0,0,0,-1,538,1513,0,0
-679,-489,0,0,0,0,0,0,0,0,0,-1,545,1513,0,0
-672,-489,0,0,0,0,0,0,0,0,0,-1,552,1513,0,0
-665,-489,0,0,0,0,0,0,0,0,0,-1,559,1513,0,0
-658,-489,0,0,0,0,0,0,0,0,0,-1,566,1513,0,0
-651,-489,0,0,0,0,0,0,0,0,0,-1,573,1513,0,0
-644,-489,0,0,0,0,0,0,0,0,0,-1,580,1513,0,0
-637,-489,0,0,0,0,0,0,0,0,0,-1,587,1513,0,0
-630,-489,0,0,0,0,0,0,0,0,0,-1,594,1513,0,0
-623,-489,0,0,0,0,0,0,0,0,0,-1,601,1513,0,0
-616,-489,0,0,0,0,0,0,0,0,0,-1,608,1513,0,0
-609,-489,0,0,0,0,0,0,0,0,0,-1,615,1513,0,0
-602,-489,0,0,0,0,0,0,0,0,0,-1,622,1513,0,0
-595,-489,0,0,0,0,0,0,0,0,0,-1,629,1513,0,0
-588,-489,0,0,0,0,0,0,0,0,0,-1,636,1513,0,0
-581,-489,0,0,0,0,0,0,0,0,0,-1,643,1513,0,0
-574,-489,0,0,0,0,0,0,0,0,0,-1,650,1513,0,0
-567,-489,0,0,0,0,0,0,0,0,0,-1,657,1513,0,0
-560,-489,0,0,0,0,0,0,0,0,0,-1,664,1513,0,0
-553,-489,-9.42206,8.5116,0,0,0,0,0,0,0,-1,671,1513,-9.42205,-8.51158
-546,-489,-7.80951,8.18506,0,0,0,0,0,0,0,-1,678,1513,-7.8095,-8.18503
-539,-489,-3.61237,7.19727,0,0,0,0,0,0,0,-1,685,1513,-3.61238,-7.19723
-532,-489,-4.18158,5.24829,0,0,0,0,0,0,0,-1,692,1513,-4.18155,-5.24829
-525,-489,-3.56445,5.3335,0.0932139,0.0100262,0.02072,0.098089,0.00515108,0.231083,0.0637451,0.0432079,699,1513,-3.56445,-5.33347
-518,-489,-2.85852,5.55176,0.0716009,0.00920309,0.0160816,0.0755017,0.00530227,0.237968,0.0486634,0.0435213,706,1513,-2.85853,-5.5518
-511,-489,-2.07733,5.64783,0.0538255,0.00793642,0.012373,0.056949,0.00481292,0.247278,0.0364677,0.0492464,713,1513,-2.07732,-5.64785
-504,-489,-1.66681,5.63464,0.039395,0.0064806,0.00936976,0.0418754,0.00400023,0.258785,0.0266837,0.0443093,720,1513,-1.66683,-5.6346
-497,-489,-1.54004,5.87524,0.0277439,0.00522022,0.00672871,0.029601,0.0033632,0.269282,0.0187139,0.0364561,727,1513,-1.54006,-5.87527
-490,-489,-1.54596,6.16638,0.0191287,0.00388283,0.00490988,0.0205731,0.00243845,0.286106,0.0129791,0.0220515,734,1513,-1.54594,-6.16635
-483,-489,-1.58765,6.38464,0.0128126,0.00264739,0.00344291,0.0138689,0.00159106,0.297695,0.00876387,0.0107056,741,1513,-1.58764,-6.38465
-476,-489,-1.58307,6.65894,0.00791826,0.00141686,0.00234911,0.00867822,0.000656905,0.312883,0.00557941,0.00959672,748,1513,-1.5831,-6.65894
-469,-489,-1.58875,6.92847,0.00470618,0.000538699,0.0011729,0.0050136,0.000231273,0.256341,0.00326804,0.0108711,755,1513,-1.58875,-6.92845
-462,-489,-1.59668,7.19153,0.00268753,-0.000479826,0.000189862,0.00269887,-0.000491166,0.0596587,0.00198335,0.0151234,762,1513,-1.5967,-7.19158
-455,-489,-1.61951,7.44678,0.00182041,-0.00168597,-0.000616816,0.00192575,-0.00179131,-0.16915,0.00214652,0.0182603,769,1513,-1.6195,-7.44676
-448,-489,-1.62567,7.70178,0.00233422,-0.00264418,-0.00115023,0.00258712,-0.00289709,-0.21643,0.003168,0.0161335,776,1513,-1.62566,-7.70179
-441,-489,-1.59308,7.92847,0.00315083,-0.003529,-0.00178089,0.00359596,-0.00397414,-0.244933,0.00437242,0.0137901,783,1513,-1.5931,-7.92842
-434,-489,-1.59308,8.16016,0.00406826,-0.00474233,-0.0026298,0.00479351,-0.00546758,-0.269092,0.0059285,0.0173446,790,1513,-1.59309,-8.16014
-427,-489,-1.60992,8.44214,0.00518182,-0.00622684,-0.00359818,0.00622184,-0.00726686,-0.281373,0.00779549,0.0193298,797,1513,-1.60992,-8.44209
-420,-489,-1.63184,8.75684,0.0063293,-0.00798721,-0.00486817,0.00782782,-0.00948573,-0.298615,0.0100112,0.0179396,804,1513,-1.63182,-8.75687
-413,-489,-1.37787,8.91858,0.00733563,-0.0102477,-0.00644387,0.00944428,-0.0123564,-0.31625,0.012624,0.0279466,811,1513,-1.37788,-8.91858
-406,-489,-1.2406,9.29834,0,0,0,0,0,0,0,-1,818,1513,-1.24063,-9.29828
-399,-489,-1.41241,9.10718,0.00905795,-0.0164067,-0.0110335,0.0131735,-0.0205223,-0.357018,0.0196079,0.0397434,825,1513,-1.41244,-9.10722
-392,-489,-1.0368,9.30469,0,0,0,0,0,0,0,-1,832,1513,-1.03682,-9.30466
-385,-489,-1.29095,9.50073,0,0,0,0,0,0,0,-1,839,1513,-1.29096,-9.50077
-378,-489,-0.401428,9.87048,0,0,0,0,0,0,0,-1,846,1513,-0.401415,-9.87047
-371,-489,-1.11633,10.6606,0,0,0,0,0,0,0,-1,853,1513,-1.11633,-10.6606
-364,-489,-0.503113,8.98486,0,0,0,0,0,0,0,-1,860,1513,-0.503097,-8.98482
-357,-489,-0.609924,10.9606,0,0,0,0,0,0,0,-1,867,1513,-0.609947,-10.9605
-350,-489,-7.94659,-0.358887,0,0,0,0,0,0,0,-1,874,1513,-7.94657,0.358912
-343,-489,-7.49323,-0.437866,0,0,0,0,0,0,0,-1,881,1513,-7.49322,0.437823
-336,-489,-7.02332,-0.53125,0,0,0,0,0,0,0,-1,888,1513,-7.0233,0.531295
-329,-489,-6.70221,-0.242432,0,0,0,0,0,0,0,-1,895,1513,-6.70221,0.2424
-322,-489,0,0,0,0,0,0,0,0,0,-1,902,1513,0,0
-315,-489,0,0,0,0,0,0,0,0,0,-1,909,1513,0,0
-308,-489,0,0,0,0,0,0,0,0,0,-1,916,1513,0,0
-301,-489,0,0,0,0,0,0,0,0,0,-1,923,1513,0,0
-294,-489,0,0,0,0,0,0,0,0,0,-1,930,1513,0,0
-287,-489,0,0,0,0,0,0,0,0,0,-1,937,1513,0,0
-280,-489,0,0,0,0,0,0,0,0,0,-1,944,1513,0,0
-273,-489,0,0,0,0,0,0,0,0,0,-1,951,1513,0,0
-266,-489,0,0,0,0,0,0,0,0,0,-1,958,1513,0,0
-259,-489,0,0,0,0,0,0,0,0,0,-1,965,1513,0,0
-252,-489,0,0,0,0,0,0,0,0,0,-1,972,1513,0,0
-245,-489,0,0,0,0,0,0,0,0,0,-1,979,1513,0,0
-238,-489,0,0,0,0,0,0,0,0,0,-1,986,1513,0,0
-231,-489,0,0,0,0,0,0,0,0,0,-1,993,1513,0,0
-224,-489,0,0,0,0,0,0,0,0,0,-1,1000,1513,0,0
-217,-489,0,0,0,0,0,0,0,0,0,-1,1007,1513,0,0
-210,-489,0,0,0,0,0,0,0,0,0,-1,1014,1513,0,0
-203,-489,0,0,0,0,0,0,0,0,0,-1,1021,1513,0,0
-196,-489,0,0,0,0,0,0,0,0,0,-1,1028,1513,0,0
-189,-489,0,0,0,0,0,0,0,0,0,-1,1035,1513,0,0
-182,-489,0,0,0,0,0,0,0,0,0,-1,1042,1513,0,0
-175,-489,0,0,0,0,0,0,0,0,0,-1,1049,1513,0,0
-168,-489,0,0,0,0,0,0,0,0,0,-1,1056,1513,0,0
-161,-489,0,0,0,0,0,0,0,0,0,-1,1063,1513,0,0
-154,-489,0,0,0,0,0,0,0,0,0,-1,1070,1513,0,0
-147,-489,0,0,0,0,0,0,0,0,0,-1,1077,1513,0,0
-140,-489,0,0,0,0,0,0,0,0,0,-1,1084,1513,0,0
-133,-489,0,0,0,0,0,0,0,0,0,-1,1091,1513,0,0
-126,-489,0,0,0,0,0,0,0,0,0,-1,1098,1513,0,0
-119,-489,0,0,0,0,0,0,0,0,0,-1,1105,1513,0,0
-112,-489,0,0,0,0,0,0,0,0,0,-1,1112,1513,0,0
-105,-489,0,0,0,0,0,0,0,0,0,-1,1119,1513,0,0
-98,-489,0,0,0,0,0,0,0,0,0,-1,1126,1513,0,0
-91,-489,0,0,0,0,0,0,0,0,0,-1,1133,1513,0,0
-84,-489,0,0,0,0,0,0,0,0,0,-1,1140,1513,0,0
-77,-489,0,0,0,0,0,0,0,0,0,-1,1147,1513,0,0
-70,-489,0,0,0,0,0,0,0,0,0,-1,1154,1513,0,0
-63,-489,0,0,0,0,0,0,0,0,0,-1,1161,1513,0,0
-56,-489,0,0,0,0,0,0,0,0,0,-1,1168,1513,0,0
-49,-489,0,0,0,0,0,0,0,0,0,-1,1175,1513,0,0
-42,-489,0,0,0,0,0,0,0,0,0,-1,1182,1513,0,0
-35,-489,0,0,0,0,0,0,0,0,0,-1,1189,1513,0,0
-28,-489,0,0,0,0,0,0,0,0,0,-1,1196,1513,0,0
-21,-489,0,0,0,0,0,0,0,0,0,-1,1203,1513,0,0
-14,-489,0,0,0,0,0,0,0,0,0,-1,1210,1513,0,0
-7,-489,0,0,0,0,0,0,0,0,0,-1,1217,1513,0,0
0,-489,0,0,0,0,0,0,0,0,0,-1,1224,1513,0,0
7,-489,0,0,0,0,0,0,0,0,0,-1,1231,1513,0,0
14,-489,0,0,0,0,0,0,0,0,0,-1,1238,1513,0,0
21,-489,0,0,0,0,0,0,0,0,0,-1,1245,1513,0,0
28,-489,0,0,0,0,0,0,0,0,0,-1,1252,1513,0,0
35,-489,0,0,0,0,0,0,0,0,0,-1,1259,1513,0,0
42,-489,0,0,0,0,0,0,0,0,0,-1,1266,1513,0,0
49,-489,0,0,0,0,0,0,0,0,0,-1,1273,1513,0,0
56,-489,0,0,0,0,0,0,0,0,0,-1,1280,1513,0,0
63,-489,0,0,0,0,0,0,0,0,0,-1,1287,1513,0,0
70,-489,0,0,0,0,0,0,0,0,0,-1,1294,1513,0,0
77,-489,0,0,0,0,0,0,0,0,0,-1,1301,1513,0,0
84,-489,0,0,0,0,0,0,0,0,0,-1,1308,1513,0,0
91,-489,0,0,0,0,0,0,0,0,0,-1,1315,1513,0,0
98,-489,0,0,0,0,0,0,0,0,0,-1,1322,1513,0,0
105,-489,0,0,0,0,0,0,0,0,0,-1,1329,1513,0,0
112,-489,0,0,0,0,0,0,0,0,0,-1,1336,1513,0,0
119,-489,0,0,0,0,0,0,0,0,0,-1,1343,1513,0,0
126,-489,0,0,0,0,0,0,0,0,0,-1,1350,1513,0,0
133,-489,0,0,0,0,0,0,0,0,0,-1,1357,1513,0,0
140,-489,0,0,0,0,0,0,0,0,0,-1,1364,1513,0,0
147,-489,0,0,0,0,0,0,0,0,0,-1,1371,1513,0,0
154,-489,0,0,0,0,0,0,0,0,0,-1,1378,1513,0,0
161,-489,0,0,0,0,0,0,0,0,0,-1,1385,1513,0,0
168,-489,0,0,0,0,0,0,0,0,0,-1,1392,1513,0,0
175,-489,0,0,0,0,0,0,0,0,0,-1,1399,1513,0,0
182,-489,0,0,0,0,0,0,0,0,0,-1,1406,1513,0,0
189,-489,0,0,0,0,0,0,0,0,0,-1,1413,1513,0,0
196,-489,0,0,0,0,0,0,0,0,0,-1,1420,1513,0,0
203,-489,0,0,0,0,0,0,0,0,0,-1,1427,1513,0,0
210,-489,0,0,0,0,0,0,0,0,0,-1,1434,1513,0,0
217,-489,0,0,0,0,0,0,0,0,0,-1,1441,1513,0,0
224,-489,0,0,0,0,0,0,0,0,0,-1,1448,1513,0,0
231,-489,0,0,0,0,0,0,0,0,0,-1,1455,1513,0,0
238,-489,0,0,0,0,0,0,0,0,0,-1,1462,1513,0,0
245,-489,0,0,0,0,0,0,0,0,0,-1,1469,1513,0,0
252,-489,0,0,0,0,0,0,0,0,0,-1,1476,1513,0,0
259,-489,0,0,0,0,0,0,0,0,0,-1,1483,1513,0,0
266,-489,0,0,0,0,0,0,0,0,0,-1,1490,1513,0,0
273,-489,0,0,0,0,0,0,0,0,0,-1,1497,1513,0,0
280,-489,0,0,0,0,0,0,0,0,0,-1,1504,1513,0,0
287,-489,0,0,0,0,0,0,0,0,0,-1,1511,1513,0,0
294,-489,0,0,0,0,0,0,0,0,0,-1,1518,1513,0,0
301,-489,0,0,0,0,0,0,0,0,0,-1,1525,1513,0,0
308,-489,0,0,0,0,0,0,0,0,0,-1,1532,1513,0,0
315,-489,0,0,0,0,0,0,0,0,0,-1,1539,1513,0,0
322,-489,0,0,0,0,0,0,0,0,0,-1,1546,1513,0,0
329,-489,0,0,0,0,0,0,0,0,0,-1,1553,1513,0,0
336,-489,0,0,0,0,0,0,0,0,0,-1,1560,1513,0,0
343,-489,0,0,0,0,0,0,0,0,0,-1,1567,1513,0,0
350,-489,0,0,0,0,0,0,0,0,0,-1,1574,1513,0,0
357,-489,0,0,0,0,0,0,0,0,0,-1,1581,1513,0,0
364,-489,0,0,0,0,0,0,0,0,0,-1,1588,1513,0,0
371,-489,0,0,0,0,0,0,0,0,0,-1,1595,1513,0,0
378,-489,0,0,0,0,0,0,0,0,0,-1,1602,1513,0,0
385,-489,0,0,0,0,0,0,0,0,0,-1,1609,1513,0,0
392,-489,0,0,0,0,0,0,0,0,0,-1,1616,1513,0,0
399,-489,0,0,0,0,0,0,0,0,0,-1,1623,1513,0,0
406,-489,0,0,0,0,0,0,0,0,0,-1,1630,1513,0,0
413,-489,0,0,0,0,0,0,0,0,0,-1,1637,1513,0,0
420,-489,0,0,0,0,0,0,0,0,0,-1,1644,1513,0,0
427,-489,0,0,0,0,0,0,0,0,0,-1,1651,1513,0,0
434,-489,0,0,0,0,0,0,0,0,0,-1,1658,1513,0,0
441,-489,11.4602,2.56787,0,0,0,0,0,0,0,-1,1665,1513,11.4602,-2.56786
448,-489,12.4425,1.72351,0,0,0,0,0,0,0,-1,1672,1513,12.4425,-1.72349
455,-489,12.5575,1.37463,0,0,0,0,0,0,0,-1,1679,1513,12.5575,-1.37469
462,-489,14.9784,3.84888,0,0,0,0,0,0,0,-1,1686,1513,14.9784,-3.84892
469,-489,15.1367,4.53101,0,0,0,0,0,0,0,-1,1693,1513,15.1368,-4.531
476,-489,15.5536,5.09338,0,0,0,0,0,0,0,-1,1700,1513,15.5536,-5.09339
483,-489,8.96912,8.37805,0,0,0,0,0,0,0,-1,1707,1513,8.96909,-8.37809
490,-489,10.5366,7.49561,0,0,0,0,0,0,0,-1,1714,1513,10.5367,-7.49558
497,-489,12.3383,7.61121,0,0,0,0,0,0,0,-1,1721,1513,12.3383,-7.61126
504,-489,14.3026,10.8384,0,0,0,0,0,0,0,-1,1728,1513,14.3027,-10.8384
511,-489,13.1381,9.75354,0,0,0,0,0,0,0,-1,1735,1513,13.138,-9.75358
518,-489,11.6432,10.1964,0,0,0,0,0,0,0,-1,1742,1513,11.6432,-10.1964
525,-489,11.2471,10.2188,0,0,0,0,0,0,0,-1,1749,1513,11.247,-10.2188
532,-489,11.2672,10.5986,-0.0425036,-0.0253403,0.0295147,-0.00318496,-0.0646589,0.926876,0.0420845,0.0372523,1756,1513,11.2672,-10.5986
539,-489,10.9219,10.4735,-0.0320273,-0.0209224,0.0216234,-0.00415003,-0.0487997,0.911073,0.0312418,0.0178306,1763,1513,10.9219,-10.4735
546,-489,10.8678,10.3209,-0.0234504,-0.0170187,0.0155614,-0.00434435,-0.0361248,0.887292,0.0227736,0.0111896,1770,1513,10.8678,-10.3209
553,-489,10.876,10.0991,-0.016563,-0.0136177,0.0107194,-0.00427027,-0.0259105,0.853662,0.0160408,0.0135484,1777,1513,10.876,-10.0992
560,-489,10.8816,9.87634,-0.0110835,-0.0106937,0.00725301,-0.00363297,-0.0181442,0.79883,0.0110854,0.0130214,1784,1513,10.8816,-9.87637
567,-489,10.8694,9.66687,-0.00654999,-0.00790341,0.00429114,-0.00288253,-0.0115709,0.707192,0.00695511,0.0141455,1791,1513,10.8694,-9.66685
574,-489,10.8423,9.46497,-0.00313142,-0.00514547,0.00213242,-0.0017802,-0.00649668,0.564799,0.00387646,0.0134371,1798,1513,10.8423,-9.46494
581,-489,10.8738,9.21716,-0.00143746,-0.00305455,0.00121387,-0.000787507,-0.0037045,0.491597,0.00225351,0.00973428,1805,1513,10.8738,-9.21716
588,-489,10.8877,8.9696,0.000121516,-0.00129922,0.000370602,0.000212377,-0.00139008,0.24043,0.00100502,0.0124488,1812,1513,10.8877,-8.96966
595,-489,10.875,8.74414,0.00105832,0.000214074,-0.000148356,0.00108363,0.000188762,-0.168983,0.000668446,0.0185275,1819,1513,10.875,-8.74417
602,-489,10.8896,8.50256,0.0015195,0.00132681,-0.000475392,0.00190821,0.000938095,-0.685419,0.00110176,0.0241726,1826,1513,10.8896,-8.50255
609,-489,10.8772,8.28003,0.00198803,0.00206365,-0.000878002,0.00290465,0.00114702,-0.806916,0.00168931,0.0171275,1833,1513,10.8772,-8.28008
616,-489,10.8643,8.04883,0.00223721,0.00237652,-0.00104348,0.00335266,0.00126106,-0.818725,0.00195536,0.00982131,1840,1513,10.8643,-8.04887
623,-489,10.8655,7.84448,0.00236003,0.00241022,-0.00104813,0.00343356,0.00133669,-0.797366,0.00199849,0.0150749,1847,1513,10.8654,-7.84445
630,-489,10.8047,7.72571,0.00254082,0.00280912,-0.00130426,0.0039861,0.00136383,-0.836646,0.0023393,0.0378012,1854,1513,10.8046,-7.72571
637,-489,10.6844,7.74561,0,0,0,0,0,0,0,-1,1861,1513,10.6845,-7.74557
644,-489,9.67578,8.45874,0,0,0,0,0,0,0,-1,1868,1513,9.67576,-8.45879
651,-489,6.13818,6.85095,0,0,0,0,0,0,0,-1,1875,1513,6.13823,-6.85097
658,-489,5.43848,7.75513,0,0,0,0,0,0,0,-1,1882,1513,5.43844,-7.75509
665,-489,5.48438,8.59912,0,0,0,0,0,0,0,-1,1889,1513,5.48434,-8.59907
672,-489,0,0,0,0,0,0,0,0,0,-1,1896,1513,0,0
679,-489,0,0,0,0,0,0,0,0,0,-1,1903,1513,0,0
686,-489,0,0,0,0,0,0,0,0,0,-1,1910,1513,0,0
693,-489,0,0,0,0,0,0,0,0,0,-1,1917,1513,0,0
700,-489,0,0,0,0,0,0,0,0,0,-1,1924,1513,0,0
707,-489,0,0,0,0,0,0,0,0,0,-1,1931,1513,0,0
714,-489,0,0,0,0,0,0,0,0,0,-1,1938,1513,0,0
721,-489,0,0,0,0,0,0,0,0,0,-1,1945,1513,0,0
728,-489,0,0,0,0,0,0,0,0,0,-1,1952,1513,0,0
735,-489,0,0,0,0,0,0,0,0,0,-1,1959,1513,0,0
742,-489,0,0,0,0,0,0,0,0,0,-1,1966,1513,0,0
749,-489,0,0,0,0,0,0,0,0,0,-1,1973,1513,0,0
756,-489,0,0,0,0,0,0,0,0,0,-1,1980,1513,0,0
763,-489,0,0,0,0,0,0,0,0,0,-1,1987,1513,0,0
770,-489,0,0,0,0,0,0,0,0,0,-1,1994,1513,0,0
777,-489,0,0,0,0,0,0,0,0,0,-1,2001,1513,0,0
784,-489,0,0,0,0,0,0,0,0,0,-1,2008,1513,0,0
791,-489,0,0,0,0,0,0,0,0,0,-1,2015,1513,0,0
798,-489,0,0,0,0,0,0,0,0,0,-1,2022,1513,0,0
805,-489,0,0,0,0,0,0,0,0,0,-1,2029,1513,0,0
812,-489,0,0,0,0,0,0,0,0,0,-1,2036,1513,0,0
-700,-496,0,0,0,0,0,0,0,0,0,-1,524,1520,0,0
-693,-496,0,0,0,0,0,0,0,0,0,-1,531,1520,0,0
-686,-496,0,0,0,0,0,0,0,0,0,-1,538,1520,0,0
-679,-496,0,0,0,0,0,0,0,0,0,-1,545,1520,0,0
-672,-496,0,0,0,0,0,0,0,0,0,-1,552,1520,0,0
-665,-496,0,0,0,0,0,0,0,0,0,-1,559,1520,0,0
-658,-496,0,0,0,0,0,0,0,0,0,-1,566,1520,0,0
-651,-496,0,0,0,0,0,0,0,0,0,-1,573,1520,0,0
-644,-496,0,0,0,0,0,0,0,0,0,-1,580,1520,0,0
-637,-496,0,0,0,0,0,0,0,0,0,-1,587,1520,0,0
-630,-496,0,0,0,0,0,0,0,0,0,-1,594,1520,0,0
-623,-496,0,0,0,0,0,0,0,0,0,-1,601,1520,0,0
-616,-496,0,0,0,0,0,0,0,0,0,-1,608,1520,0,0
-609,-496,0,0,0,0,0,0,0,0,0,-1,615,1520,0,0
-602,-496,0,0,0,0,0,0,0,0,0,-1,622,1520,0,0
-595,-496,0,0,0,0,0,0,0,0,0,-1,629,1520,0,0
-588,-496,0,0,0,0,0,0,0,0,0,-1,636,1520,0,0
-581,-496,0,0,0,0,0,0,0,0,0,-1,643,1520,0,0
-574,-496,0,0,0,0,0,0,0,0,0,-1,650,1520,0,0
-567,-496,0,0,0,0,0,0,0,0,0,-1,657,1520,0,0
-560,-496,0,0,0,0,0,0,0,0,0,-1,664,1520,0,0
-553,-496,0,0,0,0,0,0,0,0,0,-1,671,1520,0,0
-546,-496,-8.09711,7.94836,0,0,0,0,0,0,0,-1,678,1520,-8.09712,-7.94842
-539,-496,-3.05109,6.33447,0,0,0,0,0,0,0,-1,685,1520,-3.05107,-6.33446
-532,-496,-2.79407,0.97229,0,0,0,0,0,0,0,-1,692,1520,-2.79406,-0.972274
-525,-496,-3.61029,5.10498,0,0,0,0,0,0,0,-1,699,1520,-3.61028,-5.10492
-518,-496,-2.94733,5.25464,0.0800391,0.0123858,0.0177914,0.0844326,0.00799236,0.242099,0.0538224,0.0472538,706,1520,-2.94732,-5.25462
-511,-496,-2.08167,5.49902,0.0603442,0.0105806,0.0139936,0.0640093,0.00691554,0.256157,0.0405646,0.0440154,713,1520,-2.08166,-5.49902
-504,-496,-1.23083,5.34155,0,0,0,0,0,0,0,-1,720,1520,-1.23084,-5.34152
-497,-496,-1.19666,5.72986,0.0313418,0.00695658,0.00803507,0.0337513,0.00454706,0.291342,0.0211487,0.0459662,727,1520,-1.19669,-5.72986
-490,-496,-1.2085,6.20032,0.0215568,0.00530709,0.00597854,0.0235194,0.00334452,0.317187,0.0146922,0.0368309,734,1520,-1.20852,-6.20035
-483,-496,-1.29803,6.43506,0.0143594,0.00387658,0.00432246,0.0159118,0.00232416,0.344804,0.00992427,0.0195343,741,1520,-1.29802,-6.43504
-476,-496,-1.35547,6.651,0.00885119,0.00263204,0.00311059,0.0101399,0.00134329,0.39278,0.00635966,0.0110843,748,1520,-1.35547,-6.651
-469,-496,-1.36462,6.92847,0.00517089,0.0018096,0.00185409,0.00599268,0.000987807,0.417214,0.00370995,0.0102505,755,1520,-1.36462,-6.92842
-462,-496,-1.34882,7.18774,0.00271042,0.000832869,0.000925767,0.00309011,0.000453182,0.38921,0.00192686,0.0155257,762,1520,-1.34879,-7.18777
-455,-496,-1.36041,7.4425,0.00155657,-0.000247155,0.000145269,0.00156819,-0.000258779,0.0798528,0.00114154,0.0200839,769,1520,-1.36039,-7.44247
-448,-496,-1.3692,7.70667,0.0019065,-0.000984457,-0.000300198,0.00193734,-0.0010153,-0.102385,0.00173219,0.0185839,776,1520,-1.36919,-7.70665
-441,-496,-1.34863,7.93799,0.00257372,-0.00164964,-0.000800365,0.0027203,-0.00179623,-0.181145,0.00262575,0.0143828,783,1520,-1.34866,-7.93797
-434,-496,-1.35211,8.16895,0.00332304,-0.00261218,-0.00149229,0.00367712,-0.00296626,-0.232966,0.00384287,0.0137542,790,1520,-1.35212,-8.16891
-427,-496,-1.36334,8.44873,0.00428676,-0.00384662,-0.00221553,0.00485111,-0.00441097,-0.24942,0.00534947,0.017298,797,1520,-1.36337,-8.44875
-420,-496,-1.36005,8.68176,0.00531862,-0.00531444,-0.00316391,0.00618884,-0.00618466,-0.268407,0.00714384,0.017464,804,1520,-1.36007,-8.68174
-413,-496,-1.31323,8.94165,0.00618294,-0.00723336,-0.00435622,0.00747329,-0.00852371,-0.287974,0.0092425,0.0174733,811,1520,-1.31323,-8.94171
-406,-496,-1.22266,9.29236,0,0,0,0,0,0,0,-1,818,1520,-1.22266,-9.29233
-399,-496,-1.14484,9.53796,0,0,0,0,0,0,0,-1,825,1520,-1.14481,-9.538
-392,-496,-0.841797,9.7417,0,0,0,0,0,0,0,-1,832,1520,-0.84179,-9.74166
-385,-496,-1.06848,9.5011,0,0,0,0,0,0,0,-1,839,1520,-1.06845,-9.50116
-378,-496,-0.844482,9.56946,0,0,0,0,0,0,0,-1,846,1520,-0.844464,-9.56945
-371,-496,-0.812195,10.6199,0,0,0,0,0,0,0,-1,853,1520,-0.812191,-10.6199
-364,-496,0.0881348,10.6422,0,0,0,0,0,0,0,-1,860,1520,0.0881368,-10.6423
-357,-496,0.323792,7.56812,0,0,0,0,0,0,0,-1,867,1520,0.323782,-7.56806
-350,-496,2.1535,7.18945,0,0,0,0,0,0,0,-1,874,1520,2.15348,-7.1894
-343,-496,-7.56244,0.335327,0,0,0,0,0,0,0,-1,881,1520,-7.56242,-0.335322
-336,-496,-3.99249,6.02222,0,0,0,0,0,0,0,-1,888,1520,-3.99246,-6.0222
-329,-496,-6.93689,-0.100342,0,0,0,0,0,0,0,-1,895,1520,-6.93686,0.1003
-322,-496,-6.17505,0.494385,0,0,0,0,0,0,0,-1,902,1520,-6.17507,-0.49437
-315,-496,-5.46338,1.0459,0,0,0,0,0,0,0,-1,909,1520,-5.46338,-1.04587
-308,-496,0,0,0,0,0,0,0,0,0,-1,916,1520,0,0
-301,-496,0,0,0,0,0,0,0,0,0,-1,923,1520,0,0
-294,-496,0,0,0,0,0,0,0,0,0,-1,930,1520,0,0
-287,-496,0,0,0,0,0,0,0,0,0,-1,937,1520,0,0
-280,-496,0,0,0,0,0,0,0,0,0,-1,944,1520,0,0
-273,-496,0,0,0,0,0,0,0,0,0,-1,951,1520,0,0
-266,-496,0,0,0,0,0,0,0,0,0,-1,958,1520,0,0
-259,-496,0,0,0,0,0,0,0,0,0,-1,965,1520,0,0
-252,-496,0,0,0,0,0,0,0,0,0,-1,972,1520,0,0
-245,-496,0,0,0,0,0,0,0,0,0,-1,979,1520,0,0
-238,-496,0,0,0,0,0,0,0,0,0,-1,986,1520,0,0
-231,-496,0,0,0,0,0,0,0,0,0,-1,993,1520,0,0
-224,-496,0,0,0,0,0,0,0,0,0,-1,1000,1520,0,0
-217,-496,0,0,0,0,0,0,0,0,0,-1,1007,1520,0,0
-210,-496,0,0,0,0,0,0,0,0,0,-1,1014,1520,0,0
-203,-496,0,0,0,0,0,0,0,0,0,-1,1021,1520,0,0
-196,-496,0,0,0,0,0,0,0,0,0,-1,1028,1520,0,0
-189,-496,0,0,0,0,0,0,0,0,0,-1,1035,1520,0,0
-182,-496,0,0,0,0,0,0,0,0,0,-1,1042,1520,0,0
-175,-496,0,0,0,0,0,0,0,0,0,-1,1049,1520,0,0
-168,-496,0,0,0,0,0,0,0,0,0,-1,1056,1520,0,0
-161,-496,0,0,0,0,0,0,0,0,0,-1,1063,1520,0,0
-154,-496,0,0,0,0,0,0,0,0,0,-1,1070,1520,0,0
-147,-496,0,0,0,0,0,0,0,0,0,-1,1077,1520,0,0
-140,-496,0,0,0,0,0,0,0,0,0,-1,1084,1520,0,0
-133,-496,0,0,0,0,0,0,0,0,0,-1,1091,1520,0,0
-126,-496,0,0,0,0,0,0,0,0,0,-1,1098,1520,0,0
-119,-496,0,0,0,0,0,0,0,0,0,-1,1105,1520,0,0
-112,-496,0,0,0,0,0,0,0,0,0,-1,1112,1520,0,0
-105,-496,0,0,0,0,0,0,0,0,0,-1,1119,1520,0,0
-98,-496,0,0,0,0,0,0,0,0,0,-1,1126,1520,0,0
-91,-496,0,0,0,0,0,0,0,0,0,-1,1133,1520,0,0
-84,-496,0,0,0,0,0,0,0,0,0,-1,1140,1520,0,0
-77,-496,0,0,0,0,0,0,0,0,0,-1,1147,1520,0,0
-70,-496,0,0,0,0,0,0,0,0,0,-1,1154,1520,0,0
-63,-496,0,0,0,0,0,0,0,0,0,-1,1161,1520,0,0
-56,-496,0,0,0,0,0,0,0,0,0,-1,1168,1520,0,0
-49,-496,0,0,0,0,0,0,0,0,0,-1,1175,1520,0,0
-42,-496,0,0,0,0,0,0,0,0,0,-1,1182,1520,0,0
-35,-496,0,0,0,0,0,0,0,0,0,-1,1189,1520,0,0
-28,-496,0,0,0,0,0,0,0,0,0,-1,1196,1520,0,0
-21,-496,0,0,0,0,0,0,0,0,0,-1,1203,1520,0,0
-14,-496,0,0,0,0,0,0,0,0,0,-1,1210,1520,0,0
-7,-496,0,0,0,0,0,0,0,0,0,-1,1217,1520,0,0
0,-496,0,0,0,0,0,0,0,0,0,-1,1224,1520,0,0
7,-496,0,0,0,0,0,0,0,0,0,-1,1231,1520,0,0
14,-496,0,0,0,0,0,0,0,0,0,-1,1238,1520,0,0
21,-496,0,0,0,0,0,0,0,0,0,-1,1245,1520,0,0
28,-496,0,0,0,0,0,0,0,0,0,-1,1252,1520,0,0
35,-496,0,0,0,0,0,0,0,0,0,-1,1259,1520,0,0
42,-496,0,0,0,0,0,0,0,0,0,-1,1266,1520,0,0
49,-496,0,0,0,0,0,0,0,0,0,-1,1273,1520,0,0
56,-496,0,0,0,0,0,0,0,0,0,-1,1280,1520,0,0
63,-496,0,0,0,0,0,0,0,0,0,-1,1287,1520,0,0
70,-496,0,0,0,0,0,0,0,0,0,-1,1294,1520,0,0
77,-496,0,0,0,0,0,0,0,0,0,-1,1301,1520,0,0
84,-496,0,0,0,0,0,0,0,0,0,-1,1308,1520,0,0
91,-496,0,0,0,0,0,0,0,0,0,-1,1315,1520,0,0
98,-496,0,0,0,0,0,0,0,0,0,-1,1322,1520,0,0
105,-496,0,0,0,0,0,0,0,0,0,-1,1329,1520,0,0
112,-496,0,0,0,0,0,0,0,0,0,-1,1336,1520,0,0
119,-496,0,0,0,0,0,0,0,0,0,-1,1343,1520,0,0
126,-496,0,0,0,0,0,0,0,0,0,-1,1350,1520,0,0
133,-496,0,0,0,0,0,0,0,0,0,-1,1357,1520,0,0
140,-496,0,0,0,0,0,0,0,0,0,-1,1364,1520,0,0
147,-496,0,0,0,0,0,0,0,0,0,-1,1371,1520,0,0
154,-496,0,0,0,0,0,0,0,0,0,-1,1378,1520,0,0
161,-496,0,0,0,0,0,0,0,0,0,-1,1385,1520,0,0
168,-496,0,0,0,0,0,0,0,0,0,-1,1392,1520,0,0
175,-496,0,0,0,0,0,0,0,0,0,-1,1399,1520,0,0
182,-496,0,0,0,0,0,0,0,0,0,-1,1406,1520,0,0
189,-496,0,0,0,0,0,0,0,0,0,-1,1413,1520,0,0
196,-496,0,0,0,0,0,0,0,0,0,-1,1420,1520,0,0
203,-496,0,0,0,0,0,0,0,0,0,-1,1427,1520,0,0
210,-496,0,0,0,0,0,0,0,0,0,-1,1434,1520,0,0
217,-496,0,0,0,0,0,0,0,0,0,-1,1441,1520,0,0
224,-496,0,0,0,0,0,0,0,0,0,-1,1448,1520,0,0
231,-496,0,0,0,0,0,0,0,0,0,-1,1455,1520,0,0
238,-496,0,0,0,0,0,0,0,0,0,-1,1462,1520,0,0
245,-496,0,0,0,0,0,0,0,0,0,-1,1469,1520,0,0
252,-496,0,0,0,0,0,0,0,0,0,-1,1476,1520,0,0
259,-496,0,0,0,0,0,0,0,0,0,-1,1483,1520,0,0
266,-496,0,0,0,0,0,0,0,0,0,-1,1490,1520,0,0
273,-496,0,0,0,0,0,0,0,0,0,-1,1497,1520,0,0
280,-496,0,0,0,0,0,0,0,0,0,-1,1504,1520,0,0
287,-496,0,0,0,0,0,0,0,0,0,-1,1511,1520,0,0
294,-496,0,0,0,0,0,0,0,0,0,-1,1518,1520,0,0
301,-496,0,0,0,0,0,0,0,0,0,-1,1525,1520,0,0
308,-496,0,0,0,0,0,0,0,0,0,-1,1532,1520,0,0
315,-496,0,0,0,0,0,0,0,0,0,-1,1539,1520,0,0
322,-496,0,0,0,0,0,0,0,0,0,-1,1546,1520,0,0
329,-496,0,0,0,0,0,0,0,0,0,-1,1553,1520,0,0
336,-496,0,0,0,0,0,0,0,0,0,-1,1560,1520,0,0
343,-496,0,0,0,0,0,0,0,0,0,-1,1567,1520,0,0
350,-496,0,0,0,0,0,0,0,0,0,-1,1574,1520,0,0
357,-496,0,0,0,0,0,0,0,0,0,-1,1581,1520,0,0
364,-496,0,0,0,0,0,0,0,0,0,-1,1588,1520,0,0
371,-496,0,0,0,0,0,0,0,0,0,-1,1595,1520,0,0
378,-496,0,0,0,0,0,0,0,0,0,-1,1602,1520,0,0
385,-496,0,0,0,0,0,0,0,0,0,-1,1609,1520,0,0
392,-496,0,0,0,0,0,0,0,0,0,-1,1616,1520,0,0
399,-496,0,0,0,0,0,0,0,0,0,-1,1623,1520,0,0
406,-496,0,0,0,0,0,0,0,0,0,-1,1630,1520,0,0
413,-496,0,0,0,0,0,0,0,0,0,-1,1637,1520,0,0
420,-496,0,0,0,0,0,0,0,0,0,-1,1644,1520,0,0
427,-496,0,0,0,0,0,0,0,0,0,-1,1651,1520,0,0
434,-496,11.0457,3.37732,0,0,0,0,0,0,0,-1,1658,1520,11.0456,-3.37736
441,-496,11.788,2.75488,0,0,0,0,0,0,0,-1,1665,1520,11.7879,-2.75485
448,-496,12.2146,2.18494,0,0,0,0,0,0,0,-1,1672,1520,12.2146,-2.18489
455,-496,12.3489,1.65173,0,0,0,0,0,0,0,-1,1679,1520,12.3489,-1.65178
462,-496,12.1912,1.32361,0,0,0,0,0,0,0,-1,1686,1520,12.1911,-1.32357
469,-496,14.8138,5.77954,0,0,0,0,0,0,0,-1,1693,1520,14.8138,-5.77958
476,-496,15.2449,6.27942,0,0,0,0,0,0,0,-1,1700,1520,15.2449,-6.27936
483,-496,9.19812,6.88367,0,0,0,0,0,0,0,-1,1707,1520,9.19812,-6.88361
490,-496,10.2123,7.97144,0,0,0,0,0,0,0,-1,1714,1520,10.2122,-7.97145
497,-496,13.7047,10.8855,0,0,0,0,0,0,0,-1,1721,1520,13.7047,-10.8854
504,-496,13.2571,10.8463,-0.0863878,-0.0411553,0.0702592,0.010038,-0.137581,0.94111,0.0952432,0.0465317,1728,1520,13.257,-10.8463
511,-496,12.4229,9.88257,0,0,0,0,0,0,0,-1,1735,1520,12.4229,-9.88259
518,-496,11.5037,10.2347,-0.0576637,-0.0292585,0.0439738,0.00274942,-0.0896716,0.941599,0.0607183,0.0481382,1742,1520,11.5037,-10.2347
525,-496,10.8038,10.5127,-0.0457203,-0.0243014,0.0338375,0.000480935,-0.0705027,0.938659,0.0471629,0.047994,1749,1520,10.8039,-10.5126
532,-496,10.6812,10.6649,-0.0354377,-0.0198738,0.0254908,-0.00100357,-0.054308,0.933547,0.0358755,0.025556,1756,1520,10.6811,-10.6649
539,-496,10.6672,10.542,-0.0267177,-0.0157038,0.0185595,-0.00185154,-0.04057,0.92962,0.0264511,0.0128573,1763,1520,10.6672,-10.542
546,-496,10.6243,10.3226,-0.0195014,-0.0122102,0.0132329,-0.00212992,-0.0295817,0.919813,0.0190509,0.00985349,1770,1520,10.6242,-10.3227
553,-496,10.6512,10.1033,-0.0135774,-0.00930388,0.00891061,-0.00227742,-0.0206039,0.903076,0.0130432,0.0155536,1777,1520,10.6513,-10.1032
560,-496,10.6564,9.8905,-0.00881531,-0.00688194,0.00581339,-0.00195541,-0.0137418,0.867787,0.00858398,0.0147923,1784,1520,10.6563,-9.89054
567,-496,10.6282,9.65759,-0.00487168,-0.00459688,0.00320095,-0.00153038,-0.00793817,0.806847,0.00486293,0.0113055,1791,1520,10.6282,-9.65758
574,-496,10.631,9.4397,-0.00183801,-0.00238307,0.00127224,-0.000809439,-0.00341164,0.679885,0.00205836,0.0114058,1798,1520,10.631,-9.43966
581,-496,10.6514,9.22827,-0.000279795,-0.000765268,0.000413824,-4.27692e-05,-0.00100229,0.520156,0.000654405,0.0127784,1805,1520,10.6514,-9.22822
588,-496,10.6584,8.99097,0.00113432,0.000585423,-0.000377301,0.00132644,0.000393312,-0.470957,0.000786673,0.0147854,1812,1520,10.6585,-8.99098
595,-496,10.6432,8.7572,0.00198421,0.00173882,-0.000862625,0.00273282,0.00099021,-0.714755,0.00159761,0.015448,1819,1520,10.6432,-8.75724
602,-496,10.651,8.49988,0.00243315,0.00259305,-0.00115304,0.00366891,0.00135729,-0.820013,0.002142,0.0171122,1826,1520,10.651,-8.49994
609,-496,10.6503,8.2699,0.00282694,0.00315438,-0.00147475,0.00447447,0.00150685,-0.840678,0.00262882,0.0152173,1833,1520,10.6503,-8.26991
616,-496,10.6445,8.02405,0.00295914,0.00348514,-0.00156459,0.00480868,0.0016356,-0.868668,0.0028232,0.0125496,1840,1520,10.6445,-8.02402
623,-496,10.6228,7.84448,0.00292334,0.00367644,-0.00150505,0.00485133,0.00174845,-0.907976,0.00283707,0.0268822,1847,1520,10.6227,-7.84451
630,-496,10.5101,7.76978,0.00285575,0.00396588,-0.00145237,0.00496564,0.00185599,-0.967922,0.00289721,0.046664,1854,1520,10.5101,-7.76983
637,-496,10.3905,7.74219,0,0,0,0,0,0,0,-1,1861,1520,10.3904,-7.74218
644,-496,8.71948,6.6842,0,0,0,0,0,0,0,-1,1868,1520,8.71952,-6.68425
651,-496,8.18506,5.47803,0,0,0,0,0,0,0,-1,1875,1520,8.18505,-5.47806
658,-496,7.79993,4.02563,0,0,0,0,0,0,0,-1,1882,1520,7.79997,-4.02568
665,-496,5.47583,7.90625,0,0,0,0,0,0,0,-1,1889,1520,5.47581,-7.90628
672,-496,0,0,0,0,0,0,0,0,0,-1,1896,1520,0,0
679,-496,0,0,0,0,0,0,0,0,0,-1,1903,1520,0,0
686,-496,0,0,0,0,0,0,0,0,0,-1,1910,1520,0,0
693,-496,0,0,0,0,0,0,0,0,0,-1,1917,1520,0,0
700,-496,0,0,0,0,0,0,0,0,0,-1,1924,1520,0,0
707,-496,0,0,0,0,0,0,0,0,0,-1,1931,1520,0,0
714,-496,0,0,0,0,0,0,0,0,0,-1,1938,1520,0,0
721,-496,0,0,0,0,0,0,0,0,0,-1,1945,1520,0,0
728,-496,0,0,0,0,0,0,0,0,0,-1,1952,1520,0,0
735,-496,0,0,0,0,0,0,0,0,0,-1,1959,1520,0,0
742,-496,0,0,0,0,0,0,0,0,0,-1,1966,1520,0,0
749,-496,0,0,0,0,0,0,0,0,0,-1,1973,1520,0,0
756,-496,0,0,0,0,0,0,0,0,0,-1,1980,1520,0,0
763,-496,0,0,0,0,0,0,0,0,0,-1,1987,1520,0,0
770,-496,0,0,0,0,0,0,0,0,0,-1,1994,1520,0,0
777,-496,0,0,0,0,0,0,0,0,0,-1,2001,1520,0,0
784,-496,0,0,0,0,0,0,0,0,0,-1,2008,1520,0,0
791,-496,0,0,0,0,0,0,0,0,0,-1,2015,1520,0,0
798,-496,0,0,0,0,0,0,0,0,0,-1,2022,1520,0,0
805,-496,0,0,0,0,0,0,0,0,0,-1,2029,1520,0,0
812,-496,0,0,0,0,0,0,0,0,0,-1,2036,1520,0,0
-700,-503,0,0,0,0,0,0,0,0,0,-1,524,1527,0,0
-693,-503,0,0,0,0,0,0,0,0,0,-1,531,1527,0,0
-686,-503,0,0,0,0,0,0,0,0,0,-1,538,1527,0,0
-679,-503,0,0,0,0,0,0,0,0,0,-1,545,1527,0,0
-672,-503,0,0,0,0,0,0,0,0,0,-1,552,1527,0,0
-665,-503,0,0,0,0,0,0,0,0,0,-1,559,1527,0,0
-658,-503,0,0,0,0,0,0,0,0,0,-1,566,1527,0,0
-651,-503,0,0,0,0,0,0,0,0,0,-1,573,1527,0,0
-644,-503,0,0,0,0,0,0,0,0,0,-1,580,1527,0,0
-637,-503,0,0,0,0,0,0,0,0,0,-1,587,1527,0,0
-630,-503,0,0,0,0,0,0,0,0,0,-1,594,1527,0,0
-623,-503,0,0,0,0,0,0,0,0,0,-1,601,1527,0,0
-616,-503,0,0,0,0,0,0,0,0,0,-1,608,1527,0,0
-609,-503,0,0,0,0,0,0,0,0,0,-1,615,1527,0,0
-602,-503,0,0,0,0,0,0,0,0,0,-1,622,1527,0,0
-595,-503,0,0,0,0,0,0,0,0,0,-1,629,1527,0,0
-588,-503,0,0,0,0,0,0,0,0,0,-1,636,1527,0,0
-581,-503,0,0,0,0,0,0,0,0,0,-1,643,1527,0,0
-574,-503,0,0,0,0,0,0,0,0,0,-1,650,1527,0,0
-567,-503,0,0,0,0,0,0,0,0,0,-1,657,1527,0,0
-560,-503,0,0,0,0,0,0,0,0,0,-1,664,1527,0,0
-553,-503,0,0,0,0,0,0,0,0,0,-1,671,1527,0,0
-546,-503,0,0,0,0,0,0,0,0,0,-1,678,1527,0,0
-539,-503,3.50177,4.26428,0,0,0,0,0,0,0,-1,685,1527,3.50177,-4.26424
-532,-503,2.67603,4.51135,0,0,0,0,0,0,0,-1,692,1527,2.67603,-4.5114
-525,-503,-3.77551,5.12146,0,0,0,0,0,0,0,-1,699,1527,-3.77548,-5.12147
-518,-503,-2.92084,5.03076,0.0874192,0.0169366,0.0191309,0.092277,0.0120788,0.24867,0.0579131,0.0486132,706,1527,-2.92082,-5.03081
-511,-503,-2.30573,5.10059,0.0661013,0.0141899,0.0155546,0.0704052,0.00988596,0.269942,0.0440132,0.0457398,713,1527,-2.30572,-5.10057
-504,-503,-1.28333,4.77869,0,0,0,0,0,0,0,-1,720,1527,-1.28332,-4.77871
-497,-503,-0.852417,5.65283,0,0,0,0,0,0,0,-1,727,1527,-0.852445,-5.65277
-490,-503,-0.822083,6.15356,0.0240401,0.00724714,0.00739828,0.0268345,0.00445276,0.361141,0.0166056,0.0465926,734,1527,-0.822074,-6.15351
-483,-503,-0.962158,6.49951,0.0160465,0.00553846,0.00548182,0.0183856,0.00319939,0.403307,0.011342,0.0396284,741,1527,-0.962185,-6.49945
-476,-503,-1.05524,6.70117,0.0100441,0.00414619,0.00406987,0.0121211,0.0020692,0.47188,0.00748694,0.0191699,748,1527,-1.05522,-6.70114
-469,-503,-1.10815,6.92639,0.00595399,0.00321954,0.00265391,0.00757215,0.00160137,0.547542,0.00460802,0.00971851,755,1527,-1.10814,-6.92634
-462,-503,-1.09601,7.2019,0.00307523,0.00212337,0.00167885,0.00434431,0.000854293,0.64728,0.00265761,0.0114786,762,1527,-1.09598,-7.20193
-455,-503,-1.10284,7.4613,0.00165784,0.000979224,0.000820355,0.00220629,0.000430775,0.589306,0.00135037,0.0167816,769,1527,-1.10283,-7.4613
-448,-503,-1.09991,7.70435,0.00181072,0.000249459,0.000344048,0.00188318,0.000177005,0.207559,0.00120081,0.0159314,776,1527,-1.09992,-7.70436
-441,-503,-1.08832,7.94153,0.00228601,-0.000416925,-0.000139362,0.00229318,-0.000424092,-0.0513779,0.001688,0.0128369,783,1527,-1.08834,-7.94155
-434,-503,-1.10455,8.18689,0.00281332,-0.00132099,-0.000783902,0.00295696,-0.00146464,-0.181232,0.00260083,0.0107601,790,1527,-1.10455,-8.18688
-427,-503,-1.11438,8.43079,0.00355941,-0.00249355,-0.00137584,0.00385746,-0.0027916,-0.213336,0.00385524,0.0163154,797,1527,-1.11437,-8.43081
-420,-503,-1.09674,8.67444,0.00441442,-0.00381687,-0.00210867,0.00492317,-0.00432562,-0.236741,0.00534351,0.017352,804,1527,-1.09676,-8.67443
-413,-503,-1.09839,8.91968,0.00508103,-0.00551903,-0.00303964,0.0058908,-0.0063288,-0.260359,0.0070565,0.0150755,811,1527,-1.09838,-8.91968
-406,-503,-1.08087,9.16943,0.00564294,-0.00748924,-0.0042428,0.00689445,-0.00874075,-0.286839,0.00904794,0.0150982,818,1527,-1.08085,-9.16948
-399,-503,-1.00061,9.50378,0.00630589,-0.00984983,-0.00561756,0.00806718,-0.0116111,-0.303825,0.0114225,0.0213992,825,1527,-1.0006,-9.50375
-392,-503,-0.861938,9.77844,0.00675809,-0.012565,-0.00731261,0.00921347,-0.0150204,-0.323944,0.0141247,0.0396231,832,1527,-0.861969,-9.7785
-385,-503,-0.91748,9.51184,0.0069962,-0.0153749,-0.00935018,0.0103895,-0.0187681,-0.348131,0.0170643,0.0440368,839,1527,-0.917458,-9.51183
-378,-503,-0.78949,9.42114,0,0,0,0,0,0,0,-1,846,1527,-0.789474,-9.4211
-371,-503,-0.835388,10.2305,0,0,0,0,0,0,0,-1,853,1527,-0.83536,-10.2304
-364,-503,-0.502136,10.467,0,0,0,0,0,0,0,-1,860,1527,-0.502137,-10.4671
-357,-503,0.558533,9.25452,0,0,0,0,0,0,0,-1,867,1527,0.558542,-9.25446
-350,-503,0.219971,6.84827,0,0,0,0,0,0,0,-1,874,1527,0.21996,-6.84831
-343,-503,-3.5802,4.43274,0,0,0,0,0,0,0,-1,881,1527,-3.58018,-4.43276
-336,-503,-3.2384,6.40637,0,0,0,0,0,0,0,-1,888,1527,-3.2384,-6.40643
-329,-503,-1.70691,11.886,0,0,0,0,0,0,0,-1,895,1527,-1.70689,-11.886
-322,-503,-3.31317,8.81519,0,0,0,0,0,0,0,-1,902,1527,-3.31315,-8.81524
-315,-503,-3.90265,7.73853,0,0,0,0,0,0,0,-1,909,1527,-3.90264,-7.73854
-308,-503,-4.07867,7.25977,0,0,0,0,0,0,0,-1,916,1527,-4.07868,-7.25973
-301,-503,0,0,0,0,0,0,0,0,0,-1,923,1527,0,0
-294,-503,0,0,0,0,0,0,0,0,0,-1,930,1527,0,0
-287,-503,0,0,0,0,0,0,0,0,0,-1,937,1527,0,0
-280,-503,0,0,0,0,0,0,0,0,0,-1,944,1527,0,0
-273,-503,0,0,0,0,0,0,0,0,0,-1,951,1527,0,0
-266,-503,0,0,0,0,0,0,0,0,0,-1,958,1527,0,0
-259,-503,0,0,0,0,0,0,0,0,0,-1,965,1527,0,0
-252,-503,0,0,0,0,0,0,0,0,0,-1,972,1527,0,0
-245,-503,0,0,0,0,0,0,0,0,0,-1,979,1527,0,0
-238,-503,0,0,0,0,0,0,0,0,0,-1,986,1527,0,0
-231,-503,0,0,0,0,0,0,0,0,0,-1,993,1527,0,0
-224,-503,0,0,0,0,0,0,0,0,0,-1,1000,1527,0,0
-217,-503,0,0,0,0,0,0,0,0,0,-1,1007,1527,0,0
-210,-503,0,0,0,0,0,0,0,0,0,-1,1014,1527,0,0
-203,-503,0,0,0,0,0,0,0,0,0,-1,1021,1527,0,0
-196,-503,0,0,0,0,0,0,0,0,0,-1,1028,1527,0,0
-189,-503,0,0,0,0,0,0,0,0,0,-1,1035,1527,0,0
-182,-503,0,0,0,0,0,0,0,0,0,-1,1042,1527,0,0
-175,-503,0,0,0,0,0,0,0,0,0,-1,1049,1527,0,0
-168,-503,0,0,0,0,0,0,0,0,0,-1,1056,1527,0,0
-161,-503,0,0,0,0,0,0,0,0,0,-1,1063,1527,0,0
-154,-503,0,0,0,0,0,0,0,0,0,-1,1070,1527,0,0
-147,-503,0,0,0,0,0,0,0,0,0,-1,1077,1527,0,0
-140,-503,0,0,0,0,0,0,0,0,0,-1,1084,1527,0,0
-133,-503,0,0,0,0,0,0,0,0,0,-1,1091,1527,0,0
-126,-503,0,0,0,0,0,0,0,0,0,-1,1098,1527,0,0
-119,-503,0,0,0,0,0,0,0,0,0,-1,1105,1527,0,0
-112,-503,0,0,0,0,0,0,0,0,0,-1,1112,1527,0,0
-105,-503,0,0,0,0,0,0,0,0,0,-1,1119,1527,0,0
-98,-503,0,0,0,0,0,0,0,0,0,-1,1126,1527,0,0
-91,-503,0,0,0,0,0,0,0,0,0,-1,1133,1527,0,0
-84,-503,0,0,0,0,0,0,0,0,0,-1,1140,1527,0,0
-77,-503,0,0,0,0,0,0,0,0,0,-1,1147,1527,0,0
-70,-503,0,0,0,0,0,0,0,0,0,-1,1154,1527,0,0
-63,-503,0,0,0,0,0,0,0,0,0,-1,1161,1527,0,0
-56,-503,0,0,0,0,0,0,0,0,0,-1,1168,1527,0,0
-49,-503,0,0,0,0,0,0,0,0,0,-1,1175,1527,0,0
-42,-503,0,0,0,0,0,0,0,0,0,-1,1182,1527,0,0
-35,-503,0,0,0,0,0,0,0,0,0,-1,1189,1527,0,0
-28,-503,0,0,0,0,0,0,0,0,0,-1,1196,1527,0,0
-21,-503,0,0,0,0,0,0,0,0,0,-1,1203,1527,0,0
-14,-503,0,0,0,0,0,0,0,0,0,-1,1210,1527,0,0
-7,-503,0,0,0,0,0,0,0,0,0,-1,1217,1527,0,0
0,-503,0,0,0,0,0,0,0,0,0,-1,1224,1527,0,0
7,-503,0,0,0,0,0,0,0,0,0,-1,1231,1527,0,0
14,-503,0,0,0,0,0,0,0,0,0,-1,1238,1527,0,0
21,-503,0,0,0,0,0,0,0,0,0,-1,1245,1527,0,0
28,-503,0,0,0,0,0,0,0,0,0,-1,1252,1527,0,0
35,-503,0,0,0,0,0,0,0,0,0,-1,1259,1527,0,0
42,-503,0,0,0,0,0,0,0,0,0,-1,1266,1527,0,0
49,-503,0,0,0,0,0,0,0,0,0,-1,1273,1527,0,0
56,-503,0,0,0,0,0,0,0,0,0,-1,1280,1527,0,0
63,-503,0,0,0,0,0,0,0,0,0,-1,1287,1527,0,0
70,-503,0,0,0,0,0,0,0,0,0,-1,1294,1527,0,0
77,-503,0,0,0,0,0,0,0,0,0,-1,1301,1527,0,0
84,-503,0,0,0,0,0,0,0,0,0,-1,1308,1527,0,0
91,-503,0,0,0,0,0,0,0,0,0,-1,1315,1527,0,0
98,-503,0,0,0,0,0,0,0,0,0,-1,1322,1527,0,0
105,-503,0,0,0,0,0,0,0,0,0,-1,1329,1527,0,0
112,-503,0,0,0,0,0,0,0,0,0,-1,1336,1527,0,0
119,-503,0,0,0,0,0,0,0,0,0,-1,1343,1527,0,0
126,-503,0,0,0,0,0,0,0,0,0,-1,1350,1527,0,0
133,-503,0,0,0,0,0,0,0,0,0,-1,1357,1527,0,0
140,-503,0,0,0,0,0,0,0,0,0,-1,1364,1527,0,0
147,-503,0,0,0,0,0,0,0,0,0,-1,1371,1527,0,0
154,-503,0,0,0,0,0,0,0,0,0,-1,1378,1527,0,0
161,-503,0,0,0,0,0,0,0,0,0,-1,1385,1527,0,0
168,-503,0,0,0,0,0,0,0,0,0,-1,1392,1527,0,0
175,-503,0,0,0,0,0,0,0,0,0,-1,1399,1527,0,0
182,-503,0,0,0,0,0,0,0,0,0,-1,1406,1527,0,0
189,-503,0,0,0,0,0,0,0,0,0,-1,1413,1527,0,0
196,-503,0,0,0,0,0,0,0,0,0,-1,1420,1527,0,0
203,-503,0,0,0,0,0,0,0,0,0,-1,1427,1527,0,0
210,-503,0,0,0,0,0,0,0,0,0,-1,1434,1527,0,0
217,-503,0,0,0,0,0,0,0,0,0,-1,1441,1527,0,0
224,-503,0,0,0,0,0,0,0,0,0,-1,1448,1527,0,0
231,-503,0,0,0,0,0,0,0,0,0,-1,1455,1527,0,0
238,-503,0,0,0,0,0,0,0,0,0,-1,1462,1527,0,0
245,-503,0,0,0,0,0,0,0,0,0,-1,1469,1527,0,0
252,-503,0,0,0,0,0,0,0,0,0,-1,1476,1527,0,0
259,-503,0,0,0,0,0,0,0,0,0,-1,1483,1527,0,0
266,-503,0,0,0,0,0,0,0,0,0,-1,1490,1527,0,0
273,-503,0,0,0,0,0,0,0,0,0,-1,1497,1527,0,0
280,-503,0,0,0,0,0,0,0,0,0,-1,1504,1527,0,0
287,-503,0,0,0,0,0,0,0,0,0,-1,1511,1527,0,0
294,-503,0,0,0,0,0,0,0,0,0,-1,1518,1527,0,0
301,-503,0,0,0,0,0,0,0,0,0,-1,1525,1527,0,0
308,-503,0,0,0,0,0,0,0,0,0,-1,1532,1527,0,0
315,-503,0,0,0,0,0,0,0,0,0,-1,1539,1527,0,0
322,-503,0,0,0,0,0,0,0,0,0,-1,1546,1527,0,0
329,-503,0,0,0,0,0,0,0,0,0,-1,1553,1527,0,0
336,-503,0,0,0,0,0,0,0,0,0,-1,1560,1527,0,0
343,-503,0,0,0,0,0,0,0,0,0,-1,1567,1527,0,0
350,-503,0,0,0,0,0,0,0,0,0,-1,1574,1527,0,0
357,-503,0,0,0,0,0,0,0,0,0,-1,1581,1527,0,0
364,-503,0,0,0,0,0,0,0,0,0,-1,1588,1527,0,0
371,-503,0,0,0,0,0,0,0,0,0,-1,1595,1527,0,0
378,-503,0,0,0,0,0,0,0,0,0,-1,1602,1527,0,0
385,-503,0,0,0,0,0,0,0,0,0,-1,1609,1527,0,0
392,-503,0,0,0,0,0,0,0,0,0,-1,1616,1527,0,0
399,-503,0,0,0,0,0,0,0,0,0,-1,1623,1527,0,0
406,-503,0,0,0,0,0,0,0,0,0,-1,1630,1527,0,0
413,-503,0,0,0,0,0,0,0,0,0,-1,1637,1527,0,0
420,-503,0,0,0,0,0,0,0,0,0,-1,1644,1527,0,0
427,-503,10.5968,4.9856,0,0,0,0,0,0,0,-1,1651,1527,10.5969,-4.98563
434,-503,11.4329,3.97217,0,0,0,0,0,0,0,-1,1658,1527,11.4328,-3.97222
441,-503,12.0957,2.96509,0,0,0,0,0,0,0,-1,1665,1527,12.0957,-2.96512
448,-503,12.3259,2.53894,0,0,0,0,0,0,0,-1,1672,1527,12.326,-2.53895
455,-503,12.1669,2.18762,0,0,0,0,0,0,0,-1,1679,1527,12.1668,-2.18767
462,-503,11.59,2.60791,0,0,0,0,0,0,0,-1,1686,1527,11.5899,-2.60794
469,-503,11.1625,1.61853,0,0,0,0,0,0,0,-1,1693,1527,11.1625,-1.61856
476,-503,9.07703,5.81042,0,0,0,0,0,0,0,-1,1700,1527,9.07699,-5.81047
483,-503,9.74414,6.92432,0,0,0,0,0,0,0,-1,1707,1527,9.74417,-6.9243
490,-503,12.6488,11.0695,0,0,0,0,0,0,0,-1,1714,1527,12.6488,-11.0694
497,-503,12.5789,10.6796,-0.0814498,-0.044437,0.0707026,0.0101411,-0.136028,0.913401,0.0942476,0.0455508,1721,1527,12.5789,-10.6795
504,-503,12.1409,10.8269,-0.0699669,-0.0372162,0.0594207,0.00804427,-0.115227,0.919852,0.0796353,0.044729,1728,1527,12.1409,-10.8269
511,-503,10.8025,11.0063,0,0,0,0,0,0,0,-1,1735,1527,10.8025,-11.0064
518,-503,10.6937,10.8842,-0.0467483,-0.0249779,0.0375152,0.00319933,-0.0749256,0.926599,0.0510502,0.0457291,1742,1527,10.6937,-10.8842
525,-503,10.4751,10.8567,-0.0369659,-0.0200097,0.028813,0.00154662,-0.0585222,0.928483,0.0395404,0.0350212,1749,1527,10.4751,-10.8566
532,-503,10.4375,10.7648,-0.0285189,-0.0157193,0.021609,0.000417724,-0.0446559,0.929366,0.0299108,0.0128728,1756,1527,10.4376,-10.7648
539,-503,10.4384,10.553,-0.0212644,-0.011779,0.0155481,-0.000266273,-0.0327771,0.933433,0.0217632,0.0118325,1763,1527,10.4383,-10.553
546,-503,10.4176,10.3127,-0.015232,-0.00859459,0.0108937,-0.000525272,-0.0233013,0.933254,0.0153621,0.0116507,1770,1527,10.4176,-10.3127
553,-503,10.4282,10.1062,-0.0101963,-0.00604156,0.00707661,-0.000743712,-0.0154942,0.928165,0.0100907,0.0144108,1777,1527,10.4282,-10.1062
560,-503,10.4119,9.89307,-0.00614665,-0.00396247,0.00434711,-0.000572368,-0.00953675,0.908463,0.00617589,0.0138637,1784,1527,10.4118,-9.89302
567,-503,10.4021,9.64978,-0.00283008,-0.00204312,0.00208224,-0.000317506,-0.00455569,0.878781,0.00293702,0.0111652,1791,1527,10.4021,-9.64982
574,-503,10.4164,9.43665,-0.000247414,-0.000238933,0.000383157,0.000140007,-0.000626354,0.790932,0.000471223,0.0107184,1798,1527,10.4164,-9.43669
581,-503,10.4021,9.23706,0.00113535,0.00106858,-0.000452051,0.00155525,0.000648683,-0.748543,0.000902028,0.012633,1805,1527,10.4021,-9.23709
588,-503,10.397,9.01587,0.00237223,0.00216785,-0.00123236,0.00350662,0.00103345,-0.744033,0.00208065,0.015881,1812,1527,10.397,-9.0159
595,-503,10.4116,8.76282,0.00312334,0.00311546,-0.00174656,0.00486596,0.00137284,-0.784271,0.0028969,0.0119694,1819,1527,10.4116,-8.76284
602,-503,10.4451,8.50635,0.00356941,0.00387517,-0.00207608,0.00580399,0.00164058,-0.822151,0.00345485,0.0130149,1826,1527,10.4451,-8.50638
609,-503,10.455,8.25647,0.00392064,0.00449484,-0.00234813,0.00657336,0.00184212,-0.84623,0.00391541,0.0191017,1833,1527,10.4549,-8.25645
616,-503,10.3704,8.11011,0.00393745,0.0050486,-0.00238285,0.00693978,0.00204627,-0.89993,0.00411756,0.0215739,1840,1527,10.3704,-8.11012
623,-503,10.4535,7.8656,0.00374927,0.00557111,-0.00228469,0.00711978,0.0022006,-0.975094,0.00420931,0.039117,1847,1527,10.4535,-7.86555
630,-503,10.293,7.65894,0.00338079,0.00613349,-0.00217738,0.00733306,0.00218122,-1.06725,0.004348,0.0481448,1854,1527,10.293,-7.65892
637,-503,10.5992,7.44507,0,0,0,0,0,0,0,-1,1861,1527,10.5992,-7.44506
644,-503,9.26575,6.1228,0,0,0,0,0,0,0,-1,1868,1527,9.2657,-6.12277
651,-503,8.65137,4.57263,0,0,0,0,0,0,0,-1,1875,1527,8.65131,-4.5726
658,-503,8.25635,3.10498,0,0,0,0,0,0,0,-1,1882,1527,8.2563,-3.10493
665,-503,0,0,0,0,0,0,0,0,0,-1,1889,1527,0,0
672,-503,0,0,0,0,0,0,0,0,0,-1,1896,1527,0,0
679,-503,0,0,0,0,0,0,0,0,0,-1,1903,1527,0,0
686,-503,0,0,0,0,0,0,0,0,0,-1,1910,1527,0,0
693,-503,0,0,0,0,0,0,0,0,0,-1,1917,1527,0,0
700,-503,0,0,0,0,0,0,0,0,0,-1,1924,1527,0,0
707,-503,0,0,0,0,0,0,0,0,0,-1,1931,1527,0,0
714,-503,0,0,0,0,0,0,0,0,0,-1,1938,1527,0,0
721,-503,0,0,0,0,0,0,0,0,0,-1,1945,1527,0,0
728,-503,0,0,0,0,0,0,0,0,0,-1,1952,1527,0,0
735,-503,0,0,0,0,0,0,0,0,0,-1,1959,1527,0,0
742,-503,0,0,0,0,0,0,0,0,0,-1,1966,1527,0,0
749,-503,0,0,0,0,0,0,0,0,0,-1,1973,1527,0,0
756,-503,0,0,0,0,0,0,0,0,0,-1,1980,1527,0,0
763,-503,0,0,0,0,0,0,0,0,0,-1,1987,1527,0,0
770,-503,0,0,0,0,0,0,0,0,0,-1,1994,1527,0,0
777,-503,0,0,0,0,0,0,0,0,0,-1,2001,1527,0,0
784,-503,0,0,0,0,0,0,0,0,0,-1,2008,1527,0,0
791,-503,0,0,0,0,0,0,0,0,0,-1,2015,1527,0,0
798,-503,0,0,0,0,0,0,0,0,0,-1,2022,1527,0,0
805,-503,0,0,0,0,0,0,0,0,0,-1,2029,1527,0,0
812,-503,0,0,0,0,0,0,0,0,0,-1,2036,1527,0,0
-700,-510,0,0,0,0,0,0,0,0,0,-1,524,1534,0,0
-693,-510,0,0,0,0,0,0,0,0,0,-1,531,1534,0,0
-686,-510,0,0,0,0,0,0,0,0,0,-1,538,1534,0,0
-679,-510,0,0,0,0,0,0,0,0,0,-1,545,1534,0,0
-672,-510,0,0,0,0,0,0,0,0,0,-1,552,1534,0,0
-665,-510,0,0,0,0,0,0,0,0,0,-1,559,1534,0,0
-658,-510,0,0,0,0,0,0,0,0,0,-1,566,1534,0,0
-651,-510,0,0,0,0,0,0,0,0,0,-1,573,1534,0,0
-644,-510,0,0,0,0,0,0,0,0,0,-1,580,1534,0,0
-637,-510,0,0,0,0,0,0,0,0,0,-1,587,1534,0,0
-630,-510,0,0,0,0,0,0,0,0,0,-1,594,1534,0,0
-623,-510,0,0,0,0,0,0,0,0,0,-1,601,1534,0,0
-616,-510,0,0,0,0,0,0,0,0,0,-1,608,1534,0,0
-609,-510,0,0,0,0,0,0,0,0,0,-1,615,1534,0,0
-602,-510,0,0,0,0,0,0,0,0,0,-1,622,1534,0,0
-595,-510,0,0,0,0,0,0,0,0,0,-1,629,1534,0,0
-588,-510,0,0,0,0,0,0,0,0,0,-1,636,1534,0,0
-581,-510,0,0,0,0,0,0,0,0,0,-1,643,1534,0,0
-574,-510,0,0,0,0,0,0,0,0,0,-1,650,1534,0,0
-567,-510,0,0,0,0,0,0,0,0,0,-1,657,1534,0,0
-560,-510,0,0,0,0,0,0,0,0,0,-1,664,1534,0,0
-553,-510,0,0,0,0,0,0,0,0,0,-1,671,1534,0,0
-546,-510,0,0,0,0,0,0,0,0,0,-1,678,1534,0,0
-539,-510,0,0,0,0,0,0,0,0,0,-1,685,1534,0,0
-532,-510,2.29291,4.35352,0,0,0,0,0,0,0,-1,692,1534,2.29289,-4.35348
-525,-510,-3.2951,4.90063,0,0,0,0,0,0,0,-1,699,1534,-3.29508,-4.90065
-518,-510,-2.46826,4.68469,0,0,0,0,0,0,0,-1,706,1534,-2.46825,-4.68473
-511,-510,-2.51361,4.70251,0,0,0,0,0,0,0,-1,713,1534,-2.5136,-4.70251
-504,-510,-2.26398,3.53711,0,0,0,0,0,0,0,-1,720,1534,-2.26401,-3.53713
-497,-510,-0.528015,6.0686,0,0,0,0,0,0,0,-1,727,1534,-0.527986,-6.06865
-490,-510,-0.647339,6.32556,0.0265965,0.00981935,0.00926754,0.0307082,0.00570771,0.417569,0.0188597,0.0475951,734,1534,-0.647326,-6.32558
-483,-510,-0.63147,6.5144,0.0178333,0.00768249,0.00700156,0.0214055,0.00411025,0.471778,0.0131167,0.0446461,741,1534,-0.631442,-6.5144
-476,-510,-0.739319,6.67505,0.0112797,0.00594662,0.00528642,0.014534,0.00269228,0.551814,0.00892826,0.0304906,748,1534,-0.739321,-6.67502
-469,-510,-0.845398,6.92249,0.00673847,0.00479663,0.00369122,0.00958433,0.00195077,0.656794,0.00584876,0.0118478,755,1534,-0.845396,-6.92244
-462,-510,-0.838989,7.19287,0.00343299,0.00350469,0.00263513,0.00610422,0.000833465,0.792199,0.00382207,0.0112752,762,1534,-0.838997,-7.19285
-455,-510,-0.863159,7.46582,0.00173968,0.0022283,0.00167352,0.00367525,0.000292729,0.857878,0.00235865,0.013139,769,1534,-0.863175,-7.4658
-448,-510,-0.845154,7.71802,0.00165698,0.00143659,0.0011326,0.00268473,0.000408839,0.736903,0.00167031,0.0122307,776,1534,-0.84515,-7.71798
-441,-510,-0.83075,7.95959,0.0019221,0.000708542,0.000630591,0.00219043,0.000440206,0.40232,0.00133792,0.0127065,783,1534,-0.830779,-7.9596
-434,-510,-0.83844,8.1925,0.00223265,-0.000173662,-1.14161e-05,0.0022327,-0.000173716,-0.0047441,0.00154962,0.014246,790,1534,-0.838427,-8.19254
-427,-510,-0.863831,8.41187,0.00278881,-0.00131386,-0.000537957,0.00285817,-0.00138322,-0.128236,0.00249764,0.0221222,797,1534,-0.863835,-8.41192
-420,-510,-0.859741,8.65369,0.00351002,-0.00250729,-0.00114132,0.00371923,-0.00271649,-0.181288,0.00373067,0.0216277,804,1534,-0.859761,-8.65364
-413,-510,-0.847595,8.93762,0.00403892,-0.00400443,-0.00192376,0.00447535,-0.00444086,-0.223089,0.00514779,0.0111702,811,1534,-0.847571,-8.93765
-406,-510,-0.858032,9.19336,0.00445828,-0.00569164,-0.00291518,0.00523597,-0.00646933,-0.260701,0.00677055,0.0101658,818,1534,-0.858015,-9.19336
-399,-510,-0.847107,9.42896,0.00495132,-0.00764476,-0.0040066,0.00611774,-0.00881118,-0.283294,0.00866585,0.011951,825,1534,-0.847125,-9.42899
-392,-510,-0.762329,9.75159,0.00525935,-0.00978867,-0.00530213,0.00693987,-0.0114692,-0.306935,0.0107352,0.0241888,832,1534,-0.762341,-9.75161
-385,-510,-0.765686,9.95642,0.00543474,-0.0118366,-0.00681431,0.00779951,-0.0142014,-0.334026,0.0128802,0.0392426,839,1534,-0.765667,-9.95648
-378,-510,-0.766296,9.79053,0.00564064,-0.013959,-0.0085021,0.00881472,-0.0171331,-0.357305,0.0152354,0.0400189,846,1534,-0.766291,-9.79049
-371,-510,-0.695801,9.93054,0.00555432,-0.0164132,-0.0105211,0.00978032,-0.0206392,-0.381944,0.0179318,0.0468205,853,1534,-0.695789,-9.93058
-364,-510,-0.567627,10.0214,0,0,0,0,0,0,0,-1,860,1534,-0.567637,-10.0214
-357,-510,-0.254395,8.89575,0,0,0,0,0,0,0,-1,867,1534,-0.254397,-8.89569
-350,-510,0.471191,6.06458,0,0,0,0,0,0,0,-1,874,1534,0.47118,-6.06453
-343,-510,-2.94617,5.00989,0,0,0,0,0,0,0,-1,881,1534,-2.94615,-5.00992
-336,-510,-1.92963,11.3776,0,0,0,0,0,0,0,-1,888,1534,-1.92962,-11.3775
-329,-510,-1.09058,11.6753,0,0,0,0,0,0,0,-1,895,1534,-1.09056,-11.6753
-322,-510,-0.251526,11.973,0,0,0,0,0,0,0,-1,902,1534,-0.251497,-11.9731
-315,-510,-1.73047,10.9796,0,0,0,0,0,0,0,-1,909,1534,-1.73049,-10.9796
-308,-510,-2.05328,9.72034,0,0,0,0,0,0,0,-1,916,1534,-2.05327,-9.72036
-301,-510,-2.11639,10.0634,0,0,0,0,0,0,0,-1,923,1534,-2.11637,-10.0633
-294,-510,0,0,0,0,0,0,0,0,0,-1,930,1534,0,0
-287,-510,0,0,0,0,0,0,0,0,0,-1,937,1534,0,0
-280,-510,0,0,0,0,0,0,0,0,0,-1,944,1534,0,0
-273,-510,0,0,0,0,0,0,0,0,0,-1,951,1534,0,0
-266,-510,0,0,0,0,0,0,0,0,0,-1,958,1534,0,0
-259,-510,0,0,0,0,0,0,0,0,0,-1,965,1534,0,0
-252,-510,0,0,0,0,0,0,0,0,0,-1,972,1534,0,0
-245,-510,0,0,0,0,0,0,0,0,0,-1,979,1534,0,0
-238,-510,0,0,0,0,0,0,0,0,0,-1,986,1534,0,0
-231,-510,0,0,0,0,0,0,0,0,0,-1,993,1534,0,0
-224,-510,0,0,0,0,0,0,0,0,0,-1,1000,1534,0,0
-217,-510,0,0,0,0,0,0,0,0,0,-1,1007,1534,0,0
-210,-510,0,0,0,0,0,0,0,0,0,-1,1014,1534,0,0
-203,-510,0,0,0,0,0,0,0,0,0,-1,1021,1534,0,0
-196,-510,0,0,0,0,0,0,0,0,0,-1,1028,1534,0,0
-189,-510,0,0,0,0,0,0,0,0,0,-1,1035,1534,0,0
-182,-510,0,0,0,0,0,0,0,0,0,-1,1042,1534,0,0
-175,-510,0,0,0,0,0,0,0,0,0,-1,1049,1534,0,0
-168,-510,0,0,0,0,0,0,0,0,0,-1,1056,1534,0,0
-161,-510,0,0,0,0,0,0,0,0,0,-1,1063,1534,0,0
-154,-510,0,0,0,0,0,0,0,0,0,-1,1070,1534,0,0
-147,-510,0,0,0,0,0,0,0,0,0,-1,1077,1534,0,0
-140,-510,0,0,0,0,0,0,0,0,0,-1,1084,1534,0,0
-133,-510,0,0,0,0,0,0,0,0,0,-1,1091,1534,0,0
-126,-510,0,0,0,0,0,0,0,0,0,-1,1098,1534,0,0
-119,-510,0,0,0,0,0,0,0,0,0,-1,1105,1534,0,0
-112,-510,0,0,0,0,0,0,0,0,0,-1,1112,1534,0,0
-105,-510,0,0,0,0,0,0,0,0,0,-1,1119,1534,0,0
-98,-510,0,0,0,0,0,0,0,0,0,-1,1126,1534,0,0
-91,-510,0,0,0,0,0,0,0,0,0,-1,1133,1534,0,0
-84,-510,0,0,0,0,0,0,0,0,0,-1,1140,1534,0,0
-77,-510,0,0,0,0,0,0,0,0,0,-1,1147,1534,0,0
-70,-510,0,0,0,0,0,0,0,0,0,-1,1154,1534,0,0
-63,-510,0,0,0,0,0,0,0,0,0,-1,1161,1534,0,0
-56,-510,0,0,0,0,0,0,0,0,0,-1,1168,1534,0,0
-49,-510,0,0,0,0,0,0,0,0,0,-1,1175,1534,0,0
-42,-510,0,0,0,0,0,0,0,0,0,-1,1182,1534,0,0
-35,-510,0,0,0,0,0,0,0,0,0,-1,1189,1534,0,0
-28,-510,0,0,0,0,0,0,0,0,0,-1,1196,1534,0,0
-21,-510,0,0,0,0,0,0,0,0,0,-1,1203,1534,0,0
-14,-510,0,0,0,0,0,0,0,0,0,-1,1210,1534,0,0
-7,-510,0,0,0,0,0,0,0,0,0,-1,1217,1534,0,0
0,-510,0,0,0,0,0,0,0,0,0,-1,1224,1534,0,0
7,-510,0,0,0,0,0,0,0,0,0,-1,1231,1534,0,0
14,-510,0,0,0,0,0,0,0,0,0,-1,1238,1534,0,0
21,-510,0,0,0,0,0,0,0,0,0,-1,1245,1534,0,0
28,-510,0,0,0,0,0,0,0,0,0,-1,1252,1534,0,0
35,-510,0,0,0,0,0,0,0,0,0,-1,1259,1534,0,0
42,-510,0,0,0,0,0,0,0,0,0,-1,1266,1534,0,0
49,-510,0,0,0,0,0,0,0,0,0,-1,1273,1534,0,0
56,-510,0,0,0,0,0,0,0,0,0,-1,1280,1534,0,0
63,-510,0,0,0,0,0,0,0,0,0,-1,1287,1534,0,0
70,-510,0,0,0,0,0,0,0,0,0,-1,1294,1534,0,0
77,-510,0,0,0,0,0,0,0,0,0,-1,1301,1534,0,0
84,-510,0,0,0,0,0,0,0,0,0,-1,1308,1534,0,0
91,-510,0,0,0,0,0,0,0,0,0,-1,1315,1534,0,0
98,-510,0,0,0,0,0,0,0,0,0,-1,1322,1534,0,0
105,-510,0,0,0,0,0,0,0,0,0,-1,1329,1534,0,0
112,-510,0,0,0,0,0,0,0,0,0,-1,1336,1534,0,0
119,-510,0,0,0,0,0,0,0,0,0,-1,1343,1534,0,0
126,-510,0,0,0,0,0,0,0,0,0,-1,1350,1534,0,0
133,-510,0,0,0,0,0,0,0,0,0,-1,1357,1534,0,0
140,-510,0,0,0,0,0,0,0,0,0,-1,1364,1534,0,0
147,-510,0,0,0,0,0,0,0,0,0,-1,1371,1534,0,0
154,-510,0,0,0,0,0,0,0,0,0,-1,1378,1534,0,0
161,-510,0,0,0,0,0,0,0,0,0,-1,1385,1534,0,0
168,-510,0,0,0,0,0,0,0,0,0,-1,1392,1534,0,0
175,-510,0,0,0,0,0,0,0,0,0,-1,1399,1534,0,0
182,-510,0,0,0,0,0,0,0,0,0,-1,1406,1534,0,0
189,-510,0,0,0,0,0,0,0,0,0,-1,1413,1534,0,0
196,-510,0,0,0,0,0,0,0,0,0,-1,1420,1534,0,0
203,-510,0,0,0,0,0,0,0,0,0,-1,1427,1534,0,0
210,-510,0,0,0,0,0,0,0,0,0,-1,1434,1534,0,0
217,-510,0,0,0,0,0,0,0,0,0,-1,1441,1534,0,0
224,-510,0,0,0,0,0,0,0,0,0,-1,1448,1534,0,0
231,-510,0,0,0,0,0,0,0,0,0,-1,1455,1534,0,0
238,-510,0,0,0,0,0,0,0,0,0,-1,1462,1534,0,0
245,-510,0,0,0,0,0,0,0,0,0,-1,1469,1534,0,0
252,-510,0,0,0,0,0,0,0,0,0,-1,1476,1534,0,0
259,-510,0,0,0,0,0,0,0,0,0,-1,1483,1534,0,0
266,-510,0,0,0,0,0,0,0,0,0,-1,1490,1534,0,0
273,-510,0,0,0,0,0,0,0,0,0,-1,1497,1534,0,0
280,-510,0,0,0,0,0,0,0,0,0,-1,1504,1534,0,0
287,-510,0,0,0,0,0,0,0,0,0,-1,1511,1534,0,0
294,-510,0,0,0,0,0,0,0,0,0,-1,1518,1534,0,0
301,-510,0,0,0,0,0,0,0,0,0,-1,1525,1534,0,0
308,-510,0,0,0,0,0,0,0,0,0,-1,1532,1534,0,0
315,-510,0,0,0,0,0,0,0,0,0,-1,1539,1534,0,0
322,-510,0,0,0,0,0,0,0,0,0,-1,1546,1534,0,0
329,-510,0,0,0,0,0,0,0,0,0,-1,1553,1534,0,0
336,-510,0,0,0,0,0,0,0,0,0,-1,1560,1534,0,0
343,-510,0,0,0,0,0,0,0,0,0,-1,1567,1534,0,0
350,-510,0,0,0,0,0,0,0,0,0,-1,1574,1534,0,0
357,-510,0,0,0,0,0,0,0,0,0,-1,1581,1534,0,0
364,-510,0,0,0,0,0,0,0,0,0,-1,1588,1534,0,0
371,-510,0,0,0,0,0,0,0,0,0,-1,1595,1534,0,0
378,-510,0,0,0,0,0,0,0,0,0,-1,1602,1534,0,0
385,-510,0,0,0,0,0,0,0,0,0,-1,1609,1534,0,0
392,-510,0,0,0,0,0,0,0,0,0,-1,1616,1534,0,0
399,-510,0,0,0,0,0,0,0,0,0,-1,1623,1534,0,0
406,-510,0,0,0,0,0,0,0,0,0,-1,1630,1534,0,0
413,-510,0,0,0,0,0,0,0,0,0,-1,1637,1534,0,0
420,-510,13.1918,5.99402,0,0,0,0,0,0,0,-1,1644,1534,13.1917,-5.994
427,-510,10.9799,5.12341,0,0,0,0,0,0,0,-1,1651,1534,10.9798,-5.12337
434,-510,11.8219,4.07898,0,0,0,0,0,0,0,-1,1658,1534,11.8219,-4.07895
441,-510,12.6812,3.02991,0,0,0,0,0,0,0,-1,1665,1534,12.6811,-3.0299
448,-510,13.2379,2.2804,0,0,0,0,0,0,0,-1,1672,1534,13.2379,-2.28037
455,-510,9.76892,2.20642,0,0,0,0,0,0,0,-1,1679,1534,9.76894,-2.20647
462,-510,9.84692,2.49182,0,0,0,0,0,0,0,-1,1686,1534,9.84695,-2.49185
469,-510,16.6072,7.26941,0,0,0,0,0,0,0,-1,1693,1534,16.6072,-7.26945
476,-510,15.9199,7.8645,0,0,0,0,0,0,0,-1,1700,1534,15.9199,-7.86455
483,-510,9.9469,7.28748,0,0,0,0,0,0,0,-1,1707,1534,9.94686,-7.28747
490,-510,12.0614,11.1779,0,0,0,0,0,0,0,-1,1714,1534,12.0614,-11.1778
497,-510,11.571,11.0842,-0.0647729,-0.0397666,0.0583954,0.00744922,-0.111989,0.890862,0.077262,0.044005,1721,1534,11.5711,-11.0842
504,-510,11.1902,11.1094,-0.0557493,-0.0331272,0.0494306,0.00626993,-0.0951464,0.897875,0.0656209,0.0409174,1728,1534,11.1902,-11.1094
511,-510,10.8704,10.948,-0.0459334,-0.0270721,0.0397409,0.00434183,-0.0773473,0.901895,0.0530714,0.0388882,1735,1534,10.8704,-10.948
518,-510,10.4326,11.087,-0.0369609,-0.0215334,0.031075,0.00277088,-0.0612652,0.907054,0.0417977,0.035043,1742,1534,10.4326,-11.087
525,-510,10.2383,11.0027,-0.0290265,-0.0168584,0.0236928,0.00151899,-0.0474039,0.911078,0.0321209,0.0194958,1749,1534,10.2383,-11.0027
532,-510,10.2189,10.7672,-0.0221691,-0.0128874,0.0175535,0.000628389,-0.0356849,0.914633,0.0240022,0.0121262,1756,1534,10.2188,-10.7672
539,-510,10.2145,10.5291,-0.0162004,-0.00925112,0.0123258,8.04141e-05,-0.0255319,0.922783,0.0170482,0.0123901,1763,1534,10.2144,-10.5291
546,-510,10.1941,10.3177,-0.0112229,-0.00636586,0.00833175,-0.000115927,-0.0174729,0.927209,0.0116101,0.0120234,1770,1534,10.1941,-10.3178
553,-510,10.204,10.0957,-0.00699987,-0.00408449,0.00504913,-0.000286845,-0.0107975,0.925928,0.00710466,0.0125301,1777,1534,10.204,-10.0957
560,-510,10.1882,9.86646,-0.00360648,-0.00220268,0.00272004,-9.54384e-05,-0.00571373,0.911667,0.00377774,0.012487,1784,1534,10.1882,-9.86651
567,-510,10.1906,9.64697,-0.000858794,-0.000464346,0.000829219,0.000190781,-0.00151392,0.90215,0.00107851,0.0120257,1791,1534,10.1905,-9.647
574,-510,10.196,9.43213,0.00131668,0.0011463,-0.00061102,0.00184842,0.000614559,-0.716134,0.00108697,0.0125397,1798,1534,10.196,-9.43217
581,-510,10.1646,9.24304,0.00261264,0.00241442,-0.00143324,0.00395019,0.00107687,-0.750877,0.00235795,0.011265,1805,1534,10.1645,-9.24308
588,-510,10.1555,9.03442,0.00377784,0.00355365,-0.00223091,0.00589947,0.00143202,-0.760296,0.00355317,0.0125945,1812,1534,10.1556,-9.03443
595,-510,10.2343,8.72986,0.00456806,0.00460026,-0.0028388,0.007423,0.00174532,-0.788234,0.00448165,0.013044,1819,1534,10.2343,-8.7298
602,-510,10.2196,8.45007,0.00515286,0.0055599,-0.00329156,0.00865422,0.00205854,-0.816274,0.00522039,0.0223958,1826,1534,10.2196,-8.45002
609,-510,10.1639,8.35193,0.00559128,0.00641696,-0.00361298,0.00964061,0.00236762,-0.842284,0.00580121,0.0313844,1833,1534,10.164,-8.35191
616,-510,10.843,8.11182,0,0,0,0,0,0,0,-1,1840,1534,10.8431,-8.11179
623,-510,10.2145,7.82141,0,0,0,0,0,0,0,-1,1847,1534,10.2145,-7.82142
630,-510,9.85864,7.74487,0,0,0,0,0,0,0,-1,1854,1534,9.8586,-7.74486
637,-510,10.5243,6.59131,0,0,0,0,0,0,0,-1,1861,1534,10.5243,-6.59127
644,-510,10.335,5.77954,0,0,0,0,0,0,0,-1,1868,1534,10.3349,-5.77952
651,-510,8.70471,3.5061,0,0,0,0,0,0,0,-1,1875,1534,8.70475,-3.50611
658,-510,0,0,0,0,0,0,0,0,0,-1,1882,1534,0,0
665,-510,0,0,0,0,0,0,0,0,0,-1,1889,1534,0,0
672,-510,0,0,0,0,0,0,0,0,0,-1,1896,1534,0,0
679,-510,0,0,0,0,0,0,0,0,0,-1,1903,1534,0,0
686,-510,0,0,0,0,0,0,0,0,0,-1,1910,1534,0,0
693,-510,0,0,0,0,0,0,0,0,0,-1,1917,1534,0,0
700,-510,0,0,0,0,0,0,0,0,0,-1,1924,1534,0,0
707,-510,0,0,0,0,0,0,0,0,0,-1,1931,1534,0,0
714,-510,0,0,0,0,0,0,0,0,0,-1,1938,1534,0,0
721,-510,0,0,0,0,0,0,0,0,0,-1,1945,1534,0,0
728,-510,0,0,0,0,0,0,0,0,0,-1,1952,1534,0,0
735,-510,0,0,0,0,0,0,0,0,0,-1,1959,1534,0,0
742,-510,0,0,0,0,0,0,0,0,0,-1,1966,1534,0,0
749,-510,0,0,0,0,0,0,0,0,0,-1,1973,1534,0,0
756,-510,0,0,0,0,0,0,0,0,0,-1,1980,1534,0,0
763,-510,0,0,0,0,0,0,0,0,0,-1,1987,1534,0,0
770,-510,0,0,0,0,0,0,0,0,0,-1,1994,1534,0,0
777,-510,0,0,0,0,0,0,0,0,0,-1,2001,1534,0,0
784,-510,0,0,0,0,0,0,0,0,0,-1,2008,1534,0,0
791,-510,0,0,0,0,0,0,0,0,0,-1,2015,1534,0,0
798,-510,0,0,0,0,0,0,0,0,0,-1,2022,1534,0,0
805,-510,0,0,0,0,0,0,0,0,0,-1,2029,1534,0,0
812,-510,0,0,0,0,0,0,0,0,0,-1,2036,1534,0,0
-700,-517,0,0,0,0,0,0,0,0,0,-1,524,1541,0,0
-693,-517,0,0,0,0,0,0,0,0,0,-1,531,1541,0,0
-686,-517,0,0,0,0,0,0,0,0,0,-1,538,1541,0,0
-679,-517,0,0,0,0,0,0,0,0,0,-1,545,1541,0,0
-672,-517,0,0,0,0,0,0,0,0,0,-1,552,1541,0,0
-665,-517,0,0,0,0,0,0,0,0,0,-1,559,1541,0,0
-658,-517,0,0,0,0,0,0,0,0,0,-1,566,1541,0,0
-651,-517,0,0,0,0,0,0,0,0,0,-1,573,1541,0,0
-644,-517,0,0,0,0,0,0,0,0,0,-1,580,1541,0,0
-637,-517,0,0,0,0,0,0,0,0,0,-1,587,1541,0,0
-630,-517,0,0,0,0,0,0,0,0,0,-1,594,1541,0,0
-623,-517,0,0,0,0,0,0,0,0,0,-1,601,1541,0,0
-616,-517,0,0,0,0,0,0,0,0,0,-1,608,1541,0,0
-609,-517,0,0,0,0,0,0,0,0,0,-1,615,1541,0,0
-602,-517,0,0,0,0,0,0,0,0,0,-1,622,1541,0,0
-595,-517,0,0,0,0,0,0,0,0,0,-1,629,1541,0,0
-588,-517,0,0,0,0,0,0,0,0,0,-1,636,1541,0,0
-581,-517,0,0,0,0,0,0,0,0,0,-1,643,1541,0,0
-574,-517,0,0,0,0,0,0,0,0,0,-1,650,1541,0,0
-567,-517,0,0,0,0,0,0,0,0,0,-1,657,1541,0,0
-560,-517,0,0,0,0,0,0,0,0,0,-1,664,1541,0,0
-553,-517,0,0,0,0,0,0,0,0,0,-1,671,1541,0,0
-546,-517,0,0,0,0,0,0,0,0,0,-1,678,1541,0,0
-539,-517,0,0,0,0,0,0,0,0,0,-1,685,1541,0,0
-532,-517,0,0,0,0,0,0,0,0,0,-1,692,1541,0,0
-525,-517,0.467896,4.35828,0,0,0,0,0,0,0,-1,699,1541,0.467905,-4.35823
-518,-517,-2.20306,4.22119,0,0,0,0,0,0,0,-1,706,1541,-2.20308,-4.2212
-511,-517,-2.72321,2.45251,0,0,0,0,0,0,0,-1,713,1541,-2.72323,-2.45249
-504,-517,-0.883362,4.79858,0,0,0,0,0,0,0,-1,720,1541,-0.88337,-4.79854
-497,-517,-0.32135,5.73938,0,0,0,0,0,0,0,-1,727,1541,-0.321354,-5.73939
-490,-517,-0.405762,6.44922,0.0292814,0.0132603,0.011759,0.0354991,0.00704257,0.486391,0.0217028,0.0429249,734,1541,-0.405784,-6.44919
-483,-517,-0.446838,6.63159,0.0198329,0.0105377,0.00902215,0.0253341,0.0050364,0.547558,0.0154861,0.044509,741,1541,-0.446814,-6.63158
-476,-517,-0.49408,6.66211,0.0128382,0.00827035,0.00692857,0.0178496,0.00325898,0.626186,0.0109759,0.0351238,748,1541,-0.49411,-6.66217
-469,-517,-0.557251,6.9071,0.00787948,0.0067189,0.0050319,0.0123644,0.00223395,0.727991,0.00760843,0.0146981,755,1541,-0.557256,-6.90711
-462,-517,-0.596008,7.1853,0.00417415,0.00516653,0.00378178,0.00848453,0.000856149,0.850628,0.00539367,0.0151208,762,1541,-0.595988,-7.18528
-455,-517,-0.594604,7.47168,0.00226981,0.00369365,0.00266697,0.00574209,0.00022137,0.915827,0.00375644,0.0132071,769,1541,-0.594589,-7.47171
-448,-517,-0.598694,7.72107,0.00198029,0.00275857,0.0020066,0.00441341,0.000325445,0.881174,0.00284002,0.0128796,776,1541,-0.598688,-7.72102
-441,-517,-0.59967,7.95105,0.0020824,0.00189437,0.00144769,0.00343912,0.000537643,0.752973,0.00213621,0.0116781,783,1541,-0.599689,-7.95106
-434,-517,-0.571594,8.19702,0.00222562,0.000977582,0.000780086,0.00260056,0.000602634,0.448048,0.00157182,0.0141547,790,1541,-0.571597,-8.19702
-427,-517,-0.580078,8.43323,0.00263795,-0.000183148,0.000297457,0.00266897,-0.00021417,0.103918,0.00185483,0.0139531,797,1541,-0.580108,-8.43329
-420,-517,-0.631348,8.69189,0.00325495,-0.00129929,-0.000197718,0.00326351,-0.00130786,-0.0433054,0.0027186,0.0197889,804,1541,-0.631374,-8.69194
-413,-517,-0.614563,8.94861,0.00366951,-0.0026599,-0.000858953,0.00378401,-0.0027744,-0.132516,0.00380142,0.0105081,811,1541,-0.614565,-8.94861
-406,-517,-0.615234,9.19958,0.00394969,-0.00416216,-0.00167933,0.0042836,-0.00449607,-0.196277,0.00506944,0.0103917,818,1541,-0.615216,-9.19962
-399,-517,-0.600586,9.44153,0.00424745,-0.00584267,-0.00256318,0.00486123,-0.00645645,-0.235036,0.00655587,0.0110259,825,1541,-0.600616,-9.44147
-392,-517,-0.592957,9.67969,0.00437256,-0.00758749,-0.00357201,0.00535817,-0.00857309,-0.269225,0.00811429,0.0127288,832,1541,-0.592967,-9.67971
-385,-517,-0.534973,10.0354,0.00440661,-0.0091214,-0.00472182,0.00589168,-0.0106065,-0.304718,0.009654,0.020322,839,1541,-0.534989,-10.0354
-378,-517,-0.549805,10.1281,0.00451002,-0.0106041,-0.00595336,0.00657334,-0.0126674,-0.333625,0.0112929,0.0400451,846,1541,-0.549806,-10.128
-371,-517,-0.446228,9.91138,0.00439588,-0.012335,-0.00736543,0.00717629,-0.0151154,-0.360957,0.0131394,0.0479683,853,1541,-0.446211,-9.91132
-364,-517,-0.49292,10.298,0,0,0,0,0,0,0,-1,860,1541,-0.49294,-10.298
-357,-517,0.236755,9.76489,0,0,0,0,0,0,0,-1,867,1541,0.236731,-9.76486
-350,-517,0.722412,10.0829,0,0,0,0,0,0,0,-1,874,1541,0.722399,-10.0828
-343,-517,-2.56708,6.12415,0,0,0,0,0,0,0,-1,881,1541,-2.56708,-6.12418
-336,-517,-1.58478,11.4652,0,0,0,0,0,0,0,-1,888,1541,-1.58478,-11.4652
-329,-517,-0.658691,11.7365,0,0,0,0,0,0,0,-1,895,1541,-0.658693,-11.7364
-322,-517,0.267395,12.0076,0,0,0,0,0,0,0,-1,902,1541,0.267396,-12.0076
-315,-517,-0.987976,7.29749,0,0,0,0,0,0,0,-1,909,1541,-0.987993,-7.29743
-308,-517,-1.37579,8.10229,0,0,0,0,0,0,0,-1,916,1541,-1.37577,-8.1023
-301,-517,-1.69141,8.87488,0,0,0,0,0,0,0,-1,923,1541,-1.69141,-8.87485
-294,-517,-1.72583,9.92566,0,0,0,0,0,0,0,-1,930,1541,-1.72584,-9.92571
-287,-517,-1.85211,11.2883,0,0,0,0,0,0,0,-1,937,1541,-1.85212,-11.2884
-280,-517,0,0,0,0,0,0,0,0,0,-1,944,1541,0,0
-273,-517,0,0,0,0,0,0,0,0,0,-1,951,1541,0,0
-266,-517,0,0,0,0,0,0,0,0,0,-1,958,1541,0,0
-259,-517,0,0,0,0,0,0,0,0,0,-1,965,1541,0,0
-252,-517,0,0,0,0,0,0,0,0,0,-1,972,1541,0,0
-245,-517,0,0,0,0,0,0,0,0,0,-1,979,1541,0,0
-238,-517,0,0,0,0,0,0,0,0,0,-1,986,1541,0,0
-231,-517,0,0,0,0,0,0,0,0,0,-1,993,1541,0,0
-224,-517,0,0,0,0,0,0,0,0,0,-1,1000,1541,0,0
-217,-517,0,0,0,0,0,0,0,0,0,-1,1007,1541,0,0
-210,-517,0,0,0,0,0,0,0,0,0,-1,1014,1541,0,0
-203,-517,0,0,0,0,0,0,0,0,0,-1,1021,1541,0,0
-196,-517,0,0,0,0,0,0,0,0,0,-1,1028,1541,0,0
-189,-517,0,0,0,0,0,0,0,0,0,-1,1035,1541,0,0
-182,-517,0,0,0,0,0,0,0,0,0,-1,1042,1541,0,0
-175,-517,0,0,0,0,0,0,0,0,0,-1,1049,1541,0,0
-168,-517,0,0,0,0,0,0,0,0,0,-1,1056,1541,0,0
-161,-517,0,0,0,0,0,0,0,0,0,-1,1063,1541,0,0
-154,-517,0,0,0,0,0,0,0,0,0,-1,1070,1541,0,0
-147,-517,0,0,0,0,0,0,0,0,0,-1,1077,1541,0,0
-140,-517,0,0,0,0,0,0,0,0,0,-1,1084,1541,0,0
-133,-517,0,0,0,0,0,0,0,0,0,-1,1091,1541,0,0
-126,-517,0,0,0,0,0,0,0,0,0,-1,1098,1541,0,0
-119,-517,0,0,0,0,0,0,0,0,0,-1,1105,1541,0,0
-112,-517,0,0,0,0,0,0,0,0,0,-1,1112,1541,0,0
-105,-517,0,0,0,0,0,0,0,0,0,-1,1119,1541,0,0
-98,-517,0,0,0,0,0,0,0,0,0,-1,1126,1541,0,0
-91,-517,0,0,0,0,0,0,0,0,0,-1,1133,1541,0,0
-84,-517,0,0,0,0,0,0,0,0,0,-1,1140,1541,0,0
-77,-517,0,0,0,0,0,0,0,0,0,-1,1147,1541,0,0
-70,-517,0,0,0,0,0,0,0,0,0,-1,1154,1541,0,0
-63,-517,0,0,0,0,0,0,0,0,0,-1,1161,1541,0,0
-56,-517,0,0,0,0,0,0,0,0,0,-1,1168,1541,0,0
-49,-517,0,0,0,0,0,0,0,0,0,-1,1175,1541,0,0
-42,-517,0,0,0,0,0,0,0,0,0,-1,1182,1541,0,0
-35,-517,0,0,0,0,0,0,0,0,0,-1,1189,1541,0,0
-28,-517,0,0,0,0,0,0,0,0,0,-1,1196,1541,0,0
-21,-517,0,0,0,0,0,0,0,0,0,-1,1203,1541,0,0
-14,-517,0,0,0,0,0,0,0,0,0,-1,1210,1541,0,0
-7,-517,0,0,0,0,0,0,0,0,0,-1,1217,1541,0,0
0,-517,0,0,0,0,0,0,0,0,0,-1,1224,1541,0,0
7,-517,0,0,0,0,0,0,0,0,0,-1,1231,1541,0,0
14,-517,0,0,0,0,0,0,0,0,0,-1,1238,1541,0,0
21,-517,0,0,0,0,0,0,0,0,0,-1,1245,1541,0,0
28,-517,0,0,0,0,0,0,0,0,0,-1,1252,1541,0,0
35,-517,0,0,0,0,0,0,0,0,0,-1,1259,1541,0,0
42,-517,0,0,0,0,0,0,0,0,0,-1,1266,1541,0,0
49,-517,0,0,0,0,0,0,0,0,0,-1,1273,1541,0,0
56,-517,0,0,0,0,0,0,0,0,0,-1,1280,1541,0,0
63,-517,0,0,0,0,0,0,0,0,0,-1,1287,1541,0,0
70,-517,0,0,0,0,0,0,0,0,0,-1,1294,1541,0,0
77,-517,0,0,0,0,0,0,0,0,0,-1,1301,1541,0,0
84,-517,0,0,0,0,0,0,0,0,0,-1,1308,1541,0,0
91,-517,0,0,0,0,0,0,0,0,0,-1,1315,1541,0,0
98,-517,0,0,0,0,0,0,0,0,0,-1,1322,1541,0,0
105,-517,0,0,0,0,0,0,0,0,0,-1,1329,1541,0,0
112,-517,0,0,0,0,0,0,0,0,0,-1,1336,1541,0,0
119,-517,0,0,0,0,0,0,0,0,0,-1,1343,1541,0,0
126,-517,0,0,0,0,0,0,0,0,0,-1,1350,1541,0,0
133,-517,0,0,0,0,0,0,0,0,0,-1,1357,1541,0,0
140,-517,0,0,0,0,0,0,0,0,0,-1,1364,1541,0,0
147,-517,0,0,0,0,0,0,0,0,0,-1,1371,1541,0,0
154,-517,0,0,0,0,0,0,0,0,0,-1,1378,1541,0,0
161,-517,0,0,0,0,0,0,0,0,0,-1,1385,1541,0,0
168,-517,0,0,0,0,0,0,0,0,0,-1,1392,1541,0,0
175,-517,0,0,0,0,0,0,0,0,0,-1,1399,1541,0,0
182,-517,0,0,0,0,0,0,0,0,0,-1,1406,1541,0,0
189,-517,0,0,0,0,0,0,0,0,0,-1,1413,1541,0,0
196,-517,0,0,0,0,0,0,0,0,0,-1,1420,1541,0,0
203,-517,0,0,0,0,0,0,0,0,0,-1,1427,1541,0,0
210,-517,0,0,0,0,0,0,0,0,0,-1,1434,1541,0,0
217,-517,0,0,0,0,0,0,0,0,0,-1,1441,1541,0,0
224,-517,0,0,0,0,0,0,0,0,0,-1,1448,1541,0,0
231,-517,0,0,0,0,0,0,0,0,0,-1,1455,1541,0,0
238,-517,0,0,0,0,0,0,0,0,0,-1,1462,1541,0,0
245,-517,0,0,0,0,0,0,0,0,0,-1,1469,1541,0,0
252,-517,0,0,0,0,0,0,0,0,0,-1,1476,1541,0,0
259,-517,0,0,0,0,0,0,0,0,0,-1,1483,1541,0,0
266,-517,0,0,0,0,0,0,0,0,0,-1,1490,1541,0,0
273,-517,0,0,0,0,0,0,0,0,0,-1,1497,1541,0,0
280,-517,0,0,0,0,0,0,0,0,0,-1,1504,1541,0,0
287,-517,0,0,0,0,0,0,0,0,0,-1,1511,1541,0,0
294,-517,0,0,0,0,0,0,0,0,0,-1,1518,1541,0,0
301,-517,0,0,0,0,0,0,0,0,0,-1,1525,1541,0,0
308,-517,0,0,0,0,0,0,0,0,0,-1,1532,1541,0,0
315,-517,0,0,0,0,0,0,0,0,0,-1,1539,1541,0,0
322,-517,0,0,0,0,0,0,0,0,0,-1,1546,1541,0,0
329,-517,0,0,0,0,0,0,0,0,0,-1,1553,1541,0,0
336,-517,0,0,0,0,0,0,0,0,0,-1,1560,1541,0,0
343,-517,0,0,0,0,0,0,0,0,0,-1,1567,1541,0,0
350,-517,0,0,0,0,0,0,0,0,0,-1,1574,1541,0,0
357,-517,0,0,0,0,0,0,0,0,0,-1,1581,1541,0,0
364,-517,0,0,0,0,0,0,0,0,0,-1,1588,1541,0,0
371,-517,0,0,0,0,0,0,0,0,0,-1,1595,1541,0,0
378,-517,0,0,0,0,0,0,0,0,0,-1,1602,1541,0,0
385,-517,0,0,0,0,0,0,0,0,0,-1,1609,1541,0,0
392,-517,0,0,0,0,0,0,0,0,0,-1,1616,1541,0,0
399,-517,0,0,0,0,0,0,0,0,0,-1,1623,1541,0,0
406,-517,12.1469,6.22412,0,0,0,0,0,0,0,-1,1630,1541,12.1468,-6.22408
413,-517,12.2695,6.3324,0,0,0,0,0,0,0,-1,1637,1541,12.2696,-6.33243
420,-517,12.4789,6.20337,0,0,0,0,0,0,0,-1,1644,1541,12.4789,-6.20333
427,-517,11.647,4.66516,0,0,0,0,0,0,0,-1,1651,1541,11.647,-4.66519
434,-517,12.3719,3.92773,0,0,0,0,0,0,0,-1,1658,1541,12.3719,-3.92776
441,-517,13.146,3.14124,0,0,0,0,0,0,0,-1,1665,1541,13.146,-3.14121
448,-517,13.8861,2.36682,0,0,0,0,0,0,0,-1,1672,1541,13.8861,-2.36684
455,-517,13.6012,4.06335,0,0,0,0,0,0,0,-1,1679,1541,13.6012,-4.06335
462,-517,14.8956,7.0752,0,0,0,0,0,0,0,-1,1686,1541,14.8956,-7.07525
469,-517,14.3939,7.823,0,0,0,0,0,0,0,-1,1693,1541,14.3939,-7.82296
476,-517,13.8374,8.68164,0,0,0,0,0,0,0,-1,1700,1541,13.8374,-8.68166
483,-517,13.4521,9.30945,0,0,0,0,0,0,0,-1,1707,1541,13.4522,-9.3095
490,-517,11.1891,11.3939,0,0,0,0,0,0,0,-1,1714,1541,11.1891,-11.3939
497,-517,10.8203,11.3715,-0.05061,-0.034676,0.0474963,0.00551689,-0.0908029,0.868494,0.0624555,0.0447292,1721,1541,10.8203,-11.3714
504,-517,10.443,11.45,-0.0436516,-0.0286409,0.0403829,0.00492821,-0.0772207,0.877277,0.0531993,0.0383391,1728,1541,10.443,-11.4499
511,-517,10.1841,11.504,-0.0358508,-0.0231514,0.0324258,0.00354055,-0.0625428,0.882086,0.0429241,0.0360212,1735,1541,10.1841,-11.504
518,-517,9.98975,11.2404,-0.0286779,-0.018092,0.0252194,0.00238387,-0.0491538,0.888835,0.033592,0.0249498,1742,1541,9.9897,-11.2403
525,-517,9.97144,10.9764,-0.022305,-0.013854,0.019046,0.00142958,-0.0375886,0.894558,0.0255489,0.0117221,1749,1541,9.97145,-10.9764
532,-517,9.99683,10.7476,-0.0167668,-0.010273,0.0138685,0.000723639,-0.0277635,0.900386,0.0187548,0.0102396,1756,1541,9.99685,-10.7475
539,-517,10.0052,10.512,-0.0118643,-0.00699552,0.00940801,0.000287973,-0.0191478,0.911999,0.0128622,0.0113038,1763,1541,10.0052,-10.512
546,-517,9.98633,10.2982,-0.007748,-0.00442437,0.00600435,0.000143895,-0.0123163,0.920403,0.00825923,0.0121162,1770,1541,9.98636,-10.2982
553,-517,9.97778,10.0798,-0.00419249,-0.00239678,0.00320893,3.75307e-05,-0.00662681,0.921809,0.00443043,0.0147752,1777,1541,9.97773,-10.0798
560,-517,9.9679,9.87415,-0.00131747,-0.000681332,0.0012305,0.000271546,-0.00227035,0.911873,0.00161172,0.0143575,1784,1541,9.9679,-9.87418
567,-517,9.96277,9.6665,0.0010082,0.000906135,-0.000353024,0.00131386,0.000600474,-0.713615,0.000759491,0.0122347,1791,1541,9.96278,-9.66654
574,-517,9.96948,9.42969,0.00289116,0.00237425,-0.00158528,0.00423891,0.0010265,-0.704591,0.0025535,0.0130358,1798,1541,9.96944,-9.42972
581,-517,9.93909,9.21497,0.00420939,0.00367511,-0.00244426,0.00640107,0.00148344,-0.730968,0.00386889,0.0142329,1805,1541,9.93909,-9.21493
588,-517,9.94116,8.99622,0.00544545,0.00496333,-0.00332546,0.00853858,0.0018702,-0.749216,0.00518271,0.0157476,1812,1541,9.94114,-8.9962
595,-517,9.98962,8.74915,0.00643201,0.00624604,-0.00412234,0.0104624,0.00221563,-0.774122,0.00636624,0.0184818,1819,1541,9.98963,-8.74913
602,-517,9.95459,8.48047,0.00728986,0.00756767,-0.00480724,0.012238,0.00261952,-0.799842,0.00744082,0.0228756,1826,1541,9.95455,-8.48048
609,-517,10.1869,8.34131,0.00787195,0.00896912,-0.00529541,0.0137443,0.00309678,-0.837012,0.00832486,0.0398563,1833,1541,10.1868,-8.34132
616,-517,10.5862,8.00598,0,0,0,0,0,0,0,-1,1840,1541,10.5861,-8.00595
623,-517,11.0588,7.47705,0,0,0,0,0,0,0,-1,1847,1541,11.0588,-7.47702
630,-517,9.21375,7.09631,0,0,0,0,0,0,0,-1,1854,1541,9.21373,-7.09628
637,-517,11.5172,5.79822,0,0,0,0,0,0,0,-1,1861,1541,11.5173,-5.79825
644,-517,11.4232,3.30579,0,0,0,0,0,0,0,-1,1868,1541,11.4232,-3.30574
651,-517,0,0,0,0,0,0,0,0,0,-1,1875,1541,0,0
658,-517,0,0,0,0,0,0,0,0,0,-1,1882,1541,0,0
665,-517,0,0,0,0,0,0,0,0,0,-1,1889,1541,0,0
672,-517,0,0,0,0,0,0,0,0,0,-1,1896,1541,0,0
679,-517,0,0,0,0,0,0,0,0,0,-1,1903,1541,0,0
686,-517,0,0,0,0,0,0,0,0,0,-1,1910,1541,0,0
693,-517,0,0,0,0,0,0,0,0,0,-1,1917,1541,0,0
700,-517,0,0,0,0,0,0,0,0,0,-1,1924,1541,0,0
707,-517,0,0,0,0,0,0,0,0,0,-1,1931,1541,0,0
714,-517,0,0,0,0,0,0,0,0,0,-1,1938,1541,0,0
721,-517,0,0,0,0,0,0,0,0,0,-1,1945,1541,0,0
728,-517,0,0,0,0,0,0,0,0,0,-1,1952,1541,0,0
735,-517,0,0,0,0,0,0,0,0,0,-1,1959,1541,0,0
742,-517,0,0,0,0,0,0,0,0,0,-1,1966,1541,0,0
749,-517,0,0,0,0,0,0,0,0,0,-1,1973,1541,0,0
756,-517,0,0,0,0,0,0,0,0,0,-1,1980,1541,0,0
763,-517,0,0,0,0,0,0,0,0,0,-1,1987,1541,0,0
770,-517,0,0,0,0,0,0,0,0,0,-1,1994,1541,0,0
777,-517,0,0,0,0,0,0,0,0,0,-1,2001,1541,0,0
784,-517,0,0,0,0,0,0,0,0,0,-1,2008,1541,0,0
791,-517,0,0,0,0,0,0,0,0,0,-1,2015,1541,0,0
798,-517,0,0,0,0,0,0,0,0,0,-1,2022,1541,0,0
805,-517,0,0,0,0,0,0,0,0,0,-1,2029,1541,0,0
812,-517,0,0,0,0,0,0,0,0,0,-1,2036,1541,0,0
-700,-524,0,0,0,0,0,0,0,0,0,-1,524,1548,0,0
-693,-524,0,0,0,0,0,0,0,0,0,-1,531,1548,0,0
-686,-524,0,0,0,0,0,0,0,0,0,-1,538,1548,0,0
-679,-524,0,0,0,0,0,0,0,0,0,-1,545,1548,0,0
-672,-524,0,0,0,0,0,0,0,0,0,-1,552,1548,0,0
-665,-524,0,0,0,0,0,0,0,0,0,-1,559,1548,0,0
-658,-524,0,0,0,0,0,0,0,0,0,-1,566,1548,0,0
-651,-524,0,0,0,0,0,0,0,0,0,-1,573,1548,0,0
-644,-524,0,0,0,0,0,0,0,0,0,-1,580,1548,0,0
-637,-524,0,0,0,0,0,0,0,0,0,-1,587,1548,0,0
-630,-524,0,0,0,0,0,0,0,0,0,-1,594,1548,0,0
-623,-524,0,0,0,0,0,0,0,0,0,-1,601,1548,0,0
-616,-524,0,0,0,0,0,0,0,0,0,-1,608,1548,0,0
-609,-524,0,0,0,0,0,0,0,0,0,-1,615,1548,0,0
-602,-524,0,0,0,0,0,0,0,0,0,-1,622,1548,0,0
-595,-524,0,0,0,0,0,0,0,0,0,-1,629,1548,0,0
-588,-524,0,0,0,0,0,0,0,0,0,-1,636,1548,0,0
-581,-524,0,0,0,0,0,0,0,0,0,-1,643,1548,0,0
-574,-524,0,0,0,0,0,0,0,0,0,-1,650,1548,0,0
-567,-524,0,0,0,0,0,0,0,0,0,-1,657,1548,0,0
-560,-524,0,0,0,0,0,0,0,0,0,-1,664,1548,0,0
-553,-524,0,0,0,0,0,0,0,0,0,-1,671,1548,0,0
-546,-524,0,0,0,0,0,0,0,0,0,-1,678,1548,0,0
-539,-524,0,0,0,0,0,0,0,0,0,-1,685,1548,0,0
-532,-524,0,0,0,0,0,0,0,0,0,-1,692,1548,0,0
-525,-524,-0.215515,3.97131,0,0,0,0,0,0,0,-1,699,1548,-0.215501,-3.97136
-518,-524,-0.806274,4.35632,0,0,0,0,0,0,0,-1,706,1548,-0.806259,-4.35633
-511,-524,-1.08301,4.29004,0,0,0,0,0,0,0,-1,713,1548,-1.08301,-4.29006
-504,-524,-1.28821,3.98145,0,0,0,0,0,0,0,-1,720,1548,-1.28822,-3.98151
-497,-524,-0.890625,6.05981,0,0,0,0,0,0,0,-1,727,1548,-0.890655,-6.05981
-490,-524,-0.740967,6.3512,0.0320085,0.0177495,0.0151314,0.0416058,0.00815211,0.565237,0.0254587,0.0434662,734,1548,-0.74094,-6.35125
-483,-524,-0.503357,6.5885,0.021931,0.0143396,0.0117431,0.0304766,0.00579394,0.629083,0.0186883,0.0455269,741,1548,-0.503345,-6.58854
-476,-524,-0.389282,6.74207,0.0146215,0.0114199,0.00910644,0.0222668,0.00377462,0.698392,0.01376,0.0422668,748,1548,-0.389264,-6.7421
-469,-524,-0.351624,6.94312,0.00946251,0.00937957,0.00677657,0.0161977,0.00264434,0.782338,0.0100339,0.0305761,755,1548,-0.351614,-6.94315
-462,-524,-0.348694,7.27673,0.00544013,0.00747154,0.00517873,0.0117332,0.00117845,0.882234,0.00746043,0.0238883,762,1548,-0.348686,-7.27669
-455,-524,-0.380615,7.49109,0.00324116,0.00573106,0.00383556,0.00851866,0.000453565,0.942325,0.00553412,0.016531,769,1548,-0.380644,-7.49113
-448,-524,-0.361389,7.724,0.00258499,0.00455684,0.00297345,0.00670356,0.000438267,0.945483,0.00433035,0.0122059,776,1548,-0.361359,-7.72402
-441,-524,-0.360596,7.94409,0.0023559,0.00347046,0.00228071,0.00526099,0.000565367,0.905222,0.00333488,0.0110902,783,1548,-0.360618,-7.94408
-434,-524,-0.316345,8.19287,0.00217212,0.00245171,0.00152177,0.00384009,0.000783732,0.831201,0.00234293,0.0124721,790,1548,-0.31636,-8.19293
-427,-524,-0.315063,8.44739,0.0022705,0.00120776,0.00101811,0.00288756,0.000590696,0.544883,0.00176147,0.0127023,797,1548,-0.31508,-8.44742
-420,-524,-0.354431,8.71472,0.0026197,0.000106212,0.000566697,0.00274156,-1.56485e-05,0.211811,0.00183295,0.0103611,804,1548,-0.354431,-8.71468
-413,-524,-0.353394,8.96936,0.0027849,-0.00118557,-4.09908e-05,0.00278533,-0.001186,-0.0103224,0.00235401,0.0100757,811,1548,-0.35338,-8.9693
-406,-524,-0.354004,9.21265,0.00282596,-0.0025899,-0.000764919,0.00293193,-0.00269587,-0.13765,0.00325016,0.0109108,818,1548,-0.35403,-9.21264
-399,-524,-0.356628,9.45081,0.00285701,-0.00410604,-0.00154068,0.00318268,-0.00443171,-0.208313,0.00441584,0.00916135,825,1548,-0.356627,-9.45083
-392,-524,-0.347595,9.67725,0.00278269,-0.00558082,-0.00237472,0.00340992,-0.00620805,-0.258232,0.00563073,0.00992808,832,1548,-0.347599,-9.6773
-385,-524,-0.344849,9.9281,0.00269146,-0.00675812,-0.00329671,0.00372791,-0.00779457,-0.304606,0.00678921,0.0120441,839,1548,-0.344839,-9.92811
-378,-524,-0.318787,10.2974,0.00273287,-0.00776486,-0.00421891,0.00421823,-0.00925022,-0.33852,0.00795486,0.0227642,846,1548,-0.318767,-10.2973
-371,-524,-0.213318,10.5073,0.00264493,-0.00886296,-0.00525028,0.00468029,-0.0108983,-0.36983,0.00923005,0.0458143,853,1548,-0.213336,-10.5074
-364,-524,-0.336792,10.3822,0.00263539,-0.00953045,-0.00625474,0.00527736,-0.0121724,-0.399662,0.0103335,0.0455512,860,1548,-0.33681,-10.3822
-357,-524,-0.491821,10.4417,0,0,0,0,0,0,0,-1,867,1548,-0.491848,-10.4416
-350,-524,-0.889221,10.2228,0,0,0,0,0,0,0,-1,874,1548,-0.889197,-10.2227
-343,-524,-1.2887,6.94836,0,0,0,0,0,0,0,-1,881,1548,-1.28868,-6.94831
-336,-524,-0.817383,11.87,0,0,0,0,0,0,0,-1,888,1548,-0.817363,-11.87
-329,-524,0.0491943,11.8018,0,0,0,0,0,0,0,-1,895,1548,0.0491943,-11.8018
-322,-524,0.915771,11.7336,0,0,0,0,0,0,0,-1,902,1548,0.915752,-11.7336
-315,-524,-0.988525,9.54456,0,0,0,0,0,0,0,-1,909,1548,-0.988536,-9.54449
-308,-524,-1.32727,7.03796,0,0,0,0,0,0,0,-1,916,1548,-1.3273,-7.038
-301,-524,-1.45227,7.98669,0,0,0,0,0,0,0,-1,923,1548,-1.45227,-7.98669
-294,-524,-1.52515,9.05408,0,0,0,0,0,0,0,-1,930,1548,-1.52512,-9.05411
-287,-524,-1.52618,9.99182,0,0,0,0,0,0,0,-1,937,1548,-1.52619,-9.99178
-280,-524,-1.6156,10.4597,0,0,0,0,0,0,0,-1,944,1548,-1.6156,-10.4597
-273,-524,0,0,0,0,0,0,0,0,0,-1,951,1548,0,0
-266,-524,0,0,0,0,0,0,0,0,0,-1,958,1548,0,0
-259,-524,0,0,0,0,0,0,0,0,0,-1,965,1548,0,0
-252,-524,0,0,0,0,0,0,0,0,0,-1,972,1548,0,0
-245,-524,0,0,0,0,0,0,0,0,0,-1,979,1548,0,0
-238,-524,0,0,0,0,0,0,0,0,0,-1,986,1548,0,0
-231,-524,0,0,0,0,0,0,0,0,0,-1,993,1548,0,0
-224,-524,0,0,0,0,0,0,0,0,0,-1,1000,1548,0,0
-217,-524,0,0,0,0,0,0,0,0,0,-1,1007,1548,0,0
-210,-524,0,0,0,0,0,0,0,0,0,-1,1014,1548,0,0
-203,-524,0,0,0,0,0,0,0,0,0,-1,1021,1548,0,0
-196,-524,0,0,0,0,0,0,0,0,0,-1,1028,1548,0,0
-189,-524,0,0,0,0,0,0,0,0,0,-1,1035,1548,0,0
-182,-524,0,0,0,0,0,0,0,0,0,-1,1042,1548,0,0
-175,-524,0,0,0,0,0,0,0,0,0,-1,1049,1548,0,0
-168,-524,0,0,0,0,0,0,0,0,0,-1,1056,1548,0,0
-161,-524,0,0,0,0,0,0,0,0,0,-1,1063,1548,0,0
-154,-524,0,0,0,0,0,0,0,0,0,-1,1070,1548,0,0
-147,-524,0,0,0,0,0,0,0,0,0,-1,1077,1548,0,0
-140,-524,0,0,0,0,0,0,0,0,0,-1,1084,1548,0,0
-133,-524,0,0,0,0,0,0,0,0,0,-1,1091,1548,0,0
-126,-524,0,0,0,0,0,0,0,0,0,-1,1098,1548,0,0
-119,-524,0,0,0,0,0,0,0,0,0,-1,1105,1548,0,0
-112,-524,0,0,0,0,0,0,0,0,0,-1,1112,1548,0,0
-105,-524,0,0,0,0,0,0,0,0,0,-1,1119,1548,0,0
-98,-524,0,0,0,0,0,0,0,0,0,-1,1126,1548,0,0
-91,-524,0,0,0,0,0,0,0,0,0,-1,1133,1548,0,0
-84,-524,0,0,0,0,0,0,0,0,0,-1,1140,1548,0,0
-77,-524,0,0,0,0,0,0,0,0,0,-1,1147,1548,0,0
-70,-524,0,0,0,0,0,0,0,0,0,-1,1154,1548,0,0
-63,-524,0,0,0,0,0,0,0,0,0,-1,1161,1548,0,0
-56,-524,0,0,0,0,0,0,0,0,0,-1,1168,1548,0,0
-49,-524,0,0,0,0,0,0,0,0,0,-1,1175,1548,0,0
-42,-524,0,0,0,0,0,0,0,0,0,-1,1182,1548,0,0
-35,-524,0,0,0,0,0,0,0,0,0,-1,1189,1548,0,0
-28,-524,0,0,0,0,0,0,0,0,0,-1,1196,1548,0,0
-21,-524,0,0,0,0,0,0,0,0,0,-1,1203,1548,0,0
-14,-524,0,0,0,0,0,0,0,0,0,-1,1210,1548,0,0
-7,-524,0,0,0,0,0,0,0,0,0,-1,1217,1548,0,0
0,-524,0,0,0,0,0,0,0,0,0,-1,1224,1548,0,0
7,-524,0,0,0,0,0,0,0,0,0,-1,1231,1548,0,0
14,-524,0,0,0,0,0,0,0,0,0,-1,1238,1548,0,0
21,-524,0,0,0,0,0,0,0,0,0,-1,1245,1548,0,0
28,-524,0,0,0,0,0,0,0,0,0,-1,1252,1548,0,0
35,-524,0,0,0,0,0,0,0,0,0,-1,1259,1548,0,0
42,-524,0,0,0,0,0,0,0,0,0,-1,1266,1548,0,0
49,-524,0,0,0,0,0,0,0,0,0,-1,1273,1548,0,0
56,-524,0,0,0,0,0,0,0,0,0,-1,1280,1548,0,0
63,-524,0,0,0,0,0,0,0,0,0,-1,1287,1548,0,0
70,-524,0,0,0,0,0,0,0,0,0,-1,1294,1548,0,0
77,-524,0,0,0,0,0,0,0,0,0,-1,1301,1548,0,0
84,-524,0,0,0,0,0,0,0,0,0,-1,1308,1548,0,0
91,-524,0,0,0,0,0,0,0,0,0,-1,1315,1548,0,0
98,-524,0,0,0,0,0,0,0,0,0,-1,1322,1548,0,0
105,-524,0,0,0,0,0,0,0,0,0,-1,1329,1548,0,0
112,-524,0,0,0,0,0,0,0,0,0,-1,1336,1548,0,0
119,-524,0,0,0,0,0,0,0,0,0,-1,1343,1548,0,0
126,-524,0,0,0,0,0,0,0,0,0,-1,1350,1548,0,0
133,-524,0,0,0,0,0,0,0,0,0,-1,1357,1548,0,0
140,-524,0,0,0,0,0,0,0,0,0,-1,1364,1548,0,0
147,-524,0,0,0,0,0,0,0,0,0,-1,1371,1548,0,0
154,-524,0,0,0,0,0,0,0,0,0,-1,1378,1548,0,0
161,-524,0,0,0,0,0,0,0,0,0,-1,1385,1548,0,0
168,-524,0,0,0,0,0,0,0,0,0,-1,1392,1548,0,0
175,-524,0,0,0,0,0,0,0,0,0,-1,1399,1548,0,0
182,-524,0,0,0,0,0,0,0,0,0,-1,1406,1548,0,0
189,-524,0,0,0,0,0,0,0,0,0,-1,1413,1548,0,0
196,-524,0,0,0,0,0,0,0,0,0,-1,1420,1548,0,0
203,-524,0,0,0,0,0,0,0,0,0,-1,1427,1548,0,0
210,-524,0,0,0,0,0,0,0,0,0,-1,1434,1548,0,0
217,-524,0,0,0,0,0,0,0,0,0,-1,1441,1548,0,0
224,-524,0,0,0,0,0,0,0,0,0,-1,1448,1548,0,0
231,-524,0,0,0,0,0,0,0,0,0,-1,1455,1548,0,0
238,-524,0,0,0,0,0,0,0,0,0,-1,1462,1548,0,0
245,-524,0,0,0,0,0,0,0,0,0,-1,1469,1548,0,0
252,-524,0,0,0,0,0,0,0,0,0,-1,1476,1548,0,0
259,-524,0,0,0,0,0,0,0,0,0,-1,1483,1548,0,0
266,-524,0,0,0,0,0,0,0,0,0,-1,1490,1548,0,0
273,-524,0,0,0,0,0,0,0,0,0,-1,1497,1548,0,0
280,-524,0,0,0,0,0,0,0,0,0,-1,1504,1548,0,0
287,-524,0,0,0,0,0,0,0,0,0,-1,1511,1548,0,0
294,-524,0,0,0,0,0,0,0,0,0,-1,1518,1548,0,0
301,-524,0,0,0,0,0,0,0,0,0,-1,1525,1548,0,0
308,-524,0,0,0,0,0,0,0,0,0,-1,1532,1548,0,0
315,-524,0,0,0,0,0,0,0,0,0,-1,1539,1548,0,0
322,-524,0,0,0,0,0,0,0,0,0,-1,1546,1548,0,0
329,-524,0,0,0,0,0,0,0,0,0,-1,1553,1548,0,0
336,-524,0,0,0,0,0,0,0,0,0,-1,1560,1548,0,0
343,-524,0,0,0,0,0,0,0,0,0,-1,1567,1548,0,0
350,-524,0,0,0,0,0,0,0,0,0,-1,1574,1548,0,0
357,-524,0,0,0,0,0,0,0,0,0,-1,1581,1548,0,0
364,-524,0,0,0,0,0,0,0,0,0,-1,1588,1548,0,0
371,-524,0,0,0,0,0,0,0,0,0,-1,1595,1548,0,0
378,-524,0,0,0,0,0,0,0,0,0,-1,1602,1548,0,0
385,-524,0,0,0,0,0,0,0,0,0,-1,1609,1548,0,0
392,-524,0,0,0,0,0,0,0,0,0,-1,1616,1548,0,0
399,-524,8.81848,5.05774,0,0,0,0,0,0,0,-1,1623,1548,8.81843,-5.05769
406,-524,8.64294,6.06799,0,0,0,0,0,0,0,-1,1630,1548,8.6429,-6.06805
413,-524,11.677,6.41858,0,0,0,0,0,0,0,-1,1637,1548,11.677,-6.41864
420,-524,11.4913,6.36401,0,0,0,0,0,0,0,-1,1644,1548,11.4913,-6.36402
427,-524,7.68335,6.17249,0,0,0,0,0,0,0,-1,1651,1548,7.68341,-6.17245
434,-524,10.432,11.6801,0,0,0,0,0,0,0,-1,1658,1548,10.432,-11.68
441,-524,8.78552,4.12305,0,0,0,0,0,0,0,-1,1665,1548,8.78553,-4.12301
448,-524,14.1854,4.78674,0,0,0,0,0,0,0,-1,1672,1548,14.1854,-4.78674
455,-524,12.4784,3.65576,0,0,0,0,0,0,0,-1,1679,1548,12.4784,-3.65572
462,-524,11.9464,4.95581,0,0,0,0,0,0,0,-1,1686,1548,11.9464,-4.95586
469,-524,12.1188,7.98254,0,0,0,0,0,0,0,-1,1693,1548,12.1187,-7.98256
476,-524,11.8457,9.21228,0,0,0,0,0,0,0,-1,1700,1548,11.8458,-9.21226
483,-524,11.6901,10.2135,-0.0453632,-0.0369551,0.0418677,0.000919078,-0.0832374,0.835437,0.0558005,0.044392,1707,1548,11.69,-10.2135
490,-524,10.882,10.6669,-0.0430093,-0.0337305,0.0415967,0.00348472,-0.0802245,0.840935,0.0546816,0.0447604,1714,1548,10.8819,-10.6668
497,-524,9.81543,11.4635,-0.0387471,-0.0292293,0.038051,0.00435926,-0.0723356,0.847608,0.0497405,0.0358154,1721,1548,9.81541,-11.4635
504,-524,9.82922,11.5214,0,0,0,0,0,0,0,-1,1728,1548,9.82921,-11.5213
511,-524,9.73633,11.4327,-0.0272662,-0.0192103,0.0261017,0.00317244,-0.0496489,0.861954,0.0342059,0.0176873,1735,1548,9.73637,-11.4328
518,-524,9.77905,11.1841,-0.0215044,-0.0147131,0.0201383,0.00231377,-0.0385313,0.86892,0.0264925,0.0163397,1742,1548,9.779,-11.1841
525,-524,9.78491,10.9774,-0.0163591,-0.0109606,0.01498,0.00156139,-0.0288811,0.874537,0.019795,0.0137375,1749,1548,9.78487,-10.9775
532,-524,9.78796,10.7507,-0.0118648,-0.00779794,0.0105992,0.000961139,-0.0206239,0.880171,0.0140806,0.00962201,1756,1548,9.78799,-10.7507
539,-524,9.78333,10.5117,-0.00783582,-0.0049178,0.00679219,0.000570321,-0.0133239,0.891194,0.00907871,0.010413,1763,1548,9.78337,-10.5117
546,-524,9.76221,10.2941,-0.00443748,-0.00268082,0.00387669,0.000415792,-0.00753409,0.896801,0.00516691,0.0140508,1770,1548,9.76222,-10.2941
553,-524,9.76733,10.0974,-0.00147518,-0.000905488,0.00150211,0.000338547,-0.00271921,0.879101,0.00193555,0.0217504,1777,1548,9.7673,-10.0974
560,-524,9.76453,9.849,0.000936513,0.000647846,-0.000188192,0.00102935,0.000555012,-0.458268,0.000594901,0.0283189,1784,1548,9.76454,-9.84906
567,-524,9.74207,9.6499,0.00289399,0.00209048,-0.00153914,0.00408294,0.000901529,-0.657734,0.00247676,0.0163492,1791,1548,9.74201,-9.64992
574,-524,9.75281,9.41687,0.00451337,0.00344044,-0.00262464,0.00665582,0.001298,-0.684588,0.00407406,0.0117507,1798,1548,9.75277,-9.41689
581,-524,9.7467,9.18701,0.00589281,0.00482348,-0.00358534,0.00898314,0.00173316,-0.711381,0.00550278,0.013527,1805,1548,9.74664,-9.18707
588,-524,9.75537,8.95483,0.00734,0.00638932,-0.00464072,0.0115297,0.00219966,-0.734362,0.00706825,0.0157678,1812,1548,9.75542,-8.95487
595,-524,9.76099,8.70752,0.00872581,0.00811222,-0.00574327,0.0141705,0.00266756,-0.758715,0.00869527,0.0169469,1819,1548,9.76101,-8.70748
602,-524,9.85645,8.42456,0.010064,0.0100108,-0.00682406,0.0168615,0.00321328,-0.783448,0.0103377,0.0312759,1826,1548,9.85648,-8.42451
609,-524,10.0208,8.07117,0.0112245,0.0122165,-0.00781673,0.019553,0.00388807,-0.817082,0.011952,0.0463826,1833,1548,10.0208,-8.07113
616,-524,10.3292,7.90015,0,0,0,0,0,0,0,-1,1840,1548,10.3292,-7.90011
623,-524,9.38452,5.15356,0,0,0,0,0,0,0,-1,1847,1548,9.38456,-5.15359
630,-524,11.0541,3.57434,0,0,0,0,0,0,0,-1,1854,1548,11.0541,-3.57438
637,-524,11.6067,3.20728,0,0,0,0,0,0,0,-1,1861,1548,11.6067,-3.20724
644,-524,12.2134,0.727173,0,0,0,0,0,0,0,-1,1868,1548,12.2134,-0.727222
651,-524,0,0,0,0,0,0,0,0,0,-1,1875,1548,0,0
658,-524,0,0,0,0,0,0,0,0,0,-1,1882,1548,0,0
665,-524,0,0,0,0,0,0,0,0,0,-1,1889,1548,0,0
672,-524,0,0,0,0,0,0,0,0,0,-1,1896,1548,0,0
679,-524,0,0,0,0,0,0,0,0,0,-1,1903,1548,0,0
686,-524,0,0,0,0,0,0,0,0,0,-1,1910,1548,0,0
693,-524,0,0,0,0,0,0,0,0,0,-1,1917,1548,0,0
700,-524,0,0,0,0,0,0,0,0,0,-1,1924,1548,0,0
707,-524,0,0,0,0,0,0,0,0,0,-1,1931,1548,0,0
714,-524,0,0,0,0,0,0,0,0,0,-1,1938,1548,0,0
721,-524,0,0,0,0,0,0,0,0,0,-1,1945,1548,0,0
728,-524,0,0,0,0,0,0,0,0,0,-1,1952,1548,0,0
735,-524,0,0,0,0,0,0,0,0,0,-1,1959,1548,0,0
742,-524,0,0,0,0,0,0,0,0,0,-1,1966,1548,0,0
749,-524,0,0,0,0,0,0,0,0,0,-1,1973,1548,0,0
756,-524,0,0,0,0,0,0,0,0,0,-1,1980,1548,0,0
763,-524,0,0,0,0,0,0,0,0,0,-1,1987,1548,0,0
770,-524,0,0,0,0,0,0,0,0,0,-1,1994,1548,0,0
777,-524,0,0,0,0,0,0,0,0,0,-1,2001,1548,0,0
784,-524,0,0,0,0,0,0,0,0,0,-1,2008,1548,0,0
791,-524,0,0,0,0,0,0,0,0,0,-1,2015,1548,0,0
798,-524,0,0,0,0,0,0,0,0,0,-1,2022,1548,0,0
805,-524,0,0,0,0,0,0,0,0,0,-1,2029,1548,0,0
812,-524,0,0,0,0,0,0,0,0,0,-1,2036,1548,0,0
-700,-531,0,0,0,0,0,0,0,0,0,-1,524,1555,0,0
-693,-531,0,0,0,0,0,0,0,0,0,-1,531,1555,0,0
-686,-531,0,0,0,0,0,0,0,0,0,-1,538,1555,0,0
-679,-531,0,0,0,0,0,0,0,0,0,-1,545,1555,0,0
-672,-531,0,0,0,0,0,0,0,0,0,-1,552,1555,0,0
-665,-531,0,0,0,0,0,0,0,0,0,-1,559,1555,0,0
-658,-531,0,0,0,0,0,0,0,0,0,-1,566,1555,0,0
-651,-531,0,0,0,0,0,0,0,0,0,-1,573,1555,0,0
-644,-531,0,0,0,0,0,0,0,0,0,-1,580,1555,0,0
-637,-531,0,0,0,0,0,0,0,0,0,-1,587,1555,0,0
-630,-531,0,0,0,0,0,0,0,0,0,-1,594,1555,0,0
-623,-531,0,0,0,0,0,0,0,0,0,-1,601,1555,0,0
-616,-531,0,0,0,0,0,0,0,0,0,-1,608,1555,0,0
-609,-531,0,0,0,0,0,0,0,0,0,-1,615,1555,0,0
-602,-531,0,0,0,0,0,0,0,0,0,-1,622,1555,0,0
-595,-531,0,0,0,0,0,0,0,0,0,-1,629,1555,0,0
-588,-531,0,0,0,0,0,0,0,0,0,-1,636,1555,0,0
-581,-531,0,0,0,0,0,0,0,0,0,-1,643,1555,0,0
-574,-531,0,0,0,0,0,0,0,0,0,-1,650,1555,0,0
-567,-531,0,0,0,0,0,0,0,0,0,-1,657,1555,0,0
-560,-531,0,0,0,0,0,0,0,0,0,-1,664,1555,0,0
-553,-531,0,0,0,0,0,0,0,0,0,-1,671,1555,0,0
-546,-531,0,0,0,0,0,0,0,0,0,-1,678,1555,0,0
-539,-531,0,0,0,0,0,0,0,0,0,-1,685,1555,0,0
-532,-531,0,0,0,0,0,0,0,0,0,-1,692,1555,0,0
-525,-531,0,0,0,0,0,0,0,0,0,-1,699,1555,0,0
-518,-531,-1.63983,4.03821,0,0,0,0,0,0,0,-1,706,1555,-1.63982,-4.03821
-511,-531,-2.9682,8.07483,0,0,0,0,0,0,0,-1,713,1555,-2.9682,-8.07479
-504,-531,-2.95978,0.557861,0,0,0,0,0,0,0,-1,720,1555,-2.95978,-0.557917
-497,-531,-1.22644,6.35693,0,0,0,0,0,0,0,-1,727,1555,-1.22646,-6.3569
-490,-531,-1.16266,6.19287,0.0353257,0.0237149,0.0192774,0.0496529,0.00938778,0.639142,0.0304588,0.0451463,734,1555,-1.16264,-6.19288
-483,-531,-0.840515,6.17883,0.0245765,0.0194288,0.0150808,0.0373015,0.00670375,0.700879,0.0229617,0.0445375,741,1555,-0.840508,-6.1788
-476,-531,-0.255981,6.79932,0,0,0,0,0,0,0,-1,748,1555,-0.255979,-6.79931
-469,-531,-0.139099,6.96729,0.0115614,0.0128626,0.00899729,0.0212328,0.00319121,0.82149,0.0132205,0.0448623,755,1555,-0.139079,-6.96723
-462,-531,-0.154968,7.41101,0.0071639,0.0104381,0.00699877,0.0159887,0.0016133,0.900288,0.0101641,0.0390223,762,1555,-0.154984,-7.41095
-455,-531,-0.134521,7.58752,0.00461428,0.00828585,0.00534856,0.0121049,0.000795221,0.950714,0.00781836,0.0253245,769,1555,-0.134539,-7.58754
-448,-531,-0.0879517,7.72339,0.00352676,0.00672878,0.00418956,0.00961282,0.000642729,0.967907,0.00620541,0.0122311,776,1555,-0.087942,-7.72342
-441,-531,-0.118286,7.94421,0.00293204,0.00531017,0.00326424,0.00759517,0.000647038,0.960063,0.00486214,0.0114841,783,1555,-0.118297,-7.94421
-434,-531,-0.105164,8.20605,0.0024133,0.00410804,0.00233111,0.00574102,0.000780324,0.959726,0.00359557,0.0106336,790,1555,-0.105171,-8.20609
-427,-531,-0.0762939,8.46387,0.00221577,0.00272508,0.00172106,0.00421022,0.000730629,0.858847,0.00259775,0.0120877,797,1555,-0.0762959,-8.46381
-420,-531,-0.0979614,8.72742,0.00233171,0.0015949,0.00122672,0.00324415,0.000682464,0.639524,0.00197498,0.0114082,804,1555,-0.0979595,-8.72741
-413,-531,-0.116272,8.97571,0.00231874,0.000338416,0.000592517,0.00248248,0.000174673,0.269623,0.00159995,0.00996948,811,1555,-0.116261,-8.97571
-406,-531,-0.11676,9.21619,0.00221462,-0.00100696,-0.000109158,0.00221831,-0.00101065,-0.0338317,0.00190721,0.0111658,818,1555,-0.116785,-9.21618
-399,-531,-0.109253,9.47095,0.0020788,-0.00241137,-0.000856244,0.00223654,-0.00256911,-0.182179,0.00277675,0.0131458,825,1555,-0.109255,-9.47092
-392,-531,-0.112122,9.6886,0.00191177,-0.00369057,-0.00159772,0.00233539,-0.00411418,-0.259176,0.00377058,0.016766,832,1555,-0.112101,-9.68857
-385,-531,-0.121765,9.90149,0.00179137,-0.00463012,-0.00237765,0.00257588,-0.00541464,-0.318706,0.00470937,0.014072,839,1555,-0.121789,-9.90144
-378,-531,-0.122375,10.1475,0.00183696,-0.00531502,-0.00308734,0.0029853,-0.00646337,-0.356098,0.00557703,0.0114946,846,1555,-0.12235,-10.1475
-371,-531,-0.0900879,10.4614,0.00180262,-0.00598156,-0.00386471,0.00339545,-0.00757438,-0.390934,0.00648482,0.0169647,853,1555,-0.090101,-10.4614
-364,-531,-0.0420532,10.6892,0.00187866,-0.00629576,-0.00456945,0.00392212,-0.00833922,-0.420524,0.00723059,0.0342183,860,1555,-0.0420635,-10.6892
-357,-531,-0.320496,10.7314,0.00205488,-0.00514846,-0.00465949,0.00434242,-0.00743601,-0.456376,0.00687802,0.0402097,867,1555,-0.320467,-10.7314
-350,-531,-0.165039,11.0791,0,0,0,0,0,0,0,-1,874,1555,-0.165069,-11.0791
-343,-531,-0.213501,11.424,0,0,0,0,0,0,0,-1,881,1555,-0.21353,-11.424
-336,-531,-0.369873,12.0902,0,0,0,0,0,0,0,-1,888,1555,-0.369867,-12.0902
-329,-531,0.322144,11.9146,0,0,0,0,0,0,0,-1,895,1555,0.322119,-11.9146
-322,-531,1.0141,11.739,0,0,0,0,0,0,0,-1,902,1555,1.0141,-11.7391
-315,-531,-0.598206,11.3984,0,0,0,0,0,0,0,-1,909,1555,-0.598178,-11.3985
-308,-531,-1.40149,9.85437,0,0,0,0,0,0,0,-1,916,1555,-1.40151,-9.85436
-301,-531,1.09106,13.2982,0,0,0,0,0,0,0,-1,923,1555,1.09104,-13.2982
-294,-531,-1.3244,8.1825,0,0,0,0,0,0,0,-1,930,1555,-1.3244,-8.18251
-287,-531,-1.41095,9.08215,0,0,0,0,0,0,0,-1,937,1555,-1.41095,-9.08216
-280,-531,-1.77509,9.93176,0,0,0,0,0,0,0,-1,944,1555,-1.77506,-9.93171
-273,-531,-5.5531,14.6454,0,0,0,0,0,0,0,-1,951,1555,-5.5531,-14.6454
-266,-531,-6.7038,16.0303,0,0,0,0,0,0,0,-1,958,1555,-6.7038,-16.0303
-259,-531,0,0,0,0,0,0,0,0,0,-1,965,1555,0,0
-252,-531,0,0,0,0,0,0,0,0,0,-1,972,1555,0,0
-245,-531,0,0,0,0,0,0,0,0,0,-1,979,1555,0,0
-238,-531,0,0,0,0,0,0,0,0,0,-1,986,1555,0,0
-231,-531,0,0,0,0,0,0,0,0,0,-1,993,1555,0,0
-224,-531,0,0,0,0,0,0,0,0,0,-1,1000,1555,0,0
-217,-531,0,0,0,0,0,0,0,0,0,-1,1007,1555,0,0
-210,-531,0,0,0,0,0,0,0,0,0,-1,1014,1555,0,0
-203,-531,0,0,0,0,0,0,0,0,0,-1,1021,1555,0,0
-196,-531,0,0,0,0,0,0,0,0,0,-1,1028,1555,0,0
-189,-531,0,0,0,0,0,0,0,0,0,-1,1035,1555,0,0
-182,-531,0,0,0,0,0,0,0,0,0,-1,1042,1555,0,0
-175,-531,0,0,0,0,0,0,0,0,0,-1,1049,1555,0,0
-168,-531,0,0,0,0,0,0,0,0,0,-1,1056,1555,0,0
-161,-531,0,0,0,0,0,0,0,0,0,-1,1063,1555,0,0
-154,-531,0,0,0,0,0,0,0,0,0,-1,1070,1555,0,0
-147,-531,0,0,0,0,0,0,0,0,0,-1,1077,1555,0,0
-140,-531,0,0,0,0,0,0,0,0,0,-1,1084,1555,0,0
-133,-531,0,0,0,0,0,0,0,0,0,-1,1091,1555,0,0
-126,-531,0,0,0,0,0,0,0,0,0,-1,1098,1555,0,0
-119,-531,0,0,0,0,0,0,0,0,0,-1,1105,1555,0,0
-112,-531,0,0,0,0,0,0,0,0,0,-1,1112,1555,0,0
-105,-531,0,0,0,0,0,0,0,0,0,-1,1119,1555,0,0
-98,-531,0,0,0,0,0,0,0,0,0,-1,1126,1555,0,0
-91,-531,0,0,0,0,0,0,0,0,0,-1,1133,1555,0,0
-84,-531,0,0,0,0,0,0,0,0,0,-1,1140,1555,0,0
-77,-531,0,0,0,0,0,0,0,0,0,-1,1147,1555,0,0
-70,-531,0,0,0,0,0,0,0,0,0,-1,1154,1555,0,0
-63,-531,0,0,0,0,0,0,0,0,0,-1,1161,1555,0,0
-56,-531,0,0,0,0,0,0,0,0,0,-1,1168,1555,0,0
-49,-531,0,0,0,0,0,0,0,0,0,-1,1175,1555,0,0
-42,-531,0,0,0,0,0,0,0,0,0,-1,1182,1555,0,0
-35,-531,0,0,0,0,0,0,0,0,0,-1,1189,1555,0,0
-28,-531,0,0,0,0,0,0,0,0,0,-1,1196,1555,0,0
-21,-531,0,0,0,0,0,0,0,0,0,-1,1203,1555,0,0
-14,-531,0,0,0,0,0,0,0,0,0,-1,1210,1555,0,0
-7,-531,0,0,0,0,0,0,0,0,0,-1,1217,1555,0,0
0,-531,0,0,0,0,0,0,0,0,0,-1,1224,1555,0,0
7,-531,0,0,0,0,0,0,0,0,0,-1,1231,1555,0,0
14,-531,0,0,0,0,0,0,0,0,0,-1,1238,1555,0,0
21,-531,0,0,0,0,0,0,0,0,0,-1,1245,1555,0,0
28,-531,0,0,0,0,0,0,0,0,0,-1,1252,1555,0,0
35,-531,0,0,0,0,0,0,0,0,0,-1,1259,1555,0,0
42,-531,0,0,0,0,0,0,0,0,0,-1,1266,1555,0,0
49,-531,0,0,0,0,0,0,0,0,0,-1,1273,1555,0,0
56,-531,0,0,0,0,0,0,0,0,0,-1,1280,1555,0,0
63,-531,0,0,0,0,0,0,0,0,0,-1,1287,1555,0,0
70,-531,0,0,0,0,0,0,0,0,0,-1,1294,1555,0,0
77,-531,0,0,0,0,0,0,0,0,0,-1,1301,1555,0,0
84,-531,0,0,0,0,0,0,0,0,0,-1,1308,1555,0,0
91,-531,0,0,0,0,0,0,0,0,0,-1,1315,1555,0,0
98,-531,0,0,0,0,0,0,0,0,0,-1,1322,1555,0,0
105,-531,0,0,0,0,0,0,0,0,0,-1,1329,1555,0,0
112,-531,0,0,0,0,0,0,0,0,0,-1,1336,1555,0,0
119,-531,0,0,0,0,0,0,0,0,0,-1,1343,1555,0,0
126,-531,0,0,0,0,0,0,0,0,0,-1,1350,1555,0,0
133,-531,0,0,0,0,0,0,0,0,0,-1,1357,1555,0,0
140,-531,0,0,0,0,0,0,0,0,0,-1,1364,1555,0,0
147,-531,0,0,0,0,0,0,0,0,0,-1,1371,1555,0,0
154,-531,0,0,0,0,0,0,0,0,0,-1,1378,1555,0,0
161,-531,0,0,0,0,0,0,0,0,0,-1,1385,1555,0,0
168,-531,0,0,0,0,0,0,0,0,0,-1,1392,1555,0,0
175,-531,0,0,0,0,0,0,0,0,0,-1,1399,1555,0,0
182,-531,0,0,0,0,0,0,0,0,0,-1,1406,1555,0,0
189,-531,0,0,0,0,0,0,0,0,0,-1,1413,1555,0,0
196,-531,0,0,0,0,0,0,0,0,0,-1,1420,1555,0,0
203,-531,0,0,0,0,0,0,0,0,0,-1,1427,1555,0,0
210,-531,0,0,0,0,0,0,0,0,0,-1,1434,1555,0,0
217,-531,0,0,0,0,0,0,0,0,0,-1,1441,1555,0,0
224,-531,0,0,0,0,0,0,0,0,0,-1,1448,1555,0,0
231,-531,0,0,0,0,0,0,0,0,0,-1,1455,1555,0,0
238,-531,0,0,0,0,0,0,0,0,0,-1,1462,1555,0,0
245,-531,0,0,0,0,0,0,0,0,0,-1,1469,1555,0,0
252,-531,0,0,0,0,0,0,0,0,0,-1,1476,1555,0,0
259,-531,0,0,0,0,0,0,0,0,0,-1,1483,1555,0,0
266,-531,0,0,0,0,0,0,0,0,0,-1,1490,1555,0,0
273,-531,0,0,0,0,0,0,0,0,0,-1,1497,1555,0,0
280,-531,0,0,0,0,0,0,0,0,0,-1,1504,1555,0,0
287,-531,0,0,0,0,0,0,0,0,0,-1,1511,1555,0,0
294,-531,0,0,0,0,0,0,0,0,0,-1,1518,1555,0,0
301,-531,0,0,0,0,0,0,0,0,0,-1,1525,1555,0,0
308,-531,0,0,0,0,0,0,0,0,0,-1,1532,1555,0,0
315,-531,0,0,0,0,0,0,0,0,0,-1,1539,1555,0,0
322,-531,0,0,0,0,0,0,0,0,0,-1,1546,1555,0,0
329,-531,0,0,0,0,0,0,0,0,0,-1,1553,1555,0,0
336,-531,0,0,0,0,0,0,0,0,0,-1,1560,1555,0,0
343,-531,0,0,0,0,0,0,0,0,0,-1,1567,1555,0,0
350,-531,0,0,0,0,0,0,0,0,0,-1,1574,1555,0,0
357,-531,0,0,0,0,0,0,0,0,0,-1,1581,1555,0,0
364,-531,0,0,0,0,0,0,0,0,0,-1,1588,1555,0,0
371,-531,0,0,0,0,0,0,0,0,0,-1,1595,1555,0,0
378,-531,0,0,0,0,0,0,0,0,0,-1,1602,1555,0,0
385,-531,3.13403,1.88721,0,0,0,0,0,0,0,-1,1609,1555,3.13401,-1.88726
392,-531,9.34375,8.05029,0,0,0,0,0,0,0,-1,1616,1555,9.34381,-8.05025
399,-531,8.26306,5.29602,0,0,0,0,0,0,0,-1,1623,1555,8.26302,-5.29607
406,-531,8.26147,5.42712,0,0,0,0,0,0,0,-1,1630,1555,8.26145,-5.42716
413,-531,8.20618,5.75012,0,0,0,0,0,0,0,-1,1637,1555,8.20619,-5.75017
420,-531,7.64868,7.09558,0,0,0,0,0,0,0,-1,1644,1555,7.64867,-7.09564
427,-531,9.93054,11.8412,0,0,0,0,0,0,0,-1,1651,1555,9.93059,-11.8412
434,-531,10.244,11.7072,0,0,0,0,0,0,0,-1,1658,1555,10.244,-11.7071
441,-531,9.03882,11.1136,0,0,0,0,0,0,0,-1,1665,1555,9.03881,-11.1137
448,-531,8.70752,11.1261,0,0,0,0,0,0,0,-1,1672,1555,8.70751,-11.126
455,-531,12.5403,6.53625,0,0,0,0,0,0,0,-1,1679,1555,12.5403,-6.53629
462,-531,11.6357,6.271,0,0,0,0,0,0,0,-1,1686,1555,11.6358,-6.27095
469,-531,11.1533,8.24194,0,0,0,0,0,0,0,-1,1693,1555,11.1534,-8.24189
476,-531,10.1903,10.9056,0,0,0,0,0,0,0,-1,1700,1555,10.1903,-10.9056
483,-531,10.1489,11.1539,-0.0331605,-0.0309707,0.0317179,-0.000328857,-0.0638024,0.802651,0.0424257,0.0484457,1707,1555,10.149,-11.1539
490,-531,9.76575,11.655,-0.0314933,-0.027957,0.0318921,0.00221595,-0.0616662,0.81309,0.041869,0.0360273,1714,1555,9.76578,-11.655
497,-531,9.52856,11.7994,-0.0284045,-0.0241364,0.0293898,0.00319673,-0.0557376,0.821641,0.0382685,0.0185269,1721,1555,9.52853,-11.7994
504,-531,9.51001,11.6479,-0.0244603,-0.0197695,0.0252204,0.00321432,-0.0474441,0.831763,0.0327534,0.011847,1728,1555,9.50997,-11.648
511,-531,9.51709,11.4397,-0.0195704,-0.0156583,0.0200061,0.00248717,-0.0377158,0.83413,0.0260126,0.0134261,1735,1555,9.51706,-11.4397
518,-531,9.53027,11.2189,-0.0150125,-0.0117587,0.0151447,0.00184616,-0.0286174,0.838905,0.0197225,0.0142563,1742,1555,9.53027,-11.2188
525,-531,9.54346,10.9852,-0.0109298,-0.00851791,0.0109139,0.00125644,-0.0207042,0.840424,0.0142401,0.0130576,1749,1555,9.54344,-10.9853
532,-531,9.57727,10.7476,-0.00734308,-0.00579293,0.00728379,0.000756904,-0.0138929,0.838404,0.00952427,0.00991082,1756,1555,9.57729,-10.7476
539,-531,9.56787,10.5273,-0.00409457,-0.00335036,0.00413386,0.000428115,-0.00787304,0.830284,0.00539706,0.0117615,1763,1555,9.56791,-10.5273
546,-531,9.53125,10.3075,-0.00133644,-0.00147803,0.00171924,0.000313467,-0.00312793,0.76482,0.00219724,0.0156882,1770,1555,9.53126,-10.3075
553,-531,9.54846,10.118,0.00107663,4.20577e-05,-0.000208011,0.00111689,1.80164e-06,-0.191165,0.000743993,0.0295634,1777,1555,9.54843,-10.1181
560,-531,9.47205,9.89331,0.00309086,0.0014426,-0.00159594,0.00406289,0.000470569,-0.547061,0.00256616,0.0333847,1784,1555,9.47207,-9.89326
567,-531,9.48022,9.65173,0.00481555,0.00276174,-0.00275611,0.00672985,0.000847445,-0.607069,0.00423246,0.0189935,1791,1555,9.48023,-9.65171
574,-531,9.53064,9.42981,0.00634665,0.0040575,-0.00377244,0.00914433,0.00125982,-0.63811,0.00572269,0.0119683,1798,1555,9.53059,-9.42979
581,-531,9.55408,9.18323,0.00789672,0.00560254,-0.00487532,0.0117581,0.00174118,-0.669857,0.00732761,0.0113281,1805,1555,9.55412,-9.18329
588,-531,9.57422,8.90186,0.00970654,0.00760965,-0.00618563,0.014932,0.00238424,-0.701448,0.00926274,0.0159358,1812,1555,9.57423,-8.90188
595,-531,9.61426,8.60693,0.0116234,0.0100771,-0.00767309,0.0185622,0.0031383,-0.735188,0.0114727,0.0329671,1819,1555,9.61427,-8.60697
602,-531,9.78357,8.11096,0.0136268,0.0129439,-0.00930821,0.0225998,0.00397088,-0.767066,0.0139328,0.0490021,1826,1555,9.78353,-8.11094
609,-531,9.74146,7.776,0,0,0,0,0,0,0,-1,1833,1555,9.74152,-7.77597
616,-531,10.5723,7.17859,0,0,0,0,0,0,0,-1,1840,1555,10.5723,-7.17855
623,-531,10.0674,5.08984,0,0,0,0,0,0,0,-1,1847,1555,10.0674,-5.08981
630,-531,11.672,3.18909,0,0,0,0,0,0,0,-1,1854,1555,11.672,-3.18904
637,-531,13.2546,1.38965,0,0,0,0,0,0,0,-1,1861,1555,13.2547,-1.3896
644,-531,0,0,0,0,0,0,0,0,0,-1,1868,1555,0,0
651,-531,0,0,0,0,0,0,0,0,0,-1,1875,1555,0,0
658,-531,0,0,0,0,0,0,0,0,0,-1,1882,1555,0,0
665,-531,0,0,0,0,0,0,0,0,0,-1,1889,1555,0,0
672,-531,0,0,0,0,0,0,0,0,0,-1,1896,1555,0,0
679,-531,0,0,0,0,0,0,0,0,0,-1,1903,1555,0,0
686,-531,0,0,0,0,0,0,0,0,0,-1,1910,1555,0,0
693,-531,0,0,0,0,0,0,0,0,0,-1,1917,1555,0,0
700,-531,0,0,0,0,0,0,0,0,0,-1,1924,1555,0,0
707,-531,0,0,0,0,0,0,0,0,0,-1,1931,1555,0,0
714,-531,0,0,0,0,0,0,0,0,0,-1,1938,1555,0,0
721,-531,0,0,0,0,0,0,0,0,0,-1,1945,1555,0,0
728,-531,0,0,0,0,0,0,0,0,0,-1,1952,1555,0,0
735,-531,0,0,0,0,0,0,0,0,0,-1,1959,1555,0,0
742,-531,0,0,0,0,0,0,0,0,0,-1,1966,1555,0,0
749,-531,0,0,0,0,0,0,0,0,0,-1,1973,1555,0,0
756,-531,0,0,0,0,0,0,0,0,0,-1,1980,1555,0,0
763,-531,0,0,0,0,0,0,0,0,0,-1,1987,1555,0,0
770,-531,0,0,0,0,0,0,0,0,0,-1,1994,1555,0,0
777,-531,0,0,0,0,0,0,0,0,0,-1,2001,1555,0,0
784,-531,0,0,0,0,0,0,0,0,0,-1,2008,1555,0,0
791,-531,0,0,0,0,0,0,0,0,0,-1,2015,1555,0,0
798,-531,0,0,0,0,0,0,0,0,0,-1,2022,1555,0,0
805,-531,0,0,0,0,0,0,0,0,0,-1,2029,1555,0,0
812,-531,0,0,0,0,0,0,0,0,0,-1,2036,1555,0,0
-700,-538,0,0,0,0,0,0,0,0,0,-1,524,1562,0,0
-693,-538,0,0,0,0,0,0,0,0,0,-1,531,1562,0,0
-686,-538,0,0,0,0,0,0,0,0,0,-1,538,1562,0,0
-679,-538,0,0,0,0,0,0,0,0,0,-1,545,1562,0,0
-672,-538,0,0,0,0,0,0,0,0,0,-1,552,1562,0,0
-665,-538,0,0,0,0,0,0,0,0,0,-1,559,1562,0,0
-658,-538,0,0,0,0,0,0,0,0,0,-1,566,1562,0,0
-651,-538,0,0,0,0,0,0,0,0,0,-1,573,1562,0,0
-644,-538,0,0,0,0,0,0,0,0,0,-1,580,1562,0,0
-637,-538,0,0,0,0,0,0,0,0,0,-1,587,1562,0,0
-630,-538,0,0,0,0,0,0,0,0,0,-1,594,1562,0,0
-623,-538,0,0,0,0,0,0,0,0,0,-1,601,1562,0,0
-616,-538,0,0,0,0,0,0,0,0,0,-1,608,1562,0,0
-609,-538,0,0,0,0,0,0,0,0,0,-1,615,1562,0,0
-602,-538,0,0,0,0,0,0,0,0,0,-1,622,1562,0,0
-595,-538,0,0,0,0,0,0,0,0,0,-1,629,1562,0,0
-588,-538,0,0,0,0,0,0,0,0,0,-1,636,1562,0,0
-581,-538,0,0,0,0,0,0,0,0,0,-1,643,1562,0,0
-574,-538,0,0,0,0,0,0,0,0,0,-1,650,1562,0,0
-567,-538,0,0,0,0,0,0,0,0,0,-1,657,1562,0,0
-560,-538,0,0,0,0,0,0,0,0,0,-1,664,1562,0,0
-553,-538,0,0,0,0,0,0,0,0,0,-1,671,1562,0,0
-546,-538,0,0,0,0,0,0,0,0,0,-1,678,1562,0,0
-539,-538,0,0,0,0,0,0,0,0,0,-1,685,1562,0,0
-532,-538,0,0,0,0,0,0,0,0,0,-1,692,1562,0,0
-525,-538,0,0,0,0,0,0,0,0,0,-1,699,1562,0,0
-518,-538,0,0,0,0,0,0,0,0,0,-1,706,1562,0,0
-511,-538,-2.6582,-1.54321,0,0,0,0,0,0,0,-1,713,1562,-2.65821,1.54327
-504,-538,-2.66455,-0.71167,0,0,0,0,0,0,0,-1,720,1562,-2.66456,0.711667
-497,-538,-0.763855,6.77747,0,0,0,0,0,0,0,-1,727,1562,-0.76385,-6.77743
-490,-538,-1.57642,6.14673,0,0,0,0,0,0,0,-1,734,1562,-1.5764,-6.14674
-483,-538,-1.35919,5.77661,0,0,0,0,0,0,0,-1,741,1562,-1.35916,-5.77659
-476,-538,0.837585,4.57141,0,0,0,0,0,0,0,-1,748,1562,0.837604,-4.57146
-469,-538,0.402405,6.78711,0,0,0,0,0,0,0,-1,755,1562,0.402433,-6.78712
-462,-538,0.278687,7.125,0.00956549,0.0142425,0.00938967,0.0215805,0.00222751,0.907441,0.013705,0.0440218,762,1562,0.278707,-7.12503
-455,-538,0.236145,7.44629,0.00656196,0.0114992,0.00728273,0.0167203,0.00134081,0.948804,0.0107279,0.036299,769,1562,0.236129,-7.44627
-448,-538,0.190918,7.74817,0.00494184,0.0093775,0.00567401,0.0132517,0.00106761,0.971706,0.00850099,0.0155299,776,1562,0.190905,-7.74816
-441,-538,0.16803,8.01563,0.0039224,0.00747156,0.00440744,0.0104483,0.000945702,0.976785,0.00667265,0.015067,783,1562,0.168037,-8.01566
-434,-538,0.152466,8.22961,0.00302966,0.00595072,0.00322341,0.00802905,0.000951329,0.998113,0.00506545,0.0114123,790,1562,0.152435,-8.22956
-427,-538,0.152405,8.4718,0.00251666,0.00432783,0.00244496,0.00602953,0.000814965,0.962759,0.00377745,0.0125008,797,1562,0.152408,-8.47185
-420,-538,0.116943,8.73608,0.00238145,0.0030782,0.00185497,0.00461723,0.000842425,0.87822,0.00283931,0.0170303,804,1562,0.116922,-8.73602
-413,-538,0.0895996,8.99438,0.00219453,0.00178425,0.00116308,0.00317042,0.000808356,0.698109,0.0019023,0.0180088,811,1562,0.089623,-8.99444
-406,-538,0.113647,9.21692,0.00195982,0.000431938,0.000465334,0.00209038,0.000301372,0.273551,0.00130479,0.0148909,818,1562,0.11366,-9.21686
-399,-538,0.131592,9.46008,0.00167474,-0.000926672,-0.000270311,0.00170253,-0.000954463,-0.102451,0.00155415,0.0136492,825,1562,0.131614,-9.46009
-392,-538,0.127014,9.68652,0.00143625,-0.00208817,-0.000938136,0.0016704,-0.00232232,-0.244601,0.00231542,0.014312,832,1562,0.127027,-9.68654
-385,-538,0.115234,9.92273,0.00130042,-0.00290004,-0.00160069,0.00184087,-0.00344049,-0.325616,0.00309546,0.0120143,839,1562,0.115229,-9.92278
-378,-538,0.120117,10.1833,0.00135666,-0.00339496,-0.00214142,0.00217931,-0.00421761,-0.366778,0.00375524,0.00938822,846,1562,0.120102,-10.1833
-371,-538,0.111816,10.4153,0.00136331,-0.00379363,-0.00273171,0.00254127,-0.00497159,-0.407124,0.00441255,0.0105907,853,1562,0.111802,-10.4153
-364,-538,0.129761,10.6848,0.00147295,-0.0039411,-0.00321739,0.00297063,-0.00543878,-0.435665,0.00492439,0.0109725,860,1562,0.129769,-10.6848
-357,-538,0.142273,10.8804,0.00171326,-0.00291124,-0.00316438,0.00332016,-0.00451815,-0.469877,0.00454303,0.0206717,867,1562,0.142255,-10.8804
-350,-538,0.127869,11.0045,0.00200663,-0.00127794,-0.00258676,0.0034284,-0.00269971,-0.502561,0.00354639,0.0329888,874,1562,0.127859,-11.0046
-343,-538,0.0980835,11.3567,0.00209039,0.000758829,-0.00215892,0.00368386,-0.000834643,-0.635833,0.00277626,0.0426308,881,1562,0.0980834,-11.3567
-336,-538,0.0618286,11.7937,0.00232564,0.0029744,-0.00149523,0.00418004,0.00112,-0.892213,0.00249848,0.0431093,888,1562,0.0618406,-11.7937
-329,-538,0.235596,11.9803,0.00291717,0.00695684,0.000132821,0.0069612,0.00291281,1.53796,0.00403684,0.0442434,895,1562,0.235594,-11.9803
-322,-538,0.684265,11.8607,0,0,0,0,0,0,0,-1,902,1562,0.68424,-11.8607
-315,-538,-0.19165,11.5438,0,0,0,0,0,0,0,-1,909,1562,-0.19165,-11.5438
-308,-538,1.16949,13.0287,0,0,0,0,0,0,0,-1,916,1562,1.16949,-13.0287
-301,-538,1.1889,13.174,0,0,0,0,0,0,0,-1,923,1562,1.18892,-13.1739
-294,-538,1.23138,14.0757,0,0,0,0,0,0,0,-1,930,1562,1.23137,-14.0757
-287,-538,0.768677,11.1807,0,0,0,0,0,0,0,-1,937,1562,0.768704,-11.1807
-280,-538,-4.0293,11.8911,0,0,0,0,0,0,0,-1,944,1562,-4.02932,-11.8911
-273,-538,-4.85803,13.4651,0,0,0,0,0,0,0,-1,951,1562,-4.85802,-13.4651
-266,-538,-5.69073,14.9116,0,0,0,0,0,0,0,-1,958,1562,-5.69073,-14.9116
-259,-538,-6.21277,16.2444,0,0,0,0,0,0,0,-1,965,1562,-6.21275,-16.2444
-252,-538,0,0,0,0,0,0,0,0,0,-1,972,1562,0,0
-245,-538,0,0,0,0,0,0,0,0,0,-1,979,1562,0,0
-238,-538,0,0,0,0,0,0,0,0,0,-1,986,1562,0,0
-231,-538,0,0,0,0,0,0,0,0,0,-1,993,1562,0,0
-224,-538,0,0,0,0,0,0,0,0,0,-1,1000,1562,0,0
-217,-538,0,0,0,0,0,0,0,0,0,-1,1007,1562,0,0
-210,-538,0,0,0,0,0,0,0,0,0,-1,1014,1562,0,0
-203,-538,0,0,0,0,0,0,0,0,0,-1,1021,1562,0,0
-196,-538,0,0,0,0,0,0,0,0,0,-1,1028,1562,0,0
-189,-538,0,0,0,0,0,0,0,0,0,-1,1035,1562,0,0
-182,-538,0,0,0,0,0,0,0,0,0,-1,1042,1562,0,0
-175,-538,0,0,0,0,0,0,0,0,0,-1,1049,1562,0,0
-168,-538,0,0,0,0,0,0,0,0,0,-1,1056,1562,0,0
-161,-538,0,0,0,0,0,0,0,0,0,-1,1063,1562,0,0
-154,-538,0,0,0,0,0,0,0,0,0,-1,1070,1562,0,0
-147,-538,0,0,0,0,0,0,0,0,0,-1,1077,1562,0,0
-140,-538,0,0,0,0,0,0,0,0,0,-1,1084,1562,0,0
-133,-538,0,0,0,0,0,0,0,0,0,-1,1091,1562,0,0
-126,-538,0,0,0,0,0,0,0,0,0,-1,1098,1562,0,0
-119,-538,0,0,0,0,0,0,0,0,0,-1,1105,1562,0,0
-112,-538,0,0,0,0,0,0,0,0,0,-1,1112,1562,0,0
-105,-538,0,0,0,0,0,0,0,0,0,-1,1119,1562,0,0
-98,-538,0,0,0,0,0,0,0,0,0,-1,1126,1562,0,0
-91,-538,0,0,0,0,0,0,0,0,0,-1,1133,1562,0,0
-84,-538,0,0,0,0,0,0,0,0,0,-1,1140,1562,0,0
-77,-538,0,0,0,0,0,0,0,0,0,-1,1147,1562,0,0
-70,-538,0,0,0,0,0,0,0,0,0,-1,1154,1562,0,0
-63,-538,0,0,0,0,0,0,0,0,0,-1,1161,1562,0,0
-56,-538,0,0,0,0,0,0,0,0,0,-1,1168,1562,0,0
-49,-538,0,0,0,0,0,0,0,0,0,-1,1175,1562,0,0
-42,-538,0,0,0,0,0,0,0,0,0,-1,1182,1562,0,0
-35,-538,0,0,0,0,0,0,0,0,0,-1,1189,1562,0,0
-28,-538,0,0,0,0,0,0,0,0,0,-1,1196,1562,0,0
-21,-538,0,0,0,0,0,0,0,0,0,-1,1203,1562,0,0
-14,-538,0,0,0,0,0,0,0,0,0,-1,1210,1562,0,0
-7,-538,0,0,0,0,0,0,0,0,0,-1,1217,1562,0,0
0,-538,0,0,0,0,0,0,0,0,0,-1,1224,1562,0,0
7,-538,0,0,0,0,0,0,0,0,0,-1,1231,1562,0,0
14,-538,0,0,0,0,0,0,0,0,0,-1,1238,1562,0,0
21,-538,0,0,0,0,0,0,0,0,0,-1,1245,1562,0,0
28,-538,0,0,0,0,0,0,0,0,0,-1,1252,1562,0,0
35,-538,0,0,0,0,0,0,0,0,0,-1,1259,1562,0,0
42,-538,0,0,0,0,0,0,0,0,0,-1,1266,1562,0,0
49,-538,0,0,0,0,0,0,0,0,0,-1,1273,1562,0,0
56,-538,0,0,0,0,0,0,0,0,0,-1,1280,1562,0,0
63,-538,0,0,0,0,0,0,0,0,0,-1,1287,1562,0,0
70,-538,0,0,0,0,0,0,0,0,0,-1,1294,1562,0,0
77,-538,0,0,0,0,0,0,0,0,0,-1,1301,1562,0,0
84,-538,0,0,0,0,0,0,0,0,0,-1,1308,1562,0,0
91,-538,0,0,0,0,0,0,0,0,0,-1,1315,1562,0,0
98,-538,0,0,0,0,0,0,0,0,0,-1,1322,1562,0,0
105,-538,0,0,0,0,0,0,0,0,0,-1,1329,1562,0,0
112,-538,0,0,0,0,0,0,0,0,0,-1,1336,1562,0,0
119,-538,0,0,0,0,0,0,0,0,0,-1,1343,1562,0,0
126,-538,0,0,0,0,0,0,0,0,0,-1,1350,1562,0,0
133,-538,0,0,0,0,0,0,0,0,0,-1,1357,1562,0,0
140,-538,0,0,0,0,0,0,0,0,0,-1,1364,1562,0,0
147,-538,0,0,0,0,0,0,0,0,0,-1,1371,1562,0,0
154,-538,0,0,0,0,0,0,0,0,0,-1,1378,1562,0,0
161,-538,0,0,0,0,0,0,0,0,0,-1,1385,1562,0,0
168,-538,0,0,0,0,0,0,0,0,0,-1,1392,1562,0,0
175,-538,0,0,0,0,0,0,0,0,0,-1,1399,1562,0,0
182,-538,0,0,0,0,0,0,0,0,0,-1,1406,1562,0,0
189,-538,0,0,0,0,0,0,0,0,0,-1,1413,1562,0,0
196,-538,0,0,0,0,0,0,0,0,0,-1,1420,1562,0,0
203,-538,0,0,0,0,0,0,0,0,0,-1,1427,1562,0,0
210,-538,0,0,0,0,0,0,0,0,0,-1,1434,1562,0,0
217,-538,0,0,0,0,0,0,0,0,0,-1,1441,1562,0,0
224,-538,0,0,0,0,0,0,0,0,0,-1,1448,1562,0,0
231,-538,0,0,0,0,0,0,0,0,0,-1,1455,1562,0,0
238,-538,0,0,0,0,0,0,0,0,0,-1,1462,1562,0,0
245,-538,0,0,0,0,0,0,0,0,0,-1,1469,1562,0,0
252,-538,0,0,0,0,0,0,0,0,0,-1,1476,1562,0,0
259,-538,0,0,0,0,0,0,0,0,0,-1,1483,1562,0,0
266,-538,0,0,0,0,0,0,0,0,0,-1,1490,1562,0,0
273,-538,0,0,0,0,0,0,0,0,0,-1,1497,1562,0,0
280,-538,0,0,0,0,0,0,0,0,0,-1,1504,1562,0,0
287,-538,0,0,0,0,0,0,0,0,0,-1,1511,1562,0,0
294,-538,0,0,0,0,0,0,0,0,0,-1,1518,1562,0,0
301,-538,0,0,0,0,0,0,0,0,0,-1,1525,1562,0,0
308,-538,0,0,0,0,0,0,0,0,0,-1,1532,1562,0,0
315,-538,0,0,0,0,0,0,0,0,0,-1,1539,1562,0,0
322,-538,0,0,0,0,0,0,0,0,0,-1,1546,1562,0,0
329,-538,0,0,0,0,0,0,0,0,0,-1,1553,1562,0,0
336,-538,0,0,0,0,0,0,0,0,0,-1,1560,1562,0,0
343,-538,0,0,0,0,0,0,0,0,0,-1,1567,1562,0,0
350,-538,0,0,0,0,0,0,0,0,0,-1,1574,1562,0,0
357,-538,0,0,0,0,0,0,0,0,0,-1,1581,1562,0,0
364,-538,0,0,0,0,0,0,0,0,0,-1,1588,1562,0,0
371,-538,0,0,0,0,0,0,0,0,0,-1,1595,1562,0,0
378,-538,9.65479,5.82434,0,0,0,0,0,0,0,-1,1602,1562,9.6548,-5.82439
385,-538,8.69836,7.6283,0,0,0,0,0,0,0,-1,1609,1562,8.69835,-7.62829
392,-538,8.20361,7.07214,0,0,0,0,0,0,0,-1,1616,1562,8.20362,-7.07211
399,-538,7.85425,4.70508,0,0,0,0,0,0,0,-1,1623,1562,7.85425,-4.70512
406,-538,7.77734,4.96094,0,0,0,0,0,0,0,-1,1630,1562,7.77729,-4.96097
413,-538,13.0446,13.1765,0,0,0,0,0,0,0,-1,1637,1562,13.0446,-13.1765
420,-538,9.96216,12.7653,0,0,0,0,0,0,0,-1,1644,1562,9.96221,-12.7653
427,-538,10.1732,14.5863,0,0,0,0,0,0,0,-1,1651,1562,10.1732,-14.5863
434,-538,8.23096,15.3043,0,0,0,0,0,0,0,-1,1658,1562,8.23101,-15.3043
441,-538,8.42896,14.5763,0,0,0,0,0,0,0,-1,1665,1562,8.4289,-14.5763
448,-538,9.1366,12.1686,0,0,0,0,0,0,0,-1,1672,1562,9.13658,-12.1686
455,-538,10.6978,10.1636,0,0,0,0,0,0,0,-1,1679,1562,10.6978,-10.1636
462,-538,9.62854,10.9816,0,0,0,0,0,0,0,-1,1686,1562,9.62853,-10.9816
469,-538,10.4348,11.506,0,0,0,0,0,0,0,-1,1693,1562,10.4348,-11.506
476,-538,9.95703,11.7271,-0.0243168,-0.0272439,0.0219436,-0.00378803,-0.0477727,0.7521,0.0306638,0.0498702,1700,1562,9.95698,-11.7271
483,-538,9.41553,12.0358,-0.0236548,-0.0249136,0.0231342,-0.00114142,-0.047427,0.771798,0.0312445,0.0302068,1707,1562,9.41554,-12.0358
490,-538,9.32251,11.9902,-0.0225643,-0.0223349,0.0235616,0.0011123,-0.0460115,0.787831,0.0310518,0.0135993,1714,1562,9.32254,-11.9902
497,-538,9.29724,11.8389,-0.0202837,-0.0193151,0.0218792,0.00208517,-0.041684,0.796464,0.0285098,0.00967466,1721,1562,9.29729,-11.8389
504,-538,9.30029,11.6266,-0.0172394,-0.0158197,0.0187666,0.00225047,-0.0353096,0.804303,0.0243246,0.00907114,1728,1562,9.30027,-11.6265
511,-538,9.29993,11.4098,-0.013305,-0.0124567,0.0146549,0.00178016,-0.0275419,0.799866,0.0189825,0.00973793,1735,1562,9.2999,-11.4098
518,-538,9.30591,11.2039,-0.00959875,-0.0092185,0.0107748,0.00136786,-0.0201851,0.79422,0.0139351,0.0103128,1742,1562,9.30587,-11.2038
525,-538,9.30371,10.9701,-0.00625558,-0.00654433,0.00738448,0.00098594,-0.0137858,0.775624,0.00953622,0.01083,1749,1562,9.30371,-10.9701
532,-538,9.32556,10.7505,-0.00329433,-0.00430216,0.00445214,0.000682316,-0.00827881,0.729046,0.00576013,0.0113642,1756,1562,9.32554,-10.7504
539,-538,9.32874,10.5631,-0.000607718,-0.00235906,0.00195109,0.000655193,-0.00362197,0.574465,0.00266008,0.0142217,1763,1562,9.32868,-10.5631
546,-538,9.29883,10.3358,0.00169645,-0.000886697,1.89836e-05,0.00169659,-0.000886836,0.00734849,0.00151577,0.0166303,1770,1562,9.2988,-10.3358
553,-538,9.30469,10.0908,0.00368871,0.000378022,-0.00148098,0.00425451,-0.000187777,-0.36493,0.00290096,0.027667,1777,1562,9.30463,-10.0909
560,-538,9.24841,9.92725,0.00545206,0.00163855,-0.00261654,0.00678289,0.000307717,-0.470523,0.00442292,0.0313123,1784,1562,9.24838,-9.92727
567,-538,9.20898,9.68054,0.0071598,0.0028586,-0.00372699,0.00931217,0.000706228,-0.523717,0.0059866,0.0209693,1791,1562,9.20901,-9.68053
574,-538,9.29578,9.41907,0.00881408,0.00417196,-0.00484481,0.0118651,0.00112092,-0.562011,0.00756418,0.0121787,1798,1562,9.29581,-9.41904
581,-538,9.34143,9.16516,0.0106488,0.00595556,-0.00619668,0.0149283,0.00167606,-0.604397,0.00944323,0.0140657,1805,1562,9.34142,-9.16518
588,-538,9.35217,8.87988,0.0129071,0.00850972,-0.00796793,0.0189741,0.00244268,-0.650778,0.0119189,0.0306849,1812,1562,9.35215,-8.8799
595,-538,9.61206,8.44495,0.0152334,0.0121242,-0.0100104,0.0238092,0.00354839,-0.708362,0.0148322,0.047595,1819,1562,9.61211,-8.44499
602,-538,9.65698,7.71643,0,0,0,0,0,0,0,-1,1826,1562,9.65701,-7.71641
609,-538,10.1046,7.05713,0,0,0,0,0,0,0,-1,1833,1562,10.1046,-7.05719
616,-538,9.92249,5.43506,0,0,0,0,0,0,0,-1,1840,1562,9.92254,-5.43507
623,-538,11.1711,4.31604,0,0,0,0,0,0,0,-1,1847,1562,11.1711,-4.316
630,-538,12.6112,2.61633,0,0,0,0,0,0,0,-1,1854,1562,12.6112,-2.61637
637,-538,0,0,0,0,0,0,0,0,0,-1,1861,1562,0,0
644,-538,0,0,0,0,0,0,0,0,0,-1,1868,1562,0,0
651,-538,0,0,0,0,0,0,0,0,0,-1,1875,1562,0,0
658,-538,0,0,0,0,0,0,0,0,0,-1,1882,1562,0,0
665,-538,0,0,0,0,0,0,0,0,0,-1,1889,1562,0,0
672,-538,0,0,0,0,0,0,0,0,0,-1,1896,1562,0,0
679,-538,0,0,0,0,0,0,0,0,0,-1,1903,1562,0,0
686,-538,0,0,0,0,0,0,0,0,0,-1,1910,1562,0,0
693,-538,0,0,0,0,0,0,0,0,0,-1,1917,1562,0,0
700,-538,0,0,0,0,0,0,0,0,0,-1,1924,1562,0,0
707,-538,0,0,0,0,0,0,0,0,0,-1,1931,1562,0,0
714,-538,0,0,0,0,0,0,0,0,0,-1,1938,1562,0,0
721,-538,0,0,0,0,0,0,0,0,0,-1,1945,1562,0,0
728,-538,0,0,0,0,0,0,0,0,0,-1,1952,1562,0,0
735,-538,0,0,0,0,0,0,0,0,0,-1,1959,1562,0,0
742,-538,0,0,0,0,0,0,0,0,0,-1,1966,1562,0,0
749,-538,0,0,0,0,0,0,0,0,0,-1,1973,1562,0,0
756,-538,0,0,0,0,0,0,0,0,0,-1,1980,1562,0,0
763,-538,0,0,0,0,0,0,0,0,0,-1,1987,1562,0,0
770,-538,0,0,0,0,0,0,0,0,0,-1,1994,1562,0,0
777,-538,0,0,0,0,0,0,0,0,0,-1,2001,1562,0,0
784,-538,0,0,0,0,0,0,0,0,0,-1,2008,1562,0,0
791,-538,0,0,0,0,0,0,0,0,0,-1,2015,1562,0,0
798,-538,0,0,0,0,0,0,0,0,0,-1,2022,1562,0,0
805,-538,0,0,0,0,0,0,0,0,0,-1,2029,1562,0,0
812,-538,0,0,0,0,0,0,0,0,0,-1,2036,1562,0,0
-700,-545,0,0,0,0,0,0,0,0,0,-1,524,1569,0,0
-693,-545,0,0,0,0,0,0,0,0,0,-1,531,1569,0,0
-686,-545,0,0,0,0,0,0,0,0,0,-1,538,1569,0,0
-679,-545,0,0,0,0,0,0,0,0,0,-1,545,1569,0,0
-672,-545,0,0,0,0,0,0,0,0,0,-1,552,1569,0,0
-665,-545,0,0,0,0,0,0,0,0,0,-1,559,1569,0,0
-658,-545,0,0,0,0,0,0,0,0,0,-1,566,1569,0,0
-651,-545,0,0,0,0,0,0,0,0,0,-1,573,1569,0,0
-644,-545,0,0,0,0,0,0,0,0,0,-1,580,1569,0,0
-637,-545,0,0,0,0,0,0,0,0,0,-1,587,1569,0,0
-630,-545,0,0,0,0,0,0,0,0,0,-1,594,1569,0,0
-623,-545,0,0,0,0,0,0,0,0,0,-1,601,1569,0,0
-616,-545,0,0,0,0,0,0,0,0,0,-1,608,1569,0,0
-609,-545,0,0,0,0,0,0,0,0,0,-1,615,1569,0,0
-602,-545,0,0,0,0,0,0,0,0,0,-1,622,1569,0,0
-595,-545,0,0,0,0,0,0,0,0,0,-1,629,1569,0,0
-588,-545,0,0,0,0,0,0,0,0,0,-1,636,1569,0,0
-581,-545,0,0,0,0,0,0,0,0,0,-1,643,1569,0,0
-574,-545,0,0,0,0,0,0,0,0,0,-1,650,1569,0,0
-567,-545,0,0,0,0,0,0,0,0,0,-1,657,1569,0,0
-560,-545,0,0,0,0,0,0,0,0,0,-1,664,1569,0,0
-553,-545,0,0,0,0,0,0,0,0,0,-1,671,1569,0,0
-546,-545,0,0,0,0,0,0,0,0,0,-1,678,1569,0,0
-539,-545,0,0,0,0,0,0,0,0,0,-1,685,1569,0,0
-532,-545,0,0,0,0,0,0,0,0,0,-1,692,1569,0,0
-525,-545,0,0,0,0,0,0,0,0,0,-1,699,1569,0,0
-518,-545,0,0,0,0,0,0,0,0,0,-1,706,1569,0,0
-511,-545,0,0,0,0,0,0,0,0,0,-1,713,1569,0,0
-504,-545,-3.55237,-2.5354,0,0,0,0,0,0,0,-1,720,1569,-3.55236,2.53545
-497,-545,2.26575,5.69214,0,0,0,0,0,0,0,-1,727,1569,2.26573,-5.6922
-490,-545,1.79315,6.35181,0,0,0,0,0,0,0,-1,734,1569,1.79317,-6.35185
-483,-545,-0.719238,5.77625,0,0,0,0,0,0,0,-1,741,1569,-0.719225,-5.77629
-476,-545,0.238403,6.73743,0,0,0,0,0,0,0,-1,748,1569,0.238388,-6.73738
-469,-545,1.13007,4.95154,0,0,0,0,0,0,0,-1,755,1569,1.13005,-4.95157
-462,-545,0.218811,6.8667,0,0,0,0,0,0,0,-1,762,1569,0.218839,-6.86669
-455,-545,0.292297,7.23657,0.00931861,0.0156073,0.0097537,0.022711,0.00221495,0.941326,0.014459,0.0420014,769,1569,0.292278,-7.23662
-448,-545,0.435852,7.61121,0.00713705,0.012635,0.00759515,0.0179634,0.00180872,0.959035,0.0114205,0.0269137,776,1569,0.435861,-7.61125
-441,-545,0.435913,8.00671,0.00550481,0.0100517,0.00588822,0.0140901,0.00146638,0.96963,0.00894477,0.0181508,783,1569,0.435904,-8.00671
-434,-545,0.361389,8.24634,0.00409249,0.00803532,0.0043708,0.0108587,0.00126908,0.997258,0.0068554,0.0158476,790,1569,0.361405,-8.24638
-427,-545,0.358032,8.4845,0.00313883,0.00605442,0.00335555,0.00825516,0.000938092,0.990319,0.00521892,0.0167959,797,1569,0.358026,-8.48451
-420,-545,0.371033,8.72705,0.00263785,0.00459248,0.00260773,0.00640001,0.000830318,0.964685,0.0040186,0.0235597,804,1569,0.371051,-8.7271
-413,-545,0.345581,8.99329,0.00219188,0.00319486,0.00181195,0.00457344,0.000813296,0.920403,0.00281727,0.023893,811,1569,0.345556,-8.99329
-406,-545,0.352722,9.2196,0.0017629,0.00178376,0.00107633,0.00284971,0.000696952,0.790243,0.00171535,0.018242,818,1569,0.352741,-9.21961
-399,-545,0.376953,9.44165,0.00128651,0.000420023,0.000307054,0.00138428,0.000322247,0.308282,0.000836395,0.0119119,825,1569,0.376927,-9.44166
-392,-545,0.373169,9.68127,0.000953687,-0.000688236,-0.000338727,0.00102082,-0.00075537,-0.19566,0.0010293,0.0111611,832,1569,0.373167,-9.68124
-385,-545,0.379761,9.93787,0.000791001,-0.00145921,-0.000941983,0.00113327,-0.00180148,-0.34852,0.00170896,0.0097735,839,1569,0.379763,-9.93783
-378,-545,0.372253,10.192,0.00085701,-0.00186184,-0.00138181,0.00143599,-0.00244083,-0.396782,0.00226321,0.0116448,846,1569,0.372227,-10.192
-371,-545,0.360596,10.4332,0.000905301,-0.0021098,-0.00186452,0.00179549,-0.00299998,-0.445433,0.00279762,0.0147101,853,1569,0.360609,-10.4333
-364,-545,0.357544,10.6503,0.00104366,-0.0022021,-0.00221996,0.00217068,-0.00332912,-0.46977,0.0031987,0.00937205,860,1569,0.357549,-10.6503
-357,-545,0.392822,10.8904,0.00135822,-0.00135822,-0.00210201,0.00250264,-0.00250264,-0.498566,0.0028898,0.0104418,867,1569,0.392838,-10.8904
-350,-545,0.4245,11.1176,0.00169612,-3.74721e-05,-0.00157659,0.00262848,-0.000969831,-0.534056,0.0021498,0.0139577,874,1569,0.424476,-11.1175
-343,-545,0.434387,11.3319,0.00195357,0.00146891,-0.00119822,0.00293371,0.000488758,-0.685623,0.00181496,0.0212118,881,1569,0.434381,-11.3319
-336,-545,0.392029,11.5688,0.00208244,0.00303503,-0.000748298,0.00344576,0.00167172,-1.06881,0.0019897,0.0317982,888,1569,0.392057,-11.5688
-329,-545,0.441223,11.8124,0.00241904,0.0057161,0.000353269,0.00575353,0.00238162,1.46525,0.00333816,0.0412227,895,1569,0.441232,-11.8124
-322,-545,0.521118,12.1409,0,0,0,0,0,0,0,-1,902,1569,0.521095,-12.1408
-315,-545,0.939636,12.5946,0,0,0,0,0,0,0,-1,909,1569,0.93962,-12.5946
-308,-545,1.02295,12.7273,0.00274091,0.0149031,0.0053343,0.0169111,0.000732847,1.21076,0.0110379,0.0485257,916,1569,1.02295,-12.7273
-301,-545,1.0647,12.8719,0.00222439,0.0165739,0.00674895,0.0192493,-0.00045101,1.19338,0.0129858,0.0492042,923,1569,1.06469,-12.8719
-294,-545,1.1416,13.3737,0,0,0,0,0,0,0,-1,930,1569,1.14157,-13.3736
-287,-545,0.260376,13.0709,0,0,0,0,0,0,0,-1,937,1569,0.260354,-13.071
-280,-545,0.226746,10.4198,0,0,0,0,0,0,0,-1,944,1569,0.226742,-10.4198
-273,-545,-4.10596,12.3789,0,0,0,0,0,0,0,-1,951,1569,-4.10598,-12.3789
-266,-545,-5.10779,14.1372,0,0,0,0,0,0,0,-1,958,1569,-5.10778,-14.1372
-259,-545,-3.98706,7.8916,0,0,0,0,0,0,0,-1,965,1569,-3.98704,-7.89159
-252,-545,0.369263,7.54053,0,0,0,0,0,0,0,-1,972,1569,0.369276,-7.54056
-245,-545,-0.236633,6.65564,0,0,0,0,0,0,0,-1,979,1569,-0.236605,-6.65566
-238,-545,0,0,0,0,0,0,0,0,0,-1,986,1569,0,0
-231,-545,0,0,0,0,0,0,0,0,0,-1,993,1569,0,0
-224,-545,0,0,0,0,0,0,0,0,0,-1,1000,1569,0,0
-217,-545,0,0,0,0,0,0,0,0,0,-1,1007,1569,0,0
-210,-545,0,0,0,0,0,0,0,0,0,-1,1014,1569,0,0
-203,-545,0,0,0,0,0,0,0,0,0,-1,1021,1569,0,0
-196,-545,0,0,0,0,0,0,0,0,0,-1,1028,1569,0,0
-189,-545,0,0,0,0,0,0,0,0,0,-1,1035,1569,0,0
-182,-545,0,0,0,0,0,0,0,0,0,-1,1042,1569,0,0
-175,-545,0,0,0,0,0,0,0,0,0,-1,1049,1569,0,0
-168,-545,0,0,0,0,0,0,0,0,0,-1,1056,1569,0,0
-161,-545,0,0,0,0,0,0,0,0,0,-1,1063,1569,0,0
-154,-545,0,0,0,0,0,0,0,0,0,-1,1070,1569,0,0
-147,-545,0,0,0,0,0,0,0,0,0,-1,1077,1569,0,0
-140,-545,0,0,0,0,0,0,0,0,0,-1,1084,1569,0,0
-133,-545,0,0,0,0,0,0,0,0,0,-1,1091,1569,0,0
-126,-545,0,0,0,0,0,0,0,0,0,-1,1098,1569,0,0
-119,-545,0,0,0,0,0,0,0,0,0,-1,1105,1569,0,0
-112,-545,0,0,0,0,0,0,0,0,0,-1,1112,1569,0,0
-105,-545,0,0,0,0,0,0,0,0,0,-1,1119,1569,0,0
-98,-545,0,0,0,0,0,0,0,0,0,-1,1126,1569,0,0
-91,-545,0,0,0,0,0,0,0,0,0,-1,1133,1569,0,0
-84,-545,0,0,0,0,0,0,0,0,0,-1,1140,1569,0,0
-77,-545,0,0,0,0,0,0,0,0,0,-1,1147,1569,0,0
-70,-545,0,0,0,0,0,0,0,0,0,-1,1154,1569,0,0
-63,-545,0,0,0,0,0,0,0,0,0,-1,1161,1569,0,0
-56,-545,0,0,0,0,0,0,0,0,0,-1,1168,1569,0,0
-49,-545,0,0,0,0,0,0,0,0,0,-1,1175,1569,0,0
-42,-545,0,0,0,0,0,0,0,0,0,-1,1182,1569,0,0
-35,-545,0,0,0,0,0,0,0,0,0,-1,1189,1569,0,0
-28,-545,0,0,0,0,0,0,0,0,0,-1,1196,1569,0,0
-21,-545,0,0,0,0,0,0,0,0,0,-1,1203,1569,0,0
-14,-545,0,0,0,0,0,0,0,0,0,-1,1210,1569,0,0
-7,-545,0,0,0,0,0,0,0,0,0,-1,1217,1569,0,0
0,-545,0,0,0,0,0,0,0,0,0,-1,1224,1569,0,0
7,-545,0,0,0,0,0,0,0,0,0,-1,1231,1569,0,0
14,-545,0,0,0,0,0,0,0,0,0,-1,1238,1569,0,0
21,-545,0,0,0,0,0,0,0,0,0,-1,1245,1569,0,0
28,-545,0,0,0,0,0,0,0,0,0,-1,1252,1569,0,0
35,-545,0,0,0,0,0,0,0,0,0,-1,1259,1569,0,0
42,-545,0,0,0,0,0,0,0,0,0,-1,1266,1569,0,0
49,-545,0,0,0,0,0,0,0,0,0,-1,1273,1569,0,0
56,-545,0,0,0,0,0,0,0,0,0,-1,1280,1569,0,0
63,-545,0,0,0,0,0,0,0,0,0,-1,1287,1569,0,0
70,-545,0,0,0,0,0,0,0,0,0,-1,1294,1569,0,0
77,-545,0,0,0,0,0,0,0,0,0,-1,1301,1569,0,0
84,-545,0,0,0,0,0,0,0,0,0,-1,1308,1569,0,0
91,-545,0,0,0,0,0,0,0,0,0,-1,1315,1569,0,0
98,-545,0,0,0,0,0,0,0,0,0,-1,1322,1569,0,0
105,-545,0,0,0,0,0,0,0,0,0,-1,1329,1569,0,0
112,-545,0,0,0,0,0,0,0,0,0,-1,1336,1569,0,0
119,-545,0,0,0,0,0,0,0,0,0,-1,1343,1569,0,0
126,-545,0,0,0,0,0,0,0,0,0,-1,1350,1569,0,0
133,-545,0,0,0,0,0,0,0,0,0,-1,1357,1569,0,0
140,-545,0,0,0,0,0,0,0,0,0,-1,1364,1569,0,0
147,-545,0,0,0,0,0,0,0,0,0,-1,1371,1569,0,0
154,-545,0,0,0,0,0,0,0,0,0,-1,1378,1569,0,0
161,-545,0,0,0,0,0,0,0,0,0,-1,1385,1569,0,0
168,-545,0,0,0,0,0,0,0,0,0,-1,1392,1569,0,0
175,-545,0,0,0,0,0,0,0,0,0,-1,1399,1569,0,0
182,-545,0,0,0,0,0,0,0,0,0,-1,1406,1569,0,0
189,-545,0,0,0,0,0,0,0,0,0,-1,1413,1569,0,0
196,-545,0,0,0,0,0,0,0,0,0,-1,1420,1569,0,0
203,-545,0,0,0,0,0,0,0,0,0,-1,1427,1569,0,0
210,-545,0,0,0,0,0,0,0,0,0,-1,1434,1569,0,0
217,-545,0,0,0,0,0,0,0,0,0,-1,1441,1569,0,0
224,-545,0,0,0,0,0,0,0,0,0,-1,1448,1569,0,0
231,-545,0,0,0,0,0,0,0,0,0,-1,1455,1569,0,0
238,-545,0,0,0,0,0,0,0,0,0,-1,1462,1569,0,0
245,-545,0,0,0,0,0,0,0,0,0,-1,1469,1569,0,0
252,-545,0,0,0,0,0,0,0,0,0,-1,1476,1569,0,0
259,-545,0,0,0,0,0,0,0,0,0,-1,1483,1569,0,0
266,-545,0,0,0,0,0,0,0,0,0,-1,1490,1569,0,0
273,-545,0,0,0,0,0,0,0,0,0,-1,1497,1569,0,0
280,-545,0,0,0,0,0,0,0,0,0,-1,1504,1569,0,0
287,-545,0,0,0,0,0,0,0,0,0,-1,1511,1569,0,0
294,-545,0,0,0,0,0,0,0,0,0,-1,1518,1569,0,0
301,-545,0,0,0,0,0,0,0,0,0,-1,1525,1569,0,0
308,-545,0,0,0,0,0,0,0,0,0,-1,1532,1569,0,0
315,-545,0,0,0,0,0,0,0,0,0,-1,1539,1569,0,0
322,-545,0,0,0,0,0,0,0,0,0,-1,1546,1569,0,0
329,-545,0,0,0,0,0,0,0,0,0,-1,1553,1569,0,0
336,-545,0,0,0,0,0,0,0,0,0,-1,1560,1569,0,0
343,-545,0,0,0,0,0,0,0,0,0,-1,1567,1569,0,0
350,-545,0,0,0,0,0,0,0,0,0,-1,1574,1569,0,0
357,-545,0,0,0,0,0,0,0,0,0,-1,1581,1569,0,0
364,-545,7.19495,4.88098,0,0,0,0,0,0,0,-1,1588,1569,7.19497,-4.88095
371,-545,7.82324,3.84302,0,0,0,0,0,0,0,-1,1595,1569,7.82324,-3.84307
378,-545,7.24146,4.54224,0,0,0,0,0,0,0,-1,1602,1569,7.24145,-4.54226
385,-545,8.58447,1.16125,0,0,0,0,0,0,0,-1,1609,1569,8.5845,-1.1612
392,-545,12.5654,3.89526,0,0,0,0,0,0,0,-1,1616,1569,12.5655,-3.89532
399,-545,11.5869,5.6333,0,0,0,0,0,0,0,-1,1623,1569,11.5869,-5.63326
406,-545,11.234,6.36414,0,0,0,0,0,0,0,-1,1630,1569,11.234,-6.3641
413,-545,12.1521,13.4817,0,0,0,0,0,0,0,-1,1637,1569,12.1521,-13.4817
420,-545,11.1954,13.6047,0,0,0,0,0,0,0,-1,1644,1569,11.1954,-13.6047
427,-545,8.82751,15.5083,0,0,0,0,0,0,0,-1,1651,1569,8.82758,-15.5083
434,-545,8.86316,15.0106,0.0130466,-0.00407456,-0.0462759,0.0515471,-0.042575,-0.693937,0.0544237,0.0465491,1658,1569,8.86317,-15.0106
441,-545,9.00342,14.384,0.00433384,-0.0118388,-0.0295494,0.0268834,-0.0343883,-0.651841,0.0354636,0.0464962,1665,1569,9.00339,-14.384
448,-545,9.5177,13.0957,-0.0043043,-0.0166108,-0.013581,0.00445238,-0.0253674,-0.572693,0.0185745,0.0471437,1672,1569,9.51774,-13.0957
455,-545,9.66333,13.0388,0,0,0,0,0,0,0,-1,1679,1569,9.66333,-13.0389
462,-545,9.4209,11.8069,0,0,0,0,0,0,0,-1,1686,1569,9.42092,-11.8069
469,-545,9.01953,12.1497,0,0,0,0,0,0,0,-1,1693,1569,9.01954,-12.1497
476,-545,9.0835,12.1691,-0.0174098,-0.0209214,0.0157645,-0.00330357,-0.0350276,0.729939,0.0223321,0.0334929,1700,1569,9.08349,-12.1691
483,-545,9.09216,12.2112,-0.0169469,-0.0191342,0.0168354,-0.00116968,-0.0349114,0.752962,0.0228943,0.0136407,1707,1569,9.09211,-12.2112
490,-545,9.08545,12.0314,-0.0161909,-0.0171217,0.0173801,0.000730082,-0.0340427,0.772012,0.0229423,0.0111215,1714,1569,9.08546,-12.0313
497,-545,9.11609,11.8524,-0.0144943,-0.0148493,0.0162424,0.00157155,-0.0309152,0.779934,0.0211534,0.0153492,1721,1569,9.11609,-11.8525
504,-545,9.12866,11.6304,-0.0121061,-0.012166,0.013897,0.00176103,-0.0260331,0.784319,0.0179712,0.0150369,1728,1569,9.12863,-11.6303
511,-545,9.11462,11.3882,-0.00891168,-0.00951456,0.0106344,0.00142554,-0.0198518,0.771229,0.0137344,0.0114278,1735,1569,9.1146,-11.3882
518,-545,9.11096,11.192,-0.00583318,-0.00693098,0.00749322,0.00113122,-0.0138954,0.748837,0.00966275,0.0129006,1742,1569,9.11093,-11.192
525,-545,9.09827,10.9685,-0.00298621,-0.00482289,0.00471127,0.000895391,-0.00870449,0.689143,0.00612332,0.0131759,1749,1569,9.0983,-10.9684
532,-545,9.08594,10.7489,-0.000403975,-0.00306926,0.00227609,0.000900908,-0.00437415,0.520555,0.00325819,0.0129744,1756,1569,9.08591,-10.749
539,-545,9.09521,10.5651,0.00195806,-0.0016493,0.000257332,0.00197633,-0.00166756,0.0708571,0.00210632,0.0156595,1763,1569,9.09519,-10.5651
546,-545,9.08093,10.3459,0.00406182,-0.000578073,-0.00135594,0.00442902,-0.000945265,-0.264461,0.00331303,0.0175016,1770,1569,9.08096,-10.346
553,-545,9.06641,10.0836,0.00587317,0.000451926,-0.00257772,0.00690315,-0.000578053,-0.380136,0.00480638,0.0254971,1777,1569,9.06635,-10.0836
560,-545,9.06873,9.83411,0.00764888,0.00158533,-0.0036042,0.00932687,-9.26624e-05,-0.435723,0.00624903,0.0279181,1784,1569,9.06877,-9.83407
567,-545,8.96277,9.68127,0.00954561,0.00272865,-0.00473939,0.0119749,0.000299353,-0.473656,0.00788538,0.0393411,1791,1569,8.96276,-9.68122
574,-545,8.96362,9.43042,0.0114953,0.00405602,-0.00598999,0.0148266,0.000724729,-0.507547,0.00965191,0.0325776,1798,1569,8.96363,-9.4304
581,-545,9.10547,9.13464,0.0139207,0.00608954,-0.00770875,0.0186513,0.00135892,-0.550409,0.0120069,0.0449523,1805,1569,9.10552,-9.13459
588,-545,9.14282,8.86633,0,0,0,0,0,0,0,-1,1812,1569,9.14281,-8.86633
595,-545,9.5271,8.03528,0,0,0,0,0,0,0,-1,1819,1569,9.52714,-8.03528
602,-545,8.82117,6.32214,0,0,0,0,0,0,0,-1,1826,1569,8.82121,-6.32217
609,-545,10.2406,5.22351,0,0,0,0,0,0,0,-1,1833,1569,10.2406,-5.22353
616,-545,11.701,3.93188,0,0,0,0,0,0,0,-1,1840,1569,11.701,-3.93191
623,-545,13.2139,2.32043,0,0,0,0,0,0,0,-1,1847,1569,13.2139,-2.32042
630,-545,0,0,0,0,0,0,0,0,0,-1,1854,1569,0,0
637,-545,0,0,0,0,0,0,0,0,0,-1,1861,1569,0,0
644,-545,0,0,0,0,0,0,0,0,0,-1,1868,1569,0,0
651,-545,0,0,0,0,0,0,0,0,0,-1,1875,1569,0,0
658,-545,0,0,0,0,0,0,0,0,0,-1,1882,1569,0,0
665,-545,0,0,0,0,0,0,0,0,0,-1,1889,1569,0,0
672,-545,0,0,0,0,0,0,0,0,0,-1,1896,1569,0,0
679,-545,0,0,0,0,0,0,0,0,0,-1,1903,1569,0,0
686,-545,0,0,0,0,0,0,0,0,0,-1,1910,1569,0,0
693,-545,0,0,0,0,0,0,0,0,0,-1,1917,1569,0,0
700,-545,0,0,0,0,0,0,0,0,0,-1,1924,1569,0,0
707,-545,0,0,0,0,0,0,0,0,0,-1,1931,1569,0,0
714,-545,0,0,0,0,0,0,0,0,0,-1,1938,1569,0,0
721,-545,0,0,0,0,0,0,0,0,0,-1,1945,1569,0,0
728,-545,0,0,0,0,0,0,0,0,0,-1,1952,1569,0,0
735,-545,0,0,0,0,0,0,0,0,0,-1,1959,1569,0,0
742,-545,0,0,0,0,0,0,0,0,0,-1,1966,1569,0,0
749,-545,0,0,0,0,0,0,0,0,0,-1,1973,1569,0,0
756,-545,0,0,0,0,0,0,0,0,0,-1,1980,1569,0,0
763,-545,0,0,0,0,0,0,0,0,0,-1,1987,1569,0,0
770,-545,0,0,0,0,0,0,0,0,0,-1,1994,1569,0,0
777,-545,0,0,0,0,0,0,0,0,0,-1,2001,1569,0,0
784,-545,0,0,0,0,0,0,0,0,0,-1,2008,1569,0,0
791,-545,0,0,0,0,0,0,0,0,0,-1,2015,1569,0,0
798,-545,0,0,0,0,0,0,0,0,0,-1,2022,1569,0,0
805,-545,0,0,0,0,0,0,0,0,0,-1,2029,1569,0,0
812,-545,0,0,0,0,0,0,0,0,0,-1,2036,1569,0,0
-700,-552,0,0,0,0,0,0,0,0,0,-1,524,1576,0,0
-693,-552,0,0,0,0,0,0,0,0,0,-1,531,1576,0,0
-686,-552,0,0,0,0,0,0,0,0,0,-1,538,1576,0,0
-679,-552,0,0,0,0,0,0,0,0,0,-1,545,1576,0,0
-672,-552,0,0,0,0,0,0,0,0,0,-1,552,1576,0,0
-665,-552,0,0,0,0,0,0,0,0,0,-1,559,1576,0,0
-658,-552,0,0,0,0,0,0,0,0,0,-1,566,1576,0,0
-651,-552,0,0,0,0,0,0,0,0,0,-1,573,1576,0,0
-644,-552,0,0,0,0,0,0,0,0,0,-1,580,1576,0,0
-637,-552,0,0,0,0,0,0,0,0,0,-1,587,1576,0,0
-630,-552,0,0,0,0,0,0,0,0,0,-1,594,1576,0,0
-623,-552,0,0,0,0,0,0,0,0,0,-1,601,1576,0,0
-616,-552,0,0,0,0,0,0,0,0,0,-1,608,1576,0,0
-609,-552,0,0,0,0,0,0,0,0,0,-1,615,1576,0,0
-602,-552,0,0,0,0,0,0,0,0,0,-1,622,1576,0,0
-595,-552,0,0,0,0,0,0,0,0,0,-1,629,1576,0,0
-588,-552,0,0,0,0,0,0,0,0,0,-1,636,1576,0,0
-581,-552,0,0,0,0,0,0,0,0,0,-1,643,1576,0,0
-574,-552,0,0,0,0,0,0,0,0,0,-1,650,1576,0,0
-567,-552,0,0,0,0,0,0,0,0,0,-1,657,1576,0,0
-560,-552,0,0,0,0,0,0,0,0,0,-1,664,1576,0,0
-553,-552,0,0,0,0,0,0,0,0,0,-1,671,1576,0,0
-546,-552,0,0,0,0,0,0,0,0,0,-1,678,1576,0,0
-539,-552,0,0,0,0,0,0,0,0,0,-1,685,1576,0,0
-532,-552,0,0,0,0,0,0,0,0,0,-1,692,1576,0,0
-525,-552,0,0,0,0,0,0,0,0,0,-1,699,1576,0,0
-518,-552,0,0,0,0,0,0,0,0,0,-1,706,1576,0,0
-511,-552,0,0,0,0,0,0,0,0,0,-1,713,1576,0,0
-504,-552,0,0,0,0,0,0,0,0,0,-1,720,1576,0,0
-497,-552,1.51282,3.96924,0,0,0,0,0,0,0,-1,727,1576,1.5128,-3.96924
-490,-552,1.07428,4.69812,0,0,0,0,0,0,0,-1,734,1576,1.07429,-4.69816
-483,-552,0.41156,5.25769,0,0,0,0,0,0,0,-1,741,1576,0.411537,-5.25764
-476,-552,-0.19696,5.93909,0,0,0,0,0,0,0,-1,748,1576,-0.196953,-5.93912
-469,-552,-0.618469,6.41931,0,0,0,0,0,0,0,-1,755,1576,-0.618484,-6.41934
-462,-552,0.211121,6.4989,0,0,0,0,0,0,0,-1,762,1576,0.211108,-6.49886
-455,-552,0.377869,7.00403,0.0128465,0.0207449,0.012782,0.0301739,0.00341751,0.93523,0.019079,0.0463022,769,1576,0.377862,-7.00398
-448,-552,0.650513,7.39587,0.00979121,0.0166848,0.00997084,0.0237878,0.0026882,0.951811,0.0150427,0.0431466,776,1576,0.650533,-7.39593
-441,-552,0.657104,7.82825,0.00742724,0.0131999,0.00776362,0.0185964,0.00203079,0.96337,0.0117792,0.0365267,783,1576,0.657086,-7.82831
-434,-552,0.678955,8.24207,0.00543631,0.0104167,0.00583071,0.0142667,0.0015863,0.987215,0.00902894,0.0223276,790,1576,0.678981,-8.24202
-427,-552,0.590881,8.46313,0.00401802,0.00785416,0.00448864,0.0108174,0.00105481,0.987314,0.00688695,0.0160196,797,1576,0.590874,-8.46313
-420,-552,0.624634,8.72815,0.00315299,0.00599893,0.00350809,0.00836166,0.000790259,0.978072,0.00533058,0.01893,804,1576,0.62461,-8.72813
-413,-552,0.625427,8.96338,0.00246908,0.0043563,0.00255375,0.0061352,0.000690177,0.962368,0.00388058,0.0172021,811,1576,0.625449,-8.96335
-406,-552,0.599976,9.21887,0.00186934,0.00276748,0.00173291,0.00410856,0.000528263,0.91218,0.00258104,0.0134218,818,1576,0.599959,-9.21881
-399,-552,0.61554,9.44775,0.00122031,0.00129893,0.000884191,0.00214468,0.000374555,0.80761,0.00132273,0.0142884,825,1576,0.615511,-9.44775
-392,-552,0.609741,9.67334,0.000794709,0.000157674,0.000209612,0.000857493,9.48905e-05,0.291019,0.000542804,0.015046,832,1576,0.609747,-9.67331
-385,-552,0.615417,9.92944,0.000585247,-0.000644653,-0.000386552,0.000696648,-0.000756054,-0.280589,0.000838952,0.0133897,839,1576,0.615396,-9.92943
-378,-552,0.60907,10.1635,0.000628309,-0.0010102,-0.00078146,0.000941247,-0.00132314,-0.380896,0.00131352,0.0149731,846,1576,0.609053,-10.1634
-371,-552,0.599487,10.408,0.000681727,-0.00115148,-0.00121009,0.00128317,-0.00175292,-0.461267,0.00175987,0.0180083,853,1576,0.59951,-10.408
-364,-552,0.606384,10.6506,0.000794322,-0.00121603,-0.00149163,0.00158785,-0.00200956,-0.488909,0.00208172,0.0142172,860,1576,0.606404,-10.6507
-357,-552,0.611389,10.8695,0.00111017,-0.00055023,-0.00135852,0.00187208,-0.00131214,-0.511126,0.00184786,0.00991747,867,1576,0.611368,-10.8695
-350,-552,0.617004,11.1117,0.00147856,0.000510459,-0.000905957,0.00202167,-3.26531e-05,-0.540044,0.0013588,0.00869393,874,1576,0.617013,-11.1118
-343,-552,0.604675,11.3303,0.0017546,0.00166474,-0.000601955,0.0023133,0.00110604,-0.748148,0.00133601,0.00917032,881,1576,0.604694,-11.3304
-336,-552,0.624451,11.5237,0.00183656,0.0026756,-0.000324398,0.0027864,0.00172577,-1.24169,0.00162393,0.0148325,888,1576,0.624465,-11.5237
-329,-552,0.648315,11.8293,0.00201251,0.00435974,0.000371495,0.00441713,0.00195512,1.41752,0.00255583,0.0311433,895,1576,0.648293,-11.8293
-322,-552,0.748291,12.2344,0,0,0,0,0,0,0,-1,902,1576,0.748271,-12.2343
-315,-552,0.936523,12.1871,0,0,0,0,0,0,0,-1,909,1576,0.936545,-12.1871
-308,-552,0.937012,12.4089,0.00155592,0.00921379,0.00302851,0.0102667,0.000502985,1.2362,0.00668313,0.0472184,916,1576,0.936996,-12.4089
-301,-552,1.01385,12.5817,0.000803443,0.00963771,0.0036039,0.0109214,-0.000480225,1.22862,0.00744616,0.0485223,923,1576,1.01388,-12.5816
-294,-552,1.12183,12.838,0,0,0,0,0,0,0,-1,930,1576,1.12184,-12.838
-287,-552,-0.072937,10.0059,0,0,0,0,0,0,0,-1,937,1576,-0.0729163,-10.0059
-280,-552,1.70819,8.4104,0,0,0,0,0,0,0,-1,944,1576,1.70818,-8.4104
-273,-552,1.64587,10.6685,0,0,0,0,0,0,0,-1,951,1576,1.6459,-10.6685
-266,-552,-1.32678,8.05688,0,0,0,0,0,0,0,-1,958,1576,-1.32677,-8.05683
-259,-552,-5.54321,8.31213,0,0,0,0,0,0,0,-1,965,1576,-5.54324,-8.31214
-252,-552,-1.93445,7.81543,0,0,0,0,0,0,0,-1,972,1576,-1.93445,-7.81546
-245,-552,-2.53613,6.92212,0,0,0,0,0,0,0,-1,979,1576,-2.53614,-6.92216
-238,-552,-4.7373,3.97888,0,0,0,0,0,0,0,-1,986,1576,-4.73733,-3.97894
-231,-552,-2.33112,4.83984,0,0,0,0,0,0,0,-1,993,1576,-2.33111,-4.83982
-224,-552,0,0,0,0,0,0,0,0,0,-1,1000,1576,0,0
-217,-552,0,0,0,0,0,0,0,0,0,-1,1007,1576,0,0
-210,-552,0,0,0,0,0,0,0,0,0,-1,1014,1576,0,0
-203,-552,0,0,0,0,0,0,0,0,0,-1,1021,1576,0,0
-196,-552,0,0,0,0,0,0,0,0,0,-1,1028,1576,0,0
-189,-552,0,0,0,0,0,0,0,0,0,-1,1035,1576,0,0
-182,-552,0,0,0,0,0,0,0,0,0,-1,1042,1576,0,0
-175,-552,0,0,0,0,0,0,0,0,0,-1,1049,1576,0,0
-168,-552,0,0,0,0,0,0,0,0,0,-1,1056,1576,0,0
-161,-552,0,0,0,0,0,0,0,0,0,-1,1063,1576,0,0
-154,-552,0,0,0,0,0,0,0,0,0,-1,1070,1576,0,0
-147,-552,0,0,0,0,0,0,0,0,0,-1,1077,1576,0,0
-140,-552,0,0,0,0,0,0,0,0,0,-1,1084,1576,0,0
-133,-552,0,0,0,0,0,0,0,0,0,-1,1091,1576,0,0
-126,-552,0,0,0,0,0,0,0,0,0,-1,1098,1576,0,0
-119,-552,0,0,0,0,0,0,0,0,0,-1,1105,1576,0,0
-112,-552,0,0,0,0,0,0,0,0,0,-1,1112,1576,0,0
-105,-552,0,0,0,0,0,0,0,0,0,-1,1119,1576,0,0
-98,-552,0,0,0,0,0,0,0,0,0,-1,1126,1576,0,0
-91,-552,0,0,0,0,0,0,0,0,0,-1,1133,1576,0,0
-84,-552,0,0,0,0,0,0,0,0,0,-1,1140,1576,0,0
-77,-552,0,0,0,0,0,0,0,0,0,-1,1147,1576,0,0
-70,-552,0,0,0,0,0,0,0,0,0,-1,1154,1576,0,0
-63,-552,0,0,0,0,0,0,0,0,0,-1,1161,1576,0,0
-56,-552,0,0,0,0,0,0,0,0,0,-1,1168,1576,0,0
-49,-552,0,0,0,0,0,0,0,0,0,-1,1175,1576,0,0
-42,-552,0,0,0,0,0,0,0,0,0,-1,1182,1576,0,0
-35,-552,0,0,0,0,0,0,0,0,0,-1,1189,1576,0,0
-28,-552,0,0,0,0,0,0,0,0,0,-1,1196,1576,0,0
-21,-552,0,0,0,0,0,0,0,0,0,-1,1203,1576,0,0
-14,-552,0,0,0,0,0,0,0,0,0,-1,1210,1576,0,0
-7,-552,0,0,0,0,0,0,0,0,0,-1,1217,1576,0,0
0,-552,0,0,0,0,0,0,0,0,0,-1,1224,1576,0,0
7,-552,0,0,0,0,0,0,0,0,0,-1,1231,1576,0,0
14,-552,0,0,0,0,0,0,0,0,0,-1,1238,1576,0,0
21,-552,0,0,0,0,0,0,0,0,0,-1,1245,1576,0,0
28,-552,0,0,0,0,0,0,0,0,0,-1,1252,1576,0,0
35,-552,0,0,0,0,0,0,0,0,0,-1,1259,1576,0,0
42,-552,0,0,0,0,0,0,0,0,0,-1,1266,1576,0,0
49,-552,0,0,0,0,0,0,0,0,0,-1,1273,1576,0,0
56,-552,0,0,0,0,0,0,0,0,0,-1,1280,1576,0,0
63,-552,0,0,0,0,0,0,0,0,0,-1,1287,1576,0,0
70,-552,0,0,0,0,0,0,0,0,0,-1,1294,1576,0,0
77,-552,0,0,0,0,0,0,0,0,0,-1,1301,1576,0,0
84,-552,0,0,0,0,0,0,0,0,0,-1,1308,1576,0,0
91,-552,0,0,0,0,0,0,0,0,0,-1,1315,1576,0,0
98,-552,0,0,0,0,0,0,0,0,0,-1,1322,1576,0,0
105,-552,0,0,0,0,0,0,0,0,0,-1,1329,1576,0,0
112,-552,0,0,0,0,0,0,0,0,0,-1,1336,1576,0,0
119,-552,0,0,0,0,0,0,0,0,0,-1,1343,1576,0,0
126,-552,0,0,0,0,0,0,0,0,0,-1,1350,1576,0,0
133,-552,0,0,0,0,0,0,0,0,0,-1,1357,1576,0,0
140,-552,0,0,0,0,0,0,0,0,0,-1,1364,1576,0,0
147,-552,0,0,0,0,0,0,0,0,0,-1,1371,1576,0,0
154,-552,0,0,0,0,0,0,0,0,0,-1,1378,1576,0,0
161,-552,0,0,0,0,0,0,0,0,0,-1,1385,1576,0,0
168,-552,0,0,0,0,0,0,0,0,0,-1,1392,1576,0,0
175,-552,0,0,0,0,0,0,0,0,0,-1,1399,1576,0,0
182,-552,0,0,0,0,0,0,0,0,0,-1,1406,1576,0,0
189,-552,0,0,0,0,0,0,0,0,0,-1,1413,1576,0,0
196,-552,0,0,0,0,0,0,0,0,0,-1,1420,1576,0,0
203,-552,0,0,0,0,0,0,0,0,0,-1,1427,1576,0,0
210,-552,0,0,0,0,0,0,0,0,0,-1,1434,1576,0,0
217,-552,0,0,0,0,0,0,0,0,0,-1,1441,1576,0,0
224,-552,0,0,0,0,0,0,0,0,0,-1,1448,1576,0,0
231,-552,0,0,0,0,0,0,0,0,0,-1,1455,1576,0,0
238,-552,0,0,0,0,0,0,0,0,0,-1,1462,1576,0,0
245,-552,0,0,0,0,0,0,0,0,0,-1,1469,1576,0,0
252,-552,0,0,0,0,0,0,0,0,0,-1,1476,1576,0,0
259,-552,0,0,0,0,0,0,0,0,0,-1,1483,1576,0,0
266,-552,0,0,0,0,0,0,0,0,0,-1,1490,1576,0,0
273,-552,0,0,0,0,0,0,0,0,0,-1,1497,1576,0,0
280,-552,0,0,0,0,0,0,0,0,0,-1,1504,1576,0,0
287,-552,0,0,0,0,0,0,0,0,0,-1,1511,1576,0,0
294,-552,0,0,0,0,0,0,0,0,0,-1,1518,1576,0,0
301,-552,0,0,0,0,0,0,0,0,0,-1,1525,1576,0,0
308,-552,0,0,0,0,0,0,0,0,0,-1,1532,1576,0,0
315,-552,0,0,0,0,0,0,0,0,0,-1,1539,1576,0,0
322,-552,0,0,0,0,0,0,0,0,0,-1,1546,1576,0,0
329,-552,0,0,0,0,0,0,0,0,0,-1,1553,1576,0,0
336,-552,0,0,0,0,0,0,0,0,0,-1,1560,1576,0,0
343,-552,0,0,0,0,0,0,0,0,0,-1,1567,1576,0,0
350,-552,4.97876,4.09888,0,0,0,0,0,0,0,-1,1574,1576,4.97875,-4.09883
357,-552,5.18469,4.10706,0,0,0,0,0,0,0,-1,1581,1576,5.1847,-4.10702
364,-552,5.80872,5.07031,0,0,0,0,0,0,0,-1,1588,1576,5.80874,-5.07037
371,-552,7.10657,5.64783,0,0,0,0,0,0,0,-1,1595,1576,7.10651,-5.64786
378,-552,6.44446,4.91492,0,0,0,0,0,0,0,-1,1602,1576,6.44448,-4.91496
385,-552,12.8276,3.16504,0,0,0,0,0,0,0,-1,1609,1576,12.8276,-3.16503
392,-552,12.1301,4.3363,0,0,0,0,0,0,0,-1,1616,1576,12.1302,-4.33631
399,-552,11.3486,5.6012,0,0,0,0,0,0,0,-1,1623,1576,11.3486,-5.60115
406,-552,10.7863,6.42542,0,0,0,0,0,0,0,-1,1630,1576,10.7863,-6.42536
413,-552,8.39307,10.365,0,0,0,0,0,0,0,-1,1637,1576,8.3931,-10.365
420,-552,10.2306,12.7225,0,0,0,0,0,0,0,-1,1644,1576,10.2305,-12.7226
427,-552,9.27246,15.494,0,0,0,0,0,0,0,-1,1651,1576,9.27251,-15.4941
434,-552,9.36902,14.8661,0.00704726,-0.00588256,-0.0303563,0.0316194,-0.0304547,-0.680482,0.0358406,0.0455765,1658,1576,9.36901,-14.8661
441,-552,9.45569,14.2383,0.00163366,-0.0104598,-0.0195839,0.0160831,-0.0249092,-0.635661,0.023849,0.0447659,1665,1576,9.45563,-14.2383
448,-552,9.47009,13.5042,-0.00376877,-0.0132813,-0.00924177,0.00186881,-0.0189189,-0.547748,0.0132795,0.0425213,1672,1576,9.47013,-13.5042
455,-552,9.38379,12.9113,-0.00757304,-0.0151937,-0.00113499,-0.00740759,-0.0153591,-0.144752,0.00886944,0.0388035,1679,1576,9.3838,-12.9112
462,-552,9.1062,12.4227,-0.0100353,-0.0163927,0.00480033,-0.00745665,-0.0189713,0.492955,0.0110363,0.038284,1686,1576,9.10615,-12.4228
469,-552,8.91101,12.4154,-0.0114755,-0.0165121,0.00892012,-0.00472498,-0.0232626,0.647821,0.0141979,0.0351751,1693,1576,8.911,-12.4154
476,-552,8.85596,12.4351,-0.0118953,-0.0157698,0.0111442,-0.00252127,-0.0251438,0.69934,0.0159885,0.0166666,1700,1576,8.85596,-12.435
483,-552,8.87866,12.2412,-0.0114958,-0.014354,0.011986,-0.000853993,-0.0249958,0.726063,0.0163866,0.0134137,1707,1576,8.87865,-12.2412
490,-552,8.89746,12.0491,-0.0108873,-0.012772,0.0124809,0.000686735,-0.0243461,0.747718,0.0164644,0.0137704,1714,1576,8.89743,-12.0491
497,-552,8.95569,11.8563,-0.00955722,-0.011064,0.0116561,0.00136978,-0.021991,0.753125,0.015138,0.0208186,1721,1576,8.95566,-11.8563
504,-552,8.92432,11.6342,-0.00763316,-0.00902513,0.00984881,0.00154423,-0.0182025,0.750123,0.0126811,0.0237782,1728,1576,8.92426,-11.6341
511,-552,8.90503,11.4055,-0.00503677,-0.00697127,0.00725568,0.00131584,-0.0133239,0.719134,0.00935211,0.0178062,1735,1576,8.90503,-11.4056
518,-552,8.91699,11.1937,-0.00248379,-0.00497906,0.00471483,0.00114569,-0.00860854,0.656053,0.00615656,0.0148705,1742,1576,8.917,-11.1937
525,-552,8.89661,10.9707,-5.66918e-05,-0.00341355,0.00243676,0.00122375,-0.00469399,0.483815,0.00360712,0.0138455,1749,1576,8.89659,-10.9707
532,-552,8.88977,10.7487,0.00221054,-0.00217305,0.000435876,0.00225346,-0.00221597,0.0981529,0.00258046,0.0145809,1756,1576,8.88974,-10.7486
539,-552,8.89294,10.5469,0.00430052,-0.001345,-0.00113142,0.00451883,-0.0015633,-0.190607,0.0036471,0.0176894,1763,1576,8.89299,-10.5469
546,-552,8.89685,10.3356,0.00626528,-0.000776742,-0.0024264,0.00702036,-0.00153182,-0.301694,0.00526565,0.0209937,1770,1576,8.8968,-10.3356
553,-552,8.92419,10.0676,0.00797993,-9.01964e-05,-0.00337049,0.00920242,-0.00131269,-0.347949,0.00661607,0.0246383,1777,1576,8.92423,-10.0676
560,-552,8.95862,9.66821,0,0,0,0,0,0,0,-1,1784,1576,8.95856,-9.66816
567,-552,8.88574,9.49707,0,0,0,0,0,0,0,-1,1791,1576,8.8858,-9.49711
574,-552,8.91736,9.33911,0,0,0,0,0,0,0,-1,1798,1576,8.91739,-9.33916
581,-552,9.05261,9.01892,0,0,0,0,0,0,0,-1,1805,1576,9.05266,-9.01898
588,-552,9.17993,8.56409,0,0,0,0,0,0,0,-1,1812,1576,9.17995,-8.56405
595,-552,5.36194,6.62744,0,0,0,0,0,0,0,-1,1819,1576,5.36193,-6.62742
602,-552,10.6863,4.31616,0,0,0,0,0,0,0,-1,1826,1576,10.6862,-4.31619
609,-552,12.146,3.18286,0,0,0,0,0,0,0,-1,1833,1576,12.1459,-3.18281
616,-552,13.8762,2.08167,0,0,0,0,0,0,0,-1,1840,1576,13.8763,-2.08167
623,-552,0,0,0,0,0,0,0,0,0,-1,1847,1576,0,0
630,-552,0,0,0,0,0,0,0,0,0,-1,1854,1576,0,0
637,-552,0,0,0,0,0,0,0,0,0,-1,1861,1576,0,0
644,-552,0,0,0,0,0,0,0,0,0,-1,1868,1576,0,0
651,-552,0,0,0,0,0,0,0,0,0,-1,1875,1576,0,0
658,-552,0,0,0,0,0,0,0,0,0,-1,1882,1576,0,0
665,-552,0,0,0,0,0,0,0,0,0,-1,1889,1576,0,0
672,-552,0,0,0,0,0,0,0,0,0,-1,1896,1576,0,0
679,-552,0,0,0,0,0,0,0,0,0,-1,1903,1576,0,0
686,-552,0,0,0,0,0,0,0,0,0,-1,1910,1576,0,0
693,-552,0,0,0,0,0,0,0,0,0,-1,1917,1576,0,0
700,-552,0,0,0,0,0,0,0,0,0,-1,1924,1576,0,0
707,-552,0,0,0,0,0,0,0,0,0,-1,1931,1576,0,0
714,-552,0,0,0,0,0,0,0,0,0,-1,1938,1576,0,0
721,-552,0,0,0,0,0,0,0,0,0,-1,1945,1576,0,0
728,-552,0,0,0,0,0,0,0,0,0,-1,1952,1576,0,0
735,-552,0,0,0,0,0,0,0,0,0,-1,1959,1576,0,0
742,-552,0,0,0,0,0,0,0,0,0,-1,1966,1576,0,0
749,-552,0,0,0,0,0,0,0,0,0,-1,1973,1576,0,0
756,-552,0,0,0,0,0,0,0,0,0,-1,1980,1576,0,0
763,-552,0,0,0,0,0,0,0,0,0,-1,1987,1576,0,0
770,-552,0,0,0,0,0,0,0,0,0,-1,1994,1576,0,0
777,-552,0,0,0,0,0,0,0,0,0,-1,2001,1576,0,0
784,-552,0,0,0,0,0,0,0,0,0,-1,2008,1576,0,0
791,-552,0,0,0,0,0,0,0,0,0,-1,2015,1576,0,0
798,-552,0,0,0,0,0,0,0,0,0,-1,2022,1576,0,0
805,-552,0,0,0,0,0,0,0,0,0,-1,2029,1576,0,0
812,-552,0,0,0,0,0,0,0,0,0,-1,2036,1576,0,0
-700,-559,0,0,0,0,0,0,0,0,0,-1,524,1583,0,0
-693,-559,0,0,0,0,0,0,0,0,0,-1,531,1583,0,0
-686,-559,0,0,0,0,0,0,0,0,0,-1,538,1583,0,0
-679,-559,0,0,0,0,0,0,0,0,0,-1,545,1583,0,0
-672,-559,0,0,0,0,0,0,0,0,0,-1,552,1583,0,0
-665,-559,0,0,0,0,0,0,0,0,0,-1,559,1583,0,0
-658,-559,0,0,0,0,0,0,0,0,0,-1,566,1583,0,0
-651,-559,0,0,0,0,0,0,0,0,0,-1,573,1583,0,0
-644,-559,0,0,0,0,0,0,0,0,0,-1,580,1583,0,0
-637,-559,0,0,0,0,0,0,0,0,0,-1,587,1583,0,0
-630,-559,0,0,0,0,0,0,0,0,0,-1,594,1583,0,0
-623,-559,0,0,0,0,0,0,0,0,0,-1,601,1583,0,0
-616,-559,0,0,0,0,0,0,0,0,0,-1,608,1583,0,0
-609,-559,0,0,0,0,0,0,0,0,0,-1,615,1583,0,0
-602,-559,0,0,0,0,0,0,0,0,0,-1,622,1583,0,0
-595,-559,0,0,0,0,0,0,0,0,0,-1,629,1583,0,0
-588,-559,0,0,0,0,0,0,0,0,0,-1,636,1583,0,0
-581,-559,0,0,0,0,0,0,0,0,0,-1,643,1583,0,0
-574,-559,0,0,0,0,0,0,0,0,0,-1,650,1583,0,0
-567,-559,0,0,0,0,0,0,0,0,0,-1,657,1583,0,0
-560,-559,0,0,0,0,0,0,0,0,0,-1,664,1583,0,0
-553,-559,0,0,0,0,0,0,0,0,0,-1,671,1583,0,0
-546,-559,0,0,0,0,0,0,0,0,0,-1,678,1583,0,0
-539,-559,0,0,0,0,0,0,0,0,0,-1,685,1583,0,0
-532,-559,0,0,0,0,0,0,0,0,0,-1,692,1583,0,0
-525,-559,0,0,0,0,0,0,0,0,0,-1,699,1583,0,0
-518,-559,0,0,0,0,0,0,0,0,0,-1,706,1583,0,0
-511,-559,0,0,0,0,0,0,0,0,0,-1,713,1583,0,0
-504,-559,0,0,0,0,0,0,0,0,0,-1,720,1583,0,0
-497,-559,0,0,0,0,0,0,0,0,0,-1,727,1583,0,0
-490,-559,0.365601,3.07288,0,0,0,0,0,0,0,-1,734,1583,0.36563,-3.07291
-483,-559,-0.112427,4.25476,0,0,0,0,0,0,0,-1,741,1583,-0.112397,-4.25473
-476,-559,-0.671204,4.94214,0,0,0,0,0,0,0,-1,748,1583,-0.671186,-4.9422
-469,-559,-1.06,4.95776,0,0,0,0,0,0,0,-1,755,1583,-1.05997,-4.95782
-462,-559,-1.28772,5.69495,0,0,0,0,0,0,0,-1,762,1583,-1.28774,-5.69495
-455,-559,0.588989,6.61975,0,0,0,0,0,0,0,-1,769,1583,0.588967,-6.61969
-448,-559,0.927917,7.19971,0,0,0,0,0,0,0,-1,776,1583,0.927908,-7.19968
-441,-559,1.02887,7.56348,0.0153415,0.0231104,0.013748,0.0335122,0.00493971,0.923083,0.0208905,0.0473793,783,1583,1.02888,-7.56351
-434,-559,1.04791,8.17749,0.0119461,0.0184301,0.0108006,0.0264648,0.00391146,0.931204,0.0164947,0.0338695,790,1583,1.04789,-8.17755
-427,-559,0.887878,8.51697,0.00921947,0.0142602,0.00853297,0.0206373,0.00284245,0.929,0.0129154,0.0211301,797,1583,0.887862,-8.51699
-420,-559,0.820801,8.729,0.00715347,0.0110411,0.00670857,0.0160818,0.0021128,0.926414,0.0100909,0.0217471,804,1583,0.820788,-8.72899
-413,-559,0.865295,8.96594,0.00546612,0.0082722,0.00505233,0.0121127,0.00162564,0.920836,0.00759148,0.0125876,811,1583,0.86532,-8.9659
-406,-559,0.859436,9.22253,0.00400086,0.00571942,0.00365734,0.00861707,0.00110321,0.900778,0.00541457,0.00959387,818,1583,0.859438,-9.22251
-399,-559,0.863892,9.45544,0.00260634,0.00348636,0.00232402,0.00541166,0.000681039,0.878957,0.00340355,0.0121222,825,1583,0.863907,-9.45548
-392,-559,0.843323,9.67334,0.00159061,0.00174208,0.00126904,0.00293764,0.000395048,0.815202,0.00184093,0.0154915,832,1583,0.843305,-9.67332
-385,-559,0.837769,9.92065,0.000942951,0.000466612,0.000405919,0.00117541,0.000234149,0.520092,0.000718393,0.015669,839,1583,0.83777,-9.92065
-378,-559,0.845703,10.1636,0.00067177,-0.000199217,-0.00015292,0.000697838,-0.000225285,-0.168846,0.000555756,0.0142079,846,1583,0.84569,-10.1636
-371,-559,0.84137,10.3915,0.000527709,-0.000486944,-0.00067031,0.000861034,-0.000820269,-0.461462,0.000970796,0.0201829,853,1583,0.841396,-10.3915
-364,-559,0.848633,10.6248,0.000462394,-0.000714788,-0.000991478,0.00102683,-0.00127922,-0.517529,0.00133405,0.0191784,860,1583,0.848628,-10.6247
-357,-559,0.839661,10.8701,0.000741836,-0.000248965,-0.00088747,0.00126281,-0.000769943,-0.530833,0.00118506,0.0124044,867,1583,0.839653,-10.8701
-350,-559,0.848145,11.1046,0.00117019,0.000630589,-0.000480839,0.00145175,0.000349029,-0.529734,0.00087501,0.00964978,874,1583,0.848157,-11.1046
-343,-559,0.849792,11.3385,0.00149795,0.00154309,-0.000214289,0.001736,0.00130505,-0.837861,0.00104377,0.00984466,881,1583,0.849766,-11.3385
-336,-559,0.822388,11.5382,0.00157777,0.00214319,-8.49404e-05,0.00215567,0.00156529,-1.42486,0.0012863,0.0118222,888,1583,0.822403,-11.5383
-329,-559,0.859375,11.821,0.00166033,0.00310536,0.000288915,0.00316099,0.00160471,1.3806,0.00182507,0.0164843,895,1583,0.859356,-11.821
-322,-559,0.933167,12.1089,0.00156204,0.00408455,0.00073803,0.00428461,0.00136198,1.30608,0.00252783,0.040504,902,1583,0.933194,-12.1089
-315,-559,1.00403,12.1155,0.00124264,0.00488752,0.0011462,0.00521799,0.000912163,1.29008,0.00321799,0.0432636,909,1583,1.00406,-12.1155
-308,-559,0.976135,12.3192,0.000806889,0.00513284,0.00132045,0.00550404,0.000435689,1.29675,0.0035331,0.0400417,916,1583,0.976149,-12.3192
-301,-559,0.876892,12.781,-2.46829e-05,0.00478923,0.00136012,0.00514693,-0.000382389,1.31362,0.00356559,0.0451043,923,1583,0.876902,-12.781
-294,-559,0.840149,13.505,0,0,0,0,0,0,0,-1,930,1583,0.840172,-13.5049
-287,-559,0.495972,10.7688,0,0,0,0,0,0,0,-1,937,1583,0.495982,-10.7688
-280,-559,1.23059,11.0449,0,0,0,0,0,0,0,-1,944,1583,1.23061,-11.0449
-273,-559,2.12836,10.3059,0,0,0,0,0,0,0,-1,951,1583,2.12839,-10.3059
-266,-559,-0.597046,6.68933,0,0,0,0,0,0,0,-1,958,1583,-0.597031,-6.68937
-259,-559,-7.00311,8.62756,0,0,0,0,0,0,0,-1,965,1583,-7.00312,-8.6275
-252,-559,-9.4483,2.87805,0,0,0,0,0,0,0,-1,972,1583,-9.44829,-2.87805
-245,-559,-4.80804,7.1803,0,0,0,0,0,0,0,-1,979,1583,-4.80804,-7.18027
-238,-559,-6.77856,3.04285,0,0,0,0,0,0,0,-1,986,1583,-6.77856,-3.04289
-231,-559,-4.61151,5.07129,0,0,0,0,0,0,0,-1,993,1583,-4.61149,-5.07123
-224,-559,-3.29431,6.39868,0,0,0,0,0,0,0,-1,1000,1583,-3.29433,-6.39868
-217,-559,0,0,0,0,0,0,0,0,0,-1,1007,1583,0,0
-210,-559,0,0,0,0,0,0,0,0,0,-1,1014,1583,0,0
-203,-559,0,0,0,0,0,0,0,0,0,-1,1021,1583,0,0
-196,-559,0,0,0,0,0,0,0,0,0,-1,1028,1583,0,0
-189,-559,0,0,0,0,0,0,0,0,0,-1,1035,1583,0,0
-182,-559,0,0,0,0,0,0,0,0,0,-1,1042,1583,0,0
-175,-559,0,0,0,0,0,0,0,0,0,-1,1049,1583,0,0
-168,-559,0,0,0,0,0,0,0,0,0,-1,1056,1583,0,0
-161,-559,0,0,0,0,0,0,0,0,0,-1,1063,1583,0,0
-154,-559,0,0,0,0,0,0,0,0,0,-1,1070,1583,0,0
-147,-559,0,0,0,0,0,0,0,0,0,-1,1077,1583,0,0
-140,-559,0,0,0,0,0,0,0,0,0,-1,1084,1583,0,0
-133,-559,0,0,0,0,0,0,0,0,0,-1,1091,1583,0,0
-126,-559,0,0,0,0,0,0,0,0,0,-1,1098,1583,0,0
-119,-559,0,0,0,0,0,0,0,0,0,-1,1105,1583,0,0
-112,-559,0,0,0,0,0,0,0,0,0,-1,1112,1583,0,0
-105,-559,0,0,0,0,0,0,0,0,0,-1,1119,1583,0,0
-98,-559,0,0,0,0,0,0,0,0,0,-1,1126,1583,0,0
-91,-559,0,0,0,0,0,0,0,0,0,-1,1133,1583,0,0
-84,-559,0,0,0,0,0,0,0,0,0,-1,1140,1583,0,0
-77,-559,0,0,0,0,0,0,0,0,0,-1,1147,1583,0,0
-70,-559,0,0,0,0,0,0,0,0,0,-1,1154,1583,0,0
-63,-559,0,0,0,0,0,0,0,0,0,-1,1161,1583,0,0
-56,-559,0,0,0,0,0,0,0,0,0,-1,1168,1583,0,0
-49,-559,0,0,0,0,0,0,0,0,0,-1,1175,1583,0,0
-42,-559,0,0,0,0,0,0,0,0,0,-1,1182,1583,0,0
-35,-559,0,0,0,0,0,0,0,0,0,-1,1189,1583,0,0
-28,-559,0,0,0,0,0,0,0,0,0,-1,1196,1583,0,0
-21,-559,0,0,0,0,0,0,0,0,0,-1,1203,1583,0,0
-14,-559,0,0,0,0,0,0,0,0,0,-1,1210,1583,0,0
-7,-559,0,0,0,0,0,0,0,0,0,-1,1217,1583,0,0
0,-559,0,0,0,0,0,0,0,0,0,-1,1224,1583,0,0
7,-559,0,0,0,0,0,0,0,0,0,-1,1231,1583,0,0
14,-559,0,0,0,0,0,0,0,0,0,-1,1238,1583,0,0
21,-559,0,0,0,0,0,0,0,0,0,-1,1245,1583,0,0
28,-559,0,0,0,0,0,0,0,0,0,-1,1252,1583,0,0
35,-559,0,0,0,0,0,0,0,0,0,-1,1259,1583,0,0
42,-559,0,0,0,0,0,0,0,0,0,-1,1266,1583,0,0
49,-559,0,0,0,0,0,0,0,0,0,-1,1273,1583,0,0
56,-559,0,0,0,0,0,0,0,0,0,-1,1280,1583,0,0
63,-559,0,0,0,0,0,0,0,0,0,-1,1287,1583,0,0
70,-559,0,0,0,0,0,0,0,0,0,-1,1294,1583,0,0
77,-559,0,0,0,0,0,0,0,0,0,-1,1301,1583,0,0
84,-559,0,0,0,0,0,0,0,0,0,-1,1308,1583,0,0
91,-559,0,0,0,0,0,0,0,0,0,-1,1315,1583,0,0
98,-559,0,0,0,0,0,0,0,0,0,-1,1322,1583,0,0
105,-559,0,0,0,0,0,0,0,0,0,-1,1329,1583,0,0
112,-559,0,0,0,0,0,0,0,0,0,-1,1336,1583,0,0
119,-559,0,0,0,0,0,0,0,0,0,-1,1343,1583,0,0
126,-559,0,0,0,0,0,0,0,0,0,-1,1350,1583,0,0
133,-559,0,0,0,0,0,0,0,0,0,-1,1357,1583,0,0
140,-559,0,0,0,0,0,0,0,0,0,-1,1364,1583,0,0
147,-559,0,0,0,0,0,0,0,0,0,-1,1371,1583,0,0
154,-559,0,0,0,0,0,0,0,0,0,-1,1378,1583,0,0
161,-559,0,0,0,0,0,0,0,0,0,-1,1385,1583,0,0
168,-559,0,0,0,0,0,0,0,0,0,-1,1392,1583,0,0
175,-559,0,0,0,0,0,0,0,0,0,-1,1399,1583,0,0
182,-559,0,0,0,0,0,0,0,0,0,-1,1406,1583,0,0
189,-559,0,0,0,0,0,0,0,0,0,-1,1413,1583,0,0
196,-559,0,0,0,0,0,0,0,0,0,-1,1420,1583,0,0
203,-559,0,0,0,0,0,0,0,0,0,-1,1427,1583,0,0
210,-559,0,0,0,0,0,0,0,0,0,-1,1434,1583,0,0
217,-559,0,0,0,0,0,0,0,0,0,-1,1441,1583,0,0
224,-559,0,0,0,0,0,0,0,0,0,-1,1448,1583,0,0
231,-559,0,0,0,0,0,0,0,0,0,-1,1455,1583,0,0
238,-559,0,0,0,0,0,0,0,0,0,-1,1462,1583,0,0
245,-559,0,0,0,0,0,0,0,0,0,-1,1469,1583,0,0
252,-559,0,0,0,0,0,0,0,0,0,-1,1476,1583,0,0
259,-559,0,0,0,0,0,0,0,0,0,-1,1483,1583,0,0
266,-559,0,0,0,0,0,0,0,0,0,-1,1490,1583,0,0
273,-559,0,0,0,0,0,0,0,0,0,-1,1497,1583,0,0
280,-559,0,0,0,0,0,0,0,0,0,-1,1504,1583,0,0
287,-559,0,0,0,0,0,0,0,0,0,-1,1511,1583,0,0
294,-559,0,0,0,0,0,0,0,0,0,-1,1518,1583,0,0
301,-559,0,0,0,0,0,0,0,0,0,-1,1525,1583,0,0
308,-559,0,0,0,0,0,0,0,0,0,-1,1532,1583,0,0
315,-559,0,0,0,0,0,0,0,0,0,-1,1539,1583,0,0
322,-559,0,0,0,0,0,0,0,0,0,-1,1546,1583,0,0
329,-559,0,0,0,0,0,0,0,0,0,-1,1553,1583,0,0
336,-559,5.97668,3.09827,0,0,0,0,0,0,0,-1,1560,1583,5.97667,-3.09824
343,-559,5.44824,2.88696,0,0,0,0,0,0,0,-1,1567,1583,5.44819,-2.88693
350,-559,4.69775,3.27051,0,0,0,0,0,0,0,-1,1574,1583,4.69771,-3.27048
357,-559,3.88025,3.60999,0,0,0,0,0,0,0,-1,1581,1583,3.88027,-3.60998
364,-559,5.00928,5.32605,0,0,0,0,0,0,0,-1,1588,1583,5.00928,-5.32607
371,-559,1.84436,2.52441,0,0,0,0,0,0,0,-1,1595,1583,1.84441,-2.52447
378,-559,6.34753,1.53137,0,0,0,0,0,0,0,-1,1602,1583,6.34752,-1.53139
385,-559,6.95911,1.48181,0,0,0,0,0,0,0,-1,1609,1583,6.95916,-1.48175
392,-559,11.6949,4.77734,0,0,0,0,0,0,0,-1,1616,1583,11.6949,-4.77731
399,-559,11.1104,5.56909,0,0,0,0,0,0,0,-1,1623,1583,11.1103,-5.56905
406,-559,10.3385,6.48657,0,0,0,0,0,0,0,-1,1630,1583,10.3385,-6.48661
413,-559,9.76147,6.97571,0,0,0,0,0,0,0,-1,1637,1583,9.76143,-6.97574
420,-559,7.77124,10.5851,0,0,0,0,0,0,0,-1,1644,1583,7.77128,-10.585
427,-559,10.1022,12.5565,0,0,0,0,0,0,0,-1,1651,1583,10.1021,-12.5565
434,-559,9.71606,14.8009,0,0,0,0,0,0,0,-1,1658,1583,9.71609,-14.8009
441,-559,9.20703,13.3218,0,0,0,0,0,0,0,-1,1665,1583,9.20708,-13.3218
448,-559,9.17041,13.1254,-0.00342264,-0.0106037,-0.00551764,-0.000430141,-0.0135962,-0.496952,0.0089242,0.0451503,1672,1583,9.17043,-13.1254
455,-559,9.02136,12.7271,-0.00562072,-0.0116215,-0.000580126,-0.00556515,-0.0116771,-0.0954967,0.00674422,0.0444991,1679,1583,9.02134,-12.727
462,-559,8.77466,12.6693,-0.00702829,-0.0122603,0.00318991,-0.00551888,-0.0137697,0.441964,0.00800193,0.0366027,1686,1583,8.77462,-12.6693
469,-559,8.67041,12.6609,-0.00785235,-0.0121603,0.00589998,-0.00372544,-0.0162872,0.610375,0.00985392,0.0180631,1693,1583,8.67042,-12.6609
476,-559,8.6543,12.4564,-0.00806745,-0.0114959,0.00738402,-0.00220129,-0.0173621,0.671341,0.0109152,0.00987333,1700,1583,8.65428,-12.4565
483,-559,8.6676,12.2406,-0.00768546,-0.0103508,0.00798653,-0.000921182,-0.0171151,0.702727,0.0111157,0.0115941,1707,1583,8.66755,-12.2407
490,-559,8.67444,12.0513,-0.0071168,-0.00911711,0.00835911,0.00030177,-0.0165357,0.725857,0.0111257,0.0144682,1714,1583,8.67442,-12.0513
497,-559,8.71118,11.8451,-0.0059968,-0.00785667,0.00772437,0.00085341,-0.0147069,0.725492,0.0101011,0.0182231,1721,1583,8.71124,-11.8451
504,-559,8.69165,11.6288,-0.00435913,-0.00636432,0.00633667,0.00105377,-0.0117772,0.706938,0.00822527,0.0232865,1728,1583,8.69161,-11.6287
511,-559,8.67297,11.4216,-0.00216756,-0.00485306,0.00433557,0.00102843,-0.00804905,0.63523,0.00573964,0.0202473,1735,1583,8.67298,-11.4216
518,-559,8.71277,11.2137,6.24141e-05,-0.00343677,0.00235218,0.00124435,-0.0046187,0.465632,0.00356701,0.0129788,1742,1583,8.71272,-11.2137
525,-559,8.70142,10.9807,0.00228949,-0.00241964,0.000550632,0.00235302,-0.00248317,0.114864,0.00279251,0.011826,1749,1583,8.70136,-10.9807
532,-559,8.67261,10.7805,0.00447177,-0.00172954,-0.00103149,0.00463884,-0.00189662,-0.160576,0.00388239,0.0133737,1756,1583,8.67261,-10.7805
539,-559,8.66138,10.5781,0.00653376,-0.00155213,-0.00217426,0.00708133,-0.0020997,-0.246711,0.00555468,0.0171702,1763,1583,8.66142,-10.5782
546,-559,8.65967,10.3351,0.00861634,-0.00155375,-0.00319577,0.00953717,-0.00247458,-0.280543,0.00732368,0.015503,1770,1583,8.65967,-10.3351
553,-559,8.80469,10.0413,0.010567,-0.00122503,-0.00402809,0.0118116,-0.00246964,-0.299677,0.00881372,0.0251751,1777,1583,8.80474,-10.0413
560,-559,8.82495,9.71704,0,0,0,0,0,0,0,-1,1784,1583,8.82495,-9.71704
567,-559,8.57544,9.39636,0,0,0,0,0,0,0,-1,1791,1583,8.57549,-9.39642
574,-559,8.79309,8.98853,0,0,0,0,0,0,0,-1,1798,1583,8.79305,-8.98848
581,-559,5.97095,5.96179,0,0,0,0,0,0,0,-1,1805,1583,5.97093,-5.96181
588,-559,5.79102,5.89954,0,0,0,0,0,0,0,-1,1812,1583,5.79098,-5.89949
595,-559,5.79089,6.24231,0,0,0,0,0,0,0,-1,1819,1583,5.7909,-6.24227
602,-559,12.478,2.35669,0,0,0,0,0,0,0,-1,1826,1583,12.4781,-2.35675
609,-559,14.0479,1.22681,0,0,0,0,0,0,0,-1,1833,1583,14.0479,-1.22681
616,-559,0,0,0,0,0,0,0,0,0,-1,1840,1583,0,0
623,-559,0,0,0,0,0,0,0,0,0,-1,1847,1583,0,0
630,-559,0,0,0,0,0,0,0,0,0,-1,1854,1583,0,0
637,-559,0,0,0,0,0,0,0,0,0,-1,1861,1583,0,0
644,-559,0,0,0,0,0,0,0,0,0,-1,1868,1583,0,0
651,-559,0,0,0,0,0,0,0,0,0,-1,1875,1583,0,0
658,-559,0,0,0,0,0,0,0,0,0,-1,1882,1583,0,0
665,-559,0,0,0,0,0,0,0,0,0,-1,1889,1583,0,0
672,-559,0,0,0,0,0,0,0,0,0,-1,1896,1583,0,0
679,-559,0,0,0,0,0,0,0,0,0,-1,1903,1583,0,0
686,-559,0,0,0,0,0,0,0,0,0,-1,1910,1583,0,0
693,-559,0,0,0,0,0,0,0,0,0,-1,1917,1583,0,0
700,-559,0,0,0,0,0,0,0,0,0,-1,1924,1583,0,0
707,-559,0,0,0,0,0,0,0,0,0,-1,1931,1583,0,0
714,-559,0,0,0,0,0,0,0,0,0,-1,1938,1583,0,0
721,-559,0,0,0,0,0,0,0,0,0,-1,1945,1583,0,0
728,-559,0,0,0,0,0,0,0,0,0,-1,1952,1583,0,0
735,-559,0,0,0,0,0,0,0,0,0,-1,1959,1583,0,0
742,-559,0,0,0,0,0,0,0,0,0,-1,1966,1583,0,0
749,-559,0,0,0,0,0,0,0,0,0,-1,1973,1583,0,0
756,-559,0,0,0,0,0,0,0,0,0,-1,1980,1583,0,0
763,-559,0,0,0,0,0,0,0,0,0,-1,1987,1583,0,0
770,-559,0,0,0,0,0,0,0,0,0,-1,1994,1583,0,0
777,-559,0,0,0,0,0,0,0,0,0,-1,2001,1583,0,0
784,-559,0,0,0,0,0,0,0,0,0,-1,2008,1583,0,0
791,-559,0,0,0,0,0,0,0,0,0,-1,2015,1583,0,0
798,-559,0,0,0,0,0,0,0,0,0,-1,2022,1583,0,0
805,-559,0,0,0,0,0,0,0,0,0,-1,2029,1583,0,0
812,-559,0,0,0,0,0,0,0,0,0,-1,2036,1583,0,0
-700,-566,0,0,0,0,0,0,0,0,0,-1,524,1590,0,0
-693,-566,0,0,0,0,0,0,0,0,0,-1,531,1590,0,0
-686,-566,0,0,0,0,0,0,0,0,0,-1,538,1590,0,0
-679,-566,0,0,0,0,0,0,0,0,0,-1,545,1590,0,0
-672,-566,0,0,0,0,0,0,0,0,0,-1,552,1590,0,0
-665,-566,0,0,0,0,0,0,0,0,0,-1,559,1590,0,0
-658,-566,0,0,0,0,0,0,0,0,0,-1,566,1590,0,0
-651,-566,0,0,0,0,0,0,0,0,0,-1,573,1590,0,0
-644,-566,0,0,0,0,0,0,0,0,0,-1,580,1590,0,0
-637,-566,0,0,0,0,0,0,0,0,0,-1,587,1590,0,0
-630,-566,0,0,0,0,0,0,0,0,0,-1,594,1590,0,0
-623,-566,0,0,0,0,0,0,0,0,0,-1,601,1590,0,0
-616,-566,0,0,0,0,0,0,0,0,0,-1,608,1590,0,0
-609,-566,0,0,0,0,0,0,0,0,0,-1,615,1590,0,0
-602,-566,0,0,0,0,0,0,0,0,0,-1,622,1590,0,0
-595,-566,0,0,0,0,0,0,0,0,0,-1,629,1590,0,0
-588,-566,0,0,0,0,0,0,0,0,0,-1,636,1590,0,0
-581,-566,0,0,0,0,0,0,0,0,0,-1,643,1590,0,0
-574,-566,0,0,0,0,0,0,0,0,0,-1,650,1590,0,0
-567,-566,0,0,0,0,0,0,0,0,0,-1,657,1590,0,0
-560,-566,0,0,0,0,0,0,0,0,0,-1,664,1590,0,0
-553,-566,0,0,0,0,0,0,0,0,0,-1,671,1590,0,0
-546,-566,0,0,0,0,0,0,0,0,0,-1,678,1590,0,0
-539,-566,0,0,0,0,0,0,0,0,0,-1,685,1590,0,0
-532,-566,0,0,0,0,0,0,0,0,0,-1,692,1590,0,0
-525,-566,0,0,0,0,0,0,0,0,0,-1,699,1590,0,0
-518,-566,0,0,0,0,0,0,0,0,0,-1,706,1590,0,0
-511,-566,0,0,0,0,0,0,0,0,0,-1,713,1590,0,0
-504,-566,0,0,0,0,0,0,0,0,0,-1,720,1590,0,0
-497,-566,0,0,0,0,0,0,0,0,0,-1,727,1590,0,0
-490,-566,0,0,0,0,0,0,0,0,0,-1,734,1590,0,0
-483,-566,-2.4743,2.07825,0,0,0,0,0,0,0,-1,741,1590,-2.47428,-2.07829
-476,-566,-1.80646,2.39294,0,0,0,0,0,0,0,-1,748,1590,-1.80644,-2.39298
-469,-566,-1.15375,3.03284,0,0,0,0,0,0,0,-1,755,1590,-1.15378,-3.03283
-462,-566,-0.459106,3.89343,0,0,0,0,0,0,0,-1,762,1590,-0.459095,-3.89341
-455,-566,0.280212,4.74023,0,0,0,0,0,0,0,-1,769,1590,0.280207,-4.74023
-448,-566,0.917358,5.58521,0,0,0,0,0,0,0,-1,776,1590,0.91735,-5.58524
-441,-566,1.32892,7.29089,0,0,0,0,0,0,0,-1,783,1590,1.32893,-7.29085
-434,-566,1.40259,8.1427,0,0,0,0,0,0,0,-1,790,1590,1.40259,-8.14273
-427,-566,0.708801,8.60156,0.018366,0.0259524,0.0161844,0.0387822,0.00553619,0.900508,0.0242212,0.0397353,797,1590,0.708787,-8.60157
-420,-566,0.954407,8.86438,0.0143415,0.0203607,0.0127871,0.0304876,0.00421462,0.900977,0.019076,0.0320968,804,1590,0.954433,-8.86438
-413,-566,1.1084,8.9823,0.0109291,0.0154684,0.00977786,0.0232366,0.00316093,0.899438,0.0145523,0.0159986,811,1590,1.10841,-8.98235
-406,-566,1.10992,9.21509,0.00798405,0.0111222,0.00724324,0.0169644,0.0021419,0.892064,0.0106675,0.00917807,818,1590,1.1099,-9.21509
-399,-566,1.09802,9.45093,0.00536062,0.00744311,0.00496863,0.0114784,0.00132531,0.888685,0.007251,0.00903634,825,1590,1.098,-9.45098
-392,-566,1.06915,9.66846,0.00336172,0.00451966,0.00315637,0.00714972,0.000731655,0.876104,0.00454228,0.0116412,832,1590,1.06914,-9.66845
-385,-566,1.08179,9.92053,0.00197243,0.00232324,0.00173443,0.00389111,0.000404559,0.835793,0.00247029,0.0147763,839,1590,1.0818,-9.92059
-378,-566,1.08917,10.1865,0.00115245,0.000994496,0.000780027,0.00185749,0.000289456,0.734947,0.001154,0.0150754,846,1590,1.08918,-10.1865
-371,-566,1.05554,10.4009,0.000642131,0.000270221,4.17004e-06,0.000642177,0.000270175,0.0112106,0.000372312,0.0208771,853,1590,1.05556,-10.4009
-364,-566,1.06799,10.619,0.000199385,-0.000437033,-0.000551958,0.00051829,-0.000755939,-0.523914,0.000739929,0.0218231,860,1590,1.06801,-10.619
-357,-566,1.05127,10.8561,0.000296144,-0.000350193,-0.000621231,0.000673237,-0.000727286,-0.545557,0.000808793,0.0177829,867,1590,1.05129,-10.8561
-350,-566,1.06073,11.0822,0.000764406,0.000369936,-0.000282386,0.000911618,0.000222724,-0.480553,0.000548782,0.0200353,874,1590,1.06075,-11.0822
-343,-566,1.0766,11.2994,0.00112394,0.00108734,-6.81929e-05,0.00117625,0.00103504,-0.654316,0.00074159,0.0235134,881,1590,1.0766,-11.2994
-336,-566,1.04669,11.5348,0.00121927,0.00141634,-4.4774e-05,0.00142604,0.00120958,-1.35754,0.000887383,0.0233665,888,1590,1.04672,-11.5348
-329,-566,1.09601,11.7412,0.00129019,0.00201384,0.000130321,0.00203659,0.00126743,1.39794,0.0011875,0.0140497,895,1590,1.09598,-11.7412
-322,-566,1.13934,12.0095,0.00118372,0.00248468,0.000294672,0.00254831,0.00112008,1.35812,0.00147485,0.0164832,902,1590,1.13936,-12.0095
-315,-566,1.08643,12.1316,0.000855239,0.00272079,0.000333439,0.0027786,0.000797433,1.39914,0.00165204,0.0290406,909,1590,1.08645,-12.1316
-308,-566,1.0744,12.3228,0.000379828,0.00236062,0.000143213,0.00237092,0.000369527,1.49899,0.00147297,0.0351967,916,1590,1.07442,-12.3228
-301,-566,1.12488,12.5387,-0.000415165,0.00158676,-0.000146994,0.00159749,-0.000425901,-1.49789,0.00123176,0.0437753,923,1590,1.12485,-12.5387
-294,-566,1.18195,12.7174,0,0,0,0,0,0,0,-1,930,1590,1.18196,-12.7175
-287,-566,0.99231,11.7563,0,0,0,0,0,0,0,-1,937,1590,0.992279,-11.7563
-280,-566,0.636536,11.811,0,0,0,0,0,0,0,-1,944,1590,0.636524,-11.8111
-273,-566,0.49762,11.2427,0,0,0,0,0,0,0,-1,951,1590,0.497591,-11.2426
-266,-566,0.392151,6.90295,0,0,0,0,0,0,0,-1,958,1590,0.392151,-6.90294
-259,-566,0.343628,6.47437,0,0,0,0,0,0,0,-1,965,1590,0.34363,-6.47438
-252,-566,-7.68311,1.01343,0,0,0,0,0,0,0,-1,972,1590,-7.68308,-1.01348
-245,-566,-11.1835,1.97522,0,0,0,0,0,0,0,-1,979,1590,-11.1835,-1.97527
-238,-566,-8.96832,3.56189,0,0,0,0,0,0,0,-1,986,1590,-8.9683,-3.56188
-231,-566,-6.91888,5.29956,0,0,0,0,0,0,0,-1,993,1590,-6.91891,-5.29955
-224,-566,-4.99377,6.96436,0,0,0,0,0,0,0,-1,1000,1590,-4.99378,-6.96431
-217,-566,-2.82867,7.52527,0,0,0,0,0,0,0,-1,1007,1590,-2.82869,-7.52531
-210,-566,-1.03436,8.67737,0,0,0,0,0,0,0,-1,1014,1590,-1.03439,-8.67733
-203,-566,0,0,0,0,0,0,0,0,0,-1,1021,1590,0,0
-196,-566,0,0,0,0,0,0,0,0,0,-1,1028,1590,0,0
-189,-566,0,0,0,0,0,0,0,0,0,-1,1035,1590,0,0
-182,-566,0,0,0,0,0,0,0,0,0,-1,1042,1590,0,0
-175,-566,0,0,0,0,0,0,0,0,0,-1,1049,1590,0,0
-168,-566,0,0,0,0,0,0,0,0,0,-1,1056,1590,0,0
-161,-566,0,0,0,0,0,0,0,0,0,-1,1063,1590,0,0
-154,-566,0,0,0,0,0,0,0,0,0,-1,1070,1590,0,0
-147,-566,0,0,0,0,0,0,0,0,0,-1,1077,1590,0,0
-140,-566,0,0,0,0,0,0,0,0,0,-1,1084,1590,0,0
-133,-566,0,0,0,0,0,0,0,0,0,-1,1091,1590,0,0
-126,-566,0,0,0,0,0,0,0,0,0,-1,1098,1590,0,0
-119,-566,0,0,0,0,0,0,0,0,0,-1,1105,1590,0,0
-112,-566,0,0,0,0,0,0,0,0,0,-1,1112,1590,0,0
-105,-566,0,0,0,0,0,0,0,0,0,-1,1119,1590,0,0
-98,-566,0,0,0,0,0,0,0,0,0,-1,1126,1590,0,0
-91,-566,0,0,0,0,0,0,0,0,0,-1,1133,1590,0,0
-84,-566,0,0,0,0,0,0,0,0,0,-1,1140,1590,0,0
-77,-566,0,0,0,0,0,0,0,0,0,-1,1147,1590,0,0
-70,-566,0,0,0,0,0,0,0,0,0,-1,1154,1590,0,0
-63,-566,0,0,0,0,0,0,0,0,0,-1,1161,1590,0,0
-56,-566,0,0,0,0,0,0,0,0,0,-1,1168,1590,0,0
-49,-566,0,0,0,0,0,0,0,0,0,-1,1175,1590,0,0
-42,-566,0,0,0,0,0,0,0,0,0,-1,1182,1590,0,0
-35,-566,0,0,0,0,0,0,0,0,0,-1,1189,1590,0,0
-28,-566,0,0,0,0,0,0,0,0,0,-1,1196,1590,0,0
-21,-566,0,0,0,0,0,0,0,0,0,-1,1203,1590,0,0
-14,-566,0,0,0,0,0,0,0,0,0,-1,1210,1590,0,0
-7,-566,0,0,0,0,0,0,0,0,0,-1,1217,1590,0,0
0,-566,0,0,0,0,0,0,0,0,0,-1,1224,1590,0,0
7,-566,0,0,0,0,0,0,0,0,0,-1,1231,1590,0,0
14,-566,0,0,0,0,0,0,0,0,0,-1,1238,1590,0,0
21,-566,0,0,0,0,0,0,0,0,0,-1,1245,1590,0,0
28,-566,0,0,0,0,0,0,0,0,0,-1,1252,1590,0,0
35,-566,0,0,0,0,0,0,0,0,0,-1,1259,1590,0,0
42,-566,0,0,0,0,0,0,0,0,0,-1,1266,1590,0,0
49,-566,0,0,0,0,0,0,0,0,0,-1,1273,1590,0,0
56,-566,0,0,0,0,0,0,0,0,0,-1,1280,1590,0,0
63,-566,0,0,0,0,0,0,0,0,0,-1,1287,1590,0,0
70,-566,0,0,0,0,0,0,0,0,0,-1,1294,1590,0,0
77,-566,0,0,0,0,0,0,0,0,0,-1,1301,1590,0,0
84,-566,0,0,0,0,0,0,0,0,0,-1,1308,1590,0,0
91,-566,0,0,0,0,0,0,0,0,0,-1,1315,1590,0,0
98,-566,0,0,0,0,0,0,0,0,0,-1,1322,1590,0,0
105,-566,0,0,0,0,0,0,0,0,0,-1,1329,1590,0,0
112,-566,0,0,0,0,0,0,0,0,0,-1,1336,1590,0,0
119,-566,0,0,0,0,0,0,0,0,0,-1,1343,1590,0,0
126,-566,0,0,0,0,0,0,0,0,0,-1,1350,1590,0,0
133,-566,0,0,0,0,0,0,0,0,0,-1,1357,1590,0,0
140,-566,0,0,0,0,0,0,0,0,0,-1,1364,1590,0,0
147,-566,0,0,0,0,0,0,0,0,0,-1,1371,1590,0,0
154,-566,0,0,0,0,0,0,0,0,0,-1,1378,1590,0,0
161,-566,0,0,0,0,0,0,0,0,0,-1,1385,1590,0,0
168,-566,0,0,0,0,0,0,0,0,0,-1,1392,1590,0,0
175,-566,0,0,0,0,0,0,0,0,0,-1,1399,1590,0,0
182,-566,0,0,0,0,0,0,0,0,0,-1,1406,1590,0,0
189,-566,0,0,0,0,0,0,0,0,0,-1,1413,1590,0,0
196,-566,0,0,0,0,0,0,0,0,0,-1,1420,1590,0,0
203,-566,0,0,0,0,0,0,0,0,0,-1,1427,1590,0,0
210,-566,0,0,0,0,0,0,0,0,0,-1,1434,1590,0,0
217,-566,0,0,0,0,0,0,0,0,0,-1,1441,1590,0,0
224,-566,0,0,0,0,0,0,0,0,0,-1,1448,1590,0,0
231,-566,0,0,0,0,0,0,0,0,0,-1,1455,1590,0,0
238,-566,0,0,0,0,0,0,0,0,0,-1,1462,1590,0,0
245,-566,0,0,0,0,0,0,0,0,0,-1,1469,1590,0,0
252,-566,0,0,0,0,0,0,0,0,0,-1,1476,1590,0,0
259,-566,0,0,0,0,0,0,0,0,0,-1,1483,1590,0,0
266,-566,0,0,0,0,0,0,0,0,0,-1,1490,1590,0,0
273,-566,0,0,0,0,0,0,0,0,0,-1,1497,1590,0,0
280,-566,0,0,0,0,0,0,0,0,0,-1,1504,1590,0,0
287,-566,0,0,0,0,0,0,0,0,0,-1,1511,1590,0,0
294,-566,0,0,0,0,0,0,0,0,0,-1,1518,1590,0,0
301,-566,0,0,0,0,0,0,0,0,0,-1,1525,1590,0,0
308,-566,0,0,0,0,0,0,0,0,0,-1,1532,1590,0,0
315,-566,0,0,0,0,0,0,0,0,0,-1,1539,1590,0,0
322,-566,6.07983,4.44873,0,0,0,0,0,0,0,-1,1546,1590,6.07983,-4.44873
329,-566,5.77026,3.47534,0,0,0,0,0,0,0,-1,1553,1590,5.77026,-3.47535
336,-566,5.41138,2.62915,0,0,0,0,0,0,0,-1,1560,1590,5.41138,-2.62909
343,-566,4.81873,1.79089,0,0,0,0,0,0,0,-1,1567,1590,4.81878,-1.79095
350,-566,4.41663,2.44214,0,0,0,0,0,0,0,-1,1574,1590,4.41666,-2.44214
357,-566,6.34058,5.18579,0,0,0,0,0,0,0,-1,1581,1590,6.34059,-5.1858
364,-566,6.06262,4.20251,0,0,0,0,0,0,0,-1,1588,1590,6.06259,-4.20246
371,-566,5.78455,3.21912,0,0,0,0,0,0,0,-1,1595,1590,5.7846,-3.21912
378,-566,5.7439,0.695557,0,0,0,0,0,0,0,-1,1602,1590,5.74392,-0.695531
385,-566,5.67615,-0.573975,0,0,0,0,0,0,0,-1,1609,1590,5.67612,0.573956
392,-566,5.78638,1.82434,0,0,0,0,0,0,0,-1,1616,1590,5.78637,-1.82439
399,-566,5.36621,1.7373,0,0,0,0,0,0,0,-1,1623,1590,5.36627,-1.7373
406,-566,4.30359,5.26868,0,0,0,0,0,0,0,-1,1630,1590,4.30364,-5.26867
413,-566,4.27124,5.79492,0,0,0,0,0,0,0,-1,1637,1590,4.27123,-5.7949
420,-566,7.19812,8.25146,0,0,0,0,0,0,0,-1,1644,1590,7.19817,-8.25149
427,-566,10.455,10.6842,0,0,0,0,0,0,0,-1,1651,1590,10.455,-10.6842
434,-566,8.14404,12.7218,0,0,0,0,0,0,0,-1,1658,1590,8.14409,-12.7218
441,-566,8.79541,13.058,0,0,0,0,0,0,0,-1,1665,1590,8.79538,-13.058
448,-566,8.67908,13.0244,-0.00317693,-0.00846711,-0.00242052,-0.00223657,-0.00940746,-0.370547,0.00567498,0.0350616,1672,1590,8.67904,-13.0244
455,-566,8.47437,13.0032,-0.0043133,-0.00877059,0.000289003,-0.00429464,-0.00878925,0.0644786,0.00507491,0.0275216,1679,1590,8.47431,-13.0032
462,-566,8.43347,12.8622,-0.00497393,-0.00894533,0.00239498,-0.00384853,-0.0100707,0.439278,0.00586793,0.0164959,1686,1590,8.4335,-12.8622
469,-566,8.44946,12.6573,-0.00532212,-0.00866469,0.00398729,-0.00267001,-0.0113168,0.586944,0.00683074,0.0126595,1693,1590,8.4495,-12.6573
476,-566,8.45313,12.4463,-0.00535034,-0.008037,0.00483146,-0.00167894,-0.0117084,0.649804,0.00731051,0.0102648,1700,1590,8.45313,-12.4463
483,-566,8.44531,12.2471,-0.00492607,-0.00707609,0.00517068,-0.000719832,-0.0112823,0.682906,0.00729346,0.0100337,1707,1590,8.44536,-12.247
490,-566,8.44775,12.0394,-0.00429502,-0.0061192,0.00534326,0.000213436,-0.0106277,0.700863,0.00715731,0.0100273,1714,1590,8.44773,-12.0394
497,-566,8.48267,11.8271,-0.00325527,-0.00521183,0.00476247,0.000628356,-0.00909546,0.6841,0.00628357,0.0136885,1721,1590,8.48269,-11.8271
504,-566,8.48816,11.6304,-0.00177234,-0.00418591,0.00364159,0.000857216,-0.00681546,0.625398,0.00485467,0.0193833,1728,1590,8.48812,-11.6304
511,-566,8.46008,11.4214,0.000150183,-0.00317351,0.00208135,0.00115175,-0.00417508,0.448502,0.00323635,0.0187556,1735,1590,8.46013,-11.4214
518,-566,8.46838,11.2214,0.00218204,-0.00232908,0.000527971,0.00224301,-0.00239005,0.114968,0.00267534,0.011558,1742,1590,8.46834,-11.2215
525,-566,8.47192,10.9875,0.00432912,-0.00188238,-0.000902467,0.00445758,-0.00201084,-0.141396,0.00382256,0.0115504,1749,1590,8.47198,-10.9875
532,-566,8.47729,10.7815,0.00654287,-0.00180513,-0.00213874,0.00705891,-0.00232117,-0.236757,0.00564116,0.0132793,1756,1590,8.47734,-10.7815
539,-566,8.45618,10.5404,0.00870267,-0.00236523,-0.00292578,0.00942849,-0.00309106,-0.24317,0.00753053,0.0162018,1763,1590,8.45612,-10.5405
546,-566,8.50354,10.2762,0.0110525,-0.00304282,-0.00372754,0.0119776,-0.00396787,-0.243251,0.00958545,0.0193956,1770,1590,8.50353,-10.2762
553,-566,8.60425,10.1871,0.0134819,-0.00315147,-0.0045489,0.0146447,-0.00431423,-0.250253,0.0114748,0.0373684,1777,1590,8.60421,-10.1872
560,-566,8.64893,10.158,0,0,0,0,0,0,0,-1,1784,1590,8.64893,-10.158
567,-566,8.90405,10.0139,0,0,0,0,0,0,0,-1,1791,1590,8.90405,-10.0139
574,-566,7.99548,3.14514,0,0,0,0,0,0,0,-1,1798,1590,7.99543,-3.14511
581,-566,2.54102,5.1311,0,0,0,0,0,0,0,-1,1805,1590,2.54099,-5.13111
588,-566,-1.91321,8.39197,0,0,0,0,0,0,0,-1,1812,1590,-1.91316,-8.39199
595,-566,9.0271,4.66467,0,0,0,0,0,0,0,-1,1819,1590,9.02705,-4.66468
602,-566,9.953,3.54895,0,0,0,0,0,0,0,-1,1826,1590,9.953,-3.54898
609,-566,0,0,0,0,0,0,0,0,0,-1,1833,1590,0,0
616,-566,0,0,0,0,0,0,0,0,0,-1,1840,1590,0,0
623,-566,0,0,0,0,0,0,0,0,0,-1,1847,1590,0,0
630,-566,0,0,0,0,0,0,0,0,0,-1,1854,1590,0,0
637,-566,0,0,0,0,0,0,0,0,0,-1,1861,1590,0,0
644,-566,0,0,0,0,0,0,0,0,0,-1,1868,1590,0,0
651,-566,0,0,0,0,0,0,0,0,0,-1,1875,1590,0,0
658,-566,0,0,0,0,0,0,0,0,0,-1,1882,1590,0,0
665,-566,0,0,0,0,0,0,0,0,0,-1,1889,1590,0,0
672,-566,0,0,0,0,0,0,0,0,0,-1,1896,1590,0,0
679,-566,0,0,0,0,0,0,0,0,0,-1,1903,1590,0,0
686,-566,0,0,0,0,0,0,0,0,0,-1,1910,1590,0,0
693,-566,0,0,0,0,0,0,0,0,0,-1,1917,1590,0,0
700,-566,0,0,0,0,0,0,0,0,0,-1,1924,1590,0,0
707,-566,0,0,0,0,0,0,0,0,0,-1,1931,1590,0,0
714,-566,0,0,0,0,0,0,0,0,0,-1,1938,1590,0,0
721,-566,0,0,0,0,0,0,0,0,0,-1,1945,1590,0,0
728,-566,0,0,0,0,0,0,0,0,0,-1,1952,1590,0,0
735,-566,0,0,0,0,0,0,0,0,0,-1,1959,1590,0,0
742,-566,0,0,0,0,0,0,0,0,0,-1,1966,1590,0,0
749,-566,0,0,0,0,0,0,0,0,0,-1,1973,1590,0,0
756,-566,0,0,0,0,0,0,0,0,0,-1,1980,1590,0,0
763,-566,0,0,0,0,0,0,0,0,0,-1,1987,1590,0,0
770,-566,0,0,0,0,0,0,0,0,0,-1,1994,1590,0,0
777,-566,0,0,0,0,0,0,0,0,0,-1,2001,1590,0,0
784,-566,0,0,0,0,0,0,0,0,0,-1,2008,1590,0,0
791,-566,0,0,0,0,0,0,0,0,0,-1,2015,1590,0,0
798,-566,0,0,0,0,0,0,0,0,0,-1,2022,1590,0,0
805,-566,0,0,0,0,0,0,0,0,0,-1,2029,1590,0,0
812,-566,0,0,0,0,0,0,0,0,0,-1,2036,1590,0,0
-700,-573,0,0,0,0,0,0,0,0,0,-1,524,1597,0,0
-693,-573,0,0,0,0,0,0,0,0,0,-1,531,1597,0,0
-686,-573,0,0,0,0,0,0,0,0,0,-1,538,1597,0,0
-679,-573,0,0,0,0,0,0,0,0,0,-1,545,1597,0,0
-672,-573,0,0,0,0,0,0,0,0,0,-1,552,1597,0,0
-665,-573,0,0,0,0,0,0,0,0,0,-1,559,1597,0,0
-658,-573,0,0,0,0,0,0,0,0,0,-1,566,1597,0,0
-651,-573,0,0,0,0,0,0,0,0,0,-1,573,1597,0,0
-644,-573,0,0,0,0,0,0,0,0,0,-1,580,1597,0,0
-637,-573,0,0,0,0,0,0,0,0,0,-1,587,1597,0,0
-630,-573,0,0,0,0,0,0,0,0,0,-1,594,1597,0,0
-623,-573,0,0,0,0,0,0,0,0,0,-1,601,1597,0,0
-616,-573,0,0,0,0,0,0,0,0,0,-1,608,1597,0,0
-609,-573,0,0,0,0,0,0,0,0,0,-1,615,1597,0,0
-602,-573,0,0,0,0,0,0,0,0,0,-1,622,1597,0,0
-595,-573,0,0,0,0,0,0,0,0,0,-1,629,1597,0,0
-588,-573,0,0,0,0,0,0,0,0,0,-1,636,1597,0,0
-581,-573,0,0,0,0,0,0,0,0,0,-1,643,1597,0,0
-574,-573,0,0,0,0,0,0,0,0,0,-1,650,1597,0,0
-567,-573,0,0,0,0,0,0,0,0,0,-1,657,1597,0,0
-560,-573,0,0,0,0,0,0,0,0,0,-1,664,1597,0,0
-553,-573,0,0,0,0,0,0,0,0,0,-1,671,1597,0,0
-546,-573,0,0,0,0,0,0,0,0,0,-1,678,1597,0,0
-539,-573,0,0,0,0,0,0,0,0,0,-1,685,1597,0,0
-532,-573,0,0,0,0,0,0,0,0,0,-1,692,1597,0,0
-525,-573,0,0,0,0,0,0,0,0,0,-1,699,1597,0,0
-518,-573,0,0,0,0,0,0,0,0,0,-1,706,1597,0,0
-511,-573,0,0,0,0,0,0,0,0,0,-1,713,1597,0,0
-504,-573,0,0,0,0,0,0,0,0,0,-1,720,1597,0,0
-497,-573,0,0,0,0,0,0,0,0,0,-1,727,1597,0,0
-490,-573,0,0,0,0,0,0,0,0,0,-1,734,1597,0,0
-483,-573,0,0,0,0,0,0,0,0,0,-1,741,1597,0,0
-476,-573,-1.86273,0.293091,0,0,0,0,0,0,0,-1,748,1597,-1.86276,-0.29314
-469,-573,-1.41681,1.13379,0,0,0,0,0,0,0,-1,755,1597,-1.41681,-1.13382
-462,-573,-0.748535,2.02588,0,0,0,0,0,0,0,-1,762,1597,-0.748533,-2.02584
-455,-573,-0.112976,2.70703,0,0,0,0,0,0,0,-1,769,1597,-0.112988,-2.70697
-448,-573,-1.26172,3.33252,0,0,0,0,0,0,0,-1,776,1597,-1.26173,-3.33248
-441,-573,0.108582,5.06726,0,0,0,0,0,0,0,-1,783,1597,0.108584,-5.06721
-434,-573,1.61768,7.05444,0,0,0,0,0,0,0,-1,790,1597,1.61767,-7.05446
-427,-573,0.503113,8.66565,0,0,0,0,0,0,0,-1,797,1597,0.503083,-8.66562
-420,-573,1.04181,8.51917,0.0227746,0.0307433,0.0196568,0.0468155,0.0067024,0.88539,0.0292334,0.0425234,804,1597,1.04181,-8.51915
-413,-573,1.45258,8.87683,0.0172225,0.0231088,0.0150505,0.0355012,0.00483004,0.881955,0.022233,0.0346868,811,1597,1.45255,-8.87687
-406,-573,1.3595,9.16956,0.0125063,0.0165791,0.0111865,0.025913,0.00317234,0.875433,0.016321,0.0172235,818,1597,1.35949,-9.1696
-399,-573,1.32385,9.4563,0.00845574,0.0111635,0.00787765,0.0178028,0.00181649,0.870499,0.0113117,0.00998125,825,1597,1.32386,-9.45625
-392,-573,1.32251,9.69104,0.00536306,0.0068816,0.0052541,0.011431,0.000813652,0.857157,0.00736445,0.0107778,832,1597,1.3225,-9.69109
-385,-573,1.31757,9.92993,0.00318001,0.0036827,0.0032472,0.00668827,0.000174436,0.824023,0.00440186,0.0130789,839,1597,1.31757,-9.92993
-378,-573,1.31458,10.1783,0.00178529,0.00166223,0.00187823,0.003603,-0.000155478,0.769024,0.00245547,0.014422,846,1597,1.31456,-10.1783
-371,-573,1.31268,10.4241,0.00090628,0.000516582,0.000837221,0.00157103,-0.000148165,0.671067,0.00110007,0.0159561,853,1597,1.31266,-10.424
-364,-573,1.2923,10.6417,6.42317e-05,-0.000653618,3.03039e-06,6.42445e-05,-0.00065363,0.00422139,0.000458671,0.0187561,860,1597,1.29231,-10.6417
-357,-573,1.28015,10.838,-6.19729e-05,-0.000906677,-0.000302992,3.54685e-05,-0.00100412,-0.311151,0.000681543,0.0209953,867,1597,1.28018,-10.838
-350,-573,1.2923,11.0872,0.000431391,-0.00024727,-5.94387e-05,0.000436558,-0.000252436,-0.0867026,0.000402498,0.0166307,874,1597,1.29229,-11.0872
-343,-573,1.33466,11.3311,0.000801251,0.000386898,7.58545e-05,0.000814701,0.000373448,0.175488,0.00047091,0.0209513,881,1597,1.33468,-11.331
-336,-573,1.31042,11.5814,0.000907696,0.000600762,-6.32529e-06,0.000907826,0.000600632,-0.0205964,0.000533182,0.0178473,888,1597,1.3104,-11.5814
-329,-573,1.32825,11.7888,0.000979629,0.00106956,2.00289e-05,0.00107382,0.00097537,1.36126,0.000685422,0.0184461,895,1597,1.32823,-11.7888
-322,-573,1.35553,12.0125,0.000881849,0.00131938,-1.16136e-05,0.00131969,0.000881541,-1.54428,0.000776127,0.0128022,902,1597,1.35551,-12.0124
-315,-573,1.41461,12.2479,0.000578213,0.00122383,-0.000194585,0.00127794,0.000524102,-1.29956,0.000741784,0.0188362,909,1597,1.41462,-12.2479
-308,-573,1.42737,12.3256,0.000146996,0.000566801,-0.000570422,0.000964714,-0.000250918,-0.961698,0.000741079,0.0274705,916,1597,1.42737,-12.3256
-301,-573,1.42883,12.5155,-0.000525243,-0.000351613,-0.00103033,0.00059555,-0.00147241,-0.827429,0.00122919,0.030238,923,1597,1.42884,-12.5154
-294,-573,1.34424,12.7396,-0.00148321,-0.00191692,-0.00172749,4.09853e-05,-0.00344111,-0.722959,0.00230786,0.0375968,930,1597,1.34426,-12.7396
-287,-573,1.09186,12.4092,-0.00232957,-0.00406774,-0.00268354,-0.000377893,-0.00601941,-0.628799,0.0038931,0.0465875,937,1597,1.09184,-12.4091
-280,-573,0.648865,12.4669,0,0,0,0,0,0,0,-1,944,1597,0.648884,-12.4669
-273,-573,-0.225037,10.6533,0,0,0,0,0,0,0,-1,951,1597,-0.225018,-10.6533
-266,-573,1.31116,7.1814,0,0,0,0,0,0,0,-1,958,1597,1.31118,-7.18142
-259,-573,1.2514,6.70959,0,0,0,0,0,0,0,-1,965,1597,1.25137,-6.70965
-252,-573,2.07874,5.27161,0,0,0,0,0,0,0,-1,972,1597,2.07875,-5.27157
-245,-573,-10.2592,1.09827,0,0,0,0,0,0,0,-1,979,1597,-10.2592,-1.09823
-238,-573,-11.5463,4.44141,0,0,0,0,0,0,0,-1,986,1597,-11.5463,-4.44146
-231,-573,-9.13165,5.99487,0,0,0,0,0,0,0,-1,993,1597,-9.13168,-5.99481
-224,-573,-6.70044,7.40857,0,0,0,0,0,0,0,-1,1000,1597,-6.70045,-7.40851
-217,-573,-4.25824,8.59119,0,0,0,0,0,0,0,-1,1007,1597,-4.25824,-8.59122
-210,-573,-2.39661,9.73914,0,0,0,0,0,0,0,-1,1014,1597,-2.39658,-9.73915
-203,-573,-0.557373,10.9005,0,0,0,0,0,0,0,-1,1021,1597,-0.557387,-10.9006
-196,-573,-1.65344,9.02246,0,0,0,0,0,0,0,-1,1028,1597,-1.65349,-9.02241
-189,-573,-6.12915,6.66882,0,0,0,0,0,0,0,-1,1035,1597,-6.12913,-6.66884
-182,-573,0,0,0,0,0,0,0,0,0,-1,1042,1597,0,0
-175,-573,0,0,0,0,0,0,0,0,0,-1,1049,1597,0,0
-168,-573,0,0,0,0,0,0,0,0,0,-1,1056,1597,0,0
-161,-573,0,0,0,0,0,0,0,0,0,-1,1063,1597,0,0
-154,-573,0,0,0,0,0,0,0,0,0,-1,1070,1597,0,0
-147,-573,0,0,0,0,0,0,0,0,0,-1,1077,1597,0,0
-140,-573,0,0,0,0,0,0,0,0,0,-1,1084,1597,0,0
-133,-573,0,0,0,0,0,0,0,0,0,-1,1091,1597,0,0
-126,-573,0,0,0,0,0,0,0,0,0,-1,1098,1597,0,0
-119,-573,0,0,0,0,0,0,0,0,0,-1,1105,1597,0,0
-112,-573,0,0,0,0,0,0,0,0,0,-1,1112,1597,0,0
-105,-573,0,0,0,0,0,0,0,0,0,-1,1119,1597,0,0
-98,-573,0,0,0,0,0,0,0,0,0,-1,1126,1597,0,0
-91,-573,0,0,0,0,0,0,0,0,0,-1,1133,1597,0,0
-84,-573,0,0,0,0,0,0,0,0,0,-1,1140,1597,0,0
-77,-573,0,0,0,0,0,0,0,0,0,-1,1147,1597,0,0
-70,-573,0,0,0,0,0,0,0,0,0,-1,1154,1597,0,0
-63,-573,0,0,0,0,0,0,0,0,0,-1,1161,1597,0,0
-56,-573,0,0,0,0,0,0,0,0,0,-1,1168,1597,0,0
-49,-573,0,0,0,0,0,0,0,0,0,-1,1175,1597,0,0
-42,-573,0,0,0,0,0,0,0,0,0,-1,1182,1597,0,0
-35,-573,0,0,0,0,0,0,0,0,0,-1,1189,1597,0,0
-28,-573,0,0,0,0,0,0,0,0,0,-1,1196,1597,0,0
-21,-573,0,0,0,0,0,0,0,0,0,-1,1203,1597,0,0
-14,-573,0,0,0,0,0,0,0,0,0,-1,1210,1597,0,0
-7,-573,0,0,0,0,0,0,0,0,0,-1,1217,1597,0,0
0,-573,0,0,0,0,0,0,0,0,0,-1,1224,1597,0,0
7,-573,0,0,0,0,0,0,0,0,0,-1,1231,1597,0,0
14,-573,0,0,0,0,0,0,0,0,0,-1,1238,1597,0,0
21,-573,0,0,0,0,0,0,0,0,0,-1,1245,1597,0,0
28,-573,0,0,0,0,0,0,0,0,0,-1,1252,1597,0,0
35,-573,0,0,0,0,0,0,0,0,0,-1,1259,1597,0,0
42,-573,0,0,0,0,0,0,0,0,0,-1,1266,1597,0,0
49,-573,0,0,0,0,0,0,0,0,0,-1,1273,1597,0,0
56,-573,0,0,0,0,0,0,0,0,0,-1,1280,1597,0,0
63,-573,0,0,0,0,0,0,0,0,0,-1,1287,1597,0,0
70,-573,0,0,0,0,0,0,0,0,0,-1,1294,1597,0,0
77,-573,0,0,0,0,0,0,0,0,0,-1,1301,1597,0,0
84,-573,0,0,0,0,0,0,0,0,0,-1,1308,1597,0,0
91,-573,0,0,0,0,0,0,0,0,0,-1,1315,1597,0,0
98,-573,0,0,0,0,0,0,0,0,0,-1,1322,1597,0,0
105,-573,0,0,0,0,0,0,0,0,0,-1,1329,1597,0,0
112,-573,0,0,0,0,0,0,0,0,0,-1,1336,1597,0,0
119,-573,0,0,0,0,0,0,0,0,0,-1,1343,1597,0,0
126,-573,0,0,0,0,0,0,0,0,0,-1,1350,1597,0,0
133,-573,0,0,0,0,0,0,0,0,0,-1,1357,1597,0,0
140,-573,0,0,0,0,0,0,0,0,0,-1,1364,1597,0,0
147,-573,0,0,0,0,0,0,0,0,0,-1,1371,1597,0,0
154,-573,0,0,0,0,0,0,0,0,0,-1,1378,1597,0,0
161,-573,0,0,0,0,0,0,0,0,0,-1,1385,1597,0,0
168,-573,0,0,0,0,0,0,0,0,0,-1,1392,1597,0,0
175,-573,0,0,0,0,0,0,0,0,0,-1,1399,1597,0,0
182,-573,0,0,0,0,0,0,0,0,0,-1,1406,1597,0,0
189,-573,0,0,0,0,0,0,0,0,0,-1,1413,1597,0,0
196,-573,0,0,0,0,0,0,0,0,0,-1,1420,1597,0,0
203,-573,0,0,0,0,0,0,0,0,0,-1,1427,1597,0,0
210,-573,0,0,0,0,0,0,0,0,0,-1,1434,1597,0,0
217,-573,0,0,0,0,0,0,0,0,0,-1,1441,1597,0,0
224,-573,0,0,0,0,0,0,0,0,0,-1,1448,1597,0,0
231,-573,0,0,0,0,0,0,0,0,0,-1,1455,1597,0,0
238,-573,0,0,0,0,0,0,0,0,0,-1,1462,1597,0,0
245,-573,0,0,0,0,0,0,0,0,0,-1,1469,1597,0,0
252,-573,0,0,0,0,0,0,0,0,0,-1,1476,1597,0,0
259,-573,0,0,0,0,0,0,0,0,0,-1,1483,1597,0,0
266,-573,0,0,0,0,0,0,0,0,0,-1,1490,1597,0,0
273,-573,0,0,0,0,0,0,0,0,0,-1,1497,1597,0,0
280,-573,0,0,0,0,0,0,0,0,0,-1,1504,1597,0,0
287,-573,0,0,0,0,0,0,0,0,0,-1,1511,1597,0,0
294,-573,0,0,0,0,0,0,0,0,0,-1,1518,1597,0,0
301,-573,0,0,0,0,0,0,0,0,0,-1,1525,1597,0,0
308,-573,5.93042,9.71143,0,0,0,0,0,0,0,-1,1532,1597,5.93046,-9.71144
315,-573,4.34204,11.719,0,0,0,0,0,0,0,-1,1539,1597,4.34205,-11.719
322,-573,10.3269,7.77563,0,0,0,0,0,0,0,-1,1546,1597,10.327,-7.77565
329,-573,4.99573,3.80273,0,0,0,0,0,0,0,-1,1553,1597,4.9957,-3.80273
336,-573,4.85693,2.53455,0,0,0,0,0,0,0,-1,1560,1597,4.8569,-2.53459
343,-573,4.11877,0.735596,0,0,0,0,0,0,0,-1,1567,1597,4.11878,-0.735585
350,-573,2.53748,1.56433,0,0,0,0,0,0,0,-1,1574,1597,2.53753,-1.5643
357,-573,7.40247,4.03613,0,0,0,0,0,0,0,-1,1581,1597,7.40244,-4.03614
364,-573,7.14551,3.02087,0,0,0,0,0,0,0,-1,1588,1597,7.14556,-3.02084
371,-573,6.88867,2.00549,0,0,0,0,0,0,0,-1,1595,1597,6.88868,-2.00553
378,-573,8.62012,6.09106,0,0,0,0,0,0,0,-1,1602,1597,8.62012,-6.09103
385,-573,6.54346,-0.951904,0,0,0,0,0,0,0,-1,1609,1597,6.54349,0.951901
392,-573,6.41833,-2.18225,0,0,0,0,0,0,0,-1,1616,1597,6.41831,2.18228
399,-573,4.26282,4.73657,0,0,0,0,0,0,0,-1,1623,1597,4.26285,-4.73652
406,-573,6.82715,10.823,0,0,0,0,0,0,0,-1,1630,1597,6.82719,-10.823
413,-573,8.90552,13.1737,0,0,0,0,0,0,0,-1,1637,1597,8.90553,-13.1737
420,-573,9.32764,13.7327,0,0,0,0,0,0,0,-1,1644,1597,9.32767,-13.7327
427,-573,8.0929,12.6887,0,0,0,0,0,0,0,-1,1651,1597,8.09295,-12.6887
434,-573,8.09705,12.9795,-0.00165581,-0.0068117,-0.00300471,-0.000274704,-0.00819281,-0.430848,0.00537264,0.0472853,1658,1597,8.09705,-12.9795
441,-573,8.34924,13.355,-0.00236264,-0.00700294,-0.00155688,-0.00188869,-0.00747689,-0.295507,0.00448947,0.0303633,1665,1597,8.3493,-13.355
448,-573,8.27466,13.2729,-0.0029262,-0.00675033,-0.000181137,-0.00291764,-0.00675889,-0.047226,0.00391437,0.0181991,1672,1597,8.27465,-13.2729
455,-573,8.24072,13.0575,-0.00340649,-0.00659356,0.00100103,-0.00311816,-0.00688189,0.280442,0.00397909,0.0153272,1679,1597,8.24076,-13.0575
462,-573,8.24207,12.8546,-0.0035921,-0.00649168,0.00193301,-0.00262561,-0.00745817,0.463641,0.00436837,0.0180236,1686,1597,8.24213,-12.8546
469,-573,8.24939,12.6385,-0.00362361,-0.00609362,0.0026874,-0.00190102,-0.00781621,0.570013,0.00470689,0.0151509,1693,1597,8.24936,-12.6386
476,-573,8.27258,12.4161,-0.00350948,-0.00549113,0.00301294,-0.00132863,-0.00767198,0.626541,0.00473434,0.0138232,1700,1597,8.27255,-12.4161
483,-573,8.27332,12.2529,-0.00302668,-0.00466045,0.00310325,-0.000634605,-0.00705253,0.6567,0.00450508,0.0113417,1707,1597,8.27327,-12.2529
490,-573,8.26208,12.0597,-0.00228827,-0.0039273,0.00305833,5.84417e-05,-0.00627402,0.654493,0.0042023,0.00946932,1714,1597,8.26209,-12.0596
497,-573,8.25391,11.8331,-0.00125009,-0.0032796,0.00246697,0.000402678,-0.00493237,0.590278,0.00343036,0.0141768,1721,1597,8.25386,-11.8332
504,-573,8.24268,11.6298,0.000170297,-0.0026151,0.00152717,0.000844448,-0.00328926,0.41571,0.0025219,0.0184848,1728,1597,8.24267,-11.6298
511,-573,8.22998,11.4038,0.00194435,-0.0020075,0.000312982,0.00196898,-0.00203214,0.0785462,0.00231014,0.0191439,1735,1597,8.22993,-11.4039
518,-573,8.23523,11.205,0.00391126,-0.00165807,-0.000890676,0.00405023,-0.00179705,-0.154783,0.00345847,0.0140121,1742,1597,8.23529,-11.205
525,-573,8.25977,11.0129,0.00613414,-0.00171987,-0.00201911,0.00662281,-0.00220854,-0.237456,0.00530685,0.0166891,1749,1597,8.25975,-11.0129
532,-573,8.29126,10.7717,0.00856844,-0.00222907,-0.00296354,0.00932835,-0.00298898,-0.251011,0.00741872,0.015109,1756,1597,8.29131,-10.7717
539,-573,8.26001,10.5446,0.0110811,-0.00350915,-0.00346509,0.0118622,-0.00429027,-0.221719,0.00966117,0.0204955,1763,1597,8.26004,-10.5446
546,-573,8.33606,10.3293,0.0140079,-0.00492407,-0.00412674,0.0148683,-0.0057845,-0.205556,0.0123024,0.0338368,1770,1597,8.33603,-10.3293
553,-573,8.5957,10.1122,0,0,0,0,0,0,0,-1,1777,1597,8.59565,-10.1122
560,-573,8.33521,10.1506,0,0,0,0,0,0,0,-1,1784,1597,8.33517,-10.1506
567,-573,4.99597,2.77759,0,0,0,0,0,0,0,-1,1791,1597,4.99596,-2.7776
574,-573,0.83374,5.7041,0,0,0,0,0,0,0,-1,1798,1597,0.833718,-5.70405
581,-573,-0.224854,7.41602,0,0,0,0,0,0,0,-1,1805,1597,-0.224904,-7.41596
588,-573,-0.134033,7.67065,0,0,0,0,0,0,0,-1,1812,1597,-0.134037,-7.67063
595,-573,-0.0825195,8.35083,0,0,0,0,0,0,0,-1,1819,1597,-0.0824684,-8.35088
602,-573,0,0,0,0,0,0,0,0,0,-1,1826,1597,0,0
609,-573,0,0,0,0,0,0,0,0,0,-1,1833,1597,0,0
616,-573,0,0,0,0,0,0,0,0,0,-1,1840,1597,0,0
623,-573,0,0,0,0,0,0,0,0,0,-1,1847,1597,0,0
630,-573,0,0,0,0,0,0,0,0,0,-1,1854,1597,0,0
637,-573,0,0,0,0,0,0,0,0,0,-1,1861,1597,0,0
644,-573,0,0,0,0,0,0,0,0,0,-1,1868,1597,0,0
651,-573,0,0,0,0,0,0,0,0,0,-1,1875,1597,0,0
658,-573,0,0,0,0,0,0,0,0,0,-1,1882,1597,0,0
665,-573,0,0,0,0,0,0,0,0,0,-1,1889,1597,0,0
672,-573,0,0,0,0,0,0,0,0,0,-1,1896,1597,0,0
679,-573,0,0,0,0,0,0,0,0,0,-1,1903,1597,0,0
686,-573,0,0,0,0,0,0,0,0,0,-1,1910,1597,0,0
693,-573,0,0,0,0,0,0,0,0,0,-1,1917,1597,0,0
700,-573,0,0,0,0,0,0,0,0,0,-1,1924,1597,0,0
707,-573,0,0,0,0,0,0,0,0,0,-1,1931,1597,0,0
714,-573,0,0,0,0,0,0,0,0,0,-1,1938,1597,0,0
721,-573,0,0,0,0,0,0,0,0,0,-1,1945,1597,0,0
728,-573,0,0,0,0,0,0,0,0,0,-1,1952,1597,0,0
735,-573,0,0,0,0,0,0,0,0,0,-1,1959,1597,0,0
742,-573,0,0,0,0,0,0,0,0,0,-1,1966,1597,0,0
749,-573,0,0,0,0,0,0,0,0,0,-1,1973,1597,0,0
756,-573,0,0,0,0,0,0,0,0,0,-1,1980,1597,0,0
763,-573,0,0,0,0,0,0,0,0,0,-1,1987,1597,0,0
770,-573,0,0,0,0,0,0,0,0,0,-1,1994,1597,0,0
777,-573,0,0,0,0,0,0,0,0,0,-1,2001,1597,0,0
784,-573,0,0,0,0,0,0,0,0,0,-1,2008,1597,0,0
791,-573,0,0,0,0,0,0,0,0,0,-1,2015,1597,0,0
798,-573,0,0,0,0,0,0,0,0,0,-1,2022,1597,0,0
805,-573,0,0,0,0,0,0,0,0,0,-1,2029,1597,0,0
812,-573,0,0,0,0,0,0,0,0,0,-1,2036,1597,0,0
-700,-580,0,0,0,0,0,0,0,0,0,-1,524,1604,0,0
-693,-580,0,0,0,0,0,0,0,0,0,-1,531,1604,0,0
-686,-580,0,0,0,0,0,0,0,0,0,-1,538,1604,0,0
-679,-580,0,0,0,0,0,0,0,0,0,-1,545,1604,0,0
-672,-580,0,0,0,0,0,0,0,0,0,-1,552,1604,0,0
-665,-580,0,0,0,0,0,0,0,0,0,-1,559,1604,0,0
-658,-580,0,0,0,0,0,0,0,0,0,-1,566,1604,0,0
-651,-580,0,0,0,0,0,0,0,0,0,-1,573,1604,0,0
-644,-580,0,0,0,0,0,0,0,0,0,-1,580,1604,0,0
-637,-580,0,0,0,0,0,0,0,0,0,-1,587,1604,0,0
-630,-580,0,0,0,0,0,0,0,0,0,-1,594,1604,0,0
-623,-580,0,0,0,0,0,0,0,0,0,-1,601,1604,0,0
-616,-580,0,0,0,0,0,0,0,0,0,-1,608,1604,0,0
-609,-580,0,0,0,0,0,0,0,0,0,-1,615,1604,0,0
-602,-580,0,0,0,0,0,0,0,0,0,-1,622,1604,0,0
-595,-580,0,0,0,0,0,0,0,0,0,-1,629,1604,0,0
-588,-580,0,0,0,0,0,0,0,0,0,-1,636,1604,0,0
-581,-580,0,0,0,0,0,0,0,0,0,-1,643,1604,0,0
-574,-580,0,0,0,0,0,0,0,0,0,-1,650,1604,0,0
-567,-580,0,0,0,0,0,0,0,0,0,-1,657,1604,0,0
-560,-580,0,0,0,0,0,0,0,0,0,-1,664,1604,0,0
-553,-580,0,0,0,0,0,0,0,0,0,-1,671,1604,0,0
-546,-580,0,0,0,0,0,0,0,0,0,-1,678,1604,0,0
-539,-580,0,0,0,0,0,0,0,0,0,-1,685,1604,0,0
-532,-580,0,0,0,0,0,0,0,0,0,-1,692,1604,0,0
-525,-580,0,0,0,0,0,0,0,0,0,-1,699,1604,0,0
-518,-580,0,0,0,0,0,0,0,0,0,-1,706,1604,0,0
-511,-580,0,0,0,0,0,0,0,0,0,-1,713,1604,0,0
-504,-580,0,0,0,0,0,0,0,0,0,-1,720,1604,0,0
-497,-580,0,0,0,0,0,0,0,0,0,-1,727,1604,0,0
-490,-580,0,0,0,0,0,0,0,0,0,-1,734,1604,0,0
-483,-580,0,0,0,0,0,0,0,0,0,-1,741,1604,0,0
-476,-580,0,0,0,0,0,0,0,0,0,-1,748,1604,0,0
-469,-580,-1.69189,-0.38916,0,0,0,0,0,0,0,-1,755,1604,-1.69192,0.389188
-462,-580,-0.859863,0.675293,0,0,0,0,0,0,0,-1,762,1604,-0.859834,-0.675245
-455,-580,-0.730164,0.651978,0,0,0,0,0,0,0,-1,769,1604,-0.730153,-0.651957
-448,-580,-3.31891,2.07544,0,0,0,0,0,0,0,-1,776,1604,-3.3189,-2.07539
-441,-580,-1.63843,3.9469,0,0,0,0,0,0,0,-1,783,1604,-1.63842,-3.94695
-434,-580,0.23291,5.97876,0,0,0,0,0,0,0,-1,790,1604,0.232901,-5.97878
-427,-580,1.62756,8.05493,0,0,0,0,0,0,0,-1,797,1604,1.62758,-8.05488
-420,-580,1.31201,8.06567,0,0,0,0,0,0,0,-1,804,1604,1.31199,-8.06565
-413,-580,1.65698,8.59009,0.0265382,0.0345553,0.0227723,0.0536692,0.00742431,0.872519,0.0335794,0.0494402,811,1604,1.65696,-8.59009
-406,-580,1.69037,9.18286,0.0190528,0.024752,0.0169191,0.0390598,0.00474494,0.868828,0.0246112,0.0375454,818,1604,1.69035,-9.18291
-399,-580,1.56171,9.4812,0.0128371,0.0166637,0.0120469,0.0269482,0.0025525,0.86415,0.017178,0.0155758,825,1604,1.5617,-9.48121
-392,-580,1.56085,9.72217,0.00811062,0.0103009,0.00815688,0.0174358,0.000975702,0.85213,0.0113127,0.0104845,832,1604,1.56084,-9.72213
-385,-580,1.56714,9.94763,0.00474373,0.00560182,0.00523387,0.0104242,-7.86511e-05,0.826294,0.00697583,0.0108375,839,1604,1.56712,-9.94769
-378,-580,1.55872,10.1863,0.00251642,0.00254686,0.003225,0.00575668,-0.000693392,0.787758,0.00408856,0.0142834,846,1604,1.55871,-10.1863
-371,-580,1.56311,10.4423,0.00113016,0.000765624,0.0017866,0.00274377,-0.000847983,0.734564,0.00216785,0.0135501,853,1604,1.56311,-10.4423
-364,-580,1.5401,10.6492,-0.000223056,-0.00105157,0.000555089,5.53151e-05,-0.00132994,0.464838,0.000905627,0.0189703,860,1604,1.54008,-10.6491
-357,-580,1.53802,10.8668,-0.000601116,-0.00169417,-4.0763e-05,-0.000599598,-0.00169569,-0.0372238,0.000992897,0.0130966,867,1604,1.53803,-10.8669
-350,-580,1.54871,11.1156,-2.37328e-05,-0.0010337,0.00013225,-6.70255e-06,-0.00105073,0.128069,0.000698261,0.0102792,874,1604,1.54872,-11.1155
-343,-580,1.56799,11.3547,0.000420895,-0.000416877,0.000215773,0.000473202,-0.000469184,0.237832,0.000544089,0.011194,881,1604,1.56797,-11.3548
-336,-580,1.57678,11.5647,0.000605263,-0.00022055,6.75462e-05,0.000610751,-0.000226039,0.0810754,0.000499851,0.0198899,888,1604,1.57678,-11.5647
-329,-580,1.58203,11.79,0.000745035,0.000236325,3.25137e-06,0.000745055,0.000236305,0.00639106,0.00043964,0.0179821,895,1604,1.58206,-11.79
-322,-580,1.57959,12.0166,0.000715508,0.000440295,-0.000130835,0.000767778,0.000388024,-0.380089,0.000443286,0.0184178,902,1604,1.57959,-12.0166
-315,-580,1.59009,12.2052,0.000465321,0.000224315,-0.00044086,0.00080185,-0.000112214,-0.651989,0.000575629,0.0151641,909,1604,1.59007,-12.2052
-308,-580,1.60461,12.4686,9.46736e-05,-0.000532275,-0.000938089,0.000770278,-0.00120788,-0.62415,0.00115137,0.0178222,916,1604,1.6046,-12.4686
-301,-580,1.6463,12.6205,-0.000483842,-0.00142367,-0.00142676,0.000548394,-0.00245591,-0.626313,0.0018474,0.0160899,923,1604,1.64629,-12.6204
-294,-580,1.65436,12.7811,-0.0012538,-0.00289694,-0.00206543,0.000147465,-0.0042982,-0.596107,0.00291587,0.0217988,930,1604,1.65435,-12.7811
-287,-580,1.49213,12.9047,-0.00182825,-0.00485636,-0.0029517,-2.49376e-05,-0.00665967,-0.548424,0.00443149,0.043682,937,1604,1.49213,-12.9046
-280,-580,1.29077,12.9835,0,0,0,0,0,0,0,-1,944,1604,1.29079,-12.9835
-273,-580,1.47845,11.7954,0,0,0,0,0,0,0,-1,951,1604,1.47845,-11.7954
-266,-580,0.494202,8.78955,0,0,0,0,0,0,0,-1,958,1604,0.494174,-8.78958
-259,-580,1.31091,9.11536,0,0,0,0,0,0,0,-1,965,1604,1.31092,-9.11539
-252,-580,1.07629,7.74097,0,0,0,0,0,0,0,-1,972,1604,1.07627,-7.74101
-245,-580,3.80304,9.16028,0,0,0,0,0,0,0,-1,979,1604,3.80306,-9.16034
-238,-580,-10.3588,1.57556,0,0,0,0,0,0,0,-1,986,1604,-10.3588,-1.5755
-231,-580,-10.576,6.43787,0,0,0,0,0,0,0,-1,993,1604,-10.576,-6.43783
-224,-580,-8.27435,7.58972,0,0,0,0,0,0,0,-1,1000,1604,-8.27435,-7.5897
-217,-580,-5.85632,9.51221,0,0,0,0,0,0,0,-1,1007,1604,-5.85632,-9.5122
-210,-580,-3.6684,11.1569,0,0,0,0,0,0,0,-1,1014,1604,-3.66839,-11.1569
-203,-580,-1.92474,12.7845,0,0,0,0,0,0,0,-1,1021,1604,-1.92477,-12.7845
-196,-580,-2.28552,10.3289,0,0,0,0,0,0,0,-1,1028,1604,-2.28552,-10.3288
-189,-580,-4.58252,7.59058,0,0,0,0,0,0,0,-1,1035,1604,-4.58256,-7.59057
-182,-580,-5.45874,7.65942,0,0,0,0,0,0,0,-1,1042,1604,-5.45876,-7.65939
-175,-580,-6.38977,7.55005,0,0,0,0,0,0,0,-1,1049,1604,-6.38981,-7.5501
-168,-580,0,0,0,0,0,0,0,0,0,-1,1056,1604,0,0
-161,-580,0,0,0,0,0,0,0,0,0,-1,1063,1604,0,0
-154,-580,0,0,0,0,0,0,0,0,0,-1,1070,1604,0,0
-147,-580,0,0,0,0,0,0,0,0,0,-1,1077,1604,0,0
-140,-580,0,0,0,0,0,0,0,0,0,-1,1084,1604,0,0
-133,-580,0,0,0,0,0,0,0,0,0,-1,1091,1604,0,0
-126,-580,0,0,0,0,0,0,0,0,0,-1,1098,1604,0,0
-119,-580,0,0,0,0,0,0,0,0,0,-1,1105,1604,0,0
-112,-580,0,0,0,0,0,0,0,0,0,-1,1112,1604,0,0
-105,-580,0,0,0,0,0,0,0,0,0,-1,1119,1604,0,0
-98,-580,0,0,0,0,0,0,0,0,0,-1,1126,1604,0,0
-91,-580,0,0,0,0,0,0,0,0,0,-1,1133,1604,0,0
-84,-580,0,0,0,0,0,0,0,0,0,-1,1140,1604,0,0
-77,-580,0,0,0,0,0,0,0,0,0,-1,1147,1604,0,0
-70,-580,0,0,0,0,0,0,0,0,0,-1,1154,1604,0,0
-63,-580,0,0,0,0,0,0,0,0,0,-1,1161,1604,0,0
-56,-580,0,0,0,0,0,0,0,0,0,-1,1168,1604,0,0
-49,-580,0,0,0,0,0,0,0,0,0,-1,1175,1604,0,0
-42,-580,0,0,0,0,0,0,0,0,0,-1,1182,1604,0,0
-35,-580,0,0,0,0,0,0,0,0,0,-1,1189,1604,0,0
-28,-580,0,0,0,0,0,0,0,0,0,-1,1196,1604,0,0
-21,-580,0,0,0,0,0,0,0,0,0,-1,1203,1604,0,0
-14,-580,0,0,0,0,0,0,0,0,0,-1,1210,1604,0,0
-7,-580,0,0,0,0,0,0,0,0,0,-1,1217,1604,0,0
0,-580,0,0,0,0,0,0,0,0,0,-1,1224,1604,0,0
7,-580,0,0,0,0,0,0,0,0,0,-1,1231,1604,0,0
14,-580,0,0,0,0,0,0,0,0,0,-1,1238,1604,0,0
21,-580,0,0,0,0,0,0,0,0,0,-1,1245,1604,0,0
28,-580,0,0,0,0,0,0,0,0,0,-1,1252,1604,0,0
35,-580,0,0,0,0,0,0,0,0,0,-1,1259,1604,0,0
42,-580,0,0,0,0,0,0,0,0,0,-1,1266,1604,0,0
49,-580,0,0,0,0,0,0,0,0,0,-1,1273,1604,0,0
56,-580,0,0,0,0,0,0,0,0,0,-1,1280,1604,0,0
63,-580,0,0,0,0,0,0,0,0,0,-1,1287,1604,0,0
70,-580,0,0,0,0,0,0,0,0,0,-1,1294,1604,0,0
77,-580,0,0,0,0,0,0,0,0,0,-1,1301,1604,0,0
84,-580,0,0,0,0,0,0,0,0,0,-1,1308,1604,0,0
91,-580,0,0,0,0,0,0,0,0,0,-1,1315,1604,0,0
98,-580,0,0,0,0,0,0,0,0,0,-1,1322,1604,0,0
105,-580,0,0,0,0,0,0,0,0,0,-1,1329,1604,0,0
112,-580,0,0,0,0,0,0,0,0,0,-1,1336,1604,0,0
119,-580,0,0,0,0,0,0,0,0,0,-1,1343,1604,0,0
126,-580,0,0,0,0,0,0,0,0,0,-1,1350,1604,0,0
133,-580,0,0,0,0,0,0,0,0,0,-1,1357,1604,0,0
140,-580,0,0,0,0,0,0,0,0,0,-1,1364,1604,0,0
147,-580,0,0,0,0,0,0,0,0,0,-1,1371,1604,0,0
154,-580,0,0,0,0,0,0,0,0,0,-1,1378,1604,0,0
161,-580,0,0,0,0,0,0,0,0,0,-1,1385,1604,0,0
168,-580,0,0,0,0,0,0,0,0,0,-1,1392,1604,0,0
175,-580,0,0,0,0,0,0,0,0,0,-1,1399,1604,0,0
182,-580,0,0,0,0,0,0,0,0,0,-1,1406,1604,0,0
189,-580,0,0,0,0,0,0,0,0,0,-1,1413,1604,0,0
196,-580,0,0,0,0,0,0,0,0,0,-1,1420,1604,0,0
203,-580,0,0,0,0,0,0,0,0,0,-1,1427,1604,0,0
210,-580,0,0,0,0,0,0,0,0,0,-1,1434,1604,0,0
217,-580,0,0,0,0,0,0,0,0,0,-1,1441,1604,0,0
224,-580,0,0,0,0,0,0,0,0,0,-1,1448,1604,0,0
231,-580,0,0,0,0,0,0,0,0,0,-1,1455,1604,0,0
238,-580,0,0,0,0,0,0,0,0,0,-1,1462,1604,0,0
245,-580,0,0,0,0,0,0,0,0,0,-1,1469,1604,0,0
252,-580,0,0,0,0,0,0,0,0,0,-1,1476,1604,0,0
259,-580,0,0,0,0,0,0,0,0,0,-1,1483,1604,0,0
266,-580,0,0,0,0,0,0,0,0,0,-1,1490,1604,0,0
273,-580,0,0,0,0,0,0,0,0,0,-1,1497,1604,0,0
280,-580,0,0,0,0,0,0,0,0,0,-1,1504,1604,0,0
287,-580,0,0,0,0,0,0,0,0,0,-1,1511,1604,0,0
294,-580,4.0437,0.177368,0,0,0,0,0,0,0,-1,1518,1604,4.04369,-0.177371
301,-580,7.55164,8.05798,0,0,0,0,0,0,0,-1,1525,1604,7.55158,-8.05802
308,-580,5.9126,9.99341,0,0,0,0,0,0,0,-1,1532,1604,5.91255,-9.99337
315,-580,4.27356,11.9287,0,0,0,0,0,0,0,-1,1539,1604,4.27352,-11.9287
322,-580,10.2366,7.50281,0,0,0,0,0,0,0,-1,1546,1604,10.2366,-7.50282
329,-580,10.5962,8.69641,0,0,0,0,0,0,0,-1,1553,1604,10.5962,-8.69642
336,-580,3.66431,1.58862,0,0,0,0,0,0,0,-1,1560,1604,3.6643,-1.58864
343,-580,3.32227,1.39636,0,0,0,0,0,0,0,-1,1567,1604,3.32222,-1.39633
350,-580,8.71277,4.0564,0,0,0,0,0,0,0,-1,1574,1604,8.71271,-4.05638
357,-580,8.52332,3.08154,0,0,0,0,0,0,0,-1,1581,1604,8.52332,-3.08157
364,-580,8.25818,2.07605,0,0,0,0,0,0,0,-1,1588,1604,8.25812,-2.07608
371,-580,7.42114,7.14282,0,0,0,0,0,0,0,-1,1595,1604,7.42119,-7.14281
378,-580,7.9718,6.6731,0,0,0,0,0,0,0,-1,1602,1604,7.9718,-6.67307
385,-580,8.52246,6.20337,0,0,0,0,0,0,0,-1,1609,1604,8.52241,-6.20334
392,-580,6.5498,-2.15625,0,0,0,0,0,0,0,-1,1616,1604,6.54984,2.15626
399,-580,6.52625,10.7247,0,0,0,0,0,0,0,-1,1623,1604,6.52628,-10.7248
406,-580,8.81885,14.2789,0,0,0,0,0,0,0,-1,1630,1604,8.8188,-14.279
413,-580,8.58789,14.0018,0,0,0,0,0,0,0,-1,1637,1604,8.58788,-14.0018
420,-580,8.66968,13.8696,-0.00191476,-0.00731254,0.000889506,-0.00177195,-0.00745534,0.159185,0.00449748,0.0416549,1644,1604,8.66962,-13.8697
427,-580,8.54846,13.6053,-0.00203,-0.00656789,0.000525565,-0.00196993,-0.00662796,0.11381,0.00393016,0.0390699,1651,1604,8.54851,-13.6054
434,-580,8.13831,13.4824,-0.00226121,-0.0060388,0.000540039,-0.00218553,-0.00611449,0.139244,0.00357772,0.0273422,1658,1604,8.13827,-13.4824
441,-580,8.06042,13.3936,-0.00227978,-0.00562376,0.000631096,-0.00216464,-0.0057389,0.180459,0.00334651,0.0114381,1665,1604,8.06037,-13.3936
448,-580,8.0531,13.2251,-0.00217855,-0.00500308,0.000775005,-0.00197988,-0.00520176,0.250948,0.00303164,0.0103398,1672,1604,8.05311,-13.2251
455,-580,8.07178,13.0393,-0.00219132,-0.00456507,0.000952574,-0.00185633,-0.00490005,0.338159,0.0028566,0.0176345,1679,1604,8.07173,-13.0393
462,-580,8.05457,12.8573,-0.00201812,-0.00428519,0.00105979,-0.00159987,-0.00470345,0.375895,0.00276141,0.0227386,1686,1604,8.05454,-12.8573
469,-580,8.03809,12.6301,-0.00178309,-0.00381046,0.00117876,-0.00124209,-0.00435145,0.430275,0.00258827,0.0186237,1693,1604,8.03812,-12.6301
476,-580,8.07861,12.4052,-0.00153507,-0.00323626,0.00110041,-0.000994832,-0.0037765,0.456375,0.00226025,0.0137542,1700,1604,8.07863,-12.4051
483,-580,8.05469,12.2546,-0.00101003,-0.00253261,0.000999095,-0.000515235,-0.00302741,0.459836,0.00187034,0.0123736,1707,1604,8.05463,-12.2546
490,-580,8.0155,12.0659,-0.000212951,-0.0020296,0.000804784,9.22864e-05,-0.00233483,0.362516,0.00158821,0.013862,1714,1604,8.01548,-12.066
497,-580,8.02478,11.8499,0.000760775,-0.00163768,0.00025538,0.000787666,-0.00166457,0.10491,0.00144566,0.0114261,1721,1604,8.02472,-11.8499
504,-580,8.01318,11.6292,0.00203678,-0.00132928,-0.000460876,0.00209874,-0.00139124,-0.133642,0.0020287,0.0174007,1728,1604,8.01322,-11.6291
511,-580,8.03223,11.4261,0.00358821,-0.00114261,-0.00129349,0.00391877,-0.00147318,-0.250206,0.00321801,0.0173456,1735,1604,8.03218,-11.4261
518,-580,8.04724,11.2163,0.00541884,-0.00132326,-0.00209777,0.00601826,-0.00192268,-0.278324,0.00478364,0.0152594,1742,1604,8.04724,-11.2163
525,-580,8.00122,10.9731,0.00767712,-0.0019336,-0.00286942,0.00846864,-0.00272512,-0.269153,0.00674034,0.0168326,1749,1604,8.00116,-10.9732
532,-580,8.01819,10.7704,0.010333,-0.00307964,-0.00347547,0.0111801,-0.0039267,-0.239065,0.00905083,0.0208669,1756,1604,8.01824,-10.7703
539,-580,8.12231,10.6504,0.0134894,-0.00492165,-0.0038838,0.0142752,-0.0057074,-0.19962,0.0118852,0.0274149,1763,1604,8.12229,-10.6503
546,-580,8.41443,10.399,0.0175349,-0.00683329,-0.00470078,0.0184103,-0.00770866,-0.184108,0.0154959,0.0443336,1770,1604,8.41446,-10.3991
553,-580,8.79224,10.052,0,0,0,0,0,0,0,-1,1777,1604,8.79225,-10.052
560,-580,7.09021,6.49438,0,0,0,0,0,0,0,-1,1784,1604,7.09016,-6.4944
567,-580,3.87708,4.0647,0,0,0,0,0,0,0,-1,1791,1604,3.87711,-4.06471
574,-580,2.31653,5.62952,0,0,0,0,0,0,0,-1,1798,1604,2.31654,-5.62947
581,-580,1.60876,6.67664,0,0,0,0,0,0,0,-1,1805,1604,1.60873,-6.67667
588,-580,1.38684,7.14441,0,0,0,0,0,0,0,-1,1812,1604,1.38689,-7.14443
595,-580,0,0,0,0,0,0,0,0,0,-1,1819,1604,0,0
602,-580,0,0,0,0,0,0,0,0,0,-1,1826,1604,0,0
609,-580,0,0,0,0,0,0,0,0,0,-1,1833,1604,0,0
616,-580,0,0,0,0,0,0,0,0,0,-1,1840,1604,0,0
623,-580,0,0,0,0,0,0,0,0,0,-1,1847,1604,0,0
630,-580,0,0,0,0,0,0,0,0,0,-1,1854,1604,0,0
637,-580,0,0,0,0,0,0,0,0,0,-1,1861,1604,0,0
644,-580,0,0,0,0,0,0,0,0,0,-1,1868,1604,0,0
651,-580,0,0,0,0,0,0,0,0,0,-1,1875,1604,0,0
658,-580,0,0,0,0,0,0,0,0,0,-1,1882,1604,0,0
665,-580,0,0,0,0,0,0,0,0,0,-1,1889,1604,0,0
672,-580,0,0,0,0,0,0,0,0,0,-1,1896,1604,0,0
679,-580,0,0,0,0,0,0,0,0,0,-1,1903,1604,0,0
686,-580,0,0,0,0,0,0,0,0,0,-1,1910,1604,0,0
693,-580,0,0,0,0,0,0,0,0,0,-1,1917,1604,0,0
700,-580,0,0,0,0,0,0,0,0,0,-1,1924,1604,0,0
707,-580,0,0,0,0,0,0,0,0,0,-1,1931,1604,0,0
714,-580,0,0,0,0,0,0,0,0,0,-1,1938,1604,0,0
721,-580,0,0,0,0,0,0,0,0,0,-1,1945,1604,0,0
728,-580,0,0,0,0,0,0,0,0,0,-1,1952,1604,0,0
735,-580,0,0,0,0,0,0,0,0,0,-1,1959,1604,0,0
742,-580,0,0,0,0,0,0,0,0,0,-1,1966,1604,0,0
749,-580,0,0,0,0,0,0,0,0,0,-1,1973,1604,0,0
756,-580,0,0,0,0,0,0,0,0,0,-1,1980,1604,0,0
763,-580,0,0,0,0,0,0,0,0,0,-1,1987,1604,0,0
770,-580,0,0,0,0,0,0,0,0,0,-1,1994,1604,0,0
777,-580,0,0,0,0,0,0,0,0,0,-1,2001,1604,0,0
784,-580,0,0,0,0,0,0,0,0,0,-1,2008,1604,0,0
791,-580,0,0,0,0,0,0,0,0,0,-1,2015,1604,0,0
798,-580,0,0,0,0,0,0,0,0,0,-1,2022,1604,0,0
805,-580,0,0,0,0,0,0,0,0,0,-1,2029,1604,0,0
812,-580,0,0,0,0,0,0,0,0,0,-1,2036,1604,0,0
-700,-587,0,0,0,0,0,0,0,0,0,-1,524,1611,0,0
-693,-587,0,0,0,0,0,0,0,0,0,-1,531,1611,0,0
-686,-587,0,0,0,0,0,0,0,0,0,-1,538,1611,0,0
-679,-587,0,0,0,0,0,0,0,0,0,-1,545,1611,0,0
-672,-587,0,0,0,0,0,0,0,0,0,-1,552,1611,0,0
-665,-587,0,0,0,0,0,0,0,0,0,-1,559,1611,0,0
-658,-587,0,0,0,0,0,0,0,0,0,-1,566,1611,0,0
-651,-587,0,0,0,0,0,0,0,0,0,-1,573,1611,0,0
-644,-587,0,0,0,0,0,0,0,0,0,-1,580,1611,0,0
-637,-587,0,0,0,0,0,0,0,0,0,-1,587,1611,0,0
-630,-587,0,0,0,0,0,0,0,0,0,-1,594,1611,0,0
-623,-587,0,0,0,0,0,0,0,0,0,-1,601,1611,0,0
-616,-587,0,0,0,0,0,0,0,0,0,-1,608,1611,0,0
-609,-587,0,0,0,0,0,0,0,0,0,-1,615,1611,0,0
-602,-587,0,0,0,0,0,0,0,0,0,-1,622,1611,0,0
-595,-587,0,0,0,0,0,0,0,0,0,-1,629,1611,0,0
-588,-587,0,0,0,0,0,0,0,0,0,-1,636,1611,0,0
-581,-587,0,0,0,0,0,0,0,0,0,-1,643,1611,0,0
-574,-587,0,0,0,0,0,0,0,0,0,-1,650,1611,0,0
-567,-587,0,0,0,0,0,0,0,0,0,-1,657,1611,0,0
-560,-587,0,0,0,0,0,0,0,0,0,-1,664,1611,0,0
-553,-587,0,0,0,0,0,0,0,0,0,-1,671,1611,0,0
-546,-587,0,0,0,0,0,0,0,0,0,-1,678,1611,0,0
-539,-587,0,0,0,0,0,0,0,0,0,-1,685,1611,0,0
-532,-587,0,0,0,0,0,0,0,0,0,-1,692,1611,0,0
-525,-587,0,0,0,0,0,0,0,0,0,-1,699,1611,0,0
-518,-587,0,0,0,0,0,0,0,0,0,-1,706,1611,0,0
-511,-587,0,0,0,0,0,0,0,0,0,-1,713,1611,0,0
-504,-587,0,0,0,0,0,0,0,0,0,-1,720,1611,0,0
-497,-587,0,0,0,0,0,0,0,0,0,-1,727,1611,0,0
-490,-587,0,0,0,0,0,0,0,0,0,-1,734,1611,0,0
-483,-587,0,0,0,0,0,0,0,0,0,-1,741,1611,0,0
-476,-587,0,0,0,0,0,0,0,0,0,-1,748,1611,0,0
-469,-587,0,0,0,0,0,0,0,0,0,-1,755,1611,0,0
-462,-587,-0.714355,-0.418457,0,0,0,0,0,0,0,-1,762,1611,-0.714359,0.418483
-455,-587,-0.619812,-0.522461,0,0,0,0,0,0,0,-1,769,1611,-0.619802,0.522515
-448,-587,-0.461731,-0.686523,0,0,0,0,0,0,0,-1,776,1611,-0.461739,0.686559
-441,-587,-3.56555,2.72253,0,0,0,0,0,0,0,-1,783,1611,-3.56555,-2.72259
-434,-587,-1.77319,4.76318,0,0,0,0,0,0,0,-1,790,1611,-1.77318,-4.76323
-427,-587,0.0346069,6.92944,0,0,0,0,0,0,0,-1,797,1611,0.034587,-6.92941
-420,-587,-0.647156,10.1157,0,0,0,0,0,0,0,-1,804,1611,-0.647128,-10.1158
-413,-587,2.0481,8.28052,0,0,0,0,0,0,0,-1,811,1611,2.0481,-8.28049
-406,-587,1.99701,9.17773,0,0,0,0,0,0,0,-1,818,1611,1.99699,-9.17776
-399,-587,1.93707,9.45569,0.0192588,0.0245488,0.017866,0.0399645,0.00384308,0.858888,0.0254588,0.0348851,825,1611,1.93708,-9.45572
-392,-587,1.87115,9.66443,0.0122419,0.0151888,0.0121608,0.0259651,0.00146564,0.845685,0.0168428,0.0245989,832,1611,1.87116,-9.66442
-385,-587,1.79492,9.92419,0.00720771,0.00831048,0.00789325,0.0156716,-0.000153393,0.820269,0.0104992,0.0145814,839,1611,1.7949,-9.92418
-378,-587,1.76758,10.1908,0.00382206,0.00375641,0.00493642,0.00872577,-0.0011473,0.782073,0.0062349,0.0132148,846,1611,1.7676,-10.1907
-371,-587,1.7583,10.4454,0.00173113,0.00105472,0.00291008,0.00432259,-0.00153674,0.727549,0.00350803,0.0138324,853,1611,1.75827,-10.4455
-364,-587,1.77002,10.676,-0.000319571,-0.00164974,0.00111068,0.000309925,-0.00227923,0.515626,0.00163263,0.0169067,860,1611,1.77003,-10.6761
-357,-587,1.77826,10.8889,-0.00104886,-0.00274333,0.000140657,-0.00103726,-0.00275492,0.0822596,0.00160664,0.0169803,867,1611,1.77827,-10.8889
-350,-587,1.76404,11.1205,-0.000385035,-0.00199177,0.00026775,-0.000341591,-0.00203521,0.160853,0.00125849,0.0094,874,1611,1.76404,-11.1205
-343,-587,1.75598,11.3418,0.00012743,-0.00130592,0.000330723,0.000200058,-0.00137855,0.216175,0.00099246,0.0117665,881,1611,1.75597,-11.3417
-336,-587,1.75293,11.5504,0.000387044,-0.00102303,0.000162347,0.000405494,-0.00104148,0.113161,0.000861889,0.0122136,888,1611,1.75291,-11.5504
-329,-587,1.7561,11.7729,0.000587687,-0.000485127,5.89808e-05,0.00059092,-0.00048836,0.0547577,0.000624059,0.0139294,895,1611,1.75613,-11.7729
-322,-587,1.78015,12.0033,0.00061426,-0.000221766,-0.000112626,0.000629167,-0.000236673,-0.131591,0.00051673,0.0173394,902,1611,1.78018,-12.0033
-315,-587,1.7569,12.1981,0.000417344,-0.000417063,-0.000464241,0.000624303,-0.000624022,-0.419356,0.000720721,0.0141225,909,1611,1.75689,-12.1981
-308,-587,1.73724,12.4396,0.000112829,-0.00112572,-0.000983617,0.000655883,-0.00166877,-0.504453,0.00138395,0.0140719,916,1611,1.73726,-12.4395
-301,-587,1.78754,12.6602,-0.000334394,-0.00195184,-0.0014883,0.000550712,-0.00283695,-0.536521,0.00209909,0.0129028,923,1611,1.78755,-12.6602
-294,-587,1.84338,12.8511,-0.000889718,-0.00319999,-0.00207582,0.00033072,-0.00442043,-0.531498,0.00306315,0.0143133,930,1611,1.8434,-12.8511
-287,-587,1.85742,13.0464,-0.00125869,-0.0048429,-0.00283531,0.000303401,-0.00640499,-0.503566,0.00437463,0.024163,937,1611,1.85744,-13.0464
-280,-587,1.74683,13.2037,-0.00159054,-0.00683355,-0.00363424,0.000269021,-0.00869311,-0.472947,0.00588713,0.0369216,944,1611,1.74684,-13.2037
-273,-587,1.70239,13.3469,0,0,0,0,0,0,0,-1,951,1611,1.70239,-13.3469
-266,-587,1.82135,13.2119,0,0,0,0,0,0,0,-1,958,1611,1.82135,-13.2119
-259,-587,1.74585,13.0104,0,0,0,0,0,0,0,-1,965,1611,1.74586,-13.0103
-252,-587,1.30188,10.3103,0,0,0,0,0,0,0,-1,972,1611,1.30188,-10.3104
-245,-587,2.97797,12.0387,0,0,0,0,0,0,0,-1,979,1611,2.97798,-12.0387
-238,-587,2.87799,9.53821,0,0,0,0,0,0,0,-1,986,1611,2.87797,-9.53823
-231,-587,2.49548,9.14465,0,0,0,0,0,0,0,-1,993,1611,2.49551,-9.14468
-224,-587,-9.72528,9.21069,0,0,0,0,0,0,0,-1,1000,1611,-9.72529,-9.21072
-217,-587,-7.07495,10.7847,0,0,0,0,0,0,0,-1,1007,1611,-7.07495,-10.7847
-210,-587,-4.72308,12.5889,0,0,0,0,0,0,0,-1,1014,1611,-4.72307,-12.5888
-203,-587,-3.2583,13.7289,0,0,0,0,0,0,0,-1,1021,1611,-3.25828,-13.7289
-196,-587,-1.953,14.8145,0,0,0,0,0,0,0,-1,1028,1611,-1.95302,-14.8144
-189,-587,-3.04138,8.66638,0,0,0,0,0,0,0,-1,1035,1611,-3.04136,-8.66635
-182,-587,-3.97095,9.7146,0,0,0,0,0,0,0,-1,1042,1611,-3.97093,-9.71461
-175,-587,-4.80969,8.37878,0,0,0,0,0,0,0,-1,1049,1611,-4.80964,-8.37883
-168,-587,-5.91394,8.72546,0,0,0,0,0,0,0,-1,1056,1611,-5.91398,-8.72542
-161,-587,-7.06946,8.88501,0,0,0,0,0,0,0,-1,1063,1611,-7.06947,-8.885
-154,-587,-2.24731,6.56519,0,0,0,0,0,0,0,-1,1070,1611,-2.24728,-6.56517
-147,-587,0,0,0,0,0,0,0,0,0,-1,1077,1611,0,0
-140,-587,0,0,0,0,0,0,0,0,0,-1,1084,1611,0,0
-133,-587,0,0,0,0,0,0,0,0,0,-1,1091,1611,0,0
-126,-587,0,0,0,0,0,0,0,0,0,-1,1098,1611,0,0
-119,-587,0,0,0,0,0,0,0,0,0,-1,1105,1611,0,0
-112,-587,0,0,0,0,0,0,0,0,0,-1,1112,1611,0,0
-105,-587,0,0,0,0,0,0,0,0,0,-1,1119,1611,0,0
-98,-587,0,0,0,0,0,0,0,0,0,-1,1126,1611,0,0
-91,-587,0,0,0,0,0,0,0,0,0,-1,1133,1611,0,0
-84,-587,0,0,0,0,0,0,0,0,0,-1,1140,1611,0,0
-77,-587,0,0,0,0,0,0,0,0,0,-1,1147,1611,0,0
-70,-587,0,0,0,0,0,0,0,0,0,-1,1154,1611,0,0
-63,-587,0,0,0,0,0,0,0,0,0,-1,1161,1611,0,0
-56,-587,0,0,0,0,0,0,0,0,0,-1,1168,1611,0,0
-49,-587,0,0,0,0,0,0,0,0,0,-1,1175,1611,0,0
-42,-587,0,0,0,0,0,0,0,0,0,-1,1182,1611,0,0
-35,-587,0,0,0,0,0,0,0,0,0,-1,1189,1611,0,0
-28,-587,0,0,0,0,0,0,0,0,0,-1,1196,1611,0,0
-21,-587,0,0,0,0,0,0,0,0,0,-1,1203,1611,0,0
-14,-587,0,0,0,0,0,0,0,0,0,-1,1210,1611,0,0
-7,-587,0,0,0,0,0,0,0,0,0,-1,1217,1611,0,0
0,-587,0,0,0,0,0,0,0,0,0,-1,1224,1611,0,0
7,-587,0,0,0,0,0,0,0,0,0,-1,1231,1611,0,0
14,-587,0,0,0,0,0,0,0,0,0,-1,1238,1611,0,0
21,-587,0,0,0,0,0,0,0,0,0,-1,1245,1611,0,0
28,-587,0,0,0,0,0,0,0,0,0,-1,1252,1611,0,0
35,-587,0,0,0,0,0,0,0,0,0,-1,1259,1611,0,0
42,-587,0,0,0,0,0,0,0,0,0,-1,1266,1611,0,0
49,-587,0,0,0,0,0,0,0,0,0,-1,1273,1611,0,0
56,-587,0,0,0,0,0,0,0,0,0,-1,1280,1611,0,0
63,-587,0,0,0,0,0,0,0,0,0,-1,1287,1611,0,0
70,-587,0,0,0,0,0,0,0,0,0,-1,1294,1611,0,0
77,-587,0,0,0,0,0,0,0,0,0,-1,1301,1611,0,0
84,-587,0,0,0,0,0,0,0,0,0,-1,1308,1611,0,0
91,-587,0,0,0,0,0,0,0,0,0,-1,1315,1611,0,0
98,-587,0,0,0,0,0,0,0,0,0,-1,1322,1611,0,0
105,-587,0,0,0,0,0,0,0,0,0,-1,1329,1611,0,0
112,-587,0,0,0,0,0,0,0,0,0,-1,1336,1611,0,0
119,-587,0,0,0,0,0,0,0,0,0,-1,1343,1611,0,0
126,-587,0,0,0,0,0,0,0,0,0,-1,1350,1611,0,0
133,-587,0,0,0,0,0,0,0,0,0,-1,1357,1611,0,0
140,-587,0,0,0,0,0,0,0,0,0,-1,1364,1611,0,0
147,-587,0,0,0,0,0,0,0,0,0,-1,1371,1611,0,0
154,-587,0,0,0,0,0,0,0,0,0,-1,1378,1611,0,0
161,-587,0,0,0,0,0,0,0,0,0,-1,1385,1611,0,0
168,-587,0,0,0,0,0,0,0,0,0,-1,1392,1611,0,0
175,-587,0,0,0,0,0,0,0,0,0,-1,1399,1611,0,0
182,-587,0,0,0,0,0,0,0,0,0,-1,1406,1611,0,0
189,-587,0,0,0,0,0,0,0,0,0,-1,1413,1611,0,0
196,-587,0,0,0,0,0,0,0,0,0,-1,1420,1611,0,0
203,-587,0,0,0,0,0,0,0,0,0,-1,1427,1611,0,0
210,-587,0,0,0,0,0,0,0,0,0,-1,1434,1611,0,0
217,-587,0,0,0,0,0,0,0,0,0,-1,1441,1611,0,0
224,-587,0,0,0,0,0,0,0,0,0,-1,1448,1611,0,0
231,-587,0,0,0,0,0,0,0,0,0,-1,1455,1611,0,0
238,-587,0,0,0,0,0,0,0,0,0,-1,1462,1611,0,0
245,-587,0,0,0,0,0,0,0,0,0,-1,1469,1611,0,0
252,-587,0,0,0,0,0,0,0,0,0,-1,1476,1611,0,0
259,-587,0,0,0,0,0,0,0,0,0,-1,1483,1611,0,0
266,-587,0,0,0,0,0,0,0,0,0,-1,1490,1611,0,0
273,-587,10.2936,6.35083,0,0,0,0,0,0,0,-1,1497,1611,10.2936,-6.35087
280,-587,2.09204,1.1217,0,0,0,0,0,0,0,-1,1504,1611,2.092,-1.12176
287,-587,3.2865,0.671509,0,0,0,0,0,0,0,-1,1511,1611,3.28656,-0.671538
294,-587,4.24646,1.58765,0,0,0,0,0,0,0,-1,1518,1611,4.24648,-1.58761
301,-587,7.60474,8.37085,0,0,0,0,0,0,0,-1,1525,1611,7.60478,-8.37084
308,-587,5.99316,10.2291,0,0,0,0,0,0,0,-1,1532,1611,5.99315,-10.2291
315,-587,4.34558,12.3289,0,0,0,0,0,0,0,-1,1539,1611,4.34556,-12.3288
322,-587,10.4526,6.38245,0,0,0,0,0,0,0,-1,1546,1611,10.4526,-6.38245
329,-587,10.7738,8.42444,0,0,0,0,0,0,0,-1,1553,1611,10.7738,-8.42438
336,-587,7.5531,5.96619,0,0,0,0,0,0,0,-1,1560,1611,7.55311,-5.96617
343,-587,9.57495,4.38391,0,0,0,0,0,0,0,-1,1567,1611,9.57494,-4.38397
350,-587,9.50378,3.45093,0,0,0,0,0,0,0,-1,1574,1611,9.50376,-3.4509
357,-587,9.40027,2.50806,0,0,0,0,0,0,0,-1,1581,1611,9.40022,-2.50803
364,-587,9.26477,1.34131,0,0,0,0,0,0,0,-1,1588,1611,9.26479,-1.34126
371,-587,6.98926,7.87561,0,0,0,0,0,0,0,-1,1595,1611,6.98928,-7.87564
378,-587,9.25146,13.8358,0,0,0,0,0,0,0,-1,1602,1611,9.2515,-13.8359
385,-587,7.17224,7.03772,0,0,0,0,0,0,0,-1,1609,1611,7.1722,-7.03778
392,-587,5.3916,8.21436,0,0,0,0,0,0,0,-1,1616,1611,5.39157,-8.21437
399,-587,7.87256,13.8606,0,0,0,0,0,0,0,-1,1623,1611,7.87259,-13.8606
406,-587,8.33093,14.236,-0.00273349,-0.00935743,0.0070218,0.00171822,-0.0138091,0.565034,0.00982903,0.0423274,1630,1611,8.33096,-14.2359
413,-587,8.11499,14.0338,-0.00270101,-0.0081171,0.00542426,0.000653622,-0.0114717,0.553876,0.00787475,0.0335608,1637,1611,8.11497,-14.0338
420,-587,8.0083,13.9722,-0.00248932,-0.00683603,0.00399451,-0.000115197,-0.00921015,0.536253,0.00610207,0.0321845,1644,1611,8.00825,-13.9721
427,-587,8.0155,13.7811,-0.00240321,-0.00591304,0.00311023,-0.000586956,-0.0077293,0.528543,0.00496878,0.0260982,1651,1611,8.01546,-13.7811
434,-587,7.88013,13.6079,-0.00235626,-0.00512488,0.00239148,-0.000977335,-0.00650381,0.523036,0.0040496,0.0150929,1658,1611,7.88013,-13.608
441,-587,7.85547,13.4385,-0.00210026,-0.00451026,0.0017882,-0.00114894,-0.00546157,0.488915,0.00332491,0.0157218,1665,1611,7.85542,-13.4385
448,-587,7.86865,13.2285,-0.00173524,-0.00375031,0.00129773,-0.00109984,-0.00438571,0.455311,0.00263485,0.0143976,1672,1611,7.86865,-13.2285
455,-587,7.88342,13.0371,-0.00155992,-0.00324432,0.000942076,-0.00113847,-0.00366577,0.420658,0.00216647,0.013887,1679,1611,7.8834,-13.0371
462,-587,7.86938,12.8401,-0.00125044,-0.00291215,0.000604507,-0.0010538,-0.00310879,0.314495,0.00182563,0.0181345,1686,1611,7.86941,-12.84
469,-587,7.86389,12.6461,-0.000914023,-0.00243683,0.000358981,-0.000833641,-0.00251721,0.220283,0.00148067,0.0155768,1693,1611,7.86392,-12.6462
476,-587,7.86914,12.4579,-0.00062957,-0.00191193,4.85076e-05,-0.000627737,-0.00191376,0.0377549,0.00112649,0.0101272,1700,1611,7.86917,-12.4579
483,-587,7.81458,12.274,-9.59287e-05,-0.00130993,-0.000173961,-7.14927e-05,-0.00133437,-0.139555,0.000866731,0.0127989,1707,1611,7.81453,-12.274
490,-587,7.76917,12.0521,0.000782066,-0.0009954,-0.00049726,0.000911721,-0.00112505,-0.25506,0.00117808,0.0154336,1714,1611,7.76915,-12.0521
497,-587,7.79272,11.8396,0.00179025,-0.00077458,-0.00105098,0.00216589,-0.00115022,-0.343268,0.00194426,0.0122054,1721,1611,7.79278,-11.8396
504,-587,7.81262,11.6484,0.00307446,-0.000724506,-0.00164468,0.00368755,-0.00133759,-0.356814,0.00300515,0.0123748,1728,1611,7.81265,-11.6485
511,-587,7.8302,11.4418,0.00463607,-0.000853822,-0.00225187,0.00544157,-0.00165932,-0.343519,0.00428918,0.0140452,1735,1611,7.83015,-11.4418
518,-587,7.85974,11.2142,0.00660008,-0.00146354,-0.00282843,0.00749326,-0.00235672,-0.305875,0.00593904,0.0134789,1742,1611,7.85972,-11.2142
525,-587,7.81714,10.9708,0.00919103,-0.00254246,-0.00341575,0.010113,-0.00346438,-0.263623,0.00814614,0.0173452,1749,1611,7.81719,-10.9708
532,-587,7.84302,10.8112,0.0124237,-0.00433495,-0.00383956,0.0132615,-0.00517275,-0.214834,0.0109792,0.0339214,1756,1611,7.84307,-10.8112
539,-587,8.53967,11.0695,0.016613,-0.00672335,-0.00439911,0.0174147,-0.00752507,-0.180269,0.0147715,0.0445785,1763,1611,8.53972,-11.0695
546,-587,8.49292,10.3866,0,0,0,0,0,0,0,-1,1770,1611,8.49296,-10.3866
553,-587,7.5813,8.45068,0,0,0,0,0,0,0,-1,1777,1611,7.58125,-8.45068
560,-587,4.21179,5.23547,0,0,0,0,0,0,0,-1,1784,1611,4.21185,-5.23553
567,-587,4.03711,5.46387,0,0,0,0,0,0,0,-1,1791,1611,4.03715,-5.46382
574,-587,3.83142,5.68884,0,0,0,0,0,0,0,-1,1798,1611,3.83141,-5.68881
581,-587,3.47168,6.00977,0,0,0,0,0,0,0,-1,1805,1611,3.47167,-6.00983
588,-587,0,0,0,0,0,0,0,0,0,-1,1812,1611,0,0
595,-587,0,0,0,0,0,0,0,0,0,-1,1819,1611,0,0
602,-587,0,0,0,0,0,0,0,0,0,-1,1826,1611,0,0
609,-587,0,0,0,0,0,0,0,0,0,-1,1833,1611,0,0
616,-587,0,0,0,0,0,0,0,0,0,-1,1840,1611,0,0
623,-587,0,0,0,0,0,0,0,0,0,-1,1847,1611,0,0
630,-587,0,0,0,0,0,0,0,0,0,-1,1854,1611,0,0
637,-587,0,0,0,0,0,0,0,0,0,-1,1861,1611,0,0
644,-587,0,0,0,0,0,0,0,0,0,-1,1868,1611,0,0
651,-587,0,0,0,0,0,0,0,0,0,-1,1875,1611,0,0
658,-587,0,0,0,0,0,0,0,0,0,-1,1882,1611,0,0
665,-587,0,0,0,0,0,0,0,0,0,-1,1889,1611,0,0
672,-587,0,0,0,0,0,0,0,0,0,-1,1896,1611,0,0
679,-587,0,0,0,0,0,0,0,0,0,-1,1903,1611,0,0
686,-587,0,0,0,0,0,0,0,0,0,-1,1910,1611,0,0
693,-587,0,0,0,0,0,0,0,0,0,-1,1917,1611,0,0
700,-587,0,0,0,0,0,0,0,0,0,-1,1924,1611,0,0
707,-587,0,0,0,0,0,0,0,0,0,-1,1931,1611,0,0
714,-587,0,0,0,0,0,0,0,0,0,-1,1938,1611,0,0
721,-587,0,0,0,0,0,0,0,0,0,-1,1945,1611,0,0
728,-587,0,0,0,0,0,0,0,0,0,-1,1952,1611,0,0
735,-587,0,0,0,0,0,0,0,0,0,-1,1959,1611,0,0
742,-587,0,0,0,0,0,0,0,0,0,-1,1966,1611,0,0
749,-587,0,0,0,0,0,0,0,0,0,-1,1973,1611,0,0
756,-587,0,0,0,0,0,0,0,0,0,-1,1980,1611,0,0
763,-587,0,0,0,0,0,0,0,0,0,-1,1987,1611,0,0
770,-587,0,0,0,0,0,0,0,0,0,-1,1994,1611,0,0
777,-587,0,0,0,0,0,0,0,0,0,-1,2001,1611,0,0
784,-587,0,0,0,0,0,0,0,0,0,-1,2008,1611,0,0
791,-587,0,0,0,0,0,0,0,0,0,-1,2015,1611,0,0
798,-587,0,0,0,0,0,0,0,0,0,-1,2022,1611,0,0
805,-587,0,0,0,0,0,0,0,0,0,-1,2029,1611,0,0
812,-587,0,0,0,0,0,0,0,0,0,-1,2036,1611,0,0
-700,-594,0,0,0,0,0,0,0,0,0,-1,524,1618,0,0
-693,-594,0,0,0,0,0,0,0,0,0,-1,531,1618,0,0
-686,-594,0,0,0,0,0,0,0,0,0,-1,538,1618,0,0
-679,-594,0,0,0,0,0,0,0,0,0,-1,545,1618,0,0
-672,-594,0,0,0,0,0,0,0,0,0,-1,552,1618,0,0
-665,-594,0,0,0,0,0,0,0,0,0,-1,559,1618,0,0
-658,-594,0,0,0,0,0,0,0,0,0,-1,566,1618,0,0
-651,-594,0,0,0,0,0,0,0,0,0,-1,573,1618,0,0
-644,-594,0,0,0,0,0,0,0,0,0,-1,580,1618,0,0
-637,-594,0,0,0,0,0,0,0,0,0,-1,587,1618,0,0
-630,-594,0,0,0,0,0,0,0,0,0,-1,594,1618,0,0
-623,-594,0,0,0,0,0,0,0,0,0,-1,601,1618,0,0
-616,-594,0,0,0,0,0,0,0,0,0,-1,608,1618,0,0
-609,-594,0,0,0,0,0,0,0,0,0,-1,615,1618,0,0
-602,-594,0,0,0,0,0,0,0,0,0,-1,622,1618,0,0
-595,-594,0,0,0,0,0,0,0,0,0,-1,629,1618,0,0
-588,-594,0,0,0,0,0,0,0,0,0,-1,636,1618,0,0
-581,-594,0,0,0,0,0,0,0,0,0,-1,643,1618,0,0
-574,-594,0,0,0,0,0,0,0,0,0,-1,650,1618,0,0
-567,-594,0,0,0,0,0,0,0,0,0,-1,657,1618,0,0
-560,-594,0,0,0,0,0,0,0,0,0,-1,664,1618,0,0
-553,-594,0,0,0,0,0,0,0,0,0,-1,671,1618,0,0
-546,-594,0,0,0,0,0,0,0,0,0,-1,678,1618,0,0
-539,-594,0,0,0,0,0,0,0,0,0,-1,685,1618,0,0
-532,-594,0,0,0,0,0,0,0,0,0,-1,692,1618,0,0
-525,-594,0,0,0,0,0,0,0,0,0,-1,699,1618,0,0
-518,-594,0,0,0,0,0,0,0,0,0,-1,706,1618,0,0
-511,-594,0,0,0,0,0,0,0,0,0,-1,713,1618,0,0
-504,-594,0,0,0,0,0,0,0,0,0,-1,720,1618,0,0
-497,-594,0,0,0,0,0,0,0,0,0,-1,727,1618,0,0
-490,-594,0,0,0,0,0,0,0,0,0,-1,734,1618,0,0
-483,-594,0,0,0,0,0,0,0,0,0,-1,741,1618,0,0
-476,-594,0,0,0,0,0,0,0,0,0,-1,748,1618,0,0
-469,-594,0,0,0,0,0,0,0,0,0,-1,755,1618,0,0
-462,-594,0,0,0,0,0,0,0,0,0,-1,762,1618,0,0
-455,-594,-0.509216,-1.58411,0,0,0,0,0,0,0,-1,769,1618,-0.509245,1.58415
-448,-594,-7.71887,-0.0559082,0,0,0,0,0,0,0,-1,776,1618,-7.71885,0.055939
-441,-594,-5.78473,1.18298,0,0,0,0,0,0,0,-1,783,1618,-5.78474,-1.18295
-434,-594,-3.93628,3.06213,0,0,0,0,0,0,0,-1,790,1618,-3.93631,-3.06208
-427,-594,-3.97693,6.77759,0,0,0,0,0,0,0,-1,797,1618,-3.97695,-6.77764
-420,-594,-2.53046,7.71606,0,0,0,0,0,0,0,-1,804,1618,-2.53047,-7.71609
-413,-594,-0.860413,8.00391,0,0,0,0,0,0,0,-1,811,1618,-0.860423,-8.00389
-406,-594,3.18323,8.29382,0,0,0,0,0,0,0,-1,818,1618,3.18325,-8.29386
-399,-594,2.33209,9.42407,0,0,0,0,0,0,0,-1,825,1618,2.33208,-9.42413
-392,-594,2.22339,9.66223,0.0181296,0.0219958,0.0177245,0.0378924,0.0022331,0.839715,0.0245511,0.0437415,832,1618,2.2234,-9.66226
-385,-594,2.08063,9.95264,0.0107849,0.0121943,0.01163,0.0231409,-0.000161745,0.815658,0.0154815,0.0273855,839,1618,2.08062,-9.95262
-378,-594,1.98029,10.1919,0.00574079,0.00558036,0.00733552,0.0129965,-0.00167538,0.779931,0.00927341,0.012162,846,1618,1.98028,-10.1919
-371,-594,1.98468,10.4514,0.00259128,0.0015737,0.00445163,0.0065631,-0.00239812,0.728498,0.0053568,0.0115415,853,1618,1.98468,-10.4514
-364,-594,2.00476,10.6794,-0.000440473,-0.00233144,0.00185312,0.000694429,-0.00346634,0.549507,0.00257379,0.0103741,860,1618,2.00478,-10.6794
-357,-594,2.00787,10.8998,-0.00165804,-0.00397401,0.000384932,-0.00159574,-0.00403631,0.160462,0.00234732,0.0106932,867,1618,2.00787,-10.8998
-350,-594,1.97931,11.1279,-0.000913099,-0.00307446,0.000457932,-0.000820079,-0.00316748,0.200403,0.00189829,0.015266,874,1618,1.97929,-11.1279
-343,-594,1.96454,11.3596,-0.000331955,-0.00227287,0.000495433,-0.000212807,-0.00239202,0.236012,0.00152869,0.0157924,881,1618,1.96453,-11.3597
-336,-594,1.95331,11.566,1.59535e-05,-0.00184985,0.000315678,6.79163e-05,-0.00190182,0.163144,0.00129111,0.013278,888,1618,1.9533,-11.566
-329,-594,1.96118,11.7885,0.000295927,-0.00118328,0.000190629,0.000320099,-0.00120746,0.126127,0.000930213,0.0130768,895,1618,1.96116,-11.7884
-322,-594,1.99408,12.0234,0.000398706,-0.000809624,4.38879e-06,0.000398722,-0.00080964,0.00363205,0.000710967,0.0155969,902,1618,1.99411,-12.0234
-315,-594,1.9856,12.2219,0.000273815,-0.000912274,-0.00035999,0.000374524,-0.00101298,-0.272783,0.000828865,0.0158861,909,1618,1.98561,-12.2219
-308,-594,1.98047,12.4408,6.33603e-05,-0.00146402,-0.00085839,0.000448608,-0.00184926,-0.421857,0.00140643,0.014103,916,1618,1.98049,-12.4408
-301,-594,1.97449,12.6501,-0.00021305,-0.00214431,-0.00133228,0.00046674,-0.0028241,-0.471811,0.00205605,0.0114397,923,1618,1.9745,-12.6501
-294,-594,2.00427,12.8291,-0.000575575,-0.0031181,-0.00185891,0.000405192,-0.00409887,-0.485487,0.00287717,0.0109687,930,1618,2.00426,-12.8291
-287,-594,2.01892,13.0187,-0.000783755,-0.00441074,-0.00247619,0.000472002,-0.0056665,-0.469337,0.00394443,0.0119184,937,1618,2.0189,-13.0186
-280,-594,2.01636,13.223,-0.000923492,-0.00593422,-0.00309679,0.000554483,-0.00741219,-0.44529,0.00513627,0.0151465,944,1618,2.01637,-13.223
-273,-594,2.05975,13.3905,-0.00102518,-0.00770408,-0.00377232,0.000673458,-0.00940272,-0.423095,0.0065046,0.0258164,951,1618,2.05977,-13.3905
-266,-594,2.02252,13.4117,-0.000947897,-0.00977532,-0.00434693,0.000833279,-0.0115565,-0.388887,0.00799658,0.0358849,958,1618,2.0225,-13.4117
-259,-594,2.00208,13.3599,-0.000717722,-0.0119248,-0.00492922,0.00114177,-0.0137843,-0.360732,0.0095928,0.0437862,965,1618,2.0021,-13.3598
-252,-594,2.22955,13.8632,0,0,0,0,0,0,0,-1,972,1618,2.22957,-13.8631
-245,-594,2.26196,13.9583,0,0,0,0,0,0,0,-1,979,1618,2.26198,-13.9582
-238,-594,2.48499,13.0104,0,0,0,0,0,0,0,-1,986,1618,2.48501,-13.0104
-231,-594,1.93774,9.35388,0,0,0,0,0,0,0,-1,993,1618,1.93776,-9.35393
-224,-594,1.81824,8.62744,0,0,0,0,0,0,0,-1,1000,1618,1.81822,-8.62745
-217,-594,-8.24066,12.0752,0,0,0,0,0,0,0,-1,1007,1618,-8.24068,-12.0751
-210,-594,-5.61438,14.2119,0,0,0,0,0,0,0,-1,1014,1618,-5.6144,-14.212
-203,-594,-3.94507,15.5768,0,0,0,0,0,0,0,-1,1021,1618,-3.94506,-15.5768
-196,-594,2.78613,10.5815,0,0,0,0,0,0,0,-1,1028,1618,2.78612,-10.5815
-189,-594,2.60913,9.48865,0,0,0,0,0,0,0,-1,1035,1618,2.6091,-9.48871
-182,-594,1.2395,9.38806,0,0,0,0,0,0,0,-1,1042,1618,1.23951,-9.38804
-175,-594,0.234863,8.73792,0,0,0,0,0,0,0,-1,1049,1618,0.234812,-8.73786
-168,-594,-0.495483,8.46289,0,0,0,0,0,0,0,-1,1056,1618,-0.495513,-8.46285
-161,-594,-1.39734,8.28699,0,0,0,0,0,0,0,-1,1063,1618,-1.39729,-8.28699
-154,-594,-0.000854492,7.68445,0,0,0,0,0,0,0,-1,1070,1618,-0.000805755,-7.6845
-147,-594,0.348267,9.3385,0,0,0,0,0,0,0,-1,1077,1618,0.348237,-9.33849
-140,-594,0.675171,11.5884,0,0,0,0,0,0,0,-1,1084,1618,0.675204,-11.5884
-133,-594,0,0,0,0,0,0,0,0,0,-1,1091,1618,0,0
-126,-594,0,0,0,0,0,0,0,0,0,-1,1098,1618,0,0
-119,-594,0,0,0,0,0,0,0,0,0,-1,1105,1618,0,0
-112,-594,0,0,0,0,0,0,0,0,0,-1,1112,1618,0,0
-105,-594,0,0,0,0,0,0,0,0,0,-1,1119,1618,0,0
-98,-594,0,0,0,0,0,0,0,0,0,-1,1126,1618,0,0
-91,-594,0,0,0,0,0,0,0,0,0,-1,1133,1618,0,0
-84,-594,0,0,0,0,0,0,0,0,0,-1,1140,1618,0,0
-77,-594,0,0,0,0,0,0,0,0,0,-1,1147,1618,0,0
-70,-594,0,0,0,0,0,0,0,0,0,-1,1154,1618,0,0
-63,-594,0,0,0,0,0,0,0,0,0,-1,1161,1618,0,0
-56,-594,0,0,0,0,0,0,0,0,0,-1,1168,1618,0,0
-49,-594,0,0,0,0,0,0,0,0,0,-1,1175,1618,0,0
-42,-594,0,0,0,0,0,0,0,0,0,-1,1182,1618,0,0
-35,-594,0,0,0,0,0,0,0,0,0,-1,1189,1618,0,0
-28,-594,0,0,0,0,0,0,0,0,0,-1,1196,1618,0,0
-21,-594,0,0,0,0,0,0,0,0,0,-1,1203,1618,0,0
-14,-594,0,0,0,0,0,0,0,0,0,-1,1210,1618,0,0
-7,-594,0,0,0,0,0,0,0,0,0,-1,1217,1618,0,0
0,-594,0,0,0,0,0,0,0,0,0,-1,1224,1618,0,0
7,-594,0,0,0,0,0,0,0,0,0,-1,1231,1618,0,0
14,-594,0,0,0,0,0,0,0,0,0,-1,1238,1618,0,0
21,-594,0,0,0,0,0,0,0,0,0,-1,1245,1618,0,0
28,-594,0,0,0,0,0,0,0,0,0,-1,1252,1618,0,0
35,-594,0,0,0,0,0,0,0,0,0,-1,1259,1618,0,0
42,-594,0,0,0,0,0,0,0,0,0,-1,1266,1618,0,0
49,-594,0,0,0,0,0,0,0,0,0,-1,1273,1618,0,0
56,-594,0,0,0,0,0,0,0,0,0,-1,1280,1618,0,0
63,-594,0,0,0,0,0,0,0,0,0,-1,1287,1618,0,0
70,-594,0,0,0,0,0,0,0,0,0,-1,1294,1618,0,0
77,-594,0,0,0,0,0,0,0,0,0,-1,1301,1618,0,0
84,-594,0,0,0,0,0,0,0,0,0,-1,1308,1618,0,0
91,-594,0,0,0,0,0,0,0,0,0,-1,1315,1618,0,0
98,-594,0,0,0,0,0,0,0,0,0,-1,1322,1618,0,0
105,-594,0,0,0,0,0,0,0,0,0,-1,1329,1618,0,0
112,-594,0,0,0,0,0,0,0,0,0,-1,1336,1618,0,0
119,-594,0,0,0,0,0,0,0,0,0,-1,1343,1618,0,0
126,-594,0,0,0,0,0,0,0,0,0,-1,1350,1618,0,0
133,-594,0,0,0,0,0,0,0,0,0,-1,1357,1618,0,0
140,-594,0,0,0,0,0,0,0,0,0,-1,1364,1618,0,0
147,-594,0,0,0,0,0,0,0,0,0,-1,1371,1618,0,0
154,-594,0,0,0,0,0,0,0,0,0,-1,1378,1618,0,0
161,-594,0,0,0,0,0,0,0,0,0,-1,1385,1618,0,0
168,-594,0,0,0,0,0,0,0,0,0,-1,1392,1618,0,0
175,-594,0,0,0,0,0,0,0,0,0,-1,1399,1618,0,0
182,-594,0,0,0,0,0,0,0,0,0,-1,1406,1618,0,0
189,-594,0,0,0,0,0,0,0,0,0,-1,1413,1618,0,0
196,-594,0,0,0,0,0,0,0,0,0,-1,1420,1618,0,0
203,-594,0,0,0,0,0,0,0,0,0,-1,1427,1618,0,0
210,-594,0,0,0,0,0,0,0,0,0,-1,1434,1618,0,0
217,-594,0,0,0,0,0,0,0,0,0,-1,1441,1618,0,0
224,-594,0,0,0,0,0,0,0,0,0,-1,1448,1618,0,0
231,-594,0,0,0,0,0,0,0,0,0,-1,1455,1618,0,0
238,-594,0,0,0,0,0,0,0,0,0,-1,1462,1618,0,0
245,-594,0,0,0,0,0,0,0,0,0,-1,1469,1618,0,0
252,-594,3.03674,1.20996,0,0,0,0,0,0,0,-1,1476,1618,3.0368,-1.20999
259,-594,4.79834,1.53113,0,0,0,0,0,0,0,-1,1483,1618,4.79837,-1.53118
266,-594,3.71606,2.68152,0,0,0,0,0,0,0,-1,1490,1618,3.71609,-2.68149
273,-594,9.7655,6.33557,0,0,0,0,0,0,0,-1,1497,1618,9.76555,-6.33554
280,-594,3.13281,0.911255,0,0,0,0,0,0,0,-1,1504,1618,3.13277,-0.911207
287,-594,4.42749,1.51563,0,0,0,0,0,0,0,-1,1511,1618,4.42747,-1.51564
294,-594,5.36475,3.34937,0,0,0,0,0,0,0,-1,1518,1618,5.36475,-3.3494
301,-594,7.97144,9.04333,0,0,0,0,0,0,0,-1,1525,1618,7.9714,-9.04328
308,-594,6.30347,10.4633,0,0,0,0,0,0,0,-1,1532,1618,6.30351,-10.4633
315,-594,4.62012,11.934,0,0,0,0,0,0,0,-1,1539,1618,4.62006,-11.934
322,-594,2.91528,13.3134,0,0,0,0,0,0,0,-1,1546,1618,2.91523,-13.3133
329,-594,4.19861,9.77258,0,0,0,0,0,0,0,-1,1553,1618,4.19865,-9.77264
336,-594,10.1353,4.66528,0,0,0,0,0,0,0,-1,1560,1618,10.1353,-4.66533
343,-594,10.5729,3.71228,0,0,0,0,0,0,0,-1,1567,1618,10.5729,-3.71232
350,-594,10.219,2.98792,0,0,0,0,0,0,0,-1,1574,1618,10.219,-2.98797
357,-594,9.83154,1.96326,0,0,0,0,0,0,0,-1,1581,1618,9.8315,-1.96321
364,-594,9.74939,0.700562,0,0,0,0,0,0,0,-1,1588,1618,9.74939,-0.700615
371,-594,8.54297,14.3988,0,0,0,0,0,0,0,-1,1595,1618,8.54296,-14.3989
378,-594,8.34534,15.2557,0,0,0,0,0,0,0,-1,1602,1618,8.34534,-15.2557
385,-594,8.62561,13.6674,0,0,0,0,0,0,0,-1,1609,1618,8.6256,-13.6674
392,-594,7.80396,13.5924,0,0,0,0,0,0,0,-1,1616,1618,7.80395,-13.5924
399,-594,7.63818,14.1337,-0.00256331,-0.00990899,0.00957288,0.00401714,-0.0164894,0.602223,0.0125482,0.0416401,1623,1618,7.63815,-14.1336
406,-594,7.755,14.1406,-0.0025891,-0.00831455,0.00781513,0.00287112,-0.0137748,0.609835,0.0102748,0.02595,1630,1618,7.75498,-14.1406
413,-594,7.71313,14.0098,-0.00256701,-0.00708411,0.00634985,0.001914,-0.0115651,0.614533,0.0084209,0.0209805,1637,1618,7.71319,-14.0098
420,-594,7.69421,13.8655,-0.00237587,-0.00587794,0.00499576,0.00116684,-0.00942065,0.616837,0.00670332,0.0170242,1644,1618,7.69425,-13.8655
427,-594,7.67957,13.7722,-0.00214037,-0.00500836,0.00394559,0.000623733,-0.00777247,0.611098,0.00540157,0.0119983,1651,1618,7.67952,-13.7722
434,-594,7.63721,13.5988,-0.00197322,-0.00427756,0.00302984,0.000116124,-0.0063669,0.603705,0.00428384,0.0161107,1658,1618,7.63716,-13.5988
441,-594,7.63013,13.4231,-0.00160026,-0.00373917,0.00220415,-0.000219818,-0.00511961,0.559529,0.00334221,0.0159259,1665,1618,7.63008,-13.4231
448,-594,7.65991,13.2316,-0.00109139,-0.00304319,0.00144688,-0.000322057,-0.00381252,0.4887,0.00244142,0.0158807,1672,1618,7.65995,-13.2315
455,-594,7.66162,13.0305,-0.000810257,-0.00261687,0.000855046,-0.000469752,-0.00295737,0.37898,0.00183515,0.0118949,1679,1618,7.66162,-13.0305
462,-594,7.67261,12.83,-0.000429231,-0.00233583,0.000303532,-0.000382074,-0.00238298,0.154126,0.00147785,0.0132429,1686,1618,7.67255,-12.83
469,-594,7.67114,12.6471,-3.94344e-05,-0.00192879,-0.00014602,-2.82158e-05,-0.00194001,-0.0766789,0.00128404,0.0118547,1693,1618,7.67109,-12.6471
476,-594,7.65735,12.4708,0.000254169,-0.00147337,-0.000595945,0.000439803,-0.00165901,-0.301969,0.00127808,0.01219,1700,1618,7.6574,-12.4708
483,-594,7.6488,12.2659,0.000769064,-0.000948504,-0.000919598,0.00116852,-0.00134796,-0.409791,0.00145412,0.0153474,1707,1618,7.64881,-12.2659
490,-594,7.61011,12.0529,0.00168917,-0.000765815,-0.0013757,0.0023054,-0.00138204,-0.421135,0.00215107,0.0129718,1714,1618,7.61016,-12.0529
497,-594,7.6272,11.8347,0.00271497,-0.000610303,-0.00198185,0.00363923,-0.00153457,-0.436382,0.00306838,0.00943062,1721,1618,7.62717,-11.8347
504,-594,7.64148,11.6245,0.0040032,-0.000666824,-0.00255653,0.00513057,-0.0017942,-0.415327,0.00414982,0.00999468,1728,1618,7.64149,-11.6246
511,-594,7.6438,11.4041,0.00559237,-0.000940755,-0.00309375,0.00682489,-0.00217327,-0.379117,0.00542155,0.0125367,1735,1618,7.6438,-11.4041
518,-594,7.64307,11.1943,0.00770967,-0.001776,-0.00358708,0.0089134,-0.00297973,-0.323765,0.00714569,0.0155267,1742,1618,7.64306,-11.1943
525,-594,7.60071,10.9822,0.0106842,-0.0031434,-0.00412305,0.0118203,-0.00427945,-0.268866,0.00962905,0.0278822,1749,1618,7.60074,-10.9822
532,-594,7.60669,10.9082,0,0,0,0,0,0,0,-1,1756,1618,7.60674,-10.9082
539,-594,8.93335,11.5227,0,0,0,0,0,0,0,-1,1763,1618,8.93333,-11.5227
546,-594,7.48645,8.54785,0,0,0,0,0,0,0,-1,1770,1618,7.48639,-8.54789
553,-594,3.69714,5.68762,0,0,0,0,0,0,0,-1,1777,1618,3.69715,-5.68764
560,-594,6.06616,4.44482,0,0,0,0,0,0,0,-1,1784,1618,6.06621,-4.44477
567,-594,5.97266,4.73303,0,0,0,0,0,0,0,-1,1791,1618,5.97271,-4.73309
574,-594,5.9906,4.96326,0,0,0,0,0,0,0,-1,1798,1618,5.99065,-4.96326
581,-594,0,0,0,0,0,0,0,0,0,-1,1805,1618,0,0
588,-594,0,0,0,0,0,0,0,0,0,-1,1812,1618,0,0
595,-594,0,0,0,0,0,0,0,0,0,-1,1819,1618,0,0
602,-594,0,0,0,0,0,0,0,0,0,-1,1826,1618,0,0
609,-594,0,0,0,0,0,0,0,0,0,-1,1833,1618,0,0
616,-594,0,0,0,0,0,0,0,0,0,-1,1840,1618,0,0
623,-594,0,0,0,0,0,0,0,0,0,-1,1847,1618,0,0
630,-594,0,0,0,0,0,0,0,0,0,-1,1854,1618,0,0
637,-594,0,0,0,0,0,0,0,0,0,-1,1861,1618,0,0
644,-594,0,0,0,0,0,0,0,0,0,-1,1868,1618,0,0
651,-594,0,0,0,0,0,0,0,0,0,-1,1875,1618,0,0
658,-594,0,0,0,0,0,0,0,0,0,-1,1882,1618,0,0
665,-594,0,0,0,0,0,0,0,0,0,-1,1889,1618,0,0
672,-594,0,0,0,0,0,0,0,0,0,-1,1896,1618,0,0
679,-594,0,0,0,0,0,0,0,0,0,-1,1903,1618,0,0
686,-594,0,0,0,0,0,0,0,0,0,-1,1910,1618,0,0
693,-594,0,0,0,0,0,0,0,0,0,-1,1917,1618,0,0
700,-594,0,0,0,0,0,0,0,0,0,-1,1924,1618,0,0
707,-594,0,0,0,0,0,0,0,0,0,-1,1931,1618,0,0
714,-594,0,0,0,0,0,0,0,0,0,-1,1938,1618,0,0
721,-594,0,0,0,0,0,0,0,0,0,-1,1945,1618,0,0
728,-594,0,0,0,0,0,0,0,0,0,-1,1952,1618,0,0
735,-594,0,0,0,0,0,0,0,0,0,-1,1959,1618,0,0
742,-594,0,0,0,0,0,0,0,0,0,-1,1966,1618,0,0
749,-594,0,0,0,0,0,0,0,0,0,-1,1973,1618,0,0
756,-594,0,0,0,0,0,0,0,0,0,-1,1980,1618,0,0
763,-594,0,0,0,0,0,0,0,0,0,-1,1987,1618,0,0
770,-594,0,0,0,0,0,0,0,0,0,-1,1994,1618,0,0
777,-594,0,0,0,0,0,0,0,0,0,-1,2001,1618,0,0
784,-594,0,0,0,0,0,0,0,0,0,-1,2008,1618,0,0
791,-594,0,0,0,0,0,0,0,0,0,-1,2015,1618,0,0
798,-594,0,0,0,0,0,0,0,0,0,-1,2022,1618,0,0
805,-594,0,0,0,0,0,0,0,0,0,-1,2029,1618,0,0
812,-594,0,0,0,0,0,0,0,0,0,-1,2036,1618,0,0
-700,-601,0,0,0,0,0,0,0,0,0,-1,524,1625,0,0
-693,-601,0,0,0,0,0,0,0,0,0,-1,531,1625,0,0
-686,-601,0,0,0,0,0,0,0,0,0,-1,538,1625,0,0
-679,-601,0,0,0,0,0,0,0,0,0,-1,545,1625,0,0
-672,-601,0,0,0,0,0,0,0,0,0,-1,552,1625,0,0
-665,-601,0,0,0,0,0,0,0,0,0,-1,559,1625,0,0
-658,-601,0,0,0,0,0,0,0,0,0,-1,566,1625,0,0
-651,-601,0,0,0,0,0,0,0,0,0,-1,573,1625,0,0
-644,-601,0,0,0,0,0,0,0,0,0,-1,580,1625,0,0
-637,-601,0,0,0,0,0,0,0,0,0,-1,587,1625,0,0
-630,-601,0,0,0,0,0,0,0,0,0,-1,594,1625,0,0
-623,-601,0,0,0,0,0,0,0,0,0,-1,601,1625,0,0
-616,-601,0,0,0,0,0,0,0,0,0,-1,608,1625,0,0
-609,-601,0,0,0,0,0,0,0,0,0,-1,615,1625,0,0
-602,-601,0,0,0,0,0,0,0,0,0,-1,622,1625,0,0
-595,-601,0,0,0,0,0,0,0,0,0,-1,629,1625,0,0
-588,-601,0,0,0,0,0,0,0,0,0,-1,636,1625,0,0
-581,-601,0,0,0,0,0,0,0,0,0,-1,643,1625,0,0
-574,-601,0,0,0,0,0,0,0,0,0,-1,650,1625,0,0
-567,-601,0,0,0,0,0,0,0,0,0,-1,657,1625,0,0
-560,-601,0,0,0,0,0,0,0,0,0,-1,664,1625,0,0
-553,-601,0,0,0,0,0,0,0,0,0,-1,671,1625,0,0
-546,-601,0,0,0,0,0,0,0,0,0,-1,678,1625,0,0
-539,-601,0,0,0,0,0,0,0,0,0,-1,685,1625,0,0
-532,-601,0,0,0,0,0,0,0,0,0,-1,692,1625,0,0
-525,-601,0,0,0,0,0,0,0,0,0,-1,699,1625,0,0
-518,-601,0,0,0,0,0,0,0,0,0,-1,706,1625,0,0
-511,-601,0,0,0,0,0,0,0,0,0,-1,713,1625,0,0
-504,-601,0,0,0,0,0,0,0,0,0,-1,720,1625,0,0
-497,-601,0,0,0,0,0,0,0,0,0,-1,727,1625,0,0
-490,-601,0,0,0,0,0,0,0,0,0,-1,734,1625,0,0
-483,-601,0,0,0,0,0,0,0,0,0,-1,741,1625,0,0
-476,-601,0,0,0,0,0,0,0,0,0,-1,748,1625,0,0
-469,-601,0,0,0,0,0,0,0,0,0,-1,755,1625,0,0
-462,-601,0,0,0,0,0,0,0,0,0,-1,762,1625,0,0
-455,-601,0,0,0,0,0,0,0,0,0,-1,769,1625,0,0
-448,-601,-7.07623,2.7616,0,0,0,0,0,0,0,-1,776,1625,-7.07626,-2.76161
-441,-601,-6.06689,3.33447,0,0,0,0,0,0,0,-1,783,1625,-6.06691,-3.33448
-434,-601,-5.02655,3.8468,0,0,0,0,0,0,0,-1,790,1625,-5.02657,-3.84674
-427,-601,-5.78601,4.2406,0,0,0,0,0,0,0,-1,797,1625,-5.786,-4.24058
-420,-601,-5.5191,5.60364,0,0,0,0,0,0,0,-1,804,1625,-5.51907,-5.60368
-413,-601,-4.30756,5.86047,0,0,0,0,0,0,0,-1,811,1625,-4.30757,-5.86046
-406,-601,-1.67493,7.20422,0,0,0,0,0,0,0,-1,818,1625,-1.67493,-7.20428
-399,-601,2.39716,9.25061,0,0,0,0,0,0,0,-1,825,1625,2.39717,-9.25056
-392,-601,2.47943,9.60193,0.0259736,0.0309896,0.0250605,0.0536673,0.00329595,0.835271,0.0347317,0.0475636,832,1625,2.47941,-9.60196
-385,-601,2.43469,10.132,0.015698,0.0175063,0.0166717,0.0332983,-9.4017e-05,0.812487,0.0222303,0.0414068,839,1625,2.43472,-10.132
-378,-601,2.27795,10.287,0.00848687,0.00821476,0.0106382,0.0189899,-0.00228826,0.779004,0.0134875,0.0317513,846,1625,2.27794,-10.287
-371,-601,2.20203,10.4641,0.00390856,0.00250132,0.00659134,0.00983373,-0.00342385,0.732225,0.00794689,0.0153898,853,1625,2.20201,-10.4641
-364,-601,2.20782,10.6722,-0.000419397,-0.00296247,0.00291428,0.00148867,-0.00487053,0.579692,0.00384065,0.0106667,860,1625,2.20782,-10.6723
-357,-601,2.19733,10.8986,-0.0022749,-0.00526529,0.000787821,-0.00208004,-0.00546015,0.242468,0.00318206,0.010247,867,1625,2.19732,-10.8985
-350,-601,2.2077,11.1584,-0.00142676,-0.00413405,0.000782949,-0.00121663,-0.00434417,0.262193,0.00258773,0.0211824,874,1625,2.20773,-11.1585
-343,-601,2.18726,11.3948,-0.000753432,-0.00316073,0.000770396,-0.000527998,-0.00338616,0.284675,0.00210365,0.021542,881,1625,2.18727,-11.3948
-336,-601,2.16449,11.5914,-0.000294382,-0.00255098,0.000562731,-0.000161838,-0.00268353,0.23132,0.00173758,0.0175978,888,1625,2.16452,-11.5914
-329,-601,2.17499,11.8075,7.64825e-05,-0.00174377,0.000400548,0.000160725,-0.00182801,0.207296,0.00127563,0.0144421,895,1625,2.17499,-11.8075
-322,-601,2.19812,12.0314,0.000255464,-0.00126778,0.000184199,0.000277422,-0.00128973,0.118648,0.000965672,0.0120386,902,1625,2.1981,-12.0314
-315,-601,2.20813,12.2168,0.000192991,-0.0012937,-0.000207969,0.000221535,-0.00132224,-0.1364,0.000963864,0.0120015,909,1625,2.20814,-12.2168
-308,-601,2.2063,12.4197,5.58586e-05,-0.00171226,-0.000698247,0.000298347,-0.00195475,-0.334251,0.00141315,0.0108884,916,1625,2.20632,-12.4197
-301,-601,2.19604,12.6396,-7.86896e-05,-0.0022847,-0.00114827,0.000410518,-0.00277391,-0.402751,0.0020002,0.00984539,923,1625,2.19604,-12.6396
-294,-601,2.20239,12.8372,-0.000295424,-0.00302351,-0.0016321,0.000467585,-0.00378652,-0.437314,0.00269377,0.0102099,930,1625,2.20236,-12.8372
-287,-601,2.21082,13.027,-0.000406502,-0.00403198,-0.00213628,0.000582491,-0.00502097,-0.433572,0.00355741,0.00992263,937,1625,2.21079,-13.0269
-280,-601,2.21619,13.2228,-0.000442844,-0.00520419,-0.00261305,0.000711402,-0.00635844,-0.41595,0.0044949,0.0093671,944,1625,2.21618,-13.2228
-273,-601,2.22626,13.4323,-0.000403896,-0.00651824,-0.00310888,0.00089914,-0.00782127,-0.396892,0.00553828,0.00977276,951,1625,2.22624,-13.4322
-266,-601,2.24615,13.6208,-0.000233327,-0.00804927,-0.00350218,0.00110632,-0.00938891,-0.365345,0.00665875,0.0129926,958,1625,2.24615,-13.6208
-259,-601,2.28101,13.7402,8.68564e-05,-0.00959618,-0.00388452,0.00145258,-0.0109619,-0.338082,0.00783713,0.0243303,965,1625,2.28104,-13.7402
-252,-601,2.3255,13.89,0.000603167,-0.011405,-0.00436017,0.00201934,-0.0128211,-0.314048,0.00929395,0.0431746,972,1625,2.32553,-13.8901
-245,-601,2.25958,14.0706,0.00187913,-0.0146302,-0.00471204,0.00312935,-0.0158805,-0.259348,0.0117696,0.0448229,979,1625,2.25961,-14.0706
-238,-601,2.14191,14.1487,0,0,0,0,0,0,0,-1,986,1625,2.14191,-14.1487
-231,-601,2.66772,13.7051,0,0,0,0,0,0,0,-1,993,1625,2.6677,-13.7051
-224,-601,-0.0305176,9.13684,0,0,0,0,0,0,0,-1,1000,1625,-0.030498,-9.13681
-217,-601,3.39429,10.3898,0,0,0,0,0,0,0,-1,1007,1625,3.39431,-10.3898
-210,-601,-6.53699,15.7931,0,0,0,0,0,0,0,-1,1014,1625,-6.53697,-15.7931
-203,-601,4.2666,11.9674,0,0,0,0,0,0,0,-1,1021,1625,4.26666,-11.9674
-196,-601,3.646,14.2958,0,0,0,0,0,0,0,-1,1028,1625,3.64598,-14.2958
-189,-601,3.38342,13.7926,0,0,0,0,0,0,0,-1,1035,1625,3.38346,-13.7926
-182,-601,1.82153,13.9752,0,0,0,0,0,0,0,-1,1042,1625,1.82155,-13.9752
-175,-601,0.544922,9.28687,0,0,0,0,0,0,0,-1,1049,1625,0.544879,-9.28685
-168,-601,-0.247559,8.97461,0,0,0,0,0,0,0,-1,1056,1625,-0.247598,-8.97466
-161,-601,-1.16833,8.80078,0,0,0,0,0,0,0,-1,1063,1625,-1.16837,-8.80081
-154,-601,1.12756,7.94861,0,0,0,0,0,0,0,-1,1070,1625,1.12762,-7.94855
-147,-601,1.35352,9.55432,0,0,0,0,0,0,0,-1,1077,1625,1.35351,-9.55429
-140,-601,1.72437,11.1498,0,0,0,0,0,0,0,-1,1084,1625,1.72432,-11.1498
-133,-601,2.13281,12.8347,0,0,0,0,0,0,0,-1,1091,1625,2.13287,-12.8348
-126,-601,3.09534,15.427,0,0,0,0,0,0,0,-1,1098,1625,3.0953,-15.4271
-119,-601,1.22485,9.43457,0,0,0,0,0,0,0,-1,1105,1625,1.22489,-9.43456
-112,-601,0,0,0,0,0,0,0,0,0,-1,1112,1625,0,0
-105,-601,0,0,0,0,0,0,0,0,0,-1,1119,1625,0,0
-98,-601,0,0,0,0,0,0,0,0,0,-1,1126,1625,0,0
-91,-601,0,0,0,0,0,0,0,0,0,-1,1133,1625,0,0
-84,-601,0,0,0,0,0,0,0,0,0,-1,1140,1625,0,0
-77,-601,0,0,0,0,0,0,0,0,0,-1,1147,1625,0,0
-70,-601,0,0,0,0,0,0,0,0,0,-1,1154,1625,0,0
-63,-601,0,0,0,0,0,0,0,0,0,-1,1161,1625,0,0
-56,-601,0,0,0,0,0,0,0,0,0,-1,1168,1625,0,0
-49,-601,0,0,0,0,0,0,0,0,0,-1,1175,1625,0,0
-42,-601,0,0,0,0,0,0,0,0,0,-1,1182,1625,0,0
-35,-601,0,0,0,0,0,0,0,0,0,-1,1189,1625,0,0
-28,-601,0,0,0,0,0,0,0,0,0,-1,1196,1625,0,0
-21,-601,0,0,0,0,0,0,0,0,0,-1,1203,1625,0,0
-14,-601,0,0,0,0,0,0,0,0,0,-1,1210,1625,0,0
-7,-601,0,0,0,0,0,0,0,0,0,-1,1217,1625,0,0
0,-601,0,0,0,0,0,0,0,0,0,-1,1224,1625,0,0
7,-601,0,0,0,0,0,0,0,0,0,-1,1231,1625,0,0
14,-601,0,0,0,0,0,0,0,0,0,-1,1238,1625,0,0
21,-601,0,0,0,0,0,0,0,0,0,-1,1245,1625,0,0
28,-601,0,0,0,0,0,0,0,0,0,-1,1252,1625,0,0
35,-601,0,0,0,0,0,0,0,0,0,-1,1259,1625,0,0
42,-601,0,0,0,0,0,0,0,0,0,-1,1266,1625,0,0
49,-601,0,0,0,0,0,0,0,0,0,-1,1273,1625,0,0
56,-601,0,0,0,0,0,0,0,0,0,-1,1280,1625,0,0
63,-601,0,0,0,0,0,0,0,0,0,-1,1287,1625,0,0
70,-601,0,0,0,0,0,0,0,0,0,-1,1294,1625,0,0
77,-601,0,0,0,0,0,0,0,0,0,-1,1301,1625,0,0
84,-601,0,0,0,0,0,0,0,0,0,-1,1308,1625,0,0
91,-601,0,0,0,0,0,0,0,0,0,-1,1315,1625,0,0
98,-601,0,0,0,0,0,0,0,0,0,-1,1322,1625,0,0
105,-601,0,0,0,0,0,0,0,0,0,-1,1329,1625,0,0
112,-601,0,0,0,0,0,0,0,0,0,-1,1336,1625,0,0
119,-601,0,0,0,0,0,0,0,0,0,-1,1343,1625,0,0
126,-601,0,0,0,0,0,0,0,0,0,-1,1350,1625,0,0
133,-601,0,0,0,0,0,0,0,0,0,-1,1357,1625,0,0
140,-601,0,0,0,0,0,0,0,0,0,-1,1364,1625,0,0
147,-601,0,0,0,0,0,0,0,0,0,-1,1371,1625,0,0
154,-601,0,0,0,0,0,0,0,0,0,-1,1378,1625,0,0
161,-601,0,0,0,0,0,0,0,0,0,-1,1385,1625,0,0
168,-601,0,0,0,0,0,0,0,0,0,-1,1392,1625,0,0
175,-601,0,0,0,0,0,0,0,0,0,-1,1399,1625,0,0
182,-601,0,0,0,0,0,0,0,0,0,-1,1406,1625,0,0
189,-601,0,0,0,0,0,0,0,0,0,-1,1413,1625,0,0
196,-601,0,0,0,0,0,0,0,0,0,-1,1420,1625,0,0
203,-601,0,0,0,0,0,0,0,0,0,-1,1427,1625,0,0
210,-601,0,0,0,0,0,0,0,0,0,-1,1434,1625,0,0
217,-601,0,0,0,0,0,0,0,0,0,-1,1441,1625,0,0
224,-601,0,0,0,0,0,0,0,0,0,-1,1448,1625,0,0
231,-601,-0.0371094,0.525879,0,0,0,0,0,0,0,-1,1455,1625,-0.0371518,-0.525824
238,-601,2.03369,-1.32861,0,0,0,0,0,0,0,-1,1462,1625,2.03364,1.32858
245,-601,2.71375,2.44983,0,0,0,0,0,0,0,-1,1469,1625,2.71371,-2.44979
252,-601,4.66943,2.28381,0,0,0,0,0,0,0,-1,1476,1625,4.66947,-2.28376
259,-601,6.42712,2.61987,0,0,0,0,0,0,0,-1,1483,1625,6.42711,-2.61985
266,-601,6.75317,1.68701,0,0,0,0,0,0,0,-1,1490,1625,6.75323,-1.687
273,-601,5.4314,2.92053,0,0,0,0,0,0,0,-1,1497,1625,5.43144,-2.92051
280,-601,4.64722,1.17786,0,0,0,0,0,0,0,-1,1504,1625,4.64722,-1.1779
287,-601,5.32532,2.6217,0,0,0,0,0,0,0,-1,1511,1625,5.32535,-2.62171
294,-601,5.97693,4.22693,0,0,0,0,0,0,0,-1,1518,1625,5.97697,-4.22694
301,-601,7.28162,9.50024,0,0,0,0,0,0,0,-1,1525,1625,7.28162,-9.50025
308,-601,6.53528,10.3927,0,0,0,0,0,0,0,-1,1532,1625,6.53529,-10.3927
315,-601,4.88013,11.7184,0,0,0,0,0,0,0,-1,1539,1625,4.88015,-11.7184
322,-601,3.38098,12.7864,0,0,0,0,0,0,0,-1,1546,1625,3.38104,-12.7864
329,-601,1.8772,13.8768,0,0,0,0,0,0,0,-1,1553,1625,1.87716,-13.8768
336,-601,4.67847,9.53308,0,0,0,0,0,0,0,-1,1560,1625,4.67848,-9.53309
343,-601,11.1404,3.14575,0,0,0,0,0,0,0,-1,1567,1625,11.1404,-3.1458
350,-601,10.9462,2.37769,0,0,0,0,0,0,0,-1,1574,1625,10.9461,-2.37764
357,-601,10.7518,1.6095,0,0,0,0,0,0,0,-1,1581,1625,10.7518,-1.60948
364,-601,5.33643,9.74426,0,0,0,0,0,0,0,-1,1588,1625,5.33637,-9.74429
371,-601,7.15369,15.1636,0,0,0,0,0,0,0,-1,1595,1625,7.1537,-15.1636
378,-601,7.78699,15.0769,0,0,0,0,0,0,0,-1,1602,1625,7.78693,-15.077
385,-601,7.64551,14.1344,0,0,0,0,0,0,0,-1,1609,1625,7.64551,-14.1344
392,-601,7.54626,14.106,-0.00231916,-0.0101209,0.01114,0.00558322,-0.0180233,0.616986,0.0142461,0.0450517,1616,1625,7.5463,-14.1059
399,-601,7.40894,14.334,-0.00251593,-0.00852954,0.00967825,0.00461183,-0.0156573,0.634787,0.0122679,0.0203686,1623,1625,7.40899,-14.334
406,-601,7.48596,14.2271,-0.00263909,-0.00716018,0.00827793,0.0036814,-0.0134807,0.652107,0.010433,0.0142417,1630,1625,7.48593,-14.2271
413,-601,7.48572,14.0798,-0.00273864,-0.00605298,0.00709713,0.00289222,-0.0116838,0.670704,0.00891115,0.0133092,1637,1625,7.48573,-14.0799
420,-601,7.45605,13.9623,-0.00261107,-0.00504352,0.00596354,0.00225901,-0.00991359,0.684806,0.0074767,0.0101609,1644,1625,7.45609,-13.9622
427,-601,7.46802,13.7898,-0.00237037,-0.00433297,0.00499096,0.00173485,-0.00843819,0.688329,0.00628408,0.013787,1651,1625,7.46802,-13.7898
434,-601,7.4552,13.5913,-0.00215263,-0.00379721,0.00405924,0.00116677,-0.00711661,0.685464,0.00517734,0.0148127,1658,1625,7.45523,-13.5913
441,-601,7.46069,13.402,-0.00167304,-0.00344032,0.00314131,0.00070655,-0.00581991,0.648293,0.00413562,0.0173155,1665,1625,7.46069,-13.402
448,-601,7.47571,13.2255,-0.000996163,-0.00290107,0.00219917,0.000447949,-0.00434518,0.581044,0.00305706,0.0148257,1672,1625,7.47565,-13.2255
455,-601,7.47302,13.0352,-0.000539733,-0.00264236,0.00140244,0.000161696,-0.00334379,0.463766,0.002285,0.0125308,1679,1625,7.47304,-13.0352
462,-601,7.47681,12.8271,1.60203e-05,-0.00248354,0.000619558,0.000161161,-0.00262868,0.230115,0.00180857,0.0109408,1686,1625,7.47685,-12.8272
469,-601,7.48181,12.6368,0.000592156,-0.00219379,-0.000101663,0.000595861,-0.00219749,-0.0364269,0.00169881,0.0110254,1693,1625,7.48186,-12.6368
476,-601,7.45801,12.4673,0.00104937,-0.00182186,-0.000793453,0.00125405,-0.00202653,-0.252454,0.00191147,0.0138724,1700,1625,7.45796,-12.4673
483,-601,7.44519,12.2642,0.00170494,-0.00135191,-0.00136012,0.00222249,-0.00186946,-0.363599,0.00236542,0.0173723,1707,1625,7.44514,-12.2641
490,-601,7.44678,12.0505,0.00279696,-0.00124848,-0.00206485,0.00366474,-0.00211626,-0.397853,0.00337734,0.0123296,1714,1625,7.44682,-12.0506
497,-601,7.46338,11.8425,0.0039649,-0.00106332,-0.00282008,0.00522883,-0.00232725,-0.421348,0.00446844,0.00899486,1721,1625,7.46343,-11.8425
504,-601,7.46936,11.6013,0.00533538,-0.00101387,-0.00347888,0.0068704,-0.0025489,-0.415547,0.00562579,0.011993,1728,1625,7.4694,-11.6014
511,-601,7.4325,11.3938,0.00704047,-0.00121596,-0.00415264,0.00876773,-0.00294321,-0.394174,0.00703455,0.0232649,1735,1625,7.43251,-11.3938
518,-601,7.37598,11.2025,0.00934991,-0.00201094,-0.00473262,0.0110631,-0.00372409,-0.347314,0.00888094,0.0350526,1742,1625,7.37595,-11.2025
525,-601,7.36743,11.0139,0.0127736,-0.00343489,-0.00535564,0.0143833,-0.00504464,-0.291981,0.0116407,0.0430388,1749,1625,7.3674,-11.0139
532,-601,7.37012,10.8694,0,0,0,0,0,0,0,-1,1756,1625,7.37009,-10.8694
539,-601,7.34729,10.4633,0,0,0,0,0,0,0,-1,1763,1625,7.34731,-10.4632
546,-601,6.56873,3.62354,0,0,0,0,0,0,0,-1,1770,1625,6.56867,-3.62352
553,-601,7.03015,4.25049,0,0,0,0,0,0,0,-1,1777,1625,7.03011,-4.25048
560,-601,7.50745,4.83374,0,0,0,0,0,0,0,-1,1784,1625,7.50744,-4.83376
567,-601,7.82043,3.83301,0,0,0,0,0,0,0,-1,1791,1625,7.82041,-3.83303
574,-601,0,0,0,0,0,0,0,0,0,-1,1798,1625,0,0
581,-601,0,0,0,0,0,0,0,0,0,-1,1805,1625,0,0
588,-601,0,0,0,0,0,0,0,0,0,-1,1812,1625,0,0
595,-601,0,0,0,0,0,0,0,0,0,-1,1819,1625,0,0
602,-601,0,0,0,0,0,0,0,0,0,-1,1826,1625,0,0
609,-601,0,0,0,0,0,0,0,0,0,-1,1833,1625,0,0
616,-601,0,0,0,0,0,0,0,0,0,-1,1840,1625,0,0
623,-601,0,0,0,0,0,0,0,0,0,-1,1847,1625,0,0
630,-601,0,0,0,0,0,0,0,0,0,-1,1854,1625,0,0
637,-601,0,0,0,0,0,0,0,0,0,-1,1861,1625,0,0
644,-601,0,0,0,0,0,0,0,0,0,-1,1868,1625,0,0
651,-601,0,0,0,0,0,0,0,0,0,-1,1875,1625,0,0
658,-601,0,0,0,0,0,0,0,0,0,-1,1882,1625,0,0
665,-601,0,0,0,0,0,0,0,0,0,-1,1889,1625,0,0
672,-601,0,0,0,0,0,0,0,0,0,-1,1896,1625,0,0
679,-601,0,0,0,0,0,0,0,0,0,-1,1903,1625,0,0
686,-601,0,0,0,0,0,0,0,0,0,-1,1910,1625,0,0
693,-601,0,0,0,0,0,0,0,0,0,-1,1917,1625,0,0
700,-601,0,0,0,0,0,0,0,0,0,-1,1924,1625,0,0
707,-601,0,0,0,0,0,0,0,0,0,-1,1931,1625,0,0
714,-601,0,0,0,0,0,0,0,0,0,-1,1938,1625,0,0
721,-601,0,0,0,0,0,0,0,0,0,-1,1945,1625,0,0
728,-601,0,0,0,0,0,0,0,0,0,-1,1952,1625,0,0
735,-601,0,0,0,0,0,0,0,0,0,-1,1959,1625,0,0
742,-601,0,0,0,0,0,0,0,0,0,-1,1966,1625,0,0
749,-601,0,0,0,0,0,0,0,0,0,-1,1973,1625,0,0
756,-601,0,0,0,0,0,0,0,0,0,-1,1980,1625,0,0
763,-601,0,0,0,0,0,0,0,0,0,-1,1987,1625,0,0
770,-601,0,0,0,0,0,0,0,0,0,-1,1994,1625,0,0
777,-601,0,0,0,0,0,0,0,0,0,-1,2001,1625,0,0
784,-601,0,0,0,0,0,0,0,0,0,-1,2008,1625,0,0
791,-601,0,0,0,0,0,0,0,0,0,-1,2015,1625,0,0
798,-601,0,0,0,0,0,0,0,0,0,-1,2022,1625,0,0
805,-601,0,0,0,0,0,0,0,0,0,-1,2029,1625,0,0
812,-601,0,0,0,0,0,0,0,0,0,-1,2036,1625,0,0
-700,-608,0,0,0,0,0,0,0,0,0,-1,524,1632,0,0
-693,-608,0,0,0,0,0,0,0,0,0,-1,531,1632,0,0
-686,-608,0,0,0,0,0,0,0,0,0,-1,538,1632,0,0
-679,-608,0,0,0,0,0,0,0,0,0,-1,545,1632,0,0
-672,-608,0,0,0,0,0,0,0,0,0,-1,552,1632,0,0
-665,-608,0,0,0,0,0,0,0,0,0,-1,559,1632,0,0
-658,-608,0,0,0,0,0,0,0,0,0,-1,566,1632,0,0
-651,-608,0,0,0,0,0,0,0,0,0,-1,573,1632,0,0
-644,-608,0,0,0,0,0,0,0,0,0,-1,580,1632,0,0
-637,-608,0,0,0,0,0,0,0,0,0,-1,587,1632,0,0
-630,-608,0,0,0,0,0,0,0,0,0,-1,594,1632,0,0
-623,-608,0,0,0,0,0,0,0,0,0,-1,601,1632,0,0
-616,-608,0,0,0,0,0,0,0,0,0,-1,608,1632,0,0
-609,-608,0,0,0,0,0,0,0,0,0,-1,615,1632,0,0
-602,-608,0,0,0,0,0,0,0,0,0,-1,622,1632,0,0
-595,-608,0,0,0,0,0,0,0,0,0,-1,629,1632,0,0
-588,-608,0,0,0,0,0,0,0,0,0,-1,636,1632,0,0
-581,-608,0,0,0,0,0,0,0,0,0,-1,643,1632,0,0
-574,-608,0,0,0,0,0,0,0,0,0,-1,650,1632,0,0
-567,-608,0,0,0,0,0,0,0,0,0,-1,657,1632,0,0
-560,-608,0,0,0,0,0,0,0,0,0,-1,664,1632,0,0
-553,-608,0,0,0,0,0,0,0,0,0,-1,671,1632,0,0
-546,-608,0,0,0,0,0,0,0,0,0,-1,678,1632,0,0
-539,-608,0,0,0,0,0,0,0,0,0,-1,685,1632,0,0
-532,-608,0,0,0,0,0,0,0,0,0,-1,692,1632,0,0
-525,-608,0,0,0,0,0,0,0,0,0,-1,699,1632,0,0
-518,-608,0,0,0,0,0,0,0,0,0,-1,706,1632,0,0
-511,-608,0,0,0,0,0,0,0,0,0,-1,713,1632,0,0
-504,-608,0,0,0,0,0,0,0,0,0,-1,720,1632,0,0
-497,-608,0,0,0,0,0,0,0,0,0,-1,727,1632,0,0
-490,-608,0,0,0,0,0,0,0,0,0,-1,734,1632,0,0
-483,-608,0,0,0,0,0,0,0,0,0,-1,741,1632,0,0
-476,-608,0,0,0,0,0,0,0,0,0,-1,748,1632,0,0
-469,-608,0,0,0,0,0,0,0,0,0,-1,755,1632,0,0
-462,-608,0,0,0,0,0,0,0,0,0,-1,762,1632,0,0
-455,-608,0,0,0,0,0,0,0,0,0,-1,769,1632,0,0
-448,-608,0,0,0,0,0,0,0,0,0,-1,776,1632,0,0
-441,-608,-7.34601,2.78052,0,0,0,0,0,0,0,-1,783,1632,-7.346,-2.78056
-434,-608,-6.34558,3.27405,0,0,0,0,0,0,0,-1,790,1632,-6.34555,-3.27406
-427,-608,-7.74335,4.17688,0,0,0,0,0,0,0,-1,797,1632,-7.74334,-4.17693
-420,-608,-6.82794,4.34839,0.126232,0.159626,0.102954,0.247228,0.0386297,0.865787,0.153571,0.0465641,804,1632,-6.82794,-4.34838
-413,-608,-5.69849,4.53992,0.1003,0.125249,0.0831183,0.196824,0.0287257,0.859883,0.122766,0.0483159,811,1632,-5.6985,-4.53995
-406,-608,-4.79681,4.98999,0,0,0,0,0,0,0,-1,818,1632,-4.79684,-4.98997
-399,-608,-2.60645,6.34167,0,0,0,0,0,0,0,-1,825,1632,-2.60643,-6.34169
-392,-608,3.06262,10.2775,0,0,0,0,0,0,0,-1,832,1632,3.0626,-10.2774
-385,-608,2.8031,10.5363,0.0221035,0.0244493,0.0232581,0.0465641,-1.13267e-05,0.810592,0.0310465,0.0482106,839,1632,2.80309,-10.5363
-378,-608,2.64313,10.7249,0.0122139,0.0118528,0.0150802,0.0271146,-0.00304794,0.779412,0.0191733,0.0486409,846,1632,2.64311,-10.7248
-371,-608,2.43134,10.5847,0.00582247,0.00402054,0.00953753,0.0145015,-0.00465848,0.738305,0.0115383,0.0404707,853,1632,2.43136,-10.5847
-364,-608,2.46539,10.6147,-0.000127223,-0.00339631,0.00447676,0.00300407,-0.0065276,0.610359,0.00562705,0.0164359,860,1632,2.46537,-10.6148
-357,-608,2.43121,10.8571,-0.00277008,-0.00649915,0.00151779,-0.00223041,-0.00703881,0.34162,0.00415372,0.0129867,867,1632,2.43124,-10.857
-350,-608,2.42072,11.1304,-0.00179612,-0.00503546,0.00139088,-0.00128088,-0.00555071,0.354773,0.00335601,0.0179894,874,1632,2.42069,-11.1303
-343,-608,2.41107,11.3569,-0.00101259,-0.00379896,0.00129098,-0.000506405,-0.00430514,0.373669,0.00271707,0.0230962,881,1632,2.4111,-11.3569
-336,-608,2.40839,11.5778,-0.000432341,-0.00292484,0.00102516,-6.48715e-05,-0.00329231,0.344184,0.00217357,0.0153615,888,1632,2.4084,-11.5778
-329,-608,2.39783,11.8134,2.53443e-05,-0.00192295,0.000804258,0.000314444,-0.00221205,0.345079,0.00158991,0.0138991,895,1632,2.39781,-11.8134
-322,-608,2.38806,12.0322,0.000263815,-0.00129798,0.000536191,0.000430178,-0.00146434,0.30085,0.00114684,0.0146952,902,1632,2.38805,-12.0322
-315,-608,2.42255,12.2161,0.000235675,-0.00119747,0.000101157,0.00024278,-0.00120457,0.0701207,0.000895019,0.0126234,909,1632,2.42255,-12.2161
-308,-608,2.41876,12.4248,0.000130611,-0.00144081,-0.000391859,0.000222907,-0.0015331,-0.231317,0.0011039,0.0125536,916,1632,2.41875,-12.4248
-301,-608,2.41052,12.6425,9.10611e-05,-0.00188757,-0.000832267,0.000394577,-0.00219109,-0.349698,0.00160847,0.0103184,923,1632,2.41055,-12.6425
-294,-608,2.41388,12.8369,-3.62159e-05,-0.00238452,-0.00128099,0.000527323,-0.00294806,-0.414443,0.00216269,0.0100127,930,1632,2.41387,-12.8369
-287,-608,2.40759,13.0413,-0.000109359,-0.00313284,-0.00167892,0.000638135,-0.00388033,-0.418874,0.00282374,0.0100276,937,1632,2.40759,-13.0412
-280,-608,2.41699,13.2263,-0.000103648,-0.00402014,-0.0020233,0.000753859,-0.00487764,-0.400868,0.00352998,0.00798456,944,1632,2.41696,-13.2263
-273,-608,2.41638,13.4265,2.36374e-06,-0.00497427,-0.00236414,0.000946373,-0.00591828,-0.379906,0.00429587,0.00869034,951,1632,2.41636,-13.4265
-266,-608,2.43066,13.6221,0.000233155,-0.00606744,-0.00260222,0.00116892,-0.00700321,-0.345204,0.00510326,0.00923073,958,1632,2.43066,-13.6221
-259,-608,2.44019,13.79,0.000596583,-0.00714325,-0.00281629,0.00151287,-0.00805954,-0.314551,0.00594187,0.0116871,965,1632,2.44018,-13.79
-252,-608,2.4339,13.9597,0.0011512,-0.00829365,-0.00302632,0.00203769,-0.00918014,-0.284955,0.00690035,0.0242258,972,1632,2.43393,-13.9597
-245,-608,2.39636,14.2224,0.00226676,-0.0106928,-0.00303507,0.00294234,-0.0113683,-0.219022,0.00872662,0.034475,979,1632,2.39633,-14.2225
-238,-608,2.51276,14.2495,0.00371972,-0.0140429,-0.00274582,0.0041345,-0.0144577,-0.149923,0.0112723,0.043129,986,1632,2.51274,-14.2496
-231,-608,2.599,14.4016,0,0,0,0,0,0,0,-1,993,1632,2.59899,-14.4016
-224,-608,2.3443,12.0583,0,0,0,0,0,0,0,-1,1000,1632,2.34432,-12.0584
-217,-608,1.04419,12.8451,0,0,0,0,0,0,0,-1,1007,1632,1.04418,-12.8451
-210,-608,3.21924,12.5037,0,0,0,0,0,0,0,-1,1014,1632,3.21925,-12.5036
-203,-608,3.3833,14.4537,0,0,0,0,0,0,0,-1,1021,1632,3.38336,-14.4537
-196,-608,3.62866,14.4803,0.0184197,-0.0369419,0.0077497,0.0194841,-0.0380062,0.136489,0.0337614,0.0492025,1028,1632,3.62863,-14.4804
-189,-608,3.73657,14.2264,0.0236666,-0.0438901,0.0135495,0.0262828,-0.0465064,0.190739,0.0425621,0.048284,1035,1632,3.73657,-14.2264
-182,-608,3.94312,14.042,0,0,0,0,0,0,0,-1,1042,1632,3.94307,-14.042
-175,-608,0.219116,15.1643,0,0,0,0,0,0,0,-1,1049,1632,0.219173,-15.1644
-168,-608,0.000366211,9.48645,0,0,0,0,0,0,0,-1,1056,1632,0.000317105,-9.48648
-161,-608,-0.939453,9.31458,0,0,0,0,0,0,0,-1,1063,1632,-0.939447,-9.31463
-154,-608,0.503418,14.4747,0,0,0,0,0,0,0,-1,1070,1632,0.503374,-14.4748
-147,-608,2.4386,9.50317,0,0,0,0,0,0,0,-1,1077,1632,2.43858,-9.50313
-140,-608,2.60132,10.8401,0,0,0,0,0,0,0,-1,1084,1632,2.60134,-10.8401
-133,-608,3.2312,12.4738,0,0,0,0,0,0,0,-1,1091,1632,3.23116,-12.4738
-126,-608,3.76465,13.9644,0,0,0,0,0,0,0,-1,1098,1632,3.76466,-13.9644
-119,-608,4.28906,15.4196,0,0,0,0,0,0,0,-1,1105,1632,4.28911,-15.4195
-112,-608,0.745117,10.5587,0,0,0,0,0,0,0,-1,1112,1632,0.745145,-10.5587
-105,-608,-0.252319,1.42419,0,0,0,0,0,0,0,-1,1119,1632,-0.252331,-1.42418
-98,-608,-1.67896,0.994629,0,0,0,0,0,0,0,-1,1126,1632,-1.67895,-0.994599
-91,-608,-2.99451,0.744629,0,0,0,0,0,0,0,-1,1133,1632,-2.99453,-0.744605
-84,-608,0,0,0,0,0,0,0,0,0,-1,1140,1632,0,0
-77,-608,0,0,0,0,0,0,0,0,0,-1,1147,1632,0,0
-70,-608,0,0,0,0,0,0,0,0,0,-1,1154,1632,0,0
-63,-608,0,0,0,0,0,0,0,0,0,-1,1161,1632,0,0
-56,-608,0,0,0,0,0,0,0,0,0,-1,1168,1632,0,0
-49,-608,0,0,0,0,0,0,0,0,0,-1,1175,1632,0,0
-42,-608,0,0,0,0,0,0,0,0,0,-1,1182,1632,0,0
-35,-608,0,0,0,0,0,0,0,0,0,-1,1189,1632,0,0
-28,-608,0,0,0,0,0,0,0,0,0,-1,1196,1632,0,0
-21,-608,0,0,0,0,0,0,0,0,0,-1,1203,1632,0,0
-14,-608,0,0,0,0,0,0,0,0,0,-1,1210,1632,0,0
-7,-608,0,0,0,0,0,0,0,0,0,-1,1217,1632,0,0
0,-608,0,0,0,0,0,0,0,0,0,-1,1224,1632,0,0
7,-608,0,0,0,0,0,0,0,0,0,-1,1231,1632,0,0
14,-608,0,0,0,0,0,0,0,0,0,-1,1238,1632,0,0
21,-608,0,0,0,0,0,0,0,0,0,-1,1245,1632,0,0
28,-608,0,0,0,0,0,0,0,0,0,-1,1252,1632,0,0
35,-608,0,0,0,0,0,0,0,0,0,-1,1259,1632,0,0
42,-608,0,0,0,0,0,0,0,0,0,-1,1266,1632,0,0
49,-608,0,0,0,0,0,0,0,0,0,-1,1273,1632,0,0
56,-608,0,0,0,0,0,0,0,0,0,-1,1280,1632,0,0
63,-608,0,0,0,0,0,0,0,0,0,-1,1287,1632,0,0
70,-608,0,0,0,0,0,0,0,0,0,-1,1294,1632,0,0
77,-608,0,0,0,0,0,0,0,0,0,-1,1301,1632,0,0
84,-608,0,0,0,0,0,0,0,0,0,-1,1308,1632,0,0
91,-608,0,0,0,0,0,0,0,0,0,-1,1315,1632,0,0
98,-608,0,0,0,0,0,0,0,0,0,-1,1322,1632,0,0
105,-608,0,0,0,0,0,0,0,0,0,-1,1329,1632,0,0
112,-608,0,0,0,0,0,0,0,0,0,-1,1336,1632,0,0
119,-608,0,0,0,0,0,0,0,0,0,-1,1343,1632,0,0
126,-608,0,0,0,0,0,0,0,0,0,-1,1350,1632,0,0
133,-608,0,0,0,0,0,0,0,0,0,-1,1357,1632,0,0
140,-608,0,0,0,0,0,0,0,0,0,-1,1364,1632,0,0
147,-608,0,0,0,0,0,0,0,0,0,-1,1371,1632,0,0
154,-608,0,0,0,0,0,0,0,0,0,-1,1378,1632,0,0
161,-608,0,0,0,0,0,0,0,0,0,-1,1385,1632,0,0
168,-608,0,0,0,0,0,0,0,0,0,-1,1392,1632,0,0
175,-608,0,0,0,0,0,0,0,0,0,-1,1399,1632,0,0
182,-608,0,0,0,0,0,0,0,0,0,-1,1406,1632,0,0
189,-608,0,0,0,0,0,0,0,0,0,-1,1413,1632,0,0
196,-608,0,0,0,0,0,0,0,0,0,-1,1420,1632,0,0
203,-608,0,0,0,0,0,0,0,0,0,-1,1427,1632,0,0
210,-608,5.7157,-0.333008,0,0,0,0,0,0,0,-1,1434,1632,5.71566,0.333004
217,-608,4.49402,-0.831787,0,0,0,0,0,0,0,-1,1441,1632,4.49396,0.831738
224,-608,4.18018,-1.11792,0,0,0,0,0,0,0,-1,1448,1632,4.1802,1.11796
231,-608,0.361816,0.825195,0,0,0,0,0,0,0,-1,1455,1632,0.36185,-0.825226
238,-608,2.85388,-0.28833,0,0,0,0,0,0,0,-1,1462,1632,2.85391,0.288282
245,-608,3.87537,4.02173,0,0,0,0,0,0,0,-1,1469,1632,3.87538,-4.02168
252,-608,5.66956,3.5282,0,0,0,0,0,0,0,-1,1476,1632,5.6696,-3.52815
259,-608,7.47437,3.07178,0,0,0,0,0,0,0,-1,1483,1632,7.4744,-3.07172
266,-608,9.46936,2.34766,0,0,0,0,0,0,0,-1,1490,1632,9.46932,-2.34764
273,-608,6.03003,3.34241,0,0,0,0,0,0,0,-1,1497,1632,6.02997,-3.34245
280,-608,5.72461,2.0769,0,0,0,0,0,0,0,-1,1504,1632,5.72457,-2.07688
287,-608,6.20581,3.59338,0,0,0,0,0,0,0,-1,1511,1632,6.20585,-3.59341
294,-608,6.94922,5.17151,0,0,0,0,0,0,0,-1,1518,1632,6.94925,-5.17151
301,-608,7.60083,6.68018,0,0,0,0,0,0,0,-1,1525,1632,7.60086,-6.68013
308,-608,7.64746,9.93848,0,0,0,0,0,0,0,-1,1532,1632,7.64745,-9.93842
315,-608,5.30688,11.2054,0,0,0,0,0,0,0,-1,1539,1632,5.30694,-11.2054
322,-608,5.32617,13.7581,0,0,0,0,0,0,0,-1,1546,1632,5.32613,-13.758
329,-608,5.00195,13.7511,0,0,0,0,0,0,0,-1,1553,1632,5.00192,-13.7511
336,-608,5.48633,7.82446,0,0,0,0,0,0,0,-1,1560,1632,5.48634,-7.82446
343,-608,5.47192,5.61047,0,0,0,0,0,0,0,-1,1567,1632,5.47192,-5.61045
350,-608,11.6957,1.71387,0,0,0,0,0,0,0,-1,1574,1632,11.6957,-1.71388
357,-608,3.77002,5.10046,0,0,0,0,0,0,0,-1,1581,1632,3.77002,-5.10043
364,-608,5.6925,11.2163,0,0,0,0,0,0,0,-1,1588,1632,5.69255,-11.2163
371,-608,7.01929,15.1741,0,0,0,0,0,0,0,-1,1595,1632,7.01932,-15.174
378,-608,7.2865,14.8557,-9.20849e-05,-0.00917136,0.00983269,0.00619833,-0.0154618,0.569132,0.012881,0.0386435,1602,1632,7.28644,-14.8558
385,-608,7.47852,14.7231,-0.0010273,-0.00903454,0.00963312,0.00540105,-0.0154629,0.588453,0.012504,0.0350326,1609,1632,7.47852,-14.7232
392,-608,7.27637,14.5649,-0.0014824,-0.00819545,0.00911876,0.00487797,-0.0145558,0.609049,0.0116747,0.0224695,1616,1632,7.27638,-14.5649
399,-608,7.26428,14.4474,-0.00170547,-0.0070464,0.00821192,0.00425928,-0.0130112,0.628194,0.0103891,0.0104433,1623,1632,7.26425,-14.4474
406,-608,7.27222,14.3201,-0.00182091,-0.00605136,0.00728167,0.00364653,-0.0115188,0.644045,0.00914048,0.00864098,1630,1632,7.27224,-14.3201
413,-608,7.24536,14.1426,-0.00190567,-0.00517777,0.00643848,0.00310137,-0.0101848,0.660979,0.00802595,0.00941634,1637,1632,7.24541,-14.1426
420,-608,7.21716,13.9653,-0.00179374,-0.00439333,0.00556958,0.00262571,-0.00881277,0.670763,0.00691854,0.0163976,1644,1632,7.21714,-13.9653
427,-608,7.27161,13.7784,-0.00156397,-0.00385155,0.00479356,0.00222037,-0.0076359,0.668283,0.00596998,0.0174963,1651,1632,7.27165,-13.7784
434,-608,7.27844,13.5927,-0.00134745,-0.00349177,0.00396839,0.00169106,-0.00653028,0.653461,0.0050132,0.0140867,1658,1632,7.27847,-13.5926
441,-608,7.26721,13.4094,-0.00085824,-0.00328264,0.00309789,0.00125617,-0.00539705,0.598907,0.00408171,0.0137255,1665,1632,7.26725,-13.4094
448,-608,7.28687,13.2358,-0.000126666,-0.00287571,0.00211344,0.00101991,-0.00402229,0.49708,0.00307834,0.0153031,1672,1632,7.28684,-13.2358
455,-608,7.29785,13.0511,0.000383611,-0.00277086,0.00125694,0.000823199,-0.00321044,0.336433,0.00246102,0.011215,1679,1632,7.29784,-13.0511
462,-608,7.29199,12.8527,0.000991244,-0.00272952,0.000377815,0.00102922,-0.0027675,0.10018,0.00226732,0.010367,1686,1632,7.29204,-12.8527
469,-608,7.26807,12.6479,0.00163612,-0.00256807,-0.000501518,0.00169512,-0.00262707,-0.117101,0.00251468,0.00848435,1693,1632,7.26807,-12.6479
476,-608,7.25427,12.4541,0.00217107,-0.00230032,-0.00135945,0.00255195,-0.00268119,-0.273166,0.00302166,0.00910991,1700,1632,7.25429,-12.4541
483,-608,7.26233,12.2612,0.00289128,-0.00189998,-0.00213746,0.00370622,-0.00271492,-0.364254,0.00372194,0.00888904,1707,1632,7.2623,-12.2612
490,-608,7.28284,12.0571,0.00408132,-0.00188804,-0.00305407,0.00536696,-0.00317368,-0.398444,0.00498485,0.00853087,1714,1632,7.28288,-12.0571
497,-608,7.27576,11.842,0.00536916,-0.00166665,-0.00397399,0.00715863,-0.00345612,-0.4231,0.00625147,0.0128351,1721,1632,7.27575,-11.8421
504,-608,7.21436,11.6077,0.00685359,-0.00146234,-0.00479514,0.00904244,-0.00365119,-0.428223,0.00754578,0.0277524,1728,1632,7.21435,-11.6077
511,-608,7.10547,11.3596,0.00871732,-0.00155,-0.00567797,0.0112383,-0.004071,-0.417851,0.00915603,0.0424047,1735,1632,7.10545,-11.3597
518,-608,7.00378,11.1614,0,0,0,0,0,0,0,-1,1742,1632,7.00381,-11.1613
525,-608,7.10168,11.0139,0,0,0,0,0,0,0,-1,1749,1632,7.10174,-11.0139
532,-608,7.25708,10.1648,0,0,0,0,0,0,0,-1,1756,1632,7.25708,-10.1648
539,-608,9.40796,1.43457,0,0,0,0,0,0,0,-1,1763,1632,9.40801,-1.43463
546,-608,9.94031,2.1134,0,0,0,0,0,0,0,-1,1770,1632,9.94031,-2.11346
553,-608,10.363,2.81335,0,0,0,0,0,0,0,-1,1777,1632,10.3631,-2.81333
560,-608,9.23999,4.5636,0,0,0,0,0,0,0,-1,1784,1632,9.24,-4.56354
567,-608,0,0,0,0,0,0,0,0,0,-1,1791,1632,0,0
574,-608,0,0,0,0,0,0,0,0,0,-1,1798,1632,0,0
581,-608,0,0,0,0,0,0,0,0,0,-1,1805,1632,0,0
588,-608,0,0,0,0,0,0,0,0,0,-1,1812,1632,0,0
595,-608,0,0,0,0,0,0,0,0,0,-1,1819,1632,0,0
602,-608,0,0,0,0,0,0,0,0,0,-1,1826,1632,0,0
609,-608,0,0,0,0,0,0,0,0,0,-1,1833,1632,0,0
616,-608,0,0,0,0,0,0,0,0,0,-1,1840,1632,0,0
623,-608,0,0,0,0,0,0,0,0,0,-1,1847,1632,0,0
630,-608,0,0,0,0,0,0,0,0,0,-1,1854,1632,0,0
637,-608,0,0,0,0,0,0,0,0,0,-1,1861,1632,0,0
644,-608,0,0,0,0,0,0,0,0,0,-1,1868,1632,0,0
651,-608,0,0,0,0,0,0,0,0,0,-1,1875,1632,0,0
658,-608,0,0,0,0,0,0,0,0,0,-1,1882,1632,0,0
665,-608,0,0,0,0,0,0,0,0,0,-1,1889,1632,0,0
672,-608,0,0,0,0,0,0,0,0,0,-1,1896,1632,0,0
679,-608,0,0,0,0,0,0,0,0,0,-1,1903,1632,0,0
686,-608,0,0,0,0,0,0,0,0,0,-1,1910,1632,0,0
693,-608,0,0,0,0,0,0,0,0,0,-1,1917,1632,0,0
700,-608,0,0,0,0,0,0,0,0,0,-1,1924,1632,0,0
707,-608,0,0,0,0,0,0,0,0,0,-1,1931,1632,0,0
714,-608,0,0,0,0,0,0,0,0,0,-1,1938,1632,0,0
721,-608,0,0,0,0,0,0,0,0,0,-1,1945,1632,0,0
728,-608,0,0,0,0,0,0,0,0,0,-1,1952,1632,0,0
735,-608,0,0,0,0,0,0,0,0,0,-1,1959,1632,0,0
742,-608,0,0,0,0,0,0,0,0,0,-1,1966,1632,0,0
749,-608,0,0,0,0,0,0,0,0,0,-1,1973,1632,0,0
756,-608,0,0,0,0,0,0,0,0,0,-1,1980,1632,0,0
763,-608,0,0,0,0,0,0,0,0,0,-1,1987,1632,0,0
770,-608,0,0,0,0,0,0,0,0,0,-1,1994,1632,0,0
777,-608,0,0,0,0,0,0,0,0,0,-1,2001,1632,0,0
784,-608,0,0,0,0,0,0,0,0,0,-1,2008,1632,0,0
791,-608,0,0,0,0,0,0,0,0,0,-1,2015,1632,0,0
798,-608,0,0,0,0,0,0,0,0,0,-1,2022,1632,0,0
805,-608,0,0,0,0,0,0,0,0,0,-1,2029,1632,0,0
812,-608,0,0,0,0,0,0,0,0,0,-1,2036,1632,0,0
-700,-615,0,0,0,0,0,0,0,0,0,-1,524,1639,0,0
-693,-615,0,0,0,0,0,0,0,0,0,-1,531,1639,0,0
-686,-615,0,0,0,0,0,0,0,0,0,-1,538,1639,0,0
-679,-615,0,0,0,0,0,0,0,0,0,-1,545,1639,0,0
-672,-615,0,0,0,0,0,0,0,0,0,-1,552,1639,0,0
-665,-615,0,0,0,0,0,0,0,0,0,-1,559,1639,0,0
-658,-615,0,0,0,0,0,0,0,0,0,-1,566,1639,0,0
-651,-615,0,0,0,0,0,0,0,0,0,-1,573,1639,0,0
-644,-615,0,0,0,0,0,0,0,0,0,-1,580,1639,0,0
-637,-615,0,0,0,0,0,0,0,0,0,-1,587,1639,0,0
-630,-615,0,0,0,0,0,0,0,0,0,-1,594,1639,0,0
-623,-615,0,0,0,0,0,0,0,0,0,-1,601,1639,0,0
-616,-615,0,0,0,0,0,0,0,0,0,-1,608,1639,0,0
-609,-615,0,0,0,0,0,0,0,0,0,-1,615,1639,0,0
-602,-615,0,0,0,0,0,0,0,0,0,-1,622,1639,0,0
-595,-615,0,0,0,0,0,0,0,0,0,-1,629,1639,0,0
-588,-615,0,0,0,0,0,0,0,0,0,-1,636,1639,0,0
-581,-615,0,0,0,0,0,0,0,0,0,-1,643,1639,0,0
-574,-615,0,0,0,0,0,0,0,0,0,-1,650,1639,0,0
-567,-615,0,0,0,0,0,0,0,0,0,-1,657,1639,0,0
-560,-615,0,0,0,0,0,0,0,0,0,-1,664,1639,0,0
-553,-615,0,0,0,0,0,0,0,0,0,-1,671,1639,0,0
-546,-615,0,0,0,0,0,0,0,0,0,-1,678,1639,0,0
-539,-615,0,0,0,0,0,0,0,0,0,-1,685,1639,0,0
-532,-615,0,0,0,0,0,0,0,0,0,-1,692,1639,0,0
-525,-615,0,0,0,0,0,0,0,0,0,-1,699,1639,0,0
-518,-615,0,0,0,0,0,0,0,0,0,-1,706,1639,0,0
-511,-615,0,0,0,0,0,0,0,0,0,-1,713,1639,0,0
-504,-615,0,0,0,0,0,0,0,0,0,-1,720,1639,0,0
-497,-615,0,0,0,0,0,0,0,0,0,-1,727,1639,0,0
-490,-615,0,0,0,0,0,0,0,0,0,-1,734,1639,0,0
-483,-615,0,0,0,0,0,0,0,0,0,-1,741,1639,0,0
-476,-615,0,0,0,0,0,0,0,0,0,-1,748,1639,0,0
-469,-615,0,0,0,0,0,0,0,0,0,-1,755,1639,0,0
-462,-615,0,0,0,0,0,0,0,0,0,-1,762,1639,0,0
-455,-615,0,0,0,0,0,0,0,0,0,-1,769,1639,0,0
-448,-615,0,0,0,0,0,0,0,0,0,-1,776,1639,0,0
-441,-615,0,0,0,0,0,0,0,0,0,-1,783,1639,0,0
-434,-615,-7.64508,2.98596,0,0,0,0,0,0,0,-1,790,1639,-7.64505,-2.98594
-427,-615,-9.0011,2.89404,0,0,0,0,0,0,0,-1,797,1639,-9.00107,-2.89399
-420,-615,-8.07568,3.0752,0.155037,0.195401,0.125784,0.302612,0.0478258,0.864946,0.18784,0.045681,804,1639,-8.07569,-3.07514
-413,-615,-7.09149,3.396,0.125034,0.155186,0.103225,0.24443,0.03579,0.857911,0.152431,0.0476642,811,1639,-7.09147,-3.39599
-406,-615,-6.21368,3.7312,0,0,0,0,0,0,0,-1,818,1639,-6.21366,-3.73114
-399,-615,-4.84875,3.91907,0,0,0,0,0,0,0,-1,825,1639,-4.84877,-3.91901
-392,-615,-3.4469,5.28418,0,0,0,0,0,0,0,-1,832,1639,-3.44689,-5.28422
-385,-615,2.96606,10.9436,0,0,0,0,0,0,0,-1,839,1639,2.96606,-10.9436
-378,-615,2.93671,11.119,0,0,0,0,0,0,0,-1,846,1639,2.9367,-11.119
-371,-615,2.69006,10.6877,0.00842329,0.00632579,0.0134527,0.0208681,-0.00611898,0.746498,0.0163382,0.0484472,853,1639,2.69009,-10.6878
-364,-615,2.71423,10.6753,0.000393126,-0.00362328,0.00661661,0.00529957,-0.00852973,0.638061,0.00805662,0.0337066,860,1639,2.71421,-10.6753
-357,-615,2.70569,10.9838,-0.00330504,-0.00781742,0.0025699,-0.00214147,-0.00898099,0.425154,0.0054165,0.0278374,867,1639,2.70568,-10.9838
-350,-615,2.62524,11.1779,-0.00230594,-0.00596684,0.00220829,-0.0012681,-0.00700468,0.439341,0.00430973,0.0269067,874,1639,2.62524,-11.1778
-343,-615,2.59814,11.33,-0.00145352,-0.00452585,0.00192052,-0.000530377,-0.005449,0.448067,0.00346941,0.0197213,881,1639,2.59814,-11.33
-336,-615,2.63025,11.5637,-0.000775969,-0.0034421,0.00152049,-8.69166e-05,-0.00413115,0.425493,0.00272559,0.0106479,888,1639,2.63024,-11.5638
-329,-615,2.6217,11.8009,-0.000255953,-0.00229008,0.00118292,0.000287022,-0.00283306,0.430323,0.00199129,0.0102951,895,1639,2.62168,-11.8009
-322,-615,2.61694,12.0367,3.36743e-05,-0.00155284,0.000819043,0.000380632,-0.0018998,0.400695,0.00141063,0.0111638,902,1639,2.61693,-12.0368
-315,-615,2.64587,12.2499,3.97065e-05,-0.00134867,0.000312611,0.000106848,-0.00141581,0.211562,0.000981433,0.0127209,909,1639,2.64586,-12.2499
-308,-615,2.61212,12.4529,-1.84792e-05,-0.00142235,-0.000192948,7.55669e-06,-0.00144839,-0.134127,0.00096812,0.0190562,916,1639,2.6121,-12.4529
-301,-615,2.61285,12.6493,6.51994e-05,-0.00174644,-0.000628119,0.00026167,-0.00194291,-0.30315,0.00139073,0.0121549,923,1639,2.61282,-12.6493
-294,-615,2.62274,12.8405,5.53252e-05,-0.00199704,-0.00103594,0.000487297,-0.00242901,-0.395064,0.00180385,0.0100251,930,1639,2.62276,-12.8404
-287,-615,2.61475,13.0358,5.04101e-05,-0.00247755,-0.00132074,0.000614543,-0.00304168,-0.403677,0.00226065,0.00783843,937,1639,2.61477,-13.0357
-280,-615,2.62921,13.2217,0.000127632,-0.00307684,-0.00153543,0.000744564,-0.00369378,-0.382055,0.00274458,0.00845572,944,1639,2.62921,-13.2216
-273,-615,2.62494,13.431,0.000323667,-0.00367565,-0.00173532,0.000971646,-0.00432362,-0.357372,0.003255,0.00970263,951,1639,2.62495,-13.431
-266,-615,2.61664,13.6274,0.000621063,-0.00435485,-0.00185492,0.00123644,-0.00497022,-0.320327,0.0037934,0.0106078,958,1639,2.61663,-13.6275
-259,-615,2.62762,13.7994,0.00100659,-0.00499792,-0.00193942,0.00157853,-0.00556986,-0.286775,0.00433627,0.0117943,965,1639,2.62765,-13.7994
-252,-615,2.64899,13.9788,0.00151906,-0.00565922,-0.00199286,0.00203521,-0.00617537,-0.253431,0.00493719,0.0124037,972,1639,2.649,-13.9788
-245,-615,2.62891,14.1401,0.00235337,-0.00746912,-0.00186808,0.00269666,-0.0078124,-0.181734,0.00630248,0.0181006,979,1639,2.6289,-14.1401
-238,-615,2.6701,14.3301,0.00341859,-0.0101958,-0.00158796,0.00360135,-0.0103786,-0.114589,0.00838149,0.0267609,986,1639,2.67013,-14.33
-231,-615,2.7417,14.4919,0.00444699,-0.0121862,-0.0011343,0.00452398,-0.0122632,-0.0677765,0.0100295,0.0372648,993,1639,2.74169,-14.4919
-224,-615,2.849,14.709,0,0,0,0,0,0,0,-1,1000,1639,2.849,-14.7089
-217,-615,3.01709,14.6552,0,0,0,0,0,0,0,-1,1007,1639,3.01709,-14.6551
-210,-615,3.03198,14.6821,0,0,0,0,0,0,0,-1,1014,1639,3.03201,-14.6821
-203,-615,3.42688,14.615,0,0,0,0,0,0,0,-1,1021,1639,3.42686,-14.615
-196,-615,3.63086,14.6461,0.0151071,-0.0290574,0.00946464,0.01705,-0.0310002,0.202461,0.0281288,0.0499409,1028,1639,3.6308,-14.6461
-189,-615,3.80505,14.6704,0.0195087,-0.0346488,0.0153352,0.0235495,-0.0386896,0.257642,0.0362864,0.048254,1035,1639,3.80503,-14.6705
-182,-615,3.96594,14.7101,0,0,0,0,0,0,0,-1,1042,1639,3.9659,-14.71
-175,-615,-0.609985,13.8434,0,0,0,0,0,0,0,-1,1049,1639,-0.610016,-13.8434
-168,-615,2.02783,9.96631,0,0,0,0,0,0,0,-1,1056,1639,2.0278,-9.96637
-161,-615,0.378418,15.2075,0,0,0,0,0,0,0,-1,1063,1639,0.378426,-15.2076
-154,-615,2.69788,13.7036,0,0,0,0,0,0,0,-1,1070,1639,2.69788,-13.7036
-147,-615,1.44019,13.1343,0,0,0,0,0,0,0,-1,1077,1639,1.44018,-13.1343
-140,-615,3.73401,10.2349,0,0,0,0,0,0,0,-1,1084,1639,3.73402,-10.2348
-133,-615,2.6178,17.45,0,0,0,0,0,0,0,-1,1091,1639,2.61776,-17.4499
-126,-615,4.43408,12.5017,0,0,0,0,0,0,0,-1,1098,1639,4.43403,-12.5018
-119,-615,4.82983,13.9279,0,0,0,0,0,0,0,-1,1105,1639,4.82986,-13.9278
-112,-615,3.65698,14.4874,0,0,0,0,0,0,0,-1,1112,1639,3.65695,-14.4875
-105,-615,0.958496,2.45398,0,0,0,0,0,0,0,-1,1119,1639,0.958452,-2.45398
-98,-615,-0.647705,2.12109,0,0,0,0,0,0,0,-1,1126,1639,-0.647756,-2.12105
-91,-615,-1.48572,0.604492,0,0,0,0,0,0,0,-1,1133,1639,-1.48576,-0.604443
-84,-615,-2.46509,0.703247,0,0,0,0,0,0,0,-1,1140,1639,-2.46505,-0.703273
-77,-615,-3.17859,1.23755,0,0,0,0,0,0,0,-1,1147,1639,-3.17865,-1.23752
-70,-615,-4.03943,1.43335,0,0,0,0,0,0,0,-1,1154,1639,-4.03942,-1.43339
-63,-615,-4.8877,1.45544,0,0,0,0,0,0,0,-1,1161,1639,-4.88766,-1.45549
-56,-615,0,0,0,0,0,0,0,0,0,-1,1168,1639,0,0
-49,-615,0,0,0,0,0,0,0,0,0,-1,1175,1639,0,0
-42,-615,0,0,0,0,0,0,0,0,0,-1,1182,1639,0,0
-35,-615,0,0,0,0,0,0,0,0,0,-1,1189,1639,0,0
-28,-615,0,0,0,0,0,0,0,0,0,-1,1196,1639,0,0
-21,-615,0,0,0,0,0,0,0,0,0,-1,1203,1639,0,0
-14,-615,0,0,0,0,0,0,0,0,0,-1,1210,1639,0,0
-7,-615,0,0,0,0,0,0,0,0,0,-1,1217,1639,0,0
0,-615,0,0,0,0,0,0,0,0,0,-1,1224,1639,0,0
7,-615,0,0,0,0,0,0,0,0,0,-1,1231,1639,0,0
14,-615,0,0,0,0,0,0,0,0,0,-1,1238,1639,0,0
21,-615,0,0,0,0,0,0,0,0,0,-1,1245,1639,0,0
28,-615,0,0,0,0,0,0,0,0,0,-1,1252,1639,0,0
35,-615,0,0,0,0,0,0,0,0,0,-1,1259,1639,0,0
42,-615,0,0,0,0,0,0,0,0,0,-1,1266,1639,0,0
49,-615,0,0,0,0,0,0,0,0,0,-1,1273,1639,0,0
56,-615,0,0,0,0,0,0,0,0,0,-1,1280,1639,0,0
63,-615,0,0,0,0,0,0,0,0,0,-1,1287,1639,0,0
70,-615,0,0,0,0,0,0,0,0,0,-1,1294,1639,0,0
77,-615,0,0,0,0,0,0,0,0,0,-1,1301,1639,0,0
84,-615,0,0,0,0,0,0,0,0,0,-1,1308,1639,0,0
91,-615,0,0,0,0,0,0,0,0,0,-1,1315,1639,0,0
98,-615,0,0,0,0,0,0,0,0,0,-1,1322,1639,0,0
105,-615,0,0,0,0,0,0,0,0,0,-1,1329,1639,0,0
112,-615,0,0,0,0,0,0,0,0,0,-1,1336,1639,0,0
119,-615,0,0,0,0,0,0,0,0,0,-1,1343,1639,0,0
126,-615,0,0,0,0,0,0,0,0,0,-1,1350,1639,0,0
133,-615,0,0,0,0,0,0,0,0,0,-1,1357,1639,0,0
140,-615,0,0,0,0,0,0,0,0,0,-1,1364,1639,0,0
147,-615,0,0,0,0,0,0,0,0,0,-1,1371,1639,0,0
154,-615,0,0,0,0,0,0,0,0,0,-1,1378,1639,0,0
161,-615,0,0,0,0,0,0,0,0,0,-1,1385,1639,0,0
168,-615,0,0,0,0,0,0,0,0,0,-1,1392,1639,0,0
175,-615,5.39648,-2.00879,0,0,0,0,0,0,0,-1,1399,1639,5.3965,2.00881
182,-615,5.65393,-1.51025,0,0,0,0,0,0,0,-1,1406,1639,5.65388,1.51028
189,-615,5.58972,-1.35608,0,0,0,0,0,0,0,-1,1413,1639,5.58967,1.35607
196,-615,5.49915,-0.693604,0,0,0,0,0,0,0,-1,1420,1639,5.4991,0.693602
203,-615,5.33411,-0.226685,0,0,0,0,0,0,0,-1,1427,1639,5.33414,0.226689
210,-615,5.60278,0.108276,0,0,0,0,0,0,0,-1,1434,1639,5.60284,-0.10831
217,-615,6.26331,-0.307373,0,0,0,0,0,0,0,-1,1441,1639,6.26331,0.307372
224,-615,5.45422,-0.333984,0,0,0,0,0,0,0,-1,1448,1639,5.45422,0.333992
231,-615,4.92542,1.80298,0,0,0,0,0,0,0,-1,1455,1639,4.92537,-1.80297
238,-615,4.76355,1.96729,0,0,0,0,0,0,0,-1,1462,1639,4.76357,-1.96734
245,-615,4.08643,3.15906,0,0,0,0,0,0,0,-1,1469,1639,4.08638,-3.159
252,-615,6.37805,3.73889,0,0,0,0,0,0,0,-1,1476,1639,6.37806,-3.73891
259,-615,8.35974,3.16443,0,0,0,0,0,0,0,-1,1483,1639,8.35975,-3.16444
266,-615,10.3414,2.58997,0,0,0,0,0,0,0,-1,1490,1639,10.3414,-2.58996
273,-615,6.57043,1.84766,0,0,0,0,0,0,0,-1,1497,1639,6.5704,-1.84771
280,-615,7.10449,3.23438,0,0,0,0,0,0,0,-1,1504,1639,7.10447,-3.23435
287,-615,7.35779,4.68542,0,0,0,0,0,0,0,-1,1511,1639,7.35776,-4.68546
294,-615,7.63733,6.29114,0,0,0,0,0,0,0,-1,1518,1639,7.63735,-6.29109
301,-615,8.47925,11.452,0,0,0,0,0,0,0,-1,1525,1639,8.47922,-11.452
308,-615,6.8114,10.9059,0,0,0,0,0,0,0,-1,1532,1639,6.81137,-10.9058
315,-615,5.1427,14.7251,0,0,0,0,0,0,0,-1,1539,1639,5.14269,-14.7251
322,-615,6.5426,16.3584,0,0,0,0,0,0,0,-1,1546,1639,6.54259,-16.3584
329,-615,6.43286,14.8693,0,0,0,0,0,0,0,-1,1553,1639,6.4329,-14.8693
336,-615,5.4082,13.5924,0,0,0,0,0,0,0,-1,1560,1639,5.4082,-13.5925
343,-615,2.40491,6.50134,0,0,0,0,0,0,0,-1,1567,1639,2.40489,-6.50137
350,-615,6.4458,15.4594,0,0,0,0,0,0,0,-1,1574,1639,6.44578,-15.4593
357,-615,7.14685,15.4838,0,0,0,0,0,0,0,-1,1581,1639,7.14683,-15.4838
364,-615,7.06311,15.2003,0,0,0,0,0,0,0,-1,1588,1639,7.06314,-15.2003
371,-615,7.00134,15.0803,0.0016355,-0.00682954,0.00652205,0.00517803,-0.0103721,0.497578,0.00914327,0.0414361,1595,1639,7.00137,-15.0803
378,-615,7.04846,14.9526,0.000344317,-0.00685969,0.00710663,0.00470966,-0.011225,0.550841,0.00945277,0.0208576,1602,1639,7.04844,-14.9527
385,-615,7.0802,14.7971,-0.000380162,-0.00673593,0.00701044,0.00413905,-0.0112551,0.572598,0.00919893,0.0116186,1609,1639,7.08022,-14.7971
392,-615,7.06738,14.6392,-0.000732073,-0.0061361,0.0066063,0.00370343,-0.0105716,0.591275,0.00855375,0.0093707,1616,1639,7.06733,-14.6392
399,-615,7.06714,14.488,-0.000936703,-0.00531459,0.00594782,0.00321218,-0.00946347,0.609077,0.00760916,0.0105945,1623,1639,7.06714,-14.488
406,-615,7.07385,14.3083,-0.00104247,-0.00456666,0.00529692,0.00277776,-0.00838689,0.624825,0.00671161,0.0113404,1630,1639,7.0738,-14.3084
413,-615,7.06787,14.1455,-0.00112065,-0.00393884,0.00469389,0.00237109,-0.00743058,0.639579,0.00590495,0.0119389,1637,1639,7.06783,-14.1455
420,-615,7.07349,13.9691,-0.00103684,-0.00343388,0.00407101,0.00200841,-0.00647914,0.642241,0.00512188,0.0124157,1644,1639,7.07347,-13.9691
427,-615,7.10156,13.7842,-0.000836993,-0.00312574,0.00352485,0.0017246,-0.00568733,0.628437,0.00447851,0.0136389,1651,1639,7.10151,-13.7842
434,-615,7.10754,13.6028,-0.000637235,-0.00301826,0.0028916,0.00129934,-0.00495484,0.590116,0.0038109,0.0129189,1658,1639,7.10749,-13.6028
441,-615,7.1084,13.4084,-0.000159681,-0.0030516,0.00220275,0.0010293,-0.00424057,0.494956,0.00322537,0.0140732,1665,1639,7.10835,-13.4084
448,-615,7.10181,13.2239,0.000614449,-0.00288574,0.00133276,0.00106415,-0.00333544,0.325422,0.00265053,0.0154887,1672,1639,7.10187,-13.2239
455,-615,7.10583,13.0737,0.0011854,-0.00304558,0.000592976,0.00126693,-0.00312711,0.136645,0.00261158,0.0140073,1679,1639,7.10578,-13.0738
462,-615,7.10535,12.8927,0.00186996,-0.00322817,-0.000201533,0.00187792,-0.00323612,-0.0394486,0.0029871,0.0135653,1686,1639,7.10537,-12.8927
469,-615,7.07971,12.6772,0.002629,-0.00329025,-0.00107189,0.00281713,-0.00347838,-0.173738,0.00364139,0.0117889,1693,1639,7.07973,-12.6772
476,-615,7.06738,12.4541,0.00332174,-0.00320548,-0.00197298,0.00387177,-0.00375551,-0.271875,0.00440378,0.010471,1700,1639,7.06736,-12.4541
483,-615,7.07874,12.2253,0.00420347,-0.00292293,-0.00287676,0.0052198,-0.00393926,-0.339604,0.00530519,0.0141062,1707,1639,7.07868,-12.2254
490,-615,7.09558,12.0303,0.00562166,-0.00300712,-0.00399839,0.00718954,-0.00457499,-0.373701,0.00684794,0.0160147,1714,1639,7.09554,-12.0303
497,-615,7.07227,11.8684,0.00723423,-0.0027263,-0.00520495,0.00945776,-0.00494982,-0.403727,0.00845285,0.0243751,1721,1639,7.0723,-11.8685
504,-615,6.95972,11.5879,0.00894841,-0.00225243,-0.00634227,0.011809,-0.00511305,-0.423718,0.0100217,0.0460517,1728,1639,6.95976,-11.5878
511,-615,6.88037,11.3334,0,0,0,0,0,0,0,-1,1735,1639,6.88043,-11.3334
518,-615,7.35779,10.4647,0,0,0,0,0,0,0,-1,1742,1639,7.35773,-10.4647
525,-615,4.37524,3.90491,0,0,0,0,0,0,0,-1,1749,1639,4.37518,-3.90495
532,-615,7.3645,0.848145,0,0,0,0,0,0,0,-1,1756,1639,7.36451,-0.848093
539,-615,12.8112,-0.0476074,0,0,0,0,0,0,0,-1,1763,1639,12.8111,0.0475553
546,-615,8.33813,2.94556,0,0,0,0,0,0,0,-1,1770,1639,8.33813,-2.9455
553,-615,5.82532,-2.04199,0,0,0,0,0,0,0,-1,1777,1639,5.82534,2.04195
560,-615,0,0,0,0,0,0,0,0,0,-1,1784,1639,0,0
567,-615,0,0,0,0,0,0,0,0,0,-1,1791,1639,0,0
574,-615,0,0,0,0,0,0,0,0,0,-1,1798,1639,0,0
581,-615,0,0,0,0,0,0,0,0,0,-1,1805,1639,0,0
588,-615,0,0,0,0,0,0,0,0,0,-1,1812,1639,0,0
595,-615,0,0,0,0,0,0,0,0,0,-1,1819,1639,0,0
602,-615,0,0,0,0,0,0,0,0,0,-1,1826,1639,0,0
609,-615,0,0,0,0,0,0,0,0,0,-1,1833,1639,0,0
616,-615,0,0,0,0,0,0,0,0,0,-1,1840,1639,0,0
623,-615,0,0,0,0,0,0,0,0,0,-1,1847,1639,0,0
630,-615,0,0,0,0,0,0,0,0,0,-1,1854,1639,0,0
637,-615,0,0,0,0,0,0,0,0,0,-1,1861,1639,0,0
644,-615,0,0,0,0,0,0,0,0,0,-1,1868,1639,0,0
651,-615,0,0,0,0,0,0,0,0,0,-1,1875,1639,0,0
658,-615,0,0,0,0,0,0,0,0,0,-1,1882,1639,0,0
665,-615,0,0,0,0,0,0,0,0,0,-1,1889,1639,0,0
672,-615,0,0,0,0,0,0,0,0,0,-1,1896,1639,0,0
679,-615,0,0,0,0,0,0,0,0,0,-1,1903,1639,0,0
686,-615,0,0,0,0,0,0,0,0,0,-1,1910,1639,0,0
693,-615,0,0,0,0,0,0,0,0,0,-1,1917,1639,0,0
700,-615,0,0,0,0,0,0,0,0,0,-1,1924,1639,0,0
707,-615,0,0,0,0,0,0,0,0,0,-1,1931,1639,0,0
714,-615,0,0,0,0,0,0,0,0,0,-1,1938,1639,0,0
721,-615,0,0,0,0,0,0,0,0,0,-1,1945,1639,0,0
728,-615,0,0,0,0,0,0,0,0,0,-1,1952,1639,0,0
735,-615,0,0,0,0,0,0,0,0,0,-1,1959,1639,0,0
742,-615,0,0,0,0,0,0,0,0,0,-1,1966,1639,0,0
749,-615,0,0,0,0,0,0,0,0,0,-1,1973,1639,0,0
756,-615,0,0,0,0,0,0,0,0,0,-1,1980,1639,0,0
763,-615,0,0,0,0,0,0,0,0,0,-1,1987,1639,0,0
770,-615,0,0,0,0,0,0,0,0,0,-1,1994,1639,0,0
777,-615,0,0,0,0,0,0,0,0,0,-1,2001,1639,0,0
784,-615,0,0,0,0,0,0,0,0,0,-1,2008,1639,0,0
791,-615,0,0,0,0,0,0,0,0,0,-1,2015,1639,0,0
798,-615,0,0,0,0,0,0,0,0,0,-1,2022,1639,0,0
805,-615,0,0,0,0,0,0,0,0,0,-1,2029,1639,0,0
812,-615,0,0,0,0,0,0,0,0,0,-1,2036,1639,0,0
-700,-622,0,0,0,0,0,0,0,0,0,-1,524,1646,0,0
-693,-622,0,0,0,0,0,0,0,0,0,-1,531,1646,0,0
-686,-622,0,0,0,0,0,0,0,0,0,-1,538,1646,0,0
-679,-622,0,0,0,0,0,0,0,0,0,-1,545,1646,0,0
-672,-622,0,0,0,0,0,0,0,0,0,-1,552,1646,0,0
-665,-622,0,0,0,0,0,0,0,0,0,-1,559,1646,0,0
-658,-622,0,0,0,0,0,0,0,0,0,-1,566,1646,0,0
-651,-622,0,0,0,0,0,0,0,0,0,-1,573,1646,0,0
-644,-622,0,0,0,0,0,0,0,0,0,-1,580,1646,0,0
-637,-622,0,0,0,0,0,0,0,0,0,-1,587,1646,0,0
-630,-622,0,0,0,0,0,0,0,0,0,-1,594,1646,0,0
-623,-622,0,0,0,0,0,0,0,0,0,-1,601,1646,0,0
-616,-622,0,0,0,0,0,0,0,0,0,-1,608,1646,0,0
-609,-622,0,0,0,0,0,0,0,0,0,-1,615,1646,0,0
-602,-622,0,0,0,0,0,0,0,0,0,-1,622,1646,0,0
-595,-622,0,0,0,0,0,0,0,0,0,-1,629,1646,0,0
-588,-622,0,0,0,0,0,0,0,0,0,-1,636,1646,0,0
-581,-622,0,0,0,0,0,0,0,0,0,-1,643,1646,0,0
-574,-622,0,0,0,0,0,0,0,0,0,-1,650,1646,0,0
-567,-622,0,0,0,0,0,0,0,0,0,-1,657,1646,0,0
-560,-622,0,0,0,0,0,0,0,0,0,-1,664,1646,0,0
-553,-622,0,0,0,0,0,0,0,0,0,-1,671,1646,0,0
-546,-622,0,0,0,0,0,0,0,0,0,-1,678,1646,0,0
-539,-622,0,0,0,0,0,0,0,0,0,-1,685,1646,0,0
-532,-622,0,0,0,0,0,0,0,0,0,-1,692,1646,0,0
-525,-622,0,0,0,0,0,0,0,0,0,-1,699,1646,0,0
-518,-622,0,0,0,0,0,0,0,0,0,-1,706,1646,0,0
-511,-622,0,0,0,0,0,0,0,0,0,-1,713,1646,0,0
-504,-622,0,0,0,0,0,0,0,0,0,-1,720,1646,0,0
-497,-622,0,0,0,0,0,0,0,0,0,-1,727,1646,0,0
-490,-622,0,0,0,0,0,0,0,0,0,-1,734,1646,0,0
-483,-622,0,0,0,0,0,0,0,0,0,-1,741,1646,0,0
-476,-622,0,0,0,0,0,0,0,0,0,-1,748,1646,0,0
-469,-622,0,0,0,0,0,0,0,0,0,-1,755,1646,0,0
-462,-622,0,0,0,0,0,0,0,0,0,-1,762,1646,0,0
-455,-622,0,0,0,0,0,0,0,0,0,-1,769,1646,0,0
-448,-622,0,0,0,0,0,0,0,0,0,-1,776,1646,0,0
-441,-622,0,0,0,0,0,0,0,0,0,-1,783,1646,0,0
-434,-622,0,0,0,0,0,0,0,0,0,-1,790,1646,0,0
-427,-622,-7.62891,3.48096,0,0,0,0,0,0,0,-1,797,1646,-7.62892,-3.48092
-420,-622,-9.35791,1.77185,0,0,0,0,0,0,0,-1,804,1646,-9.35789,-1.77183
-413,-622,-8.46075,1.96777,0,0,0,0,0,0,0,-1,811,1646,-8.46074,-1.96774
-406,-622,-4.44318,2.16858,0,0,0,0,0,0,0,-1,818,1646,-4.44315,-2.16859
-399,-622,-7.06976,1.51001,0,0,0,0,0,0,0,-1,825,1646,-7.06976,-1.51005
-392,-622,3.89551,5.85376,0,0,0,0,0,0,0,-1,832,1646,3.8955,-5.85379
-385,-622,4.37762,7.35767,0,0,0,0,0,0,0,-1,839,1646,4.37765,-7.35761
-378,-622,2.42407,9.54419,0,0,0,0,0,0,0,-1,846,1646,2.42409,-9.54421
-371,-622,2.59393,10.3936,0.0117414,0.00955942,0.0185352,0.0292177,-0.00791685,0.756001,0.0225848,0.0470005,853,1646,2.5939,-10.3936
-364,-622,2.68506,10.8871,0.00117095,-0.00350064,0.00948861,0.00860704,-0.0109367,0.664714,0.0113103,0.0434866,860,1646,2.68507,-10.887
-357,-622,2.90088,10.9827,-0.00381747,-0.00909697,0.00402468,-0.00164408,-0.0112704,0.495146,0.00702993,0.0437549,867,1646,2.90087,-10.9826
-350,-622,2.82758,11.3,-0.00275327,-0.00678583,0.00332523,-0.000880777,-0.00865832,0.512858,0.00550217,0.0377955,874,1646,2.82759,-11.3
-343,-622,2.72644,11.4247,-0.00184852,-0.0053421,0.00273495,-0.000350122,-0.00684049,0.501206,0.00444821,0.0259168,881,1646,2.72646,-11.4247
-336,-622,2.81653,11.5751,-0.00110584,-0.00418722,0.00210896,-3.4743e-05,-0.00525832,0.469932,0.00349402,0.00927417,888,1646,2.81653,-11.5751
-329,-622,2.82483,11.7936,-0.000552157,-0.0029889,0.00159205,0.000234225,-0.00377528,0.458791,0.00259845,0.00812382,895,1646,2.82481,-11.7935
-322,-622,2.82727,12.0275,-0.000241061,-0.00222654,0.00110287,0.000250067,-0.00271767,0.418953,0.00190062,0.00989591,902,1646,2.82727,-12.0274
-315,-622,2.81909,12.2543,-0.000242782,-0.00198677,0.000507407,-0.000105898,-0.00212365,0.2635,0.00138182,0.0135845,909,1646,2.81907,-12.2543
-308,-622,2.80511,12.4398,-0.000302266,-0.00195114,-2.89832e-05,-0.000301756,-0.00195165,-0.0175703,0.00121309,0.0138675,916,1646,2.80512,-12.4398
-301,-622,2.81708,12.6228,-0.000147748,-0.00219744,-0.000480748,-4.05919e-05,-0.0023046,-0.219309,0.00152305,0.0130026,923,1646,2.81705,-12.6228
-294,-622,2.81299,12.8215,-0.000100879,-0.00223736,-0.000866746,0.000206521,-0.00254476,-0.34082,0.00176937,0.0104408,930,1646,2.81297,-12.8216
-287,-622,2.81006,13.0267,-8.86416e-05,-0.00246674,-0.00106219,0.000316704,-0.00287208,-0.364555,0.00202855,0.00814792,937,1646,2.81006,-13.0268
-280,-622,2.81323,13.2255,1.62678e-05,-0.00278483,-0.00117877,0.000446302,-0.00321486,-0.349813,0.00230645,0.00856792,944,1646,2.81321,-13.2254
-273,-622,2.83014,13.4232,0.000260488,-0.00304352,-0.00126995,0.000692201,-0.00347523,-0.32769,0.00257871,0.0124381,951,1646,2.83016,-13.4232
-266,-622,2.80835,13.6196,0.000587945,-0.00335244,-0.00130181,0.000979185,-0.00374368,-0.291948,0.00287825,0.0125366,958,1646,2.80838,-13.6196
-259,-622,2.82404,13.8088,0.000981001,-0.00361212,-0.00129273,0.00131984,-0.00395097,-0.256346,0.00316697,0.012203,965,1646,2.82406,-13.8089
-252,-622,2.84723,13.993,0.00147702,-0.00387351,-0.00125528,0.00175688,-0.00415337,-0.21936,0.00350454,0.0119493,972,1646,2.84722,-13.9931
-245,-622,2.85345,14.1726,0.00219914,-0.00518606,-0.00106026,0.00234835,-0.00533526,-0.139805,0.00454649,0.00860098,979,1646,2.85347,-14.1726
-238,-622,2.85303,14.3568,0.00300383,-0.00734443,-0.000795757,0.00306466,-0.00740526,-0.0762998,0.00621556,0.0092954,986,1646,2.85304,-14.3568
-231,-622,2.88007,14.541,0.00371017,-0.00903742,-0.000464599,0.00372708,-0.00905433,-0.0363816,0.00759,0.0132088,993,1646,2.88004,-14.5411
-224,-622,2.95367,14.6996,0.00453277,-0.0114445,9.87158e-05,0.00453338,-0.0114451,0.00617819,0.00950855,0.0229928,1000,1646,2.95367,-14.6996
-217,-622,3.01941,14.7546,0.0053715,-0.0130214,0.00125665,0.00545696,-0.0131068,0.0679023,0.011017,0.0369859,1007,1646,3.01939,-14.7547
-210,-622,2.9093,15.0239,0,0,0,0,0,0,0,-1,1014,1646,2.90933,-15.0239
-203,-622,2.76477,14.797,0,0,0,0,0,0,0,-1,1021,1646,2.7648,-14.797
-196,-622,3.90222,14.3414,0,0,0,0,0,0,0,-1,1028,1646,3.90226,-14.3415
-189,-622,3.74866,14.8295,0,0,0,0,0,0,0,-1,1035,1646,3.74861,-14.8294
-182,-622,3.50916,15.2778,0,0,0,0,0,0,0,-1,1042,1646,3.50918,-15.2779
-175,-622,2.56091,11.0195,0,0,0,0,0,0,0,-1,1049,1646,2.56095,-11.0195
-168,-622,4.76489,10.7617,0,0,0,0,0,0,0,-1,1056,1646,4.76491,-10.7617
-161,-622,2.29504,12.4423,0,0,0,0,0,0,0,-1,1063,1646,2.295,-12.4423
-154,-622,2.55786,13.7953,0,0,0,0,0,0,0,-1,1070,1646,2.55792,-13.7953
-147,-622,3.06201,15.1429,0,0,0,0,0,0,0,-1,1077,1646,3.06203,-15.143
-140,-622,3.27515,16.0353,0,0,0,0,0,0,0,-1,1084,1646,3.27519,-16.0353
-133,-622,3.09644,17.677,0,0,0,0,0,0,0,-1,1091,1646,3.09638,-17.677
-126,-622,3.5061,19.5251,0,0,0,0,0,0,0,-1,1098,1646,3.50616,-19.5252
-119,-622,4.06384,13.1715,0,0,0,0,0,0,0,-1,1105,1646,4.06379,-13.1716
-112,-622,4.33276,14.6605,0,0,0,0,0,0,0,-1,1112,1646,4.33281,-14.6605
-105,-622,0.306519,4.38159,0,0,0,0,0,0,0,-1,1119,1646,0.306536,-4.38159
-98,-622,-0.510376,3.5033,0,0,0,0,0,0,0,-1,1126,1646,-0.510393,-3.50324
-91,-622,-1.146,0.975952,0,0,0,0,0,0,0,-1,1133,1646,-1.14599,-0.97597
-84,-622,-2.04895,1.31787,0,0,0,0,0,0,0,-1,1140,1646,-2.0489,-1.31781
-77,-622,-1.80627,0.332275,0,0,0,0,0,0,0,-1,1147,1646,-1.80622,-0.33223
-70,-622,-3.65588,2.28149,0,0,0,0,0,0,0,-1,1154,1646,-3.65589,-2.28155
-63,-622,-2.49683,1.27087,0,0,0,0,0,0,0,-1,1161,1646,-2.49679,-1.27093
-56,-622,-2.44238,-0.575562,0,0,0,0,0,0,0,-1,1168,1646,-2.44242,0.575508
-49,-622,-2.41089,1.38818,0,0,0,0,0,0,0,-1,1175,1646,-2.41088,-1.38815
-42,-622,-2.71497,2.85242,0,0,0,0,0,0,0,-1,1182,1646,-2.71491,-2.85247
-35,-622,-3.0177,4.25842,0,0,0,0,0,0,0,-1,1189,1646,-3.01773,-4.25838
-28,-622,-0.896606,0.678833,0,0,0,0,0,0,0,-1,1196,1646,-0.89661,-0.678835
-21,-622,6.63062,12.6195,0,0,0,0,0,0,0,-1,1203,1646,6.63065,-12.6195
-14,-622,6.45715,18.9615,0,0,0,0,0,0,0,-1,1210,1646,6.45717,-18.9616
-7,-622,5.46753,19.3523,0,0,0,0,0,0,0,-1,1217,1646,5.46749,-19.3523
0,-622,0,0,0,0,0,0,0,0,0,-1,1224,1646,0,0
7,-622,0,0,0,0,0,0,0,0,0,-1,1231,1646,0,0
14,-622,0,0,0,0,0,0,0,0,0,-1,1238,1646,0,0
21,-622,0,0,0,0,0,0,0,0,0,-1,1245,1646,0,0
28,-622,0,0,0,0,0,0,0,0,0,-1,1252,1646,0,0
35,-622,0,0,0,0,0,0,0,0,0,-1,1259,1646,0,0
42,-622,0,0,0,0,0,0,0,0,0,-1,1266,1646,0,0
49,-622,0,0,0,0,0,0,0,0,0,-1,1273,1646,0,0
56,-622,0,0,0,0,0,0,0,0,0,-1,1280,1646,0,0
63,-622,0,0,0,0,0,0,0,0,0,-1,1287,1646,0,0
70,-622,0,0,0,0,0,0,0,0,0,-1,1294,1646,0,0
77,-622,0,0,0,0,0,0,0,0,0,-1,1301,1646,0,0
84,-622,0,0,0,0,0,0,0,0,0,-1,1308,1646,0,0
91,-622,0,0,0,0,0,0,0,0,0,-1,1315,1646,0,0
98,-622,0,0,0,0,0,0,0,0,0,-1,1322,1646,0,0
105,-622,0,0,0,0,0,0,0,0,0,-1,1329,1646,0,0
112,-622,0,0,0,0,0,0,0,0,0,-1,1336,1646,0,0
119,-622,0,0,0,0,0,0,0,0,0,-1,1343,1646,0,0
126,-622,18.0688,15.0831,0,0,0,0,0,0,0,-1,1350,1646,18.0688,-15.0831
133,-622,19.9777,16.7159,0,0,0,0,0,0,0,-1,1357,1646,19.9776,-16.716
140,-622,20.9873,15.7957,0.146703,0.123405,0.0953646,0.231127,0.0389801,0.724623,0.142875,0.0495153,1364,1646,20.9873,-15.7957
147,-622,21.7789,14.8385,0.159798,0.147429,0.0965949,0.250406,0.0568208,0.753429,0.151589,0.0483025,1371,1646,21.7789,-14.8385
154,-622,22.1956,13.4941,0,0,0,0,0,0,0,-1,1378,1646,22.1956,-13.4941
161,-622,10.6884,6.46448,0,0,0,0,0,0,0,-1,1385,1646,10.6883,-6.46442
168,-622,12.2402,5.18091,0,0,0,0,0,0,0,-1,1392,1646,12.2403,-5.1809
175,-622,5.64355,-1.77075,0,0,0,0,0,0,0,-1,1399,1646,5.64351,1.77077
182,-622,5.88586,-1.32251,0,0,0,0,0,0,0,-1,1406,1646,5.88587,1.32256
189,-622,5.97986,-1.18005,0,0,0,0,0,0,0,-1,1413,1646,5.97986,1.18003
196,-622,5.85022,-0.244507,0,0,0,0,0,0,0,-1,1420,1646,5.85026,0.244478
203,-622,5.25159,0.138794,0,0,0,0,0,0,0,-1,1427,1646,5.25162,-0.138822
210,-622,6.66833,0.0397949,0,0,0,0,0,0,0,-1,1434,1646,6.6684,-0.0398278
217,-622,6.12061,0.0506592,0,0,0,0,0,0,0,-1,1441,1646,6.12058,-0.0507181
224,-622,5.57275,0.0616455,0,0,0,0,0,0,0,-1,1448,1646,5.57276,-0.0616084
231,-622,5.31348,1.3949,0,0,0,0,0,0,0,-1,1455,1646,5.31342,-1.39495
238,-622,3.76477,2.90686,0,0,0,0,0,0,0,-1,1462,1646,3.7648,-2.90686
245,-622,5.13794,2.67993,0,0,0,0,0,0,0,-1,1469,1646,5.13796,-2.67992
252,-622,6.66528,2.53992,0,0,0,0,0,0,0,-1,1476,1646,6.66522,-2.53991
259,-622,8.93787,3.31458,0,0,0,0,0,0,0,-1,1483,1646,8.93791,-3.31454
266,-622,5.72644,3.11926,0,0,0,0,0,0,0,-1,1490,1646,5.72647,-3.1192
273,-622,7.28076,3.61218,0,0,0,0,0,0,0,-1,1497,1646,7.28071,-3.61212
280,-622,8.43127,4.4447,0,0,0,0,0,0,0,-1,1504,1646,8.43123,-4.44467
287,-622,8.60315,5.94617,0,0,0,0,0,0,0,-1,1511,1646,8.60319,-5.94622
294,-622,7.62756,11.5143,0,0,0,0,0,0,0,-1,1518,1646,7.62762,-11.5143
301,-622,7.36548,11.6569,0,0,0,0,0,0,0,-1,1525,1646,7.36549,-11.6569
308,-622,7.10339,11.7994,0,0,0,0,0,0,0,-1,1532,1646,7.10335,-11.7995
315,-622,6.18176,16.4979,0,0,0,0,0,0,0,-1,1539,1646,6.18176,-16.4979
322,-622,6.41785,16.3196,0,0,0,0,0,0,0,-1,1546,1646,6.41779,-16.3196
329,-622,6.5885,15.9524,0,0,0,0,0,0,0,-1,1553,1646,6.58854,-15.9524
336,-622,6.6189,15.7119,0,0,0,0,0,0,0,-1,1560,1646,6.61889,-15.7119
343,-622,7.22766,15.4139,0,0,0,0,0,0,0,-1,1567,1646,7.22766,-15.414
350,-622,6.97827,15.6267,0,0,0,0,0,0,0,-1,1574,1646,6.97832,-15.6267
357,-622,6.94946,15.4495,0.00367722,-0.0051541,0.00371448,0.00503178,-0.00650865,0.349683,0.00668103,0.0418555,1581,1646,6.94946,-15.4495
364,-622,6.9751,15.2297,0.00250741,-0.00515624,0.00420761,0.00436653,-0.00701536,0.416054,0.00663039,0.0318244,1588,1646,6.97514,-15.2298
371,-622,6.91565,15.0933,0.00158722,-0.00504469,0.0046075,0.00394794,-0.00740541,0.47349,0.00665541,0.018868,1595,1646,6.91566,-15.0932
378,-622,6.87256,14.97,0.000631299,-0.00508062,0.00504783,0.00357509,-0.0080244,0.52796,0.00685923,0.0103303,1602,1646,6.87251,-14.97
385,-622,6.87341,14.824,3.56363e-05,-0.00489721,0.0049656,0.00311362,-0.0079752,0.554895,0.00660404,0.00909678,1609,1646,6.87347,-14.8239
392,-622,6.8761,14.6727,-0.00032241,-0.00436193,0.00463755,0.00271612,-0.00740046,0.580023,0.00604592,0.0108862,1616,1646,6.87608,-14.6727
399,-622,6.88171,14.4932,-0.000542169,-0.00365862,0.00411038,0.00229543,-0.00649621,0.60422,0.00526546,0.0112631,1623,1646,6.88168,-14.4932
406,-622,6.88379,14.3041,-0.000664165,-0.00303739,0.00365837,0.00199522,-0.00569678,0.628573,0.0046092,0.014282,1630,1646,6.8838,-14.3041
413,-622,6.89636,14.1521,-0.000736893,-0.00260818,0.00324704,0.00170662,-0.00505169,0.645122,0.00405811,0.0151312,1637,1646,6.89634,-14.152
420,-622,6.90564,13.9884,-0.000651843,-0.00237811,0.00283219,0.00144582,-0.00447577,0.63749,0.0035649,0.0143408,1644,1646,6.90568,-13.9884
427,-622,6.9137,13.7897,-0.000443615,-0.00232675,0.00249241,0.00127915,-0.00404951,0.604798,0.00321211,0.0121503,1651,1646,6.91364,-13.7897
434,-622,6.92957,13.5989,-0.000209495,-0.00253423,0.00205614,0.000990092,-0.00373382,0.528136,0.00287661,0.0128026,1658,1646,6.92956,-13.5989
441,-622,6.94336,13.3948,0.000313363,-0.00290349,0.00156797,0.000951171,-0.0035413,0.386331,0.00273365,0.0140443,1665,1646,6.94334,-13.3947
448,-622,6.91956,13.2281,0.00119414,-0.00309544,0.000837821,0.00135197,-0.00325327,0.186202,0.00273333,0.0136927,1672,1646,6.91953,-13.2281
455,-622,6.91296,13.0717,0.00190678,-0.00365448,0.000241881,0.00191728,-0.00366499,0.0433847,0.00327515,0.0152893,1679,1646,6.91298,-13.0716
462,-622,6.90833,12.9016,0.0027728,-0.0042079,-0.000450362,0.00280174,-0.00423683,-0.0641609,0.00409178,0.0157246,1686,1646,6.90833,-12.9016
469,-622,6.88049,12.6833,0.00377799,-0.0046671,-0.0013048,0.00397499,-0.0048641,-0.14985,0.00511185,0.01656,1693,1646,6.88048,-12.6834
476,-622,6.89465,12.4424,0.00479504,-0.00487287,-0.00228938,0.00530977,-0.0053876,-0.221154,0.00617618,0.0159547,1700,1646,6.89466,-12.4424
483,-622,6.89648,12.2277,0.00599557,-0.00475935,-0.00339925,0.00697987,-0.00574364,-0.281855,0.00735747,0.0223063,1707,1646,6.89649,-12.2276
490,-622,6.93176,12.0244,0.00779432,-0.00492334,-0.00484646,0.00943067,-0.00655969,-0.32562,0.0092815,0.0294634,1714,1646,6.93179,-12.0244
497,-622,7.06995,11.832,0.00992589,-0.00451189,-0.00652447,0.0124374,-0.00702342,-0.367457,0.0113797,0.0398286,1721,1646,7.06995,-11.8321
504,-622,6.76721,11.6168,0,0,0,0,0,0,0,-1,1728,1646,6.7672,-11.6168
511,-622,5.29004,4.14587,0,0,0,0,0,0,0,-1,1735,1646,5.29008,-4.14589
518,-622,5.6001,1.55359,0,0,0,0,0,0,0,-1,1742,1646,5.60015,-1.5536
525,-622,5.68213,1.32361,0,0,0,0,0,0,0,-1,1749,1646,5.68209,-1.32361
532,-622,5.44202,0.57373,0,0,0,0,0,0,0,-1,1756,1646,5.44196,-0.573705
539,-622,9.32129,1.06116,0,0,0,0,0,0,0,-1,1763,1646,9.32131,-1.0612
546,-622,6.50977,-3.45618,0,0,0,0,0,0,0,-1,1770,1646,6.50981,3.4562
553,-622,0,0,0,0,0,0,0,0,0,-1,1777,1646,0,0
560,-622,0,0,0,0,0,0,0,0,0,-1,1784,1646,0,0
567,-622,0,0,0,0,0,0,0,0,0,-1,1791,1646,0,0
574,-622,0,0,0,0,0,0,0,0,0,-1,1798,1646,0,0
581,-622,0,0,0,0,0,0,0,0,0,-1,1805,1646,0,0
588,-622,0,0,0,0,0,0,0,0,0,-1,1812,1646,0,0
595,-622,0,0,0,0,0,0,0,0,0,-1,1819,1646,0,0
602,-622,0,0,0,0,0,0,0,0,0,-1,1826,1646,0,0
609,-622,0,0,0,0,0,0,0,0,0,-1,1833,1646,0,0
616,-622,0,0,0,0,0,0,0,0,0,-1,1840,1646,0,0
623,-622,0,0,0,0,0,0,0,0,0,-1,1847,1646,0,0
630,-622,0,0,0,0,0,0,0,0,0,-1,1854,1646,0,0
637,-622,0,0,0,0,0,0,0,0,0,-1,1861,1646,0,0
644,-622,0,0,0,0,0,0,0,0,0,-1,1868,1646,0,0
651,-622,0,0,0,0,0,0,0,0,0,-1,1875,1646,0,0
658,-622,0,0,0,0,0,0,0,0,0,-1,1882,1646,0,0
665,-622,0,0,0,0,0,0,0,0,0,-1,1889,1646,0,0
672,-622,0,0,0,0,0,0,0,0,0,-1,1896,1646,0,0
679,-622,0,0,0,0,0,0,0,0,0,-1,1903,1646,0,0
686,-622,0,0,0,0,0,0,0,0,0,-1,1910,1646,0,0
693,-622,0,0,0,0,0,0,0,0,0,-1,1917,1646,0,0
700,-622,0,0,0,0,0,0,0,0,0,-1,1924,1646,0,0
707,-622,0,0,0,0,0,0,0,0,0,-1,1931,1646,0,0
714,-622,0,0,0,0,0,0,0,0,0,-1,1938,1646,0,0
721,-622,0,0,0,0,0,0,0,0,0,-1,1945,1646,0,0
728,-622,0,0,0,0,0,0,0,0,0,-1,1952,1646,0,0
735,-622,0,0,0,0,0,0,0,0,0,-1,1959,1646,0,0
742,-622,0,0,0,0,0,0,0,0,0,-1,1966,1646,0,0
749,-622,0,0,0,0,0,0,0,0,0,-1,1973,1646,0,0
756,-622,0,0,0,0,0,0,0,0,0,-1,1980,1646,0,0
763,-622,0,0,0,0,0,0,0,0,0,-1,1987,1646,0,0
770,-622,0,0,0,0,0,0,0,0,0,-1,1994,1646,0,0
777,-622,0,0,0,0,0,0,0,0,0,-1,2001,1646,0,0
784,-622,0,0,0,0,0,0,0,0,0,-1,2008,1646,0,0
791,-622,0,0,0,0,0,0,0,0,0,-1,2015,1646,0,0
798,-622,0,0,0,0,0,0,0,0,0,-1,2022,1646,0,0
805,-622,0,0,0,0,0,0,0,0,0,-1,2029,1646,0,0
812,-622,0,0,0,0,0,0,0,0,0,-1,2036,1646,0,0
-700,-629,0,0,0,0,0,0,0,0,0,-1,524,1653,0,0
-693,-629,0,0,0,0,0,0,0,0,0,-1,531,1653,0,0
-686,-629,0,0,0,0,0,0,0,0,0,-1,538,1653,0,0
-679,-629,0,0,0,0,0,0,0,0,0,-1,545,1653,0,0
-672,-629,0,0,0,0,0,0,0,0,0,-1,552,1653,0,0
-665,-629,0,0,0,0,0,0,0,0,0,-1,559,1653,0,0
-658,-629,0,0,0,0,0,0,0,0,0,-1,566,1653,0,0
-651,-629,0,0,0,0,0,0,0,0,0,-1,573,1653,0,0
-644,-629,0,0,0,0,0,0,0,0,0,-1,580,1653,0,0
-637,-629,0,0,0,0,0,0,0,0,0,-1,587,1653,0,0
-630,-629,0,0,0,0,0,0,0,0,0,-1,594,1653,0,0
-623,-629,0,0,0,0,0,0,0,0,0,-1,601,1653,0,0
-616,-629,0,0,0,0,0,0,0,0,0,-1,608,1653,0,0
-609,-629,0,0,0,0,0,0,0,0,0,-1,615,1653,0,0
-602,-629,0,0,0,0,0,0,0,0,0,-1,622,1653,0,0
-595,-629,0,0,0,0,0,0,0,0,0,-1,629,1653,0,0
-588,-629,0,0,0,0,0,0,0,0,0,-1,636,1653,0,0
-581,-629,0,0,0,0,0,0,0,0,0,-1,643,1653,0,0
-574,-629,0,0,0,0,0,0,0,0,0,-1,650,1653,0,0
-567,-629,0,0,0,0,0,0,0,0,0,-1,657,1653,0,0
-560,-629,0,0,0,0,0,0,0,0,0,-1,664,1653,0,0
-553,-629,0,0,0,0,0,0,0,0,0,-1,671,1653,0,0
-546,-629,0,0,0,0,0,0,0,0,0,-1,678,1653,0,0
-539,-629,0,0,0,0,0,0,0,0,0,-1,685,1653,0,0
-532,-629,0,0,0,0,0,0,0,0,0,-1,692,1653,0,0
-525,-629,0,0,0,0,0,0,0,0,0,-1,699,1653,0,0
-518,-629,0,0,0,0,0,0,0,0,0,-1,706,1653,0,0
-511,-629,0,0,0,0,0,0,0,0,0,-1,713,1653,0,0
-504,-629,0,0,0,0,0,0,0,0,0,-1,720,1653,0,0
-497,-629,0,0,0,0,0,0,0,0,0,-1,727,1653,0,0
-490,-629,0,0,0,0,0,0,0,0,0,-1,734,1653,0,0
-483,-629,0,0,0,0,0,0,0,0,0,-1,741,1653,0,0
-476,-629,0,0,0,0,0,0,0,0,0,-1,748,1653,0,0
-469,-629,0,0,0,0,0,0,0,0,0,-1,755,1653,0,0
-462,-629,0,0,0,0,0,0,0,0,0,-1,762,1653,0,0
-455,-629,0,0,0,0,0,0,0,0,0,-1,769,1653,0,0
-448,-629,0,0,0,0,0,0,0,0,0,-1,776,1653,0,0
-441,-629,0,0,0,0,0,0,0,0,0,-1,783,1653,0,0
-434,-629,0,0,0,0,0,0,0,0,0,-1,790,1653,0,0
-427,-629,0,0,0,0,0,0,0,0,0,-1,797,1653,0,0
-420,-629,-3.87103,3.37634,0,0,0,0,0,0,0,-1,804,1653,-3.87101,-3.37633
-413,-629,-5.69751,1.33582,0,0,0,0,0,0,0,-1,811,1653,-5.69754,-1.3358
-406,-629,2.85406,6.01501,0,0,0,0,0,0,0,-1,818,1653,2.85405,-6.01507
-399,-629,3.37085,6.61816,0,0,0,0,0,0,0,-1,825,1653,3.37087,-6.61822
-392,-629,3.80743,7.15393,0,0,0,0,0,0,0,-1,832,1653,3.80741,-7.15391
-385,-629,4.31525,7.66785,0,0,0,0,0,0,0,-1,839,1653,4.31525,-7.6679
-378,-629,2.48157,9.83801,0,0,0,0,0,0,0,-1,846,1653,2.4816,-9.83798
-371,-629,2.54236,11.0448,0,0,0,0,0,0,0,-1,853,1653,2.54238,-11.0448
-364,-629,2.65375,11.1759,0,0,0,0,0,0,0,-1,860,1653,2.65376,-11.176
-357,-629,3.25879,10.8168,-0.0041816,-0.0103033,0.00596393,-0.000538923,-0.013946,0.548312,0.00912299,0.0474913,867,1653,3.25882,-10.8167
-350,-629,2.75507,11.5973,-0.0032829,-0.00752075,0.00465904,-0.000283568,-0.0105201,0.571979,0.0069208,0.0469586,874,1653,2.75504,-11.5973
-343,-629,2.87756,11.6194,-0.00244469,-0.00640712,0.00349464,-0.000408727,-0.00844308,0.527524,0.00549754,0.0402282,881,1653,2.87754,-11.6193
-336,-629,2.99866,11.5945,-0.00170546,-0.00533629,0.00238409,-0.000524276,-0.00651748,0.459998,0.0041812,0.0172385,888,1653,2.99864,-11.5945
-329,-629,3.03424,11.7998,-0.00113684,-0.00410108,0.00154688,-0.000476641,-0.00476127,0.403388,0.00302783,0.0106741,895,1653,3.03425,-11.7998
-322,-629,3.04407,12.0018,-0.00080625,-0.00330026,0.000873838,-0.000530556,-0.00357596,0.305614,0.00222827,0.0116278,902,1653,3.04406,-12.0018
-315,-629,3.01251,12.2236,-0.000797052,-0.00299816,0.000156219,-0.00078602,-0.00300919,0.0705021,0.00180219,0.0149604,909,1653,3.01253,-12.2236
-308,-629,3.00928,12.4473,-0.000823894,-0.0028221,-0.000427978,-0.000736088,-0.00290991,-0.202357,0.00174706,0.0117079,916,1653,3.00928,-12.4473
-301,-629,3.03424,12.6547,-0.000571707,-0.00296117,-0.000893861,-0.000274336,-0.00325854,-0.321164,0.00208694,0.0108067,923,1653,3.03424,-12.6547
-294,-629,3.02533,12.8468,-0.000444086,-0.0027926,-0.00123556,8.62095e-05,-0.00332289,-0.405417,0.00224455,0.0120093,930,1653,3.02531,-12.8468
-287,-629,3.01312,13.0439,-0.000384557,-0.00278595,-0.00131996,0.000199112,-0.00336962,-0.416338,0.00231564,0.00940618,937,1653,3.01313,-13.0439
-280,-629,3.01611,13.238,-0.00023331,-0.0028537,-0.00131169,0.000310448,-0.00339745,-0.392984,0.00237522,0.009768,944,1653,3.0161,-13.238
-273,-629,3.0257,13.4078,6.06312e-05,-0.00283687,-0.00126131,0.000532764,-0.003309,-0.358173,0.00240335,0.0131647,951,1653,3.02571,-13.4078
-266,-629,3.0105,13.6035,0.000415178,-0.00287184,-0.00116978,0.000788971,-0.00324563,-0.309287,0.00246912,0.0129223,958,1653,3.01051,-13.6036
-259,-629,3.00385,13.8223,0.000811891,-0.00284618,-0.00102084,0.00107749,-0.00311178,-0.254532,0.00251193,0.0145004,965,1653,3.00383,-13.8223
-252,-629,3.02307,14.0026,0.00127865,-0.0028262,-0.000843885,0.00144537,-0.00299291,-0.195047,0.00261385,0.0107343,972,1653,3.02307,-14.0025
-245,-629,3.03925,14.182,0.0018965,-0.00375075,-0.000544961,0.00194861,-0.00380286,-0.0953282,0.00337765,0.00769205,979,1653,3.03923,-14.182
-238,-629,3.03571,14.3622,0.00250717,-0.00529784,-0.000259581,0.00251579,-0.00530646,-0.0332093,0.00461099,0.00986755,986,1653,3.03568,-14.3621
-231,-629,3.02802,14.5428,0.00298993,-0.00664733,-1.42647e-05,0.00298995,-0.00664735,-0.00148016,0.0056961,0.00944105,993,1653,3.02801,-14.5428
-224,-629,3.07935,14.7275,0.00360385,-0.00851107,0.00051413,0.00362563,-0.00853285,0.0423363,0.00720776,0.00939341,1000,1653,3.07936,-14.7275
-217,-629,3.07343,14.8644,0.00422646,-0.00959185,0.0015834,0.00440557,-0.00977097,0.112642,0.00837795,0.0164282,1007,1653,3.07342,-14.8644
-210,-629,3.06335,14.9888,0.00496728,-0.0108433,0.00256553,0.00537316,-0.0112492,0.156905,0.00979477,0.034991,1014,1653,3.06336,-14.9888
-203,-629,3.08179,15.0839,0,0,0,0,0,0,0,-1,1021,1653,3.08174,-15.0839
-196,-629,3.45544,14.7136,0.00956067,-0.0164042,0.00869619,0.0122041,-0.0190476,0.295099,0.0181868,0.0443246,1028,1653,3.45544,-14.7136
-189,-629,3.47937,15.1699,0.0123008,-0.0195616,0.0131419,0.0170218,-0.0242826,0.344874,0.0239696,0.0423561,1035,1653,3.47943,-15.1699
-182,-629,3.24927,15.5276,0.0157495,-0.020545,0.0188349,0.0237571,-0.0285526,0.401995,0.0302433,0.0494014,1042,1653,3.24933,-15.5276
-175,-629,2.99561,15.8561,0,0,0,0,0,0,0,-1,1049,1653,2.99557,-15.8561
-168,-629,3.15063,17.0516,0,0,0,0,0,0,0,-1,1056,1653,3.15066,-17.0516
-161,-629,2.23865,12.5562,0,0,0,0,0,0,0,-1,1063,1653,2.23863,-12.5562
-154,-629,2.57556,13.8561,0.0354895,-0.0262844,0.0477538,0.0614746,-0.0522695,0.498338,0.0657418,0.0473646,1070,1653,2.57558,-13.856
-147,-629,2.98303,15.162,0.0413172,-0.0268653,0.0555535,0.0724058,-0.0579538,0.510195,0.0754172,0.0473838,1077,1653,2.98309,-15.162
-140,-629,3.15894,16.238,0.0476253,-0.026924,0.0645796,0.0849155,-0.0642143,0.523659,0.0863762,0.0473839,1084,1653,3.15894,-16.238
-133,-629,3.41248,17.6686,0.0539783,-0.0262407,0.0731631,0.0973051,-0.0695675,0.53466,0.0967866,0.0469948,1091,1653,3.41243,-17.6686
-126,-629,4.01025,19.5328,0,0,0,0,0,0,0,-1,1098,1653,4.01022,-19.5328
-119,-629,4.94177,13.5525,0,0,0,0,0,0,0,-1,1105,1653,4.94172,-13.5525
-112,-629,5.63123,15.9187,0,0,0,0,0,0,0,-1,1112,1653,5.63118,-15.9187
-105,-629,2.15881,4.38342,0,0,0,0,0,0,0,-1,1119,1653,2.15878,-4.38347
-98,-629,0.825806,4.19385,0,0,0,0,0,0,0,-1,1126,1653,0.825779,-4.1939
-91,-629,-0.452271,3.64465,0,0,0,0,0,0,0,-1,1133,1653,-0.452278,-3.6446
-84,-629,-2.6084,0.466797,0,0,0,0,0,0,0,-1,1140,1653,-2.6084,-0.466786
-77,-629,-3.50903,2.10706,0,0,0,0,0,0,0,-1,1147,1653,-3.509,-2.10707
-70,-629,-1.20886,2.52502,0,0,0,0,0,0,0,-1,1154,1653,-1.20886,-2.525
-63,-629,-0.960693,4.30212,0,0,0,0,0,0,0,-1,1161,1653,-0.960691,-4.30215
-56,-629,-1.31934,5.64343,0,0,0,0,0,0,0,-1,1168,1653,-1.31928,-5.6434
-49,-629,-2.15662,2.57458,0,0,0,0,0,0,0,-1,1175,1653,-2.15656,-2.57459
-42,-629,-2.46326,3.91467,0,0,0,0,0,0,0,-1,1182,1653,-2.4633,-3.91466
-35,-629,-2.67261,5.24292,0,0,0,0,0,0,0,-1,1189,1653,-2.67257,-5.24298
-28,-629,-0.402954,-0.866577,0,0,0,0,0,0,0,-1,1196,1653,-0.402943,0.866612
-21,-629,10.063,9.59705,0,0,0,0,0,0,0,-1,1203,1653,10.063,-9.59708
-14,-629,6.2041,18.2728,0,0,0,0,0,0,0,-1,1210,1653,6.20408,-18.2729
-7,-629,5.2533,18.701,-0.145655,0.0646579,0.116511,0.116449,-0.197446,1.15251,0.183228,0.0463838,1217,1653,5.25326,-18.701
0,-629,4.01697,19.1409,0,0,0,0,0,0,0,-1,1224,1653,4.01701,-19.1409
7,-629,2.81384,20.1224,-0.0887293,0.0614842,0.103955,0.114626,-0.141871,1.09823,0.148367,0.04429,1231,1653,2.81382,-20.1224
14,-629,2.06604,21.4176,-0.057489,0.065935,0.0935496,0.116294,-0.107848,1.07697,0.129439,0.0429729,1238,1653,2.06605,-21.4176
21,-629,1.59265,22.604,-0.0210554,0.0988886,0.0739951,0.134163,-0.05633,1.12595,0.113,0.0466395,1245,1653,1.5926,-22.604
28,-629,1.21997,23.4615,0,0,0,0,0,0,0,-1,1252,1653,1.22003,-23.4616
35,-629,-1.51746,19.7869,0,0,0,0,0,0,0,-1,1259,1653,-1.51743,-19.7869
42,-629,-1.02661,20.9386,0.0670213,0.14736,0.0361176,0.161209,0.0531715,1.20463,0.0948541,0.0459496,1266,1653,-1.02662,-20.9386
49,-629,-0.531738,22.6016,0.0896603,0.157291,0.027706,0.167192,0.0797596,1.22759,0.0965623,0.0457188,1273,1653,-0.531742,-22.6016
56,-629,-0.290894,24.5388,0,0,0,0,0,0,0,-1,1280,1653,-0.290912,-24.5388
63,-629,-0.811401,24.8333,0,0,0,0,0,0,0,-1,1287,1653,-0.811394,-24.8333
70,-629,8.36816,21.9536,0,0,0,0,0,0,0,-1,1294,1653,8.36815,-21.9536
77,-629,8.86841,20.9945,0,0,0,0,0,0,0,-1,1301,1653,8.86841,-20.9945
84,-629,9.47656,20.0553,0.13484,0.153971,0.0156553,0.162752,0.126059,1.05964,0.0985737,0.0449275,1308,1653,9.47659,-20.0553
91,-629,9.96631,19.6726,0.130837,0.137541,0.0276869,0.162078,0.1063,0.845638,0.0950793,0.0437975,1315,1653,9.96635,-19.6726
98,-629,10.3235,19.8153,0.130172,0.131631,0.036586,0.167494,0.0943079,0.795366,0.0969589,0.045696,1322,1653,10.3235,-19.8153
105,-629,10.795,19.9425,0,0,0,0,0,0,0,-1,1329,1653,10.7951,-19.9425
112,-629,15.8516,17.8438,0,0,0,0,0,0,0,-1,1336,1653,15.8515,-17.8437
119,-629,16.4061,16.5763,0.123692,0.0874614,0.07627,0.183968,0.0271847,0.668802,0.114663,0.0465911,1343,1653,16.4061,-16.5763
126,-629,16.953,15.4745,0.125251,0.0612322,0.0935575,0.192123,-0.00564026,0.620573,0.130003,0.0454018,1350,1653,16.953,-15.4745
133,-629,17.7303,15.4335,0,0,0,0,0,0,0,-1,1357,1653,17.7303,-15.4335
140,-629,18.8143,14.984,0.145385,0.0883554,0.10097,0.221789,0.0119509,0.647778,0.144041,0.0468831,1364,1653,18.8144,-14.9841
147,-629,19.6555,13.9679,0.156713,0.109069,0.0988262,0.234547,0.0312338,0.66713,0.147063,0.0482495,1371,1653,19.6555,-13.9679
154,-629,20.4791,12.9097,0,0,0,0,0,0,0,-1,1378,1653,20.4791,-12.9097
161,-629,10.5461,6.83752,0,0,0,0,0,0,0,-1,1385,1653,10.5461,-6.83758
168,-629,12.0059,5.56348,0,0,0,0,0,0,0,-1,1392,1653,12.0059,-5.56352
175,-629,5.84485,-1.78845,0,0,0,0,0,0,0,-1,1399,1653,5.84479,1.7884
182,-629,5.99036,-1.27783,0,0,0,0,0,0,0,-1,1406,1653,5.99041,1.27778
189,-629,5.97668,-0.748535,0,0,0,0,0,0,0,-1,1413,1653,5.97671,0.748544
196,-629,4.52869,9.24695,0,0,0,0,0,0,0,-1,1420,1653,4.52869,-9.2469
203,-629,3.75085,6.88037,0,0,0,0,0,0,0,-1,1427,1653,3.75087,-6.88032
210,-629,3.5907,6.52637,0,0,0,0,0,0,0,-1,1434,1653,3.59067,-6.52642
217,-629,2.4585,4.84448,0,0,0,0,0,0,0,-1,1441,1653,2.45855,-4.84448
224,-629,1.31982,3.68481,0,0,0,0,0,0,0,-1,1448,1653,1.31986,-3.68487
231,-629,3.63025,1.73499,0,0,0,0,0,0,0,-1,1455,1653,3.6303,-1.735
238,-629,4.26428,2.11255,0,0,0,0,0,0,0,-1,1462,1653,4.26429,-2.11253
245,-629,5.61816,1.95361,0,0,0,0,0,0,0,-1,1469,1653,5.61815,-1.95359
252,-629,7.27136,2.18982,0,0,0,0,0,0,0,-1,1476,1653,7.27131,-2.18985
259,-629,8.67334,2.18628,0,0,0,0,0,0,0,-1,1483,1653,8.6733,-2.18633
266,-629,6.86475,3.72058,0,0,0,0,0,0,0,-1,1490,1653,6.86479,-3.72063
273,-629,7.9021,3.8717,0,0,0,0,0,0,0,-1,1497,1653,7.90205,-3.87171
280,-629,9.70837,4.39087,0,0,0,0,0,0,0,-1,1504,1653,9.7084,-4.39082
287,-629,9.82947,7.19348,0,0,0,0,0,0,0,-1,1511,1653,9.8295,-7.19347
294,-629,6.56555,11.6359,0,0,0,0,0,0,0,-1,1518,1653,6.5656,-11.6358
301,-629,6.93835,15.6102,0,0,0,0,0,0,0,-1,1525,1653,6.93835,-15.6103
308,-629,6.08264,12.1423,0,0,0,0,0,0,0,-1,1532,1653,6.08263,-12.1423
315,-629,6.13489,16.4203,0,0,0,0,0,0,0,-1,1539,1653,6.13491,-16.4203
322,-629,6.35938,16.2162,0.0108308,-0.00472147,-0.00149878,0.0109739,-0.00486459,-0.0952032,0.0093684,0.0488871,1546,1653,6.35933,-16.2162
329,-629,6.52844,15.9326,0.00907548,-0.00395029,-0.000539245,0.00909777,-0.00397258,-0.0413041,0.00773714,0.0404113,1553,1653,6.52848,-15.9326
336,-629,6.61365,15.7701,0.00725975,-0.00329632,0.000418376,0.0072763,-0.00331288,0.039551,0.00625478,0.0408309,1560,1653,6.61364,-15.7701
343,-629,6.87366,15.5928,0.005148,-0.00375005,0.00159467,0.00542516,-0.00402721,0.172083,0.00547718,0.0417379,1567,1653,6.87371,-15.5928
350,-629,6.76465,15.5457,0.00389173,-0.00381265,0.00221941,0.00448534,-0.00440626,0.261346,0.00513364,0.0263607,1574,1653,6.7646,-15.5456
357,-629,6.7605,15.4036,0.00289879,-0.00373955,0.00270008,0.00385832,-0.00469909,0.341453,0.00494856,0.0147433,1581,1653,6.76053,-15.4036
364,-629,6.73926,15.2466,0.00199128,-0.00378486,0.00307117,0.00331902,-0.0051126,0.408057,0.00490457,0.0119005,1588,1653,6.73929,-15.2465
371,-629,6.71472,15.1074,0.00131863,-0.00364519,0.00329601,0.00296267,-0.00528924,0.462687,0.00482695,0.00986094,1595,1653,6.71471,-15.1074
378,-629,6.71204,14.9628,0.000637428,-0.00359263,0.00355748,0.00266112,-0.00561632,0.517205,0.00487945,0.0096156,1602,1653,6.71199,-14.9628
385,-629,6.72974,14.8228,0.000159542,-0.00322816,0.00338478,0.00225064,-0.00531926,0.553401,0.00448859,0.0116775,1609,1653,6.72975,-14.8227
392,-629,6.71985,14.6732,-0.000173354,-0.0026217,0.00301078,0.00185261,-0.00464767,0.592308,0.00386685,0.0107979,1616,1653,6.7198,-14.6732
399,-629,6.71155,14.4969,-0.000395235,-0.00190481,0.00251298,0.00147386,-0.0037739,0.639506,0.00312529,0.0107892,1623,1653,6.7115,-14.4969
406,-629,6.72144,14.3137,-0.000515965,-0.00131836,0.00216471,0.00128441,-0.00311873,0.69377,0.00261465,0.0140927,1630,1653,6.72146,-14.3137
413,-629,6.71448,14.172,-0.000554665,-0.00102393,0.00186701,0.0010924,-0.002671,0.722889,0.00223561,0.0225478,1637,1653,6.71449,-14.172
420,-629,6.70264,14.0305,-0.000442872,-0.00103945,0.00160885,0.000895104,-0.00237742,0.693736,0.00195294,0.0198931,1644,1653,6.70267,-14.0305
427,-629,6.72888,13.8156,-0.000213004,-0.0012534,0.00145667,0.000813567,-0.00227997,0.613899,0.00185173,0.0126634,1651,1653,6.72886,-13.8156
434,-629,6.74487,13.6038,7.30242e-05,-0.00182442,0.00123471,0.000681407,-0.0024328,0.457818,0.00189039,0.0103273,1658,1653,6.74491,-13.6038
441,-629,6.75842,13.4105,0.000671039,-0.00262296,0.000988555,0.000944937,-0.00289686,0.270289,0.00231152,0.0138324,1665,1653,6.75846,-13.4105
448,-629,6.73486,13.229,0.00170943,-0.00332687,0.000466911,0.00175235,-0.00336979,0.0916681,0.00300601,0.0141408,1672,1653,6.73483,-13.229
455,-629,6.72302,13.0383,0.00264993,-0.00444918,8.66045e-05,0.00265099,-0.00445024,0.0121969,0.00414353,0.013994,1679,1653,6.72306,-13.0384
462,-629,6.72278,12.894,0.00380672,-0.00557702,-0.000418648,0.00382536,-0.00559566,-0.0444964,0.00547114,0.0162721,1686,1653,6.72274,-12.894
469,-629,6.70166,12.6593,0.00519376,-0.00674627,-0.00115217,0.00530392,-0.00685644,-0.095324,0.00703983,0.0190122,1693,1653,6.70166,-12.6593
476,-629,6.75806,12.4696,0.00676615,-0.00739698,-0.00225981,0.00711798,-0.0077488,-0.154448,0.00858591,0.0244359,1700,1653,6.75801,-12.4696
483,-629,7.05188,12.4304,0.00855778,-0.00757124,-0.0036738,0.00935516,-0.00836862,-0.213731,0.0102381,0.0367054,1707,1653,7.05183,-12.4305
490,-629,6.91272,12.0059,0.010909,-0.00768781,-0.00563898,0.0124853,-0.00926407,-0.272573,0.0126028,0.046284,1714,1653,6.91272,-12.0058
497,-629,7.32031,11.5175,0.0138269,-0.00711496,-0.00811457,0.0166031,-0.00989117,-0.329644,0.0154592,0.0448444,1721,1653,7.32033,-11.5174
504,-629,7.43372,11.7821,0,0,0,0,0,0,0,-1,1728,1653,7.43371,-11.7821
511,-629,6.29138,3.40295,0,0,0,0,0,0,0,-1,1735,1653,6.29137,-3.403
518,-629,5.84387,1.41858,0,0,0,0,0,0,0,-1,1742,1653,5.84391,-1.4186
525,-629,6.4729,1.02319,0,0,0,0,0,0,0,-1,1749,1653,6.47284,-1.02316
532,-629,6.86511,0.903687,0,0,0,0,0,0,0,-1,1756,1653,6.86514,-0.903691
539,-629,6.60803,0.746704,0,0,0,0,0,0,0,-1,1763,1653,6.60809,-0.746691
546,-629,0,0,0,0,0,0,0,0,0,-1,1770,1653,0,0
553,-629,0,0,0,0,0,0,0,0,0,-1,1777,1653,0,0
560,-629,0,0,0,0,0,0,0,0,0,-1,1784,1653,0,0
567,-629,0,0,0,0,0,0,0,0,0,-1,1791,1653,0,0
574,-629,0,0,0,0,0,0,0,0,0,-1,1798,1653,0,0
581,-629,0,0,0,0,0,0,0,0,0,-1,1805,1653,0,0
588,-629,0,0,0,0,0,0,0,0,0,-1,1812,1653,0,0
595,-629,0,0,0,0,0,0,0,0,0,-1,1819,1653,0,0
602,-629,0,0,0,0,0,0,0,0,0,-1,1826,1653,0,0
609,-629,0,0,0,0,0,0,0,0,0,-1,1833,1653,0,0
616,-629,0,0,0,0,0,0,0,0,0,-1,1840,1653,0,0
623,-629,0,0,0,0,0,0,0,0,0,-1,1847,1653,0,0
630,-629,0,0,0,0,0,0,0,0,0,-1,1854,1653,0,0
637,-629,0,0,0,0,0,0,0,0,0,-1,1861,1653,0,0
644,-629,0,0,0,0,0,0,0,0,0,-1,1868,1653,0,0
651,-629,0,0,0,0,0,0,0,0,0,-1,1875,1653,0,0
658,-629,0,0,0,0,0,0,0,0,0,-1,1882,1653,0,0
665,-629,0,0,0,0,0,0,0,0,0,-1,1889,1653,0,0
672,-629,0,0,0,0,0,0,0,0,0,-1,1896,1653,0,0
679,-629,0,0,0,0,0,0,0,0,0,-1,1903,1653,0,0
686,-629,0,0,0,0,0,0,0,0,0,-1,1910,1653,0,0
693,-629,0,0,0,0,0,0,0,0,0,-1,1917,1653,0,0
700,-629,0,0,0,0,0,0,0,0,0,-1,1924,1653,0,0
707,-629,0,0,0,0,0,0,0,0,0,-1,1931,1653,0,0
714,-629,0,0,0,0,0,0,0,0,0,-1,1938,1653,0,0
721,-629,0,0,0,0,0,0,0,0,0,-1,1945,1653,0,0
728,-629,0,0,0,0,0,0,0,0,0,-1,1952,1653,0,0
735,-629,0,0,0,0,0,0,0,0,0,-1,1959,1653,0,0
742,-629,0,0,0,0,0,0,0,0,0,-1,1966,1653,0,0
749,-629,0,0,0,0,0,0,0,0,0,-1,1973,1653,0,0
756,-629,0,0,0,0,0,0,0,0,0,-1,1980,1653,0,0
763,-629,0,0,0,0,0,0,0,0,0,-1,1987,1653,0,0
770,-629,0,0,0,0,0,0,0,0,0,-1,1994,1653,0,0
777,-629,0,0,0,0,0,0,0,0,0,-1,2001,1653,0,0
784,-629,0,0,0,0,0,0,0,0,0,-1,2008,1653,0,0
791,-629,0,0,0,0,0,0,0,0,0,-1,2015,1653,0,0
798,-629,0,0,0,0,0,0,0,0,0,-1,2022,1653,0,0
805,-629,0,0,0,0,0,0,0,0,0,-1,2029,1653,0,0
812,-629,0,0,0,0,0,0,0,0,0,-1,2036,1653,0,0
-700,-636,0,0,0,0,0,0,0,0,0,-1,524,1660,0,0
-693,-636,0,0,0,0,0,0,0,0,0,-1,531,1660,0,0
-686,-636,0,0,0,0,0,0,0,0,0,-1,538,1660,0,0
-679,-636,0,0,0,0,0,0,0,0,0,-1,545,1660,0,0
-672,-636,0,0,0,0,0,0,0,0,0,-1,552,1660,0,0
-665,-636,0,0,0,0,0,0,0,0,0,-1,559,1660,0,0
-658,-636,0,0,0,0,0,0,0,0,0,-1,566,1660,0,0
-651,-636,0,0,0,0,0,0,0,0,0,-1,573,1660,0,0
-644,-636,0,0,0,0,0,0,0,0,0,-1,580,1660,0,0
-637,-636,0,0,0,0,0,0,0,0,0,-1,587,1660,0,0
-630,-636,0,0,0,0,0,0,0,0,0,-1,594,1660,0,0
-623,-636,0,0,0,0,0,0,0,0,0,-1,601,1660,0,0
-616,-636,0,0,0,0,0,0,0,0,0,-1,608,1660,0,0
-609,-636,0,0,0,0,0,0,0,0,0,-1,615,1660,0,0
-602,-636,0,0,0,0,0,0,0,0,0,-1,622,1660,0,0
-595,-636,0,0,0,0,0,0,0,0,0,-1,629,1660,0,0
-588,-636,0,0,0,0,0,0,0,0,0,-1,636,1660,0,0
-581,-636,0,0,0,0,0,0,0,0,0,-1,643,1660,0,0
-574,-636,0,0,0,0,0,0,0,0,0,-1,650,1660,0,0
-567,-636,0,0,0,0,0,0,0,0,0,-1,657,1660,0,0
-560,-636,0,0,0,0,0,0,0,0,0,-1,664,1660,0,0
-553,-636,0,0,0,0,0,0,0,0,0,-1,671,1660,0,0
-546,-636,0,0,0,0,0,0,0,0,0,-1,678,1660,0,0
-539,-636,0,0,0,0,0,0,0,0,0,-1,685,1660,0,0
-532,-636,0,0,0,0,0,0,0,0,0,-1,692,1660,0,0
-525,-636,0,0,0,0,0,0,0,0,0,-1,699,1660,0,0
-518,-636,0,0,0,0,0,0,0,0,0,-1,706,1660,0,0
-511,-636,0,0,0,0,0,0,0,0,0,-1,713,1660,0,0
-504,-636,0,0,0,0,0,0,0,0,0,-1,720,1660,0,0
-497,-636,0,0,0,0,0,0,0,0,0,-1,727,1660,0,0
-490,-636,0,0,0,0,0,0,0,0,0,-1,734,1660,0,0
-483,-636,0,0,0,0,0,0,0,0,0,-1,741,1660,0,0
-476,-636,0,0,0,0,0,0,0,0,0,-1,748,1660,0,0
-469,-636,0,0,0,0,0,0,0,0,0,-1,755,1660,0,0
-462,-636,0,0,0,0,0,0,0,0,0,-1,762,1660,0,0
-455,-636,0,0,0,0,0,0,0,0,0,-1,769,1660,0,0
-448,-636,0,0,0,0,0,0,0,0,0,-1,776,1660,0,0
-441,-636,0,0,0,0,0,0,0,0,0,-1,783,1660,0,0
-434,-636,0,0,0,0,0,0,0,0,0,-1,790,1660,0,0
-427,-636,0,0,0,0,0,0,0,0,0,-1,797,1660,0,0
-420,-636,0,0,0,0,0,0,0,0,0,-1,804,1660,0,0
-413,-636,0,0,0,0,0,0,0,0,0,-1,811,1660,0,0
-406,-636,3.46503,5.84583,0,0,0,0,0,0,0,-1,818,1660,3.46501,-5.84583
-399,-636,3.95544,6.48499,0,0,0,0,0,0,0,-1,825,1660,3.95546,-6.48502
-392,-636,4.35114,7.07495,0,0,0,0,0,0,0,-1,832,1660,4.35115,-7.07492
-385,-636,4.50122,7.78625,0,0,0,0,0,0,0,-1,839,1660,4.50125,-7.78625
-378,-636,4.69141,9.34131,0,0,0,0,0,0,0,-1,846,1660,4.69143,-9.34136
-371,-636,2.52185,11.9684,0,0,0,0,0,0,0,-1,853,1660,2.52184,-11.9684
-364,-636,2.94617,11.7798,0,0,0,0,0,0,0,-1,860,1660,2.94618,-11.7798
-357,-636,3.50159,10.9398,0,0,0,0,0,0,0,-1,867,1660,3.50161,-10.9398
-350,-636,2.8645,11.7958,0,0,0,0,0,0,0,-1,874,1660,2.86448,-11.7957
-343,-636,3.15253,11.3412,0,0,0,0,0,0,0,-1,881,1660,3.15255,-11.3412
-336,-636,3.21936,11.5704,-0.00230806,-0.00658813,0.00262171,-0.00106385,-0.00783234,0.443105,0.00490555,0.0351563,888,1660,3.21937,-11.5705
-329,-636,3.26129,11.796,-0.00170323,-0.00537685,0.00116382,-0.00136557,-0.00571452,0.282383,0.0034459,0.017433,895,1660,3.26126,-11.796
-322,-636,3.25293,12.0006,-0.00135956,-0.00459568,0.000164917,-0.00135118,-0.00460406,0.0507859,0.0027327,0.0117075,902,1660,3.2529,-12.0006
-315,-636,3.20856,12.2129,-0.00134824,-0.00429547,-0.000850109,-0.00112061,-0.0045231,-0.261625,0.00271993,0.0123556,909,1660,3.20855,-12.2129
-308,-636,3.21002,12.4398,-0.00137881,-0.00401654,-0.00161567,-0.000612063,-0.00478329,-0.443099,0.00300568,0.0109873,916,1660,3.21,-12.4399
-301,-636,3.22601,12.6571,-0.00109007,-0.00408175,-0.00219069,6.6763e-05,-0.00523858,-0.485848,0.00351485,0.0108465,923,1660,3.22598,-12.6571
-294,-636,3.21594,12.8656,-0.000942463,-0.00374873,-0.00254888,0.000563968,-0.00525516,-0.533788,0.00370576,0.01406,930,1660,3.21597,-12.8656
-287,-636,3.20087,13.0535,-0.000882401,-0.0035532,-0.00256356,0.000672725,-0.00510833,-0.545278,0.00365051,0.0118289,937,1660,3.20087,-13.0535
-280,-636,3.2049,13.2421,-0.000728756,-0.00341366,-0.00244237,0.000715786,-0.0048582,-0.53411,0.00350187,0.0107651,944,1660,3.20491,-13.2421
-273,-636,3.20709,13.4065,-0.000429636,-0.00316902,-0.00223071,0.000818329,-0.00441699,-0.510067,0.00325194,0.0115066,951,1660,3.20707,-13.4065
-266,-636,3.19922,13.6056,-8.09811e-05,-0.00297904,-0.00197325,0.000918132,-0.00397816,-0.468698,0.00300527,0.0127222,958,1660,3.19922,-13.6055
-259,-636,3.19983,13.8384,0.000306694,-0.00270882,-0.00160437,0.00100061,-0.00340273,-0.408217,0.00266538,0.0146889,965,1660,3.1998,-13.8383
-252,-636,3.20551,14.0176,0.000758552,-0.00244304,-0.00118708,0.00115067,-0.00283516,-0.319039,0.00236873,0.0111103,972,1660,3.20553,-14.0176
-245,-636,3.229,14.2053,0.00135096,-0.00299946,-0.000682993,0.00145566,-0.00310417,-0.152121,0.00268936,0.00969113,979,1660,3.22899,-14.2054
-238,-636,3.23505,14.3768,0.00188252,-0.00391336,-0.000236136,0.00189212,-0.00392296,-0.0406522,0.00342491,0.0112467,986,1660,3.23506,-14.3768
-231,-636,3.2157,14.5507,0.00228374,-0.0048456,0.000113931,0.00228556,-0.00484742,0.0159752,0.00420583,0.0106697,993,1660,3.21571,-14.5506
-224,-636,3.22797,14.7225,0.00279086,-0.00623073,0.000669655,0.00284029,-0.00628017,0.0736899,0.0053891,0.00860658,1000,1660,3.22799,-14.7225
-217,-636,3.24011,14.9136,0.00328469,-0.00692419,0.00163399,0.00353984,-0.00717934,0.154902,0.00630651,0.0111069,1007,1660,3.24011,-14.9136
-210,-636,3.24615,15.049,0.00387793,-0.00774951,0.00247153,0.00438147,-0.00825305,0.200986,0.00740782,0.0160379,1014,1660,3.24614,-15.0489
-203,-636,3.27417,15.1892,0.00554729,-0.00967504,0.00467137,0.00686649,-0.0109942,0.275235,0.0104033,0.0196062,1021,1660,3.27417,-15.1893
-196,-636,3.37463,15.3021,0.00740576,-0.0118329,0.00742892,0.00994047,-0.0143676,0.328808,0.0141116,0.0209899,1028,1660,3.37467,-15.3021
-189,-636,3.36243,15.467,0.00945099,-0.0140861,0.0109615,0.0137651,-0.0184002,0.374952,0.0186348,0.0238623,1035,1660,3.36241,-15.4671
-182,-636,3.40979,15.5819,0.0121193,-0.0146035,0.0153404,0.0191013,-0.0215855,0.427119,0.0235051,0.038907,1042,1660,3.40985,-15.5819
-175,-636,3.53101,15.5535,0.0152339,-0.0159143,0.0199805,0.0249931,-0.0256735,0.454352,0.0292532,0.0480788,1049,1660,3.53098,-15.5534
-168,-636,3.49963,16.6392,0.0187741,-0.0168903,0.0251301,0.031756,-0.0298722,0.47683,0.0355866,0.0476934,1056,1660,3.49966,-16.6391
-161,-636,3.71045,16.6002,0,0,0,0,0,0,0,-1,1063,1660,3.71049,-16.6003
-154,-636,2.40698,14.4977,0.0272709,-0.0186556,0.0366277,0.0475384,-0.0389231,0.505403,0.0500011,0.0485831,1070,1660,2.40701,-14.4977
-147,-636,2.96387,15.5902,0.031699,-0.0192092,0.042135,0.0554716,-0.0429818,0.513681,0.0569944,0.0484804,1077,1660,2.96391,-15.5902
-140,-636,3.19312,16.6512,0.0364395,-0.0192668,0.0482143,0.0642678,-0.047095,0.52347,0.0645496,0.0483389,1084,1660,3.19317,-16.6512
-133,-636,3.56348,17.4282,0.0412168,-0.0191453,0.0539001,0.0728105,-0.0507389,0.530175,0.0717097,0.0493981,1091,1660,3.56343,-17.4283
-126,-636,3.79028,18.2225,0,0,0,0,0,0,0,-1,1098,1660,3.79025,-18.2226
-119,-636,1.8667,13.8916,0,0,0,0,0,0,0,-1,1105,1660,1.86668,-13.8916
-112,-636,-1.24963,9.7998,0,0,0,0,0,0,0,-1,1112,1660,-1.24968,-9.79978
-105,-636,3.51624,4.72791,0,0,0,0,0,0,0,-1,1119,1660,3.51618,-4.7279
-98,-636,1.54504,5.11914,0,0,0,0,0,0,0,-1,1126,1660,1.54503,-5.11912
-91,-636,-1.87964,-2.25012,0,0,0,0,0,0,0,-1,1133,1660,-1.87966,2.25016
-84,-636,-2.84143,0.133667,0,0,0,0,0,0,0,-1,1140,1660,-2.84144,-0.133701
-77,-636,-3.57349,2.45935,0,0,0,0,0,0,0,-1,1147,1660,-3.57345,-2.45939
-70,-636,-4.23682,4.82312,0,0,0,0,0,0,0,-1,1154,1660,-4.23681,-4.82307
-63,-636,-2.21033,6.97168,0,0,0,0,0,0,0,-1,1161,1660,-2.21034,-6.97165
-56,-636,-2.51917,8.80359,0,0,0,0,0,0,0,-1,1168,1660,-2.51916,-8.80361
-49,-636,-3.13,10.4113,0,0,0,0,0,0,0,-1,1175,1660,-3.12996,-10.4112
-42,-636,-2.27771,4.90173,0,0,0,0,0,0,0,-1,1182,1660,-2.27775,-4.90173
-35,-636,-2.27698,5.89685,0,0,0,0,0,0,0,-1,1189,1660,-2.27695,-5.89686
-28,-636,-1.70654,4.83936,0,0,0,0,0,0,0,-1,1196,1660,-1.70656,-4.8393
-21,-636,4.10999,24.0377,0,0,0,0,0,0,0,-1,1203,1660,4.11004,-24.0377
-14,-636,5.97266,17.6689,0,0,0,0,0,0,0,-1,1210,1660,5.97262,-17.669
-7,-636,5.05811,18.0618,0,0,0,0,0,0,0,-1,1217,1660,5.05815,-18.0617
0,-636,3.52551,19.7036,0,0,0,0,0,0,0,-1,1224,1660,3.52548,-19.7036
7,-636,2.63025,19.6267,-0.0613559,0.068989,0.0691876,0.0988659,-0.0912328,1.16316,0.109783,0.0436801,1231,1660,2.63024,-19.6267
14,-636,2.12305,20.7854,-0.0332266,0.0767745,0.0578294,0.101582,-0.058034,1.16556,0.0932905,0.0417819,1238,1660,2.1231,-20.7854
21,-636,1.6637,22.0466,0.000249789,0.110141,0.0379491,0.121973,-0.0115815,1.26858,0.0854377,0.0458719,1245,1660,1.66364,-22.0467
28,-636,1.19568,23.2931,0,0,0,0,0,0,0,-1,1252,1660,1.19572,-23.2931
35,-636,-0.614868,19.661,0,0,0,0,0,0,0,-1,1259,1660,-0.614915,-19.661
42,-636,-0.578491,21.2145,0.0770157,0.154878,0.00472085,0.155163,0.0767305,1.51046,0.0895852,0.0483816,1266,1660,-0.578523,-21.2144
49,-636,-0.483032,22.8156,0.0971788,0.163252,-0.0017177,0.163297,0.0971342,-1.54482,0.0948431,0.0464286,1273,1660,-0.483093,-22.8155
56,-636,-0.562256,24.0128,0.115573,0.172574,-0.00759203,0.173568,0.114579,-1.44063,0.101908,0.0468698,1280,1660,-0.56231,-24.0128
63,-636,-0.585693,25.2012,0.130737,0.179122,-0.0122556,0.182049,0.12781,-1.33635,0.107929,0.0454972,1287,1660,-0.585637,-25.2012
70,-636,-0.495361,26.3973,0.138783,0.176293,-0.0122151,0.17992,0.135155,-1.28215,0.108158,0.0450087,1294,1660,-0.49537,-26.3973
77,-636,9.06274,21.2467,0,0,0,0,0,0,0,-1,1301,1660,9.06275,-21.2467
84,-636,8.92285,20.0625,0.134884,0.139466,0.00872986,0.1462,0.12815,0.913705,0.092042,0.0461034,1308,1660,8.92282,-20.0625
91,-636,9.27917,19.7063,0.128973,0.118603,0.023897,0.148241,0.0993352,0.678565,0.0872223,0.0425647,1315,1660,9.27922,-19.7063
98,-636,9.63342,19.6288,0.125001,0.105229,0.0370034,0.153416,0.0768139,0.654866,0.0885749,0.045601,1322,1660,9.63345,-19.6288
105,-636,10.6555,19.9253,0,0,0,0,0,0,0,-1,1329,1660,10.6555,-19.9253
112,-636,14.0382,17.2296,0,0,0,0,0,0,0,-1,1336,1660,14.0382,-17.2296
119,-636,14.7087,16.7448,0.117706,0.0605184,0.0755425,0.169885,0.00833916,0.604475,0.110582,0.0482681,1343,1660,14.7087,-16.7447
126,-636,15.0231,16.045,0.118783,0.0408564,0.0892164,0.177173,-0.0175339,0.579518,0.124373,0.0450453,1350,1660,15.0231,-16.045
133,-636,15.7177,15.2896,0.126497,0.0492973,0.0927894,0.188395,-0.0126006,0.588288,0.130001,0.045681,1357,1660,15.7177,-15.2896
140,-636,16.7832,14.3878,0.134273,0.0605621,0.0952512,0.199551,-0.00471518,0.600804,0.134633,0.0437054,1364,1660,16.7833,-14.3879
147,-636,17.6097,13.3712,0.142942,0.0776606,0.0920043,0.207924,0.0126787,0.614936,0.134589,0.0449464,1371,1660,17.6097,-13.3713
154,-636,18.4363,12.3623,0,0,0,0,0,0,0,-1,1378,1660,18.4363,-12.3624
161,-636,10.2961,7.13025,0,0,0,0,0,0,0,-1,1385,1660,10.2961,-7.13021
168,-636,11.7659,5.83899,0,0,0,0,0,0,0,-1,1392,1660,11.7658,-5.83899
175,-636,5.94592,-1.72888,0,0,0,0,0,0,0,-1,1399,1660,5.94598,1.72886
182,-636,5.93994,-1.11938,0,0,0,0,0,0,0,-1,1406,1660,5.93998,1.11936
189,-636,5.32544,11.9595,0,0,0,0,0,0,0,-1,1413,1660,5.32542,-11.9595
196,-636,5.3623,9.38025,0,0,0,0,0,0,0,-1,1420,1660,5.36225,-9.38027
203,-636,5.18542,9.02429,0,0,0,0,0,0,0,-1,1427,1660,5.18547,-9.0243
210,-636,4.09167,7.17041,0,0,0,0,0,0,0,-1,1434,1660,4.09173,-7.17041
217,-636,2.94897,5.28992,0,0,0,0,0,0,0,-1,1441,1660,2.94899,-5.28991
224,-636,1.49194,3.63916,0,0,0,0,0,0,0,-1,1448,1660,1.49197,-3.63918
231,-636,0.17749,2.24854,0,0,0,0,0,0,0,-1,1455,1660,0.177501,-2.24855
238,-636,-0.764648,1.00598,0,0,0,0,0,0,0,-1,1462,1660,-0.764704,-1.00595
245,-636,6.21204,1.18005,0,0,0,0,0,0,0,-1,1469,1660,6.21206,-1.18001
252,-636,7.70251,0.865723,0,0,0,0,0,0,0,-1,1476,1660,7.7025,-0.865692
259,-636,9.03601,0.787231,0,0,0,0,0,0,0,-1,1483,1660,9.03598,-0.787243
266,-636,10.1071,3.24109,0,0,0,0,0,0,0,-1,1490,1660,10.1071,-3.24103
273,-636,8.48535,5.02466,0,0,0,0,0,0,0,-1,1497,1660,8.48533,-5.02472
280,-636,8.81384,5.66992,0,0,0,0,0,0,0,-1,1504,1660,8.81381,-5.66998
287,-636,6.08606,11.49,0,0,0,0,0,0,0,-1,1511,1660,6.08606,-11.49
294,-636,6.69592,15.9669,0,0,0,0,0,0,0,-1,1518,1660,6.69595,-15.9669
301,-636,6.66675,15.8636,0,0,0,0,0,0,0,-1,1525,1660,6.66678,-15.8636
308,-636,6.55798,16.2983,0,0,0,0,0,0,0,-1,1532,1660,6.55798,-16.2984
315,-636,6.29932,16.3013,0,0,0,0,0,0,0,-1,1539,1660,6.29937,-16.3013
322,-636,6.38489,16.0944,0.00846575,-0.00446019,-0.000749658,0.00850909,-0.00450352,-0.0577383,0.00763056,0.0404422,1546,1660,6.38491,-16.0943
329,-636,6.45361,15.9235,0.00704829,-0.0035686,-0.000170383,0.00705103,-0.00357133,-0.0160428,0.00624154,0.0259381,1553,1660,6.45355,-15.9234
336,-636,6.57959,15.8154,0.00560111,-0.00286591,0.000464721,0.00562654,-0.00289134,0.0546672,0.0050016,0.0215002,1560,1660,6.57964,-15.8154
343,-636,6.55017,15.7289,0.00394325,-0.00298639,0.00131163,0.0041832,-0.00322634,0.180942,0.00428978,0.0210425,1567,1660,6.5502,-15.7288
350,-636,6.51575,15.5746,0.00296083,-0.00282292,0.00168093,0.00341388,-0.00327596,0.263263,0.00386265,0.0125164,1574,1660,6.51577,-15.5745
357,-636,6.52991,15.4233,0.00224901,-0.00267155,0.00192369,0.0029118,-0.00333434,0.331804,0.00360896,0.0101218,1581,1660,6.52989,-15.4233
364,-636,6.54419,15.2644,0.00159643,-0.00253391,0.00209522,0.00247318,-0.00341066,0.39631,0.00341138,0.00927901,1588,1660,6.54422,-15.2644
371,-636,6.53833,15.1177,0.0011288,-0.00229227,0.00215685,0.00217107,-0.00333454,0.450147,0.00320224,0.00828744,1595,1660,6.53833,-15.1177
378,-636,6.56531,14.9611,0.000695496,-0.00209337,0.00223822,0.00193812,-0.003336,0.506815,0.00308046,0.00909914,1602,1660,6.56532,-14.9611
385,-636,6.58716,14.8029,0.000390434,-0.00158257,0.00197874,0.00161495,-0.00280709,0.554155,0.00258381,0.0142754,1609,1660,6.58712,-14.8029
392,-636,6.58496,14.6427,0.000105245,-0.000876064,0.00157882,0.00126789,-0.00203871,0.634743,0.00192628,0.0148321,1616,1660,6.58494,-14.6427
399,-636,6.56995,14.4783,-0.000120218,-0.000146943,0.00111832,0.000984823,-0.00125198,0.779424,0.00129449,0.0109701,1623,1660,6.56992,-14.4783
406,-636,6.57422,14.3131,-0.000250375,0.000399262,0.000877397,0.00101004,-0.000861149,0.962679,0.00108147,0.0138931,1630,1660,6.57417,-14.3131
413,-636,6.55005,14.1809,-0.000267843,0.000547807,0.000702073,0.000951911,-0.000671946,1.04852,0.000942168,0.0223635,1637,1660,6.55005,-14.181
420,-636,6.51794,14.0345,-0.000154532,0.000270053,0.000611147,0.00070473,-0.000589209,0.952562,0.000748048,0.0222563,1644,1660,6.51798,-14.0345
427,-636,6.5603,13.8126,5.19822e-05,-0.000224438,0.000653397,0.000581627,-0.000754082,0.681172,0.000773311,0.0131522,1651,1660,6.56034,-13.8126
434,-636,6.56641,13.6132,0.00033756,-0.00118237,0.000664465,0.00058708,-0.00143189,0.359227,0.00119918,0.0109327,1658,1660,6.56635,-13.6132
441,-636,6.57361,13.4097,0.00093835,-0.00247633,0.000699489,0.00107608,-0.00261406,0.194418,0.00219132,0.0114694,1665,1660,6.57364,-13.4097
448,-636,6.57202,13.2157,0.00205766,-0.0038313,0.000453408,0.00209236,-0.00386601,0.0763928,0.0034905,0.0135967,1672,1660,6.57203,-13.2157
455,-636,6.57251,13.0099,0.00320998,-0.00562919,0.000314301,0.00322114,-0.00564035,0.0354979,0.00517935,0.0141684,1679,1660,6.57257,-13.0099
462,-636,6.51978,12.8087,0.00468642,-0.0074899,1.49433e-05,0.00468644,-0.00748992,0.00122724,0.00709186,0.0187297,1686,1660,6.51979,-12.8087
469,-636,6.58118,12.6816,0.00654282,-0.00956833,-0.000583946,0.00656396,-0.00958946,-0.0361815,0.00938055,0.0299573,1693,1660,6.58123,-12.6817
476,-636,6.69006,12.6758,0.00885605,-0.0108439,-0.0018812,0.00903409,-0.0110219,-0.0943566,0.0115983,0.0443569,1700,1660,6.69001,-12.6757
483,-636,6.74988,12.5273,0,0,0,0,0,0,0,-1,1707,1660,6.74987,-12.5273
490,-636,6.84924,11.9839,0,0,0,0,0,0,0,-1,1714,1660,6.84925,-11.9839
497,-636,7.5647,10.9054,0,0,0,0,0,0,0,-1,1721,1660,7.56468,-10.9054
504,-636,5.95276,11.8416,0,0,0,0,0,0,0,-1,1728,1660,5.95275,-11.8416
511,-636,5.65466,9.23218,0,0,0,0,0,0,0,-1,1735,1660,5.65461,-9.23216
518,-636,6.72791,1.07605,0,0,0,0,0,0,0,-1,1742,1660,6.7279,-1.0761
525,-636,7.04309,0.93335,0,0,0,0,0,0,0,-1,1749,1660,7.04308,-0.933298
532,-636,0,0,0,0,0,0,0,0,0,-1,1756,1660,0,0
539,-636,0,0,0,0,0,0,0,0,0,-1,1763,1660,0,0
546,-636,0,0,0,0,0,0,0,0,0,-1,1770,1660,0,0
553,-636,0,0,0,0,0,0,0,0,0,-1,1777,1660,0,0
560,-636,0,0,0,0,0,0,0,0,0,-1,1784,1660,0,0
567,-636,0,0,0,0,0,0,0,0,0,-1,1791,1660,0,0
574,-636,0,0,0,0,0,0,0,0,0,-1,1798,1660,0,0
581,-636,0,0,0,0,0,0,0,0,0,-1,1805,1660,0,0
588,-636,0,0,0,0,0,0,0,0,0,-1,1812,1660,0,0
595,-636,0,0,0,0,0,0,0,0,0,-1,1819,1660,0,0
602,-636,0,0,0,0,0,0,0,0,0,-1,1826,1660,0,0
609,-636,0,0,0,0,0,0,0,0,0,-1,1833,1660,0,0
616,-636,0,0,0,0,0,0,0,0,0,-1,1840,1660,0,0
623,-636,0,0,0,0,0,0,0,0,0,-1,1847,1660,0,0
630,-636,0,0,0,0,0,0,0,0,0,-1,1854,1660,0,0
637,-636,0,0,0,0,0,0,0,0,0,-1,1861,1660,0,0
644,-636,0,0,0,0,0,0,0,0,0,-1,1868,1660,0,0
651,-636,0,0,0,0,0,0,0,0,0,-1,1875,1660,0,0
658,-636,0,0,0,0,0,0,0,0,0,-1,1882,1660,0,0
665,-636,0,0,0,0,0,0,0,0,0,-1,1889,1660,0,0
672,-636,0,0,0,0,0,0,0,0,0,-1,1896,1660,0,0
679,-636,0,0,0,0,0,0,0,0,0,-1,1903,1660,0,0
686,-636,0,0,0,0,0,0,0,0,0,-1,1910,1660,0,0
693,-636,0,0,0,0,0,0,0,0,0,-1,1917,1660,0,0
700,-636,0,0,0,0,0,0,0,0,0,-1,1924,1660,0,0
707,-636,0,0,0,0,0,0,0,0,0,-1,1931,1660,0,0
714,-636,0,0,0,0,0,0,0,0,0,-1,1938,1660,0,0
721,-636,0,0,0,0,0,0,0,0,0,-1,1945,1660,0,0
728,-636,0,0,0,0,0,0,0,0,0,-1,1952,1660,0,0
735,-636,0,0,0,0,0,0,0,0,0,-1,1959,1660,0,0
742,-636,0,0,0,0,0,0,0,0,0,-1,1966,1660,0,0
749,-636,0,0,0,0,0,0,0,0,0,-1,1973,1660,0,0
756,-636,0,0,0,0,0,0,0,0,0,-1,1980,1660,0,0
763,-636,0,0,0,0,0,0,0,0,0,-1,1987,1660,0,0
770,-636,0,0,0,0,0,0,0,0,0,-1,1994,1660,0,0
777,-636,0,0,0,0,0,0,0,0,0,-1,2001,1660,0,0
784,-636,0,0,0,0,0,0,0,0,0,-1,2008,1660,0,0
791,-636,0,0,0,0,0,0,0,0,0,-1,2015,1660,0,0
798,-636,0,0,0,0,0,0,0,0,0,-1,2022,1660,0,0
805,-636,0,0,0,0,0,0,0,0,0,-1,2029,1660,0,0
812,-636,0,0,0,0,0,0,0,0,0,-1,2036,1660,0,0
-700,-643,0,0,0,0,0,0,0,0,0,-1,524,1667,0,0
-693,-643,0,0,0,0,0,0,0,0,0,-1,531,1667,0,0
-686,-643,0,0,0,0,0,0,0,0,0,-1,538,1667,0,0
-679,-643,0,0,0,0,0,0,0,0,0,-1,545,1667,0,0
-672,-643,0,0,0,0,0,0,0,0,0,-1,552,1667,0,0
-665,-643,0,0,0,0,0,0,0,0,0,-1,559,1667,0,0
-658,-643,0,0,0,0,0,0,0,0,0,-1,566,1667,0,0
-651,-643,0,0,0,0,0,0,0,0,0,-1,573,1667,0,0
-644,-643,0,0,0,0,0,0,0,0,0,-1,580,1667,0,0
-637,-643,0,0,0,0,0,0,0,0,0,-1,587,1667,0,0
-630,-643,0,0,0,0,0,0,0,0,0,-1,594,1667,0,0
-623,-643,0,0,0,0,0,0,0,0,0,-1,601,1667,0,0
-616,-643,0,0,0,0,0,0,0,0,0,-1,608,1667,0,0
-609,-643,0,0,0,0,0,0,0,0,0,-1,615,1667,0,0
-602,-643,0,0,0,0,0,0,0,0,0,-1,622,1667,0,0
-595,-643,0,0,0,0,0,0,0,0,0,-1,629,1667,0,0
-588,-643,0,0,0,0,0,0,0,0,0,-1,636,1667,0,0
-581,-643,0,0,0,0,0,0,0,0,0,-1,643,1667,0,0
-574,-643,0,0,0,0,0,0,0,0,0,-1,650,1667,0,0
-567,-643,0,0,0,0,0,0,0,0,0,-1,657,1667,0,0
-560,-643,0,0,0,0,0,0,0,0,0,-1,664,1667,0,0
-553,-643,0,0,0,0,0,0,0,0,0,-1,671,1667,0,0
-546,-643,0,0,0,0,0,0,0,0,0,-1,678,1667,0,0
-539,-643,0,0,0,0,0,0,0,0,0,-1,685,1667,0,0
-532,-643,0,0,0,0,0,0,0,0,0,-1,692,1667,0,0
-525,-643,0,0,0,0,0,0,0,0,0,-1,699,1667,0,0
-518,-643,0,0,0,0,0,0,0,0,0,-1,706,1667,0,0
-511,-643,0,0,0,0,0,0,0,0,0,-1,713,1667,0,0
-504,-643,0,0,0,0,0,0,0,0,0,-1,720,1667,0,0
-497,-643,0,0,0,0,0,0,0,0,0,-1,727,1667,0,0
-490,-643,0,0,0,0,0,0,0,0,0,-1,734,1667,0,0
-483,-643,0,0,0,0,0,0,0,0,0,-1,741,1667,0,0
-476,-643,0,0,0,0,0,0,0,0,0,-1,748,1667,0,0
-469,-643,0,0,0,0,0,0,0,0,0,-1,755,1667,0,0
-462,-643,0,0,0,0,0,0,0,0,0,-1,762,1667,0,0
-455,-643,0,0,0,0,0,0,0,0,0,-1,769,1667,0,0
-448,-643,0,0,0,0,0,0,0,0,0,-1,776,1667,0,0
-441,-643,0,0,0,0,0,0,0,0,0,-1,783,1667,0,0
-434,-643,0,0,0,0,0,0,0,0,0,-1,790,1667,0,0
-427,-643,0,0,0,0,0,0,0,0,0,-1,797,1667,0,0
-420,-643,0,0,0,0,0,0,0,0,0,-1,804,1667,0,0
-413,-643,0,0,0,0,0,0,0,0,0,-1,811,1667,0,0
-406,-643,0,0,0,0,0,0,0,0,0,-1,818,1667,0,0
-399,-643,4.40393,6.401,0,0,0,0,0,0,0,-1,825,1667,4.40396,-6.40101
-392,-643,4.9093,7.02441,0,0,0,0,0,0,0,-1,832,1667,4.90932,-7.02443
-385,-643,4.9585,7.77661,0,0,0,0,0,0,0,-1,839,1667,4.95849,-7.77664
-378,-643,4.92444,8.92029,0,0,0,0,0,0,0,-1,846,1667,4.92446,-8.92025
-371,-643,0.5849,3.26428,0,0,0,0,0,0,0,-1,853,1667,0.584909,-3.26426
-364,-643,1.69513,9.922,0,0,0,0,0,0,0,-1,860,1667,1.69511,-9.92205
-357,-643,1.14227,10.8429,0,0,0,0,0,0,0,-1,867,1667,1.14228,-10.8429
-350,-643,2.50061,9.96948,0,0,0,0,0,0,0,-1,874,1667,2.50059,-9.96954
-343,-643,2.61505,6.17407,0,0,0,0,0,0,0,-1,881,1667,2.61504,-6.17412
-336,-643,3.46997,11.5242,0,0,0,0,0,0,0,-1,888,1667,3.46997,-11.5241
-329,-643,3.45337,11.78,-0.00246621,-0.00713626,0.000606098,-0.00238883,-0.00721364,0.126982,0.00424322,0.0386546,895,1667,3.45334,-11.78
-322,-643,3.44019,12.0377,-0.00212737,-0.00647692,-0.000793621,-0.00198709,-0.0066172,-0.174953,0.00392071,0.0261739,902,1667,3.44021,-12.0378
-315,-643,3.40509,12.2649,-0.00212888,-0.00624455,-0.00212226,-0.00123059,-0.00714284,-0.400405,0.00440931,0.0166131,909,1667,3.40509,-12.2649
-308,-643,3.41742,12.4225,-0.00217266,-0.00593658,-0.00307341,-0.000450785,-0.00765846,-0.510678,0.00496221,0.0126504,916,1667,3.41739,-12.4224
-301,-643,3.42548,12.637,-0.00185888,-0.0059593,-0.00375008,0.000364838,-0.00818302,-0.535241,0.00558094,0.0140018,923,1667,3.4255,-12.6369
-294,-643,3.4082,12.8499,-0.00168121,-0.00545949,-0.00409102,0.000935784,-0.00807649,-0.569096,0.00572182,0.0130417,930,1667,3.4082,-12.8498
-287,-643,3.39197,13.0575,-0.00158759,-0.0050463,-0.00401625,0.00105581,-0.00768969,-0.5821,0.00551221,0.0103534,937,1667,3.39197,-13.0575
-280,-643,3.388,13.2472,-0.00139929,-0.00464941,-0.00376648,0.00107775,-0.00712644,-0.581736,0.00514795,0.013208,944,1667,3.388,-13.2472
-273,-643,3.38367,13.4194,-0.00106896,-0.00411488,-0.00338661,0.00112137,-0.00630521,-0.574096,0.00462283,0.0118925,951,1667,3.38369,-13.4195
-266,-643,3.37006,13.6106,-0.000701819,-0.00364108,-0.00297393,0.00114579,-0.00548868,-0.555911,0.00409484,0.0123154,958,1667,3.37004,-13.6106
-259,-643,3.38538,13.8112,-0.00030378,-0.00307495,-0.00241563,0.00109544,-0.00447417,-0.525011,0.00340714,0.012119,965,1667,3.38539,-13.8111
-252,-643,3.39825,14.002,0.000145955,-0.00251606,-0.00180483,0.00105749,-0.00342759,-0.467682,0.0027073,0.0127209,972,1667,3.39824,-14.002
-245,-643,3.40796,14.2056,0.000734428,-0.00267554,-0.00112788,0.00107373,-0.00301484,-0.292216,0.0024476,0.0112164,979,1667,3.40794,-14.2056
-238,-643,3.44928,14.3711,0.00122095,-0.00297448,-0.000534591,0.001288,-0.00304153,-0.124766,0.00256709,0.0136786,986,1667,3.44926,-14.3711
-231,-643,3.39764,14.5405,0.00157528,-0.00349357,-4.71369e-05,0.00157571,-0.00349401,-0.00929825,0.00299604,0.0105494,993,1667,3.39764,-14.5405
-224,-643,3.3916,14.7003,0.00198904,-0.00447237,0.000554,0.0020362,-0.00451952,0.0849139,0.00387441,0.0094993,1000,1667,3.39157,-14.7003
-217,-643,3.40186,14.8545,0.002401,-0.00489938,0.00139233,0.00265753,-0.00515591,0.182202,0.00458732,0.00875674,1007,1667,3.40187,-14.8544
-210,-643,3.40796,15.0348,0.00290026,-0.00539374,0.00211801,0.00340982,-0.0059033,0.236098,0.0054408,0.0110002,1014,1667,3.40796,-15.0347
-203,-643,3.42822,15.2166,0.00420033,-0.00677787,0.00384716,0.00541428,-0.00799182,0.305656,0.00778756,0.0121664,1021,1667,3.42822,-15.2166
-196,-643,3.44556,15.3702,0.00560497,-0.00831208,0.00599096,0.00782864,-0.0105357,0.355409,0.010641,0.011809,1028,1667,3.4455,-15.3702
-189,-643,3.4895,15.5115,0.00709919,-0.00987046,0.00867008,0.0107454,-0.0135167,0.398098,0.0140382,0.0120924,1035,1667,3.48945,-15.5115
-182,-643,3.5498,15.6272,0.00909974,-0.0100779,0.0118945,0.0147891,-0.0157673,0.446156,0.0176448,0.0197147,1042,1667,3.54986,-15.6273
-175,-643,3.61694,15.7131,0.0114666,-0.010943,0.0152744,0.0192053,-0.0186817,0.468948,0.0218748,0.0334399,1049,1667,3.61695,-15.7131
-168,-643,3.57788,16.2856,0.0141088,-0.01155,0.0189406,0.024156,-0.0215972,0.487718,0.0264294,0.0400296,1056,1667,3.57783,-16.2857
-161,-643,3.73132,16.3467,0.0172031,-0.0122605,0.0229894,0.0297758,-0.0248332,0.500455,0.0315716,0.0455246,1063,1667,3.73136,-16.3467
-154,-643,3.67188,16.0831,0,0,0,0,0,0,0,-1,1070,1667,3.67192,-16.0831
-147,-643,3.62256,16.0142,0,0,0,0,0,0,0,-1,1077,1667,3.62253,-16.0141
-140,-643,3.4585,16.3955,0,0,0,0,0,0,0,-1,1084,1667,3.45848,-16.3955
-133,-643,3.23157,17.3802,0,0,0,0,0,0,0,-1,1091,1667,3.23151,-17.3803
-126,-643,3.32617,18.1429,0,0,0,0,0,0,0,-1,1098,1667,3.32615,-18.143
-119,-643,3.76282,14.1458,0,0,0,0,0,0,0,-1,1105,1667,3.76283,-14.1458
-112,-643,3.81458,16.2069,0,0,0,0,0,0,0,-1,1112,1667,3.81463,-16.2069
-105,-643,-2.23413,10.0996,0,0,0,0,0,0,0,-1,1119,1667,-2.23415,-10.0996
-98,-643,3.11035,4.68066,0,0,0,0,0,0,0,-1,1126,1667,3.11041,-4.68071
-91,-643,-1.74146,-2.5885,0,0,0,0,0,0,0,-1,1133,1667,-1.74146,2.58856
-84,-643,-3.07446,-0.199341,0,0,0,0,0,0,0,-1,1140,1667,-3.07449,0.199383
-77,-643,-3.63794,2.81165,0,0,0,0,0,0,0,-1,1147,1667,-3.63791,-2.8117
-70,-643,-3.36938,4.45203,0,0,0,0,0,0,0,-1,1154,1667,-3.36941,-4.452
-63,-643,-3.67822,6.26855,0,0,0,0,0,0,0,-1,1161,1667,-3.67823,-6.26856
-56,-643,-3.95142,8.1073,0,0,0,0,0,0,0,-1,1168,1667,-3.95139,-8.10732
-49,-643,-4.23535,9.90552,0,0,0,0,0,0,0,-1,1175,1667,-4.23537,-9.90557
-42,-643,-4.25195,10.7059,0,0,0,0,0,0,0,-1,1182,1667,-4.25192,-10.706
-35,-643,-4.10986,11.6588,0,0,0,0,0,0,0,-1,1189,1667,-4.10982,-11.6589
-28,-643,-1.38513,5.604,0,0,0,0,0,0,0,-1,1196,1667,-1.3851,-5.60403
-21,-643,5.43616,20.3062,0,0,0,0,0,0,0,-1,1203,1667,5.43612,-20.3062
-14,-643,5.77222,20.4629,0,0,0,0,0,0,0,-1,1210,1667,5.77227,-20.4628
-7,-643,3.85327,18.7831,0,0,0,0,0,0,0,-1,1217,1667,3.8533,-18.7831
0,-643,3.51465,19.1333,-0.0622205,0.0504781,0.0558784,0.0734864,-0.0852289,1.18019,0.0917179,0.0470331,1224,1667,3.51467,-19.1333
7,-643,2.9574,19.4935,-0.0414836,0.0663787,0.0446358,0.0824542,-0.0575591,1.22511,0.0812615,0.0430775,1231,1667,2.95738,-19.4935
14,-643,2.4696,20.35,-0.0175924,0.0753607,0.0337416,0.0863173,-0.028549,1.25682,0.0690571,0.0410293,1238,1667,2.46957,-20.35
21,-643,1.92261,21.1746,0.0113143,0.105992,0.0155652,0.108485,0.00882098,1.41196,0.0695698,0.0436679,1245,1667,1.92258,-21.1745
28,-643,1.44592,22.059,0,0,0,0,0,0,0,-1,1252,1667,1.44597,-22.0589
35,-643,8.64453,19.2344,0,0,0,0,0,0,0,-1,1259,1667,8.64458,-19.2344
42,-643,0.553223,22.9037,0,0,0,0,0,0,0,-1,1266,1667,0.553204,-22.9036
49,-643,-0.215942,23.1315,0.0934019,0.152772,-0.0174159,0.157504,0.0886702,-1.30551,0.0911748,0.0443174,1273,1667,-0.215935,-23.1315
56,-643,-0.278809,24.3586,0.109519,0.159243,-0.020847,0.166827,0.101936,-1.2219,0.0971058,0.0458449,1280,1667,-0.278758,-24.3586
63,-643,-0.363403,25.5836,0.122348,0.162394,-0.0226431,0.172597,0.112145,-1.14743,0.101128,0.0478607,1287,1667,-0.36336,-25.5836
70,-643,8.00769,20.0365,0.128677,0.157605,-0.0195363,0.167449,0.118833,-1.10405,0.0994694,0.0483223,1294,1667,8.00772,-20.0364
77,-643,8.0116,20.3977,0.132032,0.145788,-0.0125659,0.153235,0.124585,-1.03581,0.0940725,0.0433509,1301,1667,8.01165,-20.3977
84,-643,8.13342,20.0713,0.124773,0.121223,0.00426908,0.127622,0.118375,0.588374,0.0821724,0.0453983,1308,1667,8.13346,-20.0713
91,-643,8.3252,19.6655,0.118825,0.100194,0.0199217,0.131502,0.0875172,0.566693,0.0772968,0.0449994,1315,1667,8.3252,-19.6655
98,-643,8.60022,19.4344,0.113602,0.0838317,0.0344739,0.136267,0.0611667,0.581598,0.0788108,0.0435256,1322,1667,8.60026,-19.4345
105,-643,11.8207,17.951,0,0,0,0,0,0,0,-1,1329,1667,11.8207,-17.951
112,-643,12.288,17.5011,0.110818,0.0520595,0.0591667,0.147498,0.0153793,0.554958,0.0936275,0.045977,1336,1667,12.288,-17.5011
119,-643,12.7765,17.0579,0.106532,0.0413129,0.0703801,0.15149,-0.00364537,0.568455,0.10223,0.046889,1343,1667,12.7764,-17.0578
126,-643,13.0529,16.1962,0.107052,0.0258204,0.0813338,0.157347,-0.0244749,0.553826,0.113936,0.0451219,1350,1667,13.0528,-16.1962
133,-643,13.6436,15.2087,0.112762,0.0310149,0.0845896,0.165836,-0.0220585,0.560339,0.118596,0.045944,1357,1667,13.6435,-15.2087
140,-643,14.5067,13.9387,0.11865,0.0393412,0.0865032,0.174155,-0.0161636,0.570483,0.121849,0.0451989,1364,1667,14.5067,-13.9387
147,-643,15.7269,13.0035,0.125437,0.0534435,0.0830879,0.17999,-0.00111018,0.580986,0.120365,0.0423053,1371,1667,15.7269,-13.0035
154,-643,17.1388,12.1246,0,0,0,0,0,0,0,-1,1378,1667,17.1388,-12.1247
161,-643,18.7611,11.0951,0,0,0,0,0,0,0,-1,1385,1667,18.7611,-11.0951
168,-643,10.5563,10.9818,0,0,0,0,0,0,0,-1,1392,1667,10.5562,-10.9819
175,-643,5.88525,-1.1698,0,0,0,0,0,0,0,-1,1399,1667,5.88526,1.16977
182,-643,5.80945,-0.418701,0,0,0,0,0,0,0,-1,1406,1667,5.80949,0.418712
189,-643,5.42297,12.9208,0,0,0,0,0,0,0,-1,1413,1667,5.42298,-12.9208
196,-643,5.51953,11.2415,0,0,0,0,0,0,0,-1,1420,1667,5.51948,-11.2414
203,-643,5.60828,9.82153,0,0,0,0,0,0,0,-1,1427,1667,5.60833,-9.82148
210,-643,4.73218,7.58728,0,0,0,0,0,0,0,-1,1434,1667,4.73222,-7.58728
217,-643,3.8031,5.28955,0,0,0,0,0,0,0,-1,1441,1667,3.80305,-5.28955
224,-643,2.96436,2.97095,0,0,0,0,0,0,0,-1,1448,1667,2.96432,-2.97095
231,-643,2.13403,1.08472,0,0,0,0,0,0,0,-1,1455,1667,2.13403,-1.08467
238,-643,1.18152,-0.261963,0,0,0,0,0,0,0,-1,1462,1667,1.18152,0.26192
245,-643,-0.157471,-1.79016,0,0,0,0,0,0,0,-1,1469,1667,-0.157517,1.7901
252,-643,8.08789,0.0202637,0,0,0,0,0,0,0,-1,1476,1667,8.08791,-0.0203056
259,-643,9.02979,-0.46936,0,0,0,0,0,0,0,-1,1483,1667,9.02974,0.46933
266,-643,4.55066,5.17554,0,0,0,0,0,0,0,-1,1490,1667,4.55063,-5.17556
273,-643,4.34363,6.56836,0,0,0,0,0,0,0,-1,1497,1667,4.34363,-6.5684
280,-643,5.75854,14.5217,0,0,0,0,0,0,0,-1,1504,1667,5.75854,-14.5218
287,-643,5.19153,16.5435,0,0,0,0,0,0,0,-1,1511,1667,5.19149,-16.5434
294,-643,6.43298,16.4558,0,0,0,0,0,0,0,-1,1518,1667,6.43294,-16.4558
301,-643,6.36755,16.3317,0.011898,-0.00839665,-0.00170234,0.0120398,-0.00853846,-0.0831073,0.0119381,0.0411522,1525,1667,6.3676,-16.3316
308,-643,6.34167,16.2388,0.00991276,-0.00654357,-0.0011998,0.00999977,-0.00663058,-0.0723977,0.009667,0.0394123,1532,1667,6.34165,-16.2388
315,-643,6.31909,16.2198,0.00815705,-0.00506776,-0.000695482,0.00819352,-0.00510424,-0.0523965,0.00774621,0.0304749,1539,1667,6.31904,-16.2198
322,-643,6.31567,16.1257,0.00665049,-0.00391518,-0.00035667,0.00666252,-0.00392721,-0.0337062,0.0061816,0.0150619,1546,1667,6.31573,-16.1257
329,-643,6.32947,15.9799,0.00549686,-0.00302465,-2.15956e-05,0.00549691,-0.0030247,-0.00253422,0.0049885,0.0108061,1553,1667,6.32944,-15.9799
336,-643,6.32117,15.8684,0.00431855,-0.00234345,0.000410282,0.00434372,-0.00236863,0.0612768,0.0039309,0.0108872,1560,1667,6.32116,-15.8684
343,-643,6.34082,15.7408,0.00302711,-0.00219841,0.000990685,0.00320862,-0.00237992,0.181212,0.00323835,0.0137604,1567,1667,6.34081,-15.7408
350,-643,6.35059,15.5698,0.0022465,-0.00191199,0.00120461,0.00257024,-0.00223573,0.262549,0.00277697,0.0128797,1574,1667,6.35055,-15.5698
357,-643,6.35437,15.4263,0.00175973,-0.00172047,0.00128215,0.00218108,-0.00214182,0.317507,0.00249586,0.0108262,1581,1667,6.3544,-15.4263
364,-643,6.37061,15.2819,0.0013218,-0.00143395,0.00129148,0.00183244,-0.00194458,0.376521,0.00218098,0.00891679,1588,1667,6.37064,-15.2819
371,-643,6.3717,15.1333,0.00100278,-0.00111799,0.00124473,0.00157756,-0.00169277,0.432601,0.00188852,0.00712492,1595,1667,6.37168,-15.1333
378,-643,6.38831,14.9823,0.000745697,-0.000803011,0.00117778,0.00138088,-0.00143819,0.494594,0.0016277,0.00916771,1602,1667,6.38828,-14.9823
385,-643,6.41431,14.8148,0.000557457,-0.000187057,0.000820204,0.00108593,-0.000715527,0.572369,0.00104737,0.0155491,1609,1667,6.41436,-14.8149
392,-643,6.40833,14.6356,0.000287902,0.000631826,0.00038253,0.000879268,4.04599e-05,0.996633,0.000573168,0.0162974,1616,1667,6.40832,-14.6357
399,-643,6.40405,14.4845,3.27744e-05,0.00141454,-6.79758e-05,0.00141787,2.94384e-05,-1.52176,0.000935589,0.0134635,1623,1667,6.40411,-14.4845
406,-643,6.39966,14.3081,-0.000142516,0.00198661,-0.000240736,0.00201349,-0.000169397,-1.4596,0.00140221,0.0124208,1630,1667,6.3996,-14.3082
413,-643,6.37866,14.1417,-0.000177461,0.00207773,-0.000330827,0.00212526,-0.000224991,-1.4281,0.00149748,0.018074,1637,1667,6.37866,-14.1417
420,-643,6.3689,13.9801,-8.67383e-05,0.00163967,-0.000283094,0.00168491,-0.000131974,-1.41234,0.00116975,0.0176394,1644,1667,6.36884,-13.9801
427,-643,6.38733,13.8069,7.43355e-05,0.000951635,-7.14336e-05,0.000957413,6.85571e-05,-1.49008,0.000616695,0.0145724,1651,1667,6.38727,-13.8069
434,-643,6.40308,13.6372,0.000320728,-0.000315862,0.000179051,0.000367632,-0.000362767,0.256206,0.000421699,0.0153403,1658,1667,6.40312,-13.6372
441,-643,6.41833,13.4215,0.000882944,-0.00212071,0.000566366,0.000986188,-0.00222396,0.180313,0.00189875,0.0150899,1665,1667,6.4183,-13.4215
448,-643,6.401,13.1876,0.00211939,-0.00418744,0.000671765,0.00219015,-0.0042582,0.104945,0.00378624,0.0192656,1672,1667,6.40106,-13.1877
455,-643,6.30334,13.0369,0.00356839,-0.00679479,0.000869805,0.00364088,-0.00686729,0.083157,0.00616148,0.0279759,1679,1667,6.30336,-13.0368
462,-643,6.36414,13.0929,0.00552094,-0.00961344,0.00085631,0.00556924,-0.00966174,0.0563408,0.00889879,0.0362198,1686,1667,6.36411,-13.0929
469,-643,6.48511,13.2048,0.0080393,-0.0129787,0.000516744,0.008052,-0.0129914,0.024566,0.0122604,0.0416506,1693,1667,6.48515,-13.2048
476,-643,6.63623,12.8512,0,0,0,0,0,0,0,-1,1700,1667,6.63628,-12.8512
483,-643,4.21387,10.938,0,0,0,0,0,0,0,-1,1707,1667,4.21385,-10.938
490,-643,4.57397,10.8843,0,0,0,0,0,0,0,-1,1714,1667,4.574,-10.8843
497,-643,5.08691,11.1222,0,0,0,0,0,0,0,-1,1721,1667,5.08695,-11.1222
504,-643,5.39294,11.4795,0,0,0,0,0,0,0,-1,1728,1667,5.39295,-11.4795
511,-643,6.32056,9.37439,0,0,0,0,0,0,0,-1,1735,1667,6.32061,-9.37435
518,-643,7.40564,0.922607,0,0,0,0,0,0,0,-1,1742,1667,7.4057,-0.922598
525,-643,0,0,0,0,0,0,0,0,0,-1,1749,1667,0,0
532,-643,0,0,0,0,0,0,0,0,0,-1,1756,1667,0,0
539,-643,0,0,0,0,0,0,0,0,0,-1,1763,1667,0,0
546,-643,0,0,0,0,0,0,0,0,0,-1,1770,1667,0,0
553,-643,0,0,0,0,0,0,0,0,0,-1,1777,1667,0,0
560,-643,0,0,0,0,0,0,0,0,0,-1,1784,1667,0,0
567,-643,0,0,0,0,0,0,0,0,0,-1,1791,1667,0,0
574,-643,0,0,0,0,0,0,0,0,0,-1,1798,1667,0,0
581,-643,0,0,0,0,0,0,0,0,0,-1,1805,1667,0,0
588,-643,0,0,0,0,0,0,0,0,0,-1,1812,1667,0,0
595,-643,0,0,0,0,0,0,0,0,0,-1,1819,1667,0,0
602,-643,0,0,0,0,0,0,0,0,0,-1,1826,1667,0,0
609,-643,0,0,0,0,0,0,0,0,0,-1,1833,1667,0,0
616,-643,0,0,0,0,0,0,0,0,0,-1,1840,1667,0,0
623,-643,0,0,0,0,0,0,0,0,0,-1,1847,1667,0,0
630,-643,0,0,0,0,0,0,0,0,0,-1,1854,1667,0,0
637,-643,0,0,0,0,0,0,0,0,0,-1,1861,1667,0,0
644,-643,0,0,0,0,0,0,0,0,0,-1,1868,1667,0,0
651,-643,0,0,0,0,0,0,0,0,0,-1,1875,1667,0,0
658,-643,0,0,0,0,0,0,0,0,0,-1,1882,1667,0,0
665,-643,0,0,0,0,0,0,0,0,0,-1,1889,1667,0,0
672,-643,0,0,0,0,0,0,0,0,0,-1,1896,1667,0,0
679,-643,0,0,0,0,0,0,0,0,0,-1,1903,1667,0,0
686,-643,0,0,0,0,0,0,0,0,0,-1,1910,1667,0,0
693,-643,0,0,0,0,0,0,0,0,0,-1,1917,1667,0,0
700,-643,0,0,0,0,0,0,0,0,0,-1,1924,1667,0,0
707,-643,0,0,0,0,0,0,0,0,0,-1,1931,1667,0,0
714,-643,0,0,0,0,0,0,0,0,0,-1,1938,1667,0,0
721,-643,0,0,0,0,0,0,0,0,0,-1,1945,1667,0,0
728,-643,0,0,0,0,0,0,0,0,0,-1,1952,1667,0,0
735,-643,0,0,0,0,0,0,0,0,0,-1,1959,1667,0,0
742,-643,0,0,0,0,0,0,0,0,0,-1,1966,1667,0,0
749,-643,0,0,0,0,0,0,0,0,0,-1,1973,1667,0,0
756,-643,0,0,0,0,0,0,0,0,0,-1,1980,1667,0,0
763,-643,0,0,0,0,0,0,0,0,0,-1,1987,1667,0,0
770,-643,0,0,0,0,0,0,0,0,0,-1,1994,1667,0,0
777,-643,0,0,0,0,0,0,0,0,0,-1,2001,1667,0,0
784,-643,0,0,0,0,0,0,0,0,0,-1,2008,1667,0,0
791,-643,0,0,0,0,0,0,0,0,0,-1,2015,1667,0,0
798,-643,0,0,0,0,0,0,0,0,0,-1,2022,1667,0,0
805,-643,0,0,0,0,0,0,0,0,0,-1,2029,1667,0,0
812,-643,0,0,0,0,0,0,0,0,0,-1,2036,1667,0,0
-700,-650,0,0,0,0,0,0,0,0,0,-1,524,1674,0,0
-693,-650,0,0,0,0,0,0,0,0,0,-1,531,1674,0,0
-686,-650,0,0,0,0,0,0,0,0,0,-1,538,1674,0,0
-679,-650,0,0,0,0,0,0,0,0,0,-1,545,1674,0,0
-672,-650,0,0,0,0,0,0,0,0,0,-1,552,1674,0,0
-665,-650,0,0,0,0,0,0,0,0,0,-1,559,1674,0,0
-658,-650,0,0,0,0,0,0,0,0,0,-1,566,1674,0,0
-651,-650,0,0,0,0,0,0,0,0,0,-1,573,1674,0,0
-644,-650,0,0,0,0,0,0,0,0,0,-1,580,1674,0,0
-637,-650,0,0,0,0,0,0,0,0,0,-1,587,1674,0,0
-630,-650,0,0,0,0,0,0,0,0,0,-1,594,1674,0,0
-623,-650,0,0,0,0,0,0,0,0,0,-1,601,1674,0,0
-616,-650,0,0,0,0,0,0,0,0,0,-1,608,1674,0,0
-609,-650,0,0,0,0,0,0,0,0,0,-1,615,1674,0,0
-602,-650,0,0,0,0,0,0,0,0,0,-1,622,1674,0,0
-595,-650,0,0,0,0,0,0,0,0,0,-1,629,1674,0,0
-588,-650,0,0,0,0,0,0,0,0,0,-1,636,1674,0,0
-581,-650,0,0,0,0,0,0,0,0,0,-1,643,1674,0,0
-574,-650,0,0,0,0,0,0,0,0,0,-1,650,1674,0,0
-567,-650,0,0,0,0,0,0,0,0,0,-1,657,1674,0,0
-560,-650,0,0,0,0,0,0,0,0,0,-1,664,1674,0,0
-553,-650,0,0,0,0,0,0,0,0,0,-1,671,1674,0,0
-546,-650,0,0,0,0,0,0,0,0,0,-1,678,1674,0,0
-539,-650,0,0,0,0,0,0,0,0,0,-1,685,1674,0,0
-532,-650,0,0,0,0,0,0,0,0,0,-1,692,1674,0,0
-525,-650,0,0,0,0,0,0,0,0,0,-1,699,1674,0,0
-518,-650,0,0,0,0,0,0,0,0,0,-1,706,1674,0,0
-511,-650,0,0,0,0,0,0,0,0,0,-1,713,1674,0,0
-504,-650,0,0,0,0,0,0,0,0,0,-1,720,1674,0,0
-497,-650,0,0,0,0,0,0,0,0,0,-1,727,1674,0,0
-490,-650,0,0,0,0,0,0,0,0,0,-1,734,1674,0,0
-483,-650,0,0,0,0,0,0,0,0,0,-1,741,1674,0,0
-476,-650,0,0,0,0,0,0,0,0,0,-1,748,1674,0,0
-469,-650,0,0,0,0,0,0,0,0,0,-1,755,1674,0,0
-462,-650,0,0,0,0,0,0,0,0,0,-1,762,1674,0,0
-455,-650,0,0,0,0,0,0,0,0,0,-1,769,1674,0,0
-448,-650,0,0,0,0,0,0,0,0,0,-1,776,1674,0,0
-441,-650,0,0,0,0,0,0,0,0,0,-1,783,1674,0,0
-434,-650,0,0,0,0,0,0,0,0,0,-1,790,1674,0,0
-427,-650,0,0,0,0,0,0,0,0,0,-1,797,1674,0,0
-420,-650,0,0,0,0,0,0,0,0,0,-1,804,1674,0,0
-413,-650,0,0,0,0,0,0,0,0,0,-1,811,1674,0,0
-406,-650,0,0,0,0,0,0,0,0,0,-1,818,1674,0,0
-399,-650,0,0,0,0,0,0,0,0,0,-1,825,1674,0,0
-392,-650,5.44415,6.85669,0,0,0,0,0,0,0,-1,832,1674,5.44414,-6.85674
-385,-650,8.7821,8.6189,0,0,0,0,0,0,0,-1,839,1674,8.78213,-8.61893
-378,-650,0.997986,4.11108,0,0,0,0,0,0,0,-1,846,1674,0.998006,-4.11113
-371,-650,-1.80096,3.78625,0,0,0,0,0,0,0,-1,853,1674,-1.80094,-3.78625
-364,-650,-2.95679,2.57507,0,0,0,0,0,0,0,-1,860,1674,-2.95681,-2.57506
-357,-650,1.97833,10.8362,0,0,0,0,0,0,0,-1,867,1674,1.97835,-10.8362
-350,-650,-5.30243,0.159912,0,0,0,0,0,0,0,-1,874,1674,-5.30244,-0.159866
-343,-650,-6.21338,-1.4425,0,0,0,0,0,0,0,-1,881,1674,-6.21341,1.44248
-336,-650,3.39105,10.7294,0,0,0,0,0,0,0,-1,888,1674,3.39105,-10.7293
-329,-650,3.61816,11.7772,0,0,0,0,0,0,0,-1,895,1674,3.61819,-11.7772
-322,-650,3.61884,12.0635,-0.0034,-0.00918269,-0.00345241,-0.00178812,-0.0107946,-0.436806,0.00668058,0.0443498,902,1674,3.61886,-12.0634
-315,-650,3.57849,12.2881,-0.00342168,-0.00911052,-0.0051493,-0.000383412,-0.0121488,-0.53306,0.00797446,0.0388438,909,1674,3.57851,-12.2881
-308,-650,3.61334,12.4347,-0.00348778,-0.00884808,-0.00629587,0.000674674,-0.0130105,-0.584166,0.0089071,0.0225227,916,1674,3.61337,-12.4347
-301,-650,3.6153,12.6356,-0.00315294,-0.00877433,-0.00699718,0.00157696,-0.0135042,-0.594417,0.00957187,0.0121906,923,1674,3.6153,-12.6357
-294,-650,3.59521,12.848,-0.00293047,-0.00804027,-0.0071978,0.00215242,-0.0131232,-0.614857,0.00954747,0.0106225,930,1674,3.59522,-12.848
-287,-650,3.57959,13.0531,-0.00275712,-0.00730645,-0.0068855,0.00221972,-0.0122833,-0.625864,0.00902027,0.0136984,937,1674,3.57961,-13.0531
-280,-650,3.58252,13.2313,-0.00249963,-0.00653173,-0.00632642,0.0021242,-0.0111556,-0.631149,0.00823692,0.0143781,944,1674,3.5825,-13.2313
-273,-650,3.56793,13.4227,-0.0020954,-0.00556615,-0.00556954,0.00200287,-0.00966441,-0.634373,0.00720397,0.0133124,951,1674,3.56796,-13.4227
-266,-650,3.55219,13.6163,-0.00165841,-0.00471446,-0.00479799,0.00184899,-0.00822186,-0.63124,0.00619031,0.0120042,958,1674,3.55216,-13.6164
-259,-650,3.57349,13.788,-0.00119682,-0.00378586,-0.0038573,0.00157739,-0.00656006,-0.623502,0.0049831,0.0149701,965,1674,3.57351,-13.7879
-252,-650,3.58002,13.9854,-0.000697754,-0.00288381,-0.0028856,0.00129489,-0.00487646,-0.604355,0.00375772,0.0125734,972,1674,3.58,-13.9854
-245,-650,3.57977,14.1862,-6.04763e-05,-0.00263003,-0.00190778,0.000954803,-0.00364531,-0.489058,0.00280321,0.0115257,979,1674,3.5798,-14.1862
-238,-650,3.57629,14.3604,0.000436066,-0.00232823,-0.00106525,0.000798934,-0.0026911,-0.328314,0.00211138,0.0123643,986,1674,3.57629,-14.3604
-231,-650,3.56348,14.5551,0.00080652,-0.00245473,-0.000319316,0.000837491,-0.0024857,-0.0966887,0.00199576,0.0164579,993,1674,3.5635,-14.555
-224,-650,3.55591,14.7278,0.00120023,-0.00307329,0.000389413,0.00123542,-0.00310848,0.0901331,0.0025845,0.0144223,1000,1674,3.55593,-14.7278
-217,-650,3.57129,14.8557,0.00157529,-0.00333682,0.00109536,0.00180847,-0.00357,0.209754,0.00316029,0.0100449,1007,1674,3.57127,-14.8557
-210,-650,3.57959,15.0313,0.00202217,-0.00361927,0.00170612,0.00249801,-0.00409511,0.27199,0.00384359,0.00898408,1014,1674,3.57959,-15.0313
-203,-650,3.60974,15.2098,0.00303651,-0.00460909,0.0030099,0.00407923,-0.00565181,0.333491,0.00564262,0.0127566,1021,1674,3.60972,-15.2099
-196,-650,3.61694,15.3661,0.00409995,-0.00567186,0.00461384,0.00593413,-0.00750604,0.378383,0.00777736,0.0122226,1028,1674,3.61692,-15.3661
-189,-650,3.62061,15.5099,0.0051716,-0.00671309,0.00655467,0.00807658,-0.00961807,0.417178,0.0102289,0.0103293,1035,1674,3.62062,-15.5099
-182,-650,3.65369,15.6635,0.00663655,-0.00672235,0.00882684,0.0110263,-0.0111121,0.461504,0.0127817,0.00974748,1042,1674,3.65372,-15.6635
-175,-650,3.67554,15.7961,0.00840704,-0.00726495,0.0111884,0.0142306,-0.0130885,0.479912,0.0157773,0.01421,1049,1674,3.67557,-15.7962
-168,-650,3.65613,15.9384,0.0103505,-0.00761684,0.0136976,0.0177476,-0.0150139,0.495157,0.0189368,0.0188666,1056,1674,3.65614,-15.9383
-161,-650,3.67261,16.098,0.012641,-0.00814835,0.0164727,0.0217245,-0.0172318,0.503938,0.0225412,0.0278695,1063,1674,3.67263,-16.098
-154,-650,3.74817,16.1832,0.0150718,-0.00863365,0.0192259,0.025805,-0.0193668,0.509167,0.0261681,0.029987,1070,1674,3.74813,-16.1832
-147,-650,3.73779,16.1879,0.0175273,-0.00909795,0.0217497,0.0297152,-0.0212858,0.51077,0.0295792,0.041208,1077,1674,3.73774,-16.1878
-140,-650,3.51355,16.4996,0.020108,-0.00922916,0.0242898,0.0338148,-0.022936,0.513758,0.0329651,0.0474668,1084,1674,3.51355,-16.4997
-133,-650,3.16211,16.8984,0.022728,-0.00957989,0.0265965,0.037692,-0.0245438,0.512487,0.0361981,0.0449846,1091,1674,3.16205,-16.8984
-126,-650,4.09753,16.4769,0,0,0,0,0,0,0,-1,1098,1674,4.0975,-16.477
-119,-650,4.17432,16.8286,0,0,0,0,0,0,0,-1,1105,1674,4.17431,-16.8287
-112,-650,3.86292,14.4513,0,0,0,0,0,0,0,-1,1112,1674,3.8629,-14.4513
-105,-650,4.9259,12.0626,0,0,0,0,0,0,0,-1,1119,1674,4.92591,-12.0626
-98,-650,3.3761,6.78003,0,0,0,0,0,0,0,-1,1126,1674,3.37611,-6.78009
-91,-650,3.66809,7.04443,0,0,0,0,0,0,0,-1,1133,1674,3.66806,-7.04439
-84,-650,-3.82666,-1.59521,0,0,0,0,0,0,0,-1,1140,1674,-3.82661,1.59517
-77,-650,-4.70557,1.90198,0,0,0,0,0,0,0,-1,1147,1674,-4.7056,-1.90194
-70,-650,-4.88171,3.81653,0,0,0,0,0,0,0,-1,1154,1674,-4.88176,-3.81651
-63,-650,-5.14612,5.56543,0,0,0,0,0,0,0,-1,1161,1674,-5.14612,-5.56547
-56,-650,-5.38367,7.41101,0,0,0,0,0,0,0,-1,1168,1674,-5.38361,-7.41102
-49,-650,-5.11316,8.23706,0,0,0,0,0,0,0,-1,1175,1674,-5.11317,-8.23708
-42,-650,-4.99487,9.6792,0,0,0,0,0,0,0,-1,1182,1674,-4.99484,-9.67921
-35,-650,-4.77771,11.3369,0,0,0,0,0,0,0,-1,1189,1674,-4.77769,-11.3369
-28,-650,-4.1936,13.1501,0,0,0,0,0,0,0,-1,1196,1674,-4.19358,-13.1501
-21,-650,5.56018,20.1913,0,0,0,0,0,0,0,-1,1203,1674,5.56022,-20.1912
-14,-650,3.62573,16.5197,0,0,0,0,0,0,0,-1,1210,1674,3.62575,-16.5196
-7,-650,3.73145,17.7834,-0.0533039,0.046621,0.0404581,0.0609477,-0.0676306,1.23046,0.0742682,0.0493026,1217,1674,3.7314,-17.7834
0,-650,3.47961,18.5479,-0.0415499,0.0473666,0.0362689,0.060284,-0.0544673,1.22865,0.0662801,0.0427867,1224,1674,3.47961,-18.5479
7,-650,3.25977,19.0709,-0.0263274,0.0600293,0.0270012,0.0677768,-0.0340748,1.29137,0.0598675,0.0417533,1231,1674,3.25977,-19.071
14,-650,2.82898,20.0448,-0.0068446,0.0685915,0.0172672,0.0723561,-0.0106092,1.35614,0.0521348,0.0404476,1238,1674,2.82899,-20.0448
21,-650,2.19031,20.88,0.0171198,0.0953837,0.00146061,0.095411,0.0170925,1.55214,0.0587446,0.0443184,1245,1674,2.19028,-20.88
28,-650,1.73792,21.7166,0,0,0,0,0,0,0,-1,1252,1674,1.73789,-21.7165
35,-650,1.45142,22.2343,0,0,0,0,0,0,0,-1,1259,1674,1.4514,-22.2342
42,-650,0.627686,22.9465,0.0701073,0.129186,-0.0215437,0.136208,0.0630857,-1.25573,0.0787108,0.0454063,1266,1674,0.627732,-22.9465
49,-650,0.187256,23.4744,0.0846727,0.135306,-0.0252111,0.145718,0.0742608,-1.17914,0.0841355,0.0439945,1273,1674,0.187253,-23.4743
56,-650,4.39392,15.1697,0,0,0,0,0,0,0,-1,1280,1674,4.39395,-15.1697
63,-650,6.19446,19.4014,0,0,0,0,0,0,0,-1,1287,1674,6.19447,-19.4014
70,-650,6.65088,19.5172,0.113564,0.135012,-0.0221861,0.14893,0.0996461,-1.01052,0.0876083,0.0493915,1294,1674,6.65083,-19.5172
77,-650,6.90906,19.5765,0.116121,0.123631,-0.0142652,0.134627,0.105125,-0.914099,0.0817125,0.0426383,1301,1674,6.90902,-19.5765
84,-650,7.14587,19.61,0.110191,0.101853,0.00148003,0.110446,0.101598,0.17056,0.0708658,0.0464134,1308,1674,7.14582,-19.61
91,-650,7.49622,19.4437,0.104913,0.082613,0.0161798,0.113412,0.0741133,0.483705,0.0664991,0.0484544,1315,1674,7.49618,-19.4437
98,-650,7.84241,19.0714,0.0994788,0.0658366,0.0305184,0.117505,0.0478105,0.533524,0.0682325,0.0435655,1322,1674,7.84247,-19.0714
105,-650,10.4932,18.3597,0.0974646,0.0475938,0.0430216,0.122255,0.0228036,0.522755,0.0750655,0.0435208,1329,1674,10.4931,-18.3598
112,-650,10.7733,17.887,0.0969679,0.0375521,0.0529056,0.127936,0.00658414,0.529573,0.0831828,0.0407563,1336,1674,10.7734,-17.887
119,-650,9.80371,18.1327,0,0,0,0,0,0,0,-1,1343,1674,9.80369,-18.1326
126,-650,9.83264,17.8429,0.0930069,0.0147906,0.0715445,0.135434,-0.0276369,0.535273,0.100773,0.0485507,1350,1674,9.83268,-17.8429
133,-650,11.5796,15.0829,0.09703,0.0175553,0.0744642,0.141696,-0.027111,0.540299,0.104678,0.0489805,1357,1674,11.5796,-15.0829
140,-650,12.4169,14.2837,0.101407,0.0237141,0.0761538,0.14805,-0.022929,0.54955,0.107164,0.0468775,1364,1674,12.4169,-14.2837
147,-650,13.6472,12.6732,0.106956,0.0351645,0.0737755,0.153105,-0.0109845,0.558982,0.105921,0.0453126,1371,1674,13.6472,-12.6732
154,-650,14.9423,11.9608,0,0,0,0,0,0,0,-1,1378,1674,14.9423,-11.9608
161,-650,11.2434,8.83008,0,0,0,0,0,0,0,-1,1385,1674,11.2434,-8.83004
168,-650,11.2113,7.87231,0,0,0,0,0,0,0,-1,1392,1674,11.2113,-7.87236
175,-650,5.62537,-0.230713,0,0,0,0,0,0,0,-1,1399,1674,5.62538,0.230745
182,-650,5.56006,0.421631,0,0,0,0,0,0,0,-1,1406,1674,5.56,-0.421652
189,-650,4.81543,11.0654,0,0,0,0,0,0,0,-1,1413,1674,4.81542,-11.0654
196,-650,5.39575,11.9077,0,0,0,0,0,0,0,-1,1420,1674,5.39575,-11.9078
203,-650,3.93628,11.8215,0,0,0,0,0,0,0,-1,1427,1674,3.93624,-11.8216
210,-650,5.40955,8.08594,0,0,0,0,0,0,0,-1,1434,1674,5.40958,-8.086
217,-650,5.12451,4.69739,0,0,0,0,0,0,0,-1,1441,1674,5.12451,-4.69738
224,-650,4.79041,1.45813,0,0,0,0,0,0,0,-1,1448,1674,4.79046,-1.45816
231,-650,4.04102,-0.642212,0,0,0,0,0,0,0,-1,1455,1674,4.04101,0.642209
238,-650,3.23022,-1.43396,0,0,0,0,0,0,0,-1,1462,1674,3.23023,1.43394
245,-650,1.65894,-2.55042,0,0,0,0,0,0,0,-1,1469,1674,1.65889,2.55036
252,-650,8.75342,0.355103,0,0,0,0,0,0,0,-1,1476,1674,8.75337,-0.355147
259,-650,5.61255,3.17566,0,0,0,0,0,0,0,-1,1483,1674,5.61257,-3.17572
266,-650,4.00403,6.10229,0,0,0,0,0,0,0,-1,1490,1674,4.00401,-6.10225
273,-650,5.4093,14.3718,0,0,0,0,0,0,0,-1,1497,1674,5.40929,-14.3718
280,-650,4.94617,16.4933,0,0,0,0,0,0,0,-1,1504,1674,4.9462,-16.4932
287,-650,5.59009,16.5706,0.0124314,-0.0102976,-0.00187833,0.0125856,-0.0104518,-0.0818997,0.0133196,0.0462284,1511,1674,5.59007,-16.5706
294,-650,6.03308,16.4144,0.0107563,-0.00869744,-0.0013262,0.0108462,-0.00878743,-0.0677543,0.0113563,0.0400976,1518,1674,6.03308,-16.4145
301,-650,6.15454,16.3147,0.00910066,-0.00708686,-0.000918782,0.00915265,-0.00713885,-0.0565167,0.00942982,0.031857,1525,1674,6.15451,-16.3147
308,-650,6.15918,16.3354,0.00762941,-0.00555972,-0.000654966,0.00766185,-0.00559216,-0.0494972,0.00768324,0.0195698,1532,1674,6.15921,-16.3355
315,-650,6.19043,16.2893,0.00627306,-0.00430326,-0.00035648,0.00628506,-0.00431526,-0.0336546,0.00615522,0.011043,1539,1674,6.19046,-16.2893
322,-650,6.1814,16.1541,0.0050982,-0.00330192,-0.000142252,0.0051006,-0.00330433,-0.0169281,0.00488939,0.00942958,1546,1674,6.18145,-16.1541
329,-650,6.20215,15.9854,0.00417496,-0.00250158,7.86571e-05,0.00417589,-0.00250251,0.0117789,0.00389591,0.0143526,1553,1674,6.20215,-15.9854
336,-650,6.19702,15.8734,0.00325285,-0.00184552,0.000370217,0.0032796,-0.00187227,0.0721106,0.00301119,0.0133803,1560,1674,6.19708,-15.8734
343,-650,6.19556,15.7412,0.00224123,-0.00154384,0.000772718,0.00239291,-0.00169551,0.193819,0.00237187,0.0137896,1567,1674,6.19552,-15.7413
350,-650,6.2196,15.5454,0.00161376,-0.00117289,0.000881539,0.00186921,-0.00142834,0.282055,0.0019095,0.0155211,1574,1674,6.21958,-15.5455
357,-650,6.22241,15.3978,0.00125646,-0.000906163,0.000852533,0.00155212,-0.00120182,0.333821,0.00159427,0.0128115,1581,1674,6.22238,-15.3978
364,-650,6.224,15.281,0.000963753,-0.000428354,0.000720764,0.00126969,-0.000734294,0.401418,0.00117069,0.00867318,1588,1674,6.224,-15.281
371,-650,6.21533,15.1274,0.000750968,1.72391e-05,0.000580298,0.00107064,-0.000302435,0.503518,0.000833078,0.00990492,1595,1674,6.21529,-15.1275
378,-650,6.22107,14.9666,0.000634025,0.00050315,0.000360333,0.000934815,0.000202361,0.695575,0.000567904,0.0118507,1602,1674,6.22107,-14.9665
385,-650,6.22949,14.8063,0.000533434,0.00128698,-0.000120429,0.00130576,0.000514656,-1.41611,0.000759492,0.0141896,1609,1674,6.22946,-14.8063
392,-650,6.22375,14.651,0.000263608,0.00228794,-0.000625606,0.00246568,8.58733e-05,-1.29399,0.00161592,0.0175787,1616,1674,6.22379,-14.6511
399,-650,6.22583,14.4933,-1.44783e-05,0.00319619,-0.0011051,0.00353979,-0.000358076,-1.26935,0.00248782,0.0154429,1623,1674,6.22589,-14.4933
406,-650,6.21399,14.3212,-0.000218443,0.0038684,-0.00125706,0.0042241,-0.000574142,-1.29504,0.00302566,0.0141506,1630,1674,6.21394,-14.3212
413,-650,6.20764,14.1393,-0.000254629,0.00398977,-0.00131718,0.00436531,-0.00063017,-1.29306,0.0031414,0.0150786,1637,1674,6.20761,-14.1393
420,-650,6.19727,13.9722,-0.000178084,0.00347467,-0.00117892,0.00382212,-0.000525531,-1.28419,0.0027401,0.0148953,1644,1674,6.19731,-13.9722
427,-650,6.18982,13.8058,-5.18269e-05,0.00263102,-0.00081047,0.00285684,-0.000277656,-1.29905,0.00200354,0.0140205,1651,1674,6.18988,-13.8058
434,-650,6.19031,13.637,0.000176962,0.00107425,-0.000312515,0.00117237,7.8845e-05,-1.26658,0.000756666,0.0173182,1658,1674,6.19026,-13.637
441,-650,6.19495,13.4148,0.000720137,-0.00126703,0.000460915,0.000821839,-0.00136873,0.217173,0.0012778,0.0273927,1665,1674,6.19495,-13.4148
448,-650,6.00928,13.3317,0.00208824,-0.00418624,0.00101258,0.00224761,-0.0043456,0.156103,0.0038703,0.0422606,1672,1674,6.0093,-13.3316
455,-650,5.74829,13.3549,0.00386277,-0.00769209,0.00161212,0.00408348,-0.00791279,0.136058,0.00704269,0.0452844,1679,1674,5.74832,-13.3548
462,-650,6.22266,13.5428,0.00633035,-0.0116954,0.00198942,0.0065473,-0.0119124,0.108623,0.0108067,0.0459077,1686,1674,6.22271,-13.5428
469,-650,6.43298,13.505,0.00961869,-0.0168451,0.00214911,0.00979208,-0.0170185,0.0805065,0.0156654,0.0489037,1693,1674,6.43294,-13.505
476,-650,6.60254,13.4469,0,0,0,0,0,0,0,-1,1700,1674,6.60251,-13.4469
483,-650,3.49097,10.5712,0,0,0,0,0,0,0,-1,1707,1674,3.491,-10.5712
490,-650,3.98425,10.6481,0,0,0,0,0,0,0,-1,1714,1674,3.98428,-10.648
497,-650,4.64648,10.8466,0,0,0,0,0,0,0,-1,1721,1674,4.64643,-10.8465
504,-650,4.71448,10.8973,0,0,0,0,0,0,0,-1,1728,1674,4.71444,-10.8974
511,-650,4.76782,10.7681,0,0,0,0,0,0,0,-1,1735,1674,4.76776,-10.7681
518,-650,0,0,0,0,0,0,0,0,0,-1,1742,1674,0,0
525,-650,0,0,0,0,0,0,0,0,0,-1,1749,1674,0,0
532,-650,0,0,0,0,0,0,0,0,0,-1,1756,1674,0,0
539,-650,0,0,0,0,0,0,0,0,0,-1,1763,1674,0,0
546,-650,0,0,0,0,0,0,0,0,0,-1,1770,1674,0,0
553,-650,0,0,0,0,0,0,0,0,0,-1,1777,1674,0,0
560,-650,0,0,0,0,0,0,0,0,0,-1,1784,1674,0,0
567,-650,0,0,0,0,0,0,0,0,0,-1,1791,1674,0,0
574,-650,0,0,0,0,0,0,0,0,0,-1,1798,1674,0,0
581,-650,0,0,0,0,0,0,0,0,0,-1,1805,1674,0,0
588,-650,0,0,0,0,0,0,0,0,0,-1,1812,1674,0,0
595,-650,0,0,0,0,0,0,0,0,0,-1,1819,1674,0,0
602,-650,0,0,0,0,0,0,0,0,0,-1,1826,1674,0,0
609,-650,0,0,0,0,0,0,0,0,0,-1,1833,1674,0,0
616,-650,0,0,0,0,0,0,0,0,0,-1,1840,1674,0,0
623,-650,0,0,0,0,0,0,0,0,0,-1,1847,1674,0,0
630,-650,0,0,0,0,0,0,0,0,0,-1,1854,1674,0,0
637,-650,0,0,0,0,0,0,0,0,0,-1,1861,1674,0,0
644,-650,0,0,0,0,0,0,0,0,0,-1,1868,1674,0,0
651,-650,0,0,0,0,0,0,0,0,0,-1,1875,1674,0,0
658,-650,0,0,0,0,0,0,0,0,0,-1,1882,1674,0,0
665,-650,0,0,0,0,0,0,0,0,0,-1,1889,1674,0,0
672,-650,0,0,0,0,0,0,0,0,0,-1,1896,1674,0,0
679,-650,0,0,0,0,0,0,0,0,0,-1,1903,1674,0,0
686,-650,0,0,0,0,0,0,0,0,0,-1,1910,1674,0,0
693,-650,0,0,0,0,0,0,0,0,0,-1,1917,1674,0,0
700,-650,0,0,0,0,0,0,0,0,0,-1,1924,1674,0,0
707,-650,0,0,0,0,0,0,0,0,0,-1,1931,1674,0,0
714,-650,0,0,0,0,0,0,0,0,0,-1,1938,1674,0,0
721,-650,0,0,0,0,0,0,0,0,0,-1,1945,1674,0,0
728,-650,0,0,0,0,0,0,0,0,0,-1,1952,1674,0,0
735,-650,0,0,0,0,0,0,0,0,0,-1,1959,1674,0,0
742,-650,0,0,0,0,0,0,0,0,0,-1,1966,1674,0,0
749,-650,0,0,0,0,0,0,0,0,0,-1,1973,1674,0,0
756,-650,0,0,0,0,0,0,0,0,0,-1,1980,1674,0,0
763,-650,0,0,0,0,0,0,0,0,0,-1,1987,1674,0,0
770,-650,0,0,0,0,0,0,0,0,0,-1,1994,1674,0,0
777,-650,0,0,0,0,0,0,0,0,0,-1,2001,1674,0,0
784,-650,0,0,0,0,0,0,0,0,0,-1,2008,1674,0,0
791,-650,0,0,0,0,0,0,0,0,0,-1,2015,1674,0,0
798,-650,0,0,0,0,0,0,0,0,0,-1,2022,1674,0,0
805,-650,0,0,0,0,0,0,0,0,0,-1,2029,1674,0,0
812,-650,0,0,0,0,0,0,0,0,0,-1,2036,1674,0,0
-700,-657,0,0,0,0,0,0,0,0,0,-1,524,1681,0,0
-693,-657,0,0,0,0,0,0,0,0,0,-1,531,1681,0,0
-686,-657,0,0,0,0,0,0,0,0,0,-1,538,1681,0,0
-679,-657,0,0,0,0,0,0,0,0,0,-1,545,1681,0,0
-672,-657,0,0,0,0,0,0,0,0,0,-1,552,1681,0,0
-665,-657,0,0,0,0,0,0,0,0,0,-1,559,1681,0,0
-658,-657,0,0,0,0,0,0,0,0,0,-1,566,1681,0,0
-651,-657,0,0,0,0,0,0,0,0,0,-1,573,1681,0,0
-644,-657,0,0,0,0,0,0,0,0,0,-1,580,1681,0,0
-637,-657,0,0,0,0,0,0,0,0,0,-1,587,1681,0,0
-630,-657,0,0,0,0,0,0,0,0,0,-1,594,1681,0,0
-623,-657,0,0,0,0,0,0,0,0,0,-1,601,1681,0,0
-616,-657,0,0,0,0,0,0,0,0,0,-1,608,1681,0,0
-609,-657,0,0,0,0,0,0,0,0,0,-1,615,1681,0,0
-602,-657,0,0,0,0,0,0,0,0,0,-1,622,1681,0,0
-595,-657,0,0,0,0,0,0,0,0,0,-1,629,1681,0,0
-588,-657,0,0,0,0,0,0,0,0,0,-1,636,1681,0,0
-581,-657,0,0,0,0,0,0,0,0,0,-1,643,1681,0,0
-574,-657,0,0,0,0,0,0,0,0,0,-1,650,1681,0,0
-567,-657,0,0,0,0,0,0,0,0,0,-1,657,1681,0,0
-560,-657,0,0,0,0,0,0,0,0,0,-1,664,1681,0,0
-553,-657,0,0,0,0,0,0,0,0,0,-1,671,1681,0,0
-546,-657,0,0,0,0,0,0,0,0,0,-1,678,1681,0,0
-539,-657,0,0,0,0,0,0,0,0,0,-1,685,1681,0,0
-532,-657,0,0,0,0,0,0,0,0,0,-1,692,1681,0,0
-525,-657,0,0,0,0,0,0,0,0,0,-1,699,1681,0,0
-518,-657,0,0,0,0,0,0,0,0,0,-1,706,1681,0,0
-511,-657,0,0,0,0,0,0,0,0,0,-1,713,1681,0,0
-504,-657,0,0,0,0,0,0,0,0,0,-1,720,1681,0,0
-497,-657,0,0,0,0,0,0,0,0,0,-1,727,1681,0,0
-490,-657,0,0,0,0,0,0,0,0,0,-1,734,1681,0,0
-483,-657,0,0,0,0,0,0,0,0,0,-1,741,1681,0,0
-476,-657,0,0,0,0,0,0,0,0,0,-1,748,1681,0,0
-469,-657,0,0,0,0,0,0,0,0,0,-1,755,1681,0,0
-462,-657,0,0,0,0,0,0,0,0,0,-1,762,1681,0,0
-455,-657,0,0,0,0,0,0,0,0,0,-1,769,1681,0,0
-448,-657,0,0,0,0,0,0,0,0,0,-1,776,1681,0,0
-441,-657,0,0,0,0,0,0,0,0,0,-1,783,1681,0,0
-434,-657,0,0,0,0,0,0,0,0,0,-1,790,1681,0,0
-427,-657,0,0,0,0,0,0,0,0,0,-1,797,1681,0,0
-420,-657,0,0,0,0,0,0,0,0,0,-1,804,1681,0,0
-413,-657,0,0,0,0,0,0,0,0,0,-1,811,1681,0,0
-406,-657,0,0,0,0,0,0,0,0,0,-1,818,1681,0,0
-399,-657,0,0,0,0,0,0,0,0,0,-1,825,1681,0,0
-392,-657,0,0,0,0,0,0,0,0,0,-1,832,1681,0,0
-385,-657,1.09814,6.18896,0,0,0,0,0,0,0,-1,839,1681,1.09814,-6.18894
-378,-657,0.31488,4.46753,0,0,0,0,0,0,0,-1,846,1681,0.31487,-4.46755
-371,-657,-0.519043,2.69421,0,0,0,0,0,0,0,-1,853,1681,-0.519064,-2.69422
-364,-657,-3.42017,4.18323,0,0,0,0,0,0,0,-1,860,1681,-3.42019,-4.18319
-357,-657,-4.41913,2.97168,0,0,0,0,0,0,0,-1,867,1681,-4.41913,-2.97165
-350,-657,-5.42291,1.70276,0,0,0,0,0,0,0,-1,874,1681,-5.42291,-1.70277
-343,-657,-6.51294,0.397339,0,0,0,0,0,0,0,-1,881,1681,-6.51295,-0.397335
-336,-657,3.52148,10.3204,0,0,0,0,0,0,0,-1,888,1681,3.52147,-10.3204
-329,-657,3.46869,11.6112,0,0,0,0,0,0,0,-1,895,1681,3.46867,-11.6112
-322,-657,3.58087,11.8778,-0.00565217,-0.0127786,-0.00790817,-0.000541537,-0.0178892,-0.573733,0.0117498,0.0467139,902,1681,3.58085,-11.8778
-315,-657,3.69287,12.1882,-0.005636,-0.0129207,-0.00991376,0.00128336,-0.01984,-0.609352,0.0136746,0.0445161,909,1681,3.69284,-12.1882
-308,-657,3.79059,12.4846,-0.00566636,-0.0127419,-0.0111899,0.00253172,-0.02094,-0.632291,0.0148759,0.0369001,916,1681,3.79057,-12.4846
-301,-657,3.77759,12.6755,-0.00527249,-0.0125767,-0.0118391,0.00346501,-0.0213142,-0.63579,0.0154941,0.0279866,923,1681,3.77756,-12.6755
-294,-657,3.76233,12.8571,-0.004946,-0.011589,-0.0118019,0.00399284,-0.0205278,-0.648227,0.0151921,0.0166445,930,1681,3.7623,-12.857
-287,-657,3.76355,13.0605,-0.00460132,-0.0104576,-0.0111368,0.00398585,-0.0190447,-0.656846,0.0142126,0.0111677,937,1681,3.76357,-13.0605
-280,-657,3.75342,13.2463,-0.00416892,-0.00921091,-0.010133,0.00375197,-0.0171318,-0.663478,0.0128557,0.0122016,944,1681,3.7534,-13.2463
-273,-657,3.76263,13.4307,-0.00354243,-0.00768707,-0.00877393,0.00340059,-0.0146301,-0.669428,0.0110625,0.0094142,951,1681,3.76265,-13.4307
-266,-657,3.7533,13.6167,-0.00289807,-0.00638146,-0.00741862,0.00298056,-0.0122601,-0.670099,0.00932704,0.0147086,958,1681,3.75327,-13.6167
-259,-657,3.73254,13.8088,-0.00223547,-0.00504409,-0.00590303,0.002428,-0.00970755,-0.668621,0.00741475,0.0192271,965,1681,3.73252,-13.8088
-252,-657,3.73645,13.9833,-0.00155908,-0.00377975,-0.00439808,0.00186665,-0.00720548,-0.661753,0.00553187,0.0128462,972,1681,3.73644,-13.9832
-245,-657,3.75171,14.1584,-0.000771763,-0.00310429,-0.00297393,0.00125641,-0.00513246,-0.598532,0.00390835,0.0147413,979,1681,3.75169,-14.1584
-238,-657,3.76379,14.3278,-0.000180885,-0.00221804,-0.00174726,0.000823013,-0.00322194,-0.521501,0.00246846,0.0196287,986,1681,3.76377,-14.3278
-231,-657,3.76849,14.5428,0.000286695,-0.00196213,-0.000587455,0.000430907,-0.00210634,-0.240725,0.00156773,0.0203694,993,1681,3.76849,-14.5428
-224,-657,3.75562,14.7306,0.000704268,-0.00222446,0.000334483,0.000741983,-0.00226218,0.112281,0.00180696,0.0159353,1000,1681,3.75559,-14.7306
-217,-657,3.74707,14.8942,0.00104429,-0.00238369,0.000925086,0.001278,-0.0026174,0.247461,0.0022929,0.0098254,1007,1681,3.74708,-14.8942
-210,-657,3.74658,15.0627,0.00142906,-0.00250753,0.00144144,0.00190043,-0.00297889,0.316047,0.00283992,0.00972642,1014,1681,3.74656,-15.0628
-203,-657,3.76575,15.2249,0.00218726,-0.00316877,0.00238928,0.00309818,-0.00407968,0.36424,0.00415703,0.0118723,1021,1681,3.76578,-15.2248
-196,-657,3.78406,15.3708,0.00295153,-0.00386925,0.00351625,0.00443958,-0.00535731,0.40034,0.0056645,0.0126441,1028,1681,3.78401,-15.3709
-189,-657,3.78235,15.5256,0.0036749,-0.00452875,0.00483551,0.00591399,-0.00676784,0.433653,0.00732738,0.00965297,1035,1681,3.78233,-15.5257
-182,-657,3.77734,15.6672,0.00471234,-0.00440961,0.00635091,0.00797036,-0.00766763,0.473993,0.00902916,0.00842852,1042,1681,3.77739,-15.6673
-175,-657,3.80176,15.8092,0.00601555,-0.00469881,0.0079172,0.0102177,-0.00890099,0.487957,0.0110469,0.0101645,1049,1681,3.80172,-15.8092
-168,-657,3.79285,15.9513,0.00741957,-0.00487606,0.00953945,0.0126206,-0.0100771,0.499162,0.0131319,0.0118235,1056,1681,3.7928,-15.9513
-161,-657,3.78979,16.0815,0.00908721,-0.00525586,0.011365,0.0153542,-0.0115229,0.50394,0.0155699,0.0112722,1063,1681,3.78976,-16.0815
-154,-657,3.81409,16.2162,0.0108685,-0.00563836,0.0131631,0.0181517,-0.0129216,0.505376,0.0180247,0.0111388,1070,1681,3.81403,-16.2161
-147,-657,3.82275,16.3318,0.012673,-0.00607044,0.0147769,0.0207995,-0.0141969,0.5028,0.0203247,0.0163016,1077,1681,3.82273,-16.3318
-140,-657,3.73718,16.4749,0.0145452,-0.006259,0.0163144,0.0234916,-0.0152054,0.501593,0.0225118,0.0272058,1084,1681,3.73718,-16.4748
-133,-657,3.60657,16.5236,0.0164481,-0.00669945,0.0176899,0.026014,-0.0162653,0.495716,0.0246253,0.0338843,1091,1681,3.6066,-16.5236
-126,-657,4.10974,16.6012,0.0183562,-0.0073681,0.0188484,0.0283128,-0.0173247,0.48599,0.0266022,0.0400415,1098,1681,4.1097,-16.6012
-119,-657,4.15173,16.7898,0.0200659,-0.0076371,0.0197237,0.0303161,-0.0178872,0.479272,0.0281369,0.0499339,1105,1681,4.15178,-16.7897
-112,-657,4.18872,17.0762,0,0,0,0,0,0,0,-1,1112,1681,4.18873,-17.0762
-105,-657,3.82434,14.4906,0,0,0,0,0,0,0,-1,1119,1681,3.8244,-14.4906
-98,-657,3.78662,8.16785,0,0,0,0,0,0,0,-1,1126,1681,3.78663,-8.16786
-91,-657,4.71997,15.3668,0,0,0,0,0,0,0,-1,1133,1681,4.71998,-15.3669
-84,-657,4.08008,10.4579,0,0,0,0,0,0,0,-1,1140,1681,4.08006,-10.4579
-77,-657,-5.29846,0.396606,0,0,0,0,0,0,0,-1,1147,1681,-5.29842,-0.396573
-70,-657,-4.14893,2.14575,0,0,0,0,0,0,0,-1,1154,1681,-4.14893,-2.1458
-63,-657,-4.1239,3.177,0,0,0,0,0,0,0,-1,1161,1681,-4.12391,-3.17698
-56,-657,-6.40576,5.73987,0,0,0,0,0,0,0,-1,1168,1681,-6.40577,-5.7399
-49,-657,-5.98462,7.54053,0,0,0,0,0,0,0,-1,1175,1681,-5.98466,-7.5405
-42,-657,-5.71948,9.28955,0,0,0,0,0,0,0,-1,1182,1681,-5.71951,-9.2895
-35,-657,-5.44556,11.015,0,0,0,0,0,0,0,-1,1189,1681,-5.44555,-11.015
-28,-657,-1.3446,8.92847,0,0,0,0,0,0,0,-1,1196,1681,-1.34459,-8.92848
-21,-657,4.56323,15.0341,0,0,0,0,0,0,0,-1,1203,1681,4.56321,-15.034
-14,-657,4.30652,15.8735,0,0,0,0,0,0,0,-1,1210,1681,4.30646,-15.8736
-7,-657,3.93274,16.8667,-0.0347027,0.0394782,0.025626,0.0474698,-0.0426944,1.2685,0.0520807,0.0464785,1217,1681,3.93278,-16.8667
0,-657,3.52808,17.6996,-0.0257661,0.0424243,0.0214149,0.0485917,-0.0319335,1.29039,0.0468217,0.0441399,1224,1681,3.52811,-17.6995
7,-657,3.33215,18.4279,-0.014954,0.0519298,0.0141515,0.0548008,-0.0178249,1.37064,0.0437044,0.0446171,1231,1681,3.33216,-18.4278
14,-657,3.9281,17.0018,0,0,0,0,0,0,0,-1,1238,1681,3.92814,-17.0018
21,-657,2.43616,20.8281,0.0194834,0.0818047,-0.00722167,0.0826306,0.0186575,-1.45693,0.050041,0.0462291,1245,1681,2.43613,-20.8281
28,-657,1.98767,21.5153,0,0,0,0,0,0,0,-1,1252,1681,1.98761,-21.5153
35,-657,1.52197,22.2034,0,0,0,0,0,0,0,-1,1259,1681,1.52202,-22.2034
42,-657,0.855225,22.8492,0.061647,0.109859,-0.025462,0.120816,0.0506901,-1.16442,0.0700534,0.0425192,1266,1681,0.855264,-22.8493
49,-657,4.74194,15.7449,0.073623,0.11507,-0.0281584,0.129309,0.0593843,-1.10263,0.0747391,0.0486351,1273,1681,4.742,-15.7449
56,-657,4.39551,15.7168,0.0848735,0.118071,-0.028781,0.134696,0.0682477,-1.04696,0.0777693,0.0490734,1280,1681,4.39551,-15.7169
63,-657,4.099,15.8103,0,0,0,0,0,0,0,-1,1287,1681,4.09903,-15.8103
70,-657,4.86255,20.9827,0,0,0,0,0,0,0,-1,1294,1681,4.86258,-20.9827
77,-657,5.46265,20.5031,0.0986155,0.101587,-0.0141462,0.114325,0.0858772,-0.837718,0.0687256,0.0465231,1301,1681,5.46269,-20.503
84,-657,6.10083,20.0355,0.0940858,0.0832579,-0.000263906,0.0940923,0.0832515,-0.0243534,0.059445,0.047597,1308,1681,6.10087,-20.0355
91,-657,6.75195,19.6324,0.0897504,0.0667055,0.0127343,0.0954015,0.0610544,0.417657,0.0557949,0.0486855,1315,1681,6.75198,-19.6324
98,-657,7.36987,18.9154,0.0846626,0.0509412,0.0259155,0.0987194,0.0368843,0.496998,0.0575993,0.0466172,1322,1681,7.36993,-18.9154
105,-657,8.61511,18.6033,0.0829799,0.0350195,0.0370751,0.103154,0.0148453,0.498337,0.0643939,0.0446932,1329,1681,8.61509,-18.6032
112,-657,9.19519,18.2162,0.0826764,0.0268283,0.045455,0.108099,0.00140535,0.509956,0.0716024,0.0413093,1336,1681,9.19513,-18.2162
119,-657,8.75244,18.259,0.0793178,0.0182934,0.053585,0.110469,-0.0128576,0.526584,0.0782845,0.0463047,1343,1681,8.75238,-18.259
126,-657,8.51538,18.2277,0.0786125,0.00686115,0.0611292,0.113616,-0.0281423,0.520039,0.0866615,0.0451127,1350,1681,8.51535,-18.2277
133,-657,8.45911,18.1781,0.0813962,0.00762413,0.0638323,0.118234,-0.0292133,0.523408,0.090152,0.0456264,1357,1681,8.45912,-18.1781
140,-657,5.64563,15.7324,0,0,0,0,0,0,0,-1,1364,1681,5.64562,-15.7324
147,-657,11.4882,12.0732,0,0,0,0,0,0,0,-1,1371,1681,11.4882,-12.0732
154,-657,12.9612,11.3459,0,0,0,0,0,0,0,-1,1378,1681,12.9611,-11.3459
161,-657,12.8524,6.43372,0,0,0,0,0,0,0,-1,1385,1681,12.8524,-6.43366
168,-657,5.21643,0.70105,0,0,0,0,0,0,0,-1,1392,1681,5.21648,-0.7011
175,-657,5.52771,0.649048,0,0,0,0,0,0,0,-1,1399,1681,5.52774,-0.649019
182,-657,5.73999,1.02612,0,0,0,0,0,0,0,-1,1406,1681,5.73995,-1.02611
189,-657,5.92126,1.44116,0,0,0,0,0,0,0,-1,1413,1681,5.92126,-1.44115
196,-657,4.92834,9.59021,0,0,0,0,0,0,0,-1,1420,1681,4.9284,-9.59018
203,-657,6.26343,5.16492,0,0,0,0,0,0,0,-1,1427,1681,6.26345,-5.16488
210,-657,3.9856,5.28088,0,0,0,0,0,0,0,-1,1434,1681,3.98555,-5.28084
217,-657,3.95178,5.2843,0,0,0,0,0,0,0,-1,1441,1681,3.95174,-5.28431
224,-657,6.66736,-0.250244,0,0,0,0,0,0,0,-1,1448,1681,6.66737,0.250229
231,-657,6.85498,-1.70752,0,0,0,0,0,0,0,-1,1455,1681,6.855,1.70758
238,-657,5.34143,-2.89819,0,0,0,0,0,0,0,-1,1462,1681,5.34143,2.89813
245,-657,8.66003,-0.102783,0,0,0,0,0,0,0,-1,1469,1681,8.66,0.102824
252,-657,4.78955,0.623779,0,0,0,0,0,0,0,-1,1476,1681,4.7895,-0.623826
259,-657,2.61523,4.31909,0,0,0,0,0,0,0,-1,1483,1681,2.61523,-4.31908
266,-657,5.35437,11.4742,0,0,0,0,0,0,0,-1,1490,1681,5.35441,-11.4742
273,-657,5.82605,16.5175,0,0,0,0,0,0,0,-1,1497,1681,5.82609,-16.5174
280,-657,5.78735,16.6019,0.0101261,-0.00959398,-0.00126631,0.010207,-0.00967496,-0.0638647,0.0114803,0.038321,1504,1681,5.7874,-16.602
287,-657,5.97253,16.6586,0.00913071,-0.00816734,-0.00110957,0.00920159,-0.00823822,-0.0637958,0.010074,0.0325673,1511,1681,5.97248,-16.6585
294,-657,6.01575,16.6302,0.00798857,-0.0069379,-0.000771446,0.00802833,-0.00697766,-0.0515002,0.00867079,0.0252462,1518,1681,6.01576,-16.6303
301,-657,5.98889,16.5341,0.00684698,-0.00569327,-0.000535557,0.00686981,-0.0057161,-0.0426036,0.00727664,0.0160881,1525,1681,5.98893,-16.534
308,-657,6.03357,16.4064,0.00577546,-0.00449258,-0.000395091,0.00579064,-0.00450776,-0.0384021,0.00596114,0.0116869,1532,1681,6.03361,-16.4064
315,-657,6.06348,16.2831,0.0047082,-0.0034954,-0.000182916,0.00471228,-0.00349947,-0.0222823,0.00475826,0.0105916,1539,1681,6.06348,-16.2831
322,-657,6.06787,16.1272,0.00377992,-0.00266484,-1.84949e-05,0.00377998,-0.00266489,-0.00286973,0.00373946,0.0129903,1546,1681,6.0679,-16.1272
329,-657,6.0564,15.9733,0.00304106,-0.0019925,0.000162862,0.00304632,-0.00199776,0.0323101,0.0029331,0.0187896,1553,1681,6.05641,-15.9733
336,-657,6.05225,15.8712,0.00233162,-0.0013922,0.000378099,0.00236962,-0.0014302,0.100173,0.00221606,0.0165029,1560,1681,6.05222,-15.8712
343,-657,6.07861,15.7396,0.00157,-0.000956444,0.000634325,0.00172032,-0.00110676,0.232683,0.00164498,0.01302,1567,1681,6.07858,-15.7396
350,-657,6.09106,15.5529,0.00110639,-0.000538763,0.000675052,0.00134792,-0.000780295,0.343605,0.00124321,0.0138847,1574,1681,6.09104,-15.5529
357,-657,6.08813,15.4022,0.000885413,-0.000181208,0.000576706,0.0011376,-0.000433398,0.412236,0.0009369,0.0127611,1581,1681,6.08819,-15.4022
364,-657,6.0874,15.2804,0.000747245,0.000512838,0.000311165,0.000962549,0.000297535,0.605286,0.000569067,0.00976646,1588,1681,6.08743,-15.2804
371,-657,6.09326,15.1355,0.000655534,0.00112686,7.59398e-05,0.0011388,0.000643601,1.41493,0.000659343,0.014068,1595,1681,6.09323,-15.1355
378,-657,6.06836,14.9635,0.000688828,0.00182512,-0.00029961,0.00189927,0.000614669,-1.32815,0.00111905,0.014469,1602,1681,6.06836,-14.9635
385,-657,6.05774,14.8099,0.00068498,0.00282447,-0.000918231,0.00316451,0.000344937,-1.21613,0.00200461,0.013062,1609,1681,6.05769,-14.8099
392,-657,6.05505,14.6675,0.000418688,0.00407436,-0.00152568,0.00462743,-0.000134377,-1.22303,0.00313071,0.0128473,1616,1681,6.05506,-14.6675
399,-657,6.06506,14.5004,0.00011565,0.00516905,-0.00206631,0.00590637,-0.000621672,-1.22805,0.00416032,0.0126742,1623,1681,6.06507,-14.5004
406,-657,6.06787,14.3325,-0.000119241,0.0060112,-0.00225135,0.00674916,-0.0008572,-1.25405,0.0048107,0.0147788,1630,1681,6.06782,-14.3325
413,-657,6.07007,14.1399,-0.000182415,0.00626455,-0.00235913,0.0070356,-0.000953468,-1.2549,0.00503839,0.0140307,1637,1681,6.07001,-14.1399
420,-657,6.08057,13.936,-0.000232076,0.00577276,-0.00217847,0.00647983,-0.00093914,-1.25695,0.00466455,0.0147892,1644,1681,6.08057,-13.936
427,-657,6.05969,13.7148,-0.000192088,0.00483337,-0.00171177,0.00536103,-0.000719748,-1.27178,0.00383651,0.0186978,1651,1681,6.05972,-13.7149
434,-657,6.06641,13.5093,-5.24803e-05,0.00304264,-0.00100917,0.00334261,-0.000352449,-1.28187,0.0023547,0.0269805,1658,1681,6.06645,-13.5093
441,-657,5.97583,13.3627,0.000371267,0.000128243,0.000177571,0.000464921,3.45884e-05,0.485342,0.000299085,0.0432056,1665,1681,5.97581,-13.3627
448,-657,5.55969,13.4974,0,0,0,0,0,0,0,-1,1672,1681,5.55964,-13.4975
455,-657,5.18506,13.619,0,0,0,0,0,0,0,-1,1679,1681,5.18502,-13.619
462,-657,5.97876,13.9303,0,0,0,0,0,0,0,-1,1686,1681,5.97874,-13.9303
469,-657,6.12622,13.5551,0,0,0,0,0,0,0,-1,1693,1681,6.12625,-13.555
476,-657,8.37659,10.886,0,0,0,0,0,0,0,-1,1700,1681,8.37653,-10.886
483,-657,7.65344,7.35059,0,0,0,0,0,0,0,-1,1707,1681,7.65347,-7.3506
490,-657,3.58337,10.4789,0,0,0,0,0,0,0,-1,1714,1681,3.58338,-10.4789
497,-657,4.08655,10.1487,0,0,0,0,0,0,0,-1,1721,1681,4.08655,-10.1487
504,-657,0,0,0,0,0,0,0,0,0,-1,1728,1681,0,0
511,-657,0,0,0,0,0,0,0,0,0,-1,1735,1681,0,0
518,-657,0,0,0,0,0,0,0,0,0,-1,1742,1681,0,0
525,-657,0,0,0,0,0,0,0,0,0,-1,1749,1681,0,0
532,-657,0,0,0,0,0,0,0,0,0,-1,1756,1681,0,0
539,-657,0,0,0,0,0,0,0,0,0,-1,1763,1681,0,0
546,-657,0,0,0,0,0,0,0,0,0,-1,1770,1681,0,0
553,-657,0,0,0,0,0,0,0,0,0,-1,1777,1681,0,0
560,-657,0,0,0,0,0,0,0,0,0,-1,1784,1681,0,0
567,-657,0,0,0,0,0,0,0,0,0,-1,1791,1681,0,0
574,-657,0,0,0,0,0,0,0,0,0,-1,1798,1681,0,0
581,-657,0,0,0,0,0,0,0,0,0,-1,1805,1681,0,0
588,-657,0,0,0,0,0,0,0,0,0,-1,1812,1681,0,0
595,-657,0,0,0,0,0,0,0,0,0,-1,1819,1681,0,0
602,-657,0,0,0,0,0,0,0,0,0,-1,1826,1681,0,0
609,-657,0,0,0,0,0,0,0,0,0,-1,1833,1681,0,0
616,-657,0,0,0,0,0,0,0,0,0,-1,1840,1681,0,0
623,-657,0,0,0,0,0,0,0,0,0,-1,1847,1681,0,0
630,-657,0,0,0,0,0,0,0,0,0,-1,1854,1681,0,0
637,-657,0,0,0,0,0,0,0,0,0,-1,1861,1681,0,0
644,-657,0,0,0,0,0,0,0,0,0,-1,1868,1681,0,0
651,-657,0,0,0,0,0,0,0,0,0,-1,1875,1681,0,0
658,-657,0,0,0,0,0,0,0,0,0,-1,1882,1681,0,0
665,-657,0,0,0,0,0,0,0,0,0,-1,1889,1681,0,0
672,-657,0,0,0,0,0,0,0,0,0,-1,1896,1681,0,0
679,-657,0,0,0,0,0,0,0,0,0,-1,1903,1681,0,0
686,-657,0,0,0,0,0,0,0,0,0,-1,1910,1681,0,0
693,-657,0,0,0,0,0,0,0,0,0,-1,1917,1681,0,0
700,-657,0,0,0,0,0,0,0,0,0,-1,1924,1681,0,0
707,-657,0,0,0,0,0,0,0,0,0,-1,1931,1681,0,0
714,-657,0,0,0,0,0,0,0,0,0,-1,1938,1681,0,0
721,-657,0,0,0,0,0,0,0,0,0,-1,1945,1681,0,0
728,-657,0,0,0,0,0,0,0,0,0,-1,1952,1681,0,0
735,-657,0,0,0,0,0,0,0,0,0,-1,1959,1681,0,0
742,-657,0,0,0,0,0,0,0,0,0,-1,1966,1681,0,0
749,-657,0,0,0,0,0,0,0,0,0,-1,1973,1681,0,0
756,-657,0,0,0,0,0,0,0,0,0,-1,1980,1681,0,0
763,-657,0,0,0,0,0,0,0,0,0,-1,1987,1681,0,0
770,-657,0,0,0,0,0,0,0,0,0,-1,1994,1681,0,0
777,-657,0,0,0,0,0,0,0,0,0,-1,2001,1681,0,0
784,-657,0,0,0,0,0,0,0,0,0,-1,2008,1681,0,0
791,-657,0,0,0,0,0,0,0,0,0,-1,2015,1681,0,0
798,-657,0,0,0,0,0,0,0,0,0,-1,2022,1681,0,0
805,-657,0,0,0,0,0,0,0,0,0,-1,2029,1681,0,0
812,-657,0,0,0,0,0,0,0,0,0,-1,2036,1681,0,0
-700,-664,0,0,0,0,0,0,0,0,0,-1,524,1688,0,0
-693,-664,0,0,0,0,0,0,0,0,0,-1,531,1688,0,0
-686,-664,0,0,0,0,0,0,0,0,0,-1,538,1688,0,0
-679,-664,0,0,0,0,0,0,0,0,0,-1,545,1688,0,0
-672,-664,0,0,0,0,0,0,0,0,0,-1,552,1688,0,0
-665,-664,0,0,0,0,0,0,0,0,0,-1,559,1688,0,0
-658,-664,0,0,0,0,0,0,0,0,0,-1,566,1688,0,0
-651,-664,0,0,0,0,0,0,0,0,0,-1,573,1688,0,0
-644,-664,0,0,0,0,0,0,0,0,0,-1,580,1688,0,0
-637,-664,0,0,0,0,0,0,0,0,0,-1,587,1688,0,0
-630,-664,0,0,0,0,0,0,0,0,0,-1,594,1688,0,0
-623,-664,0,0,0,0,0,0,0,0,0,-1,601,1688,0,0
-616,-664,0,0,0,0,0,0,0,0,0,-1,608,1688,0,0
-609,-664,0,0,0,0,0,0,0,0,0,-1,615,1688,0,0
-602,-664,0,0,0,0,0,0,0,0,0,-1,622,1688,0,0
-595,-664,0,0,0,0,0,0,0,0,0,-1,629,1688,0,0
-588,-664,0,0,0,0,0,0,0,0,0,-1,636,1688,0,0
-581,-664,0,0,0,0,0,0,0,0,0,-1,643,1688,0,0
-574,-664,0,0,0,0,0,0,0,0,0,-1,650,1688,0,0
-567,-664,0,0,0,0,0,0,0,0,0,-1,657,1688,0,0
-560,-664,0,0,0,0,0,0,0,0,0,-1,664,1688,0,0
-553,-664,0,0,0,0,0,0,0,0,0,-1,671,1688,0,0
-546,-664,0,0,0,0,0,0,0,0,0,-1,678,1688,0,0
-539,-664,0,0,0,0,0,0,0,0,0,-1,685,1688,0,0
-532,-664,0,0,0,0,0,0,0,0,0,-1,692,1688,0,0
-525,-664,0,0,0,0,0,0,0,0,0,-1,699,1688,0,0
-518,-664,0,0,0,0,0,0,0,0,0,-1,706,1688,0,0
-511,-664,0,0,0,0,0,0,0,0,0,-1,713,1688,0,0
-504,-664,0,0,0,0,0,0,0,0,0,-1,720,1688,0,0
-497,-664,0,0,0,0,0,0,0,0,0,-1,727,1688,0,0
-490,-664,0,0,0,0,0,0,0,0,0,-1,734,1688,0,0
-483,-664,0,0,0,0,0,0,0,0,0,-1,741,1688,0,0
-476,-664,0,0,0,0,0,0,0,0,0,-1,748,1688,0,0
-469,-664,0,0,0,0,0,0,0,0,0,-1,755,1688,0,0
-462,-664,0,0,0,0,0,0,0,0,0,-1,762,1688,0,0
-455,-664,0,0,0,0,0,0,0,0,0,-1,769,1688,0,0
-448,-664,0,0,0,0,0,0,0,0,0,-1,776,1688,0,0
-441,-664,0,0,0,0,0,0,0,0,0,-1,783,1688,0,0
-434,-664,0,0,0,0,0,0,0,0,0,-1,790,1688,0,0
-427,-664,0,0,0,0,0,0,0,0,0,-1,797,1688,0,0
-420,-664,0,0,0,0,0,0,0,0,0,-1,804,1688,0,0
-413,-664,0,0,0,0,0,0,0,0,0,-1,811,1688,0,0
-406,-664,0,0,0,0,0,0,0,0,0,-1,818,1688,0,0
-399,-664,0,0,0,0,0,0,0,0,0,-1,825,1688,0,0
-392,-664,0,0,0,0,0,0,0,0,0,-1,832,1688,0,0
-385,-664,0,0,0,0,0,0,0,0,0,-1,839,1688,0,0
-378,-664,0,0,0,0,0,0,0,0,0,-1,846,1688,0,0
-371,-664,-1.61676,5.92737,0,0,0,0,0,0,0,-1,853,1688,-1.61675,-5.92735
-364,-664,-3.901,5.87024,0,0,0,0,0,0,0,-1,860,1688,-3.90097,-5.87027
-357,-664,-4.81012,4.53479,0,0,0,0,0,0,0,-1,867,1688,-4.81012,-4.5348
-350,-664,-5.7193,3.19934,0,0,0,0,0,0,0,-1,874,1688,-5.71927,-3.19932
-343,-664,-6.37476,1.54712,0,0,0,0,0,0,0,-1,881,1688,-6.37479,-1.54714
-336,-664,3.33313,10.5156,0,0,0,0,0,0,0,-1,888,1688,3.33311,-10.5156
-329,-664,3.43506,10.6934,0,0,0,0,0,0,0,-1,895,1688,3.43506,-10.6934
-322,-664,3.7356,11.8364,0,0,0,0,0,0,0,-1,902,1688,3.73561,-11.8365
-315,-664,3.83936,12.1499,0,0,0,0,0,0,0,-1,909,1688,3.83938,-12.1499
-308,-664,6.1618,15.9562,0,0,0,0,0,0,0,-1,916,1688,6.16183,-15.9562
-301,-664,4.37634,12.6754,-0.00763036,-0.01714,-0.0179758,0.00620887,-0.0309792,-0.656104,0.0230034,0.0434599,923,1688,4.37637,-12.6754
-294,-664,4.0119,12.8019,-0.0071576,-0.0158575,-0.0176287,0.00664994,-0.029665,-0.664438,0.0223259,0.0413992,930,1688,4.01188,-12.8019
-287,-664,4.08301,13.0773,-0.00659337,-0.0142714,-0.0165173,0.00652516,-0.02739,-0.671213,0.0207794,0.0298561,937,1688,4.08301,-13.0773
-280,-664,3.94,13.2579,-0.00596479,-0.0124649,-0.0149217,0.00605669,-0.0244864,-0.678169,0.0186735,0.0191288,944,1688,3.94002,-13.2579
-273,-664,3.96527,13.4137,-0.00512233,-0.0103043,-0.0128163,0.00536225,-0.0207889,-0.685661,0.01595,0.0149989,951,1688,3.96527,-13.4137
-266,-664,3.93512,13.6,-0.00427444,-0.00846839,-0.0107275,0.00455915,-0.017302,-0.688877,0.0133171,0.0219597,958,1688,3.93509,-13.6
-259,-664,3.90173,13.7999,-0.00342289,-0.0066665,-0.00850507,0.00361362,-0.013703,-0.691186,0.0105483,0.0184499,965,1688,3.90175,-13.7999
-252,-664,3.93018,13.9877,-0.00258671,-0.00499953,-0.00636163,0.00268189,-0.0102681,-0.691692,0.00789276,0.0161824,972,1688,3.9302,-13.9877
-245,-664,3.92657,14.1725,-0.00165517,-0.00386904,-0.0043924,0.00176763,-0.00729184,-0.661963,0.00554516,0.0198836,979,1688,3.92657,-14.1725
-238,-664,3.94745,14.3491,-0.00094619,-0.00236565,-0.00266292,0.00109996,-0.0044118,-0.655164,0.00336826,0.0227576,986,1688,3.94743,-14.3492
-231,-664,3.94971,14.5253,-0.000347411,-0.00171321,-0.000964581,0.000151539,-0.00221216,-0.477369,0.00152779,0.0199874,993,1688,3.9497,-14.5253
-224,-664,3.93896,14.7321,0.000146966,-0.00160464,0.000278308,0.000190122,-0.0016478,0.153841,0.00116708,0.0136364,1000,1688,3.93895,-14.732
-217,-664,3.91742,14.9156,0.000505477,-0.00166083,0.000824448,0.00078355,-0.0019389,0.325302,0.0016183,0.00973635,1007,1688,3.9174,-14.9157
-210,-664,3.90637,15.0703,0.000875675,-0.00163786,0.00133036,0.00144902,-0.0022112,0.406917,0.00212845,0.0107366,1014,1688,3.90639,-15.0703
-203,-664,3.91174,15.2177,0.00146237,-0.00202734,0.00204086,0.00240259,-0.00296756,0.431715,0.00310617,0.0129298,1021,1688,3.91169,-15.2176
-196,-664,3.93164,15.3611,0.00203133,-0.00246183,0.00281816,0.0033888,-0.0038193,0.448888,0.00416407,0.0131898,1028,1688,3.93167,-15.3611
-189,-664,3.93469,15.5292,0.00253302,-0.00285775,0.00367704,0.00439677,-0.0047215,0.469122,0.00526555,0.0091443,1035,1688,3.93465,-15.5291
-182,-664,3.92664,15.6683,0.00326573,-0.00269109,0.00463591,0.00579754,-0.00522291,0.499868,0.00636555,0.00917437,1042,1688,3.92658,-15.6684
-175,-664,3.95203,15.7754,0.00423158,-0.00283114,0.00563969,0.00735429,-0.00595385,0.505681,0.00769763,0.012312,1049,1688,3.95199,-15.7753
-168,-664,3.94385,15.922,0.00523028,-0.00293806,0.00661491,0.00892027,-0.00662805,0.508834,0.00900928,0.0135818,1056,1688,3.94383,-15.922
-161,-664,3.92603,16.069,0.0064246,-0.00321317,0.00775055,0.0107322,-0.00752076,0.50727,0.0105926,0.0101231,1063,1688,3.926,-16.069
-154,-664,3.95093,16.2048,0.0077109,-0.00351365,0.00885941,0.0125861,-0.00838883,0.50306,0.0121904,0.0095745,1070,1688,3.95094,-16.2049
-147,-664,3.96802,16.3363,0.00901156,-0.00390219,0.00981304,0.0143015,-0.00919211,0.494413,0.0136705,0.0108253,1077,1688,3.968,-16.3363
-140,-664,3.98816,16.4628,0.0103444,-0.00414112,0.0106201,0.0159564,-0.00975311,0.486132,0.0149867,0.0111244,1084,1688,3.98819,-16.4628
-133,-664,4.00623,16.5834,0.0117159,-0.00465767,0.011328,0.0175058,-0.0104476,0.472498,0.0163095,0.011971,1091,1688,4.00624,-16.5834
-126,-664,4.11401,16.6812,0.013137,-0.00524294,0.0120374,0.0190915,-0.0111974,0.459371,0.0176842,0.0218528,1098,1688,4.11406,-16.6812
-119,-664,4.30518,16.6656,0.0144454,-0.00548709,0.0125573,0.0205107,-0.0115524,0.449966,0.018751,0.0353918,1105,1688,4.30523,-16.6657
-112,-664,4.55554,16.6697,0.0155581,-0.00629255,0.0127079,0.0213915,-0.0121259,0.430341,0.0195962,0.0441035,1112,1688,4.55551,-16.6697
-105,-664,4.61902,16.5939,0,0,0,0,0,0,0,-1,1119,1688,4.61896,-16.5939
-98,-664,4.70508,15.6824,0,0,0,0,0,0,0,-1,1126,1688,4.7051,-15.6824
-91,-664,4.59192,15.8905,0,0,0,0,0,0,0,-1,1133,1688,4.59189,-15.8905
-84,-664,4.62073,15.5514,0,0,0,0,0,0,0,-1,1140,1688,4.6207,-15.5513
-77,-664,4.52014,11.2122,0,0,0,0,0,0,0,-1,1147,1688,4.5202,-11.2122
-70,-664,4.20374,8.24524,0,0,0,0,0,0,0,-1,1154,1688,4.20379,-8.24519
-63,-664,-4.677,2.40503,0,0,0,0,0,0,0,-1,1161,1688,-4.67702,-2.40498
-56,-664,-4.66504,3.32727,0,0,0,0,0,0,0,-1,1168,1688,-4.6651,-3.32724
-49,-664,-2.54297,3.31848,0,0,0,0,0,0,0,-1,1175,1688,-2.54297,-3.31852
-42,-664,-0.359253,4.38684,0,0,0,0,0,0,0,-1,1182,1688,-0.359261,-4.38685
-35,-664,-0.705566,3.55017,0,0,0,0,0,0,0,-1,1189,1688,-0.705567,-3.55023
-28,-664,-1.54236,10.2538,0,0,0,0,0,0,0,-1,1196,1688,-1.54236,-10.2538
-21,-664,4.25073,21.5817,0,0,0,0,0,0,0,-1,1203,1688,4.25078,-21.5816
-14,-664,3.80383,18.436,0,0,0,0,0,0,0,-1,1210,1688,3.80377,-18.4361
-7,-664,4.07947,17.918,-0.0209693,0.0317699,0.0144684,0.0354784,-0.0246778,1.31988,0.0349173,0.048526,1217,1688,4.07945,-17.918
0,-664,4.15198,17.2722,-0.0141357,0.0361734,0.0105215,0.0382851,-0.0162475,1.37272,0.0323301,0.0446805,1224,1688,4.15193,-17.2722
7,-664,3.74878,17.5715,0,0,0,0,0,0,0,-1,1231,1688,3.74881,-17.5716
14,-664,4.16675,17.2604,0,0,0,0,0,0,0,-1,1238,1688,4.16672,-17.2603
21,-664,4.58459,16.9491,0,0,0,0,0,0,0,-1,1245,1688,4.58462,-16.9491
28,-664,2.05591,21.4928,0,0,0,0,0,0,0,-1,1252,1688,2.05586,-21.4928
35,-664,1.59265,22.1725,0,0,0,0,0,0,0,-1,1259,1688,1.59264,-22.1725
42,-664,4.70251,16.1276,0.0520184,0.0896989,-0.0260151,0.102979,0.0387379,-1.09879,0.0600599,0.0437878,1266,1688,4.70256,-16.1275
49,-664,4.70288,16.1796,0.0616558,0.0941304,-0.0279602,0.110226,0.0455601,-1.04846,0.0639569,0.0467016,1273,1688,4.70288,-16.1796
56,-664,4.43848,16.2795,0.070679,0.0961205,-0.0278393,0.114008,0.0527918,-0.999701,0.0658822,0.0477007,1280,1688,4.43842,-16.2795
63,-664,3.76575,16.5204,0.0770703,0.094717,-0.0258426,0.113201,0.0585863,-0.949907,0.06537,0.049389,1287,1688,3.76579,-16.5204
70,-664,3.02246,16.7139,0,0,0,0,0,0,0,-1,1294,1688,3.02241,-16.7138
77,-664,4.94653,20.4913,0.0811601,0.0809502,-0.0130372,0.0940928,0.0680176,-0.781373,0.0560947,0.0442898,1301,1688,4.94659,-20.4913
84,-664,5.50098,20.1766,0.0779613,0.0662391,-0.0013576,0.0781164,0.066084,-0.113808,0.0485662,0.0446725,1308,1688,5.50092,-20.1766
91,-664,6.17358,19.8186,0.0746243,0.0526824,0.00961141,0.078239,0.0490677,0.35972,0.0456556,0.0446196,1315,1688,6.17359,-19.8185
98,-664,6.6687,19.5865,0,0,0,0,0,0,0,-1,1322,1688,6.66869,-19.5866
105,-664,7.43335,18.0597,0,0,0,0,0,0,0,-1,1329,1688,7.43334,-18.0597
112,-664,7.62585,18.197,0.068774,0.0188309,0.0376707,0.0889982,-0.00139336,0.492706,0.059802,0.0444609,1336,1688,7.62582,-18.1971
119,-664,7.77917,18.375,0.065887,0.0115668,0.0444021,0.0907771,-0.0133232,0.510915,0.065413,0.0465007,1343,1688,7.77914,-18.375
126,-664,7.96326,18.5334,0,0,0,0,0,0,0,-1,1350,1688,7.96321,-18.5335
133,-664,5.8418,15.9452,0,0,0,0,0,0,0,-1,1357,1688,5.84179,-15.9452
140,-664,5.58154,16.134,0,0,0,0,0,0,0,-1,1364,1688,5.5815,-16.1341
147,-664,5.32117,16.3229,0,0,0,0,0,0,0,-1,1371,1688,5.32121,-16.3229
154,-664,13.5482,5.89453,0,0,0,0,0,0,0,-1,1378,1688,13.5482,-5.8945
161,-664,4.60132,1.56238,0,0,0,0,0,0,0,-1,1385,1688,4.60134,-1.56233
168,-664,5.172,1.25488,0,0,0,0,0,0,0,-1,1392,1688,5.17203,-1.25484
175,-664,5.58313,1.16467,0,0,0,0,0,0,0,-1,1399,1688,5.58317,-1.16466
182,-664,5.74268,1.41113,0,0,0,0,0,0,0,-1,1406,1688,5.74263,-1.41115
189,-664,5.87744,1.87061,0,0,0,0,0,0,0,-1,1413,1688,5.87745,-1.87065
196,-664,6.7594,5.97473,0,0,0,0,0,0,0,-1,1420,1688,6.75943,-5.97478
203,-664,5.38452,5.22034,0,0,0,0,0,0,0,-1,1427,1688,5.38453,-5.2203
210,-664,5.25549,6.45715,0,0,0,0,0,0,0,-1,1434,1688,5.25549,-6.45721
217,-664,5.72009,6.73975,0,0,0,0,0,0,0,-1,1441,1688,5.72014,-6.73972
224,-664,5.05725,7.42908,0,0,0,0,0,0,0,-1,1448,1688,5.05723,-7.42912
231,-664,5.13318,7.60864,0,0,0,0,0,0,0,-1,1455,1688,5.13313,-7.60862
238,-664,4.23193,6.45471,0,0,0,0,0,0,0,-1,1462,1688,4.23197,-6.45476
245,-664,4.42004,6.80896,0,0,0,0,0,0,0,-1,1469,1688,4.4201,-6.80901
252,-664,3.67346,6.85461,0,0,0,0,0,0,0,-1,1476,1688,3.6734,-6.85462
259,-664,4.55823,11.7435,0,0,0,0,0,0,0,-1,1483,1688,4.55826,-11.7435
266,-664,5.82349,16.8256,0,0,0,0,0,0,0,-1,1490,1688,5.82347,-16.8256
273,-664,5.82483,16.8319,0.00773032,-0.00864682,-0.000724007,0.00776227,-0.00867877,-0.0440937,0.00949715,0.0331732,1497,1688,5.82485,-16.8319
280,-664,5.8092,16.8068,0.00737283,-0.00758735,-0.000701613,0.00740567,-0.00762018,-0.0467619,0.00867547,0.0217142,1504,1688,5.80924,-16.8068
287,-664,5.79004,16.7113,0.00682971,-0.00640999,-0.000734916,0.00687038,-0.00645066,-0.0552822,0.00769218,0.0203647,1511,1688,5.78999,-16.7113
294,-664,5.85974,16.6196,0.00602005,-0.00542439,-0.000530108,0.00604455,-0.00544889,-0.0461883,0.00663871,0.0139854,1518,1688,5.85978,-16.6196
301,-664,5.90186,16.5134,0.00514084,-0.00441705,-0.000374747,0.00515551,-0.00443172,-0.0391281,0.00554045,0.00992699,1525,1688,5.9018,-16.5135
308,-664,5.92236,16.3854,0.0042612,-0.0034558,-0.000243649,0.00426888,-0.00346349,-0.0315312,0.00447235,0.0104459,1532,1688,5.92234,-16.3854
315,-664,5.93018,16.2701,0.00337112,-0.00265691,-4.28496e-05,0.00337143,-0.00265722,-0.0071079,0.00348877,0.0113888,1539,1688,5.93015,-16.2701
322,-664,5.94702,16.1287,0.00254368,-0.00196973,0.000147796,0.00254851,-0.00197456,0.0326994,0.0026184,0.0150485,1546,1688,5.94707,-16.1286
329,-664,5.92578,15.9894,0.00186552,-0.00142541,0.000359207,0.00190427,-0.00146416,0.107465,0.00195029,0.0173737,1553,1688,5.92584,-15.9894
336,-664,5.92261,15.8691,0.00128202,-0.000895293,0.000546727,0.00141159,-0.00102487,0.232704,0.00141258,0.0144381,1560,1688,5.92255,-15.8691
343,-664,5.94104,15.7523,0.000687725,-0.000416083,0.000729195,0.00105033,-0.000778686,0.461457,0.00105986,0.0112878,1567,1688,5.94109,-15.7523
350,-664,5.95093,15.5802,0.000345263,-7.45084e-06,0.00074919,0.000938573,-0.000600761,0.669804,0.00089584,0.012875,1574,1688,5.9509,-15.5802
357,-664,5.93823,15.4131,0.000257382,0.000400261,0.000604155,0.000937186,-0.000279543,0.844248,0.000735888,0.0118377,1581,1688,5.93821,-15.4131
364,-664,5.93396,15.2717,0.000290744,0.00128842,0.000203499,0.00132834,0.000250833,1.37713,0.000814917,0.0103775,1588,1688,5.934,-15.2717
371,-664,5.94727,15.1368,0.000354051,0.00203683,-0.000142426,0.0020488,0.000342081,-1.48695,0.00126732,0.0141161,1595,1688,5.94722,-15.1369
378,-664,5.9259,14.9767,0.000587608,0.0029753,-0.000697643,0.00316419,0.000398713,-1.30637,0.00198992,0.0133553,1602,1688,5.92595,-14.9767
385,-664,5.90356,14.8352,0.000770895,0.00424569,-0.00150858,0.00480924,0.000207347,-1.21329,0.00313933,0.0128686,1609,1688,5.90357,-14.8352
392,-664,5.90051,14.6842,0.000636071,0.0058638,-0.00232836,0.00675044,-0.000250569,-1.20695,0.0045861,0.0149007,1616,1688,5.90048,-14.6842
399,-664,5.89661,14.5004,0.000362015,0.00726458,-0.00301052,0.0083931,-0.000766504,-1.21215,0.00586761,0.013926,1623,1688,5.89655,-14.5004
406,-664,5.91467,14.3234,0.00013178,0.00843566,-0.00334188,0.00961352,-0.00104608,-1.23194,0.00678464,0.0135782,1630,1688,5.91461,-14.3234
413,-664,5.93604,14.1199,5.77196e-05,0.00902301,-0.00362323,0.0103042,-0.00122348,-1.23091,0.0073115,0.0134172,1637,1688,5.93606,-14.1198
420,-664,5.94958,13.9174,-0.000117007,0.00878221,-0.00352839,0.0100114,-0.00134618,-1.23558,0.00716526,0.0272622,1644,1688,5.9496,-13.9174
427,-664,5.97339,13.7019,-0.000191864,0.00793702,-0.00308104,0.00897282,-0.00122766,-1.24648,0.00643029,0.043364,1651,1688,5.97336,-13.7019
434,-664,6.02356,13.3514,-0.000274089,0.00613422,-0.00229406,0.0068708,-0.00101066,-1.26012,0.00495192,0.0439167,1658,1688,6.02355,-13.3515
441,-664,5.66736,13.0903,-0.000117697,0.00276849,-0.000752362,0.00295284,-0.000302046,-1.3305,0.00207658,0.0494638,1665,1688,5.66735,-13.0903
448,-664,5.56213,12.8922,0,0,0,0,0,0,0,-1,1672,1688,5.56219,-12.8922
455,-664,4.82117,14.3458,0,0,0,0,0,0,0,-1,1679,1688,4.82118,-14.3458
462,-664,4.3147,4.25439,0,0,0,0,0,0,0,-1,1686,1688,4.31467,-4.25435
469,-664,6.05469,7.49341,0,0,0,0,0,0,0,-1,1693,1688,6.05474,-7.49339
476,-664,9.76514,11.5648,0,0,0,0,0,0,0,-1,1700,1688,9.76511,-11.5648
483,-664,8.41895,10.9768,0,0,0,0,0,0,0,-1,1707,1688,8.41897,-10.9769
490,-664,6.82959,10.4489,0,0,0,0,0,0,0,-1,1714,1688,6.82961,-10.4488
497,-664,0,0,0,0,0,0,0,0,0,-1,1721,1688,0,0
504,-664,0,0,0,0,0,0,0,0,0,-1,1728,1688,0,0
511,-664,0,0,0,0,0,0,0,0,0,-1,1735,1688,0,0
518,-664,0,0,0,0,0,0,0,0,0,-1,1742,1688,0,0
525,-664,0,0,0,0,0,0,0,0,0,-1,1749,1688,0,0
532,-664,0,0,0,0,0,0,0,0,0,-1,1756,1688,0,0
539,-664,0,0,0,0,0,0,0,0,0,-1,1763,1688,0,0
546,-664,0,0,0,0,0,0,0,0,0,-1,1770,1688,0,0
553,-664,0,0,0,0,0,0,0,0,0,-1,1777,1688,0,0
560,-664,0,0,0,0,0,0,0,0,0,-1,1784,1688,0,0
567,-664,0,0,0,0,0,0,0,0,0,-1,1791,1688,0,0
574,-664,0,0,0,0,0,0,0,0,0,-1,1798,1688,0,0
581,-664,0,0,0,0,0,0,0,0,0,-1,1805,1688,0,0
588,-664,0,0,0,0,0,0,0,0,0,-1,1812,1688,0,0
595,-664,0,0,0,0,0,0,0,0,0,-1,1819,1688,0,0
602,-664,0,0,0,0,0,0,0,0,0,-1,1826,1688,0,0
609,-664,0,0,0,0,0,0,0,0,0,-1,1833,1688,0,0
616,-664,0,0,0,0,0,0,0,0,0,-1,1840,1688,0,0
623,-664,0,0,0,0,0,0,0,0,0,-1,1847,1688,0,0
630,-664,0,0,0,0,0,0,0,0,0,-1,1854,1688,0,0
637,-664,0,0,0,0,0,0,0,0,0,-1,1861,1688,0,0
644,-664,0,0,0,0,0,0,0,0,0,-1,1868,1688,0,0
651,-664,0,0,0,0,0,0,0,0,0,-1,1875,1688,0,0
658,-664,0,0,0,0,0,0,0,0,0,-1,1882,1688,0,0
665,-664,0,0,0,0,0,0,0,0,0,-1,1889,1688,0,0
672,-664,0,0,0,0,0,0,0,0,0,-1,1896,1688,0,0
679,-664,0,0,0,0,0,0,0,0,0,-1,1903,1688,0,0
686,-664,0,0,0,0,0,0,0,0,0,-1,1910,1688,0,0
693,-664,0,0,0,0,0,0,0,0,0,-1,1917,1688,0,0
700,-664,0,0,0,0,0,0,0,0,0,-1,1924,1688,0,0
707,-664,0,0,0,0,0,0,0,0,0,-1,1931,1688,0,0
714,-664,0,0,0,0,0,0,0,0,0,-1,1938,1688,0,0
721,-664,0,0,0,0,0,0,0,0,0,-1,1945,1688,0,0
728,-664,0,0,0,0,0,0,0,0,0,-1,1952,1688,0,0
735,-664,0,0,0,0,0,0,0,0,0,-1,1959,1688,0,0
742,-664,0,0,0,0,0,0,0,0,0,-1,1966,1688,0,0
749,-664,0,0,0,0,0,0,0,0,0,-1,1973,1688,0,0
756,-664,0,0,0,0,0,0,0,0,0,-1,1980,1688,0,0
763,-664,0,0,0,0,0,0,0,0,0,-1,1987,1688,0,0
770,-664,0,0,0,0,0,0,0,0,0,-1,1994,1688,0,0
777,-664,0,0,0,0,0,0,0,0,0,-1,2001,1688,0,0
784,-664,0,0,0,0,0,0,0,0,0,-1,2008,1688,0,0
791,-664,0,0,0,0,0,0,0,0,0,-1,2015,1688,0,0
798,-664,0,0,0,0,0,0,0,0,0,-1,2022,1688,0,0
805,-664,0,0,0,0,0,0,0,0,0,-1,2029,1688,0,0
812,-664,0,0,0,0,0,0,0,0,0,-1,2036,1688,0,0
-700,-671,0,0,0,0,0,0,0,0,0,-1,524,1695,0,0
-693,-671,0,0,0,0,0,0,0,0,0,-1,531,1695,0,0
-686,-671,0,0,0,0,0,0,0,0,0,-1,538,1695,0,0
-679,-671,0,0,0,0,0,0,0,0,0,-1,545,1695,0,0
-672,-671,0,0,0,0,0,0,0,0,0,-1,552,1695,0,0
-665,-671,0,0,0,0,0,0,0,0,0,-1,559,1695,0,0
-658,-671,0,0,0,0,0,0,0,0,0,-1,566,1695,0,0
-651,-671,0,0,0,0,0,0,0,0,0,-1,573,1695,0,0
-644,-671,0,0,0,0,0,0,0,0,0,-1,580,1695,0,0
-637,-671,0,0,0,0,0,0,0,0,0,-1,587,1695,0,0
-630,-671,0,0,0,0,0,0,0,0,0,-1,594,1695,0,0
-623,-671,0,0,0,0,0,0,0,0,0,-1,601,1695,0,0
-616,-671,0,0,0,0,0,0,0,0,0,-1,608,1695,0,0
-609,-671,0,0,0,0,0,0,0,0,0,-1,615,1695,0,0
-602,-671,0,0,0,0,0,0,0,0,0,-1,622,1695,0,0
-595,-671,0,0,0,0,0,0,0,0,0,-1,629,1695,0,0
-588,-671,0,0,0,0,0,0,0,0,0,-1,636,1695,0,0
-581,-671,0,0,0,0,0,0,0,0,0,-1,643,1695,0,0
-574,-671,0,0,0,0,0,0,0,0,0,-1,650,1695,0,0
-567,-671,0,0,0,0,0,0,0,0,0,-1,657,1695,0,0
-560,-671,0,0,0,0,0,0,0,0,0,-1,664,1695,0,0
-553,-671,0,0,0,0,0,0,0,0,0,-1,671,1695,0,0
-546,-671,0,0,0,0,0,0,0,0,0,-1,678,1695,0,0
-539,-671,0,0,0,0,0,0,0,0,0,-1,685,1695,0,0
-532,-671,0,0,0,0,0,0,0,0,0,-1,692,1695,0,0
-525,-671,0,0,0,0,0,0,0,0,0,-1,699,1695,0,0
-518,-671,0,0,0,0,0,0,0,0,0,-1,706,1695,0,0
-511,-671,0,0,0,0,0,0,0,0,0,-1,713,1695,0,0
-504,-671,0,0,0,0,0,0,0,0,0,-1,720,1695,0,0
-497,-671,0,0,0,0,0,0,0,0,0,-1,727,1695,0,0
-490,-671,0,0,0,0,0,0,0,0,0,-1,734,1695,0,0
-483,-671,0,0,0,0,0,0,0,0,0,-1,741,1695,0,0
-476,-671,0,0,0,0,0,0,0,0,0,-1,748,1695,0,0
-469,-671,0,0,0,0,0,0,0,0,0,-1,755,1695,0,0
-462,-671,0,0,0,0,0,0,0,0,0,-1,762,1695,0,0
-455,-671,0,0,0,0,0,0,0,0,0,-1,769,1695,0,0
-448,-671,0,0,0,0,0,0,0,0,0,-1,776,1695,0,0
-441,-671,0,0,0,0,0,0,0,0,0,-1,783,1695,0,0
-434,-671,0,0,0,0,0,0,0,0,0,-1,790,1695,0,0
-427,-671,0,0,0,0,0,0,0,0,0,-1,797,1695,0,0
-420,-671,0,0,0,0,0,0,0,0,0,-1,804,1695,0,0
-413,-671,0,0,0,0,0,0,0,0,0,-1,811,1695,0,0
-406,-671,0,0,0,0,0,0,0,0,0,-1,818,1695,0,0
-399,-671,0,0,0,0,0,0,0,0,0,-1,825,1695,0,0
-392,-671,0,0,0,0,0,0,0,0,0,-1,832,1695,0,0
-385,-671,0,0,0,0,0,0,0,0,0,-1,839,1695,0,0
-378,-671,0,0,0,0,0,0,0,0,0,-1,846,1695,0,0
-371,-671,0,0,0,0,0,0,0,0,0,-1,853,1695,0,0
-364,-671,-4.18738,7.51416,0,0,0,0,0,0,0,-1,860,1695,-4.18739,-7.51419
-357,-671,-5.02393,6.07129,0,0,0,0,0,0,0,-1,867,1695,-5.0239,-6.07135
-350,-671,-5.72333,4.58386,0,0,0,0,0,0,0,-1,874,1695,-5.72333,-4.58386
-343,-671,-6.4884,3.11353,0,0,0,0,0,0,0,-1,881,1695,-6.48839,-3.11349
-336,-671,-7.30127,1.64417,0,0,0,0,0,0,0,-1,888,1695,-7.30127,-1.64414
-329,-671,3.58337,10.6238,0,0,0,0,0,0,0,-1,895,1695,3.58338,-10.6238
-322,-671,3.75763,10.859,0,0,0,0,0,0,0,-1,902,1695,3.75766,-10.8591
-315,-671,5.38397,16.6119,0,0,0,0,0,0,0,-1,909,1695,5.38395,-16.612
-308,-671,5.46997,15.9274,0,0,0,0,0,0,0,-1,916,1695,5.46998,-15.9273
-301,-671,4.44397,14.0221,0,0,0,0,0,0,0,-1,923,1695,4.44398,-14.0221
-294,-671,4.52155,13.8759,-0.0100087,-0.0208706,-0.0254184,0.0105525,-0.0414318,-0.680149,0.0317291,0.047372,930,1695,4.52152,-13.8758
-287,-671,4.38129,13.7241,-0.00914667,-0.0187714,-0.0237025,0.010227,-0.0381451,-0.685244,0.0294373,0.0442824,937,1695,4.3813,-13.7241
-280,-671,4.18756,13.3945,-0.00824724,-0.0163324,-0.0213204,0.00941049,-0.0339901,-0.691705,0.0263628,0.0389327,944,1695,4.18753,-13.3945
-273,-671,4.20593,13.4392,-0.00709184,-0.013403,-0.0181748,0.00819924,-0.0286941,-0.699443,0.0223691,0.0342186,951,1695,4.20593,-13.4392
-266,-671,4.18616,13.6968,-0.00593997,-0.0109457,-0.0150487,0.00681257,-0.0236982,-0.702994,0.0184928,0.0239669,958,1695,4.18616,-13.6967
-259,-671,4.05701,13.8783,-0.00480539,-0.00862295,-0.0118547,0.00529319,-0.0187215,-0.705576,0.0145695,0.0221493,965,1695,4.05699,-13.8783
-252,-671,4.10333,14.0044,-0.00372601,-0.0065182,-0.00885039,0.00383772,-0.0140819,-0.707171,0.0108949,0.0167105,972,1695,4.10335,-14.0044
-245,-671,4.09265,14.201,-0.00258507,-0.00492914,-0.00617591,0.00252903,-0.0100432,-0.691626,0.00767861,0.0191473,979,1695,4.09266,-14.201
-238,-671,4.10474,14.3818,-0.00170226,-0.00285851,-0.00382261,0.00158569,-0.00614646,-0.710347,0.00471592,0.019816,986,1695,4.10476,-14.3818
-231,-671,4.11761,14.5443,-0.000894568,-0.00183285,-0.00143072,0.000141967,-0.00286938,-0.62697,0.00196196,0.0157315,993,1695,4.11759,-14.5443
-224,-671,4.08875,14.7203,-0.000258957,-0.0013693,0.000225794,-0.000214797,-0.00141346,0.19314,0.000879492,0.0121657,1000,1695,4.08872,-14.7204
-217,-671,4.08398,14.9027,0.000134408,-0.00138509,0.000718082,0.000420059,-0.00167074,0.378606,0.00127708,0.0109814,1007,1695,4.08395,-14.9027
-210,-671,4.06647,15.05,0.000494245,-0.00127398,0.0012134,0.00111146,-0.00189119,0.470559,0.00175296,0.0108228,1014,1695,4.06647,-15.0501
-203,-671,4.04883,15.1698,0.000948272,-0.00145775,0.00171075,0.00183664,-0.00234612,0.47896,0.00242089,0.0183193,1021,1695,4.04888,-15.1698
-196,-671,4.06274,15.3458,0.00136727,-0.00168025,0.00217717,0.00250094,-0.00281392,0.480075,0.00307031,0.0149081,1028,1695,4.06274,-15.3459
-189,-671,4.09216,15.5557,0.00170018,-0.00186641,0.00266136,0.00312047,-0.00328671,0.490221,0.0036996,0.0106115,1035,1695,4.09211,-15.5557
-182,-671,4.06824,15.6758,0.00219149,-0.00166642,0.00320732,0.00400523,-0.00348016,0.514666,0.00432523,0.00902765,1042,1695,4.06828,-15.6758
-175,-671,4.07043,15.7898,0.00290181,-0.00167681,0.00380522,0.00505329,-0.0038283,0.514592,0.00514402,0.0122702,1049,1695,4.07042,-15.7898
-168,-671,4.0752,15.9227,0.00358921,-0.00173538,0.00433137,0.00601106,-0.00415723,0.509835,0.0059031,0.0131922,1056,1695,4.07517,-15.9227
-161,-671,4.07971,16.0737,0.00442614,-0.00189888,0.00501278,0.00719064,-0.00466338,0.503987,0.00689557,0.00919139,1063,1695,4.07971,-16.0737
-154,-671,4.08813,16.2096,0.00535038,-0.00211047,0.00569216,0.0084256,-0.00518569,0.495331,0.00793234,0.00870977,1070,1695,4.08811,-16.2096
-147,-671,4.11023,16.3529,0.00628892,-0.0024455,0.00625114,0.00954728,-0.00570386,0.480496,0.00889796,0.0101273,1077,1695,4.11028,-16.3529
-140,-671,4.12329,16.4795,0.00725343,-0.00272377,0.00666867,0.0105929,-0.00606327,0.464267,0.00973427,0.0109119,1084,1695,4.12331,-16.4795
-133,-671,4.1239,16.6047,0.00823302,-0.00325194,0.00700472,0.0115483,-0.00656718,0.442048,0.0105899,0.0128024,1091,1695,4.12396,-16.6047
-126,-671,4.15869,16.735,0.00927192,-0.00377694,0.00741731,0.012626,-0.00713101,0.424677,0.0115528,0.0158736,1098,1695,4.15872,-16.7349
-119,-671,4.21594,16.8201,0.0102674,-0.00402266,0.00773407,0.0136517,-0.00740699,0.412483,0.0123352,0.0272803,1105,1695,4.2159,-16.8201
-112,-671,4.32678,16.924,0.0110775,-0.00472681,0.00775738,0.0142487,-0.0078981,0.388077,0.0129605,0.0345864,1112,1695,4.32678,-16.924
-105,-671,4.50671,16.9471,0.0116107,-0.00512209,0.00798178,0.0148074,-0.0083188,0.380938,0.013526,0.0429621,1119,1695,4.50666,-16.9471
-98,-671,4.21399,16.9009,0,0,0,0,0,0,0,-1,1126,1695,4.214,-16.9009
-91,-671,4.25879,16.7971,0,0,0,0,0,0,0,-1,1133,1695,4.25878,-16.7971
-84,-671,4.37024,16.8589,0,0,0,0,0,0,0,-1,1140,1695,4.3702,-16.8589
-77,-671,4.31763,16.489,0,0,0,0,0,0,0,-1,1147,1695,4.31757,-16.489
-70,-671,3.06067,10.7737,0,0,0,0,0,0,0,-1,1154,1695,3.0607,-10.7737
-63,-671,2.94592,6.90198,0,0,0,0,0,0,0,-1,1161,1695,2.94594,-6.90198
-56,-671,-3.07678,2.87976,0,0,0,0,0,0,0,-1,1168,1695,-3.07675,-2.87979
-49,-671,-1.05957,4.76917,0,0,0,0,0,0,0,-1,1175,1695,-1.05958,-4.76921
-42,-671,0.539307,3.7865,0,0,0,0,0,0,0,-1,1182,1695,0.539266,-3.78648
-35,-671,-0.272461,0.347534,0,0,0,0,0,0,0,-1,1189,1695,-0.272434,-0.347569
-28,-671,-10.4878,17.2009,0,0,0,0,0,0,0,-1,1196,1695,-10.4878,-17.2009
-21,-671,-0.834595,17.8727,0,0,0,0,0,0,0,-1,1203,1695,-0.8346,-17.8727
-14,-671,4.03992,17.9277,0,0,0,0,0,0,0,-1,1210,1695,4.03992,-17.9277
-7,-671,4.3457,17.822,-0.011114,0.0239895,0.0065628,0.0251763,-0.0123008,1.39189,0.022059,0.0499515,1217,1695,4.34568,-17.8221
0,-671,4.81116,17.5713,-0.00601807,0.0290546,0.0030816,0.0293233,-0.00628677,1.48382,0.0219467,0.0435901,1224,1695,4.81115,-17.5713
7,-671,4.57861,17.7363,-0.00119756,0.0337057,-0.000867812,0.0337273,-0.00121913,-1.54595,0.0229021,0.042874,1231,1695,4.57855,-17.7364
14,-671,4.43127,17.5726,0.00715192,0.0382363,-0.00593406,0.0393306,0.00605763,-1.38844,0.0244526,0.0446522,1238,1695,4.43123,-17.5727
21,-671,4.69312,17.228,0.0178554,0.0520048,-0.0139043,0.0569499,0.0129103,-1.22909,0.0344785,0.0456836,1245,1695,4.69308,-17.2281
28,-671,5.06543,17.0468,0,0,0,0,0,0,0,-1,1252,1695,5.06544,-17.0468
35,-671,3.28162,16.3357,0,0,0,0,0,0,0,-1,1259,1695,3.28165,-16.3357
42,-671,3.84155,16.1985,0,0,0,0,0,0,0,-1,1266,1695,3.84152,-16.1985
49,-671,5.33557,18.9882,0,0,0,0,0,0,0,-1,1273,1695,5.33552,-18.9882
56,-671,4.41589,16.8379,0.0566972,0.0751172,-0.0251423,0.0926833,0.0391311,-0.960966,0.0537262,0.0439991,1280,1695,4.41584,-16.8379
63,-671,4.16943,17.0491,0.0615408,0.0734643,-0.0228672,0.0911342,0.0438709,-0.912915,0.0526285,0.0491088,1287,1695,4.16941,-17.0491
70,-671,4.38281,17.2788,0,0,0,0,0,0,0,-1,1294,1695,4.38286,-17.2788
77,-671,3.82593,17.05,0,0,0,0,0,0,0,-1,1301,1695,3.82597,-17.0501
84,-671,5.06213,20.2834,0,0,0,0,0,0,0,-1,1308,1695,5.06214,-20.2835
91,-671,5.46814,19.9907,0.0602802,0.0405497,0.00686675,0.0624347,0.0383952,0.304037,0.0363629,0.0472113,1315,1695,5.4681,-19.9907
98,-671,5.86133,19.7329,0.0565749,0.028704,0.016521,0.0642529,0.021026,0.435044,0.0378273,0.0449208,1322,1695,5.86133,-19.7329
105,-671,6.078,19.2164,0,0,0,0,0,0,0,-1,1329,1695,6.07803,-19.2164
112,-671,6.41357,18.6265,0.0557231,0.0128408,0.0300897,0.0712294,-0.0026655,0.47584,0.0483993,0.0425683,1336,1695,6.41354,-18.6265
119,-671,6.8158,18.3009,0.053307,0.00682746,0.0355334,0.0725256,-0.0123911,0.495798,0.0529661,0.0460534,1343,1695,6.81579,-18.3009
126,-671,6.01563,17.762,0,0,0,0,0,0,0,-1,1350,1695,6.01562,-17.7619
133,-671,5.90466,17.4166,0,0,0,0,0,0,0,-1,1357,1695,5.90461,-17.4167
140,-671,5.61084,16.7222,0.0547534,-0.00315336,0.0446956,0.079054,-0.027454,0.497988,0.0638527,0.0488081,1364,1695,5.61082,-16.7222
147,-671,5.29919,16.693,0.0572956,0.000337777,0.0449718,0.0820474,-0.024414,0.503139,0.0643978,0.0485699,1371,1695,5.29915,-16.693
154,-671,5.05212,16.8368,0,0,0,0,0,0,0,-1,1378,1695,5.05216,-16.8367
161,-671,4.49292,4.91272,0,0,0,0,0,0,0,-1,1385,1695,4.49297,-4.91273
168,-671,5.17639,6.1416,0,0,0,0,0,0,0,-1,1392,1695,5.1764,-6.14164
175,-671,5.6731,1.64685,0,0,0,0,0,0,0,-1,1399,1695,5.67313,-1.64691
182,-671,5.56812,1.71692,0,0,0,0,0,0,0,-1,1406,1695,5.56809,-1.71686
189,-671,6.98315,6.36169,0,0,0,0,0,0,0,-1,1413,1695,6.98312,-6.36175
196,-671,5.38123,5.69775,0,0,0,0,0,0,0,-1,1420,1695,5.38125,-5.69769
203,-671,5.95117,8.11658,0,0,0,0,0,0,0,-1,1427,1695,5.9512,-8.11662
210,-671,4.73596,8.39624,0,0,0,0,0,0,0,-1,1434,1695,4.736,-8.39618
217,-671,5.37097,11.863,0,0,0,0,0,0,0,-1,1441,1695,5.37094,-11.863
224,-671,5.08167,13.6694,0,0,0,0,0,0,0,-1,1448,1695,5.08165,-13.6695
231,-671,5.66663,15.3348,0,0,0,0,0,0,0,-1,1455,1695,5.66667,-15.3349
238,-671,6.32959,16.2036,0,0,0,0,0,0,0,-1,1462,1695,6.32961,-16.2037
245,-671,5.95264,15.9324,0,0,0,0,0,0,0,-1,1469,1695,5.95259,-15.9324
252,-671,5.74243,16.9255,0,0,0,0,0,0,0,-1,1476,1695,5.74238,-16.9255
259,-671,5.66479,16.8409,0,0,0,0,0,0,0,-1,1483,1695,5.66478,-16.8409
266,-671,5.70776,17.0073,0.00564098,-0.00730363,-2.04901e-05,0.00564101,-0.00730366,-0.0015829,0.00749413,0.023293,1490,1695,5.7078,-17.0073
273,-671,5.73914,16.9661,0.00552412,-0.00668357,-9.08813e-05,0.0055248,-0.00668425,-0.00744404,0.00705948,0.00934793,1497,1695,5.7391,-16.9661
280,-671,5.729,16.8723,0.00529569,-0.00586278,-0.000186546,0.00529881,-0.0058659,-0.0167117,0.00644872,0.00908023,1504,1695,5.72905,-16.8723
287,-671,5.72754,16.7283,0.00488942,-0.00488557,-0.00030795,0.00489912,-0.00489526,-0.0314622,0.00565478,0.0108726,1511,1695,5.72757,-16.7283
294,-671,5.7417,16.5979,0.00426084,-0.00399228,-0.000264402,0.0042693,-0.00400074,-0.0319929,0.00477555,0.0106997,1518,1695,5.74173,-16.5979
301,-671,5.75916,16.4969,0.00352424,-0.00307499,-0.000230987,0.00353231,-0.00308306,-0.0349452,0.00382232,0.0102863,1525,1695,5.75916,-16.497
308,-671,5.76611,16.3961,0.00275587,-0.00223208,-0.0001531,0.00276057,-0.00223677,-0.0306555,0.0028905,0.0118331,1532,1695,5.76606,-16.3961
315,-671,5.78967,16.2754,0.00200334,-0.00155432,1.18269e-06,0.00200334,-0.00155432,0.000332433,0.00205946,0.0132444,1539,1695,5.78971,-16.2753
322,-671,5.79565,16.1385,0.00125664,-0.000975468,0.000199867,0.0012744,-0.000993224,0.0886026,0.00131256,0.015218,1546,1695,5.7957,-16.1385
329,-671,5.76221,16.0143,0.000670342,-0.000568956,0.000449073,0.000815959,-0.000714572,0.313563,0.000884298,0.0139011,1553,1695,5.76216,-16.0142
336,-671,5.77258,15.8807,0.000236295,-0.00014255,0.000632255,0.000706893,-0.000613148,0.639854,0.000762767,0.0109878,1560,1695,5.77263,-15.8807
343,-671,5.79004,15.7401,-0.000186032,0.000305318,0.000772759,0.000870514,-0.000751228,0.939305,0.000937157,0.0101963,1567,1695,5.78999,-15.7401
350,-671,5.80652,15.5629,-0.000387179,0.000638604,0.000815455,0.00108905,-0.000837627,1.06612,0.00111552,0.0103283,1574,1695,5.80653,-15.5629
357,-671,5.78772,15.4025,-0.000309804,0.00103558,0.000669976,0.0013123,-0.000586523,1.17911,0.00112266,0.00954517,1581,1695,5.78776,-15.4025
364,-671,5.77368,15.2605,-7.14123e-05,0.00206486,0.000181602,0.00208019,-8.67402e-05,1.48659,0.00141659,0.0118139,1588,1695,5.77365,-15.2605
371,-671,5.77014,15.1333,0.00018059,0.00285201,-0.000243012,0.00287393,0.000158664,-1.48081,0.00186532,0.014402,1595,1695,5.77016,-15.1333
378,-671,5.77344,14.9841,0.000626593,0.0040787,-0.000988689,0.00434181,0.000363484,-1.31071,0.0027813,0.0119296,1602,1695,5.77347,-14.9842
385,-671,5.76978,14.8164,0.00101784,0.00569972,-0.00202613,0.00645478,0.00026278,-1.21408,0.00421832,0.0130021,1609,1695,5.7698,-14.8163
392,-671,5.73584,14.7068,0.00105045,0.00780492,-0.00312093,0.00902615,-0.000170785,-1.19781,0.00607516,0.0194556,1616,1695,5.73586,-14.7067
399,-671,5.70618,14.4844,0.000871001,0.00969323,-0.00405042,0.0112708,-0.000706527,-1.1994,0.00776008,0.0170253,1623,1695,5.70613,-14.4844
406,-671,5.73657,14.2711,0.000715573,0.0114222,-0.00467366,0.0131753,-0.00103752,-1.21194,0.00914902,0.0225196,1630,1695,5.73659,-14.2712
413,-671,5.70703,14.1447,0.000677711,0.0126503,-0.00531829,0.0146715,-0.00134348,-1.20761,0.0102582,0.0324425,1637,1695,5.707,-14.1447
420,-671,5.59534,13.8928,0.000336777,0.0130235,-0.00548745,0.0150677,-0.00170737,-1.21421,0.0106599,0.0483398,1644,1695,5.59538,-13.8928
427,-671,5.9054,13.7814,0,0,0,0,0,0,0,-1,1651,1695,5.9054,-13.7813
434,-671,6.00586,13.3743,0,0,0,0,0,0,0,-1,1658,1695,6.00589,-13.3742
441,-671,5.38086,13.0054,0,0,0,0,0,0,0,-1,1665,1695,5.38082,-13.0053
448,-671,5.27502,11.249,0,0,0,0,0,0,0,-1,1672,1695,5.27497,-11.249
455,-671,3.40137,9.28076,0,0,0,0,0,0,0,-1,1679,1695,3.40135,-9.28082
462,-671,5.86255,4.47961,0,0,0,0,0,0,0,-1,1686,1695,5.8625,-4.4796
469,-671,3.71301,3.76978,0,0,0,0,0,0,0,-1,1693,1695,3.71297,-3.76974
476,-671,3.75574,3.18848,0,0,0,0,0,0,0,-1,1700,1695,3.7558,-3.18847
483,-671,7.81824,12.1041,0,0,0,0,0,0,0,-1,1707,1695,7.81826,-12.1041
490,-671,0,0,0,0,0,0,0,0,0,-1,1714,1695,0,0
497,-671,0,0,0,0,0,0,0,0,0,-1,1721,1695,0,0
504,-671,0,0,0,0,0,0,0,0,0,-1,1728,1695,0,0
511,-671,0,0,0,0,0,0,0,0,0,-1,1735,1695,0,0
518,-671,0,0,0,0,0,0,0,0,0,-1,1742,1695,0,0
525,-671,0,0,0,0,0,0,0,0,0,-1,1749,1695,0,0
532,-671,0,0,0,0,0,0,0,0,0,-1,1756,1695,0,0
539,-671,0,0,0,0,0,0,0,0,0,-1,1763,1695,0,0
546,-671,0,0,0,0,0,0,0,0,0,-1,1770,1695,0,0
553,-671,0,0,0,0,0,0,0,0,0,-1,1777,1695,0,0
560,-671,0,0,0,0,0,0,0,0,0,-1,1784,1695,0,0
567,-671,0,0,0,0,0,0,0,0,0,-1,1791,1695,0,0
574,-671,0,0,0,0,0,0,0,0,0,-1,1798,1695,0,0
581,-671,0,0,0,0,0,0,0,0,0,-1,1805,1695,0,0
588,-671,0,0,0,0,0,0,0,0,0,-1,1812,1695,0,0
595,-671,0,0,0,0,0,0,0,0,0,-1,1819,1695,0,0
602,-671,0,0,0,0,0,0,0,0,0,-1,1826,1695,0,0
609,-671,0,0,0,0,0,0,0,0,0,-1,1833,1695,0,0
616,-671,0,0,0,0,0,0,0,0,0,-1,1840,1695,0,0
623,-671,0,0,0,0,0,0,0,0,0,-1,1847,1695,0,0
630,-671,0,0,0,0,0,0,0,0,0,-1,1854,1695,0,0
637,-671,0,0,0,0,0,0,0,0,0,-1,1861,1695,0,0
644,-671,0,0,0,0,0,0,0,0,0,-1,1868,1695,0,0
651,-671,0,0,0,0,0,0,0,0,0,-1,1875,1695,0,0
658,-671,0,0,0,0,0,0,0,0,0,-1,1882,1695,0,0
665,-671,0,0,0,0,0,0,0,0,0,-1,1889,1695,0,0
672,-671,0,0,0,0,0,0,0,0,0,-1,1896,1695,0,0
679,-671,0,0,0,0,0,0,0,0,0,-1,1903,1695,0,0
686,-671,0,0,0,0,0,0,0,0,0,-1,1910,1695,0,0
693,-671,0,0,0,0,0,0,0,0,0,-1,1917,1695,0,0
700,-671,0,0,0,0,0,0,0,0,0,-1,1924,1695,0,0
707,-671,0,0,0,0,0,0,0,0,0,-1,1931,1695,0,0
714,-671,0,0,0,0,0,0,0,0,0,-1,1938,1695,0,0
721,-671,0,0,0,0,0,0,0,0,0,-1,1945,1695,0,0
728,-671,0,0,0,0,0,0,0,0,0,-1,1952,1695,0,0
735,-671,0,0,0,0,0,0,0,0,0,-1,1959,1695,0,0
742,-671,0,0,0,0,0,0,0,0,0,-1,1966,1695,0,0
749,-671,0,0,0,0,0,0,0,0,0,-1,1973,1695,0,0
756,-671,0,0,0,0,0,0,0,0,0,-1,1980,1695,0,0
763,-671,0,0,0,0,0,0,0,0,0,-1,1987,1695,0,0
770,-671,0,0,0,0,0,0,0,0,0,-1,1994,1695,0,0
777,-671,0,0,0,0,0,0,0,0,0,-1,2001,1695,0,0
784,-671,0,0,0,0,0,0,0,0,0,-1,2008,1695,0,0
791,-671,0,0,0,0,0,0,0,0,0,-1,2015,1695,0,0
798,-671,0,0,0,0,0,0,0,0,0,-1,2022,1695,0,0
805,-671,0,0,0,0,0,0,0,0,0,-1,2029,1695,0,0
812,-671,0,0,0,0,0,0,0,0,0,-1,2036,1695,0,0
-700,-678,0,0,0,0,0,0,0,0,0,-1,524,1702,0,0
-693,-678,0,0,0,0,0,0,0,0,0,-1,531,1702,0,0
-686,-678,0,0,0,0,0,0,0,0,0,-1,538,1702,0,0
-679,-678,0,0,0,0,0,0,0,0,0,-1,545,1702,0,0
-672,-678,0,0,0,0,0,0,0,0,0,-1,552,1702,0,0
-665,-678,0,0,0,0,0,0,0,0,0,-1,559,1702,0,0
-658,-678,0,0,0,0,0,0,0,0,0,-1,566,1702,0,0
-651,-678,0,0,0,0,0,0,0,0,0,-1,573,1702,0,0
-644,-678,0,0,0,0,0,0,0,0,0,-1,580,1702,0,0
-637,-678,0,0,0,0,0,0,0,0,0,-1,587,1702,0,0
-630,-678,0,0,0,0,0,0,0,0,0,-1,594,1702,0,0
-623,-678,0,0,0,0,0,0,0,0,0,-1,601,1702,0,0
-616,-678,0,0,0,0,0,0,0,0,0,-1,608,1702,0,0
-609,-678,0,0,0,0,0,0,0,0,0,-1,615,1702,0,0
-602,-678,0,0,0,0,0,0,0,0,0,-1,622,1702,0,0
-595,-678,0,0,0,0,0,0,0,0,0,-1,629,1702,0,0
-588,-678,0,0,0,0,0,0,0,0,0,-1,636,1702,0,0
-581,-678,0,0,0,0,0,0,0,0,0,-1,643,1702,0,0
-574,-678,0,0,0,0,0,0,0,0,0,-1,650,1702,0,0
-567,-678,0,0,0,0,0,0,0,0,0,-1,657,1702,0,0
-560,-678,0,0,0,0,0,0,0,0,0,-1,664,1702,0,0
-553,-678,0,0,0,0,0,0,0,0,0,-1,671,1702,0,0
-546,-678,0,0,0,0,0,0,0,0,0,-1,678,1702,0,0
-539,-678,0,0,0,0,0,0,0,0,0,-1,685,1702,0,0
-532,-678,0,0,0,0,0,0,0,0,0,-1,692,1702,0,0
-525,-678,0,0,0,0,0,0,0,0,0,-1,699,1702,0,0
-518,-678,0,0,0,0,0,0,0,0,0,-1,706,1702,0,0
-511,-678,0,0,0,0,0,0,0,0,0,-1,713,1702,0,0
-504,-678,0,0,0,0,0,0,0,0,0,-1,720,1702,0,0
-497,-678,0,0,0,0,0,0,0,0,0,-1,727,1702,0,0
-490,-678,0,0,0,0,0,0,0,0,0,-1,734,1702,0,0
-483,-678,0,0,0,0,0,0,0,0,0,-1,741,1702,0,0
-476,-678,0,0,0,0,0,0,0,0,0,-1,748,1702,0,0
-469,-678,0,0,0,0,0,0,0,0,0,-1,755,1702,0,0
-462,-678,0,0,0,0,0,0,0,0,0,-1,762,1702,0,0
-455,-678,0,0,0,0,0,0,0,0,0,-1,769,1702,0,0
-448,-678,0,0,0,0,0,0,0,0,0,-1,776,1702,0,0
-441,-678,0,0,0,0,0,0,0,0,0,-1,783,1702,0,0
-434,-678,0,0,0,0,0,0,0,0,0,-1,790,1702,0,0
-427,-678,0,0,0,0,0,0,0,0,0,-1,797,1702,0,0
-420,-678,0,0,0,0,0,0,0,0,0,-1,804,1702,0,0
-413,-678,0,0,0,0,0,0,0,0,0,-1,811,1702,0,0
-406,-678,0,0,0,0,0,0,0,0,0,-1,818,1702,0,0
-399,-678,0,0,0,0,0,0,0,0,0,-1,825,1702,0,0
-392,-678,0,0,0,0,0,0,0,0,0,-1,832,1702,0,0
-385,-678,0,0,0,0,0,0,0,0,0,-1,839,1702,0,0
-378,-678,0,0,0,0,0,0,0,0,0,-1,846,1702,0,0
-371,-678,0,0,0,0,0,0,0,0,0,-1,853,1702,0,0
-364,-678,0,0,0,0,0,0,0,0,0,-1,860,1702,0,0
-357,-678,0,0,0,0,0,0,0,0,0,-1,867,1702,0,0
-350,-678,-5.79944,6.11865,0,0,0,0,0,0,0,-1,874,1702,-5.79942,-6.11864
-343,-678,-6.44891,4.52759,0,0,0,0,0,0,0,-1,881,1702,-6.4489,-4.52758
-336,-678,-6.91888,2.99438,0,0,0,0,0,0,0,-1,888,1702,-6.9189,-2.99435
-329,-678,-7.14575,1.29761,0,0,0,0,0,0,0,-1,895,1702,-7.14577,-1.29755
-322,-678,-7.38513,-0.420044,0,0,0,0,0,0,0,-1,902,1702,-7.38514,0.420091
-315,-678,4.93549,16.6919,0,0,0,0,0,0,0,-1,909,1702,4.93547,-16.6919
-308,-678,4.87561,16.0259,0,0,0,0,0,0,0,-1,916,1702,4.8756,-16.0258
-301,-678,4.79553,15.3834,-0.0145345,-0.0283137,-0.0365406,0.0157604,-0.0586085,-0.692219,0.0452502,0.041659,923,1702,4.79554,-15.3835
-294,-678,4.54559,14.7316,-0.0135986,-0.0264817,-0.0353056,0.0158482,-0.0559285,-0.695165,0.0435407,0.043732,930,1702,4.5456,-14.7315
-287,-678,4.54272,14.2029,-0.0123699,-0.0238181,-0.0328668,0.0152676,-0.0514555,-0.699183,0.0403671,0.0460242,937,1702,4.5427,-14.2029
-280,-678,4.41467,13.6353,-0.0111347,-0.0206934,-0.0295222,0.0139925,-0.0458206,-0.705149,0.0361261,0.0477623,944,1702,4.41466,-13.6353
-273,-678,4.34686,13.4636,-0.00955678,-0.0169099,-0.0250501,0.0120851,-0.0385518,-0.712534,0.0305373,0.0438056,951,1702,4.34685,-13.4636
-266,-678,4.24963,13.63,-0.00797765,-0.0137961,-0.0205619,0.00987979,-0.0316535,-0.715122,0.0250536,0.0340652,958,1702,4.24963,-13.63
-259,-678,4.2287,13.8694,-0.00643562,-0.0109202,-0.0160813,0.00755895,-0.0249148,-0.716127,0.019621,0.0232366,965,1702,4.22867,-13.8694
-252,-678,4.24939,13.9813,-0.00500195,-0.00835522,-0.0119393,0.00537791,-0.0187351,-0.71564,0.0146163,0.0198196,972,1702,4.24936,-13.9813
-245,-678,4.25836,14.1802,-0.00357089,-0.00629134,-0.00833373,0.0035129,-0.0133751,-0.704502,0.0102896,0.0182858,979,1702,4.25834,-14.1802
-238,-678,4.25018,14.3571,-0.0024275,-0.00368086,-0.00515914,0.00214288,-0.00825124,-0.72496,0.00633706,0.0151999,986,1702,4.25017,-14.3571
-231,-678,4.24402,14.5471,-0.00131865,-0.00228457,-0.00186538,0.000125277,-0.0037285,-0.658727,0.00252846,0.0132255,993,1702,4.244,-14.5472
-224,-678,4.22504,14.7145,-0.00048068,-0.00144088,0.000343722,-0.000370321,-0.00155124,0.310672,0.000935478,0.012988,1000,1702,4.22507,-14.7144
-217,-678,4.23785,14.8973,-2.58681e-05,-0.00144871,0.000805246,0.000337206,-0.00181179,0.42359,0.00133454,0.0130303,1007,1702,4.23788,-14.8974
-210,-678,4.22827,15.075,0.000341665,-0.00128497,0.00130677,0.00106754,-0.00201084,0.507039,0.00180491,0.0131574,1014,1702,4.2283,-15.0749
-203,-678,4.20374,15.1935,0.000704147,-0.00128967,0.0016307,0.00161853,-0.00220405,0.511041,0.00221558,0.0168363,1021,1702,4.20376,-15.1935
-196,-678,4.21143,15.3457,0.00100815,-0.00131995,0.00182194,0.00200615,-0.00231795,0.50113,0.00249869,0.0170376,1028,1702,4.21139,-15.3458
-189,-678,4.2124,15.5337,0.00120791,-0.00131766,0.00198676,0.00229924,-0.00240899,0.502306,0.00271854,0.0100325,1035,1702,4.21242,-15.5337
-182,-678,4.2168,15.6873,0.00149665,-0.00106377,0.00220121,0.00276286,-0.00232998,0.52201,0.00294389,0.00979182,1042,1702,4.21675,-15.6872
-175,-678,4.19788,15.8208,0.0019902,-0.000928695,0.00249608,0.00342219,-0.00236068,0.520853,0.00335744,0.0109078,1049,1702,4.19791,-15.8208
-168,-678,4.20996,15.9589,0.00241175,-0.000930367,0.00268361,0.00390205,-0.00242067,0.50693,0.00368367,0.0102904,1056,1702,4.20992,-15.9589
-161,-678,4.22424,16.0841,0.00295317,-0.000958064,0.0030519,0.00462226,-0.00262716,0.500463,0.00423796,0.00867436,1063,1702,4.22427,-16.0841
-154,-678,4.2262,16.2189,0.0035961,-0.00106509,0.00347251,0.00544762,-0.0029166,0.489846,0.00490223,0.00807743,1070,1702,4.22618,-16.2189
-147,-678,4.23462,16.3481,0.00427311,-0.00133891,0.00381588,0.00620362,-0.00326943,0.468369,0.00555603,0.00992493,1077,1702,4.23464,-16.3482
-140,-678,4.24976,16.4664,0.00498404,-0.00163702,0.0040506,0.00690486,-0.00355783,0.442799,0.0061428,0.0108336,1084,1702,4.24974,-16.4664
-133,-678,4.26331,16.5994,0.00569767,-0.00215155,0.00421271,0.00753062,-0.0039845,0.410394,0.00675252,0.011125,1091,1702,4.26333,-16.5994
-126,-678,4.26563,16.7338,0.0064591,-0.00264462,0.0044549,0.00827635,-0.00446187,0.387316,0.00746352,0.0090202,1098,1702,4.26568,-16.7337
-119,-678,4.30835,16.8927,0.00720422,-0.00290381,0.00466931,0.00903102,-0.0047306,0.372927,0.00807355,0.0184437,1105,1702,4.3083,-16.8927
-112,-678,4.32837,17.0236,0.00779895,-0.00350935,0.00466251,0.00947341,-0.0051838,0.344786,0.00858229,0.0260757,1112,1702,4.32843,-17.0236
-105,-678,4.35706,17.0963,0.00818845,-0.0038951,0.00478577,0.00985424,-0.00556089,0.334957,0.00901426,0.0286975,1119,1702,4.35701,-17.0963
-98,-678,4.34021,17.0513,0.00823986,-0.00352464,0.00458538,0.00981594,-0.00510071,0.331067,0.00875438,0.0219251,1126,1702,4.34017,-17.0513
-91,-678,4.35779,17.1859,0.00845052,-0.00293019,0.00430488,0.00989545,-0.00437511,0.323831,0.00844209,0.0218982,1133,1702,4.35784,-17.1859
-84,-678,4.39478,17.1818,0.00891963,-0.00224485,0.00397496,0.0101902,-0.00351547,0.309391,0.00821985,0.0348099,1140,1702,4.39472,-17.1818
-77,-678,4.43079,17.5424,0,0,0,0,0,0,0,-1,1147,1702,4.43075,-17.5424
-70,-678,4.58362,17.9412,0,0,0,0,0,0,0,-1,1154,1702,4.58363,-17.9412
-63,-678,3.41687,11.0365,0,0,0,0,0,0,0,-1,1161,1702,3.41682,-11.0365
-56,-678,1.72388,6.13159,0,0,0,0,0,0,0,-1,1168,1702,1.72388,-6.13157
-49,-678,-0.241699,5.29895,0,0,0,0,0,0,0,-1,1175,1702,-0.241682,-5.29897
-42,-678,0.297119,3.90649,0,0,0,0,0,0,0,-1,1182,1702,0.297139,-3.90655
-35,-678,0.498413,3.64038,0,0,0,0,0,0,0,-1,1189,1702,0.498471,-3.64038
-28,-678,0.132446,3.55994,0,0,0,0,0,0,0,-1,1196,1702,0.132432,-3.55993
-21,-678,4.61511,17.9095,0,0,0,0,0,0,0,-1,1203,1702,4.61512,-17.9096
-14,-678,4.38623,17.9512,-0.00770529,0.0152891,0.00363199,0.0158492,-0.00826532,1.41781,0.0141502,0.0427563,1210,1702,4.38617,-17.9512
-7,-678,4.63062,17.7629,-0.00442199,0.0166852,0.00144317,0.0167834,-0.00452021,1.50284,0.0129611,0.047735,1217,1702,4.63064,-17.7629
0,-678,5.18213,17.6105,-0.000797293,0.0216913,-0.00143839,0.0217829,-0.000888921,-1.50718,0.0148271,0.043431,1224,1702,5.18216,-17.6105
7,-678,4.80371,18.0056,0.00215151,0.0247621,-0.0042038,0.0255184,0.00139523,-1.3928,0.0165668,0.042187,1231,1702,4.80369,-18.0056
14,-678,4.70203,17.8564,0.00784466,0.0279931,-0.00790901,0.0307268,0.00511097,-1.23801,0.0190112,0.0426053,1238,1702,4.70198,-17.8565
21,-678,5.10437,17.6329,0.0152573,0.0379633,-0.0136765,0.0443849,0.00883565,-1.13181,0.0271286,0.0445748,1245,1702,5.1044,-17.6329
28,-678,4.86487,18.1741,0.0212577,0.0443064,-0.0171379,0.0534343,0.0121297,-1.0814,0.0323468,0.0461511,1252,1702,4.86483,-18.1741
35,-678,5.11072,17.9065,0,0,0,0,0,0,0,-1,1259,1702,5.11077,-17.9065
42,-678,5.35938,18.1515,0,0,0,0,0,0,0,-1,1266,1702,5.35943,-18.1515
49,-678,5.24658,18.806,0.0383553,0.0550713,-0.0221292,0.0703682,0.0230583,-0.965962,0.0414236,0.0470842,1273,1702,5.24657,-18.8061
56,-678,4.27844,17.4249,0.0436389,0.0560002,-0.0214206,0.072114,0.0275251,-0.925853,0.0420218,0.0452067,1280,1702,4.27841,-17.4249
63,-678,4.42224,17.474,0.0472685,0.0545109,-0.0192139,0.0704418,0.0313376,-0.87854,0.0407519,0.0452561,1287,1702,4.42224,-17.474
70,-678,4.46008,17.7366,0.0486362,0.0512627,-0.0148539,0.0648613,0.0350377,-0.829489,0.037488,0.0443859,1294,1702,4.46009,-17.7366
77,-678,3.9021,18.1456,0.049864,0.0463574,-0.00963111,0.0579001,0.0383213,-0.69536,0.0340074,0.0416516,1301,1702,3.90215,-18.1456
84,-678,5.69312,19.5063,0,0,0,0,0,0,0,-1,1308,1702,5.69308,-19.5063
91,-678,4.09985,20.5708,0.0472007,0.0301605,0.00452584,0.0483282,0.0290331,0.244146,0.0280904,0.0436001,1315,1702,4.0998,-20.5707
98,-678,5.14038,18.283,0.0442737,0.0204023,0.012277,0.0494607,0.0152153,0.399747,0.0292522,0.0453075,1322,1702,5.14043,-18.283
105,-678,5.77112,19.3124,0,0,0,0,0,0,0,-1,1329,1702,5.77113,-19.3124
112,-678,5.81018,18.8947,0.043824,0.00776569,0.0230945,0.0550934,-0.00350368,0.453977,0.0379508,0.0452781,1336,1702,5.81015,-18.8946
119,-678,5.85254,18.4364,0.0418429,0.00265178,0.0274053,0.0559377,-0.011443,0.475028,0.0416336,0.0466911,1343,1702,5.85256,-18.4365
126,-678,5.78284,18.0366,0.0403601,-0.00525025,0.0315941,0.0565198,-0.02141,0.472789,0.0464899,0.0465329,1350,1702,5.78288,-18.0366
133,-678,5.70605,17.683,0.0408091,-0.00812557,0.0335267,0.057847,-0.0251635,0.470179,0.0491488,0.0459443,1357,1702,5.70601,-17.683
140,-678,5.57397,17.3369,0.0417751,-0.00887973,0.0350176,0.0596647,-0.0267694,0.47231,0.0510932,0.0470096,1364,1702,5.57399,-17.3369
147,-678,5.55212,17.3304,0.0431533,-0.00767921,0.0355923,0.0614726,-0.0259985,0.475337,0.0518674,0.0446579,1371,1702,5.55212,-17.3305
154,-678,5.66028,17.2825,0,0,0,0,0,0,0,-1,1378,1702,5.66031,-17.2825
161,-678,3.44202,4.53992,0,0,0,0,0,0,0,-1,1385,1702,3.442,-4.53996
168,-678,4.21863,5.25781,0,0,0,0,0,0,0,-1,1392,1702,4.21865,-5.25781
175,-678,5.21899,5.9635,0,0,0,0,0,0,0,-1,1399,1702,5.21894,-5.96346
182,-678,7.31262,6.75122,0,0,0,0,0,0,0,-1,1406,1702,7.3126,-6.75123
189,-678,5.96021,6.36853,0,0,0,0,0,0,0,-1,1413,1702,5.96018,-6.36851
196,-678,5.01599,8.15771,0,0,0,0,0,0,0,-1,1420,1702,5.01596,-8.15767
203,-678,4.64771,13.0559,0,0,0,0,0,0,0,-1,1427,1702,4.64766,-13.0559
210,-678,5.6532,18.5957,0,0,0,0,0,0,0,-1,1434,1702,5.65318,-18.5958
217,-678,5.60217,17.7557,0,0,0,0,0,0,0,-1,1441,1702,5.6022,-17.7557
224,-678,5.47241,17.479,0,0,0,0,0,0,0,-1,1448,1702,5.47237,-17.4791
231,-678,5.51221,17.4011,0,0,0,0,0,0,0,-1,1455,1702,5.51223,-17.4011
238,-678,5.57178,17.385,0,0,0,0,0,0,0,-1,1462,1702,5.57179,-17.385
245,-678,5.57288,17.3689,0,0,0,0,0,0,0,-1,1469,1702,5.57283,-17.3689
252,-678,5.59387,17.2513,0.00379996,-0.00360512,-0.000542895,0.00383955,-0.00364471,-0.0727952,0.00432153,0.0289756,1476,1702,5.59386,-17.2514
259,-678,5.58997,17.176,0.003864,-0.00413865,-0.000225897,0.00387037,-0.00414502,-0.0281978,0.0046286,0.0161398,1483,1702,5.58992,-17.1761
266,-678,5.61877,17.0828,0.00384045,-0.00508802,8.50979e-05,0.00384126,-0.00508883,0.00952992,0.00517253,0.00968159,1490,1702,5.61878,-17.0827
273,-678,5.6333,16.99,0.00378743,-0.00464901,-1.06418e-05,0.00378744,-0.00464902,-0.00126141,0.00487925,0.010174,1497,1702,5.63327,-16.9899
280,-678,5.62524,16.8856,0.0036089,-0.00397956,-0.000137866,0.0036114,-0.00398206,-0.0181598,0.00438583,0.0110953,1504,1702,5.62522,-16.8857
287,-678,5.63342,16.7598,0.00324509,-0.00318043,-0.000240695,0.00325409,-0.00318943,-0.0373894,0.00372023,0.0109819,1511,1702,5.63344,-16.7598
294,-678,5.6344,16.6239,0.00271294,-0.00239771,-0.000245462,0.0027247,-0.00240947,-0.0478826,0.00296608,0.0115556,1518,1702,5.63436,-16.624
301,-678,5.62561,16.5022,0.00204599,-0.00160541,-0.000235977,0.00206117,-0.0016206,-0.0642701,0.00213074,0.0121188,1525,1702,5.62564,-16.5022
308,-678,5.63977,16.3923,0.00133304,-0.000932943,-0.000123514,0.00133975,-0.000939656,-0.0542937,0.00132276,0.0134904,1532,1702,5.63974,-16.3924
315,-678,5.64856,16.2765,0.000686101,-0.000427039,4.97544e-05,0.00068832,-0.000429258,0.0445788,0.000650987,0.0143147,1539,1702,5.64854,-16.2765
322,-678,5.62903,16.1556,-1.04815e-05,-2.48017e-07,0.000306197,0.000300875,-0.000311604,0.793753,0.000353633,0.0171392,1546,1702,5.62904,-16.1557
329,-678,5.60925,16.0164,-0.000528637,0.000232883,0.000639016,0.000595978,-0.000891732,1.05408,0.000864569,0.0149687,1553,1702,5.6093,-16.0163
336,-678,5.61536,15.8729,-0.000825117,0.000522628,0.00085179,0.000934873,-0.00123736,1.12005,0.00125819,0.0126767,1560,1702,5.61537,-15.8729
343,-678,5.62476,15.7311,-0.00108513,0.000915389,0.000977431,0.00131366,-0.0014834,1.18387,0.00161587,0.0114842,1567,1702,5.62479,-15.731
350,-678,5.63196,15.583,-0.00114763,0.00116763,0.00106001,0.00157962,-0.00155963,1.20009,0.00181246,0.0108211,1574,1702,5.63199,-15.583
357,-678,5.64343,15.4233,-0.000905764,0.00156091,0.000926076,0.00186989,-0.00121474,1.24877,0.00179425,0.00823413,1581,1702,5.64344,-15.4234
364,-678,5.63464,15.2811,-0.000454852,0.00275023,0.00035169,0.00278837,-0.000492989,1.46278,0.00204316,0.0106432,1588,1702,5.63459,-15.2812
371,-678,5.60608,15.1284,8.34582e-06,0.00363062,-0.000169595,0.00363855,4.22704e-07,-1.52411,0.00242556,0.0125427,1595,1702,5.60603,-15.1284
378,-678,5.61511,14.9579,0.000706,0.00522176,-0.00113457,0.00549078,0.000436972,-1.33798,0.00352391,0.0139588,1602,1702,5.61512,-14.9579
385,-678,5.63342,14.8177,0.00137787,0.00730781,-0.00246335,0.00819759,0.000488084,-1.22417,0.00530985,0.01836,1609,1702,5.63345,-14.8178
392,-678,5.60669,14.7073,0.00169195,0.0100904,-0.00396689,0.0116678,0.000114517,-1.19232,0.00774066,0.0307903,1616,1702,5.60668,-14.7073
399,-678,5.53467,14.4718,0.00168887,0.012686,-0.00527561,0.0148075,-0.000432694,-1.18844,0.010019,0.0403059,1623,1702,5.53463,-14.4719
406,-678,5.59473,14.2153,0.00171061,0.015243,-0.00637325,0.0177719,-0.000818337,-1.19305,0.0121299,0.0433317,1630,1702,5.59468,-14.2153
413,-678,5.79565,13.5078,0.00178294,0.0174142,-0.00761169,0.0205083,-0.00131114,-1.18471,0.0141295,0.0453853,1637,1702,5.79564,-13.5079
420,-678,5.34973,13.8352,0,0,0,0,0,0,0,-1,1644,1702,5.34968,-13.8352
427,-678,4.57483,10.1555,0,0,0,0,0,0,0,-1,1651,1702,4.57485,-10.1555
434,-678,5.73999,11.7773,0,0,0,0,0,0,0,-1,1658,1702,5.73994,-11.7774
441,-678,4.47729,11.1503,0,0,0,0,0,0,0,-1,1665,1702,4.47728,-11.1503
448,-678,3.25525,9.74719,0,0,0,0,0,0,0,-1,1672,1702,3.25522,-9.7472
455,-678,5.44678,5.54297,0,0,0,0,0,0,0,-1,1679,1702,5.44676,-5.54294
462,-678,3.86792,2.87402,0,0,0,0,0,0,0,-1,1686,1702,3.86796,-2.87406
469,-678,2.26587,1.98755,0,0,0,0,0,0,0,-1,1693,1702,2.26592,-1.98755
476,-678,0,0,0,0,0,0,0,0,0,-1,1700,1702,0,0
483,-678,0,0,0,0,0,0,0,0,0,-1,1707,1702,0,0
490,-678,0,0,0,0,0,0,0,0,0,-1,1714,1702,0,0
497,-678,0,0,0,0,0,0,0,0,0,-1,1721,1702,0,0
504,-678,0,0,0,0,0,0,0,0,0,-1,1728,1702,0,0
511,-678,0,0,0,0,0,0,0,0,0,-1,1735,1702,0,0
518,-678,0,0,0,0,0,0,0,0,0,-1,1742,1702,0,0
525,-678,0,0,0,0,0,0,0,0,0,-1,1749,1702,0,0
532,-678,0,0,0,0,0,0,0,0,0,-1,1756,1702,0,0
539,-678,0,0,0,0,0,0,0,0,0,-1,1763,1702,0,0
546,-678,0,0,0,0,0,0,0,0,0,-1,1770,1702,0,0
553,-678,0,0,0,0,0,0,0,0,0,-1,1777,1702,0,0
560,-678,0,0,0,0,0,0,0,0,0,-1,1784,1702,0,0
567,-678,0,0,0,0,0,0,0,0,0,-1,1791,1702,0,0
574,-678,0,0,0,0,0,0,0,0,0,-1,1798,1702,0,0
581,-678,0,0,0,0,0,0,0,0,0,-1,1805,1702,0,0
588,-678,0,0,0,0,0,0,0,0,0,-1,1812,1702,0,0
595,-678,0,0,0,0,0,0,0,0,0,-1,1819,1702,0,0
602,-678,0,0,0,0,0,0,0,0,0,-1,1826,1702,0,0
609,-678,0,0,0,0,0,0,0,0,0,-1,1833,1702,0,0
616,-678,0,0,0,0,0,0,0,0,0,-1,1840,1702,0,0
623,-678,0,0,0,0,0,0,0,0,0,-1,1847,1702,0,0
630,-678,0,0,0,0,0,0,0,0,0,-1,1854,1702,0,0
637,-678,0,0,0,0,0,0,0,0,0,-1,1861,1702,0,0
644,-678,0,0,0,0,0,0,0,0,0,-1,1868,1702,0,0
651,-678,0,0,0,0,0,0,0,0,0,-1,1875,1702,0,0
658,-678,0,0,0,0,0,0,0,0,0,-1,1882,1702,0,0
665,-678,0,0,0,0,0,0,0,0,0,-1,1889,1702,0,0
672,-678,0,0,0,0,0,0,0,0,0,-1,1896,1702,0,0
679,-678,0,0,0,0,0,0,0,0,0,-1,1903,1702,0,0
686,-678,0,0,0,0,0,0,0,0,0,-1,1910,1702,0,0
693,-678,0,0,0,0,0,0,0,0,0,-1,1917,1702,0,0
700,-678,0,0,0,0,0,0,0,0,0,-1,1924,1702,0,0
707,-678,0,0,0,0,0,0,0,0,0,-1,1931,1702,0,0
714,-678,0,0,0,0,0,0,0,0,0,-1,1938,1702,0,0
721,-678,0,0,0,0,0,0,0,0,0,-1,1945,1702,0,0
728,-678,0,0,0,0,0,0,0,0,0,-1,1952,1702,0,0
735,-678,0,0,0,0,0,0,0,0,0,-1,1959,1702,0,0
742,-678,0,0,0,0,0,0,0,0,0,-1,1966,1702,0,0
749,-678,0,0,0,0,0,0,0,0,0,-1,1973,1702,0,0
756,-678,0,0,0,0,0,0,0,0,0,-1,1980,1702,0,0
763,-678,0,0,0,0,0,0,0,0,0,-1,1987,1702,0,0
770,-678,0,0,0,0,0,0,0,0,0,-1,1994,1702,0,0
777,-678,0,0,0,0,0,0,0,0,0,-1,2001,1702,0,0
784,-678,0,0,0,0,0,0,0,0,0,-1,2008,1702,0,0
791,-678,0,0,0,0,0,0,0,0,0,-1,2015,1702,0,0
798,-678,0,0,0,0,0,0,0,0,0,-1,2022,1702,0,0
805,-678,0,0,0,0,0,0,0,0,0,-1,2029,1702,0,0
812,-678,0,0,0,0,0,0,0,0,0,-1,2036,1702,0,0
-700,-685,0,0,0,0,0,0,0,0,0,-1,524,1709,0,0
-693,-685,0,0,0,0,0,0,0,0,0,-1,531,1709,0,0
-686,-685,0,0,0,0,0,0,0,0,0,-1,538,1709,0,0
-679,-685,0,0,0,0,0,0,0,0,0,-1,545,1709,0,0
-672,-685,0,0,0,0,0,0,0,0,0,-1,552,1709,0,0
-665,-685,0,0,0,0,0,0,0,0,0,-1,559,1709,0,0
-658,-685,0,0,0,0,0,0,0,0,0,-1,566,1709,0,0
-651,-685,0,0,0,0,0,0,0,0,0,-1,573,1709,0,0
-644,-685,0,0,0,0,0,0,0,0,0,-1,580,1709,0,0
-637,-685,0,0,0,0,0,0,0,0,0,-1,587,1709,0,0
-630,-685,0,0,0,0,0,0,0,0,0,-1,594,1709,0,0
-623,-685,0,0,0,0,0,0,0,0,0,-1,601,1709,0,0
-616,-685,0,0,0,0,0,0,0,0,0,-1,608,1709,0,0
-609,-685,0,0,0,0,0,0,0,0,0,-1,615,1709,0,0
-602,-685,0,0,0,0,0,0,0,0,0,-1,622,1709,0,0
-595,-685,0,0,0,0,0,0,0,0,0,-1,629,1709,0,0
-588,-685,0,0,0,0,0,0,0,0,0,-1,636,1709,0,0
-581,-685,0,0,0,0,0,0,0,0,0,-1,643,1709,0,0
-574,-685,0,0,0,0,0,0,0,0,0,-1,650,1709,0,0
-567,-685,0,0,0,0,0,0,0,0,0,-1,657,1709,0,0
-560,-685,0,0,0,0,0,0,0,0,0,-1,664,1709,0,0
-553,-685,0,0,0,0,0,0,0,0,0,-1,671,1709,0,0
-546,-685,0,0,0,0,0,0,0,0,0,-1,678,1709,0,0
-539,-685,0,0,0,0,0,0,0,0,0,-1,685,1709,0,0
-532,-685,0,0,0,0,0,0,0,0,0,-1,692,1709,0,0
-525,-685,0,0,0,0,0,0,0,0,0,-1,699,1709,0,0
-518,-685,0,0,0,0,0,0,0,0,0,-1,706,1709,0,0
-511,-685,0,0,0,0,0,0,0,0,0,-1,713,1709,0,0
-504,-685,0,0,0,0,0,0,0,0,0,-1,720,1709,0,0
-497,-685,0,0,0,0,0,0,0,0,0,-1,727,1709,0,0
-490,-685,0,0,0,0,0,0,0,0,0,-1,734,1709,0,0
-483,-685,0,0,0,0,0,0,0,0,0,-1,741,1709,0,0
-476,-685,0,0,0,0,0,0,0,0,0,-1,748,1709,0,0
-469,-685,0,0,0,0,0,0,0,0,0,-1,755,1709,0,0
-462,-685,0,0,0,0,0,0,0,0,0,-1,762,1709,0,0
-455,-685,0,0,0,0,0,0,0,0,0,-1,769,1709,0,0
-448,-685,0,0,0,0,0,0,0,0,0,-1,776,1709,0,0
-441,-685,0,0,0,0,0,0,0,0,0,-1,783,1709,0,0
-434,-685,0,0,0,0,0,0,0,0,0,-1,790,1709,0,0
-427,-685,0,0,0,0,0,0,0,0,0,-1,797,1709,0,0
-420,-685,0,0,0,0,0,0,0,0,0,-1,804,1709,0,0
-413,-685,0,0,0,0,0,0,0,0,0,-1,811,1709,0,0
-406,-685,0,0,0,0,0,0,0,0,0,-1,818,1709,0,0
-399,-685,0,0,0,0,0,0,0,0,0,-1,825,1709,0,0
-392,-685,0,0,0,0,0,0,0,0,0,-1,832,1709,0,0
-385,-685,0,0,0,0,0,0,0,0,0,-1,839,1709,0,0
-378,-685,0,0,0,0,0,0,0,0,0,-1,846,1709,0,0
-371,-685,0,0,0,0,0,0,0,0,0,-1,853,1709,0,0
-364,-685,0,0,0,0,0,0,0,0,0,-1,860,1709,0,0
-357,-685,0,0,0,0,0,0,0,0,0,-1,867,1709,0,0
-350,-685,0,0,0,0,0,0,0,0,0,-1,874,1709,0,0
-343,-685,-5.98505,6.56335,0,0,0,0,0,0,0,-1,881,1709,-5.98505,-6.56329
-336,-685,-6.51312,5.10571,0,0,0,0,0,0,0,-1,888,1709,-6.51311,-5.10575
-329,-685,-6.81384,3.34106,0,0,0,0,0,0,0,-1,895,1709,-6.81385,-3.341
-322,-685,3.48425,16.3307,0,0,0,0,0,0,0,-1,902,1709,3.48425,-16.3307
-315,-685,3.66089,14.3413,0,0,0,0,0,0,0,-1,909,1709,3.66091,-14.3413
-308,-685,4.32446,16.0386,0,0,0,0,0,0,0,-1,916,1709,4.32449,-16.0386
-301,-685,4.28467,15.3892,0,0,0,0,0,0,0,-1,923,1709,4.28466,-15.3891
-294,-685,4.94196,14.6935,0,0,0,0,0,0,0,-1,930,1709,4.94194,-14.6935
-287,-685,5.0224,14.2605,-0.0163863,-0.0291836,-0.0440624,0.0217397,-0.0673096,-0.713294,0.0536096,0.049676,937,1709,5.02238,-14.2605
-280,-685,5.06995,13.6621,-0.0147702,-0.0253668,-0.0396252,0.0199093,-0.0600463,-0.718937,0.0480621,0.0490432,944,1709,5.06993,-13.6621
-273,-685,4.54486,13.451,0,0,0,0,0,0,0,-1,951,1709,4.54485,-13.4511
-266,-685,4.84003,13.814,-0.0105146,-0.0169508,-0.0273449,0.013801,-0.0412663,-0.726824,0.033085,0.046709,958,1709,4.84002,-13.814
-259,-685,4.83228,13.8499,-0.00842563,-0.0135924,-0.0212933,0.0104405,-0.0324585,-0.725031,0.0258323,0.0421202,965,1709,4.8323,-13.8499
-252,-685,4.61066,13.9719,-0.00649372,-0.0105873,-0.0157047,0.00729701,-0.024378,-0.720598,0.0191534,0.0402617,972,1709,4.61067,-13.9719
-245,-685,4.46198,14.1851,-0.00467107,-0.0081151,-0.0108868,0.00462911,-0.0174153,-0.706961,0.013422,0.0351094,979,1709,4.46199,-14.185
-238,-685,4.44867,14.3632,-0.00316668,-0.00502172,-0.00662261,0.00259305,-0.0107814,-0.715824,0.00818998,0.0250881,986,1709,4.44865,-14.3631
-231,-685,4.42889,14.5735,-0.00164115,-0.00325168,-0.00213931,-0.000160564,-0.00473226,-0.605395,0.00310271,0.0160869,993,1709,4.42892,-14.5735
-224,-685,4.39465,14.733,-0.000511315,-0.00195226,0.000804469,-0.000151857,-0.00231172,0.420212,0.0014931,0.0143805,1000,1709,4.39466,-14.733
-217,-685,4.39526,14.9102,2.72821e-05,-0.00190813,0.00121293,0.000611236,-0.00249208,0.448691,0.00189823,0.0113352,1007,1709,4.39527,-14.9102
-210,-685,4.39331,15.0952,0.000405271,-0.00163254,0.00169475,0.00136382,-0.00259109,0.514742,0.00231973,0.014358,1014,1709,4.39334,-15.0953
-203,-685,4.38916,15.231,0.000714613,-0.00142502,0.00184551,0.00177796,-0.00248837,0.522723,0.00247453,0.0136541,1021,1709,4.3892,-15.2309
-196,-685,4.37402,15.356,0.000888543,-0.00119794,0.00174101,0.00187495,-0.00218435,0.515476,0.0023459,0.0127798,1028,1709,4.37405,-15.356
-189,-685,4.37292,15.5051,0.000943075,-0.000953056,0.00157972,0.00183738,-0.00184736,0.515134,0.00212739,0.00938409,1035,1709,4.3729,-15.5052
-182,-685,4.36548,15.6699,0.00100521,-0.000559241,0.00143305,0.00185562,-0.00140965,0.535574,0.00189106,0.014062,1042,1709,4.36554,-15.6699
-175,-685,4.35645,15.817,0.00123876,-0.000190856,0.00139215,0.00208889,-0.00104099,0.548221,0.00184049,0.0136473,1049,1709,4.3564,-15.817
-168,-685,4.35352,15.9536,0.00135095,-8.37368e-05,0.00121015,0.00204039,-0.00077318,0.517855,0.00167844,0.0105619,1056,1709,4.3535,-15.9536
-161,-685,4.36487,16.0879,0.00156208,8.8477e-05,0.00123527,0.00226359,-0.000613041,0.516488,0.00174958,0.0110438,1063,1709,4.36482,-16.0879
-154,-685,4.37073,16.2236,0.00189695,0.000132547,0.00135905,0.00263503,-0.000605528,0.497516,0.00198948,0.0100425,1070,1709,4.37078,-16.2237
-147,-685,4.36816,16.3503,0.00230785,-4.36175e-05,0.0014611,0.00300752,-0.000743293,0.446601,0.00229329,0.00921041,1077,1709,4.36821,-16.3503
-140,-685,4.38281,16.4618,0.00279059,-0.000350149,0.00152178,0.00340697,-0.000966526,0.384842,0.00265284,0.0112248,1084,1709,4.38281,-16.4618
-133,-685,4.38965,16.5967,0.00329056,-0.000843749,0.00155838,0.00381216,-0.00136536,0.32299,0.00309851,0.0102966,1091,1709,4.38966,-16.5967
-126,-685,4.39136,16.7283,0.00385153,-0.00130893,0.00171202,0.00436784,-0.00182525,0.292909,0.00367466,0.00897793,1098,1709,4.39131,-16.7282
-119,-685,4.4082,16.8221,0.00446059,-0.00159282,0.00192654,0.00502171,-0.00215394,0.283418,0.00425172,0.0129196,1105,1709,4.40825,-16.8222
-112,-685,4.4137,16.9395,0.00497223,-0.00215242,0.0020134,0.00550184,-0.00268203,0.257217,0.00481755,0.0124488,1112,1709,4.4137,-16.9394
-105,-685,4.38806,17.0427,0.00534303,-0.00256204,0.00220287,0.00591544,-0.00313445,0.254227,0.00530655,0.0107103,1119,1709,4.38807,-17.0427
-98,-685,4.45557,17.1366,0.00554501,-0.00253603,0.0023275,0.00616744,-0.00315846,0.261307,0.00547693,0.0139417,1126,1709,4.45559,-17.1366
-91,-685,4.45215,17.2522,0.00578894,-0.00225888,0.00240812,0.00645447,-0.00292441,0.269641,0.00554128,0.0167538,1133,1709,4.45211,-17.2522
-84,-685,4.44128,17.3271,0.00617246,-0.00191449,0.0025008,0.00688332,-0.00262534,0.276947,0.00567034,0.0153589,1140,1709,4.44125,-17.3272
-77,-685,4.47949,17.4838,0.00644468,-0.00192135,0.0023164,0.00704323,-0.0025199,0.252864,0.00572345,0.0169181,1147,1709,4.47949,-17.4837
-70,-685,4.62732,17.7535,0.00633774,-0.00127794,0.00187054,0.00677237,-0.00171257,0.228305,0.005181,0.0389545,1154,1709,4.62737,-17.7535
-63,-685,4.62512,18.212,0,0,0,0,0,0,0,-1,1161,1709,4.62511,-18.212
-56,-685,3.93909,15.8704,0,0,0,0,0,0,0,-1,1168,1709,3.93905,-15.8704
-49,-685,3.07471,9.86011,0,0,0,0,0,0,0,-1,1175,1709,3.07467,-9.86009
-42,-685,2.70618,7.54504,0,0,0,0,0,0,0,-1,1182,1709,2.7062,-7.54504
-35,-685,2.95264,7.91516,0,0,0,0,0,0,0,-1,1189,1709,2.95262,-7.91517
-28,-685,4.61584,17.902,0,0,0,0,0,0,0,-1,1196,1709,4.61582,-17.902
-21,-685,4.65454,17.958,-0.000867047,0.00831915,-0.000569068,0.00835427,-0.000902165,-1.50916,0.0058933,0.0415047,1203,1709,4.65457,-17.958
-14,-685,4.74719,17.9102,-0.00147036,0.00706697,-0.000756019,0.0071334,-0.00153679,-1.48315,0.00534206,0.0281325,1210,1709,4.74724,-17.9101
-7,-685,4.69751,17.9331,0.00137003,0.00982024,-0.00299994,0.0107769,0.000413329,-1.26208,0.00705089,0.0444036,1217,1709,4.69753,-17.9331
0,-685,4.80811,18.1281,0,0,0,0,0,0,0,-1,1224,1709,4.80809,-18.1281
7,-685,4.83069,18.1484,0.00506363,0.0170086,-0.00740119,0.0205465,0.00152569,-1.12488,0.0132185,0.0397702,1231,1709,4.8307,-18.1484
14,-685,4.90894,18.1534,0.00865624,0.0194068,-0.0100745,0.0254503,0.00261269,-1.03046,0.0161665,0.0411016,1238,1709,4.90894,-18.1534
21,-685,5.0321,18.1384,0.0134879,0.0267818,-0.0141937,0.0358079,0.00446183,-1.00438,0.0225324,0.0377272,1245,1709,5.03214,-18.1384
28,-685,5.00745,18.1133,0.0173301,0.0316001,-0.0165728,0.0425086,0.00642163,-0.988669,0.0264595,0.038478,1252,1709,5.0075,-18.1133
35,-685,5.03882,18.0085,0.0212118,0.0353261,-0.0181908,0.0477807,0.00875718,-0.970436,0.0293731,0.0399469,1259,1709,5.03886,-18.0085
42,-685,5.17188,18.2123,0.0250959,0.0380497,-0.0192592,0.0518919,0.0112537,-0.947608,0.0315203,0.0416743,1266,1709,5.17187,-18.2123
49,-685,5.10327,18.5483,0.0291986,0.0408238,-0.0198727,0.0557165,0.0143059,-0.927676,0.0334127,0.0455521,1273,1709,5.1033,-18.5484
56,-685,4.48413,18.1339,0.0330551,0.0415681,-0.0190382,0.0568198,0.0178033,-0.895378,0.0335584,0.0467243,1280,1709,4.48408,-18.1339
63,-685,4.68408,17.8624,0.0356263,0.0403194,-0.0168209,0.0549566,0.0209891,-0.854702,0.0320228,0.0432817,1287,1709,4.68409,-17.8624
70,-685,4.53516,18.0131,0.0366091,0.0380016,-0.0130145,0.0503384,0.0242722,-0.812122,0.0290691,0.041822,1294,1709,4.53518,-18.0131
77,-685,5.09375,18.4216,0.037687,0.0345741,-0.00873712,0.0450052,0.0272559,-0.697251,0.0261763,0.0450994,1301,1709,5.09377,-18.4216
84,-685,5.42456,18.9073,0.0372935,0.0286769,-0.00311291,0.0383005,0.0276699,-0.312844,0.0228306,0.0416846,1308,1709,5.42459,-18.9073
91,-685,5.21704,18.4106,0.0362756,0.0226393,0.00220969,0.0366248,0.0222901,0.156704,0.0213109,0.0421841,1315,1709,5.21705,-18.4106
98,-685,5.14893,18.3116,0.0339337,0.0146198,0.00841535,0.0370859,0.0114676,0.358402,0.021925,0.0381308,1322,1709,5.14894,-18.3117
105,-685,5.13525,18.2954,0.0335256,0.00775052,0.0134636,0.0392756,0.00200052,0.403628,0.025543,0.0409931,1329,1709,5.13527,-18.2954
112,-685,5.22034,19.3041,0,0,0,0,0,0,0,-1,1336,1709,5.2203,-19.304
119,-685,5.24744,18.0192,0.0319106,0.000388984,0.0203099,0.0418577,-0.00955805,0.455425,0.0315771,0.0417334,1343,1709,5.24747,-18.0192
126,-685,5.3634,18.0402,0.0302803,-0.00643563,0.0235616,0.0417915,-0.0179468,0.45445,0.0353939,0.0426154,1350,1709,5.36334,-18.0401
133,-685,5.45728,17.9043,0.0301025,-0.00972208,0.0250755,0.0422102,-0.0218298,0.449834,0.0375924,0.0442045,1357,1709,5.45732,-17.9043
140,-685,5.42603,17.8353,0.0301695,-0.0113854,0.0261143,0.0427635,-0.0239795,0.449361,0.0390395,0.0432512,1364,1709,5.42598,-17.8353
147,-685,5.45081,18.3113,0.0302939,-0.011756,0.0266754,0.0432341,-0.0246962,0.451653,0.0397034,0.0431828,1371,1709,5.45077,-18.3112
154,-685,5.41003,18.3323,0,0,0,0,0,0,0,-1,1378,1709,5.41001,-18.3323
161,-685,5.89368,18.1697,0,0,0,0,0,0,0,-1,1385,1709,5.89365,-18.1697
168,-685,4.37524,10.8778,0,0,0,0,0,0,0,-1,1392,1709,4.37525,-10.8778
175,-685,3.97522,8.94324,0,0,0,0,0,0,0,-1,1399,1709,3.97519,-8.94328
182,-685,3.98218,9.19739,0,0,0,0,0,0,0,-1,1406,1709,3.98221,-9.1974
189,-685,4.53479,15.2343,0,0,0,0,0,0,0,-1,1413,1709,4.53474,-15.2343
196,-685,5.40454,18.1067,0,0,0,0,0,0,0,-1,1420,1709,5.40451,-18.1067
203,-685,5.59326,18.5621,0,0,0,0,0,0,0,-1,1427,1709,5.59325,-18.5621
210,-685,5.40759,18.0957,0.0027771,0.00325481,-0.00140138,0.00443754,0.00159436,-0.869808,0.00259561,0.0471763,1434,1709,5.40754,-18.0957
217,-685,5.4657,17.7128,0.00193174,0.00239736,-0.00163394,0.003815,0.000514107,-0.856163,0.00239046,0.0262198,1441,1709,5.46567,-17.7128
224,-685,5.41882,17.5723,0.00167211,0.00129482,-0.00118021,0.00267866,0.000288272,-0.706149,0.00169786,0.0164388,1448,1709,5.41884,-17.5723
231,-685,5.4397,17.491,0.00167347,-4.47407e-06,-0.000844064,0.00202459,-0.000355593,-0.394211,0.00148254,0.0164828,1455,1709,5.43974,-17.491
238,-685,5.45947,17.4058,0.00211148,-0.000920493,-0.000875281,0.00234602,-0.00115503,-0.261806,0.00205995,0.0189493,1462,1709,5.45948,-17.4058
245,-685,5.45959,17.3269,0.00236753,-0.00179719,-0.000642895,0.00246451,-0.00189417,-0.149725,0.00252366,0.0209473,1469,1709,5.45955,-17.3269
252,-685,5.47156,17.2644,0.00247263,-0.00230951,-0.000390345,0.00250428,-0.00234116,-0.0809118,0.00279805,0.0144413,1476,1709,5.47153,-17.2644
259,-685,5.49182,17.1938,0.00254951,-0.00267587,-0.000199006,0.00255708,-0.00268343,-0.0380111,0.00302591,0.00951953,1483,1709,5.49179,-17.1938
266,-685,5.50793,17.0946,0.00254057,-0.003262,-1.1416e-05,0.0025406,-0.00326202,-0.0019674,0.00335876,0.0106552,1490,1709,5.50796,-17.0946
273,-685,5.51953,16.9939,0.0024626,-0.00287762,-9.40177e-05,0.00246425,-0.00287928,-0.0175983,0.00308819,0.0129933,1497,1709,5.51947,-16.9939
280,-685,5.51709,16.8778,0.00224087,-0.00225882,-0.000215484,0.00225117,-0.00226912,-0.047743,0.00260979,0.0146139,1504,1709,5.51712,-16.8778
287,-685,5.53149,16.7581,0.00181288,-0.00157029,-0.00025086,0.00183138,-0.00158879,-0.0736129,0.00197629,0.0113478,1511,1709,5.53147,-16.758
294,-685,5.52368,16.6439,0.00129196,-0.000830105,-0.000277434,0.00132763,-0.000865777,-0.127875,0.00127569,0.0104553,1518,1709,5.52368,-16.6439
301,-685,5.5072,16.5024,0.000618418,-0.000111835,-0.000271913,0.000708543,-0.00020196,-0.320053,0.000552135,0.0132181,1525,1709,5.50723,-16.5024
308,-685,5.52209,16.3815,-0.000112093,0.000444125,-0.000104521,0.000463117,-0.000131085,-1.39105,0.000360474,0.0134923,1532,1709,5.52209,-16.3815
315,-685,5.53821,16.2839,-0.000706733,0.000820962,0.000106857,0.0008284,-0.000714171,1.5013,0.000891418,0.0120553,1539,1709,5.53819,-16.284
322,-685,5.50464,16.1422,-0.00139366,0.00111456,0.000438788,0.00118911,-0.00146821,1.40251,0.00153702,0.0193669,1546,1709,5.50468,-16.1422
329,-685,5.48633,16.0055,-0.00187404,0.00118046,0.000876356,0.00141403,-0.00210761,1.31033,0.00204633,0.0180757,1553,1709,5.48632,-16.0055
336,-685,5.49915,15.8672,-0.00205211,0.00132361,0.00114254,0.00167395,-0.00240245,1.27326,0.00236601,0.0131945,1560,1709,5.49908,-15.8672
343,-685,5.4928,15.7213,-0.00215842,0.0016312,0.00128745,0.0020272,-0.00255443,1.27239,0.00265104,0.0118218,1567,1709,5.49286,-15.7213
350,-685,5.48877,15.5725,-0.00206697,0.00177142,0.00144605,0.00225522,-0.00255077,1.24794,0.00277648,0.0119882,1574,1709,5.48882,-15.5725
357,-685,5.50537,15.4371,-0.00161937,0.00213014,0.00136273,0.00257309,-0.00206231,1.25653,0.00268166,0.00956295,1581,1709,5.50532,-15.4372
364,-685,5.49597,15.2841,-0.000888714,0.00345321,0.00073721,0.00357496,-0.00101047,1.40712,0.00278199,0.00942631,1588,1709,5.49594,-15.2841
371,-685,5.50513,15.0985,-0.000124116,0.00438391,0.000126875,0.00438748,-0.000127684,1.54268,0.00296846,0.0157211,1595,1709,5.50509,-15.0985
378,-685,5.44983,14.9762,0.000893094,0.00640419,-0.00106347,0.00660228,0.000694997,-1.38663,0.00418912,0.0235445,1602,1709,5.4498,-14.9761
385,-685,5.44067,14.7523,0.00195332,0.00907833,-0.00273629,0.0100079,0.00102375,-1.24331,0.00635822,0.0404311,1609,1709,5.44063,-14.7523
392,-685,5.55627,14.287,0.0026887,0.0127711,-0.00478595,0.0146811,0.000778724,-1.19108,0.00953844,0.0427799,1616,1709,5.55631,-14.287
399,-685,5.44849,14.3713,0,0,0,0,0,0,0,-1,1623,1709,5.44849,-14.3713
406,-685,5.46558,14.1185,0,0,0,0,0,0,0,-1,1630,1709,5.46552,-14.1186
413,-685,5.81238,13.2112,0,0,0,0,0,0,0,-1,1637,1709,5.81236,-13.2112
420,-685,4.84631,10.3781,0,0,0,0,0,0,0,-1,1644,1709,4.84634,-10.378
427,-685,6.05151,9.21155,0,0,0,0,0,0,0,-1,1651,1709,6.05156,-9.21156
434,-685,4.87769,8.91418,0,0,0,0,0,0,0,-1,1658,1709,4.87768,-8.91413
441,-685,5.62,8.75549,0,0,0,0,0,0,0,-1,1665,1709,5.61996,-8.75545
448,-685,6.4043,8.58972,0,0,0,0,0,0,0,-1,1672,1709,6.40435,-8.58971
455,-685,2.31958,4.09802,0,0,0,0,0,0,0,-1,1679,1709,2.31957,-4.09803
462,-685,0,0,0,0,0,0,0,0,0,-1,1686,1709,0,0
469,-685,0,0,0,0,0,0,0,0,0,-1,1693,1709,0,0
476,-685,0,0,0,0,0,0,0,0,0,-1,1700,1709,0,0
483,-685,0,0,0,0,0,0,0,0,0,-1,1707,1709,0,0
490,-685,0,0,0,0,0,0,0,0,0,-1,1714,1709,0,0
497,-685,0,0,0,0,0,0,0,0,0,-1,1721,1709,0,0
504,-685,0,0,0,0,0,0,0,0,0,-1,1728,1709,0,0
511,-685,0,0,0,0,0,0,0,0,0,-1,1735,1709,0,0
518,-685,0,0,0,0,0,0,0,0,0,-1,1742,1709,0,0
525,-685,0,0,0,0,0,0,0,0,0,-1,1749,1709,0,0
532,-685,0,0,0,0,0,0,0,0,0,-1,1756,1709,0,0
539,-685,0,0,0,0,0,0,0,0,0,-1,1763,1709,0,0
546,-685,0,0,0,0,0,0,0,0,0,-1,1770,1709,0,0
553,-685,0,0,0,0,0,0,0,0,0,-1,1777,1709,0,0
560,-685,0,0,0,0,0,0,0,0,0,-1,1784,1709,0,0
567,-685,0,0,0,0,0,0,0,0,0,-1,1791,1709,0,0
574,-685,0,0,0,0,0,0,0,0,0,-1,1798,1709,0,0
581,-685,0,0,0,0,0,0,0,0,0,-1,1805,1709,0,0
588,-685,0,0,0,0,0,0,0,0,0,-1,1812,1709,0,0
595,-685,0,0,0,0,0,0,0,0,0,-1,1819,1709,0,0
602,-685,0,0,0,0,0,0,0,0,0,-1,1826,1709,0,0
609,-685,0,0,0,0,0,0,0,0,0,-1,1833,1709,0,0
616,-685,0,0,0,0,0,0,0,0,0,-1,1840,1709,0,0
623,-685,0,0,0,0,0,0,0,0,0,-1,1847,1709,0,0
630,-685,0,0,0,0,0,0,0,0,0,-1,1854,1709,0,0
637,-685,0,0,0,0,0,0,0,0,0,-1,1861,1709,0,0
644,-685,0,0,0,0,0,0,0,0,0,-1,1868,1709,0,0
651,-685,0,0,0,0,0,0,0,0,0,-1,1875,1709,0,0
658,-685,0,0,0,0,0,0,0,0,0,-1,1882,1709,0,0
665,-685,0,0,0,0,0,0,0,0,0,-1,1889,1709,0,0
672,-685,0,0,0,0,0,0,0,0,0,-1,1896,1709,0,0
679,-685,0,0,0,0,0,0,0,0,0,-1,1903,1709,0,0
686,-685,0,0,0,0,0,0,0,0,0,-1,1910,1709,0,0
693,-685,0,0,0,0,0,0,0,0,0,-1,1917,1709,0,0
700,-685,0,0,0,0,0,0,0,0,0,-1,1924,1709,0,0
707,-685,0,0,0,0,0,0,0,0,0,-1,1931,1709,0,0
714,-685,0,0,0,0,0,0,0,0,0,-1,1938,1709,0,0
721,-685,0,0,0,0,0,0,0,0,0,-1,1945,1709,0,0
728,-685,0,0,0,0,0,0,0,0,0,-1,1952,1709,0,0
735,-685,0,0,0,0,0,0,0,0,0,-1,1959,1709,0,0
742,-685,0,0,0,0,0,0,0,0,0,-1,1966,1709,0,0
749,-685,0,0,0,0,0,0,0,0,0,-1,1973,1709,0,0
756,-685,0,0,0,0,0,0,0,0,0,-1,1980,1709,0,0
763,-685,0,0,0,0,0,0,0,0,0,-1,1987,1709,0,0
770,-685,0,0,0,0,0,0,0,0,0,-1,1994,1709,0,0
777,-685,0,0,0,0,0,0,0,0,0,-1,2001,1709,0,0
784,-685,0,0,0,0,0,0,0,0,0,-1,2008,1709,0,0
791,-685,0,0,0,0,0,0,0,0,0,-1,2015,1709,0,0
798,-685,0,0,0,0,0,0,0,0,0,-1,2022,1709,0,0
805,-685,0,0,0,0,0,0,0,0,0,-1,2029,1709,0,0
812,-685,0,0,0,0,0,0,0,0,0,-1,2036,1709,0,0
-700,-692,0,0,0,0,0,0,0,0,0,-1,524,1716,0,0
-693,-692,0,0,0,0,0,0,0,0,0,-1,531,1716,0,0
-686,-692,0,0,0,0,0,0,0,0,0,-1,538,1716,0,0
-679,-692,0,0,0,0,0,0,0,0,0,-1,545,1716,0,0
-672,-692,0,0,0,0,0,0,0,0,0,-1,552,1716,0,0
-665,-692,0,0,0,0,0,0,0,0,0,-1,559,1716,0,0
-658,-692,0,0,0,0,0,0,0,0,0,-1,566,1716,0,0
-651,-692,0,0,0,0,0,0,0,0,0,-1,573,1716,0,0
-644,-692,0,0,0,0,0,0,0,0,0,-1,580,1716,0,0
-637,-692,0,0,0,0,0,0,0,0,0,-1,587,1716,0,0
-630,-692,0,0,0,0,0,0,0,0,0,-1,594,1716,0,0
-623,-692,0,0,0,0,0,0,0,0,0,-1,601,1716,0,0
-616,-692,0,0,0,0,0,0,0,0,0,-1,608,1716,0,0
-609,-692,0,0,0,0,0,0,0,0,0,-1,615,1716,0,0
-602,-692,0,0,0,0,0,0,0,0,0,-1,622,1716,0,0
-595,-692,0,0,0,0,0,0,0,0,0,-1,629,1716,0,0
-588,-692,0,0,0,0,0,0,0,0,0,-1,636,1716,0,0
-581,-692,0,0,0,0,0,0,0,0,0,-1,643,1716,0,0
-574,-692,0,0,0,0,0,0,0,0,0,-1,650,1716,0,0
-567,-692,0,0,0,0,0,0,0,0,0,-1,657,1716,0,0
-560,-692,0,0,0,0,0,0,0,0,0,-1,664,1716,0,0
-553,-692,0,0,0,0,0,0,0,0,0,-1,671,1716,0,0
-546,-692,0,0,0,0,0,0,0,0,0,-1,678,1716,0,0
-539,-692,0,0,0,0,0,0,0,0,0,-1,685,1716,0,0
-532,-692,0,0,0,0,0,0,0,0,0,-1,692,1716,0,0
-525,-692,0,0,0,0,0,0,0,0,0,-1,699,1716,0,0
-518,-692,0,0,0,0,0,0,0,0,0,-1,706,1716,0,0
-511,-692,0,0,0,0,0,0,0,0,0,-1,713,1716,0,0
-504,-692,0,0,0,0,0,0,0,0,0,-1,720,1716,0,0
-497,-692,0,0,0,0,0,0,0,0,0,-1,727,1716,0,0
-490,-692,0,0,0,0,0,0,0,0,0,-1,734,1716,0,0
-483,-692,0,0,0,0,0,0,0,0,0,-1,741,1716,0,0
-476,-692,0,0,0,0,0,0,0,0,0,-1,748,1716,0,0
-469,-692,0,0,0,0,0,0,0,0,0,-1,755,1716,0,0
-462,-692,0,0,0,0,0,0,0,0,0,-1,762,1716,0,0
-455,-692,0,0,0,0,0,0,0,0,0,-1,769,1716,0,0
-448,-692,0,0,0,0,0,0,0,0,0,-1,776,1716,0,0
-441,-692,0,0,0,0,0,0,0,0,0,-1,783,1716,0,0
-434,-692,0,0,0,0,0,0,0,0,0,-1,790,1716,0,0
-427,-692,0,0,0,0,0,0,0,0,0,-1,797,1716,0,0
-420,-692,0,0,0,0,0,0,0,0,0,-1,804,1716,0,0
-413,-692,0,0,0,0,0,0,0,0,0,-1,811,1716,0,0
-406,-692,0,0,0,0,0,0,0,0,0,-1,818,1716,0,0
-399,-692,0,0,0,0,0,0,0,0,0,-1,825,1716,0,0
-392,-692,0,0,0,0,0,0,0,0,0,-1,832,1716,0,0
-385,-692,0,0,0,0,0,0,0,0,0,-1,839,1716,0,0
-378,-692,0,0,0,0,0,0,0,0,0,-1,846,1716,0,0
-371,-692,0,0,0,0,0,0,0,0,0,-1,853,1716,0,0
-364,-692,0,0,0,0,0,0,0,0,0,-1,860,1716,0,0
-357,-692,0,0,0,0,0,0,0,0,0,-1,867,1716,0,0
-350,-692,0,0,0,0,0,0,0,0,0,-1,874,1716,0,0
-343,-692,0,0,0,0,0,0,0,0,0,-1,881,1716,0,0
-336,-692,0,0,0,0,0,0,0,0,0,-1,888,1716,0,0
-329,-692,3.12396,3.50745,0,0,0,0,0,0,0,-1,895,1716,3.12398,-3.50748
-322,-692,3.67346,17.0139,0,0,0,0,0,0,0,-1,902,1716,3.67349,-17.0139
-315,-692,3.98718,15.2626,0,0,0,0,0,0,0,-1,909,1716,3.98716,-15.2626
-308,-692,4.28339,13.5061,0,0,0,0,0,0,0,-1,916,1716,4.2834,-13.5061
-301,-692,3.78101,15.3895,0,0,0,0,0,0,0,-1,923,1716,3.78098,-15.3895
-294,-692,5.86267,14.4792,0,0,0,0,0,0,0,-1,930,1716,5.86269,-14.4793
-287,-692,5.51062,14.213,0,0,0,0,0,0,0,-1,937,1716,5.51059,-14.213
-280,-692,5.4433,13.7449,-0.0192822,-0.0300215,-0.0515536,0.0271806,-0.0764843,-0.733507,0.0620664,0.0459184,944,1716,5.44332,-13.7448
-273,-692,5.46936,13.7837,0,0,0,0,0,0,0,-1,951,1716,5.46939,-13.7836
-266,-692,5.94275,14.1886,0,0,0,0,0,0,0,-1,958,1716,5.94277,-14.1886
-259,-692,5.43103,13.8014,0,0,0,0,0,0,0,-1,965,1716,5.43105,-13.8014
-252,-692,5.04047,13.9944,0,0,0,0,0,0,0,-1,972,1716,5.04044,-13.9944
-245,-692,4.69922,14.1321,-0.00587817,-0.0104048,-0.013922,0.00596323,-0.0222462,-0.704817,0.0171673,0.0463687,979,1716,4.69923,-14.132
-238,-692,4.72559,14.4165,-0.00386012,-0.00690626,-0.00829127,0.0030468,-0.0138132,-0.694563,0.0103746,0.0433643,986,1716,4.72561,-14.4165
-231,-692,4.70178,14.5964,-0.00169679,-0.00476343,-0.00228721,-0.000476494,-0.00598373,-0.490112,0.00384019,0.0332647,993,1716,4.70177,-14.5965
-224,-692,4.573,14.7489,-0.00013764,-0.00294821,0.00168167,0.000648611,-0.00373446,0.437346,0.00273163,0.0167761,1000,1716,4.57299,-14.7489
-217,-692,4.5354,14.8928,0.000456824,-0.00283892,0.00211404,0.00148937,-0.00387147,0.454344,0.00319531,0.0121683,1007,1716,4.53542,-14.8928
-210,-692,4.54706,15.062,0.000784944,-0.00246209,0.0025834,0.00221262,-0.00388976,0.504863,0.00356729,0.0123303,1014,1716,4.54704,-15.062
-203,-692,4.54565,15.2069,0.00105052,-0.0020894,0.00262094,0.00253574,-0.00357462,0.515554,0.00354477,0.0137751,1021,1716,4.54566,-15.2069
-196,-692,4.53235,15.3799,0.00109193,-0.00163874,0.00227786,0.0023823,-0.00292911,0.515411,0.00307196,0.0171183,1028,1716,4.53239,-15.3799
-189,-692,4.50415,15.5039,0.00100447,-0.00118542,0.00186092,0.00206867,-0.00224963,0.519479,0.0024939,0.00970498,1035,1716,4.50411,-15.5039
-182,-692,4.50159,15.6621,0.000801202,-0.000609594,0.00136656,0.00163369,-0.00144208,0.547143,0.00177694,0.0143875,1042,1716,4.50162,-15.6621
-175,-692,4.49548,15.8368,0.000731114,6.22785e-05,0.00102267,0.00147266,-0.000679267,0.627377,0.00127025,0.0145294,1049,1716,4.49554,-15.8368
-168,-692,4.50903,15.9429,0.000503848,0.0002857,0.000506694,0.000913075,-0.000123527,0.679383,0.000653794,0.0112119,1056,1716,4.50908,-15.9428
-161,-692,4.52258,16.0851,0.000375905,0.000691252,0.000246563,0.000826246,0.000240911,1.06987,0.000490654,0.013718,1063,1716,4.5226,-16.085
-154,-692,4.5188,16.2518,0.000408444,0.00092772,0.000145201,0.000965564,0.000370601,1.31584,0.000562463,0.0146486,1070,1716,4.51884,-16.2519
-147,-692,4.50793,16.3721,0.000575933,0.000883874,8.6992e-05,0.000906749,0.000553057,1.31366,0.000527713,0.0133722,1077,1716,4.50799,-16.372
-140,-692,4.49292,16.4806,0.000876214,0.000631264,5.48467e-05,0.000887933,0.000619544,0.21052,0.000525842,0.0105537,1084,1716,4.49288,-16.4805
-133,-692,4.49805,16.6028,0.0012328,0.000198584,4.61033e-05,0.00123485,0.000196533,0.0444605,0.000766171,0.00954061,1091,1716,4.49799,-16.6028
-126,-692,4.5105,16.7281,0.0016955,-0.000219974,0.000199761,0.00171611,-0.000240584,0.102814,0.00123213,0.00799008,1098,1716,4.51048,-16.7281
-119,-692,4.50452,16.8335,0.00224411,-0.000514501,0.000495567,0.00233043,-0.000600825,0.172462,0.00178787,0.0120538,1105,1716,4.50457,-16.8334
-112,-692,4.51001,16.9446,0.00276558,-0.000972779,0.000746236,0.00290904,-0.00111623,0.189922,0.0023996,0.0112009,1112,1716,4.50996,-16.9445
-105,-692,4.55701,17.0386,0.00320864,-0.00136496,0.000994974,0.00341571,-0.00157204,0.205195,0.00294453,0.015213,1119,1716,4.55697,-17.0385
-98,-692,4.59106,17.1449,0.00357396,-0.00150655,0.00127827,0.00387745,-0.00181004,0.233104,0.00335521,0.0167596,1126,1716,4.59109,-17.1449
-91,-692,4.5686,17.2413,0.0039307,-0.00138486,0.00152304,0.00433616,-0.00179032,0.260184,0.0036375,0.018428,1133,1716,4.56862,-17.2413
-84,-692,4.56348,17.312,0.00431732,-0.00118659,0.00173336,0.00481772,-0.00168699,0.281045,0.00389779,0.0207626,1140,1716,4.56342,-17.312
-77,-692,4.55859,17.4495,0.00457429,-0.000987091,0.00165563,0.00502986,-0.00144266,0.268517,0.00392356,0.0143307,1147,1716,4.55859,-17.4495
-70,-692,4.59399,17.5859,0.00452185,-0.000439713,0.00132954,0.00485566,-0.000773528,0.245991,0.00352337,0.0189299,1154,1716,4.59404,-17.5859
-63,-692,4.60132,17.6526,0.00481427,-0.000286834,0.000403749,0.00484603,-0.000318593,0.078498,0.00334195,0.0291912,1161,1716,4.60136,-17.6525
-56,-692,4.63843,17.6957,0,0,0,0,0,0,0,-1,1168,1716,4.63839,-17.6957
-49,-692,4.58276,17.7732,0,0,0,0,0,0,0,-1,1175,1716,4.58275,-17.7732
-42,-692,4.63696,18.0261,0,0,0,0,0,0,0,-1,1182,1716,4.63699,-18.0262
-35,-692,4.67358,18.0547,0,0,0,0,0,0,0,-1,1189,1716,4.6736,-18.0547
-28,-692,4.59973,18.028,0.00213118,0.00378036,-0.00219404,0.00529965,0.000611898,-0.965148,0.00334782,0.0421433,1196,1716,4.59972,-18.0279
-21,-692,4.71204,17.9741,0.00162097,0.00322025,-0.00249042,0.00503626,-0.000195039,-0.940742,0.00342437,0.027728,1203,1716,4.71202,-17.9741
-14,-692,4.73328,17.9987,0.00118343,0.00209343,-0.00265164,0.00432882,-0.00105196,-0.870366,0.00329303,0.0158623,1210,1716,4.73333,-17.9987
-7,-692,4.71826,18.1082,0.00342163,0.00470411,-0.00453853,0.00864647,-0.000520737,-0.855578,0.0059455,0.0168722,1217,1716,4.71828,-18.1082
0,-692,4.75818,18.1592,0.00486031,0.0088104,-0.0065164,0.0136445,2.62242e-05,-0.932542,0.0090876,0.0197406,1224,1716,4.75812,-18.1592
7,-692,4.76672,18.1554,0.00557239,0.0103482,-0.00798452,0.0162942,-0.00037366,-0.930697,0.0109895,0.023503,1231,1716,4.76672,-18.1554
14,-692,4.86646,18.2456,0.00778461,0.0121304,-0.00999749,0.0201884,-0.000273369,-0.892407,0.013551,0.0250062,1238,1716,4.86645,-18.2456
21,-692,4.95361,18.2378,0.0108653,0.0156667,-0.0125672,0.0260604,0.000471553,-0.879775,0.0172186,0.0245402,1245,1716,4.95358,-18.2378
28,-692,4.90369,18.1938,0.0133195,0.0186304,-0.0141238,0.0303462,0.00160368,-0.87832,0.019718,0.0232992,1252,1716,4.90363,-18.1938
35,-692,4.90857,18.2467,0.0159021,0.0209397,-0.0151295,0.0337586,0.00308318,-0.867885,0.0215517,0.0222332,1259,1716,4.90858,-18.2467
42,-692,4.97729,18.3508,0.018697,0.0227191,-0.0158236,0.036659,0.00475717,-0.848605,0.023018,0.0208779,1266,1716,4.97729,-18.3508
49,-692,5.00012,18.3792,0.0217056,0.0245121,-0.0162079,0.0393774,0.00684026,-0.828579,0.0242946,0.0259147,1273,1716,5.00008,-18.3791
56,-692,4.94604,18.3596,0.0244677,0.0245611,-0.0153157,0.0398302,0.00919857,-0.786923,0.0240802,0.0316924,1280,1716,4.94603,-18.3597
63,-692,4.99658,18.3612,0.0262856,0.0233787,-0.0132816,0.038193,0.0114713,-0.730897,0.0226291,0.0290593,1287,1716,4.99661,-18.3612
70,-692,5.02979,18.3751,0.0269883,0.021885,-0.0101696,0.0349214,0.0139518,-0.662481,0.0202972,0.0252499,1294,1716,5.02973,-18.3751
77,-692,5.05164,18.399,0.0278414,0.0198591,-0.00688579,0.0318091,0.0158914,-0.522748,0.018365,0.0279843,1301,1716,5.05158,-18.399
84,-692,5.13599,18.3718,0.027733,0.0162723,-0.00284924,0.0284023,0.0156031,-0.23071,0.0164247,0.0324158,1308,1716,5.13597,-18.3718
91,-692,5.18774,18.3885,0.0269652,0.0125165,0.000950266,0.0270274,0.0124543,0.0653931,0.0156202,0.0295345,1315,1716,5.18774,-18.3886
98,-692,5.11597,18.4131,0.0249893,0.0067944,0.00556272,0.0265552,0.00522848,0.274401,0.0162436,0.0244399,1322,1716,5.11597,-18.4131
105,-692,5.12036,18.3833,0.0245689,0.00208676,0.00923414,0.0278753,-0.00121971,0.343847,0.0190032,0.0304805,1329,1716,5.1203,-18.3834
112,-692,5.07141,18.3248,0.0244908,0.000246534,0.0117021,0.0292176,-0.0044802,0.383884,0.0211307,0.0364792,1336,1716,5.07136,-18.3248
119,-692,5.06848,18.2886,0.0229058,-0.00260379,0.0139912,0.0290835,-0.00878147,0.415796,0.0228848,0.0330323,1343,1716,5.06845,-18.2886
126,-692,5.11682,18.2563,0.0211836,-0.00678552,0.0159478,0.0284099,-0.0140118,0.425447,0.024958,0.0313483,1350,1716,5.1168,-18.2564
133,-692,5.16589,18.1984,0.0204572,-0.0100122,0.0169563,0.0280175,-0.0175724,0.419413,0.0265507,0.0232648,1357,1716,5.16583,-18.1984
140,-692,5.17566,18.1912,0.0197499,-0.0120056,0.0174594,0.0274715,-0.0197273,0.416403,0.0273722,0.0263964,1364,1716,5.17569,-18.1912
147,-692,5.245,18.307,0.0188955,-0.013142,0.0178053,0.0268273,-0.0210738,0.419083,0.0277221,0.0281559,1371,1716,5.24502,-18.307
154,-692,5.25952,18.2668,0.017792,-0.0137327,0.0175931,0.025651,-0.0215917,0.420113,0.0273091,0.0265363,1378,1716,5.25954,-18.2668
161,-692,5.52319,18.1813,0.0166442,-0.0118121,0.015609,0.0235367,-0.0187046,0.415823,0.0244412,0.0410896,1385,1716,5.52316,-18.1813
168,-692,5.71057,18.1449,0,0,0,0,0,0,0,-1,1392,1716,5.71061,-18.145
175,-692,5.31226,18.1326,0,0,0,0,0,0,0,-1,1399,1716,5.31224,-18.1325
182,-692,5.30334,18.0536,0,0,0,0,0,0,0,-1,1406,1716,5.30332,-18.0536
189,-692,5.40881,18.0905,0,0,0,0,0,0,0,-1,1413,1716,5.4088,-18.0904
196,-692,5.32446,17.9398,0.0060153,0.000619138,0.00124835,0.0062901,0.000344336,0.216675,0.00408346,0.0275896,1420,1716,5.32441,-17.9398
203,-692,5.32617,17.858,0.0028579,0.00255761,-0.000653887,0.00337866,0.00203685,-0.672543,0.00196438,0.0178902,1427,1716,5.32622,-17.8581
210,-692,5.34973,17.7745,0.00219033,0.0021242,-0.000879865,0.00303775,0.00127678,-0.766617,0.00176126,0.0173775,1434,1716,5.34975,-17.7746
217,-692,5.36023,17.7017,0.0015804,0.00157262,-0.0011115,0.00268802,0.000465004,-0.783648,0.00165888,0.0166857,1441,1716,5.36023,-17.7017
224,-692,5.36914,17.6484,0.00138765,0.000900683,-0.000869788,0.00204739,0.000240942,-0.648925,0.00129212,0.0127911,1448,1716,5.36914,-17.6485
231,-692,5.3656,17.5558,0.00131654,0.000122281,-0.000674312,0.00162011,-0.000181288,-0.423013,0.0011453,0.0102937,1455,1716,5.36564,-17.5558
238,-692,5.37939,17.3953,0.00149066,-0.000437487,-0.000656605,0.00169302,-0.000639847,-0.298955,0.00139188,0.0164377,1462,1716,5.37941,-17.3952
245,-692,5.38037,17.2968,0.00159381,-0.000972107,-0.000511172,0.0016919,-0.00107019,-0.189577,0.0016081,0.020161,1469,1716,5.38039,-17.2967
252,-692,5.38989,17.2528,0.00161539,-0.00128534,-0.000376524,0.00166347,-0.00133342,-0.126999,0.00173375,0.0177353,1476,1716,5.38986,-17.2528
259,-692,5.3772,17.1852,0.00161973,-0.00146792,-0.000298019,0.00164823,-0.00149642,-0.0953467,0.00181627,0.00921561,1483,1716,5.37721,-17.1852
266,-692,5.38159,17.0891,0.00154815,-0.00162597,-0.000234025,0.00156531,-0.00164313,-0.0732018,0.00185258,0.00928081,1490,1716,5.38163,-17.0891
273,-692,5.40051,16.9849,0.00141209,-0.00118456,-0.000348121,0.00145795,-0.00123042,-0.130985,0.00155398,0.0133463,1497,1716,5.40051,-16.9848
280,-692,5.41589,16.8657,0.00110626,-0.00053741,-0.000481206,0.00123677,-0.000667926,-0.264855,0.00111591,0.0124905,1504,1716,5.41592,-16.8658
287,-692,5.41492,16.7571,0.000578381,9.10237e-05,-0.00045064,0.000847007,-0.000177602,-0.537546,0.000632242,0.00987891,1511,1716,5.41492,-16.757
294,-692,5.40234,16.662,4.25828e-05,0.00085008,-0.0004885,0.00108009,-0.000187424,-1.13075,0.000789979,0.010458,1518,1716,5.40235,-16.662
301,-692,5.39404,16.5441,-0.000684821,0.00155025,-0.000462546,0.00164219,-0.000776763,-1.37458,0.00142606,0.0136596,1525,1716,5.39404,-16.5441
308,-692,5.37683,16.4431,-0.00149507,0.00204213,-0.000208145,0.00205433,-0.00150727,-1.51222,0.00206436,0.0159828,1532,1716,5.37682,-16.4431
315,-692,5.40002,16.2974,-0.00208858,0.0023233,7.88308e-05,0.00232471,-0.00208999,1.55294,0.00255002,0.0152644,1539,1716,5.40007,-16.2974
322,-692,5.38721,16.1227,-0.0028289,0.00249169,0.000536069,0.00254516,-0.00288237,1.47137,0.0031356,0.0204575,1546,1716,5.38718,-16.1227
329,-692,5.37451,15.9879,-0.00333376,0.00238201,0.00113871,0.00260051,-0.00355226,1.38121,0.00356645,0.0166733,1553,1716,5.37447,-15.988
336,-692,5.36743,15.8497,-0.00344393,0.00233587,0.00152053,0.00271148,-0.00381954,1.32862,0.00378873,0.0113696,1560,1716,5.36749,-15.8498
343,-692,5.36414,15.699,-0.00343932,0.00249547,0.00175523,0.00297572,-0.00391957,1.30372,0.00399341,0.012069,1567,1716,5.36416,-15.6989
350,-692,5.35876,15.5483,-0.00321167,0.0024634,0.00205971,0.00313214,-0.00388041,1.25685,0.00405638,0.0126468,1574,1716,5.35874,-15.5483
357,-692,5.35327,15.4363,-0.00253877,0.00273285,0.00209,0.0034609,-0.00326683,1.23559,0.0038848,0.0164288,1581,1716,5.35323,-15.4363
364,-692,5.33679,15.2766,-0.00146573,0.0041353,0.00146555,0.0044956,-0.00182603,1.32973,0.0037567,0.0229477,1588,1716,5.33676,-15.2766
371,-692,5.11646,15.1063,-0.000292935,0.00501834,0.000779351,0.00513034,-0.000404931,1.42807,0.00356288,0.0353085,1595,1716,5.11645,-15.1063
378,-692,5.00391,15.0059,0.00116155,0.0075499,-0.000675376,0.00762052,0.00109093,-1.46661,0.00475857,0.0422012,1602,1716,5.00391,-15.0059
385,-692,5.21655,14.5427,0.00278964,0.0109547,-0.00278529,0.0118144,0.00193002,-1.27144,0.00731823,0.0489293,1609,1716,5.2166,-14.5428
392,-692,5.38489,14.0841,0,0,0,0,0,0,0,-1,1616,1716,5.38495,-14.0841
399,-692,5.2627,10.4279,0,0,0,0,0,0,0,-1,1623,1716,5.26267,-10.4278
406,-692,4.73633,10.6808,0,0,0,0,0,0,0,-1,1630,1716,4.73637,-10.6808
413,-692,4.25085,10.5685,0,0,0,0,0,0,0,-1,1637,1716,4.2508,-10.5685
420,-692,5.48901,10.4845,0,0,0,0,0,0,0,-1,1644,1716,5.48906,-10.4845
427,-692,3.79578,8.60339,0,0,0,0,0,0,0,-1,1651,1716,3.79577,-8.6034
434,-692,4.78516,8.64636,0,0,0,0,0,0,0,-1,1658,1716,4.78512,-8.64634
441,-692,5.8208,8.74036,0,0,0,0,0,0,0,-1,1665,1716,5.82084,-8.7404
448,-692,6.73792,8.51013,0,0,0,0,0,0,0,-1,1672,1716,6.73793,-8.5101
455,-692,0,0,0,0,0,0,0,0,0,-1,1679,1716,0,0
462,-692,0,0,0,0,0,0,0,0,0,-1,1686,1716,0,0
469,-692,0,0,0,0,0,0,0,0,0,-1,1693,1716,0,0
476,-692,0,0,0,0,0,0,0,0,0,-1,1700,1716,0,0
483,-692,0,0,0,0,0,0,0,0,0,-1,1707,1716,0,0
490,-692,0,0,0,0,0,0,0,0,0,-1,1714,1716,0,0
497,-692,0,0,0,0,0,0,0,0,0,-1,1721,1716,0,0
504,-692,0,0,0,0,0,0,0,0,0,-1,1728,1716,0,0
511,-692,0,0,0,0,0,0,0,0,0,-1,1735,1716,0,0
518,-692,0,0,0,0,0,0,0,0,0,-1,1742,1716,0,0
525,-692,0,0,0,0,0,0,0,0,0,-1,1749,1716,0,0
532,-692,0,0,0,0,0,0,0,0,0,-1,1756,1716,0,0
539,-692,0,0,0,0,0,0,0,0,0,-1,1763,1716,0,0
546,-692,0,0,0,0,0,0,0,0,0,-1,1770,1716,0,0
553,-692,0,0,0,0,0,0,0,0,0,-1,1777,1716,0,0
560,-692,0,0,0,0,0,0,0,0,0,-1,1784,1716,0,0
567,-692,0,0,0,0,0,0,0,0,0,-1,1791,1716,0,0
574,-692,0,0,0,0,0,0,0,0,0,-1,1798,1716,0,0
581,-692,0,0,0,0,0,0,0,0,0,-1,1805,1716,0,0
588,-692,0,0,0,0,0,0,0,0,0,-1,1812,1716,0,0
595,-692,0,0,0,0,0,0,0,0,0,-1,1819,1716,0,0
602,-692,0,0,0,0,0,0,0,0,0,-1,1826,1716,0,0
609,-692,0,0,0,0,0,0,0,0,0,-1,1833,1716,0,0
616,-692,0,0,0,0,0,0,0,0,0,-1,1840,1716,0,0
623,-692,0,0,0,0,0,0,0,0,0,-1,1847,1716,0,0
630,-692,0,0,0,0,0,0,0,0,0,-1,1854,1716,0,0
637,-692,0,0,0,0,0,0,0,0,0,-1,1861,1716,0,0
644,-692,0,0,0,0,0,0,0,0,0,-1,1868,1716,0,0
651,-692,0,0,0,0,0,0,0,0,0,-1,1875,1716,0,0
658,-692,0,0,0,0,0,0,0,0,0,-1,1882,1716,0,0
665,-692,0,0,0,0,0,0,0,0,0,-1,1889,1716,0,0
672,-692,0,0,0,0,0,0,0,0,0,-1,1896,1716,0,0
679,-692,0,0,0,0,0,0,0,0,0,-1,1903,1716,0,0
686,-692,0,0,0,0,0,0,0,0,0,-1,1910,1716,0,0
693,-692,0,0,0,0,0,0,0,0,0,-1,1917,1716,0,0
700,-692,0,0,0,0,0,0,0,0,0,-1,1924,1716,0,0
707,-692,0,0,0,0,0,0,0,0,0,-1,1931,1716,0,0
714,-692,0,0,0,0,0,0,0,0,0,-1,1938,1716,0,0
721,-692,0,0,0,0,0,0,0,0,0,-1,1945,1716,0,0
728,-692,0,0,0,0,0,0,0,0,0,-1,1952,1716,0,0
735,-692,0,0,0,0,0,0,0,0,0,-1,1959,1716,0,0
742,-692,0,0,0,0,0,0,0,0,0,-1,1966,1716,0,0
749,-692,0,0,0,0,0,0,0,0,0,-1,1973,1716,0,0
756,-692,0,0,0,0,0,0,0,0,0,-1,1980,1716,0,0
763,-692,0,0,0,0,0,0,0,0,0,-1,1987,1716,0,0
770,-692,0,0,0,0,0,0,0,0,0,-1,1994,1716,0,0
777,-692,0,0,0,0,0,0,0,0,0,-1,2001,1716,0,0
784,-692,0,0,0,0,0,0,0,0,0,-1,2008,1716,0,0
791,-692,0,0,0,0,0,0,0,0,0,-1,2015,1716,0,0
798,-692,0,0,0,0,0,0,0,0,0,-1,2022,1716,0,0
805,-692,0,0,0,0,0,0,0,0,0,-1,2029,1716,0,0
812,-692,0,0,0,0,0,0,0,0,0,-1,2036,1716,0,0
-700,-699,0,0,0,0,0,0,0,0,0,-1,524,1723,0,0
-693,-699,0,0,0,0,0,0,0,0,0,-1,531,1723,0,0
-686,-699,0,0,0,0,0,0,0,0,0,-1,538,1723,0,0
-679,-699,0,0,0,0,0,0,0,0,0,-1,545,1723,0,0
-672,-699,0,0,0,0,0,0,0,0,0,-1,552,1723,0,0
-665,-699,0,0,0,0,0,0,0,0,0,-1,559,1723,0,0
-658,-699,0,0,0,0,0,0,0,0,0,-1,566,1723,0,0
-651,-699,0,0,0,0,0,0,0,0,0,-1,573,1723,0,0
-644,-699,0,0,0,0,0,0,0,0,0,-1,580,1723,0,0
-637,-699,0,0,0,0,0,0,0,0,0,-1,587,1723,0,0
-630,-699,0,0,0,0,0,0,0,0,0,-1,594,1723,0,0
-623,-699,0,0,0,0,0,0,0,0,0,-1,601,1723,0,0
-616,-699,0,0,0,0,0,0,0,0,0,-1,608,1723,0,0
-609,-699,0,0,0,0,0,0,0,0,0,-1,615,1723,0,0
-602,-699,0,0,0,0,0,0,0,0,0,-1,622,1723,0,0
-595,-699,0,0,0,0,0,0,0,0,0,-1,629,1723,0,0
-588,-699,0,0,0,0,0,0,0,0,0,-1,636,1723,0,0
-581,-699,0,0,0,0,0,0,0,0,0,-1,643,1723,0,0
-574,-699,0,0,0,0,0,0,0,0,0,-1,650,1723,0,0
-567,-699,0,0,0,0,0,0,0,0,0,-1,657,1723,0,0
-560,-699,0,0,0,0,0,0,0,0,0,-1,664,1723,0,0
-553,-699,0,0,0,0,0,0,0,0,0,-1,671,1723,0,0
-546,-699,0,0,0,0,0,0,0,0,0,-1,678,1723,0,0
-539,-699,0,0,0,0,0,0,0,0,0,-1,685,1723,0,0
-532,-699,0,0,0,0,0,0,0,0,0,-1,692,1723,0,0
-525,-699,0,0,0,0,0,0,0,0,0,-1,699,1723,0,0
-518,-699,0,0,0,0,0,0,0,0,0,-1,706,1723,0,0
-511,-699,0,0,0,0,0,0,0,0,0,-1,713,1723,0,0
-504,-699,0,0,0,0,0,0,0,0,0,-1,720,1723,0,0
-497,-699,0,0,0,0,0,0,0,0,0,-1,727,1723,0,0
-490,-699,0,0,0,0,0,0,0,0,0,-1,734,1723,0,0
-483,-699,0,0,0,0,0,0,0,0,0,-1,741,1723,0,0
-476,-699,0,0,0,0,0,0,0,0,0,-1,748,1723,0,0
-469,-699,0,0,0,0,0,0,0,0,0,-1,755,1723,0,0
-462,-699,0,0,0,0,0,0,0,0,0,-1,762,1723,0,0
-455,-699,0,0,0,0,0,0,0,0,0,-1,769,1723,0,0
-448,-699,0,0,0,0,0,0,0,0,0,-1,776,1723,0,0
-441,-699,0,0,0,0,0,0,0,0,0,-1,783,1723,0,0
-434,-699,0,0,0,0,0,0,0,0,0,-1,790,1723,0,0
-427,-699,0,0,0,0,0,0,0,0,0,-1,797,1723,0,0
-420,-699,0,0,0,0,0,0,0,0,0,-1,804,1723,0,0
-413,-699,0,0,0,0,0,0,0,0,0,-1,811,1723,0,0
-406,-699,0,0,0,0,0,0,0,0,0,-1,818,1723,0,0
-399,-699,0,0,0,0,0,0,0,0,0,-1,825,1723,0,0
-392,-699,0,0,0,0,0,0,0,0,0,-1,832,1723,0,0
-385,-699,0,0,0,0,0,0,0,0,0,-1,839,1723,0,0
-378,-699,0,0,0,0,0,0,0,0,0,-1,846,1723,0,0
-371,-699,0,0,0,0,0,0,0,0,0,-1,853,1723,0,0
-364,-699,0,0,0,0,0,0,0,0,0,-1,860,1723,0,0
-357,-699,0,0,0,0,0,0,0,0,0,-1,867,1723,0,0
-350,-699,0,0,0,0,0,0,0,0,0,-1,874,1723,0,0
-343,-699,0,0,0,0,0,0,0,0,0,-1,881,1723,0,0
-336,-699,0,0,0,0,0,0,0,0,0,-1,888,1723,0,0
-329,-699,0,0,0,0,0,0,0,0,0,-1,895,1723,0,0
-322,-699,0,0,0,0,0,0,0,0,0,-1,902,1723,0,0
-315,-699,4.27734,16.1066,0,0,0,0,0,0,0,-1,909,1723,4.27737,-16.1066
-308,-699,4.55981,14.3354,0,0,0,0,0,0,0,-1,916,1723,4.55981,-14.3355
-301,-699,4.72729,12.8752,0,0,0,0,0,0,0,-1,923,1723,4.72732,-12.8752
-294,-699,6.34631,15.7372,0,0,0,0,0,0,0,-1,930,1723,6.34632,-15.7372
-287,-699,5.89685,14.8618,-0.0271225,-0.0389875,-0.0717364,0.0389263,-0.105036,-0.744143,0.0859885,0.046439,937,1723,5.89686,-14.8618
-280,-699,5.63226,14.031,-0.0248168,-0.0341044,-0.0649703,0.0356754,-0.0945966,-0.749721,0.0777347,0.0449042,944,1723,5.63224,-14.031
-273,-699,6.67828,13.9175,0,0,0,0,0,0,0,-1,951,1723,6.67827,-13.9174
-266,-699,7.21252,14.2368,0,0,0,0,0,0,0,-1,958,1723,7.21251,-14.2368
-259,-699,5.67737,10.8545,0,0,0,0,0,0,0,-1,965,1723,5.67736,-10.8545
-252,-699,5.03058,13.7029,0,0,0,0,0,0,0,-1,972,1723,5.03059,-13.7029
-245,-699,5.01843,14.0847,0,0,0,0,0,0,0,-1,979,1723,5.01845,-14.0847
-238,-699,5.02173,14.4802,0,0,0,0,0,0,0,-1,986,1723,5.02172,-14.4802
-231,-699,4.87708,14.7235,-0.00137993,-0.0067008,-0.00217633,-0.000603162,-0.00747756,-0.342821,0.00479664,0.0442893,993,1723,4.87708,-14.7236
-224,-699,4.64716,14.7157,0.000789212,-0.00422385,0.00313228,0.0022944,-0.00572904,0.447959,0.00477171,0.0354339,1000,1723,4.64715,-14.7157
-217,-699,4.69281,14.8387,0.0014285,-0.00401823,0.00351737,0.00315357,-0.00574331,0.455974,0.00520865,0.0254263,1007,1723,4.69278,-14.8388
-210,-699,4.70441,15.011,0.00169088,-0.00349459,0.00394723,0.00382074,-0.00562445,0.49481,0.00548623,0.0172395,1014,1723,4.7044,-15.011
-203,-699,4.72119,15.1709,0.00186246,-0.00289801,0.00382004,0.00398314,-0.00501869,0.506785,0.00520866,0.0198415,1021,1723,4.72117,-15.1709
-196,-699,4.69104,15.3193,0.00170586,-0.00219515,0.0032149,0.00351568,-0.00400497,0.512729,0.00434511,0.0179623,1028,1723,4.69099,-15.3193
-189,-699,4.65784,15.5077,0.00145411,-0.00153962,0.00257974,0.0029398,-0.00302531,0.522517,0.00344408,0.00950907,1035,1723,4.65787,-15.5077
-182,-699,4.64368,15.6793,0.00101056,-0.000811077,0.00182489,0.0021393,-0.00193982,0.553931,0.00235602,0.0123714,1042,1723,4.64363,-15.6793
-175,-699,4.65771,15.8328,0.000686142,0.000112138,0.00129197,0.0017226,-0.000924323,0.676101,0.0015512,0.0135951,1049,1723,4.65769,-15.8327
-168,-699,4.68494,15.9475,0.000186989,0.000380628,0.000559056,0.000851186,-0.000283569,0.87114,0.000681925,0.0148268,1056,1723,4.68489,-15.9475
-161,-699,4.67908,16.0835,-0.000184558,0.000964693,0.000146641,0.000983109,-0.000202973,1.44587,0.000732498,0.0136421,1063,1723,4.67909,-16.0835
-154,-699,4.6554,16.2571,-0.000352806,0.00133897,-4.73017e-05,0.00134029,-0.000354128,-1.54287,0.00103203,0.013337,1070,1723,4.65541,-16.2571
-147,-699,4.6438,16.3772,-0.000336772,0.00138916,-0.000159007,0.00140369,-0.000351299,-1.47969,0.00107225,0.0145367,1077,1723,4.64382,-16.3772
-140,-699,4.61877,16.4832,-0.000155737,0.00120156,-0.0002278,0.00123877,-0.000192949,-1.40887,0.000897106,0.0103858,1084,1723,4.61876,-16.4831
-133,-699,4.61719,16.6139,7.51747e-05,0.000857711,-0.00027961,0.000947351,-1.44653e-05,-1.26056,0.000636444,0.00906531,1091,1723,4.61718,-16.6139
-126,-699,4.63269,16.7333,0.000410584,0.000517287,-0.000157123,0.00062987,0.000298002,-0.949067,0.000363831,0.0115421,1098,1723,4.63267,-16.7332
-119,-699,4.63074,16.8484,0.00083654,0.000261944,0.000125515,0.000862761,0.000235723,0.205945,0.00051491,0.0171406,1105,1723,4.6307,-16.8484
-112,-699,4.6311,16.9543,0.00129786,-9.0564e-05,0.000384518,0.00139724,-0.000189941,0.252913,0.00100083,0.011374,1112,1723,4.63114,-16.9544
-105,-699,4.64209,17.052,0.00172321,-0.000412952,0.00060167,0.00188102,-0.00057076,0.256505,0.00148138,0.011729,1119,1723,4.64208,-17.052
-98,-699,4.65747,17.1526,0.00204446,-0.000589967,0.000839632,0.0022893,-0.000834815,0.283745,0.00186773,0.0140332,1126,1723,4.65751,-17.1526
-91,-699,4.67859,17.2334,0.00237407,-0.000536023,0.00106343,0.00272126,-0.00088321,0.315568,0.00216936,0.0198321,1133,1723,4.67862,-17.2334
-84,-699,4.66162,17.3242,0.00269126,-0.000401719,0.00123432,0.00312345,-0.000833908,0.336803,0.00240888,0.0232484,1140,1723,4.66163,-17.3243
-77,-699,4.66248,17.4332,0.00292874,-0.000232662,0.00118773,0.00332523,-0.00062916,0.322197,0.00245358,0.0157875,1147,1723,4.66252,-17.4332
-70,-699,4.65503,17.553,0.00299214,9.70664e-05,0.000962521,0.00328294,-0.000193732,0.293402,0.00225598,0.016521,1154,1723,4.65499,-17.553
-63,-699,4.67444,17.6233,0.00324227,0.000216956,0.000353332,0.00328299,0.000176238,0.114735,0.00213234,0.0139189,1161,1723,4.67446,-17.6233
-56,-699,4.66772,17.683,0.00358407,0.000489347,-0.000490565,0.00365997,0.000413446,-0.153505,0.00231451,0.00992065,1168,1723,4.66774,-17.683
-49,-699,4.6626,17.7931,0.00360032,0.00134307,-0.00147338,0.00432767,0.00061572,-0.458563,0.00270335,0.0213125,1175,1723,4.66255,-17.793
-42,-699,4.69653,17.921,0.00327146,0.0016809,-0.00160821,0.00427029,0.000682077,-0.555774,0.00264893,0.0245915,1182,1723,4.69654,-17.921
-35,-699,4.72583,17.9619,0.00342283,0.00138288,-0.00213154,0.00476587,3.98445e-05,-0.562242,0.00316405,0.0230326,1189,1723,4.72586,-17.962
-28,-699,4.75586,17.9888,0.00332358,0.000814541,-0.00247537,0.00484418,-0.000706057,-0.550861,0.0034887,0.0179052,1196,1723,4.75584,-17.9888
-21,-699,4.75647,17.9968,0.00307618,0.00017269,-0.00277107,0.00475275,-0.00150388,-0.544109,0.00377111,0.0126859,1203,1723,4.75652,-17.9968
-14,-699,4.76367,18.0604,0.0028693,-0.000873947,-0.00293134,0.00447557,-0.00248021,-0.501278,0.00407063,0.0118777,1210,1723,4.76365,-18.0604
-7,-699,4.76563,18.1379,0.00449721,0.00103546,-0.00425926,0.00736386,-0.00183119,-0.592402,0.00561997,0.00911572,1217,1723,4.7656,-18.1379
0,-699,4.77991,18.1959,0.00534679,0.00399062,-0.00567866,0.0103877,-0.00105029,-0.725975,0.00730046,0.0104331,1224,1723,4.77996,-18.196
7,-699,4.79993,18.2281,0.00560735,0.00498059,-0.00672651,0.0120278,-0.00143983,-0.762121,0.00853902,0.0160201,1231,1723,4.7999,-18.2282
14,-699,4.84143,18.2708,0.00599347,0.00616982,-0.00795843,0.0140406,-0.00187727,-0.790938,0.0100448,0.0175836,1238,1723,4.84147,-18.2708
21,-699,4.87329,18.2948,0.00654449,0.0077376,-0.00908577,0.0162464,-0.00196429,-0.81818,0.0115415,0.0162616,1245,1723,4.87334,-18.2948
28,-699,4.87549,18.2938,0.00718431,0.0095001,-0.00994812,0.0183575,-0.00167307,-0.843334,0.0128324,0.0160949,1252,1723,4.87549,-18.2938
35,-699,4.8811,18.3324,0.00786724,0.01094,-0.010377,0.0198937,-0.00108647,-0.858893,0.0136391,0.0142584,1259,1723,4.88113,-18.3323
42,-699,4.91663,18.3611,0.00895329,0.0122112,-0.010727,0.0214322,-0.000267739,-0.86075,0.0143782,0.0126393,1266,1723,4.91663,-18.361
49,-699,4.94543,18.3876,0.0102869,0.0134496,-0.0108767,0.0228593,0.000877251,-0.857585,0.0149557,0.0149538,1273,1723,4.94539,-18.3876
56,-699,4.9834,18.4197,0.0114839,0.0133695,-0.0100107,0.0224817,0.00237166,-0.832349,0.0142631,0.0152823,1280,1723,4.98334,-18.4196
63,-699,5.0116,18.4177,0.0125718,0.012658,-0.00852845,0.0211434,0.00408632,-0.787926,0.0129502,0.0129558,1287,1723,5.01164,-18.4177
70,-699,5.00598,18.415,0.0132717,0.0119223,-0.00635484,0.0189876,0.00620648,-0.732511,0.0111794,0.011083,1294,1723,5.00604,-18.415
77,-699,4.99207,18.4175,0.014343,0.0109429,-0.00422757,0.0171995,0.00808637,-0.594226,0.00993606,0.0106584,1301,1723,4.99207,-18.4175
84,-699,4.99756,18.4093,0.0151351,0.0088561,-0.00172124,0.015576,0.00841522,-0.250749,0.00900254,0.0132692,1308,1723,4.99752,-18.4094
91,-699,5.03638,18.4257,0.0153909,0.00658399,0.000602677,0.015432,0.00654294,0.0680095,0.00894391,0.0129752,1315,1723,5.03636,-18.4256
98,-699,5.0531,18.4526,0.0145213,0.00259226,0.00359431,0.0155206,0.00159297,0.271171,0.00985904,0.0104453,1322,1723,5.05311,-18.4526
105,-699,5.0658,18.4415,0.014751,-0.000622114,0.0059438,0.0167811,-0.00265213,0.329114,0.0121681,0.0145324,1329,1723,5.06578,-18.4415
112,-699,5.08179,18.3881,0.0150821,-0.00170523,0.00744206,0.0179062,-0.00452931,0.362689,0.0136991,0.0227609,1336,1723,5.08177,-18.3881
119,-699,5.06909,18.3683,0.0145787,-0.00363364,0.00867051,0.0180463,-0.00710126,0.380448,0.0149703,0.0176011,1343,1723,5.06913,-18.3683
126,-699,5.11133,18.3746,0.0135428,-0.00616296,0.00946176,0.0173502,-0.0099704,0.382576,0.0159642,0.0180779,1350,1723,5.11136,-18.3746
133,-699,5.16406,18.338,0.0123715,-0.00879455,0.0100599,0.0163899,-0.012813,0.380031,0.0169024,0.0150737,1357,1723,5.16402,-18.338
140,-699,5.16467,18.2856,0.0111668,-0.0105592,0.0101768,0.0151891,-0.0145815,0.376397,0.0171892,0.0154563,1364,1723,5.16472,-18.2857
147,-699,5.16882,18.2775,0.00980221,-0.0117577,0.0103447,0.0139628,-0.0159183,0.382397,0.0172642,0.0125081,1371,1723,5.16882,-18.2775
154,-699,5.17041,18.2314,0.00841982,-0.0123372,0.0101028,0.0125251,-0.0164425,0.385969,0.0167754,0.0124162,1378,1723,5.17037,-18.2314
161,-699,5.18311,18.1782,0.00747397,-0.0107499,0.00858865,0.0108837,-0.0141597,0.377921,0.0145,0.00985019,1385,1723,5.18306,-18.1782
168,-699,5.19885,18.1541,0.00678217,-0.00916567,0.00681486,0.00929757,-0.0116811,0.353592,0.0121381,0.0115459,1392,1723,5.19884,-18.1541
175,-699,5.21912,18.1293,0.00609507,-0.00795008,0.00503996,0.00771644,-0.00957145,0.311247,0.0100003,0.0130685,1399,1723,5.21914,-18.1292
182,-699,5.23621,18.062,0.00461389,-0.00585999,0.0035737,0.00571705,-0.00696315,0.299409,0.00733269,0.0137212,1406,1723,5.23627,-18.062
189,-699,5.21973,18.0168,0.00352665,-0.0025011,0.00138527,0.00382976,-0.00280421,0.215417,0.00384535,0.0166934,1413,1723,5.21968,-18.0169
196,-699,5.22363,17.9487,0.00298058,0.000172253,0.000280814,0.00300838,0.000144449,0.0986916,0.00195921,0.0167406,1420,1723,5.22361,-17.9488
203,-699,5.25024,17.8591,0.00222524,0.0018927,-0.000502693,0.00258845,0.00152949,-0.625682,0.00150265,0.0132345,1427,1723,5.25021,-17.8592
210,-699,5.27075,17.79,0.0017497,0.00163489,-0.000698036,0.00239269,0.000991901,-0.744371,0.00138813,0.0130594,1434,1723,5.27077,-17.7901
217,-699,5.26306,17.7217,0.00127349,0.00132578,-0.000908871,0.00220888,0.000390389,-0.799778,0.00136125,0.0142577,1441,1723,5.26302,-17.7217
224,-699,5.26746,17.6404,0.00107103,0.000941686,-0.000784991,0.00179401,0.000218709,-0.744297,0.00113018,0.0152473,1448,1723,5.26749,-17.6404
231,-699,5.28979,17.5562,0.000907772,0.000492473,-0.000654914,0.00138717,1.30769e-05,-0.63188,0.00092045,0.0105542,1455,1723,5.2898,-17.5561
238,-699,5.28088,17.4495,0.00089646,0.000158347,-0.000594282,0.00122696,-0.000172149,-0.507535,0.000880978,0.00979351,1462,1723,5.28094,-17.4494
245,-699,5.28076,17.3528,0.000884203,-0.000158514,-0.000494133,0.00108116,-0.000355474,-0.379297,0.000863996,0.0123813,1469,1723,5.28071,-17.3527
252,-699,5.27368,17.2765,0.000835437,-0.000352758,-0.000438633,0.000979818,-0.000497139,-0.317991,0.000867768,0.0105998,1476,1723,5.27365,-17.2764
259,-699,5.26099,17.1783,0.000780105,-0.000399339,-0.000457114,0.000936523,-0.000555757,-0.329697,0.000870867,0.0101815,1483,1723,5.261,-17.1783
266,-699,5.25916,17.0829,0.000658495,-0.000116388,-0.000516931,0.000917063,-0.000374956,-0.463806,0.000767523,0.0116464,1490,1723,5.25916,-17.0829
273,-699,5.28552,16.9656,0.000484389,0.000429446,-0.000687655,0.00114512,-0.000231286,-0.765434,0.00085105,0.0115099,1497,1723,5.28557,-16.9656
280,-699,5.29675,16.8586,0.000105543,0.00114577,-0.000840499,0.00161406,-0.000362756,-1.06247,0.00121515,0.0112748,1504,1723,5.29681,-16.8587
287,-699,5.28638,16.7443,-0.000535501,0.00174659,-0.000744597,0.00196805,-0.000756957,-1.28171,0.00162425,0.00945257,1511,1723,5.28644,-16.7442
294,-699,5.27539,16.632,-0.00110184,0.00260183,-0.00081807,0.00277448,-0.00127449,-1.36281,0.00239055,0.010145,1518,1723,5.27537,-16.632
301,-699,5.2865,16.5332,-0.00196792,0.00335766,-0.00074813,0.00346076,-0.00207102,-1.43385,0.0032272,0.0120498,1525,1723,5.28649,-16.5332
308,-699,5.28748,16.431,-0.00295505,0.00385698,-0.000370994,0.00387712,-0.00297519,-1.51655,0.00396759,0.0166139,1532,1723,5.28745,-16.431
315,-699,5.2948,16.2805,-0.00363835,0.00410839,3.40701e-05,0.00410854,-0.0036385,1.5664,0.0044755,0.0192846,1539,1723,5.29482,-16.2805
322,-699,5.27869,16.1285,-0.00452211,0.00418143,0.000673959,0.00423331,-0.00457399,1.49397,0.00508616,0.0203661,1546,1723,5.27869,-16.1285
329,-699,5.2489,15.9868,-0.00513774,0.00390549,0.00151175,0.00415152,-0.00538377,1.40947,0.0055205,0.0152282,1553,1723,5.24895,-15.9868
336,-699,5.24475,15.8456,-0.00524348,0.00362602,0.00208218,0.0040905,-0.00570796,1.35131,0.00568278,0.0124777,1560,1723,5.24471,-15.8455
343,-699,5.23804,15.6985,-0.00517125,0.00356495,0.00248796,0.0042238,-0.00583011,1.31192,0.00582927,0.0161773,1567,1723,5.23805,-15.6984
350,-699,5.19873,15.5498,-0.00480579,0.00328808,0.00301658,0.00428866,-0.00580638,1.25052,0.00585029,0.0254516,1574,1723,5.19873,-15.5498
357,-699,5.08093,15.4786,-0.00383949,0.00339566,0.00321097,0.00461515,-0.00505898,1.20783,0.00558732,0.0358854,1581,1723,5.08097,-15.4786
364,-699,5.12561,15.4528,-0.00230246,0.00482665,0.00262781,0.00569058,-0.00316639,1.25317,0.00518233,0.0404119,1588,1723,5.12556,-15.4528
371,-699,6.15479,14.6526,0,0,0,0,0,0,0,-1,1595,1723,6.15477,-14.6526
378,-699,4.34094,15.1852,0,0,0,0,0,0,0,-1,1602,1723,4.34096,-15.1851
385,-699,4.9082,14.356,0,0,0,0,0,0,0,-1,1609,1723,4.90815,-14.3559
392,-699,4.98376,12.5409,0,0,0,0,0,0,0,-1,1616,1723,4.98372,-12.5409
399,-699,3.91516,9.81726,0,0,0,0,0,0,0,-1,1623,1723,3.9152,-9.81721
406,-699,5.50757,21.6672,0,0,0,0,0,0,0,-1,1630,1723,5.50755,-21.6672
413,-699,4.92773,3.5918,0,0,0,0,0,0,0,-1,1637,1723,4.92777,-3.59182
420,-699,2.15076,7.65527,0,0,0,0,0,0,0,-1,1644,1723,2.15079,-7.65522
427,-699,3.36328,8.2428,0,0,0,0,0,0,0,-1,1651,1723,3.36332,-8.24283
434,-699,4.66455,8.90222,0,0,0,0,0,0,0,-1,1658,1723,4.66456,-8.90223
441,-699,0,0,0,0,0,0,0,0,0,-1,1665,1723,0,0
448,-699,0,0,0,0,0,0,0,0,0,-1,1672,1723,0,0
455,-699,0,0,0,0,0,0,0,0,0,-1,1679,1723,0,0
462,-699,0,0,0,0,0,0,0,0,0,-1,1686,1723,0,0
469,-699,0,0,0,0,0,0,0,0,0,-1,1693,1723,0,0
476,-699,0,0,0,0,0,0,0,0,0,-1,1700,1723,0,0
483,-699,0,0,0,0,0,0,0,0,0,-1,1707,1723,0,0
490,-699,0,0,0,0,0,0,0,0,0,-1,1714,1723,0,0
497,-699,0,0,0,0,0,0,0,0,0,-1,1721,1723,0,0
504,-699,0,0,0,0,0,0,0,0,0,-1,1728,1723,0,0
511,-699,0,0,0,0,0,0,0,0,0,-1,1735,1723,0,0
518,-699,0,0,0,0,0,0,0,0,0,-1,1742,1723,0,0
525,-699,0,0,0,0,0,0,0,0,0,-1,1749,1723,0,0
532,-699,0,0,0,0,0,0,0,0,0,-1,1756,1723,0,0
539,-699,0,0,0,0,0,0,0,0,0,-1,1763,1723,0,0
546,-699,0,0,0,0,0,0,0,0,0,-1,1770,1723,0,0
553,-699,0,0,0,0,0,0,0,0,0,-1,1777,1723,0,0
560,-699,0,0,0,0,0,0,0,0,0,-1,1784,1723,0,0
567,-699,0,0,0,0,0,0,0,0,0,-1,1791,1723,0,0
574,-699,0,0,0,0,0,0,0,0,0,-1,1798,1723,0,0
581,-699,0,0,0,0,0,0,0,0,0,-1,1805,1723,0,0
588,-699,0,0,0,0,0,0,0,0,0,-1,1812,1723,0,0
595,-699,0,0,0,0,0,0,0,0,0,-1,1819,1723,0,0
602,-699,0,0,0,0,0,0,0,0,0,-1,1826,1723,0,0
609,-699,0,0,0,0,0,0,0,0,0,-1,1833,1723,0,0
616,-699,0,0,0,0,0,0,0,0,0,-1,1840,1723,0,0
623,-699,0,0,0,0,0,0,0,0,0,-1,1847,1723,0,0
630,-699,0,0,0,0,0,0,0,0,0,-1,1854,1723,0,0
637,-699,0,0,0,0,0,0,0,0,0,-1,1861,1723,0,0
644,-699,0,0,0,0,0,0,0,0,0,-1,1868,1723,0,0
651,-699,0,0,0,0,0,0,0,0,0,-1,1875,1723,0,0
658,-699,0,0,0,0,0,0,0,0,0,-1,1882,1723,0,0
665,-699,0,0,0,0,0,0,0,0,0,-1,1889,1723,0,0
672,-699,0,0,0,0,0,0,0,0,0,-1,1896,1723,0,0
679,-699,0,0,0,0,0,0,0,0,0,-1,1903,1723,0,0
686,-699,0,0,0,0,0,0,0,0,0,-1,1910,1723,0,0
693,-699,0,0,0,0,0,0,0,0,0,-1,1917,1723,0,0
700,-699,0,0,0,0,0,0,0,0,0,-1,1924,1723,0,0
707,-699,0,0,0,0,0,0,0,0,0,-1,1931,1723,0,0
714,-699,0,0,0,0,0,0,0,0,0,-1,1938,1723,0,0
721,-699,0,0,0,0,0,0,0,0,0,-1,1945,1723,0,0
728,-699,0,0,0,0,0,0,0,0,0,-1,1952,1723,0,0
735,-699,0,0,0,0,0,0,0,0,0,-1,1959,1723,0,0
742,-699,0,0,0,0,0,0,0,0,0,-1,1966,1723,0,0
749,-699,0,0,0,0,0,0,0,0,0,-1,1973,1723,0,0
756,-699,0,0,0,0,0,0,0,0,0,-1,1980,1723,0,0
763,-699,0,0,0,0,0,0,0,0,0,-1,1987,1723,0,0
770,-699,0,0,0,0,0,0,0,0,0,-1,1994,1723,0,0
777,-699,0,0,0,0,0,0,0,0,0,-1,2001,1723,0,0
784,-699,0,0,0,0,0,0,0,0,0,-1,2008,1723,0,0
791,-699,0,0,0,0,0,0,0,0,0,-1,2015,1723,0,0
798,-699,0,0,0,0,0,0,0,0,0,-1,2022,1723,0,0
805,-699,0,0,0,0,0,0,0,0,0,-1,2029,1723,0,0
812,-699,0,0,0,0,0,0,0,0,0,-1,2036,1723,0,0
-700,-706,0,0,0,0,0,0,0,0,0,-1,524,1730,0,0
-693,-706,0,0,0,0,0,0,0,0,0,-1,531,1730,0,0
-686,-706,0,0,0,0,0,0,0,0,0,-1,538,1730,0,0
-679,-706,0,0,0,0,0,0,0,0,0,-1,545,1730,0,0
-672,-706,0,0,0,0,0,0,0,0,0,-1,552,1730,0,0
-665,-706,0,0,0,0,0,0,0,0,0,-1,559,1730,0,0
-658,-706,0,0,0,0,0,0,0,0,0,-1,566,1730,0,0
-651,-706,0,0,0,0,0,0,0,0,0,-1,573,1730,0,0
-644,-706,0,0,0,0,0,0,0,0,0,-1,580,1730,0,0
-637,-706,0,0,0,0,0,0,0,0,0,-1,587,1730,0,0
-630,-706,0,0,0,0,0,0,0,0,0,-1,594,1730,0,0
-623,-706,0,0,0,0,0,0,0,0,0,-1,601,1730,0,0
-616,-706,0,0,0,0,0,0,0,0,0,-1,608,1730,0,0
-609,-706,0,0,0,0,0,0,0,0,0,-1,615,1730,0,0
-602,-706,0,0,0,0,0,0,0,0,0,-1,622,1730,0,0
-595,-706,0,0,0,0,0,0,0,0,0,-1,629,1730,0,0
-588,-706,0,0,0,0,0,0,0,0,0,-1,636,1730,0,0
-581,-706,0,0,0,0,0,0,0,0,0,-1,643,1730,0,0
-574,-706,0,0,0,0,0,0,0,0,0,-1,650,1730,0,0
-567,-706,0,0,0,0,0,0,0,0,0,-1,657,1730,0,0
-560,-706,0,0,0,0,0,0,0,0,0,-1,664,1730,0,0
-553,-706,0,0,0,0,0,0,0,0,0,-1,671,1730,0,0
-546,-706,0,0,0,0,0,0,0,0,0,-1,678,1730,0,0
-539,-706,0,0,0,0,0,0,0,0,0,-1,685,1730,0,0
-532,-706,0,0,0,0,0,0,0,0,0,-1,692,1730,0,0
-525,-706,0,0,0,0,0,0,0,0,0,-1,699,1730,0,0
-518,-706,0,0,0,0,0,0,0,0,0,-1,706,1730,0,0
-511,-706,0,0,0,0,0,0,0,0,0,-1,713,1730,0,0
-504,-706,0,0,0,0,0,0,0,0,0,-1,720,1730,0,0
-497,-706,0,0,0,0,0,0,0,0,0,-1,727,1730,0,0
-490,-706,0,0,0,0,0,0,0,0,0,-1,734,1730,0,0
-483,-706,0,0,0,0,0,0,0,0,0,-1,741,1730,0,0
-476,-706,0,0,0,0,0,0,0,0,0,-1,748,1730,0,0
-469,-706,0,0,0,0,0,0,0,0,0,-1,755,1730,0,0
-462,-706,0,0,0,0,0,0,0,0,0,-1,762,1730,0,0
-455,-706,0,0,0,0,0,0,0,0,0,-1,769,1730,0,0
-448,-706,0,0,0,0,0,0,0,0,0,-1,776,1730,0,0
-441,-706,0,0,0,0,0,0,0,0,0,-1,783,1730,0,0
-434,-706,0,0,0,0,0,0,0,0,0,-1,790,1730,0,0
-427,-706,0,0,0,0,0,0,0,0,0,-1,797,1730,0,0
-420,-706,0,0,0,0,0,0,0,0,0,-1,804,1730,0,0
-413,-706,0,0,0,0,0,0,0,0,0,-1,811,1730,0,0
-406,-706,0,0,0,0,0,0,0,0,0,-1,818,1730,0,0
-399,-706,0,0,0,0,0,0,0,0,0,-1,825,1730,0,0
-392,-706,0,0,0,0,0,0,0,0,0,-1,832,1730,0,0
-385,-706,0,0,0,0,0,0,0,0,0,-1,839,1730,0,0
-378,-706,0,0,0,0,0,0,0,0,0,-1,846,1730,0,0
-371,-706,0,0,0,0,0,0,0,0,0,-1,853,1730,0,0
-364,-706,0,0,0,0,0,0,0,0,0,-1,860,1730,0,0
-357,-706,0,0,0,0,0,0,0,0,0,-1,867,1730,0,0
-350,-706,0,0,0,0,0,0,0,0,0,-1,874,1730,0,0
-343,-706,0,0,0,0,0,0,0,0,0,-1,881,1730,0,0
-336,-706,0,0,0,0,0,0,0,0,0,-1,888,1730,0,0
-329,-706,0,0,0,0,0,0,0,0,0,-1,895,1730,0,0
-322,-706,0,0,0,0,0,0,0,0,0,-1,902,1730,0,0
-315,-706,0,0,0,0,0,0,0,0,0,-1,909,1730,0,0
-308,-706,5.08191,14.6245,0,0,0,0,0,0,0,-1,916,1730,5.08188,-14.6245
-301,-706,5.28516,13.4028,0,0,0,0,0,0,0,-1,923,1730,5.28516,-13.4029
-294,-706,7.02759,15.9609,0,0,0,0,0,0,0,-1,930,1730,7.02759,-15.961
-287,-706,6.4834,15.074,-0.0340593,-0.041925,-0.0869307,0.0490275,-0.125012,-0.762793,0.103625,0.0482924,937,1730,6.48341,-15.074
-280,-706,6.02985,14.3875,-0.0315452,-0.0368409,-0.0790411,0.0448924,-0.113278,-0.768655,0.0941221,0.0466779,944,1730,6.02983,-14.3874
-273,-706,5.74866,13.4707,0,0,0,0,0,0,0,-1,951,1730,5.74865,-13.4708
-266,-706,5.60547,12.5319,0,0,0,0,0,0,0,-1,958,1730,5.60548,-12.5319
-259,-706,3.3598,9.72961,0,0,0,0,0,0,0,-1,965,1730,3.35979,-9.72962
-252,-706,3.05963,10.0499,0,0,0,0,0,0,0,-1,972,1730,3.05962,-10.05
-245,-706,2.28943,16.1493,0,0,0,0,0,0,0,-1,979,1730,2.28944,-16.1493
-238,-706,5.05334,13.2124,0,0,0,0,0,0,0,-1,986,1730,5.05333,-13.2124
-231,-706,5.15314,14.7927,0,0,0,0,0,0,0,-1,993,1730,5.15311,-14.7928
-224,-706,4.41107,14.4226,0.00252918,-0.00597399,0.0053834,0.0051374,-0.00858221,0.451166,0.00800382,0.0418888,1000,1730,4.41106,-14.4226
-217,-706,4.65967,15.1006,0.00311259,-0.0056219,0.00556506,0.00581943,-0.00832874,0.452708,0.00821116,0.0420968,1007,1730,4.65969,-15.1006
-210,-706,4.70605,15.3068,0.00320337,-0.00486995,0.00585723,0.00628021,-0.00794678,0.483686,0.00823272,0.0392794,1014,1730,4.70604,-15.3068
-203,-706,4.90332,15.2111,0.00320383,-0.00391918,0.00545941,0.00616071,-0.00687607,0.496382,0.00753057,0.0315567,1021,1730,4.90336,-15.211
-196,-706,4.86584,15.3394,0.00267708,-0.00286318,0.0044891,0.00518195,-0.00536805,0.508957,0.00609136,0.0237963,1028,1730,4.86588,-15.3393
-189,-706,4.80701,15.4919,0.00210689,-0.00188682,0.00358304,0.00421194,-0.00399186,0.53118,0.00473704,0.0186434,1035,1730,4.80703,-15.4919
-182,-706,4.79919,15.6855,0.00124829,-0.00084005,0.00244758,0.00286512,-0.00245688,0.58378,0.00307567,0.0139103,1042,1730,4.79919,-15.6856
-175,-706,4.80322,15.8285,0.000569115,0.000472089,0.00166057,0.00218188,-0.00114068,0.770795,0.00194943,0.014233,1049,1730,4.80323,-15.8285
-168,-706,4.81824,15.9413,-0.000259779,0.000831618,0.000657277,0.0011402,-0.000568364,1.13185,0.00100469,0.0148158,1056,1730,4.81826,-15.9413
-161,-706,4.79272,16.0892,-0.000882499,0.00162349,6.12488e-05,0.00162499,-0.000883995,1.54637,0.00146947,0.0119208,1063,1730,4.79268,-16.0893
-154,-706,4.75549,16.2639,-0.00123097,0.00213662,-0.000249215,0.00215496,-0.00124931,-1.49733,0.00198851,0.0115028,1070,1730,4.7555,-16.2639
-147,-706,4.75232,16.3811,-0.00132381,0.00225521,-0.000432303,0.00230669,-0.00137529,-1.45228,0.00214834,0.0120989,1077,1730,4.75227,-16.3811
-140,-706,4.75879,16.5111,-0.00121539,0.00208934,-0.000550635,0.00217867,-0.00130472,-1.40996,0.00203212,0.0116006,1084,1730,4.75876,-16.5111
-133,-706,4.76001,16.6127,-0.00106626,0.00177853,-0.000648095,0.00191922,-0.00120695,-1.35703,0.00182044,0.00887879,1091,1730,4.75998,-16.6127
-126,-706,4.76147,16.7291,-0.00081905,0.00145425,-0.000553218,0.00158173,-0.000946529,-1.34432,0.00147497,0.0134433,1098,1730,4.76147,-16.7291
-119,-706,4.75562,16.8481,-0.000476693,0.00118278,-0.000285993,0.00123068,-0.000524598,-1.40483,0.00104038,0.0170741,1105,1730,4.75557,-16.8481
-112,-706,4.75916,16.9734,-4.5994e-05,0.000841315,-1.32879e-05,0.000841514,-4.6193e-05,-1.55583,0.000577024,0.0120854,1112,1730,4.75917,-16.9734
-105,-706,4.75427,17.0839,0.00037429,0.000517702,0.000194637,0.000653422,0.00023857,0.961888,0.000381802,0.00880988,1119,1730,4.75426,-17.0838
-98,-706,4.76831,17.1722,0.000671262,0.000279497,0.000415142,0.000934414,1.63453e-05,0.564963,0.000617566,0.0103702,1126,1730,4.76834,-17.1722
-91,-706,4.77783,17.2517,0.000998592,0.000247413,0.00064563,0.00136993,-0.000123928,0.521955,0.000957275,0.014472,1133,1730,4.77786,-17.2517
-84,-706,4.75232,17.3297,0.00127129,0.000301543,0.000803611,0.00172498,-0.000152142,0.513951,0.00120391,0.0173781,1140,1730,4.75231,-17.3297
-77,-706,4.75134,17.4231,0.00151504,0.000412583,0.000834574,0.001964,-3.63714e-05,0.49354,0.00132162,0.0165253,1147,1730,4.75137,-17.4231
-70,-706,4.73767,17.5482,0.00169845,0.000489605,0.000692269,0.00201303,0.000175026,0.426521,0.00128765,0.0174173,1154,1730,4.73767,-17.5482
-63,-706,4.73206,17.624,0.00192548,0.000570352,0.000308287,0.00199232,0.000503514,0.213499,0.00119623,0.0121622,1161,1730,4.73203,-17.6241
-56,-706,4.74817,17.7007,0.00233053,0.000405053,-0.00031127,0.0023796,0.000355984,-0.156354,0.00148206,0.0119038,1168,1730,4.74819,-17.7007
-49,-706,4.73779,17.7844,0.00258077,0.000493445,-0.00107219,0.00303338,4.08381e-05,-0.39944,0.00200878,0.0125031,1175,1730,4.73785,-17.7845
-42,-706,4.75244,17.8684,0.0026255,0.000313217,-0.00138744,0.00327536,-0.000336646,-0.438042,0.002304,0.0165308,1182,1730,4.75241,-17.8684
-35,-706,4.78394,17.9349,0.00300454,-0.000224176,-0.00193496,0.00391015,-0.00112978,-0.437741,0.00305384,0.0167005,1189,1730,4.78398,-17.9349
-28,-706,4.79712,17.9752,0.0032115,-0.00092851,-0.00237542,0.00429229,-0.00200931,-0.426997,0.00371697,0.0106831,1196,1730,4.79717,-17.9752
-21,-706,4.80457,18.0165,0.00316691,-0.00159673,-0.00270549,0.00438964,-0.00281945,-0.424468,0.00419495,0.0105792,1203,1730,4.80451,-18.0165
-14,-706,4.82202,18.0746,0.00315059,-0.00255335,-0.00291143,0.00437418,-0.00377694,-0.397857,0.00471026,0.0104009,1210,1730,4.82201,-18.0746
-7,-706,4.83398,18.1355,0.00429885,-0.00143714,-0.00378729,0.00618153,-0.00331982,-0.46133,0.00556793,0.00866954,1217,1730,4.83402,-18.1355
0,-706,4.84265,18.1842,0.00485058,-0.000169949,-0.00463485,0.0076113,-0.00293067,-0.53721,0.0062832,0.0116987,1224,1730,4.84265,-18.1843
7,-706,4.85815,18.2324,0.00494028,0.000129887,-0.00525673,0.00831592,-0.00324576,-0.570842,0.00688577,0.013496,1231,1730,4.85814,-18.2325
14,-706,4.8678,18.275,0.00508663,0.000514534,-0.00594501,0.00916997,-0.00356881,-0.601847,0.00758802,0.01422,1238,1730,4.86786,-18.275
21,-706,4.87524,18.2856,0.00530561,0.00109575,-0.00661443,0.010142,-0.0037406,-0.631349,0.00829427,0.0119515,1245,1730,4.87519,-18.2857
28,-706,4.89551,18.309,0.00556395,0.00199059,-0.00716828,0.0111649,-0.00361032,-0.663263,0.00889437,0.0126353,1252,1730,4.89546,-18.309
35,-706,4.9021,18.3551,0.00584877,0.00281431,-0.00745309,0.0119375,-0.00327441,-0.684985,0.00924515,0.0149352,1259,1730,4.90208,-18.3551
42,-706,4.9281,18.389,0.00645797,0.00378494,-0.00778378,0.0130191,-0.00277624,-0.700375,0.00973767,0.0119901,1266,1730,4.92811,-18.389
49,-706,4.94556,18.4048,0.00708097,0.00482745,-0.00796323,0.0139968,-0.00208834,-0.715117,0.0100995,0.0133543,1273,1730,4.94559,-18.4047
56,-706,4.97217,18.4248,0.00756051,0.00509914,-0.00757014,0.0139993,-0.0013397,-0.704818,0.00981001,0.0126782,1280,1730,4.97213,-18.4248
63,-706,4.99072,18.4285,0.0081337,0.00516126,-0.00679692,0.013605,-0.000310034,-0.677762,0.00917509,0.0112752,1287,1730,4.9907,-18.4285
70,-706,4.99048,18.4266,0.00845226,0.00530596,-0.00545982,0.012561,0.00119718,-0.645131,0.00800487,0.0121521,1294,1730,4.99052,-18.4266
77,-706,4.98096,18.4264,0.00883052,0.00533407,-0.00417933,0.0116125,0.00255205,-0.587306,0.00704677,0.0112188,1301,1730,4.98096,-18.4264
84,-706,4.9834,18.4257,0.00910641,0.00458784,-0.00268493,0.0103561,0.00333811,-0.435638,0.00610365,0.010105,1308,1730,4.98337,-18.4257
91,-706,5.01892,18.4519,0.00896256,0.00354051,-0.00120675,0.00921901,0.00328406,-0.209397,0.00539545,0.0113204,1315,1730,5.01892,-18.4519
98,-706,5.00574,18.4624,0.00791427,0.00101808,0.000824317,0.00801144,0.000920917,0.11733,0.00506199,0.0130362,1322,1730,5.00572,-18.4624
105,-706,5.0094,18.4594,0.00768703,-0.000608216,0.00239939,0.00833105,-0.00125224,0.262229,0.00601505,0.0150675,1329,1730,5.00935,-18.4594
112,-706,5.03357,18.4281,0.00754815,-0.00132629,0.00350826,0.0087675,-0.00254564,0.334505,0.006853,0.0166477,1336,1730,5.03356,-18.4282
119,-706,5.0636,18.412,0.00678431,-0.0026738,0.00439907,0.00851403,-0.00440352,0.374632,0.00758277,0.0139314,1343,1730,5.06361,-18.412
126,-706,5.08984,18.3842,0.00569522,-0.00444699,0.00500168,0.00774682,-0.00649858,0.389253,0.00823511,0.0148439,1350,1730,5.08989,-18.3842
133,-706,5.11108,18.3301,0.00452613,-0.00637056,0.0054287,0.00676903,-0.00861346,0.391796,0.00890234,0.0123932,1357,1730,5.11105,-18.3301
140,-706,5.10803,18.2944,0.00343215,-0.00766304,0.0054492,0.00566077,-0.00989166,0.388225,0.00908928,0.0115827,1364,1730,5.10798,-18.2945
147,-706,5.12207,18.2552,0.00230475,-0.00855969,0.00556646,0.00465035,-0.0109053,0.398802,0.00921989,0.0200232,1371,1730,5.12205,-18.2552
154,-706,5.13013,18.2318,0.00152342,-0.00882636,0.00536986,0.00380607,-0.011109,0.401943,0.00894869,0.018355,1378,1730,5.13009,-18.2319
161,-706,5.13464,18.194,0.0013514,-0.00749846,0.00444124,0.00319581,-0.00934287,0.393619,0.00752361,0.00969538,1385,1730,5.13463,-18.194
168,-706,5.1416,18.1465,0.00115553,-0.00617648,0.00334806,0.00245431,-0.00747526,0.37005,0.00597215,0.010071,1392,1730,5.14164,-18.1465
175,-706,5.16003,18.1067,0.00100884,-0.00510736,0.00222948,0.00173525,-0.00583378,0.314976,0.00457856,0.0100785,1399,1730,5.16009,-18.1067
182,-706,5.16199,18.041,0.00104888,-0.00355787,0.00144439,0.00146429,-0.00397329,0.280045,0.00324888,0.0106759,1406,1730,5.16205,-18.041
189,-706,5.15015,17.9764,0.00110376,-0.00146747,0.000492078,0.00119472,-0.00155843,0.182777,0.00159414,0.0138543,1413,1730,5.15009,-17.9765
196,-706,5.16016,17.9097,0.00125617,0.000398031,1.24074e-06,0.00125617,0.000398029,0.00144585,0.000741291,0.0121897,1420,1730,5.16013,-17.9097
203,-706,5.17175,17.8488,0.00127114,0.00174574,-0.000389281,0.00196435,0.00105253,-1.05912,0.00113508,0.0127464,1427,1730,5.17172,-17.8488
210,-706,5.18225,17.7805,0.000911817,0.00166349,-0.000543878,0.00194876,0.000626551,-1.08774,0.00114876,0.0122383,1434,1730,5.18227,-17.7805
217,-706,5.17297,17.7247,0.00053002,0.00154853,-0.000720321,0.00192144,0.000157118,-1.0931,0.00123193,0.0133878,1441,1730,5.17297,-17.7247
224,-706,5.17456,17.6366,0.000345887,0.00134255,-0.000672821,0.00168149,6.94726e-06,-1.10415,0.00111868,0.018501,1448,1730,5.1746,-17.6366
231,-706,5.1897,17.5486,0.000171938,0.00108257,-0.000592145,0.00137421,-0.000119705,-1.11315,0.00095854,0.0129697,1455,1730,5.18965,-17.5485
238,-706,5.17688,17.462,7.84698e-05,0.000867461,-0.000498412,0.00110861,-0.000162677,-1.12017,0.000798838,0.00873477,1462,1730,5.17683,-17.4621
245,-706,5.17236,17.3635,4.36888e-05,0.000677636,-0.000450384,0.000911406,-0.000190081,-1.09203,0.00067988,0.0118469,1469,1730,5.17231,-17.3636
252,-706,5.1731,17.2656,-9.85974e-06,0.000554326,-0.000478191,0.00082743,-0.000282964,-1.05188,0.00066628,0.0111563,1476,1730,5.17305,-17.2656
259,-706,5.18945,17.1647,-7.34629e-05,0.000593877,-0.000609919,0.000955431,-0.000435017,-1.03569,0.000821305,0.0117715,1483,1730,5.18948,-17.1646
266,-706,5.18103,17.0825,-0.000207515,0.00132349,-0.000818371,0.00167858,-0.000562605,-1.16141,0.00134636,0.0122669,1490,1730,5.18105,-17.0825
273,-706,5.17334,16.9724,-0.000376933,0.00199071,-0.00108157,0.0024104,-0.000796619,-1.20065,0.00192813,0.0115197,1497,1730,5.1733,-16.9724
280,-706,5.17627,16.8497,-0.000800891,0.00280903,-0.00128968,0.00322244,-0.0012143,-1.26059,0.00264757,0.00952942,1504,1730,5.17624,-16.8497
287,-706,5.15979,16.7225,-0.00155557,0.00341576,-0.0011438,0.0036663,-0.00180611,-1.35516,0.00321976,0.0102818,1511,1730,5.15978,-16.7226
294,-706,5.15759,16.618,-0.00215223,0.00443297,-0.00127483,0.00467115,-0.00239041,-1.38609,0.00414727,0.0100228,1518,1730,5.15759,-16.618
301,-706,5.16443,16.5045,-0.00318114,0.00531601,-0.00117165,0.0054746,-0.00333973,-1.43625,0.00513847,0.00958728,1525,1730,5.16442,-16.5045
308,-706,5.19312,16.3873,-0.00441897,0.00591233,-0.000660294,0.00595436,-0.004461,-1.50723,0.00603388,0.0117818,1532,1730,5.19306,-16.3873
315,-706,5.20557,16.2686,-0.00527473,0.00623006,-0.000109093,0.00623109,-0.00527577,-1.56132,0.00665112,0.0184136,1539,1730,5.20553,-16.2685
322,-706,5.1936,16.1311,-0.006387,0.00626046,0.000764416,0.0063065,-0.00643303,1.51065,0.00735529,0.0191927,1546,1730,5.19359,-16.1311
329,-706,5.16382,15.9913,-0.00720486,0.00585393,0.00190861,0.00612717,-0.0074781,1.4286,0.0078679,0.0168295,1553,1730,5.16386,-15.9913
336,-706,5.13525,15.8423,-0.00737968,0.00530445,0.00274768,0.00587409,-0.00794931,1.36638,0.00801086,0.0233344,1560,1730,5.13521,-15.8423
343,-706,5.14038,15.6853,-0.00738703,0.00495825,0.00347015,0.00586681,-0.00829559,1.31472,0.00821665,0.0323114,1567,1730,5.14035,-15.6853
350,-706,5.14832,15.5039,-0.0069598,0.0044065,0.00431398,0.00585838,-0.00841168,1.24615,0.00828266,0.0388698,1574,1730,5.14836,-15.5039
357,-706,4.79248,15.5205,-0.00565324,0.00428954,0.00472456,0.00617645,-0.00754015,1.19082,0.00793231,0.0441944,1581,1730,4.79252,-15.5205
364,-706,4.89209,15.424,-0.00352605,0.00561906,0.00424766,0.00728757,-0.00519456,1.19651,0.00724025,0.0473949,1588,1730,4.89208,-15.4239
371,-706,5.37195,14.7854,0,0,0,0,0,0,0,-1,1595,1730,5.37196,-14.7854
378,-706,5.95642,14.3346,0,0,0,0,0,0,0,-1,1602,1730,5.9564,-14.3346
385,-706,4.94543,15.7039,0,0,0,0,0,0,0,-1,1609,1730,4.94547,-15.7039
392,-706,3.42236,11.9617,0,0,0,0,0,0,0,-1,1616,1730,3.42241,-11.9617
399,-706,3.21667,13.4043,0,0,0,0,0,0,0,-1,1623,1730,3.21671,-13.4043
406,-706,3.80188,18.3816,0,0,0,0,0,0,0,-1,1630,1730,3.80184,-18.3815
413,-706,4.23645,20.028,0,0,0,0,0,0,0,-1,1637,1730,4.23649,-20.0279
420,-706,5.7926,4.15125,0,0,0,0,0,0,0,-1,1644,1730,5.79255,-4.15128
427,-706,0,0,0,0,0,0,0,0,0,-1,1651,1730,0,0
434,-706,0,0,0,0,0,0,0,0,0,-1,1658,1730,0,0
441,-706,0,0,0,0,0,0,0,0,0,-1,1665,1730,0,0
448,-706,0,0,0,0,0,0,0,0,0,-1,1672,1730,0,0
455,-706,0,0,0,0,0,0,0,0,0,-1,1679,1730,0,0
462,-706,0,0,0,0,0,0,0,0,0,-1,1686,1730,0,0
469,-706,0,0,0,0,0,0,0,0,0,-1,1693,1730,0,0
476,-706,0,0,0,0,0,0,0,0,0,-1,1700,1730,0,0
483,-706,0,0,0,0,0,0,0,0,0,-1,1707,1730,0,0
490,-706,0,0,0,0,0,0,0,0,0,-1,1714,1730,0,0
497,-706,0,0,0,0,0,0,0,0,0,-1,1721,1730,0,0
504,-706,0,0,0,0,0,0,0,0,0,-1,1728,1730,0,0
511,-706,0,0,0,0,0,0,0,0,0,-1,1735,1730,0,0
518,-706,0,0,0,0,0,0,0,0,0,-1,1742,1730,0,0
525,-706,0,0,0,0,0,0,0,0,0,-1,1749,1730,0,0
532,-706,0,0,0,0,0,0,0,0,0,-1,1756,1730,0,0
539,-706,0,0,0,0,0,0,0,0,0,-1,1763,1730,0,0
546,-706,0,0,0,0,0,0,0,0,0,-1,1770,1730,0,0
553,-706,0,0,0,0,0,0,0,0,0,-1,1777,1730,0,0
560,-706,0,0,0,0,0,0,0,0,0,-1,1784,1730,0,0
567,-706,0,0,0,0,0,0,0,0,0,-1,1791,1730,0,0
574,-706,0,0,0,0,0,0,0,0,0,-1,1798,1730,0,0
581,-706,0,0,0,0,0,0,0,0,0,-1,1805,1730,0,0
588,-706,0,0,0,0,0,0,0,0,0,-1,1812,1730,0,0
595,-706,0,0,0,0,0,0,0,0,0,-1,1819,1730,0,0
602,-706,0,0,0,0,0,0,0,0,0,-1,1826,1730,0,0
609,-706,0,0,0,0,0,0,0,0,0,-1,1833,1730,0,0
616,-706,0,0,0,0,0,0,0,0,0,-1,1840,1730,0,0
623,-706,0,0,0,0,0,0,0,0,0,-1,1847,1730,0,0
630,-706,0,0,0,0,0,0,0,0,0,-1,1854,1730,0,0
637,-706,0,0,0,0,0,0,0,0,0,-1,1861,1730,0,0
644,-706,0,0,0,0,0,0,0,0,0,-1,1868,1730,0,0
651,-706,0,0,0,0,0,0,0,0,0,-1,1875,1730,0,0
658,-706,0,0,0,0,0,0,0,0,0,-1,1882,1730,0,0
665,-706,0,0,0,0,0,0,0,0,0,-1,1889,1730,0,0
672,-706,0,0,0,0,0,0,0,0,0,-1,1896,1730,0,0
679,-706,0,0,0,0,0,0,0,0,0,-1,1903,1730,0,0
686,-706,0,0,0,0,0,0,0,0,0,-1,1910,1730,0,0
693,-706,0,0,0,0,0,0,0,0,0,-1,1917,1730,0,0
700,-706,0,0,0,0,0,0,0,0,0,-1,1924,1730,0,0
707,-706,0,0,0,0,0,0,0,0,0,-1,1931,1730,0,0
714,-706,0,0,0,0,0,0,0,0,0,-1,1938,1730,0,0
721,-706,0,0,0,0,0,0,0,0,0,-1,1945,1730,0,0
728,-706,0,0,0,0,0,0,0,0,0,-1,1952,1730,0,0
735,-706,0,0,0,0,0,0,0,0,0,-1,1959,1730,0,0
742,-706,0,0,0,0,0,0,0,0,0,-1,1966,1730,0,0
749,-706,0,0,0,0,0,0,0,0,0,-1,1973,1730,0,0
756,-706,0,0,0,0,0,0,0,0,0,-1,1980,1730,0,0
763,-706,0,0,0,0,0,0,0,0,0,-1,1987,1730,0,0
770,-706,0,0,0,0,0,0,0,0,0,-1,1994,1730,0,0
777,-706,0,0,0,0,0,0,0,0,0,-1,2001,1730,0,0
784,-706,0,0,0,0,0,0,0,0,0,-1,2008,1730,0,0
791,-706,0,0,0,0,0,0,0,0,0,-1,2015,1730,0,0
798,-706,0,0,0,0,0,0,0,0,0,-1,2022,1730,0,0
805,-706,0,0,0,0,0,0,0,0,0,-1,2029,1730,0,0
812,-706,0,0,0,0,0,0,0,0,0,-1,2036,1730,0,0
-700,-713,0,0,0,0,0,0,0,0,0,-1,524,1737,0,0
-693,-713,0,0,0,0,0,0,0,0,0,-1,531,1737,0,0
-686,-713,0,0,0,0,0,0,0,0,0,-1,538,1737,0,0
-679,-713,0,0,0,0,0,0,0,0,0,-1,545,1737,0,0
-672,-713,0,0,0,0,0,0,0,0,0,-1,552,1737,0,0
-665,-713,0,0,0,0,0,0,0,0,0,-1,559,1737,0,0
-658,-713,0,0,0,0,0,0,0,0,0,-1,566,1737,0,0
-651,-713,0,0,0,0,0,0,0,0,0,-1,573,1737,0,0
-644,-713,0,0,0,0,0,0,0,0,0,-1,580,1737,0,0
-637,-713,0,0,0,0,0,0,0,0,0,-1,587,1737,0,0
-630,-713,0,0,0,0,0,0,0,0,0,-1,594,1737,0,0
-623,-713,0,0,0,0,0,0,0,0,0,-1,601,1737,0,0
-616,-713,0,0,0,0,0,0,0,0,0,-1,608,1737,0,0
-609,-713,0,0,0,0,0,0,0,0,0,-1,615,1737,0,0
-602,-713,0,0,0,0,0,0,0,0,0,-1,622,1737,0,0
-595,-713,0,0,0,0,0,0,0,0,0,-1,629,1737,0,0
-588,-713,0,0,0,0,0,0,0,0,0,-1,636,1737,0,0
-581,-713,0,0,0,0,0,0,0,0,0,-1,643,1737,0,0
-574,-713,0,0,0,0,0,0,0,0,0,-1,650,1737,0,0
-567,-713,0,0,0,0,0,0,0,0,0,-1,657,1737,0,0
-560,-713,0,0,0,0,0,0,0,0,0,-1,664,1737,0,0
-553,-713,0,0,0,0,0,0,0,0,0,-1,671,1737,0,0
-546,-713,0,0,0,0,0,0,0,0,0,-1,678,1737,0,0
-539,-713,0,0,0,0,0,0,0,0,0,-1,685,1737,0,0
-532,-713,0,0,0,0,0,0,0,0,0,-1,692,1737,0,0
-525,-713,0,0,0,0,0,0,0,0,0,-1,699,1737,0,0
-518,-713,0,0,0,0,0,0,0,0,0,-1,706,1737,0,0
-511,-713,0,0,0,0,0,0,0,0,0,-1,713,1737,0,0
-504,-713,0,0,0,0,0,0,0,0,0,-1,720,1737,0,0
-497,-713,0,0,0,0,0,0,0,0,0,-1,727,1737,0,0
-490,-713,0,0,0,0,0,0,0,0,0,-1,734,1737,0,0
-483,-713,0,0,0,0,0,0,0,0,0,-1,741,1737,0,0
-476,-713,0,0,0,0,0,0,0,0,0,-1,748,1737,0,0
-469,-713,0,0,0,0,0,0,0,0,0,-1,755,1737,0,0
-462,-713,0,0,0,0,0,0,0,0,0,-1,762,1737,0,0
-455,-713,0,0,0,0,0,0,0,0,0,-1,769,1737,0,0
-448,-713,0,0,0,0,0,0,0,0,0,-1,776,1737,0,0
-441,-713,0,0,0,0,0,0,0,0,0,-1,783,1737,0,0
-434,-713,0,0,0,0,0,0,0,0,0,-1,790,1737,0,0
-427,-713,0,0,0,0,0,0,0,0,0,-1,797,1737,0,0
-420,-713,0,0,0,0,0,0,0,0,0,-1,804,1737,0,0
-413,-713,0,0,0,0,0,0,0,0,0,-1,811,1737,0,0
-406,-713,0,0,0,0,0,0,0,0,0,-1,818,1737,0,0
-399,-713,0,0,0,0,0,0,0,0,0,-1,825,1737,0,0
-392,-713,0,0,0,0,0,0,0,0,0,-1,832,1737,0,0
-385,-713,0,0,0,0,0,0,0,0,0,-1,839,1737,0,0
-378,-713,0,0,0,0,0,0,0,0,0,-1,846,1737,0,0
-371,-713,0,0,0,0,0,0,0,0,0,-1,853,1737,0,0
-364,-713,0,0,0,0,0,0,0,0,0,-1,860,1737,0,0
-357,-713,0,0,0,0,0,0,0,0,0,-1,867,1737,0,0
-350,-713,0,0,0,0,0,0,0,0,0,-1,874,1737,0,0
-343,-713,0,0,0,0,0,0,0,0,0,-1,881,1737,0,0
-336,-713,0,0,0,0,0,0,0,0,0,-1,888,1737,0,0
-329,-713,0,0,0,0,0,0,0,0,0,-1,895,1737,0,0
-322,-713,0,0,0,0,0,0,0,0,0,-1,902,1737,0,0
-315,-713,0,0,0,0,0,0,0,0,0,-1,909,1737,0,0
-308,-713,0,0,0,0,0,0,0,0,0,-1,916,1737,0,0
-301,-713,0,0,0,0,0,0,0,0,0,-1,923,1737,0,0
-294,-713,6.3161,13.046,0,0,0,0,0,0,0,-1,930,1737,6.31612,-13.046
-287,-713,6.56073,15.8463,0,0,0,0,0,0,0,-1,937,1737,6.56074,-15.8463
-280,-713,6.23041,14.8906,0,0,0,0,0,0,0,-1,944,1737,6.2304,-14.8906
-273,-713,5.90009,13.9349,0,0,0,0,0,0,0,-1,951,1737,5.90006,-13.9349
-266,-713,6.52106,13.4521,0,0,0,0,0,0,0,-1,958,1737,6.52105,-13.4522
-259,-713,2.67322,10.5743,0,0,0,0,0,0,0,-1,965,1737,2.67324,-10.5743
-252,-713,3.55267,8.86694,0,0,0,0,0,0,0,-1,972,1737,3.55265,-8.86693
-245,-713,5.05389,17.6932,0,0,0,0,0,0,0,-1,979,1737,5.05392,-17.6932
-238,-713,4.45013,14.9313,0,0,0,0,0,0,0,-1,986,1737,4.45013,-14.9313
-231,-713,4.23468,14.0308,0,0,0,0,0,0,0,-1,993,1737,4.23469,-14.0308
-224,-713,4.46649,14.33,0,0,0,0,0,0,0,-1,1000,1737,4.4665,-14.33
-217,-713,4.66205,15.2954,0,0,0,0,0,0,0,-1,1007,1737,4.66206,-15.2955
-210,-713,4.66449,15.6072,0,0,0,0,0,0,0,-1,1014,1737,4.66446,-15.6072
-203,-713,4.71167,15.631,0,0,0,0,0,0,0,-1,1021,1737,4.71162,-15.6309
-196,-713,4.61499,15.212,0,0,0,0,0,0,0,-1,1028,1737,4.61498,-15.212
-189,-713,4.74988,15.4791,0.00303512,-0.0022854,0.0047901,0.0058541,-0.00510438,0.531921,0.00633182,0.0398179,1035,1737,4.74987,-15.4791
-182,-713,4.87622,15.6857,0.00163076,-0.000786802,0.00302512,0.00367966,-0.00283571,0.595326,0.00377215,0.0258371,1042,1737,4.87628,-15.6857
-175,-713,4.93604,15.7991,0.000489385,0.00106412,0.00191413,0.00271233,-0.00115883,0.859906,0.00229422,0.02205,1049,1737,4.93602,-15.7991
-168,-713,5.02869,15.88,-0.000791179,0.00158466,0.000590832,0.00172348,-0.000929997,1.34003,0.00155465,0.0251191,1056,1737,5.02865,-15.8799
-161,-713,4.93982,16.076,-0.00177338,0.00264087,-0.00020478,0.00265035,-0.00178286,-1.52454,0.0025758,0.0136164,1063,1737,4.93977,-16.076
-154,-713,4.8656,16.2317,-0.00240165,0.00332739,-0.000628773,0.00339559,-0.00246985,-1.46276,0.00340044,0.0113159,1070,1737,4.86559,-16.2317
-147,-713,4.86865,16.3923,-0.00268141,0.00352225,-0.000866417,0.00364098,-0.00280015,-1.43461,0.00372934,0.0184548,1077,1737,4.8687,-16.3924
-140,-713,4.88159,16.5311,-0.00269885,0.00336499,-0.00101051,0.00352895,-0.00286281,-1.40994,0.00369696,0.0178767,1084,1737,4.88161,-16.5312
-133,-713,4.87024,16.6151,-0.00265073,0.00305689,-0.00112388,0.00327021,-0.00286406,-1.38321,0.00354421,0.0109378,1091,1737,4.87024,-16.6151
-126,-713,4.87976,16.71,-0.00247773,0.00270234,-0.00102915,0.00289932,-0.00267471,-1.38169,0.00321903,0.0173679,1098,1737,4.8797,-16.71
-119,-713,4.87781,16.7933,-0.0021689,0.00236179,-0.000752074,0.00248337,-0.00229048,-1.41053,0.00275693,0.0248435,1105,1737,4.8778,-16.7933
-112,-713,4.86963,16.967,-0.0017,0.00196333,-0.000442747,0.00201608,-0.00175275,-1.45221,0.00217771,0.0130251,1112,1737,4.86965,-16.9671
-105,-713,4.87769,17.0846,-0.00121321,0.0015789,-0.000217805,0.00159579,-0.00123009,-1.49341,0.00163607,0.010647,1119,1737,4.87763,-17.0846
-98,-713,4.87964,17.1794,-0.000861881,0.00123879,1.22727e-05,0.00123886,-0.000861953,1.56495,0.0012194,0.00965481,1126,1737,4.87958,-17.1794
-91,-713,4.86047,17.2657,-0.000439105,0.00109504,0.00026863,0.00114072,-0.000484783,1.40237,0.000963615,0.00986228,1133,1737,4.86053,-17.2658
-84,-713,4.84204,17.3451,-0.000102607,0.00102464,0.000426415,0.00116777,-0.000245737,1.24695,0.000872046,0.00937996,1140,1737,4.84209,-17.3451
-77,-713,4.84106,17.4365,0.000274069,0.000965525,0.000578945,0.00129412,-5.45214e-05,1.05457,0.000881479,0.0125631,1147,1737,4.84108,-17.4365
-70,-713,4.84106,17.5396,0.000597003,0.000761663,0.000509296,0.00119524,0.000163425,0.865532,0.000748324,0.0139535,1154,1737,4.84109,-17.5396
-63,-713,4.82983,17.6294,0.000799112,0.000885989,0.000254561,0.00110079,0.00058431,0.869904,0.000635944,0.011826,1161,1737,4.8298,-17.6294
-56,-713,4.84302,17.7048,0.00112179,0.000864964,-0.000117295,0.0011673,0.000819458,-0.37009,0.000692031,0.0125398,1168,1737,4.84302,-17.7048
-49,-713,4.8114,17.7677,0.00141142,0.000767983,-0.000556606,0.0017326,0.000446807,-0.523355,0.00103867,0.0149333,1175,1737,4.81143,-17.7677
-42,-713,4.82324,17.835,0.00161297,0.000503307,-0.000876491,0.00209548,2.07969e-05,-0.503228,0.0013901,0.016862,1182,1737,4.8232,-17.835
-35,-713,4.86096,17.902,0.00198338,5.01491e-05,-0.00129419,0.00263209,-0.000598563,-0.464645,0.00198457,0.013971,1189,1737,4.861,-17.902
-28,-713,4.86523,17.9814,0.00228824,-0.000555515,-0.00172319,0.00310044,-0.00136772,-0.440455,0.00264356,0.0132646,1196,1737,4.86519,-17.9814
-21,-713,4.84387,18.0427,0.00237373,-0.00116708,-0.00207518,0.00333109,-0.00212444,-0.432243,0.00317533,0.0093815,1203,1737,4.84389,-18.0427
-14,-713,4.86182,18.0919,0.00246459,-0.00202443,-0.00232221,0.00344971,-0.00300955,-0.401205,0.00373214,0.00982918,1210,1737,4.86179,-18.0919
-7,-713,4.89087,18.1356,0.00250755,-0.00210998,-0.00232417,0.00347478,-0.00307721,-0.394361,0.00378512,0.00900997,1217,1737,4.89091,-18.1356
0,-713,4.90417,18.1605,0.0021804,-0.00226647,-0.0022629,0.00312941,-0.00321548,-0.397097,0.00366333,0.013597,1224,1737,4.90416,-18.1605
7,-713,4.91052,18.1985,0.00169472,-0.00272794,-0.00219533,0.00259939,-0.00363261,-0.390883,0.00361449,0.0170109,1231,1737,4.91046,-18.1984
14,-713,4.91223,18.2676,0.00114698,-0.00319539,-0.00208137,0.00198348,-0.00403188,-0.38214,0.00353945,0.0128412,1238,1737,4.9122,-18.2676
21,-713,4.9137,18.2948,0.000626808,-0.00351125,-0.00191521,0.00137716,-0.0042616,-0.373405,0.00339455,0.0109422,1245,1737,4.91367,-18.2947
28,-713,4.91272,18.3254,0.000183993,-0.00342775,-0.00181531,0.000938694,-0.00418245,-0.394003,0.0031482,0.0115047,1252,1737,4.91269,-18.3254
35,-713,4.92151,18.3644,-0.000140287,-0.00318643,-0.00164179,0.000576113,-0.00390283,-0.411446,0.00281365,0.0110914,1259,1737,4.92149,-18.3644
42,-713,4.95129,18.4019,5.57162e-06,-0.00254585,-0.00175768,0.000901699,-0.00344198,-0.471485,0.00264692,0.0104315,1266,1737,4.9513,-18.4018
49,-713,4.96973,18.3883,0.000268721,-0.00170474,-0.00192206,0.00144253,-0.00287855,-0.548254,0.00254028,0.0103346,1273,1737,4.96977,-18.3883
56,-713,4.96777,18.3964,0.000636659,-0.00108213,-0.00200515,0.00195882,-0.00240429,-0.582943,0.00252341,0.0110514,1280,1737,4.96775,-18.3963
63,-713,4.974,18.4302,0.00135379,-0.000393834,-0.00202181,0.00268253,-0.00172258,-0.581424,0.00256334,0.0119308,1287,1737,4.97402,-18.4302
70,-713,4.97949,18.4348,0.00209798,0.000476325,-0.0018084,0.003269,-0.000694703,-0.574651,0.00244404,0.011934,1294,1737,4.97944,-18.4348
77,-713,4.98694,18.4327,0.00288245,0.00126994,-0.00164722,0.00391015,0.000242241,-0.557807,0.00252989,0.0127055,1301,1737,4.98695,-18.4327
84,-713,4.99756,18.4481,0.00365662,0.00159132,-0.00144643,0.00440119,0.000846743,-0.475391,0.00269656,0.0136064,1308,1737,4.99761,-18.4482
91,-713,5.01062,18.4686,0.00407987,0.00148632,-0.00105901,0.00445735,0.00110884,-0.342405,0.00267955,0.01346,1315,1737,5.01058,-18.4687
98,-713,5.00476,18.4594,0.00427441,0.000542849,-0.000532356,0.00434887,0.000468388,-0.13897,0.00275642,0.0113251,1322,1737,5.00473,-18.4593
105,-713,4.99109,18.4537,0.00454219,2.0374e-05,8.72079e-05,0.00454387,1.86928e-05,0.0192765,0.00302303,0.0126577,1329,1737,4.99104,-18.4538
112,-713,5.02844,18.4523,0.00452009,-0.00042729,0.000788993,0.00464287,-0.000550069,0.154377,0.00329395,0.0142113,1336,1737,5.02848,-18.4523
119,-713,5.05371,18.423,0.00410727,-0.0012555,0.00134205,0.00442437,-0.0015726,0.232027,0.00359048,0.014473,1343,1737,5.0537,-18.423
126,-713,5.04919,18.4008,0.00349549,-0.00237369,0.00174347,0.00397433,-0.00285253,0.268038,0.00395919,0.0137778,1350,1737,5.04924,-18.4008
133,-713,5.04395,18.3308,0.00284214,-0.0035879,0.00207154,0.00345173,-0.00419749,0.28619,0.00442327,0.0127852,1357,1737,5.04398,-18.3308
140,-713,5.05896,18.2925,0.00221787,-0.00435224,0.00214106,0.002854,-0.00498838,0.288805,0.00458336,0.0135874,1364,1737,5.059,-18.2925
147,-713,5.05298,18.259,0.00155458,-0.00481281,0.00230514,0.00230148,-0.00555971,0.313341,0.0046668,0.0142891,1371,1737,5.05295,-18.259
154,-713,5.03723,18.2426,0.00115572,-0.00473145,0.00225093,0.00191772,-0.00549345,0.326418,0.00444175,0.0135672,1378,1737,5.03725,-18.2425
161,-713,5.07385,18.1997,0.00110221,-0.00369667,0.00184499,0.00172953,-0.00432399,0.327751,0.00360041,0.00975887,1385,1737,5.07386,-18.1997
168,-713,5.08484,18.1469,0.000946,-0.00270655,0.00133147,0.00137984,-0.00314038,0.314984,0.00267492,0.00999391,1392,1737,5.08486,-18.1469
175,-713,5.09949,18.097,0.000769566,-0.00189024,0.000775653,0.000979234,-0.00209991,0.264002,0.00181657,0.0128007,1399,1737,5.09948,-18.0971
182,-713,5.09851,18.0454,0.000654695,-0.000923745,0.000450383,0.000774162,-0.00104321,0.259287,0.00105309,0.0113816,1406,1737,5.09854,-18.0454
189,-713,5.10181,17.9537,0.000493557,2.21949e-06,0.000203103,0.000566642,-7.08654e-05,0.345416,0.000403463,0.010613,1413,1737,5.10177,-17.9537
196,-713,5.10339,17.8973,0.000396943,0.00107994,-0.000107181,0.00109637,0.000380518,-1.41874,0.000642781,0.0115911,1420,1737,5.10335,-17.8974
203,-713,5.10693,17.8566,0.000265855,0.00184248,-0.000352529,0.00191771,0.000190621,-1.36054,0.00121991,0.015545,1427,1737,5.10689,-17.8566
210,-713,5.09937,17.7887,-1.38529e-05,0.00195096,-0.000470364,0.00205776,-0.00012065,-1.34753,0.00141377,0.0133461,1434,1737,5.09934,-17.7887
217,-713,5.10852,17.7119,-0.000340452,0.00202162,-0.000602499,0.00216642,-0.000485255,-1.33493,0.00163029,0.0106554,1441,1737,5.10847,-17.7119
224,-713,5.10889,17.6221,-0.000525468,0.00195746,-0.000597551,0.00209378,-0.000661792,-1.3465,0.001661,0.0115121,1448,1737,5.10884,-17.622
231,-713,5.10693,17.5522,-0.000716193,0.00183881,-0.000544353,0.00194995,-0.000827334,-1.36939,0.00164655,0.0107053,1455,1737,5.10693,-17.5522
238,-713,5.10156,17.4592,-0.000779406,0.00169233,-0.000474351,0.00178023,-0.000867312,-1.38756,0.00155856,0.00858861,1462,1737,5.10154,-17.4592
245,-713,5.08386,17.3618,-0.000740415,0.00154794,-0.000492864,0.00164958,-0.000842053,-1.36743,0.00146351,0.0112572,1469,1737,5.08385,-17.3618
252,-713,5.07544,17.2565,-0.000732578,0.00143122,-0.000602925,0.00158788,-0.000889236,-1.31659,0.001449,0.0111692,1476,1737,5.07542,-17.2564
259,-713,5.10217,17.1467,-0.00075156,0.00149446,-0.000853249,0.00178184,-0.00103893,-1.24593,0.00164729,0.0115492,1483,1737,5.10216,-17.1467
266,-713,5.0979,17.0846,-0.000861249,0.00265324,-0.00122517,0.00303818,-0.00124619,-1.26637,0.00254468,0.0104358,1490,1737,5.0979,-17.0846
273,-713,5.07263,16.9825,-0.0010062,0.00344236,-0.00159932,0.00395765,-0.00152149,-1.2591,0.00326595,0.00840439,1497,1737,5.07266,-16.9826
280,-713,5.0697,16.8582,-0.0014855,0.00438001,-0.0018719,0.00492648,-0.00203198,-1.28675,0.0041317,0.00920505,1504,1737,5.06966,-16.8581
287,-713,5.05298,16.738,-0.00239918,0.00502255,-0.00168445,0.00538696,-0.00276359,-1.35774,0.00478628,0.010574,1511,1737,5.05292,-16.738
294,-713,5.06689,16.6266,-0.00307342,0.00631913,-0.00191772,0.00669559,-0.00344988,-1.37695,0.00595657,0.0156017,1518,1737,5.06688,-16.6266
301,-713,5.05151,16.4993,-0.00438782,0.00745405,-0.00177972,0.00771574,-0.00464952,-1.4248,0.00721187,0.0170904,1525,1737,5.05156,-16.4993
308,-713,5.02832,16.361,-0.00605871,0.00830922,-0.00111418,0.00839511,-0.0061446,-1.49386,0.00842796,0.0187101,1532,1737,5.02832,-16.3609
315,-713,5.05725,16.2456,-0.00726963,0.00887366,-0.00038121,0.00888266,-0.00727863,-1.5472,0.00934603,0.0262917,1539,1737,5.0572,-16.2456
322,-713,5.00928,16.0823,-0.00878694,0.00897754,0.000794794,0.00901303,-0.00882242,1.52617,0.0102975,0.0337799,1546,1737,5.00933,-16.0822
329,-713,4.9762,15.9558,-0.00998068,0.00852818,0.00233913,0.00881922,-0.0102717,1.44701,0.0110328,0.0368489,1553,1737,4.97625,-15.9558
336,-713,4.45862,16.1248,-0.0103892,0.00772405,0.00353768,0.00839047,-0.0110556,1.3846,0.0112623,0.0407565,1560,1737,4.45856,-16.1248
343,-713,5.00879,15.6808,0,0,0,0,0,0,0,-1,1567,1737,5.00877,-15.6808
350,-713,5.1084,15.4695,0,0,0,0,0,0,0,-1,1574,1737,5.10844,-15.4695
357,-713,4.48804,15.5494,0,0,0,0,0,0,0,-1,1581,1737,4.48807,-15.5494
364,-713,4.47595,15.3511,0,0,0,0,0,0,0,-1,1588,1737,4.476,-15.351
371,-713,4.58911,14.9182,0,0,0,0,0,0,0,-1,1595,1737,4.58914,-14.9182
378,-713,4.31567,16.7935,0,0,0,0,0,0,0,-1,1602,1737,4.31563,-16.7934
385,-713,5.3429,14.0168,0,0,0,0,0,0,0,-1,1609,1737,5.34292,-14.0169
392,-713,4.18201,13.3433,0,0,0,0,0,0,0,-1,1616,1737,4.18198,-13.3433
399,-713,1.93323,14.2748,0,0,0,0,0,0,0,-1,1623,1737,1.93325,-14.2748
406,-713,2.13525,15.2334,0,0,0,0,0,0,0,-1,1630,1737,2.13526,-15.2334
413,-713,2.59546,16.7579,0,0,0,0,0,0,0,-1,1637,1737,2.5955,-16.7579
420,-713,0,0,0,0,0,0,0,0,0,-1,1644,1737,0,0
427,-713,0,0,0,0,0,0,0,0,0,-1,1651,1737,0,0
434,-713,0,0,0,0,0,0,0,0,0,-1,1658,1737,0,0
441,-713,0,0,0,0,0,0,0,0,0,-1,1665,1737,0,0
448,-713,0,0,0,0,0,0,0,0,0,-1,1672,1737,0,0
455,-713,0,0,0,0,0,0,0,0,0,-1,1679,1737,0,0
462,-713,0,0,0,0,0,0,0,0,0,-1,1686,1737,0,0
469,-713,0,0,0,0,0,0,0,0,0,-1,1693,1737,0,0
476,-713,0,0,0,0,0,0,0,0,0,-1,1700,1737,0,0
483,-713,0,0,0,0,0,0,0,0,0,-1,1707,1737,0,0
490,-713,0,0,0,0,0,0,0,0,0,-1,1714,1737,0,0
497,-713,0,0,0,0,0,0,0,0,0,-1,1721,1737,0,0
504,-713,0,0,0,0,0,0,0,0,0,-1,1728,1737,0,0
511,-713,0,0,0,0,0,0,0,0,0,-1,1735,1737,0,0
518,-713,0,0,0,0,0,0,0,0,0,-1,1742,1737,0,0
525,-713,0,0,0,0,0,0,0,0,0,-1,1749,1737,0,0
532,-713,0,0,0,0,0,0,0,0,0,-1,1756,1737,0,0
539,-713,0,0,0,0,0,0,0,0,0,-1,1763,1737,0,0
546,-713,0,0,0,0,0,0,0,0,0,-1,1770,1737,0,0
553,-713,0,0,0,0,0,0,0,0,0,-1,1777,1737,0,0
560,-713,0,0,0,0,0,0,0,0,0,-1,1784,1737,0,0
567,-713,0,0,0,0,0,0,0,0,0,-1,1791,1737,0,0
574,-713,0,0,0,0,0,0,0,0,0,-1,1798,1737,0,0
581,-713,0,0,0,0,0,0,0,0,0,-1,1805,1737,0,0
588,-713,0,0,0,0,0,0,0,0,0,-1,1812,1737,0,0
595,-713,0,0,0,0,0,0,0,0,0,-1,1819,1737,0,0
602,-713,0,0,0,0,0,0,0,0,0,-1,1826,1737,0,0
609,-713,0,0,0,0,0,0,0,0,0,-1,1833,1737,0,0
616,-713,0,0,0,0,0,0,0,0,0,-1,1840,1737,0,0
623,-713,0,0,0,0,0,0,0,0,0,-1,1847,1737,0,0
630,-713,0,0,0,0,0,0,0,0,0,-1,1854,1737,0,0
637,-713,0,0,0,0,0,0,0,0,0,-1,1861,1737,0,0
644,-713,0,0,0,0,0,0,0,0,0,-1,1868,1737,0,0
651,-713,0,0,0,0,0,0,0,0,0,-1,1875,1737,0,0
658,-713,0,0,0,0,0,0,0,0,0,-1,1882,1737,0,0
665,-713,0,0,0,0,0,0,0,0,0,-1,1889,1737,0,0
672,-713,0,0,0,0,0,0,0,0,0,-1,1896,1737,0,0
679,-713,0,0,0,0,0,0,0,0,0,-1,1903,1737,0,0
686,-713,0,0,0,0,0,0,0,0,0,-1,1910,1737,0,0
693,-713,0,0,0,0,0,0,0,0,0,-1,1917,1737,0,0
700,-713,0,0,0,0,0,0,0,0,0,-1,1924,1737,0,0
707,-713,0,0,0,0,0,0,0,0,0,-1,1931,1737,0,0
714,-713,0,0,0,0,0,0,0,0,0,-1,1938,1737,0,0
721,-713,0,0,0,0,0,0,0,0,0,-1,1945,1737,0,0
728,-713,0,0,0,0,0,0,0,0,0,-1,1952,1737,0,0
735,-713,0,0,0,0,0,0,0,0,0,-1,1959,1737,0,0
742,-713,0,0,0,0,0,0,0,0,0,-1,1966,1737,0,0
749,-713,0,0,0,0,0,0,0,0,0,-1,1973,1737,0,0
756,-713,0,0,0,0,0,0,0,0,0,-1,1980,1737,0,0
763,-713,0,0,0,0,0,0,0,0,0,-1,1987,1737,0,0
770,-713,0,0,0,0,0,0,0,0,0,-1,1994,1737,0,0
777,-713,0,0,0,0,0,0,0,0,0,-1,2001,1737,0,0
784,-713,0,0,0,0,0,0,0,0,0,-1,2008,1737,0,0
791,-713,0,0,0,0,0,0,0,0,0,-1,2015,1737,0,0
798,-713,0,0,0,0,0,0,0,0,0,-1,2022,1737,0,0
805,-713,0,0,0,0,0,0,0,0,0,-1,2029,1737,0,0
812,-713,0,0,0,0,0,0,0,0,0,-1,2036,1737,0,0
-700,-720,0,0,0,0,0,0,0,0,0,-1,524,1744,0,0
-693,-720,0,0,0,0,0,0,0,0,0,-1,531,1744,0,0
-686,-720,0,0,0,0,0,0,0,0,0,-1,538,1744,0,0
-679,-720,0,0,0,0,0,0,0,0,0,-1,545,1744,0,0
-672,-720,0,0,0,0,0,0,0,0,0,-1,552,1744,0,0
-665,-720,0,0,0,0,0,0,0,0,0,-1,559,1744,0,0
-658,-720,0,0,0,0,0,0,0,0,0,-1,566,1744,0,0
-651,-720,0,0,0,0,0,0,0,0,0,-1,573,1744,0,0
-644,-720,0,0,0,0,0,0,0,0,0,-1,580,1744,0,0
-637,-720,0,0,0,0,0,0,0,0,0,-1,587,1744,0,0
-630,-720,0,0,0,0,0,0,0,0,0,-1,594,1744,0,0
-623,-720,0,0,0,0,0,0,0,0,0,-1,601,1744,0,0
-616,-720,0,0,0,0,0,0,0,0,0,-1,608,1744,0,0
-609,-720,0,0,0,0,0,0,0,0,0,-1,615,1744,0,0
-602,-720,0,0,0,0,0,0,0,0,0,-1,622,1744,0,0
-595,-720,0,0,0,0,0,0,0,0,0,-1,629,1744,0,0
-588,-720,0,0,0,0,0,0,0,0,0,-1,636,1744,0,0
-581,-720,0,0,0,0,0,0,0,0,0,-1,643,1744,0,0
-574,-720,0,0,0,0,0,0,0,0,0,-1,650,1744,0,0
-567,-720,0,0,0,0,0,0,0,0,0,-1,657,1744,0,0
-560,-720,0,0,0,0,0,0,0,0,0,-1,664,1744,0,0
-553,-720,0,0,0,0,0,0,0,0,0,-1,671,1744,0,0
-546,-720,0,0,0,0,0,0,0,0,0,-1,678,1744,0,0
-539,-720,0,0,0,0,0,0,0,0,0,-1,685,1744,0,0
-532,-720,0,0,0,0,0,0,0,0,0,-1,692,1744,0,0
-525,-720,0,0,0,0,0,0,0,0,0,-1,699,1744,0,0
-518,-720,0,0,0,0,0,0,0,0,0,-1,706,1744,0,0
-511,-720,0,0,0,0,0,0,0,0,0,-1,713,1744,0,0
-504,-720,0,0,0,0,0,0,0,0,0,-1,720,1744,0,0
-497,-720,0,0,0,0,0,0,0,0,0,-1,727,1744,0,0
-490,-720,0,0,0,0,0,0,0,0,0,-1,734,1744,0,0
-483,-720,0,0,0,0,0,0,0,0,0,-1,741,1744,0,0
-476,-720,0,0,0,0,0,0,0,0,0,-1,748,1744,0,0
-469,-720,0,0,0,0,0,0,0,0,0,-1,755,1744,0,0
-462,-720,0,0,0,0,0,0,0,0,0,-1,762,1744,0,0
-455,-720,0,0,0,0,0,0,0,0,0,-1,769,1744,0,0
-448,-720,0,0,0,0,0,0,0,0,0,-1,776,1744,0,0
-441,-720,0,0,0,0,0,0,0,0,0,-1,783,1744,0,0
-434,-720,0,0,0,0,0,0,0,0,0,-1,790,1744,0,0
-427,-720,0,0,0,0,0,0,0,0,0,-1,797,1744,0,0
-420,-720,0,0,0,0,0,0,0,0,0,-1,804,1744,0,0
-413,-720,0,0,0,0,0,0,0,0,0,-1,811,1744,0,0
-406,-720,0,0,0,0,0,0,0,0,0,-1,818,1744,0,0
-399,-720,0,0,0,0,0,0,0,0,0,-1,825,1744,0,0
-392,-720,0,0,0,0,0,0,0,0,0,-1,832,1744,0,0
-385,-720,0,0,0,0,0,0,0,0,0,-1,839,1744,0,0
-378,-720,0,0,0,0,0,0,0,0,0,-1,846,1744,0,0
-371,-720,0,0,0,0,0,0,0,0,0,-1,853,1744,0,0
-364,-720,0,0,0,0,0,0,0,0,0,-1,860,1744,0,0
-357,-720,0,0,0,0,0,0,0,0,0,-1,867,1744,0,0
-350,-720,0,0,0,0,0,0,0,0,0,-1,874,1744,0,0
-343,-720,0,0,0,0,0,0,0,0,0,-1,881,1744,0,0
-336,-720,0,0,0,0,0,0,0,0,0,-1,888,1744,0,0
-329,-720,0,0,0,0,0,0,0,0,0,-1,895,1744,0,0
-322,-720,0,0,0,0,0,0,0,0,0,-1,902,1744,0,0
-315,-720,0,0,0,0,0,0,0,0,0,-1,909,1744,0,0
-308,-720,0,0,0,0,0,0,0,0,0,-1,916,1744,0,0
-301,-720,0,0,0,0,0,0,0,0,0,-1,923,1744,0,0
-294,-720,0,0,0,0,0,0,0,0,0,-1,930,1744,0,0
-287,-720,0,0,0,0,0,0,0,0,0,-1,937,1744,0,0
-280,-720,6.3175,15.5583,0,0,0,0,0,0,0,-1,944,1744,6.3175,-15.5584
-273,-720,6.08392,14.9034,0,0,0,0,0,0,0,-1,951,1744,6.08392,-14.9035
-266,-720,7.28027,13.3165,0,0,0,0,0,0,0,-1,958,1744,7.28026,-13.3166
-259,-720,2.38904,5.20947,0,0,0,0,0,0,0,-1,965,1744,2.38906,-5.20952
-252,-720,3.71014,6.78967,0,0,0,0,0,0,0,-1,972,1744,3.71016,-6.78973
-245,-720,5.77435,17.4977,0,0,0,0,0,0,0,-1,979,1744,5.77436,-17.4977
-238,-720,3.93689,16.0585,0,0,0,0,0,0,0,-1,986,1744,3.93691,-16.0585
-231,-720,5.28387,17.4906,0,0,0,0,0,0,0,-1,993,1744,5.28387,-17.4907
-224,-720,4.52161,14.265,0,0,0,0,0,0,0,-1,1000,1744,4.5216,-14.265
-217,-720,5.10822,16.3542,0,0,0,0,0,0,0,-1,1007,1744,5.10819,-16.3542
-210,-720,4.71362,16.2373,0,0,0,0,0,0,0,-1,1014,1744,4.71365,-16.2373
-203,-720,4.65149,15.8531,0,0,0,0,0,0,0,-1,1021,1744,4.65147,-15.8531
-196,-720,5.05981,14.6847,0,0,0,0,0,0,0,-1,1028,1744,5.05975,-14.6847
-189,-720,4.83118,15.4032,0,0,0,0,0,0,0,-1,1035,1744,4.83115,-15.4031
-182,-720,4.92297,15.7225,0.00212295,-0.00056047,0.0035311,0.00455865,-0.00299617,0.603838,0.00439277,0.0444198,1042,1744,4.92292,-15.7226
-175,-720,5.01965,15.8671,0.000324964,0.00197266,0.00196317,0.00327784,-0.000980216,0.984064,0.00257493,0.0475801,1049,1744,5.01961,-15.8671
-168,-720,5.18164,15.923,-0.00146342,0.00262603,0.00023147,0.00263909,-0.00147648,1.51443,0.00240752,0.039511,1056,1744,5.18167,-15.923
-161,-720,4.94775,16.0425,-0.00281021,0.00389772,-0.000768455,0.00398463,-0.00289712,-1.45818,0.00398968,0.0305059,1063,1744,4.94771,-16.0424
-154,-720,5.02026,16.2555,-0.00375872,0.00476623,-0.0013226,0.00496671,-0.0039592,-1.42036,0.00516431,0.0237669,1070,1744,5.02029,-16.2555
-147,-720,5.00854,16.4371,-0.00423531,0.00503493,-0.00161421,0.00530797,-0.00450835,-1.40324,0.00567372,0.0229068,1077,1744,5.00854,-16.4372
-140,-720,5.00842,16.5554,-0.00436924,0.00487844,-0.0017697,0.00520553,-0.00469633,-1.38803,0.00571936,0.0177556,1084,1744,5.00839,-16.5554
-133,-720,4.98328,16.6249,-0.00439151,0.00455568,-0.00186627,0.00492935,-0.00476518,-1.37318,0.00559741,0.0125679,1091,1744,4.98323,-16.6248
-126,-720,4.98682,16.7277,-0.00424746,0.00413757,-0.00173284,0.00448156,-0.00459146,-1.37483,0.00523844,0.0121768,1098,1744,4.98681,-16.7276
-119,-720,4.97607,16.8173,-0.00391338,0.00368532,-0.00140216,0.0039358,-0.00416386,-1.39402,0.00467696,0.0141887,1105,1744,4.97606,-16.8172
-112,-720,4.96484,16.9467,-0.00334904,0.00318863,-0.00101056,0.00334128,-0.00350168,-1.42088,0.00395114,0.0136363,1112,1744,4.96487,-16.9467
-105,-720,4.9668,17.0697,-0.00275003,0.00270426,-0.000715016,0.00279644,-0.0028422,-1.44259,0.00325551,0.0132819,1119,1744,4.96674,-17.0697
-98,-720,4.95361,17.1616,-0.00230167,0.00222866,-0.000430569,0.00226922,-0.00234223,-1.47688,0.00266253,0.0104634,1126,1744,4.9536,-17.1617
-91,-720,4.92749,17.2487,-0.00174237,0.00194611,-0.000111456,0.00194947,-0.00174574,-1.54062,0.00213451,0.00953376,1133,1744,4.92749,-17.2487
-84,-720,4.92114,17.3478,-0.00131087,0.00172864,8.10117e-05,0.0017308,-0.00131303,1.54417,0.00176286,0.00965112,1140,1744,4.92111,-17.3477
-77,-720,4.93103,17.4535,-0.000786558,0.00146277,0.000417981,0.00153793,-0.000861718,1.39288,0.00140366,0.011445,1147,1744,4.93098,-17.4535
-70,-720,4.92188,17.5464,-0.000338488,0.000953241,0.000406724,0.00107064,-0.000455884,1.2898,0.000904846,0.0108148,1154,1744,4.92182,-17.5463
-63,-720,4.89893,17.6237,-0.00016956,0.0011749,0.000204182,0.00120522,-0.000199885,1.42335,0.00087773,0.0106604,1161,1744,4.89898,-17.6236
-56,-720,4.91455,17.701,-1.95399e-05,0.0013531,3.44395e-05,0.00135396,-2.04035e-05,1.54573,0.000909519,0.0128768,1168,1744,4.91457,-17.701
-49,-720,4.88782,17.7648,0.000311408,0.00131898,-6.52503e-05,0.00132318,0.0003072,-1.50639,0.00079964,0.0179242,1175,1744,4.88785,-17.7648
-42,-720,4.9165,17.8257,0.000554898,0.00120003,-0.000266502,0.00129588,0.000459048,-1.22554,0.000758698,0.0195199,1182,1744,4.9165,-17.8256
-35,-720,4.94373,17.8903,0.00081883,0.000904554,-0.000488522,0.00135209,0.000371294,-0.829155,0.000806635,0.0172672,1189,1744,4.94371,-17.8902
-28,-720,4.93115,17.9821,0.00106866,0.000478581,-0.000766444,0.00159489,-4.7649e-05,-0.601666,0.0010795,0.0115899,1196,1744,4.93119,-17.9821
-21,-720,4.90771,18.0579,0.00120247,-2.73952e-05,-0.00102989,0.00178704,-0.000611971,-0.516262,0.00143939,0.00965089,1203,1744,4.90776,-18.0578
-14,-720,4.91235,18.0898,0.00131776,-0.000755378,-0.00120623,0.00187162,-0.00130924,-0.43045,0.00184601,0.0106944,1210,1744,4.91238,-18.0899
-7,-720,4.92188,18.1443,0.00139708,-0.00142334,-0.00117776,0.00182421,-0.00185047,-0.34791,0.0021216,0.0119092,1217,1744,4.92186,-18.1443
0,-720,4.94714,18.1866,0.0012586,-0.00195559,-0.00112493,0.0016132,-0.00231018,-0.305356,0.00227705,0.0128177,1224,1744,4.94719,-18.1867
7,-720,4.94434,18.2266,0.00101169,-0.00269544,-0.00110104,0.00131405,-0.00299779,-0.268002,0.00255193,0.0156436,1231,1744,4.94436,-18.2265
14,-720,4.95227,18.2891,0.000708967,-0.00335743,-0.00101954,0.000950269,-0.00359873,-0.232402,0.00277077,0.0142408,1238,1744,4.95228,-18.289
21,-720,4.94592,18.334,0.000418152,-0.00391729,-0.000917107,0.000604173,-0.00410331,-0.200119,0.00295757,0.0110176,1245,1744,4.94597,-18.334
28,-720,4.93958,18.359,0.000137157,-0.00427633,-0.000888287,0.000309231,-0.00444841,-0.191344,0.00307387,0.0108527,1252,1744,4.93956,-18.359
35,-720,4.94714,18.3879,-8.05372e-05,-0.0042867,-0.000831698,7.79456e-05,-0.00444519,-0.188296,0.00298978,0.0105503,1259,1744,4.94719,-18.3879
42,-720,4.95313,18.4042,-2.91202e-05,-0.00390736,-0.000992666,0.000210193,-0.00414667,-0.236567,0.00283711,0.0108753,1266,1744,4.9531,-18.4042
49,-720,4.96899,18.3922,0.000110879,-0.0033334,-0.00121182,0.000494512,-0.00371703,-0.306593,0.00265823,0.0112172,1273,1744,4.96903,-18.3922
56,-720,4.96765,18.4127,0.000227315,-0.0027695,-0.00138522,0.000769506,-0.0033117,-0.373082,0.00250403,0.00984436,1280,1744,4.9677,-18.4127
63,-720,4.95898,18.4264,0.000613506,-0.00211596,-0.00150036,0.00127697,-0.00277942,-0.416351,0.00239491,0.0115193,1287,1744,4.95893,-18.4264
70,-720,4.97522,18.4426,0.0010656,-0.00129292,-0.00147736,0.00177664,-0.00200396,-0.448569,0.00218405,0.0126748,1294,1744,4.9752,-18.4427
77,-720,4.99048,18.4597,0.00150834,-0.000509744,-0.00146463,0.00227786,-0.00127927,-0.483766,0.00208051,0.0146992,1301,1744,4.99045,-18.4597
84,-720,4.99304,18.4368,0.00194383,-9.69349e-05,-0.00142157,0.00267332,-0.000826421,-0.474116,0.00211228,0.014375,1308,1744,4.99308,-18.4367
91,-720,4.99927,18.4375,0.00217435,1.36543e-05,-0.00122642,0.0027284,-0.000540394,-0.424318,0.00202327,0.0134684,1315,1744,4.99924,-18.4375
98,-720,4.99646,18.4572,0.00228638,-0.000172137,-0.000939922,0.00260455,-0.000490306,-0.326398,0.00192077,0.0121577,1322,1744,4.99647,-18.4571
105,-720,4.97571,18.4575,0.00246085,-0.000533898,-0.000511667,0.00254585,-0.000618906,-0.164635,0.00193679,0.0105479,1329,1744,4.97575,-18.4575
112,-720,4.99768,18.442,0.00246547,-0.000807801,1.48533e-05,0.00246554,-0.000807869,0.00453764,0.00196902,0.0100453,1336,1744,4.9977,-18.442
119,-720,5.01672,18.4133,0.00223078,-0.00134571,0.000395097,0.00227391,-0.00138884,0.108724,0.00213517,0.0105774,1343,1744,5.01673,-18.4133
126,-720,5.02112,18.3801,0.00190862,-0.00193256,0.000708264,0.00203505,-0.00205899,0.176651,0.00236371,0.0104758,1350,1744,5.02108,-18.3802
133,-720,5.01758,18.3323,0.00156654,-0.0024309,0.000972467,0.00179056,-0.00265492,0.226413,0.00258272,0.0123576,1357,1744,5.01752,-18.3323
140,-720,5.04688,18.3203,0.00122055,-0.00272883,0.00106127,0.00148767,-0.00299595,0.246574,0.00263699,0.018177,1364,1744,5.04688,-18.3203
147,-720,5.03735,18.2869,0.000873787,-0.00273886,0.00115549,0.00121175,-0.00307682,0.284548,0.00255287,0.0189289,1371,1744,5.03735,-18.2869
154,-720,5.01318,18.229,0.000667956,-0.00233746,0.0010713,0.00101073,-0.00268024,0.309669,0.00220245,0.0127755,1378,1744,5.0132,-18.2291
161,-720,5.04138,18.1874,0.000610111,-0.00145311,0.000792402,0.000879317,-0.00172231,0.327499,0.00152811,0.00942891,1385,1744,5.04137,-18.1874
168,-720,5.04053,18.1479,0.000479151,-0.000651345,0.000477728,0.000653991,-0.000826185,0.35084,0.000856505,0.00979847,1392,1744,5.04055,-18.1479
175,-720,5.02722,18.0815,0.000293437,4.03718e-05,0.000123265,0.000343553,-9.74421e-06,0.386158,0.000232352,0.015083,1399,1744,5.02721,-18.0815
182,-720,5.03528,18.036,7.71648e-05,0.000692407,-8.19077e-05,0.000703125,6.6447e-05,-1.44068,0.000448245,0.0151453,1406,1744,5.03523,-18.0361
189,-720,5.06006,17.9771,-0.000265788,0.00116384,-0.000114615,0.00117297,-0.000274919,-1.4913,0.000887921,0.0125814,1413,1744,5.06005,-17.9771
196,-720,5.03674,17.9017,-0.000560224,0.00174106,-0.000262119,0.00177054,-0.000589702,-1.45881,0.00141839,0.0122347,1420,1744,5.03674,-17.9017
203,-720,5.01611,17.8352,-0.00082391,0.00218457,-0.000369099,0.00222919,-0.000868532,-1.45049,0.00184508,0.0144851,1427,1744,5.01615,-17.8352
210,-720,5.03625,17.7913,-0.00106785,0.00250411,-0.000452626,0.00256058,-0.00112431,-1.44669,0.00218067,0.0133795,1434,1744,5.03631,-17.7913
217,-720,5.026,17.7031,-0.00138324,0.00276258,-0.00052995,0.00282925,-0.00144991,-1.44565,0.00251299,0.012119,1441,1744,5.02604,-17.7031
224,-720,5.02917,17.6008,-0.00159245,0.00281944,-0.000535096,0.00288341,-0.00165642,-1.45181,0.00265279,0.00918739,1448,1744,5.02923,-17.6008
231,-720,5.03174,17.5239,-0.00178649,0.00278237,-0.000484409,0.00283317,-0.00183728,-1.46632,0.00271684,0.00974347,1455,1744,5.03175,-17.5239
238,-720,5.02893,17.4374,-0.0018043,0.00265854,-0.000425986,0.00269884,-0.0018446,-1.47648,0.00263856,0.00887983,1462,1744,5.02899,-17.4373
245,-720,5.00183,17.3582,-0.00167924,0.00250127,-0.00049278,0.00255858,-0.00173654,-1.45503,0.00249488,0.0108914,1469,1744,5.00182,-17.3581
252,-720,4.99377,17.2667,-0.00159164,0.00232905,-0.000674931,0.00244198,-0.00170458,-1.40501,0.0024066,0.0104499,1476,1744,4.9938,-17.2668
259,-720,4.99951,17.1703,-0.00154919,0.00236116,-0.00104641,0.00262358,-0.0018116,-1.32509,0.00257491,0.00958383,1483,1744,4.99955,-17.1703
266,-720,4.99231,17.0869,-0.00163072,0.00393625,-0.00159706,0.00436187,-0.00205634,-1.31034,0.00378441,0.00826154,1490,1744,4.99229,-17.087
273,-720,4.98694,16.9623,-0.00175683,0.00486749,-0.00210998,0.00548247,-0.0023718,-1.28719,0.0046517,0.0159587,1497,1744,4.98688,-16.9623
280,-720,4.91858,16.851,-0.00230712,0.00596668,-0.00246948,0.00664769,-0.00298813,-1.30171,0.00569541,0.0216015,1504,1744,4.91859,-16.851
287,-720,4.92859,16.7111,-0.00339988,0.00670606,-0.00227736,0.00719556,-0.00388937,-1.35908,0.00649408,0.0328011,1511,1744,4.92863,-16.711
294,-720,5.11304,16.5787,-0.00414296,0.008476,-0.00271365,0.00903482,-0.00470178,-1.36771,0.00806127,0.0378165,1518,1744,5.11305,-16.5787
301,-720,5.06238,16.476,-0.00584017,0.0100609,-0.00256126,0.0104632,-0.00624254,-1.41497,0.00974716,0.0386649,1525,1744,5.0624,-16.476
308,-720,4.89819,16.2451,-0.00813669,0.011432,-0.00173288,0.0115842,-0.00828896,-1.48315,0.0115263,0.0389627,1532,1744,4.89815,-16.2451
315,-720,4.67114,15.5636,-0.00991427,0.0125346,-0.000776787,0.0125615,-0.00994112,-1.53625,0.0130212,0.0410413,1539,1744,4.67117,-15.5636
322,-720,4.74805,15.9642,0,0,0,0,0,0,0,-1,1546,1744,4.74806,-15.9642
329,-720,4.72644,15.8912,0,0,0,0,0,0,0,-1,1553,1744,4.72642,-15.8912
336,-720,3.92859,16.4156,0,0,0,0,0,0,0,-1,1560,1744,3.92854,-16.4156
343,-720,5.19104,15.8707,0,0,0,0,0,0,0,-1,1567,1744,5.19098,-15.8707
350,-720,4.0741,11.1836,0,0,0,0,0,0,0,-1,1574,1744,4.07412,-11.1836
357,-720,3.94836,13.0232,0,0,0,0,0,0,0,-1,1581,1744,3.94832,-13.0232
364,-720,4.34363,15.1404,0,0,0,0,0,0,0,-1,1588,1744,4.34367,-15.1404
371,-720,4.60352,14.8754,0,0,0,0,0,0,0,-1,1595,1744,4.60355,-14.8753
378,-720,4.03125,13.9476,0,0,0,0,0,0,0,-1,1602,1744,4.03122,-13.9476
385,-720,4.19629,14.5133,0,0,0,0,0,0,0,-1,1609,1744,4.19627,-14.5133
392,-720,0.0194092,12.0704,0,0,0,0,0,0,0,-1,1616,1744,0.019362,-12.0704
399,-720,-0.525269,12.6698,0,0,0,0,0,0,0,-1,1623,1744,-0.525208,-12.6698
406,-720,0,0,0,0,0,0,0,0,0,-1,1630,1744,0,0
413,-720,0,0,0,0,0,0,0,0,0,-1,1637,1744,0,0
420,-720,0,0,0,0,0,0,0,0,0,-1,1644,1744,0,0
427,-720,0,0,0,0,0,0,0,0,0,-1,1651,1744,0,0
434,-720,0,0,0,0,0,0,0,0,0,-1,1658,1744,0,0
441,-720,0,0,0,0,0,0,0,0,0,-1,1665,1744,0,0
448,-720,0,0,0,0,0,0,0,0,0,-1,1672,1744,0,0
455,-720,0,0,0,0,0,0,0,0,0,-1,1679,1744,0,0
462,-720,0,0,0,0,0,0,0,0,0,-1,1686,1744,0,0
469,-720,0,0,0,0,0,0,0,0,0,-1,1693,1744,0,0
476,-720,0,0,0,0,0,0,0,0,0,-1,1700,1744,0,0
483,-720,0,0,0,0,0,0,0,0,0,-1,1707,1744,0,0
490,-720,0,0,0,0,0,0,0,0,0,-1,1714,1744,0,0
497,-720,0,0,0,0,0,0,0,0,0,-1,1721,1744,0,0
504,-720,0,0,0,0,0,0,0,0,0,-1,1728,1744,0,0
511,-720,0,0,0,0,0,0,0,0,0,-1,1735,1744,0,0
518,-720,0,0,0,0,0,0,0,0,0,-1,1742,1744,0,0
525,-720,0,0,0,0,0,0,0,0,0,-1,1749,1744,0,0
532,-720,0,0,0,0,0,0,0,0,0,-1,1756,1744,0,0
539,-720,0,0,0,0,0,0,0,0,0,-1,1763,1744,0,0
546,-720,0,0,0,0,0,0,0,0,0,-1,1770,1744,0,0
553,-720,0,0,0,0,0,0,0,0,0,-1,1777,1744,0,0
560,-720,0,0,0,0,0,0,0,0,0,-1,1784,1744,0,0
567,-720,0,0,0,0,0,0,0,0,0,-1,1791,1744,0,0
574,-720,0,0,0,0,0,0,0,0,0,-1,1798,1744,0,0
581,-720,0,0,0,0,0,0,0,0,0,-1,1805,1744,0,0
588,-720,0,0,0,0,0,0,0,0,0,-1,1812,1744,0,0
595,-720,0,0,0,0,0,0,0,0,0,-1,1819,1744,0,0
602,-720,0,0,0,0,0,0,0,0,0,-1,1826,1744,0,0
609,-720,0,0,0,0,0,0,0,0,0,-1,1833,1744,0,0
616,-720,0,0,0,0,0,0,0,0,0,-1,1840,1744,0,0
623,-720,0,0,0,0,0,0,0,0,0,-1,1847,1744,0,0
630,-720,0,0,0,0,0,0,0,0,0,-1,1854,1744,0,0
637,-720,0,0,0,0,0,0,0,0,0,-1,1861,1744,0,0
644,-720,0,0,0,0,0,0,0,0,0,-1,1868,1744,0,0
651,-720,0,0,0,0,0,0,0,0,0,-1,1875,1744,0,0
658,-720,0,0,0,0,0,0,0,0,0,-1,1882,1744,0,0
665,-720,0,0,0,0,0,0,0,0,0,-1,1889,1744,0,0
672,-720,0,0,0,0,0,0,0,0,0,-1,1896,1744,0,0
679,-720,0,0,0,0,0,0,0,0,0,-1,1903,1744,0,0
686,-720,0,0,0,0,0,0,0,0,0,-1,1910,1744,0,0
693,-720,0,0,0,0,0,0,0,0,0,-1,1917,1744,0,0
700,-720,0,0,0,0,0,0,0,0,0,-1,1924,1744,0,0
707,-720,0,0,0,0,0,0,0,0,0,-1,1931,1744,0,0
714,-720,0,0,0,0,0,0,0,0,0,-1,1938,1744,0,0
721,-720,0,0,0,0,0,0,0,0,0,-1,1945,1744,0,0
728,-720,0,0,0,0,0,0,0,0,0,-1,1952,1744,0,0
735,-720,0,0,0,0,0,0,0,0,0,-1,1959,1744,0,0
742,-720,0,0,0,0,0,0,0,0,0,-1,1966,1744,0,0
749,-720,0,0,0,0,0,0,0,0,0,-1,1973,1744,0,0
756,-720,0,0,0,0,0,0,0,0,0,-1,1980,1744,0,0
763,-720,0,0,0,0,0,0,0,0,0,-1,1987,1744,0,0
770,-720,0,0,0,0,0,0,0,0,0,-1,1994,1744,0,0
777,-720,0,0,0,0,0,0,0,0,0,-1,2001,1744,0,0
784,-720,0,0,0,0,0,0,0,0,0,-1,2008,1744,0,0
791,-720,0,0,0,0,0,0,0,0,0,-1,2015,1744,0,0
798,-720,0,0,0,0,0,0,0,0,0,-1,2022,1744,0,0
805,-720,0,0,0,0,0,0,0,0,0,-1,2029,1744,0,0
812,-720,0,0,0,0,0,0,0,0,0,-1,2036,1744,0,0
-700,-727,0,0,0,0,0,0,0,0,0,-1,524,1751,0,0
-693,-727,0,0,0,0,0,0,0,0,0,-1,531,1751,0,0
-686,-727,0,0,0,0,0,0,0,0,0,-1,538,1751,0,0
-679,-727,0,0,0,0,0,0,0,0,0,-1,545,1751,0,0
-672,-727,0,0,0,0,0,0,0,0,0,-1,552,1751,0,0
-665,-727,0,0,0,0,0,0,0,0,0,-1,559,1751,0,0
-658,-727,0,0,0,0,0,0,0,0,0,-1,566,1751,0,0
-651,-727,0,0,0,0,0,0,0,0,0,-1,573,1751,0,0
-644,-727,0,0,0,0,0,0,0,0,0,-1,580,1751,0,0
-637,-727,0,0,0,0,0,0,0,0,0,-1,587,1751,0,0
-630,-727,0,0,0,0,0,0,0,0,0,-1,594,1751,0,0
-623,-727,0,0,0,0,0,0,0,0,0,-1,601,1751,0,0
-616,-727,0,0,0,0,0,0,0,0,0,-1,608,1751,0,0
-609,-727,0,0,0,0,0,0,0,0,0,-1,615,1751,0,0
-602,-727,0,0,0,0,0,0,0,0,0,-1,622,1751,0,0
-595,-727,0,0,0,0,0,0,0,0,0,-1,629,1751,0,0
-588,-727,0,0,0,0,0,0,0,0,0,-1,636,1751,0,0
-581,-727,0,0,0,0,0,0,0,0,0,-1,643,1751,0,0
-574,-727,0,0,0,0,0,0,0,0,0,-1,650,1751,0,0
-567,-727,0,0,0,0,0,0,0,0,0,-1,657,1751,0,0
-560,-727,0,0,0,0,0,0,0,0,0,-1,664,1751,0,0
-553,-727,0,0,0,0,0,0,0,0,0,-1,671,1751,0,0
-546,-727,0,0,0,0,0,0,0,0,0,-1,678,1751,0,0
-539,-727,0,0,0,0,0,0,0,0,0,-1,685,1751,0,0
-532,-727,0,0,0,0,0,0,0,0,0,-1,692,1751,0,0
-525,-727,0,0,0,0,0,0,0,0,0,-1,699,1751,0,0
-518,-727,0,0,0,0,0,0,0,0,0,-1,706,1751,0,0
-511,-727,0,0,0,0,0,0,0,0,0,-1,713,1751,0,0
-504,-727,0,0,0,0,0,0,0,0,0,-1,720,1751,0,0
-497,-727,0,0,0,0,0,0,0,0,0,-1,727,1751,0,0
-490,-727,0,0,0,0,0,0,0,0,0,-1,734,1751,0,0
-483,-727,0,0,0,0,0,0,0,0,0,-1,741,1751,0,0
-476,-727,0,0,0,0,0,0,0,0,0,-1,748,1751,0,0
-469,-727,0,0,0,0,0,0,0,0,0,-1,755,1751,0,0
-462,-727,0,0,0,0,0,0,0,0,0,-1,762,1751,0,0
-455,-727,0,0,0,0,0,0,0,0,0,-1,769,1751,0,0
-448,-727,0,0,0,0,0,0,0,0,0,-1,776,1751,0,0
-441,-727,0,0,0,0,0,0,0,0,0,-1,783,1751,0,0
-434,-727,0,0,0,0,0,0,0,0,0,-1,790,1751,0,0
-427,-727,0,0,0,0,0,0,0,0,0,-1,797,1751,0,0
-420,-727,0,0,0,0,0,0,0,0,0,-1,804,1751,0,0
-413,-727,0,0,0,0,0,0,0,0,0,-1,811,1751,0,0
-406,-727,0,0,0,0,0,0,0,0,0,-1,818,1751,0,0
-399,-727,0,0,0,0,0,0,0,0,0,-1,825,1751,0,0
-392,-727,0,0,0,0,0,0,0,0,0,-1,832,1751,0,0
-385,-727,0,0,0,0,0,0,0,0,0,-1,839,1751,0,0
-378,-727,0,0,0,0,0,0,0,0,0,-1,846,1751,0,0
-371,-727,0,0,0,0,0,0,0,0,0,-1,853,1751,0,0
-364,-727,0,0,0,0,0,0,0,0,0,-1,860,1751,0,0
-357,-727,0,0,0,0,0,0,0,0,0,-1,867,1751,0,0
-350,-727,0,0,0,0,0,0,0,0,0,-1,874,1751,0,0
-343,-727,0,0,0,0,0,0,0,0,0,-1,881,1751,0,0
-336,-727,0,0,0,0,0,0,0,0,0,-1,888,1751,0,0
-329,-727,0,0,0,0,0,0,0,0,0,-1,895,1751,0,0
-322,-727,0,0,0,0,0,0,0,0,0,-1,902,1751,0,0
-315,-727,0,0,0,0,0,0,0,0,0,-1,909,1751,0,0
-308,-727,0,0,0,0,0,0,0,0,0,-1,916,1751,0,0
-301,-727,0,0,0,0,0,0,0,0,0,-1,923,1751,0,0
-294,-727,0,0,0,0,0,0,0,0,0,-1,930,1751,0,0
-287,-727,0,0,0,0,0,0,0,0,0,-1,937,1751,0,0
-280,-727,0,0,0,0,0,0,0,0,0,-1,944,1751,0,0
-273,-727,0,0,0,0,0,0,0,0,0,-1,951,1751,0,0
-266,-727,4.24805,7.61145,0,0,0,0,0,0,0,-1,958,1751,4.24802,-7.6115
-259,-727,3.65228,5.4082,0,0,0,0,0,0,0,-1,965,1751,3.65229,-5.40818
-252,-727,7.05829,12.9366,0,0,0,0,0,0,0,-1,972,1751,7.0583,-12.9366
-245,-727,5.67279,14.0586,0,0,0,0,0,0,0,-1,979,1751,5.67278,-14.0586
-238,-727,6.02545,16.3462,0,0,0,0,0,0,0,-1,986,1751,6.02544,-16.3462
-231,-727,5.58893,18.0552,0,0,0,0,0,0,0,-1,993,1751,5.5889,-18.0551
-224,-727,5.48376,17.0471,0,0,0,0,0,0,0,-1,1000,1751,5.48379,-17.0471
-217,-727,5.47406,16.6461,0,0,0,0,0,0,0,-1,1007,1751,5.47409,-16.6462
-210,-727,4.4837,16.8502,0,0,0,0,0,0,0,-1,1014,1751,4.48372,-16.8502
-203,-727,4.57642,16.1097,0,0,0,0,0,0,0,-1,1021,1751,4.57646,-16.1098
-196,-727,4.54309,15.3237,0,0,0,0,0,0,0,-1,1028,1751,4.54305,-15.3238
-189,-727,5.53918,14.6943,0,0,0,0,0,0,0,-1,1035,1751,5.53915,-14.6943
-182,-727,4.94385,15.8418,0,0,0,0,0,0,0,-1,1042,1751,4.94385,-15.8418
-175,-727,5.08691,15.9529,0,0,0,0,0,0,0,-1,1049,1751,5.08694,-15.9529
-168,-727,5.31775,16.0068,0,0,0,0,0,0,0,-1,1056,1751,5.31778,-16.0069
-161,-727,4.8927,16.1498,0,0,0,0,0,0,0,-1,1063,1751,4.89273,-16.1498
-154,-727,5.17712,16.0524,-0.00561347,0.00645923,-0.0023476,0.00689967,-0.0060539,-1.38534,0.00748406,0.0433682,1070,1751,5.17719,-16.0524
-147,-727,5.19617,16.2994,-0.00625435,0.00676233,-0.00268606,0.00729483,-0.00678685,-1.37509,0.00813182,0.0396689,1077,1751,5.19618,-16.2994
-140,-727,5.05579,16.3525,-0.0064433,0.00655364,-0.00282907,0.00714275,-0.00703241,-1.3655,0.00818411,0.0270086,1084,1751,5.05577,-16.3526
-133,-727,5.13147,16.5132,-0.0064493,0.00615339,-0.00286079,0.00677238,-0.00706829,-1.35771,0.00799152,0.0199385,1091,1751,5.13145,-16.5132
-126,-727,5.06042,16.7019,-0.00623708,0.00559774,-0.00263166,0.00615655,-0.00679589,-1.36156,0.00748113,0.0142195,1098,1751,5.06041,-16.7019
-119,-727,5.0614,16.8629,-0.00577487,0.00496145,-0.00218744,0.00539002,-0.00620344,-1.37733,0.00669897,0.0125539,1105,1751,5.0614,-16.8629
-112,-727,5.05737,16.951,-0.00503,0.00431001,-0.00165482,0.00459454,-0.00531453,-1.40052,0.00572603,0.0135531,1112,1751,5.0574,-16.9511
-105,-727,5.02759,17.0675,-0.00425635,0.00368661,-0.00122258,0.00387053,-0.00444027,-1.42148,0.004802,0.0133099,1119,1751,5.02763,-17.0675
-98,-727,5.01221,17.1791,-0.00365599,0.00305628,-0.000833981,0.00315835,-0.00375806,-1.44902,0.00399819,0.0113408,1126,1751,5.01218,-17.1791
-91,-727,5.01794,17.2601,-0.00292021,0.00262341,-0.000420088,0.00265507,-0.00295187,-1.49559,0.00323868,0.010932,1133,1751,5.01796,-17.2601
-84,-727,5.00684,17.3372,-0.00236843,0.00226541,-0.000175586,0.00227205,-0.00237508,-1.53298,0.00268324,0.0110825,1140,1751,5.00689,-17.3371
-77,-727,5.00708,17.429,-0.00165623,0.00179955,0.000378111,0.00184044,-0.00169711,1.46308,0.00204297,0.0116513,1147,1751,5.00709,-17.429
-70,-727,5.01025,17.5316,-0.00107029,0.000974618,0.00040968,0.00105364,-0.00114931,1.38025,0.00127227,0.0125707,1154,1751,5.01022,-17.5316
-63,-727,5.00269,17.6304,-0.000978437,0.00144841,0.000165784,0.00145968,-0.00098971,1.5029,0.00142281,0.0103826,1161,1751,5.00272,-17.6303
-56,-727,5.00049,17.7067,-0.000953709,0.00193055,-4.55233e-06,0.00193056,-0.000953716,-1.56922,0.00169677,0.0103944,1168,1751,5.00054,-17.7067
-49,-727,4.99109,17.7788,-0.000143395,0.00192032,5.3558e-05,0.00192171,-0.000144784,1.54487,0.00133203,0.0131308,1175,1751,4.9911,-17.7788
-42,-727,4.99072,17.845,0.00024455,0.00181708,-0.000143033,0.00182999,0.000231646,-1.48082,0.00115058,0.0167869,1182,1751,4.99078,-17.845
-35,-727,4.97009,17.8972,0.000323541,0.0015608,-0.000287105,0.00162418,0.000260165,-1.35354,0.00100732,0.0149853,1189,1751,4.97012,-17.8972
-28,-727,4.979,17.9612,0.000532195,0.00122007,-0.000498034,0.00148138,0.00027088,-1.08759,0.000910822,0.00932925,1196,1751,4.97897,-17.9612
-21,-727,4.97546,18.0363,0.000653154,0.000763476,-0.000688141,0.00139866,1.79673e-05,-0.825392,0.000926511,0.0103434,1203,1751,4.9755,-18.0363
-14,-727,4.97424,18.0771,0.000715141,0.000113104,-0.000771591,0.00124235,-0.000414108,-0.599415,0.00099541,0.0113537,1210,1751,4.97419,-18.0771
-7,-727,4.96729,18.1522,0.000741025,-0.000525557,-0.000710944,0.00105984,-0.000844368,-0.421551,0.00110174,0.015522,1217,1751,4.9673,-18.1523
0,-727,4.9834,18.2311,0.000641499,-0.0011183,-0.000602875,0.000828221,-0.00130503,-0.300349,0.00124184,0.0161415,1224,1751,4.98339,-18.2311
7,-727,4.98596,18.2382,0.000442513,-0.00179172,-0.000551535,0.000571246,-0.00192045,-0.229303,0.00150724,0.0146058,1231,1751,4.98593,-18.2382
14,-727,4.99036,18.2863,0.000223188,-0.00216486,-0.00036447,0.000277575,-0.00221925,-0.148131,0.00158017,0.0135106,1238,1751,4.99037,-18.2863
21,-727,4.98047,18.3507,1.89408e-05,-0.00256064,-0.000243638,4.17503e-05,-0.00258345,-0.0933487,0.00173639,0.0117463,1245,1751,4.98042,-18.3507
28,-727,4.97998,18.3748,-0.000152345,-0.00274592,-0.000181601,-0.000139691,-0.00275857,-0.0695671,0.0017943,0.0103142,1252,1751,4.98,-18.3748
35,-727,4.98938,18.3911,-0.000248764,-0.00262817,-0.000132887,-0.000241365,-0.00263557,-0.0556183,0.00168237,0.0111288,1259,1751,4.9894,-18.3911
42,-727,4.97339,18.3945,-0.000222362,-0.00229042,-0.000240204,-0.000194829,-0.00231795,-0.114125,0.00148463,0.0121025,1266,1751,4.97344,-18.3945
49,-727,4.96008,18.4005,-0.000168347,-0.00194226,-0.000415731,-7.57503e-05,-0.00203485,-0.219155,0.00133204,0.0112317,1273,1751,4.96012,-18.4005
56,-727,4.95203,18.4396,-0.000306797,-0.00154105,-0.000559258,-9.10881e-05,-0.00175676,-0.368123,0.00114202,0.00932046,1280,1751,4.95203,-18.4396
63,-727,4.96179,18.4358,-0.00020521,-0.00113018,-0.000647661,0.000128143,-0.00146353,-0.47534,0.00102109,0.0105312,1287,1751,4.96178,-18.4358
70,-727,4.98291,18.4387,1.06237e-05,-0.000716779,-0.000672724,0.000411668,-0.00111782,-0.537584,0.000913886,0.0130024,1294,1751,4.9829,-18.4388
77,-727,5.00415,18.4644,0.000152831,-0.000343706,-0.000734557,0.000679941,-0.000870816,-0.622433,0.000897588,0.0155897,1301,1751,5.00416,-18.4643
84,-727,4.99146,18.4232,0.000252669,-0.000258992,-0.00077553,0.000813476,-0.000819798,-0.626079,0.000942973,0.0154783,1308,1751,4.99151,-18.4232
91,-727,4.98877,18.4088,0.000264435,-0.000328541,-0.0007143,0.000741335,-0.000805441,-0.588681,0.000893287,0.0165286,1315,1751,4.98879,-18.4088
98,-727,4.99304,18.4271,0.000249849,-0.000536238,-0.000561289,0.000542027,-0.000828416,-0.479951,0.000796963,0.0139041,1322,1751,4.99308,-18.4271
105,-727,4.98633,18.4388,0.000293794,-0.000856616,-0.000296043,0.000365506,-0.000928328,-0.237659,0.000770194,0.0120534,1329,1751,4.98628,-18.4388
112,-727,4.98499,18.4286,0.000294323,-0.00107621,7.84634e-05,0.000298801,-0.00108069,0.0570022,0.000838006,0.01035,1336,1751,4.98493,-18.4286
119,-727,5.00146,18.4122,0.000183238,-0.00152062,0.000250867,0.000219407,-0.00155679,0.143187,0.00111819,0.00854796,1343,1751,5.00152,-18.4123
126,-727,5.01245,18.3622,0.000109653,-0.00168422,0.000482151,0.000231031,-0.0018056,0.246618,0.00128767,0.00993098,1350,1751,5.01242,-18.3622
133,-727,5.01404,18.3495,4.20684e-05,-0.0017323,0.000651625,0.000255662,-0.00194589,0.31675,0.00139034,0.0142586,1357,1751,5.01399,-18.3494
140,-727,5.0365,18.3563,-4.15521e-05,-0.00160221,0.000705531,0.000230111,-0.00187387,0.36755,0.00133259,0.0194765,1364,1751,5.03645,-18.3564
147,-727,5.02881,18.302,-8.63481e-05,-0.00121971,0.000669845,0.000224365,-0.00153042,0.434318,0.0011027,0.0168789,1371,1751,5.02876,-18.302
154,-727,5.02271,18.2198,-6.51792e-05,-0.000610767,0.000481536,0.000215465,-0.000891411,0.527684,0.000677612,0.011038,1378,1751,5.02272,-18.2198
161,-727,5.00439,18.1851,-5.71683e-05,0.000132422,0.00018067,0.000241655,-0.000166402,1.027,0.000236924,0.00889939,1385,1751,5.00436,-18.185
168,-727,4.98181,18.152,-0.000145015,0.000771279,-0.000144095,0.000793405,-0.000167141,-1.41844,0.000592561,0.011059,1392,1751,4.98187,-18.152
175,-727,4.98315,18.0911,-0.000330628,0.00143489,-0.00054093,0.00158744,-0.00048318,-1.29592,0.00125086,0.0156345,1399,1751,4.98312,-18.0911
182,-727,4.99548,18.0369,-0.000669286,0.00189305,-0.000653723,0.0020502,-0.000826432,-1.33489,0.00171018,0.0190221,1406,1751,4.99552,-18.0369
189,-727,4.97815,17.9746,-0.00120512,0.00208551,-0.000441969,0.00214384,-0.00126345,-1.43958,0.00198897,0.0118685,1413,1751,4.97819,-17.9747
196,-727,4.96008,17.9043,-0.00164678,0.0024329,-0.000442991,0.00248045,-0.00169433,-1.46387,0.00242451,0.0122732,1420,1751,4.96008,-17.9042
203,-727,4.95764,17.8237,-0.00203886,0.00277357,-0.000412406,0.00280866,-0.00207395,-1.48592,0.00282959,0.0149227,1427,1751,4.95768,-17.8237
210,-727,4.97205,17.7802,-0.00229552,0.00333558,-0.00046678,0.00337401,-0.00233395,-1.48865,0.00331368,0.0149816,1434,1751,4.97199,-17.7801
217,-727,4.96484,17.7072,-0.00265084,0.00379025,-0.000475252,0.00382513,-0.00268571,-1.49754,0.00377818,0.0105464,1441,1751,4.9648,-17.7072
224,-727,4.95569,17.5885,-0.00291931,0.00395305,-0.00045399,0.00398291,-0.00294917,-1.50512,0.00401704,0.0114677,1448,1751,4.95574,-17.5885
231,-727,4.95654,17.5178,-0.00314422,0.0039693,-0.000382161,0.00398977,-0.00316469,-1.51728,0.00413978,0.0101481,1455,1751,4.95655,-17.5178
238,-727,4.96509,17.4265,-0.00313482,0.0038356,-0.000313113,0.00384964,-0.00314886,-1.526,0.00404733,0.0104972,1462,1751,4.96503,-17.4265
245,-727,4.93616,17.3438,-0.00292587,0.00362801,-0.000403678,0.00365278,-0.00295064,-1.50951,0.00381966,0.00959682,1469,1751,4.93617,-17.3438
252,-727,4.91565,17.2587,-0.0027454,0.00336059,-0.000642109,0.00342739,-0.00281219,-1.46715,0.00360826,0.0103807,1476,1751,4.91569,-17.2586
259,-727,4.93274,17.1633,-0.00262043,0.0033186,-0.00113326,0.0035275,-0.00282933,-1.38851,0.00367749,0.0148065,1483,1751,4.93275,-17.1634
266,-727,4.99512,17.0981,-0.00265501,0.00529601,-0.00188101,0.00571856,-0.00307755,-1.34983,0.00515417,0.0236617,1490,1751,4.99512,-17.0981
273,-727,5.03369,17.0492,-0.00274705,0.00638982,-0.00257177,0.00706396,-0.0034212,-1.31443,0.00617419,0.0435422,1497,1751,5.03365,-17.0492
280,-727,4.71265,16.8668,0,0,0,0,0,0,0,-1,1504,1751,4.71264,-16.8668
287,-727,4.77234,16.6985,0,0,0,0,0,0,0,-1,1511,1751,4.77234,-16.6984
294,-727,5.11023,16.5605,0,0,0,0,0,0,0,-1,1518,1751,5.11018,-16.5605
301,-727,5.10986,16.5085,0,0,0,0,0,0,0,-1,1525,1751,5.1099,-16.5085
308,-727,3.87988,14.4707,0,0,0,0,0,0,0,-1,1532,1751,3.87994,-14.4707
315,-727,4.17358,14.675,0,0,0,0,0,0,0,-1,1539,1751,4.17355,-14.675
322,-727,4.46716,14.8793,0,0,0,0,0,0,0,-1,1546,1751,4.46716,-14.8793
329,-727,6.61853,11.6267,0,0,0,0,0,0,0,-1,1553,1751,6.61859,-11.6267
336,-727,3.34875,7.61792,0,0,0,0,0,0,0,-1,1560,1751,3.34872,-7.61791
343,-727,2.41699,8.72095,0,0,0,0,0,0,0,-1,1567,1751,2.41702,-8.72098
350,-727,3.89783,7.50195,0,0,0,0,0,0,0,-1,1574,1751,3.89782,-7.50193
357,-727,4.48462,10.2948,0,0,0,0,0,0,0,-1,1581,1751,4.48464,-10.2948
364,-727,4.47852,11.4702,0,0,0,0,0,0,0,-1,1588,1751,4.47846,-11.4703
371,-727,3.57446,12.9564,0,0,0,0,0,0,0,-1,1595,1751,3.57443,-12.9564
378,-727,3.19482,14.0498,0,0,0,0,0,0,0,-1,1602,1751,3.19486,-14.0498
385,-727,3.19275,14.7679,0,0,0,0,0,0,0,-1,1609,1751,3.19274,-14.768
392,-727,0,0,0,0,0,0,0,0,0,-1,1616,1751,0,0
399,-727,0,0,0,0,0,0,0,0,0,-1,1623,1751,0,0
406,-727,0,0,0,0,0,0,0,0,0,-1,1630,1751,0,0
413,-727,0,0,0,0,0,0,0,0,0,-1,1637,1751,0,0
420,-727,0,0,0,0,0,0,0,0,0,-1,1644,1751,0,0
427,-727,0,0,0,0,0,0,0,0,0,-1,1651,1751,0,0
434,-727,0,0,0,0,0,0,0,0,0,-1,1658,1751,0,0
441,-727,0,0,0,0,0,0,0,0,0,-1,1665,1751,0,0
448,-727,0,0,0,0,0,0,0,0,0,-1,1672,1751,0,0
455,-727,0,0,0,0,0,0,0,0,0,-1,1679,1751,0,0
462,-727,0,0,0,0,0,0,0,0,0,-1,1686,1751,0,0
469,-727,0,0,0,0,0,0,0,0,0,-1,1693,1751,0,0
476,-727,0,0,0,0,0,0,0,0,0,-1,1700,1751,0,0
483,-727,0,0,0,0,0,0,0,0,0,-1,1707,1751,0,0
490,-727,0,0,0,0,0,0,0,0,0,-1,1714,1751,0,0
497,-727,0,0,0,0,0,0,0,0,0,-1,1721,1751,0,0
504,-727,0,0,0,0,0,0,0,0,0,-1,1728,1751,0,0
511,-727,0,0,0,0,0,0,0,0,0,-1,1735,1751,0,0
518,-727,0,0,0,0,0,0,0,0,0,-1,1742,1751,0,0
525,-727,0,0,0,0,0,0,0,0,0,-1,1749,1751,0,0
532,-727,0,0,0,0,0,0,0,0,0,-1,1756,1751,0,0
539,-727,0,0,0,0,0,0,0,0,0,-1,1763,1751,0,0
546,-727,0,0,0,0,0,0,0,0,0,-1,1770,1751,0,0
553,-727,0,0,0,0,0,0,0,0,0,-1,1777,1751,0,0
560,-727,0,0,0,0,0,0,0,0,0,-1,1784,1751,0,0
567,-727,0,0,0,0,0,0,0,0,0,-1,1791,1751,0,0
574,-727,0,0,0,0,0,0,0,0,0,-1,1798,1751,0,0
581,-727,0,0,0,0,0,0,0,0,0,-1,1805,1751,0,0
588,-727,0,0,0,0,0,0,0,0,0,-1,1812,1751,0,0
595,-727,0,0,0,0,0,0,0,0,0,-1,1819,1751,0,0
602,-727,0,0,0,0,0,0,0,0,0,-1,1826,1751,0,0
609,-727,0,0,0,0,0,0,0,0,0,-1,1833,1751,0,0
616,-727,0,0,0,0,0,0,0,0,0,-1,1840,1751,0,0
623,-727,0,0,0,0,0,0,0,0,0,-1,1847,1751,0,0
630,-727,0,0,0,0,0,0,0,0,0,-1,1854,1751,0,0
637,-727,0,0,0,0,0,0,0,0,0,-1,1861,1751,0,0
644,-727,0,0,0,0,0,0,0,0,0,-1,1868,1751,0,0
651,-727,0,0,0,0,0,0,0,0,0,-1,1875,1751,0,0
658,-727,0,0,0,0,0,0,0,0,0,-1,1882,1751,0,0
665,-727,0,0,0,0,0,0,0,0,0,-1,1889,1751,0,0
672,-727,0,0,0,0,0,0,0,0,0,-1,1896,1751,0,0
679,-727,0,0,0,0,0,0,0,0,0,-1,1903,1751,0,0
686,-727,0,0,0,0,0,0,0,0,0,-1,1910,1751,0,0
693,-727,0,0,0,0,0,0,0,0,0,-1,1917,1751,0,0
700,-727,0,0,0,0,0,0,0,0,0,-1,1924,1751,0,0
707,-727,0,0,0,0,0,0,0,0,0,-1,1931,1751,0,0
714,-727,0,0,0,0,0,0,0,0,0,-1,1938,1751,0,0
721,-727,0,0,0,0,0,0,0,0,0,-1,1945,1751,0,0
728,-727,0,0,0,0,0,0,0,0,0,-1,1952,1751,0,0
735,-727,0,0,0,0,0,0,0,0,0,-1,1959,1751,0,0
742,-727,0,0,0,0,0,0,0,0,0,-1,1966,1751,0,0
749,-727,0,0,0,0,0,0,0,0,0,-1,1973,1751,0,0
756,-727,0,0,0,0,0,0,0,0,0,-1,1980,1751,0,0
763,-727,0,0,0,0,0,0,0,0,0,-1,1987,1751,0,0
770,-727,0,0,0,0,0,0,0,0,0,-1,1994,1751,0,0
777,-727,0,0,0,0,0,0,0,0,0,-1,2001,1751,0,0
784,-727,0,0,0,0,0,0,0,0,0,-1,2008,1751,0,0
791,-727,0,0,0,0,0,0,0,0,0,-1,2015,1751,0,0
798,-727,0,0,0,0,0,0,0,0,0,-1,2022,1751,0,0
805,-727,0,0,0,0,0,0,0,0,0,-1,2029,1751,0,0
812,-727,0,0,0,0,0,0,0,0,0,-1,2036,1751,0,0
-700,-734,0,0,0,0,0,0,0,0,0,-1,524,1758,0,0
-693,-734,0,0,0,0,0,0,0,0,0,-1,531,1758,0,0
-686,-734,0,0,0,0,0,0,0,0,0,-1,538,1758,0,0
-679,-734,0,0,0,0,0,0,0,0,0,-1,545,1758,0,0
-672,-734,0,0,0,0,0,0,0,0,0,-1,552,1758,0,0
-665,-734,0,0,0,0,0,0,0,0,0,-1,559,1758,0,0
-658,-734,0,0,0,0,0,0,0,0,0,-1,566,1758,0,0
-651,-734,0,0,0,0,0,0,0,0,0,-1,573,1758,0,0
-644,-734,0,0,0,0,0,0,0,0,0,-1,580,1758,0,0
-637,-734,0,0,0,0,0,0,0,0,0,-1,587,1758,0,0
-630,-734,0,0,0,0,0,0,0,0,0,-1,594,1758,0,0
-623,-734,0,0,0,0,0,0,0,0,0,-1,601,1758,0,0
-616,-734,0,0,0,0,0,0,0,0,0,-1,608,1758,0,0
-609,-734,0,0,0,0,0,0,0,0,0,-1,615,1758,0,0
-602,-734,0,0,0,0,0,0,0,0,0,-1,622,1758,0,0
-595,-734,0,0,0,0,0,0,0,0,0,-1,629,1758,0,0
-588,-734,0,0,0,0,0,0,0,0,0,-1,636,1758,0,0
-581,-734,0,0,0,0,0,0,0,0,0,-1,643,1758,0,0
-574,-734,0,0,0,0,0,0,0,0,0,-1,650,1758,0,0
-567,-734,0,0,0,0,0,0,0,0,0,-1,657,1758,0,0
-560,-734,0,0,0,0,0,0,0,0,0,-1,664,1758,0,0
-553,-734,0,0,0,0,0,0,0,0,0,-1,671,1758,0,0
-546,-734,0,0,0,0,0,0,0,0,0,-1,678,1758,0,0
-539,-734,0,0,0,0,0,0,0,0,0,-1,685,1758,0,0
-532,-734,0,0,0,0,0,0,0,0,0,-1,692,1758,0,0
-525,-734,0,0,0,0,0,0,0,0,0,-1,699,1758,0,0
-518,-734,0,0,0,0,0,0,0,0,0,-1,706,1758,0,0
-511,-734,0,0,0,0,0,0,0,0,0,-1,713,1758,0,0
-504,-734,0,0,0,0,0,0,0,0,0,-1,720,1758,0,0
-497,-734,0,0,0,0,0,0,0,0,0,-1,727,1758,0,0
-490,-734,0,0,0,0,0,0,0,0,0,-1,734,1758,0,0
-483,-734,0,0,0,0,0,0,0,0,0,-1,741,1758,0,0
-476,-734,0,0,0,0,0,0,0,0,0,-1,748,1758,0,0
-469,-734,0,0,0,0,0,0,0,0,0,-1,755,1758,0,0
-462,-734,0,0,0,0,0,0,0,0,0,-1,762,1758,0,0
-455,-734,0,0,0,0,0,0,0,0,0,-1,769,1758,0,0
-448,-734,0,0,0,0,0,0,0,0,0,-1,776,1758,0,0
-441,-734,0,0,0,0,0,0,0,0,0,-1,783,1758,0,0
-434,-734,0,0,0,0,0,0,0,0,0,-1,790,1758,0,0
-427,-734,0,0,0,0,0,0,0,0,0,-1,797,1758,0,0
-420,-734,0,0,0,0,0,0,0,0,0,-1,804,1758,0,0
-413,-734,0,0,0,0,0,0,0,0,0,-1,811,1758,0,0
-406,-734,0,0,0,0,0,0,0,0,0,-1,818,1758,0,0
-399,-734,0,0,0,0,0,0,0,0,0,-1,825,1758,0,0
-392,-734,0,0,0,0,0,0,0,0,0,-1,832,1758,0,0
-385,-734,0,0,0,0,0,0,0,0,0,-1,839,1758,0,0
-378,-734,0,0,0,0,0,0,0,0,0,-1,846,1758,0,0
-371,-734,0,0,0,0,0,0,0,0,0,-1,853,1758,0,0
-364,-734,0,0,0,0,0,0,0,0,0,-1,860,1758,0,0
-357,-734,0,0,0,0,0,0,0,0,0,-1,867,1758,0,0
-350,-734,0,0,0,0,0,0,0,0,0,-1,874,1758,0,0
-343,-734,0,0,0,0,0,0,0,0,0,-1,881,1758,0,0
-336,-734,0,0,0,0,0,0,0,0,0,-1,888,1758,0,0
-329,-734,0,0,0,0,0,0,0,0,0,-1,895,1758,0,0
-322,-734,0,0,0,0,0,0,0,0,0,-1,902,1758,0,0
-315,-734,0,0,0,0,0,0,0,0,0,-1,909,1758,0,0
-308,-734,0,0,0,0,0,0,0,0,0,-1,916,1758,0,0
-301,-734,0,0,0,0,0,0,0,0,0,-1,923,1758,0,0
-294,-734,0,0,0,0,0,0,0,0,0,-1,930,1758,0,0
-287,-734,0,0,0,0,0,0,0,0,0,-1,937,1758,0,0
-280,-734,0,0,0,0,0,0,0,0,0,-1,944,1758,0,0
-273,-734,0,0,0,0,0,0,0,0,0,-1,951,1758,0,0
-266,-734,0,0,0,0,0,0,0,0,0,-1,958,1758,0,0
-259,-734,0,0,0,0,0,0,0,0,0,-1,965,1758,0,0
-252,-734,6.44257,12.0737,0,0,0,0,0,0,0,-1,972,1758,6.44255,-12.0737
-245,-734,5.9212,12.6437,0,0,0,0,0,0,0,-1,979,1758,5.9212,-12.6437
-238,-734,2.90552,15.4933,0,0,0,0,0,0,0,-1,986,1758,2.90554,-15.4933
-231,-734,5.51721,18.1925,0,0,0,0,0,0,0,-1,993,1758,5.51718,-18.1926
-224,-734,5.54639,17.1418,0,0,0,0,0,0,0,-1,1000,1758,5.54637,-17.1418
-217,-734,5.57123,16.0167,0,0,0,0,0,0,0,-1,1007,1758,5.57125,-16.0167
-210,-734,5.62616,15.0659,0,0,0,0,0,0,0,-1,1014,1758,5.62616,-15.0659
-203,-734,4.74097,16.73,0,0,0,0,0,0,0,-1,1021,1758,4.74094,-16.73
-196,-734,4.69519,15.9962,0,0,0,0,0,0,0,-1,1028,1758,4.69517,-15.9962
-189,-734,6.54004,15.5867,0,0,0,0,0,0,0,-1,1035,1758,6.54006,-15.5867
-182,-734,6.03882,15.5026,0,0,0,0,0,0,0,-1,1042,1758,6.0388,-15.5026
-175,-734,5.5376,15.4185,0,0,0,0,0,0,0,-1,1049,1758,5.53755,-15.4184
-168,-734,4.50208,15.4194,0,0,0,0,0,0,0,-1,1056,1758,4.50212,-15.4194
-161,-734,3.51257,9.94104,0,0,0,0,0,0,0,-1,1063,1758,3.51257,-9.94101
-154,-734,5.33472,15.9994,0,0,0,0,0,0,0,-1,1070,1758,5.33469,-15.9994
-147,-734,5.48267,16.2312,-0.009229,0.00908946,-0.00443738,0.0101077,-0.0102473,-1.34522,0.0117521,0.0490331,1077,1758,5.48263,-16.2312
-140,-734,5.25464,16.3389,-0.00940996,0.00871642,-0.00450295,0.00977341,-0.0104669,-1.34024,0.0116881,0.0403786,1084,1758,5.25469,-16.3389
-133,-734,5.33459,16.5261,-0.00929939,0.00809195,-0.00438593,0.00913543,-0.0103429,-1.33722,0.011253,0.0379006,1091,1758,5.33454,-16.5261
-126,-734,5.15002,16.5902,-0.00889349,0.00727136,-0.0039581,0.0081885,-0.00981063,-1.3431,0.0104059,0.0348951,1098,1758,5.15006,-16.5902
-119,-734,5.08887,16.7601,-0.00816365,0.00632836,-0.00330147,0.00704503,-0.00888032,-1.35704,0.00921484,0.0357266,1105,1758,5.08892,-16.7602
-112,-734,5.1637,16.8967,-0.00712453,0.00543025,-0.00254169,0.00592529,-0.00761957,-1.37844,0.0078405,0.0275791,1112,1758,5.16375,-16.8968
-105,-734,5.13647,17.0371,-0.00608957,0.00460223,-0.00188961,0.00492636,-0.0064137,-1.40092,0.00656593,0.0201668,1119,1758,5.1365,-17.0371
-98,-734,5.14209,17.1343,-0.00525281,0.00377395,-0.00134056,0.00396883,-0.00544769,-1.42644,0.00545893,0.0196788,1126,1758,5.14205,-17.1343
-91,-734,5.13928,17.2249,-0.00427482,0.00314402,-0.000802079,0.00322975,-0.00436054,-1.46432,0.00439844,0.0234037,1133,1758,5.13922,-17.2248
-84,-734,5.09216,17.3062,-0.00354247,0.00261197,-0.00048663,0.00265021,-0.00358071,-1.49238,0.00361077,0.019108,1140,1758,5.09213,-17.3061
-77,-734,5.07776,17.4368,-0.00254005,0.00190398,0.000336912,0.00192937,-0.00256545,1.49556,0.00260373,0.0156897,1147,1758,5.07781,-17.4367
-70,-734,5.07654,17.4813,-0.00174272,0.000719043,0.000417512,0.000787926,-0.00181161,1.40729,0.00153914,0.0120795,1154,1758,5.07656,-17.4813
-63,-734,5.07593,17.5841,-0.00167559,0.0016876,-1.25969e-05,0.00168764,-0.00167564,-1.56705,0.0019418,0.0113416,1161,1758,5.07597,-17.5842
-56,-734,5.06665,17.6809,-0.00167087,0.00267249,-0.000299799,0.00269309,-0.00169147,-1.50221,0.00255335,0.011754,1168,1758,5.06669,-17.681
-49,-734,5.06152,17.7777,-0.000167989,0.00274627,-0.000132362,0.00275227,-0.000173989,-1.5255,0.0018955,0.012389,1175,1758,5.06154,-17.7777
-42,-734,5.03772,17.8546,0.000344705,0.00260899,-0.000383378,0.00267214,0.000281554,-1.40754,0.00169539,0.0143312,1182,1758,5.03776,-17.8546
-35,-734,5.03198,17.8917,0.000214711,0.00228206,-0.000518809,0.00240495,9.18186e-05,-1.33821,0.00157359,0.0140651,1189,1758,5.03199,-17.8917
-28,-734,5.04834,17.9568,0.000360174,0.00188774,-0.000704056,0.00216274,8.51791e-05,-1.19843,0.00141429,0.00964056,1196,1758,5.0483,-17.9567
-21,-734,5.08105,18.0304,0.000314846,0.0014423,-0.000803094,0.00185977,-0.000102624,-1.09141,0.00127543,0.0147406,1203,1758,5.08102,-18.0304
-14,-734,5.04468,18.1028,0.000197195,0.000817773,-0.00078706,0.0013535,-0.000338532,-0.973163,0.00103382,0.0152488,1210,1758,5.04472,-18.1028
-7,-734,5.03052,18.1436,5.49453e-05,0.00017255,-0.000684545,0.000800813,-0.000573318,-0.828243,0.000796971,0.0179354,1217,1758,5.03047,-18.1436
0,-734,5.03284,18.2113,-8.49197e-05,-0.000511543,-0.000517062,0.000261103,-0.000857567,-0.589761,0.000675774,0.0186155,1224,1758,5.03283,-18.2113
7,-734,5.02319,18.2483,-0.000299202,-0.00119385,-0.000400662,-0.000146003,-0.00134705,-0.365212,0.00085354,0.013168,1231,1758,5.02316,-18.2483
14,-734,5.01843,18.2727,-0.000512019,-0.00139002,-8.5405e-05,-0.000503788,-0.00139825,-0.0960719,0.000817717,0.0128587,1238,1758,5.01839,-18.2727
21,-734,5.00562,18.3177,-0.0006648,-0.00168551,0.000107264,-0.000653649,-0.00169666,0.103579,0.000988131,0.0115719,1245,1758,5.00562,-18.3178
28,-734,5.00964,18.3412,-0.000693394,-0.00177099,0.000296509,-0.000617195,-0.00184719,0.251542,0.00108586,0.0106944,1252,1758,5.00969,-18.3412
35,-734,5.00305,18.3877,-0.00062674,-0.00160203,0.00044708,-0.000452813,-0.00177596,0.371013,0.0010656,0.0130995,1259,1758,5.00307,-18.3877
42,-734,5.00403,18.3978,-0.000580705,-0.00144478,0.000563135,-0.000302969,-0.00172251,0.458189,0.00106186,0.0116472,1266,1758,5.00399,-18.3979
49,-734,4.98608,18.4025,-0.000592659,-0.00128649,0.000615513,-0.000233029,-0.00164612,0.528779,0.00102857,0.0100852,1273,1758,4.98615,-18.4025
56,-734,4.97363,18.4297,-0.000880559,-0.00104267,0.000631597,-0.000324835,-0.00159839,0.721582,0.000975511,0.00901305,1280,1758,4.97362,-18.4297
63,-734,4.97961,18.425,-0.000896933,-0.000847661,0.00072595,-0.000145929,-0.00159866,0.80236,0.00102062,0.0112476,1287,1758,4.97956,-18.425
70,-734,4.98145,18.4409,-0.000745939,-0.000748686,0.000811724,6.44121e-05,-0.00155904,0.784552,0.00106148,0.0127972,1294,1758,4.9815,-18.441
77,-734,5.00806,18.4641,-0.000772924,-0.00067936,0.000817678,9.28735e-05,-0.00154516,0.813973,0.00106242,0.0176303,1301,1758,5.0081,-18.4641
84,-734,4.98828,18.4432,-0.000853839,-0.000839447,0.000778431,-6.81782e-05,-0.00162511,0.79002,0.00106141,0.0163153,1308,1758,4.98832,-18.4433
91,-734,4.99609,18.4473,-0.000982372,-0.00105817,0.000752261,-0.000267057,-0.00177349,0.760228,0.00110412,0.0178017,1315,1758,4.99608,-18.4473
98,-734,5.00562,18.4407,-0.00110218,-0.00126803,0.000764095,-0.000416523,-0.00195369,0.731344,0.00118821,0.0130869,1322,1758,5.00556,-18.4407
105,-734,5.02112,18.4199,-0.00121229,-0.00150013,0.000810109,-0.000533416,-0.002179,0.697488,0.00131153,0.0133955,1329,1758,5.02112,-18.42
112,-734,5.01306,18.4115,-0.00121442,-0.00161407,0.000934396,-0.000458722,-0.00236977,0.680059,0.00145131,0.0120415,1336,1758,5.01312,-18.4115
119,-734,4.98816,18.3937,-0.00121539,-0.00193394,0.000799461,-0.000698182,-0.00245114,0.574221,0.00145819,0.0130097,1343,1758,4.98812,-18.3937
126,-734,4.99854,18.3519,-0.00114278,-0.00174254,0.000783873,-0.000603379,-0.00228193,0.602706,0.00136535,0.0153787,1350,1758,4.99848,-18.3519
133,-734,4.98047,18.3356,-0.00108433,-0.00142012,0.000681641,-0.000550209,-0.00195424,0.664644,0.00116362,0.0140069,1357,1758,4.98044,-18.3356
140,-734,4.96472,18.3289,-0.00104687,-0.000963846,0.000541134,-0.000462635,-0.00154808,0.823681,0.000917579,0.018395,1364,1758,4.96466,-18.3289
147,-734,4.97522,18.2615,-0.000972926,-0.000311851,0.000313049,-0.000187136,-0.00109764,1.19168,0.000678046,0.0134262,1371,1758,4.97521,-18.2615
154,-734,4.96704,18.2368,-0.000902951,0.000301264,3.70618e-05,0.000302403,-0.00090409,1.54006,0.000724868,0.00939359,1378,1758,4.9671,-18.2368
161,-734,4.96277,18.202,-0.000839224,0.000895168,-0.000334223,0.000957345,-0.000901401,-1.38687,0.00107331,0.00861834,1385,1758,4.96277,-18.202
168,-734,4.92822,18.1489,-0.000894134,0.00143845,-0.000730731,0.00164846,-0.00110414,-1.29094,0.00159954,0.0134823,1392,1758,4.92828,-18.149
175,-734,4.93018,18.0975,-0.00110076,0.00215724,-0.00126106,0.00258831,-0.00153183,-1.24141,0.00240469,0.0157428,1399,1758,4.93014,-18.0975
182,-734,4.95044,18.0287,-0.00155776,0.00259791,-0.0012841,0.00296268,-0.00192253,-1.29402,0.00284171,0.0141749,1406,1758,4.95044,-18.0287
189,-734,4.922,17.964,-0.00229758,0.00274854,-0.00076135,0.00286091,-0.00240995,-1.42426,0.00304684,0.0104604,1413,1758,4.92202,-17.964
196,-734,4.90552,17.907,-0.00286707,0.00315502,-0.000621879,0.00321857,-0.00293062,-1.46896,0.00355154,0.0114077,1420,1758,4.90551,-17.907
203,-734,4.92651,17.8363,-0.00342844,0.00361099,-0.000450543,0.00363971,-0.00345716,-1.50714,0.00409783,0.0120276,1427,1758,4.92649,-17.8363
210,-734,4.93079,17.7777,-0.00375903,0.00446062,-0.00048083,0.00448865,-0.00378706,-1.51256,0.0047837,0.0124981,1434,1758,4.93079,-17.7777
217,-734,4.90247,17.7042,-0.00422287,0.00513995,-0.000403964,0.00515735,-0.00424027,-1.52776,0.00543432,0.00998265,1441,1758,4.90243,-17.7043
224,-734,4.89709,17.5946,-0.00459952,0.00542927,-0.000317702,0.00543933,-0.00460958,-1.53916,0.00580833,0.0113252,1448,1758,4.89708,-17.5946
231,-734,4.88684,17.5325,-0.00489191,0.00549849,-0.000194653,0.00550213,-0.00489555,-1.55207,0.00600651,0.0133314,1455,1758,4.88684,-17.5325
238,-734,4.87854,17.4331,-0.00488925,0.00534076,-8.71766e-05,0.0053415,-0.00488999,-1.56228,0.00590907,0.0172365,1462,1758,4.87855,-17.4331
245,-734,4.83899,17.2872,-0.00462021,0.00505856,-0.000169061,0.00506151,-0.00462317,-1.55334,0.00559336,0.0219253,1469,1758,4.83901,-17.2872
252,-734,4.84082,17.218,-0.00435402,0.00467157,-0.000435913,0.00469258,-0.00437503,-1.52265,0.00523625,0.0266887,1476,1758,4.84085,-17.218
259,-734,4.92151,17.1918,-0.00414358,0.00452813,-0.00103531,0.00465002,-0.00426547,-1.4536,0.00514896,0.0388298,1483,1758,4.92152,-17.1918
266,-734,4.92908,17.2117,0,0,0,0,0,0,0,-1,1490,1758,4.92902,-17.2117
273,-734,5.06482,17.2567,0,0,0,0,0,0,0,-1,1497,1758,5.06478,-17.2567
280,-734,16.6191,7.38013,0,0,0,0,0,0,0,-1,1504,1758,16.6192,-7.38011
287,-734,14.1356,7.42139,0,0,0,0,0,0,0,-1,1511,1758,14.1356,-7.42135
294,-734,12.1967,6.48743,0,0,0,0,0,0,0,-1,1518,1758,12.1967,-6.48738
301,-734,10.1635,5.59741,0,0,0,0,0,0,0,-1,1525,1758,10.1634,-5.59746
308,-734,5.66711,14.3765,0,0,0,0,0,0,0,-1,1532,1758,5.66712,-14.3764
315,-734,3.64868,14.0034,0,0,0,0,0,0,0,-1,1539,1758,3.64869,-14.0034
322,-734,4.17163,11.5508,0,0,0,0,0,0,0,-1,1546,1758,4.17163,-11.5508
329,-734,5.45972,12.4125,0,0,0,0,0,0,0,-1,1553,1758,5.45969,-12.4125
336,-734,5.92188,13.8751,0,0,0,0,0,0,0,-1,1560,1758,5.92183,-13.8751
343,-734,5.54968,5.14221,0,0,0,0,0,0,0,-1,1567,1758,5.54973,-5.14225
350,-734,5.07397,6.73242,0,0,0,0,0,0,0,-1,1574,1758,5.07402,-6.73243
357,-734,5.05542,7.19189,0,0,0,0,0,0,0,-1,1581,1758,5.05541,-7.19184
364,-734,4.43896,10.4904,0,0,0,0,0,0,0,-1,1588,1758,4.43893,-10.4904
371,-734,4.22766,11.9165,0,0,0,0,0,0,0,-1,1595,1758,4.22769,-11.9165
378,-734,0,0,0,0,0,0,0,0,0,-1,1602,1758,0,0
385,-734,0,0,0,0,0,0,0,0,0,-1,1609,1758,0,0
392,-734,0,0,0,0,0,0,0,0,0,-1,1616,1758,0,0
399,-734,0,0,0,0,0,0,0,0,0,-1,1623,1758,0,0
406,-734,0,0,0,0,0,0,0,0,0,-1,1630,1758,0,0
413,-734,0,0,0,0,0,0,0,0,0,-1,1637,1758,0,0
420,-734,0,0,0,0,0,0,0,0,0,-1,1644,1758,0,0
427,-734,0,0,0,0,0,0,0,0,0,-1,1651,1758,0,0
434,-734,0,0,0,0,0,0,0,0,0,-1,1658,1758,0,0
441,-734,0,0,0,0,0,0,0,0,0,-1,1665,1758,0,0
448,-734,0,0,0,0,0,0,0,0,0,-1,1672,1758,0,0
455,-734,0,0,0,0,0,0,0,0,0,-1,1679,1758,0,0
462,-734,0,0,0,0,0,0,0,0,0,-1,1686,1758,0,0
469,-734,0,0,0,0,0,0,0,0,0,-1,1693,1758,0,0
476,-734,0,0,0,0,0,0,0,0,0,-1,1700,1758,0,0
483,-734,0,0,0,0,0,0,0,0,0,-1,1707,1758,0,0
490,-734,0,0,0,0,0,0,0,0,0,-1,1714,1758,0,0
497,-734,0,0,0,0,0,0,0,0,0,-1,1721,1758,0,0
504,-734,0,0,0,0,0,0,0,0,0,-1,1728,1758,0,0
511,-734,0,0,0,0,0,0,0,0,0,-1,1735,1758,0,0
518,-734,0,0,0,0,0,0,0,0,0,-1,1742,1758,0,0
525,-734,0,0,0,0,0,0,0,0,0,-1,1749,1758,0,0
532,-734,0,0,0,0,0,0,0,0,0,-1,1756,1758,0,0
539,-734,0,0,0,0,0,0,0,0,0,-1,1763,1758,0,0
546,-734,0,0,0,0,0,0,0,0,0,-1,1770,1758,0,0
553,-734,0,0,0,0,0,0,0,0,0,-1,1777,1758,0,0
560,-734,0,0,0,0,0,0,0,0,0,-1,1784,1758,0,0
567,-734,0,0,0,0,0,0,0,0,0,-1,1791,1758,0,0
574,-734,0,0,0,0,0,0,0,0,0,-1,1798,1758,0,0
581,-734,0,0,0,0,0,0,0,0,0,-1,1805,1758,0,0
588,-734,0,0,0,0,0,0,0,0,0,-1,1812,1758,0,0
595,-734,0,0,0,0,0,0,0,0,0,-1,1819,1758,0,0
602,-734,0,0,0,0,0,0,0,0,0,-1,1826,1758,0,0
609,-734,0,0,0,0,0,0,0,0,0,-1,1833,1758,0,0
616,-734,0,0,0,0,0,0,0,0,0,-1,1840,1758,0,0
623,-734,0,0,0,0,0,0,0,0,0,-1,1847,1758,0,0
630,-734,0,0,0,0,0,0,0,0,0,-1,1854,1758,0,0
637,-734,0,0,0,0,0,0,0,0,0,-1,1861,1758,0,0
644,-734,0,0,0,0,0,0,0,0,0,-1,1868,1758,0,0
651,-734,0,0,0,0,0,0,0,0,0,-1,1875,1758,0,0
658,-734,0,0,0,0,0,0,0,0,0,-1,1882,1758,0,0
665,-734,0,0,0,0,0,0,0,0,0,-1,1889,1758,0,0
672,-734,0,0,0,0,0,0,0,0,0,-1,1896,1758,0,0
679,-734,0,0,0,0,0,0,0,0,0,-1,1903,1758,0,0
686,-734,0,0,0,0,0,0,0,0,0,-1,1910,1758,0,0
693,-734,0,0,0,0,0,0,0,0,0,-1,1917,1758,0,0
700,-734,0,0,0,0,0,0,0,0,0,-1,1924,1758,0,0
707,-734,0,0,0,0,0,0,0,0,0,-1,1931,1758,0,0
714,-734,0,0,0,0,0,0,0,0,0,-1,1938,1758,0,0
721,-734,0,0,0,0,0,0,0,0,0,-1,1945,1758,0,0
728,-734,0,0,0,0,0,0,0,0,0,-1,1952,1758,0,0
735,-734,0,0,0,0,0,0,0,0,0,-1,1959,1758,0,0
742,-734,0,0,0,0,0,0,0,0,0,-1,1966,1758,0,0
749,-734,0,0,0,0,0,0,0,0,0,-1,1973,1758,0,0
756,-734,0,0,0,0,0,0,0,0,0,-1,1980,1758,0,0
763,-734,0,0,0,0,0,0,0,0,0,-1,1987,1758,0,0
770,-734,0,0,0,0,0,0,0,0,0,-1,1994,1758,0,0
777,-734,0,0,0,0,0,0,0,0,0,-1,2001,1758,0,0
784,-734,0,0,0,0,0,0,0,0,0,-1,2008,1758,0,0
791,-734,0,0,0,0,0,0,0,0,0,-1,2015,1758,0,0
798,-734,0,0,0,0,0,0,0,0,0,-1,2022,1758,0,0
805,-734,0,0,0,0,0,0,0,0,0,-1,2029,1758,0,0
812,-734,0,0,0,0,0,0,0,0,0,-1,2036,1758,0,0
-700,-741,0,0,0,0,0,0,0,0,0,-1,524,1765,0,0
-693,-741,0,0,0,0,0,0,0,0,0,-1,531,1765,0,0
-686,-741,0,0,0,0,0,0,0,0,0,-1,538,1765,0,0
-679,-741,0,0,0,0,0,0,0,0,0,-1,545,1765,0,0
-672,-741,0,0,0,0,0,0,0,0,0,-1,552,1765,0,0
-665,-741,0,0,0,0,0,0,0,0,0,-1,559,1765,0,0
-658,-741,0,0,0,0,0,0,0,0,0,-1,566,1765,0,0
-651,-741,0,0,0,0,0,0,0,0,0,-1,573,1765,0,0
-644,-741,0,0,0,0,0,0,0,0,0,-1,580,1765,0,0
-637,-741,0,0,0,0,0,0,0,0,0,-1,587,1765,0,0
-630,-741,0,0,0,0,0,0,0,0,0,-1,594,1765,0,0
-623,-741,0,0,0,0,0,0,0,0,0,-1,601,1765,0,0
-616,-741,0,0,0,0,0,0,0,0,0,-1,608,1765,0,0
-609,-741,0,0,0,0,0,0,0,0,0,-1,615,1765,0,0
-602,-741,0,0,0,0,0,0,0,0,0,-1,622,1765,0,0
-595,-741,0,0,0,0,0,0,0,0,0,-1,629,1765,0,0
-588,-741,0,0,0,0,0,0,0,0,0,-1,636,1765,0,0
-581,-741,0,0,0,0,0,0,0,0,0,-1,643,1765,0,0
-574,-741,0,0,0,0,0,0,0,0,0,-1,650,1765,0,0
-567,-741,0,0,0,0,0,0,0,0,0,-1,657,1765,0,0
-560,-741,0,0,0,0,0,0,0,0,0,-1,664,1765,0,0
-553,-741,0,0,0,0,0,0,0,0,0,-1,671,1765,0,0
-546,-741,0,0,0,0,0,0,0,0,0,-1,678,1765,0,0
-539,-741,0,0,0,0,0,0,0,0,0,-1,685,1765,0,0
-532,-741,0,0,0,0,0,0,0,0,0,-1,692,1765,0,0
-525,-741,0,0,0,0,0,0,0,0,0,-1,699,1765,0,0
-518,-741,0,0,0,0,0,0,0,0,0,-1,706,1765,0,0
-511,-741,0,0,0,0,0,0,0,0,0,-1,713,1765,0,0
-504,-741,0,0,0,0,0,0,0,0,0,-1,720,1765,0,0
-497,-741,0,0,0,0,0,0,0,0,0,-1,727,1765,0,0
-490,-741,0,0,0,0,0,0,0,0,0,-1,734,1765,0,0
-483,-741,0,0,0,0,0,0,0,0,0,-1,741,1765,0,0
-476,-741,0,0,0,0,0,0,0,0,0,-1,748,1765,0,0
-469,-741,0,0,0,0,0,0,0,0,0,-1,755,1765,0,0
-462,-741,0,0,0,0,0,0,0,0,0,-1,762,1765,0,0
-455,-741,0,0,0,0,0,0,0,0,0,-1,769,1765,0,0
-448,-741,0,0,0,0,0,0,0,0,0,-1,776,1765,0,0
-441,-741,0,0,0,0,0,0,0,0,0,-1,783,1765,0,0
-434,-741,0,0,0,0,0,0,0,0,0,-1,790,1765,0,0
-427,-741,0,0,0,0,0,0,0,0,0,-1,797,1765,0,0
-420,-741,0,0,0,0,0,0,0,0,0,-1,804,1765,0,0
-413,-741,0,0,0,0,0,0,0,0,0,-1,811,1765,0,0
-406,-741,0,0,0,0,0,0,0,0,0,-1,818,1765,0,0
-399,-741,0,0,0,0,0,0,0,0,0,-1,825,1765,0,0
-392,-741,0,0,0,0,0,0,0,0,0,-1,832,1765,0,0
-385,-741,0,0,0,0,0,0,0,0,0,-1,839,1765,0,0
-378,-741,0,0,0,0,0,0,0,0,0,-1,846,1765,0,0
-371,-741,0,0,0,0,0,0,0,0,0,-1,853,1765,0,0
-364,-741,0,0,0,0,0,0,0,0,0,-1,860,1765,0,0
-357,-741,0,0,0,0,0,0,0,0,0,-1,867,1765,0,0
-350,-741,0,0,0,0,0,0,0,0,0,-1,874,1765,0,0
-343,-741,0,0,0,0,0,0,0,0,0,-1,881,1765,0,0
-336,-741,0,0,0,0,0,0,0,0,0,-1,888,1765,0,0
-329,-741,0,0,0,0,0,0,0,0,0,-1,895,1765,0,0
-322,-741,0,0,0,0,0,0,0,0,0,-1,902,1765,0,0
-315,-741,0,0,0,0,0,0,0,0,0,-1,909,1765,0,0
-308,-741,0,0,0,0,0,0,0,0,0,-1,916,1765,0,0
-301,-741,0,0,0,0,0,0,0,0,0,-1,923,1765,0,0
-294,-741,0,0,0,0,0,0,0,0,0,-1,930,1765,0,0
-287,-741,0,0,0,0,0,0,0,0,0,-1,937,1765,0,0
-280,-741,0,0,0,0,0,0,0,0,0,-1,944,1765,0,0
-273,-741,0,0,0,0,0,0,0,0,0,-1,951,1765,0,0
-266,-741,0,0,0,0,0,0,0,0,0,-1,958,1765,0,0
-259,-741,0,0,0,0,0,0,0,0,0,-1,965,1765,0,0
-252,-741,0,0,0,0,0,0,0,0,0,-1,972,1765,0,0
-245,-741,0,0,0,0,0,0,0,0,0,-1,979,1765,0,0
-238,-741,1.66083,15.1331,0,0,0,0,0,0,0,-1,986,1765,1.66083,-15.1331
-231,-741,5.39471,17.6553,0,0,0,0,0,0,0,-1,993,1765,5.39473,-17.6553
-224,-741,5.67352,16.8585,0,0,0,0,0,0,0,-1,1000,1765,5.67352,-16.8586
-217,-741,5.95233,16.0619,0,0,0,0,0,0,0,-1,1007,1765,5.95232,-16.0619
-210,-741,5.8493,14.8081,0,0,0,0,0,0,0,-1,1014,1765,5.84933,-14.8081
-203,-741,4.84973,17.326,0,0,0,0,0,0,0,-1,1021,1765,4.84977,-17.326
-196,-741,7.78027,18.1128,0,0,0,0,0,0,0,-1,1028,1765,7.78025,-18.1128
-189,-741,7.00903,16.9978,0,0,0,0,0,0,0,-1,1035,1765,7.00904,-16.9978
-182,-741,6.32788,16.0284,0,0,0,0,0,0,0,-1,1042,1765,6.32791,-16.0284
-175,-741,5.36108,15.3015,0,0,0,0,0,0,0,-1,1049,1765,5.3611,-15.3015
-168,-741,4.49768,14.7655,0,0,0,0,0,0,0,-1,1056,1765,4.49766,-14.7656
-161,-741,3.73047,14.4974,0,0,0,0,0,0,0,-1,1063,1765,3.73043,-14.4974
-154,-741,2.46143,9.75415,0,0,0,0,0,0,0,-1,1070,1765,2.46145,-9.75416
-147,-741,5.71704,16.3228,0,0,0,0,0,0,0,-1,1077,1765,5.71704,-16.3228
-140,-741,5.39661,16.4335,0,0,0,0,0,0,0,-1,1084,1765,5.39662,-16.4335
-133,-741,5.9585,16.4752,-0.013261,0.0105961,-0.00671112,0.0123543,-0.0150193,-1.31456,0.0158291,0.0466225,1091,1765,5.9585,-16.4752
-126,-741,5.61963,16.2513,-0.0124738,0.00941721,-0.00591097,0.0109113,-0.0139679,-1.32322,0.0144001,0.0437774,1098,1765,5.61963,-16.2514
-119,-741,5.36755,16.9199,-0.0112559,0.00812747,-0.00484501,0.00927105,-0.0123995,-1.33901,0.0125549,0.0458538,1105,1765,5.36759,-16.9199
-112,-741,5.33472,16.907,-0.00974956,0.00690441,-0.00370606,0.0076919,-0.010537,-1.36142,0.0105671,0.0431459,1112,1765,5.33476,-16.907
-105,-741,5.25708,17.0027,-0.00830351,0.00584463,-0.00267507,0.00633353,-0.00879241,-1.39003,0.00877134,0.0399475,1119,1765,5.25703,-17.0027
-98,-741,5.24011,17.1169,-0.00706031,0.00483913,-0.00182303,0.00511216,-0.00733334,-1.42213,0.00722345,0.0445681,1126,1765,5.24012,-17.1169
-91,-741,5.33569,16.9935,0,0,0,0,0,0,0,-1,1133,1765,5.33572,-16.9935
-84,-741,5.13354,17.1232,0,0,0,0,0,0,0,-1,1140,1765,5.13352,-17.1232
-77,-741,5.15186,17.1992,0,0,0,0,0,0,0,-1,1147,1765,5.1519,-17.1992
-70,-741,5.12878,17.3501,0,0,0,0,0,0,0,-1,1154,1765,5.12879,-17.3501
-63,-741,5.11133,17.5164,0,0,0,0,0,0,0,-1,1161,1765,5.11138,-17.5163
-56,-741,5.1355,17.6323,0,0,0,0,0,0,0,-1,1168,1765,5.13546,-17.6323
-49,-741,5.12292,17.7974,0,0,0,0,0,0,0,-1,1175,1765,5.12298,-17.7974
-42,-741,5.09216,17.8761,0,0,0,0,0,0,0,-1,1182,1765,5.09212,-17.8761
-35,-741,5.11047,17.9009,0.000596467,0.00300147,-0.000907063,0.00330521,0.000292724,-1.24767,0.00211267,0.0210314,1189,1765,5.1105,-17.9009
-28,-741,5.10474,17.9871,0.000654438,0.00245262,-0.0010171,0.00291104,0.000196013,-1.14734,0.00187877,0.0138446,1196,1765,5.10478,-17.9871
-21,-741,5.12439,18.0499,0.000402392,0.00205622,-0.00100539,0.00253107,-7.24572e-05,-1.12955,0.00171204,0.0169877,1203,1765,5.12438,-18.0499
-14,-741,5.09875,18.1066,5.54333e-05,0.00148491,-0.000834106,0.00186862,-0.000328273,-1.13964,0.00136836,0.0169987,1210,1765,5.09874,-18.1065
-7,-741,5.09167,18.1204,-0.000338019,0.000829353,-0.000626453,0.0011019,-0.000610565,-1.16043,0.00100216,0.0156284,1217,1765,5.09169,-18.1204
0,-741,5.08423,18.1844,-0.000671736,8.70977e-05,-0.000389785,0.000251638,-0.000836276,-1.17136,0.000657645,0.016747,1224,1765,5.08426,-18.1845
7,-741,5.03455,18.2144,-0.00106666,-0.000629425,-0.000213955,-0.000542149,-0.00115393,-1.18349,0.000666629,0.0176813,1231,1765,5.03454,-18.2144
14,-741,5.04199,18.2598,-0.00129895,-0.000576963,0.000408602,-0.00039273,-0.00148318,1.1472,0.000887335,0.0152318,1238,1765,5.04195,-18.2598
21,-741,5.03552,18.2898,-0.00143756,-0.000808967,0.000801959,-0.000261916,-0.00198461,0.972156,0.00124499,0.0118718,1245,1765,5.03555,-18.2898
28,-741,5.02539,18.3414,-0.00141167,-0.000797603,0.00122348,0.000156781,-0.00236606,0.908336,0.00163214,0.0118458,1252,1765,5.02544,-18.3414
35,-741,5.03027,18.3862,-0.00121328,-0.000580889,0.0015946,0.000728567,-0.00252273,0.883274,0.00197011,0.0132595,1259,1765,5.03027,-18.3862
42,-741,5.03992,18.3965,-0.00102659,-0.000551686,0.00194229,0.00116761,-0.00274589,0.846224,0.0023199,0.0141396,1266,1765,5.03986,-18.3965
49,-741,5.01379,18.3962,-0.000914726,-0.000500611,0.00216359,0.0014658,-0.00288114,0.833103,0.00255367,0.0102352,1273,1765,5.01379,-18.3962
56,-741,4.98401,18.4215,-0.00120978,-0.000385342,0.00231694,0.00155577,-0.00315089,0.873434,0.00276892,0.0101309,1280,1765,4.98407,-18.4215
63,-741,5.00195,18.4282,-0.00124615,-0.000387833,0.00251463,0.001734,-0.00336798,0.869916,0.00299556,0.0139755,1287,1765,5.00192,-18.4282
70,-741,4.99451,18.4352,-0.00112844,-0.000551052,0.00261068,0.00178685,-0.00346634,0.840465,0.00308416,0.0166045,1294,1765,4.99455,-18.4351
77,-741,4.9967,18.4678,-0.00126888,-0.00073387,0.00252482,0.00153757,-0.00354033,0.838177,0.00300677,0.0135916,1301,1765,4.99669,-18.4678
84,-741,4.97217,18.4572,-0.00151809,-0.0011542,0.00233367,0.00100461,-0.00367689,0.824302,0.00284586,0.0148971,1308,1765,4.97212,-18.4571
91,-741,4.96387,18.4689,-0.00186282,-0.00157685,0.00209506,0.000380097,-0.00381976,0.81947,0.0026822,0.0123804,1315,1765,4.96392,-18.4689
98,-741,4.96863,18.4536,-0.00223131,-0.00185651,0.00186022,-0.000174275,-0.00391355,0.835599,0.00255292,0.0094833,1322,1765,4.9686,-18.4536
105,-741,4.98364,18.4001,-0.00264721,-0.00206248,0.00166364,-0.000665708,-0.00404399,0.872379,0.00250376,0.0101361,1329,1765,4.98359,-18.4002
112,-741,4.99133,18.3779,-0.0028725,-0.00211569,0.00153477,-0.000913367,-0.00407482,0.906264,0.00246906,0.0103862,1336,1765,4.9913,-18.3779
119,-741,4.97278,18.3693,-0.00310046,-0.00247543,0.00100929,-0.00173137,-0.00384451,0.935535,0.00222328,0.0129457,1343,1765,4.97274,-18.3693
126,-741,4.96729,18.328,-0.00311222,-0.00197619,0.000840328,-0.00152991,-0.0035585,1.0826,0.00206121,0.0170586,1350,1765,4.96733,-18.328
133,-741,4.95337,18.3201,-0.00306088,-0.00142372,0.000615861,-0.00121792,-0.00326668,1.24829,0.00190624,0.0141708,1357,1765,4.95335,-18.32
140,-741,4.92188,18.2837,-0.00298481,-0.000836233,0.000403932,-0.000762804,-0.00305824,1.39097,0.0018381,0.0115456,1364,1765,4.92186,-18.2837
147,-741,4.92383,18.2537,-0.00277621,-0.000140987,0.000203125,-0.000125422,-0.00279177,1.49432,0.00182082,0.0103857,1371,1765,4.92386,-18.2536
154,-741,4.92468,18.2395,-0.00252957,0.00045324,-2.82884e-05,0.000453508,-0.00252984,-1.56131,0.00185629,0.008435,1378,1765,4.92468,-18.2395
161,-741,4.92639,18.1953,-0.00221323,0.000956265,-0.000385392,0.00100245,-0.00225942,-1.45152,0.00192929,0.0102588,1385,1765,4.92634,-18.1953
168,-741,4.91785,18.1483,-0.00184625,0.00154105,-0.000835815,0.00173606,-0.00204126,-1.34158,0.00218321,0.0231204,1392,1765,4.9178,-18.1484
175,-741,4.89307,18.1317,0,0,0,0,0,0,0,-1,1399,1765,4.89307,-18.1317
182,-741,4.9032,18.028,0,0,0,0,0,0,0,-1,1406,1765,4.90319,-18.0279
189,-741,4.86475,17.9783,0,0,0,0,0,0,0,-1,1413,1765,4.8647,-17.9783
196,-741,4.84058,17.9215,0,0,0,0,0,0,0,-1,1420,1765,4.84058,-17.9215
203,-741,4.87109,17.8528,0,0,0,0,0,0,0,-1,1427,1765,4.87104,-17.8528
210,-741,4.89709,17.6782,0,0,0,0,0,0,0,-1,1434,1765,4.89715,-17.6783
217,-741,4.84106,17.6219,-0.00629991,0.00727148,-0.000559429,0.0072945,-0.00632293,-1.52967,0.00786869,0.0256907,1441,1765,4.84112,-17.6219
224,-741,4.85645,17.5089,-0.00687471,0.00772442,-0.000319774,0.00773142,-0.00688171,-1.54891,0.00844164,0.0262009,1448,1765,4.85649,-17.5089
231,-741,4.83899,17.4489,-0.00729514,0.00784546,-7.89791e-05,0.00784587,-0.00729556,-1.56558,0.00874383,0.0347987,1455,1765,4.83898,-17.4489
238,-741,4.76282,17.4287,-0.00735419,0.00764979,0.000122498,0.00765079,-0.00735519,1.56263,0.00866426,0.0395304,1462,1765,4.76286,-17.4287
245,-741,4.64514,17.197,-0.00705976,0.00726479,0.000100055,0.00726549,-0.00706046,1.56381,0.00827137,0.0454637,1469,1765,4.64512,-17.1971
252,-741,4.75964,17.1685,0,0,0,0,0,0,0,-1,1476,1765,4.75961,-17.1684
259,-741,4.87036,17.2687,0,0,0,0,0,0,0,-1,1483,1765,4.87035,-17.2687
266,-741,4.40173,15.2345,0,0,0,0,0,0,0,-1,1490,1765,4.40175,-15.2345
273,-741,17.0328,7.54468,0,0,0,0,0,0,0,-1,1497,1765,17.0328,-7.54474
280,-741,15.7959,7.14307,0,0,0,0,0,0,0,-1,1504,1765,15.7959,-7.14305
287,-741,13.988,6.99292,0,0,0,0,0,0,0,-1,1511,1765,13.988,-6.99287
294,-741,12.3752,7.18066,0,0,0,0,0,0,0,-1,1518,1765,12.3752,-7.18061
301,-741,10.2242,6.40942,0,0,0,0,0,0,0,-1,1525,1765,10.2242,-6.40947
308,-741,8.27747,6.42419,0,0,0,0,0,0,0,-1,1532,1765,8.27746,-6.42424
315,-741,7.94568,6.22974,0,0,0,0,0,0,0,-1,1539,1765,7.94567,-6.22972
322,-741,3.08521,12.3561,0,0,0,0,0,0,0,-1,1546,1765,3.08526,-12.3561
329,-741,4.46472,13.5316,0,0,0,0,0,0,0,-1,1553,1765,4.46467,-13.5316
336,-741,4.74475,14.6453,0,0,0,0,0,0,0,-1,1560,1765,4.7447,-14.6452
343,-741,5.42297,5.93701,0,0,0,0,0,0,0,-1,1567,1765,5.42296,-5.937
350,-741,4.90369,5.44666,0,0,0,0,0,0,0,-1,1574,1765,4.90368,-5.44664
357,-741,4.02063,5.16626,0,0,0,0,0,0,0,-1,1581,1765,4.02058,-5.1662
364,-741,0,0,0,0,0,0,0,0,0,-1,1588,1765,0,0
371,-741,0,0,0,0,0,0,0,0,0,-1,1595,1765,0,0
378,-741,0,0,0,0,0,0,0,0,0,-1,1602,1765,0,0
385,-741,0,0,0,0,0,0,0,0,0,-1,1609,1765,0,0
392,-741,0,0,0,0,0,0,0,0,0,-1,1616,1765,0,0
399,-741,0,0,0,0,0,0,0,0,0,-1,1623,1765,0,0
406,-741,0,0,0,0,0,0,0,0,0,-1,1630,1765,0,0
413,-741,0,0,0,0,0,0,0,0,0,-1,1637,1765,0,0
420,-741,0,0,0,0,0,0,0,0,0,-1,1644,1765,0,0
427,-741,0,0,0,0,0,0,0,0,0,-1,1651,1765,0,0
434,-741,0,0,0,0,0,0,0,0,0,-1,1658,1765,0,0
441,-741,0,0,0,0,0,0,0,0,0,-1,1665,1765,0,0
448,-741,0,0,0,0,0,0,0,0,0,-1,1672,1765,0,0
455,-741,0,0,0,0,0,0,0,0,0,-1,1679,1765,0,0
462,-741,0,0,0,0,0,0,0,0,0,-1,1686,1765,0,0
469,-741,0,0,0,0,0,0,0,0,0,-1,1693,1765,0,0
476,-741,0,0,0,0,0,0,0,0,0,-1,1700,1765,0,0
483,-741,0,0,0,0,0,0,0,0,0,-1,1707,1765,0,0
490,-741,0,0,0,0,0,0,0,0,0,-1,1714,1765,0,0
497,-741,0,0,0,0,0,0,0,0,0,-1,1721,1765,0,0
504,-741,0,0,0,0,0,0,0,0,0,-1,1728,1765,0,0
511,-741,0,0,0,0,0,0,0,0,0,-1,1735,1765,0,0
518,-741,0,0,0,0,0,0,0,0,0,-1,1742,1765,0,0
525,-741,0,0,0,0,0,0,0,0,0,-1,1749,1765,0,0
532,-741,0,0,0,0,0,0,0,0,0,-1,1756,1765,0,0
539,-741,0,0,0,0,0,0,0,0,0,-1,1763,1765,0,0
546,-741,0,0,0,0,0,0,0,0,0,-1,1770,1765,0,0
553,-741,0,0,0,0,0,0,0,0,0,-1,1777,1765,0,0
560,-741,0,0,0,0,0,0,0,0,0,-1,1784,1765,0,0
567,-741,0,0,0,0,0,0,0,0,0,-1,1791,1765,0,0
574,-741,0,0,0,0,0,0,0,0,0,-1,1798,1765,0,0
581,-741,0,0,0,0,0,0,0,0,0,-1,1805,1765,0,0
588,-741,0,0,0,0,0,0,0,0,0,-1,1812,1765,0,0
595,-741,0,0,0,0,0,0,0,0,0,-1,1819,1765,0,0
602,-741,0,0,0,0,0,0,0,0,0,-1,1826,1765,0,0
609,-741,0,0,0,0,0,0,0,0,0,-1,1833,1765,0,0
616,-741,0,0,0,0,0,0,0,0,0,-1,1840,1765,0,0
623,-741,0,0,0,0,0,0,0,0,0,-1,1847,1765,0,0
630,-741,0,0,0,0,0,0,0,0,0,-1,1854,1765,0,0
637,-741,0,0,0,0,0,0,0,0,0,-1,1861,1765,0,0
644,-741,0,0,0,0,0,0,0,0,0,-1,1868,1765,0,0
651,-741,0,0,0,0,0,0,0,0,0,-1,1875,1765,0,0
658,-741,0,0,0,0,0,0,0,0,0,-1,1882,1765,0,0
665,-741,0,0,0,0,0,0,0,0,0,-1,1889,1765,0,0
672,-741,0,0,0,0,0,0,0,0,0,-1,1896,1765,0,0
679,-741,0,0,0,0,0,0,0,0,0,-1,1903,1765,0,0
686,-741,0,0,0,0,0,0,0,0,0,-1,1910,1765,0,0
693,-741,0,0,0,0,0,0,0,0,0,-1,1917,1765,0,0
700,-741,0,0,0,0,0,0,0,0,0,-1,1924,1765,0,0
707,-741,0,0,0,0,0,0,0,0,0,-1,1931,1765,0,0
714,-741,0,0,0,0,0,0,0,0,0,-1,1938,1765,0,0
721,-741,0,0,0,0,0,0,0,0,0,-1,1945,1765,0,0
728,-741,0,0,0,0,0,0,0,0,0,-1,1952,1765,0,0
735,-741,0,0,0,0,0,0,0,0,0,-1,1959,1765,0,0
742,-741,0,0,0,0,0,0,0,0,0,-1,1966,1765,0,0
749,-741,0,0,0,0,0,0,0,0,0,-1,1973,1765,0,0
756,-741,0,0,0,0,0,0,0,0,0,-1,1980,1765,0,0
763,-741,0,0,0,0,0,0,0,0,0,-1,1987,1765,0,0
770,-741,0,0,0,0,0,0,0,0,0,-1,1994,1765,0,0
777,-741,0,0,0,0,0,0,0,0,0,-1,2001,1765,0,0
784,-741,0,0,0,0,0,0,0,0,0,-1,2008,1765,0,0
791,-741,0,0,0,0,0,0,0,0,0,-1,2015,1765,0,0
798,-741,0,0,0,0,0,0,0,0,0,-1,2022,1765,0,0
805,-741,0,0,0,0,0,0,0,0,0,-1,2029,1765,0,0
812,-741,0,0,0,0,0,0,0,0,0,-1,2036,1765,0,0
-700,-748,0,0,0,0,0,0,0,0,0,-1,524,1772,0,0
-693,-748,0,0,0,0,0,0,0,0,0,-1,531,1772,0,0
-686,-748,0,0,0,0,0,0,0,0,0,-1,538,1772,0,0
-679,-748,0,0,0,0,0,0,0,0,0,-1,545,1772,0,0
-672,-748,0,0,0,0,0,0,0,0,0,-1,552,1772,0,0
-665,-748,0,0,0,0,0,0,0,0,0,-1,559,1772,0,0
-658,-748,0,0,0,0,0,0,0,0,0,-1,566,1772,0,0
-651,-748,0,0,0,0,0,0,0,0,0,-1,573,1772,0,0
-644,-748,0,0,0,0,0,0,0,0,0,-1,580,1772,0,0
-637,-748,0,0,0,0,0,0,0,0,0,-1,587,1772,0,0
-630,-748,0,0,0,0,0,0,0,0,0,-1,594,1772,0,0
-623,-748,0,0,0,0,0,0,0,0,0,-1,601,1772,0,0
-616,-748,0,0,0,0,0,0,0,0,0,-1,608,1772,0,0
-609,-748,0,0,0,0,0,0,0,0,0,-1,615,1772,0,0
-602,-748,0,0,0,0,0,0,0,0,0,-1,622,1772,0,0
-595,-748,0,0,0,0,0,0,0,0,0,-1,629,1772,0,0
-588,-748,0,0,0,0,0,0,0,0,0,-1,636,1772,0,0
-581,-748,0,0,0,0,0,0,0,0,0,-1,643,1772,0,0
-574,-748,0,0,0,0,0,0,0,0,0,-1,650,1772,0,0
-567,-748,0,0,0,0,0,0,0,0,0,-1,657,1772,0,0
-560,-748,0,0,0,0,0,0,0,0,0,-1,664,1772,0,0
-553,-748,0,0,0,0,0,0,0,0,0,-1,671,1772,0,0
-546,-748,0,0,0,0,0,0,0,0,0,-1,678,1772,0,0
-539,-748,0,0,0,0,0,0,0,0,0,-1,685,1772,0,0
-532,-748,0,0,0,0,0,0,0,0,0,-1,692,1772,0,0
-525,-748,0,0,0,0,0,0,0,0,0,-1,699,1772,0,0
-518,-748,0,0,0,0,0,0,0,0,0,-1,706,1772,0,0
-511,-748,0,0,0,0,0,0,0,0,0,-1,713,1772,0,0
-504,-748,0,0,0,0,0,0,0,0,0,-1,720,1772,0,0
-497,-748,0,0,0,0,0,0,0,0,0,-1,727,1772,0,0
-490,-748,0,0,0,0,0,0,0,0,0,-1,734,1772,0,0
-483,-748,0,0,0,0,0,0,0,0,0,-1,741,1772,0,0
-476,-748,0,0,0,0,0,0,0,0,0,-1,748,1772,0,0
-469,-748,0,0,0,0,0,0,0,0,0,-1,755,1772,0,0
-462,-748,0,0,0,0,0,0,0,0,0,-1,762,1772,0,0
-455,-748,0,0,0,0,0,0,0,0,0,-1,769,1772,0,0
-448,-748,0,0,0,0,0,0,0,0,0,-1,776,1772,0,0
-441,-748,0,0,0,0,0,0,0,0,0,-1,783,1772,0,0
-434,-748,0,0,0,0,0,0,0,0,0,-1,790,1772,0,0
-427,-748,0,0,0,0,0,0,0,0,0,-1,797,1772,0,0
-420,-748,0,0,0,0,0,0,0,0,0,-1,804,1772,0,0
-413,-748,0,0,0,0,0,0,0,0,0,-1,811,1772,0,0
-406,-748,0,0,0,0,0,0,0,0,0,-1,818,1772,0,0
-399,-748,0,0,0,0,0,0,0,0,0,-1,825,1772,0,0
-392,-748,0,0,0,0,0,0,0,0,0,-1,832,1772,0,0
-385,-748,0,0,0,0,0,0,0,0,0,-1,839,1772,0,0
-378,-748,0,0,0,0,0,0,0,0,0,-1,846,1772,0,0
-371,-748,0,0,0,0,0,0,0,0,0,-1,853,1772,0,0
-364,-748,0,0,0,0,0,0,0,0,0,-1,860,1772,0,0
-357,-748,0,0,0,0,0,0,0,0,0,-1,867,1772,0,0
-350,-748,0,0,0,0,0,0,0,0,0,-1,874,1772,0,0
-343,-748,0,0,0,0,0,0,0,0,0,-1,881,1772,0,0
-336,-748,0,0,0,0,0,0,0,0,0,-1,888,1772,0,0
-329,-748,0,0,0,0,0,0,0,0,0,-1,895,1772,0,0
-322,-748,0,0,0,0,0,0,0,0,0,-1,902,1772,0,0
-315,-748,0,0,0,0,0,0,0,0,0,-1,909,1772,0,0
-308,-748,0,0,0,0,0,0,0,0,0,-1,916,1772,0,0
-301,-748,0,0,0,0,0,0,0,0,0,-1,923,1772,0,0
-294,-748,0,0,0,0,0,0,0,0,0,-1,930,1772,0,0
-287,-748,0,0,0,0,0,0,0,0,0,-1,937,1772,0,0
-280,-748,0,0,0,0,0,0,0,0,0,-1,944,1772,0,0
-273,-748,0,0,0,0,0,0,0,0,0,-1,951,1772,0,0
-266,-748,0,0,0,0,0,0,0,0,0,-1,958,1772,0,0
-259,-748,0,0,0,0,0,0,0,0,0,-1,965,1772,0,0
-252,-748,0,0,0,0,0,0,0,0,0,-1,972,1772,0,0
-245,-748,0,0,0,0,0,0,0,0,0,-1,979,1772,0,0
-238,-748,0,0,0,0,0,0,0,0,0,-1,986,1772,0,0
-231,-748,0,0,0,0,0,0,0,0,0,-1,993,1772,0,0
-224,-748,0,0,0,0,0,0,0,0,0,-1,1000,1772,0,0
-217,-748,6.0882,15.7745,0,0,0,0,0,0,0,-1,1007,1772,6.08817,-15.7745
-210,-748,6.56482,15.8542,0,0,0,0,0,0,0,-1,1014,1772,6.56483,-15.8542
-203,-748,7.08105,16.2065,0,0,0,0,0,0,0,-1,1021,1772,7.0811,-16.2065
-196,-748,-1.09497,13.6892,0,0,0,0,0,0,0,-1,1028,1772,-1.09499,-13.6892
-189,-748,7.35205,17.4255,0,0,0,0,0,0,0,-1,1035,1772,7.35202,-17.4255
-182,-748,6.62622,16.2686,0,0,0,0,0,0,0,-1,1042,1772,6.6262,-16.2685
-175,-748,5.27954,14.9248,0,0,0,0,0,0,0,-1,1049,1772,5.27955,-14.9248
-168,-748,4.27917,14.0815,0,0,0,0,0,0,0,-1,1056,1772,4.27923,-14.0815
-161,-748,3.50562,13.2729,0,0,0,0,0,0,0,-1,1063,1772,3.5056,-13.2729
-154,-748,-3.38562,10.6989,0,0,0,0,0,0,0,-1,1070,1772,-3.38564,-10.6989
-147,-748,-4.87122,10.7748,0,0,0,0,0,0,0,-1,1077,1772,-4.87117,-10.7748
-140,-748,5.61768,19.319,0,0,0,0,0,0,0,-1,1084,1772,5.6177,-19.319
-133,-748,6.67126,16.2961,0,0,0,0,0,0,0,-1,1091,1772,6.67131,-16.2961
-126,-748,5.95789,15.8595,0,0,0,0,0,0,0,-1,1098,1772,5.95793,-15.8595
-119,-748,5.48193,17.0134,0,0,0,0,0,0,0,-1,1105,1772,5.48197,-17.0134
-112,-748,4.93896,17.1731,0,0,0,0,0,0,0,-1,1112,1772,4.93893,-17.1731
-105,-748,5.37903,16.9911,0,0,0,0,0,0,0,-1,1119,1772,5.37909,-16.9911
-98,-748,5.3446,17.0315,0,0,0,0,0,0,0,-1,1126,1772,5.3446,-17.0315
-91,-748,4.85352,15.3033,0,0,0,0,0,0,0,-1,1133,1772,4.85351,-15.3033
-84,-748,-0.192017,7.26196,0,0,0,0,0,0,0,-1,1140,1772,-0.192047,-7.26201
-77,-748,4.42615,13.5537,0,0,0,0,0,0,0,-1,1147,1772,4.4261,-13.5538
-70,-748,4.46191,13.7446,0,0,0,0,0,0,0,-1,1154,1772,4.4619,-13.7446
-63,-748,4.49768,13.9355,0,0,0,0,0,0,0,-1,1161,1772,4.49769,-13.9355
-56,-748,3.05762,7.87817,0,0,0,0,0,0,0,-1,1168,1772,3.05768,-7.87822
-49,-748,3.04102,7.82471,0,0,0,0,0,0,0,-1,1175,1772,3.04096,-7.82468
-42,-748,0.793457,14.9474,0,0,0,0,0,0,0,-1,1182,1772,0.793413,-14.9474
-35,-748,5.10901,17.9617,0,0,0,0,0,0,0,-1,1189,1772,5.10898,-17.9617
-28,-748,5.16016,18.031,0.00172184,0.00309361,-0.00133464,0.00390829,0.000907158,-1.02276,0.00236194,0.0486969,1196,1772,5.16011,-18.031
-21,-748,5.17932,18.0657,0.00102976,0.00279662,-0.00114231,0.00335726,0.000469121,-1.11454,0.00209934,0.0234056,1203,1772,5.17935,-18.0657
-14,-748,5.14343,18.0536,0.000240344,0.00228862,-0.000784616,0.00255463,-2.56667e-05,-1.24393,0.0017117,0.0164609,1210,1772,5.14348,-18.0535
-7,-748,5.1311,18.1067,-0.000521985,0.00157376,-0.000468827,0.00167385,-0.000622083,-1.36045,0.00137114,0.0168039,1217,1772,5.13115,-18.1067
0,-748,5.12122,18.1646,-0.0011772,0.000751698,-0.000154642,0.000764018,-0.00118952,-1.4913,0.00113676,0.0173139,1224,1772,5.12116,-18.1646
7,-748,5.09692,18.1909,-0.00187519,-4.64654e-05,7.524e-05,-4.3375e-05,-0.00187828,1.52975,0.00123798,0.015839,1231,1772,5.09688,-18.1909
14,-748,5.0791,18.2407,-0.00178192,0.000234637,0.00110996,0.000725906,-0.00227319,1.15411,0.00180671,0.015117,1238,1772,5.0791,-18.2408
21,-748,5.0675,18.3049,-0.00157074,-6.81404e-06,0.00179164,0.00116607,-0.00274363,0.991163,0.00231771,0.0111313,1245,1772,5.06754,-18.3049
28,-748,5.06152,18.3447,-0.00117397,5.2457e-05,0.00250814,0.00202126,-0.00314277,0.905291,0.0030048,0.0109046,1252,1772,5.06148,-18.3447
35,-748,5.05835,18.3717,-0.000428767,0.000354828,0.00314407,0.00313142,-0.00320536,0.847386,0.00365863,0.0113848,1259,1772,5.05837,-18.3717
42,-748,5.06018,18.3832,0.000272088,0.000348628,0.00374472,0.00405527,-0.00343456,0.790508,0.0043292,0.0134556,1266,1772,5.06018,-18.3832
49,-748,5.03467,18.3822,0.00085856,0.000327546,0.00415083,0.00475237,-0.00356626,0.753459,0.00481901,0.0108526,1273,1772,5.03467,-18.3822
56,-748,5.00269,18.418,0.000838543,0.000349292,0.00445198,0.00505262,-0.00386478,0.757952,0.00516367,0.0104049,1280,1772,5.00272,-18.418
63,-748,5.01111,18.4258,0.000894425,0.00019387,0.00471048,0.00526764,-0.00417934,0.748286,0.00546627,0.0118773,1287,1772,5.01107,-18.4257
70,-748,5.0199,18.4221,0.000933428,-0.000165112,0.00475831,0.00517406,-0.00440575,0.727936,0.00553683,0.0133854,1294,1772,5.01988,-18.4221
77,-748,5.01172,18.4316,0.000561205,-0.000541233,0.00454422,0.00458751,-0.00456754,0.725042,0.00528568,0.0121348,1301,1772,5.01176,-18.4317
84,-748,4.96448,18.4536,-7.2005e-05,-0.00122997,0.0041654,0.00355446,-0.00485643,0.716342,0.00487538,0.0134807,1308,1772,4.96446,-18.4536
91,-748,4.95667,18.467,-0.000985608,-0.00188939,0.00367095,0.00226116,-0.00513615,0.724157,0.00437704,0.0112683,1315,1772,4.95661,-18.4671
98,-748,4.94836,18.4474,-0.00208496,-0.00229911,0.00315673,0.000966504,-0.00535058,0.768445,0.00392905,0.0106025,1322,1772,4.94838,-18.4474
105,-748,4.94592,18.3918,-0.00329481,-0.00257886,0.00269048,-0.000222641,-0.00565102,0.851536,0.00369537,0.0125158,1329,1772,4.94596,-18.3918
112,-748,4.96887,18.3844,-0.00421005,-0.00267318,0.00231194,-0.00100531,-0.00587792,0.945842,0.00363021,0.0149608,1336,1772,4.96884,-18.3844
119,-748,4.95483,18.3817,-0.00537327,-0.00323065,0.00133982,-0.00258649,-0.00601742,1.12265,0.00348554,0.0122944,1343,1772,4.95487,-18.3817
126,-748,4.9458,18.3756,-0.00587458,-0.00251629,0.00102653,-0.00222737,-0.0061635,1.29644,0.0036038,0.0136129,1350,1772,4.94582,-18.3756
133,-748,4.90955,18.3329,-0.00597429,-0.00185907,0.000703435,-0.00174215,-0.00609121,1.40609,0.00362253,0.00866728,1357,1772,4.90959,-18.3329
140,-748,4.90002,18.303,-0.0060162,-0.00129861,0.000429866,-0.00125977,-0.00605505,1.48067,0.00368919,0.0119875,1364,1772,4.90006,-18.303
147,-748,4.9093,18.2733,-0.00563093,-0.000484634,0.000200605,-0.000476826,-0.00563874,1.53189,0.00361073,0.0127789,1371,1772,4.90933,-18.2734
154,-748,4.88928,18.244,-0.00508834,0.000197444,-1.7601e-05,0.000197503,-0.0050884,-1.56747,0.00345998,0.0111613,1378,1772,4.88933,-18.244
161,-748,4.88196,18.2167,-0.00428848,0.000775053,-0.000399178,0.000806329,-0.00431976,-1.49261,0.00318285,0.0185261,1385,1772,4.88192,-18.2167
168,-748,4.89514,18.2018,0,0,0,0,0,0,0,-1,1392,1772,4.89518,-18.2018
175,-748,11.6235,16.8242,0,0,0,0,0,0,0,-1,1399,1772,11.6236,-16.8242
182,-748,7.62476,10.3058,0,0,0,0,0,0,0,-1,1406,1772,7.62476,-10.3058
189,-748,6.15857,6.95898,0,0,0,0,0,0,0,-1,1413,1772,6.15862,-6.95896
196,-748,3.9425,8.46021,0,0,0,0,0,0,0,-1,1420,1772,3.9425,-8.46026
203,-748,3.9668,12.9835,0,0,0,0,0,0,0,-1,1427,1772,3.96678,-12.9836
210,-748,4.71472,16.8318,0,0,0,0,0,0,0,-1,1434,1772,4.71471,-16.8317
217,-748,4.85754,17.4752,0,0,0,0,0,0,0,-1,1441,1772,4.85751,-17.4753
224,-748,4.92615,17.3462,-0.0101615,0.0107953,6.01867e-05,0.0107954,-0.0101617,1.56792,0.0121014,0.0455857,1448,1772,4.92612,-17.3461
231,-748,4.83777,17.2406,-0.0107888,0.0109764,0.000483979,0.0109872,-0.0107995,1.54857,0.0125787,0.043299,1455,1772,4.83777,-17.2406
238,-748,4.50732,17.4327,-0.0109965,0.0107196,0.000863309,0.0107539,-0.0110308,1.53113,0.0125777,0.0485679,1462,1772,4.50735,-17.4328
245,-748,4.48718,17.0807,0,0,0,0,0,0,0,-1,1469,1772,4.4872,-17.0807
252,-748,4.38489,15.1183,0,0,0,0,0,0,0,-1,1476,1772,4.38484,-15.1183
259,-748,4.37708,14.7086,0,0,0,0,0,0,0,-1,1483,1772,4.37712,-14.7086
266,-748,17.9011,7.59448,0,0,0,0,0,0,0,-1,1490,1772,17.9011,-7.59452
273,-748,16.4131,7.57129,0,0,0,0,0,0,0,-1,1497,1772,16.413,-7.57125
280,-748,15.2177,7.24829,0,0,0,0,0,0,0,-1,1504,1772,15.2176,-7.24833
287,-748,13.697,6.93396,0,0,0,0,0,0,0,-1,1511,1772,13.697,-6.93401
294,-748,11.8735,6.83142,0,0,0,0,0,0,0,-1,1518,1772,11.8735,-6.83142
301,-748,10.1475,7.08789,0,0,0,0,0,0,0,-1,1525,1772,10.1474,-7.08787
308,-748,8.37451,7.6344,0,0,0,0,0,0,0,-1,1532,1772,8.37447,-7.63443
315,-748,6.65149,8.06299,0,0,0,0,0,0,0,-1,1539,1772,6.65144,-8.063
322,-748,2.9469,13.4518,0,0,0,0,0,0,0,-1,1546,1772,2.94694,-13.4518
329,-748,3.48315,14.6533,0,0,0,0,0,0,0,-1,1553,1772,3.48316,-14.6534
336,-748,3.76001,15.8163,0,0,0,0,0,0,0,-1,1560,1772,3.75995,-15.8163
343,-748,0,0,0,0,0,0,0,0,0,-1,1567,1772,0,0
350,-748,0,0,0,0,0,0,0,0,0,-1,1574,1772,0,0
357,-748,0,0,0,0,0,0,0,0,0,-1,1581,1772,0,0
364,-748,0,0,0,0,0,0,0,0,0,-1,1588,1772,0,0
371,-748,0,0,0,0,0,0,0,0,0,-1,1595,1772,0,0
378,-748,0,0,0,0,0,0,0,0,0,-1,1602,1772,0,0
385,-748,0,0,0,0,0,0,0,0,0,-1,1609,1772,0,0
392,-748,0,0,0,0,0,0,0,0,0,-1,1616,1772,0,0
399,-748,0,0,0,0,0,0,0,0,0,-1,1623,1772,0,0
406,-748,0,0,0,0,0,0,0,0,0,-1,1630,1772,0,0
413,-748,0,0,0,0,0,0,0,0,0,-1,1637,1772,0,0
420,-748,0,0,0,0,0,0,0,0,0,-1,1644,1772,0,0
427,-748,0,0,0,0,0,0,0,0,0,-1,1651,1772,0,0
434,-748,0,0,0,0,0,0,0,0,0,-1,1658,1772,0,0
441,-748,0,0,0,0,0,0,0,0,0,-1,1665,1772,0,0
448,-748,0,0,0,0,0,0,0,0,0,-1,1672,1772,0,0
455,-748,0,0,0,0,0,0,0,0,0,-1,1679,1772,0,0
462,-748,0,0,0,0,0,0,0,0,0,-1,1686,1772,0,0
469,-748,0,0,0,0,0,0,0,0,0,-1,1693,1772,0,0
476,-748,0,0,0,0,0,0,0,0,0,-1,1700,1772,0,0
483,-748,0,0,0,0,0,0,0,0,0,-1,1707,1772,0,0
490,-748,0,0,0,0,0,0,0,0,0,-1,1714,1772,0,0
497,-748,0,0,0,0,0,0,0,0,0,-1,1721,1772,0,0
504,-748,0,0,0,0,0,0,0,0,0,-1,1728,1772,0,0
511,-748,0,0,0,0,0,0,0,0,0,-1,1735,1772,0,0
518,-748,0,0,0,0,0,0,0,0,0,-1,1742,1772,0,0
525,-748,0,0,0,0,0,0,0,0,0,-1,1749,1772,0,0
532,-748,0,0,0,0,0,0,0,0,0,-1,1756,1772,0,0
539,-748,0,0,0,0,0,0,0,0,0,-1,1763,1772,0,0
546,-748,0,0,0,0,0,0,0,0,0,-1,1770,1772,0,0
553,-748,0,0,0,0,0,0,0,0,0,-1,1777,1772,0,0
560,-748,0,0,0,0,0,0,0,0,0,-1,1784,1772,0,0
567,-748,0,0,0,0,0,0,0,0,0,-1,1791,1772,0,0
574,-748,0,0,0,0,0,0,0,0,0,-1,1798,1772,0,0
581,-748,0,0,0,0,0,0,0,0,0,-1,1805,1772,0,0
588,-748,0,0,0,0,0,0,0,0,0,-1,1812,1772,0,0
595,-748,0,0,0,0,0,0,0,0,0,-1,1819,1772,0,0
602,-748,0,0,0,0,0,0,0,0,0,-1,1826,1772,0,0
609,-748,0,0,0,0,0,0,0,0,0,-1,1833,1772,0,0
616,-748,0,0,0,0,0,0,0,0,0,-1,1840,1772,0,0
623,-748,0,0,0,0,0,0,0,0,0,-1,1847,1772,0,0
630,-748,0,0,0,0,0,0,0,0,0,-1,1854,1772,0,0
637,-748,0,0,0,0,0,0,0,0,0,-1,1861,1772,0,0
644,-748,0,0,0,0,0,0,0,0,0,-1,1868,1772,0,0
651,-748,0,0,0,0,0,0,0,0,0,-1,1875,1772,0,0
658,-748,0,0,0,0,0,0,0,0,0,-1,1882,1772,0,0
665,-748,0,0,0,0,0,0,0,0,0,-1,1889,1772,0,0
672,-748,0,0,0,0,0,0,0,0,0,-1,1896,1772,0,0
679,-748,0,0,0,0,0,0,0,0,0,-1,1903,1772,0,0
686,-748,0,0,0,0,0,0,0,0,0,-1,1910,1772,0,0
693,-748,0,0,0,0,0,0,0,0,0,-1,1917,1772,0,0
700,-748,0,0,0,0,0,0,0,0,0,-1,1924,1772,0,0
707,-748,0,0,0,0,0,0,0,0,0,-1,1931,1772,0,0
714,-748,0,0,0,0,0,0,0,0,0,-1,1938,1772,0,0
721,-748,0,0,0,0,0,0,0,0,0,-1,1945,1772,0,0
728,-748,0,0,0,0,0,0,0,0,0,-1,1952,1772,0,0
735,-748,0,0,0,0,0,0,0,0,0,-1,1959,1772,0,0
742,-748,0,0,0,0,0,0,0,0,0,-1,1966,1772,0,0
749,-748,0,0,0,0,0,0,0,0,0,-1,1973,1772,0,0
756,-748,0,0,0,0,0,0,0,0,0,-1,1980,1772,0,0
763,-748,0,0,0,0,0,0,0,0,0,-1,1987,1772,0,0
770,-748,0,0,0,0,0,0,0,0,0,-1,1994,1772,0,0
777,-748,0,0,0,0,0,0,0,0,0,-1,2001,1772,0,0
784,-748,0,0,0,0,0,0,0,0,0,-1,2008,1772,0,0
791,-748,0,0,0,0,0,0,0,0,0,-1,2015,1772,0,0
798,-748,0,0,0,0,0,0,0,0,0,-1,2022,1772,0,0
805,-748,0,0,0,0,0,0,0,0,0,-1,2029,1772,0,0
812,-748,0,0,0,0,0,0,0,0,0,-1,2036,1772,0,0
-700,-755,0,0,0,0,0,0,0,0,0,-1,524,1779,0,0
-693,-755,0,0,0,0,0,0,0,0,0,-1,531,1779,0,0
-686,-755,0,0,0,0,0,0,0,0,0,-1,538,1779,0,0
-679,-755,0,0,0,0,0,0,0,0,0,-1,545,1779,0,0
-672,-755,0,0,0,0,0,0,0,0,0,-1,552,1779,0,0
-665,-755,0,0,0,0,0,0,0,0,0,-1,559,1779,0,0
-658,-755,0,0,0,0,0,0,0,0,0,-1,566,1779,0,0
-651,-755,0,0,0,0,0,0,0,0,0,-1,573,1779,0,0
-644,-755,0,0,0,0,0,0,0,0,0,-1,580,1779,0,0
-637,-755,0,0,0,0,0,0,0,0,0,-1,587,1779,0,0
-630,-755,0,0,0,0,0,0,0,0,0,-1,594,1779,0,0
-623,-755,0,0,0,0,0,0,0,0,0,-1,601,1779,0,0
-616,-755,0,0,0,0,0,0,0,0,0,-1,608,1779,0,0
-609,-755,0,0,0,0,0,0,0,0,0,-1,615,1779,0,0
-602,-755,0,0,0,0,0,0,0,0,0,-1,622,1779,0,0
-595,-755,0,0,0,0,0,0,0,0,0,-1,629,1779,0,0
-588,-755,0,0,0,0,0,0,0,0,0,-1,636,1779,0,0
-581,-755,0,0,0,0,0,0,0,0,0,-1,643,1779,0,0
-574,-755,0,0,0,0,0,0,0,0,0,-1,650,1779,0,0
-567,-755,0,0,0,0,0,0,0,0,0,-1,657,1779,0,0
-560,-755,0,0,0,0,0,0,0,0,0,-1,664,1779,0,0
-553,-755,0,0,0,0,0,0,0,0,0,-1,671,1779,0,0
-546,-755,0,0,0,0,0,0,0,0,0,-1,678,1779,0,0
-539,-755,0,0,0,0,0,0,0,0,0,-1,685,1779,0,0
-532,-755,0,0,0,0,0,0,0,0,0,-1,692,1779,0,0
-525,-755,0,0,0,0,0,0,0,0,0,-1,699,1779,0,0
-518,-755,0,0,0,0,0,0,0,0,0,-1,706,1779,0,0
-511,-755,0,0,0,0,0,0,0,0,0,-1,713,1779,0,0
-504,-755,0,0,0,0,0,0,0,0,0,-1,720,1779,0,0
-497,-755,0,0,0,0,0,0,0,0,0,-1,727,1779,0,0
-490,-755,0,0,0,0,0,0,0,0,0,-1,734,1779,0,0
-483,-755,0,0,0,0,0,0,0,0,0,-1,741,1779,0,0
-476,-755,0,0,0,0,0,0,0,0,0,-1,748,1779,0,0
-469,-755,0,0,0,0,0,0,0,0,0,-1,755,1779,0,0
-462,-755,0,0,0,0,0,0,0,0,0,-1,762,1779,0,0
-455,-755,0,0,0,0,0,0,0,0,0,-1,769,1779,0,0
-448,-755,0,0,0,0,0,0,0,0,0,-1,776,1779,0,0
-441,-755,0,0,0,0,0,0,0,0,0,-1,783,1779,0,0
-434,-755,0,0,0,0,0,0,0,0,0,-1,790,1779,0,0
-427,-755,0,0,0,0,0,0,0,0,0,-1,797,1779,0,0
-420,-755,0,0,0,0,0,0,0,0,0,-1,804,1779,0,0
-413,-755,0,0,0,0,0,0,0,0,0,-1,811,1779,0,0
-406,-755,0,0,0,0,0,0,0,0,0,-1,818,1779,0,0
-399,-755,0,0,0,0,0,0,0,0,0,-1,825,1779,0,0
-392,-755,0,0,0,0,0,0,0,0,0,-1,832,1779,0,0
-385,-755,0,0,0,0,0,0,0,0,0,-1,839,1779,0,0
-378,-755,0,0,0,0,0,0,0,0,0,-1,846,1779,0,0
-371,-755,0,0,0,0,0,0,0,0,0,-1,853,1779,0,0
-364,-755,0,0,0,0,0,0,0,0,0,-1,860,1779,0,0
-357,-755,0,0,0,0,0,0,0,0,0,-1,867,1779,0,0
-350,-755,0,0,0,0,0,0,0,0,0,-1,874,1779,0,0
-343,-755,0,0,0,0,0,0,0,0,0,-1,881,1779,0,0
-336,-755,0,0,0,0,0,0,0,0,0,-1,888,1779,0,0
-329,-755,0,0,0,0,0,0,0,0,0,-1,895,1779,0,0
-322,-755,0,0,0,0,0,0,0,0,0,-1,902,1779,0,0
-315,-755,0,0,0,0,0,0,0,0,0,-1,909,1779,0,0
-308,-755,0,0,0,0,0,0,0,0,0,-1,916,1779,0,0
-301,-755,0,0,0,0,0,0,0,0,0,-1,923,1779,0,0
-294,-755,0,0,0,0,0,0,0,0,0,-1,930,1779,0,0
-287,-755,0,0,0,0,0,0,0,0,0,-1,937,1779,0,0
-280,-755,0,0,0,0,0,0,0,0,0,-1,944,1779,0,0
-273,-755,0,0,0,0,0,0,0,0,0,-1,951,1779,0,0
-266,-755,0,0,0,0,0,0,0,0,0,-1,958,1779,0,0
-259,-755,0,0,0,0,0,0,0,0,0,-1,965,1779,0,0
-252,-755,0,0,0,0,0,0,0,0,0,-1,972,1779,0,0
-245,-755,0,0,0,0,0,0,0,0,0,-1,979,1779,0,0
-238,-755,0,0,0,0,0,0,0,0,0,-1,986,1779,0,0
-231,-755,0,0,0,0,0,0,0,0,0,-1,993,1779,0,0
-224,-755,0,0,0,0,0,0,0,0,0,-1,1000,1779,0,0
-217,-755,0,0,0,0,0,0,0,0,0,-1,1007,1779,0,0
-210,-755,0,0,0,0,0,0,0,0,0,-1,1014,1779,0,0
-203,-755,-3.07153,13.8969,0,0,0,0,0,0,0,-1,1021,1779,-3.07152,-13.8969
-196,-755,4.91333,14.9064,0,0,0,0,0,0,0,-1,1028,1779,4.91327,-14.9063
-189,-755,4.85864,12.9271,0,0,0,0,0,0,0,-1,1035,1779,4.85866,-12.9272
-182,-755,0.733154,13.2736,0,0,0,0,0,0,0,-1,1042,1779,0.733112,-13.2735
-175,-755,5.40198,14.8074,0,0,0,0,0,0,0,-1,1049,1779,5.40199,-14.8074
-168,-755,4.5177,13.7404,0,0,0,0,0,0,0,-1,1056,1779,4.5177,-13.7403
-161,-755,-2.85889,11.5868,0,0,0,0,0,0,0,-1,1063,1779,-2.85887,-11.5868
-154,-755,-3.83704,10.8331,0,0,0,0,0,0,0,-1,1070,1779,-3.83702,-10.8332
-147,-755,-5.40332,10.7094,0,0,0,0,0,0,0,-1,1077,1779,-5.40328,-10.7094
-140,-755,3.29346,10.2112,0,0,0,0,0,0,0,-1,1084,1779,3.2935,-10.2112
-133,-755,6.99927,16.2019,0,0,0,0,0,0,0,-1,1091,1779,6.99927,-16.2018
-126,-755,6.35095,15.2462,0,0,0,0,0,0,0,-1,1098,1779,6.35094,-15.2462
-119,-755,6.20374,16.9153,0,0,0,0,0,0,0,-1,1105,1779,6.20372,-16.9152
-112,-755,4.57446,17.6881,0,0,0,0,0,0,0,-1,1112,1779,4.5745,-17.6881
-105,-755,4.62231,16.931,0,0,0,0,0,0,0,-1,1119,1779,4.6223,-16.9311
-98,-755,4.26819,14.9769,0,0,0,0,0,0,0,-1,1126,1779,4.26815,-14.9769
-91,-755,3.91394,13.0228,0,0,0,0,0,0,0,-1,1133,1779,3.91399,-13.0228
-84,-755,0.169312,8.66443,0,0,0,0,0,0,0,-1,1140,1779,0.16932,-8.66446
-77,-755,-0.0491943,6.87439,0,0,0,0,0,0,0,-1,1147,1779,-0.0491385,-6.87443
-70,-755,4.5686,13.2169,0,0,0,0,0,0,0,-1,1154,1779,4.56865,-13.2169
-63,-755,-1.36316,7.3147,0,0,0,0,0,0,0,-1,1161,1779,-1.36312,-7.31473
-56,-755,0.0483398,5.06079,0,0,0,0,0,0,0,-1,1168,1779,0.0483138,-5.06084
-49,-755,-1.32263,5.33716,0,0,0,0,0,0,0,-1,1175,1779,-1.32264,-5.33718
-42,-755,-2.03613,4.01672,0,0,0,0,0,0,0,-1,1182,1779,-2.0361,-4.01671
-35,-755,-2.72498,2.37476,0,0,0,0,0,0,0,-1,1189,1779,-2.72502,-2.37473
-28,-755,5.099,18.1147,0,0,0,0,0,0,0,-1,1196,1779,5.09902,-18.1147
-21,-755,5.1554,18.1508,0,0,0,0,0,0,0,-1,1203,1779,5.15542,-18.1507
-14,-755,5.20337,18.0116,0.000907857,0.00331071,-0.000628209,0.00346504,0.000753528,-1.3299,0.00210431,0.0337058,1210,1779,5.2034,-18.0116
-7,-755,5.12122,18.0735,-0.000399373,0.00246131,-0.000165906,0.0024709,-0.000408963,-1.51306,0.00179915,0.0248556,1217,1779,5.12125,-18.0734
0,-755,5.15247,18.1476,-0.00156389,0.00149052,0.000282369,0.00151641,-0.00158977,1.47938,0.00179352,0.0152693,1224,1779,5.15247,-18.1475
7,-755,5.15564,18.2072,-0.00274019,0.000561099,0.00063382,0.000678605,-0.0028577,1.38748,0.00216704,0.0137424,1231,1779,5.15561,-18.2072
14,-755,5.13489,18.2638,-0.00258092,0.00102143,0.00210494,0.00199063,-0.00355013,1.13929,0.00324092,0.0118802,1238,1779,5.13486,-18.2638
21,-755,5.09631,18.2983,-0.00222082,0.000778458,0.00310264,0.00272487,-0.00416723,1.01052,0.0040081,0.0157951,1245,1779,5.09631,-18.2983
28,-755,5.10095,18.3077,-0.00146835,0.000843023,0.00408792,0.00393548,-0.00456081,0.923157,0.00490976,0.017219,1252,1779,5.10092,-18.3078
35,-755,5.10645,18.3776,-0.000150546,0.00126461,0.00488865,0.00549662,-0.00438255,0.857269,0.00571582,0.0162618,1259,1779,5.10645,-18.3776
42,-755,5.07373,18.3827,0.00107129,0.00122134,0.00567464,0.00682145,-0.00452882,0.792008,0.00659749,0.0135899,1266,1779,5.07368,-18.3827
49,-755,5.07397,18.3661,0.00216312,0.00111991,0.00617943,0.00784292,-0.00455989,0.743293,0.00724391,0.00943272,1273,1779,5.07399,-18.3661
56,-755,5.02832,18.4037,0.00244378,0.001035,0.00654435,0.00832154,-0.00484276,0.731788,0.00768836,0.00859472,1280,1779,5.02827,-18.4037
63,-755,5.01819,18.4254,0.00266282,0.000708026,0.00678369,0.00853916,-0.00516832,0.71385,0.00799338,0.00894579,1287,1779,5.01817,-18.4254
70,-755,5.03625,18.4204,0.00273918,0.000108829,0.00674428,0.00829532,-0.00544731,0.689104,0.0079909,0.011309,1294,1779,5.03627,-18.4204
77,-755,5.02087,18.4255,0.00226338,-0.000506529,0.00638131,0.0074083,-0.00565145,0.678539,0.00756276,0.0110498,1301,1779,5.02092,-18.4256
84,-755,5.0127,18.4319,0.0013677,-0.00152074,0.0058208,0.00592078,-0.00607381,0.663797,0.00692526,0.0113199,1308,1779,5.0127,-18.4319
91,-755,5.00134,18.4299,1.72548e-05,-0.00251746,0.00510192,0.00400687,-0.00650707,0.663658,0.00612717,0.0111871,1315,1779,5.00129,-18.4299
98,-755,4.95386,18.4271,-0.00182367,-0.00313522,0.00435977,0.00192937,-0.00688826,0.71075,0.00535249,0.0125155,1322,1779,4.9538,-18.4271
105,-755,4.95874,18.4218,-0.0038884,-0.00356267,0.00368575,-3.61879e-05,-0.00741488,0.807478,0.00493123,0.0174281,1329,1779,4.95872,-18.4218
112,-755,4.99133,18.4049,-0.00555907,-0.00374483,0.00312722,-0.00139582,-0.00790807,0.92656,0.00487386,0.0222505,1336,1779,4.9913,-18.4049
119,-755,4.95398,18.387,-0.00764312,-0.00449729,0.00177721,-0.00369691,-0.0084435,1.14764,0.0048874,0.0198371,1343,1779,4.95393,-18.387
126,-755,4.90173,18.3623,-0.0087097,-0.00355217,0.00136011,-0.00321547,-0.0090464,1.32812,0.0052952,0.0212279,1350,1779,4.90174,-18.3623
133,-755,4.85583,18.3087,-0.00923307,-0.00270228,0.000969431,-0.00256142,-0.00937393,1.4265,0.00559448,0.0215113,1357,1779,4.85586,-18.3087
140,-755,4.87195,18.2762,-0.00965721,-0.00213001,0.000675751,-0.00206982,-0.00971739,1.48197,0.00591039,0.027107,1364,1779,4.872,-18.2763
147,-755,4.89587,18.2445,-0.00918205,-0.00103019,0.000334207,-0.00101651,-0.00919573,1.52989,0.00582131,0.0293152,1371,1779,4.89593,-18.2445
154,-755,4.82324,18.286,-0.00846789,-0.000121302,6.17165e-05,-0.000120846,-0.00846835,1.5634,0.00560572,0.0339331,1378,1779,4.82323,-18.2861
161,-755,4.85547,18.2867,0,0,0,0,0,0,0,-1,1385,1779,4.85553,-18.2868
168,-755,3.98181,7.35901,0,0,0,0,0,0,0,-1,1392,1779,3.98184,-7.35904
175,-755,8.17065,1.34363,0,0,0,0,0,0,0,-1,1399,1779,8.1706,-1.34368
182,-755,8.09216,2.96924,0,0,0,0,0,0,0,-1,1406,1779,8.09213,-2.9693
189,-755,8.04419,4.68042,0,0,0,0,0,0,0,-1,1413,1779,8.04419,-4.68046
196,-755,7.74841,7.4541,0,0,0,0,0,0,0,-1,1420,1779,7.74842,-7.45405
203,-755,4.80554,6.88696,0,0,0,0,0,0,0,-1,1427,1779,4.80554,-6.88697
210,-755,25.1694,7.35693,0,0,0,0,0,0,0,-1,1434,1779,25.1694,-7.35688
217,-755,5.01648,16.411,0,0,0,0,0,0,0,-1,1441,1779,5.01646,-16.411
224,-755,5.03503,17.2559,0,0,0,0,0,0,0,-1,1448,1779,5.035,-17.2559
231,-755,5.03088,17.0979,0,0,0,0,0,0,0,-1,1455,1779,5.03094,-17.0979
238,-755,4.49951,17.3477,0,0,0,0,0,0,0,-1,1462,1779,4.49945,-17.3477
245,-755,3.52185,15.5437,0,0,0,0,0,0,0,-1,1469,1779,3.52183,-15.5437
252,-755,3.99756,13.9052,0,0,0,0,0,0,0,-1,1476,1779,3.99754,-13.9051
259,-755,18.481,8.25134,0,0,0,0,0,0,0,-1,1483,1779,18.4809,-8.25139
266,-755,17.255,7.86096,0,0,0,0,0,0,0,-1,1490,1779,17.255,-7.86092
273,-755,15.7932,7.59778,0,0,0,0,0,0,0,-1,1497,1779,15.7932,-7.59777
280,-755,14.6255,7.34802,0,0,0,0,0,0,0,-1,1504,1779,14.6254,-7.34806
287,-755,13.1736,7.34705,0,0,0,0,0,0,0,-1,1511,1779,13.1736,-7.34709
294,-755,11.4563,7.27002,0,0,0,0,0,0,0,-1,1518,1779,11.4563,-7.26998
301,-755,9.98267,7.87927,0,0,0,0,0,0,0,-1,1525,1779,9.98265,-7.87925
308,-755,8.23889,8.34631,0,0,0,0,0,0,0,-1,1532,1779,8.23889,-8.34626
315,-755,6.46362,8.76587,0,0,0,0,0,0,0,-1,1539,1779,6.46364,-8.76592
322,-755,0,0,0,0,0,0,0,0,0,-1,1546,1779,0,0
329,-755,0,0,0,0,0,0,0,0,0,-1,1553,1779,0,0
336,-755,0,0,0,0,0,0,0,0,0,-1,1560,1779,0,0
343,-755,0,0,0,0,0,0,0,0,0,-1,1567,1779,0,0
350,-755,0,0,0,0,0,0,0,0,0,-1,1574,1779,0,0
357,-755,0,0,0,0,0,0,0,0,0,-1,1581,1779,0,0
364,-755,0,0,0,0,0,0,0,0,0,-1,1588,1779,0,0
371,-755,0,0,0,0,0,0,0,0,0,-1,1595,1779,0,0
378,-755,0,0,0,0,0,0,0,0,0,-1,1602,1779,0,0
385,-755,0,0,0,0,0,0,0,0,0,-1,1609,1779,0,0
392,-755,0,0,0,0,0,0,0,0,0,-1,1616,1779,0,0
399,-755,0,0,0,0,0,0,0,0,0,-1,1623,1779,0,0
406,-755,0,0,0,0,0,0,0,0,0,-1,1630,1779,0,0
413,-755,0,0,0,0,0,0,0,0,0,-1,1637,1779,0,0
420,-755,0,0,0,0,0,0,0,0,0,-1,1644,1779,0,0
427,-755,0,0,0,0,0,0,0,0,0,-1,1651,1779,0,0
434,-755,0,0,0,0,0,0,0,0,0,-1,1658,1779,0,0
441,-755,0,0,0,0,0,0,0,0,0,-1,1665,1779,0,0
448,-755,0,0,0,0,0,0,0,0,0,-1,1672,1779,0,0
455,-755,0,0,0,0,0,0,0,0,0,-1,1679,1779,0,0
462,-755,0,0,0,0,0,0,0,0,0,-1,1686,1779,0,0
469,-755,0,0,0,0,0,0,0,0,0,-1,1693,1779,0,0
476,-755,0,0,0,0,0,0,0,0,0,-1,1700,1779,0,0
483,-755,0,0,0,0,0,0,0,0,0,-1,1707,1779,0,0
490,-755,0,0,0,0,0,0,0,0,0,-1,1714,1779,0,0
497,-755,0,0,0,0,0,0,0,0,0,-1,1721,1779,0,0
504,-755,0,0,0,0,0,0,0,0,0,-1,1728,1779,0,0
511,-755,0,0,0,0,0,0,0,0,0,-1,1735,1779,0,0
518,-755,0,0,0,0,0,0,0,0,0,-1,1742,1779,0,0
525,-755,0,0,0,0,0,0,0,0,0,-1,1749,1779,0,0
532,-755,0,0,0,0,0,0,0,0,0,-1,1756,1779,0,0
539,-755,0,0,0,0,0,0,0,0,0,-1,1763,1779,0,0
546,-755,0,0,0,0,0,0,0,0,0,-1,1770,1779,0,0
553,-755,0,0,0,0,0,0,0,0,0,-1,1777,1779,0,0
560,-755,0,0,0,0,0,0,0,0,0,-1,1784,1779,0,0
567,-755,0,0,0,0,0,0,0,0,0,-1,1791,1779,0,0
574,-755,0,0,0,0,0,0,0,0,0,-1,1798,1779,0,0
581,-755,0,0,0,0,0,0,0,0,0,-1,1805,1779,0,0
588,-755,0,0,0,0,0,0,0,0,0,-1,1812,1779,0,0
595,-755,0,0,0,0,0,0,0,0,0,-1,1819,1779,0,0
602,-755,0,0,0,0,0,0,0,0,0,-1,1826,1779,0,0
609,-755,0,0,0,0,0,0,0,0,0,-1,1833,1779,0,0
616,-755,0,0,0,0,0,0,0,0,0,-1,1840,1779,0,0
623,-755,0,0,0,0,0,0,0,0,0,-1,1847,1779,0,0
630,-755,0,0,0,0,0,0,0,0,0,-1,1854,1779,0,0
637,-755,0,0,0,0,0,0,0,0,0,-1,1861,1779,0,0
644,-755,0,0,0,0,0,0,0,0,0,-1,1868,1779,0,0
651,-755,0,0,0,0,0,0,0,0,0,-1,1875,1779,0,0
658,-755,0,0,0,0,0,0,0,0,0,-1,1882,1779,0,0
665,-755,0,0,0,0,0,0,0,0,0,-1,1889,1779,0,0
672,-755,0,0,0,0,0,0,0,0,0,-1,1896,1779,0,0
679,-755,0,0,0,0,0,0,0,0,0,-1,1903,1779,0,0
686,-755,0,0,0,0,0,0,0,0,0,-1,1910,1779,0,0
693,-755,0,0,0,0,0,0,0,0,0,-1,1917,1779,0,0
700,-755,0,0,0,0,0,0,0,0,0,-1,1924,1779,0,0
707,-755,0,0,0,0,0,0,0,0,0,-1,1931,1779,0,0
714,-755,0,0,0,0,0,0,0,0,0,-1,1938,1779,0,0
721,-755,0,0,0,0,0,0,0,0,0,-1,1945,1779,0,0
728,-755,0,0,0,0,0,0,0,0,0,-1,1952,1779,0,0
735,-755,0,0,0,0,0,0,0,0,0,-1,1959,1779,0,0
742,-755,0,0,0,0,0,0,0,0,0,-1,1966,1779,0,0
749,-755,0,0,0,0,0,0,0,0,0,-1,1973,1779,0,0
756,-755,0,0,0,0,0,0,0,0,0,-1,1980,1779,0,0
763,-755,0,0,0,0,0,0,0,0,0,-1,1987,1779,0,0
770,-755,0,0,0,0,0,0,0,0,0,-1,1994,1779,0,0
777,-755,0,0,0,0,0,0,0,0,0,-1,2001,1779,0,0
784,-755,0,0,0,0,0,0,0,0,0,-1,2008,1779,0,0
791,-755,0,0,0,0,0,0,0,0,0,-1,2015,1779,0,0
798,-755,0,0,0,0,0,0,0,0,0,-1,2022,1779,0,0
805,-755,0,0,0,0,0,0,0,0,0,-1,2029,1779,0,0
812,-755,0,0,0,0,0,0,0,0,0,-1,2036,1779,0,0
-700,-762,0,0,0,0,0,0,0,0,0,-1,524,1786,0,0
-693,-762,0,0,0,0,0,0,0,0,0,-1,531,1786,0,0
-686,-762,0,0,0,0,0,0,0,0,0,-1,538,1786,0,0
-679,-762,0,0,0,0,0,0,0,0,0,-1,545,1786,0,0
-672,-762,0,0,0,0,0,0,0,0,0,-1,552,1786,0,0
-665,-762,0,0,0,0,0,0,0,0,0,-1,559,1786,0,0
-658,-762,0,0,0,0,0,0,0,0,0,-1,566,1786,0,0
-651,-762,0,0,0,0,0,0,0,0,0,-1,573,1786,0,0
-644,-762,0,0,0,0,0,0,0,0,0,-1,580,1786,0,0
-637,-762,0,0,0,0,0,0,0,0,0,-1,587,1786,0,0
-630,-762,0,0,0,0,0,0,0,0,0,-1,594,1786,0,0
-623,-762,0,0,0,0,0,0,0,0,0,-1,601,1786,0,0
-616,-762,0,0,0,0,0,0,0,0,0,-1,608,1786,0,0
-609,-762,0,0,0,0,0,0,0,0,0,-1,615,1786,0,0
-602,-762,0,0,0,0,0,0,0,0,0,-1,622,1786,0,0
-595,-762,0,0,0,0,0,0,0,0,0,-1,629,1786,0,0
-588,-762,0,0,0,0,0,0,0,0,0,-1,636,1786,0,0
-581,-762,0,0,0,0,0,0,0,0,0,-1,643,1786,0,0
-574,-762,0,0,0,0,0,0,0,0,0,-1,650,1786,0,0
-567,-762,0,0,0,0,0,0,0,0,0,-1,657,1786,0,0
-560,-762,0,0,0,0,0,0,0,0,0,-1,664,1786,0,0
-553,-762,0,0,0,0,0,0,0,0,0,-1,671,1786,0,0
-546,-762,0,0,0,0,0,0,0,0,0,-1,678,1786,0,0
-539,-762,0,0,0,0,0,0,0,0,0,-1,685,1786,0,0
-532,-762,0,0,0,0,0,0,0,0,0,-1,692,1786,0,0
-525,-762,0,0,0,0,0,0,0,0,0,-1,699,1786,0,0
-518,-762,0,0,0,0,0,0,0,0,0,-1,706,1786,0,0
-511,-762,0,0,0,0,0,0,0,0,0,-1,713,1786,0,0
-504,-762,0,0,0,0,0,0,0,0,0,-1,720,1786,0,0
-497,-762,0,0,0,0,0,0,0,0,0,-1,727,1786,0,0
-490,-762,0,0,0,0,0,0,0,0,0,-1,734,1786,0,0
-483,-762,0,0,0,0,0,0,0,0,0,-1,741,1786,0,0
-476,-762,0,0,0,0,0,0,0,0,0,-1,748,1786,0,0
-469,-762,0,0,0,0,0,0,0,0,0,-1,755,1786,0,0
-462,-762,0,0,0,0,0,0,0,0,0,-1,762,1786,0,0
-455,-762,0,0,0,0,0,0,0,0,0,-1,769,1786,0,0
-448,-762,0,0,0,0,0,0,0,0,0,-1,776,1786,0,0
-441,-762,0,0,0,0,0,0,0,0,0,-1,783,1786,0,0
-434,-762,0,0,0,0,0,0,0,0,0,-1,790,1786,0,0
-427,-762,0,0,0,0,0,0,0,0,0,-1,797,1786,0,0
-420,-762,0,0,0,0,0,0,0,0,0,-1,804,1786,0,0
-413,-762,0,0,0,0,0,0,0,0,0,-1,811,1786,0,0
-406,-762,0,0,0,0,0,0,0,0,0,-1,818,1786,0,0
-399,-762,0,0,0,0,0,0,0,0,0,-1,825,1786,0,0
-392,-762,0,0,0,0,0,0,0,0,0,-1,832,1786,0,0
-385,-762,0,0,0,0,0,0,0,0,0,-1,839,1786,0,0
-378,-762,0,0,0,0,0,0,0,0,0,-1,846,1786,0,0
-371,-762,0,0,0,0,0,0,0,0,0,-1,853,1786,0,0
-364,-762,0,0,0,0,0,0,0,0,0,-1,860,1786,0,0
-357,-762,0,0,0,0,0,0,0,0,0,-1,867,1786,0,0
-350,-762,0,0,0,0,0,0,0,0,0,-1,874,1786,0,0
-343,-762,0,0,0,0,0,0,0,0,0,-1,881,1786,0,0
-336,-762,0,0,0,0,0,0,0,0,0,-1,888,1786,0,0
-329,-762,0,0,0,0,0,0,0,0,0,-1,895,1786,0,0
-322,-762,0,0,0,0,0,0,0,0,0,-1,902,1786,0,0
-315,-762,0,0,0,0,0,0,0,0,0,-1,909,1786,0,0
-308,-762,0,0,0,0,0,0,0,0,0,-1,916,1786,0,0
-301,-762,0,0,0,0,0,0,0,0,0,-1,923,1786,0,0
-294,-762,0,0,0,0,0,0,0,0,0,-1,930,1786,0,0
-287,-762,0,0,0,0,0,0,0,0,0,-1,937,1786,0,0
-280,-762,0,0,0,0,0,0,0,0,0,-1,944,1786,0,0
-273,-762,0,0,0,0,0,0,0,0,0,-1,951,1786,0,0
-266,-762,0,0,0,0,0,0,0,0,0,-1,958,1786,0,0
-259,-762,0,0,0,0,0,0,0,0,0,-1,965,1786,0,0
-252,-762,0,0,0,0,0,0,0,0,0,-1,972,1786,0,0
-245,-762,0,0,0,0,0,0,0,0,0,-1,979,1786,0,0
-238,-762,0,0,0,0,0,0,0,0,0,-1,986,1786,0,0
-231,-762,0,0,0,0,0,0,0,0,0,-1,993,1786,0,0
-224,-762,0,0,0,0,0,0,0,0,0,-1,1000,1786,0,0
-217,-762,0,0,0,0,0,0,0,0,0,-1,1007,1786,0,0
-210,-762,0,0,0,0,0,0,0,0,0,-1,1014,1786,0,0
-203,-762,0,0,0,0,0,0,0,0,0,-1,1021,1786,0,0
-196,-762,0,0,0,0,0,0,0,0,0,-1,1028,1786,0,0
-189,-762,0,0,0,0,0,0,0,0,0,-1,1035,1786,0,0
-182,-762,4.44226,13.2462,0,0,0,0,0,0,0,-1,1042,1786,4.44227,-13.2462
-175,-762,-1.29956,14.1766,0,0,0,0,0,0,0,-1,1049,1786,-1.29956,-14.1767
-168,-762,-2.08618,13.0768,0,0,0,0,0,0,0,-1,1056,1786,-2.08623,-13.0768
-161,-762,-3.29077,11.9508,0,0,0,0,0,0,0,-1,1063,1786,-3.29076,-11.9508
-154,-762,-4.55823,11.1176,0,0,0,0,0,0,0,-1,1070,1786,-4.55828,-11.1175
-147,-762,-1.09119,4.58313,0,0,0,0,0,0,0,-1,1077,1786,-1.09124,-4.58313
-140,-762,4.99792,5.28589,0,0,0,0,0,0,0,-1,1084,1786,4.99793,-5.28587
-133,-762,3.5116,9.3252,0,0,0,0,0,0,0,-1,1091,1786,3.51165,-9.32522
-126,-762,6.12231,12.5032,0,0,0,0,0,0,0,-1,1098,1786,6.12238,-12.5032
-119,-762,7.31201,16.389,0,0,0,0,0,0,0,-1,1105,1786,7.31207,-16.3891
-112,-762,8.02356,17.0438,0,0,0,0,0,0,0,-1,1112,1786,8.0236,-17.0438
-105,-762,5.10974,17.5901,0,0,0,0,0,0,0,-1,1119,1786,5.10978,-17.5901
-98,-762,4.57495,16.0953,0,0,0,0,0,0,0,-1,1126,1786,4.57496,-16.0954
-91,-762,4.04016,14.6007,0,0,0,0,0,0,0,-1,1133,1786,4.04013,-14.6007
-84,-762,0.415161,10.0322,0,0,0,0,0,0,0,-1,1140,1786,0.415179,-10.0322
-77,-762,0.305054,8.49365,0,0,0,0,0,0,0,-1,1147,1786,0.305008,-8.49362
-70,-762,0.183716,6.74622,0,0,0,0,0,0,0,-1,1154,1786,0.183696,-6.74621
-63,-762,-0.883057,9.08813,0,0,0,0,0,0,0,-1,1161,1786,-0.88311,-9.08808
-56,-762,-0.578979,5.10254,0,0,0,0,0,0,0,-1,1168,1786,-0.578951,-5.10249
-49,-762,-2.04541,3.66321,0,0,0,0,0,0,0,-1,1175,1786,-2.0454,-3.66319
-42,-762,-2.23462,3.474,0,0,0,0,0,0,0,-1,1182,1786,-2.23459,-3.47399
-35,-762,-3.28992,1.68164,0,0,0,0,0,0,0,-1,1189,1786,-3.28998,-1.68164
-28,-762,-3.75378,1.37769,0,0,0,0,0,0,0,-1,1196,1786,-3.75373,-1.37767
-21,-762,5.5957,17.6992,0,0,0,0,0,0,0,-1,1203,1786,5.59566,-17.6992
-14,-762,5.50317,17.7229,0.00232293,0.00490692,-0.000227135,0.00492673,0.00230312,-1.48378,0.00284645,0.0467911,1210,1786,5.50312,-17.7229
-7,-762,5.42627,17.7548,0.000189109,0.00384544,0.00040348,0.00388943,0.000145114,1.46219,0.00254596,0.0467026,1217,1786,5.4263,-17.7548
0,-762,5.24622,18.0951,-0.00176016,0.00268158,0.00102214,0.00290551,-0.00198409,1.35513,0.00283967,0.0360816,1224,1786,5.24623,-18.0951
7,-762,5.23596,18.2238,-0.00363732,0.00159401,0.00155582,0.00202175,-0.00406505,1.3025,0.00357961,0.0223333,1231,1786,5.23598,-18.2237
14,-762,5.18311,18.4554,-0.00335059,0.00219818,0.00358995,0.00396085,-0.00511327,1.11437,0.00525301,0.0362435,1238,1786,5.18315,-18.4554
21,-762,5.13159,18.4833,-0.00271333,0.00192911,0.00502719,0.0051451,-0.00592932,1.00168,0.00639916,0.0407845,1245,1786,5.13162,-18.4833
28,-762,5.12305,18.4105,-0.00147463,0.00198662,0.0064044,0.00689011,-0.00637811,0.917358,0.00766231,0.0379823,1252,1786,5.12311,-18.4105
35,-762,5.10791,18.396,0.000600073,0.00250692,0.00750158,0.00911543,-0.00600843,0.848608,0.00879297,0.0391345,1259,1786,5.10791,-18.396
42,-762,5.04785,18.4427,0.00255002,0.00238869,0.00858778,0.0110575,-0.00611881,0.780702,0.0100525,0.0395048,1266,1786,5.0479,-18.4427
49,-762,5.04224,18.4402,0.00433287,0.00214918,0.00928404,0.012589,-0.006107,0.726865,0.0110083,0.0311605,1273,1786,5.0422,-18.4402
56,-762,5.12976,18.4055,0.00505073,0.00188658,0.00979646,0.013392,-0.00645473,0.705342,0.0116895,0.0215717,1280,1786,5.12981,-18.4055
63,-762,5.07068,18.4175,0.00542456,0.00130358,0.0100275,0.0136011,-0.00687292,0.684067,0.0120315,0.0198191,1287,1786,5.07073,-18.4175
70,-762,5.04602,18.4327,0.0054442,0.000369562,0.00986997,0.0130978,-0.00728401,0.659585,0.0119259,0.0190884,1294,1786,5.04597,-18.4327
77,-762,5.05664,18.4354,0.00478456,-0.000576929,0.00931848,0.0118002,-0.0075926,0.64534,0.011284,0.0261641,1301,1786,5.05666,-18.4354
84,-762,5.13574,18.4109,0.00348626,-0.00202072,0.00851241,0.00967944,-0.00821389,0.628975,0.0103423,0.0322065,1308,1786,5.13572,-18.4109
91,-762,5.16455,18.4232,0.00146088,-0.0034448,0.00746629,0.00686692,-0.00885084,0.626691,0.00909872,0.0404217,1315,1786,5.16455,-18.4232
98,-762,4.93555,18.4744,-0.00147662,-0.00433412,0.00634437,0.00359789,-0.00940863,0.674646,0.00775509,0.040933,1322,1786,4.93549,-18.4743
105,-762,4.94775,18.5175,-0.00479894,-0.00494619,0.00529039,0.000418341,-0.0101635,0.778441,0.00691931,0.0406908,1329,1786,4.94779,-18.5174
112,-762,5.02026,18.3915,-0.00759667,-0.00522707,0.00439041,-0.0018644,-0.0109593,0.917189,0.00677087,0.0417902,1336,1786,5.02021,-18.3914
119,-762,4.94336,18.2988,-0.0110518,-0.00612207,0.00248893,-0.00508403,-0.0120898,1.17567,0.00700939,0.0398664,1343,1786,4.9434,-18.2988
126,-762,4.89404,18.3721,-0.0129887,-0.00483213,0.00187193,-0.00442304,-0.0133977,1.35564,0.00788259,0.0424639,1350,1786,4.89409,-18.3721
133,-762,5.09558,18.3103,-0.0141102,-0.00370816,0.00133669,-0.00353914,-0.0142792,1.44502,0.00858643,0.0430023,1357,1786,5.09552,-18.3103
140,-762,4.83472,18.1899,-0.0151295,-0.0030485,0.000939016,-0.00297594,-0.0152021,1.49369,0.00930278,0.0414815,1364,1786,4.83475,-18.19
147,-762,4.88623,18.0917,-0.0146678,-0.00153406,0.000437001,-0.00151953,-0.0146824,1.53757,0.0093231,0.0422721,1371,1786,4.88626,-18.0917
154,-762,4.72119,18.3542,0,0,0,0,0,0,0,-1,1378,1786,4.72115,-18.3542
161,-762,7.93408,-0.126221,0,0,0,0,0,0,0,-1,1385,1786,7.93402,0.126232
168,-762,8.19287,0.880615,0,0,0,0,0,0,0,-1,1392,1786,8.19291,-0.880603
175,-762,8.33997,1.95947,0,0,0,0,0,0,0,-1,1399,1786,8.33997,-1.95942
182,-762,8.28418,3.56482,0,0,0,0,0,0,0,-1,1406,1786,8.28415,-3.56485
189,-762,8.21179,5.23389,0,0,0,0,0,0,0,-1,1413,1786,8.21183,-5.23383
196,-762,8.05969,6.95483,0,0,0,0,0,0,0,-1,1420,1786,8.05972,-6.9548
203,-762,24.0077,7.10425,0,0,0,0,0,0,0,-1,1427,1786,24.0077,-7.10426
210,-762,23.8073,7.6499,0,0,0,0,0,0,0,-1,1434,1786,23.8073,-7.64987
217,-762,23.3193,8.24426,0,0,0,0,0,0,0,-1,1441,1786,23.3194,-8.2442
224,-762,4.64465,18.4674,0,0,0,0,0,0,0,-1,1448,1786,4.64462,-18.4674
231,-762,4.95935,16.819,0,0,0,0,0,0,0,-1,1455,1786,4.95932,-16.8189
238,-762,6.01721,15.6074,0,0,0,0,0,0,0,-1,1462,1786,6.01719,-15.6075
245,-762,3.28296,15.0782,0,0,0,0,0,0,0,-1,1469,1786,3.28293,-15.0783
252,-762,18.4817,8.25159,0,0,0,0,0,0,0,-1,1476,1786,18.4816,-8.25162
259,-762,17.4619,7.89832,0,0,0,0,0,0,0,-1,1483,1786,17.462,-7.89836
266,-762,16.451,7.67773,0,0,0,0,0,0,0,-1,1490,1786,16.4511,-7.67773
273,-762,15.287,7.5304,0,0,0,0,0,0,0,-1,1497,1786,15.2869,-7.53044
280,-762,14.1501,7.38379,0,0,0,0,0,0,0,-1,1504,1786,14.1502,-7.38376
287,-762,12.6891,7.99133,0,0,0,0,0,0,0,-1,1511,1786,12.6891,-7.99135
294,-762,11.6133,8.5918,0,0,0,0,0,0,0,-1,1518,1786,11.6133,-8.59175
301,-762,9.90637,8.80591,0,0,0,0,0,0,0,-1,1525,1786,9.90636,-8.80596
308,-762,0,0,0,0,0,0,0,0,0,-1,1532,1786,0,0
315,-762,0,0,0,0,0,0,0,0,0,-1,1539,1786,0,0
322,-762,0,0,0,0,0,0,0,0,0,-1,1546,1786,0,0
329,-762,0,0,0,0,0,0,0,0,0,-1,1553,1786,0,0
336,-762,0,0,0,0,0,0,0,0,0,-1,1560,1786,0,0
343,-762,0,0,0,0,0,0,0,0,0,-1,1567,1786,0,0
350,-762,0,0,0,0,0,0,0,0,0,-1,1574,1786,0,0
357,-762,0,0,0,0,0,0,0,0,0,-1,1581,1786,0,0
364,-762,0,0,0,0,0,0,0,0,0,-1,1588,1786,0,0
371,-762,0,0,0,0,0,0,0,0,0,-1,1595,1786,0,0
378,-762,0,0,0,0,0,0,0,0,0,-1,1602,1786,0,0
385,-762,0,0,0,0,0,0,0,0,0,-1,1609,1786,0,0
392,-762,0,0,0,0,0,0,0,0,0,-1,1616,1786,0,0
399,-762,0,0,0,0,0,0,0,0,0,-1,1623,1786,0,0
406,-762,0,0,0,0,0,0,0,0,0,-1,1630,1786,0,0
413,-762,0,0,0,0,0,0,0,0,0,-1,1637,1786,0,0
420,-762,0,0,0,0,0,0,0,0,0,-1,1644,1786,0,0
427,-762,0,0,0,0,0,0,0,0,0,-1,1651,1786,0,0
434,-762,0,0,0,0,0,0,0,0,0,-1,1658,1786,0,0
441,-762,0,0,0,0,0,0,0,0,0,-1,1665,1786,0,0
448,-762,0,0,0,0,0,0,0,0,0,-1,1672,1786,0,0
455,-762,0,0,0,0,0,0,0,0,0,-1,1679,1786,0,0
462,-762,0,0,0,0,0,0,0,0,0,-1,1686,1786,0,0
469,-762,0,0,0,0,0,0,0,0,0,-1,1693,1786,0,0
476,-762,0,0,0,0,0,0,0,0,0,-1,1700,1786,0,0
483,-762,0,0,0,0,0,0,0,0,0,-1,1707,1786,0,0
490,-762,0,0,0,0,0,0,0,0,0,-1,1714,1786,0,0
497,-762,0,0,0,0,0,0,0,0,0,-1,1721,1786,0,0
504,-762,0,0,0,0,0,0,0,0,0,-1,1728,1786,0,0
511,-762,0,0,0,0,0,0,0,0,0,-1,1735,1786,0,0
518,-762,0,0,0,0,0,0,0,0,0,-1,1742,1786,0,0
525,-762,0,0,0,0,0,0,0,0,0,-1,1749,1786,0,0
532,-762,0,0,0,0,0,0,0,0,0,-1,1756,1786,0,0
539,-762,0,0,0,0,0,0,0,0,0,-1,1763,1786,0,0
546,-762,0,0,0,0,0,0,0,0,0,-1,1770,1786,0,0
553,-762,0,0,0,0,0,0,0,0,0,-1,1777,1786,0,0
560,-762,0,0,0,0,0,0,0,0,0,-1,1784,1786,0,0
567,-762,0,0,0,0,0,0,0,0,0,-1,1791,1786,0,0
574,-762,0,0,0,0,0,0,0,0,0,-1,1798,1786,0,0
581,-762,0,0,0,0,0,0,0,0,0,-1,1805,1786,0,0
588,-762,0,0,0,0,0,0,0,0,0,-1,1812,1786,0,0
595,-762,0,0,0,0,0,0,0,0,0,-1,1819,1786,0,0
602,-762,0,0,0,0,0,0,0,0,0,-1,1826,1786,0,0
609,-762,0,0,0,0,0,0,0,0,0,-1,1833,1786,0,0
616,-762,0,0,0,0,0,0,0,0,0,-1,1840,1786,0,0
623,-762,0,0,0,0,0,0,0,0,0,-1,1847,1786,0,0
630,-762,0,0,0,0,0,0,0,0,0,-1,1854,1786,0,0
637,-762,0,0,0,0,0,0,0,0,0,-1,1861,1786,0,0
644,-762,0,0,0,0,0,0,0,0,0,-1,1868,1786,0,0
651,-762,0,0,0,0,0,0,0,0,0,-1,1875,1786,0,0
658,-762,0,0,0,0,0,0,0,0,0,-1,1882,1786,0,0
665,-762,0,0,0,0,0,0,0,0,0,-1,1889,1786,0,0
672,-762,0,0,0,0,0,0,0,0,0,-1,1896,1786,0,0
679,-762,0,0,0,0,0,0,0,0,0,-1,1903,1786,0,0
686,-762,0,0,0,0,0,0,0,0,0,-1,1910,1786,0,0
693,-762,0,0,0,0,0,0,0,0,0,-1,1917,1786,0,0
700,-762,0,0,0,0,0,0,0,0,0,-1,1924,1786,0,0
707,-762,0,0,0,0,0,0,0,0,0,-1,1931,1786,0,0
714,-762,0,0,0,0,0,0,0,0,0,-1,1938,1786,0,0
721,-762,0,0,0,0,0,0,0,0,0,-1,1945,1786,0,0
728,-762,0,0,0,0,0,0,0,0,0,-1,1952,1786,0,0
735,-762,0,0,0,0,0,0,0,0,0,-1,1959,1786,0,0
742,-762,0,0,0,0,0,0,0,0,0,-1,1966,1786,0,0
749,-762,0,0,0,0,0,0,0,0,0,-1,1973,1786,0,0
756,-762,0,0,0,0,0,0,0,0,0,-1,1980,1786,0,0
763,-762,0,0,0,0,0,0,0,0,0,-1,1987,1786,0,0
770,-762,0,0,0,0,0,0,0,0,0,-1,1994,1786,0,0
777,-762,0,0,0,0,0,0,0,0,0,-1,2001,1786,0,0
784,-762,0,0,0,0,0,0,0,0,0,-1,2008,1786,0,0
791,-762,0,0,0,0,0,0,0,0,0,-1,2015,1786,0,0
798,-762,0,0,0,0,0,0,0,0,0,-1,2022,1786,0,0
805,-762,0,0,0,0,0,0,0,0,0,-1,2029,1786,0,0
812,-762,0,0,0,0,0,0,0,0,0,-1,2036,1786,0,0
-700,-769,0,0,0,0,0,0,0,0,0,-1,524,1793,0,0
-693,-769,0,0,0,0,0,0,0,0,0,-1,531,1793,0,0
-686,-769,0,0,0,0,0,0,0,0,0,-1,538,1793,0,0
-679,-769,0,0,0,0,0,0,0,0,0,-1,545,1793,0,0
-672,-769,0,0,0,0,0,0,0,0,0,-1,552,1793,0,0
-665,-769,0,0,0,0,0,0,0,0,0,-1,559,1793,0,0
-658,-769,0,0,0,0,0,0,0,0,0,-1,566,1793,0,0
-651,-769,0,0,0,0,0,0,0,0,0,-1,573,1793,0,0
-644,-769,0,0,0,0,0,0,0,0,0,-1,580,1793,0,0
-637,-769,0,0,0,0,0,0,0,0,0,-1,587,1793,0,0
-630,-769,0,0,0,0,0,0,0,0,0,-1,594,1793,0,0
-623,-769,0,0,0,0,0,0,0,0,0,-1,601,1793,0,0
-616,-769,0,0,0,0,0,0,0,0,0,-1,608,1793,0,0
-609,-769,0,0,0,0,0,0,0,0,0,-1,615,1793,0,0
-602,-769,0,0,0,0,0,0,0,0,0,-1,622,1793,0,0
-595,-769,0,0,0,0,0,0,0,0,0,-1,629,1793,0,0
-588,-769,0,0,0,0,0,0,0,0,0,-1,636,1793,0,0
-581,-769,0,0,0,0,0,0,0,0,0,-1,643,1793,0,0
-574,-769,0,0,0,0,0,0,0,0,0,-1,650,1793,0,0
-567,-769,0,0,0,0,0,0,0,0,0,-1,657,1793,0,0
-560,-769,0,0,0,0,0,0,0,0,0,-1,664,1793,0,0
-553,-769,0,0,0,0,0,0,0,0,0,-1,671,1793,0,0
-546,-769,0,0,0,0,0,0,0,0,0,-1,678,1793,0,0
-539,-769,0,0,0,0,0,0,0,0,0,-1,685,1793,0,0
-532,-769,0,0,0,0,0,0,0,0,0,-1,692,1793,0,0
-525,-769,0,0,0,0,0,0,0,0,0,-1,699,1793,0,0
-518,-769,0,0,0,0,0,0,0,0,0,-1,706,1793,0,0
-511,-769,0,0,0,0,0,0,0,0,0,-1,713,1793,0,0
-504,-769,0,0,0,0,0,0,0,0,0,-1,720,1793,0,0
-497,-769,0,0,0,0,0,0,0,0,0,-1,727,1793,0,0
-490,-769,0,0,0,0,0,0,0,0,0,-1,734,1793,0,0
-483,-769,0,0,0,0,0,0,0,0,0,-1,741,1793,0,0
-476,-769,0,0,0,0,0,0,0,0,0,-1,748,1793,0,0
-469,-769,0,0,0,0,0,0,0,0,0,-1,755,1793,0,0
-462,-769,0,0,0,0,0,0,0,0,0,-1,762,1793,0,0
-455,-769,0,0,0,0,0,0,0,0,0,-1,769,1793,0,0
-448,-769,0,0,0,0,0,0,0,0,0,-1,776,1793,0,0
-441,-769,0,0,0,0,0,0,0,0,0,-1,783,1793,0,0
-434,-769,0,0,0,0,0,0,0,0,0,-1,790,1793,0,0
-427,-769,0,0,0,0,0,0,0,0,0,-1,797,1793,0,0
-420,-769,0,0,0,0,0,0,0,0,0,-1,804,1793,0,0
-413,-769,0,0,0,0,0,0,0,0,0,-1,811,1793,0,0
-406,-769,0,0,0,0,0,0,0,0,0,-1,818,1793,0,0
-399,-769,0,0,0,0,0,0,0,0,0,-1,825,1793,0,0
-392,-769,0,0,0,0,0,0,0,0,0,-1,832,1793,0,0
-385,-769,0,0,0,0,0,0,0,0,0,-1,839,1793,0,0
-378,-769,0,0,0,0,0,0,0,0,0,-1,846,1793,0,0
-371,-769,0,0,0,0,0,0,0,0,0,-1,853,1793,0,0
-364,-769,0,0,0,0,0,0,0,0,0,-1,860,1793,0,0
-357,-769,0,0,0,0,0,0,0,0,0,-1,867,1793,0,0
-350,-769,0,0,0,0,0,0,0,0,0,-1,874,1793,0,0
-343,-769,0,0,0,0,0,0,0,0,0,-1,881,1793,0,0
-336,-769,0,0,0,0,0,0,0,0,0,-1,888,1793,0,0
-329,-769,0,0,0,0,0,0,0,0,0,-1,895,1793,0,0
-322,-769,0,0,0,0,0,0,0,0,0,-1,902,1793,0,0
-315,-769,0,0,0,0,0,0,0,0,0,-1,909,1793,0,0
-308,-769,0,0,0,0,0,0,0,0,0,-1,916,1793,0,0
-301,-769,0,0,0,0,0,0,0,0,0,-1,923,1793,0,0
-294,-769,0,0,0,0,0,0,0,0,0,-1,930,1793,0,0
-287,-769,0,0,0,0,0,0,0,0,0,-1,937,1793,0,0
-280,-769,0,0,0,0,0,0,0,0,0,-1,944,1793,0,0
-273,-769,0,0,0,0,0,0,0,0,0,-1,951,1793,0,0
-266,-769,0,0,0,0,0,0,0,0,0,-1,958,1793,0,0
-259,-769,0,0,0,0,0,0,0,0,0,-1,965,1793,0,0
-252,-769,0,0,0,0,0,0,0,0,0,-1,972,1793,0,0
-245,-769,0,0,0,0,0,0,0,0,0,-1,979,1793,0,0
-238,-769,0,0,0,0,0,0,0,0,0,-1,986,1793,0,0
-231,-769,0,0,0,0,0,0,0,0,0,-1,993,1793,0,0
-224,-769,0,0,0,0,0,0,0,0,0,-1,1000,1793,0,0
-217,-769,0,0,0,0,0,0,0,0,0,-1,1007,1793,0,0
-210,-769,0,0,0,0,0,0,0,0,0,-1,1014,1793,0,0
-203,-769,0,0,0,0,0,0,0,0,0,-1,1021,1793,0,0
-196,-769,0,0,0,0,0,0,0,0,0,-1,1028,1793,0,0
-189,-769,0,0,0,0,0,0,0,0,0,-1,1035,1793,0,0
-182,-769,0,0,0,0,0,0,0,0,0,-1,1042,1793,0,0
-175,-769,0,0,0,0,0,0,0,0,0,-1,1049,1793,0,0
-168,-769,0,0,0,0,0,0,0,0,0,-1,1056,1793,0,0
-161,-769,-3.61145,12.4761,0,0,0,0,0,0,0,-1,1063,1793,-3.6114,-12.476
-154,-769,-0.813232,5.32874,0,0,0,0,0,0,0,-1,1070,1793,-0.813269,-5.32872
-147,-769,4.26587,4.7002,0,0,0,0,0,0,0,-1,1077,1793,4.26593,-4.70022
-140,-769,4.10376,5.28589,0,0,0,0,0,0,0,-1,1084,1793,4.10371,-5.28584
-133,-769,6.422,8.21777,0,0,0,0,0,0,0,-1,1091,1793,6.42198,-8.21773
-126,-769,5.93201,12.4241,0,0,0,0,0,0,0,-1,1098,1793,5.93198,-12.424
-119,-769,7.8894,17.3041,0,0,0,0,0,0,0,-1,1105,1793,7.88941,-17.304
-112,-769,9.03577,17.1554,0,0,0,0,0,0,0,-1,1112,1793,9.03582,-17.1554
-105,-769,5.68054,18.3121,0,0,0,0,0,0,0,-1,1119,1793,5.6805,-18.3121
-98,-769,5.0437,17.0754,0,0,0,0,0,0,0,-1,1126,1793,5.04368,-17.0754
-91,-769,4.40686,15.8386,0,0,0,0,0,0,0,-1,1133,1793,4.40685,-15.8387
-84,-769,3.25684,11.7041,0,0,0,0,0,0,0,-1,1140,1793,3.25681,-11.7041
-77,-769,0.406616,9.9126,0,0,0,0,0,0,0,-1,1147,1793,0.406638,-9.91265
-70,-769,1.04944,11.9852,0,0,0,0,0,0,0,-1,1154,1793,1.04947,-11.9852
-63,-769,-2.39709,9.60339,0,0,0,0,0,0,0,-1,1161,1793,-2.39706,-9.6034
-56,-769,-5.84363,7.22156,0,0,0,0,0,0,0,-1,1168,1793,-5.84359,-7.22157
-49,-769,-2.41443,3.95471,0,0,0,0,0,0,0,-1,1175,1793,-2.41446,-3.95471
-42,-769,-3.1991,2.64941,0,0,0,0,0,0,0,-1,1182,1793,-3.19914,-2.64944
-35,-769,-3.50183,1.73389,0,0,0,0,0,0,0,-1,1189,1793,-3.50189,-1.7339
-28,-769,-3.96985,1.14075,0,0,0,0,0,0,0,-1,1196,1793,-3.96985,-1.14078
-21,-769,5.2948,17.8387,0,0,0,0,0,0,0,-1,1203,1793,5.29478,-17.8387
-14,-769,5.79944,17.4966,0,0,0,0,0,0,0,-1,1210,1793,5.79939,-17.4966
-7,-769,5.35547,17.9327,0,0,0,0,0,0,0,-1,1217,1793,5.35546,-17.9327
0,-769,5.35571,18.0398,-0.00182603,0.00462609,0.00227854,0.00534961,-0.00254956,1.26333,0.00465512,0.0489767,1224,1793,5.35573,-18.0398
7,-769,5.9563,18.3673,-0.00471529,0.00342184,0.00305256,0.00443966,-0.00573311,1.24896,0.00588906,0.0442006,1231,1793,5.95633,-18.3674
14,-769,5.47974,18.7186,-0.0042745,0.00408539,0.00571429,0.00698535,-0.00717446,1.10117,0.00817541,0.0458219,1238,1793,5.47978,-18.7186
21,-769,5.19153,18.7013,-0.00320111,0.00378015,0.00770592,0.00874917,-0.00817013,0.998063,0.00977027,0.0475269,1245,1793,5.19152,-18.7013
28,-769,5.12976,18.5658,-0.00124195,0.00375949,0.00953893,0.01112,-0.0086025,0.913593,0.0114177,0.0462448,1252,1793,5.1298,-18.5658
35,-769,4.91235,18.4344,0.00189694,0.00432207,0.0109545,0.014131,-0.00791193,0.840519,0.0128942,0.0469873,1259,1793,4.91233,-18.4344
42,-769,4.98718,18.5139,0.00490257,0.00405166,0.0123974,0.0168818,-0.00792761,0.768246,0.0146314,0.0477453,1266,1793,4.98716,-18.5139
49,-769,5.03052,18.6132,0.00769288,0.00357672,0.0133168,0.0191097,-0.00784009,0.708731,0.0160065,0.0481976,1273,1793,5.03046,-18.6132
56,-769,5.42786,18.6169,0.00914555,0.00302857,0.0139901,0.0204075,-0.00823342,0.677782,0.0170265,0.0465105,1280,1793,5.4279,-18.6169
63,-769,5.07458,18.4193,0.00976287,0.00208213,0.0141501,0.0205845,-0.00873953,0.652889,0.0173846,0.0451076,1287,1793,5.07453,-18.4193
70,-769,3.99561,17.6655,0,0,0,0,0,0,0,-1,1294,1793,3.99558,-17.6655
77,-769,5.51819,18.4973,0,0,0,0,0,0,0,-1,1301,1793,5.51821,-18.4974
84,-769,5.39355,18.3672,0.00698047,-0.00260613,0.0118279,0.0149494,-0.0105751,0.592884,0.0148085,0.0486988,1308,1793,5.3935,-18.3672
91,-769,5.33582,18.3986,0.00405381,-0.00453408,0.0103496,0.0109649,-0.0114452,0.588761,0.0129394,0.0479821,1315,1793,5.33583,-18.3985
98,-769,5.01929,18.6014,-0.000465887,-0.0057245,0.0087032,0.0059965,-0.0121869,0.638703,0.0106991,0.0444241,1322,1793,5.01929,-18.6015
105,-769,4.92859,18.683,-0.00561733,-0.00653486,0.00711447,0.00105315,-0.0132053,0.753201,0.00917478,0.0437688,1329,1793,4.92853,-18.683
112,-769,4.03845,18.8931,-0.0101111,-0.00690655,0.00571752,-0.00257105,-0.0144466,0.922015,0.00889875,0.0466015,1336,1793,4.03843,-18.8931
119,-769,4.96838,18.1482,-0.0155676,-0.00778201,0.00316085,-0.00666034,-0.0166892,1.2298,0.00970073,0.0445045,1343,1793,4.96836,-18.1482
126,-769,5.01685,18.246,-0.0188882,-0.00604788,0.00226886,-0.00565877,-0.0192773,1.40095,0.0114417,0.0453119,1350,1793,5.01685,-18.246
133,-769,5.28418,18.2943,0,0,0,0,0,0,0,-1,1357,1793,5.28419,-18.2943
140,-769,4.81885,18.1162,0,0,0,0,0,0,0,-1,1364,1793,4.81882,-18.1162
147,-769,4.86707,17.9637,0,0,0,0,0,0,0,-1,1371,1793,4.86702,-17.9637
154,-769,6.37561,1.00024,0,0,0,0,0,0,0,-1,1378,1793,6.37566,-1.00028
161,-769,6.57019,1.53223,0,0,0,0,0,0,0,-1,1385,1793,6.57019,-1.53226
168,-769,8.27637,0.756958,0,0,0,0,0,0,0,-1,1392,1793,8.27639,-0.756944
175,-769,8.47144,2.41174,0,0,0,0,0,0,0,-1,1399,1793,8.47147,-2.4118
182,-769,8.41479,4.05994,0,0,0,0,0,0,0,-1,1406,1793,8.41479,-4.05997
189,-769,8.25049,5.68433,0,0,0,0,0,0,0,-1,1413,1793,8.25054,-5.68428
196,-769,7.97729,7.42847,0,0,0,0,0,0,0,-1,1420,1793,7.9773,-7.42848
203,-769,22.0977,6.73889,0,0,0,0,0,0,0,-1,1427,1793,22.0977,-6.7389
210,-769,22.1115,7.77246,0,0,0,0,0,0,0,-1,1434,1793,22.1115,-7.77248
217,-769,22.4723,8.79102,0,0,0,0,0,0,0,-1,1441,1793,22.4723,-8.79099
224,-769,22.1348,9.35278,0,0,0,0,0,0,0,-1,1448,1793,22.1348,-9.35283
231,-769,5.99573,17.9962,0,0,0,0,0,0,0,-1,1455,1793,5.99578,-17.9962
238,-769,21.7686,9.32788,0,0,0,0,0,0,0,-1,1462,1793,21.7685,-9.3279
245,-769,18.8502,7.89856,0,0,0,0,0,0,0,-1,1469,1793,18.8502,-7.89854
252,-769,17.4956,7.51794,0,0,0,0,0,0,0,-1,1476,1793,17.4956,-7.51795
259,-769,16.4871,7.42102,0,0,0,0,0,0,0,-1,1483,1793,16.4871,-7.42104
266,-769,15.8488,7.3905,0,0,0,0,0,0,0,-1,1490,1793,15.8488,-7.39046
273,-769,14.8075,7.56152,0,0,0,0,0,0,0,-1,1497,1793,14.8075,-7.56152
280,-769,13.6519,7.43054,0,0,0,0,0,0,0,-1,1504,1793,13.6518,-7.43058
287,-769,0,0,0,0,0,0,0,0,0,-1,1511,1793,0,0
294,-769,0,0,0,0,0,0,0,0,0,-1,1518,1793,0,0
301,-769,0,0,0,0,0,0,0,0,0,-1,1525,1793,0,0
308,-769,0,0,0,0,0,0,0,0,0,-1,1532,1793,0,0
315,-769,0,0,0,0,0,0,0,0,0,-1,1539,1793,0,0
322,-769,0,0,0,0,0,0,0,0,0,-1,1546,1793,0,0
329,-769,0,0,0,0,0,0,0,0,0,-1,1553,1793,0,0
336,-769,0,0,0,0,0,0,0,0,0,-1,1560,1793,0,0
343,-769,0,0,0,0,0,0,0,0,0,-1,1567,1793,0,0
350,-769,0,0,0,0,0,0,0,0,0,-1,1574,1793,0,0
357,-769,0,0,0,0,0,0,0,0,0,-1,1581,1793,0,0
364,-769,0,0,0,0,0,0,0,0,0,-1,1588,1793,0,0
371,-769,0,0,0,0,0,0,0,0,0,-1,1595,1793,0,0
378,-769,0,0,0,0,0,0,0,0,0,-1,1602,1793,0,0
385,-769,0,0,0,0,0,0,0,0,0,-1,1609,1793,0,0
392,-769,0,0,0,0,0,0,0,0,0,-1,1616,1793,0,0
399,-769,0,0,0,0,0,0,0,0,0,-1,1623,1793,0,0
406,-769,0,0,0,0,0,0,0,0,0,-1,1630,1793,0,0
413,-769,0,0,0,0,0,0,0,0,0,-1,1637,1793,0,0
420,-769,0,0,0,0,0,0,0,0,0,-1,1644,1793,0,0
427,-769,0,0,0,0,0,0,0,0,0,-1,1651,1793,0,0
434,-769,0,0,0,0,0,0,0,0,0,-1,1658,1793,0,0
441,-769,0,0,0,0,0,0,0,0,0,-1,1665,1793,0,0
448,-769,0,0,0,0,0,0,0,0,0,-1,1672,1793,0,0
455,-769,0,0,0,0,0,0,0,0,0,-1,1679,1793,0,0
462,-769,0,0,0,0,0,0,0,0,0,-1,1686,1793,0,0
469,-769,0,0,0,0,0,0,0,0,0,-1,1693,1793,0,0
476,-769,0,0,0,0,0,0,0,0,0,-1,1700,1793,0,0
483,-769,0,0,0,0,0,0,0,0,0,-1,1707,1793,0,0
490,-769,0,0,0,0,0,0,0,0,0,-1,1714,1793,0,0
497,-769,0,0,0,0,0,0,0,0,0,-1,1721,1793,0,0
504,-769,0,0,0,0,0,0,0,0,0,-1,1728,1793,0,0
511,-769,0,0,0,0,0,0,0,0,0,-1,1735,1793,0,0
518,-769,0,0,0,0,0,0,0,0,0,-1,1742,1793,0,0
525,-769,0,0,0,0,0,0,0,0,0,-1,1749,1793,0,0
532,-769,0,0,0,0,0,0,0,0,0,-1,1756,1793,0,0
539,-769,0,0,0,0,0,0,0,0,0,-1,1763,1793,0,0
546,-769,0,0,0,0,0,0,0,0,0,-1,1770,1793,0,0
553,-769,0,0,0,0,0,0,0,0,0,-1,1777,1793,0,0
560,-769,0,0,0,0,0,0,0,0,0,-1,1784,1793,0,0
567,-769,0,0,0,0,0,0,0,0,0,-1,1791,1793,0,0
574,-769,0,0,0,0,0,0,0,0,0,-1,1798,1793,0,0
581,-769,0,0,0,0,0,0,0,0,0,-1,1805,1793,0,0
588,-769,0,0,0,0,0,0,0,0,0,-1,1812,1793,0,0
595,-769,0,0,0,0,0,0,0,0,0,-1,1819,1793,0,0
602,-769,0,0,0,0,0,0,0,0,0,-1,1826,1793,0,0
609,-769,0,0,0,0,0,0,0,0,0,-1,1833,1793,0,0
616,-769,0,0,0,0,0,0,0,0,0,-1,1840,1793,0,0
623,-769,0,0,0,0,0,0,0,0,0,-1,1847,1793,0,0
630,-769,0,0,0,0,0,0,0,0,0,-1,1854,1793,0,0
637,-769,0,0,0,0,0,0,0,0,0,-1,1861,1793,0,0
644,-769,0,0,0,0,0,0,0,0,0,-1,1868,1793,0,0
651,-769,0,0,0,0,0,0,0,0,0,-1,1875,1793,0,0
658,-769,0,0,0,0,0,0,0,0,0,-1,1882,1793,0,0
665,-769,0,0,0,0,0,0,0,0,0,-1,1889,1793,0,0
672,-769,0,0,0,0,0,0,0,0,0,-1,1896,1793,0,0
679,-769,0,0,0,0,0,0,0,0,0,-1,1903,1793,0,0
686,-769,0,0,0,0,0,0,0,0,0,-1,1910,1793,0,0
693,-769,0,0,0,0,0,0,0,0,0,-1,1917,1793,0,0
700,-769,0,0,0,0,0,0,0,0,0,-1,1924,1793,0,0
707,-769,0,0,0,0,0,0,0,0,0,-1,1931,1793,0,0
714,-769,0,0,0,0,0,0,0,0,0,-1,1938,1793,0,0
721,-769,0,0,0,0,0,0,0,0,0,-1,1945,1793,0,0
728,-769,0,0,0,0,0,0,0,0,0,-1,1952,1793,0,0
735,-769,0,0,0,0,0,0,0,0,0,-1,1959,1793,0,0
742,-769,0,0,0,0,0,0,0,0,0,-1,1966,1793,0,0
749,-769,0,0,0,0,0,0,0,0,0,-1,1973,1793,0,0
756,-769,0,0,0,0,0,0,0,0,0,-1,1980,1793,0,0
763,-769,0,0,0,0,0,0,0,0,0,-1,1987,1793,0,0
770,-769,0,0,0,0,0,0,0,0,0,-1,1994,1793,0,0
777,-769,0,0,0,0,0,0,0,0,0,-1,2001,1793,0,0
784,-769,0,0,0,0,0,0,0,0,0,-1,2008,1793,0,0
791,-769,0,0,0,0,0,0,0,0,0,-1,2015,1793,0,0
798,-769,0,0,0,0,0,0,0,0,0,-1,2022,1793,0,0
805,-769,0,0,0,0,0,0,0,0,0,-1,2029,1793,0,0
812,-769,0,0,0,0,0,0,0,0,0,-1,2036,1793,0,0
-700,-776,0,0,0,0,0,0,0,0,0,-1,524,1800,0,0
-693,-776,0,0,0,0,0,0,0,0,0,-1,531,1800,0,0
-686,-776,0,0,0,0,0,0,0,0,0,-1,538,1800,0,0
-679,-776,0,0,0,0,0,0,0,0,0,-1,545,1800,0,0
-672,-776,0,0,0,0,0,0,0,0,0,-1,552,1800,0,0
-665,-776,0,0,0,0,0,0,0,0,0,-1,559,1800,0,0
-658,-776,0,0,0,0,0,0,0,0,0,-1,566,1800,0,0
-651,-776,0,0,0,0,0,0,0,0,0,-1,573,1800,0,0
-644,-776,0,0,0,0,0,0,0,0,0,-1,580,1800,0,0
-637,-776,0,0,0,0,0,0,0,0,0,-1,587,1800,0,0
-630,-776,0,0,0,0,0,0,0,0,0,-1,594,1800,0,0
-623,-776,0,0,0,0,0,0,0,0,0,-1,601,1800,0,0
-616,-776,0,0,0,0,0,0,0,0,0,-1,608,1800,0,0
-609,-776,0,0,0,0,0,0,0,0,0,-1,615,1800,0,0
-602,-776,0,0,0,0,0,0,0,0,0,-1,622,1800,0,0
-595,-776,0,0,0,0,0,0,0,0,0,-1,629,1800,0,0
-588,-776,0,0,0,0,0,0,0,0,0,-1,636,1800,0,0
-581,-776,0,0,0,0,0,0,0,0,0,-1,643,1800,0,0
-574,-776,0,0,0,0,0,0,0,0,0,-1,650,1800,0,0
-567,-776,0,0,0,0,0,0,0,0,0,-1,657,1800,0,0
-560,-776,0,0,0,0,0,0,0,0,0,-1,664,1800,0,0
-553,-776,0,0,0,0,0,0,0,0,0,-1,671,1800,0,0
-546,-776,0,0,0,0,0,0,0,0,0,-1,678,1800,0,0
-539,-776,0,0,0,0,0,0,0,0,0,-1,685,1800,0,0
-532,-776,0,0,0,0,0,0,0,0,0,-1,692,1800,0,0
-525,-776,0,0,0,0,0,0,0,0,0,-1,699,1800,0,0
-518,-776,0,0,0,0,0,0,0,0,0,-1,706,1800,0,0
-511,-776,0,0,0,0,0,0,0,0,0,-1,713,1800,0,0
-504,-776,0,0,0,0,0,0,0,0,0,-1,720,1800,0,0
-497,-776,0,0,0,0,0,0,0,0,0,-1,727,1800,0,0
-490,-776,0,0,0,0,0,0,0,0,0,-1,734,1800,0,0
-483,-776,0,0,0,0,0,0,0,0,0,-1,741,1800,0,0
-476,-776,0,0,0,0,0,0,0,0,0,-1,748,1800,0,0
-469,-776,0,0,0,0,0,0,0,0,0,-1,755,1800,0,0
-462,-776,0,0,0,0,0,0,0,0,0,-1,762,1800,0,0
-455,-776,0,0,0,0,0,0,0,0,0,-1,769,1800,0,0
-448,-776,0,0,0,0,0,0,0,0,0,-1,776,1800,0,0
-441,-776,0,0,0,0,0,0,0,0,0,-1,783,1800,0,0
-434,-776,0,0,0,0,0,0,0,0,0,-1,790,1800,0,0
-427,-776,0,0,0,0,0,0,0,0,0,-1,797,1800,0,0
-420,-776,0,0,0,0,0,0,0,0,0,-1,804,1800,0,0
-413,-776,0,0,0,0,0,0,0,0,0,-1,811,1800,0,0
-406,-776,0,0,0,0,0,0,0,0,0,-1,818,1800,0,0
-399,-776,0,0,0,0,0,0,0,0,0,-1,825,1800,0,0
-392,-776,0,0,0,0,0,0,0,0,0,-1,832,1800,0,0
-385,-776,0,0,0,0,0,0,0,0,0,-1,839,1800,0,0
-378,-776,0,0,0,0,0,0,0,0,0,-1,846,1800,0,0
-371,-776,0,0,0,0,0,0,0,0,0,-1,853,1800,0,0
-364,-776,0,0,0,0,0,0,0,0,0,-1,860,1800,0,0
-357,-776,0,0,0,0,0,0,0,0,0,-1,867,1800,0,0
-350,-776,0,0,0,0,0,0,0,0,0,-1,874,1800,0,0
-343,-776,0,0,0,0,0,0,0,0,0,-1,881,1800,0,0
-336,-776,0,0,0,0,0,0,0,0,0,-1,888,1800,0,0
-329,-776,0,0,0,0,0,0,0,0,0,-1,895,1800,0,0
-322,-776,0,0,0,0,0,0,0,0,0,-1,902,1800,0,0
-315,-776,0,0,0,0,0,0,0,0,0,-1,909,1800,0,0
-308,-776,0,0,0,0,0,0,0,0,0,-1,916,1800,0,0
-301,-776,0,0,0,0,0,0,0,0,0,-1,923,1800,0,0
-294,-776,0,0,0,0,0,0,0,0,0,-1,930,1800,0,0
-287,-776,0,0,0,0,0,0,0,0,0,-1,937,1800,0,0
-280,-776,0,0,0,0,0,0,0,0,0,-1,944,1800,0,0
-273,-776,0,0,0,0,0,0,0,0,0,-1,951,1800,0,0
-266,-776,0,0,0,0,0,0,0,0,0,-1,958,1800,0,0
-259,-776,0,0,0,0,0,0,0,0,0,-1,965,1800,0,0
-252,-776,0,0,0,0,0,0,0,0,0,-1,972,1800,0,0
-245,-776,0,0,0,0,0,0,0,0,0,-1,979,1800,0,0
-238,-776,0,0,0,0,0,0,0,0,0,-1,986,1800,0,0
-231,-776,0,0,0,0,0,0,0,0,0,-1,993,1800,0,0
-224,-776,0,0,0,0,0,0,0,0,0,-1,1000,1800,0,0
-217,-776,0,0,0,0,0,0,0,0,0,-1,1007,1800,0,0
-210,-776,0,0,0,0,0,0,0,0,0,-1,1014,1800,0,0
-203,-776,0,0,0,0,0,0,0,0,0,-1,1021,1800,0,0
-196,-776,0,0,0,0,0,0,0,0,0,-1,1028,1800,0,0
-189,-776,0,0,0,0,0,0,0,0,0,-1,1035,1800,0,0
-182,-776,0,0,0,0,0,0,0,0,0,-1,1042,1800,0,0
-175,-776,0,0,0,0,0,0,0,0,0,-1,1049,1800,0,0
-168,-776,0,0,0,0,0,0,0,0,0,-1,1056,1800,0,0
-161,-776,0,0,0,0,0,0,0,0,0,-1,1063,1800,0,0
-154,-776,0,0,0,0,0,0,0,0,0,-1,1070,1800,0,0
-147,-776,0,0,0,0,0,0,0,0,0,-1,1077,1800,0,0
-140,-776,2.98499,5.20911,0,0,0,0,0,0,0,-1,1084,1800,2.98493,-5.2091
-133,-776,6.72363,9.35828,0,0,0,0,0,0,0,-1,1091,1800,6.72358,-9.35824
-126,-776,6.55029,13.7832,0,0,0,0,0,0,0,-1,1098,1800,6.55029,-13.7832
-119,-776,5.72107,13.7787,0,0,0,0,0,0,0,-1,1105,1800,5.72106,-13.7787
-112,-776,7.11792,18.3749,0,0,0,0,0,0,0,-1,1112,1800,7.11789,-18.3749
-105,-776,6.26868,18.3521,0,0,0,0,0,0,0,-1,1119,1800,6.26871,-18.352
-98,-776,5.43921,18.1306,0,0,0,0,0,0,0,-1,1126,1800,5.43927,-18.1306
-91,-776,3.00159,13.1172,0,0,0,0,0,0,0,-1,1133,1800,3.00159,-13.1171
-84,-776,2.27747,12.7086,0,0,0,0,0,0,0,-1,1140,1800,2.27747,-12.7087
-77,-776,0.580078,11.1272,0,0,0,0,0,0,0,-1,1147,1800,0.58002,-11.1272
-70,-776,-0.562866,12.3163,0,0,0,0,0,0,0,-1,1154,1800,-0.562897,-12.3163
-63,-776,-3.96106,9.97656,0,0,0,0,0,0,0,-1,1161,1800,-3.961,-9.97654
-56,-776,-7.35913,7.63672,0,0,0,0,0,0,0,-1,1168,1800,-7.3591,-7.63676
-49,-776,-7.62952,3.1908,0,0,0,0,0,0,0,-1,1175,1800,-7.62955,-3.19076
-42,-776,-3.41272,3.0249,0,0,0,0,0,0,0,-1,1182,1800,-3.41269,-3.02488
-35,-776,-3.71753,1.63635,0,0,0,0,0,0,0,-1,1189,1800,-3.71755,-1.63631
-28,-776,-4.03979,0.716064,0,0,0,0,0,0,0,-1,1196,1800,-4.03977,-0.716055
-21,-776,6.06384,17.7999,0,0,0,0,0,0,0,-1,1203,1800,6.06381,-17.8
-14,-776,4.77527,18.6365,0,0,0,0,0,0,0,-1,1210,1800,4.77524,-18.6365
-7,-776,5.17285,18.3983,0,0,0,0,0,0,0,-1,1217,1800,5.1728,-18.3983
0,-776,5.53455,18.1501,-0.00171628,0.00761788,0.00421498,0.0092395,-0.0033379,1.20353,0.00752331,0.0477194,1224,1800,5.53458,-18.1501
7,-776,6.47864,18.5007,-0.0060139,0.00634511,0.00528735,0.0082984,-0.00796719,1.21692,0.0093916,0.0459848,1231,1800,6.47864,-18.5007
14,-776,5.8407,18.7644,-0.00546588,0.00686859,0.00854843,0.0112422,-0.00983954,1.09789,0.0121806,0.0470242,1238,1800,5.84074,-18.7644
21,-776,5.19861,18.8298,0,0,0,0,0,0,0,-1,1245,1800,5.19856,-18.8299
28,-776,4.97815,18.6022,-0.000783043,0.00630396,0.0135274,0.0167443,-0.0112234,0.913495,0.0162517,0.0445234,1252,1800,4.97817,-18.6021
35,-776,4.81738,18.5793,0.00378384,0.00680817,0.0152438,0.0206146,-0.0100226,0.834836,0.0180374,0.0444009,1259,1800,4.81739,-18.5793
42,-776,4.92664,18.6034,0,0,0,0,0,0,0,-1,1266,1800,4.92662,-18.6034
49,-776,4.98132,18.7394,0,0,0,0,0,0,0,-1,1273,1800,4.98127,-18.7394
56,-776,5.59619,18.7511,0,0,0,0,0,0,0,-1,1280,1800,5.59613,-18.7511
63,-776,3.96692,17.1414,0.0160606,0.0030612,0.0190732,0.0297112,-0.0105894,0.621181,0.0241248,0.0495152,1287,1800,3.96695,-17.1414
70,-776,4.39307,17.6581,0,0,0,0,0,0,0,-1,1294,1800,4.39312,-17.6581
77,-776,4.64026,18.2063,0,0,0,0,0,0,0,-1,1301,1800,4.64024,-18.2063
84,-776,5.32068,18.4785,0,0,0,0,0,0,0,-1,1308,1800,5.32063,-18.4785
91,-776,5.48279,18.4664,0.00809526,-0.00569725,0.0135636,0.0164151,-0.0140171,0.550211,0.0175882,0.0462052,1315,1800,5.48274,-18.4664
98,-776,5.22925,18.6407,0.00136411,-0.00718141,0.01121,0.00908802,-0.0149053,0.60332,0.0139876,0.0444017,1322,1800,5.22925,-18.6408
105,-776,4.74194,18.8373,-0.00634514,-0.00816485,0.00889468,0.00168611,-0.0161961,0.734429,0.0114011,0.0469607,1329,1800,4.74194,-18.8373
112,-776,4.2345,18.9868,-0.0132769,-0.00857498,0.00680428,-0.00372695,-0.0181249,0.951733,0.0110524,0.0492412,1336,1800,4.23453,-18.9869
119,-776,3.70605,19.1384,-0.0214825,-0.00911294,0.003536,-0.00817348,-0.022422,1.31111,0.0131028,0.0467033,1343,1800,3.70601,-19.1384
126,-776,3.1969,19.3162,0,0,0,0,0,0,0,-1,1350,1800,3.19694,-19.3162
133,-776,11.1439,17.2175,0,0,0,0,0,0,0,-1,1357,1800,11.144,-17.2175
140,-776,4.39331,10.0631,0,0,0,0,0,0,0,-1,1364,1800,4.39332,-10.0631
147,-776,6.46301,-0.617188,0,0,0,0,0,0,0,-1,1371,1800,6.46305,0.61724
154,-776,6.43774,0.344116,0,0,0,0,0,0,0,-1,1378,1800,6.43776,-0.344162
161,-776,6.50293,1.1731,0,0,0,0,0,0,0,-1,1385,1800,6.5029,-1.17313
168,-776,8.44971,1.22913,0,0,0,0,0,0,0,-1,1392,1800,8.44974,-1.22915
175,-776,8.61523,2.87061,0,0,0,0,0,0,0,-1,1399,1800,8.6152,-2.87063
182,-776,8.54065,4.60645,0,0,0,0,0,0,0,-1,1406,1800,8.5407,-4.60643
189,-776,8.35303,6.28223,0,0,0,0,0,0,0,-1,1413,1800,8.35297,-6.28225
196,-776,8.0387,8.21704,0,0,0,0,0,0,0,-1,1420,1800,8.03865,-8.217
203,-776,7.91736,9.79919,0,0,0,0,0,0,0,-1,1427,1800,7.91735,-9.79922
210,-776,20.2479,7.85718,0,0,0,0,0,0,0,-1,1434,1800,20.248,-7.85719
217,-776,21.5171,9.3418,0,0,0,0,0,0,0,-1,1441,1800,21.5171,-9.34182
224,-776,3.09253,14.9313,0,0,0,0,0,0,0,-1,1448,1800,3.09254,-14.9313
231,-776,20.8671,9.21057,0,0,0,0,0,0,0,-1,1455,1800,20.867,-9.21054
238,-776,20.7511,9.05847,0,0,0,0,0,0,0,-1,1462,1800,20.7511,-9.05848
245,-776,21.0875,9.85986,0,0,0,0,0,0,0,-1,1469,1800,21.0875,-9.8599
252,-776,16.6313,6.47168,0,0,0,0,0,0,0,-1,1476,1800,16.6313,-6.47165
259,-776,14.1882,7.69055,0,0,0,0,0,0,0,-1,1483,1800,14.1882,-7.69061
266,-776,0,0,0,0,0,0,0,0,0,-1,1490,1800,0,0
273,-776,0,0,0,0,0,0,0,0,0,-1,1497,1800,0,0
280,-776,0,0,0,0,0,0,0,0,0,-1,1504,1800,0,0
287,-776,0,0,0,0,0,0,0,0,0,-1,1511,1800,0,0
294,-776,0,0,0,0,0,0,0,0,0,-1,1518,1800,0,0
301,-776,0,0,0,0,0,0,0,0,0,-1,1525,1800,0,0
308,-776,0,0,0,0,0,0,0,0,0,-1,1532,1800,0,0
315,-776,0,0,0,0,0,0,0,0,0,-1,1539,1800,0,0
322,-776,0,0,0,0,0,0,0,0,0,-1,1546,1800,0,0
329,-776,0,0,0,0,0,0,0,0,0,-1,1553,1800,0,0
336,-776,0,0,0,0,0,0,0,0,0,-1,1560,1800,0,0
343,-776,0,0,0,0,0,0,0,0,0,-1,1567,1800,0,0
350,-776,0,0,0,0,0,0,0,0,0,-1,1574,1800,0,0
357,-776,0,0,0,0,0,0,0,0,0,-1,1581,1800,0,0
364,-776,0,0,0,0,0,0,0,0,0,-1,1588,1800,0,0
371,-776,0,0,0,0,0,0,0,0,0,-1,1595,1800,0,0
378,-776,0,0,0,0,0,0,0,0,0,-1,1602,1800,0,0
385,-776,0,0,0,0,0,0,0,0,0,-1,1609,1800,0,0
392,-776,0,0,0,0,0,0,0,0,0,-1,1616,1800,0,0
399,-776,0,0,0,0,0,0,0,0,0,-1,1623,1800,0,0
406,-776,0,0,0,0,0,0,0,0,0,-1,1630,1800,0,0
413,-776,0,0,0,0,0,0,0,0,0,-1,1637,1800,0,0
420,-776,0,0,0,0,0,0,0,0,0,-1,1644,1800,0,0
427,-776,0,0,0,0,0,0,0,0,0,-1,1651,1800,0,0
434,-776,0,0,0,0,0,0,0,0,0,-1,1658,1800,0,0
441,-776,0,0,0,0,0,0,0,0,0,-1,1665,1800,0,0
448,-776,0,0,0,0,0,0,0,0,0,-1,1672,1800,0,0
455,-776,0,0,0,0,0,0,0,0,0,-1,1679,1800,0,0
462,-776,0,0,0,0,0,0,0,0,0,-1,1686,1800,0,0
469,-776,0,0,0,0,0,0,0,0,0,-1,1693,1800,0,0
476,-776,0,0,0,0,0,0,0,0,0,-1,1700,1800,0,0
483,-776,0,0,0,0,0,0,0,0,0,-1,1707,1800,0,0
490,-776,0,0,0,0,0,0,0,0,0,-1,1714,1800,0,0
497,-776,0,0,0,0,0,0,0,0,0,-1,1721,1800,0,0
504,-776,0,0,0,0,0,0,0,0,0,-1,1728,1800,0,0
511,-776,0,0,0,0,0,0,0,0,0,-1,1735,1800,0,0
518,-776,0,0,0,0,0,0,0,0,0,-1,1742,1800,0,0
525,-776,0,0,0,0,0,0,0,0,0,-1,1749,1800,0,0
532,-776,0,0,0,0,0,0,0,0,0,-1,1756,1800,0,0
539,-776,0,0,0,0,0,0,0,0,0,-1,1763,1800,0,0
546,-776,0,0,0,0,0,0,0,0,0,-1,1770,1800,0,0
553,-776,0,0,0,0,0,0,0,0,0,-1,1777,1800,0,0
560,-776,0,0,0,0,0,0,0,0,0,-1,1784,1800,0,0
567,-776,0,0,0,0,0,0,0,0,0,-1,1791,1800,0,0
574,-776,0,0,0,0,0,0,0,0,0,-1,1798,1800,0,0
581,-776,0,0,0,0,0,0,0,0,0,-1,1805,1800,0,0
588,-776,0,0,0,0,0,0,0,0,0,-1,1812,1800,0,0
595,-776,0,0,0,0,0,0,0,0,0,-1,1819,1800,0,0
602,-776,0,0,0,0,0,0,0,0,0,-1,1826,1800,0,0
609,-776,0,0,0,0,0,0,0,0,0,-1,1833,1800,0,0
616,-776,0,0,0,0,0,0,0,0,0,-1,1840,1800,0,0
623,-776,0,0,0,0,0,0,0,0,0,-1,1847,1800,0,0
630,-776,0,0,0,0,0,0,0,0,0,-1,1854,1800,0,0
637,-776,0,0,0,0,0,0,0,0,0,-1,1861,1800,0,0
644,-776,0,0,0,0,0,0,0,0,0,-1,1868,1800,0,0
651,-776,0,0,0,0,0,0,0,0,0,-1,1875,1800,0,0
658,-776,0,0,0,0,0,0,0,0,0,-1,1882,1800,0,0
665,-776,0,0,0,0,0,0,0,0,0,-1,1889,1800,0,0
672,-776,0,0,0,0,0,0,0,0,0,-1,1896,1800,0,0
679,-776,0,0,0,0,0,0,0,0,0,-1,1903,1800,0,0
686,-776,0,0,0,0,0,0,0,0,0,-1,1910,1800,0,0
693,-776,0,0,0,0,0,0,0,0,0,-1,1917,1800,0,0
700,-776,0,0,0,0,0,0,0,0,0,-1,1924,1800,0,0
707,-776,0,0,0,0,0,0,0,0,0,-1,1931,1800,0,0
714,-776,0,0,0,0,0,0,0,0,0,-1,1938,1800,0,0
721,-776,0,0,0,0,0,0,0,0,0,-1,1945,1800,0,0
728,-776,0,0,0,0,0,0,0,0,0,-1,1952,1800,0,0
735,-776,0,0,0,0,0,0,0,0,0,-1,1959,1800,0,0
742,-776,0,0,0,0,0,0,0,0,0,-1,1966,1800,0,0
749,-776,0,0,0,0,0,0,0,0,0,-1,1973,1800,0,0
756,-776,0,0,0,0,0,0,0,0,0,-1,1980,1800,0,0
763,-776,0,0,0,0,0,0,0,0,0,-1,1987,1800,0,0
770,-776,0,0,0,0,0,0,0,0,0,-1,1994,1800,0,0
777,-776,0,0,0,0,0,0,0,0,0,-1,2001,1800,0,0
784,-776,0,0,0,0,0,0,0,0,0,-1,2008,1800,0,0
791,-776,0,0,0,0,0,0,0,0,0,-1,2015,1800,0,0
798,-776,0,0,0,0,0,0,0,0,0,-1,2022,1800,0,0
805,-776,0,0,0,0,0,0,0,0,0,-1,2029,1800,0,0
812,-776,0,0,0,0,0,0,0,0,0,-1,2036,1800,0,0
-700,-783,0,0,0,0,0,0,0,0,0,-1,524,1807,0,0
-693,-783,0,0,0,0,0,0,0,0,0,-1,531,1807,0,0
-686,-783,0,0,0,0,0,0,0,0,0,-1,538,1807,0,0
-679,-783,0,0,0,0,0,0,0,0,0,-1,545,1807,0,0
-672,-783,0,0,0,0,0,0,0,0,0,-1,552,1807,0,0
-665,-783,0,0,0,0,0,0,0,0,0,-1,559,1807,0,0
-658,-783,0,0,0,0,0,0,0,0,0,-1,566,1807,0,0
-651,-783,0,0,0,0,0,0,0,0,0,-1,573,1807,0,0
-644,-783,0,0,0,0,0,0,0,0,0,-1,580,1807,0,0
-637,-783,0,0,0,0,0,0,0,0,0,-1,587,1807,0,0
-630,-783,0,0,0,0,0,0,0,0,0,-1,594,1807,0,0
-623,-783,0,0,0,0,0,0,0,0,0,-1,601,1807,0,0
-616,-783,0,0,0,0,0,0,0,0,0,-1,608,1807,0,0
-609,-783,0,0,0,0,0,0,0,0,0,-1,615,1807,0,0
-602,-783,0,0,0,0,0,0,0,0,0,-1,622,1807,0,0
-595,-783,0,0,0,0,0,0,0,0,0,-1,629,1807,0,0
-588,-783,0,0,0,0,0,0,0,0,0,-1,636,1807,0,0
-581,-783,0,0,0,0,0,0,0,0,0,-1,643,1807,0,0
-574,-783,0,0,0,0,0,0,0,0,0,-1,650,1807,0,0
-567,-783,0,0,0,0,0,0,0,0,0,-1,657,1807,0,0
-560,-783,0,0,0,0,0,0,0,0,0,-1,664,1807,0,0
-553,-783,0,0,0,0,0,0,0,0,0,-1,671,1807,0,0
-546,-783,0,0,0,0,0,0,0,0,0,-1,678,1807,0,0
-539,-783,0,0,0,0,0,0,0,0,0,-1,685,1807,0,0
-532,-783,0,0,0,0,0,0,0,0,0,-1,692,1807,0,0
-525,-783,0,0,0,0,0,0,0,0,0,-1,699,1807,0,0
-518,-783,0,0,0,0,0,0,0,0,0,-1,706,1807,0,0
-511,-783,0,0,0,0,0,0,0,0,0,-1,713,1807,0,0
-504,-783,0,0,0,0,0,0,0,0,0,-1,720,1807,0,0
-497,-783,0,0,0,0,0,0,0,0,0,-1,727,1807,0,0
-490,-783,0,0,0,0,0,0,0,0,0,-1,734,1807,0,0
-483,-783,0,0,0,0,0,0,0,0,0,-1,741,1807,0,0
-476,-783,0,0,0,0,0,0,0,0,0,-1,748,1807,0,0
-469,-783,0,0,0,0,0,0,0,0,0,-1,755,1807,0,0
-462,-783,0,0,0,0,0,0,0,0,0,-1,762,1807,0,0
-455,-783,0,0,0,0,0,0,0,0,0,-1,769,1807,0,0
-448,-783,0,0,0,0,0,0,0,0,0,-1,776,1807,0,0
-441,-783,0,0,0,0,0,0,0,0,0,-1,783,1807,0,0
-434,-783,0,0,0,0,0,0,0,0,0,-1,790,1807,0,0
-427,-783,0,0,0,0,0,0,0,0,0,-1,797,1807,0,0
-420,-783,0,0,0,0,0,0,0,0,0,-1,804,1807,0,0
-413,-783,0,0,0,0,0,0,0,0,0,-1,811,1807,0,0
-406,-783,0,0,0,0,0,0,0,0,0,-1,818,1807,0,0
-399,-783,0,0,0,0,0,0,0,0,0,-1,825,1807,0,0
-392,-783,0,0,0,0,0,0,0,0,0,-1,832,1807,0,0
-385,-783,0,0,0,0,0,0,0,0,0,-1,839,1807,0,0
-378,-783,0,0,0,0,0,0,0,0,0,-1,846,1807,0,0
-371,-783,0,0,0,0,0,0,0,0,0,-1,853,1807,0,0
-364,-783,0,0,0,0,0,0,0,0,0,-1,860,1807,0,0
-357,-783,0,0,0,0,0,0,0,0,0,-1,867,1807,0,0
-350,-783,0,0,0,0,0,0,0,0,0,-1,874,1807,0,0
-343,-783,0,0,0,0,0,0,0,0,0,-1,881,1807,0,0
-336,-783,0,0,0,0,0,0,0,0,0,-1,888,1807,0,0
-329,-783,0,0,0,0,0,0,0,0,0,-1,895,1807,0,0
-322,-783,0,0,0,0,0,0,0,0,0,-1,902,1807,0,0
-315,-783,0,0,0,0,0,0,0,0,0,-1,909,1807,0,0
-308,-783,0,0,0,0,0,0,0,0,0,-1,916,1807,0,0
-301,-783,0,0,0,0,0,0,0,0,0,-1,923,1807,0,0
-294,-783,0,0,0,0,0,0,0,0,0,-1,930,1807,0,0
-287,-783,0,0,0,0,0,0,0,0,0,-1,937,1807,0,0
-280,-783,0,0,0,0,0,0,0,0,0,-1,944,1807,0,0
-273,-783,0,0,0,0,0,0,0,0,0,-1,951,1807,0,0
-266,-783,0,0,0,0,0,0,0,0,0,-1,958,1807,0,0
-259,-783,0,0,0,0,0,0,0,0,0,-1,965,1807,0,0
-252,-783,0,0,0,0,0,0,0,0,0,-1,972,1807,0,0
-245,-783,0,0,0,0,0,0,0,0,0,-1,979,1807,0,0
-238,-783,0,0,0,0,0,0,0,0,0,-1,986,1807,0,0
-231,-783,0,0,0,0,0,0,0,0,0,-1,993,1807,0,0
-224,-783,0,0,0,0,0,0,0,0,0,-1,1000,1807,0,0
-217,-783,0,0,0,0,0,0,0,0,0,-1,1007,1807,0,0
-210,-783,0,0,0,0,0,0,0,0,0,-1,1014,1807,0,0
-203,-783,0,0,0,0,0,0,0,0,0,-1,1021,1807,0,0
-196,-783,0,0,0,0,0,0,0,0,0,-1,1028,1807,0,0
-189,-783,0,0,0,0,0,0,0,0,0,-1,1035,1807,0,0
-182,-783,0,0,0,0,0,0,0,0,0,-1,1042,1807,0,0
-175,-783,0,0,0,0,0,0,0,0,0,-1,1049,1807,0,0
-168,-783,0,0,0,0,0,0,0,0,0,-1,1056,1807,0,0
-161,-783,0,0,0,0,0,0,0,0,0,-1,1063,1807,0,0
-154,-783,0,0,0,0,0,0,0,0,0,-1,1070,1807,0,0
-147,-783,0,0,0,0,0,0,0,0,0,-1,1077,1807,0,0
-140,-783,0,0,0,0,0,0,0,0,0,-1,1084,1807,0,0
-133,-783,0,0,0,0,0,0,0,0,0,-1,1091,1807,0,0
-126,-783,0,0,0,0,0,0,0,0,0,-1,1098,1807,0,0
-119,-783,0,0,0,0,0,0,0,0,0,-1,1105,1807,0,0
-112,-783,5.33936,14.7699,0,0,0,0,0,0,0,-1,1112,1807,5.33931,-14.7699
-105,-783,4.53088,14.7312,0,0,0,0,0,0,0,-1,1119,1807,4.53083,-14.7312
-98,-783,3.57434,14.3257,0,0,0,0,0,0,0,-1,1126,1807,3.57437,-14.3257
-91,-783,2.78186,14.2633,0,0,0,0,0,0,0,-1,1133,1807,2.78186,-14.2633
-84,-783,-0.0491943,14.5743,0,0,0,0,0,0,0,-1,1140,1807,-0.0491562,-14.5743
-77,-783,0.332764,12.7788,0,0,0,0,0,0,0,-1,1147,1807,0.332743,-12.7788
-70,-783,-1.93176,5.12817,0,0,0,0,0,0,0,-1,1154,1807,-1.93171,-5.12813
-63,-783,-5.31702,10.54,0,0,0,0,0,0,0,-1,1161,1807,-5.31703,-10.54
-56,-783,-6.26135,6.9679,0,0,0,0,0,0,0,-1,1168,1807,-6.26136,-6.96785
-49,-783,-3.17688,4.59705,0,0,0,0,0,0,0,-1,1175,1807,-3.17685,-4.5971
-42,-783,-3.72876,3.1405,0,0,0,0,0,0,0,-1,1182,1807,-3.72874,-3.14055
-35,-783,-3.97046,1.59399,0,0,0,0,0,0,0,-1,1189,1807,-3.97041,-1.59401
-28,-783,-4.12195,0.270386,0,0,0,0,0,0,0,-1,1196,1807,-4.12197,-0.270408
-21,-783,2.98779,16.8228,0,0,0,0,0,0,0,-1,1203,1807,2.98785,-16.8227
-14,-783,3.66199,17.2756,0,0,0,0,0,0,0,-1,1210,1807,3.66193,-17.2756
-7,-783,5.43933,18.2423,0,0,0,0,0,0,0,-1,1217,1807,5.43933,-18.2423
0,-783,5.82031,17.9858,0,0,0,0,0,0,0,-1,1224,1807,5.82032,-17.9858
7,-783,6.62463,18.7194,0,0,0,0,0,0,0,-1,1231,1807,6.62462,-18.7194
14,-783,6.15173,18.8163,0,0,0,0,0,0,0,-1,1238,1807,6.15172,-18.8163
21,-783,5.1908,18.7463,0,0,0,0,0,0,0,-1,1245,1807,5.19078,-18.7463
28,-783,4.85205,18.7136,-0.000184609,0.00983493,0.0183122,0.0238103,-0.01416,0.918919,0.0221569,0.0438028,1252,1807,4.85206,-18.7136
35,-783,4.49707,18.6726,0.00623061,0.0101064,0.0202698,0.0285307,-0.0121937,0.833056,0.0241347,0.046344,1259,1807,4.4971,-18.6726
42,-783,4.18066,18.6669,0.0127223,0.00918599,0.0225427,0.033566,-0.0116577,0.74626,0.027112,0.0488806,1266,1807,4.1807,-18.6668
49,-783,3.87695,18.7067,0,0,0,0,0,0,0,-1,1273,1807,3.87696,-18.7066
56,-783,3.22205,15.7761,0,0,0,0,0,0,0,-1,1280,1807,3.22199,-15.7762
63,-783,4.53503,17.135,0,0,0,0,0,0,0,-1,1287,1807,4.53507,-17.135
70,-783,4.63391,17.9771,0,0,0,0,0,0,0,-1,1294,1807,4.63396,-17.977
77,-783,4.77881,18.3956,0.0229122,-0.000674388,0.0217336,0.0358461,-0.0136082,0.536814,0.029499,0.0498861,1301,1807,4.77885,-18.3956
84,-783,5.09277,18.726,0.0194692,-0.00381516,0.0195325,0.030566,-0.0149119,0.516646,0.0267701,0.048118,1308,1807,5.09277,-18.726
91,-783,5.30701,18.9012,0.0138603,-0.00684498,0.0167689,0.0232149,-0.0161996,0.508851,0.0228758,0.044116,1315,1807,5.30707,-18.9012
98,-783,5.31909,18.8981,0.00411587,-0.00856282,0.0134746,0.0126678,-0.0171148,0.565526,0.0172588,0.0468435,1322,1807,5.31913,-18.8981
105,-783,4.90771,19.0032,0,0,0,0,0,0,0,-1,1329,1807,4.90776,-19.0032
112,-783,4.39197,19.1101,0,0,0,0,0,0,0,-1,1336,1807,4.39202,-19.1101
119,-783,3.94202,19.3312,0,0,0,0,0,0,0,-1,1343,1807,3.94207,-19.3312
126,-783,3.38513,19.5231,0,0,0,0,0,0,0,-1,1350,1807,3.38508,-19.523
133,-783,12.1914,17.1528,0,0,0,0,0,0,0,-1,1357,1807,12.1914,-17.1529
140,-783,2.6543,15.261,0,0,0,0,0,0,0,-1,1364,1807,2.65435,-15.261
147,-783,6.45825,-1.2334,0,0,0,0,0,0,0,-1,1371,1807,6.45822,1.23339
154,-783,6.37024,-0.145874,0,0,0,0,0,0,0,-1,1378,1807,6.37018,0.145866
161,-783,6.57568,1.16174,0,0,0,0,0,0,0,-1,1385,1807,6.57562,-1.1617
168,-783,8.62561,1.79944,0,0,0,0,0,0,0,-1,1392,1807,8.62561,-1.79946
175,-783,8.78699,3.40857,0,0,0,0,0,0,0,-1,1399,1807,8.78697,-3.40854
182,-783,8.70984,5.14661,0,0,0,0,0,0,0,-1,1406,1807,8.70989,-5.14666
189,-783,8.55762,6.79871,0,0,0,0,0,0,0,-1,1413,1807,8.55766,-6.79872
196,-783,8.25488,8.66626,0,0,0,0,0,0,0,-1,1420,1807,8.25492,-8.66628
203,-783,7.86755,10.5735,0,0,0,0,0,0,0,-1,1427,1807,7.8676,-10.5734
210,-783,5.6969,8.99231,0,0,0,0,0,0,0,-1,1434,1807,5.69693,-8.99234
217,-783,5.28503,3.80872,0,0,0,0,0,0,0,-1,1441,1807,5.285,-3.80868
224,-783,3.22571,6.62903,0,0,0,0,0,0,0,-1,1448,1807,3.2257,-6.62907
231,-783,4.27942,4.56262,0,0,0,0,0,0,0,-1,1455,1807,4.27948,-4.56267
238,-783,0,0,0,0,0,0,0,0,0,-1,1462,1807,0,0
245,-783,0,0,0,0,0,0,0,0,0,-1,1469,1807,0,0
252,-783,0,0,0,0,0,0,0,0,0,-1,1476,1807,0,0
259,-783,0,0,0,0,0,0,0,0,0,-1,1483,1807,0,0
266,-783,0,0,0,0,0,0,0,0,0,-1,1490,1807,0,0
273,-783,0,0,0,0,0,0,0,0,0,-1,1497,1807,0,0
280,-783,0,0,0,0,0,0,0,0,0,-1,1504,1807,0,0
287,-783,0,0,0,0,0,0,0,0,0,-1,1511,1807,0,0
294,-783,0,0,0,0,0,0,0,0,0,-1,1518,1807,0,0
301,-783,0,0,0,0,0,0,0,0,0,-1,1525,1807,0,0
308,-783,0,0,0,0,0,0,0,0,0,-1,1532,1807,0,0
315,-783,0,0,0,0,0,0,0,0,0,-1,1539,1807,0,0
322,-783,0,0,0,0,0,0,0,0,0,-1,1546,1807,0,0
329,-783,0,0,0,0,0,0,0,0,0,-1,1553,1807,0,0
336,-783,0,0,0,0,0,0,0,0,0,-1,1560,1807,0,0
343,-783,0,0,0,0,0,0,0,0,0,-1,1567,1807,0,0
350,-783,0,0,0,0,0,0,0,0,0,-1,1574,1807,0,0
357,-783,0,0,0,0,0,0,0,0,0,-1,1581,1807,0,0
364,-783,0,0,0,0,0,0,0,0,0,-1,1588,1807,0,0
371,-783,0,0,0,0,0,0,0,0,0,-1,1595,1807,0,0
378,-783,0,0,0,0,0,0,0,0,0,-1,1602,1807,0,0
385,-783,0,0,0,0,0,0,0,0,0,-1,1609,1807,0,0
392,-783,0,0,0,0,0,0,0,0,0,-1,1616,1807,0,0
399,-783,0,0,0,0,0,0,0,0,0,-1,1623,1807,0,0
406,-783,0,0,0,0,0,0,0,0,0,-1,1630,1807,0,0
413,-783,0,0,0,0,0,0,0,0,0,-1,1637,1807,0,0
420,-783,0,0,0,0,0,0,0,0,0,-1,1644,1807,0,0
427,-783,0,0,0,0,0,0,0,0,0,-1,1651,1807,0,0
434,-783,0,0,0,0,0,0,0,0,0,-1,1658,1807,0,0
441,-783,0,0,0,0,0,0,0,0,0,-1,1665,1807,0,0
448,-783,0,0,0,0,0,0,0,0,0,-1,1672,1807,0,0
455,-783,0,0,0,0,0,0,0,0,0,-1,1679,1807,0,0
462,-783,0,0,0,0,0,0,0,0,0,-1,1686,1807,0,0
469,-783,0,0,0,0,0,0,0,0,0,-1,1693,1807,0,0
476,-783,0,0,0,0,0,0,0,0,0,-1,1700,1807,0,0
483,-783,0,0,0,0,0,0,0,0,0,-1,1707,1807,0,0
490,-783,0,0,0,0,0,0,0,0,0,-1,1714,1807,0,0
497,-783,0,0,0,0,0,0,0,0,0,-1,1721,1807,0,0
504,-783,0,0,0,0,0,0,0,0,0,-1,1728,1807,0,0
511,-783,0,0,0,0,0,0,0,0,0,-1,1735,1807,0,0
518,-783,0,0,0,0,0,0,0,0,0,-1,1742,1807,0,0
525,-783,0,0,0,0,0,0,0,0,0,-1,1749,1807,0,0
532,-783,0,0,0,0,0,0,0,0,0,-1,1756,1807,0,0
539,-783,0,0,0,0,0,0,0,0,0,-1,1763,1807,0,0
546,-783,0,0,0,0,0,0,0,0,0,-1,1770,1807,0,0
553,-783,0,0,0,0,0,0,0,0,0,-1,1777,1807,0,0
560,-783,0,0,0,0,0,0,0,0,0,-1,1784,1807,0,0
567,-783,0,0,0,0,0,0,0,0,0,-1,1791,1807,0,0
574,-783,0,0,0,0,0,0,0,0,0,-1,1798,1807,0,0
581,-783,0,0,0,0,0,0,0,0,0,-1,1805,1807,0,0
588,-783,0,0,0,0,0,0,0,0,0,-1,1812,1807,0,0
595,-783,0,0,0,0,0,0,0,0,0,-1,1819,1807,0,0
602,-783,0,0,0,0,0,0,0,0,0,-1,1826,1807,0,0
609,-783,0,0,0,0,0,0,0,0,0,-1,1833,1807,0,0
616,-783,0,0,0,0,0,0,0,0,0,-1,1840,1807,0,0
623,-783,0,0,0,0,0,0,0,0,0,-1,1847,1807,0,0
630,-783,0,0,0,0,0,0,0,0,0,-1,1854,1807,0,0
637,-783,0,0,0,0,0,0,0,0,0,-1,1861,1807,0,0
644,-783,0,0,0,0,0,0,0,0,0,-1,1868,1807,0,0
651,-783,0,0,0,0,0,0,0,0,0,-1,1875,1807,0,0
658,-783,0,0,0,0,0,0,0,0,0,-1,1882,1807,0,0
665,-783,0,0,0,0,0,0,0,0,0,-1,1889,1807,0,0
672,-783,0,0,0,0,0,0,0,0,0,-1,1896,1807,0,0
679,-783,0,0,0,0,0,0,0,0,0,-1,1903,1807,0,0
686,-783,0,0,0,0,0,0,0,0,0,-1,1910,1807,0,0
693,-783,0,0,0,0,0,0,0,0,0,-1,1917,1807,0,0
700,-783,0,0,0,0,0,0,0,0,0,-1,1924,1807,0,0
707,-783,0,0,0,0,0,0,0,0,0,-1,1931,1807,0,0
714,-783,0,0,0,0,0,0,0,0,0,-1,1938,1807,0,0
721,-783,0,0,0,0,0,0,0,0,0,-1,1945,1807,0,0
728,-783,0,0,0,0,0,0,0,0,0,-1,1952,1807,0,0
735,-783,0,0,0,0,0,0,0,0,0,-1,1959,1807,0,0
742,-783,0,0,0,0,0,0,0,0,0,-1,1966,1807,0,0
749,-783,0,0,0,0,0,0,0,0,0,-1,1973,1807,0,0
756,-783,0,0,0,0,0,0,0,0,0,-1,1980,1807,0,0
763,-783,0,0,0,0,0,0,0,0,0,-1,1987,1807,0,0
770,-783,0,0,0,0,0,0,0,0,0,-1,1994,1807,0,0
777,-783,0,0,0,0,0,0,0,0,0,-1,2001,1807,0,0
784,-783,0,0,0,0,0,0,0,0,0,-1,2008,1807,0,0
791,-783,0,0,0,0,0,0,0,0,0,-1,2015,1807,0,0
798,-783,0,0,0,0,0,0,0,0,0,-1,2022,1807,0,0
805,-783,0,0,0,0,0,0,0,0,0,-1,2029,1807,0,0
812,-783,0,0,0,0,0,0,0,0,0,-1,2036,1807,0,0
-700,-790,0,0,0,0,0,0,0,0,0,-1,524,1814,0,0
-693,-790,0,0,0,0,0,0,0,0,0,-1,531,1814,0,0
-686,-790,0,0,0,0,0,0,0,0,0,-1,538,1814,0,0
-679,-790,0,0,0,0,0,0,0,0,0,-1,545,1814,0,0
-672,-790,0,0,0,0,0,0,0,0,0,-1,552,1814,0,0
-665,-790,0,0,0,0,0,0,0,0,0,-1,559,1814,0,0
-658,-790,0,0,0,0,0,0,0,0,0,-1,566,1814,0,0
-651,-790,0,0,0,0,0,0,0,0,0,-1,573,1814,0,0
-644,-790,0,0,0,0,0,0,0,0,0,-1,580,1814,0,0
-637,-790,0,0,0,0,0,0,0,0,0,-1,587,1814,0,0
-630,-790,0,0,0,0,0,0,0,0,0,-1,594,1814,0,0
-623,-790,0,0,0,0,0,0,0,0,0,-1,601,1814,0,0
-616,-790,0,0,0,0,0,0,0,0,0,-1,608,1814,0,0
-609,-790,0,0,0,0,0,0,0,0,0,-1,615,1814,0,0
-602,-790,0,0,0,0,0,0,0,0,0,-1,622,1814,0,0
-595,-790,0,0,0,0,0,0,0,0,0,-1,629,1814,0,0
-588,-790,0,0,0,0,0,0,0,0,0,-1,636,1814,0,0
-581,-790,0,0,0,0,0,0,0,0,0,-1,643,1814,0,0
-574,-790,0,0,0,0,0,0,0,0,0,-1,650,1814,0,0
-567,-790,0,0,0,0,0,0,0,0,0,-1,657,1814,0,0
-560,-790,0,0,0,0,0,0,0,0,0,-1,664,1814,0,0
-553,-790,0,0,0,0,0,0,0,0,0,-1,671,1814,0,0
-546,-790,0,0,0,0,0,0,0,0,0,-1,678,1814,0,0
-539,-790,0,0,0,0,0,0,0,0,0,-1,685,1814,0,0
-532,-790,0,0,0,0,0,0,0,0,0,-1,692,1814,0,0
-525,-790,0,0,0,0,0,0,0,0,0,-1,699,1814,0,0
-518,-790,0,0,0,0,0,0,0,0,0,-1,706,1814,0,0
-511,-790,0,0,0,0,0,0,0,0,0,-1,713,1814,0,0
-504,-790,0,0,0,0,0,0,0,0,0,-1,720,1814,0,0
-497,-790,0,0,0,0,0,0,0,0,0,-1,727,1814,0,0
-490,-790,0,0,0,0,0,0,0,0,0,-1,734,1814,0,0
-483,-790,0,0,0,0,0,0,0,0,0,-1,741,1814,0,0
-476,-790,0,0,0,0,0,0,0,0,0,-1,748,1814,0,0
-469,-790,0,0,0,0,0,0,0,0,0,-1,755,1814,0,0
-462,-790,0,0,0,0,0,0,0,0,0,-1,762,1814,0,0
-455,-790,0,0,0,0,0,0,0,0,0,-1,769,1814,0,0
-448,-790,0,0,0,0,0,0,0,0,0,-1,776,1814,0,0
-441,-790,0,0,0,0,0,0,0,0,0,-1,783,1814,0,0
-434,-790,0,0,0,0,0,0,0,0,0,-1,790,1814,0,0
-427,-790,0,0,0,0,0,0,0,0,0,-1,797,1814,0,0
-420,-790,0,0,0,0,0,0,0,0,0,-1,804,1814,0,0
-413,-790,0,0,0,0,0,0,0,0,0,-1,811,1814,0,0
-406,-790,0,0,0,0,0,0,0,0,0,-1,818,1814,0,0
-399,-790,0,0,0,0,0,0,0,0,0,-1,825,1814,0,0
-392,-790,0,0,0,0,0,0,0,0,0,-1,832,1814,0,0
-385,-790,0,0,0,0,0,0,0,0,0,-1,839,1814,0,0
-378,-790,0,0,0,0,0,0,0,0,0,-1,846,1814,0,0
-371,-790,0,0,0,0,0,0,0,0,0,-1,853,1814,0,0
-364,-790,0,0,0,0,0,0,0,0,0,-1,860,1814,0,0
-357,-790,0,0,0,0,0,0,0,0,0,-1,867,1814,0,0
-350,-790,0,0,0,0,0,0,0,0,0,-1,874,1814,0,0
-343,-790,0,0,0,0,0,0,0,0,0,-1,881,1814,0,0
-336,-790,0,0,0,0,0,0,0,0,0,-1,888,1814,0,0
-329,-790,0,0,0,0,0,0,0,0,0,-1,895,1814,0,0
-322,-790,0,0,0,0,0,0,0,0,0,-1,902,1814,0,0
-315,-790,0,0,0,0,0,0,0,0,0,-1,909,1814,0,0
-308,-790,0,0,0,0,0,0,0,0,0,-1,916,1814,0,0
-301,-790,0,0,0,0,0,0,0,0,0,-1,923,1814,0,0
-294,-790,0,0,0,0,0,0,0,0,0,-1,930,1814,0,0
-287,-790,0,0,0,0,0,0,0,0,0,-1,937,1814,0,0
-280,-790,0,0,0,0,0,0,0,0,0,-1,944,1814,0,0
-273,-790,0,0,0,0,0,0,0,0,0,-1,951,1814,0,0
-266,-790,0,0,0,0,0,0,0,0,0,-1,958,1814,0,0
-259,-790,0,0,0,0,0,0,0,0,0,-1,965,1814,0,0
-252,-790,0,0,0,0,0,0,0,0,0,-1,972,1814,0,0
-245,-790,0,0,0,0,0,0,0,0,0,-1,979,1814,0,0
-238,-790,0,0,0,0,0,0,0,0,0,-1,986,1814,0,0
-231,-790,0,0,0,0,0,0,0,0,0,-1,993,1814,0,0
-224,-790,0,0,0,0,0,0,0,0,0,-1,1000,1814,0,0
-217,-790,0,0,0,0,0,0,0,0,0,-1,1007,1814,0,0
-210,-790,0,0,0,0,0,0,0,0,0,-1,1014,1814,0,0
-203,-790,0,0,0,0,0,0,0,0,0,-1,1021,1814,0,0
-196,-790,0,0,0,0,0,0,0,0,0,-1,1028,1814,0,0
-189,-790,0,0,0,0,0,0,0,0,0,-1,1035,1814,0,0
-182,-790,0,0,0,0,0,0,0,0,0,-1,1042,1814,0,0
-175,-790,0,0,0,0,0,0,0,0,0,-1,1049,1814,0,0
-168,-790,0,0,0,0,0,0,0,0,0,-1,1056,1814,0,0
-161,-790,0,0,0,0,0,0,0,0,0,-1,1063,1814,0,0
-154,-790,0,0,0,0,0,0,0,0,0,-1,1070,1814,0,0
-147,-790,0,0,0,0,0,0,0,0,0,-1,1077,1814,0,0
-140,-790,0,0,0,0,0,0,0,0,0,-1,1084,1814,0,0
-133,-790,0,0,0,0,0,0,0,0,0,-1,1091,1814,0,0
-126,-790,0,0,0,0,0,0,0,0,0,-1,1098,1814,0,0
-119,-790,0,0,0,0,0,0,0,0,0,-1,1105,1814,0,0
-112,-790,0,0,0,0,0,0,0,0,0,-1,1112,1814,0,0
-105,-790,0,0,0,0,0,0,0,0,0,-1,1119,1814,0,0
-98,-790,0,0,0,0,0,0,0,0,0,-1,1126,1814,0,0
-91,-790,0,0,0,0,0,0,0,0,0,-1,1133,1814,0,0
-84,-790,0,0,0,0,0,0,0,0,0,-1,1140,1814,0,0
-77,-790,-0.969238,5.30847,0,0,0,0,0,0,0,-1,1147,1814,-0.969277,-5.3085
-70,-790,-1.23169,4.98914,0,0,0,0,0,0,0,-1,1154,1814,-1.23163,-4.98916
-63,-790,-1.69128,4.32263,0,0,0,0,0,0,0,-1,1161,1814,-1.69128,-4.32258
-56,-790,-2.24756,3.75305,0,0,0,0,0,0,0,-1,1168,1814,-2.24758,-3.75302
-49,-790,-3.11011,3.35779,0,0,0,0,0,0,0,-1,1175,1814,-3.11006,-3.35781
-42,-790,0.593262,1.19165,0,0,0,0,0,0,0,-1,1182,1814,0.593225,-1.19165
-35,-790,0.307129,-0.20105,0,0,0,0,0,0,0,-1,1189,1814,0.307178,0.201006
-28,-790,-2.78467,0.785156,0,0,0,0,0,0,0,-1,1196,1814,-2.78471,-0.785183
-21,-790,2.9093,17.2449,0,0,0,0,0,0,0,-1,1203,1814,2.90935,-17.2448
-14,-790,3.65833,17.6661,0,0,0,0,0,0,0,-1,1210,1814,3.65837,-17.6661
-7,-790,5.9342,16.9469,0,0,0,0,0,0,0,-1,1217,1814,5.93418,-16.9469
0,-790,6.36719,18.1678,0,0,0,0,0,0,0,-1,1224,1814,6.36724,-18.1679
7,-790,7.05615,19.1206,0,0,0,0,0,0,0,-1,1231,1814,7.05615,-19.1206
14,-790,4.72742,18.5172,0,0,0,0,0,0,0,-1,1238,1814,4.72739,-18.5172
21,-790,4.68567,18.391,-0.00579424,0.0157974,0.0204507,0.0281269,-0.0181237,1.02826,0.0269102,0.0462609,1245,1814,4.68571,-18.391
28,-790,4.53772,18.4106,0.000363994,0.014597,0.0237585,0.0322819,-0.0173209,0.930913,0.0290692,0.0427639,1252,1814,4.53771,-18.4107
35,-790,4.30408,18.4268,0.00912322,0.0143928,0.02586,0.0377519,-0.0142359,0.836166,0.0310219,0.0455287,1259,1814,4.30414,-18.4268
42,-790,4.06689,18.5726,0.0183108,0.0128841,0.0285685,0.0442945,-0.0130996,0.738052,0.0347297,0.0454722,1266,1814,4.06689,-18.5726
49,-790,3.78723,18.6788,0,0,0,0,0,0,0,-1,1273,1814,3.78718,-18.6789
56,-790,3.16663,16.6676,0,0,0,0,0,0,0,-1,1280,1814,3.16666,-16.6676
63,-790,3.85974,17.4055,0.0361672,0.00563605,0.0304617,0.0549743,-0.0131711,0.553118,0.0417385,0.0432741,1287,1814,3.85973,-17.4055
70,-790,4.58069,17.9512,0.035407,0.00248337,0.0285389,0.0518916,-0.0140012,0.523798,0.040085,0.0424278,1294,1814,4.58065,-17.9512
77,-790,4.7146,18.5239,0.0338515,-0.000596038,0.0262075,0.0479884,-0.0147329,0.494685,0.0378709,0.0440745,1301,1814,4.71463,-18.5239
84,-790,4.70667,18.9229,0.0291664,-0.0043469,0.0231823,0.041014,-0.0161945,0.472459,0.0340497,0.0450004,1308,1814,4.70662,-18.9228
91,-790,5.15356,19.1848,0,0,0,0,0,0,0,-1,1315,1814,5.15352,-19.1848
98,-790,5.18164,19.0868,0,0,0,0,0,0,0,-1,1322,1814,5.1817,-19.0868
105,-790,5.08069,19.2179,0,0,0,0,0,0,0,-1,1329,1814,5.08066,-19.2179
112,-790,4.83313,19.3969,-0.022672,-0.01085,0.00622193,-0.0081789,-0.0253431,1.16529,0.0149353,0.0497229,1336,1814,4.8331,-19.3968
119,-790,4.11743,19.6055,-0.0389941,-0.00895335,0.00176382,-0.00885014,-0.0390973,1.51235,0.0236728,0.0462279,1343,1814,4.11742,-19.6055
126,-790,3.39856,19.806,0,0,0,0,0,0,0,-1,1350,1814,3.39854,-19.806
133,-790,13.4103,16.7009,0,0,0,0,0,0,0,-1,1357,1814,13.4103,-16.7009
140,-790,14.5533,16.6292,0,0,0,0,0,0,0,-1,1364,1814,14.5533,-16.6291
147,-790,3.4906,13.9751,0,0,0,0,0,0,0,-1,1371,1814,3.49064,-13.9751
154,-790,6.34485,-0.540405,0,0,0,0,0,0,0,-1,1378,1814,6.34482,0.540409
161,-790,6.62683,1.1134,0,0,0,0,0,0,0,-1,1385,1814,6.62682,-1.11344
168,-790,7.04077,2.23279,0,0,0,0,0,0,0,-1,1392,1814,7.04082,-2.23275
175,-790,9.03918,3.98535,0,0,0,0,0,0,0,-1,1399,1814,9.0392,-3.98535
182,-790,8.96997,5.67896,0,0,0,0,0,0,0,-1,1406,1814,8.97001,-5.6789
189,-790,8.59729,6.86975,0,0,0,0,0,0,0,-1,1413,1814,8.59728,-6.86972
196,-790,8.21924,9.29053,0,0,0,0,0,0,0,-1,1420,1814,8.21924,-9.29048
203,-790,0,0,0,0,0,0,0,0,0,-1,1427,1814,0,0
210,-790,0,0,0,0,0,0,0,0,0,-1,1434,1814,0,0
217,-790,0,0,0,0,0,0,0,0,0,-1,1441,1814,0,0
224,-790,0,0,0,0,0,0,0,0,0,-1,1448,1814,0,0
231,-790,0,0,0,0,0,0,0,0,0,-1,1455,1814,0,0
238,-790,0,0,0,0,0,0,0,0,0,-1,1462,1814,0,0
245,-790,0,0,0,0,0,0,0,0,0,-1,1469,1814,0,0
252,-790,0,0,0,0,0,0,0,0,0,-1,1476,1814,0,0
259,-790,0,0,0,0,0,0,0,0,0,-1,1483,1814,0,0
266,-790,0,0,0,0,0,0,0,0,0,-1,1490,1814,0,0
273,-790,0,0,0,0,0,0,0,0,0,-1,1497,1814,0,0
280,-790,0,0,0,0,0,0,0,0,0,-1,1504,1814,0,0
287,-790,0,0,0,0,0,0,0,0,0,-1,1511,1814,0,0
294,-790,0,0,0,0,0,0,0,0,0,-1,1518,1814,0,0
301,-790,0,0,0,0,0,0,0,0,0,-1,1525,1814,0,0
308,-790,0,0,0,0,0,0,0,0,0,-1,1532,1814,0,0
315,-790,0,0,0,0,0,0,0,0,0,-1,1539,1814,0,0
322,-790,0,0,0,0,0,0,0,0,0,-1,1546,1814,0,0
329,-790,0,0,0,0,0,0,0,0,0,-1,1553,1814,0,0
336,-790,0,0,0,0,0,0,0,0,0,-1,1560,1814,0,0
343,-790,0,0,0,0,0,0,0,0,0,-1,1567,1814,0,0
350,-790,0,0,0,0,0,0,0,0,0,-1,1574,1814,0,0
357,-790,0,0,0,0,0,0,0,0,0,-1,1581,1814,0,0
364,-790,0,0,0,0,0,0,0,0,0,-1,1588,1814,0,0
371,-790,0,0,0,0,0,0,0,0,0,-1,1595,1814,0,0
378,-790,0,0,0,0,0,0,0,0,0,-1,1602,1814,0,0
385,-790,0,0,0,0,0,0,0,0,0,-1,1609,1814,0,0
392,-790,0,0,0,0,0,0,0,0,0,-1,1616,1814,0,0
399,-790,0,0,0,0,0,0,0,0,0,-1,1623,1814,0,0
406,-790,0,0,0,0,0,0,0,0,0,-1,1630,1814,0,0
413,-790,0,0,0,0,0,0,0,0,0,-1,1637,1814,0,0
420,-790,0,0,0,0,0,0,0,0,0,-1,1644,1814,0,0
427,-790,0,0,0,0,0,0,0,0,0,-1,1651,1814,0,0
434,-790,0,0,0,0,0,0,0,0,0,-1,1658,1814,0,0
441,-790,0,0,0,0,0,0,0,0,0,-1,1665,1814,0,0
448,-790,0,0,0,0,0,0,0,0,0,-1,1672,1814,0,0
455,-790,0,0,0,0,0,0,0,0,0,-1,1679,1814,0,0
462,-790,0,0,0,0,0,0,0,0,0,-1,1686,1814,0,0
469,-790,0,0,0,0,0,0,0,0,0,-1,1693,1814,0,0
476,-790,0,0,0,0,0,0,0,0,0,-1,1700,1814,0,0
483,-790,0,0,0,0,0,0,0,0,0,-1,1707,1814,0,0
490,-790,0,0,0,0,0,0,0,0,0,-1,1714,1814,0,0
497,-790,0,0,0,0,0,0,0,0,0,-1,1721,1814,0,0
504,-790,0,0,0,0,0,0,0,0,0,-1,1728,1814,0,0
511,-790,0,0,0,0,0,0,0,0,0,-1,1735,1814,0,0
518,-790,0,0,0,0,0,0,0,0,0,-1,1742,1814,0,0
525,-790,0,0,0,0,0,0,0,0,0,-1,1749,1814,0,0
532,-790,0,0,0,0,0,0,0,0,0,-1,1756,1814,0,0
539,-790,0,0,0,0,0,0,0,0,0,-1,1763,1814,0,0
546,-790,0,0,0,0,0,0,0,0,0,-1,1770,1814,0,0
553,-790,0,0,0,0,0,0,0,0,0,-1,1777,1814,0,0
560,-790,0,0,0,0,0,0,0,0,0,-1,1784,1814,0,0
567,-790,0,0,0,0,0,0,0,0,0,-1,1791,1814,0,0
574,-790,0,0,0,0,0,0,0,0,0,-1,1798,1814,0,0
581,-790,0,0,0,0,0,0,0,0,0,-1,1805,1814,0,0
588,-790,0,0,0,0,0,0,0,0,0,-1,1812,1814,0,0
595,-790,0,0,0,0,0,0,0,0,0,-1,1819,1814,0,0
602,-790,0,0,0,0,0,0,0,0,0,-1,1826,1814,0,0
609,-790,0,0,0,0,0,0,0,0,0,-1,1833,1814,0,0
616,-790,0,0,0,0,0,0,0,0,0,-1,1840,1814,0,0
623,-790,0,0,0,0,0,0,0,0,0,-1,1847,1814,0,0
630,-790,0,0,0,0,0,0,0,0,0,-1,1854,1814,0,0
637,-790,0,0,0,0,0,0,0,0,0,-1,1861,1814,0,0
644,-790,0,0,0,0,0,0,0,0,0,-1,1868,1814,0,0
651,-790,0,0,0,0,0,0,0,0,0,-1,1875,1814,0,0
658,-790,0,0,0,0,0,0,0,0,0,-1,1882,1814,0,0
665,-790,0,0,0,0,0,0,0,0,0,-1,1889,1814,0,0
672,-790,0,0,0,0,0,0,0,0,0,-1,1896,1814,0,0
679,-790,0,0,0,0,0,0,0,0,0,-1,1903,1814,0,0
686,-790,0,0,0,0,0,0,0,0,0,-1,1910,1814,0,0
693,-790,0,0,0,0,0,0,0,0,0,-1,1917,1814,0,0
700,-790,0,0,0,0,0,0,0,0,0,-1,1924,1814,0,0
707,-790,0,0,0,0,0,0,0,0,0,-1,1931,1814,0,0
714,-790,0,0,0,0,0,0,0,0,0,-1,1938,1814,0,0
721,-790,0,0,0,0,0,0,0,0,0,-1,1945,1814,0,0
728,-790,0,0,0,0,0,0,0,0,0,-1,1952,1814,0,0
735,-790,0,0,0,0,0,0,0,0,0,-1,1959,1814,0,0
742,-790,0,0,0,0,0,0,0,0,0,-1,1966,1814,0,0
749,-790,0,0,0,0,0,0,0,0,0,-1,1973,1814,0,0
756,-790,0,0,0,0,0,0,0,0,0,-1,1980,1814,0,0
763,-790,0,0,0,0,0,0,0,0,0,-1,1987,1814,0,0
770,-790,0,0,0,0,0,0,0,0,0,-1,1994,1814,0,0
777,-790,0,0,0,0,0,0,0,0,0,-1,2001,1814,0,0
784,-790,0,0,0,0,0,0,0,0,0,-1,2008,1814,0,0
791,-790,0,0,0,0,0,0,0,0,0,-1,2015,1814,0,0
798,-790,0,0,0,0,0,0,0,0,0,-1,2022,1814,0,0
805,-790,0,0,0,0,0,0,0,0,0,-1,2029,1814,0,0
812,-790,0,0,0,0,0,0,0,0,0,-1,2036,1814,0,0
-700,-797,0,0,0,0,0,0,0,0,0,-1,524,1821,0,0
-693,-797,0,0,0,0,0,0,0,0,0,-1,531,1821,0,0
-686,-797,0,0,0,0,0,0,0,0,0,-1,538,1821,0,0
-679,-797,0,0,0,0,0,0,0,0,0,-1,545,1821,0,0
-672,-797,0,0,0,0,0,0,0,0,0,-1,552,1821,0,0
-665,-797,0,0,0,0,0,0,0,0,0,-1,559,1821,0,0
-658,-797,0,0,0,0,0,0,0,0,0,-1,566,1821,0,0
-651,-797,0,0,0,0,0,0,0,0,0,-1,573,1821,0,0
-644,-797,0,0,0,0,0,0,0,0,0,-1,580,1821,0,0
-637,-797,0,0,0,0,0,0,0,0,0,-1,587,1821,0,0
-630,-797,0,0,0,0,0,0,0,0,0,-1,594,1821,0,0
-623,-797,0,0,0,0,0,0,0,0,0,-1,601,1821,0,0
-616,-797,0,0,0,0,0,0,0,0,0,-1,608,1821,0,0
-609,-797,0,0,0,0,0,0,0,0,0,-1,615,1821,0,0
-602,-797,0,0,0,0,0,0,0,0,0,-1,622,1821,0,0
-595,-797,0,0,0,0,0,0,0,0,0,-1,629,1821,0,0
-588,-797,0,0,0,0,0,0,0,0,0,-1,636,1821,0,0
-581,-797,0,0,0,0,0,0,0,0,0,-1,643,1821,0,0
-574,-797,0,0,0,0,0,0,0,0,0,-1,650,1821,0,0
-567,-797,0,0,0,0,0,0,0,0,0,-1,657,1821,0,0
-560,-797,0,0,0,0,0,0,0,0,0,-1,664,1821,0,0
-553,-797,0,0,0,0,0,0,0,0,0,-1,671,1821,0,0
-546,-797,0,0,0,0,0,0,0,0,0,-1,678,1821,0,0
-539,-797,0,0,0,0,0,0,0,0,0,-1,685,1821,0,0
-532,-797,0,0,0,0,0,0,0,0,0,-1,692,1821,0,0
-525,-797,0,0,0,0,0,0,0,0,0,-1,699,1821,0,0
-518,-797,0,0,0,0,0,0,0,0,0,-1,706,1821,0,0
-511,-797,0,0,0,0,0,0,0,0,0,-1,713,1821,0,0
-504,-797,0,0,0,0,0,0,0,0,0,-1,720,1821,0,0
-497,-797,0,0,0,0,0,0,0,0,0,-1,727,1821,0,0
-490,-797,0,0,0,0,0,0,0,0,0,-1,734,1821,0,0
-483,-797,0,0,0,0,0,0,0,0,0,-1,741,1821,0,0
-476,-797,0,0,0,0,0,0,0,0,0,-1,748,1821,0,0
-469,-797,0,0,0,0,0,0,0,0,0,-1,755,1821,0,0
-462,-797,0,0,0,0,0,0,0,0,0,-1,762,1821,0,0
-455,-797,0,0,0,0,0,0,0,0,0,-1,769,1821,0,0
-448,-797,0,0,0,0,0,0,0,0,0,-1,776,1821,0,0
-441,-797,0,0,0,0,0,0,0,0,0,-1,783,1821,0,0
-434,-797,0,0,0,0,0,0,0,0,0,-1,790,1821,0,0
-427,-797,0,0,0,0,0,0,0,0,0,-1,797,1821,0,0
-420,-797,0,0,0,0,0,0,0,0,0,-1,804,1821,0,0
-413,-797,0,0,0,0,0,0,0,0,0,-1,811,1821,0,0
-406,-797,0,0,0,0,0,0,0,0,0,-1,818,1821,0,0
-399,-797,0,0,0,0,0,0,0,0,0,-1,825,1821,0,0
-392,-797,0,0,0,0,0,0,0,0,0,-1,832,1821,0,0
-385,-797,0,0,0,0,0,0,0,0,0,-1,839,1821,0,0
-378,-797,0,0,0,0,0,0,0,0,0,-1,846,1821,0,0
-371,-797,0,0,0,0,0,0,0,0,0,-1,853,1821,0,0
-364,-797,0,0,0,0,0,0,0,0,0,-1,860,1821,0,0
-357,-797,0,0,0,0,0,0,0,0,0,-1,867,1821,0,0
-350,-797,0,0,0,0,0,0,0,0,0,-1,874,1821,0,0
-343,-797,0,0,0,0,0,0,0,0,0,-1,881,1821,0,0
-336,-797,0,0,0,0,0,0,0,0,0,-1,888,1821,0,0
-329,-797,0,0,0,0,0,0,0,0,0,-1,895,1821,0,0
-322,-797,0,0,0,0,0,0,0,0,0,-1,902,1821,0,0
-315,-797,0,0,0,0,0,0,0,0,0,-1,909,1821,0,0
-308,-797,0,0,0,0,0,0,0,0,0,-1,916,1821,0,0
-301,-797,0,0,0,0,0,0,0,0,0,-1,923,1821,0,0
-294,-797,0,0,0,0,0,0,0,0,0,-1,930,1821,0,0
-287,-797,0,0,0,0,0,0,0,0,0,-1,937,1821,0,0
-280,-797,0,0,0,0,0,0,0,0,0,-1,944,1821,0,0
-273,-797,0,0,0,0,0,0,0,0,0,-1,951,1821,0,0
-266,-797,0,0,0,0,0,0,0,0,0,-1,958,1821,0,0
-259,-797,0,0,0,0,0,0,0,0,0,-1,965,1821,0,0
-252,-797,0,0,0,0,0,0,0,0,0,-1,972,1821,0,0
-245,-797,0,0,0,0,0,0,0,0,0,-1,979,1821,0,0
-238,-797,0,0,0,0,0,0,0,0,0,-1,986,1821,0,0
-231,-797,0,0,0,0,0,0,0,0,0,-1,993,1821,0,0
-224,-797,0,0,0,0,0,0,0,0,0,-1,1000,1821,0,0
-217,-797,0,0,0,0,0,0,0,0,0,-1,1007,1821,0,0
-210,-797,0,0,0,0,0,0,0,0,0,-1,1014,1821,0,0
-203,-797,0,0,0,0,0,0,0,0,0,-1,1021,1821,0,0
-196,-797,0,0,0,0,0,0,0,0,0,-1,1028,1821,0,0
-189,-797,0,0,0,0,0,0,0,0,0,-1,1035,1821,0,0
-182,-797,0,0,0,0,0,0,0,0,0,-1,1042,1821,0,0
-175,-797,0,0,0,0,0,0,0,0,0,-1,1049,1821,0,0
-168,-797,0,0,0,0,0,0,0,0,0,-1,1056,1821,0,0
-161,-797,0,0,0,0,0,0,0,0,0,-1,1063,1821,0,0
-154,-797,0,0,0,0,0,0,0,0,0,-1,1070,1821,0,0
-147,-797,0,0,0,0,0,0,0,0,0,-1,1077,1821,0,0
-140,-797,0,0,0,0,0,0,0,0,0,-1,1084,1821,0,0
-133,-797,0,0,0,0,0,0,0,0,0,-1,1091,1821,0,0
-126,-797,0,0,0,0,0,0,0,0,0,-1,1098,1821,0,0
-119,-797,0,0,0,0,0,0,0,0,0,-1,1105,1821,0,0
-112,-797,0,0,0,0,0,0,0,0,0,-1,1112,1821,0,0
-105,-797,0,0,0,0,0,0,0,0,0,-1,1119,1821,0,0
-98,-797,0,0,0,0,0,0,0,0,0,-1,1126,1821,0,0
-91,-797,0,0,0,0,0,0,0,0,0,-1,1133,1821,0,0
-84,-797,0,0,0,0,0,0,0,0,0,-1,1140,1821,0,0
-77,-797,0,0,0,0,0,0,0,0,0,-1,1147,1821,0,0
-70,-797,0,0,0,0,0,0,0,0,0,-1,1154,1821,0,0
-63,-797,0,0,0,0,0,0,0,0,0,-1,1161,1821,0,0
-56,-797,0,0,0,0,0,0,0,0,0,-1,1168,1821,0,0
-49,-797,0,0,0,0,0,0,0,0,0,-1,1175,1821,0,0
-42,-797,0.579834,0.692871,0,0,0,0,0,0,0,-1,1182,1821,0.579856,-0.692816
-35,-797,-0.185425,5.55396,0,0,0,0,0,0,0,-1,1189,1821,-0.18542,-5.55396
-28,-797,-0.310181,4.71509,0,0,0,0,0,0,0,-1,1196,1821,-0.310228,-4.71503
-21,-797,4.86731,27.1334,0,0,0,0,0,0,0,-1,1203,1821,4.86733,-27.1334
-14,-797,3.68335,18.0508,0,0,0,0,0,0,0,-1,1210,1821,3.68337,-18.0507
-7,-797,4.44275,18.4478,0,0,0,0,0,0,0,-1,1217,1821,4.44269,-18.4478
0,-797,4.5968,19.9198,0,0,0,0,0,0,0,-1,1224,1821,4.59682,-19.9198
7,-797,4.41907,19.5234,0,0,0,0,0,0,0,-1,1231,1821,4.41901,-19.5234
14,-797,4.23926,19.0284,0,0,0,0,0,0,0,-1,1238,1821,4.23928,-19.0284
21,-797,4.18738,18.3593,-0.00798109,0.0228804,0.0258236,0.0375324,-0.022633,1.0547,0.0350897,0.0435491,1245,1821,4.18743,-18.3593
28,-797,4.09583,18.0845,0.000534404,0.0208469,0.0296171,0.0420007,-0.0206194,0.950575,0.0368495,0.04298,1252,1821,4.09579,-18.0844
35,-797,3.82971,17.9324,0.0122419,0.019869,0.0317269,0.0480107,-0.0158998,0.845211,0.0384199,0.0484369,1259,1821,3.82967,-17.9323
42,-797,3.58887,17.7754,0,0,0,0,0,0,0,-1,1266,1821,3.58883,-17.7754
49,-797,2.45532,17.9119,0,0,0,0,0,0,0,-1,1273,1821,2.4553,-17.9118
56,-797,2.16235,17.7089,0,0,0,0,0,0,0,-1,1280,1821,2.16238,-17.7089
63,-797,2.10559,17.1772,0.0510273,0.00725543,0.0361857,0.0714309,-0.0131481,0.513419,0.0525544,0.0447222,1287,1821,2.10565,-17.1773
70,-797,4.52612,18.5737,0.0499639,0.00336593,0.0332651,0.0672778,-0.013948,0.4799,0.0501519,0.0420231,1294,1821,4.52606,-18.5737
77,-797,4.54053,18.6654,0.0481371,-0.000376649,0.0300264,0.0624805,-0.01472,0.445643,0.0473296,0.0419433,1301,1821,4.54052,-18.6654
84,-797,4.58167,18.5757,0.0417375,-0.00467498,0.0258825,0.0532938,-0.0162313,0.419931,0.0419984,0.0441729,1308,1821,4.58171,-18.5757
91,-797,5.41382,18.365,0,0,0,0,0,0,0,-1,1315,1821,5.41377,-18.365
98,-797,5.21326,19.3623,0,0,0,0,0,0,0,-1,1322,1821,5.21327,-19.3623
105,-797,5.34973,19.2985,0,0,0,0,0,0,0,-1,1329,1821,5.34969,-19.2985
112,-797,5.05017,19.3947,-0.0297188,-0.0105641,0.00312541,-0.010067,-0.0302159,1.41308,0.0177659,0.0467313,1336,1821,5.05018,-19.3946
119,-797,4.44751,19.5529,-0.0516195,-0.00605296,-0.0014475,-0.00600703,-0.0516654,-1.53907,0.0326261,0.0435051,1343,1821,4.44754,-19.5529
126,-797,3.56958,19.3436,0,0,0,0,0,0,0,-1,1350,1821,3.56961,-19.3437
133,-797,2.71008,19.1382,0,0,0,0,0,0,0,-1,1357,1821,2.71009,-19.1381
140,-797,16.1001,15.882,0,0,0,0,0,0,0,-1,1364,1821,16.1001,-15.882
147,-797,5.44116,15.9459,0,0,0,0,0,0,0,-1,1371,1821,5.44118,-15.9459
154,-797,14.49,10.5256,0,0,0,0,0,0,0,-1,1378,1821,14.49,-10.5256
161,-797,6.79199,1.12952,0,0,0,0,0,0,0,-1,1385,1821,6.79203,-1.12957
168,-797,0,0,0,0,0,0,0,0,0,-1,1392,1821,0,0
175,-797,0,0,0,0,0,0,0,0,0,-1,1399,1821,0,0
182,-797,0,0,0,0,0,0,0,0,0,-1,1406,1821,0,0
189,-797,0,0,0,0,0,0,0,0,0,-1,1413,1821,0,0
196,-797,0,0,0,0,0,0,0,0,0,-1,1420,1821,0,0
203,-797,0,0,0,0,0,0,0,0,0,-1,1427,1821,0,0
210,-797,0,0,0,0,0,0,0,0,0,-1,1434,1821,0,0
217,-797,0,0,0,0,0,0,0,0,0,-1,1441,1821,0,0
224,-797,0,0,0,0,0,0,0,0,0,-1,1448,1821,0,0
231,-797,0,0,0,0,0,0,0,0,0,-1,1455,1821,0,0
238,-797,0,0,0,0,0,0,0,0,0,-1,1462,1821,0,0
245,-797,0,0,0,0,0,0,0,0,0,-1,1469,1821,0,0
252,-797,0,0,0,0,0,0,0,0,0,-1,1476,1821,0,0
259,-797,0,0,0,0,0,0,0,0,0,-1,1483,1821,0,0
266,-797,0,0,0,0,0,0,0,0,0,-1,1490,1821,0,0
273,-797,0,0,0,0,0,0,0,0,0,-1,1497,1821,0,0
280,-797,0,0,0,0,0,0,0,0,0,-1,1504,1821,0,0
287,-797,0,0,0,0,0,0,0,0,0,-1,1511,1821,0,0
294,-797,0,0,0,0,0,0,0,0,0,-1,1518,1821,0,0
301,-797,0,0,0,0,0,0,0,0,0,-1,1525,1821,0,0
308,-797,0,0,0,0,0,0,0,0,0,-1,1532,1821,0,0
315,-797,0,0,0,0,0,0,0,0,0,-1,1539,1821,0,0
322,-797,0,0,0,0,0,0,0,0,0,-1,1546,1821,0,0
329,-797,0,0,0,0,0,0,0,0,0,-1,1553,1821,0,0
336,-797,0,0,0,0,0,0,0,0,0,-1,1560,1821,0,0
343,-797,0,0,0,0,0,0,0,0,0,-1,1567,1821,0,0
350,-797,0,0,0,0,0,0,0,0,0,-1,1574,1821,0,0
357,-797,0,0,0,0,0,0,0,0,0,-1,1581,1821,0,0
364,-797,0,0,0,0,0,0,0,0,0,-1,1588,1821,0,0
371,-797,0,0,0,0,0,0,0,0,0,-1,1595,1821,0,0
378,-797,0,0,0,0,0,0,0,0,0,-1,1602,1821,0,0
385,-797,0,0,0,0,0,0,0,0,0,-1,1609,1821,0,0
392,-797,0,0,0,0,0,0,0,0,0,-1,1616,1821,0,0
399,-797,0,0,0,0,0,0,0,0,0,-1,1623,1821,0,0
406,-797,0,0,0,0,0,0,0,0,0,-1,1630,1821,0,0
413,-797,0,0,0,0,0,0,0,0,0,-1,1637,1821,0,0
420,-797,0,0,0,0,0,0,0,0,0,-1,1644,1821,0,0
427,-797,0,0,0,0,0,0,0,0,0,-1,1651,1821,0,0
434,-797,0,0,0,0,0,0,0,0,0,-1,1658,1821,0,0
441,-797,0,0,0,0,0,0,0,0,0,-1,1665,1821,0,0
448,-797,0,0,0,0,0,0,0,0,0,-1,1672,1821,0,0
455,-797,0,0,0,0,0,0,0,0,0,-1,1679,1821,0,0
462,-797,0,0,0,0,0,0,0,0,0,-1,1686,1821,0,0
469,-797,0,0,0,0,0,0,0,0,0,-1,1693,1821,0,0
476,-797,0,0,0,0,0,0,0,0,0,-1,1700,1821,0,0
483,-797,0,0,0,0,0,0,0,0,0,-1,1707,1821,0,0
490,-797,0,0,0,0,0,0,0,0,0,-1,1714,1821,0,0
497,-797,0,0,0,0,0,0,0,0,0,-1,1721,1821,0,0
504,-797,0,0,0,0,0,0,0,0,0,-1,1728,1821,0,0
511,-797,0,0,0,0,0,0,0,0,0,-1,1735,1821,0,0
518,-797,0,0,0,0,0,0,0,0,0,-1,1742,1821,0,0
525,-797,0,0,0,0,0,0,0,0,0,-1,1749,1821,0,0
532,-797,0,0,0,0,0,0,0,0,0,-1,1756,1821,0,0
539,-797,0,0,0,0,0,0,0,0,0,-1,1763,1821,0,0
546,-797,0,0,0,0,0,0,0,0,0,-1,1770,1821,0,0
553,-797,0,0,0,0,0,0,0,0,0,-1,1777,1821,0,0
560,-797,0,0,0,0,0,0,0,0,0,-1,1784,1821,0,0
567,-797,0,0,0,0,0,0,0,0,0,-1,1791,1821,0,0
574,-797,0,0,0,0,0,0,0,0,0,-1,1798,1821,0,0
581,-797,0,0,0,0,0,0,0,0,0,-1,1805,1821,0,0
588,-797,0,0,0,0,0,0,0,0,0,-1,1812,1821,0,0
595,-797,0,0,0,0,0,0,0,0,0,-1,1819,1821,0,0
602,-797,0,0,0,0,0,0,0,0,0,-1,1826,1821,0,0
609,-797,0,0,0,0,0,0,0,0,0,-1,1833,1821,0,0
616,-797,0,0,0,0,0,0,0,0,0,-1,1840,1821,0,0
623,-797,0,0,0,0,0,0,0,0,0,-1,1847,1821,0,0
630,-797,0,0,0,0,0,0,0,0,0,-1,1854,1821,0,0
637,-797,0,0,0,0,0,0,0,0,0,-1,1861,1821,0,0
644,-797,0,0,0,0,0,0,0,0,0,-1,1868,1821,0,0
651,-797,0,0,0,0,0,0,0,0,0,-1,1875,1821,0,0
658,-797,0,0,0,0,0,0,0,0,0,-1,1882,1821,0,0
665,-797,0,0,0,0,0,0,0,0,0,-1,1889,1821,0,0
672,-797,0,0,0,0,0,0,0,0,0,-1,1896,1821,0,0
679,-797,0,0,0,0,0,0,0,0,0,-1,1903,1821,0,0
686,-797,0,0,0,0,0,0,0,0,0,-1,1910,1821,0,0
693,-797,0,0,0,0,0,0,0,0,0,-1,1917,1821,0,0
700,-797,0,0,0,0,0,0,0,0,0,-1,1924,1821,0,0
707,-797,0,0,0,0,0,0,0,0,0,-1,1931,1821,0,0
714,-797,0,0,0,0,0,0,0,0,0,-1,1938,1821,0,0
721,-797,0,0,0,0,0,0,0,0,0,-1,1945,1821,0,0
728,-797,0,0,0,0,0,0,0,0,0,-1,1952,1821,0,0
735,-797,0,0,0,0,0,0,0,0,0,-1,1959,1821,0,0
742,-797,0,0,0,0,0,0,0,0,0,-1,1966,1821,0,0
749,-797,0,0,0,0,0,0,0,0,0,-1,1973,1821,0,0
756,-797,0,0,0,0,0,0,0,0,0,-1,1980,1821,0,0
763,-797,0,0,0,0,0,0,0,0,0,-1,1987,1821,0,0
770,-797,0,0,0,0,0,0,0,0,0,-1,1994,1821,0,0
777,-797,0,0,0,0,0,0,0,0,0,-1,2001,1821,0,0
784,-797,0,0,0,0,0,0,0,0,0,-1,2008,1821,0,0
791,-797,0,0,0,0,0,0,0,0,0,-1,2015,1821,0,0
798,-797,0,0,0,0,0,0,0,0,0,-1,2022,1821,0,0
805,-797,0,0,0,0,0,0,0,0,0,-1,2029,1821,0,0
812,-797,0,0,0,0,0,0,0,0,0,-1,2036,1821,0,0
-700,-804,0,0,0,0,0,0,0,0,0,-1,524,1828,0,0
-693,-804,0,0,0,0,0,0,0,0,0,-1,531,1828,0,0
-686,-804,0,0,0,0,0,0,0,0,0,-1,538,1828,0,0
-679,-804,0,0,0,0,0,0,0,0,0,-1,545,1828,0,0
-672,-804,0,0,0,0,0,0,0,0,0,-1,552,1828,0,0
-665,-804,0,0,0,0,0,0,0,0,0,-1,559,1828,0,0
-658,-804,0,0,0,0,0,0,0,0,0,-1,566,1828,0,0
-651,-804,0,0,0,0,0,0,0,0,0,-1,573,1828,0,0
-644,-804,0,0,0,0,0,0,0,0,0,-1,580,1828,0,0
-637,-804,0,0,0,0,0,0,0,0,0,-1,587,1828,0,0
-630,-804,0,0,0,0,0,0,0,0,0,-1,594,1828,0,0
-623,-804,0,0,0,0,0,0,0,0,0,-1,601,1828,0,0
-616,-804,0,0,0,0,0,0,0,0,0,-1,608,1828,0,0
-609,-804,0,0,0,0,0,0,0,0,0,-1,615,1828,0,0
-602,-804,0,0,0,0,0,0,0,0,0,-1,622,1828,0,0
-595,-804,0,0,0,0,0,0,0,0,0,-1,629,1828,0,0
-588,-804,0,0,0,0,0,0,0,0,0,-1,636,1828,0,0
-581,-804,0,0,0,0,0,0,0,0,0,-1,643,1828,0,0
-574,-804,0,0,0,0,0,0,0,0,0,-1,650,1828,0,0
-567,-804,0,0,0,0,0,0,0,0,0,-1,657,1828,0,0
-560,-804,0,0,0,0,0,0,0,0,0,-1,664,1828,0,0
-553,-804,0,0,0,0,0,0,0,0,0,-1,671,1828,0,0
-546,-804,0,0,0,0,0,0,0,0,0,-1,678,1828,0,0
-539,-804,0,0,0,0,0,0,0,0,0,-1,685,1828,0,0
-532,-804,0,0,0,0,0,0,0,0,0,-1,692,1828,0,0
-525,-804,0,0,0,0,0,0,0,0,0,-1,699,1828,0,0
-518,-804,0,0,0,0,0,0,0,0,0,-1,706,1828,0,0
-511,-804,0,0,0,0,0,0,0,0,0,-1,713,1828,0,0
-504,-804,0,0,0,0,0,0,0,0,0,-1,720,1828,0,0
-497,-804,0,0,0,0,0,0,0,0,0,-1,727,1828,0,0
-490,-804,0,0,0,0,0,0,0,0,0,-1,734,1828,0,0
-483,-804,0,0,0,0,0,0,0,0,0,-1,741,1828,0,0
-476,-804,0,0,0,0,0,0,0,0,0,-1,748,1828,0,0
-469,-804,0,0,0,0,0,0,0,0,0,-1,755,1828,0,0
-462,-804,0,0,0,0,0,0,0,0,0,-1,762,1828,0,0
-455,-804,0,0,0,0,0,0,0,0,0,-1,769,1828,0,0
-448,-804,0,0,0,0,0,0,0,0,0,-1,776,1828,0,0
-441,-804,0,0,0,0,0,0,0,0,0,-1,783,1828,0,0
-434,-804,0,0,0,0,0,0,0,0,0,-1,790,1828,0,0
-427,-804,0,0,0,0,0,0,0,0,0,-1,797,1828,0,0
-420,-804,0,0,0,0,0,0,0,0,0,-1,804,1828,0,0
-413,-804,0,0,0,0,0,0,0,0,0,-1,811,1828,0,0
-406,-804,0,0,0,0,0,0,0,0,0,-1,818,1828,0,0
-399,-804,0,0,0,0,0,0,0,0,0,-1,825,1828,0,0
-392,-804,0,0,0,0,0,0,0,0,0,-1,832,1828,0,0
-385,-804,0,0,0,0,0,0,0,0,0,-1,839,1828,0,0
-378,-804,0,0,0,0,0,0,0,0,0,-1,846,1828,0,0
-371,-804,0,0,0,0,0,0,0,0,0,-1,853,1828,0,0
-364,-804,0,0,0,0,0,0,0,0,0,-1,860,1828,0,0
-357,-804,0,0,0,0,0,0,0,0,0,-1,867,1828,0,0
-350,-804,0,0,0,0,0,0,0,0,0,-1,874,1828,0,0
-343,-804,0,0,0,0,0,0,0,0,0,-1,881,1828,0,0
-336,-804,0,0,0,0,0,0,0,0,0,-1,888,1828,0,0
-329,-804,0,0,0,0,0,0,0,0,0,-1,895,1828,0,0
-322,-804,0,0,0,0,0,0,0,0,0,-1,902,1828,0,0
-315,-804,0,0,0,0,0,0,0,0,0,-1,909,1828,0,0
-308,-804,0,0,0,0,0,0,0,0,0,-1,916,1828,0,0
-301,-804,0,0,0,0,0,0,0,0,0,-1,923,1828,0,0
-294,-804,0,0,0,0,0,0,0,0,0,-1,930,1828,0,0
-287,-804,0,0,0,0,0,0,0,0,0,-1,937,1828,0,0
-280,-804,0,0,0,0,0,0,0,0,0,-1,944,1828,0,0
-273,-804,0,0,0,0,0,0,0,0,0,-1,951,1828,0,0
-266,-804,0,0,0,0,0,0,0,0,0,-1,958,1828,0,0
-259,-804,0,0,0,0,0,0,0,0,0,-1,965,1828,0,0
-252,-804,0,0,0,0,0,0,0,0,0,-1,972,1828,0,0
-245,-804,0,0,0,0,0,0,0,0,0,-1,979,1828,0,0
-238,-804,0,0,0,0,0,0,0,0,0,-1,986,1828,0,0
-231,-804,0,0,0,0,0,0,0,0,0,-1,993,1828,0,0
-224,-804,0,0,0,0,0,0,0,0,0,-1,1000,1828,0,0
-217,-804,0,0,0,0,0,0,0,0,0,-1,1007,1828,0,0
-210,-804,0,0,0,0,0,0,0,0,0,-1,1014,1828,0,0
-203,-804,0,0,0,0,0,0,0,0,0,-1,1021,1828,0,0
-196,-804,0,0,0,0,0,0,0,0,0,-1,1028,1828,0,0
-189,-804,0,0,0,0,0,0,0,0,0,-1,1035,1828,0,0
-182,-804,0,0,0,0,0,0,0,0,0,-1,1042,1828,0,0
-175,-804,0,0,0,0,0,0,0,0,0,-1,1049,1828,0,0
-168,-804,0,0,0,0,0,0,0,0,0,-1,1056,1828,0,0
-161,-804,0,0,0,0,0,0,0,0,0,-1,1063,1828,0,0
-154,-804,0,0,0,0,0,0,0,0,0,-1,1070,1828,0,0
-147,-804,0,0,0,0,0,0,0,0,0,-1,1077,1828,0,0
-140,-804,0,0,0,0,0,0,0,0,0,-1,1084,1828,0,0
-133,-804,0,0,0,0,0,0,0,0,0,-1,1091,1828,0,0
-126,-804,0,0,0,0,0,0,0,0,0,-1,1098,1828,0,0
-119,-804,0,0,0,0,0,0,0,0,0,-1,1105,1828,0,0
-112,-804,0,0,0,0,0,0,0,0,0,-1,1112,1828,0,0
-105,-804,0,0,0,0,0,0,0,0,0,-1,1119,1828,0,0
-98,-804,0,0,0,0,0,0,0,0,0,-1,1126,1828,0,0
-91,-804,0,0,0,0,0,0,0,0,0,-1,1133,1828,0,0
-84,-804,0,0,0,0,0,0,0,0,0,-1,1140,1828,0,0
-77,-804,0,0,0,0,0,0,0,0,0,-1,1147,1828,0,0
-70,-804,0,0,0,0,0,0,0,0,0,-1,1154,1828,0,0
-63,-804,0,0,0,0,0,0,0,0,0,-1,1161,1828,0,0
-56,-804,0,0,0,0,0,0,0,0,0,-1,1168,1828,0,0
-49,-804,0,0,0,0,0,0,0,0,0,-1,1175,1828,0,0
-42,-804,0,0,0,0,0,0,0,0,0,-1,1182,1828,0,0
-35,-804,0,0,0,0,0,0,0,0,0,-1,1189,1828,0,0
-28,-804,0,0,0,0,0,0,0,0,0,-1,1196,1828,0,0
-21,-804,0,0,0,0,0,0,0,0,0,-1,1203,1828,0,0
-14,-804,0,0,0,0,0,0,0,0,0,-1,1210,1828,0,0
-7,-804,0,0,0,0,0,0,0,0,0,-1,1217,1828,0,0
0,-804,0,0,0,0,0,0,0,0,0,-1,1224,1828,0,0
7,-804,0,0,0,0,0,0,0,0,0,-1,1231,1828,0,0
14,-804,0,0,0,0,0,0,0,0,0,-1,1238,1828,0,0
21,-804,0,0,0,0,0,0,0,0,0,-1,1245,1828,0,0
28,-804,0,0,0,0,0,0,0,0,0,-1,1252,1828,0,0
35,-804,3.41687,17.7362,0.0152176,0.0268743,0.0372818,0.0587806,-0.0166887,0.862936,0.0457755,0.0476922,1259,1828,3.41687,-17.7362
42,-804,3.07458,17.677,0,0,0,0,0,0,0,-1,1266,1828,3.07461,-17.6771
49,-804,2.73511,17.6826,0,0,0,0,0,0,0,-1,1273,1828,2.73513,-17.6827
56,-804,2.50317,17.4313,0,0,0,0,0,0,0,-1,1280,1828,2.50323,-17.4312
63,-804,2.505,16.8688,0,0,0,0,0,0,0,-1,1287,1828,2.50496,-16.8688
70,-804,2.29199,16.5354,0,0,0,0,0,0,0,-1,1294,1828,2.29196,-16.5354
77,-804,4.32874,18.9266,0.0667521,0.000137239,0.0319919,0.0796276,-0.0127383,0.382627,0.057801,0.0451209,1301,1828,4.32878,-18.9266
84,-804,4.8114,18.3323,0.0579244,-0.00454965,0.026297,0.0675198,-0.014145,0.349873,0.0503943,0.0429587,1308,1828,4.81142,-18.3323
91,-804,0,0,0,0,0,0,0,0,0,-1,1315,1828,0,0
98,-804,0,0,0,0,0,0,0,0,0,-1,1322,1828,0,0
105,-804,0,0,0,0,0,0,0,0,0,-1,1329,1828,0,0
112,-804,0,0,0,0,0,0,0,0,0,-1,1336,1828,0,0
119,-804,0,0,0,0,0,0,0,0,0,-1,1343,1828,0,0
126,-804,0,0,0,0,0,0,0,0,0,-1,1350,1828,0,0
133,-804,0,0,0,0,0,0,0,0,0,-1,1357,1828,0,0
140,-804,0,0,0,0,0,0,0,0,0,-1,1364,1828,0,0
147,-804,0,0,0,0,0,0,0,0,0,-1,1371,1828,0,0
154,-804,0,0,0,0,0,0,0,0,0,-1,1378,1828,0,0
161,-804,0,0,0,0,0,0,0,0,0,-1,1385,1828,0,0
168,-804,0,0,0,0,0,0,0,0,0,-1,1392,1828,0,0
175,-804,0,0,0,0,0,0,0,0,0,-1,1399,1828,0,0
182,-804,0,0,0,0,0,0,0,0,0,-1,1406,1828,0,0
189,-804,0,0,0,0,0,0,0,0,0,-1,1413,1828,0,0
196,-804,0,0,0,0,0,0,0,0,0,-1,1420,1828,0,0
203,-804,0,0,0,0,0,0,0,0,0,-1,1427,1828,0,0
210,-804,0,0,0,0,0,0,0,0,0,-1,1434,1828,0,0
217,-804,0,0,0,0,0,0,0,0,0,-1,1441,1828,0,0
224,-804,0,0,0,0,0,0,0,0,0,-1,1448,1828,0,0
231,-804,0,0,0,0,0,0,0,0,0,-1,1455,1828,0,0
238,-804,0,0,0,0,0,0,0,0,0,-1,1462,1828,0,0
245,-804,0,0,0,0,0,0,0,0,0,-1,1469,1828,0,0
252,-804,0,0,0,0,0,0,0,0,0,-1,1476,1828,0,0
259,-804,0,0,0,0,0,0,0,0,0,-1,1483,1828,0,0
266,-804,0,0,0,0,0,0,0,0,0,-1,1490,1828,0,0
273,-804,0,0,0,0,0,0,0,0,0,-1,1497,1828,0,0
280,-804,0,0,0,0,0,0,0,0,0,-1,1504,1828,0,0
287,-804,0,0,0,0,0,0,0,0,0,-1,1511,1828,0,0
294,-804,0,0,0,0,0,0,0,0,0,-1,1518,1828,0,0
301,-804,0,0,0,0,0,0,0,0,0,-1,1525,1828,0,0
308,-804,0,0,0,0,0,0,0,0,0,-1,1532,1828,0,0
315,-804,0,0,0,0,0,0,0,0,0,-1,1539,1828,0,0
322,-804,0,0,0,0,0,0,0,0,0,-1,1546,1828,0,0
329,-804,0,0,0,0,0,0,0,0,0,-1,1553,1828,0,0
336,-804,0,0,0,0,0,0,0,0,0,-1,1560,1828,0,0
343,-804,0,0,0,0,0,0,0,0,0,-1,1567,1828,0,0
350,-804,0,0,0,0,0,0,0,0,0,-1,1574,1828,0,0
357,-804,0,0,0,0,0,0,0,0,0,-1,1581,1828,0,0
364,-804,0,0,0,0,0,0,0,0,0,-1,1588,1828,0,0
371,-804,0,0,0,0,0,0,0,0,0,-1,1595,1828,0,0
378,-804,0,0,0,0,0,0,0,0,0,-1,1602,1828,0,0
385,-804,0,0,0,0,0,0,0,0,0,-1,1609,1828,0,0
392,-804,0,0,0,0,0,0,0,0,0,-1,1616,1828,0,0
399,-804,0,0,0,0,0,0,0,0,0,-1,1623,1828,0,0
406,-804,0,0,0,0,0,0,0,0,0,-1,1630,1828,0,0
413,-804,0,0,0,0,0,0,0,0,0,-1,1637,1828,0,0
420,-804,0,0,0,0,0,0,0,0,0,-1,1644,1828,0,0
427,-804,0,0,0,0,0,0,0,0,0,-1,1651,1828,0,0
434,-804,0,0,0,0,0,0,0,0,0,-1,1658,1828,0,0
441,-804,0,0,0,0,0,0,0,0,0,-1,1665,1828,0,0
448,-804,0,0,0,0,0,0,0,0,0,-1,1672,1828,0,0
455,-804,0,0,0,0,0,0,0,0,0,-1,1679,1828,0,0
462,-804,0,0,0,0,0,0,0,0,0,-1,1686,1828,0,0
469,-804,0,0,0,0,0,0,0,0,0,-1,1693,1828,0,0
476,-804,0,0,0,0,0,0,0,0,0,-1,1700,1828,0,0
483,-804,0,0,0,0,0,0,0,0,0,-1,1707,1828,0,0
490,-804,0,0,0,0,0,0,0,0,0,-1,1714,1828,0,0
497,-804,0,0,0,0,0,0,0,0,0,-1,1721,1828,0,0
504,-804,0,0,0,0,0,0,0,0,0,-1,1728,1828,0,0
511,-804,0,0,0,0,0,0,0,0,0,-1,1735,1828,0,0
518,-804,0,0,0,0,0,0,0,0,0,-1,1742,1828,0,0
525,-804,0,0,0,0,0,0,0,0,0,-1,1749,1828,0,0
532,-804,0,0,0,0,0,0,0,0,0,-1,1756,1828,0,0
539,-804,0,0,0,0,0,0,0,0,0,-1,1763,1828,0,0
546,-804,0,0,0,0,0,0,0,0,0,-1,1770,1828,0,0
553,-804,0,0,0,0,0,0,0,0,0,-1,1777,1828,0,0
560,-804,0,0,0,0,0,0,0,0,0,-1,1784,1828,0,0
567,-804,0,0,0,0,0,0,0,0,0,-1,1791,1828,0,0
574,-804,0,0,0,0,0,0,0,0,0,-1,1798,1828,0,0
581,-804,0,0,0,0,0,0,0,0,0,-1,1805,1828,0,0
588,-804,0,0,0,0,0,0,0,0,0,-1,1812,1828,0,0
595,-804,0,0,0,0,0,0,0,0,0,-1,1819,1828,0,0
602,-804,0,0,0,0,0,0,0,0,0,-1,1826,1828,0,0
609,-804,0,0,0,0,0,0,0,0,0,-1,1833,1828,0,0
616,-804,0,0,0,0,0,0,0,0,0,-1,1840,1828,0,0
623,-804,0,0,0,0,0,0,0,0,0,-1,1847,1828,0,0
630,-804,0,0,0,0,0,0,0,0,0,-1,1854,1828,0,0
637,-804,0,0,0,0,0,0,0,0,0,-1,1861,1828,0,0
644,-804,0,0,0,0,0,0,0,0,0,-1,1868,1828,0,0
651,-804,0,0,0,0,0,0,0,0,0,-1,1875,1828,0,0
658,-804,0,0,0,0,0,0,0,0,0,-1,1882,1828,0,0
665,-804,0,0,0,0,0,0,0,0,0,-1,1889,1828,0,0
672,-804,0,0,0,0,0,0,0,0,0,-1,1896,1828,0,0
679,-804,0,0,0,0,0,0,0,0,0,-1,1903,1828,0,0
686,-804,0,0,0,0,0,0,0,0,0,-1,1910,1828,0,0
693,-804,0,0,0,0,0,0,0,0,0,-1,1917,1828,0,0
700,-804,0,0,0,0,0,0,0,0,0,-1,1924,1828,0,0
707,-804,0,0,0,0,0,0,0,0,0,-1,1931,1828,0,0
714,-804,0,0,0,0,0,0,0,0,0,-1,1938,1828,0,0
721,-804,0,0,0,0,0,0,0,0,0,-1,1945,1828,0,0
728,-804,0,0,0,0,0,0,0,0,0,-1,1952,1828,0,0
735,-804,0,0,0,0,0,0,0,0,0,-1,1959,1828,0,0
742,-804,0,0,0,0,0,0,0,0,0,-1,1966,1828,0,0
749,-804,0,0,0,0,0,0,0,0,0,-1,1973,1828,0,0
756,-804,0,0,0,0,0,0,0,0,0,-1,1980,1828,0,0
763,-804,0,0,0,0,0,0,0,0,0,-1,1987,1828,0,0
770,-804,0,0,0,0,0,0,0,0,0,-1,1994,1828,0,0
777,-804,0,0,0,0,0,0,0,0,0,-1,2001,1828,0,0
784,-804,0,0,0,0,0,0,0,0,0,-1,2008,1828,0,0
791,-804,0,0,0,0,0,0,0,0,0,-1,2015,1828,0,0
798,-804,0,0,0,0,0,0,0,0,0,-1,2022,1828,0,0
805,-804,0,0,0,0,0,0,0,0,0,-1,2029,1828,0,0
812,-804,0,0,0,0,0,0,0,0,0,-1,2036,1828,0,0

