 "x_c",  "y_c",  "u_c",  "v_c",  "exx",  "eyy",  "exy",  "e1",  "e2",  "gamma",  "e_vonmises",  "sigma",  "x",  "y",  "u",  "v"
-700,715,0,0,0,0,0,0,0,0,0,-1,524,309,0,0
-693,715,0,0,0,0,0,0,0,0,0,-1,531,309,0,0
-686,715,0,0,0,0,0,0,0,0,0,-1,538,309,0,0
-679,715,0,0,0,0,0,0,0,0,0,-1,545,309,0,0
-672,715,0,0,0,0,0,0,0,0,0,-1,552,309,0,0
-665,715,0,0,0,0,0,0,0,0,0,-1,559,309,0,0
-658,715,0,0,0,0,0,0,0,0,0,-1,566,309,0,0
-651,715,0,0,0,0,0,0,0,0,0,-1,573,309,0,0
-644,715,0,0,0,0,0,0,0,0,0,-1,580,309,0,0
-637,715,0,0,0,0,0,0,0,0,0,-1,587,309,0,0
-630,715,0,0,0,0,0,0,0,0,0,-1,594,309,0,0
-623,715,0,0,0,0,0,0,0,0,0,-1,601,309,0,0
-616,715,0,0,0,0,0,0,0,0,0,-1,608,309,0,0
-609,715,0,0,0,0,0,0,0,0,0,-1,615,309,0,0
-602,715,0,0,0,0,0,0,0,0,0,-1,622,309,0,0
-595,715,0,0,0,0,0,0,0,0,0,-1,629,309,0,0
-588,715,0,0,0,0,0,0,0,0,0,-1,636,309,0,0
-581,715,0,0,0,0,0,0,0,0,0,-1,643,309,0,0
-574,715,0,0,0,0,0,0,0,0,0,-1,650,309,0,0
-567,715,0,0,0,0,0,0,0,0,0,-1,657,309,0,0
-560,715,0,0,0,0,0,0,0,0,0,-1,664,309,0,0
-553,715,0,0,0,0,0,0,0,0,0,-1,671,309,0,0
-546,715,0,0,0,0,0,0,0,0,0,-1,678,309,0,0
-539,715,0,0,0,0,0,0,0,0,0,-1,685,309,0,0
-532,715,0,0,0,0,0,0,0,0,0,-1,692,309,0,0
-525,715,0,0,0,0,0,0,0,0,0,-1,699,309,0,0
-518,715,0,0,0,0,0,0,0,0,0,-1,706,309,0,0
-511,715,0,0,0,0,0,0,0,0,0,-1,713,309,0,0
-504,715,0,0,0,0,0,0,0,0,0,-1,720,309,0,0
-497,715,0,0,0,0,0,0,0,0,0,-1,727,309,0,0
-490,715,0,0,0,0,0,0,0,0,0,-1,734,309,0,0
-483,715,0,0,0,0,0,0,0,0,0,-1,741,309,0,0
-476,715,0,0,0,0,0,0,0,0,0,-1,748,309,0,0
-469,715,0,0,0,0,0,0,0,0,0,-1,755,309,0,0
-462,715,0,0,0,0,0,0,0,0,0,-1,762,309,0,0
-455,715,0,0,0,0,0,0,0,0,0,-1,769,309,0,0
-448,715,0,0,0,0,0,0,0,0,0,-1,776,309,0,0
-441,715,0,0,0,0,0,0,0,0,0,-1,783,309,0,0
-434,715,0,0,0,0,0,0,0,0,0,-1,790,309,0,0
-427,715,0,0,0,0,0,0,0,0,0,-1,797,309,0,0
-420,715,0,0,0,0,0,0,0,0,0,-1,804,309,0,0
-413,715,0,0,0,0,0,0,0,0,0,-1,811,309,0,0
-406,715,0,0,0,0,0,0,0,0,0,-1,818,309,0,0
-399,715,0,0,0,0,0,0,0,0,0,-1,825,309,0,0
-392,715,0,0,0,0,0,0,0,0,0,-1,832,309,0,0
-385,715,0,0,0,0,0,0,0,0,0,-1,839,309,0,0
-378,715,0,0,0,0,0,0,0,0,0,-1,846,309,0,0
-371,715,0,0,0,0,0,0,0,0,0,-1,853,309,0,0
-364,715,0,0,0,0,0,0,0,0,0,-1,860,309,0,0
-357,715,0,0,0,0,0,0,0,0,0,-1,867,309,0,0
-350,715,0,0,0,0,0,0,0,0,0,-1,874,309,0,0
-343,715,0,0,0,0,0,0,0,0,0,-1,881,309,0,0
-336,715,0,0,0,0,0,0,0,0,0,-1,888,309,0,0
-329,715,0,0,0,0,0,0,0,0,0,-1,895,309,0,0
-322,715,0,0,0,0,0,0,0,0,0,-1,902,309,0,0
-315,715,0,0,0,0,0,0,0,0,0,-1,909,309,0,0
-308,715,0,0,0,0,0,0,0,0,0,-1,916,309,0,0
-301,715,0,0,0,0,0,0,0,0,0,-1,923,309,0,0
-294,715,0,0,0,0,0,0,0,0,0,-1,930,309,0,0
-287,715,0,0,0,0,0,0,0,0,0,-1,937,309,0,0
-280,715,0,0,0,0,0,0,0,0,0,-1,944,309,0,0
-273,715,0,0,0,0,0,0,0,0,0,-1,951,309,0,0
-266,715,0,0,0,0,0,0,0,0,0,-1,958,309,0,0
-259,715,0,0,0,0,0,0,0,0,0,-1,965,309,0,0
-252,715,0,0,0,0,0,0,0,0,0,-1,972,309,0,0
-245,715,0,0,0,0,0,0,0,0,0,-1,979,309,0,0
-238,715,0,0,0,0,0,0,0,0,0,-1,986,309,0,0
-231,715,0,0,0,0,0,0,0,0,0,-1,993,309,0,0
-224,715,0,0,0,0,0,0,0,0,0,-1,1000,309,0,0
-217,715,0,0,0,0,0,0,0,0,0,-1,1007,309,0,0
-210,715,0,0,0,0,0,0,0,0,0,-1,1014,309,0,0
-203,715,0,0,0,0,0,0,0,0,0,-1,1021,309,0,0
-196,715,0,0,0,0,0,0,0,0,0,-1,1028,309,0,0
-189,715,0,0,0,0,0,0,0,0,0,-1,1035,309,0,0
-182,715,0,0,0,0,0,0,0,0,0,-1,1042,309,0,0
-175,715,0,0,0,0,0,0,0,0,0,-1,1049,309,0,0
-168,715,0,0,0,0,0,0,0,0,0,-1,1056,309,0,0
-161,715,0,0,0,0,0,0,0,0,0,-1,1063,309,0,0
-154,715,0,0,0,0,0,0,0,0,0,-1,1070,309,0,0
-147,715,0,0,0,0,0,0,0,0,0,-1,1077,309,0,0
-140,715,0,0,0,0,0,0,0,0,0,-1,1084,309,0,0
-133,715,0,0,0,0,0,0,0,0,0,-1,1091,309,0,0
-126,715,0,0,0,0,0,0,0,0,0,-1,1098,309,0,0
-119,715,0,0,0,0,0,0,0,0,0,-1,1105,309,0,0
-112,715,0,0,0,0,0,0,0,0,0,-1,1112,309,0,0
-105,715,0,0,0,0,0,0,0,0,0,-1,1119,309,0,0
-98,715,0,0,0,0,0,0,0,0,0,-1,1126,309,0,0
-91,715,0,0,0,0,0,0,0,0,0,-1,1133,309,0,0
-84,715,0,0,0,0,0,0,0,0,0,-1,1140,309,0,0
-77,715,0,0,0,0,0,0,0,0,0,-1,1147,309,0,0
-70,715,0,0,0,0,0,0,0,0,0,-1,1154,309,0,0
-63,715,0,0,0,0,0,0,0,0,0,-1,1161,309,0,0
-56,715,0,0,0,0,0,0,0,0,0,-1,1168,309,0,0
-49,715,0,0,0,0,0,0,0,0,0,-1,1175,309,0,0
-42,715,0,0,0,0,0,0,0,0,0,-1,1182,309,0,0
-35,715,0,0,0,0,0,0,0,0,0,-1,1189,309,0,0
-28,715,0,0,0,0,0,0,0,0,0,-1,1196,309,0,0
-21,715,0,0,0,0,0,0,0,0,0,-1,1203,309,0,0
-14,715,0,0,0,0,0,0,0,0,0,-1,1210,309,0,0
-7,715,0,0,0,0,0,0,0,0,0,-1,1217,309,0,0
0,715,0,0,0,0,0,0,0,0,0,-1,1224,309,0,0
7,715,0,0,0,0,0,0,0,0,0,-1,1231,309,0,0
14,715,0,0,0,0,0,0,0,0,0,-1,1238,309,0,0
21,715,0,0,0,0,0,0,0,0,0,-1,1245,309,0,0
28,715,0,0,0,0,0,0,0,0,0,-1,1252,309,0,0
35,715,0,0,0,0,0,0,0,0,0,-1,1259,309,0,0
42,715,0,0,0,0,0,0,0,0,0,-1,1266,309,0,0
49,715,0,0,0,0,0,0,0,0,0,-1,1273,309,0,0
56,715,0,0,0,0,0,0,0,0,0,-1,1280,309,0,0
63,715,4.24902,-21.9405,0.0431098,0.139054,-0.0161052,0.141685,0.0404786,-1.40885,0.0842692,0.0441254,1287,309,4.24899,21.9405
70,715,4.5105,-21.6522,0.0340424,0.133447,-0.0157927,0.135896,0.0315937,-1.41697,0.0821174,0.045914,1294,309,4.5105,21.6521
77,715,0,0,0,0,0,0,0,0,0,-1,1301,309,0,0
84,715,0,0,0,0,0,0,0,0,0,-1,1308,309,0,0
91,715,0,0,0,0,0,0,0,0,0,-1,1315,309,0,0
98,715,0,0,0,0,0,0,0,0,0,-1,1322,309,0,0
105,715,0,0,0,0,0,0,0,0,0,-1,1329,309,0,0
112,715,0,0,0,0,0,0,0,0,0,-1,1336,309,0,0
119,715,0,0,0,0,0,0,0,0,0,-1,1343,309,0,0
126,715,0,0,0,0,0,0,0,0,0,-1,1350,309,0,0
133,715,0,0,0,0,0,0,0,0,0,-1,1357,309,0,0
140,715,0,0,0,0,0,0,0,0,0,-1,1364,309,0,0
147,715,0,0,0,0,0,0,0,0,0,-1,1371,309,0,0
154,715,0,0,0,0,0,0,0,0,0,-1,1378,309,0,0
161,715,0,0,0,0,0,0,0,0,0,-1,1385,309,0,0
168,715,0,0,0,0,0,0,0,0,0,-1,1392,309,0,0
175,715,0,0,0,0,0,0,0,0,0,-1,1399,309,0,0
182,715,0,0,0,0,0,0,0,0,0,-1,1406,309,0,0
189,715,0,0,0,0,0,0,0,0,0,-1,1413,309,0,0
196,715,0,0,0,0,0,0,0,0,0,-1,1420,309,0,0
203,715,0,0,0,0,0,0,0,0,0,-1,1427,309,0,0
210,715,0,0,0,0,0,0,0,0,0,-1,1434,309,0,0
217,715,0,0,0,0,0,0,0,0,0,-1,1441,309,0,0
224,715,0,0,0,0,0,0,0,0,0,-1,1448,309,0,0
231,715,0,0,0,0,0,0,0,0,0,-1,1455,309,0,0
238,715,0,0,0,0,0,0,0,0,0,-1,1462,309,0,0
245,715,0,0,0,0,0,0,0,0,0,-1,1469,309,0,0
252,715,0,0,0,0,0,0,0,0,0,-1,1476,309,0,0
259,715,0,0,0,0,0,0,0,0,0,-1,1483,309,0,0
266,715,0,0,0,0,0,0,0,0,0,-1,1490,309,0,0
273,715,0,0,0,0,0,0,0,0,0,-1,1497,309,0,0
280,715,0,0,0,0,0,0,0,0,0,-1,1504,309,0,0
287,715,0,0,0,0,0,0,0,0,0,-1,1511,309,0,0
294,715,0,0,0,0,0,0,0,0,0,-1,1518,309,0,0
301,715,0,0,0,0,0,0,0,0,0,-1,1525,309,0,0
308,715,0,0,0,0,0,0,0,0,0,-1,1532,309,0,0
315,715,0,0,0,0,0,0,0,0,0,-1,1539,309,0,0
322,715,0,0,0,0,0,0,0,0,0,-1,1546,309,0,0
329,715,0,0,0,0,0,0,0,0,0,-1,1553,309,0,0
336,715,0,0,0,0,0,0,0,0,0,-1,1560,309,0,0
343,715,0,0,0,0,0,0,0,0,0,-1,1567,309,0,0
350,715,0,0,0,0,0,0,0,0,0,-1,1574,309,0,0
357,715,0,0,0,0,0,0,0,0,0,-1,1581,309,0,0
364,715,0,0,0,0,0,0,0,0,0,-1,1588,309,0,0
371,715,0,0,0,0,0,0,0,0,0,-1,1595,309,0,0
378,715,0,0,0,0,0,0,0,0,0,-1,1602,309,0,0
385,715,0,0,0,0,0,0,0,0,0,-1,1609,309,0,0
392,715,0,0,0,0,0,0,0,0,0,-1,1616,309,0,0
399,715,0,0,0,0,0,0,0,0,0,-1,1623,309,0,0
406,715,0,0,0,0,0,0,0,0,0,-1,1630,309,0,0
413,715,0,0,0,0,0,0,0,0,0,-1,1637,309,0,0
420,715,0,0,0,0,0,0,0,0,0,-1,1644,309,0,0
427,715,0,0,0,0,0,0,0,0,0,-1,1651,309,0,0
434,715,0,0,0,0,0,0,0,0,0,-1,1658,309,0,0
441,715,0,0,0,0,0,0,0,0,0,-1,1665,309,0,0
448,715,0,0,0,0,0,0,0,0,0,-1,1672,309,0,0
455,715,0,0,0,0,0,0,0,0,0,-1,1679,309,0,0
462,715,0,0,0,0,0,0,0,0,0,-1,1686,309,0,0
469,715,0,0,0,0,0,0,0,0,0,-1,1693,309,0,0
476,715,0,0,0,0,0,0,0,0,0,-1,1700,309,0,0
483,715,0,0,0,0,0,0,0,0,0,-1,1707,309,0,0
490,715,0,0,0,0,0,0,0,0,0,-1,1714,309,0,0
497,715,0,0,0,0,0,0,0,0,0,-1,1721,309,0,0
504,715,0,0,0,0,0,0,0,0,0,-1,1728,309,0,0
511,715,0,0,0,0,0,0,0,0,0,-1,1735,309,0,0
518,715,0,0,0,0,0,0,0,0,0,-1,1742,309,0,0
525,715,0,0,0,0,0,0,0,0,0,-1,1749,309,0,0
532,715,0,0,0,0,0,0,0,0,0,-1,1756,309,0,0
539,715,0,0,0,0,0,0,0,0,0,-1,1763,309,0,0
546,715,0,0,0,0,0,0,0,0,0,-1,1770,309,0,0
553,715,0,0,0,0,0,0,0,0,0,-1,1777,309,0,0
560,715,0,0,0,0,0,0,0,0,0,-1,1784,309,0,0
567,715,0,0,0,0,0,0,0,0,0,-1,1791,309,0,0
574,715,0,0,0,0,0,0,0,0,0,-1,1798,309,0,0
581,715,0,0,0,0,0,0,0,0,0,-1,1805,309,0,0
588,715,0,0,0,0,0,0,0,0,0,-1,1812,309,0,0
595,715,0,0,0,0,0,0,0,0,0,-1,1819,309,0,0
602,715,0,0,0,0,0,0,0,0,0,-1,1826,309,0,0
609,715,0,0,0,0,0,0,0,0,0,-1,1833,309,0,0
616,715,0,0,0,0,0,0,0,0,0,-1,1840,309,0,0
623,715,0,0,0,0,0,0,0,0,0,-1,1847,309,0,0
630,715,0,0,0,0,0,0,0,0,0,-1,1854,309,0,0
637,715,0,0,0,0,0,0,0,0,0,-1,1861,309,0,0
644,715,0,0,0,0,0,0,0,0,0,-1,1868,309,0,0
651,715,0,0,0,0,0,0,0,0,0,-1,1875,309,0,0
658,715,0,0,0,0,0,0,0,0,0,-1,1882,309,0,0
665,715,0,0,0,0,0,0,0,0,0,-1,1889,309,0,0
672,715,0,0,0,0,0,0,0,0,0,-1,1896,309,0,0
679,715,0,0,0,0,0,0,0,0,0,-1,1903,309,0,0
686,715,0,0,0,0,0,0,0,0,0,-1,1910,309,0,0
693,715,0,0,0,0,0,0,0,0,0,-1,1917,309,0,0
700,715,0,0,0,0,0,0,0,0,0,-1,1924,309,0,0
707,715,0,0,0,0,0,0,0,0,0,-1,1931,309,0,0
714,715,0,0,0,0,0,0,0,0,0,-1,1938,309,0,0
721,715,0,0,0,0,0,0,0,0,0,-1,1945,309,0,0
728,715,0,0,0,0,0,0,0,0,0,-1,1952,309,0,0
735,715,0,0,0,0,0,0,0,0,0,-1,1959,309,0,0
742,715,0,0,0,0,0,0,0,0,0,-1,1966,309,0,0
749,715,0,0,0,0,0,0,0,0,0,-1,1973,309,0,0
756,715,0,0,0,0,0,0,0,0,0,-1,1980,309,0,0
763,715,0,0,0,0,0,0,0,0,0,-1,1987,309,0,0
770,715,0,0,0,0,0,0,0,0,0,-1,1994,309,0,0
777,715,0,0,0,0,0,0,0,0,0,-1,2001,309,0,0
784,715,0,0,0,0,0,0,0,0,0,-1,2008,309,0,0
791,715,0,0,0,0,0,0,0,0,0,-1,2015,309,0,0
798,715,0,0,0,0,0,0,0,0,0,-1,2022,309,0,0
805,715,0,0,0,0,0,0,0,0,0,-1,2029,309,0,0
812,715,0,0,0,0,0,0,0,0,0,-1,2036,309,0,0
-700,708,0,0,0,0,0,0,0,0,0,-1,524,316,0,0
-693,708,0,0,0,0,0,0,0,0,0,-1,531,316,0,0
-686,708,0,0,0,0,0,0,0,0,0,-1,538,316,0,0
-679,708,0,0,0,0,0,0,0,0,0,-1,545,316,0,0
-672,708,0,0,0,0,0,0,0,0,0,-1,552,316,0,0
-665,708,0,0,0,0,0,0,0,0,0,-1,559,316,0,0
-658,708,0,0,0,0,0,0,0,0,0,-1,566,316,0,0
-651,708,0,0,0,0,0,0,0,0,0,-1,573,316,0,0
-644,708,0,0,0,0,0,0,0,0,0,-1,580,316,0,0
-637,708,0,0,0,0,0,0,0,0,0,-1,587,316,0,0
-630,708,0,0,0,0,0,0,0,0,0,-1,594,316,0,0
-623,708,0,0,0,0,0,0,0,0,0,-1,601,316,0,0
-616,708,0,0,0,0,0,0,0,0,0,-1,608,316,0,0
-609,708,0,0,0,0,0,0,0,0,0,-1,615,316,0,0
-602,708,0,0,0,0,0,0,0,0,0,-1,622,316,0,0
-595,708,0,0,0,0,0,0,0,0,0,-1,629,316,0,0
-588,708,0,0,0,0,0,0,0,0,0,-1,636,316,0,0
-581,708,0,0,0,0,0,0,0,0,0,-1,643,316,0,0
-574,708,0,0,0,0,0,0,0,0,0,-1,650,316,0,0
-567,708,0,0,0,0,0,0,0,0,0,-1,657,316,0,0
-560,708,0,0,0,0,0,0,0,0,0,-1,664,316,0,0
-553,708,0,0,0,0,0,0,0,0,0,-1,671,316,0,0
-546,708,0,0,0,0,0,0,0,0,0,-1,678,316,0,0
-539,708,0,0,0,0,0,0,0,0,0,-1,685,316,0,0
-532,708,0,0,0,0,0,0,0,0,0,-1,692,316,0,0
-525,708,0,0,0,0,0,0,0,0,0,-1,699,316,0,0
-518,708,0,0,0,0,0,0,0,0,0,-1,706,316,0,0
-511,708,0,0,0,0,0,0,0,0,0,-1,713,316,0,0
-504,708,0,0,0,0,0,0,0,0,0,-1,720,316,0,0
-497,708,0,0,0,0,0,0,0,0,0,-1,727,316,0,0
-490,708,0,0,0,0,0,0,0,0,0,-1,734,316,0,0
-483,708,0,0,0,0,0,0,0,0,0,-1,741,316,0,0
-476,708,0,0,0,0,0,0,0,0,0,-1,748,316,0,0
-469,708,0,0,0,0,0,0,0,0,0,-1,755,316,0,0
-462,708,0,0,0,0,0,0,0,0,0,-1,762,316,0,0
-455,708,0,0,0,0,0,0,0,0,0,-1,769,316,0,0
-448,708,0,0,0,0,0,0,0,0,0,-1,776,316,0,0
-441,708,0,0,0,0,0,0,0,0,0,-1,783,316,0,0
-434,708,0,0,0,0,0,0,0,0,0,-1,790,316,0,0
-427,708,0,0,0,0,0,0,0,0,0,-1,797,316,0,0
-420,708,0,0,0,0,0,0,0,0,0,-1,804,316,0,0
-413,708,0,0,0,0,0,0,0,0,0,-1,811,316,0,0
-406,708,0,0,0,0,0,0,0,0,0,-1,818,316,0,0
-399,708,0,0,0,0,0,0,0,0,0,-1,825,316,0,0
-392,708,0,0,0,0,0,0,0,0,0,-1,832,316,0,0
-385,708,0,0,0,0,0,0,0,0,0,-1,839,316,0,0
-378,708,0,0,0,0,0,0,0,0,0,-1,846,316,0,0
-371,708,0,0,0,0,0,0,0,0,0,-1,853,316,0,0
-364,708,0,0,0,0,0,0,0,0,0,-1,860,316,0,0
-357,708,0,0,0,0,0,0,0,0,0,-1,867,316,0,0
-350,708,0,0,0,0,0,0,0,0,0,-1,874,316,0,0
-343,708,0,0,0,0,0,0,0,0,0,-1,881,316,0,0
-336,708,0,0,0,0,0,0,0,0,0,-1,888,316,0,0
-329,708,0,0,0,0,0,0,0,0,0,-1,895,316,0,0
-322,708,0,0,0,0,0,0,0,0,0,-1,902,316,0,0
-315,708,0,0,0,0,0,0,0,0,0,-1,909,316,0,0
-308,708,0,0,0,0,0,0,0,0,0,-1,916,316,0,0
-301,708,0,0,0,0,0,0,0,0,0,-1,923,316,0,0
-294,708,0,0,0,0,0,0,0,0,0,-1,930,316,0,0
-287,708,0,0,0,0,0,0,0,0,0,-1,937,316,0,0
-280,708,0,0,0,0,0,0,0,0,0,-1,944,316,0,0
-273,708,0,0,0,0,0,0,0,0,0,-1,951,316,0,0
-266,708,0,0,0,0,0,0,0,0,0,-1,958,316,0,0
-259,708,0,0,0,0,0,0,0,0,0,-1,965,316,0,0
-252,708,0,0,0,0,0,0,0,0,0,-1,972,316,0,0
-245,708,0,0,0,0,0,0,0,0,0,-1,979,316,0,0
-238,708,0,0,0,0,0,0,0,0,0,-1,986,316,0,0
-231,708,0,0,0,0,0,0,0,0,0,-1,993,316,0,0
-224,708,0,0,0,0,0,0,0,0,0,-1,1000,316,0,0
-217,708,0,0,0,0,0,0,0,0,0,-1,1007,316,0,0
-210,708,0,0,0,0,0,0,0,0,0,-1,1014,316,0,0
-203,708,0,0,0,0,0,0,0,0,0,-1,1021,316,0,0
-196,708,0,0,0,0,0,0,0,0,0,-1,1028,316,0,0
-189,708,0,0,0,0,0,0,0,0,0,-1,1035,316,0,0
-182,708,0,0,0,0,0,0,0,0,0,-1,1042,316,0,0
-175,708,0,0,0,0,0,0,0,0,0,-1,1049,316,0,0
-168,708,0,0,0,0,0,0,0,0,0,-1,1056,316,0,0
-161,708,0,0,0,0,0,0,0,0,0,-1,1063,316,0,0
-154,708,0,0,0,0,0,0,0,0,0,-1,1070,316,0,0
-147,708,0,0,0,0,0,0,0,0,0,-1,1077,316,0,0
-140,708,0,0,0,0,0,0,0,0,0,-1,1084,316,0,0
-133,708,0,0,0,0,0,0,0,0,0,-1,1091,316,0,0
-126,708,0,0,0,0,0,0,0,0,0,-1,1098,316,0,0
-119,708,0,0,0,0,0,0,0,0,0,-1,1105,316,0,0
-112,708,0,0,0,0,0,0,0,0,0,-1,1112,316,0,0
-105,708,0,0,0,0,0,0,0,0,0,-1,1119,316,0,0
-98,708,0,0,0,0,0,0,0,0,0,-1,1126,316,0,0
-91,708,0,0,0,0,0,0,0,0,0,-1,1133,316,0,0
-84,708,0,0,0,0,0,0,0,0,0,-1,1140,316,0,0
-77,708,0,0,0,0,0,0,0,0,0,-1,1147,316,0,0
-70,708,0,0,0,0,0,0,0,0,0,-1,1154,316,0,0
-63,708,0,0,0,0,0,0,0,0,0,-1,1161,316,0,0
-56,708,0,0,0,0,0,0,0,0,0,-1,1168,316,0,0
-49,708,0,0,0,0,0,0,0,0,0,-1,1175,316,0,0
-42,708,0,0,0,0,0,0,0,0,0,-1,1182,316,0,0
-35,708,-2.71204,-6.31558,0,0,0,0,0,0,0,-1,1189,316,-2.712,6.3156
-28,708,-2.92371,-5.53253,0,0,0,0,0,0,0,-1,1196,316,-2.92375,5.53254
-21,708,-0.417969,-24.5911,0,0,0,0,0,0,0,-1,1203,316,-0.418022,24.5911
-14,708,0.848511,-24.4586,0,0,0,0,0,0,0,-1,1210,316,0.848468,24.4586
-7,708,1.87891,-24.2607,0.123925,0.045278,-0.0090719,0.124958,0.0442452,-0.113366,0.0731613,0.0464183,1217,316,1.87896,24.2607
0,708,2.52808,-24.1605,0.104392,0.0590518,-0.0118671,0.107311,0.0561336,-0.241122,0.0619778,0.0494372,1224,316,2.52803,24.1605
7,708,3.57385,-23.6116,0.0880568,0.0725092,-0.0146757,0.0968904,0.0636756,-0.541834,0.0568537,0.0457717,1231,316,3.57388,23.6116
14,708,4.5918,-23.6898,0.0749904,0.0844939,-0.0156423,0.0960902,0.063394,-0.932857,0.0564135,0.0442279,1238,316,4.59185,23.6899
21,708,5.39551,-23.8636,0,0,0,0,0,0,0,-1,1245,316,5.39548,23.8637
28,708,2.26392,-23.221,0.0586376,0.104433,-0.016687,0.109869,0.0532022,-1.25591,0.0634432,0.0437022,1252,316,2.2639,23.221
35,708,2.41235,-23.0984,0.054882,0.113122,-0.0174008,0.117925,0.0500792,-1.30149,0.0683413,0.042363,1259,316,2.41236,23.0984
42,708,2.63623,-22.9733,0.0504191,0.11896,-0.0161048,0.122555,0.0468236,-1.35114,0.0714103,0.0419975,1266,316,2.6362,22.9733
49,708,2.9436,-22.7952,0.0419735,0.121712,-0.0138399,0.124046,0.0396397,-1.40374,0.0731561,0.0456865,1273,316,2.94358,22.7952
56,708,3.48267,-22.6582,0.0355903,0.121202,-0.0123397,0.122945,0.0338472,-1.43046,0.0733324,0.0459904,1280,316,3.48268,22.6582
63,708,4.18091,-22.5685,0.0301495,0.117735,-0.012344,0.119442,0.028443,-1.43342,0.0720433,0.0459059,1287,316,4.18086,22.5685
70,708,4.71716,-22.3457,0.0227638,0.111748,-0.0119594,0.113327,0.0211845,-1.4395,0.0695736,0.045149,1294,316,4.71713,22.3457
77,708,5.24561,-22.155,0.0145301,0.101309,-0.0114861,0.102804,0.0130355,-1.4414,0.0646303,0.0434889,1301,316,5.24563,22.155
84,708,6.21521,-25.0297,0.00559061,0.0897394,-0.0108148,0.0911071,0.00422292,-1.445,0.0593805,0.0424533,1308,316,6.21518,25.0297
91,708,5.7179,-25.1248,-0.00593354,0.076489,-0.0126157,0.0783767,-0.00782128,-1.42226,0.0550438,0.046555,1315,316,5.71785,25.1248
98,708,4.46436,-25.8024,-0.0185697,0.0644381,-0.0162264,0.0674973,-0.0216289,-1.38445,0.0536805,0.0471039,1322,316,4.46437,25.8024
105,708,3.22522,-26.4084,0,0,0,0,0,0,0,-1,1329,316,3.22525,26.4084
112,708,0.459473,-24.697,0,0,0,0,0,0,0,-1,1336,316,0.459461,24.697
119,708,2.11658,-22.722,0,0,0,0,0,0,0,-1,1343,316,2.11654,22.7219
126,708,2.08484,-23.1616,0,0,0,0,0,0,0,-1,1350,316,2.08483,23.1616
133,708,2.20349,-23.6209,0,0,0,0,0,0,0,-1,1357,316,2.20353,23.6209
140,708,0.941162,-28.4467,0,0,0,0,0,0,0,-1,1364,316,0.941109,28.4467
147,708,3.45813,-27.7368,0,0,0,0,0,0,0,-1,1371,316,3.45809,27.7368
154,708,0,0,0,0,0,0,0,0,0,-1,1378,316,0,0
161,708,0,0,0,0,0,0,0,0,0,-1,1385,316,0,0
168,708,0,0,0,0,0,0,0,0,0,-1,1392,316,0,0
175,708,0,0,0,0,0,0,0,0,0,-1,1399,316,0,0
182,708,0,0,0,0,0,0,0,0,0,-1,1406,316,0,0
189,708,0,0,0,0,0,0,0,0,0,-1,1413,316,0,0
196,708,0,0,0,0,0,0,0,0,0,-1,1420,316,0,0
203,708,0,0,0,0,0,0,0,0,0,-1,1427,316,0,0
210,708,0,0,0,0,0,0,0,0,0,-1,1434,316,0,0
217,708,0,0,0,0,0,0,0,0,0,-1,1441,316,0,0
224,708,0,0,0,0,0,0,0,0,0,-1,1448,316,0,0
231,708,0,0,0,0,0,0,0,0,0,-1,1455,316,0,0
238,708,0,0,0,0,0,0,0,0,0,-1,1462,316,0,0
245,708,0,0,0,0,0,0,0,0,0,-1,1469,316,0,0
252,708,0,0,0,0,0,0,0,0,0,-1,1476,316,0,0
259,708,0,0,0,0,0,0,0,0,0,-1,1483,316,0,0
266,708,0,0,0,0,0,0,0,0,0,-1,1490,316,0,0
273,708,0,0,0,0,0,0,0,0,0,-1,1497,316,0,0
280,708,0,0,0,0,0,0,0,0,0,-1,1504,316,0,0
287,708,0,0,0,0,0,0,0,0,0,-1,1511,316,0,0
294,708,0,0,0,0,0,0,0,0,0,-1,1518,316,0,0
301,708,0,0,0,0,0,0,0,0,0,-1,1525,316,0,0
308,708,0,0,0,0,0,0,0,0,0,-1,1532,316,0,0
315,708,0,0,0,0,0,0,0,0,0,-1,1539,316,0,0
322,708,0,0,0,0,0,0,0,0,0,-1,1546,316,0,0
329,708,0,0,0,0,0,0,0,0,0,-1,1553,316,0,0
336,708,0,0,0,0,0,0,0,0,0,-1,1560,316,0,0
343,708,0,0,0,0,0,0,0,0,0,-1,1567,316,0,0
350,708,0,0,0,0,0,0,0,0,0,-1,1574,316,0,0
357,708,0,0,0,0,0,0,0,0,0,-1,1581,316,0,0
364,708,0,0,0,0,0,0,0,0,0,-1,1588,316,0,0
371,708,0,0,0,0,0,0,0,0,0,-1,1595,316,0,0
378,708,0,0,0,0,0,0,0,0,0,-1,1602,316,0,0
385,708,0,0,0,0,0,0,0,0,0,-1,1609,316,0,0
392,708,0,0,0,0,0,0,0,0,0,-1,1616,316,0,0
399,708,0,0,0,0,0,0,0,0,0,-1,1623,316,0,0
406,708,0,0,0,0,0,0,0,0,0,-1,1630,316,0,0
413,708,0,0,0,0,0,0,0,0,0,-1,1637,316,0,0
420,708,0,0,0,0,0,0,0,0,0,-1,1644,316,0,0
427,708,0,0,0,0,0,0,0,0,0,-1,1651,316,0,0
434,708,0,0,0,0,0,0,0,0,0,-1,1658,316,0,0
441,708,0,0,0,0,0,0,0,0,0,-1,1665,316,0,0
448,708,0,0,0,0,0,0,0,0,0,-1,1672,316,0,0
455,708,0,0,0,0,0,0,0,0,0,-1,1679,316,0,0
462,708,0,0,0,0,0,0,0,0,0,-1,1686,316,0,0
469,708,0,0,0,0,0,0,0,0,0,-1,1693,316,0,0
476,708,0,0,0,0,0,0,0,0,0,-1,1700,316,0,0
483,708,0,0,0,0,0,0,0,0,0,-1,1707,316,0,0
490,708,0,0,0,0,0,0,0,0,0,-1,1714,316,0,0
497,708,0,0,0,0,0,0,0,0,0,-1,1721,316,0,0
504,708,0,0,0,0,0,0,0,0,0,-1,1728,316,0,0
511,708,0,0,0,0,0,0,0,0,0,-1,1735,316,0,0
518,708,0,0,0,0,0,0,0,0,0,-1,1742,316,0,0
525,708,0,0,0,0,0,0,0,0,0,-1,1749,316,0,0
532,708,0,0,0,0,0,0,0,0,0,-1,1756,316,0,0
539,708,0,0,0,0,0,0,0,0,0,-1,1763,316,0,0
546,708,0,0,0,0,0,0,0,0,0,-1,1770,316,0,0
553,708,0,0,0,0,0,0,0,0,0,-1,1777,316,0,0
560,708,0,0,0,0,0,0,0,0,0,-1,1784,316,0,0
567,708,0,0,0,0,0,0,0,0,0,-1,1791,316,0,0
574,708,0,0,0,0,0,0,0,0,0,-1,1798,316,0,0
581,708,0,0,0,0,0,0,0,0,0,-1,1805,316,0,0
588,708,0,0,0,0,0,0,0,0,0,-1,1812,316,0,0
595,708,0,0,0,0,0,0,0,0,0,-1,1819,316,0,0
602,708,0,0,0,0,0,0,0,0,0,-1,1826,316,0,0
609,708,0,0,0,0,0,0,0,0,0,-1,1833,316,0,0
616,708,0,0,0,0,0,0,0,0,0,-1,1840,316,0,0
623,708,0,0,0,0,0,0,0,0,0,-1,1847,316,0,0
630,708,0,0,0,0,0,0,0,0,0,-1,1854,316,0,0
637,708,0,0,0,0,0,0,0,0,0,-1,1861,316,0,0
644,708,0,0,0,0,0,0,0,0,0,-1,1868,316,0,0
651,708,0,0,0,0,0,0,0,0,0,-1,1875,316,0,0
658,708,0,0,0,0,0,0,0,0,0,-1,1882,316,0,0
665,708,0,0,0,0,0,0,0,0,0,-1,1889,316,0,0
672,708,0,0,0,0,0,0,0,0,0,-1,1896,316,0,0
679,708,0,0,0,0,0,0,0,0,0,-1,1903,316,0,0
686,708,0,0,0,0,0,0,0,0,0,-1,1910,316,0,0
693,708,0,0,0,0,0,0,0,0,0,-1,1917,316,0,0
700,708,0,0,0,0,0,0,0,0,0,-1,1924,316,0,0
707,708,0,0,0,0,0,0,0,0,0,-1,1931,316,0,0
714,708,0,0,0,0,0,0,0,0,0,-1,1938,316,0,0
721,708,0,0,0,0,0,0,0,0,0,-1,1945,316,0,0
728,708,0,0,0,0,0,0,0,0,0,-1,1952,316,0,0
735,708,0,0,0,0,0,0,0,0,0,-1,1959,316,0,0
742,708,0,0,0,0,0,0,0,0,0,-1,1966,316,0,0
749,708,0,0,0,0,0,0,0,0,0,-1,1973,316,0,0
756,708,0,0,0,0,0,0,0,0,0,-1,1980,316,0,0
763,708,0,0,0,0,0,0,0,0,0,-1,1987,316,0,0
770,708,0,0,0,0,0,0,0,0,0,-1,1994,316,0,0
777,708,0,0,0,0,0,0,0,0,0,-1,2001,316,0,0
784,708,0,0,0,0,0,0,0,0,0,-1,2008,316,0,0
791,708,0,0,0,0,0,0,0,0,0,-1,2015,316,0,0
798,708,0,0,0,0,0,0,0,0,0,-1,2022,316,0,0
805,708,0,0,0,0,0,0,0,0,0,-1,2029,316,0,0
812,708,0,0,0,0,0,0,0,0,0,-1,2036,316,0,0
-700,701,0,0,0,0,0,0,0,0,0,-1,524,323,0,0
-693,701,0,0,0,0,0,0,0,0,0,-1,531,323,0,0
-686,701,0,0,0,0,0,0,0,0,0,-1,538,323,0,0
-679,701,0,0,0,0,0,0,0,0,0,-1,545,323,0,0
-672,701,0,0,0,0,0,0,0,0,0,-1,552,323,0,0
-665,701,0,0,0,0,0,0,0,0,0,-1,559,323,0,0
-658,701,0,0,0,0,0,0,0,0,0,-1,566,323,0,0
-651,701,0,0,0,0,0,0,0,0,0,-1,573,323,0,0
-644,701,0,0,0,0,0,0,0,0,0,-1,580,323,0,0
-637,701,0,0,0,0,0,0,0,0,0,-1,587,323,0,0
-630,701,0,0,0,0,0,0,0,0,0,-1,594,323,0,0
-623,701,0,0,0,0,0,0,0,0,0,-1,601,323,0,0
-616,701,0,0,0,0,0,0,0,0,0,-1,608,323,0,0
-609,701,0,0,0,0,0,0,0,0,0,-1,615,323,0,0
-602,701,0,0,0,0,0,0,0,0,0,-1,622,323,0,0
-595,701,0,0,0,0,0,0,0,0,0,-1,629,323,0,0
-588,701,0,0,0,0,0,0,0,0,0,-1,636,323,0,0
-581,701,0,0,0,0,0,0,0,0,0,-1,643,323,0,0
-574,701,0,0,0,0,0,0,0,0,0,-1,650,323,0,0
-567,701,0,0,0,0,0,0,0,0,0,-1,657,323,0,0
-560,701,0,0,0,0,0,0,0,0,0,-1,664,323,0,0
-553,701,0,0,0,0,0,0,0,0,0,-1,671,323,0,0
-546,701,0,0,0,0,0,0,0,0,0,-1,678,323,0,0
-539,701,0,0,0,0,0,0,0,0,0,-1,685,323,0,0
-532,701,0,0,0,0,0,0,0,0,0,-1,692,323,0,0
-525,701,0,0,0,0,0,0,0,0,0,-1,699,323,0,0
-518,701,0,0,0,0,0,0,0,0,0,-1,706,323,0,0
-511,701,0,0,0,0,0,0,0,0,0,-1,713,323,0,0
-504,701,0,0,0,0,0,0,0,0,0,-1,720,323,0,0
-497,701,0,0,0,0,0,0,0,0,0,-1,727,323,0,0
-490,701,0,0,0,0,0,0,0,0,0,-1,734,323,0,0
-483,701,0,0,0,0,0,0,0,0,0,-1,741,323,0,0
-476,701,0,0,0,0,0,0,0,0,0,-1,748,323,0,0
-469,701,0,0,0,0,0,0,0,0,0,-1,755,323,0,0
-462,701,0,0,0,0,0,0,0,0,0,-1,762,323,0,0
-455,701,0,0,0,0,0,0,0,0,0,-1,769,323,0,0
-448,701,0,0,0,0,0,0,0,0,0,-1,776,323,0,0
-441,701,0,0,0,0,0,0,0,0,0,-1,783,323,0,0
-434,701,0,0,0,0,0,0,0,0,0,-1,790,323,0,0
-427,701,0,0,0,0,0,0,0,0,0,-1,797,323,0,0
-420,701,0,0,0,0,0,0,0,0,0,-1,804,323,0,0
-413,701,0,0,0,0,0,0,0,0,0,-1,811,323,0,0
-406,701,0,0,0,0,0,0,0,0,0,-1,818,323,0,0
-399,701,0,0,0,0,0,0,0,0,0,-1,825,323,0,0
-392,701,0,0,0,0,0,0,0,0,0,-1,832,323,0,0
-385,701,0,0,0,0,0,0,0,0,0,-1,839,323,0,0
-378,701,0,0,0,0,0,0,0,0,0,-1,846,323,0,0
-371,701,0,0,0,0,0,0,0,0,0,-1,853,323,0,0
-364,701,0,0,0,0,0,0,0,0,0,-1,860,323,0,0
-357,701,0,0,0,0,0,0,0,0,0,-1,867,323,0,0
-350,701,0,0,0,0,0,0,0,0,0,-1,874,323,0,0
-343,701,0,0,0,0,0,0,0,0,0,-1,881,323,0,0
-336,701,0,0,0,0,0,0,0,0,0,-1,888,323,0,0
-329,701,0,0,0,0,0,0,0,0,0,-1,895,323,0,0
-322,701,0,0,0,0,0,0,0,0,0,-1,902,323,0,0
-315,701,0,0,0,0,0,0,0,0,0,-1,909,323,0,0
-308,701,0,0,0,0,0,0,0,0,0,-1,916,323,0,0
-301,701,0,0,0,0,0,0,0,0,0,-1,923,323,0,0
-294,701,0,0,0,0,0,0,0,0,0,-1,930,323,0,0
-287,701,0,0,0,0,0,0,0,0,0,-1,937,323,0,0
-280,701,0,0,0,0,0,0,0,0,0,-1,944,323,0,0
-273,701,0,0,0,0,0,0,0,0,0,-1,951,323,0,0
-266,701,0,0,0,0,0,0,0,0,0,-1,958,323,0,0
-259,701,0,0,0,0,0,0,0,0,0,-1,965,323,0,0
-252,701,0,0,0,0,0,0,0,0,0,-1,972,323,0,0
-245,701,0,0,0,0,0,0,0,0,0,-1,979,323,0,0
-238,701,0,0,0,0,0,0,0,0,0,-1,986,323,0,0
-231,701,0,0,0,0,0,0,0,0,0,-1,993,323,0,0
-224,701,0,0,0,0,0,0,0,0,0,-1,1000,323,0,0
-217,701,0,0,0,0,0,0,0,0,0,-1,1007,323,0,0
-210,701,0,0,0,0,0,0,0,0,0,-1,1014,323,0,0
-203,701,0,0,0,0,0,0,0,0,0,-1,1021,323,0,0
-196,701,0,0,0,0,0,0,0,0,0,-1,1028,323,0,0
-189,701,0,0,0,0,0,0,0,0,0,-1,1035,323,0,0
-182,701,0,0,0,0,0,0,0,0,0,-1,1042,323,0,0
-175,701,0,0,0,0,0,0,0,0,0,-1,1049,323,0,0
-168,701,0,0,0,0,0,0,0,0,0,-1,1056,323,0,0
-161,701,0,0,0,0,0,0,0,0,0,-1,1063,323,0,0
-154,701,0,0,0,0,0,0,0,0,0,-1,1070,323,0,0
-147,701,0,0,0,0,0,0,0,0,0,-1,1077,323,0,0
-140,701,0,0,0,0,0,0,0,0,0,-1,1084,323,0,0
-133,701,0,0,0,0,0,0,0,0,0,-1,1091,323,0,0
-126,701,0,0,0,0,0,0,0,0,0,-1,1098,323,0,0
-119,701,0,0,0,0,0,0,0,0,0,-1,1105,323,0,0
-112,701,0,0,0,0,0,0,0,0,0,-1,1112,323,0,0
-105,701,0,0,0,0,0,0,0,0,0,-1,1119,323,0,0
-98,701,0,0,0,0,0,0,0,0,0,-1,1126,323,0,0
-91,701,0,0,0,0,0,0,0,0,0,-1,1133,323,0,0
-84,701,0,0,0,0,0,0,0,0,0,-1,1140,323,0,0
-77,701,0,0,0,0,0,0,0,0,0,-1,1147,323,0,0
-70,701,-11.5446,-19.509,0,0,0,0,0,0,0,-1,1154,323,-11.5445,19.509
-63,701,-17.0184,-14.0584,0,0,0,0,0,0,0,-1,1161,323,-17.0185,14.0584
-56,701,-0.420166,-0.101776,0,0,0,0,0,0,0,-1,1168,323,-0.420119,0.101777
-49,701,-1.09021,-0.155762,0,0,0,0,0,0,0,-1,1175,323,-1.09024,0.155768
-42,701,-0.210327,-0.299133,0,0,0,0,0,0,0,-1,1182,323,-0.210379,0.29914
-35,701,-2.9635,-7.98676,0,0,0,0,0,0,0,-1,1189,323,-2.9635,7.98676
-28,701,-6.64417,-5.4917,0,0,0,0,0,0,0,-1,1196,323,-6.64411,5.4917
-21,701,0.563477,-18.3431,0,0,0,0,0,0,0,-1,1203,323,0.5635,18.3431
-14,701,1.65442,-24.5962,0,0,0,0,0,0,0,-1,1210,323,1.65445,24.5962
-7,701,2.35815,-24.5077,0.0961272,0.0457796,-0.00808931,0.0973949,0.0445118,-0.155458,0.0563002,0.0470188,1217,323,2.35814,24.5077
0,701,3.21716,-24.6064,0.0807187,0.0562356,-0.0100167,0.0842945,0.0526597,-0.342888,0.0491695,0.0482809,1224,323,3.21716,24.6064
7,701,3.52966,-23.781,0.0674138,0.0664773,-0.0120395,0.0789942,0.054897,-0.765961,0.0467486,0.0437806,1231,323,3.52967,23.781
14,701,4.19739,-23.5774,0.0565246,0.0758408,-0.0128548,0.0822614,0.050104,-1.10757,0.0478689,0.0451287,1238,323,4.19736,23.5774
21,701,4.8479,-23.3815,0,0,0,0,0,0,0,-1,1245,323,4.84785,23.3815
28,701,4.35791,-23.8219,0.0431558,0.0916362,-0.0136911,0.0952354,0.0395566,-1.31372,0.0552462,0.0480137,1252,323,4.35788,23.8219
35,701,3.21143,-25.051,0.0404739,0.0979393,-0.0142682,0.101287,0.0371262,-1.34034,0.0591683,0.0475396,1259,323,3.21148,25.051
42,701,2.84814,-23.922,0.0373453,0.101727,-0.0130858,0.104285,0.0347872,-1.37774,0.0613104,0.0451927,1266,323,2.84813,23.922
49,701,3.15735,-23.7214,0.0302888,0.103254,-0.0107179,0.104795,0.028747,-1.42792,0.0625244,0.0462097,1273,323,3.15737,23.7214
56,701,3.61121,-23.5453,0.0248797,0.101868,-0.00930974,0.102977,0.0237699,-1.45215,0.0622596,0.0465839,1280,323,3.61123,23.5453
63,701,4.32239,-22.9066,0.020588,0.0980314,-0.00923692,0.0991178,0.0195015,-1.45371,0.0606326,0.0460182,1287,323,4.32244,22.9066
70,701,4.77734,-22.5315,0.0147152,0.0922946,-0.00882139,0.093285,0.0137248,-1.45899,0.0581574,0.0450517,1294,323,4.77729,22.5315
77,701,5.0166,-22.5651,0.00854839,0.083258,-0.00821319,0.0841502,0.00765613,-1.46258,0.0537303,0.0467189,1301,323,5.0166,22.5651
84,701,5.52563,-25.9057,0.00204743,0.0732584,-0.00738197,0.0740156,0.00129024,-1.46858,0.0489193,0.0431152,1308,323,5.52561,25.9057
91,701,5.01001,-25.9301,-0.00642422,0.0626817,-0.00850972,0.0637141,-0.00745668,-1.45006,0.0451673,0.0448414,1315,323,5.00997,25.9301
98,701,4.28577,-25.9677,-0.0159053,0.0529894,-0.0111328,0.0547437,-0.0176596,-1.4145,0.0435915,0.0447253,1322,323,4.28575,25.9677
105,701,1.1377,-24.9684,-0.0242729,0.0434173,-0.0139118,0.046165,-0.0270205,-1.3758,0.0427328,0.0430509,1329,323,1.13772,24.9684
112,701,1.44702,-24.7482,-0.0305104,0.0343686,-0.0173705,0.0387266,-0.0348684,-1.32498,0.0425095,0.0440867,1336,323,1.44696,24.7482
119,701,1.98022,-25.0597,0,0,0,0,0,0,0,-1,1343,323,1.98018,25.0597
126,701,1.98901,-25.0584,0,0,0,0,0,0,0,-1,1350,323,1.98904,25.0584
133,701,1.82581,-25.0673,0,0,0,0,0,0,0,-1,1357,323,1.82583,25.0672
140,701,2.19238,-24.4018,0,0,0,0,0,0,0,-1,1364,323,2.19233,24.4018
147,701,3.62793,-26.6125,0,0,0,0,0,0,0,-1,1371,323,3.62794,26.6126
154,701,3.53247,-26.9483,0,0,0,0,0,0,0,-1,1378,323,3.53248,26.9483
161,701,4.03259,-20.648,0,0,0,0,0,0,0,-1,1385,323,4.0326,20.648
168,701,30.7272,1.76184,0,0,0,0,0,0,0,-1,1392,323,30.7272,-1.76184
175,701,31.5035,2.25711,0,0,0,0,0,0,0,-1,1399,323,31.5036,-2.25712
182,701,8.80652,5.42807,0,0,0,0,0,0,0,-1,1406,323,8.8065,-5.42808
189,701,8.58081,4.24493,0,0,0,0,0,0,0,-1,1413,323,8.58082,-4.24494
196,701,0,0,0,0,0,0,0,0,0,-1,1420,323,0,0
203,701,0,0,0,0,0,0,0,0,0,-1,1427,323,0,0
210,701,0,0,0,0,0,0,0,0,0,-1,1434,323,0,0
217,701,0,0,0,0,0,0,0,0,0,-1,1441,323,0,0
224,701,0,0,0,0,0,0,0,0,0,-1,1448,323,0,0
231,701,0,0,0,0,0,0,0,0,0,-1,1455,323,0,0
238,701,0,0,0,0,0,0,0,0,0,-1,1462,323,0,0
245,701,0,0,0,0,0,0,0,0,0,-1,1469,323,0,0
252,701,0,0,0,0,0,0,0,0,0,-1,1476,323,0,0
259,701,0,0,0,0,0,0,0,0,0,-1,1483,323,0,0
266,701,0,0,0,0,0,0,0,0,0,-1,1490,323,0,0
273,701,0,0,0,0,0,0,0,0,0,-1,1497,323,0,0
280,701,0,0,0,0,0,0,0,0,0,-1,1504,323,0,0
287,701,0,0,0,0,0,0,0,0,0,-1,1511,323,0,0
294,701,0,0,0,0,0,0,0,0,0,-1,1518,323,0,0
301,701,0,0,0,0,0,0,0,0,0,-1,1525,323,0,0
308,701,0,0,0,0,0,0,0,0,0,-1,1532,323,0,0
315,701,0,0,0,0,0,0,0,0,0,-1,1539,323,0,0
322,701,0,0,0,0,0,0,0,0,0,-1,1546,323,0,0
329,701,0,0,0,0,0,0,0,0,0,-1,1553,323,0,0
336,701,0,0,0,0,0,0,0,0,0,-1,1560,323,0,0
343,701,0,0,0,0,0,0,0,0,0,-1,1567,323,0,0
350,701,0,0,0,0,0,0,0,0,0,-1,1574,323,0,0
357,701,0,0,0,0,0,0,0,0,0,-1,1581,323,0,0
364,701,0,0,0,0,0,0,0,0,0,-1,1588,323,0,0
371,701,0,0,0,0,0,0,0,0,0,-1,1595,323,0,0
378,701,0,0,0,0,0,0,0,0,0,-1,1602,323,0,0
385,701,0,0,0,0,0,0,0,0,0,-1,1609,323,0,0
392,701,0,0,0,0,0,0,0,0,0,-1,1616,323,0,0
399,701,0,0,0,0,0,0,0,0,0,-1,1623,323,0,0
406,701,0,0,0,0,0,0,0,0,0,-1,1630,323,0,0
413,701,0,0,0,0,0,0,0,0,0,-1,1637,323,0,0
420,701,0,0,0,0,0,0,0,0,0,-1,1644,323,0,0
427,701,0,0,0,0,0,0,0,0,0,-1,1651,323,0,0
434,701,0,0,0,0,0,0,0,0,0,-1,1658,323,0,0
441,701,0,0,0,0,0,0,0,0,0,-1,1665,323,0,0
448,701,0,0,0,0,0,0,0,0,0,-1,1672,323,0,0
455,701,0,0,0,0,0,0,0,0,0,-1,1679,323,0,0
462,701,0,0,0,0,0,0,0,0,0,-1,1686,323,0,0
469,701,0,0,0,0,0,0,0,0,0,-1,1693,323,0,0
476,701,0,0,0,0,0,0,0,0,0,-1,1700,323,0,0
483,701,0,0,0,0,0,0,0,0,0,-1,1707,323,0,0
490,701,0,0,0,0,0,0,0,0,0,-1,1714,323,0,0
497,701,0,0,0,0,0,0,0,0,0,-1,1721,323,0,0
504,701,0,0,0,0,0,0,0,0,0,-1,1728,323,0,0
511,701,0,0,0,0,0,0,0,0,0,-1,1735,323,0,0
518,701,0,0,0,0,0,0,0,0,0,-1,1742,323,0,0
525,701,0,0,0,0,0,0,0,0,0,-1,1749,323,0,0
532,701,0,0,0,0,0,0,0,0,0,-1,1756,323,0,0
539,701,0,0,0,0,0,0,0,0,0,-1,1763,323,0,0
546,701,0,0,0,0,0,0,0,0,0,-1,1770,323,0,0
553,701,0,0,0,0,0,0,0,0,0,-1,1777,323,0,0
560,701,0,0,0,0,0,0,0,0,0,-1,1784,323,0,0
567,701,0,0,0,0,0,0,0,0,0,-1,1791,323,0,0
574,701,0,0,0,0,0,0,0,0,0,-1,1798,323,0,0
581,701,0,0,0,0,0,0,0,0,0,-1,1805,323,0,0
588,701,0,0,0,0,0,0,0,0,0,-1,1812,323,0,0
595,701,0,0,0,0,0,0,0,0,0,-1,1819,323,0,0
602,701,0,0,0,0,0,0,0,0,0,-1,1826,323,0,0
609,701,0,0,0,0,0,0,0,0,0,-1,1833,323,0,0
616,701,0,0,0,0,0,0,0,0,0,-1,1840,323,0,0
623,701,0,0,0,0,0,0,0,0,0,-1,1847,323,0,0
630,701,0,0,0,0,0,0,0,0,0,-1,1854,323,0,0
637,701,0,0,0,0,0,0,0,0,0,-1,1861,323,0,0
644,701,0,0,0,0,0,0,0,0,0,-1,1868,323,0,0
651,701,0,0,0,0,0,0,0,0,0,-1,1875,323,0,0
658,701,0,0,0,0,0,0,0,0,0,-1,1882,323,0,0
665,701,0,0,0,0,0,0,0,0,0,-1,1889,323,0,0
672,701,0,0,0,0,0,0,0,0,0,-1,1896,323,0,0
679,701,0,0,0,0,0,0,0,0,0,-1,1903,323,0,0
686,701,0,0,0,0,0,0,0,0,0,-1,1910,323,0,0
693,701,0,0,0,0,0,0,0,0,0,-1,1917,323,0,0
700,701,0,0,0,0,0,0,0,0,0,-1,1924,323,0,0
707,701,0,0,0,0,0,0,0,0,0,-1,1931,323,0,0
714,701,0,0,0,0,0,0,0,0,0,-1,1938,323,0,0
721,701,0,0,0,0,0,0,0,0,0,-1,1945,323,0,0
728,701,0,0,0,0,0,0,0,0,0,-1,1952,323,0,0
735,701,0,0,0,0,0,0,0,0,0,-1,1959,323,0,0
742,701,0,0,0,0,0,0,0,0,0,-1,1966,323,0,0
749,701,0,0,0,0,0,0,0,0,0,-1,1973,323,0,0
756,701,0,0,0,0,0,0,0,0,0,-1,1980,323,0,0
763,701,0,0,0,0,0,0,0,0,0,-1,1987,323,0,0
770,701,0,0,0,0,0,0,0,0,0,-1,1994,323,0,0
777,701,0,0,0,0,0,0,0,0,0,-1,2001,323,0,0
784,701,0,0,0,0,0,0,0,0,0,-1,2008,323,0,0
791,701,0,0,0,0,0,0,0,0,0,-1,2015,323,0,0
798,701,0,0,0,0,0,0,0,0,0,-1,2022,323,0,0
805,701,0,0,0,0,0,0,0,0,0,-1,2029,323,0,0
812,701,0,0,0,0,0,0,0,0,0,-1,2036,323,0,0
-700,694,0,0,0,0,0,0,0,0,0,-1,524,330,0,0
-693,694,0,0,0,0,0,0,0,0,0,-1,531,330,0,0
-686,694,0,0,0,0,0,0,0,0,0,-1,538,330,0,0
-679,694,0,0,0,0,0,0,0,0,0,-1,545,330,0,0
-672,694,0,0,0,0,0,0,0,0,0,-1,552,330,0,0
-665,694,0,0,0,0,0,0,0,0,0,-1,559,330,0,0
-658,694,0,0,0,0,0,0,0,0,0,-1,566,330,0,0
-651,694,0,0,0,0,0,0,0,0,0,-1,573,330,0,0
-644,694,0,0,0,0,0,0,0,0,0,-1,580,330,0,0
-637,694,0,0,0,0,0,0,0,0,0,-1,587,330,0,0
-630,694,0,0,0,0,0,0,0,0,0,-1,594,330,0,0
-623,694,0,0,0,0,0,0,0,0,0,-1,601,330,0,0
-616,694,0,0,0,0,0,0,0,0,0,-1,608,330,0,0
-609,694,0,0,0,0,0,0,0,0,0,-1,615,330,0,0
-602,694,0,0,0,0,0,0,0,0,0,-1,622,330,0,0
-595,694,0,0,0,0,0,0,0,0,0,-1,629,330,0,0
-588,694,0,0,0,0,0,0,0,0,0,-1,636,330,0,0
-581,694,0,0,0,0,0,0,0,0,0,-1,643,330,0,0
-574,694,0,0,0,0,0,0,0,0,0,-1,650,330,0,0
-567,694,0,0,0,0,0,0,0,0,0,-1,657,330,0,0
-560,694,0,0,0,0,0,0,0,0,0,-1,664,330,0,0
-553,694,0,0,0,0,0,0,0,0,0,-1,671,330,0,0
-546,694,0,0,0,0,0,0,0,0,0,-1,678,330,0,0
-539,694,0,0,0,0,0,0,0,0,0,-1,685,330,0,0
-532,694,0,0,0,0,0,0,0,0,0,-1,692,330,0,0
-525,694,0,0,0,0,0,0,0,0,0,-1,699,330,0,0
-518,694,0,0,0,0,0,0,0,0,0,-1,706,330,0,0
-511,694,0,0,0,0,0,0,0,0,0,-1,713,330,0,0
-504,694,0,0,0,0,0,0,0,0,0,-1,720,330,0,0
-497,694,0,0,0,0,0,0,0,0,0,-1,727,330,0,0
-490,694,0,0,0,0,0,0,0,0,0,-1,734,330,0,0
-483,694,0,0,0,0,0,0,0,0,0,-1,741,330,0,0
-476,694,0,0,0,0,0,0,0,0,0,-1,748,330,0,0
-469,694,0,0,0,0,0,0,0,0,0,-1,755,330,0,0
-462,694,0,0,0,0,0,0,0,0,0,-1,762,330,0,0
-455,694,0,0,0,0,0,0,0,0,0,-1,769,330,0,0
-448,694,0,0,0,0,0,0,0,0,0,-1,776,330,0,0
-441,694,0,0,0,0,0,0,0,0,0,-1,783,330,0,0
-434,694,0,0,0,0,0,0,0,0,0,-1,790,330,0,0
-427,694,0,0,0,0,0,0,0,0,0,-1,797,330,0,0
-420,694,0,0,0,0,0,0,0,0,0,-1,804,330,0,0
-413,694,0,0,0,0,0,0,0,0,0,-1,811,330,0,0
-406,694,0,0,0,0,0,0,0,0,0,-1,818,330,0,0
-399,694,0,0,0,0,0,0,0,0,0,-1,825,330,0,0
-392,694,0,0,0,0,0,0,0,0,0,-1,832,330,0,0
-385,694,0,0,0,0,0,0,0,0,0,-1,839,330,0,0
-378,694,0,0,0,0,0,0,0,0,0,-1,846,330,0,0
-371,694,0,0,0,0,0,0,0,0,0,-1,853,330,0,0
-364,694,0,0,0,0,0,0,0,0,0,-1,860,330,0,0
-357,694,0,0,0,0,0,0,0,0,0,-1,867,330,0,0
-350,694,0,0,0,0,0,0,0,0,0,-1,874,330,0,0
-343,694,0,0,0,0,0,0,0,0,0,-1,881,330,0,0
-336,694,0,0,0,0,0,0,0,0,0,-1,888,330,0,0
-329,694,0,0,0,0,0,0,0,0,0,-1,895,330,0,0
-322,694,0,0,0,0,0,0,0,0,0,-1,902,330,0,0
-315,694,0,0,0,0,0,0,0,0,0,-1,909,330,0,0
-308,694,0,0,0,0,0,0,0,0,0,-1,916,330,0,0
-301,694,0,0,0,0,0,0,0,0,0,-1,923,330,0,0
-294,694,0,0,0,0,0,0,0,0,0,-1,930,330,0,0
-287,694,0,0,0,0,0,0,0,0,0,-1,937,330,0,0
-280,694,0,0,0,0,0,0,0,0,0,-1,944,330,0,0
-273,694,0,0,0,0,0,0,0,0,0,-1,951,330,0,0
-266,694,0,0,0,0,0,0,0,0,0,-1,958,330,0,0
-259,694,0,0,0,0,0,0,0,0,0,-1,965,330,0,0
-252,694,0,0,0,0,0,0,0,0,0,-1,972,330,0,0
-245,694,0,0,0,0,0,0,0,0,0,-1,979,330,0,0
-238,694,0,0,0,0,0,0,0,0,0,-1,986,330,0,0
-231,694,0,0,0,0,0,0,0,0,0,-1,993,330,0,0
-224,694,0,0,0,0,0,0,0,0,0,-1,1000,330,0,0
-217,694,0,0,0,0,0,0,0,0,0,-1,1007,330,0,0
-210,694,0,0,0,0,0,0,0,0,0,-1,1014,330,0,0
-203,694,0,0,0,0,0,0,0,0,0,-1,1021,330,0,0
-196,694,0,0,0,0,0,0,0,0,0,-1,1028,330,0,0
-189,694,0,0,0,0,0,0,0,0,0,-1,1035,330,0,0
-182,694,0,0,0,0,0,0,0,0,0,-1,1042,330,0,0
-175,694,0,0,0,0,0,0,0,0,0,-1,1049,330,0,0
-168,694,0,0,0,0,0,0,0,0,0,-1,1056,330,0,0
-161,694,0,0,0,0,0,0,0,0,0,-1,1063,330,0,0
-154,694,0,0,0,0,0,0,0,0,0,-1,1070,330,0,0
-147,694,0,0,0,0,0,0,0,0,0,-1,1077,330,0,0
-140,694,0,0,0,0,0,0,0,0,0,-1,1084,330,0,0
-133,694,0,0,0,0,0,0,0,0,0,-1,1091,330,0,0
-126,694,0,0,0,0,0,0,0,0,0,-1,1098,330,0,0
-119,694,0,0,0,0,0,0,0,0,0,-1,1105,330,0,0
-112,694,0,0,0,0,0,0,0,0,0,-1,1112,330,0,0
-105,694,2.5188,-19.3963,0,0,0,0,0,0,0,-1,1119,330,2.51882,19.3963
-98,694,1.34875,-10.1051,0,0,0,0,0,0,0,-1,1126,330,1.34874,10.1051
-91,694,6.86755,-33.359,0,0,0,0,0,0,0,-1,1133,330,6.86759,33.359
-84,694,1.17896,-28.0219,0,0,0,0,0,0,0,-1,1140,330,1.17896,28.0219
-77,694,-4.61255,-22.77,0,0,0,0,0,0,0,-1,1147,330,-4.61256,22.77
-70,694,-10.2438,-17.4885,0,0,0,0,0,0,0,-1,1154,330,-10.2437,17.4885
-63,694,-15.7178,-11.9616,0,0,0,0,0,0,0,-1,1161,330,-15.7178,11.9616
-56,694,-6.50623,-0.649139,0,0,0,0,0,0,0,-1,1168,330,-6.5062,0.649126
-49,694,-1.11426,0.0341797,0,0,0,0,0,0,0,-1,1175,330,-1.11424,-0.0341846
-42,694,-0.346313,-0.709595,0,0,0,0,0,0,0,-1,1182,330,-0.346298,0.709581
-35,694,-0.459106,-1.24713,0,0,0,0,0,0,0,-1,1189,330,-0.459142,1.24714
-28,694,-6.48413,-3.95972,0,0,0,0,0,0,0,-1,1196,330,-6.48414,3.9597
-21,694,2.63269,-20.663,0,0,0,0,0,0,0,-1,1203,330,2.63273,20.663
-14,694,2.06042,-24.8669,0,0,0,0,0,0,0,-1,1210,330,2.06041,24.867
-7,694,2.54248,-24.7001,0.072199,0.0441354,-0.00722019,0.0739476,0.0423868,-0.237614,0.0428459,0.0478695,1217,330,2.54242,24.7001
0,694,3.05847,-24.5534,0.0605855,0.0517504,-0.00847169,0.0657222,0.0466137,-0.545068,0.0390367,0.0459481,1224,330,3.05853,24.5534
7,694,3.45032,-24.0195,0.0502502,0.0593304,-0.0098351,0.0656228,0.0439579,-1.00164,0.0386092,0.0409706,1231,330,3.45029,24.0195
14,694,4.09814,-23.8771,0.0416066,0.0663563,-0.0104065,0.0701503,0.0378126,-1.22119,0.0405424,0.0420106,1238,330,4.0981,23.8771
21,694,4.72754,-23.7401,0.0349441,0.0731296,-0.0103509,0.0757549,0.0323188,-1.3224,0.0438938,0.0489924,1245,330,4.72753,23.7401
28,694,4.948,-23.4316,0.0310345,0.0783999,-0.0109932,0.080827,0.0286074,-1.3535,0.0473246,0.0485428,1252,330,4.94796,23.4316
35,694,3.37195,-25.2069,0.0291194,0.0827716,-0.0114303,0.0851053,0.0267858,-1.3694,0.0502473,0.0460841,1259,330,3.37191,25.2069
42,694,3.14709,-24.5309,0.0269508,0.0850369,-0.010389,0.0868391,0.0251486,-1.39903,0.051595,0.0490704,1266,330,3.14714,24.531
49,694,3.75769,-25.188,0,0,0,0,0,0,0,-1,1273,330,3.75769,25.188
56,694,3.85522,-24.4527,0.0167682,0.0839341,-0.00688025,0.0846316,0.0160707,-1.46976,0.0519003,0.0451789,1280,330,3.85518,24.4527
63,694,4.21057,-24.2495,0.0134472,0.0801415,-0.0067516,0.0808181,0.0127706,-1.47091,0.0501667,0.0485773,1287,330,4.21059,24.2495
70,694,4.63733,-24.1552,0.00887831,0.0749425,-0.00634002,0.0755454,0.00827538,-1.47598,0.0478443,0.0461789,1294,330,4.63727,24.1552
77,694,5.19446,-24.3688,0,0,0,0,0,0,0,-1,1301,330,5.19451,24.3688
84,694,4.8385,-27.3449,0,0,0,0,0,0,0,-1,1308,330,4.83847,27.3449
91,694,4.09668,-26.8762,0,0,0,0,0,0,0,-1,1315,330,4.09672,26.8762
98,694,4.03369,-26.2566,-0.0137938,0.0429819,-0.0074391,0.0439405,-0.0147523,-1.44265,0.0352554,0.0456985,1322,330,4.03367,26.2566
105,694,2.10962,-24.7805,-0.0200987,0.0358267,-0.00933551,0.0373439,-0.0216159,-1.40969,0.0344418,0.0434078,1329,330,2.10967,24.7805
112,694,2.34888,-24.6426,-0.0247768,0.0291769,-0.0118146,0.0316506,-0.0272505,-1.3644,0.0340382,0.043793,1336,330,2.34891,24.6427
119,694,2.59863,-24.9602,-0.0275065,0.0237582,-0.0149089,0.0277787,-0.031527,-1.30739,0.034263,0.0424192,1343,330,2.59864,24.9602
126,694,2.48889,-25.0605,-0.0275594,0.0194891,-0.0176718,0.0253874,-0.0334576,-1.24866,0.0340805,0.045436,1350,330,2.48889,25.0605
133,694,2.37036,-25.1329,-0.0254018,0.0188595,-0.0188458,0.0257965,-0.0323389,-1.21809,0.0336352,0.0471346,1357,330,2.37034,25.1329
140,694,2.28821,-25.1981,0,0,0,0,0,0,0,-1,1364,330,2.28819,25.1981
147,694,2.48132,-25.1783,0,0,0,0,0,0,0,-1,1371,330,2.48133,25.1784
154,694,3.83032,-25.9082,0,0,0,0,0,0,0,-1,1378,330,3.83028,25.9082
161,694,3.92969,-26.2193,0,0,0,0,0,0,0,-1,1385,330,3.92966,26.2193
168,694,30.451,0.196686,0,0,0,0,0,0,0,-1,1392,330,30.4511,-0.196674
175,694,31.0701,0.869873,0,0,0,0,0,0,0,-1,1399,330,31.07,-0.869874
182,694,8.29028,5.75238,0,0,0,0,0,0,0,-1,1406,330,8.29034,-5.75237
189,694,7.9801,4.46118,0,0,0,0,0,0,0,-1,1413,330,7.9801,-4.46118
196,694,7.39331,3.32632,0,0,0,0,0,0,0,-1,1420,330,7.39329,-3.32633
203,694,7.04492,2.20529,0,0,0,0,0,0,0,-1,1427,330,7.04496,-2.20529
210,694,6.44714,0.646912,0,0,0,0,0,0,0,-1,1434,330,6.44717,-0.646903
217,694,7.12061,-0.644958,0,0,0,0,0,0,0,-1,1441,330,7.12059,0.644961
224,694,6.74011,-1.70544,0,0,0,0,0,0,0,-1,1448,330,6.74013,1.70546
231,694,0,0,0,0,0,0,0,0,0,-1,1455,330,0,0
238,694,0,0,0,0,0,0,0,0,0,-1,1462,330,0,0
245,694,0,0,0,0,0,0,0,0,0,-1,1469,330,0,0
252,694,0,0,0,0,0,0,0,0,0,-1,1476,330,0,0
259,694,0,0,0,0,0,0,0,0,0,-1,1483,330,0,0
266,694,0,0,0,0,0,0,0,0,0,-1,1490,330,0,0
273,694,0,0,0,0,0,0,0,0,0,-1,1497,330,0,0
280,694,0,0,0,0,0,0,0,0,0,-1,1504,330,0,0
287,694,0,0,0,0,0,0,0,0,0,-1,1511,330,0,0
294,694,0,0,0,0,0,0,0,0,0,-1,1518,330,0,0
301,694,0,0,0,0,0,0,0,0,0,-1,1525,330,0,0
308,694,0,0,0,0,0,0,0,0,0,-1,1532,330,0,0
315,694,0,0,0,0,0,0,0,0,0,-1,1539,330,0,0
322,694,0,0,0,0,0,0,0,0,0,-1,1546,330,0,0
329,694,0,0,0,0,0,0,0,0,0,-1,1553,330,0,0
336,694,0,0,0,0,0,0,0,0,0,-1,1560,330,0,0
343,694,0,0,0,0,0,0,0,0,0,-1,1567,330,0,0
350,694,0,0,0,0,0,0,0,0,0,-1,1574,330,0,0
357,694,0,0,0,0,0,0,0,0,0,-1,1581,330,0,0
364,694,0,0,0,0,0,0,0,0,0,-1,1588,330,0,0
371,694,0,0,0,0,0,0,0,0,0,-1,1595,330,0,0
378,694,0,0,0,0,0,0,0,0,0,-1,1602,330,0,0
385,694,0,0,0,0,0,0,0,0,0,-1,1609,330,0,0
392,694,0,0,0,0,0,0,0,0,0,-1,1616,330,0,0
399,694,0,0,0,0,0,0,0,0,0,-1,1623,330,0,0
406,694,0,0,0,0,0,0,0,0,0,-1,1630,330,0,0
413,694,0,0,0,0,0,0,0,0,0,-1,1637,330,0,0
420,694,0,0,0,0,0,0,0,0,0,-1,1644,330,0,0
427,694,0,0,0,0,0,0,0,0,0,-1,1651,330,0,0
434,694,0,0,0,0,0,0,0,0,0,-1,1658,330,0,0
441,694,0,0,0,0,0,0,0,0,0,-1,1665,330,0,0
448,694,0,0,0,0,0,0,0,0,0,-1,1672,330,0,0
455,694,0,0,0,0,0,0,0,0,0,-1,1679,330,0,0
462,694,0,0,0,0,0,0,0,0,0,-1,1686,330,0,0
469,694,0,0,0,0,0,0,0,0,0,-1,1693,330,0,0
476,694,0,0,0,0,0,0,0,0,0,-1,1700,330,0,0
483,694,0,0,0,0,0,0,0,0,0,-1,1707,330,0,0
490,694,0,0,0,0,0,0,0,0,0,-1,1714,330,0,0
497,694,0,0,0,0,0,0,0,0,0,-1,1721,330,0,0
504,694,0,0,0,0,0,0,0,0,0,-1,1728,330,0,0
511,694,0,0,0,0,0,0,0,0,0,-1,1735,330,0,0
518,694,0,0,0,0,0,0,0,0,0,-1,1742,330,0,0
525,694,0,0,0,0,0,0,0,0,0,-1,1749,330,0,0
532,694,0,0,0,0,0,0,0,0,0,-1,1756,330,0,0
539,694,0,0,0,0,0,0,0,0,0,-1,1763,330,0,0
546,694,0,0,0,0,0,0,0,0,0,-1,1770,330,0,0
553,694,0,0,0,0,0,0,0,0,0,-1,1777,330,0,0
560,694,0,0,0,0,0,0,0,0,0,-1,1784,330,0,0
567,694,0,0,0,0,0,0,0,0,0,-1,1791,330,0,0
574,694,0,0,0,0,0,0,0,0,0,-1,1798,330,0,0
581,694,0,0,0,0,0,0,0,0,0,-1,1805,330,0,0
588,694,0,0,0,0,0,0,0,0,0,-1,1812,330,0,0
595,694,0,0,0,0,0,0,0,0,0,-1,1819,330,0,0
602,694,0,0,0,0,0,0,0,0,0,-1,1826,330,0,0
609,694,0,0,0,0,0,0,0,0,0,-1,1833,330,0,0
616,694,0,0,0,0,0,0,0,0,0,-1,1840,330,0,0
623,694,0,0,0,0,0,0,0,0,0,-1,1847,330,0,0
630,694,0,0,0,0,0,0,0,0,0,-1,1854,330,0,0
637,694,0,0,0,0,0,0,0,0,0,-1,1861,330,0,0
644,694,0,0,0,0,0,0,0,0,0,-1,1868,330,0,0
651,694,0,0,0,0,0,0,0,0,0,-1,1875,330,0,0
658,694,0,0,0,0,0,0,0,0,0,-1,1882,330,0,0
665,694,0,0,0,0,0,0,0,0,0,-1,1889,330,0,0
672,694,0,0,0,0,0,0,0,0,0,-1,1896,330,0,0
679,694,0,0,0,0,0,0,0,0,0,-1,1903,330,0,0
686,694,0,0,0,0,0,0,0,0,0,-1,1910,330,0,0
693,694,0,0,0,0,0,0,0,0,0,-1,1917,330,0,0
700,694,0,0,0,0,0,0,0,0,0,-1,1924,330,0,0
707,694,0,0,0,0,0,0,0,0,0,-1,1931,330,0,0
714,694,0,0,0,0,0,0,0,0,0,-1,1938,330,0,0
721,694,0,0,0,0,0,0,0,0,0,-1,1945,330,0,0
728,694,0,0,0,0,0,0,0,0,0,-1,1952,330,0,0
735,694,0,0,0,0,0,0,0,0,0,-1,1959,330,0,0
742,694,0,0,0,0,0,0,0,0,0,-1,1966,330,0,0
749,694,0,0,0,0,0,0,0,0,0,-1,1973,330,0,0
756,694,0,0,0,0,0,0,0,0,0,-1,1980,330,0,0
763,694,0,0,0,0,0,0,0,0,0,-1,1987,330,0,0
770,694,0,0,0,0,0,0,0,0,0,-1,1994,330,0,0
777,694,0,0,0,0,0,0,0,0,0,-1,2001,330,0,0
784,694,0,0,0,0,0,0,0,0,0,-1,2008,330,0,0
791,694,0,0,0,0,0,0,0,0,0,-1,2015,330,0,0
798,694,0,0,0,0,0,0,0,0,0,-1,2022,330,0,0
805,694,0,0,0,0,0,0,0,0,0,-1,2029,330,0,0
812,694,0,0,0,0,0,0,0,0,0,-1,2036,330,0,0
-700,687,0,0,0,0,0,0,0,0,0,-1,524,337,0,0
-693,687,0,0,0,0,0,0,0,0,0,-1,531,337,0,0
-686,687,0,0,0,0,0,0,0,0,0,-1,538,337,0,0
-679,687,0,0,0,0,0,0,0,0,0,-1,545,337,0,0
-672,687,0,0,0,0,0,0,0,0,0,-1,552,337,0,0
-665,687,0,0,0,0,0,0,0,0,0,-1,559,337,0,0
-658,687,0,0,0,0,0,0,0,0,0,-1,566,337,0,0
-651,687,0,0,0,0,0,0,0,0,0,-1,573,337,0,0
-644,687,0,0,0,0,0,0,0,0,0,-1,580,337,0,0
-637,687,0,0,0,0,0,0,0,0,0,-1,587,337,0,0
-630,687,0,0,0,0,0,0,0,0,0,-1,594,337,0,0
-623,687,0,0,0,0,0,0,0,0,0,-1,601,337,0,0
-616,687,0,0,0,0,0,0,0,0,0,-1,608,337,0,0
-609,687,0,0,0,0,0,0,0,0,0,-1,615,337,0,0
-602,687,0,0,0,0,0,0,0,0,0,-1,622,337,0,0
-595,687,0,0,0,0,0,0,0,0,0,-1,629,337,0,0
-588,687,0,0,0,0,0,0,0,0,0,-1,636,337,0,0
-581,687,0,0,0,0,0,0,0,0,0,-1,643,337,0,0
-574,687,0,0,0,0,0,0,0,0,0,-1,650,337,0,0
-567,687,0,0,0,0,0,0,0,0,0,-1,657,337,0,0
-560,687,0,0,0,0,0,0,0,0,0,-1,664,337,0,0
-553,687,0,0,0,0,0,0,0,0,0,-1,671,337,0,0
-546,687,0,0,0,0,0,0,0,0,0,-1,678,337,0,0
-539,687,0,0,0,0,0,0,0,0,0,-1,685,337,0,0
-532,687,0,0,0,0,0,0,0,0,0,-1,692,337,0,0
-525,687,0,0,0,0,0,0,0,0,0,-1,699,337,0,0
-518,687,0,0,0,0,0,0,0,0,0,-1,706,337,0,0
-511,687,0,0,0,0,0,0,0,0,0,-1,713,337,0,0
-504,687,0,0,0,0,0,0,0,0,0,-1,720,337,0,0
-497,687,0,0,0,0,0,0,0,0,0,-1,727,337,0,0
-490,687,0,0,0,0,0,0,0,0,0,-1,734,337,0,0
-483,687,0,0,0,0,0,0,0,0,0,-1,741,337,0,0
-476,687,0,0,0,0,0,0,0,0,0,-1,748,337,0,0
-469,687,0,0,0,0,0,0,0,0,0,-1,755,337,0,0
-462,687,0,0,0,0,0,0,0,0,0,-1,762,337,0,0
-455,687,0,0,0,0,0,0,0,0,0,-1,769,337,0,0
-448,687,0,0,0,0,0,0,0,0,0,-1,776,337,0,0
-441,687,0,0,0,0,0,0,0,0,0,-1,783,337,0,0
-434,687,0,0,0,0,0,0,0,0,0,-1,790,337,0,0
-427,687,0,0,0,0,0,0,0,0,0,-1,797,337,0,0
-420,687,0,0,0,0,0,0,0,0,0,-1,804,337,0,0
-413,687,0,0,0,0,0,0,0,0,0,-1,811,337,0,0
-406,687,0,0,0,0,0,0,0,0,0,-1,818,337,0,0
-399,687,0,0,0,0,0,0,0,0,0,-1,825,337,0,0
-392,687,0,0,0,0,0,0,0,0,0,-1,832,337,0,0
-385,687,0,0,0,0,0,0,0,0,0,-1,839,337,0,0
-378,687,0,0,0,0,0,0,0,0,0,-1,846,337,0,0
-371,687,0,0,0,0,0,0,0,0,0,-1,853,337,0,0
-364,687,0,0,0,0,0,0,0,0,0,-1,860,337,0,0
-357,687,0,0,0,0,0,0,0,0,0,-1,867,337,0,0
-350,687,0,0,0,0,0,0,0,0,0,-1,874,337,0,0
-343,687,0,0,0,0,0,0,0,0,0,-1,881,337,0,0
-336,687,0,0,0,0,0,0,0,0,0,-1,888,337,0,0
-329,687,0,0,0,0,0,0,0,0,0,-1,895,337,0,0
-322,687,0,0,0,0,0,0,0,0,0,-1,902,337,0,0
-315,687,0,0,0,0,0,0,0,0,0,-1,909,337,0,0
-308,687,0,0,0,0,0,0,0,0,0,-1,916,337,0,0
-301,687,0,0,0,0,0,0,0,0,0,-1,923,337,0,0
-294,687,0,0,0,0,0,0,0,0,0,-1,930,337,0,0
-287,687,0,0,0,0,0,0,0,0,0,-1,937,337,0,0
-280,687,0,0,0,0,0,0,0,0,0,-1,944,337,0,0
-273,687,0,0,0,0,0,0,0,0,0,-1,951,337,0,0
-266,687,0,0,0,0,0,0,0,0,0,-1,958,337,0,0
-259,687,0,0,0,0,0,0,0,0,0,-1,965,337,0,0
-252,687,0,0,0,0,0,0,0,0,0,-1,972,337,0,0
-245,687,0,0,0,0,0,0,0,0,0,-1,979,337,0,0
-238,687,0,0,0,0,0,0,0,0,0,-1,986,337,0,0
-231,687,0,0,0,0,0,0,0,0,0,-1,993,337,0,0
-224,687,0,0,0,0,0,0,0,0,0,-1,1000,337,0,0
-217,687,0,0,0,0,0,0,0,0,0,-1,1007,337,0,0
-210,687,0,0,0,0,0,0,0,0,0,-1,1014,337,0,0
-203,687,0,0,0,0,0,0,0,0,0,-1,1021,337,0,0
-196,687,0,0,0,0,0,0,0,0,0,-1,1028,337,0,0
-189,687,0,0,0,0,0,0,0,0,0,-1,1035,337,0,0
-182,687,0,0,0,0,0,0,0,0,0,-1,1042,337,0,0
-175,687,0,0,0,0,0,0,0,0,0,-1,1049,337,0,0
-168,687,0,0,0,0,0,0,0,0,0,-1,1056,337,0,0
-161,687,0,0,0,0,0,0,0,0,0,-1,1063,337,0,0
-154,687,0,0,0,0,0,0,0,0,0,-1,1070,337,0,0
-147,687,0,0,0,0,0,0,0,0,0,-1,1077,337,0,0
-140,687,0,0,0,0,0,0,0,0,0,-1,1084,337,0,0
-133,687,6.28271,-21.7387,0,0,0,0,0,0,0,-1,1091,337,6.28275,21.7388
-126,687,7.14612,-22.3354,0,0,0,0,0,0,0,-1,1098,337,7.14608,22.3354
-119,687,6.41846,-21.2928,0,0,0,0,0,0,0,-1,1105,337,6.41843,21.2928
-112,687,6.94678,-20.2408,0,0,0,0,0,0,0,-1,1112,337,6.9468,20.2408
-105,687,7.40222,-19.2547,0,0,0,0,0,0,0,-1,1119,337,7.40217,19.2547
-98,687,13.0936,-35.7905,0,0,0,0,0,0,0,-1,1126,337,13.0936,35.7905
-91,687,7.62842,-30.6922,0,0,0,0,0,0,0,-1,1133,337,7.62845,30.6922
-84,687,2.10876,-25.7283,0,0,0,0,0,0,0,-1,1140,337,2.10882,25.7283
-77,687,-3.47437,-20.7021,0,0,0,0,0,0,0,-1,1147,337,-3.47434,20.7021
-70,687,-9.14441,-16.702,0,0,0,0,0,0,0,-1,1154,337,-9.14439,16.702
-63,687,-12.9957,-4.52802,0,0,0,0,0,0,0,-1,1161,337,-12.9958,4.52801
-56,687,-17.6764,6.20923,0,0,0,0,0,0,0,-1,1168,337,-17.6764,-6.20923
-49,687,-15.6449,-9.94391,0,0,0,0,0,0,0,-1,1175,337,-15.6449,9.94392
-42,687,-4.2019,-0.405609,0,0,0,0,0,0,0,-1,1182,337,-4.20192,0.405614
-35,687,-4.42273,-0.688171,0,0,0,0,0,0,0,-1,1189,337,-4.42276,0.688178
-28,687,-1.14038,-1.39072,0,0,0,0,0,0,0,-1,1196,337,-1.14035,1.3907
-21,687,1.97961,-25.2133,0,0,0,0,0,0,0,-1,1203,337,1.97958,25.2133
-14,687,2.42822,-25.3151,0,0,0,0,0,0,0,-1,1210,337,2.42825,25.3151
-7,687,2.81274,-25.0496,0.0523548,0.0405903,-0.0062504,0.0550556,0.0378895,-0.407866,0.0325283,0.0453238,1217,337,2.81279,25.0496
0,687,3.27673,-24.7355,0.0439391,0.0460562,-0.00704563,0.0521224,0.037873,-0.859962,0.0311061,0.0467496,1224,337,3.27668,24.7355
7,687,3.65344,-24.2958,0.0362683,0.0515515,-0.0079134,0.0549107,0.0329092,-1.16936,0.0319105,0.0414473,1231,337,3.65342,24.2958
14,687,4.63159,-24.769,0,0,0,0,0,0,0,-1,1238,337,4.63164,24.7689
21,687,4.72827,-23.9042,0.0246363,0.0616842,-0.0081568,0.0634005,0.02292,-1.3634,0.0370694,0.0462811,1245,337,4.72832,23.9042
28,687,3.4834,-25.5774,0.021642,0.0655243,-0.00862008,0.0671569,0.0200095,-1.38362,0.0398143,0.0461799,1252,337,3.48343,25.5774
35,687,3.51782,-25.2884,0.0202778,0.0683794,-0.00893284,0.0699847,0.0186724,-1.39298,0.0418449,0.0453846,1259,337,3.51788,25.2884
42,687,3.31165,-24.8877,0.0187907,0.0695355,-0.00804574,0.0707806,0.0175456,-1.41726,0.0425616,0.0461677,1266,337,3.31168,24.8877
49,687,3.72217,-25.4081,0.0142669,0.0696847,-0.00602408,0.070332,0.0136196,-1.46376,0.0430719,0.0465691,1273,337,3.7222,25.4081
56,687,3.68591,-25.3836,0,0,0,0,0,0,0,-1,1280,337,3.68594,25.3836
63,687,4.40369,-25.1332,0,0,0,0,0,0,0,-1,1287,337,4.40373,25.1332
70,687,3.64526,-25.2734,0,0,0,0,0,0,0,-1,1294,337,3.64525,25.2734
77,687,3.74536,-24.7287,0,0,0,0,0,0,0,-1,1301,337,3.74536,24.7287
84,687,3.93896,-26.606,0,0,0,0,0,0,0,-1,1308,337,3.93893,26.606
91,687,3.86426,-26.6315,-0.00669354,0.0401493,-0.00342839,0.0403989,-0.00694313,-1.49812,0.0295204,0.04662,1315,337,3.86431,26.6315
98,687,3.76917,-26.6031,-0.0119833,0.0343131,-0.00477499,0.0348005,-0.0124706,-1.46908,0.0282888,0.0462168,1322,337,3.76919,26.6031
105,687,2.75073,-24.5656,-0.0166623,0.0291343,-0.00605646,0.0299217,-0.0174497,-1.44151,0.0276641,0.0449158,1329,337,2.75079,24.5656
112,687,2.90417,-24.4413,-0.0200873,0.0244341,-0.00781816,0.0257671,-0.0214203,-1.40192,0.0272821,0.0455119,1336,337,2.90422,24.4413
119,687,2.98022,-24.7957,-0.0220486,0.0208094,-0.00999289,0.0230249,-0.0242641,-1.35262,0.0273054,0.0422499,1343,337,2.98019,24.7958
126,687,3.06104,-25.0253,-0.0220187,0.0180603,-0.011849,0.0213012,-0.0252597,-1.3038,0.0269143,0.0425485,1350,337,3.06098,25.0253
133,687,3.10437,-24.9993,-0.0203519,0.0184682,-0.0122909,0.0220324,-0.0239161,-1.28855,0.0265358,0.0455985,1357,337,3.10439,24.9993
140,687,3.30994,-24.869,0,0,0,0,0,0,0,-1,1364,337,3.30989,24.869
147,687,2.76697,-25.3879,0,0,0,0,0,0,0,-1,1371,337,2.76693,25.3879
154,687,3.93457,-24.8816,0,0,0,0,0,0,0,-1,1378,337,3.93455,24.8816
161,687,29.3895,-1.90628,0,0,0,0,0,0,0,-1,1385,337,29.3895,1.90628
168,687,29.8564,-1.19434,0,0,0,0,0,0,0,-1,1392,337,29.8564,1.19434
175,687,30.3419,-0.453583,0,0,0,0,0,0,0,-1,1399,337,30.3419,0.45357
182,687,6.67249,0.289917,0,0,0,0,0,0,0,-1,1406,337,6.67247,-0.289916
189,687,7.76062,4.53635,0,0,0,0,0,0,0,-1,1413,337,7.76064,-4.53636
196,687,6.99048,3.2966,0,0,0,0,0,0,0,-1,1420,337,6.99046,-3.2966
203,687,6.36499,2.1445,0,0,0,0,0,0,0,-1,1427,337,6.36499,-2.14451
210,687,6.68066,0.674652,0,0,0,0,0,0,0,-1,1434,337,6.68062,-0.674655
217,687,5.99683,-0.630493,0,0,0,0,0,0,0,-1,1441,337,5.99684,0.630497
224,687,5.52917,0.524902,0,0,0,0,0,0,0,-1,1448,337,5.5292,-0.524915
231,687,5.85583,-1.73651,0,0,0,0,0,0,0,-1,1455,337,5.85577,1.73651
238,687,5.96582,-2.96774,0,0,0,0,0,0,0,-1,1462,337,5.96577,2.96773
245,687,1.28259,2.32211,0,0,0,0,0,0,0,-1,1469,337,1.28258,-2.32211
252,687,1.97278,3.88422,0,0,0,0,0,0,0,-1,1476,337,1.97281,-3.88421
259,687,0,0,0,0,0,0,0,0,0,-1,1483,337,0,0
266,687,0,0,0,0,0,0,0,0,0,-1,1490,337,0,0
273,687,0,0,0,0,0,0,0,0,0,-1,1497,337,0,0
280,687,0,0,0,0,0,0,0,0,0,-1,1504,337,0,0
287,687,0,0,0,0,0,0,0,0,0,-1,1511,337,0,0
294,687,0,0,0,0,0,0,0,0,0,-1,1518,337,0,0
301,687,0,0,0,0,0,0,0,0,0,-1,1525,337,0,0
308,687,0,0,0,0,0,0,0,0,0,-1,1532,337,0,0
315,687,0,0,0,0,0,0,0,0,0,-1,1539,337,0,0
322,687,0,0,0,0,0,0,0,0,0,-1,1546,337,0,0
329,687,0,0,0,0,0,0,0,0,0,-1,1553,337,0,0
336,687,0,0,0,0,0,0,0,0,0,-1,1560,337,0,0
343,687,0,0,0,0,0,0,0,0,0,-1,1567,337,0,0
350,687,0,0,0,0,0,0,0,0,0,-1,1574,337,0,0
357,687,0,0,0,0,0,0,0,0,0,-1,1581,337,0,0
364,687,0,0,0,0,0,0,0,0,0,-1,1588,337,0,0
371,687,0,0,0,0,0,0,0,0,0,-1,1595,337,0,0
378,687,0,0,0,0,0,0,0,0,0,-1,1602,337,0,0
385,687,0,0,0,0,0,0,0,0,0,-1,1609,337,0,0
392,687,0,0,0,0,0,0,0,0,0,-1,1616,337,0,0
399,687,0,0,0,0,0,0,0,0,0,-1,1623,337,0,0
406,687,0,0,0,0,0,0,0,0,0,-1,1630,337,0,0
413,687,0,0,0,0,0,0,0,0,0,-1,1637,337,0,0
420,687,0,0,0,0,0,0,0,0,0,-1,1644,337,0,0
427,687,0,0,0,0,0,0,0,0,0,-1,1651,337,0,0
434,687,0,0,0,0,0,0,0,0,0,-1,1658,337,0,0
441,687,0,0,0,0,0,0,0,0,0,-1,1665,337,0,0
448,687,0,0,0,0,0,0,0,0,0,-1,1672,337,0,0
455,687,0,0,0,0,0,0,0,0,0,-1,1679,337,0,0
462,687,0,0,0,0,0,0,0,0,0,-1,1686,337,0,0
469,687,0,0,0,0,0,0,0,0,0,-1,1693,337,0,0
476,687,0,0,0,0,0,0,0,0,0,-1,1700,337,0,0
483,687,0,0,0,0,0,0,0,0,0,-1,1707,337,0,0
490,687,0,0,0,0,0,0,0,0,0,-1,1714,337,0,0
497,687,0,0,0,0,0,0,0,0,0,-1,1721,337,0,0
504,687,0,0,0,0,0,0,0,0,0,-1,1728,337,0,0
511,687,0,0,0,0,0,0,0,0,0,-1,1735,337,0,0
518,687,0,0,0,0,0,0,0,0,0,-1,1742,337,0,0
525,687,0,0,0,0,0,0,0,0,0,-1,1749,337,0,0
532,687,0,0,0,0,0,0,0,0,0,-1,1756,337,0,0
539,687,0,0,0,0,0,0,0,0,0,-1,1763,337,0,0
546,687,0,0,0,0,0,0,0,0,0,-1,1770,337,0,0
553,687,0,0,0,0,0,0,0,0,0,-1,1777,337,0,0
560,687,0,0,0,0,0,0,0,0,0,-1,1784,337,0,0
567,687,0,0,0,0,0,0,0,0,0,-1,1791,337,0,0
574,687,0,0,0,0,0,0,0,0,0,-1,1798,337,0,0
581,687,0,0,0,0,0,0,0,0,0,-1,1805,337,0,0
588,687,0,0,0,0,0,0,0,0,0,-1,1812,337,0,0
595,687,0,0,0,0,0,0,0,0,0,-1,1819,337,0,0
602,687,0,0,0,0,0,0,0,0,0,-1,1826,337,0,0
609,687,0,0,0,0,0,0,0,0,0,-1,1833,337,0,0
616,687,0,0,0,0,0,0,0,0,0,-1,1840,337,0,0
623,687,0,0,0,0,0,0,0,0,0,-1,1847,337,0,0
630,687,0,0,0,0,0,0,0,0,0,-1,1854,337,0,0
637,687,0,0,0,0,0,0,0,0,0,-1,1861,337,0,0
644,687,0,0,0,0,0,0,0,0,0,-1,1868,337,0,0
651,687,0,0,0,0,0,0,0,0,0,-1,1875,337,0,0
658,687,0,0,0,0,0,0,0,0,0,-1,1882,337,0,0
665,687,0,0,0,0,0,0,0,0,0,-1,1889,337,0,0
672,687,0,0,0,0,0,0,0,0,0,-1,1896,337,0,0
679,687,0,0,0,0,0,0,0,0,0,-1,1903,337,0,0
686,687,0,0,0,0,0,0,0,0,0,-1,1910,337,0,0
693,687,0,0,0,0,0,0,0,0,0,-1,1917,337,0,0
700,687,0,0,0,0,0,0,0,0,0,-1,1924,337,0,0
707,687,0,0,0,0,0,0,0,0,0,-1,1931,337,0,0
714,687,0,0,0,0,0,0,0,0,0,-1,1938,337,0,0
721,687,0,0,0,0,0,0,0,0,0,-1,1945,337,0,0
728,687,0,0,0,0,0,0,0,0,0,-1,1952,337,0,0
735,687,0,0,0,0,0,0,0,0,0,-1,1959,337,0,0
742,687,0,0,0,0,0,0,0,0,0,-1,1966,337,0,0
749,687,0,0,0,0,0,0,0,0,0,-1,1973,337,0,0
756,687,0,0,0,0,0,0,0,0,0,-1,1980,337,0,0
763,687,0,0,0,0,0,0,0,0,0,-1,1987,337,0,0
770,687,0,0,0,0,0,0,0,0,0,-1,1994,337,0,0
777,687,0,0,0,0,0,0,0,0,0,-1,2001,337,0,0
784,687,0,0,0,0,0,0,0,0,0,-1,2008,337,0,0
791,687,0,0,0,0,0,0,0,0,0,-1,2015,337,0,0
798,687,0,0,0,0,0,0,0,0,0,-1,2022,337,0,0
805,687,0,0,0,0,0,0,0,0,0,-1,2029,337,0,0
812,687,0,0,0,0,0,0,0,0,0,-1,2036,337,0,0
-700,680,0,0,0,0,0,0,0,0,0,-1,524,344,0,0
-693,680,0,0,0,0,0,0,0,0,0,-1,531,344,0,0
-686,680,0,0,0,0,0,0,0,0,0,-1,538,344,0,0
-679,680,0,0,0,0,0,0,0,0,0,-1,545,344,0,0
-672,680,0,0,0,0,0,0,0,0,0,-1,552,344,0,0
-665,680,0,0,0,0,0,0,0,0,0,-1,559,344,0,0
-658,680,0,0,0,0,0,0,0,0,0,-1,566,344,0,0
-651,680,0,0,0,0,0,0,0,0,0,-1,573,344,0,0
-644,680,0,0,0,0,0,0,0,0,0,-1,580,344,0,0
-637,680,0,0,0,0,0,0,0,0,0,-1,587,344,0,0
-630,680,0,0,0,0,0,0,0,0,0,-1,594,344,0,0
-623,680,0,0,0,0,0,0,0,0,0,-1,601,344,0,0
-616,680,0,0,0,0,0,0,0,0,0,-1,608,344,0,0
-609,680,0,0,0,0,0,0,0,0,0,-1,615,344,0,0
-602,680,0,0,0,0,0,0,0,0,0,-1,622,344,0,0
-595,680,0,0,0,0,0,0,0,0,0,-1,629,344,0,0
-588,680,0,0,0,0,0,0,0,0,0,-1,636,344,0,0
-581,680,0,0,0,0,0,0,0,0,0,-1,643,344,0,0
-574,680,0,0,0,0,0,0,0,0,0,-1,650,344,0,0
-567,680,0,0,0,0,0,0,0,0,0,-1,657,344,0,0
-560,680,0,0,0,0,0,0,0,0,0,-1,664,344,0,0
-553,680,0,0,0,0,0,0,0,0,0,-1,671,344,0,0
-546,680,0,0,0,0,0,0,0,0,0,-1,678,344,0,0
-539,680,0,0,0,0,0,0,0,0,0,-1,685,344,0,0
-532,680,0,0,0,0,0,0,0,0,0,-1,692,344,0,0
-525,680,0,0,0,0,0,0,0,0,0,-1,699,344,0,0
-518,680,0,0,0,0,0,0,0,0,0,-1,706,344,0,0
-511,680,0,0,0,0,0,0,0,0,0,-1,713,344,0,0
-504,680,0,0,0,0,0,0,0,0,0,-1,720,344,0,0
-497,680,0,0,0,0,0,0,0,0,0,-1,727,344,0,0
-490,680,0,0,0,0,0,0,0,0,0,-1,734,344,0,0
-483,680,0,0,0,0,0,0,0,0,0,-1,741,344,0,0
-476,680,0,0,0,0,0,0,0,0,0,-1,748,344,0,0
-469,680,0,0,0,0,0,0,0,0,0,-1,755,344,0,0
-462,680,0,0,0,0,0,0,0,0,0,-1,762,344,0,0
-455,680,0,0,0,0,0,0,0,0,0,-1,769,344,0,0
-448,680,0,0,0,0,0,0,0,0,0,-1,776,344,0,0
-441,680,0,0,0,0,0,0,0,0,0,-1,783,344,0,0
-434,680,0,0,0,0,0,0,0,0,0,-1,790,344,0,0
-427,680,0,0,0,0,0,0,0,0,0,-1,797,344,0,0
-420,680,0,0,0,0,0,0,0,0,0,-1,804,344,0,0
-413,680,0,0,0,0,0,0,0,0,0,-1,811,344,0,0
-406,680,0,0,0,0,0,0,0,0,0,-1,818,344,0,0
-399,680,0,0,0,0,0,0,0,0,0,-1,825,344,0,0
-392,680,0,0,0,0,0,0,0,0,0,-1,832,344,0,0
-385,680,0,0,0,0,0,0,0,0,0,-1,839,344,0,0
-378,680,0,0,0,0,0,0,0,0,0,-1,846,344,0,0
-371,680,0,0,0,0,0,0,0,0,0,-1,853,344,0,0
-364,680,0,0,0,0,0,0,0,0,0,-1,860,344,0,0
-357,680,0,0,0,0,0,0,0,0,0,-1,867,344,0,0
-350,680,0,0,0,0,0,0,0,0,0,-1,874,344,0,0
-343,680,0,0,0,0,0,0,0,0,0,-1,881,344,0,0
-336,680,0,0,0,0,0,0,0,0,0,-1,888,344,0,0
-329,680,0,0,0,0,0,0,0,0,0,-1,895,344,0,0
-322,680,0,0,0,0,0,0,0,0,0,-1,902,344,0,0
-315,680,0,0,0,0,0,0,0,0,0,-1,909,344,0,0
-308,680,0,0,0,0,0,0,0,0,0,-1,916,344,0,0
-301,680,0,0,0,0,0,0,0,0,0,-1,923,344,0,0
-294,680,0,0,0,0,0,0,0,0,0,-1,930,344,0,0
-287,680,0,0,0,0,0,0,0,0,0,-1,937,344,0,0
-280,680,0,0,0,0,0,0,0,0,0,-1,944,344,0,0
-273,680,0,0,0,0,0,0,0,0,0,-1,951,344,0,0
-266,680,0,0,0,0,0,0,0,0,0,-1,958,344,0,0
-259,680,0,0,0,0,0,0,0,0,0,-1,965,344,0,0
-252,680,0,0,0,0,0,0,0,0,0,-1,972,344,0,0
-245,680,0,0,0,0,0,0,0,0,0,-1,979,344,0,0
-238,680,0,0,0,0,0,0,0,0,0,-1,986,344,0,0
-231,680,0,0,0,0,0,0,0,0,0,-1,993,344,0,0
-224,680,0,0,0,0,0,0,0,0,0,-1,1000,344,0,0
-217,680,0,0,0,0,0,0,0,0,0,-1,1007,344,0,0
-210,680,0,0,0,0,0,0,0,0,0,-1,1014,344,0,0
-203,680,0,0,0,0,0,0,0,0,0,-1,1021,344,0,0
-196,680,0,0,0,0,0,0,0,0,0,-1,1028,344,0,0
-189,680,0,0,0,0,0,0,0,0,0,-1,1035,344,0,0
-182,680,0,0,0,0,0,0,0,0,0,-1,1042,344,0,0
-175,680,0,0,0,0,0,0,0,0,0,-1,1049,344,0,0
-168,680,0,0,0,0,0,0,0,0,0,-1,1056,344,0,0
-161,680,0,0,0,0,0,0,0,0,0,-1,1063,344,0,0
-154,680,4.23132,-24.996,0,0,0,0,0,0,0,-1,1070,344,4.23138,24.996
-147,680,4.81555,-24.2608,0.0486954,-0.0425741,-0.0348622,0.060488,-0.0543667,-0.326181,0.0663428,0.0438717,1077,344,4.81553,24.2608
-140,680,5.57434,-23.6,0,0,0,0,0,0,0,-1,1084,344,5.57432,23.6
-133,680,4.81653,-23.2653,0,0,0,0,0,0,0,-1,1091,344,4.81652,23.2653
-126,680,4.71912,-23.3153,0,0,0,0,0,0,0,-1,1098,344,4.71906,23.3153
-119,680,4.85095,-23.0988,0,0,0,0,0,0,0,-1,1105,344,4.85099,23.0988
-112,680,4.85864,-22.3683,0,0,0,0,0,0,0,-1,1112,344,4.85859,22.3682
-105,680,5.09973,-21.6479,0,0,0,0,0,0,0,-1,1119,344,5.09967,21.6479
-98,680,13.3525,-32.7397,0,0,0,0,0,0,0,-1,1126,344,13.3525,32.7397
-91,680,8.26062,-28.3457,0,0,0,0,0,0,0,-1,1133,344,8.26058,28.3457
-84,680,2.97107,-23.7054,0,0,0,0,0,0,0,-1,1140,344,2.97105,23.7053
-77,680,-2.72839,-20.1797,0,0,0,0,0,0,0,-1,1147,344,-2.72841,20.1797
-70,680,-8.13635,-13.6907,0,0,0,0,0,0,0,-1,1154,344,-8.13641,13.6907
-63,680,-13.5444,-7.20178,0,0,0,0,0,0,0,-1,1161,344,-13.5444,7.20178
-56,680,-6.96912,-8.83356,0,0,0,0,0,0,0,-1,1168,344,-6.96907,8.83354
-49,680,-6.7677,-2.24063,0,0,0,0,0,0,0,-1,1175,344,-6.76772,2.24063
-42,680,-1.02368,0.618805,0,0,0,0,0,0,0,-1,1182,344,-1.0237,-0.618797
-35,680,-0.947876,-0.942719,0,0,0,0,0,0,0,-1,1189,344,-0.947842,0.942731
-28,680,-1.46118,-1.10574,0,0,0,0,0,0,0,-1,1196,344,-1.4612,1.10575
-21,680,4.1217,-24.7452,0,0,0,0,0,0,0,-1,1203,344,4.12172,24.7452
-14,680,4.16541,-25.1612,0,0,0,0,0,0,0,-1,1210,344,4.16541,25.1612
-7,680,3.30627,-25.5043,0.0364363,0.035781,-0.00520505,0.041324,0.0308933,-0.753966,0.0248143,0.0425452,1217,344,3.30628,25.5043
0,680,3.85425,-25.3714,0.0306226,0.0396641,-0.00570346,0.0424212,0.0278656,-1.12051,0.0248905,0.0487609,1224,344,3.85422,25.3714
7,680,4.17419,-24.8108,0.0251978,0.0435853,-0.00622396,0.0454939,0.0232892,-1.27324,0.0262684,0.0479725,1231,344,4.17425,24.8108
14,680,4.28882,-25.1584,0.0204529,0.0471951,-0.00639408,0.0486453,0.0190028,-1.34777,0.0283084,0.0451176,1238,344,4.28876,25.1584
21,680,4.30591,-25.1985,0.0167393,0.0508242,-0.00626159,0.0519381,0.0156254,-1.39475,0.0307692,0.0456364,1245,344,4.30588,25.1986
28,680,3.66345,-25.7501,0.0145196,0.0535197,-0.00657764,0.0545992,0.0134401,-1.40813,0.0328491,0.0431965,1252,344,3.66346,25.7501
35,680,3.60852,-25.5208,0.0135533,0.0552352,-0.00678663,0.0563124,0.0124761,-1.41339,0.0341512,0.0434332,1259,344,3.60856,25.5208
42,680,3.50073,-25.2973,0.0125412,0.055621,-0.0060534,0.0564554,0.0117068,-1.43381,0.0344051,0.0431758,1266,344,3.50071,25.2973
49,680,3.69727,-25.6383,0.0090525,0.0554047,-0.00433147,0.055806,0.00865121,-1.47842,0.0346818,0.0405626,1273,344,3.69728,25.6383
56,680,3.64404,-25.6472,0.00624426,0.0535112,-0.00346731,0.0537642,0.00599126,-1.49796,0.034022,0.0379568,1280,344,3.64401,25.6472
63,680,3.62744,-25.6309,0.00437352,0.0504106,-0.00328604,0.050644,0.00414015,-1.4999,0.0324707,0.0395078,1287,344,3.62745,25.6309
70,680,3.62878,-25.5079,0.00180458,0.0466238,-0.00293607,0.0468153,0.00161306,-1.50566,0.0306866,0.0386586,1294,344,3.62884,25.5079
77,680,3.55176,-25.507,0,0,0,0,0,0,0,-1,1301,344,3.55172,25.507
84,680,3.4895,-26.6152,-0.00307086,0.0360109,-0.00167777,0.0360828,-0.00314276,-1.52797,0.0251683,0.042329,1308,344,3.48953,26.6152
91,680,3.5979,-26.4035,-0.00643197,0.0312999,-0.00193003,0.0313984,-0.00653043,-1.51982,0.0234146,0.0437778,1315,344,3.59785,26.4035
98,680,3.16174,-25.8159,0,0,0,0,0,0,0,-1,1322,344,3.16173,25.8159
105,680,2.2843,-25.5603,0,0,0,0,0,0,0,-1,1329,344,2.28426,25.5603
112,680,3.62695,-24.3504,0,0,0,0,0,0,0,-1,1336,344,3.62698,24.3504
119,680,3.60571,-24.9835,0,0,0,0,0,0,0,-1,1343,344,3.60566,24.9835
126,680,3.42078,-24.7617,-0.0173374,0.016348,-0.00766557,0.0180103,-0.0189997,-1.35724,0.0213703,0.0431962,1350,344,3.42072,24.7618
133,680,3.26636,-24.3673,-0.0160177,0.0172577,-0.00774092,0.0189704,-0.0177303,-1.35306,0.0211932,0.0447313,1357,344,3.26634,24.3673
140,680,3.21021,-24.3368,-0.0137557,0.0176827,-0.00780586,0.0195141,-0.0155871,-1.34034,0.020308,0.049506,1364,344,3.21023,24.3368
147,680,2.86694,-24.2493,0,0,0,0,0,0,0,-1,1371,344,2.86699,24.2493
154,680,3.10791,-24.3479,0,0,0,0,0,0,0,-1,1378,344,3.10788,24.3479
161,680,2.4314,-22.6935,0,0,0,0,0,0,0,-1,1385,344,2.43141,22.6935
168,680,29.4142,-2.51651,0,0,0,0,0,0,0,-1,1392,344,29.4142,2.51652
175,680,6.66541,0.942078,0,0,0,0,0,0,0,-1,1399,344,6.66538,-0.942088
182,680,6.52917,0.532379,0,0,0,0,0,0,0,-1,1406,344,6.52922,-0.532385
189,680,7.55884,4.77695,0,0,0,0,0,0,0,-1,1413,344,7.55886,-4.77694
196,680,6.55627,3.35254,0,0,0,0,0,0,0,-1,1420,344,6.55622,-3.35255
203,680,5.7334,1.90753,0,0,0,0,0,0,0,-1,1427,344,5.73341,-1.90754
210,680,5.27515,0.493622,0,0,0,0,0,0,0,-1,1434,344,5.27514,-0.493632
217,680,6.56384,-0.374176,0,0,0,0,0,0,0,-1,1441,344,6.56379,0.374176
224,680,3.9491,-0.640228,0,0,0,0,0,0,0,-1,1448,344,3.94908,0.64024
231,680,4.24866,-1.96881,0,0,0,0,0,0,0,-1,1455,344,4.2486,1.96882
238,680,4.29333,-3.23984,0,0,0,0,0,0,0,-1,1462,344,4.29332,3.23984
245,680,2.44397,0.985382,0,0,0,0,0,0,0,-1,1469,344,2.44402,-0.985394
252,680,3.07349,2.18951,0,0,0,0,0,0,0,-1,1476,344,3.0735,-2.18952
259,680,2.82971,1.30682,0,0,0,0,0,0,0,-1,1483,344,2.82972,-1.30684
266,680,2.67554,1.44067,0,0,0,0,0,0,0,-1,1490,344,2.67551,-1.44066
273,680,2.46411,1.54666,0,0,0,0,0,0,0,-1,1497,344,2.46407,-1.54666
280,680,0,0,0,0,0,0,0,0,0,-1,1504,344,0,0
287,680,0,0,0,0,0,0,0,0,0,-1,1511,344,0,0
294,680,0,0,0,0,0,0,0,0,0,-1,1518,344,0,0
301,680,0,0,0,0,0,0,0,0,0,-1,1525,344,0,0
308,680,0,0,0,0,0,0,0,0,0,-1,1532,344,0,0
315,680,0,0,0,0,0,0,0,0,0,-1,1539,344,0,0
322,680,0,0,0,0,0,0,0,0,0,-1,1546,344,0,0
329,680,0,0,0,0,0,0,0,0,0,-1,1553,344,0,0
336,680,0,0,0,0,0,0,0,0,0,-1,1560,344,0,0
343,680,0,0,0,0,0,0,0,0,0,-1,1567,344,0,0
350,680,0,0,0,0,0,0,0,0,0,-1,1574,344,0,0
357,680,0,0,0,0,0,0,0,0,0,-1,1581,344,0,0
364,680,0,0,0,0,0,0,0,0,0,-1,1588,344,0,0
371,680,0,0,0,0,0,0,0,0,0,-1,1595,344,0,0
378,680,0,0,0,0,0,0,0,0,0,-1,1602,344,0,0
385,680,0,0,0,0,0,0,0,0,0,-1,1609,344,0,0
392,680,0,0,0,0,0,0,0,0,0,-1,1616,344,0,0
399,680,0,0,0,0,0,0,0,0,0,-1,1623,344,0,0
406,680,0,0,0,0,0,0,0,0,0,-1,1630,344,0,0
413,680,0,0,0,0,0,0,0,0,0,-1,1637,344,0,0
420,680,0,0,0,0,0,0,0,0,0,-1,1644,344,0,0
427,680,0,0,0,0,0,0,0,0,0,-1,1651,344,0,0
434,680,0,0,0,0,0,0,0,0,0,-1,1658,344,0,0
441,680,0,0,0,0,0,0,0,0,0,-1,1665,344,0,0
448,680,0,0,0,0,0,0,0,0,0,-1,1672,344,0,0
455,680,0,0,0,0,0,0,0,0,0,-1,1679,344,0,0
462,680,0,0,0,0,0,0,0,0,0,-1,1686,344,0,0
469,680,0,0,0,0,0,0,0,0,0,-1,1693,344,0,0
476,680,0,0,0,0,0,0,0,0,0,-1,1700,344,0,0
483,680,0,0,0,0,0,0,0,0,0,-1,1707,344,0,0
490,680,0,0,0,0,0,0,0,0,0,-1,1714,344,0,0
497,680,0,0,0,0,0,0,0,0,0,-1,1721,344,0,0
504,680,0,0,0,0,0,0,0,0,0,-1,1728,344,0,0
511,680,0,0,0,0,0,0,0,0,0,-1,1735,344,0,0
518,680,0,0,0,0,0,0,0,0,0,-1,1742,344,0,0
525,680,0,0,0,0,0,0,0,0,0,-1,1749,344,0,0
532,680,0,0,0,0,0,0,0,0,0,-1,1756,344,0,0
539,680,0,0,0,0,0,0,0,0,0,-1,1763,344,0,0
546,680,0,0,0,0,0,0,0,0,0,-1,1770,344,0,0
553,680,0,0,0,0,0,0,0,0,0,-1,1777,344,0,0
560,680,0,0,0,0,0,0,0,0,0,-1,1784,344,0,0
567,680,0,0,0,0,0,0,0,0,0,-1,1791,344,0,0
574,680,0,0,0,0,0,0,0,0,0,-1,1798,344,0,0
581,680,0,0,0,0,0,0,0,0,0,-1,1805,344,0,0
588,680,0,0,0,0,0,0,0,0,0,-1,1812,344,0,0
595,680,0,0,0,0,0,0,0,0,0,-1,1819,344,0,0
602,680,0,0,0,0,0,0,0,0,0,-1,1826,344,0,0
609,680,0,0,0,0,0,0,0,0,0,-1,1833,344,0,0
616,680,0,0,0,0,0,0,0,0,0,-1,1840,344,0,0
623,680,0,0,0,0,0,0,0,0,0,-1,1847,344,0,0
630,680,0,0,0,0,0,0,0,0,0,-1,1854,344,0,0
637,680,0,0,0,0,0,0,0,0,0,-1,1861,344,0,0
644,680,0,0,0,0,0,0,0,0,0,-1,1868,344,0,0
651,680,0,0,0,0,0,0,0,0,0,-1,1875,344,0,0
658,680,0,0,0,0,0,0,0,0,0,-1,1882,344,0,0
665,680,0,0,0,0,0,0,0,0,0,-1,1889,344,0,0
672,680,0,0,0,0,0,0,0,0,0,-1,1896,344,0,0
679,680,0,0,0,0,0,0,0,0,0,-1,1903,344,0,0
686,680,0,0,0,0,0,0,0,0,0,-1,1910,344,0,0
693,680,0,0,0,0,0,0,0,0,0,-1,1917,344,0,0
700,680,0,0,0,0,0,0,0,0,0,-1,1924,344,0,0
707,680,0,0,0,0,0,0,0,0,0,-1,1931,344,0,0
714,680,0,0,0,0,0,0,0,0,0,-1,1938,344,0,0
721,680,0,0,0,0,0,0,0,0,0,-1,1945,344,0,0
728,680,0,0,0,0,0,0,0,0,0,-1,1952,344,0,0
735,680,0,0,0,0,0,0,0,0,0,-1,1959,344,0,0
742,680,0,0,0,0,0,0,0,0,0,-1,1966,344,0,0
749,680,0,0,0,0,0,0,0,0,0,-1,1973,344,0,0
756,680,0,0,0,0,0,0,0,0,0,-1,1980,344,0,0
763,680,0,0,0,0,0,0,0,0,0,-1,1987,344,0,0
770,680,0,0,0,0,0,0,0,0,0,-1,1994,344,0,0
777,680,0,0,0,0,0,0,0,0,0,-1,2001,344,0,0
784,680,0,0,0,0,0,0,0,0,0,-1,2008,344,0,0
791,680,0,0,0,0,0,0,0,0,0,-1,2015,344,0,0
798,680,0,0,0,0,0,0,0,0,0,-1,2022,344,0,0
805,680,0,0,0,0,0,0,0,0,0,-1,2029,344,0,0
812,680,0,0,0,0,0,0,0,0,0,-1,2036,344,0,0
-700,673,0,0,0,0,0,0,0,0,0,-1,524,351,0,0
-693,673,0,0,0,0,0,0,0,0,0,-1,531,351,0,0
-686,673,0,0,0,0,0,0,0,0,0,-1,538,351,0,0
-679,673,0,0,0,0,0,0,0,0,0,-1,545,351,0,0
-672,673,0,0,0,0,0,0,0,0,0,-1,552,351,0,0
-665,673,0,0,0,0,0,0,0,0,0,-1,559,351,0,0
-658,673,0,0,0,0,0,0,0,0,0,-1,566,351,0,0
-651,673,0,0,0,0,0,0,0,0,0,-1,573,351,0,0
-644,673,0,0,0,0,0,0,0,0,0,-1,580,351,0,0
-637,673,0,0,0,0,0,0,0,0,0,-1,587,351,0,0
-630,673,0,0,0,0,0,0,0,0,0,-1,594,351,0,0
-623,673,0,0,0,0,0,0,0,0,0,-1,601,351,0,0
-616,673,0,0,0,0,0,0,0,0,0,-1,608,351,0,0
-609,673,0,0,0,0,0,0,0,0,0,-1,615,351,0,0
-602,673,0,0,0,0,0,0,0,0,0,-1,622,351,0,0
-595,673,0,0,0,0,0,0,0,0,0,-1,629,351,0,0
-588,673,0,0,0,0,0,0,0,0,0,-1,636,351,0,0
-581,673,0,0,0,0,0,0,0,0,0,-1,643,351,0,0
-574,673,0,0,0,0,0,0,0,0,0,-1,650,351,0,0
-567,673,0,0,0,0,0,0,0,0,0,-1,657,351,0,0
-560,673,0,0,0,0,0,0,0,0,0,-1,664,351,0,0
-553,673,0,0,0,0,0,0,0,0,0,-1,671,351,0,0
-546,673,0,0,0,0,0,0,0,0,0,-1,678,351,0,0
-539,673,0,0,0,0,0,0,0,0,0,-1,685,351,0,0
-532,673,0,0,0,0,0,0,0,0,0,-1,692,351,0,0
-525,673,0,0,0,0,0,0,0,0,0,-1,699,351,0,0
-518,673,0,0,0,0,0,0,0,0,0,-1,706,351,0,0
-511,673,0,0,0,0,0,0,0,0,0,-1,713,351,0,0
-504,673,0,0,0,0,0,0,0,0,0,-1,720,351,0,0
-497,673,0,0,0,0,0,0,0,0,0,-1,727,351,0,0
-490,673,0,0,0,0,0,0,0,0,0,-1,734,351,0,0
-483,673,0,0,0,0,0,0,0,0,0,-1,741,351,0,0
-476,673,0,0,0,0,0,0,0,0,0,-1,748,351,0,0
-469,673,0,0,0,0,0,0,0,0,0,-1,755,351,0,0
-462,673,0,0,0,0,0,0,0,0,0,-1,762,351,0,0
-455,673,0,0,0,0,0,0,0,0,0,-1,769,351,0,0
-448,673,0,0,0,0,0,0,0,0,0,-1,776,351,0,0
-441,673,0,0,0,0,0,0,0,0,0,-1,783,351,0,0
-434,673,0,0,0,0,0,0,0,0,0,-1,790,351,0,0
-427,673,0,0,0,0,0,0,0,0,0,-1,797,351,0,0
-420,673,0,0,0,0,0,0,0,0,0,-1,804,351,0,0
-413,673,0,0,0,0,0,0,0,0,0,-1,811,351,0,0
-406,673,0,0,0,0,0,0,0,0,0,-1,818,351,0,0
-399,673,0,0,0,0,0,0,0,0,0,-1,825,351,0,0
-392,673,0,0,0,0,0,0,0,0,0,-1,832,351,0,0
-385,673,0,0,0,0,0,0,0,0,0,-1,839,351,0,0
-378,673,0,0,0,0,0,0,0,0,0,-1,846,351,0,0
-371,673,0,0,0,0,0,0,0,0,0,-1,853,351,0,0
-364,673,0,0,0,0,0,0,0,0,0,-1,860,351,0,0
-357,673,0,0,0,0,0,0,0,0,0,-1,867,351,0,0
-350,673,0,0,0,0,0,0,0,0,0,-1,874,351,0,0
-343,673,0,0,0,0,0,0,0,0,0,-1,881,351,0,0
-336,673,0,0,0,0,0,0,0,0,0,-1,888,351,0,0
-329,673,0,0,0,0,0,0,0,0,0,-1,895,351,0,0
-322,673,0,0,0,0,0,0,0,0,0,-1,902,351,0,0
-315,673,0,0,0,0,0,0,0,0,0,-1,909,351,0,0
-308,673,0,0,0,0,0,0,0,0,0,-1,916,351,0,0
-301,673,0,0,0,0,0,0,0,0,0,-1,923,351,0,0
-294,673,0,0,0,0,0,0,0,0,0,-1,930,351,0,0
-287,673,0,0,0,0,0,0,0,0,0,-1,937,351,0,0
-280,673,0,0,0,0,0,0,0,0,0,-1,944,351,0,0
-273,673,0,0,0,0,0,0,0,0,0,-1,951,351,0,0
-266,673,0,0,0,0,0,0,0,0,0,-1,958,351,0,0
-259,673,0,0,0,0,0,0,0,0,0,-1,965,351,0,0
-252,673,0,0,0,0,0,0,0,0,0,-1,972,351,0,0
-245,673,0,0,0,0,0,0,0,0,0,-1,979,351,0,0
-238,673,0,0,0,0,0,0,0,0,0,-1,986,351,0,0
-231,673,0,0,0,0,0,0,0,0,0,-1,993,351,0,0
-224,673,0,0,0,0,0,0,0,0,0,-1,1000,351,0,0
-217,673,0,0,0,0,0,0,0,0,0,-1,1007,351,0,0
-210,673,0,0,0,0,0,0,0,0,0,-1,1014,351,0,0
-203,673,0,0,0,0,0,0,0,0,0,-1,1021,351,0,0
-196,673,0,0,0,0,0,0,0,0,0,-1,1028,351,0,0
-189,673,0,0,0,0,0,0,0,0,0,-1,1035,351,0,0
-182,673,0,0,0,0,0,0,0,0,0,-1,1042,351,0,0
-175,673,1.60974,-23.5722,0,0,0,0,0,0,0,-1,1049,351,1.60975,23.5722
-168,673,1.69495,-24.4639,0.0519403,-0.0303863,-0.0640793,0.0869385,-0.0653845,-0.499898,0.0882367,0.0474792,1056,351,1.69495,24.4639
-161,673,1.90881,-25.7027,0.04749,-0.0337282,-0.0518023,0.0727032,-0.0589414,-0.452967,0.0761434,0.0484941,1063,351,1.90885,25.7027
-154,673,4.16101,-24.849,0,0,0,0,0,0,0,-1,1070,351,4.16098,24.849
-147,673,4.60938,-24.0186,0,0,0,0,0,0,0,-1,1077,351,4.60937,24.0186
-140,673,4.46436,-23.5769,0,0,0,0,0,0,0,-1,1084,351,4.46431,23.5769
-133,673,4.55176,-23.3581,0.0258302,-0.0316899,-0.015257,0.0296266,-0.0354862,-0.243872,0.0376436,0.0439756,1091,351,4.55177,23.3581
-126,673,4.54993,-23.3631,0.0203472,-0.0287565,-0.00977069,0.0222199,-0.0306292,-0.189374,0.0306409,0.0441089,1098,351,4.54992,23.3631
-119,673,4.83948,-23.8363,0,0,0,0,0,0,0,-1,1105,351,4.83949,23.8363
-112,673,4.76526,-22.7808,0,0,0,0,0,0,0,-1,1112,351,4.76525,22.7808
-105,673,5.17688,-22.2078,0,0,0,0,0,0,0,-1,1119,351,5.17688,22.2078
-98,673,4.96887,-21.0626,0,0,0,0,0,0,0,-1,1126,351,4.96889,21.0626
-91,673,8.84436,-25.6321,0,0,0,0,0,0,0,-1,1133,351,8.8443,25.6321
-84,673,3.66992,-23.3761,0,0,0,0,0,0,0,-1,1140,351,3.66988,23.3761
-77,673,-1.69958,-17.2119,0,0,0,0,0,0,0,-1,1147,351,-1.69959,17.212
-70,673,-7.15796,-10.6591,0,0,0,0,0,0,0,-1,1154,351,-7.15792,10.6591
-63,673,-12.606,-3.97971,0,0,0,0,0,0,0,-1,1161,351,-12.606,3.97969
-56,673,-18.0282,2.79053,0,0,0,0,0,0,0,-1,1168,351,-18.0283,-2.79052
-49,673,-0.926758,-0.115448,0,0,0,0,0,0,0,-1,1175,351,-0.926732,0.115444
-42,673,-1.15015,0.289917,0,0,0,0,0,0,0,-1,1182,351,-1.15017,-0.289932
-35,673,-0.919556,-1.00711,0,0,0,0,0,0,0,-1,1189,351,-0.919514,1.00711
-28,673,3.19104,-25.0986,0,0,0,0,0,0,0,-1,1196,351,3.19099,25.0986
-21,673,4.12744,-25.2954,0,0,0,0,0,0,0,-1,1203,351,4.12741,25.2954
-14,673,4.0592,-25.3371,0.027812,0.027566,-0.00410924,0.0318001,0.0235779,-0.770438,0.0190599,0.0468751,1210,351,4.05916,25.3371
-7,673,3.92114,-25.6309,0.0242209,0.0302544,-0.00415641,0.0323735,0.0221018,-1.09932,0.0191023,0.0409952,1217,351,3.92115,25.6309
0,673,3.92761,-25.7081,0.0204068,0.0329886,-0.00446656,0.034413,0.0189824,-1.26209,0.0199036,0.0459906,1224,351,3.92766,25.7081
7,673,3.88013,-25.6297,0.0167599,0.035755,-0.00476003,0.0368811,0.0156338,-1.3385,0.0213754,0.0482224,1231,351,3.88009,25.6297
14,673,4.03455,-25.5121,0.013489,0.0382559,-0.0048141,0.0391587,0.0125861,-1.38541,0.023084,0.0412429,1238,351,4.03454,25.5121
21,673,3.85254,-25.7251,0.0108871,0.0408183,-0.00466702,0.0415292,0.0101762,-1.41965,0.0249944,0.0273303,1245,351,3.85251,25.7251
28,673,3.82031,-25.8014,0.00929917,0.0426495,-0.0048681,0.0433455,0.0086031,-1.42877,0.026499,0.0189497,1252,351,3.82036,25.8014
35,673,3.82227,-25.8035,0.00862143,0.0435643,-0.00499737,0.0442649,0.00792078,-1.4315,0.0272561,0.0273338,1259,351,3.82221,25.8035
42,673,3.73767,-25.742,0.00793612,0.0434628,-0.00441009,0.044002,0.00739686,-1.44912,0.0272063,0.0284971,1266,351,3.73767,25.742
49,673,3.67859,-25.8053,0.00531018,0.0430279,-0.00300943,0.0432665,0.00507157,-1.49168,0.0273112,0.0173155,1273,351,3.67856,25.8053
56,673,3.63672,-25.8091,0.00316523,0.0412921,-0.00233986,0.0414352,0.00302217,-1.50973,0.0266732,0.014567,1280,351,3.63676,25.8091
63,673,3.64368,-25.695,0.00180501,0.0386574,-0.00215962,0.0387835,0.00167889,-1.51246,0.0253146,0.0186738,1287,351,3.64372,25.695
70,673,3.60229,-25.6417,-4.57905e-05,0.0355897,-0.00185419,0.0356859,-0.00014201,-1.51895,0.0238381,0.0300842,1294,351,3.60228,25.6417
77,673,3.54272,-25.5855,-0.00170661,0.031583,-0.0013147,0.0316349,-0.00175845,-1.53139,0.0216998,0.0384522,1301,351,3.54269,25.5855
84,673,3.33948,-25.6257,-0.00348205,0.0273437,-0.000780098,0.0273635,-0.00350178,-1.54551,0.0195146,0.0408187,1308,351,3.33952,25.6257
91,673,3.48889,-26.1025,-0.00590618,0.0239615,-0.000916652,0.0239896,-0.00593429,-1.54014,0.0182949,0.0448947,1315,351,3.48888,26.1025
98,673,3.27966,-25.8422,-0.00868622,0.0208756,-0.00153046,0.0209546,-0.00876524,-1.51921,0.0176333,0.045249,1322,351,3.27965,25.8422
105,673,2.76196,-25.6678,-0.0110663,0.0185308,-0.00207022,0.0186749,-0.0112104,-1.5013,0.0174327,0.0404192,1329,351,2.76194,25.6678
112,673,3.32922,-25.22,0,0,0,0,0,0,0,-1,1336,351,3.32926,25.22
119,673,3.39539,-25.1107,0,0,0,0,0,0,0,-1,1343,351,3.39537,25.1107
126,673,3.29126,-25.0243,-0.0133607,0.0145359,-0.00468791,0.0153026,-0.0141274,-1.40868,0.0169959,0.044267,1350,351,3.29123,25.0243
133,673,3.15906,-24.9694,-0.0123153,0.015614,-0.00460144,0.0163525,-0.0130539,-1.41164,0.0170134,0.0426965,1357,351,3.15911,24.9694
140,673,3.1637,-24.9642,-0.0107033,0.0165677,-0.00445903,0.0172783,-0.0114139,-1.41277,0.0166804,0.0412621,1364,351,3.16367,24.9642
147,673,2.99756,-24.6783,-0.00793267,0.0174875,-0.00490435,0.0184008,-0.00884606,-1.38667,0.0160502,0.0382964,1371,351,2.9976,24.6782
154,673,3.12256,-24.6308,-0.00342185,0.0183852,-0.00553916,0.0197115,-0.00474817,-1.33578,0.0149767,0.0384557,1378,351,3.12253,24.6308
161,673,3.14014,-24.3897,0,0,0,0,0,0,0,-1,1385,351,3.14011,24.3897
168,673,6.87061,1.83954,0,0,0,0,0,0,0,-1,1392,351,6.87063,-1.83953
175,673,6.6228,1.1459,0,0,0,0,0,0,0,-1,1399,351,6.62276,-1.14591
182,673,6.37244,0.796112,0,0,0,0,0,0,0,-1,1406,351,6.3724,-0.796102
189,673,6.12097,0.265472,0,0,0,0,0,0,0,-1,1413,351,6.121,-0.265482
196,673,6.02173,3.12717,0,0,0,0,0,0,0,-1,1420,351,6.02176,-3.12717
203,673,5.04456,1.6351,0,0,0,0,0,0,0,-1,1427,351,5.04455,-1.63509
210,673,4.79224,0.447479,0,0,0,0,0,0,0,-1,1434,351,4.79229,-0.447469
217,673,2.01648,0.972687,0,0,0,0,0,0,0,-1,1441,351,2.01644,-0.972691
224,673,2.3689,-1.80539,0,0,0,0,0,0,0,-1,1448,351,2.36896,1.80539
231,673,2.65857,-2.18497,0,0,0,0,0,0,0,-1,1455,351,2.65852,2.18496
238,673,3.77844,-2.06088,0,0,0,0,0,0,0,-1,1462,351,3.77839,2.06088
245,673,3.5376,-0.190399,0,0,0,0,0,0,0,-1,1469,351,3.53759,0.1904
252,673,3.80518,0.55603,0,0,0,0,0,0,0,-1,1476,351,3.80519,-0.556022
259,673,3.88562,1.29617,0,0,0,0,0,0,0,-1,1483,351,3.88562,-1.29618
266,673,4.22424,2.04834,0,0,0,0,0,0,0,-1,1490,351,4.22429,-2.04834
273,673,6.07886,0.385895,0,0,0,0,0,0,0,-1,1497,351,6.0789,-0.385906
280,673,6.97534,-0.0820007,0,0,0,0,0,0,0,-1,1504,351,6.97536,0.0820122
287,673,7.66968,-0.348541,0,0,0,0,0,0,0,-1,1511,351,7.66969,0.348534
294,673,8.20996,0.28537,0,0,0,0,0,0,0,-1,1518,351,8.20993,-0.28536
301,673,0,0,0,0,0,0,0,0,0,-1,1525,351,0,0
308,673,0,0,0,0,0,0,0,0,0,-1,1532,351,0,0
315,673,0,0,0,0,0,0,0,0,0,-1,1539,351,0,0
322,673,0,0,0,0,0,0,0,0,0,-1,1546,351,0,0
329,673,0,0,0,0,0,0,0,0,0,-1,1553,351,0,0
336,673,0,0,0,0,0,0,0,0,0,-1,1560,351,0,0
343,673,0,0,0,0,0,0,0,0,0,-1,1567,351,0,0
350,673,0,0,0,0,0,0,0,0,0,-1,1574,351,0,0
357,673,0,0,0,0,0,0,0,0,0,-1,1581,351,0,0
364,673,0,0,0,0,0,0,0,0,0,-1,1588,351,0,0
371,673,0,0,0,0,0,0,0,0,0,-1,1595,351,0,0
378,673,0,0,0,0,0,0,0,0,0,-1,1602,351,0,0
385,673,0,0,0,0,0,0,0,0,0,-1,1609,351,0,0
392,673,0,0,0,0,0,0,0,0,0,-1,1616,351,0,0
399,673,0,0,0,0,0,0,0,0,0,-1,1623,351,0,0
406,673,0,0,0,0,0,0,0,0,0,-1,1630,351,0,0
413,673,0,0,0,0,0,0,0,0,0,-1,1637,351,0,0
420,673,0,0,0,0,0,0,0,0,0,-1,1644,351,0,0
427,673,0,0,0,0,0,0,0,0,0,-1,1651,351,0,0
434,673,0,0,0,0,0,0,0,0,0,-1,1658,351,0,0
441,673,0,0,0,0,0,0,0,0,0,-1,1665,351,0,0
448,673,0,0,0,0,0,0,0,0,0,-1,1672,351,0,0
455,673,0,0,0,0,0,0,0,0,0,-1,1679,351,0,0
462,673,0,0,0,0,0,0,0,0,0,-1,1686,351,0,0
469,673,0,0,0,0,0,0,0,0,0,-1,1693,351,0,0
476,673,0,0,0,0,0,0,0,0,0,-1,1700,351,0,0
483,673,0,0,0,0,0,0,0,0,0,-1,1707,351,0,0
490,673,0,0,0,0,0,0,0,0,0,-1,1714,351,0,0
497,673,0,0,0,0,0,0,0,0,0,-1,1721,351,0,0
504,673,0,0,0,0,0,0,0,0,0,-1,1728,351,0,0
511,673,0,0,0,0,0,0,0,0,0,-1,1735,351,0,0
518,673,0,0,0,0,0,0,0,0,0,-1,1742,351,0,0
525,673,0,0,0,0,0,0,0,0,0,-1,1749,351,0,0
532,673,0,0,0,0,0,0,0,0,0,-1,1756,351,0,0
539,673,0,0,0,0,0,0,0,0,0,-1,1763,351,0,0
546,673,0,0,0,0,0,0,0,0,0,-1,1770,351,0,0
553,673,0,0,0,0,0,0,0,0,0,-1,1777,351,0,0
560,673,0,0,0,0,0,0,0,0,0,-1,1784,351,0,0
567,673,0,0,0,0,0,0,0,0,0,-1,1791,351,0,0
574,673,0,0,0,0,0,0,0,0,0,-1,1798,351,0,0
581,673,0,0,0,0,0,0,0,0,0,-1,1805,351,0,0
588,673,0,0,0,0,0,0,0,0,0,-1,1812,351,0,0
595,673,0,0,0,0,0,0,0,0,0,-1,1819,351,0,0
602,673,0,0,0,0,0,0,0,0,0,-1,1826,351,0,0
609,673,0,0,0,0,0,0,0,0,0,-1,1833,351,0,0
616,673,0,0,0,0,0,0,0,0,0,-1,1840,351,0,0
623,673,0,0,0,0,0,0,0,0,0,-1,1847,351,0,0
630,673,0,0,0,0,0,0,0,0,0,-1,1854,351,0,0
637,673,0,0,0,0,0,0,0,0,0,-1,1861,351,0,0
644,673,0,0,0,0,0,0,0,0,0,-1,1868,351,0,0
651,673,0,0,0,0,0,0,0,0,0,-1,1875,351,0,0
658,673,0,0,0,0,0,0,0,0,0,-1,1882,351,0,0
665,673,0,0,0,0,0,0,0,0,0,-1,1889,351,0,0
672,673,0,0,0,0,0,0,0,0,0,-1,1896,351,0,0
679,673,0,0,0,0,0,0,0,0,0,-1,1903,351,0,0
686,673,0,0,0,0,0,0,0,0,0,-1,1910,351,0,0
693,673,0,0,0,0,0,0,0,0,0,-1,1917,351,0,0
700,673,0,0,0,0,0,0,0,0,0,-1,1924,351,0,0
707,673,0,0,0,0,0,0,0,0,0,-1,1931,351,0,0
714,673,0,0,0,0,0,0,0,0,0,-1,1938,351,0,0
721,673,0,0,0,0,0,0,0,0,0,-1,1945,351,0,0
728,673,0,0,0,0,0,0,0,0,0,-1,1952,351,0,0
735,673,0,0,0,0,0,0,0,0,0,-1,1959,351,0,0
742,673,0,0,0,0,0,0,0,0,0,-1,1966,351,0,0
749,673,0,0,0,0,0,0,0,0,0,-1,1973,351,0,0
756,673,0,0,0,0,0,0,0,0,0,-1,1980,351,0,0
763,673,0,0,0,0,0,0,0,0,0,-1,1987,351,0,0
770,673,0,0,0,0,0,0,0,0,0,-1,1994,351,0,0
777,673,0,0,0,0,0,0,0,0,0,-1,2001,351,0,0
784,673,0,0,0,0,0,0,0,0,0,-1,2008,351,0,0
791,673,0,0,0,0,0,0,0,0,0,-1,2015,351,0,0
798,673,0,0,0,0,0,0,0,0,0,-1,2022,351,0,0
805,673,0,0,0,0,0,0,0,0,0,-1,2029,351,0,0
812,673,0,0,0,0,0,0,0,0,0,-1,2036,351,0,0
-700,666,0,0,0,0,0,0,0,0,0,-1,524,358,0,0
-693,666,0,0,0,0,0,0,0,0,0,-1,531,358,0,0
-686,666,0,0,0,0,0,0,0,0,0,-1,538,358,0,0
-679,666,0,0,0,0,0,0,0,0,0,-1,545,358,0,0
-672,666,0,0,0,0,0,0,0,0,0,-1,552,358,0,0
-665,666,0,0,0,0,0,0,0,0,0,-1,559,358,0,0
-658,666,0,0,0,0,0,0,0,0,0,-1,566,358,0,0
-651,666,0,0,0,0,0,0,0,0,0,-1,573,358,0,0
-644,666,0,0,0,0,0,0,0,0,0,-1,580,358,0,0
-637,666,0,0,0,0,0,0,0,0,0,-1,587,358,0,0
-630,666,0,0,0,0,0,0,0,0,0,-1,594,358,0,0
-623,666,0,0,0,0,0,0,0,0,0,-1,601,358,0,0
-616,666,0,0,0,0,0,0,0,0,0,-1,608,358,0,0
-609,666,0,0,0,0,0,0,0,0,0,-1,615,358,0,0
-602,666,0,0,0,0,0,0,0,0,0,-1,622,358,0,0
-595,666,0,0,0,0,0,0,0,0,0,-1,629,358,0,0
-588,666,0,0,0,0,0,0,0,0,0,-1,636,358,0,0
-581,666,0,0,0,0,0,0,0,0,0,-1,643,358,0,0
-574,666,0,0,0,0,0,0,0,0,0,-1,650,358,0,0
-567,666,0,0,0,0,0,0,0,0,0,-1,657,358,0,0
-560,666,0,0,0,0,0,0,0,0,0,-1,664,358,0,0
-553,666,0,0,0,0,0,0,0,0,0,-1,671,358,0,0
-546,666,0,0,0,0,0,0,0,0,0,-1,678,358,0,0
-539,666,0,0,0,0,0,0,0,0,0,-1,685,358,0,0
-532,666,0,0,0,0,0,0,0,0,0,-1,692,358,0,0
-525,666,0,0,0,0,0,0,0,0,0,-1,699,358,0,0
-518,666,0,0,0,0,0,0,0,0,0,-1,706,358,0,0
-511,666,0,0,0,0,0,0,0,0,0,-1,713,358,0,0
-504,666,0,0,0,0,0,0,0,0,0,-1,720,358,0,0
-497,666,0,0,0,0,0,0,0,0,0,-1,727,358,0,0
-490,666,0,0,0,0,0,0,0,0,0,-1,734,358,0,0
-483,666,0,0,0,0,0,0,0,0,0,-1,741,358,0,0
-476,666,0,0,0,0,0,0,0,0,0,-1,748,358,0,0
-469,666,0,0,0,0,0,0,0,0,0,-1,755,358,0,0
-462,666,0,0,0,0,0,0,0,0,0,-1,762,358,0,0
-455,666,0,0,0,0,0,0,0,0,0,-1,769,358,0,0
-448,666,0,0,0,0,0,0,0,0,0,-1,776,358,0,0
-441,666,0,0,0,0,0,0,0,0,0,-1,783,358,0,0
-434,666,0,0,0,0,0,0,0,0,0,-1,790,358,0,0
-427,666,0,0,0,0,0,0,0,0,0,-1,797,358,0,0
-420,666,0,0,0,0,0,0,0,0,0,-1,804,358,0,0
-413,666,0,0,0,0,0,0,0,0,0,-1,811,358,0,0
-406,666,0,0,0,0,0,0,0,0,0,-1,818,358,0,0
-399,666,0,0,0,0,0,0,0,0,0,-1,825,358,0,0
-392,666,0,0,0,0,0,0,0,0,0,-1,832,358,0,0
-385,666,0,0,0,0,0,0,0,0,0,-1,839,358,0,0
-378,666,0,0,0,0,0,0,0,0,0,-1,846,358,0,0
-371,666,0,0,0,0,0,0,0,0,0,-1,853,358,0,0
-364,666,0,0,0,0,0,0,0,0,0,-1,860,358,0,0
-357,666,0,0,0,0,0,0,0,0,0,-1,867,358,0,0
-350,666,0,0,0,0,0,0,0,0,0,-1,874,358,0,0
-343,666,0,0,0,0,0,0,0,0,0,-1,881,358,0,0
-336,666,0,0,0,0,0,0,0,0,0,-1,888,358,0,0
-329,666,0,0,0,0,0,0,0,0,0,-1,895,358,0,0
-322,666,0,0,0,0,0,0,0,0,0,-1,902,358,0,0
-315,666,0,0,0,0,0,0,0,0,0,-1,909,358,0,0
-308,666,0,0,0,0,0,0,0,0,0,-1,916,358,0,0
-301,666,0,0,0,0,0,0,0,0,0,-1,923,358,0,0
-294,666,0,0,0,0,0,0,0,0,0,-1,930,358,0,0
-287,666,0,0,0,0,0,0,0,0,0,-1,937,358,0,0
-280,666,0,0,0,0,0,0,0,0,0,-1,944,358,0,0
-273,666,0,0,0,0,0,0,0,0,0,-1,951,358,0,0
-266,666,0,0,0,0,0,0,0,0,0,-1,958,358,0,0
-259,666,0,0,0,0,0,0,0,0,0,-1,965,358,0,0
-252,666,0,0,0,0,0,0,0,0,0,-1,972,358,0,0
-245,666,0,0,0,0,0,0,0,0,0,-1,979,358,0,0
-238,666,0,0,0,0,0,0,0,0,0,-1,986,358,0,0
-231,666,0,0,0,0,0,0,0,0,0,-1,993,358,0,0
-224,666,0,0,0,0,0,0,0,0,0,-1,1000,358,0,0
-217,666,0,0,0,0,0,0,0,0,0,-1,1007,358,0,0
-210,666,0,0,0,0,0,0,0,0,0,-1,1014,358,0,0
-203,666,0,0,0,0,0,0,0,0,0,-1,1021,358,0,0
-196,666,5.1001,-23.2438,0,0,0,0,0,0,0,-1,1028,358,5.10008,23.2438
-189,666,5.17297,-22.8721,0,0,0,0,0,0,0,-1,1035,358,5.17298,22.8721
-182,666,4.96997,-22.3043,0,0,0,0,0,0,0,-1,1042,358,4.96995,22.3043
-175,666,2.09656,-23.7436,0,0,0,0,0,0,0,-1,1049,358,2.09661,23.7436
-168,666,2.09924,-24.5481,0.0390988,-0.0243615,-0.0496843,0.0663206,-0.0515833,-0.501226,0.0682489,0.0476346,1056,358,2.0992,24.5481
-161,666,2.42358,-25.1821,0.0354043,-0.0269765,-0.0408466,0.0556073,-0.0471796,-0.459325,0.0594105,0.0495709,1063,358,2.42359,25.1821
-154,666,4.15063,-24.2708,0,0,0,0,0,0,0,-1,1070,358,4.15068,24.2707
-147,666,4.21973,-23.7509,0,0,0,0,0,0,0,-1,1077,358,4.21967,23.7508
-140,666,4.33521,-23.3392,0.0228751,-0.0262111,-0.0186759,0.0291727,-0.0325088,-0.325234,0.0356292,0.0459884,1084,358,4.33517,23.3392
-133,666,4.41248,-23.1136,0.0185335,-0.0239719,-0.0133946,0.0224024,-0.0278408,-0.281184,0.0290645,0.0424461,1091,358,4.41242,23.1137
-126,666,4.58435,-23.1663,0.0143228,-0.0210957,-0.00918143,0.0165614,-0.0233342,-0.239151,0.0231441,0.0425657,1098,358,4.58435,23.1663
-119,666,4.63342,-23.5466,0.0104268,-0.0180576,-0.00610814,0.0116814,-0.0193121,-0.202575,0.018074,0.0433957,1105,358,4.63339,23.5466
-112,666,4.58142,-23.953,0,0,0,0,0,0,0,-1,1112,358,4.58146,23.953
-105,666,4.44714,-23.4302,0,0,0,0,0,0,0,-1,1119,358,4.44719,23.4302
-98,666,4.75623,-21.7956,0,0,0,0,0,0,0,-1,1126,358,4.75622,21.7956
-91,666,9.36877,-22.9226,0,0,0,0,0,0,0,-1,1133,358,9.36872,22.9226
-84,666,4.49243,-18.558,0,0,0,0,0,0,0,-1,1140,358,4.49245,18.558
-77,666,-0.874268,-14.3246,0,0,0,0,0,0,0,-1,1147,358,-0.87424,14.3246
-70,666,-6.32251,-7.67145,0,0,0,0,0,0,0,-1,1154,358,-6.3225,7.67145
-63,666,-11.7778,-0.975189,0,0,0,0,0,0,0,-1,1161,358,-11.7778,0.97519
-56,666,0.424683,-2.04132,0,0,0,0,0,0,0,-1,1168,358,0.424665,2.04132
-49,666,0.754395,-2.23169,0,0,0,0,0,0,0,-1,1175,358,0.754383,2.23169
-42,666,1.34473,-3.53897,0,0,0,0,0,0,0,-1,1182,358,1.34476,3.53896
-35,666,3.7738,-25.5605,0,0,0,0,0,0,0,-1,1189,358,3.77377,25.5605
-28,666,4.0116,-25.4904,0,0,0,0,0,0,0,-1,1196,358,4.01161,25.4904
-21,666,4.01636,-25.4352,0.0194217,0.0203229,-0.00294807,0.0228546,0.01689,-0.861231,0.0136885,0.0338723,1203,358,4.01631,25.4351
-14,666,3.96375,-25.5053,0.0175097,0.0224709,-0.00313966,0.0239916,0.0159889,-1.11973,0.0141051,0.0281172,1210,358,3.96373,25.5053
-7,666,3.88977,-25.5997,0.0153046,0.0245121,-0.00315288,0.0254882,0.0143284,-1.27055,0.0147535,0.0173896,1217,358,3.88976,25.5997
0,666,3.8822,-25.6854,0.0129498,0.026441,-0.00335558,0.0272295,0.0121613,-1.33999,0.0157508,0.0126733,1224,358,3.88223,25.6854
7,666,3.83447,-25.7451,0.0106309,0.028383,-0.00351959,0.0290553,0.00995853,-1.38204,0.0170494,0.0172496,1231,358,3.83443,25.7451
14,666,3.81567,-25.7657,0.00848976,0.0300843,-0.00351498,0.0306421,0.00793203,-1.41344,0.0183642,0.016243,1238,358,3.81565,25.7657
21,666,3.77307,-25.8495,0.00675225,0.0318536,-0.00337561,0.0322996,0.00630622,-1.43943,0.0197692,0.0126108,1245,358,3.77307,25.8495
28,666,3.7312,-25.8996,0.00566625,0.033049,-0.00349431,0.0334879,0.00522737,-1.44585,0.0208029,0.0133134,1252,358,3.73126,25.8996
35,666,3.73828,-25.9044,0.00520262,0.0334308,-0.00356731,0.0338746,0.00475879,-1.44701,0.0211758,0.0120563,1259,358,3.73827,25.9044
42,666,3.69849,-25.9311,0.00474273,0.0330526,-0.00311295,0.0333909,0.00440447,-1.46256,0.0209474,0.0120277,1266,358,3.69847,25.9311
49,666,3.64893,-25.9434,0.00281576,0.0325058,-0.00202291,0.032643,0.00267857,-1.50308,0.0209264,0.0106496,1273,358,3.64894,25.9434
56,666,3.6344,-25.951,0.00122045,0.0309882,-0.00152966,0.0310666,0.00114206,-1.51959,0.0203411,0.0124559,1280,358,3.63438,25.951
63,666,3.60828,-25.9832,0.00025125,0.0288252,-0.00136454,0.0288902,0.000186236,-1.52319,0.0191984,0.0145558,1287,358,3.60829,25.9832
70,666,3.58655,-25.9406,-0.00104804,0.0264248,-0.00110839,0.0264694,-0.00109269,-1.53054,0.0180216,0.0153716,1294,358,3.58651,25.9406
77,666,3.56604,-25.8502,-0.00217775,0.0233847,-0.000648427,0.0234011,-0.00219418,-1.54545,0.0163812,0.0191547,1301,358,3.56606,25.8502
84,666,3.578,-25.885,-0.00341868,0.020257,-0.000232033,0.0202593,-0.00342095,-1.561,0.0147791,0.0258057,1308,358,3.57799,25.885
91,666,3.52625,-25.8854,-0.00513681,0.0179413,-0.000296049,0.0179451,-0.00514061,-1.55797,0.0139952,0.0230974,1315,358,3.52629,25.8854
98,666,3.40674,-25.8057,-0.00707918,0.0158659,-0.000676304,0.0158859,-0.0070991,-1.54136,0.0135898,0.0183983,1322,358,3.4067,25.8057
105,666,3.35132,-25.718,-0.00868506,0.0144699,-0.000998743,0.0145129,-0.00872806,-1.52777,0.013556,0.0191344,1329,358,3.35134,25.718
112,666,3.39343,-25.5222,-0.00973759,0.0134101,-0.0015337,0.0135113,-0.00983876,-1.50492,0.0135366,0.0417264,1336,358,3.39343,25.5222
119,666,3.37122,-25.3593,-0.0102294,0.0128767,-0.00216857,0.0130785,-0.0104312,-1.47802,0.013602,0.0457238,1343,358,3.37121,25.3593
126,666,3.25,-25.3743,-0.00999252,0.0126297,-0.00264287,0.0129344,-0.0102972,-1.45603,0.0134415,0.0292704,1350,358,3.25001,25.3743
133,666,3.22424,-25.2887,-0.00918065,0.0136765,-0.00249358,0.0139454,-0.00944952,-1.46339,0.0135899,0.0249254,1357,358,3.22419,25.2887
140,666,3.17004,-25.2874,-0.00804594,0.0147761,-0.00226948,0.0149996,-0.00826943,-1.47263,0.0136204,0.0227097,1364,358,3.17006,25.2874
147,666,3.10083,-25.1596,-0.0061882,0.015736,-0.00247342,0.0160116,-0.00646378,-1.45984,0.0133608,0.0199915,1371,358,3.10084,25.1597
154,666,3.13647,-24.9236,-0.00311497,0.0163734,-0.00284657,0.0167807,-0.00352224,-1.42869,0.0125273,0.0188583,1378,358,3.1365,24.9236
161,666,3.19189,-24.773,-0.00146841,0.0175578,-0.00213095,0.0177936,-0.00170415,-1.46061,0.0124693,0.0262289,1385,358,3.19193,24.773
168,666,3.22229,-24.6255,0,0,0,0,0,0,0,-1,1392,358,3.22224,24.6255
175,666,3.31592,-24.8297,0,0,0,0,0,0,0,-1,1399,358,3.31588,24.8297
182,666,2.60876,-5.17068,0,0,0,0,0,0,0,-1,1406,358,2.6088,5.17068
189,666,2.46973,-5.49979,0,0,0,0,0,0,0,-1,1413,358,2.46975,5.49979
196,666,2.32458,-5.23651,0,0,0,0,0,0,0,-1,1420,358,2.32461,5.23653
203,666,2.28064,-3.88004,0,0,0,0,0,0,0,-1,1427,358,2.28059,3.88003
210,666,3.02576,-5.83548,0,0,0,0,0,0,0,-1,1434,358,3.02581,5.83547
217,666,2.30444,-5.36011,0,0,0,0,0,0,0,-1,1441,358,2.30447,5.3601
224,666,1.82324,-6.03101,0,0,0,0,0,0,0,-1,1448,358,1.82322,6.031
231,666,2.29797,-10.1093,0,0,0,0,0,0,0,-1,1455,358,2.29801,10.1093
238,666,2.52429,-6.10568,0,0,0,0,0,0,0,-1,1462,358,2.52423,6.10567
245,666,4.53345,-1.38205,0,0,0,0,0,0,0,-1,1469,358,4.53349,1.38204
252,666,4.77405,-0.246979,0,0,0,0,0,0,0,-1,1476,358,4.77405,0.246993
259,666,4.83655,1.14087,0,0,0,0,0,0,0,-1,1483,358,4.83652,-1.14087
266,666,6.14148,0.749512,0,0,0,0,0,0,0,-1,1490,358,6.14144,-0.749519
273,666,2.61304,-1.53772,0,0,0,0,0,0,0,-1,1497,358,2.613,1.53773
280,666,8.70898,-0.836975,0,0,0,0,0,0,0,-1,1504,358,8.70894,0.836988
287,666,2.27039,-4.09058,0,0,0,0,0,0,0,-1,1511,358,2.27042,4.09059
294,666,-7.49707,-21.5876,0,0,0,0,0,0,0,-1,1518,358,-7.49702,21.5875
301,666,-6.94861,-23.4221,0,0,0,0,0,0,0,-1,1525,358,-6.94857,23.4221
308,666,1.08496,-1.87576,0,0,0,0,0,0,0,-1,1532,358,1.08491,1.87575
315,666,1.76294,-0.284027,0,0,0,0,0,0,0,-1,1539,358,1.76291,0.284016
322,666,0,0,0,0,0,0,0,0,0,-1,1546,358,0,0
329,666,0,0,0,0,0,0,0,0,0,-1,1553,358,0,0
336,666,0,0,0,0,0,0,0,0,0,-1,1560,358,0,0
343,666,0,0,0,0,0,0,0,0,0,-1,1567,358,0,0
350,666,0,0,0,0,0,0,0,0,0,-1,1574,358,0,0
357,666,0,0,0,0,0,0,0,0,0,-1,1581,358,0,0
364,666,0,0,0,0,0,0,0,0,0,-1,1588,358,0,0
371,666,0,0,0,0,0,0,0,0,0,-1,1595,358,0,0
378,666,0,0,0,0,0,0,0,0,0,-1,1602,358,0,0
385,666,0,0,0,0,0,0,0,0,0,-1,1609,358,0,0
392,666,0,0,0,0,0,0,0,0,0,-1,1616,358,0,0
399,666,0,0,0,0,0,0,0,0,0,-1,1623,358,0,0
406,666,0,0,0,0,0,0,0,0,0,-1,1630,358,0,0
413,666,0,0,0,0,0,0,0,0,0,-1,1637,358,0,0
420,666,0,0,0,0,0,0,0,0,0,-1,1644,358,0,0
427,666,0,0,0,0,0,0,0,0,0,-1,1651,358,0,0
434,666,0,0,0,0,0,0,0,0,0,-1,1658,358,0,0
441,666,0,0,0,0,0,0,0,0,0,-1,1665,358,0,0
448,666,0,0,0,0,0,0,0,0,0,-1,1672,358,0,0
455,666,0,0,0,0,0,0,0,0,0,-1,1679,358,0,0
462,666,0,0,0,0,0,0,0,0,0,-1,1686,358,0,0
469,666,0,0,0,0,0,0,0,0,0,-1,1693,358,0,0
476,666,0,0,0,0,0,0,0,0,0,-1,1700,358,0,0
483,666,0,0,0,0,0,0,0,0,0,-1,1707,358,0,0
490,666,0,0,0,0,0,0,0,0,0,-1,1714,358,0,0
497,666,0,0,0,0,0,0,0,0,0,-1,1721,358,0,0
504,666,0,0,0,0,0,0,0,0,0,-1,1728,358,0,0
511,666,0,0,0,0,0,0,0,0,0,-1,1735,358,0,0
518,666,0,0,0,0,0,0,0,0,0,-1,1742,358,0,0
525,666,0,0,0,0,0,0,0,0,0,-1,1749,358,0,0
532,666,0,0,0,0,0,0,0,0,0,-1,1756,358,0,0
539,666,0,0,0,0,0,0,0,0,0,-1,1763,358,0,0
546,666,0,0,0,0,0,0,0,0,0,-1,1770,358,0,0
553,666,0,0,0,0,0,0,0,0,0,-1,1777,358,0,0
560,666,0,0,0,0,0,0,0,0,0,-1,1784,358,0,0
567,666,0,0,0,0,0,0,0,0,0,-1,1791,358,0,0
574,666,0,0,0,0,0,0,0,0,0,-1,1798,358,0,0
581,666,0,0,0,0,0,0,0,0,0,-1,1805,358,0,0
588,666,0,0,0,0,0,0,0,0,0,-1,1812,358,0,0
595,666,0,0,0,0,0,0,0,0,0,-1,1819,358,0,0
602,666,0,0,0,0,0,0,0,0,0,-1,1826,358,0,0
609,666,0,0,0,0,0,0,0,0,0,-1,1833,358,0,0
616,666,0,0,0,0,0,0,0,0,0,-1,1840,358,0,0
623,666,0,0,0,0,0,0,0,0,0,-1,1847,358,0,0
630,666,0,0,0,0,0,0,0,0,0,-1,1854,358,0,0
637,666,0,0,0,0,0,0,0,0,0,-1,1861,358,0,0
644,666,0,0,0,0,0,0,0,0,0,-1,1868,358,0,0
651,666,0,0,0,0,0,0,0,0,0,-1,1875,358,0,0
658,666,0,0,0,0,0,0,0,0,0,-1,1882,358,0,0
665,666,0,0,0,0,0,0,0,0,0,-1,1889,358,0,0
672,666,0,0,0,0,0,0,0,0,0,-1,1896,358,0,0
679,666,0,0,0,0,0,0,0,0,0,-1,1903,358,0,0
686,666,0,0,0,0,0,0,0,0,0,-1,1910,358,0,0
693,666,0,0,0,0,0,0,0,0,0,-1,1917,358,0,0
700,666,0,0,0,0,0,0,0,0,0,-1,1924,358,0,0
707,666,0,0,0,0,0,0,0,0,0,-1,1931,358,0,0
714,666,0,0,0,0,0,0,0,0,0,-1,1938,358,0,0
721,666,0,0,0,0,0,0,0,0,0,-1,1945,358,0,0
728,666,0,0,0,0,0,0,0,0,0,-1,1952,358,0,0
735,666,0,0,0,0,0,0,0,0,0,-1,1959,358,0,0
742,666,0,0,0,0,0,0,0,0,0,-1,1966,358,0,0
749,666,0,0,0,0,0,0,0,0,0,-1,1973,358,0,0
756,666,0,0,0,0,0,0,0,0,0,-1,1980,358,0,0
763,666,0,0,0,0,0,0,0,0,0,-1,1987,358,0,0
770,666,0,0,0,0,0,0,0,0,0,-1,1994,358,0,0
777,666,0,0,0,0,0,0,0,0,0,-1,2001,358,0,0
784,666,0,0,0,0,0,0,0,0,0,-1,2008,358,0,0
791,666,0,0,0,0,0,0,0,0,0,-1,2015,358,0,0
798,666,0,0,0,0,0,0,0,0,0,-1,2022,358,0,0
805,666,0,0,0,0,0,0,0,0,0,-1,2029,358,0,0
812,666,0,0,0,0,0,0,0,0,0,-1,2036,358,0,0
-700,659,0,0,0,0,0,0,0,0,0,-1,524,365,0,0
-693,659,0,0,0,0,0,0,0,0,0,-1,531,365,0,0
-686,659,0,0,0,0,0,0,0,0,0,-1,538,365,0,0
-679,659,0,0,0,0,0,0,0,0,0,-1,545,365,0,0
-672,659,0,0,0,0,0,0,0,0,0,-1,552,365,0,0
-665,659,0,0,0,0,0,0,0,0,0,-1,559,365,0,0
-658,659,0,0,0,0,0,0,0,0,0,-1,566,365,0,0
-651,659,0,0,0,0,0,0,0,0,0,-1,573,365,0,0
-644,659,0,0,0,0,0,0,0,0,0,-1,580,365,0,0
-637,659,0,0,0,0,0,0,0,0,0,-1,587,365,0,0
-630,659,0,0,0,0,0,0,0,0,0,-1,594,365,0,0
-623,659,0,0,0,0,0,0,0,0,0,-1,601,365,0,0
-616,659,0,0,0,0,0,0,0,0,0,-1,608,365,0,0
-609,659,0,0,0,0,0,0,0,0,0,-1,615,365,0,0
-602,659,0,0,0,0,0,0,0,0,0,-1,622,365,0,0
-595,659,0,0,0,0,0,0,0,0,0,-1,629,365,0,0
-588,659,0,0,0,0,0,0,0,0,0,-1,636,365,0,0
-581,659,0,0,0,0,0,0,0,0,0,-1,643,365,0,0
-574,659,0,0,0,0,0,0,0,0,0,-1,650,365,0,0
-567,659,0,0,0,0,0,0,0,0,0,-1,657,365,0,0
-560,659,0,0,0,0,0,0,0,0,0,-1,664,365,0,0
-553,659,0,0,0,0,0,0,0,0,0,-1,671,365,0,0
-546,659,0,0,0,0,0,0,0,0,0,-1,678,365,0,0
-539,659,0,0,0,0,0,0,0,0,0,-1,685,365,0,0
-532,659,0,0,0,0,0,0,0,0,0,-1,692,365,0,0
-525,659,0,0,0,0,0,0,0,0,0,-1,699,365,0,0
-518,659,0,0,0,0,0,0,0,0,0,-1,706,365,0,0
-511,659,0,0,0,0,0,0,0,0,0,-1,713,365,0,0
-504,659,0,0,0,0,0,0,0,0,0,-1,720,365,0,0
-497,659,0,0,0,0,0,0,0,0,0,-1,727,365,0,0
-490,659,0,0,0,0,0,0,0,0,0,-1,734,365,0,0
-483,659,0,0,0,0,0,0,0,0,0,-1,741,365,0,0
-476,659,0,0,0,0,0,0,0,0,0,-1,748,365,0,0
-469,659,0,0,0,0,0,0,0,0,0,-1,755,365,0,0
-462,659,0,0,0,0,0,0,0,0,0,-1,762,365,0,0
-455,659,0,0,0,0,0,0,0,0,0,-1,769,365,0,0
-448,659,0,0,0,0,0,0,0,0,0,-1,776,365,0,0
-441,659,0,0,0,0,0,0,0,0,0,-1,783,365,0,0
-434,659,0,0,0,0,0,0,0,0,0,-1,790,365,0,0
-427,659,0,0,0,0,0,0,0,0,0,-1,797,365,0,0
-420,659,0,0,0,0,0,0,0,0,0,-1,804,365,0,0
-413,659,0,0,0,0,0,0,0,0,0,-1,811,365,0,0
-406,659,0,0,0,0,0,0,0,0,0,-1,818,365,0,0
-399,659,0,0,0,0,0,0,0,0,0,-1,825,365,0,0
-392,659,0,0,0,0,0,0,0,0,0,-1,832,365,0,0
-385,659,0,0,0,0,0,0,0,0,0,-1,839,365,0,0
-378,659,0,0,0,0,0,0,0,0,0,-1,846,365,0,0
-371,659,0,0,0,0,0,0,0,0,0,-1,853,365,0,0
-364,659,0,0,0,0,0,0,0,0,0,-1,860,365,0,0
-357,659,0,0,0,0,0,0,0,0,0,-1,867,365,0,0
-350,659,0,0,0,0,0,0,0,0,0,-1,874,365,0,0
-343,659,0,0,0,0,0,0,0,0,0,-1,881,365,0,0
-336,659,0,0,0,0,0,0,0,0,0,-1,888,365,0,0
-329,659,0,0,0,0,0,0,0,0,0,-1,895,365,0,0
-322,659,0,0,0,0,0,0,0,0,0,-1,902,365,0,0
-315,659,0,0,0,0,0,0,0,0,0,-1,909,365,0,0
-308,659,0,0,0,0,0,0,0,0,0,-1,916,365,0,0
-301,659,0,0,0,0,0,0,0,0,0,-1,923,365,0,0
-294,659,0,0,0,0,0,0,0,0,0,-1,930,365,0,0
-287,659,0,0,0,0,0,0,0,0,0,-1,937,365,0,0
-280,659,0,0,0,0,0,0,0,0,0,-1,944,365,0,0
-273,659,0,0,0,0,0,0,0,0,0,-1,951,365,0,0
-266,659,0,0,0,0,0,0,0,0,0,-1,958,365,0,0
-259,659,0,0,0,0,0,0,0,0,0,-1,965,365,0,0
-252,659,0,0,0,0,0,0,0,0,0,-1,972,365,0,0
-245,659,0,0,0,0,0,0,0,0,0,-1,979,365,0,0
-238,659,0,0,0,0,0,0,0,0,0,-1,986,365,0,0
-231,659,0,0,0,0,0,0,0,0,0,-1,993,365,0,0
-224,659,0,0,0,0,0,0,0,0,0,-1,1000,365,0,0
-217,659,3.57001,-16.8541,0,0,0,0,0,0,0,-1,1007,365,3.57003,16.8541
-210,659,3.20129,-17.9641,0,0,0,0,0,0,0,-1,1014,365,3.2013,17.9641
-203,659,3.95166,-22.319,0,0,0,0,0,0,0,-1,1021,365,3.95166,22.319
-196,659,4.61292,-21.8292,0,0,0,0,0,0,0,-1,1028,365,4.61293,21.8292
-189,659,4.98706,-21.7021,0,0,0,0,0,0,0,-1,1035,365,4.98712,21.7022
-182,659,4.84436,-21.3565,0,0,0,0,0,0,0,-1,1042,365,4.84438,21.3565
-175,659,4.51208,-21.1544,0,0,0,0,0,0,0,-1,1049,365,4.51209,21.1544
-168,659,2.63733,-24.2626,0,0,0,0,0,0,0,-1,1056,365,2.63733,24.2626
-161,659,4.55969,-23.989,0,0,0,0,0,0,0,-1,1063,365,4.55968,23.989
-154,659,4.4906,-24.2531,0,0,0,0,0,0,0,-1,1070,365,4.4906,24.2531
-147,659,4.23645,-23.5926,0,0,0,0,0,0,0,-1,1077,365,4.23646,23.5926
-140,659,4.521,-23.1765,0,0,0,0,0,0,0,-1,1084,365,4.52104,23.1765
-133,659,4.55237,-22.5604,0,0,0,0,0,0,0,-1,1091,365,4.55236,22.5604
-126,659,4.47607,-22.7314,0.00956049,-0.0147182,-0.00781906,0.0118607,-0.0170184,-0.286111,0.0167618,0.040532,1098,365,4.47605,22.7314
-119,659,4.42712,-23.2322,0.00670397,-0.011939,-0.00548163,0.0081963,-0.0134313,-0.265799,0.012608,0.039369,1105,365,4.42717,23.2322
-112,659,4.27893,-23.5595,0.00367624,-0.00987656,-0.0025281,0.00413247,-0.0103328,-0.178541,0.00860346,0.03834,1112,365,4.27893,23.5595
-105,659,4.25391,-23.4526,0.00115779,-0.00629728,-0.000312889,0.00117089,-0.00631039,-0.0418718,0.00464666,0.0438827,1119,365,4.25389,23.4526
-98,659,4.25806,-23.2006,0,0,0,0,0,0,0,-1,1126,365,4.258,23.2006
-91,659,4.20776,-20.8654,0,0,0,0,0,0,0,-1,1133,365,4.20777,20.8654
-84,659,2.8584,-17.8303,0,0,0,0,0,0,0,-1,1140,365,2.85836,17.8303
-77,659,2.80139,-15.3457,0,0,0,0,0,0,0,-1,1147,365,2.80139,15.3457
-70,659,2.9353,-12.7028,0,0,0,0,0,0,0,-1,1154,365,2.93533,12.7028
-63,659,2.11267,-9.7796,0,0,0,0,0,0,0,-1,1161,365,2.11266,9.7796
-56,659,2.11182,-9.91541,0,0,0,0,0,0,0,-1,1168,365,2.11178,9.91541
-49,659,3.97852,-25.077,0,0,0,0,0,0,0,-1,1175,365,3.97847,25.077
-42,659,3.98633,-25.2339,0,0,0,0,0,0,0,-1,1182,365,3.98632,25.2339
-35,659,3.91821,-25.4315,0.012156,0.012713,-0.00143499,0.0138963,0.0109728,-0.881244,0.00845979,0.0446042,1189,365,3.91817,25.4315
-28,659,3.95776,-25.4549,0.0122268,0.0141695,-0.00157871,0.0150518,0.0113446,-1.06119,0.00905537,0.0156101,1196,365,3.95774,25.4549
-21,659,3.92114,-25.5248,0.0114684,0.0159215,-0.00212815,0.0167749,0.0106149,-1.18939,0.0097982,0.0115206,1203,365,3.92116,25.5248
-14,659,3.88403,-25.6414,0.0104248,0.0174762,-0.0022405,0.0181279,0.00977314,-1.28775,0.0104768,0.00923173,1210,365,3.88405,25.6414
-7,659,3.84143,-25.7238,0.0091987,0.0189635,-0.00224855,0.0194563,0.00870581,-1.355,0.0112538,0.00871004,1217,365,3.8414,25.7239
0,659,3.8374,-25.7914,0.00785698,0.0202609,-0.00239318,0.0207067,0.00741126,-1.38666,0.0121148,0.00859187,1224,365,3.83745,25.7914
7,659,3.82715,-25.8546,0.00647456,0.0215607,-0.00249538,0.0219627,0.00607251,-1.41105,0.0130957,0.00875948,1231,365,3.82713,25.8547
14,659,3.78418,-25.8759,0.00513595,0.0226401,-0.00249502,0.0229887,0.00478726,-1.43194,0.0140055,0.0104545,1238,365,3.78412,25.8759
21,659,3.76196,-25.911,0.00401305,0.0237924,-0.00240091,0.0240797,0.00372579,-1.45172,0.0149666,0.0112587,1245,365,3.76201,25.911
28,659,3.72522,-25.9473,0.00329259,0.0245142,-0.00248591,0.0248015,0.00300528,-1.45573,0.0156292,0.010766,1252,365,3.72519,25.9473
35,659,3.70374,-25.984,0.002977,0.0245486,-0.00254737,0.0248454,0.00268027,-1.45483,0.0157464,0.011097,1259,365,3.70372,25.984
42,659,3.68835,-26.0162,0.00265911,0.0240266,-0.00222721,0.0242562,0.00242943,-1.46803,0.0154249,0.0109232,1266,365,3.68839,26.0162
49,659,3.64832,-26.0206,0.00124901,0.0234331,-0.00142411,0.0235242,0.00115797,-1.50695,0.0153114,0.0111268,1273,365,3.64838,26.0206
56,659,3.61914,-26.0262,6.23751e-05,0.0221398,-0.00109851,0.0221943,7.85012e-06,-1.5212,0.0147936,0.0151916,1280,365,3.61914,26.0262
63,659,3.60779,-26.0428,-0.000639636,0.020404,-0.00097931,0.0204495,-0.000685112,-1.52439,0.013867,0.0163673,1287,365,3.60779,26.0428
70,659,3.57751,-26.033,-0.00155017,0.0185769,-0.000788742,0.0186077,-0.00158103,-1.53169,0.0129643,0.0175338,1294,365,3.57747,26.033
77,659,3.52881,-25.9994,-0.00229675,0.0163336,-0.000419824,0.0163431,-0.00230621,-1.54828,0.0117399,0.0166617,1301,365,3.52882,25.9994
84,659,3.51208,-25.9747,-0.00313566,0.0141193,-0.000106359,0.0141199,-0.00313632,-1.56463,0.0106143,0.0126934,1308,365,3.5121,25.9747
91,659,3.47266,-25.9387,-0.00432336,0.0126245,-0.000125942,0.0126254,-0.0043243,-1.56337,0.0101696,0.0113222,1315,365,3.47268,25.9387
98,659,3.44946,-25.8866,-0.00563519,0.0113395,-0.000335648,0.0113462,-0.00564183,-1.55103,0.00999063,0.00795968,1322,365,3.44948,25.8866
105,659,3.43518,-25.8015,-0.00665853,0.0106539,-0.00049881,0.0106682,-0.00667289,-1.54202,0.0101001,0.0084745,1329,365,3.4352,25.8015
112,659,3.43066,-25.7176,-0.00727007,0.0102589,-0.000807251,0.010296,-0.00730717,-1.52487,0.0102119,0.0123831,1336,365,3.43062,25.7176
119,659,3.40735,-25.6384,-0.00746171,0.0102855,-0.00114718,0.0103593,-0.00753556,-1.50651,0.0103744,0.01428,1343,365,3.4074,25.6384
126,659,3.3595,-25.5372,-0.00716843,0.0104777,-0.00138246,0.0105854,-0.00727608,-1.49308,0.0103712,0.0135157,1350,365,3.35949,25.5372
133,659,3.32263,-25.4524,-0.00655948,0.0114468,-0.00120091,0.0115266,-0.00663922,-1.50449,0.0106138,0.0124402,1357,365,3.32263,25.4524
140,659,3.29761,-25.3733,-0.00577318,0.0125402,-0.000940718,0.0125884,-0.00582137,-1.51961,0.0108656,0.00974528,1364,365,3.29757,25.3733
147,659,3.2738,-25.2674,-0.00455001,0.0134462,-0.000980422,0.0134995,-0.00460327,-1.51653,0.0108642,0.00849297,1371,365,3.27384,25.2674
154,659,3.23242,-25.1236,-0.00253897,0.0139222,-0.00114765,0.0140019,-0.00261859,-1.50152,0.0103188,0.00975224,1378,365,3.23242,25.1236
161,659,3.23328,-24.9764,-0.00147946,0.0146765,-0.000543182,0.0146947,-0.00149771,-1.53723,0.010332,0.0110616,1385,365,3.23327,24.9764
168,659,3.24255,-24.8354,-0.00190372,0.0150188,0.000544325,0.0150363,-0.00192121,1.53867,0.0107221,0.018006,1392,365,3.2426,24.8354
175,659,3.23572,-24.7258,-0.00212997,0.0148551,0.00143725,0.0149758,-0.00225073,1.48697,0.0108125,0.0422065,1399,365,3.23573,24.7258
182,659,3.11316,-24.6793,0,0,0,0,0,0,0,-1,1406,365,3.11315,24.6793
189,659,3.14526,-24.325,0,0,0,0,0,0,0,-1,1413,365,3.14532,24.325
196,659,2.41248,-13.4371,0,0,0,0,0,0,0,-1,1420,365,2.41243,13.4371
203,659,2.38623,-12.2163,0,0,0,0,0,0,0,-1,1427,365,2.38617,12.2163
210,659,2.20789,-13.9792,0,0,0,0,0,0,0,-1,1434,365,2.20794,13.9792
217,659,2.24121,-13.487,0,0,0,0,0,0,0,-1,1441,365,2.24116,13.487
224,659,2.3479,-15.2926,0,0,0,0,0,0,0,-1,1448,365,2.34793,15.2926
231,659,2.47974,-17.8629,0,0,0,0,0,0,0,-1,1455,365,2.47976,17.8628
238,659,3.57886,-21.1258,0,0,0,0,0,0,0,-1,1462,365,3.57889,21.1258
245,659,3.16016,-23.2718,0,0,0,0,0,0,0,-1,1469,365,3.16021,23.2718
252,659,2.45972,-18.7531,0,0,0,0,0,0,0,-1,1476,365,2.45976,18.7531
259,659,2.33069,-3.36703,0,0,0,0,0,0,0,-1,1483,365,2.33073,3.36702
266,659,1.72681,-17.183,0,0,0,0,0,0,0,-1,1490,365,1.72683,17.183
273,659,2.4375,-14.5841,0,0,0,0,0,0,0,-1,1497,365,2.43748,14.5841
280,659,1.70947,-9.4129,0,0,0,0,0,0,0,-1,1504,365,1.70952,9.4129
287,659,-5.57568,-20.9387,0,0,0,0,0,0,0,-1,1511,365,-5.57562,20.9386
294,659,-5.35767,-21.0529,0.0216207,0.00708225,-0.0903503,0.104994,-0.0762908,-0.745257,0.105101,0.0487323,1518,365,-5.35764,21.0529
301,659,-5.05615,-22.3274,0,0,0,0,0,0,0,-1,1525,365,-5.05609,22.3274
308,659,-4.94006,-23.5258,0,0,0,0,0,0,0,-1,1532,365,-4.94,23.5258
315,659,2.17102,-2.98474,0,0,0,0,0,0,0,-1,1539,365,2.171,2.98473
322,659,0.382813,-2.2424,0,0,0,0,0,0,0,-1,1546,365,0.382801,2.2424
329,659,0.604004,-1.75998,0,0,0,0,0,0,0,-1,1553,365,0.603966,1.75998
336,659,2.09851,-1.17941,0,0,0,0,0,0,0,-1,1560,365,2.09857,1.17942
343,659,0,0,0,0,0,0,0,0,0,-1,1567,365,0,0
350,659,0,0,0,0,0,0,0,0,0,-1,1574,365,0,0
357,659,0,0,0,0,0,0,0,0,0,-1,1581,365,0,0
364,659,0,0,0,0,0,0,0,0,0,-1,1588,365,0,0
371,659,0,0,0,0,0,0,0,0,0,-1,1595,365,0,0
378,659,0,0,0,0,0,0,0,0,0,-1,1602,365,0,0
385,659,0,0,0,0,0,0,0,0,0,-1,1609,365,0,0
392,659,0,0,0,0,0,0,0,0,0,-1,1616,365,0,0
399,659,0,0,0,0,0,0,0,0,0,-1,1623,365,0,0
406,659,0,0,0,0,0,0,0,0,0,-1,1630,365,0,0
413,659,0,0,0,0,0,0,0,0,0,-1,1637,365,0,0
420,659,0,0,0,0,0,0,0,0,0,-1,1644,365,0,0
427,659,0,0,0,0,0,0,0,0,0,-1,1651,365,0,0
434,659,0,0,0,0,0,0,0,0,0,-1,1658,365,0,0
441,659,0,0,0,0,0,0,0,0,0,-1,1665,365,0,0
448,659,0,0,0,0,0,0,0,0,0,-1,1672,365,0,0
455,659,0,0,0,0,0,0,0,0,0,-1,1679,365,0,0
462,659,0,0,0,0,0,0,0,0,0,-1,1686,365,0,0
469,659,0,0,0,0,0,0,0,0,0,-1,1693,365,0,0
476,659,0,0,0,0,0,0,0,0,0,-1,1700,365,0,0
483,659,0,0,0,0,0,0,0,0,0,-1,1707,365,0,0
490,659,0,0,0,0,0,0,0,0,0,-1,1714,365,0,0
497,659,0,0,0,0,0,0,0,0,0,-1,1721,365,0,0
504,659,0,0,0,0,0,0,0,0,0,-1,1728,365,0,0
511,659,0,0,0,0,0,0,0,0,0,-1,1735,365,0,0
518,659,0,0,0,0,0,0,0,0,0,-1,1742,365,0,0
525,659,0,0,0,0,0,0,0,0,0,-1,1749,365,0,0
532,659,0,0,0,0,0,0,0,0,0,-1,1756,365,0,0
539,659,0,0,0,0,0,0,0,0,0,-1,1763,365,0,0
546,659,0,0,0,0,0,0,0,0,0,-1,1770,365,0,0
553,659,0,0,0,0,0,0,0,0,0,-1,1777,365,0,0
560,659,0,0,0,0,0,0,0,0,0,-1,1784,365,0,0
567,659,0,0,0,0,0,0,0,0,0,-1,1791,365,0,0
574,659,0,0,0,0,0,0,0,0,0,-1,1798,365,0,0
581,659,0,0,0,0,0,0,0,0,0,-1,1805,365,0,0
588,659,0,0,0,0,0,0,0,0,0,-1,1812,365,0,0
595,659,0,0,0,0,0,0,0,0,0,-1,1819,365,0,0
602,659,0,0,0,0,0,0,0,0,0,-1,1826,365,0,0
609,659,0,0,0,0,0,0,0,0,0,-1,1833,365,0,0
616,659,0,0,0,0,0,0,0,0,0,-1,1840,365,0,0
623,659,0,0,0,0,0,0,0,0,0,-1,1847,365,0,0
630,659,0,0,0,0,0,0,0,0,0,-1,1854,365,0,0
637,659,0,0,0,0,0,0,0,0,0,-1,1861,365,0,0
644,659,0,0,0,0,0,0,0,0,0,-1,1868,365,0,0
651,659,0,0,0,0,0,0,0,0,0,-1,1875,365,0,0
658,659,0,0,0,0,0,0,0,0,0,-1,1882,365,0,0
665,659,0,0,0,0,0,0,0,0,0,-1,1889,365,0,0
672,659,0,0,0,0,0,0,0,0,0,-1,1896,365,0,0
679,659,0,0,0,0,0,0,0,0,0,-1,1903,365,0,0
686,659,0,0,0,0,0,0,0,0,0,-1,1910,365,0,0
693,659,0,0,0,0,0,0,0,0,0,-1,1917,365,0,0
700,659,0,0,0,0,0,0,0,0,0,-1,1924,365,0,0
707,659,0,0,0,0,0,0,0,0,0,-1,1931,365,0,0
714,659,0,0,0,0,0,0,0,0,0,-1,1938,365,0,0
721,659,0,0,0,0,0,0,0,0,0,-1,1945,365,0,0
728,659,0,0,0,0,0,0,0,0,0,-1,1952,365,0,0
735,659,0,0,0,0,0,0,0,0,0,-1,1959,365,0,0
742,659,0,0,0,0,0,0,0,0,0,-1,1966,365,0,0
749,659,0,0,0,0,0,0,0,0,0,-1,1973,365,0,0
756,659,0,0,0,0,0,0,0,0,0,-1,1980,365,0,0
763,659,0,0,0,0,0,0,0,0,0,-1,1987,365,0,0
770,659,0,0,0,0,0,0,0,0,0,-1,1994,365,0,0
777,659,0,0,0,0,0,0,0,0,0,-1,2001,365,0,0
784,659,0,0,0,0,0,0,0,0,0,-1,2008,365,0,0
791,659,0,0,0,0,0,0,0,0,0,-1,2015,365,0,0
798,659,0,0,0,0,0,0,0,0,0,-1,2022,365,0,0
805,659,0,0,0,0,0,0,0,0,0,-1,2029,365,0,0
812,659,0,0,0,0,0,0,0,0,0,-1,2036,365,0,0
-700,652,0,0,0,0,0,0,0,0,0,-1,524,372,0,0
-693,652,0,0,0,0,0,0,0,0,0,-1,531,372,0,0
-686,652,0,0,0,0,0,0,0,0,0,-1,538,372,0,0
-679,652,0,0,0,0,0,0,0,0,0,-1,545,372,0,0
-672,652,0,0,0,0,0,0,0,0,0,-1,552,372,0,0
-665,652,0,0,0,0,0,0,0,0,0,-1,559,372,0,0
-658,652,0,0,0,0,0,0,0,0,0,-1,566,372,0,0
-651,652,0,0,0,0,0,0,0,0,0,-1,573,372,0,0
-644,652,0,0,0,0,0,0,0,0,0,-1,580,372,0,0
-637,652,0,0,0,0,0,0,0,0,0,-1,587,372,0,0
-630,652,0,0,0,0,0,0,0,0,0,-1,594,372,0,0
-623,652,0,0,0,0,0,0,0,0,0,-1,601,372,0,0
-616,652,0,0,0,0,0,0,0,0,0,-1,608,372,0,0
-609,652,0,0,0,0,0,0,0,0,0,-1,615,372,0,0
-602,652,0,0,0,0,0,0,0,0,0,-1,622,372,0,0
-595,652,0,0,0,0,0,0,0,0,0,-1,629,372,0,0
-588,652,0,0,0,0,0,0,0,0,0,-1,636,372,0,0
-581,652,0,0,0,0,0,0,0,0,0,-1,643,372,0,0
-574,652,0,0,0,0,0,0,0,0,0,-1,650,372,0,0
-567,652,0,0,0,0,0,0,0,0,0,-1,657,372,0,0
-560,652,0,0,0,0,0,0,0,0,0,-1,664,372,0,0
-553,652,0,0,0,0,0,0,0,0,0,-1,671,372,0,0
-546,652,0,0,0,0,0,0,0,0,0,-1,678,372,0,0
-539,652,0,0,0,0,0,0,0,0,0,-1,685,372,0,0
-532,652,0,0,0,0,0,0,0,0,0,-1,692,372,0,0
-525,652,0,0,0,0,0,0,0,0,0,-1,699,372,0,0
-518,652,0,0,0,0,0,0,0,0,0,-1,706,372,0,0
-511,652,0,0,0,0,0,0,0,0,0,-1,713,372,0,0
-504,652,0,0,0,0,0,0,0,0,0,-1,720,372,0,0
-497,652,0,0,0,0,0,0,0,0,0,-1,727,372,0,0
-490,652,0,0,0,0,0,0,0,0,0,-1,734,372,0,0
-483,652,0,0,0,0,0,0,0,0,0,-1,741,372,0,0
-476,652,0,0,0,0,0,0,0,0,0,-1,748,372,0,0
-469,652,0,0,0,0,0,0,0,0,0,-1,755,372,0,0
-462,652,0,0,0,0,0,0,0,0,0,-1,762,372,0,0
-455,652,0,0,0,0,0,0,0,0,0,-1,769,372,0,0
-448,652,0,0,0,0,0,0,0,0,0,-1,776,372,0,0
-441,652,0,0,0,0,0,0,0,0,0,-1,783,372,0,0
-434,652,0,0,0,0,0,0,0,0,0,-1,790,372,0,0
-427,652,0,0,0,0,0,0,0,0,0,-1,797,372,0,0
-420,652,0,0,0,0,0,0,0,0,0,-1,804,372,0,0
-413,652,0,0,0,0,0,0,0,0,0,-1,811,372,0,0
-406,652,0,0,0,0,0,0,0,0,0,-1,818,372,0,0
-399,652,0,0,0,0,0,0,0,0,0,-1,825,372,0,0
-392,652,0,0,0,0,0,0,0,0,0,-1,832,372,0,0
-385,652,0,0,0,0,0,0,0,0,0,-1,839,372,0,0
-378,652,0,0,0,0,0,0,0,0,0,-1,846,372,0,0
-371,652,0,0,0,0,0,0,0,0,0,-1,853,372,0,0
-364,652,0,0,0,0,0,0,0,0,0,-1,860,372,0,0
-357,652,0,0,0,0,0,0,0,0,0,-1,867,372,0,0
-350,652,0,0,0,0,0,0,0,0,0,-1,874,372,0,0
-343,652,0,0,0,0,0,0,0,0,0,-1,881,372,0,0
-336,652,0,0,0,0,0,0,0,0,0,-1,888,372,0,0
-329,652,0,0,0,0,0,0,0,0,0,-1,895,372,0,0
-322,652,0,0,0,0,0,0,0,0,0,-1,902,372,0,0
-315,652,0,0,0,0,0,0,0,0,0,-1,909,372,0,0
-308,652,0,0,0,0,0,0,0,0,0,-1,916,372,0,0
-301,652,0,0,0,0,0,0,0,0,0,-1,923,372,0,0
-294,652,0,0,0,0,0,0,0,0,0,-1,930,372,0,0
-287,652,0,0,0,0,0,0,0,0,0,-1,937,372,0,0
-280,652,0,0,0,0,0,0,0,0,0,-1,944,372,0,0
-273,652,0,0,0,0,0,0,0,0,0,-1,951,372,0,0
-266,652,0,0,0,0,0,0,0,0,0,-1,958,372,0,0
-259,652,0,0,0,0,0,0,0,0,0,-1,965,372,0,0
-252,652,0,0,0,0,0,0,0,0,0,-1,972,372,0,0
-245,652,0,0,0,0,0,0,0,0,0,-1,979,372,0,0
-238,652,0,0,0,0,0,0,0,0,0,-1,986,372,0,0
-231,652,5.28143,-16.9447,0,0,0,0,0,0,0,-1,993,372,5.28146,16.9447
-224,652,9.47449,-18.002,0,0,0,0,0,0,0,-1,1000,372,9.47449,18.002
-217,652,2.88489,-16.6299,0,0,0,0,0,0,0,-1,1007,372,2.88488,16.6299
-210,652,2.83881,-19.5396,0,0,0,0,0,0,0,-1,1014,372,2.83878,19.5396
-203,652,4.10132,-21.9535,0,0,0,0,0,0,0,-1,1021,372,4.10132,21.9535
-196,652,4.27429,-21.2404,0,0,0,0,0,0,0,-1,1028,372,4.27429,21.2404
-189,652,3.99426,-21.8212,0,0,0,0,0,0,0,-1,1035,372,3.99424,21.8212
-182,652,3.85583,-22.0994,0,0,0,0,0,0,0,-1,1042,372,3.8558,22.0994
-175,652,3.69666,-21.1419,0,0,0,0,0,0,0,-1,1049,372,3.69663,21.1419
-168,652,3.79504,-21.8428,0,0,0,0,0,0,0,-1,1056,372,3.79501,21.8428
-161,652,4.12402,-22.6182,0,0,0,0,0,0,0,-1,1063,372,4.12407,22.6182
-154,652,4.27539,-23.4057,0,0,0,0,0,0,0,-1,1070,372,4.27542,23.4057
-147,652,4.42981,-22.7646,0,0,0,0,0,0,0,-1,1077,372,4.42975,22.7646
-140,652,3.19116,-23.1818,0,0,0,0,0,0,0,-1,1084,372,3.19116,23.1818
-133,652,3.88867,-22.8503,0,0,0,0,0,0,0,-1,1091,372,3.88862,22.8503
-126,652,4.39648,-22.9351,0,0,0,0,0,0,0,-1,1098,372,4.39654,22.9351
-119,652,4.2395,-23.2318,0.00396784,-0.0073099,-0.00454954,0.00557432,-0.00891639,-0.339442,0.00844006,0.0354045,1105,372,4.23953,23.2318
-112,652,4.10693,-23.4911,0.00177947,-0.00546664,-0.00234517,0.00247224,-0.00615941,-0.287234,0.00513281,0.0275945,1112,372,4.10693,23.4912
-105,652,4.07483,-23.5438,-3.60557e-05,-0.00258105,-0.000668634,0.000128917,-0.00274602,-0.2419,0.00187513,0.0238435,1119,372,4.07481,23.5438
-98,652,4.05469,-23.7492,-0.00100034,-0.000913459,-0.000669216,-0.000286274,-0.00162752,-0.817809,0.0010033,0.034214,1126,372,4.05475,23.7492
-91,652,4.15918,-23.8804,0,0,0,0,0,0,0,-1,1133,372,4.15915,23.8804
-84,652,4.09009,-24.1618,0,0,0,0,0,0,0,-1,1140,372,4.09007,24.1618
-77,652,3.995,-24.4269,0,0,0,0,0,0,0,-1,1147,372,3.99506,24.4269
-70,652,4.00269,-24.6617,0,0,0,0,0,0,0,-1,1154,372,4.00272,24.6617
-63,652,3.98877,-24.8275,0,0,0,0,0,0,0,-1,1161,372,3.98882,24.8275
-56,652,3.92566,-24.9883,0,0,0,0,0,0,0,-1,1168,372,3.92565,24.9884
-49,652,3.93884,-25.1237,0.00188999,0.00750594,-0.00165594,0.00795785,0.00143808,-1.30438,0.00489678,0.0380039,1175,372,3.93885,25.1237
-42,652,3.88574,-25.2209,0.00380925,0.00858632,-0.00122428,0.00888181,0.00351377,-1.33397,0.00516503,0.0121163,1182,372,3.8857,25.2209
-35,652,3.86902,-25.3428,0.00504883,0.00938201,-0.000950551,0.00958136,0.00484949,-1.36407,0.00553194,0.00904971,1189,372,3.86904,25.3428
-28,652,3.849,-25.4443,0.00522527,0.0105611,-0.00105392,0.0107617,0.00502465,-1.38269,0.00621781,0.00737335,1196,372,3.84899,25.4443
-21,652,3.8241,-25.5465,0.00493435,0.0117373,-0.00127209,0.0119674,0.00470426,-1.39186,0.00696184,0.00777397,1203,372,3.82412,25.5465
-14,652,3.81348,-25.6508,0.00448746,0.0125067,-0.00124244,0.0126948,0.00429938,-1.42056,0.00745543,0.00965923,1210,372,3.81351,25.6508
-7,652,3.78882,-25.7462,0.00396823,0.0134021,-0.00122267,0.013558,0.00381234,-1.44398,0.00807369,0.0119606,1217,372,3.78878,25.7462
0,652,3.76807,-25.806,0.0033496,0.0140707,-0.00130718,0.0142278,0.00319252,-1.4512,0.0086204,0.0120875,1224,372,3.7681,25.806
7,652,3.74414,-25.8384,0.00262793,0.0147302,-0.00135229,0.0148795,0.00247866,-1.46086,0.00920533,0.0134602,1231,372,3.74409,25.8384
14,652,3.72949,-25.9098,0.00188105,0.0152138,-0.00132473,0.0153441,0.0017507,-1.47271,0.00969868,0.0119021,1238,372,3.72952,25.9098
21,652,3.71753,-25.9567,0.0012192,0.0157916,-0.00124581,0.0158973,0.00111346,-1.48612,0.0102472,0.0106913,1245,372,3.71751,25.9567
28,652,3.70642,-25.9994,0.00072784,0.0160685,-0.00126315,0.0161718,0.000624527,-1.48919,0.0105792,0.00982069,1252,372,3.70648,25.9994
35,652,3.67493,-26.03,0.000492841,0.0157934,-0.00128123,0.0158999,0.000386296,-1.48783,0.0104736,0.0102795,1259,372,3.67491,26.03
42,652,3.65698,-26.0418,0.000321923,0.0151342,-0.00105415,0.0152089,0.000247278,-1.5001,0.0100578,0.0111144,1266,372,3.65694,26.0418
49,652,3.64734,-26.0468,-0.000599125,0.0145179,-0.000442372,0.0145308,-0.000612059,-1.54157,0.00989752,0.013798,1273,372,3.6473,26.0468
56,652,3.61365,-26.0615,-0.0013889,0.0134421,-0.000238243,0.0134459,-0.00139273,-1.55474,0.0094624,0.0159569,1280,372,3.6136,26.0615
63,652,3.59082,-26.0557,-0.00178327,0.0121063,-0.000161335,0.0121082,-0.00178514,-1.55918,0.00872825,0.0195219,1287,372,3.59078,26.0557
70,652,3.57532,-26.0318,-0.00227611,0.0108079,-3.90631e-05,0.010808,-0.00227623,-1.56781,0.00807176,0.0165568,1294,372,3.57531,26.0318
77,652,3.54968,-26.0219,-0.00263792,0.00930361,0.000206367,0.00930718,-0.00264149,1.55352,0.00724755,0.0144953,1301,372,3.54974,26.0219
84,652,3.54443,-26.0106,-0.0030314,0.00792938,0.000328456,0.00793922,-0.00304124,1.54087,0.00654643,0.0132659,1308,372,3.54437,26.0106
91,652,3.50366,-25.9931,-0.00367992,0.00722613,0.000271036,0.00723286,-0.00368666,1.54596,0.00641425,0.0163082,1315,372,3.50366,25.9931
98,652,3.51172,-25.9059,-0.00439524,0.00660351,0.000118195,0.00660478,-0.00439651,1.56005,0.00639411,0.0123497,1322,372,3.51168,25.9059
105,652,3.49194,-25.821,-0.00487066,0.00647538,-1.36888e-05,0.0064754,-0.00487067,-1.56959,0.00657246,0.00988138,1329,372,3.49196,25.821
112,652,3.46741,-25.7485,-0.00506473,0.00658502,-0.000250213,0.00659039,-0.00507011,-1.54933,0.00675124,0.00946259,1336,372,3.46735,25.7485
119,652,3.45752,-25.6725,-0.00502207,0.00698769,-0.000483588,0.00700713,-0.00504151,-1.53062,0.00698708,0.0106918,1343,372,3.45755,25.6725
126,652,3.42542,-25.5902,-0.00469445,0.00747827,-0.000630025,0.00751079,-0.00472697,-1.51922,0.00712615,0.0130233,1350,372,3.42543,25.5902
133,652,3.39148,-25.4926,-0.00416448,0.00846833,-0.000527985,0.00849036,-0.00418651,-1.5291,0.00745827,0.0131598,1357,372,3.3915,25.4925
140,652,3.37512,-25.3961,-0.00361673,0.00963037,-0.000315474,0.00963787,-0.00362424,-1.547,0.00791493,0.009895,1364,372,3.37507,25.396
147,652,3.35889,-25.2855,-0.00293925,0.0105705,-0.000246559,0.010575,-0.00294374,-1.55255,0.00820909,0.00935124,1371,372,3.35891,25.2855
154,652,3.34619,-25.1544,-0.0017994,0.0110044,-0.000301912,0.0110115,-0.00180652,-1.54723,0.00801133,0.0096206,1378,372,3.3462,25.1544
161,652,3.33191,-25.0108,-0.0011449,0.0115712,0.000205978,0.0115746,-0.00114823,1.5546,0.00812621,0.010733,1385,372,3.33192,25.0108
168,652,3.30566,-24.8639,-0.00146184,0.0117747,0.000919109,0.0118382,-0.00152535,1.5018,0.00844665,0.0112534,1392,372,3.30564,24.8639
175,652,3.29285,-24.7114,-0.00167647,0.0115482,0.00151592,0.0117197,-0.00184801,1.45811,0.0084964,0.0119898,1399,372,3.29287,24.7114
182,652,3.27588,-24.5851,-0.00167022,0.011248,0.0020548,0.0115669,-0.00198918,1.4168,0.00845273,0.0179083,1406,372,3.27592,24.5851
189,652,3.28491,-24.4091,-0.00167109,0.0109119,0.00269318,0.0114641,-0.00222329,1.36856,0.00848152,0.0290152,1413,372,3.28493,24.4091
196,652,3.23608,-24.2024,0,0,0,0,0,0,0,-1,1420,372,3.23607,24.2024
203,652,3.19226,-24.0055,0,0,0,0,0,0,0,-1,1427,372,3.19223,24.0055
210,652,3.21021,-23.7637,0,0,0,0,0,0,0,-1,1434,372,3.2102,23.7637
217,652,3.17712,-23.6085,0,0,0,0,0,0,0,-1,1441,372,3.17717,23.6085
224,652,3.02808,-23.381,0,0,0,0,0,0,0,-1,1448,372,3.02806,23.381
231,652,3.01648,-22.9183,0,0,0,0,0,0,0,-1,1455,372,3.01644,22.9183
238,652,3.08032,-22.7518,0,0,0,0,0,0,0,-1,1462,372,3.08034,22.7518
245,652,3.17822,-22.8599,0,0,0,0,0,0,0,-1,1469,372,3.1782,22.8599
252,652,3.16492,-22.4033,0,0,0,0,0,0,0,-1,1476,372,3.16492,22.4033
259,652,3.03772,-21.8417,0,0,0,0,0,0,0,-1,1483,372,3.03767,21.8417
266,652,2.80737,-21.5999,0,0,0,0,0,0,0,-1,1490,372,2.80736,21.5999
273,652,2.84741,-21.5623,0,0,0,0,0,0,0,-1,1497,372,2.84742,21.5623
280,652,-2.87244,-18.5725,0,0,0,0,0,0,0,-1,1504,372,-2.87242,18.5725
287,652,-3.10767,-19.7272,0,0,0,0,0,0,0,-1,1511,372,-3.10766,19.7272
294,652,-3.17529,-20.5076,0,0,0,0,0,0,0,-1,1518,372,-3.17534,20.5076
301,652,-3.12512,-21.4038,0,0,0,0,0,0,0,-1,1525,372,-3.12514,21.4038
308,652,-2.00647,-21.4343,0,0,0,0,0,0,0,-1,1532,372,-2.00651,21.4343
315,652,1.98474,-19.5504,0,0,0,0,0,0,0,-1,1539,372,1.98475,19.5504
322,652,1.95398,-18.5313,0,0,0,0,0,0,0,-1,1546,372,1.95404,18.5313
329,652,2.76392,-18.8169,0,0,0,0,0,0,0,-1,1553,372,2.76392,18.8169
336,652,1.76904,-14.9183,0,0,0,0,0,0,0,-1,1560,372,1.7691,14.9183
343,652,4.18225,-6.7092,0,0,0,0,0,0,0,-1,1567,372,4.18231,6.70921
350,652,4.64563,-7.2074,0,0,0,0,0,0,0,-1,1574,372,4.6456,7.2074
357,652,0,0,0,0,0,0,0,0,0,-1,1581,372,0,0
364,652,0,0,0,0,0,0,0,0,0,-1,1588,372,0,0
371,652,0,0,0,0,0,0,0,0,0,-1,1595,372,0,0
378,652,0,0,0,0,0,0,0,0,0,-1,1602,372,0,0
385,652,0,0,0,0,0,0,0,0,0,-1,1609,372,0,0
392,652,0,0,0,0,0,0,0,0,0,-1,1616,372,0,0
399,652,0,0,0,0,0,0,0,0,0,-1,1623,372,0,0
406,652,0,0,0,0,0,0,0,0,0,-1,1630,372,0,0
413,652,0,0,0,0,0,0,0,0,0,-1,1637,372,0,0
420,652,0,0,0,0,0,0,0,0,0,-1,1644,372,0,0
427,652,0,0,0,0,0,0,0,0,0,-1,1651,372,0,0
434,652,0,0,0,0,0,0,0,0,0,-1,1658,372,0,0
441,652,0,0,0,0,0,0,0,0,0,-1,1665,372,0,0
448,652,0,0,0,0,0,0,0,0,0,-1,1672,372,0,0
455,652,0,0,0,0,0,0,0,0,0,-1,1679,372,0,0
462,652,0,0,0,0,0,0,0,0,0,-1,1686,372,0,0
469,652,0,0,0,0,0,0,0,0,0,-1,1693,372,0,0
476,652,0,0,0,0,0,0,0,0,0,-1,1700,372,0,0
483,652,0,0,0,0,0,0,0,0,0,-1,1707,372,0,0
490,652,0,0,0,0,0,0,0,0,0,-1,1714,372,0,0
497,652,0,0,0,0,0,0,0,0,0,-1,1721,372,0,0
504,652,0,0,0,0,0,0,0,0,0,-1,1728,372,0,0
511,652,0,0,0,0,0,0,0,0,0,-1,1735,372,0,0
518,652,0,0,0,0,0,0,0,0,0,-1,1742,372,0,0
525,652,0,0,0,0,0,0,0,0,0,-1,1749,372,0,0
532,652,0,0,0,0,0,0,0,0,0,-1,1756,372,0,0
539,652,0,0,0,0,0,0,0,0,0,-1,1763,372,0,0
546,652,0,0,0,0,0,0,0,0,0,-1,1770,372,0,0
553,652,0,0,0,0,0,0,0,0,0,-1,1777,372,0,0
560,652,0,0,0,0,0,0,0,0,0,-1,1784,372,0,0
567,652,0,0,0,0,0,0,0,0,0,-1,1791,372,0,0
574,652,0,0,0,0,0,0,0,0,0,-1,1798,372,0,0
581,652,0,0,0,0,0,0,0,0,0,-1,1805,372,0,0
588,652,0,0,0,0,0,0,0,0,0,-1,1812,372,0,0
595,652,0,0,0,0,0,0,0,0,0,-1,1819,372,0,0
602,652,0,0,0,0,0,0,0,0,0,-1,1826,372,0,0
609,652,0,0,0,0,0,0,0,0,0,-1,1833,372,0,0
616,652,0,0,0,0,0,0,0,0,0,-1,1840,372,0,0
623,652,0,0,0,0,0,0,0,0,0,-1,1847,372,0,0
630,652,0,0,0,0,0,0,0,0,0,-1,1854,372,0,0
637,652,0,0,0,0,0,0,0,0,0,-1,1861,372,0,0
644,652,0,0,0,0,0,0,0,0,0,-1,1868,372,0,0
651,652,0,0,0,0,0,0,0,0,0,-1,1875,372,0,0
658,652,0,0,0,0,0,0,0,0,0,-1,1882,372,0,0
665,652,0,0,0,0,0,0,0,0,0,-1,1889,372,0,0
672,652,0,0,0,0,0,0,0,0,0,-1,1896,372,0,0
679,652,0,0,0,0,0,0,0,0,0,-1,1903,372,0,0
686,652,0,0,0,0,0,0,0,0,0,-1,1910,372,0,0
693,652,0,0,0,0,0,0,0,0,0,-1,1917,372,0,0
700,652,0,0,0,0,0,0,0,0,0,-1,1924,372,0,0
707,652,0,0,0,0,0,0,0,0,0,-1,1931,372,0,0
714,652,0,0,0,0,0,0,0,0,0,-1,1938,372,0,0
721,652,0,0,0,0,0,0,0,0,0,-1,1945,372,0,0
728,652,0,0,0,0,0,0,0,0,0,-1,1952,372,0,0
735,652,0,0,0,0,0,0,0,0,0,-1,1959,372,0,0
742,652,0,0,0,0,0,0,0,0,0,-1,1966,372,0,0
749,652,0,0,0,0,0,0,0,0,0,-1,1973,372,0,0
756,652,0,0,0,0,0,0,0,0,0,-1,1980,372,0,0
763,652,0,0,0,0,0,0,0,0,0,-1,1987,372,0,0
770,652,0,0,0,0,0,0,0,0,0,-1,1994,372,0,0
777,652,0,0,0,0,0,0,0,0,0,-1,2001,372,0,0
784,652,0,0,0,0,0,0,0,0,0,-1,2008,372,0,0
791,652,0,0,0,0,0,0,0,0,0,-1,2015,372,0,0
798,652,0,0,0,0,0,0,0,0,0,-1,2022,372,0,0
805,652,0,0,0,0,0,0,0,0,0,-1,2029,372,0,0
812,652,0,0,0,0,0,0,0,0,0,-1,2036,372,0,0
-700,645,0,0,0,0,0,0,0,0,0,-1,524,379,0,0
-693,645,0,0,0,0,0,0,0,0,0,-1,531,379,0,0
-686,645,0,0,0,0,0,0,0,0,0,-1,538,379,0,0
-679,645,0,0,0,0,0,0,0,0,0,-1,545,379,0,0
-672,645,0,0,0,0,0,0,0,0,0,-1,552,379,0,0
-665,645,0,0,0,0,0,0,0,0,0,-1,559,379,0,0
-658,645,0,0,0,0,0,0,0,0,0,-1,566,379,0,0
-651,645,0,0,0,0,0,0,0,0,0,-1,573,379,0,0
-644,645,0,0,0,0,0,0,0,0,0,-1,580,379,0,0
-637,645,0,0,0,0,0,0,0,0,0,-1,587,379,0,0
-630,645,0,0,0,0,0,0,0,0,0,-1,594,379,0,0
-623,645,0,0,0,0,0,0,0,0,0,-1,601,379,0,0
-616,645,0,0,0,0,0,0,0,0,0,-1,608,379,0,0
-609,645,0,0,0,0,0,0,0,0,0,-1,615,379,0,0
-602,645,0,0,0,0,0,0,0,0,0,-1,622,379,0,0
-595,645,0,0,0,0,0,0,0,0,0,-1,629,379,0,0
-588,645,0,0,0,0,0,0,0,0,0,-1,636,379,0,0
-581,645,0,0,0,0,0,0,0,0,0,-1,643,379,0,0
-574,645,0,0,0,0,0,0,0,0,0,-1,650,379,0,0
-567,645,0,0,0,0,0,0,0,0,0,-1,657,379,0,0
-560,645,0,0,0,0,0,0,0,0,0,-1,664,379,0,0
-553,645,0,0,0,0,0,0,0,0,0,-1,671,379,0,0
-546,645,0,0,0,0,0,0,0,0,0,-1,678,379,0,0
-539,645,0,0,0,0,0,0,0,0,0,-1,685,379,0,0
-532,645,0,0,0,0,0,0,0,0,0,-1,692,379,0,0
-525,645,0,0,0,0,0,0,0,0,0,-1,699,379,0,0
-518,645,0,0,0,0,0,0,0,0,0,-1,706,379,0,0
-511,645,0,0,0,0,0,0,0,0,0,-1,713,379,0,0
-504,645,0,0,0,0,0,0,0,0,0,-1,720,379,0,0
-497,645,0,0,0,0,0,0,0,0,0,-1,727,379,0,0
-490,645,0,0,0,0,0,0,0,0,0,-1,734,379,0,0
-483,645,0,0,0,0,0,0,0,0,0,-1,741,379,0,0
-476,645,0,0,0,0,0,0,0,0,0,-1,748,379,0,0
-469,645,0,0,0,0,0,0,0,0,0,-1,755,379,0,0
-462,645,0,0,0,0,0,0,0,0,0,-1,762,379,0,0
-455,645,0,0,0,0,0,0,0,0,0,-1,769,379,0,0
-448,645,0,0,0,0,0,0,0,0,0,-1,776,379,0,0
-441,645,0,0,0,0,0,0,0,0,0,-1,783,379,0,0
-434,645,0,0,0,0,0,0,0,0,0,-1,790,379,0,0
-427,645,0,0,0,0,0,0,0,0,0,-1,797,379,0,0
-420,645,0,0,0,0,0,0,0,0,0,-1,804,379,0,0
-413,645,0,0,0,0,0,0,0,0,0,-1,811,379,0,0
-406,645,0,0,0,0,0,0,0,0,0,-1,818,379,0,0
-399,645,0,0,0,0,0,0,0,0,0,-1,825,379,0,0
-392,645,0,0,0,0,0,0,0,0,0,-1,832,379,0,0
-385,645,0,0,0,0,0,0,0,0,0,-1,839,379,0,0
-378,645,0,0,0,0,0,0,0,0,0,-1,846,379,0,0
-371,645,0,0,0,0,0,0,0,0,0,-1,853,379,0,0
-364,645,0,0,0,0,0,0,0,0,0,-1,860,379,0,0
-357,645,0,0,0,0,0,0,0,0,0,-1,867,379,0,0
-350,645,0,0,0,0,0,0,0,0,0,-1,874,379,0,0
-343,645,0,0,0,0,0,0,0,0,0,-1,881,379,0,0
-336,645,0,0,0,0,0,0,0,0,0,-1,888,379,0,0
-329,645,0,0,0,0,0,0,0,0,0,-1,895,379,0,0
-322,645,0,0,0,0,0,0,0,0,0,-1,902,379,0,0
-315,645,0,0,0,0,0,0,0,0,0,-1,909,379,0,0
-308,645,0,0,0,0,0,0,0,0,0,-1,916,379,0,0
-301,645,0,0,0,0,0,0,0,0,0,-1,923,379,0,0
-294,645,0,0,0,0,0,0,0,0,0,-1,930,379,0,0
-287,645,0,0,0,0,0,0,0,0,0,-1,937,379,0,0
-280,645,0,0,0,0,0,0,0,0,0,-1,944,379,0,0
-273,645,0,0,0,0,0,0,0,0,0,-1,951,379,0,0
-266,645,0,0,0,0,0,0,0,0,0,-1,958,379,0,0
-259,645,0,0,0,0,0,0,0,0,0,-1,965,379,0,0
-252,645,8.7453,-17.8397,0,0,0,0,0,0,0,-1,972,379,8.74531,17.8397
-245,645,9.11273,-18.0732,0,0,0,0,0,0,0,-1,979,379,9.1127,18.0732
-238,645,9.47467,-18.2925,0,0,0,0,0,0,0,-1,986,379,9.47467,18.2925
-231,645,10.7542,-18.0708,0,0,0,0,0,0,0,-1,993,379,10.7542,18.0708
-224,645,7.9621,-18.4546,0,0,0,0,0,0,0,-1,1000,379,7.96209,18.4546
-217,645,8.09961,-19.0991,0,0,0,0,0,0,0,-1,1007,379,8.0996,19.0991
-210,645,10.6344,-19.6549,0,0,0,0,0,0,0,-1,1014,379,10.6344,19.6549
-203,645,3.80811,-24.5478,0,0,0,0,0,0,0,-1,1021,379,3.80809,24.5478
-196,645,4.30347,-22.5507,0,0,0,0,0,0,0,-1,1028,379,4.30349,22.5507
-189,645,3.94666,-21.8051,0,0,0,0,0,0,0,-1,1035,379,3.94663,21.8052
-182,645,3.73987,-21.2994,0,0,0,0,0,0,0,-1,1042,379,3.73991,21.2994
-175,645,5.34692,-21.8429,0,0,0,0,0,0,0,-1,1049,379,5.34698,21.8429
-168,645,4.11914,-21.7526,0,0,0,0,0,0,0,-1,1056,379,4.1192,21.7526
-161,645,4.12866,-22.2985,0.00994193,-0.00892605,-0.0153458,0.0185216,-0.0175058,-0.509797,0.0208032,0.0472391,1063,379,4.12864,22.2985
-154,645,4.09351,-22.8597,0.00870898,-0.00934655,-0.0125778,0.0151636,-0.0158011,-0.474128,0.0178787,0.0405446,1070,379,4.09347,22.8597
-147,645,4.17395,-22.5596,0.00741565,-0.0092318,-0.0101163,0.0121924,-0.0140086,-0.441151,0.0151393,0.0420756,1077,379,4.1739,22.5596
-140,645,3.60278,-22.8118,0,0,0,0,0,0,0,-1,1084,379,3.60284,22.8118
-133,645,3.93042,-22.8476,0.00472991,-0.00731602,-0.00630624,0.0074273,-0.0100134,-0.404185,0.0101062,0.0371868,1091,379,3.93046,22.8476
-126,645,4.12744,-23.0324,0.00339277,-0.00580012,-0.00480874,0.00544849,-0.00785584,-0.403983,0.00772306,0.0271121,1098,379,4.12739,23.0324
-119,645,4.04614,-23.3323,0.00216191,-0.00393976,-0.00362694,0.00385052,-0.00562837,-0.435729,0.00550463,0.0172337,1105,379,4.04617,23.3323
-112,645,3.99146,-23.5776,0.000707025,-0.00240573,-0.00206912,0.00173977,-0.00343848,-0.462946,0.00304281,0.0126099,1112,379,3.99151,23.5776
-105,645,3.97388,-23.7681,-0.00049363,-0.000199285,-0.000882101,0.000547836,-0.00124075,-0.868058,0.00105816,0.012487,1119,379,3.97388,23.7681
-98,645,3.92456,-23.9448,-0.00111052,0.00112927,-0.00086905,0.00142691,-0.00140816,-1.24083,0.00163684,0.014618,1126,379,3.92454,23.9447
-91,645,3.93848,-24.1247,-0.00212235,0.00196995,-0.00117036,0.00228101,-0.00243342,-1.31102,0.00272235,0.0188708,1133,379,3.93842,24.1247
-84,645,3.94604,-24.3264,-0.00233262,0.00222232,-0.000916832,0.00239994,-0.00251024,-1.37944,0.00283513,0.0228898,1140,379,3.9461,24.3264
-77,645,3.88013,-24.5443,-0.00278299,0.00265466,-0.00074021,0.00275362,-0.00288195,-1.43789,0.00325398,0.0181299,1147,379,3.88017,24.5443
-70,645,3.85229,-24.698,-0.00314823,0.00378328,-0.000266977,0.00379355,-0.0031585,-1.53236,0.00401934,0.0124845,1154,379,3.85234,24.698
-63,645,3.8418,-24.8413,-0.00314295,0.00459879,-0.000106583,0.00460025,-0.00314442,-1.55703,0.00449765,0.0113114,1161,379,3.84176,24.8413
-56,645,3.81494,-24.9659,-0.00162798,0.00521957,-0.000754437,0.00530171,-0.00171011,-1.46235,0.00422159,0.0123618,1168,379,3.81496,24.9658
-49,645,3.80688,-25.0932,-0.000354052,0.00540081,-0.000983753,0.00556433,-0.000517571,-1.40608,0.00389356,0.0108107,1175,379,3.80693,25.0932
-42,645,3.78625,-25.2327,0.000800007,0.00594684,-0.000810581,0.00607148,0.000675366,-1.41822,0.00384237,0.0100572,1182,379,3.78624,25.2327
-35,645,3.76794,-25.3566,0.00156802,0.00631511,-0.000713271,0.00641996,0.00146316,-1.42483,0.0038852,0.0102931,1189,379,3.76792,25.3566
-28,645,3.74109,-25.4706,0.00180266,0.00696434,-0.000774362,0.00707801,0.00168899,-1.42505,0.00426855,0.00857033,1196,379,3.74103,25.4706
-21,645,3.71655,-25.572,0.00190261,0.00755831,-0.000744117,0.00765457,0.00180634,-1.44214,0.00462018,0.00991845,1203,379,3.71655,25.572
-14,645,3.724,-25.6642,0.00190114,0.0077672,-0.000603976,0.00782874,0.0018396,-1.46925,0.00472683,0.0103391,1210,379,3.72397,25.6643
-7,645,3.73376,-25.7497,0.00183848,0.00814768,-0.0005396,0.0081935,0.00179266,-1.48609,0.00497366,0.013614,1217,379,3.73375,25.7497
0,645,3.72192,-25.7878,0.00167085,0.00833806,-0.000527518,0.00837954,0.00162937,-1.49233,0.00513022,0.0243782,1224,379,3.7219,25.7878
7,645,3.70483,-25.8553,0.00138536,0.0085386,-0.000497558,0.00857305,0.00135091,-1.50168,0.00532252,0.0164385,1231,379,3.70483,25.8553
14,645,3.68677,-25.9143,0.0010571,0.00860218,-0.000447523,0.00862863,0.00103065,-1.51176,0.00544151,0.0161364,1238,379,3.68678,25.9143
21,645,3.66211,-25.9822,0.000746072,0.00876699,-0.000385788,0.0087855,0.000727559,-1.52285,0.00563017,0.0104114,1245,379,3.6621,25.9822
28,645,3.65234,-26.0179,0.000454498,0.00874991,-0.000372852,0.00876663,0.000437773,-1.52597,0.0057041,0.0090377,1252,379,3.65236,26.0179
35,645,3.63538,-26.0425,0.000264681,0.00830656,-0.000382045,0.00832467,0.000246572,-1.52343,0.00546944,0.00872377,1259,379,3.63536,26.0425
42,645,3.62927,-26.0688,0.000121868,0.00760958,-0.000272523,0.00761948,0.000111962,-1.53446,0.00504275,0.00897513,1266,379,3.6293,26.0688
49,645,3.6416,-26.074,-0.000444028,0.00699845,8.07467e-05,0.00699932,-0.000444904,1.55995,0.00482136,0.0128308,1273,379,3.64157,26.074
56,645,3.62354,-26.0739,-0.000944621,0.00614358,0.000171973,0.00614775,-0.000948791,1.54655,0.00444862,0.0128428,1280,379,3.62353,26.0738
63,645,3.60229,-26.0794,-0.001231,0.00517763,0.000203734,0.0051841,-0.00123747,1.53905,0.00393398,0.0125092,1287,379,3.60227,26.0794
70,645,3.60034,-26.0558,-0.0015266,0.00431892,0.000241045,0.00432884,-0.00153652,1.52965,0.00351195,0.0154775,1294,379,3.60029,26.0558
77,645,3.59875,-26.051,-0.00171559,0.00343017,0.000377867,0.00345777,-0.00174319,1.49788,0.00305668,0.017583,1301,379,3.59874,26.051
84,645,3.59583,-26.0257,-0.00196118,0.00272887,0.000344529,0.00275404,-0.00198636,1.49786,0.00274881,0.0131731,1308,379,3.59578,26.0257
91,645,3.56531,-25.9987,-0.00234979,0.002603,0.000282059,0.00261901,-0.0023658,1.51409,0.00287922,0.0150947,1315,379,3.56533,25.9987
98,645,3.56519,-25.9087,-0.00269624,0.00255779,0.0001975,0.0025652,-0.00270366,1.53328,0.00304233,0.0136826,1322,379,3.56524,25.9087
105,645,3.55493,-25.8361,-0.00282769,0.00284818,0.000112312,0.0028504,-0.00282991,1.55102,0.00327954,0.00998484,1329,379,3.55492,25.8361
112,645,3.52698,-25.7632,-0.00280381,0.00326805,-4.49938e-05,0.00326839,-0.00280414,-1.56339,0.00350939,0.00892191,1336,379,3.52698,25.7632
119,645,3.52039,-25.679,-0.00269112,0.003877,-0.000179639,0.00388191,-0.00269603,-1.54347,0.0038183,0.00916586,1343,379,3.52043,25.679
126,645,3.51379,-25.5939,-0.00242601,0.00448976,-0.000263603,0.00449979,-0.00243604,-1.53275,0.00406307,0.0120324,1350,379,3.51385,25.5939
133,645,3.50281,-25.4944,-0.00204583,0.00534627,-0.000226385,0.0053532,-0.00205275,-1.54021,0.00441509,0.0127593,1357,379,3.50284,25.4944
140,645,3.47461,-25.4044,-0.00171908,0.0063829,-7.1355e-05,0.00638353,-0.00171971,-1.56199,0.00492994,0.0118181,1364,379,3.47459,25.4044
147,645,3.45044,-25.2948,-0.00139356,0.00720125,4.33926e-05,0.00720147,-0.00139378,1.56575,0.00532671,0.0128051,1371,379,3.45049,25.2948
154,645,3.46558,-25.171,-0.000886195,0.00759416,6.32397e-05,0.00759463,-0.000886666,1.56334,0.00538304,0.0121898,1378,379,3.4656,25.171
161,645,3.47119,-25.0479,-0.000652018,0.00805052,0.00039733,0.00806862,-0.000670121,1.52527,0.0056158,0.0141779,1385,379,3.47123,25.0478
168,645,3.43042,-24.8997,-0.00087344,0.00825991,0.000762354,0.00832311,-0.000936636,1.48809,0.00588585,0.0160221,1392,379,3.4304,24.8997
175,645,3.45435,-24.7581,-0.00111075,0.00822151,0.00112113,0.0083543,-0.00124355,1.4529,0.00602697,0.0135739,1399,379,3.45428,24.7581
182,645,3.45313,-24.6023,-0.00124206,0.00812677,0.00144278,0.00834393,-0.00145921,1.42141,0.00610741,0.0100271,1406,379,3.45319,24.6023
189,645,3.41235,-24.399,-0.0013758,0.00792295,0.00182051,0.00826666,-0.00171952,1.38419,0.00616474,0.011095,1413,379,3.41241,24.3991
196,645,3.37537,-24.2375,-0.00151344,0.00683052,0.0019326,0.0072564,-0.00193933,1.35389,0.00559718,0.0114276,1420,379,3.37537,24.2375
203,645,3.33704,-24.0414,-0.00181944,0.00621574,0.00220826,0.00678263,-0.00238633,1.31951,0.00549279,0.0111712,1427,379,3.33698,24.0414
210,645,3.33594,-23.7913,-0.0023881,0.00608839,0.0024955,0.0067685,-0.00306821,1.30472,0.00581162,0.0172301,1434,379,3.33593,23.7913
217,645,3.3208,-23.6432,-0.00270369,0.0065136,0.00252566,0.00716029,-0.00335039,1.32013,0.00619981,0.0217995,1441,379,3.32085,23.6433
224,645,3.28247,-23.5286,-0.00277375,0.00754317,0.00257148,0.00814858,-0.00337916,1.33957,0.00684279,0.0218673,1448,379,3.28245,23.5286
231,645,3.23132,-23.2018,-0.00279115,0.00878498,0.00283936,0.00944391,-0.00345007,1.34276,0.00770779,0.020273,1455,379,3.23138,23.2017
238,645,3.2406,-22.9593,-0.00281935,0.0103886,0.00319305,0.01112,-0.00355077,1.34561,0.00883797,0.0138016,1462,379,3.24065,22.9593
245,645,3.25073,-22.7433,-0.00195568,0.010593,-0.00141698,0.010751,-0.00211369,-1.45974,0.00796595,0.0145943,1469,379,3.25074,22.7433
252,645,3.26233,-22.4163,-0.00142422,0.0114046,-0.00350429,0.0122994,-0.00231903,-1.32079,0.00907194,0.0213576,1476,379,3.26227,22.4163
259,645,3.21179,-22.0605,-0.000559645,0.0120371,-0.00619012,0.0145698,-0.0030923,-1.18243,0.0108913,0.035396,1483,379,3.21177,22.0605
266,645,3.06299,-21.8589,0.000406581,0.0122372,-0.00978308,0.0177543,-0.00511049,-1.05731,0.0138574,0.0278349,1490,379,3.06295,21.859
273,645,3.09387,-21.6963,0.00162361,0.0122004,-0.0139775,0.0218565,-0.00803248,-0.966251,0.017861,0.0270352,1497,379,3.0939,21.6963
280,645,3.12695,-21.4111,0,0,0,0,0,0,0,-1,1504,379,3.1269,21.4111
287,645,3.26953,-20.8861,0,0,0,0,0,0,0,-1,1511,379,3.26954,20.8861
294,645,2.89929,-21.5113,0,0,0,0,0,0,0,-1,1518,379,2.89926,21.5113
301,645,0.144775,-19.2729,0,0,0,0,0,0,0,-1,1525,379,0.144773,19.2729
308,645,1.69543,-18.5685,0,0,0,0,0,0,0,-1,1532,379,1.69542,18.5684
315,645,3.07922,-17.5748,0,0,0,0,0,0,0,-1,1539,379,3.07924,17.5748
322,645,3.82068,-20.0009,0,0,0,0,0,0,0,-1,1546,379,3.82072,20.0009
329,645,3.75256,-19.2944,0,0,0,0,0,0,0,-1,1553,379,3.75261,19.2944
336,645,2.70422,-20.8488,0,0,0,0,0,0,0,-1,1560,379,2.70427,20.8488
343,645,0.977295,-13.792,0,0,0,0,0,0,0,-1,1567,379,0.977251,13.792
350,645,3.93213,-5.72198,0,0,0,0,0,0,0,-1,1574,379,3.9321,5.72198
357,645,1.63928,-6.465,0,0,0,0,0,0,0,-1,1581,379,1.63926,6.46499
364,645,-0.0794678,-3.22021,0,0,0,0,0,0,0,-1,1588,379,-0.0794987,3.22021
371,645,0,0,0,0,0,0,0,0,0,-1,1595,379,0,0
378,645,0,0,0,0,0,0,0,0,0,-1,1602,379,0,0
385,645,0,0,0,0,0,0,0,0,0,-1,1609,379,0,0
392,645,0,0,0,0,0,0,0,0,0,-1,1616,379,0,0
399,645,0,0,0,0,0,0,0,0,0,-1,1623,379,0,0
406,645,0,0,0,0,0,0,0,0,0,-1,1630,379,0,0
413,645,0,0,0,0,0,0,0,0,0,-1,1637,379,0,0
420,645,0,0,0,0,0,0,0,0,0,-1,1644,379,0,0
427,645,0,0,0,0,0,0,0,0,0,-1,1651,379,0,0
434,645,0,0,0,0,0,0,0,0,0,-1,1658,379,0,0
441,645,0,0,0,0,0,0,0,0,0,-1,1665,379,0,0
448,645,0,0,0,0,0,0,0,0,0,-1,1672,379,0,0
455,645,0,0,0,0,0,0,0,0,0,-1,1679,379,0,0
462,645,0,0,0,0,0,0,0,0,0,-1,1686,379,0,0
469,645,0,0,0,0,0,0,0,0,0,-1,1693,379,0,0
476,645,0,0,0,0,0,0,0,0,0,-1,1700,379,0,0
483,645,0,0,0,0,0,0,0,0,0,-1,1707,379,0,0
490,645,0,0,0,0,0,0,0,0,0,-1,1714,379,0,0
497,645,0,0,0,0,0,0,0,0,0,-1,1721,379,0,0
504,645,0,0,0,0,0,0,0,0,0,-1,1728,379,0,0
511,645,0,0,0,0,0,0,0,0,0,-1,1735,379,0,0
518,645,0,0,0,0,0,0,0,0,0,-1,1742,379,0,0
525,645,0,0,0,0,0,0,0,0,0,-1,1749,379,0,0
532,645,0,0,0,0,0,0,0,0,0,-1,1756,379,0,0
539,645,0,0,0,0,0,0,0,0,0,-1,1763,379,0,0
546,645,0,0,0,0,0,0,0,0,0,-1,1770,379,0,0
553,645,0,0,0,0,0,0,0,0,0,-1,1777,379,0,0
560,645,0,0,0,0,0,0,0,0,0,-1,1784,379,0,0
567,645,0,0,0,0,0,0,0,0,0,-1,1791,379,0,0
574,645,0,0,0,0,0,0,0,0,0,-1,1798,379,0,0
581,645,0,0,0,0,0,0,0,0,0,-1,1805,379,0,0
588,645,0,0,0,0,0,0,0,0,0,-1,1812,379,0,0
595,645,0,0,0,0,0,0,0,0,0,-1,1819,379,0,0
602,645,0,0,0,0,0,0,0,0,0,-1,1826,379,0,0
609,645,0,0,0,0,0,0,0,0,0,-1,1833,379,0,0
616,645,0,0,0,0,0,0,0,0,0,-1,1840,379,0,0
623,645,0,0,0,0,0,0,0,0,0,-1,1847,379,0,0
630,645,0,0,0,0,0,0,0,0,0,-1,1854,379,0,0
637,645,0,0,0,0,0,0,0,0,0,-1,1861,379,0,0
644,645,0,0,0,0,0,0,0,0,0,-1,1868,379,0,0
651,645,0,0,0,0,0,0,0,0,0,-1,1875,379,0,0
658,645,0,0,0,0,0,0,0,0,0,-1,1882,379,0,0
665,645,0,0,0,0,0,0,0,0,0,-1,1889,379,0,0
672,645,0,0,0,0,0,0,0,0,0,-1,1896,379,0,0
679,645,0,0,0,0,0,0,0,0,0,-1,1903,379,0,0
686,645,0,0,0,0,0,0,0,0,0,-1,1910,379,0,0
693,645,0,0,0,0,0,0,0,0,0,-1,1917,379,0,0
700,645,0,0,0,0,0,0,0,0,0,-1,1924,379,0,0
707,645,0,0,0,0,0,0,0,0,0,-1,1931,379,0,0
714,645,0,0,0,0,0,0,0,0,0,-1,1938,379,0,0
721,645,0,0,0,0,0,0,0,0,0,-1,1945,379,0,0
728,645,0,0,0,0,0,0,0,0,0,-1,1952,379,0,0
735,645,0,0,0,0,0,0,0,0,0,-1,1959,379,0,0
742,645,0,0,0,0,0,0,0,0,0,-1,1966,379,0,0
749,645,0,0,0,0,0,0,0,0,0,-1,1973,379,0,0
756,645,0,0,0,0,0,0,0,0,0,-1,1980,379,0,0
763,645,0,0,0,0,0,0,0,0,0,-1,1987,379,0,0
770,645,0,0,0,0,0,0,0,0,0,-1,1994,379,0,0
777,645,0,0,0,0,0,0,0,0,0,-1,2001,379,0,0
784,645,0,0,0,0,0,0,0,0,0,-1,2008,379,0,0
791,645,0,0,0,0,0,0,0,0,0,-1,2015,379,0,0
798,645,0,0,0,0,0,0,0,0,0,-1,2022,379,0,0
805,645,0,0,0,0,0,0,0,0,0,-1,2029,379,0,0
812,645,0,0,0,0,0,0,0,0,0,-1,2036,379,0,0
-700,638,0,0,0,0,0,0,0,0,0,-1,524,386,0,0
-693,638,0,0,0,0,0,0,0,0,0,-1,531,386,0,0
-686,638,0,0,0,0,0,0,0,0,0,-1,538,386,0,0
-679,638,0,0,0,0,0,0,0,0,0,-1,545,386,0,0
-672,638,0,0,0,0,0,0,0,0,0,-1,552,386,0,0
-665,638,0,0,0,0,0,0,0,0,0,-1,559,386,0,0
-658,638,0,0,0,0,0,0,0,0,0,-1,566,386,0,0
-651,638,0,0,0,0,0,0,0,0,0,-1,573,386,0,0
-644,638,0,0,0,0,0,0,0,0,0,-1,580,386,0,0
-637,638,0,0,0,0,0,0,0,0,0,-1,587,386,0,0
-630,638,0,0,0,0,0,0,0,0,0,-1,594,386,0,0
-623,638,0,0,0,0,0,0,0,0,0,-1,601,386,0,0
-616,638,0,0,0,0,0,0,0,0,0,-1,608,386,0,0
-609,638,0,0,0,0,0,0,0,0,0,-1,615,386,0,0
-602,638,0,0,0,0,0,0,0,0,0,-1,622,386,0,0
-595,638,0,0,0,0,0,0,0,0,0,-1,629,386,0,0
-588,638,0,0,0,0,0,0,0,0,0,-1,636,386,0,0
-581,638,0,0,0,0,0,0,0,0,0,-1,643,386,0,0
-574,638,0,0,0,0,0,0,0,0,0,-1,650,386,0,0
-567,638,0,0,0,0,0,0,0,0,0,-1,657,386,0,0
-560,638,0,0,0,0,0,0,0,0,0,-1,664,386,0,0
-553,638,0,0,0,0,0,0,0,0,0,-1,671,386,0,0
-546,638,0,0,0,0,0,0,0,0,0,-1,678,386,0,0
-539,638,0,0,0,0,0,0,0,0,0,-1,685,386,0,0
-532,638,0,0,0,0,0,0,0,0,0,-1,692,386,0,0
-525,638,0,0,0,0,0,0,0,0,0,-1,699,386,0,0
-518,638,0,0,0,0,0,0,0,0,0,-1,706,386,0,0
-511,638,0,0,0,0,0,0,0,0,0,-1,713,386,0,0
-504,638,0,0,0,0,0,0,0,0,0,-1,720,386,0,0
-497,638,0,0,0,0,0,0,0,0,0,-1,727,386,0,0
-490,638,0,0,0,0,0,0,0,0,0,-1,734,386,0,0
-483,638,0,0,0,0,0,0,0,0,0,-1,741,386,0,0
-476,638,0,0,0,0,0,0,0,0,0,-1,748,386,0,0
-469,638,0,0,0,0,0,0,0,0,0,-1,755,386,0,0
-462,638,0,0,0,0,0,0,0,0,0,-1,762,386,0,0
-455,638,0,0,0,0,0,0,0,0,0,-1,769,386,0,0
-448,638,0,0,0,0,0,0,0,0,0,-1,776,386,0,0
-441,638,0,0,0,0,0,0,0,0,0,-1,783,386,0,0
-434,638,0,0,0,0,0,0,0,0,0,-1,790,386,0,0
-427,638,0,0,0,0,0,0,0,0,0,-1,797,386,0,0
-420,638,0,0,0,0,0,0,0,0,0,-1,804,386,0,0
-413,638,0,0,0,0,0,0,0,0,0,-1,811,386,0,0
-406,638,0,0,0,0,0,0,0,0,0,-1,818,386,0,0
-399,638,0,0,0,0,0,0,0,0,0,-1,825,386,0,0
-392,638,0,0,0,0,0,0,0,0,0,-1,832,386,0,0
-385,638,0,0,0,0,0,0,0,0,0,-1,839,386,0,0
-378,638,0,0,0,0,0,0,0,0,0,-1,846,386,0,0
-371,638,0,0,0,0,0,0,0,0,0,-1,853,386,0,0
-364,638,0,0,0,0,0,0,0,0,0,-1,860,386,0,0
-357,638,0,0,0,0,0,0,0,0,0,-1,867,386,0,0
-350,638,0,0,0,0,0,0,0,0,0,-1,874,386,0,0
-343,638,0,0,0,0,0,0,0,0,0,-1,881,386,0,0
-336,638,0,0,0,0,0,0,0,0,0,-1,888,386,0,0
-329,638,0,0,0,0,0,0,0,0,0,-1,895,386,0,0
-322,638,0,0,0,0,0,0,0,0,0,-1,902,386,0,0
-315,638,0,0,0,0,0,0,0,0,0,-1,909,386,0,0
-308,638,0,0,0,0,0,0,0,0,0,-1,916,386,0,0
-301,638,0,0,0,0,0,0,0,0,0,-1,923,386,0,0
-294,638,0,0,0,0,0,0,0,0,0,-1,930,386,0,0
-287,638,0,0,0,0,0,0,0,0,0,-1,937,386,0,0
-280,638,0,0,0,0,0,0,0,0,0,-1,944,386,0,0
-273,638,0,0,0,0,0,0,0,0,0,-1,951,386,0,0
-266,638,0.255981,-17.2527,0,0,0,0,0,0,0,-1,958,386,0.255997,17.2527
-259,638,0.778809,-17.1793,0,0,0,0,0,0,0,-1,965,386,0.778803,17.1793
-252,638,7.69086,-17.9618,0,0,0,0,0,0,0,-1,972,386,7.69085,17.9618
-245,638,8.03644,-18.1936,0,0,0,0,0,0,0,-1,979,386,8.03643,18.1936
-238,638,8.39825,-18.4048,0,0,0,0,0,0,0,-1,986,386,8.39826,18.4048
-231,638,8.87268,-18.2178,0,0,0,0,0,0,0,-1,993,386,8.87271,18.2178
-224,638,9.65784,-17.853,0,0,0,0,0,0,0,-1,1000,386,9.65783,17.853
-217,638,6.53162,-18.8751,0,0,0,0,0,0,0,-1,1007,386,6.5316,18.8751
-210,638,3.50873,-25.6114,0,0,0,0,0,0,0,-1,1014,386,3.50872,25.6114
-203,638,3.80066,-24.2338,0,0,0,0,0,0,0,-1,1021,386,3.80067,24.2338
-196,638,4.27954,-23.0077,0,0,0,0,0,0,0,-1,1028,386,4.2795,23.0077
-189,638,4.83167,-20.686,0,0,0,0,0,0,0,-1,1035,386,4.83164,20.686
-182,638,4.76599,-20.618,0,0,0,0,0,0,0,-1,1042,386,4.76602,20.618
-175,638,4.78711,-21.7883,0,0,0,0,0,0,0,-1,1049,386,4.78705,21.7883
-168,638,4.29895,-21.8384,0,0,0,0,0,0,0,-1,1056,386,4.29897,21.8384
-161,638,3.98865,-22.0412,0.00510976,-0.00453129,-0.00999197,0.0113832,-0.0108048,-0.560648,0.0128117,0.0305677,1063,386,3.98867,22.0412
-154,638,3.92969,-22.2761,0.00452658,-0.00505435,-0.00831445,0.00933188,-0.00985964,-0.524045,0.0110816,0.0244033,1070,386,3.92963,22.2761
-147,638,3.89709,-22.4747,0.00386898,-0.00517743,-0.00680786,0.00751928,-0.00882773,-0.492179,0.00944803,0.0202814,1077,386,3.89709,22.4747
-140,638,3.90552,-22.6933,0.0031574,-0.00477944,-0.0054795,0.00595458,-0.00757662,-0.471996,0.00783093,0.01666,1084,386,3.90556,22.6933
-133,638,3.90405,-22.9867,0.00246742,-0.00406392,-0.00451618,0.00477495,-0.00637144,-0.472366,0.00645734,0.014373,1091,386,3.9041,22.9867
-126,638,3.87769,-23.1998,0.00172794,-0.00303633,-0.00355572,0.00362572,-0.00493412,-0.490264,0.00496123,0.0143636,1098,386,3.87765,23.1998
-119,638,3.84448,-23.4151,0.00105522,-0.00161241,-0.00278603,0.00281026,-0.00336745,-0.562147,0.00357154,0.0149804,1105,386,3.8445,23.4151
-112,638,3.84595,-23.6293,0.000180018,-0.00039167,-0.00174559,0.00166302,-0.00187467,-0.704242,0.0020437,0.0142159,1112,386,3.84593,23.6293
-105,638,3.83875,-23.8299,-0.000540478,0.00123074,-0.000963407,0.00165374,-0.000963478,-1.15707,0.00152847,0.0160798,1119,386,3.83879,23.8299
-98,638,3.79578,-24.0344,-0.000890156,0.002242,-0.000961305,0.0025135,-0.00116166,-1.29553,0.00216918,0.0158415,1126,386,3.79577,24.0344
-91,638,3.73523,-24.2239,-0.00143093,0.00275511,-0.00115033,0.00305039,-0.00172622,-1.31953,0.00279288,0.0124373,1133,386,3.73522,24.2239
-84,638,3.71765,-24.3906,-0.00150538,0.00279662,-0.000937778,0.00299216,-0.00170092,-1.36523,0.00274352,0.0136428,1140,386,3.71766,24.3906
-77,638,3.70435,-24.5511,-0.00174148,0.00287973,-0.000745667,0.00299707,-0.00185882,-1.41471,0.0028291,0.0111188,1147,386,3.70436,24.5511
-70,638,3.7019,-24.7161,-0.001865,0.0032853,-0.000417447,0.00331892,-0.00189862,-1.49044,0.00304932,0.0107458,1154,386,3.70185,24.7161
-63,638,3.69885,-24.8733,-0.00174348,0.00351483,-0.000272432,0.00352891,-0.00175756,-1.51917,0.00310873,0.0110249,1161,386,3.69884,24.8733
-56,638,3.69543,-25.0012,-0.001063,0.00355394,-0.000566523,0.00362244,-0.0011315,-1.45047,0.00286753,0.0146742,1168,386,3.69538,25.0012
-49,638,3.68311,-25.1208,-0.000442936,0.00337672,-0.000700079,0.00350099,-0.000567206,-1.39512,0.00254422,0.0127276,1175,386,3.68308,25.1208
-42,638,3.67493,-25.2482,0.000183923,0.00338076,-0.000573251,0.00348044,8.42366e-05,-1.39862,0.00229273,0.0111908,1182,386,3.67492,25.2482
-35,638,3.66992,-25.3609,0.000591274,0.00329929,-0.000466272,0.00337733,0.000513239,-1.40497,0.00210147,0.0110309,1189,386,3.66987,25.3609
-28,638,3.67676,-25.4662,0.000724583,0.00339026,-0.000442286,0.00346173,0.000653116,-1.41059,0.00212386,0.0105354,1196,386,3.67677,25.4663
-21,638,3.6355,-25.5681,0.000891715,0.00335769,-0.000321047,0.0033988,0.000850603,-1.44343,0.00204226,0.0116001,1203,386,3.63549,25.5681
-14,638,3.61658,-25.6712,0.00103063,0.0031501,-0.000131934,0.00315828,0.00102245,-1.50887,0.00186082,0.012018,1210,386,3.61652,25.6712
-7,638,3.63208,-25.7811,0.00111388,0.00310238,-7.89278e-05,0.00310551,0.00111076,-1.53119,0.00181702,0.0176589,1217,386,3.63208,25.7811
0,638,3.64136,-25.7797,0.0011182,0.00296838,-4.63869e-05,0.00296955,0.00111704,-1.54575,0.00173191,0.0306576,1224,386,3.64132,25.7797
7,638,3.60925,-25.8495,0.00103587,0.00284989,6.41589e-06,0.00284992,0.00103584,1.56726,0.00166572,0.0237084,1231,386,3.60921,25.8495
14,638,3.62244,-25.9189,0.000962086,0.00265936,7.10363e-05,0.00266233,0.000959118,1.52904,0.00155698,0.0126319,1238,386,3.62242,25.9189
21,638,3.6167,-25.9955,0.000895137,0.00253617,0.000135571,0.00254729,0.000884013,1.48892,0.00149344,0.0113239,1245,386,3.61668,25.9955
28,638,3.6134,-26.0184,0.00083139,0.00238549,0.000130478,0.00239637,0.000820512,1.48761,0.00140627,0.00903571,1252,386,3.61339,26.0184
35,638,3.60815,-26.0422,0.000760515,0.00206418,5.39045e-05,0.0020664,0.00075829,1.52954,0.00120703,0.00990974,1259,386,3.60819,26.0422
42,638,3.61865,-26.0688,0.000672129,0.00161784,6.30271e-05,0.00162203,0.000667947,1.50454,0.000941322,0.00959716,1266,386,3.61862,26.0689
49,638,3.63611,-26.0784,0.000419834,0.00123451,0.00015157,0.0012618,0.000392549,1.39268,0.000745628,0.00893841,1273,386,3.63609,26.0784
56,638,3.62378,-26.0755,0.000159533,0.000770638,9.80993e-05,0.000786,0.000144171,1.41547,0.000483167,0.01149,1280,386,3.62372,26.0755
63,638,3.61084,-26.0841,-1.52134e-05,0.000322755,1.95355e-05,0.00032388,-1.63388e-05,1.51325,0.000221567,0.0132349,1287,386,3.61085,26.0841
70,638,3.61768,-26.0763,-0.000190201,3.85574e-05,-3.68376e-05,4.43431e-05,-0.000195987,-1.41501,0.000147675,0.0175891,1294,386,3.61766,26.0763
77,638,3.62085,-26.062,-0.000276311,-0.00020601,1.61633e-05,-0.000202472,-0.000279849,1.3553,0.000166865,0.0176149,1301,386,3.62082,26.062
84,638,3.6394,-26.0151,-0.000435293,-0.000153512,-2.94608e-05,-0.000150465,-0.000438341,-1.46773,0.000257188,0.0124764,1308,386,3.63943,26.0151
91,638,3.63074,-25.9638,-0.000673643,0.000147321,-9.46444e-05,0.00015809,-0.000684413,-1.45749,0.000517091,0.0136313,1315,386,3.63075,25.9638
98,638,3.61841,-25.9093,-0.000905747,0.000551937,-8.9821e-05,0.000557451,-0.000911261,-1.50949,0.000856123,0.0133632,1322,386,3.61843,25.9093
105,638,3.61536,-25.8484,-0.00108097,0.00108743,-0.000100283,0.00109205,-0.0010856,-1.52468,0.00125727,0.0101422,1329,386,3.61531,25.8484
112,638,3.6123,-25.7767,-0.00105896,0.00168293,-0.000153876,0.00169154,-0.00106757,-1.51491,0.00160649,0.00936074,1336,386,3.61227,25.7767
119,638,3.61157,-25.6902,-0.00105441,0.00235078,-0.000193144,0.0023617,-0.00106533,-1.51432,0.00202523,0.0109512,1343,386,3.61151,25.6902
126,638,3.61987,-25.5871,-0.000954608,0.00295034,-0.000206394,0.00296122,-0.000965487,-1.51814,0.00236268,0.0156808,1350,386,3.61991,25.5871
133,638,3.6228,-25.4934,-0.000826974,0.00351177,-0.00013256,0.00351582,-0.00083102,-1.54028,0.00266444,0.0164204,1357,386,3.62277,25.4934
140,638,3.59314,-25.4066,-0.00072273,0.00412585,2.93745e-05,0.00412603,-0.000722908,1.56474,0.00302063,0.0160705,1364,386,3.59308,25.4066
147,638,3.58789,-25.2935,-0.000583155,0.0045393,0.000125864,0.00454239,-0.000586246,1.54624,0.00324139,0.0179176,1371,386,3.58794,25.2935
154,638,3.61523,-25.1957,-0.00039419,0.00466613,0.000200256,0.00467404,-0.000402102,1.5313,0.00325834,0.0162235,1378,386,3.61529,25.1957
161,638,3.61316,-25.0917,-0.000252563,0.00482689,0.000409602,0.00485971,-0.000285381,1.49085,0.003339,0.0181982,1385,386,3.6131,25.0917
168,638,3.59033,-24.9316,-0.000271576,0.0048618,0.000598528,0.00493066,-0.000340438,1.45625,0.00340626,0.0231321,1392,386,3.59032,24.9316
175,638,3.61536,-24.7546,-0.000299546,0.00481195,0.000815066,0.00493877,-0.000426367,1.41644,0.00344344,0.0191213,1399,386,3.61533,24.7546
182,638,3.58386,-24.6166,-0.000335396,0.00486404,0.00100674,0.00505216,-0.00052352,1.38606,0.00355548,0.0128095,1406,386,3.58385,24.6166
189,638,3.53528,-24.4238,-0.000407366,0.00492396,0.00121165,0.00518641,-0.000669815,1.35749,0.00370114,0.0114168,1413,386,3.53524,24.4238
196,638,3.54675,-24.2269,-0.000477066,0.00453555,0.00132111,0.00486242,-0.000803941,1.32824,0.00354016,0.0143011,1420,386,3.54678,24.2269
203,638,3.51953,-24.0709,-0.00085686,0.00440113,0.00154006,0.004819,-0.00127473,1.30584,0.00371129,0.0187514,1427,386,3.51951,24.0709
210,638,3.49597,-23.8903,-0.00158005,0.00457501,0.00173995,0.00503282,-0.00203786,1.31351,0.00420256,0.0154558,1434,386,3.496,23.8903
217,638,3.4873,-23.6895,-0.00184211,0.00502753,0.00180736,0.00547402,-0.0022886,1.32861,0.00460581,0.0122702,1441,386,3.48735,23.6896
224,638,3.4834,-23.4777,-0.00193314,0.00580971,0.00188587,0.00624461,-0.00236804,1.34415,0.00513767,0.0111811,1448,386,3.4834,23.4777
231,638,3.45337,-23.2521,-0.00198601,0.00671422,0.0021305,0.00720792,-0.00247971,1.34309,0.00581097,0.0116485,1455,386,3.4534,23.2521
238,638,3.43054,-23.0252,-0.00203468,0.00792157,0.00243976,0.00848728,-0.00260039,1.34295,0.00669548,0.012109,1462,386,3.43054,23.0252
245,638,3.41541,-22.7831,-0.00162601,0.00820253,-0.000195577,0.00820642,-0.0016299,-1.55091,0.00608742,0.0141091,1469,386,3.41542,22.7831
252,638,3.40039,-22.5374,-0.00137051,0.0088999,-0.00131781,0.00906629,-0.00153691,-1.4452,0.00661627,0.0174532,1476,386,3.40042,22.5374
259,638,3.37634,-22.3144,-0.000873274,0.00950524,-0.00273375,0.0101813,-0.00154932,-1.32836,0.00735853,0.0165625,1483,386,3.37637,22.3144
266,638,3.31604,-22.0488,-0.000352263,0.00978627,-0.00471062,0.0116371,-0.00220307,-1.19643,0.00858713,0.0122317,1490,386,3.31606,22.0488
273,638,3.31531,-21.8141,0.000334645,0.00991765,-0.00699547,0.0136052,-0.00335295,-1.08567,0.0103701,0.0106636,1497,386,3.3153,21.8141
280,638,3.33997,-21.5032,0.00131281,0.00991969,-0.00944303,0.0159936,-0.00476115,-0.999201,0.0125541,0.0213789,1504,386,3.33997,21.5032
287,638,3.44592,-21.0463,0.00255088,0.00936384,-0.0117938,0.0182333,-0.00631855,-0.92599,0.0147209,0.0407783,1511,386,3.44596,21.0463
294,638,3.24585,-21.1143,0.00376117,0.00879724,-0.0141355,0.0206372,-0.0080788,-0.873542,0.0170995,0.0482883,1518,386,3.2459,21.1143
301,638,3.16992,-20.6313,0,0,0,0,0,0,0,-1,1525,386,3.16989,20.6313
308,638,3.40234,-20.1691,0,0,0,0,0,0,0,-1,1532,386,3.40236,20.1691
315,638,4.07642,-20.0382,0,0,0,0,0,0,0,-1,1539,386,4.07644,20.0382
322,638,4.31567,-20.1404,0,0,0,0,0,0,0,-1,1546,386,4.31567,20.1404
329,638,2.80017,-21.0386,0,0,0,0,0,0,0,-1,1553,386,2.80012,21.0386
336,638,3.0625,-20.134,0,0,0,0,0,0,0,-1,1560,386,3.06245,20.134
343,638,3.32483,-19.2293,0,0,0,0,0,0,0,-1,1567,386,3.32478,19.2293
350,638,2.3783,-11.33,0,0,0,0,0,0,0,-1,1574,386,2.37831,11.33
357,638,0.130371,-3.02618,0,0,0,0,0,0,0,-1,1581,386,0.130345,3.0262
364,638,3.78149,-6.45215,0,0,0,0,0,0,0,-1,1588,386,3.78155,6.45216
371,638,4.18604,-6.71164,0,0,0,0,0,0,0,-1,1595,386,4.18598,6.71164
378,638,4.59045,-6.97113,0,0,0,0,0,0,0,-1,1602,386,4.5904,6.97112
385,638,0,0,0,0,0,0,0,0,0,-1,1609,386,0,0
392,638,0,0,0,0,0,0,0,0,0,-1,1616,386,0,0
399,638,0,0,0,0,0,0,0,0,0,-1,1623,386,0,0
406,638,0,0,0,0,0,0,0,0,0,-1,1630,386,0,0
413,638,0,0,0,0,0,0,0,0,0,-1,1637,386,0,0
420,638,0,0,0,0,0,0,0,0,0,-1,1644,386,0,0
427,638,0,0,0,0,0,0,0,0,0,-1,1651,386,0,0
434,638,0,0,0,0,0,0,0,0,0,-1,1658,386,0,0
441,638,0,0,0,0,0,0,0,0,0,-1,1665,386,0,0
448,638,0,0,0,0,0,0,0,0,0,-1,1672,386,0,0
455,638,0,0,0,0,0,0,0,0,0,-1,1679,386,0,0
462,638,0,0,0,0,0,0,0,0,0,-1,1686,386,0,0
469,638,0,0,0,0,0,0,0,0,0,-1,1693,386,0,0
476,638,0,0,0,0,0,0,0,0,0,-1,1700,386,0,0
483,638,0,0,0,0,0,0,0,0,0,-1,1707,386,0,0
490,638,0,0,0,0,0,0,0,0,0,-1,1714,386,0,0
497,638,0,0,0,0,0,0,0,0,0,-1,1721,386,0,0
504,638,0,0,0,0,0,0,0,0,0,-1,1728,386,0,0
511,638,0,0,0,0,0,0,0,0,0,-1,1735,386,0,0
518,638,0,0,0,0,0,0,0,0,0,-1,1742,386,0,0
525,638,0,0,0,0,0,0,0,0,0,-1,1749,386,0,0
532,638,0,0,0,0,0,0,0,0,0,-1,1756,386,0,0
539,638,0,0,0,0,0,0,0,0,0,-1,1763,386,0,0
546,638,0,0,0,0,0,0,0,0,0,-1,1770,386,0,0
553,638,0,0,0,0,0,0,0,0,0,-1,1777,386,0,0
560,638,0,0,0,0,0,0,0,0,0,-1,1784,386,0,0
567,638,0,0,0,0,0,0,0,0,0,-1,1791,386,0,0
574,638,0,0,0,0,0,0,0,0,0,-1,1798,386,0,0
581,638,0,0,0,0,0,0,0,0,0,-1,1805,386,0,0
588,638,0,0,0,0,0,0,0,0,0,-1,1812,386,0,0
595,638,0,0,0,0,0,0,0,0,0,-1,1819,386,0,0
602,638,0,0,0,0,0,0,0,0,0,-1,1826,386,0,0
609,638,0,0,0,0,0,0,0,0,0,-1,1833,386,0,0
616,638,0,0,0,0,0,0,0,0,0,-1,1840,386,0,0
623,638,0,0,0,0,0,0,0,0,0,-1,1847,386,0,0
630,638,0,0,0,0,0,0,0,0,0,-1,1854,386,0,0
637,638,0,0,0,0,0,0,0,0,0,-1,1861,386,0,0
644,638,0,0,0,0,0,0,0,0,0,-1,1868,386,0,0
651,638,0,0,0,0,0,0,0,0,0,-1,1875,386,0,0
658,638,0,0,0,0,0,0,0,0,0,-1,1882,386,0,0
665,638,0,0,0,0,0,0,0,0,0,-1,1889,386,0,0
672,638,0,0,0,0,0,0,0,0,0,-1,1896,386,0,0
679,638,0,0,0,0,0,0,0,0,0,-1,1903,386,0,0
686,638,0,0,0,0,0,0,0,0,0,-1,1910,386,0,0
693,638,0,0,0,0,0,0,0,0,0,-1,1917,386,0,0
700,638,0,0,0,0,0,0,0,0,0,-1,1924,386,0,0
707,638,0,0,0,0,0,0,0,0,0,-1,1931,386,0,0
714,638,0,0,0,0,0,0,0,0,0,-1,1938,386,0,0
721,638,0,0,0,0,0,0,0,0,0,-1,1945,386,0,0
728,638,0,0,0,0,0,0,0,0,0,-1,1952,386,0,0
735,638,0,0,0,0,0,0,0,0,0,-1,1959,386,0,0
742,638,0,0,0,0,0,0,0,0,0,-1,1966,386,0,0
749,638,0,0,0,0,0,0,0,0,0,-1,1973,386,0,0
756,638,0,0,0,0,0,0,0,0,0,-1,1980,386,0,0
763,638,0,0,0,0,0,0,0,0,0,-1,1987,386,0,0
770,638,0,0,0,0,0,0,0,0,0,-1,1994,386,0,0
777,638,0,0,0,0,0,0,0,0,0,-1,2001,386,0,0
784,638,0,0,0,0,0,0,0,0,0,-1,2008,386,0,0
791,638,0,0,0,0,0,0,0,0,0,-1,2015,386,0,0
798,638,0,0,0,0,0,0,0,0,0,-1,2022,386,0,0
805,638,0,0,0,0,0,0,0,0,0,-1,2029,386,0,0
812,638,0,0,0,0,0,0,0,0,0,-1,2036,386,0,0
-700,631,0,0,0,0,0,0,0,0,0,-1,524,393,0,0
-693,631,0,0,0,0,0,0,0,0,0,-1,531,393,0,0
-686,631,0,0,0,0,0,0,0,0,0,-1,538,393,0,0
-679,631,0,0,0,0,0,0,0,0,0,-1,545,393,0,0
-672,631,0,0,0,0,0,0,0,0,0,-1,552,393,0,0
-665,631,0,0,0,0,0,0,0,0,0,-1,559,393,0,0
-658,631,0,0,0,0,0,0,0,0,0,-1,566,393,0,0
-651,631,0,0,0,0,0,0,0,0,0,-1,573,393,0,0
-644,631,0,0,0,0,0,0,0,0,0,-1,580,393,0,0
-637,631,0,0,0,0,0,0,0,0,0,-1,587,393,0,0
-630,631,0,0,0,0,0,0,0,0,0,-1,594,393,0,0
-623,631,0,0,0,0,0,0,0,0,0,-1,601,393,0,0
-616,631,0,0,0,0,0,0,0,0,0,-1,608,393,0,0
-609,631,0,0,0,0,0,0,0,0,0,-1,615,393,0,0
-602,631,0,0,0,0,0,0,0,0,0,-1,622,393,0,0
-595,631,0,0,0,0,0,0,0,0,0,-1,629,393,0,0
-588,631,0,0,0,0,0,0,0,0,0,-1,636,393,0,0
-581,631,0,0,0,0,0,0,0,0,0,-1,643,393,0,0
-574,631,0,0,0,0,0,0,0,0,0,-1,650,393,0,0
-567,631,0,0,0,0,0,0,0,0,0,-1,657,393,0,0
-560,631,0,0,0,0,0,0,0,0,0,-1,664,393,0,0
-553,631,0,0,0,0,0,0,0,0,0,-1,671,393,0,0
-546,631,0,0,0,0,0,0,0,0,0,-1,678,393,0,0
-539,631,0,0,0,0,0,0,0,0,0,-1,685,393,0,0
-532,631,0,0,0,0,0,0,0,0,0,-1,692,393,0,0
-525,631,0,0,0,0,0,0,0,0,0,-1,699,393,0,0
-518,631,0,0,0,0,0,0,0,0,0,-1,706,393,0,0
-511,631,0,0,0,0,0,0,0,0,0,-1,713,393,0,0
-504,631,0,0,0,0,0,0,0,0,0,-1,720,393,0,0
-497,631,0,0,0,0,0,0,0,0,0,-1,727,393,0,0
-490,631,0,0,0,0,0,0,0,0,0,-1,734,393,0,0
-483,631,0,0,0,0,0,0,0,0,0,-1,741,393,0,0
-476,631,0,0,0,0,0,0,0,0,0,-1,748,393,0,0
-469,631,0,0,0,0,0,0,0,0,0,-1,755,393,0,0
-462,631,0,0,0,0,0,0,0,0,0,-1,762,393,0,0
-455,631,0,0,0,0,0,0,0,0,0,-1,769,393,0,0
-448,631,0,0,0,0,0,0,0,0,0,-1,776,393,0,0
-441,631,0,0,0,0,0,0,0,0,0,-1,783,393,0,0
-434,631,0,0,0,0,0,0,0,0,0,-1,790,393,0,0
-427,631,0,0,0,0,0,0,0,0,0,-1,797,393,0,0
-420,631,0,0,0,0,0,0,0,0,0,-1,804,393,0,0
-413,631,0,0,0,0,0,0,0,0,0,-1,811,393,0,0
-406,631,0,0,0,0,0,0,0,0,0,-1,818,393,0,0
-399,631,0,0,0,0,0,0,0,0,0,-1,825,393,0,0
-392,631,0,0,0,0,0,0,0,0,0,-1,832,393,0,0
-385,631,0,0,0,0,0,0,0,0,0,-1,839,393,0,0
-378,631,0,0,0,0,0,0,0,0,0,-1,846,393,0,0
-371,631,0,0,0,0,0,0,0,0,0,-1,853,393,0,0
-364,631,0,0,0,0,0,0,0,0,0,-1,860,393,0,0
-357,631,0,0,0,0,0,0,0,0,0,-1,867,393,0,0
-350,631,0,0,0,0,0,0,0,0,0,-1,874,393,0,0
-343,631,0,0,0,0,0,0,0,0,0,-1,881,393,0,0
-336,631,0,0,0,0,0,0,0,0,0,-1,888,393,0,0
-329,631,0,0,0,0,0,0,0,0,0,-1,895,393,0,0
-322,631,0,0,0,0,0,0,0,0,0,-1,902,393,0,0
-315,631,0,0,0,0,0,0,0,0,0,-1,909,393,0,0
-308,631,0,0,0,0,0,0,0,0,0,-1,916,393,0,0
-301,631,0,0,0,0,0,0,0,0,0,-1,923,393,0,0
-294,631,0,0,0,0,0,0,0,0,0,-1,930,393,0,0
-287,631,0,0,0,0,0,0,0,0,0,-1,937,393,0,0
-280,631,1.55042,-14.0146,0,0,0,0,0,0,0,-1,944,393,1.55041,14.0146
-273,631,2.41461,-11.6467,0,0,0,0,0,0,0,-1,951,393,2.41461,11.6467
-266,631,1.18927,-15.6338,0,0,0,0,0,0,0,-1,958,393,1.18924,15.6338
-259,631,6.22192,-17.9323,0,0,0,0,0,0,0,-1,965,393,6.22191,17.9323
-252,631,6.5943,-18.1792,0,0,0,0,0,0,0,-1,972,393,6.5943,18.1792
-245,631,3.48102,-20.0012,0,0,0,0,0,0,0,-1,979,393,3.48104,20.0012
-238,631,3.7287,-20.9219,0,0,0,0,0,0,0,-1,986,393,3.72869,20.9219
-231,631,7.19537,-18.6513,0,0,0,0,0,0,0,-1,993,393,7.19538,18.6513
-224,631,5.24615,-18.3286,0,0,0,0,0,0,0,-1,1000,393,5.24613,18.3286
-217,631,5.05188,-18.3867,0,0,0,0,0,0,0,-1,1007,393,5.0519,18.3866
-210,631,3.94629,-18.0287,0,0,0,0,0,0,0,-1,1014,393,3.94627,18.0286
-203,631,3.79407,-20.1256,0,0,0,0,0,0,0,-1,1021,393,3.79409,20.1256
-196,631,3.85767,-20.4398,0,0,0,0,0,0,0,-1,1028,393,3.85764,20.4398
-189,631,4.41418,-20.5987,0.00289952,0.00809945,-0.00965909,0.0155024,-0.00450341,-0.916869,0.0121183,0.0488587,1035,393,4.41424,20.5987
-182,631,4.31226,-20.8299,0.00290466,0.00557239,-0.00891484,0.0132526,-0.00477555,-0.859659,0.0107853,0.0492143,1042,393,4.3123,20.8299
-175,631,4.14294,-21.4609,0.00270313,0.00245329,-0.00814562,0.0107248,-0.00556837,-0.777731,0.0095626,0.0346468,1049,393,4.14294,21.4609
-168,631,3.77649,-21.7808,0.00223758,0.000197145,-0.00713586,0.00842579,-0.00599106,-0.714394,0.00836304,0.0185281,1056,393,3.77651,21.7808
-161,631,3.75391,-22.0863,0.00198753,-0.00131424,-0.00620613,0.0067586,-0.0060853,-0.655404,0.00741882,0.00947153,1063,393,3.75394,22.0863
-154,631,3.73914,-22.3387,0.00185688,-0.00198093,-0.00525728,0.00553451,-0.00565856,-0.610411,0.00646245,0.00949617,1070,393,3.73911,22.3387
-147,631,3.71924,-22.5642,0.00164177,-0.00235633,-0.00438554,0.00446238,-0.00517694,-0.571553,0.00557036,0.0106677,1077,393,3.7193,22.5642
-140,631,3.70667,-22.802,0.00137379,-0.00229679,-0.00361117,0.00358928,-0.00451228,-0.550294,0.00468755,0.0100807,1084,393,3.70671,22.802
-133,631,3.67676,-23.0342,0.00110622,-0.00196896,-0.00308991,0.00301997,-0.0038827,-0.554529,0.00399562,0.00854603,1091,393,3.6767,23.0342
-126,631,3.65833,-23.2487,0.000776464,-0.00135439,-0.00249975,0.00242837,-0.0030063,-0.58395,0.00314361,0.0123713,1098,393,3.65833,23.2486
-119,631,3.64417,-23.4565,0.000493072,-0.00029537,-0.00203339,0.0021701,-0.0019724,-0.689649,0.00239258,0.0157054,1105,393,3.64422,23.4565
-112,631,3.64709,-23.6576,4.77582e-05,0.00065017,-0.00138332,0.0017647,-0.00106677,-0.892596,0.00165122,0.0148309,1112,393,3.64715,23.6576
-105,631,3.6825,-23.8385,-0.00030733,0.00181557,-0.000917995,0.00215747,-0.000649231,-1.21427,0.00169665,0.0192365,1119,393,3.68253,23.8385
-98,631,3.63721,-24.0293,-0.000444572,0.0025684,-0.000940325,0.00283779,-0.000713955,-1.29179,0.00216936,0.0162294,1126,393,3.63723,24.0293
-91,631,3.5835,-24.2213,-0.00064584,0.0028904,-0.00106873,0.0031883,-0.000943738,-1.29896,0.00250021,0.0167869,1133,393,3.58346,24.2213
-84,631,3.58093,-24.3962,-0.000584843,0.00283472,-0.000911248,0.0030624,-0.000812515,-1.32596,0.00235954,0.0161438,1140,393,3.58092,24.3962
-77,631,3.56812,-24.5668,-0.000619423,0.00274194,-0.000738901,0.0028972,-0.000774679,-1.36369,0.0022349,0.010822,1147,393,3.5681,24.5668
-70,631,3.55615,-24.7214,-0.000519542,0.0026441,-0.000524931,0.00272892,-0.000604367,-1.41059,0.00205064,0.011727,1154,393,3.55619,24.7214
-63,631,3.55164,-24.876,-0.000270332,0.00240153,-0.000414706,0.00246442,-0.000333219,-1.4203,0.00176454,0.0124481,1161,393,3.55159,24.876
-56,631,3.54993,-25.0271,8.17704e-05,0.00197934,-0.000479355,0.00209356,-3.2447e-05,-1.33688,0.00140665,0.0134883,1168,393,3.54998,25.0271
-49,631,3.53967,-25.1491,0.000414177,0.00133639,-0.000451239,0.00152045,0.00023012,-1.1835,0.000946298,0.0105498,1175,393,3.53963,25.1491
-42,631,3.5415,-25.2596,0.000771978,0.00068431,-0.000223461,0.000955863,0.000500425,-0.688549,0.000552072,0.00905419,1182,393,3.54154,25.2596
-35,631,3.55225,-25.3705,0.00103087,6.19074e-06,6.66667e-05,0.00103519,1.87155e-06,0.0646976,0.000689502,0.0107057,1189,393,3.55221,25.3705
-28,631,3.56189,-25.473,0.00119257,-0.00066275,0.000348594,0.0012559,-0.000726085,0.179726,0.00115785,0.0135348,1196,393,3.56186,25.473
-21,631,3.54639,-25.5809,0.00139803,-0.00137312,0.000684702,0.00155797,-0.00153307,0.229484,0.00178463,0.0122599,1203,393,3.54639,25.5809
-14,631,3.50781,-25.6893,0.00158073,-0.00209037,0.00101531,0.00184282,-0.00235246,0.252624,0.0024281,0.0142048,1210,393,3.50778,25.6893
-7,631,3.51172,-25.8253,0.00170886,-0.00255164,0.00118571,0.00201662,-0.00285939,0.25395,0.00282915,0.0213398,1217,393,3.51169,25.8253
0,631,3.51953,-25.8829,0.00174152,-0.00291882,0.00136145,0.0021101,-0.0032874,0.264387,0.00314086,0.0227388,1224,393,3.51956,25.8829
7,631,3.52747,-25.8968,0.00173201,-0.00312537,0.00153621,0.00217708,-0.00357043,0.281996,0.00335067,0.0180943,1231,393,3.52745,25.8968
14,631,3.56494,-25.9667,0.00177094,-0.00326633,0.0016963,0.00228891,-0.0037843,0.296359,0.00354163,0.0105108,1238,393,3.56493,25.9667
21,631,3.58752,-26.0224,0.00186566,-0.00327965,0.00181397,0.00244087,-0.00385486,0.307068,0.00366527,0.0136529,1245,393,3.58749,26.0224
28,631,3.59009,-26.0352,0.00198052,-0.00325313,0.00178927,0.00253375,-0.00380637,0.299871,0.00368497,0.0150558,1252,393,3.59012,26.0352
35,631,3.60278,-26.0378,0.00196747,-0.00323155,0.00163729,0.00244012,-0.0037042,0.281039,0.00357236,0.0131987,1259,393,3.60277,26.0378
42,631,3.62195,-26.06,0.00183558,-0.00324751,0.00152077,0.00225582,-0.00366775,0.269607,0.00345221,0.0118679,1266,393,3.62191,26.06
49,631,3.61829,-26.0931,0.00171075,-0.00325346,0.00136264,0.00206019,-0.0036029,0.251032,0.00330978,0.0108173,1273,393,3.61826,26.0931
56,631,3.61963,-26.0925,0.00153299,-0.00329912,0.00108892,0.00176704,-0.00353317,0.211719,0.00311619,0.0119947,1280,393,3.61967,26.0925
63,631,3.61548,-26.106,0.00135566,-0.00331504,0.000786261,0.00148447,-0.00344384,0.162379,0.00291936,0.0138634,1287,393,3.61549,26.1059
70,631,3.62756,-26.0968,0.0011508,-0.0032335,0.000506169,0.00120848,-0.00329117,0.113462,0.00268903,0.0142179,1294,393,3.6276,26.0968
77,631,3.64063,-26.0621,0.000968695,-0.00293777,0.000331491,0.000996625,-0.0029657,0.0840562,0.00237995,0.0140325,1301,393,3.64068,26.0621
84,631,3.66406,-26.0188,0.00084135,-0.00230611,0.000157091,0.000849171,-0.00231393,0.0497457,0.00189036,0.0114498,1308,393,3.66403,26.0188
91,631,3.65833,-25.9814,0.000767558,-0.00171779,-7.55757e-06,0.000767581,-0.00171781,-0.00304082,0.00146948,0.0138945,1315,393,3.65834,25.9815
98,631,3.64441,-25.9323,0.00066521,-0.000996442,-9.19145e-05,0.000670279,-0.00100151,-0.0550911,0.000971503,0.0125306,1322,393,3.64436,25.9323
105,631,3.65515,-25.8694,0.000576349,-0.000233669,-0.000264915,0.000655295,-0.000312615,-0.289625,0.000570378,0.0109901,1329,393,3.6551,25.8694
112,631,3.69092,-25.798,0.000676881,0.000457073,-0.00038311,0.00096554,0.000168414,-0.645713,0.000595547,0.0118978,1336,393,3.69093,25.798
119,631,3.69214,-25.7187,0.000723766,0.00120289,-0.000486129,0.00150528,0.000421377,-1.01433,0.000896694,0.0119055,1343,393,3.6921,25.7187
126,631,3.68982,-25.6019,0.000819008,0.00183681,-0.000557257,0.00208257,0.000573246,-1.15544,0.0012422,0.0174324,1350,393,3.68988,25.6019
133,631,3.72546,-25.5118,0.000901375,0.00235185,-0.000533115,0.00252672,0.000726512,-1.25385,0.00150206,0.0190549,1357,393,3.72546,25.5118
140,631,3.72559,-25.4185,0.000968122,0.00276206,-0.000441718,0.00286493,0.000865257,-1.342,0.00169674,0.0193254,1364,393,3.72556,25.4185
147,631,3.7052,-25.2765,0.00102164,0.00289769,-0.000423505,0.00298886,0.000930468,-1.35875,0.0017661,0.0217879,1371,393,3.7052,25.2765
154,631,3.74097,-25.1733,0.000941967,0.00275943,-0.000398896,0.00284313,0.000858272,-1.36398,0.00168389,0.0206833,1378,393,3.74098,25.1733
161,631,3.73486,-25.0757,0.000798587,0.00262242,-0.000300021,0.0026705,0.000750501,-1.41187,0.00159034,0.0221091,1385,393,3.7349,25.0757
168,631,3.73779,-24.9131,0.000580806,0.00242485,-0.000193997,0.00244504,0.000560618,-1.46711,0.00147901,0.0269461,1392,393,3.7378,24.9131
175,631,3.74768,-24.7559,0.000372348,0.00227804,-1.81869e-05,0.00227821,0.000372175,-1.56125,0.00141121,0.0211257,1399,393,3.74766,24.7559
182,631,3.72656,-24.6215,0.000164851,0.00232502,0.000186422,0.00234099,0.000148881,1.48534,0.00151348,0.0114354,1406,393,3.72656,24.6215
189,631,3.703,-24.443,-2.77178e-05,0.00243354,0.00041725,0.00250235,-9.65293e-05,1.40735,0.00170132,0.0110305,1413,393,3.70306,24.443
196,631,3.70728,-24.2556,-0.000124759,0.00257063,0.000652294,0.00272019,-0.000274318,1.34541,0.00191147,0.0115522,1420,393,3.70732,24.2556
203,631,3.72546,-24.088,-0.000310925,0.00282254,0.000890536,0.00305795,-0.000546332,1.31237,0.00224303,0.012714,1427,393,3.72546,24.088
210,631,3.71216,-23.9151,-0.000713562,0.00328347,0.00108982,0.0035613,-0.000991395,1.32118,0.00276457,0.0144808,1434,393,3.71217,23.9151
217,631,3.69556,-23.7445,-0.000983172,0.00383331,0.00120686,0.00411879,-0.00126865,1.33852,0.0032523,0.0159942,1441,393,3.69558,23.7445
224,631,3.68921,-23.5246,-0.00111369,0.00447618,0.00133144,0.00477712,-0.00141462,1.34851,0.00374639,0.0130743,1448,393,3.68921,23.5246
231,631,3.67139,-23.286,-0.00122095,0.00517812,0.00157009,0.0055426,-0.00158543,1.3427,0.0043216,0.0106337,1455,393,3.67133,23.286
238,631,3.62219,-23.0186,-0.00130045,0.00610637,0.00184755,0.00654165,-0.00173572,1.33942,0.0050403,0.0157414,1462,393,3.62217,23.0186
245,631,3.62305,-22.7994,-0.00115854,0.00642599,0.000416481,0.00644879,-0.00118135,1.5161,0.00474228,0.0181068,1469,393,3.62301,22.7994
252,631,3.59058,-22.6011,-0.00107555,0.00700675,-0.000162177,0.00701,-0.0010788,-1.55074,0.00507133,0.0181088,1476,393,3.59061,22.6011
259,631,3.57324,-22.3466,-0.000816699,0.00752544,-0.000878558,0.00761697,-0.000908221,-1.467,0.00540621,0.0124807,1483,393,3.57325,22.3466
266,631,3.57361,-22.1073,-0.000571141,0.00778299,-0.00194861,0.00821515,-0.0010033,-1.35255,0.00584,0.0110273,1490,393,3.57358,22.1073
273,631,3.57202,-21.8529,-0.000213409,0.00793898,-0.00316614,0.00902416,-0.00129859,-1.2406,0.00649241,0.0130942,1497,393,3.57206,21.8529
280,631,3.56433,-21.5795,0.000369143,0.00799129,-0.00441491,0.0100125,-0.00165209,-1.14146,0.00728839,0.0116938,1504,393,3.56435,21.5795
287,631,3.54358,-21.296,0.00116422,0.00762222,-0.00550311,0.0107737,-0.00198727,-1.05071,0.00792836,0.0122773,1511,393,3.54357,21.296
294,631,3.50964,-20.986,0.00189378,0.00729131,-0.00656009,0.0116861,-0.00250098,-0.980542,0.00874441,0.015917,1518,393,3.50958,20.986
301,631,3.44653,-20.6422,0.00281097,0.0069325,-0.0073364,0.0124921,-0.0027486,-0.922318,0.00937946,0.0260947,1525,393,3.44652,20.6422
308,631,3.58667,-20.25,0.00384235,0.00643877,-0.00769866,0.0129479,-0.00266678,-0.868926,0.00964456,0.0345045,1532,393,3.58665,20.25
315,631,3.6449,-19.9335,0,0,0,0,0,0,0,-1,1539,393,3.64485,19.9335
322,631,3.89441,-19.9381,0,0,0,0,0,0,0,-1,1546,393,3.89443,19.9381
329,631,3.56018,-19.6787,0,0,0,0,0,0,0,-1,1553,393,3.56023,19.6787
336,631,3.53577,-19.663,0,0,0,0,0,0,0,-1,1560,393,3.53581,19.663
343,631,3.66138,-18.7404,0,0,0,0,0,0,0,-1,1567,393,3.66133,18.7404
350,631,2.1344,-9.23401,0,0,0,0,0,0,0,-1,1574,393,2.13439,9.23401
357,631,2.6449,-9.60303,0,0,0,0,0,0,0,-1,1581,393,2.64491,9.60304
364,631,3.39136,-5.7594,0,0,0,0,0,0,0,-1,1588,393,3.39137,5.75939
371,631,3.72839,-6.0574,0,0,0,0,0,0,0,-1,1595,393,3.72845,6.05742
378,631,4.06555,-6.35544,0,0,0,0,0,0,0,-1,1602,393,4.06553,6.35544
385,631,3.90442,-3.58298,0,0,0,0,0,0,0,-1,1609,393,3.90437,3.58299
392,631,0.352295,-2.21301,0,0,0,0,0,0,0,-1,1616,393,0.352345,2.213
399,631,0,0,0,0,0,0,0,0,0,-1,1623,393,0,0
406,631,0,0,0,0,0,0,0,0,0,-1,1630,393,0,0
413,631,0,0,0,0,0,0,0,0,0,-1,1637,393,0,0
420,631,0,0,0,0,0,0,0,0,0,-1,1644,393,0,0
427,631,0,0,0,0,0,0,0,0,0,-1,1651,393,0,0
434,631,0,0,0,0,0,0,0,0,0,-1,1658,393,0,0
441,631,0,0,0,0,0,0,0,0,0,-1,1665,393,0,0
448,631,0,0,0,0,0,0,0,0,0,-1,1672,393,0,0
455,631,0,0,0,0,0,0,0,0,0,-1,1679,393,0,0
462,631,0,0,0,0,0,0,0,0,0,-1,1686,393,0,0
469,631,0,0,0,0,0,0,0,0,0,-1,1693,393,0,0
476,631,0,0,0,0,0,0,0,0,0,-1,1700,393,0,0
483,631,0,0,0,0,0,0,0,0,0,-1,1707,393,0,0
490,631,0,0,0,0,0,0,0,0,0,-1,1714,393,0,0
497,631,0,0,0,0,0,0,0,0,0,-1,1721,393,0,0
504,631,0,0,0,0,0,0,0,0,0,-1,1728,393,0,0
511,631,0,0,0,0,0,0,0,0,0,-1,1735,393,0,0
518,631,0,0,0,0,0,0,0,0,0,-1,1742,393,0,0
525,631,0,0,0,0,0,0,0,0,0,-1,1749,393,0,0
532,631,0,0,0,0,0,0,0,0,0,-1,1756,393,0,0
539,631,0,0,0,0,0,0,0,0,0,-1,1763,393,0,0
546,631,0,0,0,0,0,0,0,0,0,-1,1770,393,0,0
553,631,0,0,0,0,0,0,0,0,0,-1,1777,393,0,0
560,631,0,0,0,0,0,0,0,0,0,-1,1784,393,0,0
567,631,0,0,0,0,0,0,0,0,0,-1,1791,393,0,0
574,631,0,0,0,0,0,0,0,0,0,-1,1798,393,0,0
581,631,0,0,0,0,0,0,0,0,0,-1,1805,393,0,0
588,631,0,0,0,0,0,0,0,0,0,-1,1812,393,0,0
595,631,0,0,0,0,0,0,0,0,0,-1,1819,393,0,0
602,631,0,0,0,0,0,0,0,0,0,-1,1826,393,0,0
609,631,0,0,0,0,0,0,0,0,0,-1,1833,393,0,0
616,631,0,0,0,0,0,0,0,0,0,-1,1840,393,0,0
623,631,0,0,0,0,0,0,0,0,0,-1,1847,393,0,0
630,631,0,0,0,0,0,0,0,0,0,-1,1854,393,0,0
637,631,0,0,0,0,0,0,0,0,0,-1,1861,393,0,0
644,631,0,0,0,0,0,0,0,0,0,-1,1868,393,0,0
651,631,0,0,0,0,0,0,0,0,0,-1,1875,393,0,0
658,631,0,0,0,0,0,0,0,0,0,-1,1882,393,0,0
665,631,0,0,0,0,0,0,0,0,0,-1,1889,393,0,0
672,631,0,0,0,0,0,0,0,0,0,-1,1896,393,0,0
679,631,0,0,0,0,0,0,0,0,0,-1,1903,393,0,0
686,631,0,0,0,0,0,0,0,0,0,-1,1910,393,0,0
693,631,0,0,0,0,0,0,0,0,0,-1,1917,393,0,0
700,631,0,0,0,0,0,0,0,0,0,-1,1924,393,0,0
707,631,0,0,0,0,0,0,0,0,0,-1,1931,393,0,0
714,631,0,0,0,0,0,0,0,0,0,-1,1938,393,0,0
721,631,0,0,0,0,0,0,0,0,0,-1,1945,393,0,0
728,631,0,0,0,0,0,0,0,0,0,-1,1952,393,0,0
735,631,0,0,0,0,0,0,0,0,0,-1,1959,393,0,0
742,631,0,0,0,0,0,0,0,0,0,-1,1966,393,0,0
749,631,0,0,0,0,0,0,0,0,0,-1,1973,393,0,0
756,631,0,0,0,0,0,0,0,0,0,-1,1980,393,0,0
763,631,0,0,0,0,0,0,0,0,0,-1,1987,393,0,0
770,631,0,0,0,0,0,0,0,0,0,-1,1994,393,0,0
777,631,0,0,0,0,0,0,0,0,0,-1,2001,393,0,0
784,631,0,0,0,0,0,0,0,0,0,-1,2008,393,0,0
791,631,0,0,0,0,0,0,0,0,0,-1,2015,393,0,0
798,631,0,0,0,0,0,0,0,0,0,-1,2022,393,0,0
805,631,0,0,0,0,0,0,0,0,0,-1,2029,393,0,0
812,631,0,0,0,0,0,0,0,0,0,-1,2036,393,0,0
-700,624,0,0,0,0,0,0,0,0,0,-1,524,400,0,0
-693,624,0,0,0,0,0,0,0,0,0,-1,531,400,0,0
-686,624,0,0,0,0,0,0,0,0,0,-1,538,400,0,0
-679,624,0,0,0,0,0,0,0,0,0,-1,545,400,0,0
-672,624,0,0,0,0,0,0,0,0,0,-1,552,400,0,0
-665,624,0,0,0,0,0,0,0,0,0,-1,559,400,0,0
-658,624,0,0,0,0,0,0,0,0,0,-1,566,400,0,0
-651,624,0,0,0,0,0,0,0,0,0,-1,573,400,0,0
-644,624,0,0,0,0,0,0,0,0,0,-1,580,400,0,0
-637,624,0,0,0,0,0,0,0,0,0,-1,587,400,0,0
-630,624,0,0,0,0,0,0,0,0,0,-1,594,400,0,0
-623,624,0,0,0,0,0,0,0,0,0,-1,601,400,0,0
-616,624,0,0,0,0,0,0,0,0,0,-1,608,400,0,0
-609,624,0,0,0,0,0,0,0,0,0,-1,615,400,0,0
-602,624,0,0,0,0,0,0,0,0,0,-1,622,400,0,0
-595,624,0,0,0,0,0,0,0,0,0,-1,629,400,0,0
-588,624,0,0,0,0,0,0,0,0,0,-1,636,400,0,0
-581,624,0,0,0,0,0,0,0,0,0,-1,643,400,0,0
-574,624,0,0,0,0,0,0,0,0,0,-1,650,400,0,0
-567,624,0,0,0,0,0,0,0,0,0,-1,657,400,0,0
-560,624,0,0,0,0,0,0,0,0,0,-1,664,400,0,0
-553,624,0,0,0,0,0,0,0,0,0,-1,671,400,0,0
-546,624,0,0,0,0,0,0,0,0,0,-1,678,400,0,0
-539,624,0,0,0,0,0,0,0,0,0,-1,685,400,0,0
-532,624,0,0,0,0,0,0,0,0,0,-1,692,400,0,0
-525,624,0,0,0,0,0,0,0,0,0,-1,699,400,0,0
-518,624,0,0,0,0,0,0,0,0,0,-1,706,400,0,0
-511,624,0,0,0,0,0,0,0,0,0,-1,713,400,0,0
-504,624,0,0,0,0,0,0,0,0,0,-1,720,400,0,0
-497,624,0,0,0,0,0,0,0,0,0,-1,727,400,0,0
-490,624,0,0,0,0,0,0,0,0,0,-1,734,400,0,0
-483,624,0,0,0,0,0,0,0,0,0,-1,741,400,0,0
-476,624,0,0,0,0,0,0,0,0,0,-1,748,400,0,0
-469,624,0,0,0,0,0,0,0,0,0,-1,755,400,0,0
-462,624,0,0,0,0,0,0,0,0,0,-1,762,400,0,0
-455,624,0,0,0,0,0,0,0,0,0,-1,769,400,0,0
-448,624,0,0,0,0,0,0,0,0,0,-1,776,400,0,0
-441,624,0,0,0,0,0,0,0,0,0,-1,783,400,0,0
-434,624,0,0,0,0,0,0,0,0,0,-1,790,400,0,0
-427,624,0,0,0,0,0,0,0,0,0,-1,797,400,0,0
-420,624,0,0,0,0,0,0,0,0,0,-1,804,400,0,0
-413,624,0,0,0,0,0,0,0,0,0,-1,811,400,0,0
-406,624,0,0,0,0,0,0,0,0,0,-1,818,400,0,0
-399,624,0,0,0,0,0,0,0,0,0,-1,825,400,0,0
-392,624,0,0,0,0,0,0,0,0,0,-1,832,400,0,0
-385,624,0,0,0,0,0,0,0,0,0,-1,839,400,0,0
-378,624,0,0,0,0,0,0,0,0,0,-1,846,400,0,0
-371,624,0,0,0,0,0,0,0,0,0,-1,853,400,0,0
-364,624,0,0,0,0,0,0,0,0,0,-1,860,400,0,0
-357,624,0,0,0,0,0,0,0,0,0,-1,867,400,0,0
-350,624,0,0,0,0,0,0,0,0,0,-1,874,400,0,0
-343,624,0,0,0,0,0,0,0,0,0,-1,881,400,0,0
-336,624,0,0,0,0,0,0,0,0,0,-1,888,400,0,0
-329,624,0,0,0,0,0,0,0,0,0,-1,895,400,0,0
-322,624,0,0,0,0,0,0,0,0,0,-1,902,400,0,0
-315,624,0,0,0,0,0,0,0,0,0,-1,909,400,0,0
-308,624,0,0,0,0,0,0,0,0,0,-1,916,400,0,0
-301,624,0,0,0,0,0,0,0,0,0,-1,923,400,0,0
-294,624,-0.912903,-12.9461,0,0,0,0,0,0,0,-1,930,400,-0.912926,12.9461
-287,624,0.12146,-15.0862,0,0,0,0,0,0,0,-1,937,400,0.121451,15.0862
-280,624,1.51831,-12.2324,0,0,0,0,0,0,0,-1,944,400,1.51834,12.2324
-273,624,2.42194,-10.4277,0,0,0,0,0,0,0,-1,951,400,2.42196,10.4277
-266,624,1.09729,-14.7566,0,0,0,0,0,0,0,-1,958,400,1.09731,14.7566
-259,624,5.08258,-17.7336,0,0,0,0,0,0,0,-1,965,400,5.0826,17.7335
-252,624,3.66699,-19.1133,0,0,0,0,0,0,0,-1,972,400,3.66698,19.1134
-245,624,3.51221,-19.5877,0,0,0,0,0,0,0,-1,979,400,3.51222,19.5877
-238,624,3.35748,-20.0621,0,0,0,0,0,0,0,-1,986,400,3.35746,20.0621
-231,624,2.71124,-20.5017,0,0,0,0,0,0,0,-1,993,400,2.71122,20.5018
-224,624,3.51599,-19.0858,0,0,0,0,0,0,0,-1,1000,400,3.51597,19.0858
-217,624,3.83691,-19.5724,0,0,0,0,0,0,0,-1,1007,400,3.83693,19.5725
-210,624,3.59821,-20.05,0,0,0,0,0,0,0,-1,1014,400,3.59819,20.05
-203,624,3.59802,-20.2687,0.000199437,0.012464,-0.00627082,0.0151026,-0.00243915,-1.17251,0.0109722,0.0430501,1021,400,3.59806,20.2687
-196,624,3.63428,-20.5645,-0.000124934,0.0106063,-0.0057671,0.0131178,-0.00263645,-1.16007,0.00974368,0.0389641,1028,400,3.63424,20.5646
-189,624,3.70129,-20.7328,-0.000111905,0.00882131,-0.00575474,0.0116395,-0.00293005,-1.11542,0.00889859,0.0384314,1035,400,3.70133,20.7328
-182,624,3.68323,-21.0913,-5.07863e-05,0.00677972,-0.00548,0.00982159,-0.00309265,-1.06406,0.00778611,0.0307208,1042,400,3.68321,21.0913
-175,624,3.63513,-21.5032,-7.80941e-05,0.00416167,-0.00513874,0.00760061,-0.00351704,-0.981028,0.00656152,0.0197787,1049,400,3.63517,21.5032
-168,624,3.57227,-21.8199,-0.000288773,0.00215203,-0.00456702,0.00565889,-0.00379564,-0.915958,0.0054938,0.0131025,1056,400,3.57224,21.8199
-161,624,3.52539,-22.1182,-0.000284838,0.000687647,-0.00406154,0.00429194,-0.00388913,-0.844974,0.00472526,0.0108905,1063,400,3.52542,22.1182
-154,624,3.51062,-22.3546,-0.000136465,-0.000114087,-0.00351165,0.0033864,-0.00363695,-0.786991,0.00405579,0.0101637,1070,400,3.51061,22.3546
-147,624,3.49573,-22.5804,-5.55065e-05,-0.000706243,-0.00296819,0.0026051,-0.00336685,-0.730807,0.00345724,0.0110464,1077,400,3.49572,22.5805
-140,624,3.47217,-22.8206,-1.81292e-06,-0.000937072,-0.00247198,0.00204638,-0.00298526,-0.691917,0.00292183,0.010266,1084,400,3.47216,22.8206
-133,624,3.4635,-23.046,5.60964e-05,-0.000940117,-0.00215217,0.00176705,-0.00265107,-0.671679,0.00256777,0.0114581,1091,400,3.46344,23.046
-126,624,3.45105,-23.2671,6.12411e-05,-0.000671442,-0.00174369,0.00147666,-0.00208686,-0.681856,0.00206743,0.0130088,1098,400,3.45106,23.2671
-119,624,3.42297,-23.4809,0.000106862,7.83988e-05,-0.00144294,0.00153564,-0.00135038,-0.780467,0.00166739,0.0146535,1105,400,3.423,23.4809
-112,624,3.41089,-23.6585,2.45787e-05,0.000779228,-0.00103776,0.00150613,-0.00070232,-0.959766,0.0013029,0.0169005,1112,400,3.41093,23.6585
-105,624,3.46045,-23.8537,-1.4663e-05,0.00159643,-0.000790561,0.00191955,-0.000337785,-1.18279,0.00140589,0.0132481,1119,400,3.46047,23.8537
-98,624,3.43884,-24.0341,5.62886e-05,0.00214446,-0.000834707,0.0024371,-0.000236358,-1.23359,0.00170898,0.0132684,1126,400,3.43882,24.0341
-91,624,3.41479,-24.2213,0.000170591,0.00238201,-0.000916823,0.00271267,-0.00016007,-1.22466,0.00186409,0.0187259,1133,400,3.41477,24.2213
-84,624,3.44299,-24.4108,0.000363338,0.00234691,-0.000832408,0.00264994,6.03099e-05,-1.22167,0.00174687,0.0175879,1140,400,3.44295,24.4108
-77,624,3.43616,-24.5761,0.000518958,0.00224206,-0.000716272,0.00250092,0.000260101,-1.22401,0.0015877,0.0131058,1147,400,3.4361,24.5761
-70,624,3.4082,-24.7136,0.000858336,0.00184214,-0.000606772,0.00213135,0.000569124,-1.12601,0.00127429,0.0137331,1154,400,3.40816,24.7136
-63,624,3.39539,-24.8576,0.00124781,0.000991009,-0.000550426,0.00168462,0.000554206,-0.670808,0.000991396,0.0146722,1161,400,3.39542,24.8576
-56,624,3.41577,-25.0225,0.00146959,-2.20361e-05,-0.000430245,0.00158479,-0.000137239,-0.261624,0.00110512,0.0122804,1168,400,3.41574,25.0225
-49,624,3.42981,-25.1587,0.00166484,-0.00126451,-0.000208443,0.0016796,-0.00127927,-0.070682,0.00171351,0.0100055,1175,400,3.42984,25.1587
-42,624,3.44153,-25.2604,0.00184313,-0.00253853,0.000248607,0.00185719,-0.00255259,0.0564964,0.00255652,0.00953296,1182,400,3.44154,25.2604
-35,624,3.44507,-25.368,0.00191075,-0.00369288,0.000815048,0.00202689,-0.00380902,0.141544,0.00342133,0.0151462,1189,400,3.44509,25.368
-28,624,3.41956,-25.5052,0.00191666,-0.0049378,0.00126371,0.00214222,-0.00516336,0.17663,0.00433643,0.0206567,1196,400,3.41952,25.5052
-21,624,3.43848,-25.6045,0.00200735,-0.00608237,0.00178348,0.00238309,-0.0064581,0.20764,0.00528211,0.0147613,1203,400,3.43846,25.6045
-14,624,3.45349,-25.6816,0.00211038,-0.00710717,0.00228438,0.00264546,-0.00764224,0.230084,0.00616872,0.0150045,1210,400,3.45353,25.6816
-7,624,3.45154,-25.7581,0.00220361,-0.0077061,0.00261535,0.0028515,-0.00835398,0.242834,0.00672446,0.0195956,1217,400,3.45158,25.758
0,624,3.47632,-25.8421,0.00225349,-0.00808406,0.00295973,0.00304091,-0.00887148,0.260021,0.00714695,0.0202035,1224,400,3.47637,25.8421
7,624,3.495,-25.8927,0.00230125,-0.00815045,0.00331685,0.00326499,-0.00911419,0.282773,0.00740829,0.0152499,1231,400,3.49503,25.8927
14,624,3.52869,-25.9903,0.00247389,-0.00804876,0.00365425,0.00361843,-0.0091933,0.30353,0.00762671,0.0126272,1238,400,3.52874,25.9903
21,624,3.53662,-26.0132,0.0027665,-0.00779782,0.00392826,0.00406707,-0.0090984,0.319723,0.00778391,0.013561,1245,400,3.53663,26.0131
28,624,3.52673,-26.0399,0.00307534,-0.00751903,0.00404214,0.00444142,-0.00888511,0.325908,0.00783536,0.0123587,1252,400,3.52669,26.0399
35,624,3.55029,-26.0541,0.00315708,-0.00715893,0.00401091,0.00453302,-0.00853487,0.330469,0.00766176,0.0150297,1259,400,3.55033,26.0541
42,624,3.57568,-26.0776,0.0029438,-0.00687686,0.00397068,0.00434834,-0.00828141,0.339993,0.00740871,0.0167956,1266,400,3.5757,26.0776
49,624,3.63208,-26.1035,0.00272146,-0.00675245,0.00376691,0.00403664,-0.00806763,0.335909,0.0071164,0.0180366,1273,400,3.63204,26.1034
56,624,3.64331,-26.1266,0.00246501,-0.00664002,0.00343923,0.00361808,-0.0077931,0.323492,0.00673363,0.0177579,1280,400,3.64326,26.1267
63,624,3.65308,-26.1151,0.00211181,-0.00654522,0.00300048,0.00305007,-0.00748348,0.30307,0.00625852,0.0137787,1287,400,3.65304,26.1151
70,624,3.63977,-26.1106,0.0016237,-0.00634671,0.00247319,0.00232875,-0.00705176,0.277712,0.00564003,0.012214,1294,400,3.6398,26.1106
77,624,3.66443,-26.0756,0.00116691,-0.00572002,0.00203757,0.00172459,-0.0062777,0.267154,0.00486302,0.0124568,1301,400,3.66449,26.0756
84,624,3.69568,-26.0196,0.00101254,-0.0047122,0.00162473,0.00144151,-0.00514117,0.258134,0.00399559,0.0112206,1308,400,3.69568,26.0195
91,624,3.70349,-25.9841,0.00123375,-0.00390333,0.0012034,0.00150168,-0.00417126,0.219073,0.003394,0.0116144,1315,400,3.70355,25.9841
98,624,3.69775,-25.9527,0.00131935,-0.00288046,0.000816406,0.00147247,-0.00303358,0.185399,0.0026531,0.0118738,1322,400,3.69775,25.9527
105,624,3.72449,-25.9019,0.0014475,-0.00180775,0.000327723,0.00148017,-0.00184042,0.0993465,0.0019209,0.0137918,1329,400,3.72446,25.902
112,624,3.77759,-25.8333,0.00193865,-0.000871951,-4.71239e-05,0.00193944,-0.000872741,-0.0167602,0.00166209,0.0142814,1336,400,3.77759,25.8332
119,624,3.77539,-25.753,0.00239419,0.000140202,-0.00037846,0.00245603,7.83526e-05,-0.161991,0.00161187,0.0143699,1343,400,3.77544,25.753
126,624,3.77307,-25.6163,0.00288027,0.00100982,-0.000635482,0.00307575,0.000814344,-0.298416,0.00184013,0.0180471,1350,400,3.77309,25.6163
133,624,3.81396,-25.5193,0.00329313,0.00168242,-0.000766702,0.00359972,0.00137583,-0.380408,0.00209744,0.0190854,1357,400,3.81391,25.5193
140,624,3.82544,-25.42,0.00360892,0.00206944,-0.000823374,0.00396632,0.00171204,-0.409527,0.00229708,0.0187488,1364,400,3.82543,25.42
147,624,3.79456,-25.2751,0.00384977,0.00213418,-0.000920897,0.00425049,0.00173345,-0.41043,0.00246788,0.0216799,1371,400,3.79454,25.2751
154,624,3.85754,-25.1685,0.0037062,0.00186018,-0.000995616,0.00414083,0.00142555,-0.411612,0.00242906,0.0227552,1378,400,3.85755,25.1685
161,624,3.88477,-25.0597,0.00322773,0.00145653,-0.00102862,0.00369947,0.0009848,-0.429988,0.00221235,0.0214189,1385,400,3.88476,25.0597
168,624,3.88037,-24.9355,0.00265986,0.00101589,-0.00099996,0.00313232,0.00054343,-0.441386,0.0019327,0.0219113,1392,400,3.8804,24.9355
175,624,3.89636,-24.8041,0.00215271,0.000656359,-0.0008474,0.00253496,0.000274113,-0.423753,0.00160641,0.0175238,1399,400,3.89642,24.8041
182,624,3.90222,-24.6309,0.00157779,0.000483194,-0.000663035,0.00189023,0.000170754,-0.440366,0.00120727,0.0105559,1406,400,3.90217,24.6309
189,624,3.88599,-24.4621,0.000858449,0.000381632,-0.000499491,0.00117351,6.65692e-05,-0.562736,0.000761122,0.0104677,1413,400,3.88603,24.4621
196,624,3.88037,-24.2973,0.00027268,0.000924046,-0.000174132,0.000967675,0.000229051,-1.3253,0.000583938,0.0108195,1420,400,3.88042,24.2973
203,624,3.89856,-24.1087,0.000286645,0.00149147,0.000151404,0.0015102,0.00026791,1.44768,0.000930447,0.0131351,1427,400,3.89855,24.1087
210,624,3.90942,-23.927,0.000241408,0.00217502,0.000518182,0.00230513,0.000111297,1.32479,0.00150103,0.0166595,1434,400,3.90945,23.927
217,624,3.89893,-23.7397,-6.68478e-05,0.00293733,0.000700205,0.00309251,-0.000222033,1.35269,0.00213953,0.0193578,1441,400,3.8989,23.7397
224,624,3.89856,-23.5319,-0.000233108,0.00355645,0.000892966,0.00375632,-0.000432983,1.35059,0.00266031,0.0154713,1448,400,3.89851,23.5319
231,624,3.88062,-23.302,-0.000395382,0.00418225,0.00115288,0.00445621,-0.000669342,1.33749,0.00321722,0.0109404,1455,400,3.88063,23.302
238,624,3.85132,-23.0845,-0.000500743,0.00493804,0.00142412,0.00528837,-0.000851076,1.32959,0.00384083,0.0168636,1462,400,3.85137,23.0845
245,624,3.84766,-22.8712,-0.000513337,0.00530248,0.000762825,0.00540087,-0.000611728,1.44252,0.00382085,0.0185733,1469,400,3.84771,22.8712
252,624,3.82385,-22.6145,-0.000544586,0.00579813,0.00050239,0.00583767,-0.000584133,1.49224,0.00410039,0.0135343,1476,400,3.82388,22.6145
259,624,3.8147,-22.3628,-0.000454366,0.00622921,0.000171945,0.00623363,-0.000458787,1.54509,0.00431682,0.00910091,1483,400,3.81465,22.3627
266,624,3.82764,-22.1155,-0.000386899,0.00644121,-0.000393433,0.0064638,-0.000409494,-1.51343,0.00445198,0.0124324,1490,400,3.82769,22.1155
273,624,3.81506,-21.862,-0.000239137,0.00658148,-0.00103485,0.00673503,-0.000392691,-1.42349,0.00462648,0.015415,1497,400,3.81512,21.862
280,624,3.78845,-21.6276,8.34043e-05,0.00663247,-0.00166617,0.00703199,-0.000316119,-1.33545,0.00479684,0.0145474,1504,400,3.7885,21.6276
287,624,3.76355,-21.3566,0.000587074,0.00636436,-0.0021345,0.00706743,-0.000115988,-1.25261,0.00475075,0.0109486,1511,400,3.76354,21.3566
294,624,3.75122,-21.0625,0.00101337,0.00615623,-0.002577,0.00722529,-5.56889e-05,-1.17756,0.00483553,0.00878865,1518,400,3.75128,21.0625
301,624,3.72021,-20.7573,0.00157455,0.00591883,-0.00280782,0.00729662,0.000196754,-1.11462,0.00480018,0.0104552,1525,400,3.72016,20.7573
308,624,3.72229,-20.4125,0.00223191,0.00561979,-0.00274188,0.00714879,0.000702912,-1.0621,0.00454969,0.014804,1532,400,3.72228,20.4125
315,624,3.71741,-20.1385,0.00296177,0.00515011,-0.00232931,0.00662944,0.00148244,-1.00497,0.0040177,0.0181071,1539,400,3.71737,20.1385
322,624,3.70837,-19.8799,0.00368938,0.00477238,-0.00151941,0.0058439,0.00261786,-0.956576,0.00338006,0.027819,1546,400,3.70838,19.8799
329,624,3.77722,-19.602,0.00426347,0.00436436,-0.000530858,0.00484716,0.00378067,-0.832772,0.00294112,0.041617,1553,400,3.77724,19.602
336,624,3.91785,-19.378,0.00466644,0.00408058,0.000561553,0.00500687,0.00374014,0.544993,0.00300599,0.0437038,1560,400,3.9179,19.378
343,624,4.13745,-18.9157,0,0,0,0,0,0,0,-1,1567,400,4.13741,18.9157
350,624,1.99194,-7.29742,0,0,0,0,0,0,0,-1,1574,400,1.99198,7.29741
357,624,2.64075,-3.13092,0,0,0,0,0,0,0,-1,1581,400,2.64076,3.13091
364,624,3.16565,-4.9458,0,0,0,0,0,0,0,-1,1588,400,3.16564,4.94579
371,624,3.37561,-5.23529,0,0,0,0,0,0,0,-1,1595,400,3.37563,5.23529
378,624,1.50439,-5.22165,0,0,0,0,0,0,0,-1,1602,400,1.50438,5.22164
385,624,1.2301,-10.5866,0,0,0,0,0,0,0,-1,1609,400,1.2301,10.5866
392,624,4.26819,-5.14236,0,0,0,0,0,0,0,-1,1616,400,4.26818,5.14236
399,624,3.86841,-2.36917,0,0,0,0,0,0,0,-1,1623,400,3.86838,2.36916
406,624,4.35376,-2.6962,0,0,0,0,0,0,0,-1,1630,400,4.35373,2.69619
413,624,0,0,0,0,0,0,0,0,0,-1,1637,400,0,0
420,624,0,0,0,0,0,0,0,0,0,-1,1644,400,0,0
427,624,0,0,0,0,0,0,0,0,0,-1,1651,400,0,0
434,624,0,0,0,0,0,0,0,0,0,-1,1658,400,0,0
441,624,0,0,0,0,0,0,0,0,0,-1,1665,400,0,0
448,624,0,0,0,0,0,0,0,0,0,-1,1672,400,0,0
455,624,0,0,0,0,0,0,0,0,0,-1,1679,400,0,0
462,624,0,0,0,0,0,0,0,0,0,-1,1686,400,0,0
469,624,0,0,0,0,0,0,0,0,0,-1,1693,400,0,0
476,624,0,0,0,0,0,0,0,0,0,-1,1700,400,0,0
483,624,0,0,0,0,0,0,0,0,0,-1,1707,400,0,0
490,624,0,0,0,0,0,0,0,0,0,-1,1714,400,0,0
497,624,0,0,0,0,0,0,0,0,0,-1,1721,400,0,0
504,624,0,0,0,0,0,0,0,0,0,-1,1728,400,0,0
511,624,0,0,0,0,0,0,0,0,0,-1,1735,400,0,0
518,624,0,0,0,0,0,0,0,0,0,-1,1742,400,0,0
525,624,0,0,0,0,0,0,0,0,0,-1,1749,400,0,0
532,624,0,0,0,0,0,0,0,0,0,-1,1756,400,0,0
539,624,0,0,0,0,0,0,0,0,0,-1,1763,400,0,0
546,624,0,0,0,0,0,0,0,0,0,-1,1770,400,0,0
553,624,0,0,0,0,0,0,0,0,0,-1,1777,400,0,0
560,624,0,0,0,0,0,0,0,0,0,-1,1784,400,0,0
567,624,0,0,0,0,0,0,0,0,0,-1,1791,400,0,0
574,624,0,0,0,0,0,0,0,0,0,-1,1798,400,0,0
581,624,0,0,0,0,0,0,0,0,0,-1,1805,400,0,0
588,624,0,0,0,0,0,0,0,0,0,-1,1812,400,0,0
595,624,0,0,0,0,0,0,0,0,0,-1,1819,400,0,0
602,624,0,0,0,0,0,0,0,0,0,-1,1826,400,0,0
609,624,0,0,0,0,0,0,0,0,0,-1,1833,400,0,0
616,624,0,0,0,0,0,0,0,0,0,-1,1840,400,0,0
623,624,0,0,0,0,0,0,0,0,0,-1,1847,400,0,0
630,624,0,0,0,0,0,0,0,0,0,-1,1854,400,0,0
637,624,0,0,0,0,0,0,0,0,0,-1,1861,400,0,0
644,624,0,0,0,0,0,0,0,0,0,-1,1868,400,0,0
651,624,0,0,0,0,0,0,0,0,0,-1,1875,400,0,0
658,624,0,0,0,0,0,0,0,0,0,-1,1882,400,0,0
665,624,0,0,0,0,0,0,0,0,0,-1,1889,400,0,0
672,624,0,0,0,0,0,0,0,0,0,-1,1896,400,0,0
679,624,0,0,0,0,0,0,0,0,0,-1,1903,400,0,0
686,624,0,0,0,0,0,0,0,0,0,-1,1910,400,0,0
693,624,0,0,0,0,0,0,0,0,0,-1,1917,400,0,0
700,624,0,0,0,0,0,0,0,0,0,-1,1924,400,0,0
707,624,0,0,0,0,0,0,0,0,0,-1,1931,400,0,0
714,624,0,0,0,0,0,0,0,0,0,-1,1938,400,0,0
721,624,0,0,0,0,0,0,0,0,0,-1,1945,400,0,0
728,624,0,0,0,0,0,0,0,0,0,-1,1952,400,0,0
735,624,0,0,0,0,0,0,0,0,0,-1,1959,400,0,0
742,624,0,0,0,0,0,0,0,0,0,-1,1966,400,0,0
749,624,0,0,0,0,0,0,0,0,0,-1,1973,400,0,0
756,624,0,0,0,0,0,0,0,0,0,-1,1980,400,0,0
763,624,0,0,0,0,0,0,0,0,0,-1,1987,400,0,0
770,624,0,0,0,0,0,0,0,0,0,-1,1994,400,0,0
777,624,0,0,0,0,0,0,0,0,0,-1,2001,400,0,0
784,624,0,0,0,0,0,0,0,0,0,-1,2008,400,0,0
791,624,0,0,0,0,0,0,0,0,0,-1,2015,400,0,0
798,624,0,0,0,0,0,0,0,0,0,-1,2022,400,0,0
805,624,0,0,0,0,0,0,0,0,0,-1,2029,400,0,0
812,624,0,0,0,0,0,0,0,0,0,-1,2036,400,0,0
-700,617,0,0,0,0,0,0,0,0,0,-1,524,407,0,0
-693,617,0,0,0,0,0,0,0,0,0,-1,531,407,0,0
-686,617,0,0,0,0,0,0,0,0,0,-1,538,407,0,0
-679,617,0,0,0,0,0,0,0,0,0,-1,545,407,0,0
-672,617,0,0,0,0,0,0,0,0,0,-1,552,407,0,0
-665,617,0,0,0,0,0,0,0,0,0,-1,559,407,0,0
-658,617,0,0,0,0,0,0,0,0,0,-1,566,407,0,0
-651,617,0,0,0,0,0,0,0,0,0,-1,573,407,0,0
-644,617,0,0,0,0,0,0,0,0,0,-1,580,407,0,0
-637,617,0,0,0,0,0,0,0,0,0,-1,587,407,0,0
-630,617,0,0,0,0,0,0,0,0,0,-1,594,407,0,0
-623,617,0,0,0,0,0,0,0,0,0,-1,601,407,0,0
-616,617,0,0,0,0,0,0,0,0,0,-1,608,407,0,0
-609,617,0,0,0,0,0,0,0,0,0,-1,615,407,0,0
-602,617,0,0,0,0,0,0,0,0,0,-1,622,407,0,0
-595,617,0,0,0,0,0,0,0,0,0,-1,629,407,0,0
-588,617,0,0,0,0,0,0,0,0,0,-1,636,407,0,0
-581,617,0,0,0,0,0,0,0,0,0,-1,643,407,0,0
-574,617,0,0,0,0,0,0,0,0,0,-1,650,407,0,0
-567,617,0,0,0,0,0,0,0,0,0,-1,657,407,0,0
-560,617,0,0,0,0,0,0,0,0,0,-1,664,407,0,0
-553,617,0,0,0,0,0,0,0,0,0,-1,671,407,0,0
-546,617,0,0,0,0,0,0,0,0,0,-1,678,407,0,0
-539,617,0,0,0,0,0,0,0,0,0,-1,685,407,0,0
-532,617,0,0,0,0,0,0,0,0,0,-1,692,407,0,0
-525,617,0,0,0,0,0,0,0,0,0,-1,699,407,0,0
-518,617,0,0,0,0,0,0,0,0,0,-1,706,407,0,0
-511,617,0,0,0,0,0,0,0,0,0,-1,713,407,0,0
-504,617,0,0,0,0,0,0,0,0,0,-1,720,407,0,0
-497,617,0,0,0,0,0,0,0,0,0,-1,727,407,0,0
-490,617,0,0,0,0,0,0,0,0,0,-1,734,407,0,0
-483,617,0,0,0,0,0,0,0,0,0,-1,741,407,0,0
-476,617,0,0,0,0,0,0,0,0,0,-1,748,407,0,0
-469,617,0,0,0,0,0,0,0,0,0,-1,755,407,0,0
-462,617,0,0,0,0,0,0,0,0,0,-1,762,407,0,0
-455,617,0,0,0,0,0,0,0,0,0,-1,769,407,0,0
-448,617,0,0,0,0,0,0,0,0,0,-1,776,407,0,0
-441,617,0,0,0,0,0,0,0,0,0,-1,783,407,0,0
-434,617,0,0,0,0,0,0,0,0,0,-1,790,407,0,0
-427,617,0,0,0,0,0,0,0,0,0,-1,797,407,0,0
-420,617,0,0,0,0,0,0,0,0,0,-1,804,407,0,0
-413,617,0,0,0,0,0,0,0,0,0,-1,811,407,0,0
-406,617,0,0,0,0,0,0,0,0,0,-1,818,407,0,0
-399,617,0,0,0,0,0,0,0,0,0,-1,825,407,0,0
-392,617,0,0,0,0,0,0,0,0,0,-1,832,407,0,0
-385,617,0,0,0,0,0,0,0,0,0,-1,839,407,0,0
-378,617,0,0,0,0,0,0,0,0,0,-1,846,407,0,0
-371,617,0,0,0,0,0,0,0,0,0,-1,853,407,0,0
-364,617,0,0,0,0,0,0,0,0,0,-1,860,407,0,0
-357,617,0,0,0,0,0,0,0,0,0,-1,867,407,0,0
-350,617,0,0,0,0,0,0,0,0,0,-1,874,407,0,0
-343,617,0,0,0,0,0,0,0,0,0,-1,881,407,0,0
-336,617,0,0,0,0,0,0,0,0,0,-1,888,407,0,0
-329,617,0,0,0,0,0,0,0,0,0,-1,895,407,0,0
-322,617,0,0,0,0,0,0,0,0,0,-1,902,407,0,0
-315,617,0,0,0,0,0,0,0,0,0,-1,909,407,0,0
-308,617,0,0,0,0,0,0,0,0,0,-1,916,407,0,0
-301,617,3.0321,-13.8866,0,0,0,0,0,0,0,-1,923,407,3.03209,13.8866
-294,617,-0.867493,-11.1655,0,0,0,0,0,0,0,-1,930,407,-0.867487,11.1655
-287,617,-0.212524,-10.7744,0,0,0,0,0,0,0,-1,937,407,-0.212541,10.7743
-280,617,2.19739,-11.6377,0,0,0,0,0,0,0,-1,944,407,2.19737,11.6377
-273,617,2.42114,-9.26978,0,0,0,0,0,0,0,-1,951,407,2.42112,9.26979
-266,617,1.62323,-14.1301,0,0,0,0,0,0,0,-1,958,407,1.62322,14.1301
-259,617,3.7829,-18.1931,0,0,0,0,0,0,0,-1,965,407,3.78292,18.1931
-252,617,3.70355,-18.7073,0,0,0,0,0,0,0,-1,972,407,3.70355,18.7073
-245,617,3.56116,-19.1991,0,0,0,0,0,0,0,-1,979,407,3.56114,19.1991
-238,617,3.20496,-19.4574,0,0,0,0,0,0,0,-1,986,407,3.20498,19.4574
-231,617,3.33917,-18.8173,0,0,0,0,0,0,0,-1,993,407,3.33914,18.8173
-224,617,3.33838,-19.23,-0.000354407,0.0149438,-0.00422295,0.0160321,-0.0014427,-1.31858,0.0112,0.0497258,1000,407,3.33838,19.23
-217,617,3.50488,-19.6983,-0.000557661,0.0146987,-0.00369672,0.0155473,-0.00140621,-1.34517,0.010864,0.0399399,1007,407,3.50489,19.6983
-210,617,3.52264,-20.1907,-0.000724681,0.0131474,-0.00348417,0.0139734,-0.0015506,-1.33804,0.00987311,0.0251355,1014,407,3.52265,20.1907
-203,617,3.44214,-20.4749,-0.00123206,0.011264,-0.00270152,0.011823,-0.0017911,-1.36674,0.00854187,0.0187272,1021,407,3.44217,20.4749
-196,617,3.3949,-20.7303,-0.00153292,0.00992472,-0.00209082,0.0102943,-0.00190253,-1.39582,0.00757711,0.0156317,1028,407,3.39486,20.7303
-189,617,3.37329,-21.0018,-0.00152322,0.0085887,-0.0019746,0.00896061,-0.00189513,-1.38463,0.00669546,0.0133669,1035,407,3.37335,21.0018
-182,617,3.38184,-21.2735,-0.00142248,0.00702706,-0.00183891,0.00740992,-0.00180534,-1.36553,0.00563889,0.0143602,1042,407,3.38179,21.2735
-175,617,3.3717,-21.5331,-0.00132259,0.00484988,-0.00171103,0.00529245,-0.00176516,-1.31769,0.00424096,0.01427,1049,407,3.3717,21.5332
-168,617,3.3396,-21.8326,-0.00133004,0.00305032,-0.00145883,0.00349169,-0.00177142,-1.277,0.00309229,0.0110777,1056,407,3.33964,21.8325
-161,617,3.28955,-22.1269,-0.00113839,0.00167673,-0.00132627,0.00220313,-0.00166479,-1.19296,0.00224035,0.0112148,1063,407,3.28959,22.1268
-154,617,3.25879,-22.3638,-0.00080571,0.00081833,-0.00118336,0.00144148,-0.00142886,-1.0861,0.0016572,0.0112249,1070,407,3.25875,22.3638
-147,617,3.25806,-22.5922,-0.000538208,0.000105466,-0.00102008,0.000853277,-0.00128602,-0.938206,0.00124352,0.014729,1077,407,3.25802,22.5922
-140,617,3.26111,-22.8406,-0.000297273,-0.000315016,-0.000883731,0.000577631,-0.00118992,-0.780379,0.0010407,0.0116496,1084,407,3.2611,22.8406
-133,617,3.25574,-23.0628,-6.45815e-05,-0.000558498,-0.000851166,0.000574729,-0.00119781,-0.644204,0.00104424,0.014177,1091,407,3.25568,23.0628
-126,617,3.25208,-23.2498,0.000111478,-0.000561155,-0.000715681,0.000565926,-0.0010156,-0.565748,0.000925317,0.0139813,1098,407,3.25205,23.2497
-119,617,3.21802,-23.4601,0.000322978,-7.66752e-05,-0.000664246,0.000816803,-0.000570501,-0.639288,0.000805157,0.0134707,1105,407,3.21802,23.4601
-112,617,3.21606,-23.6601,0.000451656,0.000388666,-0.000552656,0.000973714,-0.000133392,-0.756935,0.000697869,0.0146229,1112,407,3.21608,23.6601
-105,617,3.22473,-23.8653,0.00059308,0.000900745,-0.000528597,0.00129744,0.000196386,-0.926997,0.000807497,0.0155307,1119,407,3.22478,23.8653
-98,617,3.25085,-24.0414,0.000770533,0.00126881,-0.000618101,0.0016861,0.000353251,-0.976975,0.00102677,0.0127503,1126,407,3.25091,24.0414
-91,617,3.23047,-24.22,0.00102565,0.00151252,-0.000747049,0.0020548,0.000483374,-0.942902,0.00124054,0.0178851,1133,407,3.23048,24.22
-84,617,3.27246,-24.4162,0.00134992,0.00155381,-0.000740832,0.00219968,0.000704052,-0.853774,0.00129711,0.0179557,1140,407,3.27244,24.4162
-77,617,3.27551,-24.5645,0.00168394,0.00153665,-0.000698669,0.00231283,0.000907755,-0.732889,0.00134557,0.0138166,1147,407,3.27553,24.5645
-70,617,3.26392,-24.7157,0.00228287,0.000929317,-0.000676626,0.0025631,0.000649095,-0.392643,0.0015387,0.014751,1154,407,3.2639,24.7157
-63,617,3.26306,-24.8595,0.00278082,-0.000792112,-0.00072453,0.00292215,-0.000933444,-0.192648,0.00232264,0.0159969,1161,407,3.26304,24.8595
-56,617,3.28259,-25.012,0.00285526,-0.00256052,-0.00049339,0.00289984,-0.00260511,-0.0901137,0.0031798,0.0120523,1168,407,3.28256,25.012
-49,617,3.30396,-25.1508,0.00281333,-0.00449988,-4.57688e-05,0.00281362,-0.00450017,-0.00625804,0.00425987,0.00974849,1175,407,3.304,25.1508
-42,617,3.34351,-25.2796,0.00281705,-0.00630362,0.000692253,0.0028693,-0.00635586,0.0753243,0.00545147,0.0110522,1182,407,3.34347,25.2796
-35,617,3.38257,-25.3868,0.00266477,-0.00766632,0.00164479,0.00292031,-0.00792186,0.154133,0.00647794,0.0166455,1189,407,3.38256,25.3868
-28,617,3.34229,-25.4929,0.00250784,-0.00926425,0.00230391,0.00294268,-0.00969908,0.186544,0.00763829,0.0198459,1196,407,3.34225,25.4929
-21,617,3.36218,-25.5913,0.0024794,-0.0106701,0.00303716,0.003147,-0.0113377,0.21637,0.00879714,0.0137501,1203,407,3.36212,25.5913
-14,617,3.37488,-25.6583,0.00248767,-0.0117702,0.00378474,0.00343004,-0.0127126,0.244029,0.00982017,0.0142331,1210,407,3.37484,25.6583
-7,617,3.37085,-25.7156,0.00260451,-0.0122299,0.00437901,0.00380071,-0.0134261,0.26666,0.0104506,0.0176932,1217,407,3.37087,25.7156
0,617,3.4082,-25.7966,0.00281337,-0.0124248,0.00500679,0.00431121,-0.0139227,0.290688,0.0110041,0.0162766,1224,407,3.40826,25.7966
7,617,3.4541,-25.8975,0.00298097,-0.0122514,0.00560756,0.00482264,-0.014093,0.317328,0.0113497,0.0117114,1231,407,3.45407,25.8975
14,617,3.46301,-25.9609,0.00336261,-0.0118301,0.00621996,0.00558422,-0.0140517,0.343052,0.0116829,0.0133022,1238,407,3.46302,25.9609
21,617,3.47693,-25.9882,0.00389926,-0.0113037,0.00673593,0.00645433,-0.0138587,0.362551,0.0119847,0.0124009,1245,407,3.47697,25.9882
28,617,3.50464,-26.0453,0.00440593,-0.0107956,0.00704437,0.00716832,-0.013558,0.373712,0.0121544,0.0112385,1252,407,3.50462,26.0453
35,617,3.50647,-26.0901,0.00453776,-0.0101834,0.00718011,0.0074598,-0.0131054,0.386494,0.0120215,0.0140326,1259,407,3.50652,26.09
42,617,3.5636,-26.0686,0.00421218,-0.00964191,0.00732046,0.00736348,-0.0127932,0.406502,0.0117774,0.0202151,1266,407,3.56362,26.0686
49,617,3.625,-26.0765,0.00384945,-0.00947605,0.00708863,0.00691506,-0.0125417,0.408179,0.0113888,0.0198191,1273,407,3.62501,26.0765
56,617,3.65649,-26.0988,0.0034789,-0.00930657,0.0067133,0.0063563,-0.012184,0.404926,0.0108791,0.0143186,1280,407,3.6565,26.0989
63,617,3.65588,-26.096,0.00286619,-0.00919282,0.00615331,0.00545168,-0.0117783,0.39778,0.0101688,0.00983854,1287,407,3.65586,26.096
70,617,3.65588,-26.1083,0.00208936,-0.00889901,0.00539476,0.00429514,-0.0111048,0.388134,0.00917633,0.0142812,1294,407,3.65592,26.1083
77,617,3.72168,-26.0688,0.00133798,-0.0080101,0.00467593,0.00327536,-0.00994748,0.3928,0.00795158,0.0127341,1301,407,3.72165,26.0688
84,617,3.75549,-26.0135,0.0010664,-0.00668213,0.00399237,0.00275532,-0.00837104,0.400205,0.00669099,0.0101029,1308,407,3.75544,26.0135
91,617,3.77051,-25.9813,0.00143058,-0.00562943,0.00323736,0.00269029,-0.00688914,0.371091,0.00570504,0.00980629,1315,407,3.77046,25.9813
98,617,3.78723,-25.947,0.00156441,-0.00425896,0.00238455,0.00241623,-0.00511078,0.343097,0.00443757,0.011075,1322,407,3.78718,25.947
105,617,3.80945,-25.8813,0.00174506,-0.00281148,0.00143066,0.00215701,-0.00322344,0.280362,0.00312668,0.0128526,1329,407,3.80947,25.8813
112,617,3.84448,-25.8062,0.00256398,-0.00152545,0.000679408,0.0026739,-0.00163537,0.160399,0.00251193,0.0156717,1336,407,3.84443,25.8062
119,617,3.84595,-25.7327,0.0033508,-0.000136956,-6.78486e-05,0.00335212,-0.000138275,-0.0194436,0.00228224,0.0194519,1343,407,3.84598,25.7327
126,617,3.82727,-25.6369,0.00419653,0.00109766,-0.000701659,0.004348,0.000946187,-0.21261,0.0026404,0.0216443,1350,407,3.8273,25.6369
133,617,3.87537,-25.5404,0.0049616,0.00206176,-0.00116213,0.00536985,0.0016535,-0.337832,0.00317562,0.0190473,1357,407,3.87541,25.5404
140,617,3.93274,-25.4603,0.00559032,0.00260147,-0.00152676,0.00623232,0.00195947,-0.398049,0.00367993,0.0167841,1364,407,3.93272,25.4603
147,617,3.93884,-25.2997,0.0061237,0.00271582,-0.00188618,0.00696163,0.00187789,-0.418059,0.00415893,0.0189133,1371,407,3.93887,25.2997
154,617,3.96777,-25.1734,0.00608796,0.00242736,-0.00208708,0.00703361,0.00148171,-0.425427,0.0042815,0.020607,1378,407,3.96775,25.1734
161,617,4.01331,-25.0692,0.00541937,0.00177345,-0.0022371,0.0064822,0.000710614,-0.443526,0.00410515,0.0229804,1385,407,4.01328,25.0692
168,617,4.03699,-24.9837,0.00464632,0.00105526,-0.00225806,0.00573572,-3.41362e-05,-0.449505,0.00383524,0.0220733,1392,407,4.03694,24.9837
175,617,4.03076,-24.8546,0.00399986,0.00024511,-0.00208936,0.00493139,-0.000686419,-0.419394,0.00353866,0.0182152,1399,407,4.03079,24.8546
182,617,4.05994,-24.6455,0.00318905,-0.000410838,-0.00184197,0.0039645,-0.00118628,-0.398468,0.00311466,0.0118814,1406,407,4.05998,24.6455
189,617,4.04834,-24.4516,0.00186014,-0.00105609,-0.00172201,0.00265844,-0.00185439,-0.434094,0.00261923,0.010985,1413,407,4.04834,24.4516
196,617,4.05334,-24.2837,0.000518199,-0.000353089,-0.00124241,0.00139913,-0.00123402,-0.616774,0.00152124,0.0144404,1420,407,4.05336,24.2837
203,617,4.06165,-24.1264,0.000835952,0.0003294,-0.000633396,0.00126483,-9.94815e-05,-0.595201,0.000878263,0.0149867,1427,407,4.06164,24.1264
210,617,4.0802,-23.924,0.00126909,0.00120916,1.13085e-05,0.00127115,0.00120709,0.180432,0.000826909,0.0142765,1434,407,4.08016,23.924
217,617,4.08191,-23.7181,0.000887249,0.00226487,0.000260685,0.00231255,0.00083957,1.3899,0.00135174,0.0180229,1441,407,4.08195,23.7182
224,617,4.07971,-23.527,0.000683601,0.00291587,0.000530807,0.00303567,0.00056381,1.34884,0.00186448,0.0171539,1448,407,4.07973,23.527
231,617,4.08411,-23.3263,0.000463434,0.00351994,0.000824882,0.00372835,0.000255027,1.32332,0.00240507,0.0135081,1455,407,4.0841,23.3263
238,617,4.08557,-23.118,0.000336219,0.00414411,0.00110181,0.00443994,4.03919e-05,1.30849,0.00294659,0.0158508,1462,407,4.08552,23.118
245,617,4.0874,-22.9098,0.000233234,0.00451744,0.000935142,0.00471266,3.80105e-05,1.36499,0.00312918,0.0137479,1469,407,4.08743,22.9098
252,617,4.07703,-22.6335,0.000118823,0.00490715,0.000862741,0.00505785,-3.18789e-05,1.39786,0.00338258,0.0142166,1476,407,4.07707,22.6335
259,617,4.05969,-22.381,7.64283e-05,0.00521455,0.000746306,0.00532076,-2.97762e-05,1.42944,0.00355714,0.0114011,1483,407,4.05975,22.381
266,617,4.06189,-22.1189,1.57592e-05,0.00533744,0.000472107,0.00537899,-2.57986e-05,1.483,0.00359463,0.0134779,1490,407,4.0619,22.1189
273,617,4.05701,-21.8714,1.77687e-05,0.00541798,0.000155899,0.00542248,1.32718e-05,1.54196,0.00361057,0.0141957,1497,407,4.05696,21.8714
280,617,4.01807,-21.631,0.000154052,0.00542751,-0.000146736,0.00543159,0.000149973,-1.543,0.00357212,0.0132896,1504,407,4.01804,21.6309
287,617,4.00696,-21.3516,0.000453967,0.00521523,-0.000307461,0.005235,0.000434194,-1.50658,0.00335465,0.0122558,1511,407,4.00696,21.3516
294,617,4.01318,-21.071,0.000688409,0.0050804,-0.000454758,0.00512699,0.000641816,-1.4687,0.00322541,0.0092618,1518,407,4.01324,21.071
301,617,3.9895,-20.7888,0.00101783,0.00491879,-0.000454657,0.00497108,0.000965541,-1.45629,0.00304369,0.00762978,1525,407,3.98953,20.7888
308,617,3.96094,-20.49,0.0014413,0.00476551,-0.000242286,0.00478308,0.00142373,-1.49842,0.00283588,0.00792094,1532,407,3.96097,20.49
315,617,3.95007,-20.2032,0.00191102,0.00451764,0.000167926,0.00452841,0.00190024,1.50673,0.00262571,0.00915619,1539,407,3.95002,20.2032
322,617,3.93848,-19.9243,0.00234598,0.00434491,0.000805948,0.00462938,0.00206151,1.23149,0.0026781,0.0123206,1546,407,3.93846,19.9243
329,617,3.94031,-19.6122,0.00264257,0.00413238,0.00152084,0.00508094,0.00169401,1.01313,0.00298727,0.0140977,1553,407,3.94033,19.6122
336,617,3.9989,-19.2743,0.00280101,0.00401762,0.00224684,0.00573704,0.00108158,0.917597,0.00352,0.0259383,1560,407,3.99885,19.2743
343,617,3.82422,-18.8348,0,0,0,0,0,0,0,-1,1567,407,3.82426,18.8349
350,617,2.88098,-10.0063,0,0,0,0,0,0,0,-1,1574,407,2.88098,10.0063
357,617,2.1748,-7.16504,0,0,0,0,0,0,0,-1,1581,407,2.1748,7.16505
364,617,2.30127,-7.60257,0,0,0,0,0,0,0,-1,1588,407,2.30125,7.60258
371,617,2.60266,-6.20667,0,0,0,0,0,0,0,-1,1595,407,2.60261,6.20668
378,617,1.56921,-10.3601,0,0,0,0,0,0,0,-1,1602,407,1.56918,10.3601
385,617,1.74146,-10.3561,0,0,0,0,0,0,0,-1,1609,407,1.7414,10.3561
392,617,1.91357,-10.3521,0,0,0,0,0,0,0,-1,1616,407,1.91362,10.3521
399,617,3.25,-2.14835,0,0,0,0,0,0,0,-1,1623,407,3.25006,2.14836
406,617,3.02429,-3.19577,0,0,0,0,0,0,0,-1,1630,407,3.02431,3.19577
413,617,2.92786,-3.80649,0,0,0,0,0,0,0,-1,1637,407,2.92788,3.8065
420,617,3.42737,-4.47391,0,0,0,0,0,0,0,-1,1644,407,3.42737,4.47391
427,617,0,0,0,0,0,0,0,0,0,-1,1651,407,0,0
434,617,0,0,0,0,0,0,0,0,0,-1,1658,407,0,0
441,617,0,0,0,0,0,0,0,0,0,-1,1665,407,0,0
448,617,0,0,0,0,0,0,0,0,0,-1,1672,407,0,0
455,617,0,0,0,0,0,0,0,0,0,-1,1679,407,0,0
462,617,0,0,0,0,0,0,0,0,0,-1,1686,407,0,0
469,617,0,0,0,0,0,0,0,0,0,-1,1693,407,0,0
476,617,0,0,0,0,0,0,0,0,0,-1,1700,407,0,0
483,617,0,0,0,0,0,0,0,0,0,-1,1707,407,0,0
490,617,0,0,0,0,0,0,0,0,0,-1,1714,407,0,0
497,617,0,0,0,0,0,0,0,0,0,-1,1721,407,0,0
504,617,0,0,0,0,0,0,0,0,0,-1,1728,407,0,0
511,617,0,0,0,0,0,0,0,0,0,-1,1735,407,0,0
518,617,0,0,0,0,0,0,0,0,0,-1,1742,407,0,0
525,617,0,0,0,0,0,0,0,0,0,-1,1749,407,0,0
532,617,0,0,0,0,0,0,0,0,0,-1,1756,407,0,0
539,617,0,0,0,0,0,0,0,0,0,-1,1763,407,0,0
546,617,0,0,0,0,0,0,0,0,0,-1,1770,407,0,0
553,617,0,0,0,0,0,0,0,0,0,-1,1777,407,0,0
560,617,0,0,0,0,0,0,0,0,0,-1,1784,407,0,0
567,617,0,0,0,0,0,0,0,0,0,-1,1791,407,0,0
574,617,0,0,0,0,0,0,0,0,0,-1,1798,407,0,0
581,617,0,0,0,0,0,0,0,0,0,-1,1805,407,0,0
588,617,0,0,0,0,0,0,0,0,0,-1,1812,407,0,0
595,617,0,0,0,0,0,0,0,0,0,-1,1819,407,0,0
602,617,0,0,0,0,0,0,0,0,0,-1,1826,407,0,0
609,617,0,0,0,0,0,0,0,0,0,-1,1833,407,0,0
616,617,0,0,0,0,0,0,0,0,0,-1,1840,407,0,0
623,617,0,0,0,0,0,0,0,0,0,-1,1847,407,0,0
630,617,0,0,0,0,0,0,0,0,0,-1,1854,407,0,0
637,617,0,0,0,0,0,0,0,0,0,-1,1861,407,0,0
644,617,0,0,0,0,0,0,0,0,0,-1,1868,407,0,0
651,617,0,0,0,0,0,0,0,0,0,-1,1875,407,0,0
658,617,0,0,0,0,0,0,0,0,0,-1,1882,407,0,0
665,617,0,0,0,0,0,0,0,0,0,-1,1889,407,0,0
672,617,0,0,0,0,0,0,0,0,0,-1,1896,407,0,0
679,617,0,0,0,0,0,0,0,0,0,-1,1903,407,0,0
686,617,0,0,0,0,0,0,0,0,0,-1,1910,407,0,0
693,617,0,0,0,0,0,0,0,0,0,-1,1917,407,0,0
700,617,0,0,0,0,0,0,0,0,0,-1,1924,407,0,0
707,617,0,0,0,0,0,0,0,0,0,-1,1931,407,0,0
714,617,0,0,0,0,0,0,0,0,0,-1,1938,407,0,0
721,617,0,0,0,0,0,0,0,0,0,-1,1945,407,0,0
728,617,0,0,0,0,0,0,0,0,0,-1,1952,407,0,0
735,617,0,0,0,0,0,0,0,0,0,-1,1959,407,0,0
742,617,0,0,0,0,0,0,0,0,0,-1,1966,407,0,0
749,617,0,0,0,0,0,0,0,0,0,-1,1973,407,0,0
756,617,0,0,0,0,0,0,0,0,0,-1,1980,407,0,0
763,617,0,0,0,0,0,0,0,0,0,-1,1987,407,0,0
770,617,0,0,0,0,0,0,0,0,0,-1,1994,407,0,0
777,617,0,0,0,0,0,0,0,0,0,-1,2001,407,0,0
784,617,0,0,0,0,0,0,0,0,0,-1,2008,407,0,0
791,617,0,0,0,0,0,0,0,0,0,-1,2015,407,0,0
798,617,0,0,0,0,0,0,0,0,0,-1,2022,407,0,0
805,617,0,0,0,0,0,0,0,0,0,-1,2029,407,0,0
812,617,0,0,0,0,0,0,0,0,0,-1,2036,407,0,0
-700,610,0,0,0,0,0,0,0,0,0,-1,524,414,0,0
-693,610,0,0,0,0,0,0,0,0,0,-1,531,414,0,0
-686,610,0,0,0,0,0,0,0,0,0,-1,538,414,0,0
-679,610,0,0,0,0,0,0,0,0,0,-1,545,414,0,0
-672,610,0,0,0,0,0,0,0,0,0,-1,552,414,0,0
-665,610,0,0,0,0,0,0,0,0,0,-1,559,414,0,0
-658,610,0,0,0,0,0,0,0,0,0,-1,566,414,0,0
-651,610,0,0,0,0,0,0,0,0,0,-1,573,414,0,0
-644,610,0,0,0,0,0,0,0,0,0,-1,580,414,0,0
-637,610,0,0,0,0,0,0,0,0,0,-1,587,414,0,0
-630,610,0,0,0,0,0,0,0,0,0,-1,594,414,0,0
-623,610,0,0,0,0,0,0,0,0,0,-1,601,414,0,0
-616,610,0,0,0,0,0,0,0,0,0,-1,608,414,0,0
-609,610,0,0,0,0,0,0,0,0,0,-1,615,414,0,0
-602,610,0,0,0,0,0,0,0,0,0,-1,622,414,0,0
-595,610,0,0,0,0,0,0,0,0,0,-1,629,414,0,0
-588,610,0,0,0,0,0,0,0,0,0,-1,636,414,0,0
-581,610,0,0,0,0,0,0,0,0,0,-1,643,414,0,0
-574,610,0,0,0,0,0,0,0,0,0,-1,650,414,0,0
-567,610,0,0,0,0,0,0,0,0,0,-1,657,414,0,0
-560,610,0,0,0,0,0,0,0,0,0,-1,664,414,0,0
-553,610,0,0,0,0,0,0,0,0,0,-1,671,414,0,0
-546,610,0,0,0,0,0,0,0,0,0,-1,678,414,0,0
-539,610,0,0,0,0,0,0,0,0,0,-1,685,414,0,0
-532,610,0,0,0,0,0,0,0,0,0,-1,692,414,0,0
-525,610,0,0,0,0,0,0,0,0,0,-1,699,414,0,0
-518,610,0,0,0,0,0,0,0,0,0,-1,706,414,0,0
-511,610,0,0,0,0,0,0,0,0,0,-1,713,414,0,0
-504,610,0,0,0,0,0,0,0,0,0,-1,720,414,0,0
-497,610,0,0,0,0,0,0,0,0,0,-1,727,414,0,0
-490,610,0,0,0,0,0,0,0,0,0,-1,734,414,0,0
-483,610,0,0,0,0,0,0,0,0,0,-1,741,414,0,0
-476,610,0,0,0,0,0,0,0,0,0,-1,748,414,0,0
-469,610,0,0,0,0,0,0,0,0,0,-1,755,414,0,0
-462,610,0,0,0,0,0,0,0,0,0,-1,762,414,0,0
-455,610,0,0,0,0,0,0,0,0,0,-1,769,414,0,0
-448,610,0,0,0,0,0,0,0,0,0,-1,776,414,0,0
-441,610,0,0,0,0,0,0,0,0,0,-1,783,414,0,0
-434,610,0,0,0,0,0,0,0,0,0,-1,790,414,0,0
-427,610,0,0,0,0,0,0,0,0,0,-1,797,414,0,0
-420,610,0,0,0,0,0,0,0,0,0,-1,804,414,0,0
-413,610,0,0,0,0,0,0,0,0,0,-1,811,414,0,0
-406,610,0,0,0,0,0,0,0,0,0,-1,818,414,0,0
-399,610,0,0,0,0,0,0,0,0,0,-1,825,414,0,0
-392,610,0,0,0,0,0,0,0,0,0,-1,832,414,0,0
-385,610,0,0,0,0,0,0,0,0,0,-1,839,414,0,0
-378,610,0,0,0,0,0,0,0,0,0,-1,846,414,0,0
-371,610,0,0,0,0,0,0,0,0,0,-1,853,414,0,0
-364,610,0,0,0,0,0,0,0,0,0,-1,860,414,0,0
-357,610,0,0,0,0,0,0,0,0,0,-1,867,414,0,0
-350,610,0,0,0,0,0,0,0,0,0,-1,874,414,0,0
-343,610,0,0,0,0,0,0,0,0,0,-1,881,414,0,0
-336,610,0,0,0,0,0,0,0,0,0,-1,888,414,0,0
-329,610,0,0,0,0,0,0,0,0,0,-1,895,414,0,0
-322,610,0,0,0,0,0,0,0,0,0,-1,902,414,0,0
-315,610,6.6438,-13.537,0,0,0,0,0,0,0,-1,909,414,6.64383,13.537
-308,610,6.20703,-13.9936,0,0,0,0,0,0,0,-1,916,414,6.20702,13.9936
-301,610,5.73285,-14.3911,0,0,0,0,0,0,0,-1,923,414,5.73285,14.3911
-294,610,2.37964,-12.4347,0,0,0,0,0,0,0,-1,930,414,2.37964,12.4347
-287,610,2.08557,-11.9136,0,0,0,0,0,0,0,-1,937,414,2.08555,11.9136
-280,610,2.25854,-11.0924,0,0,0,0,0,0,0,-1,944,414,2.25856,11.0924
-273,610,2.98663,-16.4648,0,0,0,0,0,0,0,-1,951,414,2.98664,16.4648
-266,610,2.89264,-16.8431,0,0,0,0,0,0,0,-1,958,414,2.89266,16.8431
-259,610,3.08478,-17.9273,0,0,0,0,0,0,0,-1,965,414,3.08479,17.9273
-252,610,3.10181,-18.5689,0,0,0,0,0,0,0,-1,972,414,3.10183,18.5689
-245,610,3.40723,-18.9027,0.000805109,0.0108261,-0.0082409,0.0154601,-0.00382896,-1.05854,0.0117921,0.0448205,979,414,3.40725,18.9027
-238,610,3.17194,-19.203,0.000576633,0.0110372,-0.00642133,0.0140888,-0.00247496,-1.12716,0.0103169,0.0459498,986,414,3.17193,19.203
-231,610,3.18579,-18.9635,8.67698e-05,0.0112515,-0.00491895,0.0131095,-0.00177122,-1.20964,0.00938595,0.038026,993,414,3.1858,18.9635
-224,610,3.19,-19.4703,-0.000346278,0.0114179,-0.003857,0.0125697,-0.00149806,-1.2806,0.0089212,0.0244957,1000,414,3.18999,19.4703
-217,610,3.2215,-19.88,-0.000663999,0.0112153,-0.00303981,0.011948,-0.00139667,-1.33428,0.00846937,0.0150307,1007,414,3.2215,19.88
-210,610,3.20239,-20.2119,-0.000989639,0.0104765,-0.00240312,0.0109598,-0.00147292,-1.37234,0.00784374,0.0107281,1014,414,3.2024,20.2119
-203,610,3.18127,-20.507,-0.00141367,0.00924048,-0.00157568,0.00946863,-0.00164182,-1.427,0.00692488,0.0129,1021,414,3.18133,20.507
-196,610,3.16321,-20.7903,-0.00167763,0.00830111,-0.000927288,0.00838655,-0.00176306,-1.47892,0.00626201,0.0141011,1028,414,3.16324,20.7903
-189,610,3.15479,-21.0519,-0.00171634,0.00737384,-0.0007214,0.00743073,-0.00177323,-1.49209,0.00563862,0.0113591,1035,414,3.15482,21.0519
-182,610,3.14404,-21.3259,-0.00167425,0.00621526,-0.000567361,0.00625585,-0.00171484,-1.49937,0.00484443,0.0116831,1042,414,3.14404,21.3259
-175,610,3.11304,-21.573,-0.00159043,0.00447382,-0.000430794,0.00450427,-0.00162088,-1.50023,0.00366464,0.0132054,1049,414,3.11304,21.573
-168,610,3.07922,-21.8359,-0.00154925,0.00295661,-0.000250733,0.00297052,-0.00156316,-1.51538,0.00265923,0.0119939,1056,414,3.07917,21.8359
-161,610,3.04224,-22.1362,-0.00131508,0.00172783,-0.000231223,0.0017453,-0.00133255,-1.49539,0.00178231,0.0110111,1063,414,3.04219,22.1362
-154,610,3.02014,-22.3706,-0.000938567,0.000869521,-0.000220151,0.00089594,-0.000964986,-1.45136,0.00107465,0.0129695,1070,414,3.02018,22.3706
-147,610,3.05322,-22.574,-0.000598963,9.26591e-05,-0.000186961,0.000139964,-0.000646268,-1.32298,0.000484289,0.0133678,1077,414,3.05317,22.574
-140,610,3.06677,-22.8123,-0.000268009,-0.00046199,-0.000176486,-0.000163618,-0.000566381,-0.534144,0.000336576,0.0108601,1084,414,3.0668,22.8123
-133,610,3.0575,-23.0459,5.81543e-05,-0.000892897,-0.000216147,0.000104974,-0.000939716,-0.213313,0.00066424,0.0128972,1091,414,3.05749,23.0459
-126,610,3.0542,-23.2467,0.000342028,-0.00112842,-0.000168104,0.000361001,-0.00114739,-0.11239,0.000909466,0.0120875,1098,414,3.05418,23.2467
-119,610,3.03772,-23.4492,0.000673995,-0.000887765,-0.000221779,0.000704878,-0.000918648,-0.138362,0.000940048,0.0105523,1105,414,3.03767,23.4492
-112,610,3.04529,-23.6543,0.000945526,-0.000664168,-0.000220291,0.000975129,-0.000693771,-0.133581,0.000968094,0.0172838,1112,414,3.04523,23.6543
-105,610,3.04163,-23.8658,0.00122626,-0.000381087,-0.000285057,0.00127531,-0.000430144,-0.170425,0.00102416,0.0169065,1119,414,3.04168,23.8658
-98,610,3.05347,-24.0404,0.00153889,-0.000167261,-0.000401695,0.00162873,-0.000257105,-0.22004,0.00118089,0.0121683,1126,414,3.05342,24.0404
-91,610,3.05334,-24.2231,0.00197026,0.000122379,-0.000546907,0.00211999,-2.73539e-05,-0.267232,0.00142253,0.0131101,1133,414,3.05334,24.2231
-84,610,3.08057,-24.404,0.00241892,0.000326461,-0.000634144,0.0025961,0.000149279,-0.272455,0.00168318,0.014399,1140,414,3.08059,24.404
-77,610,3.0957,-24.5761,0.00289568,0.000521782,-0.000691559,0.00308245,0.000335013,-0.263777,0.0019529,0.0115985,1147,414,3.09568,24.5761
-70,610,3.10889,-24.7408,0.00376078,-0.000189044,-0.000734013,0.00389277,-0.000321038,-0.177924,0.00270854,0.0135536,1154,414,3.10891,24.7408
-63,610,3.12903,-24.8855,0.00434149,-0.00298636,-0.000910427,0.00445291,-0.00309778,-0.121776,0.00438273,0.0129392,1161,414,3.12903,24.8855
-56,610,3.13708,-25.0072,0.00399173,-0.00574069,-0.000446027,0.00401213,-0.00576108,-0.0457013,0.0056726,0.0102678,1168,414,3.13706,25.0072
-49,610,3.16528,-25.1439,0.00345528,-0.00850513,0.000358903,0.00346604,-0.00851589,0.0299716,0.00711962,0.0108441,1175,414,3.1653,25.1439
-42,610,3.18433,-25.2964,0.003199,-0.0108448,0.00147693,0.00335264,-0.0109984,0.103655,0.00866871,0.014957,1182,414,3.18436,25.2964
-35,610,3.21228,-25.4113,0.0027898,-0.0123597,0.00286396,0.00331315,-0.012883,0.18074,0.00988001,0.0150801,1189,414,3.21224,25.4113
-28,610,3.2439,-25.496,0.0024418,-0.0142621,0.00376799,0.00325242,-0.0150727,0.211906,0.0112899,0.0132844,1196,414,3.24393,25.496
-21,610,3.26074,-25.5866,0.00235879,-0.0156865,0.0047534,0.00353432,-0.0168621,0.24244,0.012586,0.0110013,1203,414,3.26079,25.5866
-14,610,3.28516,-25.6564,0.00232476,-0.0166439,0.00578025,0.00394736,-0.0182665,0.27367,0.0136846,0.0113826,1210,414,3.28513,25.6564
-7,610,3.31775,-25.7167,0.00264876,-0.0166887,0.00673041,0.00476064,-0.0188006,0.304052,0.0143856,0.0132428,1217,414,3.31781,25.7167
0,610,3.34619,-25.8076,0.00337448,-0.0164579,0.00775135,0.00604456,-0.019128,0.331737,0.0151736,0.0109781,1224,414,3.34619,25.8076
7,610,3.38611,-25.8875,0.00388794,-0.0158343,0.00866788,0.00715595,-0.0191023,0.360545,0.0156745,0.0110923,1231,414,3.38615,25.8875
14,610,3.45129,-25.9185,0.00470743,-0.0149037,0.00964807,0.00865811,-0.0188544,0.388651,0.0162439,0.0130515,1238,414,3.45135,25.9186
21,610,3.47485,-25.9453,0.00564515,-0.0140045,0.0105243,0.0102179,-0.0185772,0.40988,0.0168567,0.0120904,1245,414,3.4748,25.9453
28,610,3.47852,-26.0074,0.00645665,-0.0132405,0.0111066,0.0114523,-0.0182361,0.42268,0.0172891,0.0132245,1252,414,3.47853,26.0074
35,610,3.58289,-26.0311,0.00675244,-0.0124539,0.0114611,0.0121018,-0.0178033,0.436688,0.01737,0.0170171,1259,414,3.58292,26.0311
42,610,3.58789,-26.0201,0.0064205,-0.0117877,0.0117702,0.0121967,-0.0175639,0.456216,0.0172751,0.0162344,1266,414,3.58784,26.0201
49,610,3.60315,-26.062,0.00601923,-0.0116562,0.011451,0.0116463,-0.0172833,0.456749,0.0168079,0.0157548,1273,414,3.6031,26.0621
56,610,3.64294,-26.0619,0.00549572,-0.0115862,0.0109752,0.0108617,-0.0169521,0.454744,0.0161861,0.0142339,1280,414,3.64296,26.0619
63,610,3.61243,-26.0131,0.00452485,-0.0116645,0.0101648,0.0094243,-0.0165639,0.449145,0.0151919,0.0183191,1287,414,3.61243,26.0131
70,610,3.68433,-25.9816,0.00335289,-0.0114458,0.00899272,0.00759912,-0.015692,0.441149,0.013715,0.0256742,1294,414,3.68429,25.9816
77,610,3.75525,-25.9641,0.00220127,-0.0104462,0.00774366,0.00587524,-0.0141202,0.442998,0.011867,0.0300074,1301,414,3.75527,25.9641
84,610,3.79712,-25.957,0.00175091,-0.0089522,0.00654822,0.00485621,-0.0120575,0.442812,0.0100558,0.0295522,1308,414,3.79708,25.957
91,610,3.88318,-25.9377,0.00225227,-0.00764997,0.00528057,0.0045398,-0.00993749,0.408793,0.00854992,0.0253012,1315,414,3.88324,25.9377
98,610,3.9292,-25.9411,0.00242151,-0.00591057,0.00380113,0.00389502,-0.00738408,0.369815,0.00661503,0.0233404,1322,414,3.92918,25.9411
105,610,3.93835,-25.8518,0.00260521,-0.00399452,0.00223116,0.00328871,-0.00467802,0.297265,0.00462285,0.0182487,1329,414,3.93838,25.8518
112,610,3.93518,-25.7805,0.00384484,-0.00223565,0.0010199,0.00401135,-0.00240216,0.161834,0.00374149,0.013012,1336,414,3.93517,25.7805
119,610,3.91675,-25.7067,0.00505661,-0.000333083,-0.000208312,0.00506465,-0.000341122,-0.0385734,0.00349569,0.0195666,1343,414,3.91674,25.7067
126,610,3.927,-25.6315,0.00639082,0.00145844,-0.00126963,0.00669844,0.00115081,-0.237714,0.00413574,0.0266784,1350,414,3.92705,25.6315
133,610,4.03162,-25.5415,0.00762581,0.00291072,-0.00205836,0.00839794,0.00213859,-0.358876,0.00503937,0.0205187,1357,414,4.03167,25.5415
140,610,4.07446,-25.4436,0.00861857,0.0038024,-0.00271354,0.00983846,0.00258251,-0.422484,0.00588998,0.01664,1364,414,4.07446,25.4436
147,610,4.04956,-25.2877,0.00946669,0.00415336,-0.00328454,0.0110345,0.00258557,-0.445344,0.00666382,0.0176917,1371,414,4.04961,25.2877
154,610,4.04578,-25.141,0.00953702,0.00391124,-0.00351894,0.0112292,0.0022191,-0.448224,0.00686699,0.0217395,1378,414,4.04575,25.141
161,610,4.1189,-25.0286,0.00864568,0.0030373,-0.00376177,0.0105334,0.00114954,-0.465108,0.0066722,0.0277264,1385,414,4.11886,25.0286
168,610,4.12988,-24.9117,0.00757905,0.00205635,-0.00383708,0.0095451,9.03001e-05,-0.473502,0.00633351,0.0273156,1392,414,4.12991,24.9117
175,610,4.15295,-24.802,0.00674606,0.000719285,-0.00360437,0.00843076,-0.000965413,-0.437232,0.00596839,0.0219101,1399,414,4.15292,24.802
182,610,4.22375,-24.6298,0.00557485,-0.000597039,-0.00319608,0.00693165,-0.00195384,-0.401464,0.0053917,0.0159786,1406,414,4.2238,24.6298
189,610,4.22961,-24.4355,0.00321892,-0.00191562,-0.00312091,0.0046928,-0.0033895,-0.441212,0.0046865,0.0137378,1413,414,4.22967,24.4355
196,610,4.23767,-24.2661,0.000621291,-0.00119666,-0.00249198,0.0023649,-0.00294027,-0.610516,0.00306893,0.0138742,1420,414,4.23772,24.2661
203,610,4.23767,-24.0999,0.00130475,-0.000555971,-0.00149442,0.00213475,-0.00138597,-0.506978,0.00204795,0.0145274,1427,414,4.23772,24.0999
210,610,4.23926,-23.9275,0.0023693,0.000430987,-0.000422034,0.0024572,0.000343083,-0.205351,0.00153659,0.0107834,1434,414,4.23925,23.9275
217,610,4.27686,-23.7061,0.00187665,0.00187021,-0.00010495,0.00197843,0.00176843,-0.770045,0.00125483,0.0152836,1441,414,4.27689,23.7061
224,610,4.28394,-23.5146,0.00163505,0.00260593,0.000252115,0.00266749,0.00157349,1.33129,0.00154835,0.0185847,1448,414,4.28398,23.5146
231,610,4.2782,-23.3242,0.00135607,0.00323619,0.00059335,0.00340779,0.00118447,1.28928,0.00199773,0.0159464,1455,414,4.27817,23.3242
238,610,4.29297,-23.1061,0.00121065,0.00376282,0.000885424,0.00403991,0.000933555,1.2675,0.00244231,0.0116795,1462,414,4.29297,23.1061
245,610,4.31226,-22.8766,0.00105909,0.00411725,0.00102177,0.00442722,0.00074912,1.27626,0.00273617,0.0128746,1469,414,4.31224,22.8766
252,610,4.30688,-22.6376,0.000889902,0.00434703,0.00104272,0.00463717,0.000599754,1.2994,0.00291219,0.0144834,1476,414,4.30692,22.6376
259,610,4.30212,-22.3904,0.000742947,0.00447332,0.00101725,0.00473269,0.000483583,1.32115,0.00300692,0.0119796,1483,414,4.30215,22.3903
266,610,4.28784,-22.1304,0.000585014,0.00445237,0.000886131,0.00464574,0.000391642,1.35594,0.00297522,0.0125935,1490,414,4.28785,22.1304
273,610,4.28418,-21.8789,0.000477315,0.00442211,0.0007295,0.00455269,0.000346733,1.39367,0.0029264,0.0105443,1497,414,4.28416,21.8789
280,610,4.26758,-21.6118,0.000464993,0.00432907,0.000574166,0.00441258,0.000381482,1.42636,0.00282316,0.0100548,1504,414,4.2676,21.6118
287,610,4.26453,-21.3361,0.000600544,0.00411278,0.000537137,0.00419309,0.000520235,1.42238,0.00263913,0.0126459,1511,414,4.26457,21.3361
294,610,4.27612,-21.0612,0.00068833,0.00399232,0.000508503,0.00406881,0.000611839,1.42149,0.00253334,0.0106609,1518,414,4.2761,21.0612
301,610,4.25513,-20.8063,0.000831154,0.00384865,0.000580129,0.00395634,0.000723464,1.38726,0.00243253,0.0101152,1525,414,4.25513,20.8063
308,610,4.25867,-20.5099,0.0010706,0.00378261,0.000815331,0.00400885,0.000844352,1.30012,0.00244031,0.0118583,1532,414,4.25864,20.5098
315,610,4.26086,-20.2261,0.00134225,0.00369526,0.00116206,0.0041724,0.000865112,1.18119,0.00254277,0.0130824,1539,414,4.2609,20.2261
322,610,4.2262,-19.9338,0.00155719,0.00367818,0.00164239,0.0045727,0.000662667,1.07207,0.00285335,0.0131787,1546,414,4.22625,19.9338
329,610,4.1936,-19.6229,0.0016552,0.00362634,0.00215541,0.00501082,0.000270723,0.999833,0.00325406,0.0119562,1553,414,4.19362,19.6229
336,610,4.20044,-19.2845,0.00165239,0.00365139,0.00265089,0.00548495,-0.000181165,0.965679,0.00371849,0.0107207,1560,414,4.20041,19.2845
343,610,4.16187,-18.9461,0.00166142,0.00365078,0.00323168,0.00603739,-0.000725194,0.934692,0.00428715,0.0207722,1567,414,4.16187,18.9461
350,610,4.15381,-18.6021,0,0,0,0,0,0,0,-1,1574,414,4.15378,18.6021
357,610,4.22192,-18.0551,0,0,0,0,0,0,0,-1,1581,414,4.22194,18.0551
364,610,4.34302,-15.9496,0,0,0,0,0,0,0,-1,1588,414,4.34299,15.9496
371,610,3.54138,-13.3788,0,0,0,0,0,0,0,-1,1595,414,3.54137,13.3788
378,610,3.5752,-12.1958,0,0,0,0,0,0,0,-1,1602,414,3.57517,12.1958
385,610,2.57104,-10.3878,0,0,0,0,0,0,0,-1,1609,414,2.57109,10.3878
392,610,2.35229,-10.3207,0,0,0,0,0,0,0,-1,1616,414,2.35227,10.3207
399,610,3.03833,-2.82547,0,0,0,0,0,0,0,-1,1623,414,3.03827,2.82546
406,610,2.91687,-2.9166,0,0,0,0,0,0,0,-1,1630,414,2.91688,2.91659
413,610,3.01929,-3.20306,0,0,0,0,0,0,0,-1,1637,414,3.01929,3.20306
420,610,4.78149,-3.64041,0,0,0,0,0,0,0,-1,1644,414,4.78152,3.64042
427,610,5.20764,-4.67545,0,0,0,0,0,0,0,-1,1651,414,5.20759,4.67545
434,610,5.39233,-5.45441,0,0,0,0,0,0,0,-1,1658,414,5.39228,5.4544
441,610,0,0,0,0,0,0,0,0,0,-1,1665,414,0,0
448,610,0,0,0,0,0,0,0,0,0,-1,1672,414,0,0
455,610,0,0,0,0,0,0,0,0,0,-1,1679,414,0,0
462,610,0,0,0,0,0,0,0,0,0,-1,1686,414,0,0
469,610,0,0,0,0,0,0,0,0,0,-1,1693,414,0,0
476,610,0,0,0,0,0,0,0,0,0,-1,1700,414,0,0
483,610,0,0,0,0,0,0,0,0,0,-1,1707,414,0,0
490,610,0,0,0,0,0,0,0,0,0,-1,1714,414,0,0
497,610,0,0,0,0,0,0,0,0,0,-1,1721,414,0,0
504,610,0,0,0,0,0,0,0,0,0,-1,1728,414,0,0
511,610,0,0,0,0,0,0,0,0,0,-1,1735,414,0,0
518,610,0,0,0,0,0,0,0,0,0,-1,1742,414,0,0
525,610,0,0,0,0,0,0,0,0,0,-1,1749,414,0,0
532,610,0,0,0,0,0,0,0,0,0,-1,1756,414,0,0
539,610,0,0,0,0,0,0,0,0,0,-1,1763,414,0,0
546,610,0,0,0,0,0,0,0,0,0,-1,1770,414,0,0
553,610,0,0,0,0,0,0,0,0,0,-1,1777,414,0,0
560,610,0,0,0,0,0,0,0,0,0,-1,1784,414,0,0
567,610,0,0,0,0,0,0,0,0,0,-1,1791,414,0,0
574,610,0,0,0,0,0,0,0,0,0,-1,1798,414,0,0
581,610,0,0,0,0,0,0,0,0,0,-1,1805,414,0,0
588,610,0,0,0,0,0,0,0,0,0,-1,1812,414,0,0
595,610,0,0,0,0,0,0,0,0,0,-1,1819,414,0,0
602,610,0,0,0,0,0,0,0,0,0,-1,1826,414,0,0
609,610,0,0,0,0,0,0,0,0,0,-1,1833,414,0,0
616,610,0,0,0,0,0,0,0,0,0,-1,1840,414,0,0
623,610,0,0,0,0,0,0,0,0,0,-1,1847,414,0,0
630,610,0,0,0,0,0,0,0,0,0,-1,1854,414,0,0
637,610,0,0,0,0,0,0,0,0,0,-1,1861,414,0,0
644,610,0,0,0,0,0,0,0,0,0,-1,1868,414,0,0
651,610,0,0,0,0,0,0,0,0,0,-1,1875,414,0,0
658,610,0,0,0,0,0,0,0,0,0,-1,1882,414,0,0
665,610,0,0,0,0,0,0,0,0,0,-1,1889,414,0,0
672,610,0,0,0,0,0,0,0,0,0,-1,1896,414,0,0
679,610,0,0,0,0,0,0,0,0,0,-1,1903,414,0,0
686,610,0,0,0,0,0,0,0,0,0,-1,1910,414,0,0
693,610,0,0,0,0,0,0,0,0,0,-1,1917,414,0,0
700,610,0,0,0,0,0,0,0,0,0,-1,1924,414,0,0
707,610,0,0,0,0,0,0,0,0,0,-1,1931,414,0,0
714,610,0,0,0,0,0,0,0,0,0,-1,1938,414,0,0
721,610,0,0,0,0,0,0,0,0,0,-1,1945,414,0,0
728,610,0,0,0,0,0,0,0,0,0,-1,1952,414,0,0
735,610,0,0,0,0,0,0,0,0,0,-1,1959,414,0,0
742,610,0,0,0,0,0,0,0,0,0,-1,1966,414,0,0
749,610,0,0,0,0,0,0,0,0,0,-1,1973,414,0,0
756,610,0,0,0,0,0,0,0,0,0,-1,1980,414,0,0
763,610,0,0,0,0,0,0,0,0,0,-1,1987,414,0,0
770,610,0,0,0,0,0,0,0,0,0,-1,1994,414,0,0
777,610,0,0,0,0,0,0,0,0,0,-1,2001,414,0,0
784,610,0,0,0,0,0,0,0,0,0,-1,2008,414,0,0
791,610,0,0,0,0,0,0,0,0,0,-1,2015,414,0,0
798,610,0,0,0,0,0,0,0,0,0,-1,2022,414,0,0
805,610,0,0,0,0,0,0,0,0,0,-1,2029,414,0,0
812,610,0,0,0,0,0,0,0,0,0,-1,2036,414,0,0
-700,603,0,0,0,0,0,0,0,0,0,-1,524,421,0,0
-693,603,0,0,0,0,0,0,0,0,0,-1,531,421,0,0
-686,603,0,0,0,0,0,0,0,0,0,-1,538,421,0,0
-679,603,0,0,0,0,0,0,0,0,0,-1,545,421,0,0
-672,603,0,0,0,0,0,0,0,0,0,-1,552,421,0,0
-665,603,0,0,0,0,0,0,0,0,0,-1,559,421,0,0
-658,603,0,0,0,0,0,0,0,0,0,-1,566,421,0,0
-651,603,0,0,0,0,0,0,0,0,0,-1,573,421,0,0
-644,603,0,0,0,0,0,0,0,0,0,-1,580,421,0,0
-637,603,0,0,0,0,0,0,0,0,0,-1,587,421,0,0
-630,603,0,0,0,0,0,0,0,0,0,-1,594,421,0,0
-623,603,0,0,0,0,0,0,0,0,0,-1,601,421,0,0
-616,603,0,0,0,0,0,0,0,0,0,-1,608,421,0,0
-609,603,0,0,0,0,0,0,0,0,0,-1,615,421,0,0
-602,603,0,0,0,0,0,0,0,0,0,-1,622,421,0,0
-595,603,0,0,0,0,0,0,0,0,0,-1,629,421,0,0
-588,603,0,0,0,0,0,0,0,0,0,-1,636,421,0,0
-581,603,0,0,0,0,0,0,0,0,0,-1,643,421,0,0
-574,603,0,0,0,0,0,0,0,0,0,-1,650,421,0,0
-567,603,0,0,0,0,0,0,0,0,0,-1,657,421,0,0
-560,603,0,0,0,0,0,0,0,0,0,-1,664,421,0,0
-553,603,0,0,0,0,0,0,0,0,0,-1,671,421,0,0
-546,603,0,0,0,0,0,0,0,0,0,-1,678,421,0,0
-539,603,0,0,0,0,0,0,0,0,0,-1,685,421,0,0
-532,603,0,0,0,0,0,0,0,0,0,-1,692,421,0,0
-525,603,0,0,0,0,0,0,0,0,0,-1,699,421,0,0
-518,603,0,0,0,0,0,0,0,0,0,-1,706,421,0,0
-511,603,0,0,0,0,0,0,0,0,0,-1,713,421,0,0
-504,603,0,0,0,0,0,0,0,0,0,-1,720,421,0,0
-497,603,0,0,0,0,0,0,0,0,0,-1,727,421,0,0
-490,603,0,0,0,0,0,0,0,0,0,-1,734,421,0,0
-483,603,0,0,0,0,0,0,0,0,0,-1,741,421,0,0
-476,603,0,0,0,0,0,0,0,0,0,-1,748,421,0,0
-469,603,0,0,0,0,0,0,0,0,0,-1,755,421,0,0
-462,603,0,0,0,0,0,0,0,0,0,-1,762,421,0,0
-455,603,0,0,0,0,0,0,0,0,0,-1,769,421,0,0
-448,603,0,0,0,0,0,0,0,0,0,-1,776,421,0,0
-441,603,0,0,0,0,0,0,0,0,0,-1,783,421,0,0
-434,603,0,0,0,0,0,0,0,0,0,-1,790,421,0,0
-427,603,0,0,0,0,0,0,0,0,0,-1,797,421,0,0
-420,603,0,0,0,0,0,0,0,0,0,-1,804,421,0,0
-413,603,0,0,0,0,0,0,0,0,0,-1,811,421,0,0
-406,603,0,0,0,0,0,0,0,0,0,-1,818,421,0,0
-399,603,0,0,0,0,0,0,0,0,0,-1,825,421,0,0
-392,603,0,0,0,0,0,0,0,0,0,-1,832,421,0,0
-385,603,0,0,0,0,0,0,0,0,0,-1,839,421,0,0
-378,603,0,0,0,0,0,0,0,0,0,-1,846,421,0,0
-371,603,0,0,0,0,0,0,0,0,0,-1,853,421,0,0
-364,603,0,0,0,0,0,0,0,0,0,-1,860,421,0,0
-357,603,0,0,0,0,0,0,0,0,0,-1,867,421,0,0
-350,603,0,0,0,0,0,0,0,0,0,-1,874,421,0,0
-343,603,0,0,0,0,0,0,0,0,0,-1,881,421,0,0
-336,603,0,0,0,0,0,0,0,0,0,-1,888,421,0,0
-329,603,0.191833,-18.5754,0,0,0,0,0,0,0,-1,895,421,0.191843,18.5754
-322,603,0.93042,-16.6873,0,0,0,0,0,0,0,-1,902,421,0.930445,16.6873
-315,603,5.52008,-13.3285,0,0,0,0,0,0,0,-1,909,421,5.52009,13.3285
-308,603,5.18152,-13.3872,0,0,0,0,0,0,0,-1,916,421,5.18154,13.3872
-301,603,4.70502,-13.6409,0,0,0,0,0,0,0,-1,923,421,4.70499,13.6409
-294,603,3.18243,-16.3761,0,0,0,0,0,0,0,-1,930,421,3.18246,16.3761
-287,603,3.21478,-16.935,0,0,0,0,0,0,0,-1,937,421,3.21481,16.935
-280,603,2.90149,-15.9375,0,0,0,0,0,0,0,-1,944,421,2.90147,15.9375
-273,603,3.01654,-16.9409,0,0,0,0,0,0,0,-1,951,421,3.01651,16.941
-266,603,2.92096,-17.3344,0,0,0,0,0,0,0,-1,958,421,2.92098,17.3344
-259,603,2.8476,-17.771,0.000672422,0.0103043,-0.00940589,0.0160555,-0.00507877,-1.022,0.0127386,0.0498025,965,421,2.84759,17.771
-252,603,2.92822,-18.4119,0.000619107,0.00954354,-0.00802572,0.0142641,-0.00410147,-1.03911,0.0111313,0.0429879,972,421,2.92819,18.4119
-245,603,2.95282,-18.6885,0.000541692,0.00896723,-0.00686365,0.0128079,-0.00329893,-1.06064,0.0098246,0.0311757,979,421,2.95283,18.6885
-238,603,2.97791,-18.9358,0.000399117,0.00889949,-0.00549622,0.0115971,-0.00229854,-1.11452,0.00860061,0.0211326,986,421,2.97788,18.9358
-231,603,2.96045,-19.2699,4.66141e-05,0.00876057,-0.00425597,0.0104943,-0.0016871,-1.18396,0.00762106,0.013209,993,421,2.96046,19.2699
-224,603,2.92877,-19.6245,-0.000212574,0.00872793,-0.003362,0.00985108,-0.00133573,-1.24838,0.0070549,0.0121568,1000,421,2.92877,19.6245
-217,603,2.92322,-19.9115,-0.0003717,0.00841446,-0.0026483,0.00915097,-0.0011082,-1.29955,0.0065016,0.0118449,1007,421,2.9232,19.9115
-210,603,2.92676,-20.2184,-0.00055637,0.00778993,-0.00204438,0.00826378,-0.00103023,-1.34303,0.00588275,0.0109548,1014,421,2.92674,20.2183
-203,603,2.92798,-20.5445,-0.00082227,0.00684542,-0.00130557,0.00706162,-0.00103847,-1.40669,0.00508934,0.0172925,1021,421,2.92797,20.5445
-196,603,2.94824,-20.8553,-0.000993047,0.00608143,-0.000762219,0.00616262,-0.00107424,-1.46468,0.00450935,0.0191995,1028,421,2.94819,20.8553
-189,603,2.92041,-21.0626,-0.00098767,0.00529057,-0.000574599,0.00534273,-0.00103983,-1.48028,0.00395426,0.0158216,1035,421,2.9204,21.0626
-182,603,2.87256,-21.3388,-0.000924879,0.00430081,-0.00043618,0.00433697,-0.000961036,-1.48809,0.00325924,0.0108875,1042,421,2.8726,21.3388
-175,603,2.84729,-21.6052,-0.000823143,0.00285029,-0.000306335,0.00287566,-0.000848514,-1.48816,0.00225383,0.0116527,1049,421,2.84731,21.6052
-168,603,2.82007,-21.8241,-0.000747947,0.0015195,-0.000167851,0.00153185,-0.000760305,-1.4973,0.00134814,0.0144184,1056,421,2.82004,21.8241
-161,603,2.80139,-22.111,-0.000537904,0.000431306,-0.000183157,0.000464763,-0.000571361,-1.39012,0.000599261,0.0135167,1063,421,2.80134,22.111
-154,603,2.79724,-22.3815,-0.000219238,-0.00040296,-0.000195049,-9.55015e-05,-0.000526697,-0.565323,0.000324023,0.012367,1070,421,2.79719,22.3815
-147,603,2.82947,-22.5939,9.1526e-05,-0.00118216,-0.000172344,0.000114434,-0.00120507,-0.132146,0.000844115,0.0130084,1077,421,2.8295,22.5939
-140,603,2.86853,-22.7841,0.000395787,-0.00178594,-0.000165341,0.000408246,-0.0017984,-0.0752119,0.00135566,0.0109392,1084,421,2.86855,22.7841
-133,603,2.84851,-23.0073,0.000685307,-0.00230129,-0.000156655,0.000693501,-0.00230948,-0.0522617,0.00181552,0.012458,1091,421,2.84857,23.0073
-126,603,2.82996,-23.2268,0.000942067,-0.00267103,-7.09214e-05,0.000943459,-0.00267242,-0.0196189,0.00216572,0.0116902,1098,421,2.82993,23.2268
-119,603,2.85706,-23.4392,0.00126583,-0.0025742,-0.000127073,0.00127003,-0.0025784,-0.0330435,0.00226429,0.0112284,1105,421,2.85703,23.4392
-112,603,2.86023,-23.6648,0.00154262,-0.00249321,-0.000132798,0.00154698,-0.00249757,-0.0328575,0.00235652,0.0152376,1112,421,2.8602,23.6648
-105,603,2.86169,-23.8585,0.00186337,-0.00232648,-0.000218421,0.00187473,-0.00233784,-0.0519433,0.00243702,0.0142344,1119,421,2.86169,23.8585
-98,603,2.8584,-24.0272,0.00226363,-0.0022031,-0.000254156,0.00227804,-0.00221751,-0.0566561,0.00259559,0.0119908,1126,421,2.85839,24.0272
-91,603,2.87439,-24.2046,0.00285781,-0.00176216,-0.000316253,0.00287936,-0.00178371,-0.0680305,0.00271688,0.00920823,1133,421,2.87441,24.2045
-84,603,2.91296,-24.4013,0.00342065,-0.00131547,-0.000480572,0.00346893,-0.00136374,-0.10011,0.00287703,0.0101401,1140,421,2.91302,24.4014
-77,603,2.96167,-24.602,0.0040474,-0.000859548,-0.000609989,0.00412209,-0.000934239,-0.121841,0.00310666,0.015389,1147,421,2.96163,24.602
-70,603,3.12024,-24.995,0.00527071,-0.00161517,-0.000670252,0.00533534,-0.00167981,-0.0961348,0.00422952,0.0454831,1154,421,3.12028,24.995
-63,603,2.98267,-24.8891,0,0,0,0,0,0,0,-1,1161,421,2.98262,24.8891
-56,603,2.99927,-24.9937,0,0,0,0,0,0,0,-1,1168,421,2.99923,24.9937
-49,603,3.05225,-25.1296,0,0,0,0,0,0,0,-1,1175,421,3.0522,25.1296
-42,603,3.05029,-25.2717,0,0,0,0,0,0,0,-1,1182,421,3.05031,25.2717
-35,603,2.97693,-25.33,0.00256171,-0.0180857,0.00424938,0.00340206,-0.0189261,0.195239,0.013891,0.0414466,1189,421,2.97698,25.33
-28,603,3.01917,-25.4172,0.00200733,-0.0202026,0.00542061,0.00325968,-0.021455,0.227051,0.0155045,0.0245891,1196,421,3.01921,25.4172
-21,603,3.11182,-25.5265,0.00195171,-0.021306,0.00671459,0.00375103,-0.0231054,0.261821,0.0167941,0.0215323,1203,421,3.11178,25.5265
-14,603,3.23706,-25.5856,0.0018426,-0.0217895,0.00809417,0.00434907,-0.024296,0.300299,0.0178248,0.0197862,1210,421,3.237,25.5856
-7,603,3.28357,-25.6404,0.00254208,-0.0210848,0.00957191,0.0059332,-0.024476,0.340481,0.018613,0.022356,1217,421,3.28362,25.6404
0,603,3.25232,-25.7321,0.00403953,-0.0201432,0.0111279,0.00838082,-0.0244845,0.371965,0.0197195,0.0272465,1224,421,3.2523,25.7321
7,603,3.29382,-25.7147,0.00503824,-0.0188343,0.0124804,0.0103714,-0.0241675,0.403839,0.0204645,0.0322175,1231,421,3.29379,25.7147
14,603,3.38379,-25.6554,0.00622524,-0.0172053,0.0140089,0.0127719,-0.0237519,0.437163,0.0214022,0.028338,1238,421,3.38373,25.6554
21,603,3.41931,-25.7149,0.00753301,-0.0158876,0.0154334,0.0151959,-0.0235505,0.460855,0.0225429,0.0230028,1245,421,3.41926,25.7149
28,603,3.54138,-25.7286,0.00866293,-0.0148661,0.0163852,0.0170696,-0.0232728,0.474047,0.0233833,0.0266526,1252,421,3.54133,25.7286
35,603,3.62183,-25.7143,0.00915531,-0.0139449,0.0170408,0.0181915,-0.022981,0.487566,0.0238245,0.0341217,1259,421,3.62183,25.7143
42,603,3.67566,-25.8505,0.00891523,-0.0132243,0.0175989,0.0186363,-0.0229454,0.504661,0.0240501,0.0328121,1266,421,3.67563,25.8505
49,603,3.64819,-25.9629,0.00847677,-0.0132366,0.0173246,0.0180653,-0.0228251,0.505501,0.0236614,0.0180458,1273,421,3.64822,25.9629
56,603,3.53625,-25.8977,0.00781,-0.0133977,0.0168052,0.0170771,-0.0226648,0.503952,0.0230205,0.0331691,1280,421,3.53627,25.8977
63,603,3.55518,-25.5517,0.00648494,-0.0138402,0.0157646,0.0150787,-0.022434,0.499097,0.0217963,0.0498598,1287,421,3.5552,25.5517
70,603,3.67786,-25.8321,0,0,0,0,0,0,0,-1,1294,421,3.67787,25.8321
77,603,3.80908,-25.7401,0,0,0,0,0,0,0,-1,1301,421,3.80908,25.7401
84,603,4.05615,-25.6999,0.00336692,-0.0112049,0.0104731,0.00883913,-0.0166771,0.481487,0.0149617,0.0493746,1308,421,4.05614,25.6999
91,603,4.10205,-25.6613,0.00437364,-0.00963917,0.00859977,0.00845983,-0.0137254,0.443572,0.0129283,0.0499584,1315,421,4.10201,25.6613
98,603,4.09058,-25.6795,0.00491066,-0.0073061,0.00620985,0.00751288,-0.00990831,0.396818,0.0100898,0.0482752,1322,421,4.09061,25.6795
105,603,4.31958,-25.6136,0.00533253,-0.0046525,0.00374127,0.00657879,-0.00589876,0.321551,0.00720748,0.0426047,1329,421,4.31952,25.6136
112,603,4.20911,-25.5679,0.00712873,-0.00213201,0.00182131,0.00747405,-0.00247733,0.187376,0.00598198,0.0361088,1336,421,4.20916,25.5679
119,603,4.16504,-25.5259,0.00907744,0.000572234,-0.00020759,0.00908251,0.000567171,-0.024388,0.00587508,0.0382835,1343,421,4.16503,25.5259
126,603,4.18054,-25.3894,0.010983,0.00327841,-0.00203101,0.0114856,0.0027758,-0.242595,0.00691991,0.0450568,1350,421,4.18054,25.3894
133,603,4.26318,-25.2957,0.0125425,0.00553744,-0.00341658,0.0139329,0.00414705,-0.386488,0.00826085,0.0375064,1357,421,4.26321,25.2957
140,603,4.30371,-25.207,0.013557,0.00705285,-0.00464371,0.0159741,0.00463569,-0.47993,0.00948943,0.0262007,1364,421,4.30377,25.207
147,603,4.17188,-25.1498,0.014121,0.00788935,-0.00568037,0.017484,0.00452636,-0.534543,0.0104783,0.0216081,1371,421,4.17187,25.1498
154,603,4.14966,-25.1049,0.0136583,0.0078385,-0.00618076,0.0175799,0.0039169,-0.565391,0.010657,0.0292852,1378,421,4.14965,25.1049
161,603,4.27209,-24.9935,0.0118769,0.00687746,-0.00662747,0.0164604,0.00229397,-0.605059,0.0102945,0.0310943,1385,421,4.27215,24.9935
168,603,4.31152,-24.855,0.00992163,0.0057642,-0.00683071,0.0149829,0.000702914,-0.637691,0.00976274,0.0295235,1392,421,4.31154,24.855
175,603,4.47473,-24.7348,0.00835635,0.00406991,-0.00661749,0.013169,-0.000742767,-0.628792,0.00903712,0.0333616,1399,421,4.47478,24.7348
182,603,4.57263,-24.5902,0.00660521,0.00217781,-0.00594152,0.010732,-0.001949,-0.607074,0.00788505,0.040552,1406,421,4.57268,24.5902
189,603,4.52295,-24.3865,0.00158666,7.40559e-05,-0.00587719,0.00675601,-0.0050953,-0.721408,0.00686471,0.0361988,1413,421,4.5229,24.3865
196,603,4.43567,-24.1763,-0.00199681,0.000291804,-0.00488382,0.00416358,-0.00586859,-0.900475,0.00581989,0.0275661,1420,421,4.43572,24.1763
203,603,4.42151,-24.0635,-0.00045661,-0.000246518,-0.00276856,0.00241899,-0.00312212,-0.80436,0.00320773,0.0158859,1427,421,4.42153,24.0635
210,603,4.43726,-23.9622,0.00235106,8.09003e-05,-0.000709334,0.00255447,-0.000122512,-0.279271,0.00174525,0.0122753,1434,421,4.43722,23.9622
217,603,4.47717,-23.7287,0.0029044,0.00181384,-0.000383448,0.00302573,0.00169252,-0.30644,0.001751,0.0132289,1441,421,4.47719,23.7287
224,603,4.49707,-23.5086,0.00262194,0.00268189,6.66304e-05,0.00272498,0.00257885,0.996755,0.00176996,0.0169588,1448,421,4.49711,23.5086
231,603,4.48926,-23.3099,0.00228399,0.00338022,0.000467107,0.00355226,0.00211195,1.21791,0.00206308,0.0153506,1455,421,4.48931,23.3099
238,603,4.5238,-23.0967,0.00212627,0.00383553,0.000783541,0.00414035,0.00182145,1.19978,0.00239618,0.0109962,1462,421,4.52386,23.0967
245,603,4.5498,-22.8772,0.00199077,0.00411737,0.000943013,0.0044753,0.00163284,1.20804,0.00261508,0.0118165,1469,421,4.54984,22.8772
252,603,4.55969,-22.6413,0.0017733,0.00415219,0.00101506,0.00452643,0.00139906,1.21757,0.00267608,0.0108704,1476,421,4.55975,22.6413
259,603,4.54858,-22.3857,0.00152144,0.00405739,0.00105563,0.0044393,0.00113953,1.22366,0.00266226,0.0101206,1483,421,4.54861,22.3857
266,603,4.5343,-22.1337,0.00126008,0.00385423,0.0010645,0.00423512,0.000879187,1.22718,0.00258076,0.0112577,1490,421,4.53425,22.1337
273,603,4.53796,-21.8856,0.00103318,0.00367823,0.00108916,0.00406899,0.000642423,1.22633,0.0025259,0.0107453,1497,421,4.538,21.8856
280,603,4.54102,-21.6008,0.000853103,0.00341937,0.00109951,0.00382601,0.00044646,1.21656,0.00241565,0.0118936,1504,421,4.54103,21.6008
287,603,4.5415,-21.3234,0.000812275,0.00315397,0.0012187,0.00367312,0.000293121,1.16809,0.00235712,0.0109481,1511,421,4.54153,21.3234
294,603,4.53406,-21.0624,0.000753355,0.00301308,0.00135187,0.00364508,0.000121356,1.13349,0.00239063,0.00925101,1518,421,4.53408,21.0624
301,603,4.52075,-20.7953,0.000725631,0.00284445,0.00152863,0.0036449,-7.48117e-05,1.08842,0.00245525,0.0109776,1525,421,4.52073,20.7953
308,603,4.52893,-20.5027,0.000820602,0.00281427,0.0018029,0.00387757,-0.000242695,1.03793,0.00266962,0.0158014,1532,421,4.52898,20.5027
315,603,4.52612,-20.2289,0.000963789,0.00282265,0.00209909,0.00418887,-0.000402435,0.993814,0.00293594,0.0156132,1539,421,4.52616,20.2288
322,603,4.51965,-19.9276,0.00105524,0.00289743,0.0024419,0.00458618,-0.000633515,0.965749,0.00328903,0.0156618,1546,421,4.51967,19.9276
329,603,4.47705,-19.6015,0.00106588,0.00295146,0.00277812,0.0049424,-0.00092507,0.948981,0.00364266,0.0114536,1553,421,4.477,19.6015
336,603,4.47681,-19.3148,0.00101159,0.00306666,0.00307824,0.00528433,-0.00120609,0.946486,0.00398621,0.00939611,1560,421,4.47679,19.3148
343,603,4.46204,-18.9963,0.000940231,0.00318931,0.00343179,0.00567611,-0.00154657,0.943726,0.00439134,0.0113905,1567,421,4.4621,18.9963
350,603,4.43323,-18.6566,0.000898424,0.0039381,0.00394193,0.00664304,-0.00180651,0.969395,0.00513784,0.024442,1574,421,4.43321,18.6566
357,603,4.45325,-18.2411,0.000577734,0.00437222,0.00432318,0.00719614,-0.00224619,0.992171,0.00569576,0.0364912,1581,421,4.45326,18.2411
364,603,4.40601,-17.7473,0,0,0,0,0,0,0,-1,1588,421,4.40603,17.7473
371,603,4.42175,-17.4013,0,0,0,0,0,0,0,-1,1595,421,4.42172,17.4013
378,603,4.30566,-17.3418,0,0,0,0,0,0,0,-1,1602,421,4.30567,17.3418
385,603,4.14319,-16.8591,0,0,0,0,0,0,0,-1,1609,421,4.14319,16.8591
392,603,4.22693,-16.4406,0,0,0,0,0,0,0,-1,1616,421,4.22698,16.4406
399,603,2.38013,-5.37076,0,0,0,0,0,0,0,-1,1623,421,2.38016,5.37075
406,603,3.01917,-2.37219,0,0,0,0,0,0,0,-1,1630,421,3.01915,2.37219
413,603,2.38928,-2.41275,0,0,0,0,0,0,0,-1,1637,421,2.38926,2.41274
420,603,2.74866,-2.30066,0,0,0,0,0,0,0,-1,1644,421,2.74867,2.30065
427,603,7.11548,-3.35352,0,0,0,0,0,0,0,-1,1651,421,7.11549,3.35351
434,603,7.32153,-4.50525,0,0,0,0,0,0,0,-1,1658,421,7.32149,4.50525
441,603,3.18213,-0.250946,0,0,0,0,0,0,0,-1,1665,421,3.18212,0.250944
448,603,2.95667,-0.066925,0,0,0,0,0,0,0,-1,1672,421,2.95662,0.0669226
455,603,0,0,0,0,0,0,0,0,0,-1,1679,421,0,0
462,603,0,0,0,0,0,0,0,0,0,-1,1686,421,0,0
469,603,0,0,0,0,0,0,0,0,0,-1,1693,421,0,0
476,603,0,0,0,0,0,0,0,0,0,-1,1700,421,0,0
483,603,0,0,0,0,0,0,0,0,0,-1,1707,421,0,0
490,603,0,0,0,0,0,0,0,0,0,-1,1714,421,0,0
497,603,0,0,0,0,0,0,0,0,0,-1,1721,421,0,0
504,603,0,0,0,0,0,0,0,0,0,-1,1728,421,0,0
511,603,0,0,0,0,0,0,0,0,0,-1,1735,421,0,0
518,603,0,0,0,0,0,0,0,0,0,-1,1742,421,0,0
525,603,0,0,0,0,0,0,0,0,0,-1,1749,421,0,0
532,603,0,0,0,0,0,0,0,0,0,-1,1756,421,0,0
539,603,0,0,0,0,0,0,0,0,0,-1,1763,421,0,0
546,603,0,0,0,0,0,0,0,0,0,-1,1770,421,0,0
553,603,0,0,0,0,0,0,0,0,0,-1,1777,421,0,0
560,603,0,0,0,0,0,0,0,0,0,-1,1784,421,0,0
567,603,0,0,0,0,0,0,0,0,0,-1,1791,421,0,0
574,603,0,0,0,0,0,0,0,0,0,-1,1798,421,0,0
581,603,0,0,0,0,0,0,0,0,0,-1,1805,421,0,0
588,603,0,0,0,0,0,0,0,0,0,-1,1812,421,0,0
595,603,0,0,0,0,0,0,0,0,0,-1,1819,421,0,0
602,603,0,0,0,0,0,0,0,0,0,-1,1826,421,0,0
609,603,0,0,0,0,0,0,0,0,0,-1,1833,421,0,0
616,603,0,0,0,0,0,0,0,0,0,-1,1840,421,0,0
623,603,0,0,0,0,0,0,0,0,0,-1,1847,421,0,0
630,603,0,0,0,0,0,0,0,0,0,-1,1854,421,0,0
637,603,0,0,0,0,0,0,0,0,0,-1,1861,421,0,0
644,603,0,0,0,0,0,0,0,0,0,-1,1868,421,0,0
651,603,0,0,0,0,0,0,0,0,0,-1,1875,421,0,0
658,603,0,0,0,0,0,0,0,0,0,-1,1882,421,0,0
665,603,0,0,0,0,0,0,0,0,0,-1,1889,421,0,0
672,603,0,0,0,0,0,0,0,0,0,-1,1896,421,0,0
679,603,0,0,0,0,0,0,0,0,0,-1,1903,421,0,0
686,603,0,0,0,0,0,0,0,0,0,-1,1910,421,0,0
693,603,0,0,0,0,0,0,0,0,0,-1,1917,421,0,0
700,603,0,0,0,0,0,0,0,0,0,-1,1924,421,0,0
707,603,0,0,0,0,0,0,0,0,0,-1,1931,421,0,0
714,603,0,0,0,0,0,0,0,0,0,-1,1938,421,0,0
721,603,0,0,0,0,0,0,0,0,0,-1,1945,421,0,0
728,603,0,0,0,0,0,0,0,0,0,-1,1952,421,0,0
735,603,0,0,0,0,0,0,0,0,0,-1,1959,421,0,0
742,603,0,0,0,0,0,0,0,0,0,-1,1966,421,0,0
749,603,0,0,0,0,0,0,0,0,0,-1,1973,421,0,0
756,603,0,0,0,0,0,0,0,0,0,-1,1980,421,0,0
763,603,0,0,0,0,0,0,0,0,0,-1,1987,421,0,0
770,603,0,0,0,0,0,0,0,0,0,-1,1994,421,0,0
777,603,0,0,0,0,0,0,0,0,0,-1,2001,421,0,0
784,603,0,0,0,0,0,0,0,0,0,-1,2008,421,0,0
791,603,0,0,0,0,0,0,0,0,0,-1,2015,421,0,0
798,603,0,0,0,0,0,0,0,0,0,-1,2022,421,0,0
805,603,0,0,0,0,0,0,0,0,0,-1,2029,421,0,0
812,603,0,0,0,0,0,0,0,0,0,-1,2036,421,0,0
-700,596,0,0,0,0,0,0,0,0,0,-1,524,428,0,0
-693,596,0,0,0,0,0,0,0,0,0,-1,531,428,0,0
-686,596,0,0,0,0,0,0,0,0,0,-1,538,428,0,0
-679,596,0,0,0,0,0,0,0,0,0,-1,545,428,0,0
-672,596,0,0,0,0,0,0,0,0,0,-1,552,428,0,0
-665,596,0,0,0,0,0,0,0,0,0,-1,559,428,0,0
-658,596,0,0,0,0,0,0,0,0,0,-1,566,428,0,0
-651,596,0,0,0,0,0,0,0,0,0,-1,573,428,0,0
-644,596,0,0,0,0,0,0,0,0,0,-1,580,428,0,0
-637,596,0,0,0,0,0,0,0,0,0,-1,587,428,0,0
-630,596,0,0,0,0,0,0,0,0,0,-1,594,428,0,0
-623,596,0,0,0,0,0,0,0,0,0,-1,601,428,0,0
-616,596,0,0,0,0,0,0,0,0,0,-1,608,428,0,0
-609,596,0,0,0,0,0,0,0,0,0,-1,615,428,0,0
-602,596,0,0,0,0,0,0,0,0,0,-1,622,428,0,0
-595,596,0,0,0,0,0,0,0,0,0,-1,629,428,0,0
-588,596,0,0,0,0,0,0,0,0,0,-1,636,428,0,0
-581,596,0,0,0,0,0,0,0,0,0,-1,643,428,0,0
-574,596,0,0,0,0,0,0,0,0,0,-1,650,428,0,0
-567,596,0,0,0,0,0,0,0,0,0,-1,657,428,0,0
-560,596,0,0,0,0,0,0,0,0,0,-1,664,428,0,0
-553,596,0,0,0,0,0,0,0,0,0,-1,671,428,0,0
-546,596,0,0,0,0,0,0,0,0,0,-1,678,428,0,0
-539,596,0,0,0,0,0,0,0,0,0,-1,685,428,0,0
-532,596,0,0,0,0,0,0,0,0,0,-1,692,428,0,0
-525,596,0,0,0,0,0,0,0,0,0,-1,699,428,0,0
-518,596,0,0,0,0,0,0,0,0,0,-1,706,428,0,0
-511,596,0,0,0,0,0,0,0,0,0,-1,713,428,0,0
-504,596,0,0,0,0,0,0,0,0,0,-1,720,428,0,0
-497,596,0,0,0,0,0,0,0,0,0,-1,727,428,0,0
-490,596,0,0,0,0,0,0,0,0,0,-1,734,428,0,0
-483,596,0,0,0,0,0,0,0,0,0,-1,741,428,0,0
-476,596,0,0,0,0,0,0,0,0,0,-1,748,428,0,0
-469,596,0,0,0,0,0,0,0,0,0,-1,755,428,0,0
-462,596,0,0,0,0,0,0,0,0,0,-1,762,428,0,0
-455,596,0,0,0,0,0,0,0,0,0,-1,769,428,0,0
-448,596,0,0,0,0,0,0,0,0,0,-1,776,428,0,0
-441,596,0,0,0,0,0,0,0,0,0,-1,783,428,0,0
-434,596,0,0,0,0,0,0,0,0,0,-1,790,428,0,0
-427,596,0,0,0,0,0,0,0,0,0,-1,797,428,0,0
-420,596,0,0,0,0,0,0,0,0,0,-1,804,428,0,0
-413,596,0,0,0,0,0,0,0,0,0,-1,811,428,0,0
-406,596,0,0,0,0,0,0,0,0,0,-1,818,428,0,0
-399,596,0,0,0,0,0,0,0,0,0,-1,825,428,0,0
-392,596,0,0,0,0,0,0,0,0,0,-1,832,428,0,0
-385,596,0,0,0,0,0,0,0,0,0,-1,839,428,0,0
-378,596,0,0,0,0,0,0,0,0,0,-1,846,428,0,0
-371,596,0,0,0,0,0,0,0,0,0,-1,853,428,0,0
-364,596,0,0,0,0,0,0,0,0,0,-1,860,428,0,0
-357,596,0,0,0,0,0,0,0,0,0,-1,867,428,0,0
-350,596,0,0,0,0,0,0,0,0,0,-1,874,428,0,0
-343,596,0,0,0,0,0,0,0,0,0,-1,881,428,0,0
-336,596,-0.315308,-18.9491,0,0,0,0,0,0,0,-1,888,428,-0.315329,18.9491
-329,596,0.0933228,-17.6538,0,0,0,0,0,0,0,-1,895,428,0.0933086,17.6539
-322,596,0.433533,-16.0376,0,0,0,0,0,0,0,-1,902,428,0.433533,16.0376
-315,596,3.21301,-18.3514,0,0,0,0,0,0,0,-1,909,428,3.21302,18.3514
-308,596,2.63367,-18.8322,0,0,0,0,0,0,0,-1,916,428,2.63367,18.8322
-301,596,2.76062,-15.1423,0,0,0,0,0,0,0,-1,923,428,2.76063,15.1423
-294,596,2.47449,-15.0011,0,0,0,0,0,0,0,-1,930,428,2.47449,15.0011
-287,596,2.77002,-16.1777,0,0,0,0,0,0,0,-1,937,428,2.77004,16.1777
-280,596,2.84332,-16.9821,0,0,0,0,0,0,0,-1,944,428,2.84331,16.9821
-273,596,2.7746,-17.1505,-0.00218583,0.00739862,-0.0107282,0.0143563,-0.00914352,-0.995448,0.0136784,0.0461828,951,428,2.77461,17.1504
-266,596,2.69678,-17.5178,-0.00104214,0.00713652,-0.00896799,0.0129035,-0.00680915,-0.999311,0.011561,0.0410711,958,428,2.69678,17.5178
-259,596,2.62787,-17.8882,0.000349075,0.00866384,-0.00767169,0.0132322,-0.00421929,-1.0337,0.010514,0.0336532,965,428,2.62789,17.8881
-252,596,2.69928,-18.3386,0.000454011,0.00794783,-0.00658297,0.0117755,-0.0033737,-1.04412,0.00918386,0.016955,972,428,2.69927,18.3386
-245,596,2.70477,-18.7057,0.000451264,0.00729661,-0.00563994,0.0104712,-0.00272331,-1.05812,0.00804373,0.0132767,979,428,2.7048,18.7056
-238,596,2.70416,-19.0218,0.000388565,0.00697389,-0.00456199,0.00930736,-0.00194491,-1.09799,0.00694459,0.0126553,986,428,2.70413,19.0218
-231,596,2.67053,-19.3515,0.000127302,0.00654546,-0.00349872,0.00808393,-0.00141117,-1.15652,0.00591605,0.0130304,993,428,2.67051,19.3515
-224,596,2.64032,-19.6606,-4.43282e-05,0.00627944,-0.00269492,0.00727208,-0.00103697,-1.21788,0.0052281,0.0132784,1000,428,2.6403,19.6605
-217,596,2.64728,-19.9448,-0.000135825,0.00579772,-0.00201769,0.00641882,-0.000756925,-1.27217,0.00455255,0.0145278,1007,428,2.6473,19.9448
-210,596,2.67328,-20.2498,-0.000257496,0.00513026,-0.0014185,0.00548091,-0.000608143,-1.32846,0.0038726,0.0125021,1014,428,2.67325,20.2498
-203,596,2.65222,-20.5273,-0.000434741,0.00429003,-0.000792772,0.0044195,-0.000564212,-1.40891,0.00315129,0.0157063,1021,428,2.65222,20.5274
-196,596,2.66296,-20.8132,-0.000568897,0.00357437,-0.000379011,0.00360876,-0.000603282,-1.48032,0.0026301,0.0153498,1028,428,2.66295,20.8132
-189,596,2.62842,-21.0728,-0.000558579,0.00283913,-0.000235934,0.00285543,-0.000574884,-1.5018,0.00212138,0.0123661,1035,428,2.62842,21.0728
-182,596,2.59045,-21.3311,-0.000488617,0.00196053,-0.00016179,0.00197117,-0.000499259,-1.50512,0.00150833,0.0117223,1042,428,2.5904,21.3311
-175,596,2.59375,-21.5891,-0.00037044,0.000682405,-0.000129608,0.000698125,-0.000386161,-1.45009,0.000634591,0.0134702,1049,428,2.59374,21.5891
-168,596,2.60645,-21.8192,-0.000261508,-0.000525657,-0.000121271,-0.000214278,-0.000572888,-0.37139,0.000334238,0.0159987,1056,428,2.60645,21.8193
-161,596,2.59094,-22.0965,-6.73956e-05,-0.00150915,-0.000244705,-2.69945e-05,-0.00154956,-0.163624,0.00102416,0.0152505,1063,428,2.59088,22.0965
-154,596,2.57947,-22.3849,0.000213599,-0.00232459,-0.000332641,0.000256469,-0.00236746,-0.128171,0.00167037,0.0129505,1070,428,2.57953,22.3849
-147,596,2.60974,-22.5892,0.000525658,-0.00311507,-0.000372411,0.000563362,-0.00315277,-0.100898,0.00231262,0.0132836,1077,428,2.60971,22.5892
-140,596,2.63501,-22.7896,0.00083021,-0.00375092,-0.000402575,0.000865318,-0.00378603,-0.0869883,0.00285649,0.0134668,1084,428,2.63507,22.7896
-133,596,2.63013,-23.0289,0.00109653,-0.00431793,-0.000368884,0.00112155,-0.00434295,-0.0677124,0.00333266,0.0148706,1091,428,2.63007,23.0289
-126,596,2.61157,-23.2322,0.00131597,-0.00479621,-0.000212515,0.00132335,-0.00480359,-0.0347132,0.00372275,0.0119853,1098,428,2.61153,23.2322
-119,596,2.65808,-23.4376,0.00162376,-0.00478124,-0.000230889,0.00163208,-0.00478955,-0.0359859,0.00385403,0.0140537,1105,428,2.65805,23.4376
-112,596,2.66333,-23.635,0.00189694,-0.00474032,-0.000209193,0.00190352,-0.00474691,-0.0314764,0.00395488,0.0151209,1112,428,2.66336,23.635
-105,596,2.6554,-23.8483,0.00224689,-0.00454862,-0.000281417,0.00225852,-0.00456026,-0.0413179,0.00401089,0.0155341,1119,428,2.65544,23.8483
-98,596,2.68689,-24.0286,0.00277474,-0.004391,-0.000141687,0.00277754,-0.0043938,-0.0197625,0.00417528,0.0103994,1126,428,2.68693,24.0286
-91,596,2.69812,-24.2575,0.0036106,-0.00357937,-2.55709e-05,0.00361069,-0.00357946,-0.00355641,0.00415125,0.0167822,1133,428,2.69811,24.2575
-84,596,2.79944,-24.5832,0,0,0,0,0,0,0,-1,1140,428,2.79949,24.5832
-77,596,2.81665,-24.605,0,0,0,0,0,0,0,-1,1147,428,2.8167,24.605
-70,596,2.96289,-25.1733,0,0,0,0,0,0,0,-1,1154,428,2.96284,25.1733
-63,596,1.95569,-12.2758,0,0,0,0,0,0,0,-1,1161,428,1.95563,12.2759
-56,596,1.60107,-10.5827,0,0,0,0,0,0,0,-1,1168,428,1.60108,10.5827
-49,596,1.59473,-10.0393,0,0,0,0,0,0,0,-1,1175,428,1.59472,10.0393
-42,596,1.99585,-6.6246,0,0,0,0,0,0,0,-1,1182,428,1.99586,6.62459
-35,596,2.58875,-25.1338,0,0,0,0,0,0,0,-1,1189,428,2.58876,25.1337
-28,596,2.79602,-25.2853,0,0,0,0,0,0,0,-1,1196,428,2.79598,25.2853
-21,596,2.95313,-25.0147,0.00065421,-0.027647,0.00886462,0.00320154,-0.0301943,0.27982,0.0212772,0.0448344,1203,428,2.95318,25.0147
-14,596,3.22986,-25.2371,0.000539292,-0.027496,0.01064,0.00412006,-0.0310768,0.324632,0.0222189,0.0471763,1210,428,3.2299,25.2371
-7,596,3.23828,-25.4877,0,0,0,0,0,0,0,-1,1217,428,3.23833,25.4877
0,596,3.23889,-25.7057,0,0,0,0,0,0,0,-1,1224,428,3.23889,25.7057
7,596,3.20349,-25.5161,0.00565264,-0.0218521,0.0167311,0.013558,-0.0297575,0.441403,0.0255845,0.0472114,1231,428,3.20355,25.5162
14,596,3.13928,-25.3152,0.00738684,-0.019387,0.0188645,0.0171317,-0.0291318,0.476817,0.0270081,0.0468998,1238,428,3.13926,25.3152
21,596,3.19238,-25.225,0.00919582,-0.0175217,0.0208493,0.0205989,-0.0289248,0.500483,0.0287269,0.0473559,1245,428,3.1924,25.225
28,596,3.10754,-25.2279,0.0107356,-0.0161491,0.0222114,0.0232556,-0.0286691,0.51328,0.030033,0.0460686,1252,428,3.10749,25.2279
35,596,3.66333,-25.3625,0.011483,-0.0150392,0.0232142,0.0249568,-0.028513,0.525892,0.0308935,0.0455197,1259,428,3.66333,25.3625
42,596,3.65625,-25.318,0.0113281,-0.0141867,0.0240953,0.0258348,-0.0286935,0.541931,0.0314963,0.0478093,1266,428,3.6562,25.3179
49,596,3.52588,-25.5643,0.0108676,-0.0143165,0.0238973,0.0252874,-0.0287364,0.542922,0.0312118,0.0456822,1273,428,3.52592,25.5643
56,596,3.51392,-25.7443,0.0100254,-0.0147194,0.0233591,0.0240864,-0.0287803,0.541852,0.0305627,0.0421373,1280,428,3.5139,25.7443
63,596,3.91528,-25.5326,0.00819952,-0.0156113,0.0220542,0.0213565,-0.0287683,0.537899,0.0290448,0.0457736,1287,428,3.91525,25.5326
70,596,4.31836,-25.4084,0.00641261,-0.0158311,0.0199157,0.0181015,-0.02752,0.530746,0.026526,0.0444531,1294,428,4.3183,25.4084
77,596,4.31787,-25.4236,0.00455052,-0.0147533,0.0172137,0.0146336,-0.0248364,0.529883,0.0230404,0.0417722,1301,428,4.31793,25.4236
84,596,4.33435,-25.4246,0.00468045,-0.0129324,0.0146475,0.0129651,-0.021217,0.514739,0.0199258,0.0424789,1308,428,4.33436,25.4246
91,596,4.23474,-25.2667,0.00625585,-0.0110348,0.0120349,0.0124288,-0.0172078,0.473929,0.0171847,0.0451382,1315,428,4.23472,25.2667
98,596,4.06885,-25.3372,0.00719317,-0.0079622,0.00851796,0.0110162,-0.0117853,0.421875,0.0131669,0.049082,1322,428,4.06886,25.3372
105,596,4.00183,-25.1769,0.00774357,-0.00442165,0.00498666,0.00952638,-0.00620446,0.343356,0.00914946,0.0491281,1329,428,4.0018,25.1769
112,596,4.06067,-25.0402,0,0,0,0,0,0,0,-1,1336,428,4.06066,25.0402
119,596,4.43445,-24.478,0,0,0,0,0,0,0,-1,1343,428,4.43441,24.478
126,596,4.45557,-25.0235,0,0,0,0,0,0,0,-1,1350,428,4.45554,25.0235
133,596,4.49854,-24.9724,0,0,0,0,0,0,0,-1,1357,428,4.49852,24.9724
140,596,4.56421,-24.8661,0,0,0,0,0,0,0,-1,1364,428,4.56424,24.8661
147,596,3.90796,-24.7579,0,0,0,0,0,0,0,-1,1371,428,3.90792,24.7579
154,596,4.07227,-24.6796,0.0131121,0.0128219,-0.00925281,0.0222209,0.00371305,-0.777557,0.0137445,0.0496008,1378,428,4.07228,24.6796
161,596,4.27234,-24.6046,0.00969245,0.0119355,-0.00986748,0.020745,0.000882984,-0.841986,0.0135453,0.0488938,1385,428,4.27229,24.6046
168,596,4.64758,-24.6874,0,0,0,0,0,0,0,-1,1392,428,4.64758,24.6874
175,596,4.79285,-24.5226,0,0,0,0,0,0,0,-1,1399,428,4.79282,24.5226
182,596,4.84827,-24.4953,0,0,0,0,0,0,0,-1,1406,428,4.84827,24.4953
189,596,4.7373,-24.3451,0,0,0,0,0,0,0,-1,1413,428,4.7373,24.3451
196,596,4.64648,-23.9859,0,0,0,0,0,0,0,-1,1420,428,4.64652,23.9859
203,596,4.57617,-24.0194,0,0,0,0,0,0,0,-1,1427,428,4.5762,24.0194
210,596,4.61572,-23.9964,0,0,0,0,0,0,0,-1,1434,428,4.61571,23.9964
217,596,4.68054,-23.7303,0,0,0,0,0,0,0,-1,1441,428,4.68051,23.7303
224,596,4.64233,-23.597,0.00365537,0.00321193,-9.98874e-06,0.00365559,0.00321171,-0.0225105,0.0023034,0.0249371,1448,428,4.64236,23.5969
231,596,4.74756,-23.3113,0.00325416,0.00400749,0.000458527,0.00422422,0.00303742,1.12925,0.00251566,0.0141077,1455,428,4.74758,23.3113
238,596,4.75891,-23.0859,0.00308909,0.00440674,0.000807236,0.00478988,0.00270596,1.12765,0.0027732,0.0143554,1462,428,4.75896,23.0859
245,596,4.78406,-22.8718,0.00296434,0.00458055,0.000957134,0.0050251,0.00251979,1.13598,0.00290124,0.0124515,1469,428,4.78404,22.8718
252,596,4.8103,-22.6361,0.00272653,0.00433835,0.000973297,0.00479609,0.00226879,1.1312,0.00277036,0.0100106,1476,428,4.81026,22.6361
259,596,4.80298,-22.3819,0.00240846,0.00394008,0.000922669,0.00437335,0.00197519,1.13178,0.00252889,0.00851491,1483,428,4.80296,22.3819
266,596,4.7782,-22.1299,0.00209273,0.00347253,0.00086075,0.00388574,0.00167952,1.12323,0.00225029,0.00962988,1490,428,4.77817,22.1299
273,596,4.79358,-21.8896,0.00180857,0.00306954,0.000816987,0.00347103,0.00140708,1.11403,0.00201593,0.0116264,1497,428,4.79358,21.8896
280,596,4.82007,-21.6332,0.00152766,0.00256076,0.000730465,0.00293886,0.00114956,1.09315,0.0017101,0.0120508,1504,428,4.82009,21.6332
287,596,4.81079,-21.3524,0.00137714,0.00216258,0.000755776,0.00262158,0.000918144,1.02501,0.00153604,0.0104831,1511,428,4.81084,21.3524
294,596,4.77869,-21.0675,0.00122517,0.00194748,0.000808437,0.00247177,0.000700885,0.995467,0.00147097,0.00821786,1518,428,4.77864,21.0675
301,596,4.78235,-20.7914,0.00106892,0.00170169,0.000901436,0.00234065,0.000429959,0.95417,0.00143869,0.00948011,1525,428,4.78237,20.7914
308,596,4.80127,-20.5144,0.00104877,0.00165559,0.00110233,0.0024955,0.000208854,0.919695,0.00159861,0.0150211,1532,428,4.8013,20.5144
315,596,4.79224,-20.2262,0.001082,0.00171867,0.00133003,0.00276793,3.27453e-05,0.902861,0.00183447,0.0153245,1539,428,4.79225,20.2262
322,596,4.78223,-19.9031,0.00105733,0.00185419,0.00160753,0.00311193,-0.000200412,0.906876,0.00214455,0.0129802,1546,428,4.78222,19.9031
329,596,4.77161,-19.6006,0.000981362,0.00199301,0.00190005,0.00345341,-0.00047904,0.915489,0.00247744,0.0102319,1553,428,4.77156,19.6006
336,596,4.7561,-19.3318,0.000871403,0.00217775,0.00218025,0.00380056,-0.000751409,0.930937,0.00281777,0.0094091,1560,428,4.75608,19.3317
343,596,4.75415,-19.0288,0.000732596,0.00238237,0.00249171,0.00418219,-0.00106722,0.945247,0.00320367,0.0115052,1567,428,4.75412,19.0288
350,596,4.74866,-18.6795,0.000616929,0.00306323,0.0029182,0.00500425,-0.00132409,0.983849,0.00385411,0.0123479,1574,428,4.74863,18.6795
357,596,4.72961,-18.3234,0.000315809,0.0035503,0.00327357,0.00558432,-0.00171821,1.01483,0.00440868,0.0101204,1581,428,4.72966,18.3234
364,596,4.71167,-17.9521,-0.000267426,0.00418976,0.00346045,0.00607715,-0.00215482,1.07148,0.00492929,0.0145501,1588,428,4.71168,17.9521
371,596,4.71716,-17.6372,-0.000761386,0.0050546,0.00378818,0.00692225,-0.00262903,1.11275,0.0056971,0.0201519,1595,428,4.71711,17.6372
378,596,4.66003,-17.3799,-0.00138884,0.00615708,0.00404549,0.00791596,-0.00314772,1.16068,0.00658239,0.0260662,1602,428,4.66003,17.3799
385,596,4.58691,-16.9552,-0.00229765,0.00717661,0.00400336,0.00864168,-0.00376272,1.21997,0.00734402,0.0349234,1609,428,4.5869,16.9552
392,596,4.58923,-16.4817,-0.00308487,0.00874606,0.00399818,0.00997049,-0.0043093,1.27362,0.00845765,0.0440533,1616,428,4.5892,16.4817
399,596,4.48315,-16.1725,0,0,0,0,0,0,0,-1,1623,428,4.48316,16.1725
406,596,3.60034,-10.1525,0,0,0,0,0,0,0,-1,1630,428,3.60028,10.1525
413,596,3.39124,-2.63528,0,0,0,0,0,0,0,-1,1637,428,3.39122,2.6353
420,596,2.6344,-3.06308,0,0,0,0,0,0,0,-1,1644,428,2.63439,3.06308
427,596,2.99329,-1.90512,0,0,0,0,0,0,0,-1,1651,428,2.99327,1.90512
434,596,3.80896,-0.253998,0,0,0,0,0,0,0,-1,1658,428,3.80902,0.254004
441,596,3.86401,-0.131622,0,0,0,0,0,0,0,-1,1665,428,3.86406,0.131613
448,596,1.0769,0.0083313,0,0,0,0,0,0,0,-1,1672,428,1.07684,-0.00832231
455,596,2.00769,-1.43329,0,0,0,0,0,0,0,-1,1679,428,2.00765,1.4333
462,596,0,0,0,0,0,0,0,0,0,-1,1686,428,0,0
469,596,0,0,0,0,0,0,0,0,0,-1,1693,428,0,0
476,596,0,0,0,0,0,0,0,0,0,-1,1700,428,0,0
483,596,0,0,0,0,0,0,0,0,0,-1,1707,428,0,0
490,596,0,0,0,0,0,0,0,0,0,-1,1714,428,0,0
497,596,0,0,0,0,0,0,0,0,0,-1,1721,428,0,0
504,596,0,0,0,0,0,0,0,0,0,-1,1728,428,0,0
511,596,0,0,0,0,0,0,0,0,0,-1,1735,428,0,0
518,596,0,0,0,0,0,0,0,0,0,-1,1742,428,0,0
525,596,0,0,0,0,0,0,0,0,0,-1,1749,428,0,0
532,596,0,0,0,0,0,0,0,0,0,-1,1756,428,0,0
539,596,0,0,0,0,0,0,0,0,0,-1,1763,428,0,0
546,596,0,0,0,0,0,0,0,0,0,-1,1770,428,0,0
553,596,0,0,0,0,0,0,0,0,0,-1,1777,428,0,0
560,596,0,0,0,0,0,0,0,0,0,-1,1784,428,0,0
567,596,0,0,0,0,0,0,0,0,0,-1,1791,428,0,0
574,596,0,0,0,0,0,0,0,0,0,-1,1798,428,0,0
581,596,0,0,0,0,0,0,0,0,0,-1,1805,428,0,0
588,596,0,0,0,0,0,0,0,0,0,-1,1812,428,0,0
595,596,0,0,0,0,0,0,0,0,0,-1,1819,428,0,0
602,596,0,0,0,0,0,0,0,0,0,-1,1826,428,0,0
609,596,0,0,0,0,0,0,0,0,0,-1,1833,428,0,0
616,596,0,0,0,0,0,0,0,0,0,-1,1840,428,0,0
623,596,0,0,0,0,0,0,0,0,0,-1,1847,428,0,0
630,596,0,0,0,0,0,0,0,0,0,-1,1854,428,0,0
637,596,0,0,0,0,0,0,0,0,0,-1,1861,428,0,0
644,596,0,0,0,0,0,0,0,0,0,-1,1868,428,0,0
651,596,0,0,0,0,0,0,0,0,0,-1,1875,428,0,0
658,596,0,0,0,0,0,0,0,0,0,-1,1882,428,0,0
665,596,0,0,0,0,0,0,0,0,0,-1,1889,428,0,0
672,596,0,0,0,0,0,0,0,0,0,-1,1896,428,0,0
679,596,0,0,0,0,0,0,0,0,0,-1,1903,428,0,0
686,596,0,0,0,0,0,0,0,0,0,-1,1910,428,0,0
693,596,0,0,0,0,0,0,0,0,0,-1,1917,428,0,0
700,596,0,0,0,0,0,0,0,0,0,-1,1924,428,0,0
707,596,0,0,0,0,0,0,0,0,0,-1,1931,428,0,0
714,596,0,0,0,0,0,0,0,0,0,-1,1938,428,0,0
721,596,0,0,0,0,0,0,0,0,0,-1,1945,428,0,0
728,596,0,0,0,0,0,0,0,0,0,-1,1952,428,0,0
735,596,0,0,0,0,0,0,0,0,0,-1,1959,428,0,0
742,596,0,0,0,0,0,0,0,0,0,-1,1966,428,0,0
749,596,0,0,0,0,0,0,0,0,0,-1,1973,428,0,0
756,596,0,0,0,0,0,0,0,0,0,-1,1980,428,0,0
763,596,0,0,0,0,0,0,0,0,0,-1,1987,428,0,0
770,596,0,0,0,0,0,0,0,0,0,-1,1994,428,0,0
777,596,0,0,0,0,0,0,0,0,0,-1,2001,428,0,0
784,596,0,0,0,0,0,0,0,0,0,-1,2008,428,0,0
791,596,0,0,0,0,0,0,0,0,0,-1,2015,428,0,0
798,596,0,0,0,0,0,0,0,0,0,-1,2022,428,0,0
805,596,0,0,0,0,0,0,0,0,0,-1,2029,428,0,0
812,596,0,0,0,0,0,0,0,0,0,-1,2036,428,0,0
-700,589,0,0,0,0,0,0,0,0,0,-1,524,435,0,0
-693,589,0,0,0,0,0,0,0,0,0,-1,531,435,0,0
-686,589,0,0,0,0,0,0,0,0,0,-1,538,435,0,0
-679,589,0,0,0,0,0,0,0,0,0,-1,545,435,0,0
-672,589,0,0,0,0,0,0,0,0,0,-1,552,435,0,0
-665,589,0,0,0,0,0,0,0,0,0,-1,559,435,0,0
-658,589,0,0,0,0,0,0,0,0,0,-1,566,435,0,0
-651,589,0,0,0,0,0,0,0,0,0,-1,573,435,0,0
-644,589,0,0,0,0,0,0,0,0,0,-1,580,435,0,0
-637,589,0,0,0,0,0,0,0,0,0,-1,587,435,0,0
-630,589,0,0,0,0,0,0,0,0,0,-1,594,435,0,0
-623,589,0,0,0,0,0,0,0,0,0,-1,601,435,0,0
-616,589,0,0,0,0,0,0,0,0,0,-1,608,435,0,0
-609,589,0,0,0,0,0,0,0,0,0,-1,615,435,0,0
-602,589,0,0,0,0,0,0,0,0,0,-1,622,435,0,0
-595,589,0,0,0,0,0,0,0,0,0,-1,629,435,0,0
-588,589,0,0,0,0,0,0,0,0,0,-1,636,435,0,0
-581,589,0,0,0,0,0,0,0,0,0,-1,643,435,0,0
-574,589,0,0,0,0,0,0,0,0,0,-1,650,435,0,0
-567,589,0,0,0,0,0,0,0,0,0,-1,657,435,0,0
-560,589,0,0,0,0,0,0,0,0,0,-1,664,435,0,0
-553,589,0,0,0,0,0,0,0,0,0,-1,671,435,0,0
-546,589,0,0,0,0,0,0,0,0,0,-1,678,435,0,0
-539,589,0,0,0,0,0,0,0,0,0,-1,685,435,0,0
-532,589,0,0,0,0,0,0,0,0,0,-1,692,435,0,0
-525,589,0,0,0,0,0,0,0,0,0,-1,699,435,0,0
-518,589,0,0,0,0,0,0,0,0,0,-1,706,435,0,0
-511,589,0,0,0,0,0,0,0,0,0,-1,713,435,0,0
-504,589,0,0,0,0,0,0,0,0,0,-1,720,435,0,0
-497,589,0,0,0,0,0,0,0,0,0,-1,727,435,0,0
-490,589,0,0,0,0,0,0,0,0,0,-1,734,435,0,0
-483,589,0,0,0,0,0,0,0,0,0,-1,741,435,0,0
-476,589,0,0,0,0,0,0,0,0,0,-1,748,435,0,0
-469,589,0,0,0,0,0,0,0,0,0,-1,755,435,0,0
-462,589,0,0,0,0,0,0,0,0,0,-1,762,435,0,0
-455,589,0,0,0,0,0,0,0,0,0,-1,769,435,0,0
-448,589,0,0,0,0,0,0,0,0,0,-1,776,435,0,0
-441,589,0,0,0,0,0,0,0,0,0,-1,783,435,0,0
-434,589,0,0,0,0,0,0,0,0,0,-1,790,435,0,0
-427,589,0,0,0,0,0,0,0,0,0,-1,797,435,0,0
-420,589,0,0,0,0,0,0,0,0,0,-1,804,435,0,0
-413,589,0,0,0,0,0,0,0,0,0,-1,811,435,0,0
-406,589,0,0,0,0,0,0,0,0,0,-1,818,435,0,0
-399,589,0,0,0,0,0,0,0,0,0,-1,825,435,0,0
-392,589,0,0,0,0,0,0,0,0,0,-1,832,435,0,0
-385,589,0,0,0,0,0,0,0,0,0,-1,839,435,0,0
-378,589,0,0,0,0,0,0,0,0,0,-1,846,435,0,0
-371,589,0,0,0,0,0,0,0,0,0,-1,853,435,0,0
-364,589,0,0,0,0,0,0,0,0,0,-1,860,435,0,0
-357,589,0,0,0,0,0,0,0,0,0,-1,867,435,0,0
-350,589,-0.799927,-20.664,0,0,0,0,0,0,0,-1,874,435,-0.799952,20.664
-343,589,-0.370911,-19.1543,0,0,0,0,0,0,0,-1,881,435,-0.370922,19.1543
-336,589,0.0728149,-17.6812,0,0,0,0,0,0,0,-1,888,435,0.0727911,17.6812
-329,589,0.491028,-16.2322,0,0,0,0,0,0,0,-1,895,435,0.491054,16.2322
-322,589,3.63721,-16.6719,0,0,0,0,0,0,0,-1,902,435,3.6372,16.6719
-315,589,3.05688,-17.1918,-0.0233279,-0.00959636,-0.0191545,0.00388566,-0.03681,-0.957487,0.0259324,0.0488191,909,435,3.05686,17.1918
-308,589,2.47552,-17.6978,0,0,0,0,0,0,0,-1,916,435,2.47555,17.6978
-301,589,2.26593,-15.6337,0,0,0,0,0,0,0,-1,923,435,2.26594,15.6337
-294,589,2.05676,-15.6948,0,0,0,0,0,0,0,-1,930,435,2.05679,15.6948
-287,589,2.34894,-16.2839,-0.00538726,0.00447152,-0.0114678,0.0120245,-0.0129402,-0.988383,0.0144166,0.0439906,937,435,2.34896,16.2839
-280,589,2.53558,-16.9454,-0.00340965,0.00593168,-0.00979459,0.0121122,-0.00959021,-1.00788,0.0125581,0.0321168,944,435,2.53558,16.9454
-273,589,2.54059,-17.3776,-0.00194124,0.00663703,-0.00857549,0.0119362,-0.00724041,-1.01729,0.0111817,0.0194532,951,435,2.54056,17.3776
-266,589,2.48175,-17.6926,-0.000986028,0.00619573,-0.00718045,0.0106331,-0.00542343,-1.01726,0.00943151,0.017159,958,435,2.48174,17.6926
-259,589,2.41895,-18.0202,0.000184782,0.00722153,-0.0061545,0.0107924,-0.00338605,-1.04506,0.00855008,0.0143342,965,435,2.41892,18.0202
-252,589,2.42627,-18.4185,0.000360946,0.00644632,-0.00526164,0.0094817,-0.00267443,-1.04755,0.00737604,0.0100758,972,435,2.42627,18.4186
-245,589,2.44672,-18.7419,0.000363049,0.00560127,-0.00443924,0.00813644,-0.00217212,-1.05191,0.00627493,0.0110405,979,435,2.44674,18.7419
-238,589,2.42523,-19.0417,0.000323482,0.00494188,-0.00350047,0.00682621,-0.00156085,-1.07697,0.00515054,0.0153386,986,435,2.42521,19.0417
-231,589,2.39392,-19.3492,0.000125594,0.00422095,-0.00254401,0.005439,-0.00109246,-1.12426,0.00403969,0.0152926,993,435,2.39391,19.3492
-224,589,2.35638,-19.6541,7.94312e-06,0.00368784,-0.0017813,0.00440884,-0.000713054,-1.18619,0.00320347,0.0149761,1000,435,2.35641,19.6541
-217,589,2.3678,-19.9561,-4.38555e-05,0.00301466,-0.00111113,0.0033757,-0.000404898,-1.25662,0.00239686,0.0160254,1007,435,2.36777,19.9561
-210,589,2.37408,-20.2469,-0.00011267,0.00229186,-0.000503214,0.00239292,-0.000213734,-1.3726,0.00167109,0.0146532,1014,435,2.37409,20.2469
-203,589,2.36444,-20.5097,-0.000212364,0.00157584,-2.98914e-05,0.00157633,-0.000212863,-1.55409,0.00112856,0.0110993,1021,435,2.36443,20.5097
-196,589,2.34985,-20.7963,-0.000308899,0.000932076,0.000187229,0.000959709,-0.000336532,1.42427,0.000776679,0.0131434,1028,435,2.34985,20.7963
-189,589,2.32495,-21.0997,-0.000276818,0.000288514,0.000236096,0.000374144,-0.000362448,1.22286,0.000425289,0.0163225,1035,435,2.32499,21.0997
-182,589,2.33569,-21.3218,-0.000187347,-0.000445663,0.000190483,-8.63623e-05,-0.000546648,0.487475,0.000339328,0.0121944,1042,435,2.33573,21.3218
-175,589,2.33997,-21.5622,-3.75625e-05,-0.00152813,7.24974e-05,-3.40447e-05,-0.00153164,0.048485,0.00100994,0.0148512,1049,435,2.33999,21.5622
-168,589,2.37195,-21.8363,0.000111924,-0.00260591,-0.000110688,0.000116425,-0.00261041,-0.0406369,0.00178035,0.0127157,1056,435,2.37195,21.8363
-161,589,2.35608,-22.0922,0.000299817,-0.00348856,-0.000390641,0.000339679,-0.00352842,-0.10169,0.0024733,0.0124351,1063,435,2.35606,22.0922
-154,589,2.35461,-22.336,0.000563564,-0.0043144,-0.000591387,0.000634238,-0.00438507,-0.118941,0.00315611,0.0127957,1070,435,2.35464,22.336
-147,589,2.38428,-22.5664,0.000907884,-0.00518093,-0.000730589,0.000994319,-0.00526737,-0.117762,0.00388566,0.0123729,1077,435,2.38432,22.5664
-140,589,2.40442,-22.7806,0.0012291,-0.00594482,-0.00080999,0.00131942,-0.00603514,-0.111045,0.00452777,0.0133916,1084,435,2.40448,22.7806
-133,589,2.40344,-23.0169,0.00149529,-0.00665556,-0.000755216,0.00156467,-0.00672494,-0.0916156,0.00508573,0.0133465,1091,435,2.40339,23.0169
-126,589,2.42188,-23.2463,0.00171177,-0.00732074,-0.000509792,0.00174045,-0.00734942,-0.0562018,0.00557113,0.0109233,1098,435,2.42188,23.2463
-119,589,2.43823,-23.4401,0.00204295,-0.00743351,-0.000468737,0.00206608,-0.00745664,-0.0493029,0.00578412,0.0163943,1105,435,2.43824,23.4401
-112,589,2.44458,-23.6333,0.00235035,-0.0074347,-0.000408494,0.00236737,-0.00745172,-0.0416501,0.00591697,0.0171102,1112,435,2.4446,23.6333
-105,589,2.45142,-23.8336,0.00275954,-0.00710307,-0.000415903,0.00277704,-0.00712058,-0.0420701,0.00589496,0.0179854,1119,435,2.45146,23.8336
-98,589,2.49951,-24.0056,0.00342689,-0.00668373,-2.49873e-05,0.00342695,-0.00668379,-0.00247137,0.00593753,0.0212888,1126,435,2.49947,24.0056
-91,589,2.46814,-24.2213,0,0,0,0,0,0,0,-1,1133,435,2.46812,24.2213
-84,589,2.76538,-22.6013,0,0,0,0,0,0,0,-1,1140,435,2.76539,22.6014
-77,589,2.18152,-14.8023,0,0,0,0,0,0,0,-1,1147,435,2.18155,14.8023
-70,589,1.48267,-9.90961,0,0,0,0,0,0,0,-1,1154,435,1.48264,9.9096
-63,589,0.880127,-5.50586,0,0,0,0,0,0,0,-1,1161,435,0.880186,5.50587
-56,589,-2.78052,-7.28082,0,0,0,0,0,0,0,-1,1168,435,-2.78053,7.28082
-49,589,-0.525757,-2.76703,0,0,0,0,0,0,0,-1,1175,435,-0.525771,2.76702
-42,589,-2.7738,-2.87921,0,0,0,0,0,0,0,-1,1182,435,-2.77383,2.87922
-35,589,-2.55225,-3.27551,0,0,0,0,0,0,0,-1,1189,435,-2.55223,3.27552
-28,589,-0.0632324,-3.42938,0,0,0,0,0,0,0,-1,1196,435,-0.063241,3.42938
-21,589,2.80664,-24.5061,0,0,0,0,0,0,0,-1,1203,435,2.80658,24.5061
-14,589,3.20959,-24.9156,0,0,0,0,0,0,0,-1,1210,435,3.20961,24.9156
-7,589,1.96313,-28.0438,0,0,0,0,0,0,0,-1,1217,435,1.96311,28.0438
0,589,1.96545,-27.3859,0,0,0,0,0,0,0,-1,1224,435,1.9655,27.3859
7,589,3.14978,-25.4331,0,0,0,0,0,0,0,-1,1231,435,3.14983,25.4331
14,589,2.37268,-25.5139,0,0,0,0,0,0,0,-1,1238,435,2.37267,25.5139
21,589,2.93506,-24.8897,0,0,0,0,0,0,0,-1,1245,435,2.93503,24.8897
28,589,2.70471,-24.9065,0,0,0,0,0,0,0,-1,1252,435,2.70473,24.9065
35,589,3.6615,-25.1367,0,0,0,0,0,0,0,-1,1259,435,3.66151,25.1367
42,589,3.58264,-25.014,0,0,0,0,0,0,0,-1,1266,435,3.5827,25.014
49,589,3.4342,-25.2428,0,0,0,0,0,0,0,-1,1273,435,3.4342,25.2428
56,589,3.5592,-25.7638,0,0,0,0,0,0,0,-1,1280,435,3.55918,25.7638
63,589,3.9585,-25.7033,0.0102348,-0.0169302,0.0296671,0.0292809,-0.0359763,0.570725,0.0377423,0.0428003,1287,435,3.95852,25.7033
70,589,4.19189,-25.4477,0.00800177,-0.0175121,0.0269453,0.0250573,-0.0345677,0.564311,0.0345702,0.0451172,1294,435,4.19192,25.4477
77,589,4.42749,-25.1747,0.00564903,-0.0164754,0.023298,0.0203777,-0.031204,0.56375,0.0299986,0.0418587,1301,435,4.42755,25.1747
84,589,4.26477,-25.4478,0.00609206,-0.014562,0.0198475,0.0181384,-0.0266084,0.545512,0.0259884,0.0408998,1308,435,4.26473,25.4478
91,589,4.15881,-25.4879,0.00831183,-0.0123466,0.016369,0.0173382,-0.0213729,0.503939,0.0223903,0.0448674,1315,435,4.15884,25.4879
98,589,4.07935,-25.3849,0.00967472,-0.00852976,0.0115378,0.0152684,-0.0141235,0.451427,0.0169737,0.0481425,1322,435,4.07936,25.3849
105,589,4.01221,-25.2828,0.0104209,-0.0040463,0.00677161,0.0130959,-0.00672126,0.376211,0.0116371,0.0477142,1329,435,4.01216,25.2828
112,589,4.06641,-25.0312,0.0128218,0.000343699,0.0030595,0.0135316,-0.000366081,0.22796,0.00914555,0.0425664,1336,435,4.06639,25.0312
119,589,4.26453,-24.6589,0.0158371,0.00495452,-0.000895075,0.0159102,0.0048814,-0.0815184,0.00941157,0.0434427,1343,435,4.26454,24.6589
126,589,4.49072,-24.4232,0.0183083,0.00971847,-0.00445804,0.0202037,0.00782304,-0.402016,0.0117632,0.0466588,1350,435,4.49076,24.4232
133,589,4.64844,-24.4047,0.0196838,0.0137294,-0.007251,0.024545,0.00886818,-0.590598,0.0143516,0.0475778,1357,435,4.64847,24.4047
140,589,5.24353,-24.5679,0.0194835,0.0164837,-0.00972628,0.0278249,0.00814237,-0.708897,0.0165188,0.0452001,1364,435,5.2435,24.5679
147,589,5.8573,-24.5681,0.017666,0.0180495,-0.0116991,0.0295585,0.00615708,-0.793592,0.0180077,0.0432172,1371,435,5.85729,24.5681
154,589,3.82629,-24.247,0.0139535,0.0182103,-0.0128079,0.0290654,0.00309835,-0.867736,0.0184312,0.0461656,1378,435,3.82627,24.247
161,589,4.2738,-24.2896,0,0,0,0,0,0,0,-1,1385,435,4.27383,24.2896
168,589,5.76355,-23.5995,0,0,0,0,0,0,0,-1,1392,435,5.76352,23.5995
175,589,8.66992,-7.65527,0,0,0,0,0,0,0,-1,1399,435,8.66994,7.65528
182,589,3.8136,-2.45389,0,0,0,0,0,0,0,-1,1406,435,3.81363,2.4539
189,589,3.69983,-3.68149,0,0,0,0,0,0,0,-1,1413,435,3.69987,3.68147
196,589,3.31055,-5.31677,0,0,0,0,0,0,0,-1,1420,435,3.31059,5.31678
203,589,2.72559,-8.84338,0,0,0,0,0,0,0,-1,1427,435,2.72558,8.84338
210,589,3.62378,-14.4032,0,0,0,0,0,0,0,-1,1434,435,3.62378,14.4032
217,589,4.65601,-22.3745,0,0,0,0,0,0,0,-1,1441,435,4.65607,22.3745
224,589,4.97046,-23.7198,0,0,0,0,0,0,0,-1,1448,435,4.97046,23.7198
231,589,4.99634,-23.402,0.00432562,0.00599606,0.000798915,0.00631663,0.00400505,1.1892,0.00369034,0.0346934,1455,435,4.99636,23.402
238,589,4.98694,-23.1287,0.00415441,0.00623234,0.00114561,0.00673995,0.0036468,1.15371,0.00389569,0.0260145,1462,435,4.9869,23.1286
245,589,4.99438,-22.8281,0.0040234,0.0061087,0.00121189,0.00666474,0.00346736,1.14063,0.00384894,0.0214233,1469,435,4.9944,22.8281
252,589,5.03528,-22.606,0.00375624,0.00531827,0.00109995,0.00588629,0.00318823,1.09412,0.00340237,0.0134933,1476,435,5.03533,22.606
259,589,5.02832,-22.3821,0.00336032,0.00439191,0.000893931,0.00490818,0.00284405,1.04706,0.00284564,0.00953553,1483,435,5.02828,22.3821
266,589,5.02942,-22.1159,0.00298177,0.00349035,0.000716917,0.00399674,0.00247538,0.955825,0.00232933,0.00967807,1490,435,5.0294,22.1159
273,589,5.06384,-21.8916,0.00263854,0.00273189,0.000576725,0.00326383,0.00210661,0.825775,0.00191076,0.0117527,1497,435,5.06381,21.8916
280,589,5.08032,-21.6592,0.0022562,0.00184801,0.00036804,0.00247295,0.00163127,0.532236,0.00145182,0.012,1504,435,5.08034,21.6592
287,589,5.07764,-21.3956,0.00200332,0.00123352,0.000288859,0.00209965,0.00113719,0.321905,0.00121363,0.0106914,1511,435,5.07769,21.3956
294,589,5.06396,-21.0875,0.00177017,0.000889423,0.000259333,0.00184086,0.000818737,0.266105,0.00106498,0.00928367,1518,435,5.06401,21.0874
301,589,5.06116,-20.7843,0.00149929,0.000523949,0.000270406,0.00156924,0.000453998,0.25314,0.00093243,0.00987396,1525,435,5.06119,20.7843
308,589,5.06482,-20.5078,0.00134792,0.000421043,0.000387337,0.00148848,0.000280491,0.348093,0.000913292,0.0101259,1532,435,5.06484,20.5078
315,589,5.07532,-20.2317,0.00126312,0.000526699,0.000545776,0.00155328,0.00023654,0.488643,0.000966371,0.0101927,1539,435,5.0753,20.2317
322,589,5.07666,-19.925,0.00112875,0.000725082,0.000766272,0.00171933,0.00013451,0.656623,0.00110412,0.0106075,1546,435,5.07666,19.925
329,589,5.07312,-19.6195,0.000977907,0.000962709,0.00102833,0.00199866,-5.80458e-05,0.781704,0.00135221,0.00984966,1553,435,5.0731,19.6195
336,589,5.06372,-19.3319,0.000822288,0.00123532,0.00130465,0.0023497,-0.000292092,0.863894,0.00167236,0.00983441,1560,435,5.06366,19.3319
343,589,5.05994,-19.0268,0.000636763,0.0015341,0.00159811,0.00274533,-0.000574467,0.92225,0.00204874,0.0111845,1567,435,5.05988,19.0268
350,589,5.03735,-18.6899,0.00049079,0.00219756,0.00199244,0.00351168,-0.000823329,0.987735,0.00265841,0.0168397,1574,435,5.03736,18.6899
357,589,5.03467,-18.343,0.000231555,0.0027591,0.0023582,0.00417081,-0.00118015,1.03138,0.00324624,0.0130219,1581,435,5.03464,18.343
364,589,5.04749,-17.9982,-0.000227517,0.00342066,0.00260727,0.00477858,-0.00158543,1.09063,0.00382532,0.0110671,1588,435,5.04746,17.9982
371,589,5.04431,-17.6641,-0.000622562,0.00419971,0.00293751,0.00558891,-0.00201176,1.12905,0.00454736,0.0119176,1595,435,5.04428,17.6641
378,589,5.01392,-17.3256,-0.00112505,0.00513058,0.00318457,0.00646647,-0.00246095,1.1736,0.00532438,0.0130582,1602,435,5.01393,17.3256
385,589,5.01013,-16.9513,-0.00180496,0.00597652,0.00318791,0.00711575,-0.00294419,1.22758,0.00597224,0.0150945,1609,435,5.01015,16.9513
392,589,4.96936,-16.5014,-0.00228944,0.00707856,0.00325108,0.00809626,-0.00330714,1.26742,0.00677453,0.0186644,1616,435,4.96942,16.5014
399,589,4.93787,-15.9948,-0.00188795,0.008252,0.00398878,0.00963299,-0.00326895,1.23749,0.00774512,0.0310691,1623,435,4.93785,15.9948
406,589,4.96875,-15.6275,0,0,0,0,0,0,0,-1,1630,435,4.96874,15.6275
413,589,4.56714,-15.4622,0,0,0,0,0,0,0,-1,1637,435,4.56717,15.4622
420,589,2.79724,-5.79956,0,0,0,0,0,0,0,-1,1644,435,2.7973,5.79955
427,589,2.87976,-5.28177,0,0,0,0,0,0,0,-1,1651,435,2.87972,5.28177
434,589,2.52734,-2.73029,0,0,0,0,0,0,0,-1,1658,435,2.52736,2.73029
441,589,3.17639,-2.02435,0,0,0,0,0,0,0,-1,1665,435,3.17643,2.02435
448,589,0.453735,-3.2868,0,0,0,0,0,0,0,-1,1672,435,0.453701,3.28681
455,589,0.664307,-3.46848,0,0,0,0,0,0,0,-1,1679,435,0.66425,3.46846
462,589,3.46716,-4.41891,0,0,0,0,0,0,0,-1,1686,435,3.4672,4.41891
469,589,0.0238037,-3.81497,0,0,0,0,0,0,0,-1,1693,435,0.0237965,3.81498
476,589,0,0,0,0,0,0,0,0,0,-1,1700,435,0,0
483,589,0,0,0,0,0,0,0,0,0,-1,1707,435,0,0
490,589,0,0,0,0,0,0,0,0,0,-1,1714,435,0,0
497,589,0,0,0,0,0,0,0,0,0,-1,1721,435,0,0
504,589,0,0,0,0,0,0,0,0,0,-1,1728,435,0,0
511,589,0,0,0,0,0,0,0,0,0,-1,1735,435,0,0
518,589,0,0,0,0,0,0,0,0,0,-1,1742,435,0,0
525,589,0,0,0,0,0,0,0,0,0,-1,1749,435,0,0
532,589,0,0,0,0,0,0,0,0,0,-1,1756,435,0,0
539,589,0,0,0,0,0,0,0,0,0,-1,1763,435,0,0
546,589,0,0,0,0,0,0,0,0,0,-1,1770,435,0,0
553,589,0,0,0,0,0,0,0,0,0,-1,1777,435,0,0
560,589,0,0,0,0,0,0,0,0,0,-1,1784,435,0,0
567,589,0,0,0,0,0,0,0,0,0,-1,1791,435,0,0
574,589,0,0,0,0,0,0,0,0,0,-1,1798,435,0,0
581,589,0,0,0,0,0,0,0,0,0,-1,1805,435,0,0
588,589,0,0,0,0,0,0,0,0,0,-1,1812,435,0,0
595,589,0,0,0,0,0,0,0,0,0,-1,1819,435,0,0
602,589,0,0,0,0,0,0,0,0,0,-1,1826,435,0,0
609,589,0,0,0,0,0,0,0,0,0,-1,1833,435,0,0
616,589,0,0,0,0,0,0,0,0,0,-1,1840,435,0,0
623,589,0,0,0,0,0,0,0,0,0,-1,1847,435,0,0
630,589,0,0,0,0,0,0,0,0,0,-1,1854,435,0,0
637,589,0,0,0,0,0,0,0,0,0,-1,1861,435,0,0
644,589,0,0,0,0,0,0,0,0,0,-1,1868,435,0,0
651,589,0,0,0,0,0,0,0,0,0,-1,1875,435,0,0
658,589,0,0,0,0,0,0,0,0,0,-1,1882,435,0,0
665,589,0,0,0,0,0,0,0,0,0,-1,1889,435,0,0
672,589,0,0,0,0,0,0,0,0,0,-1,1896,435,0,0
679,589,0,0,0,0,0,0,0,0,0,-1,1903,435,0,0
686,589,0,0,0,0,0,0,0,0,0,-1,1910,435,0,0
693,589,0,0,0,0,0,0,0,0,0,-1,1917,435,0,0
700,589,0,0,0,0,0,0,0,0,0,-1,1924,435,0,0
707,589,0,0,0,0,0,0,0,0,0,-1,1931,435,0,0
714,589,0,0,0,0,0,0,0,0,0,-1,1938,435,0,0
721,589,0,0,0,0,0,0,0,0,0,-1,1945,435,0,0
728,589,0,0,0,0,0,0,0,0,0,-1,1952,435,0,0
735,589,0,0,0,0,0,0,0,0,0,-1,1959,435,0,0
742,589,0,0,0,0,0,0,0,0,0,-1,1966,435,0,0
749,589,0,0,0,0,0,0,0,0,0,-1,1973,435,0,0
756,589,0,0,0,0,0,0,0,0,0,-1,1980,435,0,0
763,589,0,0,0,0,0,0,0,0,0,-1,1987,435,0,0
770,589,0,0,0,0,0,0,0,0,0,-1,1994,435,0,0
777,589,0,0,0,0,0,0,0,0,0,-1,2001,435,0,0
784,589,0,0,0,0,0,0,0,0,0,-1,2008,435,0,0
791,589,0,0,0,0,0,0,0,0,0,-1,2015,435,0,0
798,589,0,0,0,0,0,0,0,0,0,-1,2022,435,0,0
805,589,0,0,0,0,0,0,0,0,0,-1,2029,435,0,0
812,589,0,0,0,0,0,0,0,0,0,-1,2036,435,0,0
-700,582,0,0,0,0,0,0,0,0,0,-1,524,442,0,0
-693,582,0,0,0,0,0,0,0,0,0,-1,531,442,0,0
-686,582,0,0,0,0,0,0,0,0,0,-1,538,442,0,0
-679,582,0,0,0,0,0,0,0,0,0,-1,545,442,0,0
-672,582,0,0,0,0,0,0,0,0,0,-1,552,442,0,0
-665,582,0,0,0,0,0,0,0,0,0,-1,559,442,0,0
-658,582,0,0,0,0,0,0,0,0,0,-1,566,442,0,0
-651,582,0,0,0,0,0,0,0,0,0,-1,573,442,0,0
-644,582,0,0,0,0,0,0,0,0,0,-1,580,442,0,0
-637,582,0,0,0,0,0,0,0,0,0,-1,587,442,0,0
-630,582,0,0,0,0,0,0,0,0,0,-1,594,442,0,0
-623,582,0,0,0,0,0,0,0,0,0,-1,601,442,0,0
-616,582,0,0,0,0,0,0,0,0,0,-1,608,442,0,0
-609,582,0,0,0,0,0,0,0,0,0,-1,615,442,0,0
-602,582,0,0,0,0,0,0,0,0,0,-1,622,442,0,0
-595,582,0,0,0,0,0,0,0,0,0,-1,629,442,0,0
-588,582,0,0,0,0,0,0,0,0,0,-1,636,442,0,0
-581,582,0,0,0,0,0,0,0,0,0,-1,643,442,0,0
-574,582,0,0,0,0,0,0,0,0,0,-1,650,442,0,0
-567,582,0,0,0,0,0,0,0,0,0,-1,657,442,0,0
-560,582,0,0,0,0,0,0,0,0,0,-1,664,442,0,0
-553,582,0,0,0,0,0,0,0,0,0,-1,671,442,0,0
-546,582,0,0,0,0,0,0,0,0,0,-1,678,442,0,0
-539,582,0,0,0,0,0,0,0,0,0,-1,685,442,0,0
-532,582,0,0,0,0,0,0,0,0,0,-1,692,442,0,0
-525,582,0,0,0,0,0,0,0,0,0,-1,699,442,0,0
-518,582,0,0,0,0,0,0,0,0,0,-1,706,442,0,0
-511,582,0,0,0,0,0,0,0,0,0,-1,713,442,0,0
-504,582,0,0,0,0,0,0,0,0,0,-1,720,442,0,0
-497,582,0,0,0,0,0,0,0,0,0,-1,727,442,0,0
-490,582,0,0,0,0,0,0,0,0,0,-1,734,442,0,0
-483,582,0,0,0,0,0,0,0,0,0,-1,741,442,0,0
-476,582,0,0,0,0,0,0,0,0,0,-1,748,442,0,0
-469,582,0,0,0,0,0,0,0,0,0,-1,755,442,0,0
-462,582,0,0,0,0,0,0,0,0,0,-1,762,442,0,0
-455,582,0,0,0,0,0,0,0,0,0,-1,769,442,0,0
-448,582,0,0,0,0,0,0,0,0,0,-1,776,442,0,0
-441,582,0,0,0,0,0,0,0,0,0,-1,783,442,0,0
-434,582,0,0,0,0,0,0,0,0,0,-1,790,442,0,0
-427,582,0,0,0,0,0,0,0,0,0,-1,797,442,0,0
-420,582,0,0,0,0,0,0,0,0,0,-1,804,442,0,0
-413,582,0,0,0,0,0,0,0,0,0,-1,811,442,0,0
-406,582,0,0,0,0,0,0,0,0,0,-1,818,442,0,0
-399,582,0,0,0,0,0,0,0,0,0,-1,825,442,0,0
-392,582,0,0,0,0,0,0,0,0,0,-1,832,442,0,0
-385,582,0,0,0,0,0,0,0,0,0,-1,839,442,0,0
-378,582,0,0,0,0,0,0,0,0,0,-1,846,442,0,0
-371,582,0,0,0,0,0,0,0,0,0,-1,853,442,0,0
-364,582,0,0,0,0,0,0,0,0,0,-1,860,442,0,0
-357,582,-1.4903,-21.5295,0,0,0,0,0,0,0,-1,867,442,-1.49031,21.5295
-350,582,-0.880859,-19.7966,0,0,0,0,0,0,0,-1,874,442,-0.880885,19.7966
-343,582,-0.208557,-18.0078,0,0,0,0,0,0,0,-1,881,442,-0.208576,18.0078
-336,582,0.219543,-16.4952,0,0,0,0,0,0,0,-1,888,442,0.219519,16.4952
-329,582,1.3493,-13.7002,0,0,0,0,0,0,0,-1,895,442,1.34933,13.7002
-322,582,2.78766,-13.6747,0,0,0,0,0,0,0,-1,902,442,2.78765,13.6747
-315,582,2.7179,-16.1576,0,0,0,0,0,0,0,-1,909,442,2.71788,16.1576
-308,582,2.2699,-15.6885,0,0,0,0,0,0,0,-1,916,442,2.26993,15.6885
-301,582,2.1322,-15.7643,0,0,0,0,0,0,0,-1,923,442,2.13223,15.7644
-294,582,2.02161,-16.1422,0,0,0,0,0,0,0,-1,930,442,2.02163,16.1421
-287,582,2.1424,-16.5612,-0.00439127,0.00465363,-0.0090154,0.0102173,-0.00995495,-1.01788,0.0116468,0.0362347,937,442,2.14242,16.5612
-280,582,2.21899,-16.9517,-0.00282696,0.00545645,-0.00773579,0.0100895,-0.00746,-1.03118,0.01017,0.0164579,944,442,2.219,16.9517
-273,582,2.20367,-17.323,-0.00165362,0.00573577,-0.00678954,0.0097708,-0.00568864,-1.03458,0.00902864,0.0102467,951,442,2.2037,17.323
-266,582,2.19049,-17.6949,-0.000866043,0.00510771,-0.0056551,0.00851627,-0.0042746,-1.02836,0.00751894,0.0102606,958,442,2.1905,17.6949
-259,582,2.15857,-18.0645,0.00012242,0.00559225,-0.00479431,0.00837686,-0.00266219,-1.0446,0.00665198,0.00866362,965,442,2.15858,18.0645
-252,582,2.13013,-18.4208,0.000327658,0.0046655,-0.00399857,0.00704551,-0.00205235,-1.0339,0.00551004,0.00791678,972,442,2.13012,18.4209
-245,582,2.14783,-18.7426,0.000338464,0.00358006,-0.00321826,0.00556262,-0.00164409,-1.01867,0.004361,0.0121415,979,442,2.14785,18.7427
-238,582,2.13593,-19.0221,0.000318743,0.00257161,-0.0023228,0.00402669,-0.00113634,-1.01116,0.00313271,0.0172323,986,442,2.13593,19.0221
-231,582,2.10156,-19.3229,0.000178157,0.00155835,-0.00140748,0.00243581,-0.000699301,-1.01333,0.00190035,0.0132868,993,442,2.10156,19.3229
-224,582,2.07715,-19.6444,9.81778e-05,0.000740383,-0.000634819,0.00113069,-0.000292128,-1.01954,0.000867717,0.010529,1000,442,2.07717,19.6444
-217,582,2.06439,-19.9376,6.39032e-05,-0.000136325,6.51597e-05,8.32404e-05,-0.000155662,0.288488,0.000140027,0.012324,1007,442,2.0644,19.9376
-210,582,2.07611,-20.2113,2.81207e-05,-0.000981146,0.000674176,0.000365609,-0.00131863,0.464122,0.00102297,0.0126987,1014,442,2.07613,20.2113
-203,582,2.09784,-20.509,-1.30653e-05,-0.00167376,0.000976366,0.000438292,-0.00212512,0.433021,0.0015832,0.0104354,1021,442,2.09782,20.509
-196,582,2.08313,-20.8343,-8.25407e-05,-0.00229938,0.000985302,0.000292082,-0.002674,0.363332,0.00188757,0.0158571,1028,442,2.0831,20.8343
-189,582,2.04761,-21.1046,-4.36917e-05,-0.00286847,0.000895044,0.000216028,-0.00312818,0.282419,0.00216107,0.0216636,1035,442,2.04763,21.1046
-182,582,2.0929,-21.3412,6.86775e-05,-0.00347021,0.000661523,0.000188293,-0.00358982,0.178885,0.00245838,0.0136296,1042,442,2.0929,21.3411
-175,582,2.08533,-21.5638,0.000262578,-0.00433547,0.000320526,0.000284815,-0.00435771,0.0692628,0.00300458,0.0122739,1049,442,2.08536,21.5637
-168,582,2.08521,-21.8356,0.000439916,-0.00524124,-0.000163003,0.000444589,-0.00524591,-0.0286604,0.00365449,0.0108136,1056,442,2.08521,21.8356
-161,582,2.09399,-22.0947,0.000570721,-0.00594817,-0.000708867,0.000646914,-0.00602436,-0.107073,0.00424833,0.0122613,1063,442,2.09397,22.0947
-154,582,2.10498,-22.313,0.00081375,-0.00676208,-0.00111284,0.000973837,-0.00692216,-0.142874,0.00497129,0.0121639,1070,442,2.105,22.313
-147,582,2.14136,-22.5428,0.00117933,-0.00766089,-0.00144651,0.00141,-0.00789157,-0.158136,0.00578857,0.0121588,1077,442,2.14139,22.5428
-140,582,2.14172,-22.7462,0.00149789,-0.00849999,-0.00166696,0.0017685,-0.0087706,-0.160934,0.00651705,0.0131459,1084,442,2.14171,22.7462
-133,582,2.18311,-22.9756,0.00171749,-0.00931063,-0.0016755,0.00196643,-0.00955956,-0.147497,0.00711962,0.0150996,1091,442,2.18307,22.9756
-126,582,2.21606,-23.149,0.00186125,-0.01018,-0.00135749,0.00201239,-0.0103311,-0.110883,0.00764701,0.0134443,1098,442,2.21607,23.1489
-119,582,2.19751,-23.3222,0.00214046,-0.0104633,-0.00125132,0.00226349,-0.0105864,-0.0980067,0.00792063,0.0171974,1105,442,2.19752,23.3222
-112,582,2.17517,-23.5813,0.00239995,-0.0105639,-0.00113853,0.00249918,-0.0106632,-0.0869362,0.00807185,0.0262279,1112,442,2.1752,23.5813
-105,582,2.15417,-23.8171,0.00280117,-0.0101612,-0.00107596,0.00288988,-0.0102499,-0.0822568,0.00797306,0.0383143,1119,442,2.15411,23.8171
-98,582,2.14111,-24.0634,0,0,0,0,0,0,0,-1,1126,442,2.14116,24.0635
-91,582,2.16492,-24.1119,0,0,0,0,0,0,0,-1,1133,442,2.16496,24.1119
-84,582,2.10278,-16.7533,0,0,0,0,0,0,0,-1,1140,442,2.10279,16.7533
-77,582,2.30212,-11.4907,0,0,0,0,0,0,0,-1,1147,442,2.30207,11.4907
-70,582,1.49255,-6.36548,0,0,0,0,0,0,0,-1,1154,442,1.49251,6.36549
-63,582,-4.62915,-4.0347,0,0,0,0,0,0,0,-1,1161,442,-4.6292,4.03471
-56,582,-5.81714,-5.24149,0,0,0,0,0,0,0,-1,1168,442,-5.81718,5.24149
-49,582,-3.88672,-10.1064,0,0,0,0,0,0,0,-1,1175,442,-3.88678,10.1064
-42,582,-0.948975,1.13968,0,0,0,0,0,0,0,-1,1182,442,-0.949003,-1.13969
-35,582,-2.58435,-3.86911,0,0,0,0,0,0,0,-1,1189,442,-2.58437,3.86912
-28,582,-0.825317,-3.45941,0,0,0,0,0,0,0,-1,1196,442,-0.825377,3.45942
-21,582,1.83618,-27.6333,0,0,0,0,0,0,0,-1,1203,442,1.83623,27.6333
-14,582,1.8324,-27.5403,-0.00497963,-0.0390158,0.0157258,0.00117376,-0.0451692,0.372977,0.0305116,0.0453275,1210,442,1.83245,27.5403
-7,582,1.90259,-27.1919,-0.00242555,-0.034783,0.0193027,0.00658194,-0.0437905,0.436609,0.0316168,0.0463252,1217,442,1.90264,27.1919
0,582,1.80762,-26.7532,0.00249763,-0.0304483,0.0230882,0.014387,-0.0423377,0.47554,0.0340495,0.0472891,1224,442,1.80765,26.7532
7,582,2.00305,-26.1938,0.00622287,-0.0257794,0.0265009,0.0211787,-0.0407352,0.513795,0.0363355,0.0465677,1231,442,2.00305,26.1938
14,582,1.89209,-25.6407,0.00960965,-0.0212081,0.030301,0.0281946,-0.039793,0.550175,0.0394426,0.0466669,1238,442,1.8921,25.6407
21,582,1.8949,-25.2067,0,0,0,0,0,0,0,-1,1245,442,1.89484,25.2067
28,582,1.57678,-24.5955,0,0,0,0,0,0,0,-1,1252,442,1.57676,24.5955
35,582,1.23596,-24.0363,0,0,0,0,0,0,0,-1,1259,442,1.23594,24.0364
42,582,3.86646,-27.7766,0,0,0,0,0,0,0,-1,1266,442,3.86647,27.7766
49,582,4.08447,-27.2772,0.0171143,-0.0141292,0.0406933,0.0450814,-0.0420963,0.602128,0.0503419,0.0457214,1273,442,4.08448,27.2772
56,582,4.06775,-26.6327,0.0159235,-0.015368,0.0403776,0.0435807,-0.0430252,0.600562,0.0500022,0.0465107,1280,442,4.06778,26.6326
63,582,3.86157,-25.8294,0.0127063,-0.0177951,0.0385585,0.0389205,-0.0440093,0.597078,0.0479096,0.0441336,1287,442,3.86157,25.8294
70,582,3.92834,-25.0879,0.010051,-0.0188472,0.0351898,0.0336427,-0.0424388,0.590591,0.0440234,0.0441407,1294,442,3.9283,25.0879
77,582,4.60693,-25.3434,0.00725124,-0.0179615,0.0304085,0.0275629,-0.0382731,0.588897,0.0381777,0.0434911,1301,442,4.60696,25.3434
84,582,5.19873,-25.8979,0.00824891,-0.0161333,0.0258948,0.0246789,-0.0325633,0.565393,0.0331531,0.04531,1308,442,5.19876,25.8979
91,582,4.49646,-25.8906,0.0112645,-0.0136778,0.0213822,0.0235467,-0.02596,0.521393,0.028594,0.0482323,1315,442,4.49647,25.8906
98,582,4.22766,-25.4591,0,0,0,0,0,0,0,-1,1322,442,4.22766,25.4591
105,582,4.29224,-25.3453,0,0,0,0,0,0,0,-1,1329,442,4.29222,25.3453
112,582,4.1593,-25.074,0.0166944,0.00182559,0.00378934,0.0176044,0.000915563,0.235691,0.0114433,0.0429417,1336,442,4.15927,25.074
119,582,4.21545,-24.779,0.0203327,0.00751223,-0.00143348,0.020491,0.00735391,-0.110002,0.0119865,0.0440481,1343,442,4.21548,24.779
126,582,4.54346,-24.6356,0.0230677,0.0134881,-0.00613683,0.0260626,0.0104931,-0.45403,0.0151421,0.0449095,1350,442,4.54347,24.6356
133,582,4.46436,-25.292,0.0241737,0.0185473,-0.00984196,0.0315966,0.0111244,-0.646193,0.0185065,0.04356,1357,442,4.46431,25.292
140,582,5.71094,-24.6676,0.0229234,0.0220298,-0.0131034,0.0355876,0.00936561,-0.768357,0.0213009,0.0462211,1364,442,5.71094,24.6676
147,582,6.21606,-24.6434,0.0190264,0.0238909,-0.0156299,0.0372767,0.00564063,-0.862586,0.0232006,0.0450429,1371,442,6.21608,24.6434
154,582,6.57642,-24.3039,0.0124518,0.02394,-0.0171617,0.0362934,9.83514e-05,-0.946889,0.0241629,0.0416192,1378,442,6.57641,24.3039
161,582,6.85291,-24.0289,0,0,0,0,0,0,0,-1,1385,442,6.85285,24.0289
168,582,7.48706,-23.8098,0,0,0,0,0,0,0,-1,1392,442,7.48701,23.8098
175,582,6.50549,-2.00424,0,0,0,0,0,0,0,-1,1399,442,6.50546,2.00425
182,582,5.18958,-2.18652,0,0,0,0,0,0,0,-1,1406,442,5.1896,2.18652
189,582,6.19751,-0.880951,0,0,0,0,0,0,0,-1,1413,442,6.19754,0.88096
196,582,4.87354,-2.22327,0,0,0,0,0,0,0,-1,1420,442,4.87348,2.22325
203,582,3.11401,-4.48257,0,0,0,0,0,0,0,-1,1427,442,3.11404,4.48259
210,582,2.93115,-11.0731,0,0,0,0,0,0,0,-1,1434,442,2.93113,11.0731
217,582,4.94092,-16.5476,0,0,0,0,0,0,0,-1,1441,442,4.94087,16.5476
224,582,5.21008,-20.9908,0,0,0,0,0,0,0,-1,1448,442,5.21006,20.9908
231,582,5.34424,-23.5656,0,0,0,0,0,0,0,-1,1455,442,5.34424,23.5656
238,582,5.24292,-23.2809,0,0,0,0,0,0,0,-1,1462,442,5.24289,23.2808
245,582,5.20813,-23.0753,0.00518693,0.00887626,0.00171737,0.00955195,0.00451125,1.19596,0.00551764,0.0495418,1469,442,5.20812,23.0753
252,582,5.31384,-22.7581,0.00488128,0.00717262,0.00140176,0.00783733,0.00421656,1.128,0.00452924,0.0338809,1476,442,5.31381,22.7581
259,582,5.24231,-22.4617,0.00438191,0.0054405,0.00096303,0.0060101,0.00381231,1.03667,0.00351142,0.0268524,1483,442,5.24237,22.4617
266,582,5.24915,-22.2222,0.00391524,0.00390866,0.000612043,0.004524,0.0032999,0.782713,0.00270203,0.0193943,1490,442,5.24914,22.2222
273,582,5.3291,-21.921,0.00349834,0.00265375,0.000335148,0.00361517,0.00253692,0.335426,0.00214311,0.0160934,1497,442,5.32907,21.921
280,582,5.33411,-21.6732,0.0030038,0.00125129,-3.58401e-05,0.00300453,0.00125055,-0.0204393,0.00174276,0.0126913,1504,442,5.3341,21.6732
287,582,5.34802,-21.392,0.00265201,0.000340395,-0.000236516,0.00267596,0.000316443,-0.100923,0.00168841,0.0112191,1511,442,5.34798,21.392
294,582,5.36633,-21.0994,0.00234356,-0.000162667,-0.000348662,0.00239116,-0.000210268,-0.135686,0.00166862,0.00894118,1518,442,5.36631,21.0994
301,582,5.36914,-20.7963,0.00197294,-0.000669477,-0.000410258,0.00203517,-0.000731708,-0.150539,0.00165549,0.00961432,1525,442,5.36918,20.7963
308,582,5.36804,-20.5161,0.00171504,-0.000846834,-0.000365907,0.00176627,-0.000898072,-0.139123,0.00156525,0.012467,1532,442,5.36809,20.5161
315,582,5.3678,-20.2353,0.00151606,-0.000711286,-0.000266551,0.00154752,-0.00074274,-0.117462,0.00134922,0.0129767,1539,442,5.36781,20.2353
322,582,5.38135,-19.927,0.00127599,-0.000448528,-7.3199e-05,0.0012791,-0.00045163,-0.0423444,0.0010366,0.0101494,1546,442,5.38129,19.927
329,582,5.37573,-19.6242,0.00105416,-0.000105724,0.000186769,0.0010835,-0.000135056,0.155779,0.000771301,0.0100552,1553,442,5.37571,19.6242
336,582,5.36243,-19.3119,0.000856197,0.000260459,0.000467333,0.00111252,4.13886e-06,0.501671,0.000740303,0.0108272,1560,442,5.36241,19.3119
343,582,5.37195,-18.9931,0.000616948,0.000651119,0.000745148,0.00137938,-0.00011131,0.796861,0.000958844,0.013825,1567,442,5.37196,18.9931
350,582,5.3562,-18.6756,0.000425686,0.00127732,0.00110175,0.00203268,-0.000329673,0.969801,0.00147732,0.0168542,1574,442,5.35619,18.6756
357,582,5.36145,-18.3345,0.000189801,0.00187722,0.00147214,0.00273029,-0.000663265,1.04561,0.00207689,0.0132104,1581,442,5.36147,18.3345
364,582,5.3717,-17.9927,-0.000173792,0.00251096,0.00176847,0.00338882,-0.00105166,1.11003,0.00267947,0.0109175,1588,442,5.37168,17.9927
371,582,5.3717,-17.6609,-0.000484641,0.00318784,0.00210433,0.00414445,-0.00144124,1.14413,0.00334842,0.0159735,1595,442,5.37168,17.6609
378,582,5.33606,-17.3355,-0.000882598,0.00395515,0.0023515,0.00490977,-0.00183722,1.18516,0.00402777,0.0161183,1602,442,5.3361,17.3355
385,582,5.32239,-16.9755,-0.0013917,0.00466456,0.00240406,0.00550283,-0.00222997,1.23529,0.0045959,0.0112525,1609,442,5.32239,16.9755
392,582,5.29114,-16.5996,-0.00168635,0.00544737,0.00251572,0.0062453,-0.00248427,1.26366,0.0051936,0.0103456,1616,442,5.29113,16.5996
399,582,5.26001,-16.2491,-0.00127887,0.00634703,0.00319554,0.00750902,-0.00244087,1.22203,0.00598783,0.017049,1623,442,5.25995,16.2491
406,582,5.2865,-15.7897,-0.000287276,0.00790244,0.00485378,0.0101579,-0.00254277,1.13579,0.00775969,0.0300541,1630,442,5.28647,15.7897
413,582,5.11768,-15.403,0.000407144,0.00899042,0.0059178,0.012009,-0.00261139,1.09912,0.00900356,0.0467646,1637,442,5.11764,15.403
420,582,5.1488,-15.1082,0,0,0,0,0,0,0,-1,1644,442,5.14877,15.1082
427,582,5.07593,-14.697,0,0,0,0,0,0,0,-1,1651,442,5.07587,14.697
434,582,4.81897,-14.3503,0,0,0,0,0,0,0,-1,1658,442,4.81897,14.3503
441,582,4.53979,-12.7726,0,0,0,0,0,0,0,-1,1665,442,4.53983,12.7726
448,582,6.54919,-13.0031,0,0,0,0,0,0,0,-1,1672,442,6.54917,13.0031
455,582,5.61389,-12.2941,0,0,0,0,0,0,0,-1,1679,442,5.61391,12.2941
462,582,1.38074,-3.94418,0,0,0,0,0,0,0,-1,1686,442,1.38074,3.94419
469,582,4.77759,-10.3864,0,0,0,0,0,0,0,-1,1693,442,4.77756,10.3864
476,582,1.93579,-8.53891,0,0,0,0,0,0,0,-1,1700,442,1.93579,8.53892
483,582,0,0,0,0,0,0,0,0,0,-1,1707,442,0,0
490,582,0,0,0,0,0,0,0,0,0,-1,1714,442,0,0
497,582,0,0,0,0,0,0,0,0,0,-1,1721,442,0,0
504,582,0,0,0,0,0,0,0,0,0,-1,1728,442,0,0
511,582,0,0,0,0,0,0,0,0,0,-1,1735,442,0,0
518,582,0,0,0,0,0,0,0,0,0,-1,1742,442,0,0
525,582,0,0,0,0,0,0,0,0,0,-1,1749,442,0,0
532,582,0,0,0,0,0,0,0,0,0,-1,1756,442,0,0
539,582,0,0,0,0,0,0,0,0,0,-1,1763,442,0,0
546,582,0,0,0,0,0,0,0,0,0,-1,1770,442,0,0
553,582,0,0,0,0,0,0,0,0,0,-1,1777,442,0,0
560,582,0,0,0,0,0,0,0,0,0,-1,1784,442,0,0
567,582,0,0,0,0,0,0,0,0,0,-1,1791,442,0,0
574,582,0,0,0,0,0,0,0,0,0,-1,1798,442,0,0
581,582,0,0,0,0,0,0,0,0,0,-1,1805,442,0,0
588,582,0,0,0,0,0,0,0,0,0,-1,1812,442,0,0
595,582,0,0,0,0,0,0,0,0,0,-1,1819,442,0,0
602,582,0,0,0,0,0,0,0,0,0,-1,1826,442,0,0
609,582,0,0,0,0,0,0,0,0,0,-1,1833,442,0,0
616,582,0,0,0,0,0,0,0,0,0,-1,1840,442,0,0
623,582,0,0,0,0,0,0,0,0,0,-1,1847,442,0,0
630,582,0,0,0,0,0,0,0,0,0,-1,1854,442,0,0
637,582,0,0,0,0,0,0,0,0,0,-1,1861,442,0,0
644,582,0,0,0,0,0,0,0,0,0,-1,1868,442,0,0
651,582,0,0,0,0,0,0,0,0,0,-1,1875,442,0,0
658,582,0,0,0,0,0,0,0,0,0,-1,1882,442,0,0
665,582,0,0,0,0,0,0,0,0,0,-1,1889,442,0,0
672,582,0,0,0,0,0,0,0,0,0,-1,1896,442,0,0
679,582,0,0,0,0,0,0,0,0,0,-1,1903,442,0,0
686,582,0,0,0,0,0,0,0,0,0,-1,1910,442,0,0
693,582,0,0,0,0,0,0,0,0,0,-1,1917,442,0,0
700,582,0,0,0,0,0,0,0,0,0,-1,1924,442,0,0
707,582,0,0,0,0,0,0,0,0,0,-1,1931,442,0,0
714,582,0,0,0,0,0,0,0,0,0,-1,1938,442,0,0
721,582,0,0,0,0,0,0,0,0,0,-1,1945,442,0,0
728,582,0,0,0,0,0,0,0,0,0,-1,1952,442,0,0
735,582,0,0,0,0,0,0,0,0,0,-1,1959,442,0,0
742,582,0,0,0,0,0,0,0,0,0,-1,1966,442,0,0
749,582,0,0,0,0,0,0,0,0,0,-1,1973,442,0,0
756,582,0,0,0,0,0,0,0,0,0,-1,1980,442,0,0
763,582,0,0,0,0,0,0,0,0,0,-1,1987,442,0,0
770,582,0,0,0,0,0,0,0,0,0,-1,1994,442,0,0
777,582,0,0,0,0,0,0,0,0,0,-1,2001,442,0,0
784,582,0,0,0,0,0,0,0,0,0,-1,2008,442,0,0
791,582,0,0,0,0,0,0,0,0,0,-1,2015,442,0,0
798,582,0,0,0,0,0,0,0,0,0,-1,2022,442,0,0
805,582,0,0,0,0,0,0,0,0,0,-1,2029,442,0,0
812,582,0,0,0,0,0,0,0,0,0,-1,2036,442,0,0
-700,575,0,0,0,0,0,0,0,0,0,-1,524,449,0,0
-693,575,0,0,0,0,0,0,0,0,0,-1,531,449,0,0
-686,575,0,0,0,0,0,0,0,0,0,-1,538,449,0,0
-679,575,0,0,0,0,0,0,0,0,0,-1,545,449,0,0
-672,575,0,0,0,0,0,0,0,0,0,-1,552,449,0,0
-665,575,0,0,0,0,0,0,0,0,0,-1,559,449,0,0
-658,575,0,0,0,0,0,0,0,0,0,-1,566,449,0,0
-651,575,0,0,0,0,0,0,0,0,0,-1,573,449,0,0
-644,575,0,0,0,0,0,0,0,0,0,-1,580,449,0,0
-637,575,0,0,0,0,0,0,0,0,0,-1,587,449,0,0
-630,575,0,0,0,0,0,0,0,0,0,-1,594,449,0,0
-623,575,0,0,0,0,0,0,0,0,0,-1,601,449,0,0
-616,575,0,0,0,0,0,0,0,0,0,-1,608,449,0,0
-609,575,0,0,0,0,0,0,0,0,0,-1,615,449,0,0
-602,575,0,0,0,0,0,0,0,0,0,-1,622,449,0,0
-595,575,0,0,0,0,0,0,0,0,0,-1,629,449,0,0
-588,575,0,0,0,0,0,0,0,0,0,-1,636,449,0,0
-581,575,0,0,0,0,0,0,0,0,0,-1,643,449,0,0
-574,575,0,0,0,0,0,0,0,0,0,-1,650,449,0,0
-567,575,0,0,0,0,0,0,0,0,0,-1,657,449,0,0
-560,575,0,0,0,0,0,0,0,0,0,-1,664,449,0,0
-553,575,0,0,0,0,0,0,0,0,0,-1,671,449,0,0
-546,575,0,0,0,0,0,0,0,0,0,-1,678,449,0,0
-539,575,0,0,0,0,0,0,0,0,0,-1,685,449,0,0
-532,575,0,0,0,0,0,0,0,0,0,-1,692,449,0,0
-525,575,0,0,0,0,0,0,0,0,0,-1,699,449,0,0
-518,575,0,0,0,0,0,0,0,0,0,-1,706,449,0,0
-511,575,0,0,0,0,0,0,0,0,0,-1,713,449,0,0
-504,575,0,0,0,0,0,0,0,0,0,-1,720,449,0,0
-497,575,0,0,0,0,0,0,0,0,0,-1,727,449,0,0
-490,575,0,0,0,0,0,0,0,0,0,-1,734,449,0,0
-483,575,0,0,0,0,0,0,0,0,0,-1,741,449,0,0
-476,575,0,0,0,0,0,0,0,0,0,-1,748,449,0,0
-469,575,0,0,0,0,0,0,0,0,0,-1,755,449,0,0
-462,575,0,0,0,0,0,0,0,0,0,-1,762,449,0,0
-455,575,0,0,0,0,0,0,0,0,0,-1,769,449,0,0
-448,575,0,0,0,0,0,0,0,0,0,-1,776,449,0,0
-441,575,0,0,0,0,0,0,0,0,0,-1,783,449,0,0
-434,575,0,0,0,0,0,0,0,0,0,-1,790,449,0,0
-427,575,0,0,0,0,0,0,0,0,0,-1,797,449,0,0
-420,575,0,0,0,0,0,0,0,0,0,-1,804,449,0,0
-413,575,0,0,0,0,0,0,0,0,0,-1,811,449,0,0
-406,575,0,0,0,0,0,0,0,0,0,-1,818,449,0,0
-399,575,0,0,0,0,0,0,0,0,0,-1,825,449,0,0
-392,575,0,0,0,0,0,0,0,0,0,-1,832,449,0,0
-385,575,0,0,0,0,0,0,0,0,0,-1,839,449,0,0
-378,575,0,0,0,0,0,0,0,0,0,-1,846,449,0,0
-371,575,0.56897,-3.52304,0,0,0,0,0,0,0,-1,853,449,0.568955,3.52306
-364,575,1.49805,-4.67191,0,0,0,0,0,0,0,-1,860,449,1.49803,4.6719
-357,575,3.15521,-8.29892,0,0,0,0,0,0,0,-1,867,449,3.15521,8.29891
-350,575,-0.825928,-18.5347,0,0,0,0,0,0,0,-1,874,449,-0.825948,18.5347
-343,575,0.465393,-16.3569,0,0,0,0,0,0,0,-1,881,449,0.465397,16.3569
-336,575,0.479309,-15.4891,0,0,0,0,0,0,0,-1,888,449,0.479336,15.4891
-329,575,2.34827,-13.6954,0,0,0,0,0,0,0,-1,895,449,2.34825,13.6954
-322,575,2.52032,-14.1081,-0.0155616,-0.00107352,-0.013311,0.00683693,-0.023472,-1.03459,0.0183564,0.0463452,902,449,2.52034,14.1081
-315,575,2.36243,-15.2608,-0.012699,0.00054424,-0.0117369,0.00739857,-0.0195533,-1.04223,0.0160795,0.0453311,909,449,2.36243,15.2608
-308,575,2.00323,-15.6872,-0.00981138,0.00223388,-0.0105708,0.00837736,-0.0159549,-1.04433,0.0142735,0.0436795,916,449,2.00326,15.6872
-301,575,1.9516,-15.9106,-0.00715331,0.00338476,-0.00943112,0.00891891,-0.0126875,-1.04014,0.0125375,0.0330869,923,449,1.95159,15.9106
-294,575,1.90875,-16.2716,-0.00505255,0.00410156,-0.00817136,0.00889043,-0.00984142,-1.04069,0.0108195,0.0245786,930,449,1.90873,16.2716
-287,575,1.90509,-16.6702,-0.00347598,0.0042741,-0.0069857,0.00838755,-0.00758942,-1.03862,0.00922814,0.0178673,937,449,1.90509,16.6702
-280,575,1.90253,-17.0095,-0.00228543,0.00455482,-0.00597929,0.00802302,-0.00575364,-1.04518,0.00798985,0.0135166,944,449,1.9025,17.0095
-273,575,1.89508,-17.3641,-0.00135803,0.0044511,-0.00516575,0.00747287,-0.0043798,-1.04151,0.00692037,0.0115412,951,449,1.89509,17.3641
-266,575,1.89746,-17.726,-0.000660616,0.00359374,-0.00418167,0.00615817,-0.00322505,-1.02069,0.00550493,0.0128242,958,449,1.89747,17.7261
-259,575,1.87018,-18.0747,0.00017092,0.00361276,-0.00341148,0.0057128,-0.00192912,-1.019,0.00458879,0.0123488,965,449,1.87018,18.0747
-252,575,1.81793,-18.4005,0.000374827,0.00254632,-0.00266291,0.00433632,-0.00141517,-0.978974,0.00346045,0.0100782,972,449,1.81793,18.4005
-245,575,1.82324,-18.7304,0.000378277,0.00126089,-0.00189342,0.00276375,-0.00112458,-0.899891,0.00231046,0.0140952,979,449,1.82322,18.7304
-238,575,1.82794,-19.0333,0.000361865,-4.37196e-05,-0.00102811,0.00120699,-0.000888846,-0.688024,0.00121467,0.0153406,986,449,1.82795,19.0333
-231,575,1.80255,-19.332,0.000264562,-0.00131273,-0.00015311,0.000279287,-0.00132745,-0.0958792,0.000991265,0.0130381,993,449,1.80258,19.332
-224,575,1.79053,-19.6465,0.000208208,-0.00238972,0.000629259,0.000352599,-0.00253412,0.225557,0.00181837,0.0121346,1000,449,1.79052,19.6465
-217,575,1.79413,-19.9272,0.00017171,-0.00345664,0.00136354,0.000627001,-0.00391193,0.322263,0.00284012,0.00993919,1007,449,1.79412,19.9272
-210,575,1.81189,-20.2143,0.000134486,-0.00444852,0.00198165,0.000872495,-0.00518653,0.356507,0.00378221,0.00877393,1014,449,1.81186,20.2143
-203,575,1.82172,-20.5204,0.000106343,-0.00516218,0.00209335,0.000836817,-0.00589265,0.335739,0.00423502,0.0121583,1021,449,1.8217,20.5204
-196,575,1.81592,-20.8385,1.97591e-05,-0.00580789,0.00186019,0.000562911,-0.00635104,0.284089,0.00443359,0.016045,1028,449,1.81596,20.8385
-189,575,1.82031,-21.1003,2.58693e-05,-0.00631065,0.00160348,0.000408529,-0.00669331,0.234261,0.00460443,0.0172521,1035,449,1.82036,21.1002
-182,575,1.8396,-21.3347,0.000107137,-0.00680618,0.00114918,0.000293155,-0.0069922,0.160479,0.00476219,0.0136179,1042,449,1.8396,21.3347
-175,575,1.85522,-21.5629,0.000280281,-0.00746677,0.000531412,0.000316563,-0.00750305,0.0681699,0.00511082,0.0107473,1049,449,1.85518,21.5629
-168,575,1.82678,-21.8239,0.000425045,-0.00819027,-0.000335414,0.000438083,-0.00820331,-0.0388538,0.0056206,0.0103209,1056,449,1.82682,21.8239
-161,575,1.84265,-22.0804,0.000451718,-0.00868652,-0.0012682,0.000624454,-0.00885926,-0.135372,0.00612494,0.0152706,1063,449,1.84271,22.0804
-154,575,1.84863,-22.2967,0.000633627,-0.0094371,-0.00202211,0.00102448,-0.00982795,-0.190934,0.00691879,0.0193626,1070,449,1.84858,22.2967
-147,575,1.89575,-22.4714,0.000993968,-0.0103289,-0.0027049,0.00160695,-0.0109419,-0.222856,0.00788503,0.0201584,1077,449,1.89571,22.4714
-140,575,1.84631,-22.6273,0.0012775,-0.0112206,-0.00319415,0.00204651,-0.0119896,-0.23626,0.00875536,0.0283731,1084,449,1.84632,22.6273
-133,575,1.89819,-22.8296,0.00142723,-0.012142,-0.00340455,0.00223352,-0.0129483,-0.232545,0.00946496,0.0353425,1091,449,1.89825,22.8296
-126,575,1.93091,-22.7748,0.0014845,-0.0133455,-0.00302817,0.00207899,-0.01394,-0.193857,0.0100582,0.0418036,1098,449,1.93088,22.7748
-119,575,1.92517,-23.0025,0.00175988,-0.013902,-0.00281694,0.00225113,-0.0143933,-0.172654,0.0104272,0.0386689,1105,449,1.92521,23.0025
-112,575,1.89844,-23.53,0,0,0,0,0,0,0,-1,1112,449,1.89848,23.53
-105,575,1.88354,-23.7794,0,0,0,0,0,0,0,-1,1119,449,1.8835,23.7795
-98,575,1.85706,-23.5938,0,0,0,0,0,0,0,-1,1126,449,1.85705,23.5938
-91,575,1.60803,-16.4247,0,0,0,0,0,0,0,-1,1133,449,1.60802,16.4247
-84,575,1.16553,-11.9056,0,0,0,0,0,0,0,-1,1140,449,1.16558,11.9056
-77,575,0.205078,-11.2584,0,0,0,0,0,0,0,-1,1147,449,0.205117,11.2584
-70,575,-4.2467,-1.78738,0,0,0,0,0,0,0,-1,1154,449,-4.24674,1.78739
-63,575,-4.52209,-3.48798,0,0,0,0,0,0,0,-1,1161,449,-4.5221,3.48796
-56,575,-5.5968,-5.4928,0,0,0,0,0,0,0,-1,1168,449,-5.59683,5.49281
-49,575,-5.96863,-7.17612,0,0,0,0,0,0,0,-1,1175,449,-5.96868,7.1761
-42,575,-0.830322,0.773499,0,0,0,0,0,0,0,-1,1182,449,-0.83038,-0.77351
-35,575,-0.62085,0.205139,0,0,0,0,0,0,0,-1,1189,449,-0.620855,-0.205126
-28,575,0.49292,-3.87988,0,0,0,0,0,0,0,-1,1196,449,0.492941,3.87989
-21,575,2.14172,-26.6502,0,0,0,0,0,0,0,-1,1203,449,2.14173,26.6502
-14,575,2.0415,-26.5655,-0.00941752,-0.0444374,0.0177269,-0.00201076,-0.0518441,0.395778,0.0339124,0.0457973,1210,449,2.0415,26.5655
-7,575,1.93835,-26.4812,-0.0059296,-0.0385544,0.0222868,0.00537674,-0.0498608,0.46948,0.03517,0.0415131,1217,449,1.9383,26.4812
0,575,1.68347,-26.1611,0.000741017,-0.0324945,0.0271618,0.0159653,-0.0477187,0.510871,0.0382612,0.0425577,1224,449,1.6835,26.1611
7,575,1.64307,-25.9726,0.00613854,-0.0261913,0.0316137,0.0254804,-0.0455332,0.549065,0.041541,0.0435262,1231,449,1.64305,25.9726
14,575,1.59436,-25.7545,0.0107178,-0.0204038,0.0365063,0.0348414,-0.0445274,0.583934,0.0459372,0.0479289,1238,449,1.59442,25.7545
21,575,1.422,-25.166,0,0,0,0,0,0,0,-1,1245,449,1.42202,25.166
28,575,0.934448,-25.0166,0,0,0,0,0,0,0,-1,1252,449,0.934452,25.0166
35,575,3.23486,-27.6341,0.0204016,-0.0128674,0.0474419,0.0540407,-0.0465066,0.616781,0.0581053,0.0438098,1259,449,3.23482,27.6341
42,575,3.38892,-27.525,0.0212427,-0.0119394,0.0499609,0.0572953,-0.047992,0.625086,0.0608667,0.0416453,1266,449,3.38894,27.525
49,575,3.77661,-27.2481,0.0212337,-0.0127395,0.050719,0.0577351,-0.0492409,0.623811,0.0618275,0.0425183,1273,449,3.77656,27.2482
56,575,3.93616,-26.8018,0.0198808,-0.0146339,0.0506772,0.0561584,-0.0509115,0.621289,0.0618416,0.0452563,1280,449,3.93617,26.8018
63,575,3.73181,-25.8271,0.0157609,-0.0182159,0.0486474,0.0503009,-0.0527559,0.61741,0.0595055,0.0465097,1287,449,3.73186,25.8271
70,575,3.88391,-25.0819,0.012806,-0.0198141,0.0445686,0.0439551,-0.0509633,0.60999,0.0548509,0.0448591,1294,449,3.88393,25.0819
77,575,3.9541,-24.5131,0.0097281,-0.0191912,0.0384607,0.0363574,-0.0458205,0.605592,0.0475502,0.0469609,1301,449,3.95409,24.5131
84,575,3.91199,-23.8326,0.0116332,-0.0176997,0.0327108,0.032815,-0.0388816,0.57465,0.0414434,0.0468575,1308,449,3.91203,23.8326
91,575,3.96533,-23.1448,0.0155975,-0.0151456,0.0269925,0.0312885,-0.0308365,0.526562,0.0358682,0.0472241,1315,449,3.96535,23.1448
98,575,1.51868,-23.7149,0.0179681,-0.00985137,0.0186253,0.0273045,-0.0191878,0.464668,0.0269784,0.0426562,1322,449,1.51865,23.7149
105,575,0.768188,-22.8551,0,0,0,0,0,0,0,-1,1329,449,0.768179,22.8551
112,575,4.23669,-25.1435,0,0,0,0,0,0,0,-1,1336,449,4.23665,25.1435
119,575,4.53369,-24.736,0.0255774,0.0098771,-0.00234541,0.0259203,0.00953421,-0.145165,0.0151384,0.042889,1343,449,4.5337,24.736
126,575,3.71326,-25.9619,0.0282498,0.0171426,-0.00836124,0.0327338,0.0126586,-0.492248,0.0190599,0.0466832,1350,449,3.7132,25.9619
133,575,4.1095,-26.2738,0.0285942,0.0233737,-0.0130854,0.0393272,0.0126407,-0.686951,0.0231833,0.0443475,1357,449,4.10952,26.2738
140,575,6.08472,-24.7492,0.0255622,0.027718,-0.0171829,0.0438568,0.00942342,-0.816724,0.0266578,0.048738,1364,449,6.08471,24.7492
147,575,6.70801,-24.9232,0,0,0,0,0,0,0,-1,1371,449,6.70807,24.9232
154,575,6.97754,-24.6808,0,0,0,0,0,0,0,-1,1378,449,6.97757,24.6808
161,575,7.25488,-24.5802,0,0,0,0,0,0,0,-1,1385,449,7.25488,24.5802
168,575,4.30603,-21.5567,0,0,0,0,0,0,0,-1,1392,449,4.30599,21.5567
175,575,4.32617,1.93634,0,0,0,0,0,0,0,-1,1399,449,4.32612,-1.93634
182,575,6.3147,-2.88345,0,0,0,0,0,0,0,-1,1406,449,6.31466,2.88346
189,575,6.10449,-1.30817,0,0,0,0,0,0,0,-1,1413,449,6.10455,1.30817
196,575,5.79895,0.818359,0,0,0,0,0,0,0,-1,1420,449,5.79895,-0.81837
203,575,3.29724,-1.46378,0,0,0,0,0,0,0,-1,1427,449,3.29722,1.46377
210,575,2.32739,-7.74503,0,0,0,0,0,0,0,-1,1434,449,2.32741,7.74502
217,575,3.33618,-11.5521,0,0,0,0,0,0,0,-1,1441,449,3.3362,11.5521
224,575,5.51709,-16.3903,0,0,0,0,0,0,0,-1,1448,449,5.51713,16.3903
231,575,5.48572,-20.4595,0,0,0,0,0,0,0,-1,1455,449,5.48571,20.4595
238,575,5.33484,-22.3575,0,0,0,0,0,0,0,-1,1462,449,5.33478,22.3575
245,575,5.59741,-23.513,0,0,0,0,0,0,0,-1,1469,449,5.5974,23.513
252,575,5.5752,-23.0957,0,0,0,0,0,0,0,-1,1476,449,5.57516,23.0957
259,575,5.49316,-22.7135,0,0,0,0,0,0,0,-1,1483,449,5.4932,22.7135
266,575,5.47864,-22.4757,0,0,0,0,0,0,0,-1,1490,449,5.47866,22.4757
273,575,5.54785,-22.0074,0,0,0,0,0,0,0,-1,1497,449,5.5478,22.0074
280,575,5.46008,-21.7379,0,0,0,0,0,0,0,-1,1504,449,5.46011,21.7379
287,575,5.54883,-21.4114,0.00354919,-0.00057723,-0.000655672,0.00365087,-0.000678909,-0.153849,0.00268894,0.0238814,1511,449,5.54879,21.4114
294,575,5.62683,-21.1106,0.00310486,-0.00124559,-0.000901794,0.00328438,-0.00142511,-0.196504,0.00278876,0.0110441,1518,449,5.62687,21.1106
301,575,5.65747,-20.8239,0.00258202,-0.00190695,-0.00107745,0.00282724,-0.00215217,-0.223778,0.00288365,0.00959247,1525,449,5.65747,20.8239
308,575,5.68176,-20.5277,0.00215171,-0.00218899,-0.00115246,0.00243872,-0.00247599,-0.24407,0.00283754,0.0104762,1532,449,5.6817,20.5277
315,575,5.67249,-20.2357,0.00179451,-0.00204326,-0.00113367,0.00210437,-0.00235312,-0.266812,0.00257487,0.0103462,1539,449,5.67246,20.2357
322,575,5.69714,-19.9275,0.00142737,-0.00172379,-0.000972525,0.00170335,-0.00199976,-0.276503,0.00214027,0.00957514,1546,449,5.69717,19.9275
329,575,5.6825,-19.6324,0.00112123,-0.00127327,-0.000713679,0.0013178,-0.00146984,-0.268773,0.00161025,0.0105016,1553,449,5.68246,19.6324
336,575,5.6698,-19.3122,0.000867794,-0.00080559,-0.000426078,0.000970035,-0.000907831,-0.235506,0.00108438,0.0120865,1560,449,5.6698,19.3122
343,575,5.70471,-18.9919,0.000580605,-0.000330493,-0.000148569,0.00060422,-0.000354107,-0.157628,0.000559537,0.0124485,1567,449,5.70466,18.9919
350,575,5.70154,-18.6653,0.000376607,0.000304662,0.000220969,0.000564512,0.000116757,0.704709,0.00034409,0.0115272,1574,449,5.70156,18.6653
357,575,5.69141,-18.3206,0.000160262,0.000962483,0.000609826,0.00129129,-0.000168543,1.0763,0.000922188,0.0112465,1581,449,5.69139,18.3206
364,575,5.68811,-17.9857,-0.000108093,0.00158783,0.000967365,0.00202627,-0.000546535,1.14526,0.00156516,0.0108545,1588,449,5.6881,17.9857
371,575,5.68298,-17.6672,-0.000339616,0.00219338,0.00132501,0.00275983,-0.000906061,1.16681,0.00220486,0.0199746,1595,449,5.68304,17.6672
378,575,5.6853,-17.3377,-0.000642218,0.00284896,0.00159294,0.00346653,-0.00125979,1.20094,0.00282615,0.0184875,1602,449,5.68525,17.3377
385,575,5.66125,-16.9665,-0.00101656,0.0034882,0.00170711,0.00406203,-0.00159039,1.24652,0.00336582,0.0113857,1609,449,5.66122,16.9665
392,575,5.62,-16.6092,-0.00119143,0.00407937,0.00185957,0.0046694,-0.00178146,1.26356,0.0038468,0.00953915,1616,449,5.62,16.6092
399,575,5.59717,-16.2789,-0.000800645,0.00478803,0.0024845,0.00573282,-0.00174543,1.20741,0.00451752,0.0101221,1623,449,5.59719,16.2789
406,575,5.58105,-15.9041,5.67828e-05,0.00606835,0.00392844,0.00800902,-0.00188388,1.11196,0.00606562,0.0116947,1630,449,5.58104,15.9042
413,575,5.5697,-15.5216,0.000636473,0.00696005,0.00484915,0.00958714,-0.00199062,1.0743,0.00714797,0.0133982,1637,449,5.56971,15.5216
420,575,5.53809,-15.121,0.00232459,0.00821325,0.00533426,0.0113618,-0.000823974,1.03757,0.0078636,0.0136856,1644,449,5.53808,15.121
427,575,5.47815,-14.7304,0.00428846,0.00808483,0.00642218,0.0128835,-0.000510189,0.929091,0.008764,0.017875,1651,449,5.47816,14.7304
434,575,5.39148,-14.414,0.00557998,0.00436968,0.00727828,0.0122782,-0.00232856,0.743921,0.00906196,0.0296901,1658,449,5.39153,14.414
441,575,5.34705,-14.1291,0,0,0,0,0,0,0,-1,1665,449,5.34706,14.1291
448,575,6.54822,-13.1739,0,0,0,0,0,0,0,-1,1672,449,6.54822,13.1739
455,575,7.0238,-12.5338,0,0,0,0,0,0,0,-1,1679,449,7.02384,12.5338
462,575,4.74707,-12.7634,0,0,0,0,0,0,0,-1,1686,449,4.74705,12.7634
469,575,5.06116,-12.0609,0,0,0,0,0,0,0,-1,1693,449,5.06115,12.0609
476,575,5.88562,-12.7925,0,0,0,0,0,0,0,-1,1700,449,5.88562,12.7925
483,575,5.71069,-13.1169,0.00791228,-0.0532013,0.00352675,0.00811513,-0.0534041,0.057454,0.0385932,0.0422384,1707,449,5.7107,13.1169
490,575,5.44775,-12.8399,0,0,0,0,0,0,0,-1,1714,449,5.44769,12.8399
497,575,0,0,0,0,0,0,0,0,0,-1,1721,449,0,0
504,575,0,0,0,0,0,0,0,0,0,-1,1728,449,0,0
511,575,0,0,0,0,0,0,0,0,0,-1,1735,449,0,0
518,575,0,0,0,0,0,0,0,0,0,-1,1742,449,0,0
525,575,0,0,0,0,0,0,0,0,0,-1,1749,449,0,0
532,575,0,0,0,0,0,0,0,0,0,-1,1756,449,0,0
539,575,0,0,0,0,0,0,0,0,0,-1,1763,449,0,0
546,575,0,0,0,0,0,0,0,0,0,-1,1770,449,0,0
553,575,0,0,0,0,0,0,0,0,0,-1,1777,449,0,0
560,575,0,0,0,0,0,0,0,0,0,-1,1784,449,0,0
567,575,0,0,0,0,0,0,0,0,0,-1,1791,449,0,0
574,575,0,0,0,0,0,0,0,0,0,-1,1798,449,0,0
581,575,0,0,0,0,0,0,0,0,0,-1,1805,449,0,0
588,575,0,0,0,0,0,0,0,0,0,-1,1812,449,0,0
595,575,0,0,0,0,0,0,0,0,0,-1,1819,449,0,0
602,575,0,0,0,0,0,0,0,0,0,-1,1826,449,0,0
609,575,0,0,0,0,0,0,0,0,0,-1,1833,449,0,0
616,575,0,0,0,0,0,0,0,0,0,-1,1840,449,0,0
623,575,0,0,0,0,0,0,0,0,0,-1,1847,449,0,0
630,575,0,0,0,0,0,0,0,0,0,-1,1854,449,0,0
637,575,0,0,0,0,0,0,0,0,0,-1,1861,449,0,0
644,575,0,0,0,0,0,0,0,0,0,-1,1868,449,0,0
651,575,0,0,0,0,0,0,0,0,0,-1,1875,449,0,0
658,575,0,0,0,0,0,0,0,0,0,-1,1882,449,0,0
665,575,0,0,0,0,0,0,0,0,0,-1,1889,449,0,0
672,575,0,0,0,0,0,0,0,0,0,-1,1896,449,0,0
679,575,0,0,0,0,0,0,0,0,0,-1,1903,449,0,0
686,575,0,0,0,0,0,0,0,0,0,-1,1910,449,0,0
693,575,0,0,0,0,0,0,0,0,0,-1,1917,449,0,0
700,575,0,0,0,0,0,0,0,0,0,-1,1924,449,0,0
707,575,0,0,0,0,0,0,0,0,0,-1,1931,449,0,0
714,575,0,0,0,0,0,0,0,0,0,-1,1938,449,0,0
721,575,0,0,0,0,0,0,0,0,0,-1,1945,449,0,0
728,575,0,0,0,0,0,0,0,0,0,-1,1952,449,0,0
735,575,0,0,0,0,0,0,0,0,0,-1,1959,449,0,0
742,575,0,0,0,0,0,0,0,0,0,-1,1966,449,0,0
749,575,0,0,0,0,0,0,0,0,0,-1,1973,449,0,0
756,575,0,0,0,0,0,0,0,0,0,-1,1980,449,0,0
763,575,0,0,0,0,0,0,0,0,0,-1,1987,449,0,0
770,575,0,0,0,0,0,0,0,0,0,-1,1994,449,0,0
777,575,0,0,0,0,0,0,0,0,0,-1,2001,449,0,0
784,575,0,0,0,0,0,0,0,0,0,-1,2008,449,0,0
791,575,0,0,0,0,0,0,0,0,0,-1,2015,449,0,0
798,575,0,0,0,0,0,0,0,0,0,-1,2022,449,0,0
805,575,0,0,0,0,0,0,0,0,0,-1,2029,449,0,0
812,575,0,0,0,0,0,0,0,0,0,-1,2036,449,0,0
-700,568,0,0,0,0,0,0,0,0,0,-1,524,456,0,0
-693,568,0,0,0,0,0,0,0,0,0,-1,531,456,0,0
-686,568,0,0,0,0,0,0,0,0,0,-1,538,456,0,0
-679,568,0,0,0,0,0,0,0,0,0,-1,545,456,0,0
-672,568,0,0,0,0,0,0,0,0,0,-1,552,456,0,0
-665,568,0,0,0,0,0,0,0,0,0,-1,559,456,0,0
-658,568,0,0,0,0,0,0,0,0,0,-1,566,456,0,0
-651,568,0,0,0,0,0,0,0,0,0,-1,573,456,0,0
-644,568,0,0,0,0,0,0,0,0,0,-1,580,456,0,0
-637,568,0,0,0,0,0,0,0,0,0,-1,587,456,0,0
-630,568,0,0,0,0,0,0,0,0,0,-1,594,456,0,0
-623,568,0,0,0,0,0,0,0,0,0,-1,601,456,0,0
-616,568,0,0,0,0,0,0,0,0,0,-1,608,456,0,0
-609,568,0,0,0,0,0,0,0,0,0,-1,615,456,0,0
-602,568,0,0,0,0,0,0,0,0,0,-1,622,456,0,0
-595,568,0,0,0,0,0,0,0,0,0,-1,629,456,0,0
-588,568,0,0,0,0,0,0,0,0,0,-1,636,456,0,0
-581,568,0,0,0,0,0,0,0,0,0,-1,643,456,0,0
-574,568,0,0,0,0,0,0,0,0,0,-1,650,456,0,0
-567,568,0,0,0,0,0,0,0,0,0,-1,657,456,0,0
-560,568,0,0,0,0,0,0,0,0,0,-1,664,456,0,0
-553,568,0,0,0,0,0,0,0,0,0,-1,671,456,0,0
-546,568,0,0,0,0,0,0,0,0,0,-1,678,456,0,0
-539,568,0,0,0,0,0,0,0,0,0,-1,685,456,0,0
-532,568,0,0,0,0,0,0,0,0,0,-1,692,456,0,0
-525,568,0,0,0,0,0,0,0,0,0,-1,699,456,0,0
-518,568,0,0,0,0,0,0,0,0,0,-1,706,456,0,0
-511,568,0,0,0,0,0,0,0,0,0,-1,713,456,0,0
-504,568,0,0,0,0,0,0,0,0,0,-1,720,456,0,0
-497,568,0,0,0,0,0,0,0,0,0,-1,727,456,0,0
-490,568,0,0,0,0,0,0,0,0,0,-1,734,456,0,0
-483,568,0,0,0,0,0,0,0,0,0,-1,741,456,0,0
-476,568,0,0,0,0,0,0,0,0,0,-1,748,456,0,0
-469,568,0,0,0,0,0,0,0,0,0,-1,755,456,0,0
-462,568,0,0,0,0,0,0,0,0,0,-1,762,456,0,0
-455,568,0,0,0,0,0,0,0,0,0,-1,769,456,0,0
-448,568,0,0,0,0,0,0,0,0,0,-1,776,456,0,0
-441,568,0,0,0,0,0,0,0,0,0,-1,783,456,0,0
-434,568,0,0,0,0,0,0,0,0,0,-1,790,456,0,0
-427,568,0,0,0,0,0,0,0,0,0,-1,797,456,0,0
-420,568,0,0,0,0,0,0,0,0,0,-1,804,456,0,0
-413,568,0,0,0,0,0,0,0,0,0,-1,811,456,0,0
-406,568,0,0,0,0,0,0,0,0,0,-1,818,456,0,0
-399,568,0,0,0,0,0,0,0,0,0,-1,825,456,0,0
-392,568,0,0,0,0,0,0,0,0,0,-1,832,456,0,0
-385,568,0,0,0,0,0,0,0,0,0,-1,839,456,0,0
-378,568,0.321777,-7.29929,0,0,0,0,0,0,0,-1,846,456,0.321806,7.29927
-371,568,1.09595,-7.46707,0,0,0,0,0,0,0,-1,853,456,1.09597,7.46707
-364,568,1.87787,-7.61115,0,0,0,0,0,0,0,-1,860,456,1.87784,7.61116
-357,568,2.14166,-7.67645,0,0,0,0,0,0,0,-1,867,456,2.14167,7.67646
-350,568,2.7467,-11.2507,0,0,0,0,0,0,0,-1,874,456,2.7467,11.2507
-343,568,2.16516,-11.3762,0,0,0,0,0,0,0,-1,881,456,2.16514,11.3762
-336,568,1.0954,-14.1476,0,0,0,0,0,0,0,-1,888,456,1.09538,14.1476
-329,568,2.078,-14.0935,0,0,0,0,0,0,0,-1,895,456,2.07801,14.0935
-322,568,2.04083,-14.5163,-0.0110098,0.00168777,-0.0101381,0.00730097,-0.016623,-1.06514,0.0141577,0.0424098,902,456,2.04082,14.5163
-315,568,1.93115,-14.9729,-0.0091303,0.00233126,-0.00892654,0.00720826,-0.0140073,-1.07076,0.0124567,0.0371088,909,456,1.93113,14.9729
-308,568,1.70001,-15.5915,-0.00724205,0.00308118,-0.00801125,0.00744964,-0.0116105,-1.07158,0.0110914,0.0277035,916,456,1.70003,15.5915
-301,568,1.65948,-15.9882,-0.00540457,0.00348613,-0.00710865,0.00742493,-0.00934337,-1.06482,0.00970228,0.0164711,923,456,1.65947,15.9882
-294,568,1.62091,-16.3264,-0.00384592,0.00366846,-0.00612927,0.00710046,-0.00727792,-1.06036,0.00830157,0.0123902,930,456,1.62092,16.3264
-287,568,1.60327,-16.6995,-0.00265757,0.00351813,-0.00517309,0.00645487,-0.00559431,-1.05447,0.00696251,0.0111149,937,456,1.60326,16.6995
-280,568,1.5899,-17.0504,-0.00176298,0.00344885,-0.00436957,0.00593056,-0.00424468,-1.05427,0.0059015,0.0110516,944,456,1.58988,17.0504
-273,568,1.57007,-17.3926,-0.00104051,0.00306392,-0.00365323,0.0052019,-0.00317848,-1.04131,0.0048852,0.0121734,951,456,1.57009,17.3926
-266,568,1.5545,-17.7404,-0.000420695,0.0020148,-0.00278625,0.00383779,-0.00224368,-0.991418,0.00355112,0.0115942,958,456,1.55452,17.7404
-259,568,1.53882,-18.0768,0.000265549,0.00159722,-0.00207815,0.0031136,-0.00125083,-0.94043,0.00259518,0.0122504,965,456,1.53881,18.0768
-252,568,1.50934,-18.3949,0.0004444,0.000342033,-0.00135067,0.00174486,-0.000958424,-0.76646,0.0015826,0.0120257,972,456,1.50934,18.3949
-245,568,1.50623,-18.6937,0.000428847,-0.00118914,-0.000567754,0.000608194,-0.00136848,-0.305968,0.00116904,0.0137189,979,456,1.50625,18.6937
-238,568,1.51935,-19.0092,0.00039004,-0.00282817,0.000335473,0.000424639,-0.00286277,0.10277,0.00206467,0.0133425,986,456,1.51932,19.0092
-231,568,1.51184,-19.3225,0.000306731,-0.00438804,0.00122858,0.000608805,-0.00469012,0.24109,0.00334818,0.0121789,993,456,1.51185,19.3225
-224,568,1.49408,-19.6353,0.000221557,-0.0057873,0.00208129,0.000872038,-0.00643778,0.302919,0.00461011,0.0135649,1000,456,1.49405,19.6353
-217,568,1.50531,-19.9252,0.000129672,-0.00711489,0.00290812,0.00115261,-0.00813783,0.338236,0.00584741,0.011208,1007,456,1.50533,19.9252
-210,568,1.51813,-20.2042,5.17073e-05,-0.00831643,0.00359545,0.00138431,-0.00964903,0.35494,0.0069403,0.0110374,1014,456,1.5181,20.2042
-203,568,1.51917,-20.517,-2.0268e-05,-0.00905764,0.00352794,0.00119384,-0.0102717,0.331445,0.00727848,0.0105062,1021,456,1.51914,20.517
-196,568,1.55762,-20.7826,-0.000175959,-0.00973612,0.00302478,0.000700679,-0.0106128,0.28209,0.00731992,0.0141684,1028,456,1.55762,20.7826
-189,568,1.56018,-21.0532,-0.000238366,-0.0101769,0.00256361,0.000383945,-0.0107992,0.238141,0.00733078,0.0144435,1035,456,1.56021,21.0532
-182,568,1.58752,-21.3118,-0.000220572,-0.0105529,0.00180217,8.4741e-05,-0.0108582,0.167821,0.00726721,0.0143695,1042,456,1.58751,21.3118
-175,568,1.61572,-21.5505,-8.36956e-05,-0.0109651,0.000779084,-2.81986e-05,-0.0110206,0.071114,0.00733771,0.0122215,1049,456,1.6157,21.5505
-168,568,1.59216,-21.7307,1.44454e-05,-0.0114423,-0.00066246,5.26235e-05,-0.0114805,-0.0575669,0.00767127,0.0170351,1056,456,1.59217,21.7307
-161,568,1.57861,-21.9247,-9.64375e-05,-0.0116402,-0.00220339,0.000309834,-0.0120464,-0.182336,0.0081362,0.0325399,1063,456,1.57866,21.9247
-154,568,1.71765,-22.4254,3.60969e-05,-0.0123062,-0.00353262,0.000975681,-0.0132458,-0.259955,0.00917305,0.0439742,1070,456,1.71763,22.4254
-147,568,1.9502,-22.8294,0,0,0,0,0,0,0,-1,1077,456,1.95019,22.8294
-140,568,1.63989,-22.5753,0,0,0,0,0,0,0,-1,1084,456,1.63994,22.5753
-133,568,1.42896,-22.8665,0,0,0,0,0,0,0,-1,1091,456,1.42898,22.8665
-126,568,1.37708,-22.0429,0,0,0,0,0,0,0,-1,1098,456,1.37714,22.0429
-119,568,1.552,-22.5903,0,0,0,0,0,0,0,-1,1105,456,1.55202,22.5903
-112,568,1.72693,-23.1378,0,0,0,0,0,0,0,-1,1112,456,1.7269,23.1378
-105,568,0.272095,-16.297,0,0,0,0,0,0,0,-1,1119,456,0.272141,16.297
-98,568,1.58618,-14.7874,0,0,0,0,0,0,0,-1,1126,456,1.58617,14.7874
-91,568,1.11621,-11.1853,0,0,0,0,0,0,0,-1,1133,456,1.11626,11.1853
-84,568,0.461792,-9.7959,0,0,0,0,0,0,0,-1,1140,456,0.461793,9.7959
-77,568,-1.13806,-8.57822,0,0,0,0,0,0,0,-1,1147,456,-1.13807,8.57821
-70,568,-4.09766,-1.42911,0,0,0,0,0,0,0,-1,1154,456,-4.09767,1.4291
-63,568,-5.92273,-3.70752,0,0,0,0,0,0,0,-1,1161,456,-5.92272,3.70751
-56,568,-5.24158,-6.01385,0,0,0,0,0,0,0,-1,1168,456,-5.24161,6.01386
-49,568,-5.24365,-8.33557,0,0,0,0,0,0,0,-1,1175,456,-5.24371,8.33557
-42,568,-0.664795,0.521973,0,0,0,0,0,0,0,-1,1182,456,-0.664829,-0.521984
-35,568,-0.153076,-1.67731,0,0,0,0,0,0,0,-1,1189,456,-0.153068,1.67731
-28,568,1.25439,-4.48798,0,0,0,0,0,0,0,-1,1196,456,1.2544,4.48797
-21,568,2.21033,-26.209,0,0,0,0,0,0,0,-1,1203,456,2.21031,26.209
-14,568,2.08594,-26.1417,-0.0153191,-0.0495968,0.0188387,-0.00698956,-0.0579263,0.416305,0.0365114,0.0444406,1210,456,2.0859,26.1417
-7,568,2.05334,-26.2983,-0.0107093,-0.0415691,0.0245929,0.00289338,-0.0551719,0.505232,0.0377826,0.0441545,1217,456,2.05335,26.2983
0,568,1.69202,-25.8858,-0.00185957,-0.0333014,0.0308021,0.0170015,-0.0521625,0.549438,0.0416163,0.0450883,1224,456,1.69201,25.8858
7,568,1.37537,-26.4248,0,0,0,0,0,0,0,-1,1231,456,1.37539,26.4248
14,568,1.22668,-25.88,0.0119077,-0.0180237,0.0427084,0.0421966,-0.0483126,0.616875,0.0522952,0.046355,1238,456,1.22672,25.88
21,568,1.10608,-25.3598,0,0,0,0,0,0,0,-1,1245,456,1.10606,25.3598
28,568,0.960693,-24.816,0,0,0,0,0,0,0,-1,1252,456,0.960691,24.816
35,568,2.52515,-27.7635,0.0243983,-0.00980886,0.0570153,0.0668202,-0.0522307,0.639678,0.0689059,0.0419127,1259,456,2.52513,27.7636
42,568,2.45667,-27.8153,0.0259228,-0.0091682,0.0603045,0.0711824,-0.0544278,0.643832,0.0727358,0.039716,1266,456,2.45667,27.8153
49,568,3.24927,-27.2032,0.0262722,-0.0104085,0.0616416,0.072244,-0.0563803,0.640803,0.0744493,0.0436553,1273,456,3.24933,27.2032
56,568,3.54724,-26.6681,0,0,0,0,0,0,0,-1,1280,456,3.54729,26.6681
63,568,3.6355,-25.8038,0.0195968,-0.018225,0.0597872,0.0633926,-0.0620208,0.632225,0.0724089,0.046475,1287,456,3.63547,25.8038
70,568,3.70105,-24.9147,0.0166385,-0.0203795,0.0549161,0.0560809,-0.0598219,0.622856,0.0669281,0.0460446,1294,456,3.70101,24.9147
77,568,3.40259,-24.5303,0.0136418,-0.0201243,0.0472811,0.0469638,-0.0534463,0.613915,0.058012,0.04627,1301,456,3.4026,24.5303
84,568,2.96533,-24.0249,0.0169408,-0.0193225,0.0401445,0.0428585,-0.0452401,0.573282,0.0508699,0.0446448,1308,456,2.96533,24.0249
91,568,2.31836,-23.2882,0.0219922,-0.0169051,0.0330609,0.0409007,-0.0358136,0.519524,0.0443235,0.0419899,1315,456,2.31833,23.2882
98,568,1.63733,-22.4597,0.0248129,-0.0110038,0.0224705,0.0356384,-0.0218293,0.448952,0.0334968,0.0439523,1322,456,1.63736,22.4597
105,568,3.32654,-24.5334,0,0,0,0,0,0,0,-1,1329,456,3.32649,24.5334
112,568,3.44958,-25.3112,0,0,0,0,0,0,0,-1,1336,456,3.4496,25.3113
119,568,3.38428,-26.0675,0.0316325,0.0115685,-0.00366259,0.0322802,0.0109208,-0.175028,0.018959,0.0459853,1343,456,3.38428,26.0675
126,568,3.43494,-26.4023,0.0337505,0.0201648,-0.0111376,0.0400033,0.013912,-0.511564,0.02345,0.0461766,1350,456,3.43492,26.4023
133,568,3.79517,-27.0602,0,0,0,0,0,0,0,-1,1357,456,3.79522,27.0602
140,568,6.47998,-24.8201,0,0,0,0,0,0,0,-1,1364,456,6.48002,24.8201
147,568,7.70508,-24.51,0.015204,0.0357263,-0.025441,0.0528975,-0.00196724,-0.977086,0.0359387,0.0454342,1371,456,7.70507,24.51
154,568,7.54736,-24.8507,0,0,0,0,0,0,0,-1,1378,456,7.54736,24.8507
161,568,7.38574,-25.0542,0,0,0,0,0,0,0,-1,1385,456,7.38571,25.0542
168,568,7.26782,-25.2079,0,0,0,0,0,0,0,-1,1392,456,7.26784,25.2079
175,568,10.5151,0.747498,0,0,0,0,0,0,0,-1,1399,456,10.5152,-0.747501
182,568,6.35095,-3.63361,0,0,0,0,0,0,0,-1,1406,456,6.35093,3.63359
189,568,6.17493,-1.70911,0,0,0,0,0,0,0,-1,1413,456,6.17497,1.70911
196,568,6.04724,0.200836,0,0,0,0,0,0,0,-1,1420,456,6.04724,-0.200835
203,568,5.9281,2.08649,0,0,0,0,0,0,0,-1,1427,456,5.92812,-2.08648
210,568,1.46216,-2.50446,0,0,0,0,0,0,0,-1,1434,456,1.46219,2.50446
217,568,2.62366,-7.86703,0,0,0,0,0,0,0,-1,1441,456,2.62365,7.86704
224,568,3.43494,-12.1555,0,0,0,0,0,0,0,-1,1448,456,3.43492,12.1555
231,568,4.38245,-9.3205,0,0,0,0,0,0,0,-1,1455,456,4.38244,9.32048
238,568,5.88879,-20.7448,0,0,0,0,0,0,0,-1,1462,456,5.88876,20.7449
245,568,3.34387,-10.6774,0,0,0,0,0,0,0,-1,1469,456,3.34389,10.6774
252,568,3.56946,-9.28928,0,0,0,0,0,0,0,-1,1476,456,3.56948,9.28928
259,568,3.38843,-8.73068,0,0,0,0,0,0,0,-1,1483,456,3.38842,8.73068
266,568,3.104,-9.16876,0,0,0,0,0,0,0,-1,1490,456,3.10397,9.16876
273,568,3.77869,-13.1147,0,0,0,0,0,0,0,-1,1497,456,3.77869,13.1147
280,568,4.40002,-14.9322,0,0,0,0,0,0,0,-1,1504,456,4.4,14.9322
287,568,5.82874,-21.492,0,0,0,0,0,0,0,-1,1511,456,5.82879,21.492
294,568,5.96826,-21.019,0.0041163,-0.00266267,-0.00152336,0.00444289,-0.00298926,-0.211193,0.00431823,0.0327541,1518,456,5.96822,21.0191
301,568,5.94812,-20.7693,0.00343447,-0.00344361,-0.00180109,0.00387755,-0.0038867,-0.241221,0.0044827,0.0207776,1525,456,5.94808,20.7693
308,568,5.97852,-20.5013,0.00278173,-0.00380096,-0.00199979,0.00334164,-0.00436086,-0.272991,0.00446,0.013607,1532,456,5.97856,20.5012
315,568,5.97644,-20.2103,0.00220408,-0.00357788,-0.00205267,0.00285869,-0.00423248,-0.308711,0.00411962,0.00803597,1539,456,5.97638,20.2103
322,568,5.97864,-19.9183,0.00166693,-0.00312983,-0.00190006,0.00232836,-0.00379126,-0.334991,0.00356665,0.00983721,1546,456,5.97861,19.9183
329,568,5.99048,-19.6147,0.00124384,-0.00251219,-0.00162226,0.00184749,-0.00311584,-0.35623,0.0028966,0.0108136,1553,456,5.99045,19.6147
336,568,6.0072,-19.2886,0.00090428,-0.00190388,-0.00131792,0.00142591,-0.00242551,-0.376878,0.00224844,0.0114428,1560,456,6.00721,19.2886
343,568,6.04114,-18.971,0.00054582,-0.00132448,-0.00103464,0.0010053,-0.00178396,-0.417931,0.00163116,0.0113385,1567,456,6.04117,18.971
350,568,6.03345,-18.6636,0.000311744,-0.000654192,-0.000647847,0.000636838,-0.000979285,-0.465092,0.000940025,0.0100949,1574,456,6.0335,18.6636
357,568,6.01282,-18.334,0.000107491,6.93431e-05,-0.000232689,0.000321886,-0.000145052,-0.744504,0.000275956,0.00958987,1581,456,6.01277,18.334
364,568,6.01794,-18.0028,-8.28575e-05,0.000687589,0.000180921,0.000727958,-0.000123227,1.35126,0.000531168,0.0115218,1588,456,6.01796,18.0028
371,568,6.02368,-17.6332,-0.000223635,0.00125265,0.000575039,0.0014502,-0.000421187,1.23988,0.00113359,0.0197294,1595,456,6.02365,17.6332
378,568,6.04041,-17.3075,-0.000415507,0.0018329,0.000881979,0.00213759,-0.000720191,1.23818,0.00171625,0.0193132,1602,456,6.04043,17.3075
385,568,5.99744,-16.9803,-0.000651354,0.00244403,0.00107829,0.00278262,-0.000989946,1.26654,0.00225858,0.00997341,1609,456,5.99741,16.9803
392,568,5.94714,-16.6246,-0.000726767,0.0029023,0.00128251,0.00330978,-0.00113425,1.26316,0.00266627,0.0109758,1616,456,5.94711,16.6246
399,568,5.89832,-16.3061,-0.000385291,0.0034651,0.00185261,0.0042117,-0.0011319,1.1877,0.00325145,0.0175263,1623,456,5.89832,16.3061
406,568,5.92395,-15.9269,0.000305745,0.00450985,0.00307421,0.00613196,-0.00131637,1.08527,0.00459012,0.0156465,1630,456,5.92391,15.9269
413,568,5.91748,-15.5402,0.000758845,0.00525641,0.00387221,0.00748546,-0.00147021,1.04847,0.00554572,0.0117043,1637,456,5.91746,15.5402
420,568,5.91016,-15.1331,0.00202699,0.0062434,0.00431543,0.00893805,-0.00066766,1.01261,0.00619326,0.0108231,1644,456,5.91013,15.1331
427,568,5.88867,-14.7401,0.0034556,0.00616172,0.0052111,0.0101926,-0.00057524,0.912418,0.00699467,0.0129946,1651,456,5.88873,14.74
434,568,5.89331,-14.3666,0.0044595,0.00361689,0.00595463,0.0100077,-0.00193133,0.750081,0.00740007,0.0181487,1658,456,5.89333,14.3666
441,568,5.90027,-14.0571,0.00606378,0.00201975,0.00675802,0.0110958,-0.00301226,0.640036,0.00857941,0.026399,1665,456,5.90026,14.0571
448,568,6.3363,-13.4234,0.00758202,-0.000628498,0.00734411,0.0118904,-0.00493687,0.53054,0.00998789,0.037987,1672,456,6.33627,13.4234
455,568,6.89246,-12.6959,0.00875616,-0.00490029,0.00754607,0.0121048,-0.0082489,0.417648,0.0118213,0.0436083,1679,456,6.89251,12.6959
462,568,7.08936,-11.9275,0,0,0,0,0,0,0,-1,1686,456,7.0893,11.9275
469,568,5.55383,-12.198,0.00952163,-0.0179696,0.00676391,0.0110957,-0.0195437,0.228645,0.0179124,0.047986,1693,456,5.55384,12.198
476,568,6.00464,-12.4121,0.00847417,-0.0273988,0.00545955,0.00928666,-0.0282113,0.147736,0.0225498,0.0468114,1700,456,6.00464,12.4121
483,568,5.93018,-12.2104,0.00655777,-0.0391679,0.00380857,0.00687282,-0.0394829,0.0825338,0.0288867,0.0451806,1707,456,5.93015,12.2104
490,568,5.77087,-11.9879,0,0,0,0,0,0,0,-1,1714,456,5.77091,11.9879
497,568,6.599,-4.41254,0,0,0,0,0,0,0,-1,1721,456,6.59905,4.41255
504,568,0,0,0,0,0,0,0,0,0,-1,1728,456,0,0
511,568,0,0,0,0,0,0,0,0,0,-1,1735,456,0,0
518,568,0,0,0,0,0,0,0,0,0,-1,1742,456,0,0
525,568,0,0,0,0,0,0,0,0,0,-1,1749,456,0,0
532,568,0,0,0,0,0,0,0,0,0,-1,1756,456,0,0
539,568,0,0,0,0,0,0,0,0,0,-1,1763,456,0,0
546,568,0,0,0,0,0,0,0,0,0,-1,1770,456,0,0
553,568,0,0,0,0,0,0,0,0,0,-1,1777,456,0,0
560,568,0,0,0,0,0,0,0,0,0,-1,1784,456,0,0
567,568,0,0,0,0,0,0,0,0,0,-1,1791,456,0,0
574,568,0,0,0,0,0,0,0,0,0,-1,1798,456,0,0
581,568,0,0,0,0,0,0,0,0,0,-1,1805,456,0,0
588,568,0,0,0,0,0,0,0,0,0,-1,1812,456,0,0
595,568,0,0,0,0,0,0,0,0,0,-1,1819,456,0,0
602,568,0,0,0,0,0,0,0,0,0,-1,1826,456,0,0
609,568,0,0,0,0,0,0,0,0,0,-1,1833,456,0,0
616,568,0,0,0,0,0,0,0,0,0,-1,1840,456,0,0
623,568,0,0,0,0,0,0,0,0,0,-1,1847,456,0,0
630,568,0,0,0,0,0,0,0,0,0,-1,1854,456,0,0
637,568,0,0,0,0,0,0,0,0,0,-1,1861,456,0,0
644,568,0,0,0,0,0,0,0,0,0,-1,1868,456,0,0
651,568,0,0,0,0,0,0,0,0,0,-1,1875,456,0,0
658,568,0,0,0,0,0,0,0,0,0,-1,1882,456,0,0
665,568,0,0,0,0,0,0,0,0,0,-1,1889,456,0,0
672,568,0,0,0,0,0,0,0,0,0,-1,1896,456,0,0
679,568,0,0,0,0,0,0,0,0,0,-1,1903,456,0,0
686,568,0,0,0,0,0,0,0,0,0,-1,1910,456,0,0
693,568,0,0,0,0,0,0,0,0,0,-1,1917,456,0,0
700,568,0,0,0,0,0,0,0,0,0,-1,1924,456,0,0
707,568,0,0,0,0,0,0,0,0,0,-1,1931,456,0,0
714,568,0,0,0,0,0,0,0,0,0,-1,1938,456,0,0
721,568,0,0,0,0,0,0,0,0,0,-1,1945,456,0,0
728,568,0,0,0,0,0,0,0,0,0,-1,1952,456,0,0
735,568,0,0,0,0,0,0,0,0,0,-1,1959,456,0,0
742,568,0,0,0,0,0,0,0,0,0,-1,1966,456,0,0
749,568,0,0,0,0,0,0,0,0,0,-1,1973,456,0,0
756,568,0,0,0,0,0,0,0,0,0,-1,1980,456,0,0
763,568,0,0,0,0,0,0,0,0,0,-1,1987,456,0,0
770,568,0,0,0,0,0,0,0,0,0,-1,1994,456,0,0
777,568,0,0,0,0,0,0,0,0,0,-1,2001,456,0,0
784,568,0,0,0,0,0,0,0,0,0,-1,2008,456,0,0
791,568,0,0,0,0,0,0,0,0,0,-1,2015,456,0,0
798,568,0,0,0,0,0,0,0,0,0,-1,2022,456,0,0
805,568,0,0,0,0,0,0,0,0,0,-1,2029,456,0,0
812,568,0,0,0,0,0,0,0,0,0,-1,2036,456,0,0
-700,561,0,0,0,0,0,0,0,0,0,-1,524,463,0,0
-693,561,0,0,0,0,0,0,0,0,0,-1,531,463,0,0
-686,561,0,0,0,0,0,0,0,0,0,-1,538,463,0,0
-679,561,0,0,0,0,0,0,0,0,0,-1,545,463,0,0
-672,561,0,0,0,0,0,0,0,0,0,-1,552,463,0,0
-665,561,0,0,0,0,0,0,0,0,0,-1,559,463,0,0
-658,561,0,0,0,0,0,0,0,0,0,-1,566,463,0,0
-651,561,0,0,0,0,0,0,0,0,0,-1,573,463,0,0
-644,561,0,0,0,0,0,0,0,0,0,-1,580,463,0,0
-637,561,0,0,0,0,0,0,0,0,0,-1,587,463,0,0
-630,561,0,0,0,0,0,0,0,0,0,-1,594,463,0,0
-623,561,0,0,0,0,0,0,0,0,0,-1,601,463,0,0
-616,561,0,0,0,0,0,0,0,0,0,-1,608,463,0,0
-609,561,0,0,0,0,0,0,0,0,0,-1,615,463,0,0
-602,561,0,0,0,0,0,0,0,0,0,-1,622,463,0,0
-595,561,0,0,0,0,0,0,0,0,0,-1,629,463,0,0
-588,561,0,0,0,0,0,0,0,0,0,-1,636,463,0,0
-581,561,0,0,0,0,0,0,0,0,0,-1,643,463,0,0
-574,561,0,0,0,0,0,0,0,0,0,-1,650,463,0,0
-567,561,0,0,0,0,0,0,0,0,0,-1,657,463,0,0
-560,561,0,0,0,0,0,0,0,0,0,-1,664,463,0,0
-553,561,0,0,0,0,0,0,0,0,0,-1,671,463,0,0
-546,561,0,0,0,0,0,0,0,0,0,-1,678,463,0,0
-539,561,0,0,0,0,0,0,0,0,0,-1,685,463,0,0
-532,561,0,0,0,0,0,0,0,0,0,-1,692,463,0,0
-525,561,0,0,0,0,0,0,0,0,0,-1,699,463,0,0
-518,561,0,0,0,0,0,0,0,0,0,-1,706,463,0,0
-511,561,0,0,0,0,0,0,0,0,0,-1,713,463,0,0
-504,561,0,0,0,0,0,0,0,0,0,-1,720,463,0,0
-497,561,0,0,0,0,0,0,0,0,0,-1,727,463,0,0
-490,561,0,0,0,0,0,0,0,0,0,-1,734,463,0,0
-483,561,0,0,0,0,0,0,0,0,0,-1,741,463,0,0
-476,561,0,0,0,0,0,0,0,0,0,-1,748,463,0,0
-469,561,0,0,0,0,0,0,0,0,0,-1,755,463,0,0
-462,561,0,0,0,0,0,0,0,0,0,-1,762,463,0,0
-455,561,0,0,0,0,0,0,0,0,0,-1,769,463,0,0
-448,561,0,0,0,0,0,0,0,0,0,-1,776,463,0,0
-441,561,0,0,0,0,0,0,0,0,0,-1,783,463,0,0
-434,561,0,0,0,0,0,0,0,0,0,-1,790,463,0,0
-427,561,0,0,0,0,0,0,0,0,0,-1,797,463,0,0
-420,561,0,0,0,0,0,0,0,0,0,-1,804,463,0,0
-413,561,0,0,0,0,0,0,0,0,0,-1,811,463,0,0
-406,561,0,0,0,0,0,0,0,0,0,-1,818,463,0,0
-399,561,0,0,0,0,0,0,0,0,0,-1,825,463,0,0
-392,561,4.92407,-2.54578,0,0,0,0,0,0,0,-1,832,463,4.92408,2.54576
-385,561,5.55634,-1.02338,0,0,0,0,0,0,0,-1,839,463,5.55634,1.02338
-378,561,0.160522,-4.51785,0,0,0,0,0,0,0,-1,846,463,0.160542,4.51785
-371,561,1.06299,-7.56818,0,0,0,0,0,0,0,-1,853,463,1.06297,7.56817
-364,561,1.45264,-7.57684,0,0,0,0,0,0,0,-1,860,463,1.45264,7.57684
-357,561,0.948242,-12.2803,0,0,0,0,0,0,0,-1,867,463,0.948262,12.2803
-350,561,1.33124,-11.9406,0,0,0,0,0,0,0,-1,874,463,1.33127,11.9406
-343,561,1.48627,-12.8598,0,0,0,0,0,0,0,-1,881,463,1.48629,12.8598
-336,561,1.27264,-14.3146,0,0,0,0,0,0,0,-1,888,463,1.27261,14.3146
-329,561,1.26935,-14.6427,0,0,0,0,0,0,0,-1,895,463,1.26934,14.6427
-322,561,1.55536,-14.6407,0,0,0,0,0,0,0,-1,902,463,1.55535,14.6406
-315,561,1.38977,-15.0947,-0.00656788,0.00300847,-0.00670516,0.00645958,-0.010019,-1.09546,0.0095876,0.0220713,909,463,1.38975,15.0947
-308,561,1.3562,-15.5407,-0.00531253,0.00325888,-0.00597478,0.00632609,-0.00837973,-1.09652,0.00851796,0.0168577,916,463,1.35621,15.5407
-301,561,1.32507,-16.0034,-0.00401027,0.00323821,-0.00524226,0.00598707,-0.00675913,-1.08785,0.00736352,0.0131051,923,463,1.32505,16.0035
-294,561,1.28394,-16.3651,-0.00282338,0.00307255,-0.00444645,0.00545951,-0.00521034,-1.07813,0.0061608,0.0115285,930,463,1.28395,16.3652
-287,561,1.26611,-16.7041,-0.00189971,0.00269332,-0.00364274,0.00470302,-0.00390941,-1.06665,0.00497942,0.00979082,937,463,1.2661,16.7041
-280,561,1.23535,-17.032,-0.00122104,0.00233991,-0.00297127,0.00402333,-0.00290446,-1.05533,0.00401711,0.0115184,944,463,1.23538,17.0319
-273,561,1.21948,-17.3738,-0.000671811,0.00166662,-0.0022869,0.00306587,-0.00207106,-1.02171,0.00298428,0.0143113,951,463,1.21945,17.3738
-266,561,1.21521,-17.7212,-0.000116574,0.000372797,-0.00147536,0.00162363,-0.0013674,-0.867574,0.00172898,0.00954594,958,463,1.21519,17.7212
-259,561,1.21436,-18.0632,0.000436395,-0.000516107,-0.000776054,0.000870679,-0.000950392,-0.510188,0.00105173,0.0102275,965,463,1.21437,18.0632
-252,561,1.20435,-18.3842,0.000574856,-0.00203072,-2.44056e-05,0.000575085,-0.00203095,-0.00936558,0.00158092,0.0144878,972,463,1.20437,18.3841
-245,561,1.19031,-18.6935,0.000533771,-0.00386758,0.000820028,0.000681588,-0.00401539,0.178344,0.00293066,0.0169196,979,463,1.19032,18.6935
-238,561,1.20538,-19.0047,0.000467842,-0.00588455,0.00181886,0.000951763,-0.00636847,0.260034,0.00459587,0.0132153,986,463,1.20541,19.0047
-231,561,1.19592,-19.3229,0.000384404,-0.00777878,0.00277991,0.00124116,-0.00863553,0.298959,0.00621221,0.0111805,993,463,1.19593,19.3229
-224,561,1.18896,-19.6537,0.000247402,-0.00956528,0.00376111,0.00152314,-0.010841,0.327014,0.00778488,0.0115488,1000,463,1.18898,19.6537
-217,561,1.21429,-19.9256,9.25286e-05,-0.0112136,0.00472122,0.00180472,-0.0129258,0.347908,0.00927746,0.0112735,1007,463,1.21429,19.9256
-210,561,1.22388,-20.1895,-4.80899e-05,-0.0126895,0.0055229,0.00202488,-0.0147624,0.359069,0.0105814,0.0119519,1014,463,1.22391,20.1895
-203,561,1.23199,-20.4868,-0.000212835,-0.0134986,0.00527002,0.00162372,-0.0153352,0.335331,0.0108054,0.013539,1021,463,1.23202,20.4868
-196,561,1.23242,-20.7508,-0.000500253,-0.0142568,0.00443823,0.000807345,-0.0155644,0.286516,0.0106556,0.0148496,1028,463,1.23248,20.7508
-189,561,1.21606,-21.0095,-0.000698248,-0.0146642,0.00369648,0.000219783,-0.0155823,0.243427,0.0104622,0.0185372,1035,463,1.21611,21.0095
-182,561,1.26331,-21.2961,-0.000833021,-0.0149412,0.00250128,-0.000402686,-0.0153715,0.170377,0.0101161,0.0212838,1042,463,1.26329,21.2961
-175,561,1.25684,-21.5343,-0.000816847,-0.0150793,0.000896695,-0.000760691,-0.0151355,0.0625426,0.00984656,0.0313527,1049,463,1.25687,21.5343
-168,561,1.26978,-21.7417,-0.000882369,-0.0152665,-0.0013436,-0.000757941,-0.0153909,-0.0923442,0.0100175,0.0441406,1056,463,1.26983,21.7417
-161,561,1.32544,-21.9126,-0.00127793,-0.0150586,-0.00375594,-0.000320734,-0.0160158,-0.249537,0.0105719,0.0496942,1063,463,1.32547,21.9126
-154,561,1.3573,-22.2396,-0.00122646,-0.0155728,-0.00594192,0.000914915,-0.0177142,-0.345896,0.0121259,0.04812,1070,463,1.35736,22.2396
-147,561,1.32935,-22.5846,-0.000826405,-0.0164831,-0.00805153,0.00257513,-0.0198846,-0.399726,0.0141929,0.0470364,1077,463,1.3293,22.5846
-140,561,1.51819,-22.4285,0,0,0,0,0,0,0,-1,1084,463,1.51818,22.4285
-133,561,1.92224,-20.9314,0,0,0,0,0,0,0,-1,1091,463,1.92219,20.9314
-126,561,1.02722,-21.6262,0,0,0,0,0,0,0,-1,1098,463,1.02719,21.6262
-119,561,1.1825,-22.1421,0,0,0,0,0,0,0,-1,1105,463,1.18246,22.142
-112,561,1.33777,-22.6579,0,0,0,0,0,0,0,-1,1112,463,1.33772,22.6579
-105,561,0.530518,-13.5379,0,0,0,0,0,0,0,-1,1119,463,0.530477,13.5379
-98,561,1.5387,-7.54352,0,0,0,0,0,0,0,-1,1126,463,1.53871,7.54351
-91,561,1.29553,-6.57968,0,0,0,0,0,0,0,-1,1133,463,1.29549,6.5797
-84,561,1.23364,-5.84555,0,0,0,0,0,0,0,-1,1140,463,1.23363,5.84556
-77,561,-2.36023,1.00204,0,0,0,0,0,0,0,-1,1147,463,-2.3602,-1.00205
-70,561,-3.90015,-1.41541,0,0,0,0,0,0,0,-1,1154,463,-3.90009,1.4154
-63,561,-6.95691,-4.02756,0,0,0,0,0,0,0,-1,1161,463,-6.95696,4.02756
-56,561,-5.37988,-6.66855,0,0,0,0,0,0,0,-1,1168,463,-5.37988,6.66854
-49,561,-5.7439,-9.11029,0,0,0,0,0,0,0,-1,1175,463,-5.74387,9.1103
-42,561,-1.72644,-5.63065,0,0,0,0,0,0,0,-1,1182,463,-1.72648,5.63064
-35,561,-1.65674,-4.87994,0,0,0,0,0,0,0,-1,1189,463,-1.6567,4.87993
-28,561,-1.91418,-3.86896,0,0,0,0,0,0,0,-1,1196,463,-1.91414,3.86895
-21,561,-4.39136,-23.387,0,0,0,0,0,0,0,-1,1203,463,-4.39133,23.387
-14,561,2.08313,-25.738,0,0,0,0,0,0,0,-1,1210,463,2.0831,25.738
-7,561,2.02844,-26.0263,-0.0171322,-0.0427404,0.0255598,-0.00134875,-0.0585238,0.553196,0.0385742,0.0486879,1217,463,2.02849,26.0263
0,561,1.75037,-25.5924,-0.00543822,-0.03175,0.0334301,0.0173315,-0.0545197,0.597938,0.0432958,0.0497308,1224,463,1.75038,25.5924
7,561,1.18359,-26.578,0,0,0,0,0,0,0,-1,1231,463,1.18354,26.578
14,561,1.25024,-26.2677,0,0,0,0,0,0,0,-1,1238,463,1.2503,26.2677
21,561,0.730347,-25.4494,0,0,0,0,0,0,0,-1,1245,463,0.730349,25.4494
28,561,1.38867,-27.4155,0.0253073,-0.00599432,0.0618092,0.0734164,-0.0541034,0.661399,0.0739045,0.0429588,1252,463,1.38868,27.4155
35,561,1.72217,-27.6252,0.0292849,-0.00524112,0.0669714,0.0811824,-0.0571387,0.659261,0.0802609,0.0401198,1259,463,1.72218,27.6252
42,561,1.41125,-27.9677,0.0317467,-0.00529636,0.0711482,0.0867447,-0.0602943,0.658063,0.0853496,0.0421671,1266,463,1.4113,27.9677
49,561,2.74329,-27.0891,0.0325549,-0.00723255,0.0731837,0.0885005,-0.0631782,0.652689,0.0879776,0.0463985,1273,463,2.74328,27.0891
56,561,3.18591,-26.7522,0,0,0,0,0,0,0,-1,1280,463,3.18597,26.7522
63,561,3.41504,-25.7173,0.0245469,-0.0180538,0.0716879,0.078032,-0.0715389,0.640989,0.0863819,0.0441402,1287,463,3.41506,25.7173
70,561,3.58752,-24.8176,0.0221874,-0.0206611,0.0659078,0.0700656,-0.0685393,0.628253,0.0800252,0.0479729,1294,463,3.58748,24.8176
77,561,2.96326,-24.236,0.019899,-0.0208742,0.0565439,0.0596191,-0.0605944,0.612379,0.0694061,0.0474933,1301,463,2.96328,24.236
84,561,3.00891,-23.8062,0.0252178,-0.0212499,0.0479242,0.0552431,-0.0512753,0.55969,0.0615126,0.0454231,1308,463,3.00894,23.8062
91,561,3.06445,-23.025,0.0314438,-0.0193223,0.0393513,0.0528883,-0.0407668,0.498959,0.0542226,0.040491,1315,463,3.0644,23.025
98,561,3.30908,-22.4216,0.0345005,-0.0130028,0.0262707,0.0461648,-0.0246671,0.417858,0.0415179,0.041987,1322,463,3.30909,22.4216
105,561,3.66809,-21.7653,0,0,0,0,0,0,0,-1,1329,463,3.66814,21.7653
112,561,3.04688,-25.6066,0,0,0,0,0,0,0,-1,1336,463,3.04691,25.6066
119,561,3.39709,-26.3907,0.0386403,0.0118748,-0.00541231,0.0396933,0.0108218,-0.192157,0.0236936,0.0458867,1343,463,3.39705,26.3908
126,561,3.58887,-26.6115,0.0395427,0.0218223,-0.014453,0.0476351,0.0137299,-0.510424,0.0283124,0.041727,1350,463,3.58884,26.6116
133,561,3.94519,-27.1388,0.0362399,0.0308705,-0.0213809,0.055104,0.0120064,-0.722942,0.0334598,0.0471993,1357,463,3.94525,27.1388
140,561,4.47107,-27.7194,0,0,0,0,0,0,0,-1,1364,463,4.4711,27.7194
147,561,8.42969,-24.8326,0,0,0,0,0,0,0,-1,1371,463,8.42964,24.8326
154,561,8.1189,-25.1421,0,0,0,0,0,0,0,-1,1378,463,8.11894,25.1421
161,561,7.6604,-25.1426,0,0,0,0,0,0,0,-1,1385,463,7.66037,25.1426
168,561,7.54407,-25.2491,0,0,0,0,0,0,0,-1,1392,463,7.54405,25.2491
175,561,10.4185,0.276398,0,0,0,0,0,0,0,-1,1399,463,10.4185,-0.276394
182,561,6.45703,-4.02127,0,0,0,0,0,0,0,-1,1406,463,6.45704,4.02127
189,561,6.50854,-2.08685,0,0,0,0,0,0,0,-1,1413,463,6.50851,2.08686
196,561,6.44775,-0.27182,0,0,0,0,0,0,0,-1,1420,463,6.44773,0.271814
203,561,6.18591,1.1301,0,0,0,0,0,0,0,-1,1427,463,6.18592,-1.13009
210,561,5.68713,2.68427,0,0,0,0,0,0,0,-1,1434,463,5.6871,-2.68425
217,561,3.61743,-7.33582,0,0,0,0,0,0,0,-1,1441,463,3.61738,7.33581
224,561,4.27466,-8.59171,0,0,0,0,0,0,0,-1,1448,463,4.27466,8.59171
231,561,4.93188,-9.8476,0,0,0,0,0,0,0,-1,1455,463,4.93193,9.84761
238,561,2.18018,-5.18359,0,0,0,0,0,0,0,-1,1462,463,2.18023,5.18359
245,561,3.07568,-3.50238,0,0,0,0,0,0,0,-1,1469,463,3.0757,3.50238
252,561,3.47412,-3.71109,0,0,0,0,0,0,0,-1,1476,463,3.47413,3.71109
259,561,3.42212,-3.2334,0,0,0,0,0,0,0,-1,1483,463,3.42214,3.2334
266,561,4.44373,-5.90027,0,0,0,0,0,0,0,-1,1490,463,4.44372,5.90026
273,561,2.59485,-3.65268,0,0,0,0,0,0,0,-1,1497,463,2.5948,3.65268
280,561,3.10767,-6.38235,0,0,0,0,0,0,0,-1,1504,463,3.10766,6.38235
287,561,4.91809,-14.429,0,0,0,0,0,0,0,-1,1511,463,4.9181,14.429
294,561,6.31641,-20.8779,0,0,0,0,0,0,0,-1,1518,463,6.31643,20.8779
301,561,6.1626,-20.5638,0.0042737,-0.00557126,-0.00265895,0.00494593,-0.00624349,-0.24763,0.00647468,0.042139,1525,463,6.16256,20.5638
308,561,6.25488,-20.3993,0.00333513,-0.00588037,-0.00297965,0.00421461,-0.00675985,-0.287012,0.00639266,0.0315484,1532,463,6.25483,20.3993
315,561,6.27747,-20.1947,0.00248715,-0.00543857,-0.00308877,0.00354871,-0.00650012,-0.331036,0.00588452,0.018755,1539,463,6.27747,20.1947
322,561,6.28455,-19.9418,0.0017844,-0.00474558,-0.00291136,0.00289391,-0.00585508,-0.364103,0.00514677,0.0195712,1546,463,6.28451,19.9418
329,561,6.29688,-19.6132,0.0012738,-0.00388434,-0.00258558,0.00234669,-0.00495723,-0.393329,0.00430577,0.0147422,1553,463,6.29682,19.6132
336,561,6.33374,-19.2737,0.000878605,-0.00309136,-0.00224889,0.00189323,-0.00410599,-0.423825,0.00354132,0.0112708,1560,463,6.33374,19.2737
343,561,6.34167,-18.9684,0.000476625,-0.00237849,-0.00194439,0.00146124,-0.0033631,-0.468744,0.00285656,0.010379,1567,463,6.34163,18.9684
350,561,6.32935,-18.6528,0.000235285,-0.00165704,-0.00152774,0.00108613,-0.00250788,-0.508146,0.00212844,0.0098951,1574,463,6.3293,18.6528
357,561,6.33167,-18.3268,5.79363e-05,-0.000861037,-0.00107605,0.000768498,-0.0015716,-0.583611,0.00137732,0.00986211,1581,463,6.33163,18.3268
364,561,6.3429,-18.0085,-4.47816e-05,-0.000241921,-0.000599513,0.000464211,-0.000750913,-0.703919,0.000708031,0.00916739,1588,463,6.34287,18.0085
371,561,6.33069,-17.6484,-8.39431e-05,0.000321099,-0.000152148,0.000371883,-0.000134728,-1.24864,0.000302986,0.0150159,1595,463,6.33063,17.6484
378,561,6.32935,-17.3206,-0.000164305,0.000876273,0.000212752,0.000918091,-0.000206123,1.37671,0.000691092,0.0114801,1602,463,6.32931,17.3206
385,561,6.3197,-16.9671,-0.000283073,0.00151346,0.000506303,0.00164632,-0.000415934,1.31417,0.0012593,0.0105304,1609,463,6.31969,16.9671
392,561,6.29919,-16.5985,-0.000299586,0.00192706,0.000766226,0.00216525,-0.000537777,1.2694,0.0016522,0.0143263,1616,463,6.29924,16.5985
399,561,6.27161,-16.2694,-1.73978e-05,0.00239201,0.00127914,0.00294444,-0.000569827,1.16312,0.0021779,0.0206777,1623,463,6.27155,16.2694
406,561,6.29248,-15.9257,0.000507839,0.00324609,0.00227302,0.00453048,-0.000776543,1.05647,0.00330967,0.0190574,1630,463,6.29243,15.9257
413,561,6.2854,-15.5436,0.000856783,0.00390428,0.0029653,0.00571442,-0.000953353,1.02274,0.00416394,0.0168294,1637,463,6.28545,15.5436
420,561,6.27734,-15.1416,0.00177925,0.00469764,0.00338361,0.00692329,-0.000446397,0.988976,0.00477129,0.0129614,1644,463,6.27739,15.1416
427,561,6.27637,-14.7465,0.00279117,0.00469281,0.00411817,0.00796849,-0.00048452,0.898852,0.00548098,0.010142,1651,463,6.27633,14.7465
434,561,6.26538,-14.3603,0.00354469,0.00301555,0.0047508,0.00803828,-0.00147804,0.757582,0.00591343,0.0124404,1658,463,6.26534,14.3603
441,561,6.26624,-14.0011,0.00468721,0.00192012,0.00540582,0.00888373,-0.00227639,0.660119,0.00680932,0.0150837,1665,463,6.26629,14.0011
448,561,6.25037,-13.5795,0.00574989,7.06731e-05,0.0058866,0.00944599,-0.00362542,0.56067,0.00779219,0.0204333,1672,463,6.25042,13.5795
455,561,6.28528,-13.0934,0.00656411,-0.00293615,0.00607436,0.00952511,-0.00589716,0.453565,0.0089858,0.037193,1679,463,6.28527,13.0934
462,561,6.06677,-12.7282,0.00704654,-0.00703852,0.00596936,0.00923605,-0.00922803,0.351554,0.0106602,0.0366682,1686,463,6.06676,12.7282
469,561,6.04895,-12.3495,0.00711319,-0.012385,0.00565186,0.00863301,-0.0139048,0.262692,0.0131303,0.0261148,1693,463,6.04894,12.3495
476,561,5.99048,-11.9743,0.00654412,-0.0193259,0.00484262,0.00742089,-0.0202026,0.179114,0.0165077,0.0435613,1700,463,5.99052,11.9743
483,561,5.89368,-11.5789,0,0,0,0,0,0,0,-1,1707,463,5.89364,11.5789
490,561,4.98474,-10.5826,0,0,0,0,0,0,0,-1,1714,463,4.9847,10.5826
497,561,7.30652,-2.46649,0,0,0,0,0,0,0,-1,1721,463,7.30649,2.4665
504,561,6.45044,-2.35263,0,0,0,0,0,0,0,-1,1728,463,6.4504,2.35263
511,561,0,0,0,0,0,0,0,0,0,-1,1735,463,0,0
518,561,0,0,0,0,0,0,0,0,0,-1,1742,463,0,0
525,561,0,0,0,0,0,0,0,0,0,-1,1749,463,0,0
532,561,0,0,0,0,0,0,0,0,0,-1,1756,463,0,0
539,561,0,0,0,0,0,0,0,0,0,-1,1763,463,0,0
546,561,0,0,0,0,0,0,0,0,0,-1,1770,463,0,0
553,561,0,0,0,0,0,0,0,0,0,-1,1777,463,0,0
560,561,0,0,0,0,0,0,0,0,0,-1,1784,463,0,0
567,561,0,0,0,0,0,0,0,0,0,-1,1791,463,0,0
574,561,0,0,0,0,0,0,0,0,0,-1,1798,463,0,0
581,561,0,0,0,0,0,0,0,0,0,-1,1805,463,0,0
588,561,0,0,0,0,0,0,0,0,0,-1,1812,463,0,0
595,561,0,0,0,0,0,0,0,0,0,-1,1819,463,0,0
602,561,0,0,0,0,0,0,0,0,0,-1,1826,463,0,0
609,561,0,0,0,0,0,0,0,0,0,-1,1833,463,0,0
616,561,0,0,0,0,0,0,0,0,0,-1,1840,463,0,0
623,561,0,0,0,0,0,0,0,0,0,-1,1847,463,0,0
630,561,0,0,0,0,0,0,0,0,0,-1,1854,463,0,0
637,561,0,0,0,0,0,0,0,0,0,-1,1861,463,0,0
644,561,0,0,0,0,0,0,0,0,0,-1,1868,463,0,0
651,561,0,0,0,0,0,0,0,0,0,-1,1875,463,0,0
658,561,0,0,0,0,0,0,0,0,0,-1,1882,463,0,0
665,561,0,0,0,0,0,0,0,0,0,-1,1889,463,0,0
672,561,0,0,0,0,0,0,0,0,0,-1,1896,463,0,0
679,561,0,0,0,0,0,0,0,0,0,-1,1903,463,0,0
686,561,0,0,0,0,0,0,0,0,0,-1,1910,463,0,0
693,561,0,0,0,0,0,0,0,0,0,-1,1917,463,0,0
700,561,0,0,0,0,0,0,0,0,0,-1,1924,463,0,0
707,561,0,0,0,0,0,0,0,0,0,-1,1931,463,0,0
714,561,0,0,0,0,0,0,0,0,0,-1,1938,463,0,0
721,561,0,0,0,0,0,0,0,0,0,-1,1945,463,0,0
728,561,0,0,0,0,0,0,0,0,0,-1,1952,463,0,0
735,561,0,0,0,0,0,0,0,0,0,-1,1959,463,0,0
742,561,0,0,0,0,0,0,0,0,0,-1,1966,463,0,0
749,561,0,0,0,0,0,0,0,0,0,-1,1973,463,0,0
756,561,0,0,0,0,0,0,0,0,0,-1,1980,463,0,0
763,561,0,0,0,0,0,0,0,0,0,-1,1987,463,0,0
770,561,0,0,0,0,0,0,0,0,0,-1,1994,463,0,0
777,561,0,0,0,0,0,0,0,0,0,-1,2001,463,0,0
784,561,0,0,0,0,0,0,0,0,0,-1,2008,463,0,0
791,561,0,0,0,0,0,0,0,0,0,-1,2015,463,0,0
798,561,0,0,0,0,0,0,0,0,0,-1,2022,463,0,0
805,561,0,0,0,0,0,0,0,0,0,-1,2029,463,0,0
812,561,0,0,0,0,0,0,0,0,0,-1,2036,463,0,0
-700,554,0,0,0,0,0,0,0,0,0,-1,524,470,0,0
-693,554,0,0,0,0,0,0,0,0,0,-1,531,470,0,0
-686,554,0,0,0,0,0,0,0,0,0,-1,538,470,0,0
-679,554,0,0,0,0,0,0,0,0,0,-1,545,470,0,0
-672,554,0,0,0,0,0,0,0,0,0,-1,552,470,0,0
-665,554,0,0,0,0,0,0,0,0,0,-1,559,470,0,0
-658,554,0,0,0,0,0,0,0,0,0,-1,566,470,0,0
-651,554,0,0,0,0,0,0,0,0,0,-1,573,470,0,0
-644,554,0,0,0,0,0,0,0,0,0,-1,580,470,0,0
-637,554,0,0,0,0,0,0,0,0,0,-1,587,470,0,0
-630,554,0,0,0,0,0,0,0,0,0,-1,594,470,0,0
-623,554,0,0,0,0,0,0,0,0,0,-1,601,470,0,0
-616,554,0,0,0,0,0,0,0,0,0,-1,608,470,0,0
-609,554,0,0,0,0,0,0,0,0,0,-1,615,470,0,0
-602,554,0,0,0,0,0,0,0,0,0,-1,622,470,0,0
-595,554,0,0,0,0,0,0,0,0,0,-1,629,470,0,0
-588,554,0,0,0,0,0,0,0,0,0,-1,636,470,0,0
-581,554,0,0,0,0,0,0,0,0,0,-1,643,470,0,0
-574,554,0,0,0,0,0,0,0,0,0,-1,650,470,0,0
-567,554,0,0,0,0,0,0,0,0,0,-1,657,470,0,0
-560,554,0,0,0,0,0,0,0,0,0,-1,664,470,0,0
-553,554,0,0,0,0,0,0,0,0,0,-1,671,470,0,0
-546,554,0,0,0,0,0,0,0,0,0,-1,678,470,0,0
-539,554,0,0,0,0,0,0,0,0,0,-1,685,470,0,0
-532,554,0,0,0,0,0,0,0,0,0,-1,692,470,0,0
-525,554,0,0,0,0,0,0,0,0,0,-1,699,470,0,0
-518,554,0,0,0,0,0,0,0,0,0,-1,706,470,0,0
-511,554,0,0,0,0,0,0,0,0,0,-1,713,470,0,0
-504,554,0,0,0,0,0,0,0,0,0,-1,720,470,0,0
-497,554,0,0,0,0,0,0,0,0,0,-1,727,470,0,0
-490,554,0,0,0,0,0,0,0,0,0,-1,734,470,0,0
-483,554,0,0,0,0,0,0,0,0,0,-1,741,470,0,0
-476,554,0,0,0,0,0,0,0,0,0,-1,748,470,0,0
-469,554,0,0,0,0,0,0,0,0,0,-1,755,470,0,0
-462,554,0,0,0,0,0,0,0,0,0,-1,762,470,0,0
-455,554,0,0,0,0,0,0,0,0,0,-1,769,470,0,0
-448,554,0,0,0,0,0,0,0,0,0,-1,776,470,0,0
-441,554,0,0,0,0,0,0,0,0,0,-1,783,470,0,0
-434,554,0,0,0,0,0,0,0,0,0,-1,790,470,0,0
-427,554,0,0,0,0,0,0,0,0,0,-1,797,470,0,0
-420,554,0,0,0,0,0,0,0,0,0,-1,804,470,0,0
-413,554,0,0,0,0,0,0,0,0,0,-1,811,470,0,0
-406,554,0,0,0,0,0,0,0,0,0,-1,818,470,0,0
-399,554,-1.32275,-3.95142,0,0,0,0,0,0,0,-1,825,470,-1.32275,3.95141
-392,554,-1.35632,-3.7406,0,0,0,0,0,0,0,-1,832,470,-1.35632,3.7406
-385,554,-0.849243,-4.14447,0,0,0,0,0,0,0,-1,839,470,-0.849262,4.14446
-378,554,-0.982666,-4.55084,0,0,0,0,0,0,0,-1,846,470,-0.982671,4.55084
-371,554,-1.74542,-4.63467,0,0,0,0,0,0,0,-1,853,470,-1.74541,4.63468
-364,554,1.04883,-7.68756,0,0,0,0,0,0,0,-1,860,470,1.0488,7.68757
-357,554,1.06714,-11.5403,0,0,0,0,0,0,0,-1,867,470,1.06715,11.5403
-350,554,0.993103,-13.1592,0,0,0,0,0,0,0,-1,874,470,0.993094,13.1592
-343,554,0.852905,-13.4547,0,0,0,0,0,0,0,-1,881,470,0.852918,13.4546
-336,554,1.03802,-14.1235,-0.00658119,0.00353125,-0.00723535,0.00730202,-0.010352,-1.09037,0.0102431,0.0372604,888,470,1.03805,14.1235
-329,554,1.00262,-14.5232,-0.00602881,0.00327971,-0.00646181,0.00658894,-0.00933804,-1.0975,0.00924099,0.0171421,895,470,1.00265,14.5232
-322,554,0.984802,-14.8962,-0.00535966,0.00309649,-0.00567833,0.00594796,-0.00821114,-1.10542,0.0082095,0.0115911,902,470,0.984805,14.8962
-315,554,0.983276,-15.2594,-0.00458336,0.00302835,-0.00495607,0.00547126,-0.00702628,-1.11283,0.00723405,0.0117062,909,470,0.983251,15.2594
-308,554,0.953918,-15.6335,-0.00372643,0.00302902,-0.00435486,0.00516254,-0.00585995,-1.11525,0.00636808,0.0137685,916,470,0.95393,15.6335
-301,554,0.985535,-16.0055,-0.0027847,0.00277435,-0.00373675,0.00465198,-0.00466232,-1.10517,0.00537761,0.0148968,923,470,0.985545,16.0055
-294,554,0.956238,-16.3512,-0.00185683,0.00239828,-0.00306633,0.00400286,-0.00346141,-1.08869,0.00431328,0.0131034,930,470,0.95625,16.3512
-287,554,0.910889,-16.6892,-0.00112524,0.0018883,-0.00237244,0.00319202,-0.00242896,-1.06832,0.00325523,0.0118366,937,470,0.910908,16.6892
-280,554,0.899231,-17.0326,-0.00062723,0.00128449,-0.00178951,0.00235742,-0.00170017,-1.03069,0.00235287,0.0106014,944,470,0.899213,17.0326
-273,554,0.881165,-17.3812,-0.000211677,0.000345435,-0.00110076,0.00120234,-0.00106858,-0.909325,0.00131187,0.0143165,951,470,0.881135,17.3812
-266,554,0.870056,-17.7222,0.000308969,-0.0012162,-0.000305291,0.000367809,-0.00127504,-0.190399,0.00099554,0.0123605,958,470,0.870052,17.7222
-259,554,0.888306,-18.0438,0.000747314,-0.00259541,0.000425711,0.000800679,-0.00264878,0.124703,0.00208465,0.0119016,965,470,0.888277,18.0438
-252,554,0.860229,-18.3466,0.000827908,-0.0044477,0.00124652,0.00110761,-0.0047274,0.220728,0.00357841,0.0143335,972,470,0.86025,18.3466
-245,554,0.859192,-18.6727,0.000744981,-0.00668682,0.00220794,0.00135145,-0.00729329,0.268067,0.00536967,0.0164177,979,470,0.859211,18.6727
-238,554,0.885315,-18.9996,0.00062935,-0.00916717,0.00335726,0.00166946,-0.0102073,0.30043,0.00742417,0.0120464,986,470,0.885297,18.9996
-231,554,0.885803,-19.3214,0.000516859,-0.0115257,0.00445753,0.00198727,-0.0129961,0.318631,0.00939678,0.0102191,993,470,0.885801,19.3214
-224,554,0.892883,-19.6259,0.000290435,-0.0138606,0.00564985,0.0022694,-0.0158396,0.336915,0.0113918,0.0105066,1000,470,0.892895,19.6259
-217,554,0.918762,-19.9018,1.56228e-05,-0.0160205,0.00684051,0.0025371,-0.018542,0.353156,0.013288,0.0103893,1007,470,0.91879,19.9018
-210,554,0.961487,-20.1877,-0.000261041,-0.0179684,0.00786213,0.00272592,-0.0209553,0.363075,0.0149619,0.0134883,1014,470,0.961499,20.1876
-203,554,0.962219,-20.4784,-0.000607446,-0.0189438,0.00742992,0.00202519,-0.0215765,0.340526,0.0151047,0.0236969,1021,470,0.962216,20.4784
-196,554,0.82019,-20.6229,-0.00111177,-0.0198647,0.00618995,0.000747136,-0.0217236,0.291742,0.0147378,0.0312586,1028,470,0.820181,20.6229
-189,554,0.80481,-20.781,-0.00149696,-0.0202438,0.005066,-0.000215556,-0.0215252,0.247746,0.0142788,0.0374418,1035,470,0.804858,20.781
-182,554,0.940186,-21.2924,0,0,0,0,0,0,0,-1,1042,470,0.940154,21.2924
-175,554,0.88147,-21.5407,0,0,0,0,0,0,0,-1,1049,470,0.881516,21.5407
-168,554,0.958618,-21.7506,0,0,0,0,0,0,0,-1,1056,470,0.958649,21.7506
-161,554,1.02026,-21.762,0,0,0,0,0,0,0,-1,1063,470,1.02024,21.762
-154,554,1.52405,-22.1075,-0.00334196,-0.0194849,-0.009484,0.00104028,-0.0238671,-0.432843,0.0162693,0.045111,1070,470,1.52407,22.1075
-147,554,1.47729,-22.5562,-0.0029237,-0.0202759,-0.012869,0.00392073,-0.0271203,-0.488804,0.0195188,0.0492798,1077,470,1.47735,22.5562
-140,554,1.49976,-22.9917,0,0,0,0,0,0,0,-1,1084,470,1.49981,22.9917
-133,554,1.48523,-20.8091,0,0,0,0,0,0,0,-1,1091,470,1.48518,20.8091
-126,554,0.532715,-15.1913,0,0,0,0,0,0,0,-1,1098,470,0.532762,15.1913
-119,554,0.825806,-21.722,0,0,0,0,0,0,0,-1,1105,470,0.825767,21.722
-112,554,0.53186,-16.7545,0,0,0,0,0,0,0,-1,1112,470,0.531912,16.7545
-105,554,2.82129,-9.46112,0,0,0,0,0,0,0,-1,1119,470,2.82127,9.46112
-98,554,1.51929,-7.3624,0,0,0,0,0,0,0,-1,1126,470,1.51928,7.36241
-91,554,1.41089,-6.5864,0,0,0,0,0,0,0,-1,1133,470,1.41093,6.58638
-84,554,1.62305,-5.87186,0,0,0,0,0,0,0,-1,1140,470,1.62299,5.87186
-77,554,-2.56958,1.33258,0,0,0,0,0,0,0,-1,1147,470,-2.56959,-1.33257
-70,554,-3.68164,-1.18332,0,0,0,0,0,0,0,-1,1154,470,-3.68158,1.18331
-63,554,-4.86853,-3.88708,0,0,0,0,0,0,0,-1,1161,470,-4.86853,3.88708
-56,554,-5.69958,-6.45422,0,0,0,0,0,0,0,-1,1168,470,-5.69955,6.45422
-49,554,-6.23645,-8.8569,0,0,0,0,0,0,0,-1,1175,470,-6.23643,8.85689
-42,554,-6.62524,-11.5382,0,0,0,0,0,0,0,-1,1182,470,-6.62522,11.5382
-35,554,-2.40173,-4.59482,0,0,0,0,0,0,0,-1,1189,470,-2.40169,4.59481
-28,554,-0.760132,-1.65555,0,0,0,0,0,0,0,-1,1196,470,-0.760095,1.65556
-21,554,-5.474,-23.4337,0,0,0,0,0,0,0,-1,1203,470,-5.47404,23.4337
-14,554,-4.60291,-23.5594,0,0,0,0,0,0,0,-1,1210,470,-4.6029,23.5594
-7,554,2.02625,-25.7394,0,0,0,0,0,0,0,-1,1217,470,2.02621,25.7394
0,554,1.78442,-25.1678,0,0,0,0,0,0,0,-1,1224,470,1.7844,25.1678
7,554,6.11279,-23.6878,0,0,0,0,0,0,0,-1,1231,470,6.11281,23.6878
14,554,1.23755,-26.6631,0,0,0,0,0,0,0,-1,1238,470,1.23757,26.6631
21,554,0.438232,-27.7389,0,0,0,0,0,0,0,-1,1245,470,0.438232,27.7389
28,554,0.823364,-27.6882,0.03029,0.000565049,0.0697988,0.0867911,-0.0559361,0.680498,0.0830429,0.0428713,1252,470,0.823305,27.6882
35,554,1.16406,-27.6911,0.0355272,0.000244513,0.076611,0.0965018,-0.0607301,0.672235,0.0915576,0.0391469,1259,470,1.16402,27.6911
42,554,0.333618,-27.8557,0.0392917,-0.00125801,0.0817967,0.103289,-0.0652551,0.663912,0.0981313,0.0438471,1266,470,0.333623,27.8556
49,554,2.15723,-26.9873,0.0406443,-0.00436194,0.084642,0.105724,-0.0694411,0.655473,0.101852,0.0490263,1273,470,2.15723,26.9873
56,554,2.64111,-26.6195,0,0,0,0,0,0,0,-1,1280,470,2.64106,26.6195
63,554,3.1864,-25.7068,0.0312078,-0.0191101,0.0835573,0.0933117,-0.0812139,0.639166,0.100843,0.0426676,1287,470,3.18635,25.7068
70,554,2.25732,-24.0511,0.0306129,-0.0218082,0.0766852,0.0854431,-0.0766384,0.620725,0.0936238,0.0456993,1294,470,2.2573,24.0511
77,554,2.56543,-23.7264,0.0300843,-0.0225599,0.0653899,0.0742512,-0.0667268,0.594051,0.0814323,0.0460617,1301,470,2.56547,23.7264
84,554,2.82568,-23.4684,0.0381959,-0.0247866,0.0552771,0.0703227,-0.0569134,0.526478,0.0735957,0.04591,1308,470,2.82564,23.4684
91,554,3.56494,-22.5287,0.0455545,-0.0238855,0.0451409,0.0677834,-0.0461144,0.457576,0.0661544,0.0404607,1315,470,3.56499,22.5287
98,554,4.08484,-22.1033,0,0,0,0,0,0,0,-1,1322,470,4.08479,22.1033
105,554,4.49426,-21.4324,0,0,0,0,0,0,0,-1,1329,470,4.49422,21.4324
112,554,3.09253,-26.764,0,0,0,0,0,0,0,-1,1336,470,3.09254,26.764
119,554,3.48206,-26.6236,0.0469138,0.00890899,-0.00787917,0.0484826,0.00734024,-0.196532,0.0301741,0.0443465,1343,470,3.4821,26.6236
126,554,4.15344,-26.3674,0.0457483,0.0201772,-0.0185074,0.0554571,0.0104684,-0.483124,0.0340231,0.040149,1350,470,4.15347,26.3674
133,554,4.07385,-26.2861,0.0393021,0.0309689,-0.026456,0.0619176,0.0083534,-0.707294,0.0387949,0.0432259,1357,470,4.07389,26.2861
140,554,9.43591,-24.9902,0,0,0,0,0,0,0,-1,1364,470,9.43594,24.9902
147,554,9.36243,-25.305,-0.00102382,0.0453318,-0.0373395,0.0661023,-0.0217943,-1.06316,0.0528526,0.046308,1371,470,9.36237,25.305
154,554,9.40564,-25.5718,-0.0390486,0.0456312,-0.0409372,0.0621855,-0.0556028,-1.18652,0.0680405,0.0446457,1378,470,9.40558,25.5718
161,554,7.96716,-25.3087,-0.0772962,0.0458759,-0.0427268,0.0592459,-0.0906663,-1.26753,0.0871832,0.0473296,1385,470,7.96715,25.3087
168,554,7.88293,-25.3705,0,0,0,0,0,0,0,-1,1392,470,7.88294,25.3705
175,554,10.663,0.286957,0,0,0,0,0,0,0,-1,1399,470,10.663,-0.286966
182,554,6.71106,-4.50217,0,0,0,0,0,0,0,-1,1406,470,6.71107,4.50215
189,554,6.90479,-2.50348,0,0,0,0,0,0,0,-1,1413,470,6.90477,2.50348
196,554,6.96216,-0.740906,0,0,0,0,0,0,0,-1,1420,470,6.96214,0.740912
203,554,6.43518,0.414154,0,0,0,0,0,0,0,-1,1427,470,6.43523,-0.414141
210,554,6.21167,1.96707,0,0,0,0,0,0,0,-1,1434,470,6.21165,-1.96706
217,554,5.64551,3.4989,0,0,0,0,0,0,0,-1,1441,470,5.64555,-3.49891
224,554,4.85144,-8.85172,0,0,0,0,0,0,0,-1,1448,470,4.85146,8.85173
231,554,3.25073,-5.29642,0,0,0,0,0,0,0,-1,1455,470,3.25078,5.29642
238,554,4.28625,-3.25253,0,0,0,0,0,0,0,-1,1462,470,4.28622,3.25252
245,554,4.0752,-2.90033,0,0,0,0,0,0,0,-1,1469,470,4.07515,2.90032
252,554,3.52112,-0.934998,0,0,0,0,0,0,0,-1,1476,470,3.52113,0.934996
259,554,3.96448,-2.16425,0,0,0,0,0,0,0,-1,1483,470,3.96446,2.16424
266,554,3.0592,-2.71716,0,0,0,0,0,0,0,-1,1490,470,3.05923,2.71718
273,554,2.58521,-3.06876,0,0,0,0,0,0,0,-1,1497,470,2.58524,3.06874
280,554,2.83301,-0.991699,0,0,0,0,0,0,0,-1,1504,470,2.83303,0.991704
287,554,3.54126,-4.12277,0,0,0,0,0,0,0,-1,1511,470,3.54123,4.12277
294,554,3.62036,-8.50146,0,0,0,0,0,0,0,-1,1518,470,3.62031,8.50145
301,554,6.31982,-20.1135,0,0,0,0,0,0,0,-1,1525,470,6.3198,20.1135
308,554,6.53064,-20.3229,0,0,0,0,0,0,0,-1,1532,470,6.53061,20.3229
315,554,6.59424,-20.1956,0,0,0,0,0,0,0,-1,1539,470,6.5943,20.1956
322,554,6.58667,-19.9924,0,0,0,0,0,0,0,-1,1546,470,6.58664,19.9924
329,554,6.65332,-19.3534,0.000963777,-0.00538261,-0.00372514,0.00268403,-0.00710286,-0.43262,0.00583929,0.037824,1553,470,6.65332,19.3534
336,554,6.63062,-19.2433,0.000572074,-0.004343,-0.00330485,0.00223298,-0.0060039,-0.465697,0.00491888,0.021539,1560,470,6.63057,19.2433
343,554,6.62781,-18.9739,0.000185953,-0.00345869,-0.0029333,0.00181691,-0.00508964,-0.507448,0.00413403,0.0127479,1567,470,6.6278,18.9739
350,554,6.65527,-18.6296,-8.37346e-06,-0.00266398,-0.00244967,0.0014502,-0.00412256,-0.537045,0.00333847,0.0105745,1574,470,6.65524,18.6296
357,554,6.67932,-18.3098,-0.000105438,-0.0017838,-0.0019297,0.00115965,-0.00304889,-0.580295,0.00251008,0.0111872,1581,470,6.67934,18.3098
364,554,6.68103,-18.0055,-8.12813e-05,-0.00114788,-0.00136992,0.000855485,-0.00208464,-0.599778,0.00174623,0.00901754,1588,470,6.681,18.0055
371,554,6.6731,-17.6659,7.53269e-06,-0.000564345,-0.000853437,0.000621658,-0.00117847,-0.623753,0.00105575,0.00848822,1595,470,6.6731,17.6659
378,554,6.66272,-17.2999,5.5245e-05,-1.24335e-05,-0.000434974,0.000457694,-0.000414883,-0.746578,0.000503985,0.0101499,1602,470,6.66274,17.2999
385,554,6.67957,-16.9543,5.38891e-05,0.000677514,-3.43592e-05,0.000679401,5.20017e-05,-1.51592,0.000436634,0.0101631,1609,470,6.67955,16.9543
392,554,6.68372,-16.5804,7.87251e-05,0.00109333,0.000277604,0.00116432,7.73731e-06,1.32044,0.000773645,0.0135587,1616,470,6.68369,16.5804
399,554,6.65576,-16.24,0.000289791,0.00149228,0.000728662,0.00183573,-5.36559e-05,1.13034,0.00124209,0.0180691,1623,470,6.65577,16.24
406,554,6.64661,-15.8955,0.000648699,0.00218686,0.00149469,0.00309872,-0.000263164,1.02301,0.00215889,0.0165925,1630,470,6.64657,15.8955
413,554,6.6394,-15.5184,0.000908433,0.00279955,0.00210055,0.00415755,-0.000449564,0.996887,0.00293306,0.0160434,1637,470,6.63945,15.5184
420,554,6.65222,-15.1216,0.00153959,0.0034568,0.00251377,0.00518854,-0.000192147,0.967557,0.00352482,0.0165144,1644,470,6.65219,15.1217
427,554,6.64063,-14.7454,0.00221678,0.00355458,0.00312265,0.00607917,-0.00030781,0.890908,0.00415918,0.0111709,1651,470,6.64066,14.7454
434,554,6.60791,-14.3878,0.0027578,0.00255167,0.0036671,0.00632328,-0.00101381,0.771349,0.00459092,0.0100182,1658,470,6.6079,14.3878
441,554,6.61267,-14.0092,0.00354632,0.00183108,0.00421425,0.00698933,-0.00161193,0.685017,0.00527954,0.0110896,1665,470,6.61266,14.0092
448,554,6.60315,-13.5706,0.00427444,0.000561135,0.00462309,0.00739977,-0.00256419,0.594454,0.00597425,0.014761,1672,470,6.60318,13.5706
455,554,6.5769,-13.1653,0.0048411,-0.00154495,0.00481723,0.00742745,-0.0041313,0.492726,0.00676329,0.0163892,1679,470,6.57685,13.1652
462,554,6.52234,-12.7993,0.00519424,-0.00449431,0.00482465,0.00718694,-0.00648701,0.391684,0.0078981,0.0190548,1686,470,6.52234,12.7993
469,554,6.47644,-12.3927,0.00525687,-0.00827239,0.00472752,0.0067451,-0.00976062,0.30498,0.00958245,0.0247738,1693,470,6.47638,12.3927
476,554,6.41602,-11.9688,0.00491641,-0.0131521,0.0043048,0.0058896,-0.0141253,0.222334,0.0118772,0.0458369,1700,470,6.41599,11.9687
483,554,6.36145,-11.5667,0,0,0,0,0,0,0,-1,1707,470,6.3615,11.5667
490,554,7.31543,-3.51794,0,0,0,0,0,0,0,-1,1714,470,7.3154,3.51794
497,554,7.9751,-2.43454,0,0,0,0,0,0,0,-1,1721,470,7.97505,2.43453
504,554,2.13257,-3.81628,0,0,0,0,0,0,0,-1,1728,470,2.1326,3.8163
511,554,1.31396,-4.02713,0,0,0,0,0,0,0,-1,1735,470,1.31398,4.02712
518,554,5.04236,-5.9472,0,0,0,0,0,0,0,-1,1742,470,5.04231,5.94721
525,554,0,0,0,0,0,0,0,0,0,-1,1749,470,0,0
532,554,0,0,0,0,0,0,0,0,0,-1,1756,470,0,0
539,554,0,0,0,0,0,0,0,0,0,-1,1763,470,0,0
546,554,0,0,0,0,0,0,0,0,0,-1,1770,470,0,0
553,554,0,0,0,0,0,0,0,0,0,-1,1777,470,0,0
560,554,0,0,0,0,0,0,0,0,0,-1,1784,470,0,0
567,554,0,0,0,0,0,0,0,0,0,-1,1791,470,0,0
574,554,0,0,0,0,0,0,0,0,0,-1,1798,470,0,0
581,554,0,0,0,0,0,0,0,0,0,-1,1805,470,0,0
588,554,0,0,0,0,0,0,0,0,0,-1,1812,470,0,0
595,554,0,0,0,0,0,0,0,0,0,-1,1819,470,0,0
602,554,0,0,0,0,0,0,0,0,0,-1,1826,470,0,0
609,554,0,0,0,0,0,0,0,0,0,-1,1833,470,0,0
616,554,0,0,0,0,0,0,0,0,0,-1,1840,470,0,0
623,554,0,0,0,0,0,0,0,0,0,-1,1847,470,0,0
630,554,0,0,0,0,0,0,0,0,0,-1,1854,470,0,0
637,554,0,0,0,0,0,0,0,0,0,-1,1861,470,0,0
644,554,0,0,0,0,0,0,0,0,0,-1,1868,470,0,0
651,554,0,0,0,0,0,0,0,0,0,-1,1875,470,0,0
658,554,0,0,0,0,0,0,0,0,0,-1,1882,470,0,0
665,554,0,0,0,0,0,0,0,0,0,-1,1889,470,0,0
672,554,0,0,0,0,0,0,0,0,0,-1,1896,470,0,0
679,554,0,0,0,0,0,0,0,0,0,-1,1903,470,0,0
686,554,0,0,0,0,0,0,0,0,0,-1,1910,470,0,0
693,554,0,0,0,0,0,0,0,0,0,-1,1917,470,0,0
700,554,0,0,0,0,0,0,0,0,0,-1,1924,470,0,0
707,554,0,0,0,0,0,0,0,0,0,-1,1931,470,0,0
714,554,0,0,0,0,0,0,0,0,0,-1,1938,470,0,0
721,554,0,0,0,0,0,0,0,0,0,-1,1945,470,0,0
728,554,0,0,0,0,0,0,0,0,0,-1,1952,470,0,0
735,554,0,0,0,0,0,0,0,0,0,-1,1959,470,0,0
742,554,0,0,0,0,0,0,0,0,0,-1,1966,470,0,0
749,554,0,0,0,0,0,0,0,0,0,-1,1973,470,0,0
756,554,0,0,0,0,0,0,0,0,0,-1,1980,470,0,0
763,554,0,0,0,0,0,0,0,0,0,-1,1987,470,0,0
770,554,0,0,0,0,0,0,0,0,0,-1,1994,470,0,0
777,554,0,0,0,0,0,0,0,0,0,-1,2001,470,0,0
784,554,0,0,0,0,0,0,0,0,0,-1,2008,470,0,0
791,554,0,0,0,0,0,0,0,0,0,-1,2015,470,0,0
798,554,0,0,0,0,0,0,0,0,0,-1,2022,470,0,0
805,554,0,0,0,0,0,0,0,0,0,-1,2029,470,0,0
812,554,0,0,0,0,0,0,0,0,0,-1,2036,470,0,0
-700,547,0,0,0,0,0,0,0,0,0,-1,524,477,0,0
-693,547,0,0,0,0,0,0,0,0,0,-1,531,477,0,0
-686,547,0,0,0,0,0,0,0,0,0,-1,538,477,0,0
-679,547,0,0,0,0,0,0,0,0,0,-1,545,477,0,0
-672,547,0,0,0,0,0,0,0,0,0,-1,552,477,0,0
-665,547,0,0,0,0,0,0,0,0,0,-1,559,477,0,0
-658,547,0,0,0,0,0,0,0,0,0,-1,566,477,0,0
-651,547,0,0,0,0,0,0,0,0,0,-1,573,477,0,0
-644,547,0,0,0,0,0,0,0,0,0,-1,580,477,0,0
-637,547,0,0,0,0,0,0,0,0,0,-1,587,477,0,0
-630,547,0,0,0,0,0,0,0,0,0,-1,594,477,0,0
-623,547,0,0,0,0,0,0,0,0,0,-1,601,477,0,0
-616,547,0,0,0,0,0,0,0,0,0,-1,608,477,0,0
-609,547,0,0,0,0,0,0,0,0,0,-1,615,477,0,0
-602,547,0,0,0,0,0,0,0,0,0,-1,622,477,0,0
-595,547,0,0,0,0,0,0,0,0,0,-1,629,477,0,0
-588,547,0,0,0,0,0,0,0,0,0,-1,636,477,0,0
-581,547,0,0,0,0,0,0,0,0,0,-1,643,477,0,0
-574,547,0,0,0,0,0,0,0,0,0,-1,650,477,0,0
-567,547,0,0,0,0,0,0,0,0,0,-1,657,477,0,0
-560,547,0,0,0,0,0,0,0,0,0,-1,664,477,0,0
-553,547,0,0,0,0,0,0,0,0,0,-1,671,477,0,0
-546,547,0,0,0,0,0,0,0,0,0,-1,678,477,0,0
-539,547,0,0,0,0,0,0,0,0,0,-1,685,477,0,0
-532,547,0,0,0,0,0,0,0,0,0,-1,692,477,0,0
-525,547,0,0,0,0,0,0,0,0,0,-1,699,477,0,0
-518,547,0,0,0,0,0,0,0,0,0,-1,706,477,0,0
-511,547,0,0,0,0,0,0,0,0,0,-1,713,477,0,0
-504,547,0,0,0,0,0,0,0,0,0,-1,720,477,0,0
-497,547,0,0,0,0,0,0,0,0,0,-1,727,477,0,0
-490,547,0,0,0,0,0,0,0,0,0,-1,734,477,0,0
-483,547,0,0,0,0,0,0,0,0,0,-1,741,477,0,0
-476,547,0,0,0,0,0,0,0,0,0,-1,748,477,0,0
-469,547,0,0,0,0,0,0,0,0,0,-1,755,477,0,0
-462,547,0,0,0,0,0,0,0,0,0,-1,762,477,0,0
-455,547,0,0,0,0,0,0,0,0,0,-1,769,477,0,0
-448,547,0,0,0,0,0,0,0,0,0,-1,776,477,0,0
-441,547,0,0,0,0,0,0,0,0,0,-1,783,477,0,0
-434,547,0,0,0,0,0,0,0,0,0,-1,790,477,0,0
-427,547,0,0,0,0,0,0,0,0,0,-1,797,477,0,0
-420,547,0,0,0,0,0,0,0,0,0,-1,804,477,0,0
-413,547,0,0,0,0,0,0,0,0,0,-1,811,477,0,0
-406,547,-0.391418,-10.4779,0,0,0,0,0,0,0,-1,818,477,-0.391439,10.4779
-399,547,-0.0641479,-11.2271,0,0,0,0,0,0,0,-1,825,477,-0.0641304,11.2271
-392,547,-1.52271,-4.41675,0,0,0,0,0,0,0,-1,832,477,-1.52273,4.41674
-385,547,-1.73743,-4.6431,0,0,0,0,0,0,0,-1,839,477,-1.73743,4.64308
-378,547,-2.41339,-4.60071,0,0,0,0,0,0,0,-1,846,477,-2.41337,4.60071
-371,547,1.64569,-11.1445,0,0,0,0,0,0,0,-1,853,477,1.64569,11.1445
-364,547,0.271729,-4.58582,0,0,0,0,0,0,0,-1,860,477,0.271753,4.5858
-357,547,0.958984,-12.9014,0,0,0,0,0,0,0,-1,867,477,0.959012,12.9014
-350,547,0.718079,-13.1968,-0.00429908,0.00377582,-0.0061859,0.00712528,-0.00764854,-1.07453,0.00853145,0.0486654,874,477,0.718066,13.1968
-343,547,0.575378,-13.5541,-0.00452818,0.00350145,-0.00573027,0.0064834,-0.00751013,-1.09097,0.00808641,0.0432094,881,477,0.575407,13.5541
-336,547,0.697876,-14.0999,-0.00428456,0.00341628,-0.00533884,0.00614833,-0.00701661,-1.09781,0.00760629,0.0175227,888,477,0.697864,14.0998
-329,547,0.65387,-14.5076,-0.00397672,0.00312176,-0.00474918,0.00550141,-0.00635638,-1.1063,0.00685203,0.00921876,895,477,0.653868,14.5076
-322,547,0.642517,-14.8925,-0.00356495,0.00284771,-0.00413933,0.00487728,-0.00559451,-1.11493,0.00605062,0.0100399,902,477,0.642506,14.8925
-315,547,0.618286,-15.2844,-0.00303411,0.00269166,-0.00356658,0.00440224,-0.00474469,-1.12359,0.00528222,0.00985383,909,477,0.618296,15.2844
-308,547,0.608276,-15.6422,-0.00242729,0.00256226,-0.0030503,0.00400807,-0.0038731,-1.12817,0.00455042,0.0119211,916,477,0.6083,15.6422
-301,547,0.628601,-16.005,-0.00172513,0.00219365,-0.00250938,0.00341799,-0.00294948,-1.11687,0.00367958,0.0122635,923,477,0.628581,16.005
-294,547,0.596985,-16.339,-0.00101192,0.0016532,-0.0019062,0.00264643,-0.00200515,-1.09045,0.00269408,0.0107249,930,477,0.59697,16.339
-287,547,0.571106,-16.6654,-0.000437134,0.00102371,-0.00126547,0.00175443,-0.00116786,-1.04714,0.00169847,0.0116044,937,477,0.571103,16.6654
-280,547,0.564941,-17.0048,-9.08324e-05,0.000208263,-0.000710881,0.000785157,-0.000667726,-0.889071,0.000839735,0.0125755,944,477,0.564942,17.0048
-273,547,0.551453,-17.365,0.000204022,-0.000996053,2.59159e-05,0.000204581,-0.000996612,0.0215818,0.000742063,0.0122783,951,477,0.551434,17.365
-266,547,0.537231,-17.7161,0.000701176,-0.00286698,0.000857024,0.000896346,-0.00306215,0.223911,0.00239675,0.0120167,958,477,0.537261,17.7161
-259,547,0.545349,-18.0349,0.00103872,-0.00477179,0.00166736,0.00148318,-0.00521625,0.260508,0.00406315,0.011015,965,477,0.545327,18.0349
-252,547,0.561462,-18.3501,0.00105493,-0.00706892,0.00260646,0.00181927,-0.00783326,0.285253,0.00592248,0.0111033,972,477,0.56145,18.3501
-245,547,0.578003,-18.6703,0.000932468,-0.00984861,0.00374071,0.00210324,-0.0110194,0.303324,0.00813844,0.01203,979,477,0.577997,18.6703
-238,547,0.58197,-18.9913,0.000785874,-0.0129268,0.00507808,0.0024616,-0.0146026,0.318741,0.0106508,0.00890851,986,477,0.581988,18.9913
-231,547,0.578369,-19.3065,0.000661125,-0.0159325,0.00636866,0.00282361,-0.018095,0.327336,0.0131063,0.00875861,993,477,0.578348,19.3066
-224,547,0.580078,-19.5871,0.000348043,-0.0190391,0.00784572,0.00312526,-0.0218163,0.340215,0.0156901,0.0114938,1000,477,0.580071,19.5871
-217,547,0.614197,-19.8742,-5.00808e-05,-0.0219573,0.00934742,0.00339616,-0.0254036,0.353222,0.0181738,0.0172852,1007,477,0.614172,19.8742
-210,547,0.680664,-20.0815,-0.00049329,-0.0246393,0.0106869,0.00355724,-0.0286898,0.362287,0.0204158,0.0305873,1014,477,0.680679,20.0814
-203,547,0.615173,-20.0603,-0.00112548,-0.025879,0.010087,0.00246433,-0.0294688,0.341909,0.0205167,0.0411648,1021,477,0.615151,20.0603
-196,547,0.325928,-20.2076,-0.00195712,-0.027004,0.00835074,0.000571723,-0.0295329,0.29405,0.0198819,0.0447736,1028,477,0.325874,20.2075
-189,547,0.162842,-20.3457,-0.00266113,-0.0273898,0.00672841,-0.000948949,-0.029102,0.249182,0.0190929,0.0492528,1035,477,0.162869,20.3457
-182,547,0.114258,-20.5545,0,0,0,0,0,0,0,-1,1042,477,0.114233,20.5545
-175,547,-0.350098,-12.3584,0,0,0,0,0,0,0,-1,1049,477,-0.350098,12.3584
-168,547,1.12463,-8.66785,0,0,0,0,0,0,0,-1,1056,477,1.12461,8.66786
-161,547,1.78125,-21.8799,0,0,0,0,0,0,0,-1,1063,477,1.78127,21.8799
-154,547,1.79163,-22.1116,-0.00660695,-0.0240344,-0.0143767,0.00149055,-0.0321319,-0.512951,0.021935,0.0476185,1070,477,1.79164,22.1116
-147,547,1.67725,-22.258,-0.00617857,-0.0244487,-0.0195455,0.00626122,-0.0368885,-0.566794,0.0269232,0.0461959,1077,477,1.67726,22.258
-140,547,1.55676,-22.5229,0,0,0,0,0,0,0,-1,1084,477,1.5568,22.5229
-133,547,2.31665,-17.9421,0,0,0,0,0,0,0,-1,1091,477,2.31667,17.9421
-126,547,0.784302,-9.76431,0,0,0,0,0,0,0,-1,1098,477,0.78428,9.76432
-119,547,0.190308,-15.7633,0,0,0,0,0,0,0,-1,1105,477,0.190348,15.7633
-112,547,4.36194,-9.23029,0,0,0,0,0,0,0,-1,1112,477,4.36195,9.23029
-105,547,4.448,-9.17819,0,0,0,0,0,0,0,-1,1119,477,4.44799,9.1782
-98,547,1.50391,-7.20621,0,0,0,0,0,0,0,-1,1126,477,1.50395,7.20621
-91,547,1.37805,-7.12024,0,0,0,0,0,0,0,-1,1133,477,1.37804,7.12025
-84,547,1.94202,-6.66241,0,0,0,0,0,0,0,-1,1140,477,1.94201,6.66241
-77,547,-2.28357,1.8588,0,0,0,0,0,0,0,-1,1147,477,-2.28356,-1.85879
-70,547,-3.70178,-0.874908,0,0,0,0,0,0,0,-1,1154,477,-3.70182,0.874918
-63,547,-5.12012,-3.60861,0,0,0,0,0,0,0,-1,1161,477,-5.12009,3.60862
-56,547,-6.01917,-6.2399,0,0,0,0,0,0,0,-1,1168,477,-6.01921,6.23991
-49,547,-6.729,-8.60349,0,0,0,0,0,0,0,-1,1175,477,-6.72899,8.60348
-42,547,-2.41736,-5.53012,0,0,0,0,0,0,0,-1,1182,477,-2.41734,5.53011
-35,547,-2.96838,-4.45734,0,0,0,0,0,0,0,-1,1189,477,-2.96839,4.45734
-28,547,-0.869141,-1.29901,0,0,0,0,0,0,0,-1,1196,477,-0.869135,1.29901
-21,547,-6.88196,-23.4703,0,0,0,0,0,0,0,-1,1203,477,-6.88193,23.4703
-14,547,-5.7002,-23.4902,0,0,0,0,0,0,0,-1,1210,477,-5.70017,23.4902
-7,547,-4.89648,-23.7823,0,0,0,0,0,0,0,-1,1217,477,-4.89649,23.7823
0,547,2.38538,-29.9146,0,0,0,0,0,0,0,-1,1224,477,2.38543,29.9146
7,547,5.96167,-23.3528,0,0,0,0,0,0,0,-1,1231,477,5.96171,23.3527
14,547,0,0,0,0,0,0,0,0,0,-1,1238,477,0,0
21,547,0,0,0,0,0,0,0,0,0,-1,1245,477,0,0
28,547,0,0,0,0,0,0,0,0,0,-1,1252,477,0,0
35,547,0,0,0,0,0,0,0,0,0,-1,1259,477,0,0
42,547,0,0,0,0,0,0,0,0,0,-1,1266,477,0,0
49,547,0,0,0,0,0,0,0,0,0,-1,1273,477,0,0
56,547,0,0,0,0,0,0,0,0,0,-1,1280,477,0,0
63,547,0,0,0,0,0,0,0,0,0,-1,1287,477,0,0
70,547,0,0,0,0,0,0,0,0,0,-1,1294,477,0,0
77,547,0,0,0,0,0,0,0,0,0,-1,1301,477,0,0
84,547,0,0,0,0,0,0,0,0,0,-1,1308,477,0,0
91,547,0,0,0,0,0,0,0,0,0,-1,1315,477,0,0
98,547,0,0,0,0,0,0,0,0,0,-1,1322,477,0,0
105,547,6.35217,-24.9156,0,0,0,0,0,0,0,-1,1329,477,6.35219,24.9156
112,547,2.89685,-26.599,0,0,0,0,0,0,0,-1,1336,477,2.89685,26.599
119,547,3.505,-26.6086,0.0566154,-0.00237049,-0.0109655,0.058588,-0.00434302,-0.177982,0.0405838,0.0452938,1343,477,3.505,26.6086
126,547,4.81104,-26.2607,0.0525791,0.00984945,-0.0233872,0.0628911,-0.000462502,-0.415279,0.0420824,0.0455317,1350,477,4.81098,26.2607
133,547,4.73096,-26.1905,0.0420774,0.0223759,-0.0322626,0.0659596,-0.00150628,-0.637228,0.0444837,0.0452832,1357,477,4.73092,26.1905
140,547,10.2266,-25.802,0,0,0,0,0,0,0,-1,1364,477,10.2266,25.802
147,547,10.6384,-26.0777,-0.0132303,0.0435881,-0.043862,0.0674374,-0.0370796,-1.07277,0.0611856,0.0432259,1371,477,10.6385,26.0777
154,547,10.7108,-26.0746,-0.0679647,0.0482599,-0.047973,0.0655031,-0.0852079,-1.22574,0.0872606,0.045385,1378,477,10.7109,26.0746
161,547,8.26404,-25.4342,-0.126793,0.0532229,-0.0501918,0.0662715,-0.139841,-1.31645,0.1215,0.0485835,1385,477,8.264,25.4342
168,547,8.24194,-25.5132,0,0,0,0,0,0,0,-1,1392,477,8.24192,25.5132
175,547,3.35034,-0.26532,0,0,0,0,0,0,0,-1,1399,477,3.3503,0.265306
182,547,4.26038,3.72672,0,0,0,0,0,0,0,-1,1406,477,4.26039,-3.7267
189,547,3.40454,1.28671,0,0,0,0,0,0,0,-1,1413,477,3.40457,-1.28673
196,547,3.53931,1.87793,0,0,0,0,0,0,0,-1,1420,477,3.53928,-1.87794
203,547,6.49414,-0.425842,0,0,0,0,0,0,0,-1,1427,477,6.4941,0.425844
210,547,4.82092,0.53595,0,0,0,0,0,0,0,-1,1434,477,4.82096,-0.535942
217,547,4.68579,0.480072,0,0,0,0,0,0,0,-1,1441,477,4.68577,-0.480069
224,547,4.55615,0.739807,0,0,0,0,0,0,0,-1,1448,477,4.55613,-0.73981
231,547,5.90869,-3.57721,0,0,0,0,0,0,0,-1,1455,477,5.90871,3.57722
238,547,5.50049,-3.15356,0,0,0,0,0,0,0,-1,1462,477,5.50045,3.15356
245,547,5.13708,-2.65213,0,0,0,0,0,0,0,-1,1469,477,5.13708,2.65212
252,547,3.73511,-0.645233,0,0,0,0,0,0,0,-1,1476,477,3.73515,0.645237
259,547,5.86816,-3.20816,0,0,0,0,0,0,0,-1,1483,477,5.86815,3.20816
266,547,5.40222,-2.45731,0,0,0,0,0,0,0,-1,1490,477,5.40221,2.45732
273,547,3.05737,0.495789,0,0,0,0,0,0,0,-1,1497,477,3.05742,-0.49578
280,547,2.0885,1.47797,0,0,0,0,0,0,0,-1,1504,477,2.08848,-1.47795
287,547,2.31177,-2.21716,0,0,0,0,0,0,0,-1,1511,477,2.31174,2.21717
294,547,2.4823,-3.03659,0,0,0,0,0,0,0,-1,1518,477,2.48229,3.0366
301,547,4.72119,-3.93454,0,0,0,0,0,0,0,-1,1525,477,4.72119,3.93453
308,547,4.07471,-5.42175,0,0,0,0,0,0,0,-1,1532,477,4.07468,5.42174
315,547,3.58496,-6.62112,0,0,0,0,0,0,0,-1,1539,477,3.58497,6.62113
322,547,5.73926,-14.1878,0,0,0,0,0,0,0,-1,1546,477,5.73926,14.1878
329,547,6.92712,-19.2422,0,0,0,0,0,0,0,-1,1553,477,6.9271,19.2423
336,547,6.96716,-19.3947,0,0,0,0,0,0,0,-1,1560,477,6.96711,19.3948
343,547,7.0946,-19.0499,-0.000359984,-0.00451513,-0.00400651,0.00207558,-0.00695069,-0.54621,0.00545881,0.0378261,1567,477,7.09456,19.0499
350,547,7.0321,-18.6609,-0.000457397,-0.00362341,-0.00342005,0.00172823,-0.00580904,-0.568649,0.00455929,0.0241882,1574,477,7.03215,18.6609
357,547,7.0116,-18.3238,-0.000419284,-0.00264915,-0.0027999,0.00147951,-0.00454794,-0.59592,0.00362715,0.0150897,1581,477,7.01154,18.3238
364,547,7.00305,-17.9863,-0.000227929,-0.00198169,-0.002139,0.00120696,-0.00341657,-0.590872,0.00276914,0.0107331,1588,477,7.00303,17.9863
371,547,7.01123,-17.6447,2.10166e-05,-0.0013497,-0.0015381,0.00101954,-0.00234822,-0.57581,0.00199418,0.00959769,1595,477,7.01128,17.6447
378,547,7.02478,-17.3014,3.99438e-05,-0.000833113,-0.0011495,0.000833014,-0.00162618,-0.603932,0.00144422,0.0105451,1602,477,7.02474,17.3014
385,547,7.0448,-16.9507,4.78423e-05,-0.000159335,-0.000678105,0.000630225,-0.000741717,-0.709603,0.000792963,0.0115159,1609,477,7.04479,16.9507
392,547,7.03394,-16.5788,5.82226e-05,0.000244221,-0.000339501,0.00050323,-0.000200787,-0.919083,0.00041878,0.0119189,1616,477,7.03394,16.5788
399,547,6.99683,-16.2359,0.00015696,0.000572891,2.82775e-05,0.000574805,0.000155046,1.50322,0.000343394,0.0132049,1623,477,6.99681,16.2359
406,547,7.0022,-15.8872,0.000350067,0.00111034,0.000566587,0.0014125,4.79105e-05,1.08087,0.000926108,0.0126292,1630,477,7.0022,15.8872
413,547,7.0061,-15.5096,0.000561014,0.00169442,0.00110978,0.00237382,-0.000118382,1.02146,0.00162345,0.0132424,1637,477,7.00607,15.5096
420,547,7.01904,-15.1306,0.00100003,0.00225007,0.0015433,0.00329011,-4.00073e-05,0.9778,0.00220686,0.015301,1644,477,7.01908,15.1306
427,547,7.01892,-14.7532,0.00147969,0.00246076,0.00207637,0.00410375,-0.000163295,0.901395,0.00279186,0.0145127,1651,477,7.0189,14.7532
434,547,6.96301,-14.4,0.00192064,0.00198846,0.00258054,0.00453531,-0.000626211,0.791968,0.00325244,0.00988079,1658,477,6.96301,14.4
441,547,6.95862,-14.042,0.00253081,0.00157984,0.00308664,0.00517837,-0.00106772,0.708976,0.00385772,0.010054,1665,477,6.95864,14.042
448,547,6.95154,-13.6169,0.00310567,0.000770993,0.00348547,0.00561409,-0.00173743,0.623811,0.00443675,0.0112346,1672,477,6.95151,13.6168
455,547,6.95154,-13.2146,0.00358333,-0.000642618,0.00373157,0.00575863,-0.00281791,0.527784,0.00504776,0.0111297,1679,477,6.95159,13.2146
462,547,6.92847,-12.8149,0.00392363,-0.00268867,0.00386997,0.0057074,-0.00447244,0.431903,0.00589173,0.011212,1686,477,6.92852,12.8149
469,547,6.86853,-12.3936,0.00403959,-0.00526787,0.00397373,0.00550532,-0.00673359,0.353371,0.00707799,0.0189749,1693,477,6.86854,12.3936
476,547,6.87671,-11.9082,0.00386783,-0.00858568,0.00384639,0.00496003,-0.00967788,0.276673,0.00859628,0.0369938,1700,477,6.87674,11.9082
483,547,6.93481,-11.3915,0,0,0,0,0,0,0,-1,1707,477,6.93482,11.3915
490,547,3.65271,-3.71707,0,0,0,0,0,0,0,-1,1714,477,3.65277,3.71708
497,547,2.55481,-3.81421,0,0,0,0,0,0,0,-1,1721,477,2.55476,3.8142
504,547,4.01953,-2.22714,0,0,0,0,0,0,0,-1,1728,477,4.0195,2.22713
511,547,5.2146,-6.9552,0,0,0,0,0,0,0,-1,1735,477,5.21464,6.95521
518,547,5.24243,-6.56122,0,0,0,0,0,0,0,-1,1742,477,5.24241,6.56121
525,547,5.7533,-5.33215,0,0,0,0,0,0,0,-1,1749,477,5.75329,5.33215
532,547,0,0,0,0,0,0,0,0,0,-1,1756,477,0,0
539,547,0,0,0,0,0,0,0,0,0,-1,1763,477,0,0
546,547,0,0,0,0,0,0,0,0,0,-1,1770,477,0,0
553,547,0,0,0,0,0,0,0,0,0,-1,1777,477,0,0
560,547,0,0,0,0,0,0,0,0,0,-1,1784,477,0,0
567,547,0,0,0,0,0,0,0,0,0,-1,1791,477,0,0
574,547,0,0,0,0,0,0,0,0,0,-1,1798,477,0,0
581,547,0,0,0,0,0,0,0,0,0,-1,1805,477,0,0
588,547,0,0,0,0,0,0,0,0,0,-1,1812,477,0,0
595,547,0,0,0,0,0,0,0,0,0,-1,1819,477,0,0
602,547,0,0,0,0,0,0,0,0,0,-1,1826,477,0,0
609,547,0,0,0,0,0,0,0,0,0,-1,1833,477,0,0
616,547,0,0,0,0,0,0,0,0,0,-1,1840,477,0,0
623,547,0,0,0,0,0,0,0,0,0,-1,1847,477,0,0
630,547,0,0,0,0,0,0,0,0,0,-1,1854,477,0,0
637,547,0,0,0,0,0,0,0,0,0,-1,1861,477,0,0
644,547,0,0,0,0,0,0,0,0,0,-1,1868,477,0,0
651,547,0,0,0,0,0,0,0,0,0,-1,1875,477,0,0
658,547,0,0,0,0,0,0,0,0,0,-1,1882,477,0,0
665,547,0,0,0,0,0,0,0,0,0,-1,1889,477,0,0
672,547,0,0,0,0,0,0,0,0,0,-1,1896,477,0,0
679,547,0,0,0,0,0,0,0,0,0,-1,1903,477,0,0
686,547,0,0,0,0,0,0,0,0,0,-1,1910,477,0,0
693,547,0,0,0,0,0,0,0,0,0,-1,1917,477,0,0
700,547,0,0,0,0,0,0,0,0,0,-1,1924,477,0,0
707,547,0,0,0,0,0,0,0,0,0,-1,1931,477,0,0
714,547,0,0,0,0,0,0,0,0,0,-1,1938,477,0,0
721,547,0,0,0,0,0,0,0,0,0,-1,1945,477,0,0
728,547,0,0,0,0,0,0,0,0,0,-1,1952,477,0,0
735,547,0,0,0,0,0,0,0,0,0,-1,1959,477,0,0
742,547,0,0,0,0,0,0,0,0,0,-1,1966,477,0,0
749,547,0,0,0,0,0,0,0,0,0,-1,1973,477,0,0
756,547,0,0,0,0,0,0,0,0,0,-1,1980,477,0,0
763,547,0,0,0,0,0,0,0,0,0,-1,1987,477,0,0
770,547,0,0,0,0,0,0,0,0,0,-1,1994,477,0,0
777,547,0,0,0,0,0,0,0,0,0,-1,2001,477,0,0
784,547,0,0,0,0,0,0,0,0,0,-1,2008,477,0,0
791,547,0,0,0,0,0,0,0,0,0,-1,2015,477,0,0
798,547,0,0,0,0,0,0,0,0,0,-1,2022,477,0,0
805,547,0,0,0,0,0,0,0,0,0,-1,2029,477,0,0
812,547,0,0,0,0,0,0,0,0,0,-1,2036,477,0,0
-700,540,0,0,0,0,0,0,0,0,0,-1,524,484,0,0
-693,540,0,0,0,0,0,0,0,0,0,-1,531,484,0,0
-686,540,0,0,0,0,0,0,0,0,0,-1,538,484,0,0
-679,540,0,0,0,0,0,0,0,0,0,-1,545,484,0,0
-672,540,0,0,0,0,0,0,0,0,0,-1,552,484,0,0
-665,540,0,0,0,0,0,0,0,0,0,-1,559,484,0,0
-658,540,0,0,0,0,0,0,0,0,0,-1,566,484,0,0
-651,540,0,0,0,0,0,0,0,0,0,-1,573,484,0,0
-644,540,0,0,0,0,0,0,0,0,0,-1,580,484,0,0
-637,540,0,0,0,0,0,0,0,0,0,-1,587,484,0,0
-630,540,0,0,0,0,0,0,0,0,0,-1,594,484,0,0
-623,540,0,0,0,0,0,0,0,0,0,-1,601,484,0,0
-616,540,0,0,0,0,0,0,0,0,0,-1,608,484,0,0
-609,540,0,0,0,0,0,0,0,0,0,-1,615,484,0,0
-602,540,0,0,0,0,0,0,0,0,0,-1,622,484,0,0
-595,540,0,0,0,0,0,0,0,0,0,-1,629,484,0,0
-588,540,0,0,0,0,0,0,0,0,0,-1,636,484,0,0
-581,540,0,0,0,0,0,0,0,0,0,-1,643,484,0,0
-574,540,0,0,0,0,0,0,0,0,0,-1,650,484,0,0
-567,540,0,0,0,0,0,0,0,0,0,-1,657,484,0,0
-560,540,0,0,0,0,0,0,0,0,0,-1,664,484,0,0
-553,540,0,0,0,0,0,0,0,0,0,-1,671,484,0,0
-546,540,0,0,0,0,0,0,0,0,0,-1,678,484,0,0
-539,540,0,0,0,0,0,0,0,0,0,-1,685,484,0,0
-532,540,0,0,0,0,0,0,0,0,0,-1,692,484,0,0
-525,540,0,0,0,0,0,0,0,0,0,-1,699,484,0,0
-518,540,0,0,0,0,0,0,0,0,0,-1,706,484,0,0
-511,540,0,0,0,0,0,0,0,0,0,-1,713,484,0,0
-504,540,0,0,0,0,0,0,0,0,0,-1,720,484,0,0
-497,540,0,0,0,0,0,0,0,0,0,-1,727,484,0,0
-490,540,0,0,0,0,0,0,0,0,0,-1,734,484,0,0
-483,540,0,0,0,0,0,0,0,0,0,-1,741,484,0,0
-476,540,0,0,0,0,0,0,0,0,0,-1,748,484,0,0
-469,540,0,0,0,0,0,0,0,0,0,-1,755,484,0,0
-462,540,0,0,0,0,0,0,0,0,0,-1,762,484,0,0
-455,540,0,0,0,0,0,0,0,0,0,-1,769,484,0,0
-448,540,0,0,0,0,0,0,0,0,0,-1,776,484,0,0
-441,540,0,0,0,0,0,0,0,0,0,-1,783,484,0,0
-434,540,0,0,0,0,0,0,0,0,0,-1,790,484,0,0
-427,540,0,0,0,0,0,0,0,0,0,-1,797,484,0,0
-420,540,0.291504,-4.59543,0,0,0,0,0,0,0,-1,804,484,0.291518,4.59544
-413,540,-0.521362,-9.61209,0,0,0,0,0,0,0,-1,811,484,-0.521343,9.61208
-406,540,-0.557251,-10.6337,0,0,0,0,0,0,0,-1,818,484,-0.55726,10.6337
-399,540,0.23407,-10.625,0,0,0,0,0,0,0,-1,825,484,0.234092,10.625
-392,540,0.67572,-11.8254,0,0,0,0,0,0,0,-1,832,484,0.675725,11.8254
-385,540,-2.29407,-5.03418,0,0,0,0,0,0,0,-1,839,484,-2.29408,5.03418
-378,540,1.06445,-10.5824,0,0,0,0,0,0,0,-1,846,484,1.06446,10.5824
-371,540,1.14825,-10.7452,0,0,0,0,0,0,0,-1,853,484,1.14827,10.7452
-364,540,0.293823,-12.8084,0,0,0,0,0,0,0,-1,860,484,0.293831,12.8084
-357,540,0.449951,-12.7355,0,0,0,0,0,0,0,-1,867,484,0.449927,12.7355
-350,540,0.381714,-13.1951,-0.00247117,0.00347198,-0.00476596,0.00611687,-0.00511606,-1.06416,0.00649391,0.0336215,874,484,0.381698,13.1951
-343,540,0.331665,-13.6756,-0.00270506,0.00314398,-0.00433981,0.0054527,-0.00501378,-1.08189,0.00604459,0.017784,881,484,0.331681,13.6756
-336,540,0.28064,-14.1689,-0.0026146,0.00295365,-0.00397042,0.00501881,-0.00467977,-1.09117,0.00560062,0.0130959,888,484,0.280614,14.169
-329,540,0.283081,-14.5336,-0.00244647,0.00265014,-0.00347945,0.00441466,-0.00421099,-1.10146,0.00498048,0.0104018,895,484,0.283057,14.5336
-322,540,0.262329,-14.9004,-0.0021954,0.00231998,-0.00296314,0.00378752,-0.00366294,-1.11094,0.00430172,0.0140739,902,484,0.262331,14.9004
-315,540,0.256287,-15.2847,-0.0018209,0.00211292,-0.00246955,0.00330314,-0.00301112,-1.12169,0.00364683,0.012797,909,484,0.256291,15.2847
-308,540,0.266479,-15.6248,-0.00135106,0.00191203,-0.00200955,0.00286896,-0.00230799,-1.12638,0.00299476,0.0121765,916,484,0.266454,15.6248
-301,540,0.25177,-15.9737,-0.000794569,0.00147292,-0.00151457,0.00223108,-0.00155273,-1.10669,0.00219625,0.0118706,923,484,0.251789,15.9737
-294,540,0.259399,-16.3269,-0.000227219,0.000795765,-0.000938256,0.00135289,-0.000784347,-1.03495,0.0012484,0.011083,930,484,0.259405,16.3269
-287,540,0.264465,-16.6674,0.0002496,6.92282e-05,-0.000331135,0.00050261,-0.000183782,-0.652446,0.000410292,0.0081358,937,484,0.264491,16.6673
-280,540,0.251282,-17.0154,0.000487943,-0.000921989,0.000215859,0.00052025,-0.000954297,0.148566,0.000863537,0.00944729,944,484,0.251263,17.0154
-273,540,0.236084,-17.3744,0.000686007,-0.00237322,0.0010285,0.000999631,-0.00268685,0.295977,0.00220144,0.0118376,951,484,0.236111,17.3744
-266,540,0.227661,-17.7069,0.00118005,-0.00456999,0.00193017,0.00176787,-0.00515781,0.295622,0.00415515,0.0127471,958,484,0.227656,17.7069
-259,540,0.231628,-18.0412,0.00143379,-0.00701087,0.00285625,0.00230913,-0.00788621,0.297378,0.00617287,0.0116796,965,484,0.231648,18.0412
-252,540,0.251892,-18.3306,0.00136923,-0.00984195,0.00396445,0.00262947,-0.0111022,0.307781,0.008416,0.0114614,972,484,0.251874,18.3306
-245,540,0.264099,-18.6516,0.00118839,-0.0133017,0.00534178,0.00294475,-0.015058,0.317663,0.0111506,0.0122361,979,484,0.264083,18.6516
-238,540,0.240479,-18.9627,0.000983797,-0.0171592,0.00695174,0.00334116,-0.0195165,0.326935,0.0142558,0.0101949,986,484,0.240468,18.9627
-231,540,0.245178,-19.253,0.000813531,-0.0210621,0.00853966,0.00375238,-0.0240009,0.331445,0.0173869,0.0127727,993,484,0.245184,19.253
-224,540,0.229553,-19.5081,0.000364536,-0.0252609,0.0104453,0.00408272,-0.0289791,0.34198,0.0208142,0.0206747,1000,484,0.229545,19.5081
-217,540,0.245972,-19.6193,-0.000175544,-0.0292836,0.0123915,0.00438504,-0.0338441,0.352657,0.0241575,0.0337175,1007,484,0.245971,19.6193
-210,540,0.378174,-19.7561,-0.000813036,-0.0330712,0.014201,0.00454776,-0.038432,0.360956,0.027264,0.0420775,1014,484,0.378172,19.7561
-203,540,0.281189,-19.899,-0.00181455,-0.0347373,0.0134276,0.00296734,-0.0395192,0.342121,0.0273889,0.0457881,1021,484,0.281204,19.8991
-196,540,-0.204102,-20.0801,0,0,0,0,0,0,0,-1,1028,484,-0.204062,20.0801
-189,540,-0.460327,-20.0344,0,0,0,0,0,0,0,-1,1035,484,-0.46034,20.0344
-182,540,0.109375,-15.2948,0,0,0,0,0,0,0,-1,1042,484,0.109331,15.2948
-175,540,1.73413,-10.728,0,0,0,0,0,0,0,-1,1049,484,1.73414,10.728
-168,540,1.18164,-7.65347,0,0,0,0,0,0,0,-1,1056,484,1.18163,7.65347
-161,540,-0.405884,-9.86481,0,0,0,0,0,0,0,-1,1063,484,-0.405886,9.8648
-154,540,1.96863,-22.0727,0,0,0,0,0,0,0,-1,1070,484,1.96859,22.0727
-147,540,1.32764,-21.9952,0,0,0,0,0,0,0,-1,1077,484,1.32762,21.9952
-140,540,1.40735,-15.6289,0,0,0,0,0,0,0,-1,1084,484,1.4073,15.6289
-133,540,2.28345,-17.6413,0,0,0,0,0,0,0,-1,1091,484,2.2835,17.6413
-126,540,1.46765,-17.5085,0,0,0,0,0,0,0,-1,1098,484,1.46764,17.5085
-119,540,6.18579,-10.4846,0,0,0,0,0,0,0,-1,1105,484,6.18582,10.4846
-112,540,5.8468,-9.65106,0,0,0,0,0,0,0,-1,1112,484,5.84681,9.65106
-105,540,5.50781,-8.81754,0,0,0,0,0,0,0,-1,1119,484,5.5078,8.81753
-98,540,0.73877,-3.08093,0,0,0,0,0,0,0,-1,1126,484,0.738754,3.08092
-91,540,1.56519,-7.48666,0,0,0,0,0,0,0,-1,1133,484,1.56514,7.48667
-84,540,-0.945923,4.43073,0,0,0,0,0,0,0,-1,1140,484,-0.945891,-4.43074
-77,540,-2.28894,2.14368,0,0,0,0,0,0,0,-1,1147,484,-2.28894,-2.14368
-70,540,-3.75244,-0.452576,0,0,0,0,0,0,0,-1,1154,484,-3.75244,0.452576
-63,540,-5.26257,-3.04767,0,0,0,0,0,0,0,-1,1161,484,-5.26262,3.04766
-56,540,-5.19055,-6.12595,0,0,0,0,0,0,0,-1,1168,484,-5.19057,6.12595
-49,540,-5.63867,-8.52298,0,0,0,0,0,0,0,-1,1175,484,-5.63871,8.52298
-42,540,0,0,0,0,0,0,0,0,0,-1,1182,484,0,0
-35,540,0,0,0,0,0,0,0,0,0,-1,1189,484,0,0
-28,540,0,0,0,0,0,0,0,0,0,-1,1196,484,0,0
-21,540,0,0,0,0,0,0,0,0,0,-1,1203,484,0,0
-14,540,0,0,0,0,0,0,0,0,0,-1,1210,484,0,0
-7,540,0,0,0,0,0,0,0,0,0,-1,1217,484,0,0
0,540,0,0,0,0,0,0,0,0,0,-1,1224,484,0,0
7,540,0,0,0,0,0,0,0,0,0,-1,1231,484,0,0
14,540,0,0,0,0,0,0,0,0,0,-1,1238,484,0,0
21,540,0,0,0,0,0,0,0,0,0,-1,1245,484,0,0
28,540,0,0,0,0,0,0,0,0,0,-1,1252,484,0,0
35,540,0,0,0,0,0,0,0,0,0,-1,1259,484,0,0
42,540,0,0,0,0,0,0,0,0,0,-1,1266,484,0,0
49,540,0,0,0,0,0,0,0,0,0,-1,1273,484,0,0
56,540,0,0,0,0,0,0,0,0,0,-1,1280,484,0,0
63,540,0,0,0,0,0,0,0,0,0,-1,1287,484,0,0
70,540,0,0,0,0,0,0,0,0,0,-1,1294,484,0,0
77,540,0,0,0,0,0,0,0,0,0,-1,1301,484,0,0
84,540,0,0,0,0,0,0,0,0,0,-1,1308,484,0,0
91,540,0,0,0,0,0,0,0,0,0,-1,1315,484,0,0
98,540,0,0,0,0,0,0,0,0,0,-1,1322,484,0,0
105,540,0,0,0,0,0,0,0,0,0,-1,1329,484,0,0
112,540,0,0,0,0,0,0,0,0,0,-1,1336,484,0,0
119,540,0,0,0,0,0,0,0,0,0,-1,1343,484,0,0
126,540,0,0,0,0,0,0,0,0,0,-1,1350,484,0,0
133,540,0,0,0,0,0,0,0,0,0,-1,1357,484,0,0
140,540,0,0,0,0,0,0,0,0,0,-1,1364,484,0,0
147,540,0,0,0,0,0,0,0,0,0,-1,1371,484,0,0
154,540,0,0,0,0,0,0,0,0,0,-1,1378,484,0,0
161,540,0,0,0,0,0,0,0,0,0,-1,1385,484,0,0
168,540,3.05078,-0.0010376,0,0,0,0,0,0,0,-1,1392,484,3.05084,0.00102554
175,540,3.37708,0.617035,0,0,0,0,0,0,0,-1,1399,484,3.37707,-0.617046
182,540,3.32678,1.23267,0,0,0,0,0,0,0,-1,1406,484,3.32678,-1.23266
189,540,3.5813,2.15619,0,0,0,0,0,0,0,-1,1413,484,3.58129,-2.1562
196,540,1.84448,-0.801483,0,0,0,0,0,0,0,-1,1420,484,1.84446,0.80148
203,540,4.14648,0.702087,0,0,0,0,0,0,0,-1,1427,484,4.14645,-0.702089
210,540,4.50671,-0.56076,0,0,0,0,0,0,0,-1,1434,484,4.50667,0.560771
217,540,5.00452,-0.278717,0,0,0,0,0,0,0,-1,1441,484,5.00452,0.278709
224,540,6.44458,-2.83527,0,0,0,0,0,0,0,-1,1448,484,6.44457,2.83525
231,540,6.9231,-3.10504,0,0,0,0,0,0,0,-1,1455,484,6.92307,3.10505
238,540,6.4823,-2.58365,0,0,0,0,0,0,0,-1,1462,484,6.48225,2.58363
245,540,6.02087,-1.97916,0,0,0,0,0,0,0,-1,1469,484,6.02088,1.97915
252,540,6.50647,-3.56006,0,0,0,0,0,0,0,-1,1476,484,6.50649,3.56006
259,540,6.01941,-2.798,0,0,0,0,0,0,0,-1,1483,484,6.01941,2.79801
266,540,5.5332,-2.02853,0,0,0,0,0,0,0,-1,1490,484,5.53323,2.02855
273,540,5.06787,-1.28137,0,0,0,0,0,0,0,-1,1497,484,5.06786,1.28136
280,540,1.62903,-2.14609,0,0,0,0,0,0,0,-1,1504,484,1.62906,2.1461
287,540,1.97156,-2.45053,0,0,0,0,0,0,0,-1,1511,484,1.97159,2.45053
294,540,2.44165,-2.6185,0,0,0,0,0,0,0,-1,1518,484,2.44167,2.6185
301,540,4.36169,-2.54272,0,0,0,0,0,0,0,-1,1525,484,4.36165,2.54272
308,540,4.2019,-4.30469,0,0,0,0,0,0,0,-1,1532,484,4.20193,4.3047
315,540,4.45923,-5.32101,0,0,0,0,0,0,0,-1,1539,484,4.45923,5.32103
322,540,4.71655,-6.33737,0,0,0,0,0,0,0,-1,1546,484,4.71653,6.33736
329,540,5.8949,-12.9383,0,0,0,0,0,0,0,-1,1553,484,5.89492,12.9383
336,540,7.16467,-17.7826,0,0,0,0,0,0,0,-1,1560,484,7.16469,17.7826
343,540,7.60278,-19.2128,0,0,0,0,0,0,0,-1,1567,484,7.60274,19.2128
350,540,7.36926,-18.7628,0,0,0,0,0,0,0,-1,1574,484,7.3693,18.7628
357,540,7.47327,-18.1461,-0.00106786,-0.00356791,-0.0038514,0.00173129,-0.00636706,-0.628479,0.00492432,0.0415335,1581,484,7.47321,18.1461
364,540,7.31604,-17.9094,-0.000593203,-0.00282394,-0.00301178,0.0015031,-0.00492025,-0.60806,0.00387951,0.0242575,1588,484,7.31609,17.9094
371,540,7.33667,-17.62,-9.41858e-05,-0.00207689,-0.00226431,0.00138628,-0.00355736,-0.57906,0.00294453,0.0155874,1595,484,7.33671,17.62
378,540,7.37793,-17.2834,-4.65259e-05,-0.00154812,-0.00187388,0.00122137,-0.00281601,-0.594859,0.00239082,0.0127038,1602,484,7.37791,17.2834
385,540,7.38013,-16.9381,-5.30998e-05,-0.0010653,-0.00141659,0.00094508,-0.00206348,-0.613832,0.00177655,0.0141846,1609,484,7.38018,16.9381
392,540,7.38037,-16.5768,-8.37601e-05,-0.000710349,-0.00110708,0.000753498,-0.00154761,-0.647507,0.00135466,0.0122553,1616,484,7.38042,16.5767
399,540,7.3313,-16.243,-0.000103928,-0.000459485,-0.00085052,0.000587194,-0.00115061,-0.68237,0.00102075,0.015527,1623,484,7.33132,16.243
406,540,7.35046,-15.8922,-6.69823e-05,-7.84184e-05,-0.000543429,0.000470758,-0.000616159,-0.780137,0.000629401,0.0163877,1630,484,7.35042,15.8923
413,540,7.3667,-15.4847,9.55586e-05,0.000469976,-6.39673e-05,0.000480603,8.49317e-05,-1.40617,0.000296179,0.0136254,1637,484,7.3667,15.4847
420,540,7.37842,-15.1034,0.000372172,0.000936602,0.000386281,0.00113278,0.000175996,1.10088,0.000703893,0.012334,1644,484,7.37846,15.1034
427,540,7.37158,-14.7482,0.000687157,0.00124193,0.000863755,0.00187174,5.73393e-05,0.940765,0.00122916,0.0129375,1651,484,7.37155,14.7482
434,540,7.34998,-14.3861,0.0010344,0.00116587,0.00135596,0.00245769,-0.000257412,0.809619,0.00173065,0.0154112,1658,484,7.34996,14.3861
441,540,7.35217,-13.9918,0.00151323,0.00101622,0.00186807,0.00314925,-0.0006198,0.719273,0.0023337,0.018357,1665,484,7.35218,13.9918
448,540,7.33228,-13.618,0.00199399,0.000580376,0.00230993,0.00370282,-0.00112846,0.636928,0.00291836,0.0118495,1672,484,7.33224,13.6181
455,540,7.33459,-13.211,0.00242966,-0.000290641,0.00265083,0.00404892,-0.0019099,0.54836,0.00351344,0.0105576,1679,484,7.33454,13.211
462,540,7.3075,-12.8079,0.00277505,-0.00163279,0.00293691,0.00424301,-0.00310075,0.463513,0.00425698,0.0103786,1686,484,7.30752,12.8079
469,540,7.26697,-12.3997,0.00293625,-0.00331609,0.00322478,0.00430141,-0.00468126,0.400461,0.0051877,0.0128223,1693,484,7.26696,12.3997
476,540,7.23865,-12.0198,0.00287405,-0.00548917,0.0033362,0.00404184,-0.00665697,0.336707,0.00623817,0.0187716,1700,484,7.23869,12.0198
483,540,7.24634,-11.6157,0.00249927,-0.00829217,0.00332167,0.00343974,-0.00923264,0.27591,0.00756692,0.0362514,1707,484,7.24634,11.6157
490,540,7.40918,-11.0978,0,0,0,0,0,0,0,-1,1714,484,7.40921,11.0978
497,540,4.49695,-7.83932,0,0,0,0,0,0,0,-1,1721,484,4.49699,7.83932
504,540,5.52747,-4.4433,0,0,0,0,0,0,0,-1,1728,484,5.5275,4.44329
511,540,5.82471,-6.83521,0,0,0,0,0,0,0,-1,1735,484,5.82465,6.83522
518,540,8.3833,-8.52429,0,0,0,0,0,0,0,-1,1742,484,8.38336,8.5243
525,540,5.83813,-7.04257,0,0,0,0,0,0,0,-1,1749,484,5.83816,7.04257
532,540,2.84265,-1.07925,0,0,0,0,0,0,0,-1,1756,484,2.84269,1.07927
539,540,0,0,0,0,0,0,0,0,0,-1,1763,484,0,0
546,540,0,0,0,0,0,0,0,0,0,-1,1770,484,0,0
553,540,0,0,0,0,0,0,0,0,0,-1,1777,484,0,0
560,540,0,0,0,0,0,0,0,0,0,-1,1784,484,0,0
567,540,0,0,0,0,0,0,0,0,0,-1,1791,484,0,0
574,540,0,0,0,0,0,0,0,0,0,-1,1798,484,0,0
581,540,0,0,0,0,0,0,0,0,0,-1,1805,484,0,0
588,540,0,0,0,0,0,0,0,0,0,-1,1812,484,0,0
595,540,0,0,0,0,0,0,0,0,0,-1,1819,484,0,0
602,540,0,0,0,0,0,0,0,0,0,-1,1826,484,0,0
609,540,0,0,0,0,0,0,0,0,0,-1,1833,484,0,0
616,540,0,0,0,0,0,0,0,0,0,-1,1840,484,0,0
623,540,0,0,0,0,0,0,0,0,0,-1,1847,484,0,0
630,540,0,0,0,0,0,0,0,0,0,-1,1854,484,0,0
637,540,0,0,0,0,0,0,0,0,0,-1,1861,484,0,0
644,540,0,0,0,0,0,0,0,0,0,-1,1868,484,0,0
651,540,0,0,0,0,0,0,0,0,0,-1,1875,484,0,0
658,540,0,0,0,0,0,0,0,0,0,-1,1882,484,0,0
665,540,0,0,0,0,0,0,0,0,0,-1,1889,484,0,0
672,540,0,0,0,0,0,0,0,0,0,-1,1896,484,0,0
679,540,0,0,0,0,0,0,0,0,0,-1,1903,484,0,0
686,540,0,0,0,0,0,0,0,0,0,-1,1910,484,0,0
693,540,0,0,0,0,0,0,0,0,0,-1,1917,484,0,0
700,540,0,0,0,0,0,0,0,0,0,-1,1924,484,0,0
707,540,0,0,0,0,0,0,0,0,0,-1,1931,484,0,0
714,540,0,0,0,0,0,0,0,0,0,-1,1938,484,0,0
721,540,0,0,0,0,0,0,0,0,0,-1,1945,484,0,0
728,540,0,0,0,0,0,0,0,0,0,-1,1952,484,0,0
735,540,0,0,0,0,0,0,0,0,0,-1,1959,484,0,0
742,540,0,0,0,0,0,0,0,0,0,-1,1966,484,0,0
749,540,0,0,0,0,0,0,0,0,0,-1,1973,484,0,0
756,540,0,0,0,0,0,0,0,0,0,-1,1980,484,0,0
763,540,0,0,0,0,0,0,0,0,0,-1,1987,484,0,0
770,540,0,0,0,0,0,0,0,0,0,-1,1994,484,0,0
777,540,0,0,0,0,0,0,0,0,0,-1,2001,484,0,0
784,540,0,0,0,0,0,0,0,0,0,-1,2008,484,0,0
791,540,0,0,0,0,0,0,0,0,0,-1,2015,484,0,0
798,540,0,0,0,0,0,0,0,0,0,-1,2022,484,0,0
805,540,0,0,0,0,0,0,0,0,0,-1,2029,484,0,0
812,540,0,0,0,0,0,0,0,0,0,-1,2036,484,0,0
-700,533,0,0,0,0,0,0,0,0,0,-1,524,491,0,0
-693,533,0,0,0,0,0,0,0,0,0,-1,531,491,0,0
-686,533,0,0,0,0,0,0,0,0,0,-1,538,491,0,0
-679,533,0,0,0,0,0,0,0,0,0,-1,545,491,0,0
-672,533,0,0,0,0,0,0,0,0,0,-1,552,491,0,0
-665,533,0,0,0,0,0,0,0,0,0,-1,559,491,0,0
-658,533,0,0,0,0,0,0,0,0,0,-1,566,491,0,0
-651,533,0,0,0,0,0,0,0,0,0,-1,573,491,0,0
-644,533,0,0,0,0,0,0,0,0,0,-1,580,491,0,0
-637,533,0,0,0,0,0,0,0,0,0,-1,587,491,0,0
-630,533,0,0,0,0,0,0,0,0,0,-1,594,491,0,0
-623,533,0,0,0,0,0,0,0,0,0,-1,601,491,0,0
-616,533,0,0,0,0,0,0,0,0,0,-1,608,491,0,0
-609,533,0,0,0,0,0,0,0,0,0,-1,615,491,0,0
-602,533,0,0,0,0,0,0,0,0,0,-1,622,491,0,0
-595,533,0,0,0,0,0,0,0,0,0,-1,629,491,0,0
-588,533,0,0,0,0,0,0,0,0,0,-1,636,491,0,0
-581,533,0,0,0,0,0,0,0,0,0,-1,643,491,0,0
-574,533,0,0,0,0,0,0,0,0,0,-1,650,491,0,0
-567,533,0,0,0,0,0,0,0,0,0,-1,657,491,0,0
-560,533,0,0,0,0,0,0,0,0,0,-1,664,491,0,0
-553,533,0,0,0,0,0,0,0,0,0,-1,671,491,0,0
-546,533,0,0,0,0,0,0,0,0,0,-1,678,491,0,0
-539,533,0,0,0,0,0,0,0,0,0,-1,685,491,0,0
-532,533,0,0,0,0,0,0,0,0,0,-1,692,491,0,0
-525,533,0,0,0,0,0,0,0,0,0,-1,699,491,0,0
-518,533,0,0,0,0,0,0,0,0,0,-1,706,491,0,0
-511,533,0,0,0,0,0,0,0,0,0,-1,713,491,0,0
-504,533,0,0,0,0,0,0,0,0,0,-1,720,491,0,0
-497,533,0,0,0,0,0,0,0,0,0,-1,727,491,0,0
-490,533,0,0,0,0,0,0,0,0,0,-1,734,491,0,0
-483,533,0,0,0,0,0,0,0,0,0,-1,741,491,0,0
-476,533,0,0,0,0,0,0,0,0,0,-1,748,491,0,0
-469,533,0,0,0,0,0,0,0,0,0,-1,755,491,0,0
-462,533,0,0,0,0,0,0,0,0,0,-1,762,491,0,0
-455,533,0,0,0,0,0,0,0,0,0,-1,769,491,0,0
-448,533,0,0,0,0,0,0,0,0,0,-1,776,491,0,0
-441,533,0,0,0,0,0,0,0,0,0,-1,783,491,0,0
-434,533,0,0,0,0,0,0,0,0,0,-1,790,491,0,0
-427,533,0.559814,-4.40222,0,0,0,0,0,0,0,-1,797,491,0.559816,4.40222
-420,533,0.390503,-5.39261,0,0,0,0,0,0,0,-1,804,491,0.390501,5.3926
-413,533,-0.940735,-10.1455,0,0,0,0,0,0,0,-1,811,491,-0.940757,10.1455
-406,533,-0.00811768,-10.2885,0,0,0,0,0,0,0,-1,818,491,-0.00811193,10.2886
-399,533,0.00512695,-10.4487,0,0,0,0,0,0,0,-1,825,491,0.00510224,10.4487
-392,533,-0.0876465,-10.9253,0,0,0,0,0,0,0,-1,832,491,-0.0876439,10.9253
-385,533,-1.69116,-6.64645,0,0,0,0,0,0,0,-1,839,491,-1.69115,6.64645
-378,533,0.538757,-10.1314,0,0,0,0,0,0,0,-1,846,491,0.538741,10.1314
-371,533,-0.076416,-12.262,0,0,0,0,0,0,0,-1,853,491,-0.0764032,12.262
-364,533,-0.0241089,-12.7295,-0.000185353,0.00407055,-0.00452583,0.00694373,-0.00305853,-1.00515,0.00591824,0.0462288,860,491,-0.0240947,12.7295
-357,533,0.0616455,-12.9341,-0.000703313,0.00373492,-0.00412003,0.00619546,-0.00316385,-1.03243,0.00549727,0.0232761,867,491,0.0616173,12.934
-350,533,0.029541,-13.3413,-0.00106043,0.003423,-0.00365357,0.00546776,-0.00310519,-1.06057,0.00501185,0.0118654,874,491,0.029551,13.3413
-343,533,-0.0166016,-13.7701,-0.00124284,0.00310998,-0.00325163,0.00484635,-0.00297921,-1.08032,0.00456076,0.0110771,881,491,-0.0166049,13.7701
-336,533,-0.0518799,-14.1699,-0.00124832,0.00283626,-0.00287231,0.00431833,-0.00273039,-1.09444,0.00410386,0.0152675,888,491,-0.0518957,14.1699
-329,533,-0.0620728,-14.5401,-0.0011684,0.00251107,-0.0024404,0.00372751,-0.00238484,-1.10838,0.00355723,0.0145638,895,491,-0.0620659,14.5401
-322,533,-0.0864868,-14.8884,-0.00103245,0.0021266,-0.00198915,0.00308708,-0.00199292,-1.12096,0.00295553,0.0120147,902,491,-0.0864745,14.8884
-315,533,-0.104492,-15.2699,-0.00078323,0.0018409,-0.00155618,0.00256433,-0.00150666,-1.13564,0.00237668,0.0130931,909,491,-0.104474,15.2699
-308,533,-0.100403,-15.6156,-0.000421464,0.00152554,-0.00114332,0.00205367,-0.000949586,-1.13807,0.00177255,0.0117335,916,491,-0.100409,15.6156
-301,533,-0.11554,-15.9506,1.81003e-05,0.000971099,-0.000691532,0.0013344,-0.000345203,-1.08707,0.00102425,0.0123339,923,491,-0.115542,15.9506
-294,533,-0.0936279,-16.3029,0.000463634,0.000122946,-0.000147062,0.000518333,6.82473e-05,-0.356089,0.000325202,0.012106,930,491,-0.0936332,16.3029
-287,533,-0.081604,-16.6663,0.000874353,-0.000726615,0.000413646,0.000974911,-0.000827173,0.238477,0.0010416,0.0092247,937,491,-0.0815846,16.6663
-280,533,-0.0780029,-17.0255,0.00105242,-0.00192348,0.000949363,0.00132949,-0.00220055,0.283958,0.00205865,0.00859069,944,491,-0.0780121,17.0255
-273,533,-0.0980225,-17.3598,0.00120609,-0.003651,0.00184259,0.00182598,-0.00427089,0.324529,0.00361314,0.0121922,951,491,-0.098047,17.3598
-266,533,-0.102417,-17.6855,0.00174043,-0.00623598,0.00284206,0.00264948,-0.00714503,0.309571,0.00585004,0.0119353,958,491,-0.102393,17.6855
-259,533,-0.078064,-18.0103,0.00199509,-0.00918073,0.00393007,0.00323874,-0.0104244,0.306474,0.00824403,0.0120208,965,491,-0.0780521,18.0103
-252,533,-0.0686646,-18.291,0.00184461,-0.0127323,0.00529129,0.00356278,-0.0144505,0.313975,0.011015,0.0141078,972,491,-0.0686476,18.291
-245,533,-0.0498657,-18.5977,0.00158303,-0.0171532,0.00704146,0.00393429,-0.0195044,0.322276,0.0144935,0.0187374,979,491,-0.0498587,18.5977
-238,533,-0.0725708,-18.8101,0.00129284,-0.022095,0.00905207,0.00438702,-0.0251892,0.329369,0.01843,0.0221516,986,491,-0.0725524,18.8101
-231,533,0.0518188,-18.9213,0.000987819,-0.027287,0.0111223,0.00483851,-0.0311377,0.333298,0.022545,0.0343407,993,491,0.0518373,18.9213
-224,533,-0.33252,-19.043,0.000314808,-0.0329672,0.0136517,0.00519801,-0.0378504,0.343518,0.0271328,0.0474855,1000,491,-0.332544,19.043
-217,533,-0.0355225,-18.9879,-0.00038444,-0.0385202,0.0161983,0.00556704,-0.0444717,0.352103,0.031667,0.0486324,1007,491,-0.0355155,18.9879
-210,533,0.176819,-19.0281,0,0,0,0,0,0,0,-1,1014,491,0.176838,19.0281
-203,533,-0.0245361,-19.7513,0,0,0,0,0,0,0,-1,1021,491,-0.0245076,19.7513
-196,533,0.688354,-19.5743,0,0,0,0,0,0,0,-1,1028,491,0.688406,19.5743
-189,533,-0.169189,-15.0303,0,0,0,0,0,0,0,-1,1035,491,-0.169241,15.0303
-182,533,1.26123,-11.4969,0,0,0,0,0,0,0,-1,1042,491,1.26128,11.4969
-175,533,0.937744,-7.36966,0,0,0,0,0,0,0,-1,1049,491,0.937769,7.36965
-168,533,2.64807,-2.7543,0,0,0,0,0,0,0,-1,1056,491,2.64812,2.7543
-161,533,1.91833,-1.76553,0,0,0,0,0,0,0,-1,1063,491,1.91836,1.76554
-154,533,0.376709,-11.0633,0,0,0,0,0,0,0,-1,1070,491,0.376715,11.0632
-147,533,0.383789,-12.1586,0,0,0,0,0,0,0,-1,1077,491,0.383829,12.1586
-140,533,1.14001,-15.4608,0,0,0,0,0,0,0,-1,1084,491,1.14005,15.4608
-133,533,0.189941,-16.0795,0,0,0,0,0,0,0,-1,1091,491,0.18994,16.0795
-126,533,2.89612,-2.59003,0,0,0,0,0,0,0,-1,1098,491,2.89608,2.59003
-119,533,3.00842,-12.8239,0,0,0,0,0,0,0,-1,1105,491,3.00841,12.8239
-112,533,7.05884,-10.21,0,0,0,0,0,0,0,-1,1112,491,7.0588,10.21
-105,533,3.84839,1.12769,0,0,0,0,0,0,0,-1,1119,491,3.84843,-1.12769
-98,533,-1.39392,-5.16367,0,0,0,0,0,0,0,-1,1126,491,-1.39394,5.16367
-91,533,0.367432,4.49753,0,0,0,0,0,0,0,-1,1133,491,0.367468,-4.49754
-84,533,-0.88623,3.03604,0,0,0,0,0,0,0,-1,1140,491,-0.886288,-3.03605
-77,533,0,0,0,0,0,0,0,0,0,-1,1147,491,0,0
-70,533,0,0,0,0,0,0,0,0,0,-1,1154,491,0,0
-63,533,0,0,0,0,0,0,0,0,0,-1,1161,491,0,0
-56,533,0,0,0,0,0,0,0,0,0,-1,1168,491,0,0
-49,533,0,0,0,0,0,0,0,0,0,-1,1175,491,0,0
-42,533,0,0,0,0,0,0,0,0,0,-1,1182,491,0,0
-35,533,0,0,0,0,0,0,0,0,0,-1,1189,491,0,0
-28,533,0,0,0,0,0,0,0,0,0,-1,1196,491,0,0
-21,533,0,0,0,0,0,0,0,0,0,-1,1203,491,0,0
-14,533,0,0,0,0,0,0,0,0,0,-1,1210,491,0,0
-7,533,0,0,0,0,0,0,0,0,0,-1,1217,491,0,0
0,533,0,0,0,0,0,0,0,0,0,-1,1224,491,0,0
7,533,0,0,0,0,0,0,0,0,0,-1,1231,491,0,0
14,533,0,0,0,0,0,0,0,0,0,-1,1238,491,0,0
21,533,0,0,0,0,0,0,0,0,0,-1,1245,491,0,0
28,533,0,0,0,0,0,0,0,0,0,-1,1252,491,0,0
35,533,0,0,0,0,0,0,0,0,0,-1,1259,491,0,0
42,533,0,0,0,0,0,0,0,0,0,-1,1266,491,0,0
49,533,0,0,0,0,0,0,0,0,0,-1,1273,491,0,0
56,533,0,0,0,0,0,0,0,0,0,-1,1280,491,0,0
63,533,0,0,0,0,0,0,0,0,0,-1,1287,491,0,0
70,533,0,0,0,0,0,0,0,0,0,-1,1294,491,0,0
77,533,0,0,0,0,0,0,0,0,0,-1,1301,491,0,0
84,533,0,0,0,0,0,0,0,0,0,-1,1308,491,0,0
91,533,0,0,0,0,0,0,0,0,0,-1,1315,491,0,0
98,533,0,0,0,0,0,0,0,0,0,-1,1322,491,0,0
105,533,0,0,0,0,0,0,0,0,0,-1,1329,491,0,0
112,533,0,0,0,0,0,0,0,0,0,-1,1336,491,0,0
119,533,0,0,0,0,0,0,0,0,0,-1,1343,491,0,0
126,533,0,0,0,0,0,0,0,0,0,-1,1350,491,0,0
133,533,0,0,0,0,0,0,0,0,0,-1,1357,491,0,0
140,533,0,0,0,0,0,0,0,0,0,-1,1364,491,0,0
147,533,0,0,0,0,0,0,0,0,0,-1,1371,491,0,0
154,533,0,0,0,0,0,0,0,0,0,-1,1378,491,0,0
161,533,0,0,0,0,0,0,0,0,0,-1,1385,491,0,0
168,533,0,0,0,0,0,0,0,0,0,-1,1392,491,0,0
175,533,0,0,0,0,0,0,0,0,0,-1,1399,491,0,0
182,533,0,0,0,0,0,0,0,0,0,-1,1406,491,0,0
189,533,0,0,0,0,0,0,0,0,0,-1,1413,491,0,0
196,533,0,0,0,0,0,0,0,0,0,-1,1420,491,0,0
203,533,3.7887,1.16193,0,0,0,0,0,0,0,-1,1427,491,3.78872,-1.16193
210,533,5.09558,-0.216034,0,0,0,0,0,0,0,-1,1434,491,5.09559,0.216028
217,533,6.91614,-2.46814,0,0,0,0,0,0,0,-1,1441,491,6.91618,2.46814
224,533,7.23621,-2.1857,0,0,0,0,0,0,0,-1,1448,491,7.23621,2.1857
231,533,7.23474,-1.92282,0,0,0,0,0,0,0,-1,1455,491,7.2347,1.92282
238,533,7.23535,-1.67258,0,0,0,0,0,0,0,-1,1462,491,7.23539,1.67258
245,533,6.86682,-1.2301,0,0,0,0,0,0,0,-1,1469,491,6.86686,1.23011
252,533,6.63354,-3.07825,0,0,0,0,0,0,0,-1,1476,491,6.6335,3.07824
259,533,6.16431,-2.35037,0,0,0,0,0,0,0,-1,1483,491,6.1643,2.35037
266,533,5.68884,-1.6214,0,0,0,0,0,0,0,-1,1490,491,5.68885,1.6214
273,533,5.21399,-0.864227,0,0,0,0,0,0,0,-1,1497,491,5.21403,0.864227
280,533,1.41089,-1.97946,0,0,0,0,0,0,0,-1,1504,491,1.41087,1.97946
287,533,1.6814,-2.44443,0,0,0,0,0,0,0,-1,1511,491,1.6814,2.44444
294,533,2.2384,-2.57626,0,0,0,0,0,0,0,-1,1518,491,2.23839,2.57625
301,533,3.39941,-4.0817,0,0,0,0,0,0,0,-1,1525,491,3.3994,4.08171
308,533,4.13733,-4.14752,0,0,0,0,0,0,0,-1,1532,491,4.13727,4.14752
315,533,4.80762,-5.29349,0,0,0,0,0,0,0,-1,1539,491,4.80762,5.29347
322,533,5.47803,-6.43942,0,0,0,0,0,0,0,-1,1546,491,5.47798,6.43943
329,533,3.88477,-3.86301,0,0,0,0,0,0,0,-1,1553,491,3.88475,3.86299
336,533,6.70923,-13.2003,0,0,0,0,0,0,0,-1,1560,491,6.70926,13.2004
343,533,7.06677,-17.1133,0,0,0,0,0,0,0,-1,1567,491,7.06673,17.1133
350,533,5.62915,-8.02426,0,0,0,0,0,0,0,-1,1574,491,5.6291,8.02426
357,533,7.89648,-18.3564,0,0,0,0,0,0,0,-1,1581,491,7.89644,18.3564
364,533,7.76489,-17.8857,-0.00115003,-0.00337443,-0.00381509,0.00171167,-0.00623613,-0.643566,0.00483015,0.0458247,1588,491,7.76489,17.8857
371,533,7.65601,-17.6224,-0.000316984,-0.00243649,-0.00287946,0.00169155,-0.00444503,-0.609071,0.00365991,0.0383316,1595,491,7.65599,17.6224
378,533,7.66089,-17.2642,-0.000363731,-0.00194921,-0.00258979,0.00155194,-0.00386488,-0.636876,0.00322103,0.0292906,1602,491,7.66095,17.2642
385,533,7.73047,-16.9037,-0.000430244,-0.00176151,-0.00217122,0.00117508,-0.00336684,-0.636661,0.00272215,0.0242327,1609,491,7.73052,16.9037
392,533,7.74036,-16.5796,-0.000496513,-0.00149723,-0.00190757,0.000975225,-0.00296897,-0.657136,0.00237218,0.0136909,1616,491,7.74031,16.5796
399,533,7.73987,-16.2469,-0.000618754,-0.00136899,-0.00177946,0.000824695,-0.00281244,-0.681517,0.00220195,0.0118496,1623,491,7.73989,16.2469
406,533,7.74109,-15.8882,-0.000691846,-0.00115392,-0.00168242,0.000775324,-0.00262109,-0.717162,0.00205518,0.0137912,1630,491,7.74104,15.8882
413,533,7.72937,-15.4809,-0.000529217,-0.000662301,-0.0012455,0.000651516,-0.00184303,-0.758711,0.00149399,0.0126811,1637,491,7.7294,15.4809
420,533,7.72351,-15.1022,-0.000345615,-0.000288171,-0.000768832,0.000452475,-0.00108626,-0.804069,0.000913164,0.0120233,1644,491,7.72352,15.1022
427,533,7.75513,-14.7166,-0.00012724,8.56729e-05,-0.000322929,0.00031924,-0.000360807,-0.944618,0.00039287,0.0123913,1651,491,7.75511,14.7167
434,533,7.73572,-14.3579,0.000174145,0.00030696,0.0001746,0.000427355,5.37498e-05,0.967121,0.000268784,0.0117567,1658,491,7.73569,14.358
441,533,7.73657,-13.9808,0.000587424,0.000363449,0.000710178,0.00119439,-0.000243517,0.707197,0.000888625,0.0145289,1665,491,7.7366,13.9808
448,533,7.71851,-13.6033,0.00103333,0.000208293,0.00120385,0.00189337,-0.000651751,0.620334,0.0015266,0.0165208,1672,491,7.71852,13.6033
455,533,7.71338,-13.2025,0.00146273,-0.000261033,0.00162762,0.00244259,-0.00124089,0.5419,0.00216405,0.0163759,1679,491,7.71338,13.2024
462,533,7.69043,-12.7929,0.00182973,-0.0011082,0.00201309,0.00285283,-0.0021313,0.470206,0.00288763,0.0145553,1686,491,7.69046,12.7929
469,533,7.67639,-12.4093,0.00203066,-0.00218967,0.00240923,0.00312318,-0.0032822,0.425738,0.00369852,0.0092656,1693,491,7.67638,12.4093
476,533,7.68213,-11.9832,0.00202611,-0.00360745,0.00265671,0.00308133,-0.00466267,0.378081,0.00450196,0.0109037,1700,491,7.68217,11.9832
483,533,7.70435,-11.5498,0.00176266,-0.00545429,0.00279631,0.00271932,-0.00641095,0.329633,0.00541308,0.0187653,1707,491,7.70432,11.5498
490,533,7.7428,-11.2929,0.00124598,-0.00790076,0.00301909,0.00215263,-0.00880741,0.291737,0.00670533,0.0447822,1714,491,7.74277,11.2929
497,533,7.82715,-11.0188,0,0,0,0,0,0,0,-1,1721,491,7.8272,11.0188
504,533,7.95972,-10.3275,0,0,0,0,0,0,0,-1,1728,491,7.9597,10.3276
511,533,8.22668,-10.0742,0,0,0,0,0,0,0,-1,1735,491,8.22667,10.0742
518,533,8.23816,-9.48605,0,0,0,0,0,0,0,-1,1742,491,8.23814,9.48607
525,533,8.98108,-8.45325,0,0,0,0,0,0,0,-1,1749,491,8.98106,8.45326
532,533,3.24243,0.0737,0,0,0,0,0,0,0,-1,1756,491,3.24239,-0.0737072
539,533,3.61609,1.62427,0,0,0,0,0,0,0,-1,1763,491,3.61606,-1.62426
546,533,3.59607,1.65799,0,0,0,0,0,0,0,-1,1770,491,3.59605,-1.658
553,533,0,0,0,0,0,0,0,0,0,-1,1777,491,0,0
560,533,0,0,0,0,0,0,0,0,0,-1,1784,491,0,0
567,533,0,0,0,0,0,0,0,0,0,-1,1791,491,0,0
574,533,0,0,0,0,0,0,0,0,0,-1,1798,491,0,0
581,533,0,0,0,0,0,0,0,0,0,-1,1805,491,0,0
588,533,0,0,0,0,0,0,0,0,0,-1,1812,491,0,0
595,533,0,0,0,0,0,0,0,0,0,-1,1819,491,0,0
602,533,0,0,0,0,0,0,0,0,0,-1,1826,491,0,0
609,533,0,0,0,0,0,0,0,0,0,-1,1833,491,0,0
616,533,0,0,0,0,0,0,0,0,0,-1,1840,491,0,0
623,533,0,0,0,0,0,0,0,0,0,-1,1847,491,0,0
630,533,0,0,0,0,0,0,0,0,0,-1,1854,491,0,0
637,533,0,0,0,0,0,0,0,0,0,-1,1861,491,0,0
644,533,0,0,0,0,0,0,0,0,0,-1,1868,491,0,0
651,533,0,0,0,0,0,0,0,0,0,-1,1875,491,0,0
658,533,0,0,0,0,0,0,0,0,0,-1,1882,491,0,0
665,533,0,0,0,0,0,0,0,0,0,-1,1889,491,0,0
672,533,0,0,0,0,0,0,0,0,0,-1,1896,491,0,0
679,533,0,0,0,0,0,0,0,0,0,-1,1903,491,0,0
686,533,0,0,0,0,0,0,0,0,0,-1,1910,491,0,0
693,533,0,0,0,0,0,0,0,0,0,-1,1917,491,0,0
700,533,0,0,0,0,0,0,0,0,0,-1,1924,491,0,0
707,533,0,0,0,0,0,0,0,0,0,-1,1931,491,0,0
714,533,0,0,0,0,0,0,0,0,0,-1,1938,491,0,0
721,533,0,0,0,0,0,0,0,0,0,-1,1945,491,0,0
728,533,0,0,0,0,0,0,0,0,0,-1,1952,491,0,0
735,533,0,0,0,0,0,0,0,0,0,-1,1959,491,0,0
742,533,0,0,0,0,0,0,0,0,0,-1,1966,491,0,0
749,533,0,0,0,0,0,0,0,0,0,-1,1973,491,0,0
756,533,0,0,0,0,0,0,0,0,0,-1,1980,491,0,0
763,533,0,0,0,0,0,0,0,0,0,-1,1987,491,0,0
770,533,0,0,0,0,0,0,0,0,0,-1,1994,491,0,0
777,533,0,0,0,0,0,0,0,0,0,-1,2001,491,0,0
784,533,0,0,0,0,0,0,0,0,0,-1,2008,491,0,0
791,533,0,0,0,0,0,0,0,0,0,-1,2015,491,0,0
798,533,0,0,0,0,0,0,0,0,0,-1,2022,491,0,0
805,533,0,0,0,0,0,0,0,0,0,-1,2029,491,0,0
812,533,0,0,0,0,0,0,0,0,0,-1,2036,491,0,0
-700,526,0,0,0,0,0,0,0,0,0,-1,524,498,0,0
-693,526,0,0,0,0,0,0,0,0,0,-1,531,498,0,0
-686,526,0,0,0,0,0,0,0,0,0,-1,538,498,0,0
-679,526,0,0,0,0,0,0,0,0,0,-1,545,498,0,0
-672,526,0,0,0,0,0,0,0,0,0,-1,552,498,0,0
-665,526,0,0,0,0,0,0,0,0,0,-1,559,498,0,0
-658,526,0,0,0,0,0,0,0,0,0,-1,566,498,0,0
-651,526,0,0,0,0,0,0,0,0,0,-1,573,498,0,0
-644,526,0,0,0,0,0,0,0,0,0,-1,580,498,0,0
-637,526,0,0,0,0,0,0,0,0,0,-1,587,498,0,0
-630,526,0,0,0,0,0,0,0,0,0,-1,594,498,0,0
-623,526,0,0,0,0,0,0,0,0,0,-1,601,498,0,0
-616,526,0,0,0,0,0,0,0,0,0,-1,608,498,0,0
-609,526,0,0,0,0,0,0,0,0,0,-1,615,498,0,0
-602,526,0,0,0,0,0,0,0,0,0,-1,622,498,0,0
-595,526,0,0,0,0,0,0,0,0,0,-1,629,498,0,0
-588,526,0,0,0,0,0,0,0,0,0,-1,636,498,0,0
-581,526,0,0,0,0,0,0,0,0,0,-1,643,498,0,0
-574,526,0,0,0,0,0,0,0,0,0,-1,650,498,0,0
-567,526,0,0,0,0,0,0,0,0,0,-1,657,498,0,0
-560,526,0,0,0,0,0,0,0,0,0,-1,664,498,0,0
-553,526,0,0,0,0,0,0,0,0,0,-1,671,498,0,0
-546,526,0,0,0,0,0,0,0,0,0,-1,678,498,0,0
-539,526,0,0,0,0,0,0,0,0,0,-1,685,498,0,0
-532,526,0,0,0,0,0,0,0,0,0,-1,692,498,0,0
-525,526,0,0,0,0,0,0,0,0,0,-1,699,498,0,0
-518,526,0,0,0,0,0,0,0,0,0,-1,706,498,0,0
-511,526,0,0,0,0,0,0,0,0,0,-1,713,498,0,0
-504,526,0,0,0,0,0,0,0,0,0,-1,720,498,0,0
-497,526,0,0,0,0,0,0,0,0,0,-1,727,498,0,0
-490,526,0,0,0,0,0,0,0,0,0,-1,734,498,0,0
-483,526,0,0,0,0,0,0,0,0,0,-1,741,498,0,0
-476,526,0,0,0,0,0,0,0,0,0,-1,748,498,0,0
-469,526,0,0,0,0,0,0,0,0,0,-1,755,498,0,0
-462,526,0,0,0,0,0,0,0,0,0,-1,762,498,0,0
-455,526,0,0,0,0,0,0,0,0,0,-1,769,498,0,0
-448,526,0,0,0,0,0,0,0,0,0,-1,776,498,0,0
-441,526,0,0,0,0,0,0,0,0,0,-1,783,498,0,0
-434,526,-0.153564,-5.96649,0,0,0,0,0,0,0,-1,790,498,-0.153589,5.9665
-427,526,1.23206,-4.59808,0,0,0,0,0,0,0,-1,797,498,1.23208,4.59809
-420,526,0.758484,-5.79626,0,0,0,0,0,0,0,-1,804,498,0.758485,5.79626
-413,526,-0.164368,-10.6656,0,0,0,0,0,0,0,-1,811,498,-0.164348,10.6656
-406,526,-0.261658,-10.5179,0,0,0,0,0,0,0,-1,818,498,-0.261676,10.5179
-399,526,-0.429443,-10.3914,0,0,0,0,0,0,0,-1,825,498,-0.429465,10.3915
-392,526,-0.542542,-10.2509,0,0,0,0,0,0,0,-1,832,498,-0.542545,10.2509
-385,526,-0.72998,-10.4445,0,0,0,0,0,0,0,-1,839,498,-0.729956,10.4445
-378,526,-0.422363,-11.7415,0,0,0,0,0,0,0,-1,846,498,-0.422381,11.7415
-371,526,-0.372009,-12.18,0.000226369,0.00364021,-0.00398353,0.00626712,-0.00240054,-0.987812,0.00516758,0.0381165,853,498,-0.372039,12.18
-364,526,-0.327087,-12.5745,-4.81941e-05,0.00316558,-0.00358181,0.00548444,-0.00236705,-0.996253,0.00465063,0.0190764,860,498,-0.327103,12.5745
-357,526,-0.358276,-12.9588,-0.000334162,0.00279675,-0.00318003,0.00477576,-0.00231317,-1.01412,0.0041743,0.0122112,867,498,-0.358253,12.9588
-350,526,-0.357727,-13.3566,-0.000529425,0.00247749,-0.00276554,0.00412182,-0.00217376,-1.03437,0.0036923,0.0120465,874,498,-0.357732,13.3566
-343,526,-0.381592,-13.7295,-0.000612193,0.00215738,-0.00240045,0.00354384,-0.00199865,-1.04702,0.00324115,0.0162724,881,498,-0.381606,13.7295
-336,526,-0.414246,-14.123,-0.000574692,0.00187068,-0.00205483,0.00303908,-0.00174309,-1.05378,0.00279458,0.0163905,888,498,-0.414225,14.123
-329,526,-0.423523,-14.5079,-0.000449161,0.00158621,-0.00169845,0.00254853,-0.00141148,-1.05531,0.00231752,0.0154098,895,498,-0.423517,14.5079
-322,526,-0.427979,-14.8754,-0.000300722,0.00126906,-0.00131741,0.00201767,-0.00104934,-1.05405,0.00179991,0.0106312,902,498,-0.427948,14.8754
-315,526,-0.448364,-15.2573,-5.37544e-05,0.00105018,-0.000943299,0.00159113,-0.00059471,-1.05011,0.00130497,0.00945113,909,498,-0.44835,15.2573
-308,526,-0.455627,-15.6299,0.000320964,0.000782893,-0.000572654,0.0011694,-6.55482e-05,-0.977082,0.000802346,0.00867622,916,498,-0.455625,15.6299
-301,526,-0.477783,-15.9645,0.000754873,0.000292285,-0.000149947,0.000799225,0.000247932,-0.287589,0.000472383,0.0100177,923,498,-0.477791,15.9645
-294,526,-0.466125,-16.3063,0.00115767,-0.000576253,0.000382391,0.00123825,-0.000656839,0.207702,0.00111116,0.0101818,930,498,-0.466138,16.3063
-287,526,-0.457581,-16.6508,0.00155574,-0.00142412,0.000920445,0.00181713,-0.00168551,0.276694,0.00202273,0.00997958,937,498,-0.457562,16.6507
-280,526,-0.470337,-16.9871,0.0017046,-0.00276599,0.00148978,0.00215556,-0.00321695,0.293937,0.00312194,0.0121892,944,498,-0.470336,16.9871
-273,526,-0.460205,-17.3344,0.0018416,-0.00475826,0.0025095,0.00268741,-0.00560406,0.325084,0.00488481,0.0107767,951,498,-0.460221,17.3344
-266,526,-0.463684,-17.6685,0.00243699,-0.00779508,0.00367085,0.0036177,-0.00897579,0.311193,0.007487,0.0107225,958,498,-0.463689,17.6685
-259,526,-0.428711,-17.9706,0.00267434,-0.0114092,0.00499846,0.00426803,-0.0130029,0.308647,0.0103878,0.0181942,965,498,-0.428691,17.9706
-252,526,-0.413391,-18.1503,0.00241624,-0.0158966,0.00672457,0.00462028,-0.0181006,0.316725,0.0138662,0.0318383,972,498,-0.413395,18.1503
-245,526,-0.442627,-18.2236,0.00203917,-0.0216241,0.00901571,0.00508271,-0.0246676,0.325569,0.0183752,0.0389704,979,498,-0.442648,18.2236
-238,526,-0.363892,-18.5153,0,0,0,0,0,0,0,-1,986,498,-0.363898,18.5152
-231,526,-0.0802002,-18.4882,0,0,0,0,0,0,0,-1,993,498,-0.0801777,18.4882
-224,526,-0.848145,-18.5947,0,0,0,0,0,0,0,-1,1000,498,-0.848142,18.5947
-217,526,-0.261597,-18.6132,0,0,0,0,0,0,0,-1,1007,498,-0.261569,18.6132
-210,526,-1.29028,-19.0991,0,0,0,0,0,0,0,-1,1014,498,-1.29031,19.0991
-203,526,-0.659302,-18.8818,0,0,0,0,0,0,0,-1,1021,498,-0.659273,18.8818
-196,526,-0.328247,-12.179,0,0,0,0,0,0,0,-1,1028,498,-0.328238,12.179
-189,526,0.401245,-5.96826,0,0,0,0,0,0,0,-1,1035,498,0.401197,5.96826
-182,526,1.7323,-2.99405,0,0,0,0,0,0,0,-1,1042,498,1.73226,2.99404
-175,526,2.27637,-2.07983,0,0,0,0,0,0,0,-1,1049,498,2.27639,2.07984
-168,526,2.12036,-1.66049,0,0,0,0,0,0,0,-1,1056,498,2.12035,1.66048
-161,526,2.09082,-1.20572,0,0,0,0,0,0,0,-1,1063,498,2.09086,1.2057
-154,526,-1.3446,-5.37799,0,0,0,0,0,0,0,-1,1070,498,-1.34457,5.37799
-147,526,-0.472656,-6.64996,0,0,0,0,0,0,0,-1,1077,498,-0.472659,6.64997
-140,526,0.422852,-8.03339,0,0,0,0,0,0,0,-1,1084,498,0.422844,8.0334
-133,526,1.09583,-9.2215,0,0,0,0,0,0,0,-1,1091,498,1.09581,9.2215
-126,526,3.42529,-2.36053,0,0,0,0,0,0,0,-1,1098,498,3.42523,2.36052
-119,526,2.7771,-0.764099,0,0,0,0,0,0,0,-1,1105,498,2.7771,0.764107
-112,526,2.57715,-1.1893,0,0,0,0,0,0,0,-1,1112,498,2.57718,1.1893
-105,526,0,0,0,0,0,0,0,0,0,-1,1119,498,0,0
-98,526,0,0,0,0,0,0,0,0,0,-1,1126,498,0,0
-91,526,0,0,0,0,0,0,0,0,0,-1,1133,498,0,0
-84,526,0,0,0,0,0,0,0,0,0,-1,1140,498,0,0
-77,526,0,0,0,0,0,0,0,0,0,-1,1147,498,0,0
-70,526,0,0,0,0,0,0,0,0,0,-1,1154,498,0,0
-63,526,0,0,0,0,0,0,0,0,0,-1,1161,498,0,0
-56,526,0,0,0,0,0,0,0,0,0,-1,1168,498,0,0
-49,526,0,0,0,0,0,0,0,0,0,-1,1175,498,0,0
-42,526,0,0,0,0,0,0,0,0,0,-1,1182,498,0,0
-35,526,0,0,0,0,0,0,0,0,0,-1,1189,498,0,0
-28,526,0,0,0,0,0,0,0,0,0,-1,1196,498,0,0
-21,526,0,0,0,0,0,0,0,0,0,-1,1203,498,0,0
-14,526,0,0,0,0,0,0,0,0,0,-1,1210,498,0,0
-7,526,0,0,0,0,0,0,0,0,0,-1,1217,498,0,0
0,526,0,0,0,0,0,0,0,0,0,-1,1224,498,0,0
7,526,0,0,0,0,0,0,0,0,0,-1,1231,498,0,0
14,526,0,0,0,0,0,0,0,0,0,-1,1238,498,0,0
21,526,0,0,0,0,0,0,0,0,0,-1,1245,498,0,0
28,526,0,0,0,0,0,0,0,0,0,-1,1252,498,0,0
35,526,0,0,0,0,0,0,0,0,0,-1,1259,498,0,0
42,526,0,0,0,0,0,0,0,0,0,-1,1266,498,0,0
49,526,0,0,0,0,0,0,0,0,0,-1,1273,498,0,0
56,526,0,0,0,0,0,0,0,0,0,-1,1280,498,0,0
63,526,0,0,0,0,0,0,0,0,0,-1,1287,498,0,0
70,526,0,0,0,0,0,0,0,0,0,-1,1294,498,0,0
77,526,0,0,0,0,0,0,0,0,0,-1,1301,498,0,0
84,526,0,0,0,0,0,0,0,0,0,-1,1308,498,0,0
91,526,0,0,0,0,0,0,0,0,0,-1,1315,498,0,0
98,526,0,0,0,0,0,0,0,0,0,-1,1322,498,0,0
105,526,0,0,0,0,0,0,0,0,0,-1,1329,498,0,0
112,526,0,0,0,0,0,0,0,0,0,-1,1336,498,0,0
119,526,0,0,0,0,0,0,0,0,0,-1,1343,498,0,0
126,526,0,0,0,0,0,0,0,0,0,-1,1350,498,0,0
133,526,0,0,0,0,0,0,0,0,0,-1,1357,498,0,0
140,526,0,0,0,0,0,0,0,0,0,-1,1364,498,0,0
147,526,0,0,0,0,0,0,0,0,0,-1,1371,498,0,0
154,526,0,0,0,0,0,0,0,0,0,-1,1378,498,0,0
161,526,0,0,0,0,0,0,0,0,0,-1,1385,498,0,0
168,526,0,0,0,0,0,0,0,0,0,-1,1392,498,0,0
175,526,0,0,0,0,0,0,0,0,0,-1,1399,498,0,0
182,526,0,0,0,0,0,0,0,0,0,-1,1406,498,0,0
189,526,0,0,0,0,0,0,0,0,0,-1,1413,498,0,0
196,526,0,0,0,0,0,0,0,0,0,-1,1420,498,0,0
203,526,0,0,0,0,0,0,0,0,0,-1,1427,498,0,0
210,526,0,0,0,0,0,0,0,0,0,-1,1434,498,0,0
217,526,0,0,0,0,0,0,0,0,0,-1,1441,498,0,0
224,526,0,0,0,0,0,0,0,0,0,-1,1448,498,0,0
231,526,7.93237,-1.30618,0,0,0,0,0,0,0,-1,1455,498,7.93238,1.30618
238,526,7.97717,-1.08197,0,0,0,0,0,0,0,-1,1462,498,7.97723,1.08196
245,526,7.2793,-0.792938,0,0,0,0,0,0,0,-1,1469,498,7.27931,0.792926
252,526,6.73523,-2.23608,0,0,0,0,0,0,0,-1,1476,498,6.73525,2.23608
259,526,6.22949,-1.84967,0,0,0,0,0,0,0,-1,1483,498,6.22953,1.84968
266,526,5.72375,-1.46329,0,0,0,0,0,0,0,-1,1490,498,5.72381,1.46328
273,526,4.33984,0.49173,0,0,0,0,0,0,0,-1,1497,498,4.33979,-0.491727
280,526,1.4585,-1.59897,0,0,0,0,0,0,0,-1,1504,498,1.45846,1.59895
287,526,1.46411,-2.40134,0,0,0,0,0,0,0,-1,1511,498,1.46406,2.40133
294,526,5.57471,-4.59085,0,0,0,0,0,0,0,-1,1518,498,5.57466,4.59084
301,526,4.42786,-3.99677,0,0,0,0,0,0,0,-1,1525,498,4.42788,3.99676
308,526,5.79529,-4.19366,0,0,0,0,0,0,0,-1,1532,498,5.79528,4.19368
315,526,5.09851,-5.20068,0,0,0,0,0,0,0,-1,1539,498,5.09851,5.20068
322,526,5.50708,-4.72348,0,0,0,0,0,0,0,-1,1546,498,5.50713,4.72347
329,526,3.88672,-4.345,0,0,0,0,0,0,0,-1,1553,498,3.88674,4.34501
336,526,4.97876,-2.23828,0,0,0,0,0,0,0,-1,1560,498,4.97877,2.23828
343,526,3.31665,-2.69696,0,0,0,0,0,0,0,-1,1567,498,3.31667,2.69696
350,526,6.06287,-6.12015,0,0,0,0,0,0,0,-1,1574,498,6.06286,6.12014
357,526,5.79736,-7.7854,0,0,0,0,0,0,0,-1,1581,498,5.79734,7.78539
364,526,8.15112,-18.1539,0,0,0,0,0,0,0,-1,1588,498,8.15117,18.1539
371,526,8.02502,-18.0195,0,0,0,0,0,0,0,-1,1595,498,8.02504,18.0195
378,526,7.89233,-17.602,0,0,0,0,0,0,0,-1,1602,498,7.89238,17.602
385,526,8.04016,-17.0387,0,0,0,0,0,0,0,-1,1609,498,8.04022,17.0387
392,526,8.12085,-16.6078,0,0,0,0,0,0,0,-1,1616,498,8.12088,16.6078
399,526,8.10144,-16.2537,-0.00171731,-0.00236123,-0.00301584,0.000993704,-0.00507225,-0.732221,0.0037568,0.0228973,1623,498,8.10141,16.2537
406,526,8.11279,-15.8619,-0.00178087,-0.00234044,-0.00307695,0.00102899,-0.0051503,-0.740058,0.00382297,0.01155,1630,498,8.11281,15.8619
413,526,8.10413,-15.4849,-0.00151379,-0.00192475,-0.00263345,0.000922186,-0.00436073,-0.746464,0.00325834,0.0123039,1637,498,8.10414,15.4849
420,526,8.10205,-15.1131,-0.00130523,-0.00162899,-0.00208687,0.000626033,-0.00356025,-0.746691,0.00260735,0.0127782,1644,498,8.10208,15.1131
427,526,8.11682,-14.7167,-0.00107898,-0.00118438,-0.00161682,0.000485997,-0.00274936,-0.769107,0.00201454,0.0127314,1651,498,8.1168,14.7166
434,526,8.11169,-14.3256,-0.000753434,-0.00071946,-0.00106932,0.000333012,-0.00180591,-0.793341,0.00132892,0.0115479,1658,498,8.11174,14.3256
441,526,8.09558,-13.9508,-0.000328368,-0.000455262,-0.000463951,7.64547e-05,-0.000860084,-0.717443,0.000600499,0.0108903,1665,498,8.09554,13.9508
448,526,8.09094,-13.591,0.000152414,-0.000348728,0.000119089,0.000179274,-0.000375588,0.221834,0.000326965,0.0108612,1672,498,8.09097,13.591
455,526,8.08203,-13.2162,0.00062554,-0.000474886,0.000643869,0.000922264,-0.00077161,0.431836,0.000979247,0.014317,1679,498,8.08199,13.2162
462,526,8.07178,-12.7997,0.00103798,-0.000894933,0.00113119,0.00155935,-0.0014163,0.431885,0.00171865,0.0103743,1686,498,8.07178,12.7998
469,526,8.07397,-12.3982,0.00129088,-0.00150159,0.00161923,0.00203273,-0.00224343,0.429607,0.00246984,0.00762851,1693,498,8.07393,12.3982
476,526,8.07275,-11.9768,0.0013444,-0.00236963,0.00197325,0.00219704,-0.00322227,0.407868,0.00314745,0.00953605,1700,498,8.07279,11.9768
483,526,8.06995,-11.5241,0.00118631,-0.00354764,0.00222962,0.00207107,-0.0044324,0.377762,0.00383639,0.0119947,1707,498,8.06996,11.5241
490,526,8.12317,-11.0524,0.000767271,-0.00519143,0.0025112,0.00168441,-0.00610857,0.350169,0.0047348,0.0233732,1714,498,8.12318,11.0524
497,526,8.01575,-10.7966,0.000112048,-0.00690909,0.00282399,0.00110692,-0.00790396,0.338717,0.00567439,0.0286613,1721,498,8.01577,10.7966
504,526,8.07703,-10.4182,-0.000843731,-0.00870357,0.00316093,0.000269738,-0.00981704,0.338686,0.00663643,0.0314533,1728,498,8.07705,10.4182
511,526,8.25989,-10.0183,-0.00210739,-0.0106738,0.00353987,-0.000833931,-0.0119473,0.345332,0.00770193,0.0410009,1735,498,8.2599,10.0183
518,526,8.23682,-9.49969,-0.00346437,-0.0122847,0.00461211,-0.00149322,-0.0142559,0.403888,0.00904733,0.0446752,1742,498,8.23687,9.49971
525,526,8.17615,-9.09625,0,0,0,0,0,0,0,-1,1749,498,8.17609,9.09625
532,526,3.54285,-2.81274,0,0,0,0,0,0,0,-1,1756,498,3.54284,2.81273
539,526,3.29407,0.932312,0,0,0,0,0,0,0,-1,1763,498,3.2941,-0.93232
546,526,3.36731,1.07721,0,0,0,0,0,0,0,-1,1770,498,3.36735,-1.07719
553,526,3.40796,1.37137,0,0,0,0,0,0,0,-1,1777,498,3.40792,-1.37138
560,526,0,0,0,0,0,0,0,0,0,-1,1784,498,0,0
567,526,0,0,0,0,0,0,0,0,0,-1,1791,498,0,0
574,526,0,0,0,0,0,0,0,0,0,-1,1798,498,0,0
581,526,0,0,0,0,0,0,0,0,0,-1,1805,498,0,0
588,526,0,0,0,0,0,0,0,0,0,-1,1812,498,0,0
595,526,0,0,0,0,0,0,0,0,0,-1,1819,498,0,0
602,526,0,0,0,0,0,0,0,0,0,-1,1826,498,0,0
609,526,0,0,0,0,0,0,0,0,0,-1,1833,498,0,0
616,526,0,0,0,0,0,0,0,0,0,-1,1840,498,0,0
623,526,0,0,0,0,0,0,0,0,0,-1,1847,498,0,0
630,526,0,0,0,0,0,0,0,0,0,-1,1854,498,0,0
637,526,0,0,0,0,0,0,0,0,0,-1,1861,498,0,0
644,526,0,0,0,0,0,0,0,0,0,-1,1868,498,0,0
651,526,0,0,0,0,0,0,0,0,0,-1,1875,498,0,0
658,526,0,0,0,0,0,0,0,0,0,-1,1882,498,0,0
665,526,0,0,0,0,0,0,0,0,0,-1,1889,498,0,0
672,526,0,0,0,0,0,0,0,0,0,-1,1896,498,0,0
679,526,0,0,0,0,0,0,0,0,0,-1,1903,498,0,0
686,526,0,0,0,0,0,0,0,0,0,-1,1910,498,0,0
693,526,0,0,0,0,0,0,0,0,0,-1,1917,498,0,0
700,526,0,0,0,0,0,0,0,0,0,-1,1924,498,0,0
707,526,0,0,0,0,0,0,0,0,0,-1,1931,498,0,0
714,526,0,0,0,0,0,0,0,0,0,-1,1938,498,0,0
721,526,0,0,0,0,0,0,0,0,0,-1,1945,498,0,0
728,526,0,0,0,0,0,0,0,0,0,-1,1952,498,0,0
735,526,0,0,0,0,0,0,0,0,0,-1,1959,498,0,0
742,526,0,0,0,0,0,0,0,0,0,-1,1966,498,0,0
749,526,0,0,0,0,0,0,0,0,0,-1,1973,498,0,0
756,526,0,0,0,0,0,0,0,0,0,-1,1980,498,0,0
763,526,0,0,0,0,0,0,0,0,0,-1,1987,498,0,0
770,526,0,0,0,0,0,0,0,0,0,-1,1994,498,0,0
777,526,0,0,0,0,0,0,0,0,0,-1,2001,498,0,0
784,526,0,0,0,0,0,0,0,0,0,-1,2008,498,0,0
791,526,0,0,0,0,0,0,0,0,0,-1,2015,498,0,0
798,526,0,0,0,0,0,0,0,0,0,-1,2022,498,0,0
805,526,0,0,0,0,0,0,0,0,0,-1,2029,498,0,0
812,526,0,0,0,0,0,0,0,0,0,-1,2036,498,0,0
-700,519,0,0,0,0,0,0,0,0,0,-1,524,505,0,0
-693,519,0,0,0,0,0,0,0,0,0,-1,531,505,0,0
-686,519,0,0,0,0,0,0,0,0,0,-1,538,505,0,0
-679,519,0,0,0,0,0,0,0,0,0,-1,545,505,0,0
-672,519,0,0,0,0,0,0,0,0,0,-1,552,505,0,0
-665,519,0,0,0,0,0,0,0,0,0,-1,559,505,0,0
-658,519,0,0,0,0,0,0,0,0,0,-1,566,505,0,0
-651,519,0,0,0,0,0,0,0,0,0,-1,573,505,0,0
-644,519,0,0,0,0,0,0,0,0,0,-1,580,505,0,0
-637,519,0,0,0,0,0,0,0,0,0,-1,587,505,0,0
-630,519,0,0,0,0,0,0,0,0,0,-1,594,505,0,0
-623,519,0,0,0,0,0,0,0,0,0,-1,601,505,0,0
-616,519,0,0,0,0,0,0,0,0,0,-1,608,505,0,0
-609,519,0,0,0,0,0,0,0,0,0,-1,615,505,0,0
-602,519,0,0,0,0,0,0,0,0,0,-1,622,505,0,0
-595,519,0,0,0,0,0,0,0,0,0,-1,629,505,0,0
-588,519,0,0,0,0,0,0,0,0,0,-1,636,505,0,0
-581,519,0,0,0,0,0,0,0,0,0,-1,643,505,0,0
-574,519,0,0,0,0,0,0,0,0,0,-1,650,505,0,0
-567,519,0,0,0,0,0,0,0,0,0,-1,657,505,0,0
-560,519,0,0,0,0,0,0,0,0,0,-1,664,505,0,0
-553,519,0,0,0,0,0,0,0,0,0,-1,671,505,0,0
-546,519,0,0,0,0,0,0,0,0,0,-1,678,505,0,0
-539,519,0,0,0,0,0,0,0,0,0,-1,685,505,0,0
-532,519,0,0,0,0,0,0,0,0,0,-1,692,505,0,0
-525,519,0,0,0,0,0,0,0,0,0,-1,699,505,0,0
-518,519,0,0,0,0,0,0,0,0,0,-1,706,505,0,0
-511,519,0,0,0,0,0,0,0,0,0,-1,713,505,0,0
-504,519,0,0,0,0,0,0,0,0,0,-1,720,505,0,0
-497,519,0,0,0,0,0,0,0,0,0,-1,727,505,0,0
-490,519,0,0,0,0,0,0,0,0,0,-1,734,505,0,0
-483,519,0,0,0,0,0,0,0,0,0,-1,741,505,0,0
-476,519,0,0,0,0,0,0,0,0,0,-1,748,505,0,0
-469,519,0,0,0,0,0,0,0,0,0,-1,755,505,0,0
-462,519,0,0,0,0,0,0,0,0,0,-1,762,505,0,0
-455,519,0,0,0,0,0,0,0,0,0,-1,769,505,0,0
-448,519,0,0,0,0,0,0,0,0,0,-1,776,505,0,0
-441,519,1.34839,-5.29346,0,0,0,0,0,0,0,-1,783,505,1.3484,5.29347
-434,519,0.949585,-5.77313,0,0,0,0,0,0,0,-1,790,505,0.949598,5.77315
-427,519,0.138489,-5.67401,0,0,0,0,0,0,0,-1,797,505,0.138516,5.67402
-420,519,0.713989,-6.8869,0,0,0,0,0,0,0,-1,804,505,0.713969,6.88691
-413,519,-1.02808,-10.7485,0,0,0,0,0,0,0,-1,811,505,-1.02808,10.7484
-406,519,-0.401123,-9.77826,0,0,0,0,0,0,0,-1,818,505,-0.401131,9.77827
-399,519,-0.322815,-10.1387,0,0,0,0,0,0,0,-1,825,505,-0.32283,10.1387
-392,519,-0.367004,-10.7482,0,0,0,0,0,0,0,-1,832,505,-0.366993,10.7482
-385,519,-0.643982,-11.2123,0,0,0,0,0,0,0,-1,839,505,-0.643967,11.2123
-378,519,-0.80011,-11.611,0.000126032,0.00359589,-0.00365025,0.00590253,-0.00218061,-1.00724,0.0048289,0.0343847,846,505,-0.800121,11.611
-371,519,-0.719116,-12.0601,0.000207044,0.00294589,-0.00317624,0.00503534,-0.0018824,-0.988931,0.00412993,0.0180891,853,505,-0.719107,12.0601
-364,519,-0.713745,-12.5237,0.000153011,0.00240681,-0.00271065,0.00421548,-0.00165565,-0.982395,0.00349544,0.0108656,860,505,-0.713773,12.5237
-357,519,-0.707275,-12.971,6.93327e-05,0.00201763,-0.00229914,0.00354048,-0.00145352,-0.985784,0.00296602,0.010058,867,505,-0.70728,12.971
-350,519,-0.729675,-13.3527,1.24448e-05,0.00169274,-0.00191663,0.00294527,-0.00124009,-0.991959,0.00248237,0.0124441,874,505,-0.729664,13.3527
-343,519,-0.773132,-13.6987,1.0334e-05,0.00136847,-0.00157529,0.00240483,-0.00102602,-0.9889,0.00203342,0.0161906,881,505,-0.773113,13.6987
-336,519,-0.812439,-14.0794,9.76814e-05,0.00109125,-0.00126598,0.00195443,-0.000765495,-0.972372,0.00161959,0.0159128,888,505,-0.812457,14.0794
-329,519,-0.798706,-14.4674,0.000270543,0.000840637,-0.00099539,0.00159099,-0.00047981,-0.92485,0.00125164,0.012893,895,505,-0.798682,14.4674
-322,519,-0.783264,-14.8512,0.000428729,0.000582049,-0.000713967,0.00122346,-0.000212682,-0.838879,0.000894997,0.0107438,902,505,-0.783268,14.8512
-315,519,-0.791992,-15.2363,0.00066502,0.000413758,-0.000442203,0.000999091,7.9686e-05,-0.646994,0.000641152,0.00922182,909,505,-0.79199,15.2363
-308,519,-0.81311,-15.6288,0.00103748,0.000179811,-0.000166358,0.00106862,0.000148673,-0.18503,0.000668388,0.00812966,916,505,-0.813123,15.6289
-301,519,-0.836609,-15.9705,0.00144249,-0.000249187,0.000178286,0.00146108,-0.000267772,0.10387,0.00107449,0.0125828,923,505,-0.836631,15.9705
-294,519,-0.832397,-16.2741,0.00176315,-0.00113958,0.000658818,0.00190568,-0.00128211,0.213059,0.00185217,0.0155111,930,505,-0.832377,16.2741
-287,519,-0.836731,-16.6453,0.00210419,-0.00198617,0.00114021,0.00240056,-0.00228254,0.254295,0.00270407,0.0112723,937,505,-0.836747,16.6453
-280,519,-0.840332,-16.9916,0.00221276,-0.0035093,0.0017398,0.00270023,-0.00399676,0.273178,0.00389059,0.0161585,944,505,-0.840319,16.9916
-273,519,-0.804199,-17.3461,0.00233478,-0.00583427,0.00292738,0.00327548,-0.00677497,0.310923,0.00591872,0.0263914,951,505,-0.80417,17.3461
-266,519,-0.861206,-17.7006,0.00302775,-0.00953316,0.00442073,0.0044276,-0.010933,0.306665,0.00912971,0.0378227,958,505,-0.861214,17.7006
-259,519,-0.776855,-17.9898,0,0,0,0,0,0,0,-1,965,505,-0.77688,17.9898
-252,519,-0.806458,-17.9894,0,0,0,0,0,0,0,-1,972,505,-0.806468,17.9894
-245,519,-0.770691,-17.7435,0,0,0,0,0,0,0,-1,979,505,-0.770672,17.7434
-238,519,0.523621,-16.4753,0,0,0,0,0,0,0,-1,986,505,0.523651,16.4753
-231,519,0.337585,-11.2798,0,0,0,0,0,0,0,-1,993,505,0.337568,11.2798
-224,519,-0.0494995,-7.97394,0,0,0,0,0,0,0,-1,1000,505,-0.0495123,7.97392
-217,519,-2.97125,-4.84393,0,0,0,0,0,0,0,-1,1007,505,-2.97128,4.84393
-210,519,-2.14398,-4.74774,0,0,0,0,0,0,0,-1,1014,505,-2.14397,4.74775
-203,519,-0.513611,-5.39017,0,0,0,0,0,0,0,-1,1021,505,-0.513585,5.39017
-196,519,-0.374023,-5.41635,0,0,0,0,0,0,0,-1,1028,505,-0.374047,5.41635
-189,519,-0.234497,-5.44254,0,0,0,0,0,0,0,-1,1035,505,-0.234508,5.44253
-182,519,2.76697,-1.19659,0,0,0,0,0,0,0,-1,1042,505,2.76696,1.19661
-175,519,2.31323,-0.960938,0,0,0,0,0,0,0,-1,1049,505,2.31319,0.960941
-168,519,2.01074,-0.721405,0,0,0,0,0,0,0,-1,1056,505,2.01072,0.721407
-161,519,2.32056,-0.522339,0,0,0,0,0,0,0,-1,1063,505,2.32057,0.522328
-154,519,2.55566,0.116669,0,0,0,0,0,0,0,-1,1070,505,2.55563,-0.116661
-147,519,-0.55127,-6.14001,0,0,0,0,0,0,0,-1,1077,505,-0.551252,6.14001
-140,519,0.240601,-7.53503,0,0,0,0,0,0,0,-1,1084,505,0.240653,7.53501
-133,519,2.70911,-4.4516,0,0,0,0,0,0,0,-1,1091,505,2.70915,4.45161
-126,519,0,0,0,0,0,0,0,0,0,-1,1098,505,0,0
-119,519,0,0,0,0,0,0,0,0,0,-1,1105,505,0,0
-112,519,0,0,0,0,0,0,0,0,0,-1,1112,505,0,0
-105,519,0,0,0,0,0,0,0,0,0,-1,1119,505,0,0
-98,519,0,0,0,0,0,0,0,0,0,-1,1126,505,0,0
-91,519,0,0,0,0,0,0,0,0,0,-1,1133,505,0,0
-84,519,0,0,0,0,0,0,0,0,0,-1,1140,505,0,0
-77,519,0,0,0,0,0,0,0,0,0,-1,1147,505,0,0
-70,519,0,0,0,0,0,0,0,0,0,-1,1154,505,0,0
-63,519,0,0,0,0,0,0,0,0,0,-1,1161,505,0,0
-56,519,0,0,0,0,0,0,0,0,0,-1,1168,505,0,0
-49,519,0,0,0,0,0,0,0,0,0,-1,1175,505,0,0
-42,519,0,0,0,0,0,0,0,0,0,-1,1182,505,0,0
-35,519,0,0,0,0,0,0,0,0,0,-1,1189,505,0,0
-28,519,0,0,0,0,0,0,0,0,0,-1,1196,505,0,0
-21,519,0,0,0,0,0,0,0,0,0,-1,1203,505,0,0
-14,519,0,0,0,0,0,0,0,0,0,-1,1210,505,0,0
-7,519,0,0,0,0,0,0,0,0,0,-1,1217,505,0,0
0,519,0,0,0,0,0,0,0,0,0,-1,1224,505,0,0
7,519,0,0,0,0,0,0,0,0,0,-1,1231,505,0,0
14,519,0,0,0,0,0,0,0,0,0,-1,1238,505,0,0
21,519,0,0,0,0,0,0,0,0,0,-1,1245,505,0,0
28,519,0,0,0,0,0,0,0,0,0,-1,1252,505,0,0
35,519,0,0,0,0,0,0,0,0,0,-1,1259,505,0,0
42,519,0,0,0,0,0,0,0,0,0,-1,1266,505,0,0
49,519,0,0,0,0,0,0,0,0,0,-1,1273,505,0,0
56,519,0,0,0,0,0,0,0,0,0,-1,1280,505,0,0
63,519,0,0,0,0,0,0,0,0,0,-1,1287,505,0,0
70,519,0,0,0,0,0,0,0,0,0,-1,1294,505,0,0
77,519,0,0,0,0,0,0,0,0,0,-1,1301,505,0,0
84,519,0,0,0,0,0,0,0,0,0,-1,1308,505,0,0
91,519,0,0,0,0,0,0,0,0,0,-1,1315,505,0,0
98,519,0,0,0,0,0,0,0,0,0,-1,1322,505,0,0
105,519,0,0,0,0,0,0,0,0,0,-1,1329,505,0,0
112,519,0,0,0,0,0,0,0,0,0,-1,1336,505,0,0
119,519,0,0,0,0,0,0,0,0,0,-1,1343,505,0,0
126,519,0,0,0,0,0,0,0,0,0,-1,1350,505,0,0
133,519,0,0,0,0,0,0,0,0,0,-1,1357,505,0,0
140,519,0,0,0,0,0,0,0,0,0,-1,1364,505,0,0
147,519,0,0,0,0,0,0,0,0,0,-1,1371,505,0,0
154,519,0,0,0,0,0,0,0,0,0,-1,1378,505,0,0
161,519,0,0,0,0,0,0,0,0,0,-1,1385,505,0,0
168,519,0,0,0,0,0,0,0,0,0,-1,1392,505,0,0
175,519,0,0,0,0,0,0,0,0,0,-1,1399,505,0,0
182,519,0,0,0,0,0,0,0,0,0,-1,1406,505,0,0
189,519,0,0,0,0,0,0,0,0,0,-1,1413,505,0,0
196,519,0,0,0,0,0,0,0,0,0,-1,1420,505,0,0
203,519,0,0,0,0,0,0,0,0,0,-1,1427,505,0,0
210,519,0,0,0,0,0,0,0,0,0,-1,1434,505,0,0
217,519,0,0,0,0,0,0,0,0,0,-1,1441,505,0,0
224,519,0,0,0,0,0,0,0,0,0,-1,1448,505,0,0
231,519,0,0,0,0,0,0,0,0,0,-1,1455,505,0,0
238,519,0,0,0,0,0,0,0,0,0,-1,1462,505,0,0
245,519,0,0,0,0,0,0,0,0,0,-1,1469,505,0,0
252,519,5.26208,0.0938416,0,0,0,0,0,0,0,-1,1476,505,5.26207,-0.0938493
259,519,6.14246,-1.36441,0,0,0,0,0,0,0,-1,1483,505,6.14241,1.36441
266,519,5.31909,-0.400787,0,0,0,0,0,0,0,-1,1490,505,5.31912,0.400773
273,519,4.02393,0.325531,0,0,0,0,0,0,0,-1,1497,505,4.0239,-0.325522
280,519,4.68848,0.53006,0,0,0,0,0,0,0,-1,1504,505,4.68842,-0.530073
287,519,7.9519,-3.80801,0,0,0,0,0,0,0,-1,1511,505,7.95193,3.808
294,519,6.92273,-3.38889,0,0,0,0,0,0,0,-1,1518,505,6.92268,3.38888
301,519,5.35669,-2.92661,0,0,0,0,0,0,0,-1,1525,505,5.35675,2.9266
308,519,7.37549,-5.64529,0,0,0,0,0,0,0,-1,1532,505,7.3755,5.64529
315,519,6.30029,-4.53754,0,0,0,0,0,0,0,-1,1539,505,6.30024,4.53753
322,519,5.84302,-5.45117,0,0,0,0,0,0,0,-1,1546,505,5.84303,5.45116
329,519,4.92407,0.62384,0,0,0,0,0,0,0,-1,1553,505,4.92403,-0.623832
336,519,3.10095,-0.329285,0,0,0,0,0,0,0,-1,1560,505,3.1009,0.329283
343,519,2.49146,-2.31119,0,0,0,0,0,0,0,-1,1567,505,2.49145,2.31119
350,519,3.47729,-2.22516,0,0,0,0,0,0,0,-1,1574,505,3.47726,2.22515
357,519,4.51917,-4.51691,0,0,0,0,0,0,0,-1,1581,505,4.51914,4.51691
364,519,3.54626,-7.20673,0,0,0,0,0,0,0,-1,1588,505,3.54622,7.20675
371,519,5.349,-8.20068,0,0,0,0,0,0,0,-1,1595,505,5.34898,8.20068
378,519,6.36597,-10.0967,0,0,0,0,0,0,0,-1,1602,505,6.36597,10.0967
385,519,6.24756,-9.72186,0,0,0,0,0,0,0,-1,1609,505,6.24752,9.72183
392,519,8.09106,-16.0579,0,0,0,0,0,0,0,-1,1616,505,8.09107,16.0579
399,519,8.39026,-16.3033,0,0,0,0,0,0,0,-1,1623,505,8.39021,16.3034
406,519,8.4447,-15.8737,-0.0035754,-0.00401624,-0.00504971,0.0012587,-0.00885033,-0.763587,0.00636143,0.033229,1630,505,8.4447,15.8737
413,519,8.51086,-15.5002,-0.00307795,-0.00356826,-0.00447427,0.00115788,-0.00780409,-0.758029,0.00562853,0.0152919,1637,505,8.51088,15.5002
420,519,8.49744,-15.0969,-0.00270591,-0.00323793,-0.00374534,0.000782859,-0.0067267,-0.749945,0.00476689,0.0152368,1644,505,8.49741,15.0969
427,519,8.51184,-14.7372,-0.00230426,-0.00262894,-0.00311804,0.000655662,-0.00558887,-0.759389,0.00396259,0.0137724,1651,505,8.51186,14.7372
434,519,8.50317,-14.3454,-0.00185271,-0.00195091,-0.00241928,0.000517972,-0.00432159,-0.775252,0.00306833,0.0125552,1658,505,8.50312,14.3454
441,519,8.46973,-13.952,-0.00128936,-0.00140235,-0.00166058,0.000315683,-0.0030074,-0.768393,0.00211802,0.012012,1665,505,8.46969,13.9519
448,519,8.46545,-13.5768,-0.000656378,-0.000970257,-0.000923484,0.000123407,-0.00175004,-0.701231,0.00120993,0.00985852,1672,505,8.46551,13.5768
455,519,8.47546,-13.2071,-5.0158e-05,-0.000706073,-0.000261043,4.10499e-05,-0.000797281,-0.336138,0.000545719,0.010972,1679,505,8.47551,13.2071
462,519,8.4696,-12.7951,0.000480855,-0.000670459,0.000336613,0.000572048,-0.000761652,0.264564,0.000772602,0.0101629,1686,505,8.46965,12.7951
469,519,8.4729,-12.3807,0.000851793,-0.000810706,0.000913846,0.00125589,-0.00121481,0.416347,0.00142653,0.0105626,1693,505,8.47288,12.3807
476,519,8.47705,-11.9697,0.000990478,-0.00116578,0.00135203,0.00164161,-0.00181691,0.448817,0.00199763,0.0126119,1700,505,8.47707,11.9697
483,519,8.45056,-11.5509,0.000950099,-0.00176098,0.00169052,0.00176143,-0.00257231,0.447464,0.00251664,0.0138815,1707,505,8.45055,11.5509
490,519,8.43945,-11.1081,0.000616985,-0.00273471,0.00198612,0.00153982,-0.00365755,0.434962,0.00308261,0.0119873,1714,505,8.43947,11.1081
497,519,8.41626,-10.7079,3.96043e-05,-0.00384747,0.00225941,0.00107638,-0.00488424,0.430207,0.00366798,0.0142829,1721,505,8.41624,10.7079
504,519,8.37109,-10.2961,-0.000813303,-0.00505021,0.00251349,0.00035541,-0.00621892,0.435239,0.00426935,0.0144708,1728,505,8.37114,10.2961
511,519,8.36658,-9.83868,-0.00196898,-0.0063945,0.00276844,-0.000637654,-0.00772583,0.448247,0.0049517,0.0204446,1735,505,8.36652,9.83869
518,519,8.27881,-9.51837,-0.00330165,-0.00757763,0.0033959,-0.00142677,-0.00945252,0.504456,0.00588404,0.0411582,1742,505,8.27878,9.51837
525,519,8.28101,-9.25214,0,0,0,0,0,0,0,-1,1749,505,8.28103,9.25216
532,519,3.5155,-2.86511,0,0,0,0,0,0,0,-1,1756,505,3.51554,2.8651
539,519,3.30005,0.0229797,0,0,0,0,0,0,0,-1,1763,505,3.30008,-0.0229869
546,519,4.62024,-2.89774,0,0,0,0,0,0,0,-1,1770,505,4.62023,2.89775
553,519,4.14136,0.0667419,0,0,0,0,0,0,0,-1,1777,505,4.14141,-0.0667503
560,519,3.77856,0.279724,0,0,0,0,0,0,0,-1,1784,505,3.77861,-0.279731
567,519,0,0,0,0,0,0,0,0,0,-1,1791,505,0,0
574,519,0,0,0,0,0,0,0,0,0,-1,1798,505,0,0
581,519,0,0,0,0,0,0,0,0,0,-1,1805,505,0,0
588,519,0,0,0,0,0,0,0,0,0,-1,1812,505,0,0
595,519,0,0,0,0,0,0,0,0,0,-1,1819,505,0,0
602,519,0,0,0,0,0,0,0,0,0,-1,1826,505,0,0
609,519,0,0,0,0,0,0,0,0,0,-1,1833,505,0,0
616,519,0,0,0,0,0,0,0,0,0,-1,1840,505,0,0
623,519,0,0,0,0,0,0,0,0,0,-1,1847,505,0,0
630,519,0,0,0,0,0,0,0,0,0,-1,1854,505,0,0
637,519,0,0,0,0,0,0,0,0,0,-1,1861,505,0,0
644,519,0,0,0,0,0,0,0,0,0,-1,1868,505,0,0
651,519,0,0,0,0,0,0,0,0,0,-1,1875,505,0,0
658,519,0,0,0,0,0,0,0,0,0,-1,1882,505,0,0
665,519,0,0,0,0,0,0,0,0,0,-1,1889,505,0,0
672,519,0,0,0,0,0,0,0,0,0,-1,1896,505,0,0
679,519,0,0,0,0,0,0,0,0,0,-1,1903,505,0,0
686,519,0,0,0,0,0,0,0,0,0,-1,1910,505,0,0
693,519,0,0,0,0,0,0,0,0,0,-1,1917,505,0,0
700,519,0,0,0,0,0,0,0,0,0,-1,1924,505,0,0
707,519,0,0,0,0,0,0,0,0,0,-1,1931,505,0,0
714,519,0,0,0,0,0,0,0,0,0,-1,1938,505,0,0
721,519,0,0,0,0,0,0,0,0,0,-1,1945,505,0,0
728,519,0,0,0,0,0,0,0,0,0,-1,1952,505,0,0
735,519,0,0,0,0,0,0,0,0,0,-1,1959,505,0,0
742,519,0,0,0,0,0,0,0,0,0,-1,1966,505,0,0
749,519,0,0,0,0,0,0,0,0,0,-1,1973,505,0,0
756,519,0,0,0,0,0,0,0,0,0,-1,1980,505,0,0
763,519,0,0,0,0,0,0,0,0,0,-1,1987,505,0,0
770,519,0,0,0,0,0,0,0,0,0,-1,1994,505,0,0
777,519,0,0,0,0,0,0,0,0,0,-1,2001,505,0,0
784,519,0,0,0,0,0,0,0,0,0,-1,2008,505,0,0
791,519,0,0,0,0,0,0,0,0,0,-1,2015,505,0,0
798,519,0,0,0,0,0,0,0,0,0,-1,2022,505,0,0
805,519,0,0,0,0,0,0,0,0,0,-1,2029,505,0,0
812,519,0,0,0,0,0,0,0,0,0,-1,2036,505,0,0
-700,512,0,0,0,0,0,0,0,0,0,-1,524,512,0,0
-693,512,0,0,0,0,0,0,0,0,0,-1,531,512,0,0
-686,512,0,0,0,0,0,0,0,0,0,-1,538,512,0,0
-679,512,0,0,0,0,0,0,0,0,0,-1,545,512,0,0
-672,512,0,0,0,0,0,0,0,0,0,-1,552,512,0,0
-665,512,0,0,0,0,0,0,0,0,0,-1,559,512,0,0
-658,512,0,0,0,0,0,0,0,0,0,-1,566,512,0,0
-651,512,0,0,0,0,0,0,0,0,0,-1,573,512,0,0
-644,512,0,0,0,0,0,0,0,0,0,-1,580,512,0,0
-637,512,0,0,0,0,0,0,0,0,0,-1,587,512,0,0
-630,512,0,0,0,0,0,0,0,0,0,-1,594,512,0,0
-623,512,0,0,0,0,0,0,0,0,0,-1,601,512,0,0
-616,512,0,0,0,0,0,0,0,0,0,-1,608,512,0,0
-609,512,0,0,0,0,0,0,0,0,0,-1,615,512,0,0
-602,512,0,0,0,0,0,0,0,0,0,-1,622,512,0,0
-595,512,0,0,0,0,0,0,0,0,0,-1,629,512,0,0
-588,512,0,0,0,0,0,0,0,0,0,-1,636,512,0,0
-581,512,0,0,0,0,0,0,0,0,0,-1,643,512,0,0
-574,512,0,0,0,0,0,0,0,0,0,-1,650,512,0,0
-567,512,0,0,0,0,0,0,0,0,0,-1,657,512,0,0
-560,512,0,0,0,0,0,0,0,0,0,-1,664,512,0,0
-553,512,0,0,0,0,0,0,0,0,0,-1,671,512,0,0
-546,512,0,0,0,0,0,0,0,0,0,-1,678,512,0,0
-539,512,0,0,0,0,0,0,0,0,0,-1,685,512,0,0
-532,512,0,0,0,0,0,0,0,0,0,-1,692,512,0,0
-525,512,0,0,0,0,0,0,0,0,0,-1,699,512,0,0
-518,512,0,0,0,0,0,0,0,0,0,-1,706,512,0,0
-511,512,0,0,0,0,0,0,0,0,0,-1,713,512,0,0
-504,512,0,0,0,0,0,0,0,0,0,-1,720,512,0,0
-497,512,0,0,0,0,0,0,0,0,0,-1,727,512,0,0
-490,512,0,0,0,0,0,0,0,0,0,-1,734,512,0,0
-483,512,0,0,0,0,0,0,0,0,0,-1,741,512,0,0
-476,512,0,0,0,0,0,0,0,0,0,-1,748,512,0,0
-469,512,0,0,0,0,0,0,0,0,0,-1,755,512,0,0
-462,512,0,0,0,0,0,0,0,0,0,-1,762,512,0,0
-455,512,0,0,0,0,0,0,0,0,0,-1,769,512,0,0
-448,512,1.96283,-4.15674,0,0,0,0,0,0,0,-1,776,512,1.96285,4.15677
-441,512,1.78198,-4.88824,0,0,0,0,0,0,0,-1,783,512,1.78201,4.88826
-434,512,1.32996,-7.28003,0,0,0,0,0,0,0,-1,790,512,1.32993,7.28003
-427,512,0.427734,-6.66571,0,0,0,0,0,0,0,-1,797,512,0.427713,6.6657
-420,512,-1.55994,-10.0776,0,0,0,0,0,0,0,-1,804,512,-1.55992,10.0777
-413,512,-0.99292,-9.73511,0,0,0,0,0,0,0,-1,811,512,-0.992909,9.73512
-406,512,-0.981689,-10.0443,0,0,0,0,0,0,0,-1,818,512,-0.981679,10.0443
-399,512,-0.957703,-10.3556,0,0,0,0,0,0,0,-1,825,512,-0.957707,10.3556
-392,512,-0.974243,-10.8285,-0.000883336,0.00550182,-0.00399679,0.00742459,-0.00280611,-1.1224,0.00610403,0.0375291,832,512,-0.974244,10.8285
-385,512,-1.06952,-11.279,-0.000405002,0.00416688,-0.00345097,0.00602035,-0.00225847,-1.07792,0.00494153,0.0210308,839,512,-1.06949,11.279
-378,512,-1.10492,-11.6807,2.28233e-05,0.00321085,-0.00301739,0.00502939,-0.00179572,-1.0284,0.00408525,0.0160367,846,512,-1.10495,11.6807
-371,512,-1.08704,-12.1119,0.00023341,0.00238629,-0.00260072,0.00412454,-0.00150483,-0.981615,0.00336538,0.0121842,853,512,-1.08702,12.1119
-364,512,-1.07202,-12.5667,0.000313832,0.00175899,-0.00216629,0.00332004,-0.00124721,-0.946374,0.00272592,0.00944234,860,512,-1.07202,12.5667
-357,512,-1.07898,-12.9593,0.000365981,0.00134123,-0.00177595,0.00269528,-0.000988074,-0.919381,0.00220141,0.0105218,867,512,-1.07897,12.9593
-350,512,-1.09998,-13.3441,0.000420368,0.00101854,-0.00144399,0.00219409,-0.000755181,-0.887517,0.00176902,0.0107703,874,512,-1.09998,13.3441
-343,512,-1.15057,-13.7164,0.000482957,0.000695228,-0.00113801,0.00173204,-0.000553856,-0.831896,0.00137696,0.0121607,881,512,-1.15059,13.7164
-336,512,-1.17078,-14.1002,0.000609613,0.000433916,-0.000856156,0.00138242,-0.000338887,-0.734273,0.00105291,0.0128198,888,512,-1.17075,14.1001
-329,512,-1.14508,-14.4692,0.000826473,0.000223322,-0.000637999,0.00123058,-0.000180787,-0.564618,0.000886815,0.013696,895,512,-1.14509,14.4692
-322,512,-1.15247,-14.8538,0.00100653,3.69341e-05,-0.000414809,0.00115977,-0.000116309,-0.353878,0.000814722,0.0118665,902,512,-1.15247,14.8538
-315,512,-1.16016,-15.2344,0.00124779,-7.10923e-05,-0.000198819,0.00127711,-0.000100412,-0.146415,0.000886772,0.0110859,909,512,-1.16015,15.2344
-308,512,-1.17871,-15.6154,0.00163514,-0.000256186,3.35188e-05,0.00163574,-0.00025678,0.0177149,0.00118539,0.011395,916,512,-1.17872,15.6154
-301,512,-1.19159,-15.9696,0.00201954,-0.000593982,0.000355134,0.00206694,-0.000641379,0.132678,0.00163426,0.0154062,923,512,-1.19156,15.9696
-294,512,-1.1817,-16.2879,0.00223663,-0.00147583,0.000827694,0.0024128,-0.001652,0.20972,0.00236048,0.0151342,930,512,-1.18171,16.2879
-287,512,-1.25055,-16.5836,0.00251192,-0.00230681,0.00126899,0.00282567,-0.00262056,0.242386,0.00314513,0.0234094,937,512,-1.25053,16.5836
-280,512,-1.10901,-16.9683,0.0025852,-0.00404534,0.00192472,0.00310341,-0.00456354,0.263002,0.0044532,0.0365339,944,512,-1.109,16.9682
-273,512,-1.03168,-17.3852,0,0,0,0,0,0,0,-1,951,512,-1.03169,17.3852
-266,512,-1.20612,-17.7968,0,0,0,0,0,0,0,-1,958,512,-1.2061,17.7968
-259,512,-0.525452,-14.0815,0,0,0,0,0,0,0,-1,965,512,-0.525475,14.0815
-252,512,1.45941,-3.43475,0,0,0,0,0,0,0,-1,972,512,1.45938,3.43475
-245,512,4.12927,-11.272,0,0,0,0,0,0,0,-1,979,512,4.1293,11.272
-238,512,0.227051,-8.92969,0,0,0,0,0,0,0,-1,986,512,0.227073,8.92968
-231,512,-2.54437,-10.169,0,0,0,0,0,0,0,-1,993,512,-2.54439,10.169
-224,512,-4.84601,-7.52783,0,0,0,0,0,0,0,-1,1000,512,-4.84602,7.52786
-217,512,-7.37274,-3.89563,0,0,0,0,0,0,0,-1,1007,512,-7.37274,3.89561
-210,512,-3.76642,-1.94702,0,0,0,0,0,0,0,-1,1014,512,-3.76641,1.94702
-203,512,-2.48328,-5.19061,0,0,0,0,0,0,0,-1,1021,512,-2.48328,5.19059
-196,512,-1.14929,-4.63202,0,0,0,0,0,0,0,-1,1028,512,-1.14934,4.632
-189,512,0.197998,4.55505,0,0,0,0,0,0,0,-1,1035,512,0.197996,-4.55506
-182,512,2.73938,0.0778503,0,0,0,0,0,0,0,-1,1042,512,2.73944,-0.077852
-175,512,2.29565,0.209808,0,0,0,0,0,0,0,-1,1049,512,2.29565,-0.209813
-168,512,2.09399,-0.302856,0,0,0,0,0,0,0,-1,1056,512,2.09403,0.302826
-161,512,2.76636,0.0921021,0,0,0,0,0,0,0,-1,1063,512,2.76633,-0.0921104
-154,512,3.41382,0.466187,0,0,0,0,0,0,0,-1,1070,512,3.41382,-0.466178
-147,512,0,0,0,0,0,0,0,0,0,-1,1077,512,0,0
-140,512,0,0,0,0,0,0,0,0,0,-1,1084,512,0,0
-133,512,0,0,0,0,0,0,0,0,0,-1,1091,512,0,0
-126,512,0,0,0,0,0,0,0,0,0,-1,1098,512,0,0
-119,512,0,0,0,0,0,0,0,0,0,-1,1105,512,0,0
-112,512,0,0,0,0,0,0,0,0,0,-1,1112,512,0,0
-105,512,0,0,0,0,0,0,0,0,0,-1,1119,512,0,0
-98,512,0,0,0,0,0,0,0,0,0,-1,1126,512,0,0
-91,512,0,0,0,0,0,0,0,0,0,-1,1133,512,0,0
-84,512,0,0,0,0,0,0,0,0,0,-1,1140,512,0,0
-77,512,0,0,0,0,0,0,0,0,0,-1,1147,512,0,0
-70,512,0,0,0,0,0,0,0,0,0,-1,1154,512,0,0
-63,512,0,0,0,0,0,0,0,0,0,-1,1161,512,0,0
-56,512,0,0,0,0,0,0,0,0,0,-1,1168,512,0,0
-49,512,0,0,0,0,0,0,0,0,0,-1,1175,512,0,0
-42,512,0,0,0,0,0,0,0,0,0,-1,1182,512,0,0
-35,512,0,0,0,0,0,0,0,0,0,-1,1189,512,0,0
-28,512,0,0,0,0,0,0,0,0,0,-1,1196,512,0,0
-21,512,0,0,0,0,0,0,0,0,0,-1,1203,512,0,0
-14,512,0,0,0,0,0,0,0,0,0,-1,1210,512,0,0
-7,512,0,0,0,0,0,0,0,0,0,-1,1217,512,0,0
0,512,0,0,0,0,0,0,0,0,0,-1,1224,512,0,0
7,512,0,0,0,0,0,0,0,0,0,-1,1231,512,0,0
14,512,0,0,0,0,0,0,0,0,0,-1,1238,512,0,0
21,512,0,0,0,0,0,0,0,0,0,-1,1245,512,0,0
28,512,0,0,0,0,0,0,0,0,0,-1,1252,512,0,0
35,512,0,0,0,0,0,0,0,0,0,-1,1259,512,0,0
42,512,0,0,0,0,0,0,0,0,0,-1,1266,512,0,0
49,512,0,0,0,0,0,0,0,0,0,-1,1273,512,0,0
56,512,0,0,0,0,0,0,0,0,0,-1,1280,512,0,0
63,512,0,0,0,0,0,0,0,0,0,-1,1287,512,0,0
70,512,0,0,0,0,0,0,0,0,0,-1,1294,512,0,0
77,512,0,0,0,0,0,0,0,0,0,-1,1301,512,0,0
84,512,0,0,0,0,0,0,0,0,0,-1,1308,512,0,0
91,512,0,0,0,0,0,0,0,0,0,-1,1315,512,0,0
98,512,0,0,0,0,0,0,0,0,0,-1,1322,512,0,0
105,512,0,0,0,0,0,0,0,0,0,-1,1329,512,0,0
112,512,0,0,0,0,0,0,0,0,0,-1,1336,512,0,0
119,512,0,0,0,0,0,0,0,0,0,-1,1343,512,0,0
126,512,0,0,0,0,0,0,0,0,0,-1,1350,512,0,0
133,512,0,0,0,0,0,0,0,0,0,-1,1357,512,0,0
140,512,0,0,0,0,0,0,0,0,0,-1,1364,512,0,0
147,512,0,0,0,0,0,0,0,0,0,-1,1371,512,0,0
154,512,0,0,0,0,0,0,0,0,0,-1,1378,512,0,0
161,512,0,0,0,0,0,0,0,0,0,-1,1385,512,0,0
168,512,0,0,0,0,0,0,0,0,0,-1,1392,512,0,0
175,512,0,0,0,0,0,0,0,0,0,-1,1399,512,0,0
182,512,0,0,0,0,0,0,0,0,0,-1,1406,512,0,0
189,512,0,0,0,0,0,0,0,0,0,-1,1413,512,0,0
196,512,0,0,0,0,0,0,0,0,0,-1,1420,512,0,0
203,512,0,0,0,0,0,0,0,0,0,-1,1427,512,0,0
210,512,0,0,0,0,0,0,0,0,0,-1,1434,512,0,0
217,512,0,0,0,0,0,0,0,0,0,-1,1441,512,0,0
224,512,0,0,0,0,0,0,0,0,0,-1,1448,512,0,0
231,512,0,0,0,0,0,0,0,0,0,-1,1455,512,0,0
238,512,0,0,0,0,0,0,0,0,0,-1,1462,512,0,0
245,512,0,0,0,0,0,0,0,0,0,-1,1469,512,0,0
252,512,0,0,0,0,0,0,0,0,0,-1,1476,512,0,0
259,512,0,0,0,0,0,0,0,0,0,-1,1483,512,0,0
266,512,0,0,0,0,0,0,0,0,0,-1,1490,512,0,0
273,512,4.00745,0.618622,0,0,0,0,0,0,0,-1,1497,512,4.00747,-0.618611
280,512,4.49609,0.649841,0,0,0,0,0,0,0,-1,1504,512,4.49612,-0.649834
287,512,4.77234,0.458069,0,0,0,0,0,0,0,-1,1511,512,4.77233,-0.458083
294,512,8.54956,-2.36273,0,0,0,0,0,0,0,-1,1518,512,8.54952,2.36274
301,512,6.302,-1.69092,0,0,0,0,0,0,0,-1,1525,512,6.30196,1.69093
308,512,8.2439,-6.22754,0,0,0,0,0,0,0,-1,1532,512,8.24394,6.22757
315,512,7.53687,-6.04211,0,0,0,0,0,0,0,-1,1539,512,7.53691,6.04211
322,512,6.82983,-5.85663,0,0,0,0,0,0,0,-1,1546,512,6.82988,5.85666
329,512,4.38147,-0.329651,0,0,0,0,0,0,0,-1,1553,512,4.38144,0.329662
336,512,4.41467,-0.741455,0,0,0,0,0,0,0,-1,1560,512,4.41467,0.741442
343,512,4.44727,-1.21667,0,0,0,0,0,0,0,-1,1567,512,4.44732,1.21666
350,512,4.55469,-1.65082,0,0,0,0,0,0,0,-1,1574,512,4.5547,1.65083
357,512,5.79993,-2.67456,0,0,0,0,0,0,0,-1,1581,512,5.79991,2.67454
364,512,5.18298,-6.80133,0,0,0,0,0,0,0,-1,1588,512,5.18296,6.80132
371,512,5.28467,-7.69269,0,0,0,0,0,0,0,-1,1595,512,5.28464,7.69269
378,512,6.29407,-9.88055,0,0,0,0,0,0,0,-1,1602,512,6.29412,9.88057
385,512,6.45569,-9.32233,0,0,0,0,0,0,0,-1,1609,512,6.45565,9.3223
392,512,6.35522,-8.98425,0,0,0,0,0,0,0,-1,1616,512,6.35526,8.98422
399,512,7.5304,-12.1449,0,0,0,0,0,0,0,-1,1623,512,7.53042,12.1449
406,512,8.84607,-15.9714,0,0,0,0,0,0,0,-1,1630,512,8.84606,15.9714
413,512,8.82654,-15.6777,0,0,0,0,0,0,0,-1,1637,512,8.82659,15.6777
420,512,8.89685,-15.1608,-0.0037621,-0.00515327,-0.00549092,0.00107712,-0.00999249,-0.722394,0.00704819,0.0244752,1644,512,8.89684,15.1608
427,512,8.91162,-14.7561,-0.00327511,-0.0044008,-0.00473779,0.000933151,-0.00860906,-0.726276,0.00607436,0.0149674,1651,512,8.91168,14.7561
434,512,8.89673,-14.3761,-0.00279034,-0.00350616,-0.00386535,0.000733636,-0.00703014,-0.739232,0.00494946,0.0116287,1658,512,8.89677,14.3761
441,512,8.87024,-13.9783,-0.0022025,-0.0026274,-0.00294445,0.00053716,-0.00536706,-0.749384,0.00376987,0.0131429,1665,512,8.8702,13.9783
448,512,8.85266,-13.5882,-0.00154794,-0.00185778,-0.00204606,0.000349061,-0.00375478,-0.747612,0.00262728,0.00968845,1672,512,8.8527,13.5882
455,512,8.8562,-13.1892,-0.000938812,-0.00123292,-0.00123771,0.000160552,-0.00233229,-0.726269,0.00161104,0.00877678,1679,512,8.85621,13.1892
462,512,8.85852,-12.7846,-0.000407001,-0.000809678,-0.000520741,-5.00303e-05,-0.00116665,-0.600931,0.000761636,0.00869705,1686,512,8.8585,12.7846
469,512,8.85413,-12.3544,-1.35032e-05,-0.000582595,0.000163524,3.01378e-05,-0.000626236,0.260799,0.00042789,0.0105574,1693,512,8.85415,12.3544
476,512,8.85547,-11.9523,0.000130501,-0.000564817,0.000701999,0.000566212,-0.00100053,0.555481,0.00091607,0.013153,1700,512,8.85548,11.9523
483,512,8.84363,-11.5336,0.000157415,-0.000749511,0.00114863,0.00093885,-0.00153095,0.597396,0.00143953,0.0123689,1707,512,8.84364,11.5336
490,512,8.83923,-11.1104,-0.000126655,-0.00124104,0.00148642,0.00090357,-0.00227127,0.606076,0.00188884,0.0102473,1714,512,8.83923,11.1104
497,512,8.82861,-10.6853,-0.000654868,-0.00197356,0.00173259,0.000539593,-0.00316803,0.603582,0.00231296,0.0111648,1721,512,8.82863,10.6853
504,512,8.7843,-10.2563,-0.00139608,-0.00280403,0.00194722,-2.94906e-05,-0.00417062,0.611944,0.00277063,0.0124036,1728,512,8.78432,10.2563
511,512,8.76184,-9.81702,-0.00241236,-0.00370799,0.00216221,-0.000803011,-0.00531734,0.63985,0.00330986,0.0137802,1735,512,8.76181,9.81699
518,512,8.79089,-9.39691,-0.00374607,-0.00462784,0.00241945,-0.00172767,-0.00664625,0.695275,0.0039819,0.0190877,1742,512,8.79085,9.3969
525,512,8.87341,-8.96295,0,0,0,0,0,0,0,-1,1749,512,8.87346,8.96294
532,512,7.99243,-8.32623,0,0,0,0,0,0,0,-1,1756,512,7.99244,8.32625
539,512,7.05908,-7.00647,0,0,0,0,0,0,0,-1,1763,512,7.05909,7.00647
546,512,2.77551,-0.66449,0,0,0,0,0,0,0,-1,1770,512,2.77548,0.664503
553,512,3.927,-0.448853,0,0,0,0,0,0,0,-1,1777,512,3.92704,0.448843
560,512,3.55762,-0.201233,0,0,0,0,0,0,0,-1,1784,512,3.55768,0.201259
567,512,3.09045,0.191193,0,0,0,0,0,0,0,-1,1791,512,3.09045,-0.191203
574,512,0,0,0,0,0,0,0,0,0,-1,1798,512,0,0
581,512,0,0,0,0,0,0,0,0,0,-1,1805,512,0,0
588,512,0,0,0,0,0,0,0,0,0,-1,1812,512,0,0
595,512,0,0,0,0,0,0,0,0,0,-1,1819,512,0,0
602,512,0,0,0,0,0,0,0,0,0,-1,1826,512,0,0
609,512,0,0,0,0,0,0,0,0,0,-1,1833,512,0,0
616,512,0,0,0,0,0,0,0,0,0,-1,1840,512,0,0
623,512,0,0,0,0,0,0,0,0,0,-1,1847,512,0,0
630,512,0,0,0,0,0,0,0,0,0,-1,1854,512,0,0
637,512,0,0,0,0,0,0,0,0,0,-1,1861,512,0,0
644,512,0,0,0,0,0,0,0,0,0,-1,1868,512,0,0
651,512,0,0,0,0,0,0,0,0,0,-1,1875,512,0,0
658,512,0,0,0,0,0,0,0,0,0,-1,1882,512,0,0
665,512,0,0,0,0,0,0,0,0,0,-1,1889,512,0,0
672,512,0,0,0,0,0,0,0,0,0,-1,1896,512,0,0
679,512,0,0,0,0,0,0,0,0,0,-1,1903,512,0,0
686,512,0,0,0,0,0,0,0,0,0,-1,1910,512,0,0
693,512,0,0,0,0,0,0,0,0,0,-1,1917,512,0,0
700,512,0,0,0,0,0,0,0,0,0,-1,1924,512,0,0
707,512,0,0,0,0,0,0,0,0,0,-1,1931,512,0,0
714,512,0,0,0,0,0,0,0,0,0,-1,1938,512,0,0
721,512,0,0,0,0,0,0,0,0,0,-1,1945,512,0,0
728,512,0,0,0,0,0,0,0,0,0,-1,1952,512,0,0
735,512,0,0,0,0,0,0,0,0,0,-1,1959,512,0,0
742,512,0,0,0,0,0,0,0,0,0,-1,1966,512,0,0
749,512,0,0,0,0,0,0,0,0,0,-1,1973,512,0,0
756,512,0,0,0,0,0,0,0,0,0,-1,1980,512,0,0
763,512,0,0,0,0,0,0,0,0,0,-1,1987,512,0,0
770,512,0,0,0,0,0,0,0,0,0,-1,1994,512,0,0
777,512,0,0,0,0,0,0,0,0,0,-1,2001,512,0,0
784,512,0,0,0,0,0,0,0,0,0,-1,2008,512,0,0
791,512,0,0,0,0,0,0,0,0,0,-1,2015,512,0,0
798,512,0,0,0,0,0,0,0,0,0,-1,2022,512,0,0
805,512,0,0,0,0,0,0,0,0,0,-1,2029,512,0,0
812,512,0,0,0,0,0,0,0,0,0,-1,2036,512,0,0
-700,505,0,0,0,0,0,0,0,0,0,-1,524,519,0,0
-693,505,0,0,0,0,0,0,0,0,0,-1,531,519,0,0
-686,505,0,0,0,0,0,0,0,0,0,-1,538,519,0,0
-679,505,0,0,0,0,0,0,0,0,0,-1,545,519,0,0
-672,505,0,0,0,0,0,0,0,0,0,-1,552,519,0,0
-665,505,0,0,0,0,0,0,0,0,0,-1,559,519,0,0
-658,505,0,0,0,0,0,0,0,0,0,-1,566,519,0,0
-651,505,0,0,0,0,0,0,0,0,0,-1,573,519,0,0
-644,505,0,0,0,0,0,0,0,0,0,-1,580,519,0,0
-637,505,0,0,0,0,0,0,0,0,0,-1,587,519,0,0
-630,505,0,0,0,0,0,0,0,0,0,-1,594,519,0,0
-623,505,0,0,0,0,0,0,0,0,0,-1,601,519,0,0
-616,505,0,0,0,0,0,0,0,0,0,-1,608,519,0,0
-609,505,0,0,0,0,0,0,0,0,0,-1,615,519,0,0
-602,505,0,0,0,0,0,0,0,0,0,-1,622,519,0,0
-595,505,0,0,0,0,0,0,0,0,0,-1,629,519,0,0
-588,505,0,0,0,0,0,0,0,0,0,-1,636,519,0,0
-581,505,0,0,0,0,0,0,0,0,0,-1,643,519,0,0
-574,505,0,0,0,0,0,0,0,0,0,-1,650,519,0,0
-567,505,0,0,0,0,0,0,0,0,0,-1,657,519,0,0
-560,505,0,0,0,0,0,0,0,0,0,-1,664,519,0,0
-553,505,0,0,0,0,0,0,0,0,0,-1,671,519,0,0
-546,505,0,0,0,0,0,0,0,0,0,-1,678,519,0,0
-539,505,0,0,0,0,0,0,0,0,0,-1,685,519,0,0
-532,505,0,0,0,0,0,0,0,0,0,-1,692,519,0,0
-525,505,0,0,0,0,0,0,0,0,0,-1,699,519,0,0
-518,505,0,0,0,0,0,0,0,0,0,-1,706,519,0,0
-511,505,0,0,0,0,0,0,0,0,0,-1,713,519,0,0
-504,505,0,0,0,0,0,0,0,0,0,-1,720,519,0,0
-497,505,0,0,0,0,0,0,0,0,0,-1,727,519,0,0
-490,505,0,0,0,0,0,0,0,0,0,-1,734,519,0,0
-483,505,0,0,0,0,0,0,0,0,0,-1,741,519,0,0
-476,505,0,0,0,0,0,0,0,0,0,-1,748,519,0,0
-469,505,0,0,0,0,0,0,0,0,0,-1,755,519,0,0
-462,505,0,0,0,0,0,0,0,0,0,-1,762,519,0,0
-455,505,2.72137,-3.26379,0,0,0,0,0,0,0,-1,769,519,2.72135,3.26377
-448,505,2.51111,-3.94989,0,0,0,0,0,0,0,-1,776,519,2.51112,3.94986
-441,505,2.80212,-6.8902,0,0,0,0,0,0,0,-1,783,519,2.80209,6.89019
-434,505,0.304626,-6.2099,0,0,0,0,0,0,0,-1,790,519,0.304615,6.20987
-427,505,0.0349731,-6.49762,0,0,0,0,0,0,0,-1,797,519,0.0349682,6.49761
-420,505,-0.523132,-7.62921,0,0,0,0,0,0,0,-1,804,519,-0.523104,7.62919
-413,505,-2.04071,-10.3439,0,0,0,0,0,0,0,-1,811,519,-2.04071,10.3439
-406,505,-1.56226,-10.3103,0,0,0,0,0,0,0,-1,818,519,-1.56223,10.3103
-399,505,-1.59259,-10.5724,0,0,0,0,0,0,0,-1,825,519,-1.59258,10.5724
-392,505,-1.44415,-10.8516,-0.00106456,0.00492332,-0.0033068,0.00639017,-0.00253141,-1.15329,0.00530905,0.0216013,832,519,-1.44418,10.8516
-385,505,-1.45923,-11.3201,-0.000476203,0.00365517,-0.00281911,0.0050844,-0.00190543,-1.10158,0.00417239,0.00959233,839,519,-1.45925,11.3201
-378,505,-1.48035,-11.7297,3.6718e-05,0.00273913,-0.00244374,0.00418034,-0.0014045,-1.03794,0.00335454,0.011465,846,519,-1.48036,11.7297
-371,505,-1.46704,-12.1706,0.000318964,0.00193388,-0.00207547,0.00335343,-0.00110058,-0.970913,0.00267893,0.0142919,853,519,-1.46707,12.1706
-364,505,-1.47406,-12.5884,0.000472803,0.00125252,-0.00167229,0.0025798,-0.000854475,-0.899917,0.0020645,0.0146509,860,519,-1.47405,12.5884
-357,505,-1.46985,-12.9681,0.000612984,0.000821067,-0.00131521,0.00203635,-0.000602295,-0.824869,0.00159666,0.0118569,867,519,-1.46983,12.9681
-350,505,-1.49591,-13.3351,0.000751886,0.000517782,-0.00103539,0.00167682,-0.000407151,-0.729111,0.00127545,0.0109884,874,519,-1.49593,13.3351
-343,505,-1.50952,-13.7123,0.000863561,0.000209438,-0.000770273,0.00137333,-0.000300333,-0.58463,0.00103036,0.00902535,881,519,-1.50953,13.7123
-336,505,-1.52112,-14.0997,0.00102216,-3.69554e-05,-0.000521012,0.00123549,-0.000250288,-0.388633,0.000918527,0.0109928,888,519,-1.52113,14.0997
-329,505,-1.50275,-14.4747,0.00129004,-0.000220192,-0.000354606,0.00136916,-0.00029931,-0.219519,0.00102718,0.0155636,895,519,-1.50275,14.4747
-322,505,-1.52087,-14.8763,0.00152387,-0.000350249,-0.000193336,0.00154361,-0.000369985,-0.101733,0.00117203,0.0186229,902,519,-1.52087,14.8763
-315,505,-1.53424,-15.2562,0.00181192,-0.000424884,-4.00039e-05,0.00181264,-0.0004256,-0.0178768,0.00137247,0.0147948,909,519,-1.53421,15.2561
-308,505,-1.54443,-15.6011,0.00225782,-0.000587073,0.000143529,0.00226504,-0.000594296,0.0502814,0.00174225,0.012465,916,519,-1.54444,15.6012
-301,505,-1.53351,-15.9883,0.00266879,-0.00084192,0.000457111,0.00272734,-0.000900462,0.127376,0.00218124,0.0176838,923,519,-1.5335,15.9883
-294,505,-1.53333,-16.2932,0,0,0,0,0,0,0,-1,930,519,-1.53334,16.2932
-287,505,-1.59857,-16.6592,0,0,0,0,0,0,0,-1,937,519,-1.5986,16.6592
-280,505,-1.40796,-17.1716,0,0,0,0,0,0,0,-1,944,519,-1.40794,17.1716
-273,505,-0.0680542,-9.44867,0,0,0,0,0,0,0,-1,951,519,-0.0680462,9.44866
-266,505,-0.036377,-9.07922,0,0,0,0,0,0,0,-1,958,519,-0.0364055,9.0792
-259,505,0.10321,-6.69824,0,0,0,0,0,0,0,-1,965,519,0.103235,6.69826
-252,505,6.82312,-15.6972,0,0,0,0,0,0,0,-1,972,519,6.82314,15.6972
-245,505,4.26727,-12.9861,0,0,0,0,0,0,0,-1,979,519,4.2673,12.9861
-238,505,1.67432,-11.2307,0,0,0,0,0,0,0,-1,986,519,1.67429,11.2307
-231,505,-0.958435,-8.3075,0,0,0,0,0,0,0,-1,993,519,-0.958421,8.30751
-224,505,-3.69653,-5.12732,0,0,0,0,0,0,0,-1,1000,519,-3.69653,5.12733
-217,505,-6.34302,-1.65533,0,0,0,0,0,0,0,-1,1007,519,-6.34299,1.65535
-210,505,-3.06128,-0.396301,0,0,0,0,0,0,0,-1,1014,519,-3.06129,0.396294
-203,505,-4.26465,2.03607,0,0,0,0,0,0,0,-1,1021,519,-4.26462,-2.03606
-196,505,-5.47595,4.27295,0,0,0,0,0,0,0,-1,1028,519,-5.47597,-4.27292
-189,505,1.51526,5.56207,0,0,0,0,0,0,0,-1,1035,519,1.51523,-5.56209
-182,505,2.97815,7.5097,0,0,0,0,0,0,0,-1,1042,519,2.97812,-7.5097
-175,505,-2.38416,-2.17548,0,0,0,0,0,0,0,-1,1049,519,-2.38411,2.1755
-168,505,0,0,0,0,0,0,0,0,0,-1,1056,519,0,0
-161,505,0,0,0,0,0,0,0,0,0,-1,1063,519,0,0
-154,505,0,0,0,0,0,0,0,0,0,-1,1070,519,0,0
-147,505,0,0,0,0,0,0,0,0,0,-1,1077,519,0,0
-140,505,0,0,0,0,0,0,0,0,0,-1,1084,519,0,0
-133,505,0,0,0,0,0,0,0,0,0,-1,1091,519,0,0
-126,505,0,0,0,0,0,0,0,0,0,-1,1098,519,0,0
-119,505,0,0,0,0,0,0,0,0,0,-1,1105,519,0,0
-112,505,0,0,0,0,0,0,0,0,0,-1,1112,519,0,0
-105,505,0,0,0,0,0,0,0,0,0,-1,1119,519,0,0
-98,505,0,0,0,0,0,0,0,0,0,-1,1126,519,0,0
-91,505,0,0,0,0,0,0,0,0,0,-1,1133,519,0,0
-84,505,0,0,0,0,0,0,0,0,0,-1,1140,519,0,0
-77,505,0,0,0,0,0,0,0,0,0,-1,1147,519,0,0
-70,505,0,0,0,0,0,0,0,0,0,-1,1154,519,0,0
-63,505,0,0,0,0,0,0,0,0,0,-1,1161,519,0,0
-56,505,0,0,0,0,0,0,0,0,0,-1,1168,519,0,0
-49,505,0,0,0,0,0,0,0,0,0,-1,1175,519,0,0
-42,505,0,0,0,0,0,0,0,0,0,-1,1182,519,0,0
-35,505,0,0,0,0,0,0,0,0,0,-1,1189,519,0,0
-28,505,0,0,0,0,0,0,0,0,0,-1,1196,519,0,0
-21,505,0,0,0,0,0,0,0,0,0,-1,1203,519,0,0
-14,505,0,0,0,0,0,0,0,0,0,-1,1210,519,0,0
-7,505,0,0,0,0,0,0,0,0,0,-1,1217,519,0,0
0,505,0,0,0,0,0,0,0,0,0,-1,1224,519,0,0
7,505,0,0,0,0,0,0,0,0,0,-1,1231,519,0,0
14,505,0,0,0,0,0,0,0,0,0,-1,1238,519,0,0
21,505,0,0,0,0,0,0,0,0,0,-1,1245,519,0,0
28,505,0,0,0,0,0,0,0,0,0,-1,1252,519,0,0
35,505,0,0,0,0,0,0,0,0,0,-1,1259,519,0,0
42,505,0,0,0,0,0,0,0,0,0,-1,1266,519,0,0
49,505,0,0,0,0,0,0,0,0,0,-1,1273,519,0,0
56,505,0,0,0,0,0,0,0,0,0,-1,1280,519,0,0
63,505,0,0,0,0,0,0,0,0,0,-1,1287,519,0,0
70,505,0,0,0,0,0,0,0,0,0,-1,1294,519,0,0
77,505,0,0,0,0,0,0,0,0,0,-1,1301,519,0,0
84,505,0,0,0,0,0,0,0,0,0,-1,1308,519,0,0
91,505,0,0,0,0,0,0,0,0,0,-1,1315,519,0,0
98,505,0,0,0,0,0,0,0,0,0,-1,1322,519,0,0
105,505,0,0,0,0,0,0,0,0,0,-1,1329,519,0,0
112,505,0,0,0,0,0,0,0,0,0,-1,1336,519,0,0
119,505,0,0,0,0,0,0,0,0,0,-1,1343,519,0,0
126,505,0,0,0,0,0,0,0,0,0,-1,1350,519,0,0
133,505,0,0,0,0,0,0,0,0,0,-1,1357,519,0,0
140,505,0,0,0,0,0,0,0,0,0,-1,1364,519,0,0
147,505,0,0,0,0,0,0,0,0,0,-1,1371,519,0,0
154,505,0,0,0,0,0,0,0,0,0,-1,1378,519,0,0
161,505,0,0,0,0,0,0,0,0,0,-1,1385,519,0,0
168,505,0,0,0,0,0,0,0,0,0,-1,1392,519,0,0
175,505,0,0,0,0,0,0,0,0,0,-1,1399,519,0,0
182,505,0,0,0,0,0,0,0,0,0,-1,1406,519,0,0
189,505,0,0,0,0,0,0,0,0,0,-1,1413,519,0,0
196,505,0,0,0,0,0,0,0,0,0,-1,1420,519,0,0
203,505,0,0,0,0,0,0,0,0,0,-1,1427,519,0,0
210,505,0,0,0,0,0,0,0,0,0,-1,1434,519,0,0
217,505,0,0,0,0,0,0,0,0,0,-1,1441,519,0,0
224,505,0,0,0,0,0,0,0,0,0,-1,1448,519,0,0
231,505,0,0,0,0,0,0,0,0,0,-1,1455,519,0,0
238,505,0,0,0,0,0,0,0,0,0,-1,1462,519,0,0
245,505,0,0,0,0,0,0,0,0,0,-1,1469,519,0,0
252,505,0,0,0,0,0,0,0,0,0,-1,1476,519,0,0
259,505,0,0,0,0,0,0,0,0,0,-1,1483,519,0,0
266,505,0,0,0,0,0,0,0,0,0,-1,1490,519,0,0
273,505,0,0,0,0,0,0,0,0,0,-1,1497,519,0,0
280,505,0,0,0,0,0,0,0,0,0,-1,1504,519,0,0
287,505,4.39478,0.499512,0,0,0,0,0,0,0,-1,1511,519,4.39476,-0.499506
294,505,4.88867,0.0822754,0,0,0,0,0,0,0,-1,1518,519,4.88871,-0.0822748
301,505,4.82153,-0.0704346,0,0,0,0,0,0,0,-1,1525,519,4.82156,0.0704312
308,505,4.67761,-0.29187,0,0,0,0,0,0,0,-1,1532,519,4.67762,0.291845
315,505,8.44055,-6.54352,0,0,0,0,0,0,0,-1,1539,519,8.44059,6.54349
322,505,4.78955,-0.594116,0,0,0,0,0,0,0,-1,1546,519,4.78957,0.594096
329,505,5.16321,0.434631,0,0,0,0,0,0,0,-1,1553,519,5.16316,-0.434614
336,505,4.94495,-0.920471,0,0,0,0,0,0,0,-1,1560,519,4.945,0.920495
343,505,5.01855,-1.4823,0,0,0,0,0,0,0,-1,1567,519,5.01851,1.48227
350,505,5.33154,-1.77838,0,0,0,0,0,0,0,-1,1574,519,5.33152,1.77838
357,505,5.56567,-1.9425,0,0,0,0,0,0,0,-1,1581,519,5.56562,1.94248
364,505,5.85205,-2.6579,0,0,0,0,0,0,0,-1,1588,519,5.85211,2.65788
371,505,5.88477,-7.00922,0,0,0,0,0,0,0,-1,1595,519,5.88473,7.00924
378,505,5.44104,-7.10162,0,0,0,0,0,0,0,-1,1602,519,5.44099,7.10162
385,505,6.64661,-8.65015,0,0,0,0,0,0,0,-1,1609,519,6.64662,8.65014
392,505,6.34558,-8.3429,0,0,0,0,0,0,0,-1,1616,519,6.34554,8.34288
399,505,7.45898,-9.70386,0,0,0,0,0,0,0,-1,1623,519,7.45899,9.70388
406,505,7.08679,-9.4928,0,0,0,0,0,0,0,-1,1630,519,7.08678,9.49278
413,505,8.4032,-14.0308,0,0,0,0,0,0,0,-1,1637,519,8.4032,14.0308
420,505,9.23291,-15.3545,0,0,0,0,0,0,0,-1,1644,519,9.23286,15.3545
427,505,9.29248,-14.8467,-0.00545043,-0.00673265,-0.00681349,0.000752047,-0.0129351,-0.738489,0.00888471,0.0222016,1651,519,9.2925,14.8467
434,505,9.27661,-14.3661,-0.00445414,-0.00533471,-0.00555435,0.00067735,-0.0104662,-0.745847,0.00721385,0.0111202,1658,519,9.27663,14.3661
441,505,9.28186,-13.9368,-0.00340362,-0.00401342,-0.00431382,0.000616067,-0.0080331,-0.750117,0.00557212,0.0108344,1665,519,9.2819,13.9369
448,505,9.26917,-13.5446,-0.0023442,-0.00284472,-0.00312717,0.000542705,-0.00573163,-0.745469,0.00401424,0.0107903,1672,519,9.26916,13.5445
455,505,9.25842,-13.1561,-0.0014252,-0.00188317,-0.0021023,0.000460543,-0.00376892,-0.731152,0.00267935,0.0109057,1679,519,9.25847,13.1561
462,505,9.23877,-12.7653,-0.000659373,-0.0011596,-0.00124633,0.000361695,-0.00218067,-0.686374,0.00158813,0.0105277,1686,519,9.2388,12.7653
469,505,9.24316,-12.3503,-7.71316e-05,-0.000695948,-0.000462747,0.000170118,-0.000943198,-0.490717,0.000692505,0.0105833,1693,519,9.24316,12.3503
476,505,9.24365,-11.9489,0.000194215,-0.000483811,0.000151476,0.000226517,-0.000516113,0.210101,0.00043949,0.010667,1700,519,9.24362,11.9488
483,505,9.23889,-11.5363,0.000368044,-0.000449263,0.000685524,0.000757476,-0.000838695,0.516618,0.000921947,0.0118937,1707,519,9.23891,11.5363
490,505,9.24414,-11.1171,0.000166654,-0.000636856,0.00105298,0.000891923,-0.00136212,0.603153,0.00131078,0.0113939,1714,519,9.24413,11.1171
497,505,9.23218,-10.7053,-0.000349329,-0.00118336,0.0012558,0.000556888,-0.00208958,0.625091,0.00161109,0.0116813,1721,519,9.23219,10.7053
504,505,9.2085,-10.2692,-0.00107919,-0.00183505,0.00139066,-1.60196e-05,-0.00289822,0.65272,0.00192683,0.0132454,1728,519,9.20848,10.2692
511,505,9.20044,-9.8385,-0.00207928,-0.00251004,0.00150181,-0.000777484,-0.00381183,0.714176,0.00232579,0.0145618,1735,519,9.20047,9.83853
518,505,9.26172,-9.41919,-0.0033656,-0.00320349,0.0015299,-0.0017525,-0.00481659,0.811863,0.00281502,0.0205312,1742,519,9.26168,9.41917
525,505,9.05078,-8.96393,-0.0049072,-0.00400049,0.00144249,-0.00294179,-0.0059659,0.937654,0.00344453,0.0366163,1749,519,9.05074,8.96392
532,505,8.76282,-8.63477,0,0,0,0,0,0,0,-1,1756,519,8.76288,8.63476
539,505,7.90369,-7.11932,0,0,0,0,0,0,0,-1,1763,519,7.90373,7.11932
546,505,7.94946,-6.64539,0,0,0,0,0,0,0,-1,1770,519,7.94947,6.64539
553,505,2.82837,0.162659,0,0,0,0,0,0,0,-1,1777,519,2.82841,-0.162672
560,505,3.66223,-0.479797,0,0,0,0,0,0,0,-1,1784,519,3.66219,0.47982
567,505,4.65271,-0.950256,0,0,0,0,0,0,0,-1,1791,519,4.65274,0.95028
574,505,5.54443,-1.19977,0,0,0,0,0,0,0,-1,1798,519,5.54443,1.19974
581,505,0,0,0,0,0,0,0,0,0,-1,1805,519,0,0
588,505,0,0,0,0,0,0,0,0,0,-1,1812,519,0,0
595,505,0,0,0,0,0,0,0,0,0,-1,1819,519,0,0
602,505,0,0,0,0,0,0,0,0,0,-1,1826,519,0,0
609,505,0,0,0,0,0,0,0,0,0,-1,1833,519,0,0
616,505,0,0,0,0,0,0,0,0,0,-1,1840,519,0,0
623,505,0,0,0,0,0,0,0,0,0,-1,1847,519,0,0
630,505,0,0,0,0,0,0,0,0,0,-1,1854,519,0,0
637,505,0,0,0,0,0,0,0,0,0,-1,1861,519,0,0
644,505,0,0,0,0,0,0,0,0,0,-1,1868,519,0,0
651,505,0,0,0,0,0,0,0,0,0,-1,1875,519,0,0
658,505,0,0,0,0,0,0,0,0,0,-1,1882,519,0,0
665,505,0,0,0,0,0,0,0,0,0,-1,1889,519,0,0
672,505,0,0,0,0,0,0,0,0,0,-1,1896,519,0,0
679,505,0,0,0,0,0,0,0,0,0,-1,1903,519,0,0
686,505,0,0,0,0,0,0,0,0,0,-1,1910,519,0,0
693,505,0,0,0,0,0,0,0,0,0,-1,1917,519,0,0
700,505,0,0,0,0,0,0,0,0,0,-1,1924,519,0,0
707,505,0,0,0,0,0,0,0,0,0,-1,1931,519,0,0
714,505,0,0,0,0,0,0,0,0,0,-1,1938,519,0,0
721,505,0,0,0,0,0,0,0,0,0,-1,1945,519,0,0
728,505,0,0,0,0,0,0,0,0,0,-1,1952,519,0,0
735,505,0,0,0,0,0,0,0,0,0,-1,1959,519,0,0
742,505,0,0,0,0,0,0,0,0,0,-1,1966,519,0,0
749,505,0,0,0,0,0,0,0,0,0,-1,1973,519,0,0
756,505,0,0,0,0,0,0,0,0,0,-1,1980,519,0,0
763,505,0,0,0,0,0,0,0,0,0,-1,1987,519,0,0
770,505,0,0,0,0,0,0,0,0,0,-1,1994,519,0,0
777,505,0,0,0,0,0,0,0,0,0,-1,2001,519,0,0
784,505,0,0,0,0,0,0,0,0,0,-1,2008,519,0,0
791,505,0,0,0,0,0,0,0,0,0,-1,2015,519,0,0
798,505,0,0,0,0,0,0,0,0,0,-1,2022,519,0,0
805,505,0,0,0,0,0,0,0,0,0,-1,2029,519,0,0
812,505,0,0,0,0,0,0,0,0,0,-1,2036,519,0,0
-700,498,0,0,0,0,0,0,0,0,0,-1,524,526,0,0
-693,498,0,0,0,0,0,0,0,0,0,-1,531,526,0,0
-686,498,0,0,0,0,0,0,0,0,0,-1,538,526,0,0
-679,498,0,0,0,0,0,0,0,0,0,-1,545,526,0,0
-672,498,0,0,0,0,0,0,0,0,0,-1,552,526,0,0
-665,498,0,0,0,0,0,0,0,0,0,-1,559,526,0,0
-658,498,0,0,0,0,0,0,0,0,0,-1,566,526,0,0
-651,498,0,0,0,0,0,0,0,0,0,-1,573,526,0,0
-644,498,0,0,0,0,0,0,0,0,0,-1,580,526,0,0
-637,498,0,0,0,0,0,0,0,0,0,-1,587,526,0,0
-630,498,0,0,0,0,0,0,0,0,0,-1,594,526,0,0
-623,498,0,0,0,0,0,0,0,0,0,-1,601,526,0,0
-616,498,0,0,0,0,0,0,0,0,0,-1,608,526,0,0
-609,498,0,0,0,0,0,0,0,0,0,-1,615,526,0,0
-602,498,0,0,0,0,0,0,0,0,0,-1,622,526,0,0
-595,498,0,0,0,0,0,0,0,0,0,-1,629,526,0,0
-588,498,0,0,0,0,0,0,0,0,0,-1,636,526,0,0
-581,498,0,0,0,0,0,0,0,0,0,-1,643,526,0,0
-574,498,0,0,0,0,0,0,0,0,0,-1,650,526,0,0
-567,498,0,0,0,0,0,0,0,0,0,-1,657,526,0,0
-560,498,0,0,0,0,0,0,0,0,0,-1,664,526,0,0
-553,498,0,0,0,0,0,0,0,0,0,-1,671,526,0,0
-546,498,0,0,0,0,0,0,0,0,0,-1,678,526,0,0
-539,498,0,0,0,0,0,0,0,0,0,-1,685,526,0,0
-532,498,0,0,0,0,0,0,0,0,0,-1,692,526,0,0
-525,498,0,0,0,0,0,0,0,0,0,-1,699,526,0,0
-518,498,0,0,0,0,0,0,0,0,0,-1,706,526,0,0
-511,498,0,0,0,0,0,0,0,0,0,-1,713,526,0,0
-504,498,0,0,0,0,0,0,0,0,0,-1,720,526,0,0
-497,498,0,0,0,0,0,0,0,0,0,-1,727,526,0,0
-490,498,0,0,0,0,0,0,0,0,0,-1,734,526,0,0
-483,498,0,0,0,0,0,0,0,0,0,-1,741,526,0,0
-476,498,0,0,0,0,0,0,0,0,0,-1,748,526,0,0
-469,498,0,0,0,0,0,0,0,0,0,-1,755,526,0,0
-462,498,6.81024,1.15515,0,0,0,0,0,0,0,-1,762,526,6.81026,-1.15514
-455,498,3.25757,-3.0592,0,0,0,0,0,0,0,-1,769,526,3.25754,3.05921
-448,498,3.05939,-3.74298,0,0,0,0,0,0,0,-1,776,526,3.05939,3.74296
-441,498,2.77191,-6.08209,0,0,0,0,0,0,0,-1,783,526,2.77189,6.08207
-434,498,2.10681,-6.95929,0,0,0,0,0,0,0,-1,790,526,2.10682,6.9593
-427,498,-0.342224,-6.47314,0,0,0,0,0,0,0,-1,797,526,-0.342207,6.47314
-420,498,-0.675293,-6.72467,0,0,0,0,0,0,0,-1,804,526,-0.675275,6.72468
-413,498,-2.03192,-9.00494,0,0,0,0,0,0,0,-1,811,526,-2.03189,9.00491
-406,498,-1.8772,-10.0212,0,0,0,0,0,0,0,-1,818,526,-1.87721,10.0212
-399,498,-1.8006,-10.3868,-0.0016463,0.00568918,-0.00307172,0.00680556,-0.00276268,-1.2222,0.00568622,0.0247679,825,526,-1.80062,10.3868
-392,498,-1.83356,-10.9111,-0.00101125,0.00420862,-0.00266163,0.00532642,-0.00212906,-1.17319,0.00443441,0.0117456,832,526,-1.83357,10.9111
-385,498,-1.84967,-11.3254,-0.000377145,0.00306411,-0.00224361,0.00417091,-0.00148395,-1.11251,0.00338546,0.00834021,839,526,-1.8497,11.3254
-378,498,-1.85205,-11.7264,0.000169655,0.00222359,-0.00192127,0.00337514,-0.000981895,-1.03084,0.002639,0.0106971,846,526,-1.85205,11.7264
-371,498,-1.84894,-12.1448,0.000487489,0.00146629,-0.00159413,0.00264445,-0.00069067,-0.934333,0.00203269,0.016777,853,526,-1.84891,12.1448
-364,498,-1.87201,-12.5577,0.000685196,0.000787291,-0.00121668,0.00195399,-0.000481505,-0.806364,0.00148934,0.0159622,860,526,-1.87202,12.5577
-357,498,-1.86554,-12.9417,0.000889643,0.00036273,-0.000894757,0.00155892,-0.000306552,-0.642222,0.00115511,0.0110106,867,526,-1.86555,12.9416
-350,498,-1.89001,-13.3341,0.00109663,8.71836e-05,-0.000668272,0.00142936,-0.000245549,-0.461967,0.00104442,0.0108792,874,526,-1.88999,13.3341
-343,498,-1.89923,-13.7041,0.00125315,-0.000192969,-0.000446452,0.00137988,-0.000319695,-0.276575,0.00104294,0.0111042,881,526,-1.89921,13.7041
-336,498,-1.88934,-14.0892,0.00144352,-0.000420195,-0.000231124,0.00147175,-0.000448429,-0.12156,0.00115991,0.013845,888,526,-1.88936,14.0892
-329,498,-1.87939,-14.4498,0.00176902,-0.000581295,-0.000114248,0.00177456,-0.000586836,-0.0484574,0.00141967,0.020015,895,526,-1.87938,14.4498
-322,498,-1.90009,-14.8557,0.00208456,-0.0006605,-1.77264e-05,0.00208468,-0.000660615,-0.00645719,0.00165455,0.022417,902,526,-1.90007,14.8557
-315,498,-1.92615,-15.2332,0.00245798,-0.000724292,6.65148e-05,0.00245937,-0.000725681,0.0208895,0.00192756,0.017328,909,526,-1.92615,15.2332
-308,498,-1.91144,-15.5923,0.00301192,-0.000896565,0.000178169,0.00302003,-0.000904671,0.0454595,0.0023731,0.0215231,916,526,-1.91143,15.5923
-301,498,-1.83087,-16.0469,0.00348696,-0.00107333,0.000493818,0.00353982,-0.00112619,0.10664,0.00281149,0.0409442,923,526,-1.83088,16.0469
-294,498,-1.77789,-16.514,0,0,0,0,0,0,0,-1,930,526,-1.77787,16.514
-287,498,-0.91394,-13.4327,0,0,0,0,0,0,0,-1,937,526,-0.913935,13.4327
-280,498,-0.341614,-8.66608,0,0,0,0,0,0,0,-1,944,526,-0.341589,8.66606
-273,498,-0.988892,-8.62921,0,0,0,0,0,0,0,-1,951,526,-0.988906,8.62922
-266,498,0.362488,-6.33545,0,0,0,0,0,0,0,-1,958,526,0.362478,6.33547
-259,498,10.9454,-17.3615,0,0,0,0,0,0,0,-1,965,526,10.9454,17.3614
-252,498,8.56586,-14.6886,0,0,0,0,0,0,0,-1,972,526,8.56584,14.6886
-245,498,5.97382,-11.928,0,0,0,0,0,0,0,-1,979,526,5.97381,11.928
-238,498,2.24841,-13.8145,0,0,0,0,0,0,0,-1,986,526,2.24838,13.8145
-231,498,0.665894,-10.4898,0,0,0,0,0,0,0,-1,993,526,0.665863,10.4898
-224,498,-2.11243,-4.76312,0,0,0,0,0,0,0,-1,1000,526,-2.11245,4.76314
-217,498,-3.82239,-1.42841,0,0,0,0,0,0,0,-1,1007,526,-3.82241,1.42843
-210,498,-1.80591,-0.358215,0,0,0,0,0,0,0,-1,1014,526,-1.8059,0.3582
-203,498,-3.17316,1.06641,0,0,0,0,0,0,0,-1,1021,526,-3.17313,-1.0664
-196,498,-0.103271,5.40527,0,0,0,0,0,0,0,-1,1028,526,-0.103285,-5.40528
-189,498,3.00256,6.47137,0,0,0,0,0,0,0,-1,1035,526,3.00256,-6.47139
-182,498,0,0,0,0,0,0,0,0,0,-1,1042,526,0,0
-175,498,0,0,0,0,0,0,0,0,0,-1,1049,526,0,0
-168,498,0,0,0,0,0,0,0,0,0,-1,1056,526,0,0
-161,498,0,0,0,0,0,0,0,0,0,-1,1063,526,0,0
-154,498,0,0,0,0,0,0,0,0,0,-1,1070,526,0,0
-147,498,0,0,0,0,0,0,0,0,0,-1,1077,526,0,0
-140,498,0,0,0,0,0,0,0,0,0,-1,1084,526,0,0
-133,498,0,0,0,0,0,0,0,0,0,-1,1091,526,0,0
-126,498,0,0,0,0,0,0,0,0,0,-1,1098,526,0,0
-119,498,0,0,0,0,0,0,0,0,0,-1,1105,526,0,0
-112,498,0,0,0,0,0,0,0,0,0,-1,1112,526,0,0
-105,498,0,0,0,0,0,0,0,0,0,-1,1119,526,0,0
-98,498,0,0,0,0,0,0,0,0,0,-1,1126,526,0,0
-91,498,0,0,0,0,0,0,0,0,0,-1,1133,526,0,0
-84,498,0,0,0,0,0,0,0,0,0,-1,1140,526,0,0
-77,498,0,0,0,0,0,0,0,0,0,-1,1147,526,0,0
-70,498,0,0,0,0,0,0,0,0,0,-1,1154,526,0,0
-63,498,0,0,0,0,0,0,0,0,0,-1,1161,526,0,0
-56,498,0,0,0,0,0,0,0,0,0,-1,1168,526,0,0
-49,498,0,0,0,0,0,0,0,0,0,-1,1175,526,0,0
-42,498,0,0,0,0,0,0,0,0,0,-1,1182,526,0,0
-35,498,0,0,0,0,0,0,0,0,0,-1,1189,526,0,0
-28,498,0,0,0,0,0,0,0,0,0,-1,1196,526,0,0
-21,498,0,0,0,0,0,0,0,0,0,-1,1203,526,0,0
-14,498,0,0,0,0,0,0,0,0,0,-1,1210,526,0,0
-7,498,0,0,0,0,0,0,0,0,0,-1,1217,526,0,0
0,498,0,0,0,0,0,0,0,0,0,-1,1224,526,0,0
7,498,0,0,0,0,0,0,0,0,0,-1,1231,526,0,0
14,498,0,0,0,0,0,0,0,0,0,-1,1238,526,0,0
21,498,0,0,0,0,0,0,0,0,0,-1,1245,526,0,0
28,498,0,0,0,0,0,0,0,0,0,-1,1252,526,0,0
35,498,0,0,0,0,0,0,0,0,0,-1,1259,526,0,0
42,498,0,0,0,0,0,0,0,0,0,-1,1266,526,0,0
49,498,0,0,0,0,0,0,0,0,0,-1,1273,526,0,0
56,498,0,0,0,0,0,0,0,0,0,-1,1280,526,0,0
63,498,0,0,0,0,0,0,0,0,0,-1,1287,526,0,0
70,498,0,0,0,0,0,0,0,0,0,-1,1294,526,0,0
77,498,0,0,0,0,0,0,0,0,0,-1,1301,526,0,0
84,498,0,0,0,0,0,0,0,0,0,-1,1308,526,0,0
91,498,0,0,0,0,0,0,0,0,0,-1,1315,526,0,0
98,498,0,0,0,0,0,0,0,0,0,-1,1322,526,0,0
105,498,0,0,0,0,0,0,0,0,0,-1,1329,526,0,0
112,498,0,0,0,0,0,0,0,0,0,-1,1336,526,0,0
119,498,0,0,0,0,0,0,0,0,0,-1,1343,526,0,0
126,498,0,0,0,0,0,0,0,0,0,-1,1350,526,0,0
133,498,0,0,0,0,0,0,0,0,0,-1,1357,526,0,0
140,498,0,0,0,0,0,0,0,0,0,-1,1364,526,0,0
147,498,0,0,0,0,0,0,0,0,0,-1,1371,526,0,0
154,498,0,0,0,0,0,0,0,0,0,-1,1378,526,0,0
161,498,0,0,0,0,0,0,0,0,0,-1,1385,526,0,0
168,498,0,0,0,0,0,0,0,0,0,-1,1392,526,0,0
175,498,0,0,0,0,0,0,0,0,0,-1,1399,526,0,0
182,498,0,0,0,0,0,0,0,0,0,-1,1406,526,0,0
189,498,0,0,0,0,0,0,0,0,0,-1,1413,526,0,0
196,498,0,0,0,0,0,0,0,0,0,-1,1420,526,0,0
203,498,0,0,0,0,0,0,0,0,0,-1,1427,526,0,0
210,498,0,0,0,0,0,0,0,0,0,-1,1434,526,0,0
217,498,0,0,0,0,0,0,0,0,0,-1,1441,526,0,0
224,498,0,0,0,0,0,0,0,0,0,-1,1448,526,0,0
231,498,0,0,0,0,0,0,0,0,0,-1,1455,526,0,0
238,498,0,0,0,0,0,0,0,0,0,-1,1462,526,0,0
245,498,0,0,0,0,0,0,0,0,0,-1,1469,526,0,0
252,498,0,0,0,0,0,0,0,0,0,-1,1476,526,0,0
259,498,0,0,0,0,0,0,0,0,0,-1,1483,526,0,0
266,498,0,0,0,0,0,0,0,0,0,-1,1490,526,0,0
273,498,0,0,0,0,0,0,0,0,0,-1,1497,526,0,0
280,498,0,0,0,0,0,0,0,0,0,-1,1504,526,0,0
287,498,0,0,0,0,0,0,0,0,0,-1,1511,526,0,0
294,498,0,0,0,0,0,0,0,0,0,-1,1518,526,0,0
301,498,0,0,0,0,0,0,0,0,0,-1,1525,526,0,0
308,498,4.77942,-0.293884,0,0,0,0,0,0,0,-1,1532,526,4.77939,0.293899
315,498,4.56091,-0.564148,0,0,0,0,0,0,0,-1,1539,526,4.56097,0.564142
322,498,4.52344,-0.447266,0,0,0,0,0,0,0,-1,1546,526,4.52341,0.447295
329,498,4.63232,-0.156982,0,0,0,0,0,0,0,-1,1553,526,4.63238,0.156991
336,498,5.22644,0.0925903,0,0,0,0,0,0,0,-1,1560,526,5.22648,-0.0926188
343,498,6.22607,-1.67615,0,0,0,0,0,0,0,-1,1567,526,6.22605,1.67617
350,498,6.19373,-1.59906,0,0,0,0,0,0,0,-1,1574,526,6.19367,1.59906
357,498,6.21472,-1.58929,0,0,0,0,0,0,0,-1,1581,526,6.21476,1.58927
364,498,5.73547,-1.2019,0,0,0,0,0,0,0,-1,1588,526,5.73547,1.20192
371,498,3.27087,-4.55334,0,0,0,0,0,0,0,-1,1595,526,3.27089,4.55332
378,498,8.42944,-4.70624,0,0,0,0,0,0,0,-1,1602,526,8.42942,4.70624
385,498,4.7793,-5.15314,0,0,0,0,0,0,0,-1,1609,526,4.77935,5.15311
392,498,9.12439,-8.57953,0,0,0,0,0,0,0,-1,1616,526,9.12443,8.57955
399,498,7.98938,-9.46021,0,0,0,0,0,0,0,-1,1623,526,7.98936,9.4602
406,498,7.58081,-9.26819,0,0,0,0,0,0,0,-1,1630,526,7.58085,9.26817
413,498,7.17236,-9.07611,0,0,0,0,0,0,0,-1,1637,526,7.17234,9.07614
420,498,10.8397,-14.9642,0,0,0,0,0,0,0,-1,1644,526,10.8398,14.9642
427,498,10.2562,-14.5659,-0.00850565,-0.00996565,-0.00978512,0.000576661,-0.019048,-0.748166,0.0128952,0.0480437,1651,526,10.2562,14.5659
434,498,9.66858,-14.3225,-0.00668777,-0.00767989,-0.00779832,0.000630252,-0.0149979,-0.753635,0.0102152,0.0220257,1658,526,9.66864,14.3225
441,498,9.68604,-13.9235,-0.00496672,-0.00565033,-0.00599141,0.00069263,-0.0113097,-0.756904,0.00778094,0.00929912,1665,526,9.68607,13.9235
448,498,9.68909,-13.5181,-0.00336904,-0.00389063,-0.00433318,0.000711185,-0.00797085,-0.755341,0.00556613,0.00974281,1672,526,9.68914,13.5181
455,498,9.6748,-13.1343,-0.00203232,-0.00245739,-0.00295079,0.000713579,-0.00520328,-0.749447,0.00372954,0.0133802,1679,526,9.67483,13.1343
462,498,9.67041,-12.7521,-0.000966814,-0.00136204,-0.00186436,0.00071038,-0.00303923,-0.732598,0.00229981,0.0159813,1686,526,9.67037,12.7522
469,498,9.65735,-12.3588,-0.000152006,-0.000640235,-0.00092872,0.000564147,-0.00135639,-0.65688,0.00113983,0.014127,1693,526,9.65739,12.3587
476,498,9.66089,-11.9503,0.000281128,-0.000248466,-0.000206747,0.00035228,-0.000319618,-0.331454,0.000388074,0.0100842,1700,526,9.66088,11.9503
483,498,9.65112,-11.5338,0.000623233,-3.21723e-05,0.000433779,0.000839179,-0.000248118,0.461905,0.000657942,0.00846583,1707,526,9.65109,11.5338
490,498,9.63416,-11.117,0.000517968,3.33783e-05,0.000843127,0.00115292,-0.000601578,0.64548,0.0010295,0.0101924,1714,526,9.63414,11.117
497,498,9.63354,-10.6824,2.60324e-05,-0.000396856,0.00101136,0.000847816,-0.00121864,0.682348,0.00119945,0.0123109,1721,526,9.63356,10.6824
504,498,9.64014,-10.2586,-0.00068397,-0.000955704,0.00106628,0.000255063,-0.00189474,0.722029,0.0013562,0.0156861,1728,526,9.64012,10.2586
511,498,9.63318,-9.82941,-0.00164286,-0.0015244,0.00107357,-0.000508422,-0.00265884,0.812954,0.00162974,0.0166289,1735,526,9.63318,9.82938
518,498,9.66382,-9.40033,-0.00285483,-0.00208191,0.000982638,-0.00141247,-0.00352427,0.972753,0.00204805,0.016018,1742,526,9.66384,9.40035
525,498,9.56555,-8.97742,-0.00423557,-0.00274917,0.000786363,-0.00241038,-0.00457436,1.16399,0.00264229,0.0270913,1749,526,9.56557,8.97743
532,498,9.35718,-8.60968,-0.00576775,-0.00337373,0.000556292,-0.00325078,-0.0058907,1.35328,0.00340709,0.0444145,1756,526,9.35712,8.60966
539,498,9.37695,-8.26599,0,0,0,0,0,0,0,-1,1763,526,9.37698,8.26602
546,498,9.44812,-7.36108,0,0,0,0,0,0,0,-1,1770,526,9.4481,7.36109
553,498,5.93958,-1.71448,0,0,0,0,0,0,0,-1,1777,526,5.93956,1.71447
560,498,3.69385,-0.615112,0,0,0,0,0,0,0,-1,1784,526,3.69381,0.615118
567,498,5.12695,-0.581604,0,0,0,0,0,0,0,-1,1791,526,5.12699,0.58159
574,498,3.88,0.0286255,0,0,0,0,0,0,0,-1,1798,526,3.87999,-0.0286535
581,498,10.8722,2.58551,0,0,0,0,0,0,0,-1,1805,526,10.8723,-2.58551
588,498,0,0,0,0,0,0,0,0,0,-1,1812,526,0,0
595,498,0,0,0,0,0,0,0,0,0,-1,1819,526,0,0
602,498,0,0,0,0,0,0,0,0,0,-1,1826,526,0,0
609,498,0,0,0,0,0,0,0,0,0,-1,1833,526,0,0
616,498,0,0,0,0,0,0,0,0,0,-1,1840,526,0,0
623,498,0,0,0,0,0,0,0,0,0,-1,1847,526,0,0
630,498,0,0,0,0,0,0,0,0,0,-1,1854,526,0,0
637,498,0,0,0,0,0,0,0,0,0,-1,1861,526,0,0
644,498,0,0,0,0,0,0,0,0,0,-1,1868,526,0,0
651,498,0,0,0,0,0,0,0,0,0,-1,1875,526,0,0
658,498,0,0,0,0,0,0,0,0,0,-1,1882,526,0,0
665,498,0,0,0,0,0,0,0,0,0,-1,1889,526,0,0
672,498,0,0,0,0,0,0,0,0,0,-1,1896,526,0,0
679,498,0,0,0,0,0,0,0,0,0,-1,1903,526,0,0
686,498,0,0,0,0,0,0,0,0,0,-1,1910,526,0,0
693,498,0,0,0,0,0,0,0,0,0,-1,1917,526,0,0
700,498,0,0,0,0,0,0,0,0,0,-1,1924,526,0,0
707,498,0,0,0,0,0,0,0,0,0,-1,1931,526,0,0
714,498,0,0,0,0,0,0,0,0,0,-1,1938,526,0,0
721,498,0,0,0,0,0,0,0,0,0,-1,1945,526,0,0
728,498,0,0,0,0,0,0,0,0,0,-1,1952,526,0,0
735,498,0,0,0,0,0,0,0,0,0,-1,1959,526,0,0
742,498,0,0,0,0,0,0,0,0,0,-1,1966,526,0,0
749,498,0,0,0,0,0,0,0,0,0,-1,1973,526,0,0
756,498,0,0,0,0,0,0,0,0,0,-1,1980,526,0,0
763,498,0,0,0,0,0,0,0,0,0,-1,1987,526,0,0
770,498,0,0,0,0,0,0,0,0,0,-1,1994,526,0,0
777,498,0,0,0,0,0,0,0,0,0,-1,2001,526,0,0
784,498,0,0,0,0,0,0,0,0,0,-1,2008,526,0,0
791,498,0,0,0,0,0,0,0,0,0,-1,2015,526,0,0
798,498,0,0,0,0,0,0,0,0,0,-1,2022,526,0,0
805,498,0,0,0,0,0,0,0,0,0,-1,2029,526,0,0
812,498,0,0,0,0,0,0,0,0,0,-1,2036,526,0,0
-700,491,0,0,0,0,0,0,0,0,0,-1,524,533,0,0
-693,491,0,0,0,0,0,0,0,0,0,-1,531,533,0,0
-686,491,0,0,0,0,0,0,0,0,0,-1,538,533,0,0
-679,491,0,0,0,0,0,0,0,0,0,-1,545,533,0,0
-672,491,0,0,0,0,0,0,0,0,0,-1,552,533,0,0
-665,491,0,0,0,0,0,0,0,0,0,-1,559,533,0,0
-658,491,0,0,0,0,0,0,0,0,0,-1,566,533,0,0
-651,491,0,0,0,0,0,0,0,0,0,-1,573,533,0,0
-644,491,0,0,0,0,0,0,0,0,0,-1,580,533,0,0
-637,491,0,0,0,0,0,0,0,0,0,-1,587,533,0,0
-630,491,0,0,0,0,0,0,0,0,0,-1,594,533,0,0
-623,491,0,0,0,0,0,0,0,0,0,-1,601,533,0,0
-616,491,0,0,0,0,0,0,0,0,0,-1,608,533,0,0
-609,491,0,0,0,0,0,0,0,0,0,-1,615,533,0,0
-602,491,0,0,0,0,0,0,0,0,0,-1,622,533,0,0
-595,491,0,0,0,0,0,0,0,0,0,-1,629,533,0,0
-588,491,0,0,0,0,0,0,0,0,0,-1,636,533,0,0
-581,491,0,0,0,0,0,0,0,0,0,-1,643,533,0,0
-574,491,0,0,0,0,0,0,0,0,0,-1,650,533,0,0
-567,491,0,0,0,0,0,0,0,0,0,-1,657,533,0,0
-560,491,0,0,0,0,0,0,0,0,0,-1,664,533,0,0
-553,491,0,0,0,0,0,0,0,0,0,-1,671,533,0,0
-546,491,0,0,0,0,0,0,0,0,0,-1,678,533,0,0
-539,491,0,0,0,0,0,0,0,0,0,-1,685,533,0,0
-532,491,0,0,0,0,0,0,0,0,0,-1,692,533,0,0
-525,491,0,0,0,0,0,0,0,0,0,-1,699,533,0,0
-518,491,0,0,0,0,0,0,0,0,0,-1,706,533,0,0
-511,491,0,0,0,0,0,0,0,0,0,-1,713,533,0,0
-504,491,0,0,0,0,0,0,0,0,0,-1,720,533,0,0
-497,491,0,0,0,0,0,0,0,0,0,-1,727,533,0,0
-490,491,0,0,0,0,0,0,0,0,0,-1,734,533,0,0
-483,491,0,0,0,0,0,0,0,0,0,-1,741,533,0,0
-476,491,0,0,0,0,0,0,0,0,0,-1,748,533,0,0
-469,491,-5.85913,4.55011,0,0,0,0,0,0,0,-1,755,533,-5.8591,-4.55009
-462,491,-9.93713,4.90381,0,0,0,0,0,0,0,-1,762,533,-9.93716,-4.9038
-455,491,1.9494,-0.27887,0,0,0,0,0,0,0,-1,769,533,1.94941,0.27885
-448,491,2.68909,-1.8999,0,0,0,0,0,0,0,-1,776,533,2.6891,1.89988
-441,491,3.46069,-3.51855,0,0,0,0,0,0,0,-1,783,533,3.46071,3.51854
-434,491,2.67145,-7.44061,0,0,0,0,0,0,0,-1,790,533,2.67146,7.44061
-427,491,2.27136,-8.34546,0,0,0,0,0,0,0,-1,797,533,2.27136,8.34546
-420,491,-1.52142,-8.1123,0,0,0,0,0,0,0,-1,804,533,-1.52142,8.11228
-413,491,-2.27502,-9.50946,0,0,0,0,0,0,0,-1,811,533,-2.27501,9.50945
-406,491,-2.20178,-10.0703,-0.0023388,0.00629803,-0.00279101,0.00712144,-0.00316222,-1.28391,0.00608218,0.0267447,818,533,-2.20176,10.0703
-399,491,-2.1955,-10.5145,-0.00150803,0.0048135,-0.00243211,0.00564091,-0.00233545,-1.24287,0.00473513,0.0108393,825,533,-2.19548,10.5145
-392,491,-2.23004,-10.9318,-0.00084451,0.00343342,-0.00204298,0.00425231,-0.00166341,-1.18957,0.00352278,0.00926805,832,533,-2.23005,10.9318
-385,491,-2.2453,-11.3234,-0.000179432,0.00241802,-0.00169382,0.00325371,-0.00101511,-1.11246,0.00257509,0.00878258,839,533,-2.24531,11.3234
-378,491,-2.2525,-11.7187,0.000390016,0.00165649,-0.00142421,0.0025819,-0.000535392,-0.994585,0.00192471,0.013459,846,533,-2.25252,11.7187
-371,491,-2.23694,-12.1174,0.000742663,0.000955506,-0.00114259,0.00199662,-0.000298455,-0.831834,0.00144091,0.0154193,853,533,-2.23694,12.1174
-364,491,-2.2597,-12.5222,0.000982076,0.000311254,-0.000803217,0.0015171,-0.000223771,-0.587612,0.00109365,0.0140174,860,533,-2.2597,12.5221
-357,491,-2.27002,-12.9161,0.00124425,-8.77414e-05,-0.000529267,0.00142895,-0.000272436,-0.33575,0.00105523,0.0117675,867,533,-2.26999,12.9161
-350,491,-2.28741,-13.3184,0.00151379,-0.000322421,-0.000369807,0.00158547,-0.000394101,-0.191456,0.00120993,0.0144545,874,533,-2.28742,13.3184
-343,491,-2.28064,-13.6682,0.00171296,-0.000546047,-0.000212281,0.00173274,-0.000565822,-0.0928873,0.0013829,0.0227929,881,533,-2.28063,13.6682
-336,491,-2.27356,-14.003,0.00193453,-0.00072484,-5.5825e-05,0.0019357,-0.000726011,-0.0209795,0.00158876,0.0222925,888,533,-2.27354,14.003
-329,491,-2.27991,-14.4152,0.00232367,-0.000837407,-1.33624e-05,0.00232373,-0.000837463,-0.00422708,0.00189116,0.0234245,895,533,-2.27992,14.4151
-322,491,-2.29413,-14.8168,0.00274681,-0.000832239,-1.44324e-05,0.00274687,-0.000832297,-0.00403238,0.00216273,0.0237199,902,533,-2.29415,14.8168
-315,491,-2.35175,-15.1559,0.00324623,-0.000887125,-2.97989e-05,0.00324645,-0.000887339,-0.00720887,0.00251285,0.0228453,909,533,-2.35172,15.1559
-308,491,-2.26813,-15.6963,0,0,0,0,0,0,0,-1,916,533,-2.26815,15.6963
-301,491,-2.24158,-16.5527,0,0,0,0,0,0,0,-1,923,533,-2.2416,16.5527
-294,491,-0.777283,-8.60913,0,0,0,0,0,0,0,-1,930,533,-0.777288,8.6091
-287,491,-0.26123,-8.69055,0,0,0,0,0,0,0,-1,937,533,-0.261204,8.69053
-280,491,0.2948,-5.99219,0,0,0,0,0,0,0,-1,944,533,0.294811,5.99221
-273,491,0.369995,-5.33691,0,0,0,0,0,0,0,-1,951,533,0.369985,5.33693
-266,491,1.1167,-5.0321,0,0,0,0,0,0,0,-1,958,533,1.11668,5.0321
-259,491,12.0862,-16.9615,0,0,0,0,0,0,0,-1,965,533,12.0862,16.9615
-252,491,9.72443,-13.8417,0,0,0,0,0,0,0,-1,972,533,9.72444,13.8418
-245,491,5.27258,-14.3619,0,0,0,0,0,0,0,-1,979,533,5.27255,14.3619
-238,491,3.65381,-11.1472,0,0,0,0,0,0,0,-1,986,533,3.6538,11.1472
-231,491,2.17719,-7.86835,0,0,0,0,0,0,0,-1,993,533,2.17719,7.86832
-224,491,0.554626,-4.61725,0,0,0,0,0,0,0,-1,1000,533,0.554608,4.61727
-217,491,-2.92743,-1.0766,0,0,0,0,0,0,0,-1,1007,533,-2.92743,1.07659
-210,491,-0.92395,0.374512,0,0,0,0,0,0,0,-1,1014,533,-0.923959,-0.374531
-203,491,0.417419,4.77161,0,0,0,0,0,0,0,-1,1021,533,0.417446,-4.77162
-196,491,0,0,0,0,0,0,0,0,0,-1,1028,533,0,0
-189,491,0,0,0,0,0,0,0,0,0,-1,1035,533,0,0
-182,491,0,0,0,0,0,0,0,0,0,-1,1042,533,0,0
-175,491,0,0,0,0,0,0,0,0,0,-1,1049,533,0,0
-168,491,0,0,0,0,0,0,0,0,0,-1,1056,533,0,0
-161,491,0,0,0,0,0,0,0,0,0,-1,1063,533,0,0
-154,491,0,0,0,0,0,0,0,0,0,-1,1070,533,0,0
-147,491,0,0,0,0,0,0,0,0,0,-1,1077,533,0,0
-140,491,0,0,0,0,0,0,0,0,0,-1,1084,533,0,0
-133,491,0,0,0,0,0,0,0,0,0,-1,1091,533,0,0
-126,491,0,0,0,0,0,0,0,0,0,-1,1098,533,0,0
-119,491,0,0,0,0,0,0,0,0,0,-1,1105,533,0,0
-112,491,0,0,0,0,0,0,0,0,0,-1,1112,533,0,0
-105,491,0,0,0,0,0,0,0,0,0,-1,1119,533,0,0
-98,491,0,0,0,0,0,0,0,0,0,-1,1126,533,0,0
-91,491,0,0,0,0,0,0,0,0,0,-1,1133,533,0,0
-84,491,0,0,0,0,0,0,0,0,0,-1,1140,533,0,0
-77,491,0,0,0,0,0,0,0,0,0,-1,1147,533,0,0
-70,491,0,0,0,0,0,0,0,0,0,-1,1154,533,0,0
-63,491,0,0,0,0,0,0,0,0,0,-1,1161,533,0,0
-56,491,0,0,0,0,0,0,0,0,0,-1,1168,533,0,0
-49,491,0,0,0,0,0,0,0,0,0,-1,1175,533,0,0
-42,491,0,0,0,0,0,0,0,0,0,-1,1182,533,0,0
-35,491,0,0,0,0,0,0,0,0,0,-1,1189,533,0,0
-28,491,0,0,0,0,0,0,0,0,0,-1,1196,533,0,0
-21,491,0,0,0,0,0,0,0,0,0,-1,1203,533,0,0
-14,491,0,0,0,0,0,0,0,0,0,-1,1210,533,0,0
-7,491,0,0,0,0,0,0,0,0,0,-1,1217,533,0,0
0,491,0,0,0,0,0,0,0,0,0,-1,1224,533,0,0
7,491,0,0,0,0,0,0,0,0,0,-1,1231,533,0,0
14,491,0,0,0,0,0,0,0,0,0,-1,1238,533,0,0
21,491,0,0,0,0,0,0,0,0,0,-1,1245,533,0,0
28,491,0,0,0,0,0,0,0,0,0,-1,1252,533,0,0
35,491,0,0,0,0,0,0,0,0,0,-1,1259,533,0,0
42,491,0,0,0,0,0,0,0,0,0,-1,1266,533,0,0
49,491,0,0,0,0,0,0,0,0,0,-1,1273,533,0,0
56,491,0,0,0,0,0,0,0,0,0,-1,1280,533,0,0
63,491,0,0,0,0,0,0,0,0,0,-1,1287,533,0,0
70,491,0,0,0,0,0,0,0,0,0,-1,1294,533,0,0
77,491,0,0,0,0,0,0,0,0,0,-1,1301,533,0,0
84,491,0,0,0,0,0,0,0,0,0,-1,1308,533,0,0
91,491,0,0,0,0,0,0,0,0,0,-1,1315,533,0,0
98,491,0,0,0,0,0,0,0,0,0,-1,1322,533,0,0
105,491,0,0,0,0,0,0,0,0,0,-1,1329,533,0,0
112,491,0,0,0,0,0,0,0,0,0,-1,1336,533,0,0
119,491,0,0,0,0,0,0,0,0,0,-1,1343,533,0,0
126,491,0,0,0,0,0,0,0,0,0,-1,1350,533,0,0
133,491,0,0,0,0,0,0,0,0,0,-1,1357,533,0,0
140,491,0,0,0,0,0,0,0,0,0,-1,1364,533,0,0
147,491,0,0,0,0,0,0,0,0,0,-1,1371,533,0,0
154,491,0,0,0,0,0,0,0,0,0,-1,1378,533,0,0
161,491,0,0,0,0,0,0,0,0,0,-1,1385,533,0,0
168,491,0,0,0,0,0,0,0,0,0,-1,1392,533,0,0
175,491,0,0,0,0,0,0,0,0,0,-1,1399,533,0,0
182,491,0,0,0,0,0,0,0,0,0,-1,1406,533,0,0
189,491,0,0,0,0,0,0,0,0,0,-1,1413,533,0,0
196,491,0,0,0,0,0,0,0,0,0,-1,1420,533,0,0
203,491,0,0,0,0,0,0,0,0,0,-1,1427,533,0,0
210,491,0,0,0,0,0,0,0,0,0,-1,1434,533,0,0
217,491,0,0,0,0,0,0,0,0,0,-1,1441,533,0,0
224,491,0,0,0,0,0,0,0,0,0,-1,1448,533,0,0
231,491,0,0,0,0,0,0,0,0,0,-1,1455,533,0,0
238,491,0,0,0,0,0,0,0,0,0,-1,1462,533,0,0
245,491,0,0,0,0,0,0,0,0,0,-1,1469,533,0,0
252,491,0,0,0,0,0,0,0,0,0,-1,1476,533,0,0
259,491,0,0,0,0,0,0,0,0,0,-1,1483,533,0,0
266,491,0,0,0,0,0,0,0,0,0,-1,1490,533,0,0
273,491,0,0,0,0,0,0,0,0,0,-1,1497,533,0,0
280,491,0,0,0,0,0,0,0,0,0,-1,1504,533,0,0
287,491,0,0,0,0,0,0,0,0,0,-1,1511,533,0,0
294,491,0,0,0,0,0,0,0,0,0,-1,1518,533,0,0
301,491,0,0,0,0,0,0,0,0,0,-1,1525,533,0,0
308,491,0,0,0,0,0,0,0,0,0,-1,1532,533,0,0
315,491,0,0,0,0,0,0,0,0,0,-1,1539,533,0,0
322,491,4.26331,-0.734314,0,0,0,0,0,0,0,-1,1546,533,4.26326,0.734324
329,491,4.25354,-0.783752,0,0,0,0,0,0,0,-1,1553,533,4.25359,0.783734
336,491,4.81604,-0.722107,0,0,0,0,0,0,0,-1,1560,533,4.81605,0.722115
343,491,6.14478,-1.44281,0,0,0,0,0,0,0,-1,1567,533,6.14474,1.44281
350,491,6.36353,-1.30792,0,0,0,0,0,0,0,-1,1574,533,6.36352,1.3079
357,491,6.69482,-1.06018,0,0,0,0,0,0,0,-1,1581,533,6.69489,1.06018
364,491,8.01086,-1.69604,0,0,0,0,0,0,0,-1,1588,533,8.01087,1.69607
371,491,8.2135,-0.539307,0,0,0,0,0,0,0,-1,1595,533,8.21348,0.53929
378,491,13.3589,2.17267,0,0,0,0,0,0,0,-1,1602,533,13.3589,-2.17264
385,491,8.08228,-4.95471,0,0,0,0,0,0,0,-1,1609,533,8.08227,4.95474
392,491,2.88721,-4.30988,0,0,0,0,0,0,0,-1,1616,533,2.88716,4.30986
399,491,8.95862,-8.55518,0,0,0,0,0,0,0,-1,1623,533,8.95864,8.55516
406,491,8.16541,-9.00806,0,0,0,0,0,0,0,-1,1630,533,8.16535,9.00807
413,491,5.31848,-3.7124,0,0,0,0,0,0,0,-1,1637,533,5.31849,3.7124
420,491,4.86389,-3.95892,0,0,0,0,0,0,0,-1,1644,533,4.86387,3.95893
427,491,11.0079,-14.1392,0,0,0,0,0,0,0,-1,1651,533,11.0079,14.1392
434,491,10.2878,-13.7099,-0.00941984,-0.0106398,-0.0104906,0.000478512,-0.0205381,-0.756359,0.0138543,0.049676,1658,533,10.2878,13.7099
441,491,10.125,-13.7812,-0.00675756,-0.00755938,-0.00786896,0.000720692,-0.0150376,-0.759946,0.0102738,0.0287139,1665,533,10.125,13.7812
448,491,10.0819,-13.5348,-0.00447425,-0.00496688,-0.00558419,0.000869052,-0.0103102,-0.763358,0.00718069,0.016151,1672,533,10.082,13.5348
455,491,10.0739,-13.1223,-0.00264081,-0.00293314,-0.00376115,0.000977014,-0.00655096,-0.765977,0.00472676,0.0120469,1679,533,10.0739,13.1223
462,491,10.0845,-12.7379,-0.00121117,-0.00140858,-0.00239213,0.00108429,-0.00370404,-0.764779,0.00289919,0.0164053,1686,533,10.0844,12.7379
469,491,10.0701,-12.3404,-0.00013998,-0.00041925,-0.00129119,0.00101911,-0.00157834,-0.731535,0.00151118,0.0160189,1693,533,10.07,12.3404
476,491,10.0792,-11.9381,0.000469035,0.000129476,-0.000458087,0.000787793,-0.000189282,-0.607932,0.000598354,0.010486,1700,533,10.0792,11.9381
483,491,10.064,-11.5058,0.000986692,0.000486307,0.000290179,0.00111964,0.000353355,0.429631,0.000660919,0.011758,1707,533,10.064,11.5058
490,491,10.0406,-11.1046,0.000982249,0.000751637,0.000740887,0.00161675,0.000117137,0.708201,0.00104099,0.010311,1714,533,10.0406,11.1046
497,491,10.0455,-10.6789,0.000521497,0.000372942,0.000880151,0.0013305,-0.00043606,0.743302,0.00106261,0.0122109,1721,533,10.0455,10.6789
504,491,10.0643,-10.2475,-0.000156643,-0.000157859,0.00087393,0.000716679,-0.00103118,0.78505,0.00101456,0.0149,1728,533,10.0644,10.2475
511,491,10.0442,-9.82458,-0.00105671,-0.000693659,0.00081255,-4.26061e-05,-0.00170777,0.895296,0.00112458,0.0133053,1735,533,10.0442,9.82457
518,491,10.0197,-9.40613,-0.00218366,-0.00119053,0.000656965,-0.000863575,-0.00251061,1.10901,0.00147284,0.00948067,1742,533,10.0196,9.40614
525,491,10.0214,-8.96924,-0.00340721,-0.00178397,0.000417366,-0.00168294,-0.00350824,1.33331,0.00202604,0.0092742,1749,533,10.0214,8.96926
532,491,10.004,-8.5498,-0.00470157,-0.00228661,0.000170732,-0.0022746,-0.00471358,1.50056,0.00272194,0.0214117,1756,533,10.004,8.54981
539,491,9.84338,-8.21149,-0.00601828,-0.00254569,-3.83957e-05,-0.00254526,-0.00601871,-1.55974,0.00348865,0.0358877,1763,533,9.84338,8.2115
546,491,9.71069,-7.51215,0,0,0,0,0,0,0,-1,1770,533,9.71069,7.51216
553,491,9.729,-6.63263,0,0,0,0,0,0,0,-1,1777,533,9.72902,6.63261
560,491,6.28455,-1.43585,0,0,0,0,0,0,0,-1,1784,533,6.28458,1.43586
567,491,5.67651,-1.3562,0,0,0,0,0,0,0,-1,1791,533,5.67649,1.3562
574,491,8.0719,1.58325,0,0,0,0,0,0,0,-1,1798,533,8.07195,-1.58326
581,491,9.44812,1.60931,0,0,0,0,0,0,0,-1,1805,533,9.44808,-1.60933
588,491,11.0497,1.54962,0,0,0,0,0,0,0,-1,1812,533,11.0496,-1.54963
595,491,0,0,0,0,0,0,0,0,0,-1,1819,533,0,0
602,491,0,0,0,0,0,0,0,0,0,-1,1826,533,0,0
609,491,0,0,0,0,0,0,0,0,0,-1,1833,533,0,0
616,491,0,0,0,0,0,0,0,0,0,-1,1840,533,0,0
623,491,0,0,0,0,0,0,0,0,0,-1,1847,533,0,0
630,491,0,0,0,0,0,0,0,0,0,-1,1854,533,0,0
637,491,0,0,0,0,0,0,0,0,0,-1,1861,533,0,0
644,491,0,0,0,0,0,0,0,0,0,-1,1868,533,0,0
651,491,0,0,0,0,0,0,0,0,0,-1,1875,533,0,0
658,491,0,0,0,0,0,0,0,0,0,-1,1882,533,0,0
665,491,0,0,0,0,0,0,0,0,0,-1,1889,533,0,0
672,491,0,0,0,0,0,0,0,0,0,-1,1896,533,0,0
679,491,0,0,0,0,0,0,0,0,0,-1,1903,533,0,0
686,491,0,0,0,0,0,0,0,0,0,-1,1910,533,0,0
693,491,0,0,0,0,0,0,0,0,0,-1,1917,533,0,0
700,491,0,0,0,0,0,0,0,0,0,-1,1924,533,0,0
707,491,0,0,0,0,0,0,0,0,0,-1,1931,533,0,0
714,491,0,0,0,0,0,0,0,0,0,-1,1938,533,0,0
721,491,0,0,0,0,0,0,0,0,0,-1,1945,533,0,0
728,491,0,0,0,0,0,0,0,0,0,-1,1952,533,0,0
735,491,0,0,0,0,0,0,0,0,0,-1,1959,533,0,0
742,491,0,0,0,0,0,0,0,0,0,-1,1966,533,0,0
749,491,0,0,0,0,0,0,0,0,0,-1,1973,533,0,0
756,491,0,0,0,0,0,0,0,0,0,-1,1980,533,0,0
763,491,0,0,0,0,0,0,0,0,0,-1,1987,533,0,0
770,491,0,0,0,0,0,0,0,0,0,-1,1994,533,0,0
777,491,0,0,0,0,0,0,0,0,0,-1,2001,533,0,0
784,491,0,0,0,0,0,0,0,0,0,-1,2008,533,0,0
791,491,0,0,0,0,0,0,0,0,0,-1,2015,533,0,0
798,491,0,0,0,0,0,0,0,0,0,-1,2022,533,0,0
805,491,0,0,0,0,0,0,0,0,0,-1,2029,533,0,0
812,491,0,0,0,0,0,0,0,0,0,-1,2036,533,0,0
-700,484,0,0,0,0,0,0,0,0,0,-1,524,540,0,0
-693,484,0,0,0,0,0,0,0,0,0,-1,531,540,0,0
-686,484,0,0,0,0,0,0,0,0,0,-1,538,540,0,0
-679,484,0,0,0,0,0,0,0,0,0,-1,545,540,0,0
-672,484,0,0,0,0,0,0,0,0,0,-1,552,540,0,0
-665,484,0,0,0,0,0,0,0,0,0,-1,559,540,0,0
-658,484,0,0,0,0,0,0,0,0,0,-1,566,540,0,0
-651,484,0,0,0,0,0,0,0,0,0,-1,573,540,0,0
-644,484,0,0,0,0,0,0,0,0,0,-1,580,540,0,0
-637,484,0,0,0,0,0,0,0,0,0,-1,587,540,0,0
-630,484,0,0,0,0,0,0,0,0,0,-1,594,540,0,0
-623,484,0,0,0,0,0,0,0,0,0,-1,601,540,0,0
-616,484,0,0,0,0,0,0,0,0,0,-1,608,540,0,0
-609,484,0,0,0,0,0,0,0,0,0,-1,615,540,0,0
-602,484,0,0,0,0,0,0,0,0,0,-1,622,540,0,0
-595,484,0,0,0,0,0,0,0,0,0,-1,629,540,0,0
-588,484,0,0,0,0,0,0,0,0,0,-1,636,540,0,0
-581,484,0,0,0,0,0,0,0,0,0,-1,643,540,0,0
-574,484,0,0,0,0,0,0,0,0,0,-1,650,540,0,0
-567,484,0,0,0,0,0,0,0,0,0,-1,657,540,0,0
-560,484,0,0,0,0,0,0,0,0,0,-1,664,540,0,0
-553,484,0,0,0,0,0,0,0,0,0,-1,671,540,0,0
-546,484,0,0,0,0,0,0,0,0,0,-1,678,540,0,0
-539,484,0,0,0,0,0,0,0,0,0,-1,685,540,0,0
-532,484,0,0,0,0,0,0,0,0,0,-1,692,540,0,0
-525,484,0,0,0,0,0,0,0,0,0,-1,699,540,0,0
-518,484,0,0,0,0,0,0,0,0,0,-1,706,540,0,0
-511,484,0,0,0,0,0,0,0,0,0,-1,713,540,0,0
-504,484,0,0,0,0,0,0,0,0,0,-1,720,540,0,0
-497,484,0,0,0,0,0,0,0,0,0,-1,727,540,0,0
-490,484,0,0,0,0,0,0,0,0,0,-1,734,540,0,0
-483,484,0,0,0,0,0,0,0,0,0,-1,741,540,0,0
-476,484,-8.46552,1.44702,0,0,0,0,0,0,0,-1,748,540,-8.46554,-1.44702
-469,484,-7.82343,1.70355,0,0,0,0,0,0,0,-1,755,540,-7.82345,-1.70355
-462,484,-8.36987,3.08612,0,0,0,0,0,0,0,-1,762,540,-8.36988,-3.0861
-455,484,-6.77197,2.07092,0,0,0,0,0,0,0,-1,769,540,-6.77197,-2.07094
-448,484,3.54895,-1.40106,0,0,0,0,0,0,0,-1,776,540,3.54897,1.40106
-441,484,4.28906,-3.05884,0,0,0,0,0,0,0,-1,783,540,4.28905,3.05883
-434,484,-2.17548,-5.07245,0,0,0,0,0,0,0,-1,790,540,-2.17546,5.07243
-427,484,-2.54236,-8.41809,0,0,0,0,0,0,0,-1,797,540,-2.54233,8.4181
-420,484,-2.54016,-9.0672,0,0,0,0,0,0,0,-1,804,540,-2.54014,9.06722
-413,484,-2.51013,-9.5871,-0.00320852,0.0068587,-0.00262766,0.00750328,-0.0038531,-1.33024,0.00666855,0.0292934,811,540,-2.51013,9.58712
-406,484,-2.55457,-10.0848,-0.00209836,0.00526234,-0.00225596,0.00589875,-0.00273476,-1.29584,0.00509491,0.0160943,818,540,-2.55459,10.0849
-399,484,-2.61169,-10.5325,-0.00129835,0.00394169,-0.00190389,0.00456039,-0.00191705,-1.2566,0.00384215,0.0161343,825,540,-2.61169,10.5325
-392,484,-2.63489,-10.907,-0.000628006,0.00266394,-0.00151993,0.00325837,-0.00122243,-1.19799,0.00267453,0.0177003,832,540,-2.63491,10.907
-385,484,-2.63586,-11.3021,5.26484e-05,0.00176171,-0.00120993,0.00238845,-0.000574089,-1.09286,0.0018142,0.0130086,839,540,-2.63584,11.3021
-378,484,-2.65668,-11.7231,0.000626104,0.00107362,-0.000967707,0.0018431,-0.000143378,-0.899014,0.00127921,0.0142511,846,540,-2.65665,11.7231
-371,484,-2.66241,-12.1172,0.00100939,0.00043745,-0.000714458,0.00149298,-4.61434e-05,-0.595032,0.00101106,0.0164027,853,540,-2.66242,12.1172
-364,484,-2.67432,-12.4932,0.00129589,-0.000144861,-0.000413594,0.00140618,-0.000255148,-0.260592,0.00103306,0.0119863,860,540,-2.67434,12.4932
-357,484,-2.68787,-12.8949,0.00162342,-0.000503437,-0.000195215,0.00164119,-0.000521207,-0.0907752,0.00130308,0.012197,867,540,-2.68785,12.8949
-350,484,-2.70154,-13.291,0.00196506,-0.000683952,-0.000113689,0.00196993,-0.000688822,-0.0428124,0.00159333,0.0149474,874,540,-2.70153,13.291
-343,484,-2.66528,-13.6602,0.00222036,-0.000821716,-3.90567e-05,0.00222086,-0.000822217,-0.012836,0.00181772,0.0232316,881,540,-2.66528,13.6601
-336,484,-2.64197,-14.0165,0.00248814,-0.000923751,3.39294e-05,0.00248848,-0.000924089,0.00994312,0.00203809,0.0260337,888,540,-2.64195,14.0166
-329,484,-2.69702,-14.3787,0.00296211,-0.000957082,-2.95908e-05,0.00296233,-0.000957306,-0.00754966,0.00235963,0.0346832,895,540,-2.69702,14.3787
-322,484,-2.65717,-14.7905,0,0,0,0,0,0,0,-1,902,540,-2.65716,14.7906
-315,484,-2.50946,-15.2586,0,0,0,0,0,0,0,-1,909,540,-2.50947,15.2586
-308,484,-1.32623,-8.9317,0,0,0,0,0,0,0,-1,916,540,-1.32626,8.93173
-301,484,-1.33453,-6.52667,0,0,0,0,0,0,0,-1,923,540,-1.33454,6.5267
-294,484,-1.61224,-8.17059,0,0,0,0,0,0,0,-1,930,540,-1.61227,8.17058
-287,484,-0.715759,-5.62103,0,0,0,0,0,0,0,-1,937,540,-0.715772,5.62105
-280,484,2.66742,-1.6795,0,0,0,0,0,0,0,-1,944,540,2.6674,1.67949
-273,484,2.53125,-2.22296,0,0,0,0,0,0,0,-1,951,540,2.53128,2.22295
-266,484,2.6778,-2.72058,0,0,0,0,0,0,0,-1,958,540,2.6778,2.72061
-259,484,2.41718,-2.59894,0,0,0,0,0,0,0,-1,965,540,2.41717,2.59892
-252,484,10.6069,-11.696,0,0,0,0,0,0,0,-1,972,540,10.6069,11.696
-245,484,6.34106,-11.6107,0,0,0,0,0,0,0,-1,979,540,6.34104,11.6107
-238,484,4.89319,-8.54059,0,0,0,0,0,0,0,-1,986,540,4.89321,8.5406
-231,484,3.47675,-5.22064,0,0,0,0,0,0,0,-1,993,540,3.47676,5.22067
-224,484,1.71344,-2.03473,0,0,0,0,0,0,0,-1,1000,540,1.71342,2.03472
-217,484,-0.745056,1.17358,0,0,0,0,0,0,0,-1,1007,540,-0.745043,-1.17359
-210,484,0,0,0,0,0,0,0,0,0,-1,1014,540,0,0
-203,484,0,0,0,0,0,0,0,0,0,-1,1021,540,0,0
-196,484,0,0,0,0,0,0,0,0,0,-1,1028,540,0,0
-189,484,0,0,0,0,0,0,0,0,0,-1,1035,540,0,0
-182,484,0,0,0,0,0,0,0,0,0,-1,1042,540,0,0
-175,484,0,0,0,0,0,0,0,0,0,-1,1049,540,0,0
-168,484,0,0,0,0,0,0,0,0,0,-1,1056,540,0,0
-161,484,0,0,0,0,0,0,0,0,0,-1,1063,540,0,0
-154,484,0,0,0,0,0,0,0,0,0,-1,1070,540,0,0
-147,484,0,0,0,0,0,0,0,0,0,-1,1077,540,0,0
-140,484,0,0,0,0,0,0,0,0,0,-1,1084,540,0,0
-133,484,0,0,0,0,0,0,0,0,0,-1,1091,540,0,0
-126,484,0,0,0,0,0,0,0,0,0,-1,1098,540,0,0
-119,484,0,0,0,0,0,0,0,0,0,-1,1105,540,0,0
-112,484,0,0,0,0,0,0,0,0,0,-1,1112,540,0,0
-105,484,0,0,0,0,0,0,0,0,0,-1,1119,540,0,0
-98,484,0,0,0,0,0,0,0,0,0,-1,1126,540,0,0
-91,484,0,0,0,0,0,0,0,0,0,-1,1133,540,0,0
-84,484,0,0,0,0,0,0,0,0,0,-1,1140,540,0,0
-77,484,0,0,0,0,0,0,0,0,0,-1,1147,540,0,0
-70,484,0,0,0,0,0,0,0,0,0,-1,1154,540,0,0
-63,484,0,0,0,0,0,0,0,0,0,-1,1161,540,0,0
-56,484,0,0,0,0,0,0,0,0,0,-1,1168,540,0,0
-49,484,0,0,0,0,0,0,0,0,0,-1,1175,540,0,0
-42,484,0,0,0,0,0,0,0,0,0,-1,1182,540,0,0
-35,484,0,0,0,0,0,0,0,0,0,-1,1189,540,0,0
-28,484,0,0,0,0,0,0,0,0,0,-1,1196,540,0,0
-21,484,0,0,0,0,0,0,0,0,0,-1,1203,540,0,0
-14,484,0,0,0,0,0,0,0,0,0,-1,1210,540,0,0
-7,484,0,0,0,0,0,0,0,0,0,-1,1217,540,0,0
0,484,0,0,0,0,0,0,0,0,0,-1,1224,540,0,0
7,484,0,0,0,0,0,0,0,0,0,-1,1231,540,0,0
14,484,0,0,0,0,0,0,0,0,0,-1,1238,540,0,0
21,484,0,0,0,0,0,0,0,0,0,-1,1245,540,0,0
28,484,0,0,0,0,0,0,0,0,0,-1,1252,540,0,0
35,484,0,0,0,0,0,0,0,0,0,-1,1259,540,0,0
42,484,0,0,0,0,0,0,0,0,0,-1,1266,540,0,0
49,484,0,0,0,0,0,0,0,0,0,-1,1273,540,0,0
56,484,0,0,0,0,0,0,0,0,0,-1,1280,540,0,0
63,484,0,0,0,0,0,0,0,0,0,-1,1287,540,0,0
70,484,0,0,0,0,0,0,0,0,0,-1,1294,540,0,0
77,484,0,0,0,0,0,0,0,0,0,-1,1301,540,0,0
84,484,0,0,0,0,0,0,0,0,0,-1,1308,540,0,0
91,484,0,0,0,0,0,0,0,0,0,-1,1315,540,0,0
98,484,0,0,0,0,0,0,0,0,0,-1,1322,540,0,0
105,484,0,0,0,0,0,0,0,0,0,-1,1329,540,0,0
112,484,0,0,0,0,0,0,0,0,0,-1,1336,540,0,0
119,484,0,0,0,0,0,0,0,0,0,-1,1343,540,0,0
126,484,0,0,0,0,0,0,0,0,0,-1,1350,540,0,0
133,484,0,0,0,0,0,0,0,0,0,-1,1357,540,0,0
140,484,0,0,0,0,0,0,0,0,0,-1,1364,540,0,0
147,484,0,0,0,0,0,0,0,0,0,-1,1371,540,0,0
154,484,0,0,0,0,0,0,0,0,0,-1,1378,540,0,0
161,484,0,0,0,0,0,0,0,0,0,-1,1385,540,0,0
168,484,0,0,0,0,0,0,0,0,0,-1,1392,540,0,0
175,484,0,0,0,0,0,0,0,0,0,-1,1399,540,0,0
182,484,0,0,0,0,0,0,0,0,0,-1,1406,540,0,0
189,484,0,0,0,0,0,0,0,0,0,-1,1413,540,0,0
196,484,0,0,0,0,0,0,0,0,0,-1,1420,540,0,0
203,484,0,0,0,0,0,0,0,0,0,-1,1427,540,0,0
210,484,0,0,0,0,0,0,0,0,0,-1,1434,540,0,0
217,484,0,0,0,0,0,0,0,0,0,-1,1441,540,0,0
224,484,0,0,0,0,0,0,0,0,0,-1,1448,540,0,0
231,484,0,0,0,0,0,0,0,0,0,-1,1455,540,0,0
238,484,0,0,0,0,0,0,0,0,0,-1,1462,540,0,0
245,484,0,0,0,0,0,0,0,0,0,-1,1469,540,0,0
252,484,0,0,0,0,0,0,0,0,0,-1,1476,540,0,0
259,484,0,0,0,0,0,0,0,0,0,-1,1483,540,0,0
266,484,0,0,0,0,0,0,0,0,0,-1,1490,540,0,0
273,484,0,0,0,0,0,0,0,0,0,-1,1497,540,0,0
280,484,0,0,0,0,0,0,0,0,0,-1,1504,540,0,0
287,484,0,0,0,0,0,0,0,0,0,-1,1511,540,0,0
294,484,0,0,0,0,0,0,0,0,0,-1,1518,540,0,0
301,484,0,0,0,0,0,0,0,0,0,-1,1525,540,0,0
308,484,0,0,0,0,0,0,0,0,0,-1,1532,540,0,0
315,484,0,0,0,0,0,0,0,0,0,-1,1539,540,0,0
322,484,0,0,0,0,0,0,0,0,0,-1,1546,540,0,0
329,484,0,0,0,0,0,0,0,0,0,-1,1553,540,0,0
336,484,4.38708,-1.64136,0,0,0,0,0,0,0,-1,1560,540,4.38704,1.64138
343,484,7.57996,-1.05457,0,0,0,0,0,0,0,-1,1567,540,7.57995,1.05454
350,484,8.10425,-1.18878,0,0,0,0,0,0,0,-1,1574,540,8.1043,1.18877
357,484,7.74902,-3.80286,0,0,0,0,0,0,0,-1,1581,540,7.74901,3.80287
364,484,6.31262,-3.87213,0,0,0,0,0,0,0,-1,1588,540,6.31263,3.87215
371,484,7.21008,0.973511,0,0,0,0,0,0,0,-1,1595,540,7.21014,-0.973541
378,484,11.0563,1.5014,0,0,0,0,0,0,0,-1,1602,540,11.0563,-1.5014
385,484,14.3469,2.5545,0,0,0,0,0,0,0,-1,1609,540,14.3469,-2.55453
392,484,7.39453,-4.95026,0,0,0,0,0,0,0,-1,1616,540,7.39448,4.95023
399,484,7.14417,-2.5639,0,0,0,0,0,0,0,-1,1623,540,7.14417,2.56391
406,484,7.88953,-2.47321,0,0,0,0,0,0,0,-1,1630,540,7.88954,2.47323
413,484,4.4895,-1.08673,0,0,0,0,0,0,0,-1,1637,540,4.48952,1.08674
420,484,4.50012,-2.11255,0,0,0,0,0,0,0,-1,1644,540,4.50012,2.11256
427,484,5.28601,-3.54053,0,0,0,0,0,0,0,-1,1651,540,5.28599,3.54051
434,484,10.8687,-13.1697,0,0,0,0,0,0,0,-1,1658,540,10.8686,13.1697
441,484,10.5182,-13.5788,0,0,0,0,0,0,0,-1,1665,540,10.5182,13.5788
448,484,10.6581,-13.6595,0,0,0,0,0,0,0,-1,1672,540,10.658,13.6596
455,484,10.4969,-13.1877,-0.00318264,-0.00332474,-0.0045685,0.00131536,-0.00782274,-0.777623,0.00570439,0.0293884,1679,540,10.4969,13.1877
462,484,10.4917,-12.7307,-0.00132882,-0.00131308,-0.00283692,0.00151599,-0.00415788,-0.786786,0.00339212,0.0173777,1686,540,10.4917,12.7307
469,484,10.4944,-12.3283,-6.73088e-07,-4.97417e-05,-0.00152815,0.00150314,-0.00155356,-0.777371,0.00176487,0.0185292,1693,540,10.4944,12.3283
476,484,10.4972,-11.8959,0.000790148,0.000626851,-0.000559278,0.00127371,0.000143293,-0.712916,0.000805632,0.0158588,1700,540,10.4972,11.8959
483,484,10.4833,-11.4854,0.00148122,0.00107936,0.000310998,0.00165055,0.000910026,0.498587,0.000954619,0.0126147,1707,540,10.4833,11.4854
490,484,10.4614,-11.1021,0.00157035,0.00149619,0.00080939,0.00234351,0.000723028,0.762508,0.0013857,0.0121629,1714,540,10.4615,11.1021
497,484,10.4484,-10.684,0.00112969,0.0011224,0.000926169,0.00205222,0.000199868,0.783428,0.00130663,0.0140032,1721,540,10.4484,10.684
504,484,10.447,-10.2506,0.00047579,0.000575578,0.000869164,0.00139628,-0.00034491,0.814069,0.00106461,0.0172262,1728,540,10.447,10.2506
511,484,10.4603,-9.82593,-0.000361804,3.23208e-05,0.000755728,0.000616257,-0.00094574,0.912937,0.000908482,0.0189063,1735,540,10.4603,9.82591
518,484,10.4583,-9.41156,-0.00139133,-0.000442193,0.000558931,-0.000183536,-0.00164998,1.13737,0.0010442,0.014689,1742,540,10.4582,9.41159
525,484,10.4325,-8.97815,-0.00246385,-0.000999116,0.000296455,-0.00094139,-0.00252157,1.37848,0.00147132,0.0123979,1749,540,10.4325,8.97813
532,484,10.4146,-8.53088,-0.00356073,-0.00144144,3.84319e-05,-0.00144074,-0.00356142,1.55267,0.00206864,0.0150383,1756,540,10.4145,8.53086
539,484,10.3503,-8.05493,-0.00463981,-0.0017321,-0.000196591,-0.00171887,-0.00465304,-1.50359,0.00271681,0.0310551,1763,540,10.3504,8.05491
546,484,10.3511,-7.58588,0,0,0,0,0,0,0,-1,1770,540,10.3511,7.58589
553,484,10.3496,-7.03149,0,0,0,0,0,0,0,-1,1777,540,10.3496,7.0315
560,484,10.0549,-5.47931,0,0,0,0,0,0,0,-1,1784,540,10.055,5.47928
567,484,7.78223,-1.38312,0,0,0,0,0,0,0,-1,1791,540,7.78224,1.38311
574,484,5.74463,1.50922,0,0,0,0,0,0,0,-1,1798,540,5.74463,-1.50924
581,484,10.34,2.9491,0,0,0,0,0,0,0,-1,1805,540,10.34,-2.94912
588,484,10.6669,2.88568,0,0,0,0,0,0,0,-1,1812,540,10.6669,-2.88567
595,484,10.7233,1.04767,0,0,0,0,0,0,0,-1,1819,540,10.7233,-1.04766
602,484,0,0,0,0,0,0,0,0,0,-1,1826,540,0,0
609,484,0,0,0,0,0,0,0,0,0,-1,1833,540,0,0
616,484,0,0,0,0,0,0,0,0,0,-1,1840,540,0,0
623,484,0,0,0,0,0,0,0,0,0,-1,1847,540,0,0
630,484,0,0,0,0,0,0,0,0,0,-1,1854,540,0,0
637,484,0,0,0,0,0,0,0,0,0,-1,1861,540,0,0
644,484,0,0,0,0,0,0,0,0,0,-1,1868,540,0,0
651,484,0,0,0,0,0,0,0,0,0,-1,1875,540,0,0
658,484,0,0,0,0,0,0,0,0,0,-1,1882,540,0,0
665,484,0,0,0,0,0,0,0,0,0,-1,1889,540,0,0
672,484,0,0,0,0,0,0,0,0,0,-1,1896,540,0,0
679,484,0,0,0,0,0,0,0,0,0,-1,1903,540,0,0
686,484,0,0,0,0,0,0,0,0,0,-1,1910,540,0,0
693,484,0,0,0,0,0,0,0,0,0,-1,1917,540,0,0
700,484,0,0,0,0,0,0,0,0,0,-1,1924,540,0,0
707,484,0,0,0,0,0,0,0,0,0,-1,1931,540,0,0
714,484,0,0,0,0,0,0,0,0,0,-1,1938,540,0,0
721,484,0,0,0,0,0,0,0,0,0,-1,1945,540,0,0
728,484,0,0,0,0,0,0,0,0,0,-1,1952,540,0,0
735,484,0,0,0,0,0,0,0,0,0,-1,1959,540,0,0
742,484,0,0,0,0,0,0,0,0,0,-1,1966,540,0,0
749,484,0,0,0,0,0,0,0,0,0,-1,1973,540,0,0
756,484,0,0,0,0,0,0,0,0,0,-1,1980,540,0,0
763,484,0,0,0,0,0,0,0,0,0,-1,1987,540,0,0
770,484,0,0,0,0,0,0,0,0,0,-1,1994,540,0,0
777,484,0,0,0,0,0,0,0,0,0,-1,2001,540,0,0
784,484,0,0,0,0,0,0,0,0,0,-1,2008,540,0,0
791,484,0,0,0,0,0,0,0,0,0,-1,2015,540,0,0
798,484,0,0,0,0,0,0,0,0,0,-1,2022,540,0,0
805,484,0,0,0,0,0,0,0,0,0,-1,2029,540,0,0
812,484,0,0,0,0,0,0,0,0,0,-1,2036,540,0,0
-700,477,0,0,0,0,0,0,0,0,0,-1,524,547,0,0
-693,477,0,0,0,0,0,0,0,0,0,-1,531,547,0,0
-686,477,0,0,0,0,0,0,0,0,0,-1,538,547,0,0
-679,477,0,0,0,0,0,0,0,0,0,-1,545,547,0,0
-672,477,0,0,0,0,0,0,0,0,0,-1,552,547,0,0
-665,477,0,0,0,0,0,0,0,0,0,-1,559,547,0,0
-658,477,0,0,0,0,0,0,0,0,0,-1,566,547,0,0
-651,477,0,0,0,0,0,0,0,0,0,-1,573,547,0,0
-644,477,0,0,0,0,0,0,0,0,0,-1,580,547,0,0
-637,477,0,0,0,0,0,0,0,0,0,-1,587,547,0,0
-630,477,0,0,0,0,0,0,0,0,0,-1,594,547,0,0
-623,477,0,0,0,0,0,0,0,0,0,-1,601,547,0,0
-616,477,0,0,0,0,0,0,0,0,0,-1,608,547,0,0
-609,477,0,0,0,0,0,0,0,0,0,-1,615,547,0,0
-602,477,0,0,0,0,0,0,0,0,0,-1,622,547,0,0
-595,477,0,0,0,0,0,0,0,0,0,-1,629,547,0,0
-588,477,0,0,0,0,0,0,0,0,0,-1,636,547,0,0
-581,477,0,0,0,0,0,0,0,0,0,-1,643,547,0,0
-574,477,0,0,0,0,0,0,0,0,0,-1,650,547,0,0
-567,477,0,0,0,0,0,0,0,0,0,-1,657,547,0,0
-560,477,0,0,0,0,0,0,0,0,0,-1,664,547,0,0
-553,477,0,0,0,0,0,0,0,0,0,-1,671,547,0,0
-546,477,0,0,0,0,0,0,0,0,0,-1,678,547,0,0
-539,477,0,0,0,0,0,0,0,0,0,-1,685,547,0,0
-532,477,0,0,0,0,0,0,0,0,0,-1,692,547,0,0
-525,477,0,0,0,0,0,0,0,0,0,-1,699,547,0,0
-518,477,0,0,0,0,0,0,0,0,0,-1,706,547,0,0
-511,477,0,0,0,0,0,0,0,0,0,-1,713,547,0,0
-504,477,0,0,0,0,0,0,0,0,0,-1,720,547,0,0
-497,477,0,0,0,0,0,0,0,0,0,-1,727,547,0,0
-490,477,0,0,0,0,0,0,0,0,0,-1,734,547,0,0
-483,477,-7.73151,-0.224182,0,0,0,0,0,0,0,-1,741,547,-7.73152,0.224176
-476,477,-6.25806,-0.310547,0,0,0,0,0,0,0,-1,748,547,-6.25804,0.310549
-469,477,-7.26617,0.525085,0,0,0,0,0,0,0,-1,755,547,-7.2662,-0.525111
-462,477,-6.65143,1.06042,0,0,0,0,0,0,0,-1,762,547,-6.65143,-1.06043
-455,477,-5.31757,0.429016,0,0,0,0,0,0,0,-1,769,547,-5.31756,-0.42902
-448,477,-4.0697,0.273376,0,0,0,0,0,0,0,-1,776,547,-4.06971,-0.273363
-441,477,-2.47504,-4.76971,0,0,0,0,0,0,0,-1,783,547,-2.47505,4.76973
-434,477,-2.70911,-8.52313,0,0,0,0,0,0,0,-1,790,547,-2.70908,8.52311
-427,477,-2.92902,-8.6615,-0.00522189,0.00978865,-0.00295826,0.0103506,-0.00578386,-1.38307,0.0094388,0.0360478,797,547,-2.92902,8.66152
-420,477,-2.97272,-8.94995,-0.00379064,0.00757578,-0.00254755,0.00812064,-0.0043355,-1.36009,0.0073014,0.0298455,804,547,-2.97272,8.94996
-413,477,-2.94781,-9.55676,-0.00271368,0.00571415,-0.00215064,0.00623123,-0.00323076,-1.33484,0.00555369,0.0192166,811,547,-2.94783,9.55678
-406,477,-3.00226,-10.0605,-0.00177253,0.0043259,-0.00179866,0.00481687,-0.0022635,-1.30433,0.00417552,0.0120165,818,547,-3.00223,10.0605
-399,477,-2.9978,-10.4999,-0.00104566,0.0031575,-0.0014625,0.0036163,-0.00150446,-1.26681,0.00303912,0.0201069,825,547,-2.99777,10.4999
-392,477,-3.03778,-10.903,-0.000409884,0.00199734,-0.00109919,0.00242373,-0.000836275,-1.20075,0.00195513,0.0179925,832,547,-3.0378,10.9029
-385,477,-3.03357,-11.291,0.000250551,0.00120629,-0.000824984,0.00168181,-0.000224973,-1.04791,0.00120323,0.0148094,839,547,-3.03358,11.291
-378,477,-3.03754,-11.7094,0.000807701,0.00058579,-0.000602008,0.00130889,8.45974e-05,-0.694266,0.000845808,0.0133694,846,547,-3.03757,11.7094
-371,477,-3.05078,-12.0911,0.00122206,1.16434e-05,-0.000366347,0.0013243,-9.05992e-05,-0.272162,0.000914566,0.0135581,853,547,-3.05079,12.0911
-364,477,-3.05505,-12.462,0.00157503,-0.000505285,-9.4673e-05,0.00157933,-0.000509584,-0.045384,0.00125764,0.0133643,860,547,-3.05507,12.462
-357,477,-3.06732,-12.8669,0.00199273,-0.000845233,8.76145e-05,0.00199543,-0.000847935,0.0308332,0.00168559,0.0106449,867,547,-3.06732,12.8669
-350,477,-3.08655,-13.2599,0.00244168,-0.00101363,0.000123971,0.00244613,-0.00101807,0.0358171,0.00205592,0.0101206,874,547,-3.08654,13.2599
-343,477,-3.02527,-13.6679,0.00280442,-0.00111095,0.000154981,0.00281055,-0.00111708,0.0395002,0.00233682,0.0193823,881,547,-3.02528,13.6679
-336,477,-2.92578,-14.0463,0.00318617,-0.00117169,0.000175775,0.00319325,-0.00117877,0.040248,0.00261198,0.0334819,888,547,-2.9258,14.0463
-329,477,-2.94965,-14.4833,0,0,0,0,0,0,0,-1,895,547,-2.94966,14.4833
-322,477,-2.04822,-12.0026,0,0,0,0,0,0,0,-1,902,547,-2.04819,12.0026
-315,477,-1.67358,-9.15253,0,0,0,0,0,0,0,-1,909,547,-1.67356,9.15253
-308,477,-1.30127,-6.55188,0,0,0,0,0,0,0,-1,916,547,-1.30128,6.55185
-301,477,-1.21185,-6.28351,0,0,0,0,0,0,0,-1,923,547,-1.21184,6.28352
-294,477,-0.352905,3.27142,0,0,0,0,0,0,0,-1,930,547,-0.35292,-3.27144
-287,477,3.54364,2.15399,0,0,0,0,0,0,0,-1,937,547,3.54362,-2.15396
-280,477,1.97308,-0.954163,0,0,0,0,0,0,0,-1,944,547,1.9731,0.954178
-273,477,2.11621,-3.76709,0,0,0,0,0,0,0,-1,951,547,2.11619,3.76706
-266,477,2.04669,-3.42389,0,0,0,0,0,0,0,-1,958,547,2.04671,3.42391
-259,477,-1.33478,-3.41205,0,0,0,0,0,0,0,-1,965,547,-1.3348,3.41206
-252,477,0.597168,-5.32922,0,0,0,0,0,0,0,-1,972,547,0.597144,5.32924
-245,477,8.2309,-8.48492,0,0,0,0,0,0,0,-1,979,547,8.23091,8.48494
-238,477,6.60938,-5.64063,0,0,0,0,0,0,0,-1,986,547,6.60938,5.64063
-231,477,4.71716,-2.52484,0,0,0,0,0,0,0,-1,993,547,4.71716,2.52483
-224,477,0,0,0,0,0,0,0,0,0,-1,1000,547,0,0
-217,477,0,0,0,0,0,0,0,0,0,-1,1007,547,0,0
-210,477,0,0,0,0,0,0,0,0,0,-1,1014,547,0,0
-203,477,0,0,0,0,0,0,0,0,0,-1,1021,547,0,0
-196,477,0,0,0,0,0,0,0,0,0,-1,1028,547,0,0
-189,477,0,0,0,0,0,0,0,0,0,-1,1035,547,0,0
-182,477,0,0,0,0,0,0,0,0,0,-1,1042,547,0,0
-175,477,0,0,0,0,0,0,0,0,0,-1,1049,547,0,0
-168,477,0,0,0,0,0,0,0,0,0,-1,1056,547,0,0
-161,477,0,0,0,0,0,0,0,0,0,-1,1063,547,0,0
-154,477,0,0,0,0,0,0,0,0,0,-1,1070,547,0,0
-147,477,0,0,0,0,0,0,0,0,0,-1,1077,547,0,0
-140,477,0,0,0,0,0,0,0,0,0,-1,1084,547,0,0
-133,477,0,0,0,0,0,0,0,0,0,-1,1091,547,0,0
-126,477,0,0,0,0,0,0,0,0,0,-1,1098,547,0,0
-119,477,0,0,0,0,0,0,0,0,0,-1,1105,547,0,0
-112,477,0,0,0,0,0,0,0,0,0,-1,1112,547,0,0
-105,477,0,0,0,0,0,0,0,0,0,-1,1119,547,0,0
-98,477,0,0,0,0,0,0,0,0,0,-1,1126,547,0,0
-91,477,0,0,0,0,0,0,0,0,0,-1,1133,547,0,0
-84,477,0,0,0,0,0,0,0,0,0,-1,1140,547,0,0
-77,477,0,0,0,0,0,0,0,0,0,-1,1147,547,0,0
-70,477,0,0,0,0,0,0,0,0,0,-1,1154,547,0,0
-63,477,0,0,0,0,0,0,0,0,0,-1,1161,547,0,0
-56,477,0,0,0,0,0,0,0,0,0,-1,1168,547,0,0
-49,477,0,0,0,0,0,0,0,0,0,-1,1175,547,0,0
-42,477,0,0,0,0,0,0,0,0,0,-1,1182,547,0,0
-35,477,0,0,0,0,0,0,0,0,0,-1,1189,547,0,0
-28,477,0,0,0,0,0,0,0,0,0,-1,1196,547,0,0
-21,477,0,0,0,0,0,0,0,0,0,-1,1203,547,0,0
-14,477,0,0,0,0,0,0,0,0,0,-1,1210,547,0,0
-7,477,0,0,0,0,0,0,0,0,0,-1,1217,547,0,0
0,477,0,0,0,0,0,0,0,0,0,-1,1224,547,0,0
7,477,0,0,0,0,0,0,0,0,0,-1,1231,547,0,0
14,477,0,0,0,0,0,0,0,0,0,-1,1238,547,0,0
21,477,0,0,0,0,0,0,0,0,0,-1,1245,547,0,0
28,477,0,0,0,0,0,0,0,0,0,-1,1252,547,0,0
35,477,0,0,0,0,0,0,0,0,0,-1,1259,547,0,0
42,477,0,0,0,0,0,0,0,0,0,-1,1266,547,0,0
49,477,0,0,0,0,0,0,0,0,0,-1,1273,547,0,0
56,477,0,0,0,0,0,0,0,0,0,-1,1280,547,0,0
63,477,0,0,0,0,0,0,0,0,0,-1,1287,547,0,0
70,477,0,0,0,0,0,0,0,0,0,-1,1294,547,0,0
77,477,0,0,0,0,0,0,0,0,0,-1,1301,547,0,0
84,477,0,0,0,0,0,0,0,0,0,-1,1308,547,0,0
91,477,0,0,0,0,0,0,0,0,0,-1,1315,547,0,0
98,477,0,0,0,0,0,0,0,0,0,-1,1322,547,0,0
105,477,0,0,0,0,0,0,0,0,0,-1,1329,547,0,0
112,477,0,0,0,0,0,0,0,0,0,-1,1336,547,0,0
119,477,0,0,0,0,0,0,0,0,0,-1,1343,547,0,0
126,477,0,0,0,0,0,0,0,0,0,-1,1350,547,0,0
133,477,0,0,0,0,0,0,0,0,0,-1,1357,547,0,0
140,477,0,0,0,0,0,0,0,0,0,-1,1364,547,0,0
147,477,0,0,0,0,0,0,0,0,0,-1,1371,547,0,0
154,477,0,0,0,0,0,0,0,0,0,-1,1378,547,0,0
161,477,0,0,0,0,0,0,0,0,0,-1,1385,547,0,0
168,477,0,0,0,0,0,0,0,0,0,-1,1392,547,0,0
175,477,0,0,0,0,0,0,0,0,0,-1,1399,547,0,0
182,477,0,0,0,0,0,0,0,0,0,-1,1406,547,0,0
189,477,0,0,0,0,0,0,0,0,0,-1,1413,547,0,0
196,477,0,0,0,0,0,0,0,0,0,-1,1420,547,0,0
203,477,0,0,0,0,0,0,0,0,0,-1,1427,547,0,0
210,477,0,0,0,0,0,0,0,0,0,-1,1434,547,0,0
217,477,0,0,0,0,0,0,0,0,0,-1,1441,547,0,0
224,477,0,0,0,0,0,0,0,0,0,-1,1448,547,0,0
231,477,0,0,0,0,0,0,0,0,0,-1,1455,547,0,0
238,477,0,0,0,0,0,0,0,0,0,-1,1462,547,0,0
245,477,0,0,0,0,0,0,0,0,0,-1,1469,547,0,0
252,477,0,0,0,0,0,0,0,0,0,-1,1476,547,0,0
259,477,0,0,0,0,0,0,0,0,0,-1,1483,547,0,0
266,477,0,0,0,0,0,0,0,0,0,-1,1490,547,0,0
273,477,0,0,0,0,0,0,0,0,0,-1,1497,547,0,0
280,477,0,0,0,0,0,0,0,0,0,-1,1504,547,0,0
287,477,0,0,0,0,0,0,0,0,0,-1,1511,547,0,0
294,477,0,0,0,0,0,0,0,0,0,-1,1518,547,0,0
301,477,0,0,0,0,0,0,0,0,0,-1,1525,547,0,0
308,477,0,0,0,0,0,0,0,0,0,-1,1532,547,0,0
315,477,0,0,0,0,0,0,0,0,0,-1,1539,547,0,0
322,477,0,0,0,0,0,0,0,0,0,-1,1546,547,0,0
329,477,0,0,0,0,0,0,0,0,0,-1,1553,547,0,0
336,477,0,0,0,0,0,0,0,0,0,-1,1560,547,0,0
343,477,0,0,0,0,0,0,0,0,0,-1,1567,547,0,0
350,477,1.7699,-3.32275,0,0,0,0,0,0,0,-1,1574,547,1.7699,3.32272
357,477,3.073,-4.83313,0,0,0,0,0,0,0,-1,1581,547,3.07303,4.83316
364,477,4.30127,-4.22864,0,0,0,0,0,0,0,-1,1588,547,4.30125,4.22865
371,477,4.57703,0.283264,0,0,0,0,0,0,0,-1,1595,547,4.57706,-0.283262
378,477,8.57947,1.05969,0,0,0,0,0,0,0,-1,1602,547,8.5795,-1.05972
385,477,12.3726,2.02356,0,0,0,0,0,0,0,-1,1609,547,12.3725,-2.02355
392,477,16.4678,2.76843,0,0,0,0,0,0,0,-1,1616,547,16.4678,-2.76845
399,477,8.00037,-2.29523,0,0,0,0,0,0,0,-1,1623,547,8.00031,2.2952
406,477,4.82495,2.7475,0,0,0,0,0,0,0,-1,1630,547,4.825,-2.74752
413,477,4.88171,-0.336426,0,0,0,0,0,0,0,-1,1637,547,4.88169,0.336398
420,477,3.34875,0.102722,0,0,0,0,0,0,0,-1,1644,547,3.34871,-0.1027
427,477,1.66772,-0.373108,0,0,0,0,0,0,0,-1,1651,547,1.66768,0.373104
434,477,3.76978,-2.30798,0,0,0,0,0,0,0,-1,1658,547,3.76974,2.30801
441,477,4.05444,-2.80402,0,0,0,0,0,0,0,-1,1665,547,4.05444,2.804
448,477,10.4247,-11.7421,0,0,0,0,0,0,0,-1,1672,547,10.4247,11.7421
455,477,11.0334,-13.3384,0,0,0,0,0,0,0,-1,1679,547,11.0334,13.3384
462,477,10.9047,-12.7894,0,0,0,0,0,0,0,-1,1686,547,10.9046,12.7894
469,477,10.934,-12.3124,0.00044829,0.000294244,-0.00162444,0.00199753,-0.001255,-0.761708,0.00189409,0.0318341,1693,547,10.934,12.3124
476,477,10.9034,-11.9037,0.00139221,0.00111282,-0.000513195,0.00178438,0.000720647,-0.652518,0.00103654,0.0197058,1700,547,10.9035,11.9037
483,477,10.9036,-11.4897,0.00222251,0.00166116,0.000481223,0.00249893,0.00138474,0.521387,0.00144557,0.0124971,1707,547,10.9036,11.4897
490,477,10.8766,-11.0939,0.00236588,0.00222232,0.00101994,0.00331656,0.00127164,0.750266,0.00193209,0.0122122,1714,547,10.8766,11.094
497,477,10.8749,-10.6481,0.00190706,0.00184944,0.00111508,0.0029937,0.000762802,0.772484,0.00179635,0.0131201,1721,547,10.8749,10.6481
504,477,10.8755,-10.2103,0.00124369,0.00127795,0.00101138,0.00227235,0.000249295,0.793866,0.00143902,0.0182189,1728,547,10.8755,10.2103
511,477,10.8989,-9.84497,0.000440484,0.000714587,0.000851888,0.00144038,-0.000285307,0.865155,0.00106813,0.021701,1735,547,10.8989,9.84499
518,477,10.8865,-9.43555,-0.00052229,0.000241936,0.000625053,0.000592423,-0.000872776,1.05975,0.000851079,0.0189595,1742,547,10.8865,9.43554
525,477,10.8533,-8.97003,-0.00149468,-0.000299413,0.000353331,-0.000202778,-0.00159131,1.30383,0.00100016,0.0167249,1749,547,10.8533,8.97002
532,477,10.7926,-8.55518,-0.00247033,-0.00072864,9.30097e-05,-0.000723687,-0.00247528,1.5176,0.00146961,0.0186199,1756,547,10.7926,8.55517
539,477,10.793,-8.04565,-0.00341458,-0.00106973,-0.000154391,-0.00105961,-0.0034247,-1.50533,0.00202457,0.0167525,1763,547,10.7929,8.04566
546,477,10.7506,-7.63202,-0.00437843,-0.0014863,-0.000482513,-0.00140792,-0.0044568,-1.40977,0.00263063,0.0284909,1770,547,10.7507,7.632
553,477,10.7488,-7.15851,-0.0053838,-0.00174428,-0.000820206,-0.00156797,-0.0055601,-1.35907,0.00331026,0.0383429,1777,547,10.7488,7.15849
560,477,11.0193,-6.55823,0,0,0,0,0,0,0,-1,1784,547,11.0193,6.5582
567,477,10.8661,-6.10559,0,0,0,0,0,0,0,-1,1791,547,10.8661,6.10561
574,477,6.82593,-0.916992,0,0,0,0,0,0,0,-1,1798,547,6.82598,0.916977
581,477,9.29321,-0.557007,0,0,0,0,0,0,0,-1,1805,547,9.29324,0.55703
588,477,9.75195,0.422729,0,0,0,0,0,0,0,-1,1812,547,9.75198,-0.42273
595,477,9.89172,1.21326,0,0,0,0,0,0,0,-1,1819,547,9.89174,-1.21328
602,477,6.5271,-0.964417,0,0,0,0,0,0,0,-1,1826,547,6.52706,0.964427
609,477,0,0,0,0,0,0,0,0,0,-1,1833,547,0,0
616,477,0,0,0,0,0,0,0,0,0,-1,1840,547,0,0
623,477,0,0,0,0,0,0,0,0,0,-1,1847,547,0,0
630,477,0,0,0,0,0,0,0,0,0,-1,1854,547,0,0
637,477,0,0,0,0,0,0,0,0,0,-1,1861,547,0,0
644,477,0,0,0,0,0,0,0,0,0,-1,1868,547,0,0
651,477,0,0,0,0,0,0,0,0,0,-1,1875,547,0,0
658,477,0,0,0,0,0,0,0,0,0,-1,1882,547,0,0
665,477,0,0,0,0,0,0,0,0,0,-1,1889,547,0,0
672,477,0,0,0,0,0,0,0,0,0,-1,1896,547,0,0
679,477,0,0,0,0,0,0,0,0,0,-1,1903,547,0,0
686,477,0,0,0,0,0,0,0,0,0,-1,1910,547,0,0
693,477,0,0,0,0,0,0,0,0,0,-1,1917,547,0,0
700,477,0,0,0,0,0,0,0,0,0,-1,1924,547,0,0
707,477,0,0,0,0,0,0,0,0,0,-1,1931,547,0,0
714,477,0,0,0,0,0,0,0,0,0,-1,1938,547,0,0
721,477,0,0,0,0,0,0,0,0,0,-1,1945,547,0,0
728,477,0,0,0,0,0,0,0,0,0,-1,1952,547,0,0
735,477,0,0,0,0,0,0,0,0,0,-1,1959,547,0,0
742,477,0,0,0,0,0,0,0,0,0,-1,1966,547,0,0
749,477,0,0,0,0,0,0,0,0,0,-1,1973,547,0,0
756,477,0,0,0,0,0,0,0,0,0,-1,1980,547,0,0
763,477,0,0,0,0,0,0,0,0,0,-1,1987,547,0,0
770,477,0,0,0,0,0,0,0,0,0,-1,1994,547,0,0
777,477,0,0,0,0,0,0,0,0,0,-1,2001,547,0,0
784,477,0,0,0,0,0,0,0,0,0,-1,2008,547,0,0
791,477,0,0,0,0,0,0,0,0,0,-1,2015,547,0,0
798,477,0,0,0,0,0,0,0,0,0,-1,2022,547,0,0
805,477,0,0,0,0,0,0,0,0,0,-1,2029,547,0,0
812,477,0,0,0,0,0,0,0,0,0,-1,2036,547,0,0
-700,470,0,0,0,0,0,0,0,0,0,-1,524,554,0,0
-693,470,0,0,0,0,0,0,0,0,0,-1,531,554,0,0
-686,470,0,0,0,0,0,0,0,0,0,-1,538,554,0,0
-679,470,0,0,0,0,0,0,0,0,0,-1,545,554,0,0
-672,470,0,0,0,0,0,0,0,0,0,-1,552,554,0,0
-665,470,0,0,0,0,0,0,0,0,0,-1,559,554,0,0
-658,470,0,0,0,0,0,0,0,0,0,-1,566,554,0,0
-651,470,0,0,0,0,0,0,0,0,0,-1,573,554,0,0
-644,470,0,0,0,0,0,0,0,0,0,-1,580,554,0,0
-637,470,0,0,0,0,0,0,0,0,0,-1,587,554,0,0
-630,470,0,0,0,0,0,0,0,0,0,-1,594,554,0,0
-623,470,0,0,0,0,0,0,0,0,0,-1,601,554,0,0
-616,470,0,0,0,0,0,0,0,0,0,-1,608,554,0,0
-609,470,0,0,0,0,0,0,0,0,0,-1,615,554,0,0
-602,470,0,0,0,0,0,0,0,0,0,-1,622,554,0,0
-595,470,0,0,0,0,0,0,0,0,0,-1,629,554,0,0
-588,470,0,0,0,0,0,0,0,0,0,-1,636,554,0,0
-581,470,0,0,0,0,0,0,0,0,0,-1,643,554,0,0
-574,470,0,0,0,0,0,0,0,0,0,-1,650,554,0,0
-567,470,0,0,0,0,0,0,0,0,0,-1,657,554,0,0
-560,470,0,0,0,0,0,0,0,0,0,-1,664,554,0,0
-553,470,0,0,0,0,0,0,0,0,0,-1,671,554,0,0
-546,470,0,0,0,0,0,0,0,0,0,-1,678,554,0,0
-539,470,0,0,0,0,0,0,0,0,0,-1,685,554,0,0
-532,470,0,0,0,0,0,0,0,0,0,-1,692,554,0,0
-525,470,0,0,0,0,0,0,0,0,0,-1,699,554,0,0
-518,470,0,0,0,0,0,0,0,0,0,-1,706,554,0,0
-511,470,0,0,0,0,0,0,0,0,0,-1,713,554,0,0
-504,470,0,0,0,0,0,0,0,0,0,-1,720,554,0,0
-497,470,0,0,0,0,0,0,0,0,0,-1,727,554,0,0
-490,470,-9.13263,-1.03125,0,0,0,0,0,0,0,-1,734,554,-9.1326,1.03127
-483,470,-7.68677,-1.03955,0,0,0,0,0,0,0,-1,741,554,-7.68678,1.03958
-476,470,-6.17969,-1.03394,0,0,0,0,0,0,0,-1,748,554,-6.17971,1.03395
-469,470,-6.23016,-0.651855,0,0,0,0,0,0,0,-1,755,554,-6.23014,0.651829
-462,470,-4.87915,-1.03705,0,0,0,0,0,0,0,-1,762,554,-4.87914,1.03702
-455,470,-4.14777,-1.37079,0,0,0,0,0,0,0,-1,769,554,-4.14779,1.37078
-448,470,-2.9314,-5.74518,0,0,0,0,0,0,0,-1,776,554,-2.93137,5.74518
-441,470,-3.13678,-7.789,0,0,0,0,0,0,0,-1,783,554,-3.13681,7.78902
-434,470,-3.18427,-8.34821,-0.00553292,0.0102342,-0.00330129,0.0108975,-0.00619623,-1.37251,0.0099927,0.0375235,790,554,-3.18429,8.34819
-427,470,-3.3913,-8.7298,-0.00415925,0.00811592,-0.00267844,0.00867491,-0.00471823,-1.36505,0.0078442,0.0188909,797,554,-3.39129,8.72979
-420,470,-3.35687,-9.16541,-0.00303821,0.00629986,-0.00219578,0.00679041,-0.00352876,-1.351,0.00605617,0.0146091,804,554,-3.35689,9.16539
-413,470,-3.38013,-9.61108,-0.0021986,0.00468092,-0.00170908,0.00508211,-0.00259979,-1.34023,0.00451168,0.0136891,811,554,-3.38014,9.61107
-406,470,-3.42627,-10.0405,-0.00141205,0.00345935,-0.00132794,0.00379783,-0.00175053,-1.32122,0.00327523,0.0115652,818,554,-3.42624,10.0405
-399,470,-3.40759,-10.4781,-0.000769679,0.00242081,-0.000982267,0.00269897,-0.00104784,-1.29484,0.00223214,0.0154488,825,554,-3.4076,10.4781
-392,470,-3.41681,-10.8903,-0.000183246,0.00136578,-0.000620856,0.0015839,-0.000401373,-1.23294,0.00121208,0.0149484,832,554,-3.41683,10.8903
-385,470,-3.44385,-11.2949,0.000441818,0.000661488,-0.000363017,0.000930922,0.000172384,-0.932301,0.00057188,0.0114496,839,554,-3.44382,11.2949
-378,470,-3.44128,-11.6936,0.00097253,8.61553e-05,-0.000146839,0.000996223,6.24628e-05,-0.159971,0.000644337,0.016018,846,554,-3.44128,11.6936
-371,470,-3.43555,-12.0698,0.00141901,-0.000442199,7.10024e-05,0.00142172,-0.000444903,0.0380747,0.00112581,0.0138264,853,554,-3.43557,12.0698
-364,470,-3.45435,-12.4504,0.00184901,-0.000900379,0.000295005,0.0018803,-0.000931676,0.105695,0.00165401,0.0137459,860,554,-3.45435,12.4504
-357,470,-3.48083,-12.8456,0.00236277,-0.00125505,0.00041541,0.00240986,-0.00130213,0.112866,0.0021747,0.0131226,867,554,-3.48086,12.8456
-350,470,-3.45697,-13.2568,0.00292795,-0.00147513,0.000381085,0.00296069,-0.00150787,0.0857005,0.00262498,0.0101269,874,554,-3.45699,13.2568
-343,470,-3.38263,-13.6288,0.00344226,-0.0015796,0.000315721,0.00346203,-0.00159938,0.062541,0.00298744,0.0321768,881,554,-3.3826,13.6289
-336,470,-3.17963,-14.0873,0,0,0,0,0,0,0,-1,888,554,-3.1796,14.0873
-329,470,-2.78516,-12.3594,0,0,0,0,0,0,0,-1,895,554,-2.78517,12.3594
-322,470,-2.30829,-11.4527,0,0,0,0,0,0,0,-1,902,554,-2.30827,11.4527
-315,470,-1.04797,-8.29529,0,0,0,0,0,0,0,-1,909,554,-1.04797,8.29526
-308,470,-1.39368,-6.68152,0,0,0,0,0,0,0,-1,916,554,-1.39369,6.68149
-301,470,-0.0340576,3.34888,0,0,0,0,0,0,0,-1,923,554,-0.0340496,-3.3489
-294,470,-1.18378,3.22266,0,0,0,0,0,0,0,-1,930,554,-1.18376,-3.22268
-287,470,-2.15454,3.2204,0,0,0,0,0,0,0,-1,937,554,-2.15452,-3.22037
-280,470,-3.00537,3.099,0,0,0,0,0,0,0,-1,944,554,-3.00536,-3.09898
-273,470,-12.3932,3.65009,0,0,0,0,0,0,0,-1,951,554,-12.3932,-3.65011
-266,470,-11.5706,1.16028,0,0,0,0,0,0,0,-1,958,554,-11.5706,-1.16031
-259,470,-7.50415,-2.77167,0,0,0,0,0,0,0,-1,965,554,-7.50413,2.7717
-252,470,-0.371155,-5.87823,0,0,0,0,0,0,0,-1,972,554,-0.37114,5.87821
-245,470,1.33221,-6.81122,0,0,0,0,0,0,0,-1,979,554,1.33223,6.8112
-238,470,0,0,0,0,0,0,0,0,0,-1,986,554,0,0
-231,470,0,0,0,0,0,0,0,0,0,-1,993,554,0,0
-224,470,0,0,0,0,0,0,0,0,0,-1,1000,554,0,0
-217,470,0,0,0,0,0,0,0,0,0,-1,1007,554,0,0
-210,470,0,0,0,0,0,0,0,0,0,-1,1014,554,0,0
-203,470,0,0,0,0,0,0,0,0,0,-1,1021,554,0,0
-196,470,0,0,0,0,0,0,0,0,0,-1,1028,554,0,0
-189,470,0,0,0,0,0,0,0,0,0,-1,1035,554,0,0
-182,470,0,0,0,0,0,0,0,0,0,-1,1042,554,0,0
-175,470,0,0,0,0,0,0,0,0,0,-1,1049,554,0,0
-168,470,0,0,0,0,0,0,0,0,0,-1,1056,554,0,0
-161,470,0,0,0,0,0,0,0,0,0,-1,1063,554,0,0
-154,470,0,0,0,0,0,0,0,0,0,-1,1070,554,0,0
-147,470,0,0,0,0,0,0,0,0,0,-1,1077,554,0,0
-140,470,0,0,0,0,0,0,0,0,0,-1,1084,554,0,0
-133,470,0,0,0,0,0,0,0,0,0,-1,1091,554,0,0
-126,470,0,0,0,0,0,0,0,0,0,-1,1098,554,0,0
-119,470,0,0,0,0,0,0,0,0,0,-1,1105,554,0,0
-112,470,0,0,0,0,0,0,0,0,0,-1,1112,554,0,0
-105,470,0,0,0,0,0,0,0,0,0,-1,1119,554,0,0
-98,470,0,0,0,0,0,0,0,0,0,-1,1126,554,0,0
-91,470,0,0,0,0,0,0,0,0,0,-1,1133,554,0,0
-84,470,0,0,0,0,0,0,0,0,0,-1,1140,554,0,0
-77,470,0,0,0,0,0,0,0,0,0,-1,1147,554,0,0
-70,470,0,0,0,0,0,0,0,0,0,-1,1154,554,0,0
-63,470,0,0,0,0,0,0,0,0,0,-1,1161,554,0,0
-56,470,0,0,0,0,0,0,0,0,0,-1,1168,554,0,0
-49,470,0,0,0,0,0,0,0,0,0,-1,1175,554,0,0
-42,470,0,0,0,0,0,0,0,0,0,-1,1182,554,0,0
-35,470,0,0,0,0,0,0,0,0,0,-1,1189,554,0,0
-28,470,0,0,0,0,0,0,0,0,0,-1,1196,554,0,0
-21,470,0,0,0,0,0,0,0,0,0,-1,1203,554,0,0
-14,470,0,0,0,0,0,0,0,0,0,-1,1210,554,0,0
-7,470,0,0,0,0,0,0,0,0,0,-1,1217,554,0,0
0,470,0,0,0,0,0,0,0,0,0,-1,1224,554,0,0
7,470,0,0,0,0,0,0,0,0,0,-1,1231,554,0,0
14,470,0,0,0,0,0,0,0,0,0,-1,1238,554,0,0
21,470,0,0,0,0,0,0,0,0,0,-1,1245,554,0,0
28,470,0,0,0,0,0,0,0,0,0,-1,1252,554,0,0
35,470,0,0,0,0,0,0,0,0,0,-1,1259,554,0,0
42,470,0,0,0,0,0,0,0,0,0,-1,1266,554,0,0
49,470,0,0,0,0,0,0,0,0,0,-1,1273,554,0,0
56,470,0,0,0,0,0,0,0,0,0,-1,1280,554,0,0
63,470,0,0,0,0,0,0,0,0,0,-1,1287,554,0,0
70,470,0,0,0,0,0,0,0,0,0,-1,1294,554,0,0
77,470,0,0,0,0,0,0,0,0,0,-1,1301,554,0,0
84,470,0,0,0,0,0,0,0,0,0,-1,1308,554,0,0
91,470,0,0,0,0,0,0,0,0,0,-1,1315,554,0,0
98,470,0,0,0,0,0,0,0,0,0,-1,1322,554,0,0
105,470,0,0,0,0,0,0,0,0,0,-1,1329,554,0,0
112,470,0,0,0,0,0,0,0,0,0,-1,1336,554,0,0
119,470,0,0,0,0,0,0,0,0,0,-1,1343,554,0,0
126,470,0,0,0,0,0,0,0,0,0,-1,1350,554,0,0
133,470,0,0,0,0,0,0,0,0,0,-1,1357,554,0,0
140,470,0,0,0,0,0,0,0,0,0,-1,1364,554,0,0
147,470,0,0,0,0,0,0,0,0,0,-1,1371,554,0,0
154,470,0,0,0,0,0,0,0,0,0,-1,1378,554,0,0
161,470,0,0,0,0,0,0,0,0,0,-1,1385,554,0,0
168,470,0,0,0,0,0,0,0,0,0,-1,1392,554,0,0
175,470,0,0,0,0,0,0,0,0,0,-1,1399,554,0,0
182,470,0,0,0,0,0,0,0,0,0,-1,1406,554,0,0
189,470,0,0,0,0,0,0,0,0,0,-1,1413,554,0,0
196,470,0,0,0,0,0,0,0,0,0,-1,1420,554,0,0
203,470,0,0,0,0,0,0,0,0,0,-1,1427,554,0,0
210,470,0,0,0,0,0,0,0,0,0,-1,1434,554,0,0
217,470,0,0,0,0,0,0,0,0,0,-1,1441,554,0,0
224,470,0,0,0,0,0,0,0,0,0,-1,1448,554,0,0
231,470,0,0,0,0,0,0,0,0,0,-1,1455,554,0,0
238,470,0,0,0,0,0,0,0,0,0,-1,1462,554,0,0
245,470,0,0,0,0,0,0,0,0,0,-1,1469,554,0,0
252,470,0,0,0,0,0,0,0,0,0,-1,1476,554,0,0
259,470,0,0,0,0,0,0,0,0,0,-1,1483,554,0,0
266,470,0,0,0,0,0,0,0,0,0,-1,1490,554,0,0
273,470,0,0,0,0,0,0,0,0,0,-1,1497,554,0,0
280,470,0,0,0,0,0,0,0,0,0,-1,1504,554,0,0
287,470,0,0,0,0,0,0,0,0,0,-1,1511,554,0,0
294,470,0,0,0,0,0,0,0,0,0,-1,1518,554,0,0
301,470,0,0,0,0,0,0,0,0,0,-1,1525,554,0,0
308,470,0,0,0,0,0,0,0,0,0,-1,1532,554,0,0
315,470,0,0,0,0,0,0,0,0,0,-1,1539,554,0,0
322,470,0,0,0,0,0,0,0,0,0,-1,1546,554,0,0
329,470,0,0,0,0,0,0,0,0,0,-1,1553,554,0,0
336,470,0,0,0,0,0,0,0,0,0,-1,1560,554,0,0
343,470,0,0,0,0,0,0,0,0,0,-1,1567,554,0,0
350,470,0,0,0,0,0,0,0,0,0,-1,1574,554,0,0
357,470,0,0,0,0,0,0,0,0,0,-1,1581,554,0,0
364,470,1.33423,0.293335,0,0,0,0,0,0,0,-1,1588,554,1.33422,-0.293348
371,470,2.22498,-0.0305176,0,0,0,0,0,0,0,-1,1595,554,2.22494,0.0305046
378,470,6.27051,0.710083,0,0,0,0,0,0,0,-1,1602,554,6.27054,-0.710093
385,470,10.3657,1.47296,0,0,0,0,0,0,0,-1,1609,554,10.3657,-1.47299
392,470,15.3881,3.01935,0,0,0,0,0,0,0,-1,1616,554,15.388,-3.01937
399,470,18.4479,2.93793,0,0,0,0,0,0,0,-1,1623,554,18.4479,-2.93792
406,470,15.1896,1.36676,0,0,0,0,0,0,0,-1,1630,554,15.1896,-1.36679
413,470,6.55383,1.99207,0,0,0,0,0,0,0,-1,1637,554,6.5538,-1.99208
420,470,4.47095,0.845703,0,0,0,0,0,0,0,-1,1644,554,4.47098,-0.845718
427,470,3.51038,1.19684,0,0,0,0,0,0,0,-1,1651,554,3.51039,-1.19684
434,470,3.31775,-1.37427,0,0,0,0,0,0,0,-1,1658,554,3.31781,1.37426
441,470,2.55457,-2.05902,0,0,0,0,0,0,0,-1,1665,554,2.55461,2.05904
448,470,3.27258,-2.64032,0,0,0,0,0,0,0,-1,1672,554,3.27257,2.64029
455,470,10.3658,-9.82233,0,0,0,0,0,0,0,-1,1679,554,10.3659,9.82233
462,470,11.0651,-11.9958,0,0,0,0,0,0,0,-1,1686,554,11.0651,11.9958
469,470,11.1444,-12.5285,0,0,0,0,0,0,0,-1,1693,554,11.1444,12.5285
476,470,11.2568,-11.936,0.00243741,0.00150961,7.83641e-05,0.00244398,0.00150303,0.0836722,0.00142342,0.0413267,1700,554,11.2568,11.936
483,470,11.3319,-11.4954,0.00341014,0.0021457,0.0011283,0.00407127,0.00148457,0.530028,0.00237909,0.0162865,1707,554,11.3319,11.4953
490,470,11.3097,-11.0919,0.0035531,0.00285656,0.00160263,0.00484486,0.0015648,0.678405,0.00285502,0.0120754,1714,554,11.3097,11.0918
497,470,11.3224,-10.6642,0.00299013,0.00247612,0.0015706,0.00432461,0.00114163,0.7043,0.00258788,0.0122717,1721,554,11.3224,10.6642
504,470,11.3357,-10.2621,0.00222737,0.00188661,0.00131914,0.00338709,0.00072689,0.721172,0.00205899,0.0190709,1728,554,11.3357,10.2621
511,470,11.3325,-9.87372,0.00137521,0.00131346,0.00102525,0.00237005,0.00031862,0.770345,0.00148527,0.0257395,1735,554,11.3325,9.87373
518,470,11.3287,-9.44843,0.000403274,0.000844706,0.000699145,0.00135715,-0.000109167,0.938294,0.000943261,0.0261552,1742,554,11.3287,9.44843
525,470,11.2893,-8.95355,-0.000553259,0.000324515,0.000361906,0.000454484,-0.000683229,1.22602,0.000661269,0.0168527,1749,554,11.2894,8.95355
532,470,11.2562,-8.4881,-0.00149654,-9.89086e-05,4.86163e-05,-9.72195e-05,-0.00149823,1.53607,0.000968043,0.0138544,1756,554,11.2562,8.48807
539,470,11.2303,-8.04108,-0.00239733,-0.000493965,-0.000249632,-0.00046177,-0.00242952,-1.44253,0.00148981,0.0159306,1763,554,11.2303,8.04109
546,470,11.2358,-7.60352,-0.00329024,-0.000912422,-0.000567543,-0.000783905,-0.00341875,-1.34811,0.002068,0.0138914,1770,554,11.2359,7.60351
553,470,11.2744,-7.14557,-0.00420412,-0.00119382,-0.000880221,-0.000955337,-0.00444261,-1.30621,0.00270023,0.0165694,1777,554,11.2744,7.14558
560,470,11.26,-6.6554,-0.00504693,-0.00152678,-0.00110126,-0.00121064,-0.00536306,-1.29125,0.00324793,0.0264741,1784,554,11.2601,6.65537
567,470,11.139,-6.2345,-0.00586779,-0.00199317,-0.00139418,-0.00154367,-0.0063173,-1.2589,0.00380288,0.0239631,1791,554,11.139,6.23448
574,470,11.2135,-5.61713,0,0,0,0,0,0,0,-1,1798,554,11.2135,5.61712
581,470,8.24646,-4.06317,0,0,0,0,0,0,0,-1,1805,554,8.24648,4.06318
588,470,11.1803,1.74927,0,0,0,0,0,0,0,-1,1812,554,11.1803,-1.74926
595,470,4.72192,3.44116,0,0,0,0,0,0,0,-1,1819,554,4.72191,-3.44116
602,470,14.4307,2.76141,0,0,0,0,0,0,0,-1,1826,554,14.4306,-2.76139
609,470,20.9181,4.41058,0,0,0,0,0,0,0,-1,1833,554,20.9181,-4.4106
616,470,0,0,0,0,0,0,0,0,0,-1,1840,554,0,0
623,470,0,0,0,0,0,0,0,0,0,-1,1847,554,0,0
630,470,0,0,0,0,0,0,0,0,0,-1,1854,554,0,0
637,470,0,0,0,0,0,0,0,0,0,-1,1861,554,0,0
644,470,0,0,0,0,0,0,0,0,0,-1,1868,554,0,0
651,470,0,0,0,0,0,0,0,0,0,-1,1875,554,0,0
658,470,0,0,0,0,0,0,0,0,0,-1,1882,554,0,0
665,470,0,0,0,0,0,0,0,0,0,-1,1889,554,0,0
672,470,0,0,0,0,0,0,0,0,0,-1,1896,554,0,0
679,470,0,0,0,0,0,0,0,0,0,-1,1903,554,0,0
686,470,0,0,0,0,0,0,0,0,0,-1,1910,554,0,0
693,470,0,0,0,0,0,0,0,0,0,-1,1917,554,0,0
700,470,0,0,0,0,0,0,0,0,0,-1,1924,554,0,0
707,470,0,0,0,0,0,0,0,0,0,-1,1931,554,0,0
714,470,0,0,0,0,0,0,0,0,0,-1,1938,554,0,0
721,470,0,0,0,0,0,0,0,0,0,-1,1945,554,0,0
728,470,0,0,0,0,0,0,0,0,0,-1,1952,554,0,0
735,470,0,0,0,0,0,0,0,0,0,-1,1959,554,0,0
742,470,0,0,0,0,0,0,0,0,0,-1,1966,554,0,0
749,470,0,0,0,0,0,0,0,0,0,-1,1973,554,0,0
756,470,0,0,0,0,0,0,0,0,0,-1,1980,554,0,0
763,470,0,0,0,0,0,0,0,0,0,-1,1987,554,0,0
770,470,0,0,0,0,0,0,0,0,0,-1,1994,554,0,0
777,470,0,0,0,0,0,0,0,0,0,-1,2001,554,0,0
784,470,0,0,0,0,0,0,0,0,0,-1,2008,554,0,0
791,470,0,0,0,0,0,0,0,0,0,-1,2015,554,0,0
798,470,0,0,0,0,0,0,0,0,0,-1,2022,554,0,0
805,470,0,0,0,0,0,0,0,0,0,-1,2029,554,0,0
812,470,0,0,0,0,0,0,0,0,0,-1,2036,554,0,0
-700,463,0,0,0,0,0,0,0,0,0,-1,524,561,0,0
-693,463,0,0,0,0,0,0,0,0,0,-1,531,561,0,0
-686,463,0,0,0,0,0,0,0,0,0,-1,538,561,0,0
-679,463,0,0,0,0,0,0,0,0,0,-1,545,561,0,0
-672,463,0,0,0,0,0,0,0,0,0,-1,552,561,0,0
-665,463,0,0,0,0,0,0,0,0,0,-1,559,561,0,0
-658,463,0,0,0,0,0,0,0,0,0,-1,566,561,0,0
-651,463,0,0,0,0,0,0,0,0,0,-1,573,561,0,0
-644,463,0,0,0,0,0,0,0,0,0,-1,580,561,0,0
-637,463,0,0,0,0,0,0,0,0,0,-1,587,561,0,0
-630,463,0,0,0,0,0,0,0,0,0,-1,594,561,0,0
-623,463,0,0,0,0,0,0,0,0,0,-1,601,561,0,0
-616,463,0,0,0,0,0,0,0,0,0,-1,608,561,0,0
-609,463,0,0,0,0,0,0,0,0,0,-1,615,561,0,0
-602,463,0,0,0,0,0,0,0,0,0,-1,622,561,0,0
-595,463,0,0,0,0,0,0,0,0,0,-1,629,561,0,0
-588,463,0,0,0,0,0,0,0,0,0,-1,636,561,0,0
-581,463,0,0,0,0,0,0,0,0,0,-1,643,561,0,0
-574,463,0,0,0,0,0,0,0,0,0,-1,650,561,0,0
-567,463,0,0,0,0,0,0,0,0,0,-1,657,561,0,0
-560,463,0,0,0,0,0,0,0,0,0,-1,664,561,0,0
-553,463,0,0,0,0,0,0,0,0,0,-1,671,561,0,0
-546,463,0,0,0,0,0,0,0,0,0,-1,678,561,0,0
-539,463,0,0,0,0,0,0,0,0,0,-1,685,561,0,0
-532,463,0,0,0,0,0,0,0,0,0,-1,692,561,0,0
-525,463,0,0,0,0,0,0,0,0,0,-1,699,561,0,0
-518,463,0,0,0,0,0,0,0,0,0,-1,706,561,0,0
-511,463,0,0,0,0,0,0,0,0,0,-1,713,561,0,0
-504,463,0,0,0,0,0,0,0,0,0,-1,720,561,0,0
-497,463,-9.81451,-1.67126,0,0,0,0,0,0,0,-1,727,561,-9.81452,1.67127
-490,463,-8.57043,-1.58942,0,0,0,0,0,0,0,-1,734,561,-8.57045,1.58944
-483,463,-7.29224,-1.7226,0,0,0,0,0,0,0,-1,741,561,-7.29226,1.72261
-476,463,-5.77704,-1.7312,0,0,0,0,0,0,0,-1,748,561,-5.77703,1.73121
-469,463,-5.14545,-2.138,0,0,0,0,0,0,0,-1,755,561,-5.14546,2.13799
-462,463,-3.13672,-3.07977,0,0,0,0,0,0,0,-1,762,561,-3.13672,3.07974
-455,463,-2.91406,-5.61798,0,0,0,0,0,0,0,-1,769,561,-2.91406,5.61801
-448,463,-3.45331,-7.2063,0,0,0,0,0,0,0,-1,776,561,-3.45331,7.20629
-441,463,-3.57764,-7.77618,-0.00522028,0.0107822,-0.00399838,0.0117256,-0.0061637,-1.33908,0.0104935,0.0453576,783,561,-3.57761,7.77619
-434,463,-3.7583,-8.31207,-0.00405253,0.00855043,-0.00312292,0.00928182,-0.00478393,-1.34074,0.00825811,0.0200177,790,561,-3.75831,8.31208
-427,463,-3.76312,-8.76575,-0.00309645,0.00670514,-0.00240625,0.007264,-0.00365531,-1.34259,0.006418,0.0104277,797,561,-3.76313,8.76576
-420,463,-3.75336,-9.19073,-0.00229752,0.00511503,-0.00183801,0.00554576,-0.00272824,-1.34061,0.00486844,0.0106513,804,561,-3.75336,9.19077
-413,463,-3.78479,-9.61609,-0.00173055,0.00361672,-0.00124825,0.00389376,-0.00200758,-1.3524,0.00346467,0.00946111,811,561,-3.78479,9.61608
-406,463,-3.83307,-10.0343,-0.00115324,0.00248331,-0.000807235,0.00265445,-0.00132437,-1.36189,0.00233957,0.00977392,818,561,-3.8331,10.0343
-399,463,-3.82965,-10.4507,-0.000653702,0.00150414,-0.000420268,0.0015831,-0.000732665,-1.38507,0.00136673,0.0112634,825,561,-3.82965,10.4507
-392,463,-3.83478,-10.8616,-0.000171789,0.000512856,-3.92504e-05,0.000515099,-0.000174032,-1.51372,0.000413794,0.0104016,832,561,-3.83476,10.8616
-385,463,-3.85632,-11.2868,0.000369679,-0.000138502,0.000222473,0.000453311,-0.000222133,0.359575,0.000397509,0.0107688,839,561,-3.85634,11.2868
-378,463,-3.85602,-11.6864,0.000846022,-0.000682381,0.000444765,0.000966026,-0.000802385,0.263539,0.00102245,0.0128319,846,561,-3.85601,11.6864
-371,463,-3.84589,-12.0852,0.00132221,-0.00114959,0.000643,0.00147947,-0.00130685,0.239865,0.00160971,0.0123775,853,561,-3.84587,12.0852
-364,463,-3.84692,-12.4515,0.00185094,-0.001498,0.000798576,0.00203162,-0.00167868,0.222504,0.00214537,0.0139483,860,561,-3.8469,12.4514
-357,463,-3.88721,-12.8144,0.00248824,-0.00181013,0.000825557,0.00264134,-0.00196324,0.183374,0.00266805,0.0182632,867,561,-3.88719,12.8144
-350,463,-3.80743,-13.2412,0.00322536,-0.00199937,0.000657901,0.00330693,-0.00208094,0.123355,0.00313741,0.0274251,874,561,-3.80742,13.2412
-343,463,-3.62726,-13.5344,0,0,0,0,0,0,0,-1,881,561,-3.62725,13.5343
-336,463,-2.94928,-12.2127,0,0,0,0,0,0,0,-1,888,561,-2.94925,12.2127
-329,463,-2.64307,-12.7037,0,0,0,0,0,0,0,-1,895,561,-2.64307,12.7038
-322,463,-1.82898,-9.11957,0,0,0,0,0,0,0,-1,902,561,-1.829,9.11957
-315,463,-0.944763,-5.96234,0,0,0,0,0,0,0,-1,909,561,-0.94479,5.96237
-308,463,-1.1535,-3.17889,0,0,0,0,0,0,0,-1,916,561,-1.15352,3.17889
-301,463,-1.50366,-3.15338,0,0,0,0,0,0,0,-1,923,561,-1.50364,3.15341
-294,463,-2.35889,-3.93463,0,0,0,0,0,0,0,-1,930,561,-2.35886,3.93465
-287,463,-2.80322,2.73999,0,0,0,0,0,0,0,-1,937,561,-2.80322,-2.74
-280,463,-12.864,5.25146,0,0,0,0,0,0,0,-1,944,561,-12.864,-5.25149
-273,463,-12.4598,3.39178,0,0,0,0,0,0,0,-1,951,561,-12.4598,-3.3918
-266,463,-8.78101,-3.7356,0,0,0,0,0,0,0,-1,958,561,-8.78098,3.73562
-259,463,-6.23285,-5.68842,0,0,0,0,0,0,0,-1,965,561,-6.23288,5.68843
-252,463,0,0,0,0,0,0,0,0,0,-1,972,561,0,0
-245,463,0,0,0,0,0,0,0,0,0,-1,979,561,0,0
-238,463,0,0,0,0,0,0,0,0,0,-1,986,561,0,0
-231,463,0,0,0,0,0,0,0,0,0,-1,993,561,0,0
-224,463,0,0,0,0,0,0,0,0,0,-1,1000,561,0,0
-217,463,0,0,0,0,0,0,0,0,0,-1,1007,561,0,0
-210,463,0,0,0,0,0,0,0,0,0,-1,1014,561,0,0
-203,463,0,0,0,0,0,0,0,0,0,-1,1021,561,0,0
-196,463,0,0,0,0,0,0,0,0,0,-1,1028,561,0,0
-189,463,0,0,0,0,0,0,0,0,0,-1,1035,561,0,0
-182,463,0,0,0,0,0,0,0,0,0,-1,1042,561,0,0
-175,463,0,0,0,0,0,0,0,0,0,-1,1049,561,0,0
-168,463,0,0,0,0,0,0,0,0,0,-1,1056,561,0,0
-161,463,0,0,0,0,0,0,0,0,0,-1,1063,561,0,0
-154,463,0,0,0,0,0,0,0,0,0,-1,1070,561,0,0
-147,463,0,0,0,0,0,0,0,0,0,-1,1077,561,0,0
-140,463,0,0,0,0,0,0,0,0,0,-1,1084,561,0,0
-133,463,0,0,0,0,0,0,0,0,0,-1,1091,561,0,0
-126,463,0,0,0,0,0,0,0,0,0,-1,1098,561,0,0
-119,463,0,0,0,0,0,0,0,0,0,-1,1105,561,0,0
-112,463,0,0,0,0,0,0,0,0,0,-1,1112,561,0,0
-105,463,0,0,0,0,0,0,0,0,0,-1,1119,561,0,0
-98,463,0,0,0,0,0,0,0,0,0,-1,1126,561,0,0
-91,463,0,0,0,0,0,0,0,0,0,-1,1133,561,0,0
-84,463,0,0,0,0,0,0,0,0,0,-1,1140,561,0,0
-77,463,0,0,0,0,0,0,0,0,0,-1,1147,561,0,0
-70,463,0,0,0,0,0,0,0,0,0,-1,1154,561,0,0
-63,463,0,0,0,0,0,0,0,0,0,-1,1161,561,0,0
-56,463,0,0,0,0,0,0,0,0,0,-1,1168,561,0,0
-49,463,0,0,0,0,0,0,0,0,0,-1,1175,561,0,0
-42,463,0,0,0,0,0,0,0,0,0,-1,1182,561,0,0
-35,463,0,0,0,0,0,0,0,0,0,-1,1189,561,0,0
-28,463,0,0,0,0,0,0,0,0,0,-1,1196,561,0,0
-21,463,0,0,0,0,0,0,0,0,0,-1,1203,561,0,0
-14,463,0,0,0,0,0,0,0,0,0,-1,1210,561,0,0
-7,463,0,0,0,0,0,0,0,0,0,-1,1217,561,0,0
0,463,0,0,0,0,0,0,0,0,0,-1,1224,561,0,0
7,463,0,0,0,0,0,0,0,0,0,-1,1231,561,0,0
14,463,0,0,0,0,0,0,0,0,0,-1,1238,561,0,0
21,463,0,0,0,0,0,0,0,0,0,-1,1245,561,0,0
28,463,0,0,0,0,0,0,0,0,0,-1,1252,561,0,0
35,463,0,0,0,0,0,0,0,0,0,-1,1259,561,0,0
42,463,0,0,0,0,0,0,0,0,0,-1,1266,561,0,0
49,463,0,0,0,0,0,0,0,0,0,-1,1273,561,0,0
56,463,0,0,0,0,0,0,0,0,0,-1,1280,561,0,0
63,463,0,0,0,0,0,0,0,0,0,-1,1287,561,0,0
70,463,0,0,0,0,0,0,0,0,0,-1,1294,561,0,0
77,463,0,0,0,0,0,0,0,0,0,-1,1301,561,0,0
84,463,0,0,0,0,0,0,0,0,0,-1,1308,561,0,0
91,463,0,0,0,0,0,0,0,0,0,-1,1315,561,0,0
98,463,0,0,0,0,0,0,0,0,0,-1,1322,561,0,0
105,463,0,0,0,0,0,0,0,0,0,-1,1329,561,0,0
112,463,0,0,0,0,0,0,0,0,0,-1,1336,561,0,0
119,463,0,0,0,0,0,0,0,0,0,-1,1343,561,0,0
126,463,0,0,0,0,0,0,0,0,0,-1,1350,561,0,0
133,463,0,0,0,0,0,0,0,0,0,-1,1357,561,0,0
140,463,0,0,0,0,0,0,0,0,0,-1,1364,561,0,0
147,463,0,0,0,0,0,0,0,0,0,-1,1371,561,0,0
154,463,0,0,0,0,0,0,0,0,0,-1,1378,561,0,0
161,463,0,0,0,0,0,0,0,0,0,-1,1385,561,0,0
168,463,0,0,0,0,0,0,0,0,0,-1,1392,561,0,0
175,463,0,0,0,0,0,0,0,0,0,-1,1399,561,0,0
182,463,0,0,0,0,0,0,0,0,0,-1,1406,561,0,0
189,463,0,0,0,0,0,0,0,0,0,-1,1413,561,0,0
196,463,0,0,0,0,0,0,0,0,0,-1,1420,561,0,0
203,463,0,0,0,0,0,0,0,0,0,-1,1427,561,0,0
210,463,0,0,0,0,0,0,0,0,0,-1,1434,561,0,0
217,463,0,0,0,0,0,0,0,0,0,-1,1441,561,0,0
224,463,0,0,0,0,0,0,0,0,0,-1,1448,561,0,0
231,463,0,0,0,0,0,0,0,0,0,-1,1455,561,0,0
238,463,0,0,0,0,0,0,0,0,0,-1,1462,561,0,0
245,463,0,0,0,0,0,0,0,0,0,-1,1469,561,0,0
252,463,0,0,0,0,0,0,0,0,0,-1,1476,561,0,0
259,463,0,0,0,0,0,0,0,0,0,-1,1483,561,0,0
266,463,0,0,0,0,0,0,0,0,0,-1,1490,561,0,0
273,463,0,0,0,0,0,0,0,0,0,-1,1497,561,0,0
280,463,0,0,0,0,0,0,0,0,0,-1,1504,561,0,0
287,463,0,0,0,0,0,0,0,0,0,-1,1511,561,0,0
294,463,0,0,0,0,0,0,0,0,0,-1,1518,561,0,0
301,463,0,0,0,0,0,0,0,0,0,-1,1525,561,0,0
308,463,0,0,0,0,0,0,0,0,0,-1,1532,561,0,0
315,463,0,0,0,0,0,0,0,0,0,-1,1539,561,0,0
322,463,0,0,0,0,0,0,0,0,0,-1,1546,561,0,0
329,463,0,0,0,0,0,0,0,0,0,-1,1553,561,0,0
336,463,0,0,0,0,0,0,0,0,0,-1,1560,561,0,0
343,463,0,0,0,0,0,0,0,0,0,-1,1567,561,0,0
350,463,0,0,0,0,0,0,0,0,0,-1,1574,561,0,0
357,463,0,0,0,0,0,0,0,0,0,-1,1581,561,0,0
364,463,0,0,0,0,0,0,0,0,0,-1,1588,561,0,0
371,463,1.75842,0.152588,0,0,0,0,0,0,0,-1,1595,561,1.75844,-0.152558
378,463,4.58813,-0.0444336,0,0,0,0,0,0,0,-1,1602,561,4.58809,0.0444505
385,463,8.88574,1.65057,0,0,0,0,0,0,0,-1,1609,561,8.88575,-1.65055
392,463,14.0912,2.50513,0,0,0,0,0,0,0,-1,1616,561,14.0912,-2.5051
399,463,21.4769,2.7002,0,0,0,0,0,0,0,-1,1623,561,21.477,-2.70017
406,463,26.2987,4.32318,0,0,0,0,0,0,0,-1,1630,561,26.2987,-4.3232
413,463,26.5011,2.65222,0,0,0,0,0,0,0,-1,1637,561,26.5011,-2.65224
420,463,8.849,2.26611,0,0,0,0,0,0,0,-1,1644,561,8.84899,-2.26613
427,463,5.12207,1.69183,0,0,0,0,0,0,0,-1,1651,561,5.12206,-1.69184
434,463,4.59814,1.81995,0,0,0,0,0,0,0,-1,1658,561,4.59812,-1.81994
441,463,1.76392,-5.99225,0,0,0,0,0,0,0,-1,1665,561,1.7639,5.99225
448,463,2.49939,-4.30536,0,0,0,0,0,0,0,-1,1672,561,2.49941,4.30536
455,463,4.40295,-3.02557,0,0,0,0,0,0,0,-1,1679,561,4.40299,3.02558
462,463,5.38293,-4.06445,0,0,0,0,0,0,0,-1,1686,561,5.38289,4.06444
469,463,5.94373,-4.50647,0,0,0,0,0,0,0,-1,1693,561,5.94368,4.50646
476,463,11.3052,-12.2479,0,0,0,0,0,0,0,-1,1700,561,11.3052,12.2478
483,463,11.6024,-11.6992,0.00464234,0.00273443,0.00202953,0.00593093,0.00144584,0.565703,0.00357095,0.0486464,1707,561,11.6025,11.6991
490,463,11.7531,-11.0925,0.00479727,0.00354644,0.0024107,0.00666236,0.00168135,0.65848,0.00400068,0.023011,1714,561,11.753,11.0925
497,463,11.7363,-10.6517,0.00415493,0.0030894,0.00224403,0.00592857,0.00131576,0.668849,0.00359497,0.013061,1721,561,11.7364,10.6517
504,463,11.7518,-10.2454,0.00331959,0.00242994,0.00185889,0.00478613,0.000963388,0.667958,0.00292303,0.0165407,1728,561,11.7518,10.2453
511,463,11.7632,-9.84198,0.002451,0.00180433,0.00146256,0.00362553,0.000629794,0.676611,0.00223684,0.0236782,1735,561,11.7632,9.84198
518,463,11.7898,-9.40033,0.00150219,0.00130309,0.00107861,0.00248584,0.000319442,0.73938,0.00156167,0.0253881,1742,561,11.7899,9.40035
525,463,11.7258,-8.94537,0.000579128,0.000793825,0.000713642,0.00140815,-3.51942e-05,0.86005,0.000950713,0.0203955,1749,561,11.7258,8.94539
532,463,11.7322,-8.49261,-0.000324915,0.000367355,0.000373232,0.00053025,-0.00048781,1.15927,0.000587947,0.0160731,1756,561,11.7321,8.49264
539,463,11.6967,-8.0343,-0.00119301,-7.73402e-05,3.69535e-05,-7.61175e-05,-0.00119423,1.53772,0.000772033,0.0161526,1763,561,11.6966,8.03429
546,463,11.6886,-7.6098,-0.00202345,-0.000480101,-0.000269583,-0.000434367,-0.00206918,-1.40275,0.00125988,0.0127109,1770,561,11.6886,7.60982
553,463,11.6897,-7.1286,-0.00284844,-0.000781898,-0.000568833,-0.000635668,-0.00299466,-1.31918,0.0018219,0.010654,1777,561,11.6897,7.12859
560,463,11.6995,-6.61346,-0.00362108,-0.00107795,-0.00074683,-0.000874848,-0.00382418,-1.30527,0.00231364,0.0155341,1784,561,11.6994,6.61346
567,463,11.5874,-6.20435,-0.00436952,-0.00147844,-0.000962285,-0.00118744,-0.00466052,-1.27713,0.00279654,0.0221683,1791,561,11.5874,6.20434
574,463,11.3838,-5.92102,0,0,0,0,0,0,0,-1,1798,561,11.3838,5.92105
581,463,7.77832,-2.18085,0,0,0,0,0,0,0,-1,1805,561,7.77828,2.18082
588,463,1.97424,2.16016,0,0,0,0,0,0,0,-1,1812,561,1.97422,-2.16013
595,463,9.98657,2.99854,0,0,0,0,0,0,0,-1,1819,561,9.98662,-2.99856
602,463,17.2202,4.91302,0,0,0,0,0,0,0,-1,1826,561,17.2202,-4.91305
609,463,17.96,4.03131,0,0,0,0,0,0,0,-1,1833,561,17.96,-4.03132
616,463,20.8352,3.15131,0,0,0,0,0,0,0,-1,1840,561,20.8352,-3.1513
623,463,0,0,0,0,0,0,0,0,0,-1,1847,561,0,0
630,463,0,0,0,0,0,0,0,0,0,-1,1854,561,0,0
637,463,0,0,0,0,0,0,0,0,0,-1,1861,561,0,0
644,463,0,0,0,0,0,0,0,0,0,-1,1868,561,0,0
651,463,0,0,0,0,0,0,0,0,0,-1,1875,561,0,0
658,463,0,0,0,0,0,0,0,0,0,-1,1882,561,0,0
665,463,0,0,0,0,0,0,0,0,0,-1,1889,561,0,0
672,463,0,0,0,0,0,0,0,0,0,-1,1896,561,0,0
679,463,0,0,0,0,0,0,0,0,0,-1,1903,561,0,0
686,463,0,0,0,0,0,0,0,0,0,-1,1910,561,0,0
693,463,0,0,0,0,0,0,0,0,0,-1,1917,561,0,0
700,463,0,0,0,0,0,0,0,0,0,-1,1924,561,0,0
707,463,0,0,0,0,0,0,0,0,0,-1,1931,561,0,0
714,463,0,0,0,0,0,0,0,0,0,-1,1938,561,0,0
721,463,0,0,0,0,0,0,0,0,0,-1,1945,561,0,0
728,463,0,0,0,0,0,0,0,0,0,-1,1952,561,0,0
735,463,0,0,0,0,0,0,0,0,0,-1,1959,561,0,0
742,463,0,0,0,0,0,0,0,0,0,-1,1966,561,0,0
749,463,0,0,0,0,0,0,0,0,0,-1,1973,561,0,0
756,463,0,0,0,0,0,0,0,0,0,-1,1980,561,0,0
763,463,0,0,0,0,0,0,0,0,0,-1,1987,561,0,0
770,463,0,0,0,0,0,0,0,0,0,-1,1994,561,0,0
777,463,0,0,0,0,0,0,0,0,0,-1,2001,561,0,0
784,463,0,0,0,0,0,0,0,0,0,-1,2008,561,0,0
791,463,0,0,0,0,0,0,0,0,0,-1,2015,561,0,0
798,463,0,0,0,0,0,0,0,0,0,-1,2022,561,0,0
805,463,0,0,0,0,0,0,0,0,0,-1,2029,561,0,0
812,463,0,0,0,0,0,0,0,0,0,-1,2036,561,0,0
-700,456,0,0,0,0,0,0,0,0,0,-1,524,568,0,0
-693,456,0,0,0,0,0,0,0,0,0,-1,531,568,0,0
-686,456,0,0,0,0,0,0,0,0,0,-1,538,568,0,0
-679,456,0,0,0,0,0,0,0,0,0,-1,545,568,0,0
-672,456,0,0,0,0,0,0,0,0,0,-1,552,568,0,0
-665,456,0,0,0,0,0,0,0,0,0,-1,559,568,0,0
-658,456,0,0,0,0,0,0,0,0,0,-1,566,568,0,0
-651,456,0,0,0,0,0,0,0,0,0,-1,573,568,0,0
-644,456,0,0,0,0,0,0,0,0,0,-1,580,568,0,0
-637,456,0,0,0,0,0,0,0,0,0,-1,587,568,0,0
-630,456,0,0,0,0,0,0,0,0,0,-1,594,568,0,0
-623,456,0,0,0,0,0,0,0,0,0,-1,601,568,0,0
-616,456,0,0,0,0,0,0,0,0,0,-1,608,568,0,0
-609,456,0,0,0,0,0,0,0,0,0,-1,615,568,0,0
-602,456,0,0,0,0,0,0,0,0,0,-1,622,568,0,0
-595,456,0,0,0,0,0,0,0,0,0,-1,629,568,0,0
-588,456,0,0,0,0,0,0,0,0,0,-1,636,568,0,0
-581,456,0,0,0,0,0,0,0,0,0,-1,643,568,0,0
-574,456,0,0,0,0,0,0,0,0,0,-1,650,568,0,0
-567,456,0,0,0,0,0,0,0,0,0,-1,657,568,0,0
-560,456,0,0,0,0,0,0,0,0,0,-1,664,568,0,0
-553,456,0,0,0,0,0,0,0,0,0,-1,671,568,0,0
-546,456,0,0,0,0,0,0,0,0,0,-1,678,568,0,0
-539,456,0,0,0,0,0,0,0,0,0,-1,685,568,0,0
-532,456,0,0,0,0,0,0,0,0,0,-1,692,568,0,0
-525,456,0,0,0,0,0,0,0,0,0,-1,699,568,0,0
-518,456,0,0,0,0,0,0,0,0,0,-1,706,568,0,0
-511,456,0,0,0,0,0,0,0,0,0,-1,713,568,0,0
-504,456,-10.3994,-2.34839,0,0,0,0,0,0,0,-1,720,568,-10.3994,2.3484
-497,456,-9.21375,-2.38068,0,0,0,0,0,0,0,-1,727,568,-9.21372,2.38069
-490,456,-8.09058,-2.31824,0,0,0,0,0,0,0,-1,734,568,-8.09057,2.31821
-483,456,-6.66119,-2.24329,0,0,0,0,0,0,0,-1,741,568,-6.66121,2.24331
-476,456,-5.1499,-2.21185,0,0,0,0,0,0,0,-1,748,568,-5.14992,2.21184
-469,456,-2.81238,-3.51501,0,0,0,0,0,0,0,-1,755,568,-2.81237,3.51501
-462,456,-4.2431,-5.27478,0,0,0,0,0,0,0,-1,762,568,-4.24312,5.27476
-455,456,-3.98993,-6.25037,0,0,0,0,0,0,0,-1,769,568,-3.9899,6.25037
-448,456,-3.98932,-7.08075,-0.00493399,0.0106213,-0.0044893,0.011824,-0.00613663,-1.30905,0.0105414,0.0470606,776,568,-3.98929,7.08073
-441,456,-4.10925,-7.85516,-0.00381534,0.00881022,-0.00362218,0.00977559,-0.00478071,-1.31034,0.00856742,0.0238569,783,568,-4.10923,7.85518
-434,456,-4.18707,-8.33099,-0.00300752,0.00694045,-0.00277263,0.00766103,-0.00372809,-1.31653,0.00670492,0.0128824,790,568,-4.18707,8.33101
-427,456,-4.17664,-8.75476,-0.00231822,0.00530742,-0.00202085,0.00580985,-0.00282066,-1.32711,0.00508148,0.00886588,797,568,-4.17663,8.75479
-420,456,-4.18256,-9.17908,-0.00172719,0.00388204,-0.00140295,0.00421337,-0.00205852,-1.33888,0.00369163,0.00943309,804,568,-4.18253,9.17905
-413,456,-4.20618,-9.60089,-0.0013432,0.00248738,-0.000745281,0.00262728,-0.00148309,-1.38525,0.00240358,0.00881788,811,568,-4.2062,9.60089
-406,456,-4.24414,-10.0025,-0.000917483,0.00143073,-0.000261216,0.00145944,-0.00094619,-1.46134,0.00139939,0.00924344,818,568,-4.24414,10.0025
-399,456,-4.25781,-10.4175,-0.000529962,0.000510011,0.000160617,0.000534252,-0.000554203,1.421,0.000628455,0.0110296,825,568,-4.25782,10.4176
-392,456,-4.24957,-10.8337,-0.000143506,-0.000395749,0.00055623,0.000300722,-0.000839977,0.673912,0.000682673,0.00980801,832,568,-4.24959,10.8337
-385,456,-4.2533,-11.2403,0.000296245,-0.000982284,0.000827273,0.000702466,-0.00138851,0.456451,0.00122869,0.00909337,839,568,-4.25328,11.2403
-378,456,-4.27124,-11.666,0.000681932,-0.00147984,0.0010713,0.00112289,-0.00192079,0.390472,0.00177728,0.0111158,846,568,-4.27123,11.6659
-371,456,-4.27142,-12.0693,0.0011409,-0.00185664,0.00127032,0.00160682,-0.00232257,0.351543,0.00228114,0.0121445,853,568,-4.2714,12.0693
-364,456,-4.23718,-12.4167,0.00171743,-0.00204239,0.00137267,0.00216524,-0.0024902,0.315347,0.00269,0.0169055,860,568,-4.2372,12.4167
-357,456,-4.20892,-12.8052,0.00242803,-0.00224648,0.00130627,0.00276829,-0.00258674,0.254821,0.00309232,0.0279616,867,568,-4.20892,12.8052
-350,456,-4.0976,-13.3668,0,0,0,0,0,0,0,-1,874,568,-4.09757,13.3668
-343,456,-3.39081,-12.0217,0,0,0,0,0,0,0,-1,881,568,-3.39078,12.0217
-336,456,-3.04517,-12.4623,0,0,0,0,0,0,0,-1,888,568,-3.04519,12.4624
-329,456,-1.06183,-10.7184,0,0,0,0,0,0,0,-1,895,568,-1.06184,10.7184
-322,456,-0.662537,-7.66632,0,0,0,0,0,0,0,-1,902,568,-0.662564,7.66633
-315,456,-0.675476,-3.38397,0,0,0,0,0,0,0,-1,909,568,-0.675473,3.38399
-308,456,-1.1618,-3.15314,0,0,0,0,0,0,0,-1,916,568,-1.16178,3.15314
-301,456,-1.83551,-3.26447,0,0,0,0,0,0,0,-1,923,568,-1.8355,3.26449
-294,456,-2.93414,-3.35449,0,0,0,0,0,0,0,-1,930,568,-2.93413,3.35451
-287,456,-3.7569,-3.53101,0,0,0,0,0,0,0,-1,937,568,-3.75692,3.53101
-280,456,-13.072,4.52856,0,0,0,0,0,0,0,-1,944,568,-13.072,-4.52855
-273,456,-9.43524,-2.88342,0,0,0,0,0,0,0,-1,951,568,-9.43526,2.88342
-266,456,-5.78351,-6.77051,0,0,0,0,0,0,0,-1,958,568,-5.78352,6.77049
-259,456,0,0,0,0,0,0,0,0,0,-1,965,568,0,0
-252,456,0,0,0,0,0,0,0,0,0,-1,972,568,0,0
-245,456,0,0,0,0,0,0,0,0,0,-1,979,568,0,0
-238,456,0,0,0,0,0,0,0,0,0,-1,986,568,0,0
-231,456,0,0,0,0,0,0,0,0,0,-1,993,568,0,0
-224,456,0,0,0,0,0,0,0,0,0,-1,1000,568,0,0
-217,456,0,0,0,0,0,0,0,0,0,-1,1007,568,0,0
-210,456,0,0,0,0,0,0,0,0,0,-1,1014,568,0,0
-203,456,0,0,0,0,0,0,0,0,0,-1,1021,568,0,0
-196,456,0,0,0,0,0,0,0,0,0,-1,1028,568,0,0
-189,456,0,0,0,0,0,0,0,0,0,-1,1035,568,0,0
-182,456,0,0,0,0,0,0,0,0,0,-1,1042,568,0,0
-175,456,0,0,0,0,0,0,0,0,0,-1,1049,568,0,0
-168,456,0,0,0,0,0,0,0,0,0,-1,1056,568,0,0
-161,456,0,0,0,0,0,0,0,0,0,-1,1063,568,0,0
-154,456,0,0,0,0,0,0,0,0,0,-1,1070,568,0,0
-147,456,0,0,0,0,0,0,0,0,0,-1,1077,568,0,0
-140,456,0,0,0,0,0,0,0,0,0,-1,1084,568,0,0
-133,456,0,0,0,0,0,0,0,0,0,-1,1091,568,0,0
-126,456,0,0,0,0,0,0,0,0,0,-1,1098,568,0,0
-119,456,0,0,0,0,0,0,0,0,0,-1,1105,568,0,0
-112,456,0,0,0,0,0,0,0,0,0,-1,1112,568,0,0
-105,456,0,0,0,0,0,0,0,0,0,-1,1119,568,0,0
-98,456,0,0,0,0,0,0,0,0,0,-1,1126,568,0,0
-91,456,0,0,0,0,0,0,0,0,0,-1,1133,568,0,0
-84,456,0,0,0,0,0,0,0,0,0,-1,1140,568,0,0
-77,456,0,0,0,0,0,0,0,0,0,-1,1147,568,0,0
-70,456,0,0,0,0,0,0,0,0,0,-1,1154,568,0,0
-63,456,0,0,0,0,0,0,0,0,0,-1,1161,568,0,0
-56,456,0,0,0,0,0,0,0,0,0,-1,1168,568,0,0
-49,456,0,0,0,0,0,0,0,0,0,-1,1175,568,0,0
-42,456,0,0,0,0,0,0,0,0,0,-1,1182,568,0,0
-35,456,0,0,0,0,0,0,0,0,0,-1,1189,568,0,0
-28,456,0,0,0,0,0,0,0,0,0,-1,1196,568,0,0
-21,456,0,0,0,0,0,0,0,0,0,-1,1203,568,0,0
-14,456,0,0,0,0,0,0,0,0,0,-1,1210,568,0,0
-7,456,0,0,0,0,0,0,0,0,0,-1,1217,568,0,0
0,456,0,0,0,0,0,0,0,0,0,-1,1224,568,0,0
7,456,0,0,0,0,0,0,0,0,0,-1,1231,568,0,0
14,456,0,0,0,0,0,0,0,0,0,-1,1238,568,0,0
21,456,0,0,0,0,0,0,0,0,0,-1,1245,568,0,0
28,456,0,0,0,0,0,0,0,0,0,-1,1252,568,0,0
35,456,0,0,0,0,0,0,0,0,0,-1,1259,568,0,0
42,456,0,0,0,0,0,0,0,0,0,-1,1266,568,0,0
49,456,0,0,0,0,0,0,0,0,0,-1,1273,568,0,0
56,456,0,0,0,0,0,0,0,0,0,-1,1280,568,0,0
63,456,0,0,0,0,0,0,0,0,0,-1,1287,568,0,0
70,456,0,0,0,0,0,0,0,0,0,-1,1294,568,0,0
77,456,0,0,0,0,0,0,0,0,0,-1,1301,568,0,0
84,456,0,0,0,0,0,0,0,0,0,-1,1308,568,0,0
91,456,0,0,0,0,0,0,0,0,0,-1,1315,568,0,0
98,456,0,0,0,0,0,0,0,0,0,-1,1322,568,0,0
105,456,0,0,0,0,0,0,0,0,0,-1,1329,568,0,0
112,456,0,0,0,0,0,0,0,0,0,-1,1336,568,0,0
119,456,0,0,0,0,0,0,0,0,0,-1,1343,568,0,0
126,456,0,0,0,0,0,0,0,0,0,-1,1350,568,0,0
133,456,0,0,0,0,0,0,0,0,0,-1,1357,568,0,0
140,456,0,0,0,0,0,0,0,0,0,-1,1364,568,0,0
147,456,0,0,0,0,0,0,0,0,0,-1,1371,568,0,0
154,456,0,0,0,0,0,0,0,0,0,-1,1378,568,0,0
161,456,0,0,0,0,0,0,0,0,0,-1,1385,568,0,0
168,456,0,0,0,0,0,0,0,0,0,-1,1392,568,0,0
175,456,0,0,0,0,0,0,0,0,0,-1,1399,568,0,0
182,456,0,0,0,0,0,0,0,0,0,-1,1406,568,0,0
189,456,0,0,0,0,0,0,0,0,0,-1,1413,568,0,0
196,456,0,0,0,0,0,0,0,0,0,-1,1420,568,0,0
203,456,0,0,0,0,0,0,0,0,0,-1,1427,568,0,0
210,456,0,0,0,0,0,0,0,0,0,-1,1434,568,0,0
217,456,0,0,0,0,0,0,0,0,0,-1,1441,568,0,0
224,456,0,0,0,0,0,0,0,0,0,-1,1448,568,0,0
231,456,0,0,0,0,0,0,0,0,0,-1,1455,568,0,0
238,456,0,0,0,0,0,0,0,0,0,-1,1462,568,0,0
245,456,0,0,0,0,0,0,0,0,0,-1,1469,568,0,0
252,456,0,0,0,0,0,0,0,0,0,-1,1476,568,0,0
259,456,0,0,0,0,0,0,0,0,0,-1,1483,568,0,0
266,456,0,0,0,0,0,0,0,0,0,-1,1490,568,0,0
273,456,0,0,0,0,0,0,0,0,0,-1,1497,568,0,0
280,456,0,0,0,0,0,0,0,0,0,-1,1504,568,0,0
287,456,0,0,0,0,0,0,0,0,0,-1,1511,568,0,0
294,456,0,0,0,0,0,0,0,0,0,-1,1518,568,0,0
301,456,0,0,0,0,0,0,0,0,0,-1,1525,568,0,0
308,456,0,0,0,0,0,0,0,0,0,-1,1532,568,0,0
315,456,0,0,0,0,0,0,0,0,0,-1,1539,568,0,0
322,456,0,0,0,0,0,0,0,0,0,-1,1546,568,0,0
329,456,0,0,0,0,0,0,0,0,0,-1,1553,568,0,0
336,456,0,0,0,0,0,0,0,0,0,-1,1560,568,0,0
343,456,0,0,0,0,0,0,0,0,0,-1,1567,568,0,0
350,456,0,0,0,0,0,0,0,0,0,-1,1574,568,0,0
357,456,0,0,0,0,0,0,0,0,0,-1,1581,568,0,0
364,456,0,0,0,0,0,0,0,0,0,-1,1588,568,0,0
371,456,0,0,0,0,0,0,0,0,0,-1,1595,568,0,0
378,456,0,0,0,0,0,0,0,0,0,-1,1602,568,0,0
385,456,5.66284,0.660645,0,0,0,0,0,0,0,-1,1609,568,5.66285,-0.660615
392,456,17.5027,4.32971,0,0,0,0,0,0,0,-1,1616,568,17.5026,-4.32971
399,456,24.1917,5.99652,0,0,0,0,0,0,0,-1,1623,568,24.1916,-5.99651
406,456,24.446,4.53003,0,0,0,0,0,0,0,-1,1630,568,24.446,-4.53005
413,456,24.9418,2.90521,0,0,0,0,0,0,0,-1,1637,568,24.9418,-2.90524
420,456,25.3048,1.04712,0,0,0,0,0,0,0,-1,1644,568,25.3048,-1.04713
427,456,6.21375,2.02905,0,0,0,0,0,0,0,-1,1651,568,6.21372,-2.02904
434,456,3.0719,-4.86285,0,0,0,0,0,0,0,-1,1658,568,3.07184,4.86287
441,456,2.90344,-4.70459,0,0,0,0,0,0,0,-1,1665,568,2.90346,4.7046
448,456,3.06995,-4.93689,0,0,0,0,0,0,0,-1,1672,568,3.06991,4.93687
455,456,3.46582,-3.43701,0,0,0,0,0,0,0,-1,1679,568,3.46585,3.43698
462,456,4.68445,-4.45831,0,0,0,0,0,0,0,-1,1686,568,4.68439,4.45833
469,456,4.93201,-2.289,0,0,0,0,0,0,0,-1,1693,568,4.93197,2.28903
476,456,4.8363,-2.79364,0,0,0,0,0,0,0,-1,1700,568,4.83636,2.79363
483,456,11.693,-12.1677,0,0,0,0,0,0,0,-1,1707,568,11.6929,12.1676
490,456,12.0798,-11.2239,0,0,0,0,0,0,0,-1,1714,568,12.0798,11.2239
497,456,12.1906,-10.7195,0.00551529,0.00386559,0.00295911,0.00776236,0.00161851,0.649474,0.00472865,0.0409057,1721,568,12.1905,10.7195
504,456,12.1454,-10.1981,0.00449119,0.00304782,0.00242696,0.0063015,0.00123751,0.640881,0.00385528,0.0120455,1728,568,12.1453,10.1981
511,456,12.1742,-9.78253,0.00352329,0.00229698,0.00192973,0.00493494,0.000885337,0.631572,0.00303816,0.0141351,1735,568,12.1742,9.78255
518,456,12.1979,-9.35889,0.00253858,0.00171253,0.00149412,0.00367571,0.000575399,0.650549,0.00228298,0.0171139,1742,568,12.1979,9.35891
525,456,12.1602,-8.91968,0.00159304,0.00119602,0.00110534,0.00251756,0.000271507,0.696549,0.00159559,0.0168379,1749,568,12.1601,8.91967
532,456,12.1536,-8.46283,0.000684302,0.000747749,0.000740843,0.00145755,-2.54966e-05,0.806795,0.000980307,0.0152637,1756,568,12.1535,8.46284
539,456,12.1392,-8.0224,-0.000177518,0.00025817,0.000374936,0.000473954,-0.000393302,1.04857,0.000501432,0.0186063,1763,568,12.1391,8.02237
546,456,12.1185,-7.5827,-0.00096237,-0.000129649,8.09739e-05,-0.000121848,-0.000970171,1.47476,0.000610233,0.0204526,1770,568,12.1185,7.58268
553,456,12.0942,-7.11096,-0.00171654,-0.000429249,-0.000194733,-0.000400436,-0.00174535,-1.4239,0.00105572,0.0130717,1777,568,12.0942,7.11094
560,456,12.09,-6.68085,-0.0024289,-0.000667978,-0.00032498,-0.000609917,-0.00248696,-1.394,0.00149668,0.0102002,1784,568,12.09,6.68085
567,456,12.0908,-6.21631,-0.00308557,-0.00094474,-0.000443481,-0.000856507,-0.00317381,-1.37441,0.00189599,0.0156735,1791,568,12.0908,6.21633
574,456,12.0355,-5.91571,-0.00386351,-0.00118749,-0.000558419,-0.00107564,-0.00397536,-1.37311,0.00237435,0.0469327,1798,568,12.0355,5.91573
581,456,12.0596,-5.56909,0,0,0,0,0,0,0,-1,1805,568,12.0596,5.56912
588,456,5.23901,-0.0901489,0,0,0,0,0,0,0,-1,1812,568,5.23906,0.0901656
595,456,6.90063,3.14886,0,0,0,0,0,0,0,-1,1819,568,6.90066,-3.14887
602,456,16.894,4.10938,0,0,0,0,0,0,0,-1,1826,568,16.8941,-4.1094
609,456,14.9966,3.5708,0,0,0,0,0,0,0,-1,1833,568,14.9966,-3.57083
616,456,17.7407,2.6579,0,0,0,0,0,0,0,-1,1840,568,17.7408,-2.6579
623,456,20.6838,1.7121,0,0,0,0,0,0,0,-1,1847,568,20.6838,-1.71208
630,456,0,0,0,0,0,0,0,0,0,-1,1854,568,0,0
637,456,0,0,0,0,0,0,0,0,0,-1,1861,568,0,0
644,456,0,0,0,0,0,0,0,0,0,-1,1868,568,0,0
651,456,0,0,0,0,0,0,0,0,0,-1,1875,568,0,0
658,456,0,0,0,0,0,0,0,0,0,-1,1882,568,0,0
665,456,0,0,0,0,0,0,0,0,0,-1,1889,568,0,0
672,456,0,0,0,0,0,0,0,0,0,-1,1896,568,0,0
679,456,0,0,0,0,0,0,0,0,0,-1,1903,568,0,0
686,456,0,0,0,0,0,0,0,0,0,-1,1910,568,0,0
693,456,0,0,0,0,0,0,0,0,0,-1,1917,568,0,0
700,456,0,0,0,0,0,0,0,0,0,-1,1924,568,0,0
707,456,0,0,0,0,0,0,0,0,0,-1,1931,568,0,0
714,456,0,0,0,0,0,0,0,0,0,-1,1938,568,0,0
721,456,0,0,0,0,0,0,0,0,0,-1,1945,568,0,0
728,456,0,0,0,0,0,0,0,0,0,-1,1952,568,0,0
735,456,0,0,0,0,0,0,0,0,0,-1,1959,568,0,0
742,456,0,0,0,0,0,0,0,0,0,-1,1966,568,0,0
749,456,0,0,0,0,0,0,0,0,0,-1,1973,568,0,0
756,456,0,0,0,0,0,0,0,0,0,-1,1980,568,0,0
763,456,0,0,0,0,0,0,0,0,0,-1,1987,568,0,0
770,456,0,0,0,0,0,0,0,0,0,-1,1994,568,0,0
777,456,0,0,0,0,0,0,0,0,0,-1,2001,568,0,0
784,456,0,0,0,0,0,0,0,0,0,-1,2008,568,0,0
791,456,0,0,0,0,0,0,0,0,0,-1,2015,568,0,0
798,456,0,0,0,0,0,0,0,0,0,-1,2022,568,0,0
805,456,0,0,0,0,0,0,0,0,0,-1,2029,568,0,0
812,456,0,0,0,0,0,0,0,0,0,-1,2036,568,0,0
-700,449,0,0,0,0,0,0,0,0,0,-1,524,575,0,0
-693,449,0,0,0,0,0,0,0,0,0,-1,531,575,0,0
-686,449,0,0,0,0,0,0,0,0,0,-1,538,575,0,0
-679,449,0,0,0,0,0,0,0,0,0,-1,545,575,0,0
-672,449,0,0,0,0,0,0,0,0,0,-1,552,575,0,0
-665,449,0,0,0,0,0,0,0,0,0,-1,559,575,0,0
-658,449,0,0,0,0,0,0,0,0,0,-1,566,575,0,0
-651,449,0,0,0,0,0,0,0,0,0,-1,573,575,0,0
-644,449,0,0,0,0,0,0,0,0,0,-1,580,575,0,0
-637,449,0,0,0,0,0,0,0,0,0,-1,587,575,0,0
-630,449,0,0,0,0,0,0,0,0,0,-1,594,575,0,0
-623,449,0,0,0,0,0,0,0,0,0,-1,601,575,0,0
-616,449,0,0,0,0,0,0,0,0,0,-1,608,575,0,0
-609,449,0,0,0,0,0,0,0,0,0,-1,615,575,0,0
-602,449,0,0,0,0,0,0,0,0,0,-1,622,575,0,0
-595,449,0,0,0,0,0,0,0,0,0,-1,629,575,0,0
-588,449,0,0,0,0,0,0,0,0,0,-1,636,575,0,0
-581,449,0,0,0,0,0,0,0,0,0,-1,643,575,0,0
-574,449,0,0,0,0,0,0,0,0,0,-1,650,575,0,0
-567,449,0,0,0,0,0,0,0,0,0,-1,657,575,0,0
-560,449,0,0,0,0,0,0,0,0,0,-1,664,575,0,0
-553,449,0,0,0,0,0,0,0,0,0,-1,671,575,0,0
-546,449,0,0,0,0,0,0,0,0,0,-1,678,575,0,0
-539,449,0,0,0,0,0,0,0,0,0,-1,685,575,0,0
-532,449,0,0,0,0,0,0,0,0,0,-1,692,575,0,0
-525,449,0,0,0,0,0,0,0,0,0,-1,699,575,0,0
-518,449,0,0,0,0,0,0,0,0,0,-1,706,575,0,0
-511,449,-0.941345,-4.4519,0,0,0,0,0,0,0,-1,713,575,-0.941356,4.45191
-504,449,-14.1078,0.318237,0,0,0,0,0,0,0,-1,720,575,-14.1078,-0.318231
-497,449,-8.61292,-3.09009,0,0,0,0,0,0,0,-1,727,575,-8.61291,3.09011
-490,449,-7.50995,-2.96252,0,0,0,0,0,0,0,-1,734,575,-7.50995,2.96251
-483,449,-5.77789,-2.50061,0,0,0,0,0,0,0,-1,741,575,-5.77792,2.50059
-476,449,-4.1723,-2.07739,0,0,0,0,0,0,0,-1,748,575,-4.17228,2.0774
-469,449,-4.02954,-4.56329,0,0,0,0,0,0,0,-1,755,575,-4.02951,4.56329
-462,449,-4.55029,-6.47772,0,0,0,0,0,0,0,-1,762,575,-4.5503,6.47772
-455,449,-4.73163,-6.75482,0,0,0,0,0,0,0,-1,769,575,-4.7316,6.75483
-448,449,-4.55701,-7.37549,-0.00325112,0.00830159,-0.00395247,0.00952439,-0.00447393,-1.27076,0.00825541,0.0316174,776,575,-4.55701,7.37547
-441,449,-4.56323,-7.9516,-0.00258202,0.00694965,-0.00315807,0.00790103,-0.0035334,-1.27819,0.0067603,0.0163744,783,575,-4.56326,7.95162
-434,449,-4.61243,-8.33856,-0.00213167,0.00537956,-0.00231146,0.00603388,-0.00278598,-1.29494,0.00520596,0.0127921,790,575,-4.6124,8.33854
-427,449,-4.61108,-8.74896,-0.00174386,0.00393892,-0.00151819,0.00431909,-0.00212403,-1.32544,0.00379121,0.0133101,797,575,-4.61105,8.74898
-420,449,-4.61694,-9.16821,-0.0014147,0.00266141,-0.000840325,0.00282785,-0.00158115,-1.37526,0.00257924,0.0134293,804,575,-4.61692,9.16821
-413,449,-4.63422,-9.58698,-0.00126557,0.00136605,-0.000105757,0.0013703,-0.00126981,-1.5307,0.00152463,0.0106347,811,575,-4.63421,9.58698
-406,449,-4.65295,-9.99268,-0.0010556,0.000368817,0.000445019,0.00049642,-0.0011832,1.29155,0.000996384,0.00950892,818,575,-4.65295,9.9927
-399,449,-4.66492,-10.4032,-0.000841401,-0.000514765,0.000925955,0.000262164,-0.00161833,0.872689,0.00117606,0.00889071,825,575,-4.66491,10.4032
-392,449,-4.64471,-10.8185,-0.000596362,-0.00133787,0.0013553,0.000437985,-0.00237222,0.651886,0.00174588,0.00910547,832,575,-4.64472,10.8185
-385,449,-4.64557,-11.2226,-0.000294567,-0.0018848,0.00165709,0.000748297,-0.00292766,0.561709,0.0022432,0.00978565,839,575,-4.64557,11.2226
-378,449,-4.68225,-11.6323,-1.91415e-05,-0.00236765,0.00194641,0.00107979,-0.00346658,0.51398,0.00274277,0.00981137,846,575,-4.68228,11.6322
-371,449,-4.69885,-12.0427,0.000419616,-0.00268661,0.00217264,0.00153718,-0.00380417,0.475087,0.00317507,0.0119579,853,575,-4.69885,12.0426
-364,449,-4.69983,-12.4066,0.00106351,-0.00273272,0.00223851,0.00210032,-0.00376952,0.43375,0.00343433,0.032077,860,575,-4.69985,12.4066
-357,449,-4.32544,-12.9777,0,0,0,0,0,0,0,-1,867,575,-4.32542,12.9777
-350,449,-2.8764,-9.90204,0,0,0,0,0,0,0,-1,874,575,-2.87638,9.90203
-343,449,-2.98492,-9.2254,0,0,0,0,0,0,0,-1,881,575,-2.98491,9.22541
-336,449,-1.29523,-9.54626,0,0,0,0,0,0,0,-1,888,575,-1.29525,9.54626
-329,449,-0.733398,-7.78937,0,0,0,0,0,0,0,-1,895,575,-0.733398,7.78937
-322,449,-0.628845,-3.16669,0,0,0,0,0,0,0,-1,902,575,-0.628861,3.16667
-315,449,-0.540344,-3.21918,0,0,0,0,0,0,0,-1,909,575,-0.540336,3.21917
-308,449,-1.04413,-2.99341,0,0,0,0,0,0,0,-1,916,575,-1.04415,2.99338
-301,449,-1.58691,-2.80725,0,0,0,0,0,0,0,-1,923,575,-1.58692,2.80728
-294,449,-3.71118,-2.76086,0,0,0,0,0,0,0,-1,930,575,-3.71119,2.76087
-287,449,-4.4082,-2.69525,0,0,0,0,0,0,0,-1,937,575,-4.40822,2.69526
-280,449,-4.68903,-4.4364,0,0,0,0,0,0,0,-1,944,575,-4.68901,4.4364
-273,449,0,0,0,0,0,0,0,0,0,-1,951,575,0,0
-266,449,0,0,0,0,0,0,0,0,0,-1,958,575,0,0
-259,449,0,0,0,0,0,0,0,0,0,-1,965,575,0,0
-252,449,0,0,0,0,0,0,0,0,0,-1,972,575,0,0
-245,449,0,0,0,0,0,0,0,0,0,-1,979,575,0,0
-238,449,0,0,0,0,0,0,0,0,0,-1,986,575,0,0
-231,449,0,0,0,0,0,0,0,0,0,-1,993,575,0,0
-224,449,0,0,0,0,0,0,0,0,0,-1,1000,575,0,0
-217,449,0,0,0,0,0,0,0,0,0,-1,1007,575,0,0
-210,449,0,0,0,0,0,0,0,0,0,-1,1014,575,0,0
-203,449,0,0,0,0,0,0,0,0,0,-1,1021,575,0,0
-196,449,0,0,0,0,0,0,0,0,0,-1,1028,575,0,0
-189,449,0,0,0,0,0,0,0,0,0,-1,1035,575,0,0
-182,449,0,0,0,0,0,0,0,0,0,-1,1042,575,0,0
-175,449,0,0,0,0,0,0,0,0,0,-1,1049,575,0,0
-168,449,0,0,0,0,0,0,0,0,0,-1,1056,575,0,0
-161,449,0,0,0,0,0,0,0,0,0,-1,1063,575,0,0
-154,449,0,0,0,0,0,0,0,0,0,-1,1070,575,0,0
-147,449,0,0,0,0,0,0,0,0,0,-1,1077,575,0,0
-140,449,0,0,0,0,0,0,0,0,0,-1,1084,575,0,0
-133,449,0,0,0,0,0,0,0,0,0,-1,1091,575,0,0
-126,449,0,0,0,0,0,0,0,0,0,-1,1098,575,0,0
-119,449,0,0,0,0,0,0,0,0,0,-1,1105,575,0,0
-112,449,0,0,0,0,0,0,0,0,0,-1,1112,575,0,0
-105,449,0,0,0,0,0,0,0,0,0,-1,1119,575,0,0
-98,449,0,0,0,0,0,0,0,0,0,-1,1126,575,0,0
-91,449,0,0,0,0,0,0,0,0,0,-1,1133,575,0,0
-84,449,0,0,0,0,0,0,0,0,0,-1,1140,575,0,0
-77,449,0,0,0,0,0,0,0,0,0,-1,1147,575,0,0
-70,449,0,0,0,0,0,0,0,0,0,-1,1154,575,0,0
-63,449,0,0,0,0,0,0,0,0,0,-1,1161,575,0,0
-56,449,0,0,0,0,0,0,0,0,0,-1,1168,575,0,0
-49,449,0,0,0,0,0,0,0,0,0,-1,1175,575,0,0
-42,449,0,0,0,0,0,0,0,0,0,-1,1182,575,0,0
-35,449,0,0,0,0,0,0,0,0,0,-1,1189,575,0,0
-28,449,0,0,0,0,0,0,0,0,0,-1,1196,575,0,0
-21,449,0,0,0,0,0,0,0,0,0,-1,1203,575,0,0
-14,449,0,0,0,0,0,0,0,0,0,-1,1210,575,0,0
-7,449,0,0,0,0,0,0,0,0,0,-1,1217,575,0,0
0,449,0,0,0,0,0,0,0,0,0,-1,1224,575,0,0
7,449,0,0,0,0,0,0,0,0,0,-1,1231,575,0,0
14,449,0,0,0,0,0,0,0,0,0,-1,1238,575,0,0
21,449,0,0,0,0,0,0,0,0,0,-1,1245,575,0,0
28,449,0,0,0,0,0,0,0,0,0,-1,1252,575,0,0
35,449,0,0,0,0,0,0,0,0,0,-1,1259,575,0,0
42,449,0,0,0,0,0,0,0,0,0,-1,1266,575,0,0
49,449,0,0,0,0,0,0,0,0,0,-1,1273,575,0,0
56,449,0,0,0,0,0,0,0,0,0,-1,1280,575,0,0
63,449,0,0,0,0,0,0,0,0,0,-1,1287,575,0,0
70,449,0,0,0,0,0,0,0,0,0,-1,1294,575,0,0
77,449,0,0,0,0,0,0,0,0,0,-1,1301,575,0,0
84,449,0,0,0,0,0,0,0,0,0,-1,1308,575,0,0
91,449,0,0,0,0,0,0,0,0,0,-1,1315,575,0,0
98,449,0,0,0,0,0,0,0,0,0,-1,1322,575,0,0
105,449,0,0,0,0,0,0,0,0,0,-1,1329,575,0,0
112,449,0,0,0,0,0,0,0,0,0,-1,1336,575,0,0
119,449,0,0,0,0,0,0,0,0,0,-1,1343,575,0,0
126,449,0,0,0,0,0,0,0,0,0,-1,1350,575,0,0
133,449,0,0,0,0,0,0,0,0,0,-1,1357,575,0,0
140,449,0,0,0,0,0,0,0,0,0,-1,1364,575,0,0
147,449,0,0,0,0,0,0,0,0,0,-1,1371,575,0,0
154,449,0,0,0,0,0,0,0,0,0,-1,1378,575,0,0
161,449,0,0,0,0,0,0,0,0,0,-1,1385,575,0,0
168,449,0,0,0,0,0,0,0,0,0,-1,1392,575,0,0
175,449,0,0,0,0,0,0,0,0,0,-1,1399,575,0,0
182,449,0,0,0,0,0,0,0,0,0,-1,1406,575,0,0
189,449,0,0,0,0,0,0,0,0,0,-1,1413,575,0,0
196,449,0,0,0,0,0,0,0,0,0,-1,1420,575,0,0
203,449,0,0,0,0,0,0,0,0,0,-1,1427,575,0,0
210,449,0,0,0,0,0,0,0,0,0,-1,1434,575,0,0
217,449,0,0,0,0,0,0,0,0,0,-1,1441,575,0,0
224,449,0,0,0,0,0,0,0,0,0,-1,1448,575,0,0
231,449,0,0,0,0,0,0,0,0,0,-1,1455,575,0,0
238,449,0,0,0,0,0,0,0,0,0,-1,1462,575,0,0
245,449,0,0,0,0,0,0,0,0,0,-1,1469,575,0,0
252,449,0,0,0,0,0,0,0,0,0,-1,1476,575,0,0
259,449,0,0,0,0,0,0,0,0,0,-1,1483,575,0,0
266,449,0,0,0,0,0,0,0,0,0,-1,1490,575,0,0
273,449,0,0,0,0,0,0,0,0,0,-1,1497,575,0,0
280,449,0,0,0,0,0,0,0,0,0,-1,1504,575,0,0
287,449,0,0,0,0,0,0,0,0,0,-1,1511,575,0,0
294,449,0,0,0,0,0,0,0,0,0,-1,1518,575,0,0
301,449,0,0,0,0,0,0,0,0,0,-1,1525,575,0,0
308,449,0,0,0,0,0,0,0,0,0,-1,1532,575,0,0
315,449,0,0,0,0,0,0,0,0,0,-1,1539,575,0,0
322,449,0,0,0,0,0,0,0,0,0,-1,1546,575,0,0
329,449,0,0,0,0,0,0,0,0,0,-1,1553,575,0,0
336,449,0,0,0,0,0,0,0,0,0,-1,1560,575,0,0
343,449,0,0,0,0,0,0,0,0,0,-1,1567,575,0,0
350,449,0,0,0,0,0,0,0,0,0,-1,1574,575,0,0
357,449,0,0,0,0,0,0,0,0,0,-1,1581,575,0,0
364,449,0,0,0,0,0,0,0,0,0,-1,1588,575,0,0
371,449,0,0,0,0,0,0,0,0,0,-1,1595,575,0,0
378,449,0,0,0,0,0,0,0,0,0,-1,1602,575,0,0
385,449,0,0,0,0,0,0,0,0,0,-1,1609,575,0,0
392,449,7.95471,3.66217,0,0,0,0,0,0,0,-1,1616,575,7.95471,-3.66218
399,449,19.9791,5.565,0,0,0,0,0,0,0,-1,1623,575,19.9791,-5.56499
406,449,24.9847,4.55969,0,0,0,0,0,0,0,-1,1630,575,24.9848,-4.55968
413,449,23.5795,3.19586,0,0,0,0,0,0,0,-1,1637,575,23.5795,-3.19584
420,449,23.9675,1.29718,0,0,0,0,0,0,0,-1,1644,575,23.9675,-1.29721
427,449,24.4276,-0.596558,0,0,0,0,0,0,0,-1,1651,575,24.4277,0.596569
434,449,25.61,-2.96594,0,0,0,0,0,0,0,-1,1658,575,25.61,2.96595
441,449,3.89856,-6.06458,0,0,0,0,0,0,0,-1,1665,575,3.89855,6.06459
448,449,4.03198,-5.18207,0,0,0,0,0,0,0,-1,1672,575,4.03197,5.18207
455,449,4.21948,-4.09467,0,0,0,0,0,0,0,-1,1679,575,4.21952,4.09465
462,449,4.23181,-2.96924,0,0,0,0,0,0,0,-1,1686,575,4.23185,2.96926
469,449,4.51672,-2.95135,0,0,0,0,0,0,0,-1,1693,575,4.51672,2.95135
476,449,4.71838,-1.86688,0,0,0,0,0,0,0,-1,1700,575,4.71842,1.86689
483,449,4.87878,-1.73126,0,0,0,0,0,0,0,-1,1707,575,4.87875,1.73128
490,449,5.73279,-2.74573,0,0,0,0,0,0,0,-1,1714,575,5.73282,2.74575
497,449,12.5671,-10.8849,0,0,0,0,0,0,0,-1,1721,575,12.5672,10.8849
504,449,12.5272,-10.1973,0.00540035,0.00390779,0.00308259,0.00782571,0.00148243,0.666636,0.00479992,0.0429688,1728,575,12.5272,10.1973
511,449,12.5974,-9.75623,0.00434099,0.00296148,0.00244412,0.00619082,0.00111165,0.64787,0.00381109,0.011046,1735,575,12.5974,9.75622
518,449,12.6094,-9.33276,0.00335257,0.00224235,0.00192949,0.00480522,0.000789702,0.645332,0.00297538,0.0124964,1742,575,12.6094,9.33278
525,449,12.5809,-8.896,0.00240763,0.00169403,0.00149726,0.00359001,0.000511644,0.668428,0.00224233,0.0123277,1749,575,12.5809,8.89598
532,449,12.5514,-8.45129,0.00151717,0.00118797,0.00108985,0.00245478,0.000250362,0.710448,0.00155978,0.0101643,1756,575,12.5514,8.45132
539,449,12.5215,-8.0108,0.000691204,0.000639763,0.000686314,0.00135228,-2.13127e-05,0.766669,0.000908707,0.0128333,1763,575,12.5214,8.01081
546,449,12.5253,-7.5722,-2.47429e-05,0.000239352,0.000387347,0.000516541,-0.000301932,0.949672,0.00047793,0.0216756,1770,575,12.5252,7.57222
553,449,12.5106,-7.1394,-0.000695629,-8.79956e-05,0.000113632,-6.7441e-05,-0.000716183,1.39184,0.000456638,0.015656,1777,575,12.5106,7.13939
560,449,12.5358,-6.70917,-0.00134213,-0.000313869,-6.88107e-06,-0.000313823,-0.00134218,-1.5641,0.000810684,0.0136554,1784,575,12.5358,6.70915
567,449,12.5238,-6.2428,-0.00192887,-0.000535743,-9.22279e-05,-0.000529663,-0.00193495,-1.50498,0.00115465,0.00994331,1791,575,12.5238,6.24277
574,449,12.5144,-5.74622,-0.00257455,-0.000714622,-0.000151713,-0.000702328,-0.00258684,-1.48994,0.00154462,0.0220268,1798,575,12.5144,5.7462
581,449,12.5166,-5.19592,0,0,0,0,0,0,0,-1,1805,575,12.5166,5.1959
588,449,12.3274,-4.5672,0,0,0,0,0,0,0,-1,1812,575,12.3274,4.5672
595,449,11.2511,-2.25397,0,0,0,0,0,0,0,-1,1819,575,11.2511,2.25397
602,449,9.46167,4.17444,0,0,0,0,0,0,0,-1,1826,575,9.46164,-4.17442
609,449,12.2028,3.18652,0,0,0,0,0,0,0,-1,1833,575,12.2027,-3.18655
616,449,14.9438,2.19867,0,0,0,0,0,0,0,-1,1840,575,14.9438,-2.19867
623,449,9.83789,-0.0820313,0,0,0,0,0,0,0,-1,1847,575,9.83794,0.0820443
630,449,8.90686,4.99329,0,0,0,0,0,0,0,-1,1854,575,8.90685,-4.99327
637,449,0,0,0,0,0,0,0,0,0,-1,1861,575,0,0
644,449,0,0,0,0,0,0,0,0,0,-1,1868,575,0,0
651,449,0,0,0,0,0,0,0,0,0,-1,1875,575,0,0
658,449,0,0,0,0,0,0,0,0,0,-1,1882,575,0,0
665,449,0,0,0,0,0,0,0,0,0,-1,1889,575,0,0
672,449,0,0,0,0,0,0,0,0,0,-1,1896,575,0,0
679,449,0,0,0,0,0,0,0,0,0,-1,1903,575,0,0
686,449,0,0,0,0,0,0,0,0,0,-1,1910,575,0,0
693,449,0,0,0,0,0,0,0,0,0,-1,1917,575,0,0
700,449,0,0,0,0,0,0,0,0,0,-1,1924,575,0,0
707,449,0,0,0,0,0,0,0,0,0,-1,1931,575,0,0
714,449,0,0,0,0,0,0,0,0,0,-1,1938,575,0,0
721,449,0,0,0,0,0,0,0,0,0,-1,1945,575,0,0
728,449,0,0,0,0,0,0,0,0,0,-1,1952,575,0,0
735,449,0,0,0,0,0,0,0,0,0,-1,1959,575,0,0
742,449,0,0,0,0,0,0,0,0,0,-1,1966,575,0,0
749,449,0,0,0,0,0,0,0,0,0,-1,1973,575,0,0
756,449,0,0,0,0,0,0,0,0,0,-1,1980,575,0,0
763,449,0,0,0,0,0,0,0,0,0,-1,1987,575,0,0
770,449,0,0,0,0,0,0,0,0,0,-1,1994,575,0,0
777,449,0,0,0,0,0,0,0,0,0,-1,2001,575,0,0
784,449,0,0,0,0,0,0,0,0,0,-1,2008,575,0,0
791,449,0,0,0,0,0,0,0,0,0,-1,2015,575,0,0
798,449,0,0,0,0,0,0,0,0,0,-1,2022,575,0,0
805,449,0,0,0,0,0,0,0,0,0,-1,2029,575,0,0
812,449,0,0,0,0,0,0,0,0,0,-1,2036,575,0,0
-700,442,0,0,0,0,0,0,0,0,0,-1,524,582,0,0
-693,442,0,0,0,0,0,0,0,0,0,-1,531,582,0,0
-686,442,0,0,0,0,0,0,0,0,0,-1,538,582,0,0
-679,442,0,0,0,0,0,0,0,0,0,-1,545,582,0,0
-672,442,0,0,0,0,0,0,0,0,0,-1,552,582,0,0
-665,442,0,0,0,0,0,0,0,0,0,-1,559,582,0,0
-658,442,0,0,0,0,0,0,0,0,0,-1,566,582,0,0
-651,442,0,0,0,0,0,0,0,0,0,-1,573,582,0,0
-644,442,0,0,0,0,0,0,0,0,0,-1,580,582,0,0
-637,442,0,0,0,0,0,0,0,0,0,-1,587,582,0,0
-630,442,0,0,0,0,0,0,0,0,0,-1,594,582,0,0
-623,442,0,0,0,0,0,0,0,0,0,-1,601,582,0,0
-616,442,0,0,0,0,0,0,0,0,0,-1,608,582,0,0
-609,442,0,0,0,0,0,0,0,0,0,-1,615,582,0,0
-602,442,0,0,0,0,0,0,0,0,0,-1,622,582,0,0
-595,442,0,0,0,0,0,0,0,0,0,-1,629,582,0,0
-588,442,0,0,0,0,0,0,0,0,0,-1,636,582,0,0
-581,442,0,0,0,0,0,0,0,0,0,-1,643,582,0,0
-574,442,0,0,0,0,0,0,0,0,0,-1,650,582,0,0
-567,442,0,0,0,0,0,0,0,0,0,-1,657,582,0,0
-560,442,0,0,0,0,0,0,0,0,0,-1,664,582,0,0
-553,442,0,0,0,0,0,0,0,0,0,-1,671,582,0,0
-546,442,0,0,0,0,0,0,0,0,0,-1,678,582,0,0
-539,442,0,0,0,0,0,0,0,0,0,-1,685,582,0,0
-532,442,0,0,0,0,0,0,0,0,0,-1,692,582,0,0
-525,442,0,0,0,0,0,0,0,0,0,-1,699,582,0,0
-518,442,-0.493774,-5.72943,0,0,0,0,0,0,0,-1,706,582,-0.493791,5.72946
-511,442,-1.33008,-6.18512,0,0,0,0,0,0,0,-1,713,582,-1.33006,6.18511
-504,442,-3.20807,-6.34082,0,0,0,0,0,0,0,-1,720,582,-3.2081,6.34083
-497,442,-13.6886,-0.250122,0,0,0,0,0,0,0,-1,727,582,-13.6886,0.250143
-490,442,-9.09039,-3.64862,0,0,0,0,0,0,0,-1,734,582,-9.09037,3.64861
-483,442,-7.36499,-1.01892,0,0,0,0,0,0,0,-1,741,582,-7.365,1.01895
-476,442,-4.62225,-3.47467,0,0,0,0,0,0,0,-1,748,582,-4.62225,3.47465
-469,442,-4.71588,-5.78174,0,0,0,0,0,0,0,-1,755,582,-4.71589,5.78172
-462,442,-4.90387,-6.5332,-0.00319637,0.00858016,-0.00468773,0.0102183,-0.00483449,-1.23461,0.00887407,0.0425215,762,582,-4.90385,6.5332
-455,442,-5.05676,-7.00549,-0.0026365,0.00751493,-0.00402232,0.00891547,-0.00403705,-1.23573,0.0076529,0.0336883,769,582,-5.05678,7.00549
-448,442,-4.97375,-7.45728,-0.00224784,0.00629736,-0.00322697,0.00737906,-0.00332953,-1.24736,0.00632825,0.0155825,776,582,-4.97374,7.45728
-441,442,-5.01215,-7.91534,-0.00185233,0.00524434,-0.00249733,0.00603506,-0.00264304,-1.26416,0.0051363,0.0143953,783,582,-5.01213,7.91537
-434,442,-5.01752,-8.32855,-0.00161485,0.0039077,-0.00169095,0.00438432,-0.00209147,-1.29606,0.00381612,0.0134061,790,582,-5.01753,8.32856
-427,442,-5.03815,-8.75037,-0.00141362,0.00262642,-0.000903556,0.00281929,-0.00160649,-1.36049,0.00258701,0.0132998,797,582,-5.03814,8.75036
-420,442,-5.04443,-9.17169,-0.00126158,0.00147274,-0.000203688,0.00148783,-0.00127667,-1.49685,0.00159764,0.0140685,804,582,-5.04446,9.17167
-413,442,-5.04388,-9.57629,-0.00128186,0.00027109,0.000571797,0.00045891,-0.00146968,1.25343,0.00116333,0.0116297,811,582,-5.04387,9.57629
-406,442,-5.05743,-9.99805,-0.00126158,-0.000682907,0.00117779,0.000240564,-0.00218505,0.905843,0.00154315,0.00939266,818,582,-5.05746,9.99808
-399,442,-5.05853,-10.4139,-0.00122633,-0.00154992,0.00171784,0.000337316,-0.00311356,0.738443,0.0021968,0.00797552,825,582,-5.05851,10.4139
-392,442,-5.03943,-10.805,-0.00115257,-0.00229506,0.00218904,0.000538537,-0.00398617,0.657766,0.00285394,0.00986788,832,582,-5.03942,10.805
-385,442,-5.05377,-11.1975,-0.00104688,-0.00282267,0.00254089,0.000756782,-0.00462633,0.617309,0.00336497,0.0125883,839,582,-5.0538,11.1975
-378,442,-5.07239,-11.6093,-0.000960808,-0.00332553,0.00290925,0.000997167,-0.00528351,0.592386,0.00389748,0.0143756,846,582,-5.07237,11.6093
-371,442,-5.05579,-12.0443,-0.000626566,-0.00362153,0.00320556,0.00141404,-0.00566213,0.566886,0.00432387,0.0321264,853,582,-5.05577,12.0443
-364,442,-5.18286,-12.613,0,0,0,0,0,0,0,-1,860,582,-5.18287,12.613
-357,442,-4.9115,-11.2649,0,0,0,0,0,0,0,-1,867,582,-4.91147,11.2649
-350,442,-1.75372,-6.27618,0,0,0,0,0,0,0,-1,874,582,-1.75371,6.27618
-343,442,-1.4599,-4.63605,0,0,0,0,0,0,0,-1,881,582,-1.4599,4.63607
-336,442,-1.4054,-2.64313,0,0,0,0,0,0,0,-1,888,582,-1.40539,2.64315
-329,442,-0.952576,-2.76923,0,0,0,0,0,0,0,-1,895,582,-0.952571,2.7692
-322,442,-0.972534,-2.63208,0,0,0,0,0,0,0,-1,902,582,-0.972512,2.6321
-315,442,-0.445557,-2.89764,0,0,0,0,0,0,0,-1,909,582,-0.445582,2.89765
-308,442,-0.654175,-3.07831,0,0,0,0,0,0,0,-1,916,582,-0.654145,3.07832
-301,442,-1.37427,-2.41455,0,0,0,0,0,0,0,-1,923,582,-1.37425,2.41453
-294,442,-2.99963,-2.07855,0,0,0,0,0,0,0,-1,930,582,-2.99964,2.07857
-287,442,-5.62799,-2.76422,0,0,0,0,0,0,0,-1,937,582,-5.628,2.76424
-280,442,0,0,0,0,0,0,0,0,0,-1,944,582,0,0
-273,442,0,0,0,0,0,0,0,0,0,-1,951,582,0,0
-266,442,0,0,0,0,0,0,0,0,0,-1,958,582,0,0
-259,442,0,0,0,0,0,0,0,0,0,-1,965,582,0,0
-252,442,0,0,0,0,0,0,0,0,0,-1,972,582,0,0
-245,442,0,0,0,0,0,0,0,0,0,-1,979,582,0,0
-238,442,0,0,0,0,0,0,0,0,0,-1,986,582,0,0
-231,442,0,0,0,0,0,0,0,0,0,-1,993,582,0,0
-224,442,0,0,0,0,0,0,0,0,0,-1,1000,582,0,0
-217,442,0,0,0,0,0,0,0,0,0,-1,1007,582,0,0
-210,442,0,0,0,0,0,0,0,0,0,-1,1014,582,0,0
-203,442,0,0,0,0,0,0,0,0,0,-1,1021,582,0,0
-196,442,0,0,0,0,0,0,0,0,0,-1,1028,582,0,0
-189,442,0,0,0,0,0,0,0,0,0,-1,1035,582,0,0
-182,442,0,0,0,0,0,0,0,0,0,-1,1042,582,0,0
-175,442,0,0,0,0,0,0,0,0,0,-1,1049,582,0,0
-168,442,0,0,0,0,0,0,0,0,0,-1,1056,582,0,0
-161,442,0,0,0,0,0,0,0,0,0,-1,1063,582,0,0
-154,442,0,0,0,0,0,0,0,0,0,-1,1070,582,0,0
-147,442,0,0,0,0,0,0,0,0,0,-1,1077,582,0,0
-140,442,0,0,0,0,0,0,0,0,0,-1,1084,582,0,0
-133,442,0,0,0,0,0,0,0,0,0,-1,1091,582,0,0
-126,442,0,0,0,0,0,0,0,0,0,-1,1098,582,0,0
-119,442,0,0,0,0,0,0,0,0,0,-1,1105,582,0,0
-112,442,0,0,0,0,0,0,0,0,0,-1,1112,582,0,0
-105,442,0,0,0,0,0,0,0,0,0,-1,1119,582,0,0
-98,442,0,0,0,0,0,0,0,0,0,-1,1126,582,0,0
-91,442,0,0,0,0,0,0,0,0,0,-1,1133,582,0,0
-84,442,0,0,0,0,0,0,0,0,0,-1,1140,582,0,0
-77,442,0,0,0,0,0,0,0,0,0,-1,1147,582,0,0
-70,442,0,0,0,0,0,0,0,0,0,-1,1154,582,0,0
-63,442,0,0,0,0,0,0,0,0,0,-1,1161,582,0,0
-56,442,0,0,0,0,0,0,0,0,0,-1,1168,582,0,0
-49,442,0,0,0,0,0,0,0,0,0,-1,1175,582,0,0
-42,442,0,0,0,0,0,0,0,0,0,-1,1182,582,0,0
-35,442,0,0,0,0,0,0,0,0,0,-1,1189,582,0,0
-28,442,0,0,0,0,0,0,0,0,0,-1,1196,582,0,0
-21,442,0,0,0,0,0,0,0,0,0,-1,1203,582,0,0
-14,442,0,0,0,0,0,0,0,0,0,-1,1210,582,0,0
-7,442,0,0,0,0,0,0,0,0,0,-1,1217,582,0,0
0,442,0,0,0,0,0,0,0,0,0,-1,1224,582,0,0
7,442,0,0,0,0,0,0,0,0,0,-1,1231,582,0,0
14,442,0,0,0,0,0,0,0,0,0,-1,1238,582,0,0
21,442,0,0,0,0,0,0,0,0,0,-1,1245,582,0,0
28,442,0,0,0,0,0,0,0,0,0,-1,1252,582,0,0
35,442,0,0,0,0,0,0,0,0,0,-1,1259,582,0,0
42,442,0,0,0,0,0,0,0,0,0,-1,1266,582,0,0
49,442,0,0,0,0,0,0,0,0,0,-1,1273,582,0,0
56,442,0,0,0,0,0,0,0,0,0,-1,1280,582,0,0
63,442,0,0,0,0,0,0,0,0,0,-1,1287,582,0,0
70,442,0,0,0,0,0,0,0,0,0,-1,1294,582,0,0
77,442,0,0,0,0,0,0,0,0,0,-1,1301,582,0,0
84,442,0,0,0,0,0,0,0,0,0,-1,1308,582,0,0
91,442,0,0,0,0,0,0,0,0,0,-1,1315,582,0,0
98,442,0,0,0,0,0,0,0,0,0,-1,1322,582,0,0
105,442,0,0,0,0,0,0,0,0,0,-1,1329,582,0,0
112,442,0,0,0,0,0,0,0,0,0,-1,1336,582,0,0
119,442,0,0,0,0,0,0,0,0,0,-1,1343,582,0,0
126,442,0,0,0,0,0,0,0,0,0,-1,1350,582,0,0
133,442,0,0,0,0,0,0,0,0,0,-1,1357,582,0,0
140,442,0,0,0,0,0,0,0,0,0,-1,1364,582,0,0
147,442,0,0,0,0,0,0,0,0,0,-1,1371,582,0,0
154,442,0,0,0,0,0,0,0,0,0,-1,1378,582,0,0
161,442,0,0,0,0,0,0,0,0,0,-1,1385,582,0,0
168,442,0,0,0,0,0,0,0,0,0,-1,1392,582,0,0
175,442,0,0,0,0,0,0,0,0,0,-1,1399,582,0,0
182,442,0,0,0,0,0,0,0,0,0,-1,1406,582,0,0
189,442,0,0,0,0,0,0,0,0,0,-1,1413,582,0,0
196,442,0,0,0,0,0,0,0,0,0,-1,1420,582,0,0
203,442,0,0,0,0,0,0,0,0,0,-1,1427,582,0,0
210,442,0,0,0,0,0,0,0,0,0,-1,1434,582,0,0
217,442,0,0,0,0,0,0,0,0,0,-1,1441,582,0,0
224,442,0,0,0,0,0,0,0,0,0,-1,1448,582,0,0
231,442,0,0,0,0,0,0,0,0,0,-1,1455,582,0,0
238,442,0,0,0,0,0,0,0,0,0,-1,1462,582,0,0
245,442,0,0,0,0,0,0,0,0,0,-1,1469,582,0,0
252,442,0,0,0,0,0,0,0,0,0,-1,1476,582,0,0
259,442,0,0,0,0,0,0,0,0,0,-1,1483,582,0,0
266,442,0,0,0,0,0,0,0,0,0,-1,1490,582,0,0
273,442,0,0,0,0,0,0,0,0,0,-1,1497,582,0,0
280,442,0,0,0,0,0,0,0,0,0,-1,1504,582,0,0
287,442,0,0,0,0,0,0,0,0,0,-1,1511,582,0,0
294,442,0,0,0,0,0,0,0,0,0,-1,1518,582,0,0
301,442,0,0,0,0,0,0,0,0,0,-1,1525,582,0,0
308,442,0,0,0,0,0,0,0,0,0,-1,1532,582,0,0
315,442,0,0,0,0,0,0,0,0,0,-1,1539,582,0,0
322,442,0,0,0,0,0,0,0,0,0,-1,1546,582,0,0
329,442,0,0,0,0,0,0,0,0,0,-1,1553,582,0,0
336,442,0,0,0,0,0,0,0,0,0,-1,1560,582,0,0
343,442,0,0,0,0,0,0,0,0,0,-1,1567,582,0,0
350,442,0,0,0,0,0,0,0,0,0,-1,1574,582,0,0
357,442,0,0,0,0,0,0,0,0,0,-1,1581,582,0,0
364,442,0,0,0,0,0,0,0,0,0,-1,1588,582,0,0
371,442,0,0,0,0,0,0,0,0,0,-1,1595,582,0,0
378,442,0,0,0,0,0,0,0,0,0,-1,1602,582,0,0
385,442,0,0,0,0,0,0,0,0,0,-1,1609,582,0,0
392,442,0,0,0,0,0,0,0,0,0,-1,1616,582,0,0
399,442,0,0,0,0,0,0,0,0,0,-1,1623,582,0,0
406,442,17.6321,4.08295,0,0,0,0,0,0,0,-1,1630,582,17.6321,-4.08293
413,442,22.1273,3.56525,0,0,0,0,0,0,0,-1,1637,582,22.1273,-3.56525
420,442,22.7478,1.55011,0,0,0,0,0,0,0,-1,1644,582,22.7478,-1.55009
427,442,23.2969,-0.456787,0,0,0,0,0,0,0,-1,1651,582,23.2968,0.456769
434,442,23.9512,-2.49365,0,0,0,0,0,0,0,-1,1658,582,23.9512,2.49366
441,442,24.8251,-4.43958,0,0,0,0,0,0,0,-1,1665,582,24.8251,4.43956
448,442,4.7749,-5.88562,0,0,0,0,0,0,0,-1,1672,582,4.7749,5.8856
455,442,4.87024,-4.60687,0,0,0,0,0,0,0,-1,1679,582,4.87019,4.60686
462,442,5.02307,-3.72821,0,0,0,0,0,0,0,-1,1686,582,5.02311,3.7282
469,442,5.12976,-2.98834,0,0,0,0,0,0,0,-1,1693,582,5.12971,2.98834
476,442,5.4624,1.76947,0,0,0,0,0,0,0,-1,1700,582,5.46234,-1.76944
483,442,5.98486,1.87042,0,0,0,0,0,0,0,-1,1707,582,5.98492,-1.87045
490,442,5.04407,-2.35834,0,0,0,0,0,0,0,-1,1714,582,5.04411,2.35837
497,442,6.20984,-3.07831,0,0,0,0,0,0,0,-1,1721,582,6.2098,3.07833
504,442,12.8494,-10.2996,0,0,0,0,0,0,0,-1,1728,582,12.8494,10.2996
511,442,12.9636,-9.77081,0.00506301,0.0036844,0.00289372,0.00734839,0.00139902,0.668474,0.00450558,0.0291648,1735,582,12.9636,9.77083
518,442,13.0535,-9.30621,0.00408086,0.00279742,0.00231271,0.00583923,0.00103905,0.650066,0.00359685,0.0106,1742,582,13.0534,9.30622
525,442,13.0137,-8.87836,0.00313256,0.00220499,0.00185063,0.00457664,0.00076091,0.662622,0.00283174,0.00962044,1749,582,13.0137,8.87835
532,442,12.99,-8.43054,0.00224632,0.00162579,0.00141133,0.00338108,0.000491025,0.6772,0.00210951,0.0102895,1756,582,12.99,8.43056
539,442,12.9792,-7.97656,0.0014417,0.00102852,0.000987184,0.00224368,0.000226539,0.682252,0.00142628,0.0110215,1763,582,12.9793,7.97658
546,442,12.9685,-7.55457,0.000765064,0.000621178,0.000690741,0.0013876,-1.3567e-06,0.733509,0.000925518,0.0139898,1770,582,12.9686,7.55457
553,442,12.959,-7.13025,0.000130749,0.000271305,0.000419716,0.000626586,-0.000224533,0.868349,0.000509341,0.0149553,1777,582,12.959,7.13027
560,442,12.9802,-6.68622,-0.000500948,6.14867e-05,0.000295892,0.000188479,-0.000627941,1.16539,0.000493598,0.0145114,1784,582,12.9802,6.68622
567,442,12.9698,-6.22266,-0.00107288,-0.000103824,0.000227994,-5.28624e-05,-0.00112384,1.35089,0.000732244,0.0108518,1791,582,12.9699,6.22268
574,442,12.9586,-5.76984,-0.00164121,-0.000186938,0.000217256,-0.000155175,-0.00167297,1.42563,0.00106735,0.013442,1798,582,12.9586,5.76984
581,442,12.991,-5.26538,-0.00225236,-0.000148761,0.000314104,-0.000102862,-0.00229826,1.42569,0.00149906,0.0242479,1805,582,12.9909,5.2654
588,442,13.0703,-4.74109,0,0,0,0,0,0,0,-1,1812,582,13.0703,4.7411
595,442,12.9387,-4.56506,0,0,0,0,0,0,0,-1,1819,582,12.9387,4.56506
602,442,11.4385,-1.74512,0,0,0,0,0,0,0,-1,1826,582,11.4385,1.74509
609,442,12.761,2.97223,0,0,0,0,0,0,0,-1,1833,582,12.761,-2.97221
616,442,9.78345,-0.103394,0,0,0,0,0,0,0,-1,1840,582,9.78341,0.103424
623,442,9.23828,0.326721,0,0,0,0,0,0,0,-1,1847,582,9.23829,-0.326727
630,442,7.74304,2.3924,0,0,0,0,0,0,0,-1,1854,582,7.7431,-2.39238
637,442,5.87805,1.84027,0,0,0,0,0,0,0,-1,1861,582,5.87807,-1.84025
644,442,0,0,0,0,0,0,0,0,0,-1,1868,582,0,0
651,442,0,0,0,0,0,0,0,0,0,-1,1875,582,0,0
658,442,0,0,0,0,0,0,0,0,0,-1,1882,582,0,0
665,442,0,0,0,0,0,0,0,0,0,-1,1889,582,0,0
672,442,0,0,0,0,0,0,0,0,0,-1,1896,582,0,0
679,442,0,0,0,0,0,0,0,0,0,-1,1903,582,0,0
686,442,0,0,0,0,0,0,0,0,0,-1,1910,582,0,0
693,442,0,0,0,0,0,0,0,0,0,-1,1917,582,0,0
700,442,0,0,0,0,0,0,0,0,0,-1,1924,582,0,0
707,442,0,0,0,0,0,0,0,0,0,-1,1931,582,0,0
714,442,0,0,0,0,0,0,0,0,0,-1,1938,582,0,0
721,442,0,0,0,0,0,0,0,0,0,-1,1945,582,0,0
728,442,0,0,0,0,0,0,0,0,0,-1,1952,582,0,0
735,442,0,0,0,0,0,0,0,0,0,-1,1959,582,0,0
742,442,0,0,0,0,0,0,0,0,0,-1,1966,582,0,0
749,442,0,0,0,0,0,0,0,0,0,-1,1973,582,0,0
756,442,0,0,0,0,0,0,0,0,0,-1,1980,582,0,0
763,442,0,0,0,0,0,0,0,0,0,-1,1987,582,0,0
770,442,0,0,0,0,0,0,0,0,0,-1,1994,582,0,0
777,442,0,0,0,0,0,0,0,0,0,-1,2001,582,0,0
784,442,0,0,0,0,0,0,0,0,0,-1,2008,582,0,0
791,442,0,0,0,0,0,0,0,0,0,-1,2015,582,0,0
798,442,0,0,0,0,0,0,0,0,0,-1,2022,582,0,0
805,442,0,0,0,0,0,0,0,0,0,-1,2029,582,0,0
812,442,0,0,0,0,0,0,0,0,0,-1,2036,582,0,0
-700,435,0,0,0,0,0,0,0,0,0,-1,524,589,0,0
-693,435,0,0,0,0,0,0,0,0,0,-1,531,589,0,0
-686,435,0,0,0,0,0,0,0,0,0,-1,538,589,0,0
-679,435,0,0,0,0,0,0,0,0,0,-1,545,589,0,0
-672,435,0,0,0,0,0,0,0,0,0,-1,552,589,0,0
-665,435,0,0,0,0,0,0,0,0,0,-1,559,589,0,0
-658,435,0,0,0,0,0,0,0,0,0,-1,566,589,0,0
-651,435,0,0,0,0,0,0,0,0,0,-1,573,589,0,0
-644,435,0,0,0,0,0,0,0,0,0,-1,580,589,0,0
-637,435,0,0,0,0,0,0,0,0,0,-1,587,589,0,0
-630,435,0,0,0,0,0,0,0,0,0,-1,594,589,0,0
-623,435,0,0,0,0,0,0,0,0,0,-1,601,589,0,0
-616,435,0,0,0,0,0,0,0,0,0,-1,608,589,0,0
-609,435,0,0,0,0,0,0,0,0,0,-1,615,589,0,0
-602,435,0,0,0,0,0,0,0,0,0,-1,622,589,0,0
-595,435,0,0,0,0,0,0,0,0,0,-1,629,589,0,0
-588,435,0,0,0,0,0,0,0,0,0,-1,636,589,0,0
-581,435,0,0,0,0,0,0,0,0,0,-1,643,589,0,0
-574,435,0,0,0,0,0,0,0,0,0,-1,650,589,0,0
-567,435,0,0,0,0,0,0,0,0,0,-1,657,589,0,0
-560,435,0,0,0,0,0,0,0,0,0,-1,664,589,0,0
-553,435,0,0,0,0,0,0,0,0,0,-1,671,589,0,0
-546,435,0,0,0,0,0,0,0,0,0,-1,678,589,0,0
-539,435,0,0,0,0,0,0,0,0,0,-1,685,589,0,0
-532,435,0,0,0,0,0,0,0,0,0,-1,692,589,0,0
-525,435,-10.0776,10.0547,0,0,0,0,0,0,0,-1,699,589,-10.0776,-10.0547
-518,435,-1.83093,-5.82367,0,0,0,0,0,0,0,-1,706,589,-1.83093,5.8237
-511,435,-2.45154,-5.33118,0,0,0,0,0,0,0,-1,713,589,-2.45151,5.33115
-504,435,-3.07208,-4.83862,0,0,0,0,0,0,0,-1,720,589,-3.0721,4.8386
-497,435,-6.31012,-5.84698,0,0,0,0,0,0,0,-1,727,589,-6.31012,5.84697
-490,435,-5.81903,-0.458679,0,0,0,0,0,0,0,-1,734,589,-5.81902,0.458684
-483,435,-6.96503,-3.01624,0,0,0,0,0,0,0,-1,741,589,-6.96505,3.01623
-476,435,-5.66541,-5.12616,0,0,0,0,0,0,0,-1,748,589,-5.66543,5.12615
-469,435,-5.44958,-5.79413,-0.00247406,0.00706296,-0.00426032,0.0086889,-0.0041,-1.20621,0.00754045,0.0341355,755,589,-5.44956,5.79413
-462,435,-5.30872,-6.56915,-0.00219018,0.00640714,-0.00370083,0.00778074,-0.00356379,-1.21539,0.0066989,0.0203905,762,589,-5.3087,6.56915
-455,435,-5.41364,-6.97833,-0.0017886,0.00563626,-0.00319084,0.00681909,-0.00297143,-1.2158,0.00579624,0.0174424,769,589,-5.41364,6.97835
-448,435,-5.40515,-7.45251,-0.00152681,0.00463329,-0.00249912,0.00551964,-0.00241316,-1.22997,0.0046956,0.0132071,776,589,-5.40517,7.4525
-441,435,-5.41119,-7.88983,-0.00133541,0.00376018,-0.00183,0.00434928,-0.00192451,-1.25936,0.00371126,0.0113172,783,589,-5.41118,7.88981
-434,435,-5.43201,-8.29578,-0.00126913,0.00259738,-0.00106108,0.00286942,-0.00154118,-1.31981,0.00258467,0.012297,790,589,-5.43203,8.29576
-427,435,-5.45569,-8.73309,-0.00123786,0.00142892,-0.000273628,0.00145671,-0.00126564,-1.4696,0.00157304,0.0105633,797,589,-5.45568,8.73307
-420,435,-5.44733,-9.14764,-0.0012676,0.000350415,0.000461761,0.000472921,-0.0013901,1.31147,0.00111822,0.0109222,804,589,-5.44735,9.14762
-413,435,-5.45422,-9.56647,-0.00147173,-0.000792137,0.00129194,0.000203943,-0.00246781,0.913992,0.00171723,0.0111877,811,589,-5.45425,9.56647
-406,435,-5.46686,-9.99176,-0.00168259,-0.00175757,0.00199011,0.000270385,-0.00371054,0.77598,0.00256857,0.0112181,818,589,-5.46687,9.99179
-399,435,-5.46881,-10.4044,-0.00188657,-0.00267014,0.00263647,0.000387067,-0.00494378,0.711638,0.00343216,0.00939461,825,589,-5.4688,10.4044
-392,435,-5.46075,-10.8107,-0.00205623,-0.00339655,0.00320678,0.000549668,-0.00600245,0.68239,0.00419687,0.0103992,832,589,-5.46078,10.8107
-385,435,-5.47778,-11.2133,-0.00224221,-0.00399269,0.00368674,0.000671759,-0.00690665,0.668854,0.00484391,0.0163524,839,589,-5.47777,11.2133
-378,435,-5.48889,-11.5713,-0.00246411,-0.0046257,0.0042397,0.000830382,-0.00792019,0.660595,0.00557757,0.0331557,846,589,-5.48889,11.5713
-371,435,-5.62073,-11.9847,0,0,0,0,0,0,0,-1,853,589,-5.6207,11.9847
-364,435,-5.62848,-11.5937,0,0,0,0,0,0,0,-1,860,589,-5.62847,11.5937
-357,435,-5.57343,-10.9666,0,0,0,0,0,0,0,-1,867,589,-5.57342,10.9666
-350,435,-0.86676,-3.69836,0,0,0,0,0,0,0,-1,874,589,-0.866784,3.69834
-343,435,-1.60706,-2.36835,0,0,0,0,0,0,0,-1,881,589,-1.60706,2.36838
-336,435,-2.07263,-1.94012,0,0,0,0,0,0,0,-1,888,589,-2.07265,1.94014
-329,435,-2.55963,-1.5517,0,0,0,0,0,0,0,-1,895,589,-2.5596,1.55168
-322,435,-3.08545,-1.55255,0,0,0,0,0,0,0,-1,902,589,-3.08544,1.55254
-315,435,-0.404297,-2.63763,0,0,0,0,0,0,0,-1,909,589,-0.404276,2.63761
-308,435,-1.70056,-1.90369,0,0,0,0,0,0,0,-1,916,589,-1.70056,1.90367
-301,435,-1.25232,-2.05511,0,0,0,0,0,0,0,-1,923,589,-1.25234,2.05514
-294,435,-1.79974,-1.97321,0,0,0,0,0,0,0,-1,930,589,-1.79973,1.97322
-287,435,0,0,0,0,0,0,0,0,0,-1,937,589,0,0
-280,435,0,0,0,0,0,0,0,0,0,-1,944,589,0,0
-273,435,0,0,0,0,0,0,0,0,0,-1,951,589,0,0
-266,435,0,0,0,0,0,0,0,0,0,-1,958,589,0,0
-259,435,0,0,0,0,0,0,0,0,0,-1,965,589,0,0
-252,435,0,0,0,0,0,0,0,0,0,-1,972,589,0,0
-245,435,0,0,0,0,0,0,0,0,0,-1,979,589,0,0
-238,435,0,0,0,0,0,0,0,0,0,-1,986,589,0,0
-231,435,0,0,0,0,0,0,0,0,0,-1,993,589,0,0
-224,435,0,0,0,0,0,0,0,0,0,-1,1000,589,0,0
-217,435,0,0,0,0,0,0,0,0,0,-1,1007,589,0,0
-210,435,0,0,0,0,0,0,0,0,0,-1,1014,589,0,0
-203,435,0,0,0,0,0,0,0,0,0,-1,1021,589,0,0
-196,435,0,0,0,0,0,0,0,0,0,-1,1028,589,0,0
-189,435,0,0,0,0,0,0,0,0,0,-1,1035,589,0,0
-182,435,0,0,0,0,0,0,0,0,0,-1,1042,589,0,0
-175,435,0,0,0,0,0,0,0,0,0,-1,1049,589,0,0
-168,435,0,0,0,0,0,0,0,0,0,-1,1056,589,0,0
-161,435,0,0,0,0,0,0,0,0,0,-1,1063,589,0,0
-154,435,0,0,0,0,0,0,0,0,0,-1,1070,589,0,0
-147,435,0,0,0,0,0,0,0,0,0,-1,1077,589,0,0
-140,435,0,0,0,0,0,0,0,0,0,-1,1084,589,0,0
-133,435,0,0,0,0,0,0,0,0,0,-1,1091,589,0,0
-126,435,0,0,0,0,0,0,0,0,0,-1,1098,589,0,0
-119,435,0,0,0,0,0,0,0,0,0,-1,1105,589,0,0
-112,435,0,0,0,0,0,0,0,0,0,-1,1112,589,0,0
-105,435,0,0,0,0,0,0,0,0,0,-1,1119,589,0,0
-98,435,0,0,0,0,0,0,0,0,0,-1,1126,589,0,0
-91,435,0,0,0,0,0,0,0,0,0,-1,1133,589,0,0
-84,435,0,0,0,0,0,0,0,0,0,-1,1140,589,0,0
-77,435,0,0,0,0,0,0,0,0,0,-1,1147,589,0,0
-70,435,0,0,0,0,0,0,0,0,0,-1,1154,589,0,0
-63,435,0,0,0,0,0,0,0,0,0,-1,1161,589,0,0
-56,435,0,0,0,0,0,0,0,0,0,-1,1168,589,0,0
-49,435,0,0,0,0,0,0,0,0,0,-1,1175,589,0,0
-42,435,0,0,0,0,0,0,0,0,0,-1,1182,589,0,0
-35,435,0,0,0,0,0,0,0,0,0,-1,1189,589,0,0
-28,435,0,0,0,0,0,0,0,0,0,-1,1196,589,0,0
-21,435,0,0,0,0,0,0,0,0,0,-1,1203,589,0,0
-14,435,0,0,0,0,0,0,0,0,0,-1,1210,589,0,0
-7,435,0,0,0,0,0,0,0,0,0,-1,1217,589,0,0
0,435,0,0,0,0,0,0,0,0,0,-1,1224,589,0,0
7,435,0,0,0,0,0,0,0,0,0,-1,1231,589,0,0
14,435,0,0,0,0,0,0,0,0,0,-1,1238,589,0,0
21,435,0,0,0,0,0,0,0,0,0,-1,1245,589,0,0
28,435,0,0,0,0,0,0,0,0,0,-1,1252,589,0,0
35,435,0,0,0,0,0,0,0,0,0,-1,1259,589,0,0
42,435,0,0,0,0,0,0,0,0,0,-1,1266,589,0,0
49,435,0,0,0,0,0,0,0,0,0,-1,1273,589,0,0
56,435,0,0,0,0,0,0,0,0,0,-1,1280,589,0,0
63,435,0,0,0,0,0,0,0,0,0,-1,1287,589,0,0
70,435,0,0,0,0,0,0,0,0,0,-1,1294,589,0,0
77,435,0,0,0,0,0,0,0,0,0,-1,1301,589,0,0
84,435,0,0,0,0,0,0,0,0,0,-1,1308,589,0,0
91,435,0,0,0,0,0,0,0,0,0,-1,1315,589,0,0
98,435,0,0,0,0,0,0,0,0,0,-1,1322,589,0,0
105,435,0,0,0,0,0,0,0,0,0,-1,1329,589,0,0
112,435,0,0,0,0,0,0,0,0,0,-1,1336,589,0,0
119,435,0,0,0,0,0,0,0,0,0,-1,1343,589,0,0
126,435,0,0,0,0,0,0,0,0,0,-1,1350,589,0,0
133,435,0,0,0,0,0,0,0,0,0,-1,1357,589,0,0
140,435,0,0,0,0,0,0,0,0,0,-1,1364,589,0,0
147,435,0,0,0,0,0,0,0,0,0,-1,1371,589,0,0
154,435,0,0,0,0,0,0,0,0,0,-1,1378,589,0,0
161,435,0,0,0,0,0,0,0,0,0,-1,1385,589,0,0
168,435,0,0,0,0,0,0,0,0,0,-1,1392,589,0,0
175,435,0,0,0,0,0,0,0,0,0,-1,1399,589,0,0
182,435,0,0,0,0,0,0,0,0,0,-1,1406,589,0,0
189,435,0,0,0,0,0,0,0,0,0,-1,1413,589,0,0
196,435,0,0,0,0,0,0,0,0,0,-1,1420,589,0,0
203,435,0,0,0,0,0,0,0,0,0,-1,1427,589,0,0
210,435,0,0,0,0,0,0,0,0,0,-1,1434,589,0,0
217,435,0,0,0,0,0,0,0,0,0,-1,1441,589,0,0
224,435,0,0,0,0,0,0,0,0,0,-1,1448,589,0,0
231,435,0,0,0,0,0,0,0,0,0,-1,1455,589,0,0
238,435,0,0,0,0,0,0,0,0,0,-1,1462,589,0,0
245,435,0,0,0,0,0,0,0,0,0,-1,1469,589,0,0
252,435,0,0,0,0,0,0,0,0,0,-1,1476,589,0,0
259,435,0,0,0,0,0,0,0,0,0,-1,1483,589,0,0
266,435,0,0,0,0,0,0,0,0,0,-1,1490,589,0,0
273,435,0,0,0,0,0,0,0,0,0,-1,1497,589,0,0
280,435,0,0,0,0,0,0,0,0,0,-1,1504,589,0,0
287,435,0,0,0,0,0,0,0,0,0,-1,1511,589,0,0
294,435,0,0,0,0,0,0,0,0,0,-1,1518,589,0,0
301,435,0,0,0,0,0,0,0,0,0,-1,1525,589,0,0
308,435,0,0,0,0,0,0,0,0,0,-1,1532,589,0,0
315,435,0,0,0,0,0,0,0,0,0,-1,1539,589,0,0
322,435,0,0,0,0,0,0,0,0,0,-1,1546,589,0,0
329,435,0,0,0,0,0,0,0,0,0,-1,1553,589,0,0
336,435,0,0,0,0,0,0,0,0,0,-1,1560,589,0,0
343,435,0,0,0,0,0,0,0,0,0,-1,1567,589,0,0
350,435,0,0,0,0,0,0,0,0,0,-1,1574,589,0,0
357,435,0,0,0,0,0,0,0,0,0,-1,1581,589,0,0
364,435,0,0,0,0,0,0,0,0,0,-1,1588,589,0,0
371,435,0,0,0,0,0,0,0,0,0,-1,1595,589,0,0
378,435,0,0,0,0,0,0,0,0,0,-1,1602,589,0,0
385,435,0,0,0,0,0,0,0,0,0,-1,1609,589,0,0
392,435,0,0,0,0,0,0,0,0,0,-1,1616,589,0,0
399,435,0,0,0,0,0,0,0,0,0,-1,1623,589,0,0
406,435,0,0,0,0,0,0,0,0,0,-1,1630,589,0,0
413,435,20.4565,3.49835,0,0,0,0,0,0,0,-1,1637,589,20.4565,-3.49836
420,435,21.4015,1.49609,0,0,0,0,0,0,0,-1,1644,589,21.4015,-1.49609
427,435,22.0464,-0.373962,0,0,0,0,0,0,0,-1,1651,589,22.0464,0.373972
434,435,22.1863,-1.54407,0,0,0,0,0,0,0,-1,1658,589,22.1862,1.54405
441,435,22.3992,-2.38287,0,0,0,0,0,0,0,-1,1665,589,22.3992,2.38289
448,435,7.4585,-0.00292969,0,0,0,0,0,0,0,-1,1672,589,7.45848,0.00294131
455,435,5.49915,-5.047,0,0,0,0,0,0,0,-1,1679,589,5.49914,5.04703
462,435,5.60669,-4.71466,0,0,0,0,0,0,0,-1,1686,589,5.60675,4.71469
469,435,5.87708,1.22351,0,0,0,0,0,0,0,-1,1693,589,5.87703,-1.22351
476,435,6.14136,1.37714,0,0,0,0,0,0,0,-1,1700,589,6.14138,-1.37712
483,435,6.49243,1.36169,0,0,0,0,0,0,0,-1,1707,589,6.49242,-1.36171
490,435,4.38391,-1.36218,0,0,0,0,0,0,0,-1,1714,589,4.38389,1.3622
497,435,7.23499,-3.64551,0,0,0,0,0,0,0,-1,1721,589,7.23495,3.64551
504,435,7.31189,-3.75909,0,0,0,0,0,0,0,-1,1728,589,7.31184,3.75911
511,435,13.3412,-9.88794,0,0,0,0,0,0,0,-1,1735,589,13.3412,9.88796
518,435,13.4902,-9.34351,0.00462618,0.00329476,0.00260768,0.00665178,0.00126916,0.660422,0.00407784,0.0279031,1742,589,13.4902,9.34353
525,435,13.4497,-8.88062,0.00361673,0.00264922,0.00206007,0.00524908,0.00101687,0.670075,0.0032145,0.0116969,1749,589,13.4497,8.88063
532,435,13.4419,-8.41296,0.00269095,0.00198985,0.00154292,0.00392264,0.000758158,0.673694,0.00240259,0.0134546,1756,589,13.4419,8.41297
539,435,13.4615,-7.94312,0.00188962,0.00136429,0.00108255,0.00274091,0.000512997,0.666381,0.00168255,0.0147515,1763,589,13.4616,7.94311
546,435,13.4299,-7.51855,0.00124847,0.000960446,0.000784232,0.0019018,0.000307111,0.694594,0.00117891,0.0141691,1770,589,13.4299,7.51858
553,435,13.4066,-7.10364,0.000659132,0.00058942,0.00052422,0.00114965,9.88984e-05,0.752201,0.000735689,0.0106347,1777,589,13.4066,7.10362
560,435,13.4117,-6.66296,6.82602e-05,0.000386225,0.000413943,0.000670666,-0.000216181,0.968746,0.000533963,0.00938364,1784,589,13.4117,6.66295
567,435,13.4194,-6.20898,-0.000456444,0.000267366,0.000395587,0.000441618,-0.000630696,1.15588,0.000622301,0.0090992,1791,589,13.4194,6.20897
574,435,13.4008,-5.75983,-0.000916107,0.000254749,0.000463015,0.000415719,-0.00107708,1.23621,0.000889614,0.0105686,1798,589,13.4008,5.7598
581,435,13.3639,-5.31415,-0.00135901,0.000380285,0.000655134,0.000599439,-0.00157817,1.24798,0.00129888,0.0176919,1805,589,13.3639,5.31416
588,435,13.3464,-4.89948,-0.00169545,0.000742272,0.00106077,0.00113923,-0.00209241,1.21272,0.00189264,0.0350458,1812,589,13.3464,4.89945
595,435,13.2466,-4.49512,-0.00195888,0.00152635,0.00172819,0.00223799,-0.00267052,1.18018,0.00283759,0.0372268,1819,589,13.2466,4.49509
602,435,13.2637,-4.06757,0,0,0,0,0,0,0,-1,1826,589,13.2637,4.06758
609,435,13.3547,-3.22943,0,0,0,0,0,0,0,-1,1833,589,13.3548,3.22945
616,435,5.05151,-2.75269,0,0,0,0,0,0,0,-1,1840,589,5.05157,2.7527
623,435,11.7588,3.9704,0,0,0,0,0,0,0,-1,1847,589,11.7587,-3.97043
630,435,4.72742,-0.87561,0,0,0,0,0,0,0,-1,1854,589,4.7274,0.875636
637,435,5.05286,1.48792,0,0,0,0,0,0,0,-1,1861,589,5.05291,-1.48792
644,435,0,0,0,0,0,0,0,0,0,-1,1868,589,0,0
651,435,0,0,0,0,0,0,0,0,0,-1,1875,589,0,0
658,435,0,0,0,0,0,0,0,0,0,-1,1882,589,0,0
665,435,0,0,0,0,0,0,0,0,0,-1,1889,589,0,0
672,435,0,0,0,0,0,0,0,0,0,-1,1896,589,0,0
679,435,0,0,0,0,0,0,0,0,0,-1,1903,589,0,0
686,435,0,0,0,0,0,0,0,0,0,-1,1910,589,0,0
693,435,0,0,0,0,0,0,0,0,0,-1,1917,589,0,0
700,435,0,0,0,0,0,0,0,0,0,-1,1924,589,0,0
707,435,0,0,0,0,0,0,0,0,0,-1,1931,589,0,0
714,435,0,0,0,0,0,0,0,0,0,-1,1938,589,0,0
721,435,0,0,0,0,0,0,0,0,0,-1,1945,589,0,0
728,435,0,0,0,0,0,0,0,0,0,-1,1952,589,0,0
735,435,0,0,0,0,0,0,0,0,0,-1,1959,589,0,0
742,435,0,0,0,0,0,0,0,0,0,-1,1966,589,0,0
749,435,0,0,0,0,0,0,0,0,0,-1,1973,589,0,0
756,435,0,0,0,0,0,0,0,0,0,-1,1980,589,0,0
763,435,0,0,0,0,0,0,0,0,0,-1,1987,589,0,0
770,435,0,0,0,0,0,0,0,0,0,-1,1994,589,0,0
777,435,0,0,0,0,0,0,0,0,0,-1,2001,589,0,0
784,435,0,0,0,0,0,0,0,0,0,-1,2008,589,0,0
791,435,0,0,0,0,0,0,0,0,0,-1,2015,589,0,0
798,435,0,0,0,0,0,0,0,0,0,-1,2022,589,0,0
805,435,0,0,0,0,0,0,0,0,0,-1,2029,589,0,0
812,435,0,0,0,0,0,0,0,0,0,-1,2036,589,0,0
-700,428,0,0,0,0,0,0,0,0,0,-1,524,596,0,0
-693,428,0,0,0,0,0,0,0,0,0,-1,531,596,0,0
-686,428,0,0,0,0,0,0,0,0,0,-1,538,596,0,0
-679,428,0,0,0,0,0,0,0,0,0,-1,545,596,0,0
-672,428,0,0,0,0,0,0,0,0,0,-1,552,596,0,0
-665,428,0,0,0,0,0,0,0,0,0,-1,559,596,0,0
-658,428,0,0,0,0,0,0,0,0,0,-1,566,596,0,0
-651,428,0,0,0,0,0,0,0,0,0,-1,573,596,0,0
-644,428,0,0,0,0,0,0,0,0,0,-1,580,596,0,0
-637,428,0,0,0,0,0,0,0,0,0,-1,587,596,0,0
-630,428,0,0,0,0,0,0,0,0,0,-1,594,596,0,0
-623,428,0,0,0,0,0,0,0,0,0,-1,601,596,0,0
-616,428,0,0,0,0,0,0,0,0,0,-1,608,596,0,0
-609,428,0,0,0,0,0,0,0,0,0,-1,615,596,0,0
-602,428,0,0,0,0,0,0,0,0,0,-1,622,596,0,0
-595,428,0,0,0,0,0,0,0,0,0,-1,629,596,0,0
-588,428,0,0,0,0,0,0,0,0,0,-1,636,596,0,0
-581,428,0,0,0,0,0,0,0,0,0,-1,643,596,0,0
-574,428,0,0,0,0,0,0,0,0,0,-1,650,596,0,0
-567,428,0,0,0,0,0,0,0,0,0,-1,657,596,0,0
-560,428,0,0,0,0,0,0,0,0,0,-1,664,596,0,0
-553,428,0,0,0,0,0,0,0,0,0,-1,671,596,0,0
-546,428,0,0,0,0,0,0,0,0,0,-1,678,596,0,0
-539,428,0,0,0,0,0,0,0,0,0,-1,685,596,0,0
-532,428,0,0,0,0,0,0,0,0,0,-1,692,596,0,0
-525,428,-9.59918,7.58618,0,0,0,0,0,0,0,-1,699,596,-9.59918,-7.5862
-518,428,-2.92285,-4.81854,0,0,0,0,0,0,0,-1,706,596,-2.92285,4.81856
-511,428,-3.68811,-4.79474,0,0,0,0,0,0,0,-1,713,596,-3.68811,4.79474
-504,428,-4.45337,-4.77094,0,0,0,0,0,0,0,-1,720,596,-4.45337,4.77092
-497,428,-2.98108,-3.77502,0,0,0,0,0,0,0,-1,727,596,-2.98106,3.77505
-490,428,-6.39044,-2.80481,0,0,0,0,0,0,0,-1,734,596,-6.39047,2.80483
-483,428,-7.10645,-5.22101,0,0,0,0,0,0,0,-1,741,596,-7.10645,5.22098
-476,428,-5.83582,-5.54163,0,0,0,0,0,0,0,-1,748,596,-5.83584,5.54164
-469,428,-5.72736,-6.04773,-0.00176104,0.00499703,-0.00308337,0.00619239,-0.00295639,-1.20096,0.00539107,0.023171,755,596,-5.72736,6.0477
-462,428,-5.77386,-6.4787,-0.00149444,0.00458691,-0.00274991,0.00564595,-0.00255349,-1.20318,0.00484488,0.0221333,762,596,-5.77384,6.47871
-455,428,-5.81909,-6.96326,-0.00115898,0.00403232,-0.00239705,0.00496983,-0.00209649,-1.19798,0.00419066,0.0138066,769,596,-5.81907,6.96328
-448,428,-5.83899,-7.41406,-0.000974928,0.00321054,-0.00180411,0.00388084,-0.00164523,-1.21506,0.00327635,0.0109177,776,596,-5.83898,7.41405
-441,428,-5.83826,-7.8714,-0.000958395,0.00246161,-0.00117546,0.00282666,-0.00132344,-1.26969,0.00244789,0.0129514,783,596,-5.83828,7.87142
-434,428,-5.85583,-8.30341,-0.00104716,0.00142822,-0.000425942,0.00149947,-0.0011184,-1.40507,0.00151675,0.0103108,790,596,-5.85585,8.30343
-427,428,-5.86914,-8.72455,-0.00118769,0.00033596,0.00037892,0.000424992,-0.00127672,1.34002,0.00102268,0.0113269,797,596,-5.86912,8.72454
-420,428,-5.86456,-9.11542,-0.00142135,-0.000715156,0.00117587,0.000159485,-0.00229599,0.931258,0.0015865,0.0109515,804,596,-5.86459,9.11543
-413,428,-5.8642,-9.50958,-0.00184438,-0.00184075,0.00208598,0.000243419,-0.00392854,0.785834,0.00270382,0.0132459,811,596,-5.8642,9.50959
-406,428,-5.87378,-9.93689,-0.00235355,-0.00288732,0.00292344,0.000315167,-0.00555603,0.739879,0.00381342,0.0165443,818,596,-5.87379,9.93691
-399,428,-5.87445,-10.3699,-0.00289539,-0.00393152,0.00373349,0.000355807,-0.00718272,0.716457,0.00491138,0.0149758,825,596,-5.87446,10.3699
-392,428,-5.87958,-10.8065,-0.00344264,-0.00474275,0.00448161,0.000435817,-0.00862121,0.713376,0.00589812,0.0182915,832,596,-5.87958,10.8065
-385,428,-5.97076,-11.1823,-0.00409558,-0.00558046,0.00520348,0.00041816,-0.0100942,0.714536,0.00687309,0.038358,839,596,-5.97078,11.1823
-378,428,-5.93701,-11.5288,0,0,0,0,0,0,0,-1,846,596,-5.93704,11.5288
-371,428,-5.96155,-11.0703,0,0,0,0,0,0,0,-1,853,596,-5.96154,11.0702
-364,428,-6.33643,-10.7223,0,0,0,0,0,0,0,-1,860,596,-6.33645,10.7223
-357,428,-3.20996,-4.70966,0,0,0,0,0,0,0,-1,867,596,-3.20997,4.70965
-350,428,-1.62793,-3.94055,0,0,0,0,0,0,0,-1,874,596,-1.62794,3.94055
-343,428,-0.0567017,-4.80994,0,0,0,0,0,0,0,-1,881,596,-0.0567096,4.80996
-336,428,-3.29175,-1.39569,0,0,0,0,0,0,0,-1,888,596,-3.29172,1.39568
-329,428,-3.71564,-0.791321,0,0,0,0,0,0,0,-1,895,596,-3.71564,0.791299
-322,428,-5.52863,-3.59827,0,0,0,0,0,0,0,-1,902,596,-5.52865,3.59829
-315,428,-4.57172,-1.22052,0,0,0,0,0,0,0,-1,909,596,-4.57171,1.22052
-308,428,-5.94324,-0.810791,0,0,0,0,0,0,0,-1,916,596,-5.94321,0.810803
-301,428,0,0,0,0,0,0,0,0,0,-1,923,596,0,0
-294,428,0,0,0,0,0,0,0,0,0,-1,930,596,0,0
-287,428,0,0,0,0,0,0,0,0,0,-1,937,596,0,0
-280,428,0,0,0,0,0,0,0,0,0,-1,944,596,0,0
-273,428,0,0,0,0,0,0,0,0,0,-1,951,596,0,0
-266,428,0,0,0,0,0,0,0,0,0,-1,958,596,0,0
-259,428,0,0,0,0,0,0,0,0,0,-1,965,596,0,0
-252,428,0,0,0,0,0,0,0,0,0,-1,972,596,0,0
-245,428,0,0,0,0,0,0,0,0,0,-1,979,596,0,0
-238,428,0,0,0,0,0,0,0,0,0,-1,986,596,0,0
-231,428,0,0,0,0,0,0,0,0,0,-1,993,596,0,0
-224,428,0,0,0,0,0,0,0,0,0,-1,1000,596,0,0
-217,428,0,0,0,0,0,0,0,0,0,-1,1007,596,0,0
-210,428,0,0,0,0,0,0,0,0,0,-1,1014,596,0,0
-203,428,0,0,0,0,0,0,0,0,0,-1,1021,596,0,0
-196,428,0,0,0,0,0,0,0,0,0,-1,1028,596,0,0
-189,428,0,0,0,0,0,0,0,0,0,-1,1035,596,0,0
-182,428,0,0,0,0,0,0,0,0,0,-1,1042,596,0,0
-175,428,0,0,0,0,0,0,0,0,0,-1,1049,596,0,0
-168,428,0,0,0,0,0,0,0,0,0,-1,1056,596,0,0
-161,428,0,0,0,0,0,0,0,0,0,-1,1063,596,0,0
-154,428,0,0,0,0,0,0,0,0,0,-1,1070,596,0,0
-147,428,0,0,0,0,0,0,0,0,0,-1,1077,596,0,0
-140,428,0,0,0,0,0,0,0,0,0,-1,1084,596,0,0
-133,428,0,0,0,0,0,0,0,0,0,-1,1091,596,0,0
-126,428,0,0,0,0,0,0,0,0,0,-1,1098,596,0,0
-119,428,0,0,0,0,0,0,0,0,0,-1,1105,596,0,0
-112,428,0,0,0,0,0,0,0,0,0,-1,1112,596,0,0
-105,428,0,0,0,0,0,0,0,0,0,-1,1119,596,0,0
-98,428,0,0,0,0,0,0,0,0,0,-1,1126,596,0,0
-91,428,0,0,0,0,0,0,0,0,0,-1,1133,596,0,0
-84,428,0,0,0,0,0,0,0,0,0,-1,1140,596,0,0
-77,428,0,0,0,0,0,0,0,0,0,-1,1147,596,0,0
-70,428,0,0,0,0,0,0,0,0,0,-1,1154,596,0,0
-63,428,0,0,0,0,0,0,0,0,0,-1,1161,596,0,0
-56,428,0,0,0,0,0,0,0,0,0,-1,1168,596,0,0
-49,428,0,0,0,0,0,0,0,0,0,-1,1175,596,0,0
-42,428,0,0,0,0,0,0,0,0,0,-1,1182,596,0,0
-35,428,0,0,0,0,0,0,0,0,0,-1,1189,596,0,0
-28,428,0,0,0,0,0,0,0,0,0,-1,1196,596,0,0
-21,428,0,0,0,0,0,0,0,0,0,-1,1203,596,0,0
-14,428,0,0,0,0,0,0,0,0,0,-1,1210,596,0,0
-7,428,0,0,0,0,0,0,0,0,0,-1,1217,596,0,0
0,428,0,0,0,0,0,0,0,0,0,-1,1224,596,0,0
7,428,0,0,0,0,0,0,0,0,0,-1,1231,596,0,0
14,428,0,0,0,0,0,0,0,0,0,-1,1238,596,0,0
21,428,0,0,0,0,0,0,0,0,0,-1,1245,596,0,0
28,428,0,0,0,0,0,0,0,0,0,-1,1252,596,0,0
35,428,0,0,0,0,0,0,0,0,0,-1,1259,596,0,0
42,428,0,0,0,0,0,0,0,0,0,-1,1266,596,0,0
49,428,0,0,0,0,0,0,0,0,0,-1,1273,596,0,0
56,428,0,0,0,0,0,0,0,0,0,-1,1280,596,0,0
63,428,0,0,0,0,0,0,0,0,0,-1,1287,596,0,0
70,428,0,0,0,0,0,0,0,0,0,-1,1294,596,0,0
77,428,0,0,0,0,0,0,0,0,0,-1,1301,596,0,0
84,428,0,0,0,0,0,0,0,0,0,-1,1308,596,0,0
91,428,0,0,0,0,0,0,0,0,0,-1,1315,596,0,0
98,428,0,0,0,0,0,0,0,0,0,-1,1322,596,0,0
105,428,0,0,0,0,0,0,0,0,0,-1,1329,596,0,0
112,428,0,0,0,0,0,0,0,0,0,-1,1336,596,0,0
119,428,0,0,0,0,0,0,0,0,0,-1,1343,596,0,0
126,428,0,0,0,0,0,0,0,0,0,-1,1350,596,0,0
133,428,0,0,0,0,0,0,0,0,0,-1,1357,596,0,0
140,428,0,0,0,0,0,0,0,0,0,-1,1364,596,0,0
147,428,0,0,0,0,0,0,0,0,0,-1,1371,596,0,0
154,428,0,0,0,0,0,0,0,0,0,-1,1378,596,0,0
161,428,0,0,0,0,0,0,0,0,0,-1,1385,596,0,0
168,428,0,0,0,0,0,0,0,0,0,-1,1392,596,0,0
175,428,0,0,0,0,0,0,0,0,0,-1,1399,596,0,0
182,428,0,0,0,0,0,0,0,0,0,-1,1406,596,0,0
189,428,0,0,0,0,0,0,0,0,0,-1,1413,596,0,0
196,428,0,0,0,0,0,0,0,0,0,-1,1420,596,0,0
203,428,0,0,0,0,0,0,0,0,0,-1,1427,596,0,0
210,428,0,0,0,0,0,0,0,0,0,-1,1434,596,0,0
217,428,0,0,0,0,0,0,0,0,0,-1,1441,596,0,0
224,428,0,0,0,0,0,0,0,0,0,-1,1448,596,0,0
231,428,0,0,0,0,0,0,0,0,0,-1,1455,596,0,0
238,428,0,0,0,0,0,0,0,0,0,-1,1462,596,0,0
245,428,0,0,0,0,0,0,0,0,0,-1,1469,596,0,0
252,428,0,0,0,0,0,0,0,0,0,-1,1476,596,0,0
259,428,0,0,0,0,0,0,0,0,0,-1,1483,596,0,0
266,428,0,0,0,0,0,0,0,0,0,-1,1490,596,0,0
273,428,0,0,0,0,0,0,0,0,0,-1,1497,596,0,0
280,428,0,0,0,0,0,0,0,0,0,-1,1504,596,0,0
287,428,0,0,0,0,0,0,0,0,0,-1,1511,596,0,0
294,428,0,0,0,0,0,0,0,0,0,-1,1518,596,0,0
301,428,0,0,0,0,0,0,0,0,0,-1,1525,596,0,0
308,428,0,0,0,0,0,0,0,0,0,-1,1532,596,0,0
315,428,0,0,0,0,0,0,0,0,0,-1,1539,596,0,0
322,428,0,0,0,0,0,0,0,0,0,-1,1546,596,0,0
329,428,0,0,0,0,0,0,0,0,0,-1,1553,596,0,0
336,428,0,0,0,0,0,0,0,0,0,-1,1560,596,0,0
343,428,0,0,0,0,0,0,0,0,0,-1,1567,596,0,0
350,428,0,0,0,0,0,0,0,0,0,-1,1574,596,0,0
357,428,0,0,0,0,0,0,0,0,0,-1,1581,596,0,0
364,428,0,0,0,0,0,0,0,0,0,-1,1588,596,0,0
371,428,0,0,0,0,0,0,0,0,0,-1,1595,596,0,0
378,428,0,0,0,0,0,0,0,0,0,-1,1602,596,0,0
385,428,0,0,0,0,0,0,0,0,0,-1,1609,596,0,0
392,428,0,0,0,0,0,0,0,0,0,-1,1616,596,0,0
399,428,0,0,0,0,0,0,0,0,0,-1,1623,596,0,0
406,428,0,0,0,0,0,0,0,0,0,-1,1630,596,0,0
413,428,0,0,0,0,0,0,0,0,0,-1,1637,596,0,0
420,428,19.8469,1.3399,0,0,0,0,0,0,0,-1,1644,596,19.8469,-1.33992
427,428,20.7299,-0.225281,0,0,0,0,0,0,0,-1,1651,596,20.7299,0.225262
434,428,19.8915,-0.583069,0,0,0,0,0,0,0,-1,1658,596,19.8915,0.583075
441,428,8.17993,0.607483,0,0,0,0,0,0,0,-1,1665,596,8.17997,-0.607513
448,428,7.84338,-0.385986,0,0,0,0,0,0,0,-1,1672,596,7.84336,0.385978
455,428,6.64038,2.1123,0,0,0,0,0,0,0,-1,1679,596,6.64037,-2.11229
462,428,4.84106,4.12341,0,0,0,0,0,0,0,-1,1686,596,4.84107,-4.12339
469,428,7.83789,3.10083,0,0,0,0,0,0,0,-1,1693,596,7.83785,-3.10086
476,428,7.61255,1.73956,0,0,0,0,0,0,0,-1,1700,596,7.61252,-1.73958
483,428,7.22766,1.05121,0,0,0,0,0,0,0,-1,1707,596,7.2277,-1.05121
490,428,5.4071,-3.2793,0,0,0,0,0,0,0,-1,1714,596,5.40707,3.27929
497,428,7.84106,-3.65491,0,0,0,0,0,0,0,-1,1721,596,7.84107,3.65491
504,428,6.92139,-2.83356,0,0,0,0,0,0,0,-1,1728,596,6.92137,2.83353
511,428,7.88501,-3.78723,0,0,0,0,0,0,0,-1,1735,596,7.88502,3.78722
518,428,13.8617,-9.41199,0,0,0,0,0,0,0,-1,1742,596,13.8617,9.41197
525,428,13.8621,-8.87439,0,0,0,0,0,0,0,-1,1749,596,13.862,8.87442
532,428,13.8722,-8.38721,0.00236357,0.00237085,0.00143858,0.00380579,0.000928627,0.786664,0.00229126,0.0207293,1756,596,13.8721,8.38724
539,428,13.9218,-7.94958,0.00157631,0.00168376,0.000928684,0.00256027,0.000699798,0.81429,0.00152797,0.0207264,1763,596,13.9218,7.94959
546,428,13.8961,-7.53546,0.00101347,0.00124671,0.00062593,0.00176679,0.00049339,0.877498,0.00105267,0.0169009,1770,596,13.8961,7.53544
553,428,13.864,-7.10083,0.000539576,0.000813933,0.00038225,0.00108287,0.000270635,0.957676,0.000650742,0.0114884,1777,596,13.864,7.10082
560,428,13.8848,-6.65833,9.10582e-05,0.000572709,0.000293188,0.000711299,-4.75322e-05,1.12923,0.000490811,0.0117973,1784,596,13.8847,6.65832
567,428,13.8748,-6.21661,-0.000257373,0.000462329,0.000343755,0.000600132,-0.000395176,1.18953,0.000578689,0.010897,1791,596,13.8748,6.21659
574,428,13.847,-5.76398,-0.00048767,0.000479207,0.000507722,0.000696835,-0.000705298,1.16585,0.000809527,0.0129084,1798,596,13.847,5.76399
581,428,13.8097,-5.29895,-0.00066771,0.000648002,0.000815218,0.00103769,-0.0010574,1.12489,0.00120962,0.0116943,1805,596,13.8097,5.29897
588,428,13.7898,-4.83099,-0.000784221,0.00106829,0.00131127,0.00174745,-0.00146338,1.0929,0.00185619,0.0169261,1812,596,13.7898,4.83099
595,428,13.7627,-4.36096,-0.000805571,0.0018274,0.00205121,0.00294824,-0.00192642,1.0707,0.00283492,0.0145943,1819,596,13.7627,4.36099
602,428,13.6826,-3.88031,-0.000932811,0.00298543,0.00296327,0.00457864,-0.00252603,1.07748,0.00415856,0.0240414,1826,596,13.6827,3.88028
609,428,13.7167,-3.3678,-0.000845897,0.00440827,0.00425243,0.00677966,-0.00321729,1.0621,0.00589263,0.0498201,1833,596,13.7166,3.36783
616,428,13.7521,-2.81171,0,0,0,0,0,0,0,-1,1840,596,13.7521,2.8117
623,428,9.53577,1.12518,0,0,0,0,0,0,0,-1,1847,596,9.5358,-1.1252
630,428,7.07996,6.88562,0,0,0,0,0,0,0,-1,1854,596,7.0799,-6.88565
637,428,3.95435,1.90857,0,0,0,0,0,0,0,-1,1861,596,3.95439,-1.90858
644,428,5.75476,0.888977,0,0,0,0,0,0,0,-1,1868,596,5.75472,-0.888955
651,428,0,0,0,0,0,0,0,0,0,-1,1875,596,0,0
658,428,0,0,0,0,0,0,0,0,0,-1,1882,596,0,0
665,428,0,0,0,0,0,0,0,0,0,-1,1889,596,0,0
672,428,0,0,0,0,0,0,0,0,0,-1,1896,596,0,0
679,428,0,0,0,0,0,0,0,0,0,-1,1903,596,0,0
686,428,0,0,0,0,0,0,0,0,0,-1,1910,596,0,0
693,428,0,0,0,0,0,0,0,0,0,-1,1917,596,0,0
700,428,0,0,0,0,0,0,0,0,0,-1,1924,596,0,0
707,428,0,0,0,0,0,0,0,0,0,-1,1931,596,0,0
714,428,0,0,0,0,0,0,0,0,0,-1,1938,596,0,0
721,428,0,0,0,0,0,0,0,0,0,-1,1945,596,0,0
728,428,0,0,0,0,0,0,0,0,0,-1,1952,596,0,0
735,428,0,0,0,0,0,0,0,0,0,-1,1959,596,0,0
742,428,0,0,0,0,0,0,0,0,0,-1,1966,596,0,0
749,428,0,0,0,0,0,0,0,0,0,-1,1973,596,0,0
756,428,0,0,0,0,0,0,0,0,0,-1,1980,596,0,0
763,428,0,0,0,0,0,0,0,0,0,-1,1987,596,0,0
770,428,0,0,0,0,0,0,0,0,0,-1,1994,596,0,0
777,428,0,0,0,0,0,0,0,0,0,-1,2001,596,0,0
784,428,0,0,0,0,0,0,0,0,0,-1,2008,596,0,0
791,428,0,0,0,0,0,0,0,0,0,-1,2015,596,0,0
798,428,0,0,0,0,0,0,0,0,0,-1,2022,596,0,0
805,428,0,0,0,0,0,0,0,0,0,-1,2029,596,0,0
812,428,0,0,0,0,0,0,0,0,0,-1,2036,596,0,0
-700,421,0,0,0,0,0,0,0,0,0,-1,524,603,0,0
-693,421,0,0,0,0,0,0,0,0,0,-1,531,603,0,0
-686,421,0,0,0,0,0,0,0,0,0,-1,538,603,0,0
-679,421,0,0,0,0,0,0,0,0,0,-1,545,603,0,0
-672,421,0,0,0,0,0,0,0,0,0,-1,552,603,0,0
-665,421,0,0,0,0,0,0,0,0,0,-1,559,603,0,0
-658,421,0,0,0,0,0,0,0,0,0,-1,566,603,0,0
-651,421,0,0,0,0,0,0,0,0,0,-1,573,603,0,0
-644,421,0,0,0,0,0,0,0,0,0,-1,580,603,0,0
-637,421,0,0,0,0,0,0,0,0,0,-1,587,603,0,0
-630,421,0,0,0,0,0,0,0,0,0,-1,594,603,0,0
-623,421,0,0,0,0,0,0,0,0,0,-1,601,603,0,0
-616,421,0,0,0,0,0,0,0,0,0,-1,608,603,0,0
-609,421,0,0,0,0,0,0,0,0,0,-1,615,603,0,0
-602,421,0,0,0,0,0,0,0,0,0,-1,622,603,0,0
-595,421,0,0,0,0,0,0,0,0,0,-1,629,603,0,0
-588,421,0,0,0,0,0,0,0,0,0,-1,636,603,0,0
-581,421,0,0,0,0,0,0,0,0,0,-1,643,603,0,0
-574,421,0,0,0,0,0,0,0,0,0,-1,650,603,0,0
-567,421,0,0,0,0,0,0,0,0,0,-1,657,603,0,0
-560,421,0,0,0,0,0,0,0,0,0,-1,664,603,0,0
-553,421,0,0,0,0,0,0,0,0,0,-1,671,603,0,0
-546,421,0,0,0,0,0,0,0,0,0,-1,678,603,0,0
-539,421,0,0,0,0,0,0,0,0,0,-1,685,603,0,0
-532,421,-8.97382,6.95636,0,0,0,0,0,0,0,-1,692,603,-8.97384,-6.95634
-525,421,-2.11481,-8.04272,0,0,0,0,0,0,0,-1,699,603,-2.11483,8.0427
-518,421,-3.05908,-5.07233,0,0,0,0,0,0,0,-1,706,603,-3.0591,5.07235
-511,421,-4.63525,-4.08447,0,0,0,0,0,0,0,-1,713,603,-4.63524,4.08449
-504,421,-4.97272,-4.38385,0,0,0,0,0,0,0,-1,720,603,-4.9727,4.38383
-497,421,-6.63141,-2.32501,0,0,0,0,0,0,0,-1,727,603,-6.6314,2.32498
-490,421,-5.52075,-3.10205,0,0,0,0,0,0,0,-1,734,603,-5.52075,3.10204
-483,421,-6.10144,-5.34149,0,0,0,0,0,0,0,-1,741,603,-6.10144,5.34148
-476,421,-6.15552,-5.73352,-0.00139164,0.00322666,-0.00210947,0.00404513,-0.00221012,-1.20068,0.0036629,0.0320154,748,603,-6.15554,5.73352
-469,421,-6.24908,-6.06622,-0.00125725,0.00326945,-0.00209985,0.00409351,-0.00208132,-1.19682,0.00362759,0.023344,755,603,-6.24908,6.06624
-462,421,-6.26727,-6.55621,-0.000973315,0.00305024,-0.00196194,0.00384852,-0.0017716,-1.18437,0.00331781,0.0197775,762,603,-6.26724,6.55621
-455,421,-6.27435,-6.97668,-0.00067837,0.00266351,-0.00174571,0.00340908,-0.00142394,-1.16716,0.00286773,0.0188708,769,603,-6.27435,6.97668
-448,421,-6.28174,-7.40143,-0.000531667,0.00200028,-0.00125384,0.0025161,-0.00104749,-1.1805,0.00211488,0.0179188,776,603,-6.28177,7.40142
-441,421,-6.28088,-7.86444,-0.00063759,0.00133572,-0.000662693,0.00153762,-0.000839484,-1.27507,0.00139201,0.0140585,783,603,-6.28087,7.86443
-434,421,-6.29425,-8.29163,-0.000844644,0.000406157,7.09339e-05,0.000410167,-0.000848654,1.51433,0.000741332,0.0106804,790,603,-6.29424,8.29162
-427,421,-6.29688,-8.71661,-0.00114813,-0.000625166,0.000906609,5.69148e-05,-0.00183021,0.925798,0.00123955,0.0105905,797,603,-6.29688,8.71664
-420,421,-6.30377,-9.10657,-0.00160761,-0.00167131,0.00180202,0.000162837,-0.00344176,0.776562,0.00235067,0.0108532,804,603,-6.30378,9.10657
-413,421,-6.3042,-9.49982,-0.00229445,-0.0027903,0.00283898,0.000307417,-0.00539216,0.741844,0.0037015,0.0135061,811,603,-6.30419,9.49983
-406,421,-6.30951,-9.95349,-0.00318251,-0.00395025,0.00389217,0.000344676,-0.00747743,0.736244,0.00510373,0.0193297,818,603,-6.3095,9.95351
-399,421,-6.27008,-10.4382,-0.00418525,-0.00517653,0.00496642,0.000310202,-0.00967198,0.735664,0.00655384,0.0235194,825,603,-6.27007,10.4382
-392,421,-6.39258,-10.7071,-0.00531305,-0.00614345,0.00604442,0.000330411,-0.0117869,0.751106,0.00797036,0.0337789,832,603,-6.39261,10.7071
-385,421,-6.50299,-11.1359,0,0,0,0,0,0,0,-1,839,603,-6.50298,11.1359
-378,421,-4.94733,-8.87909,0,0,0,0,0,0,0,-1,846,603,-4.94731,8.87906
-371,421,-5.65082,-7.01849,0,0,0,0,0,0,0,-1,853,603,-5.65082,7.0185
-364,421,-5.94189,-7.09875,0,0,0,0,0,0,0,-1,860,603,-5.94192,7.09878
-357,421,-7.62531,-8.26337,0,0,0,0,0,0,0,-1,867,603,-7.62532,8.26337
-350,421,-5.38019,-3.75024,0,0,0,0,0,0,0,-1,874,603,-5.38017,3.75026
-343,421,-6.22797,-2.57123,0,0,0,0,0,0,0,-1,881,603,-6.22798,2.57121
-336,421,-6.22882,-2.59369,0,0,0,0,0,0,0,-1,888,603,-6.22883,2.5937
-329,421,-4.50134,-1.49469,0,0,0,0,0,0,0,-1,895,603,-4.50137,1.49468
-322,421,-6.30377,-0.285339,0,0,0,0,0,0,0,-1,902,603,-6.30379,0.285355
-315,421,-4.47821,-1.26733,0,0,0,0,0,0,0,-1,909,603,-4.47824,1.26732
-308,421,0,0,0,0,0,0,0,0,0,-1,916,603,0,0
-301,421,0,0,0,0,0,0,0,0,0,-1,923,603,0,0
-294,421,0,0,0,0,0,0,0,0,0,-1,930,603,0,0
-287,421,0,0,0,0,0,0,0,0,0,-1,937,603,0,0
-280,421,0,0,0,0,0,0,0,0,0,-1,944,603,0,0
-273,421,0,0,0,0,0,0,0,0,0,-1,951,603,0,0
-266,421,0,0,0,0,0,0,0,0,0,-1,958,603,0,0
-259,421,0,0,0,0,0,0,0,0,0,-1,965,603,0,0
-252,421,0,0,0,0,0,0,0,0,0,-1,972,603,0,0
-245,421,0,0,0,0,0,0,0,0,0,-1,979,603,0,0
-238,421,0,0,0,0,0,0,0,0,0,-1,986,603,0,0
-231,421,0,0,0,0,0,0,0,0,0,-1,993,603,0,0
-224,421,0,0,0,0,0,0,0,0,0,-1,1000,603,0,0
-217,421,0,0,0,0,0,0,0,0,0,-1,1007,603,0,0
-210,421,0,0,0,0,0,0,0,0,0,-1,1014,603,0,0
-203,421,0,0,0,0,0,0,0,0,0,-1,1021,603,0,0
-196,421,0,0,0,0,0,0,0,0,0,-1,1028,603,0,0
-189,421,0,0,0,0,0,0,0,0,0,-1,1035,603,0,0
-182,421,0,0,0,0,0,0,0,0,0,-1,1042,603,0,0
-175,421,0,0,0,0,0,0,0,0,0,-1,1049,603,0,0
-168,421,0,0,0,0,0,0,0,0,0,-1,1056,603,0,0
-161,421,0,0,0,0,0,0,0,0,0,-1,1063,603,0,0
-154,421,0,0,0,0,0,0,0,0,0,-1,1070,603,0,0
-147,421,0,0,0,0,0,0,0,0,0,-1,1077,603,0,0
-140,421,0,0,0,0,0,0,0,0,0,-1,1084,603,0,0
-133,421,0,0,0,0,0,0,0,0,0,-1,1091,603,0,0
-126,421,0,0,0,0,0,0,0,0,0,-1,1098,603,0,0
-119,421,0,0,0,0,0,0,0,0,0,-1,1105,603,0,0
-112,421,0,0,0,0,0,0,0,0,0,-1,1112,603,0,0
-105,421,0,0,0,0,0,0,0,0,0,-1,1119,603,0,0
-98,421,0,0,0,0,0,0,0,0,0,-1,1126,603,0,0
-91,421,0,0,0,0,0,0,0,0,0,-1,1133,603,0,0
-84,421,0,0,0,0,0,0,0,0,0,-1,1140,603,0,0
-77,421,0,0,0,0,0,0,0,0,0,-1,1147,603,0,0
-70,421,0,0,0,0,0,0,0,0,0,-1,1154,603,0,0
-63,421,0,0,0,0,0,0,0,0,0,-1,1161,603,0,0
-56,421,0,0,0,0,0,0,0,0,0,-1,1168,603,0,0
-49,421,0,0,0,0,0,0,0,0,0,-1,1175,603,0,0
-42,421,0,0,0,0,0,0,0,0,0,-1,1182,603,0,0
-35,421,0,0,0,0,0,0,0,0,0,-1,1189,603,0,0
-28,421,0,0,0,0,0,0,0,0,0,-1,1196,603,0,0
-21,421,0,0,0,0,0,0,0,0,0,-1,1203,603,0,0
-14,421,0,0,0,0,0,0,0,0,0,-1,1210,603,0,0
-7,421,0,0,0,0,0,0,0,0,0,-1,1217,603,0,0
0,421,0,0,0,0,0,0,0,0,0,-1,1224,603,0,0
7,421,0,0,0,0,0,0,0,0,0,-1,1231,603,0,0
14,421,0,0,0,0,0,0,0,0,0,-1,1238,603,0,0
21,421,0,0,0,0,0,0,0,0,0,-1,1245,603,0,0
28,421,0,0,0,0,0,0,0,0,0,-1,1252,603,0,0
35,421,0,0,0,0,0,0,0,0,0,-1,1259,603,0,0
42,421,0,0,0,0,0,0,0,0,0,-1,1266,603,0,0
49,421,0,0,0,0,0,0,0,0,0,-1,1273,603,0,0
56,421,0,0,0,0,0,0,0,0,0,-1,1280,603,0,0
63,421,0,0,0,0,0,0,0,0,0,-1,1287,603,0,0
70,421,0,0,0,0,0,0,0,0,0,-1,1294,603,0,0
77,421,0,0,0,0,0,0,0,0,0,-1,1301,603,0,0
84,421,0,0,0,0,0,0,0,0,0,-1,1308,603,0,0
91,421,0,0,0,0,0,0,0,0,0,-1,1315,603,0,0
98,421,0,0,0,0,0,0,0,0,0,-1,1322,603,0,0
105,421,0,0,0,0,0,0,0,0,0,-1,1329,603,0,0
112,421,0,0,0,0,0,0,0,0,0,-1,1336,603,0,0
119,421,0,0,0,0,0,0,0,0,0,-1,1343,603,0,0
126,421,0,0,0,0,0,0,0,0,0,-1,1350,603,0,0
133,421,0,0,0,0,0,0,0,0,0,-1,1357,603,0,0
140,421,0,0,0,0,0,0,0,0,0,-1,1364,603,0,0
147,421,0,0,0,0,0,0,0,0,0,-1,1371,603,0,0
154,421,0,0,0,0,0,0,0,0,0,-1,1378,603,0,0
161,421,0,0,0,0,0,0,0,0,0,-1,1385,603,0,0
168,421,0,0,0,0,0,0,0,0,0,-1,1392,603,0,0
175,421,0,0,0,0,0,0,0,0,0,-1,1399,603,0,0
182,421,0,0,0,0,0,0,0,0,0,-1,1406,603,0,0
189,421,0,0,0,0,0,0,0,0,0,-1,1413,603,0,0
196,421,0,0,0,0,0,0,0,0,0,-1,1420,603,0,0
203,421,0,0,0,0,0,0,0,0,0,-1,1427,603,0,0
210,421,0,0,0,0,0,0,0,0,0,-1,1434,603,0,0
217,421,0,0,0,0,0,0,0,0,0,-1,1441,603,0,0
224,421,0,0,0,0,0,0,0,0,0,-1,1448,603,0,0
231,421,0,0,0,0,0,0,0,0,0,-1,1455,603,0,0
238,421,0,0,0,0,0,0,0,0,0,-1,1462,603,0,0
245,421,0,0,0,0,0,0,0,0,0,-1,1469,603,0,0
252,421,0,0,0,0,0,0,0,0,0,-1,1476,603,0,0
259,421,0,0,0,0,0,0,0,0,0,-1,1483,603,0,0
266,421,0,0,0,0,0,0,0,0,0,-1,1490,603,0,0
273,421,0,0,0,0,0,0,0,0,0,-1,1497,603,0,0
280,421,0,0,0,0,0,0,0,0,0,-1,1504,603,0,0
287,421,0,0,0,0,0,0,0,0,0,-1,1511,603,0,0
294,421,0,0,0,0,0,0,0,0,0,-1,1518,603,0,0
301,421,0,0,0,0,0,0,0,0,0,-1,1525,603,0,0
308,421,0,0,0,0,0,0,0,0,0,-1,1532,603,0,0
315,421,0,0,0,0,0,0,0,0,0,-1,1539,603,0,0
322,421,0,0,0,0,0,0,0,0,0,-1,1546,603,0,0
329,421,0,0,0,0,0,0,0,0,0,-1,1553,603,0,0
336,421,0,0,0,0,0,0,0,0,0,-1,1560,603,0,0
343,421,0,0,0,0,0,0,0,0,0,-1,1567,603,0,0
350,421,0,0,0,0,0,0,0,0,0,-1,1574,603,0,0
357,421,0,0,0,0,0,0,0,0,0,-1,1581,603,0,0
364,421,0,0,0,0,0,0,0,0,0,-1,1588,603,0,0
371,421,0,0,0,0,0,0,0,0,0,-1,1595,603,0,0
378,421,0,0,0,0,0,0,0,0,0,-1,1602,603,0,0
385,421,0,0,0,0,0,0,0,0,0,-1,1609,603,0,0
392,421,0,0,0,0,0,0,0,0,0,-1,1616,603,0,0
399,421,0,0,0,0,0,0,0,0,0,-1,1623,603,0,0
406,421,0,0,0,0,0,0,0,0,0,-1,1630,603,0,0
413,421,0,0,0,0,0,0,0,0,0,-1,1637,603,0,0
420,421,0,0,0,0,0,0,0,0,0,-1,1644,603,0,0
427,421,0,0,0,0,0,0,0,0,0,-1,1651,603,0,0
434,421,3.68176,-0.0327759,0,0,0,0,0,0,0,-1,1658,603,3.6818,0.0328037
441,421,8.06689,0.527832,0,0,0,0,0,0,0,-1,1665,603,8.06693,-0.527851
448,421,6.93921,0.802246,0,0,0,0,0,0,0,-1,1672,603,6.93923,-0.802251
455,421,7.29456,2.14825,0,0,0,0,0,0,0,-1,1679,603,7.29461,-2.14827
462,421,7.86902,3.53174,0,0,0,0,0,0,0,-1,1686,603,7.869,-3.53173
469,421,8.06604,2.81213,0,0,0,0,0,0,0,-1,1693,603,8.06606,-2.81212
476,421,8.26306,2.09253,0,0,0,0,0,0,0,-1,1700,603,8.26312,-2.09251
483,421,8.05322,0.798096,0,0,0,0,0,0,0,-1,1707,603,8.05323,-0.7981
490,421,7.51233,0.213074,0,0,0,0,0,0,0,-1,1714,603,7.51235,-0.213043
497,421,7.49634,-2.86688,0,0,0,0,0,0,0,-1,1721,603,7.4963,2.86688
504,421,6.90491,-2.18671,0,0,0,0,0,0,0,-1,1728,603,6.90491,2.18669
511,421,6.31348,-1.50653,0,0,0,0,0,0,0,-1,1735,603,6.31353,1.5065
518,421,6.27588,-2.49878,0,0,0,0,0,0,0,-1,1742,603,6.2759,2.4988
525,421,14.0544,-9.07745,0,0,0,0,0,0,0,-1,1749,603,14.0545,9.07746
532,421,14.203,-8.43359,0.00211528,0.00276243,0.00126769,0.00374719,0.00113051,0.910355,0.00221944,0.0401755,1756,603,14.2031,8.43359
539,421,14.3378,-7.96954,0.00132965,0.00200373,0.000719688,0.00246139,0.000871994,1.00439,0.00144106,0.020602,1763,603,14.3378,7.96954
546,421,14.3251,-7.54163,0.000818915,0.0015167,0.000416439,0.00171108,0.000624534,1.13408,0.000999827,0.0133002,1770,603,14.3251,7.54166
553,421,14.327,-7.09167,0.000410585,0.00100423,0.000181399,0.00105527,0.000359544,1.29651,0.000619478,0.0124276,1777,603,14.3271,7.09165
560,421,14.3323,-6.63934,3.21757e-05,0.000703155,8.76186e-05,0.000714408,2.09229e-05,1.44307,0.000469453,0.0144827,1784,603,14.3322,6.63936
567,421,14.3054,-6.20868,-0.000238693,0.000574219,0.000173412,0.000609666,-0.00027414,1.36917,0.000522379,0.0166709,1791,603,14.3055,6.20867
574,421,14.2795,-5.74896,-0.000365941,0.00059503,0.000394797,0.000736421,-0.000507333,1.22689,0.00072213,0.0182152,1798,603,14.2796,5.74897
581,421,14.267,-5.25867,-0.000425807,0.000771948,0.000761299,0.00114169,-0.000795552,1.11867,0.0011244,0.0155339,1805,603,14.267,5.25866
588,421,14.2477,-4.85681,-0.000441587,0.0011929,0.00128732,0.00190048,-0.00114917,1.06822,0.00177844,0.0114296,1812,603,14.2476,4.85684
595,421,14.2791,-4.40045,-0.000305671,0.00192319,0.00206488,0.00315518,-0.00153766,1.03285,0.00276254,0.0154314,1819,603,14.2791,4.40048
602,421,14.2054,-3.9726,-0.000186779,0.00300356,0.00300517,0.00481068,-0.0019939,1.02939,0.00403927,0.0162832,1826,603,14.2054,3.97262
609,421,14.0913,-3.42462,0.000145846,0.00433741,0.004256,0.00698566,-0.00250241,1.01418,0.00567812,0.0316296,1833,603,14.0913,3.42459
616,421,14.2035,-2.7804,0,0,0,0,0,0,0,-1,1840,603,14.2035,2.78041
623,421,6.19885,0.376648,0,0,0,0,0,0,0,-1,1847,603,6.19881,-0.376624
630,421,6.54993,0.778748,0,0,0,0,0,0,0,-1,1854,603,6.54991,-0.778744
637,421,3.74512,1.65405,0,0,0,0,0,0,0,-1,1861,603,3.74517,-1.65407
644,421,3.58081,0.354675,0,0,0,0,0,0,0,-1,1868,603,3.58082,-0.354704
651,421,3.28687,3.66351,0,0,0,0,0,0,0,-1,1875,603,3.28688,-3.66353
658,421,0,0,0,0,0,0,0,0,0,-1,1882,603,0,0
665,421,0,0,0,0,0,0,0,0,0,-1,1889,603,0,0
672,421,0,0,0,0,0,0,0,0,0,-1,1896,603,0,0
679,421,0,0,0,0,0,0,0,0,0,-1,1903,603,0,0
686,421,0,0,0,0,0,0,0,0,0,-1,1910,603,0,0
693,421,0,0,0,0,0,0,0,0,0,-1,1917,603,0,0
700,421,0,0,0,0,0,0,0,0,0,-1,1924,603,0,0
707,421,0,0,0,0,0,0,0,0,0,-1,1931,603,0,0
714,421,0,0,0,0,0,0,0,0,0,-1,1938,603,0,0
721,421,0,0,0,0,0,0,0,0,0,-1,1945,603,0,0
728,421,0,0,0,0,0,0,0,0,0,-1,1952,603,0,0
735,421,0,0,0,0,0,0,0,0,0,-1,1959,603,0,0
742,421,0,0,0,0,0,0,0,0,0,-1,1966,603,0,0
749,421,0,0,0,0,0,0,0,0,0,-1,1973,603,0,0
756,421,0,0,0,0,0,0,0,0,0,-1,1980,603,0,0
763,421,0,0,0,0,0,0,0,0,0,-1,1987,603,0,0
770,421,0,0,0,0,0,0,0,0,0,-1,1994,603,0,0
777,421,0,0,0,0,0,0,0,0,0,-1,2001,603,0,0
784,421,0,0,0,0,0,0,0,0,0,-1,2008,603,0,0
791,421,0,0,0,0,0,0,0,0,0,-1,2015,603,0,0
798,421,0,0,0,0,0,0,0,0,0,-1,2022,603,0,0
805,421,0,0,0,0,0,0,0,0,0,-1,2029,603,0,0
812,421,0,0,0,0,0,0,0,0,0,-1,2036,603,0,0
-700,414,0,0,0,0,0,0,0,0,0,-1,524,610,0,0
-693,414,0,0,0,0,0,0,0,0,0,-1,531,610,0,0
-686,414,0,0,0,0,0,0,0,0,0,-1,538,610,0,0
-679,414,0,0,0,0,0,0,0,0,0,-1,545,610,0,0
-672,414,0,0,0,0,0,0,0,0,0,-1,552,610,0,0
-665,414,0,0,0,0,0,0,0,0,0,-1,559,610,0,0
-658,414,0,0,0,0,0,0,0,0,0,-1,566,610,0,0
-651,414,0,0,0,0,0,0,0,0,0,-1,573,610,0,0
-644,414,0,0,0,0,0,0,0,0,0,-1,580,610,0,0
-637,414,0,0,0,0,0,0,0,0,0,-1,587,610,0,0
-630,414,0,0,0,0,0,0,0,0,0,-1,594,610,0,0
-623,414,0,0,0,0,0,0,0,0,0,-1,601,610,0,0
-616,414,0,0,0,0,0,0,0,0,0,-1,608,610,0,0
-609,414,0,0,0,0,0,0,0,0,0,-1,615,610,0,0
-602,414,0,0,0,0,0,0,0,0,0,-1,622,610,0,0
-595,414,0,0,0,0,0,0,0,0,0,-1,629,610,0,0
-588,414,0,0,0,0,0,0,0,0,0,-1,636,610,0,0
-581,414,0,0,0,0,0,0,0,0,0,-1,643,610,0,0
-574,414,0,0,0,0,0,0,0,0,0,-1,650,610,0,0
-567,414,0,0,0,0,0,0,0,0,0,-1,657,610,0,0
-560,414,0,0,0,0,0,0,0,0,0,-1,664,610,0,0
-553,414,0,0,0,0,0,0,0,0,0,-1,671,610,0,0
-546,414,0,0,0,0,0,0,0,0,0,-1,678,610,0,0
-539,414,-7.50146,5.65619,0,0,0,0,0,0,0,-1,685,610,-7.50149,-5.65617
-532,414,-8.15204,4.01605,0,0,0,0,0,0,0,-1,692,610,-8.15206,-4.01606
-525,414,-3.47137,-3.27924,0,0,0,0,0,0,0,-1,699,610,-3.47136,3.27922
-518,414,-4.12909,-4.36908,0,0,0,0,0,0,0,-1,706,610,-4.12909,4.36909
-511,414,-3.92542,-4.97021,0,0,0,0,0,0,0,-1,713,610,-3.92542,4.97023
-504,414,-1.62408,-3.64496,0,0,0,0,0,0,0,-1,720,610,-1.62406,3.64499
-497,414,-6.84607,-4.67499,0,0,0,0,0,0,0,-1,727,610,-6.84609,4.67497
-490,414,-6.66412,-4.49298,0,0,0,0,0,0,0,-1,734,610,-6.66414,4.49299
-483,414,-6.56677,-5.19958,-0.000957533,0.00164015,-0.00117241,0.00209103,-0.00140841,-1.20366,0.00203318,0.0304327,741,610,-6.56679,5.19958
-476,414,-6.64581,-5.68781,-0.000874769,0.00201542,-0.00138604,0.00257267,-0.00143202,-1.18853,0.00234317,0.0189361,748,610,-6.6458,5.68779
-469,414,-6.68591,-6.10187,-0.000667072,0.00212207,-0.00148174,0.00276229,-0.00130729,-1.16295,0.00239911,0.0126799,755,610,-6.68589,6.10184
-462,414,-6.67987,-6.54028,-0.000380959,0.00201356,-0.001454,0.00269979,-0.00106719,-1.12983,0.00224192,0.0211567,762,610,-6.67989,6.54029
-455,414,-6.68298,-6.974,-0.000151226,0.00171769,-0.00129199,0.00237774,-0.000811271,-1.09849,0.00191378,0.0243349,769,610,-6.68296,6.97398
-448,414,-6.70642,-7.39856,-6.02083e-05,0.00115457,-0.000853434,0.00159469,-0.000500326,-1.09467,0.00126337,0.0239353,776,610,-6.70643,7.39854
-441,414,-6.7002,-7.84448,-0.000297965,0.000515058,-0.000261383,0.00059184,-0.000374747,-1.28508,0.000562732,0.0169761,783,610,-6.70019,7.84446
-434,414,-6.71747,-8.27325,-0.000645884,-0.000358636,0.000486939,5.41878e-06,-0.00100994,0.928808,0.000675106,0.0099403,790,610,-6.71745,8.27327
-427,414,-6.73431,-8.69977,-0.00116025,-0.00137633,0.0013822,0.000118126,-0.00265471,0.746395,0.00181047,0.0108342,797,610,-6.73429,8.69974
-420,414,-6.73334,-9.1106,-0.0019203,-0.00248207,0.00242083,0.000235884,-0.00463825,0.727643,0.00317372,0.0103011,804,610,-6.73334,9.1106
-413,414,-6.74194,-9.53601,-0.00296366,-0.00365509,0.00363688,0.000343898,-0.00696265,0.738012,0.00476054,0.0105243,811,610,-6.74192,9.536
-406,414,-6.71722,-10.0439,-0.00436837,-0.00502471,0.00498891,0.000303158,-0.00969623,0.752555,0.00656754,0.021783,818,610,-6.71722,10.0439
-399,414,-6.802,-10.2926,-0.00604546,-0.00656898,0.00645819,0.000156275,-0.0127707,0.765143,0.00856638,0.040061,825,610,-6.80202,10.2926
-392,414,-6.94629,-10.4493,-0.00807817,-0.00789234,0.00808054,9.58145e-05,-0.0160663,0.791147,0.010743,0.0424872,832,610,-6.94631,10.4494
-385,414,-7.41467,-10.8892,0,0,0,0,0,0,0,-1,839,610,-7.41465,10.8892
-378,414,-8.04907,-11.3331,0,0,0,0,0,0,0,-1,846,610,-8.04905,11.3331
-371,414,-5.20886,-8.05151,0,0,0,0,0,0,0,-1,853,610,-5.20887,8.05153
-364,414,-6.76282,-6.58759,0,0,0,0,0,0,0,-1,860,610,-6.7628,6.58756
-357,414,-9.08685,-8.86188,0,0,0,0,0,0,0,-1,867,610,-9.08688,8.86187
-350,414,-6.4502,-2.41821,0,0,0,0,0,0,0,-1,874,610,-6.45021,2.41822
-343,414,-6.80249,-2.32117,0,0,0,0,0,0,0,-1,881,610,-6.80252,2.32116
-336,414,-7.11017,-2.52026,0,0,0,0,0,0,0,-1,888,610,-7.11016,2.52026
-329,414,-7.59747,-2.70313,0,0,0,0,0,0,0,-1,895,610,-7.59747,2.70315
-322,414,-4.42236,-1.29163,0,0,0,0,0,0,0,-1,902,610,-4.42238,1.2916
-315,414,0,0,0,0,0,0,0,0,0,-1,909,610,0,0
-308,414,0,0,0,0,0,0,0,0,0,-1,916,610,0,0
-301,414,0,0,0,0,0,0,0,0,0,-1,923,610,0,0
-294,414,0,0,0,0,0,0,0,0,0,-1,930,610,0,0
-287,414,0,0,0,0,0,0,0,0,0,-1,937,610,0,0
-280,414,0,0,0,0,0,0,0,0,0,-1,944,610,0,0
-273,414,0,0,0,0,0,0,0,0,0,-1,951,610,0,0
-266,414,0,0,0,0,0,0,0,0,0,-1,958,610,0,0
-259,414,0,0,0,0,0,0,0,0,0,-1,965,610,0,0
-252,414,0,0,0,0,0,0,0,0,0,-1,972,610,0,0
-245,414,0,0,0,0,0,0,0,0,0,-1,979,610,0,0
-238,414,0,0,0,0,0,0,0,0,0,-1,986,610,0,0
-231,414,0,0,0,0,0,0,0,0,0,-1,993,610,0,0
-224,414,0,0,0,0,0,0,0,0,0,-1,1000,610,0,0
-217,414,0,0,0,0,0,0,0,0,0,-1,1007,610,0,0
-210,414,0,0,0,0,0,0,0,0,0,-1,1014,610,0,0
-203,414,0,0,0,0,0,0,0,0,0,-1,1021,610,0,0
-196,414,0,0,0,0,0,0,0,0,0,-1,1028,610,0,0
-189,414,0,0,0,0,0,0,0,0,0,-1,1035,610,0,0
-182,414,0,0,0,0,0,0,0,0,0,-1,1042,610,0,0
-175,414,0,0,0,0,0,0,0,0,0,-1,1049,610,0,0
-168,414,0,0,0,0,0,0,0,0,0,-1,1056,610,0,0
-161,414,0,0,0,0,0,0,0,0,0,-1,1063,610,0,0
-154,414,0,0,0,0,0,0,0,0,0,-1,1070,610,0,0
-147,414,0,0,0,0,0,0,0,0,0,-1,1077,610,0,0
-140,414,0,0,0,0,0,0,0,0,0,-1,1084,610,0,0
-133,414,0,0,0,0,0,0,0,0,0,-1,1091,610,0,0
-126,414,0,0,0,0,0,0,0,0,0,-1,1098,610,0,0
-119,414,0,0,0,0,0,0,0,0,0,-1,1105,610,0,0
-112,414,0,0,0,0,0,0,0,0,0,-1,1112,610,0,0
-105,414,0,0,0,0,0,0,0,0,0,-1,1119,610,0,0
-98,414,0,0,0,0,0,0,0,0,0,-1,1126,610,0,0
-91,414,0,0,0,0,0,0,0,0,0,-1,1133,610,0,0
-84,414,0,0,0,0,0,0,0,0,0,-1,1140,610,0,0
-77,414,0,0,0,0,0,0,0,0,0,-1,1147,610,0,0
-70,414,0,0,0,0,0,0,0,0,0,-1,1154,610,0,0
-63,414,0,0,0,0,0,0,0,0,0,-1,1161,610,0,0
-56,414,0,0,0,0,0,0,0,0,0,-1,1168,610,0,0
-49,414,0,0,0,0,0,0,0,0,0,-1,1175,610,0,0
-42,414,0,0,0,0,0,0,0,0,0,-1,1182,610,0,0
-35,414,0,0,0,0,0,0,0,0,0,-1,1189,610,0,0
-28,414,0,0,0,0,0,0,0,0,0,-1,1196,610,0,0
-21,414,0,0,0,0,0,0,0,0,0,-1,1203,610,0,0
-14,414,0,0,0,0,0,0,0,0,0,-1,1210,610,0,0
-7,414,0,0,0,0,0,0,0,0,0,-1,1217,610,0,0
0,414,0,0,0,0,0,0,0,0,0,-1,1224,610,0,0
7,414,0,0,0,0,0,0,0,0,0,-1,1231,610,0,0
14,414,0,0,0,0,0,0,0,0,0,-1,1238,610,0,0
21,414,0,0,0,0,0,0,0,0,0,-1,1245,610,0,0
28,414,0,0,0,0,0,0,0,0,0,-1,1252,610,0,0
35,414,0,0,0,0,0,0,0,0,0,-1,1259,610,0,0
42,414,0,0,0,0,0,0,0,0,0,-1,1266,610,0,0
49,414,0,0,0,0,0,0,0,0,0,-1,1273,610,0,0
56,414,0,0,0,0,0,0,0,0,0,-1,1280,610,0,0
63,414,0,0,0,0,0,0,0,0,0,-1,1287,610,0,0
70,414,0,0,0,0,0,0,0,0,0,-1,1294,610,0,0
77,414,0,0,0,0,0,0,0,0,0,-1,1301,610,0,0
84,414,0,0,0,0,0,0,0,0,0,-1,1308,610,0,0
91,414,0,0,0,0,0,0,0,0,0,-1,1315,610,0,0
98,414,0,0,0,0,0,0,0,0,0,-1,1322,610,0,0
105,414,0,0,0,0,0,0,0,0,0,-1,1329,610,0,0
112,414,0,0,0,0,0,0,0,0,0,-1,1336,610,0,0
119,414,0,0,0,0,0,0,0,0,0,-1,1343,610,0,0
126,414,0,0,0,0,0,0,0,0,0,-1,1350,610,0,0
133,414,0,0,0,0,0,0,0,0,0,-1,1357,610,0,0
140,414,0,0,0,0,0,0,0,0,0,-1,1364,610,0,0
147,414,0,0,0,0,0,0,0,0,0,-1,1371,610,0,0
154,414,0,0,0,0,0,0,0,0,0,-1,1378,610,0,0
161,414,0,0,0,0,0,0,0,0,0,-1,1385,610,0,0
168,414,0,0,0,0,0,0,0,0,0,-1,1392,610,0,0
175,414,0,0,0,0,0,0,0,0,0,-1,1399,610,0,0
182,414,0,0,0,0,0,0,0,0,0,-1,1406,610,0,0
189,414,0,0,0,0,0,0,0,0,0,-1,1413,610,0,0
196,414,0,0,0,0,0,0,0,0,0,-1,1420,610,0,0
203,414,0,0,0,0,0,0,0,0,0,-1,1427,610,0,0
210,414,0,0,0,0,0,0,0,0,0,-1,1434,610,0,0
217,414,0,0,0,0,0,0,0,0,0,-1,1441,610,0,0
224,414,0,0,0,0,0,0,0,0,0,-1,1448,610,0,0
231,414,0,0,0,0,0,0,0,0,0,-1,1455,610,0,0
238,414,0,0,0,0,0,0,0,0,0,-1,1462,610,0,0
245,414,0,0,0,0,0,0,0,0,0,-1,1469,610,0,0
252,414,0,0,0,0,0,0,0,0,0,-1,1476,610,0,0
259,414,0,0,0,0,0,0,0,0,0,-1,1483,610,0,0
266,414,0,0,0,0,0,0,0,0,0,-1,1490,610,0,0
273,414,0,0,0,0,0,0,0,0,0,-1,1497,610,0,0
280,414,0,0,0,0,0,0,0,0,0,-1,1504,610,0,0
287,414,0,0,0,0,0,0,0,0,0,-1,1511,610,0,0
294,414,0,0,0,0,0,0,0,0,0,-1,1518,610,0,0
301,414,0,0,0,0,0,0,0,0,0,-1,1525,610,0,0
308,414,0,0,0,0,0,0,0,0,0,-1,1532,610,0,0
315,414,0,0,0,0,0,0,0,0,0,-1,1539,610,0,0
322,414,0,0,0,0,0,0,0,0,0,-1,1546,610,0,0
329,414,0,0,0,0,0,0,0,0,0,-1,1553,610,0,0
336,414,0,0,0,0,0,0,0,0,0,-1,1560,610,0,0
343,414,0,0,0,0,0,0,0,0,0,-1,1567,610,0,0
350,414,0,0,0,0,0,0,0,0,0,-1,1574,610,0,0
357,414,0,0,0,0,0,0,0,0,0,-1,1581,610,0,0
364,414,0,0,0,0,0,0,0,0,0,-1,1588,610,0,0
371,414,0,0,0,0,0,0,0,0,0,-1,1595,610,0,0
378,414,0,0,0,0,0,0,0,0,0,-1,1602,610,0,0
385,414,0,0,0,0,0,0,0,0,0,-1,1609,610,0,0
392,414,0,0,0,0,0,0,0,0,0,-1,1616,610,0,0
399,414,0,0,0,0,0,0,0,0,0,-1,1623,610,0,0
406,414,0,0,0,0,0,0,0,0,0,-1,1630,610,0,0
413,414,0,0,0,0,0,0,0,0,0,-1,1637,610,0,0
420,414,0,0,0,0,0,0,0,0,0,-1,1644,610,0,0
427,414,0,0,0,0,0,0,0,0,0,-1,1651,610,0,0
434,414,0,0,0,0,0,0,0,0,0,-1,1658,610,0,0
441,414,7.84375,0.584412,0,0,0,0,0,0,0,-1,1665,610,7.84379,-0.584394
448,414,7.40808,1.25446,0,0,0,0,0,0,0,-1,1672,610,7.40807,-1.25446
455,414,6.3512,1.73846,0,0,0,0,0,0,0,-1,1679,610,6.3512,-1.73847
462,414,8.18103,3.22113,0,0,0,0,0,0,0,-1,1686,610,8.18108,-3.22112
469,414,8.38513,2.49579,0,0,0,0,0,0,0,-1,1693,610,8.38516,-2.49576
476,414,8.64099,1.71161,0,0,0,0,0,0,0,-1,1700,610,8.64097,-1.71164
483,414,8.62744,0.687622,0,0,0,0,0,0,0,-1,1707,610,8.62749,-0.687615
490,414,8.38831,-0.0302734,0,0,0,0,0,0,0,-1,1714,610,8.38835,0.0302913
497,414,4.71094,-0.110046,0,0,0,0,0,0,0,-1,1721,610,4.71089,0.110024
504,414,7.19568,-1.43835,0,0,0,0,0,0,0,-1,1728,610,7.19563,1.43836
511,414,5.94153,-1.28772,0,0,0,0,0,0,0,-1,1735,610,5.94151,1.28769
518,414,4.53381,-0.0996704,0,0,0,0,0,0,0,-1,1742,610,4.53378,0.0996819
525,414,6.18811,-1.64056,0,0,0,0,0,0,0,-1,1749,610,6.18814,1.64055
532,414,14.6178,-8.60962,0,0,0,0,0,0,0,-1,1756,610,14.6178,8.6096
539,414,14.7141,-8.06903,0.000557748,0.00240213,0.0004051,0.00248718,0.000472695,1.36384,0.00152517,0.0461228,1763,610,14.7141,8.06904
546,414,14.7477,-7.51819,0.00018721,0.00186053,0.000125035,0.00186983,0.000177919,1.49662,0.00119168,0.0139145,1770,610,14.7477,7.51821
553,414,14.7766,-7.0907,-6.55573e-05,0.00125794,-8.14529e-05,0.00126293,-7.05513e-05,-1.50956,0.000866428,0.0128222,1777,610,14.7766,7.09068
560,414,14.7784,-6.61896,-0.000290155,0.000881419,-0.000170249,0.000905658,-0.000314394,-1.42938,0.00073145,0.015204,1784,610,14.7785,6.61896
567,414,14.7428,-6.14569,-0.000418044,0.000708517,-5.02244e-05,0.000710752,-0.000420279,-1.52633,0.00066014,0.0243468,1791,610,14.7428,6.14567
574,414,14.7069,-5.72906,-0.00039616,0.000705584,0.000215292,0.00074616,-0.000436736,1.38451,0.00069069,0.020531,1798,610,14.7069,5.72908
581,414,14.7299,-5.25671,-0.00030836,0.000860147,0.00061424,0.00112362,-0.000571835,1.16559,0.000996003,0.016006,1805,610,14.7298,5.25674
588,414,14.7072,-4.84186,-0.000211261,0.00123625,0.00112888,0.00185346,-0.000828474,1.07045,0.00158566,0.0160662,1812,610,14.7072,4.84186
595,414,14.7036,-4.3692,6.91736e-05,0.00188655,0.0018738,0.00306037,-0.00110465,1.01116,0.00249147,0.0221035,1819,610,14.7036,4.36919
602,414,14.6976,-3.87964,0.000451877,0.00284579,0.00279016,0.0046849,-0.00138723,0.988022,0.00367403,0.0241632,1826,610,14.6977,3.87967
609,414,14.6854,-3.44574,0,0,0,0,0,0,0,-1,1833,610,14.6855,3.44574
616,414,14.9354,-2.77557,0,0,0,0,0,0,0,-1,1840,610,14.9354,2.7756
623,414,9.6969,0.0378418,0,0,0,0,0,0,0,-1,1847,610,9.69685,-0.0378644
630,414,5.47144,0.499329,0,0,0,0,0,0,0,-1,1854,610,5.47142,-0.499303
637,414,8.36707,4.16278,0,0,0,0,0,0,0,-1,1861,610,8.36709,-4.16278
644,414,5.87073,1.51422,0,0,0,0,0,0,0,-1,1868,610,5.87076,-1.51424
651,414,3.6377,0.820557,0,0,0,0,0,0,0,-1,1875,610,3.6377,-0.820543
658,414,2.29761,3.87323,0,0,0,0,0,0,0,-1,1882,610,2.29758,-3.87325
665,414,0,0,0,0,0,0,0,0,0,-1,1889,610,0,0
672,414,0,0,0,0,0,0,0,0,0,-1,1896,610,0,0
679,414,0,0,0,0,0,0,0,0,0,-1,1903,610,0,0
686,414,0,0,0,0,0,0,0,0,0,-1,1910,610,0,0
693,414,0,0,0,0,0,0,0,0,0,-1,1917,610,0,0
700,414,0,0,0,0,0,0,0,0,0,-1,1924,610,0,0
707,414,0,0,0,0,0,0,0,0,0,-1,1931,610,0,0
714,414,0,0,0,0,0,0,0,0,0,-1,1938,610,0,0
721,414,0,0,0,0,0,0,0,0,0,-1,1945,610,0,0
728,414,0,0,0,0,0,0,0,0,0,-1,1952,610,0,0
735,414,0,0,0,0,0,0,0,0,0,-1,1959,610,0,0
742,414,0,0,0,0,0,0,0,0,0,-1,1966,610,0,0
749,414,0,0,0,0,0,0,0,0,0,-1,1973,610,0,0
756,414,0,0,0,0,0,0,0,0,0,-1,1980,610,0,0
763,414,0,0,0,0,0,0,0,0,0,-1,1987,610,0,0
770,414,0,0,0,0,0,0,0,0,0,-1,1994,610,0,0
777,414,0,0,0,0,0,0,0,0,0,-1,2001,610,0,0
784,414,0,0,0,0,0,0,0,0,0,-1,2008,610,0,0
791,414,0,0,0,0,0,0,0,0,0,-1,2015,610,0,0
798,414,0,0,0,0,0,0,0,0,0,-1,2022,610,0,0
805,414,0,0,0,0,0,0,0,0,0,-1,2029,610,0,0
812,414,0,0,0,0,0,0,0,0,0,-1,2036,610,0,0
-700,407,0,0,0,0,0,0,0,0,0,-1,524,617,0,0
-693,407,0,0,0,0,0,0,0,0,0,-1,531,617,0,0
-686,407,0,0,0,0,0,0,0,0,0,-1,538,617,0,0
-679,407,0,0,0,0,0,0,0,0,0,-1,545,617,0,0
-672,407,0,0,0,0,0,0,0,0,0,-1,552,617,0,0
-665,407,0,0,0,0,0,0,0,0,0,-1,559,617,0,0
-658,407,0,0,0,0,0,0,0,0,0,-1,566,617,0,0
-651,407,0,0,0,0,0,0,0,0,0,-1,573,617,0,0
-644,407,0,0,0,0,0,0,0,0,0,-1,580,617,0,0
-637,407,0,0,0,0,0,0,0,0,0,-1,587,617,0,0
-630,407,0,0,0,0,0,0,0,0,0,-1,594,617,0,0
-623,407,0,0,0,0,0,0,0,0,0,-1,601,617,0,0
-616,407,0,0,0,0,0,0,0,0,0,-1,608,617,0,0
-609,407,0,0,0,0,0,0,0,0,0,-1,615,617,0,0
-602,407,0,0,0,0,0,0,0,0,0,-1,622,617,0,0
-595,407,0,0,0,0,0,0,0,0,0,-1,629,617,0,0
-588,407,0,0,0,0,0,0,0,0,0,-1,636,617,0,0
-581,407,0,0,0,0,0,0,0,0,0,-1,643,617,0,0
-574,407,0,0,0,0,0,0,0,0,0,-1,650,617,0,0
-567,407,0,0,0,0,0,0,0,0,0,-1,657,617,0,0
-560,407,0,0,0,0,0,0,0,0,0,-1,664,617,0,0
-553,407,0,0,0,0,0,0,0,0,0,-1,671,617,0,0
-546,407,-8.54517,-0.658142,0,0,0,0,0,0,0,-1,678,617,-8.54515,0.658112
-539,407,-6.09442,-1.01154,0,0,0,0,0,0,0,-1,685,617,-6.09441,1.01155
-532,407,-7.75665,1.62152,0,0,0,0,0,0,0,-1,692,617,-7.75667,-1.62154
-525,407,-3.78247,-2.67639,0,0,0,0,0,0,0,-1,699,617,-3.78246,2.67638
-518,407,-5.013,-5.87323,0,0,0,0,0,0,0,-1,706,617,-5.013,5.87324
-511,407,-4.26392,-4.37659,0,0,0,0,0,0,0,-1,713,617,-4.26393,4.37658
-504,407,-7.13586,-4.33044,0,0,0,0,0,0,0,-1,720,617,-7.13589,4.33043
-497,407,-7.07605,-4.57538,-0.00100846,4.34229e-05,-2.91601e-05,4.42307e-05,-0.00100927,-1.5431,0.000688064,0.0447961,727,617,-7.07605,4.57537
-490,407,-7.01831,-4.77368,-0.000946196,0.000558245,-0.000379803,0.000648691,-0.00103664,-1.33701,0.000981583,0.0342463,734,617,-7.01831,4.77365
-483,407,-6.98242,-5.19727,-0.000752078,0.000975901,-0.000708708,0.00122938,-0.00100556,-1.22731,0.0012925,0.0220692,741,617,-6.98243,5.19728
-476,407,-7.05383,-5.63538,-0.000513147,0.0012491,-0.000935213,0.00165289,-0.000916937,-1.16321,0.00150383,0.0138199,748,617,-7.05381,5.63537
-469,407,-7.09338,-6.06885,-0.000202454,0.00135159,-0.00107547,0.00190137,-0.000752233,-1.09823,0.00157922,0.0120635,755,617,-7.0934,6.06884
-462,407,-7.06714,-6.50531,0.000126639,0.00128308,-0.00110844,0.00195505,-0.00054533,-1.02581,0.00151815,0.0190624,762,617,-7.06713,6.50528
-455,407,-7.0744,-6.97412,0.000309659,0.0010378,-0.000958923,0.00169944,-0.000351982,-0.966824,0.00126669,0.0213215,769,617,-7.0744,6.97415
-448,407,-7.09515,-7.41327,0.000355616,0.000554986,-0.000561174,0.00102526,-0.000114657,-0.8733,0.000724755,0.0188265,776,617,-7.09514,7.41325
-441,407,-7.12158,-7.81262,9.16934e-06,-8.34159e-05,3.74159e-05,2.23994e-05,-9.6646e-05,0.339875,7.3051e-05,0.014362,783,617,-7.12156,7.81265
-434,407,-7.15295,-8.22375,-0.00046635,-0.000911152,0.000801705,0.000143231,-0.00152073,0.650095,0.00106478,0.0102601,790,617,-7.15295,8.22373
-427,407,-7.16174,-8.66406,-0.00119925,-0.00192833,0.00175668,0.000230315,-0.0033579,0.683093,0.00231919,0.0105769,797,617,-7.16177,8.66407
-420,407,-7.13818,-9.08899,-0.00229689,-0.00313163,0.00295085,0.00026596,-0.00569448,0.715144,0.00388801,0.0100181,804,617,-7.1382,9.08898
-413,407,-7.12787,-9.50171,-0.00375798,-0.00440206,0.00437317,0.00030499,-0.00846503,0.748644,0.00574771,0.0122381,811,617,-7.12785,9.5017
-406,407,-7.20856,-9.8125,-0.00581015,-0.0060875,0.00610051,0.000153261,-0.0120509,0.774034,0.00808551,0.033258,818,617,-7.20858,9.81253
-399,407,-7.1145,-10.1642,0,0,0,0,0,0,0,-1,825,617,-7.11449,10.1642
-392,407,-7.37921,-10.4293,0,0,0,0,0,0,0,-1,832,617,-7.37918,10.4293
-385,407,-7.65765,-10.7744,0,0,0,0,0,0,0,-1,839,617,-7.65767,10.7744
-378,407,-6.08655,-7.42291,0,0,0,0,0,0,0,-1,846,617,-6.08652,7.42292
-371,407,-7.4007,-5.79449,0,0,0,0,0,0,0,-1,853,617,-7.40072,5.79447
-364,407,-10.0638,-6.6228,0,0,0,0,0,0,0,-1,860,617,-10.0639,6.62279
-357,407,-6.64447,-1.83337,0,0,0,0,0,0,0,-1,867,617,-6.64446,1.8334
-350,407,-7.03351,-1.77551,0,0,0,0,0,0,0,-1,874,617,-7.03349,1.77551
-343,407,-7.40967,-1.95026,0,0,0,0,0,0,0,-1,881,617,-7.40969,1.95026
-336,407,-8.10229,-2.40662,0,0,0,0,0,0,0,-1,888,617,-8.10229,2.40664
-329,407,-8.81232,-2.76331,0,0,0,0,0,0,0,-1,895,617,-8.81235,2.76331
-322,407,0,0,0,0,0,0,0,0,0,-1,902,617,0,0
-315,407,0,0,0,0,0,0,0,0,0,-1,909,617,0,0
-308,407,0,0,0,0,0,0,0,0,0,-1,916,617,0,0
-301,407,0,0,0,0,0,0,0,0,0,-1,923,617,0,0
-294,407,0,0,0,0,0,0,0,0,0,-1,930,617,0,0
-287,407,0,0,0,0,0,0,0,0,0,-1,937,617,0,0
-280,407,0,0,0,0,0,0,0,0,0,-1,944,617,0,0
-273,407,0,0,0,0,0,0,0,0,0,-1,951,617,0,0
-266,407,0,0,0,0,0,0,0,0,0,-1,958,617,0,0
-259,407,0,0,0,0,0,0,0,0,0,-1,965,617,0,0
-252,407,0,0,0,0,0,0,0,0,0,-1,972,617,0,0
-245,407,0,0,0,0,0,0,0,0,0,-1,979,617,0,0
-238,407,0,0,0,0,0,0,0,0,0,-1,986,617,0,0
-231,407,0,0,0,0,0,0,0,0,0,-1,993,617,0,0
-224,407,0,0,0,0,0,0,0,0,0,-1,1000,617,0,0
-217,407,0,0,0,0,0,0,0,0,0,-1,1007,617,0,0
-210,407,0,0,0,0,0,0,0,0,0,-1,1014,617,0,0
-203,407,0,0,0,0,0,0,0,0,0,-1,1021,617,0,0
-196,407,0,0,0,0,0,0,0,0,0,-1,1028,617,0,0
-189,407,0,0,0,0,0,0,0,0,0,-1,1035,617,0,0
-182,407,0,0,0,0,0,0,0,0,0,-1,1042,617,0,0
-175,407,0,0,0,0,0,0,0,0,0,-1,1049,617,0,0
-168,407,0,0,0,0,0,0,0,0,0,-1,1056,617,0,0
-161,407,0,0,0,0,0,0,0,0,0,-1,1063,617,0,0
-154,407,0,0,0,0,0,0,0,0,0,-1,1070,617,0,0
-147,407,0,0,0,0,0,0,0,0,0,-1,1077,617,0,0
-140,407,0,0,0,0,0,0,0,0,0,-1,1084,617,0,0
-133,407,0,0,0,0,0,0,0,0,0,-1,1091,617,0,0
-126,407,0,0,0,0,0,0,0,0,0,-1,1098,617,0,0
-119,407,0,0,0,0,0,0,0,0,0,-1,1105,617,0,0
-112,407,0,0,0,0,0,0,0,0,0,-1,1112,617,0,0
-105,407,0,0,0,0,0,0,0,0,0,-1,1119,617,0,0
-98,407,0,0,0,0,0,0,0,0,0,-1,1126,617,0,0
-91,407,0,0,0,0,0,0,0,0,0,-1,1133,617,0,0
-84,407,0,0,0,0,0,0,0,0,0,-1,1140,617,0,0
-77,407,0,0,0,0,0,0,0,0,0,-1,1147,617,0,0
-70,407,0,0,0,0,0,0,0,0,0,-1,1154,617,0,0
-63,407,0,0,0,0,0,0,0,0,0,-1,1161,617,0,0
-56,407,0,0,0,0,0,0,0,0,0,-1,1168,617,0,0
-49,407,0,0,0,0,0,0,0,0,0,-1,1175,617,0,0
-42,407,0,0,0,0,0,0,0,0,0,-1,1182,617,0,0
-35,407,0,0,0,0,0,0,0,0,0,-1,1189,617,0,0
-28,407,0,0,0,0,0,0,0,0,0,-1,1196,617,0,0
-21,407,0,0,0,0,0,0,0,0,0,-1,1203,617,0,0
-14,407,0,0,0,0,0,0,0,0,0,-1,1210,617,0,0
-7,407,0,0,0,0,0,0,0,0,0,-1,1217,617,0,0
0,407,0,0,0,0,0,0,0,0,0,-1,1224,617,0,0
7,407,0,0,0,0,0,0,0,0,0,-1,1231,617,0,0
14,407,0,0,0,0,0,0,0,0,0,-1,1238,617,0,0
21,407,0,0,0,0,0,0,0,0,0,-1,1245,617,0,0
28,407,0,0,0,0,0,0,0,0,0,-1,1252,617,0,0
35,407,0,0,0,0,0,0,0,0,0,-1,1259,617,0,0
42,407,0,0,0,0,0,0,0,0,0,-1,1266,617,0,0
49,407,0,0,0,0,0,0,0,0,0,-1,1273,617,0,0
56,407,0,0,0,0,0,0,0,0,0,-1,1280,617,0,0
63,407,0,0,0,0,0,0,0,0,0,-1,1287,617,0,0
70,407,0,0,0,0,0,0,0,0,0,-1,1294,617,0,0
77,407,0,0,0,0,0,0,0,0,0,-1,1301,617,0,0
84,407,0,0,0,0,0,0,0,0,0,-1,1308,617,0,0
91,407,0,0,0,0,0,0,0,0,0,-1,1315,617,0,0
98,407,0,0,0,0,0,0,0,0,0,-1,1322,617,0,0
105,407,0,0,0,0,0,0,0,0,0,-1,1329,617,0,0
112,407,0,0,0,0,0,0,0,0,0,-1,1336,617,0,0
119,407,0,0,0,0,0,0,0,0,0,-1,1343,617,0,0
126,407,0,0,0,0,0,0,0,0,0,-1,1350,617,0,0
133,407,0,0,0,0,0,0,0,0,0,-1,1357,617,0,0
140,407,0,0,0,0,0,0,0,0,0,-1,1364,617,0,0
147,407,0,0,0,0,0,0,0,0,0,-1,1371,617,0,0
154,407,0,0,0,0,0,0,0,0,0,-1,1378,617,0,0
161,407,0,0,0,0,0,0,0,0,0,-1,1385,617,0,0
168,407,0,0,0,0,0,0,0,0,0,-1,1392,617,0,0
175,407,0,0,0,0,0,0,0,0,0,-1,1399,617,0,0
182,407,0,0,0,0,0,0,0,0,0,-1,1406,617,0,0
189,407,0,0,0,0,0,0,0,0,0,-1,1413,617,0,0
196,407,0,0,0,0,0,0,0,0,0,-1,1420,617,0,0
203,407,0,0,0,0,0,0,0,0,0,-1,1427,617,0,0
210,407,0,0,0,0,0,0,0,0,0,-1,1434,617,0,0
217,407,0,0,0,0,0,0,0,0,0,-1,1441,617,0,0
224,407,0,0,0,0,0,0,0,0,0,-1,1448,617,0,0
231,407,0,0,0,0,0,0,0,0,0,-1,1455,617,0,0
238,407,0,0,0,0,0,0,0,0,0,-1,1462,617,0,0
245,407,0,0,0,0,0,0,0,0,0,-1,1469,617,0,0
252,407,0,0,0,0,0,0,0,0,0,-1,1476,617,0,0
259,407,0,0,0,0,0,0,0,0,0,-1,1483,617,0,0
266,407,0,0,0,0,0,0,0,0,0,-1,1490,617,0,0
273,407,0,0,0,0,0,0,0,0,0,-1,1497,617,0,0
280,407,0,0,0,0,0,0,0,0,0,-1,1504,617,0,0
287,407,0,0,0,0,0,0,0,0,0,-1,1511,617,0,0
294,407,0,0,0,0,0,0,0,0,0,-1,1518,617,0,0
301,407,0,0,0,0,0,0,0,0,0,-1,1525,617,0,0
308,407,0,0,0,0,0,0,0,0,0,-1,1532,617,0,0
315,407,0,0,0,0,0,0,0,0,0,-1,1539,617,0,0
322,407,0,0,0,0,0,0,0,0,0,-1,1546,617,0,0
329,407,0,0,0,0,0,0,0,0,0,-1,1553,617,0,0
336,407,0,0,0,0,0,0,0,0,0,-1,1560,617,0,0
343,407,0,0,0,0,0,0,0,0,0,-1,1567,617,0,0
350,407,0,0,0,0,0,0,0,0,0,-1,1574,617,0,0
357,407,0,0,0,0,0,0,0,0,0,-1,1581,617,0,0
364,407,0,0,0,0,0,0,0,0,0,-1,1588,617,0,0
371,407,0,0,0,0,0,0,0,0,0,-1,1595,617,0,0
378,407,0,0,0,0,0,0,0,0,0,-1,1602,617,0,0
385,407,0,0,0,0,0,0,0,0,0,-1,1609,617,0,0
392,407,0,0,0,0,0,0,0,0,0,-1,1616,617,0,0
399,407,0,0,0,0,0,0,0,0,0,-1,1623,617,0,0
406,407,0,0,0,0,0,0,0,0,0,-1,1630,617,0,0
413,407,0,0,0,0,0,0,0,0,0,-1,1637,617,0,0
420,407,0,0,0,0,0,0,0,0,0,-1,1644,617,0,0
427,407,0,0,0,0,0,0,0,0,0,-1,1651,617,0,0
434,407,0,0,0,0,0,0,0,0,0,-1,1658,617,0,0
441,407,0,0,0,0,0,0,0,0,0,-1,1665,617,0,0
448,407,7.02893,2.13843,0,0,0,0,0,0,0,-1,1672,617,7.02899,-2.13844
455,407,7.55237,2.29242,0,0,0,0,0,0,0,-1,1679,617,7.55236,-2.29244
462,407,8.2926,2.46173,0,0,0,0,0,0,0,-1,1686,617,8.29261,-2.46174
469,407,8.71509,2.22681,0,0,0,0,0,0,0,-1,1693,617,8.71511,-2.22681
476,407,8.89917,1.47766,0,0,0,0,0,0,0,-1,1700,617,8.89914,-1.47768
483,407,9.02612,0.682983,0,0,0,0,0,0,0,-1,1707,617,9.02608,-0.683004
490,407,9.12659,0.000671387,0,0,0,0,0,0,0,-1,1714,617,9.12653,-0.000675931
497,407,7.76819,0.855835,0,0,0,0,0,0,0,-1,1721,617,7.7682,-0.855865
504,407,4.69336,0.160706,0,0,0,0,0,0,0,-1,1728,617,4.69337,-0.1607
511,407,4.07104,-0.00140381,0,0,0,0,0,0,0,-1,1735,617,4.07109,0.00141425
518,407,6.09534,1.9411,0,0,0,0,0,0,0,-1,1742,617,6.09532,-1.94113
525,407,5.72534,-1.35986,0,0,0,0,0,0,0,-1,1749,617,5.72529,1.35988
532,407,15.101,-7.94348,0,0,0,0,0,0,0,-1,1756,617,15.101,7.9435
539,407,15.0397,-8.15869,0,0,0,0,0,0,0,-1,1763,617,15.0397,8.15872
546,407,15.2161,-7.50916,-0.00084058,0.00218525,-0.000365578,0.00222879,-0.000884122,-1.45225,0.00185229,0.0193069,1770,617,15.2161,7.50918
553,407,15.1979,-7.07983,-0.000832523,0.00146417,-0.000511326,0.00157287,-0.000941218,-1.36134,0.0014667,0.0153668,1777,617,15.1978,7.07981
560,407,15.212,-6.59717,-0.000820701,0.000988165,-0.000566412,0.00115089,-0.000983423,-1.29104,0.00123351,0.0172487,1784,617,15.212,6.59714
567,407,15.1952,-6.09674,-0.000757281,0.000760594,-0.000391606,0.000855671,-0.000852359,-1.33262,0.000986132,0.0304386,1791,617,15.1951,6.09672
574,407,15.1882,-5.70251,-0.000565361,0.000737951,-6.41612e-05,0.000741102,-0.000568512,-1.52173,0.000758292,0.0238947,1798,617,15.1882,5.70252
581,407,15.1725,-5.25488,-0.00033122,0.000886234,0.00037751,0.000993791,-0.000438776,1.29324,0.000847531,0.0168104,1805,617,15.1724,5.25489
588,407,15.1478,-4.80457,-0.000128332,0.00123805,0.000892803,0.00167907,-0.00056935,1.11198,0.0013498,0.0123641,1812,617,15.1479,4.80458
595,407,15.1552,-4.37488,0.000252154,0.00182426,0.00160442,0.00282484,-0.000748422,1.01318,0.00217603,0.0238923,1819,617,15.1552,4.37486
602,407,15.1622,-3.86908,0.000709479,0.00267617,0.00247546,0.00435645,-0.000970796,0.97446,0.0032762,0.0200178,1826,617,15.1623,3.86908
609,407,15.1056,-3.38947,0.00111099,0.00370325,0.00342623,0.00607032,-0.00125608,0.966227,0.00452407,0.0166467,1833,617,15.1056,3.38948
616,407,15.1482,-2.8244,0.001324,0.00491806,0.00429137,0.00777347,-0.0015314,0.983683,0.00576103,0.0290228,1840,617,15.1482,2.82443
623,407,15.4248,-2.14203,0,0,0,0,0,0,0,-1,1847,617,15.4247,2.14202
630,407,7.06177,0.814575,0,0,0,0,0,0,0,-1,1854,617,7.06178,-0.814579
637,407,8.31836,0.89624,0,0,0,0,0,0,0,-1,1861,617,8.31833,-0.896219
644,407,5.09766,2.27747,0,0,0,0,0,0,0,-1,1868,617,5.09764,-2.27746
651,407,7.37524,0.0513916,0,0,0,0,0,0,0,-1,1875,617,7.3752,-0.0513923
658,407,3.76685,0.594177,0,0,0,0,0,0,0,-1,1882,617,3.76683,-0.594184
665,407,5.76123,0.375061,0,0,0,0,0,0,0,-1,1889,617,5.76118,-0.37509
672,407,0,0,0,0,0,0,0,0,0,-1,1896,617,0,0
679,407,0,0,0,0,0,0,0,0,0,-1,1903,617,0,0
686,407,0,0,0,0,0,0,0,0,0,-1,1910,617,0,0
693,407,0,0,0,0,0,0,0,0,0,-1,1917,617,0,0
700,407,0,0,0,0,0,0,0,0,0,-1,1924,617,0,0
707,407,0,0,0,0,0,0,0,0,0,-1,1931,617,0,0
714,407,0,0,0,0,0,0,0,0,0,-1,1938,617,0,0
721,407,0,0,0,0,0,0,0,0,0,-1,1945,617,0,0
728,407,0,0,0,0,0,0,0,0,0,-1,1952,617,0,0
735,407,0,0,0,0,0,0,0,0,0,-1,1959,617,0,0
742,407,0,0,0,0,0,0,0,0,0,-1,1966,617,0,0
749,407,0,0,0,0,0,0,0,0,0,-1,1973,617,0,0
756,407,0,0,0,0,0,0,0,0,0,-1,1980,617,0,0
763,407,0,0,0,0,0,0,0,0,0,-1,1987,617,0,0
770,407,0,0,0,0,0,0,0,0,0,-1,1994,617,0,0
777,407,0,0,0,0,0,0,0,0,0,-1,2001,617,0,0
784,407,0,0,0,0,0,0,0,0,0,-1,2008,617,0,0
791,407,0,0,0,0,0,0,0,0,0,-1,2015,617,0,0
798,407,0,0,0,0,0,0,0,0,0,-1,2022,617,0,0
805,407,0,0,0,0,0,0,0,0,0,-1,2029,617,0,0
812,407,0,0,0,0,0,0,0,0,0,-1,2036,617,0,0
-700,400,0,0,0,0,0,0,0,0,0,-1,524,624,0,0
-693,400,0,0,0,0,0,0,0,0,0,-1,531,624,0,0
-686,400,0,0,0,0,0,0,0,0,0,-1,538,624,0,0
-679,400,0,0,0,0,0,0,0,0,0,-1,545,624,0,0
-672,400,0,0,0,0,0,0,0,0,0,-1,552,624,0,0
-665,400,0,0,0,0,0,0,0,0,0,-1,559,624,0,0
-658,400,0,0,0,0,0,0,0,0,0,-1,566,624,0,0
-651,400,0,0,0,0,0,0,0,0,0,-1,573,624,0,0
-644,400,0,0,0,0,0,0,0,0,0,-1,580,624,0,0
-637,400,0,0,0,0,0,0,0,0,0,-1,587,624,0,0
-630,400,0,0,0,0,0,0,0,0,0,-1,594,624,0,0
-623,400,0,0,0,0,0,0,0,0,0,-1,601,624,0,0
-616,400,0,0,0,0,0,0,0,0,0,-1,608,624,0,0
-609,400,0,0,0,0,0,0,0,0,0,-1,615,624,0,0
-602,400,0,0,0,0,0,0,0,0,0,-1,622,624,0,0
-595,400,0,0,0,0,0,0,0,0,0,-1,629,624,0,0
-588,400,0,0,0,0,0,0,0,0,0,-1,636,624,0,0
-581,400,0,0,0,0,0,0,0,0,0,-1,643,624,0,0
-574,400,0,0,0,0,0,0,0,0,0,-1,650,624,0,0
-567,400,0,0,0,0,0,0,0,0,0,-1,657,624,0,0
-560,400,0,0,0,0,0,0,0,0,0,-1,664,624,0,0
-553,400,0,0,0,0,0,0,0,0,0,-1,671,624,0,0
-546,400,-8.41174,-1.4599,0,0,0,0,0,0,0,-1,678,624,-8.41173,1.45989
-539,400,-5.69104,-1.7337,0,0,0,0,0,0,0,-1,685,624,-5.69103,1.7337
-532,400,-3.03632,-2.03912,0,0,0,0,0,0,0,-1,692,624,-3.03632,2.03909
-525,400,-6.20813,-7.04071,0,0,0,0,0,0,0,-1,699,624,-6.20814,7.04071
-518,400,-5.26544,-1.58661,0,0,0,0,0,0,0,-1,706,624,-5.26544,1.58658
-511,400,-5.82935,-5.19202,0,0,0,0,0,0,0,-1,713,624,-5.82936,5.19201
-504,400,-7.73035,-4.19135,0,0,0,0,0,0,0,-1,720,624,-7.73033,4.19134
-497,400,-7.45978,-4.37189,-0.00109367,-9.39637e-05,0.000355875,1.97792e-05,-0.00120741,1.26144,0.000811614,0.037814,727,624,-7.45975,4.37187
-490,400,-7.45538,-4.71277,-0.000822429,0.000166204,2.21896e-05,0.000166702,-0.000822926,1.54837,0.000611803,0.0207146,734,624,-7.4554,4.71277
-483,400,-7.47424,-5.19855,-0.000493183,0.000438065,-0.000315122,0.000534676,-0.000589793,-1.27331,0.000649472,0.0151903,741,624,-7.47425,5.19855
-476,400,-7.4986,-5.63629,-0.000150717,0.000642313,-0.00057972,0.00094815,-0.000456555,-1.08534,0.000827396,0.013459,748,624,-7.4986,5.6363
-469,400,-7.53424,-6.06757,0.000237675,0.000764751,-0.000788002,0.00133212,-0.00032969,-0.946771,0.00101596,0.0146835,755,624,-7.53427,6.06757
-462,400,-7.52216,-6.53833,0.000585231,0.000735916,-0.000889066,0.00155283,-0.000231679,-0.827669,0.00112046,0.0198726,762,624,-7.52213,6.53834
-455,400,-7.50104,-6.96173,0.000723556,0.000550087,-0.000761907,0.00140365,-0.000130006,-0.728723,0.000981975,0.0203759,769,624,-7.50106,6.96174
-448,400,-7.52747,-7.40576,0.000744052,0.00017909,-0.000429309,0.000975479,-5.23369e-05,-0.494412,0.000668448,0.0149893,776,624,-7.52748,7.40575
-441,400,-7.55847,-7.79053,0.000327579,-0.00042973,0.000144878,0.000354349,-0.000456499,0.182714,0.00046938,0.0145876,783,624,-7.55849,7.79053
-434,400,-7.59625,-8.18494,-0.000244099,-0.0011665,0.000895425,0.000301919,-0.00171252,0.547585,0.00125449,0.0120786,790,624,-7.59628,8.18496
-427,400,-7.60022,-8.6073,-0.0011804,-0.00212986,0.0018851,0.000288829,-0.00359909,0.662047,0.00250123,0.0101842,797,624,-7.60025,8.60728
-420,400,-7.54449,-9.0766,-0.00263793,-0.00339641,0.00322482,0.000229874,-0.00626421,0.726866,0.00425484,0.0153346,804,624,-7.54449,9.07661
-413,400,-7.58167,-9.44263,-0.00458892,-0.00473893,0.00486484,0.000201491,-0.00952934,0.77769,0.00642111,0.0343239,811,624,-7.58166,9.44264
-406,400,-7.90991,-9.64667,-0.00743294,-0.00678962,0.00705662,-4.73312e-05,-0.0141752,0.808174,0.00943441,0.0464735,818,624,-7.9099,9.64664
-399,400,-7.93024,-9.96338,0,0,0,0,0,0,0,-1,825,624,-7.93025,9.96337
-392,400,-4.92285,-6.63354,0,0,0,0,0,0,0,-1,832,624,-4.92285,6.63354
-385,400,-3.68738,-5.04205,0,0,0,0,0,0,0,-1,839,624,-3.68736,5.04207
-378,400,-6.84064,-1.28662,0,0,0,0,0,0,0,-1,846,624,-6.84062,1.28662
-371,400,-6.98865,-1.2572,0,0,0,0,0,0,0,-1,853,624,-6.98865,1.25721
-364,400,-6.97247,-1.24133,0,0,0,0,0,0,0,-1,860,624,-6.97249,1.24135
-357,400,-7.18329,-1.23218,0,0,0,0,0,0,0,-1,867,624,-7.18327,1.2322
-350,400,-7.40186,-1.19409,0,0,0,0,0,0,0,-1,874,624,-7.40187,1.19407
-343,400,-8.09357,-1.51147,0,0,0,0,0,0,0,-1,881,624,-8.09355,1.51148
-336,400,0,0,0,0,0,0,0,0,0,-1,888,624,0,0
-329,400,0,0,0,0,0,0,0,0,0,-1,895,624,0,0
-322,400,0,0,0,0,0,0,0,0,0,-1,902,624,0,0
-315,400,0,0,0,0,0,0,0,0,0,-1,909,624,0,0
-308,400,0,0,0,0,0,0,0,0,0,-1,916,624,0,0
-301,400,0,0,0,0,0,0,0,0,0,-1,923,624,0,0
-294,400,0,0,0,0,0,0,0,0,0,-1,930,624,0,0
-287,400,0,0,0,0,0,0,0,0,0,-1,937,624,0,0
-280,400,0,0,0,0,0,0,0,0,0,-1,944,624,0,0
-273,400,0,0,0,0,0,0,0,0,0,-1,951,624,0,0
-266,400,0,0,0,0,0,0,0,0,0,-1,958,624,0,0
-259,400,0,0,0,0,0,0,0,0,0,-1,965,624,0,0
-252,400,0,0,0,0,0,0,0,0,0,-1,972,624,0,0
-245,400,0,0,0,0,0,0,0,0,0,-1,979,624,0,0
-238,400,0,0,0,0,0,0,0,0,0,-1,986,624,0,0
-231,400,0,0,0,0,0,0,0,0,0,-1,993,624,0,0
-224,400,0,0,0,0,0,0,0,0,0,-1,1000,624,0,0
-217,400,0,0,0,0,0,0,0,0,0,-1,1007,624,0,0
-210,400,0,0,0,0,0,0,0,0,0,-1,1014,624,0,0
-203,400,0,0,0,0,0,0,0,0,0,-1,1021,624,0,0
-196,400,0,0,0,0,0,0,0,0,0,-1,1028,624,0,0
-189,400,0,0,0,0,0,0,0,0,0,-1,1035,624,0,0
-182,400,0,0,0,0,0,0,0,0,0,-1,1042,624,0,0
-175,400,0,0,0,0,0,0,0,0,0,-1,1049,624,0,0
-168,400,0,0,0,0,0,0,0,0,0,-1,1056,624,0,0
-161,400,0,0,0,0,0,0,0,0,0,-1,1063,624,0,0
-154,400,0,0,0,0,0,0,0,0,0,-1,1070,624,0,0
-147,400,0,0,0,0,0,0,0,0,0,-1,1077,624,0,0
-140,400,0,0,0,0,0,0,0,0,0,-1,1084,624,0,0
-133,400,0,0,0,0,0,0,0,0,0,-1,1091,624,0,0
-126,400,0,0,0,0,0,0,0,0,0,-1,1098,624,0,0
-119,400,0,0,0,0,0,0,0,0,0,-1,1105,624,0,0
-112,400,0,0,0,0,0,0,0,0,0,-1,1112,624,0,0
-105,400,0,0,0,0,0,0,0,0,0,-1,1119,624,0,0
-98,400,0,0,0,0,0,0,0,0,0,-1,1126,624,0,0
-91,400,0,0,0,0,0,0,0,0,0,-1,1133,624,0,0
-84,400,0,0,0,0,0,0,0,0,0,-1,1140,624,0,0
-77,400,0,0,0,0,0,0,0,0,0,-1,1147,624,0,0
-70,400,0,0,0,0,0,0,0,0,0,-1,1154,624,0,0
-63,400,0,0,0,0,0,0,0,0,0,-1,1161,624,0,0
-56,400,0,0,0,0,0,0,0,0,0,-1,1168,624,0,0
-49,400,0,0,0,0,0,0,0,0,0,-1,1175,624,0,0
-42,400,0,0,0,0,0,0,0,0,0,-1,1182,624,0,0
-35,400,0,0,0,0,0,0,0,0,0,-1,1189,624,0,0
-28,400,0,0,0,0,0,0,0,0,0,-1,1196,624,0,0
-21,400,0,0,0,0,0,0,0,0,0,-1,1203,624,0,0
-14,400,0,0,0,0,0,0,0,0,0,-1,1210,624,0,0
-7,400,0,0,0,0,0,0,0,0,0,-1,1217,624,0,0
0,400,0,0,0,0,0,0,0,0,0,-1,1224,624,0,0
7,400,0,0,0,0,0,0,0,0,0,-1,1231,624,0,0
14,400,0,0,0,0,0,0,0,0,0,-1,1238,624,0,0
21,400,0,0,0,0,0,0,0,0,0,-1,1245,624,0,0
28,400,0,0,0,0,0,0,0,0,0,-1,1252,624,0,0
35,400,0,0,0,0,0,0,0,0,0,-1,1259,624,0,0
42,400,0,0,0,0,0,0,0,0,0,-1,1266,624,0,0
49,400,0,0,0,0,0,0,0,0,0,-1,1273,624,0,0
56,400,0,0,0,0,0,0,0,0,0,-1,1280,624,0,0
63,400,0,0,0,0,0,0,0,0,0,-1,1287,624,0,0
70,400,0,0,0,0,0,0,0,0,0,-1,1294,624,0,0
77,400,0,0,0,0,0,0,0,0,0,-1,1301,624,0,0
84,400,0,0,0,0,0,0,0,0,0,-1,1308,624,0,0
91,400,0,0,0,0,0,0,0,0,0,-1,1315,624,0,0
98,400,0,0,0,0,0,0,0,0,0,-1,1322,624,0,0
105,400,0,0,0,0,0,0,0,0,0,-1,1329,624,0,0
112,400,0,0,0,0,0,0,0,0,0,-1,1336,624,0,0
119,400,0,0,0,0,0,0,0,0,0,-1,1343,624,0,0
126,400,0,0,0,0,0,0,0,0,0,-1,1350,624,0,0
133,400,0,0,0,0,0,0,0,0,0,-1,1357,624,0,0
140,400,0,0,0,0,0,0,0,0,0,-1,1364,624,0,0
147,400,0,0,0,0,0,0,0,0,0,-1,1371,624,0,0
154,400,0,0,0,0,0,0,0,0,0,-1,1378,624,0,0
161,400,0,0,0,0,0,0,0,0,0,-1,1385,624,0,0
168,400,0,0,0,0,0,0,0,0,0,-1,1392,624,0,0
175,400,0,0,0,0,0,0,0,0,0,-1,1399,624,0,0
182,400,0,0,0,0,0,0,0,0,0,-1,1406,624,0,0
189,400,0,0,0,0,0,0,0,0,0,-1,1413,624,0,0
196,400,0,0,0,0,0,0,0,0,0,-1,1420,624,0,0
203,400,0,0,0,0,0,0,0,0,0,-1,1427,624,0,0
210,400,0,0,0,0,0,0,0,0,0,-1,1434,624,0,0
217,400,0,0,0,0,0,0,0,0,0,-1,1441,624,0,0
224,400,0,0,0,0,0,0,0,0,0,-1,1448,624,0,0
231,400,0,0,0,0,0,0,0,0,0,-1,1455,624,0,0
238,400,0,0,0,0,0,0,0,0,0,-1,1462,624,0,0
245,400,0,0,0,0,0,0,0,0,0,-1,1469,624,0,0
252,400,0,0,0,0,0,0,0,0,0,-1,1476,624,0,0
259,400,0,0,0,0,0,0,0,0,0,-1,1483,624,0,0
266,400,0,0,0,0,0,0,0,0,0,-1,1490,624,0,0
273,400,0,0,0,0,0,0,0,0,0,-1,1497,624,0,0
280,400,0,0,0,0,0,0,0,0,0,-1,1504,624,0,0
287,400,0,0,0,0,0,0,0,0,0,-1,1511,624,0,0
294,400,0,0,0,0,0,0,0,0,0,-1,1518,624,0,0
301,400,0,0,0,0,0,0,0,0,0,-1,1525,624,0,0
308,400,0,0,0,0,0,0,0,0,0,-1,1532,624,0,0
315,400,0,0,0,0,0,0,0,0,0,-1,1539,624,0,0
322,400,0,0,0,0,0,0,0,0,0,-1,1546,624,0,0
329,400,0,0,0,0,0,0,0,0,0,-1,1553,624,0,0
336,400,0,0,0,0,0,0,0,0,0,-1,1560,624,0,0
343,400,0,0,0,0,0,0,0,0,0,-1,1567,624,0,0
350,400,0,0,0,0,0,0,0,0,0,-1,1574,624,0,0
357,400,0,0,0,0,0,0,0,0,0,-1,1581,624,0,0
364,400,0,0,0,0,0,0,0,0,0,-1,1588,624,0,0
371,400,0,0,0,0,0,0,0,0,0,-1,1595,624,0,0
378,400,0,0,0,0,0,0,0,0,0,-1,1602,624,0,0
385,400,0,0,0,0,0,0,0,0,0,-1,1609,624,0,0
392,400,0,0,0,0,0,0,0,0,0,-1,1616,624,0,0
399,400,0,0,0,0,0,0,0,0,0,-1,1623,624,0,0
406,400,0,0,0,0,0,0,0,0,0,-1,1630,624,0,0
413,400,0,0,0,0,0,0,0,0,0,-1,1637,624,0,0
420,400,0,0,0,0,0,0,0,0,0,-1,1644,624,0,0
427,400,0,0,0,0,0,0,0,0,0,-1,1651,624,0,0
434,400,0,0,0,0,0,0,0,0,0,-1,1658,624,0,0
441,400,0,0,0,0,0,0,0,0,0,-1,1665,624,0,0
448,400,0,0,0,0,0,0,0,0,0,-1,1672,624,0,0
455,400,8.91309,2.75885,0,0,0,0,0,0,0,-1,1679,624,8.91312,-2.75885
462,400,8.90356,2.37878,0,0,0,0,0,0,0,-1,1686,624,8.90353,-2.37878
469,400,9.14429,1.76849,0,0,0,0,0,0,0,-1,1693,624,9.14432,-1.76847
476,400,9.23254,1.25995,0,0,0,0,0,0,0,-1,1700,624,9.23252,-1.25994
483,400,9.59766,0.562439,0,0,0,0,0,0,0,-1,1707,624,9.59771,-0.56242
490,400,9.92578,-0.213745,0,0,0,0,0,0,0,-1,1714,624,9.92579,0.21376
497,400,9.19141,0.175232,0,0,0,0,0,0,0,-1,1721,624,9.19138,-0.175209
504,400,9.23438,0.00823975,0,0,0,0,0,0,0,-1,1728,624,9.23436,-0.00823766
511,400,6.16687,3.3501,0,0,0,0,0,0,0,-1,1735,624,6.16682,-3.35007
518,400,6.55237,1.74994,0,0,0,0,0,0,0,-1,1742,624,6.55236,-1.74993
525,400,6.99731,1.08783,0,0,0,0,0,0,0,-1,1749,624,6.99736,-1.08785
532,400,6.96582,-1.74982,0,0,0,0,0,0,0,-1,1756,624,6.96585,1.74983
539,400,15.7998,-8.01947,0,0,0,0,0,0,0,-1,1763,624,15.7999,8.01945
546,400,15.7522,-7.57434,-0.00240054,0.00239523,-0.00130657,0.00272809,-0.00273341,-1.32134,0.0031532,0.0493169,1770,624,15.7522,7.57433
553,400,15.6041,-7.06842,-0.0020023,0.00160028,-0.00125938,0.00199687,-0.00239889,-1.26572,0.00254143,0.0271179,1777,624,15.6041,7.06843
560,400,15.6276,-6.57172,-0.00165258,0.00106137,-0.00118018,0.00150278,-0.002094,-1.21288,0.00208593,0.0151762,1784,624,15.6276,6.57172
567,400,15.6587,-6.13483,-0.00133053,0.000807446,-0.000886048,0.00112692,-0.00165,-1.22475,0.00161271,0.0183217,1791,624,15.6586,6.13481
574,400,15.6544,-5.72528,-0.000921816,0.000789598,-0.000445962,0.000898835,-0.00103105,-1.33058,0.00111509,0.0195064,1798,624,15.6544,5.72529
581,400,15.6167,-5.24622,-0.000507476,0.000947918,7.47935e-05,0.000951752,-0.000511309,1.51959,0.000857362,0.0183121,1805,624,15.6167,5.24623
588,400,15.5934,-4.76141,-0.000167837,0.00127894,0.000624254,0.00151105,-0.000399952,1.21481,0.00116382,0.014828,1812,624,15.5934,4.76141
595,400,15.6031,-4.32355,0.000318923,0.00179874,0.00132685,0.00257804,-0.000460377,1.03974,0.00189092,0.0142015,1819,624,15.6032,4.32357
602,400,15.6018,-3.88031,0.000867772,0.00253285,0.00216939,0.00402397,-0.000623348,0.968615,0.00291275,0.0139789,1826,624,15.6018,3.88034
609,400,15.5339,-3.41174,0.00120366,0.00339638,0.00297129,0.00546713,-0.000867093,0.962141,0.00396551,0.0142759,1833,624,15.534,3.41173
616,400,15.5085,-2.92291,0.0012129,0.00430599,0.00359922,0.00667687,-0.00115798,0.988316,0.00488322,0.017854,1840,624,15.5086,2.92294
623,400,15.5586,-2.41675,0,0,0,0,0,0,0,-1,1847,624,15.5586,2.41675
630,400,11.9432,0.09021,0,0,0,0,0,0,0,-1,1854,624,11.9432,-0.0902007
637,400,6.92896,1.01917,0,0,0,0,0,0,0,-1,1861,624,6.92899,-1.01918
644,400,8.65381,1.4599,0,0,0,0,0,0,0,-1,1868,624,8.65379,-1.45991
651,400,7.90601,0.424072,0,0,0,0,0,0,0,-1,1875,624,7.90598,-0.424097
658,400,8.69031,1.0484,0,0,0,0,0,0,0,-1,1882,624,8.6903,-1.0484
665,400,5.98438,0.522522,0,0,0,0,0,0,0,-1,1889,624,5.98442,-0.522552
672,400,0,0,0,0,0,0,0,0,0,-1,1896,624,0,0
679,400,0,0,0,0,0,0,0,0,0,-1,1903,624,0,0
686,400,0,0,0,0,0,0,0,0,0,-1,1910,624,0,0
693,400,0,0,0,0,0,0,0,0,0,-1,1917,624,0,0
700,400,0,0,0,0,0,0,0,0,0,-1,1924,624,0,0
707,400,0,0,0,0,0,0,0,0,0,-1,1931,624,0,0
714,400,0,0,0,0,0,0,0,0,0,-1,1938,624,0,0
721,400,0,0,0,0,0,0,0,0,0,-1,1945,624,0,0
728,400,0,0,0,0,0,0,0,0,0,-1,1952,624,0,0
735,400,0,0,0,0,0,0,0,0,0,-1,1959,624,0,0
742,400,0,0,0,0,0,0,0,0,0,-1,1966,624,0,0
749,400,0,0,0,0,0,0,0,0,0,-1,1973,624,0,0
756,400,0,0,0,0,0,0,0,0,0,-1,1980,624,0,0
763,400,0,0,0,0,0,0,0,0,0,-1,1987,624,0,0
770,400,0,0,0,0,0,0,0,0,0,-1,1994,624,0,0
777,400,0,0,0,0,0,0,0,0,0,-1,2001,624,0,0
784,400,0,0,0,0,0,0,0,0,0,-1,2008,624,0,0
791,400,0,0,0,0,0,0,0,0,0,-1,2015,624,0,0
798,400,0,0,0,0,0,0,0,0,0,-1,2022,624,0,0
805,400,0,0,0,0,0,0,0,0,0,-1,2029,624,0,0
812,400,0,0,0,0,0,0,0,0,0,-1,2036,624,0,0
-700,393,0,0,0,0,0,0,0,0,0,-1,524,631,0,0
-693,393,0,0,0,0,0,0,0,0,0,-1,531,631,0,0
-686,393,0,0,0,0,0,0,0,0,0,-1,538,631,0,0
-679,393,0,0,0,0,0,0,0,0,0,-1,545,631,0,0
-672,393,0,0,0,0,0,0,0,0,0,-1,552,631,0,0
-665,393,0,0,0,0,0,0,0,0,0,-1,559,631,0,0
-658,393,0,0,0,0,0,0,0,0,0,-1,566,631,0,0
-651,393,0,0,0,0,0,0,0,0,0,-1,573,631,0,0
-644,393,0,0,0,0,0,0,0,0,0,-1,580,631,0,0
-637,393,0,0,0,0,0,0,0,0,0,-1,587,631,0,0
-630,393,0,0,0,0,0,0,0,0,0,-1,594,631,0,0
-623,393,0,0,0,0,0,0,0,0,0,-1,601,631,0,0
-616,393,0,0,0,0,0,0,0,0,0,-1,608,631,0,0
-609,393,0,0,0,0,0,0,0,0,0,-1,615,631,0,0
-602,393,0,0,0,0,0,0,0,0,0,-1,622,631,0,0
-595,393,0,0,0,0,0,0,0,0,0,-1,629,631,0,0
-588,393,0,0,0,0,0,0,0,0,0,-1,636,631,0,0
-581,393,0,0,0,0,0,0,0,0,0,-1,643,631,0,0
-574,393,0,0,0,0,0,0,0,0,0,-1,650,631,0,0
-567,393,0,0,0,0,0,0,0,0,0,-1,657,631,0,0
-560,393,0,0,0,0,0,0,0,0,0,-1,664,631,0,0
-553,393,-2.35107,3.92633,0,0,0,0,0,0,0,-1,671,631,-2.35108,-3.92634
-546,393,-1.78778,2.4856,0,0,0,0,0,0,0,-1,678,631,-1.78778,-2.48557
-539,393,-5.2113,-2.20245,0,0,0,0,0,0,0,-1,685,631,-5.21128,2.20247
-532,393,-2.83643,-2.01624,0,0,0,0,0,0,0,-1,692,631,-2.83642,2.01626
-525,393,-5.9505,-0.952698,0,0,0,0,0,0,0,-1,699,631,-5.95053,0.95268
-518,393,-5.80219,-1.57739,0,0,0,0,0,0,0,-1,706,631,-5.80219,1.57738
-511,393,-6.15527,-2.09906,0,0,0,0,0,0,0,-1,713,631,-6.15526,2.09903
-504,393,-8.15759,-3.45569,0,0,0,0,0,0,0,-1,720,631,-8.1576,3.45569
-497,393,-7.93213,-4.10986,-0.000774982,0.00020278,-5.30633e-05,0.000205651,-0.000777853,-1.51674,0.000599004,0.0291266,727,631,-7.93211,4.10986
-490,393,-7.90973,-4.74854,-0.000587965,0.000129415,6.08833e-06,0.000129467,-0.000588017,1.56231,0.00044154,0.016041,734,631,-7.90974,4.74854
-483,393,-7.91681,-5.19543,-0.000241004,0.000259768,-0.000192787,0.000325389,-0.000306624,-1.24272,0.000364946,0.0192778,741,631,-7.91678,5.19543
-476,393,-7.91998,-5.62476,0.000189332,0.000438389,-0.00050066,0.000829774,-0.000202054,-0.907289,0.000631404,0.0159978,748,631,-7.91995,5.62476
-469,393,-7.94513,-6.07465,0.000645491,0.000591244,-0.000771439,0.00139028,-0.000153549,-0.767826,0.000982048,0.0124832,755,631,-7.9451,6.07465
-462,393,-7.96021,-6.52997,0.0010332,0.000613529,-0.000943502,0.00178992,-0.000143189,-0.675978,0.00124376,0.0157537,762,631,-7.96022,6.52998
-455,393,-7.96661,-6.95782,0.0011647,0.000482602,-0.000849504,0.00173906,-9.1756e-05,-0.594512,0.00119114,0.0151505,769,631,-7.9666,6.95781
-448,393,-7.97095,-7.38354,0.00120221,0.00022169,-0.000592517,0.001481,-5.70953e-05,-0.439779,0.0010069,0.0138305,776,631,-7.97094,7.38357
-441,393,-7.98767,-7.78479,0.000785318,-0.000374645,-5.02084e-05,0.000787487,-0.000376814,-0.0431768,0.000686006,0.0129492,783,631,-7.98768,7.78478
-434,393,-8.01263,-8.16498,0.000183815,-0.00103822,0.00069165,0.000495685,-0.00135009,0.423608,0.00110306,0.0124048,790,631,-8.01264,8.16496
-427,393,-7.97064,-8.62347,-0.000899784,-0.00195841,0.00173157,0.000381569,-0.00323976,0.637067,0.00229762,0.0208857,797,631,-7.97066,8.6235
-420,393,-7.97998,-9.04437,-0.00268534,-0.00330915,0.00325382,0.000271494,-0.00626598,0.737616,0.0042707,0.0475563,804,631,-7.97999,9.04439
-413,393,-8.23584,-9.5014,0,0,0,0,0,0,0,-1,811,631,-8.23587,9.50142
-406,393,-8.62714,-9.70624,0,0,0,0,0,0,0,-1,818,631,-8.62714,9.70625
-399,393,-5.07343,-5.92365,0,0,0,0,0,0,0,-1,825,631,-5.07344,5.92364
-392,393,-2.08063,-3.02386,0,0,0,0,0,0,0,-1,832,631,-2.08063,3.02384
-385,393,-3.16931,-0.624756,0,0,0,0,0,0,0,-1,839,631,-3.16928,0.624764
-378,393,-7.33081,-0.872314,0,0,0,0,0,0,0,-1,846,631,-7.33081,0.872325
-371,393,-7.47858,-0.811096,0,0,0,0,0,0,0,-1,853,631,-7.47859,0.811075
-364,393,-7.64917,-0.662415,0,0,0,0,0,0,0,-1,860,631,-7.64917,0.662406
-357,393,-8.09686,-0.726013,0,0,0,0,0,0,0,-1,867,631,-8.09689,0.726029
-350,393,-8.38788,-0.511841,0,0,0,0,0,0,0,-1,874,631,-8.38785,0.511811
-343,393,0,0,0,0,0,0,0,0,0,-1,881,631,0,0
-336,393,0,0,0,0,0,0,0,0,0,-1,888,631,0,0
-329,393,0,0,0,0,0,0,0,0,0,-1,895,631,0,0
-322,393,0,0,0,0,0,0,0,0,0,-1,902,631,0,0
-315,393,0,0,0,0,0,0,0,0,0,-1,909,631,0,0
-308,393,0,0,0,0,0,0,0,0,0,-1,916,631,0,0
-301,393,0,0,0,0,0,0,0,0,0,-1,923,631,0,0
-294,393,0,0,0,0,0,0,0,0,0,-1,930,631,0,0
-287,393,0,0,0,0,0,0,0,0,0,-1,937,631,0,0
-280,393,0,0,0,0,0,0,0,0,0,-1,944,631,0,0
-273,393,0,0,0,0,0,0,0,0,0,-1,951,631,0,0
-266,393,0,0,0,0,0,0,0,0,0,-1,958,631,0,0
-259,393,0,0,0,0,0,0,0,0,0,-1,965,631,0,0
-252,393,0,0,0,0,0,0,0,0,0,-1,972,631,0,0
-245,393,0,0,0,0,0,0,0,0,0,-1,979,631,0,0
-238,393,0,0,0,0,0,0,0,0,0,-1,986,631,0,0
-231,393,0,0,0,0,0,0,0,0,0,-1,993,631,0,0
-224,393,0,0,0,0,0,0,0,0,0,-1,1000,631,0,0
-217,393,0,0,0,0,0,0,0,0,0,-1,1007,631,0,0
-210,393,0,0,0,0,0,0,0,0,0,-1,1014,631,0,0
-203,393,0,0,0,0,0,0,0,0,0,-1,1021,631,0,0
-196,393,0,0,0,0,0,0,0,0,0,-1,1028,631,0,0
-189,393,0,0,0,0,0,0,0,0,0,-1,1035,631,0,0
-182,393,0,0,0,0,0,0,0,0,0,-1,1042,631,0,0
-175,393,0,0,0,0,0,0,0,0,0,-1,1049,631,0,0
-168,393,0,0,0,0,0,0,0,0,0,-1,1056,631,0,0
-161,393,0,0,0,0,0,0,0,0,0,-1,1063,631,0,0
-154,393,0,0,0,0,0,0,0,0,0,-1,1070,631,0,0
-147,393,0,0,0,0,0,0,0,0,0,-1,1077,631,0,0
-140,393,0,0,0,0,0,0,0,0,0,-1,1084,631,0,0
-133,393,0,0,0,0,0,0,0,0,0,-1,1091,631,0,0
-126,393,0,0,0,0,0,0,0,0,0,-1,1098,631,0,0
-119,393,0,0,0,0,0,0,0,0,0,-1,1105,631,0,0
-112,393,0,0,0,0,0,0,0,0,0,-1,1112,631,0,0
-105,393,0,0,0,0,0,0,0,0,0,-1,1119,631,0,0
-98,393,0,0,0,0,0,0,0,0,0,-1,1126,631,0,0
-91,393,0,0,0,0,0,0,0,0,0,-1,1133,631,0,0
-84,393,0,0,0,0,0,0,0,0,0,-1,1140,631,0,0
-77,393,0,0,0,0,0,0,0,0,0,-1,1147,631,0,0
-70,393,0,0,0,0,0,0,0,0,0,-1,1154,631,0,0
-63,393,0,0,0,0,0,0,0,0,0,-1,1161,631,0,0
-56,393,0,0,0,0,0,0,0,0,0,-1,1168,631,0,0
-49,393,0,0,0,0,0,0,0,0,0,-1,1175,631,0,0
-42,393,0,0,0,0,0,0,0,0,0,-1,1182,631,0,0
-35,393,0,0,0,0,0,0,0,0,0,-1,1189,631,0,0
-28,393,0,0,0,0,0,0,0,0,0,-1,1196,631,0,0
-21,393,0,0,0,0,0,0,0,0,0,-1,1203,631,0,0
-14,393,0,0,0,0,0,0,0,0,0,-1,1210,631,0,0
-7,393,0,0,0,0,0,0,0,0,0,-1,1217,631,0,0
0,393,0,0,0,0,0,0,0,0,0,-1,1224,631,0,0
7,393,0,0,0,0,0,0,0,0,0,-1,1231,631,0,0
14,393,0,0,0,0,0,0,0,0,0,-1,1238,631,0,0
21,393,0,0,0,0,0,0,0,0,0,-1,1245,631,0,0
28,393,0,0,0,0,0,0,0,0,0,-1,1252,631,0,0
35,393,0,0,0,0,0,0,0,0,0,-1,1259,631,0,0
42,393,0,0,0,0,0,0,0,0,0,-1,1266,631,0,0
49,393,0,0,0,0,0,0,0,0,0,-1,1273,631,0,0
56,393,0,0,0,0,0,0,0,0,0,-1,1280,631,0,0
63,393,0,0,0,0,0,0,0,0,0,-1,1287,631,0,0
70,393,0,0,0,0,0,0,0,0,0,-1,1294,631,0,0
77,393,0,0,0,0,0,0,0,0,0,-1,1301,631,0,0
84,393,0,0,0,0,0,0,0,0,0,-1,1308,631,0,0
91,393,0,0,0,0,0,0,0,0,0,-1,1315,631,0,0
98,393,0,0,0,0,0,0,0,0,0,-1,1322,631,0,0
105,393,0,0,0,0,0,0,0,0,0,-1,1329,631,0,0
112,393,0,0,0,0,0,0,0,0,0,-1,1336,631,0,0
119,393,0,0,0,0,0,0,0,0,0,-1,1343,631,0,0
126,393,0,0,0,0,0,0,0,0,0,-1,1350,631,0,0
133,393,0,0,0,0,0,0,0,0,0,-1,1357,631,0,0
140,393,0,0,0,0,0,0,0,0,0,-1,1364,631,0,0
147,393,0,0,0,0,0,0,0,0,0,-1,1371,631,0,0
154,393,0,0,0,0,0,0,0,0,0,-1,1378,631,0,0
161,393,0,0,0,0,0,0,0,0,0,-1,1385,631,0,0
168,393,0,0,0,0,0,0,0,0,0,-1,1392,631,0,0
175,393,0,0,0,0,0,0,0,0,0,-1,1399,631,0,0
182,393,0,0,0,0,0,0,0,0,0,-1,1406,631,0,0
189,393,0,0,0,0,0,0,0,0,0,-1,1413,631,0,0
196,393,0,0,0,0,0,0,0,0,0,-1,1420,631,0,0
203,393,0,0,0,0,0,0,0,0,0,-1,1427,631,0,0
210,393,0,0,0,0,0,0,0,0,0,-1,1434,631,0,0
217,393,0,0,0,0,0,0,0,0,0,-1,1441,631,0,0
224,393,0,0,0,0,0,0,0,0,0,-1,1448,631,0,0
231,393,0,0,0,0,0,0,0,0,0,-1,1455,631,0,0
238,393,0,0,0,0,0,0,0,0,0,-1,1462,631,0,0
245,393,0,0,0,0,0,0,0,0,0,-1,1469,631,0,0
252,393,0,0,0,0,0,0,0,0,0,-1,1476,631,0,0
259,393,0,0,0,0,0,0,0,0,0,-1,1483,631,0,0
266,393,0,0,0,0,0,0,0,0,0,-1,1490,631,0,0
273,393,0,0,0,0,0,0,0,0,0,-1,1497,631,0,0
280,393,0,0,0,0,0,0,0,0,0,-1,1504,631,0,0
287,393,0,0,0,0,0,0,0,0,0,-1,1511,631,0,0
294,393,0,0,0,0,0,0,0,0,0,-1,1518,631,0,0
301,393,0,0,0,0,0,0,0,0,0,-1,1525,631,0,0
308,393,0,0,0,0,0,0,0,0,0,-1,1532,631,0,0
315,393,0,0,0,0,0,0,0,0,0,-1,1539,631,0,0
322,393,0,0,0,0,0,0,0,0,0,-1,1546,631,0,0
329,393,0,0,0,0,0,0,0,0,0,-1,1553,631,0,0
336,393,0,0,0,0,0,0,0,0,0,-1,1560,631,0,0
343,393,0,0,0,0,0,0,0,0,0,-1,1567,631,0,0
350,393,0,0,0,0,0,0,0,0,0,-1,1574,631,0,0
357,393,0,0,0,0,0,0,0,0,0,-1,1581,631,0,0
364,393,0,0,0,0,0,0,0,0,0,-1,1588,631,0,0
371,393,0,0,0,0,0,0,0,0,0,-1,1595,631,0,0
378,393,0,0,0,0,0,0,0,0,0,-1,1602,631,0,0
385,393,0,0,0,0,0,0,0,0,0,-1,1609,631,0,0
392,393,0,0,0,0,0,0,0,0,0,-1,1616,631,0,0
399,393,0,0,0,0,0,0,0,0,0,-1,1623,631,0,0
406,393,0,0,0,0,0,0,0,0,0,-1,1630,631,0,0
413,393,0,0,0,0,0,0,0,0,0,-1,1637,631,0,0
420,393,0,0,0,0,0,0,0,0,0,-1,1644,631,0,0
427,393,0,0,0,0,0,0,0,0,0,-1,1651,631,0,0
434,393,0,0,0,0,0,0,0,0,0,-1,1658,631,0,0
441,393,0,0,0,0,0,0,0,0,0,-1,1665,631,0,0
448,393,0,0,0,0,0,0,0,0,0,-1,1672,631,0,0
455,393,0,0,0,0,0,0,0,0,0,-1,1679,631,0,0
462,393,8.51099,1.89502,0,0,0,0,0,0,0,-1,1686,631,8.51103,-1.89504
469,393,9.39465,1.51703,0,0,0,0,0,0,0,-1,1693,631,9.39465,-1.51703
476,393,9.95569,1.185,0,0,0,0,0,0,0,-1,1700,631,9.95575,-1.18497
483,393,10.5267,0.887329,0,0,0,0,0,0,0,-1,1707,631,10.5267,-0.887321
490,393,10.9303,0.761414,0,0,0,0,0,0,0,-1,1714,631,10.9303,-0.761386
497,393,8.32153,1.88104,0,0,0,0,0,0,0,-1,1721,631,8.32148,-1.88103
504,393,9.46985,1.78711,0,0,0,0,0,0,0,-1,1728,631,9.46986,-1.78713
511,393,9.66565,-0.375977,0,0,0,0,0,0,0,-1,1735,631,9.66571,0.375949
518,393,7.01599,1.62482,0,0,0,0,0,0,0,-1,1742,631,7.01597,-1.62483
525,393,7.88245,-1.13422,0,0,0,0,0,0,0,-1,1749,631,7.88246,1.13423
532,393,7.06335,-1.18103,0,0,0,0,0,0,0,-1,1756,631,7.06332,1.18101
539,393,9.91626,-2.46301,0,0,0,0,0,0,0,-1,1763,631,9.91625,2.46302
546,393,16.1771,-7.62988,0,0,0,0,0,0,0,-1,1770,631,16.1771,7.62987
553,393,15.9314,-7.15833,0,0,0,0,0,0,0,-1,1777,631,15.9314,7.1583
560,393,16.0962,-6.59631,-0.00280396,0.00108691,-0.00194669,0.00189363,-0.00361067,-1.17794,0.00322904,0.0227784,1784,631,16.0961,6.59629
567,393,16.0927,-6.13116,-0.002173,0.000803804,-0.00152335,0.00144517,-0.00281437,-1.1723,0.00250124,0.0144013,1791,631,16.0926,6.13118
574,393,16.1115,-5.71191,-0.00152542,0.000776369,-0.000972983,0.00113254,-0.00188159,-1.21988,0.00175803,0.0160908,1798,631,16.1115,5.71188
581,393,16.0591,-5.22644,-0.000916026,0.000929579,-0.000377666,0.00100387,-0.000990317,-1.37656,0.00115135,0.0147931,1805,631,16.0591,5.22645
588,393,16.0353,-4.74481,-0.000416018,0.00122299,0.000210463,0.00124959,-0.000442611,1.4451,0.00101334,0.016302,1812,631,16.0353,4.74479
595,393,16.0602,-4.31067,0.000196086,0.00167275,0.000910682,0.0021068,-0.000237962,1.12603,0.0014902,0.0143537,1819,631,16.0602,4.31069
602,393,16.0331,-3.88104,0.000857731,0.00230429,0.00173531,0.00346102,-0.000299,0.98285,0.00241319,0.0156769,1826,631,16.0331,3.88102
609,393,15.9935,-3.4024,0.00122068,0.00305391,0.00245568,0.00475847,-0.000483881,0.964022,0.00334529,0.0153406,1833,631,15.9935,3.40242
616,393,15.9767,-2.92615,0.00127741,0.00379753,0.00299944,0.00579084,-0.000715896,0.984255,0.00411998,0.0153312,1840,631,15.9767,2.92613
623,393,15.9996,-2.36737,0.00147484,0.00473506,0.00371299,0.00716002,-0.000950114,0.992245,0.00511952,0.0294389,1847,631,15.9997,2.3674
630,393,16.072,-1.7301,0,0,0,0,0,0,0,-1,1854,631,16.072,1.73008
637,393,11.4626,0.608887,0,0,0,0,0,0,0,-1,1861,631,11.4627,-0.608904
644,393,8.97583,1.30585,0,0,0,0,0,0,0,-1,1868,631,8.97586,-1.30584
651,393,11.348,0.53302,0,0,0,0,0,0,0,-1,1875,631,11.348,-0.53305
658,393,9.21338,1.50836,0,0,0,0,0,0,0,-1,1882,631,9.21338,-1.50834
665,393,6.1001,2.32129,0,0,0,0,0,0,0,-1,1889,631,6.10012,-2.3213
672,393,7.14575,2.43225,0,0,0,0,0,0,0,-1,1896,631,7.14572,-2.43222
679,393,0,0,0,0,0,0,0,0,0,-1,1903,631,0,0
686,393,0,0,0,0,0,0,0,0,0,-1,1910,631,0,0
693,393,0,0,0,0,0,0,0,0,0,-1,1917,631,0,0
700,393,0,0,0,0,0,0,0,0,0,-1,1924,631,0,0
707,393,0,0,0,0,0,0,0,0,0,-1,1931,631,0,0
714,393,0,0,0,0,0,0,0,0,0,-1,1938,631,0,0
721,393,0,0,0,0,0,0,0,0,0,-1,1945,631,0,0
728,393,0,0,0,0,0,0,0,0,0,-1,1952,631,0,0
735,393,0,0,0,0,0,0,0,0,0,-1,1959,631,0,0
742,393,0,0,0,0,0,0,0,0,0,-1,1966,631,0,0
749,393,0,0,0,0,0,0,0,0,0,-1,1973,631,0,0
756,393,0,0,0,0,0,0,0,0,0,-1,1980,631,0,0
763,393,0,0,0,0,0,0,0,0,0,-1,1987,631,0,0
770,393,0,0,0,0,0,0,0,0,0,-1,1994,631,0,0
777,393,0,0,0,0,0,0,0,0,0,-1,2001,631,0,0
784,393,0,0,0,0,0,0,0,0,0,-1,2008,631,0,0
791,393,0,0,0,0,0,0,0,0,0,-1,2015,631,0,0
798,393,0,0,0,0,0,0,0,0,0,-1,2022,631,0,0
805,393,0,0,0,0,0,0,0,0,0,-1,2029,631,0,0
812,393,0,0,0,0,0,0,0,0,0,-1,2036,631,0,0
-700,386,0,0,0,0,0,0,0,0,0,-1,524,638,0,0
-693,386,0,0,0,0,0,0,0,0,0,-1,531,638,0,0
-686,386,0,0,0,0,0,0,0,0,0,-1,538,638,0,0
-679,386,0,0,0,0,0,0,0,0,0,-1,545,638,0,0
-672,386,0,0,0,0,0,0,0,0,0,-1,552,638,0,0
-665,386,0,0,0,0,0,0,0,0,0,-1,559,638,0,0
-658,386,0,0,0,0,0,0,0,0,0,-1,566,638,0,0
-651,386,0,0,0,0,0,0,0,0,0,-1,573,638,0,0
-644,386,0,0,0,0,0,0,0,0,0,-1,580,638,0,0
-637,386,0,0,0,0,0,0,0,0,0,-1,587,638,0,0
-630,386,0,0,0,0,0,0,0,0,0,-1,594,638,0,0
-623,386,0,0,0,0,0,0,0,0,0,-1,601,638,0,0
-616,386,0,0,0,0,0,0,0,0,0,-1,608,638,0,0
-609,386,0,0,0,0,0,0,0,0,0,-1,615,638,0,0
-602,386,0,0,0,0,0,0,0,0,0,-1,622,638,0,0
-595,386,0,0,0,0,0,0,0,0,0,-1,629,638,0,0
-588,386,0,0,0,0,0,0,0,0,0,-1,636,638,0,0
-581,386,0,0,0,0,0,0,0,0,0,-1,643,638,0,0
-574,386,0,0,0,0,0,0,0,0,0,-1,650,638,0,0
-567,386,0,0,0,0,0,0,0,0,0,-1,657,638,0,0
-560,386,-3.97229,-5.13898,0,0,0,0,0,0,0,-1,664,638,-3.97232,5.13897
-553,386,-4.94244,-5.54309,0,0,0,0,0,0,0,-1,671,638,-4.94242,5.5431
-546,386,-1.78668,1.72827,0,0,0,0,0,0,0,-1,678,638,-1.78668,-1.72829
-539,386,-0.879456,-2.90009,0,0,0,0,0,0,0,-1,685,638,-0.879442,2.90008
-532,386,-4.83362,1.61053,0,0,0,0,0,0,0,-1,692,638,-4.83361,-1.61051
-525,386,-6.64148,-1.50604,0,0,0,0,0,0,0,-1,699,638,-6.64149,1.50603
-518,386,-6.47589,-1.71948,0,0,0,0,0,0,0,-1,706,638,-6.47591,1.71947
-511,386,-8.45563,-2.83679,0,0,0,0,0,0,0,-1,713,638,-8.4556,2.83677
-504,386,-8.35333,-3.70966,-0.000620513,0.00100205,-0.000787607,0.00132148,-0.00093994,-1.1855,0.00131181,0.0332002,720,638,-8.35331,3.70968
-497,386,-8.37836,-4.29279,-0.000486421,0.000607176,-0.000369049,0.000720063,-0.000599308,-1.27395,0.000762802,0.0152822,727,638,-8.37835,4.29277
-490,386,-8.3642,-4.78918,-0.00032025,0.000261786,-5.65944e-05,0.000267238,-0.000325702,-1.47476,0.000342888,0.0129425,734,638,-8.3642,4.78919
-483,386,-8.34058,-5.24689,8.82284e-05,0.000298692,-0.000179138,0.000401219,-1.42994e-05,-1.05096,0.000272371,0.0164599,741,638,-8.34056,5.2469
-476,386,-8.33661,-5.64929,0.000617828,0.000477145,-0.000534784,0.00108688,8.09634e-06,-0.720007,0.000721901,0.0153044,748,638,-8.33663,5.64927
-469,386,-8.37262,-6.06189,0.00114584,0.000663146,-0.000875554,0.0018127,-3.7151e-06,-0.650912,0.00120971,0.0115364,755,638,-8.37259,6.0619
-462,386,-8.3877,-6.51398,0.00157985,0.000746692,-0.00113213,0.00236961,-4.30695e-05,-0.609106,0.00159429,0.0109732,762,638,-8.38767,6.51397
-455,386,-8.40759,-6.94135,0.0017164,0.000674156,-0.0010958,0.00240868,-1.81257e-05,-0.563444,0.00161187,0.0126356,769,638,-8.40757,6.94134
-448,386,-8.40234,-7.35754,0.00177925,0.000534995,-0.000956002,0.00229773,1.65168e-05,-0.496943,0.00152634,0.0125983,776,638,-8.40232,7.35754
-441,386,-8.42224,-7.75525,0.00139609,-5.35828e-05,-0.000503737,0.00155394,-0.000211435,-0.30367,0.00111315,0.0129362,783,638,-8.42222,7.75523
-434,386,-8.37024,-8.22784,0.000792953,-0.000663514,0.000181611,0.000815257,-0.000685818,0.1222,0.000867719,0.0321449,790,638,-8.37023,8.22786
-427,386,-8.24487,-8.80762,0,0,0,0,0,0,0,-1,797,638,-8.24488,8.80764
-420,386,-8.35437,-9.10876,0,0,0,0,0,0,0,-1,804,638,-8.35439,9.10879
-413,386,-5.45691,-5.35785,0,0,0,0,0,0,0,-1,811,638,-5.45691,5.35783
-406,386,-4.51135,-4.10999,0,0,0,0,0,0,0,-1,818,638,-4.51135,4.10996
-399,386,-3.57117,-3.42126,0,0,0,0,0,0,0,-1,825,638,-3.57116,3.42129
-392,386,-4.00977,0.403625,0,0,0,0,0,0,0,-1,832,638,-4.0098,-0.403616
-385,386,-3.2406,-0.118469,0,0,0,0,0,0,0,-1,839,638,-3.24058,0.118485
-378,386,-2.55243,-1.22748,0,0,0,0,0,0,0,-1,846,638,-2.55243,1.22748
-371,386,-7.95807,-0.330261,0,0,0,0,0,0,0,-1,853,638,-7.95806,0.330284
-364,386,-8.90637,-0.665955,0,0,0,0,0,0,0,-1,860,638,-8.90635,0.665951
-357,386,-9.10364,-0.388733,0,0,0,0,0,0,0,-1,867,638,-9.10364,0.388744
-350,386,0,0,0,0,0,0,0,0,0,-1,874,638,0,0
-343,386,0,0,0,0,0,0,0,0,0,-1,881,638,0,0
-336,386,0,0,0,0,0,0,0,0,0,-1,888,638,0,0
-329,386,0,0,0,0,0,0,0,0,0,-1,895,638,0,0
-322,386,0,0,0,0,0,0,0,0,0,-1,902,638,0,0
-315,386,0,0,0,0,0,0,0,0,0,-1,909,638,0,0
-308,386,0,0,0,0,0,0,0,0,0,-1,916,638,0,0
-301,386,0,0,0,0,0,0,0,0,0,-1,923,638,0,0
-294,386,0,0,0,0,0,0,0,0,0,-1,930,638,0,0
-287,386,0,0,0,0,0,0,0,0,0,-1,937,638,0,0
-280,386,0,0,0,0,0,0,0,0,0,-1,944,638,0,0
-273,386,0,0,0,0,0,0,0,0,0,-1,951,638,0,0
-266,386,0,0,0,0,0,0,0,0,0,-1,958,638,0,0
-259,386,0,0,0,0,0,0,0,0,0,-1,965,638,0,0
-252,386,0,0,0,0,0,0,0,0,0,-1,972,638,0,0
-245,386,0,0,0,0,0,0,0,0,0,-1,979,638,0,0
-238,386,0,0,0,0,0,0,0,0,0,-1,986,638,0,0
-231,386,0,0,0,0,0,0,0,0,0,-1,993,638,0,0
-224,386,0,0,0,0,0,0,0,0,0,-1,1000,638,0,0
-217,386,0,0,0,0,0,0,0,0,0,-1,1007,638,0,0
-210,386,0,0,0,0,0,0,0,0,0,-1,1014,638,0,0
-203,386,0,0,0,0,0,0,0,0,0,-1,1021,638,0,0
-196,386,0,0,0,0,0,0,0,0,0,-1,1028,638,0,0
-189,386,0,0,0,0,0,0,0,0,0,-1,1035,638,0,0
-182,386,0,0,0,0,0,0,0,0,0,-1,1042,638,0,0
-175,386,0,0,0,0,0,0,0,0,0,-1,1049,638,0,0
-168,386,0,0,0,0,0,0,0,0,0,-1,1056,638,0,0
-161,386,0,0,0,0,0,0,0,0,0,-1,1063,638,0,0
-154,386,0,0,0,0,0,0,0,0,0,-1,1070,638,0,0
-147,386,0,0,0,0,0,0,0,0,0,-1,1077,638,0,0
-140,386,0,0,0,0,0,0,0,0,0,-1,1084,638,0,0
-133,386,0,0,0,0,0,0,0,0,0,-1,1091,638,0,0
-126,386,0,0,0,0,0,0,0,0,0,-1,1098,638,0,0
-119,386,0,0,0,0,0,0,0,0,0,-1,1105,638,0,0
-112,386,0,0,0,0,0,0,0,0,0,-1,1112,638,0,0
-105,386,0,0,0,0,0,0,0,0,0,-1,1119,638,0,0
-98,386,0,0,0,0,0,0,0,0,0,-1,1126,638,0,0
-91,386,0,0,0,0,0,0,0,0,0,-1,1133,638,0,0
-84,386,0,0,0,0,0,0,0,0,0,-1,1140,638,0,0
-77,386,0,0,0,0,0,0,0,0,0,-1,1147,638,0,0
-70,386,0,0,0,0,0,0,0,0,0,-1,1154,638,0,0
-63,386,0,0,0,0,0,0,0,0,0,-1,1161,638,0,0
-56,386,0,0,0,0,0,0,0,0,0,-1,1168,638,0,0
-49,386,0,0,0,0,0,0,0,0,0,-1,1175,638,0,0
-42,386,0,0,0,0,0,0,0,0,0,-1,1182,638,0,0
-35,386,0,0,0,0,0,0,0,0,0,-1,1189,638,0,0
-28,386,0,0,0,0,0,0,0,0,0,-1,1196,638,0,0
-21,386,0,0,0,0,0,0,0,0,0,-1,1203,638,0,0
-14,386,0,0,0,0,0,0,0,0,0,-1,1210,638,0,0
-7,386,0,0,0,0,0,0,0,0,0,-1,1217,638,0,0
0,386,0,0,0,0,0,0,0,0,0,-1,1224,638,0,0
7,386,0,0,0,0,0,0,0,0,0,-1,1231,638,0,0
14,386,0,0,0,0,0,0,0,0,0,-1,1238,638,0,0
21,386,0,0,0,0,0,0,0,0,0,-1,1245,638,0,0
28,386,0,0,0,0,0,0,0,0,0,-1,1252,638,0,0
35,386,0,0,0,0,0,0,0,0,0,-1,1259,638,0,0
42,386,0,0,0,0,0,0,0,0,0,-1,1266,638,0,0
49,386,0,0,0,0,0,0,0,0,0,-1,1273,638,0,0
56,386,0,0,0,0,0,0,0,0,0,-1,1280,638,0,0
63,386,0,0,0,0,0,0,0,0,0,-1,1287,638,0,0
70,386,0,0,0,0,0,0,0,0,0,-1,1294,638,0,0
77,386,0,0,0,0,0,0,0,0,0,-1,1301,638,0,0
84,386,0,0,0,0,0,0,0,0,0,-1,1308,638,0,0
91,386,0,0,0,0,0,0,0,0,0,-1,1315,638,0,0
98,386,0,0,0,0,0,0,0,0,0,-1,1322,638,0,0
105,386,0,0,0,0,0,0,0,0,0,-1,1329,638,0,0
112,386,0,0,0,0,0,0,0,0,0,-1,1336,638,0,0
119,386,0,0,0,0,0,0,0,0,0,-1,1343,638,0,0
126,386,0,0,0,0,0,0,0,0,0,-1,1350,638,0,0
133,386,0,0,0,0,0,0,0,0,0,-1,1357,638,0,0
140,386,0,0,0,0,0,0,0,0,0,-1,1364,638,0,0
147,386,0,0,0,0,0,0,0,0,0,-1,1371,638,0,0
154,386,0,0,0,0,0,0,0,0,0,-1,1378,638,0,0
161,386,0,0,0,0,0,0,0,0,0,-1,1385,638,0,0
168,386,0,0,0,0,0,0,0,0,0,-1,1392,638,0,0
175,386,0,0,0,0,0,0,0,0,0,-1,1399,638,0,0
182,386,0,0,0,0,0,0,0,0,0,-1,1406,638,0,0
189,386,0,0,0,0,0,0,0,0,0,-1,1413,638,0,0
196,386,0,0,0,0,0,0,0,0,0,-1,1420,638,0,0
203,386,0,0,0,0,0,0,0,0,0,-1,1427,638,0,0
210,386,0,0,0,0,0,0,0,0,0,-1,1434,638,0,0
217,386,0,0,0,0,0,0,0,0,0,-1,1441,638,0,0
224,386,0,0,0,0,0,0,0,0,0,-1,1448,638,0,0
231,386,0,0,0,0,0,0,0,0,0,-1,1455,638,0,0
238,386,0,0,0,0,0,0,0,0,0,-1,1462,638,0,0
245,386,0,0,0,0,0,0,0,0,0,-1,1469,638,0,0
252,386,0,0,0,0,0,0,0,0,0,-1,1476,638,0,0
259,386,0,0,0,0,0,0,0,0,0,-1,1483,638,0,0
266,386,0,0,0,0,0,0,0,0,0,-1,1490,638,0,0
273,386,0,0,0,0,0,0,0,0,0,-1,1497,638,0,0
280,386,0,0,0,0,0,0,0,0,0,-1,1504,638,0,0
287,386,0,0,0,0,0,0,0,0,0,-1,1511,638,0,0
294,386,0,0,0,0,0,0,0,0,0,-1,1518,638,0,0
301,386,0,0,0,0,0,0,0,0,0,-1,1525,638,0,0
308,386,0,0,0,0,0,0,0,0,0,-1,1532,638,0,0
315,386,0,0,0,0,0,0,0,0,0,-1,1539,638,0,0
322,386,0,0,0,0,0,0,0,0,0,-1,1546,638,0,0
329,386,0,0,0,0,0,0,0,0,0,-1,1553,638,0,0
336,386,0,0,0,0,0,0,0,0,0,-1,1560,638,0,0
343,386,0,0,0,0,0,0,0,0,0,-1,1567,638,0,0
350,386,0,0,0,0,0,0,0,0,0,-1,1574,638,0,0
357,386,0,0,0,0,0,0,0,0,0,-1,1581,638,0,0
364,386,0,0,0,0,0,0,0,0,0,-1,1588,638,0,0
371,386,0,0,0,0,0,0,0,0,0,-1,1595,638,0,0
378,386,0,0,0,0,0,0,0,0,0,-1,1602,638,0,0
385,386,0,0,0,0,0,0,0,0,0,-1,1609,638,0,0
392,386,0,0,0,0,0,0,0,0,0,-1,1616,638,0,0
399,386,0,0,0,0,0,0,0,0,0,-1,1623,638,0,0
406,386,0,0,0,0,0,0,0,0,0,-1,1630,638,0,0
413,386,0,0,0,0,0,0,0,0,0,-1,1637,638,0,0
420,386,0,0,0,0,0,0,0,0,0,-1,1644,638,0,0
427,386,0,0,0,0,0,0,0,0,0,-1,1651,638,0,0
434,386,0,0,0,0,0,0,0,0,0,-1,1658,638,0,0
441,386,0,0,0,0,0,0,0,0,0,-1,1665,638,0,0
448,386,0,0,0,0,0,0,0,0,0,-1,1672,638,0,0
455,386,0,0,0,0,0,0,0,0,0,-1,1679,638,0,0
462,386,0,0,0,0,0,0,0,0,0,-1,1686,638,0,0
469,386,9.84692,1.55804,0,0,0,0,0,0,0,-1,1693,638,9.84691,-1.55807
476,386,10.6145,0.986511,0,0,0,0,0,0,0,-1,1700,638,10.6145,-0.986529
483,386,11.4113,0.732971,0,0,0,0,0,0,0,-1,1707,638,11.4112,-0.732958
490,386,7.79785,1.79572,0,0,0,0,0,0,0,-1,1714,638,7.79788,-1.7957
497,386,8.96362,1.77081,0,0,0,0,0,0,0,-1,1721,638,8.96357,-1.77081
504,386,10.0555,1.69427,0,0,0,0,0,0,0,-1,1728,638,10.0555,-1.69426
511,386,11.2172,1.534,0,0,0,0,0,0,0,-1,1735,638,11.2172,-1.53398
518,386,7.41553,1.75238,0,0,0,0,0,0,0,-1,1742,638,7.41547,-1.75238
525,386,8.82422,-1.1449,0,0,0,0,0,0,0,-1,1749,638,8.82426,1.14492
532,386,10.6432,0.617371,0,0,0,0,0,0,0,-1,1756,638,10.6432,-0.617359
539,386,9.62061,-0.393616,0,0,0,0,0,0,0,-1,1763,638,9.62059,0.393634
546,386,10.7963,-2.854,0,0,0,0,0,0,0,-1,1770,638,10.7962,2.854
553,386,16.7256,-6.86139,0,0,0,0,0,0,0,-1,1777,638,16.7256,6.86136
560,386,16.6023,-6.40881,-0.00415488,0.00118593,-0.00277335,0.00236553,-0.00533448,-1.16864,0.00455443,0.0488848,1784,638,16.6023,6.40882
567,386,16.5062,-6.09558,-0.00309081,0.000870818,-0.00215601,0.0018178,-0.00403779,-1.15694,0.00346077,0.0207586,1791,638,16.5062,6.09559
574,386,16.5488,-5.65082,-0.00215154,0.000815784,-0.00146887,0.0014199,-0.00275566,-1.1806,0.00245154,0.0145178,1798,638,16.5489,5.65085
581,386,16.5094,-5.22681,-0.00133358,0.000939677,-0.000793202,0.00118908,-0.00158299,-1.26615,0.00160583,0.0132448,1805,638,16.5094,5.2268
588,386,16.5087,-4.7782,-0.000675866,0.00116253,-0.000169616,0.00117804,-0.000691385,-1.47956,0.00109144,0.0124906,1812,638,16.5087,4.7782
595,386,16.495,-4.31976,2.79238e-05,0.00151828,0.000511166,0.00167675,-0.000130547,1.27017,0.00116379,0.0139253,1819,638,16.495,4.31976
602,386,16.4637,-3.87793,0.000750737,0.00203371,0.00129199,0.0028347,-5.0252e-05,1.01582,0.00190677,0.0150313,1826,638,16.4638,3.8779
609,386,16.4606,-3.41803,0.00111637,0.00266687,0.0019219,0.00396399,-0.00018075,0.977105,0.00270493,0.014806,1833,638,16.4606,3.41802
616,386,16.4624,-2.92908,0.00122011,0.00328366,0.0023971,0.0048616,-0.000357836,0.988627,0.00336669,0.0121842,1840,638,16.4624,2.92908
623,386,16.4419,-2.45642,0.00133127,0.00402727,0.002939,0.00591266,-0.000554122,1.00041,0.00413887,0.0105133,1847,638,16.4419,2.45641
630,386,16.5376,-1.98608,0.00138184,0.00480604,0.00346789,0.00696144,-0.00077356,1.0147,0.00491913,0.031685,1854,638,16.5376,1.98611
637,386,16.6051,-1.4809,0,0,0,0,0,0,0,-1,1861,638,16.6051,1.48088
644,386,11.6521,0.723328,0,0,0,0,0,0,0,-1,1868,638,11.6521,-0.723355
651,386,9.3866,1.31097,0,0,0,0,0,0,0,-1,1875,638,9.3866,-1.31095
658,386,12.0731,-0.00415039,0,0,0,0,0,0,0,-1,1882,638,12.0731,0.00412803
665,386,6.33167,1.78601,0,0,0,0,0,0,0,-1,1889,638,6.33171,-1.78601
672,386,7.23352,2.14435,0,0,0,0,0,0,0,-1,1896,638,7.23353,-2.14433
679,386,8.07764,2.57104,0,0,0,0,0,0,0,-1,1903,638,8.07758,-2.57103
686,386,0,0,0,0,0,0,0,0,0,-1,1910,638,0,0
693,386,0,0,0,0,0,0,0,0,0,-1,1917,638,0,0
700,386,0,0,0,0,0,0,0,0,0,-1,1924,638,0,0
707,386,0,0,0,0,0,0,0,0,0,-1,1931,638,0,0
714,386,0,0,0,0,0,0,0,0,0,-1,1938,638,0,0
721,386,0,0,0,0,0,0,0,0,0,-1,1945,638,0,0
728,386,0,0,0,0,0,0,0,0,0,-1,1952,638,0,0
735,386,0,0,0,0,0,0,0,0,0,-1,1959,638,0,0
742,386,0,0,0,0,0,0,0,0,0,-1,1966,638,0,0
749,386,0,0,0,0,0,0,0,0,0,-1,1973,638,0,0
756,386,0,0,0,0,0,0,0,0,0,-1,1980,638,0,0
763,386,0,0,0,0,0,0,0,0,0,-1,1987,638,0,0
770,386,0,0,0,0,0,0,0,0,0,-1,1994,638,0,0
777,386,0,0,0,0,0,0,0,0,0,-1,2001,638,0,0
784,386,0,0,0,0,0,0,0,0,0,-1,2008,638,0,0
791,386,0,0,0,0,0,0,0,0,0,-1,2015,638,0,0
798,386,0,0,0,0,0,0,0,0,0,-1,2022,638,0,0
805,386,0,0,0,0,0,0,0,0,0,-1,2029,638,0,0
812,386,0,0,0,0,0,0,0,0,0,-1,2036,638,0,0
-700,379,0,0,0,0,0,0,0,0,0,-1,524,645,0,0
-693,379,0,0,0,0,0,0,0,0,0,-1,531,645,0,0
-686,379,0,0,0,0,0,0,0,0,0,-1,538,645,0,0
-679,379,0,0,0,0,0,0,0,0,0,-1,545,645,0,0
-672,379,0,0,0,0,0,0,0,0,0,-1,552,645,0,0
-665,379,0,0,0,0,0,0,0,0,0,-1,559,645,0,0
-658,379,0,0,0,0,0,0,0,0,0,-1,566,645,0,0
-651,379,0,0,0,0,0,0,0,0,0,-1,573,645,0,0
-644,379,0,0,0,0,0,0,0,0,0,-1,580,645,0,0
-637,379,0,0,0,0,0,0,0,0,0,-1,587,645,0,0
-630,379,0,0,0,0,0,0,0,0,0,-1,594,645,0,0
-623,379,0,0,0,0,0,0,0,0,0,-1,601,645,0,0
-616,379,0,0,0,0,0,0,0,0,0,-1,608,645,0,0
-609,379,0,0,0,0,0,0,0,0,0,-1,615,645,0,0
-602,379,0,0,0,0,0,0,0,0,0,-1,622,645,0,0
-595,379,0,0,0,0,0,0,0,0,0,-1,629,645,0,0
-588,379,0,0,0,0,0,0,0,0,0,-1,636,645,0,0
-581,379,0,0,0,0,0,0,0,0,0,-1,643,645,0,0
-574,379,0,0,0,0,0,0,0,0,0,-1,650,645,0,0
-567,379,-8.78058,0.59668,0,0,0,0,0,0,0,-1,657,645,-8.7806,-0.596692
-560,379,-9.53485,-0.211304,0,0,0,0,0,0,0,-1,664,645,-9.53487,0.211282
-553,379,-5.17108,-4.53119,0,0,0,0,0,0,0,-1,671,645,-5.17106,4.53117
-546,379,-6.23053,-4.92102,0,0,0,0,0,0,0,-1,678,645,-6.23054,4.92105
-539,379,-0.71698,-2.19427,0,0,0,0,0,0,0,-1,685,645,-0.716959,2.19427
-532,379,-7.69611,0.217224,0,0,0,0,0,0,0,-1,692,645,-7.69614,-0.217204
-525,379,-7.09833,-1.13043,0,0,0,0,0,0,0,-1,699,645,-7.0983,1.13041
-518,379,-8.75409,-2.94922,0,0,0,0,0,0,0,-1,706,645,-8.75409,2.94923
-511,379,-8.58813,-3.51654,-0.00035057,0.00297247,-0.00217453,0.0040476,-0.0014257,-1.11162,0.00327864,0.0422891,713,645,-8.58811,3.51655
-504,379,-8.71338,-3.90405,-0.000472073,0.00170927,-0.00103889,0.00212487,-0.000887677,-1.19025,0.00178752,0.0223171,720,645,-8.7134,3.90404
-497,379,-8.77679,-4.30499,-0.000380129,0.000841831,-0.000446338,0.000987497,-0.000525796,-1.25534,0.000887151,0.011984,727,645,-8.77681,4.30498
-490,379,-8.78522,-4.7641,-0.000191261,0.000302537,-2.67894e-05,0.000303986,-0.00019271,-1.51676,0.000289157,0.0114876,734,645,-8.78524,4.7641
-483,379,-8.76361,-5.21008,0.000292889,0.000292064,-0.000127531,0.000420008,0.000164945,-0.783781,0.000244346,0.0127513,741,645,-8.76361,5.21009
-476,379,-8.76184,-5.60193,0.000924116,0.000494919,-0.000544278,0.00129457,0.000124461,-0.597615,0.000824699,0.0131391,748,645,-8.76185,5.60196
-469,379,-8.79529,-6.01563,0.00154817,0.000744572,-0.000981237,0.00220668,8.60546e-05,-0.591072,0.00144329,0.0123877,755,645,-8.79527,6.01565
-462,379,-8.82416,-6.46851,0.00208642,0.000935143,-0.00136807,0.00299502,2.65371e-05,-0.586259,0.00198789,0.00908882,762,645,-8.82413,6.46849
-455,379,-8.83459,-6.89545,0.00231241,0.000980082,-0.00145724,0.00324853,4.39577e-05,-0.571011,0.00215118,0.00901898,769,645,-8.83457,6.89546
-448,379,-8.8277,-7.30219,0.00249697,0.00105308,-0.00152888,0.00346579,8.42614e-05,-0.564815,0.00228296,0.0112091,776,645,-8.82768,7.3022
-441,379,-8.80908,-7.7619,0.0022797,0.000564612,-0.00129389,0.00297442,-0.000130112,-0.492751,0.00202771,0.0200472,783,645,-8.80906,7.76192
-434,379,-8.70038,-8.36932,0,0,0,0,0,0,0,-1,790,645,-8.70036,8.36931
-427,379,-4.16113,-4.13452,0,0,0,0,0,0,0,-1,797,645,-4.16116,4.1345
-420,379,-4.63953,-3.46869,0,0,0,0,0,0,0,-1,804,645,-4.63953,3.46872
-413,379,-4.62543,-3.7912,0,0,0,0,0,0,0,-1,811,645,-4.62541,3.79123
-406,379,-4.64063,-4.38489,0,0,0,0,0,0,0,-1,818,645,-4.64065,4.3849
-399,379,-2.93536,-1.40118,0,0,0,0,0,0,0,-1,825,645,-2.93534,1.40119
-392,379,-4.16711,-0.466003,0,0,0,0,0,0,0,-1,832,645,-4.16714,0.465992
-385,379,-3.51862,0.441101,0,0,0,0,0,0,0,-1,839,645,-3.51859,-0.441072
-378,379,-5.3504,0.212219,0,0,0,0,0,0,0,-1,846,645,-5.35038,-0.212241
-371,379,-4.32092,-0.186707,0,0,0,0,0,0,0,-1,853,645,-4.3209,0.186707
-364,379,-3.40887,-0.549805,0,0,0,0,0,0,0,-1,860,645,-3.4089,0.549802
-357,379,0,0,0,0,0,0,0,0,0,-1,867,645,0,0
-350,379,0,0,0,0,0,0,0,0,0,-1,874,645,0,0
-343,379,0,0,0,0,0,0,0,0,0,-1,881,645,0,0
-336,379,0,0,0,0,0,0,0,0,0,-1,888,645,0,0
-329,379,0,0,0,0,0,0,0,0,0,-1,895,645,0,0
-322,379,0,0,0,0,0,0,0,0,0,-1,902,645,0,0
-315,379,0,0,0,0,0,0,0,0,0,-1,909,645,0,0
-308,379,0,0,0,0,0,0,0,0,0,-1,916,645,0,0
-301,379,0,0,0,0,0,0,0,0,0,-1,923,645,0,0
-294,379,0,0,0,0,0,0,0,0,0,-1,930,645,0,0
-287,379,0,0,0,0,0,0,0,0,0,-1,937,645,0,0
-280,379,0,0,0,0,0,0,0,0,0,-1,944,645,0,0
-273,379,0,0,0,0,0,0,0,0,0,-1,951,645,0,0
-266,379,0,0,0,0,0,0,0,0,0,-1,958,645,0,0
-259,379,0,0,0,0,0,0,0,0,0,-1,965,645,0,0
-252,379,0,0,0,0,0,0,0,0,0,-1,972,645,0,0
-245,379,0,0,0,0,0,0,0,0,0,-1,979,645,0,0
-238,379,0,0,0,0,0,0,0,0,0,-1,986,645,0,0
-231,379,0,0,0,0,0,0,0,0,0,-1,993,645,0,0
-224,379,0,0,0,0,0,0,0,0,0,-1,1000,645,0,0
-217,379,0,0,0,0,0,0,0,0,0,-1,1007,645,0,0
-210,379,0,0,0,0,0,0,0,0,0,-1,1014,645,0,0
-203,379,0,0,0,0,0,0,0,0,0,-1,1021,645,0,0
-196,379,0,0,0,0,0,0,0,0,0,-1,1028,645,0,0
-189,379,0,0,0,0,0,0,0,0,0,-1,1035,645,0,0
-182,379,0,0,0,0,0,0,0,0,0,-1,1042,645,0,0
-175,379,0,0,0,0,0,0,0,0,0,-1,1049,645,0,0
-168,379,0,0,0,0,0,0,0,0,0,-1,1056,645,0,0
-161,379,0,0,0,0,0,0,0,0,0,-1,1063,645,0,0
-154,379,0,0,0,0,0,0,0,0,0,-1,1070,645,0,0
-147,379,0,0,0,0,0,0,0,0,0,-1,1077,645,0,0
-140,379,0,0,0,0,0,0,0,0,0,-1,1084,645,0,0
-133,379,0,0,0,0,0,0,0,0,0,-1,1091,645,0,0
-126,379,0,0,0,0,0,0,0,0,0,-1,1098,645,0,0
-119,379,0,0,0,0,0,0,0,0,0,-1,1105,645,0,0
-112,379,0,0,0,0,0,0,0,0,0,-1,1112,645,0,0
-105,379,0,0,0,0,0,0,0,0,0,-1,1119,645,0,0
-98,379,0,0,0,0,0,0,0,0,0,-1,1126,645,0,0
-91,379,0,0,0,0,0,0,0,0,0,-1,1133,645,0,0
-84,379,0,0,0,0,0,0,0,0,0,-1,1140,645,0,0
-77,379,0,0,0,0,0,0,0,0,0,-1,1147,645,0,0
-70,379,0,0,0,0,0,0,0,0,0,-1,1154,645,0,0
-63,379,0,0,0,0,0,0,0,0,0,-1,1161,645,0,0
-56,379,0,0,0,0,0,0,0,0,0,-1,1168,645,0,0
-49,379,0,0,0,0,0,0,0,0,0,-1,1175,645,0,0
-42,379,0,0,0,0,0,0,0,0,0,-1,1182,645,0,0
-35,379,0,0,0,0,0,0,0,0,0,-1,1189,645,0,0
-28,379,0,0,0,0,0,0,0,0,0,-1,1196,645,0,0
-21,379,0,0,0,0,0,0,0,0,0,-1,1203,645,0,0
-14,379,0,0,0,0,0,0,0,0,0,-1,1210,645,0,0
-7,379,0,0,0,0,0,0,0,0,0,-1,1217,645,0,0
0,379,0,0,0,0,0,0,0,0,0,-1,1224,645,0,0
7,379,0,0,0,0,0,0,0,0,0,-1,1231,645,0,0
14,379,0,0,0,0,0,0,0,0,0,-1,1238,645,0,0
21,379,0,0,0,0,0,0,0,0,0,-1,1245,645,0,0
28,379,0,0,0,0,0,0,0,0,0,-1,1252,645,0,0
35,379,0,0,0,0,0,0,0,0,0,-1,1259,645,0,0
42,379,0,0,0,0,0,0,0,0,0,-1,1266,645,0,0
49,379,0,0,0,0,0,0,0,0,0,-1,1273,645,0,0
56,379,0,0,0,0,0,0,0,0,0,-1,1280,645,0,0
63,379,0,0,0,0,0,0,0,0,0,-1,1287,645,0,0
70,379,0,0,0,0,0,0,0,0,0,-1,1294,645,0,0
77,379,0,0,0,0,0,0,0,0,0,-1,1301,645,0,0
84,379,0,0,0,0,0,0,0,0,0,-1,1308,645,0,0
91,379,0,0,0,0,0,0,0,0,0,-1,1315,645,0,0
98,379,0,0,0,0,0,0,0,0,0,-1,1322,645,0,0
105,379,0,0,0,0,0,0,0,0,0,-1,1329,645,0,0
112,379,0,0,0,0,0,0,0,0,0,-1,1336,645,0,0
119,379,0,0,0,0,0,0,0,0,0,-1,1343,645,0,0
126,379,0,0,0,0,0,0,0,0,0,-1,1350,645,0,0
133,379,0,0,0,0,0,0,0,0,0,-1,1357,645,0,0
140,379,0,0,0,0,0,0,0,0,0,-1,1364,645,0,0
147,379,0,0,0,0,0,0,0,0,0,-1,1371,645,0,0
154,379,0,0,0,0,0,0,0,0,0,-1,1378,645,0,0
161,379,0,0,0,0,0,0,0,0,0,-1,1385,645,0,0
168,379,0,0,0,0,0,0,0,0,0,-1,1392,645,0,0
175,379,0,0,0,0,0,0,0,0,0,-1,1399,645,0,0
182,379,0,0,0,0,0,0,0,0,0,-1,1406,645,0,0
189,379,0,0,0,0,0,0,0,0,0,-1,1413,645,0,0
196,379,0,0,0,0,0,0,0,0,0,-1,1420,645,0,0
203,379,0,0,0,0,0,0,0,0,0,-1,1427,645,0,0
210,379,0,0,0,0,0,0,0,0,0,-1,1434,645,0,0
217,379,0,0,0,0,0,0,0,0,0,-1,1441,645,0,0
224,379,0,0,0,0,0,0,0,0,0,-1,1448,645,0,0
231,379,0,0,0,0,0,0,0,0,0,-1,1455,645,0,0
238,379,0,0,0,0,0,0,0,0,0,-1,1462,645,0,0
245,379,0,0,0,0,0,0,0,0,0,-1,1469,645,0,0
252,379,0,0,0,0,0,0,0,0,0,-1,1476,645,0,0
259,379,0,0,0,0,0,0,0,0,0,-1,1483,645,0,0
266,379,0,0,0,0,0,0,0,0,0,-1,1490,645,0,0
273,379,0,0,0,0,0,0,0,0,0,-1,1497,645,0,0
280,379,0,0,0,0,0,0,0,0,0,-1,1504,645,0,0
287,379,0,0,0,0,0,0,0,0,0,-1,1511,645,0,0
294,379,0,0,0,0,0,0,0,0,0,-1,1518,645,0,0
301,379,0,0,0,0,0,0,0,0,0,-1,1525,645,0,0
308,379,0,0,0,0,0,0,0,0,0,-1,1532,645,0,0
315,379,0,0,0,0,0,0,0,0,0,-1,1539,645,0,0
322,379,0,0,0,0,0,0,0,0,0,-1,1546,645,0,0
329,379,0,0,0,0,0,0,0,0,0,-1,1553,645,0,0
336,379,0,0,0,0,0,0,0,0,0,-1,1560,645,0,0
343,379,0,0,0,0,0,0,0,0,0,-1,1567,645,0,0
350,379,0,0,0,0,0,0,0,0,0,-1,1574,645,0,0
357,379,0,0,0,0,0,0,0,0,0,-1,1581,645,0,0
364,379,0,0,0,0,0,0,0,0,0,-1,1588,645,0,0
371,379,0,0,0,0,0,0,0,0,0,-1,1595,645,0,0
378,379,0,0,0,0,0,0,0,0,0,-1,1602,645,0,0
385,379,0,0,0,0,0,0,0,0,0,-1,1609,645,0,0
392,379,0,0,0,0,0,0,0,0,0,-1,1616,645,0,0
399,379,0,0,0,0,0,0,0,0,0,-1,1623,645,0,0
406,379,0,0,0,0,0,0,0,0,0,-1,1630,645,0,0
413,379,0,0,0,0,0,0,0,0,0,-1,1637,645,0,0
420,379,0,0,0,0,0,0,0,0,0,-1,1644,645,0,0
427,379,0,0,0,0,0,0,0,0,0,-1,1651,645,0,0
434,379,0,0,0,0,0,0,0,0,0,-1,1658,645,0,0
441,379,0,0,0,0,0,0,0,0,0,-1,1665,645,0,0
448,379,0,0,0,0,0,0,0,0,0,-1,1672,645,0,0
455,379,0,0,0,0,0,0,0,0,0,-1,1679,645,0,0
462,379,0,0,0,0,0,0,0,0,0,-1,1686,645,0,0
469,379,0,0,0,0,0,0,0,0,0,-1,1693,645,0,0
476,379,11.1787,0.830383,0,0,0,0,0,0,0,-1,1700,645,11.1787,-0.830365
483,379,7.4231,1.54321,0,0,0,0,0,0,0,-1,1707,645,7.42314,-1.54324
490,379,8.52881,1.56677,0,0,0,0,0,0,0,-1,1714,645,8.52878,-1.56677
497,379,9.63599,1.49573,0,0,0,0,0,0,0,-1,1721,645,9.63604,-1.4957
504,379,10.0833,1.35229,0,0,0,0,0,0,0,-1,1728,645,10.0832,-1.35227
511,379,8.14343,1.59912,0,0,0,0,0,0,0,-1,1735,645,8.14347,-1.59912
518,379,12.7955,-0.324097,0,0,0,0,0,0,0,-1,1742,645,12.7955,0.324101
525,379,6.03711,1.10352,0,0,0,0,0,0,0,-1,1749,645,6.03711,-1.10351
532,379,8.70947,0.887817,0,0,0,0,0,0,0,-1,1756,645,8.70953,-0.887808
539,379,9.87097,0.111389,0,0,0,0,0,0,0,-1,1763,645,9.87095,-0.111395
546,379,8.42383,-0.730652,0,0,0,0,0,0,0,-1,1770,645,8.42378,0.730638
553,379,17.8042,-6.69562,0,0,0,0,0,0,0,-1,1777,645,17.8042,6.69563
560,379,17.4156,-6.36768,-0.00581785,0.00117513,-0.00382139,0.00285826,-0.00750098,-1.15591,0.00617789,0.0453391,1784,645,17.4156,6.36769
567,379,16.8898,-6.05383,-0.00412277,0.000897308,-0.0028722,0.00220169,-0.00542715,-1.1445,0.00453384,0.0231781,1791,645,16.8898,6.0538
574,379,17.0045,-5.62036,-0.00276528,0.000863746,-0.00194429,0.00170869,-0.00361023,-1.16084,0.00313561,0.0125132,1798,645,17.0046,5.62036
581,379,16.9955,-5.19641,-0.00165247,0.000994316,-0.00112525,0.00140804,-0.00206619,-1.21847,0.0020178,0.0138373,1805,645,16.9955,5.19641
588,379,16.9681,-4.75024,-0.000794252,0.00116657,-0.000427836,0.00125585,-0.000883537,-1.36506,0.0012414,0.0168636,1812,645,16.9681,4.75022
595,379,16.9523,-4.29852,-5.68396e-06,0.00144792,0.000242764,0.0014874,-4.51557e-05,1.40961,0.00100699,0.0151067,1819,645,16.9523,4.29852
602,379,16.9373,-3.86053,0.000749654,0.00186761,0.000974375,0.00243196,0.000185306,1.04582,0.0015632,0.0153288,1826,645,16.9373,3.86053
609,379,16.9064,-3.4306,0.00109791,0.00239298,0.00152316,0.00340054,9.03517e-05,0.986387,0.00223752,0.016487,1833,645,16.9063,3.43059
616,379,16.8929,-2.94775,0.00121371,0.00288732,0.00194038,0.00416364,-6.26193e-05,0.988978,0.00279687,0.0131792,1840,645,16.8929,2.94774
623,379,16.9083,-2.43518,0.00116739,0.00345378,0.002335,0.00491042,-0.000289245,1.01304,0.00337416,0.011908,1847,645,16.9084,2.43518
630,379,16.9036,-1.99323,0.000861978,0.00403802,0.00265343,0.00554233,-0.00064233,1.05505,0.00392655,0.0125534,1854,645,16.9036,1.9932
637,379,16.8883,-1.46295,0.000149292,0.00484435,0.00291856,0.00624234,-0.00124869,1.12409,0.00463421,0.0337661,1861,645,16.8883,1.46292
644,379,17.0454,-0.844666,0,0,0,0,0,0,0,-1,1868,645,17.0454,0.844661
651,379,12.9515,0.220825,0,0,0,0,0,0,0,-1,1875,645,12.9515,-0.220814
658,379,13.7498,0.37439,0,0,0,0,0,0,0,-1,1882,645,13.7498,-0.374371
665,379,11.9719,0.353333,0,0,0,0,0,0,0,-1,1889,645,11.9719,-0.353321
672,379,7.57605,2.15326,0,0,0,0,0,0,0,-1,1896,645,7.57599,-2.15326
679,379,8.55078,2.50409,0,0,0,0,0,0,0,-1,1903,645,8.55073,-2.50406
686,379,0,0,0,0,0,0,0,0,0,-1,1910,645,0,0
693,379,0,0,0,0,0,0,0,0,0,-1,1917,645,0,0
700,379,0,0,0,0,0,0,0,0,0,-1,1924,645,0,0
707,379,0,0,0,0,0,0,0,0,0,-1,1931,645,0,0
714,379,0,0,0,0,0,0,0,0,0,-1,1938,645,0,0
721,379,0,0,0,0,0,0,0,0,0,-1,1945,645,0,0
728,379,0,0,0,0,0,0,0,0,0,-1,1952,645,0,0
735,379,0,0,0,0,0,0,0,0,0,-1,1959,645,0,0
742,379,0,0,0,0,0,0,0,0,0,-1,1966,645,0,0
749,379,0,0,0,0,0,0,0,0,0,-1,1973,645,0,0
756,379,0,0,0,0,0,0,0,0,0,-1,1980,645,0,0
763,379,0,0,0,0,0,0,0,0,0,-1,1987,645,0,0
770,379,0,0,0,0,0,0,0,0,0,-1,1994,645,0,0
777,379,0,0,0,0,0,0,0,0,0,-1,2001,645,0,0
784,379,0,0,0,0,0,0,0,0,0,-1,2008,645,0,0
791,379,0,0,0,0,0,0,0,0,0,-1,2015,645,0,0
798,379,0,0,0,0,0,0,0,0,0,-1,2022,645,0,0
805,379,0,0,0,0,0,0,0,0,0,-1,2029,645,0,0
812,379,0,0,0,0,0,0,0,0,0,-1,2036,645,0,0
-700,372,0,0,0,0,0,0,0,0,0,-1,524,652,0,0
-693,372,0,0,0,0,0,0,0,0,0,-1,531,652,0,0
-686,372,0,0,0,0,0,0,0,0,0,-1,538,652,0,0
-679,372,0,0,0,0,0,0,0,0,0,-1,545,652,0,0
-672,372,0,0,0,0,0,0,0,0,0,-1,552,652,0,0
-665,372,0,0,0,0,0,0,0,0,0,-1,559,652,0,0
-658,372,0,0,0,0,0,0,0,0,0,-1,566,652,0,0
-651,372,0,0,0,0,0,0,0,0,0,-1,573,652,0,0
-644,372,0,0,0,0,0,0,0,0,0,-1,580,652,0,0
-637,372,0,0,0,0,0,0,0,0,0,-1,587,652,0,0
-630,372,0,0,0,0,0,0,0,0,0,-1,594,652,0,0
-623,372,0,0,0,0,0,0,0,0,0,-1,601,652,0,0
-616,372,0,0,0,0,0,0,0,0,0,-1,608,652,0,0
-609,372,0,0,0,0,0,0,0,0,0,-1,615,652,0,0
-602,372,0,0,0,0,0,0,0,0,0,-1,622,652,0,0
-595,372,0,0,0,0,0,0,0,0,0,-1,629,652,0,0
-588,372,0,0,0,0,0,0,0,0,0,-1,636,652,0,0
-581,372,0,0,0,0,0,0,0,0,0,-1,643,652,0,0
-574,372,0,0,0,0,0,0,0,0,0,-1,650,652,0,0
-567,372,-7.93744,0.73407,0,0,0,0,0,0,0,-1,657,652,-7.93741,-0.734076
-560,372,-8.78552,-0.158203,0,0,0,0,0,0,0,-1,664,652,-8.78552,0.158216
-553,372,-7.95551,1.61694,0,0,0,0,0,0,0,-1,671,652,-7.95552,-1.61697
-546,372,-4.2403,-3.75372,0,0,0,0,0,0,0,-1,678,652,-4.24028,3.75369
-539,372,-7.92285,-0.0650024,0,0,0,0,0,0,0,-1,685,652,-7.92287,0.0649772
-532,372,-8.59589,-0.419556,0,0,0,0,0,0,0,-1,692,652,-8.59591,0.419539
-525,372,-8.03674,-1.36804,0,0,0,0,0,0,0,-1,699,652,-8.03676,1.36806
-518,372,-9.20844,-2.92877,0,0,0,0,0,0,0,-1,706,652,-9.20842,2.92876
-511,372,-9.18469,-3.45862,1.97535e-05,0.00353725,-0.00240289,0.00475626,-0.00119926,-1.10132,0.00363711,0.0269109,713,652,-9.18471,3.4586
-504,372,-9.20831,-3.84619,-0.000130782,0.00207276,-0.00126084,0.00264538,-0.000703408,-1.14448,0.00203891,0.0131977,720,652,-9.20834,3.84621
-497,372,-9.19476,-4.30219,-4.61509e-05,0.0010138,-0.000649511,0.00132212,-0.000354471,-1.1276,0.0010203,0.0116281,727,652,-9.19475,4.30221
-490,372,-9.20459,-4.74615,0.000160829,0.000401838,-0.00021329,0.000526311,3.63567e-05,-1.04253,0.000339405,0.0132082,734,652,-9.2046,4.74614
-483,372,-9.2085,-5.16467,0.000693106,0.00037726,-0.000307574,0.000880931,0.000189435,-0.548224,0.000535432,0.0126112,741,652,-9.20849,5.16467
-476,372,-9.2207,-5.55432,0.00139372,0.00061349,-0.00076361,0.0018611,0.000146116,-0.549239,0.00119501,0.0138947,748,652,-9.22072,5.55435
-469,372,-9.22998,-5.97577,0.00207988,0.000926167,-0.00126285,0.00289139,0.000114657,-0.571156,0.00189053,0.0118968,755,652,-9.22996,5.97578
-462,372,-9.23645,-6.4353,0.00268174,0.00123428,-0.00174037,0.00384286,7.31498e-05,-0.588352,0.00253788,0.00969127,762,652,-9.23644,6.43531
-455,372,-9.26227,-6.85944,0.00296633,0.001412,-0.00192162,0.00426199,0.000116342,-0.593237,0.00280335,0.00977329,769,652,-9.26229,6.85945
-448,372,-9.24841,-7.28229,0.00324302,0.00174058,-0.00217732,0.00479507,0.000188535,-0.619282,0.00313576,0.0117173,776,652,-9.24841,7.28228
-441,372,-9.09589,-7.88507,0.00319972,0.00144969,-0.00216536,0.00466018,-1.07675e-05,-0.593381,0.00311038,0.0472288,783,652,-9.0959,7.88509
-434,372,-9.05402,-8.5943,0,0,0,0,0,0,0,-1,790,652,-9.05404,8.5943
-427,372,-4.54248,-3.56268,0,0,0,0,0,0,0,-1,797,652,-4.54247,3.56266
-420,372,-4.66168,-2.93597,0,0,0,0,0,0,0,-1,804,652,-4.66166,2.93599
-413,372,-4.74762,-3.29541,0,0,0,0,0,0,0,-1,811,652,-4.74763,3.29542
-406,372,-0.885437,-0.583923,0,0,0,0,0,0,0,-1,818,652,-0.885437,0.5839
-399,372,-3.97357,-0.825012,0,0,0,0,0,0,0,-1,825,652,-3.97359,0.825037
-392,372,-7.64337,0.173035,0,0,0,0,0,0,0,-1,832,652,-7.64337,-0.173019
-385,372,-6.48871,-0.0271606,0,0,0,0,0,0,0,-1,839,652,-6.48874,0.0271353
-378,372,-5.33044,-0.242432,0,0,0,0,0,0,0,-1,846,652,-5.33042,0.242457
-371,372,-4.40802,-0.495667,0,0,0,0,0,0,0,-1,853,652,-4.40802,0.495661
-364,372,0,0,0,0,0,0,0,0,0,-1,860,652,0,0
-357,372,0,0,0,0,0,0,0,0,0,-1,867,652,0,0
-350,372,0,0,0,0,0,0,0,0,0,-1,874,652,0,0
-343,372,0,0,0,0,0,0,0,0,0,-1,881,652,0,0
-336,372,0,0,0,0,0,0,0,0,0,-1,888,652,0,0
-329,372,0,0,0,0,0,0,0,0,0,-1,895,652,0,0
-322,372,0,0,0,0,0,0,0,0,0,-1,902,652,0,0
-315,372,0,0,0,0,0,0,0,0,0,-1,909,652,0,0
-308,372,0,0,0,0,0,0,0,0,0,-1,916,652,0,0
-301,372,0,0,0,0,0,0,0,0,0,-1,923,652,0,0
-294,372,0,0,0,0,0,0,0,0,0,-1,930,652,0,0
-287,372,0,0,0,0,0,0,0,0,0,-1,937,652,0,0
-280,372,0,0,0,0,0,0,0,0,0,-1,944,652,0,0
-273,372,0,0,0,0,0,0,0,0,0,-1,951,652,0,0
-266,372,0,0,0,0,0,0,0,0,0,-1,958,652,0,0
-259,372,0,0,0,0,0,0,0,0,0,-1,965,652,0,0
-252,372,0,0,0,0,0,0,0,0,0,-1,972,652,0,0
-245,372,0,0,0,0,0,0,0,0,0,-1,979,652,0,0
-238,372,0,0,0,0,0,0,0,0,0,-1,986,652,0,0
-231,372,0,0,0,0,0,0,0,0,0,-1,993,652,0,0
-224,372,0,0,0,0,0,0,0,0,0,-1,1000,652,0,0
-217,372,0,0,0,0,0,0,0,0,0,-1,1007,652,0,0
-210,372,0,0,0,0,0,0,0,0,0,-1,1014,652,0,0
-203,372,0,0,0,0,0,0,0,0,0,-1,1021,652,0,0
-196,372,0,0,0,0,0,0,0,0,0,-1,1028,652,0,0
-189,372,0,0,0,0,0,0,0,0,0,-1,1035,652,0,0
-182,372,0,0,0,0,0,0,0,0,0,-1,1042,652,0,0
-175,372,0,0,0,0,0,0,0,0,0,-1,1049,652,0,0
-168,372,0,0,0,0,0,0,0,0,0,-1,1056,652,0,0
-161,372,0,0,0,0,0,0,0,0,0,-1,1063,652,0,0
-154,372,0,0,0,0,0,0,0,0,0,-1,1070,652,0,0
-147,372,0,0,0,0,0,0,0,0,0,-1,1077,652,0,0
-140,372,0,0,0,0,0,0,0,0,0,-1,1084,652,0,0
-133,372,0,0,0,0,0,0,0,0,0,-1,1091,652,0,0
-126,372,0,0,0,0,0,0,0,0,0,-1,1098,652,0,0
-119,372,0,0,0,0,0,0,0,0,0,-1,1105,652,0,0
-112,372,0,0,0,0,0,0,0,0,0,-1,1112,652,0,0
-105,372,0,0,0,0,0,0,0,0,0,-1,1119,652,0,0
-98,372,0,0,0,0,0,0,0,0,0,-1,1126,652,0,0
-91,372,0,0,0,0,0,0,0,0,0,-1,1133,652,0,0
-84,372,0,0,0,0,0,0,0,0,0,-1,1140,652,0,0
-77,372,0,0,0,0,0,0,0,0,0,-1,1147,652,0,0
-70,372,0,0,0,0,0,0,0,0,0,-1,1154,652,0,0
-63,372,0,0,0,0,0,0,0,0,0,-1,1161,652,0,0
-56,372,0,0,0,0,0,0,0,0,0,-1,1168,652,0,0
-49,372,0,0,0,0,0,0,0,0,0,-1,1175,652,0,0
-42,372,0,0,0,0,0,0,0,0,0,-1,1182,652,0,0
-35,372,0,0,0,0,0,0,0,0,0,-1,1189,652,0,0
-28,372,0,0,0,0,0,0,0,0,0,-1,1196,652,0,0
-21,372,0,0,0,0,0,0,0,0,0,-1,1203,652,0,0
-14,372,0,0,0,0,0,0,0,0,0,-1,1210,652,0,0
-7,372,0,0,0,0,0,0,0,0,0,-1,1217,652,0,0
0,372,0,0,0,0,0,0,0,0,0,-1,1224,652,0,0
7,372,0,0,0,0,0,0,0,0,0,-1,1231,652,0,0
14,372,0,0,0,0,0,0,0,0,0,-1,1238,652,0,0
21,372,0,0,0,0,0,0,0,0,0,-1,1245,652,0,0
28,372,0,0,0,0,0,0,0,0,0,-1,1252,652,0,0
35,372,0,0,0,0,0,0,0,0,0,-1,1259,652,0,0
42,372,0,0,0,0,0,0,0,0,0,-1,1266,652,0,0
49,372,0,0,0,0,0,0,0,0,0,-1,1273,652,0,0
56,372,0,0,0,0,0,0,0,0,0,-1,1280,652,0,0
63,372,0,0,0,0,0,0,0,0,0,-1,1287,652,0,0
70,372,0,0,0,0,0,0,0,0,0,-1,1294,652,0,0
77,372,0,0,0,0,0,0,0,0,0,-1,1301,652,0,0
84,372,0,0,0,0,0,0,0,0,0,-1,1308,652,0,0
91,372,0,0,0,0,0,0,0,0,0,-1,1315,652,0,0
98,372,0,0,0,0,0,0,0,0,0,-1,1322,652,0,0
105,372,0,0,0,0,0,0,0,0,0,-1,1329,652,0,0
112,372,0,0,0,0,0,0,0,0,0,-1,1336,652,0,0
119,372,0,0,0,0,0,0,0,0,0,-1,1343,652,0,0
126,372,0,0,0,0,0,0,0,0,0,-1,1350,652,0,0
133,372,0,0,0,0,0,0,0,0,0,-1,1357,652,0,0
140,372,0,0,0,0,0,0,0,0,0,-1,1364,652,0,0
147,372,0,0,0,0,0,0,0,0,0,-1,1371,652,0,0
154,372,0,0,0,0,0,0,0,0,0,-1,1378,652,0,0
161,372,0,0,0,0,0,0,0,0,0,-1,1385,652,0,0
168,372,0,0,0,0,0,0,0,0,0,-1,1392,652,0,0
175,372,0,0,0,0,0,0,0,0,0,-1,1399,652,0,0
182,372,0,0,0,0,0,0,0,0,0,-1,1406,652,0,0
189,372,0,0,0,0,0,0,0,0,0,-1,1413,652,0,0
196,372,0,0,0,0,0,0,0,0,0,-1,1420,652,0,0
203,372,0,0,0,0,0,0,0,0,0,-1,1427,652,0,0
210,372,0,0,0,0,0,0,0,0,0,-1,1434,652,0,0
217,372,0,0,0,0,0,0,0,0,0,-1,1441,652,0,0
224,372,0,0,0,0,0,0,0,0,0,-1,1448,652,0,0
231,372,0,0,0,0,0,0,0,0,0,-1,1455,652,0,0
238,372,0,0,0,0,0,0,0,0,0,-1,1462,652,0,0
245,372,0,0,0,0,0,0,0,0,0,-1,1469,652,0,0
252,372,0,0,0,0,0,0,0,0,0,-1,1476,652,0,0
259,372,0,0,0,0,0,0,0,0,0,-1,1483,652,0,0
266,372,0,0,0,0,0,0,0,0,0,-1,1490,652,0,0
273,372,0,0,0,0,0,0,0,0,0,-1,1497,652,0,0
280,372,0,0,0,0,0,0,0,0,0,-1,1504,652,0,0
287,372,0,0,0,0,0,0,0,0,0,-1,1511,652,0,0
294,372,0,0,0,0,0,0,0,0,0,-1,1518,652,0,0
301,372,0,0,0,0,0,0,0,0,0,-1,1525,652,0,0
308,372,0,0,0,0,0,0,0,0,0,-1,1532,652,0,0
315,372,0,0,0,0,0,0,0,0,0,-1,1539,652,0,0
322,372,0,0,0,0,0,0,0,0,0,-1,1546,652,0,0
329,372,0,0,0,0,0,0,0,0,0,-1,1553,652,0,0
336,372,0,0,0,0,0,0,0,0,0,-1,1560,652,0,0
343,372,0,0,0,0,0,0,0,0,0,-1,1567,652,0,0
350,372,0,0,0,0,0,0,0,0,0,-1,1574,652,0,0
357,372,0,0,0,0,0,0,0,0,0,-1,1581,652,0,0
364,372,0,0,0,0,0,0,0,0,0,-1,1588,652,0,0
371,372,0,0,0,0,0,0,0,0,0,-1,1595,652,0,0
378,372,0,0,0,0,0,0,0,0,0,-1,1602,652,0,0
385,372,0,0,0,0,0,0,0,0,0,-1,1609,652,0,0
392,372,0,0,0,0,0,0,0,0,0,-1,1616,652,0,0
399,372,0,0,0,0,0,0,0,0,0,-1,1623,652,0,0
406,372,0,0,0,0,0,0,0,0,0,-1,1630,652,0,0
413,372,0,0,0,0,0,0,0,0,0,-1,1637,652,0,0
420,372,0,0,0,0,0,0,0,0,0,-1,1644,652,0,0
427,372,0,0,0,0,0,0,0,0,0,-1,1651,652,0,0
434,372,0,0,0,0,0,0,0,0,0,-1,1658,652,0,0
441,372,0,0,0,0,0,0,0,0,0,-1,1665,652,0,0
448,372,0,0,0,0,0,0,0,0,0,-1,1672,652,0,0
455,372,0,0,0,0,0,0,0,0,0,-1,1679,652,0,0
462,372,0,0,0,0,0,0,0,0,0,-1,1686,652,0,0
469,372,0,0,0,0,0,0,0,0,0,-1,1693,652,0,0
476,372,0,0,0,0,0,0,0,0,0,-1,1700,652,0,0
483,372,8.74182,1.53125,0,0,0,0,0,0,0,-1,1707,652,8.74186,-1.53126
490,372,9.78455,1.67096,0,0,0,0,0,0,0,-1,1714,652,9.7846,-1.67093
497,372,9.97644,1.46069,0,0,0,0,0,0,0,-1,1721,652,9.97647,-1.46071
504,372,10.1216,1.28375,0,0,0,0,0,0,0,-1,1728,652,10.1216,-1.28376
511,372,11.7367,-0.0272217,0,0,0,0,0,0,0,-1,1735,652,11.7367,0.0272326
518,372,12.0657,-0.0995483,0,0,0,0,0,0,0,-1,1742,652,12.0657,0.0995285
525,372,12.3947,-0.171814,0,0,0,0,0,0,0,-1,1749,652,12.3946,0.171824
532,372,9.36597,1.72034,0,0,0,0,0,0,0,-1,1756,652,9.36597,-1.72036
539,372,7.82886,-0.0865479,0,0,0,0,0,0,0,-1,1763,652,7.82882,0.0865771
546,372,10.953,-0.187195,0,0,0,0,0,0,0,-1,1770,652,10.953,0.187181
553,372,14.1201,-4.83234,0,0,0,0,0,0,0,-1,1777,652,14.1201,4.83235
560,372,17.6804,-6.59698,0,0,0,0,0,0,0,-1,1784,652,17.6804,6.59697
567,372,17.4619,-6.01398,-0.00520355,0.00123742,-0.00353108,0.00279606,-0.00676219,-1.15511,0.00567461,0.0387887,1791,652,17.4619,6.01397
574,372,17.4783,-5.56818,-0.00338374,0.00111364,-0.00235823,0.00212346,-0.00439355,-1.16621,0.00383793,0.0233186,1798,652,17.4783,5.56816
581,372,17.4603,-5.17969,-0.00198588,0.00116808,-0.00140623,0.00170399,-0.0025218,-1.20669,0.00245495,0.0165345,1805,652,17.4603,5.1797
588,372,17.422,-4.74194,-0.00094401,0.00120632,-0.000647523,0.00138625,-0.00112394,-1.29976,0.00145189,0.0159601,1812,652,17.422,4.74196
595,372,17.4098,-4.29242,-0.000117378,0.00133805,-2.05973e-05,0.00133834,-0.00011767,-1.55665,0.000933927,0.014819,1819,652,17.4098,4.29243
602,372,17.4127,-3.84613,0.000632729,0.00161195,0.000636711,0.00192553,0.000319147,1.11316,0.00119164,0.0158263,1826,652,17.4127,3.84613
609,372,17.3456,-3.40765,0.000976638,0.00199973,0.0011173,0.00271702,0.000259347,1.00008,0.00173139,0.0166849,1833,652,17.3456,3.40766
616,372,17.3351,-2.94769,0.00111792,0.00236546,0.00149217,0.00335899,0.000124381,0.983373,0.00219904,0.0155187,1840,652,17.3351,2.94771
623,372,17.364,-2.44183,0.000971285,0.00277923,0.0017793,0.00387102,-0.000120503,1.02043,0.00262177,0.0121809,1847,652,17.364,2.44182
630,372,17.356,-1.97302,0.000467155,0.00321134,0.00195167,0.00422497,-0.000546476,1.09178,0.00301536,0.015762,1854,652,17.356,1.97301
637,372,17.3693,-1.55255,-0.000413101,0.00372915,0.00204253,0.00456689,-0.00125084,1.18157,0.00353607,0.022613,1861,652,17.3693,1.55257
644,372,17.4751,-0.952087,-0.00174371,0.00420619,0.00206599,0.00485321,-0.00239073,1.2673,0.00426207,0.0371948,1868,652,17.4751,0.952076
651,372,17.8174,-0.259399,0,0,0,0,0,0,0,-1,1875,652,17.8174,0.259378
658,372,14.157,0.280273,0,0,0,0,0,0,0,-1,1882,652,14.157,-0.280264
665,372,13.421,0.714966,0,0,0,0,0,0,0,-1,1889,652,13.4211,-0.714941
672,372,9.34106,1.48444,0,0,0,0,0,0,0,-1,1896,652,9.34109,-1.48444
679,372,10.7308,2.32391,0,0,0,0,0,0,0,-1,1903,652,10.7309,-2.3239
686,372,11.6295,2.52997,0,0,0,0,0,0,0,-1,1910,652,11.6296,-2.52996
693,372,0,0,0,0,0,0,0,0,0,-1,1917,652,0,0
700,372,0,0,0,0,0,0,0,0,0,-1,1924,652,0,0
707,372,0,0,0,0,0,0,0,0,0,-1,1931,652,0,0
714,372,0,0,0,0,0,0,0,0,0,-1,1938,652,0,0
721,372,0,0,0,0,0,0,0,0,0,-1,1945,652,0,0
728,372,0,0,0,0,0,0,0,0,0,-1,1952,652,0,0
735,372,0,0,0,0,0,0,0,0,0,-1,1959,652,0,0
742,372,0,0,0,0,0,0,0,0,0,-1,1966,652,0,0
749,372,0,0,0,0,0,0,0,0,0,-1,1973,652,0,0
756,372,0,0,0,0,0,0,0,0,0,-1,1980,652,0,0
763,372,0,0,0,0,0,0,0,0,0,-1,1987,652,0,0
770,372,0,0,0,0,0,0,0,0,0,-1,1994,652,0,0
777,372,0,0,0,0,0,0,0,0,0,-1,2001,652,0,0
784,372,0,0,0,0,0,0,0,0,0,-1,2008,652,0,0
791,372,0,0,0,0,0,0,0,0,0,-1,2015,652,0,0
798,372,0,0,0,0,0,0,0,0,0,-1,2022,652,0,0
805,372,0,0,0,0,0,0,0,0,0,-1,2029,652,0,0
812,372,0,0,0,0,0,0,0,0,0,-1,2036,652,0,0
-700,365,0,0,0,0,0,0,0,0,0,-1,524,659,0,0
-693,365,0,0,0,0,0,0,0,0,0,-1,531,659,0,0
-686,365,0,0,0,0,0,0,0,0,0,-1,538,659,0,0
-679,365,0,0,0,0,0,0,0,0,0,-1,545,659,0,0
-672,365,0,0,0,0,0,0,0,0,0,-1,552,659,0,0
-665,365,0,0,0,0,0,0,0,0,0,-1,559,659,0,0
-658,365,0,0,0,0,0,0,0,0,0,-1,566,659,0,0
-651,365,0,0,0,0,0,0,0,0,0,-1,573,659,0,0
-644,365,0,0,0,0,0,0,0,0,0,-1,580,659,0,0
-637,365,0,0,0,0,0,0,0,0,0,-1,587,659,0,0
-630,365,0,0,0,0,0,0,0,0,0,-1,594,659,0,0
-623,365,0,0,0,0,0,0,0,0,0,-1,601,659,0,0
-616,365,0,0,0,0,0,0,0,0,0,-1,608,659,0,0
-609,365,0,0,0,0,0,0,0,0,0,-1,615,659,0,0
-602,365,0,0,0,0,0,0,0,0,0,-1,622,659,0,0
-595,365,0,0,0,0,0,0,0,0,0,-1,629,659,0,0
-588,365,0,0,0,0,0,0,0,0,0,-1,636,659,0,0
-581,365,0,0,0,0,0,0,0,0,0,-1,643,659,0,0
-574,365,-7.69281,1.59015,0,0,0,0,0,0,0,-1,650,659,-7.69282,-1.59018
-567,365,-8.2583,1.72638,0,0,0,0,0,0,0,-1,657,659,-8.25827,-1.72637
-560,365,-7.17767,0.275757,0,0,0,0,0,0,0,-1,664,659,-7.17768,-0.27577
-553,365,-10.0349,-0.169617,0,0,0,0,0,0,0,-1,671,659,-10.0349,0.169593
-546,365,-10.3684,-1.44214,0,0,0,0,0,0,0,-1,678,659,-10.3684,1.44216
-539,365,-8.38599,1.52936,0,0,0,0,0,0,0,-1,685,659,-8.38598,-1.52935
-532,365,-8.52863,0.166504,0,0,0,0,0,0,0,-1,692,659,-8.52863,-0.166501
-525,365,-9.28229,-2.62726,0,0,0,0,0,0,0,-1,699,659,-9.28227,2.62724
-518,365,-9.39313,-2.70325,0,0,0,0,0,0,0,-1,706,659,-9.3931,2.70322
-511,365,-9.64886,-3.40765,0.000289392,0.00372922,-0.00254452,0.00508057,-0.00106196,-1.08259,0.00379094,0.0274171,713,659,-9.64888,3.40764
-504,365,-9.64111,-3.83264,0.000168677,0.00222911,-0.0014397,0.00296923,-0.000571443,-1.09595,0.0021949,0.0119956,720,659,-9.64111,3.83265
-497,365,-9.64838,-4.30096,0.000304784,0.00113252,-0.000849304,0.00166343,-0.000226126,-1.01212,0.0011915,0.0134115,727,659,-9.6484,4.30098
-490,365,-9.65118,-4.74872,0.000536932,0.000514975,-0.000430398,0.000956492,9.54156e-05,-0.772647,0.000608356,0.0155572,734,659,-9.65117,4.74874
-483,365,-9.66492,-5.14697,0.00109671,0.000502849,-0.000538809,0.00141499,0.000184571,-0.53356,0.000888218,0.0143403,741,659,-9.66491,5.14698
-476,365,-9.63885,-5.55048,0.00184276,0.000783588,-0.00103182,0.00247296,0.000153386,-0.5483,0.00159997,0.0154988,748,659,-9.63885,5.5505
-469,365,-9.64252,-5.97583,0.00257879,0.00115688,-0.00158167,0.00360194,0.00013373,-0.574181,0.00235798,0.014934,755,659,-9.64254,5.9758
-462,365,-9.66016,-6.42163,0.00324027,0.00159508,-0.00214142,0.00471166,0.000123695,-0.602021,0.00310069,0.0137523,762,659,-9.66018,6.42162
-455,365,-9.68152,-6.84497,0.00360101,0.00190849,-0.00241981,0.00531827,0.000191231,-0.617184,0.00348352,0.0156866,769,659,-9.68155,6.84495
-448,365,-9.60608,-7.35602,0.00401539,0.00255,-0.00289812,0.006272,0.000293392,-0.661583,0.00408705,0.0296403,776,659,-9.6061,7.35604
-441,365,-9.40753,-7.96466,0,0,0,0,0,0,0,-1,783,659,-9.40753,7.96464
-434,365,-5.45056,-3.98041,0,0,0,0,0,0,0,-1,790,659,-5.45055,3.98042
-427,365,-5.05377,-4.74689,0,0,0,0,0,0,0,-1,797,659,-5.05376,4.7469
-420,365,-4.58813,-3.16376,0,0,0,0,0,0,0,-1,804,659,-4.58816,3.16374
-413,365,0.141357,0.672729,0,0,0,0,0,0,0,-1,811,659,0.141365,-0.672714
-406,365,-1.75067,-0.934448,0,0,0,0,0,0,0,-1,818,659,-1.7507,0.934424
-399,365,-4.10242,-1.25439,0,0,0,0,0,0,0,-1,825,659,-4.10244,1.25438
-392,365,-7.46545,-0.779724,0,0,0,0,0,0,0,-1,832,659,-7.46543,0.779744
-385,365,-6.27875,-0.887573,0,0,0,0,0,0,0,-1,839,659,-6.27874,0.887545
-378,365,-5.34503,-0.263306,0,0,0,0,0,0,0,-1,846,659,-5.34504,0.263275
-371,365,0,0,0,0,0,0,0,0,0,-1,853,659,0,0
-364,365,0,0,0,0,0,0,0,0,0,-1,860,659,0,0
-357,365,0,0,0,0,0,0,0,0,0,-1,867,659,0,0
-350,365,0,0,0,0,0,0,0,0,0,-1,874,659,0,0
-343,365,0,0,0,0,0,0,0,0,0,-1,881,659,0,0
-336,365,0,0,0,0,0,0,0,0,0,-1,888,659,0,0
-329,365,0,0,0,0,0,0,0,0,0,-1,895,659,0,0
-322,365,0,0,0,0,0,0,0,0,0,-1,902,659,0,0
-315,365,0,0,0,0,0,0,0,0,0,-1,909,659,0,0
-308,365,0,0,0,0,0,0,0,0,0,-1,916,659,0,0
-301,365,0,0,0,0,0,0,0,0,0,-1,923,659,0,0
-294,365,0,0,0,0,0,0,0,0,0,-1,930,659,0,0
-287,365,0,0,0,0,0,0,0,0,0,-1,937,659,0,0
-280,365,0,0,0,0,0,0,0,0,0,-1,944,659,0,0
-273,365,0,0,0,0,0,0,0,0,0,-1,951,659,0,0
-266,365,0,0,0,0,0,0,0,0,0,-1,958,659,0,0
-259,365,0,0,0,0,0,0,0,0,0,-1,965,659,0,0
-252,365,0,0,0,0,0,0,0,0,0,-1,972,659,0,0
-245,365,0,0,0,0,0,0,0,0,0,-1,979,659,0,0
-238,365,0,0,0,0,0,0,0,0,0,-1,986,659,0,0
-231,365,0,0,0,0,0,0,0,0,0,-1,993,659,0,0
-224,365,0,0,0,0,0,0,0,0,0,-1,1000,659,0,0
-217,365,0,0,0,0,0,0,0,0,0,-1,1007,659,0,0
-210,365,0,0,0,0,0,0,0,0,0,-1,1014,659,0,0
-203,365,0,0,0,0,0,0,0,0,0,-1,1021,659,0,0
-196,365,0,0,0,0,0,0,0,0,0,-1,1028,659,0,0
-189,365,0,0,0,0,0,0,0,0,0,-1,1035,659,0,0
-182,365,0,0,0,0,0,0,0,0,0,-1,1042,659,0,0
-175,365,0,0,0,0,0,0,0,0,0,-1,1049,659,0,0
-168,365,0,0,0,0,0,0,0,0,0,-1,1056,659,0,0
-161,365,0,0,0,0,0,0,0,0,0,-1,1063,659,0,0
-154,365,0,0,0,0,0,0,0,0,0,-1,1070,659,0,0
-147,365,0,0,0,0,0,0,0,0,0,-1,1077,659,0,0
-140,365,0,0,0,0,0,0,0,0,0,-1,1084,659,0,0
-133,365,0,0,0,0,0,0,0,0,0,-1,1091,659,0,0
-126,365,0,0,0,0,0,0,0,0,0,-1,1098,659,0,0
-119,365,0,0,0,0,0,0,0,0,0,-1,1105,659,0,0
-112,365,0,0,0,0,0,0,0,0,0,-1,1112,659,0,0
-105,365,0,0,0,0,0,0,0,0,0,-1,1119,659,0,0
-98,365,0,0,0,0,0,0,0,0,0,-1,1126,659,0,0
-91,365,0,0,0,0,0,0,0,0,0,-1,1133,659,0,0
-84,365,0,0,0,0,0,0,0,0,0,-1,1140,659,0,0
-77,365,0,0,0,0,0,0,0,0,0,-1,1147,659,0,0
-70,365,0,0,0,0,0,0,0,0,0,-1,1154,659,0,0
-63,365,0,0,0,0,0,0,0,0,0,-1,1161,659,0,0
-56,365,0,0,0,0,0,0,0,0,0,-1,1168,659,0,0
-49,365,0,0,0,0,0,0,0,0,0,-1,1175,659,0,0
-42,365,0,0,0,0,0,0,0,0,0,-1,1182,659,0,0
-35,365,0,0,0,0,0,0,0,0,0,-1,1189,659,0,0
-28,365,0,0,0,0,0,0,0,0,0,-1,1196,659,0,0
-21,365,0,0,0,0,0,0,0,0,0,-1,1203,659,0,0
-14,365,0,0,0,0,0,0,0,0,0,-1,1210,659,0,0
-7,365,0,0,0,0,0,0,0,0,0,-1,1217,659,0,0
0,365,0,0,0,0,0,0,0,0,0,-1,1224,659,0,0
7,365,0,0,0,0,0,0,0,0,0,-1,1231,659,0,0
14,365,0,0,0,0,0,0,0,0,0,-1,1238,659,0,0
21,365,0,0,0,0,0,0,0,0,0,-1,1245,659,0,0
28,365,0,0,0,0,0,0,0,0,0,-1,1252,659,0,0
35,365,0,0,0,0,0,0,0,0,0,-1,1259,659,0,0
42,365,0,0,0,0,0,0,0,0,0,-1,1266,659,0,0
49,365,0,0,0,0,0,0,0,0,0,-1,1273,659,0,0
56,365,0,0,0,0,0,0,0,0,0,-1,1280,659,0,0
63,365,0,0,0,0,0,0,0,0,0,-1,1287,659,0,0
70,365,0,0,0,0,0,0,0,0,0,-1,1294,659,0,0
77,365,0,0,0,0,0,0,0,0,0,-1,1301,659,0,0
84,365,0,0,0,0,0,0,0,0,0,-1,1308,659,0,0
91,365,0,0,0,0,0,0,0,0,0,-1,1315,659,0,0
98,365,0,0,0,0,0,0,0,0,0,-1,1322,659,0,0
105,365,0,0,0,0,0,0,0,0,0,-1,1329,659,0,0
112,365,0,0,0,0,0,0,0,0,0,-1,1336,659,0,0
119,365,0,0,0,0,0,0,0,0,0,-1,1343,659,0,0
126,365,0,0,0,0,0,0,0,0,0,-1,1350,659,0,0
133,365,0,0,0,0,0,0,0,0,0,-1,1357,659,0,0
140,365,0,0,0,0,0,0,0,0,0,-1,1364,659,0,0
147,365,0,0,0,0,0,0,0,0,0,-1,1371,659,0,0
154,365,0,0,0,0,0,0,0,0,0,-1,1378,659,0,0
161,365,0,0,0,0,0,0,0,0,0,-1,1385,659,0,0
168,365,0,0,0,0,0,0,0,0,0,-1,1392,659,0,0
175,365,0,0,0,0,0,0,0,0,0,-1,1399,659,0,0
182,365,0,0,0,0,0,0,0,0,0,-1,1406,659,0,0
189,365,0,0,0,0,0,0,0,0,0,-1,1413,659,0,0
196,365,0,0,0,0,0,0,0,0,0,-1,1420,659,0,0
203,365,0,0,0,0,0,0,0,0,0,-1,1427,659,0,0
210,365,0,0,0,0,0,0,0,0,0,-1,1434,659,0,0
217,365,0,0,0,0,0,0,0,0,0,-1,1441,659,0,0
224,365,0,0,0,0,0,0,0,0,0,-1,1448,659,0,0
231,365,0,0,0,0,0,0,0,0,0,-1,1455,659,0,0
238,365,0,0,0,0,0,0,0,0,0,-1,1462,659,0,0
245,365,0,0,0,0,0,0,0,0,0,-1,1469,659,0,0
252,365,0,0,0,0,0,0,0,0,0,-1,1476,659,0,0
259,365,0,0,0,0,0,0,0,0,0,-1,1483,659,0,0
266,365,0,0,0,0,0,0,0,0,0,-1,1490,659,0,0
273,365,0,0,0,0,0,0,0,0,0,-1,1497,659,0,0
280,365,0,0,0,0,0,0,0,0,0,-1,1504,659,0,0
287,365,0,0,0,0,0,0,0,0,0,-1,1511,659,0,0
294,365,0,0,0,0,0,0,0,0,0,-1,1518,659,0,0
301,365,0,0,0,0,0,0,0,0,0,-1,1525,659,0,0
308,365,0,0,0,0,0,0,0,0,0,-1,1532,659,0,0
315,365,0,0,0,0,0,0,0,0,0,-1,1539,659,0,0
322,365,0,0,0,0,0,0,0,0,0,-1,1546,659,0,0
329,365,0,0,0,0,0,0,0,0,0,-1,1553,659,0,0
336,365,0,0,0,0,0,0,0,0,0,-1,1560,659,0,0
343,365,0,0,0,0,0,0,0,0,0,-1,1567,659,0,0
350,365,0,0,0,0,0,0,0,0,0,-1,1574,659,0,0
357,365,0,0,0,0,0,0,0,0,0,-1,1581,659,0,0
364,365,0,0,0,0,0,0,0,0,0,-1,1588,659,0,0
371,365,0,0,0,0,0,0,0,0,0,-1,1595,659,0,0
378,365,0,0,0,0,0,0,0,0,0,-1,1602,659,0,0
385,365,0,0,0,0,0,0,0,0,0,-1,1609,659,0,0
392,365,0,0,0,0,0,0,0,0,0,-1,1616,659,0,0
399,365,0,0,0,0,0,0,0,0,0,-1,1623,659,0,0
406,365,0,0,0,0,0,0,0,0,0,-1,1630,659,0,0
413,365,0,0,0,0,0,0,0,0,0,-1,1637,659,0,0
420,365,0,0,0,0,0,0,0,0,0,-1,1644,659,0,0
427,365,0,0,0,0,0,0,0,0,0,-1,1651,659,0,0
434,365,0,0,0,0,0,0,0,0,0,-1,1658,659,0,0
441,365,0,0,0,0,0,0,0,0,0,-1,1665,659,0,0
448,365,0,0,0,0,0,0,0,0,0,-1,1672,659,0,0
455,365,0,0,0,0,0,0,0,0,0,-1,1679,659,0,0
462,365,0,0,0,0,0,0,0,0,0,-1,1686,659,0,0
469,365,0,0,0,0,0,0,0,0,0,-1,1693,659,0,0
476,365,0,0,0,0,0,0,0,0,0,-1,1700,659,0,0
483,365,0,0,0,0,0,0,0,0,0,-1,1707,659,0,0
490,365,8.39551,0.471252,0,0,0,0,0,0,0,-1,1714,659,8.39551,-0.471241
497,365,9.89233,1.35394,0,0,0,0,0,0,0,-1,1721,659,9.89237,-1.35396
504,365,10.1414,1.18005,0,0,0,0,0,0,0,-1,1728,659,10.1413,-1.18004
511,365,10.5151,0.993896,0,0,0,0,0,0,0,-1,1735,659,10.5152,-0.993894
518,365,11.2029,0.398132,0,0,0,0,0,0,0,-1,1742,659,11.2029,-0.398136
525,365,15.5748,3.85303,0,0,0,0,0,0,0,-1,1749,659,15.5748,-3.85303
532,365,11.2446,1.00629,0,0,0,0,0,0,0,-1,1756,659,11.2446,-1.00631
539,365,12.6301,1.03204,0,0,0,0,0,0,0,-1,1763,659,12.6302,-1.03204
546,365,11.647,0.84198,0,0,0,0,0,0,0,-1,1770,659,11.6469,-0.841955
553,365,12.028,-0.558899,0,0,0,0,0,0,0,-1,1777,659,12.028,0.558873
560,365,14.5372,-4.55548,0,0,0,0,0,0,0,-1,1784,659,14.5373,4.55547
567,365,18.116,-6.13507,0,0,0,0,0,0,0,-1,1791,659,18.116,6.13507
574,365,18.0769,-5.55231,0,0,0,0,0,0,0,-1,1798,659,18.0769,5.5523
581,365,17.8749,-5.32513,-0.00235526,0.00146403,-0.00153981,0.00200749,-0.00289872,-1.2315,0.00284814,0.0467729,1805,659,17.8749,5.32511
588,365,17.8423,-4.80243,-0.00107488,0.00135367,-0.000713279,0.00154767,-0.00126888,-1.30524,0.00162879,0.0163573,1812,659,17.8423,4.80243
595,365,17.8553,-4.27972,-0.000205255,0.00131875,-0.000157533,0.00133487,-0.000221369,-1.46887,0.00097214,0.0132862,1819,659,17.8554,4.27973
602,365,17.8411,-3.81238,0.000552086,0.00143506,0.000394872,0.00158588,0.000401259,1.20594,0.000952118,0.0158713,1826,659,17.841,3.81237
609,365,17.8014,-3.35431,0.000950119,0.00168937,0.000815599,0.00221519,0.000424297,0.998151,0.00135764,0.016808,1833,659,17.8014,3.35432
616,365,17.8064,-2.89423,0.00114183,0.00194016,0.00114602,0.00275455,0.000327448,0.952981,0.00173753,0.0170461,1840,659,17.8064,2.89424
623,365,17.8281,-2.43951,0.000923297,0.00220717,0.00132281,0.00303557,9.4893e-05,1.0113,0.00199284,0.0112039,1847,659,17.8281,2.4395
630,365,17.8085,-1.97473,0.000266625,0.00249025,0.00136233,0.00313686,-0.000379992,1.12764,0.00222873,0.0154538,1854,659,17.8085,1.97473
637,365,17.8004,-1.54553,-0.000768335,0.0027598,0.00129831,0.00318606,-0.0011946,1.25356,0.00261484,0.0206073,1861,659,17.8004,1.54553
644,365,17.8127,-1.08173,-0.00226609,0.00299514,0.00111113,0.00322018,-0.00249113,1.37097,0.00330637,0.0177148,1868,659,17.8127,1.08175
651,365,18.0162,-0.481018,-0.00441787,0.00311075,0.000665606,0.00316914,-0.00447626,1.48329,0.00443553,0.0425494,1875,659,18.0162,0.481045
658,365,18.0656,0.203613,0,0,0,0,0,0,0,-1,1882,659,18.0655,-0.203612
665,365,14.0961,0.769043,0,0,0,0,0,0,0,-1,1889,659,14.0961,-0.769063
672,365,10.0579,2.15088,0,0,0,0,0,0,0,-1,1896,659,10.0579,-2.15088
679,365,10.9718,2.19208,0,0,0,0,0,0,0,-1,1903,659,10.9718,-2.19211
686,365,12.2134,2.17108,0,0,0,0,0,0,0,-1,1910,659,12.2134,-2.17109
693,365,13.7141,1.98279,0,0,0,0,0,0,0,-1,1917,659,13.7141,-1.98278
700,365,0,0,0,0,0,0,0,0,0,-1,1924,659,0,0
707,365,0,0,0,0,0,0,0,0,0,-1,1931,659,0,0
714,365,0,0,0,0,0,0,0,0,0,-1,1938,659,0,0
721,365,0,0,0,0,0,0,0,0,0,-1,1945,659,0,0
728,365,0,0,0,0,0,0,0,0,0,-1,1952,659,0,0
735,365,0,0,0,0,0,0,0,0,0,-1,1959,659,0,0
742,365,0,0,0,0,0,0,0,0,0,-1,1966,659,0,0
749,365,0,0,0,0,0,0,0,0,0,-1,1973,659,0,0
756,365,0,0,0,0,0,0,0,0,0,-1,1980,659,0,0
763,365,0,0,0,0,0,0,0,0,0,-1,1987,659,0,0
770,365,0,0,0,0,0,0,0,0,0,-1,1994,659,0,0
777,365,0,0,0,0,0,0,0,0,0,-1,2001,659,0,0
784,365,0,0,0,0,0,0,0,0,0,-1,2008,659,0,0
791,365,0,0,0,0,0,0,0,0,0,-1,2015,659,0,0
798,365,0,0,0,0,0,0,0,0,0,-1,2022,659,0,0
805,365,0,0,0,0,0,0,0,0,0,-1,2029,659,0,0
812,365,0,0,0,0,0,0,0,0,0,-1,2036,659,0,0
-700,358,0,0,0,0,0,0,0,0,0,-1,524,666,0,0
-693,358,0,0,0,0,0,0,0,0,0,-1,531,666,0,0
-686,358,0,0,0,0,0,0,0,0,0,-1,538,666,0,0
-679,358,0,0,0,0,0,0,0,0,0,-1,545,666,0,0
-672,358,0,0,0,0,0,0,0,0,0,-1,552,666,0,0
-665,358,0,0,0,0,0,0,0,0,0,-1,559,666,0,0
-658,358,0,0,0,0,0,0,0,0,0,-1,566,666,0,0
-651,358,0,0,0,0,0,0,0,0,0,-1,573,666,0,0
-644,358,0,0,0,0,0,0,0,0,0,-1,580,666,0,0
-637,358,0,0,0,0,0,0,0,0,0,-1,587,666,0,0
-630,358,0,0,0,0,0,0,0,0,0,-1,594,666,0,0
-623,358,0,0,0,0,0,0,0,0,0,-1,601,666,0,0
-616,358,0,0,0,0,0,0,0,0,0,-1,608,666,0,0
-609,358,0,0,0,0,0,0,0,0,0,-1,615,666,0,0
-602,358,0,0,0,0,0,0,0,0,0,-1,622,666,0,0
-595,358,0,0,0,0,0,0,0,0,0,-1,629,666,0,0
-588,358,0,0,0,0,0,0,0,0,0,-1,636,666,0,0
-581,358,-8.31616,1.61993,0,0,0,0,0,0,0,-1,643,666,-8.31614,-1.61993
-574,358,-8.22406,1.75385,0,0,0,0,0,0,0,-1,650,666,-8.22408,-1.75383
-567,358,-8.14215,1.91577,0,0,0,0,0,0,0,-1,657,666,-8.14214,-1.91579
-560,358,-10.6086,2.18872,0,0,0,0,0,0,0,-1,664,666,-10.6086,-2.18873
-553,358,-11.4076,1.29242,0,0,0,0,0,0,0,-1,671,666,-11.4076,-1.2924
-546,358,-10.853,-0.0476074,0,0,0,0,0,0,0,-1,678,666,-10.8529,0.0476344
-539,358,-9.43884,-2.04785,0,0,0,0,0,0,0,-1,685,666,-9.43884,2.04785
-532,358,-10.0586,-1.66266,0,0,0,0,0,0,0,-1,692,666,-10.0586,1.66266
-525,358,-10.0799,-2.54083,0,0,0,0,0,0,0,-1,699,666,-10.0799,2.54084
-518,358,-9.8645,-2.81885,0.00101028,0.00600658,-0.00418052,0.00837849,-0.00136163,-1.05471,0.00609049,0.0448827,706,666,-9.86449,2.81885
-511,358,-10.0494,-3.38367,0.000555625,0.00372612,-0.00247067,0.00507639,-0.00079464,-1.07063,0.00367786,0.0155696,713,666,-10.0494,3.3837
-504,358,-10.0621,-3.81921,0.00046189,0.00224333,-0.001429,0.00303648,-0.000331263,-1.06409,0.00214329,0.0113895,720,666,-10.0621,3.81922
-497,358,-10.0678,-4.28387,0.000637616,0.00116006,-0.000889046,0.00182547,-2.77894e-05,-0.928288,0.00122635,0.0115489,727,666,-10.0678,4.28388
-490,358,-10.0723,-4.71674,0.000907832,0.000579489,-0.000527043,0.00129568,0.00019164,-0.634413,0.000807523,0.0116076,734,666,-10.0724,4.71672
-483,358,-10.0907,-5.12396,0.00150257,0.00061101,-0.000691696,0.00187969,0.000233891,-0.499158,0.0011829,0.0113661,741,666,-10.0907,5.12396
-476,358,-10.0578,-5.52478,0.0022851,0.000945883,-0.00124191,0.00302642,0.000204562,-0.538151,0.001953,0.0128768,748,666,-10.0578,5.52476
-469,358,-10.079,-5.95166,0.00307385,0.00137903,-0.00186756,0.00427726,0.000175619,-0.572412,0.00279481,0.0152857,755,666,-10.079,5.95167
-462,358,-10.1124,-6.40533,0.00379813,0.00197972,-0.00255107,0.00559717,0.000180676,-0.614215,0.0036727,0.0172185,762,666,-10.1124,6.40531
-455,358,-10.0521,-6.86322,0.00427856,0.00248887,-0.0030311,0.00654414,0.000223284,-0.641864,0.00429027,0.0326406,769,666,-10.0521,6.86323
-448,358,-9.89771,-7.40125,0,0,0,0,0,0,0,-1,776,666,-9.89768,7.40124
-441,358,-5.56293,-3.98041,0,0,0,0,0,0,0,-1,783,666,-5.56291,3.98043
-434,358,-5.21558,-4.43127,0,0,0,0,0,0,0,-1,790,666,-5.21559,4.43125
-427,358,-3.56189,-3.15729,0,0,0,0,0,0,0,-1,797,666,-3.56192,3.15729
-420,358,0.200195,1.08234,0,0,0,0,0,0,0,-1,804,666,0.200174,-1.08231
-413,358,0.0325317,0.161072,0,0,0,0,0,0,0,-1,811,666,0.0325501,-0.161098
-406,358,-3.85846,0.753113,0,0,0,0,0,0,0,-1,818,666,-3.85846,-0.753129
-399,358,-1.31213,0.190735,0,0,0,0,0,0,0,-1,825,666,-1.31215,-0.190763
-392,358,-3.73914,-0.832214,0,0,0,0,0,0,0,-1,832,666,-3.73915,0.832202
-385,358,-5.95178,-1.69141,0,0,0,0,0,0,0,-1,839,666,-5.9518,1.69143
-378,358,0,0,0,0,0,0,0,0,0,-1,846,666,0,0
-371,358,0,0,0,0,0,0,0,0,0,-1,853,666,0,0
-364,358,0,0,0,0,0,0,0,0,0,-1,860,666,0,0
-357,358,0,0,0,0,0,0,0,0,0,-1,867,666,0,0
-350,358,0,0,0,0,0,0,0,0,0,-1,874,666,0,0
-343,358,0,0,0,0,0,0,0,0,0,-1,881,666,0,0
-336,358,0,0,0,0,0,0,0,0,0,-1,888,666,0,0
-329,358,0,0,0,0,0,0,0,0,0,-1,895,666,0,0
-322,358,0,0,0,0,0,0,0,0,0,-1,902,666,0,0
-315,358,0,0,0,0,0,0,0,0,0,-1,909,666,0,0
-308,358,0,0,0,0,0,0,0,0,0,-1,916,666,0,0
-301,358,0,0,0,0,0,0,0,0,0,-1,923,666,0,0
-294,358,0,0,0,0,0,0,0,0,0,-1,930,666,0,0
-287,358,0,0,0,0,0,0,0,0,0,-1,937,666,0,0
-280,358,0,0,0,0,0,0,0,0,0,-1,944,666,0,0
-273,358,0,0,0,0,0,0,0,0,0,-1,951,666,0,0
-266,358,0,0,0,0,0,0,0,0,0,-1,958,666,0,0
-259,358,0,0,0,0,0,0,0,0,0,-1,965,666,0,0
-252,358,0,0,0,0,0,0,0,0,0,-1,972,666,0,0
-245,358,0,0,0,0,0,0,0,0,0,-1,979,666,0,0
-238,358,0,0,0,0,0,0,0,0,0,-1,986,666,0,0
-231,358,0,0,0,0,0,0,0,0,0,-1,993,666,0,0
-224,358,0,0,0,0,0,0,0,0,0,-1,1000,666,0,0
-217,358,0,0,0,0,0,0,0,0,0,-1,1007,666,0,0
-210,358,0,0,0,0,0,0,0,0,0,-1,1014,666,0,0
-203,358,0,0,0,0,0,0,0,0,0,-1,1021,666,0,0
-196,358,0,0,0,0,0,0,0,0,0,-1,1028,666,0,0
-189,358,0,0,0,0,0,0,0,0,0,-1,1035,666,0,0
-182,358,0,0,0,0,0,0,0,0,0,-1,1042,666,0,0
-175,358,0,0,0,0,0,0,0,0,0,-1,1049,666,0,0
-168,358,0,0,0,0,0,0,0,0,0,-1,1056,666,0,0
-161,358,0,0,0,0,0,0,0,0,0,-1,1063,666,0,0
-154,358,0,0,0,0,0,0,0,0,0,-1,1070,666,0,0
-147,358,0,0,0,0,0,0,0,0,0,-1,1077,666,0,0
-140,358,0,0,0,0,0,0,0,0,0,-1,1084,666,0,0
-133,358,0,0,0,0,0,0,0,0,0,-1,1091,666,0,0
-126,358,0,0,0,0,0,0,0,0,0,-1,1098,666,0,0
-119,358,0,0,0,0,0,0,0,0,0,-1,1105,666,0,0
-112,358,0,0,0,0,0,0,0,0,0,-1,1112,666,0,0
-105,358,0,0,0,0,0,0,0,0,0,-1,1119,666,0,0
-98,358,0,0,0,0,0,0,0,0,0,-1,1126,666,0,0
-91,358,0,0,0,0,0,0,0,0,0,-1,1133,666,0,0
-84,358,0,0,0,0,0,0,0,0,0,-1,1140,666,0,0
-77,358,0,0,0,0,0,0,0,0,0,-1,1147,666,0,0
-70,358,0,0,0,0,0,0,0,0,0,-1,1154,666,0,0
-63,358,0,0,0,0,0,0,0,0,0,-1,1161,666,0,0
-56,358,0,0,0,0,0,0,0,0,0,-1,1168,666,0,0
-49,358,0,0,0,0,0,0,0,0,0,-1,1175,666,0,0
-42,358,0,0,0,0,0,0,0,0,0,-1,1182,666,0,0
-35,358,0,0,0,0,0,0,0,0,0,-1,1189,666,0,0
-28,358,0,0,0,0,0,0,0,0,0,-1,1196,666,0,0
-21,358,0,0,0,0,0,0,0,0,0,-1,1203,666,0,0
-14,358,0,0,0,0,0,0,0,0,0,-1,1210,666,0,0
-7,358,0,0,0,0,0,0,0,0,0,-1,1217,666,0,0
0,358,0,0,0,0,0,0,0,0,0,-1,1224,666,0,0
7,358,0,0,0,0,0,0,0,0,0,-1,1231,666,0,0
14,358,0,0,0,0,0,0,0,0,0,-1,1238,666,0,0
21,358,0,0,0,0,0,0,0,0,0,-1,1245,666,0,0
28,358,0,0,0,0,0,0,0,0,0,-1,1252,666,0,0
35,358,0,0,0,0,0,0,0,0,0,-1,1259,666,0,0
42,358,0,0,0,0,0,0,0,0,0,-1,1266,666,0,0
49,358,0,0,0,0,0,0,0,0,0,-1,1273,666,0,0
56,358,0,0,0,0,0,0,0,0,0,-1,1280,666,0,0
63,358,0,0,0,0,0,0,0,0,0,-1,1287,666,0,0
70,358,0,0,0,0,0,0,0,0,0,-1,1294,666,0,0
77,358,0,0,0,0,0,0,0,0,0,-1,1301,666,0,0
84,358,0,0,0,0,0,0,0,0,0,-1,1308,666,0,0
91,358,0,0,0,0,0,0,0,0,0,-1,1315,666,0,0
98,358,0,0,0,0,0,0,0,0,0,-1,1322,666,0,0
105,358,0,0,0,0,0,0,0,0,0,-1,1329,666,0,0
112,358,0,0,0,0,0,0,0,0,0,-1,1336,666,0,0
119,358,0,0,0,0,0,0,0,0,0,-1,1343,666,0,0
126,358,0,0,0,0,0,0,0,0,0,-1,1350,666,0,0
133,358,0,0,0,0,0,0,0,0,0,-1,1357,666,0,0
140,358,0,0,0,0,0,0,0,0,0,-1,1364,666,0,0
147,358,0,0,0,0,0,0,0,0,0,-1,1371,666,0,0
154,358,0,0,0,0,0,0,0,0,0,-1,1378,666,0,0
161,358,0,0,0,0,0,0,0,0,0,-1,1385,666,0,0
168,358,0,0,0,0,0,0,0,0,0,-1,1392,666,0,0
175,358,0,0,0,0,0,0,0,0,0,-1,1399,666,0,0
182,358,0,0,0,0,0,0,0,0,0,-1,1406,666,0,0
189,358,0,0,0,0,0,0,0,0,0,-1,1413,666,0,0
196,358,0,0,0,0,0,0,0,0,0,-1,1420,666,0,0
203,358,0,0,0,0,0,0,0,0,0,-1,1427,666,0,0
210,358,0,0,0,0,0,0,0,0,0,-1,1434,666,0,0
217,358,0,0,0,0,0,0,0,0,0,-1,1441,666,0,0
224,358,0,0,0,0,0,0,0,0,0,-1,1448,666,0,0
231,358,0,0,0,0,0,0,0,0,0,-1,1455,666,0,0
238,358,0,0,0,0,0,0,0,0,0,-1,1462,666,0,0
245,358,0,0,0,0,0,0,0,0,0,-1,1469,666,0,0
252,358,0,0,0,0,0,0,0,0,0,-1,1476,666,0,0
259,358,0,0,0,0,0,0,0,0,0,-1,1483,666,0,0
266,358,0,0,0,0,0,0,0,0,0,-1,1490,666,0,0
273,358,0,0,0,0,0,0,0,0,0,-1,1497,666,0,0
280,358,0,0,0,0,0,0,0,0,0,-1,1504,666,0,0
287,358,0,0,0,0,0,0,0,0,0,-1,1511,666,0,0
294,358,0,0,0,0,0,0,0,0,0,-1,1518,666,0,0
301,358,0,0,0,0,0,0,0,0,0,-1,1525,666,0,0
308,358,0,0,0,0,0,0,0,0,0,-1,1532,666,0,0
315,358,0,0,0,0,0,0,0,0,0,-1,1539,666,0,0
322,358,0,0,0,0,0,0,0,0,0,-1,1546,666,0,0
329,358,0,0,0,0,0,0,0,0,0,-1,1553,666,0,0
336,358,0,0,0,0,0,0,0,0,0,-1,1560,666,0,0
343,358,0,0,0,0,0,0,0,0,0,-1,1567,666,0,0
350,358,0,0,0,0,0,0,0,0,0,-1,1574,666,0,0
357,358,0,0,0,0,0,0,0,0,0,-1,1581,666,0,0
364,358,0,0,0,0,0,0,0,0,0,-1,1588,666,0,0
371,358,0,0,0,0,0,0,0,0,0,-1,1595,666,0,0
378,358,0,0,0,0,0,0,0,0,0,-1,1602,666,0,0
385,358,0,0,0,0,0,0,0,0,0,-1,1609,666,0,0
392,358,0,0,0,0,0,0,0,0,0,-1,1616,666,0,0
399,358,0,0,0,0,0,0,0,0,0,-1,1623,666,0,0
406,358,0,0,0,0,0,0,0,0,0,-1,1630,666,0,0
413,358,0,0,0,0,0,0,0,0,0,-1,1637,666,0,0
420,358,0,0,0,0,0,0,0,0,0,-1,1644,666,0,0
427,358,0,0,0,0,0,0,0,0,0,-1,1651,666,0,0
434,358,0,0,0,0,0,0,0,0,0,-1,1658,666,0,0
441,358,0,0,0,0,0,0,0,0,0,-1,1665,666,0,0
448,358,0,0,0,0,0,0,0,0,0,-1,1672,666,0,0
455,358,0,0,0,0,0,0,0,0,0,-1,1679,666,0,0
462,358,0,0,0,0,0,0,0,0,0,-1,1686,666,0,0
469,358,0,0,0,0,0,0,0,0,0,-1,1693,666,0,0
476,358,0,0,0,0,0,0,0,0,0,-1,1700,666,0,0
483,358,0,0,0,0,0,0,0,0,0,-1,1707,666,0,0
490,358,0,0,0,0,0,0,0,0,0,-1,1714,666,0,0
497,358,8.57239,1.1322,0,0,0,0,0,0,0,-1,1721,666,8.57234,-1.13219
504,358,10.5972,0.832947,0,0,0,0,0,0,0,-1,1728,666,10.5972,-0.832968
511,358,10.6873,0.868469,0,0,0,0,0,0,0,-1,1735,666,10.6872,-0.868484
518,358,16.5884,2.34894,0,0,0,0,0,0,0,-1,1742,666,16.5884,-2.34894
525,358,15.7626,3.65344,0,0,0,0,0,0,0,-1,1749,666,15.7626,-3.65342
532,358,14.9368,4.95789,0,0,0,0,0,0,0,-1,1756,666,14.9367,-4.9579
539,358,15.1597,3.42694,0,0,0,0,0,0,0,-1,1763,666,15.1597,-3.42692
546,358,12.3792,1.53558,0,0,0,0,0,0,0,-1,1770,666,12.3792,-1.5356
553,358,11.6584,1.26172,0,0,0,0,0,0,0,-1,1777,666,11.6585,-1.26175
560,358,10.8234,1.43042,0,0,0,0,0,0,0,-1,1784,666,10.8233,-1.43041
567,358,10.1333,-0.955139,0,0,0,0,0,0,0,-1,1791,666,10.1333,0.955132
574,358,14.7886,-2.69293,0,0,0,0,0,0,0,-1,1798,666,14.7885,2.6929
581,358,18.1095,-5.38092,0,0,0,0,0,0,0,-1,1805,666,18.1095,5.38093
588,358,18.1899,-4.8396,-0.000942588,0.001543,-0.000595243,0.00167819,-0.00107778,-1.34746,0.0016037,0.037941,1812,666,18.1899,4.8396
595,358,18.3019,-4.25842,-0.000134907,0.00138201,-0.000116157,0.00139085,-0.00014375,-1.49481,0.000978677,0.013452,1819,666,18.3019,4.25843
602,358,18.2886,-3.78082,0.000556334,0.00135615,0.00030797,0.00146099,0.000451492,1.24267,0.000863767,0.0126012,1826,666,18.2885,3.78081
609,358,18.2604,-3.32507,0.000989312,0.00149495,0.000684278,0.00197162,0.00051264,0.962353,0.00118121,0.0165396,1833,666,18.2603,3.32509
616,358,18.2441,-2.8689,0.00118954,0.00165362,0.000979115,0.00242782,0.000415349,0.901746,0.0014994,0.0152926,1840,666,18.2441,2.86892
623,358,18.274,-2.42273,0.000874122,0.00178516,0.00105236,0.00247636,0.000182929,0.989652,0.00159343,0.0137109,1847,666,18.2741,2.42275
630,358,18.2573,-1.98578,9.26384e-05,0.00192589,0.000977986,0.00234966,-0.00033113,1.16191,0.00168768,0.0179323,1854,666,18.2573,1.98578
637,358,18.2236,-1.56512,-0.00107268,0.00200382,0.000801385,0.00220005,-0.00126891,1.33065,0.00202672,0.0248898,1861,666,18.2236,1.56515
644,358,18.2366,-1.11963,-0.00276368,0.00217561,0.000487829,0.00222333,-0.0028114,1.47329,0.0029134,0.0195574,1868,666,18.2366,1.11961
651,358,18.3339,-0.55481,-0.00501237,0.00222841,-2.10023e-05,0.00222847,-0.00501243,-1.5679,0.00428229,0.027662,1875,666,18.3339,0.554803
658,358,17.9445,-0.150391,-0.00821004,0.00206917,-0.000995715,0.00216473,-0.0083056,-1.47511,0.00638222,0.0472526,1882,666,17.9445,0.150374
665,358,17.2709,0.179138,0,0,0,0,0,0,0,-1,1889,666,17.2709,-0.179138
672,358,12.4299,1.47272,0,0,0,0,0,0,0,-1,1896,666,12.4299,-1.4727
679,358,12.1294,2.19702,0,0,0,0,0,0,0,-1,1903,666,12.1294,-2.19703
686,358,11.9557,2.2002,0,0,0,0,0,0,0,-1,1910,666,11.9557,-2.20021
693,358,13.188,2.52203,0,0,0,0,0,0,0,-1,1917,666,13.188,-2.52202
700,358,0,0,0,0,0,0,0,0,0,-1,1924,666,0,0
707,358,0,0,0,0,0,0,0,0,0,-1,1931,666,0,0
714,358,0,0,0,0,0,0,0,0,0,-1,1938,666,0,0
721,358,0,0,0,0,0,0,0,0,0,-1,1945,666,0,0
728,358,0,0,0,0,0,0,0,0,0,-1,1952,666,0,0
735,358,0,0,0,0,0,0,0,0,0,-1,1959,666,0,0
742,358,0,0,0,0,0,0,0,0,0,-1,1966,666,0,0
749,358,0,0,0,0,0,0,0,0,0,-1,1973,666,0,0
756,358,0,0,0,0,0,0,0,0,0,-1,1980,666,0,0
763,358,0,0,0,0,0,0,0,0,0,-1,1987,666,0,0
770,358,0,0,0,0,0,0,0,0,0,-1,1994,666,0,0
777,358,0,0,0,0,0,0,0,0,0,-1,2001,666,0,0
784,358,0,0,0,0,0,0,0,0,0,-1,2008,666,0,0
791,358,0,0,0,0,0,0,0,0,0,-1,2015,666,0,0
798,358,0,0,0,0,0,0,0,0,0,-1,2022,666,0,0
805,358,0,0,0,0,0,0,0,0,0,-1,2029,666,0,0
812,358,0,0,0,0,0,0,0,0,0,-1,2036,666,0,0
-700,351,0,0,0,0,0,0,0,0,0,-1,524,673,0,0
-693,351,0,0,0,0,0,0,0,0,0,-1,531,673,0,0
-686,351,0,0,0,0,0,0,0,0,0,-1,538,673,0,0
-679,351,0,0,0,0,0,0,0,0,0,-1,545,673,0,0
-672,351,0,0,0,0,0,0,0,0,0,-1,552,673,0,0
-665,351,0,0,0,0,0,0,0,0,0,-1,559,673,0,0
-658,351,0,0,0,0,0,0,0,0,0,-1,566,673,0,0
-651,351,0,0,0,0,0,0,0,0,0,-1,573,673,0,0
-644,351,0,0,0,0,0,0,0,0,0,-1,580,673,0,0
-637,351,0,0,0,0,0,0,0,0,0,-1,587,673,0,0
-630,351,0,0,0,0,0,0,0,0,0,-1,594,673,0,0
-623,351,0,0,0,0,0,0,0,0,0,-1,601,673,0,0
-616,351,0,0,0,0,0,0,0,0,0,-1,608,673,0,0
-609,351,0,0,0,0,0,0,0,0,0,-1,615,673,0,0
-602,351,0,0,0,0,0,0,0,0,0,-1,622,673,0,0
-595,351,0,0,0,0,0,0,0,0,0,-1,629,673,0,0
-588,351,0,0,0,0,0,0,0,0,0,-1,636,673,0,0
-581,351,-9.0647,1.71906,0,0,0,0,0,0,0,-1,643,673,-9.06472,-1.71908
-574,351,-8.23584,2.64764,0,0,0,0,0,0,0,-1,650,673,-8.23584,-2.64764
-567,351,-10.8027,4.56836,0,0,0,0,0,0,0,-1,657,673,-10.8027,-4.56839
-560,351,-12.4202,2.23651,0,0,0,0,0,0,0,-1,664,673,-12.4202,-2.23653
-553,351,-11.5964,0.870117,0,0,0,0,0,0,0,-1,671,673,-11.5964,-0.87012
-546,351,-11.0313,-0.3172,0,0,0,0,0,0,0,-1,678,673,-11.0313,0.317174
-539,351,-10.3824,-0.971985,0,0,0,0,0,0,0,-1,685,673,-10.3824,0.971957
-532,351,-10.3411,-1.93451,0,0,0,0,0,0,0,-1,692,673,-10.3411,1.93453
-525,351,-10.4068,-2.61041,0.00200855,0.00896471,-0.00628046,0.0126659,-0.00169259,-1.03827,0.00906095,0.0360278,699,673,-10.4068,2.61041
-518,351,-10.4817,-2.89551,0.001124,0.00586402,-0.00400288,0.00814589,-0.00115787,-1.05268,0.00585484,0.0152072,706,673,-10.4817,2.89552
-511,351,-10.4681,-3.35388,0.000703777,0.00368918,-0.00244398,0.00506025,-0.000667293,-1.05955,0.00361651,0.0111535,713,673,-10.4682,3.35387
-504,351,-10.4889,-3.81421,0.000633502,0.0022163,-0.00145074,0.00307746,-0.000227659,-1.03509,0.00213158,0.0107655,720,673,-10.4889,3.81421
-497,351,-10.4935,-4.24445,0.000843868,0.00113943,-0.000932397,0.00193569,4.76154e-05,-0.863994,0.00127488,0.0102643,727,673,-10.4935,4.24446
-490,351,-10.5001,-4.67194,0.00118626,0.000597534,-0.000630203,0.00158746,0.000196335,-0.56691,0.000999309,0.00964741,734,673,-10.5,4.67194
-483,351,-10.5088,-5.09137,0.00185531,0.00066008,-0.000849668,0.00229649,0.000218908,-0.478912,0.00146349,0.0119937,741,673,-10.5088,5.09137
-476,351,-10.5222,-5.51544,0.00269556,0.00101884,-0.00141845,0.00350487,0.00020952,-0.518495,0.00226997,0.0116697,748,673,-10.5222,5.51547
-469,351,-10.5209,-5.92615,0.00357593,0.00148467,-0.0020808,0.00485905,0.000201554,-0.55257,0.00317431,0.0135418,755,673,-10.5209,5.92616
-462,351,-10.5233,-6.40057,0.00442248,0.00228943,-0.00288343,0.00643031,0.000281607,-0.608261,0.00419616,0.0240655,762,673,-10.5233,6.40056
-455,351,-10.3463,-6.95691,0,0,0,0,0,0,0,-1,769,673,-10.3463,6.95691
-448,351,-6.61456,-4.38654,0,0,0,0,0,0,0,-1,776,673,-6.61456,4.38654
-441,351,-4.31567,-2.3009,0,0,0,0,0,0,0,-1,783,673,-4.31565,2.30089
-434,351,-3.81708,-2.28003,0,0,0,0,0,0,0,-1,790,673,-3.81706,2.28006
-427,351,-2.05157,-2.7785,0,0,0,0,0,0,0,-1,797,673,-2.05157,2.77848
-420,351,-1.06989,-2.43665,0,0,0,0,0,0,0,-1,804,673,-1.06991,2.43663
-413,351,-0.392334,-2.06671,0,0,0,0,0,0,0,-1,811,673,-0.392363,2.06672
-406,351,-1.86316,-2.58105,0,0,0,0,0,0,0,-1,818,673,-1.86313,2.58106
-399,351,1.00952,-1.53455,0,0,0,0,0,0,0,-1,825,673,1.00954,1.53457
-392,351,-1.02197,0.877136,0,0,0,0,0,0,0,-1,832,673,-1.02195,-0.877143
-385,351,-1.47205,1.04437,0,0,0,0,0,0,0,-1,839,673,-1.47207,-1.04435
-378,351,0,0,0,0,0,0,0,0,0,-1,846,673,0,0
-371,351,0,0,0,0,0,0,0,0,0,-1,853,673,0,0
-364,351,0,0,0,0,0,0,0,0,0,-1,860,673,0,0
-357,351,0,0,0,0,0,0,0,0,0,-1,867,673,0,0
-350,351,0,0,0,0,0,0,0,0,0,-1,874,673,0,0
-343,351,0,0,0,0,0,0,0,0,0,-1,881,673,0,0
-336,351,0,0,0,0,0,0,0,0,0,-1,888,673,0,0
-329,351,0,0,0,0,0,0,0,0,0,-1,895,673,0,0
-322,351,0,0,0,0,0,0,0,0,0,-1,902,673,0,0
-315,351,0,0,0,0,0,0,0,0,0,-1,909,673,0,0
-308,351,0,0,0,0,0,0,0,0,0,-1,916,673,0,0
-301,351,0,0,0,0,0,0,0,0,0,-1,923,673,0,0
-294,351,0,0,0,0,0,0,0,0,0,-1,930,673,0,0
-287,351,0,0,0,0,0,0,0,0,0,-1,937,673,0,0
-280,351,0,0,0,0,0,0,0,0,0,-1,944,673,0,0
-273,351,0,0,0,0,0,0,0,0,0,-1,951,673,0,0
-266,351,0,0,0,0,0,0,0,0,0,-1,958,673,0,0
-259,351,0,0,0,0,0,0,0,0,0,-1,965,673,0,0
-252,351,0,0,0,0,0,0,0,0,0,-1,972,673,0,0
-245,351,0,0,0,0,0,0,0,0,0,-1,979,673,0,0
-238,351,0,0,0,0,0,0,0,0,0,-1,986,673,0,0
-231,351,0,0,0,0,0,0,0,0,0,-1,993,673,0,0
-224,351,0,0,0,0,0,0,0,0,0,-1,1000,673,0,0
-217,351,0,0,0,0,0,0,0,0,0,-1,1007,673,0,0
-210,351,0,0,0,0,0,0,0,0,0,-1,1014,673,0,0
-203,351,0,0,0,0,0,0,0,0,0,-1,1021,673,0,0
-196,351,0,0,0,0,0,0,0,0,0,-1,1028,673,0,0
-189,351,0,0,0,0,0,0,0,0,0,-1,1035,673,0,0
-182,351,0,0,0,0,0,0,0,0,0,-1,1042,673,0,0
-175,351,0,0,0,0,0,0,0,0,0,-1,1049,673,0,0
-168,351,0,0,0,0,0,0,0,0,0,-1,1056,673,0,0
-161,351,0,0,0,0,0,0,0,0,0,-1,1063,673,0,0
-154,351,0,0,0,0,0,0,0,0,0,-1,1070,673,0,0
-147,351,0,0,0,0,0,0,0,0,0,-1,1077,673,0,0
-140,351,0,0,0,0,0,0,0,0,0,-1,1084,673,0,0
-133,351,0,0,0,0,0,0,0,0,0,-1,1091,673,0,0
-126,351,0,0,0,0,0,0,0,0,0,-1,1098,673,0,0
-119,351,0,0,0,0,0,0,0,0,0,-1,1105,673,0,0
-112,351,0,0,0,0,0,0,0,0,0,-1,1112,673,0,0
-105,351,0,0,0,0,0,0,0,0,0,-1,1119,673,0,0
-98,351,0,0,0,0,0,0,0,0,0,-1,1126,673,0,0
-91,351,0,0,0,0,0,0,0,0,0,-1,1133,673,0,0
-84,351,0,0,0,0,0,0,0,0,0,-1,1140,673,0,0
-77,351,0,0,0,0,0,0,0,0,0,-1,1147,673,0,0
-70,351,0,0,0,0,0,0,0,0,0,-1,1154,673,0,0
-63,351,0,0,0,0,0,0,0,0,0,-1,1161,673,0,0
-56,351,0,0,0,0,0,0,0,0,0,-1,1168,673,0,0
-49,351,0,0,0,0,0,0,0,0,0,-1,1175,673,0,0
-42,351,0,0,0,0,0,0,0,0,0,-1,1182,673,0,0
-35,351,0,0,0,0,0,0,0,0,0,-1,1189,673,0,0
-28,351,0,0,0,0,0,0,0,0,0,-1,1196,673,0,0
-21,351,0,0,0,0,0,0,0,0,0,-1,1203,673,0,0
-14,351,0,0,0,0,0,0,0,0,0,-1,1210,673,0,0
-7,351,0,0,0,0,0,0,0,0,0,-1,1217,673,0,0
0,351,0,0,0,0,0,0,0,0,0,-1,1224,673,0,0
7,351,0,0,0,0,0,0,0,0,0,-1,1231,673,0,0
14,351,0,0,0,0,0,0,0,0,0,-1,1238,673,0,0
21,351,0,0,0,0,0,0,0,0,0,-1,1245,673,0,0
28,351,0,0,0,0,0,0,0,0,0,-1,1252,673,0,0
35,351,0,0,0,0,0,0,0,0,0,-1,1259,673,0,0
42,351,0,0,0,0,0,0,0,0,0,-1,1266,673,0,0
49,351,0,0,0,0,0,0,0,0,0,-1,1273,673,0,0
56,351,0,0,0,0,0,0,0,0,0,-1,1280,673,0,0
63,351,0,0,0,0,0,0,0,0,0,-1,1287,673,0,0
70,351,0,0,0,0,0,0,0,0,0,-1,1294,673,0,0
77,351,0,0,0,0,0,0,0,0,0,-1,1301,673,0,0
84,351,0,0,0,0,0,0,0,0,0,-1,1308,673,0,0
91,351,0,0,0,0,0,0,0,0,0,-1,1315,673,0,0
98,351,0,0,0,0,0,0,0,0,0,-1,1322,673,0,0
105,351,0,0,0,0,0,0,0,0,0,-1,1329,673,0,0
112,351,0,0,0,0,0,0,0,0,0,-1,1336,673,0,0
119,351,0,0,0,0,0,0,0,0,0,-1,1343,673,0,0
126,351,0,0,0,0,0,0,0,0,0,-1,1350,673,0,0
133,351,0,0,0,0,0,0,0,0,0,-1,1357,673,0,0
140,351,0,0,0,0,0,0,0,0,0,-1,1364,673,0,0
147,351,0,0,0,0,0,0,0,0,0,-1,1371,673,0,0
154,351,0,0,0,0,0,0,0,0,0,-1,1378,673,0,0
161,351,0,0,0,0,0,0,0,0,0,-1,1385,673,0,0
168,351,0,0,0,0,0,0,0,0,0,-1,1392,673,0,0
175,351,0,0,0,0,0,0,0,0,0,-1,1399,673,0,0
182,351,0,0,0,0,0,0,0,0,0,-1,1406,673,0,0
189,351,0,0,0,0,0,0,0,0,0,-1,1413,673,0,0
196,351,0,0,0,0,0,0,0,0,0,-1,1420,673,0,0
203,351,0,0,0,0,0,0,0,0,0,-1,1427,673,0,0
210,351,0,0,0,0,0,0,0,0,0,-1,1434,673,0,0
217,351,0,0,0,0,0,0,0,0,0,-1,1441,673,0,0
224,351,0,0,0,0,0,0,0,0,0,-1,1448,673,0,0
231,351,0,0,0,0,0,0,0,0,0,-1,1455,673,0,0
238,351,0,0,0,0,0,0,0,0,0,-1,1462,673,0,0
245,351,0,0,0,0,0,0,0,0,0,-1,1469,673,0,0
252,351,0,0,0,0,0,0,0,0,0,-1,1476,673,0,0
259,351,0,0,0,0,0,0,0,0,0,-1,1483,673,0,0
266,351,0,0,0,0,0,0,0,0,0,-1,1490,673,0,0
273,351,0,0,0,0,0,0,0,0,0,-1,1497,673,0,0
280,351,0,0,0,0,0,0,0,0,0,-1,1504,673,0,0
287,351,0,0,0,0,0,0,0,0,0,-1,1511,673,0,0
294,351,0,0,0,0,0,0,0,0,0,-1,1518,673,0,0
301,351,0,0,0,0,0,0,0,0,0,-1,1525,673,0,0
308,351,0,0,0,0,0,0,0,0,0,-1,1532,673,0,0
315,351,0,0,0,0,0,0,0,0,0,-1,1539,673,0,0
322,351,0,0,0,0,0,0,0,0,0,-1,1546,673,0,0
329,351,0,0,0,0,0,0,0,0,0,-1,1553,673,0,0
336,351,0,0,0,0,0,0,0,0,0,-1,1560,673,0,0
343,351,0,0,0,0,0,0,0,0,0,-1,1567,673,0,0
350,351,0,0,0,0,0,0,0,0,0,-1,1574,673,0,0
357,351,0,0,0,0,0,0,0,0,0,-1,1581,673,0,0
364,351,0,0,0,0,0,0,0,0,0,-1,1588,673,0,0
371,351,0,0,0,0,0,0,0,0,0,-1,1595,673,0,0
378,351,0,0,0,0,0,0,0,0,0,-1,1602,673,0,0
385,351,0,0,0,0,0,0,0,0,0,-1,1609,673,0,0
392,351,0,0,0,0,0,0,0,0,0,-1,1616,673,0,0
399,351,0,0,0,0,0,0,0,0,0,-1,1623,673,0,0
406,351,0,0,0,0,0,0,0,0,0,-1,1630,673,0,0
413,351,0,0,0,0,0,0,0,0,0,-1,1637,673,0,0
420,351,0,0,0,0,0,0,0,0,0,-1,1644,673,0,0
427,351,0,0,0,0,0,0,0,0,0,-1,1651,673,0,0
434,351,0,0,0,0,0,0,0,0,0,-1,1658,673,0,0
441,351,0,0,0,0,0,0,0,0,0,-1,1665,673,0,0
448,351,0,0,0,0,0,0,0,0,0,-1,1672,673,0,0
455,351,0,0,0,0,0,0,0,0,0,-1,1679,673,0,0
462,351,0,0,0,0,0,0,0,0,0,-1,1686,673,0,0
469,351,0,0,0,0,0,0,0,0,0,-1,1693,673,0,0
476,351,0,0,0,0,0,0,0,0,0,-1,1700,673,0,0
483,351,0,0,0,0,0,0,0,0,0,-1,1707,673,0,0
490,351,0,0,0,0,0,0,0,0,0,-1,1714,673,0,0
497,351,0,0,0,0,0,0,0,0,0,-1,1721,673,0,0
504,351,10.8842,1.61615,0,0,0,0,0,0,0,-1,1728,673,10.8842,-1.61618
511,351,15.4548,0.0236816,0,0,0,0,0,0,0,-1,1735,673,15.4549,-0.0236664
518,351,16.7448,2.49268,0,0,0,0,0,0,0,-1,1742,673,16.7448,-2.49269
525,351,16.0701,3.43225,0,0,0,0,0,0,0,-1,1749,673,16.07,-3.43227
532,351,32.3822,3.03021,0,0,0,0,0,0,0,-1,1756,673,32.3822,-3.03019
539,351,15.3387,3.54486,0,0,0,0,0,0,0,-1,1763,673,15.3387,-3.54485
546,351,13.9387,4.59357,0,0,0,0,0,0,0,-1,1770,673,13.9388,-4.59359
553,351,12.0682,2.02832,0,0,0,0,0,0,0,-1,1777,673,12.0683,-2.02831
560,351,12.0173,0.55304,0,0,0,0,0,0,0,-1,1784,673,12.0174,-0.553028
567,351,10.7827,0.130188,0,0,0,0,0,0,0,-1,1791,673,10.7827,-0.130183
574,351,13.405,-1.09204,0,0,0,0,0,0,0,-1,1798,673,13.405,1.09207
581,351,15.2351,-3.06049,0,0,0,0,0,0,0,-1,1805,673,15.2351,3.06046
588,351,18.5178,-4.9256,0,0,0,0,0,0,0,-1,1812,673,18.5178,4.92558
595,351,18.7128,-4.33282,-0.000547371,0.00329499,-0.000428035,0.0033421,-0.000594476,-1.46119,0.00245038,0.0307653,1819,673,18.7128,4.33283
602,351,18.7667,-3.7973,0.000290851,0.00209266,8.85848e-05,0.00209701,0.000286506,1.52179,0.00131296,0.0172181,1826,673,18.7667,3.79731
609,351,18.7723,-3.35559,0.00095697,0.00148034,0.000594854,0.00186852,0.000568786,0.992615,0.00110597,0.0169517,1833,673,18.7724,3.35561
616,351,18.7308,-2.87958,0.00129232,0.00137328,0.000901879,0.00223559,0.000430012,0.807825,0.00136974,0.014179,1840,673,18.7308,2.87957
623,351,18.7389,-2.42816,0.000915296,0.00139583,0.000875266,0.00206321,0.000247917,0.919351,0.00130073,0.0152537,1847,673,18.7389,2.42817
630,351,18.7391,-2.02393,8.75598e-05,0.00143026,0.000714888,0.00173961,-0.000221792,1.1624,0.0012403,0.0253171,1854,673,18.7392,2.0239
637,351,18.7169,-1.56189,-0.00111647,0.0013951,0.000467691,0.00147937,-0.00120074,1.39254,0.00155014,0.029381,1861,673,18.717,1.56192
644,351,18.673,-1.09485,-0.00286307,0.00154118,6.5021e-05,0.00154214,-0.00286403,1.55604,0.00258178,0.0213472,1868,673,18.6729,1.09488
651,351,18.6774,-0.574341,-0.00506963,0.00158619,-0.000465885,0.00161864,-0.00510208,-1.50125,0.00405022,0.0161787,1875,673,18.6773,0.574334
658,351,18.6494,-0.0894775,-0.00804773,0.00155175,-0.00131116,0.00172762,-0.0082236,-1.43746,0.00613983,0.0314416,1882,673,18.6495,0.0894708
665,351,18.2284,0.1297,-0.0119078,0.00148934,-0.00233696,0.00188529,-0.0123037,-1.40296,0.00889775,0.0402783,1889,673,18.2284,-0.1297
672,351,17.967,0.561584,0,0,0,0,0,0,0,-1,1896,673,17.9671,-0.561597
679,351,14.1252,1.85681,0,0,0,0,0,0,0,-1,1903,673,14.1253,-1.85682
686,351,13.0294,2.1189,0,0,0,0,0,0,0,-1,1910,673,13.0294,-2.11892
693,351,13.5187,2.34595,0,0,0,0,0,0,0,-1,1917,673,13.5187,-2.34596
700,351,14.5629,-2.40173,0,0,0,0,0,0,0,-1,1924,673,14.5629,2.40172
707,351,0,0,0,0,0,0,0,0,0,-1,1931,673,0,0
714,351,0,0,0,0,0,0,0,0,0,-1,1938,673,0,0
721,351,0,0,0,0,0,0,0,0,0,-1,1945,673,0,0
728,351,0,0,0,0,0,0,0,0,0,-1,1952,673,0,0
735,351,0,0,0,0,0,0,0,0,0,-1,1959,673,0,0
742,351,0,0,0,0,0,0,0,0,0,-1,1966,673,0,0
749,351,0,0,0,0,0,0,0,0,0,-1,1973,673,0,0
756,351,0,0,0,0,0,0,0,0,0,-1,1980,673,0,0
763,351,0,0,0,0,0,0,0,0,0,-1,1987,673,0,0
770,351,0,0,0,0,0,0,0,0,0,-1,1994,673,0,0
777,351,0,0,0,0,0,0,0,0,0,-1,2001,673,0,0
784,351,0,0,0,0,0,0,0,0,0,-1,2008,673,0,0
791,351,0,0,0,0,0,0,0,0,0,-1,2015,673,0,0
798,351,0,0,0,0,0,0,0,0,0,-1,2022,673,0,0
805,351,0,0,0,0,0,0,0,0,0,-1,2029,673,0,0
812,351,0,0,0,0,0,0,0,0,0,-1,2036,673,0,0
-700,344,0,0,0,0,0,0,0,0,0,-1,524,680,0,0
-693,344,0,0,0,0,0,0,0,0,0,-1,531,680,0,0
-686,344,0,0,0,0,0,0,0,0,0,-1,538,680,0,0
-679,344,0,0,0,0,0,0,0,0,0,-1,545,680,0,0
-672,344,0,0,0,0,0,0,0,0,0,-1,552,680,0,0
-665,344,0,0,0,0,0,0,0,0,0,-1,559,680,0,0
-658,344,0,0,0,0,0,0,0,0,0,-1,566,680,0,0
-651,344,0,0,0,0,0,0,0,0,0,-1,573,680,0,0
-644,344,0,0,0,0,0,0,0,0,0,-1,580,680,0,0
-637,344,0,0,0,0,0,0,0,0,0,-1,587,680,0,0
-630,344,0,0,0,0,0,0,0,0,0,-1,594,680,0,0
-623,344,0,0,0,0,0,0,0,0,0,-1,601,680,0,0
-616,344,0,0,0,0,0,0,0,0,0,-1,608,680,0,0
-609,344,0,0,0,0,0,0,0,0,0,-1,615,680,0,0
-602,344,0,0,0,0,0,0,0,0,0,-1,622,680,0,0
-595,344,0,0,0,0,0,0,0,0,0,-1,629,680,0,0
-588,344,-9.27826,1.47302,0,0,0,0,0,0,0,-1,636,680,-9.27829,-1.473
-581,344,-10.0098,1.71753,0,0,0,0,0,0,0,-1,643,680,-10.0098,-1.7175
-574,344,-10.2208,3.04871,0,0,0,0,0,0,0,-1,650,680,-10.2208,-3.04869
-567,344,-10.5964,5.03223,0,0,0,0,0,0,0,-1,657,680,-10.5964,-5.03223
-560,344,-10.5164,3.14191,0,0,0,0,0,0,0,-1,664,680,-10.5164,-3.14189
-553,344,-11.3292,0.526611,0,0,0,0,0,0,0,-1,671,680,-11.3292,-0.526608
-546,344,-11.1794,-0.392334,0.00741119,0.0226723,-0.0154024,0.0322306,-0.00214717,-1.01538,0.0222374,0.0469027,678,680,-11.1794,0.392306
-539,344,-11.0421,-1.31024,0.00489673,0.0165085,-0.01119,0.0233091,-0.00190391,-1.0247,0.0162113,0.045739,685,680,-11.0421,1.31027
-532,344,-10.8661,-1.9707,0,0,0,0,0,0,0,-1,692,680,-10.8661,1.97069
-525,344,-10.938,-2.43512,0.00196948,0.0081446,-0.00542863,0.0113023,-0.0011882,-1.04396,0.00796053,0.0280435,699,680,-10.938,2.43515
-518,344,-10.9173,-2.91766,0.00122466,0.00533578,-0.00349811,0.00733757,-0.000777125,-1.05103,0.00517026,0.0198505,706,680,-10.9173,2.91764
-511,344,-10.9164,-3.35193,0.000858502,0.00330939,-0.00214349,0.00455301,-0.000385116,-1.04508,0.00317151,0.0171274,713,680,-10.9164,3.35191
-504,344,-10.925,-3.80829,0.000806793,0.00188191,-0.00125531,0.00270992,-2.12181e-05,-0.987698,0.00181373,0.0177591,720,680,-10.925,3.80831
-497,344,-10.9335,-4.24463,0.00103542,0.000853545,-0.00079449,0.00174416,0.000144805,-0.728416,0.00111764,0.0156806,727,680,-10.9335,4.24464
-490,344,-10.9568,-4.66968,0.00144581,0.000399624,-0.000615099,0.00173017,0.00011527,-0.433028,0.00111701,0.0135231,734,680,-10.9568,4.66967
-483,344,-10.9435,-5.07379,0.00216972,0.00051913,-0.000949582,0.00260252,8.63241e-05,-0.427655,0.00170697,0.0133906,741,680,-10.9435,5.07379
-476,344,-10.9464,-5.4986,0.00301931,0.000902362,-0.00155487,0.00384179,7.98831e-05,-0.486554,0.00253499,0.0139384,748,680,-10.9464,5.49858
-469,344,-10.9347,-5.95148,0.00396828,0.00140734,-0.00227475,0.00529819,7.74234e-05,-0.529049,0.0035066,0.0152433,755,680,-10.9347,5.95149
-462,344,-10.9174,-6.46454,0.00499077,0.00248712,-0.00325663,0.00722788,0.000250006,-0.601908,0.00473745,0.0436432,762,680,-10.9174,6.46455
-455,344,-10.7939,-6.89642,0,0,0,0,0,0,0,-1,769,680,-10.7939,6.89644
-448,344,-5.67657,-2.72864,0,0,0,0,0,0,0,-1,776,680,-5.6766,2.72863
-441,344,-5.09229,-2.34167,0,0,0,0,0,0,0,-1,783,680,-5.09229,2.34168
-434,344,-4.28778,-2.08807,0,0,0,0,0,0,0,-1,790,680,-4.28778,2.08809
-427,344,-3.06506,-1.45404,0,0,0,0,0,0,0,-1,797,680,-3.06505,1.45402
-420,344,-1.96582,-1.57574,0,0,0,0,0,0,0,-1,804,680,-1.96579,1.57574
-413,344,-0.817993,-1.4751,0,0,0,0,0,0,0,-1,811,680,-0.818017,1.47511
-406,344,-0.00714111,-1.25189,0,0,0,0,0,0,0,-1,818,680,-0.00714956,1.25191
-399,344,0.240051,-1.75769,0,0,0,0,0,0,0,-1,825,680,0.240079,1.75767
-392,344,1.11353,-2.05615,0,0,0,0,0,0,0,-1,832,680,1.11351,2.05616
-385,344,0,0,0,0,0,0,0,0,0,-1,839,680,0,0
-378,344,0,0,0,0,0,0,0,0,0,-1,846,680,0,0
-371,344,0,0,0,0,0,0,0,0,0,-1,853,680,0,0
-364,344,0,0,0,0,0,0,0,0,0,-1,860,680,0,0
-357,344,0,0,0,0,0,0,0,0,0,-1,867,680,0,0
-350,344,0,0,0,0,0,0,0,0,0,-1,874,680,0,0
-343,344,0,0,0,0,0,0,0,0,0,-1,881,680,0,0
-336,344,0,0,0,0,0,0,0,0,0,-1,888,680,0,0
-329,344,0,0,0,0,0,0,0,0,0,-1,895,680,0,0
-322,344,0,0,0,0,0,0,0,0,0,-1,902,680,0,0
-315,344,0,0,0,0,0,0,0,0,0,-1,909,680,0,0
-308,344,0,0,0,0,0,0,0,0,0,-1,916,680,0,0
-301,344,0,0,0,0,0,0,0,0,0,-1,923,680,0,0
-294,344,0,0,0,0,0,0,0,0,0,-1,930,680,0,0
-287,344,0,0,0,0,0,0,0,0,0,-1,937,680,0,0
-280,344,0,0,0,0,0,0,0,0,0,-1,944,680,0,0
-273,344,0,0,0,0,0,0,0,0,0,-1,951,680,0,0
-266,344,0,0,0,0,0,0,0,0,0,-1,958,680,0,0
-259,344,0,0,0,0,0,0,0,0,0,-1,965,680,0,0
-252,344,0,0,0,0,0,0,0,0,0,-1,972,680,0,0
-245,344,0,0,0,0,0,0,0,0,0,-1,979,680,0,0
-238,344,0,0,0,0,0,0,0,0,0,-1,986,680,0,0
-231,344,0,0,0,0,0,0,0,0,0,-1,993,680,0,0
-224,344,0,0,0,0,0,0,0,0,0,-1,1000,680,0,0
-217,344,0,0,0,0,0,0,0,0,0,-1,1007,680,0,0
-210,344,0,0,0,0,0,0,0,0,0,-1,1014,680,0,0
-203,344,0,0,0,0,0,0,0,0,0,-1,1021,680,0,0
-196,344,0,0,0,0,0,0,0,0,0,-1,1028,680,0,0
-189,344,0,0,0,0,0,0,0,0,0,-1,1035,680,0,0
-182,344,0,0,0,0,0,0,0,0,0,-1,1042,680,0,0
-175,344,0,0,0,0,0,0,0,0,0,-1,1049,680,0,0
-168,344,0,0,0,0,0,0,0,0,0,-1,1056,680,0,0
-161,344,0,0,0,0,0,0,0,0,0,-1,1063,680,0,0
-154,344,0,0,0,0,0,0,0,0,0,-1,1070,680,0,0
-147,344,0,0,0,0,0,0,0,0,0,-1,1077,680,0,0
-140,344,0,0,0,0,0,0,0,0,0,-1,1084,680,0,0
-133,344,0,0,0,0,0,0,0,0,0,-1,1091,680,0,0
-126,344,0,0,0,0,0,0,0,0,0,-1,1098,680,0,0
-119,344,0,0,0,0,0,0,0,0,0,-1,1105,680,0,0
-112,344,0,0,0,0,0,0,0,0,0,-1,1112,680,0,0
-105,344,0,0,0,0,0,0,0,0,0,-1,1119,680,0,0
-98,344,0,0,0,0,0,0,0,0,0,-1,1126,680,0,0
-91,344,0,0,0,0,0,0,0,0,0,-1,1133,680,0,0
-84,344,0,0,0,0,0,0,0,0,0,-1,1140,680,0,0
-77,344,0,0,0,0,0,0,0,0,0,-1,1147,680,0,0
-70,344,0,0,0,0,0,0,0,0,0,-1,1154,680,0,0
-63,344,0,0,0,0,0,0,0,0,0,-1,1161,680,0,0
-56,344,0,0,0,0,0,0,0,0,0,-1,1168,680,0,0
-49,344,0,0,0,0,0,0,0,0,0,-1,1175,680,0,0
-42,344,0,0,0,0,0,0,0,0,0,-1,1182,680,0,0
-35,344,0,0,0,0,0,0,0,0,0,-1,1189,680,0,0
-28,344,0,0,0,0,0,0,0,0,0,-1,1196,680,0,0
-21,344,0,0,0,0,0,0,0,0,0,-1,1203,680,0,0
-14,344,0,0,0,0,0,0,0,0,0,-1,1210,680,0,0
-7,344,0,0,0,0,0,0,0,0,0,-1,1217,680,0,0
0,344,0,0,0,0,0,0,0,0,0,-1,1224,680,0,0
7,344,0,0,0,0,0,0,0,0,0,-1,1231,680,0,0
14,344,0,0,0,0,0,0,0,0,0,-1,1238,680,0,0
21,344,0,0,0,0,0,0,0,0,0,-1,1245,680,0,0
28,344,0,0,0,0,0,0,0,0,0,-1,1252,680,0,0
35,344,0,0,0,0,0,0,0,0,0,-1,1259,680,0,0
42,344,0,0,0,0,0,0,0,0,0,-1,1266,680,0,0
49,344,0,0,0,0,0,0,0,0,0,-1,1273,680,0,0
56,344,0,0,0,0,0,0,0,0,0,-1,1280,680,0,0
63,344,0,0,0,0,0,0,0,0,0,-1,1287,680,0,0
70,344,0,0,0,0,0,0,0,0,0,-1,1294,680,0,0
77,344,0,0,0,0,0,0,0,0,0,-1,1301,680,0,0
84,344,0,0,0,0,0,0,0,0,0,-1,1308,680,0,0
91,344,0,0,0,0,0,0,0,0,0,-1,1315,680,0,0
98,344,0,0,0,0,0,0,0,0,0,-1,1322,680,0,0
105,344,0,0,0,0,0,0,0,0,0,-1,1329,680,0,0
112,344,0,0,0,0,0,0,0,0,0,-1,1336,680,0,0
119,344,0,0,0,0,0,0,0,0,0,-1,1343,680,0,0
126,344,0,0,0,0,0,0,0,0,0,-1,1350,680,0,0
133,344,0,0,0,0,0,0,0,0,0,-1,1357,680,0,0
140,344,0,0,0,0,0,0,0,0,0,-1,1364,680,0,0
147,344,0,0,0,0,0,0,0,0,0,-1,1371,680,0,0
154,344,0,0,0,0,0,0,0,0,0,-1,1378,680,0,0
161,344,0,0,0,0,0,0,0,0,0,-1,1385,680,0,0
168,344,0,0,0,0,0,0,0,0,0,-1,1392,680,0,0
175,344,0,0,0,0,0,0,0,0,0,-1,1399,680,0,0
182,344,0,0,0,0,0,0,0,0,0,-1,1406,680,0,0
189,344,0,0,0,0,0,0,0,0,0,-1,1413,680,0,0
196,344,0,0,0,0,0,0,0,0,0,-1,1420,680,0,0
203,344,0,0,0,0,0,0,0,0,0,-1,1427,680,0,0
210,344,0,0,0,0,0,0,0,0,0,-1,1434,680,0,0
217,344,0,0,0,0,0,0,0,0,0,-1,1441,680,0,0
224,344,0,0,0,0,0,0,0,0,0,-1,1448,680,0,0
231,344,0,0,0,0,0,0,0,0,0,-1,1455,680,0,0
238,344,0,0,0,0,0,0,0,0,0,-1,1462,680,0,0
245,344,0,0,0,0,0,0,0,0,0,-1,1469,680,0,0
252,344,0,0,0,0,0,0,0,0,0,-1,1476,680,0,0
259,344,0,0,0,0,0,0,0,0,0,-1,1483,680,0,0
266,344,0,0,0,0,0,0,0,0,0,-1,1490,680,0,0
273,344,0,0,0,0,0,0,0,0,0,-1,1497,680,0,0
280,344,0,0,0,0,0,0,0,0,0,-1,1504,680,0,0
287,344,0,0,0,0,0,0,0,0,0,-1,1511,680,0,0
294,344,0,0,0,0,0,0,0,0,0,-1,1518,680,0,0
301,344,0,0,0,0,0,0,0,0,0,-1,1525,680,0,0
308,344,0,0,0,0,0,0,0,0,0,-1,1532,680,0,0
315,344,0,0,0,0,0,0,0,0,0,-1,1539,680,0,0
322,344,0,0,0,0,0,0,0,0,0,-1,1546,680,0,0
329,344,0,0,0,0,0,0,0,0,0,-1,1553,680,0,0
336,344,0,0,0,0,0,0,0,0,0,-1,1560,680,0,0
343,344,0,0,0,0,0,0,0,0,0,-1,1567,680,0,0
350,344,0,0,0,0,0,0,0,0,0,-1,1574,680,0,0
357,344,0,0,0,0,0,0,0,0,0,-1,1581,680,0,0
364,344,0,0,0,0,0,0,0,0,0,-1,1588,680,0,0
371,344,0,0,0,0,0,0,0,0,0,-1,1595,680,0,0
378,344,0,0,0,0,0,0,0,0,0,-1,1602,680,0,0
385,344,0,0,0,0,0,0,0,0,0,-1,1609,680,0,0
392,344,0,0,0,0,0,0,0,0,0,-1,1616,680,0,0
399,344,0,0,0,0,0,0,0,0,0,-1,1623,680,0,0
406,344,0,0,0,0,0,0,0,0,0,-1,1630,680,0,0
413,344,0,0,0,0,0,0,0,0,0,-1,1637,680,0,0
420,344,0,0,0,0,0,0,0,0,0,-1,1644,680,0,0
427,344,0,0,0,0,0,0,0,0,0,-1,1651,680,0,0
434,344,0,0,0,0,0,0,0,0,0,-1,1658,680,0,0
441,344,0,0,0,0,0,0,0,0,0,-1,1665,680,0,0
448,344,0,0,0,0,0,0,0,0,0,-1,1672,680,0,0
455,344,0,0,0,0,0,0,0,0,0,-1,1679,680,0,0
462,344,0,0,0,0,0,0,0,0,0,-1,1686,680,0,0
469,344,0,0,0,0,0,0,0,0,0,-1,1693,680,0,0
476,344,0,0,0,0,0,0,0,0,0,-1,1700,680,0,0
483,344,0,0,0,0,0,0,0,0,0,-1,1707,680,0,0
490,344,0,0,0,0,0,0,0,0,0,-1,1714,680,0,0
497,344,0,0,0,0,0,0,0,0,0,-1,1721,680,0,0
504,344,0,0,0,0,0,0,0,0,0,-1,1728,680,0,0
511,344,15.4819,0.452637,0,0,0,0,0,0,0,-1,1735,680,15.4819,-0.452656
518,344,17.1357,2.31207,0,0,0,0,0,0,0,-1,1742,680,17.1358,-2.31207
525,344,31.5201,2.6217,0,0,0,0,0,0,0,-1,1749,680,31.5201,-2.62168
532,344,31.9766,2.61047,0,0,0,0,0,0,0,-1,1756,680,31.9765,-2.6105
539,344,32.4379,2.65314,0,0,0,0,0,0,0,-1,1763,680,32.4378,-2.65316
546,344,14.6722,4.30243,0,0,0,0,0,0,0,-1,1770,680,14.6722,-4.30241
553,344,14.8136,4.35681,0,0,0,0,0,0,0,-1,1777,680,14.8136,-4.35679
560,344,11.9363,2.14185,0,0,0,0,0,0,0,-1,1784,680,11.9362,-2.14182
567,344,11.397,0.925842,0,0,0,0,0,0,0,-1,1791,680,11.397,-0.92583
574,344,10.0004,0.504639,0,0,0,0,0,0,0,-1,1798,680,10.0004,-0.504645
581,344,13.6709,-0.969604,0,0,0,0,0,0,0,-1,1805,680,13.6709,0.969629
588,344,16.1447,-3.15948,0,0,0,0,0,0,0,-1,1812,680,16.1447,3.15946
595,344,19.0355,-4.36066,0,0,0,0,0,0,0,-1,1819,680,19.0355,4.36068
602,344,19.3572,-3.77295,-0.000389471,0.00321183,4.19654e-05,0.00321231,-0.00038996,1.55915,0.00228266,0.0449508,1826,680,19.3572,3.77295
609,344,19.2363,-3.34723,0.000750406,0.00170603,0.000619407,0.0020105,0.000445933,1.11393,0.00121919,0.0151777,1833,680,19.2363,3.34724
616,344,19.2194,-2.8717,0.00149975,0.00116062,0.000955097,0.00230022,0.000360154,0.697545,0.00142864,0.0206093,1840,680,19.2193,2.87168
623,344,19.2061,-2.42139,0.00108816,0.00110668,0.00085094,0.00194841,0.000246428,0.790837,0.00122509,0.0199468,1847,680,19.206,2.42139
630,344,19.1984,-2.00848,0.000262488,0.00106402,0.000636523,0.00141543,-8.8926e-05,1.06635,0.000974617,0.0261448,1854,680,19.1984,2.00847
637,344,19.2003,-1.54993,-0.000926527,0.00096509,0.000355112,0.00102956,-0.000990995,1.39121,0.00116664,0.0243566,1861,680,19.2003,1.54993
644,344,19.1661,-1.05682,-0.00263324,0.00109745,-8.0592e-05,0.00109919,-0.00263498,-1.54921,0.00221587,0.016391,1868,680,19.1661,1.05681
651,344,19.1395,-0.587891,-0.00471772,0.00115636,-0.000590388,0.00121511,-0.00477647,-1.47161,0.00365727,0.0115783,1875,680,19.1395,0.587864
658,344,19.1329,-0.0664673,-0.00741292,0.00123088,-0.00129342,0.00142027,-0.00760231,-1.4254,0.00560197,0.0220443,1882,680,19.133,0.066497
665,344,18.9891,0.365845,-0.0108393,0.00135829,-0.00213549,0.00172135,-0.0112024,-1.40239,0.00810323,0.0353582,1889,680,18.9892,-0.365868
672,344,19.0098,0.748779,0,0,0,0,0,0,0,-1,1896,680,19.0097,-0.748773
679,344,18.4459,0.997742,0,0,0,0,0,0,0,-1,1903,680,18.4459,-0.997727
686,344,15.024,1.82709,0,0,0,0,0,0,0,-1,1910,680,15.024,-1.82706
693,344,12.4362,-1.42346,0,0,0,0,0,0,0,-1,1917,680,12.4361,1.42348
700,344,17.5396,2.61206,0,0,0,0,0,0,0,-1,1924,680,17.5396,-2.61204
707,344,18.5829,3.29352,0,0,0,0,0,0,0,-1,1931,680,18.5828,-3.2935
714,344,0,0,0,0,0,0,0,0,0,-1,1938,680,0,0
721,344,0,0,0,0,0,0,0,0,0,-1,1945,680,0,0
728,344,0,0,0,0,0,0,0,0,0,-1,1952,680,0,0
735,344,0,0,0,0,0,0,0,0,0,-1,1959,680,0,0
742,344,0,0,0,0,0,0,0,0,0,-1,1966,680,0,0
749,344,0,0,0,0,0,0,0,0,0,-1,1973,680,0,0
756,344,0,0,0,0,0,0,0,0,0,-1,1980,680,0,0
763,344,0,0,0,0,0,0,0,0,0,-1,1987,680,0,0
770,344,0,0,0,0,0,0,0,0,0,-1,1994,680,0,0
777,344,0,0,0,0,0,0,0,0,0,-1,2001,680,0,0
784,344,0,0,0,0,0,0,0,0,0,-1,2008,680,0,0
791,344,0,0,0,0,0,0,0,0,0,-1,2015,680,0,0
798,344,0,0,0,0,0,0,0,0,0,-1,2022,680,0,0
805,344,0,0,0,0,0,0,0,0,0,-1,2029,680,0,0
812,344,0,0,0,0,0,0,0,0,0,-1,2036,680,0,0
-700,337,0,0,0,0,0,0,0,0,0,-1,524,687,0,0
-693,337,0,0,0,0,0,0,0,0,0,-1,531,687,0,0
-686,337,0,0,0,0,0,0,0,0,0,-1,538,687,0,0
-679,337,0,0,0,0,0,0,0,0,0,-1,545,687,0,0
-672,337,0,0,0,0,0,0,0,0,0,-1,552,687,0,0
-665,337,0,0,0,0,0,0,0,0,0,-1,559,687,0,0
-658,337,0,0,0,0,0,0,0,0,0,-1,566,687,0,0
-651,337,0,0,0,0,0,0,0,0,0,-1,573,687,0,0
-644,337,0,0,0,0,0,0,0,0,0,-1,580,687,0,0
-637,337,0,0,0,0,0,0,0,0,0,-1,587,687,0,0
-630,337,0,0,0,0,0,0,0,0,0,-1,594,687,0,0
-623,337,0,0,0,0,0,0,0,0,0,-1,601,687,0,0
-616,337,0,0,0,0,0,0,0,0,0,-1,608,687,0,0
-609,337,0,0,0,0,0,0,0,0,0,-1,615,687,0,0
-602,337,0,0,0,0,0,0,0,0,0,-1,622,687,0,0
-595,337,0,0,0,0,0,0,0,0,0,-1,629,687,0,0
-588,337,-10.8413,1.27863,0,0,0,0,0,0,0,-1,636,687,-10.8413,-1.27861
-581,337,-11.2157,1.31567,0,0,0,0,0,0,0,-1,643,687,-11.2157,-1.3157
-574,337,-6.03339,2.0321,0,0,0,0,0,0,0,-1,650,687,-6.03337,-2.03213
-567,337,-9.8313,1.39795,0,0,0,0,0,0,0,-1,657,687,-9.83129,-1.39793
-560,337,-11.7072,1.16852,0,0,0,0,0,0,0,-1,664,687,-11.7071,-1.16852
-553,337,-11.5096,0.276855,0,0,0,0,0,0,0,-1,671,687,-11.5096,-0.276829
-546,337,-11.3848,-0.622681,0.00546636,0.0189815,-0.0118618,0.0258756,-0.00142771,-1.04432,0.0177454,0.0432097,678,687,-11.3848,0.622689
-539,337,-11.2245,-1.48462,0.00376937,0.013965,-0.0088056,0.019042,-0.0013076,-1.04779,0.0131522,0.0314789,685,687,-11.2245,1.48461
-532,337,-11.2888,-2.07227,0.00254272,0.010003,-0.00634735,0.0136351,-0.0010894,-1.05105,0.00947411,0.0208291,692,687,-11.2888,2.07224
-525,337,-11.3508,-2.49036,0.00167841,0.00684644,-0.00431961,0.00929593,-0.000771082,-1.05495,0.00646965,0.0159,699,687,-11.3508,2.49036
-518,337,-11.3389,-2.90784,0.00112404,0.00439404,-0.00274321,0.00595254,-0.000434458,-1.05414,0.00412082,0.0245692,706,687,-11.3389,2.90785
-511,337,-11.3704,-3.35626,0.000875144,0.00259321,-0.00161954,0.00356744,-9.90893e-05,-1.02924,0.002412,0.0247955,713,687,-11.3704,3.35629
-504,337,-11.3661,-3.82367,0.000866157,0.00128606,-0.00085523,0.00195673,0.000195486,-0.905764,0.00124446,0.0252084,720,687,-11.3662,3.82369
-497,337,-11.3613,-4.24164,0.00111463,0.00039247,-0.000467918,0.00134459,0.000162513,-0.456782,0.000847434,0.0177955,727,687,-11.3613,4.24164
-490,337,-11.3859,-4.66113,0.00161312,0.000120061,-0.000451493,0.00173903,-5.8494e-06,-0.271966,0.00116131,0.0139301,734,687,-11.386,4.66113
-483,337,-11.3669,-5.07703,0.00240901,0.000367253,-0.000954229,0.00278554,-9.27597e-06,-0.375834,0.00186012,0.0141345,741,687,-11.3669,5.07704
-476,337,-11.353,-5.52728,0.00327254,0.000820466,-0.00163345,0.00408889,4.12134e-06,-0.463461,0.00272455,0.014024,748,687,-11.353,5.52726
-469,337,-11.3223,-6.026,0.00433186,0.00142025,-0.00247055,0.00574364,8.47853e-06,-0.519155,0.00382627,0.0357559,755,687,-11.3223,6.02598
-462,337,-11.226,-6.47815,0,0,0,0,0,0,0,-1,762,687,-11.2259,6.47813
-455,337,-6.00574,-3.12933,0,0,0,0,0,0,0,-1,769,687,-6.00576,3.12934
-448,337,-5.30627,-2.07202,0,0,0,0,0,0,0,-1,776,687,-5.30628,2.07205
-441,337,-4.24762,-1.49597,0,0,0,0,0,0,0,-1,783,687,-4.24762,1.49598
-434,337,-6.86908,1.37531,0,0,0,0,0,0,0,-1,790,687,-6.86908,-1.3753
-427,337,-9.92004,2.487,0,0,0,0,0,0,0,-1,797,687,-9.92002,-2.48701
-420,337,-2.95996,-1.76697,0,0,0,0,0,0,0,-1,804,687,-2.95998,1.76696
-413,337,-1.29169,-1.99487,0,0,0,0,0,0,0,-1,811,687,-1.29171,1.9949
-406,337,-1.02356,-1.89563,0,0,0,0,0,0,0,-1,818,687,-1.02357,1.89564
-399,337,-0.472839,-2.21338,0,0,0,0,0,0,0,-1,825,687,-0.472837,2.2134
-392,337,0,0,0,0,0,0,0,0,0,-1,832,687,0,0
-385,337,0,0,0,0,0,0,0,0,0,-1,839,687,0,0
-378,337,0,0,0,0,0,0,0,0,0,-1,846,687,0,0
-371,337,0,0,0,0,0,0,0,0,0,-1,853,687,0,0
-364,337,0,0,0,0,0,0,0,0,0,-1,860,687,0,0
-357,337,0,0,0,0,0,0,0,0,0,-1,867,687,0,0
-350,337,0,0,0,0,0,0,0,0,0,-1,874,687,0,0
-343,337,0,0,0,0,0,0,0,0,0,-1,881,687,0,0
-336,337,0,0,0,0,0,0,0,0,0,-1,888,687,0,0
-329,337,0,0,0,0,0,0,0,0,0,-1,895,687,0,0
-322,337,0,0,0,0,0,0,0,0,0,-1,902,687,0,0
-315,337,0,0,0,0,0,0,0,0,0,-1,909,687,0,0
-308,337,0,0,0,0,0,0,0,0,0,-1,916,687,0,0
-301,337,0,0,0,0,0,0,0,0,0,-1,923,687,0,0
-294,337,0,0,0,0,0,0,0,0,0,-1,930,687,0,0
-287,337,0,0,0,0,0,0,0,0,0,-1,937,687,0,0
-280,337,0,0,0,0,0,0,0,0,0,-1,944,687,0,0
-273,337,0,0,0,0,0,0,0,0,0,-1,951,687,0,0
-266,337,0,0,0,0,0,0,0,0,0,-1,958,687,0,0
-259,337,0,0,0,0,0,0,0,0,0,-1,965,687,0,0
-252,337,0,0,0,0,0,0,0,0,0,-1,972,687,0,0
-245,337,0,0,0,0,0,0,0,0,0,-1,979,687,0,0
-238,337,0,0,0,0,0,0,0,0,0,-1,986,687,0,0
-231,337,0,0,0,0,0,0,0,0,0,-1,993,687,0,0
-224,337,0,0,0,0,0,0,0,0,0,-1,1000,687,0,0
-217,337,0,0,0,0,0,0,0,0,0,-1,1007,687,0,0
-210,337,0,0,0,0,0,0,0,0,0,-1,1014,687,0,0
-203,337,0,0,0,0,0,0,0,0,0,-1,1021,687,0,0
-196,337,0,0,0,0,0,0,0,0,0,-1,1028,687,0,0
-189,337,0,0,0,0,0,0,0,0,0,-1,1035,687,0,0
-182,337,0,0,0,0,0,0,0,0,0,-1,1042,687,0,0
-175,337,0,0,0,0,0,0,0,0,0,-1,1049,687,0,0
-168,337,0,0,0,0,0,0,0,0,0,-1,1056,687,0,0
-161,337,0,0,0,0,0,0,0,0,0,-1,1063,687,0,0
-154,337,0,0,0,0,0,0,0,0,0,-1,1070,687,0,0
-147,337,0,0,0,0,0,0,0,0,0,-1,1077,687,0,0
-140,337,0,0,0,0,0,0,0,0,0,-1,1084,687,0,0
-133,337,0,0,0,0,0,0,0,0,0,-1,1091,687,0,0
-126,337,0,0,0,0,0,0,0,0,0,-1,1098,687,0,0
-119,337,0,0,0,0,0,0,0,0,0,-1,1105,687,0,0
-112,337,0,0,0,0,0,0,0,0,0,-1,1112,687,0,0
-105,337,0,0,0,0,0,0,0,0,0,-1,1119,687,0,0
-98,337,0,0,0,0,0,0,0,0,0,-1,1126,687,0,0
-91,337,0,0,0,0,0,0,0,0,0,-1,1133,687,0,0
-84,337,0,0,0,0,0,0,0,0,0,-1,1140,687,0,0
-77,337,0,0,0,0,0,0,0,0,0,-1,1147,687,0,0
-70,337,0,0,0,0,0,0,0,0,0,-1,1154,687,0,0
-63,337,0,0,0,0,0,0,0,0,0,-1,1161,687,0,0
-56,337,0,0,0,0,0,0,0,0,0,-1,1168,687,0,0
-49,337,0,0,0,0,0,0,0,0,0,-1,1175,687,0,0
-42,337,0,0,0,0,0,0,0,0,0,-1,1182,687,0,0
-35,337,0,0,0,0,0,0,0,0,0,-1,1189,687,0,0
-28,337,0,0,0,0,0,0,0,0,0,-1,1196,687,0,0
-21,337,0,0,0,0,0,0,0,0,0,-1,1203,687,0,0
-14,337,0,0,0,0,0,0,0,0,0,-1,1210,687,0,0
-7,337,0,0,0,0,0,0,0,0,0,-1,1217,687,0,0
0,337,0,0,0,0,0,0,0,0,0,-1,1224,687,0,0
7,337,0,0,0,0,0,0,0,0,0,-1,1231,687,0,0
14,337,0,0,0,0,0,0,0,0,0,-1,1238,687,0,0
21,337,0,0,0,0,0,0,0,0,0,-1,1245,687,0,0
28,337,0,0,0,0,0,0,0,0,0,-1,1252,687,0,0
35,337,0,0,0,0,0,0,0,0,0,-1,1259,687,0,0
42,337,0,0,0,0,0,0,0,0,0,-1,1266,687,0,0
49,337,0,0,0,0,0,0,0,0,0,-1,1273,687,0,0
56,337,0,0,0,0,0,0,0,0,0,-1,1280,687,0,0
63,337,0,0,0,0,0,0,0,0,0,-1,1287,687,0,0
70,337,0,0,0,0,0,0,0,0,0,-1,1294,687,0,0
77,337,0,0,0,0,0,0,0,0,0,-1,1301,687,0,0
84,337,0,0,0,0,0,0,0,0,0,-1,1308,687,0,0
91,337,0,0,0,0,0,0,0,0,0,-1,1315,687,0,0
98,337,0,0,0,0,0,0,0,0,0,-1,1322,687,0,0
105,337,0,0,0,0,0,0,0,0,0,-1,1329,687,0,0
112,337,0,0,0,0,0,0,0,0,0,-1,1336,687,0,0
119,337,0,0,0,0,0,0,0,0,0,-1,1343,687,0,0
126,337,0,0,0,0,0,0,0,0,0,-1,1350,687,0,0
133,337,0,0,0,0,0,0,0,0,0,-1,1357,687,0,0
140,337,0,0,0,0,0,0,0,0,0,-1,1364,687,0,0
147,337,0,0,0,0,0,0,0,0,0,-1,1371,687,0,0
154,337,0,0,0,0,0,0,0,0,0,-1,1378,687,0,0
161,337,0,0,0,0,0,0,0,0,0,-1,1385,687,0,0
168,337,0,0,0,0,0,0,0,0,0,-1,1392,687,0,0
175,337,0,0,0,0,0,0,0,0,0,-1,1399,687,0,0
182,337,0,0,0,0,0,0,0,0,0,-1,1406,687,0,0
189,337,0,0,0,0,0,0,0,0,0,-1,1413,687,0,0
196,337,0,0,0,0,0,0,0,0,0,-1,1420,687,0,0
203,337,0,0,0,0,0,0,0,0,0,-1,1427,687,0,0
210,337,0,0,0,0,0,0,0,0,0,-1,1434,687,0,0
217,337,0,0,0,0,0,0,0,0,0,-1,1441,687,0,0
224,337,0,0,0,0,0,0,0,0,0,-1,1448,687,0,0
231,337,0,0,0,0,0,0,0,0,0,-1,1455,687,0,0
238,337,0,0,0,0,0,0,0,0,0,-1,1462,687,0,0
245,337,0,0,0,0,0,0,0,0,0,-1,1469,687,0,0
252,337,0,0,0,0,0,0,0,0,0,-1,1476,687,0,0
259,337,0,0,0,0,0,0,0,0,0,-1,1483,687,0,0
266,337,0,0,0,0,0,0,0,0,0,-1,1490,687,0,0
273,337,0,0,0,0,0,0,0,0,0,-1,1497,687,0,0
280,337,0,0,0,0,0,0,0,0,0,-1,1504,687,0,0
287,337,0,0,0,0,0,0,0,0,0,-1,1511,687,0,0
294,337,0,0,0,0,0,0,0,0,0,-1,1518,687,0,0
301,337,0,0,0,0,0,0,0,0,0,-1,1525,687,0,0
308,337,0,0,0,0,0,0,0,0,0,-1,1532,687,0,0
315,337,0,0,0,0,0,0,0,0,0,-1,1539,687,0,0
322,337,0,0,0,0,0,0,0,0,0,-1,1546,687,0,0
329,337,0,0,0,0,0,0,0,0,0,-1,1553,687,0,0
336,337,0,0,0,0,0,0,0,0,0,-1,1560,687,0,0
343,337,0,0,0,0,0,0,0,0,0,-1,1567,687,0,0
350,337,0,0,0,0,0,0,0,0,0,-1,1574,687,0,0
357,337,0,0,0,0,0,0,0,0,0,-1,1581,687,0,0
364,337,0,0,0,0,0,0,0,0,0,-1,1588,687,0,0
371,337,0,0,0,0,0,0,0,0,0,-1,1595,687,0,0
378,337,0,0,0,0,0,0,0,0,0,-1,1602,687,0,0
385,337,0,0,0,0,0,0,0,0,0,-1,1609,687,0,0
392,337,0,0,0,0,0,0,0,0,0,-1,1616,687,0,0
399,337,0,0,0,0,0,0,0,0,0,-1,1623,687,0,0
406,337,0,0,0,0,0,0,0,0,0,-1,1630,687,0,0
413,337,0,0,0,0,0,0,0,0,0,-1,1637,687,0,0
420,337,0,0,0,0,0,0,0,0,0,-1,1644,687,0,0
427,337,0,0,0,0,0,0,0,0,0,-1,1651,687,0,0
434,337,0,0,0,0,0,0,0,0,0,-1,1658,687,0,0
441,337,0,0,0,0,0,0,0,0,0,-1,1665,687,0,0
448,337,0,0,0,0,0,0,0,0,0,-1,1672,687,0,0
455,337,0,0,0,0,0,0,0,0,0,-1,1679,687,0,0
462,337,0,0,0,0,0,0,0,0,0,-1,1686,687,0,0
469,337,0,0,0,0,0,0,0,0,0,-1,1693,687,0,0
476,337,0,0,0,0,0,0,0,0,0,-1,1700,687,0,0
483,337,0,0,0,0,0,0,0,0,0,-1,1707,687,0,0
490,337,0,0,0,0,0,0,0,0,0,-1,1714,687,0,0
497,337,0,0,0,0,0,0,0,0,0,-1,1721,687,0,0
504,337,0,0,0,0,0,0,0,0,0,-1,1728,687,0,0
511,337,0,0,0,0,0,0,0,0,0,-1,1735,687,0,0
518,337,18.0369,1.64581,0,0,0,0,0,0,0,-1,1742,687,18.0368,-1.64581
525,337,31.0717,2.13745,0,0,0,0,0,0,0,-1,1749,687,31.0717,-2.13747
532,337,31.5126,2.13904,0,0,0,0,0,0,0,-1,1756,687,31.5125,-2.13905
539,337,31.9684,2.15594,0,0,0,0,0,0,0,-1,1763,687,31.9684,-2.15596
546,337,32.3584,1.43719,0,0,0,0,0,0,0,-1,1770,687,32.3585,-1.43722
553,337,32.1809,1.36395,0,0,0,0,0,0,0,-1,1777,687,32.181,-1.36396
560,337,18.4053,3.62793,0,0,0,0,0,0,0,-1,1784,687,18.4052,-3.6279
567,337,11.9288,1.38776,0,0,0,0,0,0,0,-1,1791,687,11.9288,-1.38777
574,337,10.704,1.19476,0,0,0,0,0,0,0,-1,1798,687,10.704,-1.19478
581,337,8.50427,0.561768,0,0,0,0,0,0,0,-1,1805,687,8.5043,-0.561754
588,337,8.5885,-0.0536499,0,0,0,0,0,0,0,-1,1812,687,8.58844,0.0536788
595,337,13.8816,-1.70703,0,0,0,0,0,0,0,-1,1819,687,13.8816,1.70702
602,337,19.6414,-3.83942,0,0,0,0,0,0,0,-1,1826,687,19.6413,3.83943
609,337,19.682,-3.27472,0.000829443,0.00216757,0.000772519,0.00252048,0.000476532,1.14228,0.00154615,0.0282585,1833,687,19.682,3.27472
616,337,19.6713,-2.83423,0.00180101,0.000948116,0.00115931,0.00260982,0.000139303,0.609158,0.00169535,0.0164137,1840,687,19.6712,2.83423
623,337,19.6664,-2.4101,0.00136136,0.000898778,0.000928475,0.00208692,0.000173219,0.663329,0.00133728,0.0151837,1847,687,19.6664,2.41011
630,337,19.6672,-1.97516,0.000541049,0.000786945,0.000664278,0.00133956,-1.15635e-05,0.876905,0.000896917,0.0198345,1854,687,19.6673,1.97514
637,337,19.6591,-1.50293,-0.000622264,0.000656892,0.000356513,0.000749544,-0.000714916,1.31654,0.000845585,0.0175107,1861,687,19.6591,1.50293
644,337,19.6311,-1.02063,-0.00227223,0.000804265,-7.91163e-05,0.000806298,-0.00227426,-1.5451,0.00184465,0.0109418,1868,687,19.6311,1.02062
651,337,19.5941,-0.575378,-0.00423042,0.000948892,-0.000536319,0.00100384,-0.00428537,-1.46869,0.00324373,0.00983536,1875,687,19.5942,0.575395
658,337,19.6001,-0.11792,-0.00667402,0.00117046,-0.0010981,0.00132128,-0.00682484,-1.43431,0.00504829,0.0115816,1882,687,19.6,0.117901
665,337,19.6074,0.332336,-0.00972997,0.00152189,-0.00175974,0.00179068,-0.00999876,-1.41922,0.00733595,0.014864,1889,687,19.6074,-0.332363
672,337,19.5746,0.744141,-0.0135924,0.00213685,-0.00257594,0.00254796,-0.0140035,-1.41254,0.0102907,0.0271512,1896,687,19.5745,-0.744132
679,337,19.7836,1.11755,0,0,0,0,0,0,0,-1,1903,687,19.7835,-1.11757
686,337,18.5614,1.68597,0,0,0,0,0,0,0,-1,1910,687,18.5614,-1.68598
693,337,16.5415,2.21411,0,0,0,0,0,0,0,-1,1917,687,16.5415,-2.2141
700,337,17.2661,2.44379,0,0,0,0,0,0,0,-1,1924,687,17.2661,-2.44378
707,337,17.3544,5.61853,0,0,0,0,0,0,0,-1,1931,687,17.3543,-5.61851
714,337,0,0,0,0,0,0,0,0,0,-1,1938,687,0,0
721,337,0,0,0,0,0,0,0,0,0,-1,1945,687,0,0
728,337,0,0,0,0,0,0,0,0,0,-1,1952,687,0,0
735,337,0,0,0,0,0,0,0,0,0,-1,1959,687,0,0
742,337,0,0,0,0,0,0,0,0,0,-1,1966,687,0,0
749,337,0,0,0,0,0,0,0,0,0,-1,1973,687,0,0
756,337,0,0,0,0,0,0,0,0,0,-1,1980,687,0,0
763,337,0,0,0,0,0,0,0,0,0,-1,1987,687,0,0
770,337,0,0,0,0,0,0,0,0,0,-1,1994,687,0,0
777,337,0,0,0,0,0,0,0,0,0,-1,2001,687,0,0
784,337,0,0,0,0,0,0,0,0,0,-1,2008,687,0,0
791,337,0,0,0,0,0,0,0,0,0,-1,2015,687,0,0
798,337,0,0,0,0,0,0,0,0,0,-1,2022,687,0,0
805,337,0,0,0,0,0,0,0,0,0,-1,2029,687,0,0
812,337,0,0,0,0,0,0,0,0,0,-1,2036,687,0,0
-700,330,0,0,0,0,0,0,0,0,0,-1,524,694,0,0
-693,330,0,0,0,0,0,0,0,0,0,-1,531,694,0,0
-686,330,0,0,0,0,0,0,0,0,0,-1,538,694,0,0
-679,330,0,0,0,0,0,0,0,0,0,-1,545,694,0,0
-672,330,0,0,0,0,0,0,0,0,0,-1,552,694,0,0
-665,330,0,0,0,0,0,0,0,0,0,-1,559,694,0,0
-658,330,0,0,0,0,0,0,0,0,0,-1,566,694,0,0
-651,330,0,0,0,0,0,0,0,0,0,-1,573,694,0,0
-644,330,0,0,0,0,0,0,0,0,0,-1,580,694,0,0
-637,330,0,0,0,0,0,0,0,0,0,-1,587,694,0,0
-630,330,0,0,0,0,0,0,0,0,0,-1,594,694,0,0
-623,330,0,0,0,0,0,0,0,0,0,-1,601,694,0,0
-616,330,0,0,0,0,0,0,0,0,0,-1,608,694,0,0
-609,330,0,0,0,0,0,0,0,0,0,-1,615,694,0,0
-602,330,0,0,0,0,0,0,0,0,0,-1,622,694,0,0
-595,330,-4.67883,1.65515,0,0,0,0,0,0,0,-1,629,694,-4.67881,-1.65515
-588,330,-8.5047,2.67346,0,0,0,0,0,0,0,-1,636,694,-8.50469,-2.67348
-581,330,-12.4227,0.947083,0,0,0,0,0,0,0,-1,643,694,-12.4227,-0.947109
-574,330,-9.02118,1.87952,0,0,0,0,0,0,0,-1,650,694,-9.02115,-1.87953
-567,330,-8.35577,0.909973,0,0,0,0,0,0,0,-1,657,694,-8.35575,-0.909945
-560,330,-11.9179,-0.0847168,0,0,0,0,0,0,0,-1,664,694,-11.9179,0.0847426
-553,330,-11.7354,-0.460449,0.00469886,0.0202496,-0.01101,0.025953,-0.0010045,-1.09284,0.0176463,0.0478699,671,694,-11.7353,0.460439
-546,330,-11.6272,-1.05493,0.00349405,0.0151666,-0.0085456,0.0196787,-0.00101806,-1.085,0.0134713,0.0327364,678,694,-11.6272,1.05492
-539,330,-11.6352,-1.61816,0.00256093,0.0112366,-0.00647459,0.0146922,-0.000894629,-1.08055,0.0101062,0.0163506,685,694,-11.6352,1.61816
-532,330,-11.7803,-2.03864,0.00184263,0.00800885,-0.00469989,0.0105466,-0.000695169,-1.07569,0.0072739,0.0123875,692,694,-11.7803,2.03861
-525,330,-11.7773,-2.5058,0.00132137,0.00537046,-0.00316954,0.00710687,-0.000415042,-1.06961,0.00488215,0.0111443,699,694,-11.7773,2.50583
-518,330,-11.7634,-2.88934,0.00101457,0.00331512,-0.00195834,0.00443602,-0.000106329,-1.05094,0.00299342,0.0157718,706,694,-11.7635,2.88932
-511,330,-11.8151,-3.33978,0.000915538,0.0017769,-0.00107338,0.00250278,0.00018966,-0.976185,0.00160903,0.0213186,713,694,-11.815,3.33976
-504,330,-11.8111,-3.80554,0.000989434,0.000655595,-0.000451548,0.00130393,0.000341103,-0.608358,0.000780826,0.0201116,720,694,-11.8111,3.80553
-497,330,-11.7957,-4.2226,0.00129266,-2.68964e-05,-0.00014803,0.00130906,-4.32987e-05,-0.110354,0.00088749,0.0143272,727,694,-11.7956,4.22262
-490,330,-11.7912,-4.65717,0.00191471,-2.66197e-05,-0.000307599,0.00196228,-7.41921e-05,-0.153442,0.00133361,0.0129143,734,694,-11.7912,4.65719
-483,330,-11.7834,-5.07349,0.00281565,0.000439511,-0.000994743,0.00317711,7.80572e-05,-0.34853,0.00209254,0.0129104,741,694,-11.7834,5.07352
-476,330,-11.7998,-5.48682,0.00370685,0.00104483,-0.00175883,0.00458153,0.000170144,-0.461492,0.00299925,0.0339515,748,694,-11.7998,5.48684
-469,330,-11.6868,-6.05347,0,0,0,0,0,0,0,-1,755,694,-11.6868,6.05345
-462,330,-7.26733,-3.84833,0,0,0,0,0,0,0,-1,762,694,-7.26731,3.84832
-455,330,-5.04254,-1.79303,0,0,0,0,0,0,0,-1,769,694,-5.04252,1.79305
-448,330,-4.89886,-1.66156,0,0,0,0,0,0,0,-1,776,694,-4.89886,1.66157
-441,330,-5.30676,-2.34045,0,0,0,0,0,0,0,-1,783,694,-5.30679,2.34048
-434,330,-7.20428,1.00024,0,0,0,0,0,0,0,-1,790,694,-7.20431,-1.00027
-427,330,-16.0428,2.89258,0,0,0,0,0,0,0,-1,797,694,-16.0428,-2.89259
-420,330,-15.2923,3.32672,0,0,0,0,0,0,0,-1,804,694,-15.2923,-3.32675
-413,330,-10.4567,2.56183,0,0,0,0,0,0,0,-1,811,694,-10.4567,-2.56182
-406,330,-1.65375,-1.74371,0,0,0,0,0,0,0,-1,818,694,-1.65375,1.74371
-399,330,0,0,0,0,0,0,0,0,0,-1,825,694,0,0
-392,330,0,0,0,0,0,0,0,0,0,-1,832,694,0,0
-385,330,0,0,0,0,0,0,0,0,0,-1,839,694,0,0
-378,330,0,0,0,0,0,0,0,0,0,-1,846,694,0,0
-371,330,0,0,0,0,0,0,0,0,0,-1,853,694,0,0
-364,330,0,0,0,0,0,0,0,0,0,-1,860,694,0,0
-357,330,0,0,0,0,0,0,0,0,0,-1,867,694,0,0
-350,330,0,0,0,0,0,0,0,0,0,-1,874,694,0,0
-343,330,0,0,0,0,0,0,0,0,0,-1,881,694,0,0
-336,330,0,0,0,0,0,0,0,0,0,-1,888,694,0,0
-329,330,0,0,0,0,0,0,0,0,0,-1,895,694,0,0
-322,330,0,0,0,0,0,0,0,0,0,-1,902,694,0,0
-315,330,0,0,0,0,0,0,0,0,0,-1,909,694,0,0
-308,330,0,0,0,0,0,0,0,0,0,-1,916,694,0,0
-301,330,0,0,0,0,0,0,0,0,0,-1,923,694,0,0
-294,330,0,0,0,0,0,0,0,0,0,-1,930,694,0,0
-287,330,0,0,0,0,0,0,0,0,0,-1,937,694,0,0
-280,330,0,0,0,0,0,0,0,0,0,-1,944,694,0,0
-273,330,0,0,0,0,0,0,0,0,0,-1,951,694,0,0
-266,330,0,0,0,0,0,0,0,0,0,-1,958,694,0,0
-259,330,0,0,0,0,0,0,0,0,0,-1,965,694,0,0
-252,330,0,0,0,0,0,0,0,0,0,-1,972,694,0,0
-245,330,0,0,0,0,0,0,0,0,0,-1,979,694,0,0
-238,330,0,0,0,0,0,0,0,0,0,-1,986,694,0,0
-231,330,0,0,0,0,0,0,0,0,0,-1,993,694,0,0
-224,330,0,0,0,0,0,0,0,0,0,-1,1000,694,0,0
-217,330,0,0,0,0,0,0,0,0,0,-1,1007,694,0,0
-210,330,0,0,0,0,0,0,0,0,0,-1,1014,694,0,0
-203,330,0,0,0,0,0,0,0,0,0,-1,1021,694,0,0
-196,330,0,0,0,0,0,0,0,0,0,-1,1028,694,0,0
-189,330,0,0,0,0,0,0,0,0,0,-1,1035,694,0,0
-182,330,0,0,0,0,0,0,0,0,0,-1,1042,694,0,0
-175,330,0,0,0,0,0,0,0,0,0,-1,1049,694,0,0
-168,330,0,0,0,0,0,0,0,0,0,-1,1056,694,0,0
-161,330,0,0,0,0,0,0,0,0,0,-1,1063,694,0,0
-154,330,0,0,0,0,0,0,0,0,0,-1,1070,694,0,0
-147,330,0,0,0,0,0,0,0,0,0,-1,1077,694,0,0
-140,330,0,0,0,0,0,0,0,0,0,-1,1084,694,0,0
-133,330,0,0,0,0,0,0,0,0,0,-1,1091,694,0,0
-126,330,0,0,0,0,0,0,0,0,0,-1,1098,694,0,0
-119,330,0,0,0,0,0,0,0,0,0,-1,1105,694,0,0
-112,330,0,0,0,0,0,0,0,0,0,-1,1112,694,0,0
-105,330,0,0,0,0,0,0,0,0,0,-1,1119,694,0,0
-98,330,0,0,0,0,0,0,0,0,0,-1,1126,694,0,0
-91,330,0,0,0,0,0,0,0,0,0,-1,1133,694,0,0
-84,330,0,0,0,0,0,0,0,0,0,-1,1140,694,0,0
-77,330,0,0,0,0,0,0,0,0,0,-1,1147,694,0,0
-70,330,0,0,0,0,0,0,0,0,0,-1,1154,694,0,0
-63,330,0,0,0,0,0,0,0,0,0,-1,1161,694,0,0
-56,330,0,0,0,0,0,0,0,0,0,-1,1168,694,0,0
-49,330,0,0,0,0,0,0,0,0,0,-1,1175,694,0,0
-42,330,0,0,0,0,0,0,0,0,0,-1,1182,694,0,0
-35,330,0,0,0,0,0,0,0,0,0,-1,1189,694,0,0
-28,330,0,0,0,0,0,0,0,0,0,-1,1196,694,0,0
-21,330,0,0,0,0,0,0,0,0,0,-1,1203,694,0,0
-14,330,0,0,0,0,0,0,0,0,0,-1,1210,694,0,0
-7,330,0,0,0,0,0,0,0,0,0,-1,1217,694,0,0
0,330,0,0,0,0,0,0,0,0,0,-1,1224,694,0,0
7,330,0,0,0,0,0,0,0,0,0,-1,1231,694,0,0
14,330,0,0,0,0,0,0,0,0,0,-1,1238,694,0,0
21,330,0,0,0,0,0,0,0,0,0,-1,1245,694,0,0
28,330,0,0,0,0,0,0,0,0,0,-1,1252,694,0,0
35,330,0,0,0,0,0,0,0,0,0,-1,1259,694,0,0
42,330,0,0,0,0,0,0,0,0,0,-1,1266,694,0,0
49,330,0,0,0,0,0,0,0,0,0,-1,1273,694,0,0
56,330,0,0,0,0,0,0,0,0,0,-1,1280,694,0,0
63,330,0,0,0,0,0,0,0,0,0,-1,1287,694,0,0
70,330,0,0,0,0,0,0,0,0,0,-1,1294,694,0,0
77,330,0,0,0,0,0,0,0,0,0,-1,1301,694,0,0
84,330,0,0,0,0,0,0,0,0,0,-1,1308,694,0,0
91,330,0,0,0,0,0,0,0,0,0,-1,1315,694,0,0
98,330,0,0,0,0,0,0,0,0,0,-1,1322,694,0,0
105,330,0,0,0,0,0,0,0,0,0,-1,1329,694,0,0
112,330,0,0,0,0,0,0,0,0,0,-1,1336,694,0,0
119,330,0,0,0,0,0,0,0,0,0,-1,1343,694,0,0
126,330,0,0,0,0,0,0,0,0,0,-1,1350,694,0,0
133,330,0,0,0,0,0,0,0,0,0,-1,1357,694,0,0
140,330,0,0,0,0,0,0,0,0,0,-1,1364,694,0,0
147,330,0,0,0,0,0,0,0,0,0,-1,1371,694,0,0
154,330,0,0,0,0,0,0,0,0,0,-1,1378,694,0,0
161,330,0,0,0,0,0,0,0,0,0,-1,1385,694,0,0
168,330,0,0,0,0,0,0,0,0,0,-1,1392,694,0,0
175,330,0,0,0,0,0,0,0,0,0,-1,1399,694,0,0
182,330,0,0,0,0,0,0,0,0,0,-1,1406,694,0,0
189,330,0,0,0,0,0,0,0,0,0,-1,1413,694,0,0
196,330,0,0,0,0,0,0,0,0,0,-1,1420,694,0,0
203,330,0,0,0,0,0,0,0,0,0,-1,1427,694,0,0
210,330,0,0,0,0,0,0,0,0,0,-1,1434,694,0,0
217,330,0,0,0,0,0,0,0,0,0,-1,1441,694,0,0
224,330,0,0,0,0,0,0,0,0,0,-1,1448,694,0,0
231,330,0,0,0,0,0,0,0,0,0,-1,1455,694,0,0
238,330,0,0,0,0,0,0,0,0,0,-1,1462,694,0,0
245,330,0,0,0,0,0,0,0,0,0,-1,1469,694,0,0
252,330,0,0,0,0,0,0,0,0,0,-1,1476,694,0,0
259,330,0,0,0,0,0,0,0,0,0,-1,1483,694,0,0
266,330,0,0,0,0,0,0,0,0,0,-1,1490,694,0,0
273,330,0,0,0,0,0,0,0,0,0,-1,1497,694,0,0
280,330,0,0,0,0,0,0,0,0,0,-1,1504,694,0,0
287,330,0,0,0,0,0,0,0,0,0,-1,1511,694,0,0
294,330,0,0,0,0,0,0,0,0,0,-1,1518,694,0,0
301,330,0,0,0,0,0,0,0,0,0,-1,1525,694,0,0
308,330,0,0,0,0,0,0,0,0,0,-1,1532,694,0,0
315,330,0,0,0,0,0,0,0,0,0,-1,1539,694,0,0
322,330,0,0,0,0,0,0,0,0,0,-1,1546,694,0,0
329,330,0,0,0,0,0,0,0,0,0,-1,1553,694,0,0
336,330,0,0,0,0,0,0,0,0,0,-1,1560,694,0,0
343,330,0,0,0,0,0,0,0,0,0,-1,1567,694,0,0
350,330,0,0,0,0,0,0,0,0,0,-1,1574,694,0,0
357,330,0,0,0,0,0,0,0,0,0,-1,1581,694,0,0
364,330,0,0,0,0,0,0,0,0,0,-1,1588,694,0,0
371,330,0,0,0,0,0,0,0,0,0,-1,1595,694,0,0
378,330,0,0,0,0,0,0,0,0,0,-1,1602,694,0,0
385,330,0,0,0,0,0,0,0,0,0,-1,1609,694,0,0
392,330,0,0,0,0,0,0,0,0,0,-1,1616,694,0,0
399,330,0,0,0,0,0,0,0,0,0,-1,1623,694,0,0
406,330,0,0,0,0,0,0,0,0,0,-1,1630,694,0,0
413,330,0,0,0,0,0,0,0,0,0,-1,1637,694,0,0
420,330,0,0,0,0,0,0,0,0,0,-1,1644,694,0,0
427,330,0,0,0,0,0,0,0,0,0,-1,1651,694,0,0
434,330,0,0,0,0,0,0,0,0,0,-1,1658,694,0,0
441,330,0,0,0,0,0,0,0,0,0,-1,1665,694,0,0
448,330,0,0,0,0,0,0,0,0,0,-1,1672,694,0,0
455,330,0,0,0,0,0,0,0,0,0,-1,1679,694,0,0
462,330,0,0,0,0,0,0,0,0,0,-1,1686,694,0,0
469,330,0,0,0,0,0,0,0,0,0,-1,1693,694,0,0
476,330,0,0,0,0,0,0,0,0,0,-1,1700,694,0,0
483,330,0,0,0,0,0,0,0,0,0,-1,1707,694,0,0
490,330,0,0,0,0,0,0,0,0,0,-1,1714,694,0,0
497,330,0,0,0,0,0,0,0,0,0,-1,1721,694,0,0
504,330,0,0,0,0,0,0,0,0,0,-1,1728,694,0,0
511,330,0,0,0,0,0,0,0,0,0,-1,1735,694,0,0
518,330,0,0,0,0,0,0,0,0,0,-1,1742,694,0,0
525,330,30.6694,0.69519,0,0,0,0,0,0,0,-1,1749,694,30.6694,-0.695206
532,330,30.9469,1.32501,0,0,0,0,0,0,0,-1,1756,694,30.9469,-1.32501
539,330,31.5155,1.62506,0,0,0,0,0,0,0,-1,1763,694,31.5155,-1.62507
546,330,31.4187,1.85651,0,0,0,0,0,0,0,-1,1770,694,31.4187,-1.85651
553,330,31.8452,1.81476,0,0,0,0,0,0,0,-1,1777,694,31.8452,-1.81475
560,330,32.2401,2.43225,0,0,0,0,0,0,0,-1,1784,694,32.2401,-2.43227
567,330,18.0321,3.98578,0,0,0,0,0,0,0,-1,1791,694,18.0321,-3.98576
574,330,12.0454,2.1662,0,0,0,0,0,0,0,-1,1798,694,12.0455,-2.16618
581,330,11.4215,4.50836,0,0,0,0,0,0,0,-1,1805,694,11.4215,-4.50837
588,330,6.45667,-0.0630493,0,0,0,0,0,0,0,-1,1812,694,6.45661,0.0630695
595,330,8.23193,-0.258484,0,0,0,0,0,0,0,-1,1819,694,8.23188,0.258459
602,330,19.8221,-3.97388,0,0,0,0,0,0,0,-1,1826,694,19.8222,3.97385
609,330,19.9963,-3.32294,0.000568452,0.00261685,0.00102233,0.00303977,0.000145533,1.17855,0.00197979,0.0433323,1833,694,19.9964,3.32292
616,330,20.1091,-2.81946,0.00199307,0.000750771,0.00143277,0.00293354,-0.000189697,0.580861,0.0020219,0.0112352,1840,694,20.1091,2.81948
623,330,20.1101,-2.38666,0.00171494,0.000753872,0.00108495,0.00242101,4.78036e-05,0.576928,0.00159831,0.0128618,1847,694,20.1101,2.38664
630,330,20.1129,-1.93097,0.000899337,0.000594609,0.00077265,0.0015345,-4.05565e-05,0.688049,0.00103678,0.0130454,1854,694,20.1129,1.93099
637,330,20.123,-1.46503,-0.000227025,0.000463338,0.000440953,0.000678147,-0.000441834,1.11748,0.000651402,0.0122717,1861,694,20.1231,1.46501
644,330,20.0537,-1.01093,-0.00180121,0.000637779,1.6688e-05,0.000637893,-0.00180133,1.56395,0.00146071,0.00785005,1868,694,20.0537,1.01093
651,330,20.0427,-0.554504,-0.0036175,0.000871612,-0.00040212,0.000907348,-0.00365324,-1.48216,0.0027876,0.0106715,1875,694,20.0428,0.554504
658,330,20.0314,-0.103394,-0.0057893,0.001183,-0.000872619,0.00129056,-0.00589685,-1.44816,0.00442461,0.0112529,1882,694,20.0314,0.103421
665,330,20.028,0.34845,-0.00847392,0.0016745,-0.00142047,0.00186957,-0.00866899,-1.43432,0.00649287,0.0108237,1889,694,20.0279,-0.34843
672,330,20.0721,0.836182,-0.0117778,0.00244862,-0.00204614,0.00273706,-0.0120663,-1.43075,0.00909488,0.0206393,1896,694,20.0721,-0.836164
679,330,19.7943,1.30823,-0.0161595,0.0035004,-0.00285181,0.00390572,-0.0165648,-1.42962,0.0125494,0.0353076,1903,694,19.7943,-1.3082
686,330,19.6111,2.138,0,0,0,0,0,0,0,-1,1910,694,19.6111,-2.13799
693,330,17.3999,2.5976,0,0,0,0,0,0,0,-1,1917,694,17.4,-2.59759
700,330,17.1072,4.13,0,0,0,0,0,0,0,-1,1924,694,17.1071,-4.13002
707,330,16.663,4.88672,0,0,0,0,0,0,0,-1,1931,694,16.6629,-4.88673
714,330,16.5454,5.80896,0,0,0,0,0,0,0,-1,1938,694,16.5454,-5.80899
721,330,0,0,0,0,0,0,0,0,0,-1,1945,694,0,0
728,330,0,0,0,0,0,0,0,0,0,-1,1952,694,0,0
735,330,0,0,0,0,0,0,0,0,0,-1,1959,694,0,0
742,330,0,0,0,0,0,0,0,0,0,-1,1966,694,0,0
749,330,0,0,0,0,0,0,0,0,0,-1,1973,694,0,0
756,330,0,0,0,0,0,0,0,0,0,-1,1980,694,0,0
763,330,0,0,0,0,0,0,0,0,0,-1,1987,694,0,0
770,330,0,0,0,0,0,0,0,0,0,-1,1994,694,0,0
777,330,0,0,0,0,0,0,0,0,0,-1,2001,694,0,0
784,330,0,0,0,0,0,0,0,0,0,-1,2008,694,0,0
791,330,0,0,0,0,0,0,0,0,0,-1,2015,694,0,0
798,330,0,0,0,0,0,0,0,0,0,-1,2022,694,0,0
805,330,0,0,0,0,0,0,0,0,0,-1,2029,694,0,0
812,330,0,0,0,0,0,0,0,0,0,-1,2036,694,0,0
-700,323,0,0,0,0,0,0,0,0,0,-1,524,701,0,0
-693,323,0,0,0,0,0,0,0,0,0,-1,531,701,0,0
-686,323,0,0,0,0,0,0,0,0,0,-1,538,701,0,0
-679,323,0,0,0,0,0,0,0,0,0,-1,545,701,0,0
-672,323,0,0,0,0,0,0,0,0,0,-1,552,701,0,0
-665,323,0,0,0,0,0,0,0,0,0,-1,559,701,0,0
-658,323,0,0,0,0,0,0,0,0,0,-1,566,701,0,0
-651,323,0,0,0,0,0,0,0,0,0,-1,573,701,0,0
-644,323,0,0,0,0,0,0,0,0,0,-1,580,701,0,0
-637,323,0,0,0,0,0,0,0,0,0,-1,587,701,0,0
-630,323,0,0,0,0,0,0,0,0,0,-1,594,701,0,0
-623,323,0,0,0,0,0,0,0,0,0,-1,601,701,0,0
-616,323,0,0,0,0,0,0,0,0,0,-1,608,701,0,0
-609,323,0,0,0,0,0,0,0,0,0,-1,615,701,0,0
-602,323,-4.15833,2.12256,0,0,0,0,0,0,0,-1,622,701,-4.1583,-2.12257
-595,323,-4.052,1.79156,0,0,0,0,0,0,0,-1,629,701,-4.05198,-1.79158
-588,323,-4.07019,1.94543,0,0,0,0,0,0,0,-1,636,701,-4.07019,-1.94542
-581,323,-6.63727,0.562805,0,0,0,0,0,0,0,-1,643,701,-6.63728,-0.56279
-574,323,-6.15887,0.426697,0,0,0,0,0,0,0,-1,650,701,-6.15887,-0.426727
-567,323,-10.0015,0.0371094,0,0,0,0,0,0,0,-1,657,701,-10.0015,-0.037126
-560,323,-12.3293,-0.537048,0,0,0,0,0,0,0,-1,664,701,-12.3293,0.537038
-553,323,-12.1922,-0.918762,0.00218329,0.0153835,-0.00731617,0.0186367,-0.00106992,-1.15239,0.012796,0.0412024,671,701,-12.1922,0.91874
-546,323,-12.155,-1.2168,0.0018992,0.0117839,-0.0059019,0.0145395,-0.000856454,-1.13397,0.00999076,0.0168241,678,701,-12.155,1.2168
-539,323,-12.1429,-1.58569,0.00159665,0.00883528,-0.00459566,0.0110657,-0.000633781,-1.11895,0.00759722,0.0146333,685,701,-12.1429,1.58568
-532,323,-12.1834,-2.03827,0.00131173,0.00628787,-0.00338551,0.00800124,-0.000401649,-1.10229,0.00547296,0.00943028,692,701,-12.1834,2.03826
-525,323,-12.2076,-2.48499,0.00109281,0.00414429,-0.0022878,0.00536844,-0.000131337,-1.07948,0.00362353,0.00748471,699,701,-12.2077,2.48496
-518,323,-12.2026,-2.88776,0.000976083,0.00241393,-0.00137559,0.00324714,0.000142876,-1.02619,0.00211874,0.0102086,706,701,-12.2026,2.88774
-511,323,-12.2273,-3.32074,0.00108612,0.00116005,-0.000606384,0.00173059,0.000515574,-0.815842,0.001026,0.0142206,713,701,-12.2273,3.32075
-504,323,-12.2374,-3.77502,0.00134578,0.000273628,2.65972e-05,0.00134644,0.000272969,0.0247869,0.000821891,0.0150335,720,701,-12.2374,3.775
-497,323,-12.2372,-4.1925,0.00190835,-8.23049e-05,0.000505225,0.00202923,-0.000203189,0.234853,0.00142539,0.0123219,727,701,-12.2372,4.19251
-490,323,-12.2549,-4.62677,0.00303864,0.00039647,0.000628684,0.0031806,0.000254507,0.222085,0.00204086,0.0130445,734,701,-12.2549,4.62676
-483,323,-12.2441,-5.03229,0.00473816,0.00149899,0.000466163,0.00480391,0.00143324,0.140127,0.00284774,0.0225371,741,701,-12.2441,5.03228
-476,323,-12.2222,-5.4455,0,0,0,0,0,0,0,-1,748,701,-12.2222,5.44552
-469,323,-8.33301,-3.64001,0,0,0,0,0,0,0,-1,755,701,-8.33298,3.64
-462,323,-5.29431,-1.45697,0,0,0,0,0,0,0,-1,762,701,-5.29431,1.45699
-455,323,-5.0658,-1.36639,0,0,0,0,0,0,0,-1,769,701,-5.06578,1.3664
-448,323,-4.91608,-1.59601,0,0,0,0,0,0,0,-1,776,701,-4.91606,1.59604
-441,323,-14.4006,0.535217,0,0,0,0,0,0,0,-1,783,701,-14.4006,-0.535203
-434,323,-15.3158,2.479,0,0,0,0,0,0,0,-1,790,701,-15.3158,-2.47898
-427,323,-15.4075,2.98248,0,0,0,0,0,0,0,-1,797,701,-15.4075,-2.98248
-420,323,-14.8839,3.49579,0,0,0,0,0,0,0,-1,804,701,-14.8839,-3.49579
-413,323,-14.0645,4.22607,0,0,0,0,0,0,0,-1,811,701,-14.0645,-4.22605
-406,323,0,0,0,0,0,0,0,0,0,-1,818,701,0,0
-399,323,0,0,0,0,0,0,0,0,0,-1,825,701,0,0
-392,323,0,0,0,0,0,0,0,0,0,-1,832,701,0,0
-385,323,0,0,0,0,0,0,0,0,0,-1,839,701,0,0
-378,323,0,0,0,0,0,0,0,0,0,-1,846,701,0,0
-371,323,0,0,0,0,0,0,0,0,0,-1,853,701,0,0
-364,323,0,0,0,0,0,0,0,0,0,-1,860,701,0,0
-357,323,0,0,0,0,0,0,0,0,0,-1,867,701,0,0
-350,323,0,0,0,0,0,0,0,0,0,-1,874,701,0,0
-343,323,0,0,0,0,0,0,0,0,0,-1,881,701,0,0
-336,323,0,0,0,0,0,0,0,0,0,-1,888,701,0,0
-329,323,0,0,0,0,0,0,0,0,0,-1,895,701,0,0
-322,323,0,0,0,0,0,0,0,0,0,-1,902,701,0,0
-315,323,0,0,0,0,0,0,0,0,0,-1,909,701,0,0
-308,323,0,0,0,0,0,0,0,0,0,-1,916,701,0,0
-301,323,0,0,0,0,0,0,0,0,0,-1,923,701,0,0
-294,323,0,0,0,0,0,0,0,0,0,-1,930,701,0,0
-287,323,0,0,0,0,0,0,0,0,0,-1,937,701,0,0
-280,323,0,0,0,0,0,0,0,0,0,-1,944,701,0,0
-273,323,0,0,0,0,0,0,0,0,0,-1,951,701,0,0
-266,323,0,0,0,0,0,0,0,0,0,-1,958,701,0,0
-259,323,0,0,0,0,0,0,0,0,0,-1,965,701,0,0
-252,323,0,0,0,0,0,0,0,0,0,-1,972,701,0,0
-245,323,0,0,0,0,0,0,0,0,0,-1,979,701,0,0
-238,323,0,0,0,0,0,0,0,0,0,-1,986,701,0,0
-231,323,0,0,0,0,0,0,0,0,0,-1,993,701,0,0
-224,323,0,0,0,0,0,0,0,0,0,-1,1000,701,0,0
-217,323,0,0,0,0,0,0,0,0,0,-1,1007,701,0,0
-210,323,0,0,0,0,0,0,0,0,0,-1,1014,701,0,0
-203,323,0,0,0,0,0,0,0,0,0,-1,1021,701,0,0
-196,323,0,0,0,0,0,0,0,0,0,-1,1028,701,0,0
-189,323,0,0,0,0,0,0,0,0,0,-1,1035,701,0,0
-182,323,0,0,0,0,0,0,0,0,0,-1,1042,701,0,0
-175,323,0,0,0,0,0,0,0,0,0,-1,1049,701,0,0
-168,323,0,0,0,0,0,0,0,0,0,-1,1056,701,0,0
-161,323,0,0,0,0,0,0,0,0,0,-1,1063,701,0,0
-154,323,0,0,0,0,0,0,0,0,0,-1,1070,701,0,0
-147,323,0,0,0,0,0,0,0,0,0,-1,1077,701,0,0
-140,323,0,0,0,0,0,0,0,0,0,-1,1084,701,0,0
-133,323,0,0,0,0,0,0,0,0,0,-1,1091,701,0,0
-126,323,0,0,0,0,0,0,0,0,0,-1,1098,701,0,0
-119,323,0,0,0,0,0,0,0,0,0,-1,1105,701,0,0
-112,323,0,0,0,0,0,0,0,0,0,-1,1112,701,0,0
-105,323,0,0,0,0,0,0,0,0,0,-1,1119,701,0,0
-98,323,0,0,0,0,0,0,0,0,0,-1,1126,701,0,0
-91,323,0,0,0,0,0,0,0,0,0,-1,1133,701,0,0
-84,323,0,0,0,0,0,0,0,0,0,-1,1140,701,0,0
-77,323,0,0,0,0,0,0,0,0,0,-1,1147,701,0,0
-70,323,0,0,0,0,0,0,0,0,0,-1,1154,701,0,0
-63,323,0,0,0,0,0,0,0,0,0,-1,1161,701,0,0
-56,323,0,0,0,0,0,0,0,0,0,-1,1168,701,0,0
-49,323,0,0,0,0,0,0,0,0,0,-1,1175,701,0,0
-42,323,0,0,0,0,0,0,0,0,0,-1,1182,701,0,0
-35,323,0,0,0,0,0,0,0,0,0,-1,1189,701,0,0
-28,323,0,0,0,0,0,0,0,0,0,-1,1196,701,0,0
-21,323,0,0,0,0,0,0,0,0,0,-1,1203,701,0,0
-14,323,0,0,0,0,0,0,0,0,0,-1,1210,701,0,0
-7,323,0,0,0,0,0,0,0,0,0,-1,1217,701,0,0
0,323,0,0,0,0,0,0,0,0,0,-1,1224,701,0,0
7,323,0,0,0,0,0,0,0,0,0,-1,1231,701,0,0
14,323,0,0,0,0,0,0,0,0,0,-1,1238,701,0,0
21,323,0,0,0,0,0,0,0,0,0,-1,1245,701,0,0
28,323,0,0,0,0,0,0,0,0,0,-1,1252,701,0,0
35,323,0,0,0,0,0,0,0,0,0,-1,1259,701,0,0
42,323,0,0,0,0,0,0,0,0,0,-1,1266,701,0,0
49,323,0,0,0,0,0,0,0,0,0,-1,1273,701,0,0
56,323,0,0,0,0,0,0,0,0,0,-1,1280,701,0,0
63,323,0,0,0,0,0,0,0,0,0,-1,1287,701,0,0
70,323,0,0,0,0,0,0,0,0,0,-1,1294,701,0,0
77,323,0,0,0,0,0,0,0,0,0,-1,1301,701,0,0
84,323,0,0,0,0,0,0,0,0,0,-1,1308,701,0,0
91,323,0,0,0,0,0,0,0,0,0,-1,1315,701,0,0
98,323,0,0,0,0,0,0,0,0,0,-1,1322,701,0,0
105,323,0,0,0,0,0,0,0,0,0,-1,1329,701,0,0
112,323,0,0,0,0,0,0,0,0,0,-1,1336,701,0,0
119,323,0,0,0,0,0,0,0,0,0,-1,1343,701,0,0
126,323,0,0,0,0,0,0,0,0,0,-1,1350,701,0,0
133,323,0,0,0,0,0,0,0,0,0,-1,1357,701,0,0
140,323,0,0,0,0,0,0,0,0,0,-1,1364,701,0,0
147,323,0,0,0,0,0,0,0,0,0,-1,1371,701,0,0
154,323,0,0,0,0,0,0,0,0,0,-1,1378,701,0,0
161,323,0,0,0,0,0,0,0,0,0,-1,1385,701,0,0
168,323,0,0,0,0,0,0,0,0,0,-1,1392,701,0,0
175,323,0,0,0,0,0,0,0,0,0,-1,1399,701,0,0
182,323,0,0,0,0,0,0,0,0,0,-1,1406,701,0,0
189,323,0,0,0,0,0,0,0,0,0,-1,1413,701,0,0
196,323,0,0,0,0,0,0,0,0,0,-1,1420,701,0,0
203,323,0,0,0,0,0,0,0,0,0,-1,1427,701,0,0
210,323,0,0,0,0,0,0,0,0,0,-1,1434,701,0,0
217,323,0,0,0,0,0,0,0,0,0,-1,1441,701,0,0
224,323,0,0,0,0,0,0,0,0,0,-1,1448,701,0,0
231,323,0,0,0,0,0,0,0,0,0,-1,1455,701,0,0
238,323,0,0,0,0,0,0,0,0,0,-1,1462,701,0,0
245,323,0,0,0,0,0,0,0,0,0,-1,1469,701,0,0
252,323,0,0,0,0,0,0,0,0,0,-1,1476,701,0,0
259,323,0,0,0,0,0,0,0,0,0,-1,1483,701,0,0
266,323,0,0,0,0,0,0,0,0,0,-1,1490,701,0,0
273,323,0,0,0,0,0,0,0,0,0,-1,1497,701,0,0
280,323,0,0,0,0,0,0,0,0,0,-1,1504,701,0,0
287,323,0,0,0,0,0,0,0,0,0,-1,1511,701,0,0
294,323,0,0,0,0,0,0,0,0,0,-1,1518,701,0,0
301,323,0,0,0,0,0,0,0,0,0,-1,1525,701,0,0
308,323,0,0,0,0,0,0,0,0,0,-1,1532,701,0,0
315,323,0,0,0,0,0,0,0,0,0,-1,1539,701,0,0
322,323,0,0,0,0,0,0,0,0,0,-1,1546,701,0,0
329,323,0,0,0,0,0,0,0,0,0,-1,1553,701,0,0
336,323,0,0,0,0,0,0,0,0,0,-1,1560,701,0,0
343,323,0,0,0,0,0,0,0,0,0,-1,1567,701,0,0
350,323,0,0,0,0,0,0,0,0,0,-1,1574,701,0,0
357,323,0,0,0,0,0,0,0,0,0,-1,1581,701,0,0
364,323,0,0,0,0,0,0,0,0,0,-1,1588,701,0,0
371,323,0,0,0,0,0,0,0,0,0,-1,1595,701,0,0
378,323,0,0,0,0,0,0,0,0,0,-1,1602,701,0,0
385,323,0,0,0,0,0,0,0,0,0,-1,1609,701,0,0
392,323,0,0,0,0,0,0,0,0,0,-1,1616,701,0,0
399,323,0,0,0,0,0,0,0,0,0,-1,1623,701,0,0
406,323,0,0,0,0,0,0,0,0,0,-1,1630,701,0,0
413,323,0,0,0,0,0,0,0,0,0,-1,1637,701,0,0
420,323,0,0,0,0,0,0,0,0,0,-1,1644,701,0,0
427,323,0,0,0,0,0,0,0,0,0,-1,1651,701,0,0
434,323,0,0,0,0,0,0,0,0,0,-1,1658,701,0,0
441,323,0,0,0,0,0,0,0,0,0,-1,1665,701,0,0
448,323,0,0,0,0,0,0,0,0,0,-1,1672,701,0,0
455,323,0,0,0,0,0,0,0,0,0,-1,1679,701,0,0
462,323,0,0,0,0,0,0,0,0,0,-1,1686,701,0,0
469,323,0,0,0,0,0,0,0,0,0,-1,1693,701,0,0
476,323,0,0,0,0,0,0,0,0,0,-1,1700,701,0,0
483,323,0,0,0,0,0,0,0,0,0,-1,1707,701,0,0
490,323,0,0,0,0,0,0,0,0,0,-1,1714,701,0,0
497,323,0,0,0,0,0,0,0,0,0,-1,1721,701,0,0
504,323,0,0,0,0,0,0,0,0,0,-1,1728,701,0,0
511,323,0,0,0,0,0,0,0,0,0,-1,1735,701,0,0
518,323,0,0,0,0,0,0,0,0,0,-1,1742,701,0,0
525,323,0,0,0,0,0,0,0,0,0,-1,1749,701,0,0
532,323,33.6193,1.69446,0,0,0,0,0,0,0,-1,1756,701,33.6193,-1.69444
539,323,32.2698,2.44037,0,0,0,0,0,0,0,-1,1763,701,32.2697,-2.44036
546,323,31.1644,3.9444,0,0,0,0,0,0,0,-1,1770,701,31.1644,-3.94438
553,323,30.2488,5.8775,0,0,0,0,0,0,0,-1,1777,701,30.2487,-5.87752
560,323,31.9149,2.33624,0,0,0,0,0,0,0,-1,1784,701,31.9149,-2.33626
567,323,32.0164,2.60754,0,0,0,0,0,0,0,-1,1791,701,32.0163,-2.60753
574,323,12.514,5.89685,0,0,0,0,0,0,0,-1,1798,701,12.5141,-5.89683
581,323,11.821,5.3476,0,0,0,0,0,0,0,-1,1805,701,11.821,-5.34762
588,323,11.7933,7.00818,0,0,0,0,0,0,0,-1,1812,701,11.7933,-7.00819
595,323,6.67847,0.06604,0,0,0,0,0,0,0,-1,1819,701,6.67841,-0.0660418
602,323,11.2856,-0.595459,0,0,0,0,0,0,0,-1,1826,701,11.2856,0.595433
609,323,20.2969,-3.40338,0,0,0,0,0,0,0,-1,1833,701,20.2969,3.40339
616,323,20.5543,-2.81549,0.000654074,-0.00236465,0.00462924,0.0040138,-0.00572437,0.627808,0.00565117,0.0152366,1840,701,20.5544,2.81549
623,323,20.5824,-2.34705,0.00105608,-0.00107244,0.00297213,0.00314874,-0.00316511,0.613471,0.00364531,0.0131158,1847,701,20.5824,2.34703
630,323,20.5544,-1.88269,0.000767215,-0.000404591,0.00176563,0.00204161,-0.00167899,0.625196,0.00215149,0.0138344,1854,701,20.5544,1.8827
637,323,20.5313,-1.43616,6.30392e-05,0.000181812,0.000768077,0.000892795,-0.000647944,0.82398,0.000893282,0.0105102,1861,701,20.5313,1.43615
644,323,20.5232,-1.01123,-0.0012385,0.000479383,0.000194794,0.000501194,-0.00126031,1.45929,0.00104801,0.00770044,1868,701,20.5231,1.01126
651,323,20.5114,-0.545715,-0.00285226,0.000805356,-0.000229057,0.000819645,-0.00286655,-1.5085,0.00223492,0.00937919,1875,701,20.5113,0.545695
658,323,20.4589,-0.0679321,-0.00478614,0.00119145,-0.000619347,0.00125495,-0.00484964,-1.46863,0.0037226,0.0124711,1882,701,20.4589,0.0679133
665,323,20.4406,0.374512,-0.00716114,0.00178653,-0.00106938,0.00191256,-0.00728717,-1.45348,0.00560547,0.0114638,1889,701,20.4406,-0.374542
672,323,20.4685,0.84552,-0.0100173,0.00266374,-0.00154458,0.00284917,-0.0102027,-1.45132,0.00792415,0.0117383,1896,701,20.4685,-0.845548
679,323,20.3947,1.34711,-0.0136845,0.00383466,-0.00212634,0.00408905,-0.0139389,-1.45173,0.010914,0.0252064,1903,701,20.3947,-1.34709
686,323,20.2617,1.82397,-0.0183797,0.00540139,-0.00278694,0.00572363,-0.0187019,-1.45568,0.0147507,0.0435461,1910,701,20.2617,-1.82395
693,323,20.2106,2.31604,0,0,0,0,0,0,0,-1,1917,701,20.2106,-2.31606
700,323,10.7705,0.828613,0,0,0,0,0,0,0,-1,1924,701,10.7705,-0.828591
707,323,16.9005,4.79193,0,0,0,0,0,0,0,-1,1931,701,16.9005,-4.7919
714,323,16.2346,6.25958,0,0,0,0,0,0,0,-1,1938,701,16.2346,-6.25956
721,323,0,0,0,0,0,0,0,0,0,-1,1945,701,0,0
728,323,0,0,0,0,0,0,0,0,0,-1,1952,701,0,0
735,323,0,0,0,0,0,0,0,0,0,-1,1959,701,0,0
742,323,0,0,0,0,0,0,0,0,0,-1,1966,701,0,0
749,323,0,0,0,0,0,0,0,0,0,-1,1973,701,0,0
756,323,0,0,0,0,0,0,0,0,0,-1,1980,701,0,0
763,323,0,0,0,0,0,0,0,0,0,-1,1987,701,0,0
770,323,0,0,0,0,0,0,0,0,0,-1,1994,701,0,0
777,323,0,0,0,0,0,0,0,0,0,-1,2001,701,0,0
784,323,0,0,0,0,0,0,0,0,0,-1,2008,701,0,0
791,323,0,0,0,0,0,0,0,0,0,-1,2015,701,0,0
798,323,0,0,0,0,0,0,0,0,0,-1,2022,701,0,0
805,323,0,0,0,0,0,0,0,0,0,-1,2029,701,0,0
812,323,0,0,0,0,0,0,0,0,0,-1,2036,701,0,0
-700,316,0,0,0,0,0,0,0,0,0,-1,524,708,0,0
-693,316,0,0,0,0,0,0,0,0,0,-1,531,708,0,0
-686,316,0,0,0,0,0,0,0,0,0,-1,538,708,0,0
-679,316,0,0,0,0,0,0,0,0,0,-1,545,708,0,0
-672,316,0,0,0,0,0,0,0,0,0,-1,552,708,0,0
-665,316,0,0,0,0,0,0,0,0,0,-1,559,708,0,0
-658,316,0,0,0,0,0,0,0,0,0,-1,566,708,0,0
-651,316,0,0,0,0,0,0,0,0,0,-1,573,708,0,0
-644,316,0,0,0,0,0,0,0,0,0,-1,580,708,0,0
-637,316,0,0,0,0,0,0,0,0,0,-1,587,708,0,0
-630,316,0,0,0,0,0,0,0,0,0,-1,594,708,0,0
-623,316,0,0,0,0,0,0,0,0,0,-1,601,708,0,0
-616,316,0,0,0,0,0,0,0,0,0,-1,608,708,0,0
-609,316,0,0,0,0,0,0,0,0,0,-1,615,708,0,0
-602,316,-0.451782,-0.0494995,0,0,0,0,0,0,0,-1,622,708,-0.451768,0.0495022
-595,316,-3.3761,2.17188,0,0,0,0,0,0,0,-1,629,708,-3.37609,-2.17189
-588,316,-5.00177,2.60675,0,0,0,0,0,0,0,-1,636,708,-5.00175,-2.60676
-581,316,-3.94653,0.393433,0,0,0,0,0,0,0,-1,643,708,-3.94655,-0.39342
-574,316,-9.67395,1.06067,0,0,0,0,0,0,0,-1,650,708,-9.67396,-1.06065
-567,316,-10.1962,0.448425,0,0,0,0,0,0,0,-1,657,708,-10.1962,-0.448411
-560,316,-12.2585,-0.586548,0,0,0,0,0,0,0,-1,664,708,-12.2585,0.58652
-553,316,-12.4512,-0.859131,0.000304378,0.0115743,-0.00464279,0.0132406,-0.00136192,-1.22622,0.00931428,0.0377471,671,708,-12.4512,0.859154
-546,316,-12.6426,-1.14893,0.00057506,0.00895631,-0.00384798,0.010455,-0.000923629,-1.1994,0.00729739,0.0212868,678,708,-12.6426,1.1489
-539,316,-12.5934,-1.61066,0.000698483,0.00671587,-0.00304224,0.0079859,-0.000571543,-1.17533,0.00552431,0.012125,685,708,-12.5934,1.61067
-532,316,-12.6122,-2.02521,0.000741637,0.00468438,-0.00223028,0.00568965,-0.000263642,-1.14733,0.00388397,0.00959181,692,708,-12.6122,2.02521
-525,316,-12.6075,-2.44391,0.000757335,0.00295762,-0.00144397,0.00367279,4.21668e-05,-1.11093,0.00243459,0.00884849,699,708,-12.6075,2.44389
-518,316,-12.5997,-2.88007,0.00079534,0.00165019,-0.000670894,0.00201824,0.000427283,-1.06902,0.0012281,0.00917467,706,708,-12.5998,2.88009
-511,316,-12.6232,-3.31586,0.00117406,0.000975578,0.000254437,0.00134792,0.000801712,0.599455,0.00078287,0.0104633,713,708,-12.6232,3.31584
-504,316,-12.6606,-3.75781,0.00163177,0.000715576,0.0012296,0.00248583,-0.000138484,0.607083,0.00170526,0.0140333,720,708,-12.6606,3.7578
-497,316,-12.6684,-4.15814,0.00244605,0.00125394,0.0023922,0.00431533,-0.000615344,0.663302,0.00310241,0.0131436,727,708,-12.6684,4.15817
-490,316,-12.6724,-4.58899,0.00395792,0.0030088,0.00367304,0.00718693,-0.000220214,0.721154,0.00486635,0.0161343,734,708,-12.6724,4.58901
-483,316,-12.6445,-5.07355,0,0,0,0,0,0,0,-1,741,708,-12.6445,5.07354
-476,316,-8.90894,-3.31207,0,0,0,0,0,0,0,-1,748,708,-8.90896,3.31206
-469,316,-6.24194,-1.42725,0,0,0,0,0,0,0,-1,755,708,-6.24192,1.42725
-462,316,-5.74237,-1.40039,0,0,0,0,0,0,0,-1,762,708,-5.74238,1.40039
-455,316,-5.44745,-1.21899,0,0,0,0,0,0,0,-1,769,708,-5.44746,1.21898
-448,316,-14.8945,0.655396,0,0,0,0,0,0,0,-1,776,708,-14.8946,-0.655396
-441,316,-14.9626,0.576111,0,0,0,0,0,0,0,-1,783,708,-14.9626,-0.576115
-434,316,-15.272,0.942993,0,0,0,0,0,0,0,-1,790,708,-15.272,-0.942979
-427,316,-14.6848,3.17792,0,0,0,0,0,0,0,-1,797,708,-14.6848,-3.1779
-420,316,-13.5587,2.737,0,0,0,0,0,0,0,-1,804,708,-13.5587,-2.73703
-413,316,0,0,0,0,0,0,0,0,0,-1,811,708,0,0
-406,316,0,0,0,0,0,0,0,0,0,-1,818,708,0,0
-399,316,0,0,0,0,0,0,0,0,0,-1,825,708,0,0
-392,316,0,0,0,0,0,0,0,0,0,-1,832,708,0,0
-385,316,0,0,0,0,0,0,0,0,0,-1,839,708,0,0
-378,316,0,0,0,0,0,0,0,0,0,-1,846,708,0,0
-371,316,0,0,0,0,0,0,0,0,0,-1,853,708,0,0
-364,316,0,0,0,0,0,0,0,0,0,-1,860,708,0,0
-357,316,0,0,0,0,0,0,0,0,0,-1,867,708,0,0
-350,316,0,0,0,0,0,0,0,0,0,-1,874,708,0,0
-343,316,0,0,0,0,0,0,0,0,0,-1,881,708,0,0
-336,316,0,0,0,0,0,0,0,0,0,-1,888,708,0,0
-329,316,0,0,0,0,0,0,0,0,0,-1,895,708,0,0
-322,316,0,0,0,0,0,0,0,0,0,-1,902,708,0,0
-315,316,0,0,0,0,0,0,0,0,0,-1,909,708,0,0
-308,316,0,0,0,0,0,0,0,0,0,-1,916,708,0,0
-301,316,0,0,0,0,0,0,0,0,0,-1,923,708,0,0
-294,316,0,0,0,0,0,0,0,0,0,-1,930,708,0,0
-287,316,0,0,0,0,0,0,0,0,0,-1,937,708,0,0
-280,316,0,0,0,0,0,0,0,0,0,-1,944,708,0,0
-273,316,0,0,0,0,0,0,0,0,0,-1,951,708,0,0
-266,316,0,0,0,0,0,0,0,0,0,-1,958,708,0,0
-259,316,0,0,0,0,0,0,0,0,0,-1,965,708,0,0
-252,316,0,0,0,0,0,0,0,0,0,-1,972,708,0,0
-245,316,0,0,0,0,0,0,0,0,0,-1,979,708,0,0
-238,316,0,0,0,0,0,0,0,0,0,-1,986,708,0,0
-231,316,0,0,0,0,0,0,0,0,0,-1,993,708,0,0
-224,316,0,0,0,0,0,0,0,0,0,-1,1000,708,0,0
-217,316,0,0,0,0,0,0,0,0,0,-1,1007,708,0,0
-210,316,0,0,0,0,0,0,0,0,0,-1,1014,708,0,0
-203,316,0,0,0,0,0,0,0,0,0,-1,1021,708,0,0
-196,316,0,0,0,0,0,0,0,0,0,-1,1028,708,0,0
-189,316,0,0,0,0,0,0,0,0,0,-1,1035,708,0,0
-182,316,0,0,0,0,0,0,0,0,0,-1,1042,708,0,0
-175,316,0,0,0,0,0,0,0,0,0,-1,1049,708,0,0
-168,316,0,0,0,0,0,0,0,0,0,-1,1056,708,0,0
-161,316,0,0,0,0,0,0,0,0,0,-1,1063,708,0,0
-154,316,0,0,0,0,0,0,0,0,0,-1,1070,708,0,0
-147,316,0,0,0,0,0,0,0,0,0,-1,1077,708,0,0
-140,316,0,0,0,0,0,0,0,0,0,-1,1084,708,0,0
-133,316,0,0,0,0,0,0,0,0,0,-1,1091,708,0,0
-126,316,0,0,0,0,0,0,0,0,0,-1,1098,708,0,0
-119,316,0,0,0,0,0,0,0,0,0,-1,1105,708,0,0
-112,316,0,0,0,0,0,0,0,0,0,-1,1112,708,0,0
-105,316,0,0,0,0,0,0,0,0,0,-1,1119,708,0,0
-98,316,0,0,0,0,0,0,0,0,0,-1,1126,708,0,0
-91,316,0,0,0,0,0,0,0,0,0,-1,1133,708,0,0
-84,316,0,0,0,0,0,0,0,0,0,-1,1140,708,0,0
-77,316,0,0,0,0,0,0,0,0,0,-1,1147,708,0,0
-70,316,0,0,0,0,0,0,0,0,0,-1,1154,708,0,0
-63,316,0,0,0,0,0,0,0,0,0,-1,1161,708,0,0
-56,316,0,0,0,0,0,0,0,0,0,-1,1168,708,0,0
-49,316,0,0,0,0,0,0,0,0,0,-1,1175,708,0,0
-42,316,0,0,0,0,0,0,0,0,0,-1,1182,708,0,0
-35,316,0,0,0,0,0,0,0,0,0,-1,1189,708,0,0
-28,316,0,0,0,0,0,0,0,0,0,-1,1196,708,0,0
-21,316,0,0,0,0,0,0,0,0,0,-1,1203,708,0,0
-14,316,0,0,0,0,0,0,0,0,0,-1,1210,708,0,0
-7,316,0,0,0,0,0,0,0,0,0,-1,1217,708,0,0
0,316,0,0,0,0,0,0,0,0,0,-1,1224,708,0,0
7,316,0,0,0,0,0,0,0,0,0,-1,1231,708,0,0
14,316,0,0,0,0,0,0,0,0,0,-1,1238,708,0,0
21,316,0,0,0,0,0,0,0,0,0,-1,1245,708,0,0
28,316,0,0,0,0,0,0,0,0,0,-1,1252,708,0,0
35,316,0,0,0,0,0,0,0,0,0,-1,1259,708,0,0
42,316,0,0,0,0,0,0,0,0,0,-1,1266,708,0,0
49,316,0,0,0,0,0,0,0,0,0,-1,1273,708,0,0
56,316,0,0,0,0,0,0,0,0,0,-1,1280,708,0,0
63,316,0,0,0,0,0,0,0,0,0,-1,1287,708,0,0
70,316,0,0,0,0,0,0,0,0,0,-1,1294,708,0,0
77,316,0,0,0,0,0,0,0,0,0,-1,1301,708,0,0
84,316,0,0,0,0,0,0,0,0,0,-1,1308,708,0,0
91,316,0,0,0,0,0,0,0,0,0,-1,1315,708,0,0
98,316,0,0,0,0,0,0,0,0,0,-1,1322,708,0,0
105,316,0,0,0,0,0,0,0,0,0,-1,1329,708,0,0
112,316,0,0,0,0,0,0,0,0,0,-1,1336,708,0,0
119,316,0,0,0,0,0,0,0,0,0,-1,1343,708,0,0
126,316,0,0,0,0,0,0,0,0,0,-1,1350,708,0,0
133,316,0,0,0,0,0,0,0,0,0,-1,1357,708,0,0
140,316,0,0,0,0,0,0,0,0,0,-1,1364,708,0,0
147,316,0,0,0,0,0,0,0,0,0,-1,1371,708,0,0
154,316,0,0,0,0,0,0,0,0,0,-1,1378,708,0,0
161,316,0,0,0,0,0,0,0,0,0,-1,1385,708,0,0
168,316,0,0,0,0,0,0,0,0,0,-1,1392,708,0,0
175,316,0,0,0,0,0,0,0,0,0,-1,1399,708,0,0
182,316,0,0,0,0,0,0,0,0,0,-1,1406,708,0,0
189,316,0,0,0,0,0,0,0,0,0,-1,1413,708,0,0
196,316,0,0,0,0,0,0,0,0,0,-1,1420,708,0,0
203,316,0,0,0,0,0,0,0,0,0,-1,1427,708,0,0
210,316,0,0,0,0,0,0,0,0,0,-1,1434,708,0,0
217,316,0,0,0,0,0,0,0,0,0,-1,1441,708,0,0
224,316,0,0,0,0,0,0,0,0,0,-1,1448,708,0,0
231,316,0,0,0,0,0,0,0,0,0,-1,1455,708,0,0
238,316,0,0,0,0,0,0,0,0,0,-1,1462,708,0,0
245,316,0,0,0,0,0,0,0,0,0,-1,1469,708,0,0
252,316,0,0,0,0,0,0,0,0,0,-1,1476,708,0,0
259,316,0,0,0,0,0,0,0,0,0,-1,1483,708,0,0
266,316,0,0,0,0,0,0,0,0,0,-1,1490,708,0,0
273,316,0,0,0,0,0,0,0,0,0,-1,1497,708,0,0
280,316,0,0,0,0,0,0,0,0,0,-1,1504,708,0,0
287,316,0,0,0,0,0,0,0,0,0,-1,1511,708,0,0
294,316,0,0,0,0,0,0,0,0,0,-1,1518,708,0,0
301,316,0,0,0,0,0,0,0,0,0,-1,1525,708,0,0
308,316,0,0,0,0,0,0,0,0,0,-1,1532,708,0,0
315,316,0,0,0,0,0,0,0,0,0,-1,1539,708,0,0
322,316,0,0,0,0,0,0,0,0,0,-1,1546,708,0,0
329,316,0,0,0,0,0,0,0,0,0,-1,1553,708,0,0
336,316,0,0,0,0,0,0,0,0,0,-1,1560,708,0,0
343,316,0,0,0,0,0,0,0,0,0,-1,1567,708,0,0
350,316,0,0,0,0,0,0,0,0,0,-1,1574,708,0,0
357,316,0,0,0,0,0,0,0,0,0,-1,1581,708,0,0
364,316,0,0,0,0,0,0,0,0,0,-1,1588,708,0,0
371,316,0,0,0,0,0,0,0,0,0,-1,1595,708,0,0
378,316,0,0,0,0,0,0,0,0,0,-1,1602,708,0,0
385,316,0,0,0,0,0,0,0,0,0,-1,1609,708,0,0
392,316,0,0,0,0,0,0,0,0,0,-1,1616,708,0,0
399,316,0,0,0,0,0,0,0,0,0,-1,1623,708,0,0
406,316,0,0,0,0,0,0,0,0,0,-1,1630,708,0,0
413,316,0,0,0,0,0,0,0,0,0,-1,1637,708,0,0
420,316,0,0,0,0,0,0,0,0,0,-1,1644,708,0,0
427,316,0,0,0,0,0,0,0,0,0,-1,1651,708,0,0
434,316,0,0,0,0,0,0,0,0,0,-1,1658,708,0,0
441,316,0,0,0,0,0,0,0,0,0,-1,1665,708,0,0
448,316,0,0,0,0,0,0,0,0,0,-1,1672,708,0,0
455,316,0,0,0,0,0,0,0,0,0,-1,1679,708,0,0
462,316,0,0,0,0,0,0,0,0,0,-1,1686,708,0,0
469,316,0,0,0,0,0,0,0,0,0,-1,1693,708,0,0
476,316,0,0,0,0,0,0,0,0,0,-1,1700,708,0,0
483,316,0,0,0,0,0,0,0,0,0,-1,1707,708,0,0
490,316,0,0,0,0,0,0,0,0,0,-1,1714,708,0,0
497,316,0,0,0,0,0,0,0,0,0,-1,1721,708,0,0
504,316,0,0,0,0,0,0,0,0,0,-1,1728,708,0,0
511,316,0,0,0,0,0,0,0,0,0,-1,1735,708,0,0
518,316,0,0,0,0,0,0,0,0,0,-1,1742,708,0,0
525,316,0,0,0,0,0,0,0,0,0,-1,1749,708,0,0
532,316,33.8604,0.531128,0,0,0,0,0,0,0,-1,1756,708,33.8604,-0.531151
539,316,31.875,4.05316,0,0,0,0,0,0,0,-1,1763,708,31.875,-4.05318
546,316,32.4357,4.87872,0,0,0,0,0,0,0,-1,1770,708,32.4357,-4.87873
553,316,35.3171,4.46155,0,0,0,0,0,0,0,-1,1777,708,35.3171,-4.46154
560,316,29.651,6.51129,0,0,0,0,0,0,0,-1,1784,708,29.651,-6.51128
567,316,31.678,2.43597,0,0,0,0,0,0,0,-1,1791,708,31.678,-2.43595
574,316,30.4771,6.54126,0,0,0,0,0,0,0,-1,1798,708,30.4771,-6.54126
581,316,24.6815,7.77496,0,0,0,0,0,0,0,-1,1805,708,24.6815,-7.77499
588,316,19.7659,2.90198,0,0,0,0,0,0,0,-1,1812,708,19.7659,-2.902
595,316,12.5363,1.50702,0,0,0,0,0,0,0,-1,1819,708,12.5363,-1.50701
602,316,7.79919,0.0422363,0,0,0,0,0,0,0,-1,1826,708,7.79923,-0.0422066
609,316,20.8982,-3.35291,0,0,0,0,0,0,0,-1,1833,708,20.8981,3.35291
616,316,20.9873,-2.80475,0.00154519,-0.00520547,0.00648855,0.00548383,-0.00914411,0.545561,0.00853312,0.0198738,1840,708,20.9873,2.80475
623,316,21.0173,-2.33221,0.00164994,-0.00300417,0.00425361,0.00417143,-0.00552566,0.5351,0.00561679,0.0105733,1847,708,21.0174,2.33219
630,316,20.9742,-1.89459,0.00118245,-0.0016792,0.00256666,0.00269017,-0.00318692,0.53112,0.00339717,0.0126999,1854,708,20.9742,1.89461
637,316,20.9694,-1.40942,0.000379645,-0.000232079,0.00105055,0.00116795,-0.00102038,0.643741,0.00126439,0.0120833,1861,708,20.9694,1.40941
644,316,20.9827,-0.972778,-0.0008023,0.000274658,0.000356554,0.000382004,-0.000909646,1.27836,0.000766195,0.0116362,1868,708,20.9827,0.972751
651,316,20.9691,-0.536377,-0.00216347,0.000711223,-0.00010653,0.000715165,-0.00216741,-1.53381,0.00173323,0.0133118,1875,708,20.9691,0.536362
658,316,20.9407,-0.0443726,-0.00385802,0.00116912,-0.000431261,0.00120585,-0.00389475,-1.48584,0.00307821,0.0213325,1882,708,20.9407,0.0443963
665,316,20.8901,0.412292,-0.00588929,0.00185497,-0.000789905,0.00193472,-0.00596904,-1.47018,0.00475726,0.0168018,1889,708,20.8901,-0.412298
672,316,20.8912,0.844116,-0.00828509,0.00280479,-0.00114473,0.00292172,-0.00840203,-1.469,0.00678819,0.0121626,1896,708,20.8913,-0.844146
679,316,20.912,1.35663,-0.0112311,0.00405015,-0.00154826,0.00420544,-0.0113864,-1.47083,0.00931475,0.01956,1903,708,20.912,-1.35665
686,316,20.686,1.8559,-0.0148613,0.00564697,-0.00199198,0.00583866,-0.015053,-1.47486,0.0124467,0.0331092,1910,708,20.6861,-1.85589
693,316,20.0826,2.94257,0,0,0,0,0,0,0,-1,1917,708,20.0827,-2.94255
700,316,12.8749,2.89136,0,0,0,0,0,0,0,-1,1924,708,12.8748,-2.89137
707,316,15.7089,5.41486,0,0,0,0,0,0,0,-1,1931,708,15.7088,-5.41487
714,316,16.1727,5.52045,0,0,0,0,0,0,0,-1,1938,708,16.1728,-5.52042
721,316,16.7094,6.53351,0,0,0,0,0,0,0,-1,1945,708,16.7094,-6.5335
728,316,0,0,0,0,0,0,0,0,0,-1,1952,708,0,0
735,316,0,0,0,0,0,0,0,0,0,-1,1959,708,0,0
742,316,0,0,0,0,0,0,0,0,0,-1,1966,708,0,0
749,316,0,0,0,0,0,0,0,0,0,-1,1973,708,0,0
756,316,0,0,0,0,0,0,0,0,0,-1,1980,708,0,0
763,316,0,0,0,0,0,0,0,0,0,-1,1987,708,0,0
770,316,0,0,0,0,0,0,0,0,0,-1,1994,708,0,0
777,316,0,0,0,0,0,0,0,0,0,-1,2001,708,0,0
784,316,0,0,0,0,0,0,0,0,0,-1,2008,708,0,0
791,316,0,0,0,0,0,0,0,0,0,-1,2015,708,0,0
798,316,0,0,0,0,0,0,0,0,0,-1,2022,708,0,0
805,316,0,0,0,0,0,0,0,0,0,-1,2029,708,0,0
812,316,0,0,0,0,0,0,0,0,0,-1,2036,708,0,0
-700,309,0,0,0,0,0,0,0,0,0,-1,524,715,0,0
-693,309,0,0,0,0,0,0,0,0,0,-1,531,715,0,0
-686,309,0,0,0,0,0,0,0,0,0,-1,538,715,0,0
-679,309,0,0,0,0,0,0,0,0,0,-1,545,715,0,0
-672,309,0,0,0,0,0,0,0,0,0,-1,552,715,0,0
-665,309,0,0,0,0,0,0,0,0,0,-1,559,715,0,0
-658,309,0,0,0,0,0,0,0,0,0,-1,566,715,0,0
-651,309,0,0,0,0,0,0,0,0,0,-1,573,715,0,0
-644,309,0,0,0,0,0,0,0,0,0,-1,580,715,0,0
-637,309,0,0,0,0,0,0,0,0,0,-1,587,715,0,0
-630,309,0,0,0,0,0,0,0,0,0,-1,594,715,0,0
-623,309,0,0,0,0,0,0,0,0,0,-1,601,715,0,0
-616,309,0,0,0,0,0,0,0,0,0,-1,608,715,0,0
-609,309,-5.95392,-3.93689,0,0,0,0,0,0,0,-1,615,715,-5.95392,3.93686
-602,309,-4.99786,-3.31287,0,0,0,0,0,0,0,-1,622,715,-4.99786,3.31284
-595,309,-6.80847,2.4046,0,0,0,0,0,0,0,-1,629,715,-6.80845,-2.40458
-588,309,-6.08795,2.19324,0,0,0,0,0,0,0,-1,636,715,-6.08793,-2.19325
-581,309,-5.97552,1.3277,0,0,0,0,0,0,0,-1,643,715,-5.97552,-1.32769
-574,309,-8.73602,0.208435,0,0,0,0,0,0,0,-1,650,715,-8.73604,-0.208437
-567,309,-10.3909,0.85968,0,0,0,0,0,0,0,-1,657,715,-10.3909,-0.859696
-560,309,-12.8735,-0.755066,0,0,0,0,0,0,0,-1,664,715,-12.8735,0.755057
-553,309,-12.9608,-0.799744,-0.000881049,0.00865095,-0.00270391,0.00936454,-0.00159464,-1.31277,0.00683684,0.0375567,671,715,-12.9608,0.79975
-546,309,-13.0634,-1.13458,-0.00032309,0.00666095,-0.00226615,0.00733182,-0.000993958,-1.28298,0.00525065,0.01902,678,715,-13.0634,1.13458
-539,309,-13.0256,-1.60083,4.71024e-05,0.00490253,-0.00176699,0.00547749,-0.000527855,-1.25621,0.00383972,0.0146431,685,715,-13.0256,1.6008
-532,309,-13.027,-2.01624,0.000284274,0.00323389,-0.00120209,0.00366173,-0.000143568,-1.22886,0.00249039,0.0116016,692,715,-13.027,2.01621
-525,309,-13.0128,-2.45325,0.000423985,0.00189669,-0.000566383,0.00208932,0.000231357,-1.24297,0.00132252,0.0149783,699,715,-13.0128,2.45324
-518,309,-13.0213,-2.88611,0.000522804,0.00109914,0.00021206,0.00116876,0.000453187,1.25359,0.000680429,0.0149026,706,715,-13.0213,2.88608
-511,309,-13.0437,-3.2981,0.00107186,0.00105773,0.00138352,0.00244833,-0.000318741,0.782844,0.00174818,0.0118171,713,715,-13.0437,3.2981
-504,309,-13.0806,-3.72272,0.00157785,0.00151523,0.00274995,0.00429667,-0.00120359,0.779706,0.00333876,0.00999631,720,715,-13.0806,3.72274
-497,309,-13.0857,-4.13409,0.00243811,0.00305001,0.0045968,0.00735103,-0.00186291,0.818627,0.00562543,0.0145851,727,715,-13.0857,4.13411
-490,309,-13.052,-4.55481,0.00403192,0.00617657,0.00688977,0.012077,-0.00186848,0.862599,0.00874096,0.0432345,734,715,-13.052,4.55483
-483,309,-12.7559,-5.22571,0,0,0,0,0,0,0,-1,741,715,-12.7559,5.22572
-476,309,-5.29486,-1.2262,0,0,0,0,0,0,0,-1,748,715,-5.29484,1.22622
-469,309,-4.22717,-0.592896,0,0,0,0,0,0,0,-1,755,715,-4.2272,0.592905
-462,309,-10.428,2.46948,0,0,0,0,0,0,0,-1,762,715,-10.428,-2.46947
-455,309,-15.8216,0.00915527,0,0,0,0,0,0,0,-1,769,715,-15.8216,-0.00913359
-448,309,-19.2673,1.19257,0,0,0,0,0,0,0,-1,776,715,-19.2673,-1.19254
-441,309,-19.8181,1.4425,0,0,0,0,0,0,0,-1,783,715,-19.8181,-1.44249
-434,309,-15.3519,1.06873,0,0,0,0,0,0,0,-1,790,715,-15.3519,-1.06874
-427,309,-15.1996,1.32141,0,0,0,0,0,0,0,-1,797,715,-15.1996,-1.3214
-420,309,-13.3781,3.26843,0,0,0,0,0,0,0,-1,804,715,-13.3781,-3.26842
-413,309,0,0,0,0,0,0,0,0,0,-1,811,715,0,0
-406,309,0,0,0,0,0,0,0,0,0,-1,818,715,0,0
-399,309,0,0,0,0,0,0,0,0,0,-1,825,715,0,0
-392,309,0,0,0,0,0,0,0,0,0,-1,832,715,0,0
-385,309,0,0,0,0,0,0,0,0,0,-1,839,715,0,0
-378,309,0,0,0,0,0,0,0,0,0,-1,846,715,0,0
-371,309,0,0,0,0,0,0,0,0,0,-1,853,715,0,0
-364,309,0,0,0,0,0,0,0,0,0,-1,860,715,0,0
-357,309,0,0,0,0,0,0,0,0,0,-1,867,715,0,0
-350,309,0,0,0,0,0,0,0,0,0,-1,874,715,0,0
-343,309,0,0,0,0,0,0,0,0,0,-1,881,715,0,0
-336,309,0,0,0,0,0,0,0,0,0,-1,888,715,0,0
-329,309,0,0,0,0,0,0,0,0,0,-1,895,715,0,0
-322,309,0,0,0,0,0,0,0,0,0,-1,902,715,0,0
-315,309,0,0,0,0,0,0,0,0,0,-1,909,715,0,0
-308,309,0,0,0,0,0,0,0,0,0,-1,916,715,0,0
-301,309,0,0,0,0,0,0,0,0,0,-1,923,715,0,0
-294,309,0,0,0,0,0,0,0,0,0,-1,930,715,0,0
-287,309,0,0,0,0,0,0,0,0,0,-1,937,715,0,0
-280,309,0,0,0,0,0,0,0,0,0,-1,944,715,0,0
-273,309,0,0,0,0,0,0,0,0,0,-1,951,715,0,0
-266,309,0,0,0,0,0,0,0,0,0,-1,958,715,0,0
-259,309,0,0,0,0,0,0,0,0,0,-1,965,715,0,0
-252,309,0,0,0,0,0,0,0,0,0,-1,972,715,0,0
-245,309,0,0,0,0,0,0,0,0,0,-1,979,715,0,0
-238,309,0,0,0,0,0,0,0,0,0,-1,986,715,0,0
-231,309,0,0,0,0,0,0,0,0,0,-1,993,715,0,0
-224,309,0,0,0,0,0,0,0,0,0,-1,1000,715,0,0
-217,309,0,0,0,0,0,0,0,0,0,-1,1007,715,0,0
-210,309,0,0,0,0,0,0,0,0,0,-1,1014,715,0,0
-203,309,0,0,0,0,0,0,0,0,0,-1,1021,715,0,0
-196,309,0,0,0,0,0,0,0,0,0,-1,1028,715,0,0
-189,309,0,0,0,0,0,0,0,0,0,-1,1035,715,0,0
-182,309,0,0,0,0,0,0,0,0,0,-1,1042,715,0,0
-175,309,0,0,0,0,0,0,0,0,0,-1,1049,715,0,0
-168,309,0,0,0,0,0,0,0,0,0,-1,1056,715,0,0
-161,309,0,0,0,0,0,0,0,0,0,-1,1063,715,0,0
-154,309,0,0,0,0,0,0,0,0,0,-1,1070,715,0,0
-147,309,0,0,0,0,0,0,0,0,0,-1,1077,715,0,0
-140,309,0,0,0,0,0,0,0,0,0,-1,1084,715,0,0
-133,309,0,0,0,0,0,0,0,0,0,-1,1091,715,0,0
-126,309,0,0,0,0,0,0,0,0,0,-1,1098,715,0,0
-119,309,0,0,0,0,0,0,0,0,0,-1,1105,715,0,0
-112,309,0,0,0,0,0,0,0,0,0,-1,1112,715,0,0
-105,309,0,0,0,0,0,0,0,0,0,-1,1119,715,0,0
-98,309,0,0,0,0,0,0,0,0,0,-1,1126,715,0,0
-91,309,0,0,0,0,0,0,0,0,0,-1,1133,715,0,0
-84,309,0,0,0,0,0,0,0,0,0,-1,1140,715,0,0
-77,309,0,0,0,0,0,0,0,0,0,-1,1147,715,0,0
-70,309,0,0,0,0,0,0,0,0,0,-1,1154,715,0,0
-63,309,0,0,0,0,0,0,0,0,0,-1,1161,715,0,0
-56,309,0,0,0,0,0,0,0,0,0,-1,1168,715,0,0
-49,309,0,0,0,0,0,0,0,0,0,-1,1175,715,0,0
-42,309,0,0,0,0,0,0,0,0,0,-1,1182,715,0,0
-35,309,0,0,0,0,0,0,0,0,0,-1,1189,715,0,0
-28,309,0,0,0,0,0,0,0,0,0,-1,1196,715,0,0
-21,309,0,0,0,0,0,0,0,0,0,-1,1203,715,0,0
-14,309,0,0,0,0,0,0,0,0,0,-1,1210,715,0,0
-7,309,0,0,0,0,0,0,0,0,0,-1,1217,715,0,0
0,309,0,0,0,0,0,0,0,0,0,-1,1224,715,0,0
7,309,0,0,0,0,0,0,0,0,0,-1,1231,715,0,0
14,309,0,0,0,0,0,0,0,0,0,-1,1238,715,0,0
21,309,0,0,0,0,0,0,0,0,0,-1,1245,715,0,0
28,309,0,0,0,0,0,0,0,0,0,-1,1252,715,0,0
35,309,0,0,0,0,0,0,0,0,0,-1,1259,715,0,0
42,309,0,0,0,0,0,0,0,0,0,-1,1266,715,0,0
49,309,0,0,0,0,0,0,0,0,0,-1,1273,715,0,0
56,309,0,0,0,0,0,0,0,0,0,-1,1280,715,0,0
63,309,0,0,0,0,0,0,0,0,0,-1,1287,715,0,0
70,309,0,0,0,0,0,0,0,0,0,-1,1294,715,0,0
77,309,0,0,0,0,0,0,0,0,0,-1,1301,715,0,0
84,309,0,0,0,0,0,0,0,0,0,-1,1308,715,0,0
91,309,0,0,0,0,0,0,0,0,0,-1,1315,715,0,0
98,309,0,0,0,0,0,0,0,0,0,-1,1322,715,0,0
105,309,0,0,0,0,0,0,0,0,0,-1,1329,715,0,0
112,309,0,0,0,0,0,0,0,0,0,-1,1336,715,0,0
119,309,0,0,0,0,0,0,0,0,0,-1,1343,715,0,0
126,309,0,0,0,0,0,0,0,0,0,-1,1350,715,0,0
133,309,0,0,0,0,0,0,0,0,0,-1,1357,715,0,0
140,309,0,0,0,0,0,0,0,0,0,-1,1364,715,0,0
147,309,0,0,0,0,0,0,0,0,0,-1,1371,715,0,0
154,309,0,0,0,0,0,0,0,0,0,-1,1378,715,0,0
161,309,0,0,0,0,0,0,0,0,0,-1,1385,715,0,0
168,309,0,0,0,0,0,0,0,0,0,-1,1392,715,0,0
175,309,0,0,0,0,0,0,0,0,0,-1,1399,715,0,0
182,309,0,0,0,0,0,0,0,0,0,-1,1406,715,0,0
189,309,0,0,0,0,0,0,0,0,0,-1,1413,715,0,0
196,309,0,0,0,0,0,0,0,0,0,-1,1420,715,0,0
203,309,0,0,0,0,0,0,0,0,0,-1,1427,715,0,0
210,309,0,0,0,0,0,0,0,0,0,-1,1434,715,0,0
217,309,0,0,0,0,0,0,0,0,0,-1,1441,715,0,0
224,309,0,0,0,0,0,0,0,0,0,-1,1448,715,0,0
231,309,0,0,0,0,0,0,0,0,0,-1,1455,715,0,0
238,309,0,0,0,0,0,0,0,0,0,-1,1462,715,0,0
245,309,0,0,0,0,0,0,0,0,0,-1,1469,715,0,0
252,309,0,0,0,0,0,0,0,0,0,-1,1476,715,0,0
259,309,0,0,0,0,0,0,0,0,0,-1,1483,715,0,0
266,309,0,0,0,0,0,0,0,0,0,-1,1490,715,0,0
273,309,0,0,0,0,0,0,0,0,0,-1,1497,715,0,0
280,309,0,0,0,0,0,0,0,0,0,-1,1504,715,0,0
287,309,0,0,0,0,0,0,0,0,0,-1,1511,715,0,0
294,309,0,0,0,0,0,0,0,0,0,-1,1518,715,0,0
301,309,0,0,0,0,0,0,0,0,0,-1,1525,715,0,0
308,309,0,0,0,0,0,0,0,0,0,-1,1532,715,0,0
315,309,0,0,0,0,0,0,0,0,0,-1,1539,715,0,0
322,309,0,0,0,0,0,0,0,0,0,-1,1546,715,0,0
329,309,0,0,0,0,0,0,0,0,0,-1,1553,715,0,0
336,309,0,0,0,0,0,0,0,0,0,-1,1560,715,0,0
343,309,0,0,0,0,0,0,0,0,0,-1,1567,715,0,0
350,309,0,0,0,0,0,0,0,0,0,-1,1574,715,0,0
357,309,0,0,0,0,0,0,0,0,0,-1,1581,715,0,0
364,309,0,0,0,0,0,0,0,0,0,-1,1588,715,0,0
371,309,0,0,0,0,0,0,0,0,0,-1,1595,715,0,0
378,309,0,0,0,0,0,0,0,0,0,-1,1602,715,0,0
385,309,0,0,0,0,0,0,0,0,0,-1,1609,715,0,0
392,309,0,0,0,0,0,0,0,0,0,-1,1616,715,0,0
399,309,0,0,0,0,0,0,0,0,0,-1,1623,715,0,0
406,309,0,0,0,0,0,0,0,0,0,-1,1630,715,0,0
413,309,0,0,0,0,0,0,0,0,0,-1,1637,715,0,0
420,309,0,0,0,0,0,0,0,0,0,-1,1644,715,0,0
427,309,0,0,0,0,0,0,0,0,0,-1,1651,715,0,0
434,309,0,0,0,0,0,0,0,0,0,-1,1658,715,0,0
441,309,0,0,0,0,0,0,0,0,0,-1,1665,715,0,0
448,309,0,0,0,0,0,0,0,0,0,-1,1672,715,0,0
455,309,0,0,0,0,0,0,0,0,0,-1,1679,715,0,0
462,309,0,0,0,0,0,0,0,0,0,-1,1686,715,0,0
469,309,0,0,0,0,0,0,0,0,0,-1,1693,715,0,0
476,309,0,0,0,0,0,0,0,0,0,-1,1700,715,0,0
483,309,0,0,0,0,0,0,0,0,0,-1,1707,715,0,0
490,309,0,0,0,0,0,0,0,0,0,-1,1714,715,0,0
497,309,0,0,0,0,0,0,0,0,0,-1,1721,715,0,0
504,309,0,0,0,0,0,0,0,0,0,-1,1728,715,0,0
511,309,0,0,0,0,0,0,0,0,0,-1,1735,715,0,0
518,309,0,0,0,0,0,0,0,0,0,-1,1742,715,0,0
525,309,0,0,0,0,0,0,0,0,0,-1,1749,715,0,0
532,309,0,0,0,0,0,0,0,0,0,-1,1756,715,0,0
539,309,32.02,3.89752,0,0,0,0,0,0,0,-1,1763,715,32.02,-3.89751
546,309,34.9509,3.56384,0,0,0,0,0,0,0,-1,1770,715,34.9509,-3.56385
553,309,35.2075,3.77228,0,0,0,0,0,0,0,-1,1777,715,35.2076,-3.77227
560,309,35.0404,3.80005,0,0,0,0,0,0,0,-1,1784,715,35.0404,-3.80002
567,309,31.8434,5.31348,0,0,0,0,0,0,0,-1,1791,715,31.8434,-5.3135
574,309,31.0057,6.19543,0,0,0,0,0,0,0,-1,1798,715,31.0058,-6.19541
581,309,30.2532,7.22888,0,0,0,0,0,0,0,-1,1805,715,30.2532,-7.2289
588,309,26.2064,7.76422,0,0,0,0,0,0,0,-1,1812,715,26.2064,-7.7642
595,309,19.585,3.71558,0,0,0,0,0,0,0,-1,1819,715,19.5849,-3.71555
602,309,11.0811,3.47772,0,0,0,0,0,0,0,-1,1826,715,11.0811,-3.47772
609,309,21.3318,-3.42194,0,0,0,0,0,0,0,-1,1833,715,21.3318,3.42191
616,309,21.4205,-2.84729,0.00112322,-0.00705358,0.00810473,0.00611235,-0.0120427,0.551799,0.0106666,0.0307023,1840,715,21.4205,2.84728
623,309,21.4684,-2.3252,0.00147811,-0.00447948,0.00553325,0.00478343,-0.0077848,0.538473,0.00732492,0.0107909,1847,715,21.4683,2.32522
630,309,21.4268,-1.87885,0.00122655,-0.00285794,0.00342991,0.00317618,-0.00480757,0.516875,0.00464139,0.0105463,1854,715,21.4267,1.87883
637,309,21.3954,-1.40344,0.000598825,-0.000670796,0.00134103,0.0014477,-0.00151968,0.564337,0.00171339,0.0135199,1861,715,21.3953,1.40346
644,309,21.3834,-0.946594,-0.000395246,2.09145e-05,0.000503351,0.000357499,-0.00073183,0.981396,0.000641183,0.0142688,1868,715,21.3834,0.946621
651,309,21.3794,-0.502441,-0.0015165,0.000552603,-1.85738e-05,0.00055277,-0.00151666,-1.56182,0.00123723,0.0131899,1875,715,21.3794,0.50244
658,309,21.3954,-0.0409546,-0.00300915,0.00105824,-0.000296111,0.00107969,-0.0030306,-1.4985,0.00246056,0.0186037,1882,715,21.3954,0.0409365
665,309,21.3948,0.387451,-0.00467806,0.00179056,-0.000601106,0.00184595,-0.00473344,-1.47892,0.00391865,0.016935,1889,715,21.3948,-0.387427
672,309,21.3684,0.842102,-0.00641351,0.00268459,-0.000828501,0.00275942,-0.00648834,-1.48072,0.00548197,0.01426,1896,715,21.3684,-0.842089
679,309,21.3671,1.35107,-0.00847365,0.00385357,-0.00108234,0.00394787,-0.00856796,-1.48388,0.0073883,0.0150872,1903,715,21.367,-1.35106
686,309,21.2612,1.88275,-0.0107381,0.00525809,-0.00132545,0.00536717,-0.0108472,-1.48868,0.0095379,0.0250939,1910,715,21.2612,-1.88274
693,309,20.809,2.51941,-0.0130951,0.00702135,-0.00157594,0.00714406,-0.0132178,-1.49309,0.011929,0.0454173,1917,715,20.8089,-2.51938
700,309,20.5005,3.34393,0,0,0,0,0,0,0,-1,1924,715,20.5005,-3.34393
707,309,15.6318,4.58655,0,0,0,0,0,0,0,-1,1931,715,15.6318,-4.58657
714,309,16.7573,6.68286,0,0,0,0,0,0,0,-1,1938,715,16.7574,-6.68284
721,309,16.8337,5.4458,0,0,0,0,0,0,0,-1,1945,715,16.8338,-5.44582
728,309,0,0,0,0,0,0,0,0,0,-1,1952,715,0,0
735,309,0,0,0,0,0,0,0,0,0,-1,1959,715,0,0
742,309,0,0,0,0,0,0,0,0,0,-1,1966,715,0,0
749,309,0,0,0,0,0,0,0,0,0,-1,1973,715,0,0
756,309,0,0,0,0,0,0,0,0,0,-1,1980,715,0,0
763,309,0,0,0,0,0,0,0,0,0,-1,1987,715,0,0
770,309,0,0,0,0,0,0,0,0,0,-1,1994,715,0,0
777,309,0,0,0,0,0,0,0,0,0,-1,2001,715,0,0
784,309,0,0,0,0,0,0,0,0,0,-1,2008,715,0,0
791,309,0,0,0,0,0,0,0,0,0,-1,2015,715,0,0
798,309,0,0,0,0,0,0,0,0,0,-1,2022,715,0,0
805,309,0,0,0,0,0,0,0,0,0,-1,2029,715,0,0
812,309,0,0,0,0,0,0,0,0,0,-1,2036,715,0,0
-700,302,0,0,0,0,0,0,0,0,0,-1,524,722,0,0
-693,302,0,0,0,0,0,0,0,0,0,-1,531,722,0,0
-686,302,0,0,0,0,0,0,0,0,0,-1,538,722,0,0
-679,302,0,0,0,0,0,0,0,0,0,-1,545,722,0,0
-672,302,0,0,0,0,0,0,0,0,0,-1,552,722,0,0
-665,302,0,0,0,0,0,0,0,0,0,-1,559,722,0,0
-658,302,0,0,0,0,0,0,0,0,0,-1,566,722,0,0
-651,302,0,0,0,0,0,0,0,0,0,-1,573,722,0,0
-644,302,0,0,0,0,0,0,0,0,0,-1,580,722,0,0
-637,302,0,0,0,0,0,0,0,0,0,-1,587,722,0,0
-630,302,0,0,0,0,0,0,0,0,0,-1,594,722,0,0
-623,302,0,0,0,0,0,0,0,0,0,-1,601,722,0,0
-616,302,0,0,0,0,0,0,0,0,0,-1,608,722,0,0
-609,302,-7.79266,-3.71649,0,0,0,0,0,0,0,-1,615,722,-7.79267,3.7165
-602,302,0.92865,-1.99158,0,0,0,0,0,0,0,-1,622,722,0.928637,1.99157
-595,302,-7.89941,2.13641,0,0,0,0,0,0,0,-1,629,722,-7.89939,-2.13639
-588,302,-7.10895,1.79163,0,0,0,0,0,0,0,-1,636,722,-7.10896,-1.79163
-581,302,-9.17566,1.09448,0,0,0,0,0,0,0,-1,643,722,-9.17569,-1.09445
-574,302,-11.5183,-0.344543,0,0,0,0,0,0,0,-1,650,722,-11.5183,0.344557
-567,302,-12.1534,-0.672241,0,0,0,0,0,0,0,-1,657,722,-12.1535,0.672246
-560,302,-13.5474,-0.349915,0,0,0,0,0,0,0,-1,664,722,-13.5473,0.349893
-553,302,-13.4572,-0.692383,-0.00145309,0.00630916,-0.00129647,0.00651998,-0.00166391,-1.4096,0.00499454,0.0214158,671,722,-13.4571,0.692394
-546,302,-13.4523,-1.13843,-0.000792542,0.00476714,-0.00107898,0.0049692,-0.0009946,-1.38567,0.00368929,0.0161288,678,722,-13.4522,1.13843
-539,302,-13.4739,-1.56604,-0.000320619,0.00335234,-0.000776792,0.00350987,-0.000478146,-1.37072,0.0025145,0.0156191,685,722,-13.4739,1.56606
-532,302,-13.4727,-1.99609,-1.72757e-05,0.00194476,-0.000373833,0.00201357,-8.60897e-05,-1.38876,0.00137198,0.0144409,692,722,-13.4727,1.99612
-525,302,-13.442,-2.45953,0.000142545,0.000997453,0.000210521,0.00104648,9.35164e-05,1.34198,0.000668666,0.0188959,699,722,-13.4419,2.45952
-518,302,-13.4662,-2.87842,0.000232455,0.000830842,0.00104198,0.00161573,-0.000552437,0.925206,0.001301,0.0191778,706,722,-13.4663,2.87845
-511,302,-13.4842,-3.27191,0.00094561,0.00156693,0.00249002,0.00376559,-0.00125306,0.847458,0.00301613,0.0103782,713,722,-13.4842,3.2719
-504,302,-13.5024,-3.698,0.00150658,0.00296623,0.00421292,0.00651207,-0.00203926,0.871165,0.00515732,0.00975105,720,722,-13.5024,3.69799
-497,302,-13.522,-4.11261,0.00247596,0.00579649,0.00659954,0.0109414,-0.00266894,0.908627,0.00832772,0.0149675,727,722,-13.522,4.11264
-490,302,-13.5391,-4.53094,0,0,0,0,0,0,0,-1,734,722,-13.539,4.53097
-483,302,-9.53412,-3.1673,0,0,0,0,0,0,0,-1,741,722,-9.53411,3.1673
-476,302,-4.29749,-0.203491,0,0,0,0,0,0,0,-1,748,722,-4.29751,0.203464
-469,302,-12.369,1.42859,0,0,0,0,0,0,0,-1,755,722,-12.3689,-1.42857
-462,302,-17.4766,0.310791,0,0,0,0,0,0,0,-1,762,722,-17.4766,-0.310788
-455,302,-17.8736,1.4895,0,0,0,0,0,0,0,-1,769,722,-17.8736,-1.48952
-448,302,-22.1009,-0.967468,0,0,0,0,0,0,0,-1,776,722,-22.1009,0.967494
-441,302,-22.2877,-0.842041,0,0,0,0,0,0,0,-1,783,722,-22.2877,0.842065
-434,302,-22.3103,-0.695129,0,0,0,0,0,0,0,-1,790,722,-22.3103,0.695104
-427,302,-15.3611,1.80798,0,0,0,0,0,0,0,-1,797,722,-15.3611,-1.80801
-420,302,0,0,0,0,0,0,0,0,0,-1,804,722,0,0
-413,302,0,0,0,0,0,0,0,0,0,-1,811,722,0,0
-406,302,0,0,0,0,0,0,0,0,0,-1,818,722,0,0
-399,302,0,0,0,0,0,0,0,0,0,-1,825,722,0,0
-392,302,0,0,0,0,0,0,0,0,0,-1,832,722,0,0
-385,302,0,0,0,0,0,0,0,0,0,-1,839,722,0,0
-378,302,0,0,0,0,0,0,0,0,0,-1,846,722,0,0
-371,302,0,0,0,0,0,0,0,0,0,-1,853,722,0,0
-364,302,0,0,0,0,0,0,0,0,0,-1,860,722,0,0
-357,302,0,0,0,0,0,0,0,0,0,-1,867,722,0,0
-350,302,0,0,0,0,0,0,0,0,0,-1,874,722,0,0
-343,302,0,0,0,0,0,0,0,0,0,-1,881,722,0,0
-336,302,0,0,0,0,0,0,0,0,0,-1,888,722,0,0
-329,302,0,0,0,0,0,0,0,0,0,-1,895,722,0,0
-322,302,0,0,0,0,0,0,0,0,0,-1,902,722,0,0
-315,302,0,0,0,0,0,0,0,0,0,-1,909,722,0,0
-308,302,0,0,0,0,0,0,0,0,0,-1,916,722,0,0
-301,302,0,0,0,0,0,0,0,0,0,-1,923,722,0,0
-294,302,0,0,0,0,0,0,0,0,0,-1,930,722,0,0
-287,302,0,0,0,0,0,0,0,0,0,-1,937,722,0,0
-280,302,0,0,0,0,0,0,0,0,0,-1,944,722,0,0
-273,302,0,0,0,0,0,0,0,0,0,-1,951,722,0,0
-266,302,0,0,0,0,0,0,0,0,0,-1,958,722,0,0
-259,302,0,0,0,0,0,0,0,0,0,-1,965,722,0,0
-252,302,0,0,0,0,0,0,0,0,0,-1,972,722,0,0
-245,302,0,0,0,0,0,0,0,0,0,-1,979,722,0,0
-238,302,0,0,0,0,0,0,0,0,0,-1,986,722,0,0
-231,302,0,0,0,0,0,0,0,0,0,-1,993,722,0,0
-224,302,0,0,0,0,0,0,0,0,0,-1,1000,722,0,0
-217,302,0,0,0,0,0,0,0,0,0,-1,1007,722,0,0
-210,302,0,0,0,0,0,0,0,0,0,-1,1014,722,0,0
-203,302,0,0,0,0,0,0,0,0,0,-1,1021,722,0,0
-196,302,0,0,0,0,0,0,0,0,0,-1,1028,722,0,0
-189,302,0,0,0,0,0,0,0,0,0,-1,1035,722,0,0
-182,302,0,0,0,0,0,0,0,0,0,-1,1042,722,0,0
-175,302,0,0,0,0,0,0,0,0,0,-1,1049,722,0,0
-168,302,0,0,0,0,0,0,0,0,0,-1,1056,722,0,0
-161,302,0,0,0,0,0,0,0,0,0,-1,1063,722,0,0
-154,302,0,0,0,0,0,0,0,0,0,-1,1070,722,0,0
-147,302,0,0,0,0,0,0,0,0,0,-1,1077,722,0,0
-140,302,0,0,0,0,0,0,0,0,0,-1,1084,722,0,0
-133,302,0,0,0,0,0,0,0,0,0,-1,1091,722,0,0
-126,302,0,0,0,0,0,0,0,0,0,-1,1098,722,0,0
-119,302,0,0,0,0,0,0,0,0,0,-1,1105,722,0,0
-112,302,0,0,0,0,0,0,0,0,0,-1,1112,722,0,0
-105,302,0,0,0,0,0,0,0,0,0,-1,1119,722,0,0
-98,302,0,0,0,0,0,0,0,0,0,-1,1126,722,0,0
-91,302,0,0,0,0,0,0,0,0,0,-1,1133,722,0,0
-84,302,0,0,0,0,0,0,0,0,0,-1,1140,722,0,0
-77,302,0,0,0,0,0,0,0,0,0,-1,1147,722,0,0
-70,302,0,0,0,0,0,0,0,0,0,-1,1154,722,0,0
-63,302,0,0,0,0,0,0,0,0,0,-1,1161,722,0,0
-56,302,0,0,0,0,0,0,0,0,0,-1,1168,722,0,0
-49,302,0,0,0,0,0,0,0,0,0,-1,1175,722,0,0
-42,302,0,0,0,0,0,0,0,0,0,-1,1182,722,0,0
-35,302,0,0,0,0,0,0,0,0,0,-1,1189,722,0,0
-28,302,0,0,0,0,0,0,0,0,0,-1,1196,722,0,0
-21,302,0,0,0,0,0,0,0,0,0,-1,1203,722,0,0
-14,302,0,0,0,0,0,0,0,0,0,-1,1210,722,0,0
-7,302,0,0,0,0,0,0,0,0,0,-1,1217,722,0,0
0,302,0,0,0,0,0,0,0,0,0,-1,1224,722,0,0
7,302,0,0,0,0,0,0,0,0,0,-1,1231,722,0,0
14,302,0,0,0,0,0,0,0,0,0,-1,1238,722,0,0
21,302,0,0,0,0,0,0,0,0,0,-1,1245,722,0,0
28,302,0,0,0,0,0,0,0,0,0,-1,1252,722,0,0
35,302,0,0,0,0,0,0,0,0,0,-1,1259,722,0,0
42,302,0,0,0,0,0,0,0,0,0,-1,1266,722,0,0
49,302,0,0,0,0,0,0,0,0,0,-1,1273,722,0,0
56,302,0,0,0,0,0,0,0,0,0,-1,1280,722,0,0
63,302,0,0,0,0,0,0,0,0,0,-1,1287,722,0,0
70,302,0,0,0,0,0,0,0,0,0,-1,1294,722,0,0
77,302,0,0,0,0,0,0,0,0,0,-1,1301,722,0,0
84,302,0,0,0,0,0,0,0,0,0,-1,1308,722,0,0
91,302,0,0,0,0,0,0,0,0,0,-1,1315,722,0,0
98,302,0,0,0,0,0,0,0,0,0,-1,1322,722,0,0
105,302,0,0,0,0,0,0,0,0,0,-1,1329,722,0,0
112,302,0,0,0,0,0,0,0,0,0,-1,1336,722,0,0
119,302,0,0,0,0,0,0,0,0,0,-1,1343,722,0,0
126,302,0,0,0,0,0,0,0,0,0,-1,1350,722,0,0
133,302,0,0,0,0,0,0,0,0,0,-1,1357,722,0,0
140,302,0,0,0,0,0,0,0,0,0,-1,1364,722,0,0
147,302,0,0,0,0,0,0,0,0,0,-1,1371,722,0,0
154,302,0,0,0,0,0,0,0,0,0,-1,1378,722,0,0
161,302,0,0,0,0,0,0,0,0,0,-1,1385,722,0,0
168,302,0,0,0,0,0,0,0,0,0,-1,1392,722,0,0
175,302,0,0,0,0,0,0,0,0,0,-1,1399,722,0,0
182,302,0,0,0,0,0,0,0,0,0,-1,1406,722,0,0
189,302,0,0,0,0,0,0,0,0,0,-1,1413,722,0,0
196,302,0,0,0,0,0,0,0,0,0,-1,1420,722,0,0
203,302,0,0,0,0,0,0,0,0,0,-1,1427,722,0,0
210,302,0,0,0,0,0,0,0,0,0,-1,1434,722,0,0
217,302,0,0,0,0,0,0,0,0,0,-1,1441,722,0,0
224,302,0,0,0,0,0,0,0,0,0,-1,1448,722,0,0
231,302,0,0,0,0,0,0,0,0,0,-1,1455,722,0,0
238,302,0,0,0,0,0,0,0,0,0,-1,1462,722,0,0
245,302,0,0,0,0,0,0,0,0,0,-1,1469,722,0,0
252,302,0,0,0,0,0,0,0,0,0,-1,1476,722,0,0
259,302,0,0,0,0,0,0,0,0,0,-1,1483,722,0,0
266,302,0,0,0,0,0,0,0,0,0,-1,1490,722,0,0
273,302,0,0,0,0,0,0,0,0,0,-1,1497,722,0,0
280,302,0,0,0,0,0,0,0,0,0,-1,1504,722,0,0
287,302,0,0,0,0,0,0,0,0,0,-1,1511,722,0,0
294,302,0,0,0,0,0,0,0,0,0,-1,1518,722,0,0
301,302,0,0,0,0,0,0,0,0,0,-1,1525,722,0,0
308,302,0,0,0,0,0,0,0,0,0,-1,1532,722,0,0
315,302,0,0,0,0,0,0,0,0,0,-1,1539,722,0,0
322,302,0,0,0,0,0,0,0,0,0,-1,1546,722,0,0
329,302,0,0,0,0,0,0,0,0,0,-1,1553,722,0,0
336,302,0,0,0,0,0,0,0,0,0,-1,1560,722,0,0
343,302,0,0,0,0,0,0,0,0,0,-1,1567,722,0,0
350,302,0,0,0,0,0,0,0,0,0,-1,1574,722,0,0
357,302,0,0,0,0,0,0,0,0,0,-1,1581,722,0,0
364,302,0,0,0,0,0,0,0,0,0,-1,1588,722,0,0
371,302,0,0,0,0,0,0,0,0,0,-1,1595,722,0,0
378,302,0,0,0,0,0,0,0,0,0,-1,1602,722,0,0
385,302,0,0,0,0,0,0,0,0,0,-1,1609,722,0,0
392,302,0,0,0,0,0,0,0,0,0,-1,1616,722,0,0
399,302,0,0,0,0,0,0,0,0,0,-1,1623,722,0,0
406,302,0,0,0,0,0,0,0,0,0,-1,1630,722,0,0
413,302,0,0,0,0,0,0,0,0,0,-1,1637,722,0,0
420,302,0,0,0,0,0,0,0,0,0,-1,1644,722,0,0
427,302,0,0,0,0,0,0,0,0,0,-1,1651,722,0,0
434,302,0,0,0,0,0,0,0,0,0,-1,1658,722,0,0
441,302,0,0,0,0,0,0,0,0,0,-1,1665,722,0,0
448,302,0,0,0,0,0,0,0,0,0,-1,1672,722,0,0
455,302,0,0,0,0,0,0,0,0,0,-1,1679,722,0,0
462,302,0,0,0,0,0,0,0,0,0,-1,1686,722,0,0
469,302,0,0,0,0,0,0,0,0,0,-1,1693,722,0,0
476,302,0,0,0,0,0,0,0,0,0,-1,1700,722,0,0
483,302,0,0,0,0,0,0,0,0,0,-1,1707,722,0,0
490,302,0,0,0,0,0,0,0,0,0,-1,1714,722,0,0
497,302,0,0,0,0,0,0,0,0,0,-1,1721,722,0,0
504,302,0,0,0,0,0,0,0,0,0,-1,1728,722,0,0
511,302,0,0,0,0,0,0,0,0,0,-1,1735,722,0,0
518,302,0,0,0,0,0,0,0,0,0,-1,1742,722,0,0
525,302,0,0,0,0,0,0,0,0,0,-1,1749,722,0,0
532,302,0,0,0,0,0,0,0,0,0,-1,1756,722,0,0
539,302,0,0,0,0,0,0,0,0,0,-1,1763,722,0,0
546,302,35.3452,3.29767,-0.00371344,0.0546406,-0.020349,0.0610358,-0.0101086,-1.2663,0.0444449,0.0462529,1770,722,35.3452,-3.29769
553,302,35.3033,3.32312,-0.00797535,0.0421461,-0.0121692,0.0449445,-0.0107737,-1.34477,0.0341259,0.0425773,1777,722,35.3034,-3.32313
560,302,35.098,3.3302,-0.00721743,0.0316462,-0.0062574,0.0326289,-0.00820008,-1.41503,0.0249394,0.0451404,1784,722,35.098,-3.33022
567,302,34.8904,3.34418,0,0,0,0,0,0,0,-1,1791,722,34.8904,-3.34418
574,302,31.8204,5.61877,0,0,0,0,0,0,0,-1,1798,722,31.8204,-5.6188
581,302,31.3031,6.59534,0,0,0,0,0,0,0,-1,1805,722,31.3031,-6.59531
588,302,26.9731,7.19983,0,0,0,0,0,0,0,-1,1812,722,26.9732,-7.19981
595,302,27.3826,8.13104,0,0,0,0,0,0,0,-1,1819,722,27.3825,-8.13102
602,302,14.7349,5.21246,0,0,0,0,0,0,0,-1,1826,722,14.7349,-5.21247
609,302,11.1578,-0.125854,0,0,0,0,0,0,0,-1,1833,722,11.1579,0.125839
616,302,21.8444,-2.88538,0,0,0,0,0,0,0,-1,1840,722,21.8443,2.88537
623,302,21.9352,-2.32306,0.00218865,-0.00555666,0.00679385,0.00613609,-0.0095041,0.526355,0.00909939,0.0152528,1847,722,21.9352,2.32306
630,302,21.8673,-1.87067,0.00185113,-0.0039883,0.00451271,0.00430629,-0.00644346,0.498267,0.00624712,0.0109059,1854,722,21.8674,1.87066
637,302,21.8209,-1.40942,0.00115784,-0.00114946,0.0018445,0.00217976,-0.00217138,0.505936,0.00251213,0.014149,1861,722,21.821,1.40943
644,302,21.8383,-0.948792,0.000235512,-0.000278029,0.000803743,0.000822504,-0.00086502,0.630788,0.000974396,0.0151866,1868,722,21.8383,0.948789
651,302,21.833,-0.476624,-0.000643873,0.000352308,0.000160936,0.000377663,-0.000669227,1.41454,0.000612186,0.0139124,1875,722,21.8331,0.476618
658,302,21.8381,-0.0376587,-0.0018951,0.000899908,-7.91816e-05,0.000902149,-0.00189734,-1.5425,0.00164998,0.0140436,1882,722,21.8381,0.0376694
665,302,21.8452,0.380127,-0.00323713,0.00164746,-0.000344638,0.00167165,-0.00326133,-1.5007,0.00289693,0.013609,1889,722,21.8452,-0.380155
672,302,21.8192,0.81488,-0.00442261,0.0024603,-0.000478395,0.00249339,-0.0044557,-1.50173,0.00406503,0.0108782,1896,722,21.8192,-0.814861
679,302,21.7977,1.30579,-0.00581761,0.00351091,-0.000638061,0.00355435,-0.00586105,-1.50282,0.00549009,0.00855829,1903,722,21.7977,-1.30576
686,302,21.8043,1.78601,-0.00714083,0.00469635,-0.000754462,0.00474425,-0.00718872,-1.5074,0.00693752,0.0157304,1910,722,21.8043,-1.78602
693,302,21.4984,2.14105,-0.00817001,0.00606883,-0.000812383,0.00611503,-0.00821621,-1.51399,0.00830374,0.0432616,1917,722,21.4984,-2.14104
700,302,21.4603,2.37598,0,0,0,0,0,0,0,-1,1924,722,21.4604,-2.37598
707,302,16.7321,4.76685,0,0,0,0,0,0,0,-1,1931,722,16.7321,-4.76687
714,302,17.2,5.77594,0,0,0,0,0,0,0,-1,1938,722,17.2,-5.77595
721,302,17.7914,6.60394,0,0,0,0,0,0,0,-1,1945,722,17.7914,-6.60395
728,302,17.2798,4.81702,0,0,0,0,0,0,0,-1,1952,722,17.2798,-4.81703
735,302,0,0,0,0,0,0,0,0,0,-1,1959,722,0,0
742,302,0,0,0,0,0,0,0,0,0,-1,1966,722,0,0
749,302,0,0,0,0,0,0,0,0,0,-1,1973,722,0,0
756,302,0,0,0,0,0,0,0,0,0,-1,1980,722,0,0
763,302,0,0,0,0,0,0,0,0,0,-1,1987,722,0,0
770,302,0,0,0,0,0,0,0,0,0,-1,1994,722,0,0
777,302,0,0,0,0,0,0,0,0,0,-1,2001,722,0,0
784,302,0,0,0,0,0,0,0,0,0,-1,2008,722,0,0
791,302,0,0,0,0,0,0,0,0,0,-1,2015,722,0,0
798,302,0,0,0,0,0,0,0,0,0,-1,2022,722,0,0
805,302,0,0,0,0,0,0,0,0,0,-1,2029,722,0,0
812,302,0,0,0,0,0,0,0,0,0,-1,2036,722,0,0
-700,295,0,0,0,0,0,0,0,0,0,-1,524,729,0,0
-693,295,0,0,0,0,0,0,0,0,0,-1,531,729,0,0
-686,295,0,0,0,0,0,0,0,0,0,-1,538,729,0,0
-679,295,0,0,0,0,0,0,0,0,0,-1,545,729,0,0
-672,295,0,0,0,0,0,0,0,0,0,-1,552,729,0,0
-665,295,0,0,0,0,0,0,0,0,0,-1,559,729,0,0
-658,295,0,0,0,0,0,0,0,0,0,-1,566,729,0,0
-651,295,0,0,0,0,0,0,0,0,0,-1,573,729,0,0
-644,295,0,0,0,0,0,0,0,0,0,-1,580,729,0,0
-637,295,0,0,0,0,0,0,0,0,0,-1,587,729,0,0
-630,295,0,0,0,0,0,0,0,0,0,-1,594,729,0,0
-623,295,0,0,0,0,0,0,0,0,0,-1,601,729,0,0
-616,295,-13.4911,1.31738,0,0,0,0,0,0,0,-1,608,729,-13.4911,-1.3174
-609,295,-10.2864,0.832031,0,0,0,0,0,0,0,-1,615,729,-10.2863,-0.832034
-602,295,-8.19006,3.01587,0,0,0,0,0,0,0,-1,622,729,-8.19005,-3.01588
-595,295,-0.615479,-1.95447,0,0,0,0,0,0,0,-1,629,729,-0.615481,1.95445
-588,295,-7.98999,1.56903,0,0,0,0,0,0,0,-1,636,729,-7.98997,-1.56905
-581,295,-12.0404,0.150574,0,0,0,0,0,0,0,-1,643,729,-12.0404,-0.150604
-574,295,-12.1605,-0.0739746,0,0,0,0,0,0,0,-1,650,729,-12.1605,0.0739856
-567,295,-13.6395,0.203613,0,0,0,0,0,0,0,-1,657,729,-13.6395,-0.203624
-560,295,-13.8201,-0.312988,-0.00281674,0.00572075,-0.000416228,0.00574099,-0.00283698,-1.5222,0.00504621,0.0303048,664,729,-13.8201,0.31301
-553,295,-13.8185,-0.737976,-0.00180722,0.00453981,-0.00047539,0.00457522,-0.00184262,-1.49645,0.00381566,0.0173484,671,729,-13.8185,0.737966
-546,295,-13.8887,-1.14569,-0.0011478,0.00330689,-0.000334827,0.00333192,-0.00117283,-1.49619,0.00269856,0.0213325,678,729,-13.8887,1.14572
-539,295,-13.921,-1.53778,-0.000675168,0.00211721,-0.000103115,0.00212102,-0.000678971,-1.53394,0.00168652,0.0195528,685,729,-13.921,1.53781
-532,295,-13.9271,-1.97852,-0.000385021,0.000872806,0.000255716,0.000922806,-0.00043502,1.37771,0.000800625,0.0156264,692,729,-13.927,1.97852
-525,295,-13.8992,-2.42609,-0.000298629,0.00031052,0.000911477,0.000966964,-0.000955073,0.946643,0.0011097,0.0142596,699,729,-13.8992,2.42607
-518,295,-13.892,-2.8335,-0.000293498,0.000879702,0.00190444,0.00228583,-0.00169963,0.934796,0.00230929,0.0105962,706,729,-13.892,2.83352
-511,295,-13.9014,-3.24078,0.000561878,0.00247762,0.00370829,0.00534975,-0.00231025,0.911788,0.00453707,0.00894839,713,729,-13.9014,3.24076
-504,295,-13.9254,-3.67102,0.00117537,0.00496222,0.00580836,0.00917798,-0.00304038,0.942959,0.00734495,0.0108572,720,729,-13.9254,3.67105
-497,295,-13.9686,-4.05835,0.00226177,0.00921093,0.00868506,0.0150906,-0.00361795,0.975679,0.0114584,0.0206305,727,729,-13.9686,4.05832
-490,295,-14.01,-4.41718,0,0,0,0,0,0,0,-1,734,729,-14.01,4.4172
-483,295,-6.84503,-0.454651,0,0,0,0,0,0,0,-1,741,729,-6.84505,0.454639
-476,295,-13.1738,-0.836243,0,0,0,0,0,0,0,-1,748,729,-13.1738,0.836223
-469,295,-24.4053,-1.35907,0,0,0,0,0,0,0,-1,755,729,-24.4053,1.35906
-462,295,-17.9293,-0.330566,0,0,0,0,0,0,0,-1,762,729,-17.9293,0.330568
-455,295,-26.7327,-0.153992,0,0,0,0,0,0,0,-1,769,729,-26.7327,0.154017
-448,295,-22.1149,-0.403748,0,0,0,0,0,0,0,-1,776,729,-22.1149,0.403755
-441,295,-22.3615,-0.338623,0,0,0,0,0,0,0,-1,783,729,-22.3615,0.338623
-434,295,-22.5533,-0.324768,0,0,0,0,0,0,0,-1,790,729,-22.5534,0.324743
-427,295,0,0,0,0,0,0,0,0,0,-1,797,729,0,0
-420,295,0,0,0,0,0,0,0,0,0,-1,804,729,0,0
-413,295,0,0,0,0,0,0,0,0,0,-1,811,729,0,0
-406,295,0,0,0,0,0,0,0,0,0,-1,818,729,0,0
-399,295,0,0,0,0,0,0,0,0,0,-1,825,729,0,0
-392,295,0,0,0,0,0,0,0,0,0,-1,832,729,0,0
-385,295,0,0,0,0,0,0,0,0,0,-1,839,729,0,0
-378,295,0,0,0,0,0,0,0,0,0,-1,846,729,0,0
-371,295,0,0,0,0,0,0,0,0,0,-1,853,729,0,0
-364,295,0,0,0,0,0,0,0,0,0,-1,860,729,0,0
-357,295,0,0,0,0,0,0,0,0,0,-1,867,729,0,0
-350,295,0,0,0,0,0,0,0,0,0,-1,874,729,0,0
-343,295,0,0,0,0,0,0,0,0,0,-1,881,729,0,0
-336,295,0,0,0,0,0,0,0,0,0,-1,888,729,0,0
-329,295,0,0,0,0,0,0,0,0,0,-1,895,729,0,0
-322,295,0,0,0,0,0,0,0,0,0,-1,902,729,0,0
-315,295,0,0,0,0,0,0,0,0,0,-1,909,729,0,0
-308,295,0,0,0,0,0,0,0,0,0,-1,916,729,0,0
-301,295,0,0,0,0,0,0,0,0,0,-1,923,729,0,0
-294,295,0,0,0,0,0,0,0,0,0,-1,930,729,0,0
-287,295,0,0,0,0,0,0,0,0,0,-1,937,729,0,0
-280,295,0,0,0,0,0,0,0,0,0,-1,944,729,0,0
-273,295,0,0,0,0,0,0,0,0,0,-1,951,729,0,0
-266,295,0,0,0,0,0,0,0,0,0,-1,958,729,0,0
-259,295,0,0,0,0,0,0,0,0,0,-1,965,729,0,0
-252,295,0,0,0,0,0,0,0,0,0,-1,972,729,0,0
-245,295,0,0,0,0,0,0,0,0,0,-1,979,729,0,0
-238,295,0,0,0,0,0,0,0,0,0,-1,986,729,0,0
-231,295,0,0,0,0,0,0,0,0,0,-1,993,729,0,0
-224,295,0,0,0,0,0,0,0,0,0,-1,1000,729,0,0
-217,295,0,0,0,0,0,0,0,0,0,-1,1007,729,0,0
-210,295,0,0,0,0,0,0,0,0,0,-1,1014,729,0,0
-203,295,0,0,0,0,0,0,0,0,0,-1,1021,729,0,0
-196,295,0,0,0,0,0,0,0,0,0,-1,1028,729,0,0
-189,295,0,0,0,0,0,0,0,0,0,-1,1035,729,0,0
-182,295,0,0,0,0,0,0,0,0,0,-1,1042,729,0,0
-175,295,0,0,0,0,0,0,0,0,0,-1,1049,729,0,0
-168,295,0,0,0,0,0,0,0,0,0,-1,1056,729,0,0
-161,295,0,0,0,0,0,0,0,0,0,-1,1063,729,0,0
-154,295,0,0,0,0,0,0,0,0,0,-1,1070,729,0,0
-147,295,0,0,0,0,0,0,0,0,0,-1,1077,729,0,0
-140,295,0,0,0,0,0,0,0,0,0,-1,1084,729,0,0
-133,295,0,0,0,0,0,0,0,0,0,-1,1091,729,0,0
-126,295,0,0,0,0,0,0,0,0,0,-1,1098,729,0,0
-119,295,0,0,0,0,0,0,0,0,0,-1,1105,729,0,0
-112,295,0,0,0,0,0,0,0,0,0,-1,1112,729,0,0
-105,295,0,0,0,0,0,0,0,0,0,-1,1119,729,0,0
-98,295,0,0,0,0,0,0,0,0,0,-1,1126,729,0,0
-91,295,0,0,0,0,0,0,0,0,0,-1,1133,729,0,0
-84,295,0,0,0,0,0,0,0,0,0,-1,1140,729,0,0
-77,295,0,0,0,0,0,0,0,0,0,-1,1147,729,0,0
-70,295,0,0,0,0,0,0,0,0,0,-1,1154,729,0,0
-63,295,0,0,0,0,0,0,0,0,0,-1,1161,729,0,0
-56,295,0,0,0,0,0,0,0,0,0,-1,1168,729,0,0
-49,295,0,0,0,0,0,0,0,0,0,-1,1175,729,0,0
-42,295,0,0,0,0,0,0,0,0,0,-1,1182,729,0,0
-35,295,0,0,0,0,0,0,0,0,0,-1,1189,729,0,0
-28,295,0,0,0,0,0,0,0,0,0,-1,1196,729,0,0
-21,295,0,0,0,0,0,0,0,0,0,-1,1203,729,0,0
-14,295,0,0,0,0,0,0,0,0,0,-1,1210,729,0,0
-7,295,0,0,0,0,0,0,0,0,0,-1,1217,729,0,0
0,295,0,0,0,0,0,0,0,0,0,-1,1224,729,0,0
7,295,0,0,0,0,0,0,0,0,0,-1,1231,729,0,0
14,295,0,0,0,0,0,0,0,0,0,-1,1238,729,0,0
21,295,0,0,0,0,0,0,0,0,0,-1,1245,729,0,0
28,295,0,0,0,0,0,0,0,0,0,-1,1252,729,0,0
35,295,0,0,0,0,0,0,0,0,0,-1,1259,729,0,0
42,295,0,0,0,0,0,0,0,0,0,-1,1266,729,0,0
49,295,0,0,0,0,0,0,0,0,0,-1,1273,729,0,0
56,295,0,0,0,0,0,0,0,0,0,-1,1280,729,0,0
63,295,0,0,0,0,0,0,0,0,0,-1,1287,729,0,0
70,295,0,0,0,0,0,0,0,0,0,-1,1294,729,0,0
77,295,0,0,0,0,0,0,0,0,0,-1,1301,729,0,0
84,295,0,0,0,0,0,0,0,0,0,-1,1308,729,0,0
91,295,0,0,0,0,0,0,0,0,0,-1,1315,729,0,0
98,295,0,0,0,0,0,0,0,0,0,-1,1322,729,0,0
105,295,0,0,0,0,0,0,0,0,0,-1,1329,729,0,0
112,295,0,0,0,0,0,0,0,0,0,-1,1336,729,0,0
119,295,0,0,0,0,0,0,0,0,0,-1,1343,729,0,0
126,295,0,0,0,0,0,0,0,0,0,-1,1350,729,0,0
133,295,0,0,0,0,0,0,0,0,0,-1,1357,729,0,0
140,295,0,0,0,0,0,0,0,0,0,-1,1364,729,0,0
147,295,0,0,0,0,0,0,0,0,0,-1,1371,729,0,0
154,295,0,0,0,0,0,0,0,0,0,-1,1378,729,0,0
161,295,0,0,0,0,0,0,0,0,0,-1,1385,729,0,0
168,295,0,0,0,0,0,0,0,0,0,-1,1392,729,0,0
175,295,0,0,0,0,0,0,0,0,0,-1,1399,729,0,0
182,295,0,0,0,0,0,0,0,0,0,-1,1406,729,0,0
189,295,0,0,0,0,0,0,0,0,0,-1,1413,729,0,0
196,295,0,0,0,0,0,0,0,0,0,-1,1420,729,0,0
203,295,0,0,0,0,0,0,0,0,0,-1,1427,729,0,0
210,295,0,0,0,0,0,0,0,0,0,-1,1434,729,0,0
217,295,0,0,0,0,0,0,0,0,0,-1,1441,729,0,0
224,295,0,0,0,0,0,0,0,0,0,-1,1448,729,0,0
231,295,0,0,0,0,0,0,0,0,0,-1,1455,729,0,0
238,295,0,0,0,0,0,0,0,0,0,-1,1462,729,0,0
245,295,0,0,0,0,0,0,0,0,0,-1,1469,729,0,0
252,295,0,0,0,0,0,0,0,0,0,-1,1476,729,0,0
259,295,0,0,0,0,0,0,0,0,0,-1,1483,729,0,0
266,295,0,0,0,0,0,0,0,0,0,-1,1490,729,0,0
273,295,0,0,0,0,0,0,0,0,0,-1,1497,729,0,0
280,295,0,0,0,0,0,0,0,0,0,-1,1504,729,0,0
287,295,0,0,0,0,0,0,0,0,0,-1,1511,729,0,0
294,295,0,0,0,0,0,0,0,0,0,-1,1518,729,0,0
301,295,0,0,0,0,0,0,0,0,0,-1,1525,729,0,0
308,295,0,0,0,0,0,0,0,0,0,-1,1532,729,0,0
315,295,0,0,0,0,0,0,0,0,0,-1,1539,729,0,0
322,295,0,0,0,0,0,0,0,0,0,-1,1546,729,0,0
329,295,0,0,0,0,0,0,0,0,0,-1,1553,729,0,0
336,295,0,0,0,0,0,0,0,0,0,-1,1560,729,0,0
343,295,0,0,0,0,0,0,0,0,0,-1,1567,729,0,0
350,295,0,0,0,0,0,0,0,0,0,-1,1574,729,0,0
357,295,0,0,0,0,0,0,0,0,0,-1,1581,729,0,0
364,295,0,0,0,0,0,0,0,0,0,-1,1588,729,0,0
371,295,0,0,0,0,0,0,0,0,0,-1,1595,729,0,0
378,295,0,0,0,0,0,0,0,0,0,-1,1602,729,0,0
385,295,0,0,0,0,0,0,0,0,0,-1,1609,729,0,0
392,295,0,0,0,0,0,0,0,0,0,-1,1616,729,0,0
399,295,0,0,0,0,0,0,0,0,0,-1,1623,729,0,0
406,295,0,0,0,0,0,0,0,0,0,-1,1630,729,0,0
413,295,0,0,0,0,0,0,0,0,0,-1,1637,729,0,0
420,295,0,0,0,0,0,0,0,0,0,-1,1644,729,0,0
427,295,0,0,0,0,0,0,0,0,0,-1,1651,729,0,0
434,295,0,0,0,0,0,0,0,0,0,-1,1658,729,0,0
441,295,0,0,0,0,0,0,0,0,0,-1,1665,729,0,0
448,295,0,0,0,0,0,0,0,0,0,-1,1672,729,0,0
455,295,0,0,0,0,0,0,0,0,0,-1,1679,729,0,0
462,295,0,0,0,0,0,0,0,0,0,-1,1686,729,0,0
469,295,0,0,0,0,0,0,0,0,0,-1,1693,729,0,0
476,295,0,0,0,0,0,0,0,0,0,-1,1700,729,0,0
483,295,0,0,0,0,0,0,0,0,0,-1,1707,729,0,0
490,295,0,0,0,0,0,0,0,0,0,-1,1714,729,0,0
497,295,0,0,0,0,0,0,0,0,0,-1,1721,729,0,0
504,295,0,0,0,0,0,0,0,0,0,-1,1728,729,0,0
511,295,0,0,0,0,0,0,0,0,0,-1,1735,729,0,0
518,295,0,0,0,0,0,0,0,0,0,-1,1742,729,0,0
525,295,0,0,0,0,0,0,0,0,0,-1,1749,729,0,0
532,295,0,0,0,0,0,0,0,0,0,-1,1756,729,0,0
539,295,0,0,0,0,0,0,0,0,0,-1,1763,729,0,0
546,295,35.5187,2.99005,0.0105941,0.053773,-0.023151,0.0638391,0.000527993,-1.16065,0.0423845,0.0429766,1770,729,35.5186,-2.99006
553,295,35.7404,2.80457,-0.00294828,0.0366124,-0.00917851,0.0386382,-0.00497406,-1.35357,0.0275668,0.0439546,1777,729,35.7403,-2.80457
560,295,35.3375,3.01276,-0.00606631,0.0242069,-0.0010156,0.0242409,-0.00610035,-1.5373,0.0185318,0.0419958,1784,729,35.3375,-3.01274
567,295,35.0341,3.13385,0,0,0,0,0,0,0,-1,1791,729,35.034,-3.13386
574,295,33.1528,4.70282,0,0,0,0,0,0,0,-1,1798,729,33.1529,-4.70284
581,295,27.9486,4.94354,0,0,0,0,0,0,0,-1,1805,729,27.9486,-4.94353
588,295,27.4762,6.37732,0,0,0,0,0,0,0,-1,1812,729,27.4762,-6.37732
595,295,27.2102,6.99121,0,0,0,0,0,0,0,-1,1819,729,27.2103,-6.99121
602,295,26.9065,7.82141,0,0,0,0,0,0,0,-1,1826,729,26.9064,-7.8214
609,295,11.7737,2.19989,0,0,0,0,0,0,0,-1,1833,729,11.7736,-2.19988
616,295,22.4642,-2.68933,0,0,0,0,0,0,0,-1,1840,729,22.4643,2.68931
623,295,22.3761,-2.27802,0.00174179,-0.00675194,0.00750687,0.00611982,-0.01113,0.527978,0.0100982,0.0338063,1847,729,22.3762,2.27799
630,295,22.3099,-1.8399,0.0015289,-0.00524005,0.00525892,0.00439829,-0.00810945,0.499478,0.00732654,0.0124392,1854,729,22.31,1.83992
637,295,22.297,-1.37726,0.00097038,-0.00186823,0.0022779,0.00223496,-0.00313281,0.506791,0.0031135,0.0140162,1861,729,22.2969,1.37726
644,295,22.3208,-0.930359,0.000325142,-0.000740298,0.00106124,0.000979866,-0.00139502,0.552784,0.00137811,0.0133173,1868,729,22.3208,0.930329
651,295,22.318,-0.480774,-8.93495e-05,3.21477e-05,0.00028909,0.000266803,-0.000324005,0.88896,0.000341636,0.013197,1875,729,22.318,0.480782
658,295,22.3015,-0.0250854,-0.000939167,0.000654862,0.000120551,0.000663928,-0.000948232,1.49574,0.000935593,0.0124157,1882,729,22.3015,0.025093
665,295,22.2686,0.403687,-0.00191946,0.0014531,-7.10925e-05,0.0014546,-0.00192096,-1.54973,0.00195507,0.0110811,1889,729,22.2686,-0.40369
672,295,22.2416,0.827271,-0.00270571,0.00220623,-0.00013944,0.00221019,-0.00270966,-1.54244,0.00284535,0.0125874,1896,729,22.2415,-0.827255
679,295,22.2303,1.29791,-0.00361519,0.00315186,-0.00023876,0.00316027,-0.0036236,-1.53557,0.00391971,0.00984249,1903,729,22.2303,-1.29791
686,295,22.2552,1.74847,-0.004475,0.00435936,-0.000420059,0.00437929,-0.00449493,-1.52339,0.00512368,0.00969139,1910,729,22.2553,-1.74849
693,295,22.2141,2.17737,-0.00488198,0.00563096,-0.00051838,0.00565646,-0.00490747,-1.52165,0.0061042,0.0362929,1917,729,22.2141,-2.17736
700,295,22.2111,2.59631,0,0,0,0,0,0,0,-1,1924,729,22.211,-2.5963
707,295,22.2661,3.05206,0,0,0,0,0,0,0,-1,1931,729,22.2662,-3.05207
714,295,17.4906,4.63068,0,0,0,0,0,0,0,-1,1938,729,17.4906,-4.63066
721,295,18.3792,5.32281,0,0,0,0,0,0,0,-1,1945,729,18.3791,-5.32283
728,295,17.379,3.74866,0,0,0,0,0,0,0,-1,1952,729,17.379,-3.74863
735,295,0,0,0,0,0,0,0,0,0,-1,1959,729,0,0
742,295,0,0,0,0,0,0,0,0,0,-1,1966,729,0,0
749,295,0,0,0,0,0,0,0,0,0,-1,1973,729,0,0
756,295,0,0,0,0,0,0,0,0,0,-1,1980,729,0,0
763,295,0,0,0,0,0,0,0,0,0,-1,1987,729,0,0
770,295,0,0,0,0,0,0,0,0,0,-1,1994,729,0,0
777,295,0,0,0,0,0,0,0,0,0,-1,2001,729,0,0
784,295,0,0,0,0,0,0,0,0,0,-1,2008,729,0,0
791,295,0,0,0,0,0,0,0,0,0,-1,2015,729,0,0
798,295,0,0,0,0,0,0,0,0,0,-1,2022,729,0,0
805,295,0,0,0,0,0,0,0,0,0,-1,2029,729,0,0
812,295,0,0,0,0,0,0,0,0,0,-1,2036,729,0,0
-700,288,0,0,0,0,0,0,0,0,0,-1,524,736,0,0
-693,288,0,0,0,0,0,0,0,0,0,-1,531,736,0,0
-686,288,0,0,0,0,0,0,0,0,0,-1,538,736,0,0
-679,288,0,0,0,0,0,0,0,0,0,-1,545,736,0,0
-672,288,0,0,0,0,0,0,0,0,0,-1,552,736,0,0
-665,288,0,0,0,0,0,0,0,0,0,-1,559,736,0,0
-658,288,0,0,0,0,0,0,0,0,0,-1,566,736,0,0
-651,288,0,0,0,0,0,0,0,0,0,-1,573,736,0,0
-644,288,0,0,0,0,0,0,0,0,0,-1,580,736,0,0
-637,288,0,0,0,0,0,0,0,0,0,-1,587,736,0,0
-630,288,0,0,0,0,0,0,0,0,0,-1,594,736,0,0
-623,288,0,0,0,0,0,0,0,0,0,-1,601,736,0,0
-616,288,-11.7584,2.4425,0,0,0,0,0,0,0,-1,608,736,-11.7584,-2.44251
-609,288,-10.3007,2.32178,0,0,0,0,0,0,0,-1,615,736,-10.3007,-2.32178
-602,288,-10.1458,-1.85559,0,0,0,0,0,0,0,-1,622,736,-10.1458,1.85556
-595,288,-7.63208,1.81769,0,0,0,0,0,0,0,-1,629,736,-7.63205,-1.81766
-588,288,-8.19269,1.50598,0,0,0,0,0,0,0,-1,636,736,-8.19268,-1.50601
-581,288,-13.1915,0.659241,0,0,0,0,0,0,0,-1,643,736,-13.1915,-0.659228
-574,288,-13.9486,0.461304,0,0,0,0,0,0,0,-1,650,736,-13.9486,-0.461311
-567,288,-14.0797,0.0726318,-0.00450432,0.00517237,0.000642455,0.00521484,-0.00454679,1.50479,0.00564028,0.0330114,657,736,-14.0797,-0.072649
-560,288,-14.2831,-0.350464,-0.00302234,0.00406763,0.000433832,0.00409408,-0.00304879,1.50991,0.00413863,0.0154617,664,736,-14.2831,0.350443
-553,288,-14.2645,-0.699158,-0.00217575,0.00304086,0.000451783,0.0030797,-0.00221458,1.48504,0.00307023,0.0173548,671,736,-14.2645,0.699166
-546,288,-14.2935,-1.12549,-0.00161555,0.00196839,0.000609413,0.00206918,-0.00171634,1.40689,0.00218874,0.020003,678,736,-14.2935,1.12548
-539,288,-14.3118,-1.55096,-0.00125921,0.000905841,0.000836572,0.00119142,-0.00154479,1.24183,0.00158414,0.0173927,685,736,-14.3118,1.55096
-532,288,-14.298,-1.97089,-0.00110681,-0.000109536,0.0011065,0.000605489,-0.00182184,0.997093,0.00145889,0.0138385,692,736,-14.298,1.97089
-525,288,-14.3046,-2.40625,-0.00119544,-9.56303e-05,0.00175714,0.00119564,-0.00248671,0.937048,0.00216913,0.0123417,699,736,-14.3045,2.40625
-518,288,-14.3309,-2.82275,-0.00137945,0.00140755,0.00275208,0.00309881,-0.00307071,1.01975,0.00356199,0.0116868,706,736,-14.3309,2.82275
-511,288,-14.3394,-3.22754,-0.000496795,0.00399678,0.00465733,0.00692094,-0.00342096,1.01014,0.00608381,0.00901102,713,736,-14.3393,3.22754
-504,288,-14.3547,-3.64917,8.61063e-05,0.00767232,0.00679569,0.0116618,-0.0039034,1.03994,0.00935131,0.0108528,720,736,-14.3546,3.64918
-497,288,-14.3726,-3.92432,0.00123028,0.0132436,0.00971177,0.0186562,-0.00418227,1.06235,0.0140407,0.0294582,727,736,-14.3726,3.92431
-490,288,-14.321,-4.14661,0,0,0,0,0,0,0,-1,734,736,-14.321,4.1466
-483,288,-17.3287,0.564758,0,0,0,0,0,0,0,-1,741,736,-17.3287,-0.56477
-476,288,-23.9319,-1.89484,0,0,0,0,0,0,0,-1,748,736,-23.9319,1.89483
-469,288,-24.4758,-0.463806,0,0,0,0,0,0,0,-1,755,736,-24.4758,0.463781
-462,288,-23.0931,5.07062,0,0,0,0,0,0,0,-1,762,736,-23.0931,-5.07062
-455,288,-26.5945,-0.0354614,0,0,0,0,0,0,0,-1,769,736,-26.5945,0.0354822
-448,288,-20.3885,7.49506,0,0,0,0,0,0,0,-1,776,736,-20.3885,-7.49508
-441,288,-25.7227,0.574524,0,0,0,0,0,0,0,-1,783,736,-25.7226,-0.574494
-434,288,-22.8825,0.392578,0,0,0,0,0,0,0,-1,790,736,-22.8825,-0.392573
-427,288,0,0,0,0,0,0,0,0,0,-1,797,736,0,0
-420,288,0,0,0,0,0,0,0,0,0,-1,804,736,0,0
-413,288,0,0,0,0,0,0,0,0,0,-1,811,736,0,0
-406,288,0,0,0,0,0,0,0,0,0,-1,818,736,0,0
-399,288,0,0,0,0,0,0,0,0,0,-1,825,736,0,0
-392,288,0,0,0,0,0,0,0,0,0,-1,832,736,0,0
-385,288,0,0,0,0,0,0,0,0,0,-1,839,736,0,0
-378,288,0,0,0,0,0,0,0,0,0,-1,846,736,0,0
-371,288,0,0,0,0,0,0,0,0,0,-1,853,736,0,0
-364,288,0,0,0,0,0,0,0,0,0,-1,860,736,0,0
-357,288,0,0,0,0,0,0,0,0,0,-1,867,736,0,0
-350,288,0,0,0,0,0,0,0,0,0,-1,874,736,0,0
-343,288,0,0,0,0,0,0,0,0,0,-1,881,736,0,0
-336,288,0,0,0,0,0,0,0,0,0,-1,888,736,0,0
-329,288,0,0,0,0,0,0,0,0,0,-1,895,736,0,0
-322,288,0,0,0,0,0,0,0,0,0,-1,902,736,0,0
-315,288,0,0,0,0,0,0,0,0,0,-1,909,736,0,0
-308,288,0,0,0,0,0,0,0,0,0,-1,916,736,0,0
-301,288,0,0,0,0,0,0,0,0,0,-1,923,736,0,0
-294,288,0,0,0,0,0,0,0,0,0,-1,930,736,0,0
-287,288,0,0,0,0,0,0,0,0,0,-1,937,736,0,0
-280,288,0,0,0,0,0,0,0,0,0,-1,944,736,0,0
-273,288,0,0,0,0,0,0,0,0,0,-1,951,736,0,0
-266,288,0,0,0,0,0,0,0,0,0,-1,958,736,0,0
-259,288,0,0,0,0,0,0,0,0,0,-1,965,736,0,0
-252,288,0,0,0,0,0,0,0,0,0,-1,972,736,0,0
-245,288,0,0,0,0,0,0,0,0,0,-1,979,736,0,0
-238,288,0,0,0,0,0,0,0,0,0,-1,986,736,0,0
-231,288,0,0,0,0,0,0,0,0,0,-1,993,736,0,0
-224,288,0,0,0,0,0,0,0,0,0,-1,1000,736,0,0
-217,288,0,0,0,0,0,0,0,0,0,-1,1007,736,0,0
-210,288,0,0,0,0,0,0,0,0,0,-1,1014,736,0,0
-203,288,0,0,0,0,0,0,0,0,0,-1,1021,736,0,0
-196,288,0,0,0,0,0,0,0,0,0,-1,1028,736,0,0
-189,288,0,0,0,0,0,0,0,0,0,-1,1035,736,0,0
-182,288,0,0,0,0,0,0,0,0,0,-1,1042,736,0,0
-175,288,0,0,0,0,0,0,0,0,0,-1,1049,736,0,0
-168,288,0,0,0,0,0,0,0,0,0,-1,1056,736,0,0
-161,288,0,0,0,0,0,0,0,0,0,-1,1063,736,0,0
-154,288,0,0,0,0,0,0,0,0,0,-1,1070,736,0,0
-147,288,0,0,0,0,0,0,0,0,0,-1,1077,736,0,0
-140,288,0,0,0,0,0,0,0,0,0,-1,1084,736,0,0
-133,288,0,0,0,0,0,0,0,0,0,-1,1091,736,0,0
-126,288,0,0,0,0,0,0,0,0,0,-1,1098,736,0,0
-119,288,0,0,0,0,0,0,0,0,0,-1,1105,736,0,0
-112,288,0,0,0,0,0,0,0,0,0,-1,1112,736,0,0
-105,288,0,0,0,0,0,0,0,0,0,-1,1119,736,0,0
-98,288,0,0,0,0,0,0,0,0,0,-1,1126,736,0,0
-91,288,0,0,0,0,0,0,0,0,0,-1,1133,736,0,0
-84,288,0,0,0,0,0,0,0,0,0,-1,1140,736,0,0
-77,288,0,0,0,0,0,0,0,0,0,-1,1147,736,0,0
-70,288,0,0,0,0,0,0,0,0,0,-1,1154,736,0,0
-63,288,0,0,0,0,0,0,0,0,0,-1,1161,736,0,0
-56,288,0,0,0,0,0,0,0,0,0,-1,1168,736,0,0
-49,288,0,0,0,0,0,0,0,0,0,-1,1175,736,0,0
-42,288,0,0,0,0,0,0,0,0,0,-1,1182,736,0,0
-35,288,0,0,0,0,0,0,0,0,0,-1,1189,736,0,0
-28,288,0,0,0,0,0,0,0,0,0,-1,1196,736,0,0
-21,288,0,0,0,0,0,0,0,0,0,-1,1203,736,0,0
-14,288,0,0,0,0,0,0,0,0,0,-1,1210,736,0,0
-7,288,0,0,0,0,0,0,0,0,0,-1,1217,736,0,0
0,288,0,0,0,0,0,0,0,0,0,-1,1224,736,0,0
7,288,0,0,0,0,0,0,0,0,0,-1,1231,736,0,0
14,288,0,0,0,0,0,0,0,0,0,-1,1238,736,0,0
21,288,0,0,0,0,0,0,0,0,0,-1,1245,736,0,0
28,288,0,0,0,0,0,0,0,0,0,-1,1252,736,0,0
35,288,0,0,0,0,0,0,0,0,0,-1,1259,736,0,0
42,288,0,0,0,0,0,0,0,0,0,-1,1266,736,0,0
49,288,0,0,0,0,0,0,0,0,0,-1,1273,736,0,0
56,288,0,0,0,0,0,0,0,0,0,-1,1280,736,0,0
63,288,0,0,0,0,0,0,0,0,0,-1,1287,736,0,0
70,288,0,0,0,0,0,0,0,0,0,-1,1294,736,0,0
77,288,0,0,0,0,0,0,0,0,0,-1,1301,736,0,0
84,288,0,0,0,0,0,0,0,0,0,-1,1308,736,0,0
91,288,0,0,0,0,0,0,0,0,0,-1,1315,736,0,0
98,288,0,0,0,0,0,0,0,0,0,-1,1322,736,0,0
105,288,0,0,0,0,0,0,0,0,0,-1,1329,736,0,0
112,288,0,0,0,0,0,0,0,0,0,-1,1336,736,0,0
119,288,0,0,0,0,0,0,0,0,0,-1,1343,736,0,0
126,288,0,0,0,0,0,0,0,0,0,-1,1350,736,0,0
133,288,0,0,0,0,0,0,0,0,0,-1,1357,736,0,0
140,288,0,0,0,0,0,0,0,0,0,-1,1364,736,0,0
147,288,0,0,0,0,0,0,0,0,0,-1,1371,736,0,0
154,288,0,0,0,0,0,0,0,0,0,-1,1378,736,0,0
161,288,0,0,0,0,0,0,0,0,0,-1,1385,736,0,0
168,288,0,0,0,0,0,0,0,0,0,-1,1392,736,0,0
175,288,0,0,0,0,0,0,0,0,0,-1,1399,736,0,0
182,288,0,0,0,0,0,0,0,0,0,-1,1406,736,0,0
189,288,0,0,0,0,0,0,0,0,0,-1,1413,736,0,0
196,288,0,0,0,0,0,0,0,0,0,-1,1420,736,0,0
203,288,0,0,0,0,0,0,0,0,0,-1,1427,736,0,0
210,288,0,0,0,0,0,0,0,0,0,-1,1434,736,0,0
217,288,0,0,0,0,0,0,0,0,0,-1,1441,736,0,0
224,288,0,0,0,0,0,0,0,0,0,-1,1448,736,0,0
231,288,0,0,0,0,0,0,0,0,0,-1,1455,736,0,0
238,288,0,0,0,0,0,0,0,0,0,-1,1462,736,0,0
245,288,0,0,0,0,0,0,0,0,0,-1,1469,736,0,0
252,288,0,0,0,0,0,0,0,0,0,-1,1476,736,0,0
259,288,0,0,0,0,0,0,0,0,0,-1,1483,736,0,0
266,288,0,0,0,0,0,0,0,0,0,-1,1490,736,0,0
273,288,0,0,0,0,0,0,0,0,0,-1,1497,736,0,0
280,288,0,0,0,0,0,0,0,0,0,-1,1504,736,0,0
287,288,0,0,0,0,0,0,0,0,0,-1,1511,736,0,0
294,288,0,0,0,0,0,0,0,0,0,-1,1518,736,0,0
301,288,0,0,0,0,0,0,0,0,0,-1,1525,736,0,0
308,288,0,0,0,0,0,0,0,0,0,-1,1532,736,0,0
315,288,0,0,0,0,0,0,0,0,0,-1,1539,736,0,0
322,288,0,0,0,0,0,0,0,0,0,-1,1546,736,0,0
329,288,0,0,0,0,0,0,0,0,0,-1,1553,736,0,0
336,288,0,0,0,0,0,0,0,0,0,-1,1560,736,0,0
343,288,0,0,0,0,0,0,0,0,0,-1,1567,736,0,0
350,288,0,0,0,0,0,0,0,0,0,-1,1574,736,0,0
357,288,0,0,0,0,0,0,0,0,0,-1,1581,736,0,0
364,288,0,0,0,0,0,0,0,0,0,-1,1588,736,0,0
371,288,0,0,0,0,0,0,0,0,0,-1,1595,736,0,0
378,288,0,0,0,0,0,0,0,0,0,-1,1602,736,0,0
385,288,0,0,0,0,0,0,0,0,0,-1,1609,736,0,0
392,288,0,0,0,0,0,0,0,0,0,-1,1616,736,0,0
399,288,0,0,0,0,0,0,0,0,0,-1,1623,736,0,0
406,288,0,0,0,0,0,0,0,0,0,-1,1630,736,0,0
413,288,0,0,0,0,0,0,0,0,0,-1,1637,736,0,0
420,288,0,0,0,0,0,0,0,0,0,-1,1644,736,0,0
427,288,0,0,0,0,0,0,0,0,0,-1,1651,736,0,0
434,288,0,0,0,0,0,0,0,0,0,-1,1658,736,0,0
441,288,0,0,0,0,0,0,0,0,0,-1,1665,736,0,0
448,288,0,0,0,0,0,0,0,0,0,-1,1672,736,0,0
455,288,0,0,0,0,0,0,0,0,0,-1,1679,736,0,0
462,288,0,0,0,0,0,0,0,0,0,-1,1686,736,0,0
469,288,0,0,0,0,0,0,0,0,0,-1,1693,736,0,0
476,288,0,0,0,0,0,0,0,0,0,-1,1700,736,0,0
483,288,0,0,0,0,0,0,0,0,0,-1,1707,736,0,0
490,288,0,0,0,0,0,0,0,0,0,-1,1714,736,0,0
497,288,0,0,0,0,0,0,0,0,0,-1,1721,736,0,0
504,288,0,0,0,0,0,0,0,0,0,-1,1728,736,0,0
511,288,0,0,0,0,0,0,0,0,0,-1,1735,736,0,0
518,288,0,0,0,0,0,0,0,0,0,-1,1742,736,0,0
525,288,0,0,0,0,0,0,0,0,0,-1,1749,736,0,0
532,288,0,0,0,0,0,0,0,0,0,-1,1756,736,0,0
539,288,0,0,0,0,0,0,0,0,0,-1,1763,736,0,0
546,288,0,0,0,0,0,0,0,0,0,-1,1770,736,0,0
553,288,35.2653,2.96423,0.00720311,0.0402076,-0.0149609,0.0459798,0.00143091,-1.20257,0.0301875,0.0496865,1777,736,35.2652,-2.96423
560,288,35.5349,2.63196,-0.00183895,0.0209298,0.000432404,0.020938,-0.00184716,1.55181,0.0146134,0.0434509,1784,736,35.5349,-2.63197
567,288,35.505,3.12091,-0.00266447,0.0112897,0.00649592,0.0138455,-0.00522032,1.19595,0.0113769,0.045252,1791,736,35.505,-3.12093
574,288,35.3047,3.66406,0,0,0,0,0,0,0,-1,1798,736,35.3047,-3.66404
581,288,33.6976,4.67633,0,0,0,0,0,0,0,-1,1805,736,33.6976,-4.67631
588,288,38.3922,1.58331,0,0,0,0,0,0,0,-1,1812,736,38.3922,-1.58334
595,288,27.4215,6.6875,0,0,0,0,0,0,0,-1,1819,736,27.4215,-6.68751
602,288,26.7634,7.61279,0,0,0,0,0,0,0,-1,1826,736,26.7635,-7.61279
609,288,17.5223,4.86414,0,0,0,0,0,0,0,-1,1833,736,17.5223,-4.86412
616,288,13.4886,0.801331,0,0,0,0,0,0,0,-1,1840,736,13.4886,-0.80132
623,288,22.8074,-2.24695,0,0,0,0,0,0,0,-1,1847,736,22.8073,2.24695
630,288,22.7554,-1.80219,0.00204734,-0.00541474,0.00573733,0.0051601,-0.00852751,0.497102,0.00798186,0.024652,1854,736,22.7554,1.80216
637,288,22.7737,-1.3656,0.00145635,-0.00191956,0.00267408,0.00293066,-0.00339386,0.503865,0.00365473,0.0114048,1861,736,22.7737,1.3656
644,288,22.781,-0.923035,0.000785536,-0.000778812,0.00131349,0.0015321,-0.00152538,0.516848,0.00176524,0.0105634,1868,736,22.781,0.923036
651,288,22.7554,-0.48175,0.000544495,-0.000113149,0.000344166,0.000691672,-0.000260325,0.404097,0.000568131,0.0116691,1875,736,22.7553,0.481768
658,288,22.7341,-0.0184937,-0.000104013,0.000378313,0.000159228,0.000426137,-0.000151836,1.27902,0.000345993,0.0166631,1882,736,22.7341,0.0185155
665,288,22.7395,0.425781,-0.00085193,0.00108987,5.55922e-06,0.00108989,-0.000851945,1.56793,0.00112392,0.0163663,1889,736,22.7395,-0.425811
672,288,22.7032,0.840027,-0.0013888,0.00170304,-2.18245e-05,0.00170319,-0.00138895,-1.56374,0.00178832,0.0148048,1896,736,22.7033,-0.840029
679,288,22.6996,1.30383,-0.00195848,0.00252054,-0.000102113,0.00252287,-0.00196081,-1.54801,0.00259542,0.012902,1903,736,22.6996,-1.30382
686,288,22.6982,1.72614,-0.00238817,0.00381587,-0.000411107,0.00384299,-0.00241529,-1.50492,0.00364443,0.0100865,1910,736,22.6983,-1.72615
693,288,22.7045,2.21722,-0.00227809,0.00507066,-0.00061377,0.00512157,-0.002329,-1.48804,0.00440115,0.017487,1917,736,22.7044,-2.21721
700,288,22.595,2.79315,-0.00145316,0.00653466,-0.000902493,0.00663536,-0.00155386,-1.45968,0.0050223,0.0375747,1924,736,22.595,-2.79317
707,288,22.6306,3.39935,0,0,0,0,0,0,0,-1,1931,736,22.6306,-3.39933
714,288,23.0149,3.82544,0,0,0,0,0,0,0,-1,1938,736,23.0149,-3.82541
721,288,18.0732,3.69385,0,0,0,0,0,0,0,-1,1945,736,18.0732,-3.69387
728,288,19.3208,3.91455,0,0,0,0,0,0,0,-1,1952,736,19.3209,-3.91455
735,288,18.7712,3.51312,0,0,0,0,0,0,0,-1,1959,736,18.7713,-3.51309
742,288,0,0,0,0,0,0,0,0,0,-1,1966,736,0,0
749,288,0,0,0,0,0,0,0,0,0,-1,1973,736,0,0
756,288,0,0,0,0,0,0,0,0,0,-1,1980,736,0,0
763,288,0,0,0,0,0,0,0,0,0,-1,1987,736,0,0
770,288,0,0,0,0,0,0,0,0,0,-1,1994,736,0,0
777,288,0,0,0,0,0,0,0,0,0,-1,2001,736,0,0
784,288,0,0,0,0,0,0,0,0,0,-1,2008,736,0,0
791,288,0,0,0,0,0,0,0,0,0,-1,2015,736,0,0
798,288,0,0,0,0,0,0,0,0,0,-1,2022,736,0,0
805,288,0,0,0,0,0,0,0,0,0,-1,2029,736,0,0
812,288,0,0,0,0,0,0,0,0,0,-1,2036,736,0,0
-700,281,0,0,0,0,0,0,0,0,0,-1,524,743,0,0
-693,281,0,0,0,0,0,0,0,0,0,-1,531,743,0,0
-686,281,0,0,0,0,0,0,0,0,0,-1,538,743,0,0
-679,281,0,0,0,0,0,0,0,0,0,-1,545,743,0,0
-672,281,0,0,0,0,0,0,0,0,0,-1,552,743,0,0
-665,281,0,0,0,0,0,0,0,0,0,-1,559,743,0,0
-658,281,0,0,0,0,0,0,0,0,0,-1,566,743,0,0
-651,281,0,0,0,0,0,0,0,0,0,-1,573,743,0,0
-644,281,0,0,0,0,0,0,0,0,0,-1,580,743,0,0
-637,281,0,0,0,0,0,0,0,0,0,-1,587,743,0,0
-630,281,0,0,0,0,0,0,0,0,0,-1,594,743,0,0
-623,281,-19.1697,5.67017,0,0,0,0,0,0,0,-1,601,743,-19.1697,-5.67019
-616,281,-11.5906,2.6853,0,0,0,0,0,0,0,-1,608,743,-11.5906,-2.68529
-609,281,-16.1972,4.14838,0,0,0,0,0,0,0,-1,615,743,-16.1972,-4.14837
-602,281,-14.6906,3.64813,0,0,0,0,0,0,0,-1,622,743,-14.6905,-3.64816
-595,281,-10.4797,-1.07404,0,0,0,0,0,0,0,-1,629,743,-10.4798,1.07402
-588,281,-13.277,1.49817,0,0,0,0,0,0,0,-1,636,743,-13.2771,-1.49817
-581,281,-14.5152,0.74054,0,0,0,0,0,0,0,-1,643,743,-14.5152,-0.740528
-574,281,-14.528,0.433472,-0.00550251,0.00520152,0.000797482,0.00526061,-0.0055616,1.49684,0.00624901,0.0342849,650,743,-14.528,-0.433476
-567,281,-14.6833,0.0940552,-0.00399445,0.00398635,0.000826289,0.004071,-0.0040791,1.4687,0.00470546,0.0168168,657,743,-14.6833,-0.0940593
-560,281,-14.7393,-0.317993,-0.00285037,0.00291532,0.000782563,0.00301965,-0.0029547,1.43826,0.00344936,0.00803086,664,743,-14.7393,0.318008
-553,281,-14.7206,-0.72052,-0.00223188,0.00191108,0.000926915,0.002109,-0.0024298,1.36042,0.00262266,0.013325,671,743,-14.7206,0.72052
-546,281,-14.7077,-1.1123,-0.00182873,0.000902102,0.00115988,0.00132824,-0.00225487,1.2187,0.00209164,0.0152434,678,743,-14.7077,1.11228
-539,281,-14.7183,-1.55151,-0.00168914,-2.60792e-05,0.00143176,0.000798099,-0.00251331,1.04848,0.0019955,0.0140228,685,743,-14.7183,1.55153
-532,281,-14.7364,-1.95508,-0.00175689,-0.000795477,0.00168841,0.000479328,-0.00303169,0.924083,0.00219839,0.0138121,692,743,-14.7364,1.95506
-525,281,-14.7706,-2.39209,-0.00208065,-0.000149767,0.00242422,0.00149418,-0.0037246,0.974896,0.00310343,0.0152417,699,743,-14.7706,2.39208
-518,281,-14.7686,-2.8222,-0.00247024,0.0022383,0.00346475,0.00407296,-0.00430489,1.08381,0.00483757,0.0125043,706,743,-14.7686,2.82221
-511,281,-14.7651,-3.22546,-0.0016339,0.00565473,0.00542776,0.00854812,-0.00452729,1.08104,0.00766714,0.0113018,713,743,-14.765,3.22546
-504,281,-14.7968,-3.63995,-0.00114016,0.0102235,0.00754415,0.0139861,-0.00490276,1.10815,0.011318,0.0140026,720,743,-14.7968,3.63996
-497,281,-14.6655,-3.99994,-1.4058e-06,0.0165999,0.0103953,0.021602,-0.00500349,1.12231,0.0163268,0.0438639,727,743,-14.6655,3.99991
-490,281,-14.4676,-4.22705,0,0,0,0,0,0,0,-1,734,743,-14.4676,4.22703
-483,281,-22.8943,-1.78931,0,0,0,0,0,0,0,-1,741,743,-22.8944,1.78931
-476,281,-24.7306,0.113586,0,0,0,0,0,0,0,-1,748,743,-24.7306,-0.113601
-469,281,-24.0184,4.49048,0,0,0,0,0,0,0,-1,755,743,-24.0184,-4.49049
-462,281,-23.5666,4.72498,0,0,0,0,0,0,0,-1,762,743,-23.5666,-4.72495
-455,281,-23.1148,4.95941,0,0,0,0,0,0,0,-1,769,743,-23.1148,-4.95942
-448,281,-21.6528,6.1593,0,0,0,0,0,0,0,-1,776,743,-21.6527,-6.15932
-441,281,-21.1725,6.17346,0,0,0,0,0,0,0,-1,783,743,-21.1726,-6.17347
-434,281,0,0,0,0,0,0,0,0,0,-1,790,743,0,0
-427,281,0,0,0,0,0,0,0,0,0,-1,797,743,0,0
-420,281,0,0,0,0,0,0,0,0,0,-1,804,743,0,0
-413,281,0,0,0,0,0,0,0,0,0,-1,811,743,0,0
-406,281,0,0,0,0,0,0,0,0,0,-1,818,743,0,0
-399,281,0,0,0,0,0,0,0,0,0,-1,825,743,0,0
-392,281,0,0,0,0,0,0,0,0,0,-1,832,743,0,0
-385,281,0,0,0,0,0,0,0,0,0,-1,839,743,0,0
-378,281,0,0,0,0,0,0,0,0,0,-1,846,743,0,0
-371,281,0,0,0,0,0,0,0,0,0,-1,853,743,0,0
-364,281,0,0,0,0,0,0,0,0,0,-1,860,743,0,0
-357,281,0,0,0,0,0,0,0,0,0,-1,867,743,0,0
-350,281,0,0,0,0,0,0,0,0,0,-1,874,743,0,0
-343,281,0,0,0,0,0,0,0,0,0,-1,881,743,0,0
-336,281,0,0,0,0,0,0,0,0,0,-1,888,743,0,0
-329,281,0,0,0,0,0,0,0,0,0,-1,895,743,0,0
-322,281,0,0,0,0,0,0,0,0,0,-1,902,743,0,0
-315,281,0,0,0,0,0,0,0,0,0,-1,909,743,0,0
-308,281,0,0,0,0,0,0,0,0,0,-1,916,743,0,0
-301,281,0,0,0,0,0,0,0,0,0,-1,923,743,0,0
-294,281,0,0,0,0,0,0,0,0,0,-1,930,743,0,0
-287,281,0,0,0,0,0,0,0,0,0,-1,937,743,0,0
-280,281,0,0,0,0,0,0,0,0,0,-1,944,743,0,0
-273,281,0,0,0,0,0,0,0,0,0,-1,951,743,0,0
-266,281,0,0,0,0,0,0,0,0,0,-1,958,743,0,0
-259,281,0,0,0,0,0,0,0,0,0,-1,965,743,0,0
-252,281,0,0,0,0,0,0,0,0,0,-1,972,743,0,0
-245,281,0,0,0,0,0,0,0,0,0,-1,979,743,0,0
-238,281,0,0,0,0,0,0,0,0,0,-1,986,743,0,0
-231,281,0,0,0,0,0,0,0,0,0,-1,993,743,0,0
-224,281,0,0,0,0,0,0,0,0,0,-1,1000,743,0,0
-217,281,0,0,0,0,0,0,0,0,0,-1,1007,743,0,0
-210,281,0,0,0,0,0,0,0,0,0,-1,1014,743,0,0
-203,281,0,0,0,0,0,0,0,0,0,-1,1021,743,0,0
-196,281,0,0,0,0,0,0,0,0,0,-1,1028,743,0,0
-189,281,0,0,0,0,0,0,0,0,0,-1,1035,743,0,0
-182,281,0,0,0,0,0,0,0,0,0,-1,1042,743,0,0
-175,281,0,0,0,0,0,0,0,0,0,-1,1049,743,0,0
-168,281,0,0,0,0,0,0,0,0,0,-1,1056,743,0,0
-161,281,0,0,0,0,0,0,0,0,0,-1,1063,743,0,0
-154,281,0,0,0,0,0,0,0,0,0,-1,1070,743,0,0
-147,281,0,0,0,0,0,0,0,0,0,-1,1077,743,0,0
-140,281,0,0,0,0,0,0,0,0,0,-1,1084,743,0,0
-133,281,0,0,0,0,0,0,0,0,0,-1,1091,743,0,0
-126,281,0,0,0,0,0,0,0,0,0,-1,1098,743,0,0
-119,281,0,0,0,0,0,0,0,0,0,-1,1105,743,0,0
-112,281,0,0,0,0,0,0,0,0,0,-1,1112,743,0,0
-105,281,0,0,0,0,0,0,0,0,0,-1,1119,743,0,0
-98,281,0,0,0,0,0,0,0,0,0,-1,1126,743,0,0
-91,281,0,0,0,0,0,0,0,0,0,-1,1133,743,0,0
-84,281,0,0,0,0,0,0,0,0,0,-1,1140,743,0,0
-77,281,0,0,0,0,0,0,0,0,0,-1,1147,743,0,0
-70,281,0,0,0,0,0,0,0,0,0,-1,1154,743,0,0
-63,281,0,0,0,0,0,0,0,0,0,-1,1161,743,0,0
-56,281,0,0,0,0,0,0,0,0,0,-1,1168,743,0,0
-49,281,0,0,0,0,0,0,0,0,0,-1,1175,743,0,0
-42,281,0,0,0,0,0,0,0,0,0,-1,1182,743,0,0
-35,281,0,0,0,0,0,0,0,0,0,-1,1189,743,0,0
-28,281,0,0,0,0,0,0,0,0,0,-1,1196,743,0,0
-21,281,0,0,0,0,0,0,0,0,0,-1,1203,743,0,0
-14,281,0,0,0,0,0,0,0,0,0,-1,1210,743,0,0
-7,281,0,0,0,0,0,0,0,0,0,-1,1217,743,0,0
0,281,0,0,0,0,0,0,0,0,0,-1,1224,743,0,0
7,281,0,0,0,0,0,0,0,0,0,-1,1231,743,0,0
14,281,0,0,0,0,0,0,0,0,0,-1,1238,743,0,0
21,281,0,0,0,0,0,0,0,0,0,-1,1245,743,0,0
28,281,0,0,0,0,0,0,0,0,0,-1,1252,743,0,0
35,281,0,0,0,0,0,0,0,0,0,-1,1259,743,0,0
42,281,0,0,0,0,0,0,0,0,0,-1,1266,743,0,0
49,281,0,0,0,0,0,0,0,0,0,-1,1273,743,0,0
56,281,0,0,0,0,0,0,0,0,0,-1,1280,743,0,0
63,281,0,0,0,0,0,0,0,0,0,-1,1287,743,0,0
70,281,0,0,0,0,0,0,0,0,0,-1,1294,743,0,0
77,281,0,0,0,0,0,0,0,0,0,-1,1301,743,0,0
84,281,0,0,0,0,0,0,0,0,0,-1,1308,743,0,0
91,281,0,0,0,0,0,0,0,0,0,-1,1315,743,0,0
98,281,0,0,0,0,0,0,0,0,0,-1,1322,743,0,0
105,281,0,0,0,0,0,0,0,0,0,-1,1329,743,0,0
112,281,0,0,0,0,0,0,0,0,0,-1,1336,743,0,0
119,281,0,0,0,0,0,0,0,0,0,-1,1343,743,0,0
126,281,0,0,0,0,0,0,0,0,0,-1,1350,743,0,0
133,281,0,0,0,0,0,0,0,0,0,-1,1357,743,0,0
140,281,0,0,0,0,0,0,0,0,0,-1,1364,743,0,0
147,281,0,0,0,0,0,0,0,0,0,-1,1371,743,0,0
154,281,0,0,0,0,0,0,0,0,0,-1,1378,743,0,0
161,281,0,0,0,0,0,0,0,0,0,-1,1385,743,0,0
168,281,0,0,0,0,0,0,0,0,0,-1,1392,743,0,0
175,281,0,0,0,0,0,0,0,0,0,-1,1399,743,0,0
182,281,0,0,0,0,0,0,0,0,0,-1,1406,743,0,0
189,281,0,0,0,0,0,0,0,0,0,-1,1413,743,0,0
196,281,0,0,0,0,0,0,0,0,0,-1,1420,743,0,0
203,281,0,0,0,0,0,0,0,0,0,-1,1427,743,0,0
210,281,0,0,0,0,0,0,0,0,0,-1,1434,743,0,0
217,281,0,0,0,0,0,0,0,0,0,-1,1441,743,0,0
224,281,0,0,0,0,0,0,0,0,0,-1,1448,743,0,0
231,281,0,0,0,0,0,0,0,0,0,-1,1455,743,0,0
238,281,0,0,0,0,0,0,0,0,0,-1,1462,743,0,0
245,281,0,0,0,0,0,0,0,0,0,-1,1469,743,0,0
252,281,0,0,0,0,0,0,0,0,0,-1,1476,743,0,0
259,281,0,0,0,0,0,0,0,0,0,-1,1483,743,0,0
266,281,0,0,0,0,0,0,0,0,0,-1,1490,743,0,0
273,281,0,0,0,0,0,0,0,0,0,-1,1497,743,0,0
280,281,0,0,0,0,0,0,0,0,0,-1,1504,743,0,0
287,281,0,0,0,0,0,0,0,0,0,-1,1511,743,0,0
294,281,0,0,0,0,0,0,0,0,0,-1,1518,743,0,0
301,281,0,0,0,0,0,0,0,0,0,-1,1525,743,0,0
308,281,0,0,0,0,0,0,0,0,0,-1,1532,743,0,0
315,281,0,0,0,0,0,0,0,0,0,-1,1539,743,0,0
322,281,0,0,0,0,0,0,0,0,0,-1,1546,743,0,0
329,281,0,0,0,0,0,0,0,0,0,-1,1553,743,0,0
336,281,0,0,0,0,0,0,0,0,0,-1,1560,743,0,0
343,281,0,0,0,0,0,0,0,0,0,-1,1567,743,0,0
350,281,0,0,0,0,0,0,0,0,0,-1,1574,743,0,0
357,281,0,0,0,0,0,0,0,0,0,-1,1581,743,0,0
364,281,0,0,0,0,0,0,0,0,0,-1,1588,743,0,0
371,281,0,0,0,0,0,0,0,0,0,-1,1595,743,0,0
378,281,0,0,0,0,0,0,0,0,0,-1,1602,743,0,0
385,281,0,0,0,0,0,0,0,0,0,-1,1609,743,0,0
392,281,0,0,0,0,0,0,0,0,0,-1,1616,743,0,0
399,281,0,0,0,0,0,0,0,0,0,-1,1623,743,0,0
406,281,0,0,0,0,0,0,0,0,0,-1,1630,743,0,0
413,281,0,0,0,0,0,0,0,0,0,-1,1637,743,0,0
420,281,0,0,0,0,0,0,0,0,0,-1,1644,743,0,0
427,281,0,0,0,0,0,0,0,0,0,-1,1651,743,0,0
434,281,0,0,0,0,0,0,0,0,0,-1,1658,743,0,0
441,281,0,0,0,0,0,0,0,0,0,-1,1665,743,0,0
448,281,0,0,0,0,0,0,0,0,0,-1,1672,743,0,0
455,281,0,0,0,0,0,0,0,0,0,-1,1679,743,0,0
462,281,0,0,0,0,0,0,0,0,0,-1,1686,743,0,0
469,281,0,0,0,0,0,0,0,0,0,-1,1693,743,0,0
476,281,0,0,0,0,0,0,0,0,0,-1,1700,743,0,0
483,281,0,0,0,0,0,0,0,0,0,-1,1707,743,0,0
490,281,0,0,0,0,0,0,0,0,0,-1,1714,743,0,0
497,281,0,0,0,0,0,0,0,0,0,-1,1721,743,0,0
504,281,0,0,0,0,0,0,0,0,0,-1,1728,743,0,0
511,281,0,0,0,0,0,0,0,0,0,-1,1735,743,0,0
518,281,0,0,0,0,0,0,0,0,0,-1,1742,743,0,0
525,281,0,0,0,0,0,0,0,0,0,-1,1749,743,0,0
532,281,0,0,0,0,0,0,0,0,0,-1,1756,743,0,0
539,281,0,0,0,0,0,0,0,0,0,-1,1763,743,0,0
546,281,0,0,0,0,0,0,0,0,0,-1,1770,743,0,0
553,281,0,0,0,0,0,0,0,0,0,-1,1777,743,0,0
560,281,36.0557,2.97107,0,0,0,0,0,0,0,-1,1784,743,36.0557,-2.97106
567,281,35.7955,3.27045,-0.000126736,0.00862186,0.00741712,0.0128585,-0.00436337,1.05183,0.0103384,0.0430497,1791,743,35.7955,-3.27044
574,281,35.541,3.56458,0,0,0,0,0,0,0,-1,1798,743,35.5411,-3.5646
581,281,38.22,1.06226,0,0,0,0,0,0,0,-1,1805,743,38.22,-1.06226
588,281,38.0354,1.68982,0,0,0,0,0,0,0,-1,1812,743,38.0354,-1.68985
595,281,37.785,2.26477,0,0,0,0,0,0,0,-1,1819,743,37.785,-2.26478
602,281,30.1091,6.0744,0,0,0,0,0,0,0,-1,1826,743,30.1091,-6.07442
609,281,32.7925,1.28723,0,0,0,0,0,0,0,-1,1833,743,32.7925,-1.28722
616,281,21.3191,-0.253906,0,0,0,0,0,0,0,-1,1840,743,21.3191,0.253931
623,281,23.0469,-2.11829,0,0,0,0,0,0,0,-1,1847,743,23.0468,2.11827
630,281,23.1371,-1.75629,0.00220894,-0.0047716,0.00539827,0.00514699,-0.00770965,0.498424,0.00747177,0.0439765,1854,743,23.1371,1.75631
637,281,23.1849,-1.35913,0.00158054,-0.00147152,0.00240692,0.00290443,-0.00279541,0.502869,0.00329101,0.0142681,1861,743,23.185,1.35913
644,281,23.1929,-0.900818,0.000910947,-0.00054016,0.00106264,0.0014721,-0.00110132,0.485859,0.0014909,0.0106071,1868,743,23.1928,0.900821
651,281,23.196,-0.459412,0.000833229,-0.000123314,7.98649e-06,0.000833296,-0.00012338,0.00834856,0.000600894,0.0118635,1875,743,23.196,0.459399
658,281,23.1698,-0.0367432,0.000434855,0.000111337,-0.000114753,0.000471424,7.47677e-05,-0.308506,0.000292562,0.0197776,1882,743,23.1698,0.0367728
665,281,23.1663,0.395081,-5.48532e-05,0.000660956,-0.000155169,0.000693145,-8.70424e-05,-1.36625,0.000493675,0.0203524,1889,743,23.1663,-0.395094
672,281,23.1584,0.856995,-0.000367347,0.00111606,-7.69679e-05,0.00112004,-0.00037133,-1.5191,0.000896484,0.0126341,1896,743,23.1584,-0.856986
679,281,23.1414,1.2865,-0.000656582,0.00182977,-7.50671e-05,0.00183203,-0.000658846,-1.54064,0.00149033,0.0193139,1903,743,23.1414,-1.28652
686,281,23.1169,1.71149,-0.000754364,0.00310121,-0.000368725,0.00313616,-0.00078931,-1.4763,0.00239758,0.0148174,1910,743,23.1169,-1.71149
693,281,23.1143,2.15466,-0.000245706,0.00428088,-0.000536714,0.00434364,-0.000308473,-1.45438,0.00300387,0.0111785,1917,743,23.1143,-2.15465
700,281,23.0963,2.60883,0.000971432,0.00567691,-0.000817876,0.00581502,0.000833327,-1.40352,0.00363092,0.0233191,1924,743,23.0964,-2.60882
707,281,23.1398,2.90039,0.00321303,0.00754016,-0.00121101,0.00785602,0.00289717,-1.31566,0.00458745,0.0460711,1931,743,23.1397,-2.90037
714,281,23.2628,3.16986,0,0,0,0,0,0,0,-1,1938,743,23.2628,-3.16988
721,281,16.9656,3.22174,0,0,0,0,0,0,0,-1,1945,743,16.9656,-3.22172
728,281,19.0251,3.63934,0,0,0,0,0,0,0,-1,1952,743,19.0252,-3.63932
735,281,19.0869,2.50311,0,0,0,0,0,0,0,-1,1959,743,19.0869,-2.5031
742,281,0,0,0,0,0,0,0,0,0,-1,1966,743,0,0
749,281,0,0,0,0,0,0,0,0,0,-1,1973,743,0,0
756,281,0,0,0,0,0,0,0,0,0,-1,1980,743,0,0
763,281,0,0,0,0,0,0,0,0,0,-1,1987,743,0,0
770,281,0,0,0,0,0,0,0,0,0,-1,1994,743,0,0
777,281,0,0,0,0,0,0,0,0,0,-1,2001,743,0,0
784,281,0,0,0,0,0,0,0,0,0,-1,2008,743,0,0
791,281,0,0,0,0,0,0,0,0,0,-1,2015,743,0,0
798,281,0,0,0,0,0,0,0,0,0,-1,2022,743,0,0
805,281,0,0,0,0,0,0,0,0,0,-1,2029,743,0,0
812,281,0,0,0,0,0,0,0,0,0,-1,2036,743,0,0
-700,274,0,0,0,0,0,0,0,0,0,-1,524,750,0,0
-693,274,0,0,0,0,0,0,0,0,0,-1,531,750,0,0
-686,274,0,0,0,0,0,0,0,0,0,-1,538,750,0,0
-679,274,0,0,0,0,0,0,0,0,0,-1,545,750,0,0
-672,274,0,0,0,0,0,0,0,0,0,-1,552,750,0,0
-665,274,0,0,0,0,0,0,0,0,0,-1,559,750,0,0
-658,274,0,0,0,0,0,0,0,0,0,-1,566,750,0,0
-651,274,0,0,0,0,0,0,0,0,0,-1,573,750,0,0
-644,274,0,0,0,0,0,0,0,0,0,-1,580,750,0,0
-637,274,0,0,0,0,0,0,0,0,0,-1,587,750,0,0
-630,274,0,0,0,0,0,0,0,0,0,-1,594,750,0,0
-623,274,-19.6909,5.12701,0,0,0,0,0,0,0,-1,601,750,-19.6908,-5.12703
-616,274,-17.9133,3.9024,0,0,0,0,0,0,0,-1,608,750,-17.9133,-3.90239
-609,274,-15.4739,3.90399,0,0,0,0,0,0,0,-1,615,750,-15.4739,-3.90397
-602,274,-15.2676,3.24811,0,0,0,0,0,0,0,-1,622,750,-15.2676,-3.24811
-595,274,-14.8266,2.54376,0,0,0,0,0,0,0,-1,629,750,-14.8266,-2.54375
-588,274,-14.7312,1.38092,0,0,0,0,0,0,0,-1,636,750,-14.7312,-1.38092
-581,274,-14.8667,0.933655,-0.00551705,0.00613511,-0.000183291,0.00613799,-0.00551994,-1.55507,0.00673386,0.0416481,643,750,-14.8667,-0.933662
-574,274,-14.9877,0.494812,-0.0042947,0.00427573,0.000271051,0.0042843,-0.00430327,1.53921,0.00495804,0.0217528,650,750,-14.9877,-0.494829
-567,274,-15.1254,0.0770874,-0.00324576,0.00302846,0.000534548,0.00307367,-0.00329097,1.48641,0.00367534,0.02037,657,750,-15.1253,-0.0771179
-560,274,-15.1408,-0.282776,-0.00247559,0.0019598,0.000710274,0.00207077,-0.00258655,1.41582,0.0026944,0.0134383,664,750,-15.1408,0.282803
-553,274,-15.1449,-0.719604,-0.00211694,0.000958279,0.00103299,0.00127305,-0.00243171,1.27502,0.00217354,0.00903793,671,750,-15.1449,0.719587
-546,274,-15.1525,-1.13507,-0.00193841,1.62793e-05,0.00140021,0.000746506,-0.00266863,1.09009,0.00207322,0.0104528,678,750,-15.1525,1.13506
-539,274,-15.1675,-1.55054,-0.00207583,-0.000722186,0.00173697,0.00046517,-0.00326319,0.971177,0.00234594,0.011299,685,750,-15.1675,1.55056
-532,274,-15.1785,-1.93268,-0.0023945,-0.00123824,0.00199405,0.000259792,-0.00389253,0.926493,0.00268581,0.0125682,692,750,-15.1784,1.93271
-525,274,-15.1815,-2.349,-0.00292921,-3.98432e-05,0.00279147,0.00165863,-0.00462768,1.02419,0.00376192,0.0127826,699,750,-15.1815,2.349
-518,274,-15.1829,-2.78748,-0.00346531,0.00301107,0.00379871,0.00476448,-0.00521872,1.13835,0.00576579,0.01293,706,750,-15.1828,2.78745
-511,274,-15.1874,-3.20587,-0.00270731,0.00691932,0.00568129,0.00955215,-0.00534014,1.13684,0.00871194,0.0128049,713,750,-15.1874,3.20585
-504,274,-15.2083,-3.65466,-0.00228791,0.011964,0.00764109,0.0152863,-0.00561019,1.16066,0.0124883,0.0234575,720,750,-15.2083,3.65465
-497,274,-15.2722,-4.13135,0,0,0,0,0,0,0,-1,727,750,-15.2721,4.13133
-490,274,-13.6545,-3.58826,0,0,0,0,0,0,0,-1,734,750,-13.6546,3.58825
-483,274,-23.535,-1.29095,0,0,0,0,0,0,0,-1,741,750,-23.535,1.29097
-476,274,-24.3178,3.60223,0,0,0,0,0,0,0,-1,748,750,-24.3178,-3.60223
-469,274,-24.5921,4.11353,0,0,0,0,0,0,0,-1,755,750,-24.5921,-4.11355
-462,274,-24.067,4.39618,0.0304064,0.0799113,0.0478767,0.109056,0.00126212,1.02398,0.0722867,0.0473329,762,750,-24.0669,-4.39621
-455,274,-23.3718,4.78113,0,0,0,0,0,0,0,-1,769,750,-23.3718,-4.78115
-448,274,-22.8843,4.74445,0,0,0,0,0,0,0,-1,776,750,-22.8843,-4.74444
-441,274,0,0,0,0,0,0,0,0,0,-1,783,750,0,0
-434,274,0,0,0,0,0,0,0,0,0,-1,790,750,0,0
-427,274,0,0,0,0,0,0,0,0,0,-1,797,750,0,0
-420,274,0,0,0,0,0,0,0,0,0,-1,804,750,0,0
-413,274,0,0,0,0,0,0,0,0,0,-1,811,750,0,0
-406,274,0,0,0,0,0,0,0,0,0,-1,818,750,0,0
-399,274,0,0,0,0,0,0,0,0,0,-1,825,750,0,0
-392,274,0,0,0,0,0,0,0,0,0,-1,832,750,0,0
-385,274,0,0,0,0,0,0,0,0,0,-1,839,750,0,0
-378,274,0,0,0,0,0,0,0,0,0,-1,846,750,0,0
-371,274,0,0,0,0,0,0,0,0,0,-1,853,750,0,0
-364,274,0,0,0,0,0,0,0,0,0,-1,860,750,0,0
-357,274,0,0,0,0,0,0,0,0,0,-1,867,750,0,0
-350,274,0,0,0,0,0,0,0,0,0,-1,874,750,0,0
-343,274,0,0,0,0,0,0,0,0,0,-1,881,750,0,0
-336,274,0,0,0,0,0,0,0,0,0,-1,888,750,0,0
-329,274,0,0,0,0,0,0,0,0,0,-1,895,750,0,0
-322,274,0,0,0,0,0,0,0,0,0,-1,902,750,0,0
-315,274,0,0,0,0,0,0,0,0,0,-1,909,750,0,0
-308,274,0,0,0,0,0,0,0,0,0,-1,916,750,0,0
-301,274,0,0,0,0,0,0,0,0,0,-1,923,750,0,0
-294,274,0,0,0,0,0,0,0,0,0,-1,930,750,0,0
-287,274,0,0,0,0,0,0,0,0,0,-1,937,750,0,0
-280,274,0,0,0,0,0,0,0,0,0,-1,944,750,0,0
-273,274,0,0,0,0,0,0,0,0,0,-1,951,750,0,0
-266,274,0,0,0,0,0,0,0,0,0,-1,958,750,0,0
-259,274,0,0,0,0,0,0,0,0,0,-1,965,750,0,0
-252,274,0,0,0,0,0,0,0,0,0,-1,972,750,0,0
-245,274,0,0,0,0,0,0,0,0,0,-1,979,750,0,0
-238,274,0,0,0,0,0,0,0,0,0,-1,986,750,0,0
-231,274,0,0,0,0,0,0,0,0,0,-1,993,750,0,0
-224,274,0,0,0,0,0,0,0,0,0,-1,1000,750,0,0
-217,274,0,0,0,0,0,0,0,0,0,-1,1007,750,0,0
-210,274,0,0,0,0,0,0,0,0,0,-1,1014,750,0,0
-203,274,0,0,0,0,0,0,0,0,0,-1,1021,750,0,0
-196,274,0,0,0,0,0,0,0,0,0,-1,1028,750,0,0
-189,274,0,0,0,0,0,0,0,0,0,-1,1035,750,0,0
-182,274,0,0,0,0,0,0,0,0,0,-1,1042,750,0,0
-175,274,0,0,0,0,0,0,0,0,0,-1,1049,750,0,0
-168,274,0,0,0,0,0,0,0,0,0,-1,1056,750,0,0
-161,274,0,0,0,0,0,0,0,0,0,-1,1063,750,0,0
-154,274,0,0,0,0,0,0,0,0,0,-1,1070,750,0,0
-147,274,0,0,0,0,0,0,0,0,0,-1,1077,750,0,0
-140,274,0,0,0,0,0,0,0,0,0,-1,1084,750,0,0
-133,274,0,0,0,0,0,0,0,0,0,-1,1091,750,0,0
-126,274,0,0,0,0,0,0,0,0,0,-1,1098,750,0,0
-119,274,0,0,0,0,0,0,0,0,0,-1,1105,750,0,0
-112,274,0,0,0,0,0,0,0,0,0,-1,1112,750,0,0
-105,274,0,0,0,0,0,0,0,0,0,-1,1119,750,0,0
-98,274,0,0,0,0,0,0,0,0,0,-1,1126,750,0,0
-91,274,0,0,0,0,0,0,0,0,0,-1,1133,750,0,0
-84,274,0,0,0,0,0,0,0,0,0,-1,1140,750,0,0
-77,274,0,0,0,0,0,0,0,0,0,-1,1147,750,0,0
-70,274,0,0,0,0,0,0,0,0,0,-1,1154,750,0,0
-63,274,0,0,0,0,0,0,0,0,0,-1,1161,750,0,0
-56,274,0,0,0,0,0,0,0,0,0,-1,1168,750,0,0
-49,274,0,0,0,0,0,0,0,0,0,-1,1175,750,0,0
-42,274,0,0,0,0,0,0,0,0,0,-1,1182,750,0,0
-35,274,0,0,0,0,0,0,0,0,0,-1,1189,750,0,0
-28,274,0,0,0,0,0,0,0,0,0,-1,1196,750,0,0
-21,274,0,0,0,0,0,0,0,0,0,-1,1203,750,0,0
-14,274,0,0,0,0,0,0,0,0,0,-1,1210,750,0,0
-7,274,0,0,0,0,0,0,0,0,0,-1,1217,750,0,0
0,274,0,0,0,0,0,0,0,0,0,-1,1224,750,0,0
7,274,0,0,0,0,0,0,0,0,0,-1,1231,750,0,0
14,274,0,0,0,0,0,0,0,0,0,-1,1238,750,0,0
21,274,0,0,0,0,0,0,0,0,0,-1,1245,750,0,0
28,274,0,0,0,0,0,0,0,0,0,-1,1252,750,0,0
35,274,0,0,0,0,0,0,0,0,0,-1,1259,750,0,0
42,274,0,0,0,0,0,0,0,0,0,-1,1266,750,0,0
49,274,0,0,0,0,0,0,0,0,0,-1,1273,750,0,0
56,274,0,0,0,0,0,0,0,0,0,-1,1280,750,0,0
63,274,0,0,0,0,0,0,0,0,0,-1,1287,750,0,0
70,274,0,0,0,0,0,0,0,0,0,-1,1294,750,0,0
77,274,0,0,0,0,0,0,0,0,0,-1,1301,750,0,0
84,274,0,0,0,0,0,0,0,0,0,-1,1308,750,0,0
91,274,0,0,0,0,0,0,0,0,0,-1,1315,750,0,0
98,274,0,0,0,0,0,0,0,0,0,-1,1322,750,0,0
105,274,0,0,0,0,0,0,0,0,0,-1,1329,750,0,0
112,274,0,0,0,0,0,0,0,0,0,-1,1336,750,0,0
119,274,0,0,0,0,0,0,0,0,0,-1,1343,750,0,0
126,274,0,0,0,0,0,0,0,0,0,-1,1350,750,0,0
133,274,0,0,0,0,0,0,0,0,0,-1,1357,750,0,0
140,274,0,0,0,0,0,0,0,0,0,-1,1364,750,0,0
147,274,0,0,0,0,0,0,0,0,0,-1,1371,750,0,0
154,274,0,0,0,0,0,0,0,0,0,-1,1378,750,0,0
161,274,0,0,0,0,0,0,0,0,0,-1,1385,750,0,0
168,274,0,0,0,0,0,0,0,0,0,-1,1392,750,0,0
175,274,0,0,0,0,0,0,0,0,0,-1,1399,750,0,0
182,274,0,0,0,0,0,0,0,0,0,-1,1406,750,0,0
189,274,0,0,0,0,0,0,0,0,0,-1,1413,750,0,0
196,274,0,0,0,0,0,0,0,0,0,-1,1420,750,0,0
203,274,0,0,0,0,0,0,0,0,0,-1,1427,750,0,0
210,274,0,0,0,0,0,0,0,0,0,-1,1434,750,0,0
217,274,0,0,0,0,0,0,0,0,0,-1,1441,750,0,0
224,274,0,0,0,0,0,0,0,0,0,-1,1448,750,0,0
231,274,0,0,0,0,0,0,0,0,0,-1,1455,750,0,0
238,274,0,0,0,0,0,0,0,0,0,-1,1462,750,0,0
245,274,0,0,0,0,0,0,0,0,0,-1,1469,750,0,0
252,274,0,0,0,0,0,0,0,0,0,-1,1476,750,0,0
259,274,0,0,0,0,0,0,0,0,0,-1,1483,750,0,0
266,274,0,0,0,0,0,0,0,0,0,-1,1490,750,0,0
273,274,0,0,0,0,0,0,0,0,0,-1,1497,750,0,0
280,274,0,0,0,0,0,0,0,0,0,-1,1504,750,0,0
287,274,0,0,0,0,0,0,0,0,0,-1,1511,750,0,0
294,274,0,0,0,0,0,0,0,0,0,-1,1518,750,0,0
301,274,0,0,0,0,0,0,0,0,0,-1,1525,750,0,0
308,274,0,0,0,0,0,0,0,0,0,-1,1532,750,0,0
315,274,0,0,0,0,0,0,0,0,0,-1,1539,750,0,0
322,274,0,0,0,0,0,0,0,0,0,-1,1546,750,0,0
329,274,0,0,0,0,0,0,0,0,0,-1,1553,750,0,0
336,274,0,0,0,0,0,0,0,0,0,-1,1560,750,0,0
343,274,0,0,0,0,0,0,0,0,0,-1,1567,750,0,0
350,274,0,0,0,0,0,0,0,0,0,-1,1574,750,0,0
357,274,0,0,0,0,0,0,0,0,0,-1,1581,750,0,0
364,274,0,0,0,0,0,0,0,0,0,-1,1588,750,0,0
371,274,0,0,0,0,0,0,0,0,0,-1,1595,750,0,0
378,274,0,0,0,0,0,0,0,0,0,-1,1602,750,0,0
385,274,0,0,0,0,0,0,0,0,0,-1,1609,750,0,0
392,274,0,0,0,0,0,0,0,0,0,-1,1616,750,0,0
399,274,0,0,0,0,0,0,0,0,0,-1,1623,750,0,0
406,274,0,0,0,0,0,0,0,0,0,-1,1630,750,0,0
413,274,0,0,0,0,0,0,0,0,0,-1,1637,750,0,0
420,274,0,0,0,0,0,0,0,0,0,-1,1644,750,0,0
427,274,0,0,0,0,0,0,0,0,0,-1,1651,750,0,0
434,274,0,0,0,0,0,0,0,0,0,-1,1658,750,0,0
441,274,0,0,0,0,0,0,0,0,0,-1,1665,750,0,0
448,274,0,0,0,0,0,0,0,0,0,-1,1672,750,0,0
455,274,0,0,0,0,0,0,0,0,0,-1,1679,750,0,0
462,274,0,0,0,0,0,0,0,0,0,-1,1686,750,0,0
469,274,0,0,0,0,0,0,0,0,0,-1,1693,750,0,0
476,274,0,0,0,0,0,0,0,0,0,-1,1700,750,0,0
483,274,0,0,0,0,0,0,0,0,0,-1,1707,750,0,0
490,274,0,0,0,0,0,0,0,0,0,-1,1714,750,0,0
497,274,0,0,0,0,0,0,0,0,0,-1,1721,750,0,0
504,274,0,0,0,0,0,0,0,0,0,-1,1728,750,0,0
511,274,0,0,0,0,0,0,0,0,0,-1,1735,750,0,0
518,274,0,0,0,0,0,0,0,0,0,-1,1742,750,0,0
525,274,0,0,0,0,0,0,0,0,0,-1,1749,750,0,0
532,274,0,0,0,0,0,0,0,0,0,-1,1756,750,0,0
539,274,0,0,0,0,0,0,0,0,0,-1,1763,750,0,0
546,274,0,0,0,0,0,0,0,0,0,-1,1770,750,0,0
553,274,0,0,0,0,0,0,0,0,0,-1,1777,750,0,0
560,274,36.2705,3.02069,0,0,0,0,0,0,0,-1,1784,750,36.2705,-3.02069
567,274,35.9958,3.26324,0,0,0,0,0,0,0,-1,1791,750,35.9959,-3.26327
574,274,38.5275,0.494629,0,0,0,0,0,0,0,-1,1798,750,38.5275,-0.494624
581,274,38.0354,1.19684,0.00141002,-0.00434956,0.0136069,0.0124385,-0.0153781,0.681116,0.0160898,0.0440186,1805,750,38.0354,-1.19685
588,274,37.7158,1.81006,0.00167207,-0.00628299,0.0136208,0.0118842,-0.0164951,0.643339,0.0164567,0.0449396,1812,750,37.7158,-1.81004
595,274,37.4183,2.32074,0.00192263,-0.00707898,0.0128172,0.0110063,-0.0161626,0.616547,0.0157799,0.0495373,1819,750,37.4184,-2.32077
602,274,37.0564,2.85559,0,0,0,0,0,0,0,-1,1826,750,37.0564,-2.85559
609,274,35.9628,3.18799,0,0,0,0,0,0,0,-1,1833,750,35.9628,-3.188
616,274,32.7869,1.78436,0,0,0,0,0,0,0,-1,1840,750,32.7868,-1.78437
623,274,23.0034,-1.73114,0,0,0,0,0,0,0,-1,1847,750,23.0034,1.73115
630,274,23.6372,-1.79175,0,0,0,0,0,0,0,-1,1854,750,23.6372,1.79176
637,274,23.5999,-1.35162,0.00146012,-0.0013157,0.00192447,0.00244494,-0.00230053,0.472994,0.00274022,0.013692,1861,750,23.5998,1.35164
644,274,23.6033,-0.887512,0.000685596,-0.000584825,0.000547342,0.000888881,-0.000788111,0.355615,0.000968795,0.0119065,1868,750,23.6032,0.887483
651,274,23.6183,-0.440796,0.000627139,-0.000337662,-0.000633078,0.000940665,-0.000651187,-0.459832,0.000924108,0.0135569,1875,750,23.6182,0.440823
658,274,23.6157,-0.0343628,0.00045742,-0.00031217,-0.000746083,0.000912093,-0.000766843,-0.547313,0.000970542,0.0160728,1882,750,23.6157,0.0343795
665,274,23.6023,0.410034,0.000275292,0.000112047,-0.000666171,0.000864822,-0.000477484,-0.72444,0.000785662,0.0163651,1889,750,23.6023,-0.410023
672,274,23.6108,0.866333,0.000235969,0.000445864,-0.000449367,0.000802376,-0.000120543,-0.900114,0.000579294,0.0137795,1896,750,23.6108,-0.866327
679,274,23.5927,1.30621,0.00027343,0.00108231,-0.000304377,0.00118405,0.000171691,-1.24822,0.000738816,0.0144535,1903,750,23.5927,-1.30619
686,274,23.5673,1.74274,0.000559241,0.00234842,-0.000493048,0.0024753,0.000432368,-1.31894,0.00152662,0.0152365,1910,750,23.5672,-1.74275
693,274,23.5439,2.18994,0.00148013,0.00350586,-0.000554573,0.00364775,0.00133825,-1.32032,0.00213077,0.0126467,1917,750,23.5439,-2.18997
700,274,23.5426,2.64203,0.00304418,0.00487783,-0.000764479,0.00515474,0.00276727,-1.22328,0.00297878,0.0141758,1924,750,23.5426,-2.642
707,274,23.5284,3.0896,0.00550594,0.00668959,-0.00114755,0.00738894,0.00480659,-1.02347,0.00432995,0.0235952,1931,750,23.5284,-3.08957
714,274,23.5079,3.55176,0,0,0,0,0,0,0,-1,1938,750,23.5079,-3.55174
721,274,23.9287,3.96503,0,0,0,0,0,0,0,-1,1945,750,23.9287,-3.96504
728,274,19.2209,3.95154,0,0,0,0,0,0,0,-1,1952,750,19.221,-3.95151
735,274,20.6608,4.10931,0,0,0,0,0,0,0,-1,1959,750,20.6607,-4.10932
742,274,11.7815,-0.740234,0,0,0,0,0,0,0,-1,1966,750,11.7815,0.740253
749,274,0,0,0,0,0,0,0,0,0,-1,1973,750,0,0
756,274,0,0,0,0,0,0,0,0,0,-1,1980,750,0,0
763,274,0,0,0,0,0,0,0,0,0,-1,1987,750,0,0
770,274,0,0,0,0,0,0,0,0,0,-1,1994,750,0,0
777,274,0,0,0,0,0,0,0,0,0,-1,2001,750,0,0
784,274,0,0,0,0,0,0,0,0,0,-1,2008,750,0,0
791,274,0,0,0,0,0,0,0,0,0,-1,2015,750,0,0
798,274,0,0,0,0,0,0,0,0,0,-1,2022,750,0,0
805,274,0,0,0,0,0,0,0,0,0,-1,2029,750,0,0
812,274,0,0,0,0,0,0,0,0,0,-1,2036,750,0,0
-700,267,0,0,0,0,0,0,0,0,0,-1,524,757,0,0
-693,267,0,0,0,0,0,0,0,0,0,-1,531,757,0,0
-686,267,0,0,0,0,0,0,0,0,0,-1,538,757,0,0
-679,267,0,0,0,0,0,0,0,0,0,-1,545,757,0,0
-672,267,0,0,0,0,0,0,0,0,0,-1,552,757,0,0
-665,267,0,0,0,0,0,0,0,0,0,-1,559,757,0,0
-658,267,0,0,0,0,0,0,0,0,0,-1,566,757,0,0
-651,267,0,0,0,0,0,0,0,0,0,-1,573,757,0,0
-644,267,0,0,0,0,0,0,0,0,0,-1,580,757,0,0
-637,267,0,0,0,0,0,0,0,0,0,-1,587,757,0,0
-630,267,-21.3979,5.17529,0,0,0,0,0,0,0,-1,594,757,-21.3979,-5.17529
-623,267,-20.043,4.43115,0,0,0,0,0,0,0,-1,601,757,-20.043,-4.43116
-616,267,-16.621,4.31183,0,0,0,0,0,0,0,-1,608,757,-16.621,-4.31184
-609,267,-16.246,3.62811,0,0,0,0,0,0,0,-1,615,757,-16.2461,-3.6281
-602,267,-15.8689,3.00323,0,0,0,0,0,0,0,-1,622,757,-15.8689,-3.00326
-595,267,-15.2496,2.26788,0,0,0,0,0,0,0,-1,629,757,-15.2496,-2.26791
-588,267,-15.325,1.67169,-0.00269816,0.00906464,-0.00261487,0.00961973,-0.00325325,-1.36162,0.00772926,0.0455413,636,757,-15.325,-1.6717
-581,267,-15.3967,1.05859,-0.00282065,0.00627928,-0.0013811,0.00648428,-0.00302565,-1.42344,0.00561029,0.0307231,643,757,-15.3967,-1.05862
-574,267,-15.4547,0.532043,-0.00250853,0.00429377,-0.000598258,0.00434598,-0.00256074,-1.48374,0.00403176,0.0173537,650,757,-15.4547,-0.53206
-567,267,-15.5281,0.152222,-0.00213799,0.00288823,-3.99316e-05,0.00288855,-0.00213831,-1.56285,0.00291301,0.022156,657,757,-15.5281,-0.152237
-560,267,-15.5289,-0.244446,-0.00190675,0.00168085,0.000426793,0.00173092,-0.00195683,1.454,0.00213045,0.0200497,664,757,-15.5289,0.244443
-553,267,-15.5377,-0.699158,-0.00197251,0.000553599,0.00100067,0.000901958,-0.00232087,1.23579,0.00191987,0.0168375,671,757,-15.5376,0.699173
-546,267,-15.5624,-1.13116,-0.0021196,-0.000415205,0.00154078,0.000493346,-0.00302815,1.03801,0.00220172,0.010529,678,757,-15.5624,1.13119
-539,267,-15.5645,-1.53912,-0.00261487,-0.00101886,0.0019635,0.000302606,-0.00393633,0.978412,0.00273068,0.00983029,685,757,-15.5644,1.53912
-532,267,-15.5603,-1.93451,-0.00322583,-0.00135716,0.00222357,0.000120405,-0.00470339,0.984295,0.00317649,0.0109162,692,757,-15.5603,1.93448
-525,267,-15.5952,-2.32672,-0.00393471,0.000250115,0.00304443,0.00185185,-0.00553644,1.08647,0.00443893,0.0109991,699,757,-15.5952,2.32672
-518,267,-15.6234,-2.76099,-0.00458729,0.00373601,0.00398463,0.00533601,-0.00618729,1.18896,0.00665903,0.0117994,706,757,-15.6233,2.76099
-511,267,-15.597,-3.17688,-0.00395585,0.00787905,0.00570153,0.0101789,-0.00625568,1.18739,0.00957818,0.0162284,713,757,-15.597,3.17686
-504,267,-15.618,-3.48267,-0.00361944,0.0131326,0.00744921,0.0159659,-0.00645272,1.20735,0.0133262,0.0297839,720,757,-15.618,3.48264
-497,267,-15.6891,-3.77106,0,0,0,0,0,0,0,-1,727,757,-15.6891,3.77104
-490,267,-23.4949,-0.494995,0,0,0,0,0,0,0,-1,734,757,-23.4949,0.494981
-483,267,-24.3637,2.91028,0,0,0,0,0,0,0,-1,741,757,-24.3637,-2.91029
-476,267,-24.8043,3.19055,0.00856928,0.0520574,0.0247727,0.0632753,-0.00264862,1.14559,0.0430936,0.0427324,748,757,-24.8042,-3.19053
-469,267,-25.0234,3.57788,0.0161517,0.0669445,0.0339566,0.0839512,-0.000855077,1.10648,0.0562547,0.0471392,755,757,-25.0234,-3.57789
-462,267,-24.5858,3.94177,0.0263062,0.0831085,0.0461995,0.108939,0.000476159,1.061,0.0724675,0.0472894,762,757,-24.5858,-3.94178
-455,267,-24.0931,4.20007,0,0,0,0,0,0,0,-1,769,757,-24.0932,-4.20007
-448,267,-24.0893,3.3465,0,0,0,0,0,0,0,-1,776,757,-24.0893,-3.34647
-441,267,0,0,0,0,0,0,0,0,0,-1,783,757,0,0
-434,267,0,0,0,0,0,0,0,0,0,-1,790,757,0,0
-427,267,0,0,0,0,0,0,0,0,0,-1,797,757,0,0
-420,267,0,0,0,0,0,0,0,0,0,-1,804,757,0,0
-413,267,0,0,0,0,0,0,0,0,0,-1,811,757,0,0
-406,267,0,0,0,0,0,0,0,0,0,-1,818,757,0,0
-399,267,0,0,0,0,0,0,0,0,0,-1,825,757,0,0
-392,267,0,0,0,0,0,0,0,0,0,-1,832,757,0,0
-385,267,0,0,0,0,0,0,0,0,0,-1,839,757,0,0
-378,267,0,0,0,0,0,0,0,0,0,-1,846,757,0,0
-371,267,0,0,0,0,0,0,0,0,0,-1,853,757,0,0
-364,267,0,0,0,0,0,0,0,0,0,-1,860,757,0,0
-357,267,0,0,0,0,0,0,0,0,0,-1,867,757,0,0
-350,267,0,0,0,0,0,0,0,0,0,-1,874,757,0,0
-343,267,0,0,0,0,0,0,0,0,0,-1,881,757,0,0
-336,267,0,0,0,0,0,0,0,0,0,-1,888,757,0,0
-329,267,0,0,0,0,0,0,0,0,0,-1,895,757,0,0
-322,267,0,0,0,0,0,0,0,0,0,-1,902,757,0,0
-315,267,0,0,0,0,0,0,0,0,0,-1,909,757,0,0
-308,267,0,0,0,0,0,0,0,0,0,-1,916,757,0,0
-301,267,0,0,0,0,0,0,0,0,0,-1,923,757,0,0
-294,267,0,0,0,0,0,0,0,0,0,-1,930,757,0,0
-287,267,0,0,0,0,0,0,0,0,0,-1,937,757,0,0
-280,267,0,0,0,0,0,0,0,0,0,-1,944,757,0,0
-273,267,0,0,0,0,0,0,0,0,0,-1,951,757,0,0
-266,267,0,0,0,0,0,0,0,0,0,-1,958,757,0,0
-259,267,0,0,0,0,0,0,0,0,0,-1,965,757,0,0
-252,267,0,0,0,0,0,0,0,0,0,-1,972,757,0,0
-245,267,0,0,0,0,0,0,0,0,0,-1,979,757,0,0
-238,267,0,0,0,0,0,0,0,0,0,-1,986,757,0,0
-231,267,0,0,0,0,0,0,0,0,0,-1,993,757,0,0
-224,267,0,0,0,0,0,0,0,0,0,-1,1000,757,0,0
-217,267,0,0,0,0,0,0,0,0,0,-1,1007,757,0,0
-210,267,0,0,0,0,0,0,0,0,0,-1,1014,757,0,0
-203,267,0,0,0,0,0,0,0,0,0,-1,1021,757,0,0
-196,267,0,0,0,0,0,0,0,0,0,-1,1028,757,0,0
-189,267,0,0,0,0,0,0,0,0,0,-1,1035,757,0,0
-182,267,0,0,0,0,0,0,0,0,0,-1,1042,757,0,0
-175,267,0,0,0,0,0,0,0,0,0,-1,1049,757,0,0
-168,267,0,0,0,0,0,0,0,0,0,-1,1056,757,0,0
-161,267,0,0,0,0,0,0,0,0,0,-1,1063,757,0,0
-154,267,0,0,0,0,0,0,0,0,0,-1,1070,757,0,0
-147,267,0,0,0,0,0,0,0,0,0,-1,1077,757,0,0
-140,267,0,0,0,0,0,0,0,0,0,-1,1084,757,0,0
-133,267,0,0,0,0,0,0,0,0,0,-1,1091,757,0,0
-126,267,0,0,0,0,0,0,0,0,0,-1,1098,757,0,0
-119,267,0,0,0,0,0,0,0,0,0,-1,1105,757,0,0
-112,267,0,0,0,0,0,0,0,0,0,-1,1112,757,0,0
-105,267,0,0,0,0,0,0,0,0,0,-1,1119,757,0,0
-98,267,0,0,0,0,0,0,0,0,0,-1,1126,757,0,0
-91,267,0,0,0,0,0,0,0,0,0,-1,1133,757,0,0
-84,267,0,0,0,0,0,0,0,0,0,-1,1140,757,0,0
-77,267,0,0,0,0,0,0,0,0,0,-1,1147,757,0,0
-70,267,0,0,0,0,0,0,0,0,0,-1,1154,757,0,0
-63,267,0,0,0,0,0,0,0,0,0,-1,1161,757,0,0
-56,267,0,0,0,0,0,0,0,0,0,-1,1168,757,0,0
-49,267,0,0,0,0,0,0,0,0,0,-1,1175,757,0,0
-42,267,0,0,0,0,0,0,0,0,0,-1,1182,757,0,0
-35,267,0,0,0,0,0,0,0,0,0,-1,1189,757,0,0
-28,267,0,0,0,0,0,0,0,0,0,-1,1196,757,0,0
-21,267,0,0,0,0,0,0,0,0,0,-1,1203,757,0,0
-14,267,0,0,0,0,0,0,0,0,0,-1,1210,757,0,0
-7,267,0,0,0,0,0,0,0,0,0,-1,1217,757,0,0
0,267,0,0,0,0,0,0,0,0,0,-1,1224,757,0,0
7,267,0,0,0,0,0,0,0,0,0,-1,1231,757,0,0
14,267,0,0,0,0,0,0,0,0,0,-1,1238,757,0,0
21,267,0,0,0,0,0,0,0,0,0,-1,1245,757,0,0
28,267,0,0,0,0,0,0,0,0,0,-1,1252,757,0,0
35,267,0,0,0,0,0,0,0,0,0,-1,1259,757,0,0
42,267,0,0,0,0,0,0,0,0,0,-1,1266,757,0,0
49,267,0,0,0,0,0,0,0,0,0,-1,1273,757,0,0
56,267,0,0,0,0,0,0,0,0,0,-1,1280,757,0,0
63,267,0,0,0,0,0,0,0,0,0,-1,1287,757,0,0
70,267,0,0,0,0,0,0,0,0,0,-1,1294,757,0,0
77,267,0,0,0,0,0,0,0,0,0,-1,1301,757,0,0
84,267,0,0,0,0,0,0,0,0,0,-1,1308,757,0,0
91,267,0,0,0,0,0,0,0,0,0,-1,1315,757,0,0
98,267,0,0,0,0,0,0,0,0,0,-1,1322,757,0,0
105,267,0,0,0,0,0,0,0,0,0,-1,1329,757,0,0
112,267,0,0,0,0,0,0,0,0,0,-1,1336,757,0,0
119,267,0,0,0,0,0,0,0,0,0,-1,1343,757,0,0
126,267,0,0,0,0,0,0,0,0,0,-1,1350,757,0,0
133,267,0,0,0,0,0,0,0,0,0,-1,1357,757,0,0
140,267,0,0,0,0,0,0,0,0,0,-1,1364,757,0,0
147,267,0,0,0,0,0,0,0,0,0,-1,1371,757,0,0
154,267,0,0,0,0,0,0,0,0,0,-1,1378,757,0,0
161,267,0,0,0,0,0,0,0,0,0,-1,1385,757,0,0
168,267,0,0,0,0,0,0,0,0,0,-1,1392,757,0,0
175,267,0,0,0,0,0,0,0,0,0,-1,1399,757,0,0
182,267,0,0,0,0,0,0,0,0,0,-1,1406,757,0,0
189,267,0,0,0,0,0,0,0,0,0,-1,1413,757,0,0
196,267,0,0,0,0,0,0,0,0,0,-1,1420,757,0,0
203,267,0,0,0,0,0,0,0,0,0,-1,1427,757,0,0
210,267,0,0,0,0,0,0,0,0,0,-1,1434,757,0,0
217,267,0,0,0,0,0,0,0,0,0,-1,1441,757,0,0
224,267,0,0,0,0,0,0,0,0,0,-1,1448,757,0,0
231,267,0,0,0,0,0,0,0,0,0,-1,1455,757,0,0
238,267,0,0,0,0,0,0,0,0,0,-1,1462,757,0,0
245,267,0,0,0,0,0,0,0,0,0,-1,1469,757,0,0
252,267,0,0,0,0,0,0,0,0,0,-1,1476,757,0,0
259,267,0,0,0,0,0,0,0,0,0,-1,1483,757,0,0
266,267,0,0,0,0,0,0,0,0,0,-1,1490,757,0,0
273,267,0,0,0,0,0,0,0,0,0,-1,1497,757,0,0
280,267,0,0,0,0,0,0,0,0,0,-1,1504,757,0,0
287,267,0,0,0,0,0,0,0,0,0,-1,1511,757,0,0
294,267,0,0,0,0,0,0,0,0,0,-1,1518,757,0,0
301,267,0,0,0,0,0,0,0,0,0,-1,1525,757,0,0
308,267,0,0,0,0,0,0,0,0,0,-1,1532,757,0,0
315,267,0,0,0,0,0,0,0,0,0,-1,1539,757,0,0
322,267,0,0,0,0,0,0,0,0,0,-1,1546,757,0,0
329,267,0,0,0,0,0,0,0,0,0,-1,1553,757,0,0
336,267,0,0,0,0,0,0,0,0,0,-1,1560,757,0,0
343,267,0,0,0,0,0,0,0,0,0,-1,1567,757,0,0
350,267,0,0,0,0,0,0,0,0,0,-1,1574,757,0,0
357,267,0,0,0,0,0,0,0,0,0,-1,1581,757,0,0
364,267,0,0,0,0,0,0,0,0,0,-1,1588,757,0,0
371,267,0,0,0,0,0,0,0,0,0,-1,1595,757,0,0
378,267,0,0,0,0,0,0,0,0,0,-1,1602,757,0,0
385,267,0,0,0,0,0,0,0,0,0,-1,1609,757,0,0
392,267,0,0,0,0,0,0,0,0,0,-1,1616,757,0,0
399,267,0,0,0,0,0,0,0,0,0,-1,1623,757,0,0
406,267,0,0,0,0,0,0,0,0,0,-1,1630,757,0,0
413,267,0,0,0,0,0,0,0,0,0,-1,1637,757,0,0
420,267,0,0,0,0,0,0,0,0,0,-1,1644,757,0,0
427,267,0,0,0,0,0,0,0,0,0,-1,1651,757,0,0
434,267,0,0,0,0,0,0,0,0,0,-1,1658,757,0,0
441,267,0,0,0,0,0,0,0,0,0,-1,1665,757,0,0
448,267,0,0,0,0,0,0,0,0,0,-1,1672,757,0,0
455,267,0,0,0,0,0,0,0,0,0,-1,1679,757,0,0
462,267,0,0,0,0,0,0,0,0,0,-1,1686,757,0,0
469,267,0,0,0,0,0,0,0,0,0,-1,1693,757,0,0
476,267,0,0,0,0,0,0,0,0,0,-1,1700,757,0,0
483,267,0,0,0,0,0,0,0,0,0,-1,1707,757,0,0
490,267,0,0,0,0,0,0,0,0,0,-1,1714,757,0,0
497,267,0,0,0,0,0,0,0,0,0,-1,1721,757,0,0
504,267,0,0,0,0,0,0,0,0,0,-1,1728,757,0,0
511,267,0,0,0,0,0,0,0,0,0,-1,1735,757,0,0
518,267,0,0,0,0,0,0,0,0,0,-1,1742,757,0,0
525,267,0,0,0,0,0,0,0,0,0,-1,1749,757,0,0
532,267,0,0,0,0,0,0,0,0,0,-1,1756,757,0,0
539,267,0,0,0,0,0,0,0,0,0,-1,1763,757,0,0
546,267,0,0,0,0,0,0,0,0,0,-1,1770,757,0,0
553,267,0,0,0,0,0,0,0,0,0,-1,1777,757,0,0
560,267,0,0,0,0,0,0,0,0,0,-1,1784,757,0,0
567,267,36.2178,3.1192,0,0,0,0,0,0,0,-1,1791,757,36.2178,-3.11921
574,267,36.1321,3.19226,0.0037364,0.000709979,0.0101508,0.0124862,-0.00803978,0.711406,0.011943,0.0403273,1798,757,36.1321,-3.19223
581,267,36.1064,3.26733,0.00294105,-0.00509462,0.0134803,0.0129895,-0.0151431,0.640563,0.0162582,0.0396963,1805,757,36.1064,-3.26733
588,267,37.322,2.17712,0.00280208,-0.00707625,0.0136992,0.0124253,-0.0166995,0.61238,0.0168755,0.0453714,1812,757,37.322,-2.17715
595,267,37.1681,2.49921,0.00275982,-0.00751166,0.0127005,0.0113237,-0.0160755,0.593263,0.015898,0.0460414,1819,757,37.1681,-2.49921
602,267,36.776,2.97174,0,0,0,0,0,0,0,-1,1826,757,36.7761,-2.97176
609,267,35.4642,3.69983,0,0,0,0,0,0,0,-1,1833,757,35.4642,-3.69985
616,267,35.7405,3.466,0,0,0,0,0,0,0,-1,1840,757,35.7405,-3.46598
623,267,24.1475,-1.1391,0,0,0,0,0,0,0,-1,1847,757,24.1475,1.13913
630,267,24.1853,-1.77753,0,0,0,0,0,0,0,-1,1854,757,24.1853,1.77752
637,267,24.0916,-1.32013,0.00150566,-0.00131895,0.00158039,0.00221285,-0.00202613,0.420751,0.00244816,0.0290636,1861,757,24.0915,1.32012
644,267,24.0444,-0.874573,0.000622874,-0.000712094,0.000248145,0.000667507,-0.000756727,0.177964,0.000822819,0.0130047,1868,757,24.0445,0.874548
651,267,24.0328,-0.422485,0.000476588,-0.000553637,-0.000998029,0.0010846,-0.00116165,-0.547164,0.00129712,0.0151926,1875,757,24.0329,0.422512
658,267,24.0472,-0.00604248,0.000418932,-0.000681506,-0.00119255,0.00118207,-0.00144465,-0.569259,0.00151906,0.0145578,1882,757,24.0473,0.00603728
665,267,24.043,0.434265,0.00042386,-0.000379185,-0.0011033,0.00119643,-0.00115175,-0.610883,0.00135581,0.0148741,1889,757,24.0429,-0.43428
672,267,24.0574,0.880432,0.000513577,-0.000178937,-0.000843326,0.00107896,-0.000744323,-0.590599,0.00105857,0.0132381,1896,757,24.0574,-0.880404
679,267,24.0389,1.31311,0.000719375,0.000359569,-0.000627917,0.00119265,-0.000113709,-0.645882,0.000835588,0.0125763,1903,757,24.0389,-1.3131
686,267,24.0046,1.76434,0.00121935,0.00159721,-0.000752683,0.00218431,0.00063225,-0.908361,0.00129785,0.0130446,1910,757,24.0046,-1.76436
693,267,23.9841,2.18103,0.00238538,0.00275638,-0.000750657,0.00334412,0.00179764,-0.906528,0.00193254,0.01348,1917,757,23.9841,-2.18104
700,267,23.985,2.61493,0.00410581,0.0041333,-0.00092456,0.00504422,0.00319489,-0.792832,0.00294662,0.014579,1924,757,23.985,-2.61495
707,267,23.9708,3.04761,0.00655584,0.00592671,-0.00132069,0.00759891,0.00488364,-0.668487,0.00444637,0.014619,1931,757,23.9708,-3.04761
714,267,24.059,3.49744,0.00958952,0.00808267,-0.00265054,0.0115916,0.00608055,-0.646924,0.00669513,0.0328475,1938,757,24.0589,-3.49746
721,267,24.149,3.95007,0,0,0,0,0,0,0,-1,1945,757,24.149,-3.9501
728,267,26.7886,3.90027,0,0,0,0,0,0,0,-1,1952,757,26.7886,-3.90028
735,267,24.6713,2.82483,0,0,0,0,0,0,0,-1,1959,757,24.6713,-2.82483
742,267,18.1177,3.56561,0,0,0,0,0,0,0,-1,1966,757,18.1176,-3.56564
749,267,0,0,0,0,0,0,0,0,0,-1,1973,757,0,0
756,267,0,0,0,0,0,0,0,0,0,-1,1980,757,0,0
763,267,0,0,0,0,0,0,0,0,0,-1,1987,757,0,0
770,267,0,0,0,0,0,0,0,0,0,-1,1994,757,0,0
777,267,0,0,0,0,0,0,0,0,0,-1,2001,757,0,0
784,267,0,0,0,0,0,0,0,0,0,-1,2008,757,0,0
791,267,0,0,0,0,0,0,0,0,0,-1,2015,757,0,0
798,267,0,0,0,0,0,0,0,0,0,-1,2022,757,0,0
805,267,0,0,0,0,0,0,0,0,0,-1,2029,757,0,0
812,267,0,0,0,0,0,0,0,0,0,-1,2036,757,0,0
-700,260,0,0,0,0,0,0,0,0,0,-1,524,764,0,0
-693,260,0,0,0,0,0,0,0,0,0,-1,531,764,0,0
-686,260,0,0,0,0,0,0,0,0,0,-1,538,764,0,0
-679,260,0,0,0,0,0,0,0,0,0,-1,545,764,0,0
-672,260,0,0,0,0,0,0,0,0,0,-1,552,764,0,0
-665,260,0,0,0,0,0,0,0,0,0,-1,559,764,0,0
-658,260,0,0,0,0,0,0,0,0,0,-1,566,764,0,0
-651,260,0,0,0,0,0,0,0,0,0,-1,573,764,0,0
-644,260,0,0,0,0,0,0,0,0,0,-1,580,764,0,0
-637,260,0,0,0,0,0,0,0,0,0,-1,587,764,0,0
-630,260,-21.8905,4.49341,0,0,0,0,0,0,0,-1,594,764,-21.8905,-4.49342
-623,260,-20.3127,3.53546,0,0,0,0,0,0,0,-1,601,764,-20.3127,-3.53544
-616,260,-17.5065,4.04523,0,0,0,0,0,0,0,-1,608,764,-17.5065,-4.04522
-609,260,-17.0552,3.28687,0,0,0,0,0,0,0,-1,615,764,-17.0552,-3.28686
-602,260,-15.4358,2.45294,0,0,0,0,0,0,0,-1,622,764,-15.4358,-2.45295
-595,260,-15.8614,2.13971,0,0,0,0,0,0,0,-1,629,764,-15.8614,-2.1397
-588,260,-15.8715,1.51373,-0.000150135,0.00920837,-0.00352892,0.0103899,-0.00133166,-1.24772,0.00741047,0.0445135,636,764,-15.8715,-1.51373
-581,260,-15.8824,0.91864,-0.000876241,0.00648215,-0.00210039,0.00703948,-0.00143357,-1.31143,0.00523666,0.0261076,643,764,-15.8824,-0.918665
-574,260,-15.9307,0.525513,-0.00110502,0.00444499,-0.00111193,0.00465948,-0.0013195,-1.38024,0.00362706,0.0164338,650,764,-15.9306,-0.525525
-567,260,-15.9529,0.166748,-0.0012015,0.00289779,-0.000348918,0.00292727,-0.00123099,-1.48649,0.00246646,0.0155423,657,764,-15.953,-0.166747
-560,260,-15.9479,-0.244263,-0.00139222,0.00152898,0.000342482,0.0015686,-0.00143184,1.45564,0.0017329,0.0191261,664,764,-15.9479,0.24425
-553,260,-15.9522,-0.672729,-0.00180575,0.000298547,0.00108642,0.000758791,-0.002266,1.17008,0.00181719,0.0171544,671,764,-15.9522,0.672705
-546,260,-15.9675,-1.09485,-0.0022798,-0.000661379,0.0017356,0.000444387,-0.00338557,1.00354,0.00241882,0.0107194,678,764,-15.9675,1.09486
-539,260,-15.9598,-1.50677,-0.00313053,-0.00106353,0.00217626,0.000312173,-0.00450623,1.00708,0.00311343,0.0112761,685,764,-15.9598,1.50675
-532,260,-15.9622,-1.89758,-0.00399111,-0.00118052,0.00239381,0.000190001,-0.00536164,1.05082,0.00363941,0.0144652,692,764,-15.9621,1.89756
-525,260,-16.0088,-2.32452,-0.00480937,0.000735863,0.00317531,0.0021787,-0.00625221,1.1443,0.00505342,0.0133563,699,764,-16.0088,2.32454
-518,260,-16.0568,-2.73688,-0.00555014,0.00443682,0.00400418,0.00584399,-0.00695731,1.23285,0.00740014,0.0147016,706,764,-16.0568,2.73686
-511,260,-16.0323,-3.10895,-0.00512029,0.00858457,0.00548449,0.0105091,-0.00704484,1.23331,0.0102004,0.0254929,713,764,-16.0323,3.10894
-504,260,-16.1334,-3.28156,-0.00492924,0.0137843,0.00698022,0.0161011,-0.00724606,1.25033,0.0137989,0.0459763,720,764,-16.1334,3.28153
-497,260,-16.2396,-3.47864,0,0,0,0,0,0,0,-1,727,764,-16.2396,3.47867
-490,260,-25.228,2.18707,0,0,0,0,0,0,0,-1,734,764,-25.228,-2.18708
-483,260,-25.1822,2.6861,0,0,0,0,0,0,0,-1,741,764,-25.1822,-2.68609
-476,260,-25.313,2.76227,0.0056266,0.052015,0.0225071,0.0611401,-0.00349852,1.18561,0.0419749,0.0425585,748,764,-25.313,-2.76227
-469,260,-25.451,3.00909,0.0118879,0.0664014,0.0304128,0.0799842,-0.00169491,1.15076,0.0538967,0.0438416,755,764,-25.451,-3.00912
-462,260,-24.9223,3.23694,0,0,0,0,0,0,0,-1,762,764,-24.9223,-3.23691
-455,260,-26.0093,1.0639,0,0,0,0,0,0,0,-1,769,764,-26.0093,-1.06388
-448,260,0,0,0,0,0,0,0,0,0,-1,776,764,0,0
-441,260,0,0,0,0,0,0,0,0,0,-1,783,764,0,0
-434,260,0,0,0,0,0,0,0,0,0,-1,790,764,0,0
-427,260,0,0,0,0,0,0,0,0,0,-1,797,764,0,0
-420,260,0,0,0,0,0,0,0,0,0,-1,804,764,0,0
-413,260,0,0,0,0,0,0,0,0,0,-1,811,764,0,0
-406,260,0,0,0,0,0,0,0,0,0,-1,818,764,0,0
-399,260,0,0,0,0,0,0,0,0,0,-1,825,764,0,0
-392,260,0,0,0,0,0,0,0,0,0,-1,832,764,0,0
-385,260,0,0,0,0,0,0,0,0,0,-1,839,764,0,0
-378,260,0,0,0,0,0,0,0,0,0,-1,846,764,0,0
-371,260,0,0,0,0,0,0,0,0,0,-1,853,764,0,0
-364,260,0,0,0,0,0,0,0,0,0,-1,860,764,0,0
-357,260,0,0,0,0,0,0,0,0,0,-1,867,764,0,0
-350,260,0,0,0,0,0,0,0,0,0,-1,874,764,0,0
-343,260,0,0,0,0,0,0,0,0,0,-1,881,764,0,0
-336,260,0,0,0,0,0,0,0,0,0,-1,888,764,0,0
-329,260,0,0,0,0,0,0,0,0,0,-1,895,764,0,0
-322,260,0,0,0,0,0,0,0,0,0,-1,902,764,0,0
-315,260,0,0,0,0,0,0,0,0,0,-1,909,764,0,0
-308,260,0,0,0,0,0,0,0,0,0,-1,916,764,0,0
-301,260,0,0,0,0,0,0,0,0,0,-1,923,764,0,0
-294,260,0,0,0,0,0,0,0,0,0,-1,930,764,0,0
-287,260,0,0,0,0,0,0,0,0,0,-1,937,764,0,0
-280,260,0,0,0,0,0,0,0,0,0,-1,944,764,0,0
-273,260,0,0,0,0,0,0,0,0,0,-1,951,764,0,0
-266,260,0,0,0,0,0,0,0,0,0,-1,958,764,0,0
-259,260,0,0,0,0,0,0,0,0,0,-1,965,764,0,0
-252,260,0,0,0,0,0,0,0,0,0,-1,972,764,0,0
-245,260,0,0,0,0,0,0,0,0,0,-1,979,764,0,0
-238,260,0,0,0,0,0,0,0,0,0,-1,986,764,0,0
-231,260,0,0,0,0,0,0,0,0,0,-1,993,764,0,0
-224,260,0,0,0,0,0,0,0,0,0,-1,1000,764,0,0
-217,260,0,0,0,0,0,0,0,0,0,-1,1007,764,0,0
-210,260,0,0,0,0,0,0,0,0,0,-1,1014,764,0,0
-203,260,0,0,0,0,0,0,0,0,0,-1,1021,764,0,0
-196,260,0,0,0,0,0,0,0,0,0,-1,1028,764,0,0
-189,260,0,0,0,0,0,0,0,0,0,-1,1035,764,0,0
-182,260,0,0,0,0,0,0,0,0,0,-1,1042,764,0,0
-175,260,0,0,0,0,0,0,0,0,0,-1,1049,764,0,0
-168,260,0,0,0,0,0,0,0,0,0,-1,1056,764,0,0
-161,260,0,0,0,0,0,0,0,0,0,-1,1063,764,0,0
-154,260,0,0,0,0,0,0,0,0,0,-1,1070,764,0,0
-147,260,0,0,0,0,0,0,0,0,0,-1,1077,764,0,0
-140,260,0,0,0,0,0,0,0,0,0,-1,1084,764,0,0
-133,260,0,0,0,0,0,0,0,0,0,-1,1091,764,0,0
-126,260,0,0,0,0,0,0,0,0,0,-1,1098,764,0,0
-119,260,0,0,0,0,0,0,0,0,0,-1,1105,764,0,0
-112,260,0,0,0,0,0,0,0,0,0,-1,1112,764,0,0
-105,260,0,0,0,0,0,0,0,0,0,-1,1119,764,0,0
-98,260,0,0,0,0,0,0,0,0,0,-1,1126,764,0,0
-91,260,0,0,0,0,0,0,0,0,0,-1,1133,764,0,0
-84,260,0,0,0,0,0,0,0,0,0,-1,1140,764,0,0
-77,260,0,0,0,0,0,0,0,0,0,-1,1147,764,0,0
-70,260,0,0,0,0,0,0,0,0,0,-1,1154,764,0,0
-63,260,0,0,0,0,0,0,0,0,0,-1,1161,764,0,0
-56,260,0,0,0,0,0,0,0,0,0,-1,1168,764,0,0
-49,260,0,0,0,0,0,0,0,0,0,-1,1175,764,0,0
-42,260,0,0,0,0,0,0,0,0,0,-1,1182,764,0,0
-35,260,0,0,0,0,0,0,0,0,0,-1,1189,764,0,0
-28,260,0,0,0,0,0,0,0,0,0,-1,1196,764,0,0
-21,260,0,0,0,0,0,0,0,0,0,-1,1203,764,0,0
-14,260,0,0,0,0,0,0,0,0,0,-1,1210,764,0,0
-7,260,0,0,0,0,0,0,0,0,0,-1,1217,764,0,0
0,260,0,0,0,0,0,0,0,0,0,-1,1224,764,0,0
7,260,0,0,0,0,0,0,0,0,0,-1,1231,764,0,0
14,260,0,0,0,0,0,0,0,0,0,-1,1238,764,0,0
21,260,0,0,0,0,0,0,0,0,0,-1,1245,764,0,0
28,260,0,0,0,0,0,0,0,0,0,-1,1252,764,0,0
35,260,0,0,0,0,0,0,0,0,0,-1,1259,764,0,0
42,260,0,0,0,0,0,0,0,0,0,-1,1266,764,0,0
49,260,0,0,0,0,0,0,0,0,0,-1,1273,764,0,0
56,260,0,0,0,0,0,0,0,0,0,-1,1280,764,0,0
63,260,0,0,0,0,0,0,0,0,0,-1,1287,764,0,0
70,260,0,0,0,0,0,0,0,0,0,-1,1294,764,0,0
77,260,0,0,0,0,0,0,0,0,0,-1,1301,764,0,0
84,260,0,0,0,0,0,0,0,0,0,-1,1308,764,0,0
91,260,0,0,0,0,0,0,0,0,0,-1,1315,764,0,0
98,260,0,0,0,0,0,0,0,0,0,-1,1322,764,0,0
105,260,0,0,0,0,0,0,0,0,0,-1,1329,764,0,0
112,260,0,0,0,0,0,0,0,0,0,-1,1336,764,0,0
119,260,0,0,0,0,0,0,0,0,0,-1,1343,764,0,0
126,260,0,0,0,0,0,0,0,0,0,-1,1350,764,0,0
133,260,0,0,0,0,0,0,0,0,0,-1,1357,764,0,0
140,260,0,0,0,0,0,0,0,0,0,-1,1364,764,0,0
147,260,0,0,0,0,0,0,0,0,0,-1,1371,764,0,0
154,260,0,0,0,0,0,0,0,0,0,-1,1378,764,0,0
161,260,0,0,0,0,0,0,0,0,0,-1,1385,764,0,0
168,260,0,0,0,0,0,0,0,0,0,-1,1392,764,0,0
175,260,0,0,0,0,0,0,0,0,0,-1,1399,764,0,0
182,260,0,0,0,0,0,0,0,0,0,-1,1406,764,0,0
189,260,0,0,0,0,0,0,0,0,0,-1,1413,764,0,0
196,260,0,0,0,0,0,0,0,0,0,-1,1420,764,0,0
203,260,0,0,0,0,0,0,0,0,0,-1,1427,764,0,0
210,260,0,0,0,0,0,0,0,0,0,-1,1434,764,0,0
217,260,0,0,0,0,0,0,0,0,0,-1,1441,764,0,0
224,260,0,0,0,0,0,0,0,0,0,-1,1448,764,0,0
231,260,0,0,0,0,0,0,0,0,0,-1,1455,764,0,0
238,260,0,0,0,0,0,0,0,0,0,-1,1462,764,0,0
245,260,0,0,0,0,0,0,0,0,0,-1,1469,764,0,0
252,260,0,0,0,0,0,0,0,0,0,-1,1476,764,0,0
259,260,0,0,0,0,0,0,0,0,0,-1,1483,764,0,0
266,260,0,0,0,0,0,0,0,0,0,-1,1490,764,0,0
273,260,0,0,0,0,0,0,0,0,0,-1,1497,764,0,0
280,260,0,0,0,0,0,0,0,0,0,-1,1504,764,0,0
287,260,0,0,0,0,0,0,0,0,0,-1,1511,764,0,0
294,260,0,0,0,0,0,0,0,0,0,-1,1518,764,0,0
301,260,0,0,0,0,0,0,0,0,0,-1,1525,764,0,0
308,260,0,0,0,0,0,0,0,0,0,-1,1532,764,0,0
315,260,0,0,0,0,0,0,0,0,0,-1,1539,764,0,0
322,260,0,0,0,0,0,0,0,0,0,-1,1546,764,0,0
329,260,0,0,0,0,0,0,0,0,0,-1,1553,764,0,0
336,260,0,0,0,0,0,0,0,0,0,-1,1560,764,0,0
343,260,0,0,0,0,0,0,0,0,0,-1,1567,764,0,0
350,260,0,0,0,0,0,0,0,0,0,-1,1574,764,0,0
357,260,0,0,0,0,0,0,0,0,0,-1,1581,764,0,0
364,260,0,0,0,0,0,0,0,0,0,-1,1588,764,0,0
371,260,0,0,0,0,0,0,0,0,0,-1,1595,764,0,0
378,260,0,0,0,0,0,0,0,0,0,-1,1602,764,0,0
385,260,0,0,0,0,0,0,0,0,0,-1,1609,764,0,0
392,260,0,0,0,0,0,0,0,0,0,-1,1616,764,0,0
399,260,0,0,0,0,0,0,0,0,0,-1,1623,764,0,0
406,260,0,0,0,0,0,0,0,0,0,-1,1630,764,0,0
413,260,0,0,0,0,0,0,0,0,0,-1,1637,764,0,0
420,260,0,0,0,0,0,0,0,0,0,-1,1644,764,0,0
427,260,0,0,0,0,0,0,0,0,0,-1,1651,764,0,0
434,260,0,0,0,0,0,0,0,0,0,-1,1658,764,0,0
441,260,0,0,0,0,0,0,0,0,0,-1,1665,764,0,0
448,260,0,0,0,0,0,0,0,0,0,-1,1672,764,0,0
455,260,0,0,0,0,0,0,0,0,0,-1,1679,764,0,0
462,260,0,0,0,0,0,0,0,0,0,-1,1686,764,0,0
469,260,0,0,0,0,0,0,0,0,0,-1,1693,764,0,0
476,260,0,0,0,0,0,0,0,0,0,-1,1700,764,0,0
483,260,0,0,0,0,0,0,0,0,0,-1,1707,764,0,0
490,260,0,0,0,0,0,0,0,0,0,-1,1714,764,0,0
497,260,0,0,0,0,0,0,0,0,0,-1,1721,764,0,0
504,260,0,0,0,0,0,0,0,0,0,-1,1728,764,0,0
511,260,0,0,0,0,0,0,0,0,0,-1,1735,764,0,0
518,260,0,0,0,0,0,0,0,0,0,-1,1742,764,0,0
525,260,0,0,0,0,0,0,0,0,0,-1,1749,764,0,0
532,260,0,0,0,0,0,0,0,0,0,-1,1756,764,0,0
539,260,0,0,0,0,0,0,0,0,0,-1,1763,764,0,0
546,260,0,0,0,0,0,0,0,0,0,-1,1770,764,0,0
553,260,0,0,0,0,0,0,0,0,0,-1,1777,764,0,0
560,260,0,0,0,0,0,0,0,0,0,-1,1784,764,0,0
567,260,0,0,0,0,0,0,0,0,0,-1,1791,764,0,0
574,260,36.3486,2.91663,0.00574938,0.0035667,0.00657733,0.0113253,-0.00200921,0.703185,0.00830139,0.0365437,1798,764,36.3487,-2.91665
581,260,36.2933,3.11096,0.00425364,-0.00442222,0.0120333,0.0127071,-0.0128756,0.612402,0.0147703,0.0392438,1805,764,36.2933,-3.11099
588,260,37.2412,2.33691,0,0,0,0,0,0,0,-1,1812,764,37.2412,-2.33689
595,260,37.2029,2.63397,0,0,0,0,0,0,0,-1,1819,764,37.2029,-2.634
602,260,37.1646,2.93109,0,0,0,0,0,0,0,-1,1826,764,37.1645,-2.9311
609,260,36.0199,3.51019,0,0,0,0,0,0,0,-1,1833,764,36.02,-3.51017
616,260,35.4386,3.40265,0,0,0,0,0,0,0,-1,1840,764,35.4386,-3.40265
623,260,32.2268,3.25836,0,0,0,0,0,0,0,-1,1847,764,32.2268,-3.25833
630,260,24.3739,-0.536316,0,0,0,0,0,0,0,-1,1854,764,24.3739,0.536343
637,260,24.608,-1.29553,0,0,0,0,0,0,0,-1,1861,764,24.608,1.29553
644,260,24.5305,-0.804199,0.000769095,-0.00113465,-3.32909e-05,0.000769677,-0.00113523,-0.01748,0.00110653,0.0273925,1868,764,24.5305,0.804188
651,260,24.5189,-0.404663,0.000546685,-0.00107199,-0.00126884,0.00124234,-0.00176764,-0.501504,0.00174661,0.0150902,1875,764,24.5189,0.404693
658,260,24.4941,0.0340576,0.000529176,-0.00128091,-0.00155241,0.0014211,-0.00217283,-0.521489,0.00209003,0.0166458,1882,764,24.4941,-0.0340747
665,260,24.4834,0.47937,0.000624485,-0.00103208,-0.00148828,0.00149944,-0.00190704,-0.531474,0.00197142,0.0162751,1889,764,24.4834,-0.479374
672,260,24.4882,0.903748,0.000712249,-0.0009045,-0.00123098,0.00137656,-0.00156881,-0.494866,0.00170171,0.0132848,1896,764,24.4882,-0.903722
679,260,24.4608,1.33423,0.000918313,-0.000402583,-0.000983184,0.00144228,-0.000926552,-0.489644,0.00137841,0.0119121,1903,764,24.4608,-1.33423
686,260,24.4231,1.77863,0.00147495,0.000820342,-0.00107365,0.00227008,2.52138e-05,-0.637447,0.00150505,0.0146425,1910,764,24.4231,-1.77862
693,260,24.4017,2.17987,0.00274142,0.00198512,-0.00103322,0.00346352,0.00126302,-0.609973,0.00202393,0.0149502,1917,764,24.4018,-2.17986
700,260,24.3842,2.61395,0.00441246,0.00324174,-0.00118228,0.00514636,0.00250785,-0.555533,0.00297157,0.0134421,1924,764,24.3842,-2.61398
707,260,24.3807,3.03693,0.00649627,0.0047554,-0.00160978,0.00745587,0.00379579,-0.537554,0.00430489,0.0135049,1931,764,24.3807,-3.03691
714,260,24.429,3.43256,0.00890233,0.00650882,-0.00289794,0.0108409,0.00457025,-0.589581,0.00628461,0.0264795,1938,764,24.4289,-3.43253
721,260,25.2245,3.60992,0.0114412,0.00915155,-0.00493768,0.015365,0.00522772,-0.671484,0.0090207,0.0481185,1945,764,25.2245,-3.60993
728,260,25.9006,3.76556,0,0,0,0,0,0,0,-1,1952,764,25.9006,-3.76559
735,260,26.9788,4.85681,0,0,0,0,0,0,0,-1,1959,764,26.9787,-4.85678
742,260,32.1443,1.73688,0,0,0,0,0,0,0,-1,1966,764,32.1442,-1.73688
749,260,33.6013,2.94733,0,0,0,0,0,0,0,-1,1973,764,33.6013,-2.9473
756,260,0,0,0,0,0,0,0,0,0,-1,1980,764,0,0
763,260,0,0,0,0,0,0,0,0,0,-1,1987,764,0,0
770,260,0,0,0,0,0,0,0,0,0,-1,1994,764,0,0
777,260,0,0,0,0,0,0,0,0,0,-1,2001,764,0,0
784,260,0,0,0,0,0,0,0,0,0,-1,2008,764,0,0
791,260,0,0,0,0,0,0,0,0,0,-1,2015,764,0,0
798,260,0,0,0,0,0,0,0,0,0,-1,2022,764,0,0
805,260,0,0,0,0,0,0,0,0,0,-1,2029,764,0,0
812,260,0,0,0,0,0,0,0,0,0,-1,2036,764,0,0
-700,253,0,0,0,0,0,0,0,0,0,-1,524,771,0,0
-693,253,0,0,0,0,0,0,0,0,0,-1,531,771,0,0
-686,253,0,0,0,0,0,0,0,0,0,-1,538,771,0,0
-679,253,0,0,0,0,0,0,0,0,0,-1,545,771,0,0
-672,253,0,0,0,0,0,0,0,0,0,-1,552,771,0,0
-665,253,0,0,0,0,0,0,0,0,0,-1,559,771,0,0
-658,253,0,0,0,0,0,0,0,0,0,-1,566,771,0,0
-651,253,0,0,0,0,0,0,0,0,0,-1,573,771,0,0
-644,253,0,0,0,0,0,0,0,0,0,-1,580,771,0,0
-637,253,-24.7979,-0.491394,0,0,0,0,0,0,0,-1,587,771,-24.7978,0.491371
-630,253,-25.156,0.540405,0,0,0,0,0,0,0,-1,594,771,-25.156,-0.540421
-623,253,-20.808,2.84314,0,0,0,0,0,0,0,-1,601,771,-20.8081,-2.84312
-616,253,-19.338,2.65521,0,0,0,0,0,0,0,-1,608,771,-19.338,-2.65522
-609,253,-17.7501,3.04822,0,0,0,0,0,0,0,-1,615,771,-17.7501,-3.04824
-602,253,-15.7556,2.29639,0,0,0,0,0,0,0,-1,622,771,-15.7556,-2.29637
-595,253,-16.4296,1.76709,0,0,0,0,0,0,0,-1,629,771,-16.4296,-1.76707
-588,253,-16.3627,1.31708,0.00155538,0.00891319,-0.00417033,0.0107954,-0.000326828,-1.14683,0.00730831,0.0385822,636,771,-16.3628,-1.31709
-581,253,-16.2951,0.878418,0.000471586,0.00635425,-0.00261389,0.00734787,-0.000522032,-1.20754,0.00508154,0.0239303,643,771,-16.2951,-0.87843
-574,253,-16.3583,0.519104,-0.000127529,0.00435084,-0.00146628,0.00478821,-0.000564893,-1.28092,0.00339613,0.0195348,650,771,-16.3584,-0.519113
-567,253,-16.3838,0.108276,-0.000552935,0.00271679,-0.000542192,0.00280436,-0.000640498,-1.41068,0.00211564,0.016044,657,771,-16.3838,-0.108286
-560,253,-16.3547,-0.244507,-0.00112222,0.00129306,0.000346233,0.00134171,-0.00117087,1.43119,0.00145176,0.0135164,664,771,-16.3547,0.244521
-553,253,-16.36,-0.647522,-0.00186524,7.51478e-05,0.00122665,0.000668902,-0.002459,1.11999,0.00190192,0.0128852,671,771,-16.36,0.647529
-546,253,-16.3867,-1.05481,-0.00267575,-0.000773692,0.00196075,0.000454502,-0.00390394,1.0112,0.0027666,0.0107069,678,771,-16.3866,1.05481
-539,253,-16.3976,-1.4809,-0.00386731,-0.000907481,0.00240218,0.000434065,-0.00520885,1.06147,0.00362593,0.0118085,685,771,-16.3976,1.4809
-532,253,-16.3867,-1.90503,-0.00494141,-0.000796079,0.00258142,0.000441794,-0.00617929,1.12366,0.00427441,0.0155295,692,771,-16.3867,1.90506
-525,253,-16.4071,-2.32397,-0.0058441,0.0012944,0.0032896,0.00257912,-0.00712881,1.19847,0.00580643,0.0128456,699,771,-16.4071,2.324
-518,253,-16.4602,-2.69043,-0.00666108,0.00501383,0.00398178,0.00624252,-0.00788977,1.27149,0.00817774,0.0187448,706,771,-16.4602,2.69042
-511,253,-16.6597,-3.01782,-0.00646255,0.00902569,0.00519197,0.0106051,-0.00804195,1.27549,0.0107997,0.0437191,713,771,-16.6597,3.01782
-504,253,-16.6212,-3.14453,0,0,0,0,0,0,0,-1,720,771,-16.6211,3.1445
-497,253,-21.3998,-1.49701,0,0,0,0,0,0,0,-1,727,771,-21.3998,1.497
-490,253,-25.9242,2.64771,0,0,0,0,0,0,0,-1,734,771,-25.9242,-2.64769
-483,253,-25.7775,2.48199,0,0,0,0,0,0,0,-1,741,771,-25.7775,-2.48197
-476,253,-25.7535,2.38501,0.00246293,0.0505659,0.0190937,0.0572234,-0.00419457,1.2353,0.0396212,0.0490015,748,771,-25.7535,-2.38501
-469,253,-25.7542,2.36304,0.00763331,0.0638582,0.0252595,0.0735393,-0.00204777,1.2048,0.0497228,0.0447368,755,771,-25.7542,-2.36303
-462,253,-25.9239,1.73157,0,0,0,0,0,0,0,-1,762,771,-25.9239,-1.73157
-455,253,-26.2699,1.13153,0,0,0,0,0,0,0,-1,769,771,-26.2699,-1.13152
-448,253,0,0,0,0,0,0,0,0,0,-1,776,771,0,0
-441,253,0,0,0,0,0,0,0,0,0,-1,783,771,0,0
-434,253,0,0,0,0,0,0,0,0,0,-1,790,771,0,0
-427,253,0,0,0,0,0,0,0,0,0,-1,797,771,0,0
-420,253,0,0,0,0,0,0,0,0,0,-1,804,771,0,0
-413,253,0,0,0,0,0,0,0,0,0,-1,811,771,0,0
-406,253,0,0,0,0,0,0,0,0,0,-1,818,771,0,0
-399,253,0,0,0,0,0,0,0,0,0,-1,825,771,0,0
-392,253,0,0,0,0,0,0,0,0,0,-1,832,771,0,0
-385,253,0,0,0,0,0,0,0,0,0,-1,839,771,0,0
-378,253,0,0,0,0,0,0,0,0,0,-1,846,771,0,0
-371,253,0,0,0,0,0,0,0,0,0,-1,853,771,0,0
-364,253,0,0,0,0,0,0,0,0,0,-1,860,771,0,0
-357,253,0,0,0,0,0,0,0,0,0,-1,867,771,0,0
-350,253,0,0,0,0,0,0,0,0,0,-1,874,771,0,0
-343,253,0,0,0,0,0,0,0,0,0,-1,881,771,0,0
-336,253,0,0,0,0,0,0,0,0,0,-1,888,771,0,0
-329,253,0,0,0,0,0,0,0,0,0,-1,895,771,0,0
-322,253,0,0,0,0,0,0,0,0,0,-1,902,771,0,0
-315,253,0,0,0,0,0,0,0,0,0,-1,909,771,0,0
-308,253,0,0,0,0,0,0,0,0,0,-1,916,771,0,0
-301,253,0,0,0,0,0,0,0,0,0,-1,923,771,0,0
-294,253,0,0,0,0,0,0,0,0,0,-1,930,771,0,0
-287,253,0,0,0,0,0,0,0,0,0,-1,937,771,0,0
-280,253,0,0,0,0,0,0,0,0,0,-1,944,771,0,0
-273,253,0,0,0,0,0,0,0,0,0,-1,951,771,0,0
-266,253,0,0,0,0,0,0,0,0,0,-1,958,771,0,0
-259,253,0,0,0,0,0,0,0,0,0,-1,965,771,0,0
-252,253,0,0,0,0,0,0,0,0,0,-1,972,771,0,0
-245,253,0,0,0,0,0,0,0,0,0,-1,979,771,0,0
-238,253,0,0,0,0,0,0,0,0,0,-1,986,771,0,0
-231,253,0,0,0,0,0,0,0,0,0,-1,993,771,0,0
-224,253,0,0,0,0,0,0,0,0,0,-1,1000,771,0,0
-217,253,0,0,0,0,0,0,0,0,0,-1,1007,771,0,0
-210,253,0,0,0,0,0,0,0,0,0,-1,1014,771,0,0
-203,253,0,0,0,0,0,0,0,0,0,-1,1021,771,0,0
-196,253,0,0,0,0,0,0,0,0,0,-1,1028,771,0,0
-189,253,0,0,0,0,0,0,0,0,0,-1,1035,771,0,0
-182,253,0,0,0,0,0,0,0,0,0,-1,1042,771,0,0
-175,253,0,0,0,0,0,0,0,0,0,-1,1049,771,0,0
-168,253,0,0,0,0,0,0,0,0,0,-1,1056,771,0,0
-161,253,0,0,0,0,0,0,0,0,0,-1,1063,771,0,0
-154,253,0,0,0,0,0,0,0,0,0,-1,1070,771,0,0
-147,253,0,0,0,0,0,0,0,0,0,-1,1077,771,0,0
-140,253,0,0,0,0,0,0,0,0,0,-1,1084,771,0,0
-133,253,0,0,0,0,0,0,0,0,0,-1,1091,771,0,0
-126,253,0,0,0,0,0,0,0,0,0,-1,1098,771,0,0
-119,253,0,0,0,0,0,0,0,0,0,-1,1105,771,0,0
-112,253,0,0,0,0,0,0,0,0,0,-1,1112,771,0,0
-105,253,0,0,0,0,0,0,0,0,0,-1,1119,771,0,0
-98,253,0,0,0,0,0,0,0,0,0,-1,1126,771,0,0
-91,253,0,0,0,0,0,0,0,0,0,-1,1133,771,0,0
-84,253,0,0,0,0,0,0,0,0,0,-1,1140,771,0,0
-77,253,0,0,0,0,0,0,0,0,0,-1,1147,771,0,0
-70,253,0,0,0,0,0,0,0,0,0,-1,1154,771,0,0
-63,253,0,0,0,0,0,0,0,0,0,-1,1161,771,0,0
-56,253,0,0,0,0,0,0,0,0,0,-1,1168,771,0,0
-49,253,0,0,0,0,0,0,0,0,0,-1,1175,771,0,0
-42,253,0,0,0,0,0,0,0,0,0,-1,1182,771,0,0
-35,253,0,0,0,0,0,0,0,0,0,-1,1189,771,0,0
-28,253,0,0,0,0,0,0,0,0,0,-1,1196,771,0,0
-21,253,0,0,0,0,0,0,0,0,0,-1,1203,771,0,0
-14,253,0,0,0,0,0,0,0,0,0,-1,1210,771,0,0
-7,253,0,0,0,0,0,0,0,0,0,-1,1217,771,0,0
0,253,0,0,0,0,0,0,0,0,0,-1,1224,771,0,0
7,253,0,0,0,0,0,0,0,0,0,-1,1231,771,0,0
14,253,0,0,0,0,0,0,0,0,0,-1,1238,771,0,0
21,253,0,0,0,0,0,0,0,0,0,-1,1245,771,0,0
28,253,0,0,0,0,0,0,0,0,0,-1,1252,771,0,0
35,253,0,0,0,0,0,0,0,0,0,-1,1259,771,0,0
42,253,0,0,0,0,0,0,0,0,0,-1,1266,771,0,0
49,253,0,0,0,0,0,0,0,0,0,-1,1273,771,0,0
56,253,0,0,0,0,0,0,0,0,0,-1,1280,771,0,0
63,253,0,0,0,0,0,0,0,0,0,-1,1287,771,0,0
70,253,0,0,0,0,0,0,0,0,0,-1,1294,771,0,0
77,253,0,0,0,0,0,0,0,0,0,-1,1301,771,0,0
84,253,0,0,0,0,0,0,0,0,0,-1,1308,771,0,0
91,253,0,0,0,0,0,0,0,0,0,-1,1315,771,0,0
98,253,0,0,0,0,0,0,0,0,0,-1,1322,771,0,0
105,253,0,0,0,0,0,0,0,0,0,-1,1329,771,0,0
112,253,0,0,0,0,0,0,0,0,0,-1,1336,771,0,0
119,253,0,0,0,0,0,0,0,0,0,-1,1343,771,0,0
126,253,0,0,0,0,0,0,0,0,0,-1,1350,771,0,0
133,253,0,0,0,0,0,0,0,0,0,-1,1357,771,0,0
140,253,0,0,0,0,0,0,0,0,0,-1,1364,771,0,0
147,253,0,0,0,0,0,0,0,0,0,-1,1371,771,0,0
154,253,0,0,0,0,0,0,0,0,0,-1,1378,771,0,0
161,253,0,0,0,0,0,0,0,0,0,-1,1385,771,0,0
168,253,0,0,0,0,0,0,0,0,0,-1,1392,771,0,0
175,253,0,0,0,0,0,0,0,0,0,-1,1399,771,0,0
182,253,0,0,0,0,0,0,0,0,0,-1,1406,771,0,0
189,253,0,0,0,0,0,0,0,0,0,-1,1413,771,0,0
196,253,0,0,0,0,0,0,0,0,0,-1,1420,771,0,0
203,253,0,0,0,0,0,0,0,0,0,-1,1427,771,0,0
210,253,0,0,0,0,0,0,0,0,0,-1,1434,771,0,0
217,253,0,0,0,0,0,0,0,0,0,-1,1441,771,0,0
224,253,0,0,0,0,0,0,0,0,0,-1,1448,771,0,0
231,253,0,0,0,0,0,0,0,0,0,-1,1455,771,0,0
238,253,0,0,0,0,0,0,0,0,0,-1,1462,771,0,0
245,253,0,0,0,0,0,0,0,0,0,-1,1469,771,0,0
252,253,0,0,0,0,0,0,0,0,0,-1,1476,771,0,0
259,253,0,0,0,0,0,0,0,0,0,-1,1483,771,0,0
266,253,0,0,0,0,0,0,0,0,0,-1,1490,771,0,0
273,253,0,0,0,0,0,0,0,0,0,-1,1497,771,0,0
280,253,0,0,0,0,0,0,0,0,0,-1,1504,771,0,0
287,253,0,0,0,0,0,0,0,0,0,-1,1511,771,0,0
294,253,0,0,0,0,0,0,0,0,0,-1,1518,771,0,0
301,253,0,0,0,0,0,0,0,0,0,-1,1525,771,0,0
308,253,0,0,0,0,0,0,0,0,0,-1,1532,771,0,0
315,253,0,0,0,0,0,0,0,0,0,-1,1539,771,0,0
322,253,0,0,0,0,0,0,0,0,0,-1,1546,771,0,0
329,253,0,0,0,0,0,0,0,0,0,-1,1553,771,0,0
336,253,0,0,0,0,0,0,0,0,0,-1,1560,771,0,0
343,253,0,0,0,0,0,0,0,0,0,-1,1567,771,0,0
350,253,0,0,0,0,0,0,0,0,0,-1,1574,771,0,0
357,253,0,0,0,0,0,0,0,0,0,-1,1581,771,0,0
364,253,0,0,0,0,0,0,0,0,0,-1,1588,771,0,0
371,253,0,0,0,0,0,0,0,0,0,-1,1595,771,0,0
378,253,0,0,0,0,0,0,0,0,0,-1,1602,771,0,0
385,253,0,0,0,0,0,0,0,0,0,-1,1609,771,0,0
392,253,0,0,0,0,0,0,0,0,0,-1,1616,771,0,0
399,253,0,0,0,0,0,0,0,0,0,-1,1623,771,0,0
406,253,0,0,0,0,0,0,0,0,0,-1,1630,771,0,0
413,253,0,0,0,0,0,0,0,0,0,-1,1637,771,0,0
420,253,0,0,0,0,0,0,0,0,0,-1,1644,771,0,0
427,253,0,0,0,0,0,0,0,0,0,-1,1651,771,0,0
434,253,0,0,0,0,0,0,0,0,0,-1,1658,771,0,0
441,253,0,0,0,0,0,0,0,0,0,-1,1665,771,0,0
448,253,0,0,0,0,0,0,0,0,0,-1,1672,771,0,0
455,253,0,0,0,0,0,0,0,0,0,-1,1679,771,0,0
462,253,0,0,0,0,0,0,0,0,0,-1,1686,771,0,0
469,253,0,0,0,0,0,0,0,0,0,-1,1693,771,0,0
476,253,0,0,0,0,0,0,0,0,0,-1,1700,771,0,0
483,253,0,0,0,0,0,0,0,0,0,-1,1707,771,0,0
490,253,0,0,0,0,0,0,0,0,0,-1,1714,771,0,0
497,253,0,0,0,0,0,0,0,0,0,-1,1721,771,0,0
504,253,0,0,0,0,0,0,0,0,0,-1,1728,771,0,0
511,253,0,0,0,0,0,0,0,0,0,-1,1735,771,0,0
518,253,0,0,0,0,0,0,0,0,0,-1,1742,771,0,0
525,253,0,0,0,0,0,0,0,0,0,-1,1749,771,0,0
532,253,0,0,0,0,0,0,0,0,0,-1,1756,771,0,0
539,253,0,0,0,0,0,0,0,0,0,-1,1763,771,0,0
546,253,0,0,0,0,0,0,0,0,0,-1,1770,771,0,0
553,253,0,0,0,0,0,0,0,0,0,-1,1777,771,0,0
560,253,0,0,0,0,0,0,0,0,0,-1,1784,771,0,0
567,253,0,0,0,0,0,0,0,0,0,-1,1791,771,0,0
574,253,36.3627,2.77026,0.00718564,0.00783659,0.00168278,0.00922508,0.00579715,0.880926,0.00538434,0.0365627,1798,771,36.3627,-2.77026
581,253,36.3258,2.82306,0.00509188,-0.00236881,0.00927208,0.0113559,-0.0086328,0.594146,0.0115761,0.0404712,1805,771,36.3258,-2.82304
588,253,36.604,2.83313,0.0043412,-0.00566907,0.0112321,0.0116329,-0.0129607,0.5758,0.014206,0.0451818,1812,771,36.604,-2.83312
595,253,37.0365,2.75476,0.00382199,-0.00626037,0.010716,0.0106233,-0.0130617,0.565539,0.0136987,0.0457658,1819,771,37.0365,-2.75478
602,253,36.7198,2.96759,0,0,0,0,0,0,0,-1,1826,771,36.7199,-2.96759
609,253,36.0961,2.50787,0,0,0,0,0,0,0,-1,1833,771,36.0961,-2.50786
616,253,35.3696,3.11261,0,0,0,0,0,0,0,-1,1840,771,35.3697,-3.11263
623,253,36.2346,3.5498,0,0,0,0,0,0,0,-1,1847,771,36.2346,-3.5498
630,253,33.561,2.96838,0,0,0,0,0,0,0,-1,1854,771,33.561,-2.96836
637,253,22.3192,-0.604004,0,0,0,0,0,0,0,-1,1861,771,22.3192,0.603986
644,253,24.8738,-0.811157,0,0,0,0,0,0,0,-1,1868,771,24.8738,0.811135
651,253,24.8965,-0.367554,0.000281744,-0.0012653,-0.00145877,0.00115939,-0.00214294,-0.54162,0.00193458,0.0264474,1875,771,24.8965,0.367583
658,253,24.9279,0.0727539,0.000286928,-0.00162727,-0.0017978,0.00136652,-0.00270686,-0.540793,0.00239383,0.0211023,1882,771,24.9278,-0.0727303
665,253,24.8585,0.495544,0.000491171,-0.00154008,-0.00176964,0.00151592,-0.00256482,-0.524889,0.00238182,0.0225583,1889,771,24.8586,-0.495574
672,253,24.891,0.919983,0.000614292,-0.00158415,-0.00154664,0.00141254,-0.00238239,-0.476457,0.00221472,0.0163333,1896,771,24.891,-0.919989
679,253,24.8981,1.39209,0.000820582,-0.00121076,-0.00131164,0.00146382,-0.001854,-0.455945,0.00191995,0.0123845,1903,771,24.898,-1.3921
686,253,24.8605,1.80945,0.00141334,-0.000102424,-0.00138398,0.00223336,-0.00092245,-0.534896,0.00187368,0.0187973,1910,771,24.8605,-1.80945
693,253,24.817,2.21936,0.00276285,0.00101759,-0.00132747,0.00347882,0.000301618,-0.494631,0.0022255,0.019153,1917,771,24.817,-2.21934
700,253,24.8076,2.63757,0.00437072,0.0021484,-0.00146455,0.00509792,0.0014212,-0.460874,0.00303779,0.0161371,1924,771,24.8077,-2.63757
707,253,24.813,3.05328,0.00615231,0.00332043,-0.00192492,0.00712598,0.00234677,-0.468294,0.00419332,0.0148436,1931,771,24.813,-3.05328
714,253,24.818,3.45361,0.00807104,0.00466678,-0.00314808,0.00994769,0.00279013,-0.537565,0.00592494,0.0197517,1938,771,24.8179,-3.45364
721,253,24.9445,3.84198,0.00983427,0.00648066,-0.00509152,0.013518,0.00279694,-0.626325,0.00823947,0.0353059,1945,771,24.9445,-3.84199
728,253,25.9325,4.34949,0,0,0,0,0,0,0,-1,1952,771,25.9325,-4.34951
735,253,26.8141,5.11914,0,0,0,0,0,0,0,-1,1959,771,26.8141,-5.11917
742,253,27.5789,5.78607,0,0,0,0,0,0,0,-1,1966,771,27.5788,-5.78606
749,253,32.8558,3.30847,0,0,0,0,0,0,0,-1,1973,771,32.8559,-3.30849
756,253,0,0,0,0,0,0,0,0,0,-1,1980,771,0,0
763,253,0,0,0,0,0,0,0,0,0,-1,1987,771,0,0
770,253,0,0,0,0,0,0,0,0,0,-1,1994,771,0,0
777,253,0,0,0,0,0,0,0,0,0,-1,2001,771,0,0
784,253,0,0,0,0,0,0,0,0,0,-1,2008,771,0,0
791,253,0,0,0,0,0,0,0,0,0,-1,2015,771,0,0
798,253,0,0,0,0,0,0,0,0,0,-1,2022,771,0,0
805,253,0,0,0,0,0,0,0,0,0,-1,2029,771,0,0
812,253,0,0,0,0,0,0,0,0,0,-1,2036,771,0,0
-700,246,0,0,0,0,0,0,0,0,0,-1,524,778,0,0
-693,246,0,0,0,0,0,0,0,0,0,-1,531,778,0,0
-686,246,0,0,0,0,0,0,0,0,0,-1,538,778,0,0
-679,246,0,0,0,0,0,0,0,0,0,-1,545,778,0,0
-672,246,0,0,0,0,0,0,0,0,0,-1,552,778,0,0
-665,246,0,0,0,0,0,0,0,0,0,-1,559,778,0,0
-658,246,0,0,0,0,0,0,0,0,0,-1,566,778,0,0
-651,246,0,0,0,0,0,0,0,0,0,-1,573,778,0,0
-644,246,0,0,0,0,0,0,0,0,0,-1,580,778,0,0
-637,246,-24.1234,0.130432,0,0,0,0,0,0,0,-1,587,778,-24.1234,-0.130438
-630,246,-24.0781,1.38916,0,0,0,0,0,0,0,-1,594,778,-24.0781,-1.38913
-623,246,-23.9183,2.49573,0,0,0,0,0,0,0,-1,601,778,-23.9183,-2.49575
-616,246,-19.4752,1.91888,0,0,0,0,0,0,0,-1,608,778,-19.4752,-1.91889
-609,246,-17.5242,0.963379,0,0,0,0,0,0,0,-1,615,778,-17.5242,-0.963383
-602,246,-16.3291,2.30243,0,0,0,0,0,0,0,-1,622,778,-16.3291,-2.30244
-595,246,-16.6661,1.81268,0,0,0,0,0,0,0,-1,629,778,-16.6661,-1.81267
-588,246,-16.7048,1.35205,0.00233287,0.00819879,-0.00405064,0.0102668,0.000264832,-1.09875,0.006758,0.0313648,636,778,-16.7048,-1.35207
-581,246,-16.7614,0.950806,0.0011871,0.00590909,-0.00260701,0.00706531,3.0881e-05,-1.15336,0.00469995,0.0172277,643,778,-16.7613,-0.950788
-574,246,-16.731,0.495972,0.000417065,0.00401829,-0.00144906,0.00452895,-9.35956e-05,-1.23198,0.00305098,0.0186809,650,778,-16.731,-0.495992
-567,246,-16.7366,0.102173,-0.00024003,0.00238798,-0.000447388,0.00246205,-0.000314104,-1.40671,0.00175546,0.0191127,657,778,-16.7366,-0.102163
-560,246,-16.7545,-0.285889,-0.00106415,0.00102094,0.000532406,0.00114902,-0.00119223,1.33472,0.0013518,0.0152413,664,778,-16.7545,0.285865
-553,246,-16.7731,-0.648865,-0.00203689,-0.000109844,0.00149463,0.000704918,-0.00285165,1.0717,0.0021745,0.0140847,671,778,-16.7731,0.648885
-546,246,-16.7938,-1.04608,-0.00308708,-0.000773813,0.00228401,0.000629727,-0.00449062,1.01978,0.00322422,0.0115139,678,778,-16.7939,1.04606
-539,246,-16.7979,-1.47693,-0.00447484,-0.000629794,0.0026958,0.000758793,-0.00586343,1.09515,0.00418488,0.0110068,685,778,-16.7979,1.47695
-532,246,-16.7869,-1.89722,-0.00560977,-0.000324425,0.00282408,0.00090061,-0.0068348,1.16151,0.00488449,0.0123506,692,778,-16.7869,1.8972
-525,246,-16.8125,-2.27856,-0.0065116,0.00178763,0.00341313,0.00301098,-0.00773495,1.22664,0.00640088,0.0152204,699,778,-16.8125,2.27856
-518,246,-16.9002,-2.55011,-0.00736265,0.00532327,0.00393294,0.00644363,-0.00848302,1.29328,0.00864468,0.0248294,706,778,-16.9002,2.5501
-511,246,-17.1363,-2.70819,-0.00739285,0.00903265,0.00482161,0.0103434,-0.00870361,1.30536,0.0110104,0.0492915,713,778,-17.1363,2.7082
-504,246,-17.3035,-3.04633,0,0,0,0,0,0,0,-1,720,778,-17.3035,3.04632
-497,246,-17.1776,-3.40283,0,0,0,0,0,0,0,-1,727,778,-17.1775,3.40285
-490,246,-26.4454,2.52783,0,0,0,0,0,0,0,-1,734,778,-26.4454,-2.52784
-483,246,-26.8446,1.43073,0,0,0,0,0,0,0,-1,741,778,-26.8446,-1.43072
-476,246,-26.1049,1.96356,-0.000346626,0.0472553,0.014812,0.0514879,-0.00457925,1.29246,0.0359491,0.0470957,748,778,-26.1049,-1.96359
-469,246,-26.1834,1.70972,0.00404845,0.0590357,0.0191896,0.0650703,-0.00198613,1.26612,0.0440572,0.0415724,755,778,-26.1834,-1.70971
-462,246,-26.433,1.40295,0,0,0,0,0,0,0,-1,762,778,-26.433,-1.40295
-455,246,0,0,0,0,0,0,0,0,0,-1,769,778,0,0
-448,246,0,0,0,0,0,0,0,0,0,-1,776,778,0,0
-441,246,0,0,0,0,0,0,0,0,0,-1,783,778,0,0
-434,246,0,0,0,0,0,0,0,0,0,-1,790,778,0,0
-427,246,0,0,0,0,0,0,0,0,0,-1,797,778,0,0
-420,246,0,0,0,0,0,0,0,0,0,-1,804,778,0,0
-413,246,0,0,0,0,0,0,0,0,0,-1,811,778,0,0
-406,246,0,0,0,0,0,0,0,0,0,-1,818,778,0,0
-399,246,0,0,0,0,0,0,0,0,0,-1,825,778,0,0
-392,246,0,0,0,0,0,0,0,0,0,-1,832,778,0,0
-385,246,0,0,0,0,0,0,0,0,0,-1,839,778,0,0
-378,246,0,0,0,0,0,0,0,0,0,-1,846,778,0,0
-371,246,0,0,0,0,0,0,0,0,0,-1,853,778,0,0
-364,246,0,0,0,0,0,0,0,0,0,-1,860,778,0,0
-357,246,0,0,0,0,0,0,0,0,0,-1,867,778,0,0
-350,246,0,0,0,0,0,0,0,0,0,-1,874,778,0,0
-343,246,0,0,0,0,0,0,0,0,0,-1,881,778,0,0
-336,246,0,0,0,0,0,0,0,0,0,-1,888,778,0,0
-329,246,0,0,0,0,0,0,0,0,0,-1,895,778,0,0
-322,246,0,0,0,0,0,0,0,0,0,-1,902,778,0,0
-315,246,0,0,0,0,0,0,0,0,0,-1,909,778,0,0
-308,246,0,0,0,0,0,0,0,0,0,-1,916,778,0,0
-301,246,0,0,0,0,0,0,0,0,0,-1,923,778,0,0
-294,246,0,0,0,0,0,0,0,0,0,-1,930,778,0,0
-287,246,0,0,0,0,0,0,0,0,0,-1,937,778,0,0
-280,246,0,0,0,0,0,0,0,0,0,-1,944,778,0,0
-273,246,0,0,0,0,0,0,0,0,0,-1,951,778,0,0
-266,246,0,0,0,0,0,0,0,0,0,-1,958,778,0,0
-259,246,0,0,0,0,0,0,0,0,0,-1,965,778,0,0
-252,246,0,0,0,0,0,0,0,0,0,-1,972,778,0,0
-245,246,0,0,0,0,0,0,0,0,0,-1,979,778,0,0
-238,246,0,0,0,0,0,0,0,0,0,-1,986,778,0,0
-231,246,0,0,0,0,0,0,0,0,0,-1,993,778,0,0
-224,246,0,0,0,0,0,0,0,0,0,-1,1000,778,0,0
-217,246,0,0,0,0,0,0,0,0,0,-1,1007,778,0,0
-210,246,0,0,0,0,0,0,0,0,0,-1,1014,778,0,0
-203,246,0,0,0,0,0,0,0,0,0,-1,1021,778,0,0
-196,246,0,0,0,0,0,0,0,0,0,-1,1028,778,0,0
-189,246,0,0,0,0,0,0,0,0,0,-1,1035,778,0,0
-182,246,0,0,0,0,0,0,0,0,0,-1,1042,778,0,0
-175,246,0,0,0,0,0,0,0,0,0,-1,1049,778,0,0
-168,246,0,0,0,0,0,0,0,0,0,-1,1056,778,0,0
-161,246,0,0,0,0,0,0,0,0,0,-1,1063,778,0,0
-154,246,0,0,0,0,0,0,0,0,0,-1,1070,778,0,0
-147,246,0,0,0,0,0,0,0,0,0,-1,1077,778,0,0
-140,246,0,0,0,0,0,0,0,0,0,-1,1084,778,0,0
-133,246,0,0,0,0,0,0,0,0,0,-1,1091,778,0,0
-126,246,0,0,0,0,0,0,0,0,0,-1,1098,778,0,0
-119,246,0,0,0,0,0,0,0,0,0,-1,1105,778,0,0
-112,246,0,0,0,0,0,0,0,0,0,-1,1112,778,0,0
-105,246,0,0,0,0,0,0,0,0,0,-1,1119,778,0,0
-98,246,0,0,0,0,0,0,0,0,0,-1,1126,778,0,0
-91,246,0,0,0,0,0,0,0,0,0,-1,1133,778,0,0
-84,246,0,0,0,0,0,0,0,0,0,-1,1140,778,0,0
-77,246,0,0,0,0,0,0,0,0,0,-1,1147,778,0,0
-70,246,0,0,0,0,0,0,0,0,0,-1,1154,778,0,0
-63,246,0,0,0,0,0,0,0,0,0,-1,1161,778,0,0
-56,246,0,0,0,0,0,0,0,0,0,-1,1168,778,0,0
-49,246,0,0,0,0,0,0,0,0,0,-1,1175,778,0,0
-42,246,0,0,0,0,0,0,0,0,0,-1,1182,778,0,0
-35,246,0,0,0,0,0,0,0,0,0,-1,1189,778,0,0
-28,246,0,0,0,0,0,0,0,0,0,-1,1196,778,0,0
-21,246,0,0,0,0,0,0,0,0,0,-1,1203,778,0,0
-14,246,0,0,0,0,0,0,0,0,0,-1,1210,778,0,0
-7,246,0,0,0,0,0,0,0,0,0,-1,1217,778,0,0
0,246,0,0,0,0,0,0,0,0,0,-1,1224,778,0,0
7,246,0,0,0,0,0,0,0,0,0,-1,1231,778,0,0
14,246,0,0,0,0,0,0,0,0,0,-1,1238,778,0,0
21,246,0,0,0,0,0,0,0,0,0,-1,1245,778,0,0
28,246,0,0,0,0,0,0,0,0,0,-1,1252,778,0,0
35,246,0,0,0,0,0,0,0,0,0,-1,1259,778,0,0
42,246,0,0,0,0,0,0,0,0,0,-1,1266,778,0,0
49,246,0,0,0,0,0,0,0,0,0,-1,1273,778,0,0
56,246,0,0,0,0,0,0,0,0,0,-1,1280,778,0,0
63,246,0,0,0,0,0,0,0,0,0,-1,1287,778,0,0
70,246,0,0,0,0,0,0,0,0,0,-1,1294,778,0,0
77,246,0,0,0,0,0,0,0,0,0,-1,1301,778,0,0
84,246,0,0,0,0,0,0,0,0,0,-1,1308,778,0,0
91,246,0,0,0,0,0,0,0,0,0,-1,1315,778,0,0
98,246,0,0,0,0,0,0,0,0,0,-1,1322,778,0,0
105,246,0,0,0,0,0,0,0,0,0,-1,1329,778,0,0
112,246,0,0,0,0,0,0,0,0,0,-1,1336,778,0,0
119,246,0,0,0,0,0,0,0,0,0,-1,1343,778,0,0
126,246,0,0,0,0,0,0,0,0,0,-1,1350,778,0,0
133,246,0,0,0,0,0,0,0,0,0,-1,1357,778,0,0
140,246,0,0,0,0,0,0,0,0,0,-1,1364,778,0,0
147,246,0,0,0,0,0,0,0,0,0,-1,1371,778,0,0
154,246,0,0,0,0,0,0,0,0,0,-1,1378,778,0,0
161,246,0,0,0,0,0,0,0,0,0,-1,1385,778,0,0
168,246,0,0,0,0,0,0,0,0,0,-1,1392,778,0,0
175,246,0,0,0,0,0,0,0,0,0,-1,1399,778,0,0
182,246,0,0,0,0,0,0,0,0,0,-1,1406,778,0,0
189,246,0,0,0,0,0,0,0,0,0,-1,1413,778,0,0
196,246,0,0,0,0,0,0,0,0,0,-1,1420,778,0,0
203,246,0,0,0,0,0,0,0,0,0,-1,1427,778,0,0
210,246,0,0,0,0,0,0,0,0,0,-1,1434,778,0,0
217,246,0,0,0,0,0,0,0,0,0,-1,1441,778,0,0
224,246,0,0,0,0,0,0,0,0,0,-1,1448,778,0,0
231,246,0,0,0,0,0,0,0,0,0,-1,1455,778,0,0
238,246,0,0,0,0,0,0,0,0,0,-1,1462,778,0,0
245,246,0,0,0,0,0,0,0,0,0,-1,1469,778,0,0
252,246,0,0,0,0,0,0,0,0,0,-1,1476,778,0,0
259,246,0,0,0,0,0,0,0,0,0,-1,1483,778,0,0
266,246,0,0,0,0,0,0,0,0,0,-1,1490,778,0,0
273,246,0,0,0,0,0,0,0,0,0,-1,1497,778,0,0
280,246,0,0,0,0,0,0,0,0,0,-1,1504,778,0,0
287,246,0,0,0,0,0,0,0,0,0,-1,1511,778,0,0
294,246,0,0,0,0,0,0,0,0,0,-1,1518,778,0,0
301,246,0,0,0,0,0,0,0,0,0,-1,1525,778,0,0
308,246,0,0,0,0,0,0,0,0,0,-1,1532,778,0,0
315,246,0,0,0,0,0,0,0,0,0,-1,1539,778,0,0
322,246,0,0,0,0,0,0,0,0,0,-1,1546,778,0,0
329,246,0,0,0,0,0,0,0,0,0,-1,1553,778,0,0
336,246,0,0,0,0,0,0,0,0,0,-1,1560,778,0,0
343,246,0,0,0,0,0,0,0,0,0,-1,1567,778,0,0
350,246,0,0,0,0,0,0,0,0,0,-1,1574,778,0,0
357,246,0,0,0,0,0,0,0,0,0,-1,1581,778,0,0
364,246,0,0,0,0,0,0,0,0,0,-1,1588,778,0,0
371,246,0,0,0,0,0,0,0,0,0,-1,1595,778,0,0
378,246,0,0,0,0,0,0,0,0,0,-1,1602,778,0,0
385,246,0,0,0,0,0,0,0,0,0,-1,1609,778,0,0
392,246,0,0,0,0,0,0,0,0,0,-1,1616,778,0,0
399,246,0,0,0,0,0,0,0,0,0,-1,1623,778,0,0
406,246,0,0,0,0,0,0,0,0,0,-1,1630,778,0,0
413,246,0,0,0,0,0,0,0,0,0,-1,1637,778,0,0
420,246,0,0,0,0,0,0,0,0,0,-1,1644,778,0,0
427,246,0,0,0,0,0,0,0,0,0,-1,1651,778,0,0
434,246,0,0,0,0,0,0,0,0,0,-1,1658,778,0,0
441,246,0,0,0,0,0,0,0,0,0,-1,1665,778,0,0
448,246,0,0,0,0,0,0,0,0,0,-1,1672,778,0,0
455,246,0,0,0,0,0,0,0,0,0,-1,1679,778,0,0
462,246,0,0,0,0,0,0,0,0,0,-1,1686,778,0,0
469,246,0,0,0,0,0,0,0,0,0,-1,1693,778,0,0
476,246,0,0,0,0,0,0,0,0,0,-1,1700,778,0,0
483,246,0,0,0,0,0,0,0,0,0,-1,1707,778,0,0
490,246,0,0,0,0,0,0,0,0,0,-1,1714,778,0,0
497,246,0,0,0,0,0,0,0,0,0,-1,1721,778,0,0
504,246,0,0,0,0,0,0,0,0,0,-1,1728,778,0,0
511,246,0,0,0,0,0,0,0,0,0,-1,1735,778,0,0
518,246,0,0,0,0,0,0,0,0,0,-1,1742,778,0,0
525,246,0,0,0,0,0,0,0,0,0,-1,1749,778,0,0
532,246,0,0,0,0,0,0,0,0,0,-1,1756,778,0,0
539,246,0,0,0,0,0,0,0,0,0,-1,1763,778,0,0
546,246,0,0,0,0,0,0,0,0,0,-1,1770,778,0,0
553,246,0,0,0,0,0,0,0,0,0,-1,1777,778,0,0
560,246,0,0,0,0,0,0,0,0,0,-1,1784,778,0,0
567,246,0,0,0,0,0,0,0,0,0,-1,1791,778,0,0
574,246,0,0,0,0,0,0,0,0,0,-1,1798,778,0,0
581,246,36.2914,2.79651,0.00561669,-0.00133737,0.00679033,0.00976844,-0.00548912,0.548775,0.0089237,0.0408445,1805,778,36.2914,-2.7965
588,246,36.418,2.72858,0.0048611,-0.00466902,0.00939416,0.0106296,-0.0104375,0.550688,0.0121633,0.0456788,1812,778,36.418,-2.7286
595,246,36.6836,2.7536,0.00423814,-0.00520544,0.00927834,0.00992707,-0.0108944,0.550025,0.0120256,0.0446064,1819,778,36.6836,-2.75357
602,246,36.6117,2.88446,0.00371708,-0.00466016,0.00819139,0.00872864,-0.00967173,0.549057,0.0106281,0.0458811,1826,778,36.6117,-2.88447
609,246,36.1366,2.72662,0.00313726,-0.00393027,0.00640194,0.00691598,-0.00770899,0.533216,0.00844786,0.0446342,1833,778,36.1365,-2.72661
616,246,35.76,3.06049,0,0,0,0,0,0,0,-1,1840,778,35.76,-3.0605
623,246,36.3365,3.25903,0,0,0,0,0,0,0,-1,1847,778,36.3366,-3.25901
630,246,36.9131,3.45752,0,0,0,0,0,0,0,-1,1854,778,36.9131,-3.45752
637,246,27.627,1.09131,0,0,0,0,0,0,0,-1,1861,778,27.627,-1.09128
644,246,25.1307,-0.791382,0,0,0,0,0,0,0,-1,1868,778,25.1307,0.791392
651,246,25.2106,-0.361328,-4.52674e-05,-0.00105402,-0.00148081,0.00101471,-0.002114,-0.621256,0.00184315,0.0453606,1875,778,25.2105,0.361349
658,246,25.2844,0.0847168,-0.000129417,-0.00150744,-0.00181314,0.00112122,-0.00275807,-0.60382,0.00230521,0.0261023,1882,778,25.2845,-0.0847403
665,246,25.2916,0.507629,5.69638e-05,-0.00157151,-0.00182004,0.0012366,-0.00275115,-0.575064,0.00235703,0.0228122,1889,778,25.2916,-0.507618
672,246,25.3204,0.963013,0.000124765,-0.00180375,-0.00166372,0.00108346,-0.00276244,-0.522764,0.00228988,0.0209419,1896,778,25.3204,-0.963036
679,246,25.3536,1.40009,0.000234805,-0.00162013,-0.0014867,0.00105961,-0.00244493,-0.506514,0.00207537,0.0204294,1903,778,25.3536,-1.40011
686,246,25.3494,1.81592,0.000769599,-0.000685055,-0.00156301,0.00176622,-0.00168168,-0.567631,0.00199085,0.0221884,1910,778,25.3494,-1.81589
693,246,25.2958,2.21063,0.00211969,0.000359305,-0.00150492,0.00298292,-0.000503929,-0.520787,0.00217613,0.0179469,1917,778,25.2958,-2.21061
700,246,25.2666,2.6228,0.00364272,0.00138838,-0.00161678,0.00448646,0.000544643,-0.480985,0.00282697,0.0145558,1924,778,25.2666,-2.62281
707,246,25.2545,3.05176,0.00517853,0.00244305,-0.00198016,0.00621739,0.00140419,-0.483162,0.00376518,0.0134603,1931,778,25.2545,-3.05174
714,246,25.2401,3.49329,0.00673077,0.00361631,-0.00297816,0.00853425,0.00181282,-0.544505,0.00519182,0.012713,1938,778,25.2402,-3.49331
721,246,25.2487,3.88885,0.0079718,0.00499273,-0.00461334,0.0113301,0.00163443,-0.629243,0.00707184,0.0189862,1945,778,25.2487,-3.88886
728,246,25.0988,4.32922,0,0,0,0,0,0,0,-1,1952,778,25.0988,-4.32922
735,246,24.4899,4.96265,0.00932001,0.00881054,-0.0099031,0.0189716,-0.0008411,-0.77254,0.0129372,0.0489813,1959,778,24.4899,-4.96265
742,246,24.0005,5.21588,0,0,0,0,0,0,0,-1,1966,778,24.0004,-5.21588
749,246,23.5845,5.81195,0,0,0,0,0,0,0,-1,1973,778,23.5844,-5.81195
756,246,30.751,3.95483,0,0,0,0,0,0,0,-1,1980,778,30.751,-3.95484
763,246,0,0,0,0,0,0,0,0,0,-1,1987,778,0,0
770,246,0,0,0,0,0,0,0,0,0,-1,1994,778,0,0
777,246,0,0,0,0,0,0,0,0,0,-1,2001,778,0,0
784,246,0,0,0,0,0,0,0,0,0,-1,2008,778,0,0
791,246,0,0,0,0,0,0,0,0,0,-1,2015,778,0,0
798,246,0,0,0,0,0,0,0,0,0,-1,2022,778,0,0
805,246,0,0,0,0,0,0,0,0,0,-1,2029,778,0,0
812,246,0,0,0,0,0,0,0,0,0,-1,2036,778,0,0
-700,239,0,0,0,0,0,0,0,0,0,-1,524,785,0,0
-693,239,0,0,0,0,0,0,0,0,0,-1,531,785,0,0
-686,239,0,0,0,0,0,0,0,0,0,-1,538,785,0,0
-679,239,0,0,0,0,0,0,0,0,0,-1,545,785,0,0
-672,239,0,0,0,0,0,0,0,0,0,-1,552,785,0,0
-665,239,0,0,0,0,0,0,0,0,0,-1,559,785,0,0
-658,239,0,0,0,0,0,0,0,0,0,-1,566,785,0,0
-651,239,0,0,0,0,0,0,0,0,0,-1,573,785,0,0
-644,239,0,0,0,0,0,0,0,0,0,-1,580,785,0,0
-637,239,-23.2709,0.465088,0,0,0,0,0,0,0,-1,587,785,-23.271,-0.465116
-630,239,-23.4006,0.956299,0,0,0,0,0,0,0,-1,594,785,-23.4005,-0.956285
-623,239,-23.3302,1.56317,0,0,0,0,0,0,0,-1,601,785,-23.3302,-1.56317
-616,239,-23.8334,2.11334,0,0,0,0,0,0,0,-1,608,785,-23.8334,-2.11337
-609,239,-24.415,2.79736,0,0,0,0,0,0,0,-1,615,785,-24.415,-2.79739
-602,239,-17.1165,3.1358,0,0,0,0,0,0,0,-1,622,785,-17.1164,-3.13581
-595,239,-17.0768,2.30939,0.00491445,0.00993433,-0.00571485,0.0136661,0.00118265,-0.992314,0.00874324,0.0447679,629,785,-17.0768,-2.30938
-588,239,-17.069,1.41931,0.0029057,0.00745308,-0.0038284,0.00963207,0.000726715,-1.05336,0.00619337,0.0202412,636,785,-17.069,-1.41932
-581,239,-17.1713,0.967407,0.0017144,0.00534941,-0.00248297,0.00660899,0.000454817,-1.10134,0.00426249,0.0112095,643,785,-17.1713,-0.967412
-574,239,-17.1596,0.530762,0.000808782,0.00354004,-0.00133111,0.00408145,0.00026737,-1.1845,0.00263637,0.0126651,650,785,-17.1596,-0.530745
-567,239,-17.1445,0.101624,-6.16241e-05,0.00192607,-0.000282009,0.00196531,-0.00010086,-1.43255,0.00134509,0.0145843,657,785,-17.1445,-0.101635
-560,239,-17.1657,-0.269287,-0.00114969,0.000687224,0.000741485,0.000949176,-0.00141164,1.2312,0.00137171,0.0139952,664,785,-17.1657,0.269265
-553,239,-17.1927,-0.647278,-0.00236261,-0.000234224,0.00172002,0.000724202,-0.00332103,1.06243,0.00249077,0.0149855,671,785,-17.1927,0.647256
-546,239,-17.2327,-1.04694,-0.00361076,-0.000579498,0.00251909,0.000844764,-0.00503502,1.05622,0.00367081,0.0158894,678,785,-17.2327,1.04696
-539,239,-17.2205,-1.47272,-0.00506739,-9.16349e-05,0.00290073,0.00124198,-0.006401,1.13986,0.00473592,0.0164365,685,785,-17.2205,1.47271
-532,239,-17.1812,-1.86841,-0.0062101,0.000443029,0.00300542,0.00159961,-0.00736668,1.20343,0.0055221,0.0150839,692,785,-17.1812,1.86839
-525,239,-17.2188,-2.19153,-0.00706836,0.00252347,0.00348454,0.00365569,-0.00820058,1.25663,0.00701086,0.0209895,699,785,-17.2188,2.19152
-518,239,-17.4131,-2.3457,-0.00791323,0.00580423,0.0038635,0.00681753,-0.00892652,1.3143,0.00911698,0.0495181,706,785,-17.4131,2.34568
-511,239,-17.7839,-2.65594,-0.00811077,0.00919325,0.0044779,0.0102834,-0.00920088,1.332,0.011255,0.0442605,713,785,-17.7839,2.65597
-504,239,-17.8822,-2.88892,0,0,0,0,0,0,0,-1,720,785,-17.8822,2.88894
-497,239,-26.175,1.87854,0,0,0,0,0,0,0,-1,727,785,-26.1751,-1.87857
-490,239,-26.3468,1.99243,-0.00699661,0.0255987,0.00692338,0.0270083,-0.00840621,1.36994,0.0213661,0.0432214,734,785,-26.3468,-1.99242
-483,239,-26.7728,1.2132,-0.00505278,0.0337401,0.00852448,0.0355307,-0.00684333,1.36376,0.0262671,0.047376,741,785,-26.7729,-1.21322
-476,239,-26.4326,1.43994,-0.00200562,0.0430473,0.0107456,0.045479,-0.00443731,1.34825,0.0319015,0.0408403,748,785,-26.4326,-1.43993
-469,239,-26.6929,1.09143,0.00209879,0.0527258,0.0134901,0.056096,-0.00127143,1.32598,0.0378283,0.0416755,755,785,-26.6929,-1.09145
-462,239,-26.7809,0.985657,0,0,0,0,0,0,0,-1,762,785,-26.7809,-0.98566
-455,239,0,0,0,0,0,0,0,0,0,-1,769,785,0,0
-448,239,0,0,0,0,0,0,0,0,0,-1,776,785,0,0
-441,239,0,0,0,0,0,0,0,0,0,-1,783,785,0,0
-434,239,0,0,0,0,0,0,0,0,0,-1,790,785,0,0
-427,239,0,0,0,0,0,0,0,0,0,-1,797,785,0,0
-420,239,0,0,0,0,0,0,0,0,0,-1,804,785,0,0
-413,239,0,0,0,0,0,0,0,0,0,-1,811,785,0,0
-406,239,0,0,0,0,0,0,0,0,0,-1,818,785,0,0
-399,239,0,0,0,0,0,0,0,0,0,-1,825,785,0,0
-392,239,0,0,0,0,0,0,0,0,0,-1,832,785,0,0
-385,239,0,0,0,0,0,0,0,0,0,-1,839,785,0,0
-378,239,0,0,0,0,0,0,0,0,0,-1,846,785,0,0
-371,239,0,0,0,0,0,0,0,0,0,-1,853,785,0,0
-364,239,0,0,0,0,0,0,0,0,0,-1,860,785,0,0
-357,239,0,0,0,0,0,0,0,0,0,-1,867,785,0,0
-350,239,0,0,0,0,0,0,0,0,0,-1,874,785,0,0
-343,239,0,0,0,0,0,0,0,0,0,-1,881,785,0,0
-336,239,0,0,0,0,0,0,0,0,0,-1,888,785,0,0
-329,239,0,0,0,0,0,0,0,0,0,-1,895,785,0,0
-322,239,0,0,0,0,0,0,0,0,0,-1,902,785,0,0
-315,239,0,0,0,0,0,0,0,0,0,-1,909,785,0,0
-308,239,0,0,0,0,0,0,0,0,0,-1,916,785,0,0
-301,239,0,0,0,0,0,0,0,0,0,-1,923,785,0,0
-294,239,0,0,0,0,0,0,0,0,0,-1,930,785,0,0
-287,239,0,0,0,0,0,0,0,0,0,-1,937,785,0,0
-280,239,0,0,0,0,0,0,0,0,0,-1,944,785,0,0
-273,239,0,0,0,0,0,0,0,0,0,-1,951,785,0,0
-266,239,0,0,0,0,0,0,0,0,0,-1,958,785,0,0
-259,239,0,0,0,0,0,0,0,0,0,-1,965,785,0,0
-252,239,0,0,0,0,0,0,0,0,0,-1,972,785,0,0
-245,239,0,0,0,0,0,0,0,0,0,-1,979,785,0,0
-238,239,0,0,0,0,0,0,0,0,0,-1,986,785,0,0
-231,239,0,0,0,0,0,0,0,0,0,-1,993,785,0,0
-224,239,0,0,0,0,0,0,0,0,0,-1,1000,785,0,0
-217,239,0,0,0,0,0,0,0,0,0,-1,1007,785,0,0
-210,239,0,0,0,0,0,0,0,0,0,-1,1014,785,0,0
-203,239,0,0,0,0,0,0,0,0,0,-1,1021,785,0,0
-196,239,0,0,0,0,0,0,0,0,0,-1,1028,785,0,0
-189,239,0,0,0,0,0,0,0,0,0,-1,1035,785,0,0
-182,239,0,0,0,0,0,0,0,0,0,-1,1042,785,0,0
-175,239,0,0,0,0,0,0,0,0,0,-1,1049,785,0,0
-168,239,0,0,0,0,0,0,0,0,0,-1,1056,785,0,0
-161,239,0,0,0,0,0,0,0,0,0,-1,1063,785,0,0
-154,239,0,0,0,0,0,0,0,0,0,-1,1070,785,0,0
-147,239,0,0,0,0,0,0,0,0,0,-1,1077,785,0,0
-140,239,0,0,0,0,0,0,0,0,0,-1,1084,785,0,0
-133,239,0,0,0,0,0,0,0,0,0,-1,1091,785,0,0
-126,239,0,0,0,0,0,0,0,0,0,-1,1098,785,0,0
-119,239,0,0,0,0,0,0,0,0,0,-1,1105,785,0,0
-112,239,0,0,0,0,0,0,0,0,0,-1,1112,785,0,0
-105,239,0,0,0,0,0,0,0,0,0,-1,1119,785,0,0
-98,239,0,0,0,0,0,0,0,0,0,-1,1126,785,0,0
-91,239,0,0,0,0,0,0,0,0,0,-1,1133,785,0,0
-84,239,0,0,0,0,0,0,0,0,0,-1,1140,785,0,0
-77,239,0,0,0,0,0,0,0,0,0,-1,1147,785,0,0
-70,239,0,0,0,0,0,0,0,0,0,-1,1154,785,0,0
-63,239,0,0,0,0,0,0,0,0,0,-1,1161,785,0,0
-56,239,0,0,0,0,0,0,0,0,0,-1,1168,785,0,0
-49,239,0,0,0,0,0,0,0,0,0,-1,1175,785,0,0
-42,239,0,0,0,0,0,0,0,0,0,-1,1182,785,0,0
-35,239,0,0,0,0,0,0,0,0,0,-1,1189,785,0,0
-28,239,0,0,0,0,0,0,0,0,0,-1,1196,785,0,0
-21,239,0,0,0,0,0,0,0,0,0,-1,1203,785,0,0
-14,239,0,0,0,0,0,0,0,0,0,-1,1210,785,0,0
-7,239,0,0,0,0,0,0,0,0,0,-1,1217,785,0,0
0,239,0,0,0,0,0,0,0,0,0,-1,1224,785,0,0
7,239,0,0,0,0,0,0,0,0,0,-1,1231,785,0,0
14,239,0,0,0,0,0,0,0,0,0,-1,1238,785,0,0
21,239,0,0,0,0,0,0,0,0,0,-1,1245,785,0,0
28,239,0,0,0,0,0,0,0,0,0,-1,1252,785,0,0
35,239,0,0,0,0,0,0,0,0,0,-1,1259,785,0,0
42,239,0,0,0,0,0,0,0,0,0,-1,1266,785,0,0
49,239,0,0,0,0,0,0,0,0,0,-1,1273,785,0,0
56,239,0,0,0,0,0,0,0,0,0,-1,1280,785,0,0
63,239,0,0,0,0,0,0,0,0,0,-1,1287,785,0,0
70,239,0,0,0,0,0,0,0,0,0,-1,1294,785,0,0
77,239,0,0,0,0,0,0,0,0,0,-1,1301,785,0,0
84,239,0,0,0,0,0,0,0,0,0,-1,1308,785,0,0
91,239,0,0,0,0,0,0,0,0,0,-1,1315,785,0,0
98,239,0,0,0,0,0,0,0,0,0,-1,1322,785,0,0
105,239,0,0,0,0,0,0,0,0,0,-1,1329,785,0,0
112,239,0,0,0,0,0,0,0,0,0,-1,1336,785,0,0
119,239,0,0,0,0,0,0,0,0,0,-1,1343,785,0,0
126,239,0,0,0,0,0,0,0,0,0,-1,1350,785,0,0
133,239,0,0,0,0,0,0,0,0,0,-1,1357,785,0,0
140,239,0,0,0,0,0,0,0,0,0,-1,1364,785,0,0
147,239,0,0,0,0,0,0,0,0,0,-1,1371,785,0,0
154,239,0,0,0,0,0,0,0,0,0,-1,1378,785,0,0
161,239,0,0,0,0,0,0,0,0,0,-1,1385,785,0,0
168,239,0,0,0,0,0,0,0,0,0,-1,1392,785,0,0
175,239,0,0,0,0,0,0,0,0,0,-1,1399,785,0,0
182,239,0,0,0,0,0,0,0,0,0,-1,1406,785,0,0
189,239,0,0,0,0,0,0,0,0,0,-1,1413,785,0,0
196,239,0,0,0,0,0,0,0,0,0,-1,1420,785,0,0
203,239,0,0,0,0,0,0,0,0,0,-1,1427,785,0,0
210,239,0,0,0,0,0,0,0,0,0,-1,1434,785,0,0
217,239,0,0,0,0,0,0,0,0,0,-1,1441,785,0,0
224,239,0,0,0,0,0,0,0,0,0,-1,1448,785,0,0
231,239,0,0,0,0,0,0,0,0,0,-1,1455,785,0,0
238,239,0,0,0,0,0,0,0,0,0,-1,1462,785,0,0
245,239,0,0,0,0,0,0,0,0,0,-1,1469,785,0,0
252,239,0,0,0,0,0,0,0,0,0,-1,1476,785,0,0
259,239,0,0,0,0,0,0,0,0,0,-1,1483,785,0,0
266,239,0,0,0,0,0,0,0,0,0,-1,1490,785,0,0
273,239,0,0,0,0,0,0,0,0,0,-1,1497,785,0,0
280,239,0,0,0,0,0,0,0,0,0,-1,1504,785,0,0
287,239,0,0,0,0,0,0,0,0,0,-1,1511,785,0,0
294,239,0,0,0,0,0,0,0,0,0,-1,1518,785,0,0
301,239,0,0,0,0,0,0,0,0,0,-1,1525,785,0,0
308,239,0,0,0,0,0,0,0,0,0,-1,1532,785,0,0
315,239,0,0,0,0,0,0,0,0,0,-1,1539,785,0,0
322,239,0,0,0,0,0,0,0,0,0,-1,1546,785,0,0
329,239,0,0,0,0,0,0,0,0,0,-1,1553,785,0,0
336,239,0,0,0,0,0,0,0,0,0,-1,1560,785,0,0
343,239,0,0,0,0,0,0,0,0,0,-1,1567,785,0,0
350,239,0,0,0,0,0,0,0,0,0,-1,1574,785,0,0
357,239,0,0,0,0,0,0,0,0,0,-1,1581,785,0,0
364,239,0,0,0,0,0,0,0,0,0,-1,1588,785,0,0
371,239,0,0,0,0,0,0,0,0,0,-1,1595,785,0,0
378,239,0,0,0,0,0,0,0,0,0,-1,1602,785,0,0
385,239,0,0,0,0,0,0,0,0,0,-1,1609,785,0,0
392,239,0,0,0,0,0,0,0,0,0,-1,1616,785,0,0
399,239,0,0,0,0,0,0,0,0,0,-1,1623,785,0,0
406,239,0,0,0,0,0,0,0,0,0,-1,1630,785,0,0
413,239,0,0,0,0,0,0,0,0,0,-1,1637,785,0,0
420,239,0,0,0,0,0,0,0,0,0,-1,1644,785,0,0
427,239,0,0,0,0,0,0,0,0,0,-1,1651,785,0,0
434,239,0,0,0,0,0,0,0,0,0,-1,1658,785,0,0
441,239,0,0,0,0,0,0,0,0,0,-1,1665,785,0,0
448,239,0,0,0,0,0,0,0,0,0,-1,1672,785,0,0
455,239,0,0,0,0,0,0,0,0,0,-1,1679,785,0,0
462,239,0,0,0,0,0,0,0,0,0,-1,1686,785,0,0
469,239,0,0,0,0,0,0,0,0,0,-1,1693,785,0,0
476,239,0,0,0,0,0,0,0,0,0,-1,1700,785,0,0
483,239,0,0,0,0,0,0,0,0,0,-1,1707,785,0,0
490,239,0,0,0,0,0,0,0,0,0,-1,1714,785,0,0
497,239,0,0,0,0,0,0,0,0,0,-1,1721,785,0,0
504,239,0,0,0,0,0,0,0,0,0,-1,1728,785,0,0
511,239,0,0,0,0,0,0,0,0,0,-1,1735,785,0,0
518,239,0,0,0,0,0,0,0,0,0,-1,1742,785,0,0
525,239,0,0,0,0,0,0,0,0,0,-1,1749,785,0,0
532,239,0,0,0,0,0,0,0,0,0,-1,1756,785,0,0
539,239,0,0,0,0,0,0,0,0,0,-1,1763,785,0,0
546,239,0,0,0,0,0,0,0,0,0,-1,1770,785,0,0
553,239,0,0,0,0,0,0,0,0,0,-1,1777,785,0,0
560,239,0,0,0,0,0,0,0,0,0,-1,1784,785,0,0
567,239,0,0,0,0,0,0,0,0,0,-1,1791,785,0,0
574,239,0,0,0,0,0,0,0,0,0,-1,1798,785,0,0
581,239,36.332,2.94879,0.00527069,-0.000340168,0.00418788,0.00750598,-0.00257545,0.490282,0.0060481,0.0371289,1805,785,36.3321,-2.94876
588,239,36.2655,2.95068,0.00465156,-0.00306571,0.00686346,0.00866669,-0.00708084,0.529317,0.0091072,0.0398582,1812,785,36.2655,-2.95067
595,239,36.4169,2.79938,0.00411964,-0.00354186,0.00721106,0.00845431,-0.00787653,0.541238,0.00943058,0.0358997,1819,785,36.4168,-2.79937
602,239,36.4923,2.83514,0.00367394,-0.00303179,0.00648961,0.00762564,-0.0069835,0.546958,0.00843731,0.0385388,1826,785,36.4923,-2.83516
609,239,36.3453,2.99426,0.00306792,-0.00246286,0.00499897,0.00601542,-0.00541036,0.532753,0.00659976,0.0485237,1833,785,36.3454,-2.99424
616,239,36.1371,3.0542,0,0,0,0,0,0,0,-1,1840,785,36.1371,-3.0542
623,239,36.3372,3.04608,0.00204699,-0.00151834,0.00217774,0.00307865,-0.00255,0.442412,0.00325448,0.0442296,1847,785,36.3372,-3.04611
630,239,36.5426,3.05151,0.00165637,-0.0015501,0.00116765,0.00203651,-0.00193024,0.314737,0.00229047,0.045627,1854,785,36.5426,-3.05151
637,239,36.66,3.21228,0,0,0,0,0,0,0,-1,1861,785,36.66,-3.21227
644,239,18.3466,0.735413,0,0,0,0,0,0,0,-1,1868,785,18.3465,-0.735414
651,239,25.5474,-0.389221,0,0,0,0,0,0,0,-1,1875,785,25.5474,0.389234
658,239,25.6556,0.140259,-0.000573584,-0.00140711,-0.00185773,0.000913556,-0.00289425,-0.675055,0.00229544,0.0293495,1882,785,25.6556,-0.140241
665,239,25.7596,0.557495,-0.000417411,-0.00151921,-0.0019012,0.0010111,-0.00294772,-0.644378,0.00237504,0.0151972,1889,785,25.7596,-0.557484
672,239,25.7579,0.999207,-0.00041843,-0.00183965,-0.00181744,0.000822384,-0.00308046,-0.599039,0.0023757,0.0215828,1896,785,25.758,-0.999185
679,239,25.7797,1.43713,-0.00044466,-0.00177531,-0.00170438,0.000719647,-0.00293962,-0.599312,0.00223853,0.0223804,1903,785,25.7797,-1.43711
686,239,25.7855,1.85345,-5.32906e-05,-0.0010088,-0.00177885,0.00131084,-0.00237294,-0.654206,0.00215609,0.022027,1910,785,25.7855,-1.85347
693,239,25.7405,2.21893,0.0011797,-4.80039e-05,-0.0017168,0.00238909,-0.00125739,-0.613703,0.00213883,0.0147018,1917,785,25.7405,-2.21892
700,239,25.7085,2.6319,0.00251,0.000895255,-0.00183826,0.00371038,-0.000305125,-0.578479,0.00258131,0.0108814,1924,785,25.7085,-2.6319
707,239,25.6901,3.05341,0.00371163,0.00184886,-0.00222106,0.00518869,0.000371808,-0.586864,0.00334209,0.0104808,1931,785,25.69,-3.05339
714,239,25.6777,3.47614,0.00486272,0.00291523,-0.00307385,0.00711337,0.000664576,-0.632006,0.00453698,0.0101317,1938,785,25.6778,-3.47613
721,239,25.6501,3.90222,0.00557062,0.00398468,-0.00456872,0.00941468,0.000140619,-0.699472,0.00623011,0.023283,1945,785,25.6502,-3.90222
728,239,25.5421,4.32147,0.00585742,0.00510324,-0.00659822,0.0120893,-0.00112865,-0.756854,0.00846089,0.0428112,1952,785,25.5422,-4.32146
735,239,25.6212,4.43048,0.00543124,0.00646163,-0.00935148,0.0153121,-0.00341922,-0.812917,0.0115182,0.0498979,1959,785,25.6212,-4.43051
742,239,25.3641,4.48022,0,0,0,0,0,0,0,-1,1966,785,25.3642,-4.48025
749,239,27.9839,5.09827,0,0,0,0,0,0,0,-1,1973,785,27.9839,-5.09824
756,239,30.8453,4.62732,0,0,0,0,0,0,0,-1,1980,785,30.8454,-4.6273
763,239,0,0,0,0,0,0,0,0,0,-1,1987,785,0,0
770,239,0,0,0,0,0,0,0,0,0,-1,1994,785,0,0
777,239,0,0,0,0,0,0,0,0,0,-1,2001,785,0,0
784,239,0,0,0,0,0,0,0,0,0,-1,2008,785,0,0
791,239,0,0,0,0,0,0,0,0,0,-1,2015,785,0,0
798,239,0,0,0,0,0,0,0,0,0,-1,2022,785,0,0
805,239,0,0,0,0,0,0,0,0,0,-1,2029,785,0,0
812,239,0,0,0,0,0,0,0,0,0,-1,2036,785,0,0
-700,232,0,0,0,0,0,0,0,0,0,-1,524,792,0,0
-693,232,0,0,0,0,0,0,0,0,0,-1,531,792,0,0
-686,232,0,0,0,0,0,0,0,0,0,-1,538,792,0,0
-679,232,0,0,0,0,0,0,0,0,0,-1,545,792,0,0
-672,232,0,0,0,0,0,0,0,0,0,-1,552,792,0,0
-665,232,0,0,0,0,0,0,0,0,0,-1,559,792,0,0
-658,232,0,0,0,0,0,0,0,0,0,-1,566,792,0,0
-651,232,0,0,0,0,0,0,0,0,0,-1,573,792,0,0
-644,232,-22.5826,0.269348,0,0,0,0,0,0,0,-1,580,792,-22.5826,-0.269357
-637,232,-22.0887,-0.86969,0,0,0,0,0,0,0,-1,587,792,-22.0887,0.869704
-630,232,-22.8522,1.33289,0,0,0,0,0,0,0,-1,594,792,-22.8523,-1.3329
-623,232,-24.0605,3.30249,0,0,0,0,0,0,0,-1,601,792,-24.0605,-3.30248
-616,232,-23.33,1.96783,0,0,0,0,0,0,0,-1,608,792,-23.33,-1.96785
-609,232,-24.4119,2.80933,0,0,0,0,0,0,0,-1,615,792,-24.4118,-2.80933
-602,232,-17.9376,2.34808,0,0,0,0,0,0,0,-1,622,792,-17.9376,-2.3481
-595,232,-17.6451,2.02039,0.00471018,0.00845213,-0.00514089,0.0120519,0.00111039,-0.959918,0.00769125,0.036586,629,792,-17.6451,-2.0204
-588,232,-17.538,1.39636,0.00304329,0.00643669,-0.00349779,0.00862758,0.000852405,-1.01122,0.00548969,0.0129836,636,792,-17.538,-1.39635
-581,232,-17.5616,0.961121,0.00192624,0.00458476,-0.00224742,0.0058666,0.000644408,-1.05246,0.00371494,0.0085627,643,792,-17.5616,-0.961136
-574,232,-17.5582,0.568481,0.000994967,0.00294524,-0.00110959,0.00344729,0.000492915,-1.14589,0.00215278,0.0088292,650,792,-17.5582,-0.568511
-567,232,-17.5798,0.158813,-6.84161e-05,0.00139932,-5.90722e-05,0.0014017,-7.07898e-05,-1.53064,0.000958933,0.0101873,657,792,-17.5798,-0.158828
-560,232,-17.597,-0.222656,-0.00142163,0.000403144,0.00094057,0.000801146,-0.00181964,1.17049,0.00155073,0.0136715,664,792,-17.597,0.222653
-553,232,-17.6223,-0.622498,-0.00285378,-0.00016133,0.00184995,0.000780378,-0.00379549,1.09994,0.00282659,0.0149572,671,792,-17.6223,0.622525
-546,232,-17.6931,-1.03351,-0.00421149,-8.97258e-05,0.00257651,0.00114873,-0.00544995,1.12273,0.0040706,0.0226479,678,792,-17.6931,1.03349
-539,232,-17.677,-1.43317,-0.00558535,0.000760053,0.00290479,0.00188896,-0.00671426,1.20012,0.005221,0.0277372,685,792,-17.677,1.43319
-532,232,-17.6277,-1.81805,-0.00665503,0.0015159,0.00297762,0.00248585,-0.00762499,1.25589,0.00608366,0.0228787,692,792,-17.6277,1.81805
-525,232,-17.801,-2.12988,-0.0074346,0.0035099,0.00333897,0.00444813,-0.00837283,1.29687,0.0075169,0.0413126,699,792,-17.801,2.12989
-518,232,-18.4731,-2.05011,0,0,0,0,0,0,0,-1,706,792,-18.4731,2.05013
-511,232,-18.646,-2.57092,0,0,0,0,0,0,0,-1,713,792,-18.646,2.57091
-504,232,-18.8189,-3.09167,0,0,0,0,0,0,0,-1,720,792,-18.8189,3.09169
-497,232,-26.2234,1.47296,-0.00834023,0.0180135,0.0046488,0.0188095,-0.00913624,1.40121,0.0164535,0.0423063,727,792,-26.2234,-1.47294
-490,232,-26.3822,1.40771,-0.0073638,0.0238221,0.00524416,0.0246803,-0.00822203,1.40858,0.0197725,0.0398731,734,792,-26.3822,-1.4077
-483,232,-26.7159,1.08398,-0.0053515,0.0306778,0.00606507,0.0316714,-0.00634507,1.40842,0.0235164,0.0422278,741,792,-26.7159,-1.08397
-476,232,-26.7304,0.974609,-0.00209906,0.0381957,0.00725827,0.0394633,-0.00336662,1.3979,0.0274998,0.0375189,748,792,-26.7304,-0.974624
-469,232,-26.7772,0.899353,0.00233895,0.0453101,0.00875187,0.0470242,0.000624849,1.37739,0.0311433,0.0342647,755,792,-26.7772,-0.899323
-462,232,0,0,0,0,0,0,0,0,0,-1,762,792,0,0
-455,232,0,0,0,0,0,0,0,0,0,-1,769,792,0,0
-448,232,0,0,0,0,0,0,0,0,0,-1,776,792,0,0
-441,232,0,0,0,0,0,0,0,0,0,-1,783,792,0,0
-434,232,0,0,0,0,0,0,0,0,0,-1,790,792,0,0
-427,232,0,0,0,0,0,0,0,0,0,-1,797,792,0,0
-420,232,0,0,0,0,0,0,0,0,0,-1,804,792,0,0
-413,232,0,0,0,0,0,0,0,0,0,-1,811,792,0,0
-406,232,0,0,0,0,0,0,0,0,0,-1,818,792,0,0
-399,232,0,0,0,0,0,0,0,0,0,-1,825,792,0,0
-392,232,0,0,0,0,0,0,0,0,0,-1,832,792,0,0
-385,232,0,0,0,0,0,0,0,0,0,-1,839,792,0,0
-378,232,0,0,0,0,0,0,0,0,0,-1,846,792,0,0
-371,232,0,0,0,0,0,0,0,0,0,-1,853,792,0,0
-364,232,0,0,0,0,0,0,0,0,0,-1,860,792,0,0
-357,232,0,0,0,0,0,0,0,0,0,-1,867,792,0,0
-350,232,0,0,0,0,0,0,0,0,0,-1,874,792,0,0
-343,232,0,0,0,0,0,0,0,0,0,-1,881,792,0,0
-336,232,0,0,0,0,0,0,0,0,0,-1,888,792,0,0
-329,232,0,0,0,0,0,0,0,0,0,-1,895,792,0,0
-322,232,0,0,0,0,0,0,0,0,0,-1,902,792,0,0
-315,232,0,0,0,0,0,0,0,0,0,-1,909,792,0,0
-308,232,0,0,0,0,0,0,0,0,0,-1,916,792,0,0
-301,232,0,0,0,0,0,0,0,0,0,-1,923,792,0,0
-294,232,0,0,0,0,0,0,0,0,0,-1,930,792,0,0
-287,232,0,0,0,0,0,0,0,0,0,-1,937,792,0,0
-280,232,0,0,0,0,0,0,0,0,0,-1,944,792,0,0
-273,232,0,0,0,0,0,0,0,0,0,-1,951,792,0,0
-266,232,0,0,0,0,0,0,0,0,0,-1,958,792,0,0
-259,232,0,0,0,0,0,0,0,0,0,-1,965,792,0,0
-252,232,0,0,0,0,0,0,0,0,0,-1,972,792,0,0
-245,232,0,0,0,0,0,0,0,0,0,-1,979,792,0,0
-238,232,0,0,0,0,0,0,0,0,0,-1,986,792,0,0
-231,232,0,0,0,0,0,0,0,0,0,-1,993,792,0,0
-224,232,0,0,0,0,0,0,0,0,0,-1,1000,792,0,0
-217,232,0,0,0,0,0,0,0,0,0,-1,1007,792,0,0
-210,232,0,0,0,0,0,0,0,0,0,-1,1014,792,0,0
-203,232,0,0,0,0,0,0,0,0,0,-1,1021,792,0,0
-196,232,0,0,0,0,0,0,0,0,0,-1,1028,792,0,0
-189,232,0,0,0,0,0,0,0,0,0,-1,1035,792,0,0
-182,232,0,0,0,0,0,0,0,0,0,-1,1042,792,0,0
-175,232,0,0,0,0,0,0,0,0,0,-1,1049,792,0,0
-168,232,0,0,0,0,0,0,0,0,0,-1,1056,792,0,0
-161,232,0,0,0,0,0,0,0,0,0,-1,1063,792,0,0
-154,232,0,0,0,0,0,0,0,0,0,-1,1070,792,0,0
-147,232,0,0,0,0,0,0,0,0,0,-1,1077,792,0,0
-140,232,0,0,0,0,0,0,0,0,0,-1,1084,792,0,0
-133,232,0,0,0,0,0,0,0,0,0,-1,1091,792,0,0
-126,232,0,0,0,0,0,0,0,0,0,-1,1098,792,0,0
-119,232,0,0,0,0,0,0,0,0,0,-1,1105,792,0,0
-112,232,0,0,0,0,0,0,0,0,0,-1,1112,792,0,0
-105,232,0,0,0,0,0,0,0,0,0,-1,1119,792,0,0
-98,232,0,0,0,0,0,0,0,0,0,-1,1126,792,0,0
-91,232,0,0,0,0,0,0,0,0,0,-1,1133,792,0,0
-84,232,0,0,0,0,0,0,0,0,0,-1,1140,792,0,0
-77,232,0,0,0,0,0,0,0,0,0,-1,1147,792,0,0
-70,232,0,0,0,0,0,0,0,0,0,-1,1154,792,0,0
-63,232,0,0,0,0,0,0,0,0,0,-1,1161,792,0,0
-56,232,0,0,0,0,0,0,0,0,0,-1,1168,792,0,0
-49,232,0,0,0,0,0,0,0,0,0,-1,1175,792,0,0
-42,232,0,0,0,0,0,0,0,0,0,-1,1182,792,0,0
-35,232,0,0,0,0,0,0,0,0,0,-1,1189,792,0,0
-28,232,0,0,0,0,0,0,0,0,0,-1,1196,792,0,0
-21,232,0,0,0,0,0,0,0,0,0,-1,1203,792,0,0
-14,232,0,0,0,0,0,0,0,0,0,-1,1210,792,0,0
-7,232,0,0,0,0,0,0,0,0,0,-1,1217,792,0,0
0,232,0,0,0,0,0,0,0,0,0,-1,1224,792,0,0
7,232,0,0,0,0,0,0,0,0,0,-1,1231,792,0,0
14,232,0,0,0,0,0,0,0,0,0,-1,1238,792,0,0
21,232,0,0,0,0,0,0,0,0,0,-1,1245,792,0,0
28,232,0,0,0,0,0,0,0,0,0,-1,1252,792,0,0
35,232,0,0,0,0,0,0,0,0,0,-1,1259,792,0,0
42,232,0,0,0,0,0,0,0,0,0,-1,1266,792,0,0
49,232,0,0,0,0,0,0,0,0,0,-1,1273,792,0,0
56,232,0,0,0,0,0,0,0,0,0,-1,1280,792,0,0
63,232,0,0,0,0,0,0,0,0,0,-1,1287,792,0,0
70,232,0,0,0,0,0,0,0,0,0,-1,1294,792,0,0
77,232,0,0,0,0,0,0,0,0,0,-1,1301,792,0,0
84,232,0,0,0,0,0,0,0,0,0,-1,1308,792,0,0
91,232,0,0,0,0,0,0,0,0,0,-1,1315,792,0,0
98,232,0,0,0,0,0,0,0,0,0,-1,1322,792,0,0
105,232,0,0,0,0,0,0,0,0,0,-1,1329,792,0,0
112,232,0,0,0,0,0,0,0,0,0,-1,1336,792,0,0
119,232,0,0,0,0,0,0,0,0,0,-1,1343,792,0,0
126,232,0,0,0,0,0,0,0,0,0,-1,1350,792,0,0
133,232,0,0,0,0,0,0,0,0,0,-1,1357,792,0,0
140,232,0,0,0,0,0,0,0,0,0,-1,1364,792,0,0
147,232,0,0,0,0,0,0,0,0,0,-1,1371,792,0,0
154,232,0,0,0,0,0,0,0,0,0,-1,1378,792,0,0
161,232,0,0,0,0,0,0,0,0,0,-1,1385,792,0,0
168,232,0,0,0,0,0,0,0,0,0,-1,1392,792,0,0
175,232,0,0,0,0,0,0,0,0,0,-1,1399,792,0,0
182,232,0,0,0,0,0,0,0,0,0,-1,1406,792,0,0
189,232,0,0,0,0,0,0,0,0,0,-1,1413,792,0,0
196,232,0,0,0,0,0,0,0,0,0,-1,1420,792,0,0
203,232,0,0,0,0,0,0,0,0,0,-1,1427,792,0,0
210,232,0,0,0,0,0,0,0,0,0,-1,1434,792,0,0
217,232,0,0,0,0,0,0,0,0,0,-1,1441,792,0,0
224,232,0,0,0,0,0,0,0,0,0,-1,1448,792,0,0
231,232,0,0,0,0,0,0,0,0,0,-1,1455,792,0,0
238,232,0,0,0,0,0,0,0,0,0,-1,1462,792,0,0
245,232,0,0,0,0,0,0,0,0,0,-1,1469,792,0,0
252,232,0,0,0,0,0,0,0,0,0,-1,1476,792,0,0
259,232,0,0,0,0,0,0,0,0,0,-1,1483,792,0,0
266,232,0,0,0,0,0,0,0,0,0,-1,1490,792,0,0
273,232,0,0,0,0,0,0,0,0,0,-1,1497,792,0,0
280,232,0,0,0,0,0,0,0,0,0,-1,1504,792,0,0
287,232,0,0,0,0,0,0,0,0,0,-1,1511,792,0,0
294,232,0,0,0,0,0,0,0,0,0,-1,1518,792,0,0
301,232,0,0,0,0,0,0,0,0,0,-1,1525,792,0,0
308,232,0,0,0,0,0,0,0,0,0,-1,1532,792,0,0
315,232,0,0,0,0,0,0,0,0,0,-1,1539,792,0,0
322,232,0,0,0,0,0,0,0,0,0,-1,1546,792,0,0
329,232,0,0,0,0,0,0,0,0,0,-1,1553,792,0,0
336,232,0,0,0,0,0,0,0,0,0,-1,1560,792,0,0
343,232,0,0,0,0,0,0,0,0,0,-1,1567,792,0,0
350,232,0,0,0,0,0,0,0,0,0,-1,1574,792,0,0
357,232,0,0,0,0,0,0,0,0,0,-1,1581,792,0,0
364,232,0,0,0,0,0,0,0,0,0,-1,1588,792,0,0
371,232,0,0,0,0,0,0,0,0,0,-1,1595,792,0,0
378,232,0,0,0,0,0,0,0,0,0,-1,1602,792,0,0
385,232,0,0,0,0,0,0,0,0,0,-1,1609,792,0,0
392,232,0,0,0,0,0,0,0,0,0,-1,1616,792,0,0
399,232,0,0,0,0,0,0,0,0,0,-1,1623,792,0,0
406,232,0,0,0,0,0,0,0,0,0,-1,1630,792,0,0
413,232,0,0,0,0,0,0,0,0,0,-1,1637,792,0,0
420,232,0,0,0,0,0,0,0,0,0,-1,1644,792,0,0
427,232,0,0,0,0,0,0,0,0,0,-1,1651,792,0,0
434,232,0,0,0,0,0,0,0,0,0,-1,1658,792,0,0
441,232,0,0,0,0,0,0,0,0,0,-1,1665,792,0,0
448,232,0,0,0,0,0,0,0,0,0,-1,1672,792,0,0
455,232,0,0,0,0,0,0,0,0,0,-1,1679,792,0,0
462,232,0,0,0,0,0,0,0,0,0,-1,1686,792,0,0
469,232,0,0,0,0,0,0,0,0,0,-1,1693,792,0,0
476,232,0,0,0,0,0,0,0,0,0,-1,1700,792,0,0
483,232,0,0,0,0,0,0,0,0,0,-1,1707,792,0,0
490,232,0,0,0,0,0,0,0,0,0,-1,1714,792,0,0
497,232,0,0,0,0,0,0,0,0,0,-1,1721,792,0,0
504,232,0,0,0,0,0,0,0,0,0,-1,1728,792,0,0
511,232,0,0,0,0,0,0,0,0,0,-1,1735,792,0,0
518,232,0,0,0,0,0,0,0,0,0,-1,1742,792,0,0
525,232,0,0,0,0,0,0,0,0,0,-1,1749,792,0,0
532,232,0,0,0,0,0,0,0,0,0,-1,1756,792,0,0
539,232,0,0,0,0,0,0,0,0,0,-1,1763,792,0,0
546,232,0,0,0,0,0,0,0,0,0,-1,1770,792,0,0
553,232,0,0,0,0,0,0,0,0,0,-1,1777,792,0,0
560,232,0,0,0,0,0,0,0,0,0,-1,1784,792,0,0
567,232,0,0,0,0,0,0,0,0,0,-1,1791,792,0,0
574,232,0,0,0,0,0,0,0,0,0,-1,1798,792,0,0
581,232,0,0,0,0,0,0,0,0,0,-1,1805,792,0,0
588,232,36.4067,2.8783,0.00321918,-0.00126613,0.00442772,0.00593981,-0.00398676,0.55098,0.00576796,0.0379062,1812,792,36.4067,-2.87831
595,232,36.342,2.7608,0.00302716,-0.00161482,0.00498264,0.00620286,-0.00479053,0.567434,0.00636447,0.0363126,1819,792,36.3421,-2.7608
602,232,36.3745,2.77545,0.0028344,-0.00143343,0.00476048,0.00591735,-0.00451639,0.574697,0.006042,0.0346699,1826,792,36.3745,-2.77546
609,232,36.3196,2.89398,0.00249516,-0.00112012,0.00373499,0.00483694,-0.00346191,0.560026,0.00481322,0.0393261,1833,792,36.3196,-2.89398
616,232,36.277,3.05963,0.00192894,-0.000887264,0.00246289,0.00335784,-0.00231617,0.525713,0.00329424,0.04539,1840,792,36.277,-3.05966
623,232,36.3502,2.98102,0.00148701,-0.000795872,0.00138234,0.00213826,-0.00144713,0.440281,0.00208281,0.0464531,1847,792,36.3503,-2.981
630,232,36.4611,2.75006,0.00107605,-0.00100457,0.000545231,0.00121027,-0.00113879,0.241372,0.00135644,0.0493007,1854,792,36.461,-2.75006
637,232,36.6863,2.87451,0,0,0,0,0,0,0,-1,1861,792,36.6863,-2.87452
644,232,29.3163,4.33893,0,0,0,0,0,0,0,-1,1868,792,29.3163,-4.33891
651,232,26.2972,0.0930176,0,0,0,0,0,0,0,-1,1875,792,26.2972,-0.0929955
658,232,26.2455,0.301697,-0.000979292,-0.00142291,-0.00190896,0.000720705,-0.00312291,-0.727561,0.00235916,0.0350794,1882,792,26.2455,-0.301682
665,232,26.1906,0.587646,-0.000816505,-0.00155313,-0.00199366,0.000842575,-0.00321221,-0.694057,0.00247069,0.0136396,1889,792,26.1905,-0.587626
672,232,26.1429,1.02399,-0.000824121,-0.0018906,-0.00197892,0.000692142,-0.00340686,-0.653794,0.00253367,0.0181924,1896,792,26.143,-1.02401
679,232,26.1714,1.45508,-0.00094586,-0.00189518,-0.00194622,0.000582746,-0.00342378,-0.665789,0.00249952,0.0198056,1903,792,26.1714,-1.45511
686,232,26.1676,1.86603,-0.000701152,-0.00131724,-0.00202268,0.0010368,-0.0030552,-0.709831,0.00245645,0.0183437,1910,792,26.1675,-1.86604
693,232,26.1385,2.24628,0.0003629,-0.000498878,-0.00195484,0.00193378,-0.00206976,-0.676922,0.00231189,0.0108356,1917,792,26.1386,-2.2463
700,232,26.1505,2.65039,0.0014901,0.000331381,-0.00208395,0.00307372,-0.00125224,-0.649817,0.00257034,0.012763,1924,792,26.1505,-2.65041
707,232,26.1371,3.07239,0.00243216,0.00102874,-0.0024684,0.00429665,-0.000835754,-0.646913,0.00317984,0.0125631,1931,792,26.1371,-3.07239
714,232,26.1171,3.48602,0.00334234,0.00191249,-0.00315405,0.00586147,-0.000606642,-0.673947,0.00412476,0.0131517,1938,792,26.117,-3.48603
721,232,26.1018,3.89136,0.00374922,0.00260217,-0.00447398,0.00768629,-0.0013349,-0.72165,0.00562223,0.0219293,1945,792,26.1018,-3.89138
728,232,26.0612,4.20459,0.00364813,0.0031357,-0.00629234,0.00968947,-0.00290564,-0.76505,0.00761527,0.0426699,1952,792,26.0611,-4.20456
735,232,26.2091,4.61298,0,0,0,0,0,0,0,-1,1959,792,26.2092,-4.61297
742,232,25.6461,6.00684,0,0,0,0,0,0,0,-1,1966,792,25.6461,-6.00684
749,232,28.5897,5.03833,0,0,0,0,0,0,0,-1,1973,792,28.5897,-5.03833
756,232,30.4692,4.84735,0,0,0,0,0,0,0,-1,1980,792,30.4693,-4.84735
763,232,30.5881,4.27301,0,0,0,0,0,0,0,-1,1987,792,30.5882,-4.27301
770,232,0,0,0,0,0,0,0,0,0,-1,1994,792,0,0
777,232,0,0,0,0,0,0,0,0,0,-1,2001,792,0,0
784,232,0,0,0,0,0,0,0,0,0,-1,2008,792,0,0
791,232,0,0,0,0,0,0,0,0,0,-1,2015,792,0,0
798,232,0,0,0,0,0,0,0,0,0,-1,2022,792,0,0
805,232,0,0,0,0,0,0,0,0,0,-1,2029,792,0,0
812,232,0,0,0,0,0,0,0,0,0,-1,2036,792,0,0
-700,225,0,0,0,0,0,0,0,0,0,-1,524,799,0,0
-693,225,0,0,0,0,0,0,0,0,0,-1,531,799,0,0
-686,225,0,0,0,0,0,0,0,0,0,-1,538,799,0,0
-679,225,0,0,0,0,0,0,0,0,0,-1,545,799,0,0
-672,225,0,0,0,0,0,0,0,0,0,-1,552,799,0,0
-665,225,0,0,0,0,0,0,0,0,0,-1,559,799,0,0
-658,225,0,0,0,0,0,0,0,0,0,-1,566,799,0,0
-651,225,0,0,0,0,0,0,0,0,0,-1,573,799,0,0
-644,225,-22.4099,-0.204834,0,0,0,0,0,0,0,-1,580,799,-22.4099,0.20484
-637,225,-21.7047,-0.424072,0,0,0,0,0,0,0,-1,587,799,-21.7047,0.424052
-630,225,-22.612,4.17181,0,0,0,0,0,0,0,-1,594,799,-22.612,-4.17184
-623,225,-22.8936,3.12628,0,0,0,0,0,0,0,-1,601,799,-22.8936,-3.12629
-616,225,-22.8559,1.79041,0,0,0,0,0,0,0,-1,608,799,-22.8559,-1.79038
-609,225,-18.1788,2.77649,0,0,0,0,0,0,0,-1,615,799,-18.1788,-2.77648
-602,225,-18.1529,2.28009,0.0052544,0.00867526,-0.00639118,0.0135809,0.000348738,-0.916146,0.00893997,0.0486866,622,799,-18.1529,-2.28011
-595,225,-18.0618,1.79285,0.00388757,0.00705008,-0.0045686,0.0103033,0.00063431,-0.952002,0.00666752,0.030943,629,799,-18.0618,-1.79284
-588,225,-17.9792,1.33252,0.00265787,0.0053908,-0.00308332,0.00739689,0.000651786,-0.993982,0.00472899,0.0125983,636,799,-17.9792,-1.3325
-581,225,-17.9634,0.949829,0.00170269,0.0037479,-0.00189119,0.00487525,0.000575335,-1.03324,0.00307637,0.0103177,643,799,-17.9634,-0.94985
-574,225,-17.9521,0.560791,0.000845165,0.00224348,-0.000751814,0.00257099,0.000517654,-1.15996,0.00157015,0.00830189,650,799,-17.9521,-0.560816
-567,225,-17.9763,0.16626,-0.000348308,0.000842078,0.000249112,0.000892107,-0.000398337,1.3726,0.000763002,0.010714,657,799,-17.9763,-0.166278
-560,225,-17.9985,-0.193237,-0.00187668,0.000150412,0.00114172,0.000663561,-0.00238983,1.1484,0.00185441,0.0129961,664,799,-17.9985,0.193258
-553,225,-18.0233,-0.593262,-0.00340474,-2.66123e-05,0.00191341,0.000836597,-0.00426795,1.147,0.00316128,0.0126652,671,799,-18.0233,0.59326
-546,225,-18.0848,-1.01074,-0.00473702,0.00042594,0.00252007,0.00145206,-0.00576314,1.18412,0.00440659,0.0207932,678,799,-18.0848,1.01077
-539,225,-18.0276,-1.41357,-0.00591013,0.00150923,0.00279779,0.00244598,-0.00684688,1.24771,0.00556217,0.0323115,685,799,-18.0276,1.41355
-532,225,-18.091,-1.73444,-0.00685872,0.00240161,0.00285623,0.00321171,-0.00766882,1.29443,0.00645518,0.0294328,692,799,-18.091,1.73443
-525,225,-18.4803,-1.93231,0,0,0,0,0,0,0,-1,699,799,-18.4804,1.93234
-518,225,-21.963,0.171326,0,0,0,0,0,0,0,-1,706,799,-21.9629,-0.171319
-511,225,-19.1948,-2.38464,0,0,0,0,0,0,0,-1,713,799,-19.1948,2.38467
-504,225,-26.3952,1.37927,-0.00870481,0.0128416,0.00361971,0.0134335,-0.00929665,1.40873,0.0131955,0.0459049,720,799,-26.3952,-1.37928
-497,225,-26.3839,1.24524,-0.00827113,0.0169203,0.00374033,0.0174639,-0.00881475,1.42647,0.0154435,0.0404866,727,799,-26.3838,-1.24524
-490,225,-26.5332,1.07697,-0.00711094,0.0217979,0.00392445,0.0223211,-0.00763422,1.43824,0.0179743,0.0356822,734,799,-26.5332,-1.07695
-483,225,-26.704,1.02203,-0.00467238,0.0273306,0.00413843,0.0278571,-0.00519888,1.44426,0.020525,0.0319187,741,799,-26.704,-1.02204
-476,225,-26.7032,0.963806,-0.000675486,0.0329125,0.00455449,0.0335191,-0.00128211,1.43838,0.0227855,0.0316926,748,799,-26.7032,-0.963792
-469,225,-26.7479,0.840942,0.00476816,0.037235,0.00516289,0.0380362,0.00396693,1.41683,0.024144,0.0351381,755,799,-26.7479,-0.840957
-462,225,0,0,0,0,0,0,0,0,0,-1,762,799,0,0
-455,225,0,0,0,0,0,0,0,0,0,-1,769,799,0,0
-448,225,0,0,0,0,0,0,0,0,0,-1,776,799,0,0
-441,225,0,0,0,0,0,0,0,0,0,-1,783,799,0,0
-434,225,0,0,0,0,0,0,0,0,0,-1,790,799,0,0
-427,225,0,0,0,0,0,0,0,0,0,-1,797,799,0,0
-420,225,0,0,0,0,0,0,0,0,0,-1,804,799,0,0
-413,225,0,0,0,0,0,0,0,0,0,-1,811,799,0,0
-406,225,0,0,0,0,0,0,0,0,0,-1,818,799,0,0
-399,225,0,0,0,0,0,0,0,0,0,-1,825,799,0,0
-392,225,0,0,0,0,0,0,0,0,0,-1,832,799,0,0
-385,225,0,0,0,0,0,0,0,0,0,-1,839,799,0,0
-378,225,0,0,0,0,0,0,0,0,0,-1,846,799,0,0
-371,225,0,0,0,0,0,0,0,0,0,-1,853,799,0,0
-364,225,0,0,0,0,0,0,0,0,0,-1,860,799,0,0
-357,225,0,0,0,0,0,0,0,0,0,-1,867,799,0,0
-350,225,0,0,0,0,0,0,0,0,0,-1,874,799,0,0
-343,225,0,0,0,0,0,0,0,0,0,-1,881,799,0,0
-336,225,0,0,0,0,0,0,0,0,0,-1,888,799,0,0
-329,225,0,0,0,0,0,0,0,0,0,-1,895,799,0,0
-322,225,0,0,0,0,0,0,0,0,0,-1,902,799,0,0
-315,225,0,0,0,0,0,0,0,0,0,-1,909,799,0,0
-308,225,0,0,0,0,0,0,0,0,0,-1,916,799,0,0
-301,225,0,0,0,0,0,0,0,0,0,-1,923,799,0,0
-294,225,0,0,0,0,0,0,0,0,0,-1,930,799,0,0
-287,225,0,0,0,0,0,0,0,0,0,-1,937,799,0,0
-280,225,0,0,0,0,0,0,0,0,0,-1,944,799,0,0
-273,225,0,0,0,0,0,0,0,0,0,-1,951,799,0,0
-266,225,0,0,0,0,0,0,0,0,0,-1,958,799,0,0
-259,225,0,0,0,0,0,0,0,0,0,-1,965,799,0,0
-252,225,0,0,0,0,0,0,0,0,0,-1,972,799,0,0
-245,225,0,0,0,0,0,0,0,0,0,-1,979,799,0,0
-238,225,0,0,0,0,0,0,0,0,0,-1,986,799,0,0
-231,225,0,0,0,0,0,0,0,0,0,-1,993,799,0,0
-224,225,0,0,0,0,0,0,0,0,0,-1,1000,799,0,0
-217,225,0,0,0,0,0,0,0,0,0,-1,1007,799,0,0
-210,225,0,0,0,0,0,0,0,0,0,-1,1014,799,0,0
-203,225,0,0,0,0,0,0,0,0,0,-1,1021,799,0,0
-196,225,0,0,0,0,0,0,0,0,0,-1,1028,799,0,0
-189,225,0,0,0,0,0,0,0,0,0,-1,1035,799,0,0
-182,225,0,0,0,0,0,0,0,0,0,-1,1042,799,0,0
-175,225,0,0,0,0,0,0,0,0,0,-1,1049,799,0,0
-168,225,0,0,0,0,0,0,0,0,0,-1,1056,799,0,0
-161,225,0,0,0,0,0,0,0,0,0,-1,1063,799,0,0
-154,225,0,0,0,0,0,0,0,0,0,-1,1070,799,0,0
-147,225,0,0,0,0,0,0,0,0,0,-1,1077,799,0,0
-140,225,0,0,0,0,0,0,0,0,0,-1,1084,799,0,0
-133,225,0,0,0,0,0,0,0,0,0,-1,1091,799,0,0
-126,225,0,0,0,0,0,0,0,0,0,-1,1098,799,0,0
-119,225,0,0,0,0,0,0,0,0,0,-1,1105,799,0,0
-112,225,0,0,0,0,0,0,0,0,0,-1,1112,799,0,0
-105,225,0,0,0,0,0,0,0,0,0,-1,1119,799,0,0
-98,225,0,0,0,0,0,0,0,0,0,-1,1126,799,0,0
-91,225,0,0,0,0,0,0,0,0,0,-1,1133,799,0,0
-84,225,0,0,0,0,0,0,0,0,0,-1,1140,799,0,0
-77,225,0,0,0,0,0,0,0,0,0,-1,1147,799,0,0
-70,225,0,0,0,0,0,0,0,0,0,-1,1154,799,0,0
-63,225,0,0,0,0,0,0,0,0,0,-1,1161,799,0,0
-56,225,0,0,0,0,0,0,0,0,0,-1,1168,799,0,0
-49,225,0,0,0,0,0,0,0,0,0,-1,1175,799,0,0
-42,225,0,0,0,0,0,0,0,0,0,-1,1182,799,0,0
-35,225,0,0,0,0,0,0,0,0,0,-1,1189,799,0,0
-28,225,0,0,0,0,0,0,0,0,0,-1,1196,799,0,0
-21,225,0,0,0,0,0,0,0,0,0,-1,1203,799,0,0
-14,225,0,0,0,0,0,0,0,0,0,-1,1210,799,0,0
-7,225,0,0,0,0,0,0,0,0,0,-1,1217,799,0,0
0,225,0,0,0,0,0,0,0,0,0,-1,1224,799,0,0
7,225,0,0,0,0,0,0,0,0,0,-1,1231,799,0,0
14,225,0,0,0,0,0,0,0,0,0,-1,1238,799,0,0
21,225,0,0,0,0,0,0,0,0,0,-1,1245,799,0,0
28,225,0,0,0,0,0,0,0,0,0,-1,1252,799,0,0
35,225,0,0,0,0,0,0,0,0,0,-1,1259,799,0,0
42,225,0,0,0,0,0,0,0,0,0,-1,1266,799,0,0
49,225,0,0,0,0,0,0,0,0,0,-1,1273,799,0,0
56,225,0,0,0,0,0,0,0,0,0,-1,1280,799,0,0
63,225,0,0,0,0,0,0,0,0,0,-1,1287,799,0,0
70,225,0,0,0,0,0,0,0,0,0,-1,1294,799,0,0
77,225,0,0,0,0,0,0,0,0,0,-1,1301,799,0,0
84,225,0,0,0,0,0,0,0,0,0,-1,1308,799,0,0
91,225,0,0,0,0,0,0,0,0,0,-1,1315,799,0,0
98,225,0,0,0,0,0,0,0,0,0,-1,1322,799,0,0
105,225,0,0,0,0,0,0,0,0,0,-1,1329,799,0,0
112,225,0,0,0,0,0,0,0,0,0,-1,1336,799,0,0
119,225,0,0,0,0,0,0,0,0,0,-1,1343,799,0,0
126,225,0,0,0,0,0,0,0,0,0,-1,1350,799,0,0
133,225,0,0,0,0,0,0,0,0,0,-1,1357,799,0,0
140,225,0,0,0,0,0,0,0,0,0,-1,1364,799,0,0
147,225,0,0,0,0,0,0,0,0,0,-1,1371,799,0,0
154,225,0,0,0,0,0,0,0,0,0,-1,1378,799,0,0
161,225,0,0,0,0,0,0,0,0,0,-1,1385,799,0,0
168,225,0,0,0,0,0,0,0,0,0,-1,1392,799,0,0
175,225,0,0,0,0,0,0,0,0,0,-1,1399,799,0,0
182,225,0,0,0,0,0,0,0,0,0,-1,1406,799,0,0
189,225,0,0,0,0,0,0,0,0,0,-1,1413,799,0,0
196,225,0,0,0,0,0,0,0,0,0,-1,1420,799,0,0
203,225,0,0,0,0,0,0,0,0,0,-1,1427,799,0,0
210,225,0,0,0,0,0,0,0,0,0,-1,1434,799,0,0
217,225,0,0,0,0,0,0,0,0,0,-1,1441,799,0,0
224,225,0,0,0,0,0,0,0,0,0,-1,1448,799,0,0
231,225,0,0,0,0,0,0,0,0,0,-1,1455,799,0,0
238,225,0,0,0,0,0,0,0,0,0,-1,1462,799,0,0
245,225,0,0,0,0,0,0,0,0,0,-1,1469,799,0,0
252,225,0,0,0,0,0,0,0,0,0,-1,1476,799,0,0
259,225,0,0,0,0,0,0,0,0,0,-1,1483,799,0,0
266,225,0,0,0,0,0,0,0,0,0,-1,1490,799,0,0
273,225,0,0,0,0,0,0,0,0,0,-1,1497,799,0,0
280,225,0,0,0,0,0,0,0,0,0,-1,1504,799,0,0
287,225,0,0,0,0,0,0,0,0,0,-1,1511,799,0,0
294,225,0,0,0,0,0,0,0,0,0,-1,1518,799,0,0
301,225,0,0,0,0,0,0,0,0,0,-1,1525,799,0,0
308,225,0,0,0,0,0,0,0,0,0,-1,1532,799,0,0
315,225,0,0,0,0,0,0,0,0,0,-1,1539,799,0,0
322,225,0,0,0,0,0,0,0,0,0,-1,1546,799,0,0
329,225,0,0,0,0,0,0,0,0,0,-1,1553,799,0,0
336,225,0,0,0,0,0,0,0,0,0,-1,1560,799,0,0
343,225,0,0,0,0,0,0,0,0,0,-1,1567,799,0,0
350,225,0,0,0,0,0,0,0,0,0,-1,1574,799,0,0
357,225,0,0,0,0,0,0,0,0,0,-1,1581,799,0,0
364,225,0,0,0,0,0,0,0,0,0,-1,1588,799,0,0
371,225,0,0,0,0,0,0,0,0,0,-1,1595,799,0,0
378,225,0,0,0,0,0,0,0,0,0,-1,1602,799,0,0
385,225,0,0,0,0,0,0,0,0,0,-1,1609,799,0,0
392,225,0,0,0,0,0,0,0,0,0,-1,1616,799,0,0
399,225,0,0,0,0,0,0,0,0,0,-1,1623,799,0,0
406,225,0,0,0,0,0,0,0,0,0,-1,1630,799,0,0
413,225,0,0,0,0,0,0,0,0,0,-1,1637,799,0,0
420,225,0,0,0,0,0,0,0,0,0,-1,1644,799,0,0
427,225,0,0,0,0,0,0,0,0,0,-1,1651,799,0,0
434,225,0,0,0,0,0,0,0,0,0,-1,1658,799,0,0
441,225,0,0,0,0,0,0,0,0,0,-1,1665,799,0,0
448,225,0,0,0,0,0,0,0,0,0,-1,1672,799,0,0
455,225,0,0,0,0,0,0,0,0,0,-1,1679,799,0,0
462,225,0,0,0,0,0,0,0,0,0,-1,1686,799,0,0
469,225,0,0,0,0,0,0,0,0,0,-1,1693,799,0,0
476,225,0,0,0,0,0,0,0,0,0,-1,1700,799,0,0
483,225,0,0,0,0,0,0,0,0,0,-1,1707,799,0,0
490,225,0,0,0,0,0,0,0,0,0,-1,1714,799,0,0
497,225,0,0,0,0,0,0,0,0,0,-1,1721,799,0,0
504,225,0,0,0,0,0,0,0,0,0,-1,1728,799,0,0
511,225,0,0,0,0,0,0,0,0,0,-1,1735,799,0,0
518,225,0,0,0,0,0,0,0,0,0,-1,1742,799,0,0
525,225,0,0,0,0,0,0,0,0,0,-1,1749,799,0,0
532,225,0,0,0,0,0,0,0,0,0,-1,1756,799,0,0
539,225,0,0,0,0,0,0,0,0,0,-1,1763,799,0,0
546,225,0,0,0,0,0,0,0,0,0,-1,1770,799,0,0
553,225,0,0,0,0,0,0,0,0,0,-1,1777,799,0,0
560,225,0,0,0,0,0,0,0,0,0,-1,1784,799,0,0
567,225,0,0,0,0,0,0,0,0,0,-1,1791,799,0,0
574,225,0,0,0,0,0,0,0,0,0,-1,1798,799,0,0
581,225,0,0,0,0,0,0,0,0,0,-1,1805,799,0,0
588,225,36.4501,2.72418,0.00207148,0.000287595,0.0027736,0.00409302,-0.00173395,0.629829,0.00345489,0.0398949,1812,799,36.4501,-2.72416
595,225,36.3773,2.7312,0.00197402,0.000130189,0.00318561,0.00436843,-0.00226422,0.644546,0.00389307,0.0366378,1819,799,36.3773,-2.73117
602,225,36.3818,2.74738,0.00191711,-4.63316e-05,0.00326692,0.00434662,-0.00247584,0.639438,0.00398801,0.0333383,1826,799,36.3818,-2.7474
609,225,36.3616,2.79022,0.00181277,7.90332e-05,0.00275931,0.00383818,-0.00194638,0.6332,0.00339873,0.0320353,1833,799,36.3615,-2.79023
616,225,36.3381,2.81799,0.00133721,-7.63479e-06,0.00175953,0.00254843,-0.00121885,0.602881,0.00221974,0.0375999,1840,799,36.3381,-2.818
623,225,36.4192,2.86499,0.000855599,-0.000218674,0.00084481,0.00131957,-0.000682647,0.502231,0.00117532,0.0421561,1847,799,36.4192,-2.86498
630,225,36.6014,2.80212,0.00043626,-0.000574954,0.000125918,0.000451704,-0.000590398,0.122039,0.000603431,0.0461245,1854,799,36.6014,-2.80213
637,225,36.5736,2.82196,0,0,0,0,0,0,0,-1,1861,799,36.5736,-2.82194
644,225,28.5388,0.531677,0,0,0,0,0,0,0,-1,1868,799,28.5388,-0.531677
651,225,27.9657,0.579529,0,0,0,0,0,0,0,-1,1875,799,27.9657,-0.579541
658,225,27.2491,0.716675,-0.00144884,-0.00145842,-0.0018864,0.000432776,-0.00334004,-0.784128,0.00238408,0.0489775,1882,799,27.2491,-0.716664
665,225,26.6996,0.653137,-0.00128414,-0.00160271,-0.00201551,0.000578364,-0.00346522,-0.745965,0.00252511,0.018921,1889,799,26.6996,-0.653161
672,225,26.5845,1.05212,-0.00128151,-0.00190731,-0.00204695,0.000476313,-0.00366513,-0.709554,0.00261668,0.0179078,1896,799,26.5845,-1.05211
679,225,26.5751,1.4848,-0.0014738,-0.00195397,-0.00205616,0.000356245,-0.00378401,-0.72728,0.00264942,0.0171798,1903,799,26.5751,-1.48482
686,225,26.5695,1.86304,-0.00135957,-0.00151138,-0.00211709,0.000682979,-0.00355392,-0.767479,0.00262671,0.0109581,1910,799,26.5695,-1.86303
693,225,26.5529,2.25647,-0.000462705,-0.000813771,-0.00204515,0.00141444,-0.00269091,-0.742589,0.00240811,0.0107995,1917,799,26.5528,-2.25647
700,225,26.5533,2.6626,0.000489303,-5.345e-05,-0.00217633,0.00241111,-0.00197526,-0.723371,0.00253664,0.011911,1924,799,26.5533,-2.66259
707,225,26.5338,3.08386,0.00123902,0.000420756,-0.00249609,0.00335929,-0.00169951,-0.704165,0.00297264,0.0114369,1931,799,26.5338,-3.08386
714,225,26.5356,3.50073,0.00200164,0.00116845,-0.00296543,0.0045796,-0.00140951,-0.715613,0.00361567,0.0127632,1938,799,26.5357,-3.50076
721,225,26.5615,3.9115,0.00227085,0.00156851,-0.00404387,0.00597877,-0.0021394,-0.742087,0.00485861,0.0163615,1945,799,26.5615,-3.91148
728,225,26.4899,4.17236,0.00199393,0.0016654,-0.00556876,0.00740085,-0.00374151,-0.770654,0.00654767,0.0303073,1952,799,26.4899,-4.17234
735,225,26.6921,4.82782,0,0,0,0,0,0,0,-1,1959,799,26.6921,-4.82785
742,225,29.0922,3.2132,0,0,0,0,0,0,0,-1,1966,799,29.0921,-3.21322
749,225,27.3597,5.76422,0,0,0,0,0,0,0,-1,1973,799,27.3597,-5.76422
756,225,29.1997,4.6322,0,0,0,0,0,0,0,-1,1980,799,29.1997,-4.63222
763,225,30.1676,4.34607,0,0,0,0,0,0,0,-1,1987,799,30.1676,-4.34606
770,225,0,0,0,0,0,0,0,0,0,-1,1994,799,0,0
777,225,0,0,0,0,0,0,0,0,0,-1,2001,799,0,0
784,225,0,0,0,0,0,0,0,0,0,-1,2008,799,0,0
791,225,0,0,0,0,0,0,0,0,0,-1,2015,799,0,0
798,225,0,0,0,0,0,0,0,0,0,-1,2022,799,0,0
805,225,0,0,0,0,0,0,0,0,0,-1,2029,799,0,0
812,225,0,0,0,0,0,0,0,0,0,-1,2036,799,0,0
-700,218,0,0,0,0,0,0,0,0,0,-1,524,806,0,0
-693,218,0,0,0,0,0,0,0,0,0,-1,531,806,0,0
-686,218,0,0,0,0,0,0,0,0,0,-1,538,806,0,0
-679,218,0,0,0,0,0,0,0,0,0,-1,545,806,0,0
-672,218,0,0,0,0,0,0,0,0,0,-1,552,806,0,0
-665,218,0,0,0,0,0,0,0,0,0,-1,559,806,0,0
-658,218,0,0,0,0,0,0,0,0,0,-1,566,806,0,0
-651,218,-18.4471,5.80664,0,0,0,0,0,0,0,-1,573,806,-18.4471,-5.80666
-644,218,-18.1039,6.55524,0,0,0,0,0,0,0,-1,580,806,-18.104,-6.55521
-637,218,-21.2309,0.131348,0,0,0,0,0,0,0,-1,587,806,-21.2309,-0.131356
-630,218,-21.6902,4.28424,0,0,0,0,0,0,0,-1,594,806,-21.6903,-4.28424
-623,218,-22.0089,3.22638,0,0,0,0,0,0,0,-1,601,806,-22.0089,-3.2264
-616,218,-19.3398,2.74579,0,0,0,0,0,0,0,-1,608,806,-19.3399,-2.74581
-609,218,-18.8569,2.48987,0.00544449,0.00827986,-0.00520932,0.012261,0.00146339,-0.918253,0.00773248,0.0499679,615,806,-18.8568,-2.4899
-602,218,-18.3612,2.09753,0.00396621,0.00737378,-0.00475503,0.0107211,0.000618941,-0.957429,0.00695025,0.0408789,622,806,-18.3612,-2.09755
-595,218,-18.4022,1.70679,0.00285569,0.00587521,-0.00364704,0.00831264,0.000418262,-0.981643,0.00540773,0.0185264,629,806,-18.4021,-1.70678
-588,218,-18.3691,1.33063,0.00200157,0.00438716,-0.00246558,0.00593331,0.000455417,-1.01069,0.00381281,0.0113097,636,806,-18.3691,-1.33062
-581,218,-18.3665,0.966309,0.00124095,0.00295644,-0.00131896,0.00367203,0.000525358,-1.0737,0.00229305,0.0104899,643,806,-18.3665,-0.966292
-574,218,-18.3751,0.5755,0.000516797,0.00159199,-0.000215105,0.00163343,0.00047536,-1.38049,0.00097013,0.0102999,650,806,-18.3751,-0.575504
-567,218,-18.3718,0.171997,-0.000745689,0.0003777,0.000664549,0.000686135,-0.00105412,1.13626,0.0010122,0.0165206,657,806,-18.3718,-0.171979
-560,218,-18.3826,-0.194885,-0.00235103,-4.90109e-05,0.00136194,0.000583151,-0.0029832,1.13623,0.00220899,0.0173134,664,806,-18.3826,0.194883
-553,218,-18.3858,-0.601318,-0.00385447,8.05879e-05,0.00191005,0.000855222,-0.0046291,1.18551,0.00340711,0.0183429,671,806,-18.3858,0.601343
-546,218,-18.4419,-1.07654,-0.00503053,0.000774984,0.00232293,0.00159002,-0.00584557,1.23335,0.00452123,0.0172347,678,806,-18.4419,1.07652
-539,218,-18.4485,-1.49457,-0.00596072,0.0019158,0.00252993,0.0026584,-0.00670332,1.28529,0.00557062,0.0268924,685,806,-18.4485,1.49459
-532,218,-18.5592,-1.67438,-0.00677284,0.00285877,0.0025519,0.00349312,-0.00740719,1.32716,0.00642711,0.0334319,692,806,-18.5592,1.67436
-525,218,-18.8948,-1.78302,0,0,0,0,0,0,0,-1,699,806,-18.8949,1.78304
-518,218,-23.61,2.54181,0,0,0,0,0,0,0,-1,706,806,-23.61,-2.54183
-511,218,-26.236,1.59637,0,0,0,0,0,0,0,-1,713,806,-26.236,-1.59639
-504,218,-26.3235,1.36353,-0.00832155,0.0121323,0.0028111,0.0125116,-0.00870086,1.43667,0.0123127,0.0470699,720,806,-26.3235,-1.36354
-497,218,-26.4614,1.18585,-0.00772798,0.0156307,0.00269871,0.0159384,-0.00803571,1.45726,0.0140899,0.0470152,727,806,-26.4613,-1.18587
-490,218,-26.616,1.04767,-0.00627766,0.0196023,0.00252724,0.0198468,-0.00652215,1.47436,0.0158588,0.035788,734,806,-26.616,-1.04768
-483,218,-26.6448,1.05524,-0.00325153,0.0237334,0.00220528,0.0239124,-0.00343057,1.48979,0.0171996,0.0317591,741,806,-26.6448,-1.05524
-476,218,-26.5812,1.03064,0.00158942,0.0271887,0.00201126,0.0273458,0.00143237,1.49287,0.0177723,0.0340809,748,806,-26.5812,-1.03064
-469,218,0,0,0,0,0,0,0,0,0,-1,755,806,0,0
-462,218,0,0,0,0,0,0,0,0,0,-1,762,806,0,0
-455,218,0,0,0,0,0,0,0,0,0,-1,769,806,0,0
-448,218,0,0,0,0,0,0,0,0,0,-1,776,806,0,0
-441,218,0,0,0,0,0,0,0,0,0,-1,783,806,0,0
-434,218,0,0,0,0,0,0,0,0,0,-1,790,806,0,0
-427,218,0,0,0,0,0,0,0,0,0,-1,797,806,0,0
-420,218,0,0,0,0,0,0,0,0,0,-1,804,806,0,0
-413,218,0,0,0,0,0,0,0,0,0,-1,811,806,0,0
-406,218,0,0,0,0,0,0,0,0,0,-1,818,806,0,0
-399,218,0,0,0,0,0,0,0,0,0,-1,825,806,0,0
-392,218,0,0,0,0,0,0,0,0,0,-1,832,806,0,0
-385,218,0,0,0,0,0,0,0,0,0,-1,839,806,0,0
-378,218,0,0,0,0,0,0,0,0,0,-1,846,806,0,0
-371,218,0,0,0,0,0,0,0,0,0,-1,853,806,0,0
-364,218,0,0,0,0,0,0,0,0,0,-1,860,806,0,0
-357,218,0,0,0,0,0,0,0,0,0,-1,867,806,0,0
-350,218,0,0,0,0,0,0,0,0,0,-1,874,806,0,0
-343,218,0,0,0,0,0,0,0,0,0,-1,881,806,0,0
-336,218,0,0,0,0,0,0,0,0,0,-1,888,806,0,0
-329,218,0,0,0,0,0,0,0,0,0,-1,895,806,0,0
-322,218,0,0,0,0,0,0,0,0,0,-1,902,806,0,0
-315,218,0,0,0,0,0,0,0,0,0,-1,909,806,0,0
-308,218,0,0,0,0,0,0,0,0,0,-1,916,806,0,0
-301,218,0,0,0,0,0,0,0,0,0,-1,923,806,0,0
-294,218,0,0,0,0,0,0,0,0,0,-1,930,806,0,0
-287,218,0,0,0,0,0,0,0,0,0,-1,937,806,0,0
-280,218,0,0,0,0,0,0,0,0,0,-1,944,806,0,0
-273,218,0,0,0,0,0,0,0,0,0,-1,951,806,0,0
-266,218,0,0,0,0,0,0,0,0,0,-1,958,806,0,0
-259,218,0,0,0,0,0,0,0,0,0,-1,965,806,0,0
-252,218,0,0,0,0,0,0,0,0,0,-1,972,806,0,0
-245,218,0,0,0,0,0,0,0,0,0,-1,979,806,0,0
-238,218,0,0,0,0,0,0,0,0,0,-1,986,806,0,0
-231,218,0,0,0,0,0,0,0,0,0,-1,993,806,0,0
-224,218,0,0,0,0,0,0,0,0,0,-1,1000,806,0,0
-217,218,0,0,0,0,0,0,0,0,0,-1,1007,806,0,0
-210,218,0,0,0,0,0,0,0,0,0,-1,1014,806,0,0
-203,218,0,0,0,0,0,0,0,0,0,-1,1021,806,0,0
-196,218,0,0,0,0,0,0,0,0,0,-1,1028,806,0,0
-189,218,0,0,0,0,0,0,0,0,0,-1,1035,806,0,0
-182,218,0,0,0,0,0,0,0,0,0,-1,1042,806,0,0
-175,218,0,0,0,0,0,0,0,0,0,-1,1049,806,0,0
-168,218,0,0,0,0,0,0,0,0,0,-1,1056,806,0,0
-161,218,0,0,0,0,0,0,0,0,0,-1,1063,806,0,0
-154,218,0,0,0,0,0,0,0,0,0,-1,1070,806,0,0
-147,218,0,0,0,0,0,0,0,0,0,-1,1077,806,0,0
-140,218,0,0,0,0,0,0,0,0,0,-1,1084,806,0,0
-133,218,0,0,0,0,0,0,0,0,0,-1,1091,806,0,0
-126,218,0,0,0,0,0,0,0,0,0,-1,1098,806,0,0
-119,218,0,0,0,0,0,0,0,0,0,-1,1105,806,0,0
-112,218,0,0,0,0,0,0,0,0,0,-1,1112,806,0,0
-105,218,0,0,0,0,0,0,0,0,0,-1,1119,806,0,0
-98,218,0,0,0,0,0,0,0,0,0,-1,1126,806,0,0
-91,218,0,0,0,0,0,0,0,0,0,-1,1133,806,0,0
-84,218,0,0,0,0,0,0,0,0,0,-1,1140,806,0,0
-77,218,0,0,0,0,0,0,0,0,0,-1,1147,806,0,0
-70,218,0,0,0,0,0,0,0,0,0,-1,1154,806,0,0
-63,218,0,0,0,0,0,0,0,0,0,-1,1161,806,0,0
-56,218,0,0,0,0,0,0,0,0,0,-1,1168,806,0,0
-49,218,0,0,0,0,0,0,0,0,0,-1,1175,806,0,0
-42,218,0,0,0,0,0,0,0,0,0,-1,1182,806,0,0
-35,218,0,0,0,0,0,0,0,0,0,-1,1189,806,0,0
-28,218,0,0,0,0,0,0,0,0,0,-1,1196,806,0,0
-21,218,0,0,0,0,0,0,0,0,0,-1,1203,806,0,0
-14,218,0,0,0,0,0,0,0,0,0,-1,1210,806,0,0
-7,218,0,0,0,0,0,0,0,0,0,-1,1217,806,0,0
0,218,0,0,0,0,0,0,0,0,0,-1,1224,806,0,0
7,218,0,0,0,0,0,0,0,0,0,-1,1231,806,0,0
14,218,0,0,0,0,0,0,0,0,0,-1,1238,806,0,0
21,218,0,0,0,0,0,0,0,0,0,-1,1245,806,0,0
28,218,0,0,0,0,0,0,0,0,0,-1,1252,806,0,0
35,218,0,0,0,0,0,0,0,0,0,-1,1259,806,0,0
42,218,0,0,0,0,0,0,0,0,0,-1,1266,806,0,0
49,218,0,0,0,0,0,0,0,0,0,-1,1273,806,0,0
56,218,0,0,0,0,0,0,0,0,0,-1,1280,806,0,0
63,218,0,0,0,0,0,0,0,0,0,-1,1287,806,0,0
70,218,0,0,0,0,0,0,0,0,0,-1,1294,806,0,0
77,218,0,0,0,0,0,0,0,0,0,-1,1301,806,0,0
84,218,0,0,0,0,0,0,0,0,0,-1,1308,806,0,0
91,218,0,0,0,0,0,0,0,0,0,-1,1315,806,0,0
98,218,0,0,0,0,0,0,0,0,0,-1,1322,806,0,0
105,218,0,0,0,0,0,0,0,0,0,-1,1329,806,0,0
112,218,0,0,0,0,0,0,0,0,0,-1,1336,806,0,0
119,218,0,0,0,0,0,0,0,0,0,-1,1343,806,0,0
126,218,0,0,0,0,0,0,0,0,0,-1,1350,806,0,0
133,218,0,0,0,0,0,0,0,0,0,-1,1357,806,0,0
140,218,0,0,0,0,0,0,0,0,0,-1,1364,806,0,0
147,218,0,0,0,0,0,0,0,0,0,-1,1371,806,0,0
154,218,0,0,0,0,0,0,0,0,0,-1,1378,806,0,0
161,218,0,0,0,0,0,0,0,0,0,-1,1385,806,0,0
168,218,0,0,0,0,0,0,0,0,0,-1,1392,806,0,0
175,218,0,0,0,0,0,0,0,0,0,-1,1399,806,0,0
182,218,0,0,0,0,0,0,0,0,0,-1,1406,806,0,0
189,218,0,0,0,0,0,0,0,0,0,-1,1413,806,0,0
196,218,0,0,0,0,0,0,0,0,0,-1,1420,806,0,0
203,218,0,0,0,0,0,0,0,0,0,-1,1427,806,0,0
210,218,0,0,0,0,0,0,0,0,0,-1,1434,806,0,0
217,218,0,0,0,0,0,0,0,0,0,-1,1441,806,0,0
224,218,0,0,0,0,0,0,0,0,0,-1,1448,806,0,0
231,218,0,0,0,0,0,0,0,0,0,-1,1455,806,0,0
238,218,0,0,0,0,0,0,0,0,0,-1,1462,806,0,0
245,218,0,0,0,0,0,0,0,0,0,-1,1469,806,0,0
252,218,0,0,0,0,0,0,0,0,0,-1,1476,806,0,0
259,218,0,0,0,0,0,0,0,0,0,-1,1483,806,0,0
266,218,0,0,0,0,0,0,0,0,0,-1,1490,806,0,0
273,218,0,0,0,0,0,0,0,0,0,-1,1497,806,0,0
280,218,0,0,0,0,0,0,0,0,0,-1,1504,806,0,0
287,218,0,0,0,0,0,0,0,0,0,-1,1511,806,0,0
294,218,0,0,0,0,0,0,0,0,0,-1,1518,806,0,0
301,218,0,0,0,0,0,0,0,0,0,-1,1525,806,0,0
308,218,0,0,0,0,0,0,0,0,0,-1,1532,806,0,0
315,218,0,0,0,0,0,0,0,0,0,-1,1539,806,0,0
322,218,0,0,0,0,0,0,0,0,0,-1,1546,806,0,0
329,218,0,0,0,0,0,0,0,0,0,-1,1553,806,0,0
336,218,0,0,0,0,0,0,0,0,0,-1,1560,806,0,0
343,218,0,0,0,0,0,0,0,0,0,-1,1567,806,0,0
350,218,0,0,0,0,0,0,0,0,0,-1,1574,806,0,0
357,218,0,0,0,0,0,0,0,0,0,-1,1581,806,0,0
364,218,0,0,0,0,0,0,0,0,0,-1,1588,806,0,0
371,218,0,0,0,0,0,0,0,0,0,-1,1595,806,0,0
378,218,0,0,0,0,0,0,0,0,0,-1,1602,806,0,0
385,218,0,0,0,0,0,0,0,0,0,-1,1609,806,0,0
392,218,0,0,0,0,0,0,0,0,0,-1,1616,806,0,0
399,218,0,0,0,0,0,0,0,0,0,-1,1623,806,0,0
406,218,0,0,0,0,0,0,0,0,0,-1,1630,806,0,0
413,218,0,0,0,0,0,0,0,0,0,-1,1637,806,0,0
420,218,0,0,0,0,0,0,0,0,0,-1,1644,806,0,0
427,218,0,0,0,0,0,0,0,0,0,-1,1651,806,0,0
434,218,0,0,0,0,0,0,0,0,0,-1,1658,806,0,0
441,218,0,0,0,0,0,0,0,0,0,-1,1665,806,0,0
448,218,0,0,0,0,0,0,0,0,0,-1,1672,806,0,0
455,218,0,0,0,0,0,0,0,0,0,-1,1679,806,0,0
462,218,0,0,0,0,0,0,0,0,0,-1,1686,806,0,0
469,218,0,0,0,0,0,0,0,0,0,-1,1693,806,0,0
476,218,0,0,0,0,0,0,0,0,0,-1,1700,806,0,0
483,218,0,0,0,0,0,0,0,0,0,-1,1707,806,0,0
490,218,0,0,0,0,0,0,0,0,0,-1,1714,806,0,0
497,218,0,0,0,0,0,0,0,0,0,-1,1721,806,0,0
504,218,0,0,0,0,0,0,0,0,0,-1,1728,806,0,0
511,218,0,0,0,0,0,0,0,0,0,-1,1735,806,0,0
518,218,0,0,0,0,0,0,0,0,0,-1,1742,806,0,0
525,218,0,0,0,0,0,0,0,0,0,-1,1749,806,0,0
532,218,0,0,0,0,0,0,0,0,0,-1,1756,806,0,0
539,218,0,0,0,0,0,0,0,0,0,-1,1763,806,0,0
546,218,0,0,0,0,0,0,0,0,0,-1,1770,806,0,0
553,218,0,0,0,0,0,0,0,0,0,-1,1777,806,0,0
560,218,0,0,0,0,0,0,0,0,0,-1,1784,806,0,0
567,218,0,0,0,0,0,0,0,0,0,-1,1791,806,0,0
574,218,0,0,0,0,0,0,0,0,0,-1,1798,806,0,0
581,218,0,0,0,0,0,0,0,0,0,-1,1805,806,0,0
588,218,0,0,0,0,0,0,0,0,0,-1,1812,806,0,0
595,218,36.3486,2.89465,0.00102294,0.00252828,0.000824593,0.00289206,0.000659159,1.15531,0.0017502,0.039417,1819,806,36.3486,-2.89466
602,218,36.3927,2.84375,0.00120137,0.00199506,0.000995563,0.00266996,0.000526473,0.975052,0.00163302,0.0329995,1826,806,36.3927,-2.84377
609,218,36.3998,2.83917,0.00137816,0.00192487,0.00113503,0.002819,0.000484025,0.903565,0.00174057,0.0291608,1833,806,36.3998,-2.83919
616,218,36.3185,2.83868,0.00100746,0.00141236,0.000622309,0.00186432,0.000555498,0.942662,0.00110527,0.0309744,1840,806,36.3185,-2.83871
623,218,36.3167,2.83289,0.000480897,0.000783463,5.78786e-05,0.000794157,0.000470203,1.38809,0.000461091,0.0355947,1847,806,36.3167,-2.83291
630,218,36.4237,2.86066,-2.19699e-05,0.000168496,-0.000424158,0.000507981,-0.000361454,-0.895828,0.000504339,0.0404293,1854,806,36.4237,-2.86068
637,218,36.4305,2.79077,-0.000667877,-0.000234289,-0.000861895,0.00043766,-0.00133983,-0.908608,0.00106939,0.0386468,1861,806,36.4305,-2.79077
644,218,36.5334,2.67413,0,0,0,0,0,0,0,-1,1868,806,36.5335,-2.67413
651,218,28.8042,0.848022,0,0,0,0,0,0,0,-1,1875,806,28.8042,-0.848027
658,218,28.0272,1.1424,0,0,0,0,0,0,0,-1,1882,806,28.0273,-1.14238
665,218,27.3151,0.796204,-0.00170291,-0.00149418,-0.0019465,0.000350744,-0.00354784,-0.812181,0.00249039,0.0478597,1889,806,27.3151,-0.796178
672,218,27.0881,1.09155,-0.0016596,-0.00177489,-0.00199044,0.00027403,-0.00370852,-0.770921,0.00256857,0.0152094,1896,806,27.0881,-1.09152
679,218,27.0361,1.49347,-0.00185181,-0.00188957,-0.00202923,0.000158626,-0.0039,-0.780746,0.00265446,0.0113522,1903,806,27.0361,-1.49346
686,218,27.0079,1.85968,-0.00181649,-0.00158022,-0.00209707,0.000402044,-0.00379875,-0.813534,0.0026766,0.010977,1910,806,27.008,-1.85968
693,218,26.9879,2.26849,-0.00107511,-0.0010327,-0.00205778,0.00100398,-0.0031118,-0.790551,0.00247794,0.0121696,1917,806,26.9879,-2.26848
700,218,26.9574,2.67462,-0.000296979,-0.000385729,-0.00222181,0.0018809,-0.00256361,-0.775413,0.00257611,0.0103089,1924,806,26.9573,-2.67459
707,218,26.9376,3.08209,0.000259281,-0.000137809,-0.00248097,0.00254964,-0.00242817,-0.74547,0.00287422,0.00754816,1931,806,26.9376,-3.08212
714,218,26.9489,3.49774,0.000871706,0.000484071,-0.00275917,0.00344386,-0.00208808,-0.750333,0.00322568,0.00983272,1938,806,26.9489,-3.49773
721,218,26.9788,3.90472,0.00103974,0.000658597,-0.00361834,0.00447252,-0.00277418,-0.759089,0.00422201,0.0134466,1945,806,26.9788,-3.90475
728,218,26.9719,4.33545,0.000647436,0.000456507,-0.00487414,0.00542704,-0.0043231,-0.775606,0.00564126,0.0215725,1952,806,26.972,-4.33548
735,218,27.0221,4.78192,-0.000352296,-0.000160802,-0.00648149,0.00622565,-0.00673875,-0.792784,0.00748695,0.0395678,1959,806,27.0221,-4.78192
742,218,27.6333,4.60547,0,0,0,0,0,0,0,-1,1966,806,27.6333,-4.60548
749,218,27.3325,4.55817,0,0,0,0,0,0,0,-1,1973,806,27.3325,-4.55816
756,218,27.1351,4.90143,0,0,0,0,0,0,0,-1,1980,806,27.1352,-4.90143
763,218,29.7853,4.39374,0,0,0,0,0,0,0,-1,1987,806,29.7853,-4.39376
770,218,0,0,0,0,0,0,0,0,0,-1,1994,806,0,0
777,218,0,0,0,0,0,0,0,0,0,-1,2001,806,0,0
784,218,0,0,0,0,0,0,0,0,0,-1,2008,806,0,0
791,218,0,0,0,0,0,0,0,0,0,-1,2015,806,0,0
798,218,0,0,0,0,0,0,0,0,0,-1,2022,806,0,0
805,218,0,0,0,0,0,0,0,0,0,-1,2029,806,0,0
812,218,0,0,0,0,0,0,0,0,0,-1,2036,806,0,0
-700,211,0,0,0,0,0,0,0,0,0,-1,524,813,0,0
-693,211,0,0,0,0,0,0,0,0,0,-1,531,813,0,0
-686,211,0,0,0,0,0,0,0,0,0,-1,538,813,0,0
-679,211,0,0,0,0,0,0,0,0,0,-1,545,813,0,0
-672,211,0,0,0,0,0,0,0,0,0,-1,552,813,0,0
-665,211,0,0,0,0,0,0,0,0,0,-1,559,813,0,0
-658,211,0,0,0,0,0,0,0,0,0,-1,566,813,0,0
-651,211,-19.0734,5.33337,0,0,0,0,0,0,0,-1,573,813,-19.0734,-5.3334
-644,211,-18.396,5.77808,0,0,0,0,0,0,0,-1,580,813,-18.396,-5.7781
-637,211,-17.9563,6.49323,0,0,0,0,0,0,0,-1,587,813,-17.9563,-6.49322
-630,211,-20.3254,3.85083,0,0,0,0,0,0,0,-1,594,813,-20.3255,-3.85086
-623,211,-20.8204,3.01294,0,0,0,0,0,0,0,-1,601,813,-20.8203,-3.01292
-616,211,-18.8535,2.81036,0,0,0,0,0,0,0,-1,608,813,-18.8535,-2.81036
-609,211,-18.7855,2.41107,0.0047828,0.00659385,-0.00311734,0.00893452,0.00244212,-0.926748,0.0053321,0.0406735,615,813,-18.7855,-2.4111
-602,211,-18.7185,2.0498,0.00273325,0.00607772,-0.00330262,0.00810734,0.000703639,-1.01975,0.00518628,0.0214464,622,813,-18.7185,-2.0498
-595,211,-18.7462,1.72284,0.0016945,0.00456542,-0.00262422,0.00612112,0.000138797,-1.03567,0.00403528,0.0109936,629,813,-18.7462,-1.72281
-588,211,-18.751,1.36115,0.0011181,0.0032089,-0.00174345,0.00419636,0.000130651,-1.05547,0.00275505,0.0106456,636,813,-18.751,-1.36112
-581,211,-18.7595,0.977539,0.00059483,0.00200628,-0.000690085,0.0022876,0.000313506,-1.1837,0.00143205,0.0118928,643,813,-18.7594,-0.977531
-574,211,-18.7873,0.581604,5.41811e-05,0.000828355,0.00030359,0.000933206,-5.06702e-05,1.23825,0.000639697,0.0140961,650,813,-18.7873,-0.581585
-567,211,-18.8076,0.187317,-0.00121886,-0.000123687,0.00096124,0.000434996,-0.00177754,1.04431,0.00135353,0.020214,657,813,-18.8076,-0.187301
-560,211,-18.8024,-0.178101,-0.00279254,-0.000245316,0.00135753,0.000342516,-0.00338037,1.16216,0.002376,0.0207951,664,813,-18.8023,0.178076
-553,211,-18.7346,-0.554932,-0.00415798,0.000169702,0.00160934,0.00070256,-0.00469084,1.25105,0.0033858,0.0245324,671,813,-18.7345,0.55493
-546,211,-18.9481,-0.849304,-0.00512229,0.00102584,0.00181215,0.00152022,-0.00561667,1.30447,0.00434084,0.0341648,678,813,-18.9481,0.849332
-539,211,-18.8655,-1.30975,-0.00579884,0.00215768,0.00194583,0.00260805,-0.00624921,1.34335,0.00525581,0.0236132,685,813,-18.8655,1.30973
-532,211,-18.7243,-1.90411,0,0,0,0,0,0,0,-1,692,813,-18.7243,1.90414
-525,211,-14.3009,2.3233,0,0,0,0,0,0,0,-1,699,813,-14.3009,-2.3233
-518,211,-26.3125,1.3382,0,0,0,0,0,0,0,-1,706,813,-26.3125,-1.33822
-511,211,-26.3571,1.34802,-0.00775746,0.0087782,0.00179955,0.00897177,-0.00795104,1.46364,0.00977631,0.0477455,713,813,-26.3571,-1.34804
-504,211,-26.468,1.19696,-0.00743613,0.0112455,0.00163116,0.0113868,-0.00757748,1.48435,0.0110224,0.0494429,720,813,-26.468,-1.19696
-497,211,-26.5938,1.03137,-0.00645087,0.014126,0.00131906,0.0142102,-0.00653508,1.50704,0.0122475,0.0472971,727,813,-26.5937,-1.03135
-490,211,-26.6094,0.995239,-0.00433714,0.0170823,0.000863925,0.0171171,-0.00437193,1.53055,0.0131139,0.0343877,734,813,-26.6094,-0.995233
-483,211,-26.5593,1.09589,-0.000173885,0.0195916,0.000168399,0.019593,-0.00017532,1.56228,0.0131209,0.0316999,741,813,-26.5593,-1.09591
-476,211,-26.5585,1.11542,0.0060698,0.0206809,-0.000253923,0.0206853,0.00606539,-1.55342,0.0122784,0.035379,748,813,-26.5585,-1.11543
-469,211,0,0,0,0,0,0,0,0,0,-1,755,813,0,0
-462,211,0,0,0,0,0,0,0,0,0,-1,762,813,0,0
-455,211,0,0,0,0,0,0,0,0,0,-1,769,813,0,0
-448,211,0,0,0,0,0,0,0,0,0,-1,776,813,0,0
-441,211,0,0,0,0,0,0,0,0,0,-1,783,813,0,0
-434,211,0,0,0,0,0,0,0,0,0,-1,790,813,0,0
-427,211,0,0,0,0,0,0,0,0,0,-1,797,813,0,0
-420,211,0,0,0,0,0,0,0,0,0,-1,804,813,0,0
-413,211,0,0,0,0,0,0,0,0,0,-1,811,813,0,0
-406,211,0,0,0,0,0,0,0,0,0,-1,818,813,0,0
-399,211,0,0,0,0,0,0,0,0,0,-1,825,813,0,0
-392,211,0,0,0,0,0,0,0,0,0,-1,832,813,0,0
-385,211,0,0,0,0,0,0,0,0,0,-1,839,813,0,0
-378,211,0,0,0,0,0,0,0,0,0,-1,846,813,0,0
-371,211,0,0,0,0,0,0,0,0,0,-1,853,813,0,0
-364,211,0,0,0,0,0,0,0,0,0,-1,860,813,0,0
-357,211,0,0,0,0,0,0,0,0,0,-1,867,813,0,0
-350,211,0,0,0,0,0,0,0,0,0,-1,874,813,0,0
-343,211,0,0,0,0,0,0,0,0,0,-1,881,813,0,0
-336,211,0,0,0,0,0,0,0,0,0,-1,888,813,0,0
-329,211,0,0,0,0,0,0,0,0,0,-1,895,813,0,0
-322,211,0,0,0,0,0,0,0,0,0,-1,902,813,0,0
-315,211,0,0,0,0,0,0,0,0,0,-1,909,813,0,0
-308,211,0,0,0,0,0,0,0,0,0,-1,916,813,0,0
-301,211,0,0,0,0,0,0,0,0,0,-1,923,813,0,0
-294,211,0,0,0,0,0,0,0,0,0,-1,930,813,0,0
-287,211,0,0,0,0,0,0,0,0,0,-1,937,813,0,0
-280,211,0,0,0,0,0,0,0,0,0,-1,944,813,0,0
-273,211,0,0,0,0,0,0,0,0,0,-1,951,813,0,0
-266,211,0,0,0,0,0,0,0,0,0,-1,958,813,0,0
-259,211,0,0,0,0,0,0,0,0,0,-1,965,813,0,0
-252,211,0,0,0,0,0,0,0,0,0,-1,972,813,0,0
-245,211,0,0,0,0,0,0,0,0,0,-1,979,813,0,0
-238,211,0,0,0,0,0,0,0,0,0,-1,986,813,0,0
-231,211,0,0,0,0,0,0,0,0,0,-1,993,813,0,0
-224,211,0,0,0,0,0,0,0,0,0,-1,1000,813,0,0
-217,211,0,0,0,0,0,0,0,0,0,-1,1007,813,0,0
-210,211,0,0,0,0,0,0,0,0,0,-1,1014,813,0,0
-203,211,0,0,0,0,0,0,0,0,0,-1,1021,813,0,0
-196,211,0,0,0,0,0,0,0,0,0,-1,1028,813,0,0
-189,211,0,0,0,0,0,0,0,0,0,-1,1035,813,0,0
-182,211,0,0,0,0,0,0,0,0,0,-1,1042,813,0,0
-175,211,0,0,0,0,0,0,0,0,0,-1,1049,813,0,0
-168,211,0,0,0,0,0,0,0,0,0,-1,1056,813,0,0
-161,211,0,0,0,0,0,0,0,0,0,-1,1063,813,0,0
-154,211,0,0,0,0,0,0,0,0,0,-1,1070,813,0,0
-147,211,0,0,0,0,0,0,0,0,0,-1,1077,813,0,0
-140,211,0,0,0,0,0,0,0,0,0,-1,1084,813,0,0
-133,211,0,0,0,0,0,0,0,0,0,-1,1091,813,0,0
-126,211,0,0,0,0,0,0,0,0,0,-1,1098,813,0,0
-119,211,0,0,0,0,0,0,0,0,0,-1,1105,813,0,0
-112,211,0,0,0,0,0,0,0,0,0,-1,1112,813,0,0
-105,211,0,0,0,0,0,0,0,0,0,-1,1119,813,0,0
-98,211,0,0,0,0,0,0,0,0,0,-1,1126,813,0,0
-91,211,0,0,0,0,0,0,0,0,0,-1,1133,813,0,0
-84,211,0,0,0,0,0,0,0,0,0,-1,1140,813,0,0
-77,211,0,0,0,0,0,0,0,0,0,-1,1147,813,0,0
-70,211,0,0,0,0,0,0,0,0,0,-1,1154,813,0,0
-63,211,0,0,0,0,0,0,0,0,0,-1,1161,813,0,0
-56,211,0,0,0,0,0,0,0,0,0,-1,1168,813,0,0
-49,211,0,0,0,0,0,0,0,0,0,-1,1175,813,0,0
-42,211,0,0,0,0,0,0,0,0,0,-1,1182,813,0,0
-35,211,0,0,0,0,0,0,0,0,0,-1,1189,813,0,0
-28,211,0,0,0,0,0,0,0,0,0,-1,1196,813,0,0
-21,211,0,0,0,0,0,0,0,0,0,-1,1203,813,0,0
-14,211,0,0,0,0,0,0,0,0,0,-1,1210,813,0,0
-7,211,0,0,0,0,0,0,0,0,0,-1,1217,813,0,0
0,211,0,0,0,0,0,0,0,0,0,-1,1224,813,0,0
7,211,0,0,0,0,0,0,0,0,0,-1,1231,813,0,0
14,211,0,0,0,0,0,0,0,0,0,-1,1238,813,0,0
21,211,0,0,0,0,0,0,0,0,0,-1,1245,813,0,0
28,211,0,0,0,0,0,0,0,0,0,-1,1252,813,0,0
35,211,0,0,0,0,0,0,0,0,0,-1,1259,813,0,0
42,211,0,0,0,0,0,0,0,0,0,-1,1266,813,0,0
49,211,0,0,0,0,0,0,0,0,0,-1,1273,813,0,0
56,211,0,0,0,0,0,0,0,0,0,-1,1280,813,0,0
63,211,0,0,0,0,0,0,0,0,0,-1,1287,813,0,0
70,211,0,0,0,0,0,0,0,0,0,-1,1294,813,0,0
77,211,0,0,0,0,0,0,0,0,0,-1,1301,813,0,0
84,211,0,0,0,0,0,0,0,0,0,-1,1308,813,0,0
91,211,0,0,0,0,0,0,0,0,0,-1,1315,813,0,0
98,211,0,0,0,0,0,0,0,0,0,-1,1322,813,0,0
105,211,0,0,0,0,0,0,0,0,0,-1,1329,813,0,0
112,211,0,0,0,0,0,0,0,0,0,-1,1336,813,0,0
119,211,0,0,0,0,0,0,0,0,0,-1,1343,813,0,0
126,211,0,0,0,0,0,0,0,0,0,-1,1350,813,0,0
133,211,0,0,0,0,0,0,0,0,0,-1,1357,813,0,0
140,211,0,0,0,0,0,0,0,0,0,-1,1364,813,0,0
147,211,0,0,0,0,0,0,0,0,0,-1,1371,813,0,0
154,211,0,0,0,0,0,0,0,0,0,-1,1378,813,0,0
161,211,0,0,0,0,0,0,0,0,0,-1,1385,813,0,0
168,211,0,0,0,0,0,0,0,0,0,-1,1392,813,0,0
175,211,0,0,0,0,0,0,0,0,0,-1,1399,813,0,0
182,211,0,0,0,0,0,0,0,0,0,-1,1406,813,0,0
189,211,0,0,0,0,0,0,0,0,0,-1,1413,813,0,0
196,211,0,0,0,0,0,0,0,0,0,-1,1420,813,0,0
203,211,0,0,0,0,0,0,0,0,0,-1,1427,813,0,0
210,211,0,0,0,0,0,0,0,0,0,-1,1434,813,0,0
217,211,0,0,0,0,0,0,0,0,0,-1,1441,813,0,0
224,211,0,0,0,0,0,0,0,0,0,-1,1448,813,0,0
231,211,0,0,0,0,0,0,0,0,0,-1,1455,813,0,0
238,211,0,0,0,0,0,0,0,0,0,-1,1462,813,0,0
245,211,0,0,0,0,0,0,0,0,0,-1,1469,813,0,0
252,211,0,0,0,0,0,0,0,0,0,-1,1476,813,0,0
259,211,0,0,0,0,0,0,0,0,0,-1,1483,813,0,0
266,211,0,0,0,0,0,0,0,0,0,-1,1490,813,0,0
273,211,0,0,0,0,0,0,0,0,0,-1,1497,813,0,0
280,211,0,0,0,0,0,0,0,0,0,-1,1504,813,0,0
287,211,0,0,0,0,0,0,0,0,0,-1,1511,813,0,0
294,211,0,0,0,0,0,0,0,0,0,-1,1518,813,0,0
301,211,0,0,0,0,0,0,0,0,0,-1,1525,813,0,0
308,211,0,0,0,0,0,0,0,0,0,-1,1532,813,0,0
315,211,0,0,0,0,0,0,0,0,0,-1,1539,813,0,0
322,211,0,0,0,0,0,0,0,0,0,-1,1546,813,0,0
329,211,0,0,0,0,0,0,0,0,0,-1,1553,813,0,0
336,211,0,0,0,0,0,0,0,0,0,-1,1560,813,0,0
343,211,0,0,0,0,0,0,0,0,0,-1,1567,813,0,0
350,211,0,0,0,0,0,0,0,0,0,-1,1574,813,0,0
357,211,0,0,0,0,0,0,0,0,0,-1,1581,813,0,0
364,211,0,0,0,0,0,0,0,0,0,-1,1588,813,0,0
371,211,0,0,0,0,0,0,0,0,0,-1,1595,813,0,0
378,211,0,0,0,0,0,0,0,0,0,-1,1602,813,0,0
385,211,0,0,0,0,0,0,0,0,0,-1,1609,813,0,0
392,211,0,0,0,0,0,0,0,0,0,-1,1616,813,0,0
399,211,0,0,0,0,0,0,0,0,0,-1,1623,813,0,0
406,211,0,0,0,0,0,0,0,0,0,-1,1630,813,0,0
413,211,0,0,0,0,0,0,0,0,0,-1,1637,813,0,0
420,211,0,0,0,0,0,0,0,0,0,-1,1644,813,0,0
427,211,0,0,0,0,0,0,0,0,0,-1,1651,813,0,0
434,211,0,0,0,0,0,0,0,0,0,-1,1658,813,0,0
441,211,0,0,0,0,0,0,0,0,0,-1,1665,813,0,0
448,211,0,0,0,0,0,0,0,0,0,-1,1672,813,0,0
455,211,0,0,0,0,0,0,0,0,0,-1,1679,813,0,0
462,211,0,0,0,0,0,0,0,0,0,-1,1686,813,0,0
469,211,0,0,0,0,0,0,0,0,0,-1,1693,813,0,0
476,211,0,0,0,0,0,0,0,0,0,-1,1700,813,0,0
483,211,0,0,0,0,0,0,0,0,0,-1,1707,813,0,0
490,211,0,0,0,0,0,0,0,0,0,-1,1714,813,0,0
497,211,0,0,0,0,0,0,0,0,0,-1,1721,813,0,0
504,211,0,0,0,0,0,0,0,0,0,-1,1728,813,0,0
511,211,0,0,0,0,0,0,0,0,0,-1,1735,813,0,0
518,211,0,0,0,0,0,0,0,0,0,-1,1742,813,0,0
525,211,0,0,0,0,0,0,0,0,0,-1,1749,813,0,0
532,211,0,0,0,0,0,0,0,0,0,-1,1756,813,0,0
539,211,0,0,0,0,0,0,0,0,0,-1,1763,813,0,0
546,211,0,0,0,0,0,0,0,0,0,-1,1770,813,0,0
553,211,0,0,0,0,0,0,0,0,0,-1,1777,813,0,0
560,211,0,0,0,0,0,0,0,0,0,-1,1784,813,0,0
567,211,0,0,0,0,0,0,0,0,0,-1,1791,813,0,0
574,211,0,0,0,0,0,0,0,0,0,-1,1798,813,0,0
581,211,0,0,0,0,0,0,0,0,0,-1,1805,813,0,0
588,211,0,0,0,0,0,0,0,0,0,-1,1812,813,0,0
595,211,36.3748,2.88025,-0.000960521,0.00367168,-5.08621e-05,0.00367224,-0.00096108,-1.55982,0.00282358,0.0401978,1819,813,36.3748,-2.88028
602,211,36.3903,2.9397,-0.000694962,0.00280721,0.000106551,0.00281045,-0.000698201,1.54041,0.00214459,0.0373416,1826,813,36.3902,-2.93972
609,211,36.4287,2.92786,-0.000127964,0.0028538,0.000697567,0.00300892,-0.000283086,1.35198,0.00210666,0.0367703,1833,813,36.4287,-2.92784
616,211,36.3551,2.901,-9.38237e-05,0.00226492,0.000464943,0.00235326,-0.000182162,1.38304,0.00163295,0.0314253,1840,813,36.3551,-2.90101
623,211,36.2708,2.92645,-0.000385189,0.00152071,4.50321e-05,0.00152177,-0.000386252,1.54719,0.00116481,0.0312602,1847,813,36.2707,-2.92645
630,211,36.2549,2.89972,-0.000772067,0.000859649,-0.000364224,0.000937258,-0.000849676,-1.36086,0.0010321,0.0347404,1854,813,36.2548,-2.89969
637,211,36.3682,2.81299,-0.00125149,0.000304276,-0.000728415,0.000592081,-0.00153929,-1.19451,0.00127041,0.0363041,1861,813,36.3681,-2.81301
644,211,36.5248,2.66205,-0.00173728,-0.000234756,-0.00103998,0.000296931,-0.00226897,-1.09819,0.00162072,0.0395539,1868,813,36.5247,-2.66206
651,211,36.6366,2.5376,0,0,0,0,0,0,0,-1,1875,813,36.6366,-2.53762
658,211,27.7909,1.52234,0,0,0,0,0,0,0,-1,1882,813,27.7909,-1.52234
665,211,27.5687,0.957397,0,0,0,0,0,0,0,-1,1889,813,27.5687,-0.957368
672,211,27.4805,1.17126,-0.00197811,-0.00131085,-0.0017913,0.000177617,-0.00346658,-0.877469,0.00237248,0.0295806,1896,813,27.4805,-1.17125
679,211,27.4661,1.47205,-0.00212781,-0.00149939,-0.00186948,8.21061e-05,-0.0037093,-0.868657,0.00250068,0.0155267,1903,813,27.4661,-1.47202
686,211,27.4148,1.86896,-0.00212066,-0.00135036,-0.00197631,0.000277981,-0.003749,-0.881633,0.00259696,0.0109568,1910,813,27.4148,-1.86897
693,211,27.3976,2.25439,-0.00152372,-0.00104049,-0.00200099,0.000733412,-0.00329763,-0.845481,0.00247932,0.0119519,1917,813,27.3976,-2.25441
700,211,27.3579,2.65424,-0.00091042,-0.000611203,-0.00222414,0.00146836,-0.00298998,-0.81898,0.00262352,0.0143885,1924,813,27.358,-2.65421
707,211,27.4028,3.11237,-0.000458426,-0.000640987,-0.0024559,0.00190789,-0.0030073,-0.766823,0.00286135,0.0194914,1931,813,27.4028,-3.11239
714,211,27.3732,3.52777,0.000214313,-0.00015086,-0.0025292,0.00256751,-0.00250406,-0.749365,0.00292815,0.0210166,1938,813,27.3732,-3.52777
721,211,27.3831,3.89642,0.00050569,-0.000129573,-0.00317215,0.00337607,-0.00299995,-0.735499,0.00368333,0.0166512,1945,813,27.383,-3.89645
728,211,27.3826,4.30273,0.000342008,-0.000483823,-0.00415049,0.00410007,-0.00424188,-0.735818,0.00481646,0.015432,1952,813,27.3825,-4.30271
735,211,27.3987,4.7085,-0.000235887,-0.00127334,-0.00538234,0.00465266,-0.00616189,-0.737359,0.00626402,0.0263453,1959,813,27.3986,-4.70851
742,211,27.7427,4.74481,-0.00138978,-0.00277131,-0.00697681,0.00493038,-0.00909147,-0.736055,0.00821348,0.0483533,1966,813,27.7427,-4.74484
749,211,27.5325,4.87164,-0.00329253,-0.00527355,-0.0089983,0.00476961,-0.0133357,-0.73058,0.0108361,0.049056,1973,813,27.5325,-4.87161
756,211,27.2821,5.19629,-0.00588178,-0.00910654,-0.01141,0.00402921,-0.0190175,-0.715207,0.0142131,0.0471609,1980,813,27.2821,-5.19628
763,211,27.0836,5.52472,0,0,0,0,0,0,0,-1,1987,813,27.0837,-5.52472
770,211,29.7631,4.67743,0,0,0,0,0,0,0,-1,1994,813,29.763,-4.67744
777,211,0,0,0,0,0,0,0,0,0,-1,2001,813,0,0
784,211,0,0,0,0,0,0,0,0,0,-1,2008,813,0,0
791,211,0,0,0,0,0,0,0,0,0,-1,2015,813,0,0
798,211,0,0,0,0,0,0,0,0,0,-1,2022,813,0,0
805,211,0,0,0,0,0,0,0,0,0,-1,2029,813,0,0
812,211,0,0,0,0,0,0,0,0,0,-1,2036,813,0,0
-700,204,0,0,0,0,0,0,0,0,0,-1,524,820,0,0
-693,204,0,0,0,0,0,0,0,0,0,-1,531,820,0,0
-686,204,0,0,0,0,0,0,0,0,0,-1,538,820,0,0
-679,204,0,0,0,0,0,0,0,0,0,-1,545,820,0,0
-672,204,0,0,0,0,0,0,0,0,0,-1,552,820,0,0
-665,204,0,0,0,0,0,0,0,0,0,-1,559,820,0,0
-658,204,0,0,0,0,0,0,0,0,0,-1,566,820,0,0
-651,204,-19.223,4.57391,0,0,0,0,0,0,0,-1,573,820,-19.223,-4.57394
-644,204,-21.9558,6.70935,0,0,0,0,0,0,0,-1,580,820,-21.9558,-6.70935
-637,204,-20.9536,5.58936,0,0,0,0,0,0,0,-1,587,820,-20.9536,-5.58937
-630,204,-20.1097,3.83899,0,0,0,0,0,0,0,-1,594,820,-20.1097,-3.83899
-623,204,-19.7877,3.0174,0,0,0,0,0,0,0,-1,601,820,-19.7877,-3.01737
-616,204,-18.9819,2.99719,0,0,0,0,0,0,0,-1,608,820,-18.9819,-2.9972
-609,204,-19.0129,2.55267,0.00461512,0.00503528,-0.00217041,0.00700575,0.00264465,-0.833644,0.00408504,0.0350768,615,820,-19.0129,-2.55265
-602,204,-19.0753,2.10376,0.00171742,0.00493943,-0.00241197,0.00622893,0.000427921,-1.07983,0.00401759,0.0153619,622,820,-19.0753,-2.10377
-595,204,-19.1373,1.7207,0.000381087,0.00333532,-0.00171537,0.00412191,-0.000405503,-1.14085,0.0028926,0.0142076,629,820,-19.1373,-1.72069
-588,204,-19.1498,1.34009,0.000132787,0.00210932,-0.00107407,0.00258061,-0.000338499,-1.15731,0.00184363,0.0121182,636,820,-19.1499,-1.34006
-581,204,-19.1537,0.953979,-0.000117061,0.00108481,-0.000170827,0.00110862,-0.00014087,-1.43232,0.000790234,0.0123804,643,820,-19.1537,-0.953983
-574,204,-19.1614,0.567383,-0.00043502,6.85629e-05,0.000650935,0.000514708,-0.000881165,0.969943,0.000815113,0.0144077,650,820,-19.1614,-0.567366
-567,204,-19.1571,0.217834,-0.00163641,-0.000618255,0.00102753,1.93894e-05,-0.00227406,1.01539,0.00152254,0.0141321,657,820,-19.1571,-0.217809
-560,204,-19.1583,-0.18811,-0.00303907,-0.000485977,0.00107808,-9.16497e-05,-0.00343339,1.22014,0.002259,0.0140845,664,820,-19.1583,0.188128
-553,204,-19.1733,-0.513062,-0.00412795,0.000107061,0.00104558,0.000351139,-0.00437203,1.34147,0.0030385,0.0158034,671,820,-19.1733,0.513086
-546,204,-19.2352,-0.814758,-0.00484154,0.00104972,0.00107604,0.00124011,-0.00503193,1.39568,0.00383541,0.0221514,678,820,-19.2353,0.814779
-539,204,-19.1686,-1.22839,-0.00524451,0.00213138,0.00113929,0.00230334,-0.00541647,1.42099,0.00457625,0.0395989,685,820,-19.1687,1.22839
-532,204,-19.0598,-1.77545,0,0,0,0,0,0,0,-1,692,820,-19.0597,1.77545
-525,204,-25.7137,1.52496,0,0,0,0,0,0,0,-1,699,820,-25.7137,-1.52496
-518,204,-26.0849,1.23114,-0.00645192,0.00626407,0.000760158,0.00630935,-0.0064972,1.5113,0.00739413,0.0480436,706,820,-26.0849,-1.23115
-511,204,-26.5039,1.12573,-0.00643348,0.00819354,0.00065019,0.00822239,-0.00646233,1.52646,0.0084985,0.0495057,713,820,-26.5039,-1.1257
-504,204,-26.524,1.12665,-0.00568967,0.0103322,0.000476225,0.0103464,-0.00570381,1.54111,0.00939492,0.0494154,720,820,-26.524,-1.12663
-497,204,-26.6945,0.937012,-0.00402362,0.0126343,0.000203133,0.0126367,-0.0040261,1.5586,0.0100393,0.0400865,727,820,-26.6945,-0.936992
-490,204,-26.6617,0.960754,-0.000769524,0.0145673,-0.00016838,0.0145692,-0.000771373,-1.55982,0.00997985,0.0335183,734,820,-26.6617,-0.960764
-483,204,-26.6243,1.07562,0.00522557,0.0153782,-0.000697594,0.0154259,0.00517786,-1.50251,0.00906511,0.0376752,741,820,-26.6243,-1.0756
-476,204,0,0,0,0,0,0,0,0,0,-1,748,820,0,0
-469,204,0,0,0,0,0,0,0,0,0,-1,755,820,0,0
-462,204,0,0,0,0,0,0,0,0,0,-1,762,820,0,0
-455,204,0,0,0,0,0,0,0,0,0,-1,769,820,0,0
-448,204,0,0,0,0,0,0,0,0,0,-1,776,820,0,0
-441,204,0,0,0,0,0,0,0,0,0,-1,783,820,0,0
-434,204,0,0,0,0,0,0,0,0,0,-1,790,820,0,0
-427,204,0,0,0,0,0,0,0,0,0,-1,797,820,0,0
-420,204,0,0,0,0,0,0,0,0,0,-1,804,820,0,0
-413,204,0,0,0,0,0,0,0,0,0,-1,811,820,0,0
-406,204,0,0,0,0,0,0,0,0,0,-1,818,820,0,0
-399,204,0,0,0,0,0,0,0,0,0,-1,825,820,0,0
-392,204,0,0,0,0,0,0,0,0,0,-1,832,820,0,0
-385,204,0,0,0,0,0,0,0,0,0,-1,839,820,0,0
-378,204,0,0,0,0,0,0,0,0,0,-1,846,820,0,0
-371,204,0,0,0,0,0,0,0,0,0,-1,853,820,0,0
-364,204,0,0,0,0,0,0,0,0,0,-1,860,820,0,0
-357,204,0,0,0,0,0,0,0,0,0,-1,867,820,0,0
-350,204,0,0,0,0,0,0,0,0,0,-1,874,820,0,0
-343,204,0,0,0,0,0,0,0,0,0,-1,881,820,0,0
-336,204,0,0,0,0,0,0,0,0,0,-1,888,820,0,0
-329,204,0,0,0,0,0,0,0,0,0,-1,895,820,0,0
-322,204,0,0,0,0,0,0,0,0,0,-1,902,820,0,0
-315,204,0,0,0,0,0,0,0,0,0,-1,909,820,0,0
-308,204,0,0,0,0,0,0,0,0,0,-1,916,820,0,0
-301,204,0,0,0,0,0,0,0,0,0,-1,923,820,0,0
-294,204,0,0,0,0,0,0,0,0,0,-1,930,820,0,0
-287,204,0,0,0,0,0,0,0,0,0,-1,937,820,0,0
-280,204,0,0,0,0,0,0,0,0,0,-1,944,820,0,0
-273,204,0,0,0,0,0,0,0,0,0,-1,951,820,0,0
-266,204,0,0,0,0,0,0,0,0,0,-1,958,820,0,0
-259,204,0,0,0,0,0,0,0,0,0,-1,965,820,0,0
-252,204,0,0,0,0,0,0,0,0,0,-1,972,820,0,0
-245,204,0,0,0,0,0,0,0,0,0,-1,979,820,0,0
-238,204,0,0,0,0,0,0,0,0,0,-1,986,820,0,0
-231,204,0,0,0,0,0,0,0,0,0,-1,993,820,0,0
-224,204,0,0,0,0,0,0,0,0,0,-1,1000,820,0,0
-217,204,0,0,0,0,0,0,0,0,0,-1,1007,820,0,0
-210,204,0,0,0,0,0,0,0,0,0,-1,1014,820,0,0
-203,204,0,0,0,0,0,0,0,0,0,-1,1021,820,0,0
-196,204,0,0,0,0,0,0,0,0,0,-1,1028,820,0,0
-189,204,0,0,0,0,0,0,0,0,0,-1,1035,820,0,0
-182,204,0,0,0,0,0,0,0,0,0,-1,1042,820,0,0
-175,204,0,0,0,0,0,0,0,0,0,-1,1049,820,0,0
-168,204,0,0,0,0,0,0,0,0,0,-1,1056,820,0,0
-161,204,0,0,0,0,0,0,0,0,0,-1,1063,820,0,0
-154,204,0,0,0,0,0,0,0,0,0,-1,1070,820,0,0
-147,204,0,0,0,0,0,0,0,0,0,-1,1077,820,0,0
-140,204,0,0,0,0,0,0,0,0,0,-1,1084,820,0,0
-133,204,0,0,0,0,0,0,0,0,0,-1,1091,820,0,0
-126,204,0,0,0,0,0,0,0,0,0,-1,1098,820,0,0
-119,204,0,0,0,0,0,0,0,0,0,-1,1105,820,0,0
-112,204,0,0,0,0,0,0,0,0,0,-1,1112,820,0,0
-105,204,0,0,0,0,0,0,0,0,0,-1,1119,820,0,0
-98,204,0,0,0,0,0,0,0,0,0,-1,1126,820,0,0
-91,204,0,0,0,0,0,0,0,0,0,-1,1133,820,0,0
-84,204,0,0,0,0,0,0,0,0,0,-1,1140,820,0,0
-77,204,0,0,0,0,0,0,0,0,0,-1,1147,820,0,0
-70,204,0,0,0,0,0,0,0,0,0,-1,1154,820,0,0
-63,204,0,0,0,0,0,0,0,0,0,-1,1161,820,0,0
-56,204,0,0,0,0,0,0,0,0,0,-1,1168,820,0,0
-49,204,0,0,0,0,0,0,0,0,0,-1,1175,820,0,0
-42,204,0,0,0,0,0,0,0,0,0,-1,1182,820,0,0
-35,204,0,0,0,0,0,0,0,0,0,-1,1189,820,0,0
-28,204,0,0,0,0,0,0,0,0,0,-1,1196,820,0,0
-21,204,0,0,0,0,0,0,0,0,0,-1,1203,820,0,0
-14,204,0,0,0,0,0,0,0,0,0,-1,1210,820,0,0
-7,204,0,0,0,0,0,0,0,0,0,-1,1217,820,0,0
0,204,0,0,0,0,0,0,0,0,0,-1,1224,820,0,0
7,204,0,0,0,0,0,0,0,0,0,-1,1231,820,0,0
14,204,0,0,0,0,0,0,0,0,0,-1,1238,820,0,0
21,204,0,0,0,0,0,0,0,0,0,-1,1245,820,0,0
28,204,0,0,0,0,0,0,0,0,0,-1,1252,820,0,0
35,204,0,0,0,0,0,0,0,0,0,-1,1259,820,0,0
42,204,0,0,0,0,0,0,0,0,0,-1,1266,820,0,0
49,204,0,0,0,0,0,0,0,0,0,-1,1273,820,0,0
56,204,0,0,0,0,0,0,0,0,0,-1,1280,820,0,0
63,204,0,0,0,0,0,0,0,0,0,-1,1287,820,0,0
70,204,0,0,0,0,0,0,0,0,0,-1,1294,820,0,0
77,204,0,0,0,0,0,0,0,0,0,-1,1301,820,0,0
84,204,0,0,0,0,0,0,0,0,0,-1,1308,820,0,0
91,204,0,0,0,0,0,0,0,0,0,-1,1315,820,0,0
98,204,0,0,0,0,0,0,0,0,0,-1,1322,820,0,0
105,204,0,0,0,0,0,0,0,0,0,-1,1329,820,0,0
112,204,0,0,0,0,0,0,0,0,0,-1,1336,820,0,0
119,204,0,0,0,0,0,0,0,0,0,-1,1343,820,0,0
126,204,0,0,0,0,0,0,0,0,0,-1,1350,820,0,0
133,204,0,0,0,0,0,0,0,0,0,-1,1357,820,0,0
140,204,0,0,0,0,0,0,0,0,0,-1,1364,820,0,0
147,204,0,0,0,0,0,0,0,0,0,-1,1371,820,0,0
154,204,0,0,0,0,0,0,0,0,0,-1,1378,820,0,0
161,204,0,0,0,0,0,0,0,0,0,-1,1385,820,0,0
168,204,0,0,0,0,0,0,0,0,0,-1,1392,820,0,0
175,204,0,0,0,0,0,0,0,0,0,-1,1399,820,0,0
182,204,0,0,0,0,0,0,0,0,0,-1,1406,820,0,0
189,204,0,0,0,0,0,0,0,0,0,-1,1413,820,0,0
196,204,0,0,0,0,0,0,0,0,0,-1,1420,820,0,0
203,204,0,0,0,0,0,0,0,0,0,-1,1427,820,0,0
210,204,0,0,0,0,0,0,0,0,0,-1,1434,820,0,0
217,204,0,0,0,0,0,0,0,0,0,-1,1441,820,0,0
224,204,0,0,0,0,0,0,0,0,0,-1,1448,820,0,0
231,204,0,0,0,0,0,0,0,0,0,-1,1455,820,0,0
238,204,0,0,0,0,0,0,0,0,0,-1,1462,820,0,0
245,204,0,0,0,0,0,0,0,0,0,-1,1469,820,0,0
252,204,0,0,0,0,0,0,0,0,0,-1,1476,820,0,0
259,204,0,0,0,0,0,0,0,0,0,-1,1483,820,0,0
266,204,0,0,0,0,0,0,0,0,0,-1,1490,820,0,0
273,204,0,0,0,0,0,0,0,0,0,-1,1497,820,0,0
280,204,0,0,0,0,0,0,0,0,0,-1,1504,820,0,0
287,204,0,0,0,0,0,0,0,0,0,-1,1511,820,0,0
294,204,0,0,0,0,0,0,0,0,0,-1,1518,820,0,0
301,204,0,0,0,0,0,0,0,0,0,-1,1525,820,0,0
308,204,0,0,0,0,0,0,0,0,0,-1,1532,820,0,0
315,204,0,0,0,0,0,0,0,0,0,-1,1539,820,0,0
322,204,0,0,0,0,0,0,0,0,0,-1,1546,820,0,0
329,204,0,0,0,0,0,0,0,0,0,-1,1553,820,0,0
336,204,0,0,0,0,0,0,0,0,0,-1,1560,820,0,0
343,204,0,0,0,0,0,0,0,0,0,-1,1567,820,0,0
350,204,0,0,0,0,0,0,0,0,0,-1,1574,820,0,0
357,204,0,0,0,0,0,0,0,0,0,-1,1581,820,0,0
364,204,0,0,0,0,0,0,0,0,0,-1,1588,820,0,0
371,204,0,0,0,0,0,0,0,0,0,-1,1595,820,0,0
378,204,0,0,0,0,0,0,0,0,0,-1,1602,820,0,0
385,204,0,0,0,0,0,0,0,0,0,-1,1609,820,0,0
392,204,0,0,0,0,0,0,0,0,0,-1,1616,820,0,0
399,204,0,0,0,0,0,0,0,0,0,-1,1623,820,0,0
406,204,0,0,0,0,0,0,0,0,0,-1,1630,820,0,0
413,204,0,0,0,0,0,0,0,0,0,-1,1637,820,0,0
420,204,0,0,0,0,0,0,0,0,0,-1,1644,820,0,0
427,204,0,0,0,0,0,0,0,0,0,-1,1651,820,0,0
434,204,0,0,0,0,0,0,0,0,0,-1,1658,820,0,0
441,204,0,0,0,0,0,0,0,0,0,-1,1665,820,0,0
448,204,0,0,0,0,0,0,0,0,0,-1,1672,820,0,0
455,204,0,0,0,0,0,0,0,0,0,-1,1679,820,0,0
462,204,0,0,0,0,0,0,0,0,0,-1,1686,820,0,0
469,204,0,0,0,0,0,0,0,0,0,-1,1693,820,0,0
476,204,0,0,0,0,0,0,0,0,0,-1,1700,820,0,0
483,204,0,0,0,0,0,0,0,0,0,-1,1707,820,0,0
490,204,0,0,0,0,0,0,0,0,0,-1,1714,820,0,0
497,204,0,0,0,0,0,0,0,0,0,-1,1721,820,0,0
504,204,0,0,0,0,0,0,0,0,0,-1,1728,820,0,0
511,204,0,0,0,0,0,0,0,0,0,-1,1735,820,0,0
518,204,0,0,0,0,0,0,0,0,0,-1,1742,820,0,0
525,204,0,0,0,0,0,0,0,0,0,-1,1749,820,0,0
532,204,0,0,0,0,0,0,0,0,0,-1,1756,820,0,0
539,204,0,0,0,0,0,0,0,0,0,-1,1763,820,0,0
546,204,0,0,0,0,0,0,0,0,0,-1,1770,820,0,0
553,204,0,0,0,0,0,0,0,0,0,-1,1777,820,0,0
560,204,0,0,0,0,0,0,0,0,0,-1,1784,820,0,0
567,204,0,0,0,0,0,0,0,0,0,-1,1791,820,0,0
574,204,0,0,0,0,0,0,0,0,0,-1,1798,820,0,0
581,204,0,0,0,0,0,0,0,0,0,-1,1805,820,0,0
588,204,0,0,0,0,0,0,0,0,0,-1,1812,820,0,0
595,204,0,0,0,0,0,0,0,0,0,-1,1819,820,0,0
602,204,36.3879,3.0307,-0.00155161,0.00278003,-0.000445988,0.00282548,-0.00159705,-1.46926,0.00258597,0.0396424,1826,820,36.388,-3.03067
609,204,36.3961,3.03436,-0.000974405,0.00306162,0.000507776,0.00312452,-0.00103731,1.44754,0.00250153,0.04186,1833,820,36.3961,-3.03438
616,204,36.3088,2.89252,-0.000756595,0.00261312,0.000534698,0.00269593,-0.000839405,1.41715,0.00213287,0.0396204,1840,820,36.3088,-2.89249
623,204,36.2839,2.89514,-0.000945569,0.00198145,0.000248806,0.00200244,-0.000966568,1.4866,0.00174859,0.0284567,1847,820,36.2839,-2.89515
630,204,36.3142,2.88934,-0.00128106,0.0014137,-9.59293e-05,0.00141711,-0.00128447,-1.53526,0.00156038,0.0257594,1854,820,36.3142,-2.88936
637,204,36.3468,2.84863,-0.00170564,0.000897268,-0.000439741,0.000969551,-0.00177793,-1.40788,0.00160898,0.0315531,1861,820,36.3468,-2.84864
644,204,36.1239,3.14166,-0.00208777,0.000373173,-0.000747351,0.000582352,-0.00229695,-1.29789,0.00175787,0.039022,1868,820,36.1239,-3.14168
651,204,35.8518,3.51099,0,0,0,0,0,0,0,-1,1875,820,35.8519,-3.51101
658,204,34.9631,1.64844,0,0,0,0,0,0,0,-1,1882,820,34.9631,-1.64842
665,204,21.8292,1.51099,0,0,0,0,0,0,0,-1,1889,820,21.8292,-1.51099
672,204,27.7699,1.0907,0,0,0,0,0,0,0,-1,1896,820,27.7699,-1.09067
679,204,27.7939,1.34845,-0.00226404,-0.0010437,-0.00165715,0.00011204,-0.00341978,-0.961798,0.0023181,0.0338154,1903,820,27.794,-1.34843
686,204,27.8042,1.87781,-0.0022555,-0.00101997,-0.0018075,0.000272421,-0.0035479,-0.950064,0.0024611,0.0146595,1910,820,27.8042,-1.87783
693,204,27.765,2.28925,-0.00181408,-0.000926079,-0.00190545,0.000586416,-0.00332658,-0.899864,0.00243682,0.015993,1917,820,27.765,-2.28923
700,204,27.7383,2.68732,-0.00142058,-0.000685479,-0.0022056,0.00118299,-0.00328905,-0.867962,0.00267567,0.0165562,1924,820,27.7383,-2.68733
707,204,27.775,3.12317,-0.00119088,-0.000931126,-0.00243255,0.00137501,-0.00349702,-0.812069,0.00290044,0.0145282,1931,820,27.775,-3.12317
714,204,27.7651,3.55505,-0.000696238,-0.000498225,-0.00237521,0.00178004,-0.00297451,-0.806228,0.00277377,0.022814,1938,820,27.7651,-3.55506
721,204,27.7595,3.90967,-0.000477764,-0.000526678,-0.00286158,0.00235946,-0.0033639,-0.781125,0.00332131,0.0214856,1945,820,27.7595,-3.90965
728,204,27.7513,4.28986,-0.000611965,-0.00089173,-0.00362415,0.002875,-0.00437869,-0.766109,0.00421781,0.0131005,1952,820,27.7513,-4.28985
735,204,27.7073,4.70306,-0.000994165,-0.00167307,-0.00456535,0.00324433,-0.00591157,-0.748289,0.00536041,0.0153426,1959,820,27.7073,-4.70308
742,204,27.7476,4.97034,-0.00170372,-0.00305492,-0.00574076,0.00340105,-0.0081597,-0.726825,0.00686049,0.0293262,1966,820,27.7476,-4.97034
749,204,27.7881,5.21692,-0.00276514,-0.0052946,-0.00719305,0.00327352,-0.0113333,-0.698374,0.00885083,0.0430515,1973,820,27.7881,-5.21693
756,204,27.7073,5.4715,-0.00402792,-0.00866806,-0.00891257,0.00286161,-0.0155576,-0.658067,0.0114455,0.0489517,1980,820,27.7073,-5.47149
763,204,27.7897,5.74835,0,0,0,0,0,0,0,-1,1987,820,27.7897,-5.74832
770,204,28.9928,6.3222,0,0,0,0,0,0,0,-1,1994,820,28.9928,-6.32218
777,204,0,0,0,0,0,0,0,0,0,-1,2001,820,0,0
784,204,0,0,0,0,0,0,0,0,0,-1,2008,820,0,0
791,204,0,0,0,0,0,0,0,0,0,-1,2015,820,0,0
798,204,0,0,0,0,0,0,0,0,0,-1,2022,820,0,0
805,204,0,0,0,0,0,0,0,0,0,-1,2029,820,0,0
812,204,0,0,0,0,0,0,0,0,0,-1,2036,820,0,0
-700,197,0,0,0,0,0,0,0,0,0,-1,524,827,0,0
-693,197,0,0,0,0,0,0,0,0,0,-1,531,827,0,0
-686,197,0,0,0,0,0,0,0,0,0,-1,538,827,0,0
-679,197,0,0,0,0,0,0,0,0,0,-1,545,827,0,0
-672,197,0,0,0,0,0,0,0,0,0,-1,552,827,0,0
-665,197,0,0,0,0,0,0,0,0,0,-1,559,827,0,0
-658,197,-26.8396,4.3996,0,0,0,0,0,0,0,-1,566,827,-26.8396,-4.39962
-651,197,-22.9185,7.49762,0,0,0,0,0,0,0,-1,573,827,-22.9185,-7.49761
-644,197,-21.9223,6.22607,0,0,0,0,0,0,0,-1,580,827,-21.9223,-6.2261
-637,197,-20.8828,5.0556,0,0,0,0,0,0,0,-1,587,827,-20.8828,-5.05561
-630,197,-19.7324,3.77753,0,0,0,0,0,0,0,-1,594,827,-19.7323,-3.77751
-623,197,-18.8927,2.68982,0,0,0,0,0,0,0,-1,601,827,-18.8927,-2.68979
-616,197,-19.1069,2.60181,0.00720032,0.00392891,-0.000127592,0.00720529,0.00392394,-0.0389232,0.00416549,0.0471761,608,827,-19.1069,-2.60182
-609,197,-19.2665,2.52142,0.0033844,0.00400384,-0.00105397,0.00479266,0.00259559,-0.928304,0.00277023,0.0319988,615,827,-19.2665,-2.5214
-602,197,-19.4896,2.09546,0.00042174,0.00407004,-0.00149394,0.00460373,-0.000111947,-1.22769,0.00310714,0.0164433,622,827,-19.4896,-2.09548
-595,197,-19.538,1.73108,-0.000815321,0.002457,-0.000957794,0.00271673,-0.00107505,-1.30599,0.00225654,0.0178948,629,827,-19.538,-1.7311
-588,197,-19.5532,1.32678,-0.000786713,0.00129728,-0.00050793,0.00141448,-0.000903918,-1.34401,0.00134931,0.0182228,636,827,-19.5532,-1.3268
-581,197,-19.5307,0.945557,-0.000780619,0.000407739,0.000247597,0.000457262,-0.000830142,1.37338,0.000753604,0.0107798,643,827,-19.5307,-0.945545
-574,197,-19.525,0.575439,-0.00089149,-0.000456715,0.00088716,0.000239304,-0.00158751,0.905549,0.00114646,0.0123407,650,827,-19.525,-0.57541
-567,197,-19.5231,0.216125,-0.00196374,-0.000892553,0.000999108,-0.000294535,-0.00256176,1.03144,0.00161862,0.0139903,657,827,-19.5231,-0.216138
-560,197,-19.5278,-0.146179,-0.00312472,-0.000591075,0.00077664,-0.00037196,-0.00334383,1.29581,0.00211616,0.018303,664,827,-19.5278,0.146174
-553,197,-19.7108,-0.462097,-0.00395066,5.01142e-05,0.000575835,0.000131345,-0.0040319,1.43065,0.00273276,0.0208417,671,827,-19.7108,0.462119
-546,197,-19.627,-0.809021,-0.00442894,0.00099237,0.000494559,0.00103712,-0.00447368,1.48056,0.0033816,0.0348047,678,827,-19.627,0.809042
-539,197,-19.3993,-1.09607,0,0,0,0,0,0,0,-1,685,827,-19.3993,1.09605
-532,197,-16.0519,0.0410156,0,0,0,0,0,0,0,-1,692,827,-16.0519,-0.0410415
-525,197,-26.3243,1.32336,0,0,0,0,0,0,0,-1,699,827,-26.3244,-1.32334
-518,197,-26.5332,1.06494,-0.00531529,0.00570799,-6.07779e-05,0.00570833,-0.00531562,-1.56528,0.00636603,0.0432908,706,827,-26.5332,-1.06494
-511,197,-26.6323,0.96698,-0.00499489,0.0074468,-0.000173962,0.00744923,-0.00499732,-1.55682,0.00723235,0.0430651,713,827,-26.6323,-0.966967
-504,197,-26.6312,1.07385,-0.00378186,0.00924502,-0.000290194,0.00925148,-0.00378832,-1.54853,0.00774564,0.0398494,720,827,-26.6312,-1.07387
-497,197,-26.7598,1.05682,-0.0013246,0.0109095,-0.000407314,0.010923,-0.00133815,-1.53755,0.00776658,0.039132,727,827,-26.7598,-1.0568
-490,197,-26.7541,1.04626,0.00323253,0.0117335,-0.000538448,0.0117675,0.00319856,-1.50779,0.00702585,0.0376407,734,827,-26.7541,-1.04624
-483,197,-26.6151,1.08997,0.0111187,0.0108083,-0.000718323,0.0116984,0.0102286,-0.678999,0.00735811,0.0402356,741,827,-26.6151,-1.08998
-476,197,0,0,0,0,0,0,0,0,0,-1,748,827,0,0
-469,197,0,0,0,0,0,0,0,0,0,-1,755,827,0,0
-462,197,0,0,0,0,0,0,0,0,0,-1,762,827,0,0
-455,197,0,0,0,0,0,0,0,0,0,-1,769,827,0,0
-448,197,0,0,0,0,0,0,0,0,0,-1,776,827,0,0
-441,197,0,0,0,0,0,0,0,0,0,-1,783,827,0,0
-434,197,0,0,0,0,0,0,0,0,0,-1,790,827,0,0
-427,197,0,0,0,0,0,0,0,0,0,-1,797,827,0,0
-420,197,0,0,0,0,0,0,0,0,0,-1,804,827,0,0
-413,197,0,0,0,0,0,0,0,0,0,-1,811,827,0,0
-406,197,0,0,0,0,0,0,0,0,0,-1,818,827,0,0
-399,197,0,0,0,0,0,0,0,0,0,-1,825,827,0,0
-392,197,0,0,0,0,0,0,0,0,0,-1,832,827,0,0
-385,197,0,0,0,0,0,0,0,0,0,-1,839,827,0,0
-378,197,0,0,0,0,0,0,0,0,0,-1,846,827,0,0
-371,197,0,0,0,0,0,0,0,0,0,-1,853,827,0,0
-364,197,0,0,0,0,0,0,0,0,0,-1,860,827,0,0
-357,197,0,0,0,0,0,0,0,0,0,-1,867,827,0,0
-350,197,0,0,0,0,0,0,0,0,0,-1,874,827,0,0
-343,197,0,0,0,0,0,0,0,0,0,-1,881,827,0,0
-336,197,0,0,0,0,0,0,0,0,0,-1,888,827,0,0
-329,197,0,0,0,0,0,0,0,0,0,-1,895,827,0,0
-322,197,0,0,0,0,0,0,0,0,0,-1,902,827,0,0
-315,197,0,0,0,0,0,0,0,0,0,-1,909,827,0,0
-308,197,0,0,0,0,0,0,0,0,0,-1,916,827,0,0
-301,197,0,0,0,0,0,0,0,0,0,-1,923,827,0,0
-294,197,0,0,0,0,0,0,0,0,0,-1,930,827,0,0
-287,197,0,0,0,0,0,0,0,0,0,-1,937,827,0,0
-280,197,0,0,0,0,0,0,0,0,0,-1,944,827,0,0
-273,197,0,0,0,0,0,0,0,0,0,-1,951,827,0,0
-266,197,0,0,0,0,0,0,0,0,0,-1,958,827,0,0
-259,197,0,0,0,0,0,0,0,0,0,-1,965,827,0,0
-252,197,0,0,0,0,0,0,0,0,0,-1,972,827,0,0
-245,197,0,0,0,0,0,0,0,0,0,-1,979,827,0,0
-238,197,0,0,0,0,0,0,0,0,0,-1,986,827,0,0
-231,197,0,0,0,0,0,0,0,0,0,-1,993,827,0,0
-224,197,0,0,0,0,0,0,0,0,0,-1,1000,827,0,0
-217,197,0,0,0,0,0,0,0,0,0,-1,1007,827,0,0
-210,197,0,0,0,0,0,0,0,0,0,-1,1014,827,0,0
-203,197,0,0,0,0,0,0,0,0,0,-1,1021,827,0,0
-196,197,0,0,0,0,0,0,0,0,0,-1,1028,827,0,0
-189,197,0,0,0,0,0,0,0,0,0,-1,1035,827,0,0
-182,197,0,0,0,0,0,0,0,0,0,-1,1042,827,0,0
-175,197,0,0,0,0,0,0,0,0,0,-1,1049,827,0,0
-168,197,0,0,0,0,0,0,0,0,0,-1,1056,827,0,0
-161,197,0,0,0,0,0,0,0,0,0,-1,1063,827,0,0
-154,197,0,0,0,0,0,0,0,0,0,-1,1070,827,0,0
-147,197,0,0,0,0,0,0,0,0,0,-1,1077,827,0,0
-140,197,0,0,0,0,0,0,0,0,0,-1,1084,827,0,0
-133,197,0,0,0,0,0,0,0,0,0,-1,1091,827,0,0
-126,197,0,0,0,0,0,0,0,0,0,-1,1098,827,0,0
-119,197,0,0,0,0,0,0,0,0,0,-1,1105,827,0,0
-112,197,0,0,0,0,0,0,0,0,0,-1,1112,827,0,0
-105,197,0,0,0,0,0,0,0,0,0,-1,1119,827,0,0
-98,197,0,0,0,0,0,0,0,0,0,-1,1126,827,0,0
-91,197,0,0,0,0,0,0,0,0,0,-1,1133,827,0,0
-84,197,0,0,0,0,0,0,0,0,0,-1,1140,827,0,0
-77,197,0,0,0,0,0,0,0,0,0,-1,1147,827,0,0
-70,197,0,0,0,0,0,0,0,0,0,-1,1154,827,0,0
-63,197,0,0,0,0,0,0,0,0,0,-1,1161,827,0,0
-56,197,0,0,0,0,0,0,0,0,0,-1,1168,827,0,0
-49,197,0,0,0,0,0,0,0,0,0,-1,1175,827,0,0
-42,197,0,0,0,0,0,0,0,0,0,-1,1182,827,0,0
-35,197,0,0,0,0,0,0,0,0,0,-1,1189,827,0,0
-28,197,0,0,0,0,0,0,0,0,0,-1,1196,827,0,0
-21,197,0,0,0,0,0,0,0,0,0,-1,1203,827,0,0
-14,197,0,0,0,0,0,0,0,0,0,-1,1210,827,0,0
-7,197,0,0,0,0,0,0,0,0,0,-1,1217,827,0,0
0,197,0,0,0,0,0,0,0,0,0,-1,1224,827,0,0
7,197,0,0,0,0,0,0,0,0,0,-1,1231,827,0,0
14,197,0,0,0,0,0,0,0,0,0,-1,1238,827,0,0
21,197,0,0,0,0,0,0,0,0,0,-1,1245,827,0,0
28,197,0,0,0,0,0,0,0,0,0,-1,1252,827,0,0
35,197,0,0,0,0,0,0,0,0,0,-1,1259,827,0,0
42,197,0,0,0,0,0,0,0,0,0,-1,1266,827,0,0
49,197,0,0,0,0,0,0,0,0,0,-1,1273,827,0,0
56,197,0,0,0,0,0,0,0,0,0,-1,1280,827,0,0
63,197,0,0,0,0,0,0,0,0,0,-1,1287,827,0,0
70,197,0,0,0,0,0,0,0,0,0,-1,1294,827,0,0
77,197,0,0,0,0,0,0,0,0,0,-1,1301,827,0,0
84,197,0,0,0,0,0,0,0,0,0,-1,1308,827,0,0
91,197,0,0,0,0,0,0,0,0,0,-1,1315,827,0,0
98,197,0,0,0,0,0,0,0,0,0,-1,1322,827,0,0
105,197,0,0,0,0,0,0,0,0,0,-1,1329,827,0,0
112,197,0,0,0,0,0,0,0,0,0,-1,1336,827,0,0
119,197,0,0,0,0,0,0,0,0,0,-1,1343,827,0,0
126,197,0,0,0,0,0,0,0,0,0,-1,1350,827,0,0
133,197,0,0,0,0,0,0,0,0,0,-1,1357,827,0,0
140,197,0,0,0,0,0,0,0,0,0,-1,1364,827,0,0
147,197,0,0,0,0,0,0,0,0,0,-1,1371,827,0,0
154,197,0,0,0,0,0,0,0,0,0,-1,1378,827,0,0
161,197,0,0,0,0,0,0,0,0,0,-1,1385,827,0,0
168,197,0,0,0,0,0,0,0,0,0,-1,1392,827,0,0
175,197,0,0,0,0,0,0,0,0,0,-1,1399,827,0,0
182,197,0,0,0,0,0,0,0,0,0,-1,1406,827,0,0
189,197,0,0,0,0,0,0,0,0,0,-1,1413,827,0,0
196,197,0,0,0,0,0,0,0,0,0,-1,1420,827,0,0
203,197,0,0,0,0,0,0,0,0,0,-1,1427,827,0,0
210,197,0,0,0,0,0,0,0,0,0,-1,1434,827,0,0
217,197,0,0,0,0,0,0,0,0,0,-1,1441,827,0,0
224,197,0,0,0,0,0,0,0,0,0,-1,1448,827,0,0
231,197,0,0,0,0,0,0,0,0,0,-1,1455,827,0,0
238,197,0,0,0,0,0,0,0,0,0,-1,1462,827,0,0
245,197,0,0,0,0,0,0,0,0,0,-1,1469,827,0,0
252,197,0,0,0,0,0,0,0,0,0,-1,1476,827,0,0
259,197,0,0,0,0,0,0,0,0,0,-1,1483,827,0,0
266,197,0,0,0,0,0,0,0,0,0,-1,1490,827,0,0
273,197,0,0,0,0,0,0,0,0,0,-1,1497,827,0,0
280,197,0,0,0,0,0,0,0,0,0,-1,1504,827,0,0
287,197,0,0,0,0,0,0,0,0,0,-1,1511,827,0,0
294,197,0,0,0,0,0,0,0,0,0,-1,1518,827,0,0
301,197,0,0,0,0,0,0,0,0,0,-1,1525,827,0,0
308,197,0,0,0,0,0,0,0,0,0,-1,1532,827,0,0
315,197,0,0,0,0,0,0,0,0,0,-1,1539,827,0,0
322,197,0,0,0,0,0,0,0,0,0,-1,1546,827,0,0
329,197,0,0,0,0,0,0,0,0,0,-1,1553,827,0,0
336,197,0,0,0,0,0,0,0,0,0,-1,1560,827,0,0
343,197,0,0,0,0,0,0,0,0,0,-1,1567,827,0,0
350,197,0,0,0,0,0,0,0,0,0,-1,1574,827,0,0
357,197,0,0,0,0,0,0,0,0,0,-1,1581,827,0,0
364,197,0,0,0,0,0,0,0,0,0,-1,1588,827,0,0
371,197,0,0,0,0,0,0,0,0,0,-1,1595,827,0,0
378,197,0,0,0,0,0,0,0,0,0,-1,1602,827,0,0
385,197,0,0,0,0,0,0,0,0,0,-1,1609,827,0,0
392,197,0,0,0,0,0,0,0,0,0,-1,1616,827,0,0
399,197,0,0,0,0,0,0,0,0,0,-1,1623,827,0,0
406,197,0,0,0,0,0,0,0,0,0,-1,1630,827,0,0
413,197,0,0,0,0,0,0,0,0,0,-1,1637,827,0,0
420,197,0,0,0,0,0,0,0,0,0,-1,1644,827,0,0
427,197,0,0,0,0,0,0,0,0,0,-1,1651,827,0,0
434,197,0,0,0,0,0,0,0,0,0,-1,1658,827,0,0
441,197,0,0,0,0,0,0,0,0,0,-1,1665,827,0,0
448,197,0,0,0,0,0,0,0,0,0,-1,1672,827,0,0
455,197,0,0,0,0,0,0,0,0,0,-1,1679,827,0,0
462,197,0,0,0,0,0,0,0,0,0,-1,1686,827,0,0
469,197,0,0,0,0,0,0,0,0,0,-1,1693,827,0,0
476,197,0,0,0,0,0,0,0,0,0,-1,1700,827,0,0
483,197,0,0,0,0,0,0,0,0,0,-1,1707,827,0,0
490,197,0,0,0,0,0,0,0,0,0,-1,1714,827,0,0
497,197,0,0,0,0,0,0,0,0,0,-1,1721,827,0,0
504,197,0,0,0,0,0,0,0,0,0,-1,1728,827,0,0
511,197,0,0,0,0,0,0,0,0,0,-1,1735,827,0,0
518,197,0,0,0,0,0,0,0,0,0,-1,1742,827,0,0
525,197,0,0,0,0,0,0,0,0,0,-1,1749,827,0,0
532,197,0,0,0,0,0,0,0,0,0,-1,1756,827,0,0
539,197,0,0,0,0,0,0,0,0,0,-1,1763,827,0,0
546,197,0,0,0,0,0,0,0,0,0,-1,1770,827,0,0
553,197,0,0,0,0,0,0,0,0,0,-1,1777,827,0,0
560,197,0,0,0,0,0,0,0,0,0,-1,1784,827,0,0
567,197,0,0,0,0,0,0,0,0,0,-1,1791,827,0,0
574,197,0,0,0,0,0,0,0,0,0,-1,1798,827,0,0
581,197,0,0,0,0,0,0,0,0,0,-1,1805,827,0,0
588,197,0,0,0,0,0,0,0,0,0,-1,1812,827,0,0
595,197,0,0,0,0,0,0,0,0,0,-1,1819,827,0,0
602,197,36.3511,2.823,-0.00307501,0.00327715,-0.000794532,0.00337502,-0.00317288,-1.44823,0.00378103,0.0408625,1826,827,36.3511,-2.82302
609,197,36.371,2.74945,-0.00243958,0.00368792,0.00033887,0.0037066,-0.00245826,1.51572,0.00358353,0.0420929,1833,827,36.371,-2.74943
616,197,36.3944,2.76782,-0.00190292,0.0032809,0.000538513,0.00333625,-0.00195828,1.46837,0.00309111,0.0409781,1840,827,36.3944,-2.76784
623,197,36.3645,2.70795,-0.00179534,0.00270039,0.000375305,0.0027315,-0.00182646,1.48808,0.00264878,0.0343971,1847,827,36.3645,-2.70797
630,197,36.3525,2.75281,-0.00189821,0.00215598,9.91754e-05,0.00215841,-0.00190064,1.54635,0.00234507,0.028751,1854,827,36.3525,-2.75281
637,197,36.3418,2.84399,-0.00214181,0.00163057,-0.000215786,0.00164287,-0.00215412,-1.51384,0.00219881,0.0272659,1861,827,36.3417,-2.84397
644,197,36.3116,2.91083,-0.00236013,0.0010822,-0.000508939,0.00115587,-0.0024338,-1.42705,0.00211582,0.0341649,1868,827,36.3117,-2.9108
651,197,36.1429,3.50104,-0.00244651,0.000669972,-0.000783891,0.000856036,-0.00263258,-1.33775,0.0020994,0.0436248,1875,827,36.143,-3.50104
658,197,36.057,4.02655,0,0,0,0,0,0,0,-1,1882,827,36.057,-4.02656
665,197,14.0618,1.80304,0,0,0,0,0,0,0,-1,1889,827,14.0617,-1.80303
672,197,28.521,0.656982,0,0,0,0,0,0,0,-1,1896,827,28.521,-0.656969
679,197,28.3707,1.4256,-0.00215769,-0.00064281,-0.00146338,0.000247538,-0.00304804,-1.02421,0.00211936,0.0430328,1903,827,28.3707,-1.42563
686,197,28.2163,1.92981,-0.00210714,-0.000732898,-0.00162332,0.000342736,-0.00318278,-0.985605,0.00224483,0.024583,1910,827,28.2164,-1.9298
693,197,28.1675,2.33624,-0.00178031,-0.000816729,-0.00174891,0.000515543,-0.00311258,-0.919804,0.00226653,0.0147057,1917,827,28.1675,-2.33623
700,197,28.1172,2.74438,-0.00153999,-0.000734094,-0.00209193,0.000993344,-0.00326743,-0.880543,0.0025741,0.0204771,1924,827,28.1172,-2.74437
707,197,28.1758,3.12445,-0.00143839,-0.00113876,-0.00230711,0.00102339,-0.00360054,-0.81782,0.00280444,0.00861645,1931,827,28.1758,-3.12444
714,197,28.1731,3.52405,-0.00103321,-0.000720433,-0.00217114,0.00129995,-0.00305359,-0.821351,0.00258059,0.0108474,1938,827,28.1731,-3.52407
721,197,28.1609,3.90698,-0.00078623,-0.000756424,-0.00253194,0.00176066,-0.00330331,-0.788341,0.00296856,0.0119558,1945,827,28.1609,-3.90698
728,197,28.1459,4.30341,-0.000723996,-0.00100926,-0.00305794,0.00219463,-0.00392789,-0.762093,0.00358174,0.010306,1952,827,28.1459,-4.3034
735,197,28.1239,4.70837,-0.000697307,-0.00162626,-0.00359316,0.00246127,-0.00478484,-0.721121,0.00425463,0.0107396,1959,827,28.1239,-4.7084
742,197,28.0986,5.13794,-0.000757733,-0.00266548,-0.00423406,0.00262857,-0.00605178,-0.674605,0.00513987,0.0187116,1966,827,28.0986,-5.13796
749,197,28.0621,5.58069,-0.000738483,-0.00428865,-0.00485592,0.00265662,-0.00768376,-0.610168,0.00620074,0.0409118,1973,827,28.0621,-5.58072
756,197,28.1213,6.09033,-0.000279166,-0.00662546,-0.00531685,0.00273943,-0.00964406,-0.516363,0.00751093,0.0498883,1980,827,28.1214,-6.09034
763,197,28.2516,6.56555,0,0,0,0,0,0,0,-1,1987,827,28.2516,-6.56557
770,197,28.907,6.26532,0,0,0,0,0,0,0,-1,1994,827,28.907,-6.26529
777,197,0,0,0,0,0,0,0,0,0,-1,2001,827,0,0
784,197,0,0,0,0,0,0,0,0,0,-1,2008,827,0,0
791,197,0,0,0,0,0,0,0,0,0,-1,2015,827,0,0
798,197,0,0,0,0,0,0,0,0,0,-1,2022,827,0,0
805,197,0,0,0,0,0,0,0,0,0,-1,2029,827,0,0
812,197,0,0,0,0,0,0,0,0,0,-1,2036,827,0,0
-700,190,0,0,0,0,0,0,0,0,0,-1,524,834,0,0
-693,190,0,0,0,0,0,0,0,0,0,-1,531,834,0,0
-686,190,0,0,0,0,0,0,0,0,0,-1,538,834,0,0
-679,190,0,0,0,0,0,0,0,0,0,-1,545,834,0,0
-672,190,0,0,0,0,0,0,0,0,0,-1,552,834,0,0
-665,190,0,0,0,0,0,0,0,0,0,-1,559,834,0,0
-658,190,-26.4458,3.51239,0,0,0,0,0,0,0,-1,566,834,-26.4458,-3.51236
-651,190,-26.6909,3.63422,0,0,0,0,0,0,0,-1,573,834,-26.6909,-3.63423
-644,190,-20.2998,5.552,0,0,0,0,0,0,0,-1,580,834,-20.2998,-5.55198
-637,190,-20.5225,3.9621,0,0,0,0,0,0,0,-1,587,834,-20.5225,-3.96209
-630,190,-19.7352,3.67578,0,0,0,0,0,0,0,-1,594,834,-19.7352,-3.67576
-623,190,-19.7628,3.30054,0.0128601,0.00196375,0.00319838,0.0137295,0.00109431,0.265424,0.00881091,0.049921,601,834,-19.7628,-3.30055
-616,190,-19.7502,2.80811,0.00649665,0.00275061,0.00111364,0.00680271,0.00244455,0.268207,0.00397901,0.0440565,608,834,-19.7502,-2.80813
-609,190,-19.7993,2.39789,0.00266667,0.00320792,-0.000142494,0.00324314,0.00263145,-1.32847,0.00198979,0.023616,615,834,-19.7993,-2.39786
-602,190,-19.8853,2.09753,-0.000394725,0.00351556,-0.000765901,0.00366022,-0.000539388,-1.38411,0.00263839,0.0153488,622,834,-19.8853,-2.09756
-595,190,-19.9219,1.73834,-0.00159404,0.00185352,-0.000288135,0.00187743,-0.00161795,-1.48799,0.00201991,0.0182357,629,834,-19.922,-1.73835
-588,190,-19.9292,1.33466,-0.001341,0.000744729,2.56512e-05,0.000745045,-0.00134131,1.5585,0.00122085,0.016079,636,834,-19.9292,-1.33467
-581,190,-19.9054,0.967896,-0.00111332,-2.39395e-05,0.000633698,0.000266991,-0.00140425,1.1404,0.00103669,0.0112269,643,834,-19.9054,-0.96788
-574,190,-19.893,0.598694,-0.00107312,-0.000733902,0.00107628,0.000186045,-0.00199307,0.863551,0.00139487,0.010798,650,834,-19.893,-0.598684
-567,190,-19.8744,0.17627,-0.00202738,-0.000959649,0.000952351,-0.000401733,-0.00258529,1.04086,0.00160645,0.0165982,657,834,-19.8744,-0.176242
-560,190,-19.9813,-0.135437,-0.00295969,-0.000594149,0.000511048,-0.000488464,-0.00306537,1.36687,0.00190179,0.0341878,664,834,-19.9812,0.135423
-553,190,-20.2974,-0.51709,0,0,0,0,0,0,0,-1,671,834,-20.2974,0.517097
-546,190,-20.0771,-0.865601,0,0,0,0,0,0,0,-1,678,834,-20.0771,0.865614
-539,190,-16.4624,-0.542542,0,0,0,0,0,0,0,-1,685,834,-16.4624,0.542527
-532,190,-21.6292,2.06122,0,0,0,0,0,0,0,-1,692,834,-21.6292,-2.06123
-525,190,-26.4028,1.35919,0,0,0,0,0,0,0,-1,699,834,-26.4028,-1.35919
-518,190,-26.5374,1.11823,-0.00416014,0.00507059,-0.000818777,0.00514266,-0.0042322,-1.48301,0.00542108,0.0464871,706,834,-26.5374,-1.11821
-511,190,-26.786,0.856873,-0.00349407,0.00659515,-0.000929678,0.0066801,-0.00357902,-1.47967,0.00601263,0.0437381,713,834,-26.786,-0.856856
-504,190,-27.035,0.923523,-0.00168936,0.00799086,-0.000953257,0.00808384,-0.00178234,-1.47357,0.00607118,0.0425919,720,834,-27.0351,-0.92355
-497,190,-27.0023,0.998901,0.00178043,0.00888576,-0.000825903,0.00898049,0.00168569,-1.45659,0.0055117,0.0444026,727,834,-27.0022,-0.998872
-490,190,-26.6757,1.2243,0.00789344,0.00845382,-0.000569313,0.00880815,0.0075391,-1.01407,0.00549812,0.0413226,734,834,-26.6757,-1.22428
-483,190,0,0,0,0,0,0,0,0,0,-1,741,834,0,0
-476,190,0,0,0,0,0,0,0,0,0,-1,748,834,0,0
-469,190,0,0,0,0,0,0,0,0,0,-1,755,834,0,0
-462,190,0,0,0,0,0,0,0,0,0,-1,762,834,0,0
-455,190,0,0,0,0,0,0,0,0,0,-1,769,834,0,0
-448,190,0,0,0,0,0,0,0,0,0,-1,776,834,0,0
-441,190,0,0,0,0,0,0,0,0,0,-1,783,834,0,0
-434,190,0,0,0,0,0,0,0,0,0,-1,790,834,0,0
-427,190,0,0,0,0,0,0,0,0,0,-1,797,834,0,0
-420,190,0,0,0,0,0,0,0,0,0,-1,804,834,0,0
-413,190,0,0,0,0,0,0,0,0,0,-1,811,834,0,0
-406,190,0,0,0,0,0,0,0,0,0,-1,818,834,0,0
-399,190,0,0,0,0,0,0,0,0,0,-1,825,834,0,0
-392,190,0,0,0,0,0,0,0,0,0,-1,832,834,0,0
-385,190,0,0,0,0,0,0,0,0,0,-1,839,834,0,0
-378,190,0,0,0,0,0,0,0,0,0,-1,846,834,0,0
-371,190,0,0,0,0,0,0,0,0,0,-1,853,834,0,0
-364,190,0,0,0,0,0,0,0,0,0,-1,860,834,0,0
-357,190,0,0,0,0,0,0,0,0,0,-1,867,834,0,0
-350,190,0,0,0,0,0,0,0,0,0,-1,874,834,0,0
-343,190,0,0,0,0,0,0,0,0,0,-1,881,834,0,0
-336,190,0,0,0,0,0,0,0,0,0,-1,888,834,0,0
-329,190,0,0,0,0,0,0,0,0,0,-1,895,834,0,0
-322,190,0,0,0,0,0,0,0,0,0,-1,902,834,0,0
-315,190,0,0,0,0,0,0,0,0,0,-1,909,834,0,0
-308,190,0,0,0,0,0,0,0,0,0,-1,916,834,0,0
-301,190,0,0,0,0,0,0,0,0,0,-1,923,834,0,0
-294,190,0,0,0,0,0,0,0,0,0,-1,930,834,0,0
-287,190,0,0,0,0,0,0,0,0,0,-1,937,834,0,0
-280,190,0,0,0,0,0,0,0,0,0,-1,944,834,0,0
-273,190,0,0,0,0,0,0,0,0,0,-1,951,834,0,0
-266,190,0,0,0,0,0,0,0,0,0,-1,958,834,0,0
-259,190,0,0,0,0,0,0,0,0,0,-1,965,834,0,0
-252,190,0,0,0,0,0,0,0,0,0,-1,972,834,0,0
-245,190,0,0,0,0,0,0,0,0,0,-1,979,834,0,0
-238,190,0,0,0,0,0,0,0,0,0,-1,986,834,0,0
-231,190,0,0,0,0,0,0,0,0,0,-1,993,834,0,0
-224,190,0,0,0,0,0,0,0,0,0,-1,1000,834,0,0
-217,190,0,0,0,0,0,0,0,0,0,-1,1007,834,0,0
-210,190,0,0,0,0,0,0,0,0,0,-1,1014,834,0,0
-203,190,0,0,0,0,0,0,0,0,0,-1,1021,834,0,0
-196,190,0,0,0,0,0,0,0,0,0,-1,1028,834,0,0
-189,190,0,0,0,0,0,0,0,0,0,-1,1035,834,0,0
-182,190,0,0,0,0,0,0,0,0,0,-1,1042,834,0,0
-175,190,0,0,0,0,0,0,0,0,0,-1,1049,834,0,0
-168,190,0,0,0,0,0,0,0,0,0,-1,1056,834,0,0
-161,190,0,0,0,0,0,0,0,0,0,-1,1063,834,0,0
-154,190,0,0,0,0,0,0,0,0,0,-1,1070,834,0,0
-147,190,0,0,0,0,0,0,0,0,0,-1,1077,834,0,0
-140,190,0,0,0,0,0,0,0,0,0,-1,1084,834,0,0
-133,190,0,0,0,0,0,0,0,0,0,-1,1091,834,0,0
-126,190,0,0,0,0,0,0,0,0,0,-1,1098,834,0,0
-119,190,0,0,0,0,0,0,0,0,0,-1,1105,834,0,0
-112,190,0,0,0,0,0,0,0,0,0,-1,1112,834,0,0
-105,190,0,0,0,0,0,0,0,0,0,-1,1119,834,0,0
-98,190,0,0,0,0,0,0,0,0,0,-1,1126,834,0,0
-91,190,0,0,0,0,0,0,0,0,0,-1,1133,834,0,0
-84,190,0,0,0,0,0,0,0,0,0,-1,1140,834,0,0
-77,190,0,0,0,0,0,0,0,0,0,-1,1147,834,0,0
-70,190,0,0,0,0,0,0,0,0,0,-1,1154,834,0,0
-63,190,0,0,0,0,0,0,0,0,0,-1,1161,834,0,0
-56,190,0,0,0,0,0,0,0,0,0,-1,1168,834,0,0
-49,190,0,0,0,0,0,0,0,0,0,-1,1175,834,0,0
-42,190,0,0,0,0,0,0,0,0,0,-1,1182,834,0,0
-35,190,0,0,0,0,0,0,0,0,0,-1,1189,834,0,0
-28,190,0,0,0,0,0,0,0,0,0,-1,1196,834,0,0
-21,190,0,0,0,0,0,0,0,0,0,-1,1203,834,0,0
-14,190,0,0,0,0,0,0,0,0,0,-1,1210,834,0,0
-7,190,0,0,0,0,0,0,0,0,0,-1,1217,834,0,0
0,190,0,0,0,0,0,0,0,0,0,-1,1224,834,0,0
7,190,0,0,0,0,0,0,0,0,0,-1,1231,834,0,0
14,190,0,0,0,0,0,0,0,0,0,-1,1238,834,0,0
21,190,0,0,0,0,0,0,0,0,0,-1,1245,834,0,0
28,190,0,0,0,0,0,0,0,0,0,-1,1252,834,0,0
35,190,0,0,0,0,0,0,0,0,0,-1,1259,834,0,0
42,190,0,0,0,0,0,0,0,0,0,-1,1266,834,0,0
49,190,0,0,0,0,0,0,0,0,0,-1,1273,834,0,0
56,190,0,0,0,0,0,0,0,0,0,-1,1280,834,0,0
63,190,0,0,0,0,0,0,0,0,0,-1,1287,834,0,0
70,190,0,0,0,0,0,0,0,0,0,-1,1294,834,0,0
77,190,0,0,0,0,0,0,0,0,0,-1,1301,834,0,0
84,190,0,0,0,0,0,0,0,0,0,-1,1308,834,0,0
91,190,0,0,0,0,0,0,0,0,0,-1,1315,834,0,0
98,190,0,0,0,0,0,0,0,0,0,-1,1322,834,0,0
105,190,0,0,0,0,0,0,0,0,0,-1,1329,834,0,0
112,190,0,0,0,0,0,0,0,0,0,-1,1336,834,0,0
119,190,0,0,0,0,0,0,0,0,0,-1,1343,834,0,0
126,190,0,0,0,0,0,0,0,0,0,-1,1350,834,0,0
133,190,0,0,0,0,0,0,0,0,0,-1,1357,834,0,0
140,190,0,0,0,0,0,0,0,0,0,-1,1364,834,0,0
147,190,0,0,0,0,0,0,0,0,0,-1,1371,834,0,0
154,190,0,0,0,0,0,0,0,0,0,-1,1378,834,0,0
161,190,0,0,0,0,0,0,0,0,0,-1,1385,834,0,0
168,190,0,0,0,0,0,0,0,0,0,-1,1392,834,0,0
175,190,0,0,0,0,0,0,0,0,0,-1,1399,834,0,0
182,190,0,0,0,0,0,0,0,0,0,-1,1406,834,0,0
189,190,0,0,0,0,0,0,0,0,0,-1,1413,834,0,0
196,190,0,0,0,0,0,0,0,0,0,-1,1420,834,0,0
203,190,0,0,0,0,0,0,0,0,0,-1,1427,834,0,0
210,190,0,0,0,0,0,0,0,0,0,-1,1434,834,0,0
217,190,0,0,0,0,0,0,0,0,0,-1,1441,834,0,0
224,190,0,0,0,0,0,0,0,0,0,-1,1448,834,0,0
231,190,0,0,0,0,0,0,0,0,0,-1,1455,834,0,0
238,190,0,0,0,0,0,0,0,0,0,-1,1462,834,0,0
245,190,0,0,0,0,0,0,0,0,0,-1,1469,834,0,0
252,190,0,0,0,0,0,0,0,0,0,-1,1476,834,0,0
259,190,0,0,0,0,0,0,0,0,0,-1,1483,834,0,0
266,190,0,0,0,0,0,0,0,0,0,-1,1490,834,0,0
273,190,0,0,0,0,0,0,0,0,0,-1,1497,834,0,0
280,190,0,0,0,0,0,0,0,0,0,-1,1504,834,0,0
287,190,0,0,0,0,0,0,0,0,0,-1,1511,834,0,0
294,190,0,0,0,0,0,0,0,0,0,-1,1518,834,0,0
301,190,0,0,0,0,0,0,0,0,0,-1,1525,834,0,0
308,190,0,0,0,0,0,0,0,0,0,-1,1532,834,0,0
315,190,0,0,0,0,0,0,0,0,0,-1,1539,834,0,0
322,190,0,0,0,0,0,0,0,0,0,-1,1546,834,0,0
329,190,0,0,0,0,0,0,0,0,0,-1,1553,834,0,0
336,190,0,0,0,0,0,0,0,0,0,-1,1560,834,0,0
343,190,0,0,0,0,0,0,0,0,0,-1,1567,834,0,0
350,190,0,0,0,0,0,0,0,0,0,-1,1574,834,0,0
357,190,0,0,0,0,0,0,0,0,0,-1,1581,834,0,0
364,190,0,0,0,0,0,0,0,0,0,-1,1588,834,0,0
371,190,0,0,0,0,0,0,0,0,0,-1,1595,834,0,0
378,190,0,0,0,0,0,0,0,0,0,-1,1602,834,0,0
385,190,0,0,0,0,0,0,0,0,0,-1,1609,834,0,0
392,190,0,0,0,0,0,0,0,0,0,-1,1616,834,0,0
399,190,0,0,0,0,0,0,0,0,0,-1,1623,834,0,0
406,190,0,0,0,0,0,0,0,0,0,-1,1630,834,0,0
413,190,0,0,0,0,0,0,0,0,0,-1,1637,834,0,0
420,190,0,0,0,0,0,0,0,0,0,-1,1644,834,0,0
427,190,0,0,0,0,0,0,0,0,0,-1,1651,834,0,0
434,190,0,0,0,0,0,0,0,0,0,-1,1658,834,0,0
441,190,0,0,0,0,0,0,0,0,0,-1,1665,834,0,0
448,190,0,0,0,0,0,0,0,0,0,-1,1672,834,0,0
455,190,0,0,0,0,0,0,0,0,0,-1,1679,834,0,0
462,190,0,0,0,0,0,0,0,0,0,-1,1686,834,0,0
469,190,0,0,0,0,0,0,0,0,0,-1,1693,834,0,0
476,190,0,0,0,0,0,0,0,0,0,-1,1700,834,0,0
483,190,0,0,0,0,0,0,0,0,0,-1,1707,834,0,0
490,190,0,0,0,0,0,0,0,0,0,-1,1714,834,0,0
497,190,0,0,0,0,0,0,0,0,0,-1,1721,834,0,0
504,190,0,0,0,0,0,0,0,0,0,-1,1728,834,0,0
511,190,0,0,0,0,0,0,0,0,0,-1,1735,834,0,0
518,190,0,0,0,0,0,0,0,0,0,-1,1742,834,0,0
525,190,0,0,0,0,0,0,0,0,0,-1,1749,834,0,0
532,190,0,0,0,0,0,0,0,0,0,-1,1756,834,0,0
539,190,0,0,0,0,0,0,0,0,0,-1,1763,834,0,0
546,190,0,0,0,0,0,0,0,0,0,-1,1770,834,0,0
553,190,0,0,0,0,0,0,0,0,0,-1,1777,834,0,0
560,190,0,0,0,0,0,0,0,0,0,-1,1784,834,0,0
567,190,0,0,0,0,0,0,0,0,0,-1,1791,834,0,0
574,190,0,0,0,0,0,0,0,0,0,-1,1798,834,0,0
581,190,0,0,0,0,0,0,0,0,0,-1,1805,834,0,0
588,190,0,0,0,0,0,0,0,0,0,-1,1812,834,0,0
595,190,0,0,0,0,0,0,0,0,0,-1,1819,834,0,0
602,190,36.4604,2.70209,-0.00364903,0.00420195,-0.00112063,0.00435878,-0.00380585,-1.43176,0.00471745,0.043192,1826,834,36.4605,-2.70206
609,190,36.5131,2.79077,-0.002971,0.0046033,0.000116443,0.00460509,-0.00297279,1.55543,0.00440879,0.0398891,1833,834,36.513,-2.79075
616,190,36.5039,2.89337,-0.00226565,0.00414198,0.000434007,0.00417125,-0.00229491,1.50347,0.00378527,0.0408206,1840,834,36.5039,-2.8934
623,190,36.5153,2.96301,0,0,0,0,0,0,0,-1,1847,834,36.5152,-2.96303
630,190,36.3916,2.91241,-0.0020595,0.00300762,0.00019466,0.00301509,-0.00206697,1.53246,0.0029511,0.0377128,1854,834,36.3916,-2.91244
637,190,36.3481,2.86719,-0.00225603,0.00245426,-8.30812e-05,0.00245572,-0.00225749,-1.55317,0.00272198,0.0329646,1861,834,36.3481,-2.86717
644,190,36.2986,2.89514,-0.00243075,0.00186482,-0.000352408,0.00189354,-0.00245947,-1.48948,0.00252028,0.0281085,1868,834,36.2986,-2.89512
651,190,36.2952,3.06818,-0.00246132,0.00138248,-0.000598662,0.00147356,-0.0025524,-1.41981,0.00235204,0.0372961,1875,834,36.2952,-3.06819
658,190,36.5034,2.59943,0,0,0,0,0,0,0,-1,1882,834,36.5034,-2.59942
665,190,25.9916,3.05157,0,0,0,0,0,0,0,-1,1889,834,25.9916,-3.05156
672,190,27.2662,1.70862,0,0,0,0,0,0,0,-1,1896,834,27.2662,-1.70861
679,190,28.9276,1.89648,0,0,0,0,0,0,0,-1,1903,834,28.9276,-1.89649
686,190,28.5759,2.01581,-0.00202254,-0.000245857,-0.00135059,0.000482357,-0.00275075,-1.0763,0.00201397,0.0211395,1910,834,28.5759,-2.01578
693,190,28.5933,2.35217,-0.00173683,-0.000460535,-0.00145508,0.000490177,-0.00268755,-0.992051,0.00197547,0.0138964,1917,834,28.5932,-2.35217
700,190,28.5499,2.72717,-0.00155526,-0.000541937,-0.00177959,0.000801711,-0.00289891,-0.924083,0.00224801,0.0117453,1924,834,28.5499,-2.72715
707,190,28.5734,3.12225,-0.00145371,-0.00110448,-0.00196644,0.000695077,-0.00325327,-0.829681,0.00243385,0.0127645,1931,834,28.5734,-3.12225
714,190,28.5886,3.50928,-0.00100553,-0.000796328,-0.00176913,0.000871293,-0.00267315,-0.814926,0.0021327,0.0117293,1938,834,28.5886,-3.50927
721,190,28.5796,3.91107,-0.000610639,-0.000950068,-0.0020023,0.00122913,-0.00278984,-0.743119,0.00237796,0.0113217,1945,834,28.5796,-3.91105
728,190,28.5616,4.28772,-0.000302878,-0.00117437,-0.00226044,0.00156343,-0.00304068,-0.690181,0.00270341,0.0131482,1952,834,28.5617,-4.28769
735,190,28.5612,4.6615,8.25853e-05,-0.00170271,-0.0023345,0.00168928,-0.00330941,-0.602789,0.00293608,0.012145,1959,834,28.5611,-4.66148
742,190,28.5123,5.13519,0.000518412,-0.00250793,-0.00235405,0.00180367,-0.00379319,-0.499751,0.0032987,0.0150268,1966,834,28.5124,-5.13517
749,190,28.3934,5.62439,0.00120355,-0.00365835,-0.00207101,0.00196612,-0.00442093,-0.352809,0.00377726,0.0381713,1973,834,28.3934,-5.62442
756,190,28.1238,5.086,0.00248862,-0.00521343,-0.00116096,0.00265981,-0.00538462,-0.146401,0.00473244,0.0492001,1980,834,28.1238,-5.08601
763,190,28.1099,5.26984,0,0,0,0,0,0,0,-1,1987,834,28.1098,-5.26982
770,190,28.8694,5.91718,0,0,0,0,0,0,0,-1,1994,834,28.8694,-5.91715
777,190,29.37,5.19446,0,0,0,0,0,0,0,-1,2001,834,29.3699,-5.19447
784,190,0,0,0,0,0,0,0,0,0,-1,2008,834,0,0
791,190,0,0,0,0,0,0,0,0,0,-1,2015,834,0,0
798,190,0,0,0,0,0,0,0,0,0,-1,2022,834,0,0
805,190,0,0,0,0,0,0,0,0,0,-1,2029,834,0,0
812,190,0,0,0,0,0,0,0,0,0,-1,2036,834,0,0
-700,183,0,0,0,0,0,0,0,0,0,-1,524,841,0,0
-693,183,0,0,0,0,0,0,0,0,0,-1,531,841,0,0
-686,183,0,0,0,0,0,0,0,0,0,-1,538,841,0,0
-679,183,0,0,0,0,0,0,0,0,0,-1,545,841,0,0
-672,183,0,0,0,0,0,0,0,0,0,-1,552,841,0,0
-665,183,0,0,0,0,0,0,0,0,0,-1,559,841,0,0
-658,183,-26.5705,2.82166,0,0,0,0,0,0,0,-1,566,841,-26.5705,-2.82164
-651,183,-19.939,7.33667,0,0,0,0,0,0,0,-1,573,841,-19.939,-7.33667
-644,183,-18.584,5.38,0,0,0,0,0,0,0,-1,580,841,-18.584,-5.37998
-637,183,-20.0783,3.65369,0,0,0,0,0,0,0,-1,587,841,-20.0783,-3.65369
-630,183,-19.9669,3.50922,0.0222108,-0.00156715,0.00843003,0.0248962,-0.00425258,0.308392,0.0181815,0.0476735,594,841,-19.9669,-3.50919
-623,183,-20.1588,3.15924,0.0125848,0.000455928,0.0045702,0.014114,-0.00107333,0.322903,0.00978677,0.044359,601,841,-20.1588,-3.15924
-616,183,-20.2043,2.77856,0.00618801,0.0015565,0.00227073,0.00711555,0.000628961,0.387791,0.00454856,0.0365516,608,841,-20.2043,-2.77858
-609,183,-20.2211,2.42694,0.00215658,0.00241146,0.000702916,0.00299839,0.00156964,0.875075,0.00173176,0.0161789,615,841,-20.2211,-2.42694
-602,183,-20.2556,2.07727,-0.00107194,0.00299876,-0.000106003,0.00300152,-0.00107469,-1.54478,0.00243947,0.0103922,622,841,-20.2556,-2.07725
-595,183,-20.2842,1.70532,-0.00227678,0.00135483,0.000330517,0.00138466,-0.00230662,1.48077,0.00215321,0.0105928,629,841,-20.2842,-1.70531
-588,183,-20.2703,1.32825,-0.0018495,0.000371938,0.000518631,0.000487056,-0.00196462,1.35237,0.00149871,0.0119533,636,841,-20.2703,-1.32826
-581,183,-20.288,0.982666,-0.00144775,-0.000221141,0.000967665,0.000311206,-0.0019801,1.06785,0.00143509,0.012356,643,841,-20.2879,-0.982664
-574,183,-20.2749,0.650574,-0.00129787,-0.000778373,0.00121519,0.000204514,-0.00228076,0.89069,0.00159306,0.0125345,650,841,-20.2749,-0.650579
-567,183,-20.1939,0.280334,-0.00208954,-0.000909755,0.000902458,-0.000421499,-0.00257779,1.07487,0.00159668,0.0321994,657,841,-20.1939,-0.280344
-560,183,-20.4069,-0.0328369,-0.00272092,-0.0006024,0.000296351,-0.000561725,-0.00276159,1.4344,0.00168532,0.0391899,664,841,-20.4069,0.0328565
-553,183,-20.6636,-0.561829,0,0,0,0,0,0,0,-1,671,841,-20.6636,0.561821
-546,183,-18.5858,-0.842224,0,0,0,0,0,0,0,-1,678,841,-18.5858,0.842224
-539,183,-16.8032,-0.417297,0,0,0,0,0,0,0,-1,685,841,-16.8032,0.41732
-532,183,-26.6499,1.18384,0,0,0,0,0,0,0,-1,692,841,-26.6499,-1.18382
-525,183,-26.647,1.05902,0,0,0,0,0,0,0,-1,699,841,-26.647,-1.05901
-518,183,-26.634,0.950867,-0.00275152,0.00400322,-0.00145394,0.00430288,-0.00305118,-1.36754,0.00426632,0.0473385,706,841,-26.634,-0.950853
-511,183,-26.9434,0.619934,-0.00165189,0.00523694,-0.0015104,0.00555355,-0.0019685,-1.36417,0.00450428,0.0449615,713,841,-26.9434,-0.619939
-504,183,-27.2133,0.56134,0.000887379,0.00615542,-0.00135664,0.00648426,0.00055854,-1.33299,0.00414921,0.0431089,720,841,-27.2133,-0.561346
-497,183,-27.101,0.655884,0.0054825,0.00625326,-0.000869943,0.00681936,0.0049164,-0.993903,0.00406328,0.0421821,727,841,-27.101,-0.655897
-490,183,-26.7336,0.919067,0.0131325,0.00475281,-0.00013826,0.0131348,0.00475053,-0.0164935,0.0076795,0.0408478,734,841,-26.7336,-0.919081
-483,183,0,0,0,0,0,0,0,0,0,-1,741,841,0,0
-476,183,0,0,0,0,0,0,0,0,0,-1,748,841,0,0
-469,183,0,0,0,0,0,0,0,0,0,-1,755,841,0,0
-462,183,0,0,0,0,0,0,0,0,0,-1,762,841,0,0
-455,183,0,0,0,0,0,0,0,0,0,-1,769,841,0,0
-448,183,0,0,0,0,0,0,0,0,0,-1,776,841,0,0
-441,183,0,0,0,0,0,0,0,0,0,-1,783,841,0,0
-434,183,0,0,0,0,0,0,0,0,0,-1,790,841,0,0
-427,183,0,0,0,0,0,0,0,0,0,-1,797,841,0,0
-420,183,0,0,0,0,0,0,0,0,0,-1,804,841,0,0
-413,183,0,0,0,0,0,0,0,0,0,-1,811,841,0,0
-406,183,0,0,0,0,0,0,0,0,0,-1,818,841,0,0
-399,183,0,0,0,0,0,0,0,0,0,-1,825,841,0,0
-392,183,0,0,0,0,0,0,0,0,0,-1,832,841,0,0
-385,183,0,0,0,0,0,0,0,0,0,-1,839,841,0,0
-378,183,0,0,0,0,0,0,0,0,0,-1,846,841,0,0
-371,183,0,0,0,0,0,0,0,0,0,-1,853,841,0,0
-364,183,0,0,0,0,0,0,0,0,0,-1,860,841,0,0
-357,183,0,0,0,0,0,0,0,0,0,-1,867,841,0,0
-350,183,0,0,0,0,0,0,0,0,0,-1,874,841,0,0
-343,183,0,0,0,0,0,0,0,0,0,-1,881,841,0,0
-336,183,0,0,0,0,0,0,0,0,0,-1,888,841,0,0
-329,183,0,0,0,0,0,0,0,0,0,-1,895,841,0,0
-322,183,0,0,0,0,0,0,0,0,0,-1,902,841,0,0
-315,183,0,0,0,0,0,0,0,0,0,-1,909,841,0,0
-308,183,0,0,0,0,0,0,0,0,0,-1,916,841,0,0
-301,183,0,0,0,0,0,0,0,0,0,-1,923,841,0,0
-294,183,0,0,0,0,0,0,0,0,0,-1,930,841,0,0
-287,183,0,0,0,0,0,0,0,0,0,-1,937,841,0,0
-280,183,0,0,0,0,0,0,0,0,0,-1,944,841,0,0
-273,183,0,0,0,0,0,0,0,0,0,-1,951,841,0,0
-266,183,0,0,0,0,0,0,0,0,0,-1,958,841,0,0
-259,183,0,0,0,0,0,0,0,0,0,-1,965,841,0,0
-252,183,0,0,0,0,0,0,0,0,0,-1,972,841,0,0
-245,183,0,0,0,0,0,0,0,0,0,-1,979,841,0,0
-238,183,0,0,0,0,0,0,0,0,0,-1,986,841,0,0
-231,183,0,0,0,0,0,0,0,0,0,-1,993,841,0,0
-224,183,0,0,0,0,0,0,0,0,0,-1,1000,841,0,0
-217,183,0,0,0,0,0,0,0,0,0,-1,1007,841,0,0
-210,183,0,0,0,0,0,0,0,0,0,-1,1014,841,0,0
-203,183,0,0,0,0,0,0,0,0,0,-1,1021,841,0,0
-196,183,0,0,0,0,0,0,0,0,0,-1,1028,841,0,0
-189,183,0,0,0,0,0,0,0,0,0,-1,1035,841,0,0
-182,183,0,0,0,0,0,0,0,0,0,-1,1042,841,0,0
-175,183,0,0,0,0,0,0,0,0,0,-1,1049,841,0,0
-168,183,0,0,0,0,0,0,0,0,0,-1,1056,841,0,0
-161,183,0,0,0,0,0,0,0,0,0,-1,1063,841,0,0
-154,183,0,0,0,0,0,0,0,0,0,-1,1070,841,0,0
-147,183,0,0,0,0,0,0,0,0,0,-1,1077,841,0,0
-140,183,0,0,0,0,0,0,0,0,0,-1,1084,841,0,0
-133,183,0,0,0,0,0,0,0,0,0,-1,1091,841,0,0
-126,183,0,0,0,0,0,0,0,0,0,-1,1098,841,0,0
-119,183,0,0,0,0,0,0,0,0,0,-1,1105,841,0,0
-112,183,0,0,0,0,0,0,0,0,0,-1,1112,841,0,0
-105,183,0,0,0,0,0,0,0,0,0,-1,1119,841,0,0
-98,183,0,0,0,0,0,0,0,0,0,-1,1126,841,0,0
-91,183,0,0,0,0,0,0,0,0,0,-1,1133,841,0,0
-84,183,0,0,0,0,0,0,0,0,0,-1,1140,841,0,0
-77,183,0,0,0,0,0,0,0,0,0,-1,1147,841,0,0
-70,183,0,0,0,0,0,0,0,0,0,-1,1154,841,0,0
-63,183,0,0,0,0,0,0,0,0,0,-1,1161,841,0,0
-56,183,0,0,0,0,0,0,0,0,0,-1,1168,841,0,0
-49,183,0,0,0,0,0,0,0,0,0,-1,1175,841,0,0
-42,183,0,0,0,0,0,0,0,0,0,-1,1182,841,0,0
-35,183,0,0,0,0,0,0,0,0,0,-1,1189,841,0,0
-28,183,0,0,0,0,0,0,0,0,0,-1,1196,841,0,0
-21,183,0,0,0,0,0,0,0,0,0,-1,1203,841,0,0
-14,183,0,0,0,0,0,0,0,0,0,-1,1210,841,0,0
-7,183,0,0,0,0,0,0,0,0,0,-1,1217,841,0,0
0,183,0,0,0,0,0,0,0,0,0,-1,1224,841,0,0
7,183,0,0,0,0,0,0,0,0,0,-1,1231,841,0,0
14,183,0,0,0,0,0,0,0,0,0,-1,1238,841,0,0
21,183,0,0,0,0,0,0,0,0,0,-1,1245,841,0,0
28,183,0,0,0,0,0,0,0,0,0,-1,1252,841,0,0
35,183,0,0,0,0,0,0,0,0,0,-1,1259,841,0,0
42,183,0,0,0,0,0,0,0,0,0,-1,1266,841,0,0
49,183,0,0,0,0,0,0,0,0,0,-1,1273,841,0,0
56,183,0,0,0,0,0,0,0,0,0,-1,1280,841,0,0
63,183,0,0,0,0,0,0,0,0,0,-1,1287,841,0,0
70,183,0,0,0,0,0,0,0,0,0,-1,1294,841,0,0
77,183,0,0,0,0,0,0,0,0,0,-1,1301,841,0,0
84,183,0,0,0,0,0,0,0,0,0,-1,1308,841,0,0
91,183,0,0,0,0,0,0,0,0,0,-1,1315,841,0,0
98,183,0,0,0,0,0,0,0,0,0,-1,1322,841,0,0
105,183,0,0,0,0,0,0,0,0,0,-1,1329,841,0,0
112,183,0,0,0,0,0,0,0,0,0,-1,1336,841,0,0
119,183,0,0,0,0,0,0,0,0,0,-1,1343,841,0,0
126,183,0,0,0,0,0,0,0,0,0,-1,1350,841,0,0
133,183,0,0,0,0,0,0,0,0,0,-1,1357,841,0,0
140,183,0,0,0,0,0,0,0,0,0,-1,1364,841,0,0
147,183,0,0,0,0,0,0,0,0,0,-1,1371,841,0,0
154,183,0,0,0,0,0,0,0,0,0,-1,1378,841,0,0
161,183,0,0,0,0,0,0,0,0,0,-1,1385,841,0,0
168,183,0,0,0,0,0,0,0,0,0,-1,1392,841,0,0
175,183,0,0,0,0,0,0,0,0,0,-1,1399,841,0,0
182,183,0,0,0,0,0,0,0,0,0,-1,1406,841,0,0
189,183,0,0,0,0,0,0,0,0,0,-1,1413,841,0,0
196,183,0,0,0,0,0,0,0,0,0,-1,1420,841,0,0
203,183,0,0,0,0,0,0,0,0,0,-1,1427,841,0,0
210,183,0,0,0,0,0,0,0,0,0,-1,1434,841,0,0
217,183,0,0,0,0,0,0,0,0,0,-1,1441,841,0,0
224,183,0,0,0,0,0,0,0,0,0,-1,1448,841,0,0
231,183,0,0,0,0,0,0,0,0,0,-1,1455,841,0,0
238,183,0,0,0,0,0,0,0,0,0,-1,1462,841,0,0
245,183,0,0,0,0,0,0,0,0,0,-1,1469,841,0,0
252,183,0,0,0,0,0,0,0,0,0,-1,1476,841,0,0
259,183,0,0,0,0,0,0,0,0,0,-1,1483,841,0,0
266,183,0,0,0,0,0,0,0,0,0,-1,1490,841,0,0
273,183,0,0,0,0,0,0,0,0,0,-1,1497,841,0,0
280,183,0,0,0,0,0,0,0,0,0,-1,1504,841,0,0
287,183,0,0,0,0,0,0,0,0,0,-1,1511,841,0,0
294,183,0,0,0,0,0,0,0,0,0,-1,1518,841,0,0
301,183,0,0,0,0,0,0,0,0,0,-1,1525,841,0,0
308,183,0,0,0,0,0,0,0,0,0,-1,1532,841,0,0
315,183,0,0,0,0,0,0,0,0,0,-1,1539,841,0,0
322,183,0,0,0,0,0,0,0,0,0,-1,1546,841,0,0
329,183,0,0,0,0,0,0,0,0,0,-1,1553,841,0,0
336,183,0,0,0,0,0,0,0,0,0,-1,1560,841,0,0
343,183,0,0,0,0,0,0,0,0,0,-1,1567,841,0,0
350,183,0,0,0,0,0,0,0,0,0,-1,1574,841,0,0
357,183,0,0,0,0,0,0,0,0,0,-1,1581,841,0,0
364,183,0,0,0,0,0,0,0,0,0,-1,1588,841,0,0
371,183,0,0,0,0,0,0,0,0,0,-1,1595,841,0,0
378,183,0,0,0,0,0,0,0,0,0,-1,1602,841,0,0
385,183,0,0,0,0,0,0,0,0,0,-1,1609,841,0,0
392,183,0,0,0,0,0,0,0,0,0,-1,1616,841,0,0
399,183,0,0,0,0,0,0,0,0,0,-1,1623,841,0,0
406,183,0,0,0,0,0,0,0,0,0,-1,1630,841,0,0
413,183,0,0,0,0,0,0,0,0,0,-1,1637,841,0,0
420,183,0,0,0,0,0,0,0,0,0,-1,1644,841,0,0
427,183,0,0,0,0,0,0,0,0,0,-1,1651,841,0,0
434,183,0,0,0,0,0,0,0,0,0,-1,1658,841,0,0
441,183,0,0,0,0,0,0,0,0,0,-1,1665,841,0,0
448,183,0,0,0,0,0,0,0,0,0,-1,1672,841,0,0
455,183,0,0,0,0,0,0,0,0,0,-1,1679,841,0,0
462,183,0,0,0,0,0,0,0,0,0,-1,1686,841,0,0
469,183,0,0,0,0,0,0,0,0,0,-1,1693,841,0,0
476,183,0,0,0,0,0,0,0,0,0,-1,1700,841,0,0
483,183,0,0,0,0,0,0,0,0,0,-1,1707,841,0,0
490,183,0,0,0,0,0,0,0,0,0,-1,1714,841,0,0
497,183,0,0,0,0,0,0,0,0,0,-1,1721,841,0,0
504,183,0,0,0,0,0,0,0,0,0,-1,1728,841,0,0
511,183,0,0,0,0,0,0,0,0,0,-1,1735,841,0,0
518,183,0,0,0,0,0,0,0,0,0,-1,1742,841,0,0
525,183,0,0,0,0,0,0,0,0,0,-1,1749,841,0,0
532,183,0,0,0,0,0,0,0,0,0,-1,1756,841,0,0
539,183,0,0,0,0,0,0,0,0,0,-1,1763,841,0,0
546,183,0,0,0,0,0,0,0,0,0,-1,1770,841,0,0
553,183,0,0,0,0,0,0,0,0,0,-1,1777,841,0,0
560,183,0,0,0,0,0,0,0,0,0,-1,1784,841,0,0
567,183,0,0,0,0,0,0,0,0,0,-1,1791,841,0,0
574,183,0,0,0,0,0,0,0,0,0,-1,1798,841,0,0
581,183,0,0,0,0,0,0,0,0,0,-1,1805,841,0,0
588,183,0,0,0,0,0,0,0,0,0,-1,1812,841,0,0
595,183,0,0,0,0,0,0,0,0,0,-1,1819,841,0,0
602,183,0,0,0,0,0,0,0,0,0,-1,1826,841,0,0
609,183,36.5498,2.74133,-0.00286891,0.00479042,-0.000240657,0.00479797,-0.00287646,-1.53942,0.00447689,0.0406794,1833,841,36.5498,-2.74136
616,183,36.5253,2.80798,-0.00239585,0.00419973,0.000110668,0.00420158,-0.00239771,1.55402,0.00385726,0.0408494,1840,841,36.5253,-2.80797
623,183,36.4625,2.82489,-0.00229953,0.00368536,0.00019997,0.00369203,-0.0023062,1.53743,0.00349375,0.0435954,1847,841,36.4625,-2.8249
630,183,36.3588,2.83264,-0.00233298,0.0032029,0.000137187,0.0032063,-0.00233637,1.54604,0.00321318,0.0399751,1854,841,36.3587,-2.83265
637,183,36.2876,2.84369,-0.00249857,0.00273445,-3.91798e-05,0.00273475,-0.00249886,-1.56331,0.00302265,0.0342047,1861,841,36.2875,-2.8437
644,183,36.2294,2.86243,-0.00261325,0.00221106,-0.000246,0.00222357,-0.00262576,-1.51998,0.00280297,0.0287982,1868,841,36.2294,-2.86245
651,183,36.3097,2.85492,-0.00260681,0.00175339,-0.000458895,0.00180117,-0.00265458,-1.46706,0.00258821,0.0252809,1875,841,36.3097,-2.85491
658,183,36.4879,2.61688,-0.00256234,0.00131251,-0.000638927,0.00141514,-0.00266497,-1.41152,0.00239221,0.0462813,1882,841,36.4879,-2.61687
665,183,36.6146,2.38452,0,0,0,0,0,0,0,-1,1889,841,36.6147,-2.38451
672,183,29.168,1.54572,0,0,0,0,0,0,0,-1,1896,841,29.168,-1.54574
679,183,29.1228,1.78125,0,0,0,0,0,0,0,-1,1903,841,29.1228,-1.78127
686,183,29.0677,2.02411,-0.00204264,0.000208708,-0.00105969,0.000629025,-0.00246295,-1.19319,0.00188692,0.0229888,1910,841,29.0678,-2.02411
693,183,29.0502,2.35834,-0.00180614,-6.84413e-05,-0.00114196,0.000497619,-0.0023722,-1.1106,0.0017708,0.0188728,1917,841,29.0502,-2.35834
700,183,28.9954,2.75977,-0.00167705,-0.000261573,-0.00144287,0.000637793,-0.00257641,-1.01341,0.00196502,0.0172752,1924,841,28.9953,-2.75976
707,183,28.9652,3.15656,-0.00157683,-0.000897816,-0.00163431,0.000431876,-0.00290652,-0.88781,0.00209652,0.0127442,1931,841,28.9652,-3.15657
714,183,28.9863,3.54236,-0.00110995,-0.00067423,-0.00141725,0.000541809,-0.00232599,-0.861661,0.00175929,0.016699,1938,841,28.9864,-3.54238
721,183,28.968,3.91425,-0.000645853,-0.000895385,-0.00153689,0.000771327,-0.00231257,-0.744897,0.00185312,0.0152968,1945,841,28.968,-3.91423
728,183,28.944,4.30402,-0.000192551,-0.00105844,-0.0015904,0.00102278,-0.00227377,-0.652507,0.00194841,0.013446,1952,841,28.944,-4.30404
735,183,28.9408,4.67456,0.000437983,-0.001457,-0.00135461,0.00114359,-0.0021626,-0.480218,0.00193881,0.0127374,1959,841,28.9408,-4.67457
742,183,28.9347,5.06897,0.00120924,-0.00200054,-0.000996478,0.00149343,-0.00228474,-0.277823,0.00219722,0.0115785,1966,841,28.9347,-5.06895
749,183,28.854,5.51556,0.00236512,-0.0027021,-0.000195876,0.00237268,-0.00270966,-0.0385789,0.00293644,0.0329522,1973,841,28.854,-5.51558
756,183,28.7686,5.30786,0.00420204,-0.00359335,0.00142178,0.00445326,-0.00384457,0.174888,0.00479505,0.046651,1980,841,28.7685,-5.30786
763,183,28.8038,5.50427,0,0,0,0,0,0,0,-1,1987,841,28.8038,-5.50425
770,183,30.6621,6.45502,0,0,0,0,0,0,0,-1,1994,841,30.6621,-6.45499
777,183,31.4872,8.49878,0,0,0,0,0,0,0,-1,2001,841,31.4872,-8.49877
784,183,0,0,0,0,0,0,0,0,0,-1,2008,841,0,0
791,183,0,0,0,0,0,0,0,0,0,-1,2015,841,0,0
798,183,0,0,0,0,0,0,0,0,0,-1,2022,841,0,0
805,183,0,0,0,0,0,0,0,0,0,-1,2029,841,0,0
812,183,0,0,0,0,0,0,0,0,0,-1,2036,841,0,0
-700,176,0,0,0,0,0,0,0,0,0,-1,524,848,0,0
-693,176,0,0,0,0,0,0,0,0,0,-1,531,848,0,0
-686,176,0,0,0,0,0,0,0,0,0,-1,538,848,0,0
-679,176,0,0,0,0,0,0,0,0,0,-1,545,848,0,0
-672,176,0,0,0,0,0,0,0,0,0,-1,552,848,0,0
-665,176,-21.0126,2.94806,0,0,0,0,0,0,0,-1,559,848,-21.0125,-2.94806
-658,176,-20.5269,3.39404,0,0,0,0,0,0,0,-1,566,848,-20.5269,-3.39404
-651,176,-19.781,4.69824,0,0,0,0,0,0,0,-1,573,848,-19.781,-4.69823
-644,176,-19.4968,4.66693,0,0,0,0,0,0,0,-1,580,848,-19.4968,-4.66692
-637,176,-19.8742,4.34198,0,0,0,0,0,0,0,-1,587,848,-19.8742,-4.342
-630,176,-20.1156,3.84125,0.0217846,-0.00219631,0.00834395,0.0244021,-0.00481381,0.303979,0.0180874,0.0431245,594,848,-20.1156,-3.84122
-623,176,-20.5176,3.09741,0.012566,-0.000314651,0.00508118,0.0143291,-0.00207775,0.333987,0.0103153,0.0388053,601,848,-20.5176,-3.09743
-616,176,-20.5811,2.7879,0.00611959,0.000880614,0.0028963,0.00740527,-0.000405057,0.417771,0.00507725,0.0259834,608,848,-20.5811,-2.7879
-609,176,-20.6044,2.42773,0.00191806,0.00191778,0.00119741,0.00311533,0.000720511,0.785341,0.00188323,0.0114488,615,848,-20.6044,-2.42772
-602,176,-20.6294,2.06396,-0.00145504,0.00260641,0.00031164,0.00263018,-0.00147882,1.49466,0.00240317,0.0118638,622,848,-20.6294,-2.06398
-595,176,-20.6537,1.69067,-0.00269915,0.000970519,0.000708036,0.00110239,-0.00283102,1.38666,0.00234292,0.0113231,629,848,-20.6538,-1.69068
-588,176,-20.6399,1.33331,-0.00218404,7.29439e-05,0.000784305,0.000318726,-0.00242982,1.26711,0.0017359,0.0129639,636,848,-20.6399,-1.33328
-581,176,-20.6631,1.00806,-0.00169042,-0.000402709,0.00109412,0.000222945,-0.00231607,1.05135,0.00162347,0.0127174,643,848,-20.6631,-1.00806
-574,176,-20.6682,0.667847,-0.00149733,-0.000861289,0.00120712,6.89983e-05,-0.00242762,0.914199,0.0016419,0.0166054,650,848,-20.6681,-0.667868
-567,176,-20.566,0.424011,-0.00212583,-0.00101504,0.000790297,-0.000604499,-0.00253637,1.09169,0.00152976,0.0406894,657,848,-20.566,-0.423986
-560,176,-20.7585,-0.0098877,-0.00245625,-0.000836014,9.30572e-05,-0.000830687,-0.00246158,1.51361,0.00144601,0.0315402,664,848,-20.7585,0.0098573
-553,176,-20.7487,-0.440918,0,0,0,0,0,0,0,-1,671,848,-20.7486,0.440909
-546,176,-16.657,-0.403198,0,0,0,0,0,0,0,-1,678,848,-16.657,0.403182
-539,176,-22.7061,1.48657,0,0,0,0,0,0,0,-1,685,848,-22.7061,-1.48657
-532,176,-26.6852,0.828247,0,0,0,0,0,0,0,-1,692,848,-26.6853,-0.828263
-525,176,-26.6158,0.952942,0,0,0,0,0,0,0,-1,699,848,-26.6158,-0.952937
-518,176,-26.7642,0.554321,-0.00129544,0.00261326,-0.00212213,0.00354385,-0.00222604,-1.15753,0.00336009,0.0444981,706,848,-26.7642,-0.554323
-511,176,-26.8121,0.273315,0.000349266,0.00354213,-0.00218992,0.00465574,-0.000764345,-1.10036,0.00338748,0.0413207,713,848,-26.812,-0.273332
-504,176,-26.919,0.445557,0.00386414,0.00402439,-0.00195287,0.00589878,0.00198976,-0.805901,0.00346523,0.0397146,720,848,-26.919,-0.44557
-497,176,-26.8363,0.642944,0.00975176,0.00356017,-0.00123888,0.00999045,0.00332148,-0.190331,0.00587493,0.0394878,727,848,-26.8363,-0.642923
-490,176,-26.7487,0.816101,0.0188941,0.0016366,-0.000157213,0.0188955,0.00163517,-0.00910887,0.0120889,0.0383166,734,848,-26.7486,-0.816127
-483,176,0,0,0,0,0,0,0,0,0,-1,741,848,0,0
-476,176,0,0,0,0,0,0,0,0,0,-1,748,848,0,0
-469,176,0,0,0,0,0,0,0,0,0,-1,755,848,0,0
-462,176,0,0,0,0,0,0,0,0,0,-1,762,848,0,0
-455,176,0,0,0,0,0,0,0,0,0,-1,769,848,0,0
-448,176,0,0,0,0,0,0,0,0,0,-1,776,848,0,0
-441,176,0,0,0,0,0,0,0,0,0,-1,783,848,0,0
-434,176,0,0,0,0,0,0,0,0,0,-1,790,848,0,0
-427,176,0,0,0,0,0,0,0,0,0,-1,797,848,0,0
-420,176,0,0,0,0,0,0,0,0,0,-1,804,848,0,0
-413,176,0,0,0,0,0,0,0,0,0,-1,811,848,0,0
-406,176,0,0,0,0,0,0,0,0,0,-1,818,848,0,0
-399,176,0,0,0,0,0,0,0,0,0,-1,825,848,0,0
-392,176,0,0,0,0,0,0,0,0,0,-1,832,848,0,0
-385,176,0,0,0,0,0,0,0,0,0,-1,839,848,0,0
-378,176,0,0,0,0,0,0,0,0,0,-1,846,848,0,0
-371,176,0,0,0,0,0,0,0,0,0,-1,853,848,0,0
-364,176,0,0,0,0,0,0,0,0,0,-1,860,848,0,0
-357,176,0,0,0,0,0,0,0,0,0,-1,867,848,0,0
-350,176,0,0,0,0,0,0,0,0,0,-1,874,848,0,0
-343,176,0,0,0,0,0,0,0,0,0,-1,881,848,0,0
-336,176,0,0,0,0,0,0,0,0,0,-1,888,848,0,0
-329,176,0,0,0,0,0,0,0,0,0,-1,895,848,0,0
-322,176,0,0,0,0,0,0,0,0,0,-1,902,848,0,0
-315,176,0,0,0,0,0,0,0,0,0,-1,909,848,0,0
-308,176,0,0,0,0,0,0,0,0,0,-1,916,848,0,0
-301,176,0,0,0,0,0,0,0,0,0,-1,923,848,0,0
-294,176,0,0,0,0,0,0,0,0,0,-1,930,848,0,0
-287,176,0,0,0,0,0,0,0,0,0,-1,937,848,0,0
-280,176,0,0,0,0,0,0,0,0,0,-1,944,848,0,0
-273,176,0,0,0,0,0,0,0,0,0,-1,951,848,0,0
-266,176,0,0,0,0,0,0,0,0,0,-1,958,848,0,0
-259,176,0,0,0,0,0,0,0,0,0,-1,965,848,0,0
-252,176,0,0,0,0,0,0,0,0,0,-1,972,848,0,0
-245,176,0,0,0,0,0,0,0,0,0,-1,979,848,0,0
-238,176,0,0,0,0,0,0,0,0,0,-1,986,848,0,0
-231,176,0,0,0,0,0,0,0,0,0,-1,993,848,0,0
-224,176,0,0,0,0,0,0,0,0,0,-1,1000,848,0,0
-217,176,0,0,0,0,0,0,0,0,0,-1,1007,848,0,0
-210,176,0,0,0,0,0,0,0,0,0,-1,1014,848,0,0
-203,176,0,0,0,0,0,0,0,0,0,-1,1021,848,0,0
-196,176,0,0,0,0,0,0,0,0,0,-1,1028,848,0,0
-189,176,0,0,0,0,0,0,0,0,0,-1,1035,848,0,0
-182,176,0,0,0,0,0,0,0,0,0,-1,1042,848,0,0
-175,176,0,0,0,0,0,0,0,0,0,-1,1049,848,0,0
-168,176,0,0,0,0,0,0,0,0,0,-1,1056,848,0,0
-161,176,0,0,0,0,0,0,0,0,0,-1,1063,848,0,0
-154,176,0,0,0,0,0,0,0,0,0,-1,1070,848,0,0
-147,176,0,0,0,0,0,0,0,0,0,-1,1077,848,0,0
-140,176,0,0,0,0,0,0,0,0,0,-1,1084,848,0,0
-133,176,0,0,0,0,0,0,0,0,0,-1,1091,848,0,0
-126,176,0,0,0,0,0,0,0,0,0,-1,1098,848,0,0
-119,176,0,0,0,0,0,0,0,0,0,-1,1105,848,0,0
-112,176,0,0,0,0,0,0,0,0,0,-1,1112,848,0,0
-105,176,0,0,0,0,0,0,0,0,0,-1,1119,848,0,0
-98,176,0,0,0,0,0,0,0,0,0,-1,1126,848,0,0
-91,176,0,0,0,0,0,0,0,0,0,-1,1133,848,0,0
-84,176,0,0,0,0,0,0,0,0,0,-1,1140,848,0,0
-77,176,0,0,0,0,0,0,0,0,0,-1,1147,848,0,0
-70,176,0,0,0,0,0,0,0,0,0,-1,1154,848,0,0
-63,176,0,0,0,0,0,0,0,0,0,-1,1161,848,0,0
-56,176,0,0,0,0,0,0,0,0,0,-1,1168,848,0,0
-49,176,0,0,0,0,0,0,0,0,0,-1,1175,848,0,0
-42,176,0,0,0,0,0,0,0,0,0,-1,1182,848,0,0
-35,176,0,0,0,0,0,0,0,0,0,-1,1189,848,0,0
-28,176,0,0,0,0,0,0,0,0,0,-1,1196,848,0,0
-21,176,0,0,0,0,0,0,0,0,0,-1,1203,848,0,0
-14,176,0,0,0,0,0,0,0,0,0,-1,1210,848,0,0
-7,176,0,0,0,0,0,0,0,0,0,-1,1217,848,0,0
0,176,0,0,0,0,0,0,0,0,0,-1,1224,848,0,0
7,176,0,0,0,0,0,0,0,0,0,-1,1231,848,0,0
14,176,0,0,0,0,0,0,0,0,0,-1,1238,848,0,0
21,176,0,0,0,0,0,0,0,0,0,-1,1245,848,0,0
28,176,0,0,0,0,0,0,0,0,0,-1,1252,848,0,0
35,176,0,0,0,0,0,0,0,0,0,-1,1259,848,0,0
42,176,0,0,0,0,0,0,0,0,0,-1,1266,848,0,0
49,176,0,0,0,0,0,0,0,0,0,-1,1273,848,0,0
56,176,0,0,0,0,0,0,0,0,0,-1,1280,848,0,0
63,176,0,0,0,0,0,0,0,0,0,-1,1287,848,0,0
70,176,0,0,0,0,0,0,0,0,0,-1,1294,848,0,0
77,176,0,0,0,0,0,0,0,0,0,-1,1301,848,0,0
84,176,0,0,0,0,0,0,0,0,0,-1,1308,848,0,0
91,176,0,0,0,0,0,0,0,0,0,-1,1315,848,0,0
98,176,0,0,0,0,0,0,0,0,0,-1,1322,848,0,0
105,176,0,0,0,0,0,0,0,0,0,-1,1329,848,0,0
112,176,0,0,0,0,0,0,0,0,0,-1,1336,848,0,0
119,176,0,0,0,0,0,0,0,0,0,-1,1343,848,0,0
126,176,0,0,0,0,0,0,0,0,0,-1,1350,848,0,0
133,176,0,0,0,0,0,0,0,0,0,-1,1357,848,0,0
140,176,0,0,0,0,0,0,0,0,0,-1,1364,848,0,0
147,176,0,0,0,0,0,0,0,0,0,-1,1371,848,0,0
154,176,0,0,0,0,0,0,0,0,0,-1,1378,848,0,0
161,176,0,0,0,0,0,0,0,0,0,-1,1385,848,0,0
168,176,0,0,0,0,0,0,0,0,0,-1,1392,848,0,0
175,176,0,0,0,0,0,0,0,0,0,-1,1399,848,0,0
182,176,0,0,0,0,0,0,0,0,0,-1,1406,848,0,0
189,176,0,0,0,0,0,0,0,0,0,-1,1413,848,0,0
196,176,0,0,0,0,0,0,0,0,0,-1,1420,848,0,0
203,176,0,0,0,0,0,0,0,0,0,-1,1427,848,0,0
210,176,0,0,0,0,0,0,0,0,0,-1,1434,848,0,0
217,176,0,0,0,0,0,0,0,0,0,-1,1441,848,0,0
224,176,0,0,0,0,0,0,0,0,0,-1,1448,848,0,0
231,176,0,0,0,0,0,0,0,0,0,-1,1455,848,0,0
238,176,0,0,0,0,0,0,0,0,0,-1,1462,848,0,0
245,176,0,0,0,0,0,0,0,0,0,-1,1469,848,0,0
252,176,0,0,0,0,0,0,0,0,0,-1,1476,848,0,0
259,176,0,0,0,0,0,0,0,0,0,-1,1483,848,0,0
266,176,0,0,0,0,0,0,0,0,0,-1,1490,848,0,0
273,176,0,0,0,0,0,0,0,0,0,-1,1497,848,0,0
280,176,0,0,0,0,0,0,0,0,0,-1,1504,848,0,0
287,176,0,0,0,0,0,0,0,0,0,-1,1511,848,0,0
294,176,0,0,0,0,0,0,0,0,0,-1,1518,848,0,0
301,176,0,0,0,0,0,0,0,0,0,-1,1525,848,0,0
308,176,0,0,0,0,0,0,0,0,0,-1,1532,848,0,0
315,176,0,0,0,0,0,0,0,0,0,-1,1539,848,0,0
322,176,0,0,0,0,0,0,0,0,0,-1,1546,848,0,0
329,176,0,0,0,0,0,0,0,0,0,-1,1553,848,0,0
336,176,0,0,0,0,0,0,0,0,0,-1,1560,848,0,0
343,176,0,0,0,0,0,0,0,0,0,-1,1567,848,0,0
350,176,0,0,0,0,0,0,0,0,0,-1,1574,848,0,0
357,176,0,0,0,0,0,0,0,0,0,-1,1581,848,0,0
364,176,0,0,0,0,0,0,0,0,0,-1,1588,848,0,0
371,176,0,0,0,0,0,0,0,0,0,-1,1595,848,0,0
378,176,0,0,0,0,0,0,0,0,0,-1,1602,848,0,0
385,176,0,0,0,0,0,0,0,0,0,-1,1609,848,0,0
392,176,0,0,0,0,0,0,0,0,0,-1,1616,848,0,0
399,176,0,0,0,0,0,0,0,0,0,-1,1623,848,0,0
406,176,0,0,0,0,0,0,0,0,0,-1,1630,848,0,0
413,176,0,0,0,0,0,0,0,0,0,-1,1637,848,0,0
420,176,0,0,0,0,0,0,0,0,0,-1,1644,848,0,0
427,176,0,0,0,0,0,0,0,0,0,-1,1651,848,0,0
434,176,0,0,0,0,0,0,0,0,0,-1,1658,848,0,0
441,176,0,0,0,0,0,0,0,0,0,-1,1665,848,0,0
448,176,0,0,0,0,0,0,0,0,0,-1,1672,848,0,0
455,176,0,0,0,0,0,0,0,0,0,-1,1679,848,0,0
462,176,0,0,0,0,0,0,0,0,0,-1,1686,848,0,0
469,176,0,0,0,0,0,0,0,0,0,-1,1693,848,0,0
476,176,0,0,0,0,0,0,0,0,0,-1,1700,848,0,0
483,176,0,0,0,0,0,0,0,0,0,-1,1707,848,0,0
490,176,0,0,0,0,0,0,0,0,0,-1,1714,848,0,0
497,176,0,0,0,0,0,0,0,0,0,-1,1721,848,0,0
504,176,0,0,0,0,0,0,0,0,0,-1,1728,848,0,0
511,176,0,0,0,0,0,0,0,0,0,-1,1735,848,0,0
518,176,0,0,0,0,0,0,0,0,0,-1,1742,848,0,0
525,176,0,0,0,0,0,0,0,0,0,-1,1749,848,0,0
532,176,0,0,0,0,0,0,0,0,0,-1,1756,848,0,0
539,176,0,0,0,0,0,0,0,0,0,-1,1763,848,0,0
546,176,0,0,0,0,0,0,0,0,0,-1,1770,848,0,0
553,176,0,0,0,0,0,0,0,0,0,-1,1777,848,0,0
560,176,0,0,0,0,0,0,0,0,0,-1,1784,848,0,0
567,176,0,0,0,0,0,0,0,0,0,-1,1791,848,0,0
574,176,0,0,0,0,0,0,0,0,0,-1,1798,848,0,0
581,176,0,0,0,0,0,0,0,0,0,-1,1805,848,0,0
588,176,0,0,0,0,0,0,0,0,0,-1,1812,848,0,0
595,176,0,0,0,0,0,0,0,0,0,-1,1819,848,0,0
602,176,0,0,0,0,0,0,0,0,0,-1,1826,848,0,0
609,176,36.4673,2.68951,-0.0027743,0.00461875,-0.000530261,0.00465659,-0.00281214,-1.49956,0.00435568,0.0382091,1833,848,36.4672,-2.68954
616,176,36.3761,2.98773,-0.00250044,0.00396813,-0.000134026,0.00397091,-0.00250321,-1.55009,0.00376972,0.0395067,1840,848,36.3761,-2.98771
623,176,36.3369,3.05554,-0.00248169,0.00356228,0.000121443,0.00356472,-0.00248413,1.55071,0.00351083,0.044763,1847,848,36.3369,-3.05553
630,176,36.3674,2.854,-0.00247001,0.00320203,0.000249192,0.00321296,-0.00248094,1.52698,0.00329641,0.0412182,1854,848,36.3674,-2.85402
637,176,36.3197,2.74695,-0.00255959,0.00287156,0.000227522,0.00288107,-0.0025691,1.529,0.00314838,0.0318989,1861,848,36.3198,-2.74694
644,176,36.22,2.8631,-0.00260903,0.00244247,9.88547e-05,0.00244441,-0.00261096,1.55124,0.00291925,0.0313587,1868,848,36.22,-2.86313
651,176,36.3258,2.91083,-0.00255335,0.00201641,-8.38701e-05,0.00201794,-0.00255489,-1.55245,0.00264619,0.0323674,1875,848,36.3258,-2.9108
658,176,36.4344,2.66638,-0.00245955,0.00157666,-0.000257234,0.00159299,-0.00247588,-1.50741,0.00236753,0.0379543,1882,848,36.4344,-2.66638
665,176,36.5184,2.43494,0,0,0,0,0,0,0,-1,1889,848,36.5185,-2.43494
672,176,16.9304,2.80719,0,0,0,0,0,0,0,-1,1896,848,16.9305,-2.80719
679,176,29.7899,1.65411,0,0,0,0,0,0,0,-1,1903,848,29.7899,-1.65413
686,176,29.63,2.06744,-0.00181336,0.000414167,-0.000725508,0.000629625,-0.00202882,-1.28212,0.00160415,0.0325873,1910,848,29.63,-2.06745
693,176,29.4857,2.45251,-0.00160483,0.000111884,-0.000814429,0.000436773,-0.00192972,-1.19122,0.0014541,0.016936,1917,848,29.4857,-2.4525
700,176,29.3691,2.83557,-0.00149527,-0.000126937,-0.00111681,0.000498612,-0.00212082,-1.06022,0.00160609,0.0185001,1924,848,29.3692,-2.83559
707,176,29.3793,3.21307,-0.00137066,-0.000710813,-0.00137134,0.000369732,-0.0024512,-0.903447,0.0017703,0.0136888,1931,848,29.3793,-3.21309
714,176,29.3809,3.54498,-0.000897661,-0.000474315,-0.00123796,0.000569933,-0.00194191,-0.870072,0.00152061,0.0120478,1938,848,29.3809,-3.54501
721,176,29.3652,3.90985,-0.00042344,-0.000612563,-0.00132771,0.000813071,-0.00184907,-0.749847,0.00157531,0.0120868,1945,848,29.3652,-3.90983
728,176,29.339,4.32513,0.000122806,-0.00055067,-0.00126938,0.00109936,-0.00152722,-0.655746,0.00152315,0.0145474,1952,848,29.339,-4.32516
735,176,29.3186,4.6778,0.000958915,-0.000664375,-0.00080983,0.00129383,-0.000999287,-0.392139,0.00132757,0.013426,1959,848,29.3187,-4.67778
742,176,29.3125,5.03979,0.00202059,-0.000827485,-0.000156461,0.00202916,-0.000836055,-0.0547161,0.00170137,0.017699,1966,848,29.3125,-5.0398
749,176,29.3424,5.38831,0.0035688,-0.00101144,0.00106912,0.00380607,-0.00124871,0.218384,0.00304033,0.0291727,1973,848,29.3424,-5.38829
756,176,29.3063,5.76385,0.00589789,-0.00122173,0.00330246,0.00719385,-0.00251769,0.373957,0.00581959,0.0481587,1980,848,29.3063,-5.76388
763,176,29.3701,6.23859,0,0,0,0,0,0,0,-1,1987,848,29.3702,-6.23858
770,176,30.2006,6.37524,0,0,0,0,0,0,0,-1,1994,848,30.2006,-6.37525
777,176,30.8901,8.27563,0,0,0,0,0,0,0,-1,2001,848,30.8902,-8.27563
784,176,0,0,0,0,0,0,0,0,0,-1,2008,848,0,0
791,176,0,0,0,0,0,0,0,0,0,-1,2015,848,0,0
798,176,0,0,0,0,0,0,0,0,0,-1,2022,848,0,0
805,176,0,0,0,0,0,0,0,0,0,-1,2029,848,0,0
812,176,0,0,0,0,0,0,0,0,0,-1,2036,848,0,0
-700,169,0,0,0,0,0,0,0,0,0,-1,524,855,0,0
-693,169,0,0,0,0,0,0,0,0,0,-1,531,855,0,0
-686,169,0,0,0,0,0,0,0,0,0,-1,538,855,0,0
-679,169,0,0,0,0,0,0,0,0,0,-1,545,855,0,0
-672,169,0,0,0,0,0,0,0,0,0,-1,552,855,0,0
-665,169,-21.6085,3.69916,0,0,0,0,0,0,0,-1,559,855,-21.6085,-3.69916
-658,169,-21.4224,3.89856,0.0793643,-0.0217348,0.0309135,0.0880676,-0.0304381,0.274434,0.0710649,0.0459333,566,855,-21.4224,-3.89858
-651,169,-20.6918,4.13293,0.0611411,-0.015388,0.0237425,0.0679086,-0.0221554,0.277672,0.0541889,0.0498659,573,855,-20.6918,-4.13294
-644,169,-20.4176,4.16162,0.0455845,-0.0102358,0.0177511,0.0507512,-0.0154025,0.283238,0.0399701,0.0434644,580,855,-20.4176,-4.16163
-637,169,-20.3812,4.03851,0,0,0,0,0,0,0,-1,587,855,-20.3811,-4.03853
-630,169,-20.6046,3.72491,0.0212076,-0.00318431,0.00865338,0.0239657,-0.00594236,0.308546,0.0182827,0.044242,594,855,-20.6046,-3.72494
-623,169,-20.9711,3.17389,0.0125914,-0.0014985,0.00587261,0.0147181,-0.00362518,0.347445,0.0112174,0.0366308,601,855,-20.9711,-3.17391
-616,169,-20.9973,2.77728,0.00623085,-0.000121303,0.00370761,0.00793677,-0.00182722,0.431231,0.00599382,0.0211355,608,855,-20.9973,-2.77731
-609,169,-20.9866,2.44855,0.00191559,0.00117625,0.0018368,0.00341954,-0.000327709,0.686095,0.00239641,0.0132311,615,855,-20.9866,-2.44854
-602,169,-21.0099,2.09167,-0.00155175,0.00200959,0.000833436,0.00219499,-0.00173714,1.35192,0.00227534,0.013271,622,855,-21.0099,-2.09169
-595,169,-21.0353,1.69666,-0.00286279,0.000505919,0.00110946,0.000838482,-0.00319536,1.27957,0.00245788,0.0118591,629,855,-21.0353,-1.69668
-588,169,-21.0085,1.35443,-0.00236902,-0.000216682,0.00100639,0.000180568,-0.00276627,1.19484,0.00190722,0.0102676,636,855,-21.0086,-1.35443
-581,169,-21.0361,1.02368,-0.00189055,-0.000575478,0.00114699,8.90817e-05,-0.00255511,1.04567,0.00173386,0.0124459,643,855,-21.0361,-1.02367
-574,169,-21.1681,0.665527,-0.00172323,-0.000949815,0.00117898,-9.57457e-05,-0.0025773,0.943871,0.00168719,0.0198122,650,855,-21.1681,-0.665506
-567,169,-21.0233,0.432434,-0.00216157,-0.00112823,0.000727848,-0.000752313,-0.00253748,1.09405,0.00150493,0.0340351,657,855,-21.0232,-0.43245
-560,169,-21.0806,0.123474,-0.00220854,-0.00108857,-5.25003e-07,-0.00108857,-0.00220854,-1.57033,0.00127515,0.036259,664,855,-21.0805,-0.123502
-553,169,-21.0305,-0.192627,0,0,0,0,0,0,0,-1,671,855,-21.0305,0.192651
-546,169,-19.0852,-1.05609,0,0,0,0,0,0,0,-1,678,855,-19.0852,1.05612
-539,169,-26.6105,0.937927,0,0,0,0,0,0,0,-1,685,855,-26.6105,-0.937943
-532,169,-26.6026,0.94165,-0.00128892,0.000279037,-0.00165791,0.00132898,-0.00233887,-1.00625,0.00214422,0.0423175,692,855,-26.6026,-0.941647
-525,169,-26.5997,0.938354,-0.000814249,0.000809174,-0.00216387,0.00230856,-0.00231364,-0.964836,0.00266863,0.0475893,699,855,-26.5997,-0.938382
-518,169,-26.7543,0.744507,5.07442e-05,0.00144437,-0.00255946,0.00340018,-0.00190506,-0.918303,0.00310326,0.0428252,706,855,-26.7543,-0.744521
-511,169,-26.7534,0.564026,0.00231456,0.00208867,-0.00264475,0.00484877,-0.000445545,-0.764058,0.0033908,0.0397209,713,855,-26.7534,-0.564
-504,169,-26.7128,0.442932,0.00693996,0.00216206,-0.00237451,0.0079193,0.00118272,-0.391184,0.00493279,0.0396012,720,855,-26.7128,-0.442959
-497,169,-26.6788,0.423218,0.0139604,0.00130068,-0.00152342,0.0141411,0.00111994,-0.11809,0.00907715,0.0392443,727,855,-26.6789,-0.423196
-490,169,0,0,0,0,0,0,0,0,0,-1,734,855,0,0
-483,169,0,0,0,0,0,0,0,0,0,-1,741,855,0,0
-476,169,0,0,0,0,0,0,0,0,0,-1,748,855,0,0
-469,169,0,0,0,0,0,0,0,0,0,-1,755,855,0,0
-462,169,0,0,0,0,0,0,0,0,0,-1,762,855,0,0
-455,169,0,0,0,0,0,0,0,0,0,-1,769,855,0,0
-448,169,0,0,0,0,0,0,0,0,0,-1,776,855,0,0
-441,169,0,0,0,0,0,0,0,0,0,-1,783,855,0,0
-434,169,0,0,0,0,0,0,0,0,0,-1,790,855,0,0
-427,169,0,0,0,0,0,0,0,0,0,-1,797,855,0,0
-420,169,0,0,0,0,0,0,0,0,0,-1,804,855,0,0
-413,169,0,0,0,0,0,0,0,0,0,-1,811,855,0,0
-406,169,0,0,0,0,0,0,0,0,0,-1,818,855,0,0
-399,169,0,0,0,0,0,0,0,0,0,-1,825,855,0,0
-392,169,0,0,0,0,0,0,0,0,0,-1,832,855,0,0
-385,169,0,0,0,0,0,0,0,0,0,-1,839,855,0,0
-378,169,0,0,0,0,0,0,0,0,0,-1,846,855,0,0
-371,169,0,0,0,0,0,0,0,0,0,-1,853,855,0,0
-364,169,0,0,0,0,0,0,0,0,0,-1,860,855,0,0
-357,169,0,0,0,0,0,0,0,0,0,-1,867,855,0,0
-350,169,0,0,0,0,0,0,0,0,0,-1,874,855,0,0
-343,169,0,0,0,0,0,0,0,0,0,-1,881,855,0,0
-336,169,0,0,0,0,0,0,0,0,0,-1,888,855,0,0
-329,169,0,0,0,0,0,0,0,0,0,-1,895,855,0,0
-322,169,0,0,0,0,0,0,0,0,0,-1,902,855,0,0
-315,169,0,0,0,0,0,0,0,0,0,-1,909,855,0,0
-308,169,0,0,0,0,0,0,0,0,0,-1,916,855,0,0
-301,169,0,0,0,0,0,0,0,0,0,-1,923,855,0,0
-294,169,0,0,0,0,0,0,0,0,0,-1,930,855,0,0
-287,169,0,0,0,0,0,0,0,0,0,-1,937,855,0,0
-280,169,0,0,0,0,0,0,0,0,0,-1,944,855,0,0
-273,169,0,0,0,0,0,0,0,0,0,-1,951,855,0,0
-266,169,0,0,0,0,0,0,0,0,0,-1,958,855,0,0
-259,169,0,0,0,0,0,0,0,0,0,-1,965,855,0,0
-252,169,0,0,0,0,0,0,0,0,0,-1,972,855,0,0
-245,169,0,0,0,0,0,0,0,0,0,-1,979,855,0,0
-238,169,0,0,0,0,0,0,0,0,0,-1,986,855,0,0
-231,169,0,0,0,0,0,0,0,0,0,-1,993,855,0,0
-224,169,0,0,0,0,0,0,0,0,0,-1,1000,855,0,0
-217,169,0,0,0,0,0,0,0,0,0,-1,1007,855,0,0
-210,169,0,0,0,0,0,0,0,0,0,-1,1014,855,0,0
-203,169,0,0,0,0,0,0,0,0,0,-1,1021,855,0,0
-196,169,0,0,0,0,0,0,0,0,0,-1,1028,855,0,0
-189,169,0,0,0,0,0,0,0,0,0,-1,1035,855,0,0
-182,169,0,0,0,0,0,0,0,0,0,-1,1042,855,0,0
-175,169,0,0,0,0,0,0,0,0,0,-1,1049,855,0,0
-168,169,0,0,0,0,0,0,0,0,0,-1,1056,855,0,0
-161,169,0,0,0,0,0,0,0,0,0,-1,1063,855,0,0
-154,169,0,0,0,0,0,0,0,0,0,-1,1070,855,0,0
-147,169,0,0,0,0,0,0,0,0,0,-1,1077,855,0,0
-140,169,0,0,0,0,0,0,0,0,0,-1,1084,855,0,0
-133,169,0,0,0,0,0,0,0,0,0,-1,1091,855,0,0
-126,169,0,0,0,0,0,0,0,0,0,-1,1098,855,0,0
-119,169,0,0,0,0,0,0,0,0,0,-1,1105,855,0,0
-112,169,0,0,0,0,0,0,0,0,0,-1,1112,855,0,0
-105,169,0,0,0,0,0,0,0,0,0,-1,1119,855,0,0
-98,169,0,0,0,0,0,0,0,0,0,-1,1126,855,0,0
-91,169,0,0,0,0,0,0,0,0,0,-1,1133,855,0,0
-84,169,0,0,0,0,0,0,0,0,0,-1,1140,855,0,0
-77,169,0,0,0,0,0,0,0,0,0,-1,1147,855,0,0
-70,169,0,0,0,0,0,0,0,0,0,-1,1154,855,0,0
-63,169,0,0,0,0,0,0,0,0,0,-1,1161,855,0,0
-56,169,0,0,0,0,0,0,0,0,0,-1,1168,855,0,0
-49,169,0,0,0,0,0,0,0,0,0,-1,1175,855,0,0
-42,169,0,0,0,0,0,0,0,0,0,-1,1182,855,0,0
-35,169,0,0,0,0,0,0,0,0,0,-1,1189,855,0,0
-28,169,0,0,0,0,0,0,0,0,0,-1,1196,855,0,0
-21,169,0,0,0,0,0,0,0,0,0,-1,1203,855,0,0
-14,169,0,0,0,0,0,0,0,0,0,-1,1210,855,0,0
-7,169,0,0,0,0,0,0,0,0,0,-1,1217,855,0,0
0,169,0,0,0,0,0,0,0,0,0,-1,1224,855,0,0
7,169,0,0,0,0,0,0,0,0,0,-1,1231,855,0,0
14,169,0,0,0,0,0,0,0,0,0,-1,1238,855,0,0
21,169,0,0,0,0,0,0,0,0,0,-1,1245,855,0,0
28,169,0,0,0,0,0,0,0,0,0,-1,1252,855,0,0
35,169,0,0,0,0,0,0,0,0,0,-1,1259,855,0,0
42,169,0,0,0,0,0,0,0,0,0,-1,1266,855,0,0
49,169,0,0,0,0,0,0,0,0,0,-1,1273,855,0,0
56,169,0,0,0,0,0,0,0,0,0,-1,1280,855,0,0
63,169,0,0,0,0,0,0,0,0,0,-1,1287,855,0,0
70,169,0,0,0,0,0,0,0,0,0,-1,1294,855,0,0
77,169,0,0,0,0,0,0,0,0,0,-1,1301,855,0,0
84,169,0,0,0,0,0,0,0,0,0,-1,1308,855,0,0
91,169,0,0,0,0,0,0,0,0,0,-1,1315,855,0,0
98,169,0,0,0,0,0,0,0,0,0,-1,1322,855,0,0
105,169,0,0,0,0,0,0,0,0,0,-1,1329,855,0,0
112,169,0,0,0,0,0,0,0,0,0,-1,1336,855,0,0
119,169,0,0,0,0,0,0,0,0,0,-1,1343,855,0,0
126,169,0,0,0,0,0,0,0,0,0,-1,1350,855,0,0
133,169,0,0,0,0,0,0,0,0,0,-1,1357,855,0,0
140,169,0,0,0,0,0,0,0,0,0,-1,1364,855,0,0
147,169,0,0,0,0,0,0,0,0,0,-1,1371,855,0,0
154,169,0,0,0,0,0,0,0,0,0,-1,1378,855,0,0
161,169,0,0,0,0,0,0,0,0,0,-1,1385,855,0,0
168,169,0,0,0,0,0,0,0,0,0,-1,1392,855,0,0
175,169,0,0,0,0,0,0,0,0,0,-1,1399,855,0,0
182,169,0,0,0,0,0,0,0,0,0,-1,1406,855,0,0
189,169,0,0,0,0,0,0,0,0,0,-1,1413,855,0,0
196,169,0,0,0,0,0,0,0,0,0,-1,1420,855,0,0
203,169,0,0,0,0,0,0,0,0,0,-1,1427,855,0,0
210,169,0,0,0,0,0,0,0,0,0,-1,1434,855,0,0
217,169,0,0,0,0,0,0,0,0,0,-1,1441,855,0,0
224,169,0,0,0,0,0,0,0,0,0,-1,1448,855,0,0
231,169,0,0,0,0,0,0,0,0,0,-1,1455,855,0,0
238,169,0,0,0,0,0,0,0,0,0,-1,1462,855,0,0
245,169,0,0,0,0,0,0,0,0,0,-1,1469,855,0,0
252,169,0,0,0,0,0,0,0,0,0,-1,1476,855,0,0
259,169,0,0,0,0,0,0,0,0,0,-1,1483,855,0,0
266,169,0,0,0,0,0,0,0,0,0,-1,1490,855,0,0
273,169,0,0,0,0,0,0,0,0,0,-1,1497,855,0,0
280,169,0,0,0,0,0,0,0,0,0,-1,1504,855,0,0
287,169,0,0,0,0,0,0,0,0,0,-1,1511,855,0,0
294,169,0,0,0,0,0,0,0,0,0,-1,1518,855,0,0
301,169,0,0,0,0,0,0,0,0,0,-1,1525,855,0,0
308,169,0,0,0,0,0,0,0,0,0,-1,1532,855,0,0
315,169,0,0,0,0,0,0,0,0,0,-1,1539,855,0,0
322,169,0,0,0,0,0,0,0,0,0,-1,1546,855,0,0
329,169,0,0,0,0,0,0,0,0,0,-1,1553,855,0,0
336,169,0,0,0,0,0,0,0,0,0,-1,1560,855,0,0
343,169,0,0,0,0,0,0,0,0,0,-1,1567,855,0,0
350,169,0,0,0,0,0,0,0,0,0,-1,1574,855,0,0
357,169,0,0,0,0,0,0,0,0,0,-1,1581,855,0,0
364,169,0,0,0,0,0,0,0,0,0,-1,1588,855,0,0
371,169,0,0,0,0,0,0,0,0,0,-1,1595,855,0,0
378,169,0,0,0,0,0,0,0,0,0,-1,1602,855,0,0
385,169,0,0,0,0,0,0,0,0,0,-1,1609,855,0,0
392,169,0,0,0,0,0,0,0,0,0,-1,1616,855,0,0
399,169,0,0,0,0,0,0,0,0,0,-1,1623,855,0,0
406,169,0,0,0,0,0,0,0,0,0,-1,1630,855,0,0
413,169,0,0,0,0,0,0,0,0,0,-1,1637,855,0,0
420,169,0,0,0,0,0,0,0,0,0,-1,1644,855,0,0
427,169,0,0,0,0,0,0,0,0,0,-1,1651,855,0,0
434,169,0,0,0,0,0,0,0,0,0,-1,1658,855,0,0
441,169,0,0,0,0,0,0,0,0,0,-1,1665,855,0,0
448,169,0,0,0,0,0,0,0,0,0,-1,1672,855,0,0
455,169,0,0,0,0,0,0,0,0,0,-1,1679,855,0,0
462,169,0,0,0,0,0,0,0,0,0,-1,1686,855,0,0
469,169,0,0,0,0,0,0,0,0,0,-1,1693,855,0,0
476,169,0,0,0,0,0,0,0,0,0,-1,1700,855,0,0
483,169,0,0,0,0,0,0,0,0,0,-1,1707,855,0,0
490,169,0,0,0,0,0,0,0,0,0,-1,1714,855,0,0
497,169,0,0,0,0,0,0,0,0,0,-1,1721,855,0,0
504,169,0,0,0,0,0,0,0,0,0,-1,1728,855,0,0
511,169,0,0,0,0,0,0,0,0,0,-1,1735,855,0,0
518,169,0,0,0,0,0,0,0,0,0,-1,1742,855,0,0
525,169,0,0,0,0,0,0,0,0,0,-1,1749,855,0,0
532,169,0,0,0,0,0,0,0,0,0,-1,1756,855,0,0
539,169,0,0,0,0,0,0,0,0,0,-1,1763,855,0,0
546,169,0,0,0,0,0,0,0,0,0,-1,1770,855,0,0
553,169,0,0,0,0,0,0,0,0,0,-1,1777,855,0,0
560,169,0,0,0,0,0,0,0,0,0,-1,1784,855,0,0
567,169,0,0,0,0,0,0,0,0,0,-1,1791,855,0,0
574,169,0,0,0,0,0,0,0,0,0,-1,1798,855,0,0
581,169,0,0,0,0,0,0,0,0,0,-1,1805,855,0,0
588,169,0,0,0,0,0,0,0,0,0,-1,1812,855,0,0
595,169,0,0,0,0,0,0,0,0,0,-1,1819,855,0,0
602,169,0,0,0,0,0,0,0,0,0,-1,1826,855,0,0
609,169,0,0,0,0,0,0,0,0,0,-1,1833,855,0,0
616,169,36.4923,2.97736,-0.00270668,0.0035246,-0.00034916,0.00354411,-0.00272618,-1.515,0.0036304,0.0430181,1840,855,36.4923,-2.97734
623,169,36.4983,2.89813,-0.00269191,0.00334774,-5.09818e-05,0.00334817,-0.00269234,-1.56236,0.00349434,0.0449894,1847,855,36.4983,-2.89812
630,169,36.4569,2.82043,-0.0025097,0.00320185,0.000191924,0.00320829,-0.00251614,1.53724,0.00331305,0.0419502,1854,855,36.4569,-2.82042
637,169,36.4164,2.80865,-0.00238422,0.0030805,0.000321135,0.00309931,-0.00240303,1.5123,0.00318524,0.0358288,1861,855,36.4163,-2.80865
644,169,36.2754,2.98322,-0.00227015,0.00278073,0.000302227,0.00279875,-0.00228817,1.51124,0.00294186,0.0363006,1868,855,36.2753,-2.98324
651,169,36.2955,2.97595,-0.00212074,0.00239096,0.000176266,0.00239783,-0.00212761,1.53181,0.00261432,0.0374432,1875,855,36.2955,-2.97596
658,169,36.3657,2.82642,-0.00195076,0.00192806,2.12996e-05,0.00192818,-0.00195087,1.56531,0.00223958,0.0362493,1882,855,36.3657,-2.82641
665,169,36.4299,2.75525,0,0,0,0,0,0,0,-1,1889,855,36.4299,-2.75522
672,169,31.2465,2.96387,0,0,0,0,0,0,0,-1,1896,855,31.2464,-2.9639
679,169,29.9738,1.68677,0,0,0,0,0,0,0,-1,1903,855,29.9738,-1.68677
686,169,29.9308,2.09772,-0.00129563,0.000623332,-0.000480938,0.00073712,-0.00140942,-1.33847,0.0012594,0.0355546,1910,855,29.9308,-2.0977
693,169,29.8821,2.49072,-0.00115587,0.000306251,-0.000587319,0.00051295,-0.00136257,-1.2324,0.00111926,0.0169166,1917,855,29.8821,-2.4907
700,169,29.8643,2.86865,-0.00111013,1.14239e-05,-0.000862799,0.000479672,-0.00157838,-1.07357,0.00124338,0.0155937,1924,855,29.8642,-2.86863
707,169,29.8163,3.21643,-0.00100721,-0.000515739,-0.00114328,0.000407914,-0.00193087,-0.891258,0.00144257,0.0155722,1931,855,29.8163,-3.21646
714,169,29.7739,3.55243,-0.00062473,-0.000309392,-0.00107061,0.000615099,-0.00154922,-0.858507,0.00128778,0.0134869,1938,855,29.7739,-3.55243
721,169,29.7551,3.93036,-0.000218929,-0.000376695,-0.00111336,0.000818342,-0.00141397,-0.750032,0.00130403,0.0160175,1945,855,29.7552,-3.93033
728,169,29.7485,4.32422,0.000341042,-0.000120753,-0.000939084,0.0010772,-0.000856909,-0.664852,0.00111907,0.0134096,1952,855,29.7485,-4.32421
735,169,29.7047,4.68921,0.00127676,5.45208e-06,-0.000267059,0.00133058,-4.83696e-05,-0.198871,0.000903606,0.0175375,1959,855,29.7047,-4.68921
742,169,29.6926,5.03455,0.00249455,0.000147306,0.000661668,0.00266822,-2.63634e-05,0.256682,0.00178766,0.0157047,1966,855,29.6926,-5.03452
749,169,29.6725,5.29364,0.0042441,0.000357445,0.00226663,0.00528643,-0.000684882,0.431021,0.00377335,0.0264793,1973,855,29.6725,-5.29361
756,169,29.5546,5.85638,0.00681373,0.000645105,0.0050146,0.00961662,-0.00215778,0.509686,0.00723836,0.0496942,1980,855,29.5546,-5.8564
763,169,31.6265,6.20789,0,0,0,0,0,0,0,-1,1987,855,31.6264,-6.20788
770,169,29.6245,6.18188,0,0,0,0,0,0,0,-1,1994,855,29.6245,-6.18186
777,169,29.498,6.25323,0,0,0,0,0,0,0,-1,2001,855,29.498,-6.25324
784,169,29.1117,6.62067,0,0,0,0,0,0,0,-1,2008,855,29.1117,-6.62069
791,169,0,0,0,0,0,0,0,0,0,-1,2015,855,0,0
798,169,0,0,0,0,0,0,0,0,0,-1,2022,855,0,0
805,169,0,0,0,0,0,0,0,0,0,-1,2029,855,0,0
812,169,0,0,0,0,0,0,0,0,0,-1,2036,855,0,0
-700,162,0,0,0,0,0,0,0,0,0,-1,524,862,0,0
-693,162,0,0,0,0,0,0,0,0,0,-1,531,862,0,0
-686,162,0,0,0,0,0,0,0,0,0,-1,538,862,0,0
-679,162,0,0,0,0,0,0,0,0,0,-1,545,862,0,0
-672,162,0,0,0,0,0,0,0,0,0,-1,552,862,0,0
-665,162,-22.5736,4.04456,0,0,0,0,0,0,0,-1,559,862,-22.5736,-4.04458
-658,162,-22.2975,4.41431,0.073046,-0.0218526,0.0278141,0.0805972,-0.0294038,0.2651,0.0657618,0.0460162,566,862,-22.2975,-4.41431
-651,162,-21.5434,3.88177,0.0567076,-0.0166619,0.0222406,0.0629229,-0.0228772,0.272506,0.0513037,0.0481667,573,862,-21.5434,-3.88176
-644,162,-21.2382,3.77332,0.0424868,-0.0120324,0.0172274,0.0474742,-0.0170198,0.2818,0.0385946,0.0443072,580,862,-21.2381,-3.77331
-637,162,-21.1495,4.13275,0,0,0,0,0,0,0,-1,587,862,-21.1495,-4.13276
-630,162,-21.1469,3.8645,0.0198165,-0.00495755,0.0091626,0.022837,-0.00797804,0.318436,0.0184676,0.0426155,594,862,-21.1469,-3.86452
-623,162,-21.2833,3.16193,0.0117774,-0.00308378,0.00663325,0.0143075,-0.00561378,0.364381,0.011861,0.0323966,601,862,-21.2833,-3.16191
-616,162,-21.3222,2.76929,0.00568156,-0.00135758,0.0044448,0.00783153,-0.00350755,0.450525,0.0067034,0.0189374,608,862,-21.3222,-2.76931
-609,162,-21.3543,2.42133,0.00149414,0.000310605,0.00241904,0.00339274,-0.001588,0.66544,0.00293788,0.0132187,615,862,-21.3543,-2.42132
-602,162,-21.3899,2.07611,-0.00181758,0.0013644,0.00130742,0.00183268,-0.00228586,1.22686,0.00238264,0.0117666,622,862,-21.3899,-2.07611
-595,162,-21.3952,1.73792,-0.003001,0.000199722,0.00142293,0.000740829,-0.0035421,1.20741,0.00264318,0.0110956,629,862,-21.3952,-1.73794
-588,162,-21.3811,1.38757,-0.0024744,-0.000296401,0.0011358,0.000188122,-0.00295892,1.16758,0.00203822,0.011076,636,862,-21.3811,-1.38755
-581,162,-21.4954,1.04523,-0.00200445,-0.000503312,0.0011115,8.73068e-05,-0.00259507,1.08237,0.00175987,0.0174109,643,862,-21.4954,-1.04522
-574,162,-21.671,0.68927,-0.00186473,-0.000789543,0.00108783,-0.000113724,-0.00254055,1.01489,0.00165709,0.026212,650,862,-21.6709,-0.689297
-567,162,-21.5877,0.336182,-0.00210417,-0.000973815,0.000638039,-0.000686631,-0.00239135,1.14786,0.00142174,0.0373951,657,862,-21.5877,-0.336211
-560,162,-21.4601,-0.173401,-0.00190116,-0.00105195,-8.66883e-05,-0.00104319,-0.00190992,-1.4701,0.00110426,0.0346091,664,862,-21.4601,0.173425
-553,162,-21.2677,-0.625,0,0,0,0,0,0,0,-1,671,862,-21.2677,0.625006
-546,162,-21.102,-1.12079,0,0,0,0,0,0,0,-1,678,862,-21.102,1.1208
-539,162,-26.4969,1.09436,0,0,0,0,0,0,0,-1,685,862,-26.4969,-1.09434
-532,162,-26.5117,1.10254,-0.000408032,-0.000242428,-0.00194132,0.00161786,-0.00226832,-0.806711,0.00225414,0.0377022,692,862,-26.5117,-1.10256
-525,162,-26.5789,1.04285,0.000244966,0.000118281,-0.00247426,0.0026567,-0.00229345,-0.772601,0.00286053,0.0400155,699,862,-26.5789,-1.04287
-518,162,-26.7674,0.850952,0.00143921,0.000493697,-0.00289591,0.00390069,-0.00196779,-0.704487,0.00344889,0.0404347,706,862,-26.7674,-0.850977
-511,162,-26.8889,0.69751,0.00430194,0.000752254,-0.00297641,0.00599251,-0.000938317,-0.51655,0.00434171,0.0434387,713,862,-26.8889,-0.697538
-504,162,-26.5049,0.395813,0.00984875,0.000314421,-0.0026641,0.0105427,-0.000379484,-0.254804,0.00715829,0.0443714,720,862,-26.505,-0.395837
-497,162,-26.4993,0.428345,0.0172875,-0.000809493,-0.00170462,0.0174466,-0.000968657,-0.0931025,0.0119671,0.0436065,727,862,-26.4993,-0.428321
-490,162,0,0,0,0,0,0,0,0,0,-1,734,862,0,0
-483,162,0,0,0,0,0,0,0,0,0,-1,741,862,0,0
-476,162,0,0,0,0,0,0,0,0,0,-1,748,862,0,0
-469,162,0,0,0,0,0,0,0,0,0,-1,755,862,0,0
-462,162,0,0,0,0,0,0,0,0,0,-1,762,862,0,0
-455,162,0,0,0,0,0,0,0,0,0,-1,769,862,0,0
-448,162,0,0,0,0,0,0,0,0,0,-1,776,862,0,0
-441,162,0,0,0,0,0,0,0,0,0,-1,783,862,0,0
-434,162,0,0,0,0,0,0,0,0,0,-1,790,862,0,0
-427,162,0,0,0,0,0,0,0,0,0,-1,797,862,0,0
-420,162,0,0,0,0,0,0,0,0,0,-1,804,862,0,0
-413,162,0,0,0,0,0,0,0,0,0,-1,811,862,0,0
-406,162,0,0,0,0,0,0,0,0,0,-1,818,862,0,0
-399,162,0,0,0,0,0,0,0,0,0,-1,825,862,0,0
-392,162,0,0,0,0,0,0,0,0,0,-1,832,862,0,0
-385,162,0,0,0,0,0,0,0,0,0,-1,839,862,0,0
-378,162,0,0,0,0,0,0,0,0,0,-1,846,862,0,0
-371,162,0,0,0,0,0,0,0,0,0,-1,853,862,0,0
-364,162,0,0,0,0,0,0,0,0,0,-1,860,862,0,0
-357,162,0,0,0,0,0,0,0,0,0,-1,867,862,0,0
-350,162,0,0,0,0,0,0,0,0,0,-1,874,862,0,0
-343,162,0,0,0,0,0,0,0,0,0,-1,881,862,0,0
-336,162,0,0,0,0,0,0,0,0,0,-1,888,862,0,0
-329,162,0,0,0,0,0,0,0,0,0,-1,895,862,0,0
-322,162,0,0,0,0,0,0,0,0,0,-1,902,862,0,0
-315,162,0,0,0,0,0,0,0,0,0,-1,909,862,0,0
-308,162,0,0,0,0,0,0,0,0,0,-1,916,862,0,0
-301,162,0,0,0,0,0,0,0,0,0,-1,923,862,0,0
-294,162,0,0,0,0,0,0,0,0,0,-1,930,862,0,0
-287,162,0,0,0,0,0,0,0,0,0,-1,937,862,0,0
-280,162,0,0,0,0,0,0,0,0,0,-1,944,862,0,0
-273,162,0,0,0,0,0,0,0,0,0,-1,951,862,0,0
-266,162,0,0,0,0,0,0,0,0,0,-1,958,862,0,0
-259,162,0,0,0,0,0,0,0,0,0,-1,965,862,0,0
-252,162,0,0,0,0,0,0,0,0,0,-1,972,862,0,0
-245,162,0,0,0,0,0,0,0,0,0,-1,979,862,0,0
-238,162,0,0,0,0,0,0,0,0,0,-1,986,862,0,0
-231,162,0,0,0,0,0,0,0,0,0,-1,993,862,0,0
-224,162,0,0,0,0,0,0,0,0,0,-1,1000,862,0,0
-217,162,0,0,0,0,0,0,0,0,0,-1,1007,862,0,0
-210,162,0,0,0,0,0,0,0,0,0,-1,1014,862,0,0
-203,162,0,0,0,0,0,0,0,0,0,-1,1021,862,0,0
-196,162,0,0,0,0,0,0,0,0,0,-1,1028,862,0,0
-189,162,0,0,0,0,0,0,0,0,0,-1,1035,862,0,0
-182,162,0,0,0,0,0,0,0,0,0,-1,1042,862,0,0
-175,162,0,0,0,0,0,0,0,0,0,-1,1049,862,0,0
-168,162,0,0,0,0,0,0,0,0,0,-1,1056,862,0,0
-161,162,0,0,0,0,0,0,0,0,0,-1,1063,862,0,0
-154,162,0,0,0,0,0,0,0,0,0,-1,1070,862,0,0
-147,162,0,0,0,0,0,0,0,0,0,-1,1077,862,0,0
-140,162,0,0,0,0,0,0,0,0,0,-1,1084,862,0,0
-133,162,0,0,0,0,0,0,0,0,0,-1,1091,862,0,0
-126,162,0,0,0,0,0,0,0,0,0,-1,1098,862,0,0
-119,162,0,0,0,0,0,0,0,0,0,-1,1105,862,0,0
-112,162,0,0,0,0,0,0,0,0,0,-1,1112,862,0,0
-105,162,0,0,0,0,0,0,0,0,0,-1,1119,862,0,0
-98,162,0,0,0,0,0,0,0,0,0,-1,1126,862,0,0
-91,162,0,0,0,0,0,0,0,0,0,-1,1133,862,0,0
-84,162,0,0,0,0,0,0,0,0,0,-1,1140,862,0,0
-77,162,0,0,0,0,0,0,0,0,0,-1,1147,862,0,0
-70,162,0,0,0,0,0,0,0,0,0,-1,1154,862,0,0
-63,162,0,0,0,0,0,0,0,0,0,-1,1161,862,0,0
-56,162,0,0,0,0,0,0,0,0,0,-1,1168,862,0,0
-49,162,0,0,0,0,0,0,0,0,0,-1,1175,862,0,0
-42,162,0,0,0,0,0,0,0,0,0,-1,1182,862,0,0
-35,162,0,0,0,0,0,0,0,0,0,-1,1189,862,0,0
-28,162,0,0,0,0,0,0,0,0,0,-1,1196,862,0,0
-21,162,0,0,0,0,0,0,0,0,0,-1,1203,862,0,0
-14,162,0,0,0,0,0,0,0,0,0,-1,1210,862,0,0
-7,162,0,0,0,0,0,0,0,0,0,-1,1217,862,0,0
0,162,0,0,0,0,0,0,0,0,0,-1,1224,862,0,0
7,162,0,0,0,0,0,0,0,0,0,-1,1231,862,0,0
14,162,0,0,0,0,0,0,0,0,0,-1,1238,862,0,0
21,162,0,0,0,0,0,0,0,0,0,-1,1245,862,0,0
28,162,0,0,0,0,0,0,0,0,0,-1,1252,862,0,0
35,162,0,0,0,0,0,0,0,0,0,-1,1259,862,0,0
42,162,0,0,0,0,0,0,0,0,0,-1,1266,862,0,0
49,162,0,0,0,0,0,0,0,0,0,-1,1273,862,0,0
56,162,0,0,0,0,0,0,0,0,0,-1,1280,862,0,0
63,162,0,0,0,0,0,0,0,0,0,-1,1287,862,0,0
70,162,0,0,0,0,0,0,0,0,0,-1,1294,862,0,0
77,162,0,0,0,0,0,0,0,0,0,-1,1301,862,0,0
84,162,0,0,0,0,0,0,0,0,0,-1,1308,862,0,0
91,162,0,0,0,0,0,0,0,0,0,-1,1315,862,0,0
98,162,0,0,0,0,0,0,0,0,0,-1,1322,862,0,0
105,162,0,0,0,0,0,0,0,0,0,-1,1329,862,0,0
112,162,0,0,0,0,0,0,0,0,0,-1,1336,862,0,0
119,162,0,0,0,0,0,0,0,0,0,-1,1343,862,0,0
126,162,0,0,0,0,0,0,0,0,0,-1,1350,862,0,0
133,162,0,0,0,0,0,0,0,0,0,-1,1357,862,0,0
140,162,0,0,0,0,0,0,0,0,0,-1,1364,862,0,0
147,162,0,0,0,0,0,0,0,0,0,-1,1371,862,0,0
154,162,0,0,0,0,0,0,0,0,0,-1,1378,862,0,0
161,162,0,0,0,0,0,0,0,0,0,-1,1385,862,0,0
168,162,0,0,0,0,0,0,0,0,0,-1,1392,862,0,0
175,162,0,0,0,0,0,0,0,0,0,-1,1399,862,0,0
182,162,0,0,0,0,0,0,0,0,0,-1,1406,862,0,0
189,162,0,0,0,0,0,0,0,0,0,-1,1413,862,0,0
196,162,0,0,0,0,0,0,0,0,0,-1,1420,862,0,0
203,162,0,0,0,0,0,0,0,0,0,-1,1427,862,0,0
210,162,0,0,0,0,0,0,0,0,0,-1,1434,862,0,0
217,162,0,0,0,0,0,0,0,0,0,-1,1441,862,0,0
224,162,0,0,0,0,0,0,0,0,0,-1,1448,862,0,0
231,162,0,0,0,0,0,0,0,0,0,-1,1455,862,0,0
238,162,0,0,0,0,0,0,0,0,0,-1,1462,862,0,0
245,162,0,0,0,0,0,0,0,0,0,-1,1469,862,0,0
252,162,0,0,0,0,0,0,0,0,0,-1,1476,862,0,0
259,162,0,0,0,0,0,0,0,0,0,-1,1483,862,0,0
266,162,0,0,0,0,0,0,0,0,0,-1,1490,862,0,0
273,162,0,0,0,0,0,0,0,0,0,-1,1497,862,0,0
280,162,0,0,0,0,0,0,0,0,0,-1,1504,862,0,0
287,162,0,0,0,0,0,0,0,0,0,-1,1511,862,0,0
294,162,0,0,0,0,0,0,0,0,0,-1,1518,862,0,0
301,162,0,0,0,0,0,0,0,0,0,-1,1525,862,0,0
308,162,0,0,0,0,0,0,0,0,0,-1,1532,862,0,0
315,162,0,0,0,0,0,0,0,0,0,-1,1539,862,0,0
322,162,0,0,0,0,0,0,0,0,0,-1,1546,862,0,0
329,162,0,0,0,0,0,0,0,0,0,-1,1553,862,0,0
336,162,0,0,0,0,0,0,0,0,0,-1,1560,862,0,0
343,162,0,0,0,0,0,0,0,0,0,-1,1567,862,0,0
350,162,0,0,0,0,0,0,0,0,0,-1,1574,862,0,0
357,162,0,0,0,0,0,0,0,0,0,-1,1581,862,0,0
364,162,0,0,0,0,0,0,0,0,0,-1,1588,862,0,0
371,162,0,0,0,0,0,0,0,0,0,-1,1595,862,0,0
378,162,0,0,0,0,0,0,0,0,0,-1,1602,862,0,0
385,162,0,0,0,0,0,0,0,0,0,-1,1609,862,0,0
392,162,0,0,0,0,0,0,0,0,0,-1,1616,862,0,0
399,162,0,0,0,0,0,0,0,0,0,-1,1623,862,0,0
406,162,0,0,0,0,0,0,0,0,0,-1,1630,862,0,0
413,162,0,0,0,0,0,0,0,0,0,-1,1637,862,0,0
420,162,0,0,0,0,0,0,0,0,0,-1,1644,862,0,0
427,162,0,0,0,0,0,0,0,0,0,-1,1651,862,0,0
434,162,0,0,0,0,0,0,0,0,0,-1,1658,862,0,0
441,162,0,0,0,0,0,0,0,0,0,-1,1665,862,0,0
448,162,0,0,0,0,0,0,0,0,0,-1,1672,862,0,0
455,162,0,0,0,0,0,0,0,0,0,-1,1679,862,0,0
462,162,0,0,0,0,0,0,0,0,0,-1,1686,862,0,0
469,162,0,0,0,0,0,0,0,0,0,-1,1693,862,0,0
476,162,0,0,0,0,0,0,0,0,0,-1,1700,862,0,0
483,162,0,0,0,0,0,0,0,0,0,-1,1707,862,0,0
490,162,0,0,0,0,0,0,0,0,0,-1,1714,862,0,0
497,162,0,0,0,0,0,0,0,0,0,-1,1721,862,0,0
504,162,0,0,0,0,0,0,0,0,0,-1,1728,862,0,0
511,162,0,0,0,0,0,0,0,0,0,-1,1735,862,0,0
518,162,0,0,0,0,0,0,0,0,0,-1,1742,862,0,0
525,162,0,0,0,0,0,0,0,0,0,-1,1749,862,0,0
532,162,0,0,0,0,0,0,0,0,0,-1,1756,862,0,0
539,162,0,0,0,0,0,0,0,0,0,-1,1763,862,0,0
546,162,0,0,0,0,0,0,0,0,0,-1,1770,862,0,0
553,162,0,0,0,0,0,0,0,0,0,-1,1777,862,0,0
560,162,0,0,0,0,0,0,0,0,0,-1,1784,862,0,0
567,162,0,0,0,0,0,0,0,0,0,-1,1791,862,0,0
574,162,0,0,0,0,0,0,0,0,0,-1,1798,862,0,0
581,162,0,0,0,0,0,0,0,0,0,-1,1805,862,0,0
588,162,0,0,0,0,0,0,0,0,0,-1,1812,862,0,0
595,162,0,0,0,0,0,0,0,0,0,-1,1819,862,0,0
602,162,0,0,0,0,0,0,0,0,0,-1,1826,862,0,0
609,162,0,0,0,0,0,0,0,0,0,-1,1833,862,0,0
616,162,36.4988,2.93848,-0.00236782,0.00337742,-0.000291602,0.00339218,-0.00238258,-1.52021,0.003351,0.0444045,1840,862,36.4988,-2.93848
623,162,36.4874,2.74097,-0.00249149,0.00337809,-0.000147647,0.0033818,-0.0024952,-1.54566,0.00340594,0.0463704,1847,862,36.4874,-2.74094
630,162,36.4473,2.82397,-0.00236149,0.00338233,-8.32647e-06,0.00338235,-0.0023615,-1.56935,0.00333362,0.0432246,1854,862,36.4473,-2.824
637,162,36.4158,2.89746,-0.0022506,0.00342011,0.000100326,0.00342188,-0.00225237,1.55311,0.00329915,0.0410319,1861,862,36.4158,-2.89744
644,162,36.3757,2.87299,-0.00215323,0.00319812,0.000119682,0.00320079,-0.00215591,1.54845,0.00311224,0.0394673,1868,862,36.3758,-2.87298
651,162,36.3553,2.86975,-0.00201146,0.00282175,3.92123e-05,0.00282206,-0.00201178,1.56268,0.00280386,0.0364611,1875,862,36.3553,-2.86973
658,162,36.3051,2.91608,-0.00183501,0.00233449,-6.65878e-05,0.00233556,-0.00183608,-1.55483,0.00241424,0.0367924,1882,862,36.305,-2.91605
665,162,36.2639,3.008,-0.00171797,0.00189384,-0.000227916,0.00190817,-0.00173229,-1.50803,0.00210264,0.0435581,1889,862,36.2639,-3.00798
672,162,36.2627,3.06512,0,0,0,0,0,0,0,-1,1896,862,36.2626,-3.0651
679,162,26.5077,2.54785,0,0,0,0,0,0,0,-1,1903,862,26.5077,-2.54787
686,162,30.2483,2.02911,0,0,0,0,0,0,0,-1,1910,862,30.2483,-2.02911
693,162,30.2175,2.55872,-0.00114206,0.00055504,-0.00050725,0.000695095,-0.00128212,-1.3014,0.00115819,0.0203931,1917,862,30.2176,-2.55872
700,162,30.2551,2.87811,-0.0011173,0.000203214,-0.000708754,0.000511601,-0.00142569,-1.16039,0.00115926,0.0188602,1924,862,30.2551,-2.87811
707,162,30.2225,3.19745,-0.000975742,-0.000284814,-0.000959327,0.000389357,-0.00164991,-0.958225,0.0012501,0.013869,1931,862,30.2226,-3.19743
714,162,30.1626,3.5556,-0.00055814,-0.00011713,-0.0008786,0.000568214,-0.00124348,-0.908345,0.00106993,0.0165591,1938,862,30.1626,-3.55559
721,162,30.0748,4.01434,-0.000182001,-0.000141683,-0.000901286,0.000739669,-0.00106335,-0.79658,0.00104655,0.0290237,1945,862,30.0748,-4.01435
728,162,30.0646,4.35815,0.000373389,0.000246869,-0.000661188,0.000974336,-0.000354078,-0.737705,0.000794339,0.0236502,1952,862,30.0646,-4.35815
735,162,30.1064,4.69781,0.00134989,0.000535597,0.000137504,0.00137248,0.000513004,0.16285,0.000800772,0.011088,1959,862,30.1065,-4.69784
742,162,30.0851,5.03143,0.00262907,0.000883054,0.00123842,0.00327127,0.000240863,0.478382,0.00210515,0.0136666,1966,862,30.0851,-5.03144
749,162,30.021,5.35687,0.00442519,0.0013436,0.00308744,0.00633495,-0.000566159,0.553954,0.00442411,0.0195741,1973,862,30.021,-5.35685
756,162,29.9899,5.74103,0.00702214,0.00193829,0.00614325,0.0111286,-0.00216816,0.589236,0.00823745,0.0431398,1980,862,29.9899,-5.74105
763,162,31.0518,6.18365,0.0107368,0.00265251,0.0109733,0.0183888,-0.00499949,0.60893,0.0142217,0.0498683,1987,862,31.0517,-6.18364
770,162,30.6849,6.6106,0,0,0,0,0,0,0,-1,1994,862,30.685,-6.61058
777,162,30.0189,7.36224,0,0,0,0,0,0,0,-1,2001,862,30.0189,-7.36222
784,162,29.5725,6.9259,0,0,0,0,0,0,0,-1,2008,862,29.5725,-6.92593
791,162,0,0,0,0,0,0,0,0,0,-1,2015,862,0,0
798,162,0,0,0,0,0,0,0,0,0,-1,2022,862,0,0
805,162,0,0,0,0,0,0,0,0,0,-1,2029,862,0,0
812,162,0,0,0,0,0,0,0,0,0,-1,2036,862,0,0
-700,155,0,0,0,0,0,0,0,0,0,-1,524,869,0,0
-693,155,0,0,0,0,0,0,0,0,0,-1,531,869,0,0
-686,155,0,0,0,0,0,0,0,0,0,-1,538,869,0,0
-679,155,0,0,0,0,0,0,0,0,0,-1,545,869,0,0
-672,155,0,0,0,0,0,0,0,0,0,-1,552,869,0,0
-665,155,-23.6044,5.22723,0.0810037,-0.0279822,0.0299804,0.0887065,-0.035685,0.251486,0.0739602,0.0488437,559,869,-23.6044,-5.22723
-658,155,-23.053,5.30109,0.0654292,-0.0235727,0.0255731,0.0722539,-0.0303973,0.260791,0.0608859,0.0481725,566,869,-23.053,-5.30111
-651,155,-21.722,3.26385,0.0511256,-0.0189345,0.0210903,0.0569845,-0.0247934,0.270967,0.0484185,0.04624,573,869,-21.7221,-3.26384
-644,155,-22.8002,4.07452,0,0,0,0,0,0,0,-1,580,869,-22.8002,-4.07454
-637,155,-22.1105,3.78857,0,0,0,0,0,0,0,-1,587,869,-22.1105,-3.78857
-630,155,-21.6252,3.7243,0.0178805,-0.00688911,0.00947636,0.0210901,-0.0100987,0.326567,0.0183758,0.0432146,594,869,-21.6252,-3.72431
-623,155,-21.5992,3.20544,0.0106024,-0.00472882,0.00716388,0.0134288,-0.00755525,0.375789,0.0122723,0.024683,601,869,-21.5992,-3.20543
-616,155,-21.6632,2.76917,0.00497003,-0.00258636,0.00495981,0.00742677,-0.0050431,0.459905,0.0072432,0.0146584,608,869,-21.6632,-2.76916
-609,155,-21.7191,2.3974,0.001109,-0.00053482,0.00282672,0.00323088,-0.0026567,0.643917,0.00340458,0.0142086,615,869,-21.7191,-2.39738
-602,155,-21.7537,2.08026,-0.00185073,0.00073975,0.0016407,0.00153485,-0.00264583,1.11953,0.00244196,0.0129527,622,869,-21.7536,-2.08025
-595,155,-21.7699,1.75232,-0.002807,-2.60355e-06,0.00161055,0.000730623,-0.00354022,1.14357,0.00263764,0.0124252,629,869,-21.7699,-1.75234
-588,155,-21.7548,1.40991,-0.00229266,-0.000272407,0.00117997,0.00027075,-0.00283582,1.1394,0.00198696,0.0133124,636,869,-21.7548,-1.40994
-581,155,-21.902,1.14679,-0.00189596,-0.000335536,0.00103282,0.00017864,-0.00241014,1.10888,0.00166949,0.0229922,643,869,-21.902,-1.14677
-574,155,-21.9923,0.873779,-0.00183115,-0.000544393,0.000986574,-9.95095e-06,-0.0023656,1.07434,0.00157376,0.0297863,650,869,-21.9923,-0.87378
-567,155,-21.9229,0.358704,-0.0019259,-0.000760876,0.000574594,-0.00052517,-0.0021616,1.18152,0.00130181,0.0305981,657,869,-21.9228,-0.358675
-560,155,-21.8253,-0.0889893,-0.00152824,-0.000972266,-0.00011389,-0.00094984,-0.00155066,-1.37638,0.000902803,0.028878,664,869,-21.8253,0.0890102
-553,155,-21.6762,-0.732178,0,0,0,0,0,0,0,-1,671,869,-21.6762,0.732177
-546,155,-22.7988,0.873657,0,0,0,0,0,0,0,-1,678,869,-22.7988,-0.873645
-539,155,-26.5852,0.919128,0,0,0,0,0,0,0,-1,685,869,-26.5852,-0.919115
-532,155,-26.5445,1.05951,0.000390021,-0.000842657,-0.0021036,0.00196572,-0.00241835,-0.64289,0.00253564,0.0363814,692,869,-26.5445,-1.05952
-525,155,-26.5425,1.13159,0.00124367,-0.000745189,-0.00267373,0.00310191,-0.00260343,-0.607362,0.00329817,0.0388648,699,869,-26.5425,-1.13158
-518,155,-26.6506,1.01697,0.00286262,-0.000755107,-0.00314624,0.00468292,-0.00257541,-0.524508,0.00424907,0.0433944,706,869,-26.6506,-1.01697
-511,155,-26.4889,0.727295,0.00642821,-0.00107083,-0.00331028,0.00768037,-0.00232299,-0.36163,0.00604523,0.0428089,713,869,-26.4889,-0.727272
-504,155,-26.1735,0.558594,0.012873,-0.00213944,-0.0031289,0.013499,-0.00276546,-0.19747,0.0100488,0.0422491,720,869,-26.1735,-0.558588
-497,155,0,0,0,0,0,0,0,0,0,-1,727,869,0,0
-490,155,0,0,0,0,0,0,0,0,0,-1,734,869,0,0
-483,155,0,0,0,0,0,0,0,0,0,-1,741,869,0,0
-476,155,0,0,0,0,0,0,0,0,0,-1,748,869,0,0
-469,155,0,0,0,0,0,0,0,0,0,-1,755,869,0,0
-462,155,0,0,0,0,0,0,0,0,0,-1,762,869,0,0
-455,155,0,0,0,0,0,0,0,0,0,-1,769,869,0,0
-448,155,0,0,0,0,0,0,0,0,0,-1,776,869,0,0
-441,155,0,0,0,0,0,0,0,0,0,-1,783,869,0,0
-434,155,0,0,0,0,0,0,0,0,0,-1,790,869,0,0
-427,155,0,0,0,0,0,0,0,0,0,-1,797,869,0,0
-420,155,0,0,0,0,0,0,0,0,0,-1,804,869,0,0
-413,155,0,0,0,0,0,0,0,0,0,-1,811,869,0,0
-406,155,0,0,0,0,0,0,0,0,0,-1,818,869,0,0
-399,155,0,0,0,0,0,0,0,0,0,-1,825,869,0,0
-392,155,0,0,0,0,0,0,0,0,0,-1,832,869,0,0
-385,155,0,0,0,0,0,0,0,0,0,-1,839,869,0,0
-378,155,0,0,0,0,0,0,0,0,0,-1,846,869,0,0
-371,155,0,0,0,0,0,0,0,0,0,-1,853,869,0,0
-364,155,0,0,0,0,0,0,0,0,0,-1,860,869,0,0
-357,155,0,0,0,0,0,0,0,0,0,-1,867,869,0,0
-350,155,0,0,0,0,0,0,0,0,0,-1,874,869,0,0
-343,155,0,0,0,0,0,0,0,0,0,-1,881,869,0,0
-336,155,0,0,0,0,0,0,0,0,0,-1,888,869,0,0
-329,155,0,0,0,0,0,0,0,0,0,-1,895,869,0,0
-322,155,0,0,0,0,0,0,0,0,0,-1,902,869,0,0
-315,155,0,0,0,0,0,0,0,0,0,-1,909,869,0,0
-308,155,0,0,0,0,0,0,0,0,0,-1,916,869,0,0
-301,155,0,0,0,0,0,0,0,0,0,-1,923,869,0,0
-294,155,0,0,0,0,0,0,0,0,0,-1,930,869,0,0
-287,155,0,0,0,0,0,0,0,0,0,-1,937,869,0,0
-280,155,0,0,0,0,0,0,0,0,0,-1,944,869,0,0
-273,155,0,0,0,0,0,0,0,0,0,-1,951,869,0,0
-266,155,0,0,0,0,0,0,0,0,0,-1,958,869,0,0
-259,155,0,0,0,0,0,0,0,0,0,-1,965,869,0,0
-252,155,0,0,0,0,0,0,0,0,0,-1,972,869,0,0
-245,155,0,0,0,0,0,0,0,0,0,-1,979,869,0,0
-238,155,0,0,0,0,0,0,0,0,0,-1,986,869,0,0
-231,155,0,0,0,0,0,0,0,0,0,-1,993,869,0,0
-224,155,0,0,0,0,0,0,0,0,0,-1,1000,869,0,0
-217,155,0,0,0,0,0,0,0,0,0,-1,1007,869,0,0
-210,155,0,0,0,0,0,0,0,0,0,-1,1014,869,0,0
-203,155,0,0,0,0,0,0,0,0,0,-1,1021,869,0,0
-196,155,0,0,0,0,0,0,0,0,0,-1,1028,869,0,0
-189,155,0,0,0,0,0,0,0,0,0,-1,1035,869,0,0
-182,155,0,0,0,0,0,0,0,0,0,-1,1042,869,0,0
-175,155,0,0,0,0,0,0,0,0,0,-1,1049,869,0,0
-168,155,0,0,0,0,0,0,0,0,0,-1,1056,869,0,0
-161,155,0,0,0,0,0,0,0,0,0,-1,1063,869,0,0
-154,155,0,0,0,0,0,0,0,0,0,-1,1070,869,0,0
-147,155,0,0,0,0,0,0,0,0,0,-1,1077,869,0,0
-140,155,0,0,0,0,0,0,0,0,0,-1,1084,869,0,0
-133,155,0,0,0,0,0,0,0,0,0,-1,1091,869,0,0
-126,155,0,0,0,0,0,0,0,0,0,-1,1098,869,0,0
-119,155,0,0,0,0,0,0,0,0,0,-1,1105,869,0,0
-112,155,0,0,0,0,0,0,0,0,0,-1,1112,869,0,0
-105,155,0,0,0,0,0,0,0,0,0,-1,1119,869,0,0
-98,155,0,0,0,0,0,0,0,0,0,-1,1126,869,0,0
-91,155,0,0,0,0,0,0,0,0,0,-1,1133,869,0,0
-84,155,0,0,0,0,0,0,0,0,0,-1,1140,869,0,0
-77,155,0,0,0,0,0,0,0,0,0,-1,1147,869,0,0
-70,155,0,0,0,0,0,0,0,0,0,-1,1154,869,0,0
-63,155,0,0,0,0,0,0,0,0,0,-1,1161,869,0,0
-56,155,0,0,0,0,0,0,0,0,0,-1,1168,869,0,0
-49,155,0,0,0,0,0,0,0,0,0,-1,1175,869,0,0
-42,155,0,0,0,0,0,0,0,0,0,-1,1182,869,0,0
-35,155,0,0,0,0,0,0,0,0,0,-1,1189,869,0,0
-28,155,0,0,0,0,0,0,0,0,0,-1,1196,869,0,0
-21,155,0,0,0,0,0,0,0,0,0,-1,1203,869,0,0
-14,155,0,0,0,0,0,0,0,0,0,-1,1210,869,0,0
-7,155,0,0,0,0,0,0,0,0,0,-1,1217,869,0,0
0,155,0,0,0,0,0,0,0,0,0,-1,1224,869,0,0
7,155,0,0,0,0,0,0,0,0,0,-1,1231,869,0,0
14,155,0,0,0,0,0,0,0,0,0,-1,1238,869,0,0
21,155,0,0,0,0,0,0,0,0,0,-1,1245,869,0,0
28,155,0,0,0,0,0,0,0,0,0,-1,1252,869,0,0
35,155,0,0,0,0,0,0,0,0,0,-1,1259,869,0,0
42,155,0,0,0,0,0,0,0,0,0,-1,1266,869,0,0
49,155,0,0,0,0,0,0,0,0,0,-1,1273,869,0,0
56,155,0,0,0,0,0,0,0,0,0,-1,1280,869,0,0
63,155,0,0,0,0,0,0,0,0,0,-1,1287,869,0,0
70,155,0,0,0,0,0,0,0,0,0,-1,1294,869,0,0
77,155,0,0,0,0,0,0,0,0,0,-1,1301,869,0,0
84,155,0,0,0,0,0,0,0,0,0,-1,1308,869,0,0
91,155,0,0,0,0,0,0,0,0,0,-1,1315,869,0,0
98,155,0,0,0,0,0,0,0,0,0,-1,1322,869,0,0
105,155,0,0,0,0,0,0,0,0,0,-1,1329,869,0,0
112,155,0,0,0,0,0,0,0,0,0,-1,1336,869,0,0
119,155,0,0,0,0,0,0,0,0,0,-1,1343,869,0,0
126,155,0,0,0,0,0,0,0,0,0,-1,1350,869,0,0
133,155,0,0,0,0,0,0,0,0,0,-1,1357,869,0,0
140,155,0,0,0,0,0,0,0,0,0,-1,1364,869,0,0
147,155,0,0,0,0,0,0,0,0,0,-1,1371,869,0,0
154,155,0,0,0,0,0,0,0,0,0,-1,1378,869,0,0
161,155,0,0,0,0,0,0,0,0,0,-1,1385,869,0,0
168,155,0,0,0,0,0,0,0,0,0,-1,1392,869,0,0
175,155,0,0,0,0,0,0,0,0,0,-1,1399,869,0,0
182,155,0,0,0,0,0,0,0,0,0,-1,1406,869,0,0
189,155,0,0,0,0,0,0,0,0,0,-1,1413,869,0,0
196,155,0,0,0,0,0,0,0,0,0,-1,1420,869,0,0
203,155,0,0,0,0,0,0,0,0,0,-1,1427,869,0,0
210,155,0,0,0,0,0,0,0,0,0,-1,1434,869,0,0
217,155,0,0,0,0,0,0,0,0,0,-1,1441,869,0,0
224,155,0,0,0,0,0,0,0,0,0,-1,1448,869,0,0
231,155,0,0,0,0,0,0,0,0,0,-1,1455,869,0,0
238,155,0,0,0,0,0,0,0,0,0,-1,1462,869,0,0
245,155,0,0,0,0,0,0,0,0,0,-1,1469,869,0,0
252,155,0,0,0,0,0,0,0,0,0,-1,1476,869,0,0
259,155,0,0,0,0,0,0,0,0,0,-1,1483,869,0,0
266,155,0,0,0,0,0,0,0,0,0,-1,1490,869,0,0
273,155,0,0,0,0,0,0,0,0,0,-1,1497,869,0,0
280,155,0,0,0,0,0,0,0,0,0,-1,1504,869,0,0
287,155,0,0,0,0,0,0,0,0,0,-1,1511,869,0,0
294,155,0,0,0,0,0,0,0,0,0,-1,1518,869,0,0
301,155,0,0,0,0,0,0,0,0,0,-1,1525,869,0,0
308,155,0,0,0,0,0,0,0,0,0,-1,1532,869,0,0
315,155,0,0,0,0,0,0,0,0,0,-1,1539,869,0,0
322,155,0,0,0,0,0,0,0,0,0,-1,1546,869,0,0
329,155,0,0,0,0,0,0,0,0,0,-1,1553,869,0,0
336,155,0,0,0,0,0,0,0,0,0,-1,1560,869,0,0
343,155,0,0,0,0,0,0,0,0,0,-1,1567,869,0,0
350,155,0,0,0,0,0,0,0,0,0,-1,1574,869,0,0
357,155,0,0,0,0,0,0,0,0,0,-1,1581,869,0,0
364,155,0,0,0,0,0,0,0,0,0,-1,1588,869,0,0
371,155,0,0,0,0,0,0,0,0,0,-1,1595,869,0,0
378,155,0,0,0,0,0,0,0,0,0,-1,1602,869,0,0
385,155,0,0,0,0,0,0,0,0,0,-1,1609,869,0,0
392,155,0,0,0,0,0,0,0,0,0,-1,1616,869,0,0
399,155,0,0,0,0,0,0,0,0,0,-1,1623,869,0,0
406,155,0,0,0,0,0,0,0,0,0,-1,1630,869,0,0
413,155,0,0,0,0,0,0,0,0,0,-1,1637,869,0,0
420,155,0,0,0,0,0,0,0,0,0,-1,1644,869,0,0
427,155,0,0,0,0,0,0,0,0,0,-1,1651,869,0,0
434,155,0,0,0,0,0,0,0,0,0,-1,1658,869,0,0
441,155,0,0,0,0,0,0,0,0,0,-1,1665,869,0,0
448,155,0,0,0,0,0,0,0,0,0,-1,1672,869,0,0
455,155,0,0,0,0,0,0,0,0,0,-1,1679,869,0,0
462,155,0,0,0,0,0,0,0,0,0,-1,1686,869,0,0
469,155,0,0,0,0,0,0,0,0,0,-1,1693,869,0,0
476,155,0,0,0,0,0,0,0,0,0,-1,1700,869,0,0
483,155,0,0,0,0,0,0,0,0,0,-1,1707,869,0,0
490,155,0,0,0,0,0,0,0,0,0,-1,1714,869,0,0
497,155,0,0,0,0,0,0,0,0,0,-1,1721,869,0,0
504,155,0,0,0,0,0,0,0,0,0,-1,1728,869,0,0
511,155,0,0,0,0,0,0,0,0,0,-1,1735,869,0,0
518,155,0,0,0,0,0,0,0,0,0,-1,1742,869,0,0
525,155,0,0,0,0,0,0,0,0,0,-1,1749,869,0,0
532,155,0,0,0,0,0,0,0,0,0,-1,1756,869,0,0
539,155,0,0,0,0,0,0,0,0,0,-1,1763,869,0,0
546,155,0,0,0,0,0,0,0,0,0,-1,1770,869,0,0
553,155,0,0,0,0,0,0,0,0,0,-1,1777,869,0,0
560,155,0,0,0,0,0,0,0,0,0,-1,1784,869,0,0
567,155,0,0,0,0,0,0,0,0,0,-1,1791,869,0,0
574,155,0,0,0,0,0,0,0,0,0,-1,1798,869,0,0
581,155,0,0,0,0,0,0,0,0,0,-1,1805,869,0,0
588,155,0,0,0,0,0,0,0,0,0,-1,1812,869,0,0
595,155,0,0,0,0,0,0,0,0,0,-1,1819,869,0,0
602,155,0,0,0,0,0,0,0,0,0,-1,1826,869,0,0
609,155,0,0,0,0,0,0,0,0,0,-1,1833,869,0,0
616,155,36.5242,2.85022,-0.00183188,0.00310108,-0.000344419,0.00312502,-0.00185581,-1.50143,0.00290663,0.0446516,1840,869,36.5242,-2.8502
623,155,36.4596,2.81171,-0.00212648,0.00337975,-0.000271178,0.00339307,-0.0021398,-1.52171,0.00322161,0.0438093,1847,869,36.4596,-2.81168
630,155,36.4171,2.79358,-0.00215758,0.00360596,-0.000200656,0.00361294,-0.00216456,-1.53604,0.0033704,0.0438405,1854,869,36.4171,-2.79356
637,155,36.3209,2.8324,-0.00220552,0.00384443,-0.000126551,0.00384707,-0.00220816,-1.54989,0.00353842,0.0403996,1861,869,36.3209,-2.83241
644,155,36.3259,2.74023,-0.00226199,0.00374451,-7.71707e-05,0.0037455,-0.00226298,-1.55795,0.00350402,0.0364866,1868,869,36.3259,-2.74026
651,155,36.3578,2.73907,-0.00222133,0.00340614,-0.000106214,0.00340814,-0.00222333,-1.55193,0.00327523,0.0340713,1875,869,36.3578,-2.73907
658,155,36.354,2.77612,-0.00207803,0.00289263,-0.000154986,0.00289746,-0.00208286,-1.53966,0.00288818,0.0297875,1882,869,36.354,-2.77613
665,155,36.3047,2.80969,-0.00194868,0.00239536,-0.000252749,0.00241001,-0.00196334,-1.51287,0.00252934,0.0339967,1889,869,36.3047,-2.80972
672,155,36.2363,2.94031,0,0,0,0,0,0,0,-1,1896,869,36.2363,-2.94032
679,155,35.1565,2.78528,0,0,0,0,0,0,0,-1,1903,869,35.1565,-2.7853
686,155,30.4532,2.26794,0,0,0,0,0,0,0,-1,1910,869,30.4533,-2.26793
693,155,30.5121,2.55139,-0.00133976,0.000889902,-0.000387678,0.000955386,-0.00140524,-1.40346,0.00137114,0.0313331,1917,869,30.5121,-2.55141
700,155,30.6248,2.92419,-0.00128869,0.000471726,-0.000498082,0.00060288,-0.00141984,-1.31332,0.00119915,0.0228536,1924,869,30.6248,-2.9242
707,155,30.6991,3.31488,-0.00106812,4.77875e-05,-0.000721186,0.000401656,-0.00142199,-1.11464,0.00110645,0.0168452,1931,869,30.6991,-3.31486
714,155,30.6188,3.604,-0.000550845,0.000183531,-0.000661816,0.000573196,-0.00094051,-1.03867,0.000882474,0.0315562,1938,869,30.6188,-3.60401
721,155,30.4556,3.99493,-0.000149797,0.000218184,-0.000681705,0.000740292,-0.000671905,-0.917206,0.000815651,0.0275702,1945,869,30.4556,-3.99491
728,155,30.452,4.36316,0.000403341,0.000755462,-0.000408343,0.00102408,0.000134721,-0.988936,0.00064254,0.0203016,1952,869,30.4521,-4.36316
735,155,30.4833,4.70135,0.00139925,0.00125454,0.000456368,0.00178896,0.000864828,0.706782,0.00103305,0.0154787,1959,869,30.4832,-4.70137
742,155,30.4941,5.05414,0.00271185,0.00186502,0.0016583,0.00399993,0.00057693,0.660403,0.00249663,0.0169102,1966,869,30.4942,-5.05413
749,155,30.4077,5.37396,0.00450911,0.00262965,0.00365837,0.00734652,-0.000207753,0.659681,0.00496838,0.0155401,1973,869,30.4077,-5.37395
756,155,30.4968,5.81342,0.0070616,0.00354919,0.00687725,0.0124033,-0.00179255,0.660388,0.00892661,0.0245442,1980,869,30.4968,-5.81343
763,155,30.6366,6.17566,0.0106859,0.00458868,0.0118575,0.0198804,-0.00460582,0.659572,0.015026,0.0395475,1987,869,30.6366,-6.17565
770,155,30.7256,6.55072,0,0,0,0,0,0,0,-1,1994,869,30.7256,-6.5507
777,155,30.646,7.24634,0,0,0,0,0,0,0,-1,2001,869,30.646,-7.24635
784,155,30.8318,8.02759,0,0,0,0,0,0,0,-1,2008,869,30.8318,-8.02759
791,155,0,0,0,0,0,0,0,0,0,-1,2015,869,0,0
798,155,0,0,0,0,0,0,0,0,0,-1,2022,869,0,0
805,155,0,0,0,0,0,0,0,0,0,-1,2029,869,0,0
812,155,0,0,0,0,0,0,0,0,0,-1,2036,869,0,0
-700,148,0,0,0,0,0,0,0,0,0,-1,524,876,0,0
-693,148,0,0,0,0,0,0,0,0,0,-1,531,876,0,0
-686,148,0,0,0,0,0,0,0,0,0,-1,538,876,0,0
-679,148,0,0,0,0,0,0,0,0,0,-1,545,876,0,0
-672,148,-24.8226,6.14368,0,0,0,0,0,0,0,-1,552,876,-24.8226,-6.1437
-665,148,-24.462,6.18988,0,0,0,0,0,0,0,-1,559,876,-24.462,-6.18985
-658,148,-23.8802,6.30103,0,0,0,0,0,0,0,-1,566,876,-23.8803,-6.301
-651,148,-21.8351,2.927,0,0,0,0,0,0,0,-1,573,876,-21.8351,-2.92703
-644,148,-22.3105,2.11597,0,0,0,0,0,0,0,-1,580,876,-22.3105,-2.11596
-637,148,-21.9191,3.92102,0,0,0,0,0,0,0,-1,587,876,-21.9191,-3.92102
-630,148,-21.9404,3.62585,0.0159106,-0.00855981,0.00986868,0.0193946,-0.0120437,0.33937,0.0183155,0.0482699,594,876,-21.9404,-3.62586
-623,148,-21.8967,3.19159,0.00942818,-0.00612706,0.00771071,0.0126026,-0.00930145,0.390539,0.0126941,0.024295,601,876,-21.8966,-3.19162
-616,148,-21.9999,2.78693,0.00428457,-0.00359045,0.00544753,0.00706863,-0.00637451,0.472463,0.00776485,0.0134914,608,876,-21.9998,-2.78693
-609,148,-22.0712,2.42114,0.000791761,-0.00121706,0.00319936,0.00314067,-0.00356596,0.6333,0.00387467,0.0130519,615,876,-22.0712,-2.42114
-602,148,-22.1131,2.08954,-0.00177678,0.000211326,0.00192176,0.00138091,-0.00294636,1.02408,0.00255226,0.0139496,622,876,-22.1131,-2.08956
-595,148,-22.1232,1.75525,-0.00254741,-0.00016834,0.00171959,0.000733052,-0.0034488,1.08798,0.00257852,0.0123182,629,876,-22.1231,-1.75528
-588,148,-22.1301,1.35999,-0.00209616,-0.000239154,0.00116606,0.000322917,-0.00265823,1.12163,0.00188902,0.0180862,636,876,-22.1301,-1.35997
-581,148,-22.2486,1.08582,-0.00178407,-0.000174855,0.00093657,0.000255267,-0.00221419,1.14027,0.00156816,0.0305243,643,876,-22.2486,-1.08581
-574,148,-22.0125,0.845581,-0.00179464,-0.00033109,0.000900978,9.78493e-05,-0.00222358,1.12647,0.00151605,0.0352215,650,876,-22.0125,-0.845601
-567,148,-22.171,0.457397,-0.00171273,-0.000627918,0.00053477,-0.000408627,-0.00193202,1.18164,0.00117572,0.0430919,657,876,-22.171,-0.457384
-560,148,-22.2054,-0.0953369,0,0,0,0,0,0,0,-1,664,876,-22.2055,0.0953123
-553,148,-18.3896,-0.00280762,0,0,0,0,0,0,0,-1,671,876,-18.3897,0.00278524
-546,148,-26.5356,1.07684,0,0,0,0,0,0,0,-1,678,876,-26.5357,-1.07685
-539,148,-26.5653,0.889526,0.000407138,-0.00129408,-0.00156155,0.00133472,-0.00222167,-0.536007,0.00207446,0.0359535,685,876,-26.5653,-0.889508
-532,148,-26.5696,0.913635,0.00120206,-0.00137814,-0.00210979,0.00238493,-0.00256101,-0.510988,0.00285615,0.0367537,692,876,-26.5696,-0.913613
-525,148,-26.5302,1.03876,0.00225774,-0.00154428,-0.00267541,0.00363875,-0.00292529,-0.476513,0.00379721,0.0394059,699,876,-26.5302,-1.03874
-518,148,-26.4699,1.09967,0.00426589,-0.00193321,-0.00313646,0.00557595,-0.00324326,-0.395659,0.0051508,0.0449727,706,876,-26.4699,-1.09968
-511,148,-26.278,0.943481,0.00827395,-0.00284162,-0.00329674,0.00917817,-0.00374584,-0.267693,0.00767825,0.0415731,713,876,-26.278,-0.943505
-504,148,-26.2874,0.846436,0.0149088,-0.00445402,-0.00307731,0.0153861,-0.00493133,-0.153879,0.012237,0.0405551,720,876,-26.2874,-0.846465
-497,148,0,0,0,0,0,0,0,0,0,-1,727,876,0,0
-490,148,0,0,0,0,0,0,0,0,0,-1,734,876,0,0
-483,148,0,0,0,0,0,0,0,0,0,-1,741,876,0,0
-476,148,0,0,0,0,0,0,0,0,0,-1,748,876,0,0
-469,148,0,0,0,0,0,0,0,0,0,-1,755,876,0,0
-462,148,0,0,0,0,0,0,0,0,0,-1,762,876,0,0
-455,148,0,0,0,0,0,0,0,0,0,-1,769,876,0,0
-448,148,0,0,0,0,0,0,0,0,0,-1,776,876,0,0
-441,148,0,0,0,0,0,0,0,0,0,-1,783,876,0,0
-434,148,0,0,0,0,0,0,0,0,0,-1,790,876,0,0
-427,148,0,0,0,0,0,0,0,0,0,-1,797,876,0,0
-420,148,0,0,0,0,0,0,0,0,0,-1,804,876,0,0
-413,148,0,0,0,0,0,0,0,0,0,-1,811,876,0,0
-406,148,0,0,0,0,0,0,0,0,0,-1,818,876,0,0
-399,148,0,0,0,0,0,0,0,0,0,-1,825,876,0,0
-392,148,0,0,0,0,0,0,0,0,0,-1,832,876,0,0
-385,148,0,0,0,0,0,0,0,0,0,-1,839,876,0,0
-378,148,0,0,0,0,0,0,0,0,0,-1,846,876,0,0
-371,148,0,0,0,0,0,0,0,0,0,-1,853,876,0,0
-364,148,0,0,0,0,0,0,0,0,0,-1,860,876,0,0
-357,148,0,0,0,0,0,0,0,0,0,-1,867,876,0,0
-350,148,0,0,0,0,0,0,0,0,0,-1,874,876,0,0
-343,148,0,0,0,0,0,0,0,0,0,-1,881,876,0,0
-336,148,0,0,0,0,0,0,0,0,0,-1,888,876,0,0
-329,148,0,0,0,0,0,0,0,0,0,-1,895,876,0,0
-322,148,0,0,0,0,0,0,0,0,0,-1,902,876,0,0
-315,148,0,0,0,0,0,0,0,0,0,-1,909,876,0,0
-308,148,0,0,0,0,0,0,0,0,0,-1,916,876,0,0
-301,148,0,0,0,0,0,0,0,0,0,-1,923,876,0,0
-294,148,0,0,0,0,0,0,0,0,0,-1,930,876,0,0
-287,148,0,0,0,0,0,0,0,0,0,-1,937,876,0,0
-280,148,0,0,0,0,0,0,0,0,0,-1,944,876,0,0
-273,148,0,0,0,0,0,0,0,0,0,-1,951,876,0,0
-266,148,0,0,0,0,0,0,0,0,0,-1,958,876,0,0
-259,148,0,0,0,0,0,0,0,0,0,-1,965,876,0,0
-252,148,0,0,0,0,0,0,0,0,0,-1,972,876,0,0
-245,148,0,0,0,0,0,0,0,0,0,-1,979,876,0,0
-238,148,0,0,0,0,0,0,0,0,0,-1,986,876,0,0
-231,148,0,0,0,0,0,0,0,0,0,-1,993,876,0,0
-224,148,0,0,0,0,0,0,0,0,0,-1,1000,876,0,0
-217,148,0,0,0,0,0,0,0,0,0,-1,1007,876,0,0
-210,148,0,0,0,0,0,0,0,0,0,-1,1014,876,0,0
-203,148,0,0,0,0,0,0,0,0,0,-1,1021,876,0,0
-196,148,0,0,0,0,0,0,0,0,0,-1,1028,876,0,0
-189,148,0,0,0,0,0,0,0,0,0,-1,1035,876,0,0
-182,148,0,0,0,0,0,0,0,0,0,-1,1042,876,0,0
-175,148,0,0,0,0,0,0,0,0,0,-1,1049,876,0,0
-168,148,0,0,0,0,0,0,0,0,0,-1,1056,876,0,0
-161,148,0,0,0,0,0,0,0,0,0,-1,1063,876,0,0
-154,148,0,0,0,0,0,0,0,0,0,-1,1070,876,0,0
-147,148,0,0,0,0,0,0,0,0,0,-1,1077,876,0,0
-140,148,0,0,0,0,0,0,0,0,0,-1,1084,876,0,0
-133,148,0,0,0,0,0,0,0,0,0,-1,1091,876,0,0
-126,148,0,0,0,0,0,0,0,0,0,-1,1098,876,0,0
-119,148,0,0,0,0,0,0,0,0,0,-1,1105,876,0,0
-112,148,0,0,0,0,0,0,0,0,0,-1,1112,876,0,0
-105,148,0,0,0,0,0,0,0,0,0,-1,1119,876,0,0
-98,148,0,0,0,0,0,0,0,0,0,-1,1126,876,0,0
-91,148,0,0,0,0,0,0,0,0,0,-1,1133,876,0,0
-84,148,0,0,0,0,0,0,0,0,0,-1,1140,876,0,0
-77,148,0,0,0,0,0,0,0,0,0,-1,1147,876,0,0
-70,148,0,0,0,0,0,0,0,0,0,-1,1154,876,0,0
-63,148,0,0,0,0,0,0,0,0,0,-1,1161,876,0,0
-56,148,0,0,0,0,0,0,0,0,0,-1,1168,876,0,0
-49,148,0,0,0,0,0,0,0,0,0,-1,1175,876,0,0
-42,148,0,0,0,0,0,0,0,0,0,-1,1182,876,0,0
-35,148,0,0,0,0,0,0,0,0,0,-1,1189,876,0,0
-28,148,0,0,0,0,0,0,0,0,0,-1,1196,876,0,0
-21,148,0,0,0,0,0,0,0,0,0,-1,1203,876,0,0
-14,148,0,0,0,0,0,0,0,0,0,-1,1210,876,0,0
-7,148,0,0,0,0,0,0,0,0,0,-1,1217,876,0,0
0,148,0,0,0,0,0,0,0,0,0,-1,1224,876,0,0
7,148,0,0,0,0,0,0,0,0,0,-1,1231,876,0,0
14,148,0,0,0,0,0,0,0,0,0,-1,1238,876,0,0
21,148,0,0,0,0,0,0,0,0,0,-1,1245,876,0,0
28,148,0,0,0,0,0,0,0,0,0,-1,1252,876,0,0
35,148,0,0,0,0,0,0,0,0,0,-1,1259,876,0,0
42,148,0,0,0,0,0,0,0,0,0,-1,1266,876,0,0
49,148,0,0,0,0,0,0,0,0,0,-1,1273,876,0,0
56,148,0,0,0,0,0,0,0,0,0,-1,1280,876,0,0
63,148,0,0,0,0,0,0,0,0,0,-1,1287,876,0,0
70,148,0,0,0,0,0,0,0,0,0,-1,1294,876,0,0
77,148,0,0,0,0,0,0,0,0,0,-1,1301,876,0,0
84,148,0,0,0,0,0,0,0,0,0,-1,1308,876,0,0
91,148,0,0,0,0,0,0,0,0,0,-1,1315,876,0,0
98,148,0,0,0,0,0,0,0,0,0,-1,1322,876,0,0
105,148,0,0,0,0,0,0,0,0,0,-1,1329,876,0,0
112,148,0,0,0,0,0,0,0,0,0,-1,1336,876,0,0
119,148,0,0,0,0,0,0,0,0,0,-1,1343,876,0,0
126,148,0,0,0,0,0,0,0,0,0,-1,1350,876,0,0
133,148,0,0,0,0,0,0,0,0,0,-1,1357,876,0,0
140,148,0,0,0,0,0,0,0,0,0,-1,1364,876,0,0
147,148,0,0,0,0,0,0,0,0,0,-1,1371,876,0,0
154,148,0,0,0,0,0,0,0,0,0,-1,1378,876,0,0
161,148,0,0,0,0,0,0,0,0,0,-1,1385,876,0,0
168,148,0,0,0,0,0,0,0,0,0,-1,1392,876,0,0
175,148,0,0,0,0,0,0,0,0,0,-1,1399,876,0,0
182,148,0,0,0,0,0,0,0,0,0,-1,1406,876,0,0
189,148,0,0,0,0,0,0,0,0,0,-1,1413,876,0,0
196,148,0,0,0,0,0,0,0,0,0,-1,1420,876,0,0
203,148,0,0,0,0,0,0,0,0,0,-1,1427,876,0,0
210,148,0,0,0,0,0,0,0,0,0,-1,1434,876,0,0
217,148,0,0,0,0,0,0,0,0,0,-1,1441,876,0,0
224,148,0,0,0,0,0,0,0,0,0,-1,1448,876,0,0
231,148,0,0,0,0,0,0,0,0,0,-1,1455,876,0,0
238,148,0,0,0,0,0,0,0,0,0,-1,1462,876,0,0
245,148,0,0,0,0,0,0,0,0,0,-1,1469,876,0,0
252,148,0,0,0,0,0,0,0,0,0,-1,1476,876,0,0
259,148,0,0,0,0,0,0,0,0,0,-1,1483,876,0,0
266,148,0,0,0,0,0,0,0,0,0,-1,1490,876,0,0
273,148,0,0,0,0,0,0,0,0,0,-1,1497,876,0,0
280,148,0,0,0,0,0,0,0,0,0,-1,1504,876,0,0
287,148,0,0,0,0,0,0,0,0,0,-1,1511,876,0,0
294,148,0,0,0,0,0,0,0,0,0,-1,1518,876,0,0
301,148,0,0,0,0,0,0,0,0,0,-1,1525,876,0,0
308,148,0,0,0,0,0,0,0,0,0,-1,1532,876,0,0
315,148,0,0,0,0,0,0,0,0,0,-1,1539,876,0,0
322,148,0,0,0,0,0,0,0,0,0,-1,1546,876,0,0
329,148,0,0,0,0,0,0,0,0,0,-1,1553,876,0,0
336,148,0,0,0,0,0,0,0,0,0,-1,1560,876,0,0
343,148,0,0,0,0,0,0,0,0,0,-1,1567,876,0,0
350,148,0,0,0,0,0,0,0,0,0,-1,1574,876,0,0
357,148,0,0,0,0,0,0,0,0,0,-1,1581,876,0,0
364,148,0,0,0,0,0,0,0,0,0,-1,1588,876,0,0
371,148,0,0,0,0,0,0,0,0,0,-1,1595,876,0,0
378,148,0,0,0,0,0,0,0,0,0,-1,1602,876,0,0
385,148,0,0,0,0,0,0,0,0,0,-1,1609,876,0,0
392,148,0,0,0,0,0,0,0,0,0,-1,1616,876,0,0
399,148,0,0,0,0,0,0,0,0,0,-1,1623,876,0,0
406,148,0,0,0,0,0,0,0,0,0,-1,1630,876,0,0
413,148,0,0,0,0,0,0,0,0,0,-1,1637,876,0,0
420,148,0,0,0,0,0,0,0,0,0,-1,1644,876,0,0
427,148,0,0,0,0,0,0,0,0,0,-1,1651,876,0,0
434,148,0,0,0,0,0,0,0,0,0,-1,1658,876,0,0
441,148,0,0,0,0,0,0,0,0,0,-1,1665,876,0,0
448,148,0,0,0,0,0,0,0,0,0,-1,1672,876,0,0
455,148,0,0,0,0,0,0,0,0,0,-1,1679,876,0,0
462,148,0,0,0,0,0,0,0,0,0,-1,1686,876,0,0
469,148,0,0,0,0,0,0,0,0,0,-1,1693,876,0,0
476,148,0,0,0,0,0,0,0,0,0,-1,1700,876,0,0
483,148,0,0,0,0,0,0,0,0,0,-1,1707,876,0,0
490,148,0,0,0,0,0,0,0,0,0,-1,1714,876,0,0
497,148,0,0,0,0,0,0,0,0,0,-1,1721,876,0,0
504,148,0,0,0,0,0,0,0,0,0,-1,1728,876,0,0
511,148,0,0,0,0,0,0,0,0,0,-1,1735,876,0,0
518,148,0,0,0,0,0,0,0,0,0,-1,1742,876,0,0
525,148,0,0,0,0,0,0,0,0,0,-1,1749,876,0,0
532,148,0,0,0,0,0,0,0,0,0,-1,1756,876,0,0
539,148,0,0,0,0,0,0,0,0,0,-1,1763,876,0,0
546,148,0,0,0,0,0,0,0,0,0,-1,1770,876,0,0
553,148,0,0,0,0,0,0,0,0,0,-1,1777,876,0,0
560,148,0,0,0,0,0,0,0,0,0,-1,1784,876,0,0
567,148,0,0,0,0,0,0,0,0,0,-1,1791,876,0,0
574,148,0,0,0,0,0,0,0,0,0,-1,1798,876,0,0
581,148,0,0,0,0,0,0,0,0,0,-1,1805,876,0,0
588,148,0,0,0,0,0,0,0,0,0,-1,1812,876,0,0
595,148,0,0,0,0,0,0,0,0,0,-1,1819,876,0,0
602,148,0,0,0,0,0,0,0,0,0,-1,1826,876,0,0
609,148,0,0,0,0,0,0,0,0,0,-1,1833,876,0,0
616,148,0,0,0,0,0,0,0,0,0,-1,1840,876,0,0
623,148,36.4413,2.67279,-0.00127992,0.00265381,-0.000287804,0.00267476,-0.00130087,-1.49815,0.00234057,0.0416552,1847,876,36.4413,-2.6728
630,148,36.184,2.8587,-0.00142569,0.0030763,-0.0002824,0.00309395,-0.00144333,-1.50839,0.00267676,0.042262,1854,876,36.184,-2.85868
637,148,36.2787,2.77167,-0.00163972,0.0035189,-0.00027265,0.00353327,-0.00165409,-1.51814,0.00305973,0.0376524,1861,876,36.2787,-2.77168
644,148,36.3044,2.67932,-0.00191755,0.00363047,-0.000219928,0.00363917,-0.00192625,-1.53124,0.00326353,0.0364073,1868,876,36.3044,-2.67931
651,148,36.3274,2.66443,-0.00208248,0.00345658,-0.000203701,0.00346406,-0.00208996,-1.53409,0.00323917,0.0376337,1875,876,36.3274,-2.66445
658,148,36.2659,2.79126,-0.00206711,0.00304315,-0.000193051,0.00305043,-0.00207439,-1.53309,0.00297665,0.0330783,1882,876,36.2658,-2.79124
665,148,36.2303,2.89459,-0.00200344,0.00258795,-0.000230908,0.00259954,-0.00201502,-1.52067,0.00267133,0.0247665,1889,876,36.2303,-2.89461
672,148,36.319,2.80273,-0.00186591,0.00215276,-0.000176486,0.0021605,-0.00187364,-1.52699,0.00233107,0.030169,1896,876,36.319,-2.80274
679,148,36.1583,2.92401,0,0,0,0,0,0,0,-1,1903,876,36.1583,-2.92401
686,148,21.6195,2.40845,0,0,0,0,0,0,0,-1,1910,876,21.6196,-2.40846
693,148,30.8158,2.60223,0,0,0,0,0,0,0,-1,1917,876,30.8158,-2.60226
700,148,30.9974,3.00867,-0.00147893,0.000744284,-0.000260825,0.000774473,-0.00150912,-1.45556,0.00134098,0.0244011,1924,876,30.9974,-3.00869
707,148,31.1394,3.45703,-0.00119676,0.000411854,-0.000472448,0.000540348,-0.00132525,-1.30525,0.00110842,0.0206504,1931,876,31.1394,-3.45704
714,148,31.0494,3.67487,-0.00060061,0.000502631,-0.000457167,0.00066745,-0.00076543,-1.22478,0.000827918,0.0206847,1938,876,31.0495,-3.67489
721,148,30.842,3.97681,-0.000183249,0.000544901,-0.000495739,0.000795894,-0.000434242,-1.10212,0.000720377,0.0187225,1945,876,30.842,-3.9768
728,148,30.844,4.34296,0.000387405,0.00113262,-0.000201664,0.00118369,0.000336333,-1.32276,0.000704315,0.0206477,1952,876,30.844,-4.34296
735,148,30.8748,4.71625,0.0013888,0.0017553,0.000665886,0.00226269,0.000881408,0.919673,0.00131695,0.018641,1959,876,30.8748,-4.71626
742,148,30.8558,5.06561,0.00287189,0.00272764,0.00171327,0.00451455,0.00108497,0.764361,0.00272113,0.0195533,1966,876,30.8558,-5.06563
749,148,30.7678,5.38666,0.00500471,0.00404563,0.00338207,0.00794107,0.00110927,0.714973,0.00496576,0.0183978,1973,876,30.7678,-5.38665
756,148,30.7563,5.79327,0.00791042,0.00558657,0.00609718,0.0129554,0.000541588,0.691243,0.00846218,0.022222,1980,876,30.7564,-5.79327
763,148,30.7579,6.12781,0.0120972,0.00748586,0.0100661,0.0201183,-0.000535264,0.672814,0.0135941,0.0407467,1987,876,30.758,-6.12778
770,148,30.7335,6.44165,0,0,0,0,0,0,0,-1,1994,876,30.7335,-6.44166
777,148,31.2094,7.14063,0.0251168,0.0127039,0.022882,0.0426191,-0.00479844,0.652966,0.0301398,0.0440799,2001,876,31.2094,-7.14064
784,148,31.4685,8.05865,0.0340227,0.0159374,0.0315697,0.0578194,-0.00785917,0.645916,0.0414153,0.0469946,2008,876,31.4685,-8.05864
791,148,31.6631,8.89905,0,0,0,0,0,0,0,-1,2015,876,31.6631,-8.89902
798,148,0,0,0,0,0,0,0,0,0,-1,2022,876,0,0
805,148,0,0,0,0,0,0,0,0,0,-1,2029,876,0,0
812,148,0,0,0,0,0,0,0,0,0,-1,2036,876,0,0
-700,141,0,0,0,0,0,0,0,0,0,-1,524,883,0,0
-693,141,0,0,0,0,0,0,0,0,0,-1,531,883,0,0
-686,141,0,0,0,0,0,0,0,0,0,-1,538,883,0,0
-679,141,0,0,0,0,0,0,0,0,0,-1,545,883,0,0
-672,141,-25.7172,6.9104,0,0,0,0,0,0,0,-1,552,883,-25.7172,-6.91043
-665,141,-25.5385,6.70062,0.0575302,-0.0297991,0.0239348,0.0636599,-0.0359288,0.250711,0.0582359,0.0466848,559,883,-25.5385,-6.70061
-658,141,-25.5133,6.4472,0.0475698,-0.0270132,0.0220795,0.0536161,-0.0330595,0.267288,0.0505091,0.0456545,566,883,-25.5133,-6.44718
-651,141,-25.4844,6.159,0,0,0,0,0,0,0,-1,573,883,-25.4845,-6.15897
-644,141,-25.179,5.79144,0,0,0,0,0,0,0,-1,580,883,-25.179,-5.79146
-637,141,-22.6441,3.99457,0,0,0,0,0,0,0,-1,587,883,-22.6441,-3.99456
-630,141,-22.479,3.62396,0.01346,-0.00989689,0.00998988,0.0171499,-0.0135867,0.353813,0.0177855,0.0447265,594,883,-22.479,-3.62394
-623,141,-22.2118,3.12341,0.00787272,-0.00726264,0.00797374,0.0112982,-0.0106882,0.40576,0.0126955,0.0262115,601,883,-22.2118,-3.12341
-616,141,-22.355,2.74097,0.00332816,-0.00440895,0.00568329,0.00633459,-0.00741538,0.486574,0.00794673,0.0125182,608,883,-22.355,-2.74098
-609,141,-22.4161,2.41846,0.000274272,-0.00180212,0.00339289,0.00278425,-0.0043121,0.636926,0.00412861,0.0135279,615,883,-22.4161,-2.41847
-602,141,-22.4399,2.08978,-0.00191609,-0.000258822,0.00206313,0.00113586,-0.00331077,0.976357,0.00266766,0.0133614,622,883,-22.4399,-2.08978
-595,141,-22.4445,1.7533,-0.00259422,-0.000297357,0.00171237,0.000616028,-0.00350761,1.08078,0.00256849,0.0127511,629,883,-22.4445,-1.75327
-588,141,-22.6618,1.4267,-0.00225653,-0.00020318,0.00107701,0.000258104,-0.00271781,1.16613,0.00190375,0.0226114,636,883,-22.6618,-1.42671
-581,141,-22.6441,1.12463,-0.00203143,-3.27808e-05,0.000810706,0.00025471,-0.00231892,1.23001,0.00163747,0.0307373,643,883,-22.6441,-1.12466
-574,141,-22.3439,0.900085,-0.00207612,-0.00013543,0.000803037,0.000153763,-0.00236532,1.22513,0.00163055,0.0401474,650,883,-22.3439,-0.900103
-567,141,-22.361,0.623291,-0.00186273,-0.000454661,0.000513243,-0.000287442,-0.00202995,1.25583,0.00126839,0.0389379,657,883,-22.361,-0.623315
-560,141,-22.355,0.47168,0,0,0,0,0,0,0,-1,664,883,-22.355,-0.471681
-553,141,-26.5009,1.13074,0,0,0,0,0,0,0,-1,671,883,-26.5009,-1.13072
-546,141,-26.4963,1.04456,-0.00016748,-0.00126869,-0.000980512,0.000406444,-0.00184262,-0.529564,0.00138393,0.0445349,678,883,-26.4964,-1.04457
-539,141,-26.5188,0.915283,0.000590612,-0.00137893,-0.00138377,0.00130425,-0.00209257,-0.476145,0.00197868,0.0297023,685,883,-26.5188,-0.915293
-532,141,-26.5571,0.876526,0.00154514,-0.001608,-0.00187827,0.00242081,-0.00248366,-0.436251,0.00283168,0.0300222,692,883,-26.5571,-0.876539
-525,141,-26.5423,0.866455,0.00283992,-0.00200161,-0.00237105,0.00380767,-0.00296935,-0.387512,0.00392268,0.0389586,699,883,-26.5423,-0.866431
-518,141,-26.5881,0.971191,0.00523429,-0.00270321,-0.00271817,0.00607589,-0.00354481,-0.300258,0.00561822,0.0429327,706,883,-26.5881,-0.971216
-511,141,-26.546,1.0683,0.00950275,-0.00409746,-0.00277048,0.0100455,-0.00464018,-0.193442,0.00866808,0.0389422,713,883,-26.5459,-1.0683
-504,141,-26.4733,1.00452,0.0160017,-0.00592387,-0.00240603,0.0162626,-0.0061848,-0.108024,0.0133883,0.0409888,720,883,-26.4733,-1.00454
-497,141,0,0,0,0,0,0,0,0,0,-1,727,883,0,0
-490,141,0,0,0,0,0,0,0,0,0,-1,734,883,0,0
-483,141,0,0,0,0,0,0,0,0,0,-1,741,883,0,0
-476,141,0,0,0,0,0,0,0,0,0,-1,748,883,0,0
-469,141,0,0,0,0,0,0,0,0,0,-1,755,883,0,0
-462,141,0,0,0,0,0,0,0,0,0,-1,762,883,0,0
-455,141,0,0,0,0,0,0,0,0,0,-1,769,883,0,0
-448,141,0,0,0,0,0,0,0,0,0,-1,776,883,0,0
-441,141,0,0,0,0,0,0,0,0,0,-1,783,883,0,0
-434,141,0,0,0,0,0,0,0,0,0,-1,790,883,0,0
-427,141,0,0,0,0,0,0,0,0,0,-1,797,883,0,0
-420,141,0,0,0,0,0,0,0,0,0,-1,804,883,0,0
-413,141,0,0,0,0,0,0,0,0,0,-1,811,883,0,0
-406,141,0,0,0,0,0,0,0,0,0,-1,818,883,0,0
-399,141,0,0,0,0,0,0,0,0,0,-1,825,883,0,0
-392,141,0,0,0,0,0,0,0,0,0,-1,832,883,0,0
-385,141,0,0,0,0,0,0,0,0,0,-1,839,883,0,0
-378,141,0,0,0,0,0,0,0,0,0,-1,846,883,0,0
-371,141,0,0,0,0,0,0,0,0,0,-1,853,883,0,0
-364,141,0,0,0,0,0,0,0,0,0,-1,860,883,0,0
-357,141,0,0,0,0,0,0,0,0,0,-1,867,883,0,0
-350,141,0,0,0,0,0,0,0,0,0,-1,874,883,0,0
-343,141,0,0,0,0,0,0,0,0,0,-1,881,883,0,0
-336,141,0,0,0,0,0,0,0,0,0,-1,888,883,0,0
-329,141,0,0,0,0,0,0,0,0,0,-1,895,883,0,0
-322,141,0,0,0,0,0,0,0,0,0,-1,902,883,0,0
-315,141,0,0,0,0,0,0,0,0,0,-1,909,883,0,0
-308,141,0,0,0,0,0,0,0,0,0,-1,916,883,0,0
-301,141,0,0,0,0,0,0,0,0,0,-1,923,883,0,0
-294,141,0,0,0,0,0,0,0,0,0,-1,930,883,0,0
-287,141,0,0,0,0,0,0,0,0,0,-1,937,883,0,0
-280,141,0,0,0,0,0,0,0,0,0,-1,944,883,0,0
-273,141,0,0,0,0,0,0,0,0,0,-1,951,883,0,0
-266,141,0,0,0,0,0,0,0,0,0,-1,958,883,0,0
-259,141,0,0,0,0,0,0,0,0,0,-1,965,883,0,0
-252,141,0,0,0,0,0,0,0,0,0,-1,972,883,0,0
-245,141,0,0,0,0,0,0,0,0,0,-1,979,883,0,0
-238,141,0,0,0,0,0,0,0,0,0,-1,986,883,0,0
-231,141,0,0,0,0,0,0,0,0,0,-1,993,883,0,0
-224,141,0,0,0,0,0,0,0,0,0,-1,1000,883,0,0
-217,141,0,0,0,0,0,0,0,0,0,-1,1007,883,0,0
-210,141,0,0,0,0,0,0,0,0,0,-1,1014,883,0,0
-203,141,0,0,0,0,0,0,0,0,0,-1,1021,883,0,0
-196,141,0,0,0,0,0,0,0,0,0,-1,1028,883,0,0
-189,141,0,0,0,0,0,0,0,0,0,-1,1035,883,0,0
-182,141,0,0,0,0,0,0,0,0,0,-1,1042,883,0,0
-175,141,0,0,0,0,0,0,0,0,0,-1,1049,883,0,0
-168,141,0,0,0,0,0,0,0,0,0,-1,1056,883,0,0
-161,141,0,0,0,0,0,0,0,0,0,-1,1063,883,0,0
-154,141,0,0,0,0,0,0,0,0,0,-1,1070,883,0,0
-147,141,0,0,0,0,0,0,0,0,0,-1,1077,883,0,0
-140,141,0,0,0,0,0,0,0,0,0,-1,1084,883,0,0
-133,141,0,0,0,0,0,0,0,0,0,-1,1091,883,0,0
-126,141,0,0,0,0,0,0,0,0,0,-1,1098,883,0,0
-119,141,0,0,0,0,0,0,0,0,0,-1,1105,883,0,0
-112,141,0,0,0,0,0,0,0,0,0,-1,1112,883,0,0
-105,141,0,0,0,0,0,0,0,0,0,-1,1119,883,0,0
-98,141,0,0,0,0,0,0,0,0,0,-1,1126,883,0,0
-91,141,0,0,0,0,0,0,0,0,0,-1,1133,883,0,0
-84,141,0,0,0,0,0,0,0,0,0,-1,1140,883,0,0
-77,141,0,0,0,0,0,0,0,0,0,-1,1147,883,0,0
-70,141,0,0,0,0,0,0,0,0,0,-1,1154,883,0,0
-63,141,0,0,0,0,0,0,0,0,0,-1,1161,883,0,0
-56,141,0,0,0,0,0,0,0,0,0,-1,1168,883,0,0
-49,141,0,0,0,0,0,0,0,0,0,-1,1175,883,0,0
-42,141,0,0,0,0,0,0,0,0,0,-1,1182,883,0,0
-35,141,0,0,0,0,0,0,0,0,0,-1,1189,883,0,0
-28,141,0,0,0,0,0,0,0,0,0,-1,1196,883,0,0
-21,141,0,0,0,0,0,0,0,0,0,-1,1203,883,0,0
-14,141,0,0,0,0,0,0,0,0,0,-1,1210,883,0,0
-7,141,0,0,0,0,0,0,0,0,0,-1,1217,883,0,0
0,141,0,0,0,0,0,0,0,0,0,-1,1224,883,0,0
7,141,0,0,0,0,0,0,0,0,0,-1,1231,883,0,0
14,141,0,0,0,0,0,0,0,0,0,-1,1238,883,0,0
21,141,0,0,0,0,0,0,0,0,0,-1,1245,883,0,0
28,141,0,0,0,0,0,0,0,0,0,-1,1252,883,0,0
35,141,0,0,0,0,0,0,0,0,0,-1,1259,883,0,0
42,141,0,0,0,0,0,0,0,0,0,-1,1266,883,0,0
49,141,0,0,0,0,0,0,0,0,0,-1,1273,883,0,0
56,141,0,0,0,0,0,0,0,0,0,-1,1280,883,0,0
63,141,0,0,0,0,0,0,0,0,0,-1,1287,883,0,0
70,141,0,0,0,0,0,0,0,0,0,-1,1294,883,0,0
77,141,0,0,0,0,0,0,0,0,0,-1,1301,883,0,0
84,141,0,0,0,0,0,0,0,0,0,-1,1308,883,0,0
91,141,0,0,0,0,0,0,0,0,0,-1,1315,883,0,0
98,141,0,0,0,0,0,0,0,0,0,-1,1322,883,0,0
105,141,0,0,0,0,0,0,0,0,0,-1,1329,883,0,0
112,141,0,0,0,0,0,0,0,0,0,-1,1336,883,0,0
119,141,0,0,0,0,0,0,0,0,0,-1,1343,883,0,0
126,141,0,0,0,0,0,0,0,0,0,-1,1350,883,0,0
133,141,0,0,0,0,0,0,0,0,0,-1,1357,883,0,0
140,141,0,0,0,0,0,0,0,0,0,-1,1364,883,0,0
147,141,0,0,0,0,0,0,0,0,0,-1,1371,883,0,0
154,141,0,0,0,0,0,0,0,0,0,-1,1378,883,0,0
161,141,0,0,0,0,0,0,0,0,0,-1,1385,883,0,0
168,141,0,0,0,0,0,0,0,0,0,-1,1392,883,0,0
175,141,0,0,0,0,0,0,0,0,0,-1,1399,883,0,0
182,141,0,0,0,0,0,0,0,0,0,-1,1406,883,0,0
189,141,0,0,0,0,0,0,0,0,0,-1,1413,883,0,0
196,141,0,0,0,0,0,0,0,0,0,-1,1420,883,0,0
203,141,0,0,0,0,0,0,0,0,0,-1,1427,883,0,0
210,141,0,0,0,0,0,0,0,0,0,-1,1434,883,0,0
217,141,0,0,0,0,0,0,0,0,0,-1,1441,883,0,0
224,141,0,0,0,0,0,0,0,0,0,-1,1448,883,0,0
231,141,0,0,0,0,0,0,0,0,0,-1,1455,883,0,0
238,141,0,0,0,0,0,0,0,0,0,-1,1462,883,0,0
245,141,0,0,0,0,0,0,0,0,0,-1,1469,883,0,0
252,141,0,0,0,0,0,0,0,0,0,-1,1476,883,0,0
259,141,0,0,0,0,0,0,0,0,0,-1,1483,883,0,0
266,141,0,0,0,0,0,0,0,0,0,-1,1490,883,0,0
273,141,0,0,0,0,0,0,0,0,0,-1,1497,883,0,0
280,141,0,0,0,0,0,0,0,0,0,-1,1504,883,0,0
287,141,0,0,0,0,0,0,0,0,0,-1,1511,883,0,0
294,141,0,0,0,0,0,0,0,0,0,-1,1518,883,0,0
301,141,0,0,0,0,0,0,0,0,0,-1,1525,883,0,0
308,141,0,0,0,0,0,0,0,0,0,-1,1532,883,0,0
315,141,0,0,0,0,0,0,0,0,0,-1,1539,883,0,0
322,141,0,0,0,0,0,0,0,0,0,-1,1546,883,0,0
329,141,0,0,0,0,0,0,0,0,0,-1,1553,883,0,0
336,141,0,0,0,0,0,0,0,0,0,-1,1560,883,0,0
343,141,0,0,0,0,0,0,0,0,0,-1,1567,883,0,0
350,141,0,0,0,0,0,0,0,0,0,-1,1574,883,0,0
357,141,0,0,0,0,0,0,0,0,0,-1,1581,883,0,0
364,141,0,0,0,0,0,0,0,0,0,-1,1588,883,0,0
371,141,0,0,0,0,0,0,0,0,0,-1,1595,883,0,0
378,141,0,0,0,0,0,0,0,0,0,-1,1602,883,0,0
385,141,0,0,0,0,0,0,0,0,0,-1,1609,883,0,0
392,141,0,0,0,0,0,0,0,0,0,-1,1616,883,0,0
399,141,0,0,0,0,0,0,0,0,0,-1,1623,883,0,0
406,141,0,0,0,0,0,0,0,0,0,-1,1630,883,0,0
413,141,0,0,0,0,0,0,0,0,0,-1,1637,883,0,0
420,141,0,0,0,0,0,0,0,0,0,-1,1644,883,0,0
427,141,0,0,0,0,0,0,0,0,0,-1,1651,883,0,0
434,141,0,0,0,0,0,0,0,0,0,-1,1658,883,0,0
441,141,0,0,0,0,0,0,0,0,0,-1,1665,883,0,0
448,141,0,0,0,0,0,0,0,0,0,-1,1672,883,0,0
455,141,0,0,0,0,0,0,0,0,0,-1,1679,883,0,0
462,141,0,0,0,0,0,0,0,0,0,-1,1686,883,0,0
469,141,0,0,0,0,0,0,0,0,0,-1,1693,883,0,0
476,141,0,0,0,0,0,0,0,0,0,-1,1700,883,0,0
483,141,0,0,0,0,0,0,0,0,0,-1,1707,883,0,0
490,141,0,0,0,0,0,0,0,0,0,-1,1714,883,0,0
497,141,0,0,0,0,0,0,0,0,0,-1,1721,883,0,0
504,141,0,0,0,0,0,0,0,0,0,-1,1728,883,0,0
511,141,0,0,0,0,0,0,0,0,0,-1,1735,883,0,0
518,141,0,0,0,0,0,0,0,0,0,-1,1742,883,0,0
525,141,0,0,0,0,0,0,0,0,0,-1,1749,883,0,0
532,141,0,0,0,0,0,0,0,0,0,-1,1756,883,0,0
539,141,0,0,0,0,0,0,0,0,0,-1,1763,883,0,0
546,141,0,0,0,0,0,0,0,0,0,-1,1770,883,0,0
553,141,0,0,0,0,0,0,0,0,0,-1,1777,883,0,0
560,141,0,0,0,0,0,0,0,0,0,-1,1784,883,0,0
567,141,0,0,0,0,0,0,0,0,0,-1,1791,883,0,0
574,141,0,0,0,0,0,0,0,0,0,-1,1798,883,0,0
581,141,0,0,0,0,0,0,0,0,0,-1,1805,883,0,0
588,141,0,0,0,0,0,0,0,0,0,-1,1812,883,0,0
595,141,0,0,0,0,0,0,0,0,0,-1,1819,883,0,0
602,141,0,0,0,0,0,0,0,0,0,-1,1826,883,0,0
609,141,0,0,0,0,0,0,0,0,0,-1,1833,883,0,0
616,141,0,0,0,0,0,0,0,0,0,-1,1840,883,0,0
623,141,36.35,2.46429,-9.67368e-05,0.00160592,-5.18879e-05,0.0016075,-9.83165e-05,-1.54036,0.00110589,0.0464358,1847,883,36.35,-2.4643
630,141,36.396,2.52435,-0.000452749,0.0021198,-0.000181302,0.00213251,-0.000465464,-1.50078,0.00159956,0.0471455,1854,883,36.3959,-2.52437
637,141,36.4474,2.50079,-0.000873305,0.00267547,-0.000293038,0.0026995,-0.00089734,-1.48896,0.00216178,0.0433777,1861,883,36.4474,-2.5008
644,141,36.4525,2.49878,-0.00139278,0.00296223,-0.000282494,0.00298048,-0.00141103,-1.50629,0.00258885,0.0404066,1868,883,36.4525,-2.49875
651,141,36.5494,2.55536,-0.00178406,0.00296599,-0.000239384,0.00297802,-0.00179609,-1.52057,0.00278435,0.0408623,1875,883,36.5494,-2.55535
658,141,36.2787,2.92932,-0.00191908,0.00270896,-0.00017151,0.0027153,-0.00192542,-1.53381,0.00269223,0.0381039,1882,883,36.2786,-2.92929
665,141,36.1898,2.92108,-0.00191684,0.00235516,-0.000137722,0.00235959,-0.00192128,-1.5386,0.00247588,0.0286162,1889,883,36.1899,-2.9211
672,141,36.2385,2.85834,-0.00180766,0.00197317,-3.25446e-05,0.00197345,-0.00180794,-1.56219,0.00218389,0.0230746,1896,883,36.2385,-2.85836
679,141,36.2029,2.8681,-0.00164202,0.0016725,-2.5798e-05,0.0016727,-0.00164222,-1.56301,0.0019139,0.0368205,1903,883,36.2029,-2.8681
686,141,36.1542,2.92493,0,0,0,0,0,0,0,-1,1910,883,36.1541,-2.92494
693,141,31.0703,2.47449,0,0,0,0,0,0,0,-1,1917,883,31.0703,-2.47448
700,141,31.3632,2.96039,-0.00152099,0.000766332,1.98609e-05,0.000766504,-0.00152116,1.56211,0.00134452,0.0233846,1924,883,31.3631,-2.96041
707,141,31.3578,3.36707,-0.00123138,0.000539224,-0.00017122,0.000555629,-0.00124779,-1.47527,0.00106646,0.0205625,1931,883,31.3578,-3.36705
714,141,31.2102,3.6225,-0.000608351,0.000570782,-0.000213672,0.000608307,-0.000645877,-1.39695,0.000724212,0.0203442,1938,883,31.2102,-3.62252
721,141,31.2009,3.96362,-0.00023466,0.000579513,-0.000300947,0.000678676,-0.000333823,-1.2525,0.000595761,0.0136251,1945,883,31.2009,-3.96364
728,141,31.2137,4.29034,0.000248224,0.00112168,-4.18718e-05,0.00112368,0.000246221,-1.523,0.000682028,0.0155947,1952,883,31.2137,-4.29037
735,141,31.2228,4.70416,0.0011271,0.00172831,0.000717866,0.00220597,0.000649441,0.98368,0.00130902,0.0161953,1959,883,31.2228,-4.70417
742,141,31.2006,5.06891,0.00261715,0.00294944,0.0014568,0.00424953,0.00131705,0.842177,0.00251187,0.0165591,1966,883,31.2006,-5.06891
749,141,31.1761,5.38263,0.00485399,0.00475665,0.00261448,0.00742025,0.00219039,0.776091,0.00440226,0.0137961,1973,883,31.1761,-5.38265
756,141,31.1322,5.77893,0.0078172,0.0068519,0.00464822,0.0120078,0.00266134,0.733666,0.00728201,0.0199551,1980,883,31.1322,-5.77894
763,141,30.91,6.03632,0.0121393,0.00959417,0.00744049,0.0184153,0.00331822,0.700701,0.0113339,0.0442461,1987,883,30.9101,-6.03633
770,141,30.6852,6.29303,0,0,0,0,0,0,0,-1,1994,883,30.6852,-6.29305
777,141,31.6466,6.8761,0.0260044,0.0179068,0.0155093,0.0379847,0.00592657,0.65772,0.023597,0.0466092,2001,883,31.6466,-6.87608
784,141,31.5253,8.06396,0.035709,0.023639,0.0202672,0.0508207,0.00852728,0.640692,0.0314261,0.0454453,2008,883,31.5252,-8.06399
791,141,31.5164,9.35089,0.0469798,0.0305586,0.0248726,0.0649619,0.0125765,0.625976,0.039784,0.0494327,2015,883,31.5163,-9.35088
798,141,0,0,0,0,0,0,0,0,0,-1,2022,883,0,0
805,141,0,0,0,0,0,0,0,0,0,-1,2029,883,0,0
812,141,0,0,0,0,0,0,0,0,0,-1,2036,883,0,0
-700,134,0,0,0,0,0,0,0,0,0,-1,524,890,0,0
-693,134,0,0,0,0,0,0,0,0,0,-1,531,890,0,0
-686,134,0,0,0,0,0,0,0,0,0,-1,538,890,0,0
-679,134,0,0,0,0,0,0,0,0,0,-1,545,890,0,0
-672,134,-27.2162,7.38202,0.060887,-0.0271352,0.022224,0.0661799,-0.032428,0.233805,0.0580323,0.0488731,552,890,-27.2162,-7.382
-665,134,-26.7082,7.26215,0.0535449,-0.028257,0.0237308,0.0599307,-0.0346428,0.262867,0.0552489,0.0466928,559,890,-26.7082,-7.26215
-658,134,-26.5668,7.06818,0.0448539,-0.0262621,0.0227366,0.0515016,-0.0329098,0.284452,0.0491274,0.042531,566,890,-26.5668,-7.06816
-651,134,-26.7155,6.98199,0,0,0,0,0,0,0,-1,573,890,-26.7155,-6.98198
-644,134,-24.2693,0.417664,0,0,0,0,0,0,0,-1,580,890,-24.2693,-0.417665
-637,134,-21.7252,2.43457,0,0,0,0,0,0,0,-1,587,890,-21.7252,-2.43458
-630,134,-22.6971,3.26099,0,0,0,0,0,0,0,-1,594,890,-22.6971,-3.26096
-623,134,-22.6022,3.03973,0.00751875,-0.00767049,0.00901123,0.0117089,-0.0118606,0.43525,0.013608,0.0237127,601,890,-22.6022,-3.03972
-616,134,-22.7285,2.71741,0.0030706,-0.00475043,0.00650013,0.00674585,-0.00842568,0.514598,0.00877716,0.0115104,608,890,-22.7285,-2.71741
-609,134,-22.7863,2.41101,3.53634e-05,-0.00212984,0.00401009,0.00310641,-0.00520089,0.653557,0.00484677,0.0115342,615,890,-22.7863,-2.41101
-602,134,-22.7775,2.08032,-0.0023508,-0.000542178,0.002431,0.00114726,-0.00404024,0.963463,0.00314643,0.0122733,622,890,-22.7775,-2.0803
-595,134,-22.7588,1.78564,-0.00315383,-0.000421125,0.00179377,0.000467413,-0.00404237,1.11088,0.00286346,0.0157174,629,890,-22.7588,-1.78562
-588,134,-23.0948,1.54205,-0.00293132,-0.000198446,0.00106712,0.000168866,-0.00329863,1.23929,0.00225748,0.0283084,636,890,-23.0948,-1.54203
-581,134,-23.0322,1.03741,-0.00277067,3.11451e-05,0.000742183,0.000215601,-0.00295513,1.3272,0.00204574,0.0411715,643,890,-23.0322,-1.03742
-574,134,-23.0058,0.696899,-0.00281846,-4.12337e-05,0.000728379,0.000138204,-0.0029979,1.32925,0.00204622,0.0423787,650,890,-23.0058,-0.696874
-567,134,-22.5852,0.534607,0,0,0,0,0,0,0,-1,657,890,-22.5852,-0.534602
-560,134,-18.8884,0.498169,0,0,0,0,0,0,0,-1,664,890,-18.8883,-0.498162
-553,134,-26.5247,0.907654,0,0,0,0,0,0,0,-1,671,890,-26.5247,-0.907627
-546,134,-26.5079,0.93988,-0.000431457,-0.00129253,-0.000751794,4.35248e-06,-0.00172834,-0.525354,0.00115368,0.0281296,678,890,-26.5079,-0.939902
-539,134,-26.535,0.941223,0.000469792,-0.00153427,-0.00110832,0.000961899,-0.00202638,-0.417861,0.00176139,0.0182068,685,890,-26.535,-0.941244
-532,134,-26.5368,0.9328,0.00165807,-0.00195065,-0.00150405,0.00220272,-0.00249531,-0.347436,0.00271416,0.0231396,692,890,-26.5368,-0.932781
-525,134,-26.6224,0.854614,0.00326252,-0.00264858,-0.00191265,0.00382741,-0.00321347,-0.28718,0.0040702,0.0350086,699,890,-26.6224,-0.854624
-518,134,-26.7173,0.915955,0.00592781,-0.00372553,-0.00217733,0.00639619,-0.00419391,-0.211886,0.00615811,0.0429315,706,890,-26.7173,-0.91598
-511,134,-26.5472,1.15192,0.00994592,-0.00553358,-0.00231568,0.0102849,-0.00587257,-0.145358,0.00944376,0.0446904,713,890,-26.5472,-1.15189
-504,134,0,0,0,0,0,0,0,0,0,-1,720,890,0,0
-497,134,0,0,0,0,0,0,0,0,0,-1,727,890,0,0
-490,134,0,0,0,0,0,0,0,0,0,-1,734,890,0,0
-483,134,0,0,0,0,0,0,0,0,0,-1,741,890,0,0
-476,134,0,0,0,0,0,0,0,0,0,-1,748,890,0,0
-469,134,0,0,0,0,0,0,0,0,0,-1,755,890,0,0
-462,134,0,0,0,0,0,0,0,0,0,-1,762,890,0,0
-455,134,0,0,0,0,0,0,0,0,0,-1,769,890,0,0
-448,134,0,0,0,0,0,0,0,0,0,-1,776,890,0,0
-441,134,0,0,0,0,0,0,0,0,0,-1,783,890,0,0
-434,134,0,0,0,0,0,0,0,0,0,-1,790,890,0,0
-427,134,0,0,0,0,0,0,0,0,0,-1,797,890,0,0
-420,134,0,0,0,0,0,0,0,0,0,-1,804,890,0,0
-413,134,0,0,0,0,0,0,0,0,0,-1,811,890,0,0
-406,134,0,0,0,0,0,0,0,0,0,-1,818,890,0,0
-399,134,0,0,0,0,0,0,0,0,0,-1,825,890,0,0
-392,134,0,0,0,0,0,0,0,0,0,-1,832,890,0,0
-385,134,0,0,0,0,0,0,0,0,0,-1,839,890,0,0
-378,134,0,0,0,0,0,0,0,0,0,-1,846,890,0,0
-371,134,0,0,0,0,0,0,0,0,0,-1,853,890,0,0
-364,134,0,0,0,0,0,0,0,0,0,-1,860,890,0,0
-357,134,0,0,0,0,0,0,0,0,0,-1,867,890,0,0
-350,134,0,0,0,0,0,0,0,0,0,-1,874,890,0,0
-343,134,0,0,0,0,0,0,0,0,0,-1,881,890,0,0
-336,134,0,0,0,0,0,0,0,0,0,-1,888,890,0,0
-329,134,0,0,0,0,0,0,0,0,0,-1,895,890,0,0
-322,134,0,0,0,0,0,0,0,0,0,-1,902,890,0,0
-315,134,0,0,0,0,0,0,0,0,0,-1,909,890,0,0
-308,134,0,0,0,0,0,0,0,0,0,-1,916,890,0,0
-301,134,0,0,0,0,0,0,0,0,0,-1,923,890,0,0
-294,134,0,0,0,0,0,0,0,0,0,-1,930,890,0,0
-287,134,0,0,0,0,0,0,0,0,0,-1,937,890,0,0
-280,134,0,0,0,0,0,0,0,0,0,-1,944,890,0,0
-273,134,0,0,0,0,0,0,0,0,0,-1,951,890,0,0
-266,134,0,0,0,0,0,0,0,0,0,-1,958,890,0,0
-259,134,0,0,0,0,0,0,0,0,0,-1,965,890,0,0
-252,134,0,0,0,0,0,0,0,0,0,-1,972,890,0,0
-245,134,0,0,0,0,0,0,0,0,0,-1,979,890,0,0
-238,134,0,0,0,0,0,0,0,0,0,-1,986,890,0,0
-231,134,0,0,0,0,0,0,0,0,0,-1,993,890,0,0
-224,134,0,0,0,0,0,0,0,0,0,-1,1000,890,0,0
-217,134,0,0,0,0,0,0,0,0,0,-1,1007,890,0,0
-210,134,0,0,0,0,0,0,0,0,0,-1,1014,890,0,0
-203,134,0,0,0,0,0,0,0,0,0,-1,1021,890,0,0
-196,134,0,0,0,0,0,0,0,0,0,-1,1028,890,0,0
-189,134,0,0,0,0,0,0,0,0,0,-1,1035,890,0,0
-182,134,0,0,0,0,0,0,0,0,0,-1,1042,890,0,0
-175,134,0,0,0,0,0,0,0,0,0,-1,1049,890,0,0
-168,134,0,0,0,0,0,0,0,0,0,-1,1056,890,0,0
-161,134,0,0,0,0,0,0,0,0,0,-1,1063,890,0,0
-154,134,0,0,0,0,0,0,0,0,0,-1,1070,890,0,0
-147,134,0,0,0,0,0,0,0,0,0,-1,1077,890,0,0
-140,134,0,0,0,0,0,0,0,0,0,-1,1084,890,0,0
-133,134,0,0,0,0,0,0,0,0,0,-1,1091,890,0,0
-126,134,0,0,0,0,0,0,0,0,0,-1,1098,890,0,0
-119,134,0,0,0,0,0,0,0,0,0,-1,1105,890,0,0
-112,134,0,0,0,0,0,0,0,0,0,-1,1112,890,0,0
-105,134,0,0,0,0,0,0,0,0,0,-1,1119,890,0,0
-98,134,0,0,0,0,0,0,0,0,0,-1,1126,890,0,0
-91,134,0,0,0,0,0,0,0,0,0,-1,1133,890,0,0
-84,134,0,0,0,0,0,0,0,0,0,-1,1140,890,0,0
-77,134,0,0,0,0,0,0,0,0,0,-1,1147,890,0,0
-70,134,0,0,0,0,0,0,0,0,0,-1,1154,890,0,0
-63,134,0,0,0,0,0,0,0,0,0,-1,1161,890,0,0
-56,134,0,0,0,0,0,0,0,0,0,-1,1168,890,0,0
-49,134,0,0,0,0,0,0,0,0,0,-1,1175,890,0,0
-42,134,0,0,0,0,0,0,0,0,0,-1,1182,890,0,0
-35,134,0,0,0,0,0,0,0,0,0,-1,1189,890,0,0
-28,134,0,0,0,0,0,0,0,0,0,-1,1196,890,0,0
-21,134,0,0,0,0,0,0,0,0,0,-1,1203,890,0,0
-14,134,0,0,0,0,0,0,0,0,0,-1,1210,890,0,0
-7,134,0,0,0,0,0,0,0,0,0,-1,1217,890,0,0
0,134,0,0,0,0,0,0,0,0,0,-1,1224,890,0,0
7,134,0,0,0,0,0,0,0,0,0,-1,1231,890,0,0
14,134,0,0,0,0,0,0,0,0,0,-1,1238,890,0,0
21,134,0,0,0,0,0,0,0,0,0,-1,1245,890,0,0
28,134,0,0,0,0,0,0,0,0,0,-1,1252,890,0,0
35,134,0,0,0,0,0,0,0,0,0,-1,1259,890,0,0
42,134,0,0,0,0,0,0,0,0,0,-1,1266,890,0,0
49,134,0,0,0,0,0,0,0,0,0,-1,1273,890,0,0
56,134,0,0,0,0,0,0,0,0,0,-1,1280,890,0,0
63,134,0,0,0,0,0,0,0,0,0,-1,1287,890,0,0
70,134,0,0,0,0,0,0,0,0,0,-1,1294,890,0,0
77,134,0,0,0,0,0,0,0,0,0,-1,1301,890,0,0
84,134,0,0,0,0,0,0,0,0,0,-1,1308,890,0,0
91,134,0,0,0,0,0,0,0,0,0,-1,1315,890,0,0
98,134,0,0,0,0,0,0,0,0,0,-1,1322,890,0,0
105,134,0,0,0,0,0,0,0,0,0,-1,1329,890,0,0
112,134,0,0,0,0,0,0,0,0,0,-1,1336,890,0,0
119,134,0,0,0,0,0,0,0,0,0,-1,1343,890,0,0
126,134,0,0,0,0,0,0,0,0,0,-1,1350,890,0,0
133,134,0,0,0,0,0,0,0,0,0,-1,1357,890,0,0
140,134,0,0,0,0,0,0,0,0,0,-1,1364,890,0,0
147,134,0,0,0,0,0,0,0,0,0,-1,1371,890,0,0
154,134,0,0,0,0,0,0,0,0,0,-1,1378,890,0,0
161,134,0,0,0,0,0,0,0,0,0,-1,1385,890,0,0
168,134,0,0,0,0,0,0,0,0,0,-1,1392,890,0,0
175,134,0,0,0,0,0,0,0,0,0,-1,1399,890,0,0
182,134,0,0,0,0,0,0,0,0,0,-1,1406,890,0,0
189,134,0,0,0,0,0,0,0,0,0,-1,1413,890,0,0
196,134,0,0,0,0,0,0,0,0,0,-1,1420,890,0,0
203,134,0,0,0,0,0,0,0,0,0,-1,1427,890,0,0
210,134,0,0,0,0,0,0,0,0,0,-1,1434,890,0,0
217,134,0,0,0,0,0,0,0,0,0,-1,1441,890,0,0
224,134,0,0,0,0,0,0,0,0,0,-1,1448,890,0,0
231,134,0,0,0,0,0,0,0,0,0,-1,1455,890,0,0
238,134,0,0,0,0,0,0,0,0,0,-1,1462,890,0,0
245,134,0,0,0,0,0,0,0,0,0,-1,1469,890,0,0
252,134,0,0,0,0,0,0,0,0,0,-1,1476,890,0,0
259,134,0,0,0,0,0,0,0,0,0,-1,1483,890,0,0
266,134,0,0,0,0,0,0,0,0,0,-1,1490,890,0,0
273,134,0,0,0,0,0,0,0,0,0,-1,1497,890,0,0
280,134,0,0,0,0,0,0,0,0,0,-1,1504,890,0,0
287,134,0,0,0,0,0,0,0,0,0,-1,1511,890,0,0
294,134,0,0,0,0,0,0,0,0,0,-1,1518,890,0,0
301,134,0,0,0,0,0,0,0,0,0,-1,1525,890,0,0
308,134,0,0,0,0,0,0,0,0,0,-1,1532,890,0,0
315,134,0,0,0,0,0,0,0,0,0,-1,1539,890,0,0
322,134,0,0,0,0,0,0,0,0,0,-1,1546,890,0,0
329,134,0,0,0,0,0,0,0,0,0,-1,1553,890,0,0
336,134,0,0,0,0,0,0,0,0,0,-1,1560,890,0,0
343,134,0,0,0,0,0,0,0,0,0,-1,1567,890,0,0
350,134,0,0,0,0,0,0,0,0,0,-1,1574,890,0,0
357,134,0,0,0,0,0,0,0,0,0,-1,1581,890,0,0
364,134,0,0,0,0,0,0,0,0,0,-1,1588,890,0,0
371,134,0,0,0,0,0,0,0,0,0,-1,1595,890,0,0
378,134,0,0,0,0,0,0,0,0,0,-1,1602,890,0,0
385,134,0,0,0,0,0,0,0,0,0,-1,1609,890,0,0
392,134,0,0,0,0,0,0,0,0,0,-1,1616,890,0,0
399,134,0,0,0,0,0,0,0,0,0,-1,1623,890,0,0
406,134,0,0,0,0,0,0,0,0,0,-1,1630,890,0,0
413,134,0,0,0,0,0,0,0,0,0,-1,1637,890,0,0
420,134,0,0,0,0,0,0,0,0,0,-1,1644,890,0,0
427,134,0,0,0,0,0,0,0,0,0,-1,1651,890,0,0
434,134,0,0,0,0,0,0,0,0,0,-1,1658,890,0,0
441,134,0,0,0,0,0,0,0,0,0,-1,1665,890,0,0
448,134,0,0,0,0,0,0,0,0,0,-1,1672,890,0,0
455,134,0,0,0,0,0,0,0,0,0,-1,1679,890,0,0
462,134,0,0,0,0,0,0,0,0,0,-1,1686,890,0,0
469,134,0,0,0,0,0,0,0,0,0,-1,1693,890,0,0
476,134,0,0,0,0,0,0,0,0,0,-1,1700,890,0,0
483,134,0,0,0,0,0,0,0,0,0,-1,1707,890,0,0
490,134,0,0,0,0,0,0,0,0,0,-1,1714,890,0,0
497,134,0,0,0,0,0,0,0,0,0,-1,1721,890,0,0
504,134,0,0,0,0,0,0,0,0,0,-1,1728,890,0,0
511,134,0,0,0,0,0,0,0,0,0,-1,1735,890,0,0
518,134,0,0,0,0,0,0,0,0,0,-1,1742,890,0,0
525,134,0,0,0,0,0,0,0,0,0,-1,1749,890,0,0
532,134,0,0,0,0,0,0,0,0,0,-1,1756,890,0,0
539,134,0,0,0,0,0,0,0,0,0,-1,1763,890,0,0
546,134,0,0,0,0,0,0,0,0,0,-1,1770,890,0,0
553,134,0,0,0,0,0,0,0,0,0,-1,1777,890,0,0
560,134,0,0,0,0,0,0,0,0,0,-1,1784,890,0,0
567,134,0,0,0,0,0,0,0,0,0,-1,1791,890,0,0
574,134,0,0,0,0,0,0,0,0,0,-1,1798,890,0,0
581,134,0,0,0,0,0,0,0,0,0,-1,1805,890,0,0
588,134,0,0,0,0,0,0,0,0,0,-1,1812,890,0,0
595,134,0,0,0,0,0,0,0,0,0,-1,1819,890,0,0
602,134,0,0,0,0,0,0,0,0,0,-1,1826,890,0,0
609,134,0,0,0,0,0,0,0,0,0,-1,1833,890,0,0
616,134,0,0,0,0,0,0,0,0,0,-1,1840,890,0,0
623,134,36.3458,2.7699,0.00124084,0.000501071,-0.000440915,0.00144648,0.000295438,-0.436389,0.00088248,0.0468309,1847,890,36.3458,-2.76992
630,134,36.5138,2.66223,0.000666994,0.00121187,-0.000489787,0.00149989,0.000378973,-1.03921,0.000900586,0.0468949,1854,890,36.5138,-2.66224
637,134,36.5817,2.50476,2.04933e-05,0.00192443,-0.000568498,0.00208126,-0.000136337,-1.30162,0.00143511,0.0437401,1861,890,36.5817,-2.50474
644,134,36.6628,2.46442,-0.00079999,0.0024086,-0.000470152,0.00247607,-0.000867462,-1.42826,0.00200348,0.0405662,1868,890,36.6628,-2.4644
651,134,36.624,2.58362,-0.0014957,0.002596,-0.000304372,0.00261852,-0.00151822,-1.49695,0.00241634,0.0415734,1875,890,36.624,-2.58359
658,134,36.3966,2.87335,-0.0018603,0.00249206,-0.00012098,0.00249542,-0.00186366,-1.54303,0.00252551,0.0389091,1882,890,36.3966,-2.87334
665,134,36.2513,2.81317,-0.00197381,0.00222848,1.46545e-05,0.00222853,-0.00197386,1.56731,0.00242774,0.0325291,1889,890,36.2514,-2.81318
672,134,36.2709,2.78168,-0.00192073,0.00189214,0.000197124,0.00190231,-0.0019309,1.51928,0.00221312,0.0226176,1896,890,36.2708,-2.78165
679,134,36.2527,2.78503,-0.00178563,0.00161302,0.000254643,0.00163199,-0.0018046,1.49642,0.00198495,0.0194103,1903,890,36.2527,-2.78504
686,134,36.2097,2.93933,0,0,0,0,0,0,0,-1,1910,890,36.2097,-2.93931
693,134,31.6066,2.71118,0,0,0,0,0,0,0,-1,1917,890,31.6065,-2.71118
700,134,31.6105,2.89734,-0.00164879,0.000781872,0.000368226,0.000836431,-0.00170335,1.4237,0.00149454,0.0421503,1924,890,31.6104,-2.89732
707,134,31.324,3.02972,-0.00132205,0.000596389,0.000217764,0.000620797,-0.00134646,1.45918,0.00116127,0.0217037,1931,890,31.3239,-3.0297
714,134,31.3804,3.49164,-0.000672874,0.000581632,0.00014545,0.000598275,-0.000689517,1.45687,0.000744129,0.0223514,1938,890,31.3804,-3.49161
721,134,31.5797,3.97168,-0.000311229,0.000564835,4.23742e-05,0.000566879,-0.000313274,1.52258,0.00051514,0.0174166,1945,890,31.5797,-3.97169
728,134,31.6228,4.31262,0.000133089,0.00105196,0.000290311,0.001136,4.90529e-05,1.28903,0.00074152,0.016014,1952,890,31.6228,-4.31261
735,134,31.5978,4.70435,0.000951685,0.00169377,0.000969525,0.00236083,0.000284627,0.968152,0.00148811,0.022171,1959,890,31.5978,-4.70434
742,134,31.5621,5.06335,0.00244389,0.00308889,0.00150805,0.00430854,0.00122424,0.890738,0.00256364,0.0152189,1966,890,31.5622,-5.06334
749,134,31.5714,5.39319,0.00485322,0.00544493,0.00223612,0.00740468,0.00289347,0.85117,0.00430897,0.0125288,1973,890,31.5714,-5.3932
756,134,31.5409,5.73248,0.00791728,0.00815369,0.00375012,0.0117875,0.00428351,0.801153,0.00688964,0.0166254,1980,890,31.541,-5.73247
763,134,31.3802,6.02454,0.0123884,0.011799,0.00561494,0.0177164,0.00647102,0.759183,0.0103516,0.0388016,1987,890,31.3803,-6.02454
770,134,31.2177,6.30865,0,0,0,0,0,0,0,-1,1994,890,31.2177,-6.30866
777,134,32.2756,6.70819,0,0,0,0,0,0,0,-1,2001,890,32.2756,-6.70821
784,134,32.1942,8.30768,0,0,0,0,0,0,0,-1,2008,890,32.1942,-8.30766
791,134,32.3794,9.50098,0,0,0,0,0,0,0,-1,2015,890,32.3794,-9.50098
798,134,0,0,0,0,0,0,0,0,0,-1,2022,890,0,0
805,134,0,0,0,0,0,0,0,0,0,-1,2029,890,0,0
812,134,0,0,0,0,0,0,0,0,0,-1,2036,890,0,0
-700,127,0,0,0,0,0,0,0,0,0,-1,524,897,0,0
-693,127,0,0,0,0,0,0,0,0,0,-1,531,897,0,0
-686,127,0,0,0,0,0,0,0,0,0,-1,538,897,0,0
-679,127,-28.1918,8.57092,0.0665958,-0.0130242,0.0147249,0.0692318,-0.0156601,0.177137,0.0521641,0.0457687,545,897,-28.1918,-8.57092
-672,127,-27.9308,7.56122,0.0617124,-0.0231492,0.0228058,0.0674529,-0.0288898,0.246591,0.0570895,0.0483213,552,897,-27.9309,-7.56125
-665,127,-27.8784,7.87476,0,0,0,0,0,0,0,-1,559,897,-27.8784,-7.87474
-658,127,-27.8979,7.83533,0,0,0,0,0,0,0,-1,566,897,-27.8979,-7.83534
-651,127,-23.562,0.389038,0,0,0,0,0,0,0,-1,573,897,-23.562,-0.389032
-644,127,-24.0389,1.03491,0,0,0,0,0,0,0,-1,580,897,-24.0389,-1.0349
-637,127,-23.5375,2.68652,0,0,0,0,0,0,0,-1,587,897,-23.5375,-2.6865
-630,127,-23.11,2.888,0.0124337,-0.0100842,0.0122942,0.0178455,-0.0154959,0.414663,0.0192656,0.0409735,594,897,-23.11,-2.88798
-623,127,-23.0374,2.96344,0.00722561,-0.00763559,0.00998534,0.0122417,-0.0126517,0.465525,0.0143729,0.0147789,601,897,-23.0374,-2.96344
-616,127,-23.0736,2.6972,0.00282695,-0.00475894,0.00725264,0.00721857,-0.00915057,0.544469,0.00947264,0.00944855,608,897,-23.0736,-2.69721
-609,127,-23.1098,2.38953,-0.000339943,-0.00222437,0.00456009,0.00337425,-0.00593857,0.683521,0.00544428,0.0136115,615,897,-23.1098,-2.38953
-602,127,-23.1293,2.07587,-0.00282315,-0.000671718,0.00278173,0.00123505,-0.00472991,0.969895,0.00363557,0.0153695,622,897,-23.1293,-2.07585
-595,127,-23.1028,1.79486,-0.00374097,-0.000453319,0.00190954,0.00042248,-0.00461677,1.14078,0.0032279,0.0202094,629,897,-23.1028,-1.79483
-588,127,-23.2419,1.48029,-0.00362228,-0.000154943,0.00110078,0.000164999,-0.00394222,1.28794,0.00268484,0.0266913,636,897,-23.2419,-1.4803
-581,127,-23.3331,1.07013,-0.00350418,0.000117999,0.000714797,0.000253954,-0.00364013,1.38284,0.00251568,0.0460111,643,897,-23.3331,-1.07013
-574,127,-23.3959,0.390869,0,0,0,0,0,0,0,-1,650,897,-23.3959,-0.390855
-567,127,-21.9229,0.199768,0,0,0,0,0,0,0,-1,657,897,-21.9229,-0.199779
-560,127,-18.9678,1.21667,0,0,0,0,0,0,0,-1,664,897,-18.9677,-1.2167
-553,127,-26.6678,0.795349,0,0,0,0,0,0,0,-1,671,897,-26.6678,-0.795324
-546,127,-26.5518,0.877625,-0.00082573,-0.001299,-0.00053914,-0.00047358,-0.00165115,-0.578601,0.00098175,0.0227212,678,897,-26.5517,-0.877651
-539,127,-26.5385,0.925598,0.0002321,-0.0016694,-0.000824855,0.000540045,-0.00197734,-0.357308,0.00153034,0.0205604,685,897,-26.5385,-0.925621
-532,127,-26.522,0.945068,0.00164993,-0.00226275,-0.00110734,0.00194158,-0.0025544,-0.257532,0.00260378,0.0171473,692,897,-26.522,-0.945048
-525,127,-26.6578,1.16724,0.00355397,-0.00326623,-0.00143255,0.00384265,-0.00355491,-0.198852,0.00427206,0.033079,699,897,-26.6578,-1.16723
-518,127,-26.7433,1.31079,0.00627019,-0.00466811,-0.00165609,0.00651543,-0.00491334,-0.147015,0.00661998,0.0411041,706,897,-26.7434,-1.31081
-511,127,-26.4811,1.04413,0.00975221,-0.00672575,-0.00205069,0.0100036,-0.00697713,-0.121972,0.00985558,0.0439867,713,897,-26.4811,-1.0441
-504,127,0,0,0,0,0,0,0,0,0,-1,720,897,0,0
-497,127,0,0,0,0,0,0,0,0,0,-1,727,897,0,0
-490,127,0,0,0,0,0,0,0,0,0,-1,734,897,0,0
-483,127,0,0,0,0,0,0,0,0,0,-1,741,897,0,0
-476,127,0,0,0,0,0,0,0,0,0,-1,748,897,0,0
-469,127,0,0,0,0,0,0,0,0,0,-1,755,897,0,0
-462,127,0,0,0,0,0,0,0,0,0,-1,762,897,0,0
-455,127,0,0,0,0,0,0,0,0,0,-1,769,897,0,0
-448,127,0,0,0,0,0,0,0,0,0,-1,776,897,0,0
-441,127,0,0,0,0,0,0,0,0,0,-1,783,897,0,0
-434,127,0,0,0,0,0,0,0,0,0,-1,790,897,0,0
-427,127,0,0,0,0,0,0,0,0,0,-1,797,897,0,0
-420,127,0,0,0,0,0,0,0,0,0,-1,804,897,0,0
-413,127,0,0,0,0,0,0,0,0,0,-1,811,897,0,0
-406,127,0,0,0,0,0,0,0,0,0,-1,818,897,0,0
-399,127,0,0,0,0,0,0,0,0,0,-1,825,897,0,0
-392,127,0,0,0,0,0,0,0,0,0,-1,832,897,0,0
-385,127,0,0,0,0,0,0,0,0,0,-1,839,897,0,0
-378,127,0,0,0,0,0,0,0,0,0,-1,846,897,0,0
-371,127,0,0,0,0,0,0,0,0,0,-1,853,897,0,0
-364,127,0,0,0,0,0,0,0,0,0,-1,860,897,0,0
-357,127,0,0,0,0,0,0,0,0,0,-1,867,897,0,0
-350,127,0,0,0,0,0,0,0,0,0,-1,874,897,0,0
-343,127,0,0,0,0,0,0,0,0,0,-1,881,897,0,0
-336,127,0,0,0,0,0,0,0,0,0,-1,888,897,0,0
-329,127,0,0,0,0,0,0,0,0,0,-1,895,897,0,0
-322,127,0,0,0,0,0,0,0,0,0,-1,902,897,0,0
-315,127,0,0,0,0,0,0,0,0,0,-1,909,897,0,0
-308,127,0,0,0,0,0,0,0,0,0,-1,916,897,0,0
-301,127,0,0,0,0,0,0,0,0,0,-1,923,897,0,0
-294,127,0,0,0,0,0,0,0,0,0,-1,930,897,0,0
-287,127,0,0,0,0,0,0,0,0,0,-1,937,897,0,0
-280,127,0,0,0,0,0,0,0,0,0,-1,944,897,0,0
-273,127,0,0,0,0,0,0,0,0,0,-1,951,897,0,0
-266,127,0,0,0,0,0,0,0,0,0,-1,958,897,0,0
-259,127,0,0,0,0,0,0,0,0,0,-1,965,897,0,0
-252,127,0,0,0,0,0,0,0,0,0,-1,972,897,0,0
-245,127,0,0,0,0,0,0,0,0,0,-1,979,897,0,0
-238,127,0,0,0,0,0,0,0,0,0,-1,986,897,0,0
-231,127,0,0,0,0,0,0,0,0,0,-1,993,897,0,0
-224,127,0,0,0,0,0,0,0,0,0,-1,1000,897,0,0
-217,127,0,0,0,0,0,0,0,0,0,-1,1007,897,0,0
-210,127,0,0,0,0,0,0,0,0,0,-1,1014,897,0,0
-203,127,0,0,0,0,0,0,0,0,0,-1,1021,897,0,0
-196,127,0,0,0,0,0,0,0,0,0,-1,1028,897,0,0
-189,127,0,0,0,0,0,0,0,0,0,-1,1035,897,0,0
-182,127,0,0,0,0,0,0,0,0,0,-1,1042,897,0,0
-175,127,0,0,0,0,0,0,0,0,0,-1,1049,897,0,0
-168,127,0,0,0,0,0,0,0,0,0,-1,1056,897,0,0
-161,127,0,0,0,0,0,0,0,0,0,-1,1063,897,0,0
-154,127,0,0,0,0,0,0,0,0,0,-1,1070,897,0,0
-147,127,0,0,0,0,0,0,0,0,0,-1,1077,897,0,0
-140,127,0,0,0,0,0,0,0,0,0,-1,1084,897,0,0
-133,127,0,0,0,0,0,0,0,0,0,-1,1091,897,0,0
-126,127,0,0,0,0,0,0,0,0,0,-1,1098,897,0,0
-119,127,0,0,0,0,0,0,0,0,0,-1,1105,897,0,0
-112,127,0,0,0,0,0,0,0,0,0,-1,1112,897,0,0
-105,127,0,0,0,0,0,0,0,0,0,-1,1119,897,0,0
-98,127,0,0,0,0,0,0,0,0,0,-1,1126,897,0,0
-91,127,0,0,0,0,0,0,0,0,0,-1,1133,897,0,0
-84,127,0,0,0,0,0,0,0,0,0,-1,1140,897,0,0
-77,127,0,0,0,0,0,0,0,0,0,-1,1147,897,0,0
-70,127,0,0,0,0,0,0,0,0,0,-1,1154,897,0,0
-63,127,0,0,0,0,0,0,0,0,0,-1,1161,897,0,0
-56,127,0,0,0,0,0,0,0,0,0,-1,1168,897,0,0
-49,127,0,0,0,0,0,0,0,0,0,-1,1175,897,0,0
-42,127,0,0,0,0,0,0,0,0,0,-1,1182,897,0,0
-35,127,0,0,0,0,0,0,0,0,0,-1,1189,897,0,0
-28,127,0,0,0,0,0,0,0,0,0,-1,1196,897,0,0
-21,127,0,0,0,0,0,0,0,0,0,-1,1203,897,0,0
-14,127,0,0,0,0,0,0,0,0,0,-1,1210,897,0,0
-7,127,0,0,0,0,0,0,0,0,0,-1,1217,897,0,0
0,127,0,0,0,0,0,0,0,0,0,-1,1224,897,0,0
7,127,0,0,0,0,0,0,0,0,0,-1,1231,897,0,0
14,127,0,0,0,0,0,0,0,0,0,-1,1238,897,0,0
21,127,0,0,0,0,0,0,0,0,0,-1,1245,897,0,0
28,127,0,0,0,0,0,0,0,0,0,-1,1252,897,0,0
35,127,0,0,0,0,0,0,0,0,0,-1,1259,897,0,0
42,127,0,0,0,0,0,0,0,0,0,-1,1266,897,0,0
49,127,0,0,0,0,0,0,0,0,0,-1,1273,897,0,0
56,127,0,0,0,0,0,0,0,0,0,-1,1280,897,0,0
63,127,0,0,0,0,0,0,0,0,0,-1,1287,897,0,0
70,127,0,0,0,0,0,0,0,0,0,-1,1294,897,0,0
77,127,0,0,0,0,0,0,0,0,0,-1,1301,897,0,0
84,127,0,0,0,0,0,0,0,0,0,-1,1308,897,0,0
91,127,0,0,0,0,0,0,0,0,0,-1,1315,897,0,0
98,127,0,0,0,0,0,0,0,0,0,-1,1322,897,0,0
105,127,0,0,0,0,0,0,0,0,0,-1,1329,897,0,0
112,127,0,0,0,0,0,0,0,0,0,-1,1336,897,0,0
119,127,0,0,0,0,0,0,0,0,0,-1,1343,897,0,0
126,127,0,0,0,0,0,0,0,0,0,-1,1350,897,0,0
133,127,0,0,0,0,0,0,0,0,0,-1,1357,897,0,0
140,127,0,0,0,0,0,0,0,0,0,-1,1364,897,0,0
147,127,0,0,0,0,0,0,0,0,0,-1,1371,897,0,0
154,127,0,0,0,0,0,0,0,0,0,-1,1378,897,0,0
161,127,0,0,0,0,0,0,0,0,0,-1,1385,897,0,0
168,127,0,0,0,0,0,0,0,0,0,-1,1392,897,0,0
175,127,0,0,0,0,0,0,0,0,0,-1,1399,897,0,0
182,127,0,0,0,0,0,0,0,0,0,-1,1406,897,0,0
189,127,0,0,0,0,0,0,0,0,0,-1,1413,897,0,0
196,127,0,0,0,0,0,0,0,0,0,-1,1420,897,0,0
203,127,0,0,0,0,0,0,0,0,0,-1,1427,897,0,0
210,127,0,0,0,0,0,0,0,0,0,-1,1434,897,0,0
217,127,0,0,0,0,0,0,0,0,0,-1,1441,897,0,0
224,127,0,0,0,0,0,0,0,0,0,-1,1448,897,0,0
231,127,0,0,0,0,0,0,0,0,0,-1,1455,897,0,0
238,127,0,0,0,0,0,0,0,0,0,-1,1462,897,0,0
245,127,0,0,0,0,0,0,0,0,0,-1,1469,897,0,0
252,127,0,0,0,0,0,0,0,0,0,-1,1476,897,0,0
259,127,0,0,0,0,0,0,0,0,0,-1,1483,897,0,0
266,127,0,0,0,0,0,0,0,0,0,-1,1490,897,0,0
273,127,0,0,0,0,0,0,0,0,0,-1,1497,897,0,0
280,127,0,0,0,0,0,0,0,0,0,-1,1504,897,0,0
287,127,0,0,0,0,0,0,0,0,0,-1,1511,897,0,0
294,127,0,0,0,0,0,0,0,0,0,-1,1518,897,0,0
301,127,0,0,0,0,0,0,0,0,0,-1,1525,897,0,0
308,127,0,0,0,0,0,0,0,0,0,-1,1532,897,0,0
315,127,0,0,0,0,0,0,0,0,0,-1,1539,897,0,0
322,127,0,0,0,0,0,0,0,0,0,-1,1546,897,0,0
329,127,0,0,0,0,0,0,0,0,0,-1,1553,897,0,0
336,127,0,0,0,0,0,0,0,0,0,-1,1560,897,0,0
343,127,0,0,0,0,0,0,0,0,0,-1,1567,897,0,0
350,127,0,0,0,0,0,0,0,0,0,-1,1574,897,0,0
357,127,0,0,0,0,0,0,0,0,0,-1,1581,897,0,0
364,127,0,0,0,0,0,0,0,0,0,-1,1588,897,0,0
371,127,0,0,0,0,0,0,0,0,0,-1,1595,897,0,0
378,127,0,0,0,0,0,0,0,0,0,-1,1602,897,0,0
385,127,0,0,0,0,0,0,0,0,0,-1,1609,897,0,0
392,127,0,0,0,0,0,0,0,0,0,-1,1616,897,0,0
399,127,0,0,0,0,0,0,0,0,0,-1,1623,897,0,0
406,127,0,0,0,0,0,0,0,0,0,-1,1630,897,0,0
413,127,0,0,0,0,0,0,0,0,0,-1,1637,897,0,0
420,127,0,0,0,0,0,0,0,0,0,-1,1644,897,0,0
427,127,0,0,0,0,0,0,0,0,0,-1,1651,897,0,0
434,127,0,0,0,0,0,0,0,0,0,-1,1658,897,0,0
441,127,0,0,0,0,0,0,0,0,0,-1,1665,897,0,0
448,127,0,0,0,0,0,0,0,0,0,-1,1672,897,0,0
455,127,0,0,0,0,0,0,0,0,0,-1,1679,897,0,0
462,127,0,0,0,0,0,0,0,0,0,-1,1686,897,0,0
469,127,0,0,0,0,0,0,0,0,0,-1,1693,897,0,0
476,127,0,0,0,0,0,0,0,0,0,-1,1700,897,0,0
483,127,0,0,0,0,0,0,0,0,0,-1,1707,897,0,0
490,127,0,0,0,0,0,0,0,0,0,-1,1714,897,0,0
497,127,0,0,0,0,0,0,0,0,0,-1,1721,897,0,0
504,127,0,0,0,0,0,0,0,0,0,-1,1728,897,0,0
511,127,0,0,0,0,0,0,0,0,0,-1,1735,897,0,0
518,127,0,0,0,0,0,0,0,0,0,-1,1742,897,0,0
525,127,0,0,0,0,0,0,0,0,0,-1,1749,897,0,0
532,127,0,0,0,0,0,0,0,0,0,-1,1756,897,0,0
539,127,0,0,0,0,0,0,0,0,0,-1,1763,897,0,0
546,127,0,0,0,0,0,0,0,0,0,-1,1770,897,0,0
553,127,0,0,0,0,0,0,0,0,0,-1,1777,897,0,0
560,127,0,0,0,0,0,0,0,0,0,-1,1784,897,0,0
567,127,0,0,0,0,0,0,0,0,0,-1,1791,897,0,0
574,127,0,0,0,0,0,0,0,0,0,-1,1798,897,0,0
581,127,0,0,0,0,0,0,0,0,0,-1,1805,897,0,0
588,127,0,0,0,0,0,0,0,0,0,-1,1812,897,0,0
595,127,0,0,0,0,0,0,0,0,0,-1,1819,897,0,0
602,127,0,0,0,0,0,0,0,0,0,-1,1826,897,0,0
609,127,0,0,0,0,0,0,0,0,0,-1,1833,897,0,0
616,127,0,0,0,0,0,0,0,0,0,-1,1840,897,0,0
623,127,0,0,0,0,0,0,0,0,0,-1,1847,897,0,0
630,127,36.4788,2.68829,0.00202749,0.000549168,-0.00149438,0.00295553,-0.000378866,-0.555728,0.00210802,0.0419919,1854,897,36.4788,-2.68828
637,127,36.6029,2.59949,0.00105419,0.00142654,-0.00135605,0.00260913,-0.000128405,-0.853618,0.00178376,0.0397729,1861,897,36.6029,-2.59951
644,127,36.6389,2.58405,-0.000116553,0.00211619,-0.00100318,0.0025007,-0.000501066,-1.20477,0.00185683,0.0390738,1868,897,36.6389,-2.58407
651,127,36.488,2.72626,-0.00116706,0.00251024,-0.000579325,0.00259935,-0.00125617,-1.41818,0.00227057,0.0407782,1875,897,36.488,-2.72626
658,127,36.2557,2.92126,-0.00182224,0.00258768,-0.000189782,0.00259583,-0.0018304,-1.52787,0.00256819,0.0408301,1882,897,36.2557,-2.92124
665,127,36.2024,2.78864,-0.00209554,0.00244028,0.00010112,0.00244253,-0.00209779,1.54852,0.00262387,0.036797,1889,897,36.2024,-2.78865
672,127,36.2421,2.73004,-0.00210461,0.00214832,0.000383657,0.00218265,-0.00213895,1.48155,0.00249512,0.0307821,1896,897,36.242,-2.73005
679,127,36.3066,2.70203,-0.00199292,0.00186784,0.000508584,0.00193371,-0.00205879,1.44199,0.00230545,0.0226245,1903,897,36.3066,-2.70203
686,127,36.269,2.81421,-0.00186352,0.0015529,0.000582353,0.00164944,-0.00196006,1.40652,0.00208652,0.036429,1910,897,36.2691,-2.8142
693,127,36.1631,2.9693,0,0,0,0,0,0,0,-1,1917,897,36.1631,-2.96928
700,127,31.7578,2.71497,0,0,0,0,0,0,0,-1,1924,897,31.7579,-2.71495
707,127,31.6595,3.08173,-0.00146009,0.000895926,0.000538045,0.00101298,-0.00157715,1.35657,0.00150719,0.0271767,1931,897,31.6595,-3.08174
714,127,31.8062,3.50293,-0.00080591,0.000836674,0.000413958,0.000935101,-0.000904336,1.33736,0.00106205,0.0228841,1938,897,31.8062,-3.50293
721,127,32.0289,4.05774,-0.000476731,0.000809374,0.000277865,0.00086684,-0.000534196,1.36686,0.000816453,0.0161376,1945,897,32.0289,-4.05773
728,127,31.9945,4.35114,-8.68076e-05,0.00124462,0.000476043,0.00139731,-0.000239502,1.26041,0.00102078,0.0139126,1952,897,31.9946,-4.35113
735,127,31.9553,4.69971,0.00060914,0.0019317,0.00100261,0.00247147,6.93692e-05,1.07693,0.00162502,0.0209098,1959,897,31.9553,-4.69971
742,127,31.9386,5.04907,0.00200446,0.00354218,0.00123737,0.00423011,0.00131653,1.06339,0.0024996,0.0185079,1966,897,31.9386,-5.04906
749,127,31.9237,5.37274,0.0043817,0.00637941,0.00150597,0.00718766,0.00357344,1.07822,0.00414982,0.0124674,1973,897,31.9237,-5.37273
756,127,31.8939,5.67755,0.0073637,0.00967875,0.00244904,0.01123,0.00581242,1.00616,0.006485,0.0149264,1980,897,31.8939,-5.67754
763,127,31.8473,5.95612,0.0117635,0.0140959,0.00341092,0.0165345,0.00932494,0.950119,0.0095722,0.0248377,1987,897,31.8473,-5.95609
770,127,32.3999,5.92194,0,0,0,0,0,0,0,-1,1994,897,32.3999,-5.92196
777,127,33.1558,6.00555,0,0,0,0,0,0,0,-1,2001,897,33.1558,-6.00558
784,127,32.9255,8.75488,0,0,0,0,0,0,0,-1,2008,897,32.9255,-8.75486
791,127,33.1067,9.79041,0,0,0,0,0,0,0,-1,2015,897,33.1066,-9.79039
798,127,0,0,0,0,0,0,0,0,0,-1,2022,897,0,0
805,127,0,0,0,0,0,0,0,0,0,-1,2029,897,0,0
812,127,0,0,0,0,0,0,0,0,0,-1,2036,897,0,0
-700,120,0,0,0,0,0,0,0,0,0,-1,524,904,0,0
-693,120,0,0,0,0,0,0,0,0,0,-1,531,904,0,0
-686,120,0,0,0,0,0,0,0,0,0,-1,538,904,0,0
-679,120,-28.5164,8.26794,0.0753198,-0.00748405,0.0168181,0.0786054,-0.0107696,0.192926,0.0563376,0.0445109,545,904,-28.5164,-8.26793
-672,120,-28.4786,7.63721,0.066989,-0.0190847,0.0247158,0.0735812,-0.0256769,0.260651,0.0594898,0.044038,552,904,-28.4786,-7.63721
-665,120,-28.3314,7.24036,0,0,0,0,0,0,0,-1,559,904,-28.3314,-7.24036
-658,120,-23.9867,0.0802002,0,0,0,0,0,0,0,-1,566,904,-23.9867,-0.0802092
-651,120,-23.2025,1.08374,0,0,0,0,0,0,0,-1,573,904,-23.2024,-1.08373
-644,120,-23.745,1.6806,0.0269605,-0.0168582,0.0202883,0.0349114,-0.0248091,0.373501,0.0346437,0.0410688,580,904,-23.745,-1.68062
-637,120,-23.9073,2.54883,0.0189864,-0.0132128,0.0167841,0.0261441,-0.0203705,0.403105,0.0269241,0.0422271,587,904,-23.9074,-2.54885
-630,120,-23.424,3.16663,0.0123949,-0.00975386,0.0133098,0.018635,-0.015994,0.438409,0.0200125,0.0273004,594,904,-23.424,-3.16661
-623,120,-23.3967,2.93542,0.00715565,-0.00745153,0.0107732,0.0128676,-0.0131635,0.487514,0.0150293,0.0111341,601,904,-23.3967,-2.93543
-616,120,-23.3972,2.65381,0.00269257,-0.00468897,0.00781823,0.0076474,-0.0096438,0.56487,0.0100052,0.00970845,608,904,-23.3972,-2.6538
-609,120,-23.43,2.36658,-0.000691062,-0.00231321,0.00497664,0.00354017,-0.00654444,0.70462,0.00590784,0.0134004,615,904,-23.43,-2.36658
-602,120,-23.4584,2.07709,-0.00335438,-0.000849912,0.00304161,0.00118715,-0.00539144,0.980675,0.00404845,0.0147495,622,904,-23.4584,-2.07708
-595,120,-23.4265,1.80609,-0.00440629,-0.000540321,0.00198217,0.000295345,-0.00524195,1.17182,0.00359713,0.0230963,629,904,-23.4265,-1.80609
-588,120,-23.4529,1.47028,-0.00435075,-0.000155148,0.0011266,0.000128227,-0.00463412,1.32438,0.00313303,0.031419,636,904,-23.4529,-1.47028
-581,120,-23.6548,1.19659,-0.0042557,0.000182259,0.000694505,0.000288405,-0.00436185,1.41913,0.00300865,0.0422174,643,904,-23.6548,-1.19657
-574,120,-23.7541,0.579895,0,0,0,0,0,0,0,-1,650,904,-23.7541,-0.579894
-567,120,-22.5042,-0.0649414,0,0,0,0,0,0,0,-1,657,904,-22.5042,0.0649541
-560,120,-26.5818,0.883789,0,0,0,0,0,0,0,-1,664,904,-26.5818,-0.883793
-553,120,-26.5446,0.971008,-0.00221959,-0.000735376,-0.00010334,-0.000728216,-0.00222675,-1.50161,0.00131101,0.0483571,671,904,-26.5446,-0.971019
-546,120,-26.5087,0.973633,-0.00134119,-0.000947903,-0.000321964,-0.00076728,-0.00152181,-1.05954,0.000878627,0.0315939,678,904,-26.5087,-0.973621
-539,120,-26.5438,0.956055,-4.35814e-05,-0.00129947,-0.000506437,0.000135192,-0.00147824,-0.339346,0.00103351,0.0259857,685,904,-26.5437,-0.956067
-532,120,-26.5413,0.964417,0.00170223,-0.00191106,-0.000652574,0.00181647,-0.00202531,-0.173312,0.00221915,0.0271635,692,904,-26.5412,-0.964414
-525,120,-26.5825,1.15167,0.00405537,-0.00304715,-0.000856358,0.00415716,-0.00314894,-0.118312,0.00423155,0.0348199,699,904,-26.5825,-1.15169
-518,120,-26.6042,1.33386,0.00689676,-0.00459066,-0.000975193,0.00697896,-0.00467286,-0.0840903,0.00677096,0.0383433,706,904,-26.6043,-1.33385
-511,120,-26.4958,1.14557,0.0101518,-0.00679263,-0.00151139,0.0102856,-0.00692638,-0.0882683,0.0100002,0.0393934,713,904,-26.4958,-1.14554
-504,120,0,0,0,0,0,0,0,0,0,-1,720,904,0,0
-497,120,0,0,0,0,0,0,0,0,0,-1,727,904,0,0
-490,120,0,0,0,0,0,0,0,0,0,-1,734,904,0,0
-483,120,0,0,0,0,0,0,0,0,0,-1,741,904,0,0
-476,120,0,0,0,0,0,0,0,0,0,-1,748,904,0,0
-469,120,0,0,0,0,0,0,0,0,0,-1,755,904,0,0
-462,120,0,0,0,0,0,0,0,0,0,-1,762,904,0,0
-455,120,0,0,0,0,0,0,0,0,0,-1,769,904,0,0
-448,120,0,0,0,0,0,0,0,0,0,-1,776,904,0,0
-441,120,0,0,0,0,0,0,0,0,0,-1,783,904,0,0
-434,120,0,0,0,0,0,0,0,0,0,-1,790,904,0,0
-427,120,0,0,0,0,0,0,0,0,0,-1,797,904,0,0
-420,120,0,0,0,0,0,0,0,0,0,-1,804,904,0,0
-413,120,0,0,0,0,0,0,0,0,0,-1,811,904,0,0
-406,120,0,0,0,0,0,0,0,0,0,-1,818,904,0,0
-399,120,0,0,0,0,0,0,0,0,0,-1,825,904,0,0
-392,120,0,0,0,0,0,0,0,0,0,-1,832,904,0,0
-385,120,0,0,0,0,0,0,0,0,0,-1,839,904,0,0
-378,120,0,0,0,0,0,0,0,0,0,-1,846,904,0,0
-371,120,0,0,0,0,0,0,0,0,0,-1,853,904,0,0
-364,120,0,0,0,0,0,0,0,0,0,-1,860,904,0,0
-357,120,0,0,0,0,0,0,0,0,0,-1,867,904,0,0
-350,120,0,0,0,0,0,0,0,0,0,-1,874,904,0,0
-343,120,0,0,0,0,0,0,0,0,0,-1,881,904,0,0
-336,120,0,0,0,0,0,0,0,0,0,-1,888,904,0,0
-329,120,0,0,0,0,0,0,0,0,0,-1,895,904,0,0
-322,120,0,0,0,0,0,0,0,0,0,-1,902,904,0,0
-315,120,0,0,0,0,0,0,0,0,0,-1,909,904,0,0
-308,120,0,0,0,0,0,0,0,0,0,-1,916,904,0,0
-301,120,0,0,0,0,0,0,0,0,0,-1,923,904,0,0
-294,120,0,0,0,0,0,0,0,0,0,-1,930,904,0,0
-287,120,0,0,0,0,0,0,0,0,0,-1,937,904,0,0
-280,120,0,0,0,0,0,0,0,0,0,-1,944,904,0,0
-273,120,0,0,0,0,0,0,0,0,0,-1,951,904,0,0
-266,120,0,0,0,0,0,0,0,0,0,-1,958,904,0,0
-259,120,0,0,0,0,0,0,0,0,0,-1,965,904,0,0
-252,120,0,0,0,0,0,0,0,0,0,-1,972,904,0,0
-245,120,0,0,0,0,0,0,0,0,0,-1,979,904,0,0
-238,120,0,0,0,0,0,0,0,0,0,-1,986,904,0,0
-231,120,0,0,0,0,0,0,0,0,0,-1,993,904,0,0
-224,120,0,0,0,0,0,0,0,0,0,-1,1000,904,0,0
-217,120,0,0,0,0,0,0,0,0,0,-1,1007,904,0,0
-210,120,0,0,0,0,0,0,0,0,0,-1,1014,904,0,0
-203,120,0,0,0,0,0,0,0,0,0,-1,1021,904,0,0
-196,120,0,0,0,0,0,0,0,0,0,-1,1028,904,0,0
-189,120,0,0,0,0,0,0,0,0,0,-1,1035,904,0,0
-182,120,0,0,0,0,0,0,0,0,0,-1,1042,904,0,0
-175,120,0,0,0,0,0,0,0,0,0,-1,1049,904,0,0
-168,120,0,0,0,0,0,0,0,0,0,-1,1056,904,0,0
-161,120,0,0,0,0,0,0,0,0,0,-1,1063,904,0,0
-154,120,0,0,0,0,0,0,0,0,0,-1,1070,904,0,0
-147,120,0,0,0,0,0,0,0,0,0,-1,1077,904,0,0
-140,120,0,0,0,0,0,0,0,0,0,-1,1084,904,0,0
-133,120,0,0,0,0,0,0,0,0,0,-1,1091,904,0,0
-126,120,0,0,0,0,0,0,0,0,0,-1,1098,904,0,0
-119,120,0,0,0,0,0,0,0,0,0,-1,1105,904,0,0
-112,120,0,0,0,0,0,0,0,0,0,-1,1112,904,0,0
-105,120,0,0,0,0,0,0,0,0,0,-1,1119,904,0,0
-98,120,0,0,0,0,0,0,0,0,0,-1,1126,904,0,0
-91,120,0,0,0,0,0,0,0,0,0,-1,1133,904,0,0
-84,120,0,0,0,0,0,0,0,0,0,-1,1140,904,0,0
-77,120,0,0,0,0,0,0,0,0,0,-1,1147,904,0,0
-70,120,0,0,0,0,0,0,0,0,0,-1,1154,904,0,0
-63,120,0,0,0,0,0,0,0,0,0,-1,1161,904,0,0
-56,120,0,0,0,0,0,0,0,0,0,-1,1168,904,0,0
-49,120,0,0,0,0,0,0,0,0,0,-1,1175,904,0,0
-42,120,0,0,0,0,0,0,0,0,0,-1,1182,904,0,0
-35,120,0,0,0,0,0,0,0,0,0,-1,1189,904,0,0
-28,120,0,0,0,0,0,0,0,0,0,-1,1196,904,0,0
-21,120,0,0,0,0,0,0,0,0,0,-1,1203,904,0,0
-14,120,0,0,0,0,0,0,0,0,0,-1,1210,904,0,0
-7,120,0,0,0,0,0,0,0,0,0,-1,1217,904,0,0
0,120,0,0,0,0,0,0,0,0,0,-1,1224,904,0,0
7,120,0,0,0,0,0,0,0,0,0,-1,1231,904,0,0
14,120,0,0,0,0,0,0,0,0,0,-1,1238,904,0,0
21,120,0,0,0,0,0,0,0,0,0,-1,1245,904,0,0
28,120,0,0,0,0,0,0,0,0,0,-1,1252,904,0,0
35,120,0,0,0,0,0,0,0,0,0,-1,1259,904,0,0
42,120,0,0,0,0,0,0,0,0,0,-1,1266,904,0,0
49,120,0,0,0,0,0,0,0,0,0,-1,1273,904,0,0
56,120,0,0,0,0,0,0,0,0,0,-1,1280,904,0,0
63,120,0,0,0,0,0,0,0,0,0,-1,1287,904,0,0
70,120,0,0,0,0,0,0,0,0,0,-1,1294,904,0,0
77,120,0,0,0,0,0,0,0,0,0,-1,1301,904,0,0
84,120,0,0,0,0,0,0,0,0,0,-1,1308,904,0,0
91,120,0,0,0,0,0,0,0,0,0,-1,1315,904,0,0
98,120,0,0,0,0,0,0,0,0,0,-1,1322,904,0,0
105,120,0,0,0,0,0,0,0,0,0,-1,1329,904,0,0
112,120,0,0,0,0,0,0,0,0,0,-1,1336,904,0,0
119,120,0,0,0,0,0,0,0,0,0,-1,1343,904,0,0
126,120,0,0,0,0,0,0,0,0,0,-1,1350,904,0,0
133,120,0,0,0,0,0,0,0,0,0,-1,1357,904,0,0
140,120,0,0,0,0,0,0,0,0,0,-1,1364,904,0,0
147,120,0,0,0,0,0,0,0,0,0,-1,1371,904,0,0
154,120,0,0,0,0,0,0,0,0,0,-1,1378,904,0,0
161,120,0,0,0,0,0,0,0,0,0,-1,1385,904,0,0
168,120,0,0,0,0,0,0,0,0,0,-1,1392,904,0,0
175,120,0,0,0,0,0,0,0,0,0,-1,1399,904,0,0
182,120,0,0,0,0,0,0,0,0,0,-1,1406,904,0,0
189,120,0,0,0,0,0,0,0,0,0,-1,1413,904,0,0
196,120,0,0,0,0,0,0,0,0,0,-1,1420,904,0,0
203,120,0,0,0,0,0,0,0,0,0,-1,1427,904,0,0
210,120,0,0,0,0,0,0,0,0,0,-1,1434,904,0,0
217,120,0,0,0,0,0,0,0,0,0,-1,1441,904,0,0
224,120,0,0,0,0,0,0,0,0,0,-1,1448,904,0,0
231,120,0,0,0,0,0,0,0,0,0,-1,1455,904,0,0
238,120,0,0,0,0,0,0,0,0,0,-1,1462,904,0,0
245,120,0,0,0,0,0,0,0,0,0,-1,1469,904,0,0
252,120,0,0,0,0,0,0,0,0,0,-1,1476,904,0,0
259,120,0,0,0,0,0,0,0,0,0,-1,1483,904,0,0
266,120,0,0,0,0,0,0,0,0,0,-1,1490,904,0,0
273,120,0,0,0,0,0,0,0,0,0,-1,1497,904,0,0
280,120,0,0,0,0,0,0,0,0,0,-1,1504,904,0,0
287,120,0,0,0,0,0,0,0,0,0,-1,1511,904,0,0
294,120,0,0,0,0,0,0,0,0,0,-1,1518,904,0,0
301,120,0,0,0,0,0,0,0,0,0,-1,1525,904,0,0
308,120,0,0,0,0,0,0,0,0,0,-1,1532,904,0,0
315,120,0,0,0,0,0,0,0,0,0,-1,1539,904,0,0
322,120,0,0,0,0,0,0,0,0,0,-1,1546,904,0,0
329,120,0,0,0,0,0,0,0,0,0,-1,1553,904,0,0
336,120,0,0,0,0,0,0,0,0,0,-1,1560,904,0,0
343,120,0,0,0,0,0,0,0,0,0,-1,1567,904,0,0
350,120,0,0,0,0,0,0,0,0,0,-1,1574,904,0,0
357,120,0,0,0,0,0,0,0,0,0,-1,1581,904,0,0
364,120,0,0,0,0,0,0,0,0,0,-1,1588,904,0,0
371,120,0,0,0,0,0,0,0,0,0,-1,1595,904,0,0
378,120,0,0,0,0,0,0,0,0,0,-1,1602,904,0,0
385,120,0,0,0,0,0,0,0,0,0,-1,1609,904,0,0
392,120,0,0,0,0,0,0,0,0,0,-1,1616,904,0,0
399,120,0,0,0,0,0,0,0,0,0,-1,1623,904,0,0
406,120,0,0,0,0,0,0,0,0,0,-1,1630,904,0,0
413,120,0,0,0,0,0,0,0,0,0,-1,1637,904,0,0
420,120,0,0,0,0,0,0,0,0,0,-1,1644,904,0,0
427,120,0,0,0,0,0,0,0,0,0,-1,1651,904,0,0
434,120,0,0,0,0,0,0,0,0,0,-1,1658,904,0,0
441,120,0,0,0,0,0,0,0,0,0,-1,1665,904,0,0
448,120,0,0,0,0,0,0,0,0,0,-1,1672,904,0,0
455,120,0,0,0,0,0,0,0,0,0,-1,1679,904,0,0
462,120,0,0,0,0,0,0,0,0,0,-1,1686,904,0,0
469,120,0,0,0,0,0,0,0,0,0,-1,1693,904,0,0
476,120,0,0,0,0,0,0,0,0,0,-1,1700,904,0,0
483,120,0,0,0,0,0,0,0,0,0,-1,1707,904,0,0
490,120,0,0,0,0,0,0,0,0,0,-1,1714,904,0,0
497,120,0,0,0,0,0,0,0,0,0,-1,1721,904,0,0
504,120,0,0,0,0,0,0,0,0,0,-1,1728,904,0,0
511,120,0,0,0,0,0,0,0,0,0,-1,1735,904,0,0
518,120,0,0,0,0,0,0,0,0,0,-1,1742,904,0,0
525,120,0,0,0,0,0,0,0,0,0,-1,1749,904,0,0
532,120,0,0,0,0,0,0,0,0,0,-1,1756,904,0,0
539,120,0,0,0,0,0,0,0,0,0,-1,1763,904,0,0
546,120,0,0,0,0,0,0,0,0,0,-1,1770,904,0,0
553,120,0,0,0,0,0,0,0,0,0,-1,1777,904,0,0
560,120,0,0,0,0,0,0,0,0,0,-1,1784,904,0,0
567,120,0,0,0,0,0,0,0,0,0,-1,1791,904,0,0
574,120,0,0,0,0,0,0,0,0,0,-1,1798,904,0,0
581,120,0,0,0,0,0,0,0,0,0,-1,1805,904,0,0
588,120,0,0,0,0,0,0,0,0,0,-1,1812,904,0,0
595,120,0,0,0,0,0,0,0,0,0,-1,1819,904,0,0
602,120,0,0,0,0,0,0,0,0,0,-1,1826,904,0,0
609,120,0,0,0,0,0,0,0,0,0,-1,1833,904,0,0
616,120,0,0,0,0,0,0,0,0,0,-1,1840,904,0,0
623,120,0,0,0,0,0,0,0,0,0,-1,1847,904,0,0
630,120,36.479,2.48383,0.00318641,4.84437e-05,-0.00253329,0.00459723,-0.00136238,-0.508136,0.00360578,0.0399253,1854,904,36.479,-2.4838
637,120,36.4913,2.62823,0.00193602,0.00107145,-0.00214249,0.0036894,-0.000681932,-0.68585,0.0027156,0.0410725,1861,904,36.4914,-2.62821
644,120,36.2704,3.08575,0,0,0,0,0,0,0,-1,1868,904,36.2704,-3.08574
651,120,36.2303,3.10358,-0.000773193,0.0024763,-0.000882858,0.00270067,-0.000997565,-1.32192,0.00220936,0.0422732,1875,904,36.2304,-3.10358
658,120,36.2288,3.03387,-0.0016887,0.00272293,-0.000258481,0.00273802,-0.0017038,-1.51247,0.00258755,0.0422005,1882,904,36.2288,-3.03385
665,120,36.3344,2.85211,-0.00213815,0.00268557,0.000224079,0.00269596,-0.00214854,1.52448,0.00280292,0.0377802,1889,904,36.3343,-2.85211
672,120,36.3229,2.76532,-0.00224986,0.00242912,0.000622112,0.00251042,-0.00233116,1.44084,0.00279593,0.0356631,1896,904,36.3229,-2.76535
679,120,36.3229,2.66699,-0.00218926,0.00214275,0.000830483,0.00229651,-0.00234301,1.38773,0.00267867,0.0306317,1903,904,36.3229,-2.66702
686,120,36.2903,2.76294,-0.00206067,0.00181134,0.000935507,0.00202552,-0.00227485,1.34573,0.00248421,0.0218473,1910,904,36.2902,-2.76295
693,120,36.1975,2.85498,0,0,0,0,0,0,0,-1,1917,904,36.1975,-2.85497
700,120,32.2743,3.05042,0,0,0,0,0,0,0,-1,1924,904,32.2743,-3.05039
707,120,32.1475,3.33856,-0.00172549,0.00112522,0.000924368,0.00139872,-0.00199899,1.28313,0.00197184,0.0316205,1931,904,32.1475,-3.33857
714,120,32.3545,3.74506,-0.00112023,0.00102976,0.000743054,0.00126157,-0.00135204,1.26839,0.00150927,0.0205128,1938,904,32.3544,-3.74506
721,120,32.3672,4.07251,-0.000840677,0.00100443,0.000546996,0.0011544,-0.000990648,1.3032,0.00123965,0.0148907,1945,904,32.3672,-4.07253
728,120,32.322,4.40845,-0.000505922,0.00137106,0.000653244,0.00157603,-0.000710888,1.26676,0.00135148,0.0109714,1952,904,32.322,-4.40847
735,120,32.2915,4.70831,8.05451e-05,0.00204113,0.000952887,0.00242794,-0.000306264,1.18519,0.00172978,0.0140309,1959,904,32.2915,-4.70833
742,120,32.281,5.04822,0.00137978,0.00375583,0.00078735,0.00399305,0.00114256,1.27816,0.00237464,0.0148242,1966,904,32.2811,-5.04825
749,120,32.2604,5.35547,0.00372742,0.00690889,0.000478212,0.00697921,0.0036571,1.42478,0.004031,0.0107624,1973,904,32.2604,-5.35545
756,120,32.2118,5.67236,0.0066343,0.0106294,0.000736415,0.0107608,0.00650288,1.3942,0.00625767,0.0138169,1980,904,32.2118,-5.67236
763,120,32.1508,5.97443,0.0109607,0.0156145,0.000787138,0.015744,0.0108312,1.4077,0.00930144,0.0282027,1987,904,32.1508,-5.97444
770,120,32.1232,6.31055,0,0,0,0,0,0,0,-1,1994,904,32.1232,-6.31054
777,120,32.5088,6.20496,0,0,0,0,0,0,0,-1,2001,904,32.5088,-6.20494
784,120,28.2545,3.00208,0,0,0,0,0,0,0,-1,2008,904,28.2545,-3.00207
791,120,33.7759,9.9859,0,0,0,0,0,0,0,-1,2015,904,33.776,-9.98587
798,120,33.8569,6.19458,0,0,0,0,0,0,0,-1,2022,904,33.8568,-6.19461
805,120,0,0,0,0,0,0,0,0,0,-1,2029,904,0,0
812,120,0,0,0,0,0,0,0,0,0,-1,2036,904,0,0
-700,113,0,0,0,0,0,0,0,0,0,-1,524,911,0,0
-693,113,0,0,0,0,0,0,0,0,0,-1,531,911,0,0
-686,113,0,0,0,0,0,0,0,0,0,-1,538,911,0,0
-679,113,-28.5421,7.49585,0,0,0,0,0,0,0,-1,545,911,-28.542,-7.49584
-672,113,-29.0563,7.67224,0,0,0,0,0,0,0,-1,552,911,-29.0563,-7.67226
-665,113,-24.1249,-0.106323,0,0,0,0,0,0,0,-1,559,911,-24.1249,0.106316
-658,113,-23.6423,0.76355,0,0,0,0,0,0,0,-1,566,911,-23.6423,-0.763534
-651,113,-23.2703,1.75714,0.0379571,-0.0188264,0.023739,0.0465739,-0.0274432,0.348192,0.043207,0.0499873,573,911,-23.2703,-1.75716
-644,113,-23.59,2.36914,0.0279806,-0.0158111,0.0204783,0.0360646,-0.0238951,0.375978,0.0348546,0.0426886,580,911,-23.59,-2.36913
-637,113,-23.9445,2.92834,0.0195033,-0.012419,0.016947,0.0268222,-0.0197378,0.407674,0.026985,0.0388422,587,911,-23.9445,-2.92832
-630,113,-23.7088,3.18457,0.0126561,-0.00919295,0.0134549,0.0190631,-0.0155999,0.444411,0.0200459,0.019012,594,911,-23.7088,-3.18458
-623,113,-23.7255,2.91528,0.00719095,-0.00702384,0.0108277,0.0130356,-0.0128685,0.494965,0.0149558,0.0112509,601,911,-23.7255,-2.91531
-616,113,-23.7336,2.63477,0.0025065,-0.00444742,0.00782593,0.0075931,-0.00953401,0.576352,0.00990948,0.00972643,608,911,-23.7336,-2.63476
-609,113,-23.7479,2.37415,-0.00116846,-0.0023368,0.00499585,0.00327726,-0.00678252,0.727197,0.00592438,0.0109926,615,911,-23.7479,-2.37416
-602,113,-23.7625,2.07971,-0.00403722,-0.00102802,0.00304528,0.000864082,-0.00592932,1.01485,0.00427015,0.0158866,622,911,-23.7625,-2.07972
-595,113,-23.7728,1.85339,-0.0051827,-0.000665677,0.00188192,1.5622e-05,-0.005864,1.22345,0.00391455,0.0218294,629,911,-23.7727,-1.85338
-588,113,-23.749,1.57294,-0.00519513,-0.000195946,0.00101662,2.88081e-06,-0.00539396,1.37766,0.00359693,0.0249132,636,911,-23.7489,-1.57294
-581,113,-23.7643,1.26837,-0.00511972,0.000184305,0.000551027,0.000240946,-0.00517636,1.46837,0.00353396,0.0252628,643,911,-23.7643,-1.26839
-574,113,-23.7117,0.841187,0,0,0,0,0,0,0,-1,650,911,-23.7117,-0.841217
-567,113,-21.8396,0.437378,0,0,0,0,0,0,0,-1,657,911,-21.8396,-0.437351
-560,113,-26.5095,0.72052,0,0,0,0,0,0,0,-1,664,911,-26.5095,-0.720536
-553,113,-26.51,1.0235,-0.00298126,-0.000330331,-9.65999e-05,-0.000326816,-0.00298478,-1.53442,0.00189035,0.0358865,671,911,-26.51,-1.02349
-546,113,-26.5035,0.996094,-0.0018776,-0.000435631,-0.000191432,-0.000410649,-0.00190258,-1.44103,0.00115608,0.034554,678,911,-26.5035,-0.996116
-539,113,-26.5487,0.873718,-0.000263683,-0.000676753,-0.000220617,-0.000168011,-0.000772424,-0.409177,0.000469084,0.0362208,685,911,-26.5487,-0.873743
-532,113,-26.5413,0.887512,0.00191359,-0.00121654,-0.000165295,0.0019223,-0.00122524,-0.0526128,0.00183203,0.0373716,692,911,-26.5413,-0.887501
-525,113,-26.5833,1.14166,0.00477999,-0.00238236,-0.000128465,0.00478229,-0.00238466,-0.0179285,0.00421432,0.0382752,699,911,-26.5832,-1.14165
-518,113,-26.5136,1.25446,0.00761599,-0.00396943,2.69308e-05,0.00761605,-0.0039695,0.00232453,0.00679846,0.0412007,706,911,-26.5136,-1.25443
-511,113,-26.5087,1.14807,0.0105016,-0.0062414,-0.000399105,0.0105111,-0.00625091,-0.0238191,0.00978119,0.0409334,713,911,-26.5087,-1.14806
-504,113,0,0,0,0,0,0,0,0,0,-1,720,911,0,0
-497,113,0,0,0,0,0,0,0,0,0,-1,727,911,0,0
-490,113,0,0,0,0,0,0,0,0,0,-1,734,911,0,0
-483,113,0,0,0,0,0,0,0,0,0,-1,741,911,0,0
-476,113,0,0,0,0,0,0,0,0,0,-1,748,911,0,0
-469,113,0,0,0,0,0,0,0,0,0,-1,755,911,0,0
-462,113,0,0,0,0,0,0,0,0,0,-1,762,911,0,0
-455,113,0,0,0,0,0,0,0,0,0,-1,769,911,0,0
-448,113,0,0,0,0,0,0,0,0,0,-1,776,911,0,0
-441,113,0,0,0,0,0,0,0,0,0,-1,783,911,0,0
-434,113,0,0,0,0,0,0,0,0,0,-1,790,911,0,0
-427,113,0,0,0,0,0,0,0,0,0,-1,797,911,0,0
-420,113,0,0,0,0,0,0,0,0,0,-1,804,911,0,0
-413,113,0,0,0,0,0,0,0,0,0,-1,811,911,0,0
-406,113,0,0,0,0,0,0,0,0,0,-1,818,911,0,0
-399,113,0,0,0,0,0,0,0,0,0,-1,825,911,0,0
-392,113,0,0,0,0,0,0,0,0,0,-1,832,911,0,0
-385,113,0,0,0,0,0,0,0,0,0,-1,839,911,0,0
-378,113,0,0,0,0,0,0,0,0,0,-1,846,911,0,0
-371,113,0,0,0,0,0,0,0,0,0,-1,853,911,0,0
-364,113,0,0,0,0,0,0,0,0,0,-1,860,911,0,0
-357,113,0,0,0,0,0,0,0,0,0,-1,867,911,0,0
-350,113,0,0,0,0,0,0,0,0,0,-1,874,911,0,0
-343,113,0,0,0,0,0,0,0,0,0,-1,881,911,0,0
-336,113,0,0,0,0,0,0,0,0,0,-1,888,911,0,0
-329,113,0,0,0,0,0,0,0,0,0,-1,895,911,0,0
-322,113,0,0,0,0,0,0,0,0,0,-1,902,911,0,0
-315,113,0,0,0,0,0,0,0,0,0,-1,909,911,0,0
-308,113,0,0,0,0,0,0,0,0,0,-1,916,911,0,0
-301,113,0,0,0,0,0,0,0,0,0,-1,923,911,0,0
-294,113,0,0,0,0,0,0,0,0,0,-1,930,911,0,0
-287,113,0,0,0,0,0,0,0,0,0,-1,937,911,0,0
-280,113,0,0,0,0,0,0,0,0,0,-1,944,911,0,0
-273,113,0,0,0,0,0,0,0,0,0,-1,951,911,0,0
-266,113,0,0,0,0,0,0,0,0,0,-1,958,911,0,0
-259,113,0,0,0,0,0,0,0,0,0,-1,965,911,0,0
-252,113,0,0,0,0,0,0,0,0,0,-1,972,911,0,0
-245,113,0,0,0,0,0,0,0,0,0,-1,979,911,0,0
-238,113,0,0,0,0,0,0,0,0,0,-1,986,911,0,0
-231,113,0,0,0,0,0,0,0,0,0,-1,993,911,0,0
-224,113,0,0,0,0,0,0,0,0,0,-1,1000,911,0,0
-217,113,0,0,0,0,0,0,0,0,0,-1,1007,911,0,0
-210,113,0,0,0,0,0,0,0,0,0,-1,1014,911,0,0
-203,113,0,0,0,0,0,0,0,0,0,-1,1021,911,0,0
-196,113,0,0,0,0,0,0,0,0,0,-1,1028,911,0,0
-189,113,0,0,0,0,0,0,0,0,0,-1,1035,911,0,0
-182,113,0,0,0,0,0,0,0,0,0,-1,1042,911,0,0
-175,113,0,0,0,0,0,0,0,0,0,-1,1049,911,0,0
-168,113,0,0,0,0,0,0,0,0,0,-1,1056,911,0,0
-161,113,0,0,0,0,0,0,0,0,0,-1,1063,911,0,0
-154,113,0,0,0,0,0,0,0,0,0,-1,1070,911,0,0
-147,113,0,0,0,0,0,0,0,0,0,-1,1077,911,0,0
-140,113,0,0,0,0,0,0,0,0,0,-1,1084,911,0,0
-133,113,0,0,0,0,0,0,0,0,0,-1,1091,911,0,0
-126,113,0,0,0,0,0,0,0,0,0,-1,1098,911,0,0
-119,113,0,0,0,0,0,0,0,0,0,-1,1105,911,0,0
-112,113,0,0,0,0,0,0,0,0,0,-1,1112,911,0,0
-105,113,0,0,0,0,0,0,0,0,0,-1,1119,911,0,0
-98,113,0,0,0,0,0,0,0,0,0,-1,1126,911,0,0
-91,113,0,0,0,0,0,0,0,0,0,-1,1133,911,0,0
-84,113,0,0,0,0,0,0,0,0,0,-1,1140,911,0,0
-77,113,0,0,0,0,0,0,0,0,0,-1,1147,911,0,0
-70,113,0,0,0,0,0,0,0,0,0,-1,1154,911,0,0
-63,113,0,0,0,0,0,0,0,0,0,-1,1161,911,0,0
-56,113,0,0,0,0,0,0,0,0,0,-1,1168,911,0,0
-49,113,0,0,0,0,0,0,0,0,0,-1,1175,911,0,0
-42,113,0,0,0,0,0,0,0,0,0,-1,1182,911,0,0
-35,113,0,0,0,0,0,0,0,0,0,-1,1189,911,0,0
-28,113,0,0,0,0,0,0,0,0,0,-1,1196,911,0,0
-21,113,0,0,0,0,0,0,0,0,0,-1,1203,911,0,0
-14,113,0,0,0,0,0,0,0,0,0,-1,1210,911,0,0
-7,113,0,0,0,0,0,0,0,0,0,-1,1217,911,0,0
0,113,0,0,0,0,0,0,0,0,0,-1,1224,911,0,0
7,113,0,0,0,0,0,0,0,0,0,-1,1231,911,0,0
14,113,0,0,0,0,0,0,0,0,0,-1,1238,911,0,0
21,113,0,0,0,0,0,0,0,0,0,-1,1245,911,0,0
28,113,0,0,0,0,0,0,0,0,0,-1,1252,911,0,0
35,113,0,0,0,0,0,0,0,0,0,-1,1259,911,0,0
42,113,0,0,0,0,0,0,0,0,0,-1,1266,911,0,0
49,113,0,0,0,0,0,0,0,0,0,-1,1273,911,0,0
56,113,0,0,0,0,0,0,0,0,0,-1,1280,911,0,0
63,113,0,0,0,0,0,0,0,0,0,-1,1287,911,0,0
70,113,0,0,0,0,0,0,0,0,0,-1,1294,911,0,0
77,113,0,0,0,0,0,0,0,0,0,-1,1301,911,0,0
84,113,0,0,0,0,0,0,0,0,0,-1,1308,911,0,0
91,113,0,0,0,0,0,0,0,0,0,-1,1315,911,0,0
98,113,0,0,0,0,0,0,0,0,0,-1,1322,911,0,0
105,113,0,0,0,0,0,0,0,0,0,-1,1329,911,0,0
112,113,0,0,0,0,0,0,0,0,0,-1,1336,911,0,0
119,113,0,0,0,0,0,0,0,0,0,-1,1343,911,0,0
126,113,0,0,0,0,0,0,0,0,0,-1,1350,911,0,0
133,113,0,0,0,0,0,0,0,0,0,-1,1357,911,0,0
140,113,0,0,0,0,0,0,0,0,0,-1,1364,911,0,0
147,113,0,0,0,0,0,0,0,0,0,-1,1371,911,0,0
154,113,0,0,0,0,0,0,0,0,0,-1,1378,911,0,0
161,113,0,0,0,0,0,0,0,0,0,-1,1385,911,0,0
168,113,0,0,0,0,0,0,0,0,0,-1,1392,911,0,0
175,113,0,0,0,0,0,0,0,0,0,-1,1399,911,0,0
182,113,0,0,0,0,0,0,0,0,0,-1,1406,911,0,0
189,113,0,0,0,0,0,0,0,0,0,-1,1413,911,0,0
196,113,0,0,0,0,0,0,0,0,0,-1,1420,911,0,0
203,113,0,0,0,0,0,0,0,0,0,-1,1427,911,0,0
210,113,0,0,0,0,0,0,0,0,0,-1,1434,911,0,0
217,113,0,0,0,0,0,0,0,0,0,-1,1441,911,0,0
224,113,0,0,0,0,0,0,0,0,0,-1,1448,911,0,0
231,113,0,0,0,0,0,0,0,0,0,-1,1455,911,0,0
238,113,0,0,0,0,0,0,0,0,0,-1,1462,911,0,0
245,113,0,0,0,0,0,0,0,0,0,-1,1469,911,0,0
252,113,0,0,0,0,0,0,0,0,0,-1,1476,911,0,0
259,113,0,0,0,0,0,0,0,0,0,-1,1483,911,0,0
266,113,0,0,0,0,0,0,0,0,0,-1,1490,911,0,0
273,113,0,0,0,0,0,0,0,0,0,-1,1497,911,0,0
280,113,0,0,0,0,0,0,0,0,0,-1,1504,911,0,0
287,113,0,0,0,0,0,0,0,0,0,-1,1511,911,0,0
294,113,0,0,0,0,0,0,0,0,0,-1,1518,911,0,0
301,113,0,0,0,0,0,0,0,0,0,-1,1525,911,0,0
308,113,0,0,0,0,0,0,0,0,0,-1,1532,911,0,0
315,113,0,0,0,0,0,0,0,0,0,-1,1539,911,0,0
322,113,0,0,0,0,0,0,0,0,0,-1,1546,911,0,0
329,113,0,0,0,0,0,0,0,0,0,-1,1553,911,0,0
336,113,0,0,0,0,0,0,0,0,0,-1,1560,911,0,0
343,113,0,0,0,0,0,0,0,0,0,-1,1567,911,0,0
350,113,0,0,0,0,0,0,0,0,0,-1,1574,911,0,0
357,113,0,0,0,0,0,0,0,0,0,-1,1581,911,0,0
364,113,0,0,0,0,0,0,0,0,0,-1,1588,911,0,0
371,113,0,0,0,0,0,0,0,0,0,-1,1595,911,0,0
378,113,0,0,0,0,0,0,0,0,0,-1,1602,911,0,0
385,113,0,0,0,0,0,0,0,0,0,-1,1609,911,0,0
392,113,0,0,0,0,0,0,0,0,0,-1,1616,911,0,0
399,113,0,0,0,0,0,0,0,0,0,-1,1623,911,0,0
406,113,0,0,0,0,0,0,0,0,0,-1,1630,911,0,0
413,113,0,0,0,0,0,0,0,0,0,-1,1637,911,0,0
420,113,0,0,0,0,0,0,0,0,0,-1,1644,911,0,0
427,113,0,0,0,0,0,0,0,0,0,-1,1651,911,0,0
434,113,0,0,0,0,0,0,0,0,0,-1,1658,911,0,0
441,113,0,0,0,0,0,0,0,0,0,-1,1665,911,0,0
448,113,0,0,0,0,0,0,0,0,0,-1,1672,911,0,0
455,113,0,0,0,0,0,0,0,0,0,-1,1679,911,0,0
462,113,0,0,0,0,0,0,0,0,0,-1,1686,911,0,0
469,113,0,0,0,0,0,0,0,0,0,-1,1693,911,0,0
476,113,0,0,0,0,0,0,0,0,0,-1,1700,911,0,0
483,113,0,0,0,0,0,0,0,0,0,-1,1707,911,0,0
490,113,0,0,0,0,0,0,0,0,0,-1,1714,911,0,0
497,113,0,0,0,0,0,0,0,0,0,-1,1721,911,0,0
504,113,0,0,0,0,0,0,0,0,0,-1,1728,911,0,0
511,113,0,0,0,0,0,0,0,0,0,-1,1735,911,0,0
518,113,0,0,0,0,0,0,0,0,0,-1,1742,911,0,0
525,113,0,0,0,0,0,0,0,0,0,-1,1749,911,0,0
532,113,0,0,0,0,0,0,0,0,0,-1,1756,911,0,0
539,113,0,0,0,0,0,0,0,0,0,-1,1763,911,0,0
546,113,0,0,0,0,0,0,0,0,0,-1,1770,911,0,0
553,113,0,0,0,0,0,0,0,0,0,-1,1777,911,0,0
560,113,0,0,0,0,0,0,0,0,0,-1,1784,911,0,0
567,113,0,0,0,0,0,0,0,0,0,-1,1791,911,0,0
574,113,0,0,0,0,0,0,0,0,0,-1,1798,911,0,0
581,113,0,0,0,0,0,0,0,0,0,-1,1805,911,0,0
588,113,0,0,0,0,0,0,0,0,0,-1,1812,911,0,0
595,113,0,0,0,0,0,0,0,0,0,-1,1819,911,0,0
602,113,0,0,0,0,0,0,0,0,0,-1,1826,911,0,0
609,113,0,0,0,0,0,0,0,0,0,-1,1833,911,0,0
616,113,0,0,0,0,0,0,0,0,0,-1,1840,911,0,0
623,113,0,0,0,0,0,0,0,0,0,-1,1847,911,0,0
630,113,36.3448,2.77148,0.00396506,-0.00081099,-0.00294021,0.00536485,-0.00221077,-0.444332,0.00449837,0.0396166,1854,911,36.3449,-2.77149
637,113,36.3553,2.84772,0.00262865,0.000408849,-0.00252413,0.00427612,-0.00123862,-0.578263,0.00334105,0.0396722,1861,911,36.3553,-2.84769
644,113,36.4059,2.88837,0.00112621,0.00141029,-0.00187613,0.00314975,-0.000613249,-0.823181,0.00233129,0.0383115,1868,911,36.4059,-2.88839
651,113,36.3937,2.87775,-0.000334012,0.00210617,-0.00108369,0.00251795,-0.000745794,-1.20767,0.00197475,0.0415966,1875,911,36.3937,-2.87773
658,113,36.5024,2.76025,-0.00147889,0.00251081,-0.00028685,0.00253133,-0.0014994,-1.49939,0.00235243,0.0433462,1882,911,36.5025,-2.76028
665,113,36.5173,2.88892,-0.00212824,0.0025876,0.000359274,0.00261481,-0.00215546,1.49519,0.00275837,0.0388931,1889,911,36.5173,-2.88893
672,113,36.4149,2.77618,-0.00238109,0.00239485,0.000878969,0.00255148,-0.00253772,1.39445,0.00293825,0.0380883,1896,911,36.415,-2.77617
679,113,36.3776,2.66479,-0.00240026,0.00211797,0.00118535,0.00241006,-0.00269236,1.32919,0.00294738,0.0323214,1903,911,36.3775,-2.66482
686,113,36.3003,2.74487,-0.00228472,0.0017745,0.00133424,0.00217378,-0.002684,1.28002,0.00280979,0.0253883,1910,911,36.3003,-2.74489
693,113,36.1598,2.83899,-0.00230894,0.00158478,0.00144651,0.00206333,-0.0027875,1.2513,0.00281101,0.0422152,1917,911,36.1598,-2.83898
700,113,35.9869,2.86078,0,0,0,0,0,0,0,-1,1924,911,35.9869,-2.86077
707,113,32.5464,3.3808,0,0,0,0,0,0,0,-1,1931,911,32.5464,-3.3808
714,113,32.62,3.69812,-0.0014369,0.00100293,0.00109717,0.00142375,-0.00185771,1.20456,0.00190006,0.0203266,1938,911,32.62,-3.69811
721,113,32.6346,4.03107,-0.00119825,0.00101043,0.000844831,0.00129653,-0.00148434,1.24428,0.00160675,0.0191899,1945,911,32.6347,-4.0311
728,113,32.6467,4.41071,-0.000889504,0.00133407,0.000868174,0.00163289,-0.00118832,1.23931,0.00163555,0.0193268,1952,911,32.6468,-4.41073
735,113,32.6091,4.73151,-0.000375592,0.00200569,0.000961195,0.00234525,-0.000715154,1.23121,0.00184859,0.0179055,1959,911,32.6091,-4.73148
742,113,32.5977,5.0368,0.000829401,0.00376984,0.000437815,0.00383364,0.000765598,1.42608,0.00234264,0.0131576,1966,911,32.5976,-5.03683
749,113,32.6107,5.34265,0.00309651,0.00710638,-0.000380528,0.00714217,0.00306072,-1.47701,0.00413755,0.00949748,1973,911,32.6107,-5.34265
756,113,32.5564,5.66528,0.00587912,0.0111257,-0.00074113,0.0112284,0.00577644,-1.43312,0.00648361,0.0133399,1980,911,32.5564,-5.66529
763,113,32.4574,6.05048,0.0100636,0.0165429,-0.00146511,0.0168588,0.00974767,-1.35844,0.00977301,0.0273672,1987,911,32.4574,-6.05051
770,113,32.4568,6.40527,0.0161486,0.0237431,-0.00305488,0.0248194,0.0150723,-1.23206,0.014439,0.0480888,1994,911,32.4568,-6.40526
777,113,32.5999,6.69946,0,0,0,0,0,0,0,-1,2001,911,32.5998,-6.69944
784,113,33.8761,5.66614,0,0,0,0,0,0,0,-1,2008,911,33.8761,-5.66615
791,113,32.6714,8.77631,0,0,0,0,0,0,0,-1,2015,911,32.6714,-8.77632
798,113,33.2717,6.18109,0,0,0,0,0,0,0,-1,2022,911,33.2718,-6.18106
805,113,0,0,0,0,0,0,0,0,0,-1,2029,911,0,0
812,113,0,0,0,0,0,0,0,0,0,-1,2036,911,0,0
-700,106,0,0,0,0,0,0,0,0,0,-1,524,918,0,0
-693,106,0,0,0,0,0,0,0,0,0,-1,531,918,0,0
-686,106,0,0,0,0,0,0,0,0,0,-1,538,918,0,0
-679,106,-28.6866,6.99878,0,0,0,0,0,0,0,-1,545,918,-28.6866,-6.99877
-672,106,-27.491,1.42114,0,0,0,0,0,0,0,-1,552,918,-27.491,-1.42117
-665,106,-26.8244,0.861572,0,0,0,0,0,0,0,-1,559,918,-26.8244,-0.861561
-658,106,-23.2979,1.44684,0,0,0,0,0,0,0,-1,566,918,-23.2979,-1.44686
-651,106,-22.9097,2.45447,0.0408236,-0.0175202,0.0241853,0.0495453,-0.026242,0.346106,0.04444,0.048425,573,918,-22.9097,-2.45448
-644,106,-23.288,2.66766,0.0298042,-0.0144539,0.0209137,0.0381231,-0.0227728,0.378584,0.0355286,0.0423638,580,918,-23.288,-2.66766
-637,106,-23.8784,3.52008,0.0206237,-0.0111722,0.017319,0.0282351,-0.0187836,0.414076,0.0273285,0.0312671,587,918,-23.8784,-3.52006
-630,106,-23.9816,3.23529,0.0133326,-0.00816466,0.0137395,0.0200284,-0.0148605,0.453467,0.0202166,0.0139424,594,918,-23.9816,-3.23527
-623,106,-24.0423,2.8999,0.00740097,-0.00610172,0.010986,0.0135443,-0.012245,0.509876,0.0148958,0.0123544,601,918,-24.0423,-2.89991
-616,106,-24.0616,2.6261,0.00235426,-0.00381838,0.00789375,0.00774359,-0.00920771,0.599044,0.009799,0.0115782,608,918,-24.0616,-2.6261
-609,106,-24.0581,2.36719,-0.00167946,-0.00207218,0.00507539,0.00320337,-0.00695501,0.766063,0.00599678,0.0108663,615,918,-24.0581,-2.36721
-602,106,-24.0624,2.08032,-0.00475536,-0.000948653,0.00308588,0.000773655,-0.00647766,1.06174,0.00459807,0.015678,622,918,-24.0624,-2.08033
-595,106,-24.1505,1.83075,-0.00602356,-0.000566558,0.00181896,-1.58332e-05,-0.00657428,1.2768,0.00437759,0.0198193,629,918,-24.1504,-1.83078
-588,106,-24.121,1.54755,-0.00610514,-5.32244e-05,0.000968393,9.79556e-05,-0.00625632,1.41593,0.00420391,0.0224318,636,918,-24.121,-1.54755
-581,106,-23.9808,1.21667,-0.00605346,0.000320686,0.000496212,0.000359084,-0.00609185,1.49357,0.00418607,0.0152486,643,918,-23.9808,-1.2167
-574,106,-23.9149,0.906921,0,0,0,0,0,0,0,-1,650,918,-23.9148,-0.906901
-567,106,-26.4609,0.722473,0,0,0,0,0,0,0,-1,657,918,-26.4609,-0.722494
-560,106,-26.4749,0.869202,-0.00476371,0.000157342,8.06051e-05,0.000158662,-0.00476503,1.55442,0.00323087,0.04427,664,918,-26.4748,-0.869227
-553,106,-26.4916,1.02228,-0.00378675,8.09759e-05,4.08779e-05,8.1408e-05,-0.00378718,1.56023,0.00255235,0.0332598,671,918,-26.4916,-1.02225
-546,106,-26.4702,0.958374,-0.00240922,4.19523e-05,7.91479e-05,4.45053e-05,-0.00241177,1.53855,0.00162289,0.0371555,678,918,-26.4702,-0.958347
-539,106,-26.4838,0.848694,-0.000415711,-0.000155882,0.000221989,-2.85871e-05,-0.000543006,1.05014,0.000352861,0.0411838,685,918,-26.4837,-0.848691
-532,106,-26.4933,0.785339,0.00226299,-0.000702146,0.000503569,0.00234617,-0.000785334,0.163717,0.00188135,0.0411918,692,918,-26.4934,-0.785339
-525,106,-26.5641,0.918213,0,0,0,0,0,0,0,-1,699,918,-26.5642,-0.918193
-518,106,-26.4362,0.996643,0,0,0,0,0,0,0,-1,706,918,-26.4362,-0.996668
-511,106,0,0,0,0,0,0,0,0,0,-1,713,918,0,0
-504,106,0,0,0,0,0,0,0,0,0,-1,720,918,0,0
-497,106,0,0,0,0,0,0,0,0,0,-1,727,918,0,0
-490,106,0,0,0,0,0,0,0,0,0,-1,734,918,0,0
-483,106,0,0,0,0,0,0,0,0,0,-1,741,918,0,0
-476,106,0,0,0,0,0,0,0,0,0,-1,748,918,0,0
-469,106,0,0,0,0,0,0,0,0,0,-1,755,918,0,0
-462,106,0,0,0,0,0,0,0,0,0,-1,762,918,0,0
-455,106,0,0,0,0,0,0,0,0,0,-1,769,918,0,0
-448,106,0,0,0,0,0,0,0,0,0,-1,776,918,0,0
-441,106,0,0,0,0,0,0,0,0,0,-1,783,918,0,0
-434,106,0,0,0,0,0,0,0,0,0,-1,790,918,0,0
-427,106,0,0,0,0,0,0,0,0,0,-1,797,918,0,0
-420,106,0,0,0,0,0,0,0,0,0,-1,804,918,0,0
-413,106,0,0,0,0,0,0,0,0,0,-1,811,918,0,0
-406,106,0,0,0,0,0,0,0,0,0,-1,818,918,0,0
-399,106,0,0,0,0,0,0,0,0,0,-1,825,918,0,0
-392,106,0,0,0,0,0,0,0,0,0,-1,832,918,0,0
-385,106,0,0,0,0,0,0,0,0,0,-1,839,918,0,0
-378,106,0,0,0,0,0,0,0,0,0,-1,846,918,0,0
-371,106,0,0,0,0,0,0,0,0,0,-1,853,918,0,0
-364,106,0,0,0,0,0,0,0,0,0,-1,860,918,0,0
-357,106,0,0,0,0,0,0,0,0,0,-1,867,918,0,0
-350,106,0,0,0,0,0,0,0,0,0,-1,874,918,0,0
-343,106,0,0,0,0,0,0,0,0,0,-1,881,918,0,0
-336,106,0,0,0,0,0,0,0,0,0,-1,888,918,0,0
-329,106,0,0,0,0,0,0,0,0,0,-1,895,918,0,0
-322,106,0,0,0,0,0,0,0,0,0,-1,902,918,0,0
-315,106,0,0,0,0,0,0,0,0,0,-1,909,918,0,0
-308,106,0,0,0,0,0,0,0,0,0,-1,916,918,0,0
-301,106,0,0,0,0,0,0,0,0,0,-1,923,918,0,0
-294,106,0,0,0,0,0,0,0,0,0,-1,930,918,0,0
-287,106,0,0,0,0,0,0,0,0,0,-1,937,918,0,0
-280,106,0,0,0,0,0,0,0,0,0,-1,944,918,0,0
-273,106,0,0,0,0,0,0,0,0,0,-1,951,918,0,0
-266,106,0,0,0,0,0,0,0,0,0,-1,958,918,0,0
-259,106,0,0,0,0,0,0,0,0,0,-1,965,918,0,0
-252,106,0,0,0,0,0,0,0,0,0,-1,972,918,0,0
-245,106,0,0,0,0,0,0,0,0,0,-1,979,918,0,0
-238,106,0,0,0,0,0,0,0,0,0,-1,986,918,0,0
-231,106,0,0,0,0,0,0,0,0,0,-1,993,918,0,0
-224,106,0,0,0,0,0,0,0,0,0,-1,1000,918,0,0
-217,106,0,0,0,0,0,0,0,0,0,-1,1007,918,0,0
-210,106,0,0,0,0,0,0,0,0,0,-1,1014,918,0,0
-203,106,0,0,0,0,0,0,0,0,0,-1,1021,918,0,0
-196,106,0,0,0,0,0,0,0,0,0,-1,1028,918,0,0
-189,106,0,0,0,0,0,0,0,0,0,-1,1035,918,0,0
-182,106,0,0,0,0,0,0,0,0,0,-1,1042,918,0,0
-175,106,0,0,0,0,0,0,0,0,0,-1,1049,918,0,0
-168,106,0,0,0,0,0,0,0,0,0,-1,1056,918,0,0
-161,106,0,0,0,0,0,0,0,0,0,-1,1063,918,0,0
-154,106,0,0,0,0,0,0,0,0,0,-1,1070,918,0,0
-147,106,0,0,0,0,0,0,0,0,0,-1,1077,918,0,0
-140,106,0,0,0,0,0,0,0,0,0,-1,1084,918,0,0
-133,106,0,0,0,0,0,0,0,0,0,-1,1091,918,0,0
-126,106,0,0,0,0,0,0,0,0,0,-1,1098,918,0,0
-119,106,0,0,0,0,0,0,0,0,0,-1,1105,918,0,0
-112,106,0,0,0,0,0,0,0,0,0,-1,1112,918,0,0
-105,106,0,0,0,0,0,0,0,0,0,-1,1119,918,0,0
-98,106,0,0,0,0,0,0,0,0,0,-1,1126,918,0,0
-91,106,0,0,0,0,0,0,0,0,0,-1,1133,918,0,0
-84,106,0,0,0,0,0,0,0,0,0,-1,1140,918,0,0
-77,106,0,0,0,0,0,0,0,0,0,-1,1147,918,0,0
-70,106,0,0,0,0,0,0,0,0,0,-1,1154,918,0,0
-63,106,0,0,0,0,0,0,0,0,0,-1,1161,918,0,0
-56,106,0,0,0,0,0,0,0,0,0,-1,1168,918,0,0
-49,106,0,0,0,0,0,0,0,0,0,-1,1175,918,0,0
-42,106,0,0,0,0,0,0,0,0,0,-1,1182,918,0,0
-35,106,0,0,0,0,0,0,0,0,0,-1,1189,918,0,0
-28,106,0,0,0,0,0,0,0,0,0,-1,1196,918,0,0
-21,106,0,0,0,0,0,0,0,0,0,-1,1203,918,0,0
-14,106,0,0,0,0,0,0,0,0,0,-1,1210,918,0,0
-7,106,0,0,0,0,0,0,0,0,0,-1,1217,918,0,0
0,106,0,0,0,0,0,0,0,0,0,-1,1224,918,0,0
7,106,0,0,0,0,0,0,0,0,0,-1,1231,918,0,0
14,106,0,0,0,0,0,0,0,0,0,-1,1238,918,0,0
21,106,0,0,0,0,0,0,0,0,0,-1,1245,918,0,0
28,106,0,0,0,0,0,0,0,0,0,-1,1252,918,0,0
35,106,0,0,0,0,0,0,0,0,0,-1,1259,918,0,0
42,106,0,0,0,0,0,0,0,0,0,-1,1266,918,0,0
49,106,0,0,0,0,0,0,0,0,0,-1,1273,918,0,0
56,106,0,0,0,0,0,0,0,0,0,-1,1280,918,0,0
63,106,0,0,0,0,0,0,0,0,0,-1,1287,918,0,0
70,106,0,0,0,0,0,0,0,0,0,-1,1294,918,0,0
77,106,0,0,0,0,0,0,0,0,0,-1,1301,918,0,0
84,106,0,0,0,0,0,0,0,0,0,-1,1308,918,0,0
91,106,0,0,0,0,0,0,0,0,0,-1,1315,918,0,0
98,106,0,0,0,0,0,0,0,0,0,-1,1322,918,0,0
105,106,0,0,0,0,0,0,0,0,0,-1,1329,918,0,0
112,106,0,0,0,0,0,0,0,0,0,-1,1336,918,0,0
119,106,0,0,0,0,0,0,0,0,0,-1,1343,918,0,0
126,106,0,0,0,0,0,0,0,0,0,-1,1350,918,0,0
133,106,0,0,0,0,0,0,0,0,0,-1,1357,918,0,0
140,106,0,0,0,0,0,0,0,0,0,-1,1364,918,0,0
147,106,0,0,0,0,0,0,0,0,0,-1,1371,918,0,0
154,106,0,0,0,0,0,0,0,0,0,-1,1378,918,0,0
161,106,0,0,0,0,0,0,0,0,0,-1,1385,918,0,0
168,106,0,0,0,0,0,0,0,0,0,-1,1392,918,0,0
175,106,0,0,0,0,0,0,0,0,0,-1,1399,918,0,0
182,106,0,0,0,0,0,0,0,0,0,-1,1406,918,0,0
189,106,0,0,0,0,0,0,0,0,0,-1,1413,918,0,0
196,106,0,0,0,0,0,0,0,0,0,-1,1420,918,0,0
203,106,0,0,0,0,0,0,0,0,0,-1,1427,918,0,0
210,106,0,0,0,0,0,0,0,0,0,-1,1434,918,0,0
217,106,0,0,0,0,0,0,0,0,0,-1,1441,918,0,0
224,106,0,0,0,0,0,0,0,0,0,-1,1448,918,0,0
231,106,0,0,0,0,0,0,0,0,0,-1,1455,918,0,0
238,106,0,0,0,0,0,0,0,0,0,-1,1462,918,0,0
245,106,0,0,0,0,0,0,0,0,0,-1,1469,918,0,0
252,106,0,0,0,0,0,0,0,0,0,-1,1476,918,0,0
259,106,0,0,0,0,0,0,0,0,0,-1,1483,918,0,0
266,106,0,0,0,0,0,0,0,0,0,-1,1490,918,0,0
273,106,0,0,0,0,0,0,0,0,0,-1,1497,918,0,0
280,106,0,0,0,0,0,0,0,0,0,-1,1504,918,0,0
287,106,0,0,0,0,0,0,0,0,0,-1,1511,918,0,0
294,106,0,0,0,0,0,0,0,0,0,-1,1518,918,0,0
301,106,0,0,0,0,0,0,0,0,0,-1,1525,918,0,0
308,106,0,0,0,0,0,0,0,0,0,-1,1532,918,0,0
315,106,0,0,0,0,0,0,0,0,0,-1,1539,918,0,0
322,106,0,0,0,0,0,0,0,0,0,-1,1546,918,0,0
329,106,0,0,0,0,0,0,0,0,0,-1,1553,918,0,0
336,106,0,0,0,0,0,0,0,0,0,-1,1560,918,0,0
343,106,0,0,0,0,0,0,0,0,0,-1,1567,918,0,0
350,106,0,0,0,0,0,0,0,0,0,-1,1574,918,0,0
357,106,0,0,0,0,0,0,0,0,0,-1,1581,918,0,0
364,106,0,0,0,0,0,0,0,0,0,-1,1588,918,0,0
371,106,0,0,0,0,0,0,0,0,0,-1,1595,918,0,0
378,106,0,0,0,0,0,0,0,0,0,-1,1602,918,0,0
385,106,0,0,0,0,0,0,0,0,0,-1,1609,918,0,0
392,106,0,0,0,0,0,0,0,0,0,-1,1616,918,0,0
399,106,0,0,0,0,0,0,0,0,0,-1,1623,918,0,0
406,106,0,0,0,0,0,0,0,0,0,-1,1630,918,0,0
413,106,0,0,0,0,0,0,0,0,0,-1,1637,918,0,0
420,106,0,0,0,0,0,0,0,0,0,-1,1644,918,0,0
427,106,0,0,0,0,0,0,0,0,0,-1,1651,918,0,0
434,106,0,0,0,0,0,0,0,0,0,-1,1658,918,0,0
441,106,0,0,0,0,0,0,0,0,0,-1,1665,918,0,0
448,106,0,0,0,0,0,0,0,0,0,-1,1672,918,0,0
455,106,0,0,0,0,0,0,0,0,0,-1,1679,918,0,0
462,106,0,0,0,0,0,0,0,0,0,-1,1686,918,0,0
469,106,0,0,0,0,0,0,0,0,0,-1,1693,918,0,0
476,106,0,0,0,0,0,0,0,0,0,-1,1700,918,0,0
483,106,0,0,0,0,0,0,0,0,0,-1,1707,918,0,0
490,106,0,0,0,0,0,0,0,0,0,-1,1714,918,0,0
497,106,0,0,0,0,0,0,0,0,0,-1,1721,918,0,0
504,106,0,0,0,0,0,0,0,0,0,-1,1728,918,0,0
511,106,0,0,0,0,0,0,0,0,0,-1,1735,918,0,0
518,106,0,0,0,0,0,0,0,0,0,-1,1742,918,0,0
525,106,0,0,0,0,0,0,0,0,0,-1,1749,918,0,0
532,106,0,0,0,0,0,0,0,0,0,-1,1756,918,0,0
539,106,0,0,0,0,0,0,0,0,0,-1,1763,918,0,0
546,106,0,0,0,0,0,0,0,0,0,-1,1770,918,0,0
553,106,0,0,0,0,0,0,0,0,0,-1,1777,918,0,0
560,106,0,0,0,0,0,0,0,0,0,-1,1784,918,0,0
567,106,0,0,0,0,0,0,0,0,0,-1,1791,918,0,0
574,106,0,0,0,0,0,0,0,0,0,-1,1798,918,0,0
581,106,0,0,0,0,0,0,0,0,0,-1,1805,918,0,0
588,106,0,0,0,0,0,0,0,0,0,-1,1812,918,0,0
595,106,0,0,0,0,0,0,0,0,0,-1,1819,918,0,0
602,106,0,0,0,0,0,0,0,0,0,-1,1826,918,0,0
609,106,0,0,0,0,0,0,0,0,0,-1,1833,918,0,0
616,106,0,0,0,0,0,0,0,0,0,-1,1840,918,0,0
623,106,0,0,0,0,0,0,0,0,0,-1,1847,918,0,0
630,106,36.5269,2.68341,0.00505723,-0.00168256,-0.00374042,0.00672191,-0.00334724,-0.418731,0.00592126,0.038308,1854,918,36.5268,-2.68339
637,106,36.2957,2.79639,0.00359488,-0.000363169,-0.00325217,0.00542284,-0.00219113,-0.512066,0.00452599,0.0387213,1861,918,36.2957,-2.79639
644,106,36.441,2.69281,0.00197112,0.00068869,-0.0025043,0.00391499,-0.00125518,-0.660068,0.00311388,0.037152,1868,918,36.4411,-2.69281
651,106,36.618,2.50311,0.000352937,0.00144161,-0.00155879,0.00254837,-0.000753821,-0.953382,0.00199816,0.0391721,1875,918,36.618,-2.50309
658,106,36.6371,2.46307,-0.00102848,0.00197449,-0.000546441,0.00207084,-0.00112483,-1.39628,0.00187177,0.0421218,1882,918,36.6371,-2.46306
665,106,36.3997,2.81342,-0.00192441,0.0021901,0.00032859,0.00221618,-0.00195049,1.4916,0.00240726,0.0440637,1889,918,36.3996,-2.81343
672,106,36.3951,2.8454,-0.00237535,0.0021048,0.00102954,0.00233006,-0.00260061,1.35539,0.00284815,0.0432168,1896,918,36.3952,-2.8454
679,106,36.4463,2.70831,-0.00251527,0.0018768,0.00148079,0.00232941,-0.00296788,1.27416,0.00306579,0.035449,1903,918,36.4463,-2.70833
686,106,36.3251,2.77893,-0.00244259,0.00156889,0.00170112,0.00219313,-0.00306683,1.21909,0.00305077,0.0270254,1910,918,36.3251,-2.77891
693,106,36.1462,2.97302,-0.00248328,0.0014082,0.00185505,0.00215079,-0.00322587,1.19002,0.00312483,0.0256576,1917,918,36.1463,-2.97303
700,106,35.9885,3.19714,0,0,0,0,0,0,0,-1,1924,918,35.9885,-3.19713
707,106,32.834,3.35992,0,0,0,0,0,0,0,-1,1931,918,32.8339,-3.3599
714,106,32.9712,3.68982,-0.00188537,0.00097884,0.00143985,0.00157752,-0.00248405,1.17675,0.00236434,0.0257002,1938,918,32.9712,-3.68985
721,106,32.9883,4.04865,-0.0017388,0.00104523,0.00114157,0.00145347,-0.00214704,1.22736,0.00209157,0.0209844,1945,918,32.9882,-4.04862
728,106,33.0272,4.41327,-0.00151063,0.001345,0.00107869,0.00170667,-0.00187229,1.2473,0.00206705,0.0205667,1952,918,33.0272,-4.41327
735,106,32.988,4.72363,-0.00111262,0.0020584,0.000981761,0.00233775,-0.00139197,1.29358,0.00217631,0.0190721,1959,918,32.9881,-4.72361
742,106,32.9414,5.0152,-9.17206e-05,0.00381251,0.000182474,0.00382102,-0.000100231,1.52419,0.0025814,0.0119133,1966,918,32.9414,-5.0152
749,106,32.9363,5.31592,0.00190471,0.00720682,-0.0010246,0.00739793,0.0017136,-1.38639,0.00447157,0.00942804,1973,918,32.9362,-5.31591
756,106,32.9009,5.61084,0.00436404,0.0113918,-0.00188455,0.0118652,0.00389058,-1.32466,0.00698436,0.0117285,1980,918,32.9008,-5.61086
763,106,32.8304,6.0025,0.00821925,0.0170677,-0.00319016,0.0180979,0.00718904,-1.25843,0.0105221,0.0210099,1987,918,32.8305,-6.00251
770,106,32.8403,6.37006,0.0139606,0.0245,-0.0054839,0.0268357,0.0116249,-1.16814,0.0155397,0.0399058,1994,918,32.8404,-6.37003
777,106,32.9348,6.69476,0,0,0,0,0,0,0,-1,2001,918,32.9349,-6.69479
784,106,33.2732,7.54718,0,0,0,0,0,0,0,-1,2008,918,33.2732,-7.5472
791,106,33.6536,7.92932,0,0,0,0,0,0,0,-1,2015,918,33.6537,-7.9293
798,106,34.0923,7.67114,0,0,0,0,0,0,0,-1,2022,918,34.0922,-7.67112
805,106,0,0,0,0,0,0,0,0,0,-1,2029,918,0,0
812,106,0,0,0,0,0,0,0,0,0,-1,2036,918,0,0
-700,99,0,0,0,0,0,0,0,0,0,-1,524,925,0,0
-693,99,0,0,0,0,0,0,0,0,0,-1,531,925,0,0
-686,99,0,0,0,0,0,0,0,0,0,-1,538,925,0,0
-679,99,-27.313,2.97406,0,0,0,0,0,0,0,-1,545,925,-27.3131,-2.97403
-672,99,-26.8345,2.38623,0,0,0,0,0,0,0,-1,552,925,-26.8345,-2.38625
-665,99,-29.4893,-2.10565,0,0,0,0,0,0,0,-1,559,925,-29.4893,2.10565
-658,99,-28.3497,0.0940552,0,0,0,0,0,0,0,-1,566,925,-28.3497,-0.0940847
-651,99,-22.5029,3.1767,0,0,0,0,0,0,0,-1,573,925,-22.5029,-3.17668
-644,99,-24.0679,3.70538,0,0,0,0,0,0,0,-1,580,925,-24.0679,-3.70536
-637,99,-24.1494,3.44543,0.020236,-0.00838295,0.0179365,0.0288716,-0.0170186,0.448704,0.0267877,0.0303788,587,925,-24.1494,-3.44542
-630,99,-24.2598,3.20453,0.0132551,-0.0060999,0.0141489,0.0207195,-0.0135643,0.485453,0.019937,0.0147962,594,925,-24.2598,-3.2045
-623,99,-24.3687,2.90234,0.00723988,-0.00442042,0.0111943,0.0140313,-0.0112118,0.545319,0.0146044,0.00930332,601,925,-24.3687,-2.90235
-616,99,-24.371,2.63263,0.0019988,-0.00268203,0.00797061,0.00796549,-0.00864873,0.642597,0.00959493,0.00993829,608,925,-24.371,-2.63266
-609,99,-24.358,2.37769,-0.00227541,-0.0015181,0.0051442,0.00326137,-0.00705487,0.822136,0.00608884,0.0101248,615,925,-24.358,-2.3777
-602,99,-24.3588,2.12323,-0.00549961,-0.000689277,0.00305344,0.000792496,-0.00698138,1.11899,0.00493966,0.0129583,622,925,-24.3587,-2.1232
-595,99,-24.4453,1.88055,-0.0068201,-0.000395787,0.00160081,-1.89953e-05,-0.00719689,1.33963,0.00479161,0.0176331,629,925,-24.4453,-1.88057
-588,99,-24.4298,1.60175,-0.00699307,5.75723e-05,0.000770126,0.000140711,-0.00707621,1.46326,0.00476507,0.0182338,636,925,-24.4298,-1.60177
-581,99,-24.3208,1.26379,-0.00697685,0.000372915,0.000307128,0.000385727,-0.00698966,1.52911,0.00479352,0.0121321,643,925,-24.3208,-1.26379
-574,99,-24.2668,0.928589,0,0,0,0,0,0,0,-1,650,925,-24.2668,-0.928615
-567,99,-26.4698,0.820496,0,0,0,0,0,0,0,-1,657,925,-26.4698,-0.820494
-560,99,-26.4031,0.904907,-0.0057209,0.000302259,1.09663e-05,0.000302279,-0.00572092,1.56898,0.00391859,0.0365916,664,925,-26.4031,-0.904934
-553,99,-26.4541,1.07349,-0.00463576,0.000300438,6.99418e-05,0.000301429,-0.00463675,1.55663,0.00319638,0.0370931,671,925,-26.4541,-1.07348
-546,99,-26.5063,0.879272,-0.00300847,0.000289525,0.000242096,0.000307202,-0.00302615,1.49791,0.00212724,0.0414422,678,925,-26.5063,-0.879278
-539,99,-26.5269,0.851196,-0.000672697,0.000103357,0.000575783,0.000409658,-0.000978998,1.0819,0.000823896,0.0424838,685,925,-26.5269,-0.851196
-532,99,-26.4001,0.691345,0.0024201,-0.000451282,0.00111213,0.00280046,-0.00083164,0.329539,0.00219729,0.0463947,692,925,-26.4001,-0.691357
-525,99,-26.4525,0.979919,0.0060221,-0.0016505,0.00173847,0.00639763,-0.00202603,0.212741,0.00507702,0.0458298,699,925,-26.4524,-0.979914
-518,99,-26.4332,1.0047,0.0080237,-0.00306098,0.0026471,0.00862341,-0.00366068,0.22279,0.00728259,0.0420232,706,925,-26.4332,-1.00469
-511,99,0,0,0,0,0,0,0,0,0,-1,713,925,0,0
-504,99,0,0,0,0,0,0,0,0,0,-1,720,925,0,0
-497,99,0,0,0,0,0,0,0,0,0,-1,727,925,0,0
-490,99,0,0,0,0,0,0,0,0,0,-1,734,925,0,0
-483,99,0,0,0,0,0,0,0,0,0,-1,741,925,0,0
-476,99,0,0,0,0,0,0,0,0,0,-1,748,925,0,0
-469,99,0,0,0,0,0,0,0,0,0,-1,755,925,0,0
-462,99,0,0,0,0,0,0,0,0,0,-1,762,925,0,0
-455,99,0,0,0,0,0,0,0,0,0,-1,769,925,0,0
-448,99,0,0,0,0,0,0,0,0,0,-1,776,925,0,0
-441,99,0,0,0,0,0,0,0,0,0,-1,783,925,0,0
-434,99,0,0,0,0,0,0,0,0,0,-1,790,925,0,0
-427,99,0,0,0,0,0,0,0,0,0,-1,797,925,0,0
-420,99,0,0,0,0,0,0,0,0,0,-1,804,925,0,0
-413,99,0,0,0,0,0,0,0,0,0,-1,811,925,0,0
-406,99,0,0,0,0,0,0,0,0,0,-1,818,925,0,0
-399,99,0,0,0,0,0,0,0,0,0,-1,825,925,0,0
-392,99,0,0,0,0,0,0,0,0,0,-1,832,925,0,0
-385,99,0,0,0,0,0,0,0,0,0,-1,839,925,0,0
-378,99,0,0,0,0,0,0,0,0,0,-1,846,925,0,0
-371,99,0,0,0,0,0,0,0,0,0,-1,853,925,0,0
-364,99,0,0,0,0,0,0,0,0,0,-1,860,925,0,0
-357,99,0,0,0,0,0,0,0,0,0,-1,867,925,0,0
-350,99,0,0,0,0,0,0,0,0,0,-1,874,925,0,0
-343,99,0,0,0,0,0,0,0,0,0,-1,881,925,0,0
-336,99,0,0,0,0,0,0,0,0,0,-1,888,925,0,0
-329,99,0,0,0,0,0,0,0,0,0,-1,895,925,0,0
-322,99,0,0,0,0,0,0,0,0,0,-1,902,925,0,0
-315,99,0,0,0,0,0,0,0,0,0,-1,909,925,0,0
-308,99,0,0,0,0,0,0,0,0,0,-1,916,925,0,0
-301,99,0,0,0,0,0,0,0,0,0,-1,923,925,0,0
-294,99,0,0,0,0,0,0,0,0,0,-1,930,925,0,0
-287,99,0,0,0,0,0,0,0,0,0,-1,937,925,0,0
-280,99,0,0,0,0,0,0,0,0,0,-1,944,925,0,0
-273,99,0,0,0,0,0,0,0,0,0,-1,951,925,0,0
-266,99,0,0,0,0,0,0,0,0,0,-1,958,925,0,0
-259,99,0,0,0,0,0,0,0,0,0,-1,965,925,0,0
-252,99,0,0,0,0,0,0,0,0,0,-1,972,925,0,0
-245,99,0,0,0,0,0,0,0,0,0,-1,979,925,0,0
-238,99,0,0,0,0,0,0,0,0,0,-1,986,925,0,0
-231,99,0,0,0,0,0,0,0,0,0,-1,993,925,0,0
-224,99,0,0,0,0,0,0,0,0,0,-1,1000,925,0,0
-217,99,0,0,0,0,0,0,0,0,0,-1,1007,925,0,0
-210,99,0,0,0,0,0,0,0,0,0,-1,1014,925,0,0
-203,99,0,0,0,0,0,0,0,0,0,-1,1021,925,0,0
-196,99,0,0,0,0,0,0,0,0,0,-1,1028,925,0,0
-189,99,0,0,0,0,0,0,0,0,0,-1,1035,925,0,0
-182,99,0,0,0,0,0,0,0,0,0,-1,1042,925,0,0
-175,99,0,0,0,0,0,0,0,0,0,-1,1049,925,0,0
-168,99,0,0,0,0,0,0,0,0,0,-1,1056,925,0,0
-161,99,0,0,0,0,0,0,0,0,0,-1,1063,925,0,0
-154,99,0,0,0,0,0,0,0,0,0,-1,1070,925,0,0
-147,99,0,0,0,0,0,0,0,0,0,-1,1077,925,0,0
-140,99,0,0,0,0,0,0,0,0,0,-1,1084,925,0,0
-133,99,0,0,0,0,0,0,0,0,0,-1,1091,925,0,0
-126,99,0,0,0,0,0,0,0,0,0,-1,1098,925,0,0
-119,99,0,0,0,0,0,0,0,0,0,-1,1105,925,0,0
-112,99,0,0,0,0,0,0,0,0,0,-1,1112,925,0,0
-105,99,0,0,0,0,0,0,0,0,0,-1,1119,925,0,0
-98,99,0,0,0,0,0,0,0,0,0,-1,1126,925,0,0
-91,99,0,0,0,0,0,0,0,0,0,-1,1133,925,0,0
-84,99,0,0,0,0,0,0,0,0,0,-1,1140,925,0,0
-77,99,0,0,0,0,0,0,0,0,0,-1,1147,925,0,0
-70,99,0,0,0,0,0,0,0,0,0,-1,1154,925,0,0
-63,99,0,0,0,0,0,0,0,0,0,-1,1161,925,0,0
-56,99,0,0,0,0,0,0,0,0,0,-1,1168,925,0,0
-49,99,0,0,0,0,0,0,0,0,0,-1,1175,925,0,0
-42,99,0,0,0,0,0,0,0,0,0,-1,1182,925,0,0
-35,99,0,0,0,0,0,0,0,0,0,-1,1189,925,0,0
-28,99,0,0,0,0,0,0,0,0,0,-1,1196,925,0,0
-21,99,0,0,0,0,0,0,0,0,0,-1,1203,925,0,0
-14,99,0,0,0,0,0,0,0,0,0,-1,1210,925,0,0
-7,99,0,0,0,0,0,0,0,0,0,-1,1217,925,0,0
0,99,0,0,0,0,0,0,0,0,0,-1,1224,925,0,0
7,99,0,0,0,0,0,0,0,0,0,-1,1231,925,0,0
14,99,0,0,0,0,0,0,0,0,0,-1,1238,925,0,0
21,99,0,0,0,0,0,0,0,0,0,-1,1245,925,0,0
28,99,0,0,0,0,0,0,0,0,0,-1,1252,925,0,0
35,99,0,0,0,0,0,0,0,0,0,-1,1259,925,0,0
42,99,0,0,0,0,0,0,0,0,0,-1,1266,925,0,0
49,99,0,0,0,0,0,0,0,0,0,-1,1273,925,0,0
56,99,0,0,0,0,0,0,0,0,0,-1,1280,925,0,0
63,99,0,0,0,0,0,0,0,0,0,-1,1287,925,0,0
70,99,0,0,0,0,0,0,0,0,0,-1,1294,925,0,0
77,99,0,0,0,0,0,0,0,0,0,-1,1301,925,0,0
84,99,0,0,0,0,0,0,0,0,0,-1,1308,925,0,0
91,99,0,0,0,0,0,0,0,0,0,-1,1315,925,0,0
98,99,0,0,0,0,0,0,0,0,0,-1,1322,925,0,0
105,99,0,0,0,0,0,0,0,0,0,-1,1329,925,0,0
112,99,0,0,0,0,0,0,0,0,0,-1,1336,925,0,0
119,99,0,0,0,0,0,0,0,0,0,-1,1343,925,0,0
126,99,0,0,0,0,0,0,0,0,0,-1,1350,925,0,0
133,99,0,0,0,0,0,0,0,0,0,-1,1357,925,0,0
140,99,0,0,0,0,0,0,0,0,0,-1,1364,925,0,0
147,99,0,0,0,0,0,0,0,0,0,-1,1371,925,0,0
154,99,0,0,0,0,0,0,0,0,0,-1,1378,925,0,0
161,99,0,0,0,0,0,0,0,0,0,-1,1385,925,0,0
168,99,0,0,0,0,0,0,0,0,0,-1,1392,925,0,0
175,99,0,0,0,0,0,0,0,0,0,-1,1399,925,0,0
182,99,0,0,0,0,0,0,0,0,0,-1,1406,925,0,0
189,99,0,0,0,0,0,0,0,0,0,-1,1413,925,0,0
196,99,0,0,0,0,0,0,0,0,0,-1,1420,925,0,0
203,99,0,0,0,0,0,0,0,0,0,-1,1427,925,0,0
210,99,0,0,0,0,0,0,0,0,0,-1,1434,925,0,0
217,99,0,0,0,0,0,0,0,0,0,-1,1441,925,0,0
224,99,0,0,0,0,0,0,0,0,0,-1,1448,925,0,0
231,99,0,0,0,0,0,0,0,0,0,-1,1455,925,0,0
238,99,0,0,0,0,0,0,0,0,0,-1,1462,925,0,0
245,99,0,0,0,0,0,0,0,0,0,-1,1469,925,0,0
252,99,0,0,0,0,0,0,0,0,0,-1,1476,925,0,0
259,99,0,0,0,0,0,0,0,0,0,-1,1483,925,0,0
266,99,0,0,0,0,0,0,0,0,0,-1,1490,925,0,0
273,99,0,0,0,0,0,0,0,0,0,-1,1497,925,0,0
280,99,0,0,0,0,0,0,0,0,0,-1,1504,925,0,0
287,99,0,0,0,0,0,0,0,0,0,-1,1511,925,0,0
294,99,0,0,0,0,0,0,0,0,0,-1,1518,925,0,0
301,99,0,0,0,0,0,0,0,0,0,-1,1525,925,0,0
308,99,0,0,0,0,0,0,0,0,0,-1,1532,925,0,0
315,99,0,0,0,0,0,0,0,0,0,-1,1539,925,0,0
322,99,0,0,0,0,0,0,0,0,0,-1,1546,925,0,0
329,99,0,0,0,0,0,0,0,0,0,-1,1553,925,0,0
336,99,0,0,0,0,0,0,0,0,0,-1,1560,925,0,0
343,99,0,0,0,0,0,0,0,0,0,-1,1567,925,0,0
350,99,0,0,0,0,0,0,0,0,0,-1,1574,925,0,0
357,99,0,0,0,0,0,0,0,0,0,-1,1581,925,0,0
364,99,0,0,0,0,0,0,0,0,0,-1,1588,925,0,0
371,99,0,0,0,0,0,0,0,0,0,-1,1595,925,0,0
378,99,0,0,0,0,0,0,0,0,0,-1,1602,925,0,0
385,99,0,0,0,0,0,0,0,0,0,-1,1609,925,0,0
392,99,0,0,0,0,0,0,0,0,0,-1,1616,925,0,0
399,99,0,0,0,0,0,0,0,0,0,-1,1623,925,0,0
406,99,0,0,0,0,0,0,0,0,0,-1,1630,925,0,0
413,99,0,0,0,0,0,0,0,0,0,-1,1637,925,0,0
420,99,0,0,0,0,0,0,0,0,0,-1,1644,925,0,0
427,99,0,0,0,0,0,0,0,0,0,-1,1651,925,0,0
434,99,0,0,0,0,0,0,0,0,0,-1,1658,925,0,0
441,99,0,0,0,0,0,0,0,0,0,-1,1665,925,0,0
448,99,0,0,0,0,0,0,0,0,0,-1,1672,925,0,0
455,99,0,0,0,0,0,0,0,0,0,-1,1679,925,0,0
462,99,0,0,0,0,0,0,0,0,0,-1,1686,925,0,0
469,99,0,0,0,0,0,0,0,0,0,-1,1693,925,0,0
476,99,0,0,0,0,0,0,0,0,0,-1,1700,925,0,0
483,99,0,0,0,0,0,0,0,0,0,-1,1707,925,0,0
490,99,0,0,0,0,0,0,0,0,0,-1,1714,925,0,0
497,99,0,0,0,0,0,0,0,0,0,-1,1721,925,0,0
504,99,0,0,0,0,0,0,0,0,0,-1,1728,925,0,0
511,99,0,0,0,0,0,0,0,0,0,-1,1735,925,0,0
518,99,0,0,0,0,0,0,0,0,0,-1,1742,925,0,0
525,99,0,0,0,0,0,0,0,0,0,-1,1749,925,0,0
532,99,0,0,0,0,0,0,0,0,0,-1,1756,925,0,0
539,99,0,0,0,0,0,0,0,0,0,-1,1763,925,0,0
546,99,0,0,0,0,0,0,0,0,0,-1,1770,925,0,0
553,99,0,0,0,0,0,0,0,0,0,-1,1777,925,0,0
560,99,0,0,0,0,0,0,0,0,0,-1,1784,925,0,0
567,99,0,0,0,0,0,0,0,0,0,-1,1791,925,0,0
574,99,0,0,0,0,0,0,0,0,0,-1,1798,925,0,0
581,99,0,0,0,0,0,0,0,0,0,-1,1805,925,0,0
588,99,0,0,0,0,0,0,0,0,0,-1,1812,925,0,0
595,99,0,0,0,0,0,0,0,0,0,-1,1819,925,0,0
602,99,0,0,0,0,0,0,0,0,0,-1,1826,925,0,0
609,99,0,0,0,0,0,0,0,0,0,-1,1833,925,0,0
616,99,0,0,0,0,0,0,0,0,0,-1,1840,925,0,0
623,99,0,0,0,0,0,0,0,0,0,-1,1847,925,0,0
630,99,0,0,0,0,0,0,0,0,0,-1,1854,925,0,0
637,99,36.3689,2.78979,0.00478539,-0.00105488,-0.00441761,0.00716077,-0.00343026,-0.493356,0.0062399,0.0420578,1861,925,36.3689,-2.7898
644,99,36.4547,2.60089,0.00298897,8.53472e-05,-0.00349871,0.00532513,-0.00225081,-0.588732,0.00449241,0.0372184,1868,925,36.4547,-2.60089
651,99,36.5742,2.40363,0.00120488,0.000911894,-0.0023695,0.00343241,-0.00131563,-0.754525,0.00283063,0.0356113,1875,925,36.5742,-2.4036
658,99,36.4758,2.45654,-0.000406299,0.00159041,-0.00111568,0.0020892,-0.000905092,-1.15038,0.00177324,0.0366342,1882,925,36.4759,-2.45656
665,99,36.3488,2.58026,-0.00157464,0.00202329,5.95579e-05,0.00202428,-0.00157563,1.55425,0.00208378,0.0414772,1889,925,36.3488,-2.58029
672,99,36.4316,2.68793,-0.00226646,0.00210773,0.00101867,0.00233333,-0.00249205,1.35285,0.00278644,0.0413804,1896,925,36.4317,-2.68792
679,99,36.4272,2.65143,-0.0025635,0.00198244,0.00166699,0.0025282,-0.00310926,1.2544,0.00326055,0.0362415,1903,925,36.4272,-2.65144
686,99,36.2888,2.75989,-0.0025684,0.00174782,0.00200695,0.00253679,-0.00335737,1.19623,0.00341397,0.0275068,1910,925,36.2888,-2.75986
693,99,36.2054,2.96875,-0.00264491,0.00163814,0.0022354,0.00259228,-0.00359905,1.16738,0.00359029,0.0258016,1917,925,36.2055,-2.96875
700,99,36.1438,3.19574,0,0,0,0,0,0,0,-1,1924,925,36.1438,-3.19573
707,99,33.3906,3.37616,0,0,0,0,0,0,0,-1,1931,925,33.3906,-3.37616
714,99,33.4065,3.73395,-0.00220493,0.00136653,0.0018524,0.00215378,-0.00299218,1.16894,0.00298414,0.0288597,1938,925,33.4065,-3.73393
721,99,33.2887,4.02075,-0.00211136,0.00144965,0.00154576,0.00202702,-0.00268873,1.21332,0.00273156,0.0241274,1945,925,33.2887,-4.02078
728,99,33.3485,4.38208,-0.00188962,0.0017027,0.00143319,0.00220442,-0.00239134,1.23406,0.00265409,0.0196656,1952,925,33.3486,-4.38206
735,99,33.3337,4.7088,-0.00149569,0.00239777,0.0012026,0.00273928,-0.0018372,1.29411,0.00265928,0.0170375,1959,925,33.3338,-4.70882
742,99,33.2836,5.00391,-0.000520079,0.00401453,0.000250577,0.00402834,-0.000533884,1.51576,0.00288006,0.012929,1966,925,33.2836,-5.00393
749,99,33.2399,5.30151,0.00135433,0.00725039,-0.001173,0.00747519,0.00112954,-1.38145,0.00465287,0.011423,1973,925,33.2398,-5.30151
756,99,33.2167,5.56726,0.00365271,0.0113493,-0.00233209,0.0120008,0.00300123,-1.29839,0.00721141,0.0120767,1980,925,33.2167,-5.56724
763,99,33.1946,5.85565,0.00728566,0.0170333,-0.00394461,0.0184296,0.00588939,-1.23059,0.0108688,0.0145095,1987,925,33.1946,-5.85565
770,99,33.2809,6.20514,0.012688,0.0244912,-0.00651072,0.027377,0.0098022,-1.15358,0.0160171,0.0261513,1994,925,33.2808,-6.20516
777,99,33.7013,6.56622,0.0205196,0.0342968,-0.0106462,0.0400887,0.0147277,-1.07255,0.023415,0.0391314,2001,925,33.7013,-6.56622
784,99,34.189,6.97925,0,0,0,0,0,0,0,-1,2008,925,34.1889,-6.97925
791,99,34.6177,7.11377,0.0469781,0.064029,-0.0272155,0.0840231,0.026984,-0.937185,0.0495345,0.0459383,2015,925,34.6177,-7.11377
798,99,35.3965,6.46271,0.0669038,0.0855761,-0.0419817,0.119247,0.0332326,-0.894811,0.07106,0.0449026,2022,925,35.3965,-6.46272
805,99,0,0,0,0,0,0,0,0,0,-1,2029,925,0,0
812,99,0,0,0,0,0,0,0,0,0,-1,2036,925,0,0
-700,92,0,0,0,0,0,0,0,0,0,-1,524,932,0,0
-693,92,0,0,0,0,0,0,0,0,0,-1,531,932,0,0
-686,92,-27.2068,4.28729,0,0,0,0,0,0,0,-1,538,932,-27.2069,-4.28726
-679,92,-26.6923,3.75134,0,0,0,0,0,0,0,-1,545,932,-26.6923,-3.75135
-672,92,-26.1708,3.2038,0,0,0,0,0,0,0,-1,552,932,-26.1708,-3.20381
-665,92,-28.6744,-1.5462,0,0,0,0,0,0,0,-1,559,932,-28.6745,1.54623
-658,92,-27.5284,0.680664,0,0,0,0,0,0,0,-1,566,932,-27.5284,-0.680675
-651,92,-24.3588,3.87982,0,0,0,0,0,0,0,-1,573,932,-24.3587,-3.8798
-644,92,-24.4315,3.63129,0.0302725,-0.00650012,0.021582,0.0402382,-0.0164658,0.432592,0.0336834,0.0470551,580,932,-24.4314,-3.63129
-637,92,-24.5118,3.3775,0.0220885,-0.00513262,0.0175714,0.0307041,-0.0137482,0.455872,0.0262795,0.0256481,587,932,-24.5118,-3.3775
-630,92,-24.5748,3.12946,0.0148222,-0.00369528,0.0136984,0.0220974,-0.0109705,0.488215,0.0194487,0.0123991,594,932,-24.5748,-3.12945
-623,92,-24.6382,2.8913,0.00823262,-0.00253796,0.0106639,0.0147939,-0.00909921,0.551577,0.0139247,0.00897032,601,932,-24.6382,-2.8913
-616,92,-24.6495,2.63623,0.00248832,-0.001406,0.0074914,0.00828148,-0.00719915,0.658252,0.00894503,0.00843935,608,932,-24.6495,-2.63623
-609,92,-24.6588,2.38379,-0.00226074,-0.000762785,0.00477958,0.00332614,-0.00634967,0.863118,0.00567652,0.00841224,615,932,-24.6588,-2.38379
-602,92,-24.6292,2.12714,-0.00586679,-0.000259766,0.00272322,0.000845126,-0.00697168,1.18536,0.00495358,0.00981707,622,932,-24.6292,-2.12713
-595,92,-24.5671,1.81671,-0.00743804,-0.000227938,0.00121634,-2.82705e-05,-0.0076377,1.40809,0.0050824,0.0190394,629,932,-24.5671,-1.81673
-588,92,-24.5944,1.57129,-0.00771166,9.08029e-05,0.000427811,0.00011419,-0.00773505,1.51618,0.00519518,0.0203787,636,932,-24.5944,-1.57127
-581,92,-24.6273,1.30151,-0.00772351,0.000322884,-8.87583e-06,0.000322893,-0.00772352,-1.56969,0.00525995,0.0178167,643,932,-24.6273,-1.30153
-574,92,-25.0981,1.07928,-0.00772869,0.000320403,-8.89463e-05,0.000321385,-0.00772967,-1.55975,0.00526351,0.035308,650,932,-25.0981,-1.0793
-567,92,-26.1624,1.36218,0,0,0,0,0,0,0,-1,657,932,-26.1623,-1.36216
-560,92,-26.3882,0.830872,-0.00641772,0.000276416,-0.0001853,0.000281542,-0.00642284,-1.54314,0.00437876,0.0351144,664,932,-26.3882,-0.830869
-553,92,-26.4861,1.13617,-0.00512266,0.000322978,-4.26821e-05,0.000323313,-0.005123,-1.56296,0.00352804,0.0381987,671,932,-26.4862,-1.13619
-546,92,-26.593,0.756104,-0.00317838,0.000334275,0.000256594,0.000352919,-0.00319702,1.49826,0.0022582,0.0415262,678,932,-26.593,-0.756115
-539,92,-26.5223,0.654541,-0.000452218,0.000182316,0.000763723,0.00069205,-0.000961953,0.982263,0.000959168,0.04233,685,932,-26.5223,-0.654523
-532,92,-26.4409,0.614258,0.00306584,-0.000298714,0.00149953,0.00363715,-0.000870019,0.364012,0.00276085,0.0481963,692,932,-26.4409,-0.614233
-525,92,-26.4644,1.05719,0.00681444,-0.00126236,0.00231258,0.00742972,-0.00187764,0.260032,0.00568337,0.0449083,699,932,-26.4644,-1.05719
-518,92,-26.4265,1.18823,0.00825727,-0.00230675,0.00339285,0.00925308,-0.00330256,0.285486,0.00751548,0.040658,706,932,-26.4265,-1.18821
-511,92,0,0,0,0,0,0,0,0,0,-1,713,932,0,0
-504,92,0,0,0,0,0,0,0,0,0,-1,720,932,0,0
-497,92,0,0,0,0,0,0,0,0,0,-1,727,932,0,0
-490,92,0,0,0,0,0,0,0,0,0,-1,734,932,0,0
-483,92,0,0,0,0,0,0,0,0,0,-1,741,932,0,0
-476,92,0,0,0,0,0,0,0,0,0,-1,748,932,0,0
-469,92,0,0,0,0,0,0,0,0,0,-1,755,932,0,0
-462,92,0,0,0,0,0,0,0,0,0,-1,762,932,0,0
-455,92,0,0,0,0,0,0,0,0,0,-1,769,932,0,0
-448,92,0,0,0,0,0,0,0,0,0,-1,776,932,0,0
-441,92,0,0,0,0,0,0,0,0,0,-1,783,932,0,0
-434,92,0,0,0,0,0,0,0,0,0,-1,790,932,0,0
-427,92,0,0,0,0,0,0,0,0,0,-1,797,932,0,0
-420,92,0,0,0,0,0,0,0,0,0,-1,804,932,0,0
-413,92,0,0,0,0,0,0,0,0,0,-1,811,932,0,0
-406,92,0,0,0,0,0,0,0,0,0,-1,818,932,0,0
-399,92,0,0,0,0,0,0,0,0,0,-1,825,932,0,0
-392,92,0,0,0,0,0,0,0,0,0,-1,832,932,0,0
-385,92,0,0,0,0,0,0,0,0,0,-1,839,932,0,0
-378,92,0,0,0,0,0,0,0,0,0,-1,846,932,0,0
-371,92,0,0,0,0,0,0,0,0,0,-1,853,932,0,0
-364,92,0,0,0,0,0,0,0,0,0,-1,860,932,0,0
-357,92,0,0,0,0,0,0,0,0,0,-1,867,932,0,0
-350,92,0,0,0,0,0,0,0,0,0,-1,874,932,0,0
-343,92,0,0,0,0,0,0,0,0,0,-1,881,932,0,0
-336,92,0,0,0,0,0,0,0,0,0,-1,888,932,0,0
-329,92,0,0,0,0,0,0,0,0,0,-1,895,932,0,0
-322,92,0,0,0,0,0,0,0,0,0,-1,902,932,0,0
-315,92,0,0,0,0,0,0,0,0,0,-1,909,932,0,0
-308,92,0,0,0,0,0,0,0,0,0,-1,916,932,0,0
-301,92,0,0,0,0,0,0,0,0,0,-1,923,932,0,0
-294,92,0,0,0,0,0,0,0,0,0,-1,930,932,0,0
-287,92,0,0,0,0,0,0,0,0,0,-1,937,932,0,0
-280,92,0,0,0,0,0,0,0,0,0,-1,944,932,0,0
-273,92,0,0,0,0,0,0,0,0,0,-1,951,932,0,0
-266,92,0,0,0,0,0,0,0,0,0,-1,958,932,0,0
-259,92,0,0,0,0,0,0,0,0,0,-1,965,932,0,0
-252,92,0,0,0,0,0,0,0,0,0,-1,972,932,0,0
-245,92,0,0,0,0,0,0,0,0,0,-1,979,932,0,0
-238,92,0,0,0,0,0,0,0,0,0,-1,986,932,0,0
-231,92,0,0,0,0,0,0,0,0,0,-1,993,932,0,0
-224,92,0,0,0,0,0,0,0,0,0,-1,1000,932,0,0
-217,92,0,0,0,0,0,0,0,0,0,-1,1007,932,0,0
-210,92,0,0,0,0,0,0,0,0,0,-1,1014,932,0,0
-203,92,0,0,0,0,0,0,0,0,0,-1,1021,932,0,0
-196,92,0,0,0,0,0,0,0,0,0,-1,1028,932,0,0
-189,92,0,0,0,0,0,0,0,0,0,-1,1035,932,0,0
-182,92,0,0,0,0,0,0,0,0,0,-1,1042,932,0,0
-175,92,0,0,0,0,0,0,0,0,0,-1,1049,932,0,0
-168,92,0,0,0,0,0,0,0,0,0,-1,1056,932,0,0
-161,92,0,0,0,0,0,0,0,0,0,-1,1063,932,0,0
-154,92,0,0,0,0,0,0,0,0,0,-1,1070,932,0,0
-147,92,0,0,0,0,0,0,0,0,0,-1,1077,932,0,0
-140,92,0,0,0,0,0,0,0,0,0,-1,1084,932,0,0
-133,92,0,0,0,0,0,0,0,0,0,-1,1091,932,0,0
-126,92,0,0,0,0,0,0,0,0,0,-1,1098,932,0,0
-119,92,0,0,0,0,0,0,0,0,0,-1,1105,932,0,0
-112,92,0,0,0,0,0,0,0,0,0,-1,1112,932,0,0
-105,92,0,0,0,0,0,0,0,0,0,-1,1119,932,0,0
-98,92,0,0,0,0,0,0,0,0,0,-1,1126,932,0,0
-91,92,0,0,0,0,0,0,0,0,0,-1,1133,932,0,0
-84,92,0,0,0,0,0,0,0,0,0,-1,1140,932,0,0
-77,92,0,0,0,0,0,0,0,0,0,-1,1147,932,0,0
-70,92,0,0,0,0,0,0,0,0,0,-1,1154,932,0,0
-63,92,0,0,0,0,0,0,0,0,0,-1,1161,932,0,0
-56,92,0,0,0,0,0,0,0,0,0,-1,1168,932,0,0
-49,92,0,0,0,0,0,0,0,0,0,-1,1175,932,0,0
-42,92,0,0,0,0,0,0,0,0,0,-1,1182,932,0,0
-35,92,0,0,0,0,0,0,0,0,0,-1,1189,932,0,0
-28,92,0,0,0,0,0,0,0,0,0,-1,1196,932,0,0
-21,92,0,0,0,0,0,0,0,0,0,-1,1203,932,0,0
-14,92,0,0,0,0,0,0,0,0,0,-1,1210,932,0,0
-7,92,0,0,0,0,0,0,0,0,0,-1,1217,932,0,0
0,92,0,0,0,0,0,0,0,0,0,-1,1224,932,0,0
7,92,0,0,0,0,0,0,0,0,0,-1,1231,932,0,0
14,92,0,0,0,0,0,0,0,0,0,-1,1238,932,0,0
21,92,0,0,0,0,0,0,0,0,0,-1,1245,932,0,0
28,92,0,0,0,0,0,0,0,0,0,-1,1252,932,0,0
35,92,0,0,0,0,0,0,0,0,0,-1,1259,932,0,0
42,92,0,0,0,0,0,0,0,0,0,-1,1266,932,0,0
49,92,0,0,0,0,0,0,0,0,0,-1,1273,932,0,0
56,92,0,0,0,0,0,0,0,0,0,-1,1280,932,0,0
63,92,0,0,0,0,0,0,0,0,0,-1,1287,932,0,0
70,92,0,0,0,0,0,0,0,0,0,-1,1294,932,0,0
77,92,0,0,0,0,0,0,0,0,0,-1,1301,932,0,0
84,92,0,0,0,0,0,0,0,0,0,-1,1308,932,0,0
91,92,0,0,0,0,0,0,0,0,0,-1,1315,932,0,0
98,92,0,0,0,0,0,0,0,0,0,-1,1322,932,0,0
105,92,0,0,0,0,0,0,0,0,0,-1,1329,932,0,0
112,92,0,0,0,0,0,0,0,0,0,-1,1336,932,0,0
119,92,0,0,0,0,0,0,0,0,0,-1,1343,932,0,0
126,92,0,0,0,0,0,0,0,0,0,-1,1350,932,0,0
133,92,0,0,0,0,0,0,0,0,0,-1,1357,932,0,0
140,92,0,0,0,0,0,0,0,0,0,-1,1364,932,0,0
147,92,0,0,0,0,0,0,0,0,0,-1,1371,932,0,0
154,92,0,0,0,0,0,0,0,0,0,-1,1378,932,0,0
161,92,0,0,0,0,0,0,0,0,0,-1,1385,932,0,0
168,92,0,0,0,0,0,0,0,0,0,-1,1392,932,0,0
175,92,0,0,0,0,0,0,0,0,0,-1,1399,932,0,0
182,92,0,0,0,0,0,0,0,0,0,-1,1406,932,0,0
189,92,0,0,0,0,0,0,0,0,0,-1,1413,932,0,0
196,92,0,0,0,0,0,0,0,0,0,-1,1420,932,0,0
203,92,0,0,0,0,0,0,0,0,0,-1,1427,932,0,0
210,92,0,0,0,0,0,0,0,0,0,-1,1434,932,0,0
217,92,0,0,0,0,0,0,0,0,0,-1,1441,932,0,0
224,92,0,0,0,0,0,0,0,0,0,-1,1448,932,0,0
231,92,0,0,0,0,0,0,0,0,0,-1,1455,932,0,0
238,92,0,0,0,0,0,0,0,0,0,-1,1462,932,0,0
245,92,0,0,0,0,0,0,0,0,0,-1,1469,932,0,0
252,92,0,0,0,0,0,0,0,0,0,-1,1476,932,0,0
259,92,0,0,0,0,0,0,0,0,0,-1,1483,932,0,0
266,92,0,0,0,0,0,0,0,0,0,-1,1490,932,0,0
273,92,0,0,0,0,0,0,0,0,0,-1,1497,932,0,0
280,92,0,0,0,0,0,0,0,0,0,-1,1504,932,0,0
287,92,0,0,0,0,0,0,0,0,0,-1,1511,932,0,0
294,92,0,0,0,0,0,0,0,0,0,-1,1518,932,0,0
301,92,0,0,0,0,0,0,0,0,0,-1,1525,932,0,0
308,92,0,0,0,0,0,0,0,0,0,-1,1532,932,0,0
315,92,0,0,0,0,0,0,0,0,0,-1,1539,932,0,0
322,92,0,0,0,0,0,0,0,0,0,-1,1546,932,0,0
329,92,0,0,0,0,0,0,0,0,0,-1,1553,932,0,0
336,92,0,0,0,0,0,0,0,0,0,-1,1560,932,0,0
343,92,0,0,0,0,0,0,0,0,0,-1,1567,932,0,0
350,92,0,0,0,0,0,0,0,0,0,-1,1574,932,0,0
357,92,0,0,0,0,0,0,0,0,0,-1,1581,932,0,0
364,92,0,0,0,0,0,0,0,0,0,-1,1588,932,0,0
371,92,0,0,0,0,0,0,0,0,0,-1,1595,932,0,0
378,92,0,0,0,0,0,0,0,0,0,-1,1602,932,0,0
385,92,0,0,0,0,0,0,0,0,0,-1,1609,932,0,0
392,92,0,0,0,0,0,0,0,0,0,-1,1616,932,0,0
399,92,0,0,0,0,0,0,0,0,0,-1,1623,932,0,0
406,92,0,0,0,0,0,0,0,0,0,-1,1630,932,0,0
413,92,0,0,0,0,0,0,0,0,0,-1,1637,932,0,0
420,92,0,0,0,0,0,0,0,0,0,-1,1644,932,0,0
427,92,0,0,0,0,0,0,0,0,0,-1,1651,932,0,0
434,92,0,0,0,0,0,0,0,0,0,-1,1658,932,0,0
441,92,0,0,0,0,0,0,0,0,0,-1,1665,932,0,0
448,92,0,0,0,0,0,0,0,0,0,-1,1672,932,0,0
455,92,0,0,0,0,0,0,0,0,0,-1,1679,932,0,0
462,92,0,0,0,0,0,0,0,0,0,-1,1686,932,0,0
469,92,0,0,0,0,0,0,0,0,0,-1,1693,932,0,0
476,92,0,0,0,0,0,0,0,0,0,-1,1700,932,0,0
483,92,0,0,0,0,0,0,0,0,0,-1,1707,932,0,0
490,92,0,0,0,0,0,0,0,0,0,-1,1714,932,0,0
497,92,0,0,0,0,0,0,0,0,0,-1,1721,932,0,0
504,92,0,0,0,0,0,0,0,0,0,-1,1728,932,0,0
511,92,0,0,0,0,0,0,0,0,0,-1,1735,932,0,0
518,92,0,0,0,0,0,0,0,0,0,-1,1742,932,0,0
525,92,0,0,0,0,0,0,0,0,0,-1,1749,932,0,0
532,92,0,0,0,0,0,0,0,0,0,-1,1756,932,0,0
539,92,0,0,0,0,0,0,0,0,0,-1,1763,932,0,0
546,92,0,0,0,0,0,0,0,0,0,-1,1770,932,0,0
553,92,0,0,0,0,0,0,0,0,0,-1,1777,932,0,0
560,92,0,0,0,0,0,0,0,0,0,-1,1784,932,0,0
567,92,0,0,0,0,0,0,0,0,0,-1,1791,932,0,0
574,92,0,0,0,0,0,0,0,0,0,-1,1798,932,0,0
581,92,0,0,0,0,0,0,0,0,0,-1,1805,932,0,0
588,92,0,0,0,0,0,0,0,0,0,-1,1812,932,0,0
595,92,0,0,0,0,0,0,0,0,0,-1,1819,932,0,0
602,92,0,0,0,0,0,0,0,0,0,-1,1826,932,0,0
609,92,0,0,0,0,0,0,0,0,0,-1,1833,932,0,0
616,92,0,0,0,0,0,0,0,0,0,-1,1840,932,0,0
623,92,0,0,0,0,0,0,0,0,0,-1,1847,932,0,0
630,92,0,0,0,0,0,0,0,0,0,-1,1854,932,0,0
637,92,36.2041,2.77563,0.00609985,-0.00184974,-0.00557464,0.00897163,-0.00472153,-0.475695,0.00803168,0.043637,1861,932,36.2041,-2.77561
644,92,36.3889,2.64691,0.00399958,-0.000618219,-0.00439165,0.00665229,-0.00327093,-0.543382,0.00583899,0.0389258,1868,932,36.389,-2.64693
651,92,36.4414,2.59406,0.00203299,0.000278419,-0.00306747,0.00434616,-0.00203475,-0.646118,0.00376373,0.0367737,1875,932,36.4414,-2.59407
658,92,36.3092,2.54425,0.000220146,0.0010734,-0.00159921,0.00230191,-0.00100836,-0.91575,0.00195923,0.0375009,1882,932,36.3092,-2.54423
665,92,36.2236,2.51764,-0.00119885,0.00169136,-0.000147692,0.00169889,-0.00120638,-1.51987,0.00168538,0.0400854,1889,932,36.2237,-2.51761
672,92,36.359,2.66815,-0.00212248,0.0019443,0.00106111,0.00220451,-0.00238269,1.33031,0.00264909,0.0395618,1896,932,36.359,-2.66818
679,92,36.3541,2.71741,-0.00260076,0.00194,0.00190075,0.00263061,-0.00329137,1.22229,0.00342615,0.0355574,1903,932,36.3541,-2.71738
686,92,36.2924,2.71606,-0.00269828,0.00178761,0.00235434,0.00279639,-0.00370706,1.16598,0.00376702,0.0284855,1910,932,36.2923,-2.71607
693,92,36.2573,2.82294,-0.00280845,0.00172332,0.00264552,0.00294068,-0.00402581,1.13953,0.00403834,0.0271092,1917,932,36.2573,-2.82297
700,92,36.2765,2.93176,0,0,0,0,0,0,0,-1,1924,932,36.2764,-2.93178
707,92,32.9893,3.26874,0,0,0,0,0,0,0,-1,1931,932,32.9893,-3.26874
714,92,33.9567,3.99707,0,0,0,0,0,0,0,-1,1938,932,33.9566,-3.99708
721,92,33.7031,4.11652,-0.00246002,0.00169109,0.00196333,0.00247256,-0.00324149,1.19199,0.00330895,0.0290797,1945,932,33.7032,-4.11652
728,92,33.6158,4.46838,-0.00225517,0.00192308,0.00177935,0.00257813,-0.00291023,1.21805,0.00317064,0.021806,1952,932,33.6159,-4.46836
735,92,33.6124,4.72015,-0.00191179,0.00259526,0.00140724,0.00299855,-0.00231509,1.29169,0.00307628,0.0166741,1959,932,33.6124,-4.72017
742,92,33.6295,4.9848,-0.00104653,0.00405961,0.000331873,0.00408109,-0.00106801,1.50616,0.00313791,0.0176214,1966,932,33.6295,-4.98479
749,92,33.5874,5.2865,0.000592848,0.00704877,-0.00124941,0.00728213,0.000359485,-1.38615,0.00473947,0.0160114,1973,932,33.5874,-5.28652
756,92,33.5409,5.55511,0.00259265,0.0109391,-0.0026781,0.0117245,0.00180725,-1.28553,0.007289,0.0141014,1980,932,33.5409,-5.55509
763,92,33.5355,5.8313,0.00584577,0.0164995,-0.00459602,0.0182081,0.00413709,-1.21486,0.0110217,0.0161974,1987,932,33.5356,-5.83128
770,92,33.5464,6.15234,0.0107509,0.0238765,-0.00744924,0.0272415,0.00738591,-1.14651,0.0162679,0.025265,1994,932,33.5463,-6.15237
777,92,33.548,6.6687,0.0178994,0.033471,-0.0119008,0.0399065,0.0114638,-1.07507,0.023725,0.0426721,2001,932,33.548,-6.66869
784,92,35.1046,6.41132,0,0,0,0,0,0,0,-1,2008,932,35.1047,-6.41129
791,92,35.4802,6.27582,0.0429491,0.0629025,-0.0293152,0.0838921,0.0219594,-0.949413,0.0502345,0.04278,2015,932,35.4801,-6.27579
798,92,35.9492,5.81573,0.0623067,0.0843479,-0.0444301,0.119104,0.0275508,-0.906967,0.071998,0.0396166,2022,932,35.9493,-5.81571
805,92,0,0,0,0,0,0,0,0,0,-1,2029,932,0,0
812,92,0,0,0,0,0,0,0,0,0,-1,2036,932,0,0
-700,85,0,0,0,0,0,0,0,0,0,-1,524,939,0,0
-693,85,0,0,0,0,0,0,0,0,0,-1,531,939,0,0
-686,85,-26.7195,4.84998,0,0,0,0,0,0,0,-1,538,939,-26.7195,-4.85
-679,85,-26.3041,-1.60388,0,0,0,0,0,0,0,-1,545,939,-26.3041,1.60388
-672,85,-25.9346,3.9303,0,0,0,0,0,0,0,-1,552,939,-25.9346,-3.93029
-665,85,-27.6185,-0.145203,0,0,0,0,0,0,0,-1,559,939,-27.6185,0.145185
-658,85,-26.6205,1.24567,0.0495517,-0.00304079,0.0290917,0.0624706,-0.0159596,0.417913,0.0478622,0.0448276,566,939,-26.6206,-1.24569
-651,85,-24.4922,3.72614,0.0402373,-0.00259086,0.0253439,0.0520027,-0.0143562,0.434623,0.0403151,0.041398,573,939,-24.4922,-3.72611
-644,85,-24.6588,3.526,0.0308443,-0.00178087,0.0212277,0.0413033,-0.0122398,0.457793,0.0323956,0.0325027,580,939,-24.6588,-3.52601
-637,85,-24.806,3.33075,0.0230037,-0.00150215,0.0169716,0.0316833,-0.0101817,0.47274,0.025211,0.0172359,587,939,-24.806,-3.33074
-630,85,-24.8771,3.07538,0.0156785,-0.00098703,0.0130147,0.0227995,-0.00810795,0.500649,0.0185042,0.0106775,594,939,-24.8771,-3.07539
-623,85,-24.9198,2.8396,0.00879814,-0.000434471,0.00992729,0.01513,-0.00676629,0.567764,0.0129456,0.00912892,601,939,-24.9198,-2.83958
-616,85,-24.9197,2.61743,0.00279537,4.74654e-05,0.00679865,0.00835751,-0.00551468,0.685695,0.00806498,0.00948274,608,939,-24.9197,-2.61745
-609,85,-24.9385,2.36682,-0.00225816,0.000142912,0.00418799,0.00329904,-0.00541429,0.924986,0.00507982,0.0120473,615,939,-24.9385,-2.36681
-602,85,-24.9297,2.12915,-0.00613473,0.000274249,0.0021862,0.000948966,-0.00680944,1.27145,0.00488676,0.015893,622,939,-24.9297,-2.12913
-595,85,-24.8571,1.87805,-0.00792154,-4.40794e-06,0.00063799,4.66742e-05,-0.00797262,1.4909,0.00533071,0.0185032,629,939,-24.8571,-1.87805
-588,85,-24.8531,1.59766,-0.00832403,0.00013739,-0.000106539,0.000138732,-0.00832537,-1.55821,0.00559707,0.0170626,636,939,-24.8531,-1.59765
-581,85,-24.8975,1.35577,-0.00842157,0.000272785,-0.00046124,0.000297186,-0.00844597,-1.51794,0.00573228,0.0219683,643,939,-24.8975,-1.35579
-574,85,-25.4072,1.21021,-0.00844591,0.000253162,-0.000456987,0.000277102,-0.00846985,-1.51846,0.00574117,0.0397339,650,939,-25.4072,-1.21019
-567,85,-26.2734,1.04681,-0.00801551,0.00021248,-0.000442256,0.000236183,-0.00803921,-1.51725,0.00543991,0.0469024,657,939,-26.2734,-1.04683
-560,85,-26.395,0.84082,-0.00713364,0.000266494,-0.000339998,0.000282082,-0.00714923,-1.52498,0.00486291,0.0334848,664,939,-26.395,-0.840808
-553,85,-26.3576,0.924805,-0.00571706,0.000359107,-1.70987e-05,0.000359155,-0.00571711,-1.56798,0.00393659,0.0411479,671,939,-26.3576,-0.924786
-546,85,-26.6368,0.663818,-0.00360917,0.000413178,0.000521215,0.000479619,-0.00367561,1.44401,0.00262493,0.0424178,678,939,-26.6368,-0.663806
-539,85,-26.5746,0.689697,-0.000752122,0.000336961,0.001324,0.00122402,-0.00163918,0.980497,0.00165886,0.0397723,685,939,-26.5746,-0.689698
-532,85,-26.462,0.740967,0.00278065,1.15006e-05,0.00236105,0.00413316,-0.001341,0.520209,0.0032947,0.0391611,692,939,-26.4621,-0.740953
-525,85,-26.4341,0.964966,0.00604744,-0.000596638,0.00341936,0.00749278,-0.00204198,0.399917,0.005797,0.0377801,699,939,-26.4341,-0.964978
-518,85,-26.3942,1.11725,0.0063773,-0.00124498,0.00456604,0.00851373,-0.00338141,0.437635,0.00707754,0.0370084,706,939,-26.3941,-1.11723
-511,85,0,0,0,0,0,0,0,0,0,-1,713,939,0,0
-504,85,0,0,0,0,0,0,0,0,0,-1,720,939,0,0
-497,85,0,0,0,0,0,0,0,0,0,-1,727,939,0,0
-490,85,0,0,0,0,0,0,0,0,0,-1,734,939,0,0
-483,85,0,0,0,0,0,0,0,0,0,-1,741,939,0,0
-476,85,0,0,0,0,0,0,0,0,0,-1,748,939,0,0
-469,85,0,0,0,0,0,0,0,0,0,-1,755,939,0,0
-462,85,0,0,0,0,0,0,0,0,0,-1,762,939,0,0
-455,85,0,0,0,0,0,0,0,0,0,-1,769,939,0,0
-448,85,0,0,0,0,0,0,0,0,0,-1,776,939,0,0
-441,85,0,0,0,0,0,0,0,0,0,-1,783,939,0,0
-434,85,0,0,0,0,0,0,0,0,0,-1,790,939,0,0
-427,85,0,0,0,0,0,0,0,0,0,-1,797,939,0,0
-420,85,0,0,0,0,0,0,0,0,0,-1,804,939,0,0
-413,85,0,0,0,0,0,0,0,0,0,-1,811,939,0,0
-406,85,0,0,0,0,0,0,0,0,0,-1,818,939,0,0
-399,85,0,0,0,0,0,0,0,0,0,-1,825,939,0,0
-392,85,0,0,0,0,0,0,0,0,0,-1,832,939,0,0
-385,85,0,0,0,0,0,0,0,0,0,-1,839,939,0,0
-378,85,0,0,0,0,0,0,0,0,0,-1,846,939,0,0
-371,85,0,0,0,0,0,0,0,0,0,-1,853,939,0,0
-364,85,0,0,0,0,0,0,0,0,0,-1,860,939,0,0
-357,85,0,0,0,0,0,0,0,0,0,-1,867,939,0,0
-350,85,0,0,0,0,0,0,0,0,0,-1,874,939,0,0
-343,85,0,0,0,0,0,0,0,0,0,-1,881,939,0,0
-336,85,0,0,0,0,0,0,0,0,0,-1,888,939,0,0
-329,85,0,0,0,0,0,0,0,0,0,-1,895,939,0,0
-322,85,0,0,0,0,0,0,0,0,0,-1,902,939,0,0
-315,85,0,0,0,0,0,0,0,0,0,-1,909,939,0,0
-308,85,0,0,0,0,0,0,0,0,0,-1,916,939,0,0
-301,85,0,0,0,0,0,0,0,0,0,-1,923,939,0,0
-294,85,0,0,0,0,0,0,0,0,0,-1,930,939,0,0
-287,85,0,0,0,0,0,0,0,0,0,-1,937,939,0,0
-280,85,0,0,0,0,0,0,0,0,0,-1,944,939,0,0
-273,85,0,0,0,0,0,0,0,0,0,-1,951,939,0,0
-266,85,0,0,0,0,0,0,0,0,0,-1,958,939,0,0
-259,85,0,0,0,0,0,0,0,0,0,-1,965,939,0,0
-252,85,0,0,0,0,0,0,0,0,0,-1,972,939,0,0
-245,85,0,0,0,0,0,0,0,0,0,-1,979,939,0,0
-238,85,0,0,0,0,0,0,0,0,0,-1,986,939,0,0
-231,85,0,0,0,0,0,0,0,0,0,-1,993,939,0,0
-224,85,0,0,0,0,0,0,0,0,0,-1,1000,939,0,0
-217,85,0,0,0,0,0,0,0,0,0,-1,1007,939,0,0
-210,85,0,0,0,0,0,0,0,0,0,-1,1014,939,0,0
-203,85,0,0,0,0,0,0,0,0,0,-1,1021,939,0,0
-196,85,0,0,0,0,0,0,0,0,0,-1,1028,939,0,0
-189,85,0,0,0,0,0,0,0,0,0,-1,1035,939,0,0
-182,85,0,0,0,0,0,0,0,0,0,-1,1042,939,0,0
-175,85,0,0,0,0,0,0,0,0,0,-1,1049,939,0,0
-168,85,0,0,0,0,0,0,0,0,0,-1,1056,939,0,0
-161,85,0,0,0,0,0,0,0,0,0,-1,1063,939,0,0
-154,85,0,0,0,0,0,0,0,0,0,-1,1070,939,0,0
-147,85,0,0,0,0,0,0,0,0,0,-1,1077,939,0,0
-140,85,0,0,0,0,0,0,0,0,0,-1,1084,939,0,0
-133,85,0,0,0,0,0,0,0,0,0,-1,1091,939,0,0
-126,85,0,0,0,0,0,0,0,0,0,-1,1098,939,0,0
-119,85,0,0,0,0,0,0,0,0,0,-1,1105,939,0,0
-112,85,0,0,0,0,0,0,0,0,0,-1,1112,939,0,0
-105,85,0,0,0,0,0,0,0,0,0,-1,1119,939,0,0
-98,85,0,0,0,0,0,0,0,0,0,-1,1126,939,0,0
-91,85,0,0,0,0,0,0,0,0,0,-1,1133,939,0,0
-84,85,0,0,0,0,0,0,0,0,0,-1,1140,939,0,0
-77,85,0,0,0,0,0,0,0,0,0,-1,1147,939,0,0
-70,85,0,0,0,0,0,0,0,0,0,-1,1154,939,0,0
-63,85,0,0,0,0,0,0,0,0,0,-1,1161,939,0,0
-56,85,0,0,0,0,0,0,0,0,0,-1,1168,939,0,0
-49,85,0,0,0,0,0,0,0,0,0,-1,1175,939,0,0
-42,85,0,0,0,0,0,0,0,0,0,-1,1182,939,0,0
-35,85,0,0,0,0,0,0,0,0,0,-1,1189,939,0,0
-28,85,0,0,0,0,0,0,0,0,0,-1,1196,939,0,0
-21,85,0,0,0,0,0,0,0,0,0,-1,1203,939,0,0
-14,85,0,0,0,0,0,0,0,0,0,-1,1210,939,0,0
-7,85,0,0,0,0,0,0,0,0,0,-1,1217,939,0,0
0,85,0,0,0,0,0,0,0,0,0,-1,1224,939,0,0
7,85,0,0,0,0,0,0,0,0,0,-1,1231,939,0,0
14,85,0,0,0,0,0,0,0,0,0,-1,1238,939,0,0
21,85,0,0,0,0,0,0,0,0,0,-1,1245,939,0,0
28,85,0,0,0,0,0,0,0,0,0,-1,1252,939,0,0
35,85,0,0,0,0,0,0,0,0,0,-1,1259,939,0,0
42,85,0,0,0,0,0,0,0,0,0,-1,1266,939,0,0
49,85,0,0,0,0,0,0,0,0,0,-1,1273,939,0,0
56,85,0,0,0,0,0,0,0,0,0,-1,1280,939,0,0
63,85,0,0,0,0,0,0,0,0,0,-1,1287,939,0,0
70,85,0,0,0,0,0,0,0,0,0,-1,1294,939,0,0
77,85,0,0,0,0,0,0,0,0,0,-1,1301,939,0,0
84,85,0,0,0,0,0,0,0,0,0,-1,1308,939,0,0
91,85,0,0,0,0,0,0,0,0,0,-1,1315,939,0,0
98,85,0,0,0,0,0,0,0,0,0,-1,1322,939,0,0
105,85,0,0,0,0,0,0,0,0,0,-1,1329,939,0,0
112,85,0,0,0,0,0,0,0,0,0,-1,1336,939,0,0
119,85,0,0,0,0,0,0,0,0,0,-1,1343,939,0,0
126,85,0,0,0,0,0,0,0,0,0,-1,1350,939,0,0
133,85,0,0,0,0,0,0,0,0,0,-1,1357,939,0,0
140,85,0,0,0,0,0,0,0,0,0,-1,1364,939,0,0
147,85,0,0,0,0,0,0,0,0,0,-1,1371,939,0,0
154,85,0,0,0,0,0,0,0,0,0,-1,1378,939,0,0
161,85,0,0,0,0,0,0,0,0,0,-1,1385,939,0,0
168,85,0,0,0,0,0,0,0,0,0,-1,1392,939,0,0
175,85,0,0,0,0,0,0,0,0,0,-1,1399,939,0,0
182,85,0,0,0,0,0,0,0,0,0,-1,1406,939,0,0
189,85,0,0,0,0,0,0,0,0,0,-1,1413,939,0,0
196,85,0,0,0,0,0,0,0,0,0,-1,1420,939,0,0
203,85,0,0,0,0,0,0,0,0,0,-1,1427,939,0,0
210,85,0,0,0,0,0,0,0,0,0,-1,1434,939,0,0
217,85,0,0,0,0,0,0,0,0,0,-1,1441,939,0,0
224,85,0,0,0,0,0,0,0,0,0,-1,1448,939,0,0
231,85,0,0,0,0,0,0,0,0,0,-1,1455,939,0,0
238,85,0,0,0,0,0,0,0,0,0,-1,1462,939,0,0
245,85,0,0,0,0,0,0,0,0,0,-1,1469,939,0,0
252,85,0,0,0,0,0,0,0,0,0,-1,1476,939,0,0
259,85,0,0,0,0,0,0,0,0,0,-1,1483,939,0,0
266,85,0,0,0,0,0,0,0,0,0,-1,1490,939,0,0
273,85,0,0,0,0,0,0,0,0,0,-1,1497,939,0,0
280,85,0,0,0,0,0,0,0,0,0,-1,1504,939,0,0
287,85,0,0,0,0,0,0,0,0,0,-1,1511,939,0,0
294,85,0,0,0,0,0,0,0,0,0,-1,1518,939,0,0
301,85,0,0,0,0,0,0,0,0,0,-1,1525,939,0,0
308,85,0,0,0,0,0,0,0,0,0,-1,1532,939,0,0
315,85,0,0,0,0,0,0,0,0,0,-1,1539,939,0,0
322,85,0,0,0,0,0,0,0,0,0,-1,1546,939,0,0
329,85,0,0,0,0,0,0,0,0,0,-1,1553,939,0,0
336,85,0,0,0,0,0,0,0,0,0,-1,1560,939,0,0
343,85,0,0,0,0,0,0,0,0,0,-1,1567,939,0,0
350,85,0,0,0,0,0,0,0,0,0,-1,1574,939,0,0
357,85,0,0,0,0,0,0,0,0,0,-1,1581,939,0,0
364,85,0,0,0,0,0,0,0,0,0,-1,1588,939,0,0
371,85,0,0,0,0,0,0,0,0,0,-1,1595,939,0,0
378,85,0,0,0,0,0,0,0,0,0,-1,1602,939,0,0
385,85,0,0,0,0,0,0,0,0,0,-1,1609,939,0,0
392,85,0,0,0,0,0,0,0,0,0,-1,1616,939,0,0
399,85,0,0,0,0,0,0,0,0,0,-1,1623,939,0,0
406,85,0,0,0,0,0,0,0,0,0,-1,1630,939,0,0
413,85,0,0,0,0,0,0,0,0,0,-1,1637,939,0,0
420,85,0,0,0,0,0,0,0,0,0,-1,1644,939,0,0
427,85,0,0,0,0,0,0,0,0,0,-1,1651,939,0,0
434,85,0,0,0,0,0,0,0,0,0,-1,1658,939,0,0
441,85,0,0,0,0,0,0,0,0,0,-1,1665,939,0,0
448,85,0,0,0,0,0,0,0,0,0,-1,1672,939,0,0
455,85,0,0,0,0,0,0,0,0,0,-1,1679,939,0,0
462,85,0,0,0,0,0,0,0,0,0,-1,1686,939,0,0
469,85,0,0,0,0,0,0,0,0,0,-1,1693,939,0,0
476,85,0,0,0,0,0,0,0,0,0,-1,1700,939,0,0
483,85,0,0,0,0,0,0,0,0,0,-1,1707,939,0,0
490,85,0,0,0,0,0,0,0,0,0,-1,1714,939,0,0
497,85,0,0,0,0,0,0,0,0,0,-1,1721,939,0,0
504,85,0,0,0,0,0,0,0,0,0,-1,1728,939,0,0
511,85,0,0,0,0,0,0,0,0,0,-1,1735,939,0,0
518,85,0,0,0,0,0,0,0,0,0,-1,1742,939,0,0
525,85,0,0,0,0,0,0,0,0,0,-1,1749,939,0,0
532,85,0,0,0,0,0,0,0,0,0,-1,1756,939,0,0
539,85,0,0,0,0,0,0,0,0,0,-1,1763,939,0,0
546,85,0,0,0,0,0,0,0,0,0,-1,1770,939,0,0
553,85,0,0,0,0,0,0,0,0,0,-1,1777,939,0,0
560,85,0,0,0,0,0,0,0,0,0,-1,1784,939,0,0
567,85,0,0,0,0,0,0,0,0,0,-1,1791,939,0,0
574,85,0,0,0,0,0,0,0,0,0,-1,1798,939,0,0
581,85,0,0,0,0,0,0,0,0,0,-1,1805,939,0,0
588,85,0,0,0,0,0,0,0,0,0,-1,1812,939,0,0
595,85,0,0,0,0,0,0,0,0,0,-1,1819,939,0,0
602,85,0,0,0,0,0,0,0,0,0,-1,1826,939,0,0
609,85,0,0,0,0,0,0,0,0,0,-1,1833,939,0,0
616,85,0,0,0,0,0,0,0,0,0,-1,1840,939,0,0
623,85,0,0,0,0,0,0,0,0,0,-1,1847,939,0,0
630,85,0,0,0,0,0,0,0,0,0,-1,1854,939,0,0
637,85,36.2223,2.91315,0.00706591,-0.00259845,-0.00639482,0.0102489,-0.00578148,-0.461848,0.00937421,0.046595,1861,939,36.2222,-2.91317
644,85,36.3062,2.75574,0.00483131,-0.0015431,-0.00500569,0.00757835,-0.00429014,-0.501908,0.00693938,0.0407216,1868,939,36.3062,-2.75573
651,85,36.4028,2.81146,0.00280377,-0.000737891,-0.0035651,0.00501361,-0.00294773,-0.554891,0.00464778,0.0410159,1875,939,36.4028,-2.81143
658,85,36.2172,2.69165,0.000921857,5.63332e-05,-0.00196689,0.00250303,-0.00152484,-0.677112,0.00234824,0.0398052,1882,939,36.2171,-2.69166
665,85,36.1666,2.59009,-0.000646763,0.000765957,-0.000304732,0.000828886,-0.000709692,-1.36715,0.000889187,0.0409616,1889,939,36.1667,-2.5901
672,85,36.3846,2.74011,-0.00176429,0.00116191,0.00112005,0.00154141,-0.0021438,1.24411,0.00213711,0.042025,1896,939,36.3846,-2.74008
679,85,36.3784,2.77258,-0.00241117,0.00128752,0.00213337,0.00226154,-0.00338518,1.1425,0.00328158,0.0393497,1903,939,36.3784,-2.77261
686,85,36.2561,2.74976,-0.002629,0.00125329,0.00269708,0.00263514,-0.00401085,1.09732,0.00386437,0.0342274,1910,939,36.2561,-2.74976
693,85,36.2189,2.84216,-0.00280895,0.00126715,0.00305295,0.00289981,-0.00444161,1.07971,0.00426962,0.0301545,1917,939,36.2188,-2.84214
700,85,36.2544,2.90363,-0.00297929,0.00122284,0.00318192,0.00293479,-0.00469124,1.07719,0.00444165,0.0399991,1924,939,36.2544,-2.90361
707,85,36.3043,2.94568,0,0,0,0,0,0,0,-1,1931,939,36.3043,-2.94568
714,85,34.0326,3.75275,0,0,0,0,0,0,0,-1,1938,939,34.0326,-3.75272
721,85,33.9623,4.13361,-0.00273867,0.00161835,0.00241073,0.00268907,-0.0038094,1.15282,0.00377043,0.0267341,1945,939,33.9622,-4.13359
728,85,33.8801,4.54761,-0.00253788,0.00189832,0.00218092,0.00279091,-0.00343047,1.18232,0.00359823,0.0217653,1952,939,33.8801,-4.54762
735,85,33.8938,4.74243,-0.00217579,0.0026209,0.00171008,0.00316813,-0.00272302,1.26109,0.0034045,0.0200657,1959,939,33.8938,-4.74243
742,85,33.9476,5.00281,-0.00134967,0.00401083,0.000605796,0.00407844,-0.00141727,1.45965,0.00329462,0.0165044,1966,939,33.9477,-5.00279
749,85,33.9055,5.29193,0.000226973,0.00726996,-0.00113466,0.00744825,4.86868e-05,-1.41494,0.00494935,0.0140259,1973,939,33.9055,-5.29191
756,85,33.8346,5.5401,0.00232221,0.0115425,-0.00298299,0.0124234,0.0014413,-1.28365,0.00784611,0.0133055,1980,939,33.8346,-5.54013
763,85,33.8195,5.80768,0.00582444,0.017897,-0.00547378,0.0200093,0.00371216,-1.20251,0.0122904,0.0136034,1987,939,33.8194,-5.80765
770,85,33.7959,6.08649,0.0109885,0.0264342,-0.00899092,0.0305637,0.00685894,-1.14024,0.0185179,0.0196186,1994,939,33.796,-6.08646
777,85,33.7607,6.45892,0.0184818,0.0376823,-0.0143751,0.0453681,0.010796,-1.07981,0.027366,0.0397368,2001,939,33.7607,-6.45895
784,85,33.8225,6.88513,0.0296247,0.0530604,-0.0227523,0.066935,0.0157501,-1.02319,0.0404097,0.0467763,2008,939,33.8226,-6.88514
791,85,33.8218,7.23328,0,0,0,0,0,0,0,-1,2015,939,33.8217,-7.23327
798,85,36.5684,4.9267,0.0669541,0.100702,-0.0532584,0.139695,0.0279604,-0.938811,0.0853507,0.0430691,2022,939,36.5684,-4.92669
805,85,37.177,4.58051,0,0,0,0,0,0,0,-1,2029,939,37.1771,-4.58051
812,85,0,0,0,0,0,0,0,0,0,-1,2036,939,0,0
-700,78,0,0,0,0,0,0,0,0,0,-1,524,946,0,0
-693,78,0,0,0,0,0,0,0,0,0,-1,531,946,0,0
-686,78,-26.9789,-2.40802,0,0,0,0,0,0,0,-1,538,946,-26.9789,2.40803
-679,78,-26.5598,-1.44153,0,0,0,0,0,0,0,-1,545,946,-26.5598,1.44152
-672,78,-26.1407,-0.475037,0,0,0,0,0,0,0,-1,552,946,-26.1408,0.475009
-665,78,-26.9958,0.110901,0.0556253,0.0039318,0.0337459,0.0722855,-0.0127284,0.458591,0.0529456,0.0490232,559,946,-26.9958,-0.110911
-658,78,-25.9624,1.82404,0.0477507,0.00300769,0.0298584,0.0626888,-0.0119304,0.463887,0.0462847,0.0445841,566,946,-25.9624,-1.82405
-651,78,-25.4404,2.6004,0.0387632,0.00274188,0.0254705,0.0519476,-0.0104425,0.477655,0.0385865,0.0436143,573,946,-25.4404,-2.60043
-644,78,-24.9318,3.49969,0.0298334,0.00268126,0.0209932,0.0412579,-0.00874318,0.498376,0.0308356,0.0257368,580,946,-24.9318,-3.49969
-637,78,-25.0545,3.26099,0.0225986,0.00190772,0.0164566,0.0316915,-0.00718511,0.504787,0.0238857,0.0137112,587,946,-25.0545,-3.261
-630,78,-25.1407,3.01245,0.0155605,0.0015559,0.0123442,0.0227502,-0.00563377,0.527402,0.0173523,0.0130144,594,946,-25.1408,-3.01243
-623,78,-25.1787,2.78223,0.00879215,0.00150354,0.00914579,0.014993,-0.00469728,0.595806,0.0118749,0.012548,601,946,-25.1787,-2.78225
-616,78,-25.1873,2.5683,0.00296481,0.00144044,0.00605681,0.00830721,-0.00390195,0.722807,0.00720029,0.0113542,608,946,-25.1873,-2.56831
-609,78,-25.1767,2.35773,-0.00208267,0.00104509,0.00351662,0.00332989,-0.00436747,0.994621,0.00445751,0.0121494,615,946,-25.1767,-2.35774
-602,78,-25.1904,2.14795,-0.00598838,0.000797434,0.00154713,0.00113353,-0.00632447,1.35688,0.00464053,0.0159218,622,946,-25.1904,-2.14797
-595,78,-25.1427,1.87268,-0.00786461,0.000187954,-3.52845e-05,0.000188109,-0.00786476,-1.56641,0.00530699,0.0149671,629,946,-25.1427,-1.87268
-588,78,-25.1236,1.68481,-0.00835576,7.72839e-05,-0.000748829,0.000143261,-0.00842174,-1.48292,0.00566285,0.0125831,636,946,-25.1236,-1.68481
-581,78,-25.2279,1.48114,-0.0085072,4.89819e-05,-0.00102998,0.000171223,-0.00862944,-1.45267,0.00581088,0.0256299,643,946,-25.2279,-1.48113
-574,78,-25.7736,1.20093,-0.00854512,1.675e-05,-0.000958159,0.000122667,-0.00865104,-1.4607,0.00580868,0.0330466,650,946,-25.7736,-1.2009
-567,78,-26.3837,0.910889,-0.00812642,1.7179e-06,-0.000852333,9.01339e-05,-0.00821484,-1.46743,0.00550685,0.0316884,657,946,-26.3838,-0.910887
-560,78,-26.3818,0.920715,-0.00720436,6.16864e-05,-0.00060108,0.000111075,-0.00725375,-1.48881,0.00487328,0.0314686,664,946,-26.3818,-0.920742
-553,78,-26.373,0.753845,-0.00566795,0.000165597,-9.279e-05,0.000167073,-0.00566943,-1.5549,0.00383652,0.041517,671,946,-26.373,-0.753854
-546,78,-26.5109,0.834961,-0.00342881,0.000243786,0.000667175,0.000361232,-0.00354625,1.39655,0.00249332,0.0442569,678,946,-26.5108,-0.834987
-539,78,-26.3593,1.00226,-0.000486523,0.000220506,0.00171016,0.0016133,-0.00187932,0.88732,0.00201842,0.0390796,685,946,-26.3593,-1.00223
-532,78,-26.3155,1.07629,0.00300402,2.31299e-05,0.00293793,0.00480794,-0.00178079,0.550658,0.00393556,0.0387875,692,946,-26.3155,-1.07628
-525,78,-26.2935,1.07092,0.00582178,-0.000266109,0.00406699,0.00785779,-0.00230212,0.464143,0.00615122,0.0382664,699,946,-26.2935,-1.07092
-518,78,-26.329,1.05164,0.00540462,-0.000603662,0.00508274,0.00830464,-0.00350368,0.518493,0.00700284,0.0400644,706,946,-26.329,-1.05164
-511,78,0,0,0,0,0,0,0,0,0,-1,713,946,0,0
-504,78,0,0,0,0,0,0,0,0,0,-1,720,946,0,0
-497,78,0,0,0,0,0,0,0,0,0,-1,727,946,0,0
-490,78,0,0,0,0,0,0,0,0,0,-1,734,946,0,0
-483,78,0,0,0,0,0,0,0,0,0,-1,741,946,0,0
-476,78,0,0,0,0,0,0,0,0,0,-1,748,946,0,0
-469,78,0,0,0,0,0,0,0,0,0,-1,755,946,0,0
-462,78,0,0,0,0,0,0,0,0,0,-1,762,946,0,0
-455,78,0,0,0,0,0,0,0,0,0,-1,769,946,0,0
-448,78,0,0,0,0,0,0,0,0,0,-1,776,946,0,0
-441,78,0,0,0,0,0,0,0,0,0,-1,783,946,0,0
-434,78,0,0,0,0,0,0,0,0,0,-1,790,946,0,0
-427,78,0,0,0,0,0,0,0,0,0,-1,797,946,0,0
-420,78,0,0,0,0,0,0,0,0,0,-1,804,946,0,0
-413,78,0,0,0,0,0,0,0,0,0,-1,811,946,0,0
-406,78,0,0,0,0,0,0,0,0,0,-1,818,946,0,0
-399,78,0,0,0,0,0,0,0,0,0,-1,825,946,0,0
-392,78,0,0,0,0,0,0,0,0,0,-1,832,946,0,0
-385,78,0,0,0,0,0,0,0,0,0,-1,839,946,0,0
-378,78,0,0,0,0,0,0,0,0,0,-1,846,946,0,0
-371,78,0,0,0,0,0,0,0,0,0,-1,853,946,0,0
-364,78,0,0,0,0,0,0,0,0,0,-1,860,946,0,0
-357,78,0,0,0,0,0,0,0,0,0,-1,867,946,0,0
-350,78,0,0,0,0,0,0,0,0,0,-1,874,946,0,0
-343,78,0,0,0,0,0,0,0,0,0,-1,881,946,0,0
-336,78,0,0,0,0,0,0,0,0,0,-1,888,946,0,0
-329,78,0,0,0,0,0,0,0,0,0,-1,895,946,0,0
-322,78,0,0,0,0,0,0,0,0,0,-1,902,946,0,0
-315,78,0,0,0,0,0,0,0,0,0,-1,909,946,0,0
-308,78,0,0,0,0,0,0,0,0,0,-1,916,946,0,0
-301,78,0,0,0,0,0,0,0,0,0,-1,923,946,0,0
-294,78,0,0,0,0,0,0,0,0,0,-1,930,946,0,0
-287,78,0,0,0,0,0,0,0,0,0,-1,937,946,0,0
-280,78,0,0,0,0,0,0,0,0,0,-1,944,946,0,0
-273,78,0,0,0,0,0,0,0,0,0,-1,951,946,0,0
-266,78,0,0,0,0,0,0,0,0,0,-1,958,946,0,0
-259,78,0,0,0,0,0,0,0,0,0,-1,965,946,0,0
-252,78,0,0,0,0,0,0,0,0,0,-1,972,946,0,0
-245,78,0,0,0,0,0,0,0,0,0,-1,979,946,0,0
-238,78,0,0,0,0,0,0,0,0,0,-1,986,946,0,0
-231,78,0,0,0,0,0,0,0,0,0,-1,993,946,0,0
-224,78,0,0,0,0,0,0,0,0,0,-1,1000,946,0,0
-217,78,0,0,0,0,0,0,0,0,0,-1,1007,946,0,0
-210,78,0,0,0,0,0,0,0,0,0,-1,1014,946,0,0
-203,78,0,0,0,0,0,0,0,0,0,-1,1021,946,0,0
-196,78,0,0,0,0,0,0,0,0,0,-1,1028,946,0,0
-189,78,0,0,0,0,0,0,0,0,0,-1,1035,946,0,0
-182,78,0,0,0,0,0,0,0,0,0,-1,1042,946,0,0
-175,78,0,0,0,0,0,0,0,0,0,-1,1049,946,0,0
-168,78,0,0,0,0,0,0,0,0,0,-1,1056,946,0,0
-161,78,0,0,0,0,0,0,0,0,0,-1,1063,946,0,0
-154,78,0,0,0,0,0,0,0,0,0,-1,1070,946,0,0
-147,78,0,0,0,0,0,0,0,0,0,-1,1077,946,0,0
-140,78,0,0,0,0,0,0,0,0,0,-1,1084,946,0,0
-133,78,0,0,0,0,0,0,0,0,0,-1,1091,946,0,0
-126,78,0,0,0,0,0,0,0,0,0,-1,1098,946,0,0
-119,78,0,0,0,0,0,0,0,0,0,-1,1105,946,0,0
-112,78,0,0,0,0,0,0,0,0,0,-1,1112,946,0,0
-105,78,0,0,0,0,0,0,0,0,0,-1,1119,946,0,0
-98,78,0,0,0,0,0,0,0,0,0,-1,1126,946,0,0
-91,78,0,0,0,0,0,0,0,0,0,-1,1133,946,0,0
-84,78,0,0,0,0,0,0,0,0,0,-1,1140,946,0,0
-77,78,0,0,0,0,0,0,0,0,0,-1,1147,946,0,0
-70,78,0,0,0,0,0,0,0,0,0,-1,1154,946,0,0
-63,78,0,0,0,0,0,0,0,0,0,-1,1161,946,0,0
-56,78,0,0,0,0,0,0,0,0,0,-1,1168,946,0,0
-49,78,0,0,0,0,0,0,0,0,0,-1,1175,946,0,0
-42,78,0,0,0,0,0,0,0,0,0,-1,1182,946,0,0
-35,78,0,0,0,0,0,0,0,0,0,-1,1189,946,0,0
-28,78,0,0,0,0,0,0,0,0,0,-1,1196,946,0,0
-21,78,0,0,0,0,0,0,0,0,0,-1,1203,946,0,0
-14,78,0,0,0,0,0,0,0,0,0,-1,1210,946,0,0
-7,78,0,0,0,0,0,0,0,0,0,-1,1217,946,0,0
0,78,0,0,0,0,0,0,0,0,0,-1,1224,946,0,0
7,78,0,0,0,0,0,0,0,0,0,-1,1231,946,0,0
14,78,0,0,0,0,0,0,0,0,0,-1,1238,946,0,0
21,78,0,0,0,0,0,0,0,0,0,-1,1245,946,0,0
28,78,0,0,0,0,0,0,0,0,0,-1,1252,946,0,0
35,78,0,0,0,0,0,0,0,0,0,-1,1259,946,0,0
42,78,0,0,0,0,0,0,0,0,0,-1,1266,946,0,0
49,78,0,0,0,0,0,0,0,0,0,-1,1273,946,0,0
56,78,0,0,0,0,0,0,0,0,0,-1,1280,946,0,0
63,78,0,0,0,0,0,0,0,0,0,-1,1287,946,0,0
70,78,0,0,0,0,0,0,0,0,0,-1,1294,946,0,0
77,78,0,0,0,0,0,0,0,0,0,-1,1301,946,0,0
84,78,0,0,0,0,0,0,0,0,0,-1,1308,946,0,0
91,78,0,0,0,0,0,0,0,0,0,-1,1315,946,0,0
98,78,0,0,0,0,0,0,0,0,0,-1,1322,946,0,0
105,78,0,0,0,0,0,0,0,0,0,-1,1329,946,0,0
112,78,0,0,0,0,0,0,0,0,0,-1,1336,946,0,0
119,78,0,0,0,0,0,0,0,0,0,-1,1343,946,0,0
126,78,0,0,0,0,0,0,0,0,0,-1,1350,946,0,0
133,78,0,0,0,0,0,0,0,0,0,-1,1357,946,0,0
140,78,0,0,0,0,0,0,0,0,0,-1,1364,946,0,0
147,78,0,0,0,0,0,0,0,0,0,-1,1371,946,0,0
154,78,0,0,0,0,0,0,0,0,0,-1,1378,946,0,0
161,78,0,0,0,0,0,0,0,0,0,-1,1385,946,0,0
168,78,0,0,0,0,0,0,0,0,0,-1,1392,946,0,0
175,78,0,0,0,0,0,0,0,0,0,-1,1399,946,0,0
182,78,0,0,0,0,0,0,0,0,0,-1,1406,946,0,0
189,78,0,0,0,0,0,0,0,0,0,-1,1413,946,0,0
196,78,0,0,0,0,0,0,0,0,0,-1,1420,946,0,0
203,78,0,0,0,0,0,0,0,0,0,-1,1427,946,0,0
210,78,0,0,0,0,0,0,0,0,0,-1,1434,946,0,0
217,78,0,0,0,0,0,0,0,0,0,-1,1441,946,0,0
224,78,0,0,0,0,0,0,0,0,0,-1,1448,946,0,0
231,78,0,0,0,0,0,0,0,0,0,-1,1455,946,0,0
238,78,0,0,0,0,0,0,0,0,0,-1,1462,946,0,0
245,78,0,0,0,0,0,0,0,0,0,-1,1469,946,0,0
252,78,0,0,0,0,0,0,0,0,0,-1,1476,946,0,0
259,78,0,0,0,0,0,0,0,0,0,-1,1483,946,0,0
266,78,0,0,0,0,0,0,0,0,0,-1,1490,946,0,0
273,78,0,0,0,0,0,0,0,0,0,-1,1497,946,0,0
280,78,0,0,0,0,0,0,0,0,0,-1,1504,946,0,0
287,78,0,0,0,0,0,0,0,0,0,-1,1511,946,0,0
294,78,0,0,0,0,0,0,0,0,0,-1,1518,946,0,0
301,78,0,0,0,0,0,0,0,0,0,-1,1525,946,0,0
308,78,0,0,0,0,0,0,0,0,0,-1,1532,946,0,0
315,78,0,0,0,0,0,0,0,0,0,-1,1539,946,0,0
322,78,0,0,0,0,0,0,0,0,0,-1,1546,946,0,0
329,78,0,0,0,0,0,0,0,0,0,-1,1553,946,0,0
336,78,0,0,0,0,0,0,0,0,0,-1,1560,946,0,0
343,78,0,0,0,0,0,0,0,0,0,-1,1567,946,0,0
350,78,0,0,0,0,0,0,0,0,0,-1,1574,946,0,0
357,78,0,0,0,0,0,0,0,0,0,-1,1581,946,0,0
364,78,0,0,0,0,0,0,0,0,0,-1,1588,946,0,0
371,78,0,0,0,0,0,0,0,0,0,-1,1595,946,0,0
378,78,0,0,0,0,0,0,0,0,0,-1,1602,946,0,0
385,78,0,0,0,0,0,0,0,0,0,-1,1609,946,0,0
392,78,0,0,0,0,0,0,0,0,0,-1,1616,946,0,0
399,78,0,0,0,0,0,0,0,0,0,-1,1623,946,0,0
406,78,0,0,0,0,0,0,0,0,0,-1,1630,946,0,0
413,78,0,0,0,0,0,0,0,0,0,-1,1637,946,0,0
420,78,0,0,0,0,0,0,0,0,0,-1,1644,946,0,0
427,78,0,0,0,0,0,0,0,0,0,-1,1651,946,0,0
434,78,0,0,0,0,0,0,0,0,0,-1,1658,946,0,0
441,78,0,0,0,0,0,0,0,0,0,-1,1665,946,0,0
448,78,0,0,0,0,0,0,0,0,0,-1,1672,946,0,0
455,78,0,0,0,0,0,0,0,0,0,-1,1679,946,0,0
462,78,0,0,0,0,0,0,0,0,0,-1,1686,946,0,0
469,78,0,0,0,0,0,0,0,0,0,-1,1693,946,0,0
476,78,0,0,0,0,0,0,0,0,0,-1,1700,946,0,0
483,78,0,0,0,0,0,0,0,0,0,-1,1707,946,0,0
490,78,0,0,0,0,0,0,0,0,0,-1,1714,946,0,0
497,78,0,0,0,0,0,0,0,0,0,-1,1721,946,0,0
504,78,0,0,0,0,0,0,0,0,0,-1,1728,946,0,0
511,78,0,0,0,0,0,0,0,0,0,-1,1735,946,0,0
518,78,0,0,0,0,0,0,0,0,0,-1,1742,946,0,0
525,78,0,0,0,0,0,0,0,0,0,-1,1749,946,0,0
532,78,0,0,0,0,0,0,0,0,0,-1,1756,946,0,0
539,78,0,0,0,0,0,0,0,0,0,-1,1763,946,0,0
546,78,0,0,0,0,0,0,0,0,0,-1,1770,946,0,0
553,78,0,0,0,0,0,0,0,0,0,-1,1777,946,0,0
560,78,0,0,0,0,0,0,0,0,0,-1,1784,946,0,0
567,78,0,0,0,0,0,0,0,0,0,-1,1791,946,0,0
574,78,0,0,0,0,0,0,0,0,0,-1,1798,946,0,0
581,78,0,0,0,0,0,0,0,0,0,-1,1805,946,0,0
588,78,0,0,0,0,0,0,0,0,0,-1,1812,946,0,0
595,78,0,0,0,0,0,0,0,0,0,-1,1819,946,0,0
602,78,0,0,0,0,0,0,0,0,0,-1,1826,946,0,0
609,78,0,0,0,0,0,0,0,0,0,-1,1833,946,0,0
616,78,0,0,0,0,0,0,0,0,0,-1,1840,946,0,0
623,78,0,0,0,0,0,0,0,0,0,-1,1847,946,0,0
630,78,0,0,0,0,0,0,0,0,0,-1,1854,946,0,0
637,78,36.3895,3.06519,0.00738603,-0.00251156,-0.00636554,0.0105002,-0.00562569,-0.454984,0.00945098,0.043797,1861,946,36.3896,-3.06518
644,78,36.4286,2.73792,0.00520858,-0.00189963,-0.00503298,0.00781585,-0.0045069,-0.477973,0.00719954,0.0424531,1868,946,36.4286,-2.73792
651,78,36.4445,2.64978,0.00325477,-0.00137473,-0.00370102,0.0053053,-0.00342525,-0.505942,0.00507939,0.0428869,1875,946,36.4444,-2.64978
658,78,36.2343,2.77197,0.00146198,-0.000728234,-0.00215844,0.00278723,-0.00205349,-0.550639,0.00280547,0.0405482,1882,946,36.2342,-2.77197
665,78,36.368,2.64539,-0.000122261,-9.79603e-06,-0.000409938,0.000347749,-0.000479806,-0.853559,0.000479812,0.0406996,1889,946,36.3681,-2.64541
672,78,36.4852,2.77014,-0.00135872,0.000500513,0.00117824,0.0010717,-0.00192991,1.11939,0.00175644,0.0426822,1896,946,36.4852,-2.77013
679,78,36.3488,2.60968,-0.00213896,0.000765859,0.00235411,0.00207955,-0.00345265,1.0618,0.00322665,0.042976,1903,946,36.3488,-2.60971
686,78,36.2448,2.54541,-0.00247478,0.000869136,0.00305005,0.00267543,-0.00428108,1.03612,0.00405184,0.0396451,1910,946,36.2447,-2.54539
693,78,36.2218,2.77917,-0.00272969,0.000976832,0.00348921,0.00307442,-0.00482727,1.02952,0.00459931,0.032441,1917,946,36.2218,-2.77916
700,78,36.2037,2.83649,-0.00296101,0.00103399,0.00364719,0.00319486,-0.00512188,1.03593,0.00484445,0.0279036,1924,946,36.2037,-2.8365
707,78,35.9664,3.53088,0,0,0,0,0,0,0,-1,1931,946,35.9665,-3.53087
714,78,34.1003,3.96088,0,0,0,0,0,0,0,-1,1938,946,34.1003,-3.96086
721,78,34.1635,4.19739,-0.00300503,0.00172186,0.00292741,0.00312081,-0.00440398,1.125,0.00436544,0.0258381,1945,946,34.1635,-4.19739
728,78,34.2167,4.52917,-0.00281772,0.00206972,0.00269646,0.00326504,-0.00401304,1.15353,0.0042094,0.0237402,1952,946,34.2166,-4.5292
735,78,34.2271,4.78253,-0.00244929,0.00285607,0.00220846,0.00365506,-0.00324827,1.22366,0.00398795,0.017882,1959,946,34.2271,-4.78255
742,78,34.239,5.02612,-0.00164283,0.00425766,0.00115426,0.00447542,-0.00186059,1.38433,0.00376051,0.0158483,1966,946,34.2391,-5.02613
749,78,34.1801,5.27734,-0.000109781,0.00792654,-0.000661886,0.00798069,-0.00016393,-1.48917,0.00537594,0.0140744,1973,946,34.18,-5.27733
756,78,34.1628,5.49353,0.00205248,0.0126969,-0.00267867,0.013333,0.0014164,-1.33765,0.00845616,0.0149394,1980,946,34.1628,-5.49355
763,78,34.1055,5.73755,0.00573322,0.0199132,-0.00538189,0.0217245,0.00392193,-1.24615,0.0133688,0.0147372,1987,946,34.1055,-5.73756
770,78,34.0571,5.98212,0.0110156,0.0296583,-0.00900884,0.0333002,0.00737362,-1.18662,0.0201961,0.0189909,1994,946,34.0571,-5.98211
777,78,33.9803,6.13239,0.0185682,0.042532,-0.0144984,0.0493588,0.0117413,-1.13072,0.0297741,0.0377796,2001,946,33.9804,-6.13237
784,78,33.9154,6.21387,0.0296852,0.0601141,-0.0229829,0.0724622,0.0173371,-1.07778,0.0436912,0.0448595,2008,946,33.9154,-6.21388
791,78,33.6697,6.43872,0,0,0,0,0,0,0,-1,2015,946,33.6697,-6.4387
798,78,33.3284,6.56427,0,0,0,0,0,0,0,-1,2022,946,33.3284,-6.56425
805,78,37.8035,3.8642,0,0,0,0,0,0,0,-1,2029,946,37.8034,-3.86419
812,78,0,0,0,0,0,0,0,0,0,-1,2036,946,0,0
-700,71,0,0,0,0,0,0,0,0,0,-1,524,953,0,0
-693,71,0,0,0,0,0,0,0,0,0,-1,531,953,0,0
-686,71,-27.2583,-2.25574,0,0,0,0,0,0,0,-1,538,953,-27.2583,2.25573
-679,71,-26.8693,-1.31665,0,0,0,0,0,0,0,-1,545,953,-26.8693,1.31662
-672,71,-26.7891,-0.707214,0,0,0,0,0,0,0,-1,552,953,-26.7891,0.707214
-665,71,-26.3817,0.333374,0.0527741,0.00867011,0.0376543,0.0743585,-0.0129143,0.5205,0.0543906,0.0447432,559,953,-26.3816,-0.333404
-658,71,-25.6932,1.81946,0.0448384,0.00755293,0.0322529,0.0634488,-0.0110575,0.523348,0.0464261,0.043769,566,953,-25.6932,-1.81943
-651,71,-25.2355,2.78986,0.0361925,0.00681094,0.0268094,0.0520724,-0.00906891,0.534756,0.0380994,0.043009,573,953,-25.2355,-2.78983
-644,71,-24.9295,3.53503,0,0,0,0,0,0,0,-1,580,953,-24.9295,-3.53504
-637,71,-25.3308,3.21777,0.0212133,0.00463071,0.016612,0.0314883,-0.00564422,0.553928,0.0231045,0.0148333,587,953,-25.3308,-3.2178
-630,71,-25.3947,3.00226,0.0146993,0.00364401,0.0121014,0.0224758,-0.00413245,0.571161,0.0165344,0.0140196,594,953,-25.3946,-3.00229
-623,71,-25.4288,2.76947,0.00825631,0.00313659,0.0084994,0.014573,-0.00318008,0.639128,0.0109306,0.014108,601,953,-25.4288,-2.76948
-616,71,-25.4381,2.52875,0.00279803,0.00277477,0.00531425,0.00810066,-0.00252787,0.784304,0.00641139,0.0149934,608,953,-25.4381,-2.52877
-609,71,-25.4172,2.35583,-0.0019918,0.00207172,0.00276981,0.00347506,-0.00339514,1.10184,0.0039666,0.0154624,615,953,-25.4173,-2.35585
-602,71,-25.3981,2.13904,-0.00569981,0.00154945,0.000792762,0.00163513,-0.00578549,1.46313,0.00450212,0.0161472,622,953,-25.3981,-2.13903
-595,71,-25.4025,1.92395,-0.00751673,0.000664269,-0.000806244,0.000742968,-0.00759543,-1.47349,0.00532857,0.016712,629,953,-25.4025,-1.92396
-588,71,-25.3801,1.75696,-0.0080317,0.000320243,-0.00149087,0.000578394,-0.00828985,-1.39934,0.0057291,0.0187964,636,953,-25.3801,-1.75693
-581,71,-25.5771,1.40948,-0.00821385,0.000140245,-0.0016936,0.000470525,-0.00854412,-1.3782,0.00585923,0.0309984,643,953,-25.5771,-1.40948
-574,71,-26.1301,1.1001,-0.00826159,5.35923e-05,-0.00151481,0.000320955,-0.00852895,-1.3961,0.00579592,0.0355469,650,953,-26.1301,-1.10007
-567,71,-26.4147,0.836609,-0.00785983,2.44909e-05,-0.00125454,0.000219299,-0.00805464,-1.41674,0.00544433,0.0204257,657,953,-26.4148,-0.836608
-560,71,-26.4422,0.846863,-0.00695484,5.17827e-05,-0.000770017,0.000135409,-0.00703847,-1.46262,0.00473809,0.0275343,664,953,-26.4422,-0.846864
-553,71,-26.4488,0.920715,-0.00540946,0.000116188,1.47627e-06,0.000116188,-0.00540946,1.57053,0.00364565,0.0408346,671,953,-26.4488,-0.920734
-546,71,-26.4181,0.976379,-0.00319728,0.00015959,0.00106797,0.000470551,-0.00350824,1.28746,0.00251042,0.0428487,678,953,-26.4181,-0.976356
-539,71,-26.296,0.984009,-0.000354349,0.000123243,0.00244141,0.00233751,-0.00256862,0.834148,0.0028336,0.0396265,685,953,-26.296,-0.983999
-532,71,-26.1274,0.80188,0.00289781,-1.38703e-06,0.00395418,0.00565973,-0.0027633,0.609706,0.00495795,0.0451771,692,953,-26.1274,-0.801888
-525,71,-26.0801,0.991455,0.00516407,-1.21825e-05,0.0052586,0.00843694,-0.00328505,0.556716,0.00698218,0.044782,699,953,-26.0801,-0.991457
-518,71,0,0,0,0,0,0,0,0,0,-1,706,953,0,0
-511,71,0,0,0,0,0,0,0,0,0,-1,713,953,0,0
-504,71,0,0,0,0,0,0,0,0,0,-1,720,953,0,0
-497,71,0,0,0,0,0,0,0,0,0,-1,727,953,0,0
-490,71,0,0,0,0,0,0,0,0,0,-1,734,953,0,0
-483,71,0,0,0,0,0,0,0,0,0,-1,741,953,0,0
-476,71,0,0,0,0,0,0,0,0,0,-1,748,953,0,0
-469,71,0,0,0,0,0,0,0,0,0,-1,755,953,0,0
-462,71,0,0,0,0,0,0,0,0,0,-1,762,953,0,0
-455,71,0,0,0,0,0,0,0,0,0,-1,769,953,0,0
-448,71,0,0,0,0,0,0,0,0,0,-1,776,953,0,0
-441,71,0,0,0,0,0,0,0,0,0,-1,783,953,0,0
-434,71,0,0,0,0,0,0,0,0,0,-1,790,953,0,0
-427,71,0,0,0,0,0,0,0,0,0,-1,797,953,0,0
-420,71,0,0,0,0,0,0,0,0,0,-1,804,953,0,0
-413,71,0,0,0,0,0,0,0,0,0,-1,811,953,0,0
-406,71,0,0,0,0,0,0,0,0,0,-1,818,953,0,0
-399,71,0,0,0,0,0,0,0,0,0,-1,825,953,0,0
-392,71,0,0,0,0,0,0,0,0,0,-1,832,953,0,0
-385,71,0,0,0,0,0,0,0,0,0,-1,839,953,0,0
-378,71,0,0,0,0,0,0,0,0,0,-1,846,953,0,0
-371,71,0,0,0,0,0,0,0,0,0,-1,853,953,0,0
-364,71,0,0,0,0,0,0,0,0,0,-1,860,953,0,0
-357,71,0,0,0,0,0,0,0,0,0,-1,867,953,0,0
-350,71,0,0,0,0,0,0,0,0,0,-1,874,953,0,0
-343,71,0,0,0,0,0,0,0,0,0,-1,881,953,0,0
-336,71,0,0,0,0,0,0,0,0,0,-1,888,953,0,0
-329,71,0,0,0,0,0,0,0,0,0,-1,895,953,0,0
-322,71,0,0,0,0,0,0,0,0,0,-1,902,953,0,0
-315,71,0,0,0,0,0,0,0,0,0,-1,909,953,0,0
-308,71,0,0,0,0,0,0,0,0,0,-1,916,953,0,0
-301,71,0,0,0,0,0,0,0,0,0,-1,923,953,0,0
-294,71,0,0,0,0,0,0,0,0,0,-1,930,953,0,0
-287,71,0,0,0,0,0,0,0,0,0,-1,937,953,0,0
-280,71,0,0,0,0,0,0,0,0,0,-1,944,953,0,0
-273,71,0,0,0,0,0,0,0,0,0,-1,951,953,0,0
-266,71,0,0,0,0,0,0,0,0,0,-1,958,953,0,0
-259,71,0,0,0,0,0,0,0,0,0,-1,965,953,0,0
-252,71,0,0,0,0,0,0,0,0,0,-1,972,953,0,0
-245,71,0,0,0,0,0,0,0,0,0,-1,979,953,0,0
-238,71,0,0,0,0,0,0,0,0,0,-1,986,953,0,0
-231,71,0,0,0,0,0,0,0,0,0,-1,993,953,0,0
-224,71,0,0,0,0,0,0,0,0,0,-1,1000,953,0,0
-217,71,0,0,0,0,0,0,0,0,0,-1,1007,953,0,0
-210,71,0,0,0,0,0,0,0,0,0,-1,1014,953,0,0
-203,71,0,0,0,0,0,0,0,0,0,-1,1021,953,0,0
-196,71,0,0,0,0,0,0,0,0,0,-1,1028,953,0,0
-189,71,0,0,0,0,0,0,0,0,0,-1,1035,953,0,0
-182,71,0,0,0,0,0,0,0,0,0,-1,1042,953,0,0
-175,71,0,0,0,0,0,0,0,0,0,-1,1049,953,0,0
-168,71,0,0,0,0,0,0,0,0,0,-1,1056,953,0,0
-161,71,0,0,0,0,0,0,0,0,0,-1,1063,953,0,0
-154,71,0,0,0,0,0,0,0,0,0,-1,1070,953,0,0
-147,71,0,0,0,0,0,0,0,0,0,-1,1077,953,0,0
-140,71,0,0,0,0,0,0,0,0,0,-1,1084,953,0,0
-133,71,0,0,0,0,0,0,0,0,0,-1,1091,953,0,0
-126,71,0,0,0,0,0,0,0,0,0,-1,1098,953,0,0
-119,71,0,0,0,0,0,0,0,0,0,-1,1105,953,0,0
-112,71,0,0,0,0,0,0,0,0,0,-1,1112,953,0,0
-105,71,0,0,0,0,0,0,0,0,0,-1,1119,953,0,0
-98,71,0,0,0,0,0,0,0,0,0,-1,1126,953,0,0
-91,71,0,0,0,0,0,0,0,0,0,-1,1133,953,0,0
-84,71,0,0,0,0,0,0,0,0,0,-1,1140,953,0,0
-77,71,0,0,0,0,0,0,0,0,0,-1,1147,953,0,0
-70,71,0,0,0,0,0,0,0,0,0,-1,1154,953,0,0
-63,71,0,0,0,0,0,0,0,0,0,-1,1161,953,0,0
-56,71,0,0,0,0,0,0,0,0,0,-1,1168,953,0,0
-49,71,0,0,0,0,0,0,0,0,0,-1,1175,953,0,0
-42,71,0,0,0,0,0,0,0,0,0,-1,1182,953,0,0
-35,71,0,0,0,0,0,0,0,0,0,-1,1189,953,0,0
-28,71,0,0,0,0,0,0,0,0,0,-1,1196,953,0,0
-21,71,0,0,0,0,0,0,0,0,0,-1,1203,953,0,0
-14,71,0,0,0,0,0,0,0,0,0,-1,1210,953,0,0
-7,71,0,0,0,0,0,0,0,0,0,-1,1217,953,0,0
0,71,0,0,0,0,0,0,0,0,0,-1,1224,953,0,0
7,71,0,0,0,0,0,0,0,0,0,-1,1231,953,0,0
14,71,0,0,0,0,0,0,0,0,0,-1,1238,953,0,0
21,71,0,0,0,0,0,0,0,0,0,-1,1245,953,0,0
28,71,0,0,0,0,0,0,0,0,0,-1,1252,953,0,0
35,71,0,0,0,0,0,0,0,0,0,-1,1259,953,0,0
42,71,0,0,0,0,0,0,0,0,0,-1,1266,953,0,0
49,71,0,0,0,0,0,0,0,0,0,-1,1273,953,0,0
56,71,0,0,0,0,0,0,0,0,0,-1,1280,953,0,0
63,71,0,0,0,0,0,0,0,0,0,-1,1287,953,0,0
70,71,0,0,0,0,0,0,0,0,0,-1,1294,953,0,0
77,71,0,0,0,0,0,0,0,0,0,-1,1301,953,0,0
84,71,0,0,0,0,0,0,0,0,0,-1,1308,953,0,0
91,71,0,0,0,0,0,0,0,0,0,-1,1315,953,0,0
98,71,0,0,0,0,0,0,0,0,0,-1,1322,953,0,0
105,71,0,0,0,0,0,0,0,0,0,-1,1329,953,0,0
112,71,0,0,0,0,0,0,0,0,0,-1,1336,953,0,0
119,71,0,0,0,0,0,0,0,0,0,-1,1343,953,0,0
126,71,0,0,0,0,0,0,0,0,0,-1,1350,953,0,0
133,71,0,0,0,0,0,0,0,0,0,-1,1357,953,0,0
140,71,0,0,0,0,0,0,0,0,0,-1,1364,953,0,0
147,71,0,0,0,0,0,0,0,0,0,-1,1371,953,0,0
154,71,0,0,0,0,0,0,0,0,0,-1,1378,953,0,0
161,71,0,0,0,0,0,0,0,0,0,-1,1385,953,0,0
168,71,0,0,0,0,0,0,0,0,0,-1,1392,953,0,0
175,71,0,0,0,0,0,0,0,0,0,-1,1399,953,0,0
182,71,0,0,0,0,0,0,0,0,0,-1,1406,953,0,0
189,71,0,0,0,0,0,0,0,0,0,-1,1413,953,0,0
196,71,0,0,0,0,0,0,0,0,0,-1,1420,953,0,0
203,71,0,0,0,0,0,0,0,0,0,-1,1427,953,0,0
210,71,0,0,0,0,0,0,0,0,0,-1,1434,953,0,0
217,71,0,0,0,0,0,0,0,0,0,-1,1441,953,0,0
224,71,0,0,0,0,0,0,0,0,0,-1,1448,953,0,0
231,71,0,0,0,0,0,0,0,0,0,-1,1455,953,0,0
238,71,0,0,0,0,0,0,0,0,0,-1,1462,953,0,0
245,71,0,0,0,0,0,0,0,0,0,-1,1469,953,0,0
252,71,0,0,0,0,0,0,0,0,0,-1,1476,953,0,0
259,71,0,0,0,0,0,0,0,0,0,-1,1483,953,0,0
266,71,0,0,0,0,0,0,0,0,0,-1,1490,953,0,0
273,71,0,0,0,0,0,0,0,0,0,-1,1497,953,0,0
280,71,0,0,0,0,0,0,0,0,0,-1,1504,953,0,0
287,71,0,0,0,0,0,0,0,0,0,-1,1511,953,0,0
294,71,0,0,0,0,0,0,0,0,0,-1,1518,953,0,0
301,71,0,0,0,0,0,0,0,0,0,-1,1525,953,0,0
308,71,0,0,0,0,0,0,0,0,0,-1,1532,953,0,0
315,71,0,0,0,0,0,0,0,0,0,-1,1539,953,0,0
322,71,0,0,0,0,0,0,0,0,0,-1,1546,953,0,0
329,71,0,0,0,0,0,0,0,0,0,-1,1553,953,0,0
336,71,0,0,0,0,0,0,0,0,0,-1,1560,953,0,0
343,71,0,0,0,0,0,0,0,0,0,-1,1567,953,0,0
350,71,0,0,0,0,0,0,0,0,0,-1,1574,953,0,0
357,71,0,0,0,0,0,0,0,0,0,-1,1581,953,0,0
364,71,0,0,0,0,0,0,0,0,0,-1,1588,953,0,0
371,71,0,0,0,0,0,0,0,0,0,-1,1595,953,0,0
378,71,0,0,0,0,0,0,0,0,0,-1,1602,953,0,0
385,71,0,0,0,0,0,0,0,0,0,-1,1609,953,0,0
392,71,0,0,0,0,0,0,0,0,0,-1,1616,953,0,0
399,71,0,0,0,0,0,0,0,0,0,-1,1623,953,0,0
406,71,0,0,0,0,0,0,0,0,0,-1,1630,953,0,0
413,71,0,0,0,0,0,0,0,0,0,-1,1637,953,0,0
420,71,0,0,0,0,0,0,0,0,0,-1,1644,953,0,0
427,71,0,0,0,0,0,0,0,0,0,-1,1651,953,0,0
434,71,0,0,0,0,0,0,0,0,0,-1,1658,953,0,0
441,71,0,0,0,0,0,0,0,0,0,-1,1665,953,0,0
448,71,0,0,0,0,0,0,0,0,0,-1,1672,953,0,0
455,71,0,0,0,0,0,0,0,0,0,-1,1679,953,0,0
462,71,0,0,0,0,0,0,0,0,0,-1,1686,953,0,0
469,71,0,0,0,0,0,0,0,0,0,-1,1693,953,0,0
476,71,0,0,0,0,0,0,0,0,0,-1,1700,953,0,0
483,71,0,0,0,0,0,0,0,0,0,-1,1707,953,0,0
490,71,0,0,0,0,0,0,0,0,0,-1,1714,953,0,0
497,71,0,0,0,0,0,0,0,0,0,-1,1721,953,0,0
504,71,0,0,0,0,0,0,0,0,0,-1,1728,953,0,0
511,71,0,0,0,0,0,0,0,0,0,-1,1735,953,0,0
518,71,0,0,0,0,0,0,0,0,0,-1,1742,953,0,0
525,71,0,0,0,0,0,0,0,0,0,-1,1749,953,0,0
532,71,0,0,0,0,0,0,0,0,0,-1,1756,953,0,0
539,71,0,0,0,0,0,0,0,0,0,-1,1763,953,0,0
546,71,0,0,0,0,0,0,0,0,0,-1,1770,953,0,0
553,71,0,0,0,0,0,0,0,0,0,-1,1777,953,0,0
560,71,0,0,0,0,0,0,0,0,0,-1,1784,953,0,0
567,71,0,0,0,0,0,0,0,0,0,-1,1791,953,0,0
574,71,0,0,0,0,0,0,0,0,0,-1,1798,953,0,0
581,71,0,0,0,0,0,0,0,0,0,-1,1805,953,0,0
588,71,0,0,0,0,0,0,0,0,0,-1,1812,953,0,0
595,71,0,0,0,0,0,0,0,0,0,-1,1819,953,0,0
602,71,0,0,0,0,0,0,0,0,0,-1,1826,953,0,0
609,71,0,0,0,0,0,0,0,0,0,-1,1833,953,0,0
616,71,0,0,0,0,0,0,0,0,0,-1,1840,953,0,0
623,71,0,0,0,0,0,0,0,0,0,-1,1847,953,0,0
630,71,0,0,0,0,0,0,0,0,0,-1,1854,953,0,0
637,71,36.5114,2.94446,0.00811371,-0.00203909,-0.00643265,0.0112317,-0.00515713,-0.45135,0.00967635,0.0410534,1861,953,36.5114,-2.94448
644,71,36.5913,2.77618,0.00583551,-0.00162658,-0.00514109,0.00845675,-0.00424782,-0.471505,0.00746796,0.04365,1868,953,36.5913,-2.77619
651,71,36.4913,2.66754,0.00386507,-0.00128039,-0.00389533,0.00596059,-0.0033759,-0.49355,0.00545884,0.0414508,1875,953,36.4913,-2.66754
658,71,36.3147,2.76892,0.00207793,-0.000809867,-0.00242899,0.00345978,-0.00219172,-0.517237,0.00329016,0.03952,1882,953,36.3147,-2.76892
665,71,36.3569,2.69415,0.000412078,-0.000137081,-0.000635545,0.000829822,-0.000554824,-0.58149,0.000804664,0.0390583,1889,953,36.357,-2.69413
672,71,36.3418,2.60315,-0.000988803,0.000444199,0.00109368,0.00103518,-0.00157978,1.07538,0.00152062,0.0389784,1896,953,36.3418,-2.60317
679,71,36.2437,2.4101,-0.00193677,0.000841867,0.00244469,0.00226444,-0.00335934,1.04379,0.00326734,0.0420336,1903,953,36.2437,-2.4101
686,71,36.306,2.44476,-0.00241418,0.0010592,0.00330915,0.0030597,-0.00441468,1.02705,0.00433891,0.0398085,1910,953,36.306,-2.44479
693,71,36.3275,2.57892,-0.00275563,0.00123648,0.00386593,0.00359125,-0.0051104,1.02371,0.00504936,0.033866,1917,953,36.3275,-2.57894
700,71,36.2002,2.69324,-0.00304316,0.00135809,0.00408362,0.00379629,-0.00548136,1.03253,0.00538582,0.032366,1924,953,36.2002,-2.69324
707,71,36.0618,3.21161,-0.00311158,0.00154963,0.00399859,0.00384725,-0.0054092,1.04926,0.00536952,0.0368871,1931,953,36.0618,-3.21161
714,71,34.7177,4.09924,0,0,0,0,0,0,0,-1,1938,953,34.7176,-4.09922
721,71,34.568,4.25427,-0.00337045,0.00216008,0.00347045,0.00383223,-0.00504261,1.12179,0.00513975,0.0372658,1945,953,34.568,-4.25426
728,71,34.4647,4.53802,-0.00321352,0.0025386,0.00323628,0.00399211,-0.00466703,1.14866,0.00500442,0.0216155,1952,953,34.4647,-4.53803
735,71,34.4789,4.79248,-0.00286943,0.00331659,0.00273464,0.00435213,-0.00390498,1.20881,0.00476958,0.0162385,1959,953,34.4789,-4.79247
742,71,34.4985,5.02435,-0.00216524,0.00459551,0.00176072,0.00502658,-0.00259631,1.3307,0.00447501,0.0167391,1966,953,34.4985,-5.02434
749,71,34.474,5.24652,-0.000809103,0.0083475,-4.5199e-05,0.00834772,-0.000809326,-1.56586,0.0058536,0.01712,1973,953,34.474,-5.2465
756,71,34.4563,5.4635,0.00123287,0.0131585,-0.00212982,0.0135275,0.000863915,-1.39927,0.00874459,0.0166875,1980,953,34.4562,-5.4635
763,71,34.4094,5.71283,0.00482228,0.0206204,-0.00490943,0.0220217,0.00342092,-1.29275,0.0136841,0.0172654,1987,953,34.4095,-5.71284
770,71,34.2714,5.87482,0.00996178,0.0309159,-0.00850981,0.0339364,0.00694122,-1.22972,0.0207021,0.0193855,1994,953,34.2714,-5.87484
777,71,34.1274,5.98022,0.0173531,0.0446467,-0.0138979,0.0504777,0.0115221,-1.17354,0.0305443,0.0383964,2001,953,34.1275,-5.98024
784,71,34.0389,6.0827,0.0282725,0.0634579,-0.0221931,0.0741854,0.017545,-1.12054,0.0447696,0.0453987,2008,953,34.0389,-6.08268
791,71,33.8936,6.20374,0,0,0,0,0,0,0,-1,2015,953,33.8935,-6.20371
798,71,32.51,5.93262,0,0,0,0,0,0,0,-1,2022,953,32.5101,-5.93259
805,71,31.5969,4.77124,0,0,0,0,0,0,0,-1,2029,953,31.5969,-4.77121
812,71,0,0,0,0,0,0,0,0,0,-1,2036,953,0,0
-700,64,0,0,0,0,0,0,0,0,0,-1,524,960,0,0
-693,64,0,0,0,0,0,0,0,0,0,-1,531,960,0,0
-686,64,-27.2173,-1.83063,0,0,0,0,0,0,0,-1,538,960,-27.2173,1.83062
-679,64,-26.7476,-1.18475,0.0565644,0.0196487,0.0502944,0.0916809,-0.0154678,0.60953,0.0668755,0.0474006,545,960,-26.7475,1.18477
-672,64,-26.3093,-0.495117,0.0532293,0.0159887,0.0444657,0.0828159,-0.0135979,0.587113,0.0602569,0.0449842,552,960,-26.3093,0.495087
-665,64,-25.6887,0.458557,0.0470214,0.0136875,0.0383123,0.0721351,-0.0114262,0.580231,0.0523164,0.0432271,559,960,-25.6887,-0.458529
-658,64,-24.9407,1.83057,0.0395197,0.012053,0.032193,0.0607862,-0.00921352,0.583788,0.0439187,0.0428739,566,960,-24.9407,-1.83057
-651,64,-24.2485,3.00073,0,0,0,0,0,0,0,-1,573,960,-24.2485,-3.00073
-644,64,-25.7032,3.19623,0.0243552,0.00929847,0.0210321,0.0391657,-0.00551202,0.61353,0.0281284,0.0309642,580,960,-25.7032,-3.19624
-637,64,-25.591,3.11768,0.0187804,0.00715601,0.0158215,0.0298235,-0.00388708,0.609369,0.0212966,0.0161323,587,960,-25.591,-3.11769
-630,64,-25.63,2.94818,0.0130952,0.00560393,0.0111499,0.0211118,-0.00241264,0.623352,0.0149438,0.0139138,594,960,-25.63,-2.94815
-623,64,-25.6349,2.76617,0.00725323,0.00474872,0.00742571,0.0135315,-0.00152959,0.701865,0.00957171,0.0143862,601,960,-25.6349,-2.76616
-616,64,-25.6588,2.54767,0.00242761,0.00416498,0.00428532,0.00766877,-0.00107618,0.885399,0.00550641,0.0179987,608,960,-25.6588,-2.54768
-609,64,-25.6326,2.38153,-0.00191306,0.00317529,0.0017717,0.00373139,-0.00246917,1.26665,0.00360454,0.0175644,615,960,-25.6327,-2.38153
-602,64,-25.613,2.18427,-0.00527503,0.00236514,-0.000190762,0.0023699,-0.00527979,-1.54585,0.00452181,0.0171618,622,960,-25.613,-2.18425
-595,64,-25.6325,1.98676,-0.00690621,0.00122359,-0.0017501,0.00158433,-0.00726695,-1.36752,0.00545005,0.0181504,629,960,-25.6325,-1.98675
-588,64,-25.6285,1.88293,-0.00736135,0.000596206,-0.00238915,0.00125841,-0.00802355,-1.30041,0.00581408,0.027622,636,960,-25.6286,-1.88293
-581,64,-25.8531,1.50885,-0.00752619,0.000244678,-0.00248721,0.000972573,-0.00825409,-1.28609,0.00585391,0.0372309,643,960,-25.8531,-1.50882
-574,64,-26.2767,1.09833,-0.00758646,8.04594e-05,-0.00217248,0.000653255,-0.00815925,-1.313,0.00566981,0.0374892,650,960,-26.2767,-1.09831
-567,64,-26.4146,0.815491,-0.00722591,-4.24331e-05,-0.00172924,0.000352161,-0.00762051,-1.34645,0.0052017,0.0254031,657,960,-26.4146,-0.815489
-560,64,-26.5234,0.840698,-0.00638965,-0.000105766,-0.000985801,4.52551e-05,-0.00654067,-1.41878,0.00437561,0.0321677,664,960,-26.5234,-0.840699
-553,64,-26.49,0.914856,-0.00494548,-0.000132715,6.70412e-05,-0.000131781,-0.00494641,1.55687,0.00325457,0.036443,671,960,-26.49,-0.914862
-546,64,-26.4161,0.907288,-0.0028954,-0.000155228,0.00143151,0.000456189,-0.00350682,1.16714,0.00250383,0.0391819,678,960,-26.4161,-0.907303
-539,64,-26.4304,0.81665,-0.000283751,-0.000203204,0.00307551,0.00283229,-0.00331925,0.791945,0.0035553,0.0405271,685,960,-26.4303,-0.81665
-532,64,-26.2791,0.765198,0.00264048,-0.000172289,0.00473146,0.00617015,-0.00370196,0.640936,0.00575873,0.0432638,692,960,-26.2791,-0.765228
-525,64,-25.879,0.800049,0,0,0,0,0,0,0,-1,699,960,-25.879,-0.800031
-518,64,0,0,0,0,0,0,0,0,0,-1,706,960,0,0
-511,64,0,0,0,0,0,0,0,0,0,-1,713,960,0,0
-504,64,0,0,0,0,0,0,0,0,0,-1,720,960,0,0
-497,64,0,0,0,0,0,0,0,0,0,-1,727,960,0,0
-490,64,0,0,0,0,0,0,0,0,0,-1,734,960,0,0
-483,64,0,0,0,0,0,0,0,0,0,-1,741,960,0,0
-476,64,0,0,0,0,0,0,0,0,0,-1,748,960,0,0
-469,64,0,0,0,0,0,0,0,0,0,-1,755,960,0,0
-462,64,0,0,0,0,0,0,0,0,0,-1,762,960,0,0
-455,64,0,0,0,0,0,0,0,0,0,-1,769,960,0,0
-448,64,0,0,0,0,0,0,0,0,0,-1,776,960,0,0
-441,64,0,0,0,0,0,0,0,0,0,-1,783,960,0,0
-434,64,0,0,0,0,0,0,0,0,0,-1,790,960,0,0
-427,64,0,0,0,0,0,0,0,0,0,-1,797,960,0,0
-420,64,0,0,0,0,0,0,0,0,0,-1,804,960,0,0
-413,64,0,0,0,0,0,0,0,0,0,-1,811,960,0,0
-406,64,0,0,0,0,0,0,0,0,0,-1,818,960,0,0
-399,64,0,0,0,0,0,0,0,0,0,-1,825,960,0,0
-392,64,0,0,0,0,0,0,0,0,0,-1,832,960,0,0
-385,64,0,0,0,0,0,0,0,0,0,-1,839,960,0,0
-378,64,0,0,0,0,0,0,0,0,0,-1,846,960,0,0
-371,64,0,0,0,0,0,0,0,0,0,-1,853,960,0,0
-364,64,0,0,0,0,0,0,0,0,0,-1,860,960,0,0
-357,64,0,0,0,0,0,0,0,0,0,-1,867,960,0,0
-350,64,0,0,0,0,0,0,0,0,0,-1,874,960,0,0
-343,64,0,0,0,0,0,0,0,0,0,-1,881,960,0,0
-336,64,0,0,0,0,0,0,0,0,0,-1,888,960,0,0
-329,64,0,0,0,0,0,0,0,0,0,-1,895,960,0,0
-322,64,0,0,0,0,0,0,0,0,0,-1,902,960,0,0
-315,64,0,0,0,0,0,0,0,0,0,-1,909,960,0,0
-308,64,0,0,0,0,0,0,0,0,0,-1,916,960,0,0
-301,64,0,0,0,0,0,0,0,0,0,-1,923,960,0,0
-294,64,0,0,0,0,0,0,0,0,0,-1,930,960,0,0
-287,64,0,0,0,0,0,0,0,0,0,-1,937,960,0,0
-280,64,0,0,0,0,0,0,0,0,0,-1,944,960,0,0
-273,64,0,0,0,0,0,0,0,0,0,-1,951,960,0,0
-266,64,0,0,0,0,0,0,0,0,0,-1,958,960,0,0
-259,64,0,0,0,0,0,0,0,0,0,-1,965,960,0,0
-252,64,0,0,0,0,0,0,0,0,0,-1,972,960,0,0
-245,64,0,0,0,0,0,0,0,0,0,-1,979,960,0,0
-238,64,0,0,0,0,0,0,0,0,0,-1,986,960,0,0
-231,64,0,0,0,0,0,0,0,0,0,-1,993,960,0,0
-224,64,0,0,0,0,0,0,0,0,0,-1,1000,960,0,0
-217,64,0,0,0,0,0,0,0,0,0,-1,1007,960,0,0
-210,64,0,0,0,0,0,0,0,0,0,-1,1014,960,0,0
-203,64,0,0,0,0,0,0,0,0,0,-1,1021,960,0,0
-196,64,0,0,0,0,0,0,0,0,0,-1,1028,960,0,0
-189,64,0,0,0,0,0,0,0,0,0,-1,1035,960,0,0
-182,64,0,0,0,0,0,0,0,0,0,-1,1042,960,0,0
-175,64,0,0,0,0,0,0,0,0,0,-1,1049,960,0,0
-168,64,0,0,0,0,0,0,0,0,0,-1,1056,960,0,0
-161,64,0,0,0,0,0,0,0,0,0,-1,1063,960,0,0
-154,64,0,0,0,0,0,0,0,0,0,-1,1070,960,0,0
-147,64,0,0,0,0,0,0,0,0,0,-1,1077,960,0,0
-140,64,0,0,0,0,0,0,0,0,0,-1,1084,960,0,0
-133,64,0,0,0,0,0,0,0,0,0,-1,1091,960,0,0
-126,64,0,0,0,0,0,0,0,0,0,-1,1098,960,0,0
-119,64,0,0,0,0,0,0,0,0,0,-1,1105,960,0,0
-112,64,0,0,0,0,0,0,0,0,0,-1,1112,960,0,0
-105,64,0,0,0,0,0,0,0,0,0,-1,1119,960,0,0
-98,64,0,0,0,0,0,0,0,0,0,-1,1126,960,0,0
-91,64,0,0,0,0,0,0,0,0,0,-1,1133,960,0,0
-84,64,0,0,0,0,0,0,0,0,0,-1,1140,960,0,0
-77,64,0,0,0,0,0,0,0,0,0,-1,1147,960,0,0
-70,64,0,0,0,0,0,0,0,0,0,-1,1154,960,0,0
-63,64,0,0,0,0,0,0,0,0,0,-1,1161,960,0,0
-56,64,0,0,0,0,0,0,0,0,0,-1,1168,960,0,0
-49,64,0,0,0,0,0,0,0,0,0,-1,1175,960,0,0
-42,64,0,0,0,0,0,0,0,0,0,-1,1182,960,0,0
-35,64,0,0,0,0,0,0,0,0,0,-1,1189,960,0,0
-28,64,0,0,0,0,0,0,0,0,0,-1,1196,960,0,0
-21,64,0,0,0,0,0,0,0,0,0,-1,1203,960,0,0
-14,64,0,0,0,0,0,0,0,0,0,-1,1210,960,0,0
-7,64,0,0,0,0,0,0,0,0,0,-1,1217,960,0,0
0,64,0,0,0,0,0,0,0,0,0,-1,1224,960,0,0
7,64,0,0,0,0,0,0,0,0,0,-1,1231,960,0,0
14,64,0,0,0,0,0,0,0,0,0,-1,1238,960,0,0
21,64,0,0,0,0,0,0,0,0,0,-1,1245,960,0,0
28,64,0,0,0,0,0,0,0,0,0,-1,1252,960,0,0
35,64,0,0,0,0,0,0,0,0,0,-1,1259,960,0,0
42,64,0,0,0,0,0,0,0,0,0,-1,1266,960,0,0
49,64,0,0,0,0,0,0,0,0,0,-1,1273,960,0,0
56,64,0,0,0,0,0,0,0,0,0,-1,1280,960,0,0
63,64,0,0,0,0,0,0,0,0,0,-1,1287,960,0,0
70,64,0,0,0,0,0,0,0,0,0,-1,1294,960,0,0
77,64,0,0,0,0,0,0,0,0,0,-1,1301,960,0,0
84,64,0,0,0,0,0,0,0,0,0,-1,1308,960,0,0
91,64,0,0,0,0,0,0,0,0,0,-1,1315,960,0,0
98,64,0,0,0,0,0,0,0,0,0,-1,1322,960,0,0
105,64,0,0,0,0,0,0,0,0,0,-1,1329,960,0,0
112,64,0,0,0,0,0,0,0,0,0,-1,1336,960,0,0
119,64,0,0,0,0,0,0,0,0,0,-1,1343,960,0,0
126,64,0,0,0,0,0,0,0,0,0,-1,1350,960,0,0
133,64,0,0,0,0,0,0,0,0,0,-1,1357,960,0,0
140,64,0,0,0,0,0,0,0,0,0,-1,1364,960,0,0
147,64,0,0,0,0,0,0,0,0,0,-1,1371,960,0,0
154,64,0,0,0,0,0,0,0,0,0,-1,1378,960,0,0
161,64,0,0,0,0,0,0,0,0,0,-1,1385,960,0,0
168,64,0,0,0,0,0,0,0,0,0,-1,1392,960,0,0
175,64,0,0,0,0,0,0,0,0,0,-1,1399,960,0,0
182,64,0,0,0,0,0,0,0,0,0,-1,1406,960,0,0
189,64,0,0,0,0,0,0,0,0,0,-1,1413,960,0,0
196,64,0,0,0,0,0,0,0,0,0,-1,1420,960,0,0
203,64,0,0,0,0,0,0,0,0,0,-1,1427,960,0,0
210,64,0,0,0,0,0,0,0,0,0,-1,1434,960,0,0
217,64,0,0,0,0,0,0,0,0,0,-1,1441,960,0,0
224,64,0,0,0,0,0,0,0,0,0,-1,1448,960,0,0
231,64,0,0,0,0,0,0,0,0,0,-1,1455,960,0,0
238,64,0,0,0,0,0,0,0,0,0,-1,1462,960,0,0
245,64,0,0,0,0,0,0,0,0,0,-1,1469,960,0,0
252,64,0,0,0,0,0,0,0,0,0,-1,1476,960,0,0
259,64,0,0,0,0,0,0,0,0,0,-1,1483,960,0,0
266,64,0,0,0,0,0,0,0,0,0,-1,1490,960,0,0
273,64,0,0,0,0,0,0,0,0,0,-1,1497,960,0,0
280,64,0,0,0,0,0,0,0,0,0,-1,1504,960,0,0
287,64,0,0,0,0,0,0,0,0,0,-1,1511,960,0,0
294,64,0,0,0,0,0,0,0,0,0,-1,1518,960,0,0
301,64,0,0,0,0,0,0,0,0,0,-1,1525,960,0,0
308,64,0,0,0,0,0,0,0,0,0,-1,1532,960,0,0
315,64,0,0,0,0,0,0,0,0,0,-1,1539,960,0,0
322,64,0,0,0,0,0,0,0,0,0,-1,1546,960,0,0
329,64,0,0,0,0,0,0,0,0,0,-1,1553,960,0,0
336,64,0,0,0,0,0,0,0,0,0,-1,1560,960,0,0
343,64,0,0,0,0,0,0,0,0,0,-1,1567,960,0,0
350,64,0,0,0,0,0,0,0,0,0,-1,1574,960,0,0
357,64,0,0,0,0,0,0,0,0,0,-1,1581,960,0,0
364,64,0,0,0,0,0,0,0,0,0,-1,1588,960,0,0
371,64,0,0,0,0,0,0,0,0,0,-1,1595,960,0,0
378,64,0,0,0,0,0,0,0,0,0,-1,1602,960,0,0
385,64,0,0,0,0,0,0,0,0,0,-1,1609,960,0,0
392,64,0,0,0,0,0,0,0,0,0,-1,1616,960,0,0
399,64,0,0,0,0,0,0,0,0,0,-1,1623,960,0,0
406,64,0,0,0,0,0,0,0,0,0,-1,1630,960,0,0
413,64,0,0,0,0,0,0,0,0,0,-1,1637,960,0,0
420,64,0,0,0,0,0,0,0,0,0,-1,1644,960,0,0
427,64,0,0,0,0,0,0,0,0,0,-1,1651,960,0,0
434,64,0,0,0,0,0,0,0,0,0,-1,1658,960,0,0
441,64,0,0,0,0,0,0,0,0,0,-1,1665,960,0,0
448,64,0,0,0,0,0,0,0,0,0,-1,1672,960,0,0
455,64,0,0,0,0,0,0,0,0,0,-1,1679,960,0,0
462,64,0,0,0,0,0,0,0,0,0,-1,1686,960,0,0
469,64,0,0,0,0,0,0,0,0,0,-1,1693,960,0,0
476,64,0,0,0,0,0,0,0,0,0,-1,1700,960,0,0
483,64,0,0,0,0,0,0,0,0,0,-1,1707,960,0,0
490,64,0,0,0,0,0,0,0,0,0,-1,1714,960,0,0
497,64,0,0,0,0,0,0,0,0,0,-1,1721,960,0,0
504,64,0,0,0,0,0,0,0,0,0,-1,1728,960,0,0
511,64,0,0,0,0,0,0,0,0,0,-1,1735,960,0,0
518,64,0,0,0,0,0,0,0,0,0,-1,1742,960,0,0
525,64,0,0,0,0,0,0,0,0,0,-1,1749,960,0,0
532,64,0,0,0,0,0,0,0,0,0,-1,1756,960,0,0
539,64,0,0,0,0,0,0,0,0,0,-1,1763,960,0,0
546,64,0,0,0,0,0,0,0,0,0,-1,1770,960,0,0
553,64,0,0,0,0,0,0,0,0,0,-1,1777,960,0,0
560,64,0,0,0,0,0,0,0,0,0,-1,1784,960,0,0
567,64,0,0,0,0,0,0,0,0,0,-1,1791,960,0,0
574,64,0,0,0,0,0,0,0,0,0,-1,1798,960,0,0
581,64,0,0,0,0,0,0,0,0,0,-1,1805,960,0,0
588,64,0,0,0,0,0,0,0,0,0,-1,1812,960,0,0
595,64,0,0,0,0,0,0,0,0,0,-1,1819,960,0,0
602,64,0,0,0,0,0,0,0,0,0,-1,1826,960,0,0
609,64,0,0,0,0,0,0,0,0,0,-1,1833,960,0,0
616,64,0,0,0,0,0,0,0,0,0,-1,1840,960,0,0
623,64,0,0,0,0,0,0,0,0,0,-1,1847,960,0,0
630,64,0,0,0,0,0,0,0,0,0,-1,1854,960,0,0
637,64,0,0,0,0,0,0,0,0,0,-1,1861,960,0,0
644,64,36.4106,2.66107,0.00651246,-0.000923675,-0.0049532,0.00898779,-0.00339901,-0.463443,0.00739018,0.0421477,1868,960,36.4106,-2.66104
651,64,36.3293,2.58783,0.00443931,-0.000992362,-0.00375442,0.00635721,-0.00291025,-0.472279,0.00547255,0.0386189,1875,960,36.3293,-2.58782
658,64,36.229,2.70758,0.00262486,-0.000859781,-0.00237865,0.00383104,-0.00206596,-0.4693,0.0034551,0.0375813,1882,960,36.229,-2.70756
665,64,36.3292,2.67981,0.000902414,-0.00035502,-0.000604663,0.00114599,-0.0005986,-0.382949,0.00102364,0.0398931,1889,960,36.3292,-2.67984
672,64,36.4131,2.53448,-0.000597479,0.000229227,0.0011879,0.00107363,-0.00144189,0.952831,0.00145751,0.0392679,1896,960,36.4131,-2.53451
679,64,36.2513,2.56207,-0.00166525,0.000725214,0.00264098,0.00242883,-0.00336887,0.997894,0.00336194,0.0409261,1903,960,36.2513,-2.5621
686,64,36.217,2.55731,-0.00225494,0.00105701,0.00362642,0.00338766,-0.00458558,0.99958,0.00462064,0.0384462,1910,960,36.217,-2.55729
693,64,36.2504,2.59528,-0.00265533,0.00133164,0.00426502,0.00404606,-0.00536975,1.00401,0.0054541,0.0349703,1917,960,36.2504,-2.59528
700,64,36.2378,2.66541,-0.00297589,0.00153828,0.00450487,0.00431988,-0.00575748,1.01763,0.00583787,0.0301466,1924,960,36.2378,-2.66541
707,64,36.1179,3.15985,-0.00309314,0.00180592,0.00443069,0.00441912,-0.00570634,1.03791,0.00586166,0.0378021,1931,960,36.118,-3.15985
714,64,36.0148,3.95514,0,0,0,0,0,0,0,-1,1938,960,36.0148,-3.95515
721,64,34.7233,4.29468,0,0,0,0,0,0,0,-1,1945,960,34.7232,-4.29466
728,64,34.6545,4.57886,-0.00339266,0.00297568,0.00363925,0.00462712,-0.00504409,1.1448,0.00558541,0.017808,1952,960,34.6546,-4.57884
735,64,34.6633,4.82568,-0.00308351,0.00376919,0.00311904,0.00497623,-0.00429055,1.20156,0.00535506,0.0234385,1959,960,34.6634,-4.82568
742,64,34.7303,5.01111,-0.00249665,0.00495804,0.00222702,0.00557267,-0.00311128,1.30151,0.00508037,0.0207681,1966,960,34.7304,-5.01111
749,64,34.7048,5.21997,-0.00130605,0.00889233,0.000410409,0.00890882,-0.00132254,1.53064,0.00642559,0.0146009,1973,960,34.7049,-5.21996
756,64,34.6798,5.44629,0.00150648,0.0135636,-0.00190226,0.0138566,0.00121348,-1.41797,0.008861,0.014573,1980,960,34.6798,-5.4463
763,64,34.6664,5.68335,0.00692692,0.0206681,-0.00434941,0.021929,0.00566594,-1.28861,0.0131443,0.0162848,1987,960,34.6664,-5.68333
770,64,34.5426,5.82635,0.0141996,0.0307745,-0.00766736,0.0337773,0.0111968,-1.19752,0.0198671,0.0169901,1994,960,34.5426,-5.82636
777,64,34.389,6.11334,0.0249193,0.0441075,-0.0124372,0.050221,0.0188057,-1.11393,0.0292982,0.0338694,2001,960,34.3891,-6.11335
784,64,34.2118,6.48651,0.0408758,0.0618059,-0.0195164,0.0734859,0.0291957,-1.0315,0.0427244,0.0452256,2008,960,34.2118,-6.48648
791,64,34.0559,6.82019,0,0,0,0,0,0,0,-1,2015,960,34.0558,-6.82018
798,64,33.2603,5.49829,0,0,0,0,0,0,0,-1,2022,960,33.2603,-5.49832
805,64,33.3315,6.31775,0,0,0,0,0,0,0,-1,2029,960,33.3316,-6.31777
812,64,0,0,0,0,0,0,0,0,0,-1,2036,960,0,0
-700,57,0,0,0,0,0,0,0,0,0,-1,524,967,0,0
-693,57,0,0,0,0,0,0,0,0,0,-1,531,967,0,0
-686,57,-27.6631,-1.52496,0,0,0,0,0,0,0,-1,538,967,-27.6631,1.52494
-679,57,-26.7416,-0.928955,0.0437089,0.0286287,0.0506286,0.0873558,-0.0150182,0.711477,0.0638349,0.0448737,545,967,-26.7416,0.928959
-672,57,-25.9061,-0.224182,0.0420136,0.0236604,0.0443323,0.0781091,-0.0124351,0.683342,0.0566743,0.0440703,552,967,-25.906,0.22417
-665,57,-25.1796,0.389038,0.0377185,0.0200782,0.0379514,0.0678612,-0.0100645,0.671222,0.0489418,0.0451158,559,967,-25.1796,-0.389015
-658,57,-24.4532,1.01898,0,0,0,0,0,0,0,-1,566,967,-24.4532,-1.01897
-651,57,-26.0854,3.14941,0.0261516,0.0148037,0.0259389,0.0470299,-0.00607459,0.677723,0.0335619,0.0455321,573,967,-26.0854,-3.14944
-644,57,-25.8336,3.06293,0.0203521,0.0125208,0.0205571,0.0373631,-0.00449024,0.691287,0.0265324,0.0323401,580,967,-25.8336,-3.06294
-637,57,-25.7911,3.01428,0.0160538,0.00963139,0.0151924,0.0283707,-0.00268548,0.681246,0.0198696,0.0179389,587,967,-25.7911,-3.0143
-630,57,-25.8441,2.86798,0.011362,0.00743141,0.0103437,0.0199254,-0.00113199,0.691517,0.0136766,0.0150543,594,967,-25.8441,-2.86797
-623,57,-25.8312,2.7514,0.00631403,0.00607401,0.00648613,0.0126813,-0.000293218,0.776148,0.00855359,0.0134,601,967,-25.8312,-2.75139
-616,57,-25.8414,2.56647,0.0021578,0.00524215,0.00332253,0.00736297,3.69826e-05,1.00268,0.00489637,0.0140384,608,967,-25.8414,-2.56645
-609,57,-25.8446,2.36664,-0.00169256,0.00395646,0.000779448,0.00406203,-0.00179814,1.43617,0.00346651,0.0143691,615,967,-25.8446,-2.36665
-602,57,-25.8262,2.1936,-0.00461655,0.00285447,-0.00118075,0.00303664,-0.00479872,-1.41772,0.00456172,0.0122271,622,967,-25.8262,-2.19361
-595,57,-25.8311,2.04889,-0.00602482,0.0014303,-0.00269728,0.00230383,-0.00689835,-1.2576,0.00552922,0.0133461,629,967,-25.8311,-2.04887
-588,57,-25.8668,1.97144,-0.00642115,0.000567836,-0.00330089,0.00188036,-0.00773367,-1.19234,0.00588359,0.0208291,636,967,-25.8668,-1.97146
-581,57,-26.0968,1.47174,-0.00658556,5.09561e-05,-0.00330181,0.00141381,-0.00794841,-1.17934,0.00582766,0.0317313,643,967,-26.0968,-1.47176
-574,57,-26.3961,0.888916,0,0,0,0,0,0,0,-1,650,967,-26.3961,-0.888925
-567,57,-26.407,0.739929,-0.00638558,-0.000435811,-0.00219043,0.000283613,-0.007105,-1.25346,0.00483398,0.031331,657,967,-26.407,-0.739914
-560,57,-26.4985,0.640259,-0.00565379,-0.000612951,-0.00117242,-0.000353608,-0.00591313,-1.3531,0.00382966,0.0393382,664,967,-26.4985,-0.640232
-553,57,-26.519,0.646973,-0.00437637,-0.000738325,0.000164875,-0.000730868,-0.00438383,1.5256,0.00271196,0.0384483,671,967,-26.519,-0.646963
-546,57,-26.3669,0.843506,-0.00257173,-0.000826269,0.00180692,0.000307641,-0.00370564,1.01037,0.0025791,0.0389615,678,967,-26.3669,-0.843483
-539,57,-26.4089,0.818237,-0.000264756,-0.000880206,0.00365371,0.00309416,-0.00423912,0.743386,0.00425104,0.0411825,685,967,-26.409,-0.818212
-532,57,-26.4669,0.92157,0.00225199,-0.000657798,0.0053112,0.00630396,-0.00470977,0.651713,0.00638095,0.0402677,692,967,-26.4669,-0.921595
-525,57,-26.3921,1.10168,0.00340709,0.00010535,0.00642344,0.00838841,-0.00487598,0.659617,0.00774718,0.039488,699,967,-26.3921,-1.10171
-518,57,0,0,0,0,0,0,0,0,0,-1,706,967,0,0
-511,57,0,0,0,0,0,0,0,0,0,-1,713,967,0,0
-504,57,0,0,0,0,0,0,0,0,0,-1,720,967,0,0
-497,57,0,0,0,0,0,0,0,0,0,-1,727,967,0,0
-490,57,0,0,0,0,0,0,0,0,0,-1,734,967,0,0
-483,57,0,0,0,0,0,0,0,0,0,-1,741,967,0,0
-476,57,0,0,0,0,0,0,0,0,0,-1,748,967,0,0
-469,57,0,0,0,0,0,0,0,0,0,-1,755,967,0,0
-462,57,0,0,0,0,0,0,0,0,0,-1,762,967,0,0
-455,57,0,0,0,0,0,0,0,0,0,-1,769,967,0,0
-448,57,0,0,0,0,0,0,0,0,0,-1,776,967,0,0
-441,57,0,0,0,0,0,0,0,0,0,-1,783,967,0,0
-434,57,0,0,0,0,0,0,0,0,0,-1,790,967,0,0
-427,57,0,0,0,0,0,0,0,0,0,-1,797,967,0,0
-420,57,0,0,0,0,0,0,0,0,0,-1,804,967,0,0
-413,57,0,0,0,0,0,0,0,0,0,-1,811,967,0,0
-406,57,0,0,0,0,0,0,0,0,0,-1,818,967,0,0
-399,57,0,0,0,0,0,0,0,0,0,-1,825,967,0,0
-392,57,0,0,0,0,0,0,0,0,0,-1,832,967,0,0
-385,57,0,0,0,0,0,0,0,0,0,-1,839,967,0,0
-378,57,0,0,0,0,0,0,0,0,0,-1,846,967,0,0
-371,57,0,0,0,0,0,0,0,0,0,-1,853,967,0,0
-364,57,0,0,0,0,0,0,0,0,0,-1,860,967,0,0
-357,57,0,0,0,0,0,0,0,0,0,-1,867,967,0,0
-350,57,0,0,0,0,0,0,0,0,0,-1,874,967,0,0
-343,57,0,0,0,0,0,0,0,0,0,-1,881,967,0,0
-336,57,0,0,0,0,0,0,0,0,0,-1,888,967,0,0
-329,57,0,0,0,0,0,0,0,0,0,-1,895,967,0,0
-322,57,0,0,0,0,0,0,0,0,0,-1,902,967,0,0
-315,57,0,0,0,0,0,0,0,0,0,-1,909,967,0,0
-308,57,0,0,0,0,0,0,0,0,0,-1,916,967,0,0
-301,57,0,0,0,0,0,0,0,0,0,-1,923,967,0,0
-294,57,0,0,0,0,0,0,0,0,0,-1,930,967,0,0
-287,57,0,0,0,0,0,0,0,0,0,-1,937,967,0,0
-280,57,0,0,0,0,0,0,0,0,0,-1,944,967,0,0
-273,57,0,0,0,0,0,0,0,0,0,-1,951,967,0,0
-266,57,0,0,0,0,0,0,0,0,0,-1,958,967,0,0
-259,57,0,0,0,0,0,0,0,0,0,-1,965,967,0,0
-252,57,0,0,0,0,0,0,0,0,0,-1,972,967,0,0
-245,57,0,0,0,0,0,0,0,0,0,-1,979,967,0,0
-238,57,0,0,0,0,0,0,0,0,0,-1,986,967,0,0
-231,57,0,0,0,0,0,0,0,0,0,-1,993,967,0,0
-224,57,0,0,0,0,0,0,0,0,0,-1,1000,967,0,0
-217,57,0,0,0,0,0,0,0,0,0,-1,1007,967,0,0
-210,57,0,0,0,0,0,0,0,0,0,-1,1014,967,0,0
-203,57,0,0,0,0,0,0,0,0,0,-1,1021,967,0,0
-196,57,0,0,0,0,0,0,0,0,0,-1,1028,967,0,0
-189,57,0,0,0,0,0,0,0,0,0,-1,1035,967,0,0
-182,57,0,0,0,0,0,0,0,0,0,-1,1042,967,0,0
-175,57,0,0,0,0,0,0,0,0,0,-1,1049,967,0,0
-168,57,0,0,0,0,0,0,0,0,0,-1,1056,967,0,0
-161,57,0,0,0,0,0,0,0,0,0,-1,1063,967,0,0
-154,57,0,0,0,0,0,0,0,0,0,-1,1070,967,0,0
-147,57,0,0,0,0,0,0,0,0,0,-1,1077,967,0,0
-140,57,0,0,0,0,0,0,0,0,0,-1,1084,967,0,0
-133,57,0,0,0,0,0,0,0,0,0,-1,1091,967,0,0
-126,57,0,0,0,0,0,0,0,0,0,-1,1098,967,0,0
-119,57,0,0,0,0,0,0,0,0,0,-1,1105,967,0,0
-112,57,0,0,0,0,0,0,0,0,0,-1,1112,967,0,0
-105,57,0,0,0,0,0,0,0,0,0,-1,1119,967,0,0
-98,57,0,0,0,0,0,0,0,0,0,-1,1126,967,0,0
-91,57,0,0,0,0,0,0,0,0,0,-1,1133,967,0,0
-84,57,0,0,0,0,0,0,0,0,0,-1,1140,967,0,0
-77,57,0,0,0,0,0,0,0,0,0,-1,1147,967,0,0
-70,57,0,0,0,0,0,0,0,0,0,-1,1154,967,0,0
-63,57,0,0,0,0,0,0,0,0,0,-1,1161,967,0,0
-56,57,0,0,0,0,0,0,0,0,0,-1,1168,967,0,0
-49,57,0,0,0,0,0,0,0,0,0,-1,1175,967,0,0
-42,57,0,0,0,0,0,0,0,0,0,-1,1182,967,0,0
-35,57,0,0,0,0,0,0,0,0,0,-1,1189,967,0,0
-28,57,0,0,0,0,0,0,0,0,0,-1,1196,967,0,0
-21,57,0,0,0,0,0,0,0,0,0,-1,1203,967,0,0
-14,57,0,0,0,0,0,0,0,0,0,-1,1210,967,0,0
-7,57,0,0,0,0,0,0,0,0,0,-1,1217,967,0,0
0,57,0,0,0,0,0,0,0,0,0,-1,1224,967,0,0
7,57,0,0,0,0,0,0,0,0,0,-1,1231,967,0,0
14,57,0,0,0,0,0,0,0,0,0,-1,1238,967,0,0
21,57,0,0,0,0,0,0,0,0,0,-1,1245,967,0,0
28,57,0,0,0,0,0,0,0,0,0,-1,1252,967,0,0
35,57,0,0,0,0,0,0,0,0,0,-1,1259,967,0,0
42,57,0,0,0,0,0,0,0,0,0,-1,1266,967,0,0
49,57,0,0,0,0,0,0,0,0,0,-1,1273,967,0,0
56,57,0,0,0,0,0,0,0,0,0,-1,1280,967,0,0
63,57,0,0,0,0,0,0,0,0,0,-1,1287,967,0,0
70,57,0,0,0,0,0,0,0,0,0,-1,1294,967,0,0
77,57,0,0,0,0,0,0,0,0,0,-1,1301,967,0,0
84,57,0,0,0,0,0,0,0,0,0,-1,1308,967,0,0
91,57,0,0,0,0,0,0,0,0,0,-1,1315,967,0,0
98,57,0,0,0,0,0,0,0,0,0,-1,1322,967,0,0
105,57,0,0,0,0,0,0,0,0,0,-1,1329,967,0,0
112,57,0,0,0,0,0,0,0,0,0,-1,1336,967,0,0
119,57,0,0,0,0,0,0,0,0,0,-1,1343,967,0,0
126,57,0,0,0,0,0,0,0,0,0,-1,1350,967,0,0
133,57,0,0,0,0,0,0,0,0,0,-1,1357,967,0,0
140,57,0,0,0,0,0,0,0,0,0,-1,1364,967,0,0
147,57,0,0,0,0,0,0,0,0,0,-1,1371,967,0,0
154,57,0,0,0,0,0,0,0,0,0,-1,1378,967,0,0
161,57,0,0,0,0,0,0,0,0,0,-1,1385,967,0,0
168,57,0,0,0,0,0,0,0,0,0,-1,1392,967,0,0
175,57,0,0,0,0,0,0,0,0,0,-1,1399,967,0,0
182,57,0,0,0,0,0,0,0,0,0,-1,1406,967,0,0
189,57,0,0,0,0,0,0,0,0,0,-1,1413,967,0,0
196,57,0,0,0,0,0,0,0,0,0,-1,1420,967,0,0
203,57,0,0,0,0,0,0,0,0,0,-1,1427,967,0,0
210,57,0,0,0,0,0,0,0,0,0,-1,1434,967,0,0
217,57,0,0,0,0,0,0,0,0,0,-1,1441,967,0,0
224,57,0,0,0,0,0,0,0,0,0,-1,1448,967,0,0
231,57,0,0,0,0,0,0,0,0,0,-1,1455,967,0,0
238,57,0,0,0,0,0,0,0,0,0,-1,1462,967,0,0
245,57,0,0,0,0,0,0,0,0,0,-1,1469,967,0,0
252,57,0,0,0,0,0,0,0,0,0,-1,1476,967,0,0
259,57,0,0,0,0,0,0,0,0,0,-1,1483,967,0,0
266,57,0,0,0,0,0,0,0,0,0,-1,1490,967,0,0
273,57,0,0,0,0,0,0,0,0,0,-1,1497,967,0,0
280,57,0,0,0,0,0,0,0,0,0,-1,1504,967,0,0
287,57,0,0,0,0,0,0,0,0,0,-1,1511,967,0,0
294,57,0,0,0,0,0,0,0,0,0,-1,1518,967,0,0
301,57,0,0,0,0,0,0,0,0,0,-1,1525,967,0,0
308,57,0,0,0,0,0,0,0,0,0,-1,1532,967,0,0
315,57,0,0,0,0,0,0,0,0,0,-1,1539,967,0,0
322,57,0,0,0,0,0,0,0,0,0,-1,1546,967,0,0
329,57,0,0,0,0,0,0,0,0,0,-1,1553,967,0,0
336,57,0,0,0,0,0,0,0,0,0,-1,1560,967,0,0
343,57,0,0,0,0,0,0,0,0,0,-1,1567,967,0,0
350,57,0,0,0,0,0,0,0,0,0,-1,1574,967,0,0
357,57,0,0,0,0,0,0,0,0,0,-1,1581,967,0,0
364,57,0,0,0,0,0,0,0,0,0,-1,1588,967,0,0
371,57,0,0,0,0,0,0,0,0,0,-1,1595,967,0,0
378,57,0,0,0,0,0,0,0,0,0,-1,1602,967,0,0
385,57,0,0,0,0,0,0,0,0,0,-1,1609,967,0,0
392,57,0,0,0,0,0,0,0,0,0,-1,1616,967,0,0
399,57,0,0,0,0,0,0,0,0,0,-1,1623,967,0,0
406,57,0,0,0,0,0,0,0,0,0,-1,1630,967,0,0
413,57,0,0,0,0,0,0,0,0,0,-1,1637,967,0,0
420,57,0,0,0,0,0,0,0,0,0,-1,1644,967,0,0
427,57,0,0,0,0,0,0,0,0,0,-1,1651,967,0,0
434,57,0,0,0,0,0,0,0,0,0,-1,1658,967,0,0
441,57,0,0,0,0,0,0,0,0,0,-1,1665,967,0,0
448,57,0,0,0,0,0,0,0,0,0,-1,1672,967,0,0
455,57,0,0,0,0,0,0,0,0,0,-1,1679,967,0,0
462,57,0,0,0,0,0,0,0,0,0,-1,1686,967,0,0
469,57,0,0,0,0,0,0,0,0,0,-1,1693,967,0,0
476,57,0,0,0,0,0,0,0,0,0,-1,1700,967,0,0
483,57,0,0,0,0,0,0,0,0,0,-1,1707,967,0,0
490,57,0,0,0,0,0,0,0,0,0,-1,1714,967,0,0
497,57,0,0,0,0,0,0,0,0,0,-1,1721,967,0,0
504,57,0,0,0,0,0,0,0,0,0,-1,1728,967,0,0
511,57,0,0,0,0,0,0,0,0,0,-1,1735,967,0,0
518,57,0,0,0,0,0,0,0,0,0,-1,1742,967,0,0
525,57,0,0,0,0,0,0,0,0,0,-1,1749,967,0,0
532,57,0,0,0,0,0,0,0,0,0,-1,1756,967,0,0
539,57,0,0,0,0,0,0,0,0,0,-1,1763,967,0,0
546,57,0,0,0,0,0,0,0,0,0,-1,1770,967,0,0
553,57,0,0,0,0,0,0,0,0,0,-1,1777,967,0,0
560,57,0,0,0,0,0,0,0,0,0,-1,1784,967,0,0
567,57,0,0,0,0,0,0,0,0,0,-1,1791,967,0,0
574,57,0,0,0,0,0,0,0,0,0,-1,1798,967,0,0
581,57,0,0,0,0,0,0,0,0,0,-1,1805,967,0,0
588,57,0,0,0,0,0,0,0,0,0,-1,1812,967,0,0
595,57,0,0,0,0,0,0,0,0,0,-1,1819,967,0,0
602,57,0,0,0,0,0,0,0,0,0,-1,1826,967,0,0
609,57,0,0,0,0,0,0,0,0,0,-1,1833,967,0,0
616,57,0,0,0,0,0,0,0,0,0,-1,1840,967,0,0
623,57,0,0,0,0,0,0,0,0,0,-1,1847,967,0,0
630,57,0,0,0,0,0,0,0,0,0,-1,1854,967,0,0
637,57,0,0,0,0,0,0,0,0,0,-1,1861,967,0,0
644,57,36.13,2.76123,0.00700259,-0.000525695,-0.00415041,0.00884155,-0.00236465,-0.417082,0.00682061,0.0416276,1868,967,36.13,-2.76122
651,57,36.2662,2.64404,0.00489277,-0.00104468,-0.00318631,0.00627903,-0.00243094,-0.410367,0.00518972,0.0340749,1875,967,36.2663,-2.64402
658,57,36.3113,2.72968,0.00310338,-0.00123005,-0.00205484,0.00392281,-0.00204948,-0.379452,0.00350419,0.0340742,1882,967,36.3113,-2.72968
665,57,36.3218,2.68079,0.00142954,-0.000909679,-0.000464977,0.00151858,-0.000998715,-0.189196,0.00146365,0.0404129,1889,967,36.3217,-2.68077
672,57,36.4501,2.45667,-5.38919e-05,-0.000338059,0.00124029,0.00105242,-0.00144437,0.728368,0.00144744,0.0406105,1896,967,36.4501,-2.45666
679,57,36.3054,2.74475,-0.00115909,0.00025436,0.00269643,0.00233514,-0.00323987,0.913564,0.00323283,0.0415499,1903,967,36.3055,-2.74475
686,57,36.054,2.77539,-0.00179464,0.000705566,0.00373337,0.00339257,-0.00448164,0.946954,0.00456065,0.0402456,1910,967,36.054,-2.77539
693,57,36.1693,2.6474,-0.00221455,0.00109864,0.00442373,0.00416578,-0.0052817,0.964556,0.00546717,0.0352266,1917,967,36.1694,-2.6474
700,57,36.2274,2.73712,-0.00255553,0.00140863,0.00468873,0.00451702,-0.00566392,0.985373,0.00589039,0.0275242,1924,967,36.2274,-2.73709
707,57,36.1594,3.14844,-0.00272616,0.00178135,0.00463329,0.00467995,-0.00562476,1.01176,0.00595776,0.041766,1931,967,36.1594,-3.14845
714,57,35.926,4.17322,0,0,0,0,0,0,0,-1,1938,967,35.926,-4.17322
721,57,34.9581,4.42804,0,0,0,0,0,0,0,-1,1945,967,34.9581,-4.42801
728,57,34.8706,4.68176,-0.00328161,0.00318504,0.00387512,0.00499859,-0.00509515,1.13308,0.00582771,0.0214919,1952,967,34.8707,-4.68179
735,57,34.928,4.88904,-0.00305898,0.00400675,0.0033543,0.00534548,-0.00439772,1.19106,0.0056341,0.0245357,1959,967,34.928,-4.88901
742,57,34.9691,5.00421,-0.00264242,0.00512953,0.00254533,0.00588893,-0.00340182,1.28085,0.00542771,0.0181637,1966,967,34.9691,-5.00422
749,57,34.9337,5.22833,-0.00164863,0.00932232,0.000700416,0.00936686,-0.00169317,1.5073,0.00687878,0.0134506,1973,967,34.9337,-5.22834
756,57,34.8912,5.41223,0.00141023,0.0138964,-0.00178613,0.0141468,0.00115975,-1.43147,0.00906939,0.0106037,1980,967,34.8912,-5.41221
763,57,34.8682,5.59363,0.00740407,0.0206491,-0.00403692,0.0217825,0.00627065,-1.29708,0.0129479,0.0120457,1987,967,34.8681,-5.59361
770,57,34.8109,5.7644,0.0153755,0.0305311,-0.00722054,0.0334204,0.0124862,-1.19017,0.0194997,0.0126402,1994,967,34.8109,-5.7644
777,57,34.7371,6.08966,0.0271447,0.0434839,-0.0115965,0.0494996,0.0211291,-1.09226,0.0286804,0.0281867,2001,967,34.737,-6.08968
784,57,34.6534,6.5293,0.0443501,0.060138,-0.0178116,0.0717266,0.0327615,-0.993986,0.041463,0.0453309,2008,967,34.6535,-6.52931
791,57,34.9016,6.77954,0.0690455,0.0810788,-0.0265437,0.102279,0.0478451,-0.89685,0.0590918,0.0484867,2015,967,34.9017,-6.77954
798,57,35.2773,7.27838,0,0,0,0,0,0,0,-1,2022,967,35.2774,-7.27841
805,57,34.5549,8.82739,0,0,0,0,0,0,0,-1,2029,967,34.5549,-8.82742
812,57,0,0,0,0,0,0,0,0,0,-1,2036,967,0,0
-700,50,0,0,0,0,0,0,0,0,0,-1,524,974,0,0
-693,50,-23.9023,-0.718323,0.00877833,0.0595782,0.0672224,0.106039,-0.0376828,0.966031,0.0860496,0.0431515,531,974,-23.9023,0.71831
-686,50,-24.5122,-0.306946,0.0234136,0.0455465,0.0599908,0.0954831,-0.026523,0.876608,0.074096,0.0429618,538,974,-24.5122,0.306944
-679,50,-25.0892,0.0751953,0.0288263,0.0362965,0.052694,0.0853875,-0.0202648,0.82078,0.0647459,0.0463357,545,974,-25.0891,-0.0751936
-672,50,-25.4797,0.0884399,0.0295251,0.0297604,0.0454859,0.0751288,-0.0158433,0.786692,0.0561175,0.0455313,552,974,-25.4797,-0.0884699
-665,50,-24.7332,0.226196,0.0275996,0.0248502,0.0385428,0.0647923,-0.0123424,0.767572,0.0478426,0.0492527,559,974,-24.7332,-0.226183
-658,50,-25.7276,3.57538,0,0,0,0,0,0,0,-1,566,974,-25.7276,-3.57538
-651,50,-25.8249,3.27209,0.0201458,0.0175806,0.0259895,0.0448844,-0.00715791,0.760743,0.0325721,0.043935,573,974,-25.8249,-3.27208
-644,50,-25.8939,2.99536,0.0160066,0.0145822,0.0204301,0.0357369,-0.00514808,0.767975,0.025713,0.0291693,580,974,-25.8939,-2.99538
-637,50,-25.9803,2.92194,0.0129931,0.0111844,0.0148458,0.026962,-0.0027846,0.754978,0.0189711,0.0170036,587,974,-25.9803,-2.92197
-630,50,-26.0043,2.82233,0.00935022,0.00850629,0.00980707,0.0187444,-0.000887887,0.763898,0.0128025,0.0119959,594,974,-26.0043,-2.82232
-623,50,-26.0068,2.71283,0.00518712,0.00675448,0.00580027,0.0118238,0.000117823,0.852547,0.00784353,0.0117974,601,974,-26.0068,-2.71282
-616,50,-26.021,2.56158,0.00178892,0.00576976,0.00262825,0.00707623,0.000482446,1.10948,0.00456518,0.0110223,608,974,-26.021,-2.56156
-609,50,-26.0157,2.36725,-0.0014516,0.00428285,6.56267e-05,0.0042836,-0.00145235,1.55935,0.00344351,0.0105875,615,974,-26.0157,-2.36725
-602,50,-26.0261,2.2135,-0.00385337,0.00298008,-0.00188731,0.00346668,-0.00433997,-1.31846,0.00451656,0.0115884,622,974,-26.0261,-2.21349
-595,50,-26.0137,2.08984,-0.00499356,0.00138008,-0.00336395,0.00282704,-0.00644052,-1.16458,0.00548453,0.0115893,629,974,-26.0137,-2.08983
-588,50,-26.0533,1.88971,-0.00532027,0.000369113,-0.00394928,0.00239157,-0.00734272,-1.09751,0.00585741,0.0151013,636,974,-26.0533,-1.88974
-581,50,-26.2742,1.30048,-0.00550609,-0.000221541,-0.00387408,0.00182555,-0.00755318,-1.08468,0.00574154,0.022831,643,974,-26.2742,-1.30047
-574,50,-26.3978,0.798828,-0.00565521,-0.0004984,-0.0033156,0.00112336,-0.00727697,-1.11588,0.00526586,0.0278785,650,974,-26.3978,-0.798819
-567,50,-26.3672,0.651978,-0.00545427,-0.000789736,-0.00249569,0.000293835,-0.00653784,-1.16118,0.00445973,0.0369317,657,974,-26.3672,-0.652005
-560,50,-26.338,0.538635,-0.00487934,-0.000994765,-0.00128909,-0.000605908,-0.0052682,-1.27782,0.0033286,0.0440995,664,974,-26.338,-0.53861
-553,50,-26.3734,0.648621,-0.00384865,-0.00111286,0.00023662,-0.00109255,-0.00386896,1.48515,0.00230319,0.0427342,671,974,-26.3734,-0.648612
-546,50,-26.3208,1.00714,0,0,0,0,0,0,0,-1,678,974,-26.3208,-1.00714
-539,50,-26.3742,0.926819,-0.00048224,-0.00108539,0.00397475,0.00320235,-0.00476999,0.747534,0.0046324,0.0431482,685,974,-26.3742,-0.926815
-532,50,-26.4641,0.951233,0.001502,-0.000559336,0.00553165,0.00609818,-0.00515551,0.693293,0.00650492,0.0412893,692,974,-26.4641,-0.951203
-525,50,-26.4612,1.13879,0.00196277,0.000645726,0.006394,0.00773207,-0.00512358,0.734084,0.00747297,0.0408773,699,974,-26.4612,-1.13877
-518,50,0,0,0,0,0,0,0,0,0,-1,706,974,0,0
-511,50,0,0,0,0,0,0,0,0,0,-1,713,974,0,0
-504,50,0,0,0,0,0,0,0,0,0,-1,720,974,0,0
-497,50,0,0,0,0,0,0,0,0,0,-1,727,974,0,0
-490,50,0,0,0,0,0,0,0,0,0,-1,734,974,0,0
-483,50,0,0,0,0,0,0,0,0,0,-1,741,974,0,0
-476,50,0,0,0,0,0,0,0,0,0,-1,748,974,0,0
-469,50,0,0,0,0,0,0,0,0,0,-1,755,974,0,0
-462,50,0,0,0,0,0,0,0,0,0,-1,762,974,0,0
-455,50,0,0,0,0,0,0,0,0,0,-1,769,974,0,0
-448,50,0,0,0,0,0,0,0,0,0,-1,776,974,0,0
-441,50,0,0,0,0,0,0,0,0,0,-1,783,974,0,0
-434,50,0,0,0,0,0,0,0,0,0,-1,790,974,0,0
-427,50,0,0,0,0,0,0,0,0,0,-1,797,974,0,0
-420,50,0,0,0,0,0,0,0,0,0,-1,804,974,0,0
-413,50,0,0,0,0,0,0,0,0,0,-1,811,974,0,0
-406,50,0,0,0,0,0,0,0,0,0,-1,818,974,0,0
-399,50,0,0,0,0,0,0,0,0,0,-1,825,974,0,0
-392,50,0,0,0,0,0,0,0,0,0,-1,832,974,0,0
-385,50,0,0,0,0,0,0,0,0,0,-1,839,974,0,0
-378,50,0,0,0,0,0,0,0,0,0,-1,846,974,0,0
-371,50,0,0,0,0,0,0,0,0,0,-1,853,974,0,0
-364,50,0,0,0,0,0,0,0,0,0,-1,860,974,0,0
-357,50,0,0,0,0,0,0,0,0,0,-1,867,974,0,0
-350,50,0,0,0,0,0,0,0,0,0,-1,874,974,0,0
-343,50,0,0,0,0,0,0,0,0,0,-1,881,974,0,0
-336,50,0,0,0,0,0,0,0,0,0,-1,888,974,0,0
-329,50,0,0,0,0,0,0,0,0,0,-1,895,974,0,0
-322,50,0,0,0,0,0,0,0,0,0,-1,902,974,0,0
-315,50,0,0,0,0,0,0,0,0,0,-1,909,974,0,0
-308,50,0,0,0,0,0,0,0,0,0,-1,916,974,0,0
-301,50,0,0,0,0,0,0,0,0,0,-1,923,974,0,0
-294,50,0,0,0,0,0,0,0,0,0,-1,930,974,0,0
-287,50,0,0,0,0,0,0,0,0,0,-1,937,974,0,0
-280,50,0,0,0,0,0,0,0,0,0,-1,944,974,0,0
-273,50,0,0,0,0,0,0,0,0,0,-1,951,974,0,0
-266,50,0,0,0,0,0,0,0,0,0,-1,958,974,0,0
-259,50,0,0,0,0,0,0,0,0,0,-1,965,974,0,0
-252,50,0,0,0,0,0,0,0,0,0,-1,972,974,0,0
-245,50,0,0,0,0,0,0,0,0,0,-1,979,974,0,0
-238,50,0,0,0,0,0,0,0,0,0,-1,986,974,0,0
-231,50,0,0,0,0,0,0,0,0,0,-1,993,974,0,0
-224,50,0,0,0,0,0,0,0,0,0,-1,1000,974,0,0
-217,50,0,0,0,0,0,0,0,0,0,-1,1007,974,0,0
-210,50,0,0,0,0,0,0,0,0,0,-1,1014,974,0,0
-203,50,0,0,0,0,0,0,0,0,0,-1,1021,974,0,0
-196,50,0,0,0,0,0,0,0,0,0,-1,1028,974,0,0
-189,50,0,0,0,0,0,0,0,0,0,-1,1035,974,0,0
-182,50,0,0,0,0,0,0,0,0,0,-1,1042,974,0,0
-175,50,0,0,0,0,0,0,0,0,0,-1,1049,974,0,0
-168,50,0,0,0,0,0,0,0,0,0,-1,1056,974,0,0
-161,50,0,0,0,0,0,0,0,0,0,-1,1063,974,0,0
-154,50,0,0,0,0,0,0,0,0,0,-1,1070,974,0,0
-147,50,0,0,0,0,0,0,0,0,0,-1,1077,974,0,0
-140,50,0,0,0,0,0,0,0,0,0,-1,1084,974,0,0
-133,50,0,0,0,0,0,0,0,0,0,-1,1091,974,0,0
-126,50,0,0,0,0,0,0,0,0,0,-1,1098,974,0,0
-119,50,0,0,0,0,0,0,0,0,0,-1,1105,974,0,0
-112,50,0,0,0,0,0,0,0,0,0,-1,1112,974,0,0
-105,50,0,0,0,0,0,0,0,0,0,-1,1119,974,0,0
-98,50,0,0,0,0,0,0,0,0,0,-1,1126,974,0,0
-91,50,0,0,0,0,0,0,0,0,0,-1,1133,974,0,0
-84,50,0,0,0,0,0,0,0,0,0,-1,1140,974,0,0
-77,50,0,0,0,0,0,0,0,0,0,-1,1147,974,0,0
-70,50,0,0,0,0,0,0,0,0,0,-1,1154,974,0,0
-63,50,0,0,0,0,0,0,0,0,0,-1,1161,974,0,0
-56,50,0,0,0,0,0,0,0,0,0,-1,1168,974,0,0
-49,50,0,0,0,0,0,0,0,0,0,-1,1175,974,0,0
-42,50,0,0,0,0,0,0,0,0,0,-1,1182,974,0,0
-35,50,0,0,0,0,0,0,0,0,0,-1,1189,974,0,0
-28,50,0,0,0,0,0,0,0,0,0,-1,1196,974,0,0
-21,50,0,0,0,0,0,0,0,0,0,-1,1203,974,0,0
-14,50,0,0,0,0,0,0,0,0,0,-1,1210,974,0,0
-7,50,0,0,0,0,0,0,0,0,0,-1,1217,974,0,0
0,50,0,0,0,0,0,0,0,0,0,-1,1224,974,0,0
7,50,0,0,0,0,0,0,0,0,0,-1,1231,974,0,0
14,50,0,0,0,0,0,0,0,0,0,-1,1238,974,0,0
21,50,0,0,0,0,0,0,0,0,0,-1,1245,974,0,0
28,50,0,0,0,0,0,0,0,0,0,-1,1252,974,0,0
35,50,0,0,0,0,0,0,0,0,0,-1,1259,974,0,0
42,50,0,0,0,0,0,0,0,0,0,-1,1266,974,0,0
49,50,0,0,0,0,0,0,0,0,0,-1,1273,974,0,0
56,50,0,0,0,0,0,0,0,0,0,-1,1280,974,0,0
63,50,0,0,0,0,0,0,0,0,0,-1,1287,974,0,0
70,50,0,0,0,0,0,0,0,0,0,-1,1294,974,0,0
77,50,0,0,0,0,0,0,0,0,0,-1,1301,974,0,0
84,50,0,0,0,0,0,0,0,0,0,-1,1308,974,0,0
91,50,0,0,0,0,0,0,0,0,0,-1,1315,974,0,0
98,50,0,0,0,0,0,0,0,0,0,-1,1322,974,0,0
105,50,0,0,0,0,0,0,0,0,0,-1,1329,974,0,0
112,50,0,0,0,0,0,0,0,0,0,-1,1336,974,0,0
119,50,0,0,0,0,0,0,0,0,0,-1,1343,974,0,0
126,50,0,0,0,0,0,0,0,0,0,-1,1350,974,0,0
133,50,0,0,0,0,0,0,0,0,0,-1,1357,974,0,0
140,50,0,0,0,0,0,0,0,0,0,-1,1364,974,0,0
147,50,0,0,0,0,0,0,0,0,0,-1,1371,974,0,0
154,50,0,0,0,0,0,0,0,0,0,-1,1378,974,0,0
161,50,0,0,0,0,0,0,0,0,0,-1,1385,974,0,0
168,50,0,0,0,0,0,0,0,0,0,-1,1392,974,0,0
175,50,0,0,0,0,0,0,0,0,0,-1,1399,974,0,0
182,50,0,0,0,0,0,0,0,0,0,-1,1406,974,0,0
189,50,0,0,0,0,0,0,0,0,0,-1,1413,974,0,0
196,50,0,0,0,0,0,0,0,0,0,-1,1420,974,0,0
203,50,0,0,0,0,0,0,0,0,0,-1,1427,974,0,0
210,50,0,0,0,0,0,0,0,0,0,-1,1434,974,0,0
217,50,0,0,0,0,0,0,0,0,0,-1,1441,974,0,0
224,50,0,0,0,0,0,0,0,0,0,-1,1448,974,0,0
231,50,0,0,0,0,0,0,0,0,0,-1,1455,974,0,0
238,50,0,0,0,0,0,0,0,0,0,-1,1462,974,0,0
245,50,0,0,0,0,0,0,0,0,0,-1,1469,974,0,0
252,50,0,0,0,0,0,0,0,0,0,-1,1476,974,0,0
259,50,0,0,0,0,0,0,0,0,0,-1,1483,974,0,0
266,50,0,0,0,0,0,0,0,0,0,-1,1490,974,0,0
273,50,0,0,0,0,0,0,0,0,0,-1,1497,974,0,0
280,50,0,0,0,0,0,0,0,0,0,-1,1504,974,0,0
287,50,0,0,0,0,0,0,0,0,0,-1,1511,974,0,0
294,50,0,0,0,0,0,0,0,0,0,-1,1518,974,0,0
301,50,0,0,0,0,0,0,0,0,0,-1,1525,974,0,0
308,50,0,0,0,0,0,0,0,0,0,-1,1532,974,0,0
315,50,0,0,0,0,0,0,0,0,0,-1,1539,974,0,0
322,50,0,0,0,0,0,0,0,0,0,-1,1546,974,0,0
329,50,0,0,0,0,0,0,0,0,0,-1,1553,974,0,0
336,50,0,0,0,0,0,0,0,0,0,-1,1560,974,0,0
343,50,0,0,0,0,0,0,0,0,0,-1,1567,974,0,0
350,50,0,0,0,0,0,0,0,0,0,-1,1574,974,0,0
357,50,0,0,0,0,0,0,0,0,0,-1,1581,974,0,0
364,50,0,0,0,0,0,0,0,0,0,-1,1588,974,0,0
371,50,0,0,0,0,0,0,0,0,0,-1,1595,974,0,0
378,50,0,0,0,0,0,0,0,0,0,-1,1602,974,0,0
385,50,0,0,0,0,0,0,0,0,0,-1,1609,974,0,0
392,50,0,0,0,0,0,0,0,0,0,-1,1616,974,0,0
399,50,0,0,0,0,0,0,0,0,0,-1,1623,974,0,0
406,50,0,0,0,0,0,0,0,0,0,-1,1630,974,0,0
413,50,0,0,0,0,0,0,0,0,0,-1,1637,974,0,0
420,50,0,0,0,0,0,0,0,0,0,-1,1644,974,0,0
427,50,0,0,0,0,0,0,0,0,0,-1,1651,974,0,0
434,50,0,0,0,0,0,0,0,0,0,-1,1658,974,0,0
441,50,0,0,0,0,0,0,0,0,0,-1,1665,974,0,0
448,50,0,0,0,0,0,0,0,0,0,-1,1672,974,0,0
455,50,0,0,0,0,0,0,0,0,0,-1,1679,974,0,0
462,50,0,0,0,0,0,0,0,0,0,-1,1686,974,0,0
469,50,0,0,0,0,0,0,0,0,0,-1,1693,974,0,0
476,50,0,0,0,0,0,0,0,0,0,-1,1700,974,0,0
483,50,0,0,0,0,0,0,0,0,0,-1,1707,974,0,0
490,50,0,0,0,0,0,0,0,0,0,-1,1714,974,0,0
497,50,0,0,0,0,0,0,0,0,0,-1,1721,974,0,0
504,50,0,0,0,0,0,0,0,0,0,-1,1728,974,0,0
511,50,0,0,0,0,0,0,0,0,0,-1,1735,974,0,0
518,50,0,0,0,0,0,0,0,0,0,-1,1742,974,0,0
525,50,0,0,0,0,0,0,0,0,0,-1,1749,974,0,0
532,50,0,0,0,0,0,0,0,0,0,-1,1756,974,0,0
539,50,0,0,0,0,0,0,0,0,0,-1,1763,974,0,0
546,50,0,0,0,0,0,0,0,0,0,-1,1770,974,0,0
553,50,0,0,0,0,0,0,0,0,0,-1,1777,974,0,0
560,50,0,0,0,0,0,0,0,0,0,-1,1784,974,0,0
567,50,0,0,0,0,0,0,0,0,0,-1,1791,974,0,0
574,50,0,0,0,0,0,0,0,0,0,-1,1798,974,0,0
581,50,0,0,0,0,0,0,0,0,0,-1,1805,974,0,0
588,50,0,0,0,0,0,0,0,0,0,-1,1812,974,0,0
595,50,0,0,0,0,0,0,0,0,0,-1,1819,974,0,0
602,50,0,0,0,0,0,0,0,0,0,-1,1826,974,0,0
609,50,0,0,0,0,0,0,0,0,0,-1,1833,974,0,0
616,50,0,0,0,0,0,0,0,0,0,-1,1840,974,0,0
623,50,0,0,0,0,0,0,0,0,0,-1,1847,974,0,0
630,50,0,0,0,0,0,0,0,0,0,-1,1854,974,0,0
637,50,0,0,0,0,0,0,0,0,0,-1,1861,974,0,0
644,50,36.1348,2.93005,0.00761571,-0.000288469,-0.00300673,0.00862945,-0.00130221,-0.325187,0.00623255,0.0390621,1868,974,36.1348,-2.93006
651,50,36.2604,2.70868,0.00537799,-0.00107675,-0.00246026,0.00620879,-0.00190756,-0.325667,0.00490041,0.0330901,1875,974,36.2604,-2.70867
658,50,36.3893,2.71027,0.00355941,-0.00147675,-0.00169994,0.0040795,-0.00199684,-0.296907,0.00357621,0.0353774,1882,974,36.3893,-2.71028
665,50,36.5337,2.55194,0.00190941,-0.00131248,-0.000395261,0.00195719,-0.00136026,-0.120304,0.00192564,0.0378128,1889,974,36.5337,-2.55195
672,50,36.5039,2.3031,0.00044746,-0.000778027,0.00113385,0.00112355,-0.00145411,0.537674,0.00149229,0.0401584,1896,974,36.5039,-2.30308
679,50,36.1399,2.74561,0,0,0,0,0,0,0,-1,1903,974,36.1399,-2.7456
686,50,36.1431,2.7962,-0.00135631,0.000400922,0.00359782,0.00322586,-0.00418125,0.905158,0.00428833,0.0428889,1910,974,36.1431,-2.79619
693,50,36.1277,2.71332,-0.00177659,0.000873065,0.00432912,0.00407554,-0.00497906,0.933886,0.00523634,0.0403677,1917,974,36.1277,-2.71329
700,50,36.2017,2.76373,-0.0021096,0.00124614,0.00463123,0.00449407,-0.00535753,0.959191,0.0056951,0.0239633,1924,974,36.2017,-2.76375
707,50,36.1929,3.03772,-0.0023222,0.0016905,0.00462531,0.00472587,-0.00535757,0.990038,0.00582548,0.0342057,1931,974,36.1929,-3.0377
714,50,36.0504,3.65033,-0.00263861,0.00215127,0.00446851,0.00482617,-0.00531351,1.0314,0.0058564,0.0497349,1938,974,36.0504,-3.65034
721,50,35.1945,4.44867,0,0,0,0,0,0,0,-1,1945,974,35.1945,-4.44868
728,50,35.1302,4.67761,-0.00309718,0.00325714,0.00399199,0.00518197,-0.00502201,1.12151,0.00589151,0.0222426,1952,974,35.1303,-4.67764
735,50,35.1646,4.82581,-0.00295821,0.00408686,0.00351172,0.0055383,-0.00440965,1.17887,0.00575576,0.0198284,1959,974,35.1645,-4.82582
742,50,35.1748,5.0047,-0.00270356,0.00515156,0.00280889,0.00605262,-0.00360462,1.26038,0.005635,0.0146252,1966,974,35.1748,-5.00472
749,50,35.1555,5.19153,-0.00187737,0.00956115,0.000949845,0.00963949,-0.00195571,1.48851,0.00716772,0.015433,1973,974,35.1556,-5.19155
756,50,35.1085,5.36865,0.00146866,0.0140126,-0.00168504,0.014235,0.00124625,-1.43956,0.00910309,0.0122122,1980,974,35.1085,-5.36866
763,50,35.0765,5.54724,0.00798777,0.0203481,-0.00382165,0.0214343,0.00690161,-1.29389,0.0126338,0.0121608,1987,974,35.0765,-5.54725
770,50,35.0231,5.69879,0.0165727,0.0298351,-0.0069825,0.0328334,0.0135744,-1.1652,0.0190508,0.0118256,1994,974,35.023,-5.6988
777,50,34.968,5.92255,0.0292806,0.0422801,-0.0111472,0.0486841,0.0228766,-1.04934,0.0281248,0.022672,2001,974,34.968,-5.92255
784,50,34.9384,6.42969,0.0474181,0.057774,-0.0167953,0.0701714,0.0350207,-0.934924,0.0405135,0.0382829,2008,974,34.9384,-6.42968
791,50,34.908,6.94128,0.0731344,0.0768657,-0.0244538,0.099525,0.0504752,-0.823471,0.0574627,0.0451197,2015,974,34.908,-6.9413
798,50,34.9905,7.42529,0,0,0,0,0,0,0,-1,2022,974,34.9905,-7.42529
805,50,35.1873,7.87512,0,0,0,0,0,0,0,-1,2029,974,35.1873,-7.8751
812,50,0,0,0,0,0,0,0,0,0,-1,2036,974,0,0
-700,43,0,0,0,0,0,0,0,0,0,-1,524,981,0,0
-693,43,-24.06,-1.5744,-0.00560813,0.0661103,0.0731776,0.111742,-0.0512403,1.01322,0.096235,0.0409242,531,981,-24.06,1.57442
-686,43,-24.6484,-0.937317,0.00978059,0.0504539,0.0632271,0.0965344,-0.0363,0.940995,0.0792767,0.0421449,538,981,-24.6484,0.937335
-679,43,-25.0092,-0.276672,0.0166302,0.0399223,0.0542525,0.0837647,-0.0272121,0.891126,0.066788,0.042709,545,981,-25.0092,0.276688
-672,43,-25.2528,0.160461,0.0189777,0.032419,0.0460234,0.0722099,-0.0208132,0.857899,0.0563733,0.048699,552,981,-25.2528,-0.160447
-665,43,-25.408,0.662842,0,0,0,0,0,0,0,-1,559,981,-25.408,-0.662871
-658,43,-26.2418,3.05865,0,0,0,0,0,0,0,-1,566,981,-26.2418,-3.05865
-651,43,-26.1487,3.01154,0.0143661,0.0185471,0.0254975,0.0420397,-0.00912644,0.826301,0.0315123,0.0411052,573,981,-26.1487,-3.01154
-644,43,-26.1126,2.98438,0.0116188,0.0152302,0.0198266,0.0333331,-0.00648412,0.830811,0.0246692,0.0214198,580,981,-26.1126,-2.98436
-637,43,-26.1563,2.87695,0.00974576,0.0116951,0.0140723,0.0248264,-0.00338557,0.819973,0.0177872,0.0154693,587,981,-26.1563,-2.87696
-630,43,-26.1448,2.77032,0.00710339,0.00887122,0.00892778,0.0169587,-0.000984126,0.834741,0.0116477,0.014025,594,981,-26.1448,-2.77032
-623,43,-26.1575,2.65253,0.00385136,0.00693227,0.00481611,0.0104483,0.000335342,0.940184,0.00685648,0.0118397,601,981,-26.1574,-2.6525
-616,43,-26.1613,2.51349,0.00125653,0.00595442,0.00167309,0.00648936,0.000721589,1.26134,0.0041069,0.0101289,608,981,-26.1612,-2.51347
-609,43,-26.1715,2.3772,-0.00124388,0.00439367,-0.000906861,0.00453596,-0.00138617,-1.41516,0.00357671,0.0130268,615,981,-26.1715,-2.3772
-602,43,-26.1721,2.25122,-0.00301182,0.00301519,-0.00285131,0.00415033,-0.00414695,-1.19192,0.00479044,0.0151107,622,981,-26.1721,-2.25122
-595,43,-26.1797,2.12701,-0.00380005,0.00142535,-0.00427049,0.00381898,-0.00619368,-1.05992,0.00583475,0.0139772,629,981,-26.1797,-2.12702
-588,43,-26.1666,1.78424,-0.00400436,0.000386609,-0.00484364,0.00350911,-0.00712686,-0.998184,0.00625797,0.0163866,636,981,-26.1666,-1.78425
-581,43,-26.3031,1.17664,-0.00419858,-0.000185515,-0.00472008,0.00293683,-0.00732092,-0.986378,0.00609995,0.0228769,643,981,-26.3031,-1.17666
-574,43,-26.3796,0.869751,-0.00442641,-0.000437298,-0.00406668,0.00209762,-0.00696133,-1.01339,0.0054757,0.0300506,650,981,-26.3796,-0.869775
-567,43,-26.3517,0.804626,-0.00438311,-0.000690739,-0.00309512,0.00106698,-0.00614083,-1.05431,0.00449199,0.0396927,657,981,-26.3518,-0.804629
-560,43,-26.2976,0.785034,-0.00404466,-0.000838732,-0.00172368,-8.78547e-05,-0.00479554,-1.15996,0.00316815,0.042523,664,981,-26.2976,-0.785039
-553,43,-26.3794,0.975647,-0.003358,-0.000862501,-4.25204e-05,-0.000861776,-0.00335872,-1.55376,0.0020143,0.0436352,671,981,-26.3794,-0.975661
-546,43,-26.519,1.17047,0,0,0,0,0,0,0,-1,678,981,-26.519,-1.17045
-539,43,-26.6121,1.01764,-0.000927866,-0.00047894,0.00381092,0.00311412,-0.00452093,0.814814,0.00443297,0.0478415,685,981,-26.612,-1.01765
-532,43,-26.5281,0.940613,0.000472623,0.000521151,0.00508549,0.00558243,-0.00458866,0.787784,0.00588162,0.0464362,692,981,-26.5281,-0.940611
-525,43,-26.5458,1.1499,0.000232034,0.00230453,0.00552307,0.00688773,-0.00435116,0.878131,0.00654363,0.0457846,699,981,-26.5458,-1.14988
-518,43,0,0,0,0,0,0,0,0,0,-1,706,981,0,0
-511,43,0,0,0,0,0,0,0,0,0,-1,713,981,0,0
-504,43,0,0,0,0,0,0,0,0,0,-1,720,981,0,0
-497,43,0,0,0,0,0,0,0,0,0,-1,727,981,0,0
-490,43,0,0,0,0,0,0,0,0,0,-1,734,981,0,0
-483,43,0,0,0,0,0,0,0,0,0,-1,741,981,0,0
-476,43,0,0,0,0,0,0,0,0,0,-1,748,981,0,0
-469,43,0,0,0,0,0,0,0,0,0,-1,755,981,0,0
-462,43,0,0,0,0,0,0,0,0,0,-1,762,981,0,0
-455,43,0,0,0,0,0,0,0,0,0,-1,769,981,0,0
-448,43,0,0,0,0,0,0,0,0,0,-1,776,981,0,0
-441,43,0,0,0,0,0,0,0,0,0,-1,783,981,0,0
-434,43,0,0,0,0,0,0,0,0,0,-1,790,981,0,0
-427,43,0,0,0,0,0,0,0,0,0,-1,797,981,0,0
-420,43,0,0,0,0,0,0,0,0,0,-1,804,981,0,0
-413,43,0,0,0,0,0,0,0,0,0,-1,811,981,0,0
-406,43,0,0,0,0,0,0,0,0,0,-1,818,981,0,0
-399,43,0,0,0,0,0,0,0,0,0,-1,825,981,0,0
-392,43,0,0,0,0,0,0,0,0,0,-1,832,981,0,0
-385,43,0,0,0,0,0,0,0,0,0,-1,839,981,0,0
-378,43,0,0,0,0,0,0,0,0,0,-1,846,981,0,0
-371,43,0,0,0,0,0,0,0,0,0,-1,853,981,0,0
-364,43,0,0,0,0,0,0,0,0,0,-1,860,981,0,0
-357,43,0,0,0,0,0,0,0,0,0,-1,867,981,0,0
-350,43,0,0,0,0,0,0,0,0,0,-1,874,981,0,0
-343,43,0,0,0,0,0,0,0,0,0,-1,881,981,0,0
-336,43,0,0,0,0,0,0,0,0,0,-1,888,981,0,0
-329,43,0,0,0,0,0,0,0,0,0,-1,895,981,0,0
-322,43,0,0,0,0,0,0,0,0,0,-1,902,981,0,0
-315,43,0,0,0,0,0,0,0,0,0,-1,909,981,0,0
-308,43,0,0,0,0,0,0,0,0,0,-1,916,981,0,0
-301,43,0,0,0,0,0,0,0,0,0,-1,923,981,0,0
-294,43,0,0,0,0,0,0,0,0,0,-1,930,981,0,0
-287,43,0,0,0,0,0,0,0,0,0,-1,937,981,0,0
-280,43,0,0,0,0,0,0,0,0,0,-1,944,981,0,0
-273,43,0,0,0,0,0,0,0,0,0,-1,951,981,0,0
-266,43,0,0,0,0,0,0,0,0,0,-1,958,981,0,0
-259,43,0,0,0,0,0,0,0,0,0,-1,965,981,0,0
-252,43,0,0,0,0,0,0,0,0,0,-1,972,981,0,0
-245,43,0,0,0,0,0,0,0,0,0,-1,979,981,0,0
-238,43,0,0,0,0,0,0,0,0,0,-1,986,981,0,0
-231,43,0,0,0,0,0,0,0,0,0,-1,993,981,0,0
-224,43,0,0,0,0,0,0,0,0,0,-1,1000,981,0,0
-217,43,0,0,0,0,0,0,0,0,0,-1,1007,981,0,0
-210,43,0,0,0,0,0,0,0,0,0,-1,1014,981,0,0
-203,43,0,0,0,0,0,0,0,0,0,-1,1021,981,0,0
-196,43,0,0,0,0,0,0,0,0,0,-1,1028,981,0,0
-189,43,0,0,0,0,0,0,0,0,0,-1,1035,981,0,0
-182,43,0,0,0,0,0,0,0,0,0,-1,1042,981,0,0
-175,43,0,0,0,0,0,0,0,0,0,-1,1049,981,0,0
-168,43,0,0,0,0,0,0,0,0,0,-1,1056,981,0,0
-161,43,0,0,0,0,0,0,0,0,0,-1,1063,981,0,0
-154,43,0,0,0,0,0,0,0,0,0,-1,1070,981,0,0
-147,43,0,0,0,0,0,0,0,0,0,-1,1077,981,0,0
-140,43,0,0,0,0,0,0,0,0,0,-1,1084,981,0,0
-133,43,0,0,0,0,0,0,0,0,0,-1,1091,981,0,0
-126,43,0,0,0,0,0,0,0,0,0,-1,1098,981,0,0
-119,43,0,0,0,0,0,0,0,0,0,-1,1105,981,0,0
-112,43,0,0,0,0,0,0,0,0,0,-1,1112,981,0,0
-105,43,0,0,0,0,0,0,0,0,0,-1,1119,981,0,0
-98,43,0,0,0,0,0,0,0,0,0,-1,1126,981,0,0
-91,43,0,0,0,0,0,0,0,0,0,-1,1133,981,0,0
-84,43,0,0,0,0,0,0,0,0,0,-1,1140,981,0,0
-77,43,0,0,0,0,0,0,0,0,0,-1,1147,981,0,0
-70,43,0,0,0,0,0,0,0,0,0,-1,1154,981,0,0
-63,43,0,0,0,0,0,0,0,0,0,-1,1161,981,0,0
-56,43,0,0,0,0,0,0,0,0,0,-1,1168,981,0,0
-49,43,0,0,0,0,0,0,0,0,0,-1,1175,981,0,0
-42,43,0,0,0,0,0,0,0,0,0,-1,1182,981,0,0
-35,43,0,0,0,0,0,0,0,0,0,-1,1189,981,0,0
-28,43,0,0,0,0,0,0,0,0,0,-1,1196,981,0,0
-21,43,0,0,0,0,0,0,0,0,0,-1,1203,981,0,0
-14,43,0,0,0,0,0,0,0,0,0,-1,1210,981,0,0
-7,43,0,0,0,0,0,0,0,0,0,-1,1217,981,0,0
0,43,0,0,0,0,0,0,0,0,0,-1,1224,981,0,0
7,43,0,0,0,0,0,0,0,0,0,-1,1231,981,0,0
14,43,0,0,0,0,0,0,0,0,0,-1,1238,981,0,0
21,43,0,0,0,0,0,0,0,0,0,-1,1245,981,0,0
28,43,0,0,0,0,0,0,0,0,0,-1,1252,981,0,0
35,43,0,0,0,0,0,0,0,0,0,-1,1259,981,0,0
42,43,0,0,0,0,0,0,0,0,0,-1,1266,981,0,0
49,43,0,0,0,0,0,0,0,0,0,-1,1273,981,0,0
56,43,0,0,0,0,0,0,0,0,0,-1,1280,981,0,0
63,43,0,0,0,0,0,0,0,0,0,-1,1287,981,0,0
70,43,0,0,0,0,0,0,0,0,0,-1,1294,981,0,0
77,43,0,0,0,0,0,0,0,0,0,-1,1301,981,0,0
84,43,0,0,0,0,0,0,0,0,0,-1,1308,981,0,0
91,43,0,0,0,0,0,0,0,0,0,-1,1315,981,0,0
98,43,0,0,0,0,0,0,0,0,0,-1,1322,981,0,0
105,43,0,0,0,0,0,0,0,0,0,-1,1329,981,0,0
112,43,0,0,0,0,0,0,0,0,0,-1,1336,981,0,0
119,43,0,0,0,0,0,0,0,0,0,-1,1343,981,0,0
126,43,0,0,0,0,0,0,0,0,0,-1,1350,981,0,0
133,43,0,0,0,0,0,0,0,0,0,-1,1357,981,0,0
140,43,0,0,0,0,0,0,0,0,0,-1,1364,981,0,0
147,43,0,0,0,0,0,0,0,0,0,-1,1371,981,0,0
154,43,0,0,0,0,0,0,0,0,0,-1,1378,981,0,0
161,43,0,0,0,0,0,0,0,0,0,-1,1385,981,0,0
168,43,0,0,0,0,0,0,0,0,0,-1,1392,981,0,0
175,43,0,0,0,0,0,0,0,0,0,-1,1399,981,0,0
182,43,0,0,0,0,0,0,0,0,0,-1,1406,981,0,0
189,43,0,0,0,0,0,0,0,0,0,-1,1413,981,0,0
196,43,0,0,0,0,0,0,0,0,0,-1,1420,981,0,0
203,43,0,0,0,0,0,0,0,0,0,-1,1427,981,0,0
210,43,0,0,0,0,0,0,0,0,0,-1,1434,981,0,0
217,43,0,0,0,0,0,0,0,0,0,-1,1441,981,0,0
224,43,0,0,0,0,0,0,0,0,0,-1,1448,981,0,0
231,43,0,0,0,0,0,0,0,0,0,-1,1455,981,0,0
238,43,0,0,0,0,0,0,0,0,0,-1,1462,981,0,0
245,43,0,0,0,0,0,0,0,0,0,-1,1469,981,0,0
252,43,0,0,0,0,0,0,0,0,0,-1,1476,981,0,0
259,43,0,0,0,0,0,0,0,0,0,-1,1483,981,0,0
266,43,0,0,0,0,0,0,0,0,0,-1,1490,981,0,0
273,43,0,0,0,0,0,0,0,0,0,-1,1497,981,0,0
280,43,0,0,0,0,0,0,0,0,0,-1,1504,981,0,0
287,43,0,0,0,0,0,0,0,0,0,-1,1511,981,0,0
294,43,0,0,0,0,0,0,0,0,0,-1,1518,981,0,0
301,43,0,0,0,0,0,0,0,0,0,-1,1525,981,0,0
308,43,0,0,0,0,0,0,0,0,0,-1,1532,981,0,0
315,43,0,0,0,0,0,0,0,0,0,-1,1539,981,0,0
322,43,0,0,0,0,0,0,0,0,0,-1,1546,981,0,0
329,43,0,0,0,0,0,0,0,0,0,-1,1553,981,0,0
336,43,0,0,0,0,0,0,0,0,0,-1,1560,981,0,0
343,43,0,0,0,0,0,0,0,0,0,-1,1567,981,0,0
350,43,0,0,0,0,0,0,0,0,0,-1,1574,981,0,0
357,43,0,0,0,0,0,0,0,0,0,-1,1581,981,0,0
364,43,0,0,0,0,0,0,0,0,0,-1,1588,981,0,0
371,43,0,0,0,0,0,0,0,0,0,-1,1595,981,0,0
378,43,0,0,0,0,0,0,0,0,0,-1,1602,981,0,0
385,43,0,0,0,0,0,0,0,0,0,-1,1609,981,0,0
392,43,0,0,0,0,0,0,0,0,0,-1,1616,981,0,0
399,43,0,0,0,0,0,0,0,0,0,-1,1623,981,0,0
406,43,0,0,0,0,0,0,0,0,0,-1,1630,981,0,0
413,43,0,0,0,0,0,0,0,0,0,-1,1637,981,0,0
420,43,0,0,0,0,0,0,0,0,0,-1,1644,981,0,0
427,43,0,0,0,0,0,0,0,0,0,-1,1651,981,0,0
434,43,0,0,0,0,0,0,0,0,0,-1,1658,981,0,0
441,43,0,0,0,0,0,0,0,0,0,-1,1665,981,0,0
448,43,0,0,0,0,0,0,0,0,0,-1,1672,981,0,0
455,43,0,0,0,0,0,0,0,0,0,-1,1679,981,0,0
462,43,0,0,0,0,0,0,0,0,0,-1,1686,981,0,0
469,43,0,0,0,0,0,0,0,0,0,-1,1693,981,0,0
476,43,0,0,0,0,0,0,0,0,0,-1,1700,981,0,0
483,43,0,0,0,0,0,0,0,0,0,-1,1707,981,0,0
490,43,0,0,0,0,0,0,0,0,0,-1,1714,981,0,0
497,43,0,0,0,0,0,0,0,0,0,-1,1721,981,0,0
504,43,0,0,0,0,0,0,0,0,0,-1,1728,981,0,0
511,43,0,0,0,0,0,0,0,0,0,-1,1735,981,0,0
518,43,0,0,0,0,0,0,0,0,0,-1,1742,981,0,0
525,43,0,0,0,0,0,0,0,0,0,-1,1749,981,0,0
532,43,0,0,0,0,0,0,0,0,0,-1,1756,981,0,0
539,43,0,0,0,0,0,0,0,0,0,-1,1763,981,0,0
546,43,0,0,0,0,0,0,0,0,0,-1,1770,981,0,0
553,43,0,0,0,0,0,0,0,0,0,-1,1777,981,0,0
560,43,0,0,0,0,0,0,0,0,0,-1,1784,981,0,0
567,43,0,0,0,0,0,0,0,0,0,-1,1791,981,0,0
574,43,0,0,0,0,0,0,0,0,0,-1,1798,981,0,0
581,43,0,0,0,0,0,0,0,0,0,-1,1805,981,0,0
588,43,0,0,0,0,0,0,0,0,0,-1,1812,981,0,0
595,43,0,0,0,0,0,0,0,0,0,-1,1819,981,0,0
602,43,0,0,0,0,0,0,0,0,0,-1,1826,981,0,0
609,43,0,0,0,0,0,0,0,0,0,-1,1833,981,0,0
616,43,0,0,0,0,0,0,0,0,0,-1,1840,981,0,0
623,43,0,0,0,0,0,0,0,0,0,-1,1847,981,0,0
630,43,0,0,0,0,0,0,0,0,0,-1,1854,981,0,0
637,43,0,0,0,0,0,0,0,0,0,-1,1861,981,0,0
644,43,36.0969,2.88373,0.00767839,0.000913095,-0.00177474,0.00811569,0.000475794,-0.24159,0.00525904,0.0380805,1868,981,36.0969,-2.88374
651,43,36.1553,2.76862,0.00549346,-0.000284663,-0.00168269,0.00594777,-0.000738972,-0.263702,0.00423306,0.0386577,1875,981,36.1552,-2.76864
658,43,36.4098,2.61218,0.00373862,-0.00101532,-0.0013048,0.0040732,-0.0013499,-0.251012,0.00325997,0.0367383,1882,981,36.4098,-2.61215
665,43,36.5454,2.50684,0.0021607,-0.00112482,-0.00030534,0.00218884,-0.00115296,-0.0918865,0.00196004,0.0361258,1889,981,36.5454,-2.50683
672,43,36.4442,2.38153,0.000771137,-0.000768237,0.0010123,0.00127313,-0.00127023,0.460357,0.00146841,0.0392496,1896,981,36.4442,-2.38154
679,43,36.2556,2.54932,-0.000341799,-0.000189917,0.00233177,0.00206715,-0.00259887,0.801676,0.00269975,0.0410354,1903,981,36.2556,-2.54932
686,43,36.1876,2.75012,-0.000998132,0.000312603,0.00336908,0.00308947,-0.003775,0.88146,0.00396978,0.0413328,1910,981,36.1876,-2.7501
693,43,36.1901,2.67633,-0.00138632,0.000787602,0.00411307,0.00395491,-0.00455363,0.91458,0.00491646,0.0382246,1917,981,36.1901,-2.67632
700,43,36.2086,2.67676,-0.00169539,0.00116352,0.00444359,0.00440192,-0.00493379,0.941015,0.00539289,0.0330885,1924,981,36.2086,-2.67677
707,43,36.2336,2.82544,-0.00193547,0.00162497,0.00449553,0.00467993,-0.00499043,0.973924,0.00558414,0.0288643,1931,981,36.2337,-2.82546
714,43,36.1793,3.23462,-0.00231272,0.00209802,0.00440533,0.00481917,-0.00503387,1.01747,0.0056891,0.0345917,1938,981,36.1794,-3.23459
721,43,35.5327,4.44098,0,0,0,0,0,0,0,-1,1945,981,35.5327,-4.44101
728,43,35.462,4.65497,-0.00291898,0.0033154,0.00397767,0.0052518,-0.00485537,1.11775,0.00583687,0.020896,1952,981,35.4621,-4.65496
735,43,35.3529,4.83478,-0.00288161,0.00416404,0.00354767,0.00564084,-0.00435841,1.17634,0.00578888,0.0140105,1959,981,35.3529,-4.83476
742,43,35.345,4.99347,-0.00285377,0.00519855,0.00297636,0.00617925,-0.00383447,1.2525,0.00583402,0.0152691,1966,981,35.3449,-4.99344
749,43,35.334,5.17999,-0.00228841,0.00976657,0.00116007,0.00987719,-0.00239903,1.47573,0.00751324,0.0170079,1973,981,35.334,-5.17997
756,43,35.3118,5.33258,0.00123797,0.0140751,-0.00153523,0.0142561,0.00105692,-1.45341,0.00917209,0.0169642,1980,981,35.3118,-5.33258
763,43,35.2722,5.48358,0.00814287,0.0200082,-0.00341949,0.0209231,0.00722794,-1.30936,0.0122708,0.0197692,1987,981,35.2723,-5.48359
770,43,35.215,5.67188,0.0171639,0.0290721,-0.00640941,0.0318662,0.0143697,-1.15969,0.0184275,0.01728,1994,981,35.215,-5.67185
777,43,35.1271,5.84106,0.0307388,0.0410252,-0.0101971,0.0473027,0.0244612,-1.01897,0.0273156,0.0214803,2001,981,35.127,-5.84106
784,43,34.9197,6.22729,0.0498773,0.0555201,-0.015119,0.0680788,0.0373187,-0.877643,0.039366,0.0405806,2008,981,34.9196,-6.22728
791,43,34.7498,6.59143,0,0,0,0,0,0,0,-1,2015,981,34.7498,-6.5914
798,43,35.4385,6.69232,0,0,0,0,0,0,0,-1,2022,981,35.4385,-6.69232
805,43,36.0852,6.66095,0,0,0,0,0,0,0,-1,2029,981,36.0852,-6.66097
812,43,36.4895,6.89252,0,0,0,0,0,0,0,-1,2036,981,36.4894,-6.89253
-700,36,0,0,0,0,0,0,0,0,0,-1,524,988,0,0
-693,36,-24.8611,-2.11353,-0.0109722,0.0665922,0.0755013,0.112689,-0.0570694,1.02266,0.0997484,0.0419472,531,988,-24.8611,2.11353
-686,36,-24.9945,-1.47723,0.00336179,0.0510518,0.0639568,0.0954641,-0.0410505,0.963831,0.0808768,0.0396373,538,988,-24.9945,1.47725
-679,36,-24.9733,-0.913513,0.0100803,0.0405387,0.0540657,0.0814791,-0.0308601,0.922681,0.0670179,0.0414926,545,988,-24.9733,0.913522
-672,36,-25.3588,-0.381409,0.0127855,0.0330004,0.0453377,0.0693437,-0.0235578,0.895073,0.0557658,0.0445906,552,988,-25.3588,0.38142
-665,36,-25.5715,0.445251,0.0131387,0.0273058,0.0375872,0.0584711,-0.0180267,0.878534,0.0461778,0.0458888,559,988,-25.5715,-0.445233
-658,36,-26.1719,2.05536,0,0,0,0,0,0,0,-1,566,988,-26.1719,-2.05535
-651,36,-26.2316,2.4256,0.0103632,0.0189088,0.0245675,0.0395723,-0.0103002,0.871497,0.0304022,0.0364518,573,988,-26.2317,-2.42562
-644,36,-26.3018,2.82153,0.00842564,0.015502,0.0189135,0.0312054,-0.00727779,0.877865,0.0236065,0.0221453,580,988,-26.3018,-2.82152
-637,36,-26.3058,2.76038,0.00723962,0.0119907,0.0131157,0.0229443,-0.00371393,0.874988,0.0166726,0.0174251,587,988,-26.3058,-2.76038
-630,36,-26.2981,2.70923,0.00528251,0.00914267,0.00799192,0.0154343,-0.00100909,0.903882,0.0106418,0.0147704,594,988,-26.2981,-2.70923
-623,36,-26.3167,2.61493,0.00272541,0.0070741,0.00387728,0.0093451,0.00045441,1.04094,0.00608426,0.012134,601,988,-26.3167,-2.61495
-616,36,-26.3068,2.50226,0.000787059,0.00608999,0.000843033,0.00622078,0.000656264,1.41688,0.00394666,0.00902045,608,988,-26.3068,-2.50225
-609,36,-26.3013,2.40045,-0.000973514,0.00447489,-0.00171369,0.00496907,-0.0014677,-1.29004,0.00389523,0.0137456,615,988,-26.3012,-2.40048
-602,36,-26.3089,2.28375,-0.00214156,0.00305624,-0.00360365,0.00490038,-0.0039857,-1.0978,0.00513943,0.0180974,622,988,-26.3089,-2.28373
-595,36,-26.3032,2.15167,-0.00257644,0.00150658,-0.00493853,0.00480892,-0.00587879,-0.981394,0.00618085,0.0206631,629,988,-26.3032,-2.15165
-588,36,-26.3013,1.64679,-0.00262791,0.000468187,-0.00549743,0.00463137,-0.0067911,-0.922642,0.00663394,0.0232269,636,988,-26.3013,-1.64676
-581,36,-26.3333,1.04785,-0.00280369,-7.23578e-05,-0.00535992,0.00409314,-0.00696919,-0.91014,0.00645839,0.0264822,643,988,-26.3333,-1.04788
-574,36,-26.3513,0.879883,-0.00310514,-0.000291482,-0.00466559,0.00317477,-0.00657139,-0.931829,0.00573973,0.028978,650,988,-26.3512,-0.879855
-567,36,-26.3716,0.826416,-0.00324269,-0.000507003,-0.0036221,0.00199693,-0.00574662,-0.965938,0.00464217,0.0355336,657,988,-26.3716,-0.826396
-560,36,-26.3954,0.993408,-0.00317989,-0.000604555,-0.00218515,0.000644112,-0.00442855,-1.05165,0.00318883,0.0382438,664,988,-26.3955,-0.9934
-553,36,-26.4075,1.29047,-0.00288473,-0.000565515,-0.000457676,-0.000478464,-0.00297178,-1.38284,0.00184252,0.0426091,671,988,-26.4075,-1.29049
-546,36,-26.3849,1.47589,0,0,0,0,0,0,0,-1,678,988,-26.3849,-1.4759
-539,36,-26.0179,0.348572,0,0,0,0,0,0,0,-1,685,988,-26.018,-0.348594
-532,36,-26.0515,0.508972,-0.000727035,0.0013499,0.00412851,0.00456855,-0.00394568,0.90861,0.00492007,0.0449389,692,988,-26.0514,-0.508974
-525,36,-26.5864,1.05817,-0.00159791,0.00345937,0.00406301,0.00571634,-0.00385489,1.06375,0.00556068,0.045358,699,988,-26.5863,-1.05816
-518,36,0,0,0,0,0,0,0,0,0,-1,706,988,0,0
-511,36,0,0,0,0,0,0,0,0,0,-1,713,988,0,0
-504,36,0,0,0,0,0,0,0,0,0,-1,720,988,0,0
-497,36,0,0,0,0,0,0,0,0,0,-1,727,988,0,0
-490,36,0,0,0,0,0,0,0,0,0,-1,734,988,0,0
-483,36,0,0,0,0,0,0,0,0,0,-1,741,988,0,0
-476,36,0,0,0,0,0,0,0,0,0,-1,748,988,0,0
-469,36,0,0,0,0,0,0,0,0,0,-1,755,988,0,0
-462,36,0,0,0,0,0,0,0,0,0,-1,762,988,0,0
-455,36,0,0,0,0,0,0,0,0,0,-1,769,988,0,0
-448,36,0,0,0,0,0,0,0,0,0,-1,776,988,0,0
-441,36,0,0,0,0,0,0,0,0,0,-1,783,988,0,0
-434,36,0,0,0,0,0,0,0,0,0,-1,790,988,0,0
-427,36,0,0,0,0,0,0,0,0,0,-1,797,988,0,0
-420,36,0,0,0,0,0,0,0,0,0,-1,804,988,0,0
-413,36,0,0,0,0,0,0,0,0,0,-1,811,988,0,0
-406,36,0,0,0,0,0,0,0,0,0,-1,818,988,0,0
-399,36,0,0,0,0,0,0,0,0,0,-1,825,988,0,0
-392,36,0,0,0,0,0,0,0,0,0,-1,832,988,0,0
-385,36,0,0,0,0,0,0,0,0,0,-1,839,988,0,0
-378,36,0,0,0,0,0,0,0,0,0,-1,846,988,0,0
-371,36,0,0,0,0,0,0,0,0,0,-1,853,988,0,0
-364,36,0,0,0,0,0,0,0,0,0,-1,860,988,0,0
-357,36,0,0,0,0,0,0,0,0,0,-1,867,988,0,0
-350,36,0,0,0,0,0,0,0,0,0,-1,874,988,0,0
-343,36,0,0,0,0,0,0,0,0,0,-1,881,988,0,0
-336,36,0,0,0,0,0,0,0,0,0,-1,888,988,0,0
-329,36,0,0,0,0,0,0,0,0,0,-1,895,988,0,0
-322,36,0,0,0,0,0,0,0,0,0,-1,902,988,0,0
-315,36,0,0,0,0,0,0,0,0,0,-1,909,988,0,0
-308,36,0,0,0,0,0,0,0,0,0,-1,916,988,0,0
-301,36,0,0,0,0,0,0,0,0,0,-1,923,988,0,0
-294,36,0,0,0,0,0,0,0,0,0,-1,930,988,0,0
-287,36,0,0,0,0,0,0,0,0,0,-1,937,988,0,0
-280,36,0,0,0,0,0,0,0,0,0,-1,944,988,0,0
-273,36,0,0,0,0,0,0,0,0,0,-1,951,988,0,0
-266,36,0,0,0,0,0,0,0,0,0,-1,958,988,0,0
-259,36,0,0,0,0,0,0,0,0,0,-1,965,988,0,0
-252,36,0,0,0,0,0,0,0,0,0,-1,972,988,0,0
-245,36,0,0,0,0,0,0,0,0,0,-1,979,988,0,0
-238,36,0,0,0,0,0,0,0,0,0,-1,986,988,0,0
-231,36,0,0,0,0,0,0,0,0,0,-1,993,988,0,0
-224,36,0,0,0,0,0,0,0,0,0,-1,1000,988,0,0
-217,36,0,0,0,0,0,0,0,0,0,-1,1007,988,0,0
-210,36,0,0,0,0,0,0,0,0,0,-1,1014,988,0,0
-203,36,0,0,0,0,0,0,0,0,0,-1,1021,988,0,0
-196,36,0,0,0,0,0,0,0,0,0,-1,1028,988,0,0
-189,36,0,0,0,0,0,0,0,0,0,-1,1035,988,0,0
-182,36,0,0,0,0,0,0,0,0,0,-1,1042,988,0,0
-175,36,0,0,0,0,0,0,0,0,0,-1,1049,988,0,0
-168,36,0,0,0,0,0,0,0,0,0,-1,1056,988,0,0
-161,36,0,0,0,0,0,0,0,0,0,-1,1063,988,0,0
-154,36,0,0,0,0,0,0,0,0,0,-1,1070,988,0,0
-147,36,0,0,0,0,0,0,0,0,0,-1,1077,988,0,0
-140,36,0,0,0,0,0,0,0,0,0,-1,1084,988,0,0
-133,36,0,0,0,0,0,0,0,0,0,-1,1091,988,0,0
-126,36,0,0,0,0,0,0,0,0,0,-1,1098,988,0,0
-119,36,0,0,0,0,0,0,0,0,0,-1,1105,988,0,0
-112,36,0,0,0,0,0,0,0,0,0,-1,1112,988,0,0
-105,36,0,0,0,0,0,0,0,0,0,-1,1119,988,0,0
-98,36,0,0,0,0,0,0,0,0,0,-1,1126,988,0,0
-91,36,0,0,0,0,0,0,0,0,0,-1,1133,988,0,0
-84,36,0,0,0,0,0,0,0,0,0,-1,1140,988,0,0
-77,36,0,0,0,0,0,0,0,0,0,-1,1147,988,0,0
-70,36,0,0,0,0,0,0,0,0,0,-1,1154,988,0,0
-63,36,0,0,0,0,0,0,0,0,0,-1,1161,988,0,0
-56,36,0,0,0,0,0,0,0,0,0,-1,1168,988,0,0
-49,36,0,0,0,0,0,0,0,0,0,-1,1175,988,0,0
-42,36,0,0,0,0,0,0,0,0,0,-1,1182,988,0,0
-35,36,0,0,0,0,0,0,0,0,0,-1,1189,988,0,0
-28,36,0,0,0,0,0,0,0,0,0,-1,1196,988,0,0
-21,36,0,0,0,0,0,0,0,0,0,-1,1203,988,0,0
-14,36,0,0,0,0,0,0,0,0,0,-1,1210,988,0,0
-7,36,0,0,0,0,0,0,0,0,0,-1,1217,988,0,0
0,36,0,0,0,0,0,0,0,0,0,-1,1224,988,0,0
7,36,0,0,0,0,0,0,0,0,0,-1,1231,988,0,0
14,36,0,0,0,0,0,0,0,0,0,-1,1238,988,0,0
21,36,0,0,0,0,0,0,0,0,0,-1,1245,988,0,0
28,36,0,0,0,0,0,0,0,0,0,-1,1252,988,0,0
35,36,0,0,0,0,0,0,0,0,0,-1,1259,988,0,0
42,36,0,0,0,0,0,0,0,0,0,-1,1266,988,0,0
49,36,0,0,0,0,0,0,0,0,0,-1,1273,988,0,0
56,36,0,0,0,0,0,0,0,0,0,-1,1280,988,0,0
63,36,0,0,0,0,0,0,0,0,0,-1,1287,988,0,0
70,36,0,0,0,0,0,0,0,0,0,-1,1294,988,0,0
77,36,0,0,0,0,0,0,0,0,0,-1,1301,988,0,0
84,36,0,0,0,0,0,0,0,0,0,-1,1308,988,0,0
91,36,0,0,0,0,0,0,0,0,0,-1,1315,988,0,0
98,36,0,0,0,0,0,0,0,0,0,-1,1322,988,0,0
105,36,0,0,0,0,0,0,0,0,0,-1,1329,988,0,0
112,36,0,0,0,0,0,0,0,0,0,-1,1336,988,0,0
119,36,0,0,0,0,0,0,0,0,0,-1,1343,988,0,0
126,36,0,0,0,0,0,0,0,0,0,-1,1350,988,0,0
133,36,0,0,0,0,0,0,0,0,0,-1,1357,988,0,0
140,36,0,0,0,0,0,0,0,0,0,-1,1364,988,0,0
147,36,0,0,0,0,0,0,0,0,0,-1,1371,988,0,0
154,36,0,0,0,0,0,0,0,0,0,-1,1378,988,0,0
161,36,0,0,0,0,0,0,0,0,0,-1,1385,988,0,0
168,36,0,0,0,0,0,0,0,0,0,-1,1392,988,0,0
175,36,0,0,0,0,0,0,0,0,0,-1,1399,988,0,0
182,36,0,0,0,0,0,0,0,0,0,-1,1406,988,0,0
189,36,0,0,0,0,0,0,0,0,0,-1,1413,988,0,0
196,36,0,0,0,0,0,0,0,0,0,-1,1420,988,0,0
203,36,0,0,0,0,0,0,0,0,0,-1,1427,988,0,0
210,36,0,0,0,0,0,0,0,0,0,-1,1434,988,0,0
217,36,0,0,0,0,0,0,0,0,0,-1,1441,988,0,0
224,36,0,0,0,0,0,0,0,0,0,-1,1448,988,0,0
231,36,0,0,0,0,0,0,0,0,0,-1,1455,988,0,0
238,36,0,0,0,0,0,0,0,0,0,-1,1462,988,0,0
245,36,0,0,0,0,0,0,0,0,0,-1,1469,988,0,0
252,36,0,0,0,0,0,0,0,0,0,-1,1476,988,0,0
259,36,0,0,0,0,0,0,0,0,0,-1,1483,988,0,0
266,36,0,0,0,0,0,0,0,0,0,-1,1490,988,0,0
273,36,0,0,0,0,0,0,0,0,0,-1,1497,988,0,0
280,36,0,0,0,0,0,0,0,0,0,-1,1504,988,0,0
287,36,0,0,0,0,0,0,0,0,0,-1,1511,988,0,0
294,36,0,0,0,0,0,0,0,0,0,-1,1518,988,0,0
301,36,0,0,0,0,0,0,0,0,0,-1,1525,988,0,0
308,36,0,0,0,0,0,0,0,0,0,-1,1532,988,0,0
315,36,0,0,0,0,0,0,0,0,0,-1,1539,988,0,0
322,36,0,0,0,0,0,0,0,0,0,-1,1546,988,0,0
329,36,0,0,0,0,0,0,0,0,0,-1,1553,988,0,0
336,36,0,0,0,0,0,0,0,0,0,-1,1560,988,0,0
343,36,0,0,0,0,0,0,0,0,0,-1,1567,988,0,0
350,36,0,0,0,0,0,0,0,0,0,-1,1574,988,0,0
357,36,0,0,0,0,0,0,0,0,0,-1,1581,988,0,0
364,36,0,0,0,0,0,0,0,0,0,-1,1588,988,0,0
371,36,0,0,0,0,0,0,0,0,0,-1,1595,988,0,0
378,36,0,0,0,0,0,0,0,0,0,-1,1602,988,0,0
385,36,0,0,0,0,0,0,0,0,0,-1,1609,988,0,0
392,36,0,0,0,0,0,0,0,0,0,-1,1616,988,0,0
399,36,0,0,0,0,0,0,0,0,0,-1,1623,988,0,0
406,36,0,0,0,0,0,0,0,0,0,-1,1630,988,0,0
413,36,0,0,0,0,0,0,0,0,0,-1,1637,988,0,0
420,36,0,0,0,0,0,0,0,0,0,-1,1644,988,0,0
427,36,0,0,0,0,0,0,0,0,0,-1,1651,988,0,0
434,36,0,0,0,0,0,0,0,0,0,-1,1658,988,0,0
441,36,0,0,0,0,0,0,0,0,0,-1,1665,988,0,0
448,36,0,0,0,0,0,0,0,0,0,-1,1672,988,0,0
455,36,0,0,0,0,0,0,0,0,0,-1,1679,988,0,0
462,36,0,0,0,0,0,0,0,0,0,-1,1686,988,0,0
469,36,0,0,0,0,0,0,0,0,0,-1,1693,988,0,0
476,36,0,0,0,0,0,0,0,0,0,-1,1700,988,0,0
483,36,0,0,0,0,0,0,0,0,0,-1,1707,988,0,0
490,36,0,0,0,0,0,0,0,0,0,-1,1714,988,0,0
497,36,0,0,0,0,0,0,0,0,0,-1,1721,988,0,0
504,36,0,0,0,0,0,0,0,0,0,-1,1728,988,0,0
511,36,0,0,0,0,0,0,0,0,0,-1,1735,988,0,0
518,36,0,0,0,0,0,0,0,0,0,-1,1742,988,0,0
525,36,0,0,0,0,0,0,0,0,0,-1,1749,988,0,0
532,36,0,0,0,0,0,0,0,0,0,-1,1756,988,0,0
539,36,0,0,0,0,0,0,0,0,0,-1,1763,988,0,0
546,36,0,0,0,0,0,0,0,0,0,-1,1770,988,0,0
553,36,0,0,0,0,0,0,0,0,0,-1,1777,988,0,0
560,36,0,0,0,0,0,0,0,0,0,-1,1784,988,0,0
567,36,0,0,0,0,0,0,0,0,0,-1,1791,988,0,0
574,36,0,0,0,0,0,0,0,0,0,-1,1798,988,0,0
581,36,0,0,0,0,0,0,0,0,0,-1,1805,988,0,0
588,36,0,0,0,0,0,0,0,0,0,-1,1812,988,0,0
595,36,0,0,0,0,0,0,0,0,0,-1,1819,988,0,0
602,36,0,0,0,0,0,0,0,0,0,-1,1826,988,0,0
609,36,0,0,0,0,0,0,0,0,0,-1,1833,988,0,0
616,36,0,0,0,0,0,0,0,0,0,-1,1840,988,0,0
623,36,0,0,0,0,0,0,0,0,0,-1,1847,988,0,0
630,36,0,0,0,0,0,0,0,0,0,-1,1854,988,0,0
637,36,0,0,0,0,0,0,0,0,0,-1,1861,988,0,0
644,36,36.0887,2.79962,0.00761347,0.00256461,-0.000536363,0.00766982,0.00250826,-0.104678,0.00451564,0.0410805,1868,988,36.0888,-2.79961
651,36,36.2035,2.81189,0.00545342,0.000932447,-0.000797821,0.00559008,0.000795785,-0.169647,0.00349181,0.0428832,1875,988,36.2035,-2.8119
658,36,36.3207,2.55133,0.00375526,-0.000151602,-0.000743913,0.00389211,-0.000288458,-0.181934,0.00269604,0.0391153,1882,988,36.3206,-2.55133
665,36,36.4131,2.62311,0.00224428,-0.00055896,-3.24987e-05,0.00224466,-0.000559337,-0.0115912,0.00171359,0.0373837,1889,988,36.4131,-2.62312
672,36,36.3862,2.73145,0.000934571,-0.000425012,0.00104603,0.00150229,-0.000992733,0.497253,0.00145048,0.0379616,1896,988,36.3862,-2.73146
679,36,36.2739,2.66351,-0.00013415,2.42649e-05,0.00222436,0.00217083,-0.00228072,0.803195,0.00257036,0.0388514,1903,988,36.2739,-2.66351
686,36,36.1772,2.7901,-0.000754572,0.000439344,0.0031808,0.00307872,-0.00339395,0.878157,0.00373848,0.0376621,1910,988,36.1773,-2.79009
693,36,36.219,2.68256,-0.00109377,0.000861414,0.00388435,0.0038893,-0.00412166,0.908675,0.00462578,0.0379142,1917,988,36.219,-2.68257
700,36,36.2373,2.67981,-0.00136282,0.00119556,0.00420782,0.00431433,-0.00448159,0.932961,0.00507863,0.0350843,1924,988,36.2373,-2.6798
707,36,36.2201,2.78577,-0.00161332,0.00162372,0.00428694,0.0045875,-0.0045771,0.965899,0.00529118,0.0268129,1931,988,36.2201,-2.78576
714,36,36.1813,3.21173,-0.00201295,0.00208523,0.00423016,0.00473646,-0.00466418,1.01094,0.00542752,0.032544,1938,988,36.1813,-3.21173
721,36,35.8177,4.45331,0,0,0,0,0,0,0,-1,1945,988,35.8178,-4.45329
728,36,35.6429,4.68842,-0.00265868,0.0033456,0.00382012,0.00520208,-0.00451516,1.11843,0.00561492,0.021274,1952,988,35.6429,-4.6884
735,36,35.4891,4.90497,-0.00267985,0.00419975,0.00343287,0.00561967,-0.00409977,1.1786,0.00563434,0.0178552,1959,988,35.4892,-4.905
742,36,35.4712,5.0072,-0.00277696,0.00525371,0.00294877,0.00622016,-0.00374341,1.25408,0.00581141,0.0145711,1966,988,35.4712,-5.00717
749,36,35.4958,5.1571,-0.00232486,0.00986649,0.00117554,0.0099788,-0.00243717,1.47554,0.00759639,0.0153226,1973,988,35.4958,-5.15708
756,36,35.4801,5.30487,0.00150047,0.0139245,-0.00155826,0.014117,0.00130801,-1.44791,0.00900703,0.014364,1980,988,35.4801,-5.30486
763,36,35.4136,5.43658,0.00882701,0.0193141,-0.00319405,0.0202103,0.00793079,-1.29724,0.0117581,0.0164477,1987,988,35.4136,-5.43661
770,36,35.3403,5.58551,0.0183145,0.0276716,-0.00602815,0.0306237,0.0153624,-1.1154,0.0176807,0.0148628,1994,988,35.3403,-5.58551
777,36,35.296,5.83484,0.0328307,0.0387849,-0.00948843,0.0457523,0.0258633,-0.937414,0.0264901,0.0235825,2001,988,35.296,-5.83485
784,36,35.5024,6.63257,0.0529142,0.0518467,-0.0137684,0.0661592,0.0386016,-0.766025,0.038374,0.0433176,2008,988,35.5025,-6.63258
791,36,35.7036,7.41785,0.081181,0.0673811,-0.0191481,0.0946344,0.0539276,-0.612467,0.0548147,0.046909,2015,988,35.7036,-7.41783
798,36,35.8857,8.03748,0.119437,0.0852633,-0.0255835,0.133115,0.0715852,-0.490978,0.0769268,0.0471529,2022,988,35.8857,-8.03746
805,36,36.8025,5.4187,0.169424,0.105114,-0.0327295,0.183151,0.0913867,-0.397126,0.105742,0.0480641,2029,988,36.8024,-5.41871
812,36,37.6982,4.91608,0.233248,0.126098,-0.0400347,0.246554,0.112792,-0.320874,0.142519,0.0466042,2036,988,37.6983,-4.91609
-700,29,0,0,0,0,0,0,0,0,0,-1,524,995,0,0
-693,29,-25.6963,-2.77051,-0.00864213,0.0638251,0.0742758,0.110234,-0.055051,1.01233,0.0971839,0.0435351,531,995,-25.6963,2.77049
-686,29,-25.8173,-1.96674,0.0029622,0.0490148,0.0614312,0.0915934,-0.0396164,0.964709,0.07771,0.042484,538,995,-25.8172,1.96676
-679,29,-25.2106,-1.02283,0.00806989,0.0390057,0.0509794,0.0768122,-0.0297366,0.932692,0.0634858,0.0440707,545,995,-25.2106,1.0228
-672,29,-25.3588,-0.473022,0.00988176,0.0318138,0.0421084,0.0643607,-0.0226651,0.91278,0.0521312,0.0429061,552,995,-25.3588,0.473022
-665,29,-25.5368,0.383972,0.00982561,0.0263616,0.0344683,0.0535396,-0.0173525,0.90311,0.04267,0.0443998,559,995,-25.5368,-0.383956
-658,29,-25.6972,1.08295,0.00871677,0.0219909,0.027857,0.0439906,-0.0132829,0.902345,0.0346149,0.0413691,566,995,-25.6972,-1.08293
-651,29,-26.0377,1.90027,0.00717928,0.0182651,0.0220518,0.03546,-0.0100156,0.908527,0.0275913,0.0383071,573,995,-26.0376,-1.9003
-644,29,-26.3162,2.48901,0.0056292,0.0149337,0.0167,0.0276174,-0.00705449,0.921243,0.0211588,0.0258612,580,995,-26.3162,-2.489
-637,29,-26.3918,2.65448,0.00483511,0.0115811,0.0111238,0.0198321,-0.00341586,0.932604,0.0144948,0.017626,587,995,-26.3918,-2.65451
-630,29,-26.4252,2.65961,0.00344055,0.00881061,0.00626596,0.0129426,-0.000691432,0.987819,0.00886786,0.0128954,594,995,-26.4252,-2.6596
-623,29,-26.4295,2.59717,0.00145726,0.00674588,0.00242664,0.00769058,0.000512564,1.19955,0.00496502,0.011086,601,995,-26.4295,-2.59714
-616,29,-26.4435,2.5011,0.000171124,0.00578858,-0.00033066,0.00580798,0.000151727,-1.5122,0.00382241,0.0121935,608,995,-26.4435,-2.50112
-609,29,-26.4727,2.43823,-0.000845529,0.00422011,-0.00271607,0.00540108,-0.00202649,-1.16065,0.00443339,0.0182721,615,995,-26.4727,-2.43822
-602,29,-26.4608,2.3075,-0.00128943,0.00282099,-0.00442883,0.00564824,-0.00411668,-1.00264,0.00566085,0.0200929,622,995,-26.4608,-2.30752
-595,29,-26.4093,2.15955,-0.00134956,0.00142192,-0.00558474,0.00579028,-0.00571792,-0.907007,0.0066443,0.02066,629,995,-26.4093,-2.15955
-588,29,-26.346,1.62524,-0.00126604,0.000419793,-0.0061046,0.0057394,-0.00658565,-0.854004,0.00712146,0.03074,636,995,-26.346,-1.62527
-581,29,-26.3089,1.12286,-0.00140789,-7.18178e-05,-0.00595474,0.00525224,-0.00673195,-0.841258,0.00693663,0.0396126,643,995,-26.3089,-1.12289
-574,29,-26.3334,0.941589,-0.00176038,-0.00024513,-0.0052279,0.00427976,-0.00628527,-0.857357,0.00613624,0.0320834,650,995,-26.3334,-0.941581
-567,29,-26.3592,0.820313,-0.00205381,-0.000411402,-0.00412935,0.0029776,-0.00544282,-0.883553,0.00493049,0.0317375,657,995,-26.3592,-0.820316
-560,29,-26.4655,1.00763,-0.00225307,-0.000447884,-0.00264853,0.00144763,-0.00414858,-0.949621,0.00335406,0.0357373,664,995,-26.4655,-1.00761
-553,29,-26.5493,1.33557,-0.00234915,-0.000349955,-0.000900083,-4.43356e-06,-0.00269467,-1.20427,0.00179497,0.0408717,671,995,-26.5493,-1.33555
-546,29,-26.3969,1.19,-0.0023171,-0.00011398,0.00099943,0.000271838,-0.00270292,1.20238,0.00189906,0.0447207,678,995,-26.3969,-1.18998
-539,29,-26.269,0.833862,-0.0020514,0.000293741,0.0025981,0.00197162,-0.00372928,0.997373,0.00334315,0.0418242,685,995,-26.269,-0.833858
-532,29,-26.1711,0.682373,-0.0019411,0.00187057,0.00296767,0.00349167,-0.0035622,1.07083,0.00407262,0.0436747,692,995,-26.1711,-0.682385
-525,29,-26.2237,0.797058,-0.0034354,0.00404218,0.00239081,0.00474124,-0.00413447,1.28633,0.00512838,0.0440681,699,995,-26.2237,-0.797081
-518,29,0,0,0,0,0,0,0,0,0,-1,706,995,0,0
-511,29,0,0,0,0,0,0,0,0,0,-1,713,995,0,0
-504,29,0,0,0,0,0,0,0,0,0,-1,720,995,0,0
-497,29,0,0,0,0,0,0,0,0,0,-1,727,995,0,0
-490,29,0,0,0,0,0,0,0,0,0,-1,734,995,0,0
-483,29,0,0,0,0,0,0,0,0,0,-1,741,995,0,0
-476,29,0,0,0,0,0,0,0,0,0,-1,748,995,0,0
-469,29,0,0,0,0,0,0,0,0,0,-1,755,995,0,0
-462,29,0,0,0,0,0,0,0,0,0,-1,762,995,0,0
-455,29,0,0,0,0,0,0,0,0,0,-1,769,995,0,0
-448,29,0,0,0,0,0,0,0,0,0,-1,776,995,0,0
-441,29,0,0,0,0,0,0,0,0,0,-1,783,995,0,0
-434,29,0,0,0,0,0,0,0,0,0,-1,790,995,0,0
-427,29,0,0,0,0,0,0,0,0,0,-1,797,995,0,0
-420,29,0,0,0,0,0,0,0,0,0,-1,804,995,0,0
-413,29,0,0,0,0,0,0,0,0,0,-1,811,995,0,0
-406,29,0,0,0,0,0,0,0,0,0,-1,818,995,0,0
-399,29,0,0,0,0,0,0,0,0,0,-1,825,995,0,0
-392,29,0,0,0,0,0,0,0,0,0,-1,832,995,0,0
-385,29,0,0,0,0,0,0,0,0,0,-1,839,995,0,0
-378,29,0,0,0,0,0,0,0,0,0,-1,846,995,0,0
-371,29,0,0,0,0,0,0,0,0,0,-1,853,995,0,0
-364,29,0,0,0,0,0,0,0,0,0,-1,860,995,0,0
-357,29,0,0,0,0,0,0,0,0,0,-1,867,995,0,0
-350,29,0,0,0,0,0,0,0,0,0,-1,874,995,0,0
-343,29,0,0,0,0,0,0,0,0,0,-1,881,995,0,0
-336,29,0,0,0,0,0,0,0,0,0,-1,888,995,0,0
-329,29,0,0,0,0,0,0,0,0,0,-1,895,995,0,0
-322,29,0,0,0,0,0,0,0,0,0,-1,902,995,0,0
-315,29,0,0,0,0,0,0,0,0,0,-1,909,995,0,0
-308,29,0,0,0,0,0,0,0,0,0,-1,916,995,0,0
-301,29,0,0,0,0,0,0,0,0,0,-1,923,995,0,0
-294,29,0,0,0,0,0,0,0,0,0,-1,930,995,0,0
-287,29,0,0,0,0,0,0,0,0,0,-1,937,995,0,0
-280,29,0,0,0,0,0,0,0,0,0,-1,944,995,0,0
-273,29,0,0,0,0,0,0,0,0,0,-1,951,995,0,0
-266,29,0,0,0,0,0,0,0,0,0,-1,958,995,0,0
-259,29,0,0,0,0,0,0,0,0,0,-1,965,995,0,0
-252,29,0,0,0,0,0,0,0,0,0,-1,972,995,0,0
-245,29,0,0,0,0,0,0,0,0,0,-1,979,995,0,0
-238,29,0,0,0,0,0,0,0,0,0,-1,986,995,0,0
-231,29,0,0,0,0,0,0,0,0,0,-1,993,995,0,0
-224,29,0,0,0,0,0,0,0,0,0,-1,1000,995,0,0
-217,29,0,0,0,0,0,0,0,0,0,-1,1007,995,0,0
-210,29,0,0,0,0,0,0,0,0,0,-1,1014,995,0,0
-203,29,0,0,0,0,0,0,0,0,0,-1,1021,995,0,0
-196,29,0,0,0,0,0,0,0,0,0,-1,1028,995,0,0
-189,29,0,0,0,0,0,0,0,0,0,-1,1035,995,0,0
-182,29,0,0,0,0,0,0,0,0,0,-1,1042,995,0,0
-175,29,0,0,0,0,0,0,0,0,0,-1,1049,995,0,0
-168,29,0,0,0,0,0,0,0,0,0,-1,1056,995,0,0
-161,29,0,0,0,0,0,0,0,0,0,-1,1063,995,0,0
-154,29,0,0,0,0,0,0,0,0,0,-1,1070,995,0,0
-147,29,0,0,0,0,0,0,0,0,0,-1,1077,995,0,0
-140,29,0,0,0,0,0,0,0,0,0,-1,1084,995,0,0
-133,29,0,0,0,0,0,0,0,0,0,-1,1091,995,0,0
-126,29,0,0,0,0,0,0,0,0,0,-1,1098,995,0,0
-119,29,0,0,0,0,0,0,0,0,0,-1,1105,995,0,0
-112,29,0,0,0,0,0,0,0,0,0,-1,1112,995,0,0
-105,29,0,0,0,0,0,0,0,0,0,-1,1119,995,0,0
-98,29,0,0,0,0,0,0,0,0,0,-1,1126,995,0,0
-91,29,0,0,0,0,0,0,0,0,0,-1,1133,995,0,0
-84,29,0,0,0,0,0,0,0,0,0,-1,1140,995,0,0
-77,29,0,0,0,0,0,0,0,0,0,-1,1147,995,0,0
-70,29,0,0,0,0,0,0,0,0,0,-1,1154,995,0,0
-63,29,0,0,0,0,0,0,0,0,0,-1,1161,995,0,0
-56,29,0,0,0,0,0,0,0,0,0,-1,1168,995,0,0
-49,29,0,0,0,0,0,0,0,0,0,-1,1175,995,0,0
-42,29,0,0,0,0,0,0,0,0,0,-1,1182,995,0,0
-35,29,0,0,0,0,0,0,0,0,0,-1,1189,995,0,0
-28,29,0,0,0,0,0,0,0,0,0,-1,1196,995,0,0
-21,29,0,0,0,0,0,0,0,0,0,-1,1203,995,0,0
-14,29,0,0,0,0,0,0,0,0,0,-1,1210,995,0,0
-7,29,0,0,0,0,0,0,0,0,0,-1,1217,995,0,0
0,29,0,0,0,0,0,0,0,0,0,-1,1224,995,0,0
7,29,0,0,0,0,0,0,0,0,0,-1,1231,995,0,0
14,29,0,0,0,0,0,0,0,0,0,-1,1238,995,0,0
21,29,0,0,0,0,0,0,0,0,0,-1,1245,995,0,0
28,29,0,0,0,0,0,0,0,0,0,-1,1252,995,0,0
35,29,0,0,0,0,0,0,0,0,0,-1,1259,995,0,0
42,29,0,0,0,0,0,0,0,0,0,-1,1266,995,0,0
49,29,0,0,0,0,0,0,0,0,0,-1,1273,995,0,0
56,29,0,0,0,0,0,0,0,0,0,-1,1280,995,0,0
63,29,0,0,0,0,0,0,0,0,0,-1,1287,995,0,0
70,29,0,0,0,0,0,0,0,0,0,-1,1294,995,0,0
77,29,0,0,0,0,0,0,0,0,0,-1,1301,995,0,0
84,29,0,0,0,0,0,0,0,0,0,-1,1308,995,0,0
91,29,0,0,0,0,0,0,0,0,0,-1,1315,995,0,0
98,29,0,0,0,0,0,0,0,0,0,-1,1322,995,0,0
105,29,0,0,0,0,0,0,0,0,0,-1,1329,995,0,0
112,29,0,0,0,0,0,0,0,0,0,-1,1336,995,0,0
119,29,0,0,0,0,0,0,0,0,0,-1,1343,995,0,0
126,29,0,0,0,0,0,0,0,0,0,-1,1350,995,0,0
133,29,0,0,0,0,0,0,0,0,0,-1,1357,995,0,0
140,29,0,0,0,0,0,0,0,0,0,-1,1364,995,0,0
147,29,0,0,0,0,0,0,0,0,0,-1,1371,995,0,0
154,29,0,0,0,0,0,0,0,0,0,-1,1378,995,0,0
161,29,0,0,0,0,0,0,0,0,0,-1,1385,995,0,0
168,29,0,0,0,0,0,0,0,0,0,-1,1392,995,0,0
175,29,0,0,0,0,0,0,0,0,0,-1,1399,995,0,0
182,29,0,0,0,0,0,0,0,0,0,-1,1406,995,0,0
189,29,0,0,0,0,0,0,0,0,0,-1,1413,995,0,0
196,29,0,0,0,0,0,0,0,0,0,-1,1420,995,0,0
203,29,0,0,0,0,0,0,0,0,0,-1,1427,995,0,0
210,29,0,0,0,0,0,0,0,0,0,-1,1434,995,0,0
217,29,0,0,0,0,0,0,0,0,0,-1,1441,995,0,0
224,29,0,0,0,0,0,0,0,0,0,-1,1448,995,0,0
231,29,0,0,0,0,0,0,0,0,0,-1,1455,995,0,0
238,29,0,0,0,0,0,0,0,0,0,-1,1462,995,0,0
245,29,0,0,0,0,0,0,0,0,0,-1,1469,995,0,0
252,29,0,0,0,0,0,0,0,0,0,-1,1476,995,0,0
259,29,0,0,0,0,0,0,0,0,0,-1,1483,995,0,0
266,29,0,0,0,0,0,0,0,0,0,-1,1490,995,0,0
273,29,0,0,0,0,0,0,0,0,0,-1,1497,995,0,0
280,29,0,0,0,0,0,0,0,0,0,-1,1504,995,0,0
287,29,0,0,0,0,0,0,0,0,0,-1,1511,995,0,0
294,29,0,0,0,0,0,0,0,0,0,-1,1518,995,0,0
301,29,0,0,0,0,0,0,0,0,0,-1,1525,995,0,0
308,29,0,0,0,0,0,0,0,0,0,-1,1532,995,0,0
315,29,0,0,0,0,0,0,0,0,0,-1,1539,995,0,0
322,29,0,0,0,0,0,0,0,0,0,-1,1546,995,0,0
329,29,0,0,0,0,0,0,0,0,0,-1,1553,995,0,0
336,29,0,0,0,0,0,0,0,0,0,-1,1560,995,0,0
343,29,0,0,0,0,0,0,0,0,0,-1,1567,995,0,0
350,29,0,0,0,0,0,0,0,0,0,-1,1574,995,0,0
357,29,0,0,0,0,0,0,0,0,0,-1,1581,995,0,0
364,29,0,0,0,0,0,0,0,0,0,-1,1588,995,0,0
371,29,0,0,0,0,0,0,0,0,0,-1,1595,995,0,0
378,29,0,0,0,0,0,0,0,0,0,-1,1602,995,0,0
385,29,0,0,0,0,0,0,0,0,0,-1,1609,995,0,0
392,29,0,0,0,0,0,0,0,0,0,-1,1616,995,0,0
399,29,0,0,0,0,0,0,0,0,0,-1,1623,995,0,0
406,29,0,0,0,0,0,0,0,0,0,-1,1630,995,0,0
413,29,0,0,0,0,0,0,0,0,0,-1,1637,995,0,0
420,29,0,0,0,0,0,0,0,0,0,-1,1644,995,0,0
427,29,0,0,0,0,0,0,0,0,0,-1,1651,995,0,0
434,29,0,0,0,0,0,0,0,0,0,-1,1658,995,0,0
441,29,0,0,0,0,0,0,0,0,0,-1,1665,995,0,0
448,29,0,0,0,0,0,0,0,0,0,-1,1672,995,0,0
455,29,0,0,0,0,0,0,0,0,0,-1,1679,995,0,0
462,29,0,0,0,0,0,0,0,0,0,-1,1686,995,0,0
469,29,0,0,0,0,0,0,0,0,0,-1,1693,995,0,0
476,29,0,0,0,0,0,0,0,0,0,-1,1700,995,0,0
483,29,0,0,0,0,0,0,0,0,0,-1,1707,995,0,0
490,29,0,0,0,0,0,0,0,0,0,-1,1714,995,0,0
497,29,0,0,0,0,0,0,0,0,0,-1,1721,995,0,0
504,29,0,0,0,0,0,0,0,0,0,-1,1728,995,0,0
511,29,0,0,0,0,0,0,0,0,0,-1,1735,995,0,0
518,29,0,0,0,0,0,0,0,0,0,-1,1742,995,0,0
525,29,0,0,0,0,0,0,0,0,0,-1,1749,995,0,0
532,29,0,0,0,0,0,0,0,0,0,-1,1756,995,0,0
539,29,0,0,0,0,0,0,0,0,0,-1,1763,995,0,0
546,29,0,0,0,0,0,0,0,0,0,-1,1770,995,0,0
553,29,0,0,0,0,0,0,0,0,0,-1,1777,995,0,0
560,29,0,0,0,0,0,0,0,0,0,-1,1784,995,0,0
567,29,0,0,0,0,0,0,0,0,0,-1,1791,995,0,0
574,29,0,0,0,0,0,0,0,0,0,-1,1798,995,0,0
581,29,0,0,0,0,0,0,0,0,0,-1,1805,995,0,0
588,29,0,0,0,0,0,0,0,0,0,-1,1812,995,0,0
595,29,0,0,0,0,0,0,0,0,0,-1,1819,995,0,0
602,29,0,0,0,0,0,0,0,0,0,-1,1826,995,0,0
609,29,0,0,0,0,0,0,0,0,0,-1,1833,995,0,0
616,29,0,0,0,0,0,0,0,0,0,-1,1840,995,0,0
623,29,0,0,0,0,0,0,0,0,0,-1,1847,995,0,0
630,29,0,0,0,0,0,0,0,0,0,-1,1854,995,0,0
637,29,0,0,0,0,0,0,0,0,0,-1,1861,995,0,0
644,29,36.2234,2.76221,0.00755492,0.00354486,0.0010096,0.00779475,0.00330502,0.233235,0.0045176,0.040892,1868,995,36.2234,-2.76219
651,29,36.0522,3.16943,0.00536918,0.00162131,0.000395097,0.00541038,0.00158012,0.103897,0.00321247,0.0427993,1875,995,36.0522,-3.16941
658,29,36.1526,3.28394,0.00369935,0.000292082,9.12286e-05,0.00370179,0.000289642,0.0267491,0.0023772,0.0438651,1882,995,36.1526,-3.28391
665,29,36.3683,3.03333,0.00224587,-0.00031579,0.000467667,0.00232857,-0.000398498,0.175044,0.00170085,0.0397651,1889,995,36.3683,-3.0333
672,29,36.3588,2.77734,0.00101889,-0.000323898,0.00124627,0.0017631,-0.00106811,0.538326,0.00165094,0.0352868,1896,995,36.3588,-2.77733
679,29,36.2554,2.79138,1.03886e-05,3.94979e-05,0.00220476,0.00222975,-0.00217986,0.788699,0.00254594,0.0368953,1903,995,36.2554,-2.7914
686,29,36.1172,2.95325,-0.000566591,0.000399863,0.00301252,0.00296767,-0.00313439,0.864924,0.00352346,0.036489,1910,995,36.1172,-2.95326
693,29,36.1881,2.84503,-0.000861398,0.00078579,0.00361789,0.00367264,-0.00374825,0.897313,0.00428453,0.0362832,1917,995,36.1881,-2.84504
700,29,36.2849,2.7088,-0.00108704,0.00109032,0.00390201,0.00405268,-0.0040494,0.921441,0.00467774,0.0348028,1924,995,36.2849,-2.70882
707,29,36.1821,2.76617,-0.00133801,0.00150712,0.00397998,0.00431113,-0.00414201,0.957038,0.00488075,0.0227271,1931,995,36.1821,-2.7662
714,29,36.1614,3.21771,-0.0017434,0.00197213,0.00394115,0.00447142,-0.00424269,1.00564,0.00503167,0.0299836,1938,995,36.1613,-3.21771
721,29,35.848,4.48346,0,0,0,0,0,0,0,-1,1945,995,35.848,-4.48348
728,29,35.713,4.73993,-0.00243046,0.00324586,0.00356462,0.0049642,-0.0041488,1.12161,0.00526841,0.0239957,1952,995,35.713,-4.73994
735,29,35.6085,4.95483,-0.00253095,0.00405712,0.00322669,0.00537417,-0.00384801,1.18326,0.00534868,0.0151133,1959,995,35.6086,-4.95482
742,29,35.6293,5.01727,-0.00273192,0.00513439,0.00277908,0.00601714,-0.00361468,1.26323,0.0056183,0.0126553,1966,995,35.6292,-5.01728
749,29,35.6285,5.13312,-0.00237189,0.00959358,0.00105344,0.00968561,-0.00246393,1.48365,0.0074161,0.0128588,1973,995,35.6285,-5.13311
756,29,35.6144,5.28717,0.00166165,0.0132974,-0.00170645,0.0135425,0.00141656,-1.42814,0.00859517,0.0123799,1980,995,35.6144,-5.28717
763,29,35.5812,5.38177,0.00923307,0.0180136,-0.00315207,0.019028,0.00821871,-1.25946,0.0110197,0.0120225,1987,995,35.5812,-5.38176
770,29,35.5153,5.46802,0.0189702,0.0254279,-0.00591569,0.0289386,0.0154596,-1.03521,0.0167207,0.0153963,1994,995,35.5153,-5.468
777,29,35.4907,5.65924,0.0341559,0.0353652,-0.00918749,0.0439679,0.0255532,-0.818256,0.0254962,0.0269871,2001,995,35.4907,-5.65927
784,29,35.9631,6.15466,0.0547896,0.0466605,-0.0130205,0.0643652,0.0370849,-0.634108,0.0373047,0.044997,2008,995,35.9632,-6.15464
791,29,35.8418,7.16479,0.0835397,0.0596966,-0.017558,0.092841,0.0503954,-0.487158,0.0536672,0.0435007,2015,995,35.8418,-7.16481
798,29,36.8438,4.39056,0.122292,0.0741892,-0.0226047,0.131247,0.0652339,-0.3772,0.0757761,0.0439322,2022,995,36.8437,-4.39055
805,29,37.6189,4.08728,0.172874,0.0895487,-0.0276335,0.181205,0.0812175,-0.292823,0.104806,0.0480606,2029,995,37.6188,-4.0873
812,29,38.3037,3.8349,0.237497,0.104633,-0.0317798,0.244707,0.097423,-0.223101,0.142256,0.0473941,2036,995,38.3036,-3.8349
-700,22,0,0,0,0,0,0,0,0,0,-1,524,1002,0,0
-693,22,-26.3982,-3.17316,0,0,0,0,0,0,0,-1,531,1002,-26.3982,3.17317
-686,22,-26.6081,-2.50256,0.00599952,0.0444381,0.056883,0.085261,-0.0348233,0.948314,0.0713401,0.042733,538,1002,-26.6081,2.50256
-679,22,-26.6586,-2.02667,0.00906192,0.0357969,0.0467063,0.0710109,-0.0261521,0.924774,0.0580558,0.0449351,545,1002,-26.6586,2.02667
-672,22,-25.4052,0.0640259,0.00957896,0.0295663,0.0382304,0.0590876,-0.0199424,0.913241,0.0474571,0.0474527,552,1002,-25.4052,-0.0640345
-665,22,-25.579,0.368774,0.00875619,0.0247843,0.0310302,0.0488186,-0.0152781,0.91177,0.0386582,0.0419622,559,1002,-25.579,-0.368799
-658,22,-25.7272,0.827271,0.00725715,0.0208735,0.0248702,0.0398506,-0.0117199,0.918999,0.0312159,0.0385818,566,1002,-25.7272,-0.827251
-651,22,-25.9974,1.4469,0.00560724,0.0174565,0.0195027,0.0319146,-0.00885093,0.93286,0.0247598,0.0459375,573,1002,-25.9974,-1.44688
-644,22,-26.3243,2.25714,0.00414664,0.0143017,0.0145267,0.0246127,-0.00616439,0.953526,0.0188032,0.0270996,580,1002,-26.3244,-2.25714
-637,22,-26.4656,2.61017,0.00348471,0.0111504,0.00923726,0.0173185,-0.00268332,0.982055,0.0125362,0.0187267,587,1002,-26.4656,-2.61016
-630,22,-26.5034,2.60748,0.00239879,0.0084851,0.00470011,0.0110412,-0.000157321,1.07269,0.0074138,0.0129049,594,1002,-26.5034,-2.60747
-623,22,-26.5258,2.55176,0.000803929,0.0064195,0.00115492,0.00664775,0.000575679,1.37568,0.00425295,0.0106833,601,1002,-26.5258,-2.55178
-616,22,-26.5439,2.47107,-5.31774e-05,0.00545792,-0.00131828,0.00575703,-0.000352282,-1.34768,0.00396067,0.0161741,608,1002,-26.544,-2.47108
-609,22,-26.5756,2.41541,-0.000489519,0.00390284,-0.00347412,0.00581674,-0.00240342,-1.06726,0.00488039,0.0251359,615,1002,-26.5756,-2.41541
-602,22,-26.6213,2.34064,-0.000575921,0.00256478,-0.0050225,0.0062567,-0.00426784,-0.936915,0.00611241,0.0254271,622,1002,-26.6213,-2.34062
-595,22,-26.5258,2.15906,-0.000416779,0.00130926,-0.00603048,0.00653816,-0.00564568,-0.85647,0.00704063,0.0235492,629,1002,-26.5258,-2.15905
-588,22,-26.3626,1.69452,-0.000195144,0.000410616,-0.0065003,0.00661509,-0.00639962,-0.808679,0.00751439,0.0370604,636,1002,-26.3626,-1.69451
-581,22,-26.2932,1.1582,-0.000284146,8.42394e-06,-0.00637552,0.00623934,-0.00651506,-0.796869,0.00736433,0.0439524,643,1002,-26.2932,-1.15823
-574,22,-26.3422,0.869995,-0.000646928,-7.23845e-05,-0.00566699,0.00531461,-0.00603393,-0.810723,0.00655647,0.0328082,650,1002,-26.3422,-0.870015
-567,22,-26.2969,0.833557,-0.00102656,-0.000128177,-0.00459075,0.0040353,-0.00519005,-0.834167,0.00534015,0.0294462,657,1002,-26.2969,-0.833581
-560,22,-26.4119,0.957214,-0.00139137,-4.84347e-05,-0.003164,0.00251456,-0.00395437,-0.889957,0.00376555,0.0363105,664,1002,-26.412,-0.957235
-553,22,-26.5748,1.18073,-0.00174491,0.000145599,-0.00150084,0.000974046,-0.00257336,-1.06643,0.00211634,0.0412277,671,1002,-26.5749,-1.18075
-546,22,-26.5547,1.23761,-0.00204101,0.000436673,0.00027002,0.000465758,-0.0020701,1.46349,0.00155869,0.0437637,678,1002,-26.5547,-1.23759
-539,22,-26.4481,1.17523,-0.00212546,0.00082034,0.00159798,0.00152068,-0.0028258,1.15774,0.00254687,0.0423695,685,1002,-26.4481,-1.17525
-532,22,-26.3817,1.1427,-0.00235094,0.00251054,0.00144296,0.00290657,-0.00274697,1.30294,0.00326451,0.0417318,692,1002,-26.3817,-1.14269
-525,22,0,0,0,0,0,0,0,0,0,-1,699,1002,0,0
-518,22,0,0,0,0,0,0,0,0,0,-1,706,1002,0,0
-511,22,0,0,0,0,0,0,0,0,0,-1,713,1002,0,0
-504,22,0,0,0,0,0,0,0,0,0,-1,720,1002,0,0
-497,22,0,0,0,0,0,0,0,0,0,-1,727,1002,0,0
-490,22,0,0,0,0,0,0,0,0,0,-1,734,1002,0,0
-483,22,0,0,0,0,0,0,0,0,0,-1,741,1002,0,0
-476,22,0,0,0,0,0,0,0,0,0,-1,748,1002,0,0
-469,22,0,0,0,0,0,0,0,0,0,-1,755,1002,0,0
-462,22,0,0,0,0,0,0,0,0,0,-1,762,1002,0,0
-455,22,0,0,0,0,0,0,0,0,0,-1,769,1002,0,0
-448,22,0,0,0,0,0,0,0,0,0,-1,776,1002,0,0
-441,22,0,0,0,0,0,0,0,0,0,-1,783,1002,0,0
-434,22,0,0,0,0,0,0,0,0,0,-1,790,1002,0,0
-427,22,0,0,0,0,0,0,0,0,0,-1,797,1002,0,0
-420,22,0,0,0,0,0,0,0,0,0,-1,804,1002,0,0
-413,22,0,0,0,0,0,0,0,0,0,-1,811,1002,0,0
-406,22,0,0,0,0,0,0,0,0,0,-1,818,1002,0,0
-399,22,0,0,0,0,0,0,0,0,0,-1,825,1002,0,0
-392,22,0,0,0,0,0,0,0,0,0,-1,832,1002,0,0
-385,22,0,0,0,0,0,0,0,0,0,-1,839,1002,0,0
-378,22,0,0,0,0,0,0,0,0,0,-1,846,1002,0,0
-371,22,0,0,0,0,0,0,0,0,0,-1,853,1002,0,0
-364,22,0,0,0,0,0,0,0,0,0,-1,860,1002,0,0
-357,22,0,0,0,0,0,0,0,0,0,-1,867,1002,0,0
-350,22,0,0,0,0,0,0,0,0,0,-1,874,1002,0,0
-343,22,0,0,0,0,0,0,0,0,0,-1,881,1002,0,0
-336,22,0,0,0,0,0,0,0,0,0,-1,888,1002,0,0
-329,22,0,0,0,0,0,0,0,0,0,-1,895,1002,0,0
-322,22,0,0,0,0,0,0,0,0,0,-1,902,1002,0,0
-315,22,0,0,0,0,0,0,0,0,0,-1,909,1002,0,0
-308,22,0,0,0,0,0,0,0,0,0,-1,916,1002,0,0
-301,22,0,0,0,0,0,0,0,0,0,-1,923,1002,0,0
-294,22,0,0,0,0,0,0,0,0,0,-1,930,1002,0,0
-287,22,0,0,0,0,0,0,0,0,0,-1,937,1002,0,0
-280,22,0,0,0,0,0,0,0,0,0,-1,944,1002,0,0
-273,22,0,0,0,0,0,0,0,0,0,-1,951,1002,0,0
-266,22,0,0,0,0,0,0,0,0,0,-1,958,1002,0,0
-259,22,0,0,0,0,0,0,0,0,0,-1,965,1002,0,0
-252,22,0,0,0,0,0,0,0,0,0,-1,972,1002,0,0
-245,22,0,0,0,0,0,0,0,0,0,-1,979,1002,0,0
-238,22,0,0,0,0,0,0,0,0,0,-1,986,1002,0,0
-231,22,0,0,0,0,0,0,0,0,0,-1,993,1002,0,0
-224,22,0,0,0,0,0,0,0,0,0,-1,1000,1002,0,0
-217,22,0,0,0,0,0,0,0,0,0,-1,1007,1002,0,0
-210,22,0,0,0,0,0,0,0,0,0,-1,1014,1002,0,0
-203,22,0,0,0,0,0,0,0,0,0,-1,1021,1002,0,0
-196,22,0,0,0,0,0,0,0,0,0,-1,1028,1002,0,0
-189,22,0,0,0,0,0,0,0,0,0,-1,1035,1002,0,0
-182,22,0,0,0,0,0,0,0,0,0,-1,1042,1002,0,0
-175,22,0,0,0,0,0,0,0,0,0,-1,1049,1002,0,0
-168,22,0,0,0,0,0,0,0,0,0,-1,1056,1002,0,0
-161,22,0,0,0,0,0,0,0,0,0,-1,1063,1002,0,0
-154,22,0,0,0,0,0,0,0,0,0,-1,1070,1002,0,0
-147,22,0,0,0,0,0,0,0,0,0,-1,1077,1002,0,0
-140,22,0,0,0,0,0,0,0,0,0,-1,1084,1002,0,0
-133,22,0,0,0,0,0,0,0,0,0,-1,1091,1002,0,0
-126,22,0,0,0,0,0,0,0,0,0,-1,1098,1002,0,0
-119,22,0,0,0,0,0,0,0,0,0,-1,1105,1002,0,0
-112,22,0,0,0,0,0,0,0,0,0,-1,1112,1002,0,0
-105,22,0,0,0,0,0,0,0,0,0,-1,1119,1002,0,0
-98,22,0,0,0,0,0,0,0,0,0,-1,1126,1002,0,0
-91,22,0,0,0,0,0,0,0,0,0,-1,1133,1002,0,0
-84,22,0,0,0,0,0,0,0,0,0,-1,1140,1002,0,0
-77,22,0,0,0,0,0,0,0,0,0,-1,1147,1002,0,0
-70,22,0,0,0,0,0,0,0,0,0,-1,1154,1002,0,0
-63,22,0,0,0,0,0,0,0,0,0,-1,1161,1002,0,0
-56,22,0,0,0,0,0,0,0,0,0,-1,1168,1002,0,0
-49,22,0,0,0,0,0,0,0,0,0,-1,1175,1002,0,0
-42,22,0,0,0,0,0,0,0,0,0,-1,1182,1002,0,0
-35,22,0,0,0,0,0,0,0,0,0,-1,1189,1002,0,0
-28,22,0,0,0,0,0,0,0,0,0,-1,1196,1002,0,0
-21,22,0,0,0,0,0,0,0,0,0,-1,1203,1002,0,0
-14,22,0,0,0,0,0,0,0,0,0,-1,1210,1002,0,0
-7,22,0,0,0,0,0,0,0,0,0,-1,1217,1002,0,0
0,22,0,0,0,0,0,0,0,0,0,-1,1224,1002,0,0
7,22,0,0,0,0,0,0,0,0,0,-1,1231,1002,0,0
14,22,0,0,0,0,0,0,0,0,0,-1,1238,1002,0,0
21,22,0,0,0,0,0,0,0,0,0,-1,1245,1002,0,0
28,22,0,0,0,0,0,0,0,0,0,-1,1252,1002,0,0
35,22,0,0,0,0,0,0,0,0,0,-1,1259,1002,0,0
42,22,0,0,0,0,0,0,0,0,0,-1,1266,1002,0,0
49,22,0,0,0,0,0,0,0,0,0,-1,1273,1002,0,0
56,22,0,0,0,0,0,0,0,0,0,-1,1280,1002,0,0
63,22,0,0,0,0,0,0,0,0,0,-1,1287,1002,0,0
70,22,0,0,0,0,0,0,0,0,0,-1,1294,1002,0,0
77,22,0,0,0,0,0,0,0,0,0,-1,1301,1002,0,0
84,22,0,0,0,0,0,0,0,0,0,-1,1308,1002,0,0
91,22,0,0,0,0,0,0,0,0,0,-1,1315,1002,0,0
98,22,0,0,0,0,0,0,0,0,0,-1,1322,1002,0,0
105,22,0,0,0,0,0,0,0,0,0,-1,1329,1002,0,0
112,22,0,0,0,0,0,0,0,0,0,-1,1336,1002,0,0
119,22,0,0,0,0,0,0,0,0,0,-1,1343,1002,0,0
126,22,0,0,0,0,0,0,0,0,0,-1,1350,1002,0,0
133,22,0,0,0,0,0,0,0,0,0,-1,1357,1002,0,0
140,22,0,0,0,0,0,0,0,0,0,-1,1364,1002,0,0
147,22,0,0,0,0,0,0,0,0,0,-1,1371,1002,0,0
154,22,0,0,0,0,0,0,0,0,0,-1,1378,1002,0,0
161,22,0,0,0,0,0,0,0,0,0,-1,1385,1002,0,0
168,22,0,0,0,0,0,0,0,0,0,-1,1392,1002,0,0
175,22,0,0,0,0,0,0,0,0,0,-1,1399,1002,0,0
182,22,0,0,0,0,0,0,0,0,0,-1,1406,1002,0,0
189,22,0,0,0,0,0,0,0,0,0,-1,1413,1002,0,0
196,22,0,0,0,0,0,0,0,0,0,-1,1420,1002,0,0
203,22,0,0,0,0,0,0,0,0,0,-1,1427,1002,0,0
210,22,0,0,0,0,0,0,0,0,0,-1,1434,1002,0,0
217,22,0,0,0,0,0,0,0,0,0,-1,1441,1002,0,0
224,22,0,0,0,0,0,0,0,0,0,-1,1448,1002,0,0
231,22,0,0,0,0,0,0,0,0,0,-1,1455,1002,0,0
238,22,0,0,0,0,0,0,0,0,0,-1,1462,1002,0,0
245,22,0,0,0,0,0,0,0,0,0,-1,1469,1002,0,0
252,22,0,0,0,0,0,0,0,0,0,-1,1476,1002,0,0
259,22,0,0,0,0,0,0,0,0,0,-1,1483,1002,0,0
266,22,0,0,0,0,0,0,0,0,0,-1,1490,1002,0,0
273,22,0,0,0,0,0,0,0,0,0,-1,1497,1002,0,0
280,22,0,0,0,0,0,0,0,0,0,-1,1504,1002,0,0
287,22,0,0,0,0,0,0,0,0,0,-1,1511,1002,0,0
294,22,0,0,0,0,0,0,0,0,0,-1,1518,1002,0,0
301,22,0,0,0,0,0,0,0,0,0,-1,1525,1002,0,0
308,22,0,0,0,0,0,0,0,0,0,-1,1532,1002,0,0
315,22,0,0,0,0,0,0,0,0,0,-1,1539,1002,0,0
322,22,0,0,0,0,0,0,0,0,0,-1,1546,1002,0,0
329,22,0,0,0,0,0,0,0,0,0,-1,1553,1002,0,0
336,22,0,0,0,0,0,0,0,0,0,-1,1560,1002,0,0
343,22,0,0,0,0,0,0,0,0,0,-1,1567,1002,0,0
350,22,0,0,0,0,0,0,0,0,0,-1,1574,1002,0,0
357,22,0,0,0,0,0,0,0,0,0,-1,1581,1002,0,0
364,22,0,0,0,0,0,0,0,0,0,-1,1588,1002,0,0
371,22,0,0,0,0,0,0,0,0,0,-1,1595,1002,0,0
378,22,0,0,0,0,0,0,0,0,0,-1,1602,1002,0,0
385,22,0,0,0,0,0,0,0,0,0,-1,1609,1002,0,0
392,22,0,0,0,0,0,0,0,0,0,-1,1616,1002,0,0
399,22,0,0,0,0,0,0,0,0,0,-1,1623,1002,0,0
406,22,0,0,0,0,0,0,0,0,0,-1,1630,1002,0,0
413,22,0,0,0,0,0,0,0,0,0,-1,1637,1002,0,0
420,22,0,0,0,0,0,0,0,0,0,-1,1644,1002,0,0
427,22,0,0,0,0,0,0,0,0,0,-1,1651,1002,0,0
434,22,0,0,0,0,0,0,0,0,0,-1,1658,1002,0,0
441,22,0,0,0,0,0,0,0,0,0,-1,1665,1002,0,0
448,22,0,0,0,0,0,0,0,0,0,-1,1672,1002,0,0
455,22,0,0,0,0,0,0,0,0,0,-1,1679,1002,0,0
462,22,0,0,0,0,0,0,0,0,0,-1,1686,1002,0,0
469,22,0,0,0,0,0,0,0,0,0,-1,1693,1002,0,0
476,22,0,0,0,0,0,0,0,0,0,-1,1700,1002,0,0
483,22,0,0,0,0,0,0,0,0,0,-1,1707,1002,0,0
490,22,0,0,0,0,0,0,0,0,0,-1,1714,1002,0,0
497,22,0,0,0,0,0,0,0,0,0,-1,1721,1002,0,0
504,22,0,0,0,0,0,0,0,0,0,-1,1728,1002,0,0
511,22,0,0,0,0,0,0,0,0,0,-1,1735,1002,0,0
518,22,0,0,0,0,0,0,0,0,0,-1,1742,1002,0,0
525,22,0,0,0,0,0,0,0,0,0,-1,1749,1002,0,0
532,22,0,0,0,0,0,0,0,0,0,-1,1756,1002,0,0
539,22,0,0,0,0,0,0,0,0,0,-1,1763,1002,0,0
546,22,0,0,0,0,0,0,0,0,0,-1,1770,1002,0,0
553,22,0,0,0,0,0,0,0,0,0,-1,1777,1002,0,0
560,22,0,0,0,0,0,0,0,0,0,-1,1784,1002,0,0
567,22,0,0,0,0,0,0,0,0,0,-1,1791,1002,0,0
574,22,0,0,0,0,0,0,0,0,0,-1,1798,1002,0,0
581,22,0,0,0,0,0,0,0,0,0,-1,1805,1002,0,0
588,22,0,0,0,0,0,0,0,0,0,-1,1812,1002,0,0
595,22,0,0,0,0,0,0,0,0,0,-1,1819,1002,0,0
602,22,0,0,0,0,0,0,0,0,0,-1,1826,1002,0,0
609,22,0,0,0,0,0,0,0,0,0,-1,1833,1002,0,0
616,22,0,0,0,0,0,0,0,0,0,-1,1840,1002,0,0
623,22,0,0,0,0,0,0,0,0,0,-1,1847,1002,0,0
630,22,0,0,0,0,0,0,0,0,0,-1,1854,1002,0,0
637,22,0,0,0,0,0,0,0,0,0,-1,1861,1002,0,0
644,22,36.1494,2.89801,0.00708537,0.00419291,0.00256331,0.00858229,0.00269599,0.528557,0.00506782,0.0398094,1868,1002,36.1494,-2.89798
651,22,36.0758,3.02026,0.00494694,0.00211124,0.00156654,0.00564199,0.00141619,0.41759,0.00338936,0.0419458,1875,1002,36.0758,-3.02029
658,22,36.1125,3.11365,0.00338831,0.000615526,0.000897428,0.00365342,0.000350416,0.287242,0.00232762,0.0420906,1882,1002,36.1125,-3.11367
665,22,36.2714,2.96588,0.00206302,-0.000155462,0.000927374,0.00239961,-0.000492055,0.348168,0.00178649,0.0380883,1889,1002,36.2713,-2.96587
672,22,36.3342,2.7157,0.000977089,-0.000300357,0.00139882,0.00187611,-0.00119938,0.571227,0.0017899,0.03562,1896,1002,36.3342,-2.71573
679,22,36.2516,2.67291,7.37988e-05,-4.36434e-05,0.00211255,0.00212844,-0.00209828,0.771504,0.00244032,0.0373494,1903,1002,36.2516,-2.67293
686,22,36.1935,2.79919,-0.000434099,0.000236698,0.00275873,0.00268034,-0.00287775,0.84589,0.00320964,0.0372215,1910,1002,36.1935,-2.79921
693,22,36.1798,2.85681,-0.000674688,0.000565781,0.00325972,0.00326375,-0.00337265,0.879411,0.0038317,0.0359879,1917,1002,36.1798,-2.85684
700,22,36.2261,2.7699,-0.000857131,0.000824345,0.00350718,0.00359015,-0.00362294,0.903038,0.0041645,0.0329438,1924,1002,36.2261,-2.76993
707,22,36.1542,2.83423,-0.00109799,0.00121885,0.00359028,0.00383296,-0.00371211,0.941453,0.00435634,0.0289642,1931,1002,36.1542,-2.83423
714,22,36.1782,2.96234,-0.00148835,0.00167696,0.00357944,0.00400802,-0.00381941,0.993552,0.00451961,0.0312057,1938,1002,36.1782,-2.96234
721,22,35.9913,3.87335,0,0,0,0,0,0,0,-1,1945,1002,35.9914,-3.87338
728,22,35.7505,4.57166,-0.00222137,0.00296331,0.003281,0.00455249,-0.00381056,1.11974,0.00483474,0.0355701,1952,1002,35.7505,-4.57168
735,22,35.7715,5.00946,-0.00239542,0.0037757,0.00302034,0.00500791,-0.00362763,1.18344,0.00500691,0.0153663,1959,1002,35.7715,-5.00945
742,22,35.7831,5.06201,-0.00262261,0.00487561,0.0026567,0.00572148,-0.00346848,1.26255,0.00535871,0.0163107,1966,1002,35.783,-5.06204
749,22,35.7512,5.1355,-0.0022051,0.00907839,0.00104446,0.00917425,-0.00230097,1.47927,0.00701019,0.01215,1973,1002,35.7513,-5.13548
756,22,35.736,5.23468,0.00194619,0.0123991,-0.00161055,0.0126416,0.00170367,-1.42134,0.00792115,0.0165471,1980,1002,35.7359,-5.23466
763,22,35.6909,5.35785,0.00953566,0.0164368,-0.00284058,0.0174556,0.00851684,-1.22643,0.010079,0.0184701,1987,1002,35.6909,-5.35787
770,22,35.5791,5.42682,0.0192907,0.022826,-0.00543913,0.0267775,0.0153392,-0.942507,0.0155146,0.0185538,1994,1002,35.5791,-5.42682
777,22,35.4462,5.36969,0.0347651,0.0314003,-0.00844931,0.0416978,0.0244675,-0.687124,0.0241948,0.0406006,2001,1002,35.4462,-5.36971
784,22,35.7156,4.62982,0,0,0,0,0,0,0,-1,2008,1002,35.7156,-4.62985
791,22,35.2729,4.71649,0,0,0,0,0,0,0,-1,2015,1002,35.2729,-4.71651
798,22,37.5627,3.20923,0,0,0,0,0,0,0,-1,2022,1002,37.5628,-3.20922
805,22,38.3711,2.92841,0,0,0,0,0,0,0,-1,2029,1002,38.3712,-2.92838
812,22,39.0088,2.71338,0,0,0,0,0,0,0,-1,2036,1002,39.0089,-2.71339
-700,15,0,0,0,0,0,0,0,0,0,-1,524,1009,0,0
-693,15,-26.9354,-3.39264,0.00224549,0.046874,0.06016,0.0887247,-0.0396053,0.96299,0.0758789,0.0458084,531,1009,-26.9354,3.39265
-686,15,-27.2522,-2.97424,0.00927593,0.0373596,0.0488485,0.0741445,-0.0275089,0.925353,0.0607134,0.0412403,538,1009,-27.2522,2.97426
-679,15,-25.1773,-0.137817,0,0,0,0,0,0,0,-1,545,1009,-25.1773,0.137799
-672,15,-25.3269,0.495483,0.0108122,0.0262853,0.032687,0.0521389,-0.0150414,0.901603,0.0407101,0.0475366,552,1009,-25.3269,-0.495508
-665,15,-25.7421,0.235962,0.00933473,0.0225976,0.0264764,0.0432604,-0.0113281,0.908107,0.0332656,0.0422599,559,1009,-25.7421,-0.23594
-658,15,-25.7095,0.499268,0,0,0,0,0,0,0,-1,566,1009,-25.7094,-0.499278
-651,15,-26.074,1.08881,0,0,0,0,0,0,0,-1,573,1009,-26.0739,-1.08878
-644,15,-26.2549,2.08374,0.00388402,0.0136993,0.0121051,0.0218537,-0.00427042,0.977983,0.0161815,0.0450155,580,1009,-26.2549,-2.08374
-637,15,-26.4954,2.55786,0.00313542,0.0108261,0.00726149,0.0151976,-0.00123605,1.0289,0.0105678,0.0257942,587,1009,-26.4954,-2.55785
-630,15,-26.515,2.55841,0.00209147,0.00830884,0.00311232,0.00959907,0.000801237,1.17781,0.00614972,0.0139805,594,1009,-26.515,-2.5584
-623,15,-26.5543,2.51489,0.000653558,0.00626621,-9.83188e-05,0.00626793,0.000651837,-1.55329,0.00397918,0.00917628,601,1009,-26.5542,-2.51491
-616,15,-26.5842,2.48346,4.53854e-06,0.00525444,-0.00231029,0.00612632,-0.00086734,-1.20993,0.0044019,0.0139222,608,1009,-26.5842,-2.48344
-609,15,-26.5851,2.44739,-9.35557e-05,0.00369148,-0.00428043,0.0064791,-0.00288117,-0.993544,0.00553563,0.0216448,615,1009,-26.5852,-2.44738
-602,15,-26.5728,2.36871,-1.83056e-05,0.00240919,-0.00565646,0.00698065,-0.00458977,-0.891084,0.00672756,0.0219889,622,1009,-26.5728,-2.36873
-595,15,-26.4976,1.79272,0.00024808,0.00126223,-0.00653075,0.00730556,-0.00579525,-0.824143,0.00758049,0.0333177,629,1009,-26.4976,-1.79273
-588,15,-26.328,1.3996,0.000541665,0.000497197,-0.0069592,0.00747867,-0.00643981,-0.783801,0.0080433,0.0403152,636,1009,-26.328,-1.3996
-581,15,-26.3693,0.847534,0,0,0,0,0,0,0,-1,643,1009,-26.3693,-0.847542
-574,15,-26.3499,0.860657,0.000133204,0.00021159,-0.00618276,0.00635528,-0.00601049,-0.788568,0.00714031,0.0295624,650,1009,-26.3499,-0.860679
-567,15,-26.3673,0.929565,-0.00030198,0.000281246,-0.0051502,0.00514808,-0.00516881,-0.813679,0.00595647,0.0294555,657,1009,-26.3673,-0.929569
-560,15,-26.4177,0.95697,-0.00078496,0.0004833,-0.00380271,0.00370439,-0.00400605,-0.868017,0.00445276,0.0369301,664,1009,-26.4177,-0.956969
-553,15,-26.5156,0.811707,0,0,0,0,0,0,0,-1,671,1009,-26.5155,-0.811681
-546,15,-26.3983,1.06067,-0.00188139,0.00111368,-0.000712189,0.0012744,-0.00204211,-1.34884,0.00193182,0.0418032,678,1009,-26.3983,-1.06067
-539,15,-26.3852,1.14752,-0.00224372,0.00145007,0.000199899,0.00146086,-0.0022545,1.51689,0.00216132,0.0436181,685,1009,-26.3852,-1.14755
-532,15,-26.3056,0.959473,-0.00271444,0.00320092,-0.000699835,0.00328259,-0.00279611,-1.45462,0.00351328,0.0434114,692,1009,-26.3056,-0.959464
-525,15,0,0,0,0,0,0,0,0,0,-1,699,1009,0,0
-518,15,0,0,0,0,0,0,0,0,0,-1,706,1009,0,0
-511,15,0,0,0,0,0,0,0,0,0,-1,713,1009,0,0
-504,15,0,0,0,0,0,0,0,0,0,-1,720,1009,0,0
-497,15,0,0,0,0,0,0,0,0,0,-1,727,1009,0,0
-490,15,0,0,0,0,0,0,0,0,0,-1,734,1009,0,0
-483,15,0,0,0,0,0,0,0,0,0,-1,741,1009,0,0
-476,15,0,0,0,0,0,0,0,0,0,-1,748,1009,0,0
-469,15,0,0,0,0,0,0,0,0,0,-1,755,1009,0,0
-462,15,0,0,0,0,0,0,0,0,0,-1,762,1009,0,0
-455,15,0,0,0,0,0,0,0,0,0,-1,769,1009,0,0
-448,15,0,0,0,0,0,0,0,0,0,-1,776,1009,0,0
-441,15,0,0,0,0,0,0,0,0,0,-1,783,1009,0,0
-434,15,0,0,0,0,0,0,0,0,0,-1,790,1009,0,0
-427,15,0,0,0,0,0,0,0,0,0,-1,797,1009,0,0
-420,15,0,0,0,0,0,0,0,0,0,-1,804,1009,0,0
-413,15,0,0,0,0,0,0,0,0,0,-1,811,1009,0,0
-406,15,0,0,0,0,0,0,0,0,0,-1,818,1009,0,0
-399,15,0,0,0,0,0,0,0,0,0,-1,825,1009,0,0
-392,15,0,0,0,0,0,0,0,0,0,-1,832,1009,0,0
-385,15,0,0,0,0,0,0,0,0,0,-1,839,1009,0,0
-378,15,0,0,0,0,0,0,0,0,0,-1,846,1009,0,0
-371,15,0,0,0,0,0,0,0,0,0,-1,853,1009,0,0
-364,15,0,0,0,0,0,0,0,0,0,-1,860,1009,0,0
-357,15,0,0,0,0,0,0,0,0,0,-1,867,1009,0,0
-350,15,0,0,0,0,0,0,0,0,0,-1,874,1009,0,0
-343,15,0,0,0,0,0,0,0,0,0,-1,881,1009,0,0
-336,15,0,0,0,0,0,0,0,0,0,-1,888,1009,0,0
-329,15,0,0,0,0,0,0,0,0,0,-1,895,1009,0,0
-322,15,0,0,0,0,0,0,0,0,0,-1,902,1009,0,0
-315,15,0,0,0,0,0,0,0,0,0,-1,909,1009,0,0
-308,15,0,0,0,0,0,0,0,0,0,-1,916,1009,0,0
-301,15,0,0,0,0,0,0,0,0,0,-1,923,1009,0,0
-294,15,0,0,0,0,0,0,0,0,0,-1,930,1009,0,0
-287,15,0,0,0,0,0,0,0,0,0,-1,937,1009,0,0
-280,15,0,0,0,0,0,0,0,0,0,-1,944,1009,0,0
-273,15,0,0,0,0,0,0,0,0,0,-1,951,1009,0,0
-266,15,0,0,0,0,0,0,0,0,0,-1,958,1009,0,0
-259,15,0,0,0,0,0,0,0,0,0,-1,965,1009,0,0
-252,15,0,0,0,0,0,0,0,0,0,-1,972,1009,0,0
-245,15,0,0,0,0,0,0,0,0,0,-1,979,1009,0,0
-238,15,0,0,0,0,0,0,0,0,0,-1,986,1009,0,0
-231,15,0,0,0,0,0,0,0,0,0,-1,993,1009,0,0
-224,15,0,0,0,0,0,0,0,0,0,-1,1000,1009,0,0
-217,15,0,0,0,0,0,0,0,0,0,-1,1007,1009,0,0
-210,15,0,0,0,0,0,0,0,0,0,-1,1014,1009,0,0
-203,15,0,0,0,0,0,0,0,0,0,-1,1021,1009,0,0
-196,15,0,0,0,0,0,0,0,0,0,-1,1028,1009,0,0
-189,15,0,0,0,0,0,0,0,0,0,-1,1035,1009,0,0
-182,15,0,0,0,0,0,0,0,0,0,-1,1042,1009,0,0
-175,15,0,0,0,0,0,0,0,0,0,-1,1049,1009,0,0
-168,15,0,0,0,0,0,0,0,0,0,-1,1056,1009,0,0
-161,15,0,0,0,0,0,0,0,0,0,-1,1063,1009,0,0
-154,15,0,0,0,0,0,0,0,0,0,-1,1070,1009,0,0
-147,15,0,0,0,0,0,0,0,0,0,-1,1077,1009,0,0
-140,15,0,0,0,0,0,0,0,0,0,-1,1084,1009,0,0
-133,15,0,0,0,0,0,0,0,0,0,-1,1091,1009,0,0
-126,15,0,0,0,0,0,0,0,0,0,-1,1098,1009,0,0
-119,15,0,0,0,0,0,0,0,0,0,-1,1105,1009,0,0
-112,15,0,0,0,0,0,0,0,0,0,-1,1112,1009,0,0
-105,15,0,0,0,0,0,0,0,0,0,-1,1119,1009,0,0
-98,15,0,0,0,0,0,0,0,0,0,-1,1126,1009,0,0
-91,15,0,0,0,0,0,0,0,0,0,-1,1133,1009,0,0
-84,15,0,0,0,0,0,0,0,0,0,-1,1140,1009,0,0
-77,15,0,0,0,0,0,0,0,0,0,-1,1147,1009,0,0
-70,15,0,0,0,0,0,0,0,0,0,-1,1154,1009,0,0
-63,15,0,0,0,0,0,0,0,0,0,-1,1161,1009,0,0
-56,15,0,0,0,0,0,0,0,0,0,-1,1168,1009,0,0
-49,15,0,0,0,0,0,0,0,0,0,-1,1175,1009,0,0
-42,15,0,0,0,0,0,0,0,0,0,-1,1182,1009,0,0
-35,15,0,0,0,0,0,0,0,0,0,-1,1189,1009,0,0
-28,15,0,0,0,0,0,0,0,0,0,-1,1196,1009,0,0
-21,15,0,0,0,0,0,0,0,0,0,-1,1203,1009,0,0
-14,15,0,0,0,0,0,0,0,0,0,-1,1210,1009,0,0
-7,15,0,0,0,0,0,0,0,0,0,-1,1217,1009,0,0
0,15,0,0,0,0,0,0,0,0,0,-1,1224,1009,0,0
7,15,0,0,0,0,0,0,0,0,0,-1,1231,1009,0,0
14,15,0,0,0,0,0,0,0,0,0,-1,1238,1009,0,0
21,15,0,0,0,0,0,0,0,0,0,-1,1245,1009,0,0
28,15,0,0,0,0,0,0,0,0,0,-1,1252,1009,0,0
35,15,0,0,0,0,0,0,0,0,0,-1,1259,1009,0,0
42,15,0,0,0,0,0,0,0,0,0,-1,1266,1009,0,0
49,15,0,0,0,0,0,0,0,0,0,-1,1273,1009,0,0
56,15,0,0,0,0,0,0,0,0,0,-1,1280,1009,0,0
63,15,0,0,0,0,0,0,0,0,0,-1,1287,1009,0,0
70,15,0,0,0,0,0,0,0,0,0,-1,1294,1009,0,0
77,15,0,0,0,0,0,0,0,0,0,-1,1301,1009,0,0
84,15,0,0,0,0,0,0,0,0,0,-1,1308,1009,0,0
91,15,0,0,0,0,0,0,0,0,0,-1,1315,1009,0,0
98,15,0,0,0,0,0,0,0,0,0,-1,1322,1009,0,0
105,15,0,0,0,0,0,0,0,0,0,-1,1329,1009,0,0
112,15,0,0,0,0,0,0,0,0,0,-1,1336,1009,0,0
119,15,0,0,0,0,0,0,0,0,0,-1,1343,1009,0,0
126,15,0,0,0,0,0,0,0,0,0,-1,1350,1009,0,0
133,15,0,0,0,0,0,0,0,0,0,-1,1357,1009,0,0
140,15,0,0,0,0,0,0,0,0,0,-1,1364,1009,0,0
147,15,0,0,0,0,0,0,0,0,0,-1,1371,1009,0,0
154,15,0,0,0,0,0,0,0,0,0,-1,1378,1009,0,0
161,15,0,0,0,0,0,0,0,0,0,-1,1385,1009,0,0
168,15,0,0,0,0,0,0,0,0,0,-1,1392,1009,0,0
175,15,0,0,0,0,0,0,0,0,0,-1,1399,1009,0,0
182,15,0,0,0,0,0,0,0,0,0,-1,1406,1009,0,0
189,15,0,0,0,0,0,0,0,0,0,-1,1413,1009,0,0
196,15,0,0,0,0,0,0,0,0,0,-1,1420,1009,0,0
203,15,0,0,0,0,0,0,0,0,0,-1,1427,1009,0,0
210,15,0,0,0,0,0,0,0,0,0,-1,1434,1009,0,0
217,15,0,0,0,0,0,0,0,0,0,-1,1441,1009,0,0
224,15,0,0,0,0,0,0,0,0,0,-1,1448,1009,0,0
231,15,0,0,0,0,0,0,0,0,0,-1,1455,1009,0,0
238,15,0,0,0,0,0,0,0,0,0,-1,1462,1009,0,0
245,15,0,0,0,0,0,0,0,0,0,-1,1469,1009,0,0
252,15,0,0,0,0,0,0,0,0,0,-1,1476,1009,0,0
259,15,0,0,0,0,0,0,0,0,0,-1,1483,1009,0,0
266,15,0,0,0,0,0,0,0,0,0,-1,1490,1009,0,0
273,15,0,0,0,0,0,0,0,0,0,-1,1497,1009,0,0
280,15,0,0,0,0,0,0,0,0,0,-1,1504,1009,0,0
287,15,0,0,0,0,0,0,0,0,0,-1,1511,1009,0,0
294,15,0,0,0,0,0,0,0,0,0,-1,1518,1009,0,0
301,15,0,0,0,0,0,0,0,0,0,-1,1525,1009,0,0
308,15,0,0,0,0,0,0,0,0,0,-1,1532,1009,0,0
315,15,0,0,0,0,0,0,0,0,0,-1,1539,1009,0,0
322,15,0,0,0,0,0,0,0,0,0,-1,1546,1009,0,0
329,15,0,0,0,0,0,0,0,0,0,-1,1553,1009,0,0
336,15,0,0,0,0,0,0,0,0,0,-1,1560,1009,0,0
343,15,0,0,0,0,0,0,0,0,0,-1,1567,1009,0,0
350,15,0,0,0,0,0,0,0,0,0,-1,1574,1009,0,0
357,15,0,0,0,0,0,0,0,0,0,-1,1581,1009,0,0
364,15,0,0,0,0,0,0,0,0,0,-1,1588,1009,0,0
371,15,0,0,0,0,0,0,0,0,0,-1,1595,1009,0,0
378,15,0,0,0,0,0,0,0,0,0,-1,1602,1009,0,0
385,15,0,0,0,0,0,0,0,0,0,-1,1609,1009,0,0
392,15,0,0,0,0,0,0,0,0,0,-1,1616,1009,0,0
399,15,0,0,0,0,0,0,0,0,0,-1,1623,1009,0,0
406,15,0,0,0,0,0,0,0,0,0,-1,1630,1009,0,0
413,15,0,0,0,0,0,0,0,0,0,-1,1637,1009,0,0
420,15,0,0,0,0,0,0,0,0,0,-1,1644,1009,0,0
427,15,0,0,0,0,0,0,0,0,0,-1,1651,1009,0,0
434,15,0,0,0,0,0,0,0,0,0,-1,1658,1009,0,0
441,15,0,0,0,0,0,0,0,0,0,-1,1665,1009,0,0
448,15,0,0,0,0,0,0,0,0,0,-1,1672,1009,0,0
455,15,0,0,0,0,0,0,0,0,0,-1,1679,1009,0,0
462,15,0,0,0,0,0,0,0,0,0,-1,1686,1009,0,0
469,15,0,0,0,0,0,0,0,0,0,-1,1693,1009,0,0
476,15,0,0,0,0,0,0,0,0,0,-1,1700,1009,0,0
483,15,0,0,0,0,0,0,0,0,0,-1,1707,1009,0,0
490,15,0,0,0,0,0,0,0,0,0,-1,1714,1009,0,0
497,15,0,0,0,0,0,0,0,0,0,-1,1721,1009,0,0
504,15,0,0,0,0,0,0,0,0,0,-1,1728,1009,0,0
511,15,0,0,0,0,0,0,0,0,0,-1,1735,1009,0,0
518,15,0,0,0,0,0,0,0,0,0,-1,1742,1009,0,0
525,15,0,0,0,0,0,0,0,0,0,-1,1749,1009,0,0
532,15,0,0,0,0,0,0,0,0,0,-1,1756,1009,0,0
539,15,0,0,0,0,0,0,0,0,0,-1,1763,1009,0,0
546,15,0,0,0,0,0,0,0,0,0,-1,1770,1009,0,0
553,15,0,0,0,0,0,0,0,0,0,-1,1777,1009,0,0
560,15,0,0,0,0,0,0,0,0,0,-1,1784,1009,0,0
567,15,0,0,0,0,0,0,0,0,0,-1,1791,1009,0,0
574,15,0,0,0,0,0,0,0,0,0,-1,1798,1009,0,0
581,15,0,0,0,0,0,0,0,0,0,-1,1805,1009,0,0
588,15,0,0,0,0,0,0,0,0,0,-1,1812,1009,0,0
595,15,0,0,0,0,0,0,0,0,0,-1,1819,1009,0,0
602,15,0,0,0,0,0,0,0,0,0,-1,1826,1009,0,0
609,15,0,0,0,0,0,0,0,0,0,-1,1833,1009,0,0
616,15,0,0,0,0,0,0,0,0,0,-1,1840,1009,0,0
623,15,0,0,0,0,0,0,0,0,0,-1,1847,1009,0,0
630,15,0,0,0,0,0,0,0,0,0,-1,1854,1009,0,0
637,15,0,0,0,0,0,0,0,0,0,-1,1861,1009,0,0
644,15,36.1117,2.63269,0.00612951,0.00488811,0.00349166,0.00905522,0.00196241,0.697434,0.00550062,0.0403994,1868,1009,36.1117,-2.6327
651,15,36.184,2.74176,0.00418461,0.00283382,0.00233959,0.00594434,0.00107408,0.644878,0.00365781,0.0398105,1875,1009,36.1839,-2.74177
658,15,36.1969,2.75562,0.00285478,0.00129749,0.00146259,0.00373308,0.00041919,0.540792,0.00236142,0.0401542,1882,1009,36.1969,-2.75561
665,15,36.1859,2.73468,0.00174761,0.000414919,0.00121977,0.00247117,-0.000308646,0.535404,0.00175938,0.0399871,1889,1009,36.1859,-2.73471
672,15,36.1973,2.62274,0.0008833,0.000117959,0.00144635,0.00199675,-0.000995491,0.656073,0.00175951,0.0385363,1896,1009,36.1972,-2.62275
679,15,36.2565,2.77643,0.000173207,0.000202182,0.0019478,0.00213555,-0.00176016,0.789117,0.00225266,0.0391953,1903,1009,36.2565,-2.77645
686,15,36.2534,2.67578,-0.00020514,0.000317095,0.00244959,0.00251944,-0.00240749,0.838496,0.00284481,0.0423797,1910,1009,36.2534,-2.67579
693,15,36.1647,2.75848,-0.000355628,0.000499794,0.00286935,0.00297314,-0.00282897,0.859384,0.0033502,0.0400368,1917,1009,36.1647,-2.75851
700,15,36.1694,2.7663,-0.000477197,0.000641422,0.00309966,0.00323183,-0.0030676,0.874659,0.00363739,0.0318126,1924,1009,36.1695,-2.7663
707,15,36.1597,2.7785,-0.000688551,0.000940411,0.00319643,0.0034245,-0.00317264,0.910148,0.00380978,0.0285217,1931,1009,36.1597,-2.77853
714,15,36.2079,2.79834,-0.00105392,0.00133002,0.00322479,0.00357609,-0.00329998,0.962424,0.00397097,0.0294384,1938,1009,36.2079,-2.79832
721,15,36.2466,2.84241,0,0,0,0,0,0,0,-1,1945,1009,36.2466,-2.84241
728,15,35.8807,4.93262,0,0,0,0,0,0,0,-1,1952,1009,35.8808,-4.93261
735,15,35.8182,5.03796,-0.00210447,0.00339699,0.00283407,0.00459575,-0.00330323,1.17064,0.00458078,0.0166351,1959,1009,35.8183,-5.03796
742,15,35.8218,5.12994,-0.00243506,0.00451869,0.00253961,0.00534742,-0.00326379,1.25537,0.00501997,0.021719,1966,1009,35.8217,-5.12996
749,15,35.8136,5.16827,-0.00209597,0.00839903,0.00107982,0.00850898,-0.00220592,1.46932,0.0065333,0.0133679,1973,1009,35.8136,-5.16829
756,15,35.8164,5.18054,0.00188635,0.0113795,-0.00138261,0.0115767,0.00168908,-1.42907,0.00722094,0.0132811,1980,1009,35.8164,-5.18052
763,15,35.7764,5.28027,0.00914417,0.0148175,-0.0023845,0.0156865,0.00827509,-1.22129,0.0090612,0.0134958,1987,1009,35.7764,-5.28028
770,15,35.6903,5.30731,0.0184663,0.0202193,-0.00475383,0.0241768,0.0145088,-0.876562,0.0140514,0.0196697,1994,1009,35.6903,-5.30733
777,15,35.4313,5.3371,0.0335665,0.0273265,-0.00742071,0.0384964,0.0223965,-0.586395,0.0223248,0.0458373,2001,1009,35.4313,-5.33707
784,15,35.2366,5.38922,0,0,0,0,0,0,0,-1,2008,1009,35.2366,-5.38924
791,15,35.2698,4.89685,0.0809345,0.0422734,-0.0131318,0.0849731,0.0382348,-0.298359,0.0491411,0.0469305,2015,1009,35.2699,-4.89687
798,15,34.928,4.57184,0,0,0,0,0,0,0,-1,2022,1009,34.9279,-4.57182
805,15,34.4861,3.86658,0.165157,0.0548313,-0.0171852,0.167772,0.0522164,-0.151003,0.0991374,0.0457223,2029,1009,34.4862,-3.86656
812,15,39.2258,1.41815,0.22603,0.0568252,-0.0162495,0.227577,0.0552788,-0.0948791,0.137059,0.0454339,2036,1009,39.2259,-1.41816
-700,8,0,0,0,0,0,0,0,0,0,-1,524,1016,0,0
-693,8,-27.587,-3.62744,0,0,0,0,0,0,0,-1,531,1016,-27.587,3.62744
-686,8,-28.0888,-3.15222,0,0,0,0,0,0,0,-1,538,1016,-28.0888,3.15222
-679,8,-24.9711,-0.101318,0,0,0,0,0,0,0,-1,545,1016,-24.971,0.101291
-672,8,-25.3036,0.9599,0,0,0,0,0,0,0,-1,552,1016,-25.3036,-0.95992
-665,8,-25.9658,0.311707,0,0,0,0,0,0,0,-1,559,1016,-25.9657,-0.311692
-658,8,-26.1843,2.03424,0,0,0,0,0,0,0,-1,566,1016,-26.1842,-2.03421
-651,8,-26.1136,2.29919,0,0,0,0,0,0,0,-1,573,1016,-26.1136,-2.29918
-644,8,-26.093,2.18378,0,0,0,0,0,0,0,-1,580,1016,-26.093,-2.18378
-637,8,-26.4113,2.44458,0.00316735,0.0104128,0.00531743,0.0132243,0.000355857,1.08443,0.0087,0.0316687,587,1016,-26.4113,-2.44457
-630,8,-26.5439,2.50842,0.00212267,0.00806538,0.0016349,0.00848546,0.00170258,1.31929,0.00518351,0.0181198,594,1016,-26.5439,-2.50843
-623,8,-26.541,2.52893,0.000731692,0.00605091,-0.00121333,0.0063146,0.000467999,-1.35679,0.00406273,0.0128813,601,1016,-26.5409,-2.52891
-616,8,-26.5661,2.49878,0.000165772,0.00495369,-0.00318447,0.00654369,-0.00142422,-1.10771,0.00490659,0.0134665,608,1016,-26.5661,-2.49875
-609,8,-26.5929,2.44763,0.00022031,0.00341862,-0.00499772,0.0070668,-0.00342787,-0.940239,0.00617932,0.0185998,615,1016,-26.5929,-2.44761
-602,8,-26.5602,2.43384,0.000319541,0.00216183,-0.00625205,0.00756023,-0.00507886,-0.858539,0.00734391,0.0239742,622,1016,-26.5602,-2.43385
-595,8,-26.2609,1.82385,0.000588506,0.00112531,-0.00702785,0.00788988,-0.00617607,-0.804485,0.00814105,0.0467585,629,1016,-26.2609,-1.82384
-588,8,-26.2491,0.981934,0.000933856,0.000492963,-0.00739492,0.00811162,-0.0066848,-0.770497,0.00855594,0.0427622,636,1016,-26.2491,-0.981945
-581,8,-26.2938,0.806458,0.000921931,0.000299087,-0.00731538,0.00793251,-0.00671149,-0.764126,0.00846451,0.0294458,643,1016,-26.2938,-0.806457
-574,8,-26.3973,1.04321,0.000591533,0.000400757,-0.00667392,0.00717074,-0.00617845,-0.778252,0.00771426,0.0327863,650,1016,-26.3973,-1.04324
-567,8,-26.4143,1.06787,0.0001479,0.000597689,-0.00569653,0.00607376,-0.00532817,-0.805128,0.0065876,0.035962,657,1016,-26.4143,-1.06789
-560,8,-26.4846,1.12616,-0.000378534,0.00093906,-0.00444312,0.00477196,-0.00421143,-0.858999,0.00518992,0.0385204,664,1016,-26.4846,-1.12614
-553,8,-26.5246,1.23804,-0.0010146,0.00137092,-0.00306211,0.00346437,-0.00310806,-0.971119,0.00379645,0.0412915,671,1016,-26.5246,-1.23806
-546,8,-26.3878,1.26465,-0.00170023,0.00182946,-0.00174021,0.00254312,-0.00241389,-1.18161,0.00286226,0.0410557,678,1016,-26.3878,-1.26464
-539,8,-26.3343,1.19574,-0.00222741,0.00220909,-0.00127083,0.00254733,-0.00256565,-1.31067,0.00295199,0.0426364,685,1016,-26.3343,-1.19572
-532,8,-26.3346,1.00232,-0.00284802,0.00406439,-0.00293357,0.00514152,-0.00392516,-1.2189,0.00525033,0.0427278,692,1016,-26.3346,-1.00233
-525,8,0,0,0,0,0,0,0,0,0,-1,699,1016,0,0
-518,8,0,0,0,0,0,0,0,0,0,-1,706,1016,0,0
-511,8,0,0,0,0,0,0,0,0,0,-1,713,1016,0,0
-504,8,0,0,0,0,0,0,0,0,0,-1,720,1016,0,0
-497,8,0,0,0,0,0,0,0,0,0,-1,727,1016,0,0
-490,8,0,0,0,0,0,0,0,0,0,-1,734,1016,0,0
-483,8,0,0,0,0,0,0,0,0,0,-1,741,1016,0,0
-476,8,0,0,0,0,0,0,0,0,0,-1,748,1016,0,0
-469,8,0,0,0,0,0,0,0,0,0,-1,755,1016,0,0
-462,8,0,0,0,0,0,0,0,0,0,-1,762,1016,0,0
-455,8,0,0,0,0,0,0,0,0,0,-1,769,1016,0,0
-448,8,0,0,0,0,0,0,0,0,0,-1,776,1016,0,0
-441,8,0,0,0,0,0,0,0,0,0,-1,783,1016,0,0
-434,8,0,0,0,0,0,0,0,0,0,-1,790,1016,0,0
-427,8,0,0,0,0,0,0,0,0,0,-1,797,1016,0,0
-420,8,0,0,0,0,0,0,0,0,0,-1,804,1016,0,0
-413,8,0,0,0,0,0,0,0,0,0,-1,811,1016,0,0
-406,8,0,0,0,0,0,0,0,0,0,-1,818,1016,0,0
-399,8,0,0,0,0,0,0,0,0,0,-1,825,1016,0,0
-392,8,0,0,0,0,0,0,0,0,0,-1,832,1016,0,0
-385,8,0,0,0,0,0,0,0,0,0,-1,839,1016,0,0
-378,8,0,0,0,0,0,0,0,0,0,-1,846,1016,0,0
-371,8,0,0,0,0,0,0,0,0,0,-1,853,1016,0,0
-364,8,0,0,0,0,0,0,0,0,0,-1,860,1016,0,0
-357,8,0,0,0,0,0,0,0,0,0,-1,867,1016,0,0
-350,8,0,0,0,0,0,0,0,0,0,-1,874,1016,0,0
-343,8,0,0,0,0,0,0,0,0,0,-1,881,1016,0,0
-336,8,0,0,0,0,0,0,0,0,0,-1,888,1016,0,0
-329,8,0,0,0,0,0,0,0,0,0,-1,895,1016,0,0
-322,8,0,0,0,0,0,0,0,0,0,-1,902,1016,0,0
-315,8,0,0,0,0,0,0,0,0,0,-1,909,1016,0,0
-308,8,0,0,0,0,0,0,0,0,0,-1,916,1016,0,0
-301,8,0,0,0,0,0,0,0,0,0,-1,923,1016,0,0
-294,8,0,0,0,0,0,0,0,0,0,-1,930,1016,0,0
-287,8,0,0,0,0,0,0,0,0,0,-1,937,1016,0,0
-280,8,0,0,0,0,0,0,0,0,0,-1,944,1016,0,0
-273,8,0,0,0,0,0,0,0,0,0,-1,951,1016,0,0
-266,8,0,0,0,0,0,0,0,0,0,-1,958,1016,0,0
-259,8,0,0,0,0,0,0,0,0,0,-1,965,1016,0,0
-252,8,0,0,0,0,0,0,0,0,0,-1,972,1016,0,0
-245,8,0,0,0,0,0,0,0,0,0,-1,979,1016,0,0
-238,8,0,0,0,0,0,0,0,0,0,-1,986,1016,0,0
-231,8,0,0,0,0,0,0,0,0,0,-1,993,1016,0,0
-224,8,0,0,0,0,0,0,0,0,0,-1,1000,1016,0,0
-217,8,0,0,0,0,0,0,0,0,0,-1,1007,1016,0,0
-210,8,0,0,0,0,0,0,0,0,0,-1,1014,1016,0,0
-203,8,0,0,0,0,0,0,0,0,0,-1,1021,1016,0,0
-196,8,0,0,0,0,0,0,0,0,0,-1,1028,1016,0,0
-189,8,0,0,0,0,0,0,0,0,0,-1,1035,1016,0,0
-182,8,0,0,0,0,0,0,0,0,0,-1,1042,1016,0,0
-175,8,0,0,0,0,0,0,0,0,0,-1,1049,1016,0,0
-168,8,0,0,0,0,0,0,0,0,0,-1,1056,1016,0,0
-161,8,0,0,0,0,0,0,0,0,0,-1,1063,1016,0,0
-154,8,0,0,0,0,0,0,0,0,0,-1,1070,1016,0,0
-147,8,0,0,0,0,0,0,0,0,0,-1,1077,1016,0,0
-140,8,0,0,0,0,0,0,0,0,0,-1,1084,1016,0,0
-133,8,0,0,0,0,0,0,0,0,0,-1,1091,1016,0,0
-126,8,0,0,0,0,0,0,0,0,0,-1,1098,1016,0,0
-119,8,0,0,0,0,0,0,0,0,0,-1,1105,1016,0,0
-112,8,0,0,0,0,0,0,0,0,0,-1,1112,1016,0,0
-105,8,0,0,0,0,0,0,0,0,0,-1,1119,1016,0,0
-98,8,0,0,0,0,0,0,0,0,0,-1,1126,1016,0,0
-91,8,0,0,0,0,0,0,0,0,0,-1,1133,1016,0,0
-84,8,0,0,0,0,0,0,0,0,0,-1,1140,1016,0,0
-77,8,0,0,0,0,0,0,0,0,0,-1,1147,1016,0,0
-70,8,0,0,0,0,0,0,0,0,0,-1,1154,1016,0,0
-63,8,0,0,0,0,0,0,0,0,0,-1,1161,1016,0,0
-56,8,0,0,0,0,0,0,0,0,0,-1,1168,1016,0,0
-49,8,0,0,0,0,0,0,0,0,0,-1,1175,1016,0,0
-42,8,0,0,0,0,0,0,0,0,0,-1,1182,1016,0,0
-35,8,0,0,0,0,0,0,0,0,0,-1,1189,1016,0,0
-28,8,0,0,0,0,0,0,0,0,0,-1,1196,1016,0,0
-21,8,0,0,0,0,0,0,0,0,0,-1,1203,1016,0,0
-14,8,0,0,0,0,0,0,0,0,0,-1,1210,1016,0,0
-7,8,0,0,0,0,0,0,0,0,0,-1,1217,1016,0,0
0,8,0,0,0,0,0,0,0,0,0,-1,1224,1016,0,0
7,8,0,0,0,0,0,0,0,0,0,-1,1231,1016,0,0
14,8,0,0,0,0,0,0,0,0,0,-1,1238,1016,0,0
21,8,0,0,0,0,0,0,0,0,0,-1,1245,1016,0,0
28,8,0,0,0,0,0,0,0,0,0,-1,1252,1016,0,0
35,8,0,0,0,0,0,0,0,0,0,-1,1259,1016,0,0
42,8,0,0,0,0,0,0,0,0,0,-1,1266,1016,0,0
49,8,0,0,0,0,0,0,0,0,0,-1,1273,1016,0,0
56,8,0,0,0,0,0,0,0,0,0,-1,1280,1016,0,0
63,8,0,0,0,0,0,0,0,0,0,-1,1287,1016,0,0
70,8,0,0,0,0,0,0,0,0,0,-1,1294,1016,0,0
77,8,0,0,0,0,0,0,0,0,0,-1,1301,1016,0,0
84,8,0,0,0,0,0,0,0,0,0,-1,1308,1016,0,0
91,8,0,0,0,0,0,0,0,0,0,-1,1315,1016,0,0
98,8,0,0,0,0,0,0,0,0,0,-1,1322,1016,0,0
105,8,0,0,0,0,0,0,0,0,0,-1,1329,1016,0,0
112,8,0,0,0,0,0,0,0,0,0,-1,1336,1016,0,0
119,8,0,0,0,0,0,0,0,0,0,-1,1343,1016,0,0
126,8,0,0,0,0,0,0,0,0,0,-1,1350,1016,0,0
133,8,0,0,0,0,0,0,0,0,0,-1,1357,1016,0,0
140,8,0,0,0,0,0,0,0,0,0,-1,1364,1016,0,0
147,8,0,0,0,0,0,0,0,0,0,-1,1371,1016,0,0
154,8,0,0,0,0,0,0,0,0,0,-1,1378,1016,0,0
161,8,0,0,0,0,0,0,0,0,0,-1,1385,1016,0,0
168,8,0,0,0,0,0,0,0,0,0,-1,1392,1016,0,0
175,8,0,0,0,0,0,0,0,0,0,-1,1399,1016,0,0
182,8,0,0,0,0,0,0,0,0,0,-1,1406,1016,0,0
189,8,0,0,0,0,0,0,0,0,0,-1,1413,1016,0,0
196,8,0,0,0,0,0,0,0,0,0,-1,1420,1016,0,0
203,8,0,0,0,0,0,0,0,0,0,-1,1427,1016,0,0
210,8,0,0,0,0,0,0,0,0,0,-1,1434,1016,0,0
217,8,0,0,0,0,0,0,0,0,0,-1,1441,1016,0,0
224,8,0,0,0,0,0,0,0,0,0,-1,1448,1016,0,0
231,8,0,0,0,0,0,0,0,0,0,-1,1455,1016,0,0
238,8,0,0,0,0,0,0,0,0,0,-1,1462,1016,0,0
245,8,0,0,0,0,0,0,0,0,0,-1,1469,1016,0,0
252,8,0,0,0,0,0,0,0,0,0,-1,1476,1016,0,0
259,8,0,0,0,0,0,0,0,0,0,-1,1483,1016,0,0
266,8,0,0,0,0,0,0,0,0,0,-1,1490,1016,0,0
273,8,0,0,0,0,0,0,0,0,0,-1,1497,1016,0,0
280,8,0,0,0,0,0,0,0,0,0,-1,1504,1016,0,0
287,8,0,0,0,0,0,0,0,0,0,-1,1511,1016,0,0
294,8,0,0,0,0,0,0,0,0,0,-1,1518,1016,0,0
301,8,0,0,0,0,0,0,0,0,0,-1,1525,1016,0,0
308,8,0,0,0,0,0,0,0,0,0,-1,1532,1016,0,0
315,8,0,0,0,0,0,0,0,0,0,-1,1539,1016,0,0
322,8,0,0,0,0,0,0,0,0,0,-1,1546,1016,0,0
329,8,0,0,0,0,0,0,0,0,0,-1,1553,1016,0,0
336,8,0,0,0,0,0,0,0,0,0,-1,1560,1016,0,0
343,8,0,0,0,0,0,0,0,0,0,-1,1567,1016,0,0
350,8,0,0,0,0,0,0,0,0,0,-1,1574,1016,0,0
357,8,0,0,0,0,0,0,0,0,0,-1,1581,1016,0,0
364,8,0,0,0,0,0,0,0,0,0,-1,1588,1016,0,0
371,8,0,0,0,0,0,0,0,0,0,-1,1595,1016,0,0
378,8,0,0,0,0,0,0,0,0,0,-1,1602,1016,0,0
385,8,0,0,0,0,0,0,0,0,0,-1,1609,1016,0,0
392,8,0,0,0,0,0,0,0,0,0,-1,1616,1016,0,0
399,8,0,0,0,0,0,0,0,0,0,-1,1623,1016,0,0
406,8,0,0,0,0,0,0,0,0,0,-1,1630,1016,0,0
413,8,0,0,0,0,0,0,0,0,0,-1,1637,1016,0,0
420,8,0,0,0,0,0,0,0,0,0,-1,1644,1016,0,0
427,8,0,0,0,0,0,0,0,0,0,-1,1651,1016,0,0
434,8,0,0,0,0,0,0,0,0,0,-1,1658,1016,0,0
441,8,0,0,0,0,0,0,0,0,0,-1,1665,1016,0,0
448,8,0,0,0,0,0,0,0,0,0,-1,1672,1016,0,0
455,8,0,0,0,0,0,0,0,0,0,-1,1679,1016,0,0
462,8,0,0,0,0,0,0,0,0,0,-1,1686,1016,0,0
469,8,0,0,0,0,0,0,0,0,0,-1,1693,1016,0,0
476,8,0,0,0,0,0,0,0,0,0,-1,1700,1016,0,0
483,8,0,0,0,0,0,0,0,0,0,-1,1707,1016,0,0
490,8,0,0,0,0,0,0,0,0,0,-1,1714,1016,0,0
497,8,0,0,0,0,0,0,0,0,0,-1,1721,1016,0,0
504,8,0,0,0,0,0,0,0,0,0,-1,1728,1016,0,0
511,8,0,0,0,0,0,0,0,0,0,-1,1735,1016,0,0
518,8,0,0,0,0,0,0,0,0,0,-1,1742,1016,0,0
525,8,0,0,0,0,0,0,0,0,0,-1,1749,1016,0,0
532,8,0,0,0,0,0,0,0,0,0,-1,1756,1016,0,0
539,8,0,0,0,0,0,0,0,0,0,-1,1763,1016,0,0
546,8,0,0,0,0,0,0,0,0,0,-1,1770,1016,0,0
553,8,0,0,0,0,0,0,0,0,0,-1,1777,1016,0,0
560,8,0,0,0,0,0,0,0,0,0,-1,1784,1016,0,0
567,8,0,0,0,0,0,0,0,0,0,-1,1791,1016,0,0
574,8,0,0,0,0,0,0,0,0,0,-1,1798,1016,0,0
581,8,0,0,0,0,0,0,0,0,0,-1,1805,1016,0,0
588,8,0,0,0,0,0,0,0,0,0,-1,1812,1016,0,0
595,8,0,0,0,0,0,0,0,0,0,-1,1819,1016,0,0
602,8,0,0,0,0,0,0,0,0,0,-1,1826,1016,0,0
609,8,0,0,0,0,0,0,0,0,0,-1,1833,1016,0,0
616,8,0,0,0,0,0,0,0,0,0,-1,1840,1016,0,0
623,8,0,0,0,0,0,0,0,0,0,-1,1847,1016,0,0
630,8,0,0,0,0,0,0,0,0,0,-1,1854,1016,0,0
637,8,0,0,0,0,0,0,0,0,0,-1,1861,1016,0,0
644,8,36.119,2.49774,0.00507093,0.00529317,0.00363373,0.00881748,0.00154662,0.800683,0.00543661,0.0428214,1868,1016,36.119,-2.49771
651,8,36.2067,2.59711,0.00333419,0.00340907,0.00262036,0.00599225,0.000751003,0.792541,0.00376952,0.0389217,1875,1016,36.2066,-2.59708
658,8,36.2156,2.66803,0.00222794,0.00201337,0.00177083,0.00389473,0.000346582,0.755143,0.00248902,0.0389346,1882,1016,36.2156,-2.668
665,8,36.1578,2.70215,0.00133026,0.00116914,0.00142211,0.00267409,-0.000174681,0.757104,0.00184371,0.0398404,1889,1016,36.1579,-2.70215
672,8,36.1678,2.89417,0.000671812,0.0008252,0.00154476,0.00229517,-0.000798161,0.810202,0.00185434,0.0408593,1896,1016,36.1678,-2.89413
679,8,36.1055,3.04102,0.000149335,0.000793639,0.001942,0.00244002,-0.00149705,0.867593,0.0022947,0.0392942,1903,1016,36.1055,-3.04102
686,8,36.0891,2.78516,-0.000115961,0.000758946,0.00236857,0.00273012,-0.00208714,0.876715,0.00278949,0.0412977,1910,1016,36.0891,-2.78518
693,8,36.1003,2.73431,-0.000198416,0.000768624,0.00275783,0.003085,-0.00251479,0.872179,0.00323862,0.0403911,1917,1016,36.1004,-2.73434
700,8,36.1675,2.72699,-0.000269597,0.000765346,0.00298962,0.00328195,-0.0027862,0.871094,0.00350735,0.0315701,1924,1016,36.1674,-2.72697
707,8,36.1853,2.67059,-0.000451772,0.000931182,0.00310411,0.0034199,-0.00294048,0.89499,0.00367564,0.0236852,1931,1016,36.1853,-2.67057
714,8,36.225,2.65381,-0.000789268,0.00120685,0.00315797,0.00352073,-0.00310314,0.938454,0.00382683,0.0258232,1938,1016,36.2249,-2.6538
721,8,36.2981,2.70599,0,0,0,0,0,0,0,-1,1945,1016,36.2981,-2.70597
728,8,35.7896,4.98206,0,0,0,0,0,0,0,-1,1952,1016,35.7895,-4.98208
735,8,35.7631,5.02478,-0.00193635,0.0030805,0.00280633,0.00433608,-0.00319192,1.1501,0.00436299,0.0252024,1959,1016,35.7631,-5.02476
742,8,35.8829,5.0108,-0.00232313,0.00419073,0.00253706,0.00506227,-0.00319467,1.2399,0.00480762,0.0305487,1966,1016,35.8829,-5.01081
749,8,35.9122,5.15094,-0.00202612,0.00762965,0.00119217,0.00777466,-0.00217113,1.44975,0.00603836,0.0234272,1973,1016,35.9122,-5.15094
756,8,35.8691,5.14093,0.00170119,0.0102564,-0.00108028,0.0103907,0.00156689,-1.44711,0.00646841,0.0190777,1980,1016,35.8692,-5.14094
763,8,35.8547,5.20123,0.00844437,0.0131492,-0.00191455,0.0138298,0.00776374,-1.22923,0.00800466,0.0154307,1987,1016,35.8547,-5.20125
770,8,35.7941,5.18274,0.0171157,0.0176358,-0.00406739,0.0214514,0.0133,-0.817322,0.0125033,0.0191697,1994,1016,35.7941,-5.18276
777,8,35.5551,5.20703,0.0313584,0.0233083,-0.00639778,0.034892,0.0197747,-0.504614,0.0202046,0.0309565,2001,1016,35.5551,-5.20701
784,8,35.3636,5.30194,0.0503463,0.0288244,-0.00871584,0.0534332,0.0257374,-0.34039,0.0308566,0.0471527,2008,1016,35.3637,-5.30194
791,8,35.0134,4.84845,0.0759537,0.0338385,-0.0108703,0.0785939,0.0311982,-0.238269,0.0456963,0.0463703,2015,1016,35.0134,-4.84844
798,8,34.6394,4.43854,0,0,0,0,0,0,0,-1,2022,1016,34.6393,-4.43856
805,8,34.7354,5.72174,0.155101,0.0387371,-0.0125599,0.156441,0.0373969,-0.106305,0.0943328,0.0452248,2029,1016,34.7352,-5.72172
812,8,35.052,6.01678,0.21248,0.0352056,-0.00982248,0.213023,0.034663,-0.0551831,0.131987,0.0451848,2036,1016,35.052,-6.01678
-700,1,0,0,0,0,0,0,0,0,0,-1,524,1023,0,0
-693,1,-28.3965,-3.83008,0,0,0,0,0,0,0,-1,531,1023,-28.3965,3.8301
-686,1,-28.2813,2.47406,0,0,0,0,0,0,0,-1,538,1023,-28.2813,-2.47406
-679,1,-28.1016,2.52777,0,0,0,0,0,0,0,-1,545,1023,-28.1016,-2.5278
-672,1,-26.9446,2.05048,0,0,0,0,0,0,0,-1,552,1023,-26.9446,-2.05045
-665,1,-26.7626,2.13483,0.0118243,0.017256,0.0165858,0.0313468,-0.00226657,0.86655,0.0216929,0.0465945,559,1023,-26.7626,-2.13484
-658,1,-26.5859,2.26605,0.00942779,0.015638,0.0132752,0.0261664,-0.00110066,0.900284,0.0178225,0.0337481,566,1023,-26.5859,-2.26606
-651,1,-26.3751,2.37433,0.00702616,0.0138463,0.0103216,0.0213066,-0.000434077,0.944945,0.0143513,0.0251169,573,1023,-26.3751,-2.37433
-644,1,-26.2218,2.49567,0,0,0,0,0,0,0,-1,580,1023,-26.2218,-2.49569
-637,1,-26.4232,2.44843,0.00394403,0.0095828,0.00350068,0.0112583,0.00226857,1.12441,0.00687523,0.0285324,587,1023,-26.4232,-2.44839
-630,1,-26.5989,2.45947,0.00265929,0.00749813,0.000309914,0.0075179,0.00263952,1.5071,0.00440415,0.0239777,594,1023,-26.5989,-2.45948
-623,1,-26.5276,2.50458,0.00114399,0.0055813,-0.00223885,0.00651461,0.00021068,-1.17583,0.00427458,0.0129595,601,1023,-26.5276,-2.50458
-616,1,-26.585,2.45911,0.000419779,0.00450542,-0.00400542,0.00695887,-0.00203368,-1.02121,0.00544524,0.016116,608,1023,-26.585,-2.45911
-609,1,-26.5646,2.47772,0.000405696,0.00301767,-0.00574322,0.00760152,-0.00417816,-0.897195,0.00689607,0.018982,615,1023,-26.5646,-2.47772
-602,1,-26.4879,2.48956,0.00037054,0.0017805,-0.00691281,0.00802418,-0.00587314,-0.836213,0.0080556,0.0143986,622,1023,-26.4879,-2.48959
-595,1,-26.3934,2.45752,0.000578461,0.000849223,-0.00762834,0.00834338,-0.00691569,-0.794271,0.00882267,0.0267345,629,1023,-26.3934,-2.45751
-588,1,-26.4225,1.76105,0,0,0,0,0,0,0,-1,636,1023,-26.4226,-1.76108
-581,1,-26.3427,0.921082,0.000953998,0.000265383,-0.00789819,0.00851538,-0.007296,-0.763615,0.00913775,0.0284669,643,1023,-26.3427,-0.921079
-574,1,-26.4178,1.12067,0.000671412,0.000469826,-0.00731394,0.00788525,-0.00674401,-0.778508,0.00845477,0.0362748,650,1023,-26.4179,-1.12068
-567,1,-26.4127,1.19226,0.000267266,0.000808859,-0.00639873,0.00694252,-0.0058664,-0.806546,0.00740393,0.0409484,657,1023,-26.4127,-1.19228
-560,1,-26.4064,1.19818,-0.000226362,0.0012973,-0.00523319,0.00582383,-0.00475289,-0.857679,0.00611689,0.0404011,664,1023,-26.4064,-1.19818
-553,1,-26.6011,1.1535,-0.000837186,0.00186336,-0.00397961,0.00471554,-0.00368936,-0.948953,0.00486461,0.0410594,671,1023,-26.6011,-1.15351
-546,1,-26.3843,1.39252,-0.00151022,0.00240598,-0.00285051,0.00390614,-0.00301038,-1.08635,0.0040044,0.0434821,678,1023,-26.3843,-1.39251
-539,1,-26.2691,1.17474,-0.00204703,0.00273155,-0.00278154,0.00400909,-0.00332457,-1.14024,0.00424024,0.0437116,685,1023,-26.2691,-1.17474
-532,1,-26.4267,1.0191,-0.0026937,0.00443946,-0.00521352,0.00718963,-0.00544386,-1.08539,0.00731713,0.0416916,692,1023,-26.4267,-1.01913
-525,1,0,0,0,0,0,0,0,0,0,-1,699,1023,0,0
-518,1,0,0,0,0,0,0,0,0,0,-1,706,1023,0,0
-511,1,0,0,0,0,0,0,0,0,0,-1,713,1023,0,0
-504,1,0,0,0,0,0,0,0,0,0,-1,720,1023,0,0
-497,1,0,0,0,0,0,0,0,0,0,-1,727,1023,0,0
-490,1,0,0,0,0,0,0,0,0,0,-1,734,1023,0,0
-483,1,0,0,0,0,0,0,0,0,0,-1,741,1023,0,0
-476,1,0,0,0,0,0,0,0,0,0,-1,748,1023,0,0
-469,1,0,0,0,0,0,0,0,0,0,-1,755,1023,0,0
-462,1,0,0,0,0,0,0,0,0,0,-1,762,1023,0,0
-455,1,0,0,0,0,0,0,0,0,0,-1,769,1023,0,0
-448,1,0,0,0,0,0,0,0,0,0,-1,776,1023,0,0
-441,1,0,0,0,0,0,0,0,0,0,-1,783,1023,0,0
-434,1,0,0,0,0,0,0,0,0,0,-1,790,1023,0,0
-427,1,0,0,0,0,0,0,0,0,0,-1,797,1023,0,0
-420,1,0,0,0,0,0,0,0,0,0,-1,804,1023,0,0
-413,1,0,0,0,0,0,0,0,0,0,-1,811,1023,0,0
-406,1,0,0,0,0,0,0,0,0,0,-1,818,1023,0,0
-399,1,0,0,0,0,0,0,0,0,0,-1,825,1023,0,0
-392,1,0,0,0,0,0,0,0,0,0,-1,832,1023,0,0
-385,1,0,0,0,0,0,0,0,0,0,-1,839,1023,0,0
-378,1,0,0,0,0,0,0,0,0,0,-1,846,1023,0,0
-371,1,0,0,0,0,0,0,0,0,0,-1,853,1023,0,0
-364,1,0,0,0,0,0,0,0,0,0,-1,860,1023,0,0
-357,1,0,0,0,0,0,0,0,0,0,-1,867,1023,0,0
-350,1,0,0,0,0,0,0,0,0,0,-1,874,1023,0,0
-343,1,0,0,0,0,0,0,0,0,0,-1,881,1023,0,0
-336,1,0,0,0,0,0,0,0,0,0,-1,888,1023,0,0
-329,1,0,0,0,0,0,0,0,0,0,-1,895,1023,0,0
-322,1,0,0,0,0,0,0,0,0,0,-1,902,1023,0,0
-315,1,0,0,0,0,0,0,0,0,0,-1,909,1023,0,0
-308,1,0,0,0,0,0,0,0,0,0,-1,916,1023,0,0
-301,1,0,0,0,0,0,0,0,0,0,-1,923,1023,0,0
-294,1,0,0,0,0,0,0,0,0,0,-1,930,1023,0,0
-287,1,0,0,0,0,0,0,0,0,0,-1,937,1023,0,0
-280,1,0,0,0,0,0,0,0,0,0,-1,944,1023,0,0
-273,1,0,0,0,0,0,0,0,0,0,-1,951,1023,0,0
-266,1,0,0,0,0,0,0,0,0,0,-1,958,1023,0,0
-259,1,0,0,0,0,0,0,0,0,0,-1,965,1023,0,0
-252,1,0,0,0,0,0,0,0,0,0,-1,972,1023,0,0
-245,1,0,0,0,0,0,0,0,0,0,-1,979,1023,0,0
-238,1,0,0,0,0,0,0,0,0,0,-1,986,1023,0,0
-231,1,0,0,0,0,0,0,0,0,0,-1,993,1023,0,0
-224,1,0,0,0,0,0,0,0,0,0,-1,1000,1023,0,0
-217,1,0,0,0,0,0,0,0,0,0,-1,1007,1023,0,0
-210,1,0,0,0,0,0,0,0,0,0,-1,1014,1023,0,0
-203,1,0,0,0,0,0,0,0,0,0,-1,1021,1023,0,0
-196,1,0,0,0,0,0,0,0,0,0,-1,1028,1023,0,0
-189,1,0,0,0,0,0,0,0,0,0,-1,1035,1023,0,0
-182,1,0,0,0,0,0,0,0,0,0,-1,1042,1023,0,0
-175,1,0,0,0,0,0,0,0,0,0,-1,1049,1023,0,0
-168,1,0,0,0,0,0,0,0,0,0,-1,1056,1023,0,0
-161,1,0,0,0,0,0,0,0,0,0,-1,1063,1023,0,0
-154,1,0,0,0,0,0,0,0,0,0,-1,1070,1023,0,0
-147,1,0,0,0,0,0,0,0,0,0,-1,1077,1023,0,0
-140,1,0,0,0,0,0,0,0,0,0,-1,1084,1023,0,0
-133,1,0,0,0,0,0,0,0,0,0,-1,1091,1023,0,0
-126,1,0,0,0,0,0,0,0,0,0,-1,1098,1023,0,0
-119,1,0,0,0,0,0,0,0,0,0,-1,1105,1023,0,0
-112,1,0,0,0,0,0,0,0,0,0,-1,1112,1023,0,0
-105,1,0,0,0,0,0,0,0,0,0,-1,1119,1023,0,0
-98,1,0,0,0,0,0,0,0,0,0,-1,1126,1023,0,0
-91,1,0,0,0,0,0,0,0,0,0,-1,1133,1023,0,0
-84,1,0,0,0,0,0,0,0,0,0,-1,1140,1023,0,0
-77,1,0,0,0,0,0,0,0,0,0,-1,1147,1023,0,0
-70,1,0,0,0,0,0,0,0,0,0,-1,1154,1023,0,0
-63,1,0,0,0,0,0,0,0,0,0,-1,1161,1023,0,0
-56,1,0,0,0,0,0,0,0,0,0,-1,1168,1023,0,0
-49,1,0,0,0,0,0,0,0,0,0,-1,1175,1023,0,0
-42,1,0,0,0,0,0,0,0,0,0,-1,1182,1023,0,0
-35,1,0,0,0,0,0,0,0,0,0,-1,1189,1023,0,0
-28,1,0,0,0,0,0,0,0,0,0,-1,1196,1023,0,0
-21,1,0,0,0,0,0,0,0,0,0,-1,1203,1023,0,0
-14,1,0,0,0,0,0,0,0,0,0,-1,1210,1023,0,0
-7,1,0,0,0,0,0,0,0,0,0,-1,1217,1023,0,0
0,1,0,0,0,0,0,0,0,0,0,-1,1224,1023,0,0
7,1,0,0,0,0,0,0,0,0,0,-1,1231,1023,0,0
14,1,0,0,0,0,0,0,0,0,0,-1,1238,1023,0,0
21,1,0,0,0,0,0,0,0,0,0,-1,1245,1023,0,0
28,1,0,0,0,0,0,0,0,0,0,-1,1252,1023,0,0
35,1,0,0,0,0,0,0,0,0,0,-1,1259,1023,0,0
42,1,0,0,0,0,0,0,0,0,0,-1,1266,1023,0,0
49,1,0,0,0,0,0,0,0,0,0,-1,1273,1023,0,0
56,1,0,0,0,0,0,0,0,0,0,-1,1280,1023,0,0
63,1,0,0,0,0,0,0,0,0,0,-1,1287,1023,0,0
70,1,0,0,0,0,0,0,0,0,0,-1,1294,1023,0,0
77,1,0,0,0,0,0,0,0,0,0,-1,1301,1023,0,0
84,1,0,0,0,0,0,0,0,0,0,-1,1308,1023,0,0
91,1,0,0,0,0,0,0,0,0,0,-1,1315,1023,0,0
98,1,0,0,0,0,0,0,0,0,0,-1,1322,1023,0,0
105,1,0,0,0,0,0,0,0,0,0,-1,1329,1023,0,0
112,1,0,0,0,0,0,0,0,0,0,-1,1336,1023,0,0
119,1,0,0,0,0,0,0,0,0,0,-1,1343,1023,0,0
126,1,0,0,0,0,0,0,0,0,0,-1,1350,1023,0,0
133,1,0,0,0,0,0,0,0,0,0,-1,1357,1023,0,0
140,1,0,0,0,0,0,0,0,0,0,-1,1364,1023,0,0
147,1,0,0,0,0,0,0,0,0,0,-1,1371,1023,0,0
154,1,0,0,0,0,0,0,0,0,0,-1,1378,1023,0,0
161,1,0,0,0,0,0,0,0,0,0,-1,1385,1023,0,0
168,1,0,0,0,0,0,0,0,0,0,-1,1392,1023,0,0
175,1,0,0,0,0,0,0,0,0,0,-1,1399,1023,0,0
182,1,0,0,0,0,0,0,0,0,0,-1,1406,1023,0,0
189,1,0,0,0,0,0,0,0,0,0,-1,1413,1023,0,0
196,1,0,0,0,0,0,0,0,0,0,-1,1420,1023,0,0
203,1,0,0,0,0,0,0,0,0,0,-1,1427,1023,0,0
210,1,0,0,0,0,0,0,0,0,0,-1,1434,1023,0,0
217,1,0,0,0,0,0,0,0,0,0,-1,1441,1023,0,0
224,1,0,0,0,0,0,0,0,0,0,-1,1448,1023,0,0
231,1,0,0,0,0,0,0,0,0,0,-1,1455,1023,0,0
238,1,0,0,0,0,0,0,0,0,0,-1,1462,1023,0,0
245,1,0,0,0,0,0,0,0,0,0,-1,1469,1023,0,0
252,1,0,0,0,0,0,0,0,0,0,-1,1476,1023,0,0
259,1,0,0,0,0,0,0,0,0,0,-1,1483,1023,0,0
266,1,0,0,0,0,0,0,0,0,0,-1,1490,1023,0,0
273,1,0,0,0,0,0,0,0,0,0,-1,1497,1023,0,0
280,1,0,0,0,0,0,0,0,0,0,-1,1504,1023,0,0
287,1,0,0,0,0,0,0,0,0,0,-1,1511,1023,0,0
294,1,0,0,0,0,0,0,0,0,0,-1,1518,1023,0,0
301,1,0,0,0,0,0,0,0,0,0,-1,1525,1023,0,0
308,1,0,0,0,0,0,0,0,0,0,-1,1532,1023,0,0
315,1,0,0,0,0,0,0,0,0,0,-1,1539,1023,0,0
322,1,0,0,0,0,0,0,0,0,0,-1,1546,1023,0,0
329,1,0,0,0,0,0,0,0,0,0,-1,1553,1023,0,0
336,1,0,0,0,0,0,0,0,0,0,-1,1560,1023,0,0
343,1,0,0,0,0,0,0,0,0,0,-1,1567,1023,0,0
350,1,0,0,0,0,0,0,0,0,0,-1,1574,1023,0,0
357,1,0,0,0,0,0,0,0,0,0,-1,1581,1023,0,0
364,1,0,0,0,0,0,0,0,0,0,-1,1588,1023,0,0
371,1,0,0,0,0,0,0,0,0,0,-1,1595,1023,0,0
378,1,0,0,0,0,0,0,0,0,0,-1,1602,1023,0,0
385,1,0,0,0,0,0,0,0,0,0,-1,1609,1023,0,0
392,1,0,0,0,0,0,0,0,0,0,-1,1616,1023,0,0
399,1,0,0,0,0,0,0,0,0,0,-1,1623,1023,0,0
406,1,0,0,0,0,0,0,0,0,0,-1,1630,1023,0,0
413,1,0,0,0,0,0,0,0,0,0,-1,1637,1023,0,0
420,1,0,0,0,0,0,0,0,0,0,-1,1644,1023,0,0
427,1,0,0,0,0,0,0,0,0,0,-1,1651,1023,0,0
434,1,0,0,0,0,0,0,0,0,0,-1,1658,1023,0,0
441,1,0,0,0,0,0,0,0,0,0,-1,1665,1023,0,0
448,1,0,0,0,0,0,0,0,0,0,-1,1672,1023,0,0
455,1,0,0,0,0,0,0,0,0,0,-1,1679,1023,0,0
462,1,0,0,0,0,0,0,0,0,0,-1,1686,1023,0,0
469,1,0,0,0,0,0,0,0,0,0,-1,1693,1023,0,0
476,1,0,0,0,0,0,0,0,0,0,-1,1700,1023,0,0
483,1,0,0,0,0,0,0,0,0,0,-1,1707,1023,0,0
490,1,0,0,0,0,0,0,0,0,0,-1,1714,1023,0,0
497,1,0,0,0,0,0,0,0,0,0,-1,1721,1023,0,0
504,1,0,0,0,0,0,0,0,0,0,-1,1728,1023,0,0
511,1,0,0,0,0,0,0,0,0,0,-1,1735,1023,0,0
518,1,0,0,0,0,0,0,0,0,0,-1,1742,1023,0,0
525,1,0,0,0,0,0,0,0,0,0,-1,1749,1023,0,0
532,1,0,0,0,0,0,0,0,0,0,-1,1756,1023,0,0
539,1,0,0,0,0,0,0,0,0,0,-1,1763,1023,0,0
546,1,0,0,0,0,0,0,0,0,0,-1,1770,1023,0,0
553,1,0,0,0,0,0,0,0,0,0,-1,1777,1023,0,0
560,1,0,0,0,0,0,0,0,0,0,-1,1784,1023,0,0
567,1,0,0,0,0,0,0,0,0,0,-1,1791,1023,0,0
574,1,0,0,0,0,0,0,0,0,0,-1,1798,1023,0,0
581,1,0,0,0,0,0,0,0,0,0,-1,1805,1023,0,0
588,1,0,0,0,0,0,0,0,0,0,-1,1812,1023,0,0
595,1,0,0,0,0,0,0,0,0,0,-1,1819,1023,0,0
602,1,0,0,0,0,0,0,0,0,0,-1,1826,1023,0,0
609,1,0,0,0,0,0,0,0,0,0,-1,1833,1023,0,0
616,1,0,0,0,0,0,0,0,0,0,-1,1840,1023,0,0
623,1,0,0,0,0,0,0,0,0,0,-1,1847,1023,0,0
630,1,0,0,0,0,0,0,0,0,0,-1,1854,1023,0,0
637,1,0,0,0,0,0,0,0,0,0,-1,1861,1023,0,0
644,1,0,0,0,0,0,0,0,0,0,-1,1868,1023,0,0
651,1,36.2402,2.5564,0.00183857,0.00330545,0.00295379,0.0056155,-0.000471469,0.907089,0.00391031,0.0372416,1875,1023,36.2402,-2.55642
658,1,36.2571,2.62482,0.00114857,0.00221537,0.0021025,0.00385107,-0.000487132,0.909627,0.00274421,0.0396465,1882,1023,36.257,-2.62482
665,1,36.3046,2.65656,0.000603449,0.00154557,0.0016468,0.00278735,-0.000638334,0.924702,0.00210355,0.0423419,1889,1023,36.3046,-2.65656
672,1,36.2275,2.91736,0.000247387,0.00126872,0.00165788,0.0024928,-0.000976688,0.9348,0.00206588,0.0421096,1896,1023,36.2276,-2.91734
679,1,36.0511,3.12939,-7.54748e-06,0.00121136,0.00194122,0.00263655,-0.00143274,0.937503,0.00238343,0.0387368,1903,1023,36.0512,-3.12941
686,1,36.0817,2.84863,-0.000125215,0.00108756,0.00228823,0.00284838,-0.00188604,0.914922,0.00275218,0.0381524,1910,1023,36.0816,-2.84861
693,1,36.1189,2.72961,-0.000126866,0.000967871,0.00263666,0.00311338,-0.00227237,0.887744,0.00312207,0.0366888,1917,1023,36.1189,-2.7296
700,1,36.1896,2.77228,-0.000138685,0.000840885,0.00285903,0.00325177,-0.00254957,0.870231,0.00335758,0.030238,1924,1023,36.1896,-2.77226
707,1,36.1769,2.67395,-0.000285766,0.000899624,0.00298065,0.00334594,-0.00273208,0.883542,0.0035151,0.0238008,1931,1023,36.1768,-2.67396
714,1,36.198,2.71039,-0.000598779,0.00108243,0.00304766,0.00340328,-0.00291964,0.919962,0.0036541,0.024206,1938,1023,36.198,-2.71037
721,1,36.2783,2.80731,0,0,0,0,0,0,0,-1,1945,1023,36.2783,-2.80731
728,1,35.7444,5.15796,0,0,0,0,0,0,0,-1,1952,1023,35.7444,-5.15794
735,1,35.7614,5.08112,-0.001879,0.00269973,0.00272564,0.0039699,-0.00314917,1.13471,0.00411929,0.024379,1959,1023,35.7613,-5.0811
742,1,35.8553,5.08179,-0.00234315,0.00378875,0.00246146,0.00465457,-0.00320898,1.23256,0.00456552,0.0292375,1966,1023,35.8554,-5.08179
749,1,35.8711,5.14465,-0.00210692,0.00673799,0.00123102,0.00690612,-0.00227506,1.43505,0.00552096,0.0267608,1973,1023,35.8711,-5.14462
756,1,35.8949,5.17456,0.00124897,0.00902252,-0.00084758,0.00911386,0.00115763,-1.46344,0.00572915,0.019163,1980,1023,35.8949,-5.17453
763,1,35.8496,5.15863,0.00729084,0.011472,-0.00160434,0.0120166,0.00674618,-1.24352,0.00695522,0.0156019,1987,1023,35.8496,-5.15864
770,1,35.8352,5.14905,0.0151378,0.0152034,-0.00359298,0.0187637,0.0115775,-0.789957,0.0109317,0.016014,1994,1023,35.8352,-5.14903
777,1,35.6431,5.11536,0.0281864,0.0196975,-0.00569146,0.0310418,0.0168421,-0.46501,0.0179436,0.0210209,2001,1023,35.6431,-5.11534
784,1,35.4226,5.29773,0.0456402,0.0237301,-0.00766839,0.0480574,0.0213129,-0.305358,0.027805,0.038401,2008,1023,35.4226,-5.29773
791,1,35.2427,5.48694,0.0690606,0.0268658,-0.0093622,0.0710446,0.0248818,-0.208826,0.0416265,0.0463554,2015,1023,35.2426,-5.48692
798,1,35.1765,5.32642,0.100507,0.0282492,-0.0103368,0.101957,0.0267996,-0.139332,0.061032,0.04517,2022,1023,35.1765,-5.32639
805,1,35.426,5.68341,0.141659,0.0265475,-0.00971663,0.142473,0.025733,-0.0836222,0.0876726,0.0440959,2029,1023,35.4261,-5.6834
812,1,35.6067,6.02942,0.194453,0.019563,-0.00607721,0.194664,0.0193521,-0.0346929,0.12383,0.0454475,2036,1023,35.6066,-6.02942
-700,-6,0,0,0,0,0,0,0,0,0,-1,524,1030,0,0
-693,-6,-28.3306,2.94336,0,0,0,0,0,0,0,-1,531,1030,-28.3306,-2.94338
-686,-6,-28.282,2.77185,0.0144565,0.015193,0.0222847,0.0371125,-0.00746298,0.79366,0.0275681,0.0463664,538,1030,-28.282,-2.77186
-679,-6,-28.0641,2.7312,0.016407,0.0140981,0.0173795,0.0326703,-0.00216524,0.752235,0.0225367,0.048954,545,1030,-28.0642,-2.73123
-672,-6,-27.6438,2.34558,0.0157694,0.0136003,0.0137968,0.0285242,0.000845456,0.746175,0.0187406,0.0479018,552,1030,-27.6438,-2.34562
-665,-6,-27.0045,2.12317,0.013785,0.0131912,0.0110158,0.0245079,0.00246825,0.771926,0.0155812,0.0452498,559,1030,-27.0045,-2.12314
-658,-6,-26.7643,2.32361,0.0111607,0.0125748,0.00873688,0.0206332,0.0031023,0.825774,0.0128468,0.0398627,566,1030,-26.7643,-2.32363
-651,-6,-26.4814,2.36157,0.00847277,0.0115864,0.00673234,0.0169396,0.00311957,0.899021,0.0104102,0.0381783,573,1030,-26.4814,-2.36163
-644,-6,-26.2864,2.60986,0,0,0,0,0,0,0,-1,580,1030,-26.2865,-2.60987
-637,-6,-26.4496,2.51123,0.00473697,0.00846203,0.00145813,0.00896491,0.0042341,1.23869,0.00517854,0.0323489,587,1030,-26.4497,-2.51126
-630,-6,-26.5229,2.4397,0.00316296,0.00672439,-0.00109754,0.00703546,0.0028519,-1.29462,0.0040861,0.0188936,594,1030,-26.5229,-2.43975
-623,-6,-26.5062,2.45764,0.0014579,0.00498873,-0.00318754,0.00686709,-0.000420458,-1.03829,0.00472445,0.0144493,601,1030,-26.5062,-2.45766
-616,-6,-26.5351,2.45923,0.000635776,0.00395399,-0.00461732,0.00720124,-0.00261147,-0.957876,0.00586831,0.0155451,608,1030,-26.5351,-2.45919
-609,-6,-26.5122,2.51038,0.000579112,0.00255473,-0.00616051,0.00780613,-0.00467228,-0.864894,0.00727975,0.0170015,615,1030,-26.5122,-2.51043
-602,-6,-26.476,2.56445,0.000405181,0.00137932,-0.00716776,0.00807654,-0.00629204,-0.819322,0.008317,0.0126461,622,1030,-26.4759,-2.56442
-595,-6,-26.3422,2.56958,0.000498658,0.000594798,-0.00776698,0.00831385,-0.0072204,-0.788493,0.00897611,0.0193403,629,1030,-26.3421,-2.56957
-588,-6,-26.318,1.61548,0.000800387,0.000237242,-0.00805354,0.00857728,-0.00753965,-0.767924,0.00931154,0.023608,636,1030,-26.318,-1.61551
-581,-6,-26.317,0.704712,0,0,0,0,0,0,0,-1,643,1030,-26.317,-0.704734
-574,-6,-26.3794,1.03418,0.000611079,0.000476928,-0.00756422,0.00810852,-0.00702051,-0.780965,0.00874228,0.0306095,650,1030,-26.3794,-1.03423
-567,-6,-26.4235,1.20447,0.000251082,0.000921372,-0.00675982,0.00735435,-0.00618189,-0.810167,0.00782492,0.0397989,657,1030,-26.4235,-1.20441
-560,-6,-26.3952,1.21045,-0.000190003,0.0015162,-0.00573961,0.00646576,-0.00513956,-0.859175,0.0067149,0.040819,664,1030,-26.3952,-1.21049
-553,-6,-26.3349,1.00818,-0.000730806,0.00216752,-0.00467744,0.00561514,-0.00417843,-0.935619,0.00567457,0.0417452,671,1030,-26.3349,-1.00821
-546,-6,-26.2886,1.25439,-0.00131907,0.00273416,-0.00380903,0.00502215,-0.00360706,-1.02988,0.00500436,0.0422213,678,1030,-26.2886,-1.25439
-539,-6,-26.2899,1.08716,-0.00177189,0.00292242,-0.00420321,0.00538943,-0.00423889,-1.04004,0.00557213,0.0430713,685,1030,-26.2899,-1.08714
-532,-6,-26.4699,0.775635,-0.00233589,0.00428003,-0.00738427,0.00906343,-0.00711929,-0.995982,0.00936555,0.042437,692,1030,-26.4699,-0.775655
-525,-6,0,0,0,0,0,0,0,0,0,-1,699,1030,0,0
-518,-6,0,0,0,0,0,0,0,0,0,-1,706,1030,0,0
-511,-6,0,0,0,0,0,0,0,0,0,-1,713,1030,0,0
-504,-6,0,0,0,0,0,0,0,0,0,-1,720,1030,0,0
-497,-6,0,0,0,0,0,0,0,0,0,-1,727,1030,0,0
-490,-6,0,0,0,0,0,0,0,0,0,-1,734,1030,0,0
-483,-6,0,0,0,0,0,0,0,0,0,-1,741,1030,0,0
-476,-6,0,0,0,0,0,0,0,0,0,-1,748,1030,0,0
-469,-6,0,0,0,0,0,0,0,0,0,-1,755,1030,0,0
-462,-6,0,0,0,0,0,0,0,0,0,-1,762,1030,0,0
-455,-6,0,0,0,0,0,0,0,0,0,-1,769,1030,0,0
-448,-6,0,0,0,0,0,0,0,0,0,-1,776,1030,0,0
-441,-6,0,0,0,0,0,0,0,0,0,-1,783,1030,0,0
-434,-6,0,0,0,0,0,0,0,0,0,-1,790,1030,0,0
-427,-6,0,0,0,0,0,0,0,0,0,-1,797,1030,0,0
-420,-6,0,0,0,0,0,0,0,0,0,-1,804,1030,0,0
-413,-6,0,0,0,0,0,0,0,0,0,-1,811,1030,0,0
-406,-6,0,0,0,0,0,0,0,0,0,-1,818,1030,0,0
-399,-6,0,0,0,0,0,0,0,0,0,-1,825,1030,0,0
-392,-6,0,0,0,0,0,0,0,0,0,-1,832,1030,0,0
-385,-6,0,0,0,0,0,0,0,0,0,-1,839,1030,0,0
-378,-6,0,0,0,0,0,0,0,0,0,-1,846,1030,0,0
-371,-6,0,0,0,0,0,0,0,0,0,-1,853,1030,0,0
-364,-6,0,0,0,0,0,0,0,0,0,-1,860,1030,0,0
-357,-6,0,0,0,0,0,0,0,0,0,-1,867,1030,0,0
-350,-6,0,0,0,0,0,0,0,0,0,-1,874,1030,0,0
-343,-6,0,0,0,0,0,0,0,0,0,-1,881,1030,0,0
-336,-6,0,0,0,0,0,0,0,0,0,-1,888,1030,0,0
-329,-6,0,0,0,0,0,0,0,0,0,-1,895,1030,0,0
-322,-6,0,0,0,0,0,0,0,0,0,-1,902,1030,0,0
-315,-6,0,0,0,0,0,0,0,0,0,-1,909,1030,0,0
-308,-6,0,0,0,0,0,0,0,0,0,-1,916,1030,0,0
-301,-6,0,0,0,0,0,0,0,0,0,-1,923,1030,0,0
-294,-6,0,0,0,0,0,0,0,0,0,-1,930,1030,0,0
-287,-6,0,0,0,0,0,0,0,0,0,-1,937,1030,0,0
-280,-6,0,0,0,0,0,0,0,0,0,-1,944,1030,0,0
-273,-6,0,0,0,0,0,0,0,0,0,-1,951,1030,0,0
-266,-6,0,0,0,0,0,0,0,0,0,-1,958,1030,0,0
-259,-6,0,0,0,0,0,0,0,0,0,-1,965,1030,0,0
-252,-6,0,0,0,0,0,0,0,0,0,-1,972,1030,0,0
-245,-6,0,0,0,0,0,0,0,0,0,-1,979,1030,0,0
-238,-6,0,0,0,0,0,0,0,0,0,-1,986,1030,0,0
-231,-6,0,0,0,0,0,0,0,0,0,-1,993,1030,0,0
-224,-6,0,0,0,0,0,0,0,0,0,-1,1000,1030,0,0
-217,-6,0,0,0,0,0,0,0,0,0,-1,1007,1030,0,0
-210,-6,0,0,0,0,0,0,0,0,0,-1,1014,1030,0,0
-203,-6,0,0,0,0,0,0,0,0,0,-1,1021,1030,0,0
-196,-6,0,0,0,0,0,0,0,0,0,-1,1028,1030,0,0
-189,-6,0,0,0,0,0,0,0,0,0,-1,1035,1030,0,0
-182,-6,0,0,0,0,0,0,0,0,0,-1,1042,1030,0,0
-175,-6,0,0,0,0,0,0,0,0,0,-1,1049,1030,0,0
-168,-6,0,0,0,0,0,0,0,0,0,-1,1056,1030,0,0
-161,-6,0,0,0,0,0,0,0,0,0,-1,1063,1030,0,0
-154,-6,0,0,0,0,0,0,0,0,0,-1,1070,1030,0,0
-147,-6,0,0,0,0,0,0,0,0,0,-1,1077,1030,0,0
-140,-6,0,0,0,0,0,0,0,0,0,-1,1084,1030,0,0
-133,-6,0,0,0,0,0,0,0,0,0,-1,1091,1030,0,0
-126,-6,0,0,0,0,0,0,0,0,0,-1,1098,1030,0,0
-119,-6,0,0,0,0,0,0,0,0,0,-1,1105,1030,0,0
-112,-6,0,0,0,0,0,0,0,0,0,-1,1112,1030,0,0
-105,-6,0,0,0,0,0,0,0,0,0,-1,1119,1030,0,0
-98,-6,0,0,0,0,0,0,0,0,0,-1,1126,1030,0,0
-91,-6,0,0,0,0,0,0,0,0,0,-1,1133,1030,0,0
-84,-6,0,0,0,0,0,0,0,0,0,-1,1140,1030,0,0
-77,-6,0,0,0,0,0,0,0,0,0,-1,1147,1030,0,0
-70,-6,0,0,0,0,0,0,0,0,0,-1,1154,1030,0,0
-63,-6,0,0,0,0,0,0,0,0,0,-1,1161,1030,0,0
-56,-6,0,0,0,0,0,0,0,0,0,-1,1168,1030,0,0
-49,-6,0,0,0,0,0,0,0,0,0,-1,1175,1030,0,0
-42,-6,0,0,0,0,0,0,0,0,0,-1,1182,1030,0,0
-35,-6,0,0,0,0,0,0,0,0,0,-1,1189,1030,0,0
-28,-6,0,0,0,0,0,0,0,0,0,-1,1196,1030,0,0
-21,-6,0,0,0,0,0,0,0,0,0,-1,1203,1030,0,0
-14,-6,0,0,0,0,0,0,0,0,0,-1,1210,1030,0,0
-7,-6,0,0,0,0,0,0,0,0,0,-1,1217,1030,0,0
0,-6,0,0,0,0,0,0,0,0,0,-1,1224,1030,0,0
7,-6,0,0,0,0,0,0,0,0,0,-1,1231,1030,0,0
14,-6,0,0,0,0,0,0,0,0,0,-1,1238,1030,0,0
21,-6,0,0,0,0,0,0,0,0,0,-1,1245,1030,0,0
28,-6,0,0,0,0,0,0,0,0,0,-1,1252,1030,0,0
35,-6,0,0,0,0,0,0,0,0,0,-1,1259,1030,0,0
42,-6,0,0,0,0,0,0,0,0,0,-1,1266,1030,0,0
49,-6,0,0,0,0,0,0,0,0,0,-1,1273,1030,0,0
56,-6,0,0,0,0,0,0,0,0,0,-1,1280,1030,0,0
63,-6,0,0,0,0,0,0,0,0,0,-1,1287,1030,0,0
70,-6,0,0,0,0,0,0,0,0,0,-1,1294,1030,0,0
77,-6,0,0,0,0,0,0,0,0,0,-1,1301,1030,0,0
84,-6,0,0,0,0,0,0,0,0,0,-1,1308,1030,0,0
91,-6,0,0,0,0,0,0,0,0,0,-1,1315,1030,0,0
98,-6,0,0,0,0,0,0,0,0,0,-1,1322,1030,0,0
105,-6,0,0,0,0,0,0,0,0,0,-1,1329,1030,0,0
112,-6,0,0,0,0,0,0,0,0,0,-1,1336,1030,0,0
119,-6,0,0,0,0,0,0,0,0,0,-1,1343,1030,0,0
126,-6,0,0,0,0,0,0,0,0,0,-1,1350,1030,0,0
133,-6,0,0,0,0,0,0,0,0,0,-1,1357,1030,0,0
140,-6,0,0,0,0,0,0,0,0,0,-1,1364,1030,0,0
147,-6,0,0,0,0,0,0,0,0,0,-1,1371,1030,0,0
154,-6,0,0,0,0,0,0,0,0,0,-1,1378,1030,0,0
161,-6,0,0,0,0,0,0,0,0,0,-1,1385,1030,0,0
168,-6,0,0,0,0,0,0,0,0,0,-1,1392,1030,0,0
175,-6,0,0,0,0,0,0,0,0,0,-1,1399,1030,0,0
182,-6,0,0,0,0,0,0,0,0,0,-1,1406,1030,0,0
189,-6,0,0,0,0,0,0,0,0,0,-1,1413,1030,0,0
196,-6,0,0,0,0,0,0,0,0,0,-1,1420,1030,0,0
203,-6,0,0,0,0,0,0,0,0,0,-1,1427,1030,0,0
210,-6,0,0,0,0,0,0,0,0,0,-1,1434,1030,0,0
217,-6,0,0,0,0,0,0,0,0,0,-1,1441,1030,0,0
224,-6,0,0,0,0,0,0,0,0,0,-1,1448,1030,0,0
231,-6,0,0,0,0,0,0,0,0,0,-1,1455,1030,0,0
238,-6,0,0,0,0,0,0,0,0,0,-1,1462,1030,0,0
245,-6,0,0,0,0,0,0,0,0,0,-1,1469,1030,0,0
252,-6,0,0,0,0,0,0,0,0,0,-1,1476,1030,0,0
259,-6,0,0,0,0,0,0,0,0,0,-1,1483,1030,0,0
266,-6,0,0,0,0,0,0,0,0,0,-1,1490,1030,0,0
273,-6,0,0,0,0,0,0,0,0,0,-1,1497,1030,0,0
280,-6,0,0,0,0,0,0,0,0,0,-1,1504,1030,0,0
287,-6,0,0,0,0,0,0,0,0,0,-1,1511,1030,0,0
294,-6,0,0,0,0,0,0,0,0,0,-1,1518,1030,0,0
301,-6,0,0,0,0,0,0,0,0,0,-1,1525,1030,0,0
308,-6,0,0,0,0,0,0,0,0,0,-1,1532,1030,0,0
315,-6,0,0,0,0,0,0,0,0,0,-1,1539,1030,0,0
322,-6,0,0,0,0,0,0,0,0,0,-1,1546,1030,0,0
329,-6,0,0,0,0,0,0,0,0,0,-1,1553,1030,0,0
336,-6,0,0,0,0,0,0,0,0,0,-1,1560,1030,0,0
343,-6,0,0,0,0,0,0,0,0,0,-1,1567,1030,0,0
350,-6,0,0,0,0,0,0,0,0,0,-1,1574,1030,0,0
357,-6,0,0,0,0,0,0,0,0,0,-1,1581,1030,0,0
364,-6,0,0,0,0,0,0,0,0,0,-1,1588,1030,0,0
371,-6,0,0,0,0,0,0,0,0,0,-1,1595,1030,0,0
378,-6,0,0,0,0,0,0,0,0,0,-1,1602,1030,0,0
385,-6,0,0,0,0,0,0,0,0,0,-1,1609,1030,0,0
392,-6,0,0,0,0,0,0,0,0,0,-1,1616,1030,0,0
399,-6,0,0,0,0,0,0,0,0,0,-1,1623,1030,0,0
406,-6,0,0,0,0,0,0,0,0,0,-1,1630,1030,0,0
413,-6,0,0,0,0,0,0,0,0,0,-1,1637,1030,0,0
420,-6,0,0,0,0,0,0,0,0,0,-1,1644,1030,0,0
427,-6,0,0,0,0,0,0,0,0,0,-1,1651,1030,0,0
434,-6,0,0,0,0,0,0,0,0,0,-1,1658,1030,0,0
441,-6,0,0,0,0,0,0,0,0,0,-1,1665,1030,0,0
448,-6,0,0,0,0,0,0,0,0,0,-1,1672,1030,0,0
455,-6,0,0,0,0,0,0,0,0,0,-1,1679,1030,0,0
462,-6,0,0,0,0,0,0,0,0,0,-1,1686,1030,0,0
469,-6,0,0,0,0,0,0,0,0,0,-1,1693,1030,0,0
476,-6,0,0,0,0,0,0,0,0,0,-1,1700,1030,0,0
483,-6,0,0,0,0,0,0,0,0,0,-1,1707,1030,0,0
490,-6,0,0,0,0,0,0,0,0,0,-1,1714,1030,0,0
497,-6,0,0,0,0,0,0,0,0,0,-1,1721,1030,0,0
504,-6,0,0,0,0,0,0,0,0,0,-1,1728,1030,0,0
511,-6,0,0,0,0,0,0,0,0,0,-1,1735,1030,0,0
518,-6,0,0,0,0,0,0,0,0,0,-1,1742,1030,0,0
525,-6,0,0,0,0,0,0,0,0,0,-1,1749,1030,0,0
532,-6,0,0,0,0,0,0,0,0,0,-1,1756,1030,0,0
539,-6,0,0,0,0,0,0,0,0,0,-1,1763,1030,0,0
546,-6,0,0,0,0,0,0,0,0,0,-1,1770,1030,0,0
553,-6,0,0,0,0,0,0,0,0,0,-1,1777,1030,0,0
560,-6,0,0,0,0,0,0,0,0,0,-1,1784,1030,0,0
567,-6,0,0,0,0,0,0,0,0,0,-1,1791,1030,0,0
574,-6,0,0,0,0,0,0,0,0,0,-1,1798,1030,0,0
581,-6,0,0,0,0,0,0,0,0,0,-1,1805,1030,0,0
588,-6,0,0,0,0,0,0,0,0,0,-1,1812,1030,0,0
595,-6,0,0,0,0,0,0,0,0,0,-1,1819,1030,0,0
602,-6,0,0,0,0,0,0,0,0,0,-1,1826,1030,0,0
609,-6,0,0,0,0,0,0,0,0,0,-1,1833,1030,0,0
616,-6,0,0,0,0,0,0,0,0,0,-1,1840,1030,0,0
623,-6,0,0,0,0,0,0,0,0,0,-1,1847,1030,0,0
630,-6,0,0,0,0,0,0,0,0,0,-1,1854,1030,0,0
637,-6,0,0,0,0,0,0,0,0,0,-1,1861,1030,0,0
644,-6,0,0,0,0,0,0,0,0,0,-1,1868,1030,0,0
651,-6,36.2728,2.74841,0.000336077,0.00289322,0.00309723,0.00496541,-0.00173611,0.981149,0.00401607,0.0358064,1875,1030,36.2728,-2.74838
658,-6,36.3274,2.69495,5.04591e-05,0.00214839,0.00226764,0.00359793,-0.00139908,1.00203,0.00297667,0.0421595,1882,1030,36.3274,-2.69493
665,-6,36.4124,2.58643,-0.000156906,0.00167704,0.00175303,0.00273844,-0.00121831,1.02637,0.00233995,0.0463885,1889,1030,36.4124,-2.58647
672,-6,36.2861,2.78223,-0.000219486,0.00143869,0.00169026,0.00249225,-0.00127305,1.01341,0.00221156,0.0436343,1896,1030,36.2861,-2.78223
679,-6,36.1005,2.92188,-0.000202746,0.00130462,0.0019024,0.0025972,-0.00149532,0.974,0.00239119,0.0423798,1903,1030,36.1004,-2.92192
686,-6,36.1072,2.8219,-0.000165076,0.00105546,0.00220398,0.0027321,-0.00184172,0.920461,0.00265732,0.0395266,1910,1030,36.1072,-2.82192
693,-6,36.2429,2.69739,-7.88825e-05,0.000788616,0.00253089,0.00292266,-0.00221292,0.870265,0.00297445,0.0368962,1917,1030,36.2429,-2.69743
700,-6,36.2772,2.77832,-3.1411e-05,0.000541435,0.00275308,0.00302295,-0.00251292,0.83723,0.00320065,0.0301024,1924,1030,36.2772,-2.77832
707,-6,36.2134,2.73694,-0.000140532,0.000510783,0.00288696,0.00309039,-0.00272014,0.841562,0.00335698,0.0256358,1931,1030,36.2134,-2.73699
714,-6,36.1593,2.82227,-0.000417449,0.000625501,0.00296972,0.00311918,-0.00291113,0.872311,0.00348229,0.0307616,1938,1030,36.1593,-2.82223
721,-6,36.1965,2.96167,0,0,0,0,0,0,0,-1,1945,1030,36.1965,-2.96173
728,-6,35.7395,5.12732,0,0,0,0,0,0,0,-1,1952,1030,35.7395,-5.12727
735,-6,35.7944,5.07202,-0.00177885,0.0020884,0.0026669,0.0034489,-0.00313935,1.09907,0.00380512,0.0252662,1959,1030,35.7944,-5.07199
742,-6,35.8824,5.06396,-0.00226914,0.00317729,0.00237648,0.00406843,-0.00316028,1.21204,0.00418446,0.0229631,1966,1030,35.8824,-5.06396
749,-6,35.8505,5.15027,-0.00207632,0.00567072,0.00119377,0.0058505,-0.0022561,1.42132,0.00483127,0.0199217,1973,1030,35.8505,-5.15031
756,-6,35.8757,5.09985,0.000820064,0.00765543,-0.000765565,0.00774012,0.00073537,-1.46061,0.00493326,0.0174159,1980,1030,35.8757,-5.0998
763,-6,35.8289,5.05627,0.00602086,0.00975235,-0.00159858,0.0103435,0.00542968,-1.21658,0.00597431,0.0162083,1987,1030,35.8289,-5.05623
770,-6,35.7891,5.04907,0.0128907,0.0128283,-0.00359114,0.0164507,0.00926821,-0.781058,0.00952325,0.0139336,1994,1030,35.789,-5.04908
777,-6,35.7122,5.05066,0.0244251,0.0162886,-0.00573385,0.0273873,0.0133263,-0.476855,0.015814,0.0146976,2001,1030,35.7122,-5.05068
784,-6,35.5461,5.27466,0.039919,0.0190801,-0.00773425,0.0424758,0.0165233,-0.319273,0.024724,0.0336219,2008,1030,35.5461,-5.2746
791,-6,35.4937,5.45886,0.0606607,0.0207689,-0.00948788,0.0628023,0.0186273,-0.222002,0.0372455,0.044279,2015,1030,35.4937,-5.45882
798,-6,35.5623,5.46375,0.0885907,0.0204963,-0.010603,0.0902035,0.0188835,-0.150951,0.0549339,0.0439538,2022,1030,35.5623,-5.46375
805,-6,35.6135,5.50403,0,0,0,0,0,0,0,-1,2029,1030,35.6135,-5.50406
812,-6,36.1873,6.30383,0,0,0,0,0,0,0,-1,2036,1030,36.1872,-6.30381
-700,-13,0,0,0,0,0,0,0,0,0,-1,524,1037,0,0
-693,-13,-28.2456,3.32275,0,0,0,0,0,0,0,-1,531,1037,-28.2456,-3.32275
-686,-13,-28.2985,3.10645,0.0171526,0.00779156,0.014105,0.0273334,-0.00238924,0.625198,0.0190687,0.0450883,538,1037,-28.2985,-3.10647
-679,-13,-28.092,2.94543,0.0189749,0.00793885,0.0098734,0.0247676,0.00214615,0.530581,0.0158449,0.0485276,545,1037,-28.0921,-2.94547
-672,-13,-27.5182,2.56213,0.0182378,0.00852859,0.00713406,0.0220123,0.00475405,0.486646,0.0133749,0.048273,552,1037,-27.5183,-2.56213
-665,-13,-27.1985,2.17957,0,0,0,0,0,0,0,-1,559,1037,-27.1985,-2.17958
-658,-13,-26.6848,1.98145,0.0132571,0.00932922,0.00400351,0.0157524,0.00683388,0.557366,0.00912119,0.0473911,566,1037,-26.6847,-1.98147
-651,-13,-26.3316,2.08191,0.0102771,0.00907786,0.00295433,0.012692,0.0066629,0.68528,0.00733079,0.0433481,573,1037,-26.3316,-2.08187
-644,-13,-26.2935,2.22827,0.00779678,0.00824561,0.00150817,0.00954597,0.00649641,0.859255,0.00562985,0.0292107,580,1037,-26.2935,-2.22825
-637,-13,-26.353,2.32434,0.00576487,0.00715039,-0.000633379,0.00739629,0.00551897,-1.20047,0.00443943,0.0209534,587,1037,-26.353,-2.32434
-630,-13,-26.4399,2.33789,0.00383157,0.00577141,-0.00248307,0.00746727,0.00213571,-0.971593,0.00444089,0.0137528,594,1037,-26.44,-2.33795
-623,-13,-26.4462,2.41724,0.00190378,0.00429577,-0.00404963,0.00732232,-0.00112277,-0.928984,0.00529563,0.0124474,601,1037,-26.4462,-2.41726
-616,-13,-26.4368,2.4845,0.000867149,0.00334695,-0.00516424,0.00741805,-0.00320395,-0.903215,0.00629143,0.0116706,608,1037,-26.4368,-2.48448
-609,-13,-26.4184,2.52466,0.000654142,0.00204644,-0.00650667,0.00789409,-0.00519351,-0.838691,0.00760957,0.0156784,615,1037,-26.4184,-2.5246
-602,-13,-26.4122,2.59998,0.000347425,0.000964061,-0.00735972,0.00802192,-0.00671043,-0.806332,0.00851696,0.0106138,622,1037,-26.4122,-2.59993
-595,-13,-26.4199,2.65527,0,0,0,0,0,0,0,-1,629,1037,-26.4199,-2.65524
-588,-13,-26.1392,1.54065,0,0,0,0,0,0,0,-1,636,1037,-26.1392,-1.54067
-581,-13,-26.2085,0.331055,0,0,0,0,0,0,0,-1,643,1037,-26.2085,-0.33102
-574,-13,-26.2397,0.899536,0.000424498,0.000306551,-0.007735,0.00810075,-0.0073697,-0.781586,0.00893519,0.0323355,650,1037,-26.2397,-0.899505
-567,-13,-26.3695,1.06995,0.000105198,0.000777649,-0.00702037,0.00746984,-0.006587,-0.809326,0.00812105,0.0403904,657,1037,-26.3695,-1.06994
-560,-13,-26.3773,1.05115,-0.000286504,0.00139927,-0.00611068,0.00672492,-0.00561215,-0.853934,0.00713246,0.0431855,664,1037,-26.3773,-1.05116
-553,-13,-26.1922,0.827026,-0.00076163,0.00206075,-0.00518728,0.00602537,-0.00472625,-0.918208,0.00622254,0.04206,671,1037,-26.1922,-0.827054
-546,-13,-26.3048,0.853882,-0.00127846,0.0025882,-0.00449981,0.00555242,-0.00424268,-0.988298,0.00567203,0.0377769,678,1037,-26.3048,-0.853903
-539,-13,-26.3426,0.813843,-0.0016921,0.00259055,-0.00522757,0.00609836,-0.00519991,-0.979785,0.00652993,0.0392384,685,1037,-26.3426,-0.813858
-532,-13,-26.4274,0.633301,-0.00225676,0.00349881,-0.00897981,0.0100507,-0.00880864,-0.940464,0.0108963,0.0421326,692,1037,-26.4274,-0.633334
-525,-13,0,0,0,0,0,0,0,0,0,-1,699,1037,0,0
-518,-13,0,0,0,0,0,0,0,0,0,-1,706,1037,0,0
-511,-13,0,0,0,0,0,0,0,0,0,-1,713,1037,0,0
-504,-13,0,0,0,0,0,0,0,0,0,-1,720,1037,0,0
-497,-13,0,0,0,0,0,0,0,0,0,-1,727,1037,0,0
-490,-13,0,0,0,0,0,0,0,0,0,-1,734,1037,0,0
-483,-13,0,0,0,0,0,0,0,0,0,-1,741,1037,0,0
-476,-13,0,0,0,0,0,0,0,0,0,-1,748,1037,0,0
-469,-13,0,0,0,0,0,0,0,0,0,-1,755,1037,0,0
-462,-13,0,0,0,0,0,0,0,0,0,-1,762,1037,0,0
-455,-13,0,0,0,0,0,0,0,0,0,-1,769,1037,0,0
-448,-13,0,0,0,0,0,0,0,0,0,-1,776,1037,0,0
-441,-13,0,0,0,0,0,0,0,0,0,-1,783,1037,0,0
-434,-13,0,0,0,0,0,0,0,0,0,-1,790,1037,0,0
-427,-13,0,0,0,0,0,0,0,0,0,-1,797,1037,0,0
-420,-13,0,0,0,0,0,0,0,0,0,-1,804,1037,0,0
-413,-13,0,0,0,0,0,0,0,0,0,-1,811,1037,0,0
-406,-13,0,0,0,0,0,0,0,0,0,-1,818,1037,0,0
-399,-13,0,0,0,0,0,0,0,0,0,-1,825,1037,0,0
-392,-13,0,0,0,0,0,0,0,0,0,-1,832,1037,0,0
-385,-13,0,0,0,0,0,0,0,0,0,-1,839,1037,0,0
-378,-13,0,0,0,0,0,0,0,0,0,-1,846,1037,0,0
-371,-13,0,0,0,0,0,0,0,0,0,-1,853,1037,0,0
-364,-13,0,0,0,0,0,0,0,0,0,-1,860,1037,0,0
-357,-13,0,0,0,0,0,0,0,0,0,-1,867,1037,0,0
-350,-13,0,0,0,0,0,0,0,0,0,-1,874,1037,0,0
-343,-13,0,0,0,0,0,0,0,0,0,-1,881,1037,0,0
-336,-13,0,0,0,0,0,0,0,0,0,-1,888,1037,0,0
-329,-13,0,0,0,0,0,0,0,0,0,-1,895,1037,0,0
-322,-13,0,0,0,0,0,0,0,0,0,-1,902,1037,0,0
-315,-13,0,0,0,0,0,0,0,0,0,-1,909,1037,0,0
-308,-13,0,0,0,0,0,0,0,0,0,-1,916,1037,0,0
-301,-13,0,0,0,0,0,0,0,0,0,-1,923,1037,0,0
-294,-13,0,0,0,0,0,0,0,0,0,-1,930,1037,0,0
-287,-13,0,0,0,0,0,0,0,0,0,-1,937,1037,0,0
-280,-13,0,0,0,0,0,0,0,0,0,-1,944,1037,0,0
-273,-13,0,0,0,0,0,0,0,0,0,-1,951,1037,0,0
-266,-13,0,0,0,0,0,0,0,0,0,-1,958,1037,0,0
-259,-13,0,0,0,0,0,0,0,0,0,-1,965,1037,0,0
-252,-13,0,0,0,0,0,0,0,0,0,-1,972,1037,0,0
-245,-13,0,0,0,0,0,0,0,0,0,-1,979,1037,0,0
-238,-13,0,0,0,0,0,0,0,0,0,-1,986,1037,0,0
-231,-13,0,0,0,0,0,0,0,0,0,-1,993,1037,0,0
-224,-13,0,0,0,0,0,0,0,0,0,-1,1000,1037,0,0
-217,-13,0,0,0,0,0,0,0,0,0,-1,1007,1037,0,0
-210,-13,0,0,0,0,0,0,0,0,0,-1,1014,1037,0,0
-203,-13,0,0,0,0,0,0,0,0,0,-1,1021,1037,0,0
-196,-13,0,0,0,0,0,0,0,0,0,-1,1028,1037,0,0
-189,-13,0,0,0,0,0,0,0,0,0,-1,1035,1037,0,0
-182,-13,0,0,0,0,0,0,0,0,0,-1,1042,1037,0,0
-175,-13,0,0,0,0,0,0,0,0,0,-1,1049,1037,0,0
-168,-13,0,0,0,0,0,0,0,0,0,-1,1056,1037,0,0
-161,-13,0,0,0,0,0,0,0,0,0,-1,1063,1037,0,0
-154,-13,0,0,0,0,0,0,0,0,0,-1,1070,1037,0,0
-147,-13,0,0,0,0,0,0,0,0,0,-1,1077,1037,0,0
-140,-13,0,0,0,0,0,0,0,0,0,-1,1084,1037,0,0
-133,-13,0,0,0,0,0,0,0,0,0,-1,1091,1037,0,0
-126,-13,0,0,0,0,0,0,0,0,0,-1,1098,1037,0,0
-119,-13,0,0,0,0,0,0,0,0,0,-1,1105,1037,0,0
-112,-13,0,0,0,0,0,0,0,0,0,-1,1112,1037,0,0
-105,-13,0,0,0,0,0,0,0,0,0,-1,1119,1037,0,0
-98,-13,0,0,0,0,0,0,0,0,0,-1,1126,1037,0,0
-91,-13,0,0,0,0,0,0,0,0,0,-1,1133,1037,0,0
-84,-13,0,0,0,0,0,0,0,0,0,-1,1140,1037,0,0
-77,-13,0,0,0,0,0,0,0,0,0,-1,1147,1037,0,0
-70,-13,0,0,0,0,0,0,0,0,0,-1,1154,1037,0,0
-63,-13,0,0,0,0,0,0,0,0,0,-1,1161,1037,0,0
-56,-13,0,0,0,0,0,0,0,0,0,-1,1168,1037,0,0
-49,-13,0,0,0,0,0,0,0,0,0,-1,1175,1037,0,0
-42,-13,0,0,0,0,0,0,0,0,0,-1,1182,1037,0,0
-35,-13,0,0,0,0,0,0,0,0,0,-1,1189,1037,0,0
-28,-13,0,0,0,0,0,0,0,0,0,-1,1196,1037,0,0
-21,-13,0,0,0,0,0,0,0,0,0,-1,1203,1037,0,0
-14,-13,0,0,0,0,0,0,0,0,0,-1,1210,1037,0,0
-7,-13,0,0,0,0,0,0,0,0,0,-1,1217,1037,0,0
0,-13,0,0,0,0,0,0,0,0,0,-1,1224,1037,0,0
7,-13,0,0,0,0,0,0,0,0,0,-1,1231,1037,0,0
14,-13,0,0,0,0,0,0,0,0,0,-1,1238,1037,0,0
21,-13,0,0,0,0,0,0,0,0,0,-1,1245,1037,0,0
28,-13,0,0,0,0,0,0,0,0,0,-1,1252,1037,0,0
35,-13,0,0,0,0,0,0,0,0,0,-1,1259,1037,0,0
42,-13,0,0,0,0,0,0,0,0,0,-1,1266,1037,0,0
49,-13,0,0,0,0,0,0,0,0,0,-1,1273,1037,0,0
56,-13,0,0,0,0,0,0,0,0,0,-1,1280,1037,0,0
63,-13,0,0,0,0,0,0,0,0,0,-1,1287,1037,0,0
70,-13,0,0,0,0,0,0,0,0,0,-1,1294,1037,0,0
77,-13,0,0,0,0,0,0,0,0,0,-1,1301,1037,0,0
84,-13,0,0,0,0,0,0,0,0,0,-1,1308,1037,0,0
91,-13,0,0,0,0,0,0,0,0,0,-1,1315,1037,0,0
98,-13,0,0,0,0,0,0,0,0,0,-1,1322,1037,0,0
105,-13,0,0,0,0,0,0,0,0,0,-1,1329,1037,0,0
112,-13,0,0,0,0,0,0,0,0,0,-1,1336,1037,0,0
119,-13,0,0,0,0,0,0,0,0,0,-1,1343,1037,0,0
126,-13,0,0,0,0,0,0,0,0,0,-1,1350,1037,0,0
133,-13,0,0,0,0,0,0,0,0,0,-1,1357,1037,0,0
140,-13,0,0,0,0,0,0,0,0,0,-1,1364,1037,0,0
147,-13,0,0,0,0,0,0,0,0,0,-1,1371,1037,0,0
154,-13,0,0,0,0,0,0,0,0,0,-1,1378,1037,0,0
161,-13,0,0,0,0,0,0,0,0,0,-1,1385,1037,0,0
168,-13,0,0,0,0,0,0,0,0,0,-1,1392,1037,0,0
175,-13,0,0,0,0,0,0,0,0,0,-1,1399,1037,0,0
182,-13,0,0,0,0,0,0,0,0,0,-1,1406,1037,0,0
189,-13,0,0,0,0,0,0,0,0,0,-1,1413,1037,0,0
196,-13,0,0,0,0,0,0,0,0,0,-1,1420,1037,0,0
203,-13,0,0,0,0,0,0,0,0,0,-1,1427,1037,0,0
210,-13,0,0,0,0,0,0,0,0,0,-1,1434,1037,0,0
217,-13,0,0,0,0,0,0,0,0,0,-1,1441,1037,0,0
224,-13,0,0,0,0,0,0,0,0,0,-1,1448,1037,0,0
231,-13,0,0,0,0,0,0,0,0,0,-1,1455,1037,0,0
238,-13,0,0,0,0,0,0,0,0,0,-1,1462,1037,0,0
245,-13,0,0,0,0,0,0,0,0,0,-1,1469,1037,0,0
252,-13,0,0,0,0,0,0,0,0,0,-1,1476,1037,0,0
259,-13,0,0,0,0,0,0,0,0,0,-1,1483,1037,0,0
266,-13,0,0,0,0,0,0,0,0,0,-1,1490,1037,0,0
273,-13,0,0,0,0,0,0,0,0,0,-1,1497,1037,0,0
280,-13,0,0,0,0,0,0,0,0,0,-1,1504,1037,0,0
287,-13,0,0,0,0,0,0,0,0,0,-1,1511,1037,0,0
294,-13,0,0,0,0,0,0,0,0,0,-1,1518,1037,0,0
301,-13,0,0,0,0,0,0,0,0,0,-1,1525,1037,0,0
308,-13,0,0,0,0,0,0,0,0,0,-1,1532,1037,0,0
315,-13,0,0,0,0,0,0,0,0,0,-1,1539,1037,0,0
322,-13,0,0,0,0,0,0,0,0,0,-1,1546,1037,0,0
329,-13,0,0,0,0,0,0,0,0,0,-1,1553,1037,0,0
336,-13,0,0,0,0,0,0,0,0,0,-1,1560,1037,0,0
343,-13,0,0,0,0,0,0,0,0,0,-1,1567,1037,0,0
350,-13,0,0,0,0,0,0,0,0,0,-1,1574,1037,0,0
357,-13,0,0,0,0,0,0,0,0,0,-1,1581,1037,0,0
364,-13,0,0,0,0,0,0,0,0,0,-1,1588,1037,0,0
371,-13,0,0,0,0,0,0,0,0,0,-1,1595,1037,0,0
378,-13,0,0,0,0,0,0,0,0,0,-1,1602,1037,0,0
385,-13,0,0,0,0,0,0,0,0,0,-1,1609,1037,0,0
392,-13,0,0,0,0,0,0,0,0,0,-1,1616,1037,0,0
399,-13,0,0,0,0,0,0,0,0,0,-1,1623,1037,0,0
406,-13,0,0,0,0,0,0,0,0,0,-1,1630,1037,0,0
413,-13,0,0,0,0,0,0,0,0,0,-1,1637,1037,0,0
420,-13,0,0,0,0,0,0,0,0,0,-1,1644,1037,0,0
427,-13,0,0,0,0,0,0,0,0,0,-1,1651,1037,0,0
434,-13,0,0,0,0,0,0,0,0,0,-1,1658,1037,0,0
441,-13,0,0,0,0,0,0,0,0,0,-1,1665,1037,0,0
448,-13,0,0,0,0,0,0,0,0,0,-1,1672,1037,0,0
455,-13,0,0,0,0,0,0,0,0,0,-1,1679,1037,0,0
462,-13,0,0,0,0,0,0,0,0,0,-1,1686,1037,0,0
469,-13,0,0,0,0,0,0,0,0,0,-1,1693,1037,0,0
476,-13,0,0,0,0,0,0,0,0,0,-1,1700,1037,0,0
483,-13,0,0,0,0,0,0,0,0,0,-1,1707,1037,0,0
490,-13,0,0,0,0,0,0,0,0,0,-1,1714,1037,0,0
497,-13,0,0,0,0,0,0,0,0,0,-1,1721,1037,0,0
504,-13,0,0,0,0,0,0,0,0,0,-1,1728,1037,0,0
511,-13,0,0,0,0,0,0,0,0,0,-1,1735,1037,0,0
518,-13,0,0,0,0,0,0,0,0,0,-1,1742,1037,0,0
525,-13,0,0,0,0,0,0,0,0,0,-1,1749,1037,0,0
532,-13,0,0,0,0,0,0,0,0,0,-1,1756,1037,0,0
539,-13,0,0,0,0,0,0,0,0,0,-1,1763,1037,0,0
546,-13,0,0,0,0,0,0,0,0,0,-1,1770,1037,0,0
553,-13,0,0,0,0,0,0,0,0,0,-1,1777,1037,0,0
560,-13,0,0,0,0,0,0,0,0,0,-1,1784,1037,0,0
567,-13,0,0,0,0,0,0,0,0,0,-1,1791,1037,0,0
574,-13,0,0,0,0,0,0,0,0,0,-1,1798,1037,0,0
581,-13,0,0,0,0,0,0,0,0,0,-1,1805,1037,0,0
588,-13,0,0,0,0,0,0,0,0,0,-1,1812,1037,0,0
595,-13,0,0,0,0,0,0,0,0,0,-1,1819,1037,0,0
602,-13,0,0,0,0,0,0,0,0,0,-1,1826,1037,0,0
609,-13,0,0,0,0,0,0,0,0,0,-1,1833,1037,0,0
616,-13,0,0,0,0,0,0,0,0,0,-1,1840,1037,0,0
623,-13,0,0,0,0,0,0,0,0,0,-1,1847,1037,0,0
630,-13,0,0,0,0,0,0,0,0,0,-1,1854,1037,0,0
637,-13,0,0,0,0,0,0,0,0,0,-1,1861,1037,0,0
644,-13,0,0,0,0,0,0,0,0,0,-1,1868,1037,0,0
651,-13,36.2412,2.64404,-0.000943638,0.0030103,0.00282086,0.00447799,-0.00241132,1.09104,0.00403676,0.0376024,1875,1037,36.2412,-2.64402
658,-13,36.3451,2.56445,-0.000796057,0.00253281,0.00205669,0.00351418,-0.00177743,1.12558,0.00310948,0.0458971,1882,1037,36.345,-2.56448
665,-13,36.3619,2.6637,-0.000674983,0.00218657,0.00156268,0.00287454,-0.00136295,1.15608,0.00249786,0.0477511,1889,1037,36.3619,-2.66374
672,-13,36.2996,2.73621,-0.000482759,0.00194917,0.0015224,0.00268161,-0.00121519,1.12238,0.00230231,0.0397643,1896,1037,36.2995,-2.73616
679,-13,36.1215,2.82935,-0.000237332,0.00170752,0.00177207,0.00275645,-0.00128626,1.03634,0.00238495,0.0399828,1903,1037,36.1214,-2.82933
686,-13,36.0513,2.80688,-8.37304e-05,0.00131209,0.0021145,0.00284088,-0.00161252,0.944799,0.00260357,0.0418128,1910,1037,36.0512,-2.80689
693,-13,36.1622,2.69604,4.88721e-05,0.00088241,0.00247925,0.00297968,-0.00204839,0.868671,0.00291951,0.0388203,1917,1037,36.1622,-2.69601
700,-13,36.3069,2.7085,0.000115007,0.00050754,0.00274423,0.00306251,-0.00243996,0.821097,0.00318362,0.0353076,1924,1037,36.3068,-2.70851
707,-13,36.252,2.74231,1.96309e-05,0.000363658,0.00291314,0.00310985,-0.00272657,0.814888,0.00337208,0.0300659,1931,1037,36.252,-2.74232
714,-13,36.1671,2.94299,-0.00023482,0.000385999,0.0030193,0.0031108,-0.00295962,0.836622,0.00350513,0.0270209,1938,1037,36.1672,-2.943
721,-13,36.1344,3.1405,0,0,0,0,0,0,0,-1,1945,1037,36.1344,-3.14051
728,-13,35.8748,5.16443,0,0,0,0,0,0,0,-1,1952,1037,35.8748,-5.16447
735,-13,35.8477,5.16028,-0.00165267,0.00162573,0.00274848,0.00318671,-0.00321364,1.05428,0.00369526,0.0222446,1959,1037,35.8477,-5.16024
742,-13,35.8423,5.14148,-0.0021082,0.00266742,0.00243267,0.00368835,-0.00312913,1.17344,0.00394048,0.0145642,1966,1037,35.8422,-5.14153
749,-13,35.8545,5.0979,-0.00189268,0.00472266,0.00127786,0.00496092,-0.00213094,1.38646,0.00420175,0.0200425,1973,1037,35.8544,-5.09792
756,-13,35.8346,5.06775,0.000572182,0.00638054,-0.000574997,0.00643692,0.000515807,-1.47307,0.00413009,0.0153859,1980,1037,35.8346,-5.06778
763,-13,35.8309,5.02893,0.00491658,0.00811805,-0.0015069,0.00871575,0.00431888,-1.19319,0.00503211,0.0186735,1987,1037,35.8309,-5.02893
770,-13,35.7845,5.00427,0.0107726,0.0105444,-0.00352168,0.014182,0.00713495,-0.769201,0.00818804,0.0164229,1994,1037,35.7846,-5.00421
777,-13,35.6937,4.95105,0.0206541,0.0130641,-0.00574866,0.0237474,0.00997073,-0.493656,0.0137692,0.0130346,2001,1037,35.6938,-4.95104
784,-13,35.6842,4.90356,0.0339496,0.0147605,-0.0078605,0.0367584,0.0119517,-0.343189,0.0216507,0.0287739,2008,1037,35.6842,-4.90362
791,-13,35.7637,4.90381,0.0516771,0.0152577,-0.00984076,0.054166,0.0127687,-0.247726,0.0326964,0.0468795,2015,1037,35.7638,-4.90384
798,-13,35.9231,5.47571,0.0755729,0.0137503,-0.01138,0.0776012,0.011722,-0.176376,0.0483033,0.0464929,2022,1037,35.9232,-5.47569
805,-13,36.3357,5.45459,0.107055,0.00916218,-0.0117978,0.108457,0.00776041,-0.118262,0.0698618,0.0420121,2029,1037,36.3358,-5.45457
812,-13,36.6169,5.50513,0,0,0,0,0,0,0,-1,2036,1037,36.617,-5.50516
-700,-20,-29.475,2.84009,0,0,0,0,0,0,0,-1,524,1044,-29.475,-2.84009
-693,-20,-29.0223,3.38074,0,0,0,0,0,0,0,-1,531,1044,-29.0223,-3.38072
-686,-20,-28.2595,3.55127,0,0,0,0,0,0,0,-1,538,1044,-28.2595,-3.55124
-679,-20,-27.7708,3.125,0.0196981,0.00282356,0.00185967,0.0199006,0.00262104,0.108472,0.0124854,0.0491336,545,1044,-27.7708,-3.12497
-672,-20,-27.0408,2.42578,0.0189406,0.0043228,0.000269999,0.0189455,0.00431781,0.0184622,0.0114654,0.0494339,552,1044,-27.0408,-2.42578
-665,-20,-26.6492,2.39929,0.0168337,0.00565811,-0.000458757,0.0168525,0.0056393,-0.0409582,0.00990558,0.0464462,559,1044,-26.6493,-2.39935
-658,-20,-26.3893,2.27466,0.0140164,0.00657275,-0.000708002,0.0140831,0.00650601,-0.0939919,0.00813874,0.0482187,566,1044,-26.3893,-2.27466
-651,-20,-26.2493,2.04504,0.0110211,0.00690532,-0.000779173,0.0111637,0.00676275,-0.180973,0.00649325,0.0410928,573,1044,-26.2493,-2.045
-644,-20,-26.2134,2.026,0.0084703,0.00656389,-0.0013715,0.00918731,0.00584688,-0.481713,0.00536969,0.0266083,580,1044,-26.2134,-2.02605
-637,-20,-26.258,2.1532,0.00621514,0.00598939,-0.00262655,0.00873124,0.00347329,-0.763925,0.00507596,0.0171944,587,1044,-26.258,-2.15318
-630,-20,-26.3056,2.28259,0.00409392,0.00490902,-0.00375706,0.00828057,0.000722368,-0.839425,0.00529604,0.0136693,594,1044,-26.3056,-2.28264
-623,-20,-26.3314,2.39026,0.00206786,0.00365979,-0.00482846,0.00775745,-0.0020298,-0.867088,0.00596449,0.0128706,601,1044,-26.3314,-2.39031
-616,-20,-26.3275,2.4696,0.000901964,0.00283823,-0.00562919,0.00758193,-0.00384174,-0.870557,0.00671225,0.0122566,608,1044,-26.3275,-2.46964
-609,-20,-26.3494,2.52271,0.000567616,0.0016601,-0.00674347,0.00787941,-0.0056517,-0.825811,0.0078474,0.0130667,615,1044,-26.3493,-2.52272
-602,-20,-26.3342,2.61023,0.000171222,0.000665146,-0.00745587,0.00787815,-0.00704178,-0.801954,0.00861853,0.0105996,622,1044,-26.3342,-2.61023
-595,-20,-26.3235,2.63208,5.3288e-05,0.000163728,-0.00785865,0.00796735,-0.00775034,-0.788911,0.0090749,0.0223714,629,1044,-26.3235,-2.63214
-588,-20,-26.2631,1.66296,0,0,0,0,0,0,0,-1,636,1044,-26.2631,-1.66291
-581,-20,-26.2697,0.887207,0.000359041,-7.00677e-05,-0.00814636,0.00829367,-0.0080047,-0.772232,0.00941036,0.0291671,643,1044,-26.2697,-0.88718
-574,-20,-26.1808,0.945313,0.00028848,0.000189035,-0.00780541,0.00804433,-0.00756681,-0.782213,0.0090145,0.0375817,650,1044,-26.1808,-0.945329
-567,-20,-26.2751,0.984619,9.66799e-05,0.000650636,-0.00718406,0.00756305,-0.00681574,-0.804666,0.00830534,0.0443543,657,1044,-26.2751,-0.984656
-560,-20,-26.1553,0.907349,-0.000114997,0.00126103,-0.00638942,0.00699937,-0.00585334,-0.839032,0.00743034,0.0455175,664,1044,-26.1553,-0.907394
-553,-20,-26.0461,0.894775,-0.00032943,0.00190263,-0.00560967,0.00650621,-0.00493301,-0.88359,0.00662522,0.0434891,671,1044,-26.0461,-0.894756
-546,-20,-26.2985,0.907227,-0.000484065,0.00237673,-0.00510438,0.00624735,-0.00435468,-0.922009,0.00615351,0.0400661,678,1044,-26.2985,-0.907248
-539,-20,-26.4232,0.891113,-0.000450464,0.00222848,-0.00613549,0.00716901,-0.005391,-0.892869,0.0072757,0.0426638,685,1044,-26.4232,-0.891166
-532,-20,-26.3912,0.774658,-0.000490281,0.00275447,-0.0104045,0.0116624,-0.00939816,-0.86274,0.0121827,0.0431284,692,1044,-26.3912,-0.774629
-525,-20,0,0,0,0,0,0,0,0,0,-1,699,1044,0,0
-518,-20,0,0,0,0,0,0,0,0,0,-1,706,1044,0,0
-511,-20,0,0,0,0,0,0,0,0,0,-1,713,1044,0,0
-504,-20,0,0,0,0,0,0,0,0,0,-1,720,1044,0,0
-497,-20,0,0,0,0,0,0,0,0,0,-1,727,1044,0,0
-490,-20,0,0,0,0,0,0,0,0,0,-1,734,1044,0,0
-483,-20,0,0,0,0,0,0,0,0,0,-1,741,1044,0,0
-476,-20,0,0,0,0,0,0,0,0,0,-1,748,1044,0,0
-469,-20,0,0,0,0,0,0,0,0,0,-1,755,1044,0,0
-462,-20,0,0,0,0,0,0,0,0,0,-1,762,1044,0,0
-455,-20,0,0,0,0,0,0,0,0,0,-1,769,1044,0,0
-448,-20,0,0,0,0,0,0,0,0,0,-1,776,1044,0,0
-441,-20,0,0,0,0,0,0,0,0,0,-1,783,1044,0,0
-434,-20,0,0,0,0,0,0,0,0,0,-1,790,1044,0,0
-427,-20,0,0,0,0,0,0,0,0,0,-1,797,1044,0,0
-420,-20,0,0,0,0,0,0,0,0,0,-1,804,1044,0,0
-413,-20,0,0,0,0,0,0,0,0,0,-1,811,1044,0,0
-406,-20,0,0,0,0,0,0,0,0,0,-1,818,1044,0,0
-399,-20,0,0,0,0,0,0,0,0,0,-1,825,1044,0,0
-392,-20,0,0,0,0,0,0,0,0,0,-1,832,1044,0,0
-385,-20,0,0,0,0,0,0,0,0,0,-1,839,1044,0,0
-378,-20,0,0,0,0,0,0,0,0,0,-1,846,1044,0,0
-371,-20,0,0,0,0,0,0,0,0,0,-1,853,1044,0,0
-364,-20,0,0,0,0,0,0,0,0,0,-1,860,1044,0,0
-357,-20,0,0,0,0,0,0,0,0,0,-1,867,1044,0,0
-350,-20,0,0,0,0,0,0,0,0,0,-1,874,1044,0,0
-343,-20,0,0,0,0,0,0,0,0,0,-1,881,1044,0,0
-336,-20,0,0,0,0,0,0,0,0,0,-1,888,1044,0,0
-329,-20,0,0,0,0,0,0,0,0,0,-1,895,1044,0,0
-322,-20,0,0,0,0,0,0,0,0,0,-1,902,1044,0,0
-315,-20,0,0,0,0,0,0,0,0,0,-1,909,1044,0,0
-308,-20,0,0,0,0,0,0,0,0,0,-1,916,1044,0,0
-301,-20,0,0,0,0,0,0,0,0,0,-1,923,1044,0,0
-294,-20,0,0,0,0,0,0,0,0,0,-1,930,1044,0,0
-287,-20,0,0,0,0,0,0,0,0,0,-1,937,1044,0,0
-280,-20,0,0,0,0,0,0,0,0,0,-1,944,1044,0,0
-273,-20,0,0,0,0,0,0,0,0,0,-1,951,1044,0,0
-266,-20,0,0,0,0,0,0,0,0,0,-1,958,1044,0,0
-259,-20,0,0,0,0,0,0,0,0,0,-1,965,1044,0,0
-252,-20,0,0,0,0,0,0,0,0,0,-1,972,1044,0,0
-245,-20,0,0,0,0,0,0,0,0,0,-1,979,1044,0,0
-238,-20,0,0,0,0,0,0,0,0,0,-1,986,1044,0,0
-231,-20,0,0,0,0,0,0,0,0,0,-1,993,1044,0,0
-224,-20,0,0,0,0,0,0,0,0,0,-1,1000,1044,0,0
-217,-20,0,0,0,0,0,0,0,0,0,-1,1007,1044,0,0
-210,-20,0,0,0,0,0,0,0,0,0,-1,1014,1044,0,0
-203,-20,0,0,0,0,0,0,0,0,0,-1,1021,1044,0,0
-196,-20,0,0,0,0,0,0,0,0,0,-1,1028,1044,0,0
-189,-20,0,0,0,0,0,0,0,0,0,-1,1035,1044,0,0
-182,-20,0,0,0,0,0,0,0,0,0,-1,1042,1044,0,0
-175,-20,0,0,0,0,0,0,0,0,0,-1,1049,1044,0,0
-168,-20,0,0,0,0,0,0,0,0,0,-1,1056,1044,0,0
-161,-20,0,0,0,0,0,0,0,0,0,-1,1063,1044,0,0
-154,-20,0,0,0,0,0,0,0,0,0,-1,1070,1044,0,0
-147,-20,0,0,0,0,0,0,0,0,0,-1,1077,1044,0,0
-140,-20,0,0,0,0,0,0,0,0,0,-1,1084,1044,0,0
-133,-20,0,0,0,0,0,0,0,0,0,-1,1091,1044,0,0
-126,-20,0,0,0,0,0,0,0,0,0,-1,1098,1044,0,0
-119,-20,0,0,0,0,0,0,0,0,0,-1,1105,1044,0,0
-112,-20,0,0,0,0,0,0,0,0,0,-1,1112,1044,0,0
-105,-20,0,0,0,0,0,0,0,0,0,-1,1119,1044,0,0
-98,-20,0,0,0,0,0,0,0,0,0,-1,1126,1044,0,0
-91,-20,0,0,0,0,0,0,0,0,0,-1,1133,1044,0,0
-84,-20,0,0,0,0,0,0,0,0,0,-1,1140,1044,0,0
-77,-20,0,0,0,0,0,0,0,0,0,-1,1147,1044,0,0
-70,-20,0,0,0,0,0,0,0,0,0,-1,1154,1044,0,0
-63,-20,0,0,0,0,0,0,0,0,0,-1,1161,1044,0,0
-56,-20,0,0,0,0,0,0,0,0,0,-1,1168,1044,0,0
-49,-20,0,0,0,0,0,0,0,0,0,-1,1175,1044,0,0
-42,-20,0,0,0,0,0,0,0,0,0,-1,1182,1044,0,0
-35,-20,0,0,0,0,0,0,0,0,0,-1,1189,1044,0,0
-28,-20,0,0,0,0,0,0,0,0,0,-1,1196,1044,0,0
-21,-20,0,0,0,0,0,0,0,0,0,-1,1203,1044,0,0
-14,-20,0,0,0,0,0,0,0,0,0,-1,1210,1044,0,0
-7,-20,0,0,0,0,0,0,0,0,0,-1,1217,1044,0,0
0,-20,0,0,0,0,0,0,0,0,0,-1,1224,1044,0,0
7,-20,0,0,0,0,0,0,0,0,0,-1,1231,1044,0,0
14,-20,0,0,0,0,0,0,0,0,0,-1,1238,1044,0,0
21,-20,0,0,0,0,0,0,0,0,0,-1,1245,1044,0,0
28,-20,0,0,0,0,0,0,0,0,0,-1,1252,1044,0,0
35,-20,0,0,0,0,0,0,0,0,0,-1,1259,1044,0,0
42,-20,0,0,0,0,0,0,0,0,0,-1,1266,1044,0,0
49,-20,0,0,0,0,0,0,0,0,0,-1,1273,1044,0,0
56,-20,0,0,0,0,0,0,0,0,0,-1,1280,1044,0,0
63,-20,0,0,0,0,0,0,0,0,0,-1,1287,1044,0,0
70,-20,0,0,0,0,0,0,0,0,0,-1,1294,1044,0,0
77,-20,0,0,0,0,0,0,0,0,0,-1,1301,1044,0,0
84,-20,0,0,0,0,0,0,0,0,0,-1,1308,1044,0,0
91,-20,0,0,0,0,0,0,0,0,0,-1,1315,1044,0,0
98,-20,0,0,0,0,0,0,0,0,0,-1,1322,1044,0,0
105,-20,0,0,0,0,0,0,0,0,0,-1,1329,1044,0,0
112,-20,0,0,0,0,0,0,0,0,0,-1,1336,1044,0,0
119,-20,0,0,0,0,0,0,0,0,0,-1,1343,1044,0,0
126,-20,0,0,0,0,0,0,0,0,0,-1,1350,1044,0,0
133,-20,0,0,0,0,0,0,0,0,0,-1,1357,1044,0,0
140,-20,0,0,0,0,0,0,0,0,0,-1,1364,1044,0,0
147,-20,0,0,0,0,0,0,0,0,0,-1,1371,1044,0,0
154,-20,0,0,0,0,0,0,0,0,0,-1,1378,1044,0,0
161,-20,0,0,0,0,0,0,0,0,0,-1,1385,1044,0,0
168,-20,0,0,0,0,0,0,0,0,0,-1,1392,1044,0,0
175,-20,0,0,0,0,0,0,0,0,0,-1,1399,1044,0,0
182,-20,0,0,0,0,0,0,0,0,0,-1,1406,1044,0,0
189,-20,0,0,0,0,0,0,0,0,0,-1,1413,1044,0,0
196,-20,0,0,0,0,0,0,0,0,0,-1,1420,1044,0,0
203,-20,0,0,0,0,0,0,0,0,0,-1,1427,1044,0,0
210,-20,0,0,0,0,0,0,0,0,0,-1,1434,1044,0,0
217,-20,0,0,0,0,0,0,0,0,0,-1,1441,1044,0,0
224,-20,0,0,0,0,0,0,0,0,0,-1,1448,1044,0,0
231,-20,0,0,0,0,0,0,0,0,0,-1,1455,1044,0,0
238,-20,0,0,0,0,0,0,0,0,0,-1,1462,1044,0,0
245,-20,0,0,0,0,0,0,0,0,0,-1,1469,1044,0,0
252,-20,0,0,0,0,0,0,0,0,0,-1,1476,1044,0,0
259,-20,0,0,0,0,0,0,0,0,0,-1,1483,1044,0,0
266,-20,0,0,0,0,0,0,0,0,0,-1,1490,1044,0,0
273,-20,0,0,0,0,0,0,0,0,0,-1,1497,1044,0,0
280,-20,0,0,0,0,0,0,0,0,0,-1,1504,1044,0,0
287,-20,0,0,0,0,0,0,0,0,0,-1,1511,1044,0,0
294,-20,0,0,0,0,0,0,0,0,0,-1,1518,1044,0,0
301,-20,0,0,0,0,0,0,0,0,0,-1,1525,1044,0,0
308,-20,0,0,0,0,0,0,0,0,0,-1,1532,1044,0,0
315,-20,0,0,0,0,0,0,0,0,0,-1,1539,1044,0,0
322,-20,0,0,0,0,0,0,0,0,0,-1,1546,1044,0,0
329,-20,0,0,0,0,0,0,0,0,0,-1,1553,1044,0,0
336,-20,0,0,0,0,0,0,0,0,0,-1,1560,1044,0,0
343,-20,0,0,0,0,0,0,0,0,0,-1,1567,1044,0,0
350,-20,0,0,0,0,0,0,0,0,0,-1,1574,1044,0,0
357,-20,0,0,0,0,0,0,0,0,0,-1,1581,1044,0,0
364,-20,0,0,0,0,0,0,0,0,0,-1,1588,1044,0,0
371,-20,0,0,0,0,0,0,0,0,0,-1,1595,1044,0,0
378,-20,0,0,0,0,0,0,0,0,0,-1,1602,1044,0,0
385,-20,0,0,0,0,0,0,0,0,0,-1,1609,1044,0,0
392,-20,0,0,0,0,0,0,0,0,0,-1,1616,1044,0,0
399,-20,0,0,0,0,0,0,0,0,0,-1,1623,1044,0,0
406,-20,0,0,0,0,0,0,0,0,0,-1,1630,1044,0,0
413,-20,0,0,0,0,0,0,0,0,0,-1,1637,1044,0,0
420,-20,0,0,0,0,0,0,0,0,0,-1,1644,1044,0,0
427,-20,0,0,0,0,0,0,0,0,0,-1,1651,1044,0,0
434,-20,0,0,0,0,0,0,0,0,0,-1,1658,1044,0,0
441,-20,0,0,0,0,0,0,0,0,0,-1,1665,1044,0,0
448,-20,0,0,0,0,0,0,0,0,0,-1,1672,1044,0,0
455,-20,0,0,0,0,0,0,0,0,0,-1,1679,1044,0,0
462,-20,0,0,0,0,0,0,0,0,0,-1,1686,1044,0,0
469,-20,0,0,0,0,0,0,0,0,0,-1,1693,1044,0,0
476,-20,0,0,0,0,0,0,0,0,0,-1,1700,1044,0,0
483,-20,0,0,0,0,0,0,0,0,0,-1,1707,1044,0,0
490,-20,0,0,0,0,0,0,0,0,0,-1,1714,1044,0,0
497,-20,0,0,0,0,0,0,0,0,0,-1,1721,1044,0,0
504,-20,0,0,0,0,0,0,0,0,0,-1,1728,1044,0,0
511,-20,0,0,0,0,0,0,0,0,0,-1,1735,1044,0,0
518,-20,0,0,0,0,0,0,0,0,0,-1,1742,1044,0,0
525,-20,0,0,0,0,0,0,0,0,0,-1,1749,1044,0,0
532,-20,0,0,0,0,0,0,0,0,0,-1,1756,1044,0,0
539,-20,0,0,0,0,0,0,0,0,0,-1,1763,1044,0,0
546,-20,0,0,0,0,0,0,0,0,0,-1,1770,1044,0,0
553,-20,0,0,0,0,0,0,0,0,0,-1,1777,1044,0,0
560,-20,0,0,0,0,0,0,0,0,0,-1,1784,1044,0,0
567,-20,0,0,0,0,0,0,0,0,0,-1,1791,1044,0,0
574,-20,0,0,0,0,0,0,0,0,0,-1,1798,1044,0,0
581,-20,0,0,0,0,0,0,0,0,0,-1,1805,1044,0,0
588,-20,0,0,0,0,0,0,0,0,0,-1,1812,1044,0,0
595,-20,0,0,0,0,0,0,0,0,0,-1,1819,1044,0,0
602,-20,0,0,0,0,0,0,0,0,0,-1,1826,1044,0,0
609,-20,0,0,0,0,0,0,0,0,0,-1,1833,1044,0,0
616,-20,0,0,0,0,0,0,0,0,0,-1,1840,1044,0,0
623,-20,0,0,0,0,0,0,0,0,0,-1,1847,1044,0,0
630,-20,0,0,0,0,0,0,0,0,0,-1,1854,1044,0,0
637,-20,0,0,0,0,0,0,0,0,0,-1,1861,1044,0,0
644,-20,0,0,0,0,0,0,0,0,0,-1,1868,1044,0,0
651,-20,36.2036,2.64172,-0.0021598,0.00360414,0.00238023,0.00445998,-0.00301564,1.22563,0.00434282,0.039013,1875,1044,36.2036,-2.64177
658,-20,36.2648,2.77588,-0.00159483,0.00326148,0.00172281,0.00381058,-0.00214392,1.26225,0.00348243,0.0434457,1882,1044,36.2648,-2.77588
665,-20,36.2239,2.74158,-0.00116195,0.00294144,0.00129269,0.00331472,-0.00153523,1.28968,0.00286226,0.0420274,1889,1044,36.2239,-2.74155
672,-20,36.2313,2.76636,-0.000734757,0.00264935,0.00130603,0.00309476,-0.00118017,1.24212,0.00254931,0.0261232,1896,1044,36.2313,-2.76635
679,-20,36.1642,2.73853,-0.000279667,0.00226743,0.00161947,0.00305412,-0.00106636,1.11859,0.00246951,0.0288229,1903,1044,36.1642,-2.73853
686,-20,36.1375,2.81311,-1.65875e-05,0.00170888,0.00202574,0.00304795,-0.00135566,0.986708,0.00260425,0.0389148,1910,1044,36.1374,-2.81307
693,-20,36.1218,2.74841,0.000150231,0.00111262,0.00243978,0.0031182,-0.00185535,0.882763,0.00290217,0.0423671,1917,1044,36.1219,-2.74838
700,-20,36.2312,2.67285,0.000226187,0.000606789,0.0027532,0.00317626,-0.00234329,0.819903,0.00319879,0.0393191,1924,1044,36.2312,-2.67281
707,-20,36.2438,2.71362,0.000147053,0.000341752,0.00295617,0.00320217,-0.00271337,0.801858,0.00341923,0.0317425,1931,1044,36.2438,-2.71365
714,-20,36.1986,2.83691,-9.32714e-05,0.000252208,0.00308843,0.00317273,-0.00301379,0.813335,0.00357218,0.0244358,1938,1044,36.1986,-2.83694
721,-20,36.1584,2.92761,0,0,0,0,0,0,0,-1,1945,1044,36.1584,-2.92762
728,-20,36.1035,5.13098,0,0,0,0,0,0,0,-1,1952,1044,36.1035,-5.13092
735,-20,35.921,5.15808,-0.00155588,0.00120688,0.00285087,0.00299341,-0.00334241,1.011,0.00365984,0.0226638,1959,1044,35.9211,-5.15807
742,-20,35.808,5.12512,-0.00195396,0.00215332,0.00247708,0.00331734,-0.00311798,1.1315,0.00371603,0.0176799,1966,1044,35.808,-5.12508
749,-20,35.8452,5.07959,-0.00172476,0.00352927,0.00136695,0.00386363,-0.00205912,1.3309,0.003472,0.0198685,1973,1044,35.8452,-5.07955
756,-20,35.8213,5.04785,0.000284584,0.00470138,-0.000319004,0.0047243,0.000261663,-1.49907,0.00306604,0.0146992,1980,1044,35.8212,-5.04789
763,-20,35.7659,5.01257,0.00384504,0.00581937,-0.00128702,0.00645421,0.0032102,-1.11255,0.00372636,0.0196096,1987,1044,35.7658,-5.0126
770,-20,35.7275,5.01343,0.00881692,0.00725729,-0.00323464,0.0113644,0.00470979,-0.667114,0.0065932,0.0176137,1994,1044,35.7276,-5.01339
777,-20,35.6563,4.90295,0.0172603,0.00837572,-0.00539405,0.0198058,0.00583019,-0.440928,0.0117528,0.013408,2001,1044,35.6563,-4.9029
784,-20,35.66,4.84277,0.0286824,0.00845224,-0.00741955,0.0311119,0.00602281,-0.316433,0.0190536,0.0184339,2008,1044,35.6601,-4.84276
791,-20,35.9514,5.23767,0,0,0,0,0,0,0,-1,2015,1044,35.9514,-5.23772
798,-20,36.3748,5.28027,0.0648514,0.00372142,-0.0109584,0.0667564,0.00181635,-0.172126,0.0439114,0.0439914,2022,1044,36.3747,-5.28029
805,-20,36.8076,5.29431,0.0924818,-0.00272419,-0.0116259,0.0938809,-0.0041233,-0.119768,0.064006,0.0432913,2029,1044,36.8077,-5.29437
812,-20,37.0752,5.27771,0,0,0,0,0,0,0,-1,2036,1044,37.0753,-5.27771
-700,-27,-26.1028,0.361572,0,0,0,0,0,0,0,-1,524,1051,-26.1028,-0.361544
-693,-27,-26.4552,0.776733,0,0,0,0,0,0,0,-1,531,1051,-26.4552,-0.776709
-686,-27,-29.8536,4.18896,0,0,0,0,0,0,0,-1,538,1051,-29.8536,-4.18902
-679,-27,-27.4274,3.25342,0,0,0,0,0,0,0,-1,545,1051,-27.4274,-3.25339
-672,-27,-26.1219,2.6333,0,0,0,0,0,0,0,-1,552,1051,-26.1219,-2.63333
-665,-27,-26.1516,2.47424,0.0166633,0.0029505,-0.00595822,0.0188904,0.000723357,-0.357712,0.0123595,0.0459946,559,1051,-26.1516,-2.47427
-658,-27,-26.1642,2.32336,0.0140427,0.00447135,-0.00507597,0.0162333,0.00228077,-0.407412,0.0101477,0.0434722,566,1051,-26.1642,-2.32341
-651,-27,-26.0681,2.09949,0.0111834,0.00529691,-0.00415091,0.0133286,0.00315166,-0.477008,0.00804373,0.0334105,573,1051,-26.068,-2.09952
-644,-27,-26.1104,1.99023,0.00868925,0.00535003,-0.00390396,0.0112656,0.00277364,-0.583333,0.00677777,0.0159665,580,1051,-26.1104,-1.99029
-637,-27,-26.1559,2.06433,0.00633666,0.00516842,-0.00431599,0.0101079,0.0013972,-0.718137,0.0063245,0.0133565,587,1051,-26.1559,-2.06432
-630,-27,-26.2079,2.2594,0.00413375,0.00430411,-0.00477014,0.00898983,-0.000551974,-0.794326,0.00618543,0.0171554,594,1051,-26.208,-2.25938
-623,-27,-26.2006,2.38416,0.00210329,0.00323172,-0.00539528,0.0080922,-0.00275719,-0.837497,0.00651145,0.0150605,601,1051,-26.2007,-2.38412
-616,-27,-26.1757,2.49695,0.000863568,0.00251009,-0.00592954,0.00767325,-0.00429959,-0.854378,0.0070034,0.0130518,608,1051,-26.1757,-2.49696
-609,-27,-26.2029,2.5863,0.000466275,0.00144971,-0.0068252,0.00780088,-0.00588489,-0.821358,0.00792725,0.0131769,615,1051,-26.2029,-2.58625
-602,-27,-26.1857,2.69751,2.73557e-05,0.000525373,-0.00739383,0.00767439,-0.00712166,-0.802231,0.00854449,0.0120793,622,1051,-26.1856,-2.69746
-595,-27,-26.2147,2.76697,-0.000168619,0.000128863,-0.00771827,0.00769982,-0.00773958,-0.795033,0.00891395,0.0135522,629,1051,-26.2147,-2.76694
-588,-27,-26.3973,2.77478,0,0,0,0,0,0,0,-1,636,1051,-26.3973,-2.77483
-581,-27,-26.2188,0.894897,0.000109742,1.23408e-05,-0.00798244,0.00804363,-0.00792155,-0.782348,0.00921759,0.021692,643,1051,-26.2188,-0.894922
-574,-27,-26.1765,0.9552,7.8774e-05,0.000273853,-0.00768153,0.00785846,-0.00750583,-0.791747,0.00887136,0.0353731,650,1051,-26.1764,-0.955233
-567,-27,-26.1459,0.922241,-6.57214e-05,0.000750401,-0.00712187,0.00747589,-0.00679121,-0.814015,0.00824028,0.0458118,657,1051,-26.146,-0.922206
-560,-27,-25.9041,1.35242,0,0,0,0,0,0,0,-1,664,1051,-25.904,-1.35244
-553,-27,-25.8278,1.14905,0,0,0,0,0,0,0,-1,671,1051,-25.8277,-1.149
-546,-27,-26.3137,1.12659,0,0,0,0,0,0,0,-1,678,1051,-26.3137,-1.12658
-539,-27,-26.476,1.09045,-0.000597101,0.00241325,-0.00630173,0.00738707,-0.00557092,-0.902628,0.00750575,0.0457681,685,1051,-26.476,-1.09051
-532,-27,-26.3552,0.919922,-0.000828351,0.00276492,-0.0107429,0.0118604,-0.00992386,-0.868251,0.0125937,0.0427571,692,1051,-26.3552,-0.919956
-525,-27,0,0,0,0,0,0,0,0,0,-1,699,1051,0,0
-518,-27,0,0,0,0,0,0,0,0,0,-1,706,1051,0,0
-511,-27,0,0,0,0,0,0,0,0,0,-1,713,1051,0,0
-504,-27,0,0,0,0,0,0,0,0,0,-1,720,1051,0,0
-497,-27,0,0,0,0,0,0,0,0,0,-1,727,1051,0,0
-490,-27,0,0,0,0,0,0,0,0,0,-1,734,1051,0,0
-483,-27,0,0,0,0,0,0,0,0,0,-1,741,1051,0,0
-476,-27,0,0,0,0,0,0,0,0,0,-1,748,1051,0,0
-469,-27,0,0,0,0,0,0,0,0,0,-1,755,1051,0,0
-462,-27,0,0,0,0,0,0,0,0,0,-1,762,1051,0,0
-455,-27,0,0,0,0,0,0,0,0,0,-1,769,1051,0,0
-448,-27,0,0,0,0,0,0,0,0,0,-1,776,1051,0,0
-441,-27,0,0,0,0,0,0,0,0,0,-1,783,1051,0,0
-434,-27,0,0,0,0,0,0,0,0,0,-1,790,1051,0,0
-427,-27,0,0,0,0,0,0,0,0,0,-1,797,1051,0,0
-420,-27,0,0,0,0,0,0,0,0,0,-1,804,1051,0,0
-413,-27,0,0,0,0,0,0,0,0,0,-1,811,1051,0,0
-406,-27,0,0,0,0,0,0,0,0,0,-1,818,1051,0,0
-399,-27,0,0,0,0,0,0,0,0,0,-1,825,1051,0,0
-392,-27,0,0,0,0,0,0,0,0,0,-1,832,1051,0,0
-385,-27,0,0,0,0,0,0,0,0,0,-1,839,1051,0,0
-378,-27,0,0,0,0,0,0,0,0,0,-1,846,1051,0,0
-371,-27,0,0,0,0,0,0,0,0,0,-1,853,1051,0,0
-364,-27,0,0,0,0,0,0,0,0,0,-1,860,1051,0,0
-357,-27,0,0,0,0,0,0,0,0,0,-1,867,1051,0,0
-350,-27,0,0,0,0,0,0,0,0,0,-1,874,1051,0,0
-343,-27,0,0,0,0,0,0,0,0,0,-1,881,1051,0,0
-336,-27,0,0,0,0,0,0,0,0,0,-1,888,1051,0,0
-329,-27,0,0,0,0,0,0,0,0,0,-1,895,1051,0,0
-322,-27,0,0,0,0,0,0,0,0,0,-1,902,1051,0,0
-315,-27,0,0,0,0,0,0,0,0,0,-1,909,1051,0,0
-308,-27,0,0,0,0,0,0,0,0,0,-1,916,1051,0,0
-301,-27,0,0,0,0,0,0,0,0,0,-1,923,1051,0,0
-294,-27,0,0,0,0,0,0,0,0,0,-1,930,1051,0,0
-287,-27,0,0,0,0,0,0,0,0,0,-1,937,1051,0,0
-280,-27,0,0,0,0,0,0,0,0,0,-1,944,1051,0,0
-273,-27,0,0,0,0,0,0,0,0,0,-1,951,1051,0,0
-266,-27,0,0,0,0,0,0,0,0,0,-1,958,1051,0,0
-259,-27,0,0,0,0,0,0,0,0,0,-1,965,1051,0,0
-252,-27,0,0,0,0,0,0,0,0,0,-1,972,1051,0,0
-245,-27,0,0,0,0,0,0,0,0,0,-1,979,1051,0,0
-238,-27,0,0,0,0,0,0,0,0,0,-1,986,1051,0,0
-231,-27,0,0,0,0,0,0,0,0,0,-1,993,1051,0,0
-224,-27,0,0,0,0,0,0,0,0,0,-1,1000,1051,0,0
-217,-27,0,0,0,0,0,0,0,0,0,-1,1007,1051,0,0
-210,-27,0,0,0,0,0,0,0,0,0,-1,1014,1051,0,0
-203,-27,0,0,0,0,0,0,0,0,0,-1,1021,1051,0,0
-196,-27,0,0,0,0,0,0,0,0,0,-1,1028,1051,0,0
-189,-27,0,0,0,0,0,0,0,0,0,-1,1035,1051,0,0
-182,-27,0,0,0,0,0,0,0,0,0,-1,1042,1051,0,0
-175,-27,0,0,0,0,0,0,0,0,0,-1,1049,1051,0,0
-168,-27,0,0,0,0,0,0,0,0,0,-1,1056,1051,0,0
-161,-27,0,0,0,0,0,0,0,0,0,-1,1063,1051,0,0
-154,-27,0,0,0,0,0,0,0,0,0,-1,1070,1051,0,0
-147,-27,0,0,0,0,0,0,0,0,0,-1,1077,1051,0,0
-140,-27,0,0,0,0,0,0,0,0,0,-1,1084,1051,0,0
-133,-27,0,0,0,0,0,0,0,0,0,-1,1091,1051,0,0
-126,-27,0,0,0,0,0,0,0,0,0,-1,1098,1051,0,0
-119,-27,0,0,0,0,0,0,0,0,0,-1,1105,1051,0,0
-112,-27,0,0,0,0,0,0,0,0,0,-1,1112,1051,0,0
-105,-27,0,0,0,0,0,0,0,0,0,-1,1119,1051,0,0
-98,-27,0,0,0,0,0,0,0,0,0,-1,1126,1051,0,0
-91,-27,0,0,0,0,0,0,0,0,0,-1,1133,1051,0,0
-84,-27,0,0,0,0,0,0,0,0,0,-1,1140,1051,0,0
-77,-27,0,0,0,0,0,0,0,0,0,-1,1147,1051,0,0
-70,-27,0,0,0,0,0,0,0,0,0,-1,1154,1051,0,0
-63,-27,0,0,0,0,0,0,0,0,0,-1,1161,1051,0,0
-56,-27,0,0,0,0,0,0,0,0,0,-1,1168,1051,0,0
-49,-27,0,0,0,0,0,0,0,0,0,-1,1175,1051,0,0
-42,-27,0,0,0,0,0,0,0,0,0,-1,1182,1051,0,0
-35,-27,0,0,0,0,0,0,0,0,0,-1,1189,1051,0,0
-28,-27,0,0,0,0,0,0,0,0,0,-1,1196,1051,0,0
-21,-27,0,0,0,0,0,0,0,0,0,-1,1203,1051,0,0
-14,-27,0,0,0,0,0,0,0,0,0,-1,1210,1051,0,0
-7,-27,0,0,0,0,0,0,0,0,0,-1,1217,1051,0,0
0,-27,0,0,0,0,0,0,0,0,0,-1,1224,1051,0,0
7,-27,0,0,0,0,0,0,0,0,0,-1,1231,1051,0,0
14,-27,0,0,0,0,0,0,0,0,0,-1,1238,1051,0,0
21,-27,0,0,0,0,0,0,0,0,0,-1,1245,1051,0,0
28,-27,0,0,0,0,0,0,0,0,0,-1,1252,1051,0,0
35,-27,0,0,0,0,0,0,0,0,0,-1,1259,1051,0,0
42,-27,0,0,0,0,0,0,0,0,0,-1,1266,1051,0,0
49,-27,0,0,0,0,0,0,0,0,0,-1,1273,1051,0,0
56,-27,0,0,0,0,0,0,0,0,0,-1,1280,1051,0,0
63,-27,0,0,0,0,0,0,0,0,0,-1,1287,1051,0,0
70,-27,0,0,0,0,0,0,0,0,0,-1,1294,1051,0,0
77,-27,0,0,0,0,0,0,0,0,0,-1,1301,1051,0,0
84,-27,0,0,0,0,0,0,0,0,0,-1,1308,1051,0,0
91,-27,0,0,0,0,0,0,0,0,0,-1,1315,1051,0,0
98,-27,0,0,0,0,0,0,0,0,0,-1,1322,1051,0,0
105,-27,0,0,0,0,0,0,0,0,0,-1,1329,1051,0,0
112,-27,0,0,0,0,0,0,0,0,0,-1,1336,1051,0,0
119,-27,0,0,0,0,0,0,0,0,0,-1,1343,1051,0,0
126,-27,0,0,0,0,0,0,0,0,0,-1,1350,1051,0,0
133,-27,0,0,0,0,0,0,0,0,0,-1,1357,1051,0,0
140,-27,0,0,0,0,0,0,0,0,0,-1,1364,1051,0,0
147,-27,0,0,0,0,0,0,0,0,0,-1,1371,1051,0,0
154,-27,0,0,0,0,0,0,0,0,0,-1,1378,1051,0,0
161,-27,0,0,0,0,0,0,0,0,0,-1,1385,1051,0,0
168,-27,0,0,0,0,0,0,0,0,0,-1,1392,1051,0,0
175,-27,0,0,0,0,0,0,0,0,0,-1,1399,1051,0,0
182,-27,0,0,0,0,0,0,0,0,0,-1,1406,1051,0,0
189,-27,0,0,0,0,0,0,0,0,0,-1,1413,1051,0,0
196,-27,0,0,0,0,0,0,0,0,0,-1,1420,1051,0,0
203,-27,0,0,0,0,0,0,0,0,0,-1,1427,1051,0,0
210,-27,0,0,0,0,0,0,0,0,0,-1,1434,1051,0,0
217,-27,0,0,0,0,0,0,0,0,0,-1,1441,1051,0,0
224,-27,0,0,0,0,0,0,0,0,0,-1,1448,1051,0,0
231,-27,0,0,0,0,0,0,0,0,0,-1,1455,1051,0,0
238,-27,0,0,0,0,0,0,0,0,0,-1,1462,1051,0,0
245,-27,0,0,0,0,0,0,0,0,0,-1,1469,1051,0,0
252,-27,0,0,0,0,0,0,0,0,0,-1,1476,1051,0,0
259,-27,0,0,0,0,0,0,0,0,0,-1,1483,1051,0,0
266,-27,0,0,0,0,0,0,0,0,0,-1,1490,1051,0,0
273,-27,0,0,0,0,0,0,0,0,0,-1,1497,1051,0,0
280,-27,0,0,0,0,0,0,0,0,0,-1,1504,1051,0,0
287,-27,0,0,0,0,0,0,0,0,0,-1,1511,1051,0,0
294,-27,0,0,0,0,0,0,0,0,0,-1,1518,1051,0,0
301,-27,0,0,0,0,0,0,0,0,0,-1,1525,1051,0,0
308,-27,0,0,0,0,0,0,0,0,0,-1,1532,1051,0,0
315,-27,0,0,0,0,0,0,0,0,0,-1,1539,1051,0,0
322,-27,0,0,0,0,0,0,0,0,0,-1,1546,1051,0,0
329,-27,0,0,0,0,0,0,0,0,0,-1,1553,1051,0,0
336,-27,0,0,0,0,0,0,0,0,0,-1,1560,1051,0,0
343,-27,0,0,0,0,0,0,0,0,0,-1,1567,1051,0,0
350,-27,0,0,0,0,0,0,0,0,0,-1,1574,1051,0,0
357,-27,0,0,0,0,0,0,0,0,0,-1,1581,1051,0,0
364,-27,0,0,0,0,0,0,0,0,0,-1,1588,1051,0,0
371,-27,0,0,0,0,0,0,0,0,0,-1,1595,1051,0,0
378,-27,0,0,0,0,0,0,0,0,0,-1,1602,1051,0,0
385,-27,0,0,0,0,0,0,0,0,0,-1,1609,1051,0,0
392,-27,0,0,0,0,0,0,0,0,0,-1,1616,1051,0,0
399,-27,0,0,0,0,0,0,0,0,0,-1,1623,1051,0,0
406,-27,0,0,0,0,0,0,0,0,0,-1,1630,1051,0,0
413,-27,0,0,0,0,0,0,0,0,0,-1,1637,1051,0,0
420,-27,0,0,0,0,0,0,0,0,0,-1,1644,1051,0,0
427,-27,0,0,0,0,0,0,0,0,0,-1,1651,1051,0,0
434,-27,0,0,0,0,0,0,0,0,0,-1,1658,1051,0,0
441,-27,0,0,0,0,0,0,0,0,0,-1,1665,1051,0,0
448,-27,0,0,0,0,0,0,0,0,0,-1,1672,1051,0,0
455,-27,0,0,0,0,0,0,0,0,0,-1,1679,1051,0,0
462,-27,0,0,0,0,0,0,0,0,0,-1,1686,1051,0,0
469,-27,0,0,0,0,0,0,0,0,0,-1,1693,1051,0,0
476,-27,0,0,0,0,0,0,0,0,0,-1,1700,1051,0,0
483,-27,0,0,0,0,0,0,0,0,0,-1,1707,1051,0,0
490,-27,0,0,0,0,0,0,0,0,0,-1,1714,1051,0,0
497,-27,0,0,0,0,0,0,0,0,0,-1,1721,1051,0,0
504,-27,0,0,0,0,0,0,0,0,0,-1,1728,1051,0,0
511,-27,0,0,0,0,0,0,0,0,0,-1,1735,1051,0,0
518,-27,0,0,0,0,0,0,0,0,0,-1,1742,1051,0,0
525,-27,0,0,0,0,0,0,0,0,0,-1,1749,1051,0,0
532,-27,0,0,0,0,0,0,0,0,0,-1,1756,1051,0,0
539,-27,0,0,0,0,0,0,0,0,0,-1,1763,1051,0,0
546,-27,0,0,0,0,0,0,0,0,0,-1,1770,1051,0,0
553,-27,0,0,0,0,0,0,0,0,0,-1,1777,1051,0,0
560,-27,0,0,0,0,0,0,0,0,0,-1,1784,1051,0,0
567,-27,0,0,0,0,0,0,0,0,0,-1,1791,1051,0,0
574,-27,0,0,0,0,0,0,0,0,0,-1,1798,1051,0,0
581,-27,0,0,0,0,0,0,0,0,0,-1,1805,1051,0,0
588,-27,0,0,0,0,0,0,0,0,0,-1,1812,1051,0,0
595,-27,0,0,0,0,0,0,0,0,0,-1,1819,1051,0,0
602,-27,0,0,0,0,0,0,0,0,0,-1,1826,1051,0,0
609,-27,0,0,0,0,0,0,0,0,0,-1,1833,1051,0,0
616,-27,0,0,0,0,0,0,0,0,0,-1,1840,1051,0,0
623,-27,0,0,0,0,0,0,0,0,0,-1,1847,1051,0,0
630,-27,0,0,0,0,0,0,0,0,0,-1,1854,1051,0,0
637,-27,0,0,0,0,0,0,0,0,0,-1,1861,1051,0,0
644,-27,0,0,0,0,0,0,0,0,0,-1,1868,1051,0,0
651,-27,36.3221,2.91211,-0.00284735,0.00408384,0.00165022,0.00445668,-0.00322019,1.34859,0.00445136,0.0402384,1875,1051,36.3222,-2.91212
658,-27,36.2395,3.0741,-0.00203215,0.00369468,0.00124939,0.00395538,-0.00229285,1.36508,0.00364974,0.0415671,1882,1051,36.2395,-3.0741
665,-27,36.1421,2.90576,-0.00140837,0.00331891,0.000985582,0.00351616,-0.00160562,1.37327,0.00302486,0.0385658,1889,1051,36.1421,-2.90578
672,-27,36.1536,2.76477,-0.000838349,0.00292411,0.0011156,0.00323002,-0.00114426,1.30316,0.00261944,0.0295494,1896,1051,36.1535,-2.76482
679,-27,36.1345,2.75256,-0.000302471,0.0023789,0.00154877,0.00308666,-0.00101023,1.14215,0.00246453,0.0296041,1903,1051,36.1345,-2.75259
686,-27,36.2603,2.82117,-4.56554e-05,0.00167316,0.00205647,0.00304258,-0.00141507,0.983321,0.00263018,0.0402628,1910,1051,36.2603,-2.8212
693,-27,36.1608,2.77148,8.21802e-05,0.0009504,0.00254178,0.00309488,-0.0020623,0.869977,0.00299733,0.0424121,1917,1051,36.1608,-2.77149
700,-27,36.1542,2.71155,9.84354e-05,0.000351193,0.00291716,0.00314471,-0.00269509,0.807046,0.00337494,0.0396321,1924,1051,36.1542,-2.7115
707,-27,36.182,2.74487,-2.76296e-06,1.2537e-05,0.00316181,0.0031667,-0.00315693,0.786608,0.00365095,0.0252873,1931,1051,36.182,-2.74485
714,-27,36.1783,2.75928,-0.000254186,-0.000146367,0.00331809,0.00311825,-0.00351881,0.793521,0.00383423,0.0201987,1938,1051,36.1783,-2.75927
721,-27,36.1571,2.86267,0,0,0,0,0,0,0,-1,1945,1051,36.1571,-2.86262
728,-27,36.1565,5.18079,0,0,0,0,0,0,0,-1,1952,1051,36.1565,-5.18078
735,-27,35.8409,5.20105,-0.00173814,0.000653076,0.00310363,0.00278342,-0.00386849,0.969252,0.00385748,0.0245365,1959,1051,35.841,-5.20107
742,-27,35.7185,5.16785,-0.00206789,0.00145467,0.00271707,0.00293138,-0.0035446,1.07296,0.00374449,0.0158911,1966,1051,35.7185,-5.16783
749,-27,35.7678,5.08337,-0.00181361,0.00230746,0.00168258,0.00290716,-0.00241332,1.22841,0.00307619,0.0127179,1973,1051,35.7678,-5.08331
756,-27,35.7402,5.01245,-0.000159263,0.00307988,0.000114226,0.0030839,-0.000163286,1.53559,0.00211247,0.0121603,1980,1051,35.7402,-5.01245
763,-27,35.6952,4.9386,0.00273575,0.00367745,-0.000910278,0.00423145,0.00218176,-1.02408,0.00244342,0.0139149,1987,1051,35.6952,-4.93861
770,-27,35.6487,4.87158,0.00688845,0.00430123,-0.00281885,0.00869634,0.00249334,-0.570277,0.00517087,0.0157248,1994,1051,35.6487,-4.87156
777,-27,35.6191,4.85767,0.0139124,0.00426002,-0.00496217,0.0160083,0.00216413,-0.399643,0.010029,0.0169449,2001,1051,35.6191,-4.85762
784,-27,35.5903,4.85486,0.0233898,0.00301821,-0.00698817,0.0255565,0.000851472,-0.300658,0.0167611,0.0248608,2008,1051,35.5903,-4.85491
791,-27,35.5967,4.72095,0.0361507,0.000269106,-0.00899992,0.0382815,-0.00186174,-0.232482,0.0261637,0.0419117,2015,1051,35.5968,-4.72094
798,-27,36.8245,5.06653,0.0535448,-0.00468723,-0.0108094,0.0554865,-0.00662898,-0.17774,0.0393871,0.0467337,2022,1051,36.8246,-5.06659
805,-27,37.3245,5.06982,0.0767739,-0.0125328,-0.0119405,0.0783428,-0.0141017,-0.130645,0.0575084,0.0469759,2029,1051,37.3244,-5.0698
812,-27,37.7908,5.1051,0,0,0,0,0,0,0,-1,2036,1051,37.7909,-5.1051
-700,-34,-26.0861,0.687988,-0.00210202,-0.00936454,-0.00241995,-0.00136954,-0.010097,-0.293917,0.00632446,0.0489282,524,1058,-26.0861,-0.68801
-693,-34,-26.3856,0.708862,0.00785181,-0.00868807,-0.00771934,0.0108947,-0.011731,-0.375488,0.0130659,0.0475441,531,1058,-26.3856,-0.708806
-686,-34,-27.6755,0.852417,0,0,0,0,0,0,0,-1,538,1058,-27.6755,-0.852366
-679,-34,-27.1792,2.08704,0,0,0,0,0,0,0,-1,545,1058,-27.1792,-2.08702
-672,-34,-27.1349,2.92224,0,0,0,0,0,0,0,-1,552,1058,-27.135,-2.92226
-665,-34,-25.9539,2.22083,0,0,0,0,0,0,0,-1,559,1058,-25.9539,-2.22083
-658,-34,-26.0225,2.1217,0.0120633,0.00311764,-0.00739413,0.0162322,-0.00105126,-0.513385,0.0111883,0.0441513,566,1058,-26.0225,-2.12167
-651,-34,-25.8775,1.95837,0.00980614,0.00419659,-0.00593746,0.013568,0.000434764,-0.564741,0.00890393,0.0304661,573,1058,-25.8775,-1.95842
-644,-34,-26.0377,1.93262,0.00775975,0.00447188,-0.00522264,0.0115911,0.000640551,-0.632922,0.00752296,0.0143478,580,1058,-26.0377,-1.93261
-637,-34,-26.0856,2.0199,0.00572231,0.00447951,-0.00519618,0.0103341,-0.000132293,-0.725887,0.00693392,0.0148202,587,1058,-26.0856,-2.0199
-630,-34,-26.0792,2.19531,0.00371673,0.00377222,-0.00519938,0.00894393,-0.00145498,-0.788066,0.0065021,0.0164436,594,1058,-26.0792,-2.19528
-623,-34,-26.05,2.35742,0.00192608,0.00285057,-0.00551256,0.00792023,-0.00314358,-0.827227,0.00658315,0.0131284,601,1058,-26.05,-2.35742
-616,-34,-26.0197,2.52319,0.00078678,0.00216738,-0.00587436,0.00739186,-0.00443769,-0.843886,0.00690042,0.0202233,608,1058,-26.0196,-2.52317
-609,-34,-26.0293,2.64722,0.00036137,0.00113565,-0.00662312,0.00738293,-0.00588591,-0.814591,0.00767701,0.020358,615,1058,-26.0293,-2.6472
-602,-34,-26.0403,2.73523,-8.19369e-05,0.000215145,-0.00709361,0.00716177,-0.00702856,-0.795867,0.00819291,0.015784,622,1058,-26.0403,-2.73523
-595,-34,-26.1102,2.80054,-0.000320646,-0.000175835,-0.00735918,0.0071113,-0.00760778,-0.790317,0.00849967,0.0151524,629,1058,-26.1102,-2.80051
-588,-34,-26.2313,1.82361,-0.000216247,-0.000293387,-0.00751227,0.00725755,-0.00776719,-0.782831,0.0086762,0.0265183,636,1058,-26.2313,-1.82361
-581,-34,-26.2841,0.589722,0,0,0,0,0,0,0,-1,643,1058,-26.2841,-0.589782
-574,-34,-26.1877,0.832031,-0.000122669,-0.000133721,-0.00732466,0.00719646,-0.00745285,-0.785021,0.00845822,0.0365121,650,1058,-26.1877,-0.832055
-567,-34,-26.1707,0.673828,-0.000245734,0.000278635,-0.00682889,0.00685037,-0.00681747,-0.804585,0.00789114,0.043387,657,1058,-26.1707,-0.673829
-560,-34,-26.038,0.596924,-0.00039578,0.000854336,-0.00616973,0.00643059,-0.00597204,-0.835881,0.00716229,0.0423273,664,1058,-26.038,-0.596871
-553,-34,-25.9661,0.814819,-0.000551062,0.00149609,-0.00551682,0.00608349,-0.00513845,-0.877124,0.00648664,0.0435741,671,1058,-25.966,-0.814831
-546,-34,-26.0681,0.954224,0,0,0,0,0,0,0,-1,678,1058,-26.068,-0.954202
-539,-34,-26.2691,0.999268,-0.000864686,0.00192837,-0.00620069,0.00688785,-0.00582416,-0.896161,0.00734784,0.0445306,685,1058,-26.2691,-0.999221
-532,-34,-26.2075,0.798096,-0.00133359,0.00219271,-0.0106201,0.011195,-0.0103359,-0.867658,0.0124342,0.0415705,692,1058,-26.2075,-0.798112
-525,-34,0,0,0,0,0,0,0,0,0,-1,699,1058,0,0
-518,-34,0,0,0,0,0,0,0,0,0,-1,706,1058,0,0
-511,-34,0,0,0,0,0,0,0,0,0,-1,713,1058,0,0
-504,-34,0,0,0,0,0,0,0,0,0,-1,720,1058,0,0
-497,-34,0,0,0,0,0,0,0,0,0,-1,727,1058,0,0
-490,-34,0,0,0,0,0,0,0,0,0,-1,734,1058,0,0
-483,-34,0,0,0,0,0,0,0,0,0,-1,741,1058,0,0
-476,-34,0,0,0,0,0,0,0,0,0,-1,748,1058,0,0
-469,-34,0,0,0,0,0,0,0,0,0,-1,755,1058,0,0
-462,-34,0,0,0,0,0,0,0,0,0,-1,762,1058,0,0
-455,-34,0,0,0,0,0,0,0,0,0,-1,769,1058,0,0
-448,-34,0,0,0,0,0,0,0,0,0,-1,776,1058,0,0
-441,-34,0,0,0,0,0,0,0,0,0,-1,783,1058,0,0
-434,-34,0,0,0,0,0,0,0,0,0,-1,790,1058,0,0
-427,-34,0,0,0,0,0,0,0,0,0,-1,797,1058,0,0
-420,-34,0,0,0,0,0,0,0,0,0,-1,804,1058,0,0
-413,-34,0,0,0,0,0,0,0,0,0,-1,811,1058,0,0
-406,-34,0,0,0,0,0,0,0,0,0,-1,818,1058,0,0
-399,-34,0,0,0,0,0,0,0,0,0,-1,825,1058,0,0
-392,-34,0,0,0,0,0,0,0,0,0,-1,832,1058,0,0
-385,-34,0,0,0,0,0,0,0,0,0,-1,839,1058,0,0
-378,-34,0,0,0,0,0,0,0,0,0,-1,846,1058,0,0
-371,-34,0,0,0,0,0,0,0,0,0,-1,853,1058,0,0
-364,-34,0,0,0,0,0,0,0,0,0,-1,860,1058,0,0
-357,-34,0,0,0,0,0,0,0,0,0,-1,867,1058,0,0
-350,-34,0,0,0,0,0,0,0,0,0,-1,874,1058,0,0
-343,-34,0,0,0,0,0,0,0,0,0,-1,881,1058,0,0
-336,-34,0,0,0,0,0,0,0,0,0,-1,888,1058,0,0
-329,-34,0,0,0,0,0,0,0,0,0,-1,895,1058,0,0
-322,-34,0,0,0,0,0,0,0,0,0,-1,902,1058,0,0
-315,-34,0,0,0,0,0,0,0,0,0,-1,909,1058,0,0
-308,-34,0,0,0,0,0,0,0,0,0,-1,916,1058,0,0
-301,-34,0,0,0,0,0,0,0,0,0,-1,923,1058,0,0
-294,-34,0,0,0,0,0,0,0,0,0,-1,930,1058,0,0
-287,-34,0,0,0,0,0,0,0,0,0,-1,937,1058,0,0
-280,-34,0,0,0,0,0,0,0,0,0,-1,944,1058,0,0
-273,-34,0,0,0,0,0,0,0,0,0,-1,951,1058,0,0
-266,-34,0,0,0,0,0,0,0,0,0,-1,958,1058,0,0
-259,-34,0,0,0,0,0,0,0,0,0,-1,965,1058,0,0
-252,-34,0,0,0,0,0,0,0,0,0,-1,972,1058,0,0
-245,-34,0,0,0,0,0,0,0,0,0,-1,979,1058,0,0
-238,-34,0,0,0,0,0,0,0,0,0,-1,986,1058,0,0
-231,-34,0,0,0,0,0,0,0,0,0,-1,993,1058,0,0
-224,-34,0,0,0,0,0,0,0,0,0,-1,1000,1058,0,0
-217,-34,0,0,0,0,0,0,0,0,0,-1,1007,1058,0,0
-210,-34,0,0,0,0,0,0,0,0,0,-1,1014,1058,0,0
-203,-34,0,0,0,0,0,0,0,0,0,-1,1021,1058,0,0
-196,-34,0,0,0,0,0,0,0,0,0,-1,1028,1058,0,0
-189,-34,0,0,0,0,0,0,0,0,0,-1,1035,1058,0,0
-182,-34,0,0,0,0,0,0,0,0,0,-1,1042,1058,0,0
-175,-34,0,0,0,0,0,0,0,0,0,-1,1049,1058,0,0
-168,-34,0,0,0,0,0,0,0,0,0,-1,1056,1058,0,0
-161,-34,0,0,0,0,0,0,0,0,0,-1,1063,1058,0,0
-154,-34,0,0,0,0,0,0,0,0,0,-1,1070,1058,0,0
-147,-34,0,0,0,0,0,0,0,0,0,-1,1077,1058,0,0
-140,-34,0,0,0,0,0,0,0,0,0,-1,1084,1058,0,0
-133,-34,0,0,0,0,0,0,0,0,0,-1,1091,1058,0,0
-126,-34,0,0,0,0,0,0,0,0,0,-1,1098,1058,0,0
-119,-34,0,0,0,0,0,0,0,0,0,-1,1105,1058,0,0
-112,-34,0,0,0,0,0,0,0,0,0,-1,1112,1058,0,0
-105,-34,0,0,0,0,0,0,0,0,0,-1,1119,1058,0,0
-98,-34,0,0,0,0,0,0,0,0,0,-1,1126,1058,0,0
-91,-34,0,0,0,0,0,0,0,0,0,-1,1133,1058,0,0
-84,-34,0,0,0,0,0,0,0,0,0,-1,1140,1058,0,0
-77,-34,0,0,0,0,0,0,0,0,0,-1,1147,1058,0,0
-70,-34,0,0,0,0,0,0,0,0,0,-1,1154,1058,0,0
-63,-34,0,0,0,0,0,0,0,0,0,-1,1161,1058,0,0
-56,-34,0,0,0,0,0,0,0,0,0,-1,1168,1058,0,0
-49,-34,0,0,0,0,0,0,0,0,0,-1,1175,1058,0,0
-42,-34,0,0,0,0,0,0,0,0,0,-1,1182,1058,0,0
-35,-34,0,0,0,0,0,0,0,0,0,-1,1189,1058,0,0
-28,-34,0,0,0,0,0,0,0,0,0,-1,1196,1058,0,0
-21,-34,0,0,0,0,0,0,0,0,0,-1,1203,1058,0,0
-14,-34,0,0,0,0,0,0,0,0,0,-1,1210,1058,0,0
-7,-34,0,0,0,0,0,0,0,0,0,-1,1217,1058,0,0
0,-34,0,0,0,0,0,0,0,0,0,-1,1224,1058,0,0
7,-34,0,0,0,0,0,0,0,0,0,-1,1231,1058,0,0
14,-34,0,0,0,0,0,0,0,0,0,-1,1238,1058,0,0
21,-34,0,0,0,0,0,0,0,0,0,-1,1245,1058,0,0
28,-34,0,0,0,0,0,0,0,0,0,-1,1252,1058,0,0
35,-34,0,0,0,0,0,0,0,0,0,-1,1259,1058,0,0
42,-34,0,0,0,0,0,0,0,0,0,-1,1266,1058,0,0
49,-34,0,0,0,0,0,0,0,0,0,-1,1273,1058,0,0
56,-34,0,0,0,0,0,0,0,0,0,-1,1280,1058,0,0
63,-34,0,0,0,0,0,0,0,0,0,-1,1287,1058,0,0
70,-34,0,0,0,0,0,0,0,0,0,-1,1294,1058,0,0
77,-34,0,0,0,0,0,0,0,0,0,-1,1301,1058,0,0
84,-34,0,0,0,0,0,0,0,0,0,-1,1308,1058,0,0
91,-34,0,0,0,0,0,0,0,0,0,-1,1315,1058,0,0
98,-34,0,0,0,0,0,0,0,0,0,-1,1322,1058,0,0
105,-34,0,0,0,0,0,0,0,0,0,-1,1329,1058,0,0
112,-34,0,0,0,0,0,0,0,0,0,-1,1336,1058,0,0
119,-34,0,0,0,0,0,0,0,0,0,-1,1343,1058,0,0
126,-34,0,0,0,0,0,0,0,0,0,-1,1350,1058,0,0
133,-34,0,0,0,0,0,0,0,0,0,-1,1357,1058,0,0
140,-34,0,0,0,0,0,0,0,0,0,-1,1364,1058,0,0
147,-34,0,0,0,0,0,0,0,0,0,-1,1371,1058,0,0
154,-34,0,0,0,0,0,0,0,0,0,-1,1378,1058,0,0
161,-34,0,0,0,0,0,0,0,0,0,-1,1385,1058,0,0
168,-34,0,0,0,0,0,0,0,0,0,-1,1392,1058,0,0
175,-34,0,0,0,0,0,0,0,0,0,-1,1399,1058,0,0
182,-34,0,0,0,0,0,0,0,0,0,-1,1406,1058,0,0
189,-34,0,0,0,0,0,0,0,0,0,-1,1413,1058,0,0
196,-34,0,0,0,0,0,0,0,0,0,-1,1420,1058,0,0
203,-34,0,0,0,0,0,0,0,0,0,-1,1427,1058,0,0
210,-34,0,0,0,0,0,0,0,0,0,-1,1434,1058,0,0
217,-34,0,0,0,0,0,0,0,0,0,-1,1441,1058,0,0
224,-34,0,0,0,0,0,0,0,0,0,-1,1448,1058,0,0
231,-34,0,0,0,0,0,0,0,0,0,-1,1455,1058,0,0
238,-34,0,0,0,0,0,0,0,0,0,-1,1462,1058,0,0
245,-34,0,0,0,0,0,0,0,0,0,-1,1469,1058,0,0
252,-34,0,0,0,0,0,0,0,0,0,-1,1476,1058,0,0
259,-34,0,0,0,0,0,0,0,0,0,-1,1483,1058,0,0
266,-34,0,0,0,0,0,0,0,0,0,-1,1490,1058,0,0
273,-34,0,0,0,0,0,0,0,0,0,-1,1497,1058,0,0
280,-34,0,0,0,0,0,0,0,0,0,-1,1504,1058,0,0
287,-34,0,0,0,0,0,0,0,0,0,-1,1511,1058,0,0
294,-34,0,0,0,0,0,0,0,0,0,-1,1518,1058,0,0
301,-34,0,0,0,0,0,0,0,0,0,-1,1525,1058,0,0
308,-34,0,0,0,0,0,0,0,0,0,-1,1532,1058,0,0
315,-34,0,0,0,0,0,0,0,0,0,-1,1539,1058,0,0
322,-34,0,0,0,0,0,0,0,0,0,-1,1546,1058,0,0
329,-34,0,0,0,0,0,0,0,0,0,-1,1553,1058,0,0
336,-34,0,0,0,0,0,0,0,0,0,-1,1560,1058,0,0
343,-34,0,0,0,0,0,0,0,0,0,-1,1567,1058,0,0
350,-34,0,0,0,0,0,0,0,0,0,-1,1574,1058,0,0
357,-34,0,0,0,0,0,0,0,0,0,-1,1581,1058,0,0
364,-34,0,0,0,0,0,0,0,0,0,-1,1588,1058,0,0
371,-34,0,0,0,0,0,0,0,0,0,-1,1595,1058,0,0
378,-34,0,0,0,0,0,0,0,0,0,-1,1602,1058,0,0
385,-34,0,0,0,0,0,0,0,0,0,-1,1609,1058,0,0
392,-34,0,0,0,0,0,0,0,0,0,-1,1616,1058,0,0
399,-34,0,0,0,0,0,0,0,0,0,-1,1623,1058,0,0
406,-34,0,0,0,0,0,0,0,0,0,-1,1630,1058,0,0
413,-34,0,0,0,0,0,0,0,0,0,-1,1637,1058,0,0
420,-34,0,0,0,0,0,0,0,0,0,-1,1644,1058,0,0
427,-34,0,0,0,0,0,0,0,0,0,-1,1651,1058,0,0
434,-34,0,0,0,0,0,0,0,0,0,-1,1658,1058,0,0
441,-34,0,0,0,0,0,0,0,0,0,-1,1665,1058,0,0
448,-34,0,0,0,0,0,0,0,0,0,-1,1672,1058,0,0
455,-34,0,0,0,0,0,0,0,0,0,-1,1679,1058,0,0
462,-34,0,0,0,0,0,0,0,0,0,-1,1686,1058,0,0
469,-34,0,0,0,0,0,0,0,0,0,-1,1693,1058,0,0
476,-34,0,0,0,0,0,0,0,0,0,-1,1700,1058,0,0
483,-34,0,0,0,0,0,0,0,0,0,-1,1707,1058,0,0
490,-34,0,0,0,0,0,0,0,0,0,-1,1714,1058,0,0
497,-34,0,0,0,0,0,0,0,0,0,-1,1721,1058,0,0
504,-34,0,0,0,0,0,0,0,0,0,-1,1728,1058,0,0
511,-34,0,0,0,0,0,0,0,0,0,-1,1735,1058,0,0
518,-34,0,0,0,0,0,0,0,0,0,-1,1742,1058,0,0
525,-34,0,0,0,0,0,0,0,0,0,-1,1749,1058,0,0
532,-34,0,0,0,0,0,0,0,0,0,-1,1756,1058,0,0
539,-34,0,0,0,0,0,0,0,0,0,-1,1763,1058,0,0
546,-34,0,0,0,0,0,0,0,0,0,-1,1770,1058,0,0
553,-34,0,0,0,0,0,0,0,0,0,-1,1777,1058,0,0
560,-34,0,0,0,0,0,0,0,0,0,-1,1784,1058,0,0
567,-34,0,0,0,0,0,0,0,0,0,-1,1791,1058,0,0
574,-34,0,0,0,0,0,0,0,0,0,-1,1798,1058,0,0
581,-34,0,0,0,0,0,0,0,0,0,-1,1805,1058,0,0
588,-34,0,0,0,0,0,0,0,0,0,-1,1812,1058,0,0
595,-34,0,0,0,0,0,0,0,0,0,-1,1819,1058,0,0
602,-34,0,0,0,0,0,0,0,0,0,-1,1826,1058,0,0
609,-34,0,0,0,0,0,0,0,0,0,-1,1833,1058,0,0
616,-34,0,0,0,0,0,0,0,0,0,-1,1840,1058,0,0
623,-34,0,0,0,0,0,0,0,0,0,-1,1847,1058,0,0
630,-34,0,0,0,0,0,0,0,0,0,-1,1854,1058,0,0
637,-34,0,0,0,0,0,0,0,0,0,-1,1861,1058,0,0
644,-34,0,0,0,0,0,0,0,0,0,-1,1868,1058,0,0
651,-34,36.396,2.8092,-0.00359702,0.00328321,0.00108086,0.00344901,-0.00376283,1.41858,0.00416507,0.0427603,1875,1058,36.396,-2.80918
658,-34,36.2152,2.87097,-0.00247596,0.00305341,0.000931172,0.00320601,-0.00262856,1.40836,0.00337409,0.0437195,1882,1058,36.2152,-2.87102
665,-34,36.125,2.84436,-0.00163991,0.00280883,0.000830723,0.00295889,-0.00178997,1.39208,0.0027693,0.0422267,1889,1058,36.125,-2.84436
672,-34,36.1698,2.65613,-0.000917771,0.00248525,0.00107427,0.002796,-0.00122852,1.28922,0.00238158,0.0385745,1896,1058,36.1698,-2.6561
679,-34,36.1687,2.69067,-0.00030564,0.00194798,0.00160427,0.00278163,-0.00113929,1.09156,0.002329,0.0386705,1903,1058,36.1688,-2.69066
686,-34,36.3473,2.79333,-6.04656e-05,0.00123482,0.00217684,0.00285831,-0.00168396,0.929986,0.00265154,0.043716,1910,1058,36.3473,-2.79329
693,-34,36.4976,2.88708,0,0,0,0,0,0,0,-1,1917,1058,36.4975,-2.88714
700,-34,36.2068,2.86926,-6.43288e-07,-9.3423e-05,0.00309855,0.00305186,-0.00314593,0.777913,0.00357844,0.0396947,1924,1058,36.2068,-2.86923
707,-34,36.149,2.78992,-0.000120749,-0.000432942,0.00335564,0.00308242,-0.00363611,0.762156,0.00388333,0.0238014,1931,1058,36.149,-2.78989
714,-34,36.1384,2.76892,-0.000382141,-0.00059657,0.00351147,0.00302375,-0.00400246,0.770137,0.00406968,0.0174009,1938,1058,36.1384,-2.76887
721,-34,36.2076,3.21301,-0.000865232,-0.000539264,0.00355398,0.00285547,-0.00425996,0.808312,0.00413469,0.0357999,1945,1058,36.2076,-3.21303
728,-34,35.78,5.28564,0,0,0,0,0,0,0,-1,1952,1058,35.78,-5.28566
735,-34,35.6527,5.24622,-0.00180114,0.000188843,0.00328755,0.00262867,-0.00424097,0.932344,0.00400243,0.016554,1959,1058,35.6527,-5.24616
742,-34,35.5925,5.17017,-0.00199826,0.00101058,0.00285536,0.0027336,-0.00372128,1.02786,0.00374124,0.014012,1966,1058,35.5925,-5.17016
749,-34,35.6302,5.078,-0.00159198,0.00180601,0.00175905,0.00255259,-0.00233856,1.16941,0.00282481,0.0128056,1973,1058,35.6302,-5.07795
756,-34,35.642,4.9856,-0.000131319,0.00258578,0.000184762,0.00259828,-0.000143825,1.50321,0.00178207,0.0102423,1980,1058,35.6419,-4.98555
763,-34,35.601,4.90881,0.00232835,0.00331638,-0.00110002,0.00402823,0.0016165,-0.996447,0.00234075,0.0115151,1987,1058,35.6009,-4.90881
770,-34,35.5446,4.83044,0.00593362,0.00405429,-0.00327207,0.00839827,0.00158964,-0.645572,0.00515138,0.0171019,1994,1058,35.5446,-4.83049
777,-34,35.4934,4.79578,0.0118447,0.00419116,-0.00584183,0.0150016,0.0010343,-0.495434,0.00967473,0.0185778,2001,1058,35.4934,-4.79578
784,-34,35.4366,4.76538,0.0196425,0.00321481,-0.00844121,0.0232066,-0.000349348,-0.399525,0.0155889,0.0338072,2008,1058,35.4366,-4.7654
791,-34,35.3452,4.74084,0.0299171,0.000872364,-0.0112457,0.0337622,-0.00297275,-0.329458,0.0235617,0.0434674,2015,1058,35.3451,-4.74084
798,-34,37.209,4.95813,0,0,0,0,0,0,0,-1,2022,1058,37.209,-4.95807
805,-34,37.7056,4.96179,0,0,0,0,0,0,0,-1,2029,1058,37.7055,-4.96181
812,-34,34.667,2.07544,0,0,0,0,0,0,0,-1,2036,1058,34.667,-2.07547
-700,-41,-26.3894,0.648071,-0.000600252,-0.00956129,-0.00473301,0.00143662,-0.0115982,-0.406398,0.00825277,0.049324,524,1065,-26.3894,-0.648112
-693,-41,-26.3365,0.613281,0.00777254,-0.00851015,-0.00874626,0.0115802,-0.0123178,-0.410602,0.0137997,0.0453654,531,1065,-26.3365,-0.613292
-686,-41,-27.0705,0.700073,0.0121207,-0.00619588,-0.0103419,0.0167766,-0.0108517,-0.423011,0.016073,0.043903,538,1065,-27.0705,-0.700053
-679,-41,-27.3992,1.62036,0,0,0,0,0,0,0,-1,545,1065,-27.3991,-1.6204
-672,-41,-27.5194,2.53625,0,0,0,0,0,0,0,-1,552,1065,-27.5194,-2.53629
-665,-41,-26.3097,0.66394,0,0,0,0,0,0,0,-1,559,1065,-26.3097,-0.663901
-658,-41,-26.0009,1.15405,0.0106937,0.00294707,-0.00690093,0.014734,-0.00109324,-0.529669,0.0102066,0.0417828,566,1065,-26.0009,-1.15405
-651,-41,-25.6414,1.71191,0.0087054,0.00393774,-0.00549975,0.0123157,0.000327418,-0.580898,0.00810355,0.0323563,573,1065,-25.6414,-1.71197
-644,-41,-25.9069,1.87634,0.00689106,0.00417902,-0.0048144,0.0105368,0.000533321,-0.648125,0.00685366,0.0161054,580,1065,-25.9069,-1.87632
-637,-41,-25.9572,2.00061,0.00501814,0.00416107,-0.00477981,0.00938859,-0.000209375,-0.74069,0.00633,0.0162072,587,1065,-25.9572,-2.00066
-630,-41,-25.9398,2.1604,0.00319586,0.00341226,-0.00477315,0.00807844,-0.00147032,-0.79673,0.00593674,0.0139146,594,1065,-25.9397,-2.16043
-623,-41,-25.9026,2.32983,0.00163984,0.00249414,-0.00513187,0.0072166,-0.00308263,-0.82692,0.00610385,0.0120387,601,1065,-25.9026,-2.32989
-616,-41,-25.8824,2.50183,0.000595139,0.00182471,-0.00545708,0.00670153,-0.00428168,-0.841491,0.00639226,0.0154326,608,1065,-25.8824,-2.50177
-609,-41,-25.8583,2.64868,0.000197816,0.000808256,-0.00610314,0.0066138,-0.00560773,-0.810383,0.00706407,0.021199,615,1065,-25.8583,-2.64867
-602,-41,-25.9088,2.74536,-0.000178012,-0.000107703,-0.00648034,0.00633758,-0.0066233,-0.788111,0.00748357,0.0134847,622,1065,-25.9088,-2.74532
-595,-41,-25.9918,2.84961,-0.000401925,-0.000551911,-0.00672595,0.00624945,-0.00720328,-0.779824,0.00777344,0.0189175,629,1065,-25.9918,-2.84965
-588,-41,-26.1699,1.7782,-0.000327407,-0.000731341,-0.00687113,0.00634473,-0.00740347,-0.770706,0.00794537,0.031351,636,1065,-26.1698,-1.77817
-581,-41,-26.2768,0.72937,0,0,0,0,0,0,0,-1,643,1065,-26.2768,-0.729312
-574,-41,-26.2499,0.80481,-0.000257539,-0.000741956,-0.00671225,0.00621687,-0.00721637,-0.767364,0.00776284,0.0381105,650,1065,-26.2499,-0.804821
-567,-41,-26.2635,0.77124,-0.000370623,-0.000433844,-0.00627483,0.00587268,-0.00667715,-0.782879,0.00725061,0.042625,657,1065,-26.2636,-0.771184
-560,-41,-26.2603,0.766846,-0.000517295,4.7332e-05,-0.00568039,0.00545242,-0.00592239,-0.810228,0.00656912,0.0436601,664,1065,-26.2603,-0.766841
-553,-41,-26.1824,0.680542,-0.000674646,0.000617915,-0.00508407,0.00509661,-0.00515334,-0.848619,0.00591784,0.0441668,671,1065,-26.1824,-0.680574
-546,-41,-26.0085,0.803833,0,0,0,0,0,0,0,-1,678,1065,-26.0086,-0.803848
-539,-41,-26.2701,0.832397,-0.00112431,0.00104783,-0.00569503,0.00575943,-0.00583591,-0.879619,0.00669462,0.0407245,685,1065,-26.2701,-0.832426
-532,-41,-26.3203,0.656006,-0.00180995,0.00114309,-0.00990843,0.00968441,-0.0103513,-0.859362,0.0115697,0.0388017,692,1065,-26.3203,-0.655955
-525,-41,0,0,0,0,0,0,0,0,0,-1,699,1065,0,0
-518,-41,0,0,0,0,0,0,0,0,0,-1,706,1065,0,0
-511,-41,0,0,0,0,0,0,0,0,0,-1,713,1065,0,0
-504,-41,0,0,0,0,0,0,0,0,0,-1,720,1065,0,0
-497,-41,0,0,0,0,0,0,0,0,0,-1,727,1065,0,0
-490,-41,0,0,0,0,0,0,0,0,0,-1,734,1065,0,0
-483,-41,0,0,0,0,0,0,0,0,0,-1,741,1065,0,0
-476,-41,0,0,0,0,0,0,0,0,0,-1,748,1065,0,0
-469,-41,0,0,0,0,0,0,0,0,0,-1,755,1065,0,0
-462,-41,0,0,0,0,0,0,0,0,0,-1,762,1065,0,0
-455,-41,0,0,0,0,0,0,0,0,0,-1,769,1065,0,0
-448,-41,0,0,0,0,0,0,0,0,0,-1,776,1065,0,0
-441,-41,0,0,0,0,0,0,0,0,0,-1,783,1065,0,0
-434,-41,0,0,0,0,0,0,0,0,0,-1,790,1065,0,0
-427,-41,0,0,0,0,0,0,0,0,0,-1,797,1065,0,0
-420,-41,0,0,0,0,0,0,0,0,0,-1,804,1065,0,0
-413,-41,0,0,0,0,0,0,0,0,0,-1,811,1065,0,0
-406,-41,0,0,0,0,0,0,0,0,0,-1,818,1065,0,0
-399,-41,0,0,0,0,0,0,0,0,0,-1,825,1065,0,0
-392,-41,0,0,0,0,0,0,0,0,0,-1,832,1065,0,0
-385,-41,0,0,0,0,0,0,0,0,0,-1,839,1065,0,0
-378,-41,0,0,0,0,0,0,0,0,0,-1,846,1065,0,0
-371,-41,0,0,0,0,0,0,0,0,0,-1,853,1065,0,0
-364,-41,0,0,0,0,0,0,0,0,0,-1,860,1065,0,0
-357,-41,0,0,0,0,0,0,0,0,0,-1,867,1065,0,0
-350,-41,0,0,0,0,0,0,0,0,0,-1,874,1065,0,0
-343,-41,0,0,0,0,0,0,0,0,0,-1,881,1065,0,0
-336,-41,0,0,0,0,0,0,0,0,0,-1,888,1065,0,0
-329,-41,0,0,0,0,0,0,0,0,0,-1,895,1065,0,0
-322,-41,0,0,0,0,0,0,0,0,0,-1,902,1065,0,0
-315,-41,0,0,0,0,0,0,0,0,0,-1,909,1065,0,0
-308,-41,0,0,0,0,0,0,0,0,0,-1,916,1065,0,0
-301,-41,0,0,0,0,0,0,0,0,0,-1,923,1065,0,0
-294,-41,0,0,0,0,0,0,0,0,0,-1,930,1065,0,0
-287,-41,0,0,0,0,0,0,0,0,0,-1,937,1065,0,0
-280,-41,0,0,0,0,0,0,0,0,0,-1,944,1065,0,0
-273,-41,0,0,0,0,0,0,0,0,0,-1,951,1065,0,0
-266,-41,0,0,0,0,0,0,0,0,0,-1,958,1065,0,0
-259,-41,0,0,0,0,0,0,0,0,0,-1,965,1065,0,0
-252,-41,0,0,0,0,0,0,0,0,0,-1,972,1065,0,0
-245,-41,0,0,0,0,0,0,0,0,0,-1,979,1065,0,0
-238,-41,0,0,0,0,0,0,0,0,0,-1,986,1065,0,0
-231,-41,0,0,0,0,0,0,0,0,0,-1,993,1065,0,0
-224,-41,0,0,0,0,0,0,0,0,0,-1,1000,1065,0,0
-217,-41,0,0,0,0,0,0,0,0,0,-1,1007,1065,0,0
-210,-41,0,0,0,0,0,0,0,0,0,-1,1014,1065,0,0
-203,-41,0,0,0,0,0,0,0,0,0,-1,1021,1065,0,0
-196,-41,0,0,0,0,0,0,0,0,0,-1,1028,1065,0,0
-189,-41,0,0,0,0,0,0,0,0,0,-1,1035,1065,0,0
-182,-41,0,0,0,0,0,0,0,0,0,-1,1042,1065,0,0
-175,-41,0,0,0,0,0,0,0,0,0,-1,1049,1065,0,0
-168,-41,0,0,0,0,0,0,0,0,0,-1,1056,1065,0,0
-161,-41,0,0,0,0,0,0,0,0,0,-1,1063,1065,0,0
-154,-41,0,0,0,0,0,0,0,0,0,-1,1070,1065,0,0
-147,-41,0,0,0,0,0,0,0,0,0,-1,1077,1065,0,0
-140,-41,0,0,0,0,0,0,0,0,0,-1,1084,1065,0,0
-133,-41,0,0,0,0,0,0,0,0,0,-1,1091,1065,0,0
-126,-41,0,0,0,0,0,0,0,0,0,-1,1098,1065,0,0
-119,-41,0,0,0,0,0,0,0,0,0,-1,1105,1065,0,0
-112,-41,0,0,0,0,0,0,0,0,0,-1,1112,1065,0,0
-105,-41,0,0,0,0,0,0,0,0,0,-1,1119,1065,0,0
-98,-41,0,0,0,0,0,0,0,0,0,-1,1126,1065,0,0
-91,-41,0,0,0,0,0,0,0,0,0,-1,1133,1065,0,0
-84,-41,0,0,0,0,0,0,0,0,0,-1,1140,1065,0,0
-77,-41,0,0,0,0,0,0,0,0,0,-1,1147,1065,0,0
-70,-41,0,0,0,0,0,0,0,0,0,-1,1154,1065,0,0
-63,-41,0,0,0,0,0,0,0,0,0,-1,1161,1065,0,0
-56,-41,0,0,0,0,0,0,0,0,0,-1,1168,1065,0,0
-49,-41,0,0,0,0,0,0,0,0,0,-1,1175,1065,0,0
-42,-41,0,0,0,0,0,0,0,0,0,-1,1182,1065,0,0
-35,-41,0,0,0,0,0,0,0,0,0,-1,1189,1065,0,0
-28,-41,0,0,0,0,0,0,0,0,0,-1,1196,1065,0,0
-21,-41,0,0,0,0,0,0,0,0,0,-1,1203,1065,0,0
-14,-41,0,0,0,0,0,0,0,0,0,-1,1210,1065,0,0
-7,-41,0,0,0,0,0,0,0,0,0,-1,1217,1065,0,0
0,-41,0,0,0,0,0,0,0,0,0,-1,1224,1065,0,0
7,-41,0,0,0,0,0,0,0,0,0,-1,1231,1065,0,0
14,-41,0,0,0,0,0,0,0,0,0,-1,1238,1065,0,0
21,-41,0,0,0,0,0,0,0,0,0,-1,1245,1065,0,0
28,-41,0,0,0,0,0,0,0,0,0,-1,1252,1065,0,0
35,-41,0,0,0,0,0,0,0,0,0,-1,1259,1065,0,0
42,-41,0,0,0,0,0,0,0,0,0,-1,1266,1065,0,0
49,-41,0,0,0,0,0,0,0,0,0,-1,1273,1065,0,0
56,-41,0,0,0,0,0,0,0,0,0,-1,1280,1065,0,0
63,-41,0,0,0,0,0,0,0,0,0,-1,1287,1065,0,0
70,-41,0,0,0,0,0,0,0,0,0,-1,1294,1065,0,0
77,-41,0,0,0,0,0,0,0,0,0,-1,1301,1065,0,0
84,-41,0,0,0,0,0,0,0,0,0,-1,1308,1065,0,0
91,-41,0,0,0,0,0,0,0,0,0,-1,1315,1065,0,0
98,-41,0,0,0,0,0,0,0,0,0,-1,1322,1065,0,0
105,-41,0,0,0,0,0,0,0,0,0,-1,1329,1065,0,0
112,-41,0,0,0,0,0,0,0,0,0,-1,1336,1065,0,0
119,-41,0,0,0,0,0,0,0,0,0,-1,1343,1065,0,0
126,-41,0,0,0,0,0,0,0,0,0,-1,1350,1065,0,0
133,-41,0,0,0,0,0,0,0,0,0,-1,1357,1065,0,0
140,-41,0,0,0,0,0,0,0,0,0,-1,1364,1065,0,0
147,-41,0,0,0,0,0,0,0,0,0,-1,1371,1065,0,0
154,-41,0,0,0,0,0,0,0,0,0,-1,1378,1065,0,0
161,-41,0,0,0,0,0,0,0,0,0,-1,1385,1065,0,0
168,-41,0,0,0,0,0,0,0,0,0,-1,1392,1065,0,0
175,-41,0,0,0,0,0,0,0,0,0,-1,1399,1065,0,0
182,-41,0,0,0,0,0,0,0,0,0,-1,1406,1065,0,0
189,-41,0,0,0,0,0,0,0,0,0,-1,1413,1065,0,0
196,-41,0,0,0,0,0,0,0,0,0,-1,1420,1065,0,0
203,-41,0,0,0,0,0,0,0,0,0,-1,1427,1065,0,0
210,-41,0,0,0,0,0,0,0,0,0,-1,1434,1065,0,0
217,-41,0,0,0,0,0,0,0,0,0,-1,1441,1065,0,0
224,-41,0,0,0,0,0,0,0,0,0,-1,1448,1065,0,0
231,-41,0,0,0,0,0,0,0,0,0,-1,1455,1065,0,0
238,-41,0,0,0,0,0,0,0,0,0,-1,1462,1065,0,0
245,-41,0,0,0,0,0,0,0,0,0,-1,1469,1065,0,0
252,-41,0,0,0,0,0,0,0,0,0,-1,1476,1065,0,0
259,-41,0,0,0,0,0,0,0,0,0,-1,1483,1065,0,0
266,-41,0,0,0,0,0,0,0,0,0,-1,1490,1065,0,0
273,-41,0,0,0,0,0,0,0,0,0,-1,1497,1065,0,0
280,-41,0,0,0,0,0,0,0,0,0,-1,1504,1065,0,0
287,-41,0,0,0,0,0,0,0,0,0,-1,1511,1065,0,0
294,-41,0,0,0,0,0,0,0,0,0,-1,1518,1065,0,0
301,-41,0,0,0,0,0,0,0,0,0,-1,1525,1065,0,0
308,-41,0,0,0,0,0,0,0,0,0,-1,1532,1065,0,0
315,-41,0,0,0,0,0,0,0,0,0,-1,1539,1065,0,0
322,-41,0,0,0,0,0,0,0,0,0,-1,1546,1065,0,0
329,-41,0,0,0,0,0,0,0,0,0,-1,1553,1065,0,0
336,-41,0,0,0,0,0,0,0,0,0,-1,1560,1065,0,0
343,-41,0,0,0,0,0,0,0,0,0,-1,1567,1065,0,0
350,-41,0,0,0,0,0,0,0,0,0,-1,1574,1065,0,0
357,-41,0,0,0,0,0,0,0,0,0,-1,1581,1065,0,0
364,-41,0,0,0,0,0,0,0,0,0,-1,1588,1065,0,0
371,-41,0,0,0,0,0,0,0,0,0,-1,1595,1065,0,0
378,-41,0,0,0,0,0,0,0,0,0,-1,1602,1065,0,0
385,-41,0,0,0,0,0,0,0,0,0,-1,1609,1065,0,0
392,-41,0,0,0,0,0,0,0,0,0,-1,1616,1065,0,0
399,-41,0,0,0,0,0,0,0,0,0,-1,1623,1065,0,0
406,-41,0,0,0,0,0,0,0,0,0,-1,1630,1065,0,0
413,-41,0,0,0,0,0,0,0,0,0,-1,1637,1065,0,0
420,-41,0,0,0,0,0,0,0,0,0,-1,1644,1065,0,0
427,-41,0,0,0,0,0,0,0,0,0,-1,1651,1065,0,0
434,-41,0,0,0,0,0,0,0,0,0,-1,1658,1065,0,0
441,-41,0,0,0,0,0,0,0,0,0,-1,1665,1065,0,0
448,-41,0,0,0,0,0,0,0,0,0,-1,1672,1065,0,0
455,-41,0,0,0,0,0,0,0,0,0,-1,1679,1065,0,0
462,-41,0,0,0,0,0,0,0,0,0,-1,1686,1065,0,0
469,-41,0,0,0,0,0,0,0,0,0,-1,1693,1065,0,0
476,-41,0,0,0,0,0,0,0,0,0,-1,1700,1065,0,0
483,-41,0,0,0,0,0,0,0,0,0,-1,1707,1065,0,0
490,-41,0,0,0,0,0,0,0,0,0,-1,1714,1065,0,0
497,-41,0,0,0,0,0,0,0,0,0,-1,1721,1065,0,0
504,-41,0,0,0,0,0,0,0,0,0,-1,1728,1065,0,0
511,-41,0,0,0,0,0,0,0,0,0,-1,1735,1065,0,0
518,-41,0,0,0,0,0,0,0,0,0,-1,1742,1065,0,0
525,-41,0,0,0,0,0,0,0,0,0,-1,1749,1065,0,0
532,-41,0,0,0,0,0,0,0,0,0,-1,1756,1065,0,0
539,-41,0,0,0,0,0,0,0,0,0,-1,1763,1065,0,0
546,-41,0,0,0,0,0,0,0,0,0,-1,1770,1065,0,0
553,-41,0,0,0,0,0,0,0,0,0,-1,1777,1065,0,0
560,-41,0,0,0,0,0,0,0,0,0,-1,1784,1065,0,0
567,-41,0,0,0,0,0,0,0,0,0,-1,1791,1065,0,0
574,-41,0,0,0,0,0,0,0,0,0,-1,1798,1065,0,0
581,-41,0,0,0,0,0,0,0,0,0,-1,1805,1065,0,0
588,-41,0,0,0,0,0,0,0,0,0,-1,1812,1065,0,0
595,-41,0,0,0,0,0,0,0,0,0,-1,1819,1065,0,0
602,-41,0,0,0,0,0,0,0,0,0,-1,1826,1065,0,0
609,-41,0,0,0,0,0,0,0,0,0,-1,1833,1065,0,0
616,-41,0,0,0,0,0,0,0,0,0,-1,1840,1065,0,0
623,-41,0,0,0,0,0,0,0,0,0,-1,1847,1065,0,0
630,-41,0,0,0,0,0,0,0,0,0,-1,1854,1065,0,0
637,-41,0,0,0,0,0,0,0,0,0,-1,1861,1065,0,0
644,-41,0,0,0,0,0,0,0,0,0,-1,1868,1065,0,0
651,-41,36.2354,2.72131,-0.00394669,0.00133636,0.000647448,0.00141455,-0.00402488,1.45061,0.00325876,0.0360615,1875,1065,36.2354,-2.72136
658,-41,36.1765,2.61694,-0.00263951,0.00160368,0.000614463,0.00169087,-0.0027267,1.42984,0.00257375,0.0390225,1882,1065,36.1766,-2.61694
665,-41,36.172,2.60278,-0.00168007,0.00172702,0.000615942,0.00183496,-0.001788,1.39733,0.00209177,0.0407706,1889,1065,36.172,-2.60276
672,-41,36.1919,2.64758,-0.000865782,0.00165812,0.0009423,0.00197111,-0.00117878,1.2501,0.00183767,0.0407256,1896,1065,36.192,-2.64757
679,-41,36.1108,2.70496,-0.000233185,0.00131223,0.00155253,0.00227371,-0.00119467,1.0163,0.00203452,0.0411797,1903,1065,36.1108,-2.70502
686,-41,36.1827,2.68066,-2.91952e-05,0.000723249,0.00218862,0.00256775,-0.0018737,0.870516,0.00257469,0.043911,1910,1065,36.1827,-2.68068
693,-41,36.2997,2.73499,2.16898e-05,7.27894e-05,0.00274694,0.0027943,-0.00269982,0.790049,0.00317219,0.0469403,1917,1065,36.2996,-2.73493
700,-41,36.2529,2.85266,-6.09274e-05,-0.000451981,0.0031731,0.00292267,-0.00343558,0.754627,0.00367491,0.0405254,1924,1065,36.2529,-2.85266
707,-41,36.1874,2.76208,-0.000205061,-0.000757124,0.00345674,0.00298665,-0.00394884,0.745556,0.00401703,0.0242947,1931,1065,36.1873,-2.76207
714,-41,36.1547,2.72644,-0.000486109,-0.000902585,0.00363035,0.00294197,-0.00433067,0.756749,0.0042243,0.0168427,1938,1065,36.1547,-2.72646
721,-41,36.2012,3.54895,-0.00096841,-0.000839691,0.00369577,0.00279228,-0.00460038,0.794104,0.0043105,0.0481126,1945,1065,36.2012,-3.549
728,-41,35.663,5.29907,0,0,0,0,0,0,0,-1,1952,1065,35.663,-5.29908
735,-41,35.5513,5.23511,-0.00180593,-0.000153195,0.00342294,0.00254172,-0.00450084,0.903842,0.00411813,0.0167336,1959,1065,35.5512,-5.23516
742,-41,35.4883,5.16504,-0.00183511,0.000615119,0.00292253,0.00255894,-0.00377892,0.98387,0.00368169,0.014487,1966,1065,35.4882,-5.1651
749,-41,35.5092,5.07983,-0.00126022,0.00128956,0.00175507,0.00218392,-0.00215457,1.09951,0.00250485,0.0141527,1973,1065,35.5092,-5.07979
756,-41,35.5265,4.98694,-0.000292295,0.0020813,0.000204811,0.00209884,-0.000309838,1.48535,0.00151312,0.0135157,1980,1065,35.5265,-4.98692
763,-41,35.4901,4.87903,0.00118202,0.002977,-0.00149853,0.00382624,0.000332773,-1.05521,0.00244746,0.0108461,1987,1065,35.4901,-4.87907
770,-41,35.4305,4.79248,0.0035736,0.00385109,-0.00403966,0.00775438,-0.000329695,-0.802564,0.00528292,0.0124207,1994,1065,35.4306,-4.79252
777,-41,35.3654,4.68811,0.00724011,0.00426937,-0.00720128,0.0131076,-0.00159814,-0.683692,0.00931692,0.0148312,2001,1065,35.3654,-4.68812
784,-41,35.2958,4.5459,0.0117407,0.00379613,-0.0106268,0.0191134,-0.00357656,-0.60654,0.0140866,0.0253232,2008,1065,35.2958,-4.54595
791,-41,35.4333,4.51086,0.0171798,0.0023035,-0.0146074,0.0261338,-0.0066505,-0.549906,0.0200112,0.0414197,2015,1065,35.4334,-4.51089
798,-41,35.5781,4.3877,0,0,0,0,0,0,0,-1,2022,1065,35.5781,-4.38772
805,-41,34.377,2.59094,0,0,0,0,0,0,0,-1,2029,1065,34.377,-2.59089
812,-41,34.7551,2.15808,0,0,0,0,0,0,0,-1,2036,1065,34.7551,-2.15807
-700,-48,-26.3586,0.505737,0,0,0,0,0,0,0,-1,524,1072,-26.3586,-0.505737
-693,-48,-26.2743,0.542725,0.00313437,-0.00443379,-0.00394878,0.00481949,-0.00611891,-0.403347,0.00633012,0.0464722,531,1072,-26.2743,-0.54273
-686,-48,-26.2303,0.711548,0.00707991,-0.00287921,-0.00576723,0.00971986,-0.00551916,-0.429281,0.00890898,0.0478666,538,1072,-26.2303,-0.711584
-679,-48,-26.1704,0.897095,0,0,0,0,0,0,0,-1,545,1072,-26.1704,-0.897099
-672,-48,-26.8243,-0.178833,0.00914042,0.000819249,-0.0061253,0.0123845,-0.00242487,-0.487067,0.00917213,0.0446476,552,1072,-26.8243,0.178868
-665,-48,-26.1091,0.38562,0.00863738,0.002382,-0.00549619,0.0118335,-0.000814125,-0.526717,0.0081739,0.0471892,559,1072,-26.1092,-0.385582
-658,-48,-25.8032,0.843628,0.0076099,0.00351899,-0.00467159,0.0106642,0.000464673,-0.579046,0.00695976,0.0461069,566,1072,-25.8032,-0.843601
-651,-48,-25.5739,1.43066,0.00631167,0.00413019,-0.00381384,0.00918768,0.00125418,-0.646119,0.00575281,0.0361943,573,1072,-25.5739,-1.43065
-644,-48,-25.6867,1.8457,0.00506372,0.00418424,-0.00350465,0.00815611,0.00109185,-0.722988,0.00511247,0.0187412,580,1072,-25.6867,-1.84569
-637,-48,-25.6984,1.93604,0.00370838,0.0040112,-0.00377358,0.00763641,8.31755e-05,-0.805449,0.00506344,0.0178067,587,1072,-25.6984,-1.93606
-630,-48,-25.6839,2.11829,0.00234191,0.00316006,-0.0040041,0.00677593,-0.00127396,-0.836304,0.00499638,0.0192633,594,1072,-25.6839,-2.11827
-623,-48,-25.7601,2.30835,0.00119481,0.0022411,-0.0045277,0.00627578,-0.00283987,-0.842915,0.0053861,0.0116752,601,1072,-25.7601,-2.30832
-616,-48,-25.7384,2.46167,0.000396851,0.00166235,-0.00483447,0.0059053,-0.0038461,-0.85047,0.00567166,0.0103261,608,1072,-25.7384,-2.46162
-609,-48,-25.709,2.63159,0.000116652,0.000709086,-0.00538803,0.00580903,-0.00498329,-0.812859,0.00623703,0.0118655,615,1072,-25.709,-2.63163
-602,-48,-25.7359,2.7937,-0.000147312,-0.000151867,-0.00571274,0.00556315,-0.00586233,-0.785199,0.00659726,0.0119227,622,1072,-25.7359,-2.79375
-595,-48,-25.7913,2.91479,-0.000343648,-0.000598431,-0.00593959,0.00546992,-0.00641199,-0.774676,0.00686721,0.0230364,629,1072,-25.7912,-2.91482
-588,-48,-26.0517,1.77075,-0.000282334,-0.000837539,-0.00609183,0.00553822,-0.00665809,-0.762629,0.00705143,0.0430988,636,1072,-26.0517,-1.77078
-581,-48,-26.1187,0.618896,0,0,0,0,0,0,0,-1,643,1072,-26.1187,-0.618885
-574,-48,-26.1472,0.721924,0,0,0,0,0,0,0,-1,650,1072,-26.1472,-0.721872
-567,-48,-26.1208,1.08691,0,0,0,0,0,0,0,-1,657,1072,-26.1208,-1.08694
-560,-48,-26.3292,0.846558,-0.000517918,-0.000411206,-0.00509927,0.00463498,-0.00556411,-0.79063,0.00589659,0.0416058,664,1072,-26.3292,-0.846552
-553,-48,-26.4275,0.838623,-0.000716883,4.05302e-05,-0.0045842,0.00426164,-0.004938,-0.82661,0.0053162,0.0429637,671,1072,-26.4275,-0.83864
-546,-48,-26.4186,1.0885,-0.000976862,0.000419186,-0.00423956,0.0040178,-0.00457548,-0.866989,0.00496482,0.0405262,678,1072,-26.4186,-1.08851
-539,-48,-26.4835,0.87793,-0.0013744,0.000358646,-0.00515354,0.00471801,-0.00573376,-0.86869,0.00604382,0.0385609,685,1072,-26.4835,-0.87795
-532,-48,-26.4595,0.659668,-0.00220164,0.000253975,-0.00905625,0.00816527,-0.0101129,-0.852775,0.0105729,0.0382349,692,1072,-26.4595,-0.659666
-525,-48,0,0,0,0,0,0,0,0,0,-1,699,1072,0,0
-518,-48,0,0,0,0,0,0,0,0,0,-1,706,1072,0,0
-511,-48,0,0,0,0,0,0,0,0,0,-1,713,1072,0,0
-504,-48,0,0,0,0,0,0,0,0,0,-1,720,1072,0,0
-497,-48,0,0,0,0,0,0,0,0,0,-1,727,1072,0,0
-490,-48,0,0,0,0,0,0,0,0,0,-1,734,1072,0,0
-483,-48,0,0,0,0,0,0,0,0,0,-1,741,1072,0,0
-476,-48,0,0,0,0,0,0,0,0,0,-1,748,1072,0,0
-469,-48,0,0,0,0,0,0,0,0,0,-1,755,1072,0,0
-462,-48,0,0,0,0,0,0,0,0,0,-1,762,1072,0,0
-455,-48,0,0,0,0,0,0,0,0,0,-1,769,1072,0,0
-448,-48,0,0,0,0,0,0,0,0,0,-1,776,1072,0,0
-441,-48,0,0,0,0,0,0,0,0,0,-1,783,1072,0,0
-434,-48,0,0,0,0,0,0,0,0,0,-1,790,1072,0,0
-427,-48,0,0,0,0,0,0,0,0,0,-1,797,1072,0,0
-420,-48,0,0,0,0,0,0,0,0,0,-1,804,1072,0,0
-413,-48,0,0,0,0,0,0,0,0,0,-1,811,1072,0,0
-406,-48,0,0,0,0,0,0,0,0,0,-1,818,1072,0,0
-399,-48,0,0,0,0,0,0,0,0,0,-1,825,1072,0,0
-392,-48,0,0,0,0,0,0,0,0,0,-1,832,1072,0,0
-385,-48,0,0,0,0,0,0,0,0,0,-1,839,1072,0,0
-378,-48,0,0,0,0,0,0,0,0,0,-1,846,1072,0,0
-371,-48,0,0,0,0,0,0,0,0,0,-1,853,1072,0,0
-364,-48,0,0,0,0,0,0,0,0,0,-1,860,1072,0,0
-357,-48,0,0,0,0,0,0,0,0,0,-1,867,1072,0,0
-350,-48,0,0,0,0,0,0,0,0,0,-1,874,1072,0,0
-343,-48,0,0,0,0,0,0,0,0,0,-1,881,1072,0,0
-336,-48,0,0,0,0,0,0,0,0,0,-1,888,1072,0,0
-329,-48,0,0,0,0,0,0,0,0,0,-1,895,1072,0,0
-322,-48,0,0,0,0,0,0,0,0,0,-1,902,1072,0,0
-315,-48,0,0,0,0,0,0,0,0,0,-1,909,1072,0,0
-308,-48,0,0,0,0,0,0,0,0,0,-1,916,1072,0,0
-301,-48,0,0,0,0,0,0,0,0,0,-1,923,1072,0,0
-294,-48,0,0,0,0,0,0,0,0,0,-1,930,1072,0,0
-287,-48,0,0,0,0,0,0,0,0,0,-1,937,1072,0,0
-280,-48,0,0,0,0,0,0,0,0,0,-1,944,1072,0,0
-273,-48,0,0,0,0,0,0,0,0,0,-1,951,1072,0,0
-266,-48,0,0,0,0,0,0,0,0,0,-1,958,1072,0,0
-259,-48,0,0,0,0,0,0,0,0,0,-1,965,1072,0,0
-252,-48,0,0,0,0,0,0,0,0,0,-1,972,1072,0,0
-245,-48,0,0,0,0,0,0,0,0,0,-1,979,1072,0,0
-238,-48,0,0,0,0,0,0,0,0,0,-1,986,1072,0,0
-231,-48,0,0,0,0,0,0,0,0,0,-1,993,1072,0,0
-224,-48,0,0,0,0,0,0,0,0,0,-1,1000,1072,0,0
-217,-48,0,0,0,0,0,0,0,0,0,-1,1007,1072,0,0
-210,-48,0,0,0,0,0,0,0,0,0,-1,1014,1072,0,0
-203,-48,0,0,0,0,0,0,0,0,0,-1,1021,1072,0,0
-196,-48,0,0,0,0,0,0,0,0,0,-1,1028,1072,0,0
-189,-48,0,0,0,0,0,0,0,0,0,-1,1035,1072,0,0
-182,-48,0,0,0,0,0,0,0,0,0,-1,1042,1072,0,0
-175,-48,0,0,0,0,0,0,0,0,0,-1,1049,1072,0,0
-168,-48,0,0,0,0,0,0,0,0,0,-1,1056,1072,0,0
-161,-48,0,0,0,0,0,0,0,0,0,-1,1063,1072,0,0
-154,-48,0,0,0,0,0,0,0,0,0,-1,1070,1072,0,0
-147,-48,0,0,0,0,0,0,0,0,0,-1,1077,1072,0,0
-140,-48,0,0,0,0,0,0,0,0,0,-1,1084,1072,0,0
-133,-48,0,0,0,0,0,0,0,0,0,-1,1091,1072,0,0
-126,-48,0,0,0,0,0,0,0,0,0,-1,1098,1072,0,0
-119,-48,0,0,0,0,0,0,0,0,0,-1,1105,1072,0,0
-112,-48,0,0,0,0,0,0,0,0,0,-1,1112,1072,0,0
-105,-48,0,0,0,0,0,0,0,0,0,-1,1119,1072,0,0
-98,-48,0,0,0,0,0,0,0,0,0,-1,1126,1072,0,0
-91,-48,0,0,0,0,0,0,0,0,0,-1,1133,1072,0,0
-84,-48,0,0,0,0,0,0,0,0,0,-1,1140,1072,0,0
-77,-48,0,0,0,0,0,0,0,0,0,-1,1147,1072,0,0
-70,-48,0,0,0,0,0,0,0,0,0,-1,1154,1072,0,0
-63,-48,0,0,0,0,0,0,0,0,0,-1,1161,1072,0,0
-56,-48,0,0,0,0,0,0,0,0,0,-1,1168,1072,0,0
-49,-48,0,0,0,0,0,0,0,0,0,-1,1175,1072,0,0
-42,-48,0,0,0,0,0,0,0,0,0,-1,1182,1072,0,0
-35,-48,0,0,0,0,0,0,0,0,0,-1,1189,1072,0,0
-28,-48,0,0,0,0,0,0,0,0,0,-1,1196,1072,0,0
-21,-48,0,0,0,0,0,0,0,0,0,-1,1203,1072,0,0
-14,-48,0,0,0,0,0,0,0,0,0,-1,1210,1072,0,0
-7,-48,0,0,0,0,0,0,0,0,0,-1,1217,1072,0,0
0,-48,0,0,0,0,0,0,0,0,0,-1,1224,1072,0,0
7,-48,0,0,0,0,0,0,0,0,0,-1,1231,1072,0,0
14,-48,0,0,0,0,0,0,0,0,0,-1,1238,1072,0,0
21,-48,0,0,0,0,0,0,0,0,0,-1,1245,1072,0,0
28,-48,0,0,0,0,0,0,0,0,0,-1,1252,1072,0,0
35,-48,0,0,0,0,0,0,0,0,0,-1,1259,1072,0,0
42,-48,0,0,0,0,0,0,0,0,0,-1,1266,1072,0,0
49,-48,0,0,0,0,0,0,0,0,0,-1,1273,1072,0,0
56,-48,0,0,0,0,0,0,0,0,0,-1,1280,1072,0,0
63,-48,0,0,0,0,0,0,0,0,0,-1,1287,1072,0,0
70,-48,0,0,0,0,0,0,0,0,0,-1,1294,1072,0,0
77,-48,0,0,0,0,0,0,0,0,0,-1,1301,1072,0,0
84,-48,0,0,0,0,0,0,0,0,0,-1,1308,1072,0,0
91,-48,0,0,0,0,0,0,0,0,0,-1,1315,1072,0,0
98,-48,0,0,0,0,0,0,0,0,0,-1,1322,1072,0,0
105,-48,0,0,0,0,0,0,0,0,0,-1,1329,1072,0,0
112,-48,0,0,0,0,0,0,0,0,0,-1,1336,1072,0,0
119,-48,0,0,0,0,0,0,0,0,0,-1,1343,1072,0,0
126,-48,0,0,0,0,0,0,0,0,0,-1,1350,1072,0,0
133,-48,0,0,0,0,0,0,0,0,0,-1,1357,1072,0,0
140,-48,0,0,0,0,0,0,0,0,0,-1,1364,1072,0,0
147,-48,0,0,0,0,0,0,0,0,0,-1,1371,1072,0,0
154,-48,0,0,0,0,0,0,0,0,0,-1,1378,1072,0,0
161,-48,0,0,0,0,0,0,0,0,0,-1,1385,1072,0,0
168,-48,0,0,0,0,0,0,0,0,0,-1,1392,1072,0,0
175,-48,0,0,0,0,0,0,0,0,0,-1,1399,1072,0,0
182,-48,0,0,0,0,0,0,0,0,0,-1,1406,1072,0,0
189,-48,0,0,0,0,0,0,0,0,0,-1,1413,1072,0,0
196,-48,0,0,0,0,0,0,0,0,0,-1,1420,1072,0,0
203,-48,0,0,0,0,0,0,0,0,0,-1,1427,1072,0,0
210,-48,0,0,0,0,0,0,0,0,0,-1,1434,1072,0,0
217,-48,0,0,0,0,0,0,0,0,0,-1,1441,1072,0,0
224,-48,0,0,0,0,0,0,0,0,0,-1,1448,1072,0,0
231,-48,0,0,0,0,0,0,0,0,0,-1,1455,1072,0,0
238,-48,0,0,0,0,0,0,0,0,0,-1,1462,1072,0,0
245,-48,0,0,0,0,0,0,0,0,0,-1,1469,1072,0,0
252,-48,0,0,0,0,0,0,0,0,0,-1,1476,1072,0,0
259,-48,0,0,0,0,0,0,0,0,0,-1,1483,1072,0,0
266,-48,0,0,0,0,0,0,0,0,0,-1,1490,1072,0,0
273,-48,0,0,0,0,0,0,0,0,0,-1,1497,1072,0,0
280,-48,0,0,0,0,0,0,0,0,0,-1,1504,1072,0,0
287,-48,0,0,0,0,0,0,0,0,0,-1,1511,1072,0,0
294,-48,0,0,0,0,0,0,0,0,0,-1,1518,1072,0,0
301,-48,0,0,0,0,0,0,0,0,0,-1,1525,1072,0,0
308,-48,0,0,0,0,0,0,0,0,0,-1,1532,1072,0,0
315,-48,0,0,0,0,0,0,0,0,0,-1,1539,1072,0,0
322,-48,0,0,0,0,0,0,0,0,0,-1,1546,1072,0,0
329,-48,0,0,0,0,0,0,0,0,0,-1,1553,1072,0,0
336,-48,0,0,0,0,0,0,0,0,0,-1,1560,1072,0,0
343,-48,0,0,0,0,0,0,0,0,0,-1,1567,1072,0,0
350,-48,0,0,0,0,0,0,0,0,0,-1,1574,1072,0,0
357,-48,0,0,0,0,0,0,0,0,0,-1,1581,1072,0,0
364,-48,0,0,0,0,0,0,0,0,0,-1,1588,1072,0,0
371,-48,0,0,0,0,0,0,0,0,0,-1,1595,1072,0,0
378,-48,0,0,0,0,0,0,0,0,0,-1,1602,1072,0,0
385,-48,0,0,0,0,0,0,0,0,0,-1,1609,1072,0,0
392,-48,0,0,0,0,0,0,0,0,0,-1,1616,1072,0,0
399,-48,0,0,0,0,0,0,0,0,0,-1,1623,1072,0,0
406,-48,0,0,0,0,0,0,0,0,0,-1,1630,1072,0,0
413,-48,0,0,0,0,0,0,0,0,0,-1,1637,1072,0,0
420,-48,0,0,0,0,0,0,0,0,0,-1,1644,1072,0,0
427,-48,0,0,0,0,0,0,0,0,0,-1,1651,1072,0,0
434,-48,0,0,0,0,0,0,0,0,0,-1,1658,1072,0,0
441,-48,0,0,0,0,0,0,0,0,0,-1,1665,1072,0,0
448,-48,0,0,0,0,0,0,0,0,0,-1,1672,1072,0,0
455,-48,0,0,0,0,0,0,0,0,0,-1,1679,1072,0,0
462,-48,0,0,0,0,0,0,0,0,0,-1,1686,1072,0,0
469,-48,0,0,0,0,0,0,0,0,0,-1,1693,1072,0,0
476,-48,0,0,0,0,0,0,0,0,0,-1,1700,1072,0,0
483,-48,0,0,0,0,0,0,0,0,0,-1,1707,1072,0,0
490,-48,0,0,0,0,0,0,0,0,0,-1,1714,1072,0,0
497,-48,0,0,0,0,0,0,0,0,0,-1,1721,1072,0,0
504,-48,0,0,0,0,0,0,0,0,0,-1,1728,1072,0,0
511,-48,0,0,0,0,0,0,0,0,0,-1,1735,1072,0,0
518,-48,0,0,0,0,0,0,0,0,0,-1,1742,1072,0,0
525,-48,0,0,0,0,0,0,0,0,0,-1,1749,1072,0,0
532,-48,0,0,0,0,0,0,0,0,0,-1,1756,1072,0,0
539,-48,0,0,0,0,0,0,0,0,0,-1,1763,1072,0,0
546,-48,0,0,0,0,0,0,0,0,0,-1,1770,1072,0,0
553,-48,0,0,0,0,0,0,0,0,0,-1,1777,1072,0,0
560,-48,0,0,0,0,0,0,0,0,0,-1,1784,1072,0,0
567,-48,0,0,0,0,0,0,0,0,0,-1,1791,1072,0,0
574,-48,0,0,0,0,0,0,0,0,0,-1,1798,1072,0,0
581,-48,0,0,0,0,0,0,0,0,0,-1,1805,1072,0,0
588,-48,0,0,0,0,0,0,0,0,0,-1,1812,1072,0,0
595,-48,0,0,0,0,0,0,0,0,0,-1,1819,1072,0,0
602,-48,0,0,0,0,0,0,0,0,0,-1,1826,1072,0,0
609,-48,0,0,0,0,0,0,0,0,0,-1,1833,1072,0,0
616,-48,0,0,0,0,0,0,0,0,0,-1,1840,1072,0,0
623,-48,0,0,0,0,0,0,0,0,0,-1,1847,1072,0,0
630,-48,0,0,0,0,0,0,0,0,0,-1,1854,1072,0,0
637,-48,0,0,0,0,0,0,0,0,0,-1,1861,1072,0,0
644,-48,0,0,0,0,0,0,0,0,0,-1,1868,1072,0,0
651,-48,36.176,2.64136,-0.00364604,-0.000115017,0.000351942,-8.02802e-05,-0.00368077,1.47241,0.00242753,0.0317408,1875,1072,36.176,-2.64138
658,-48,36.1047,2.61072,-0.00236195,0.000486467,0.000352664,0.000529481,-0.00240497,1.44943,0.00180587,0.0350984,1882,1072,36.1047,-2.6107
665,-48,36.0416,2.65283,-0.00143892,0.00087425,0.000409986,0.000944766,-0.00150944,1.40047,0.00142938,0.0401677,1889,1072,36.0416,-2.65279
672,-48,36.0402,2.7428,-0.000651081,0.000991492,0.000782444,0.00130455,-0.000964136,1.19021,0.00131473,0.0400766,1896,1072,36.0402,-2.74274
679,-48,35.978,2.69873,-0.000101972,0.000810112,0.00143298,0.00185787,-0.00114973,0.939454,0.00175241,0.040421,1903,1072,35.978,-2.6987
686,-48,35.9937,2.52686,-5.14528e-06,0.000347353,0.00210295,0.00228143,-0.00193922,0.827206,0.00243946,0.0400884,1910,1072,35.9936,-2.52681
693,-48,36.0756,2.47046,-3.6059e-05,-0.00020505,0.00267291,0.00255369,-0.0027948,0.769598,0.003089,0.0416161,1917,1072,36.0755,-2.4705
700,-48,36.1406,2.58789,-0.000188683,-0.000643002,0.00310377,0.00269623,-0.00352791,0.748869,0.00360419,0.0359605,1924,1072,36.1406,-2.58794
707,-48,36.178,2.67505,-0.000368427,-0.000901236,0.00340614,0.00278171,-0.00405137,0.746371,0.00396771,0.0235917,1931,1072,36.178,-2.67508
714,-48,36.186,2.75708,-0.000682097,-0.00101928,0.00359713,0.00275039,-0.00445176,0.761981,0.00419666,0.0294413,1938,1072,36.1861,-2.75712
721,-48,36.1936,2.8606,0,0,0,0,0,0,0,-1,1945,1072,36.1936,-2.86054
728,-48,35.5273,5.40442,0,0,0,0,0,0,0,-1,1952,1072,35.5273,-5.40447
735,-48,35.4457,5.31555,-0.0018791,-0.000305567,0.00345858,0.0024546,-0.00463927,0.897236,0.00415988,0.017923,1959,1072,35.4456,-5.31555
742,-48,35.3553,5.20337,-0.00174752,0.000366664,0.00291668,0.0024119,-0.00379276,0.959251,0.00361171,0.0150682,1966,1072,35.3554,-5.20341
749,-48,35.3701,5.07349,-0.00100521,0.000854479,0.00170997,0.00187107,-0.0020218,1.03443,0.00224811,0.0144839,1973,1072,35.3701,-5.0735
756,-48,35.3751,4.96045,6.66102e-05,0.00150151,0.000122453,0.00151189,5.62352e-05,1.48627,0.000989712,0.0132335,1980,1072,35.3752,-4.96042
763,-48,35.355,4.84753,0.00165838,0.00224846,-0.00174075,0.003719,0.000187838,-0.869345,0.00241915,0.0125722,1987,1072,35.355,-4.84757
770,-48,35.3401,4.73572,0.00417604,0.00290104,-0.00446638,0.00805019,-0.000973107,-0.714511,0.00571883,0.0130173,1994,1072,35.3401,-4.73574
777,-48,35.2498,4.60608,0.00784145,0.00306942,-0.00790913,0.0137166,-0.00280576,-0.6389,0.010209,0.0124495,2001,1072,35.2498,-4.60606
784,-48,35.1764,4.46069,0.0121801,0.00243278,-0.0117254,0.0200044,-0.00539153,-0.588437,0.0154502,0.0247107,2008,1072,35.1763,-4.46067
791,-48,35.1699,3.84961,0.0172292,0.000950371,-0.0162414,0.0272567,-0.00907705,-0.553114,0.021835,0.0421291,2015,1072,35.1699,-3.84955
798,-48,35.176,3.32422,0,0,0,0,0,0,0,-1,2022,1072,35.176,-3.32425
805,-48,34.7573,2.37964,0.0305026,-0.00566306,-0.0278955,0.0456636,-0.020824,-0.497832,0.0392694,0.0478414,2029,1072,34.7573,-2.3796
812,-48,35.0332,2.29285,0,0,0,0,0,0,0,-1,2036,1072,35.0331,-2.2929
-700,-55,-24.4033,-2.94958,0,0,0,0,0,0,0,-1,524,1079,-24.4033,2.94957
-693,-55,-25.902,0.414917,0,0,0,0,0,0,0,-1,531,1079,-25.9021,-0.414927
-686,-55,-25.8655,0.598877,0,0,0,0,0,0,0,-1,538,1079,-25.8655,-0.598934
-679,-55,-25.8174,0.801025,0,0,0,0,0,0,0,-1,545,1079,-25.8174,-0.801007
-672,-55,-25.5679,1.0155,0.00533846,0.00249002,-0.00355813,0.00774682,8.16593e-05,-0.595028,0.00513754,0.0495472,552,1079,-25.5679,-1.01556
-665,-55,-26.2911,0.462036,0.00541118,0.00346679,-0.00349845,0.00807001,0.000807968,-0.649872,0.00513193,0.0457145,559,1079,-26.2911,-0.462092
-658,-55,-26.0526,0.922974,0,0,0,0,0,0,0,-1,566,1079,-26.0525,-0.922937
-651,-55,-25.6611,1.38281,0,0,0,0,0,0,0,-1,573,1079,-25.6611,-1.38287
-644,-55,-25.5311,1.73694,0.00353214,0.00426473,-0.00266666,0.00659014,0.00120673,-0.853651,0.00405153,0.0209307,580,1079,-25.5311,-1.73697
-637,-55,-25.5378,1.89026,0.00263131,0.00397833,-0.00311453,0.00649134,0.000118298,-0.891883,0.00428867,0.0164016,587,1079,-25.5378,-1.89031
-630,-55,-25.5333,2.10376,0.00170306,0.0030659,-0.00348234,0.00593286,-0.0011639,-0.882017,0.00439489,0.0183032,594,1079,-25.5333,-2.1037
-623,-55,-25.6155,2.31836,0.000938823,0.00211056,-0.00407953,0.00564607,-0.00259669,-0.856716,0.0048663,0.0167057,601,1079,-25.6155,-2.31838
-616,-55,-25.5969,2.46594,0.000381437,0.00160939,-0.00431871,0.00535755,-0.00336672,-0.856008,0.00508049,0.0154412,608,1079,-25.5969,-2.4659
-609,-55,-25.5667,2.68555,0.000210563,0.000720404,-0.00476127,0.00523358,-0.00430261,-0.812143,0.00551446,0.0154699,615,1079,-25.5666,-2.68553
-602,-55,-25.5509,2.8623,1.58518e-05,-7.31466e-05,-0.00499905,0.00497061,-0.0050279,-0.780948,0.00577267,0.013122,622,1079,-25.5509,-2.86226
-595,-55,-25.4294,3.09961,0,0,0,0,0,0,0,-1,629,1079,-25.4294,-3.09957
-588,-55,-25.6779,1.96094,0,0,0,0,0,0,0,-1,636,1079,-25.6779,-1.96091
-581,-55,-25.9265,0.822266,0,0,0,0,0,0,0,-1,643,1079,-25.9265,-0.82224
-574,-55,-26.0847,0.790405,-0.000172873,-0.00104621,-0.00519823,0.00460699,-0.00582608,-0.743495,0.00603723,0.0411911,650,1079,-26.0847,-0.790437
-567,-55,-26.0209,0.759521,-0.000314182,-0.000933464,-0.00487911,0.0042651,-0.00551274,-0.753709,0.00566054,0.0399064,657,1079,-26.0208,-0.759482
-560,-55,-26.3408,0.725708,-0.000521345,-0.000667615,-0.00444124,0.00384736,-0.00503632,-0.777165,0.00514429,0.0387036,664,1079,-26.3408,-0.725697
-553,-55,-26.3449,0.86499,-0.000780228,-0.000317261,-0.00401014,0.00346807,-0.00456556,-0.814228,0.00465262,0.0407633,671,1079,-26.3449,-0.86493
-546,-55,-26.3221,1.06055,-0.00108954,5.39353e-06,-0.00375296,0.00325061,-0.00433476,-0.857825,0.0043943,0.0395742,678,1079,-26.3221,-1.06055
-539,-55,-26.4356,0.967651,-0.00146075,5.84003e-05,-0.00465576,0.00401614,-0.00541849,-0.86626,0.00546711,0.0376323,685,1079,-26.4356,-0.967681
-532,-55,-26.4427,0.843994,-0.00220371,0.000112773,-0.00829438,0.0073294,-0.00942033,-0.85477,0.00969554,0.0372116,692,1079,-26.4427,-0.843996
-525,-55,0,0,0,0,0,0,0,0,0,-1,699,1079,0,0
-518,-55,0,0,0,0,0,0,0,0,0,-1,706,1079,0,0
-511,-55,0,0,0,0,0,0,0,0,0,-1,713,1079,0,0
-504,-55,0,0,0,0,0,0,0,0,0,-1,720,1079,0,0
-497,-55,0,0,0,0,0,0,0,0,0,-1,727,1079,0,0
-490,-55,0,0,0,0,0,0,0,0,0,-1,734,1079,0,0
-483,-55,0,0,0,0,0,0,0,0,0,-1,741,1079,0,0
-476,-55,0,0,0,0,0,0,0,0,0,-1,748,1079,0,0
-469,-55,0,0,0,0,0,0,0,0,0,-1,755,1079,0,0
-462,-55,0,0,0,0,0,0,0,0,0,-1,762,1079,0,0
-455,-55,0,0,0,0,0,0,0,0,0,-1,769,1079,0,0
-448,-55,0,0,0,0,0,0,0,0,0,-1,776,1079,0,0
-441,-55,0,0,0,0,0,0,0,0,0,-1,783,1079,0,0
-434,-55,0,0,0,0,0,0,0,0,0,-1,790,1079,0,0
-427,-55,0,0,0,0,0,0,0,0,0,-1,797,1079,0,0
-420,-55,0,0,0,0,0,0,0,0,0,-1,804,1079,0,0
-413,-55,0,0,0,0,0,0,0,0,0,-1,811,1079,0,0
-406,-55,0,0,0,0,0,0,0,0,0,-1,818,1079,0,0
-399,-55,0,0,0,0,0,0,0,0,0,-1,825,1079,0,0
-392,-55,0,0,0,0,0,0,0,0,0,-1,832,1079,0,0
-385,-55,0,0,0,0,0,0,0,0,0,-1,839,1079,0,0
-378,-55,0,0,0,0,0,0,0,0,0,-1,846,1079,0,0
-371,-55,0,0,0,0,0,0,0,0,0,-1,853,1079,0,0
-364,-55,0,0,0,0,0,0,0,0,0,-1,860,1079,0,0
-357,-55,0,0,0,0,0,0,0,0,0,-1,867,1079,0,0
-350,-55,0,0,0,0,0,0,0,0,0,-1,874,1079,0,0
-343,-55,0,0,0,0,0,0,0,0,0,-1,881,1079,0,0
-336,-55,0,0,0,0,0,0,0,0,0,-1,888,1079,0,0
-329,-55,0,0,0,0,0,0,0,0,0,-1,895,1079,0,0
-322,-55,0,0,0,0,0,0,0,0,0,-1,902,1079,0,0
-315,-55,0,0,0,0,0,0,0,0,0,-1,909,1079,0,0
-308,-55,0,0,0,0,0,0,0,0,0,-1,916,1079,0,0
-301,-55,0,0,0,0,0,0,0,0,0,-1,923,1079,0,0
-294,-55,0,0,0,0,0,0,0,0,0,-1,930,1079,0,0
-287,-55,0,0,0,0,0,0,0,0,0,-1,937,1079,0,0
-280,-55,0,0,0,0,0,0,0,0,0,-1,944,1079,0,0
-273,-55,0,0,0,0,0,0,0,0,0,-1,951,1079,0,0
-266,-55,0,0,0,0,0,0,0,0,0,-1,958,1079,0,0
-259,-55,0,0,0,0,0,0,0,0,0,-1,965,1079,0,0
-252,-55,0,0,0,0,0,0,0,0,0,-1,972,1079,0,0
-245,-55,0,0,0,0,0,0,0,0,0,-1,979,1079,0,0
-238,-55,0,0,0,0,0,0,0,0,0,-1,986,1079,0,0
-231,-55,0,0,0,0,0,0,0,0,0,-1,993,1079,0,0
-224,-55,0,0,0,0,0,0,0,0,0,-1,1000,1079,0,0
-217,-55,0,0,0,0,0,0,0,0,0,-1,1007,1079,0,0
-210,-55,0,0,0,0,0,0,0,0,0,-1,1014,1079,0,0
-203,-55,0,0,0,0,0,0,0,0,0,-1,1021,1079,0,0
-196,-55,0,0,0,0,0,0,0,0,0,-1,1028,1079,0,0
-189,-55,0,0,0,0,0,0,0,0,0,-1,1035,1079,0,0
-182,-55,0,0,0,0,0,0,0,0,0,-1,1042,1079,0,0
-175,-55,0,0,0,0,0,0,0,0,0,-1,1049,1079,0,0
-168,-55,0,0,0,0,0,0,0,0,0,-1,1056,1079,0,0
-161,-55,0,0,0,0,0,0,0,0,0,-1,1063,1079,0,0
-154,-55,0,0,0,0,0,0,0,0,0,-1,1070,1079,0,0
-147,-55,0,0,0,0,0,0,0,0,0,-1,1077,1079,0,0
-140,-55,0,0,0,0,0,0,0,0,0,-1,1084,1079,0,0
-133,-55,0,0,0,0,0,0,0,0,0,-1,1091,1079,0,0
-126,-55,0,0,0,0,0,0,0,0,0,-1,1098,1079,0,0
-119,-55,0,0,0,0,0,0,0,0,0,-1,1105,1079,0,0
-112,-55,0,0,0,0,0,0,0,0,0,-1,1112,1079,0,0
-105,-55,0,0,0,0,0,0,0,0,0,-1,1119,1079,0,0
-98,-55,0,0,0,0,0,0,0,0,0,-1,1126,1079,0,0
-91,-55,0,0,0,0,0,0,0,0,0,-1,1133,1079,0,0
-84,-55,0,0,0,0,0,0,0,0,0,-1,1140,1079,0,0
-77,-55,0,0,0,0,0,0,0,0,0,-1,1147,1079,0,0
-70,-55,0,0,0,0,0,0,0,0,0,-1,1154,1079,0,0
-63,-55,0,0,0,0,0,0,0,0,0,-1,1161,1079,0,0
-56,-55,0,0,0,0,0,0,0,0,0,-1,1168,1079,0,0
-49,-55,0,0,0,0,0,0,0,0,0,-1,1175,1079,0,0
-42,-55,0,0,0,0,0,0,0,0,0,-1,1182,1079,0,0
-35,-55,0,0,0,0,0,0,0,0,0,-1,1189,1079,0,0
-28,-55,0,0,0,0,0,0,0,0,0,-1,1196,1079,0,0
-21,-55,0,0,0,0,0,0,0,0,0,-1,1203,1079,0,0
-14,-55,0,0,0,0,0,0,0,0,0,-1,1210,1079,0,0
-7,-55,0,0,0,0,0,0,0,0,0,-1,1217,1079,0,0
0,-55,0,0,0,0,0,0,0,0,0,-1,1224,1079,0,0
7,-55,0,0,0,0,0,0,0,0,0,-1,1231,1079,0,0
14,-55,0,0,0,0,0,0,0,0,0,-1,1238,1079,0,0
21,-55,0,0,0,0,0,0,0,0,0,-1,1245,1079,0,0
28,-55,0,0,0,0,0,0,0,0,0,-1,1252,1079,0,0
35,-55,0,0,0,0,0,0,0,0,0,-1,1259,1079,0,0
42,-55,0,0,0,0,0,0,0,0,0,-1,1266,1079,0,0
49,-55,0,0,0,0,0,0,0,0,0,-1,1273,1079,0,0
56,-55,0,0,0,0,0,0,0,0,0,-1,1280,1079,0,0
63,-55,0,0,0,0,0,0,0,0,0,-1,1287,1079,0,0
70,-55,0,0,0,0,0,0,0,0,0,-1,1294,1079,0,0
77,-55,0,0,0,0,0,0,0,0,0,-1,1301,1079,0,0
84,-55,0,0,0,0,0,0,0,0,0,-1,1308,1079,0,0
91,-55,0,0,0,0,0,0,0,0,0,-1,1315,1079,0,0
98,-55,0,0,0,0,0,0,0,0,0,-1,1322,1079,0,0
105,-55,0,0,0,0,0,0,0,0,0,-1,1329,1079,0,0
112,-55,0,0,0,0,0,0,0,0,0,-1,1336,1079,0,0
119,-55,0,0,0,0,0,0,0,0,0,-1,1343,1079,0,0
126,-55,0,0,0,0,0,0,0,0,0,-1,1350,1079,0,0
133,-55,0,0,0,0,0,0,0,0,0,-1,1357,1079,0,0
140,-55,0,0,0,0,0,0,0,0,0,-1,1364,1079,0,0
147,-55,0,0,0,0,0,0,0,0,0,-1,1371,1079,0,0
154,-55,0,0,0,0,0,0,0,0,0,-1,1378,1079,0,0
161,-55,0,0,0,0,0,0,0,0,0,-1,1385,1079,0,0
168,-55,0,0,0,0,0,0,0,0,0,-1,1392,1079,0,0
175,-55,0,0,0,0,0,0,0,0,0,-1,1399,1079,0,0
182,-55,0,0,0,0,0,0,0,0,0,-1,1406,1079,0,0
189,-55,0,0,0,0,0,0,0,0,0,-1,1413,1079,0,0
196,-55,0,0,0,0,0,0,0,0,0,-1,1420,1079,0,0
203,-55,0,0,0,0,0,0,0,0,0,-1,1427,1079,0,0
210,-55,0,0,0,0,0,0,0,0,0,-1,1434,1079,0,0
217,-55,0,0,0,0,0,0,0,0,0,-1,1441,1079,0,0
224,-55,0,0,0,0,0,0,0,0,0,-1,1448,1079,0,0
231,-55,0,0,0,0,0,0,0,0,0,-1,1455,1079,0,0
238,-55,0,0,0,0,0,0,0,0,0,-1,1462,1079,0,0
245,-55,0,0,0,0,0,0,0,0,0,-1,1469,1079,0,0
252,-55,0,0,0,0,0,0,0,0,0,-1,1476,1079,0,0
259,-55,0,0,0,0,0,0,0,0,0,-1,1483,1079,0,0
266,-55,0,0,0,0,0,0,0,0,0,-1,1490,1079,0,0
273,-55,0,0,0,0,0,0,0,0,0,-1,1497,1079,0,0
280,-55,0,0,0,0,0,0,0,0,0,-1,1504,1079,0,0
287,-55,0,0,0,0,0,0,0,0,0,-1,1511,1079,0,0
294,-55,0,0,0,0,0,0,0,0,0,-1,1518,1079,0,0
301,-55,0,0,0,0,0,0,0,0,0,-1,1525,1079,0,0
308,-55,0,0,0,0,0,0,0,0,0,-1,1532,1079,0,0
315,-55,0,0,0,0,0,0,0,0,0,-1,1539,1079,0,0
322,-55,0,0,0,0,0,0,0,0,0,-1,1546,1079,0,0
329,-55,0,0,0,0,0,0,0,0,0,-1,1553,1079,0,0
336,-55,0,0,0,0,0,0,0,0,0,-1,1560,1079,0,0
343,-55,0,0,0,0,0,0,0,0,0,-1,1567,1079,0,0
350,-55,0,0,0,0,0,0,0,0,0,-1,1574,1079,0,0
357,-55,0,0,0,0,0,0,0,0,0,-1,1581,1079,0,0
364,-55,0,0,0,0,0,0,0,0,0,-1,1588,1079,0,0
371,-55,0,0,0,0,0,0,0,0,0,-1,1595,1079,0,0
378,-55,0,0,0,0,0,0,0,0,0,-1,1602,1079,0,0
385,-55,0,0,0,0,0,0,0,0,0,-1,1609,1079,0,0
392,-55,0,0,0,0,0,0,0,0,0,-1,1616,1079,0,0
399,-55,0,0,0,0,0,0,0,0,0,-1,1623,1079,0,0
406,-55,0,0,0,0,0,0,0,0,0,-1,1630,1079,0,0
413,-55,0,0,0,0,0,0,0,0,0,-1,1637,1079,0,0
420,-55,0,0,0,0,0,0,0,0,0,-1,1644,1079,0,0
427,-55,0,0,0,0,0,0,0,0,0,-1,1651,1079,0,0
434,-55,0,0,0,0,0,0,0,0,0,-1,1658,1079,0,0
441,-55,0,0,0,0,0,0,0,0,0,-1,1665,1079,0,0
448,-55,0,0,0,0,0,0,0,0,0,-1,1672,1079,0,0
455,-55,0,0,0,0,0,0,0,0,0,-1,1679,1079,0,0
462,-55,0,0,0,0,0,0,0,0,0,-1,1686,1079,0,0
469,-55,0,0,0,0,0,0,0,0,0,-1,1693,1079,0,0
476,-55,0,0,0,0,0,0,0,0,0,-1,1700,1079,0,0
483,-55,0,0,0,0,0,0,0,0,0,-1,1707,1079,0,0
490,-55,0,0,0,0,0,0,0,0,0,-1,1714,1079,0,0
497,-55,0,0,0,0,0,0,0,0,0,-1,1721,1079,0,0
504,-55,0,0,0,0,0,0,0,0,0,-1,1728,1079,0,0
511,-55,0,0,0,0,0,0,0,0,0,-1,1735,1079,0,0
518,-55,0,0,0,0,0,0,0,0,0,-1,1742,1079,0,0
525,-55,0,0,0,0,0,0,0,0,0,-1,1749,1079,0,0
532,-55,0,0,0,0,0,0,0,0,0,-1,1756,1079,0,0
539,-55,0,0,0,0,0,0,0,0,0,-1,1763,1079,0,0
546,-55,0,0,0,0,0,0,0,0,0,-1,1770,1079,0,0
553,-55,0,0,0,0,0,0,0,0,0,-1,1777,1079,0,0
560,-55,0,0,0,0,0,0,0,0,0,-1,1784,1079,0,0
567,-55,0,0,0,0,0,0,0,0,0,-1,1791,1079,0,0
574,-55,0,0,0,0,0,0,0,0,0,-1,1798,1079,0,0
581,-55,0,0,0,0,0,0,0,0,0,-1,1805,1079,0,0
588,-55,0,0,0,0,0,0,0,0,0,-1,1812,1079,0,0
595,-55,0,0,0,0,0,0,0,0,0,-1,1819,1079,0,0
602,-55,0,0,0,0,0,0,0,0,0,-1,1826,1079,0,0
609,-55,0,0,0,0,0,0,0,0,0,-1,1833,1079,0,0
616,-55,0,0,0,0,0,0,0,0,0,-1,1840,1079,0,0
623,-55,0,0,0,0,0,0,0,0,0,-1,1847,1079,0,0
630,-55,0,0,0,0,0,0,0,0,0,-1,1854,1079,0,0
637,-55,0,0,0,0,0,0,0,0,0,-1,1861,1079,0,0
644,-55,0,0,0,0,0,0,0,0,0,-1,1868,1079,0,0
651,-55,36.1595,2.87329,-0.00281609,-0.000547109,0.00018655,-0.000531874,-0.00283132,1.48931,0.00173761,0.0352833,1875,1079,36.1595,-2.87327
658,-55,36.1177,2.83203,-0.00171476,3.49408e-05,0.000237065,6.64915e-05,-0.00174631,1.43848,0.00118699,0.0326887,1882,1079,36.1176,-2.83207
665,-55,36.0286,2.79419,-0.00094088,0.000442052,0.000344514,0.000523124,-0.00102195,1.33968,0.000907415,0.0381111,1889,1079,36.0285,-2.79423
672,-55,36.0895,2.73865,-0.000268056,0.000576412,0.00073537,0.00100215,-0.000693791,1.04601,0.00098453,0.0381924,1896,1079,36.0895,-2.73868
679,-55,36.1821,2.58386,0.000104402,0.000448227,0.00138245,0.00166942,-0.00111679,0.847257,0.00161913,0.0363752,1903,1079,36.1822,-2.58385
686,-55,36.2109,2.39734,4.70704e-05,6.03283e-05,0.00204086,0.00209457,-0.00198717,0.787022,0.00235686,0.0370786,1910,1079,36.2109,-2.39731
693,-55,36.1038,2.42468,-9.51859e-05,-0.000405616,0.0025888,0.00234305,-0.00284385,0.755456,0.0029993,0.0372918,1917,1079,36.1037,-2.42471
700,-55,36.1563,2.56543,-0.000341475,-0.000757877,0.00299234,0.0024499,-0.00354925,0.750665,0.00348294,0.0327134,1924,1079,36.1563,-2.56541
707,-55,36.1664,2.68201,-0.00057033,-0.00096967,0.00330036,0.0025364,-0.0040764,0.755185,0.00385225,0.0227128,1931,1079,36.1664,-2.68197
714,-55,36.1884,2.81152,-0.000920429,-0.00106559,0.00349848,0.00250623,-0.00449224,0.775027,0.00409444,0.0370829,1938,1079,36.1884,-2.81149
721,-55,36.2452,3.00085,0,0,0,0,0,0,0,-1,1945,1079,36.2452,-3.00091
728,-55,35.334,5.49146,0,0,0,0,0,0,0,-1,1952,1079,35.334,-5.4914
735,-55,35.2687,5.35876,-0.00200872,-0.000349202,0.00342361,0.00234377,-0.00470169,0.904287,0.00414293,0.0181524,1959,1079,35.2687,-5.35871
742,-55,35.2556,5.23462,-0.0017401,0.000213351,0.0028565,0.0022555,-0.00378225,0.950132,0.00352285,0.0180042,1966,1079,35.2556,-5.23456
749,-55,35.2686,5.08081,-0.000885361,0.000485729,0.00166887,0.00160438,-0.00200401,0.980282,0.00208756,0.0135396,1973,1079,35.2685,-5.08084
756,-55,35.2297,4.94421,0.000254822,0.000879713,0.00010929,0.000898276,0.000236259,1.40255,0.000537687,0.0118508,1980,1079,35.2298,-4.94418
763,-55,35.2095,4.83521,0.00194038,0.0012791,-0.00172577,0.0033669,-0.000147418,-0.690751,0.00229532,0.0151603,1987,1079,35.2094,-4.83523
770,-55,35.2031,4.68579,0.00453989,0.00146439,-0.00443622,0.00769732,-0.00169303,-0.618561,0.00577915,0.0163124,1994,1079,35.2031,-4.68578
777,-55,35.1295,4.54907,0.00815077,0.00102711,-0.0078436,0.0132034,-0.00402551,-0.572266,0.0104069,0.0137467,2001,1079,35.1295,-4.54909
784,-55,35.0959,4.38672,0.0122958,-0.000233897,-0.0116462,0.0192553,-0.00719338,-0.538633,0.0157906,0.0302779,2008,1079,35.0959,-4.3867
791,-55,34.9885,3.61169,0.0169864,-0.00236073,-0.0161609,0.0261477,-0.011522,-0.515711,0.0222883,0.0406235,2015,1079,34.9885,-3.61168
798,-55,34.8994,2.96631,0.0225417,-0.00564217,-0.0215841,0.0342268,-0.0173273,-0.496199,0.0302932,0.0469516,2022,1079,34.8995,-2.96628
805,-55,34.8735,2.32617,0.0287871,-0.0101827,-0.0278423,0.0432854,-0.024681,-0.480092,0.0397274,0.0495717,2029,1079,34.8735,-2.32617
812,-55,34.7961,1.69006,0,0,0,0,0,0,0,-1,2036,1079,34.7962,-1.69006
-700,-62,-26.2303,-0.633545,0,0,0,0,0,0,0,-1,524,1086,-26.2303,0.633495
-693,-62,-25.8289,-0.112305,-0.0056485,0.003896,0.0044725,0.00566421,-0.00741671,1.1943,0.00757483,0.0492066,531,1086,-25.829,0.11229
-686,-62,-25.4168,0.414795,-0.00222185,0.00377907,0.00146119,0.00411595,-0.00255872,1.3442,0.00388843,0.0487762,538,1086,-25.4168,-0.414747
-679,-62,-25.3984,0.591064,-0.000172921,0.00403962,-0.000268969,0.00405672,-0.000190026,-1.50729,0.00277,0.0483035,545,1086,-25.3985,-0.591082
-672,-62,-25.3805,0.805054,0.00101189,0.00440054,-0.00118354,0.00477297,0.000639453,-1.26593,0.0029917,0.0475083,552,1086,-25.3805,-0.804993
-665,-62,-25.582,0.486572,0,0,0,0,0,0,0,-1,559,1086,-25.582,-0.486631
-658,-62,-25.6245,0.841675,0.00177176,0.00481767,-0.00167448,0.00555818,0.00103125,-1.15442,0.00341402,0.0468769,566,1086,-25.6245,-0.841639
-651,-62,-25.4387,1.3103,0.00168632,0.00468209,-0.00157929,0.00536086,0.00100755,-1.16487,0.00328989,0.040326,573,1086,-25.4388,-1.31034
-644,-62,-25.3448,1.65759,0.00153039,0.00429459,-0.00175177,0.00514383,0.000681147,-1.11939,0.00322623,0.0142231,580,1086,-25.3448,-1.65757
-637,-62,-25.3669,1.8938,0.00118232,0.00383186,-0.00232289,0.0051812,-0.000167021,-1.04455,0.00351113,0.0122447,587,1086,-25.367,-1.89381
-630,-62,-25.4056,2.10938,0.000802009,0.00281617,-0.0027567,0.00474398,-0.0011258,-0.960528,0.00359714,0.0138279,594,1086,-25.4056,-2.10939
-623,-62,-25.4227,2.33594,0.000506195,0.00182322,-0.00332289,0.00455222,-0.0022228,-0.883218,0.00398789,0.0157839,601,1086,-25.4227,-2.33594
-616,-62,-25.399,2.53101,0.000261149,0.00135239,-0.00344607,0.00429576,-0.00268223,-0.863912,0.00406449,0.0156155,608,1086,-25.399,-2.53102
-609,-62,-25.3754,2.7135,0.000223898,0.000514043,-0.00371321,0.00408501,-0.00334707,-0.804923,0.00429796,0.0148992,615,1086,-25.3753,-2.71355
-602,-62,-25.3329,2.89441,0.000103786,-0.000205242,-0.00384834,0.00380072,-0.00390217,-0.765334,0.00444739,0.0149081,622,1086,-25.333,-2.89442
-595,-62,-25.1526,3.23669,0,0,0,0,0,0,0,-1,629,1086,-25.1526,-3.23667
-588,-62,-25.5169,2.27942,0,0,0,0,0,0,0,-1,636,1086,-25.5169,-2.27943
-581,-62,-25.8812,1.32214,0,0,0,0,0,0,0,-1,643,1086,-25.8812,-1.32219
-574,-62,-26.1231,0.810791,-0.000122829,-0.00122873,-0.00408528,0.00344676,-0.00479831,-0.718131,0.00478157,0.0394127,650,1086,-26.1231,-0.810809
-567,-62,-26.0753,0.910278,-0.000285431,-0.00117515,-0.00386588,0.0031611,-0.00462168,-0.728114,0.00451969,0.0393506,657,1086,-26.0752,-0.910249
-560,-62,-26.1965,1.03198,-0.000517827,-0.000976031,-0.00358716,0.00284754,-0.0043414,-0.753508,0.0041803,0.0367348,664,1086,-26.1965,-1.03196
-553,-62,-26.1875,1.00732,-0.000831272,-0.000672955,-0.00337902,0.00262784,-0.00413206,-0.797109,0.00393491,0.0365496,671,1086,-26.1875,-1.00731
-546,-62,-26.1887,0.983398,-0.00117743,-0.000338608,-0.00340886,0.00267655,-0.00419258,-0.846608,0.00399796,0.0331089,678,1086,-26.1887,-0.983388
-539,-62,-26.3032,0.984985,-0.00145173,-0.000152675,-0.00446882,0.00371358,-0.00531798,-0.857566,0.00524172,0.0357413,685,1086,-26.3032,-0.984949
-532,-62,-26.3128,1.05505,-0.00203696,9.96582e-05,-0.00777206,0.00687648,-0.00881378,-0.853698,0.00908177,0.0367307,692,1086,-26.3128,-1.05501
-525,-62,0,0,0,0,0,0,0,0,0,-1,699,1086,0,0
-518,-62,0,0,0,0,0,0,0,0,0,-1,706,1086,0,0
-511,-62,0,0,0,0,0,0,0,0,0,-1,713,1086,0,0
-504,-62,0,0,0,0,0,0,0,0,0,-1,720,1086,0,0
-497,-62,0,0,0,0,0,0,0,0,0,-1,727,1086,0,0
-490,-62,0,0,0,0,0,0,0,0,0,-1,734,1086,0,0
-483,-62,0,0,0,0,0,0,0,0,0,-1,741,1086,0,0
-476,-62,0,0,0,0,0,0,0,0,0,-1,748,1086,0,0
-469,-62,0,0,0,0,0,0,0,0,0,-1,755,1086,0,0
-462,-62,0,0,0,0,0,0,0,0,0,-1,762,1086,0,0
-455,-62,0,0,0,0,0,0,0,0,0,-1,769,1086,0,0
-448,-62,0,0,0,0,0,0,0,0,0,-1,776,1086,0,0
-441,-62,0,0,0,0,0,0,0,0,0,-1,783,1086,0,0
-434,-62,0,0,0,0,0,0,0,0,0,-1,790,1086,0,0
-427,-62,0,0,0,0,0,0,0,0,0,-1,797,1086,0,0
-420,-62,0,0,0,0,0,0,0,0,0,-1,804,1086,0,0
-413,-62,0,0,0,0,0,0,0,0,0,-1,811,1086,0,0
-406,-62,0,0,0,0,0,0,0,0,0,-1,818,1086,0,0
-399,-62,0,0,0,0,0,0,0,0,0,-1,825,1086,0,0
-392,-62,0,0,0,0,0,0,0,0,0,-1,832,1086,0,0
-385,-62,0,0,0,0,0,0,0,0,0,-1,839,1086,0,0
-378,-62,0,0,0,0,0,0,0,0,0,-1,846,1086,0,0
-371,-62,0,0,0,0,0,0,0,0,0,-1,853,1086,0,0
-364,-62,0,0,0,0,0,0,0,0,0,-1,860,1086,0,0
-357,-62,0,0,0,0,0,0,0,0,0,-1,867,1086,0,0
-350,-62,0,0,0,0,0,0,0,0,0,-1,874,1086,0,0
-343,-62,0,0,0,0,0,0,0,0,0,-1,881,1086,0,0
-336,-62,0,0,0,0,0,0,0,0,0,-1,888,1086,0,0
-329,-62,0,0,0,0,0,0,0,0,0,-1,895,1086,0,0
-322,-62,0,0,0,0,0,0,0,0,0,-1,902,1086,0,0
-315,-62,0,0,0,0,0,0,0,0,0,-1,909,1086,0,0
-308,-62,0,0,0,0,0,0,0,0,0,-1,916,1086,0,0
-301,-62,0,0,0,0,0,0,0,0,0,-1,923,1086,0,0
-294,-62,0,0,0,0,0,0,0,0,0,-1,930,1086,0,0
-287,-62,0,0,0,0,0,0,0,0,0,-1,937,1086,0,0
-280,-62,0,0,0,0,0,0,0,0,0,-1,944,1086,0,0
-273,-62,0,0,0,0,0,0,0,0,0,-1,951,1086,0,0
-266,-62,0,0,0,0,0,0,0,0,0,-1,958,1086,0,0
-259,-62,0,0,0,0,0,0,0,0,0,-1,965,1086,0,0
-252,-62,0,0,0,0,0,0,0,0,0,-1,972,1086,0,0
-245,-62,0,0,0,0,0,0,0,0,0,-1,979,1086,0,0
-238,-62,0,0,0,0,0,0,0,0,0,-1,986,1086,0,0
-231,-62,0,0,0,0,0,0,0,0,0,-1,993,1086,0,0
-224,-62,0,0,0,0,0,0,0,0,0,-1,1000,1086,0,0
-217,-62,0,0,0,0,0,0,0,0,0,-1,1007,1086,0,0
-210,-62,0,0,0,0,0,0,0,0,0,-1,1014,1086,0,0
-203,-62,0,0,0,0,0,0,0,0,0,-1,1021,1086,0,0
-196,-62,0,0,0,0,0,0,0,0,0,-1,1028,1086,0,0
-189,-62,0,0,0,0,0,0,0,0,0,-1,1035,1086,0,0
-182,-62,0,0,0,0,0,0,0,0,0,-1,1042,1086,0,0
-175,-62,0,0,0,0,0,0,0,0,0,-1,1049,1086,0,0
-168,-62,0,0,0,0,0,0,0,0,0,-1,1056,1086,0,0
-161,-62,0,0,0,0,0,0,0,0,0,-1,1063,1086,0,0
-154,-62,0,0,0,0,0,0,0,0,0,-1,1070,1086,0,0
-147,-62,0,0,0,0,0,0,0,0,0,-1,1077,1086,0,0
-140,-62,0,0,0,0,0,0,0,0,0,-1,1084,1086,0,0
-133,-62,0,0,0,0,0,0,0,0,0,-1,1091,1086,0,0
-126,-62,0,0,0,0,0,0,0,0,0,-1,1098,1086,0,0
-119,-62,0,0,0,0,0,0,0,0,0,-1,1105,1086,0,0
-112,-62,0,0,0,0,0,0,0,0,0,-1,1112,1086,0,0
-105,-62,0,0,0,0,0,0,0,0,0,-1,1119,1086,0,0
-98,-62,0,0,0,0,0,0,0,0,0,-1,1126,1086,0,0
-91,-62,0,0,0,0,0,0,0,0,0,-1,1133,1086,0,0
-84,-62,0,0,0,0,0,0,0,0,0,-1,1140,1086,0,0
-77,-62,0,0,0,0,0,0,0,0,0,-1,1147,1086,0,0
-70,-62,0,0,0,0,0,0,0,0,0,-1,1154,1086,0,0
-63,-62,0,0,0,0,0,0,0,0,0,-1,1161,1086,0,0
-56,-62,0,0,0,0,0,0,0,0,0,-1,1168,1086,0,0
-49,-62,0,0,0,0,0,0,0,0,0,-1,1175,1086,0,0
-42,-62,0,0,0,0,0,0,0,0,0,-1,1182,1086,0,0
-35,-62,0,0,0,0,0,0,0,0,0,-1,1189,1086,0,0
-28,-62,0,0,0,0,0,0,0,0,0,-1,1196,1086,0,0
-21,-62,0,0,0,0,0,0,0,0,0,-1,1203,1086,0,0
-14,-62,0,0,0,0,0,0,0,0,0,-1,1210,1086,0,0
-7,-62,0,0,0,0,0,0,0,0,0,-1,1217,1086,0,0
0,-62,0,0,0,0,0,0,0,0,0,-1,1224,1086,0,0
7,-62,0,0,0,0,0,0,0,0,0,-1,1231,1086,0,0
14,-62,0,0,0,0,0,0,0,0,0,-1,1238,1086,0,0
21,-62,0,0,0,0,0,0,0,0,0,-1,1245,1086,0,0
28,-62,0,0,0,0,0,0,0,0,0,-1,1252,1086,0,0
35,-62,0,0,0,0,0,0,0,0,0,-1,1259,1086,0,0
42,-62,0,0,0,0,0,0,0,0,0,-1,1266,1086,0,0
49,-62,0,0,0,0,0,0,0,0,0,-1,1273,1086,0,0
56,-62,0,0,0,0,0,0,0,0,0,-1,1280,1086,0,0
63,-62,0,0,0,0,0,0,0,0,0,-1,1287,1086,0,0
70,-62,0,0,0,0,0,0,0,0,0,-1,1294,1086,0,0
77,-62,0,0,0,0,0,0,0,0,0,-1,1301,1086,0,0
84,-62,0,0,0,0,0,0,0,0,0,-1,1308,1086,0,0
91,-62,0,0,0,0,0,0,0,0,0,-1,1315,1086,0,0
98,-62,0,0,0,0,0,0,0,0,0,-1,1322,1086,0,0
105,-62,0,0,0,0,0,0,0,0,0,-1,1329,1086,0,0
112,-62,0,0,0,0,0,0,0,0,0,-1,1336,1086,0,0
119,-62,0,0,0,0,0,0,0,0,0,-1,1343,1086,0,0
126,-62,0,0,0,0,0,0,0,0,0,-1,1350,1086,0,0
133,-62,0,0,0,0,0,0,0,0,0,-1,1357,1086,0,0
140,-62,0,0,0,0,0,0,0,0,0,-1,1364,1086,0,0
147,-62,0,0,0,0,0,0,0,0,0,-1,1371,1086,0,0
154,-62,0,0,0,0,0,0,0,0,0,-1,1378,1086,0,0
161,-62,0,0,0,0,0,0,0,0,0,-1,1385,1086,0,0
168,-62,0,0,0,0,0,0,0,0,0,-1,1392,1086,0,0
175,-62,0,0,0,0,0,0,0,0,0,-1,1399,1086,0,0
182,-62,0,0,0,0,0,0,0,0,0,-1,1406,1086,0,0
189,-62,0,0,0,0,0,0,0,0,0,-1,1413,1086,0,0
196,-62,0,0,0,0,0,0,0,0,0,-1,1420,1086,0,0
203,-62,0,0,0,0,0,0,0,0,0,-1,1427,1086,0,0
210,-62,0,0,0,0,0,0,0,0,0,-1,1434,1086,0,0
217,-62,0,0,0,0,0,0,0,0,0,-1,1441,1086,0,0
224,-62,0,0,0,0,0,0,0,0,0,-1,1448,1086,0,0
231,-62,0,0,0,0,0,0,0,0,0,-1,1455,1086,0,0
238,-62,0,0,0,0,0,0,0,0,0,-1,1462,1086,0,0
245,-62,0,0,0,0,0,0,0,0,0,-1,1469,1086,0,0
252,-62,0,0,0,0,0,0,0,0,0,-1,1476,1086,0,0
259,-62,0,0,0,0,0,0,0,0,0,-1,1483,1086,0,0
266,-62,0,0,0,0,0,0,0,0,0,-1,1490,1086,0,0
273,-62,0,0,0,0,0,0,0,0,0,-1,1497,1086,0,0
280,-62,0,0,0,0,0,0,0,0,0,-1,1504,1086,0,0
287,-62,0,0,0,0,0,0,0,0,0,-1,1511,1086,0,0
294,-62,0,0,0,0,0,0,0,0,0,-1,1518,1086,0,0
301,-62,0,0,0,0,0,0,0,0,0,-1,1525,1086,0,0
308,-62,0,0,0,0,0,0,0,0,0,-1,1532,1086,0,0
315,-62,0,0,0,0,0,0,0,0,0,-1,1539,1086,0,0
322,-62,0,0,0,0,0,0,0,0,0,-1,1546,1086,0,0
329,-62,0,0,0,0,0,0,0,0,0,-1,1553,1086,0,0
336,-62,0,0,0,0,0,0,0,0,0,-1,1560,1086,0,0
343,-62,0,0,0,0,0,0,0,0,0,-1,1567,1086,0,0
350,-62,0,0,0,0,0,0,0,0,0,-1,1574,1086,0,0
357,-62,0,0,0,0,0,0,0,0,0,-1,1581,1086,0,0
364,-62,0,0,0,0,0,0,0,0,0,-1,1588,1086,0,0
371,-62,0,0,0,0,0,0,0,0,0,-1,1595,1086,0,0
378,-62,0,0,0,0,0,0,0,0,0,-1,1602,1086,0,0
385,-62,0,0,0,0,0,0,0,0,0,-1,1609,1086,0,0
392,-62,0,0,0,0,0,0,0,0,0,-1,1616,1086,0,0
399,-62,0,0,0,0,0,0,0,0,0,-1,1623,1086,0,0
406,-62,0,0,0,0,0,0,0,0,0,-1,1630,1086,0,0
413,-62,0,0,0,0,0,0,0,0,0,-1,1637,1086,0,0
420,-62,0,0,0,0,0,0,0,0,0,-1,1644,1086,0,0
427,-62,0,0,0,0,0,0,0,0,0,-1,1651,1086,0,0
434,-62,0,0,0,0,0,0,0,0,0,-1,1658,1086,0,0
441,-62,0,0,0,0,0,0,0,0,0,-1,1665,1086,0,0
448,-62,0,0,0,0,0,0,0,0,0,-1,1672,1086,0,0
455,-62,0,0,0,0,0,0,0,0,0,-1,1679,1086,0,0
462,-62,0,0,0,0,0,0,0,0,0,-1,1686,1086,0,0
469,-62,0,0,0,0,0,0,0,0,0,-1,1693,1086,0,0
476,-62,0,0,0,0,0,0,0,0,0,-1,1700,1086,0,0
483,-62,0,0,0,0,0,0,0,0,0,-1,1707,1086,0,0
490,-62,0,0,0,0,0,0,0,0,0,-1,1714,1086,0,0
497,-62,0,0,0,0,0,0,0,0,0,-1,1721,1086,0,0
504,-62,0,0,0,0,0,0,0,0,0,-1,1728,1086,0,0
511,-62,0,0,0,0,0,0,0,0,0,-1,1735,1086,0,0
518,-62,0,0,0,0,0,0,0,0,0,-1,1742,1086,0,0
525,-62,0,0,0,0,0,0,0,0,0,-1,1749,1086,0,0
532,-62,0,0,0,0,0,0,0,0,0,-1,1756,1086,0,0
539,-62,0,0,0,0,0,0,0,0,0,-1,1763,1086,0,0
546,-62,0,0,0,0,0,0,0,0,0,-1,1770,1086,0,0
553,-62,0,0,0,0,0,0,0,0,0,-1,1777,1086,0,0
560,-62,0,0,0,0,0,0,0,0,0,-1,1784,1086,0,0
567,-62,0,0,0,0,0,0,0,0,0,-1,1791,1086,0,0
574,-62,0,0,0,0,0,0,0,0,0,-1,1798,1086,0,0
581,-62,0,0,0,0,0,0,0,0,0,-1,1805,1086,0,0
588,-62,0,0,0,0,0,0,0,0,0,-1,1812,1086,0,0
595,-62,0,0,0,0,0,0,0,0,0,-1,1819,1086,0,0
602,-62,0,0,0,0,0,0,0,0,0,-1,1826,1086,0,0
609,-62,0,0,0,0,0,0,0,0,0,-1,1833,1086,0,0
616,-62,0,0,0,0,0,0,0,0,0,-1,1840,1086,0,0
623,-62,0,0,0,0,0,0,0,0,0,-1,1847,1086,0,0
630,-62,0,0,0,0,0,0,0,0,0,-1,1854,1086,0,0
637,-62,0,0,0,0,0,0,0,0,0,-1,1861,1086,0,0
644,-62,0,0,0,0,0,0,0,0,0,-1,1868,1086,0,0
651,-62,36.0837,2.82007,-0.00154317,-0.00104672,-0.000153373,-0.00100316,-0.00158673,-1.29406,0.000926714,0.0387014,1875,1086,36.0838,-2.82011
658,-62,36.0948,2.68848,-0.000767216,-0.000589298,-1.79761e-05,-0.0005875,-0.000769014,-1.4711,0.000464157,0.0381981,1882,1086,36.0948,-2.68842
665,-62,36.1047,2.67065,-0.000224322,-0.000236049,0.000161925,-6.81545e-05,-0.000392216,0.7673,0.00024198,0.0391104,1889,1086,36.1048,-2.67069
672,-62,36.1124,2.65344,0.000277551,-0.000124664,0.000578484,0.000688888,-0.000536001,0.61811,0.000709024,0.0368329,1896,1086,36.1125,-2.65343
679,-62,36.2014,2.61951,0.000439383,-0.000217293,0.00121749,0.00137203,-0.00114994,0.653689,0.00145794,0.035337,1903,1086,36.2014,-2.61952
686,-62,36.2419,2.47327,0.000227145,-0.000521063,0.00185569,0.00174606,-0.00203998,0.685932,0.00218807,0.0365332,1910,1086,36.2419,-2.47326
693,-62,36.1331,2.52112,-1.29171e-05,-0.000876894,0.00237506,0.00196912,-0.00285893,0.695439,0.00280322,0.0357293,1917,1086,36.133,-2.52117
700,-62,36.1748,2.63696,-0.000343186,-0.00111345,0.00274762,0.00204616,-0.0035028,0.715767,0.00324028,0.029547,1924,1086,36.1747,-2.63691
707,-62,36.1477,2.67993,-0.000618986,-0.00124861,0.00306517,0.00214749,-0.00401509,0.734224,0.00361202,0.0189286,1931,1086,36.1477,-2.67997
714,-62,36.1864,2.74695,-0.000999183,-0.00128448,0.00327708,0.00213835,-0.00442202,0.763647,0.00386337,0.032552,1938,1086,36.1865,-2.7469
721,-62,36.2939,2.97424,0,0,0,0,0,0,0,-1,1945,1086,36.294,-2.97427
728,-62,35.1289,5.56702,0,0,0,0,0,0,0,-1,1952,1086,35.1288,-5.56698
735,-62,35.1378,5.37,-0.00199711,-0.000480136,0.00329129,0.00213893,-0.00461618,0.898647,0.00398652,0.0213478,1959,1086,35.1378,-5.36994
742,-62,35.1208,5.25427,-0.00162693,-4.75466e-05,0.0027485,0.00202246,-0.00369693,0.925289,0.00334893,0.0207583,1966,1086,35.1209,-5.25423
749,-62,35.0857,5.06287,-0.000705165,2.55679e-05,0.00163478,0.00133531,-0.00201491,0.895339,0.00194747,0.0167281,1973,1086,35.0857,-5.06281
756,-62,35.0156,4.9696,0.000461188,0.000137914,0.000142961,0.000515338,8.37634e-05,0.36208,0.000319321,0.0140726,1980,1086,35.0156,-4.96962
763,-62,35.0308,4.81396,0.00219565,0.000105126,-0.00164029,0.00309541,-0.000794639,-0.501721,0.00237326,0.0154727,1987,1086,35.0307,-4.814
770,-62,35.0332,4.62659,0.00480586,-0.000285538,-0.00427714,0.00723756,-0.00271724,-0.516961,0.00594164,0.0128853,1994,1086,35.0332,-4.62657
777,-62,34.9493,4.43689,0.00827682,-0.00145037,-0.00757702,0.0124169,-0.00559043,-0.500073,0.0106426,0.0142223,2001,1086,34.9493,-4.43687
784,-62,34.9398,4.20483,0.0121501,-0.0034978,-0.0112934,0.0180649,-0.00941266,-0.482463,0.0161242,0.0294801,2008,1086,34.9398,-4.20478
791,-62,35.0623,3.63818,0.0163707,-0.00648268,-0.0157124,0.024372,-0.014484,-0.471011,0.0226744,0.0435564,2015,1086,35.0623,-3.63822
798,-62,35.2617,3.22778,0.0211813,-0.0106792,-0.0210173,0.0316234,-0.0211212,-0.46111,0.0306527,0.0412344,2022,1086,35.2617,-3.22777
805,-62,35.5354,3.14563,0.0262964,-0.0161468,-0.0271414,0.0395279,-0.0293782,-0.453598,0.0399265,0.0436696,2029,1086,35.5353,-3.14562
812,-62,35.4482,2.88611,0.0310802,-0.022885,-0.0337547,0.0473115,-0.0391163,-0.448219,0.0499738,0.0453314,2036,1086,35.4482,-2.88609
-700,-69,-25.6872,-0.200684,0,0,0,0,0,0,0,-1,524,1093,-25.6872,0.200729
-693,-69,-25.4132,0.348999,-0.010202,0.00884022,0.0101456,0.0132326,-0.0145944,1.16223,0.0160723,0.0479345,531,1093,-25.4132,-0.348939
-686,-69,-25.0179,0.321411,-0.00678002,0.00758749,0.00647954,0.010078,-0.0092705,1.20384,0.0111741,0.04498,538,1093,-25.0179,-0.32135
-679,-69,-25.0018,0.353271,-0.00441837,0.0067976,0.00400367,0.0080801,-0.00570088,1.26079,0.00799588,0.047826,545,1093,-25.0018,-0.353279
-672,-69,-25.1141,0.649048,-0.00273972,0.00624714,0.00232518,0.00681309,-0.00330568,1.33204,0.00595791,0.0474057,552,1093,-25.1141,-0.649049
-665,-69,-25.1117,0.858887,-0.0015834,0.00579285,0.00119299,0.005981,-0.00177155,1.41437,0.00469072,0.04926,559,1093,-25.1117,-0.85884
-658,-69,-25.1621,1.14368,-0.000843139,0.00533829,0.000448994,0.00537074,-0.000875582,1.49866,0.00390521,0.0482351,566,1093,-25.1621,-1.14364
-651,-69,-25.1371,1.43738,-0.000367382,0.00479698,-1.19267e-05,0.00479701,-0.00036741,-1.56849,0.00332725,0.034226,573,1093,-25.1372,-1.43736
-644,-69,-25.1111,1.65283,-9.30986e-06,0.00415319,-0.000556842,0.00422639,-8.25147e-05,-1.44008,0.0028455,0.0105079,580,1093,-25.1112,-1.65288
-637,-69,-25.1356,1.89417,0.000155647,0.003515,-0.00139317,0.00401758,-0.000346931,-1.22458,0.0028012,0.0124671,587,1093,-25.1355,-1.89411
-630,-69,-25.1639,2.08984,0.00026607,0.00242683,-0.00203874,0.00365377,-0.000960863,-1.02905,0.00281141,0.0148629,594,1093,-25.1639,-2.08984
-623,-69,-25.1473,2.30774,0.000392237,0.00142172,-0.00268673,0.00364257,-0.00182861,-0.880045,0.00321614,0.0146341,601,1093,-25.1473,-2.3077
-616,-69,-25.1433,2.48914,0.000431539,0.000997505,-0.00275303,0.00348205,-0.00205301,-0.836613,0.00323098,0.0155181,608,1093,-25.1433,-2.48916
-609,-69,-25.148,2.6687,0.000534271,0.000227787,-0.00289601,0.00328109,-0.00251904,-0.758965,0.00335833,0.0141619,615,1093,-25.148,-2.66874
-602,-69,-25.1182,2.91174,0.000539007,-0.000378013,-0.00296107,0.00307686,-0.00291586,-0.708585,0.00346032,0.0178351,622,1093,-25.1182,-2.91176
-595,-69,-24.9398,3.44446,0,0,0,0,0,0,0,-1,629,1093,-24.9397,-3.4445
-588,-69,-25.4264,2.57495,0,0,0,0,0,0,0,-1,636,1093,-25.4264,-2.575
-581,-69,-25.913,1.70544,0,0,0,0,0,0,0,-1,643,1093,-25.913,-1.7055
-574,-69,-26.1965,0.80835,0.000260789,-0.00127315,-0.0031506,0.00273643,-0.00374879,-0.666003,0.00375942,0.0342111,650,1093,-26.1964,-0.808396
-567,-69,-26.2423,0.922485,3.55637e-05,-0.00122516,-0.00298383,0.00245489,-0.00364448,-0.681299,0.00354373,0.0372705,657,1093,-26.2423,-0.922488
-560,-69,-26.2513,1.25415,-0.000293015,-0.00103638,-0.00280737,0.00216717,-0.00349657,-0.719583,0.00329985,0.0391589,664,1093,-26.2513,-1.2541
-553,-69,-26.1807,1.10376,-0.000789246,-0.000739262,-0.00276527,0.00200113,-0.00352964,-0.789917,0.00323358,0.0401718,671,1093,-26.1806,-1.10381
-546,-69,-26.0872,0.919434,-0.00138177,-0.000381537,-0.00302461,0.00218402,-0.00394733,-0.867331,0.0035884,0.0357441,678,1093,-26.0872,-0.919458
-539,-69,-26.1677,0.926514,-0.00180951,-0.000139225,-0.00420004,0.0033079,-0.00525664,-0.883539,0.00498722,0.0355157,685,1093,-26.1677,-0.926467
-532,-69,-26.1149,1.14429,-0.00232185,0.000115104,-0.00726702,0.00626509,-0.00847184,-0.868462,0.00854011,0.0386687,692,1093,-26.1149,-1.1443
-525,-69,0,0,0,0,0,0,0,0,0,-1,699,1093,0,0
-518,-69,0,0,0,0,0,0,0,0,0,-1,706,1093,0,0
-511,-69,0,0,0,0,0,0,0,0,0,-1,713,1093,0,0
-504,-69,0,0,0,0,0,0,0,0,0,-1,720,1093,0,0
-497,-69,0,0,0,0,0,0,0,0,0,-1,727,1093,0,0
-490,-69,0,0,0,0,0,0,0,0,0,-1,734,1093,0,0
-483,-69,0,0,0,0,0,0,0,0,0,-1,741,1093,0,0
-476,-69,0,0,0,0,0,0,0,0,0,-1,748,1093,0,0
-469,-69,0,0,0,0,0,0,0,0,0,-1,755,1093,0,0
-462,-69,0,0,0,0,0,0,0,0,0,-1,762,1093,0,0
-455,-69,0,0,0,0,0,0,0,0,0,-1,769,1093,0,0
-448,-69,0,0,0,0,0,0,0,0,0,-1,776,1093,0,0
-441,-69,0,0,0,0,0,0,0,0,0,-1,783,1093,0,0
-434,-69,0,0,0,0,0,0,0,0,0,-1,790,1093,0,0
-427,-69,0,0,0,0,0,0,0,0,0,-1,797,1093,0,0
-420,-69,0,0,0,0,0,0,0,0,0,-1,804,1093,0,0
-413,-69,0,0,0,0,0,0,0,0,0,-1,811,1093,0,0
-406,-69,0,0,0,0,0,0,0,0,0,-1,818,1093,0,0
-399,-69,0,0,0,0,0,0,0,0,0,-1,825,1093,0,0
-392,-69,0,0,0,0,0,0,0,0,0,-1,832,1093,0,0
-385,-69,0,0,0,0,0,0,0,0,0,-1,839,1093,0,0
-378,-69,0,0,0,0,0,0,0,0,0,-1,846,1093,0,0
-371,-69,0,0,0,0,0,0,0,0,0,-1,853,1093,0,0
-364,-69,0,0,0,0,0,0,0,0,0,-1,860,1093,0,0
-357,-69,0,0,0,0,0,0,0,0,0,-1,867,1093,0,0
-350,-69,0,0,0,0,0,0,0,0,0,-1,874,1093,0,0
-343,-69,0,0,0,0,0,0,0,0,0,-1,881,1093,0,0
-336,-69,0,0,0,0,0,0,0,0,0,-1,888,1093,0,0
-329,-69,0,0,0,0,0,0,0,0,0,-1,895,1093,0,0
-322,-69,0,0,0,0,0,0,0,0,0,-1,902,1093,0,0
-315,-69,0,0,0,0,0,0,0,0,0,-1,909,1093,0,0
-308,-69,0,0,0,0,0,0,0,0,0,-1,916,1093,0,0
-301,-69,0,0,0,0,0,0,0,0,0,-1,923,1093,0,0
-294,-69,0,0,0,0,0,0,0,0,0,-1,930,1093,0,0
-287,-69,0,0,0,0,0,0,0,0,0,-1,937,1093,0,0
-280,-69,0,0,0,0,0,0,0,0,0,-1,944,1093,0,0
-273,-69,0,0,0,0,0,0,0,0,0,-1,951,1093,0,0
-266,-69,0,0,0,0,0,0,0,0,0,-1,958,1093,0,0
-259,-69,0,0,0,0,0,0,0,0,0,-1,965,1093,0,0
-252,-69,0,0,0,0,0,0,0,0,0,-1,972,1093,0,0
-245,-69,0,0,0,0,0,0,0,0,0,-1,979,1093,0,0
-238,-69,0,0,0,0,0,0,0,0,0,-1,986,1093,0,0
-231,-69,0,0,0,0,0,0,0,0,0,-1,993,1093,0,0
-224,-69,0,0,0,0,0,0,0,0,0,-1,1000,1093,0,0
-217,-69,0,0,0,0,0,0,0,0,0,-1,1007,1093,0,0
-210,-69,0,0,0,0,0,0,0,0,0,-1,1014,1093,0,0
-203,-69,0,0,0,0,0,0,0,0,0,-1,1021,1093,0,0
-196,-69,0,0,0,0,0,0,0,0,0,-1,1028,1093,0,0
-189,-69,0,0,0,0,0,0,0,0,0,-1,1035,1093,0,0
-182,-69,0,0,0,0,0,0,0,0,0,-1,1042,1093,0,0
-175,-69,0,0,0,0,0,0,0,0,0,-1,1049,1093,0,0
-168,-69,0,0,0,0,0,0,0,0,0,-1,1056,1093,0,0
-161,-69,0,0,0,0,0,0,0,0,0,-1,1063,1093,0,0
-154,-69,0,0,0,0,0,0,0,0,0,-1,1070,1093,0,0
-147,-69,0,0,0,0,0,0,0,0,0,-1,1077,1093,0,0
-140,-69,0,0,0,0,0,0,0,0,0,-1,1084,1093,0,0
-133,-69,0,0,0,0,0,0,0,0,0,-1,1091,1093,0,0
-126,-69,0,0,0,0,0,0,0,0,0,-1,1098,1093,0,0
-119,-69,0,0,0,0,0,0,0,0,0,-1,1105,1093,0,0
-112,-69,0,0,0,0,0,0,0,0,0,-1,1112,1093,0,0
-105,-69,0,0,0,0,0,0,0,0,0,-1,1119,1093,0,0
-98,-69,0,0,0,0,0,0,0,0,0,-1,1126,1093,0,0
-91,-69,0,0,0,0,0,0,0,0,0,-1,1133,1093,0,0
-84,-69,0,0,0,0,0,0,0,0,0,-1,1140,1093,0,0
-77,-69,0,0,0,0,0,0,0,0,0,-1,1147,1093,0,0
-70,-69,0,0,0,0,0,0,0,0,0,-1,1154,1093,0,0
-63,-69,0,0,0,0,0,0,0,0,0,-1,1161,1093,0,0
-56,-69,0,0,0,0,0,0,0,0,0,-1,1168,1093,0,0
-49,-69,0,0,0,0,0,0,0,0,0,-1,1175,1093,0,0
-42,-69,0,0,0,0,0,0,0,0,0,-1,1182,1093,0,0
-35,-69,0,0,0,0,0,0,0,0,0,-1,1189,1093,0,0
-28,-69,0,0,0,0,0,0,0,0,0,-1,1196,1093,0,0
-21,-69,0,0,0,0,0,0,0,0,0,-1,1203,1093,0,0
-14,-69,0,0,0,0,0,0,0,0,0,-1,1210,1093,0,0
-7,-69,0,0,0,0,0,0,0,0,0,-1,1217,1093,0,0
0,-69,0,0,0,0,0,0,0,0,0,-1,1224,1093,0,0
7,-69,0,0,0,0,0,0,0,0,0,-1,1231,1093,0,0
14,-69,0,0,0,0,0,0,0,0,0,-1,1238,1093,0,0
21,-69,0,0,0,0,0,0,0,0,0,-1,1245,1093,0,0
28,-69,0,0,0,0,0,0,0,0,0,-1,1252,1093,0,0
35,-69,0,0,0,0,0,0,0,0,0,-1,1259,1093,0,0
42,-69,0,0,0,0,0,0,0,0,0,-1,1266,1093,0,0
49,-69,0,0,0,0,0,0,0,0,0,-1,1273,1093,0,0
56,-69,0,0,0,0,0,0,0,0,0,-1,1280,1093,0,0
63,-69,0,0,0,0,0,0,0,0,0,-1,1287,1093,0,0
70,-69,0,0,0,0,0,0,0,0,0,-1,1294,1093,0,0
77,-69,0,0,0,0,0,0,0,0,0,-1,1301,1093,0,0
84,-69,0,0,0,0,0,0,0,0,0,-1,1308,1093,0,0
91,-69,0,0,0,0,0,0,0,0,0,-1,1315,1093,0,0
98,-69,0,0,0,0,0,0,0,0,0,-1,1322,1093,0,0
105,-69,0,0,0,0,0,0,0,0,0,-1,1329,1093,0,0
112,-69,0,0,0,0,0,0,0,0,0,-1,1336,1093,0,0
119,-69,0,0,0,0,0,0,0,0,0,-1,1343,1093,0,0
126,-69,0,0,0,0,0,0,0,0,0,-1,1350,1093,0,0
133,-69,0,0,0,0,0,0,0,0,0,-1,1357,1093,0,0
140,-69,0,0,0,0,0,0,0,0,0,-1,1364,1093,0,0
147,-69,0,0,0,0,0,0,0,0,0,-1,1371,1093,0,0
154,-69,0,0,0,0,0,0,0,0,0,-1,1378,1093,0,0
161,-69,0,0,0,0,0,0,0,0,0,-1,1385,1093,0,0
168,-69,0,0,0,0,0,0,0,0,0,-1,1392,1093,0,0
175,-69,0,0,0,0,0,0,0,0,0,-1,1399,1093,0,0
182,-69,0,0,0,0,0,0,0,0,0,-1,1406,1093,0,0
189,-69,0,0,0,0,0,0,0,0,0,-1,1413,1093,0,0
196,-69,0,0,0,0,0,0,0,0,0,-1,1420,1093,0,0
203,-69,0,0,0,0,0,0,0,0,0,-1,1427,1093,0,0
210,-69,0,0,0,0,0,0,0,0,0,-1,1434,1093,0,0
217,-69,0,0,0,0,0,0,0,0,0,-1,1441,1093,0,0
224,-69,0,0,0,0,0,0,0,0,0,-1,1448,1093,0,0
231,-69,0,0,0,0,0,0,0,0,0,-1,1455,1093,0,0
238,-69,0,0,0,0,0,0,0,0,0,-1,1462,1093,0,0
245,-69,0,0,0,0,0,0,0,0,0,-1,1469,1093,0,0
252,-69,0,0,0,0,0,0,0,0,0,-1,1476,1093,0,0
259,-69,0,0,0,0,0,0,0,0,0,-1,1483,1093,0,0
266,-69,0,0,0,0,0,0,0,0,0,-1,1490,1093,0,0
273,-69,0,0,0,0,0,0,0,0,0,-1,1497,1093,0,0
280,-69,0,0,0,0,0,0,0,0,0,-1,1504,1093,0,0
287,-69,0,0,0,0,0,0,0,0,0,-1,1511,1093,0,0
294,-69,0,0,0,0,0,0,0,0,0,-1,1518,1093,0,0
301,-69,0,0,0,0,0,0,0,0,0,-1,1525,1093,0,0
308,-69,0,0,0,0,0,0,0,0,0,-1,1532,1093,0,0
315,-69,0,0,0,0,0,0,0,0,0,-1,1539,1093,0,0
322,-69,0,0,0,0,0,0,0,0,0,-1,1546,1093,0,0
329,-69,0,0,0,0,0,0,0,0,0,-1,1553,1093,0,0
336,-69,0,0,0,0,0,0,0,0,0,-1,1560,1093,0,0
343,-69,0,0,0,0,0,0,0,0,0,-1,1567,1093,0,0
350,-69,0,0,0,0,0,0,0,0,0,-1,1574,1093,0,0
357,-69,0,0,0,0,0,0,0,0,0,-1,1581,1093,0,0
364,-69,0,0,0,0,0,0,0,0,0,-1,1588,1093,0,0
371,-69,0,0,0,0,0,0,0,0,0,-1,1595,1093,0,0
378,-69,0,0,0,0,0,0,0,0,0,-1,1602,1093,0,0
385,-69,0,0,0,0,0,0,0,0,0,-1,1609,1093,0,0
392,-69,0,0,0,0,0,0,0,0,0,-1,1616,1093,0,0
399,-69,0,0,0,0,0,0,0,0,0,-1,1623,1093,0,0
406,-69,0,0,0,0,0,0,0,0,0,-1,1630,1093,0,0
413,-69,0,0,0,0,0,0,0,0,0,-1,1637,1093,0,0
420,-69,0,0,0,0,0,0,0,0,0,-1,1644,1093,0,0
427,-69,0,0,0,0,0,0,0,0,0,-1,1651,1093,0,0
434,-69,0,0,0,0,0,0,0,0,0,-1,1658,1093,0,0
441,-69,0,0,0,0,0,0,0,0,0,-1,1665,1093,0,0
448,-69,0,0,0,0,0,0,0,0,0,-1,1672,1093,0,0
455,-69,0,0,0,0,0,0,0,0,0,-1,1679,1093,0,0
462,-69,0,0,0,0,0,0,0,0,0,-1,1686,1093,0,0
469,-69,0,0,0,0,0,0,0,0,0,-1,1693,1093,0,0
476,-69,0,0,0,0,0,0,0,0,0,-1,1700,1093,0,0
483,-69,0,0,0,0,0,0,0,0,0,-1,1707,1093,0,0
490,-69,0,0,0,0,0,0,0,0,0,-1,1714,1093,0,0
497,-69,0,0,0,0,0,0,0,0,0,-1,1721,1093,0,0
504,-69,0,0,0,0,0,0,0,0,0,-1,1728,1093,0,0
511,-69,0,0,0,0,0,0,0,0,0,-1,1735,1093,0,0
518,-69,0,0,0,0,0,0,0,0,0,-1,1742,1093,0,0
525,-69,0,0,0,0,0,0,0,0,0,-1,1749,1093,0,0
532,-69,0,0,0,0,0,0,0,0,0,-1,1756,1093,0,0
539,-69,0,0,0,0,0,0,0,0,0,-1,1763,1093,0,0
546,-69,0,0,0,0,0,0,0,0,0,-1,1770,1093,0,0
553,-69,0,0,0,0,0,0,0,0,0,-1,1777,1093,0,0
560,-69,0,0,0,0,0,0,0,0,0,-1,1784,1093,0,0
567,-69,0,0,0,0,0,0,0,0,0,-1,1791,1093,0,0
574,-69,0,0,0,0,0,0,0,0,0,-1,1798,1093,0,0
581,-69,0,0,0,0,0,0,0,0,0,-1,1805,1093,0,0
588,-69,0,0,0,0,0,0,0,0,0,-1,1812,1093,0,0
595,-69,0,0,0,0,0,0,0,0,0,-1,1819,1093,0,0
602,-69,0,0,0,0,0,0,0,0,0,-1,1826,1093,0,0
609,-69,0,0,0,0,0,0,0,0,0,-1,1833,1093,0,0
616,-69,0,0,0,0,0,0,0,0,0,-1,1840,1093,0,0
623,-69,0,0,0,0,0,0,0,0,0,-1,1847,1093,0,0
630,-69,0,0,0,0,0,0,0,0,0,-1,1854,1093,0,0
637,-69,0,0,0,0,0,0,0,0,0,-1,1861,1093,0,0
644,-69,0,0,0,0,0,0,0,0,0,-1,1868,1093,0,0
651,-69,36.1163,2.49658,0.000175114,-0.00169453,-0.000764145,0.000447689,-0.00196711,-0.342637,0.00148333,0.0379542,1875,1093,36.1164,-2.49653
658,-69,36.0874,2.46643,0.000438692,-0.00131967,-0.000468272,0.000555622,-0.0014366,-0.244702,0.00118711,0.042576,1882,1093,36.0874,-2.46645
665,-69,36.1827,2.51245,0.000631414,-0.00100626,-0.000182908,0.000651594,-0.00102644,-0.109884,0.000976835,0.0419514,1889,1093,36.1827,-2.51251
672,-69,36.1686,2.64111,0.000871177,-0.000915276,0.000270123,0.000911128,-0.000955227,0.146834,0.00107764,0.0362998,1896,1093,36.1685,-2.64117
679,-69,36.1138,2.6073,0.000767145,-0.000978466,0.000893817,0.00114362,-0.00135494,0.398646,0.00144426,0.0354889,1903,1093,36.1138,-2.60735
686,-69,36.1449,2.49841,0.000396661,-0.00120455,0.00149797,0.00129455,-0.00210243,0.539981,0.00197965,0.0365652,1910,1093,36.1449,-2.49836
693,-69,36.0835,2.63892,7.16491e-05,-0.00145334,0.00198112,0.00143194,-0.00281363,0.601696,0.00249408,0.0345392,1917,1093,36.0835,-2.63888
700,-69,36.1331,2.6333,-0.000338565,-0.00157555,0.0023298,0.00145344,-0.00336756,0.655656,0.0028556,0.0267428,1924,1093,36.133,-2.63328
707,-69,36.137,2.67163,-0.000650266,-0.00162206,0.00265918,0.00156705,-0.00383937,0.695033,0.00321198,0.0182835,1931,1093,36.1369,-2.67161
714,-69,36.1716,2.62683,-0.001041,-0.00157936,0.00289081,0.00159313,-0.00421349,0.738974,0.00346437,0.0258977,1938,1093,36.1716,-2.62681
721,-69,36.2288,2.65845,0,0,0,0,0,0,0,-1,1945,1093,36.2288,-2.65841
728,-69,34.6862,5.67322,0,0,0,0,0,0,0,-1,1952,1093,34.6861,-5.67321
735,-69,34.9192,5.46948,-0.00191294,-0.000634724,0.00305767,0.00184992,-0.00439758,0.888424,0.00370562,0.0261817,1959,1093,34.9192,-5.46952
742,-69,34.9313,5.3175,-0.00145721,-0.000314486,0.0026014,0.00177756,-0.00354926,0.8935,0.00313163,0.0207027,1966,1093,34.9312,-5.31755
749,-69,34.7822,5.10596,-0.000499459,-0.000427315,0.00162492,0.00116194,-0.00208871,0.796496,0.00190202,0.0216932,1973,1093,34.7822,-5.10598
756,-69,34.8219,4.95288,0.000662514,-0.000584311,0.000270039,0.000718487,-0.000640284,0.204382,0.00078492,0.0157819,1980,1093,34.822,-4.95284
763,-69,34.829,4.76941,0.00241216,-0.00105408,-0.00140949,0.00291295,-0.00155487,-0.341389,0.00261892,0.016729,1987,1093,34.829,-4.76943
770,-69,34.7981,4.62756,0.00497756,-0.00203858,-0.00390119,0.006716,-0.00377701,-0.419203,0.00613684,0.0171469,1994,1093,34.798,-4.62754
777,-69,34.7366,4.49536,0.00825126,-0.0039421,-0.00702236,0.0114542,-0.00714505,-0.427921,0.0108339,0.0225686,2001,1093,34.7366,-4.49541
784,-69,34.8372,4.42407,0.01181,-0.00679625,-0.01061,0.0166179,-0.0116041,-0.425467,0.0163795,0.0361139,2008,1093,34.8371,-4.42406
791,-69,35.3049,3.83142,0.0155443,-0.0106846,-0.0149345,0.0223051,-0.0174454,-0.425097,0.0230071,0.047005,2015,1093,35.3049,-3.8314
798,-69,35.8767,3.45276,0.0196349,-0.0158503,-0.0201793,0.0287624,-0.0249778,-0.424783,0.0310526,0.0448503,2022,1093,35.8768,-3.45275
805,-69,35.9688,3.49109,0,0,0,0,0,0,0,-1,2029,1093,35.9688,-3.49106
812,-69,34.8042,3.09216,0,0,0,0,0,0,0,-1,2036,1093,34.8041,-3.09216
-700,-76,0,0,0,0,0,0,0,0,0,-1,524,1100,0,0
-693,-76,-23.6075,0.0935059,0,0,0,0,0,0,0,-1,531,1100,-23.6075,-0.0935467
-686,-76,-24.4962,0.0551758,0,0,0,0,0,0,0,-1,538,1100,-24.4962,-0.055128
-679,-76,-24.6044,0.151001,0,0,0,0,0,0,0,-1,545,1100,-24.6044,-0.150968
-672,-76,-24.8461,0.68335,-0.00629481,0.00826436,0.00604746,0.0104486,-0.00847906,1.22419,0.0109476,0.0458417,552,1100,-24.8461,-0.683301
-665,-76,-24.6321,1.01648,-0.00458545,0.00706609,0.00412056,0.00837605,-0.00589541,1.26299,0.00828102,0.0476044,559,1100,-24.6322,-1.01647
-658,-76,-24.8203,1.18018,-0.00330305,0.00604962,0.0026715,0.00675891,-0.00401234,1.31128,0.00628582,0.0465778,566,1100,-24.8203,-1.18013
-651,-76,-24.8189,1.41138,-0.00230764,0.00511506,0.00162351,0.00545463,-0.00264721,1.36461,0.00477029,0.0291177,573,1100,-24.8189,-1.41133
-644,-76,-24.8397,1.65161,-0.00147908,0.00422197,0.000697521,0.00430607,-0.00156318,1.4508,0.00350979,0.0108937,580,1100,-24.8397,-1.65162
-637,-76,-24.8917,1.84436,-0.000858644,0.00339116,-0.000406527,0.0034297,-0.000897182,-1.47628,0.0026369,0.0144975,587,1100,-24.8917,-1.84435
-630,-76,-24.9276,2.05627,-0.000345546,0.0022487,-0.00127562,0.00277085,-0.000867688,-1.18228,0.00219441,0.0153586,594,1100,-24.9275,-2.05629
-623,-76,-24.9169,2.28528,0.000130556,0.00120987,-0.00201397,0.00275523,-0.00141481,-0.916301,0.00244868,0.0147983,601,1100,-24.9169,-2.28525
-616,-76,-24.9352,2.50574,0.000376979,0.000807314,-0.00201584,0.00261943,-0.00143514,-0.838566,0.00237396,0.0135258,608,1100,-24.9353,-2.5057
-609,-76,-24.942,2.71179,0.000571149,0.000104417,-0.00203747,0.00238857,-0.00171301,-0.728378,0.00237873,0.0147798,615,1100,-24.942,-2.71178
-602,-76,-24.9014,2.93286,0.000655068,-0.000361162,-0.0020313,0.00224084,-0.00194693,-0.662841,0.00241979,0.0182402,622,1100,-24.9014,-2.93283
-595,-76,-24.5951,3.60681,0,0,0,0,0,0,0,-1,629,1100,-24.5951,-3.60684
-588,-76,-25.2192,2.60803,0,0,0,0,0,0,0,-1,636,1100,-25.2193,-2.60808
-581,-76,-25.8434,1.60938,0,0,0,0,0,0,0,-1,643,1100,-25.8434,-1.60932
-574,-76,-26.2216,0.692017,0.000352824,-0.00102067,-0.00210366,0.001879,-0.00254684,-0.627625,0.00256494,0.0334272,650,1100,-26.2216,-0.692001
-567,-76,-26.186,0.772217,0.000110976,-0.00093983,-0.00197942,0.00163353,-0.00246239,-0.655673,0.00238087,0.0381722,657,1100,-26.186,-0.772244
-560,-76,-26.1612,1.09229,-0.000231242,-0.00071811,-0.00189291,0.00143382,-0.00238317,-0.721447,0.00222634,0.043081,664,1100,-26.1612,-1.09229
-553,-76,-25.9299,0.921387,-0.000788093,-0.000384189,-0.00200933,0.00143331,-0.00260559,-0.835484,0.00236437,0.0450662,671,1100,-25.9299,-0.921439
-546,-76,-25.996,0.919678,-0.00145797,2.45918e-05,-0.00251499,0.00190527,-0.00333865,-0.928713,0.00306505,0.0425918,678,1100,-25.996,-0.919727
-539,-76,-26.0461,0.864624,-0.00182861,0.000330622,-0.003854,0.00325337,-0.00475136,-0.921962,0.00464843,0.0389922,685,1100,-26.0461,-0.864609
-532,-76,-26.0251,0.905029,-0.00209214,0.000556503,-0.00673447,0.00609563,-0.00763127,-0.882484,0.00794174,0.0402058,692,1100,-26.0251,-0.905011
-525,-76,0,0,0,0,0,0,0,0,0,-1,699,1100,0,0
-518,-76,0,0,0,0,0,0,0,0,0,-1,706,1100,0,0
-511,-76,0,0,0,0,0,0,0,0,0,-1,713,1100,0,0
-504,-76,0,0,0,0,0,0,0,0,0,-1,720,1100,0,0
-497,-76,0,0,0,0,0,0,0,0,0,-1,727,1100,0,0
-490,-76,0,0,0,0,0,0,0,0,0,-1,734,1100,0,0
-483,-76,0,0,0,0,0,0,0,0,0,-1,741,1100,0,0
-476,-76,0,0,0,0,0,0,0,0,0,-1,748,1100,0,0
-469,-76,0,0,0,0,0,0,0,0,0,-1,755,1100,0,0
-462,-76,0,0,0,0,0,0,0,0,0,-1,762,1100,0,0
-455,-76,0,0,0,0,0,0,0,0,0,-1,769,1100,0,0
-448,-76,0,0,0,0,0,0,0,0,0,-1,776,1100,0,0
-441,-76,0,0,0,0,0,0,0,0,0,-1,783,1100,0,0
-434,-76,0,0,0,0,0,0,0,0,0,-1,790,1100,0,0
-427,-76,0,0,0,0,0,0,0,0,0,-1,797,1100,0,0
-420,-76,0,0,0,0,0,0,0,0,0,-1,804,1100,0,0
-413,-76,0,0,0,0,0,0,0,0,0,-1,811,1100,0,0
-406,-76,0,0,0,0,0,0,0,0,0,-1,818,1100,0,0
-399,-76,0,0,0,0,0,0,0,0,0,-1,825,1100,0,0
-392,-76,0,0,0,0,0,0,0,0,0,-1,832,1100,0,0
-385,-76,0,0,0,0,0,0,0,0,0,-1,839,1100,0,0
-378,-76,0,0,0,0,0,0,0,0,0,-1,846,1100,0,0
-371,-76,0,0,0,0,0,0,0,0,0,-1,853,1100,0,0
-364,-76,0,0,0,0,0,0,0,0,0,-1,860,1100,0,0
-357,-76,0,0,0,0,0,0,0,0,0,-1,867,1100,0,0
-350,-76,0,0,0,0,0,0,0,0,0,-1,874,1100,0,0
-343,-76,0,0,0,0,0,0,0,0,0,-1,881,1100,0,0
-336,-76,0,0,0,0,0,0,0,0,0,-1,888,1100,0,0
-329,-76,0,0,0,0,0,0,0,0,0,-1,895,1100,0,0
-322,-76,0,0,0,0,0,0,0,0,0,-1,902,1100,0,0
-315,-76,0,0,0,0,0,0,0,0,0,-1,909,1100,0,0
-308,-76,0,0,0,0,0,0,0,0,0,-1,916,1100,0,0
-301,-76,0,0,0,0,0,0,0,0,0,-1,923,1100,0,0
-294,-76,0,0,0,0,0,0,0,0,0,-1,930,1100,0,0
-287,-76,0,0,0,0,0,0,0,0,0,-1,937,1100,0,0
-280,-76,0,0,0,0,0,0,0,0,0,-1,944,1100,0,0
-273,-76,0,0,0,0,0,0,0,0,0,-1,951,1100,0,0
-266,-76,0,0,0,0,0,0,0,0,0,-1,958,1100,0,0
-259,-76,0,0,0,0,0,0,0,0,0,-1,965,1100,0,0
-252,-76,0,0,0,0,0,0,0,0,0,-1,972,1100,0,0
-245,-76,0,0,0,0,0,0,0,0,0,-1,979,1100,0,0
-238,-76,0,0,0,0,0,0,0,0,0,-1,986,1100,0,0
-231,-76,0,0,0,0,0,0,0,0,0,-1,993,1100,0,0
-224,-76,0,0,0,0,0,0,0,0,0,-1,1000,1100,0,0
-217,-76,0,0,0,0,0,0,0,0,0,-1,1007,1100,0,0
-210,-76,0,0,0,0,0,0,0,0,0,-1,1014,1100,0,0
-203,-76,0,0,0,0,0,0,0,0,0,-1,1021,1100,0,0
-196,-76,0,0,0,0,0,0,0,0,0,-1,1028,1100,0,0
-189,-76,0,0,0,0,0,0,0,0,0,-1,1035,1100,0,0
-182,-76,0,0,0,0,0,0,0,0,0,-1,1042,1100,0,0
-175,-76,0,0,0,0,0,0,0,0,0,-1,1049,1100,0,0
-168,-76,0,0,0,0,0,0,0,0,0,-1,1056,1100,0,0
-161,-76,0,0,0,0,0,0,0,0,0,-1,1063,1100,0,0
-154,-76,0,0,0,0,0,0,0,0,0,-1,1070,1100,0,0
-147,-76,0,0,0,0,0,0,0,0,0,-1,1077,1100,0,0
-140,-76,0,0,0,0,0,0,0,0,0,-1,1084,1100,0,0
-133,-76,0,0,0,0,0,0,0,0,0,-1,1091,1100,0,0
-126,-76,0,0,0,0,0,0,0,0,0,-1,1098,1100,0,0
-119,-76,0,0,0,0,0,0,0,0,0,-1,1105,1100,0,0
-112,-76,0,0,0,0,0,0,0,0,0,-1,1112,1100,0,0
-105,-76,0,0,0,0,0,0,0,0,0,-1,1119,1100,0,0
-98,-76,0,0,0,0,0,0,0,0,0,-1,1126,1100,0,0
-91,-76,0,0,0,0,0,0,0,0,0,-1,1133,1100,0,0
-84,-76,0,0,0,0,0,0,0,0,0,-1,1140,1100,0,0
-77,-76,0,0,0,0,0,0,0,0,0,-1,1147,1100,0,0
-70,-76,0,0,0,0,0,0,0,0,0,-1,1154,1100,0,0
-63,-76,0,0,0,0,0,0,0,0,0,-1,1161,1100,0,0
-56,-76,0,0,0,0,0,0,0,0,0,-1,1168,1100,0,0
-49,-76,0,0,0,0,0,0,0,0,0,-1,1175,1100,0,0
-42,-76,0,0,0,0,0,0,0,0,0,-1,1182,1100,0,0
-35,-76,0,0,0,0,0,0,0,0,0,-1,1189,1100,0,0
-28,-76,0,0,0,0,0,0,0,0,0,-1,1196,1100,0,0
-21,-76,0,0,0,0,0,0,0,0,0,-1,1203,1100,0,0
-14,-76,0,0,0,0,0,0,0,0,0,-1,1210,1100,0,0
-7,-76,0,0,0,0,0,0,0,0,0,-1,1217,1100,0,0
0,-76,0,0,0,0,0,0,0,0,0,-1,1224,1100,0,0
7,-76,0,0,0,0,0,0,0,0,0,-1,1231,1100,0,0
14,-76,0,0,0,0,0,0,0,0,0,-1,1238,1100,0,0
21,-76,0,0,0,0,0,0,0,0,0,-1,1245,1100,0,0
28,-76,0,0,0,0,0,0,0,0,0,-1,1252,1100,0,0
35,-76,0,0,0,0,0,0,0,0,0,-1,1259,1100,0,0
42,-76,0,0,0,0,0,0,0,0,0,-1,1266,1100,0,0
49,-76,0,0,0,0,0,0,0,0,0,-1,1273,1100,0,0
56,-76,0,0,0,0,0,0,0,0,0,-1,1280,1100,0,0
63,-76,0,0,0,0,0,0,0,0,0,-1,1287,1100,0,0
70,-76,0,0,0,0,0,0,0,0,0,-1,1294,1100,0,0
77,-76,0,0,0,0,0,0,0,0,0,-1,1301,1100,0,0
84,-76,0,0,0,0,0,0,0,0,0,-1,1308,1100,0,0
91,-76,0,0,0,0,0,0,0,0,0,-1,1315,1100,0,0
98,-76,0,0,0,0,0,0,0,0,0,-1,1322,1100,0,0
105,-76,0,0,0,0,0,0,0,0,0,-1,1329,1100,0,0
112,-76,0,0,0,0,0,0,0,0,0,-1,1336,1100,0,0
119,-76,0,0,0,0,0,0,0,0,0,-1,1343,1100,0,0
126,-76,0,0,0,0,0,0,0,0,0,-1,1350,1100,0,0
133,-76,0,0,0,0,0,0,0,0,0,-1,1357,1100,0,0
140,-76,0,0,0,0,0,0,0,0,0,-1,1364,1100,0,0
147,-76,0,0,0,0,0,0,0,0,0,-1,1371,1100,0,0
154,-76,0,0,0,0,0,0,0,0,0,-1,1378,1100,0,0
161,-76,0,0,0,0,0,0,0,0,0,-1,1385,1100,0,0
168,-76,0,0,0,0,0,0,0,0,0,-1,1392,1100,0,0
175,-76,0,0,0,0,0,0,0,0,0,-1,1399,1100,0,0
182,-76,0,0,0,0,0,0,0,0,0,-1,1406,1100,0,0
189,-76,0,0,0,0,0,0,0,0,0,-1,1413,1100,0,0
196,-76,0,0,0,0,0,0,0,0,0,-1,1420,1100,0,0
203,-76,0,0,0,0,0,0,0,0,0,-1,1427,1100,0,0
210,-76,0,0,0,0,0,0,0,0,0,-1,1434,1100,0,0
217,-76,0,0,0,0,0,0,0,0,0,-1,1441,1100,0,0
224,-76,0,0,0,0,0,0,0,0,0,-1,1448,1100,0,0
231,-76,0,0,0,0,0,0,0,0,0,-1,1455,1100,0,0
238,-76,0,0,0,0,0,0,0,0,0,-1,1462,1100,0,0
245,-76,0,0,0,0,0,0,0,0,0,-1,1469,1100,0,0
252,-76,0,0,0,0,0,0,0,0,0,-1,1476,1100,0,0
259,-76,0,0,0,0,0,0,0,0,0,-1,1483,1100,0,0
266,-76,0,0,0,0,0,0,0,0,0,-1,1490,1100,0,0
273,-76,0,0,0,0,0,0,0,0,0,-1,1497,1100,0,0
280,-76,0,0,0,0,0,0,0,0,0,-1,1504,1100,0,0
287,-76,0,0,0,0,0,0,0,0,0,-1,1511,1100,0,0
294,-76,0,0,0,0,0,0,0,0,0,-1,1518,1100,0,0
301,-76,0,0,0,0,0,0,0,0,0,-1,1525,1100,0,0
308,-76,0,0,0,0,0,0,0,0,0,-1,1532,1100,0,0
315,-76,0,0,0,0,0,0,0,0,0,-1,1539,1100,0,0
322,-76,0,0,0,0,0,0,0,0,0,-1,1546,1100,0,0
329,-76,0,0,0,0,0,0,0,0,0,-1,1553,1100,0,0
336,-76,0,0,0,0,0,0,0,0,0,-1,1560,1100,0,0
343,-76,0,0,0,0,0,0,0,0,0,-1,1567,1100,0,0
350,-76,0,0,0,0,0,0,0,0,0,-1,1574,1100,0,0
357,-76,0,0,0,0,0,0,0,0,0,-1,1581,1100,0,0
364,-76,0,0,0,0,0,0,0,0,0,-1,1588,1100,0,0
371,-76,0,0,0,0,0,0,0,0,0,-1,1595,1100,0,0
378,-76,0,0,0,0,0,0,0,0,0,-1,1602,1100,0,0
385,-76,0,0,0,0,0,0,0,0,0,-1,1609,1100,0,0
392,-76,0,0,0,0,0,0,0,0,0,-1,1616,1100,0,0
399,-76,0,0,0,0,0,0,0,0,0,-1,1623,1100,0,0
406,-76,0,0,0,0,0,0,0,0,0,-1,1630,1100,0,0
413,-76,0,0,0,0,0,0,0,0,0,-1,1637,1100,0,0
420,-76,0,0,0,0,0,0,0,0,0,-1,1644,1100,0,0
427,-76,0,0,0,0,0,0,0,0,0,-1,1651,1100,0,0
434,-76,0,0,0,0,0,0,0,0,0,-1,1658,1100,0,0
441,-76,0,0,0,0,0,0,0,0,0,-1,1665,1100,0,0
448,-76,0,0,0,0,0,0,0,0,0,-1,1672,1100,0,0
455,-76,0,0,0,0,0,0,0,0,0,-1,1679,1100,0,0
462,-76,0,0,0,0,0,0,0,0,0,-1,1686,1100,0,0
469,-76,0,0,0,0,0,0,0,0,0,-1,1693,1100,0,0
476,-76,0,0,0,0,0,0,0,0,0,-1,1700,1100,0,0
483,-76,0,0,0,0,0,0,0,0,0,-1,1707,1100,0,0
490,-76,0,0,0,0,0,0,0,0,0,-1,1714,1100,0,0
497,-76,0,0,0,0,0,0,0,0,0,-1,1721,1100,0,0
504,-76,0,0,0,0,0,0,0,0,0,-1,1728,1100,0,0
511,-76,0,0,0,0,0,0,0,0,0,-1,1735,1100,0,0
518,-76,0,0,0,0,0,0,0,0,0,-1,1742,1100,0,0
525,-76,0,0,0,0,0,0,0,0,0,-1,1749,1100,0,0
532,-76,0,0,0,0,0,0,0,0,0,-1,1756,1100,0,0
539,-76,0,0,0,0,0,0,0,0,0,-1,1763,1100,0,0
546,-76,0,0,0,0,0,0,0,0,0,-1,1770,1100,0,0
553,-76,0,0,0,0,0,0,0,0,0,-1,1777,1100,0,0
560,-76,0,0,0,0,0,0,0,0,0,-1,1784,1100,0,0
567,-76,0,0,0,0,0,0,0,0,0,-1,1791,1100,0,0
574,-76,0,0,0,0,0,0,0,0,0,-1,1798,1100,0,0
581,-76,0,0,0,0,0,0,0,0,0,-1,1805,1100,0,0
588,-76,0,0,0,0,0,0,0,0,0,-1,1812,1100,0,0
595,-76,0,0,0,0,0,0,0,0,0,-1,1819,1100,0,0
602,-76,0,0,0,0,0,0,0,0,0,-1,1826,1100,0,0
609,-76,0,0,0,0,0,0,0,0,0,-1,1833,1100,0,0
616,-76,0,0,0,0,0,0,0,0,0,-1,1840,1100,0,0
623,-76,0,0,0,0,0,0,0,0,0,-1,1847,1100,0,0
630,-76,0,0,0,0,0,0,0,0,0,-1,1854,1100,0,0
637,-76,0,0,0,0,0,0,0,0,0,-1,1861,1100,0,0
644,-76,0,0,0,0,0,0,0,0,0,-1,1868,1100,0,0
651,-76,36.1539,2.46497,0.00141079,-0.00216553,-0.000963787,0.00165398,-0.00240872,-0.247172,0.00235906,0.0394685,1875,1100,36.1539,-2.46497
658,-76,36.0787,2.48682,0.00130966,-0.00175824,-0.000595827,0.00142131,-0.00186989,-0.185245,0.00190605,0.0431091,1882,1100,36.0787,-2.48681
665,-76,36.1636,2.51465,0.00125486,-0.0014345,-0.000283985,0.00128452,-0.00146416,-0.104066,0.00158808,0.0381406,1889,1100,36.1636,-2.51464
672,-76,36.2393,2.6062,0.00129407,-0.00133628,0.000139953,0.0013015,-0.0013437,0.0530076,0.00152727,0.0359695,1896,1100,36.2393,-2.60617
679,-76,36.1638,2.65259,0.000988145,-0.00137674,0.000690088,0.00117479,-0.00156338,0.264141,0.00158618,0.0365896,1903,1100,36.1638,-2.65264
686,-76,36.2274,2.76257,0.000516981,-0.00155338,0.00120964,0.00107392,-0.00211032,0.43148,0.0018706,0.0366798,1910,1100,36.2274,-2.76252
693,-76,36.2047,2.81042,0.000142804,-0.00173476,0.0016206,0.0010769,-0.00266885,0.522876,0.00222677,0.0375727,1917,1100,36.2047,-2.81038
700,-76,36.1515,2.64636,-0.000313669,-0.00178036,0.0019143,0.00100295,-0.00309698,0.602477,0.00246786,0.0300867,1924,1100,36.1515,-2.64642
707,-76,36.1394,2.70654,-0.000643473,-0.00178608,0.00222609,0.00108345,-0.003513,0.659789,0.00277459,0.0209568,1931,1100,36.1394,-2.70656
714,-76,36.1746,2.79822,-0.00102986,-0.00170408,0.00245615,0.00111221,-0.00384615,0.717198,0.00300426,0.040291,1938,1100,36.1746,-2.79818
721,-76,35.2638,5.5177,0,0,0,0,0,0,0,-1,1945,1100,35.2638,-5.51774
728,-76,34.9653,5.61621,-0.00181788,-0.00117973,0.00274268,0.00126237,-0.00425998,0.843306,0.00334124,0.0385376,1952,1100,34.9653,-5.61617
735,-76,34.4584,5.5636,-0.00180349,-0.000723128,0.00272067,0.00151046,-0.00403709,0.883398,0.00331176,0.0296883,1959,1100,34.4583,-5.5636
742,-76,34.676,5.3562,-0.00128139,-0.0004622,0.00236673,0.00153012,-0.0032737,0.871081,0.00283373,0.0201539,1966,1100,34.676,-5.35619
749,-76,34.5942,5.10754,-0.000318703,-0.000726443,0.00156148,0.00105216,-0.00209731,0.720484,0.00185142,0.0203206,1973,1100,34.5942,-5.10756
756,-76,34.6342,4.93323,0.000839454,-0.00109285,0.000376042,0.000910055,-0.00116345,0.185588,0.00120011,0.015769,1980,1100,34.6342,-4.93328
763,-76,34.6277,4.7384,0.00260574,-0.00191417,-0.00116083,0.00288644,-0.00219487,-0.237255,0.00294274,0.0166909,1987,1100,34.6277,-4.73843
770,-76,34.5463,4.61157,0.00512958,-0.00337627,-0.00343117,0.00634111,-0.0045878,-0.33943,0.00633682,0.0173443,1994,1100,34.5463,-4.61157
777,-76,34.4897,4.56738,0.00822242,-0.00585903,-0.00626122,0.0106037,-0.00824034,-0.363432,0.0109081,0.0223243,2001,1100,34.4897,-4.5674
784,-76,34.7024,4.39514,0.0115215,-0.00934318,-0.00958648,0.0152573,-0.0130789,-0.371585,0.016376,0.0346241,2008,1100,34.7024,-4.3952
791,-76,35.1331,4.11621,0.0148958,-0.0139776,-0.0136599,0.0203339,-0.0194157,-0.378879,0.0229515,0.0437417,2015,1100,35.1332,-4.11621
798,-76,35.4775,3.87415,0,0,0,0,0,0,0,-1,2022,1100,35.4776,-3.8741
805,-76,35.0752,2.48523,0.0218406,-0.0272367,-0.0246157,0.0320594,-0.0374555,-0.393483,0.0401747,0.0465762,2029,1100,35.0753,-2.48523
812,-76,34.7705,2.71399,0,0,0,0,0,0,0,-1,2036,1100,34.7706,-2.71401
-700,-83,0,0,0,0,0,0,0,0,0,-1,524,1107,0,0
-693,-83,-23.8132,-0.229736,-0.0153145,0.0213031,0.0195015,0.0297435,-0.0237549,1.16233,0.0309518,0.0470875,531,1107,-23.8132,0.2297
-686,-83,-24.2001,0.0185547,-0.0109869,0.0171687,0.0142609,0.0231298,-0.016948,1.17487,0.0232305,0.0456489,538,1107,-24.2001,-0.0185371
-679,-83,-24.5258,0.384155,-0.00783015,0.0138616,0.0102856,0.0179632,-0.0119318,1.19135,0.0173766,0.0454344,545,1107,-24.5258,-0.384167
-672,-83,-24.7847,0.908081,-0.00547399,0.0112038,0.00725955,0.013921,-0.00819123,1.21264,0.0129086,0.0416071,552,1107,-24.7847,-0.908058
-665,-83,-24.6411,0.447266,0,0,0,0,0,0,0,-1,559,1107,-24.6411,-0.447278
-658,-83,-24.651,0.82019,-0.00264206,0.00731045,0.00324339,0.00827412,-0.00360573,1.28199,0.00703315,0.0436935,566,1107,-24.651,-0.820208
-651,-83,-24.5703,1.16296,-0.00181534,0.00584525,0.00200976,0.00634049,-0.00231058,1.32919,0.00517218,0.0321272,573,1107,-24.5703,-1.16302
-644,-83,-24.5814,1.57117,-0.00114371,0.00458064,0.00102974,0.00476024,-0.00132331,1.39812,0.00369446,0.0150577,580,1107,-24.5814,-1.57116
-637,-83,-24.6245,1.82715,-0.000563911,0.00346237,-8.90645e-05,0.00346434,-0.00056588,-1.54869,0.00251946,0.0118213,587,1107,-24.6245,-1.82714
-630,-83,-24.6644,2.04834,-0.000146741,0.00219405,-0.000949031,0.00253047,-0.000483159,-1.23013,0.00186896,0.0165042,594,1107,-24.6644,-2.04835
-623,-83,-24.6818,2.26526,0.000305659,0.0010708,-0.00162325,0.00235595,-0.000979498,-0.901127,0.00197963,0.0152512,601,1107,-24.6818,-2.26521
-616,-83,-24.6947,2.4895,0.000473922,0.000580459,-0.00145806,0.00198622,-0.000931843,-0.803657,0.00172102,0.0133231,608,1107,-24.6947,-2.48947
-609,-83,-24.7057,2.698,0.000679033,-2.82486e-05,-0.00141945,0.00178823,-0.00113745,-0.663314,0.00170301,0.0149987,615,1107,-24.7057,-2.69799
-602,-83,-24.7125,2.96912,0.000795068,-0.000366127,-0.00137703,0.0017089,-0.00127996,-0.585892,0.00173153,0.0157979,622,1107,-24.7124,-2.96909
-595,-83,-24.6271,3.21045,0.000727362,-0.000541088,-0.00132238,0.00155975,-0.00137347,-0.561798,0.00169463,0.0193102,629,1107,-24.6271,-3.21044
-588,-83,-25.0883,2.47412,0,0,0,0,0,0,0,-1,636,1107,-25.0883,-2.47408
-581,-83,-26.2145,0.762939,0,0,0,0,0,0,0,-1,643,1107,-26.2146,-0.762901
-574,-83,-26.1756,0.593384,0.00039131,-0.000768412,-0.00130509,0.00123956,-0.00161666,-0.576343,0.00165382,0.0347475,650,1107,-26.1756,-0.593373
-567,-83,-26.1245,0.594849,0.000108342,-0.000626934,-0.00119296,0.000989026,-0.00150762,-0.635929,0.00145177,0.0410803,657,1107,-26.1245,-0.594899
-560,-83,-25.8631,1.02661,0,0,0,0,0,0,0,-1,664,1107,-25.8631,-1.02661
-553,-83,-25.5525,0.591431,0,0,0,0,0,0,0,-1,671,1107,-25.5525,-0.591396
-546,-83,-25.9547,0.897705,-0.00176172,0.000571728,-0.00198354,0.00170624,-0.00289623,-1.05125,0.00268668,0.0411282,678,1107,-25.9547,-0.897681
-539,-83,-25.9686,0.981079,-0.0021645,0.000958176,-0.00339735,0.00313579,-0.00434212,-1.00079,0.00433606,0.0400724,685,1107,-25.9686,-0.981131
-532,-83,-26.0692,0.939575,-0.00224455,0.00118018,-0.00603954,0.00574541,-0.00680978,-0.923535,0.00725742,0.0409814,692,1107,-26.0692,-0.939567
-525,-83,0,0,0,0,0,0,0,0,0,-1,699,1107,0,0
-518,-83,0,0,0,0,0,0,0,0,0,-1,706,1107,0,0
-511,-83,0,0,0,0,0,0,0,0,0,-1,713,1107,0,0
-504,-83,0,0,0,0,0,0,0,0,0,-1,720,1107,0,0
-497,-83,0,0,0,0,0,0,0,0,0,-1,727,1107,0,0
-490,-83,0,0,0,0,0,0,0,0,0,-1,734,1107,0,0
-483,-83,0,0,0,0,0,0,0,0,0,-1,741,1107,0,0
-476,-83,0,0,0,0,0,0,0,0,0,-1,748,1107,0,0
-469,-83,0,0,0,0,0,0,0,0,0,-1,755,1107,0,0
-462,-83,0,0,0,0,0,0,0,0,0,-1,762,1107,0,0
-455,-83,0,0,0,0,0,0,0,0,0,-1,769,1107,0,0
-448,-83,0,0,0,0,0,0,0,0,0,-1,776,1107,0,0
-441,-83,0,0,0,0,0,0,0,0,0,-1,783,1107,0,0
-434,-83,0,0,0,0,0,0,0,0,0,-1,790,1107,0,0
-427,-83,0,0,0,0,0,0,0,0,0,-1,797,1107,0,0
-420,-83,0,0,0,0,0,0,0,0,0,-1,804,1107,0,0
-413,-83,0,0,0,0,0,0,0,0,0,-1,811,1107,0,0
-406,-83,0,0,0,0,0,0,0,0,0,-1,818,1107,0,0
-399,-83,0,0,0,0,0,0,0,0,0,-1,825,1107,0,0
-392,-83,0,0,0,0,0,0,0,0,0,-1,832,1107,0,0
-385,-83,0,0,0,0,0,0,0,0,0,-1,839,1107,0,0
-378,-83,0,0,0,0,0,0,0,0,0,-1,846,1107,0,0
-371,-83,0,0,0,0,0,0,0,0,0,-1,853,1107,0,0
-364,-83,0,0,0,0,0,0,0,0,0,-1,860,1107,0,0
-357,-83,0,0,0,0,0,0,0,0,0,-1,867,1107,0,0
-350,-83,0,0,0,0,0,0,0,0,0,-1,874,1107,0,0
-343,-83,0,0,0,0,0,0,0,0,0,-1,881,1107,0,0
-336,-83,0,0,0,0,0,0,0,0,0,-1,888,1107,0,0
-329,-83,0,0,0,0,0,0,0,0,0,-1,895,1107,0,0
-322,-83,0,0,0,0,0,0,0,0,0,-1,902,1107,0,0
-315,-83,0,0,0,0,0,0,0,0,0,-1,909,1107,0,0
-308,-83,0,0,0,0,0,0,0,0,0,-1,916,1107,0,0
-301,-83,0,0,0,0,0,0,0,0,0,-1,923,1107,0,0
-294,-83,0,0,0,0,0,0,0,0,0,-1,930,1107,0,0
-287,-83,0,0,0,0,0,0,0,0,0,-1,937,1107,0,0
-280,-83,0,0,0,0,0,0,0,0,0,-1,944,1107,0,0
-273,-83,0,0,0,0,0,0,0,0,0,-1,951,1107,0,0
-266,-83,0,0,0,0,0,0,0,0,0,-1,958,1107,0,0
-259,-83,0,0,0,0,0,0,0,0,0,-1,965,1107,0,0
-252,-83,0,0,0,0,0,0,0,0,0,-1,972,1107,0,0
-245,-83,0,0,0,0,0,0,0,0,0,-1,979,1107,0,0
-238,-83,0,0,0,0,0,0,0,0,0,-1,986,1107,0,0
-231,-83,0,0,0,0,0,0,0,0,0,-1,993,1107,0,0
-224,-83,0,0,0,0,0,0,0,0,0,-1,1000,1107,0,0
-217,-83,0,0,0,0,0,0,0,0,0,-1,1007,1107,0,0
-210,-83,0,0,0,0,0,0,0,0,0,-1,1014,1107,0,0
-203,-83,0,0,0,0,0,0,0,0,0,-1,1021,1107,0,0
-196,-83,0,0,0,0,0,0,0,0,0,-1,1028,1107,0,0
-189,-83,0,0,0,0,0,0,0,0,0,-1,1035,1107,0,0
-182,-83,0,0,0,0,0,0,0,0,0,-1,1042,1107,0,0
-175,-83,0,0,0,0,0,0,0,0,0,-1,1049,1107,0,0
-168,-83,0,0,0,0,0,0,0,0,0,-1,1056,1107,0,0
-161,-83,0,0,0,0,0,0,0,0,0,-1,1063,1107,0,0
-154,-83,0,0,0,0,0,0,0,0,0,-1,1070,1107,0,0
-147,-83,0,0,0,0,0,0,0,0,0,-1,1077,1107,0,0
-140,-83,0,0,0,0,0,0,0,0,0,-1,1084,1107,0,0
-133,-83,0,0,0,0,0,0,0,0,0,-1,1091,1107,0,0
-126,-83,0,0,0,0,0,0,0,0,0,-1,1098,1107,0,0
-119,-83,0,0,0,0,0,0,0,0,0,-1,1105,1107,0,0
-112,-83,0,0,0,0,0,0,0,0,0,-1,1112,1107,0,0
-105,-83,0,0,0,0,0,0,0,0,0,-1,1119,1107,0,0
-98,-83,0,0,0,0,0,0,0,0,0,-1,1126,1107,0,0
-91,-83,0,0,0,0,0,0,0,0,0,-1,1133,1107,0,0
-84,-83,0,0,0,0,0,0,0,0,0,-1,1140,1107,0,0
-77,-83,0,0,0,0,0,0,0,0,0,-1,1147,1107,0,0
-70,-83,0,0,0,0,0,0,0,0,0,-1,1154,1107,0,0
-63,-83,0,0,0,0,0,0,0,0,0,-1,1161,1107,0,0
-56,-83,0,0,0,0,0,0,0,0,0,-1,1168,1107,0,0
-49,-83,0,0,0,0,0,0,0,0,0,-1,1175,1107,0,0
-42,-83,0,0,0,0,0,0,0,0,0,-1,1182,1107,0,0
-35,-83,0,0,0,0,0,0,0,0,0,-1,1189,1107,0,0
-28,-83,0,0,0,0,0,0,0,0,0,-1,1196,1107,0,0
-21,-83,0,0,0,0,0,0,0,0,0,-1,1203,1107,0,0
-14,-83,0,0,0,0,0,0,0,0,0,-1,1210,1107,0,0
-7,-83,0,0,0,0,0,0,0,0,0,-1,1217,1107,0,0
0,-83,0,0,0,0,0,0,0,0,0,-1,1224,1107,0,0
7,-83,0,0,0,0,0,0,0,0,0,-1,1231,1107,0,0
14,-83,0,0,0,0,0,0,0,0,0,-1,1238,1107,0,0
21,-83,0,0,0,0,0,0,0,0,0,-1,1245,1107,0,0
28,-83,0,0,0,0,0,0,0,0,0,-1,1252,1107,0,0
35,-83,0,0,0,0,0,0,0,0,0,-1,1259,1107,0,0
42,-83,0,0,0,0,0,0,0,0,0,-1,1266,1107,0,0
49,-83,0,0,0,0,0,0,0,0,0,-1,1273,1107,0,0
56,-83,0,0,0,0,0,0,0,0,0,-1,1280,1107,0,0
63,-83,0,0,0,0,0,0,0,0,0,-1,1287,1107,0,0
70,-83,0,0,0,0,0,0,0,0,0,-1,1294,1107,0,0
77,-83,0,0,0,0,0,0,0,0,0,-1,1301,1107,0,0
84,-83,0,0,0,0,0,0,0,0,0,-1,1308,1107,0,0
91,-83,0,0,0,0,0,0,0,0,0,-1,1315,1107,0,0
98,-83,0,0,0,0,0,0,0,0,0,-1,1322,1107,0,0
105,-83,0,0,0,0,0,0,0,0,0,-1,1329,1107,0,0
112,-83,0,0,0,0,0,0,0,0,0,-1,1336,1107,0,0
119,-83,0,0,0,0,0,0,0,0,0,-1,1343,1107,0,0
126,-83,0,0,0,0,0,0,0,0,0,-1,1350,1107,0,0
133,-83,0,0,0,0,0,0,0,0,0,-1,1357,1107,0,0
140,-83,0,0,0,0,0,0,0,0,0,-1,1364,1107,0,0
147,-83,0,0,0,0,0,0,0,0,0,-1,1371,1107,0,0
154,-83,0,0,0,0,0,0,0,0,0,-1,1378,1107,0,0
161,-83,0,0,0,0,0,0,0,0,0,-1,1385,1107,0,0
168,-83,0,0,0,0,0,0,0,0,0,-1,1392,1107,0,0
175,-83,0,0,0,0,0,0,0,0,0,-1,1399,1107,0,0
182,-83,0,0,0,0,0,0,0,0,0,-1,1406,1107,0,0
189,-83,0,0,0,0,0,0,0,0,0,-1,1413,1107,0,0
196,-83,0,0,0,0,0,0,0,0,0,-1,1420,1107,0,0
203,-83,0,0,0,0,0,0,0,0,0,-1,1427,1107,0,0
210,-83,0,0,0,0,0,0,0,0,0,-1,1434,1107,0,0
217,-83,0,0,0,0,0,0,0,0,0,-1,1441,1107,0,0
224,-83,0,0,0,0,0,0,0,0,0,-1,1448,1107,0,0
231,-83,0,0,0,0,0,0,0,0,0,-1,1455,1107,0,0
238,-83,0,0,0,0,0,0,0,0,0,-1,1462,1107,0,0
245,-83,0,0,0,0,0,0,0,0,0,-1,1469,1107,0,0
252,-83,0,0,0,0,0,0,0,0,0,-1,1476,1107,0,0
259,-83,0,0,0,0,0,0,0,0,0,-1,1483,1107,0,0
266,-83,0,0,0,0,0,0,0,0,0,-1,1490,1107,0,0
273,-83,0,0,0,0,0,0,0,0,0,-1,1497,1107,0,0
280,-83,0,0,0,0,0,0,0,0,0,-1,1504,1107,0,0
287,-83,0,0,0,0,0,0,0,0,0,-1,1511,1107,0,0
294,-83,0,0,0,0,0,0,0,0,0,-1,1518,1107,0,0
301,-83,0,0,0,0,0,0,0,0,0,-1,1525,1107,0,0
308,-83,0,0,0,0,0,0,0,0,0,-1,1532,1107,0,0
315,-83,0,0,0,0,0,0,0,0,0,-1,1539,1107,0,0
322,-83,0,0,0,0,0,0,0,0,0,-1,1546,1107,0,0
329,-83,0,0,0,0,0,0,0,0,0,-1,1553,1107,0,0
336,-83,0,0,0,0,0,0,0,0,0,-1,1560,1107,0,0
343,-83,0,0,0,0,0,0,0,0,0,-1,1567,1107,0,0
350,-83,0,0,0,0,0,0,0,0,0,-1,1574,1107,0,0
357,-83,0,0,0,0,0,0,0,0,0,-1,1581,1107,0,0
364,-83,0,0,0,0,0,0,0,0,0,-1,1588,1107,0,0
371,-83,0,0,0,0,0,0,0,0,0,-1,1595,1107,0,0
378,-83,0,0,0,0,0,0,0,0,0,-1,1602,1107,0,0
385,-83,0,0,0,0,0,0,0,0,0,-1,1609,1107,0,0
392,-83,0,0,0,0,0,0,0,0,0,-1,1616,1107,0,0
399,-83,0,0,0,0,0,0,0,0,0,-1,1623,1107,0,0
406,-83,0,0,0,0,0,0,0,0,0,-1,1630,1107,0,0
413,-83,0,0,0,0,0,0,0,0,0,-1,1637,1107,0,0
420,-83,0,0,0,0,0,0,0,0,0,-1,1644,1107,0,0
427,-83,0,0,0,0,0,0,0,0,0,-1,1651,1107,0,0
434,-83,0,0,0,0,0,0,0,0,0,-1,1658,1107,0,0
441,-83,0,0,0,0,0,0,0,0,0,-1,1665,1107,0,0
448,-83,0,0,0,0,0,0,0,0,0,-1,1672,1107,0,0
455,-83,0,0,0,0,0,0,0,0,0,-1,1679,1107,0,0
462,-83,0,0,0,0,0,0,0,0,0,-1,1686,1107,0,0
469,-83,0,0,0,0,0,0,0,0,0,-1,1693,1107,0,0
476,-83,0,0,0,0,0,0,0,0,0,-1,1700,1107,0,0
483,-83,0,0,0,0,0,0,0,0,0,-1,1707,1107,0,0
490,-83,0,0,0,0,0,0,0,0,0,-1,1714,1107,0,0
497,-83,0,0,0,0,0,0,0,0,0,-1,1721,1107,0,0
504,-83,0,0,0,0,0,0,0,0,0,-1,1728,1107,0,0
511,-83,0,0,0,0,0,0,0,0,0,-1,1735,1107,0,0
518,-83,0,0,0,0,0,0,0,0,0,-1,1742,1107,0,0
525,-83,0,0,0,0,0,0,0,0,0,-1,1749,1107,0,0
532,-83,0,0,0,0,0,0,0,0,0,-1,1756,1107,0,0
539,-83,0,0,0,0,0,0,0,0,0,-1,1763,1107,0,0
546,-83,0,0,0,0,0,0,0,0,0,-1,1770,1107,0,0
553,-83,0,0,0,0,0,0,0,0,0,-1,1777,1107,0,0
560,-83,0,0,0,0,0,0,0,0,0,-1,1784,1107,0,0
567,-83,0,0,0,0,0,0,0,0,0,-1,1791,1107,0,0
574,-83,0,0,0,0,0,0,0,0,0,-1,1798,1107,0,0
581,-83,0,0,0,0,0,0,0,0,0,-1,1805,1107,0,0
588,-83,0,0,0,0,0,0,0,0,0,-1,1812,1107,0,0
595,-83,0,0,0,0,0,0,0,0,0,-1,1819,1107,0,0
602,-83,0,0,0,0,0,0,0,0,0,-1,1826,1107,0,0
609,-83,0,0,0,0,0,0,0,0,0,-1,1833,1107,0,0
616,-83,0,0,0,0,0,0,0,0,0,-1,1840,1107,0,0
623,-83,0,0,0,0,0,0,0,0,0,-1,1847,1107,0,0
630,-83,0,0,0,0,0,0,0,0,0,-1,1854,1107,0,0
637,-83,0,0,0,0,0,0,0,0,0,-1,1861,1107,0,0
644,-83,36.171,2.66357,0.00336354,-0.0037385,-0.00149994,0.00366733,-0.00404229,-0.199832,0.0044529,0.0373405,1868,1107,36.1711,-2.66357
651,-83,36.1237,2.41687,0.00267456,-0.00298051,-0.000987288,0.00284197,-0.00314792,-0.167967,0.00345977,0.0444513,1875,1107,36.1236,-2.41681
658,-83,36.1003,2.31702,0.00224841,-0.0024363,-0.000635065,0.00233297,-0.00252087,-0.132379,0.00280306,0.0475076,1882,1107,36.1003,-2.31697
665,-83,36.0665,2.33472,0.00195326,-0.00199507,-0.000351502,0.00198431,-0.00202612,-0.088102,0.00231547,0.0422974,1889,1107,36.0665,-2.33473
672,-83,36.0758,2.5813,0.00177847,-0.00176579,8.54078e-06,0.00177849,-0.00176581,0.00240973,0.00204631,0.0381966,1896,1107,36.0758,-2.58124
679,-83,36.0637,2.82214,0.00127929,-0.00168899,0.000473042,0.00135285,-0.00176255,0.154276,0.00180386,0.0388222,1903,1107,36.0638,-2.82209
686,-83,36.2072,2.87622,0.000710915,-0.00175216,0.000902031,0.00100592,-0.00204717,0.316085,0.00179655,0.037283,1910,1107,36.2071,-2.87623
693,-83,36.2396,2.81201,0.00028328,-0.00182853,0.00124348,0.000858685,-0.00240394,0.433396,0.00195283,0.0374372,1917,1107,36.2396,-2.81197
700,-83,36.1799,2.75623,-0.000212943,-0.00178391,0.00148265,0.000679439,-0.00267629,0.541803,0.00204858,0.0315686,1924,1107,36.1799,-2.75629
707,-83,36.1547,2.7395,-0.000572351,-0.00175081,0.00177399,0.000707706,-0.00303087,0.625056,0.00229318,0.0224282,1931,1107,36.1547,-2.73948
714,-83,36.1449,2.6958,0,0,0,0,0,0,0,-1,1938,1107,36.145,-2.69579
721,-83,34.4451,5.9292,0,0,0,0,0,0,0,-1,1945,1107,34.445,-5.92915
728,-83,34.4266,5.71338,-0.0017156,-0.00109482,0.00232562,0.000941035,-0.00375145,0.851739,0.0028666,0.029142,1952,1107,34.4266,-5.71342
735,-83,34.2502,5.52429,-0.00167506,-0.000690775,0.00234747,0.00121559,-0.00358143,0.888726,0.00287965,0.0298059,1959,1107,34.2502,-5.52428
742,-83,34.3933,5.34949,-0.00115391,-0.000513771,0.0020932,0.00128369,-0.00295137,0.861265,0.00250751,0.0181511,1966,1107,34.3934,-5.34954
749,-83,34.4452,5.12573,-0.000257493,-0.000931791,0.00146569,0.00090932,-0.0020986,0.672351,0.0017813,0.0141215,1973,1107,34.4452,-5.12573
756,-83,34.4618,4.92334,0.000843596,-0.00152213,0.000451165,0.000926717,-0.00160525,0.182192,0.00147923,0.0151387,1980,1107,34.4618,-4.92337
763,-83,34.449,4.71057,0.00255832,-0.00269214,-0.000957563,0.00272751,-0.00286133,-0.174879,0.00322703,0.0122289,1987,1107,34.449,-4.7106
770,-83,34.374,4.57861,0.00494326,-0.00460243,-0.00300688,0.00581146,-0.00547063,-0.281093,0.00651471,0.0154266,1994,1107,34.374,-4.57864
777,-83,34.2924,4.43359,0.00776532,-0.00757207,-0.00555071,0.00956338,-0.00937012,-0.313265,0.0109314,0.0179367,2001,1107,34.2924,-4.43358
784,-83,34.307,4.25378,0.0107317,-0.0115873,-0.0086192,0.0136728,-0.0145283,-0.328831,0.0162844,0.02743,2008,1107,34.307,-4.25383
791,-83,34.9272,3.89026,0,0,0,0,0,0,0,-1,2015,1107,34.9272,-3.89027
798,-83,35.0305,2.70605,0.0168052,-0.0234966,-0.0172114,0.0231551,-0.0298465,-0.353441,0.0306816,0.0452604,2022,1107,35.0305,-2.70608
805,-83,34.9658,2.34583,0.0195636,-0.0314605,-0.0229667,0.0283784,-0.0402753,-0.366471,0.0398351,0.0473301,2029,1107,34.9659,-2.34581
812,-83,34.8828,2.23755,0,0,0,0,0,0,0,-1,2036,1107,34.8828,-2.23759
-700,-90,0,0,0,0,0,0,0,0,0,-1,524,1114,0,0
-693,-90,-24.0074,-0.548218,-0.0163267,0.0296276,0.0213208,0.0379957,-0.0246949,1.19678,0.036465,0.0462095,531,1114,-24.0074,0.54823
-686,-90,-24.4194,-0.00793457,-0.0116297,0.023752,0.0154235,0.0295314,-0.0174091,1.21228,0.0274007,0.0411811,538,1114,-24.4194,0.00797885
-679,-90,-24.7932,0.688843,-0.00824906,0.0188607,0.0110026,0.0227641,-0.0121525,1.22988,0.0204671,0.0395875,545,1114,-24.7932,-0.688818
-672,-90,-24.7161,0.807373,-0.00576311,0.014829,0.00767464,0.0173746,-0.00830874,1.25052,0.0151331,0.0427726,552,1114,-24.716,-0.807364
-665,-90,-24.1578,0.937622,0,0,0,0,0,0,0,-1,559,1114,-24.1579,-0.937679
-658,-90,-24.2244,1.02649,-0.00287781,0.00890465,0.0033339,0.00978258,-0.00375574,1.31331,0.00807039,0.0468372,566,1114,-24.2243,-1.02649
-651,-90,-24.2503,1.02283,-0.00207837,0.00677106,0.00202766,0.00721353,-0.00252084,1.35595,0.00583377,0.0321965,573,1114,-24.2503,-1.02287
-644,-90,-24.3667,1.46375,-0.00143568,0.00502583,0.00108805,0.00520413,-0.00161397,1.40837,0.00411432,0.014365,580,1114,-24.3667,-1.46372
-637,-90,-24.3799,1.8053,-0.000781007,0.00353686,5.44973e-05,0.00353755,-0.000781695,1.55818,0.00265753,0.0117667,587,1114,-24.3799,-1.80533
-630,-90,-24.386,2.04358,-0.000309073,0.00208181,-0.00067755,0.00226047,-0.000487732,-1.31298,0.00169314,0.0113312,594,1114,-24.386,-2.04359
-623,-90,-24.3908,2.27832,0.000216236,0.000843044,-0.00118628,0.00175662,-0.000697341,-0.914543,0.00146013,0.00925759,601,1114,-24.3908,-2.27826
-616,-90,-24.4149,2.52698,0.000434448,0.000246796,-0.000820212,0.00116618,-0.000484939,-0.728449,0.00097995,0.0107949,608,1114,-24.4148,-2.52702
-609,-90,-24.4373,2.72974,0.000675622,-0.000269427,-0.000700183,0.00104781,-0.000641612,-0.488572,0.00098474,0.0154931,615,1114,-24.4373,-2.72979
-602,-90,-24.5058,2.96582,0.000810667,-0.000499424,-0.000639371,0.00107098,-0.000759736,-0.386645,0.00106204,0.0155901,622,1114,-24.5058,-2.96583
-595,-90,-24.3946,3.26318,0.000731898,-0.000577429,-0.000553513,0.000934533,-0.000780065,-0.350936,0.000991262,0.0141732,629,1114,-24.3946,-3.26315
-588,-90,-24.3131,3.48975,0,0,0,0,0,0,0,-1,636,1114,-24.3131,-3.48974
-581,-90,-26.2324,0.900024,0,0,0,0,0,0,0,-1,643,1114,-26.2324,-0.899973
-574,-90,-26.1465,0.817261,0.000351525,-0.000670623,-0.000572415,0.00060782,-0.000926918,-0.420976,0.000892443,0.0355901,650,1114,-26.1465,-0.817318
-567,-90,-26.1183,0.719116,6.25492e-05,-0.00048293,-0.000528229,0.000384295,-0.000804676,-0.547086,0.000700609,0.0375095,657,1114,-26.1183,-0.719078
-560,-90,-26.179,0.789185,-0.000326004,-0.000147775,-0.000583365,0.000353242,-0.000827022,-0.861192,0.000699487,0.0406624,664,1114,-26.1789,-0.789156
-553,-90,-26.1096,0.976563,-0.000994547,0.000311577,-0.000927366,0.000792754,-0.00147572,-1.09217,0.00132935,0.0394895,671,1114,-26.1096,-0.976577
-546,-90,-26.0084,1.09656,-0.0018226,0.000848284,-0.00176892,0.00172925,-0.00270357,-1.10873,0.00257981,0.039667,678,1114,-26.0084,-1.0966
-539,-90,-26.0295,0.977051,-0.00214101,0.00122897,-0.00331048,0.00325862,-0.00417065,-1.0208,0.00430005,0.0422789,685,1114,-26.0295,-0.977023
-532,-90,-26.1569,0.865845,-0.00190053,0.00134188,-0.00569409,0.00564106,-0.00619971,-0.924087,0.00683881,0.0430743,692,1114,-26.1569,-0.865791
-525,-90,0,0,0,0,0,0,0,0,0,-1,699,1114,0,0
-518,-90,0,0,0,0,0,0,0,0,0,-1,706,1114,0,0
-511,-90,0,0,0,0,0,0,0,0,0,-1,713,1114,0,0
-504,-90,0,0,0,0,0,0,0,0,0,-1,720,1114,0,0
-497,-90,0,0,0,0,0,0,0,0,0,-1,727,1114,0,0
-490,-90,0,0,0,0,0,0,0,0,0,-1,734,1114,0,0
-483,-90,0,0,0,0,0,0,0,0,0,-1,741,1114,0,0
-476,-90,0,0,0,0,0,0,0,0,0,-1,748,1114,0,0
-469,-90,0,0,0,0,0,0,0,0,0,-1,755,1114,0,0
-462,-90,0,0,0,0,0,0,0,0,0,-1,762,1114,0,0
-455,-90,0,0,0,0,0,0,0,0,0,-1,769,1114,0,0
-448,-90,0,0,0,0,0,0,0,0,0,-1,776,1114,0,0
-441,-90,0,0,0,0,0,0,0,0,0,-1,783,1114,0,0
-434,-90,0,0,0,0,0,0,0,0,0,-1,790,1114,0,0
-427,-90,0,0,0,0,0,0,0,0,0,-1,797,1114,0,0
-420,-90,0,0,0,0,0,0,0,0,0,-1,804,1114,0,0
-413,-90,0,0,0,0,0,0,0,0,0,-1,811,1114,0,0
-406,-90,0,0,0,0,0,0,0,0,0,-1,818,1114,0,0
-399,-90,0,0,0,0,0,0,0,0,0,-1,825,1114,0,0
-392,-90,0,0,0,0,0,0,0,0,0,-1,832,1114,0,0
-385,-90,0,0,0,0,0,0,0,0,0,-1,839,1114,0,0
-378,-90,0,0,0,0,0,0,0,0,0,-1,846,1114,0,0
-371,-90,0,0,0,0,0,0,0,0,0,-1,853,1114,0,0
-364,-90,0,0,0,0,0,0,0,0,0,-1,860,1114,0,0
-357,-90,0,0,0,0,0,0,0,0,0,-1,867,1114,0,0
-350,-90,0,0,0,0,0,0,0,0,0,-1,874,1114,0,0
-343,-90,0,0,0,0,0,0,0,0,0,-1,881,1114,0,0
-336,-90,0,0,0,0,0,0,0,0,0,-1,888,1114,0,0
-329,-90,0,0,0,0,0,0,0,0,0,-1,895,1114,0,0
-322,-90,0,0,0,0,0,0,0,0,0,-1,902,1114,0,0
-315,-90,0,0,0,0,0,0,0,0,0,-1,909,1114,0,0
-308,-90,0,0,0,0,0,0,0,0,0,-1,916,1114,0,0
-301,-90,0,0,0,0,0,0,0,0,0,-1,923,1114,0,0
-294,-90,0,0,0,0,0,0,0,0,0,-1,930,1114,0,0
-287,-90,0,0,0,0,0,0,0,0,0,-1,937,1114,0,0
-280,-90,0,0,0,0,0,0,0,0,0,-1,944,1114,0,0
-273,-90,0,0,0,0,0,0,0,0,0,-1,951,1114,0,0
-266,-90,0,0,0,0,0,0,0,0,0,-1,958,1114,0,0
-259,-90,0,0,0,0,0,0,0,0,0,-1,965,1114,0,0
-252,-90,0,0,0,0,0,0,0,0,0,-1,972,1114,0,0
-245,-90,0,0,0,0,0,0,0,0,0,-1,979,1114,0,0
-238,-90,0,0,0,0,0,0,0,0,0,-1,986,1114,0,0
-231,-90,0,0,0,0,0,0,0,0,0,-1,993,1114,0,0
-224,-90,0,0,0,0,0,0,0,0,0,-1,1000,1114,0,0
-217,-90,0,0,0,0,0,0,0,0,0,-1,1007,1114,0,0
-210,-90,0,0,0,0,0,0,0,0,0,-1,1014,1114,0,0
-203,-90,0,0,0,0,0,0,0,0,0,-1,1021,1114,0,0
-196,-90,0,0,0,0,0,0,0,0,0,-1,1028,1114,0,0
-189,-90,0,0,0,0,0,0,0,0,0,-1,1035,1114,0,0
-182,-90,0,0,0,0,0,0,0,0,0,-1,1042,1114,0,0
-175,-90,0,0,0,0,0,0,0,0,0,-1,1049,1114,0,0
-168,-90,0,0,0,0,0,0,0,0,0,-1,1056,1114,0,0
-161,-90,0,0,0,0,0,0,0,0,0,-1,1063,1114,0,0
-154,-90,0,0,0,0,0,0,0,0,0,-1,1070,1114,0,0
-147,-90,0,0,0,0,0,0,0,0,0,-1,1077,1114,0,0
-140,-90,0,0,0,0,0,0,0,0,0,-1,1084,1114,0,0
-133,-90,0,0,0,0,0,0,0,0,0,-1,1091,1114,0,0
-126,-90,0,0,0,0,0,0,0,0,0,-1,1098,1114,0,0
-119,-90,0,0,0,0,0,0,0,0,0,-1,1105,1114,0,0
-112,-90,0,0,0,0,0,0,0,0,0,-1,1112,1114,0,0
-105,-90,0,0,0,0,0,0,0,0,0,-1,1119,1114,0,0
-98,-90,0,0,0,0,0,0,0,0,0,-1,1126,1114,0,0
-91,-90,0,0,0,0,0,0,0,0,0,-1,1133,1114,0,0
-84,-90,0,0,0,0,0,0,0,0,0,-1,1140,1114,0,0
-77,-90,0,0,0,0,0,0,0,0,0,-1,1147,1114,0,0
-70,-90,0,0,0,0,0,0,0,0,0,-1,1154,1114,0,0
-63,-90,0,0,0,0,0,0,0,0,0,-1,1161,1114,0,0
-56,-90,0,0,0,0,0,0,0,0,0,-1,1168,1114,0,0
-49,-90,0,0,0,0,0,0,0,0,0,-1,1175,1114,0,0
-42,-90,0,0,0,0,0,0,0,0,0,-1,1182,1114,0,0
-35,-90,0,0,0,0,0,0,0,0,0,-1,1189,1114,0,0
-28,-90,0,0,0,0,0,0,0,0,0,-1,1196,1114,0,0
-21,-90,0,0,0,0,0,0,0,0,0,-1,1203,1114,0,0
-14,-90,0,0,0,0,0,0,0,0,0,-1,1210,1114,0,0
-7,-90,0,0,0,0,0,0,0,0,0,-1,1217,1114,0,0
0,-90,0,0,0,0,0,0,0,0,0,-1,1224,1114,0,0
7,-90,0,0,0,0,0,0,0,0,0,-1,1231,1114,0,0
14,-90,0,0,0,0,0,0,0,0,0,-1,1238,1114,0,0
21,-90,0,0,0,0,0,0,0,0,0,-1,1245,1114,0,0
28,-90,0,0,0,0,0,0,0,0,0,-1,1252,1114,0,0
35,-90,0,0,0,0,0,0,0,0,0,-1,1259,1114,0,0
42,-90,0,0,0,0,0,0,0,0,0,-1,1266,1114,0,0
49,-90,0,0,0,0,0,0,0,0,0,-1,1273,1114,0,0
56,-90,0,0,0,0,0,0,0,0,0,-1,1280,1114,0,0
63,-90,0,0,0,0,0,0,0,0,0,-1,1287,1114,0,0
70,-90,0,0,0,0,0,0,0,0,0,-1,1294,1114,0,0
77,-90,0,0,0,0,0,0,0,0,0,-1,1301,1114,0,0
84,-90,0,0,0,0,0,0,0,0,0,-1,1308,1114,0,0
91,-90,0,0,0,0,0,0,0,0,0,-1,1315,1114,0,0
98,-90,0,0,0,0,0,0,0,0,0,-1,1322,1114,0,0
105,-90,0,0,0,0,0,0,0,0,0,-1,1329,1114,0,0
112,-90,0,0,0,0,0,0,0,0,0,-1,1336,1114,0,0
119,-90,0,0,0,0,0,0,0,0,0,-1,1343,1114,0,0
126,-90,0,0,0,0,0,0,0,0,0,-1,1350,1114,0,0
133,-90,0,0,0,0,0,0,0,0,0,-1,1357,1114,0,0
140,-90,0,0,0,0,0,0,0,0,0,-1,1364,1114,0,0
147,-90,0,0,0,0,0,0,0,0,0,-1,1371,1114,0,0
154,-90,0,0,0,0,0,0,0,0,0,-1,1378,1114,0,0
161,-90,0,0,0,0,0,0,0,0,0,-1,1385,1114,0,0
168,-90,0,0,0,0,0,0,0,0,0,-1,1392,1114,0,0
175,-90,0,0,0,0,0,0,0,0,0,-1,1399,1114,0,0
182,-90,0,0,0,0,0,0,0,0,0,-1,1406,1114,0,0
189,-90,0,0,0,0,0,0,0,0,0,-1,1413,1114,0,0
196,-90,0,0,0,0,0,0,0,0,0,-1,1420,1114,0,0
203,-90,0,0,0,0,0,0,0,0,0,-1,1427,1114,0,0
210,-90,0,0,0,0,0,0,0,0,0,-1,1434,1114,0,0
217,-90,0,0,0,0,0,0,0,0,0,-1,1441,1114,0,0
224,-90,0,0,0,0,0,0,0,0,0,-1,1448,1114,0,0
231,-90,0,0,0,0,0,0,0,0,0,-1,1455,1114,0,0
238,-90,0,0,0,0,0,0,0,0,0,-1,1462,1114,0,0
245,-90,0,0,0,0,0,0,0,0,0,-1,1469,1114,0,0
252,-90,0,0,0,0,0,0,0,0,0,-1,1476,1114,0,0
259,-90,0,0,0,0,0,0,0,0,0,-1,1483,1114,0,0
266,-90,0,0,0,0,0,0,0,0,0,-1,1490,1114,0,0
273,-90,0,0,0,0,0,0,0,0,0,-1,1497,1114,0,0
280,-90,0,0,0,0,0,0,0,0,0,-1,1504,1114,0,0
287,-90,0,0,0,0,0,0,0,0,0,-1,1511,1114,0,0
294,-90,0,0,0,0,0,0,0,0,0,-1,1518,1114,0,0
301,-90,0,0,0,0,0,0,0,0,0,-1,1525,1114,0,0
308,-90,0,0,0,0,0,0,0,0,0,-1,1532,1114,0,0
315,-90,0,0,0,0,0,0,0,0,0,-1,1539,1114,0,0
322,-90,0,0,0,0,0,0,0,0,0,-1,1546,1114,0,0
329,-90,0,0,0,0,0,0,0,0,0,-1,1553,1114,0,0
336,-90,0,0,0,0,0,0,0,0,0,-1,1560,1114,0,0
343,-90,0,0,0,0,0,0,0,0,0,-1,1567,1114,0,0
350,-90,0,0,0,0,0,0,0,0,0,-1,1574,1114,0,0
357,-90,0,0,0,0,0,0,0,0,0,-1,1581,1114,0,0
364,-90,0,0,0,0,0,0,0,0,0,-1,1588,1114,0,0
371,-90,0,0,0,0,0,0,0,0,0,-1,1595,1114,0,0
378,-90,0,0,0,0,0,0,0,0,0,-1,1602,1114,0,0
385,-90,0,0,0,0,0,0,0,0,0,-1,1609,1114,0,0
392,-90,0,0,0,0,0,0,0,0,0,-1,1616,1114,0,0
399,-90,0,0,0,0,0,0,0,0,0,-1,1623,1114,0,0
406,-90,0,0,0,0,0,0,0,0,0,-1,1630,1114,0,0
413,-90,0,0,0,0,0,0,0,0,0,-1,1637,1114,0,0
420,-90,0,0,0,0,0,0,0,0,0,-1,1644,1114,0,0
427,-90,0,0,0,0,0,0,0,0,0,-1,1651,1114,0,0
434,-90,0,0,0,0,0,0,0,0,0,-1,1658,1114,0,0
441,-90,0,0,0,0,0,0,0,0,0,-1,1665,1114,0,0
448,-90,0,0,0,0,0,0,0,0,0,-1,1672,1114,0,0
455,-90,0,0,0,0,0,0,0,0,0,-1,1679,1114,0,0
462,-90,0,0,0,0,0,0,0,0,0,-1,1686,1114,0,0
469,-90,0,0,0,0,0,0,0,0,0,-1,1693,1114,0,0
476,-90,0,0,0,0,0,0,0,0,0,-1,1700,1114,0,0
483,-90,0,0,0,0,0,0,0,0,0,-1,1707,1114,0,0
490,-90,0,0,0,0,0,0,0,0,0,-1,1714,1114,0,0
497,-90,0,0,0,0,0,0,0,0,0,-1,1721,1114,0,0
504,-90,0,0,0,0,0,0,0,0,0,-1,1728,1114,0,0
511,-90,0,0,0,0,0,0,0,0,0,-1,1735,1114,0,0
518,-90,0,0,0,0,0,0,0,0,0,-1,1742,1114,0,0
525,-90,0,0,0,0,0,0,0,0,0,-1,1749,1114,0,0
532,-90,0,0,0,0,0,0,0,0,0,-1,1756,1114,0,0
539,-90,0,0,0,0,0,0,0,0,0,-1,1763,1114,0,0
546,-90,0,0,0,0,0,0,0,0,0,-1,1770,1114,0,0
553,-90,0,0,0,0,0,0,0,0,0,-1,1777,1114,0,0
560,-90,0,0,0,0,0,0,0,0,0,-1,1784,1114,0,0
567,-90,0,0,0,0,0,0,0,0,0,-1,1791,1114,0,0
574,-90,0,0,0,0,0,0,0,0,0,-1,1798,1114,0,0
581,-90,0,0,0,0,0,0,0,0,0,-1,1805,1114,0,0
588,-90,0,0,0,0,0,0,0,0,0,-1,1812,1114,0,0
595,-90,0,0,0,0,0,0,0,0,0,-1,1819,1114,0,0
602,-90,0,0,0,0,0,0,0,0,0,-1,1826,1114,0,0
609,-90,0,0,0,0,0,0,0,0,0,-1,1833,1114,0,0
616,-90,0,0,0,0,0,0,0,0,0,-1,1840,1114,0,0
623,-90,0,0,0,0,0,0,0,0,0,-1,1847,1114,0,0
630,-90,0,0,0,0,0,0,0,0,0,-1,1854,1114,0,0
637,-90,0,0,0,0,0,0,0,0,0,-1,1861,1114,0,0
644,-90,36.0313,2.64111,0.00517623,-0.00486904,-0.00162177,0.00543157,-0.00512438,-0.156162,0.00609534,0.0376261,1868,1114,36.0313,-2.64116
651,-90,36.146,2.6875,0.00391157,-0.00394011,-0.00109996,0.00406276,-0.0040913,-0.13659,0.00470776,0.0412188,1875,1114,36.146,-2.68754
658,-90,36.1465,2.49414,0.00310947,-0.00324843,-0.0007626,0.00319967,-0.00333862,-0.117721,0.00377516,0.0438545,1882,1114,36.1465,-2.4942
665,-90,36.1449,2.56067,0.00253757,-0.00265347,-0.000501816,0.00258563,-0.00270154,-0.0954914,0.00305279,0.0454498,1889,1114,36.1449,-2.56073
672,-90,35.9097,2.51636,0.00212117,-0.00223635,-0.000203401,0.00213064,-0.00224582,-0.0465434,0.00252704,0.0452911,1896,1114,35.9096,-2.51637
679,-90,35.9379,2.85193,0.00143916,-0.00199128,0.000174525,0.00144802,-0.00200014,0.0507011,0.00199928,0.0399258,1903,1114,35.9379,-2.85194
686,-90,36.1464,2.85071,0.000785983,-0.0019023,0.000516628,0.000881849,-0.00199816,0.183474,0.0017039,0.0354762,1910,1114,36.1464,-2.85075
693,-90,36.2137,2.77356,0.000319556,-0.00184614,0.000790136,0.000577183,-0.00210377,0.315186,0.00162935,0.0357594,1917,1114,36.2138,-2.77357
700,-90,36.1555,2.75659,-0.000207896,-0.00169478,0.00098549,0.000283124,-0.0021858,0.462246,0.00156016,0.0313954,1924,1114,36.1555,-2.75655
707,-90,36.1595,2.70093,-0.000598865,-0.00160278,0.00126144,0.000256823,-0.00245847,0.596041,0.00173095,0.0219766,1931,1114,36.1596,-2.70091
714,-90,36.1812,2.61609,0,0,0,0,0,0,0,-1,1938,1114,36.1811,-2.61604
721,-90,34.2411,5.95789,0,0,0,0,0,0,0,-1,1945,1114,34.2411,-5.95794
728,-90,34.2216,5.80615,-0.0016637,-0.000847726,0.00186197,0.000650429,-0.00316186,0.893252,0.00235485,0.0232544,1952,1114,34.2216,-5.8061
735,-90,34.0999,5.56995,-0.00158658,-0.000504728,0.00195415,0.000981983,-0.00307329,0.920422,0.00244289,0.0267019,1959,1114,34.0999,-5.57
742,-90,34.1515,5.33386,-0.00101103,-0.000423552,0.00185352,0.00115936,-0.00259394,0.863983,0.0022191,0.0230043,1966,1114,34.1515,-5.33389
749,-90,34.3314,5.06128,-0.000106197,-0.000962135,0.0014459,0.000973737,-0.00204207,0.641512,0.00177722,0.0166229,1973,1114,34.3315,-5.06128
756,-90,34.3032,4.88879,0.00105498,-0.00172999,0.000625574,0.00118905,-0.00186406,0.211115,0.00177701,0.015651,1980,1114,34.3032,-4.88884
763,-90,34.2544,4.70557,0.00286658,-0.00320639,-0.000603883,0.00292604,-0.00326585,-0.0981573,0.00357669,0.0130581,1987,1114,34.2544,-4.70555
770,-90,34.2189,4.51099,0.00532547,-0.00548139,-0.00235565,0.00581663,-0.00597255,-0.205556,0.00680668,0.0160439,1994,1114,34.2189,-4.511
777,-90,34.1652,4.37329,0.00813256,-0.00879823,-0.00455327,0.00927941,-0.00994507,-0.246741,0.0111015,0.0152788,2001,1114,34.1651,-4.37334
784,-90,34.0753,4.25232,0.0110663,-0.0131736,-0.00730527,0.0130977,-0.015205,-0.271218,0.0163557,0.0284449,2008,1114,34.0753,-4.25233
791,-90,34.2896,3.73389,0.014035,-0.0188699,-0.0108306,0.0172799,-0.0221148,-0.291093,0.0228016,0.0413021,2015,1114,34.2896,-3.73391
798,-90,34.6294,3.12732,0.0171025,-0.0259544,-0.0153101,0.0219913,-0.0308433,-0.309087,0.0306464,0.0445827,2022,1114,34.6293,-3.12729
805,-90,34.7371,2.60522,0.0198031,-0.0343371,-0.0208369,0.0268939,-0.0414279,-0.328007,0.039742,0.0450199,2029,1114,34.737,-2.6052
812,-90,34.8831,2.03687,0.021542,-0.0436998,-0.0273691,0.0315026,-0.0536604,-0.349038,0.0497206,0.0446671,2036,1114,34.883,-2.03689
-700,-97,0,0,0,0,0,0,0,0,0,-1,524,1121,0,0
-693,-97,-24.2061,-0.820068,-0.016626,0.0381333,0.0214418,0.04553,-0.0240227,1.23861,0.0407912,0.04628,531,1121,-24.2061,0.820117
-686,-97,-24.541,-0.496216,-0.0114734,0.0304837,0.0149004,0.0352369,-0.0162266,1.262,0.0303806,0.0477714,538,1121,-24.541,0.496171
-679,-97,-24.6556,0.816284,-0.0079295,0.0240156,0.0102041,0.0269968,-0.0109107,1.28655,0.0225332,0.0437038,545,1121,-24.6556,-0.816334
-672,-97,-24.6377,0.734131,0,0,0,0,0,0,0,-1,552,1121,-24.6377,-0.734182
-665,-97,-23.7866,0.812012,0,0,0,0,0,0,0,-1,559,1121,-23.7865,-0.81199
-658,-97,-23.9631,1.04395,-0.00268651,0.0106751,0.00256559,0.0111508,-0.0031622,1.38747,0.00868203,0.0453853,566,1121,-23.9631,-1.04391
-651,-97,-24.0721,1.13904,-0.00201399,0.00785754,0.00136402,0.00804255,-0.002199,1.43598,0.00622553,0.031734,573,1121,-24.0722,-1.139
-644,-97,-24.1174,1.48218,-0.00145561,0.00561516,0.000591425,0.00566429,-0.00150474,1.48792,0.0043651,0.0115417,580,1121,-24.1175,-1.48218
-637,-97,-24.1328,1.77795,-0.00080633,0.00373365,-0.000245718,0.00374691,-0.00081959,-1.51688,0.00281125,0.0117951,587,1121,-24.1328,-1.77799
-630,-97,-24.1335,2.01233,-0.000352605,0.00206303,-0.00074026,0.00227183,-0.000561406,-1.29587,0.00173228,0.00968062,594,1121,-24.1335,-2.01238
-623,-97,-24.1341,2.26892,0.000241692,0.000693507,-0.000998048,0.00149089,-0.000555696,-0.896697,0.00122203,0.0106778,601,1121,-24.1341,-2.26894
-616,-97,-24.1575,2.53503,0.000514298,1.54756e-06,-0.000415815,0.000746421,-0.000230575,-0.509144,0.000589695,0.015252,608,1121,-24.1575,-2.53501
-609,-97,-24.2183,2.77722,0.000803608,-0.000452119,-0.000177274,0.000828154,-0.000476665,-0.137591,0.000762394,0.0209215,615,1121,-24.2183,-2.77724
-602,-97,-24.2502,2.96912,0.000957019,-0.000539565,-4.15454e-05,0.000958171,-0.000540717,-0.0277317,0.0008765,0.0187042,622,1121,-24.2502,-2.96907
-595,-97,-24.1763,3.23865,0.000835556,-0.000486009,9.41946e-05,0.000842236,-0.000492689,0.070798,0.000779477,0.0170303,629,1121,-24.1763,-3.2386
-588,-97,-24.1877,3.5033,0,0,0,0,0,0,0,-1,636,1121,-24.1877,-3.50334
-581,-97,-26.2531,0.976685,0,0,0,0,0,0,0,-1,643,1121,-26.253,-0.976646
-574,-97,-26.1768,0.907349,0.00038267,-0.000408955,9.38104e-05,0.000393635,-0.00041992,0.116357,0.000469788,0.0440814,650,1121,-26.1768,-0.907308
-567,-97,-26.093,0.779297,8.4927e-05,-0.000176854,0.000115201,0.000128403,-0.000220329,0.360864,0.000203659,0.0367921,657,1121,-26.093,-0.779268
-560,-97,-26.1038,0.886719,-0.000296223,0.000186064,2.17039e-05,0.000187039,-0.000297197,1.52592,0.000281975,0.0387833,664,1121,-26.1037,-0.886751
-553,-97,-26.088,1.12085,-0.000967208,0.000642708,-0.000386229,0.000730571,-0.00105507,-1.34711,0.0010366,0.0437636,671,1121,-26.0879,-1.12087
-546,-97,-26.1172,1.24854,-0.00177347,0.00111552,-0.00134326,0.00164357,-0.00230151,-1.19625,0.00228823,0.0452257,678,1121,-26.1172,-1.24851
-539,-97,-26.1362,1.07959,-0.00195763,0.00132332,-0.00296477,0.00307122,-0.00370552,-1.03809,0.00391826,0.0439823,685,1121,-26.1362,-1.07958
-532,-97,-26.1647,0.899902,-0.0013381,0.00113413,-0.00516046,0.00520446,-0.00540843,-0.902951,0.00612773,0.0411845,692,1121,-26.1647,-0.899898
-525,-97,0,0,0,0,0,0,0,0,0,-1,699,1121,0,0
-518,-97,0,0,0,0,0,0,0,0,0,-1,706,1121,0,0
-511,-97,0,0,0,0,0,0,0,0,0,-1,713,1121,0,0
-504,-97,0,0,0,0,0,0,0,0,0,-1,720,1121,0,0
-497,-97,0,0,0,0,0,0,0,0,0,-1,727,1121,0,0
-490,-97,0,0,0,0,0,0,0,0,0,-1,734,1121,0,0
-483,-97,0,0,0,0,0,0,0,0,0,-1,741,1121,0,0
-476,-97,0,0,0,0,0,0,0,0,0,-1,748,1121,0,0
-469,-97,0,0,0,0,0,0,0,0,0,-1,755,1121,0,0
-462,-97,0,0,0,0,0,0,0,0,0,-1,762,1121,0,0
-455,-97,0,0,0,0,0,0,0,0,0,-1,769,1121,0,0
-448,-97,0,0,0,0,0,0,0,0,0,-1,776,1121,0,0
-441,-97,0,0,0,0,0,0,0,0,0,-1,783,1121,0,0
-434,-97,0,0,0,0,0,0,0,0,0,-1,790,1121,0,0
-427,-97,0,0,0,0,0,0,0,0,0,-1,797,1121,0,0
-420,-97,0,0,0,0,0,0,0,0,0,-1,804,1121,0,0
-413,-97,0,0,0,0,0,0,0,0,0,-1,811,1121,0,0
-406,-97,0,0,0,0,0,0,0,0,0,-1,818,1121,0,0
-399,-97,0,0,0,0,0,0,0,0,0,-1,825,1121,0,0
-392,-97,0,0,0,0,0,0,0,0,0,-1,832,1121,0,0
-385,-97,0,0,0,0,0,0,0,0,0,-1,839,1121,0,0
-378,-97,0,0,0,0,0,0,0,0,0,-1,846,1121,0,0
-371,-97,0,0,0,0,0,0,0,0,0,-1,853,1121,0,0
-364,-97,0,0,0,0,0,0,0,0,0,-1,860,1121,0,0
-357,-97,0,0,0,0,0,0,0,0,0,-1,867,1121,0,0
-350,-97,0,0,0,0,0,0,0,0,0,-1,874,1121,0,0
-343,-97,0,0,0,0,0,0,0,0,0,-1,881,1121,0,0
-336,-97,0,0,0,0,0,0,0,0,0,-1,888,1121,0,0
-329,-97,0,0,0,0,0,0,0,0,0,-1,895,1121,0,0
-322,-97,0,0,0,0,0,0,0,0,0,-1,902,1121,0,0
-315,-97,0,0,0,0,0,0,0,0,0,-1,909,1121,0,0
-308,-97,0,0,0,0,0,0,0,0,0,-1,916,1121,0,0
-301,-97,0,0,0,0,0,0,0,0,0,-1,923,1121,0,0
-294,-97,0,0,0,0,0,0,0,0,0,-1,930,1121,0,0
-287,-97,0,0,0,0,0,0,0,0,0,-1,937,1121,0,0
-280,-97,0,0,0,0,0,0,0,0,0,-1,944,1121,0,0
-273,-97,0,0,0,0,0,0,0,0,0,-1,951,1121,0,0
-266,-97,0,0,0,0,0,0,0,0,0,-1,958,1121,0,0
-259,-97,0,0,0,0,0,0,0,0,0,-1,965,1121,0,0
-252,-97,0,0,0,0,0,0,0,0,0,-1,972,1121,0,0
-245,-97,0,0,0,0,0,0,0,0,0,-1,979,1121,0,0
-238,-97,0,0,0,0,0,0,0,0,0,-1,986,1121,0,0
-231,-97,0,0,0,0,0,0,0,0,0,-1,993,1121,0,0
-224,-97,0,0,0,0,0,0,0,0,0,-1,1000,1121,0,0
-217,-97,0,0,0,0,0,0,0,0,0,-1,1007,1121,0,0
-210,-97,0,0,0,0,0,0,0,0,0,-1,1014,1121,0,0
-203,-97,0,0,0,0,0,0,0,0,0,-1,1021,1121,0,0
-196,-97,0,0,0,0,0,0,0,0,0,-1,1028,1121,0,0
-189,-97,0,0,0,0,0,0,0,0,0,-1,1035,1121,0,0
-182,-97,0,0,0,0,0,0,0,0,0,-1,1042,1121,0,0
-175,-97,0,0,0,0,0,0,0,0,0,-1,1049,1121,0,0
-168,-97,0,0,0,0,0,0,0,0,0,-1,1056,1121,0,0
-161,-97,0,0,0,0,0,0,0,0,0,-1,1063,1121,0,0
-154,-97,0,0,0,0,0,0,0,0,0,-1,1070,1121,0,0
-147,-97,0,0,0,0,0,0,0,0,0,-1,1077,1121,0,0
-140,-97,0,0,0,0,0,0,0,0,0,-1,1084,1121,0,0
-133,-97,0,0,0,0,0,0,0,0,0,-1,1091,1121,0,0
-126,-97,0,0,0,0,0,0,0,0,0,-1,1098,1121,0,0
-119,-97,0,0,0,0,0,0,0,0,0,-1,1105,1121,0,0
-112,-97,0,0,0,0,0,0,0,0,0,-1,1112,1121,0,0
-105,-97,0,0,0,0,0,0,0,0,0,-1,1119,1121,0,0
-98,-97,0,0,0,0,0,0,0,0,0,-1,1126,1121,0,0
-91,-97,0,0,0,0,0,0,0,0,0,-1,1133,1121,0,0
-84,-97,0,0,0,0,0,0,0,0,0,-1,1140,1121,0,0
-77,-97,0,0,0,0,0,0,0,0,0,-1,1147,1121,0,0
-70,-97,0,0,0,0,0,0,0,0,0,-1,1154,1121,0,0
-63,-97,0,0,0,0,0,0,0,0,0,-1,1161,1121,0,0
-56,-97,0,0,0,0,0,0,0,0,0,-1,1168,1121,0,0
-49,-97,0,0,0,0,0,0,0,0,0,-1,1175,1121,0,0
-42,-97,0,0,0,0,0,0,0,0,0,-1,1182,1121,0,0
-35,-97,0,0,0,0,0,0,0,0,0,-1,1189,1121,0,0
-28,-97,0,0,0,0,0,0,0,0,0,-1,1196,1121,0,0
-21,-97,0,0,0,0,0,0,0,0,0,-1,1203,1121,0,0
-14,-97,0,0,0,0,0,0,0,0,0,-1,1210,1121,0,0
-7,-97,0,0,0,0,0,0,0,0,0,-1,1217,1121,0,0
0,-97,0,0,0,0,0,0,0,0,0,-1,1224,1121,0,0
7,-97,0,0,0,0,0,0,0,0,0,-1,1231,1121,0,0
14,-97,0,0,0,0,0,0,0,0,0,-1,1238,1121,0,0
21,-97,0,0,0,0,0,0,0,0,0,-1,1245,1121,0,0
28,-97,0,0,0,0,0,0,0,0,0,-1,1252,1121,0,0
35,-97,0,0,0,0,0,0,0,0,0,-1,1259,1121,0,0
42,-97,0,0,0,0,0,0,0,0,0,-1,1266,1121,0,0
49,-97,0,0,0,0,0,0,0,0,0,-1,1273,1121,0,0
56,-97,0,0,0,0,0,0,0,0,0,-1,1280,1121,0,0
63,-97,0,0,0,0,0,0,0,0,0,-1,1287,1121,0,0
70,-97,0,0,0,0,0,0,0,0,0,-1,1294,1121,0,0
77,-97,0,0,0,0,0,0,0,0,0,-1,1301,1121,0,0
84,-97,0,0,0,0,0,0,0,0,0,-1,1308,1121,0,0
91,-97,0,0,0,0,0,0,0,0,0,-1,1315,1121,0,0
98,-97,0,0,0,0,0,0,0,0,0,-1,1322,1121,0,0
105,-97,0,0,0,0,0,0,0,0,0,-1,1329,1121,0,0
112,-97,0,0,0,0,0,0,0,0,0,-1,1336,1121,0,0
119,-97,0,0,0,0,0,0,0,0,0,-1,1343,1121,0,0
126,-97,0,0,0,0,0,0,0,0,0,-1,1350,1121,0,0
133,-97,0,0,0,0,0,0,0,0,0,-1,1357,1121,0,0
140,-97,0,0,0,0,0,0,0,0,0,-1,1364,1121,0,0
147,-97,0,0,0,0,0,0,0,0,0,-1,1371,1121,0,0
154,-97,0,0,0,0,0,0,0,0,0,-1,1378,1121,0,0
161,-97,0,0,0,0,0,0,0,0,0,-1,1385,1121,0,0
168,-97,0,0,0,0,0,0,0,0,0,-1,1392,1121,0,0
175,-97,0,0,0,0,0,0,0,0,0,-1,1399,1121,0,0
182,-97,0,0,0,0,0,0,0,0,0,-1,1406,1121,0,0
189,-97,0,0,0,0,0,0,0,0,0,-1,1413,1121,0,0
196,-97,0,0,0,0,0,0,0,0,0,-1,1420,1121,0,0
203,-97,0,0,0,0,0,0,0,0,0,-1,1427,1121,0,0
210,-97,0,0,0,0,0,0,0,0,0,-1,1434,1121,0,0
217,-97,0,0,0,0,0,0,0,0,0,-1,1441,1121,0,0
224,-97,0,0,0,0,0,0,0,0,0,-1,1448,1121,0,0
231,-97,0,0,0,0,0,0,0,0,0,-1,1455,1121,0,0
238,-97,0,0,0,0,0,0,0,0,0,-1,1462,1121,0,0
245,-97,0,0,0,0,0,0,0,0,0,-1,1469,1121,0,0
252,-97,0,0,0,0,0,0,0,0,0,-1,1476,1121,0,0
259,-97,0,0,0,0,0,0,0,0,0,-1,1483,1121,0,0
266,-97,0,0,0,0,0,0,0,0,0,-1,1490,1121,0,0
273,-97,0,0,0,0,0,0,0,0,0,-1,1497,1121,0,0
280,-97,0,0,0,0,0,0,0,0,0,-1,1504,1121,0,0
287,-97,0,0,0,0,0,0,0,0,0,-1,1511,1121,0,0
294,-97,0,0,0,0,0,0,0,0,0,-1,1518,1121,0,0
301,-97,0,0,0,0,0,0,0,0,0,-1,1525,1121,0,0
308,-97,0,0,0,0,0,0,0,0,0,-1,1532,1121,0,0
315,-97,0,0,0,0,0,0,0,0,0,-1,1539,1121,0,0
322,-97,0,0,0,0,0,0,0,0,0,-1,1546,1121,0,0
329,-97,0,0,0,0,0,0,0,0,0,-1,1553,1121,0,0
336,-97,0,0,0,0,0,0,0,0,0,-1,1560,1121,0,0
343,-97,0,0,0,0,0,0,0,0,0,-1,1567,1121,0,0
350,-97,0,0,0,0,0,0,0,0,0,-1,1574,1121,0,0
357,-97,0,0,0,0,0,0,0,0,0,-1,1581,1121,0,0
364,-97,0,0,0,0,0,0,0,0,0,-1,1588,1121,0,0
371,-97,0,0,0,0,0,0,0,0,0,-1,1595,1121,0,0
378,-97,0,0,0,0,0,0,0,0,0,-1,1602,1121,0,0
385,-97,0,0,0,0,0,0,0,0,0,-1,1609,1121,0,0
392,-97,0,0,0,0,0,0,0,0,0,-1,1616,1121,0,0
399,-97,0,0,0,0,0,0,0,0,0,-1,1623,1121,0,0
406,-97,0,0,0,0,0,0,0,0,0,-1,1630,1121,0,0
413,-97,0,0,0,0,0,0,0,0,0,-1,1637,1121,0,0
420,-97,0,0,0,0,0,0,0,0,0,-1,1644,1121,0,0
427,-97,0,0,0,0,0,0,0,0,0,-1,1651,1121,0,0
434,-97,0,0,0,0,0,0,0,0,0,-1,1658,1121,0,0
441,-97,0,0,0,0,0,0,0,0,0,-1,1665,1121,0,0
448,-97,0,0,0,0,0,0,0,0,0,-1,1672,1121,0,0
455,-97,0,0,0,0,0,0,0,0,0,-1,1679,1121,0,0
462,-97,0,0,0,0,0,0,0,0,0,-1,1686,1121,0,0
469,-97,0,0,0,0,0,0,0,0,0,-1,1693,1121,0,0
476,-97,0,0,0,0,0,0,0,0,0,-1,1700,1121,0,0
483,-97,0,0,0,0,0,0,0,0,0,-1,1707,1121,0,0
490,-97,0,0,0,0,0,0,0,0,0,-1,1714,1121,0,0
497,-97,0,0,0,0,0,0,0,0,0,-1,1721,1121,0,0
504,-97,0,0,0,0,0,0,0,0,0,-1,1728,1121,0,0
511,-97,0,0,0,0,0,0,0,0,0,-1,1735,1121,0,0
518,-97,0,0,0,0,0,0,0,0,0,-1,1742,1121,0,0
525,-97,0,0,0,0,0,0,0,0,0,-1,1749,1121,0,0
532,-97,0,0,0,0,0,0,0,0,0,-1,1756,1121,0,0
539,-97,0,0,0,0,0,0,0,0,0,-1,1763,1121,0,0
546,-97,0,0,0,0,0,0,0,0,0,-1,1770,1121,0,0
553,-97,0,0,0,0,0,0,0,0,0,-1,1777,1121,0,0
560,-97,0,0,0,0,0,0,0,0,0,-1,1784,1121,0,0
567,-97,0,0,0,0,0,0,0,0,0,-1,1791,1121,0,0
574,-97,0,0,0,0,0,0,0,0,0,-1,1798,1121,0,0
581,-97,0,0,0,0,0,0,0,0,0,-1,1805,1121,0,0
588,-97,0,0,0,0,0,0,0,0,0,-1,1812,1121,0,0
595,-97,0,0,0,0,0,0,0,0,0,-1,1819,1121,0,0
602,-97,0,0,0,0,0,0,0,0,0,-1,1826,1121,0,0
609,-97,0,0,0,0,0,0,0,0,0,-1,1833,1121,0,0
616,-97,0,0,0,0,0,0,0,0,0,-1,1840,1121,0,0
623,-97,0,0,0,0,0,0,0,0,0,-1,1847,1121,0,0
630,-97,0,0,0,0,0,0,0,0,0,-1,1854,1121,0,0
637,-97,0,0,0,0,0,0,0,0,0,-1,1861,1121,0,0
644,-97,35.9744,2.92664,0.00580589,-0.0056787,-0.00162667,0.00603185,-0.00590465,-0.138023,0.00689167,0.0388596,1868,1121,35.9743,-2.92668
651,-97,36.0477,3.01025,0.00435499,-0.00452097,-0.00111788,0.00449362,-0.0046596,-0.123378,0.0052849,0.0397921,1875,1121,36.0478,-3.0102
658,-97,36.1816,3.052,0.00343896,-0.00368442,-0.000837296,0.00353606,-0.00378152,-0.115446,0.00422559,0.0401469,1882,1121,36.1816,-3.05195
665,-97,36.2738,3.0752,0.00277255,-0.00296836,-0.000636995,0.00284238,-0.00303819,-0.109188,0.00339578,0.0441982,1889,1121,36.2738,-3.07519
672,-97,36.2019,2.97534,0.00225904,-0.00243109,-0.000439342,0.00229984,-0.00247189,-0.0926002,0.00275556,0.0456061,1896,1121,36.2019,-2.97534
679,-97,36.0758,2.74683,0.00148877,-0.00209291,-0.000179509,0.00149775,-0.00210188,-0.0499517,0.00208798,0.0419073,1903,1121,36.0758,-2.74682
686,-97,36.1182,2.7699,0.000793412,-0.00191727,6.45827e-05,0.00079495,-0.00191881,0.0238072,0.00161095,0.0367573,1910,1121,36.1181,-2.76987
693,-97,36.1156,2.70544,0.000307127,-0.00177702,0.000266166,0.000340583,-0.00181048,0.125037,0.00133507,0.0350582,1917,1121,36.1156,-2.70539
700,-97,36.1249,2.72571,-0.000251969,-0.00156833,0.00042536,-0.000126483,-0.00169381,0.286874,0.0010895,0.0277641,1924,1121,36.1249,-2.72567
707,-97,36.1459,2.6792,-0.000671098,-0.00145469,0.000676908,-0.000280777,-0.00184502,0.523053,0.00114792,0.0201695,1931,1121,36.1458,-2.67915
714,-97,36.1604,2.61072,0,0,0,0,0,0,0,-1,1938,1121,36.1605,-2.61074
721,-97,34.1066,5.92468,0,0,0,0,0,0,0,-1,1945,1121,34.1066,-5.92467
728,-97,34.0601,5.8064,-0.00170688,-0.000669749,0.00134372,0.000251998,-0.00262863,0.969552,0.00184217,0.020948,1952,1121,34.0601,-5.80641
735,-97,34.006,5.56689,-0.00166552,-0.000362564,0.00154117,0.000659173,-0.00268725,0.985364,0.00204692,0.0233616,1959,1121,34.006,-5.5669
742,-97,34.0084,5.31677,-0.001146,-0.000348911,0.00165528,0.000955128,-0.00245004,0.903535,0.00202814,0.0189891,1966,1121,34.0084,-5.31675
749,-97,34.0647,5.06995,-0.000338984,-0.000927251,0.00153553,0.000930329,-0.00219656,0.690768,0.001854,0.0205896,1973,1121,34.0646,-5.06991
756,-97,34.0677,4.86304,0.000753728,-0.00181061,0.000985896,0.00108895,-0.00214583,0.327753,0.00190054,0.0160319,1980,1121,34.0677,-4.863
763,-97,34.0217,4.6886,0.0024904,-0.00350951,1.83767e-05,0.00249045,-0.00350956,0.0030628,0.00348073,0.0129099,1987,1121,34.0217,-4.68857
770,-97,34.0052,4.5105,0.00474889,-0.00600967,-0.00133804,0.0049128,-0.00617358,-0.121896,0.00641451,0.0109844,1994,1121,34.0052,-4.51046
777,-97,34.0076,4.34192,0.00722682,-0.0094784,-0.00311555,0.00778896,-0.0100405,-0.17851,0.0103212,0.015122,2001,1121,34.0076,-4.34193
784,-97,33.9838,4.15015,0.00979581,-0.0140139,-0.00546992,0.0109923,-0.0152104,-0.21535,0.0151934,0.035706,2008,1121,33.9838,-4.15012
791,-97,34.0938,3.99792,0.0123749,-0.0198772,-0.00861729,0.0145329,-0.0220352,-0.245383,0.0212602,0.0425876,2015,1121,34.0938,-3.99788
798,-97,34.2161,3.68555,0.0150359,-0.0271133,-0.0127662,0.0186009,-0.0306784,-0.272322,0.0287348,0.042247,2022,1121,34.216,-3.68557
805,-97,34.7175,2.57971,0.0173494,-0.0356398,-0.0180749,0.0229277,-0.041218,-0.299343,0.037533,0.0433786,2029,1121,34.7174,-2.57977
812,-97,34.7549,2.13098,0.018837,-0.0451423,-0.0246146,0.0272108,-0.0535162,-0.327918,0.0474254,0.0457966,2036,1121,34.7548,-2.13101
-700,-104,0,0,0,0,0,0,0,0,0,-1,524,1128,0,0
-693,-104,-24.2921,-1.19153,0,0,0,0,0,0,0,-1,531,1128,-24.2921,1.19152
-686,-104,-24.7383,-0.941406,0,0,0,0,0,0,0,-1,538,1128,-24.7383,0.941378
-679,-104,-25.832,-0.639526,-0.00753116,0.0297914,0.00656157,0.0309114,-0.00865113,1.40174,0.0240164,0.047756,545,1128,-25.832,0.639534
-672,-104,-26.0344,-0.100098,-0.00530395,0.0232151,0.00379198,0.0237107,-0.00579953,1.44084,0.0180535,0.0477916,552,1128,-26.0344,0.100083
-665,-104,-23.9949,0.925415,0,0,0,0,0,0,0,-1,559,1128,-23.9949,-0.925397
-658,-104,-24.1581,1.14075,-0.00286244,0.0132542,0.000696167,0.0132842,-0.00289245,1.52771,0.00996128,0.0454897,566,1128,-24.1581,-1.14076
-651,-104,-23.8531,1.10046,-0.00227113,0.00964985,-7.16067e-05,0.00965028,-0.00227156,-1.56479,0.00730933,0.03787,573,1128,-23.8531,-1.10052
-644,-104,-23.8436,1.45691,-0.00174525,0.0067815,-0.000460365,0.00680628,-0.00177004,-1.51701,0.00522838,0.0152958,580,1128,-23.8436,-1.45697
-637,-104,-23.8538,1.75537,-0.00103962,0.0043995,-0.000931352,0.00455455,-0.00119468,-1.40582,0.00350317,0.0110849,587,1128,-23.8538,-1.75542
-630,-104,-23.8618,1.97754,-0.000521146,0.00237811,-0.00106159,0.00272525,-0.000868291,-1.25475,0.0021651,0.0133356,594,1128,-23.8617,-1.97755
-623,-104,-23.8623,2.25146,0.000152293,0.000753626,-0.000980831,0.00147884,-0.00057292,-0.934122,0.00122247,0.0154126,601,1128,-23.8623,-2.25144
-616,-104,-23.9929,2.56592,0.000489033,-0.000120463,-0.000183842,0.000540191,-0.000171622,-0.271407,0.000428936,0.0177701,608,1128,-23.9928,-2.56598
-609,-104,-24.1036,2.7168,0.000860227,-0.000587123,0.000147186,0.000875043,-0.000601939,0.100325,0.000857581,0.02286,615,1128,-24.1036,-2.7168
-602,-104,-23.9689,2.97742,0.00104114,-0.000571737,0.000308045,0.00109797,-0.000628568,0.182439,0.00100902,0.0199532,622,1128,-23.969,-2.97741
-595,-104,-23.8769,3.29382,0.000886202,-0.000405198,0.000473763,0.00104136,-0.00056036,0.3165,0.000938552,0.0168538,629,1128,-23.8769,-3.29382
-588,-104,-23.8356,3.64099,0,0,0,0,0,0,0,-1,636,1128,-23.8356,-3.64104
-581,-104,-23.9373,2.85864,0,0,0,0,0,0,0,-1,643,1128,-23.9373,-2.85861
-574,-104,-26.1271,0.774048,0,0,0,0,0,0,0,-1,650,1128,-26.1271,-0.774099
-567,-104,-26.026,0.732544,8.73471e-05,0.000100741,0.000661742,0.00075582,-0.000567732,0.790458,0.000766721,0.0382593,657,1128,-26.026,-0.732573
-560,-104,-25.9949,0.799561,-0.000270958,0.000491162,0.000616357,0.000834742,-0.000614537,1.06226,0.000839955,0.0412318,664,1128,-25.9949,-0.799586
-553,-104,-26.1221,0.940308,-0.000930969,0.000980813,0.000263753,0.00101653,-0.000966689,1.43618,0.00114513,0.0473216,671,1128,-26.1221,-0.940313
-546,-104,-26.3317,1.24231,-0.00172185,0.00147521,-0.000655116,0.00160424,-0.00185088,-1.37632,0.00199651,0.0466041,678,1128,-26.3317,-1.24236
-539,-104,-26.352,1.18262,-0.0018677,0.00166325,-0.00216653,0.00269255,-0.002897,-1.12727,0.00322785,0.0405386,685,1128,-26.352,-1.18263
-532,-104,-26.3713,0.966919,-0.00101962,0.00139426,-0.00404262,0.00440627,-0.00403162,-0.930463,0.00487322,0.0404924,692,1128,-26.3713,-0.966945
-525,-104,-26.308,0.789307,4.66186e-05,0.000911514,-0.00612862,0.00662292,-0.00566479,-0.820621,0.0071015,0.0378734,699,1128,-26.308,-0.789334
-518,-104,0,0,0,0,0,0,0,0,0,-1,706,1128,0,0
-511,-104,0,0,0,0,0,0,0,0,0,-1,713,1128,0,0
-504,-104,0,0,0,0,0,0,0,0,0,-1,720,1128,0,0
-497,-104,0,0,0,0,0,0,0,0,0,-1,727,1128,0,0
-490,-104,0,0,0,0,0,0,0,0,0,-1,734,1128,0,0
-483,-104,0,0,0,0,0,0,0,0,0,-1,741,1128,0,0
-476,-104,0,0,0,0,0,0,0,0,0,-1,748,1128,0,0
-469,-104,0,0,0,0,0,0,0,0,0,-1,755,1128,0,0
-462,-104,0,0,0,0,0,0,0,0,0,-1,762,1128,0,0
-455,-104,0,0,0,0,0,0,0,0,0,-1,769,1128,0,0
-448,-104,0,0,0,0,0,0,0,0,0,-1,776,1128,0,0
-441,-104,0,0,0,0,0,0,0,0,0,-1,783,1128,0,0
-434,-104,0,0,0,0,0,0,0,0,0,-1,790,1128,0,0
-427,-104,0,0,0,0,0,0,0,0,0,-1,797,1128,0,0
-420,-104,0,0,0,0,0,0,0,0,0,-1,804,1128,0,0
-413,-104,0,0,0,0,0,0,0,0,0,-1,811,1128,0,0
-406,-104,0,0,0,0,0,0,0,0,0,-1,818,1128,0,0
-399,-104,0,0,0,0,0,0,0,0,0,-1,825,1128,0,0
-392,-104,0,0,0,0,0,0,0,0,0,-1,832,1128,0,0
-385,-104,0,0,0,0,0,0,0,0,0,-1,839,1128,0,0
-378,-104,0,0,0,0,0,0,0,0,0,-1,846,1128,0,0
-371,-104,0,0,0,0,0,0,0,0,0,-1,853,1128,0,0
-364,-104,0,0,0,0,0,0,0,0,0,-1,860,1128,0,0
-357,-104,0,0,0,0,0,0,0,0,0,-1,867,1128,0,0
-350,-104,0,0,0,0,0,0,0,0,0,-1,874,1128,0,0
-343,-104,0,0,0,0,0,0,0,0,0,-1,881,1128,0,0
-336,-104,0,0,0,0,0,0,0,0,0,-1,888,1128,0,0
-329,-104,0,0,0,0,0,0,0,0,0,-1,895,1128,0,0
-322,-104,0,0,0,0,0,0,0,0,0,-1,902,1128,0,0
-315,-104,0,0,0,0,0,0,0,0,0,-1,909,1128,0,0
-308,-104,0,0,0,0,0,0,0,0,0,-1,916,1128,0,0
-301,-104,0,0,0,0,0,0,0,0,0,-1,923,1128,0,0
-294,-104,0,0,0,0,0,0,0,0,0,-1,930,1128,0,0
-287,-104,0,0,0,0,0,0,0,0,0,-1,937,1128,0,0
-280,-104,0,0,0,0,0,0,0,0,0,-1,944,1128,0,0
-273,-104,0,0,0,0,0,0,0,0,0,-1,951,1128,0,0
-266,-104,0,0,0,0,0,0,0,0,0,-1,958,1128,0,0
-259,-104,0,0,0,0,0,0,0,0,0,-1,965,1128,0,0
-252,-104,0,0,0,0,0,0,0,0,0,-1,972,1128,0,0
-245,-104,0,0,0,0,0,0,0,0,0,-1,979,1128,0,0
-238,-104,0,0,0,0,0,0,0,0,0,-1,986,1128,0,0
-231,-104,0,0,0,0,0,0,0,0,0,-1,993,1128,0,0
-224,-104,0,0,0,0,0,0,0,0,0,-1,1000,1128,0,0
-217,-104,0,0,0,0,0,0,0,0,0,-1,1007,1128,0,0
-210,-104,0,0,0,0,0,0,0,0,0,-1,1014,1128,0,0
-203,-104,0,0,0,0,0,0,0,0,0,-1,1021,1128,0,0
-196,-104,0,0,0,0,0,0,0,0,0,-1,1028,1128,0,0
-189,-104,0,0,0,0,0,0,0,0,0,-1,1035,1128,0,0
-182,-104,0,0,0,0,0,0,0,0,0,-1,1042,1128,0,0
-175,-104,0,0,0,0,0,0,0,0,0,-1,1049,1128,0,0
-168,-104,0,0,0,0,0,0,0,0,0,-1,1056,1128,0,0
-161,-104,0,0,0,0,0,0,0,0,0,-1,1063,1128,0,0
-154,-104,0,0,0,0,0,0,0,0,0,-1,1070,1128,0,0
-147,-104,0,0,0,0,0,0,0,0,0,-1,1077,1128,0,0
-140,-104,0,0,0,0,0,0,0,0,0,-1,1084,1128,0,0
-133,-104,0,0,0,0,0,0,0,0,0,-1,1091,1128,0,0
-126,-104,0,0,0,0,0,0,0,0,0,-1,1098,1128,0,0
-119,-104,0,0,0,0,0,0,0,0,0,-1,1105,1128,0,0
-112,-104,0,0,0,0,0,0,0,0,0,-1,1112,1128,0,0
-105,-104,0,0,0,0,0,0,0,0,0,-1,1119,1128,0,0
-98,-104,0,0,0,0,0,0,0,0,0,-1,1126,1128,0,0
-91,-104,0,0,0,0,0,0,0,0,0,-1,1133,1128,0,0
-84,-104,0,0,0,0,0,0,0,0,0,-1,1140,1128,0,0
-77,-104,0,0,0,0,0,0,0,0,0,-1,1147,1128,0,0
-70,-104,0,0,0,0,0,0,0,0,0,-1,1154,1128,0,0
-63,-104,0,0,0,0,0,0,0,0,0,-1,1161,1128,0,0
-56,-104,0,0,0,0,0,0,0,0,0,-1,1168,1128,0,0
-49,-104,0,0,0,0,0,0,0,0,0,-1,1175,1128,0,0
-42,-104,0,0,0,0,0,0,0,0,0,-1,1182,1128,0,0
-35,-104,0,0,0,0,0,0,0,0,0,-1,1189,1128,0,0
-28,-104,0,0,0,0,0,0,0,0,0,-1,1196,1128,0,0
-21,-104,0,0,0,0,0,0,0,0,0,-1,1203,1128,0,0
-14,-104,0,0,0,0,0,0,0,0,0,-1,1210,1128,0,0
-7,-104,0,0,0,0,0,0,0,0,0,-1,1217,1128,0,0
0,-104,0,0,0,0,0,0,0,0,0,-1,1224,1128,0,0
7,-104,0,0,0,0,0,0,0,0,0,-1,1231,1128,0,0
14,-104,0,0,0,0,0,0,0,0,0,-1,1238,1128,0,0
21,-104,0,0,0,0,0,0,0,0,0,-1,1245,1128,0,0
28,-104,0,0,0,0,0,0,0,0,0,-1,1252,1128,0,0
35,-104,0,0,0,0,0,0,0,0,0,-1,1259,1128,0,0
42,-104,0,0,0,0,0,0,0,0,0,-1,1266,1128,0,0
49,-104,0,0,0,0,0,0,0,0,0,-1,1273,1128,0,0
56,-104,0,0,0,0,0,0,0,0,0,-1,1280,1128,0,0
63,-104,0,0,0,0,0,0,0,0,0,-1,1287,1128,0,0
70,-104,0,0,0,0,0,0,0,0,0,-1,1294,1128,0,0
77,-104,0,0,0,0,0,0,0,0,0,-1,1301,1128,0,0
84,-104,0,0,0,0,0,0,0,0,0,-1,1308,1128,0,0
91,-104,0,0,0,0,0,0,0,0,0,-1,1315,1128,0,0
98,-104,0,0,0,0,0,0,0,0,0,-1,1322,1128,0,0
105,-104,0,0,0,0,0,0,0,0,0,-1,1329,1128,0,0
112,-104,0,0,0,0,0,0,0,0,0,-1,1336,1128,0,0
119,-104,0,0,0,0,0,0,0,0,0,-1,1343,1128,0,0
126,-104,0,0,0,0,0,0,0,0,0,-1,1350,1128,0,0
133,-104,0,0,0,0,0,0,0,0,0,-1,1357,1128,0,0
140,-104,0,0,0,0,0,0,0,0,0,-1,1364,1128,0,0
147,-104,0,0,0,0,0,0,0,0,0,-1,1371,1128,0,0
154,-104,0,0,0,0,0,0,0,0,0,-1,1378,1128,0,0
161,-104,0,0,0,0,0,0,0,0,0,-1,1385,1128,0,0
168,-104,0,0,0,0,0,0,0,0,0,-1,1392,1128,0,0
175,-104,0,0,0,0,0,0,0,0,0,-1,1399,1128,0,0
182,-104,0,0,0,0,0,0,0,0,0,-1,1406,1128,0,0
189,-104,0,0,0,0,0,0,0,0,0,-1,1413,1128,0,0
196,-104,0,0,0,0,0,0,0,0,0,-1,1420,1128,0,0
203,-104,0,0,0,0,0,0,0,0,0,-1,1427,1128,0,0
210,-104,0,0,0,0,0,0,0,0,0,-1,1434,1128,0,0
217,-104,0,0,0,0,0,0,0,0,0,-1,1441,1128,0,0
224,-104,0,0,0,0,0,0,0,0,0,-1,1448,1128,0,0
231,-104,0,0,0,0,0,0,0,0,0,-1,1455,1128,0,0
238,-104,0,0,0,0,0,0,0,0,0,-1,1462,1128,0,0
245,-104,0,0,0,0,0,0,0,0,0,-1,1469,1128,0,0
252,-104,0,0,0,0,0,0,0,0,0,-1,1476,1128,0,0
259,-104,0,0,0,0,0,0,0,0,0,-1,1483,1128,0,0
266,-104,0,0,0,0,0,0,0,0,0,-1,1490,1128,0,0
273,-104,0,0,0,0,0,0,0,0,0,-1,1497,1128,0,0
280,-104,0,0,0,0,0,0,0,0,0,-1,1504,1128,0,0
287,-104,0,0,0,0,0,0,0,0,0,-1,1511,1128,0,0
294,-104,0,0,0,0,0,0,0,0,0,-1,1518,1128,0,0
301,-104,0,0,0,0,0,0,0,0,0,-1,1525,1128,0,0
308,-104,0,0,0,0,0,0,0,0,0,-1,1532,1128,0,0
315,-104,0,0,0,0,0,0,0,0,0,-1,1539,1128,0,0
322,-104,0,0,0,0,0,0,0,0,0,-1,1546,1128,0,0
329,-104,0,0,0,0,0,0,0,0,0,-1,1553,1128,0,0
336,-104,0,0,0,0,0,0,0,0,0,-1,1560,1128,0,0
343,-104,0,0,0,0,0,0,0,0,0,-1,1567,1128,0,0
350,-104,0,0,0,0,0,0,0,0,0,-1,1574,1128,0,0
357,-104,0,0,0,0,0,0,0,0,0,-1,1581,1128,0,0
364,-104,0,0,0,0,0,0,0,0,0,-1,1588,1128,0,0
371,-104,0,0,0,0,0,0,0,0,0,-1,1595,1128,0,0
378,-104,0,0,0,0,0,0,0,0,0,-1,1602,1128,0,0
385,-104,0,0,0,0,0,0,0,0,0,-1,1609,1128,0,0
392,-104,0,0,0,0,0,0,0,0,0,-1,1616,1128,0,0
399,-104,0,0,0,0,0,0,0,0,0,-1,1623,1128,0,0
406,-104,0,0,0,0,0,0,0,0,0,-1,1630,1128,0,0
413,-104,0,0,0,0,0,0,0,0,0,-1,1637,1128,0,0
420,-104,0,0,0,0,0,0,0,0,0,-1,1644,1128,0,0
427,-104,0,0,0,0,0,0,0,0,0,-1,1651,1128,0,0
434,-104,0,0,0,0,0,0,0,0,0,-1,1658,1128,0,0
441,-104,0,0,0,0,0,0,0,0,0,-1,1665,1128,0,0
448,-104,0,0,0,0,0,0,0,0,0,-1,1672,1128,0,0
455,-104,0,0,0,0,0,0,0,0,0,-1,1679,1128,0,0
462,-104,0,0,0,0,0,0,0,0,0,-1,1686,1128,0,0
469,-104,0,0,0,0,0,0,0,0,0,-1,1693,1128,0,0
476,-104,0,0,0,0,0,0,0,0,0,-1,1700,1128,0,0
483,-104,0,0,0,0,0,0,0,0,0,-1,1707,1128,0,0
490,-104,0,0,0,0,0,0,0,0,0,-1,1714,1128,0,0
497,-104,0,0,0,0,0,0,0,0,0,-1,1721,1128,0,0
504,-104,0,0,0,0,0,0,0,0,0,-1,1728,1128,0,0
511,-104,0,0,0,0,0,0,0,0,0,-1,1735,1128,0,0
518,-104,0,0,0,0,0,0,0,0,0,-1,1742,1128,0,0
525,-104,0,0,0,0,0,0,0,0,0,-1,1749,1128,0,0
532,-104,0,0,0,0,0,0,0,0,0,-1,1756,1128,0,0
539,-104,0,0,0,0,0,0,0,0,0,-1,1763,1128,0,0
546,-104,0,0,0,0,0,0,0,0,0,-1,1770,1128,0,0
553,-104,0,0,0,0,0,0,0,0,0,-1,1777,1128,0,0
560,-104,0,0,0,0,0,0,0,0,0,-1,1784,1128,0,0
567,-104,0,0,0,0,0,0,0,0,0,-1,1791,1128,0,0
574,-104,0,0,0,0,0,0,0,0,0,-1,1798,1128,0,0
581,-104,0,0,0,0,0,0,0,0,0,-1,1805,1128,0,0
588,-104,0,0,0,0,0,0,0,0,0,-1,1812,1128,0,0
595,-104,0,0,0,0,0,0,0,0,0,-1,1819,1128,0,0
602,-104,0,0,0,0,0,0,0,0,0,-1,1826,1128,0,0
609,-104,0,0,0,0,0,0,0,0,0,-1,1833,1128,0,0
616,-104,0,0,0,0,0,0,0,0,0,-1,1840,1128,0,0
623,-104,0,0,0,0,0,0,0,0,0,-1,1847,1128,0,0
630,-104,0,0,0,0,0,0,0,0,0,-1,1854,1128,0,0
637,-104,0,0,0,0,0,0,0,0,0,-1,1861,1128,0,0
644,-104,35.9258,3.13806,0.00582158,-0.005934,-0.00161792,0.00604019,-0.00615261,-0.134304,0.00703961,0.0382729,1868,1128,35.9258,-3.13808
651,-104,35.9265,3.12244,0.00440215,-0.00458935,-0.00108383,0.00453095,-0.00471815,-0.118282,0.00534034,0.0412942,1875,1128,35.9265,-3.12239
658,-104,36.0503,3.00146,0.00349756,-0.00363037,-0.000826451,0.00359213,-0.00372494,-0.113932,0.00422474,0.0424524,1882,1128,36.0503,-3.00152
665,-104,36.1436,3.02295,0.00281283,-0.00282737,-0.00067308,0.00289205,-0.00290658,-0.117145,0.00334784,0.0448633,1889,1128,36.1436,-3.02297
672,-104,36.2592,2.82117,0.00228564,-0.00222451,-0.000537914,0.00234891,-0.00228778,-0.11708,0.00267707,0.0451267,1896,1128,36.2591,-2.82114
679,-104,36.1732,2.68713,0.00151777,-0.00184493,-0.000350672,0.00155395,-0.00188111,-0.102809,0.00198623,0.0414545,1903,1128,36.1732,-2.6871
686,-104,36.0665,2.66882,0.000828507,-0.00163736,-0.000160471,0.000838906,-0.00164775,-0.0647131,0.00146077,0.0392224,1910,1128,36.0665,-2.66885
693,-104,36.0573,2.69775,0.000364426,-0.00145799,9.43219e-06,0.000364474,-0.00145804,0.00517548,0.00111358,0.0368253,1917,1128,36.0573,-2.69776
700,-104,36.1454,2.71472,-0.000190685,-0.00123615,0.000154406,-0.000168358,-0.00125848,0.143607,0.000788876,0.0273402,1924,1128,36.1454,-2.71467
707,-104,36.1339,2.64832,-0.000615538,-0.00115132,0.000388401,-0.000411602,-0.00135526,0.483499,0.000802305,0.0361254,1931,1128,36.134,-2.64827
714,-104,34.4872,6.12463,0,0,0,0,0,0,0,-1,1938,1128,34.4872,-6.12463
721,-104,34.0203,5.94995,-0.0013351,-0.000717663,0.000859648,-0.000112981,-0.00193978,0.957788,0.00125722,0.0453877,1945,1128,34.0202,-5.94991
728,-104,33.8887,5.75537,-0.00164771,-0.000455645,0.00111008,0.000208291,-0.00231165,1.03177,0.00161501,0.0212014,1952,1128,33.8887,-5.75543
735,-104,33.9056,5.50354,-0.00170073,-0.000145763,0.00138912,0.000668651,-0.00251515,1.04053,0.00193848,0.0240211,1959,1128,33.9056,-5.50352
742,-104,33.829,5.2876,-0.00129713,-6.71692e-05,0.00169385,0.00111989,-0.00248418,0.959532,0.00212993,0.0162318,1966,1128,33.8289,-5.2876
749,-104,33.7722,5.08728,-0.000656856,-0.000473126,0.00181771,0.00125504,-0.00238503,0.810646,0.00213508,0.0178169,1973,1128,33.7722,-5.08732
756,-104,33.7723,4.86987,0.00027862,-0.0012382,0.00151277,0.00121245,-0.00217203,0.553039,0.00198003,0.0164874,1980,1128,33.7724,-4.86984
763,-104,33.7701,4.65784,0.00180321,-0.0027828,0.000794258,0.00193687,-0.00291647,0.166724,0.00282104,0.015099,1987,1128,33.7702,-4.65784
770,-104,33.7635,4.46509,0.00368462,-0.00494683,-0.000210399,0.00368975,-0.00495195,-0.0243566,0.005007,0.0129779,1994,1128,33.7635,-4.46505
777,-104,33.743,4.3009,0.00568201,-0.00792149,-0.00162178,0.00587268,-0.00811216,-0.117033,0.00810859,0.0206242,2001,1128,33.743,-4.30096
784,-104,33.8536,4.38562,0.0077657,-0.0119266,-0.00363053,0.00841372,-0.0125747,-0.176629,0.0121968,0.0382971,2008,1128,33.8536,-4.38567
791,-104,33.9873,4.50977,0.00983848,-0.0171904,-0.00647674,0.0113103,-0.0186622,-0.223453,0.0174773,0.0431196,2015,1128,33.9874,-4.50981
798,-104,34.0107,4.36035,0.0119859,-0.0237927,-0.0104067,0.0147926,-0.0265994,-0.263437,0.0242196,0.0470908,2022,1128,34.0109,-4.36037
805,-104,34.1196,4.19592,0,0,0,0,0,0,0,-1,2029,1128,34.1196,-4.19594
812,-104,34.5449,2.47351,0,0,0,0,0,0,0,-1,2036,1128,34.5449,-2.47348
-700,-111,0,0,0,0,0,0,0,0,0,-1,524,1135,0,0
-693,-111,-24.3683,-1.36755,-0.0124915,0.0614075,0.00751491,0.0621639,-0.013248,1.47047,0.0464921,0.0467789,531,1135,-24.3683,1.36754
-686,-111,-24.4631,-1.24023,0,0,0,0,0,0,0,-1,538,1135,-24.4631,1.24018
-679,-111,-24.5909,-0.66626,-0.00483483,0.0396514,0.000626964,0.0396602,-0.00484366,1.55671,0.0281937,0.0443655,545,1135,-24.5909,0.666252
-672,-111,-24.8226,-0.0681152,-0.00295502,0.0309632,-0.000805084,0.0309823,-0.00297412,-1.54708,0.0217142,0.0451768,552,1135,-24.8226,0.0681472
-665,-111,-25.0721,0.580933,-0.00181504,0.0236467,-0.00152995,0.0237383,-0.00190664,-1.51099,0.0164978,0.0468694,559,1135,-25.0721,-0.580954
-658,-111,-24.3501,1.21851,0,0,0,0,0,0,0,-1,566,1135,-24.3501,-1.21854
-651,-111,-23.4949,0.973145,-0.00108347,0.0127263,-0.00187501,0.0129763,-0.00133352,-1.43822,0.00912791,0.0388034,573,1135,-23.4949,-0.973085
-644,-111,-23.522,1.47571,-0.000932261,0.00887778,-0.00169774,0.00916328,-0.00121776,-1.40419,0.0065526,0.0253418,580,1135,-23.522,-1.4757
-637,-111,-23.574,1.73547,-0.000513052,0.00575457,-0.00172608,0.00619849,-0.000956969,-1.31907,0.00448547,0.0105908,587,1135,-23.5741,-1.73544
-630,-111,-23.5818,1.98279,-0.000301644,0.00308446,-0.00147115,0.00363433,-0.000851514,-1.2131,0.00275101,0.0168255,594,1135,-23.5819,-1.98274
-623,-111,-23.5843,2.23901,0.000156646,0.00112364,-0.00114393,0.00188205,-0.000601771,-0.985342,0.00149619,0.0149667,601,1135,-23.5843,-2.23901
-616,-111,-23.6968,2.50122,0.000381808,6.16474e-05,-0.000245003,0.000514392,-7.09367e-05,-0.496025,0.000368854,0.0150658,608,1135,-23.6968,-2.50122
-609,-111,-23.882,2.74719,0.000751569,-0.000442993,6.02095e-05,0.000754596,-0.00044602,0.0502333,0.000700766,0.0228167,615,1135,-23.882,-2.74716
-602,-111,-23.8065,2.99878,0.00091007,-0.000361852,0.000182018,0.000935606,-0.000387387,0.139379,0.000785385,0.0250925,622,1135,-23.8064,-2.99874
-595,-111,-23.672,3.30664,0.000690035,-0.000123826,0.000362434,0.000828036,-0.000261828,0.363813,0.000656929,0.0148229,629,1135,-23.672,-3.30667
-588,-111,-23.5626,3.63464,0,0,0,0,0,0,0,-1,636,1135,-23.5626,-3.63462
-581,-111,-21.0555,3.14551,0,0,0,0,0,0,0,-1,643,1135,-21.0555,-3.14548
-574,-111,-26.1226,0.721191,0,0,0,0,0,0,0,-1,650,1135,-26.1226,-0.721179
-567,-111,-26.0107,0.768188,-2.51236e-05,0.000484247,0.000683179,0.00095867,-0.000499546,0.963816,0.000855698,0.0410335,657,1135,-26.0107,-0.768225
-560,-111,-25.9717,0.85376,-0.000301378,0.000881114,0.000711517,0.00121498,-0.000635242,1.13207,0.00108556,0.0392443,664,1135,-25.9717,-0.853738
-553,-111,-26.2685,1.08862,-0.000835985,0.00141377,0.000487135,0.00151472,-0.000936934,1.36646,0.0014285,0.0431121,671,1135,-26.2685,-1.08858
-546,-111,-26.2872,0.983521,-0.00141601,0.00199382,-0.000248469,0.00201183,-0.00143402,-1.49844,0.00199876,0.0413236,678,1135,-26.2871,-0.983496
-539,-111,-26.296,0.873413,-0.00129833,0.0023795,-0.0014899,0.00290732,-0.00182615,-1.23033,0.00275653,0.0395096,685,1135,-26.2959,-0.873395
-532,-111,-26.308,0.781128,-1.19192e-05,0.00233973,-0.00310677,0.00448574,-0.00215793,-0.966303,0.00391342,0.0397042,692,1135,-26.308,-0.781184
-525,-111,-26.2682,0.619629,0.00159835,0.00208535,-0.00497853,0.00682633,-0.00314263,-0.809834,0.0058851,0.0386833,699,1135,-26.2682,-0.619604
-518,-111,0,0,0,0,0,0,0,0,0,-1,706,1135,0,0
-511,-111,0,0,0,0,0,0,0,0,0,-1,713,1135,0,0
-504,-111,0,0,0,0,0,0,0,0,0,-1,720,1135,0,0
-497,-111,0,0,0,0,0,0,0,0,0,-1,727,1135,0,0
-490,-111,0,0,0,0,0,0,0,0,0,-1,734,1135,0,0
-483,-111,0,0,0,0,0,0,0,0,0,-1,741,1135,0,0
-476,-111,0,0,0,0,0,0,0,0,0,-1,748,1135,0,0
-469,-111,0,0,0,0,0,0,0,0,0,-1,755,1135,0,0
-462,-111,0,0,0,0,0,0,0,0,0,-1,762,1135,0,0
-455,-111,0,0,0,0,0,0,0,0,0,-1,769,1135,0,0
-448,-111,0,0,0,0,0,0,0,0,0,-1,776,1135,0,0
-441,-111,0,0,0,0,0,0,0,0,0,-1,783,1135,0,0
-434,-111,0,0,0,0,0,0,0,0,0,-1,790,1135,0,0
-427,-111,0,0,0,0,0,0,0,0,0,-1,797,1135,0,0
-420,-111,0,0,0,0,0,0,0,0,0,-1,804,1135,0,0
-413,-111,0,0,0,0,0,0,0,0,0,-1,811,1135,0,0
-406,-111,0,0,0,0,0,0,0,0,0,-1,818,1135,0,0
-399,-111,0,0,0,0,0,0,0,0,0,-1,825,1135,0,0
-392,-111,0,0,0,0,0,0,0,0,0,-1,832,1135,0,0
-385,-111,0,0,0,0,0,0,0,0,0,-1,839,1135,0,0
-378,-111,0,0,0,0,0,0,0,0,0,-1,846,1135,0,0
-371,-111,0,0,0,0,0,0,0,0,0,-1,853,1135,0,0
-364,-111,0,0,0,0,0,0,0,0,0,-1,860,1135,0,0
-357,-111,0,0,0,0,0,0,0,0,0,-1,867,1135,0,0
-350,-111,0,0,0,0,0,0,0,0,0,-1,874,1135,0,0
-343,-111,0,0,0,0,0,0,0,0,0,-1,881,1135,0,0
-336,-111,0,0,0,0,0,0,0,0,0,-1,888,1135,0,0
-329,-111,0,0,0,0,0,0,0,0,0,-1,895,1135,0,0
-322,-111,0,0,0,0,0,0,0,0,0,-1,902,1135,0,0
-315,-111,0,0,0,0,0,0,0,0,0,-1,909,1135,0,0
-308,-111,0,0,0,0,0,0,0,0,0,-1,916,1135,0,0
-301,-111,0,0,0,0,0,0,0,0,0,-1,923,1135,0,0
-294,-111,0,0,0,0,0,0,0,0,0,-1,930,1135,0,0
-287,-111,0,0,0,0,0,0,0,0,0,-1,937,1135,0,0
-280,-111,0,0,0,0,0,0,0,0,0,-1,944,1135,0,0
-273,-111,0,0,0,0,0,0,0,0,0,-1,951,1135,0,0
-266,-111,0,0,0,0,0,0,0,0,0,-1,958,1135,0,0
-259,-111,0,0,0,0,0,0,0,0,0,-1,965,1135,0,0
-252,-111,0,0,0,0,0,0,0,0,0,-1,972,1135,0,0
-245,-111,0,0,0,0,0,0,0,0,0,-1,979,1135,0,0
-238,-111,0,0,0,0,0,0,0,0,0,-1,986,1135,0,0
-231,-111,0,0,0,0,0,0,0,0,0,-1,993,1135,0,0
-224,-111,0,0,0,0,0,0,0,0,0,-1,1000,1135,0,0
-217,-111,0,0,0,0,0,0,0,0,0,-1,1007,1135,0,0
-210,-111,0,0,0,0,0,0,0,0,0,-1,1014,1135,0,0
-203,-111,0,0,0,0,0,0,0,0,0,-1,1021,1135,0,0
-196,-111,0,0,0,0,0,0,0,0,0,-1,1028,1135,0,0
-189,-111,0,0,0,0,0,0,0,0,0,-1,1035,1135,0,0
-182,-111,0,0,0,0,0,0,0,0,0,-1,1042,1135,0,0
-175,-111,0,0,0,0,0,0,0,0,0,-1,1049,1135,0,0
-168,-111,0,0,0,0,0,0,0,0,0,-1,1056,1135,0,0
-161,-111,0,0,0,0,0,0,0,0,0,-1,1063,1135,0,0
-154,-111,0,0,0,0,0,0,0,0,0,-1,1070,1135,0,0
-147,-111,0,0,0,0,0,0,0,0,0,-1,1077,1135,0,0
-140,-111,0,0,0,0,0,0,0,0,0,-1,1084,1135,0,0
-133,-111,0,0,0,0,0,0,0,0,0,-1,1091,1135,0,0
-126,-111,0,0,0,0,0,0,0,0,0,-1,1098,1135,0,0
-119,-111,0,0,0,0,0,0,0,0,0,-1,1105,1135,0,0
-112,-111,0,0,0,0,0,0,0,0,0,-1,1112,1135,0,0
-105,-111,0,0,0,0,0,0,0,0,0,-1,1119,1135,0,0
-98,-111,0,0,0,0,0,0,0,0,0,-1,1126,1135,0,0
-91,-111,0,0,0,0,0,0,0,0,0,-1,1133,1135,0,0
-84,-111,0,0,0,0,0,0,0,0,0,-1,1140,1135,0,0
-77,-111,0,0,0,0,0,0,0,0,0,-1,1147,1135,0,0
-70,-111,0,0,0,0,0,0,0,0,0,-1,1154,1135,0,0
-63,-111,0,0,0,0,0,0,0,0,0,-1,1161,1135,0,0
-56,-111,0,0,0,0,0,0,0,0,0,-1,1168,1135,0,0
-49,-111,0,0,0,0,0,0,0,0,0,-1,1175,1135,0,0
-42,-111,0,0,0,0,0,0,0,0,0,-1,1182,1135,0,0
-35,-111,0,0,0,0,0,0,0,0,0,-1,1189,1135,0,0
-28,-111,0,0,0,0,0,0,0,0,0,-1,1196,1135,0,0
-21,-111,0,0,0,0,0,0,0,0,0,-1,1203,1135,0,0
-14,-111,0,0,0,0,0,0,0,0,0,-1,1210,1135,0,0
-7,-111,0,0,0,0,0,0,0,0,0,-1,1217,1135,0,0
0,-111,0,0,0,0,0,0,0,0,0,-1,1224,1135,0,0
7,-111,0,0,0,0,0,0,0,0,0,-1,1231,1135,0,0
14,-111,0,0,0,0,0,0,0,0,0,-1,1238,1135,0,0
21,-111,0,0,0,0,0,0,0,0,0,-1,1245,1135,0,0
28,-111,0,0,0,0,0,0,0,0,0,-1,1252,1135,0,0
35,-111,0,0,0,0,0,0,0,0,0,-1,1259,1135,0,0
42,-111,0,0,0,0,0,0,0,0,0,-1,1266,1135,0,0
49,-111,0,0,0,0,0,0,0,0,0,-1,1273,1135,0,0
56,-111,0,0,0,0,0,0,0,0,0,-1,1280,1135,0,0
63,-111,0,0,0,0,0,0,0,0,0,-1,1287,1135,0,0
70,-111,0,0,0,0,0,0,0,0,0,-1,1294,1135,0,0
77,-111,0,0,0,0,0,0,0,0,0,-1,1301,1135,0,0
84,-111,0,0,0,0,0,0,0,0,0,-1,1308,1135,0,0
91,-111,0,0,0,0,0,0,0,0,0,-1,1315,1135,0,0
98,-111,0,0,0,0,0,0,0,0,0,-1,1322,1135,0,0
105,-111,0,0,0,0,0,0,0,0,0,-1,1329,1135,0,0
112,-111,0,0,0,0,0,0,0,0,0,-1,1336,1135,0,0
119,-111,0,0,0,0,0,0,0,0,0,-1,1343,1135,0,0
126,-111,0,0,0,0,0,0,0,0,0,-1,1350,1135,0,0
133,-111,0,0,0,0,0,0,0,0,0,-1,1357,1135,0,0
140,-111,0,0,0,0,0,0,0,0,0,-1,1364,1135,0,0
147,-111,0,0,0,0,0,0,0,0,0,-1,1371,1135,0,0
154,-111,0,0,0,0,0,0,0,0,0,-1,1378,1135,0,0
161,-111,0,0,0,0,0,0,0,0,0,-1,1385,1135,0,0
168,-111,0,0,0,0,0,0,0,0,0,-1,1392,1135,0,0
175,-111,0,0,0,0,0,0,0,0,0,-1,1399,1135,0,0
182,-111,0,0,0,0,0,0,0,0,0,-1,1406,1135,0,0
189,-111,0,0,0,0,0,0,0,0,0,-1,1413,1135,0,0
196,-111,0,0,0,0,0,0,0,0,0,-1,1420,1135,0,0
203,-111,0,0,0,0,0,0,0,0,0,-1,1427,1135,0,0
210,-111,0,0,0,0,0,0,0,0,0,-1,1434,1135,0,0
217,-111,0,0,0,0,0,0,0,0,0,-1,1441,1135,0,0
224,-111,0,0,0,0,0,0,0,0,0,-1,1448,1135,0,0
231,-111,0,0,0,0,0,0,0,0,0,-1,1455,1135,0,0
238,-111,0,0,0,0,0,0,0,0,0,-1,1462,1135,0,0
245,-111,0,0,0,0,0,0,0,0,0,-1,1469,1135,0,0
252,-111,0,0,0,0,0,0,0,0,0,-1,1476,1135,0,0
259,-111,0,0,0,0,0,0,0,0,0,-1,1483,1135,0,0
266,-111,0,0,0,0,0,0,0,0,0,-1,1490,1135,0,0
273,-111,0,0,0,0,0,0,0,0,0,-1,1497,1135,0,0
280,-111,0,0,0,0,0,0,0,0,0,-1,1504,1135,0,0
287,-111,0,0,0,0,0,0,0,0,0,-1,1511,1135,0,0
294,-111,0,0,0,0,0,0,0,0,0,-1,1518,1135,0,0
301,-111,0,0,0,0,0,0,0,0,0,-1,1525,1135,0,0
308,-111,0,0,0,0,0,0,0,0,0,-1,1532,1135,0,0
315,-111,0,0,0,0,0,0,0,0,0,-1,1539,1135,0,0
322,-111,0,0,0,0,0,0,0,0,0,-1,1546,1135,0,0
329,-111,0,0,0,0,0,0,0,0,0,-1,1553,1135,0,0
336,-111,0,0,0,0,0,0,0,0,0,-1,1560,1135,0,0
343,-111,0,0,0,0,0,0,0,0,0,-1,1567,1135,0,0
350,-111,0,0,0,0,0,0,0,0,0,-1,1574,1135,0,0
357,-111,0,0,0,0,0,0,0,0,0,-1,1581,1135,0,0
364,-111,0,0,0,0,0,0,0,0,0,-1,1588,1135,0,0
371,-111,0,0,0,0,0,0,0,0,0,-1,1595,1135,0,0
378,-111,0,0,0,0,0,0,0,0,0,-1,1602,1135,0,0
385,-111,0,0,0,0,0,0,0,0,0,-1,1609,1135,0,0
392,-111,0,0,0,0,0,0,0,0,0,-1,1616,1135,0,0
399,-111,0,0,0,0,0,0,0,0,0,-1,1623,1135,0,0
406,-111,0,0,0,0,0,0,0,0,0,-1,1630,1135,0,0
413,-111,0,0,0,0,0,0,0,0,0,-1,1637,1135,0,0
420,-111,0,0,0,0,0,0,0,0,0,-1,1644,1135,0,0
427,-111,0,0,0,0,0,0,0,0,0,-1,1651,1135,0,0
434,-111,0,0,0,0,0,0,0,0,0,-1,1658,1135,0,0
441,-111,0,0,0,0,0,0,0,0,0,-1,1665,1135,0,0
448,-111,0,0,0,0,0,0,0,0,0,-1,1672,1135,0,0
455,-111,0,0,0,0,0,0,0,0,0,-1,1679,1135,0,0
462,-111,0,0,0,0,0,0,0,0,0,-1,1686,1135,0,0
469,-111,0,0,0,0,0,0,0,0,0,-1,1693,1135,0,0
476,-111,0,0,0,0,0,0,0,0,0,-1,1700,1135,0,0
483,-111,0,0,0,0,0,0,0,0,0,-1,1707,1135,0,0
490,-111,0,0,0,0,0,0,0,0,0,-1,1714,1135,0,0
497,-111,0,0,0,0,0,0,0,0,0,-1,1721,1135,0,0
504,-111,0,0,0,0,0,0,0,0,0,-1,1728,1135,0,0
511,-111,0,0,0,0,0,0,0,0,0,-1,1735,1135,0,0
518,-111,0,0,0,0,0,0,0,0,0,-1,1742,1135,0,0
525,-111,0,0,0,0,0,0,0,0,0,-1,1749,1135,0,0
532,-111,0,0,0,0,0,0,0,0,0,-1,1756,1135,0,0
539,-111,0,0,0,0,0,0,0,0,0,-1,1763,1135,0,0
546,-111,0,0,0,0,0,0,0,0,0,-1,1770,1135,0,0
553,-111,0,0,0,0,0,0,0,0,0,-1,1777,1135,0,0
560,-111,0,0,0,0,0,0,0,0,0,-1,1784,1135,0,0
567,-111,0,0,0,0,0,0,0,0,0,-1,1791,1135,0,0
574,-111,0,0,0,0,0,0,0,0,0,-1,1798,1135,0,0
581,-111,0,0,0,0,0,0,0,0,0,-1,1805,1135,0,0
588,-111,0,0,0,0,0,0,0,0,0,-1,1812,1135,0,0
595,-111,0,0,0,0,0,0,0,0,0,-1,1819,1135,0,0
602,-111,0,0,0,0,0,0,0,0,0,-1,1826,1135,0,0
609,-111,0,0,0,0,0,0,0,0,0,-1,1833,1135,0,0
616,-111,0,0,0,0,0,0,0,0,0,-1,1840,1135,0,0
623,-111,0,0,0,0,0,0,0,0,0,-1,1847,1135,0,0
630,-111,0,0,0,0,0,0,0,0,0,-1,1854,1135,0,0
637,-111,0,0,0,0,0,0,0,0,0,-1,1861,1135,0,0
644,-111,35.7544,3.17578,0.00539061,-0.00579051,-0.00147775,0.00558262,-0.00598252,-0.12921,0.00667847,0.0405702,1868,1135,35.7543,-3.17577
651,-111,35.8838,3.14307,0.00411438,-0.0044022,-0.000942385,0.00421741,-0.00450523,-0.108898,0.00503693,0.0416323,1875,1135,35.8838,-3.14312
658,-111,36.033,2.81519,0.00329528,-0.00336583,-0.000716709,0.00337152,-0.00344207,-0.10598,0.0039339,0.0427554,1882,1135,36.0329,-2.81514
665,-111,36.1002,2.78186,0.00265788,-0.0024821,-0.000627193,0.0027333,-0.00255752,-0.119683,0.00305522,0.0438171,1889,1135,36.1002,-2.78183
672,-111,36.1377,2.6582,0.00217486,-0.00180066,-0.000567397,0.00225425,-0.00188005,-0.139026,0.0023902,0.0444564,1896,1135,36.1377,-2.65823
679,-111,36.1296,2.66345,0.00143806,-0.00136848,-0.000443785,0.00150656,-0.00143698,-0.153149,0.00169961,0.0407447,1903,1135,36.1296,-2.6635
686,-111,36.0455,2.65674,0.000752157,-0.00114051,-0.000293562,0.000796644,-0.001185,-0.150399,0.0011514,0.0363311,1910,1135,36.0455,-2.65673
693,-111,36.073,2.75671,0.000305634,-0.000943673,-0.000145005,0.000322244,-0.000960283,-0.114049,0.000770405,0.0355496,1917,1135,36.073,-2.75674
700,-111,36.1595,2.69055,-0.000239128,-0.000734031,1.97345e-06,-0.00023912,-0.000734039,0.00398747,0.00043229,0.0267102,1924,1135,36.1596,-2.69054
707,-111,36.0758,2.49194,0,0,0,0,0,0,0,-1,1931,1135,36.0758,-2.49198
714,-111,33.8866,6.13428,0,0,0,0,0,0,0,-1,1938,1135,33.8866,-6.13432
721,-111,33.6335,5.97253,-0.00136984,-0.000350141,0.00071396,1.73271e-05,-0.0017373,1.09547,0.00116402,0.02131,1945,1135,33.6336,-5.97252
728,-111,33.6136,5.74243,-0.00172753,-0.000161411,0.000957441,0.00029241,-0.00218135,1.12817,0.00156086,0.0196361,1952,1135,33.6137,-5.74246
735,-111,33.6301,5.49805,-0.00189183,0.000150479,0.0012507,0.000743944,-0.0024853,1.12775,0.00195267,0.018874,1959,1135,33.6301,-5.49801
742,-111,33.5922,5.32983,-0.00163389,0.000422358,0.00165829,0.00134538,-0.00255691,1.06289,0.0022889,0.0126347,1966,1135,33.5921,-5.32986
749,-111,33.542,5.13025,-0.00119183,0.000397946,0.00198791,0.001744,-0.00253788,0.975592,0.00248627,0.0148576,1973,1135,33.542,-5.13024
756,-111,33.5308,4.88538,-0.000425144,4.2024e-05,0.0019698,0.00179204,-0.00217516,0.844414,0.00229402,0.0150241,1980,1135,33.5308,-4.88538
763,-111,33.5486,4.65198,0.00085279,-0.000874904,0.00153209,0.00174779,-0.0017699,0.528697,0.00203095,0.0131633,1987,1135,33.5485,-4.65203
770,-111,33.5355,4.43909,0.00234109,-0.00205513,0.000945925,0.00253598,-0.00225002,0.203191,0.00276484,0.0119826,1994,1135,33.5355,-4.43903
777,-111,33.4569,4.25928,0.00388117,-0.00382021,2.83232e-05,0.00388128,-0.00382031,0.00367761,0.00444656,0.0235046,2001,1135,33.4569,-4.25927
784,-111,33.6063,4.32532,0.00549862,-0.00643712,-0.0013879,0.00565788,-0.00659638,-0.11425,0.00708192,0.0388099,2008,1135,33.6063,-4.32534
791,-111,33.7781,4.44971,0.0070799,-0.0101242,-0.00352564,0.00777438,-0.0108187,-0.194489,0.0107826,0.0455905,2015,1135,33.7781,-4.44969
798,-111,33.8618,4.52502,0,0,0,0,0,0,0,-1,2022,1135,33.8618,-4.52506
805,-111,34.4033,3.17566,0.0101746,-0.0213745,-0.0109918,0.0136265,-0.0248264,-0.304289,0.0225125,0.0456654,2029,1135,34.4033,-3.17571
812,-111,34.3945,2.71069,0.0111316,-0.0292559,-0.0168519,0.0172395,-0.0353638,-0.347716,0.0309655,0.0459269,2036,1135,34.3946,-2.71065
-700,-118,0,0,0,0,0,0,0,0,0,-1,524,1142,0,0
-693,-118,-24.4913,-1.5365,0,0,0,0,0,0,0,-1,531,1142,-24.4913,1.53645
-686,-118,-24.8726,-1.20117,0,0,0,0,0,0,0,-1,538,1142,-24.8726,1.20116
-679,-118,-23.0966,-0.702148,0,0,0,0,0,0,0,-1,545,1142,-23.0966,0.702148
-672,-118,-23.5986,-0.0214844,0,0,0,0,0,0,0,-1,552,1142,-23.5986,0.0214328
-665,-118,-24.1865,0.672241,0,0,0,0,0,0,0,-1,559,1142,-24.1865,-0.672268
-658,-118,-23.1457,0.256104,0,0,0,0,0,0,0,-1,566,1142,-23.1457,-0.256076
-651,-118,-23.1336,0.847778,-0.00104718,0.0169712,-0.00405957,0.0178436,-0.00191957,-1.35912,0.0125845,0.0393937,573,1142,-23.1336,-0.847814
-644,-118,-23.1865,1.45667,-0.00097225,0.0118106,-0.00328118,0.0126036,-0.00176528,-1.33365,0.00904843,0.0272292,580,1142,-23.1865,-1.45667
-637,-118,-23.2856,1.7439,-0.00060963,0.0076492,-0.00278321,0.00849958,-0.00146001,-1.27427,0.00621053,0.0161888,587,1142,-23.2857,-1.74395
-630,-118,-23.2976,1.98364,-0.000467252,0.00409276,-0.0020671,0.00489031,-0.0012648,-1.20257,0.00375352,0.0202006,594,1142,-23.2976,-1.98361
-623,-118,-23.2839,2.25232,-9.48102e-05,0.00162091,-0.0014004,0.00240532,-0.00087922,-1.06021,0.00196338,0.0164856,601,1142,-23.2839,-2.25236
-616,-118,-23.3312,2.49927,9.1437e-05,0.000292229,-0.000357277,0.000562948,-0.000179282,-0.922368,0.000447203,0.0155878,608,1142,-23.3313,-2.49931
-609,-118,-23.4697,2.67249,0.000472573,-0.000263888,-6.46582e-05,0.000478206,-0.000269522,-0.0869098,0.00043727,0.0258503,615,1142,-23.4697,-2.67243
-602,-118,-23.4346,3.08643,0.000566441,-0.000161596,3.44184e-05,0.000568064,-0.00016322,0.0471355,0.000443249,0.0252485,622,1142,-23.4346,-3.08639
-595,-118,-23.5048,3.31238,0.000268346,8.96572e-05,0.000235539,0.000430916,-7.29131e-05,0.604123,0.000314413,0.0206067,629,1142,-23.5048,-3.31242
-588,-118,-23.1686,3.63623,-0.000150058,0.000212485,0.000422687,0.000491131,-0.000428704,0.987964,0.000531474,0.0433295,636,1142,-23.1686,-3.63625
-581,-118,-22.8632,3.81177,0,0,0,0,0,0,0,-1,643,1142,-22.8632,-3.81173
-574,-118,-26.0295,0.549194,0,0,0,0,0,0,0,-1,650,1142,-26.0296,-0.549194
-567,-118,-26.0084,0.654541,-0.000418442,0.00056486,0.000644012,0.000883439,-0.000737021,1.11142,0.000936845,0.0434498,657,1142,-26.0084,-0.654558
-560,-118,-26.0906,0.81189,-0.000643003,0.000908763,0.000723868,0.001194,-0.000928242,1.19543,0.00122848,0.0368396,664,1142,-26.0906,-0.811863
-553,-118,-25.9985,0.782349,-0.00106903,0.00141532,0.000612407,0.00155808,-0.00121179,1.34178,0.00160335,0.0394437,671,1142,-25.9985,-0.78236
-546,-118,-25.9052,0.689453,-0.00144679,0.0020115,6.36563e-05,0.00201267,-0.00144796,1.5524,0.00200684,0.0412978,678,1142,-25.9052,-0.689398
-539,-118,-26.0351,0.702759,-0.00113041,0.0025279,-0.000871523,0.00272492,-0.00132742,-1.34848,0.00238554,0.0427389,685,1142,-26.0351,-0.702778
-532,-118,-26.2614,0.812988,0.00040888,0.00271962,-0.00213322,0.00399026,-0.000861755,-1.03359,0.00298912,0.0407032,692,1142,-26.2614,-0.813013
-525,-118,-26.2313,0.651367,0.00232203,0.00270986,-0.00365375,0.00617484,-0.00114295,-0.81191,0.00454569,0.0414377,699,1142,-26.2312,-0.651381
-518,-118,0,0,0,0,0,0,0,0,0,-1,706,1142,0,0
-511,-118,0,0,0,0,0,0,0,0,0,-1,713,1142,0,0
-504,-118,0,0,0,0,0,0,0,0,0,-1,720,1142,0,0
-497,-118,0,0,0,0,0,0,0,0,0,-1,727,1142,0,0
-490,-118,0,0,0,0,0,0,0,0,0,-1,734,1142,0,0
-483,-118,0,0,0,0,0,0,0,0,0,-1,741,1142,0,0
-476,-118,0,0,0,0,0,0,0,0,0,-1,748,1142,0,0
-469,-118,0,0,0,0,0,0,0,0,0,-1,755,1142,0,0
-462,-118,0,0,0,0,0,0,0,0,0,-1,762,1142,0,0
-455,-118,0,0,0,0,0,0,0,0,0,-1,769,1142,0,0
-448,-118,0,0,0,0,0,0,0,0,0,-1,776,1142,0,0
-441,-118,0,0,0,0,0,0,0,0,0,-1,783,1142,0,0
-434,-118,0,0,0,0,0,0,0,0,0,-1,790,1142,0,0
-427,-118,0,0,0,0,0,0,0,0,0,-1,797,1142,0,0
-420,-118,0,0,0,0,0,0,0,0,0,-1,804,1142,0,0
-413,-118,0,0,0,0,0,0,0,0,0,-1,811,1142,0,0
-406,-118,0,0,0,0,0,0,0,0,0,-1,818,1142,0,0
-399,-118,0,0,0,0,0,0,0,0,0,-1,825,1142,0,0
-392,-118,0,0,0,0,0,0,0,0,0,-1,832,1142,0,0
-385,-118,0,0,0,0,0,0,0,0,0,-1,839,1142,0,0
-378,-118,0,0,0,0,0,0,0,0,0,-1,846,1142,0,0
-371,-118,0,0,0,0,0,0,0,0,0,-1,853,1142,0,0
-364,-118,0,0,0,0,0,0,0,0,0,-1,860,1142,0,0
-357,-118,0,0,0,0,0,0,0,0,0,-1,867,1142,0,0
-350,-118,0,0,0,0,0,0,0,0,0,-1,874,1142,0,0
-343,-118,0,0,0,0,0,0,0,0,0,-1,881,1142,0,0
-336,-118,0,0,0,0,0,0,0,0,0,-1,888,1142,0,0
-329,-118,0,0,0,0,0,0,0,0,0,-1,895,1142,0,0
-322,-118,0,0,0,0,0,0,0,0,0,-1,902,1142,0,0
-315,-118,0,0,0,0,0,0,0,0,0,-1,909,1142,0,0
-308,-118,0,0,0,0,0,0,0,0,0,-1,916,1142,0,0
-301,-118,0,0,0,0,0,0,0,0,0,-1,923,1142,0,0
-294,-118,0,0,0,0,0,0,0,0,0,-1,930,1142,0,0
-287,-118,0,0,0,0,0,0,0,0,0,-1,937,1142,0,0
-280,-118,0,0,0,0,0,0,0,0,0,-1,944,1142,0,0
-273,-118,0,0,0,0,0,0,0,0,0,-1,951,1142,0,0
-266,-118,0,0,0,0,0,0,0,0,0,-1,958,1142,0,0
-259,-118,0,0,0,0,0,0,0,0,0,-1,965,1142,0,0
-252,-118,0,0,0,0,0,0,0,0,0,-1,972,1142,0,0
-245,-118,0,0,0,0,0,0,0,0,0,-1,979,1142,0,0
-238,-118,0,0,0,0,0,0,0,0,0,-1,986,1142,0,0
-231,-118,0,0,0,0,0,0,0,0,0,-1,993,1142,0,0
-224,-118,0,0,0,0,0,0,0,0,0,-1,1000,1142,0,0
-217,-118,0,0,0,0,0,0,0,0,0,-1,1007,1142,0,0
-210,-118,0,0,0,0,0,0,0,0,0,-1,1014,1142,0,0
-203,-118,0,0,0,0,0,0,0,0,0,-1,1021,1142,0,0
-196,-118,0,0,0,0,0,0,0,0,0,-1,1028,1142,0,0
-189,-118,0,0,0,0,0,0,0,0,0,-1,1035,1142,0,0
-182,-118,0,0,0,0,0,0,0,0,0,-1,1042,1142,0,0
-175,-118,0,0,0,0,0,0,0,0,0,-1,1049,1142,0,0
-168,-118,0,0,0,0,0,0,0,0,0,-1,1056,1142,0,0
-161,-118,0,0,0,0,0,0,0,0,0,-1,1063,1142,0,0
-154,-118,0,0,0,0,0,0,0,0,0,-1,1070,1142,0,0
-147,-118,0,0,0,0,0,0,0,0,0,-1,1077,1142,0,0
-140,-118,0,0,0,0,0,0,0,0,0,-1,1084,1142,0,0
-133,-118,0,0,0,0,0,0,0,0,0,-1,1091,1142,0,0
-126,-118,0,0,0,0,0,0,0,0,0,-1,1098,1142,0,0
-119,-118,0,0,0,0,0,0,0,0,0,-1,1105,1142,0,0
-112,-118,0,0,0,0,0,0,0,0,0,-1,1112,1142,0,0
-105,-118,0,0,0,0,0,0,0,0,0,-1,1119,1142,0,0
-98,-118,0,0,0,0,0,0,0,0,0,-1,1126,1142,0,0
-91,-118,0,0,0,0,0,0,0,0,0,-1,1133,1142,0,0
-84,-118,0,0,0,0,0,0,0,0,0,-1,1140,1142,0,0
-77,-118,0,0,0,0,0,0,0,0,0,-1,1147,1142,0,0
-70,-118,0,0,0,0,0,0,0,0,0,-1,1154,1142,0,0
-63,-118,0,0,0,0,0,0,0,0,0,-1,1161,1142,0,0
-56,-118,0,0,0,0,0,0,0,0,0,-1,1168,1142,0,0
-49,-118,0,0,0,0,0,0,0,0,0,-1,1175,1142,0,0
-42,-118,0,0,0,0,0,0,0,0,0,-1,1182,1142,0,0
-35,-118,0,0,0,0,0,0,0,0,0,-1,1189,1142,0,0
-28,-118,0,0,0,0,0,0,0,0,0,-1,1196,1142,0,0
-21,-118,0,0,0,0,0,0,0,0,0,-1,1203,1142,0,0
-14,-118,0,0,0,0,0,0,0,0,0,-1,1210,1142,0,0
-7,-118,0,0,0,0,0,0,0,0,0,-1,1217,1142,0,0
0,-118,0,0,0,0,0,0,0,0,0,-1,1224,1142,0,0
7,-118,0,0,0,0,0,0,0,0,0,-1,1231,1142,0,0
14,-118,0,0,0,0,0,0,0,0,0,-1,1238,1142,0,0
21,-118,0,0,0,0,0,0,0,0,0,-1,1245,1142,0,0
28,-118,0,0,0,0,0,0,0,0,0,-1,1252,1142,0,0
35,-118,0,0,0,0,0,0,0,0,0,-1,1259,1142,0,0
42,-118,0,0,0,0,0,0,0,0,0,-1,1266,1142,0,0
49,-118,0,0,0,0,0,0,0,0,0,-1,1273,1142,0,0
56,-118,0,0,0,0,0,0,0,0,0,-1,1280,1142,0,0
63,-118,0,0,0,0,0,0,0,0,0,-1,1287,1142,0,0
70,-118,0,0,0,0,0,0,0,0,0,-1,1294,1142,0,0
77,-118,0,0,0,0,0,0,0,0,0,-1,1301,1142,0,0
84,-118,0,0,0,0,0,0,0,0,0,-1,1308,1142,0,0
91,-118,0,0,0,0,0,0,0,0,0,-1,1315,1142,0,0
98,-118,0,0,0,0,0,0,0,0,0,-1,1322,1142,0,0
105,-118,0,0,0,0,0,0,0,0,0,-1,1329,1142,0,0
112,-118,0,0,0,0,0,0,0,0,0,-1,1336,1142,0,0
119,-118,0,0,0,0,0,0,0,0,0,-1,1343,1142,0,0
126,-118,0,0,0,0,0,0,0,0,0,-1,1350,1142,0,0
133,-118,0,0,0,0,0,0,0,0,0,-1,1357,1142,0,0
140,-118,0,0,0,0,0,0,0,0,0,-1,1364,1142,0,0
147,-118,0,0,0,0,0,0,0,0,0,-1,1371,1142,0,0
154,-118,0,0,0,0,0,0,0,0,0,-1,1378,1142,0,0
161,-118,0,0,0,0,0,0,0,0,0,-1,1385,1142,0,0
168,-118,0,0,0,0,0,0,0,0,0,-1,1392,1142,0,0
175,-118,0,0,0,0,0,0,0,0,0,-1,1399,1142,0,0
182,-118,0,0,0,0,0,0,0,0,0,-1,1406,1142,0,0
189,-118,0,0,0,0,0,0,0,0,0,-1,1413,1142,0,0
196,-118,0,0,0,0,0,0,0,0,0,-1,1420,1142,0,0
203,-118,0,0,0,0,0,0,0,0,0,-1,1427,1142,0,0
210,-118,0,0,0,0,0,0,0,0,0,-1,1434,1142,0,0
217,-118,0,0,0,0,0,0,0,0,0,-1,1441,1142,0,0
224,-118,0,0,0,0,0,0,0,0,0,-1,1448,1142,0,0
231,-118,0,0,0,0,0,0,0,0,0,-1,1455,1142,0,0
238,-118,0,0,0,0,0,0,0,0,0,-1,1462,1142,0,0
245,-118,0,0,0,0,0,0,0,0,0,-1,1469,1142,0,0
252,-118,0,0,0,0,0,0,0,0,0,-1,1476,1142,0,0
259,-118,0,0,0,0,0,0,0,0,0,-1,1483,1142,0,0
266,-118,0,0,0,0,0,0,0,0,0,-1,1490,1142,0,0
273,-118,0,0,0,0,0,0,0,0,0,-1,1497,1142,0,0
280,-118,0,0,0,0,0,0,0,0,0,-1,1504,1142,0,0
287,-118,0,0,0,0,0,0,0,0,0,-1,1511,1142,0,0
294,-118,0,0,0,0,0,0,0,0,0,-1,1518,1142,0,0
301,-118,0,0,0,0,0,0,0,0,0,-1,1525,1142,0,0
308,-118,0,0,0,0,0,0,0,0,0,-1,1532,1142,0,0
315,-118,0,0,0,0,0,0,0,0,0,-1,1539,1142,0,0
322,-118,0,0,0,0,0,0,0,0,0,-1,1546,1142,0,0
329,-118,0,0,0,0,0,0,0,0,0,-1,1553,1142,0,0
336,-118,0,0,0,0,0,0,0,0,0,-1,1560,1142,0,0
343,-118,0,0,0,0,0,0,0,0,0,-1,1567,1142,0,0
350,-118,0,0,0,0,0,0,0,0,0,-1,1574,1142,0,0
357,-118,0,0,0,0,0,0,0,0,0,-1,1581,1142,0,0
364,-118,0,0,0,0,0,0,0,0,0,-1,1588,1142,0,0
371,-118,0,0,0,0,0,0,0,0,0,-1,1595,1142,0,0
378,-118,0,0,0,0,0,0,0,0,0,-1,1602,1142,0,0
385,-118,0,0,0,0,0,0,0,0,0,-1,1609,1142,0,0
392,-118,0,0,0,0,0,0,0,0,0,-1,1616,1142,0,0
399,-118,0,0,0,0,0,0,0,0,0,-1,1623,1142,0,0
406,-118,0,0,0,0,0,0,0,0,0,-1,1630,1142,0,0
413,-118,0,0,0,0,0,0,0,0,0,-1,1637,1142,0,0
420,-118,0,0,0,0,0,0,0,0,0,-1,1644,1142,0,0
427,-118,0,0,0,0,0,0,0,0,0,-1,1651,1142,0,0
434,-118,0,0,0,0,0,0,0,0,0,-1,1658,1142,0,0
441,-118,0,0,0,0,0,0,0,0,0,-1,1665,1142,0,0
448,-118,0,0,0,0,0,0,0,0,0,-1,1672,1142,0,0
455,-118,0,0,0,0,0,0,0,0,0,-1,1679,1142,0,0
462,-118,0,0,0,0,0,0,0,0,0,-1,1686,1142,0,0
469,-118,0,0,0,0,0,0,0,0,0,-1,1693,1142,0,0
476,-118,0,0,0,0,0,0,0,0,0,-1,1700,1142,0,0
483,-118,0,0,0,0,0,0,0,0,0,-1,1707,1142,0,0
490,-118,0,0,0,0,0,0,0,0,0,-1,1714,1142,0,0
497,-118,0,0,0,0,0,0,0,0,0,-1,1721,1142,0,0
504,-118,0,0,0,0,0,0,0,0,0,-1,1728,1142,0,0
511,-118,0,0,0,0,0,0,0,0,0,-1,1735,1142,0,0
518,-118,0,0,0,0,0,0,0,0,0,-1,1742,1142,0,0
525,-118,0,0,0,0,0,0,0,0,0,-1,1749,1142,0,0
532,-118,0,0,0,0,0,0,0,0,0,-1,1756,1142,0,0
539,-118,0,0,0,0,0,0,0,0,0,-1,1763,1142,0,0
546,-118,0,0,0,0,0,0,0,0,0,-1,1770,1142,0,0
553,-118,0,0,0,0,0,0,0,0,0,-1,1777,1142,0,0
560,-118,0,0,0,0,0,0,0,0,0,-1,1784,1142,0,0
567,-118,0,0,0,0,0,0,0,0,0,-1,1791,1142,0,0
574,-118,0,0,0,0,0,0,0,0,0,-1,1798,1142,0,0
581,-118,0,0,0,0,0,0,0,0,0,-1,1805,1142,0,0
588,-118,0,0,0,0,0,0,0,0,0,-1,1812,1142,0,0
595,-118,0,0,0,0,0,0,0,0,0,-1,1819,1142,0,0
602,-118,0,0,0,0,0,0,0,0,0,-1,1826,1142,0,0
609,-118,0,0,0,0,0,0,0,0,0,-1,1833,1142,0,0
616,-118,0,0,0,0,0,0,0,0,0,-1,1840,1142,0,0
623,-118,0,0,0,0,0,0,0,0,0,-1,1847,1142,0,0
630,-118,0,0,0,0,0,0,0,0,0,-1,1854,1142,0,0
637,-118,0,0,0,0,0,0,0,0,0,-1,1861,1142,0,0
644,-118,35.8464,3.16638,0.00486072,-0.00575747,-0.00129781,0.00501704,-0.00591379,-0.119874,0.006318,0.0423563,1868,1142,35.8464,-3.16636
651,-118,36.1987,2.93347,0.00372151,-0.0043013,-0.000795568,0.00379964,-0.00437943,-0.097893,0.00472614,0.0414471,1875,1142,36.1987,-2.93346
658,-118,36.2075,2.78015,0.00298977,-0.00314659,-0.000622748,0.00305233,-0.00320915,-0.100125,0.00361544,0.0433028,1882,1142,36.2075,-2.78018
665,-118,36.1377,2.80762,0.00241902,-0.00213261,-0.000607499,0.00249871,-0.0022123,-0.130427,0.00272158,0.043706,1889,1142,36.1377,-2.80762
672,-118,36.0376,2.93652,0.0020036,-0.00133483,-0.000624921,0.00211674,-0.00144798,-0.179113,0.00207013,0.0457234,1896,1142,36.0376,-2.93648
679,-118,36.1261,2.93457,0.00127351,-0.000845319,-0.000546389,0.00140611,-0.00097792,-0.238082,0.0013838,0.0413279,1903,1142,36.1261,-2.93458
686,-118,36.0636,2.828,0.000562919,-0.000603435,-0.000413198,0.000694464,-0.00073498,-0.308214,0.000825401,0.0340698,1910,1142,36.0635,-2.828
693,-118,36.0471,2.79199,0.000110321,-0.000410174,-0.000268942,0.000224317,-0.00052417,-0.400913,0.000443548,0.0309033,1917,1142,36.0471,-2.792
700,-118,36.1259,2.71399,-0.00042126,-0.000230278,-0.000111347,-0.000179083,-0.000472455,-1.13984,0.000275419,0.0189225,1924,1142,36.1258,-2.71402
707,-118,36.1838,2.75525,0,0,0,0,0,0,0,-1,1931,1142,36.1838,-2.7553
714,-118,33.4703,6.31653,0,0,0,0,0,0,0,-1,1938,1142,33.4704,-6.31654
721,-118,33.3586,6.04932,-0.00155256,9.83517e-06,0.000611862,0.000220931,-0.00176365,1.23858,0.00125591,0.0161831,1945,1142,33.3586,-6.0493
728,-118,33.3582,5.79077,-0.00192091,0.000102979,0.000874267,0.000428336,-0.00224627,1.21453,0.00165883,0.0180054,1952,1142,33.3582,-5.79075
735,-118,33.3467,5.56873,-0.00218571,0.000368394,0.00119647,0.000841311,-0.00265863,1.19438,0.00210954,0.0166103,1959,1142,33.3467,-5.56874
742,-118,33.3627,5.38367,-0.00206475,0.000750502,0.00170967,0.00155746,-0.0028717,1.1298,0.00259443,0.0215447,1966,1142,33.3627,-5.38367
749,-118,33.3289,5.12109,-0.0017995,0.00100541,0.00220984,0.00222026,-0.00301435,1.06815,0.00303377,0.0192795,1973,1142,33.3288,-5.12115
756,-118,33.308,4.86707,-0.00119609,0.00100757,0.00242425,0.00256864,-0.00275716,0.998694,0.0030755,0.0160358,1980,1142,33.308,-4.86703
763,-118,33.3352,4.64893,-0.000164803,0.00063514,0.00221977,0.00249069,-0.00202035,0.874535,0.00260916,0.00930749,1987,1142,33.3352,-4.64899
770,-118,33.2893,4.44983,0.000936935,0.000223325,0.00196649,0.00257873,-0.00141847,0.695653,0.00233997,0.0134523,1994,1142,33.2893,-4.44988
777,-118,33.2126,4.26599,0.00203278,-0.000634066,0.00142177,0.00264857,-0.00124986,0.408726,0.00229854,0.0279063,2001,1142,33.2126,-4.26602
784,-118,33.4246,4.25952,0.00313692,-0.00215226,0.000427647,0.00317127,-0.00218661,0.0801593,0.00311074,0.0448215,2008,1142,33.4245,-4.25958
791,-118,33.677,4.52112,0.00415404,-0.00457673,-0.00124928,0.00432928,-0.00475197,-0.139364,0.00524496,0.0491029,2015,1142,33.6769,-4.52114
798,-118,32.9512,4.82813,0,0,0,0,0,0,0,-1,2022,1142,32.9512,-4.82807
805,-118,34.2983,3.65967,0.00622489,-0.013102,-0.00786338,0.00901997,-0.0158971,-0.341526,0.0145674,0.0496438,2029,1142,34.2984,-3.65962
812,-118,34.3813,3.1095,0.00690541,-0.0198353,-0.0134805,0.0125216,-0.0254515,-0.394749,0.0223434,0.0480008,2036,1142,34.3814,-3.10955
-700,-125,0,0,0,0,0,0,0,0,0,-1,524,1149,0,0
-693,-125,-24.6495,-1.77197,0,0,0,0,0,0,0,-1,531,1149,-24.6495,1.77193
-686,-125,-20.922,-1.7572,0,0,0,0,0,0,0,-1,538,1149,-20.922,1.75723
-679,-125,-21.4481,-1.10425,0,0,0,0,0,0,0,-1,545,1149,-21.4481,1.10422
-672,-125,-25.1243,3.15942,0,0,0,0,0,0,0,-1,552,1149,-25.1243,-3.15947
-665,-125,-22.4246,1.25122,0,0,0,0,0,0,0,-1,559,1149,-22.4246,-1.25121
-658,-125,-22.733,0.821167,0,0,0,0,0,0,0,-1,566,1149,-22.733,-0.821198
-651,-125,-22.7973,1.14075,-0.000429027,0.0218732,-0.00646495,0.0236118,-0.00216755,-1.3081,0.0165112,0.0382215,573,1149,-22.7973,-1.1407
-644,-125,-22.9161,1.44958,-0.000561266,0.0151885,-0.00500726,0.0166457,-0.00201839,-1.28761,0.0118275,0.0243482,580,1149,-22.9161,-1.44964
-637,-125,-22.9838,1.72095,-0.000394584,0.00980665,-0.00392077,0.0111394,-0.00172738,-1.24312,0.008064,0.0135524,587,1149,-22.9838,-1.72093
-630,-125,-22.9874,1.9928,-0.000431449,0.00517619,-0.00269547,0.00626171,-0.00151697,-1.18795,0.00476137,0.0154733,594,1149,-22.9874,-1.99279
-623,-125,-22.989,2.27698,-0.000241939,0.00202929,-0.00164412,0.00289186,-0.00110451,-1.08763,0.00238299,0.0132562,601,1149,-22.989,-2.27704
-616,-125,-23.0018,2.5293,-0.000163818,0.000337006,-0.000455127,0.000606062,-0.000432874,-1.0369,0.000602602,0.0152686,608,1149,-23.0018,-2.52924
-609,-125,-23.1161,2.70642,0.000198554,-0.000317011,-0.000201048,0.000267684,-0.000386142,-0.331186,0.000379546,0.0284563,615,1149,-23.1162,-2.70648
-602,-125,-23.1528,3.09924,0.000233863,-0.000284498,-0.000144948,0.000271641,-0.000322276,-0.25496,0.000343313,0.024859,622,1149,-23.1528,-3.0993
-595,-125,-23.3358,3.51636,0,0,0,0,0,0,0,-1,629,1149,-23.3358,-3.51641
-588,-125,-22.8651,3.75745,0,0,0,0,0,0,0,-1,636,1149,-22.8651,-3.75749
-581,-125,-22.5469,4.08875,0,0,0,0,0,0,0,-1,643,1149,-22.5469,-4.08875
-574,-125,-26.0337,0.688599,0,0,0,0,0,0,0,-1,650,1149,-26.0337,-0.688654
-567,-125,-26.0432,0.742676,-0.000776745,-4.58969e-05,0.000532354,0.000234384,-0.00105703,1.08618,0.000794423,0.0408441,657,1149,-26.0432,-0.742695
-560,-125,-26.1239,0.810913,-0.000983393,0.000162933,0.000645302,0.000452864,-0.00127332,1.14853,0.00103346,0.0378724,664,1149,-26.1239,-0.81087
-553,-125,-26.2014,0.791748,-0.00135125,0.000548354,0.000631081,0.000738897,-0.00154179,1.27757,0.00134368,0.0392719,671,1149,-26.2014,-0.791709
-546,-125,-26.0477,0.549683,-0.00160011,0.00106041,0.000273708,0.00108828,-0.00162798,1.46933,0.00157852,0.0407717,678,1149,-26.0477,-0.549693
-539,-125,-26.3063,0.979736,-0.00122995,0.00159189,-0.000336012,0.00163134,-0.00126941,-1.4539,0.00167909,0.0421402,685,1149,-26.3063,-0.979735
-532,-125,-26.3487,0.990723,0.000342917,0.00190864,-0.00120467,0.00256247,-0.000310918,-1.07354,0.00182082,0.0414139,692,1149,-26.3487,-0.990758
-525,-125,-26.1671,0.813599,0.0024359,0.00195939,-0.00238665,0.00459616,-0.000200865,-0.735648,0.00313321,0.0429203,699,1149,-26.1671,-0.813641
-518,-125,0,0,0,0,0,0,0,0,0,-1,706,1149,0,0
-511,-125,0,0,0,0,0,0,0,0,0,-1,713,1149,0,0
-504,-125,0,0,0,0,0,0,0,0,0,-1,720,1149,0,0
-497,-125,0,0,0,0,0,0,0,0,0,-1,727,1149,0,0
-490,-125,0,0,0,0,0,0,0,0,0,-1,734,1149,0,0
-483,-125,0,0,0,0,0,0,0,0,0,-1,741,1149,0,0
-476,-125,0,0,0,0,0,0,0,0,0,-1,748,1149,0,0
-469,-125,0,0,0,0,0,0,0,0,0,-1,755,1149,0,0
-462,-125,0,0,0,0,0,0,0,0,0,-1,762,1149,0,0
-455,-125,0,0,0,0,0,0,0,0,0,-1,769,1149,0,0
-448,-125,0,0,0,0,0,0,0,0,0,-1,776,1149,0,0
-441,-125,0,0,0,0,0,0,0,0,0,-1,783,1149,0,0
-434,-125,0,0,0,0,0,0,0,0,0,-1,790,1149,0,0
-427,-125,0,0,0,0,0,0,0,0,0,-1,797,1149,0,0
-420,-125,0,0,0,0,0,0,0,0,0,-1,804,1149,0,0
-413,-125,0,0,0,0,0,0,0,0,0,-1,811,1149,0,0
-406,-125,0,0,0,0,0,0,0,0,0,-1,818,1149,0,0
-399,-125,0,0,0,0,0,0,0,0,0,-1,825,1149,0,0
-392,-125,0,0,0,0,0,0,0,0,0,-1,832,1149,0,0
-385,-125,0,0,0,0,0,0,0,0,0,-1,839,1149,0,0
-378,-125,0,0,0,0,0,0,0,0,0,-1,846,1149,0,0
-371,-125,0,0,0,0,0,0,0,0,0,-1,853,1149,0,0
-364,-125,0,0,0,0,0,0,0,0,0,-1,860,1149,0,0
-357,-125,0,0,0,0,0,0,0,0,0,-1,867,1149,0,0
-350,-125,0,0,0,0,0,0,0,0,0,-1,874,1149,0,0
-343,-125,0,0,0,0,0,0,0,0,0,-1,881,1149,0,0
-336,-125,0,0,0,0,0,0,0,0,0,-1,888,1149,0,0
-329,-125,0,0,0,0,0,0,0,0,0,-1,895,1149,0,0
-322,-125,0,0,0,0,0,0,0,0,0,-1,902,1149,0,0
-315,-125,0,0,0,0,0,0,0,0,0,-1,909,1149,0,0
-308,-125,0,0,0,0,0,0,0,0,0,-1,916,1149,0,0
-301,-125,0,0,0,0,0,0,0,0,0,-1,923,1149,0,0
-294,-125,0,0,0,0,0,0,0,0,0,-1,930,1149,0,0
-287,-125,0,0,0,0,0,0,0,0,0,-1,937,1149,0,0
-280,-125,0,0,0,0,0,0,0,0,0,-1,944,1149,0,0
-273,-125,0,0,0,0,0,0,0,0,0,-1,951,1149,0,0
-266,-125,0,0,0,0,0,0,0,0,0,-1,958,1149,0,0
-259,-125,0,0,0,0,0,0,0,0,0,-1,965,1149,0,0
-252,-125,0,0,0,0,0,0,0,0,0,-1,972,1149,0,0
-245,-125,0,0,0,0,0,0,0,0,0,-1,979,1149,0,0
-238,-125,0,0,0,0,0,0,0,0,0,-1,986,1149,0,0
-231,-125,0,0,0,0,0,0,0,0,0,-1,993,1149,0,0
-224,-125,0,0,0,0,0,0,0,0,0,-1,1000,1149,0,0
-217,-125,0,0,0,0,0,0,0,0,0,-1,1007,1149,0,0
-210,-125,0,0,0,0,0,0,0,0,0,-1,1014,1149,0,0
-203,-125,0,0,0,0,0,0,0,0,0,-1,1021,1149,0,0
-196,-125,0,0,0,0,0,0,0,0,0,-1,1028,1149,0,0
-189,-125,0,0,0,0,0,0,0,0,0,-1,1035,1149,0,0
-182,-125,0,0,0,0,0,0,0,0,0,-1,1042,1149,0,0
-175,-125,0,0,0,0,0,0,0,0,0,-1,1049,1149,0,0
-168,-125,0,0,0,0,0,0,0,0,0,-1,1056,1149,0,0
-161,-125,0,0,0,0,0,0,0,0,0,-1,1063,1149,0,0
-154,-125,0,0,0,0,0,0,0,0,0,-1,1070,1149,0,0
-147,-125,0,0,0,0,0,0,0,0,0,-1,1077,1149,0,0
-140,-125,0,0,0,0,0,0,0,0,0,-1,1084,1149,0,0
-133,-125,0,0,0,0,0,0,0,0,0,-1,1091,1149,0,0
-126,-125,0,0,0,0,0,0,0,0,0,-1,1098,1149,0,0
-119,-125,0,0,0,0,0,0,0,0,0,-1,1105,1149,0,0
-112,-125,0,0,0,0,0,0,0,0,0,-1,1112,1149,0,0
-105,-125,0,0,0,0,0,0,0,0,0,-1,1119,1149,0,0
-98,-125,0,0,0,0,0,0,0,0,0,-1,1126,1149,0,0
-91,-125,0,0,0,0,0,0,0,0,0,-1,1133,1149,0,0
-84,-125,0,0,0,0,0,0,0,0,0,-1,1140,1149,0,0
-77,-125,0,0,0,0,0,0,0,0,0,-1,1147,1149,0,0
-70,-125,0,0,0,0,0,0,0,0,0,-1,1154,1149,0,0
-63,-125,0,0,0,0,0,0,0,0,0,-1,1161,1149,0,0
-56,-125,0,0,0,0,0,0,0,0,0,-1,1168,1149,0,0
-49,-125,0,0,0,0,0,0,0,0,0,-1,1175,1149,0,0
-42,-125,0,0,0,0,0,0,0,0,0,-1,1182,1149,0,0
-35,-125,0,0,0,0,0,0,0,0,0,-1,1189,1149,0,0
-28,-125,0,0,0,0,0,0,0,0,0,-1,1196,1149,0,0
-21,-125,0,0,0,0,0,0,0,0,0,-1,1203,1149,0,0
-14,-125,0,0,0,0,0,0,0,0,0,-1,1210,1149,0,0
-7,-125,0,0,0,0,0,0,0,0,0,-1,1217,1149,0,0
0,-125,0,0,0,0,0,0,0,0,0,-1,1224,1149,0,0
7,-125,0,0,0,0,0,0,0,0,0,-1,1231,1149,0,0
14,-125,0,0,0,0,0,0,0,0,0,-1,1238,1149,0,0
21,-125,0,0,0,0,0,0,0,0,0,-1,1245,1149,0,0
28,-125,0,0,0,0,0,0,0,0,0,-1,1252,1149,0,0
35,-125,0,0,0,0,0,0,0,0,0,-1,1259,1149,0,0
42,-125,0,0,0,0,0,0,0,0,0,-1,1266,1149,0,0
49,-125,0,0,0,0,0,0,0,0,0,-1,1273,1149,0,0
56,-125,0,0,0,0,0,0,0,0,0,-1,1280,1149,0,0
63,-125,0,0,0,0,0,0,0,0,0,-1,1287,1149,0,0
70,-125,0,0,0,0,0,0,0,0,0,-1,1294,1149,0,0
77,-125,0,0,0,0,0,0,0,0,0,-1,1301,1149,0,0
84,-125,0,0,0,0,0,0,0,0,0,-1,1308,1149,0,0
91,-125,0,0,0,0,0,0,0,0,0,-1,1315,1149,0,0
98,-125,0,0,0,0,0,0,0,0,0,-1,1322,1149,0,0
105,-125,0,0,0,0,0,0,0,0,0,-1,1329,1149,0,0
112,-125,0,0,0,0,0,0,0,0,0,-1,1336,1149,0,0
119,-125,0,0,0,0,0,0,0,0,0,-1,1343,1149,0,0
126,-125,0,0,0,0,0,0,0,0,0,-1,1350,1149,0,0
133,-125,0,0,0,0,0,0,0,0,0,-1,1357,1149,0,0
140,-125,0,0,0,0,0,0,0,0,0,-1,1364,1149,0,0
147,-125,0,0,0,0,0,0,0,0,0,-1,1371,1149,0,0
154,-125,0,0,0,0,0,0,0,0,0,-1,1378,1149,0,0
161,-125,0,0,0,0,0,0,0,0,0,-1,1385,1149,0,0
168,-125,0,0,0,0,0,0,0,0,0,-1,1392,1149,0,0
175,-125,0,0,0,0,0,0,0,0,0,-1,1399,1149,0,0
182,-125,0,0,0,0,0,0,0,0,0,-1,1406,1149,0,0
189,-125,0,0,0,0,0,0,0,0,0,-1,1413,1149,0,0
196,-125,0,0,0,0,0,0,0,0,0,-1,1420,1149,0,0
203,-125,0,0,0,0,0,0,0,0,0,-1,1427,1149,0,0
210,-125,0,0,0,0,0,0,0,0,0,-1,1434,1149,0,0
217,-125,0,0,0,0,0,0,0,0,0,-1,1441,1149,0,0
224,-125,0,0,0,0,0,0,0,0,0,-1,1448,1149,0,0
231,-125,0,0,0,0,0,0,0,0,0,-1,1455,1149,0,0
238,-125,0,0,0,0,0,0,0,0,0,-1,1462,1149,0,0
245,-125,0,0,0,0,0,0,0,0,0,-1,1469,1149,0,0
252,-125,0,0,0,0,0,0,0,0,0,-1,1476,1149,0,0
259,-125,0,0,0,0,0,0,0,0,0,-1,1483,1149,0,0
266,-125,0,0,0,0,0,0,0,0,0,-1,1490,1149,0,0
273,-125,0,0,0,0,0,0,0,0,0,-1,1497,1149,0,0
280,-125,0,0,0,0,0,0,0,0,0,-1,1504,1149,0,0
287,-125,0,0,0,0,0,0,0,0,0,-1,1511,1149,0,0
294,-125,0,0,0,0,0,0,0,0,0,-1,1518,1149,0,0
301,-125,0,0,0,0,0,0,0,0,0,-1,1525,1149,0,0
308,-125,0,0,0,0,0,0,0,0,0,-1,1532,1149,0,0
315,-125,0,0,0,0,0,0,0,0,0,-1,1539,1149,0,0
322,-125,0,0,0,0,0,0,0,0,0,-1,1546,1149,0,0
329,-125,0,0,0,0,0,0,0,0,0,-1,1553,1149,0,0
336,-125,0,0,0,0,0,0,0,0,0,-1,1560,1149,0,0
343,-125,0,0,0,0,0,0,0,0,0,-1,1567,1149,0,0
350,-125,0,0,0,0,0,0,0,0,0,-1,1574,1149,0,0
357,-125,0,0,0,0,0,0,0,0,0,-1,1581,1149,0,0
364,-125,0,0,0,0,0,0,0,0,0,-1,1588,1149,0,0
371,-125,0,0,0,0,0,0,0,0,0,-1,1595,1149,0,0
378,-125,0,0,0,0,0,0,0,0,0,-1,1602,1149,0,0
385,-125,0,0,0,0,0,0,0,0,0,-1,1609,1149,0,0
392,-125,0,0,0,0,0,0,0,0,0,-1,1616,1149,0,0
399,-125,0,0,0,0,0,0,0,0,0,-1,1623,1149,0,0
406,-125,0,0,0,0,0,0,0,0,0,-1,1630,1149,0,0
413,-125,0,0,0,0,0,0,0,0,0,-1,1637,1149,0,0
420,-125,0,0,0,0,0,0,0,0,0,-1,1644,1149,0,0
427,-125,0,0,0,0,0,0,0,0,0,-1,1651,1149,0,0
434,-125,0,0,0,0,0,0,0,0,0,-1,1658,1149,0,0
441,-125,0,0,0,0,0,0,0,0,0,-1,1665,1149,0,0
448,-125,0,0,0,0,0,0,0,0,0,-1,1672,1149,0,0
455,-125,0,0,0,0,0,0,0,0,0,-1,1679,1149,0,0
462,-125,0,0,0,0,0,0,0,0,0,-1,1686,1149,0,0
469,-125,0,0,0,0,0,0,0,0,0,-1,1693,1149,0,0
476,-125,0,0,0,0,0,0,0,0,0,-1,1700,1149,0,0
483,-125,0,0,0,0,0,0,0,0,0,-1,1707,1149,0,0
490,-125,0,0,0,0,0,0,0,0,0,-1,1714,1149,0,0
497,-125,0,0,0,0,0,0,0,0,0,-1,1721,1149,0,0
504,-125,0,0,0,0,0,0,0,0,0,-1,1728,1149,0,0
511,-125,0,0,0,0,0,0,0,0,0,-1,1735,1149,0,0
518,-125,0,0,0,0,0,0,0,0,0,-1,1742,1149,0,0
525,-125,0,0,0,0,0,0,0,0,0,-1,1749,1149,0,0
532,-125,0,0,0,0,0,0,0,0,0,-1,1756,1149,0,0
539,-125,0,0,0,0,0,0,0,0,0,-1,1763,1149,0,0
546,-125,0,0,0,0,0,0,0,0,0,-1,1770,1149,0,0
553,-125,0,0,0,0,0,0,0,0,0,-1,1777,1149,0,0
560,-125,0,0,0,0,0,0,0,0,0,-1,1784,1149,0,0
567,-125,0,0,0,0,0,0,0,0,0,-1,1791,1149,0,0
574,-125,0,0,0,0,0,0,0,0,0,-1,1798,1149,0,0
581,-125,0,0,0,0,0,0,0,0,0,-1,1805,1149,0,0
588,-125,0,0,0,0,0,0,0,0,0,-1,1812,1149,0,0
595,-125,0,0,0,0,0,0,0,0,0,-1,1819,1149,0,0
602,-125,0,0,0,0,0,0,0,0,0,-1,1826,1149,0,0
609,-125,0,0,0,0,0,0,0,0,0,-1,1833,1149,0,0
616,-125,0,0,0,0,0,0,0,0,0,-1,1840,1149,0,0
623,-125,0,0,0,0,0,0,0,0,0,-1,1847,1149,0,0
630,-125,0,0,0,0,0,0,0,0,0,-1,1854,1149,0,0
637,-125,0,0,0,0,0,0,0,0,0,-1,1861,1149,0,0
644,-125,35.9305,3.2428,0,0,0,0,0,0,0,-1,1868,1149,35.9305,-3.24278
651,-125,36.1849,2.80945,0.00323125,-0.0040238,-0.000804978,0.0033195,-0.00411204,-0.109185,0.00429872,0.0401802,1875,1149,36.185,-2.80948
658,-125,36.1232,2.81702,0.0026175,-0.0027641,-0.000643358,0.00269335,-0.00283995,-0.117345,0.00319502,0.0419136,1882,1149,36.1232,-2.817
665,-125,35.9346,2.83777,0.00214489,-0.00163825,-0.000655695,0.00225531,-0.00174868,-0.166839,0.00231786,0.044259,1889,1149,35.9346,-2.83772
672,-125,35.8296,2.61096,0.00180902,-0.000745729,-0.000697624,0.0019871,-0.000923815,-0.249937,0.00171759,0.0433452,1896,1149,35.8295,-2.61101
679,-125,36.2142,3.10327,0.00105791,-0.000224048,-0.000608605,0.00130081,-0.000466955,-0.379748,0.00105779,0.0405134,1903,1149,36.2142,-3.10323
686,-125,36.1343,2.98291,0.000291999,2.12632e-05,-0.000462953,0.000638969,-0.000325707,-0.643163,0.00056666,0.0362462,1910,1149,36.1343,-2.98288
693,-125,36.0649,2.84436,-0.000189768,0.000201073,-0.000302624,0.000365889,-0.000354584,-1.07209,0.000415982,0.0293843,1917,1149,36.065,-2.8444
700,-125,36.1116,2.76355,-0.000723995,0.000357819,-0.000125186,0.000372116,-0.000738293,-1.45708,0.000652611,0.0131655,1924,1149,36.1116,-2.76349
707,-125,36.2079,2.78418,0,0,0,0,0,0,0,-1,1931,1149,36.2079,-2.78421
714,-125,33.1129,6.38257,0,0,0,0,0,0,0,-1,1938,1149,33.1129,-6.38256
721,-125,33.0848,6.09912,-0.00186763,0.000473136,0.000605784,0.000620619,-0.00201511,1.33198,0.00159115,0.0239438,1945,1149,33.0849,-6.09908
728,-125,33.0658,5.85291,-0.00223499,0.000492197,0.000886193,0.000754865,-0.00249766,1.28265,0.00196565,0.0186626,1952,1149,33.0658,-5.85288
735,-125,33.0703,5.62988,-0.00259278,0.000723395,0.00121228,0.0011193,-0.00298868,1.25514,0.00245223,0.0202073,1959,1149,33.0703,-5.62986
742,-125,33.094,5.3988,-0.00258439,0.00122272,0.00177576,0.0019224,-0.00328407,1.19546,0.00304003,0.0231301,1966,1149,33.0939,-5.39884
749,-125,33.0609,5.13379,-0.00247303,0.00179934,0.00239067,0.00286918,-0.00354287,1.15002,0.0037088,0.0251294,1973,1149,33.0609,-5.13381
756,-125,33.0413,4.84863,-0.00206884,0.00223135,0.00277288,0.00359007,-0.00342756,1.11518,0.00405199,0.0204789,1980,1149,33.0412,-4.84868
763,-125,33.0819,4.6355,-0.00138651,0.00254941,0.00279571,0.00400035,-0.00283745,1.09208,0.00396679,0.0116155,1987,1149,33.0819,-4.63547
770,-125,33.0474,4.40454,-0.000787801,0.00306222,0.00286103,0.00458556,-0.00231114,1.08153,0.00405335,0.0151258,1994,1149,33.0473,-4.40448
777,-125,32.9641,4.21448,-0.000276019,0.00332321,0.00270075,0.004769,-0.00172181,1.07929,0.00388268,0.0293733,2001,1149,32.9641,-4.21453
784,-125,33.2073,4.32385,0,0,0,0,0,0,0,-1,2008,1149,33.2073,-4.32382
791,-125,33.8042,4.53638,0,0,0,0,0,0,0,-1,2015,1149,33.8041,-4.53633
798,-125,31.2998,5.5686,0,0,0,0,0,0,0,-1,2022,1149,31.2997,-5.56859
805,-125,34.1599,4.07874,0,0,0,0,0,0,0,-1,2029,1149,34.16,-4.0787
812,-125,34.2925,3.58679,0,0,0,0,0,0,0,-1,2036,1149,34.2924,-3.58681
-700,-132,0,0,0,0,0,0,0,0,0,-1,524,1156,0,0
-693,-132,-25.1543,-2.2793,0,0,0,0,0,0,0,-1,531,1156,-25.1543,2.27928
-686,-132,-19.3269,-2.29858,0,0,0,0,0,0,0,-1,538,1156,-19.3269,2.29861
-679,-132,-23.3547,2.64771,0,0,0,0,0,0,0,-1,545,1156,-23.3547,-2.64774
-672,-132,-23.9457,2.58521,0.000188852,0.0620645,-0.0162192,0.0660582,-0.00380484,-1.32937,0.0453603,0.0421906,552,1156,-23.9457,-2.58518
-665,-132,-22.2601,1.4574,0.000537463,0.0479176,-0.0139558,0.0517226,-0.00326763,-1.30461,0.035621,0.0428302,559,1156,-22.2601,-1.45744
-658,-132,-22.4881,1.11316,0,0,0,0,0,0,0,-1,566,1156,-22.4881,-1.11318
-651,-132,-22.5573,1.12842,9.25192e-05,0.0259766,-0.00907142,0.0288392,-0.0027701,-1.26512,0.0202129,0.0404198,573,1156,-22.5573,-1.12847
-644,-132,-22.6522,1.40027,-0.000263459,0.0180033,-0.00682338,0.0202707,-0.00253083,-1.24998,0.0144315,0.0204171,580,1156,-22.6521,-1.40029
-637,-132,-22.6907,1.69946,-0.000323571,0.011638,-0.00506568,0.013495,-0.00218057,-1.21942,0.0098047,0.0114406,587,1156,-22.6907,-1.6995
-630,-132,-22.6871,2.00598,-0.000493614,0.00610419,-0.00332532,0.00748936,-0.00187878,-1.1761,0.0057229,0.0107579,594,1156,-22.6871,-2.00592
-623,-132,-22.7,2.2948,-0.000442174,0.00238398,-0.00189481,0.00333461,-0.0013928,-1.10579,0.00280507,0.0154089,601,1156,-22.7,-2.29477
-616,-132,-22.7265,2.54016,-0.000457517,0.00038097,-0.000548819,0.000652355,-0.000728901,-1.11157,0.000797877,0.0225775,608,1156,-22.7265,-2.54017
-609,-132,-22.6293,2.79797,-0.000125618,-0.00038021,-0.000321064,9.24645e-05,-0.000598292,-0.596664,0.000432987,0.0248886,615,1156,-22.6293,-2.79799
-602,-132,-22.7778,3.05664,-0.00014623,-0.000442014,-0.000302694,4.27688e-05,-0.000631013,-0.558161,0.000435632,0.0230429,622,1156,-22.7778,-3.05666
-595,-132,-22.8528,3.39258,-0.000539579,-0.000342084,-9.11708e-05,-0.000306432,-0.000575231,-1.19803,0.000332347,0.0302241,629,1156,-22.8528,-3.39262
-588,-132,-22.688,3.79736,0,0,0,0,0,0,0,-1,636,1156,-22.688,-3.79736
-581,-132,-22.3608,4.25818,0,0,0,0,0,0,0,-1,643,1156,-22.3608,-4.25816
-574,-132,-26.0182,0.840332,0,0,0,0,0,0,0,-1,650,1156,-26.0182,-0.840389
-567,-132,-26.0739,0.80188,-0.00114313,-0.000604343,0.000500659,-0.000305201,-0.00144227,1.03222,0.000877649,0.0464147,657,1156,-26.0739,-0.801888
-560,-132,-26.1184,0.760132,-0.00134378,-0.000517556,0.000650682,-0.000159922,-0.00170141,1.06824,0.0010849,0.034519,664,1156,-26.1184,-0.760172
-553,-132,-26.1564,0.496582,-0.00165604,-0.000250548,0.000724527,5.60575e-05,-0.00196265,1.17047,0.00132751,0.0389148,671,1156,-26.1564,-0.496608
-546,-132,-26.2847,0.496216,-0.00174322,0.000163557,0.000554319,0.000312992,-0.00189265,1.30747,0.001378,0.0411058,678,1156,-26.2848,-0.496224
-539,-132,-26.3259,0.994873,-0.00125478,0.000704218,0.000252133,0.000736148,-0.00128671,1.44483,0.00118223,0.0416606,685,1156,-26.3259,-0.994868
-532,-132,-26.2527,1.09607,0.00040989,0.00118533,-0.000229319,0.00124807,0.00034715,-1.30374,0.000743838,0.0416742,692,1156,-26.2528,-1.09611
-525,-132,-26.1955,0.960571,0.00279272,0.00139597,-0.00105837,0.00336236,0.00082633,-0.493761,0.00202318,0.0423634,699,1156,-26.1955,-0.960523
-518,-132,0,0,0,0,0,0,0,0,0,-1,706,1156,0,0
-511,-132,0,0,0,0,0,0,0,0,0,-1,713,1156,0,0
-504,-132,0,0,0,0,0,0,0,0,0,-1,720,1156,0,0
-497,-132,0,0,0,0,0,0,0,0,0,-1,727,1156,0,0
-490,-132,0,0,0,0,0,0,0,0,0,-1,734,1156,0,0
-483,-132,0,0,0,0,0,0,0,0,0,-1,741,1156,0,0
-476,-132,0,0,0,0,0,0,0,0,0,-1,748,1156,0,0
-469,-132,0,0,0,0,0,0,0,0,0,-1,755,1156,0,0
-462,-132,0,0,0,0,0,0,0,0,0,-1,762,1156,0,0
-455,-132,0,0,0,0,0,0,0,0,0,-1,769,1156,0,0
-448,-132,0,0,0,0,0,0,0,0,0,-1,776,1156,0,0
-441,-132,0,0,0,0,0,0,0,0,0,-1,783,1156,0,0
-434,-132,0,0,0,0,0,0,0,0,0,-1,790,1156,0,0
-427,-132,0,0,0,0,0,0,0,0,0,-1,797,1156,0,0
-420,-132,0,0,0,0,0,0,0,0,0,-1,804,1156,0,0
-413,-132,0,0,0,0,0,0,0,0,0,-1,811,1156,0,0
-406,-132,0,0,0,0,0,0,0,0,0,-1,818,1156,0,0
-399,-132,0,0,0,0,0,0,0,0,0,-1,825,1156,0,0
-392,-132,0,0,0,0,0,0,0,0,0,-1,832,1156,0,0
-385,-132,0,0,0,0,0,0,0,0,0,-1,839,1156,0,0
-378,-132,0,0,0,0,0,0,0,0,0,-1,846,1156,0,0
-371,-132,0,0,0,0,0,0,0,0,0,-1,853,1156,0,0
-364,-132,0,0,0,0,0,0,0,0,0,-1,860,1156,0,0
-357,-132,0,0,0,0,0,0,0,0,0,-1,867,1156,0,0
-350,-132,0,0,0,0,0,0,0,0,0,-1,874,1156,0,0
-343,-132,0,0,0,0,0,0,0,0,0,-1,881,1156,0,0
-336,-132,0,0,0,0,0,0,0,0,0,-1,888,1156,0,0
-329,-132,0,0,0,0,0,0,0,0,0,-1,895,1156,0,0
-322,-132,0,0,0,0,0,0,0,0,0,-1,902,1156,0,0
-315,-132,0,0,0,0,0,0,0,0,0,-1,909,1156,0,0
-308,-132,0,0,0,0,0,0,0,0,0,-1,916,1156,0,0
-301,-132,0,0,0,0,0,0,0,0,0,-1,923,1156,0,0
-294,-132,0,0,0,0,0,0,0,0,0,-1,930,1156,0,0
-287,-132,0,0,0,0,0,0,0,0,0,-1,937,1156,0,0
-280,-132,0,0,0,0,0,0,0,0,0,-1,944,1156,0,0
-273,-132,0,0,0,0,0,0,0,0,0,-1,951,1156,0,0
-266,-132,0,0,0,0,0,0,0,0,0,-1,958,1156,0,0
-259,-132,0,0,0,0,0,0,0,0,0,-1,965,1156,0,0
-252,-132,0,0,0,0,0,0,0,0,0,-1,972,1156,0,0
-245,-132,0,0,0,0,0,0,0,0,0,-1,979,1156,0,0
-238,-132,0,0,0,0,0,0,0,0,0,-1,986,1156,0,0
-231,-132,0,0,0,0,0,0,0,0,0,-1,993,1156,0,0
-224,-132,0,0,0,0,0,0,0,0,0,-1,1000,1156,0,0
-217,-132,0,0,0,0,0,0,0,0,0,-1,1007,1156,0,0
-210,-132,0,0,0,0,0,0,0,0,0,-1,1014,1156,0,0
-203,-132,0,0,0,0,0,0,0,0,0,-1,1021,1156,0,0
-196,-132,0,0,0,0,0,0,0,0,0,-1,1028,1156,0,0
-189,-132,0,0,0,0,0,0,0,0,0,-1,1035,1156,0,0
-182,-132,0,0,0,0,0,0,0,0,0,-1,1042,1156,0,0
-175,-132,0,0,0,0,0,0,0,0,0,-1,1049,1156,0,0
-168,-132,0,0,0,0,0,0,0,0,0,-1,1056,1156,0,0
-161,-132,0,0,0,0,0,0,0,0,0,-1,1063,1156,0,0
-154,-132,0,0,0,0,0,0,0,0,0,-1,1070,1156,0,0
-147,-132,0,0,0,0,0,0,0,0,0,-1,1077,1156,0,0
-140,-132,0,0,0,0,0,0,0,0,0,-1,1084,1156,0,0
-133,-132,0,0,0,0,0,0,0,0,0,-1,1091,1156,0,0
-126,-132,0,0,0,0,0,0,0,0,0,-1,1098,1156,0,0
-119,-132,0,0,0,0,0,0,0,0,0,-1,1105,1156,0,0
-112,-132,0,0,0,0,0,0,0,0,0,-1,1112,1156,0,0
-105,-132,0,0,0,0,0,0,0,0,0,-1,1119,1156,0,0
-98,-132,0,0,0,0,0,0,0,0,0,-1,1126,1156,0,0
-91,-132,0,0,0,0,0,0,0,0,0,-1,1133,1156,0,0
-84,-132,0,0,0,0,0,0,0,0,0,-1,1140,1156,0,0
-77,-132,0,0,0,0,0,0,0,0,0,-1,1147,1156,0,0
-70,-132,0,0,0,0,0,0,0,0,0,-1,1154,1156,0,0
-63,-132,0,0,0,0,0,0,0,0,0,-1,1161,1156,0,0
-56,-132,0,0,0,0,0,0,0,0,0,-1,1168,1156,0,0
-49,-132,0,0,0,0,0,0,0,0,0,-1,1175,1156,0,0
-42,-132,0,0,0,0,0,0,0,0,0,-1,1182,1156,0,0
-35,-132,0,0,0,0,0,0,0,0,0,-1,1189,1156,0,0
-28,-132,0,0,0,0,0,0,0,0,0,-1,1196,1156,0,0
-21,-132,0,0,0,0,0,0,0,0,0,-1,1203,1156,0,0
-14,-132,0,0,0,0,0,0,0,0,0,-1,1210,1156,0,0
-7,-132,0,0,0,0,0,0,0,0,0,-1,1217,1156,0,0
0,-132,0,0,0,0,0,0,0,0,0,-1,1224,1156,0,0
7,-132,0,0,0,0,0,0,0,0,0,-1,1231,1156,0,0
14,-132,0,0,0,0,0,0,0,0,0,-1,1238,1156,0,0
21,-132,0,0,0,0,0,0,0,0,0,-1,1245,1156,0,0
28,-132,0,0,0,0,0,0,0,0,0,-1,1252,1156,0,0
35,-132,0,0,0,0,0,0,0,0,0,-1,1259,1156,0,0
42,-132,0,0,0,0,0,0,0,0,0,-1,1266,1156,0,0
49,-132,0,0,0,0,0,0,0,0,0,-1,1273,1156,0,0
56,-132,0,0,0,0,0,0,0,0,0,-1,1280,1156,0,0
63,-132,0,0,0,0,0,0,0,0,0,-1,1287,1156,0,0
70,-132,0,0,0,0,0,0,0,0,0,-1,1294,1156,0,0
77,-132,0,0,0,0,0,0,0,0,0,-1,1301,1156,0,0
84,-132,0,0,0,0,0,0,0,0,0,-1,1308,1156,0,0
91,-132,0,0,0,0,0,0,0,0,0,-1,1315,1156,0,0
98,-132,0,0,0,0,0,0,0,0,0,-1,1322,1156,0,0
105,-132,0,0,0,0,0,0,0,0,0,-1,1329,1156,0,0
112,-132,0,0,0,0,0,0,0,0,0,-1,1336,1156,0,0
119,-132,0,0,0,0,0,0,0,0,0,-1,1343,1156,0,0
126,-132,0,0,0,0,0,0,0,0,0,-1,1350,1156,0,0
133,-132,0,0,0,0,0,0,0,0,0,-1,1357,1156,0,0
140,-132,0,0,0,0,0,0,0,0,0,-1,1364,1156,0,0
147,-132,0,0,0,0,0,0,0,0,0,-1,1371,1156,0,0
154,-132,0,0,0,0,0,0,0,0,0,-1,1378,1156,0,0
161,-132,0,0,0,0,0,0,0,0,0,-1,1385,1156,0,0
168,-132,0,0,0,0,0,0,0,0,0,-1,1392,1156,0,0
175,-132,0,0,0,0,0,0,0,0,0,-1,1399,1156,0,0
182,-132,0,0,0,0,0,0,0,0,0,-1,1406,1156,0,0
189,-132,0,0,0,0,0,0,0,0,0,-1,1413,1156,0,0
196,-132,0,0,0,0,0,0,0,0,0,-1,1420,1156,0,0
203,-132,0,0,0,0,0,0,0,0,0,-1,1427,1156,0,0
210,-132,0,0,0,0,0,0,0,0,0,-1,1434,1156,0,0
217,-132,0,0,0,0,0,0,0,0,0,-1,1441,1156,0,0
224,-132,0,0,0,0,0,0,0,0,0,-1,1448,1156,0,0
231,-132,0,0,0,0,0,0,0,0,0,-1,1455,1156,0,0
238,-132,0,0,0,0,0,0,0,0,0,-1,1462,1156,0,0
245,-132,0,0,0,0,0,0,0,0,0,-1,1469,1156,0,0
252,-132,0,0,0,0,0,0,0,0,0,-1,1476,1156,0,0
259,-132,0,0,0,0,0,0,0,0,0,-1,1483,1156,0,0
266,-132,0,0,0,0,0,0,0,0,0,-1,1490,1156,0,0
273,-132,0,0,0,0,0,0,0,0,0,-1,1497,1156,0,0
280,-132,0,0,0,0,0,0,0,0,0,-1,1504,1156,0,0
287,-132,0,0,0,0,0,0,0,0,0,-1,1511,1156,0,0
294,-132,0,0,0,0,0,0,0,0,0,-1,1518,1156,0,0
301,-132,0,0,0,0,0,0,0,0,0,-1,1525,1156,0,0
308,-132,0,0,0,0,0,0,0,0,0,-1,1532,1156,0,0
315,-132,0,0,0,0,0,0,0,0,0,-1,1539,1156,0,0
322,-132,0,0,0,0,0,0,0,0,0,-1,1546,1156,0,0
329,-132,0,0,0,0,0,0,0,0,0,-1,1553,1156,0,0
336,-132,0,0,0,0,0,0,0,0,0,-1,1560,1156,0,0
343,-132,0,0,0,0,0,0,0,0,0,-1,1567,1156,0,0
350,-132,0,0,0,0,0,0,0,0,0,-1,1574,1156,0,0
357,-132,0,0,0,0,0,0,0,0,0,-1,1581,1156,0,0
364,-132,0,0,0,0,0,0,0,0,0,-1,1588,1156,0,0
371,-132,0,0,0,0,0,0,0,0,0,-1,1595,1156,0,0
378,-132,0,0,0,0,0,0,0,0,0,-1,1602,1156,0,0
385,-132,0,0,0,0,0,0,0,0,0,-1,1609,1156,0,0
392,-132,0,0,0,0,0,0,0,0,0,-1,1616,1156,0,0
399,-132,0,0,0,0,0,0,0,0,0,-1,1623,1156,0,0
406,-132,0,0,0,0,0,0,0,0,0,-1,1630,1156,0,0
413,-132,0,0,0,0,0,0,0,0,0,-1,1637,1156,0,0
420,-132,0,0,0,0,0,0,0,0,0,-1,1644,1156,0,0
427,-132,0,0,0,0,0,0,0,0,0,-1,1651,1156,0,0
434,-132,0,0,0,0,0,0,0,0,0,-1,1658,1156,0,0
441,-132,0,0,0,0,0,0,0,0,0,-1,1665,1156,0,0
448,-132,0,0,0,0,0,0,0,0,0,-1,1672,1156,0,0
455,-132,0,0,0,0,0,0,0,0,0,-1,1679,1156,0,0
462,-132,0,0,0,0,0,0,0,0,0,-1,1686,1156,0,0
469,-132,0,0,0,0,0,0,0,0,0,-1,1693,1156,0,0
476,-132,0,0,0,0,0,0,0,0,0,-1,1700,1156,0,0
483,-132,0,0,0,0,0,0,0,0,0,-1,1707,1156,0,0
490,-132,0,0,0,0,0,0,0,0,0,-1,1714,1156,0,0
497,-132,0,0,0,0,0,0,0,0,0,-1,1721,1156,0,0
504,-132,0,0,0,0,0,0,0,0,0,-1,1728,1156,0,0
511,-132,0,0,0,0,0,0,0,0,0,-1,1735,1156,0,0
518,-132,0,0,0,0,0,0,0,0,0,-1,1742,1156,0,0
525,-132,0,0,0,0,0,0,0,0,0,-1,1749,1156,0,0
532,-132,0,0,0,0,0,0,0,0,0,-1,1756,1156,0,0
539,-132,0,0,0,0,0,0,0,0,0,-1,1763,1156,0,0
546,-132,0,0,0,0,0,0,0,0,0,-1,1770,1156,0,0
553,-132,0,0,0,0,0,0,0,0,0,-1,1777,1156,0,0
560,-132,0,0,0,0,0,0,0,0,0,-1,1784,1156,0,0
567,-132,0,0,0,0,0,0,0,0,0,-1,1791,1156,0,0
574,-132,0,0,0,0,0,0,0,0,0,-1,1798,1156,0,0
581,-132,0,0,0,0,0,0,0,0,0,-1,1805,1156,0,0
588,-132,0,0,0,0,0,0,0,0,0,-1,1812,1156,0,0
595,-132,0,0,0,0,0,0,0,0,0,-1,1819,1156,0,0
602,-132,0,0,0,0,0,0,0,0,0,-1,1826,1156,0,0
609,-132,0,0,0,0,0,0,0,0,0,-1,1833,1156,0,0
616,-132,0,0,0,0,0,0,0,0,0,-1,1840,1156,0,0
623,-132,0,0,0,0,0,0,0,0,0,-1,1847,1156,0,0
630,-132,0,0,0,0,0,0,0,0,0,-1,1854,1156,0,0
637,-132,0,0,0,0,0,0,0,0,0,-1,1861,1156,0,0
644,-132,36.0789,2.49731,0.0035086,-0.00483593,-0.00164317,0.0038205,-0.00514784,-0.187589,0.00519674,0.0410525,1868,1156,36.0788,-2.49735
651,-132,35.9797,2.65942,0.00269975,-0.00339611,-0.00104767,0.00287478,-0.00357114,-0.165541,0.00372879,0.0400795,1875,1156,35.9797,-2.65946
658,-132,35.9958,2.94727,0,0,0,0,0,0,0,-1,1882,1156,35.9959,-2.9473
665,-132,35.8999,2.76123,0.00180742,-0.000956276,-0.000757105,0.00200123,-0.00115009,-0.250612,0.00184141,0.0400631,1889,1156,35.8999,-2.76122
672,-132,35.8145,2.48596,0.00151638,-2.66174e-05,-0.000731671,0.00180816,-0.000318393,-0.379454,0.00132439,0.0390991,1896,1156,35.8145,-2.48602
679,-132,36.1162,2.81885,0.000740271,0.000486556,-0.000580168,0.00120729,1.95383e-05,-0.677764,0.000798426,0.0388196,1903,1156,36.1163,-2.81891
686,-132,36.1464,3.00964,-8.337e-05,0.000687225,-0.00037224,0.000837667,-0.000233812,-1.18671,0.000650542,0.0357018,1910,1156,36.1464,-3.00969
693,-132,36.1077,2.85071,-0.000605623,0.000822393,-0.000174757,0.000843468,-0.000626699,-1.45078,0.000851871,0.0265175,1917,1156,36.1076,-2.85071
700,-132,36.113,2.69873,-0.00113571,0.000935533,2.36382e-05,0.000935803,-0.00113598,1.55939,0.001198,0.0296383,1924,1156,36.1131,-2.69876
707,-132,36.1141,2.5498,0,0,0,0,0,0,0,-1,1931,1156,36.1142,-2.54976
714,-132,32.7704,6.33325,0,0,0,0,0,0,0,-1,1938,1156,32.7704,-6.33325
721,-132,32.8468,6.08032,-0.00225461,0.000917169,0.00073095,0.00107751,-0.00241496,1.35485,0.00206507,0.0302313,1945,1156,32.8468,-6.0803
728,-132,32.8322,5.85095,-0.00262068,0.000859395,0.00101477,0.00113368,-0.00289497,1.30681,0.00239889,0.0210827,1952,1156,32.8321,-5.85093
735,-132,32.7986,5.65723,-0.00303877,0.00102377,0.00130854,0.00140876,-0.00342376,1.28465,0.00286977,0.0223769,1959,1156,32.7986,-5.65718
742,-132,32.8232,5.38452,-0.00310587,0.001583,0.00184097,0.00221942,-0.0037423,1.23796,0.00347923,0.0200802,1966,1156,32.8232,-5.38447
749,-132,32.8219,5.14819,-0.00309068,0.00249698,0.00246205,0.00342701,-0.00402071,1.20962,0.0043045,0.0244241,1973,1156,32.8219,-5.14818
756,-132,32.8363,4.88306,-0.00285507,0.00344774,0.00291911,0.00459198,-0.00399931,1.19722,0.00496411,0.0227654,1980,1156,32.8363,-4.88304
763,-132,32.8361,4.63953,-0.00249698,0.00460128,0.00308155,0.00575239,-0.00364809,1.2133,0.00547251,0.0136774,1987,1156,32.8361,-4.63958
770,-132,32.8239,4.41309,-0.00233717,0.00620121,0.00334665,0.0073566,-0.00349256,1.23837,0.00639482,0.0136851,1994,1156,32.8239,-4.41313
777,-132,32.7437,4.15063,-0.00234451,0.0078103,0.00347144,0.00888358,-0.00341779,1.27094,0.00733217,0.0229011,2001,1156,32.7436,-4.15067
784,-132,32.7135,3.82446,-0.00258462,0.00936857,0.00337101,0.0102537,-0.00346976,1.31402,0.00823962,0.0448412,2008,1156,32.7135,-3.82441
791,-132,32.7,3.46375,0,0,0,0,0,0,0,-1,2015,1156,32.6999,-3.46369
798,-132,31.3877,5.42957,0,0,0,0,0,0,0,-1,2022,1156,31.3876,-5.42961
805,-132,32.3442,3.72253,0,0,0,0,0,0,0,-1,2029,1156,32.3442,-3.7225
812,-132,30.3906,4.97888,0,0,0,0,0,0,0,-1,2036,1156,30.3906,-4.97882
-700,-139,0,0,0,0,0,0,0,0,0,-1,524,1163,0,0
-693,-139,-18.1703,-0.545288,0,0,0,0,0,0,0,-1,531,1163,-18.1703,0.545308
-686,-139,-18.8467,-0.232056,0,0,0,0,0,0,0,-1,538,1163,-18.8468,0.232008
-679,-139,-22.6874,1.47754,0,0,0,0,0,0,0,-1,545,1163,-22.6875,-1.4775
-672,-139,-22.905,1.66858,0.00340098,0.0751429,-0.0182908,0.079537,-0.000993159,-1.33503,0.0533588,0.0437483,552,1163,-22.905,-1.66858
-665,-139,-23.1307,1.83765,0.00276761,0.0585971,-0.0150611,0.062401,-0.00103624,-1.32341,0.0419503,0.0422591,559,1163,-23.1308,-1.83762
-658,-139,-22.3876,0.837646,0,0,0,0,0,0,0,-1,566,1163,-22.3876,-0.837588
-651,-139,-22.3762,1.11499,0.00110382,0.0324128,-0.00910012,0.0348657,-0.00134902,-1.30751,0.0237062,0.044719,573,1163,-22.3762,-1.11503
-644,-139,-22.3804,1.3783,0.000369576,0.0226523,-0.00662325,0.0244723,-0.00145044,-1.30262,0.0168192,0.0216442,580,1163,-22.3804,-1.37832
-637,-139,-22.373,1.66797,-5.76951e-05,0.0147914,-0.0047226,0.0161661,-0.0014324,-1.28753,0.0112852,0.011851,587,1163,-22.3731,-1.66793
-630,-139,-22.3847,1.98596,-0.000445336,0.00793628,-0.00296952,0.0088817,-0.00139076,-1.26257,0.00643502,0.0102851,594,1163,-22.3847,-1.98596
-623,-139,-22.3947,2.26624,-0.000599405,0.00320621,-0.00161315,0.00379798,-0.00119118,-1.2192,0.0030087,0.0152043,601,1163,-22.3947,-2.26625
-616,-139,-22.3913,2.53552,-0.0007371,0.000712012,-0.000391742,0.000811133,-0.000836221,-1.32297,0.000951137,0.0175082,608,1163,-22.3913,-2.5355
-609,-139,-22.312,2.84827,-0.00043527,-0.000174891,-0.00032718,4.70497e-05,-0.000657211,-0.974751,0.000454636,0.029358,615,1163,-22.312,-2.84831
-602,-139,-22.4637,3.15454,-0.000490217,-0.000361154,-0.000458408,3.72416e-05,-0.000888613,-0.855325,0.000605205,0.02741,622,1163,-22.4638,-3.15454
-595,-139,-22.5759,3.43433,-0.000922226,-0.000313796,-0.000264931,-0.000214607,-0.00102142,-1.21255,0.000621876,0.0287695,629,1163,-22.5759,-3.43435
-588,-139,-22.6863,3.69141,0,0,0,0,0,0,0,-1,636,1163,-22.6863,-3.69146
-581,-139,-23.9351,3.11755,0,0,0,0,0,0,0,-1,643,1163,-23.9351,-3.11753
-574,-139,-23.0725,2.4043,0,0,0,0,0,0,0,-1,650,1163,-23.0725,-2.40433
-567,-139,-26.061,0.800293,0,0,0,0,0,0,0,-1,657,1163,-26.061,-0.800237
-560,-139,-26.1053,0.820313,-0.0016283,-0.000563298,0.00050345,-0.000362984,-0.00182862,1.19212,0.0011179,0.0368995,664,1163,-26.1054,-0.820257
-553,-139,-26.1392,0.604614,-0.00187527,-0.000352294,0.00061954,-0.000132104,-0.00209547,1.22931,0.00135509,0.0418254,671,1163,-26.1391,-0.604575
-546,-139,-26.2552,0.494629,-0.00177485,1.43117e-06,0.000586563,0.000177645,-0.00195107,1.27896,0.00136379,0.0426489,678,1163,-26.2552,-0.494646
-539,-139,-26.1967,0.807129,-0.00111202,0.000582492,0.000531486,0.000735396,-0.00126492,1.29067,0.00116829,0.0418845,685,1163,-26.1967,-0.807183
-532,-139,-26.1421,0.908081,0.000663346,0.00133846,0.000379484,0.0015088,0.000493013,1.1489,0.000888362,0.0406673,692,1163,-26.1421,-0.908039
-525,-139,-26.0831,0.723755,0.00335201,0.00193816,-0.000143262,0.00336638,0.00192379,-0.0999741,0.00195019,0.0415627,699,1163,-26.0832,-0.72373
-518,-139,0,0,0,0,0,0,0,0,0,-1,706,1163,0,0
-511,-139,0,0,0,0,0,0,0,0,0,-1,713,1163,0,0
-504,-139,0,0,0,0,0,0,0,0,0,-1,720,1163,0,0
-497,-139,0,0,0,0,0,0,0,0,0,-1,727,1163,0,0
-490,-139,0,0,0,0,0,0,0,0,0,-1,734,1163,0,0
-483,-139,0,0,0,0,0,0,0,0,0,-1,741,1163,0,0
-476,-139,0,0,0,0,0,0,0,0,0,-1,748,1163,0,0
-469,-139,0,0,0,0,0,0,0,0,0,-1,755,1163,0,0
-462,-139,0,0,0,0,0,0,0,0,0,-1,762,1163,0,0
-455,-139,0,0,0,0,0,0,0,0,0,-1,769,1163,0,0
-448,-139,0,0,0,0,0,0,0,0,0,-1,776,1163,0,0
-441,-139,0,0,0,0,0,0,0,0,0,-1,783,1163,0,0
-434,-139,0,0,0,0,0,0,0,0,0,-1,790,1163,0,0
-427,-139,0,0,0,0,0,0,0,0,0,-1,797,1163,0,0
-420,-139,0,0,0,0,0,0,0,0,0,-1,804,1163,0,0
-413,-139,0,0,0,0,0,0,0,0,0,-1,811,1163,0,0
-406,-139,0,0,0,0,0,0,0,0,0,-1,818,1163,0,0
-399,-139,0,0,0,0,0,0,0,0,0,-1,825,1163,0,0
-392,-139,0,0,0,0,0,0,0,0,0,-1,832,1163,0,0
-385,-139,0,0,0,0,0,0,0,0,0,-1,839,1163,0,0
-378,-139,0,0,0,0,0,0,0,0,0,-1,846,1163,0,0
-371,-139,0,0,0,0,0,0,0,0,0,-1,853,1163,0,0
-364,-139,0,0,0,0,0,0,0,0,0,-1,860,1163,0,0
-357,-139,0,0,0,0,0,0,0,0,0,-1,867,1163,0,0
-350,-139,0,0,0,0,0,0,0,0,0,-1,874,1163,0,0
-343,-139,0,0,0,0,0,0,0,0,0,-1,881,1163,0,0
-336,-139,0,0,0,0,0,0,0,0,0,-1,888,1163,0,0
-329,-139,0,0,0,0,0,0,0,0,0,-1,895,1163,0,0
-322,-139,0,0,0,0,0,0,0,0,0,-1,902,1163,0,0
-315,-139,0,0,0,0,0,0,0,0,0,-1,909,1163,0,0
-308,-139,0,0,0,0,0,0,0,0,0,-1,916,1163,0,0
-301,-139,0,0,0,0,0,0,0,0,0,-1,923,1163,0,0
-294,-139,0,0,0,0,0,0,0,0,0,-1,930,1163,0,0
-287,-139,0,0,0,0,0,0,0,0,0,-1,937,1163,0,0
-280,-139,0,0,0,0,0,0,0,0,0,-1,944,1163,0,0
-273,-139,0,0,0,0,0,0,0,0,0,-1,951,1163,0,0
-266,-139,0,0,0,0,0,0,0,0,0,-1,958,1163,0,0
-259,-139,0,0,0,0,0,0,0,0,0,-1,965,1163,0,0
-252,-139,0,0,0,0,0,0,0,0,0,-1,972,1163,0,0
-245,-139,0,0,0,0,0,0,0,0,0,-1,979,1163,0,0
-238,-139,0,0,0,0,0,0,0,0,0,-1,986,1163,0,0
-231,-139,0,0,0,0,0,0,0,0,0,-1,993,1163,0,0
-224,-139,0,0,0,0,0,0,0,0,0,-1,1000,1163,0,0
-217,-139,0,0,0,0,0,0,0,0,0,-1,1007,1163,0,0
-210,-139,0,0,0,0,0,0,0,0,0,-1,1014,1163,0,0
-203,-139,0,0,0,0,0,0,0,0,0,-1,1021,1163,0,0
-196,-139,0,0,0,0,0,0,0,0,0,-1,1028,1163,0,0
-189,-139,0,0,0,0,0,0,0,0,0,-1,1035,1163,0,0
-182,-139,0,0,0,0,0,0,0,0,0,-1,1042,1163,0,0
-175,-139,0,0,0,0,0,0,0,0,0,-1,1049,1163,0,0
-168,-139,0,0,0,0,0,0,0,0,0,-1,1056,1163,0,0
-161,-139,0,0,0,0,0,0,0,0,0,-1,1063,1163,0,0
-154,-139,0,0,0,0,0,0,0,0,0,-1,1070,1163,0,0
-147,-139,0,0,0,0,0,0,0,0,0,-1,1077,1163,0,0
-140,-139,0,0,0,0,0,0,0,0,0,-1,1084,1163,0,0
-133,-139,0,0,0,0,0,0,0,0,0,-1,1091,1163,0,0
-126,-139,0,0,0,0,0,0,0,0,0,-1,1098,1163,0,0
-119,-139,0,0,0,0,0,0,0,0,0,-1,1105,1163,0,0
-112,-139,0,0,0,0,0,0,0,0,0,-1,1112,1163,0,0
-105,-139,0,0,0,0,0,0,0,0,0,-1,1119,1163,0,0
-98,-139,0,0,0,0,0,0,0,0,0,-1,1126,1163,0,0
-91,-139,0,0,0,0,0,0,0,0,0,-1,1133,1163,0,0
-84,-139,0,0,0,0,0,0,0,0,0,-1,1140,1163,0,0
-77,-139,0,0,0,0,0,0,0,0,0,-1,1147,1163,0,0
-70,-139,0,0,0,0,0,0,0,0,0,-1,1154,1163,0,0
-63,-139,0,0,0,0,0,0,0,0,0,-1,1161,1163,0,0
-56,-139,0,0,0,0,0,0,0,0,0,-1,1168,1163,0,0
-49,-139,0,0,0,0,0,0,0,0,0,-1,1175,1163,0,0
-42,-139,0,0,0,0,0,0,0,0,0,-1,1182,1163,0,0
-35,-139,0,0,0,0,0,0,0,0,0,-1,1189,1163,0,0
-28,-139,0,0,0,0,0,0,0,0,0,-1,1196,1163,0,0
-21,-139,0,0,0,0,0,0,0,0,0,-1,1203,1163,0,0
-14,-139,0,0,0,0,0,0,0,0,0,-1,1210,1163,0,0
-7,-139,0,0,0,0,0,0,0,0,0,-1,1217,1163,0,0
0,-139,0,0,0,0,0,0,0,0,0,-1,1224,1163,0,0
7,-139,0,0,0,0,0,0,0,0,0,-1,1231,1163,0,0
14,-139,0,0,0,0,0,0,0,0,0,-1,1238,1163,0,0
21,-139,0,0,0,0,0,0,0,0,0,-1,1245,1163,0,0
28,-139,0,0,0,0,0,0,0,0,0,-1,1252,1163,0,0
35,-139,0,0,0,0,0,0,0,0,0,-1,1259,1163,0,0
42,-139,0,0,0,0,0,0,0,0,0,-1,1266,1163,0,0
49,-139,0,0,0,0,0,0,0,0,0,-1,1273,1163,0,0
56,-139,0,0,0,0,0,0,0,0,0,-1,1280,1163,0,0
63,-139,0,0,0,0,0,0,0,0,0,-1,1287,1163,0,0
70,-139,0,0,0,0,0,0,0,0,0,-1,1294,1163,0,0
77,-139,0,0,0,0,0,0,0,0,0,-1,1301,1163,0,0
84,-139,0,0,0,0,0,0,0,0,0,-1,1308,1163,0,0
91,-139,0,0,0,0,0,0,0,0,0,-1,1315,1163,0,0
98,-139,0,0,0,0,0,0,0,0,0,-1,1322,1163,0,0
105,-139,0,0,0,0,0,0,0,0,0,-1,1329,1163,0,0
112,-139,0,0,0,0,0,0,0,0,0,-1,1336,1163,0,0
119,-139,0,0,0,0,0,0,0,0,0,-1,1343,1163,0,0
126,-139,0,0,0,0,0,0,0,0,0,-1,1350,1163,0,0
133,-139,0,0,0,0,0,0,0,0,0,-1,1357,1163,0,0
140,-139,0,0,0,0,0,0,0,0,0,-1,1364,1163,0,0
147,-139,0,0,0,0,0,0,0,0,0,-1,1371,1163,0,0
154,-139,0,0,0,0,0,0,0,0,0,-1,1378,1163,0,0
161,-139,0,0,0,0,0,0,0,0,0,-1,1385,1163,0,0
168,-139,0,0,0,0,0,0,0,0,0,-1,1392,1163,0,0
175,-139,0,0,0,0,0,0,0,0,0,-1,1399,1163,0,0
182,-139,0,0,0,0,0,0,0,0,0,-1,1406,1163,0,0
189,-139,0,0,0,0,0,0,0,0,0,-1,1413,1163,0,0
196,-139,0,0,0,0,0,0,0,0,0,-1,1420,1163,0,0
203,-139,0,0,0,0,0,0,0,0,0,-1,1427,1163,0,0
210,-139,0,0,0,0,0,0,0,0,0,-1,1434,1163,0,0
217,-139,0,0,0,0,0,0,0,0,0,-1,1441,1163,0,0
224,-139,0,0,0,0,0,0,0,0,0,-1,1448,1163,0,0
231,-139,0,0,0,0,0,0,0,0,0,-1,1455,1163,0,0
238,-139,0,0,0,0,0,0,0,0,0,-1,1462,1163,0,0
245,-139,0,0,0,0,0,0,0,0,0,-1,1469,1163,0,0
252,-139,0,0,0,0,0,0,0,0,0,-1,1476,1163,0,0
259,-139,0,0,0,0,0,0,0,0,0,-1,1483,1163,0,0
266,-139,0,0,0,0,0,0,0,0,0,-1,1490,1163,0,0
273,-139,0,0,0,0,0,0,0,0,0,-1,1497,1163,0,0
280,-139,0,0,0,0,0,0,0,0,0,-1,1504,1163,0,0
287,-139,0,0,0,0,0,0,0,0,0,-1,1511,1163,0,0
294,-139,0,0,0,0,0,0,0,0,0,-1,1518,1163,0,0
301,-139,0,0,0,0,0,0,0,0,0,-1,1525,1163,0,0
308,-139,0,0,0,0,0,0,0,0,0,-1,1532,1163,0,0
315,-139,0,0,0,0,0,0,0,0,0,-1,1539,1163,0,0
322,-139,0,0,0,0,0,0,0,0,0,-1,1546,1163,0,0
329,-139,0,0,0,0,0,0,0,0,0,-1,1553,1163,0,0
336,-139,0,0,0,0,0,0,0,0,0,-1,1560,1163,0,0
343,-139,0,0,0,0,0,0,0,0,0,-1,1567,1163,0,0
350,-139,0,0,0,0,0,0,0,0,0,-1,1574,1163,0,0
357,-139,0,0,0,0,0,0,0,0,0,-1,1581,1163,0,0
364,-139,0,0,0,0,0,0,0,0,0,-1,1588,1163,0,0
371,-139,0,0,0,0,0,0,0,0,0,-1,1595,1163,0,0
378,-139,0,0,0,0,0,0,0,0,0,-1,1602,1163,0,0
385,-139,0,0,0,0,0,0,0,0,0,-1,1609,1163,0,0
392,-139,0,0,0,0,0,0,0,0,0,-1,1616,1163,0,0
399,-139,0,0,0,0,0,0,0,0,0,-1,1623,1163,0,0
406,-139,0,0,0,0,0,0,0,0,0,-1,1630,1163,0,0
413,-139,0,0,0,0,0,0,0,0,0,-1,1637,1163,0,0
420,-139,0,0,0,0,0,0,0,0,0,-1,1644,1163,0,0
427,-139,0,0,0,0,0,0,0,0,0,-1,1651,1163,0,0
434,-139,0,0,0,0,0,0,0,0,0,-1,1658,1163,0,0
441,-139,0,0,0,0,0,0,0,0,0,-1,1665,1163,0,0
448,-139,0,0,0,0,0,0,0,0,0,-1,1672,1163,0,0
455,-139,0,0,0,0,0,0,0,0,0,-1,1679,1163,0,0
462,-139,0,0,0,0,0,0,0,0,0,-1,1686,1163,0,0
469,-139,0,0,0,0,0,0,0,0,0,-1,1693,1163,0,0
476,-139,0,0,0,0,0,0,0,0,0,-1,1700,1163,0,0
483,-139,0,0,0,0,0,0,0,0,0,-1,1707,1163,0,0
490,-139,0,0,0,0,0,0,0,0,0,-1,1714,1163,0,0
497,-139,0,0,0,0,0,0,0,0,0,-1,1721,1163,0,0
504,-139,0,0,0,0,0,0,0,0,0,-1,1728,1163,0,0
511,-139,0,0,0,0,0,0,0,0,0,-1,1735,1163,0,0
518,-139,0,0,0,0,0,0,0,0,0,-1,1742,1163,0,0
525,-139,0,0,0,0,0,0,0,0,0,-1,1749,1163,0,0
532,-139,0,0,0,0,0,0,0,0,0,-1,1756,1163,0,0
539,-139,0,0,0,0,0,0,0,0,0,-1,1763,1163,0,0
546,-139,0,0,0,0,0,0,0,0,0,-1,1770,1163,0,0
553,-139,0,0,0,0,0,0,0,0,0,-1,1777,1163,0,0
560,-139,0,0,0,0,0,0,0,0,0,-1,1784,1163,0,0
567,-139,0,0,0,0,0,0,0,0,0,-1,1791,1163,0,0
574,-139,0,0,0,0,0,0,0,0,0,-1,1798,1163,0,0
581,-139,0,0,0,0,0,0,0,0,0,-1,1805,1163,0,0
588,-139,0,0,0,0,0,0,0,0,0,-1,1812,1163,0,0
595,-139,0,0,0,0,0,0,0,0,0,-1,1819,1163,0,0
602,-139,0,0,0,0,0,0,0,0,0,-1,1826,1163,0,0
609,-139,0,0,0,0,0,0,0,0,0,-1,1833,1163,0,0
616,-139,0,0,0,0,0,0,0,0,0,-1,1840,1163,0,0
623,-139,0,0,0,0,0,0,0,0,0,-1,1847,1163,0,0
630,-139,0,0,0,0,0,0,0,0,0,-1,1854,1163,0,0
637,-139,0,0,0,0,0,0,0,0,0,-1,1861,1163,0,0
644,-139,36.1416,2.49438,0.00275097,-0.0040542,-0.00161517,0.00311486,-0.00441809,-0.221597,0.00437079,0.0396228,1868,1163,36.1417,-2.49441
651,-139,36.1613,2.56152,0.00211001,-0.00269171,-0.00108055,0.00234197,-0.00292367,-0.211456,0.00304629,0.0402818,1875,1163,36.1612,-2.56152
658,-139,36.196,2.6814,0.0016958,-0.00141017,-0.00088193,0.00192875,-0.00164312,-0.258238,0.00206442,0.041838,1882,1163,36.196,-2.68134
665,-139,36.1506,2.7113,0.00139291,-0.000233188,-0.000849562,0.00175579,-0.000596066,-0.403678,0.0014118,0.0381671,1889,1163,36.1507,-2.71131
672,-139,36.0812,2.69568,0.00113106,0.000651361,-0.00077228,0.00169988,8.25441e-05,-0.634833,0.00110677,0.0368375,1896,1163,36.0812,-2.69564
679,-139,36.1407,2.79224,0.000291288,0.0010811,-0.000529862,0.00134703,2.53569e-05,-1.10564,0.000889686,0.0351312,1903,1163,36.1407,-2.79227
686,-139,36.069,2.90442,-0.000602276,0.0011845,-0.000225538,0.00121253,-0.000630305,-1.44715,0.00108151,0.0307894,1910,1163,36.069,-2.90445
693,-139,36.113,2.79297,-0.00115807,0.00124357,3.56664e-05,0.0012441,-0.00115859,1.55595,0.00138749,0.0191065,1917,1163,36.1131,-2.79302
700,-139,36.1572,2.59705,0,0,0,0,0,0,0,-1,1924,1163,36.1573,-2.59711
707,-139,32.116,6.54346,0,0,0,0,0,0,0,-1,1931,1163,32.116,-6.54343
714,-139,32.4901,6.43933,0,0,0,0,0,0,0,-1,1938,1163,32.4901,-6.43938
721,-139,32.6008,6.04773,-0.00273012,0.00108248,0.00101372,0.00133526,-0.0029829,1.32642,0.00255287,0.0290723,1945,1163,32.6008,-6.04772
728,-139,32.5605,5.8689,-0.0030589,0.000951647,0.00134269,0.00135966,-0.00346691,1.27579,0.00287379,0.0313909,1952,1163,32.5606,-5.86893
735,-139,32.4934,5.71851,-0.00345121,0.00105355,0.00162678,0.00157959,-0.00397725,1.25804,0.00330629,0.0233935,1959,1163,32.4935,-5.71849
742,-139,32.5532,5.35632,-0.00348087,0.00164223,0.00210163,0.00239404,-0.00423268,1.22725,0.00387472,0.0224681,1966,1163,32.5532,-5.35632
749,-139,32.5626,5.11218,-0.00341769,0.00298841,0.0026653,0.0039523,-0.00438158,1.22379,0.00481369,0.0194793,1973,1163,32.5626,-5.11218
756,-139,32.5225,4.87402,-0.00321113,0.0046035,0.00315324,0.00571715,-0.00432478,1.2313,0.00581625,0.0109985,1980,1163,32.5224,-4.87401
763,-139,32.5129,4.63757,-0.00300541,0.00675546,0.00340832,0.00782778,-0.00407773,1.26598,0.00698639,0.0107967,1987,1163,32.5129,-4.63755
770,-139,32.5231,4.39746,-0.00311243,0.00959683,0.00385498,0.0106747,-0.00419032,1.29815,0.00885033,0.0123877,1994,1163,32.5231,-4.39741
777,-139,32.5146,4.20459,-0.003531,0.0128069,0.00429383,0.0138667,-0.00459074,1.32883,0.0110959,0.0232622,2001,1163,32.5146,-4.20462
784,-139,32.5848,4.04968,-0.00440434,0.0164139,0.00467957,0.0174175,-0.00540785,1.35955,0.0137728,0.0413905,2008,1163,32.5849,-4.04971
791,-139,32.6656,3.8689,0,0,0,0,0,0,0,-1,2015,1163,32.6656,-3.86892
798,-139,31.9663,3.83423,0,0,0,0,0,0,0,-1,2022,1163,31.9664,-3.83417
805,-139,31.751,3.4751,0,0,0,0,0,0,0,-1,2029,1163,31.7509,-3.47508
812,-139,0,0,0,0,0,0,0,0,0,-1,2036,1163,0,0
-700,-146,0,0,0,0,0,0,0,0,0,-1,524,1170,0,0
-693,-146,-18.1063,-0.906128,0,0,0,0,0,0,0,-1,531,1170,-18.1063,0.906186
-686,-146,-19.1865,-1.82141,0,0,0,0,0,0,0,-1,538,1170,-19.1864,1.82135
-679,-146,-21.6824,0.730835,0,0,0,0,0,0,0,-1,545,1170,-21.6824,-0.730778
-672,-146,-21.8713,1.07971,0.00465183,0.0886593,-0.0189825,0.0927495,0.000561662,-1.35857,0.0616466,0.0446,552,1170,-21.8713,-1.07968
-665,-146,-22.0878,1.47937,0.00332801,0.0698912,-0.0145938,0.0729503,0.000268932,-1.36417,0.0485441,0.0437518,559,1170,-22.0878,-1.47932
-658,-146,-22.1511,0.842285,0,0,0,0,0,0,0,-1,566,1170,-22.1511,-0.842319
-651,-146,-22.0962,1.0929,0.00111549,0.0396009,-0.00790235,0.0411603,-0.000443941,-1.37596,0.0275894,0.0407138,573,1170,-22.0962,-1.09287
-644,-146,-22.0397,1.36255,0.000303044,0.0280094,-0.0055093,0.0290647,-0.000752264,-1.38154,0.019632,0.020797,580,1170,-22.0397,-1.36251
-637,-146,-22.0452,1.65186,-0.000230331,0.0185292,-0.0037748,0.0192603,-0.000961408,-1.37949,0.0131723,0.0107328,587,1170,-22.0452,-1.65191
-630,-146,-22.0662,1.96875,-0.000653505,0.0102806,-0.00230372,0.0107462,-0.00111905,-1.3714,0.00756477,0.00978456,594,1170,-22.0662,-1.96873
-623,-146,-22.0783,2.24805,-0.000916616,0.00432008,-0.00134676,0.00464613,-0.00124267,-1.33326,0.00358419,0.0120618,601,1170,-22.0783,-2.24808
-616,-146,-22.1113,2.55811,-0.00116696,0.00113256,-0.000430985,0.00121068,-0.00124508,-1.39148,0.00141788,0.0190336,608,1170,-22.1113,-2.55814
-609,-146,-21.9766,2.87402,-0.000957497,3.68889e-05,-0.000600053,0.000318968,-0.00123958,-1.13136,0.000950713,0.0193692,615,1170,-21.9766,-2.87405
-602,-146,-21.7244,3.20764,0,0,0,0,0,0,0,-1,622,1170,-21.7244,-3.20764
-595,-146,-22.3185,3.47314,0,0,0,0,0,0,0,-1,629,1170,-22.3185,-3.47311
-588,-146,-22.3668,3.65759,0,0,0,0,0,0,0,-1,636,1170,-22.3668,-3.65756
-581,-146,-21.6071,3.85474,0,0,0,0,0,0,0,-1,643,1170,-21.6071,-3.85478
-574,-146,-17.9915,3.79114,0,0,0,0,0,0,0,-1,650,1170,-17.9915,-3.79118
-567,-146,-26.0815,0.71814,0,0,0,0,0,0,0,-1,657,1170,-26.0815,-0.71816
-560,-146,-26.0329,0.890747,0,0,0,0,0,0,0,-1,664,1170,-26.0329,-0.890797
-553,-146,-26.0411,0.847168,0,0,0,0,0,0,0,-1,671,1170,-26.0412,-0.847222
-546,-146,-26.0296,0.710083,-0.00208813,-0.000102604,0.000271286,-6.62052e-05,-0.00212453,1.43742,0.00139481,0.0414859,678,1170,-26.0296,-0.710035
-539,-146,-26.1248,0.783325,-0.00118515,0.000548726,0.000540145,0.000703227,-0.00133965,1.2922,0.00119838,0.0420928,685,1170,-26.1248,-0.783268
-532,-146,-26.1813,0.840576,0.000762287,0.00165979,0.000860853,0.00218183,0.000240242,1.02566,0.00138146,0.0404608,692,1170,-26.1813,-0.84052
-525,-146,-26.1395,1.00671,0.00369817,0.0028098,0.000755718,0.00413057,0.0023774,0.519711,0.00239385,0.0417568,699,1170,-26.1395,-1.00675
-518,-146,0,0,0,0,0,0,0,0,0,-1,706,1170,0,0
-511,-146,0,0,0,0,0,0,0,0,0,-1,713,1170,0,0
-504,-146,0,0,0,0,0,0,0,0,0,-1,720,1170,0,0
-497,-146,0,0,0,0,0,0,0,0,0,-1,727,1170,0,0
-490,-146,0,0,0,0,0,0,0,0,0,-1,734,1170,0,0
-483,-146,0,0,0,0,0,0,0,0,0,-1,741,1170,0,0
-476,-146,0,0,0,0,0,0,0,0,0,-1,748,1170,0,0
-469,-146,0,0,0,0,0,0,0,0,0,-1,755,1170,0,0
-462,-146,0,0,0,0,0,0,0,0,0,-1,762,1170,0,0
-455,-146,0,0,0,0,0,0,0,0,0,-1,769,1170,0,0
-448,-146,0,0,0,0,0,0,0,0,0,-1,776,1170,0,0
-441,-146,0,0,0,0,0,0,0,0,0,-1,783,1170,0,0
-434,-146,0,0,0,0,0,0,0,0,0,-1,790,1170,0,0
-427,-146,0,0,0,0,0,0,0,0,0,-1,797,1170,0,0
-420,-146,0,0,0,0,0,0,0,0,0,-1,804,1170,0,0
-413,-146,0,0,0,0,0,0,0,0,0,-1,811,1170,0,0
-406,-146,0,0,0,0,0,0,0,0,0,-1,818,1170,0,0
-399,-146,0,0,0,0,0,0,0,0,0,-1,825,1170,0,0
-392,-146,0,0,0,0,0,0,0,0,0,-1,832,1170,0,0
-385,-146,0,0,0,0,0,0,0,0,0,-1,839,1170,0,0
-378,-146,0,0,0,0,0,0,0,0,0,-1,846,1170,0,0
-371,-146,0,0,0,0,0,0,0,0,0,-1,853,1170,0,0
-364,-146,0,0,0,0,0,0,0,0,0,-1,860,1170,0,0
-357,-146,0,0,0,0,0,0,0,0,0,-1,867,1170,0,0
-350,-146,0,0,0,0,0,0,0,0,0,-1,874,1170,0,0
-343,-146,0,0,0,0,0,0,0,0,0,-1,881,1170,0,0
-336,-146,0,0,0,0,0,0,0,0,0,-1,888,1170,0,0
-329,-146,0,0,0,0,0,0,0,0,0,-1,895,1170,0,0
-322,-146,0,0,0,0,0,0,0,0,0,-1,902,1170,0,0
-315,-146,0,0,0,0,0,0,0,0,0,-1,909,1170,0,0
-308,-146,0,0,0,0,0,0,0,0,0,-1,916,1170,0,0
-301,-146,0,0,0,0,0,0,0,0,0,-1,923,1170,0,0
-294,-146,0,0,0,0,0,0,0,0,0,-1,930,1170,0,0
-287,-146,0,0,0,0,0,0,0,0,0,-1,937,1170,0,0
-280,-146,0,0,0,0,0,0,0,0,0,-1,944,1170,0,0
-273,-146,0,0,0,0,0,0,0,0,0,-1,951,1170,0,0
-266,-146,0,0,0,0,0,0,0,0,0,-1,958,1170,0,0
-259,-146,0,0,0,0,0,0,0,0,0,-1,965,1170,0,0
-252,-146,0,0,0,0,0,0,0,0,0,-1,972,1170,0,0
-245,-146,0,0,0,0,0,0,0,0,0,-1,979,1170,0,0
-238,-146,0,0,0,0,0,0,0,0,0,-1,986,1170,0,0
-231,-146,0,0,0,0,0,0,0,0,0,-1,993,1170,0,0
-224,-146,0,0,0,0,0,0,0,0,0,-1,1000,1170,0,0
-217,-146,0,0,0,0,0,0,0,0,0,-1,1007,1170,0,0
-210,-146,0,0,0,0,0,0,0,0,0,-1,1014,1170,0,0
-203,-146,0,0,0,0,0,0,0,0,0,-1,1021,1170,0,0
-196,-146,0,0,0,0,0,0,0,0,0,-1,1028,1170,0,0
-189,-146,0,0,0,0,0,0,0,0,0,-1,1035,1170,0,0
-182,-146,0,0,0,0,0,0,0,0,0,-1,1042,1170,0,0
-175,-146,0,0,0,0,0,0,0,0,0,-1,1049,1170,0,0
-168,-146,0,0,0,0,0,0,0,0,0,-1,1056,1170,0,0
-161,-146,0,0,0,0,0,0,0,0,0,-1,1063,1170,0,0
-154,-146,0,0,0,0,0,0,0,0,0,-1,1070,1170,0,0
-147,-146,0,0,0,0,0,0,0,0,0,-1,1077,1170,0,0
-140,-146,0,0,0,0,0,0,0,0,0,-1,1084,1170,0,0
-133,-146,0,0,0,0,0,0,0,0,0,-1,1091,1170,0,0
-126,-146,0,0,0,0,0,0,0,0,0,-1,1098,1170,0,0
-119,-146,0,0,0,0,0,0,0,0,0,-1,1105,1170,0,0
-112,-146,0,0,0,0,0,0,0,0,0,-1,1112,1170,0,0
-105,-146,0,0,0,0,0,0,0,0,0,-1,1119,1170,0,0
-98,-146,0,0,0,0,0,0,0,0,0,-1,1126,1170,0,0
-91,-146,0,0,0,0,0,0,0,0,0,-1,1133,1170,0,0
-84,-146,0,0,0,0,0,0,0,0,0,-1,1140,1170,0,0
-77,-146,0,0,0,0,0,0,0,0,0,-1,1147,1170,0,0
-70,-146,0,0,0,0,0,0,0,0,0,-1,1154,1170,0,0
-63,-146,0,0,0,0,0,0,0,0,0,-1,1161,1170,0,0
-56,-146,0,0,0,0,0,0,0,0,0,-1,1168,1170,0,0
-49,-146,0,0,0,0,0,0,0,0,0,-1,1175,1170,0,0
-42,-146,0,0,0,0,0,0,0,0,0,-1,1182,1170,0,0
-35,-146,0,0,0,0,0,0,0,0,0,-1,1189,1170,0,0
-28,-146,0,0,0,0,0,0,0,0,0,-1,1196,1170,0,0
-21,-146,0,0,0,0,0,0,0,0,0,-1,1203,1170,0,0
-14,-146,0,0,0,0,0,0,0,0,0,-1,1210,1170,0,0
-7,-146,0,0,0,0,0,0,0,0,0,-1,1217,1170,0,0
0,-146,0,0,0,0,0,0,0,0,0,-1,1224,1170,0,0
7,-146,0,0,0,0,0,0,0,0,0,-1,1231,1170,0,0
14,-146,0,0,0,0,0,0,0,0,0,-1,1238,1170,0,0
21,-146,0,0,0,0,0,0,0,0,0,-1,1245,1170,0,0
28,-146,0,0,0,0,0,0,0,0,0,-1,1252,1170,0,0
35,-146,0,0,0,0,0,0,0,0,0,-1,1259,1170,0,0
42,-146,0,0,0,0,0,0,0,0,0,-1,1266,1170,0,0
49,-146,0,0,0,0,0,0,0,0,0,-1,1273,1170,0,0
56,-146,0,0,0,0,0,0,0,0,0,-1,1280,1170,0,0
63,-146,0,0,0,0,0,0,0,0,0,-1,1287,1170,0,0
70,-146,0,0,0,0,0,0,0,0,0,-1,1294,1170,0,0
77,-146,0,0,0,0,0,0,0,0,0,-1,1301,1170,0,0
84,-146,0,0,0,0,0,0,0,0,0,-1,1308,1170,0,0
91,-146,0,0,0,0,0,0,0,0,0,-1,1315,1170,0,0
98,-146,0,0,0,0,0,0,0,0,0,-1,1322,1170,0,0
105,-146,0,0,0,0,0,0,0,0,0,-1,1329,1170,0,0
112,-146,0,0,0,0,0,0,0,0,0,-1,1336,1170,0,0
119,-146,0,0,0,0,0,0,0,0,0,-1,1343,1170,0,0
126,-146,0,0,0,0,0,0,0,0,0,-1,1350,1170,0,0
133,-146,0,0,0,0,0,0,0,0,0,-1,1357,1170,0,0
140,-146,0,0,0,0,0,0,0,0,0,-1,1364,1170,0,0
147,-146,0,0,0,0,0,0,0,0,0,-1,1371,1170,0,0
154,-146,0,0,0,0,0,0,0,0,0,-1,1378,1170,0,0
161,-146,0,0,0,0,0,0,0,0,0,-1,1385,1170,0,0
168,-146,0,0,0,0,0,0,0,0,0,-1,1392,1170,0,0
175,-146,0,0,0,0,0,0,0,0,0,-1,1399,1170,0,0
182,-146,0,0,0,0,0,0,0,0,0,-1,1406,1170,0,0
189,-146,0,0,0,0,0,0,0,0,0,-1,1413,1170,0,0
196,-146,0,0,0,0,0,0,0,0,0,-1,1420,1170,0,0
203,-146,0,0,0,0,0,0,0,0,0,-1,1427,1170,0,0
210,-146,0,0,0,0,0,0,0,0,0,-1,1434,1170,0,0
217,-146,0,0,0,0,0,0,0,0,0,-1,1441,1170,0,0
224,-146,0,0,0,0,0,0,0,0,0,-1,1448,1170,0,0
231,-146,0,0,0,0,0,0,0,0,0,-1,1455,1170,0,0
238,-146,0,0,0,0,0,0,0,0,0,-1,1462,1170,0,0
245,-146,0,0,0,0,0,0,0,0,0,-1,1469,1170,0,0
252,-146,0,0,0,0,0,0,0,0,0,-1,1476,1170,0,0
259,-146,0,0,0,0,0,0,0,0,0,-1,1483,1170,0,0
266,-146,0,0,0,0,0,0,0,0,0,-1,1490,1170,0,0
273,-146,0,0,0,0,0,0,0,0,0,-1,1497,1170,0,0
280,-146,0,0,0,0,0,0,0,0,0,-1,1504,1170,0,0
287,-146,0,0,0,0,0,0,0,0,0,-1,1511,1170,0,0
294,-146,0,0,0,0,0,0,0,0,0,-1,1518,1170,0,0
301,-146,0,0,0,0,0,0,0,0,0,-1,1525,1170,0,0
308,-146,0,0,0,0,0,0,0,0,0,-1,1532,1170,0,0
315,-146,0,0,0,0,0,0,0,0,0,-1,1539,1170,0,0
322,-146,0,0,0,0,0,0,0,0,0,-1,1546,1170,0,0
329,-146,0,0,0,0,0,0,0,0,0,-1,1553,1170,0,0
336,-146,0,0,0,0,0,0,0,0,0,-1,1560,1170,0,0
343,-146,0,0,0,0,0,0,0,0,0,-1,1567,1170,0,0
350,-146,0,0,0,0,0,0,0,0,0,-1,1574,1170,0,0
357,-146,0,0,0,0,0,0,0,0,0,-1,1581,1170,0,0
364,-146,0,0,0,0,0,0,0,0,0,-1,1588,1170,0,0
371,-146,0,0,0,0,0,0,0,0,0,-1,1595,1170,0,0
378,-146,0,0,0,0,0,0,0,0,0,-1,1602,1170,0,0
385,-146,0,0,0,0,0,0,0,0,0,-1,1609,1170,0,0
392,-146,0,0,0,0,0,0,0,0,0,-1,1616,1170,0,0
399,-146,0,0,0,0,0,0,0,0,0,-1,1623,1170,0,0
406,-146,0,0,0,0,0,0,0,0,0,-1,1630,1170,0,0
413,-146,0,0,0,0,0,0,0,0,0,-1,1637,1170,0,0
420,-146,0,0,0,0,0,0,0,0,0,-1,1644,1170,0,0
427,-146,0,0,0,0,0,0,0,0,0,-1,1651,1170,0,0
434,-146,0,0,0,0,0,0,0,0,0,-1,1658,1170,0,0
441,-146,0,0,0,0,0,0,0,0,0,-1,1665,1170,0,0
448,-146,0,0,0,0,0,0,0,0,0,-1,1672,1170,0,0
455,-146,0,0,0,0,0,0,0,0,0,-1,1679,1170,0,0
462,-146,0,0,0,0,0,0,0,0,0,-1,1686,1170,0,0
469,-146,0,0,0,0,0,0,0,0,0,-1,1693,1170,0,0
476,-146,0,0,0,0,0,0,0,0,0,-1,1700,1170,0,0
483,-146,0,0,0,0,0,0,0,0,0,-1,1707,1170,0,0
490,-146,0,0,0,0,0,0,0,0,0,-1,1714,1170,0,0
497,-146,0,0,0,0,0,0,0,0,0,-1,1721,1170,0,0
504,-146,0,0,0,0,0,0,0,0,0,-1,1728,1170,0,0
511,-146,0,0,0,0,0,0,0,0,0,-1,1735,1170,0,0
518,-146,0,0,0,0,0,0,0,0,0,-1,1742,1170,0,0
525,-146,0,0,0,0,0,0,0,0,0,-1,1749,1170,0,0
532,-146,0,0,0,0,0,0,0,0,0,-1,1756,1170,0,0
539,-146,0,0,0,0,0,0,0,0,0,-1,1763,1170,0,0
546,-146,0,0,0,0,0,0,0,0,0,-1,1770,1170,0,0
553,-146,0,0,0,0,0,0,0,0,0,-1,1777,1170,0,0
560,-146,0,0,0,0,0,0,0,0,0,-1,1784,1170,0,0
567,-146,0,0,0,0,0,0,0,0,0,-1,1791,1170,0,0
574,-146,0,0,0,0,0,0,0,0,0,-1,1798,1170,0,0
581,-146,0,0,0,0,0,0,0,0,0,-1,1805,1170,0,0
588,-146,0,0,0,0,0,0,0,0,0,-1,1812,1170,0,0
595,-146,0,0,0,0,0,0,0,0,0,-1,1819,1170,0,0
602,-146,0,0,0,0,0,0,0,0,0,-1,1826,1170,0,0
609,-146,0,0,0,0,0,0,0,0,0,-1,1833,1170,0,0
616,-146,0,0,0,0,0,0,0,0,0,-1,1840,1170,0,0
623,-146,0,0,0,0,0,0,0,0,0,-1,1847,1170,0,0
630,-146,0,0,0,0,0,0,0,0,0,-1,1854,1170,0,0
637,-146,36.2382,2.63013,0.00279502,-0.00351971,-0.00277208,0.00383925,-0.00456394,-0.360256,0.00485759,0.0379642,1861,1170,36.2382,-2.63018
644,-146,36.202,2.53601,0.00203302,-0.00244208,-0.00164527,0.00257279,-0.00298186,-0.317013,0.00320988,0.0359731,1868,1170,36.2021,-2.53597
651,-146,36.1985,2.51733,0.0015251,-0.00132773,-0.00116194,0.00193845,-0.00174108,-0.341786,0.0021254,0.0336943,1875,1170,36.1984,-2.51734
658,-146,36.1819,2.61255,0.00119028,-0.00023605,-0.00100125,0.00170639,-0.000752154,-0.475939,0.00145464,0.0388746,1882,1170,36.1819,-2.61257
665,-146,36.1267,2.70618,0.000932893,0.000744376,-0.000981062,0.00182421,-0.000146945,-0.737506,0.00126797,0.0402396,1889,1170,36.1267,-2.70622
672,-146,36.1334,2.90869,0.000677105,0.00143146,-0.000855618,0.00198935,0.000119219,-0.992998,0.00128833,0.0388152,1896,1170,36.1334,-2.90873
679,-146,36.1221,2.81641,-0.000236984,0.00167945,-0.000515815,0.00180946,-0.000366997,-1.32389,0.00134543,0.0303645,1903,1170,36.122,-2.81645
686,-146,36.0508,2.74048,-0.00118653,0.00164425,-0.000129166,0.00165013,-0.00119241,-1.52529,0.00164822,0.0201457,1910,1170,36.0508,-2.74042
693,-146,36.1088,2.68115,-0.00175816,0.00161345,0.000193032,0.00162447,-0.00176918,1.51379,0.00195991,0.0128956,1917,1170,36.1088,-2.68115
700,-146,36.1592,2.44006,0,0,0,0,0,0,0,-1,1924,1170,36.1592,-2.44009
707,-146,29.9441,6.94653,0,0,0,0,0,0,0,-1,1931,1170,29.9441,-6.94652
714,-146,31.325,6.13245,0,0,0,0,0,0,0,-1,1938,1170,31.325,-6.1325
721,-146,32.2854,5.93005,0,0,0,0,0,0,0,-1,1945,1170,32.2854,-5.93005
728,-146,32.5682,5.7323,-0.00354411,0.000967394,0.00166166,0.00151334,-0.00409006,1.25335,0.0033472,0.0394674,1952,1170,32.5682,-5.73235
735,-146,32.2805,5.6897,-0.00387688,0.00103207,0.00197337,0.00172698,-0.00457179,1.23221,0.0037582,0.0206235,1959,1170,32.2805,-5.68967
742,-146,32.3013,5.35889,-0.00386629,0.00169602,0.0023896,0.00258161,-0.00475188,1.21589,0.00429535,0.016555,1966,1170,32.3013,-5.35892
749,-146,32.2533,5.10828,-0.00377004,0.00349543,0.00289758,0.0045095,-0.0047841,1.23415,0.00536644,0.0150386,1973,1170,32.2533,-5.10826
756,-146,32.2332,4.85999,-0.00363392,0.00581143,0.00342894,0.00692496,-0.00474745,1.2568,0.00677805,0.0116237,1980,1170,32.2332,-4.86005
763,-146,32.2101,4.6156,-0.00363335,0.00898074,0.00382244,0.0100486,-0.00470125,1.29837,0.0087004,0.0106407,1987,1170,32.2101,-4.61562
770,-146,32.2047,4.36926,-0.00407253,0.0130968,0.00449274,0.0142014,-0.00517709,1.32972,0.0115855,0.011916,1994,1170,32.2047,-4.36929
777,-146,32.2202,4.20837,-0.00498638,0.0180329,0.00531468,0.0192007,-0.00615419,1.3545,0.015271,0.0212274,2001,1170,32.2202,-4.20835
784,-146,32.1597,4.14099,-0.00662588,0.0238649,0.00630265,0.0251163,-0.00787732,1.37479,0.0198967,0.0400471,2008,1170,32.1596,-4.14099
791,-146,31.746,4.09546,-0.00901991,0.0302884,0.00737251,0.0316257,-0.0103572,1.39136,0.0252543,0.0455938,2015,1170,31.7459,-4.09545
798,-146,31.3865,3.75732,-0.0117036,0.0368738,0.00825512,0.0382384,-0.0130681,1.40698,0.0307871,0.0444135,2022,1170,31.3864,-3.75735
805,-146,31.1863,3.24951,-0.0146742,0.0428045,0.00884927,0.0441361,-0.0160057,1.42145,0.0359667,0.0469576,2029,1170,31.1862,-3.24948
812,-146,0,0,0,0,0,0,0,0,0,-1,2036,1170,0,0
-700,-153,0,0,0,0,0,0,0,0,0,-1,524,1177,0,0
-693,-153,0,0,0,0,0,0,0,0,0,-1,531,1177,0,0
-686,-153,-21.3666,1.26343,0,0,0,0,0,0,0,-1,538,1177,-21.3666,-1.26338
-679,-153,-21.1848,1.41162,0.00706533,0.123037,-0.0278255,0.129368,0.000734627,-1.34709,0.0860013,0.0471997,545,1177,-21.1848,-1.41168
-672,-153,-21.1005,1.33337,0.0050474,0.100046,-0.020303,0.104203,0.000890184,-1.36883,0.0691739,0.0434933,552,1177,-21.1005,-1.33339
-665,-153,-21.432,1.23108,0.00333632,0.0794839,-0.0145881,0.082183,0.000637259,-1.38785,0.0545775,0.0449845,559,1177,-21.432,-1.23108
-658,-153,-21.6089,1.27319,0,0,0,0,0,0,0,-1,566,1177,-21.609,-1.27324
-651,-153,-21.6924,1.10034,0.000953103,0.0457271,-0.00709127,0.0468233,-0.000143165,-1.41742,0.0312634,0.0463383,573,1177,-21.6924,-1.10039
-644,-153,-21.7157,1.40869,0.000149507,0.0325772,-0.00474891,0.0332584,-0.000531645,-1.42833,0.0223516,0.028839,580,1177,-21.7157,-1.40865
-637,-153,-21.7299,1.67114,-0.000417201,0.0217436,-0.0031486,0.0221823,-0.00085587,-1.43237,0.0150816,0.0115552,587,1177,-21.7298,-1.67109
-630,-153,-21.7562,1.96826,-0.000828048,0.0123558,-0.00188063,0.0126188,-0.00109107,-1.43184,0.00879878,0.00944966,594,1177,-21.7562,-1.96825
-623,-153,-21.7731,2.25757,-0.00119279,0.00537246,-0.00119827,0.00558433,-0.00140466,-1.39579,0.00426885,0.0103148,601,1177,-21.7731,-2.25757
-616,-153,-21.8013,2.55176,-0.00155398,0.00142391,-0.000564233,0.00152723,-0.00165731,-1.38968,0.00183911,0.01353,608,1177,-21.8013,-2.55177
-609,-153,-21.7295,2.83691,-0.00144717,2.95756e-05,-0.000951402,0.000495512,-0.0019131,-1.11539,0.00146871,0.0165408,615,1177,-21.7295,-2.83687
-602,-153,-21.6475,3.18359,0,0,0,0,0,0,0,-1,622,1177,-21.6475,-3.18361
-595,-153,-21.9536,3.52148,0,0,0,0,0,0,0,-1,629,1177,-21.9535,-3.52154
-588,-153,-22.2288,3.82385,0,0,0,0,0,0,0,-1,636,1177,-22.2288,-3.82388
-581,-153,-21.3999,3.81421,0,0,0,0,0,0,0,-1,643,1177,-21.3999,-3.81419
-574,-153,-21.4203,4.07483,0,0,0,0,0,0,0,-1,650,1177,-21.4204,-4.07486
-567,-153,-26.154,0.931396,0,0,0,0,0,0,0,-1,657,1177,-26.154,-0.931368
-560,-153,-26.0484,0.880737,-0.00271546,-0.00104755,-0.00060877,-0.000848992,-0.00291402,-1.25552,0.00173055,0.0403358,664,1177,-26.0484,-0.880729
-553,-153,-25.8943,0.772339,-0.00281066,-0.000918685,-0.000451164,-0.000816607,-0.00291274,-1.34829,0.00173492,0.0374344,671,1177,-25.8944,-0.772344
-546,-153,-25.8882,0.726318,-0.00235081,-0.000601513,-0.000213273,-0.000575887,-0.00237643,-1.45121,0.00143148,0.0408567,678,1177,-25.8882,-0.726377
-539,-153,-26.0891,0.693237,-0.00128482,0.000178433,0.000270594,0.000226869,-0.00133325,1.39367,0.000973313,0.0411554,685,1177,-26.0891,-0.693287
-532,-153,-26.3463,0.957153,0.000740543,0.00174006,0.000960962,0.00232345,0.000157156,1.02518,0.00149933,0.0428018,692,1177,-26.3463,-0.957096
-525,-153,-26.2882,1.41199,0.00378693,0.00358596,0.00124855,0.00493904,0.00243385,0.745245,0.00285165,0.0404847,699,1177,-26.2882,-1.41198
-518,-153,0,0,0,0,0,0,0,0,0,-1,706,1177,0,0
-511,-153,0,0,0,0,0,0,0,0,0,-1,713,1177,0,0
-504,-153,0,0,0,0,0,0,0,0,0,-1,720,1177,0,0
-497,-153,0,0,0,0,0,0,0,0,0,-1,727,1177,0,0
-490,-153,0,0,0,0,0,0,0,0,0,-1,734,1177,0,0
-483,-153,0,0,0,0,0,0,0,0,0,-1,741,1177,0,0
-476,-153,0,0,0,0,0,0,0,0,0,-1,748,1177,0,0
-469,-153,0,0,0,0,0,0,0,0,0,-1,755,1177,0,0
-462,-153,0,0,0,0,0,0,0,0,0,-1,762,1177,0,0
-455,-153,0,0,0,0,0,0,0,0,0,-1,769,1177,0,0
-448,-153,0,0,0,0,0,0,0,0,0,-1,776,1177,0,0
-441,-153,0,0,0,0,0,0,0,0,0,-1,783,1177,0,0
-434,-153,0,0,0,0,0,0,0,0,0,-1,790,1177,0,0
-427,-153,0,0,0,0,0,0,0,0,0,-1,797,1177,0,0
-420,-153,0,0,0,0,0,0,0,0,0,-1,804,1177,0,0
-413,-153,0,0,0,0,0,0,0,0,0,-1,811,1177,0,0
-406,-153,0,0,0,0,0,0,0,0,0,-1,818,1177,0,0
-399,-153,0,0,0,0,0,0,0,0,0,-1,825,1177,0,0
-392,-153,0,0,0,0,0,0,0,0,0,-1,832,1177,0,0
-385,-153,0,0,0,0,0,0,0,0,0,-1,839,1177,0,0
-378,-153,0,0,0,0,0,0,0,0,0,-1,846,1177,0,0
-371,-153,0,0,0,0,0,0,0,0,0,-1,853,1177,0,0
-364,-153,0,0,0,0,0,0,0,0,0,-1,860,1177,0,0
-357,-153,0,0,0,0,0,0,0,0,0,-1,867,1177,0,0
-350,-153,0,0,0,0,0,0,0,0,0,-1,874,1177,0,0
-343,-153,0,0,0,0,0,0,0,0,0,-1,881,1177,0,0
-336,-153,0,0,0,0,0,0,0,0,0,-1,888,1177,0,0
-329,-153,0,0,0,0,0,0,0,0,0,-1,895,1177,0,0
-322,-153,0,0,0,0,0,0,0,0,0,-1,902,1177,0,0
-315,-153,0,0,0,0,0,0,0,0,0,-1,909,1177,0,0
-308,-153,0,0,0,0,0,0,0,0,0,-1,916,1177,0,0
-301,-153,0,0,0,0,0,0,0,0,0,-1,923,1177,0,0
-294,-153,0,0,0,0,0,0,0,0,0,-1,930,1177,0,0
-287,-153,0,0,0,0,0,0,0,0,0,-1,937,1177,0,0
-280,-153,0,0,0,0,0,0,0,0,0,-1,944,1177,0,0
-273,-153,0,0,0,0,0,0,0,0,0,-1,951,1177,0,0
-266,-153,0,0,0,0,0,0,0,0,0,-1,958,1177,0,0
-259,-153,0,0,0,0,0,0,0,0,0,-1,965,1177,0,0
-252,-153,0,0,0,0,0,0,0,0,0,-1,972,1177,0,0
-245,-153,0,0,0,0,0,0,0,0,0,-1,979,1177,0,0
-238,-153,0,0,0,0,0,0,0,0,0,-1,986,1177,0,0
-231,-153,0,0,0,0,0,0,0,0,0,-1,993,1177,0,0
-224,-153,0,0,0,0,0,0,0,0,0,-1,1000,1177,0,0
-217,-153,0,0,0,0,0,0,0,0,0,-1,1007,1177,0,0
-210,-153,0,0,0,0,0,0,0,0,0,-1,1014,1177,0,0
-203,-153,0,0,0,0,0,0,0,0,0,-1,1021,1177,0,0
-196,-153,0,0,0,0,0,0,0,0,0,-1,1028,1177,0,0
-189,-153,0,0,0,0,0,0,0,0,0,-1,1035,1177,0,0
-182,-153,0,0,0,0,0,0,0,0,0,-1,1042,1177,0,0
-175,-153,0,0,0,0,0,0,0,0,0,-1,1049,1177,0,0
-168,-153,0,0,0,0,0,0,0,0,0,-1,1056,1177,0,0
-161,-153,0,0,0,0,0,0,0,0,0,-1,1063,1177,0,0
-154,-153,0,0,0,0,0,0,0,0,0,-1,1070,1177,0,0
-147,-153,0,0,0,0,0,0,0,0,0,-1,1077,1177,0,0
-140,-153,0,0,0,0,0,0,0,0,0,-1,1084,1177,0,0
-133,-153,0,0,0,0,0,0,0,0,0,-1,1091,1177,0,0
-126,-153,0,0,0,0,0,0,0,0,0,-1,1098,1177,0,0
-119,-153,0,0,0,0,0,0,0,0,0,-1,1105,1177,0,0
-112,-153,0,0,0,0,0,0,0,0,0,-1,1112,1177,0,0
-105,-153,0,0,0,0,0,0,0,0,0,-1,1119,1177,0,0
-98,-153,0,0,0,0,0,0,0,0,0,-1,1126,1177,0,0
-91,-153,0,0,0,0,0,0,0,0,0,-1,1133,1177,0,0
-84,-153,0,0,0,0,0,0,0,0,0,-1,1140,1177,0,0
-77,-153,0,0,0,0,0,0,0,0,0,-1,1147,1177,0,0
-70,-153,0,0,0,0,0,0,0,0,0,-1,1154,1177,0,0
-63,-153,0,0,0,0,0,0,0,0,0,-1,1161,1177,0,0
-56,-153,0,0,0,0,0,0,0,0,0,-1,1168,1177,0,0
-49,-153,0,0,0,0,0,0,0,0,0,-1,1175,1177,0,0
-42,-153,0,0,0,0,0,0,0,0,0,-1,1182,1177,0,0
-35,-153,0,0,0,0,0,0,0,0,0,-1,1189,1177,0,0
-28,-153,0,0,0,0,0,0,0,0,0,-1,1196,1177,0,0
-21,-153,0,0,0,0,0,0,0,0,0,-1,1203,1177,0,0
-14,-153,0,0,0,0,0,0,0,0,0,-1,1210,1177,0,0
-7,-153,0,0,0,0,0,0,0,0,0,-1,1217,1177,0,0
0,-153,0,0,0,0,0,0,0,0,0,-1,1224,1177,0,0
7,-153,0,0,0,0,0,0,0,0,0,-1,1231,1177,0,0
14,-153,0,0,0,0,0,0,0,0,0,-1,1238,1177,0,0
21,-153,0,0,0,0,0,0,0,0,0,-1,1245,1177,0,0
28,-153,0,0,0,0,0,0,0,0,0,-1,1252,1177,0,0
35,-153,0,0,0,0,0,0,0,0,0,-1,1259,1177,0,0
42,-153,0,0,0,0,0,0,0,0,0,-1,1266,1177,0,0
49,-153,0,0,0,0,0,0,0,0,0,-1,1273,1177,0,0
56,-153,0,0,0,0,0,0,0,0,0,-1,1280,1177,0,0
63,-153,0,0,0,0,0,0,0,0,0,-1,1287,1177,0,0
70,-153,0,0,0,0,0,0,0,0,0,-1,1294,1177,0,0
77,-153,0,0,0,0,0,0,0,0,0,-1,1301,1177,0,0
84,-153,0,0,0,0,0,0,0,0,0,-1,1308,1177,0,0
91,-153,0,0,0,0,0,0,0,0,0,-1,1315,1177,0,0
98,-153,0,0,0,0,0,0,0,0,0,-1,1322,1177,0,0
105,-153,0,0,0,0,0,0,0,0,0,-1,1329,1177,0,0
112,-153,0,0,0,0,0,0,0,0,0,-1,1336,1177,0,0
119,-153,0,0,0,0,0,0,0,0,0,-1,1343,1177,0,0
126,-153,0,0,0,0,0,0,0,0,0,-1,1350,1177,0,0
133,-153,0,0,0,0,0,0,0,0,0,-1,1357,1177,0,0
140,-153,0,0,0,0,0,0,0,0,0,-1,1364,1177,0,0
147,-153,0,0,0,0,0,0,0,0,0,-1,1371,1177,0,0
154,-153,0,0,0,0,0,0,0,0,0,-1,1378,1177,0,0
161,-153,0,0,0,0,0,0,0,0,0,-1,1385,1177,0,0
168,-153,0,0,0,0,0,0,0,0,0,-1,1392,1177,0,0
175,-153,0,0,0,0,0,0,0,0,0,-1,1399,1177,0,0
182,-153,0,0,0,0,0,0,0,0,0,-1,1406,1177,0,0
189,-153,0,0,0,0,0,0,0,0,0,-1,1413,1177,0,0
196,-153,0,0,0,0,0,0,0,0,0,-1,1420,1177,0,0
203,-153,0,0,0,0,0,0,0,0,0,-1,1427,1177,0,0
210,-153,0,0,0,0,0,0,0,0,0,-1,1434,1177,0,0
217,-153,0,0,0,0,0,0,0,0,0,-1,1441,1177,0,0
224,-153,0,0,0,0,0,0,0,0,0,-1,1448,1177,0,0
231,-153,0,0,0,0,0,0,0,0,0,-1,1455,1177,0,0
238,-153,0,0,0,0,0,0,0,0,0,-1,1462,1177,0,0
245,-153,0,0,0,0,0,0,0,0,0,-1,1469,1177,0,0
252,-153,0,0,0,0,0,0,0,0,0,-1,1476,1177,0,0
259,-153,0,0,0,0,0,0,0,0,0,-1,1483,1177,0,0
266,-153,0,0,0,0,0,0,0,0,0,-1,1490,1177,0,0
273,-153,0,0,0,0,0,0,0,0,0,-1,1497,1177,0,0
280,-153,0,0,0,0,0,0,0,0,0,-1,1504,1177,0,0
287,-153,0,0,0,0,0,0,0,0,0,-1,1511,1177,0,0
294,-153,0,0,0,0,0,0,0,0,0,-1,1518,1177,0,0
301,-153,0,0,0,0,0,0,0,0,0,-1,1525,1177,0,0
308,-153,0,0,0,0,0,0,0,0,0,-1,1532,1177,0,0
315,-153,0,0,0,0,0,0,0,0,0,-1,1539,1177,0,0
322,-153,0,0,0,0,0,0,0,0,0,-1,1546,1177,0,0
329,-153,0,0,0,0,0,0,0,0,0,-1,1553,1177,0,0
336,-153,0,0,0,0,0,0,0,0,0,-1,1560,1177,0,0
343,-153,0,0,0,0,0,0,0,0,0,-1,1567,1177,0,0
350,-153,0,0,0,0,0,0,0,0,0,-1,1574,1177,0,0
357,-153,0,0,0,0,0,0,0,0,0,-1,1581,1177,0,0
364,-153,0,0,0,0,0,0,0,0,0,-1,1588,1177,0,0
371,-153,0,0,0,0,0,0,0,0,0,-1,1595,1177,0,0
378,-153,0,0,0,0,0,0,0,0,0,-1,1602,1177,0,0
385,-153,0,0,0,0,0,0,0,0,0,-1,1609,1177,0,0
392,-153,0,0,0,0,0,0,0,0,0,-1,1616,1177,0,0
399,-153,0,0,0,0,0,0,0,0,0,-1,1623,1177,0,0
406,-153,0,0,0,0,0,0,0,0,0,-1,1630,1177,0,0
413,-153,0,0,0,0,0,0,0,0,0,-1,1637,1177,0,0
420,-153,0,0,0,0,0,0,0,0,0,-1,1644,1177,0,0
427,-153,0,0,0,0,0,0,0,0,0,-1,1651,1177,0,0
434,-153,0,0,0,0,0,0,0,0,0,-1,1658,1177,0,0
441,-153,0,0,0,0,0,0,0,0,0,-1,1665,1177,0,0
448,-153,0,0,0,0,0,0,0,0,0,-1,1672,1177,0,0
455,-153,0,0,0,0,0,0,0,0,0,-1,1679,1177,0,0
462,-153,0,0,0,0,0,0,0,0,0,-1,1686,1177,0,0
469,-153,0,0,0,0,0,0,0,0,0,-1,1693,1177,0,0
476,-153,0,0,0,0,0,0,0,0,0,-1,1700,1177,0,0
483,-153,0,0,0,0,0,0,0,0,0,-1,1707,1177,0,0
490,-153,0,0,0,0,0,0,0,0,0,-1,1714,1177,0,0
497,-153,0,0,0,0,0,0,0,0,0,-1,1721,1177,0,0
504,-153,0,0,0,0,0,0,0,0,0,-1,1728,1177,0,0
511,-153,0,0,0,0,0,0,0,0,0,-1,1735,1177,0,0
518,-153,0,0,0,0,0,0,0,0,0,-1,1742,1177,0,0
525,-153,0,0,0,0,0,0,0,0,0,-1,1749,1177,0,0
532,-153,0,0,0,0,0,0,0,0,0,-1,1756,1177,0,0
539,-153,0,0,0,0,0,0,0,0,0,-1,1763,1177,0,0
546,-153,0,0,0,0,0,0,0,0,0,-1,1770,1177,0,0
553,-153,0,0,0,0,0,0,0,0,0,-1,1777,1177,0,0
560,-153,0,0,0,0,0,0,0,0,0,-1,1784,1177,0,0
567,-153,0,0,0,0,0,0,0,0,0,-1,1791,1177,0,0
574,-153,0,0,0,0,0,0,0,0,0,-1,1798,1177,0,0
581,-153,0,0,0,0,0,0,0,0,0,-1,1805,1177,0,0
588,-153,0,0,0,0,0,0,0,0,0,-1,1812,1177,0,0
595,-153,0,0,0,0,0,0,0,0,0,-1,1819,1177,0,0
602,-153,0,0,0,0,0,0,0,0,0,-1,1826,1177,0,0
609,-153,0,0,0,0,0,0,0,0,0,-1,1833,1177,0,0
616,-153,0,0,0,0,0,0,0,0,0,-1,1840,1177,0,0
623,-153,0,0,0,0,0,0,0,0,0,-1,1847,1177,0,0
630,-153,0,0,0,0,0,0,0,0,0,-1,1854,1177,0,0
637,-153,36.223,2.8241,0.00206416,-0.00183754,-0.00262946,0.00338744,-0.00316081,-0.466243,0.00378138,0.035234,1861,1177,36.2231,-2.82412
644,-153,36.163,2.64368,0.00146316,-0.00114662,-0.00164531,0.00225822,-0.00194168,-0.45014,0.00242711,0.0361405,1868,1177,36.163,-2.64366
651,-153,36.1273,2.64099,0.00107757,-0.00028212,-0.00122865,0.00180192,-0.00100647,-0.532701,0.00164296,0.0298087,1875,1177,36.1273,-2.64096
658,-153,36.1029,2.69348,0.000862622,0.000621404,-0.00112846,0.0018769,-0.000392879,-0.732161,0.00140072,0.0345628,1882,1177,36.1028,-2.69353
665,-153,36.0625,2.78687,0.000705895,0.0014315,-0.00113178,0.0022572,-0.000119811,-0.940503,0.00154629,0.0382548,1889,1177,36.0625,-2.78685
672,-153,36.0623,2.77173,0.000495072,0.00195638,-0.00096666,0.00243746,1.39974e-05,-1.10902,0.00162032,0.0385071,1896,1177,36.0623,-2.77178
679,-153,36.0732,2.74133,-0.000456724,0.0020591,-0.000546428,0.00217266,-0.000570281,-1.3659,0.00167129,0.028782,1903,1177,36.0732,-2.74136
686,-153,36.0865,2.74438,-0.00143585,0.00191234,-0.000101775,0.00191543,-0.00143894,-1.54044,0.00194315,0.0156705,1910,1177,36.0865,-2.74439
693,-153,36.1063,2.61682,-0.00201215,0.00181011,0.000262459,0.00182805,-0.00203009,1.50256,0.00222851,0.0234558,1917,1177,36.1064,-2.61676
700,-153,36.1071,2.36731,0,0,0,0,0,0,0,-1,1924,1177,36.1071,-2.36734
707,-153,29.6483,6.6842,0,0,0,0,0,0,0,-1,1931,1177,29.6483,-6.68415
714,-153,31.9321,6.19214,0,0,0,0,0,0,0,-1,1938,1177,31.9321,-6.19214
721,-153,32.2476,5.99512,-0.00348005,0.00118893,0.00146461,0.00161033,-0.00390145,1.29064,0.00327259,0.0409505,1945,1177,32.2476,-5.99514
728,-153,32.4523,5.72314,-0.00377584,0.000911434,0.00188896,0.00157791,-0.00444231,1.2316,0.00360454,0.0477267,1952,1177,32.4523,-5.72314
735,-153,32.0194,5.61646,-0.00408658,0.000952512,0.00223191,0.00179891,-0.00493298,1.20833,0.00402461,0.0223002,1959,1177,32.0194,-5.61641
742,-153,32.0002,5.38782,-0.00401833,0.00170232,0.00257183,0.00268852,-0.00500454,1.20463,0.00450818,0.0139292,1966,1177,32.0003,-5.38785
749,-153,31.9889,5.12305,-0.00384217,0.0039714,0.00299652,0.00498825,-0.00485902,1.24365,0.00568548,0.0149774,1973,1177,31.9889,-5.12301
756,-153,31.9893,4.86084,-0.00371898,0.006926,0.0035595,0.00800655,-0.00479953,1.27607,0.00747048,0.010899,1980,1177,31.9892,-4.86081
763,-153,31.9565,4.61646,-0.00381368,0.0110351,0.00405675,0.0120711,-0.00484971,1.32076,0.0100614,0.0107898,1987,1177,31.9565,-4.61651
770,-153,31.944,4.35266,-0.00446437,0.0163574,0.00491654,0.0174599,-0.00556691,1.3502,0.013873,0.0104525,1994,1177,31.944,-4.35269
777,-153,31.9445,4.1217,-0.00574623,0.0230192,0.00610209,0.0242601,-0.00698715,1.37017,0.0189371,0.0215344,2001,1177,31.9444,-4.12172
784,-153,31.5929,3.82983,-0.00806597,0.0311267,0.0077032,0.0325864,-0.00952565,1.38353,0.0254996,0.0412797,2008,1177,31.5929,-3.82978
791,-153,30.9677,4.25085,-0.011381,0.0404387,0.00967385,0.0421857,-0.0131281,1.39213,0.033372,0.04457,2015,1177,30.9677,-4.2508
798,-153,30.793,3.86609,-0.0151166,0.0505314,0.0117793,0.052581,-0.0171662,1.39852,0.0419632,0.0430295,2022,1177,30.7929,-3.86607
805,-153,30.7092,3.37292,-0.019319,0.0605346,0.0140184,0.062924,-0.0217084,1.40197,0.0507572,0.0456277,2029,1177,30.7092,-3.37288
812,-153,0,0,0,0,0,0,0,0,0,-1,2036,1177,0,0
-700,-160,0,0,0,0,0,0,0,0,0,-1,524,1184,0,0
-693,-160,0,0,0,0,0,0,0,0,0,-1,531,1184,0,0
-686,-160,-20.793,0.752197,0.00845212,0.163276,-0.0331791,0.170087,0.00164138,-1.36834,0.112848,0.0444269,538,1184,-20.793,-0.752229
-679,-160,-20.5212,0.863281,0.0059703,0.136753,-0.0222322,0.140429,0.00229427,-1.40693,0.0928638,0.045537,545,1184,-20.5213,-0.863299
-672,-160,-20.5992,0.838623,0.00400699,0.112061,-0.0149165,0.114082,0.00198561,-1.4361,0.0754017,0.0418101,552,1184,-20.5992,-0.838659
-665,-160,-20.794,0.794067,0.00246732,0.0896714,-0.00985979,0.0907723,0.00136641,-1.4596,0.0600646,0.045586,559,1184,-20.794,-0.794078
-658,-160,-21.2526,0.740967,0,0,0,0,0,0,0,-1,566,1184,-21.2526,-0.740992
-651,-160,-21.4007,1.20972,0.000491007,0.0522951,-0.00400168,0.0526024,0.000183716,-1.49416,0.0350072,0.0493892,573,1184,-21.4007,-1.20977
-644,-160,-21.4097,1.5116,-0.000160391,0.0375078,-0.00245293,0.0376669,-0.000319455,-1.50604,0.0252184,0.0371086,580,1184,-21.4097,-1.51162
-637,-160,-21.4027,1.67566,-0.000624136,0.0252746,-0.0015607,0.0253684,-0.000717846,-1.51082,0.0171565,0.0142021,587,1184,-21.4027,-1.67566
-630,-160,-21.4472,1.93335,-0.000966783,0.0147024,-0.000873263,0.0147509,-0.0010153,-1.51529,0.0101892,0.00819805,594,1184,-21.4472,-1.9333
-623,-160,-21.4884,2.21277,-0.00141058,0.00662404,-0.000726023,0.00668912,-0.00147566,-1.4814,0.00502406,0.0120993,601,1184,-21.4884,-2.21283
-616,-160,-21.5048,2.52209,-0.00184272,0.00178013,-0.000545186,0.0018604,-0.00192299,-1.42462,0.00218444,0.011007,608,1184,-21.5048,-2.52216
-609,-160,-21.4833,2.89087,-0.00181164,-5.30679e-05,-0.00123066,0.00058015,-0.00244486,-1.09559,0.0018538,0.0123239,615,1184,-21.4833,-2.8909
-602,-160,-21.4211,3.30322,-0.00207398,-0.00073758,-0.00180617,0.000520034,-0.00333159,-0.962567,0.00241316,0.0321375,622,1184,-21.4211,-3.30325
-595,-160,-21.4613,3.69519,-0.00258074,-0.00108768,-0.00180678,0.000120725,-0.00378915,-0.981308,0.00256729,0.0454548,629,1184,-21.4613,-3.69517
-588,-160,-21.7411,4.08521,0,0,0,0,0,0,0,-1,636,1184,-21.7411,-4.08519
-581,-160,-21.1202,3.86975,0,0,0,0,0,0,0,-1,643,1184,-21.1202,-3.86978
-574,-160,-21.3502,4.30029,0,0,0,0,0,0,0,-1,650,1184,-21.3501,-4.30028
-567,-160,-26.131,1.16797,0,0,0,0,0,0,0,-1,657,1184,-26.131,-1.16797
-560,-160,-26.0551,0.982178,-0.00289717,-0.0018131,-0.00126,-0.000983494,-0.00372677,-0.988527,0.00223018,0.0437298,664,1184,-26.055,-0.98223
-553,-160,-25.9662,0.735962,-0.0028946,-0.00172,-0.00111466,-0.00104738,-0.00356721,-1.02786,0.00211721,0.0413999,671,1184,-25.9662,-0.736
-546,-160,-26.0812,0.714355,-0.00234105,-0.00140441,-0.000819579,-0.000928782,-0.00281668,-1.04497,0.00165734,0.0407593,678,1184,-26.0812,-0.714303
-539,-160,-26.2052,0.745483,-0.0012433,-0.000573823,-0.000199952,-0.00051865,-0.00129847,-1.30157,0.000754709,0.042887,685,1184,-26.2052,-0.745457
-532,-160,-26.1942,0.515991,0.00063454,0.0012021,0.000815445,0.00178173,5.49055e-05,0.952846,0.00116995,0.0462987,692,1184,-26.1942,-0.516021
-525,-160,-26.254,1.47437,0.00347212,0.00341111,0.00168879,0.00513068,0.00175255,0.776368,0.00301135,0.043765,699,1184,-26.254,-1.47432
-518,-160,-26.002,1.13257,0.00594075,0.004967,0.00158067,0.00710783,0.00379992,0.636,0.00410698,0.0397248,706,1184,-26.002,-1.13256
-511,-160,0,0,0,0,0,0,0,0,0,-1,713,1184,0,0
-504,-160,0,0,0,0,0,0,0,0,0,-1,720,1184,0,0
-497,-160,0,0,0,0,0,0,0,0,0,-1,727,1184,0,0
-490,-160,0,0,0,0,0,0,0,0,0,-1,734,1184,0,0
-483,-160,0,0,0,0,0,0,0,0,0,-1,741,1184,0,0
-476,-160,0,0,0,0,0,0,0,0,0,-1,748,1184,0,0
-469,-160,0,0,0,0,0,0,0,0,0,-1,755,1184,0,0
-462,-160,0,0,0,0,0,0,0,0,0,-1,762,1184,0,0
-455,-160,0,0,0,0,0,0,0,0,0,-1,769,1184,0,0
-448,-160,0,0,0,0,0,0,0,0,0,-1,776,1184,0,0
-441,-160,0,0,0,0,0,0,0,0,0,-1,783,1184,0,0
-434,-160,0,0,0,0,0,0,0,0,0,-1,790,1184,0,0
-427,-160,0,0,0,0,0,0,0,0,0,-1,797,1184,0,0
-420,-160,0,0,0,0,0,0,0,0,0,-1,804,1184,0,0
-413,-160,0,0,0,0,0,0,0,0,0,-1,811,1184,0,0
-406,-160,0,0,0,0,0,0,0,0,0,-1,818,1184,0,0
-399,-160,0,0,0,0,0,0,0,0,0,-1,825,1184,0,0
-392,-160,0,0,0,0,0,0,0,0,0,-1,832,1184,0,0
-385,-160,0,0,0,0,0,0,0,0,0,-1,839,1184,0,0
-378,-160,0,0,0,0,0,0,0,0,0,-1,846,1184,0,0
-371,-160,0,0,0,0,0,0,0,0,0,-1,853,1184,0,0
-364,-160,0,0,0,0,0,0,0,0,0,-1,860,1184,0,0
-357,-160,0,0,0,0,0,0,0,0,0,-1,867,1184,0,0
-350,-160,0,0,0,0,0,0,0,0,0,-1,874,1184,0,0
-343,-160,0,0,0,0,0,0,0,0,0,-1,881,1184,0,0
-336,-160,0,0,0,0,0,0,0,0,0,-1,888,1184,0,0
-329,-160,0,0,0,0,0,0,0,0,0,-1,895,1184,0,0
-322,-160,0,0,0,0,0,0,0,0,0,-1,902,1184,0,0
-315,-160,0,0,0,0,0,0,0,0,0,-1,909,1184,0,0
-308,-160,0,0,0,0,0,0,0,0,0,-1,916,1184,0,0
-301,-160,0,0,0,0,0,0,0,0,0,-1,923,1184,0,0
-294,-160,0,0,0,0,0,0,0,0,0,-1,930,1184,0,0
-287,-160,0,0,0,0,0,0,0,0,0,-1,937,1184,0,0
-280,-160,0,0,0,0,0,0,0,0,0,-1,944,1184,0,0
-273,-160,0,0,0,0,0,0,0,0,0,-1,951,1184,0,0
-266,-160,0,0,0,0,0,0,0,0,0,-1,958,1184,0,0
-259,-160,0,0,0,0,0,0,0,0,0,-1,965,1184,0,0
-252,-160,0,0,0,0,0,0,0,0,0,-1,972,1184,0,0
-245,-160,0,0,0,0,0,0,0,0,0,-1,979,1184,0,0
-238,-160,0,0,0,0,0,0,0,0,0,-1,986,1184,0,0
-231,-160,0,0,0,0,0,0,0,0,0,-1,993,1184,0,0
-224,-160,0,0,0,0,0,0,0,0,0,-1,1000,1184,0,0
-217,-160,0,0,0,0,0,0,0,0,0,-1,1007,1184,0,0
-210,-160,0,0,0,0,0,0,0,0,0,-1,1014,1184,0,0
-203,-160,0,0,0,0,0,0,0,0,0,-1,1021,1184,0,0
-196,-160,0,0,0,0,0,0,0,0,0,-1,1028,1184,0,0
-189,-160,0,0,0,0,0,0,0,0,0,-1,1035,1184,0,0
-182,-160,0,0,0,0,0,0,0,0,0,-1,1042,1184,0,0
-175,-160,0,0,0,0,0,0,0,0,0,-1,1049,1184,0,0
-168,-160,0,0,0,0,0,0,0,0,0,-1,1056,1184,0,0
-161,-160,0,0,0,0,0,0,0,0,0,-1,1063,1184,0,0
-154,-160,0,0,0,0,0,0,0,0,0,-1,1070,1184,0,0
-147,-160,0,0,0,0,0,0,0,0,0,-1,1077,1184,0,0
-140,-160,0,0,0,0,0,0,0,0,0,-1,1084,1184,0,0
-133,-160,0,0,0,0,0,0,0,0,0,-1,1091,1184,0,0
-126,-160,0,0,0,0,0,0,0,0,0,-1,1098,1184,0,0
-119,-160,0,0,0,0,0,0,0,0,0,-1,1105,1184,0,0
-112,-160,0,0,0,0,0,0,0,0,0,-1,1112,1184,0,0
-105,-160,0,0,0,0,0,0,0,0,0,-1,1119,1184,0,0
-98,-160,0,0,0,0,0,0,0,0,0,-1,1126,1184,0,0
-91,-160,0,0,0,0,0,0,0,0,0,-1,1133,1184,0,0
-84,-160,0,0,0,0,0,0,0,0,0,-1,1140,1184,0,0
-77,-160,0,0,0,0,0,0,0,0,0,-1,1147,1184,0,0
-70,-160,0,0,0,0,0,0,0,0,0,-1,1154,1184,0,0
-63,-160,0,0,0,0,0,0,0,0,0,-1,1161,1184,0,0
-56,-160,0,0,0,0,0,0,0,0,0,-1,1168,1184,0,0
-49,-160,0,0,0,0,0,0,0,0,0,-1,1175,1184,0,0
-42,-160,0,0,0,0,0,0,0,0,0,-1,1182,1184,0,0
-35,-160,0,0,0,0,0,0,0,0,0,-1,1189,1184,0,0
-28,-160,0,0,0,0,0,0,0,0,0,-1,1196,1184,0,0
-21,-160,0,0,0,0,0,0,0,0,0,-1,1203,1184,0,0
-14,-160,0,0,0,0,0,0,0,0,0,-1,1210,1184,0,0
-7,-160,0,0,0,0,0,0,0,0,0,-1,1217,1184,0,0
0,-160,0,0,0,0,0,0,0,0,0,-1,1224,1184,0,0
7,-160,0,0,0,0,0,0,0,0,0,-1,1231,1184,0,0
14,-160,0,0,0,0,0,0,0,0,0,-1,1238,1184,0,0
21,-160,0,0,0,0,0,0,0,0,0,-1,1245,1184,0,0
28,-160,0,0,0,0,0,0,0,0,0,-1,1252,1184,0,0
35,-160,0,0,0,0,0,0,0,0,0,-1,1259,1184,0,0
42,-160,0,0,0,0,0,0,0,0,0,-1,1266,1184,0,0
49,-160,0,0,0,0,0,0,0,0,0,-1,1273,1184,0,0
56,-160,0,0,0,0,0,0,0,0,0,-1,1280,1184,0,0
63,-160,0,0,0,0,0,0,0,0,0,-1,1287,1184,0,0
70,-160,0,0,0,0,0,0,0,0,0,-1,1294,1184,0,0
77,-160,0,0,0,0,0,0,0,0,0,-1,1301,1184,0,0
84,-160,0,0,0,0,0,0,0,0,0,-1,1308,1184,0,0
91,-160,0,0,0,0,0,0,0,0,0,-1,1315,1184,0,0
98,-160,0,0,0,0,0,0,0,0,0,-1,1322,1184,0,0
105,-160,0,0,0,0,0,0,0,0,0,-1,1329,1184,0,0
112,-160,0,0,0,0,0,0,0,0,0,-1,1336,1184,0,0
119,-160,0,0,0,0,0,0,0,0,0,-1,1343,1184,0,0
126,-160,0,0,0,0,0,0,0,0,0,-1,1350,1184,0,0
133,-160,0,0,0,0,0,0,0,0,0,-1,1357,1184,0,0
140,-160,0,0,0,0,0,0,0,0,0,-1,1364,1184,0,0
147,-160,0,0,0,0,0,0,0,0,0,-1,1371,1184,0,0
154,-160,0,0,0,0,0,0,0,0,0,-1,1378,1184,0,0
161,-160,0,0,0,0,0,0,0,0,0,-1,1385,1184,0,0
168,-160,0,0,0,0,0,0,0,0,0,-1,1392,1184,0,0
175,-160,0,0,0,0,0,0,0,0,0,-1,1399,1184,0,0
182,-160,0,0,0,0,0,0,0,0,0,-1,1406,1184,0,0
189,-160,0,0,0,0,0,0,0,0,0,-1,1413,1184,0,0
196,-160,0,0,0,0,0,0,0,0,0,-1,1420,1184,0,0
203,-160,0,0,0,0,0,0,0,0,0,-1,1427,1184,0,0
210,-160,0,0,0,0,0,0,0,0,0,-1,1434,1184,0,0
217,-160,0,0,0,0,0,0,0,0,0,-1,1441,1184,0,0
224,-160,0,0,0,0,0,0,0,0,0,-1,1448,1184,0,0
231,-160,0,0,0,0,0,0,0,0,0,-1,1455,1184,0,0
238,-160,0,0,0,0,0,0,0,0,0,-1,1462,1184,0,0
245,-160,0,0,0,0,0,0,0,0,0,-1,1469,1184,0,0
252,-160,0,0,0,0,0,0,0,0,0,-1,1476,1184,0,0
259,-160,0,0,0,0,0,0,0,0,0,-1,1483,1184,0,0
266,-160,0,0,0,0,0,0,0,0,0,-1,1490,1184,0,0
273,-160,0,0,0,0,0,0,0,0,0,-1,1497,1184,0,0
280,-160,0,0,0,0,0,0,0,0,0,-1,1504,1184,0,0
287,-160,0,0,0,0,0,0,0,0,0,-1,1511,1184,0,0
294,-160,0,0,0,0,0,0,0,0,0,-1,1518,1184,0,0
301,-160,0,0,0,0,0,0,0,0,0,-1,1525,1184,0,0
308,-160,0,0,0,0,0,0,0,0,0,-1,1532,1184,0,0
315,-160,0,0,0,0,0,0,0,0,0,-1,1539,1184,0,0
322,-160,0,0,0,0,0,0,0,0,0,-1,1546,1184,0,0
329,-160,0,0,0,0,0,0,0,0,0,-1,1553,1184,0,0
336,-160,0,0,0,0,0,0,0,0,0,-1,1560,1184,0,0
343,-160,0,0,0,0,0,0,0,0,0,-1,1567,1184,0,0
350,-160,0,0,0,0,0,0,0,0,0,-1,1574,1184,0,0
357,-160,0,0,0,0,0,0,0,0,0,-1,1581,1184,0,0
364,-160,0,0,0,0,0,0,0,0,0,-1,1588,1184,0,0
371,-160,0,0,0,0,0,0,0,0,0,-1,1595,1184,0,0
378,-160,0,0,0,0,0,0,0,0,0,-1,1602,1184,0,0
385,-160,0,0,0,0,0,0,0,0,0,-1,1609,1184,0,0
392,-160,0,0,0,0,0,0,0,0,0,-1,1616,1184,0,0
399,-160,0,0,0,0,0,0,0,0,0,-1,1623,1184,0,0
406,-160,0,0,0,0,0,0,0,0,0,-1,1630,1184,0,0
413,-160,0,0,0,0,0,0,0,0,0,-1,1637,1184,0,0
420,-160,0,0,0,0,0,0,0,0,0,-1,1644,1184,0,0
427,-160,0,0,0,0,0,0,0,0,0,-1,1651,1184,0,0
434,-160,0,0,0,0,0,0,0,0,0,-1,1658,1184,0,0
441,-160,0,0,0,0,0,0,0,0,0,-1,1665,1184,0,0
448,-160,0,0,0,0,0,0,0,0,0,-1,1672,1184,0,0
455,-160,0,0,0,0,0,0,0,0,0,-1,1679,1184,0,0
462,-160,0,0,0,0,0,0,0,0,0,-1,1686,1184,0,0
469,-160,0,0,0,0,0,0,0,0,0,-1,1693,1184,0,0
476,-160,0,0,0,0,0,0,0,0,0,-1,1700,1184,0,0
483,-160,0,0,0,0,0,0,0,0,0,-1,1707,1184,0,0
490,-160,0,0,0,0,0,0,0,0,0,-1,1714,1184,0,0
497,-160,0,0,0,0,0,0,0,0,0,-1,1721,1184,0,0
504,-160,0,0,0,0,0,0,0,0,0,-1,1728,1184,0,0
511,-160,0,0,0,0,0,0,0,0,0,-1,1735,1184,0,0
518,-160,0,0,0,0,0,0,0,0,0,-1,1742,1184,0,0
525,-160,0,0,0,0,0,0,0,0,0,-1,1749,1184,0,0
532,-160,0,0,0,0,0,0,0,0,0,-1,1756,1184,0,0
539,-160,0,0,0,0,0,0,0,0,0,-1,1763,1184,0,0
546,-160,0,0,0,0,0,0,0,0,0,-1,1770,1184,0,0
553,-160,0,0,0,0,0,0,0,0,0,-1,1777,1184,0,0
560,-160,0,0,0,0,0,0,0,0,0,-1,1784,1184,0,0
567,-160,0,0,0,0,0,0,0,0,0,-1,1791,1184,0,0
574,-160,0,0,0,0,0,0,0,0,0,-1,1798,1184,0,0
581,-160,0,0,0,0,0,0,0,0,0,-1,1805,1184,0,0
588,-160,0,0,0,0,0,0,0,0,0,-1,1812,1184,0,0
595,-160,0,0,0,0,0,0,0,0,0,-1,1819,1184,0,0
602,-160,0,0,0,0,0,0,0,0,0,-1,1826,1184,0,0
609,-160,0,0,0,0,0,0,0,0,0,-1,1833,1184,0,0
616,-160,0,0,0,0,0,0,0,0,0,-1,1840,1184,0,0
623,-160,0,0,0,0,0,0,0,0,0,-1,1847,1184,0,0
630,-160,0,0,0,0,0,0,0,0,0,-1,1854,1184,0,0
637,-160,36.08,2.98315,0.00193138,-0.00166675,-0.00224505,0.00300928,-0.00274465,-0.447617,0.0033232,0.038296,1861,1184,36.08,-2.98317
644,-160,36.0345,2.80542,0.00130906,-0.00107644,-0.00150097,0.00203349,-0.00180087,-0.449663,0.00221513,0.0397401,1868,1184,36.0345,-2.80539
651,-160,35.9978,2.73352,0.000902264,-0.000220593,-0.00122588,0.00168917,-0.00100749,-0.570664,0.00157341,0.0372646,1875,1184,35.9978,-2.73354
658,-160,36.0374,2.81274,0.000707365,0.000695547,-0.00123992,0.00194139,-0.000538477,-0.783015,0.00150619,0.0383396,1882,1184,36.0373,-2.81276
665,-160,36.163,2.85791,0.000569897,0.00148338,-0.0012907,0.00239577,-0.00034249,-0.955459,0.00172273,0.0368826,1889,1184,36.163,-2.85794
672,-160,36.1344,2.74707,0.000367663,0.00195574,-0.00110352,0.0025212,-0.0001978,-1.09726,0.00175046,0.0343195,1896,1184,36.1344,-2.74709
679,-160,36.1001,2.71497,-0.000608095,0.00200719,-0.000625583,0.00214913,-0.000750032,-1.34769,0.00173759,0.0253678,1903,1184,36.1001,-2.71501
686,-160,36.0874,2.69873,-0.00157552,0.0018186,-0.000151424,0.00182534,-0.00158227,-1.5263,0.00196905,0.0141667,1910,1184,36.0874,-2.69876
693,-160,36.0593,2.56262,-0.00212214,0.00169191,0.000228674,0.00170558,-0.00213581,1.51113,0.00222245,0.0397438,1917,1184,36.0593,-2.56264
700,-160,36.0328,2.39001,0,0,0,0,0,0,0,-1,1924,1184,36.0329,-2.39001
707,-160,24.5115,6.27405,0,0,0,0,0,0,0,-1,1931,1184,24.5115,-6.27401
714,-160,31.6788,6.27258,0,0,0,0,0,0,0,-1,1938,1184,31.6788,-6.2726
721,-160,32.0344,5.91089,-0.00350766,0.00109001,0.00150839,0.00154069,-0.00395835,1.28045,0.00327556,0.0343357,1945,1184,32.0345,-5.91089
728,-160,32.094,5.76001,-0.00377029,0.000788854,0.00198425,0.00153148,-0.00451292,1.21267,0.00362849,0.0311976,1952,1184,32.0939,-5.76007
735,-160,31.7711,5.65222,-0.00401778,0.000802615,0.00233288,0.00174672,-0.00496189,1.18625,0.00401876,0.0175046,1959,1184,31.7711,-5.65228
742,-160,31.718,5.36328,-0.00386251,0.00162369,0.00257979,0.00264621,-0.00488503,1.19343,0.00441174,0.0153242,1966,1184,31.718,-5.36332
749,-160,31.7257,5.08801,-0.00351648,0.00429618,0.00288254,0.00524458,-0.00446489,1.25294,0.00561179,0.0166606,1973,1184,31.7257,-5.08804
756,-160,31.7389,4.85449,-0.00325231,0.00770232,0.00340018,0.00867187,-0.00422187,1.29302,0.00759055,0.0109911,1980,1184,31.7389,-4.85446
763,-160,31.6843,4.60498,-0.00323371,0.0124516,0.00388896,0.0133629,-0.00414498,1.34063,0.0105649,0.0115775,1987,1184,31.6843,-4.60502
770,-160,31.6046,4.31763,-0.00382496,0.0186657,0.00479108,0.0196437,-0.00480305,1.36942,0.0149562,0.0198547,1994,1184,31.6046,-4.31762
777,-160,31.614,3.9884,-0.00511074,0.0266766,0.00614211,0.0278221,-0.00625627,1.38641,0.0209473,0.0318332,2001,1184,31.614,-3.98844
784,-160,31.1981,2.97144,-0.00769008,0.0366485,0.00812406,0.0380902,-0.00913175,1.39517,0.028922,0.0392346,2008,1184,31.1981,-2.97139
791,-160,30.8257,2.44189,-0.0114068,0.0484537,0.0107177,0.0503148,-0.0132679,1.39886,0.0387309,0.0424437,2015,1184,30.8257,-2.44191
798,-160,30.7402,1.8905,-0.0155453,0.0617836,0.0137662,0.0641612,-0.0179228,1.39977,0.0498346,0.0463398,2022,1184,30.7403,-1.89053
805,-160,30.4968,3.24524,-0.0203139,0.0759125,0.017472,0.0789867,-0.0233881,1.39663,0.0619435,0.0479786,2029,1184,30.4968,-3.24529
812,-160,0,0,0,0,0,0,0,0,0,-1,2036,1184,0,0
-700,-167,0,0,0,0,0,0,0,0,0,-1,524,1191,0,0
-693,-167,0,0,0,0,0,0,0,0,0,-1,531,1191,0,0
-686,-167,-19.9374,-0.55603,0.00803011,0.182989,-0.0251397,0.18653,0.00448947,-1.43088,0.122884,0.045718,538,1191,-19.9374,0.556054
-679,-167,-20.1088,-0.147949,0.00535493,0.153662,-0.0132385,0.154835,0.00418248,-1.48246,0.101858,0.0447443,545,1191,-20.1088,0.147949
-672,-167,-20.041,-0.171753,0.00351973,0.126204,-0.00664478,0.126563,0.00316089,-1.51685,0.0833416,0.044843,552,1191,-20.041,0.171727
-665,-167,-20.2528,0.214111,0.00216831,0.101253,-0.00282049,0.101334,0.00208808,-1.54236,0.0668706,0.0470263,559,1191,-20.2528,-0.214092
-658,-167,-20.4414,0.448608,0,0,0,0,0,0,0,-1,566,1191,-20.4414,-0.448634
-651,-167,-21.0854,0.96521,0,0,0,0,0,0,0,-1,573,1191,-21.0854,-0.965201
-644,-167,-21.0556,1.49634,-3.05837e-05,0.0427737,0.00087949,0.0427918,-4.86467e-05,1.55026,0.0285441,0.0385779,580,1191,-21.0556,-1.49635
-637,-167,-21.0573,1.64612,-0.000461206,0.0289931,0.000821701,0.029016,-0.000484112,1.54293,0.0195074,0.016406,587,1191,-21.0572,-1.6461
-630,-167,-21.1245,1.91663,-0.000788979,0.0172521,0.000755091,0.0172836,-0.000820528,1.52904,0.0118054,0.00828343,594,1191,-21.1245,-1.91659
-623,-167,-21.1456,2.20483,-0.0013335,0.00803229,0.000213922,0.00803718,-0.00133838,1.54797,0.00585546,0.0111414,601,1191,-21.1456,-2.20482
-616,-167,-21.1553,2.52612,-0.00185916,0.0023123,-0.000170807,0.00231928,-0.00186614,-1.52994,0.00242117,0.0149742,608,1191,-21.1552,-2.52616
-609,-167,-21.1821,2.86853,-0.00194694,4.37501e-06,-0.00124408,0.000609743,-0.0025523,-1.11793,0.00193704,0.0143391,615,1191,-21.182,-2.86851
-602,-167,-21.1907,3.16846,-0.00229403,-0.000938369,-0.00198784,0.000484031,-0.00371643,-0.949711,0.00265372,0.0153756,622,1191,-21.1908,-3.16849
-595,-167,-21.1199,3.48547,-0.00283136,-0.00147566,-0.00201895,-2.38076e-05,-0.00428322,-0.947357,0.00284757,0.0289549,629,1191,-21.12,-3.48553
-588,-167,-21.2506,3.75208,-0.003142,-0.00184505,-0.00193849,-0.000449447,-0.0045376,-0.94681,0.00288694,0.0289962,636,1191,-21.2506,-3.7521
-581,-167,-21.2858,3.97742,0,0,0,0,0,0,0,-1,643,1191,-21.2859,-3.97745
-574,-167,-21.0272,4.521,0,0,0,0,0,0,0,-1,650,1191,-21.0271,-4.52097
-567,-167,-25.0102,-0.140869,0,0,0,0,0,0,0,-1,657,1191,-25.0102,0.140898
-560,-167,-26.0371,1.02039,0,0,0,0,0,0,0,-1,664,1191,-26.0371,-1.02041
-553,-167,-25.9514,0.760132,-0.00276544,-0.00223298,-0.00153661,-0.000939706,-0.00405872,-0.871175,0.00245332,0.0393806,671,1191,-25.9514,-0.760184
-546,-167,-26.0877,0.775146,-0.00217457,-0.00190648,-0.00126443,-0.000769015,-0.00331204,-0.838209,0.00200155,0.0360628,678,1191,-26.0877,-0.775108
-539,-167,-26.0287,0.905029,-0.00113519,-0.00108593,-0.000641794,-0.000468291,-0.00175282,-0.804577,0.00104793,0.0404101,685,1191,-26.0287,-0.905038
-532,-167,-25.9716,0.643799,0.000435574,0.000681862,0.000526299,0.00109923,1.8204e-05,0.900321,0.000726829,0.0448498,692,1191,-25.9716,-0.643798
-525,-167,-25.988,0.780762,0.0027868,0.00296097,0.00200207,0.00487784,0.000869922,0.807134,0.0030042,0.044341,699,1191,-25.988,-0.780788
-518,-167,-26.0946,0.961426,0.00464403,0.00443991,0.00276487,0.00730872,0.00177522,0.76695,0.00440173,0.0424257,706,1191,-26.0946,-0.961433
-511,-167,0,0,0,0,0,0,0,0,0,-1,713,1191,0,0
-504,-167,0,0,0,0,0,0,0,0,0,-1,720,1191,0,0
-497,-167,0,0,0,0,0,0,0,0,0,-1,727,1191,0,0
-490,-167,0,0,0,0,0,0,0,0,0,-1,734,1191,0,0
-483,-167,0,0,0,0,0,0,0,0,0,-1,741,1191,0,0
-476,-167,0,0,0,0,0,0,0,0,0,-1,748,1191,0,0
-469,-167,0,0,0,0,0,0,0,0,0,-1,755,1191,0,0
-462,-167,0,0,0,0,0,0,0,0,0,-1,762,1191,0,0
-455,-167,0,0,0,0,0,0,0,0,0,-1,769,1191,0,0
-448,-167,0,0,0,0,0,0,0,0,0,-1,776,1191,0,0
-441,-167,0,0,0,0,0,0,0,0,0,-1,783,1191,0,0
-434,-167,0,0,0,0,0,0,0,0,0,-1,790,1191,0,0
-427,-167,0,0,0,0,0,0,0,0,0,-1,797,1191,0,0
-420,-167,0,0,0,0,0,0,0,0,0,-1,804,1191,0,0
-413,-167,0,0,0,0,0,0,0,0,0,-1,811,1191,0,0
-406,-167,0,0,0,0,0,0,0,0,0,-1,818,1191,0,0
-399,-167,0,0,0,0,0,0,0,0,0,-1,825,1191,0,0
-392,-167,0,0,0,0,0,0,0,0,0,-1,832,1191,0,0
-385,-167,0,0,0,0,0,0,0,0,0,-1,839,1191,0,0
-378,-167,0,0,0,0,0,0,0,0,0,-1,846,1191,0,0
-371,-167,0,0,0,0,0,0,0,0,0,-1,853,1191,0,0
-364,-167,0,0,0,0,0,0,0,0,0,-1,860,1191,0,0
-357,-167,0,0,0,0,0,0,0,0,0,-1,867,1191,0,0
-350,-167,0,0,0,0,0,0,0,0,0,-1,874,1191,0,0
-343,-167,0,0,0,0,0,0,0,0,0,-1,881,1191,0,0
-336,-167,0,0,0,0,0,0,0,0,0,-1,888,1191,0,0
-329,-167,0,0,0,0,0,0,0,0,0,-1,895,1191,0,0
-322,-167,0,0,0,0,0,0,0,0,0,-1,902,1191,0,0
-315,-167,0,0,0,0,0,0,0,0,0,-1,909,1191,0,0
-308,-167,0,0,0,0,0,0,0,0,0,-1,916,1191,0,0
-301,-167,0,0,0,0,0,0,0,0,0,-1,923,1191,0,0
-294,-167,0,0,0,0,0,0,0,0,0,-1,930,1191,0,0
-287,-167,0,0,0,0,0,0,0,0,0,-1,937,1191,0,0
-280,-167,0,0,0,0,0,0,0,0,0,-1,944,1191,0,0
-273,-167,0,0,0,0,0,0,0,0,0,-1,951,1191,0,0
-266,-167,0,0,0,0,0,0,0,0,0,-1,958,1191,0,0
-259,-167,0,0,0,0,0,0,0,0,0,-1,965,1191,0,0
-252,-167,0,0,0,0,0,0,0,0,0,-1,972,1191,0,0
-245,-167,0,0,0,0,0,0,0,0,0,-1,979,1191,0,0
-238,-167,0,0,0,0,0,0,0,0,0,-1,986,1191,0,0
-231,-167,0,0,0,0,0,0,0,0,0,-1,993,1191,0,0
-224,-167,0,0,0,0,0,0,0,0,0,-1,1000,1191,0,0
-217,-167,0,0,0,0,0,0,0,0,0,-1,1007,1191,0,0
-210,-167,0,0,0,0,0,0,0,0,0,-1,1014,1191,0,0
-203,-167,0,0,0,0,0,0,0,0,0,-1,1021,1191,0,0
-196,-167,0,0,0,0,0,0,0,0,0,-1,1028,1191,0,0
-189,-167,0,0,0,0,0,0,0,0,0,-1,1035,1191,0,0
-182,-167,0,0,0,0,0,0,0,0,0,-1,1042,1191,0,0
-175,-167,0,0,0,0,0,0,0,0,0,-1,1049,1191,0,0
-168,-167,0,0,0,0,0,0,0,0,0,-1,1056,1191,0,0
-161,-167,0,0,0,0,0,0,0,0,0,-1,1063,1191,0,0
-154,-167,0,0,0,0,0,0,0,0,0,-1,1070,1191,0,0
-147,-167,0,0,0,0,0,0,0,0,0,-1,1077,1191,0,0
-140,-167,0,0,0,0,0,0,0,0,0,-1,1084,1191,0,0
-133,-167,0,0,0,0,0,0,0,0,0,-1,1091,1191,0,0
-126,-167,0,0,0,0,0,0,0,0,0,-1,1098,1191,0,0
-119,-167,0,0,0,0,0,0,0,0,0,-1,1105,1191,0,0
-112,-167,0,0,0,0,0,0,0,0,0,-1,1112,1191,0,0
-105,-167,0,0,0,0,0,0,0,0,0,-1,1119,1191,0,0
-98,-167,0,0,0,0,0,0,0,0,0,-1,1126,1191,0,0
-91,-167,0,0,0,0,0,0,0,0,0,-1,1133,1191,0,0
-84,-167,0,0,0,0,0,0,0,0,0,-1,1140,1191,0,0
-77,-167,0,0,0,0,0,0,0,0,0,-1,1147,1191,0,0
-70,-167,0,0,0,0,0,0,0,0,0,-1,1154,1191,0,0
-63,-167,0,0,0,0,0,0,0,0,0,-1,1161,1191,0,0
-56,-167,0,0,0,0,0,0,0,0,0,-1,1168,1191,0,0
-49,-167,0,0,0,0,0,0,0,0,0,-1,1175,1191,0,0
-42,-167,0,0,0,0,0,0,0,0,0,-1,1182,1191,0,0
-35,-167,0,0,0,0,0,0,0,0,0,-1,1189,1191,0,0
-28,-167,0,0,0,0,0,0,0,0,0,-1,1196,1191,0,0
-21,-167,0,0,0,0,0,0,0,0,0,-1,1203,1191,0,0
-14,-167,0,0,0,0,0,0,0,0,0,-1,1210,1191,0,0
-7,-167,0,0,0,0,0,0,0,0,0,-1,1217,1191,0,0
0,-167,0,0,0,0,0,0,0,0,0,-1,1224,1191,0,0
7,-167,0,0,0,0,0,0,0,0,0,-1,1231,1191,0,0
14,-167,0,0,0,0,0,0,0,0,0,-1,1238,1191,0,0
21,-167,0,0,0,0,0,0,0,0,0,-1,1245,1191,0,0
28,-167,0,0,0,0,0,0,0,0,0,-1,1252,1191,0,0
35,-167,0,0,0,0,0,0,0,0,0,-1,1259,1191,0,0
42,-167,0,0,0,0,0,0,0,0,0,-1,1266,1191,0,0
49,-167,0,0,0,0,0,0,0,0,0,-1,1273,1191,0,0
56,-167,0,0,0,0,0,0,0,0,0,-1,1280,1191,0,0
63,-167,0,0,0,0,0,0,0,0,0,-1,1287,1191,0,0
70,-167,0,0,0,0,0,0,0,0,0,-1,1294,1191,0,0
77,-167,0,0,0,0,0,0,0,0,0,-1,1301,1191,0,0
84,-167,0,0,0,0,0,0,0,0,0,-1,1308,1191,0,0
91,-167,0,0,0,0,0,0,0,0,0,-1,1315,1191,0,0
98,-167,0,0,0,0,0,0,0,0,0,-1,1322,1191,0,0
105,-167,0,0,0,0,0,0,0,0,0,-1,1329,1191,0,0
112,-167,0,0,0,0,0,0,0,0,0,-1,1336,1191,0,0
119,-167,0,0,0,0,0,0,0,0,0,-1,1343,1191,0,0
126,-167,0,0,0,0,0,0,0,0,0,-1,1350,1191,0,0
133,-167,0,0,0,0,0,0,0,0,0,-1,1357,1191,0,0
140,-167,0,0,0,0,0,0,0,0,0,-1,1364,1191,0,0
147,-167,0,0,0,0,0,0,0,0,0,-1,1371,1191,0,0
154,-167,0,0,0,0,0,0,0,0,0,-1,1378,1191,0,0
161,-167,0,0,0,0,0,0,0,0,0,-1,1385,1191,0,0
168,-167,0,0,0,0,0,0,0,0,0,-1,1392,1191,0,0
175,-167,0,0,0,0,0,0,0,0,0,-1,1399,1191,0,0
182,-167,0,0,0,0,0,0,0,0,0,-1,1406,1191,0,0
189,-167,0,0,0,0,0,0,0,0,0,-1,1413,1191,0,0
196,-167,0,0,0,0,0,0,0,0,0,-1,1420,1191,0,0
203,-167,0,0,0,0,0,0,0,0,0,-1,1427,1191,0,0
210,-167,0,0,0,0,0,0,0,0,0,-1,1434,1191,0,0
217,-167,0,0,0,0,0,0,0,0,0,-1,1441,1191,0,0
224,-167,0,0,0,0,0,0,0,0,0,-1,1448,1191,0,0
231,-167,0,0,0,0,0,0,0,0,0,-1,1455,1191,0,0
238,-167,0,0,0,0,0,0,0,0,0,-1,1462,1191,0,0
245,-167,0,0,0,0,0,0,0,0,0,-1,1469,1191,0,0
252,-167,0,0,0,0,0,0,0,0,0,-1,1476,1191,0,0
259,-167,0,0,0,0,0,0,0,0,0,-1,1483,1191,0,0
266,-167,0,0,0,0,0,0,0,0,0,-1,1490,1191,0,0
273,-167,0,0,0,0,0,0,0,0,0,-1,1497,1191,0,0
280,-167,0,0,0,0,0,0,0,0,0,-1,1504,1191,0,0
287,-167,0,0,0,0,0,0,0,0,0,-1,1511,1191,0,0
294,-167,0,0,0,0,0,0,0,0,0,-1,1518,1191,0,0
301,-167,0,0,0,0,0,0,0,0,0,-1,1525,1191,0,0
308,-167,0,0,0,0,0,0,0,0,0,-1,1532,1191,0,0
315,-167,0,0,0,0,0,0,0,0,0,-1,1539,1191,0,0
322,-167,0,0,0,0,0,0,0,0,0,-1,1546,1191,0,0
329,-167,0,0,0,0,0,0,0,0,0,-1,1553,1191,0,0
336,-167,0,0,0,0,0,0,0,0,0,-1,1560,1191,0,0
343,-167,0,0,0,0,0,0,0,0,0,-1,1567,1191,0,0
350,-167,0,0,0,0,0,0,0,0,0,-1,1574,1191,0,0
357,-167,0,0,0,0,0,0,0,0,0,-1,1581,1191,0,0
364,-167,0,0,0,0,0,0,0,0,0,-1,1588,1191,0,0
371,-167,0,0,0,0,0,0,0,0,0,-1,1595,1191,0,0
378,-167,0,0,0,0,0,0,0,0,0,-1,1602,1191,0,0
385,-167,0,0,0,0,0,0,0,0,0,-1,1609,1191,0,0
392,-167,0,0,0,0,0,0,0,0,0,-1,1616,1191,0,0
399,-167,0,0,0,0,0,0,0,0,0,-1,1623,1191,0,0
406,-167,0,0,0,0,0,0,0,0,0,-1,1630,1191,0,0
413,-167,0,0,0,0,0,0,0,0,0,-1,1637,1191,0,0
420,-167,0,0,0,0,0,0,0,0,0,-1,1644,1191,0,0
427,-167,0,0,0,0,0,0,0,0,0,-1,1651,1191,0,0
434,-167,0,0,0,0,0,0,0,0,0,-1,1658,1191,0,0
441,-167,0,0,0,0,0,0,0,0,0,-1,1665,1191,0,0
448,-167,0,0,0,0,0,0,0,0,0,-1,1672,1191,0,0
455,-167,0,0,0,0,0,0,0,0,0,-1,1679,1191,0,0
462,-167,0,0,0,0,0,0,0,0,0,-1,1686,1191,0,0
469,-167,0,0,0,0,0,0,0,0,0,-1,1693,1191,0,0
476,-167,0,0,0,0,0,0,0,0,0,-1,1700,1191,0,0
483,-167,0,0,0,0,0,0,0,0,0,-1,1707,1191,0,0
490,-167,0,0,0,0,0,0,0,0,0,-1,1714,1191,0,0
497,-167,0,0,0,0,0,0,0,0,0,-1,1721,1191,0,0
504,-167,0,0,0,0,0,0,0,0,0,-1,1728,1191,0,0
511,-167,0,0,0,0,0,0,0,0,0,-1,1735,1191,0,0
518,-167,0,0,0,0,0,0,0,0,0,-1,1742,1191,0,0
525,-167,0,0,0,0,0,0,0,0,0,-1,1749,1191,0,0
532,-167,0,0,0,0,0,0,0,0,0,-1,1756,1191,0,0
539,-167,0,0,0,0,0,0,0,0,0,-1,1763,1191,0,0
546,-167,0,0,0,0,0,0,0,0,0,-1,1770,1191,0,0
553,-167,0,0,0,0,0,0,0,0,0,-1,1777,1191,0,0
560,-167,0,0,0,0,0,0,0,0,0,-1,1784,1191,0,0
567,-167,0,0,0,0,0,0,0,0,0,-1,1791,1191,0,0
574,-167,0,0,0,0,0,0,0,0,0,-1,1798,1191,0,0
581,-167,0,0,0,0,0,0,0,0,0,-1,1805,1191,0,0
588,-167,0,0,0,0,0,0,0,0,0,-1,1812,1191,0,0
595,-167,0,0,0,0,0,0,0,0,0,-1,1819,1191,0,0
602,-167,0,0,0,0,0,0,0,0,0,-1,1826,1191,0,0
609,-167,0,0,0,0,0,0,0,0,0,-1,1833,1191,0,0
616,-167,0,0,0,0,0,0,0,0,0,-1,1840,1191,0,0
623,-167,0,0,0,0,0,0,0,0,0,-1,1847,1191,0,0
630,-167,0,0,0,0,0,0,0,0,0,-1,1854,1191,0,0
637,-167,35.9534,2.84216,0.00176308,-0.00195887,-0.00157408,0.00233951,-0.0025353,-0.351036,0.00281523,0.0422319,1861,1191,35.9534,-2.84218
644,-167,36.079,2.71033,0.00117811,-0.00120122,-0.00113919,0.00163558,-0.00165869,-0.381864,0.00190196,0.0421522,1868,1191,36.079,-2.71032
651,-167,35.9283,2.6886,0.000806896,-0.000179475,-0.00109657,0.00151608,-0.000888664,-0.574074,0.00140405,0.039714,1875,1191,35.9284,-2.6886
658,-167,36.0242,2.8241,0.00066083,0.000855697,-0.00130914,0.00207103,-0.000554502,-0.822542,0.00159792,0.0423382,1882,1191,36.0242,-2.82406
665,-167,36.2377,2.91504,0.000536269,0.0016856,-0.00146064,0.00268056,-0.000458687,-0.972815,0.00195793,0.0381401,1889,1191,36.2377,-2.91502
672,-167,36.1583,2.79602,0.000301041,0.00213094,-0.00128166,0.00279073,-0.000358739,-1.09539,0.00199087,0.0275898,1896,1191,36.1584,-2.79604
679,-167,36.0935,2.68384,-0.00068767,0.00215678,-0.000780628,0.00235693,-0.00088782,-1.31981,0.00193631,0.0196897,1903,1191,36.0935,-2.68387
686,-167,36.08,2.68701,-0.00163797,0.00194546,-0.000300076,0.00197041,-0.00166292,-1.48783,0.00210021,0.0253614,1910,1191,36.08,-2.68697
693,-167,36.0956,2.72656,0,0,0,0,0,0,0,-1,1917,1191,36.0956,-2.72655
700,-167,28.0459,2.70508,0,0,0,0,0,0,0,-1,1924,1191,28.0459,-2.70513
707,-167,29.4708,7.10168,0,0,0,0,0,0,0,-1,1931,1191,29.4708,-7.10172
714,-167,31.8815,6.7948,0,0,0,0,0,0,0,-1,1938,1191,31.8815,-6.79478
721,-167,31.7178,5.85852,0,0,0,0,0,0,0,-1,1945,1191,31.7177,-5.85854
728,-167,31.7316,5.86719,-0.00375434,0.000787153,0.00203568,0.00156604,-0.00453323,1.20536,0.00365768,0.0337214,1952,1191,31.7316,-5.86715
735,-167,31.4685,5.72205,-0.00387543,0.000746223,0.00241063,0.00177471,-0.00490392,1.16753,0.0039945,0.0158925,1959,1191,31.4685,-5.72208
742,-167,31.4291,5.41675,-0.0035551,0.00160837,0.00257243,0.00267118,-0.00461792,1.179,0.0042581,0.0152803,1966,1191,31.4291,-5.41674
749,-167,31.4285,5.10828,-0.00292428,0.00448066,0.00277535,0.00540537,-0.00384899,1.24918,0.00536814,0.0140486,1973,1191,31.4285,-5.10828
756,-167,31.4572,4.85596,-0.00237793,0.00809003,0.00329753,0.00904218,-0.00333008,1.28969,0.00739254,0.0108952,1980,1191,31.4572,-4.85599
763,-167,31.399,4.58069,-0.00208966,0.0132425,0.00384863,0.0141543,-0.0030015,1.33816,0.0105796,0.012303,1987,1191,31.399,-4.58072
770,-167,31.2682,4.40991,-0.00244678,0.0200961,0.00485807,0.0210985,-0.00344914,1.36732,0.0153451,0.0245088,1994,1191,31.2682,-4.40992
777,-167,31.5398,4.45154,-0.00355155,0.0292101,0.00647666,0.030444,-0.00478545,1.38254,0.0220648,0.0397414,2001,1191,31.5398,-4.45152
784,-167,31.8314,4.45447,0,0,0,0,0,0,0,-1,2008,1191,31.8315,-4.45447
791,-167,30.6946,1.77515,0,0,0,0,0,0,0,-1,2015,1191,30.6946,-1.77512
798,-167,30.5237,0.803345,0,0,0,0,0,0,0,-1,2022,1191,30.5236,-0.803348
805,-167,30.1545,3.08728,0,0,0,0,0,0,0,-1,2029,1191,30.1546,-3.08732
812,-167,0,0,0,0,0,0,0,0,0,-1,2036,1191,0,0
-700,-174,0,0,0,0,0,0,0,0,0,-1,524,1198,0,0
-693,-174,0,0,0,0,0,0,0,0,0,-1,531,1198,0,0
-686,-174,-19.328,-1.53882,0.00502608,0.199542,-0.00673224,0.199775,0.00479336,-1.53624,0.131615,0.0448738,538,1198,-19.328,1.53885
-679,-174,-19.4052,-1.35327,0.00333403,0.168272,0.00205342,0.168298,0.00330847,1.55835,0.111112,0.0439306,545,1198,-19.4052,1.35323
-672,-174,-19.1993,-1.40356,0.00231961,0.138635,0.00558677,0.138864,0.00209104,1.5299,0.0918867,0.0447666,552,1198,-19.1993,1.40357
-665,-174,-19.5297,-0.335205,0,0,0,0,0,0,0,-1,559,1198,-19.5297,0.33518
-658,-174,-21.0927,1.49353,0,0,0,0,0,0,0,-1,566,1198,-21.0927,-1.49348
-651,-174,-20.911,1.34644,0,0,0,0,0,0,0,-1,573,1198,-20.911,-1.34648
-644,-174,-20.7621,1.43738,0.000304462,0.0476418,0.00481063,0.0481258,-0.000179471,1.47054,0.0321438,0.0427238,580,1198,-20.7621,-1.43736
-637,-174,-20.6956,1.6217,-1.2324e-05,0.03255,0.00353501,0.0329294,-0.00039167,1.46389,0.0220846,0.0221721,587,1198,-20.6956,-1.62171
-630,-174,-20.7775,1.92053,-0.000326612,0.0197858,0.00259148,0.0201143,-0.000655157,1.44469,0.0136332,0.0117022,594,1198,-20.7775,-1.92057
-623,-174,-20.7963,2.22241,-0.000961562,0.0095348,0.00132468,0.0096994,-0.00112616,1.44717,0.00687248,0.0125842,601,1198,-20.7963,-2.22237
-616,-174,-20.811,2.55188,-0.00157558,0.00304116,0.000314015,0.00306242,-0.00159684,1.50319,0.00273402,0.0174789,608,1198,-20.811,-2.55184
-609,-174,-20.8595,2.86951,-0.00187268,0.000253584,-0.00119323,0.000788592,-0.00240768,-1.1493,0.00192267,0.0201682,615,1198,-20.8595,-2.86947
-602,-174,-20.8871,3.17627,-0.0024168,-0.000985611,-0.00213968,0.000554967,-0.00395738,-0.946771,0.00284137,0.0140305,622,1198,-20.8871,-3.17628
-595,-174,-20.8721,3.52759,-0.00300663,-0.00165905,-0.00223102,-2.29571e-06,-0.00466338,-0.932049,0.00310816,0.0208373,629,1198,-20.872,-3.52762
-588,-174,-21.1199,3.72388,-0.00321954,-0.00209874,-0.00223514,-0.000354817,-0.00496346,-0.908228,0.00319727,0.0246901,636,1198,-21.1199,-3.72394
-581,-174,-21.0512,4.10095,-0.00322224,-0.00238071,-0.00223523,-0.000526989,-0.00507596,-0.878431,0.0032227,0.0290428,643,1198,-21.0512,-4.10099
-574,-174,-21.0119,4.55115,0,0,0,0,0,0,0,-1,650,1198,-21.0119,-4.55114
-567,-174,-22.5471,1.97351,0,0,0,0,0,0,0,-1,657,1198,-22.5471,-1.97355
-560,-174,-26.0148,1.05054,0,0,0,0,0,0,0,-1,664,1198,-26.0148,-1.0505
-553,-174,-25.9833,0.968018,-0.00247837,-0.00220946,-0.00198241,-0.000356956,-0.00433088,-0.819258,0.00277593,0.037028,671,1198,-25.9833,-0.96803
-546,-174,-25.9903,0.85498,-0.00185599,-0.00180621,-0.00175771,-7.32177e-05,-0.00358899,-0.792478,0.00236863,0.0293203,678,1198,-25.9903,-0.855003
-539,-174,-25.9361,1.03162,-0.000866891,-0.000949364,-0.00122664,0.000319208,-0.00213546,-0.768596,0.0015411,0.0335361,685,1198,-25.9361,-1.03162
-532,-174,-25.9554,0.97644,0.000443178,0.000800077,-0.000158931,0.000860591,0.000382665,-1.20699,0.000497876,0.0439218,692,1198,-25.9555,-0.976408
-525,-174,-26.001,0.856812,0.00227417,0.00317136,0.00144821,0.00423886,0.00120667,0.93559,0.00252182,0.0438055,699,1198,-26.0011,-0.856867
-518,-174,-26.0996,0.87207,0.00369212,0.00493554,0.00272499,0.00710884,0.00151882,0.897554,0.00432283,0.0431773,706,1198,-26.0996,-0.872056
-511,-174,0,0,0,0,0,0,0,0,0,-1,713,1198,0,0
-504,-174,0,0,0,0,0,0,0,0,0,-1,720,1198,0,0
-497,-174,0,0,0,0,0,0,0,0,0,-1,727,1198,0,0
-490,-174,0,0,0,0,0,0,0,0,0,-1,734,1198,0,0
-483,-174,0,0,0,0,0,0,0,0,0,-1,741,1198,0,0
-476,-174,0,0,0,0,0,0,0,0,0,-1,748,1198,0,0
-469,-174,0,0,0,0,0,0,0,0,0,-1,755,1198,0,0
-462,-174,0,0,0,0,0,0,0,0,0,-1,762,1198,0,0
-455,-174,0,0,0,0,0,0,0,0,0,-1,769,1198,0,0
-448,-174,0,0,0,0,0,0,0,0,0,-1,776,1198,0,0
-441,-174,0,0,0,0,0,0,0,0,0,-1,783,1198,0,0
-434,-174,0,0,0,0,0,0,0,0,0,-1,790,1198,0,0
-427,-174,0,0,0,0,0,0,0,0,0,-1,797,1198,0,0
-420,-174,0,0,0,0,0,0,0,0,0,-1,804,1198,0,0
-413,-174,0,0,0,0,0,0,0,0,0,-1,811,1198,0,0
-406,-174,0,0,0,0,0,0,0,0,0,-1,818,1198,0,0
-399,-174,0,0,0,0,0,0,0,0,0,-1,825,1198,0,0
-392,-174,0,0,0,0,0,0,0,0,0,-1,832,1198,0,0
-385,-174,0,0,0,0,0,0,0,0,0,-1,839,1198,0,0
-378,-174,0,0,0,0,0,0,0,0,0,-1,846,1198,0,0
-371,-174,0,0,0,0,0,0,0,0,0,-1,853,1198,0,0
-364,-174,0,0,0,0,0,0,0,0,0,-1,860,1198,0,0
-357,-174,0,0,0,0,0,0,0,0,0,-1,867,1198,0,0
-350,-174,0,0,0,0,0,0,0,0,0,-1,874,1198,0,0
-343,-174,0,0,0,0,0,0,0,0,0,-1,881,1198,0,0
-336,-174,0,0,0,0,0,0,0,0,0,-1,888,1198,0,0
-329,-174,0,0,0,0,0,0,0,0,0,-1,895,1198,0,0
-322,-174,0,0,0,0,0,0,0,0,0,-1,902,1198,0,0
-315,-174,0,0,0,0,0,0,0,0,0,-1,909,1198,0,0
-308,-174,0,0,0,0,0,0,0,0,0,-1,916,1198,0,0
-301,-174,0,0,0,0,0,0,0,0,0,-1,923,1198,0,0
-294,-174,0,0,0,0,0,0,0,0,0,-1,930,1198,0,0
-287,-174,0,0,0,0,0,0,0,0,0,-1,937,1198,0,0
-280,-174,0,0,0,0,0,0,0,0,0,-1,944,1198,0,0
-273,-174,0,0,0,0,0,0,0,0,0,-1,951,1198,0,0
-266,-174,0,0,0,0,0,0,0,0,0,-1,958,1198,0,0
-259,-174,0,0,0,0,0,0,0,0,0,-1,965,1198,0,0
-252,-174,0,0,0,0,0,0,0,0,0,-1,972,1198,0,0
-245,-174,0,0,0,0,0,0,0,0,0,-1,979,1198,0,0
-238,-174,0,0,0,0,0,0,0,0,0,-1,986,1198,0,0
-231,-174,0,0,0,0,0,0,0,0,0,-1,993,1198,0,0
-224,-174,0,0,0,0,0,0,0,0,0,-1,1000,1198,0,0
-217,-174,0,0,0,0,0,0,0,0,0,-1,1007,1198,0,0
-210,-174,0,0,0,0,0,0,0,0,0,-1,1014,1198,0,0
-203,-174,0,0,0,0,0,0,0,0,0,-1,1021,1198,0,0
-196,-174,0,0,0,0,0,0,0,0,0,-1,1028,1198,0,0
-189,-174,0,0,0,0,0,0,0,0,0,-1,1035,1198,0,0
-182,-174,0,0,0,0,0,0,0,0,0,-1,1042,1198,0,0
-175,-174,0,0,0,0,0,0,0,0,0,-1,1049,1198,0,0
-168,-174,0,0,0,0,0,0,0,0,0,-1,1056,1198,0,0
-161,-174,0,0,0,0,0,0,0,0,0,-1,1063,1198,0,0
-154,-174,0,0,0,0,0,0,0,0,0,-1,1070,1198,0,0
-147,-174,0,0,0,0,0,0,0,0,0,-1,1077,1198,0,0
-140,-174,0,0,0,0,0,0,0,0,0,-1,1084,1198,0,0
-133,-174,0,0,0,0,0,0,0,0,0,-1,1091,1198,0,0
-126,-174,0,0,0,0,0,0,0,0,0,-1,1098,1198,0,0
-119,-174,0,0,0,0,0,0,0,0,0,-1,1105,1198,0,0
-112,-174,0,0,0,0,0,0,0,0,0,-1,1112,1198,0,0
-105,-174,0,0,0,0,0,0,0,0,0,-1,1119,1198,0,0
-98,-174,0,0,0,0,0,0,0,0,0,-1,1126,1198,0,0
-91,-174,0,0,0,0,0,0,0,0,0,-1,1133,1198,0,0
-84,-174,0,0,0,0,0,0,0,0,0,-1,1140,1198,0,0
-77,-174,0,0,0,0,0,0,0,0,0,-1,1147,1198,0,0
-70,-174,0,0,0,0,0,0,0,0,0,-1,1154,1198,0,0
-63,-174,0,0,0,0,0,0,0,0,0,-1,1161,1198,0,0
-56,-174,0,0,0,0,0,0,0,0,0,-1,1168,1198,0,0
-49,-174,0,0,0,0,0,0,0,0,0,-1,1175,1198,0,0
-42,-174,0,0,0,0,0,0,0,0,0,-1,1182,1198,0,0
-35,-174,0,0,0,0,0,0,0,0,0,-1,1189,1198,0,0
-28,-174,0,0,0,0,0,0,0,0,0,-1,1196,1198,0,0
-21,-174,0,0,0,0,0,0,0,0,0,-1,1203,1198,0,0
-14,-174,0,0,0,0,0,0,0,0,0,-1,1210,1198,0,0
-7,-174,0,0,0,0,0,0,0,0,0,-1,1217,1198,0,0
0,-174,0,0,0,0,0,0,0,0,0,-1,1224,1198,0,0
7,-174,0,0,0,0,0,0,0,0,0,-1,1231,1198,0,0
14,-174,0,0,0,0,0,0,0,0,0,-1,1238,1198,0,0
21,-174,0,0,0,0,0,0,0,0,0,-1,1245,1198,0,0
28,-174,0,0,0,0,0,0,0,0,0,-1,1252,1198,0,0
35,-174,0,0,0,0,0,0,0,0,0,-1,1259,1198,0,0
42,-174,0,0,0,0,0,0,0,0,0,-1,1266,1198,0,0
49,-174,0,0,0,0,0,0,0,0,0,-1,1273,1198,0,0
56,-174,0,0,0,0,0,0,0,0,0,-1,1280,1198,0,0
63,-174,0,0,0,0,0,0,0,0,0,-1,1287,1198,0,0
70,-174,0,0,0,0,0,0,0,0,0,-1,1294,1198,0,0
77,-174,0,0,0,0,0,0,0,0,0,-1,1301,1198,0,0
84,-174,0,0,0,0,0,0,0,0,0,-1,1308,1198,0,0
91,-174,0,0,0,0,0,0,0,0,0,-1,1315,1198,0,0
98,-174,0,0,0,0,0,0,0,0,0,-1,1322,1198,0,0
105,-174,0,0,0,0,0,0,0,0,0,-1,1329,1198,0,0
112,-174,0,0,0,0,0,0,0,0,0,-1,1336,1198,0,0
119,-174,0,0,0,0,0,0,0,0,0,-1,1343,1198,0,0
126,-174,0,0,0,0,0,0,0,0,0,-1,1350,1198,0,0
133,-174,0,0,0,0,0,0,0,0,0,-1,1357,1198,0,0
140,-174,0,0,0,0,0,0,0,0,0,-1,1364,1198,0,0
147,-174,0,0,0,0,0,0,0,0,0,-1,1371,1198,0,0
154,-174,0,0,0,0,0,0,0,0,0,-1,1378,1198,0,0
161,-174,0,0,0,0,0,0,0,0,0,-1,1385,1198,0,0
168,-174,0,0,0,0,0,0,0,0,0,-1,1392,1198,0,0
175,-174,0,0,0,0,0,0,0,0,0,-1,1399,1198,0,0
182,-174,0,0,0,0,0,0,0,0,0,-1,1406,1198,0,0
189,-174,0,0,0,0,0,0,0,0,0,-1,1413,1198,0,0
196,-174,0,0,0,0,0,0,0,0,0,-1,1420,1198,0,0
203,-174,0,0,0,0,0,0,0,0,0,-1,1427,1198,0,0
210,-174,0,0,0,0,0,0,0,0,0,-1,1434,1198,0,0
217,-174,0,0,0,0,0,0,0,0,0,-1,1441,1198,0,0
224,-174,0,0,0,0,0,0,0,0,0,-1,1448,1198,0,0
231,-174,0,0,0,0,0,0,0,0,0,-1,1455,1198,0,0
238,-174,0,0,0,0,0,0,0,0,0,-1,1462,1198,0,0
245,-174,0,0,0,0,0,0,0,0,0,-1,1469,1198,0,0
252,-174,0,0,0,0,0,0,0,0,0,-1,1476,1198,0,0
259,-174,0,0,0,0,0,0,0,0,0,-1,1483,1198,0,0
266,-174,0,0,0,0,0,0,0,0,0,-1,1490,1198,0,0
273,-174,0,0,0,0,0,0,0,0,0,-1,1497,1198,0,0
280,-174,0,0,0,0,0,0,0,0,0,-1,1504,1198,0,0
287,-174,0,0,0,0,0,0,0,0,0,-1,1511,1198,0,0
294,-174,0,0,0,0,0,0,0,0,0,-1,1518,1198,0,0
301,-174,0,0,0,0,0,0,0,0,0,-1,1525,1198,0,0
308,-174,0,0,0,0,0,0,0,0,0,-1,1532,1198,0,0
315,-174,0,0,0,0,0,0,0,0,0,-1,1539,1198,0,0
322,-174,0,0,0,0,0,0,0,0,0,-1,1546,1198,0,0
329,-174,0,0,0,0,0,0,0,0,0,-1,1553,1198,0,0
336,-174,0,0,0,0,0,0,0,0,0,-1,1560,1198,0,0
343,-174,0,0,0,0,0,0,0,0,0,-1,1567,1198,0,0
350,-174,0,0,0,0,0,0,0,0,0,-1,1574,1198,0,0
357,-174,0,0,0,0,0,0,0,0,0,-1,1581,1198,0,0
364,-174,0,0,0,0,0,0,0,0,0,-1,1588,1198,0,0
371,-174,0,0,0,0,0,0,0,0,0,-1,1595,1198,0,0
378,-174,0,0,0,0,0,0,0,0,0,-1,1602,1198,0,0
385,-174,0,0,0,0,0,0,0,0,0,-1,1609,1198,0,0
392,-174,0,0,0,0,0,0,0,0,0,-1,1616,1198,0,0
399,-174,0,0,0,0,0,0,0,0,0,-1,1623,1198,0,0
406,-174,0,0,0,0,0,0,0,0,0,-1,1630,1198,0,0
413,-174,0,0,0,0,0,0,0,0,0,-1,1637,1198,0,0
420,-174,0,0,0,0,0,0,0,0,0,-1,1644,1198,0,0
427,-174,0,0,0,0,0,0,0,0,0,-1,1651,1198,0,0
434,-174,0,0,0,0,0,0,0,0,0,-1,1658,1198,0,0
441,-174,0,0,0,0,0,0,0,0,0,-1,1665,1198,0,0
448,-174,0,0,0,0,0,0,0,0,0,-1,1672,1198,0,0
455,-174,0,0,0,0,0,0,0,0,0,-1,1679,1198,0,0
462,-174,0,0,0,0,0,0,0,0,0,-1,1686,1198,0,0
469,-174,0,0,0,0,0,0,0,0,0,-1,1693,1198,0,0
476,-174,0,0,0,0,0,0,0,0,0,-1,1700,1198,0,0
483,-174,0,0,0,0,0,0,0,0,0,-1,1707,1198,0,0
490,-174,0,0,0,0,0,0,0,0,0,-1,1714,1198,0,0
497,-174,0,0,0,0,0,0,0,0,0,-1,1721,1198,0,0
504,-174,0,0,0,0,0,0,0,0,0,-1,1728,1198,0,0
511,-174,0,0,0,0,0,0,0,0,0,-1,1735,1198,0,0
518,-174,0,0,0,0,0,0,0,0,0,-1,1742,1198,0,0
525,-174,0,0,0,0,0,0,0,0,0,-1,1749,1198,0,0
532,-174,0,0,0,0,0,0,0,0,0,-1,1756,1198,0,0
539,-174,0,0,0,0,0,0,0,0,0,-1,1763,1198,0,0
546,-174,0,0,0,0,0,0,0,0,0,-1,1770,1198,0,0
553,-174,0,0,0,0,0,0,0,0,0,-1,1777,1198,0,0
560,-174,0,0,0,0,0,0,0,0,0,-1,1784,1198,0,0
567,-174,0,0,0,0,0,0,0,0,0,-1,1791,1198,0,0
574,-174,0,0,0,0,0,0,0,0,0,-1,1798,1198,0,0
581,-174,0,0,0,0,0,0,0,0,0,-1,1805,1198,0,0
588,-174,0,0,0,0,0,0,0,0,0,-1,1812,1198,0,0
595,-174,0,0,0,0,0,0,0,0,0,-1,1819,1198,0,0
602,-174,0,0,0,0,0,0,0,0,0,-1,1826,1198,0,0
609,-174,0,0,0,0,0,0,0,0,0,-1,1833,1198,0,0
616,-174,0,0,0,0,0,0,0,0,0,-1,1840,1198,0,0
623,-174,0,0,0,0,0,0,0,0,0,-1,1847,1198,0,0
630,-174,0,0,0,0,0,0,0,0,0,-1,1854,1198,0,0
637,-174,35.9755,2.78406,0.00183382,-0.00181982,-0.00110128,0.00214009,-0.00212609,-0.271253,0.00246309,0.0422808,1861,1198,35.9754,-2.78402
644,-174,36.0844,2.7998,0.00124973,-0.000941719,-0.000975127,0.0016208,-0.00131279,-0.363614,0.00169682,0.0407961,1868,1198,36.0844,-2.79979
651,-174,36.0548,2.7218,0.000887635,0.00018712,-0.00115605,0.00174532,-0.000670565,-0.638305,0.00144008,0.0387099,1875,1198,36.0549,-2.72174
658,-174,35.9979,2.7251,0.000747858,0.0012451,-0.00150535,0.00252222,-0.000529263,-0.867238,0.00188286,0.0389725,1882,1198,35.9979,-2.72505
665,-174,36.1194,2.82617,0.000591249,0.00202751,-0.00167156,0.00312867,-0.000509909,-0.988286,0.00227488,0.0325784,1889,1198,36.1194,-2.82616
672,-174,36.0485,2.73572,0.000292461,0.00239178,-0.00144241,0.00312603,-0.00044179,-1.09994,0.00224581,0.0248915,1896,1198,36.0485,-2.73566
679,-174,36.0724,2.64233,-0.000676501,0.00237767,-0.000902283,0.00262431,-0.000923142,-1.30396,0.00212517,0.0204936,1903,1198,36.0724,-2.64229
686,-174,36.0986,2.70276,-0.00159336,0.00213875,-0.000401271,0.0021814,-0.00163602,-1.46489,0.00221147,0.043952,1910,1198,36.0986,-2.70275
693,-174,36.1349,2.79163,0,0,0,0,0,0,0,-1,1917,1198,36.1349,-2.79158
700,-174,25.4004,6.11792,0,0,0,0,0,0,0,-1,1924,1198,25.4004,-6.11797
707,-174,31.5259,6.99512,0,0,0,0,0,0,0,-1,1931,1198,31.5259,-6.99511
714,-174,31.6656,6.49792,-0.00335512,0.00151011,0.000993829,0.00170529,-0.0035503,1.37687,0.00309601,0.0457291,1938,1198,31.6656,-6.49792
721,-174,31.6626,6.07251,-0.00346956,0.00123765,0.00152811,0.00169022,-0.00392213,1.28287,0.0033246,0.0401084,1945,1198,31.6626,-6.07257
728,-174,31.3041,5.95996,-0.00361292,0.000826583,0.00214043,0.00169046,-0.00447679,1.18719,0.0036798,0.0268078,1952,1198,31.3041,-5.95994
735,-174,31.1703,5.71436,-0.0035655,0.000750863,0.00250016,0.00189549,-0.00471012,1.14146,0.00392746,0.0128002,1959,1198,31.1703,-5.71436
742,-174,31.1532,5.4137,-0.00303465,0.00167872,0.00253383,0.00278242,-0.00413835,1.15999,0.00402119,0.0192187,1966,1198,31.1532,-5.41368
749,-174,31.1584,5.12512,-0.00207287,0.00465392,0.00260001,0.0055417,-0.00296065,1.24176,0.00498366,0.0184089,1973,1198,31.1584,-5.12514
756,-174,31.1578,4.83972,-0.00119499,0.00835516,0.00307725,0.00926083,-0.00210065,1.28457,0.00698027,0.0116789,1980,1198,31.1579,-4.83967
763,-174,31.1277,4.55847,-0.000571932,0.013766,0.00363731,0.0146359,-0.00144188,1.33603,0.0102717,0.0135291,1987,1198,31.1277,-4.55847
770,-174,31.1364,4.30579,-0.000605714,0.0211115,0.00470427,0.0220867,-0.00158093,1.36639,0.0152788,0.027263,1994,1198,31.1363,-4.3058
777,-174,31.4469,4.47327,-0.00144039,0.0311249,0.00655454,0.0323946,-0.00271014,1.37945,0.0225541,0.0474518,2001,1198,31.447,-4.47325
784,-174,31.8086,4.53345,0,0,0,0,0,0,0,-1,2008,1198,31.8087,-4.53348
791,-174,32.5972,4.50159,0,0,0,0,0,0,0,-1,2015,1198,32.5971,-4.50161
798,-174,30.0137,-0.304688,0,0,0,0,0,0,0,-1,2022,1198,30.0137,0.304746
805,-174,32.2097,5.98657,0,0,0,0,0,0,0,-1,2029,1198,32.2098,-5.98656
812,-174,0,0,0,0,0,0,0,0,0,-1,2036,1198,0,0
-700,-181,0,0,0,0,0,0,0,0,0,-1,524,1205,0,0
-693,-181,0,0,0,0,0,0,0,0,0,-1,531,1205,0,0
-686,-181,-18.7496,-2.49707,0,0,0,0,0,0,0,-1,538,1205,-18.7496,2.49707
-679,-181,-18.6263,-2.49438,0,0,0,0,0,0,0,-1,545,1205,-18.6263,2.49444
-672,-181,-18.5475,-2.51501,0,0,0,0,0,0,0,-1,552,1205,-18.5475,2.51503
-665,-181,-17.0411,0.645874,0,0,0,0,0,0,0,-1,559,1205,-17.0412,-0.645888
-658,-181,-17.7612,2.63098,0,0,0,0,0,0,0,-1,566,1205,-17.7612,-2.63094
-651,-181,-20.5156,1.34216,0,0,0,0,0,0,0,-1,573,1205,-20.5155,-1.34222
-644,-181,-20.4249,1.38123,0,0,0,0,0,0,0,-1,580,1205,-20.4249,-1.3812
-637,-181,-20.3939,1.59888,0.00308511,0.0345861,0.00705988,0.036096,0.00157525,1.36011,0.0235565,0.0231892,587,1205,-20.3939,-1.59893
-630,-181,-20.4556,1.91003,0.00189405,0.0215855,0.0050952,0.0228257,0.000653774,1.33202,0.015004,0.011922,594,1205,-20.4556,-1.91003
-623,-181,-20.4797,2.2218,0.000562609,0.0107954,0.0029822,0.011601,-0.000243078,1.30693,0.00781631,0.0140338,601,1205,-20.4797,-2.22175
-616,-181,-20.4783,2.55005,-0.00067909,0.00380154,0.00121697,0.00411074,-0.000988291,1.32199,0.0031225,0.0136788,608,1205,-20.4783,-2.55
-609,-181,-20.4976,2.88953,-0.00135593,0.000557657,-0.000888379,0.000906493,-0.00170477,-1.19663,0.00153091,0.0130865,615,1205,-20.4976,-2.88958
-602,-181,-20.5051,3.22876,-0.00206364,-0.00111978,-0.0021645,0.000623642,-0.00380706,-0.892734,0.00276942,0.011564,622,1205,-20.505,-3.22881
-595,-181,-20.6001,3.50537,-0.00269528,-0.00188106,-0.0024008,0.000146904,-0.00472324,-0.869385,0.00319892,0.0197644,629,1205,-20.6001,-3.50533
-588,-181,-20.7573,3.86426,-0.00283276,-0.00235589,-0.00255828,-2.49543e-05,-0.0051637,-0.831865,0.00343418,0.0228399,636,1205,-20.7572,-3.86423
-581,-181,-20.6692,4.25378,-0.0028154,-0.00262465,-0.00267107,-4.72507e-05,-0.0053928,-0.803244,0.00357955,0.0225089,643,1205,-20.6692,-4.2538
-574,-181,-20.6262,4.57776,0,0,0,0,0,0,0,-1,650,1205,-20.6262,-4.5777
-567,-181,-21.7781,2.03772,0,0,0,0,0,0,0,-1,657,1205,-21.7781,-2.03772
-560,-181,-25.9543,1.00012,0,0,0,0,0,0,0,-1,664,1205,-25.9543,-1.00009
-553,-181,-25.955,0.949219,-0.00191298,-0.00193737,-0.00252925,0.000604105,-0.00445445,-0.782988,0.00319012,0.0441598,671,1205,-25.9549,-0.949274
-546,-181,-25.9793,0.944092,-0.00135703,-0.00141461,-0.00235071,0.000965068,-0.00373671,-0.779275,0.00286748,0.0352151,678,1205,-25.9793,-0.944058
-539,-181,-26.0162,1.24133,-0.000572908,-0.000525381,-0.00192973,0.00138073,-0.00247902,-0.791555,0.0022583,0.0384164,685,1205,-26.0163,-1.24133
-532,-181,-26.0846,1.18909,0.000314927,0.00112442,-0.00100718,0.00180514,-0.00036579,-0.976453,0.00134208,0.0443193,692,1205,-26.0846,-1.18904
-525,-181,-26.1204,1.15942,0.00140632,0.00338381,0.000589393,0.00354615,0.00124398,1.30202,0.00207753,0.0419024,699,1205,-26.1204,-1.15938
-518,-181,-26.0535,1.11621,0.00197447,0.0052128,0.00230669,0.00641188,0.000775393,1.09141,0.004041,0.0405147,706,1205,-26.0535,-1.11618
-511,-181,0,0,0,0,0,0,0,0,0,-1,713,1205,0,0
-504,-181,0,0,0,0,0,0,0,0,0,-1,720,1205,0,0
-497,-181,0,0,0,0,0,0,0,0,0,-1,727,1205,0,0
-490,-181,0,0,0,0,0,0,0,0,0,-1,734,1205,0,0
-483,-181,0,0,0,0,0,0,0,0,0,-1,741,1205,0,0
-476,-181,0,0,0,0,0,0,0,0,0,-1,748,1205,0,0
-469,-181,0,0,0,0,0,0,0,0,0,-1,755,1205,0,0
-462,-181,0,0,0,0,0,0,0,0,0,-1,762,1205,0,0
-455,-181,0,0,0,0,0,0,0,0,0,-1,769,1205,0,0
-448,-181,0,0,0,0,0,0,0,0,0,-1,776,1205,0,0
-441,-181,0,0,0,0,0,0,0,0,0,-1,783,1205,0,0
-434,-181,0,0,0,0,0,0,0,0,0,-1,790,1205,0,0
-427,-181,0,0,0,0,0,0,0,0,0,-1,797,1205,0,0
-420,-181,0,0,0,0,0,0,0,0,0,-1,804,1205,0,0
-413,-181,0,0,0,0,0,0,0,0,0,-1,811,1205,0,0
-406,-181,0,0,0,0,0,0,0,0,0,-1,818,1205,0,0
-399,-181,0,0,0,0,0,0,0,0,0,-1,825,1205,0,0
-392,-181,0,0,0,0,0,0,0,0,0,-1,832,1205,0,0
-385,-181,0,0,0,0,0,0,0,0,0,-1,839,1205,0,0
-378,-181,0,0,0,0,0,0,0,0,0,-1,846,1205,0,0
-371,-181,0,0,0,0,0,0,0,0,0,-1,853,1205,0,0
-364,-181,0,0,0,0,0,0,0,0,0,-1,860,1205,0,0
-357,-181,0,0,0,0,0,0,0,0,0,-1,867,1205,0,0
-350,-181,0,0,0,0,0,0,0,0,0,-1,874,1205,0,0
-343,-181,0,0,0,0,0,0,0,0,0,-1,881,1205,0,0
-336,-181,0,0,0,0,0,0,0,0,0,-1,888,1205,0,0
-329,-181,0,0,0,0,0,0,0,0,0,-1,895,1205,0,0
-322,-181,0,0,0,0,0,0,0,0,0,-1,902,1205,0,0
-315,-181,0,0,0,0,0,0,0,0,0,-1,909,1205,0,0
-308,-181,0,0,0,0,0,0,0,0,0,-1,916,1205,0,0
-301,-181,0,0,0,0,0,0,0,0,0,-1,923,1205,0,0
-294,-181,0,0,0,0,0,0,0,0,0,-1,930,1205,0,0
-287,-181,0,0,0,0,0,0,0,0,0,-1,937,1205,0,0
-280,-181,0,0,0,0,0,0,0,0,0,-1,944,1205,0,0
-273,-181,0,0,0,0,0,0,0,0,0,-1,951,1205,0,0
-266,-181,0,0,0,0,0,0,0,0,0,-1,958,1205,0,0
-259,-181,0,0,0,0,0,0,0,0,0,-1,965,1205,0,0
-252,-181,0,0,0,0,0,0,0,0,0,-1,972,1205,0,0
-245,-181,0,0,0,0,0,0,0,0,0,-1,979,1205,0,0
-238,-181,0,0,0,0,0,0,0,0,0,-1,986,1205,0,0
-231,-181,0,0,0,0,0,0,0,0,0,-1,993,1205,0,0
-224,-181,0,0,0,0,0,0,0,0,0,-1,1000,1205,0,0
-217,-181,0,0,0,0,0,0,0,0,0,-1,1007,1205,0,0
-210,-181,0,0,0,0,0,0,0,0,0,-1,1014,1205,0,0
-203,-181,0,0,0,0,0,0,0,0,0,-1,1021,1205,0,0
-196,-181,0,0,0,0,0,0,0,0,0,-1,1028,1205,0,0
-189,-181,0,0,0,0,0,0,0,0,0,-1,1035,1205,0,0
-182,-181,0,0,0,0,0,0,0,0,0,-1,1042,1205,0,0
-175,-181,0,0,0,0,0,0,0,0,0,-1,1049,1205,0,0
-168,-181,0,0,0,0,0,0,0,0,0,-1,1056,1205,0,0
-161,-181,0,0,0,0,0,0,0,0,0,-1,1063,1205,0,0
-154,-181,0,0,0,0,0,0,0,0,0,-1,1070,1205,0,0
-147,-181,0,0,0,0,0,0,0,0,0,-1,1077,1205,0,0
-140,-181,0,0,0,0,0,0,0,0,0,-1,1084,1205,0,0
-133,-181,0,0,0,0,0,0,0,0,0,-1,1091,1205,0,0
-126,-181,0,0,0,0,0,0,0,0,0,-1,1098,1205,0,0
-119,-181,0,0,0,0,0,0,0,0,0,-1,1105,1205,0,0
-112,-181,0,0,0,0,0,0,0,0,0,-1,1112,1205,0,0
-105,-181,0,0,0,0,0,0,0,0,0,-1,1119,1205,0,0
-98,-181,0,0,0,0,0,0,0,0,0,-1,1126,1205,0,0
-91,-181,0,0,0,0,0,0,0,0,0,-1,1133,1205,0,0
-84,-181,0,0,0,0,0,0,0,0,0,-1,1140,1205,0,0
-77,-181,0,0,0,0,0,0,0,0,0,-1,1147,1205,0,0
-70,-181,0,0,0,0,0,0,0,0,0,-1,1154,1205,0,0
-63,-181,0,0,0,0,0,0,0,0,0,-1,1161,1205,0,0
-56,-181,0,0,0,0,0,0,0,0,0,-1,1168,1205,0,0
-49,-181,0,0,0,0,0,0,0,0,0,-1,1175,1205,0,0
-42,-181,0,0,0,0,0,0,0,0,0,-1,1182,1205,0,0
-35,-181,0,0,0,0,0,0,0,0,0,-1,1189,1205,0,0
-28,-181,0,0,0,0,0,0,0,0,0,-1,1196,1205,0,0
-21,-181,0,0,0,0,0,0,0,0,0,-1,1203,1205,0,0
-14,-181,0,0,0,0,0,0,0,0,0,-1,1210,1205,0,0
-7,-181,0,0,0,0,0,0,0,0,0,-1,1217,1205,0,0
0,-181,0,0,0,0,0,0,0,0,0,-1,1224,1205,0,0
7,-181,0,0,0,0,0,0,0,0,0,-1,1231,1205,0,0
14,-181,0,0,0,0,0,0,0,0,0,-1,1238,1205,0,0
21,-181,0,0,0,0,0,0,0,0,0,-1,1245,1205,0,0
28,-181,0,0,0,0,0,0,0,0,0,-1,1252,1205,0,0
35,-181,0,0,0,0,0,0,0,0,0,-1,1259,1205,0,0
42,-181,0,0,0,0,0,0,0,0,0,-1,1266,1205,0,0
49,-181,0,0,0,0,0,0,0,0,0,-1,1273,1205,0,0
56,-181,0,0,0,0,0,0,0,0,0,-1,1280,1205,0,0
63,-181,0,0,0,0,0,0,0,0,0,-1,1287,1205,0,0
70,-181,0,0,0,0,0,0,0,0,0,-1,1294,1205,0,0
77,-181,0,0,0,0,0,0,0,0,0,-1,1301,1205,0,0
84,-181,0,0,0,0,0,0,0,0,0,-1,1308,1205,0,0
91,-181,0,0,0,0,0,0,0,0,0,-1,1315,1205,0,0
98,-181,0,0,0,0,0,0,0,0,0,-1,1322,1205,0,0
105,-181,0,0,0,0,0,0,0,0,0,-1,1329,1205,0,0
112,-181,0,0,0,0,0,0,0,0,0,-1,1336,1205,0,0
119,-181,0,0,0,0,0,0,0,0,0,-1,1343,1205,0,0
126,-181,0,0,0,0,0,0,0,0,0,-1,1350,1205,0,0
133,-181,0,0,0,0,0,0,0,0,0,-1,1357,1205,0,0
140,-181,0,0,0,0,0,0,0,0,0,-1,1364,1205,0,0
147,-181,0,0,0,0,0,0,0,0,0,-1,1371,1205,0,0
154,-181,0,0,0,0,0,0,0,0,0,-1,1378,1205,0,0
161,-181,0,0,0,0,0,0,0,0,0,-1,1385,1205,0,0
168,-181,0,0,0,0,0,0,0,0,0,-1,1392,1205,0,0
175,-181,0,0,0,0,0,0,0,0,0,-1,1399,1205,0,0
182,-181,0,0,0,0,0,0,0,0,0,-1,1406,1205,0,0
189,-181,0,0,0,0,0,0,0,0,0,-1,1413,1205,0,0
196,-181,0,0,0,0,0,0,0,0,0,-1,1420,1205,0,0
203,-181,0,0,0,0,0,0,0,0,0,-1,1427,1205,0,0
210,-181,0,0,0,0,0,0,0,0,0,-1,1434,1205,0,0
217,-181,0,0,0,0,0,0,0,0,0,-1,1441,1205,0,0
224,-181,0,0,0,0,0,0,0,0,0,-1,1448,1205,0,0
231,-181,0,0,0,0,0,0,0,0,0,-1,1455,1205,0,0
238,-181,0,0,0,0,0,0,0,0,0,-1,1462,1205,0,0
245,-181,0,0,0,0,0,0,0,0,0,-1,1469,1205,0,0
252,-181,0,0,0,0,0,0,0,0,0,-1,1476,1205,0,0
259,-181,0,0,0,0,0,0,0,0,0,-1,1483,1205,0,0
266,-181,0,0,0,0,0,0,0,0,0,-1,1490,1205,0,0
273,-181,0,0,0,0,0,0,0,0,0,-1,1497,1205,0,0
280,-181,0,0,0,0,0,0,0,0,0,-1,1504,1205,0,0
287,-181,0,0,0,0,0,0,0,0,0,-1,1511,1205,0,0
294,-181,0,0,0,0,0,0,0,0,0,-1,1518,1205,0,0
301,-181,0,0,0,0,0,0,0,0,0,-1,1525,1205,0,0
308,-181,0,0,0,0,0,0,0,0,0,-1,1532,1205,0,0
315,-181,0,0,0,0,0,0,0,0,0,-1,1539,1205,0,0
322,-181,0,0,0,0,0,0,0,0,0,-1,1546,1205,0,0
329,-181,0,0,0,0,0,0,0,0,0,-1,1553,1205,0,0
336,-181,0,0,0,0,0,0,0,0,0,-1,1560,1205,0,0
343,-181,0,0,0,0,0,0,0,0,0,-1,1567,1205,0,0
350,-181,0,0,0,0,0,0,0,0,0,-1,1574,1205,0,0
357,-181,0,0,0,0,0,0,0,0,0,-1,1581,1205,0,0
364,-181,0,0,0,0,0,0,0,0,0,-1,1588,1205,0,0
371,-181,0,0,0,0,0,0,0,0,0,-1,1595,1205,0,0
378,-181,0,0,0,0,0,0,0,0,0,-1,1602,1205,0,0
385,-181,0,0,0,0,0,0,0,0,0,-1,1609,1205,0,0
392,-181,0,0,0,0,0,0,0,0,0,-1,1616,1205,0,0
399,-181,0,0,0,0,0,0,0,0,0,-1,1623,1205,0,0
406,-181,0,0,0,0,0,0,0,0,0,-1,1630,1205,0,0
413,-181,0,0,0,0,0,0,0,0,0,-1,1637,1205,0,0
420,-181,0,0,0,0,0,0,0,0,0,-1,1644,1205,0,0
427,-181,0,0,0,0,0,0,0,0,0,-1,1651,1205,0,0
434,-181,0,0,0,0,0,0,0,0,0,-1,1658,1205,0,0
441,-181,0,0,0,0,0,0,0,0,0,-1,1665,1205,0,0
448,-181,0,0,0,0,0,0,0,0,0,-1,1672,1205,0,0
455,-181,0,0,0,0,0,0,0,0,0,-1,1679,1205,0,0
462,-181,0,0,0,0,0,0,0,0,0,-1,1686,1205,0,0
469,-181,0,0,0,0,0,0,0,0,0,-1,1693,1205,0,0
476,-181,0,0,0,0,0,0,0,0,0,-1,1700,1205,0,0
483,-181,0,0,0,0,0,0,0,0,0,-1,1707,1205,0,0
490,-181,0,0,0,0,0,0,0,0,0,-1,1714,1205,0,0
497,-181,0,0,0,0,0,0,0,0,0,-1,1721,1205,0,0
504,-181,0,0,0,0,0,0,0,0,0,-1,1728,1205,0,0
511,-181,0,0,0,0,0,0,0,0,0,-1,1735,1205,0,0
518,-181,0,0,0,0,0,0,0,0,0,-1,1742,1205,0,0
525,-181,0,0,0,0,0,0,0,0,0,-1,1749,1205,0,0
532,-181,0,0,0,0,0,0,0,0,0,-1,1756,1205,0,0
539,-181,0,0,0,0,0,0,0,0,0,-1,1763,1205,0,0
546,-181,0,0,0,0,0,0,0,0,0,-1,1770,1205,0,0
553,-181,0,0,0,0,0,0,0,0,0,-1,1777,1205,0,0
560,-181,0,0,0,0,0,0,0,0,0,-1,1784,1205,0,0
567,-181,0,0,0,0,0,0,0,0,0,-1,1791,1205,0,0
574,-181,0,0,0,0,0,0,0,0,0,-1,1798,1205,0,0
581,-181,0,0,0,0,0,0,0,0,0,-1,1805,1205,0,0
588,-181,0,0,0,0,0,0,0,0,0,-1,1812,1205,0,0
595,-181,0,0,0,0,0,0,0,0,0,-1,1819,1205,0,0
602,-181,0,0,0,0,0,0,0,0,0,-1,1826,1205,0,0
609,-181,0,0,0,0,0,0,0,0,0,-1,1833,1205,0,0
616,-181,0,0,0,0,0,0,0,0,0,-1,1840,1205,0,0
623,-181,0,0,0,0,0,0,0,0,0,-1,1847,1205,0,0
630,-181,36.0435,2.95227,0.00340085,-0.00119605,-0.00117883,0.00368552,-0.00148072,-0.236949,0.00307194,0.0390383,1854,1205,36.0434,-2.95228
637,-181,36.1327,2.73901,0.00243358,-0.00119909,-0.00118454,0.0027857,-0.00155121,-0.288946,0.00253751,0.038004,1861,1205,36.1327,-2.73903
644,-181,36.1,2.80859,0.00173609,-0.000350331,-0.00128243,0.00234603,-0.000960272,-0.443949,0.00196399,0.0395741,1868,1205,36.1,-2.80863
651,-181,36.1373,2.81079,0.00127403,0.000707332,-0.00158621,0.002602,-0.000620641,-0.697015,0.00197434,0.0403455,1875,1205,36.1373,-2.81082
658,-181,36.0762,2.78687,0.00106659,0.00158163,-0.00195068,0.00329171,-0.00064349,-0.851026,0.00243745,0.0366969,1882,1205,36.0762,-2.78687
665,-181,36.0376,2.7699,0.000848685,0.00215784,-0.00204723,0.00365259,-0.000646073,-0.94013,0.00267654,0.031645,1889,1205,36.0376,-2.76993
672,-181,36.0538,2.72339,0.000493161,0.00234305,-0.00173707,0.00338609,-0.000549875,-1.03004,0.00246124,0.0229208,1896,1205,36.0538,-2.72344
679,-181,36.071,2.6261,-0.000423437,0.00226196,-0.00115531,0.00269058,-0.000852061,-1.21553,0.00213518,0.0278471,1903,1205,36.071,-2.62611
686,-181,36.0947,2.7865,-0.00128626,0.00199021,-0.000632823,0.00210818,-0.00140424,-1.38648,0.00204143,0.0489037,1910,1205,36.0947,-2.78655
693,-181,36.1301,2.91016,0,0,0,0,0,0,0,-1,1917,1205,36.1302,-2.9102
700,-181,29.5845,6.58398,0,0,0,0,0,0,0,-1,1924,1205,29.5844,-6.58395
707,-181,31.5104,6.46411,0,0,0,0,0,0,0,-1,1931,1205,31.5103,-6.4641
714,-181,31.3967,6.36707,-0.00304529,0.00132139,0.000948178,0.00151839,-0.00324229,1.36594,0.002808,0.0399101,1938,1205,31.3967,-6.36709
721,-181,31.2222,6.14001,-0.00315131,0.00104866,0.00150526,0.00153243,-0.00363508,1.25984,0.00306468,0.0318734,1945,1205,31.2221,-6.13999
728,-181,30.8948,5.99304,-0.00317058,0.000668367,0.00215266,0.00163305,-0.00413526,1.1495,0.00343319,0.0163242,1952,1205,30.8947,-5.99307
735,-181,30.8915,5.71655,-0.00288162,0.000666909,0.00248522,0.00194622,-0.00416094,1.0954,0.00360243,0.0120503,1959,1205,30.8915,-5.71661
742,-181,30.8601,5.43726,-0.0020483,0.00169428,0.00237097,0.00284346,-0.00319748,1.11947,0.00348973,0.0162957,1966,1205,30.8602,-5.43725
749,-181,30.8555,5.11121,-0.000664721,0.00467291,0.00226526,0.00550466,-0.00149647,1.2189,0.00425719,0.0162273,1973,1205,30.8554,-5.11123
756,-181,30.8584,4.80591,0.000703592,0.00826164,0.00258338,0.00906027,-9.50322e-05,1.27098,0.0060721,0.012309,1980,1205,30.8584,-4.80588
763,-181,30.8748,4.53772,0.00193777,0.0135052,0.00296998,0.0142232,0.00121978,1.3336,0.00910282,0.0133588,1987,1205,30.8748,-4.53776
770,-181,30.9183,4.23889,0.00260226,0.0207974,0.00386921,0.021586,0.00181365,1.36973,0.0138258,0.0317572,1994,1205,30.9183,-4.23895
777,-181,31.2211,4.34814,0,0,0,0,0,0,0,-1,2001,1205,31.221,-4.34811
784,-181,28.9574,1.25378,0,0,0,0,0,0,0,-1,2008,1205,28.9574,-1.25381
791,-181,32.5178,4.39526,0,0,0,0,0,0,0,-1,2015,1205,32.5178,-4.39521
798,-181,31.3245,3.474,0,0,0,0,0,0,0,-1,2022,1205,31.3245,-3.47394
805,-181,0,0,0,0,0,0,0,0,0,-1,2029,1205,0,0
812,-181,0,0,0,0,0,0,0,0,0,-1,2036,1205,0,0
-700,-188,0,0,0,0,0,0,0,0,0,-1,524,1212,0,0
-693,-188,0,0,0,0,0,0,0,0,0,-1,531,1212,0,0
-686,-188,0,0,0,0,0,0,0,0,0,-1,538,1212,0,0
-679,-188,-17.9795,-3.61182,0.0297127,0.160917,0.0278262,0.166574,0.0240552,1.37021,0.103963,0.0460968,545,1212,-17.9795,3.61184
-672,-188,-17.7869,-2.53479,0.0268172,0.132484,0.0282023,0.13954,0.0197612,1.32564,0.0871894,0.0476522,552,1212,-17.787,2.53478
-665,-188,-17.7631,-1.24939,0.0231928,0.107251,0.0260554,0.114672,0.0157717,1.29332,0.071771,0.0471706,559,1212,-17.763,1.24938
-658,-188,-18.1357,1.14526,0.0193901,0.084811,0.022712,0.0919228,0.0122783,1.26734,0.0576268,0.0478952,566,1212,-18.1358,-1.14532
-651,-188,-19.9845,0.311157,0,0,0,0,0,0,0,-1,573,1212,-19.9845,-0.311119
-644,-188,-20.0555,0.942139,0.0122996,0.0479314,0.0148984,0.0533398,0.00689122,1.22257,0.0334999,0.0415893,580,1212,-20.0555,-0.942148
-637,-188,-20.1496,1.58813,0.00910767,0.0336274,0.011041,0.0378662,0.00486882,1.20423,0.0237879,0.0210334,587,1212,-20.1496,-1.58818
-630,-188,-20.1288,1.90991,0.00635409,0.0213953,0.00800144,0.0248557,0.00289368,1.16261,0.0156951,0.0101561,594,1212,-20.1288,-1.90991
-623,-188,-20.1317,2.23584,0.00373689,0.0109124,0.00499184,0.013472,0.00117724,1.09699,0.00861577,0.0110831,601,1212,-20.1317,-2.23579
-616,-188,-20.1293,2.56482,0.00137571,0.00417836,0.00227508,0.00544906,0.000105016,1.06143,0.00359821,0.0108443,608,1212,-20.1293,-2.56481
-609,-188,-20.1276,2.91223,-0.000257853,0.000816519,-0.000374953,0.000934435,-0.000375769,-1.26611,0.000779032,0.0128253,615,1212,-20.1276,-2.91218
-602,-188,-20.1211,3.25854,-0.00145124,-0.0011763,-0.00196336,0.000654398,-0.00328193,-0.82035,0.00243557,0.0153539,622,1212,-20.1211,-3.25858
-595,-188,-20.1794,3.57764,-0.00214513,-0.00193787,-0.00229126,0.000252104,-0.00433511,-0.807997,0.00297767,0.0140475,629,1212,-20.1795,-3.57763
-588,-188,-20.2489,3.89954,-0.00219521,-0.00246305,-0.00254362,0.000218017,-0.00487627,-0.759098,0.0033259,0.0178179,636,1212,-20.2489,-3.89949
-581,-188,-20.27,4.20105,-0.0020959,-0.00273846,-0.00274592,0.000347476,-0.00518184,-0.727161,0.00357601,0.0189756,643,1212,-20.27,-4.20103
-574,-188,-20.5833,4.46216,0,0,0,0,0,0,0,-1,650,1212,-20.5833,-4.46221
-567,-188,-19.5786,4.10388,0,0,0,0,0,0,0,-1,657,1212,-19.5785,-4.10383
-560,-188,-23.9507,0.416626,0,0,0,0,0,0,0,-1,664,1212,-23.9508,-0.416602
-553,-188,-25.9345,0.709229,0,0,0,0,0,0,0,-1,671,1212,-25.9345,-0.709246
-546,-188,-25.9425,0.878052,-0.000627568,-0.00117785,-0.00246232,0.00157494,-0.00338036,-0.729759,0.00292355,0.0442396,678,1212,-25.9425,-0.8781
-539,-188,-26.024,1.01172,-0.000127727,-0.000371474,-0.00214648,0.00190033,-0.00239953,-0.757039,0.0024881,0.03884,685,1212,-26.024,-1.01166
-532,-188,-26.0681,1.02698,0.000216615,0.00096615,-0.00143358,0.00207314,-0.000890371,-0.913248,0.00175582,0.0412005,692,1212,-26.0681,-1.02692
-525,-188,-26.1161,1.0835,0.000428361,0.00271227,-8.48714e-05,0.00271542,0.000425212,-1.5337,0.00168651,0.0394615,699,1212,-26.1161,-1.08352
-518,-188,-26.0202,1.13953,-7.75098e-05,0.00408582,0.00169818,0.00469063,-0.000682318,1.22865,0.00337758,0.0405008,706,1212,-26.0202,-1.13949
-511,-188,-25.8977,1.08911,0.00102335,0.00583408,0.00477932,0.00877919,-0.00192177,1.01853,0.0065875,0.0376,713,1212,-25.8977,-1.08915
-504,-188,0,0,0,0,0,0,0,0,0,-1,720,1212,0,0
-497,-188,0,0,0,0,0,0,0,0,0,-1,727,1212,0,0
-490,-188,0,0,0,0,0,0,0,0,0,-1,734,1212,0,0
-483,-188,0,0,0,0,0,0,0,0,0,-1,741,1212,0,0
-476,-188,0,0,0,0,0,0,0,0,0,-1,748,1212,0,0
-469,-188,0,0,0,0,0,0,0,0,0,-1,755,1212,0,0
-462,-188,0,0,0,0,0,0,0,0,0,-1,762,1212,0,0
-455,-188,0,0,0,0,0,0,0,0,0,-1,769,1212,0,0
-448,-188,0,0,0,0,0,0,0,0,0,-1,776,1212,0,0
-441,-188,0,0,0,0,0,0,0,0,0,-1,783,1212,0,0
-434,-188,0,0,0,0,0,0,0,0,0,-1,790,1212,0,0
-427,-188,0,0,0,0,0,0,0,0,0,-1,797,1212,0,0
-420,-188,0,0,0,0,0,0,0,0,0,-1,804,1212,0,0
-413,-188,0,0,0,0,0,0,0,0,0,-1,811,1212,0,0
-406,-188,0,0,0,0,0,0,0,0,0,-1,818,1212,0,0
-399,-188,0,0,0,0,0,0,0,0,0,-1,825,1212,0,0
-392,-188,0,0,0,0,0,0,0,0,0,-1,832,1212,0,0
-385,-188,0,0,0,0,0,0,0,0,0,-1,839,1212,0,0
-378,-188,0,0,0,0,0,0,0,0,0,-1,846,1212,0,0
-371,-188,0,0,0,0,0,0,0,0,0,-1,853,1212,0,0
-364,-188,0,0,0,0,0,0,0,0,0,-1,860,1212,0,0
-357,-188,0,0,0,0,0,0,0,0,0,-1,867,1212,0,0
-350,-188,0,0,0,0,0,0,0,0,0,-1,874,1212,0,0
-343,-188,0,0,0,0,0,0,0,0,0,-1,881,1212,0,0
-336,-188,0,0,0,0,0,0,0,0,0,-1,888,1212,0,0
-329,-188,0,0,0,0,0,0,0,0,0,-1,895,1212,0,0
-322,-188,0,0,0,0,0,0,0,0,0,-1,902,1212,0,0
-315,-188,0,0,0,0,0,0,0,0,0,-1,909,1212,0,0
-308,-188,0,0,0,0,0,0,0,0,0,-1,916,1212,0,0
-301,-188,0,0,0,0,0,0,0,0,0,-1,923,1212,0,0
-294,-188,0,0,0,0,0,0,0,0,0,-1,930,1212,0,0
-287,-188,0,0,0,0,0,0,0,0,0,-1,937,1212,0,0
-280,-188,0,0,0,0,0,0,0,0,0,-1,944,1212,0,0
-273,-188,0,0,0,0,0,0,0,0,0,-1,951,1212,0,0
-266,-188,0,0,0,0,0,0,0,0,0,-1,958,1212,0,0
-259,-188,0,0,0,0,0,0,0,0,0,-1,965,1212,0,0
-252,-188,0,0,0,0,0,0,0,0,0,-1,972,1212,0,0
-245,-188,0,0,0,0,0,0,0,0,0,-1,979,1212,0,0
-238,-188,0,0,0,0,0,0,0,0,0,-1,986,1212,0,0
-231,-188,0,0,0,0,0,0,0,0,0,-1,993,1212,0,0
-224,-188,0,0,0,0,0,0,0,0,0,-1,1000,1212,0,0
-217,-188,0,0,0,0,0,0,0,0,0,-1,1007,1212,0,0
-210,-188,0,0,0,0,0,0,0,0,0,-1,1014,1212,0,0
-203,-188,0,0,0,0,0,0,0,0,0,-1,1021,1212,0,0
-196,-188,0,0,0,0,0,0,0,0,0,-1,1028,1212,0,0
-189,-188,0,0,0,0,0,0,0,0,0,-1,1035,1212,0,0
-182,-188,0,0,0,0,0,0,0,0,0,-1,1042,1212,0,0
-175,-188,0,0,0,0,0,0,0,0,0,-1,1049,1212,0,0
-168,-188,0,0,0,0,0,0,0,0,0,-1,1056,1212,0,0
-161,-188,0,0,0,0,0,0,0,0,0,-1,1063,1212,0,0
-154,-188,0,0,0,0,0,0,0,0,0,-1,1070,1212,0,0
-147,-188,0,0,0,0,0,0,0,0,0,-1,1077,1212,0,0
-140,-188,0,0,0,0,0,0,0,0,0,-1,1084,1212,0,0
-133,-188,0,0,0,0,0,0,0,0,0,-1,1091,1212,0,0
-126,-188,0,0,0,0,0,0,0,0,0,-1,1098,1212,0,0
-119,-188,0,0,0,0,0,0,0,0,0,-1,1105,1212,0,0
-112,-188,0,0,0,0,0,0,0,0,0,-1,1112,1212,0,0
-105,-188,0,0,0,0,0,0,0,0,0,-1,1119,1212,0,0
-98,-188,0,0,0,0,0,0,0,0,0,-1,1126,1212,0,0
-91,-188,0,0,0,0,0,0,0,0,0,-1,1133,1212,0,0
-84,-188,0,0,0,0,0,0,0,0,0,-1,1140,1212,0,0
-77,-188,0,0,0,0,0,0,0,0,0,-1,1147,1212,0,0
-70,-188,0,0,0,0,0,0,0,0,0,-1,1154,1212,0,0
-63,-188,0,0,0,0,0,0,0,0,0,-1,1161,1212,0,0
-56,-188,0,0,0,0,0,0,0,0,0,-1,1168,1212,0,0
-49,-188,0,0,0,0,0,0,0,0,0,-1,1175,1212,0,0
-42,-188,0,0,0,0,0,0,0,0,0,-1,1182,1212,0,0
-35,-188,0,0,0,0,0,0,0,0,0,-1,1189,1212,0,0
-28,-188,0,0,0,0,0,0,0,0,0,-1,1196,1212,0,0
-21,-188,0,0,0,0,0,0,0,0,0,-1,1203,1212,0,0
-14,-188,0,0,0,0,0,0,0,0,0,-1,1210,1212,0,0
-7,-188,0,0,0,0,0,0,0,0,0,-1,1217,1212,0,0
0,-188,0,0,0,0,0,0,0,0,0,-1,1224,1212,0,0
7,-188,0,0,0,0,0,0,0,0,0,-1,1231,1212,0,0
14,-188,0,0,0,0,0,0,0,0,0,-1,1238,1212,0,0
21,-188,0,0,0,0,0,0,0,0,0,-1,1245,1212,0,0
28,-188,0,0,0,0,0,0,0,0,0,-1,1252,1212,0,0
35,-188,0,0,0,0,0,0,0,0,0,-1,1259,1212,0,0
42,-188,0,0,0,0,0,0,0,0,0,-1,1266,1212,0,0
49,-188,0,0,0,0,0,0,0,0,0,-1,1273,1212,0,0
56,-188,0,0,0,0,0,0,0,0,0,-1,1280,1212,0,0
63,-188,0,0,0,0,0,0,0,0,0,-1,1287,1212,0,0
70,-188,0,0,0,0,0,0,0,0,0,-1,1294,1212,0,0
77,-188,0,0,0,0,0,0,0,0,0,-1,1301,1212,0,0
84,-188,0,0,0,0,0,0,0,0,0,-1,1308,1212,0,0
91,-188,0,0,0,0,0,0,0,0,0,-1,1315,1212,0,0
98,-188,0,0,0,0,0,0,0,0,0,-1,1322,1212,0,0
105,-188,0,0,0,0,0,0,0,0,0,-1,1329,1212,0,0
112,-188,0,0,0,0,0,0,0,0,0,-1,1336,1212,0,0
119,-188,0,0,0,0,0,0,0,0,0,-1,1343,1212,0,0
126,-188,0,0,0,0,0,0,0,0,0,-1,1350,1212,0,0
133,-188,0,0,0,0,0,0,0,0,0,-1,1357,1212,0,0
140,-188,0,0,0,0,0,0,0,0,0,-1,1364,1212,0,0
147,-188,0,0,0,0,0,0,0,0,0,-1,1371,1212,0,0
154,-188,0,0,0,0,0,0,0,0,0,-1,1378,1212,0,0
161,-188,0,0,0,0,0,0,0,0,0,-1,1385,1212,0,0
168,-188,0,0,0,0,0,0,0,0,0,-1,1392,1212,0,0
175,-188,0,0,0,0,0,0,0,0,0,-1,1399,1212,0,0
182,-188,0,0,0,0,0,0,0,0,0,-1,1406,1212,0,0
189,-188,0,0,0,0,0,0,0,0,0,-1,1413,1212,0,0
196,-188,0,0,0,0,0,0,0,0,0,-1,1420,1212,0,0
203,-188,0,0,0,0,0,0,0,0,0,-1,1427,1212,0,0
210,-188,0,0,0,0,0,0,0,0,0,-1,1434,1212,0,0
217,-188,0,0,0,0,0,0,0,0,0,-1,1441,1212,0,0
224,-188,0,0,0,0,0,0,0,0,0,-1,1448,1212,0,0
231,-188,0,0,0,0,0,0,0,0,0,-1,1455,1212,0,0
238,-188,0,0,0,0,0,0,0,0,0,-1,1462,1212,0,0
245,-188,0,0,0,0,0,0,0,0,0,-1,1469,1212,0,0
252,-188,0,0,0,0,0,0,0,0,0,-1,1476,1212,0,0
259,-188,0,0,0,0,0,0,0,0,0,-1,1483,1212,0,0
266,-188,0,0,0,0,0,0,0,0,0,-1,1490,1212,0,0
273,-188,0,0,0,0,0,0,0,0,0,-1,1497,1212,0,0
280,-188,0,0,0,0,0,0,0,0,0,-1,1504,1212,0,0
287,-188,0,0,0,0,0,0,0,0,0,-1,1511,1212,0,0
294,-188,0,0,0,0,0,0,0,0,0,-1,1518,1212,0,0
301,-188,0,0,0,0,0,0,0,0,0,-1,1525,1212,0,0
308,-188,0,0,0,0,0,0,0,0,0,-1,1532,1212,0,0
315,-188,0,0,0,0,0,0,0,0,0,-1,1539,1212,0,0
322,-188,0,0,0,0,0,0,0,0,0,-1,1546,1212,0,0
329,-188,0,0,0,0,0,0,0,0,0,-1,1553,1212,0,0
336,-188,0,0,0,0,0,0,0,0,0,-1,1560,1212,0,0
343,-188,0,0,0,0,0,0,0,0,0,-1,1567,1212,0,0
350,-188,0,0,0,0,0,0,0,0,0,-1,1574,1212,0,0
357,-188,0,0,0,0,0,0,0,0,0,-1,1581,1212,0,0
364,-188,0,0,0,0,0,0,0,0,0,-1,1588,1212,0,0
371,-188,0,0,0,0,0,0,0,0,0,-1,1595,1212,0,0
378,-188,0,0,0,0,0,0,0,0,0,-1,1602,1212,0,0
385,-188,0,0,0,0,0,0,0,0,0,-1,1609,1212,0,0
392,-188,0,0,0,0,0,0,0,0,0,-1,1616,1212,0,0
399,-188,0,0,0,0,0,0,0,0,0,-1,1623,1212,0,0
406,-188,0,0,0,0,0,0,0,0,0,-1,1630,1212,0,0
413,-188,0,0,0,0,0,0,0,0,0,-1,1637,1212,0,0
420,-188,0,0,0,0,0,0,0,0,0,-1,1644,1212,0,0
427,-188,0,0,0,0,0,0,0,0,0,-1,1651,1212,0,0
434,-188,0,0,0,0,0,0,0,0,0,-1,1658,1212,0,0
441,-188,0,0,0,0,0,0,0,0,0,-1,1665,1212,0,0
448,-188,0,0,0,0,0,0,0,0,0,-1,1672,1212,0,0
455,-188,0,0,0,0,0,0,0,0,0,-1,1679,1212,0,0
462,-188,0,0,0,0,0,0,0,0,0,-1,1686,1212,0,0
469,-188,0,0,0,0,0,0,0,0,0,-1,1693,1212,0,0
476,-188,0,0,0,0,0,0,0,0,0,-1,1700,1212,0,0
483,-188,0,0,0,0,0,0,0,0,0,-1,1707,1212,0,0
490,-188,0,0,0,0,0,0,0,0,0,-1,1714,1212,0,0
497,-188,0,0,0,0,0,0,0,0,0,-1,1721,1212,0,0
504,-188,0,0,0,0,0,0,0,0,0,-1,1728,1212,0,0
511,-188,0,0,0,0,0,0,0,0,0,-1,1735,1212,0,0
518,-188,0,0,0,0,0,0,0,0,0,-1,1742,1212,0,0
525,-188,0,0,0,0,0,0,0,0,0,-1,1749,1212,0,0
532,-188,0,0,0,0,0,0,0,0,0,-1,1756,1212,0,0
539,-188,0,0,0,0,0,0,0,0,0,-1,1763,1212,0,0
546,-188,0,0,0,0,0,0,0,0,0,-1,1770,1212,0,0
553,-188,0,0,0,0,0,0,0,0,0,-1,1777,1212,0,0
560,-188,0,0,0,0,0,0,0,0,0,-1,1784,1212,0,0
567,-188,0,0,0,0,0,0,0,0,0,-1,1791,1212,0,0
574,-188,0,0,0,0,0,0,0,0,0,-1,1798,1212,0,0
581,-188,0,0,0,0,0,0,0,0,0,-1,1805,1212,0,0
588,-188,0,0,0,0,0,0,0,0,0,-1,1812,1212,0,0
595,-188,0,0,0,0,0,0,0,0,0,-1,1819,1212,0,0
602,-188,0,0,0,0,0,0,0,0,0,-1,1826,1212,0,0
609,-188,0,0,0,0,0,0,0,0,0,-1,1833,1212,0,0
616,-188,0,0,0,0,0,0,0,0,0,-1,1840,1212,0,0
623,-188,0,0,0,0,0,0,0,0,0,-1,1847,1212,0,0
630,-188,36.161,2.82202,0.00378467,-0.000911314,-0.000883328,0.00394533,-0.00107197,-0.179914,0.00305098,0.0384008,1854,1212,36.1611,-2.82201
637,-188,36.1273,2.74158,0.00274905,-0.000799376,-0.00105413,0.00303857,-0.0010889,-0.268049,0.00247003,0.0400697,1861,1212,36.1273,-2.74155
644,-188,36.0211,2.75073,0.00196161,9.06771e-05,-0.00133943,0.0026599,-0.000607615,-0.48057,0.00200671,0.0369921,1868,1212,36.0211,-2.75074
651,-188,36.0145,2.73181,0.00146907,0.00106579,-0.0017666,0.0030455,-0.000510647,-0.728574,0.00222021,0.0329627,1875,1212,36.0145,-2.73184
658,-188,36.068,2.76367,0.00127367,0.00173773,-0.00215817,0.0036763,-0.000664906,-0.83895,0.00269993,0.0330909,1882,1212,36.068,-2.76369
665,-188,36.0347,2.76501,0.00106616,0.0021112,-0.00222571,0.0038749,-0.000697537,-0.900693,0.00284443,0.0301341,1889,1212,36.0346,-2.765
672,-188,36.0609,2.7312,0.000719446,0.00213544,-0.00190583,0.00346053,-0.000605643,-0.963243,0.00253315,0.0238006,1896,1212,36.0609,-2.73114
679,-188,36.0105,2.57422,-7.64117e-05,0.00201208,-0.0013563,0.00267956,-0.000743889,-1.11346,0.00207918,0.0449377,1903,1212,36.0105,-2.57422
686,-188,35.9478,2.37866,-0.000840008,0.00172472,-0.00086512,0.00198925,-0.00110454,-1.27405,0.00181038,0.045188,1910,1212,35.9477,-2.37871
693,-188,35.9054,2.18042,0,0,0,0,0,0,0,-1,1917,1212,35.9054,-2.18038
700,-188,31.1438,7.02576,0,0,0,0,0,0,0,-1,1924,1212,31.1438,-7.02577
707,-188,30.8456,6.76782,-0.00203684,0.00118898,0.000408209,0.00123983,-0.0020877,1.44685,0.00194183,0.0290201,1931,1212,30.8456,-6.76784
714,-188,30.8491,6.54456,-0.00252709,0.000976523,0.000824728,0.00116095,-0.00271152,1.35079,0.00229473,0.0251622,1938,1212,30.8491,-6.54461
721,-188,30.713,6.29053,-0.00259356,0.000714499,0.00136793,0.00120687,-0.00308593,1.22529,0.00255637,0.0221732,1945,1212,30.7131,-6.29049
728,-188,30.5968,6.00623,-0.00248431,0.000364534,0.00200885,0.00140272,-0.0035225,1.09379,0.00293005,0.0101168,1952,1212,30.5968,-6.00622
735,-188,30.5789,5.72571,-0.00192224,0.000500524,0.00229829,0.00188714,-0.00330886,1.02794,0.00303711,0.0127073,1959,1212,30.5788,-5.72572
742,-188,30.5543,5.4209,-0.000729545,0.00164408,0.00203868,0.00281624,-0.0019017,1.04899,0.00274091,0.0139522,1966,1212,30.5543,-5.42095
749,-188,30.5608,5.12817,0.00110531,0.00454038,0.00173886,0.00526694,0.000378754,1.17501,0.0033921,0.014093,1973,1212,30.5608,-5.12817
756,-188,30.5616,4.81396,0.00303603,0.00796397,0.0018224,0.00856468,0.00243532,1.25238,0.00509583,0.0127206,1980,1212,30.5616,-4.81399
763,-188,30.5791,4.51807,0.0050229,0.0129798,0.00193698,0.0134263,0.00457643,1.34425,0.00788146,0.0154861,1987,1212,30.5791,-4.51801
770,-188,30.5978,4.25232,0.00661369,0.0201386,0.00252381,0.0205942,0.00615809,1.3922,0.0122061,0.0274393,1994,1212,30.5978,-4.25231
777,-188,31.8772,3.67078,0,0,0,0,0,0,0,-1,2001,1212,31.8771,-3.67073
784,-188,33.1111,3.13062,0,0,0,0,0,0,0,-1,2008,1212,33.1111,-3.13066
791,-188,32.6324,2.58765,0,0,0,0,0,0,0,-1,2015,1212,32.6325,-2.58764
798,-188,32.2839,3.13867,0,0,0,0,0,0,0,-1,2022,1212,32.284,-3.13868
805,-188,0,0,0,0,0,0,0,0,0,-1,2029,1212,0,0
812,-188,0,0,0,0,0,0,0,0,0,-1,2036,1212,0,0
-700,-195,0,0,0,0,0,0,0,0,0,-1,524,1219,0,0
-693,-195,0,0,0,0,0,0,0,0,0,-1,531,1219,0,0
-686,-195,0,0,0,0,0,0,0,0,0,-1,538,1219,0,0
-679,-195,-17.1804,-4.85913,0.0542621,0.142252,0.0364232,0.155372,0.0411413,1.22504,0.0929539,0.045509,545,1219,-17.1804,4.85913
-672,-195,-17.4195,-3.58826,0.0499035,0.116648,0.0358701,0.132269,0.0342821,1.16007,0.0792631,0.049137,552,1219,-17.4195,3.58829
-665,-195,-17.7314,-2.08618,0.0443435,0.0941559,0.0328452,0.11047,0.0280292,1.10979,0.0663087,0.0492283,559,1219,-17.7314,2.08612
-658,-195,-17.9975,-0.488403,0.0381546,0.0744083,0.0285944,0.0901374,0.0224255,1.0679,0.054186,0.0493035,566,1219,-17.9975,0.488463
-651,-195,-19.6345,0.887573,0,0,0,0,0,0,0,-1,573,1219,-19.6346,-0.887592
-644,-195,-19.6722,1.24561,0.0256548,0.0422244,0.0189188,0.0545929,0.0132863,0.991776,0.032874,0.0436214,580,1219,-19.6722,-1.24561
-637,-195,-19.7261,1.59631,0.0196939,0.0298143,0.0141684,0.039799,0.0097092,0.956912,0.0239612,0.0223913,587,1219,-19.7262,-1.59629
-630,-195,-19.7748,1.9054,0.0144253,0.0191765,0.0103164,0.0273873,0.00621448,0.898563,0.0165796,0.00849919,594,1219,-19.7748,-1.90544
-623,-195,-19.7824,2.23035,0.00968372,0.00977949,0.00664217,0.016374,0.00308926,0.789003,0.0100458,0.00837143,601,1219,-19.7824,-2.23035
-616,-195,-19.7826,2.57983,0.00514412,0.00399579,0.00324859,0.00786889,0.00127102,0.69793,0.00487777,0.00994936,608,1219,-19.7826,-2.57982
-609,-195,-19.7875,2.92981,0.00180661,0.000947452,0.000181127,0.00184324,0.000910829,0.199509,0.00106422,0.0169724,615,1219,-19.7875,-2.92983
-602,-195,-19.8253,3.24927,-0.000345885,-0.00115565,-0.00168483,0.000982024,-0.00248356,-0.667478,0.00206251,0.0214516,622,1219,-19.8253,-3.24933
-595,-195,-19.8304,3.59351,-0.001354,-0.00181816,-0.00204965,0.000476668,-0.00364883,-0.729025,0.00260601,0.0156044,629,1219,-19.8305,-3.59349
-588,-195,-19.8477,3.94336,-0.00138829,-0.00234301,-0.00235092,0.000533249,-0.00426455,-0.685233,0.00303643,0.0141954,636,1219,-19.8476,-3.94336
-581,-195,-19.9295,4.16028,-0.00121486,-0.0026081,-0.00263355,0.000812647,-0.00463561,-0.6561,0.00339388,0.0229792,643,1219,-19.9295,-4.16028
-574,-195,-20.2983,3.99194,-0.000853798,-0.00228461,-0.00274024,0.00126288,-0.00440129,-0.657711,0.00343347,0.0492508,650,1219,-20.2983,-3.9919
-567,-195,-20.6388,3.78369,0,0,0,0,0,0,0,-1,657,1219,-20.6388,-3.78369
-560,-195,-20.878,2.10388,0,0,0,0,0,0,0,-1,664,1219,-20.878,-2.10385
-553,-195,-25.0575,0.620605,0,0,0,0,0,0,0,-1,671,1219,-25.0575,-0.620592
-546,-195,-25.9185,0.79834,0,0,0,0,0,0,0,-1,678,1219,-25.9185,-0.798302
-539,-195,-25.9003,0.917603,0.000355135,9.54243e-05,-0.00206473,0.00229409,-0.00184353,-0.753994,0.00239358,0.0364826,685,1219,-25.9004,-0.917646
-532,-195,-25.9752,0.903564,0.000283809,0.00116082,-0.00149549,0.00228077,-0.000836143,-0.928009,0.00186287,0.0346335,692,1219,-25.9752,-0.90361
-525,-195,-25.9896,0.926636,-0.000117842,0.0024455,-0.000356934,0.00249427,-0.000166616,-1.43499,0.00172108,0.0357489,699,1219,-25.9896,-0.926691
-518,-195,-25.9405,0.981445,-0.00145288,0.00340214,0.00141525,0.00378457,-0.0018353,1.30688,0.00330905,0.0380025,706,1219,-25.9405,-0.981483
-511,-195,-25.8462,0.960327,-0.00146079,0.00452087,0.00484906,0.00722727,-0.00416719,1.06173,0.0066572,0.0412389,713,1219,-25.8462,-0.960384
-504,-195,0,0,0,0,0,0,0,0,0,-1,720,1219,0,0
-497,-195,0,0,0,0,0,0,0,0,0,-1,727,1219,0,0
-490,-195,0,0,0,0,0,0,0,0,0,-1,734,1219,0,0
-483,-195,0,0,0,0,0,0,0,0,0,-1,741,1219,0,0
-476,-195,0,0,0,0,0,0,0,0,0,-1,748,1219,0,0
-469,-195,0,0,0,0,0,0,0,0,0,-1,755,1219,0,0
-462,-195,0,0,0,0,0,0,0,0,0,-1,762,1219,0,0
-455,-195,0,0,0,0,0,0,0,0,0,-1,769,1219,0,0
-448,-195,0,0,0,0,0,0,0,0,0,-1,776,1219,0,0
-441,-195,0,0,0,0,0,0,0,0,0,-1,783,1219,0,0
-434,-195,0,0,0,0,0,0,0,0,0,-1,790,1219,0,0
-427,-195,0,0,0,0,0,0,0,0,0,-1,797,1219,0,0
-420,-195,0,0,0,0,0,0,0,0,0,-1,804,1219,0,0
-413,-195,0,0,0,0,0,0,0,0,0,-1,811,1219,0,0
-406,-195,0,0,0,0,0,0,0,0,0,-1,818,1219,0,0
-399,-195,0,0,0,0,0,0,0,0,0,-1,825,1219,0,0
-392,-195,0,0,0,0,0,0,0,0,0,-1,832,1219,0,0
-385,-195,0,0,0,0,0,0,0,0,0,-1,839,1219,0,0
-378,-195,0,0,0,0,0,0,0,0,0,-1,846,1219,0,0
-371,-195,0,0,0,0,0,0,0,0,0,-1,853,1219,0,0
-364,-195,0,0,0,0,0,0,0,0,0,-1,860,1219,0,0
-357,-195,0,0,0,0,0,0,0,0,0,-1,867,1219,0,0
-350,-195,0,0,0,0,0,0,0,0,0,-1,874,1219,0,0
-343,-195,0,0,0,0,0,0,0,0,0,-1,881,1219,0,0
-336,-195,0,0,0,0,0,0,0,0,0,-1,888,1219,0,0
-329,-195,0,0,0,0,0,0,0,0,0,-1,895,1219,0,0
-322,-195,0,0,0,0,0,0,0,0,0,-1,902,1219,0,0
-315,-195,0,0,0,0,0,0,0,0,0,-1,909,1219,0,0
-308,-195,0,0,0,0,0,0,0,0,0,-1,916,1219,0,0
-301,-195,0,0,0,0,0,0,0,0,0,-1,923,1219,0,0
-294,-195,0,0,0,0,0,0,0,0,0,-1,930,1219,0,0
-287,-195,0,0,0,0,0,0,0,0,0,-1,937,1219,0,0
-280,-195,0,0,0,0,0,0,0,0,0,-1,944,1219,0,0
-273,-195,0,0,0,0,0,0,0,0,0,-1,951,1219,0,0
-266,-195,0,0,0,0,0,0,0,0,0,-1,958,1219,0,0
-259,-195,0,0,0,0,0,0,0,0,0,-1,965,1219,0,0
-252,-195,0,0,0,0,0,0,0,0,0,-1,972,1219,0,0
-245,-195,0,0,0,0,0,0,0,0,0,-1,979,1219,0,0
-238,-195,0,0,0,0,0,0,0,0,0,-1,986,1219,0,0
-231,-195,0,0,0,0,0,0,0,0,0,-1,993,1219,0,0
-224,-195,0,0,0,0,0,0,0,0,0,-1,1000,1219,0,0
-217,-195,0,0,0,0,0,0,0,0,0,-1,1007,1219,0,0
-210,-195,0,0,0,0,0,0,0,0,0,-1,1014,1219,0,0
-203,-195,0,0,0,0,0,0,0,0,0,-1,1021,1219,0,0
-196,-195,0,0,0,0,0,0,0,0,0,-1,1028,1219,0,0
-189,-195,0,0,0,0,0,0,0,0,0,-1,1035,1219,0,0
-182,-195,0,0,0,0,0,0,0,0,0,-1,1042,1219,0,0
-175,-195,0,0,0,0,0,0,0,0,0,-1,1049,1219,0,0
-168,-195,0,0,0,0,0,0,0,0,0,-1,1056,1219,0,0
-161,-195,0,0,0,0,0,0,0,0,0,-1,1063,1219,0,0
-154,-195,0,0,0,0,0,0,0,0,0,-1,1070,1219,0,0
-147,-195,0,0,0,0,0,0,0,0,0,-1,1077,1219,0,0
-140,-195,0,0,0,0,0,0,0,0,0,-1,1084,1219,0,0
-133,-195,0,0,0,0,0,0,0,0,0,-1,1091,1219,0,0
-126,-195,0,0,0,0,0,0,0,0,0,-1,1098,1219,0,0
-119,-195,0,0,0,0,0,0,0,0,0,-1,1105,1219,0,0
-112,-195,0,0,0,0,0,0,0,0,0,-1,1112,1219,0,0
-105,-195,0,0,0,0,0,0,0,0,0,-1,1119,1219,0,0
-98,-195,0,0,0,0,0,0,0,0,0,-1,1126,1219,0,0
-91,-195,0,0,0,0,0,0,0,0,0,-1,1133,1219,0,0
-84,-195,0,0,0,0,0,0,0,0,0,-1,1140,1219,0,0
-77,-195,0,0,0,0,0,0,0,0,0,-1,1147,1219,0,0
-70,-195,0,0,0,0,0,0,0,0,0,-1,1154,1219,0,0
-63,-195,0,0,0,0,0,0,0,0,0,-1,1161,1219,0,0
-56,-195,0,0,0,0,0,0,0,0,0,-1,1168,1219,0,0
-49,-195,0,0,0,0,0,0,0,0,0,-1,1175,1219,0,0
-42,-195,0,0,0,0,0,0,0,0,0,-1,1182,1219,0,0
-35,-195,0,0,0,0,0,0,0,0,0,-1,1189,1219,0,0
-28,-195,0,0,0,0,0,0,0,0,0,-1,1196,1219,0,0
-21,-195,0,0,0,0,0,0,0,0,0,-1,1203,1219,0,0
-14,-195,0,0,0,0,0,0,0,0,0,-1,1210,1219,0,0
-7,-195,0,0,0,0,0,0,0,0,0,-1,1217,1219,0,0
0,-195,0,0,0,0,0,0,0,0,0,-1,1224,1219,0,0
7,-195,0,0,0,0,0,0,0,0,0,-1,1231,1219,0,0
14,-195,0,0,0,0,0,0,0,0,0,-1,1238,1219,0,0
21,-195,0,0,0,0,0,0,0,0,0,-1,1245,1219,0,0
28,-195,0,0,0,0,0,0,0,0,0,-1,1252,1219,0,0
35,-195,0,0,0,0,0,0,0,0,0,-1,1259,1219,0,0
42,-195,0,0,0,0,0,0,0,0,0,-1,1266,1219,0,0
49,-195,0,0,0,0,0,0,0,0,0,-1,1273,1219,0,0
56,-195,0,0,0,0,0,0,0,0,0,-1,1280,1219,0,0
63,-195,0,0,0,0,0,0,0,0,0,-1,1287,1219,0,0
70,-195,0,0,0,0,0,0,0,0,0,-1,1294,1219,0,0
77,-195,0,0,0,0,0,0,0,0,0,-1,1301,1219,0,0
84,-195,0,0,0,0,0,0,0,0,0,-1,1308,1219,0,0
91,-195,0,0,0,0,0,0,0,0,0,-1,1315,1219,0,0
98,-195,0,0,0,0,0,0,0,0,0,-1,1322,1219,0,0
105,-195,0,0,0,0,0,0,0,0,0,-1,1329,1219,0,0
112,-195,0,0,0,0,0,0,0,0,0,-1,1336,1219,0,0
119,-195,0,0,0,0,0,0,0,0,0,-1,1343,1219,0,0
126,-195,0,0,0,0,0,0,0,0,0,-1,1350,1219,0,0
133,-195,0,0,0,0,0,0,0,0,0,-1,1357,1219,0,0
140,-195,0,0,0,0,0,0,0,0,0,-1,1364,1219,0,0
147,-195,0,0,0,0,0,0,0,0,0,-1,1371,1219,0,0
154,-195,0,0,0,0,0,0,0,0,0,-1,1378,1219,0,0
161,-195,0,0,0,0,0,0,0,0,0,-1,1385,1219,0,0
168,-195,0,0,0,0,0,0,0,0,0,-1,1392,1219,0,0
175,-195,0,0,0,0,0,0,0,0,0,-1,1399,1219,0,0
182,-195,0,0,0,0,0,0,0,0,0,-1,1406,1219,0,0
189,-195,0,0,0,0,0,0,0,0,0,-1,1413,1219,0,0
196,-195,0,0,0,0,0,0,0,0,0,-1,1420,1219,0,0
203,-195,0,0,0,0,0,0,0,0,0,-1,1427,1219,0,0
210,-195,0,0,0,0,0,0,0,0,0,-1,1434,1219,0,0
217,-195,0,0,0,0,0,0,0,0,0,-1,1441,1219,0,0
224,-195,0,0,0,0,0,0,0,0,0,-1,1448,1219,0,0
231,-195,0,0,0,0,0,0,0,0,0,-1,1455,1219,0,0
238,-195,0,0,0,0,0,0,0,0,0,-1,1462,1219,0,0
245,-195,0,0,0,0,0,0,0,0,0,-1,1469,1219,0,0
252,-195,0,0,0,0,0,0,0,0,0,-1,1476,1219,0,0
259,-195,0,0,0,0,0,0,0,0,0,-1,1483,1219,0,0
266,-195,0,0,0,0,0,0,0,0,0,-1,1490,1219,0,0
273,-195,0,0,0,0,0,0,0,0,0,-1,1497,1219,0,0
280,-195,0,0,0,0,0,0,0,0,0,-1,1504,1219,0,0
287,-195,0,0,0,0,0,0,0,0,0,-1,1511,1219,0,0
294,-195,0,0,0,0,0,0,0,0,0,-1,1518,1219,0,0
301,-195,0,0,0,0,0,0,0,0,0,-1,1525,1219,0,0
308,-195,0,0,0,0,0,0,0,0,0,-1,1532,1219,0,0
315,-195,0,0,0,0,0,0,0,0,0,-1,1539,1219,0,0
322,-195,0,0,0,0,0,0,0,0,0,-1,1546,1219,0,0
329,-195,0,0,0,0,0,0,0,0,0,-1,1553,1219,0,0
336,-195,0,0,0,0,0,0,0,0,0,-1,1560,1219,0,0
343,-195,0,0,0,0,0,0,0,0,0,-1,1567,1219,0,0
350,-195,0,0,0,0,0,0,0,0,0,-1,1574,1219,0,0
357,-195,0,0,0,0,0,0,0,0,0,-1,1581,1219,0,0
364,-195,0,0,0,0,0,0,0,0,0,-1,1588,1219,0,0
371,-195,0,0,0,0,0,0,0,0,0,-1,1595,1219,0,0
378,-195,0,0,0,0,0,0,0,0,0,-1,1602,1219,0,0
385,-195,0,0,0,0,0,0,0,0,0,-1,1609,1219,0,0
392,-195,0,0,0,0,0,0,0,0,0,-1,1616,1219,0,0
399,-195,0,0,0,0,0,0,0,0,0,-1,1623,1219,0,0
406,-195,0,0,0,0,0,0,0,0,0,-1,1630,1219,0,0
413,-195,0,0,0,0,0,0,0,0,0,-1,1637,1219,0,0
420,-195,0,0,0,0,0,0,0,0,0,-1,1644,1219,0,0
427,-195,0,0,0,0,0,0,0,0,0,-1,1651,1219,0,0
434,-195,0,0,0,0,0,0,0,0,0,-1,1658,1219,0,0
441,-195,0,0,0,0,0,0,0,0,0,-1,1665,1219,0,0
448,-195,0,0,0,0,0,0,0,0,0,-1,1672,1219,0,0
455,-195,0,0,0,0,0,0,0,0,0,-1,1679,1219,0,0
462,-195,0,0,0,0,0,0,0,0,0,-1,1686,1219,0,0
469,-195,0,0,0,0,0,0,0,0,0,-1,1693,1219,0,0
476,-195,0,0,0,0,0,0,0,0,0,-1,1700,1219,0,0
483,-195,0,0,0,0,0,0,0,0,0,-1,1707,1219,0,0
490,-195,0,0,0,0,0,0,0,0,0,-1,1714,1219,0,0
497,-195,0,0,0,0,0,0,0,0,0,-1,1721,1219,0,0
504,-195,0,0,0,0,0,0,0,0,0,-1,1728,1219,0,0
511,-195,0,0,0,0,0,0,0,0,0,-1,1735,1219,0,0
518,-195,0,0,0,0,0,0,0,0,0,-1,1742,1219,0,0
525,-195,0,0,0,0,0,0,0,0,0,-1,1749,1219,0,0
532,-195,0,0,0,0,0,0,0,0,0,-1,1756,1219,0,0
539,-195,0,0,0,0,0,0,0,0,0,-1,1763,1219,0,0
546,-195,0,0,0,0,0,0,0,0,0,-1,1770,1219,0,0
553,-195,0,0,0,0,0,0,0,0,0,-1,1777,1219,0,0
560,-195,0,0,0,0,0,0,0,0,0,-1,1784,1219,0,0
567,-195,0,0,0,0,0,0,0,0,0,-1,1791,1219,0,0
574,-195,0,0,0,0,0,0,0,0,0,-1,1798,1219,0,0
581,-195,0,0,0,0,0,0,0,0,0,-1,1805,1219,0,0
588,-195,0,0,0,0,0,0,0,0,0,-1,1812,1219,0,0
595,-195,0,0,0,0,0,0,0,0,0,-1,1819,1219,0,0
602,-195,0,0,0,0,0,0,0,0,0,-1,1826,1219,0,0
609,-195,0,0,0,0,0,0,0,0,0,-1,1833,1219,0,0
616,-195,0,0,0,0,0,0,0,0,0,-1,1840,1219,0,0
623,-195,0,0,0,0,0,0,0,0,0,-1,1847,1219,0,0
630,-195,36.0834,2.72949,0.00372968,-0.000885887,-0.000492811,0.00378172,-0.000937919,-0.105192,0.00288506,0.0393521,1854,1219,36.0834,-2.72948
637,-195,36.1443,2.78064,0.00258272,-0.000600823,-0.000766853,0.00275781,-0.000775913,-0.224475,0.00214449,0.0407746,1861,1219,36.1443,-2.78059
644,-195,36.1281,2.7583,0.00170815,0.000320761,-0.00117354,0.00237769,-0.000348776,-0.518468,0.00171326,0.035617,1868,1219,36.1281,-2.75836
651,-195,36.1079,2.70361,0.00126494,0.0012071,-0.00170061,0.00293687,-0.000464832,-0.776896,0.00212984,0.0266246,1875,1219,36.1079,-2.70361
658,-195,36.074,2.77576,0.00118224,0.00171221,-0.00212659,0.00359027,-0.000695812,-0.847381,0.00265601,0.0240162,1882,1219,36.074,-2.77581
665,-195,36.042,2.7572,0.00108776,0.00194691,-0.00221439,0.00377301,-0.000738342,-0.881204,0.00279416,0.0218925,1889,1219,36.0419,-2.75723
672,-195,36.1202,2.73376,0.000857033,0.00188752,-0.00196954,0.0034081,-0.000663545,-0.913334,0.00252251,0.0324967,1896,1219,36.1202,-2.7338
679,-195,35.983,2.49414,0.000268812,0.00176992,-0.00152724,0.00272107,-0.000682341,-1.01379,0.00207916,0.0462049,1903,1219,35.9831,-2.4941
686,-195,35.8943,2.27209,0,0,0,0,0,0,0,-1,1910,1219,35.8942,-2.27213
693,-195,24.4368,5.68298,0,0,0,0,0,0,0,-1,1917,1219,24.4368,-5.68293
700,-195,30.6105,7.27124,0,0,0,0,0,0,0,-1,1924,1219,30.6104,-7.27121
707,-195,30.3472,6.98694,-0.00130151,0.000890349,8.95998e-05,0.000894006,-0.00130516,1.53001,0.00127707,0.0291576,1931,1219,30.3471,-6.98694
714,-195,30.3038,6.57056,-0.00177217,0.000628064,0.000582178,0.000761818,-0.00190593,1.34497,0.00158674,0.0296483,1938,1219,30.3038,-6.57055
721,-195,30.2883,6.31213,-0.00181878,0.000352957,0.00115014,0.000848836,-0.00231466,1.16373,0.00189067,0.0145508,1945,1219,30.2883,-6.31216
728,-195,30.292,6.03345,-0.00162457,1.99231e-05,0.00177633,0.00115508,-0.00275972,1.00216,0.00232264,0.0101389,1952,1219,30.292,-6.0335
735,-195,30.2815,5.71741,-0.000864335,0.000232691,0.00200865,0.00176638,-0.00239802,0.918686,0.00241352,0.0120949,1959,1219,30.2815,-5.7174
742,-195,30.2698,5.41333,0.000589622,0.00138807,0.00166796,0.00270391,-0.000726221,0.902863,0.00208723,0.0136926,1966,1219,30.2698,-5.41331
749,-195,30.2544,5.13721,0.00270834,0.00400698,0.00125994,0.00477507,0.00194025,1.02333,0.00277297,0.014052,1973,1219,30.2544,-5.1372
756,-195,30.2656,4.849,0.00506037,0.00711775,0.00114652,0.00762942,0.00454869,1.15104,0.00443194,0.0143453,1980,1219,30.2657,-4.84896
763,-195,30.2684,4.53931,0.00769865,0.0117323,0.0010044,0.0119685,0.00746238,1.33977,0.00697995,0.0165402,1987,1219,30.2685,-4.53933
770,-195,30.3243,4.32544,0.0101849,0.0185338,0.00126443,0.0187211,0.00999763,1.42374,0.010817,0.0309485,1994,1219,30.3243,-4.32543
777,-195,30.4575,4.19666,0,0,0,0,0,0,0,-1,2001,1219,30.4576,-4.19666
784,-195,33.4717,2.00452,0,0,0,0,0,0,0,-1,2008,1219,33.4717,-2.00449
791,-195,33.4631,2.66418,0,0,0,0,0,0,0,-1,2015,1219,33.4632,-2.66422
798,-195,33.2454,3.11206,0,0,0,0,0,0,0,-1,2022,1219,33.2453,-3.11208
805,-195,0,0,0,0,0,0,0,0,0,-1,2029,1219,0,0
812,-195,0,0,0,0,0,0,0,0,0,-1,2036,1219,0,0
-700,-202,0,0,0,0,0,0,0,0,0,-1,524,1226,0,0
-693,-202,0,0,0,0,0,0,0,0,0,-1,531,1226,0,0
-686,-202,0,0,0,0,0,0,0,0,0,-1,538,1226,0,0
-679,-202,-16.6387,-6.5072,0,0,0,0,0,0,0,-1,545,1226,-16.6387,6.50725
-672,-202,-16.7617,-5.15649,0,0,0,0,0,0,0,-1,552,1226,-16.7617,5.15654
-665,-202,-17.2896,-3.51941,0,0,0,0,0,0,0,-1,559,1226,-17.2895,3.51936
-658,-202,-17.8184,-2.1366,0,0,0,0,0,0,0,-1,566,1226,-17.8183,2.13661
-651,-202,-17.8691,-0.769287,0,0,0,0,0,0,0,-1,573,1226,-17.8691,0.76927
-644,-202,-20.2707,1.45923,0,0,0,0,0,0,0,-1,580,1226,-20.2707,-1.45919
-637,-202,-19.3597,1.57947,0.0304517,0.0257308,0.0177764,0.0460237,0.0101588,0.719392,0.0279192,0.0362008,587,1226,-19.3597,-1.57941
-630,-202,-19.4053,1.89368,0.0230144,0.016467,0.0130981,0.0332417,0.00623968,0.662938,0.0204018,0.01454,594,1226,-19.4053,-1.89362
-623,-202,-19.4251,2.22607,0.0163903,0.00816002,0.00874878,0.0219434,0.00260688,0.565568,0.0138421,0.00817139,601,1226,-19.4251,-2.22604
-616,-202,-19.4418,2.57043,0.00990492,0.00329744,0.00469944,0.0123457,0.000856666,0.479028,0.00796029,0.00864099,608,1226,-19.4417,-2.57041
-609,-202,-19.453,2.92944,0.00483413,0.000798609,0.00113563,0.00513175,0.000500985,0.256315,0.003267,0.0208344,615,1226,-19.453,-2.92939
-602,-202,-19.4914,3.23279,0.00142333,-0.0012258,-0.00109658,0.00181835,-0.00162082,-0.345757,0.00198669,0.0220385,622,1226,-19.4914,-3.23277
-595,-202,-19.498,3.58508,-0.000216721,-0.00172848,-0.00162197,0.000816854,-0.00276206,-0.567348,0.00216563,0.0164562,629,1226,-19.498,-3.5851
-588,-202,-19.4615,3.95947,-0.000357878,-0.00219884,-0.00199527,0.000919002,-0.00347572,-0.569279,0.0026766,0.0101286,636,1226,-19.4615,-3.95943
-581,-202,-19.4797,4.16626,-9.32014e-05,-0.0023989,-0.00239093,0.00140831,-0.00390041,-0.560755,0.00317556,0.031464,643,1226,-19.4798,-4.16621
-574,-202,-19.7651,4.22119,0.000349009,-0.0018949,-0.00263131,0.00208757,-0.00363347,-0.583876,0.003343,0.0411728,650,1226,-19.7651,-4.22118
-567,-202,-20.0557,4.31213,0,0,0,0,0,0,0,-1,657,1226,-20.0557,-4.31216
-560,-202,-10.929,2.73096,0,0,0,0,0,0,0,-1,664,1226,-10.929,-2.73092
-553,-202,-26.3107,1.38562,0,0,0,0,0,0,0,-1,671,1226,-26.3107,-1.38562
-546,-202,-26.1285,1.19031,0,0,0,0,0,0,0,-1,678,1226,-26.1285,-1.19032
-539,-202,-25.9548,0.985718,0.00101992,0.000674118,-0.00189818,0.00275306,-0.00105902,-0.739979,0.00227219,0.0387873,685,1226,-25.9548,-0.985751
-532,-202,-25.9602,0.923584,0.00055936,0.00151273,-0.00143086,0.00254422,-0.000472129,-0.946189,0.00187346,0.0265812,692,1226,-25.9602,-0.92364
-525,-202,-25.924,0.873779,-0.000316172,0.00245117,-0.000503568,0.00253995,-0.000404957,-1.39628,0.00184317,0.0316273,699,1226,-25.924,-0.873771
-518,-202,-25.8042,0.763916,-0.00221311,0.00319548,0.00105178,0.00339282,-0.00241044,1.38533,0.00336648,0.0390583,706,1226,-25.8042,-0.763874
-511,-202,-25.7688,0.768188,-0.0033247,0.00395397,0.00431504,0.00595948,-0.00533021,1.13573,0.00652148,0.0420819,713,1226,-25.7688,-0.768247
-504,-202,0,0,0,0,0,0,0,0,0,-1,720,1226,0,0
-497,-202,0,0,0,0,0,0,0,0,0,-1,727,1226,0,0
-490,-202,0,0,0,0,0,0,0,0,0,-1,734,1226,0,0
-483,-202,0,0,0,0,0,0,0,0,0,-1,741,1226,0,0
-476,-202,0,0,0,0,0,0,0,0,0,-1,748,1226,0,0
-469,-202,0,0,0,0,0,0,0,0,0,-1,755,1226,0,0
-462,-202,0,0,0,0,0,0,0,0,0,-1,762,1226,0,0
-455,-202,0,0,0,0,0,0,0,0,0,-1,769,1226,0,0
-448,-202,0,0,0,0,0,0,0,0,0,-1,776,1226,0,0
-441,-202,0,0,0,0,0,0,0,0,0,-1,783,1226,0,0
-434,-202,0,0,0,0,0,0,0,0,0,-1,790,1226,0,0
-427,-202,0,0,0,0,0,0,0,0,0,-1,797,1226,0,0
-420,-202,0,0,0,0,0,0,0,0,0,-1,804,1226,0,0
-413,-202,0,0,0,0,0,0,0,0,0,-1,811,1226,0,0
-406,-202,0,0,0,0,0,0,0,0,0,-1,818,1226,0,0
-399,-202,0,0,0,0,0,0,0,0,0,-1,825,1226,0,0
-392,-202,0,0,0,0,0,0,0,0,0,-1,832,1226,0,0
-385,-202,0,0,0,0,0,0,0,0,0,-1,839,1226,0,0
-378,-202,0,0,0,0,0,0,0,0,0,-1,846,1226,0,0
-371,-202,0,0,0,0,0,0,0,0,0,-1,853,1226,0,0
-364,-202,0,0,0,0,0,0,0,0,0,-1,860,1226,0,0
-357,-202,0,0,0,0,0,0,0,0,0,-1,867,1226,0,0
-350,-202,0,0,0,0,0,0,0,0,0,-1,874,1226,0,0
-343,-202,0,0,0,0,0,0,0,0,0,-1,881,1226,0,0
-336,-202,0,0,0,0,0,0,0,0,0,-1,888,1226,0,0
-329,-202,0,0,0,0,0,0,0,0,0,-1,895,1226,0,0
-322,-202,0,0,0,0,0,0,0,0,0,-1,902,1226,0,0
-315,-202,0,0,0,0,0,0,0,0,0,-1,909,1226,0,0
-308,-202,0,0,0,0,0,0,0,0,0,-1,916,1226,0,0
-301,-202,0,0,0,0,0,0,0,0,0,-1,923,1226,0,0
-294,-202,0,0,0,0,0,0,0,0,0,-1,930,1226,0,0
-287,-202,0,0,0,0,0,0,0,0,0,-1,937,1226,0,0
-280,-202,0,0,0,0,0,0,0,0,0,-1,944,1226,0,0
-273,-202,0,0,0,0,0,0,0,0,0,-1,951,1226,0,0
-266,-202,0,0,0,0,0,0,0,0,0,-1,958,1226,0,0
-259,-202,0,0,0,0,0,0,0,0,0,-1,965,1226,0,0
-252,-202,0,0,0,0,0,0,0,0,0,-1,972,1226,0,0
-245,-202,0,0,0,0,0,0,0,0,0,-1,979,1226,0,0
-238,-202,0,0,0,0,0,0,0,0,0,-1,986,1226,0,0
-231,-202,0,0,0,0,0,0,0,0,0,-1,993,1226,0,0
-224,-202,0,0,0,0,0,0,0,0,0,-1,1000,1226,0,0
-217,-202,0,0,0,0,0,0,0,0,0,-1,1007,1226,0,0
-210,-202,0,0,0,0,0,0,0,0,0,-1,1014,1226,0,0
-203,-202,0,0,0,0,0,0,0,0,0,-1,1021,1226,0,0
-196,-202,0,0,0,0,0,0,0,0,0,-1,1028,1226,0,0
-189,-202,0,0,0,0,0,0,0,0,0,-1,1035,1226,0,0
-182,-202,0,0,0,0,0,0,0,0,0,-1,1042,1226,0,0
-175,-202,0,0,0,0,0,0,0,0,0,-1,1049,1226,0,0
-168,-202,0,0,0,0,0,0,0,0,0,-1,1056,1226,0,0
-161,-202,0,0,0,0,0,0,0,0,0,-1,1063,1226,0,0
-154,-202,0,0,0,0,0,0,0,0,0,-1,1070,1226,0,0
-147,-202,0,0,0,0,0,0,0,0,0,-1,1077,1226,0,0
-140,-202,0,0,0,0,0,0,0,0,0,-1,1084,1226,0,0
-133,-202,0,0,0,0,0,0,0,0,0,-1,1091,1226,0,0
-126,-202,0,0,0,0,0,0,0,0,0,-1,1098,1226,0,0
-119,-202,0,0,0,0,0,0,0,0,0,-1,1105,1226,0,0
-112,-202,0,0,0,0,0,0,0,0,0,-1,1112,1226,0,0
-105,-202,0,0,0,0,0,0,0,0,0,-1,1119,1226,0,0
-98,-202,0,0,0,0,0,0,0,0,0,-1,1126,1226,0,0
-91,-202,0,0,0,0,0,0,0,0,0,-1,1133,1226,0,0
-84,-202,0,0,0,0,0,0,0,0,0,-1,1140,1226,0,0
-77,-202,0,0,0,0,0,0,0,0,0,-1,1147,1226,0,0
-70,-202,0,0,0,0,0,0,0,0,0,-1,1154,1226,0,0
-63,-202,0,0,0,0,0,0,0,0,0,-1,1161,1226,0,0
-56,-202,0,0,0,0,0,0,0,0,0,-1,1168,1226,0,0
-49,-202,0,0,0,0,0,0,0,0,0,-1,1175,1226,0,0
-42,-202,0,0,0,0,0,0,0,0,0,-1,1182,1226,0,0
-35,-202,0,0,0,0,0,0,0,0,0,-1,1189,1226,0,0
-28,-202,0,0,0,0,0,0,0,0,0,-1,1196,1226,0,0
-21,-202,0,0,0,0,0,0,0,0,0,-1,1203,1226,0,0
-14,-202,0,0,0,0,0,0,0,0,0,-1,1210,1226,0,0
-7,-202,0,0,0,0,0,0,0,0,0,-1,1217,1226,0,0
0,-202,0,0,0,0,0,0,0,0,0,-1,1224,1226,0,0
7,-202,0,0,0,0,0,0,0,0,0,-1,1231,1226,0,0
14,-202,0,0,0,0,0,0,0,0,0,-1,1238,1226,0,0
21,-202,0,0,0,0,0,0,0,0,0,-1,1245,1226,0,0
28,-202,0,0,0,0,0,0,0,0,0,-1,1252,1226,0,0
35,-202,0,0,0,0,0,0,0,0,0,-1,1259,1226,0,0
42,-202,0,0,0,0,0,0,0,0,0,-1,1266,1226,0,0
49,-202,0,0,0,0,0,0,0,0,0,-1,1273,1226,0,0
56,-202,0,0,0,0,0,0,0,0,0,-1,1280,1226,0,0
63,-202,0,0,0,0,0,0,0,0,0,-1,1287,1226,0,0
70,-202,0,0,0,0,0,0,0,0,0,-1,1294,1226,0,0
77,-202,0,0,0,0,0,0,0,0,0,-1,1301,1226,0,0
84,-202,0,0,0,0,0,0,0,0,0,-1,1308,1226,0,0
91,-202,0,0,0,0,0,0,0,0,0,-1,1315,1226,0,0
98,-202,0,0,0,0,0,0,0,0,0,-1,1322,1226,0,0
105,-202,0,0,0,0,0,0,0,0,0,-1,1329,1226,0,0
112,-202,0,0,0,0,0,0,0,0,0,-1,1336,1226,0,0
119,-202,0,0,0,0,0,0,0,0,0,-1,1343,1226,0,0
126,-202,0,0,0,0,0,0,0,0,0,-1,1350,1226,0,0
133,-202,0,0,0,0,0,0,0,0,0,-1,1357,1226,0,0
140,-202,0,0,0,0,0,0,0,0,0,-1,1364,1226,0,0
147,-202,0,0,0,0,0,0,0,0,0,-1,1371,1226,0,0
154,-202,0,0,0,0,0,0,0,0,0,-1,1378,1226,0,0
161,-202,0,0,0,0,0,0,0,0,0,-1,1385,1226,0,0
168,-202,0,0,0,0,0,0,0,0,0,-1,1392,1226,0,0
175,-202,0,0,0,0,0,0,0,0,0,-1,1399,1226,0,0
182,-202,0,0,0,0,0,0,0,0,0,-1,1406,1226,0,0
189,-202,0,0,0,0,0,0,0,0,0,-1,1413,1226,0,0
196,-202,0,0,0,0,0,0,0,0,0,-1,1420,1226,0,0
203,-202,0,0,0,0,0,0,0,0,0,-1,1427,1226,0,0
210,-202,0,0,0,0,0,0,0,0,0,-1,1434,1226,0,0
217,-202,0,0,0,0,0,0,0,0,0,-1,1441,1226,0,0
224,-202,0,0,0,0,0,0,0,0,0,-1,1448,1226,0,0
231,-202,0,0,0,0,0,0,0,0,0,-1,1455,1226,0,0
238,-202,0,0,0,0,0,0,0,0,0,-1,1462,1226,0,0
245,-202,0,0,0,0,0,0,0,0,0,-1,1469,1226,0,0
252,-202,0,0,0,0,0,0,0,0,0,-1,1476,1226,0,0
259,-202,0,0,0,0,0,0,0,0,0,-1,1483,1226,0,0
266,-202,0,0,0,0,0,0,0,0,0,-1,1490,1226,0,0
273,-202,0,0,0,0,0,0,0,0,0,-1,1497,1226,0,0
280,-202,0,0,0,0,0,0,0,0,0,-1,1504,1226,0,0
287,-202,0,0,0,0,0,0,0,0,0,-1,1511,1226,0,0
294,-202,0,0,0,0,0,0,0,0,0,-1,1518,1226,0,0
301,-202,0,0,0,0,0,0,0,0,0,-1,1525,1226,0,0
308,-202,0,0,0,0,0,0,0,0,0,-1,1532,1226,0,0
315,-202,0,0,0,0,0,0,0,0,0,-1,1539,1226,0,0
322,-202,0,0,0,0,0,0,0,0,0,-1,1546,1226,0,0
329,-202,0,0,0,0,0,0,0,0,0,-1,1553,1226,0,0
336,-202,0,0,0,0,0,0,0,0,0,-1,1560,1226,0,0
343,-202,0,0,0,0,0,0,0,0,0,-1,1567,1226,0,0
350,-202,0,0,0,0,0,0,0,0,0,-1,1574,1226,0,0
357,-202,0,0,0,0,0,0,0,0,0,-1,1581,1226,0,0
364,-202,0,0,0,0,0,0,0,0,0,-1,1588,1226,0,0
371,-202,0,0,0,0,0,0,0,0,0,-1,1595,1226,0,0
378,-202,0,0,0,0,0,0,0,0,0,-1,1602,1226,0,0
385,-202,0,0,0,0,0,0,0,0,0,-1,1609,1226,0,0
392,-202,0,0,0,0,0,0,0,0,0,-1,1616,1226,0,0
399,-202,0,0,0,0,0,0,0,0,0,-1,1623,1226,0,0
406,-202,0,0,0,0,0,0,0,0,0,-1,1630,1226,0,0
413,-202,0,0,0,0,0,0,0,0,0,-1,1637,1226,0,0
420,-202,0,0,0,0,0,0,0,0,0,-1,1644,1226,0,0
427,-202,0,0,0,0,0,0,0,0,0,-1,1651,1226,0,0
434,-202,0,0,0,0,0,0,0,0,0,-1,1658,1226,0,0
441,-202,0,0,0,0,0,0,0,0,0,-1,1665,1226,0,0
448,-202,0,0,0,0,0,0,0,0,0,-1,1672,1226,0,0
455,-202,0,0,0,0,0,0,0,0,0,-1,1679,1226,0,0
462,-202,0,0,0,0,0,0,0,0,0,-1,1686,1226,0,0
469,-202,0,0,0,0,0,0,0,0,0,-1,1693,1226,0,0
476,-202,0,0,0,0,0,0,0,0,0,-1,1700,1226,0,0
483,-202,0,0,0,0,0,0,0,0,0,-1,1707,1226,0,0
490,-202,0,0,0,0,0,0,0,0,0,-1,1714,1226,0,0
497,-202,0,0,0,0,0,0,0,0,0,-1,1721,1226,0,0
504,-202,0,0,0,0,0,0,0,0,0,-1,1728,1226,0,0
511,-202,0,0,0,0,0,0,0,0,0,-1,1735,1226,0,0
518,-202,0,0,0,0,0,0,0,0,0,-1,1742,1226,0,0
525,-202,0,0,0,0,0,0,0,0,0,-1,1749,1226,0,0
532,-202,0,0,0,0,0,0,0,0,0,-1,1756,1226,0,0
539,-202,0,0,0,0,0,0,0,0,0,-1,1763,1226,0,0
546,-202,0,0,0,0,0,0,0,0,0,-1,1770,1226,0,0
553,-202,0,0,0,0,0,0,0,0,0,-1,1777,1226,0,0
560,-202,0,0,0,0,0,0,0,0,0,-1,1784,1226,0,0
567,-202,0,0,0,0,0,0,0,0,0,-1,1791,1226,0,0
574,-202,0,0,0,0,0,0,0,0,0,-1,1798,1226,0,0
581,-202,0,0,0,0,0,0,0,0,0,-1,1805,1226,0,0
588,-202,0,0,0,0,0,0,0,0,0,-1,1812,1226,0,0
595,-202,0,0,0,0,0,0,0,0,0,-1,1819,1226,0,0
602,-202,0,0,0,0,0,0,0,0,0,-1,1826,1226,0,0
609,-202,0,0,0,0,0,0,0,0,0,-1,1833,1226,0,0
616,-202,0,0,0,0,0,0,0,0,0,-1,1840,1226,0,0
623,-202,0,0,0,0,0,0,0,0,0,-1,1847,1226,0,0
630,-202,36.0652,2.61157,0.00396619,-0.000359257,-0.000308161,0.00398803,-0.000381101,-0.0707674,0.0027944,0.0360798,1854,1226,36.0652,-2.61151
637,-202,36.1809,2.73486,0.00221597,-6.46351e-05,-0.000521045,0.00232937,-0.000178038,-0.214304,0.00161553,0.0361623,1861,1226,36.1809,-2.73491
644,-202,36.1775,2.72827,0.000847533,0.00071635,-0.000894899,0.00167924,-0.000115358,-0.748816,0.00115986,0.0339275,1868,1226,36.1775,-2.7283
651,-202,36.1604,2.7157,0.000294484,0.00139736,-0.00142391,0.00237288,-0.000681033,-0.970141,0.00185117,0.0264605,1875,1226,36.1604,-2.71567
658,-202,36.1263,2.72717,0.000321262,0.0016902,-0.00184073,0.0029696,-0.000958142,-0.963399,0.00236473,0.020453,1882,1226,36.1264,-2.72711
665,-202,36.1118,2.71704,0.000419127,0.00177794,-0.00194976,0.00316327,-0.000966205,-0.953048,0.0024941,0.0192696,1889,1226,36.1119,-2.71703
672,-202,36.1866,2.63672,0.000414947,0.00165679,-0.00180595,0.00294558,-0.000873843,-0.950977,0.00231075,0.0409867,1896,1226,36.1866,-2.63671
679,-202,36.2861,2.48523,0.000154821,0.00155948,-0.00151505,0.00252707,-0.000812777,-1.00244,0.00201115,0.0450476,1903,1226,36.2862,-2.4852
686,-202,36.4287,2.40735,0,0,0,0,0,0,0,-1,1910,1226,36.4287,-2.4073
693,-202,29.8766,7.86267,0,0,0,0,0,0,0,-1,1917,1226,29.8766,-7.86265
700,-202,29.8842,7.35742,-0.000373868,0.00089283,-0.000566559,0.00110926,-0.000590296,-1.2059,0.000996369,0.0433944,1924,1226,29.8842,-7.35748
707,-202,29.9431,6.87073,-0.000452406,0.000632744,-0.000257776,0.000690865,-0.000510528,-1.34903,0.000696224,0.0331824,1931,1226,29.9431,-6.87078
714,-202,29.9731,6.55481,-0.000853814,0.0003158,0.000308826,0.000392335,-0.000930348,1.32787,0.000784427,0.0184928,1938,1226,29.9732,-6.55487
721,-202,29.9885,6.30554,-0.000834325,4.40704e-05,0.000907919,0.000613441,-0.0014037,1.01068,0.00119401,0.013279,1945,1226,29.9885,-6.30557
728,-202,29.9854,6.02063,-0.000505775,-0.000225457,0.00150079,0.0011417,-0.00187293,0.831958,0.00175749,0.0109284,1952,1226,29.9854,-6.02063
735,-202,29.9744,5.72571,0.000508155,1.57436e-05,0.00163816,0.0019185,-0.00139461,0.710809,0.00192078,0.0109191,1959,1226,29.9743,-5.72567
742,-202,29.9631,5.41748,0.00229605,0.00109154,0.00119475,0.00303175,0.000355832,0.551943,0.00191362,0.0104549,1966,1226,29.9632,-5.41751
749,-202,29.9475,5.11658,0.00481135,0.00336661,0.000648473,0.00505972,0.00311824,0.365773,0.00294745,0.0108453,1973,1226,29.9475,-5.11656
756,-202,29.9656,4.84131,0.00782984,0.00621502,0.000255999,0.00786946,0.00617541,0.153517,0.0047827,0.0121967,1980,1226,29.9656,-4.84137
763,-202,29.9944,4.58301,0.0115007,0.0105401,-0.000286558,0.0115797,0.0104611,-0.268962,0.00737528,0.0179753,1987,1226,29.9943,-4.58295
770,-202,30.0272,4.32764,0.0155019,0.0172809,-0.000577189,0.0174518,0.015331,-1.283,0.010996,0.044326,1994,1226,30.0272,-4.32759
777,-202,30.094,4.03821,0,0,0,0,0,0,0,-1,2001,1226,30.094,-4.03818
784,-202,34.0176,2.00122,0,0,0,0,0,0,0,-1,2008,1226,34.0175,-2.00124
791,-202,34.1589,2.83984,0,0,0,0,0,0,0,-1,2015,1226,34.1589,-2.8398
798,-202,34.1953,3.11951,0,0,0,0,0,0,0,-1,2022,1226,34.1954,-3.11949
805,-202,0,0,0,0,0,0,0,0,0,-1,2029,1226,0,0
812,-202,0,0,0,0,0,0,0,0,0,-1,2036,1226,0,0
-700,-209,0,0,0,0,0,0,0,0,0,-1,524,1233,0,0
-693,-209,0,0,0,0,0,0,0,0,0,-1,531,1233,0,0
-686,-209,0,0,0,0,0,0,0,0,0,-1,538,1233,0,0
-679,-209,-16.0544,-8.33142,0,0,0,0,0,0,0,-1,545,1233,-16.0544,8.3314
-672,-209,-16.1787,-6.95105,0,0,0,0,0,0,0,-1,552,1233,-16.1787,6.95105
-665,-209,-19.8848,1.99316,0,0,0,0,0,0,0,-1,559,1233,-19.8848,-1.99317
-658,-209,-17.6773,-3.84387,0,0,0,0,0,0,0,-1,566,1233,-17.6773,3.84388
-651,-209,-19.8214,0.622925,0,0,0,0,0,0,0,-1,573,1233,-19.8214,-0.622979
-644,-209,-19.6288,1.12439,0,0,0,0,0,0,0,-1,580,1233,-19.6288,-1.1244
-637,-209,-19.2043,1.46936,0.0424415,0.0203256,0.0216615,0.0557043,0.00706286,0.549397,0.0350201,0.0463557,587,1233,-19.2043,-1.46937
-630,-209,-19.0229,1.85364,0.0326625,0.0127429,0.0161118,0.0416444,0.00376101,0.508561,0.026598,0.0235966,594,1233,-19.0229,-1.8536
-623,-209,-19.0543,2.20935,0.0239605,0.00590326,0.0110059,0.0291673,0.000696531,0.441886,0.0192169,0.0117485,601,1233,-19.0542,-2.20937
-616,-209,-19.0818,2.57813,0.0154341,0.00223104,0.00633281,0.0179805,-0.00031537,0.382314,0.0120935,0.0120948,608,1233,-19.0818,-2.57816
-609,-209,-19.1111,2.92761,0.00849149,0.000479943,0.00231839,0.00911401,-0.000142585,0.262329,0.00612409,0.0140163,615,1233,-19.1112,-2.92764
-602,-209,-19.1168,3.27185,0.00359539,-0.00124895,-0.000264162,0.00360976,-0.00126331,-0.0543154,0.00292016,0.0163232,622,1233,-19.1168,-3.27187
-595,-209,-19.1007,3.61023,0.00108337,-0.0015602,-0.00102082,0.00143167,-0.0019085,-0.328811,0.00193499,0.0123189,629,1233,-19.1007,-3.61029
-588,-209,-19.079,3.97278,0.000678014,-0.00194585,-0.00150398,0.00136186,-0.00262969,-0.426746,0.00234295,0.014163,636,1233,-19.079,-3.97282
-581,-209,-18.9312,4.34741,0.00100329,-0.00211797,-0.00200366,0.00198239,-0.00309707,-0.45453,0.00295607,0.0308511,643,1233,-18.9312,-4.34739
-574,-209,-19.1598,4.63086,0.00156578,-0.00151905,-0.0023726,0.00285325,-0.00280652,-0.497177,0.00326771,0.0373544,650,1233,-19.1598,-4.6309
-567,-209,-19.3963,4.74756,0,0,0,0,0,0,0,-1,657,1233,-19.3963,-4.74761
-560,-209,-13.9294,4.16626,0,0,0,0,0,0,0,-1,664,1233,-13.9294,-4.16621
-553,-209,-22.7542,0.748779,0,0,0,0,0,0,0,-1,671,1233,-22.7541,-0.748796
-546,-209,-26.29,1.31653,0,0,0,0,0,0,0,-1,678,1233,-26.29,-1.31652
-539,-209,-26.0491,1.13525,0.00148393,0.000988148,-0.0014021,0.00265988,-0.000187807,-0.697903,0.00183906,0.0376946,685,1233,-26.0491,-1.13526
-532,-209,-25.8876,0.976929,0.000624996,0.00158347,-0.000929129,0.00214967,5.87903e-05,-1.0235,0.00141393,0.0287571,692,1233,-25.8877,-0.976894
-525,-209,-25.8746,0.902222,-0.000696621,0.00215457,-9.42085e-05,0.00215768,-0.00069973,-1.5378,0.00171982,0.0320374,699,1233,-25.8746,-0.9022
-518,-209,-25.71,0.566284,-0.00303442,0.00256148,0.00128068,0.00284065,-0.00331359,1.35617,0.00355665,0.0438991,706,1233,-25.71,-0.566236
-511,-209,-25.879,0.834839,-0.00521692,0.00276534,0.00413047,0.00451789,-0.00696947,1.16952,0.00668239,0.0445763,713,1233,-25.879,-0.834819
-504,-209,0,0,0,0,0,0,0,0,0,-1,720,1233,0,0
-497,-209,0,0,0,0,0,0,0,0,0,-1,727,1233,0,0
-490,-209,0,0,0,0,0,0,0,0,0,-1,734,1233,0,0
-483,-209,0,0,0,0,0,0,0,0,0,-1,741,1233,0,0
-476,-209,0,0,0,0,0,0,0,0,0,-1,748,1233,0,0
-469,-209,0,0,0,0,0,0,0,0,0,-1,755,1233,0,0
-462,-209,0,0,0,0,0,0,0,0,0,-1,762,1233,0,0
-455,-209,0,0,0,0,0,0,0,0,0,-1,769,1233,0,0
-448,-209,0,0,0,0,0,0,0,0,0,-1,776,1233,0,0
-441,-209,0,0,0,0,0,0,0,0,0,-1,783,1233,0,0
-434,-209,0,0,0,0,0,0,0,0,0,-1,790,1233,0,0
-427,-209,0,0,0,0,0,0,0,0,0,-1,797,1233,0,0
-420,-209,0,0,0,0,0,0,0,0,0,-1,804,1233,0,0
-413,-209,0,0,0,0,0,0,0,0,0,-1,811,1233,0,0
-406,-209,0,0,0,0,0,0,0,0,0,-1,818,1233,0,0
-399,-209,0,0,0,0,0,0,0,0,0,-1,825,1233,0,0
-392,-209,0,0,0,0,0,0,0,0,0,-1,832,1233,0,0
-385,-209,0,0,0,0,0,0,0,0,0,-1,839,1233,0,0
-378,-209,0,0,0,0,0,0,0,0,0,-1,846,1233,0,0
-371,-209,0,0,0,0,0,0,0,0,0,-1,853,1233,0,0
-364,-209,0,0,0,0,0,0,0,0,0,-1,860,1233,0,0
-357,-209,0,0,0,0,0,0,0,0,0,-1,867,1233,0,0
-350,-209,0,0,0,0,0,0,0,0,0,-1,874,1233,0,0
-343,-209,0,0,0,0,0,0,0,0,0,-1,881,1233,0,0
-336,-209,0,0,0,0,0,0,0,0,0,-1,888,1233,0,0
-329,-209,0,0,0,0,0,0,0,0,0,-1,895,1233,0,0
-322,-209,0,0,0,0,0,0,0,0,0,-1,902,1233,0,0
-315,-209,0,0,0,0,0,0,0,0,0,-1,909,1233,0,0
-308,-209,0,0,0,0,0,0,0,0,0,-1,916,1233,0,0
-301,-209,0,0,0,0,0,0,0,0,0,-1,923,1233,0,0
-294,-209,0,0,0,0,0,0,0,0,0,-1,930,1233,0,0
-287,-209,0,0,0,0,0,0,0,0,0,-1,937,1233,0,0
-280,-209,0,0,0,0,0,0,0,0,0,-1,944,1233,0,0
-273,-209,0,0,0,0,0,0,0,0,0,-1,951,1233,0,0
-266,-209,0,0,0,0,0,0,0,0,0,-1,958,1233,0,0
-259,-209,0,0,0,0,0,0,0,0,0,-1,965,1233,0,0
-252,-209,0,0,0,0,0,0,0,0,0,-1,972,1233,0,0
-245,-209,0,0,0,0,0,0,0,0,0,-1,979,1233,0,0
-238,-209,0,0,0,0,0,0,0,0,0,-1,986,1233,0,0
-231,-209,0,0,0,0,0,0,0,0,0,-1,993,1233,0,0
-224,-209,0,0,0,0,0,0,0,0,0,-1,1000,1233,0,0
-217,-209,0,0,0,0,0,0,0,0,0,-1,1007,1233,0,0
-210,-209,0,0,0,0,0,0,0,0,0,-1,1014,1233,0,0
-203,-209,0,0,0,0,0,0,0,0,0,-1,1021,1233,0,0
-196,-209,0,0,0,0,0,0,0,0,0,-1,1028,1233,0,0
-189,-209,0,0,0,0,0,0,0,0,0,-1,1035,1233,0,0
-182,-209,0,0,0,0,0,0,0,0,0,-1,1042,1233,0,0
-175,-209,0,0,0,0,0,0,0,0,0,-1,1049,1233,0,0
-168,-209,0,0,0,0,0,0,0,0,0,-1,1056,1233,0,0
-161,-209,0,0,0,0,0,0,0,0,0,-1,1063,1233,0,0
-154,-209,0,0,0,0,0,0,0,0,0,-1,1070,1233,0,0
-147,-209,0,0,0,0,0,0,0,0,0,-1,1077,1233,0,0
-140,-209,0,0,0,0,0,0,0,0,0,-1,1084,1233,0,0
-133,-209,0,0,0,0,0,0,0,0,0,-1,1091,1233,0,0
-126,-209,0,0,0,0,0,0,0,0,0,-1,1098,1233,0,0
-119,-209,0,0,0,0,0,0,0,0,0,-1,1105,1233,0,0
-112,-209,0,0,0,0,0,0,0,0,0,-1,1112,1233,0,0
-105,-209,0,0,0,0,0,0,0,0,0,-1,1119,1233,0,0
-98,-209,0,0,0,0,0,0,0,0,0,-1,1126,1233,0,0
-91,-209,0,0,0,0,0,0,0,0,0,-1,1133,1233,0,0
-84,-209,0,0,0,0,0,0,0,0,0,-1,1140,1233,0,0
-77,-209,0,0,0,0,0,0,0,0,0,-1,1147,1233,0,0
-70,-209,0,0,0,0,0,0,0,0,0,-1,1154,1233,0,0
-63,-209,0,0,0,0,0,0,0,0,0,-1,1161,1233,0,0
-56,-209,0,0,0,0,0,0,0,0,0,-1,1168,1233,0,0
-49,-209,0,0,0,0,0,0,0,0,0,-1,1175,1233,0,0
-42,-209,0,0,0,0,0,0,0,0,0,-1,1182,1233,0,0
-35,-209,0,0,0,0,0,0,0,0,0,-1,1189,1233,0,0
-28,-209,0,0,0,0,0,0,0,0,0,-1,1196,1233,0,0
-21,-209,0,0,0,0,0,0,0,0,0,-1,1203,1233,0,0
-14,-209,0,0,0,0,0,0,0,0,0,-1,1210,1233,0,0
-7,-209,0,0,0,0,0,0,0,0,0,-1,1217,1233,0,0
0,-209,0,0,0,0,0,0,0,0,0,-1,1224,1233,0,0
7,-209,0,0,0,0,0,0,0,0,0,-1,1231,1233,0,0
14,-209,0,0,0,0,0,0,0,0,0,-1,1238,1233,0,0
21,-209,0,0,0,0,0,0,0,0,0,-1,1245,1233,0,0
28,-209,0,0,0,0,0,0,0,0,0,-1,1252,1233,0,0
35,-209,0,0,0,0,0,0,0,0,0,-1,1259,1233,0,0
42,-209,0,0,0,0,0,0,0,0,0,-1,1266,1233,0,0
49,-209,0,0,0,0,0,0,0,0,0,-1,1273,1233,0,0
56,-209,0,0,0,0,0,0,0,0,0,-1,1280,1233,0,0
63,-209,0,0,0,0,0,0,0,0,0,-1,1287,1233,0,0
70,-209,0,0,0,0,0,0,0,0,0,-1,1294,1233,0,0
77,-209,0,0,0,0,0,0,0,0,0,-1,1301,1233,0,0
84,-209,0,0,0,0,0,0,0,0,0,-1,1308,1233,0,0
91,-209,0,0,0,0,0,0,0,0,0,-1,1315,1233,0,0
98,-209,0,0,0,0,0,0,0,0,0,-1,1322,1233,0,0
105,-209,0,0,0,0,0,0,0,0,0,-1,1329,1233,0,0
112,-209,0,0,0,0,0,0,0,0,0,-1,1336,1233,0,0
119,-209,0,0,0,0,0,0,0,0,0,-1,1343,1233,0,0
126,-209,0,0,0,0,0,0,0,0,0,-1,1350,1233,0,0
133,-209,0,0,0,0,0,0,0,0,0,-1,1357,1233,0,0
140,-209,0,0,0,0,0,0,0,0,0,-1,1364,1233,0,0
147,-209,0,0,0,0,0,0,0,0,0,-1,1371,1233,0,0
154,-209,0,0,0,0,0,0,0,0,0,-1,1378,1233,0,0
161,-209,0,0,0,0,0,0,0,0,0,-1,1385,1233,0,0
168,-209,0,0,0,0,0,0,0,0,0,-1,1392,1233,0,0
175,-209,0,0,0,0,0,0,0,0,0,-1,1399,1233,0,0
182,-209,0,0,0,0,0,0,0,0,0,-1,1406,1233,0,0
189,-209,0,0,0,0,0,0,0,0,0,-1,1413,1233,0,0
196,-209,0,0,0,0,0,0,0,0,0,-1,1420,1233,0,0
203,-209,0,0,0,0,0,0,0,0,0,-1,1427,1233,0,0
210,-209,0,0,0,0,0,0,0,0,0,-1,1434,1233,0,0
217,-209,0,0,0,0,0,0,0,0,0,-1,1441,1233,0,0
224,-209,0,0,0,0,0,0,0,0,0,-1,1448,1233,0,0
231,-209,0,0,0,0,0,0,0,0,0,-1,1455,1233,0,0
238,-209,0,0,0,0,0,0,0,0,0,-1,1462,1233,0,0
245,-209,0,0,0,0,0,0,0,0,0,-1,1469,1233,0,0
252,-209,0,0,0,0,0,0,0,0,0,-1,1476,1233,0,0
259,-209,0,0,0,0,0,0,0,0,0,-1,1483,1233,0,0
266,-209,0,0,0,0,0,0,0,0,0,-1,1490,1233,0,0
273,-209,0,0,0,0,0,0,0,0,0,-1,1497,1233,0,0
280,-209,0,0,0,0,0,0,0,0,0,-1,1504,1233,0,0
287,-209,0,0,0,0,0,0,0,0,0,-1,1511,1233,0,0
294,-209,0,0,0,0,0,0,0,0,0,-1,1518,1233,0,0
301,-209,0,0,0,0,0,0,0,0,0,-1,1525,1233,0,0
308,-209,0,0,0,0,0,0,0,0,0,-1,1532,1233,0,0
315,-209,0,0,0,0,0,0,0,0,0,-1,1539,1233,0,0
322,-209,0,0,0,0,0,0,0,0,0,-1,1546,1233,0,0
329,-209,0,0,0,0,0,0,0,0,0,-1,1553,1233,0,0
336,-209,0,0,0,0,0,0,0,0,0,-1,1560,1233,0,0
343,-209,0,0,0,0,0,0,0,0,0,-1,1567,1233,0,0
350,-209,0,0,0,0,0,0,0,0,0,-1,1574,1233,0,0
357,-209,0,0,0,0,0,0,0,0,0,-1,1581,1233,0,0
364,-209,0,0,0,0,0,0,0,0,0,-1,1588,1233,0,0
371,-209,0,0,0,0,0,0,0,0,0,-1,1595,1233,0,0
378,-209,0,0,0,0,0,0,0,0,0,-1,1602,1233,0,0
385,-209,0,0,0,0,0,0,0,0,0,-1,1609,1233,0,0
392,-209,0,0,0,0,0,0,0,0,0,-1,1616,1233,0,0
399,-209,0,0,0,0,0,0,0,0,0,-1,1623,1233,0,0
406,-209,0,0,0,0,0,0,0,0,0,-1,1630,1233,0,0
413,-209,0,0,0,0,0,0,0,0,0,-1,1637,1233,0,0
420,-209,0,0,0,0,0,0,0,0,0,-1,1644,1233,0,0
427,-209,0,0,0,0,0,0,0,0,0,-1,1651,1233,0,0
434,-209,0,0,0,0,0,0,0,0,0,-1,1658,1233,0,0
441,-209,0,0,0,0,0,0,0,0,0,-1,1665,1233,0,0
448,-209,0,0,0,0,0,0,0,0,0,-1,1672,1233,0,0
455,-209,0,0,0,0,0,0,0,0,0,-1,1679,1233,0,0
462,-209,0,0,0,0,0,0,0,0,0,-1,1686,1233,0,0
469,-209,0,0,0,0,0,0,0,0,0,-1,1693,1233,0,0
476,-209,0,0,0,0,0,0,0,0,0,-1,1700,1233,0,0
483,-209,0,0,0,0,0,0,0,0,0,-1,1707,1233,0,0
490,-209,0,0,0,0,0,0,0,0,0,-1,1714,1233,0,0
497,-209,0,0,0,0,0,0,0,0,0,-1,1721,1233,0,0
504,-209,0,0,0,0,0,0,0,0,0,-1,1728,1233,0,0
511,-209,0,0,0,0,0,0,0,0,0,-1,1735,1233,0,0
518,-209,0,0,0,0,0,0,0,0,0,-1,1742,1233,0,0
525,-209,0,0,0,0,0,0,0,0,0,-1,1749,1233,0,0
532,-209,0,0,0,0,0,0,0,0,0,-1,1756,1233,0,0
539,-209,0,0,0,0,0,0,0,0,0,-1,1763,1233,0,0
546,-209,0,0,0,0,0,0,0,0,0,-1,1770,1233,0,0
553,-209,0,0,0,0,0,0,0,0,0,-1,1777,1233,0,0
560,-209,0,0,0,0,0,0,0,0,0,-1,1784,1233,0,0
567,-209,0,0,0,0,0,0,0,0,0,-1,1791,1233,0,0
574,-209,0,0,0,0,0,0,0,0,0,-1,1798,1233,0,0
581,-209,0,0,0,0,0,0,0,0,0,-1,1805,1233,0,0
588,-209,0,0,0,0,0,0,0,0,0,-1,1812,1233,0,0
595,-209,0,0,0,0,0,0,0,0,0,-1,1819,1233,0,0
602,-209,0,0,0,0,0,0,0,0,0,-1,1826,1233,0,0
609,-209,0,0,0,0,0,0,0,0,0,-1,1833,1233,0,0
616,-209,0,0,0,0,0,0,0,0,0,-1,1840,1233,0,0
623,-209,36.0228,2.57813,0.00606237,-0.000226138,-0.000753052,0.00615129,-0.000315059,-0.117536,0.00420981,0.0342691,1847,1233,36.0229,-2.57818
630,-209,36.1527,2.4812,0.00362959,7.63382e-05,-5.30793e-05,0.00363038,7.55454e-05,-0.0149338,0.00239547,0.0342152,1854,1233,36.1527,-2.48121
637,-209,36.1732,2.64966,0.00162623,0.000391154,-0.000208339,0.00166043,0.000356957,-0.16269,0.00100923,0.0340612,1861,1233,36.1733,-2.64963
644,-209,36.119,2.71216,9.06188e-05,0.00100993,-0.000533903,0.00125478,-0.000154237,-1.1408,0.000892389,0.0307737,1868,1233,36.1191,-2.71215
651,-209,36.1116,2.73462,-0.000351369,0.00147515,-0.001054,0.0019565,-0.000832727,-1.14239,0.00165336,0.02423,1875,1233,36.1116,-2.73467
658,-209,36.1184,2.7417,-0.000184571,0.00157526,-0.00144542,0.00238753,-0.000996837,-1.05882,0.0020082,0.0187657,1882,1233,36.1184,-2.74172
665,-209,36.1758,2.70569,4.37401e-05,0.0015397,-0.00156619,0.00252735,-0.000943917,-1.00817,0.00207248,0.0315189,1889,1233,36.1758,-2.70569
672,-209,36.1952,2.55249,0.00017272,0.00138317,-0.00152057,0.00241453,-0.000858642,-0.9748,0.00195964,0.0483788,1896,1233,36.1952,-2.55254
679,-209,36.2946,2.29602,0,0,0,0,0,0,0,-1,1903,1233,36.2946,-2.29599
686,-209,33.3711,3.89856,0,0,0,0,0,0,0,-1,1910,1233,33.3711,-3.89855
693,-209,29.4879,7.88464,0,0,0,0,0,0,0,-1,1917,1233,29.488,-7.8847
700,-209,29.5439,7.37646,7.10478e-05,0.000727379,-0.000749185,0.00121712,-0.000418692,-0.991826,0.00098122,0.038522,1924,1233,29.5439,-7.3765
707,-209,29.6519,6.93982,0.000152692,0.000440877,-0.000527581,0.000843689,-0.00025012,-0.918706,0.00066178,0.0290351,1931,1233,29.6519,-6.93981
714,-209,29.6733,6.64111,-0.000226726,8.79826e-05,9.20758e-05,0.000112942,-0.000251686,1.30608,0.000215538,0.0141314,1938,1233,29.6733,-6.64106
721,-209,29.6741,6.32483,-0.000153097,-0.000149572,0.000682022,0.000530689,-0.000833358,0.78669,0.000793969,0.0119519,1945,1233,29.6741,-6.32481
728,-209,29.6849,6.01917,0.000305787,-0.000314671,0.00121164,0.00124629,-0.00125517,0.66007,0.00144422,0.012242,1952,1233,29.685,-6.01911
735,-209,29.6907,5.73853,0.00156471,-6.30317e-05,0.00124698,0.00223991,-0.000738238,0.496273,0.00179082,0.0135668,1959,1233,29.6907,-5.73854
742,-209,29.6768,5.42847,0.00366275,0.000785821,0.000717683,0.00383184,0.000616725,0.231393,0.00237582,0.0117316,1966,1233,29.6768,-5.42853
749,-209,29.6567,5.11389,0.0065593,0.00241167,6.11077e-05,0.0065602,0.00241077,0.0147289,0.00383162,0.0107329,1973,1233,29.6568,-5.11388
756,-209,29.6442,4.83167,0.0103028,0.00455279,-0.0006065,0.010366,0.00448951,-0.103954,0.00600267,0.0112102,1980,1233,29.6441,-4.83171
763,-209,29.6263,4.59961,0.0151854,0.00776341,-0.00156297,0.0155011,0.0074477,-0.199313,0.00895184,0.0183814,1987,1233,29.6263,-4.59965
770,-209,29.7915,4.28027,0.0211384,0.0129524,-0.00247346,0.0218277,0.012263,-0.271792,0.0126343,0.0447441,1994,1233,29.7915,-4.28028
777,-209,30.0046,3.93555,0,0,0,0,0,0,0,-1,2001,1233,30.0046,-3.9356
784,-209,34.295,2.21448,0,0,0,0,0,0,0,-1,2008,1233,34.2951,-2.21446
791,-209,34.4851,3.04919,0,0,0,0,0,0,0,-1,2015,1233,34.4852,-3.04918
798,-209,34.6123,3.95276,0,0,0,0,0,0,0,-1,2022,1233,34.6124,-3.95278
805,-209,0,0,0,0,0,0,0,0,0,-1,2029,1233,0,0
812,-209,0,0,0,0,0,0,0,0,0,-1,2036,1233,0,0
-700,-216,0,0,0,0,0,0,0,0,0,-1,524,1240,0,0
-693,-216,0,0,0,0,0,0,0,0,0,-1,531,1240,0,0
-686,-216,0,0,0,0,0,0,0,0,0,-1,538,1240,0,0
-679,-216,-15.4776,-10.1324,0,0,0,0,0,0,0,-1,545,1240,-15.4776,10.1325
-672,-216,-26.3083,-5.57971,0,0,0,0,0,0,0,-1,552,1240,-26.3083,5.5797
-665,-216,-19.9266,2.10925,0,0,0,0,0,0,0,-1,559,1240,-19.9266,-2.1093
-658,-216,-17.6124,1.0033,0,0,0,0,0,0,0,-1,566,1240,-17.6124,-1.00333
-651,-216,-18.6517,0.335327,0,0,0,0,0,0,0,-1,573,1240,-18.6517,-0.33537
-644,-216,-18.8127,0.788818,0,0,0,0,0,0,0,-1,580,1240,-18.8128,-0.788855
-637,-216,-18.8711,1.37109,0.0554728,0.0134826,0.02549,0.067501,0.00145445,0.440897,0.0445238,0.0472179,587,1240,-18.8711,-1.37109
-630,-216,-18.7512,1.86316,0.0430452,0.00814037,0.0190223,0.0514082,-0.00022262,0.414206,0.0343466,0.0299846,594,1240,-18.7512,-1.86313
-623,-216,-18.6928,2.20703,0.0319999,0.00312303,0.0132723,0.0371732,-0.0020503,0.37167,0.0254931,0.0131841,601,1240,-18.6928,-2.20701
-616,-216,-18.7343,2.59387,0.0213271,0.000876041,0.00807216,0.0241293,-0.00192614,0.334126,0.0167652,0.0134749,608,1240,-18.7343,-2.59386
-609,-216,-18.748,2.94446,0.0124762,-4.80056e-05,0.00367974,0.0134774,-0.00104913,0.265633,0.00935424,0.0130614,615,1240,-18.7481,-2.94449
-602,-216,-18.7537,3.2561,0.0060596,-0.00136134,0.000777394,0.00614017,-0.00144191,0.103263,0.00464922,0.013063,622,1240,-18.7537,-3.25608
-595,-216,-18.7452,3.58594,0.00259268,-0.00144965,-0.000263919,0.00260984,-0.00146681,-0.0649214,0.00238429,0.0179769,629,1240,-18.7452,-3.5859
-588,-216,-18.7358,3.96533,0.0017697,-0.00167457,-0.000845123,0.00196589,-0.00187077,-0.228107,0.00221532,0.0195971,636,1240,-18.7358,-3.96537
-581,-216,-18.6903,4.37732,0.0021012,-0.00178336,-0.00136945,0.00253544,-0.0022176,-0.307061,0.00274622,0.023082,643,1240,-18.6903,-4.37733
-574,-216,-18.6632,4.9978,0.00277564,-0.0012057,-0.00176826,0.00344759,-0.00187764,-0.36315,0.00311874,0.0391549,650,1240,-18.6632,-4.99781
-567,-216,-18.9788,5.6322,0,0,0,0,0,0,0,-1,657,1240,-18.9788,-5.63216
-560,-216,-16.5087,5.4574,0,0,0,0,0,0,0,-1,664,1240,-16.5087,-5.45746
-553,-216,-16.2355,1.22351,0,0,0,0,0,0,0,-1,671,1240,-16.2356,-1.22356
-546,-216,-26.3124,1.38635,0,0,0,0,0,0,0,-1,678,1240,-26.3124,-1.38636
-539,-216,-25.9273,1.09814,0.00165175,0.00108629,-0.000356827,0.00182428,0.000913757,-0.450369,0.00105325,0.0425701,685,1240,-25.9273,-1.09819
-532,-216,-25.6076,0.843262,0.00037018,0.00145446,0.000220115,0.00149744,0.000327199,1.37796,0.00090907,0.0431143,692,1240,-25.6076,-0.843277
-525,-216,-25.6757,0.704712,-0.00145099,0.00168492,0.00108283,0.00202248,-0.00178855,1.2686,0.00220168,0.0439976,699,1240,-25.6756,-0.704703
-518,-216,-25.7307,0.716553,-0.0042841,0.00166671,0.00236615,0.00249285,-0.00511023,1.23488,0.00447551,0.044517,706,1240,-25.7307,-0.716609
-511,-216,-26.0205,1.13391,-0.00757412,0.0011724,0.00479224,0.00328689,-0.00968862,1.15526,0.00778941,0.04511,713,1240,-26.0205,-1.13397
-504,-216,-25.9956,1.24988,-0.00911721,0.000878968,0.010364,0.00738711,-0.0156254,1.01007,0.0135671,0.0422438,720,1240,-25.9956,-1.24984
-497,-216,0,0,0,0,0,0,0,0,0,-1,727,1240,0,0
-490,-216,0,0,0,0,0,0,0,0,0,-1,734,1240,0,0
-483,-216,0,0,0,0,0,0,0,0,0,-1,741,1240,0,0
-476,-216,0,0,0,0,0,0,0,0,0,-1,748,1240,0,0
-469,-216,0,0,0,0,0,0,0,0,0,-1,755,1240,0,0
-462,-216,0,0,0,0,0,0,0,0,0,-1,762,1240,0,0
-455,-216,0,0,0,0,0,0,0,0,0,-1,769,1240,0,0
-448,-216,0,0,0,0,0,0,0,0,0,-1,776,1240,0,0
-441,-216,0,0,0,0,0,0,0,0,0,-1,783,1240,0,0
-434,-216,0,0,0,0,0,0,0,0,0,-1,790,1240,0,0
-427,-216,0,0,0,0,0,0,0,0,0,-1,797,1240,0,0
-420,-216,0,0,0,0,0,0,0,0,0,-1,804,1240,0,0
-413,-216,0,0,0,0,0,0,0,0,0,-1,811,1240,0,0
-406,-216,0,0,0,0,0,0,0,0,0,-1,818,1240,0,0
-399,-216,0,0,0,0,0,0,0,0,0,-1,825,1240,0,0
-392,-216,0,0,0,0,0,0,0,0,0,-1,832,1240,0,0
-385,-216,0,0,0,0,0,0,0,0,0,-1,839,1240,0,0
-378,-216,0,0,0,0,0,0,0,0,0,-1,846,1240,0,0
-371,-216,0,0,0,0,0,0,0,0,0,-1,853,1240,0,0
-364,-216,0,0,0,0,0,0,0,0,0,-1,860,1240,0,0
-357,-216,0,0,0,0,0,0,0,0,0,-1,867,1240,0,0
-350,-216,0,0,0,0,0,0,0,0,0,-1,874,1240,0,0
-343,-216,0,0,0,0,0,0,0,0,0,-1,881,1240,0,0
-336,-216,0,0,0,0,0,0,0,0,0,-1,888,1240,0,0
-329,-216,0,0,0,0,0,0,0,0,0,-1,895,1240,0,0
-322,-216,0,0,0,0,0,0,0,0,0,-1,902,1240,0,0
-315,-216,0,0,0,0,0,0,0,0,0,-1,909,1240,0,0
-308,-216,0,0,0,0,0,0,0,0,0,-1,916,1240,0,0
-301,-216,0,0,0,0,0,0,0,0,0,-1,923,1240,0,0
-294,-216,0,0,0,0,0,0,0,0,0,-1,930,1240,0,0
-287,-216,0,0,0,0,0,0,0,0,0,-1,937,1240,0,0
-280,-216,0,0,0,0,0,0,0,0,0,-1,944,1240,0,0
-273,-216,0,0,0,0,0,0,0,0,0,-1,951,1240,0,0
-266,-216,0,0,0,0,0,0,0,0,0,-1,958,1240,0,0
-259,-216,0,0,0,0,0,0,0,0,0,-1,965,1240,0,0
-252,-216,0,0,0,0,0,0,0,0,0,-1,972,1240,0,0
-245,-216,0,0,0,0,0,0,0,0,0,-1,979,1240,0,0
-238,-216,0,0,0,0,0,0,0,0,0,-1,986,1240,0,0
-231,-216,0,0,0,0,0,0,0,0,0,-1,993,1240,0,0
-224,-216,0,0,0,0,0,0,0,0,0,-1,1000,1240,0,0
-217,-216,0,0,0,0,0,0,0,0,0,-1,1007,1240,0,0
-210,-216,0,0,0,0,0,0,0,0,0,-1,1014,1240,0,0
-203,-216,0,0,0,0,0,0,0,0,0,-1,1021,1240,0,0
-196,-216,0,0,0,0,0,0,0,0,0,-1,1028,1240,0,0
-189,-216,0,0,0,0,0,0,0,0,0,-1,1035,1240,0,0
-182,-216,0,0,0,0,0,0,0,0,0,-1,1042,1240,0,0
-175,-216,0,0,0,0,0,0,0,0,0,-1,1049,1240,0,0
-168,-216,0,0,0,0,0,0,0,0,0,-1,1056,1240,0,0
-161,-216,0,0,0,0,0,0,0,0,0,-1,1063,1240,0,0
-154,-216,0,0,0,0,0,0,0,0,0,-1,1070,1240,0,0
-147,-216,0,0,0,0,0,0,0,0,0,-1,1077,1240,0,0
-140,-216,0,0,0,0,0,0,0,0,0,-1,1084,1240,0,0
-133,-216,0,0,0,0,0,0,0,0,0,-1,1091,1240,0,0
-126,-216,0,0,0,0,0,0,0,0,0,-1,1098,1240,0,0
-119,-216,0,0,0,0,0,0,0,0,0,-1,1105,1240,0,0
-112,-216,0,0,0,0,0,0,0,0,0,-1,1112,1240,0,0
-105,-216,0,0,0,0,0,0,0,0,0,-1,1119,1240,0,0
-98,-216,0,0,0,0,0,0,0,0,0,-1,1126,1240,0,0
-91,-216,0,0,0,0,0,0,0,0,0,-1,1133,1240,0,0
-84,-216,0,0,0,0,0,0,0,0,0,-1,1140,1240,0,0
-77,-216,0,0,0,0,0,0,0,0,0,-1,1147,1240,0,0
-70,-216,0,0,0,0,0,0,0,0,0,-1,1154,1240,0,0
-63,-216,0,0,0,0,0,0,0,0,0,-1,1161,1240,0,0
-56,-216,0,0,0,0,0,0,0,0,0,-1,1168,1240,0,0
-49,-216,0,0,0,0,0,0,0,0,0,-1,1175,1240,0,0
-42,-216,0,0,0,0,0,0,0,0,0,-1,1182,1240,0,0
-35,-216,0,0,0,0,0,0,0,0,0,-1,1189,1240,0,0
-28,-216,0,0,0,0,0,0,0,0,0,-1,1196,1240,0,0
-21,-216,0,0,0,0,0,0,0,0,0,-1,1203,1240,0,0
-14,-216,0,0,0,0,0,0,0,0,0,-1,1210,1240,0,0
-7,-216,0,0,0,0,0,0,0,0,0,-1,1217,1240,0,0
0,-216,0,0,0,0,0,0,0,0,0,-1,1224,1240,0,0
7,-216,0,0,0,0,0,0,0,0,0,-1,1231,1240,0,0
14,-216,0,0,0,0,0,0,0,0,0,-1,1238,1240,0,0
21,-216,0,0,0,0,0,0,0,0,0,-1,1245,1240,0,0
28,-216,0,0,0,0,0,0,0,0,0,-1,1252,1240,0,0
35,-216,0,0,0,0,0,0,0,0,0,-1,1259,1240,0,0
42,-216,0,0,0,0,0,0,0,0,0,-1,1266,1240,0,0
49,-216,0,0,0,0,0,0,0,0,0,-1,1273,1240,0,0
56,-216,0,0,0,0,0,0,0,0,0,-1,1280,1240,0,0
63,-216,0,0,0,0,0,0,0,0,0,-1,1287,1240,0,0
70,-216,0,0,0,0,0,0,0,0,0,-1,1294,1240,0,0
77,-216,0,0,0,0,0,0,0,0,0,-1,1301,1240,0,0
84,-216,0,0,0,0,0,0,0,0,0,-1,1308,1240,0,0
91,-216,0,0,0,0,0,0,0,0,0,-1,1315,1240,0,0
98,-216,0,0,0,0,0,0,0,0,0,-1,1322,1240,0,0
105,-216,0,0,0,0,0,0,0,0,0,-1,1329,1240,0,0
112,-216,0,0,0,0,0,0,0,0,0,-1,1336,1240,0,0
119,-216,0,0,0,0,0,0,0,0,0,-1,1343,1240,0,0
126,-216,0,0,0,0,0,0,0,0,0,-1,1350,1240,0,0
133,-216,0,0,0,0,0,0,0,0,0,-1,1357,1240,0,0
140,-216,0,0,0,0,0,0,0,0,0,-1,1364,1240,0,0
147,-216,0,0,0,0,0,0,0,0,0,-1,1371,1240,0,0
154,-216,0,0,0,0,0,0,0,0,0,-1,1378,1240,0,0
161,-216,0,0,0,0,0,0,0,0,0,-1,1385,1240,0,0
168,-216,0,0,0,0,0,0,0,0,0,-1,1392,1240,0,0
175,-216,0,0,0,0,0,0,0,0,0,-1,1399,1240,0,0
182,-216,0,0,0,0,0,0,0,0,0,-1,1406,1240,0,0
189,-216,0,0,0,0,0,0,0,0,0,-1,1413,1240,0,0
196,-216,0,0,0,0,0,0,0,0,0,-1,1420,1240,0,0
203,-216,0,0,0,0,0,0,0,0,0,-1,1427,1240,0,0
210,-216,0,0,0,0,0,0,0,0,0,-1,1434,1240,0,0
217,-216,0,0,0,0,0,0,0,0,0,-1,1441,1240,0,0
224,-216,0,0,0,0,0,0,0,0,0,-1,1448,1240,0,0
231,-216,0,0,0,0,0,0,0,0,0,-1,1455,1240,0,0
238,-216,0,0,0,0,0,0,0,0,0,-1,1462,1240,0,0
245,-216,0,0,0,0,0,0,0,0,0,-1,1469,1240,0,0
252,-216,0,0,0,0,0,0,0,0,0,-1,1476,1240,0,0
259,-216,0,0,0,0,0,0,0,0,0,-1,1483,1240,0,0
266,-216,0,0,0,0,0,0,0,0,0,-1,1490,1240,0,0
273,-216,0,0,0,0,0,0,0,0,0,-1,1497,1240,0,0
280,-216,0,0,0,0,0,0,0,0,0,-1,1504,1240,0,0
287,-216,0,0,0,0,0,0,0,0,0,-1,1511,1240,0,0
294,-216,0,0,0,0,0,0,0,0,0,-1,1518,1240,0,0
301,-216,0,0,0,0,0,0,0,0,0,-1,1525,1240,0,0
308,-216,0,0,0,0,0,0,0,0,0,-1,1532,1240,0,0
315,-216,0,0,0,0,0,0,0,0,0,-1,1539,1240,0,0
322,-216,0,0,0,0,0,0,0,0,0,-1,1546,1240,0,0
329,-216,0,0,0,0,0,0,0,0,0,-1,1553,1240,0,0
336,-216,0,0,0,0,0,0,0,0,0,-1,1560,1240,0,0
343,-216,0,0,0,0,0,0,0,0,0,-1,1567,1240,0,0
350,-216,0,0,0,0,0,0,0,0,0,-1,1574,1240,0,0
357,-216,0,0,0,0,0,0,0,0,0,-1,1581,1240,0,0
364,-216,0,0,0,0,0,0,0,0,0,-1,1588,1240,0,0
371,-216,0,0,0,0,0,0,0,0,0,-1,1595,1240,0,0
378,-216,0,0,0,0,0,0,0,0,0,-1,1602,1240,0,0
385,-216,0,0,0,0,0,0,0,0,0,-1,1609,1240,0,0
392,-216,0,0,0,0,0,0,0,0,0,-1,1616,1240,0,0
399,-216,0,0,0,0,0,0,0,0,0,-1,1623,1240,0,0
406,-216,0,0,0,0,0,0,0,0,0,-1,1630,1240,0,0
413,-216,0,0,0,0,0,0,0,0,0,-1,1637,1240,0,0
420,-216,0,0,0,0,0,0,0,0,0,-1,1644,1240,0,0
427,-216,0,0,0,0,0,0,0,0,0,-1,1651,1240,0,0
434,-216,0,0,0,0,0,0,0,0,0,-1,1658,1240,0,0
441,-216,0,0,0,0,0,0,0,0,0,-1,1665,1240,0,0
448,-216,0,0,0,0,0,0,0,0,0,-1,1672,1240,0,0
455,-216,0,0,0,0,0,0,0,0,0,-1,1679,1240,0,0
462,-216,0,0,0,0,0,0,0,0,0,-1,1686,1240,0,0
469,-216,0,0,0,0,0,0,0,0,0,-1,1693,1240,0,0
476,-216,0,0,0,0,0,0,0,0,0,-1,1700,1240,0,0
483,-216,0,0,0,0,0,0,0,0,0,-1,1707,1240,0,0
490,-216,0,0,0,0,0,0,0,0,0,-1,1714,1240,0,0
497,-216,0,0,0,0,0,0,0,0,0,-1,1721,1240,0,0
504,-216,0,0,0,0,0,0,0,0,0,-1,1728,1240,0,0
511,-216,0,0,0,0,0,0,0,0,0,-1,1735,1240,0,0
518,-216,0,0,0,0,0,0,0,0,0,-1,1742,1240,0,0
525,-216,0,0,0,0,0,0,0,0,0,-1,1749,1240,0,0
532,-216,0,0,0,0,0,0,0,0,0,-1,1756,1240,0,0
539,-216,0,0,0,0,0,0,0,0,0,-1,1763,1240,0,0
546,-216,0,0,0,0,0,0,0,0,0,-1,1770,1240,0,0
553,-216,0,0,0,0,0,0,0,0,0,-1,1777,1240,0,0
560,-216,0,0,0,0,0,0,0,0,0,-1,1784,1240,0,0
567,-216,0,0,0,0,0,0,0,0,0,-1,1791,1240,0,0
574,-216,0,0,0,0,0,0,0,0,0,-1,1798,1240,0,0
581,-216,0,0,0,0,0,0,0,0,0,-1,1805,1240,0,0
588,-216,0,0,0,0,0,0,0,0,0,-1,1812,1240,0,0
595,-216,0,0,0,0,0,0,0,0,0,-1,1819,1240,0,0
602,-216,0,0,0,0,0,0,0,0,0,-1,1826,1240,0,0
609,-216,0,0,0,0,0,0,0,0,0,-1,1833,1240,0,0
616,-216,0,0,0,0,0,0,0,0,0,-1,1840,1240,0,0
623,-216,35.9736,2.76343,0.00543936,-0.000113695,-0.000431283,0.00547265,-0.000146991,-0.0770502,0.00369841,0.04106,1847,1240,35.9737,-2.76338
630,-216,36.0592,2.64343,0.00277381,0.000246292,0.000282908,0.00280509,0.000215013,0.110115,0.00180267,0.0360936,1854,1240,36.0592,-2.64341
637,-216,36.1543,2.65894,0.000444821,0.000657173,0.000300631,0.000869827,0.000232167,0.955149,0.000520067,0.0309487,1861,1240,36.1543,-2.65888
644,-216,36.0743,2.71399,-0.00106732,0.00116302,9.29282e-05,0.00116689,-0.00107118,1.52923,0.00129254,0.0258018,1868,1240,36.0743,-2.71395
651,-216,36.0603,2.74829,-0.00125294,0.00144999,-0.000398561,0.00150754,-0.00131048,-1.42741,0.00162831,0.0216368,1875,1240,36.0604,-2.74829
658,-216,36.1143,2.7738,-0.000897758,0.00139809,-0.000772106,0.00163359,-0.00113326,-1.27474,0.00160613,0.029183,1882,1240,36.1143,-2.77385
665,-216,36.1833,2.70837,-0.000520533,0.00126969,-0.000931372,0.00166635,-0.000917194,-1.16817,0.00151237,0.0404655,1889,1240,36.1833,-2.70843
672,-216,36.2762,2.5741,-0.00022279,0.00109737,-0.00100113,0.00163644,-0.000761858,-1.07685,0.00141501,0.0460347,1896,1240,36.2763,-2.57414
679,-216,36.3712,2.45935,0,0,0,0,0,0,0,-1,1903,1240,36.3712,-2.45935
686,-216,21.5172,6.19458,0,0,0,0,0,0,0,-1,1910,1240,21.5172,-6.19453
693,-216,29.5458,7.55042,0,0,0,0,0,0,0,-1,1917,1240,29.5458,-7.55041
700,-216,29.3235,7.39783,0.000452226,0.000577616,-0.000772473,0.00128993,-0.000260092,-0.82589,0.000958489,0.0345162,1924,1240,29.3235,-7.39781
707,-216,29.3624,6.99988,0.000753586,0.000298073,-0.000694845,0.00125705,-0.000205391,-0.627026,0.00091422,0.0248072,1931,1240,29.3624,-6.99986
714,-216,29.4105,6.66138,0.000415496,-6.84056e-05,-6.34783e-05,0.000423684,-7.65941e-05,-0.128289,0.000311146,0.0133257,1938,1240,29.4105,-6.66143
721,-216,29.3975,6.35449,0.00056306,-0.000257493,0.00047604,0.000781226,-0.00047566,0.429731,0.000732777,0.0117228,1945,1240,29.3974,-6.35446
728,-216,29.4095,6.0271,0.00114235,-0.000323644,0.000930978,0.00159426,-0.000775555,0.451911,0.00139516,0.0113141,1952,1240,29.4096,-6.02707
735,-216,29.4243,5.73914,0.00258261,-9.00084e-05,0.000930522,0.00287467,-0.000382071,0.304132,0.00205567,0.0120858,1959,1240,29.4243,-5.73919
742,-216,29.3798,5.45569,0.00489125,0.000407508,0.000466297,0.00493923,0.000359528,0.102535,0.00317976,0.012735,1966,1240,29.3798,-5.45573
749,-216,29.351,5.11768,0.00810016,0.00122426,-0.000208749,0.00810649,0.00121792,-0.0303223,0.00504757,0.010327,1973,1240,29.351,-5.11773
756,-216,29.3062,4.8125,0.0125463,0.00231323,-0.00121863,0.0126895,0.00217011,-0.116909,0.00783707,0.0101931,1980,1240,29.3062,-4.81256
763,-216,29.2893,4.58081,0.0186678,0.00369644,-0.00264022,0.0191198,0.00324448,-0.16954,0.0118145,0.0161401,1987,1240,29.2893,-4.58082
770,-216,29.5233,4.40881,0.0268597,0.00569494,-0.00449503,0.0277748,0.00477984,-0.200835,0.0171468,0.0370691,1994,1240,29.5233,-4.40881
777,-216,29.8083,4.22668,0,0,0,0,0,0,0,-1,2001,1240,29.8083,-4.22662
784,-216,34.6017,2.20264,0,0,0,0,0,0,0,-1,2008,1240,34.6017,-2.20259
791,-216,34.4995,2.99756,0,0,0,0,0,0,0,-1,2015,1240,34.4996,-2.9976
798,-216,0,0,0,0,0,0,0,0,0,-1,2022,1240,0,0
805,-216,0,0,0,0,0,0,0,0,0,-1,2029,1240,0,0
812,-216,0,0,0,0,0,0,0,0,0,-1,2036,1240,0,0
-700,-223,0,0,0,0,0,0,0,0,0,-1,524,1247,0,0
-693,-223,0,0,0,0,0,0,0,0,0,-1,531,1247,0,0
-686,-223,0,0,0,0,0,0,0,0,0,-1,538,1247,0,0
-679,-223,0,0,0,0,0,0,0,0,0,-1,545,1247,0,0
-672,-223,-25.7662,-5.46472,0,0,0,0,0,0,0,-1,552,1247,-25.7663,5.46466
-665,-223,-24.21,-4.53613,0,0,0,0,0,0,0,-1,559,1247,-24.21,4.53616
-658,-223,-23.2206,-3.04272,0,0,0,0,0,0,0,-1,566,1247,-23.2206,3.04271
-651,-223,-18.918,1.33472,0,0,0,0,0,0,0,-1,573,1247,-18.918,-1.33478
-644,-223,-18.5858,0.625732,0,0,0,0,0,0,0,-1,580,1247,-18.5858,-0.625792
-637,-223,-18.7652,1.48022,0,0,0,0,0,0,0,-1,587,1247,-18.7652,-1.48017
-630,-223,-18.8569,2.06091,0.0539877,0.00272777,0.0213914,0.0617417,-0.0050262,0.34775,0.0429347,0.0388863,594,1247,-18.8569,-2.06088
-623,-223,-18.3796,2.19202,0.0403144,-4.92234e-05,0.0151798,0.0453859,-0.0051208,0.32244,0.0321007,0.0206997,601,1247,-18.3796,-2.19199
-616,-223,-18.4094,2.58167,0.0274302,-0.000665607,0.00959203,0.0303926,-0.00362802,0.299548,0.021573,0.0151697,608,1247,-18.4094,-2.58161
-609,-223,-18.3914,2.91821,0.0166547,-0.000659718,0.00496327,0.0179765,-0.00198156,0.260282,0.0126965,0.0112252,615,1247,-18.3914,-2.91823
-602,-223,-18.3969,3.24194,0.00871601,-0.00142449,0.00180839,0.00902885,-0.00173733,0.171301,0.00667415,0.0142689,622,1247,-18.3969,-3.242
-595,-223,-18.3922,3.60522,0.00428559,-0.00122159,0.000500546,0.00433072,-0.00126671,0.089908,0.00338923,0.0204059,629,1247,-18.3921,-3.6052
-588,-223,-18.3974,3.97949,0.00288642,-0.00122908,-0.000204451,0.00289656,-0.00123921,-0.0495158,0.00245086,0.0228443,636,1247,-18.3974,-3.97948
-581,-223,-18.4305,4.33838,0.00318513,-0.00120384,-0.000696616,0.00329305,-0.00131175,-0.153689,0.00273938,0.021106,643,1247,-18.4305,-4.33839
-574,-223,-18.3718,4.7135,0.00400613,-0.000653699,-0.00106389,0.00423754,-0.000885105,-0.214173,0.00316163,0.019911,650,1247,-18.3718,-4.71347
-567,-223,-18.0572,5.19434,0.00447203,-0.000191834,-0.00118235,0.00475465,-0.000474452,-0.234627,0.00333917,0.0339917,657,1247,-18.0572,-5.19433
-560,-223,-17.8609,5.68665,0,0,0,0,0,0,0,-1,664,1247,-17.8609,-5.68669
-553,-223,-11.4025,4.14722,0,0,0,0,0,0,0,-1,671,1247,-11.4025,-4.14719
-546,-223,-26.2474,1.25,0,0,0,0,0,0,0,-1,678,1247,-26.2474,-1.24995
-539,-223,-25.5953,1.04309,0,0,0,0,0,0,0,-1,685,1247,-25.5954,-1.04313
-532,-223,-24.9433,0.836304,0,0,0,0,0,0,0,-1,692,1247,-24.9433,-0.836306
-525,-223,-25.5165,0.441284,0,0,0,0,0,0,0,-1,699,1247,-25.5165,-0.441286
-518,-223,-25.6233,0.473999,0,0,0,0,0,0,0,-1,706,1247,-25.6233,-0.47398
-511,-223,-26.0507,1.15857,-0.00947955,2.44449e-06,0.00598815,0.00289919,-0.0123763,1.12024,0.009368,0.0420872,713,1247,-26.0507,-1.15862
-504,-223,-26.0572,1.26489,-0.0123124,-0.00103005,0.0104384,0.00519401,-0.0185365,1.03313,0.0144046,0.0412075,720,1247,-26.0572,-1.26486
-497,-223,0,0,0,0,0,0,0,0,0,-1,727,1247,0,0
-490,-223,0,0,0,0,0,0,0,0,0,-1,734,1247,0,0
-483,-223,0,0,0,0,0,0,0,0,0,-1,741,1247,0,0
-476,-223,0,0,0,0,0,0,0,0,0,-1,748,1247,0,0
-469,-223,0,0,0,0,0,0,0,0,0,-1,755,1247,0,0
-462,-223,0,0,0,0,0,0,0,0,0,-1,762,1247,0,0
-455,-223,0,0,0,0,0,0,0,0,0,-1,769,1247,0,0
-448,-223,0,0,0,0,0,0,0,0,0,-1,776,1247,0,0
-441,-223,0,0,0,0,0,0,0,0,0,-1,783,1247,0,0
-434,-223,0,0,0,0,0,0,0,0,0,-1,790,1247,0,0
-427,-223,0,0,0,0,0,0,0,0,0,-1,797,1247,0,0
-420,-223,0,0,0,0,0,0,0,0,0,-1,804,1247,0,0
-413,-223,0,0,0,0,0,0,0,0,0,-1,811,1247,0,0
-406,-223,0,0,0,0,0,0,0,0,0,-1,818,1247,0,0
-399,-223,0,0,0,0,0,0,0,0,0,-1,825,1247,0,0
-392,-223,0,0,0,0,0,0,0,0,0,-1,832,1247,0,0
-385,-223,0,0,0,0,0,0,0,0,0,-1,839,1247,0,0
-378,-223,0,0,0,0,0,0,0,0,0,-1,846,1247,0,0
-371,-223,0,0,0,0,0,0,0,0,0,-1,853,1247,0,0
-364,-223,0,0,0,0,0,0,0,0,0,-1,860,1247,0,0
-357,-223,0,0,0,0,0,0,0,0,0,-1,867,1247,0,0
-350,-223,0,0,0,0,0,0,0,0,0,-1,874,1247,0,0
-343,-223,0,0,0,0,0,0,0,0,0,-1,881,1247,0,0
-336,-223,0,0,0,0,0,0,0,0,0,-1,888,1247,0,0
-329,-223,0,0,0,0,0,0,0,0,0,-1,895,1247,0,0
-322,-223,0,0,0,0,0,0,0,0,0,-1,902,1247,0,0
-315,-223,0,0,0,0,0,0,0,0,0,-1,909,1247,0,0
-308,-223,0,0,0,0,0,0,0,0,0,-1,916,1247,0,0
-301,-223,0,0,0,0,0,0,0,0,0,-1,923,1247,0,0
-294,-223,0,0,0,0,0,0,0,0,0,-1,930,1247,0,0
-287,-223,0,0,0,0,0,0,0,0,0,-1,937,1247,0,0
-280,-223,0,0,0,0,0,0,0,0,0,-1,944,1247,0,0
-273,-223,0,0,0,0,0,0,0,0,0,-1,951,1247,0,0
-266,-223,0,0,0,0,0,0,0,0,0,-1,958,1247,0,0
-259,-223,0,0,0,0,0,0,0,0,0,-1,965,1247,0,0
-252,-223,0,0,0,0,0,0,0,0,0,-1,972,1247,0,0
-245,-223,0,0,0,0,0,0,0,0,0,-1,979,1247,0,0
-238,-223,0,0,0,0,0,0,0,0,0,-1,986,1247,0,0
-231,-223,0,0,0,0,0,0,0,0,0,-1,993,1247,0,0
-224,-223,0,0,0,0,0,0,0,0,0,-1,1000,1247,0,0
-217,-223,0,0,0,0,0,0,0,0,0,-1,1007,1247,0,0
-210,-223,0,0,0,0,0,0,0,0,0,-1,1014,1247,0,0
-203,-223,0,0,0,0,0,0,0,0,0,-1,1021,1247,0,0
-196,-223,0,0,0,0,0,0,0,0,0,-1,1028,1247,0,0
-189,-223,0,0,0,0,0,0,0,0,0,-1,1035,1247,0,0
-182,-223,0,0,0,0,0,0,0,0,0,-1,1042,1247,0,0
-175,-223,0,0,0,0,0,0,0,0,0,-1,1049,1247,0,0
-168,-223,0,0,0,0,0,0,0,0,0,-1,1056,1247,0,0
-161,-223,0,0,0,0,0,0,0,0,0,-1,1063,1247,0,0
-154,-223,0,0,0,0,0,0,0,0,0,-1,1070,1247,0,0
-147,-223,0,0,0,0,0,0,0,0,0,-1,1077,1247,0,0
-140,-223,0,0,0,0,0,0,0,0,0,-1,1084,1247,0,0
-133,-223,0,0,0,0,0,0,0,0,0,-1,1091,1247,0,0
-126,-223,0,0,0,0,0,0,0,0,0,-1,1098,1247,0,0
-119,-223,0,0,0,0,0,0,0,0,0,-1,1105,1247,0,0
-112,-223,0,0,0,0,0,0,0,0,0,-1,1112,1247,0,0
-105,-223,0,0,0,0,0,0,0,0,0,-1,1119,1247,0,0
-98,-223,0,0,0,0,0,0,0,0,0,-1,1126,1247,0,0
-91,-223,0,0,0,0,0,0,0,0,0,-1,1133,1247,0,0
-84,-223,0,0,0,0,0,0,0,0,0,-1,1140,1247,0,0
-77,-223,0,0,0,0,0,0,0,0,0,-1,1147,1247,0,0
-70,-223,0,0,0,0,0,0,0,0,0,-1,1154,1247,0,0
-63,-223,0,0,0,0,0,0,0,0,0,-1,1161,1247,0,0
-56,-223,0,0,0,0,0,0,0,0,0,-1,1168,1247,0,0
-49,-223,0,0,0,0,0,0,0,0,0,-1,1175,1247,0,0
-42,-223,0,0,0,0,0,0,0,0,0,-1,1182,1247,0,0
-35,-223,0,0,0,0,0,0,0,0,0,-1,1189,1247,0,0
-28,-223,0,0,0,0,0,0,0,0,0,-1,1196,1247,0,0
-21,-223,0,0,0,0,0,0,0,0,0,-1,1203,1247,0,0
-14,-223,0,0,0,0,0,0,0,0,0,-1,1210,1247,0,0
-7,-223,0,0,0,0,0,0,0,0,0,-1,1217,1247,0,0
0,-223,0,0,0,0,0,0,0,0,0,-1,1224,1247,0,0
7,-223,0,0,0,0,0,0,0,0,0,-1,1231,1247,0,0
14,-223,0,0,0,0,0,0,0,0,0,-1,1238,1247,0,0
21,-223,0,0,0,0,0,0,0,0,0,-1,1245,1247,0,0
28,-223,0,0,0,0,0,0,0,0,0,-1,1252,1247,0,0
35,-223,0,0,0,0,0,0,0,0,0,-1,1259,1247,0,0
42,-223,0,0,0,0,0,0,0,0,0,-1,1266,1247,0,0
49,-223,0,0,0,0,0,0,0,0,0,-1,1273,1247,0,0
56,-223,0,0,0,0,0,0,0,0,0,-1,1280,1247,0,0
63,-223,0,0,0,0,0,0,0,0,0,-1,1287,1247,0,0
70,-223,0,0,0,0,0,0,0,0,0,-1,1294,1247,0,0
77,-223,0,0,0,0,0,0,0,0,0,-1,1301,1247,0,0
84,-223,0,0,0,0,0,0,0,0,0,-1,1308,1247,0,0
91,-223,0,0,0,0,0,0,0,0,0,-1,1315,1247,0,0
98,-223,0,0,0,0,0,0,0,0,0,-1,1322,1247,0,0
105,-223,0,0,0,0,0,0,0,0,0,-1,1329,1247,0,0
112,-223,0,0,0,0,0,0,0,0,0,-1,1336,1247,0,0
119,-223,0,0,0,0,0,0,0,0,0,-1,1343,1247,0,0
126,-223,0,0,0,0,0,0,0,0,0,-1,1350,1247,0,0
133,-223,0,0,0,0,0,0,0,0,0,-1,1357,1247,0,0
140,-223,0,0,0,0,0,0,0,0,0,-1,1364,1247,0,0
147,-223,0,0,0,0,0,0,0,0,0,-1,1371,1247,0,0
154,-223,0,0,0,0,0,0,0,0,0,-1,1378,1247,0,0
161,-223,0,0,0,0,0,0,0,0,0,-1,1385,1247,0,0
168,-223,0,0,0,0,0,0,0,0,0,-1,1392,1247,0,0
175,-223,0,0,0,0,0,0,0,0,0,-1,1399,1247,0,0
182,-223,0,0,0,0,0,0,0,0,0,-1,1406,1247,0,0
189,-223,0,0,0,0,0,0,0,0,0,-1,1413,1247,0,0
196,-223,0,0,0,0,0,0,0,0,0,-1,1420,1247,0,0
203,-223,0,0,0,0,0,0,0,0,0,-1,1427,1247,0,0
210,-223,0,0,0,0,0,0,0,0,0,-1,1434,1247,0,0
217,-223,0,0,0,0,0,0,0,0,0,-1,1441,1247,0,0
224,-223,0,0,0,0,0,0,0,0,0,-1,1448,1247,0,0
231,-223,0,0,0,0,0,0,0,0,0,-1,1455,1247,0,0
238,-223,0,0,0,0,0,0,0,0,0,-1,1462,1247,0,0
245,-223,0,0,0,0,0,0,0,0,0,-1,1469,1247,0,0
252,-223,0,0,0,0,0,0,0,0,0,-1,1476,1247,0,0
259,-223,0,0,0,0,0,0,0,0,0,-1,1483,1247,0,0
266,-223,0,0,0,0,0,0,0,0,0,-1,1490,1247,0,0
273,-223,0,0,0,0,0,0,0,0,0,-1,1497,1247,0,0
280,-223,0,0,0,0,0,0,0,0,0,-1,1504,1247,0,0
287,-223,0,0,0,0,0,0,0,0,0,-1,1511,1247,0,0
294,-223,0,0,0,0,0,0,0,0,0,-1,1518,1247,0,0
301,-223,0,0,0,0,0,0,0,0,0,-1,1525,1247,0,0
308,-223,0,0,0,0,0,0,0,0,0,-1,1532,1247,0,0
315,-223,0,0,0,0,0,0,0,0,0,-1,1539,1247,0,0
322,-223,0,0,0,0,0,0,0,0,0,-1,1546,1247,0,0
329,-223,0,0,0,0,0,0,0,0,0,-1,1553,1247,0,0
336,-223,0,0,0,0,0,0,0,0,0,-1,1560,1247,0,0
343,-223,0,0,0,0,0,0,0,0,0,-1,1567,1247,0,0
350,-223,0,0,0,0,0,0,0,0,0,-1,1574,1247,0,0
357,-223,0,0,0,0,0,0,0,0,0,-1,1581,1247,0,0
364,-223,0,0,0,0,0,0,0,0,0,-1,1588,1247,0,0
371,-223,0,0,0,0,0,0,0,0,0,-1,1595,1247,0,0
378,-223,0,0,0,0,0,0,0,0,0,-1,1602,1247,0,0
385,-223,0,0,0,0,0,0,0,0,0,-1,1609,1247,0,0
392,-223,0,0,0,0,0,0,0,0,0,-1,1616,1247,0,0
399,-223,0,0,0,0,0,0,0,0,0,-1,1623,1247,0,0
406,-223,0,0,0,0,0,0,0,0,0,-1,1630,1247,0,0
413,-223,0,0,0,0,0,0,0,0,0,-1,1637,1247,0,0
420,-223,0,0,0,0,0,0,0,0,0,-1,1644,1247,0,0
427,-223,0,0,0,0,0,0,0,0,0,-1,1651,1247,0,0
434,-223,0,0,0,0,0,0,0,0,0,-1,1658,1247,0,0
441,-223,0,0,0,0,0,0,0,0,0,-1,1665,1247,0,0
448,-223,0,0,0,0,0,0,0,0,0,-1,1672,1247,0,0
455,-223,0,0,0,0,0,0,0,0,0,-1,1679,1247,0,0
462,-223,0,0,0,0,0,0,0,0,0,-1,1686,1247,0,0
469,-223,0,0,0,0,0,0,0,0,0,-1,1693,1247,0,0
476,-223,0,0,0,0,0,0,0,0,0,-1,1700,1247,0,0
483,-223,0,0,0,0,0,0,0,0,0,-1,1707,1247,0,0
490,-223,0,0,0,0,0,0,0,0,0,-1,1714,1247,0,0
497,-223,0,0,0,0,0,0,0,0,0,-1,1721,1247,0,0
504,-223,0,0,0,0,0,0,0,0,0,-1,1728,1247,0,0
511,-223,0,0,0,0,0,0,0,0,0,-1,1735,1247,0,0
518,-223,0,0,0,0,0,0,0,0,0,-1,1742,1247,0,0
525,-223,0,0,0,0,0,0,0,0,0,-1,1749,1247,0,0
532,-223,0,0,0,0,0,0,0,0,0,-1,1756,1247,0,0
539,-223,0,0,0,0,0,0,0,0,0,-1,1763,1247,0,0
546,-223,0,0,0,0,0,0,0,0,0,-1,1770,1247,0,0
553,-223,0,0,0,0,0,0,0,0,0,-1,1777,1247,0,0
560,-223,0,0,0,0,0,0,0,0,0,-1,1784,1247,0,0
567,-223,0,0,0,0,0,0,0,0,0,-1,1791,1247,0,0
574,-223,0,0,0,0,0,0,0,0,0,-1,1798,1247,0,0
581,-223,0,0,0,0,0,0,0,0,0,-1,1805,1247,0,0
588,-223,0,0,0,0,0,0,0,0,0,-1,1812,1247,0,0
595,-223,0,0,0,0,0,0,0,0,0,-1,1819,1247,0,0
602,-223,0,0,0,0,0,0,0,0,0,-1,1826,1247,0,0
609,-223,0,0,0,0,0,0,0,0,0,-1,1833,1247,0,0
616,-223,0,0,0,0,0,0,0,0,0,-1,1840,1247,0,0
623,-223,35.735,2.97168,0,0,0,0,0,0,0,-1,1847,1247,35.735,-2.97171
630,-223,35.9414,2.8446,0.00116749,0.000552959,0.000662971,0.00159094,0.000129511,0.568399,0.0010202,0.0370559,1854,1247,35.9414,-2.84455
637,-223,36.1068,2.74414,-0.0012869,0.00105088,0.000995579,0.0014174,-0.00165342,1.21805,0.00177468,0.029099,1861,1247,36.1068,-2.74416
644,-223,36.0334,2.72864,-0.00246673,0.00138639,0.000947098,0.0016066,-0.00268694,1.34234,0.0025049,0.0216744,1868,1247,36.0335,-2.72868
651,-223,36.0245,2.71155,-0.00229306,0.00147162,0.000478703,0.00153154,-0.00235298,1.44628,0.00225938,0.0264375,1875,1247,36.0245,-2.71155
658,-223,36.1166,2.77734,0,0,0,0,0,0,0,-1,1882,1247,36.1166,-2.7774
665,-223,36.2238,2.53735,0,0,0,0,0,0,0,-1,1889,1247,36.2238,-2.53741
672,-223,36.4604,2.50073,0,0,0,0,0,0,0,-1,1896,1247,36.4605,-2.50076
679,-223,33.2679,1.37097,0,0,0,0,0,0,0,-1,1903,1247,33.2679,-1.371
686,-223,29.0791,7.86108,0,0,0,0,0,0,0,-1,1910,1247,29.0791,-7.86105
693,-223,29.1199,7.59692,-0.000158557,0.000592576,-0.000756641,0.00106173,-0.000627713,-1.01576,0.000986071,0.0389119,1917,1247,29.1198,-7.59687
700,-223,29.1143,7.28467,0.000603374,0.000401956,-0.000651237,0.00116164,-0.000156313,-0.708685,0.000831446,0.0186179,1924,1247,29.1142,-7.28464
707,-223,29.0651,6.97461,0.0011527,0.000164465,-0.000741233,0.00154941,-0.000232247,-0.491414,0.00111842,0.0149219,1931,1247,29.0651,-6.97457
714,-223,29.0743,6.68188,0.000840876,-0.000182214,-8.35295e-05,0.000847651,-0.000188989,-0.0809301,0.000637504,0.0113004,1938,1247,29.0743,-6.68187
721,-223,29.0759,6.36011,0.00103673,-0.0003201,0.000425079,0.00115891,-0.000442271,0.279866,0.000954804,0.0135457,1945,1247,29.0759,-6.36016
728,-223,29.0746,6.03967,0.00165273,-0.00032807,0.000807385,0.00194012,-0.000615466,0.341974,0.00154012,0.0162949,1952,1247,29.0746,-6.03972
735,-223,29.0531,5.76257,0.00310301,-8.43752e-05,0.000761418,0.00327556,-0.000256926,0.222853,0.00227419,0.0152929,1959,1247,29.0531,-5.76256
742,-223,29.0118,5.4751,0.00538135,0.000392855,0.000300996,0.00539944,0.000374759,0.0600477,0.00348144,0.0125428,1966,1247,29.0118,-5.47506
749,-223,29.0099,5.11499,0.00859371,0.00115787,-0.000427746,0.00861824,0.00113334,-0.057273,0.00540745,0.0110068,1973,1247,29.0098,-5.11504
756,-223,28.9698,4.80334,0.0131952,0.00226651,-0.00162655,0.0134322,0.00202957,-0.144656,0.00836078,0.0139308,1980,1247,28.9699,-4.80332
763,-223,28.9591,4.56543,0.0196537,0.00377973,-0.003412,0.020356,0.00307742,-0.203002,0.01267,0.0183252,1987,1247,28.9591,-4.56547
770,-223,29.151,4.26477,0.0284383,0.00609463,-0.00589933,0.0299002,0.0046327,-0.242919,0.0185828,0.0400096,1994,1247,29.151,-4.2648
777,-223,29.3591,3.94922,0,0,0,0,0,0,0,-1,2001,1247,29.3591,-3.94919
784,-223,35.1801,2.14172,0,0,0,0,0,0,0,-1,2008,1247,35.1801,-2.14178
791,-223,34.7136,2.92554,0,0,0,0,0,0,0,-1,2015,1247,34.7137,-2.92555
798,-223,0,0,0,0,0,0,0,0,0,-1,2022,1247,0,0
805,-223,0,0,0,0,0,0,0,0,0,-1,2029,1247,0,0
812,-223,0,0,0,0,0,0,0,0,0,-1,2036,1247,0,0
-700,-230,0,0,0,0,0,0,0,0,0,-1,524,1254,0,0
-693,-230,0,0,0,0,0,0,0,0,0,-1,531,1254,0,0
-686,-230,0,0,0,0,0,0,0,0,0,-1,538,1254,0,0
-679,-230,0,0,0,0,0,0,0,0,0,-1,545,1254,0,0
-672,-230,-25.1188,-5.49597,0.168969,0.0160922,0.0776429,0.201486,-0.0164246,0.396607,0.14012,0.0469482,552,1254,-25.1188,5.49597
-665,-230,-23.8176,-4.34497,0.158479,0.00714527,0.0683342,0.184769,-0.0191438,0.36726,0.130031,0.0464082,559,1254,-23.8176,4.34502
-658,-230,-22.8109,-2.85522,0.141733,0.00281583,0.0585854,0.163141,-0.0185922,0.350342,0.115458,0.0474878,566,1254,-22.8108,2.85523
-651,-230,-21.3426,-1.73706,0,0,0,0,0,0,0,-1,573,1254,-21.3426,1.73706
-644,-230,-20.4573,-1.02039,0,0,0,0,0,0,0,-1,580,1254,-20.4573,1.02039
-637,-230,-19.2117,1.93591,0,0,0,0,0,0,0,-1,587,1254,-19.2117,-1.93592
-630,-230,-18.6083,2.07568,0,0,0,0,0,0,0,-1,594,1254,-18.6083,-2.07568
-623,-230,-18.0049,2.21545,0,0,0,0,0,0,0,-1,601,1254,-18.005,-2.21543
-616,-230,-18.0472,2.56531,0.0334391,-0.000222598,0.0112956,0.0368781,-0.00366162,0.295541,0.0258924,0.0159988,608,1254,-18.0473,-2.56527
-609,-230,-18.0131,2.91089,0.0209466,0.000414015,0.00646344,0.0228118,-0.00145118,0.280943,0.0157139,0.0116723,615,1254,-18.0131,-2.91085
-602,-230,-18.018,3.26245,0.0115404,-8.05526e-05,0.00305221,0.0122933,-0.00083343,0.241839,0.00848698,0.0112435,622,1254,-18.018,-3.26242
-595,-230,-18.0384,3.64453,0.00607079,-1.73414e-05,0.00143139,0.00639053,-0.000337083,0.219771,0.00437704,0.0179802,629,1254,-18.0384,-3.64456
-588,-230,-18.0221,4.01489,0.00393564,-0.000100501,0.000571201,0.00401492,-0.000179781,0.137914,0.00273851,0.0258137,636,1254,-18.0221,-4.01489
-581,-230,-18.0594,4.35913,0.00408191,-0.000193777,9.36127e-05,0.00408396,-0.000195826,0.0218802,0.00279021,0.0250461,643,1254,-18.0594,-4.35912
-574,-230,-18.0402,4.69092,0.00501547,0.000298971,-0.000191314,0.00502322,0.000291224,-0.0404741,0.00325608,0.0171986,650,1254,-18.0402,-4.69092
-567,-230,-17.816,5.12769,0.00552154,0.000761453,-0.000269597,0.00553676,0.000746232,-0.0563966,0.00346929,0.0297901,657,1254,-17.816,-5.12767
-560,-230,-17.5071,5.60693,0,0,0,0,0,0,0,-1,664,1254,-17.5071,-5.60693
-553,-230,-13.1939,4.9718,0,0,0,0,0,0,0,-1,671,1254,-13.1939,-4.97175
-546,-230,-15.23,0.453979,0,0,0,0,0,0,0,-1,678,1254,-15.23,-0.453996
-539,-230,-25.2334,0.880981,0,0,0,0,0,0,0,-1,685,1254,-25.2334,-0.880925
-532,-230,-21.1644,1.52966,0,0,0,0,0,0,0,-1,692,1254,-21.1644,-1.52969
-525,-230,-24.1401,0.738647,0,0,0,0,0,0,0,-1,699,1254,-24.1401,-0.738616
-518,-230,-25.777,0.794312,0,0,0,0,0,0,0,-1,706,1254,-25.777,-0.794322
-511,-230,-25.9568,0.984863,-0.0111497,-0.000883593,0.00822837,0.00368152,-0.0157148,1.06427,0.0118951,0.0405507,713,1254,-25.9568,-0.984857
-504,-230,-26.0966,1.17493,-0.0153407,-0.00258151,0.011625,0.00429936,-0.0222215,1.03635,0.016436,0.0385928,720,1254,-26.0966,-1.17497
-497,-230,0,0,0,0,0,0,0,0,0,-1,727,1254,0,0
-490,-230,0,0,0,0,0,0,0,0,0,-1,734,1254,0,0
-483,-230,0,0,0,0,0,0,0,0,0,-1,741,1254,0,0
-476,-230,0,0,0,0,0,0,0,0,0,-1,748,1254,0,0
-469,-230,0,0,0,0,0,0,0,0,0,-1,755,1254,0,0
-462,-230,0,0,0,0,0,0,0,0,0,-1,762,1254,0,0
-455,-230,0,0,0,0,0,0,0,0,0,-1,769,1254,0,0
-448,-230,0,0,0,0,0,0,0,0,0,-1,776,1254,0,0
-441,-230,0,0,0,0,0,0,0,0,0,-1,783,1254,0,0
-434,-230,0,0,0,0,0,0,0,0,0,-1,790,1254,0,0
-427,-230,0,0,0,0,0,0,0,0,0,-1,797,1254,0,0
-420,-230,0,0,0,0,0,0,0,0,0,-1,804,1254,0,0
-413,-230,0,0,0,0,0,0,0,0,0,-1,811,1254,0,0
-406,-230,0,0,0,0,0,0,0,0,0,-1,818,1254,0,0
-399,-230,0,0,0,0,0,0,0,0,0,-1,825,1254,0,0
-392,-230,0,0,0,0,0,0,0,0,0,-1,832,1254,0,0
-385,-230,0,0,0,0,0,0,0,0,0,-1,839,1254,0,0
-378,-230,0,0,0,0,0,0,0,0,0,-1,846,1254,0,0
-371,-230,0,0,0,0,0,0,0,0,0,-1,853,1254,0,0
-364,-230,0,0,0,0,0,0,0,0,0,-1,860,1254,0,0
-357,-230,0,0,0,0,0,0,0,0,0,-1,867,1254,0,0
-350,-230,0,0,0,0,0,0,0,0,0,-1,874,1254,0,0
-343,-230,0,0,0,0,0,0,0,0,0,-1,881,1254,0,0
-336,-230,0,0,0,0,0,0,0,0,0,-1,888,1254,0,0
-329,-230,0,0,0,0,0,0,0,0,0,-1,895,1254,0,0
-322,-230,0,0,0,0,0,0,0,0,0,-1,902,1254,0,0
-315,-230,0,0,0,0,0,0,0,0,0,-1,909,1254,0,0
-308,-230,0,0,0,0,0,0,0,0,0,-1,916,1254,0,0
-301,-230,0,0,0,0,0,0,0,0,0,-1,923,1254,0,0
-294,-230,0,0,0,0,0,0,0,0,0,-1,930,1254,0,0
-287,-230,0,0,0,0,0,0,0,0,0,-1,937,1254,0,0
-280,-230,0,0,0,0,0,0,0,0,0,-1,944,1254,0,0
-273,-230,0,0,0,0,0,0,0,0,0,-1,951,1254,0,0
-266,-230,0,0,0,0,0,0,0,0,0,-1,958,1254,0,0
-259,-230,0,0,0,0,0,0,0,0,0,-1,965,1254,0,0
-252,-230,0,0,0,0,0,0,0,0,0,-1,972,1254,0,0
-245,-230,0,0,0,0,0,0,0,0,0,-1,979,1254,0,0
-238,-230,0,0,0,0,0,0,0,0,0,-1,986,1254,0,0
-231,-230,0,0,0,0,0,0,0,0,0,-1,993,1254,0,0
-224,-230,0,0,0,0,0,0,0,0,0,-1,1000,1254,0,0
-217,-230,0,0,0,0,0,0,0,0,0,-1,1007,1254,0,0
-210,-230,0,0,0,0,0,0,0,0,0,-1,1014,1254,0,0
-203,-230,0,0,0,0,0,0,0,0,0,-1,1021,1254,0,0
-196,-230,0,0,0,0,0,0,0,0,0,-1,1028,1254,0,0
-189,-230,0,0,0,0,0,0,0,0,0,-1,1035,1254,0,0
-182,-230,0,0,0,0,0,0,0,0,0,-1,1042,1254,0,0
-175,-230,0,0,0,0,0,0,0,0,0,-1,1049,1254,0,0
-168,-230,0,0,0,0,0,0,0,0,0,-1,1056,1254,0,0
-161,-230,0,0,0,0,0,0,0,0,0,-1,1063,1254,0,0
-154,-230,0,0,0,0,0,0,0,0,0,-1,1070,1254,0,0
-147,-230,0,0,0,0,0,0,0,0,0,-1,1077,1254,0,0
-140,-230,0,0,0,0,0,0,0,0,0,-1,1084,1254,0,0
-133,-230,0,0,0,0,0,0,0,0,0,-1,1091,1254,0,0
-126,-230,0,0,0,0,0,0,0,0,0,-1,1098,1254,0,0
-119,-230,0,0,0,0,0,0,0,0,0,-1,1105,1254,0,0
-112,-230,0,0,0,0,0,0,0,0,0,-1,1112,1254,0,0
-105,-230,0,0,0,0,0,0,0,0,0,-1,1119,1254,0,0
-98,-230,0,0,0,0,0,0,0,0,0,-1,1126,1254,0,0
-91,-230,0,0,0,0,0,0,0,0,0,-1,1133,1254,0,0
-84,-230,0,0,0,0,0,0,0,0,0,-1,1140,1254,0,0
-77,-230,0,0,0,0,0,0,0,0,0,-1,1147,1254,0,0
-70,-230,0,0,0,0,0,0,0,0,0,-1,1154,1254,0,0
-63,-230,0,0,0,0,0,0,0,0,0,-1,1161,1254,0,0
-56,-230,0,0,0,0,0,0,0,0,0,-1,1168,1254,0,0
-49,-230,0,0,0,0,0,0,0,0,0,-1,1175,1254,0,0
-42,-230,0,0,0,0,0,0,0,0,0,-1,1182,1254,0,0
-35,-230,0,0,0,0,0,0,0,0,0,-1,1189,1254,0,0
-28,-230,0,0,0,0,0,0,0,0,0,-1,1196,1254,0,0
-21,-230,0,0,0,0,0,0,0,0,0,-1,1203,1254,0,0
-14,-230,0,0,0,0,0,0,0,0,0,-1,1210,1254,0,0
-7,-230,0,0,0,0,0,0,0,0,0,-1,1217,1254,0,0
0,-230,0,0,0,0,0,0,0,0,0,-1,1224,1254,0,0
7,-230,0,0,0,0,0,0,0,0,0,-1,1231,1254,0,0
14,-230,0,0,0,0,0,0,0,0,0,-1,1238,1254,0,0
21,-230,0,0,0,0,0,0,0,0,0,-1,1245,1254,0,0
28,-230,0,0,0,0,0,0,0,0,0,-1,1252,1254,0,0
35,-230,0,0,0,0,0,0,0,0,0,-1,1259,1254,0,0
42,-230,0,0,0,0,0,0,0,0,0,-1,1266,1254,0,0
49,-230,0,0,0,0,0,0,0,0,0,-1,1273,1254,0,0
56,-230,0,0,0,0,0,0,0,0,0,-1,1280,1254,0,0
63,-230,0,0,0,0,0,0,0,0,0,-1,1287,1254,0,0
70,-230,0,0,0,0,0,0,0,0,0,-1,1294,1254,0,0
77,-230,0,0,0,0,0,0,0,0,0,-1,1301,1254,0,0
84,-230,0,0,0,0,0,0,0,0,0,-1,1308,1254,0,0
91,-230,0,0,0,0,0,0,0,0,0,-1,1315,1254,0,0
98,-230,0,0,0,0,0,0,0,0,0,-1,1322,1254,0,0
105,-230,0,0,0,0,0,0,0,0,0,-1,1329,1254,0,0
112,-230,0,0,0,0,0,0,0,0,0,-1,1336,1254,0,0
119,-230,0,0,0,0,0,0,0,0,0,-1,1343,1254,0,0
126,-230,0,0,0,0,0,0,0,0,0,-1,1350,1254,0,0
133,-230,0,0,0,0,0,0,0,0,0,-1,1357,1254,0,0
140,-230,0,0,0,0,0,0,0,0,0,-1,1364,1254,0,0
147,-230,0,0,0,0,0,0,0,0,0,-1,1371,1254,0,0
154,-230,0,0,0,0,0,0,0,0,0,-1,1378,1254,0,0
161,-230,0,0,0,0,0,0,0,0,0,-1,1385,1254,0,0
168,-230,0,0,0,0,0,0,0,0,0,-1,1392,1254,0,0
175,-230,0,0,0,0,0,0,0,0,0,-1,1399,1254,0,0
182,-230,0,0,0,0,0,0,0,0,0,-1,1406,1254,0,0
189,-230,0,0,0,0,0,0,0,0,0,-1,1413,1254,0,0
196,-230,0,0,0,0,0,0,0,0,0,-1,1420,1254,0,0
203,-230,0,0,0,0,0,0,0,0,0,-1,1427,1254,0,0
210,-230,0,0,0,0,0,0,0,0,0,-1,1434,1254,0,0
217,-230,0,0,0,0,0,0,0,0,0,-1,1441,1254,0,0
224,-230,0,0,0,0,0,0,0,0,0,-1,1448,1254,0,0
231,-230,0,0,0,0,0,0,0,0,0,-1,1455,1254,0,0
238,-230,0,0,0,0,0,0,0,0,0,-1,1462,1254,0,0
245,-230,0,0,0,0,0,0,0,0,0,-1,1469,1254,0,0
252,-230,0,0,0,0,0,0,0,0,0,-1,1476,1254,0,0
259,-230,0,0,0,0,0,0,0,0,0,-1,1483,1254,0,0
266,-230,0,0,0,0,0,0,0,0,0,-1,1490,1254,0,0
273,-230,0,0,0,0,0,0,0,0,0,-1,1497,1254,0,0
280,-230,0,0,0,0,0,0,0,0,0,-1,1504,1254,0,0
287,-230,0,0,0,0,0,0,0,0,0,-1,1511,1254,0,0
294,-230,0,0,0,0,0,0,0,0,0,-1,1518,1254,0,0
301,-230,0,0,0,0,0,0,0,0,0,-1,1525,1254,0,0
308,-230,0,0,0,0,0,0,0,0,0,-1,1532,1254,0,0
315,-230,0,0,0,0,0,0,0,0,0,-1,1539,1254,0,0
322,-230,0,0,0,0,0,0,0,0,0,-1,1546,1254,0,0
329,-230,0,0,0,0,0,0,0,0,0,-1,1553,1254,0,0
336,-230,0,0,0,0,0,0,0,0,0,-1,1560,1254,0,0
343,-230,0,0,0,0,0,0,0,0,0,-1,1567,1254,0,0
350,-230,0,0,0,0,0,0,0,0,0,-1,1574,1254,0,0
357,-230,0,0,0,0,0,0,0,0,0,-1,1581,1254,0,0
364,-230,0,0,0,0,0,0,0,0,0,-1,1588,1254,0,0
371,-230,0,0,0,0,0,0,0,0,0,-1,1595,1254,0,0
378,-230,0,0,0,0,0,0,0,0,0,-1,1602,1254,0,0
385,-230,0,0,0,0,0,0,0,0,0,-1,1609,1254,0,0
392,-230,0,0,0,0,0,0,0,0,0,-1,1616,1254,0,0
399,-230,0,0,0,0,0,0,0,0,0,-1,1623,1254,0,0
406,-230,0,0,0,0,0,0,0,0,0,-1,1630,1254,0,0
413,-230,0,0,0,0,0,0,0,0,0,-1,1637,1254,0,0
420,-230,0,0,0,0,0,0,0,0,0,-1,1644,1254,0,0
427,-230,0,0,0,0,0,0,0,0,0,-1,1651,1254,0,0
434,-230,0,0,0,0,0,0,0,0,0,-1,1658,1254,0,0
441,-230,0,0,0,0,0,0,0,0,0,-1,1665,1254,0,0
448,-230,0,0,0,0,0,0,0,0,0,-1,1672,1254,0,0
455,-230,0,0,0,0,0,0,0,0,0,-1,1679,1254,0,0
462,-230,0,0,0,0,0,0,0,0,0,-1,1686,1254,0,0
469,-230,0,0,0,0,0,0,0,0,0,-1,1693,1254,0,0
476,-230,0,0,0,0,0,0,0,0,0,-1,1700,1254,0,0
483,-230,0,0,0,0,0,0,0,0,0,-1,1707,1254,0,0
490,-230,0,0,0,0,0,0,0,0,0,-1,1714,1254,0,0
497,-230,0,0,0,0,0,0,0,0,0,-1,1721,1254,0,0
504,-230,0,0,0,0,0,0,0,0,0,-1,1728,1254,0,0
511,-230,0,0,0,0,0,0,0,0,0,-1,1735,1254,0,0
518,-230,0,0,0,0,0,0,0,0,0,-1,1742,1254,0,0
525,-230,0,0,0,0,0,0,0,0,0,-1,1749,1254,0,0
532,-230,0,0,0,0,0,0,0,0,0,-1,1756,1254,0,0
539,-230,0,0,0,0,0,0,0,0,0,-1,1763,1254,0,0
546,-230,0,0,0,0,0,0,0,0,0,-1,1770,1254,0,0
553,-230,0,0,0,0,0,0,0,0,0,-1,1777,1254,0,0
560,-230,0,0,0,0,0,0,0,0,0,-1,1784,1254,0,0
567,-230,0,0,0,0,0,0,0,0,0,-1,1791,1254,0,0
574,-230,0,0,0,0,0,0,0,0,0,-1,1798,1254,0,0
581,-230,0,0,0,0,0,0,0,0,0,-1,1805,1254,0,0
588,-230,0,0,0,0,0,0,0,0,0,-1,1812,1254,0,0
595,-230,0,0,0,0,0,0,0,0,0,-1,1819,1254,0,0
602,-230,0,0,0,0,0,0,0,0,0,-1,1826,1254,0,0
609,-230,0,0,0,0,0,0,0,0,0,-1,1833,1254,0,0
616,-230,36.0425,2.67395,0.00537033,0.000316452,-0.00147795,0.00577081,-8.40221e-05,-0.264612,0.00387552,0.0368297,1840,1254,36.0424,-2.67396
623,-230,35.974,2.76941,0.00180296,0.000780978,0.000244032,0.00185824,0.000725698,0.22277,0.00108139,0.0371734,1847,1254,35.974,-2.76937
630,-230,36.0046,2.83838,-0.00121275,0.00124739,0.00128866,0.00179881,-0.00176417,1.16647,0.00205712,0.0333118,1854,1254,36.0047,-2.83841
637,-230,36.11,2.7915,-0.0038571,0.001748,0.00183204,0.00229368,-0.00440278,1.28131,0.0039296,0.0258712,1861,1254,36.11,-2.79156
644,-230,36.0159,2.71655,-0.00450827,0.00180149,0.00180957,0.00228362,-0.0049904,1.31041,0.00429548,0.0197315,1868,1254,36.0159,-2.71654
651,-230,35.9679,2.63428,-0.00387547,0.00165918,0.00132191,0.0019587,-0.00417499,1.34798,0.00361753,0.0396139,1875,1254,35.9679,-2.63422
658,-230,35.0074,2.06262,0,0,0,0,0,0,0,-1,1882,1254,35.0074,-2.06257
665,-230,35.6455,2.42224,0,0,0,0,0,0,0,-1,1889,1254,35.6455,-2.42224
672,-230,36.2837,2.78186,0,0,0,0,0,0,0,-1,1896,1254,36.2837,-2.78192
679,-230,27.9967,2.37708,0,0,0,0,0,0,0,-1,1903,1254,27.9967,-2.3771
686,-230,28.6486,7.71472,0,0,0,0,0,0,0,-1,1910,1254,28.6486,-7.71471
693,-230,28.7007,7.5575,-0.000494711,0.000376361,-0.000447701,0.000565427,-0.000683776,-1.17121,0.000722306,0.0365636,1917,1254,28.7006,-7.55748
700,-230,28.7637,7.33765,0.000607854,0.000204081,-0.000455682,0.00090437,-9.24343e-05,-0.576872,0.000635968,0.0121975,1924,1254,28.7637,-7.3376
707,-230,28.7296,7.00964,0.00140009,3.19767e-06,-0.000732774,0.00171396,-0.000310673,-0.404689,0.00125904,0.00941879,1931,1254,28.7296,-7.00961
714,-230,28.7318,6.68542,0.00107166,-0.000323481,-5.94798e-05,0.00107419,-0.000326012,-0.0425306,0.000846004,0.0123192,1938,1254,28.7318,-6.68546
721,-230,28.7478,6.36304,0.00130211,-0.00041795,0.000416672,0.00139773,-0.00051357,0.225579,0.00114217,0.0132126,1945,1254,28.7478,-6.36301
728,-230,28.7162,6.06934,0.00194824,-0.000407357,0.000720419,0.0021511,-0.000610215,0.274476,0.00167494,0.0144795,1952,1254,28.7162,-6.06933
735,-230,28.6921,5.77991,0.00339344,-0.000196452,0.000619833,0.00349745,-0.00030046,0.16625,0.00243796,0.0143949,1959,1254,28.6922,-5.77985
742,-230,28.6858,5.45361,0.00564568,0.000213408,0.00013622,0.00564909,0.000209995,0.0250551,0.00369805,0.00990061,1966,1254,28.6858,-5.45358
749,-230,28.6935,5.1178,0.00890599,0.000871776,-0.000678172,0.00896283,0.000814933,-0.083622,0.00572295,0.0100219,1973,1254,28.6934,-5.11786
756,-230,28.6785,4.81006,0.0137209,0.00189728,-0.0020972,0.0140819,0.00153631,-0.170449,0.00892003,0.0158894,1980,1254,28.6784,-4.81007
763,-230,28.7458,4.36292,0.0206071,0.0033695,-0.00428193,0.0216122,0.00236444,-0.230547,0.0136882,0.0306022,1987,1254,28.7458,-4.36288
770,-230,29.0697,3.79419,0.0300603,0.00568447,-0.00740023,0.032131,0.00361375,-0.27284,0.0203235,0.0440205,1994,1254,29.0697,-3.79424
777,-230,29.4136,3.34607,0,0,0,0,0,0,0,-1,2001,1254,29.4136,-3.34604
784,-230,35.8896,1.80334,0,0,0,0,0,0,0,-1,2008,1254,35.8897,-1.80338
791,-230,35.6028,2.20642,0,0,0,0,0,0,0,-1,2015,1254,35.6027,-2.2064
798,-230,0,0,0,0,0,0,0,0,0,-1,2022,1254,0,0
805,-230,0,0,0,0,0,0,0,0,0,-1,2029,1254,0,0
812,-230,0,0,0,0,0,0,0,0,0,-1,2036,1254,0,0
-700,-237,0,0,0,0,0,0,0,0,0,-1,524,1261,0,0
-693,-237,0,0,0,0,0,0,0,0,0,-1,531,1261,0,0
-686,-237,0,0,0,0,0,0,0,0,0,-1,538,1261,0,0
-679,-237,0,0,0,0,0,0,0,0,0,-1,545,1261,0,0
-672,-237,-24.1933,-5.62341,0.197409,-0.0128098,0.0765462,0.222328,-0.0377285,0.314718,0.162263,0.0463829,552,1261,-24.1933,5.62342
-665,-237,-23.6584,-3.88452,0.184059,-0.0147204,0.0685788,0.205423,-0.036084,0.301991,0.150426,0.0485016,559,1261,-23.6584,3.88455
-658,-237,-22.2975,-2.88074,0.163484,-0.0127429,0.0598459,0.181886,-0.0311448,0.298312,0.132861,0.0482913,566,1261,-22.2975,2.8807
-651,-237,-20.9041,-1.64807,0.140746,-0.0100946,0.0509942,0.156367,-0.0257163,0.297265,0.11379,0.0457021,573,1261,-20.9041,1.64811
-644,-237,-19.877,-0.803223,0.117706,-0.00740145,0.0423357,0.130686,-0.020381,0.297489,0.0946517,0.049819,580,1261,-19.8769,0.803206
-637,-237,-18.7003,1.75439,0,0,0,0,0,0,0,-1,587,1261,-18.7003,-1.75437
-630,-237,-18.2425,2.00513,0,0,0,0,0,0,0,-1,594,1261,-18.2425,-2.00515
-623,-237,-17.7847,2.25598,0,0,0,0,0,0,0,-1,601,1261,-17.7847,-2.25593
-616,-237,-17.6275,2.57751,0.0395204,0.000343894,0.0135237,0.0437353,-0.00387101,0.302126,0.0305291,0.0142909,608,1261,-17.6275,-2.57748
-609,-237,-17.624,2.92249,0.0254689,0.00149414,0.00845727,0.028152,-0.00118895,0.307209,0.0191766,0.0161023,615,1261,-17.6239,-2.92251
-602,-237,-17.6418,3.27295,0.0147004,0.0012424,0.00474173,0.0162033,-0.000260452,0.306926,0.0108901,0.0116699,622,1261,-17.6419,-3.273
-595,-237,-17.6921,3.66223,0.0081404,0.00112553,0.00268204,0.00904833,0.000217594,0.326413,0.00596101,0.0152645,629,1261,-17.6921,-3.6622
-588,-237,-17.6884,4.02637,0.00503831,0.000865877,0.00148028,0.00551013,0.000394061,0.308554,0.00354936,0.0264541,636,1261,-17.6883,-4.02636
-581,-237,-17.6886,4.38489,0.00479331,0.000472027,0.000845291,0.00495277,0.000312563,0.186458,0.00320275,0.0246123,643,1261,-17.6886,-4.38483
-574,-237,-17.6915,4.72974,0.00569704,0.00067283,0.000558375,0.00575835,0.000611522,0.109359,0.00365217,0.0148871,650,1261,-17.6915,-4.72978
-567,-237,-17.6158,5.13062,0.00620283,0.00101955,0.000464628,0.00624415,0.000978229,0.0886974,0.00387804,0.0202902,657,1261,-17.6158,-5.13065
-560,-237,-17.2487,5.62134,0.00565745,0.00159655,0.000913623,0.00585353,0.00140047,0.211411,0.00352939,0.0459351,664,1261,-17.2487,-5.62135
-553,-237,-16.8303,5.94421,0,0,0,0,0,0,0,-1,671,1261,-16.8303,-5.94427
-546,-237,-11.192,1.14014,0,0,0,0,0,0,0,-1,678,1261,-11.192,-1.14011
-539,-237,-16.512,1.53455,0,0,0,0,0,0,0,-1,685,1261,-16.512,-1.53457
-532,-237,-22.1423,1.43213,0,0,0,0,0,0,0,-1,692,1261,-22.1423,-1.43207
-525,-237,-25.3651,1.02673,0,0,0,0,0,0,0,-1,699,1261,-25.3651,-1.02677
-518,-237,-25.6,0.999634,-0.00862875,1.01801e-05,0.00794691,0.00473566,-0.0133542,1.03433,0.0108321,0.0494511,706,1261,-25.6,-0.999609
-511,-237,-25.8724,0.998535,-0.0131513,-0.00163468,0.0105628,0.00463745,-0.0194235,1.03495,0.01474,0.041746,713,1261,-25.8725,-0.998593
-504,-237,-26.0908,1.28613,-0.0179674,-0.00377528,0.0140318,0.00485272,-0.0265954,1.0195,0.0195497,0.0392551,720,1261,-26.0908,-1.28614
-497,-237,-26.1539,1.36841,-0.0224046,-0.00628131,0.0179745,0.00535659,-0.0340425,0.996203,0.0246751,0.04353,727,1261,-26.1539,-1.3684
-490,-237,0,0,0,0,0,0,0,0,0,-1,734,1261,0,0
-483,-237,0,0,0,0,0,0,0,0,0,-1,741,1261,0,0
-476,-237,0,0,0,0,0,0,0,0,0,-1,748,1261,0,0
-469,-237,0,0,0,0,0,0,0,0,0,-1,755,1261,0,0
-462,-237,0,0,0,0,0,0,0,0,0,-1,762,1261,0,0
-455,-237,0,0,0,0,0,0,0,0,0,-1,769,1261,0,0
-448,-237,0,0,0,0,0,0,0,0,0,-1,776,1261,0,0
-441,-237,0,0,0,0,0,0,0,0,0,-1,783,1261,0,0
-434,-237,0,0,0,0,0,0,0,0,0,-1,790,1261,0,0
-427,-237,0,0,0,0,0,0,0,0,0,-1,797,1261,0,0
-420,-237,0,0,0,0,0,0,0,0,0,-1,804,1261,0,0
-413,-237,0,0,0,0,0,0,0,0,0,-1,811,1261,0,0
-406,-237,0,0,0,0,0,0,0,0,0,-1,818,1261,0,0
-399,-237,0,0,0,0,0,0,0,0,0,-1,825,1261,0,0
-392,-237,0,0,0,0,0,0,0,0,0,-1,832,1261,0,0
-385,-237,0,0,0,0,0,0,0,0,0,-1,839,1261,0,0
-378,-237,0,0,0,0,0,0,0,0,0,-1,846,1261,0,0
-371,-237,0,0,0,0,0,0,0,0,0,-1,853,1261,0,0
-364,-237,0,0,0,0,0,0,0,0,0,-1,860,1261,0,0
-357,-237,0,0,0,0,0,0,0,0,0,-1,867,1261,0,0
-350,-237,0,0,0,0,0,0,0,0,0,-1,874,1261,0,0
-343,-237,0,0,0,0,0,0,0,0,0,-1,881,1261,0,0
-336,-237,0,0,0,0,0,0,0,0,0,-1,888,1261,0,0
-329,-237,0,0,0,0,0,0,0,0,0,-1,895,1261,0,0
-322,-237,0,0,0,0,0,0,0,0,0,-1,902,1261,0,0
-315,-237,0,0,0,0,0,0,0,0,0,-1,909,1261,0,0
-308,-237,0,0,0,0,0,0,0,0,0,-1,916,1261,0,0
-301,-237,0,0,0,0,0,0,0,0,0,-1,923,1261,0,0
-294,-237,0,0,0,0,0,0,0,0,0,-1,930,1261,0,0
-287,-237,0,0,0,0,0,0,0,0,0,-1,937,1261,0,0
-280,-237,0,0,0,0,0,0,0,0,0,-1,944,1261,0,0
-273,-237,0,0,0,0,0,0,0,0,0,-1,951,1261,0,0
-266,-237,0,0,0,0,0,0,0,0,0,-1,958,1261,0,0
-259,-237,0,0,0,0,0,0,0,0,0,-1,965,1261,0,0
-252,-237,0,0,0,0,0,0,0,0,0,-1,972,1261,0,0
-245,-237,0,0,0,0,0,0,0,0,0,-1,979,1261,0,0
-238,-237,0,0,0,0,0,0,0,0,0,-1,986,1261,0,0
-231,-237,0,0,0,0,0,0,0,0,0,-1,993,1261,0,0
-224,-237,0,0,0,0,0,0,0,0,0,-1,1000,1261,0,0
-217,-237,0,0,0,0,0,0,0,0,0,-1,1007,1261,0,0
-210,-237,0,0,0,0,0,0,0,0,0,-1,1014,1261,0,0
-203,-237,0,0,0,0,0,0,0,0,0,-1,1021,1261,0,0
-196,-237,0,0,0,0,0,0,0,0,0,-1,1028,1261,0,0
-189,-237,0,0,0,0,0,0,0,0,0,-1,1035,1261,0,0
-182,-237,0,0,0,0,0,0,0,0,0,-1,1042,1261,0,0
-175,-237,0,0,0,0,0,0,0,0,0,-1,1049,1261,0,0
-168,-237,0,0,0,0,0,0,0,0,0,-1,1056,1261,0,0
-161,-237,0,0,0,0,0,0,0,0,0,-1,1063,1261,0,0
-154,-237,0,0,0,0,0,0,0,0,0,-1,1070,1261,0,0
-147,-237,0,0,0,0,0,0,0,0,0,-1,1077,1261,0,0
-140,-237,0,0,0,0,0,0,0,0,0,-1,1084,1261,0,0
-133,-237,0,0,0,0,0,0,0,0,0,-1,1091,1261,0,0
-126,-237,0,0,0,0,0,0,0,0,0,-1,1098,1261,0,0
-119,-237,0,0,0,0,0,0,0,0,0,-1,1105,1261,0,0
-112,-237,0,0,0,0,0,0,0,0,0,-1,1112,1261,0,0
-105,-237,0,0,0,0,0,0,0,0,0,-1,1119,1261,0,0
-98,-237,0,0,0,0,0,0,0,0,0,-1,1126,1261,0,0
-91,-237,0,0,0,0,0,0,0,0,0,-1,1133,1261,0,0
-84,-237,0,0,0,0,0,0,0,0,0,-1,1140,1261,0,0
-77,-237,0,0,0,0,0,0,0,0,0,-1,1147,1261,0,0
-70,-237,0,0,0,0,0,0,0,0,0,-1,1154,1261,0,0
-63,-237,0,0,0,0,0,0,0,0,0,-1,1161,1261,0,0
-56,-237,0,0,0,0,0,0,0,0,0,-1,1168,1261,0,0
-49,-237,0,0,0,0,0,0,0,0,0,-1,1175,1261,0,0
-42,-237,0,0,0,0,0,0,0,0,0,-1,1182,1261,0,0
-35,-237,0,0,0,0,0,0,0,0,0,-1,1189,1261,0,0
-28,-237,0,0,0,0,0,0,0,0,0,-1,1196,1261,0,0
-21,-237,0,0,0,0,0,0,0,0,0,-1,1203,1261,0,0
-14,-237,0,0,0,0,0,0,0,0,0,-1,1210,1261,0,0
-7,-237,0,0,0,0,0,0,0,0,0,-1,1217,1261,0,0
0,-237,0,0,0,0,0,0,0,0,0,-1,1224,1261,0,0
7,-237,0,0,0,0,0,0,0,0,0,-1,1231,1261,0,0
14,-237,0,0,0,0,0,0,0,0,0,-1,1238,1261,0,0
21,-237,0,0,0,0,0,0,0,0,0,-1,1245,1261,0,0
28,-237,0,0,0,0,0,0,0,0,0,-1,1252,1261,0,0
35,-237,0,0,0,0,0,0,0,0,0,-1,1259,1261,0,0
42,-237,0,0,0,0,0,0,0,0,0,-1,1266,1261,0,0
49,-237,0,0,0,0,0,0,0,0,0,-1,1273,1261,0,0
56,-237,0,0,0,0,0,0,0,0,0,-1,1280,1261,0,0
63,-237,0,0,0,0,0,0,0,0,0,-1,1287,1261,0,0
70,-237,0,0,0,0,0,0,0,0,0,-1,1294,1261,0,0
77,-237,0,0,0,0,0,0,0,0,0,-1,1301,1261,0,0
84,-237,0,0,0,0,0,0,0,0,0,-1,1308,1261,0,0
91,-237,0,0,0,0,0,0,0,0,0,-1,1315,1261,0,0
98,-237,0,0,0,0,0,0,0,0,0,-1,1322,1261,0,0
105,-237,0,0,0,0,0,0,0,0,0,-1,1329,1261,0,0
112,-237,0,0,0,0,0,0,0,0,0,-1,1336,1261,0,0
119,-237,0,0,0,0,0,0,0,0,0,-1,1343,1261,0,0
126,-237,0,0,0,0,0,0,0,0,0,-1,1350,1261,0,0
133,-237,0,0,0,0,0,0,0,0,0,-1,1357,1261,0,0
140,-237,0,0,0,0,0,0,0,0,0,-1,1364,1261,0,0
147,-237,0,0,0,0,0,0,0,0,0,-1,1371,1261,0,0
154,-237,0,0,0,0,0,0,0,0,0,-1,1378,1261,0,0
161,-237,0,0,0,0,0,0,0,0,0,-1,1385,1261,0,0
168,-237,0,0,0,0,0,0,0,0,0,-1,1392,1261,0,0
175,-237,0,0,0,0,0,0,0,0,0,-1,1399,1261,0,0
182,-237,0,0,0,0,0,0,0,0,0,-1,1406,1261,0,0
189,-237,0,0,0,0,0,0,0,0,0,-1,1413,1261,0,0
196,-237,0,0,0,0,0,0,0,0,0,-1,1420,1261,0,0
203,-237,0,0,0,0,0,0,0,0,0,-1,1427,1261,0,0
210,-237,0,0,0,0,0,0,0,0,0,-1,1434,1261,0,0
217,-237,0,0,0,0,0,0,0,0,0,-1,1441,1261,0,0
224,-237,0,0,0,0,0,0,0,0,0,-1,1448,1261,0,0
231,-237,0,0,0,0,0,0,0,0,0,-1,1455,1261,0,0
238,-237,0,0,0,0,0,0,0,0,0,-1,1462,1261,0,0
245,-237,0,0,0,0,0,0,0,0,0,-1,1469,1261,0,0
252,-237,0,0,0,0,0,0,0,0,0,-1,1476,1261,0,0
259,-237,0,0,0,0,0,0,0,0,0,-1,1483,1261,0,0
266,-237,0,0,0,0,0,0,0,0,0,-1,1490,1261,0,0
273,-237,0,0,0,0,0,0,0,0,0,-1,1497,1261,0,0
280,-237,0,0,0,0,0,0,0,0,0,-1,1504,1261,0,0
287,-237,0,0,0,0,0,0,0,0,0,-1,1511,1261,0,0
294,-237,0,0,0,0,0,0,0,0,0,-1,1518,1261,0,0
301,-237,0,0,0,0,0,0,0,0,0,-1,1525,1261,0,0
308,-237,0,0,0,0,0,0,0,0,0,-1,1532,1261,0,0
315,-237,0,0,0,0,0,0,0,0,0,-1,1539,1261,0,0
322,-237,0,0,0,0,0,0,0,0,0,-1,1546,1261,0,0
329,-237,0,0,0,0,0,0,0,0,0,-1,1553,1261,0,0
336,-237,0,0,0,0,0,0,0,0,0,-1,1560,1261,0,0
343,-237,0,0,0,0,0,0,0,0,0,-1,1567,1261,0,0
350,-237,0,0,0,0,0,0,0,0,0,-1,1574,1261,0,0
357,-237,0,0,0,0,0,0,0,0,0,-1,1581,1261,0,0
364,-237,0,0,0,0,0,0,0,0,0,-1,1588,1261,0,0
371,-237,0,0,0,0,0,0,0,0,0,-1,1595,1261,0,0
378,-237,0,0,0,0,0,0,0,0,0,-1,1602,1261,0,0
385,-237,0,0,0,0,0,0,0,0,0,-1,1609,1261,0,0
392,-237,0,0,0,0,0,0,0,0,0,-1,1616,1261,0,0
399,-237,0,0,0,0,0,0,0,0,0,-1,1623,1261,0,0
406,-237,0,0,0,0,0,0,0,0,0,-1,1630,1261,0,0
413,-237,0,0,0,0,0,0,0,0,0,-1,1637,1261,0,0
420,-237,0,0,0,0,0,0,0,0,0,-1,1644,1261,0,0
427,-237,0,0,0,0,0,0,0,0,0,-1,1651,1261,0,0
434,-237,0,0,0,0,0,0,0,0,0,-1,1658,1261,0,0
441,-237,0,0,0,0,0,0,0,0,0,-1,1665,1261,0,0
448,-237,0,0,0,0,0,0,0,0,0,-1,1672,1261,0,0
455,-237,0,0,0,0,0,0,0,0,0,-1,1679,1261,0,0
462,-237,0,0,0,0,0,0,0,0,0,-1,1686,1261,0,0
469,-237,0,0,0,0,0,0,0,0,0,-1,1693,1261,0,0
476,-237,0,0,0,0,0,0,0,0,0,-1,1700,1261,0,0
483,-237,0,0,0,0,0,0,0,0,0,-1,1707,1261,0,0
490,-237,0,0,0,0,0,0,0,0,0,-1,1714,1261,0,0
497,-237,0,0,0,0,0,0,0,0,0,-1,1721,1261,0,0
504,-237,0,0,0,0,0,0,0,0,0,-1,1728,1261,0,0
511,-237,0,0,0,0,0,0,0,0,0,-1,1735,1261,0,0
518,-237,0,0,0,0,0,0,0,0,0,-1,1742,1261,0,0
525,-237,0,0,0,0,0,0,0,0,0,-1,1749,1261,0,0
532,-237,0,0,0,0,0,0,0,0,0,-1,1756,1261,0,0
539,-237,0,0,0,0,0,0,0,0,0,-1,1763,1261,0,0
546,-237,0,0,0,0,0,0,0,0,0,-1,1770,1261,0,0
553,-237,0,0,0,0,0,0,0,0,0,-1,1777,1261,0,0
560,-237,0,0,0,0,0,0,0,0,0,-1,1784,1261,0,0
567,-237,0,0,0,0,0,0,0,0,0,-1,1791,1261,0,0
574,-237,0,0,0,0,0,0,0,0,0,-1,1798,1261,0,0
581,-237,0,0,0,0,0,0,0,0,0,-1,1805,1261,0,0
588,-237,0,0,0,0,0,0,0,0,0,-1,1812,1261,0,0
595,-237,0,0,0,0,0,0,0,0,0,-1,1819,1261,0,0
602,-237,0,0,0,0,0,0,0,0,0,-1,1826,1261,0,0
609,-237,0,0,0,0,0,0,0,0,0,-1,1833,1261,0,0
616,-237,36.144,2.58826,0.00299863,0.000982428,-0.000585717,0.00315644,0.000824625,-0.26317,0.00189035,0.0372514,1840,1261,36.1441,-2.58831
623,-237,36.1389,2.69971,-0.000747742,0.00158799,0.00114687,0.00205696,-0.00121671,1.18263,0.00191069,0.0346597,1847,1261,36.139,-2.69972
630,-237,36.0929,2.7948,-0.00417549,0.00217873,0.00236623,0.00296307,-0.00495982,1.25072,0.00462246,0.0265276,1854,1261,36.093,-2.79476
637,-237,36.0209,2.73279,-0.00662462,0.00260946,0.00291448,0.00345239,-0.00746755,1.28926,0.00644513,0.0192793,1861,1261,36.0209,-2.73275
644,-237,35.924,2.61023,-0.00647672,0.00234394,0.00271539,0.00311284,-0.00724562,1.29486,0.00613707,0.0362162,1868,1261,35.9239,-2.61028
651,-237,36.0012,2.58533,-0.00536143,0.00199185,0.00212354,0.00256105,-0.00593062,1.30891,0.00502968,0.046105,1875,1261,36.0012,-2.5853
658,-237,35.9078,2.54199,0,0,0,0,0,0,0,-1,1882,1261,35.9078,-2.54204
665,-237,35.4371,2.24023,0,0,0,0,0,0,0,-1,1889,1261,35.4371,-2.24018
672,-237,34.3209,1.89246,0,0,0,0,0,0,0,-1,1896,1261,34.3209,-1.89241
679,-237,23.1501,7.37488,0,0,0,0,0,0,0,-1,1903,1261,23.1502,-7.37493
686,-237,28.4031,7.94922,0,0,0,0,0,0,0,-1,1910,1261,28.403,-7.94917
693,-237,28.3679,7.64624,-0.000734085,0.000170653,-0.000286971,0.000253999,-0.000817431,-1.28814,0.000646472,0.0383255,1917,1261,28.3679,-7.64628
700,-237,28.4094,7.36047,0.000691075,2.79679e-05,-0.000396586,0.000876444,-0.0001574,-0.437237,0.000643214,0.0112457,1924,1261,28.4094,-7.36047
707,-237,28.4178,7.0271,0.00167998,-0.000113636,-0.000814397,0.00199458,-0.000428235,-0.368638,0.00149308,0.00934596,1931,1261,28.4178,-7.02714
714,-237,28.4061,6.68347,0.00128902,-0.000408498,-0.000109817,0.0012961,-0.000415572,-0.0643351,0.0010309,0.013111,1938,1261,28.4061,-6.68341
721,-237,28.3889,6.38159,0.00152017,-0.000462603,0.000364642,0.00158511,-0.000527536,0.176226,0.00126966,0.0159775,1945,1261,28.3889,-6.38159
728,-237,28.3954,6.06689,0.00217086,-0.000458974,0.000662018,0.00232811,-0.000616224,0.233209,0.00179313,0.0150462,1952,1261,28.3954,-6.06692
735,-237,28.3877,5.74536,0.00356707,-0.000320964,0.000598524,0.00365712,-0.000411016,0.149335,0.00258599,0.0197786,1959,1261,28.3876,-5.74531
742,-237,28.3936,5.44226,0.00577897,-2.78495e-05,0.000169988,0.00578394,-3.28212e-05,0.0292404,0.00386695,0.0145977,1966,1261,28.3935,-5.44223
749,-237,28.3457,5.16101,0.00910461,0.000459351,-0.000638609,0.00915153,0.000412432,-0.0733377,0.00596829,0.0101957,1973,1261,28.3457,-5.16104
756,-237,28.3475,4.82666,0.0141563,0.00129946,-0.00215409,0.0145076,0.000948156,-0.161665,0.00937168,0.0172971,1980,1261,28.3476,-4.82662
763,-237,28.3776,4.35986,0.0215209,0.00257116,-0.00457253,0.0225665,0.00152551,-0.224814,0.0145625,0.0321825,1987,1261,28.3775,-4.35988
770,-237,28.9277,3.45532,0.0318295,0.00470713,-0.00817655,0.0341037,0.00243286,-0.271289,0.0219698,0.0467544,1994,1261,28.9278,-3.45534
777,-237,29.3331,2.77222,0,0,0,0,0,0,0,-1,2001,1261,29.3332,-2.77227
784,-237,36.3441,1.68591,0,0,0,0,0,0,0,-1,2008,1261,36.3441,-1.68592
791,-237,32.3025,6.03235,0,0,0,0,0,0,0,-1,2015,1261,32.3025,-6.03229
798,-237,0,0,0,0,0,0,0,0,0,-1,2022,1261,0,0
805,-237,0,0,0,0,0,0,0,0,0,-1,2029,1261,0,0
812,-237,0,0,0,0,0,0,0,0,0,-1,2036,1261,0,0
-700,-244,0,0,0,0,0,0,0,0,0,-1,524,1268,0,0
-693,-244,0,0,0,0,0,0,0,0,0,-1,531,1268,0,0
-686,-244,0,0,0,0,0,0,0,0,0,-1,538,1268,0,0
-679,-244,0,0,0,0,0,0,0,0,0,-1,545,1268,0,0
-672,-244,-24.6511,-4.55249,0.225096,-0.0438661,0.0771489,0.245654,-0.0644241,0.26042,0.188941,0.0466721,552,1268,-24.6511,4.55252
-665,-244,-23.2858,-3.56384,0.208885,-0.0373781,0.069961,0.227373,-0.0558654,0.258347,0.173233,0.0483274,559,1268,-23.2859,3.56386
-658,-244,-21.9284,-2.57263,0.184503,-0.0291362,0.0615755,0.20098,-0.0456129,0.261459,0.151497,0.0471868,566,1268,-21.9284,2.57259
-651,-244,-20.579,-1.52625,0.158324,-0.0219161,0.0528782,0.172692,-0.036284,0.265311,0.128936,0.0463783,573,1268,-20.579,1.52629
-644,-244,-19.2628,-0.59729,0.132258,-0.0157911,0.0442546,0.144478,-0.028011,0.269414,0.106886,0.0481068,580,1268,-19.2627,0.59727
-637,-244,-18.2338,1.54895,0,0,0,0,0,0,0,-1,587,1268,-18.2338,-1.54891
-630,-244,-17.8231,1.9502,0.0838411,-0.00628924,0.0282685,0.0919735,-0.0144216,0.280119,0.066645,0.0437247,594,1268,-17.8231,-1.95019
-623,-244,-17.4336,2.27124,0,0,0,0,0,0,0,-1,601,1268,-17.4336,-2.27129
-616,-244,-17.2657,2.57947,0.044731,-0.000104608,0.0149712,0.0492705,-0.00464407,0.294402,0.0344994,0.0167026,608,1268,-17.2657,-2.57944
-609,-244,-17.2651,2.91711,0.0291811,0.0017582,0.00987039,0.0323643,-0.00142498,0.311967,0.0220665,0.0146833,615,1268,-17.2651,-2.91715
-602,-244,-17.2706,3.27917,0.0172859,0.00204702,0.00610834,0.0194321,-9.91821e-05,0.337882,0.0129879,0.0152823,622,1268,-17.2706,-3.27919
-595,-244,-17.305,3.66272,0.00989482,0.00189455,0.003737,0.0113688,0.00042054,0.375701,0.007443,0.0168178,629,1268,-17.305,-3.66267
-588,-244,-17.315,4.0437,0.0059198,0.00156047,0.00227768,0.00689271,0.000587561,0.403692,0.00441235,0.0208889,636,1268,-17.315,-4.04375
-581,-244,-17.3273,4.39026,0.00521514,0.000946642,0.00150621,0.00569311,0.000468672,0.307282,0.00364923,0.0176596,643,1268,-17.3273,-4.39026
-574,-244,-17.3391,4.76587,0.00602817,0.000734411,0.00128736,0.00632463,0.000437949,0.226341,0.00407828,0.0130217,650,1268,-17.3391,-4.76585
-567,-244,-17.3333,5.13916,0.00659831,0.000748154,0.00121347,0.00684003,0.000506437,0.196621,0.00440093,0.0111941,657,1268,-17.3333,-5.13916
-560,-244,-17.2568,5.51404,0.00609915,0.0013438,0.00163571,0.00660746,0.000835495,0.301295,0.00415457,0.0289158,664,1268,-17.2568,-5.51406
-553,-244,-17.1235,5.92102,0,0,0,0,0,0,0,-1,671,1268,-17.1235,-5.92101
-546,-244,-11.2686,4.41772,0,0,0,0,0,0,0,-1,678,1268,-11.2686,-4.41767
-539,-244,-12.8706,0.3302,0,0,0,0,0,0,0,-1,685,1268,-12.8706,-0.330156
-532,-244,-18.1502,0.816528,0,0,0,0,0,0,0,-1,692,1268,-18.1502,-0.816514
-525,-244,-25.4202,1.02612,0,0,0,0,0,0,0,-1,699,1268,-25.4201,-1.02616
-518,-244,-25.6122,1.18445,0,0,0,0,0,0,0,-1,706,1268,-25.6123,-1.18439
-511,-244,-25.8442,1.02124,0,0,0,0,0,0,0,-1,713,1268,-25.8442,-1.0213
-504,-244,-26.0619,1.24316,-0.0200793,-0.00399252,0.0165699,0.006383,-0.0304548,1.01136,0.0227316,0.0468141,720,1268,-26.0619,-1.24311
-497,-244,-26.2369,1.45142,-0.0253,-0.00662897,0.0203468,0.00642176,-0.0383508,1.00048,0.0279547,0.0437198,727,1268,-26.2369,-1.45144
-490,-244,0,0,0,0,0,0,0,0,0,-1,734,1268,0,0
-483,-244,0,0,0,0,0,0,0,0,0,-1,741,1268,0,0
-476,-244,0,0,0,0,0,0,0,0,0,-1,748,1268,0,0
-469,-244,0,0,0,0,0,0,0,0,0,-1,755,1268,0,0
-462,-244,0,0,0,0,0,0,0,0,0,-1,762,1268,0,0
-455,-244,0,0,0,0,0,0,0,0,0,-1,769,1268,0,0
-448,-244,0,0,0,0,0,0,0,0,0,-1,776,1268,0,0
-441,-244,0,0,0,0,0,0,0,0,0,-1,783,1268,0,0
-434,-244,0,0,0,0,0,0,0,0,0,-1,790,1268,0,0
-427,-244,0,0,0,0,0,0,0,0,0,-1,797,1268,0,0
-420,-244,0,0,0,0,0,0,0,0,0,-1,804,1268,0,0
-413,-244,0,0,0,0,0,0,0,0,0,-1,811,1268,0,0
-406,-244,0,0,0,0,0,0,0,0,0,-1,818,1268,0,0
-399,-244,0,0,0,0,0,0,0,0,0,-1,825,1268,0,0
-392,-244,0,0,0,0,0,0,0,0,0,-1,832,1268,0,0
-385,-244,0,0,0,0,0,0,0,0,0,-1,839,1268,0,0
-378,-244,0,0,0,0,0,0,0,0,0,-1,846,1268,0,0
-371,-244,0,0,0,0,0,0,0,0,0,-1,853,1268,0,0
-364,-244,0,0,0,0,0,0,0,0,0,-1,860,1268,0,0
-357,-244,0,0,0,0,0,0,0,0,0,-1,867,1268,0,0
-350,-244,0,0,0,0,0,0,0,0,0,-1,874,1268,0,0
-343,-244,0,0,0,0,0,0,0,0,0,-1,881,1268,0,0
-336,-244,0,0,0,0,0,0,0,0,0,-1,888,1268,0,0
-329,-244,0,0,0,0,0,0,0,0,0,-1,895,1268,0,0
-322,-244,0,0,0,0,0,0,0,0,0,-1,902,1268,0,0
-315,-244,0,0,0,0,0,0,0,0,0,-1,909,1268,0,0
-308,-244,0,0,0,0,0,0,0,0,0,-1,916,1268,0,0
-301,-244,0,0,0,0,0,0,0,0,0,-1,923,1268,0,0
-294,-244,0,0,0,0,0,0,0,0,0,-1,930,1268,0,0
-287,-244,0,0,0,0,0,0,0,0,0,-1,937,1268,0,0
-280,-244,0,0,0,0,0,0,0,0,0,-1,944,1268,0,0
-273,-244,0,0,0,0,0,0,0,0,0,-1,951,1268,0,0
-266,-244,0,0,0,0,0,0,0,0,0,-1,958,1268,0,0
-259,-244,0,0,0,0,0,0,0,0,0,-1,965,1268,0,0
-252,-244,0,0,0,0,0,0,0,0,0,-1,972,1268,0,0
-245,-244,0,0,0,0,0,0,0,0,0,-1,979,1268,0,0
-238,-244,0,0,0,0,0,0,0,0,0,-1,986,1268,0,0
-231,-244,0,0,0,0,0,0,0,0,0,-1,993,1268,0,0
-224,-244,0,0,0,0,0,0,0,0,0,-1,1000,1268,0,0
-217,-244,0,0,0,0,0,0,0,0,0,-1,1007,1268,0,0
-210,-244,0,0,0,0,0,0,0,0,0,-1,1014,1268,0,0
-203,-244,0,0,0,0,0,0,0,0,0,-1,1021,1268,0,0
-196,-244,0,0,0,0,0,0,0,0,0,-1,1028,1268,0,0
-189,-244,0,0,0,0,0,0,0,0,0,-1,1035,1268,0,0
-182,-244,0,0,0,0,0,0,0,0,0,-1,1042,1268,0,0
-175,-244,0,0,0,0,0,0,0,0,0,-1,1049,1268,0,0
-168,-244,0,0,0,0,0,0,0,0,0,-1,1056,1268,0,0
-161,-244,0,0,0,0,0,0,0,0,0,-1,1063,1268,0,0
-154,-244,0,0,0,0,0,0,0,0,0,-1,1070,1268,0,0
-147,-244,0,0,0,0,0,0,0,0,0,-1,1077,1268,0,0
-140,-244,0,0,0,0,0,0,0,0,0,-1,1084,1268,0,0
-133,-244,0,0,0,0,0,0,0,0,0,-1,1091,1268,0,0
-126,-244,0,0,0,0,0,0,0,0,0,-1,1098,1268,0,0
-119,-244,0,0,0,0,0,0,0,0,0,-1,1105,1268,0,0
-112,-244,0,0,0,0,0,0,0,0,0,-1,1112,1268,0,0
-105,-244,0,0,0,0,0,0,0,0,0,-1,1119,1268,0,0
-98,-244,0,0,0,0,0,0,0,0,0,-1,1126,1268,0,0
-91,-244,0,0,0,0,0,0,0,0,0,-1,1133,1268,0,0
-84,-244,0,0,0,0,0,0,0,0,0,-1,1140,1268,0,0
-77,-244,0,0,0,0,0,0,0,0,0,-1,1147,1268,0,0
-70,-244,0,0,0,0,0,0,0,0,0,-1,1154,1268,0,0
-63,-244,0,0,0,0,0,0,0,0,0,-1,1161,1268,0,0
-56,-244,0,0,0,0,0,0,0,0,0,-1,1168,1268,0,0
-49,-244,0,0,0,0,0,0,0,0,0,-1,1175,1268,0,0
-42,-244,0,0,0,0,0,0,0,0,0,-1,1182,1268,0,0
-35,-244,0,0,0,0,0,0,0,0,0,-1,1189,1268,0,0
-28,-244,0,0,0,0,0,0,0,0,0,-1,1196,1268,0,0
-21,-244,0,0,0,0,0,0,0,0,0,-1,1203,1268,0,0
-14,-244,0,0,0,0,0,0,0,0,0,-1,1210,1268,0,0
-7,-244,0,0,0,0,0,0,0,0,0,-1,1217,1268,0,0
0,-244,0,0,0,0,0,0,0,0,0,-1,1224,1268,0,0
7,-244,0,0,0,0,0,0,0,0,0,-1,1231,1268,0,0
14,-244,0,0,0,0,0,0,0,0,0,-1,1238,1268,0,0
21,-244,0,0,0,0,0,0,0,0,0,-1,1245,1268,0,0
28,-244,0,0,0,0,0,0,0,0,0,-1,1252,1268,0,0
35,-244,0,0,0,0,0,0,0,0,0,-1,1259,1268,0,0
42,-244,0,0,0,0,0,0,0,0,0,-1,1266,1268,0,0
49,-244,0,0,0,0,0,0,0,0,0,-1,1273,1268,0,0
56,-244,0,0,0,0,0,0,0,0,0,-1,1280,1268,0,0
63,-244,0,0,0,0,0,0,0,0,0,-1,1287,1268,0,0
70,-244,0,0,0,0,0,0,0,0,0,-1,1294,1268,0,0
77,-244,0,0,0,0,0,0,0,0,0,-1,1301,1268,0,0
84,-244,0,0,0,0,0,0,0,0,0,-1,1308,1268,0,0
91,-244,0,0,0,0,0,0,0,0,0,-1,1315,1268,0,0
98,-244,0,0,0,0,0,0,0,0,0,-1,1322,1268,0,0
105,-244,0,0,0,0,0,0,0,0,0,-1,1329,1268,0,0
112,-244,0,0,0,0,0,0,0,0,0,-1,1336,1268,0,0
119,-244,0,0,0,0,0,0,0,0,0,-1,1343,1268,0,0
126,-244,0,0,0,0,0,0,0,0,0,-1,1350,1268,0,0
133,-244,0,0,0,0,0,0,0,0,0,-1,1357,1268,0,0
140,-244,0,0,0,0,0,0,0,0,0,-1,1364,1268,0,0
147,-244,0,0,0,0,0,0,0,0,0,-1,1371,1268,0,0
154,-244,0,0,0,0,0,0,0,0,0,-1,1378,1268,0,0
161,-244,0,0,0,0,0,0,0,0,0,-1,1385,1268,0,0
168,-244,0,0,0,0,0,0,0,0,0,-1,1392,1268,0,0
175,-244,0,0,0,0,0,0,0,0,0,-1,1399,1268,0,0
182,-244,0,0,0,0,0,0,0,0,0,-1,1406,1268,0,0
189,-244,0,0,0,0,0,0,0,0,0,-1,1413,1268,0,0
196,-244,0,0,0,0,0,0,0,0,0,-1,1420,1268,0,0
203,-244,0,0,0,0,0,0,0,0,0,-1,1427,1268,0,0
210,-244,0,0,0,0,0,0,0,0,0,-1,1434,1268,0,0
217,-244,0,0,0,0,0,0,0,0,0,-1,1441,1268,0,0
224,-244,0,0,0,0,0,0,0,0,0,-1,1448,1268,0,0
231,-244,0,0,0,0,0,0,0,0,0,-1,1455,1268,0,0
238,-244,0,0,0,0,0,0,0,0,0,-1,1462,1268,0,0
245,-244,0,0,0,0,0,0,0,0,0,-1,1469,1268,0,0
252,-244,0,0,0,0,0,0,0,0,0,-1,1476,1268,0,0
259,-244,0,0,0,0,0,0,0,0,0,-1,1483,1268,0,0
266,-244,0,0,0,0,0,0,0,0,0,-1,1490,1268,0,0
273,-244,0,0,0,0,0,0,0,0,0,-1,1497,1268,0,0
280,-244,0,0,0,0,0,0,0,0,0,-1,1504,1268,0,0
287,-244,0,0,0,0,0,0,0,0,0,-1,1511,1268,0,0
294,-244,0,0,0,0,0,0,0,0,0,-1,1518,1268,0,0
301,-244,0,0,0,0,0,0,0,0,0,-1,1525,1268,0,0
308,-244,0,0,0,0,0,0,0,0,0,-1,1532,1268,0,0
315,-244,0,0,0,0,0,0,0,0,0,-1,1539,1268,0,0
322,-244,0,0,0,0,0,0,0,0,0,-1,1546,1268,0,0
329,-244,0,0,0,0,0,0,0,0,0,-1,1553,1268,0,0
336,-244,0,0,0,0,0,0,0,0,0,-1,1560,1268,0,0
343,-244,0,0,0,0,0,0,0,0,0,-1,1567,1268,0,0
350,-244,0,0,0,0,0,0,0,0,0,-1,1574,1268,0,0
357,-244,0,0,0,0,0,0,0,0,0,-1,1581,1268,0,0
364,-244,0,0,0,0,0,0,0,0,0,-1,1588,1268,0,0
371,-244,0,0,0,0,0,0,0,0,0,-1,1595,1268,0,0
378,-244,0,0,0,0,0,0,0,0,0,-1,1602,1268,0,0
385,-244,0,0,0,0,0,0,0,0,0,-1,1609,1268,0,0
392,-244,0,0,0,0,0,0,0,0,0,-1,1616,1268,0,0
399,-244,0,0,0,0,0,0,0,0,0,-1,1623,1268,0,0
406,-244,0,0,0,0,0,0,0,0,0,-1,1630,1268,0,0
413,-244,0,0,0,0,0,0,0,0,0,-1,1637,1268,0,0
420,-244,0,0,0,0,0,0,0,0,0,-1,1644,1268,0,0
427,-244,0,0,0,0,0,0,0,0,0,-1,1651,1268,0,0
434,-244,0,0,0,0,0,0,0,0,0,-1,1658,1268,0,0
441,-244,0,0,0,0,0,0,0,0,0,-1,1665,1268,0,0
448,-244,0,0,0,0,0,0,0,0,0,-1,1672,1268,0,0
455,-244,0,0,0,0,0,0,0,0,0,-1,1679,1268,0,0
462,-244,0,0,0,0,0,0,0,0,0,-1,1686,1268,0,0
469,-244,0,0,0,0,0,0,0,0,0,-1,1693,1268,0,0
476,-244,0,0,0,0,0,0,0,0,0,-1,1700,1268,0,0
483,-244,0,0,0,0,0,0,0,0,0,-1,1707,1268,0,0
490,-244,0,0,0,0,0,0,0,0,0,-1,1714,1268,0,0
497,-244,0,0,0,0,0,0,0,0,0,-1,1721,1268,0,0
504,-244,0,0,0,0,0,0,0,0,0,-1,1728,1268,0,0
511,-244,0,0,0,0,0,0,0,0,0,-1,1735,1268,0,0
518,-244,0,0,0,0,0,0,0,0,0,-1,1742,1268,0,0
525,-244,0,0,0,0,0,0,0,0,0,-1,1749,1268,0,0
532,-244,0,0,0,0,0,0,0,0,0,-1,1756,1268,0,0
539,-244,0,0,0,0,0,0,0,0,0,-1,1763,1268,0,0
546,-244,0,0,0,0,0,0,0,0,0,-1,1770,1268,0,0
553,-244,0,0,0,0,0,0,0,0,0,-1,1777,1268,0,0
560,-244,0,0,0,0,0,0,0,0,0,-1,1784,1268,0,0
567,-244,0,0,0,0,0,0,0,0,0,-1,1791,1268,0,0
574,-244,0,0,0,0,0,0,0,0,0,-1,1798,1268,0,0
581,-244,0,0,0,0,0,0,0,0,0,-1,1805,1268,0,0
588,-244,0,0,0,0,0,0,0,0,0,-1,1812,1268,0,0
595,-244,0,0,0,0,0,0,0,0,0,-1,1819,1268,0,0
602,-244,0,0,0,0,0,0,0,0,0,-1,1826,1268,0,0
609,-244,0,0,0,0,0,0,0,0,0,-1,1833,1268,0,0
616,-244,36.114,2.67444,0.000222671,0.00236069,0.000117352,0.00236712,0.000216249,1.51613,0.00151116,0.0349607,1840,1268,36.114,-2.67448
623,-244,36.1041,2.76416,-0.00379626,0.00301997,0.00206569,0.00359712,-0.0043734,1.29835,0.00460905,0.0284226,1847,1268,36.1041,-2.76418
630,-244,36.082,2.79883,-0.00724323,0.00348031,0.00347663,0.00450881,-0.00827173,1.28317,0.0074847,0.0245168,1854,1268,36.082,-2.79879
637,-244,36.0631,2.75708,-0.00884189,0.0034292,0.00393083,0.00458038,-0.00999307,1.2859,0.00860525,0.0358151,1861,1268,36.0631,-2.75703
644,-244,35.9241,2.62769,-0.00789029,0.00277893,0.00353392,0.00384328,-0.00895464,1.27826,0.00758277,0.0405306,1868,1268,35.9241,-2.62773
651,-244,35.6914,2.7644,-0.00643801,0.00222668,0.00286512,0.00308838,-0.00729971,1.27865,0.00615966,0.0454557,1875,1268,35.6914,-2.76441
658,-244,36.0818,2.49146,0,0,0,0,0,0,0,-1,1882,1268,36.0818,-2.49151
665,-244,34.1017,1.93958,0,0,0,0,0,0,0,-1,1889,1268,34.1016,-1.93961
672,-244,32.224,3.6123,0,0,0,0,0,0,0,-1,1896,1268,32.224,-3.6123
679,-244,27.2593,7.90649,0,0,0,0,0,0,0,-1,1903,1268,27.2592,-7.9065
686,-244,28.0116,8.07593,0,0,0,0,0,0,0,-1,1910,1268,28.0116,-8.07594
693,-244,28.059,7.77368,-0.00100696,-0.000120209,-3.31113e-05,-0.000118975,-0.00100819,-1.53353,0.000636189,0.0202812,1917,1268,28.059,-7.77372
700,-244,28.073,7.38269,0.000661989,-0.000197753,-0.000241092,0.000724981,-0.000260746,-0.255567,0.000589773,0.00888859,1924,1268,28.073,-7.38264
707,-244,28.1035,7.04675,0.00175453,-0.000231877,-0.000755704,0.00200935,-0.000486688,-0.325212,0.00152785,0.00953576,1931,1268,28.1035,-7.04669
714,-244,28.1174,6.71606,0.00130152,-0.000453415,-4.11915e-05,0.00130248,-0.000454382,-0.0234547,0.00105298,0.011844,1938,1268,28.1174,-6.71603
721,-244,28.0679,6.39343,0.00147236,-0.000462293,0.000426684,0.00156228,-0.000552218,0.207713,0.00126638,0.0156533,1945,1268,28.0679,-6.39343
728,-244,28.0784,6.05713,0.00205133,-0.000485509,0.000741666,0.00225225,-0.000686429,0.264553,0.00177511,0.0197038,1952,1268,28.0784,-6.0571
735,-244,28.0669,5.69873,0.00332857,-0.000450205,0.000750332,0.00347211,-0.000593742,0.189015,0.00253593,0.0228764,1959,1268,28.0669,-5.69875
742,-244,28.0125,5.45178,0.00542846,-0.00032473,0.000418022,0.00545867,-0.000354945,0.0721542,0.00376301,0.0166983,1966,1268,28.0125,-5.4518
749,-244,27.9049,5.26196,0.00873364,-5.92681e-05,-0.000330605,0.00874606,-7.16811e-05,-0.0375284,0.00585474,0.0240078,1973,1268,27.9049,-5.26191
756,-244,27.8666,5.00037,0.013905,0.000516508,-0.00187377,0.0141623,0.00025921,-0.136462,0.00935632,0.0322016,1980,1268,27.8666,-5.00033
763,-244,28.1064,4.62158,0.0215684,0.00153082,-0.00447981,0.0225243,0.000574874,-0.210237,0.0148283,0.0425392,1987,1268,28.1064,-4.62161
770,-244,28.7668,3.25574,0,0,0,0,0,0,0,-1,1994,1268,28.7668,-3.25575
777,-244,25.7045,3.07898,0,0,0,0,0,0,0,-1,2001,1268,25.7045,-3.07899
784,-244,31.7908,5.20081,0,0,0,0,0,0,0,-1,2008,1268,31.7907,-5.20083
791,-244,0,0,0,0,0,0,0,0,0,-1,2015,1268,0,0
798,-244,0,0,0,0,0,0,0,0,0,-1,2022,1268,0,0
805,-244,0,0,0,0,0,0,0,0,0,-1,2029,1268,0,0
812,-244,0,0,0,0,0,0,0,0,0,-1,2036,1268,0,0
-700,-251,0,0,0,0,0,0,0,0,0,-1,524,1275,0,0
-693,-251,0,0,0,0,0,0,0,0,0,-1,531,1275,0,0
-686,-251,0,0,0,0,0,0,0,0,0,-1,538,1275,0,0
-679,-251,0,0,0,0,0,0,0,0,0,-1,545,1275,0,0
-672,-251,0,0,0,0,0,0,0,0,0,-1,552,1275,0,0
-665,-251,-22.9258,-3.25146,0,0,0,0,0,0,0,-1,559,1275,-22.9258,3.25143
-658,-251,-21.5661,-2.2854,0,0,0,0,0,0,0,-1,566,1275,-21.5661,2.28545
-651,-251,-19.854,-1.68555,0,0,0,0,0,0,0,-1,573,1275,-19.854,1.68556
-644,-251,-18.838,-0.39502,0.145605,-0.0209907,0.0480992,0.158495,-0.0338805,0.261832,0.118581,0.0478479,580,1275,-18.838,0.395026
-637,-251,-17.8415,0.906006,0.118399,-0.0139814,0.0393512,0.129213,-0.0247955,0.268189,0.0954864,0.045978,587,1275,-17.8415,-0.90602
-630,-251,-17.1024,2.12415,0.0928723,-0.00812005,0.0311926,0.10173,-0.0169774,0.276674,0.0741298,0.0493098,594,1275,-17.1024,-2.12412
-623,-251,-16.5742,2.68542,0,0,0,0,0,0,0,-1,601,1275,-16.5742,-2.68541
-616,-251,-16.8823,2.53491,0.0496607,0.000556977,0.0170727,0.0550132,-0.00479554,0.303807,0.038374,0.0215034,608,1275,-16.8823,-2.53488
-609,-251,-16.896,2.91138,0.0326858,0.00284855,0.0116848,0.0367171,-0.00118278,0.332218,0.0248817,0.0185905,615,1275,-16.896,-2.91143
-602,-251,-16.8974,3.28687,0.0197886,0.00340717,0.00766155,0.0228133,0.000382393,0.376015,0.015083,0.0141974,622,1275,-16.8974,-3.28682
-595,-251,-16.922,3.64807,0.0116858,0.0030551,0.00493654,0.0139272,0.000813645,0.42622,0.00902585,0.0135152,629,1275,-16.922,-3.64807
-588,-251,-16.9421,4.01062,0.00690318,0.00255575,0.00318299,0.00858387,0.000875059,0.485814,0.00545434,0.0154248,636,1275,-16.9421,-4.0106
-581,-251,-16.9475,4.39722,0.00565726,0.00173869,0.00223385,0.00666932,0.000726634,0.425392,0.00422488,0.0141759,643,1275,-16.9475,-4.39723
-574,-251,-16.9435,4.80164,0.00628071,0.00114958,0.00212924,0.00704918,0.000381106,0.346363,0.00457771,0.0130178,650,1275,-16.9435,-4.80166
-567,-251,-16.9513,5.17468,0.00692114,0.000817014,0.00214783,0.00760113,0.00013702,0.306612,0.00502237,0.0115908,657,1275,-16.9513,-5.17469
-560,-251,-16.9257,5.59753,0.00661219,0.00137626,0.00256742,0.00766102,0.000327432,0.387826,0.00500178,0.025183,664,1275,-16.9257,-5.59752
-553,-251,-16.8391,6.00488,0,0,0,0,0,0,0,-1,671,1275,-16.8391,-6.00485
-546,-251,-12.995,4.5675,0,0,0,0,0,0,0,-1,678,1275,-12.995,-4.56745
-539,-251,-10.7916,0.366333,0,0,0,0,0,0,0,-1,685,1275,-10.7916,-0.366282
-532,-251,-10.7391,-0.00769043,0,0,0,0,0,0,0,-1,692,1275,-10.7391,0.00773227
-525,-251,-25.4028,0.97168,0,0,0,0,0,0,0,-1,699,1275,-25.4028,-0.971667
-518,-251,-25.4554,1.33459,0,0,0,0,0,0,0,-1,706,1275,-25.4554,-1.33464
-511,-251,-25.5081,1.69763,0,0,0,0,0,0,0,-1,713,1275,-25.5081,-1.6976
-504,-251,-26.0242,1.1322,0,0,0,0,0,0,0,-1,720,1275,-26.0242,-1.13217
-497,-251,-26.3107,1.48792,0,0,0,0,0,0,0,-1,727,1275,-26.3107,-1.48792
-490,-251,0,0,0,0,0,0,0,0,0,-1,734,1275,0,0
-483,-251,0,0,0,0,0,0,0,0,0,-1,741,1275,0,0
-476,-251,0,0,0,0,0,0,0,0,0,-1,748,1275,0,0
-469,-251,0,0,0,0,0,0,0,0,0,-1,755,1275,0,0
-462,-251,0,0,0,0,0,0,0,0,0,-1,762,1275,0,0
-455,-251,0,0,0,0,0,0,0,0,0,-1,769,1275,0,0
-448,-251,0,0,0,0,0,0,0,0,0,-1,776,1275,0,0
-441,-251,0,0,0,0,0,0,0,0,0,-1,783,1275,0,0
-434,-251,0,0,0,0,0,0,0,0,0,-1,790,1275,0,0
-427,-251,0,0,0,0,0,0,0,0,0,-1,797,1275,0,0
-420,-251,0,0,0,0,0,0,0,0,0,-1,804,1275,0,0
-413,-251,0,0,0,0,0,0,0,0,0,-1,811,1275,0,0
-406,-251,0,0,0,0,0,0,0,0,0,-1,818,1275,0,0
-399,-251,0,0,0,0,0,0,0,0,0,-1,825,1275,0,0
-392,-251,0,0,0,0,0,0,0,0,0,-1,832,1275,0,0
-385,-251,0,0,0,0,0,0,0,0,0,-1,839,1275,0,0
-378,-251,0,0,0,0,0,0,0,0,0,-1,846,1275,0,0
-371,-251,0,0,0,0,0,0,0,0,0,-1,853,1275,0,0
-364,-251,0,0,0,0,0,0,0,0,0,-1,860,1275,0,0
-357,-251,0,0,0,0,0,0,0,0,0,-1,867,1275,0,0
-350,-251,0,0,0,0,0,0,0,0,0,-1,874,1275,0,0
-343,-251,0,0,0,0,0,0,0,0,0,-1,881,1275,0,0
-336,-251,0,0,0,0,0,0,0,0,0,-1,888,1275,0,0
-329,-251,0,0,0,0,0,0,0,0,0,-1,895,1275,0,0
-322,-251,0,0,0,0,0,0,0,0,0,-1,902,1275,0,0
-315,-251,0,0,0,0,0,0,0,0,0,-1,909,1275,0,0
-308,-251,0,0,0,0,0,0,0,0,0,-1,916,1275,0,0
-301,-251,0,0,0,0,0,0,0,0,0,-1,923,1275,0,0
-294,-251,0,0,0,0,0,0,0,0,0,-1,930,1275,0,0
-287,-251,0,0,0,0,0,0,0,0,0,-1,937,1275,0,0
-280,-251,0,0,0,0,0,0,0,0,0,-1,944,1275,0,0
-273,-251,0,0,0,0,0,0,0,0,0,-1,951,1275,0,0
-266,-251,0,0,0,0,0,0,0,0,0,-1,958,1275,0,0
-259,-251,0,0,0,0,0,0,0,0,0,-1,965,1275,0,0
-252,-251,0,0,0,0,0,0,0,0,0,-1,972,1275,0,0
-245,-251,0,0,0,0,0,0,0,0,0,-1,979,1275,0,0
-238,-251,0,0,0,0,0,0,0,0,0,-1,986,1275,0,0
-231,-251,0,0,0,0,0,0,0,0,0,-1,993,1275,0,0
-224,-251,0,0,0,0,0,0,0,0,0,-1,1000,1275,0,0
-217,-251,0,0,0,0,0,0,0,0,0,-1,1007,1275,0,0
-210,-251,0,0,0,0,0,0,0,0,0,-1,1014,1275,0,0
-203,-251,0,0,0,0,0,0,0,0,0,-1,1021,1275,0,0
-196,-251,0,0,0,0,0,0,0,0,0,-1,1028,1275,0,0
-189,-251,0,0,0,0,0,0,0,0,0,-1,1035,1275,0,0
-182,-251,0,0,0,0,0,0,0,0,0,-1,1042,1275,0,0
-175,-251,0,0,0,0,0,0,0,0,0,-1,1049,1275,0,0
-168,-251,0,0,0,0,0,0,0,0,0,-1,1056,1275,0,0
-161,-251,0,0,0,0,0,0,0,0,0,-1,1063,1275,0,0
-154,-251,0,0,0,0,0,0,0,0,0,-1,1070,1275,0,0
-147,-251,0,0,0,0,0,0,0,0,0,-1,1077,1275,0,0
-140,-251,0,0,0,0,0,0,0,0,0,-1,1084,1275,0,0
-133,-251,0,0,0,0,0,0,0,0,0,-1,1091,1275,0,0
-126,-251,0,0,0,0,0,0,0,0,0,-1,1098,1275,0,0
-119,-251,0,0,0,0,0,0,0,0,0,-1,1105,1275,0,0
-112,-251,0,0,0,0,0,0,0,0,0,-1,1112,1275,0,0
-105,-251,0,0,0,0,0,0,0,0,0,-1,1119,1275,0,0
-98,-251,0,0,0,0,0,0,0,0,0,-1,1126,1275,0,0
-91,-251,0,0,0,0,0,0,0,0,0,-1,1133,1275,0,0
-84,-251,0,0,0,0,0,0,0,0,0,-1,1140,1275,0,0
-77,-251,0,0,0,0,0,0,0,0,0,-1,1147,1275,0,0
-70,-251,0,0,0,0,0,0,0,0,0,-1,1154,1275,0,0
-63,-251,0,0,0,0,0,0,0,0,0,-1,1161,1275,0,0
-56,-251,0,0,0,0,0,0,0,0,0,-1,1168,1275,0,0
-49,-251,0,0,0,0,0,0,0,0,0,-1,1175,1275,0,0
-42,-251,0,0,0,0,0,0,0,0,0,-1,1182,1275,0,0
-35,-251,0,0,0,0,0,0,0,0,0,-1,1189,1275,0,0
-28,-251,0,0,0,0,0,0,0,0,0,-1,1196,1275,0,0
-21,-251,0,0,0,0,0,0,0,0,0,-1,1203,1275,0,0
-14,-251,0,0,0,0,0,0,0,0,0,-1,1210,1275,0,0
-7,-251,0,0,0,0,0,0,0,0,0,-1,1217,1275,0,0
0,-251,0,0,0,0,0,0,0,0,0,-1,1224,1275,0,0
7,-251,0,0,0,0,0,0,0,0,0,-1,1231,1275,0,0
14,-251,0,0,0,0,0,0,0,0,0,-1,1238,1275,0,0
21,-251,0,0,0,0,0,0,0,0,0,-1,1245,1275,0,0
28,-251,0,0,0,0,0,0,0,0,0,-1,1252,1275,0,0
35,-251,0,0,0,0,0,0,0,0,0,-1,1259,1275,0,0
42,-251,0,0,0,0,0,0,0,0,0,-1,1266,1275,0,0
49,-251,0,0,0,0,0,0,0,0,0,-1,1273,1275,0,0
56,-251,0,0,0,0,0,0,0,0,0,-1,1280,1275,0,0
63,-251,0,0,0,0,0,0,0,0,0,-1,1287,1275,0,0
70,-251,0,0,0,0,0,0,0,0,0,-1,1294,1275,0,0
77,-251,0,0,0,0,0,0,0,0,0,-1,1301,1275,0,0
84,-251,0,0,0,0,0,0,0,0,0,-1,1308,1275,0,0
91,-251,0,0,0,0,0,0,0,0,0,-1,1315,1275,0,0
98,-251,0,0,0,0,0,0,0,0,0,-1,1322,1275,0,0
105,-251,0,0,0,0,0,0,0,0,0,-1,1329,1275,0,0
112,-251,0,0,0,0,0,0,0,0,0,-1,1336,1275,0,0
119,-251,0,0,0,0,0,0,0,0,0,-1,1343,1275,0,0
126,-251,0,0,0,0,0,0,0,0,0,-1,1350,1275,0,0
133,-251,0,0,0,0,0,0,0,0,0,-1,1357,1275,0,0
140,-251,0,0,0,0,0,0,0,0,0,-1,1364,1275,0,0
147,-251,0,0,0,0,0,0,0,0,0,-1,1371,1275,0,0
154,-251,0,0,0,0,0,0,0,0,0,-1,1378,1275,0,0
161,-251,0,0,0,0,0,0,0,0,0,-1,1385,1275,0,0
168,-251,0,0,0,0,0,0,0,0,0,-1,1392,1275,0,0
175,-251,0,0,0,0,0,0,0,0,0,-1,1399,1275,0,0
182,-251,0,0,0,0,0,0,0,0,0,-1,1406,1275,0,0
189,-251,0,0,0,0,0,0,0,0,0,-1,1413,1275,0,0
196,-251,0,0,0,0,0,0,0,0,0,-1,1420,1275,0,0
203,-251,0,0,0,0,0,0,0,0,0,-1,1427,1275,0,0
210,-251,0,0,0,0,0,0,0,0,0,-1,1434,1275,0,0
217,-251,0,0,0,0,0,0,0,0,0,-1,1441,1275,0,0
224,-251,0,0,0,0,0,0,0,0,0,-1,1448,1275,0,0
231,-251,0,0,0,0,0,0,0,0,0,-1,1455,1275,0,0
238,-251,0,0,0,0,0,0,0,0,0,-1,1462,1275,0,0
245,-251,0,0,0,0,0,0,0,0,0,-1,1469,1275,0,0
252,-251,0,0,0,0,0,0,0,0,0,-1,1476,1275,0,0
259,-251,0,0,0,0,0,0,0,0,0,-1,1483,1275,0,0
266,-251,0,0,0,0,0,0,0,0,0,-1,1490,1275,0,0
273,-251,0,0,0,0,0,0,0,0,0,-1,1497,1275,0,0
280,-251,0,0,0,0,0,0,0,0,0,-1,1504,1275,0,0
287,-251,0,0,0,0,0,0,0,0,0,-1,1511,1275,0,0
294,-251,0,0,0,0,0,0,0,0,0,-1,1518,1275,0,0
301,-251,0,0,0,0,0,0,0,0,0,-1,1525,1275,0,0
308,-251,0,0,0,0,0,0,0,0,0,-1,1532,1275,0,0
315,-251,0,0,0,0,0,0,0,0,0,-1,1539,1275,0,0
322,-251,0,0,0,0,0,0,0,0,0,-1,1546,1275,0,0
329,-251,0,0,0,0,0,0,0,0,0,-1,1553,1275,0,0
336,-251,0,0,0,0,0,0,0,0,0,-1,1560,1275,0,0
343,-251,0,0,0,0,0,0,0,0,0,-1,1567,1275,0,0
350,-251,0,0,0,0,0,0,0,0,0,-1,1574,1275,0,0
357,-251,0,0,0,0,0,0,0,0,0,-1,1581,1275,0,0
364,-251,0,0,0,0,0,0,0,0,0,-1,1588,1275,0,0
371,-251,0,0,0,0,0,0,0,0,0,-1,1595,1275,0,0
378,-251,0,0,0,0,0,0,0,0,0,-1,1602,1275,0,0
385,-251,0,0,0,0,0,0,0,0,0,-1,1609,1275,0,0
392,-251,0,0,0,0,0,0,0,0,0,-1,1616,1275,0,0
399,-251,0,0,0,0,0,0,0,0,0,-1,1623,1275,0,0
406,-251,0,0,0,0,0,0,0,0,0,-1,1630,1275,0,0
413,-251,0,0,0,0,0,0,0,0,0,-1,1637,1275,0,0
420,-251,0,0,0,0,0,0,0,0,0,-1,1644,1275,0,0
427,-251,0,0,0,0,0,0,0,0,0,-1,1651,1275,0,0
434,-251,0,0,0,0,0,0,0,0,0,-1,1658,1275,0,0
441,-251,0,0,0,0,0,0,0,0,0,-1,1665,1275,0,0
448,-251,0,0,0,0,0,0,0,0,0,-1,1672,1275,0,0
455,-251,0,0,0,0,0,0,0,0,0,-1,1679,1275,0,0
462,-251,0,0,0,0,0,0,0,0,0,-1,1686,1275,0,0
469,-251,0,0,0,0,0,0,0,0,0,-1,1693,1275,0,0
476,-251,0,0,0,0,0,0,0,0,0,-1,1700,1275,0,0
483,-251,0,0,0,0,0,0,0,0,0,-1,1707,1275,0,0
490,-251,0,0,0,0,0,0,0,0,0,-1,1714,1275,0,0
497,-251,0,0,0,0,0,0,0,0,0,-1,1721,1275,0,0
504,-251,0,0,0,0,0,0,0,0,0,-1,1728,1275,0,0
511,-251,0,0,0,0,0,0,0,0,0,-1,1735,1275,0,0
518,-251,0,0,0,0,0,0,0,0,0,-1,1742,1275,0,0
525,-251,0,0,0,0,0,0,0,0,0,-1,1749,1275,0,0
532,-251,0,0,0,0,0,0,0,0,0,-1,1756,1275,0,0
539,-251,0,0,0,0,0,0,0,0,0,-1,1763,1275,0,0
546,-251,0,0,0,0,0,0,0,0,0,-1,1770,1275,0,0
553,-251,0,0,0,0,0,0,0,0,0,-1,1777,1275,0,0
560,-251,0,0,0,0,0,0,0,0,0,-1,1784,1275,0,0
567,-251,0,0,0,0,0,0,0,0,0,-1,1791,1275,0,0
574,-251,0,0,0,0,0,0,0,0,0,-1,1798,1275,0,0
581,-251,0,0,0,0,0,0,0,0,0,-1,1805,1275,0,0
588,-251,0,0,0,0,0,0,0,0,0,-1,1812,1275,0,0
595,-251,0,0,0,0,0,0,0,0,0,-1,1819,1275,0,0
602,-251,0,0,0,0,0,0,0,0,0,-1,1826,1275,0,0
609,-251,36.0627,2.74683,0.000269352,0.00378326,-0.00124599,0.00418022,-0.000127617,-1.26237,0.00283031,0.0317335,1833,1275,36.0627,-2.74678
616,-251,36.0421,2.74182,-0.00358972,0.00435409,0.000967625,0.00447026,-0.00370589,1.45132,0.00472737,0.0263296,1840,1275,36.0421,-2.74183
623,-251,36.0135,2.7738,-0.00765019,0.0049566,0.00318541,0.00571576,-0.00840935,1.33684,0.00820441,0.0229326,1847,1275,36.0135,-2.77385
630,-251,36.0679,2.7688,-0.010404,0.00505641,0.0046254,0.00633455,-0.0116822,1.30119,0.0105536,0.03447,1854,1275,36.0679,-2.76884
637,-251,36.2045,2.75,-0.0106323,0.00442078,0.00480546,0.00582404,-0.0120355,1.28668,0.0105171,0.0404092,1861,1275,36.2044,-2.75003
644,-251,35.9625,2.68799,-0.00902525,0.00346448,0.0042161,0.00475445,-0.0103152,1.27388,0.00889574,0.0474757,1868,1275,35.9625,-2.68803
651,-251,35.0437,2.83423,-0.007325,0.00272749,0.00349344,0.00382229,-0.00841981,1.2671,0.00723221,0.0480716,1875,1275,35.0436,-2.83425
658,-251,35.0505,3.35718,0,0,0,0,0,0,0,-1,1882,1275,35.0505,-3.3572
665,-251,32.9579,2.60229,0,0,0,0,0,0,0,-1,1889,1275,32.9579,-2.60231
672,-251,26.0721,4.53064,0,0,0,0,0,0,0,-1,1896,1275,26.0721,-4.53063
679,-251,27.5984,8.34082,0,0,0,0,0,0,0,-1,1903,1275,27.5984,-8.34081
686,-251,27.6923,8.0979,0,0,0,0,0,0,0,-1,1910,1275,27.6922,-8.09785
693,-251,27.7605,7.75769,-0.00114234,-0.000264584,0.000350984,-0.000141497,-0.00126542,1.23351,0.000800628,0.0122663,1917,1275,27.7605,-7.75766
700,-251,27.7601,7.39587,0.000645743,-0.000286243,7.7317e-05,0.000652114,-0.000292614,0.0822104,0.000558447,0.00919339,1924,1275,27.7601,-7.39588
707,-251,27.7888,7.05286,0.0016701,-0.000283495,-0.000451712,0.00176949,-0.000382884,-0.216576,0.00132585,0.0107138,1931,1275,27.7888,-7.05286
714,-251,27.7891,6.73474,0.0011174,-0.00051606,0.000255277,0.00115637,-0.000555025,0.151469,0.0010082,0.0122846,1938,1275,27.7891,-6.73469
721,-251,27.7297,6.42285,0.00121703,-0.000548725,0.000708871,0.00146639,-0.000798089,0.338257,0.00132624,0.0155975,1945,1275,27.7298,-6.42289
728,-251,27.734,6.10132,0.00169057,-0.000657854,0.0010521,0.00209296,-0.00106025,0.365302,0.00185277,0.0174918,1952,1275,27.734,-6.10137
735,-251,27.736,5.72876,0.00284246,-0.000760346,0.00114269,0.00317431,-0.0010922,0.282641,0.00255918,0.0156878,1959,1275,27.7359,-5.72872
742,-251,27.6552,5.48816,0.00484765,-0.000807439,0.00091135,0.00499089,-0.00095068,0.155899,0.00368526,0.018926,1966,1275,27.6552,-5.4882
749,-251,27.4769,5.38306,0.00817529,-0.000777123,0.000240074,0.00818172,-0.000783557,0.026791,0.00573354,0.0353596,1973,1275,27.477,-5.38308
756,-251,27.5389,5.1615,0.0135378,-0.000504757,-0.00129147,0.0136556,-0.000622543,-0.0909518,0.00931817,0.0488385,1980,1275,27.539,-5.16146
763,-251,28.0396,4.86084,0.0216453,0.000130249,-0.00399708,0.0223638,-0.000588331,-0.177876,0.0151092,0.0499189,1987,1275,28.0395,-4.86079
770,-251,28.6563,4.63074,0,0,0,0,0,0,0,-1,1994,1275,28.6563,-4.63074
777,-251,31.5731,4.33252,0,0,0,0,0,0,0,-1,2001,1275,31.5731,-4.33251
784,-251,32.0776,5.78247,0,0,0,0,0,0,0,-1,2008,1275,32.0776,-5.78247
791,-251,0,0,0,0,0,0,0,0,0,-1,2015,1275,0,0
798,-251,0,0,0,0,0,0,0,0,0,-1,2022,1275,0,0
805,-251,0,0,0,0,0,0,0,0,0,-1,2029,1275,0,0
812,-251,0,0,0,0,0,0,0,0,0,-1,2036,1275,0,0
-700,-258,0,0,0,0,0,0,0,0,0,-1,524,1282,0,0
-693,-258,0,0,0,0,0,0,0,0,0,-1,531,1282,0,0
-686,-258,0,0,0,0,0,0,0,0,0,-1,538,1282,0,0
-679,-258,0,0,0,0,0,0,0,0,0,-1,545,1282,0,0
-672,-258,0,0,0,0,0,0,0,0,0,-1,552,1282,0,0
-665,-258,-15.0148,0.429932,0,0,0,0,0,0,0,-1,559,1282,-15.0148,-0.42996
-658,-258,-14.7435,1.13538,0,0,0,0,0,0,0,-1,566,1282,-14.7435,-1.13538
-651,-258,-19.4603,-1.51855,0,0,0,0,0,0,0,-1,573,1282,-19.4603,1.51859
-644,-258,-18.63,-0.191528,0.152675,-0.0189725,0.0538545,0.168172,-0.0344702,0.280198,0.125197,0.0494632,580,1282,-18.63,0.191527
-637,-258,-17.8501,1.25024,0.124647,-0.0118406,0.044036,0.137621,-0.024815,0.286524,0.10104,0.0445783,587,1282,-17.8501,-1.25025
-630,-258,-16.3924,2.4248,0,0,0,0,0,0,0,-1,594,1282,-16.3924,-2.42476
-623,-258,-16.4269,2.02869,0,0,0,0,0,0,0,-1,601,1282,-16.4269,-2.02873
-616,-258,-16.5068,2.47632,0.0530177,0.00261688,0.0194138,0.0596286,-0.00399398,0.328208,0.0411484,0.0347682,608,1282,-16.5068,-2.47635
-609,-258,-16.5053,2.90771,0.0352463,0.00467954,0.0135041,0.0403575,-0.000431716,0.361834,0.0270501,0.0166884,615,1282,-16.5053,-2.90772
-602,-258,-16.5209,3.28687,0.0217792,0.00498988,0.00907354,0.0257457,0.00102334,0.412121,0.0168331,0.0130106,622,1282,-16.5209,-3.28689
-595,-258,-16.5505,3.65576,0.0131397,0.00436477,0.00599123,0.0161782,0.0013263,0.469354,0.0103717,0.0114109,629,1282,-16.5505,-3.65574
-588,-258,-16.5593,4.04236,0.00768152,0.00367531,0.003922,0.0100823,0.00127449,0.549299,0.00633958,0.0127038,636,1282,-16.5593,-4.04238
-581,-258,-16.5623,4.41418,0.00579556,0.0026821,0.00271493,0.00736841,0.00110925,0.525085,0.00458744,0.0142253,643,1282,-16.5623,-4.41423
-574,-258,-16.5377,4.79919,0.00607128,0.00179094,0.00266098,0.00734595,0.000516271,0.446726,0.0047346,0.0140321,650,1282,-16.5376,-4.79923
-567,-258,-16.5488,5.19556,0.00669738,0.00118605,0.00279796,0.00786884,1.45934e-05,0.396507,0.00524103,0.0141322,657,1282,-16.5488,-5.19558
-560,-258,-16.5603,5.56812,0.00672393,0.00173634,0.00330475,0.00837024,9.00379e-05,0.462176,0.00555039,0.0296125,664,1282,-16.5603,-5.56812
-553,-258,-16.5197,5.92212,0,0,0,0,0,0,0,-1,671,1282,-16.5197,-5.9221
-546,-258,-14.2231,5.92029,0,0,0,0,0,0,0,-1,678,1282,-14.2231,-5.92028
-539,-258,-10.2228,4.05823,0,0,0,0,0,0,0,-1,685,1282,-10.2228,-4.05823
-532,-258,-10.2173,-0.353882,0,0,0,0,0,0,0,-1,692,1282,-10.2173,0.353836
-525,-258,-21.8661,-1.5929,0,0,0,0,0,0,0,-1,699,1282,-21.8661,1.59285
-518,-258,-25.405,1.33008,0,0,0,0,0,0,0,-1,706,1282,-25.405,-1.33002
-511,-258,-23.5061,1.16833,0,0,0,0,0,0,0,-1,713,1282,-23.5061,-1.16833
-504,-258,-22.9178,0.484131,0,0,0,0,0,0,0,-1,720,1282,-22.9178,-0.484106
-497,-258,-17.8047,0.730469,0,0,0,0,0,0,0,-1,727,1282,-17.8048,-0.730489
-490,-258,-15.4346,0.632935,0,0,0,0,0,0,0,-1,734,1282,-15.4346,-0.632917
-483,-258,0,0,0,0,0,0,0,0,0,-1,741,1282,0,0
-476,-258,0,0,0,0,0,0,0,0,0,-1,748,1282,0,0
-469,-258,0,0,0,0,0,0,0,0,0,-1,755,1282,0,0
-462,-258,0,0,0,0,0,0,0,0,0,-1,762,1282,0,0
-455,-258,0,0,0,0,0,0,0,0,0,-1,769,1282,0,0
-448,-258,0,0,0,0,0,0,0,0,0,-1,776,1282,0,0
-441,-258,0,0,0,0,0,0,0,0,0,-1,783,1282,0,0
-434,-258,0,0,0,0,0,0,0,0,0,-1,790,1282,0,0
-427,-258,0,0,0,0,0,0,0,0,0,-1,797,1282,0,0
-420,-258,0,0,0,0,0,0,0,0,0,-1,804,1282,0,0
-413,-258,0,0,0,0,0,0,0,0,0,-1,811,1282,0,0
-406,-258,0,0,0,0,0,0,0,0,0,-1,818,1282,0,0
-399,-258,0,0,0,0,0,0,0,0,0,-1,825,1282,0,0
-392,-258,0,0,0,0,0,0,0,0,0,-1,832,1282,0,0
-385,-258,0,0,0,0,0,0,0,0,0,-1,839,1282,0,0
-378,-258,0,0,0,0,0,0,0,0,0,-1,846,1282,0,0
-371,-258,0,0,0,0,0,0,0,0,0,-1,853,1282,0,0
-364,-258,0,0,0,0,0,0,0,0,0,-1,860,1282,0,0
-357,-258,0,0,0,0,0,0,0,0,0,-1,867,1282,0,0
-350,-258,0,0,0,0,0,0,0,0,0,-1,874,1282,0,0
-343,-258,0,0,0,0,0,0,0,0,0,-1,881,1282,0,0
-336,-258,0,0,0,0,0,0,0,0,0,-1,888,1282,0,0
-329,-258,0,0,0,0,0,0,0,0,0,-1,895,1282,0,0
-322,-258,0,0,0,0,0,0,0,0,0,-1,902,1282,0,0
-315,-258,0,0,0,0,0,0,0,0,0,-1,909,1282,0,0
-308,-258,0,0,0,0,0,0,0,0,0,-1,916,1282,0,0
-301,-258,0,0,0,0,0,0,0,0,0,-1,923,1282,0,0
-294,-258,0,0,0,0,0,0,0,0,0,-1,930,1282,0,0
-287,-258,0,0,0,0,0,0,0,0,0,-1,937,1282,0,0
-280,-258,0,0,0,0,0,0,0,0,0,-1,944,1282,0,0
-273,-258,0,0,0,0,0,0,0,0,0,-1,951,1282,0,0
-266,-258,0,0,0,0,0,0,0,0,0,-1,958,1282,0,0
-259,-258,0,0,0,0,0,0,0,0,0,-1,965,1282,0,0
-252,-258,0,0,0,0,0,0,0,0,0,-1,972,1282,0,0
-245,-258,0,0,0,0,0,0,0,0,0,-1,979,1282,0,0
-238,-258,0,0,0,0,0,0,0,0,0,-1,986,1282,0,0
-231,-258,0,0,0,0,0,0,0,0,0,-1,993,1282,0,0
-224,-258,0,0,0,0,0,0,0,0,0,-1,1000,1282,0,0
-217,-258,0,0,0,0,0,0,0,0,0,-1,1007,1282,0,0
-210,-258,0,0,0,0,0,0,0,0,0,-1,1014,1282,0,0
-203,-258,0,0,0,0,0,0,0,0,0,-1,1021,1282,0,0
-196,-258,0,0,0,0,0,0,0,0,0,-1,1028,1282,0,0
-189,-258,0,0,0,0,0,0,0,0,0,-1,1035,1282,0,0
-182,-258,0,0,0,0,0,0,0,0,0,-1,1042,1282,0,0
-175,-258,0,0,0,0,0,0,0,0,0,-1,1049,1282,0,0
-168,-258,0,0,0,0,0,0,0,0,0,-1,1056,1282,0,0
-161,-258,0,0,0,0,0,0,0,0,0,-1,1063,1282,0,0
-154,-258,0,0,0,0,0,0,0,0,0,-1,1070,1282,0,0
-147,-258,0,0,0,0,0,0,0,0,0,-1,1077,1282,0,0
-140,-258,0,0,0,0,0,0,0,0,0,-1,1084,1282,0,0
-133,-258,0,0,0,0,0,0,0,0,0,-1,1091,1282,0,0
-126,-258,0,0,0,0,0,0,0,0,0,-1,1098,1282,0,0
-119,-258,0,0,0,0,0,0,0,0,0,-1,1105,1282,0,0
-112,-258,0,0,0,0,0,0,0,0,0,-1,1112,1282,0,0
-105,-258,0,0,0,0,0,0,0,0,0,-1,1119,1282,0,0
-98,-258,0,0,0,0,0,0,0,0,0,-1,1126,1282,0,0
-91,-258,0,0,0,0,0,0,0,0,0,-1,1133,1282,0,0
-84,-258,0,0,0,0,0,0,0,0,0,-1,1140,1282,0,0
-77,-258,0,0,0,0,0,0,0,0,0,-1,1147,1282,0,0
-70,-258,0,0,0,0,0,0,0,0,0,-1,1154,1282,0,0
-63,-258,0,0,0,0,0,0,0,0,0,-1,1161,1282,0,0
-56,-258,0,0,0,0,0,0,0,0,0,-1,1168,1282,0,0
-49,-258,0,0,0,0,0,0,0,0,0,-1,1175,1282,0,0
-42,-258,0,0,0,0,0,0,0,0,0,-1,1182,1282,0,0
-35,-258,0,0,0,0,0,0,0,0,0,-1,1189,1282,0,0
-28,-258,0,0,0,0,0,0,0,0,0,-1,1196,1282,0,0
-21,-258,0,0,0,0,0,0,0,0,0,-1,1203,1282,0,0
-14,-258,0,0,0,0,0,0,0,0,0,-1,1210,1282,0,0
-7,-258,0,0,0,0,0,0,0,0,0,-1,1217,1282,0,0
0,-258,0,0,0,0,0,0,0,0,0,-1,1224,1282,0,0
7,-258,0,0,0,0,0,0,0,0,0,-1,1231,1282,0,0
14,-258,0,0,0,0,0,0,0,0,0,-1,1238,1282,0,0
21,-258,0,0,0,0,0,0,0,0,0,-1,1245,1282,0,0
28,-258,0,0,0,0,0,0,0,0,0,-1,1252,1282,0,0
35,-258,0,0,0,0,0,0,0,0,0,-1,1259,1282,0,0
42,-258,0,0,0,0,0,0,0,0,0,-1,1266,1282,0,0
49,-258,0,0,0,0,0,0,0,0,0,-1,1273,1282,0,0
56,-258,0,0,0,0,0,0,0,0,0,-1,1280,1282,0,0
63,-258,0,0,0,0,0,0,0,0,0,-1,1287,1282,0,0
70,-258,0,0,0,0,0,0,0,0,0,-1,1294,1282,0,0
77,-258,0,0,0,0,0,0,0,0,0,-1,1301,1282,0,0
84,-258,0,0,0,0,0,0,0,0,0,-1,1308,1282,0,0
91,-258,0,0,0,0,0,0,0,0,0,-1,1315,1282,0,0
98,-258,0,0,0,0,0,0,0,0,0,-1,1322,1282,0,0
105,-258,0,0,0,0,0,0,0,0,0,-1,1329,1282,0,0
112,-258,0,0,0,0,0,0,0,0,0,-1,1336,1282,0,0
119,-258,0,0,0,0,0,0,0,0,0,-1,1343,1282,0,0
126,-258,0,0,0,0,0,0,0,0,0,-1,1350,1282,0,0
133,-258,0,0,0,0,0,0,0,0,0,-1,1357,1282,0,0
140,-258,0,0,0,0,0,0,0,0,0,-1,1364,1282,0,0
147,-258,0,0,0,0,0,0,0,0,0,-1,1371,1282,0,0
154,-258,0,0,0,0,0,0,0,0,0,-1,1378,1282,0,0
161,-258,0,0,0,0,0,0,0,0,0,-1,1385,1282,0,0
168,-258,0,0,0,0,0,0,0,0,0,-1,1392,1282,0,0
175,-258,0,0,0,0,0,0,0,0,0,-1,1399,1282,0,0
182,-258,0,0,0,0,0,0,0,0,0,-1,1406,1282,0,0
189,-258,0,0,0,0,0,0,0,0,0,-1,1413,1282,0,0
196,-258,0,0,0,0,0,0,0,0,0,-1,1420,1282,0,0
203,-258,0,0,0,0,0,0,0,0,0,-1,1427,1282,0,0
210,-258,0,0,0,0,0,0,0,0,0,-1,1434,1282,0,0
217,-258,0,0,0,0,0,0,0,0,0,-1,1441,1282,0,0
224,-258,0,0,0,0,0,0,0,0,0,-1,1448,1282,0,0
231,-258,0,0,0,0,0,0,0,0,0,-1,1455,1282,0,0
238,-258,0,0,0,0,0,0,0,0,0,-1,1462,1282,0,0
245,-258,0,0,0,0,0,0,0,0,0,-1,1469,1282,0,0
252,-258,0,0,0,0,0,0,0,0,0,-1,1476,1282,0,0
259,-258,0,0,0,0,0,0,0,0,0,-1,1483,1282,0,0
266,-258,0,0,0,0,0,0,0,0,0,-1,1490,1282,0,0
273,-258,0,0,0,0,0,0,0,0,0,-1,1497,1282,0,0
280,-258,0,0,0,0,0,0,0,0,0,-1,1504,1282,0,0
287,-258,0,0,0,0,0,0,0,0,0,-1,1511,1282,0,0
294,-258,0,0,0,0,0,0,0,0,0,-1,1518,1282,0,0
301,-258,0,0,0,0,0,0,0,0,0,-1,1525,1282,0,0
308,-258,0,0,0,0,0,0,0,0,0,-1,1532,1282,0,0
315,-258,0,0,0,0,0,0,0,0,0,-1,1539,1282,0,0
322,-258,0,0,0,0,0,0,0,0,0,-1,1546,1282,0,0
329,-258,0,0,0,0,0,0,0,0,0,-1,1553,1282,0,0
336,-258,0,0,0,0,0,0,0,0,0,-1,1560,1282,0,0
343,-258,0,0,0,0,0,0,0,0,0,-1,1567,1282,0,0
350,-258,0,0,0,0,0,0,0,0,0,-1,1574,1282,0,0
357,-258,0,0,0,0,0,0,0,0,0,-1,1581,1282,0,0
364,-258,0,0,0,0,0,0,0,0,0,-1,1588,1282,0,0
371,-258,0,0,0,0,0,0,0,0,0,-1,1595,1282,0,0
378,-258,0,0,0,0,0,0,0,0,0,-1,1602,1282,0,0
385,-258,0,0,0,0,0,0,0,0,0,-1,1609,1282,0,0
392,-258,0,0,0,0,0,0,0,0,0,-1,1616,1282,0,0
399,-258,0,0,0,0,0,0,0,0,0,-1,1623,1282,0,0
406,-258,0,0,0,0,0,0,0,0,0,-1,1630,1282,0,0
413,-258,0,0,0,0,0,0,0,0,0,-1,1637,1282,0,0
420,-258,0,0,0,0,0,0,0,0,0,-1,1644,1282,0,0
427,-258,0,0,0,0,0,0,0,0,0,-1,1651,1282,0,0
434,-258,0,0,0,0,0,0,0,0,0,-1,1658,1282,0,0
441,-258,0,0,0,0,0,0,0,0,0,-1,1665,1282,0,0
448,-258,0,0,0,0,0,0,0,0,0,-1,1672,1282,0,0
455,-258,0,0,0,0,0,0,0,0,0,-1,1679,1282,0,0
462,-258,0,0,0,0,0,0,0,0,0,-1,1686,1282,0,0
469,-258,0,0,0,0,0,0,0,0,0,-1,1693,1282,0,0
476,-258,0,0,0,0,0,0,0,0,0,-1,1700,1282,0,0
483,-258,0,0,0,0,0,0,0,0,0,-1,1707,1282,0,0
490,-258,0,0,0,0,0,0,0,0,0,-1,1714,1282,0,0
497,-258,0,0,0,0,0,0,0,0,0,-1,1721,1282,0,0
504,-258,0,0,0,0,0,0,0,0,0,-1,1728,1282,0,0
511,-258,0,0,0,0,0,0,0,0,0,-1,1735,1282,0,0
518,-258,0,0,0,0,0,0,0,0,0,-1,1742,1282,0,0
525,-258,0,0,0,0,0,0,0,0,0,-1,1749,1282,0,0
532,-258,0,0,0,0,0,0,0,0,0,-1,1756,1282,0,0
539,-258,0,0,0,0,0,0,0,0,0,-1,1763,1282,0,0
546,-258,0,0,0,0,0,0,0,0,0,-1,1770,1282,0,0
553,-258,0,0,0,0,0,0,0,0,0,-1,1777,1282,0,0
560,-258,0,0,0,0,0,0,0,0,0,-1,1784,1282,0,0
567,-258,0,0,0,0,0,0,0,0,0,-1,1791,1282,0,0
574,-258,0,0,0,0,0,0,0,0,0,-1,1798,1282,0,0
581,-258,0,0,0,0,0,0,0,0,0,-1,1805,1282,0,0
588,-258,0,0,0,0,0,0,0,0,0,-1,1812,1282,0,0
595,-258,0,0,0,0,0,0,0,0,0,-1,1819,1282,0,0
602,-258,0,0,0,0,0,0,0,0,0,-1,1826,1282,0,0
609,-258,36.1012,2.71973,-0.0042895,0.0063687,-0.000335729,0.00637926,-0.00430007,-1.53934,0.00620454,0.0247883,1833,1282,36.1012,-2.71976
616,-258,36.0154,2.73669,-0.00826819,0.00698724,0.00213569,0.00728058,-0.00856154,1.4343,0.00915641,0.0222099,1840,1282,36.0154,-2.73669
623,-258,35.9392,2.70959,-0.0116682,0.0072326,0.00436148,0.00819049,-0.0126261,1.3546,0.0121091,0.0320855,1847,1282,35.9392,-2.70955
630,-258,36.0116,2.70752,-0.0130041,0.00665565,0.00546303,0.00807172,-0.0144202,1.31717,0.013157,0.0443143,1854,1282,36.0116,-2.70752
637,-258,36.114,2.6394,-0.0119624,0.00539721,0.00529517,0.00688489,-0.01345,1.29691,0.0119426,0.0453074,1861,1282,36.1141,-2.63935
644,-258,35.9965,2.76221,0,0,0,0,0,0,0,-1,1868,1282,35.9965,-2.76226
651,-258,34.175,2.84985,0,0,0,0,0,0,0,-1,1875,1282,34.175,-2.84985
658,-258,34.4684,3.25745,0,0,0,0,0,0,0,-1,1882,1282,34.4684,-3.25745
665,-258,31.9969,2.59033,0,0,0,0,0,0,0,-1,1889,1282,31.9969,-2.59034
672,-258,22.703,2.80957,0,0,0,0,0,0,0,-1,1896,1282,22.703,-2.80962
679,-258,26.8693,8.19543,0,0,0,0,0,0,0,-1,1903,1282,26.8692,-8.19548
686,-258,27.3728,8.11975,0,0,0,0,0,0,0,-1,1910,1282,27.3728,-8.11975
693,-258,27.4519,7.76013,-0.00149148,-0.00037946,0.000711713,-3.23189e-05,-0.00183862,1.11699,0.00121512,0.0118747,1917,1282,27.4519,-7.76014
700,-258,27.4384,7.39233,0.000315959,-0.000343594,0.000419148,0.00051951,-0.000547144,0.452085,0.000615902,0.00927084,1924,1282,27.4383,-7.39233
707,-258,27.4478,7.06372,0.00124221,-0.00032715,-5.44661e-05,0.00124409,-0.000329038,-0.0346505,0.000958097,0.0103807,1931,1282,27.4478,-7.06373
714,-258,27.4429,6.74512,0.000706341,-0.000566573,0.000618299,0.000957224,-0.000817456,0.385464,0.00102567,0.0106645,1938,1282,27.4428,-6.74516
721,-258,27.418,6.40454,0.000761584,-0.000622102,0.00106562,0.00134025,-0.00120077,0.497478,0.0014678,0.0142368,1945,1282,27.418,-6.4046
728,-258,27.3972,6.09485,0.00111861,-0.000802068,0.00145891,0.00190489,-0.00158835,0.494319,0.00201958,0.0140436,1952,1282,27.3972,-6.09488
735,-258,27.415,5.76477,0.0020937,-0.00101072,0.00165085,0.00280747,-0.00172449,0.408092,0.00264131,0.0153582,1959,1282,27.415,-5.76481
742,-258,27.3833,5.47693,0.00392709,-0.00119334,0.00153401,0.00435148,-0.00161773,0.269905,0.00356477,0.0190334,1966,1282,27.3833,-5.47696
749,-258,27.2638,5.28784,0.00715742,-0.00136772,0.000974554,0.00726741,-0.00147771,0.112384,0.00540526,0.0370993,1973,1282,27.2639,-5.2878
756,-258,27.1486,4.99829,0,0,0,0,0,0,0,-1,1980,1282,27.1486,-4.99826
763,-258,27.8979,4.75977,0,0,0,0,0,0,0,-1,1987,1282,27.898,-4.75983
770,-258,28.1896,3.72351,0,0,0,0,0,0,0,-1,1994,1282,28.1895,-3.72353
777,-258,31.912,4.83093,0,0,0,0,0,0,0,-1,2001,1282,31.912,-4.8309
784,-258,32.6525,6.43091,0,0,0,0,0,0,0,-1,2008,1282,32.6525,-6.43091
791,-258,0,0,0,0,0,0,0,0,0,-1,2015,1282,0,0
798,-258,0,0,0,0,0,0,0,0,0,-1,2022,1282,0,0
805,-258,0,0,0,0,0,0,0,0,0,-1,2029,1282,0,0
812,-258,0,0,0,0,0,0,0,0,0,-1,2036,1282,0,0
-700,-265,0,0,0,0,0,0,0,0,0,-1,524,1289,0,0
-693,-265,0,0,0,0,0,0,0,0,0,-1,531,1289,0,0
-686,-265,0,0,0,0,0,0,0,0,0,-1,538,1289,0,0
-679,-265,0,0,0,0,0,0,0,0,0,-1,545,1289,0,0
-672,-265,0,0,0,0,0,0,0,0,0,-1,552,1289,0,0
-665,-265,-14.2366,0.0311279,0,0,0,0,0,0,0,-1,559,1289,-14.2366,-0.0310941
-658,-265,-13.7062,0.460083,0,0,0,0,0,0,0,-1,566,1289,-13.7063,-0.460069
-651,-265,-14.5105,0.188477,0,0,0,0,0,0,0,-1,573,1289,-14.5105,-0.188532
-644,-265,-18.6612,-0.0546875,0,0,0,0,0,0,0,-1,580,1289,-18.6612,0.0547028
-637,-265,-17.7704,1.67236,0.129891,-0.00830393,0.0489595,0.145478,-0.0238911,0.308223,0.105852,0.0468265,587,1289,-17.7704,-1.67238
-630,-265,-16.9606,3.31946,0,0,0,0,0,0,0,-1,594,1289,-16.9606,-3.31946
-623,-265,-16.101,1.60669,0,0,0,0,0,0,0,-1,601,1289,-16.101,-1.6067
-616,-265,-16.0953,2.22498,0.0555858,0.00532603,0.0216887,0.063651,-0.00273914,0.356015,0.0433759,0.0418295,608,1289,-16.0953,-2.22498
-609,-265,-16.1302,2.9043,0.0371542,0.00697241,0.0152127,0.0434913,0.000635285,0.394708,0.0287848,0.0187684,615,1289,-16.1303,-2.90433
-602,-265,-16.1573,3.30286,0.0233092,0.00688275,0.010362,0.0283182,0.00187373,0.450283,0.0182862,0.0138875,622,1289,-16.1573,-3.30285
-595,-265,-16.1694,3.69214,0.0142749,0.00586333,0.00690539,0.0181544,0.00198374,0.511873,0.0114989,0.0116275,629,1289,-16.1694,-3.69209
-588,-265,-16.1863,4.06152,0.008295,0.00487599,0.00450784,0.0114066,0.0017644,0.604162,0.00708983,0.0108864,636,1289,-16.1863,-4.06155
-581,-265,-16.1935,4.42212,0.00580617,0.00365683,0.00301247,0.00792993,0.00153308,0.614065,0.00485692,0.0130761,643,1289,-16.1935,-4.42215
-574,-265,-16.1903,4.82874,0.00565913,0.0024298,0.00296138,0.00741743,0.000671503,0.535807,0.00473701,0.0138983,650,1289,-16.1903,-4.82875
-567,-265,-16.2122,5.21472,0.00618992,0.00159098,0.00321561,0.00784364,-6.27374e-05,0.475005,0.00525013,0.0194582,657,1289,-16.2122,-5.21476
-560,-265,-16.2586,5.59424,0.00665523,0.00212038,0.00386606,0.00886973,-9.41148e-05,0.520183,0.00594477,0.0212466,664,1289,-16.2586,-5.5942
-553,-265,-16.1339,6.04297,0.00602545,0.00259038,0.00474691,0.00935599,-0.000740159,0.611815,0.00649811,0.0419241,671,1289,-16.1339,-6.04302
-546,-265,-15.9221,6.4917,0,0,0,0,0,0,0,-1,678,1289,-15.9221,-6.49168
-539,-265,-13.7668,6.39917,0,0,0,0,0,0,0,-1,685,1289,-13.7668,-6.39915
-532,-265,-8.53998,3.41467,0,0,0,0,0,0,0,-1,692,1289,-8.53996,-3.41473
-525,-265,-12.1317,0.514648,0,0,0,0,0,0,0,-1,699,1289,-12.1317,-0.514634
-518,-265,-24.1604,0.712402,0,0,0,0,0,0,0,-1,706,1289,-24.1604,-0.712425
-511,-265,-23.233,0.791626,0,0,0,0,0,0,0,-1,713,1289,-23.233,-0.791617
-504,-265,-22.3056,0.87085,0,0,0,0,0,0,0,-1,720,1289,-22.3056,-0.87081
-497,-265,-18.689,-0.278442,0,0,0,0,0,0,0,-1,727,1289,-18.689,0.278423
-490,-265,-15.1696,0.492676,0,0,0,0,0,0,0,-1,734,1289,-15.1696,-0.492688
-483,-265,0,0,0,0,0,0,0,0,0,-1,741,1289,0,0
-476,-265,0,0,0,0,0,0,0,0,0,-1,748,1289,0,0
-469,-265,0,0,0,0,0,0,0,0,0,-1,755,1289,0,0
-462,-265,0,0,0,0,0,0,0,0,0,-1,762,1289,0,0
-455,-265,0,0,0,0,0,0,0,0,0,-1,769,1289,0,0
-448,-265,0,0,0,0,0,0,0,0,0,-1,776,1289,0,0
-441,-265,0,0,0,0,0,0,0,0,0,-1,783,1289,0,0
-434,-265,0,0,0,0,0,0,0,0,0,-1,790,1289,0,0
-427,-265,0,0,0,0,0,0,0,0,0,-1,797,1289,0,0
-420,-265,0,0,0,0,0,0,0,0,0,-1,804,1289,0,0
-413,-265,0,0,0,0,0,0,0,0,0,-1,811,1289,0,0
-406,-265,0,0,0,0,0,0,0,0,0,-1,818,1289,0,0
-399,-265,0,0,0,0,0,0,0,0,0,-1,825,1289,0,0
-392,-265,0,0,0,0,0,0,0,0,0,-1,832,1289,0,0
-385,-265,0,0,0,0,0,0,0,0,0,-1,839,1289,0,0
-378,-265,0,0,0,0,0,0,0,0,0,-1,846,1289,0,0
-371,-265,0,0,0,0,0,0,0,0,0,-1,853,1289,0,0
-364,-265,0,0,0,0,0,0,0,0,0,-1,860,1289,0,0
-357,-265,0,0,0,0,0,0,0,0,0,-1,867,1289,0,0
-350,-265,0,0,0,0,0,0,0,0,0,-1,874,1289,0,0
-343,-265,0,0,0,0,0,0,0,0,0,-1,881,1289,0,0
-336,-265,0,0,0,0,0,0,0,0,0,-1,888,1289,0,0
-329,-265,0,0,0,0,0,0,0,0,0,-1,895,1289,0,0
-322,-265,0,0,0,0,0,0,0,0,0,-1,902,1289,0,0
-315,-265,0,0,0,0,0,0,0,0,0,-1,909,1289,0,0
-308,-265,0,0,0,0,0,0,0,0,0,-1,916,1289,0,0
-301,-265,0,0,0,0,0,0,0,0,0,-1,923,1289,0,0
-294,-265,0,0,0,0,0,0,0,0,0,-1,930,1289,0,0
-287,-265,0,0,0,0,0,0,0,0,0,-1,937,1289,0,0
-280,-265,0,0,0,0,0,0,0,0,0,-1,944,1289,0,0
-273,-265,0,0,0,0,0,0,0,0,0,-1,951,1289,0,0
-266,-265,0,0,0,0,0,0,0,0,0,-1,958,1289,0,0
-259,-265,0,0,0,0,0,0,0,0,0,-1,965,1289,0,0
-252,-265,0,0,0,0,0,0,0,0,0,-1,972,1289,0,0
-245,-265,0,0,0,0,0,0,0,0,0,-1,979,1289,0,0
-238,-265,0,0,0,0,0,0,0,0,0,-1,986,1289,0,0
-231,-265,0,0,0,0,0,0,0,0,0,-1,993,1289,0,0
-224,-265,0,0,0,0,0,0,0,0,0,-1,1000,1289,0,0
-217,-265,0,0,0,0,0,0,0,0,0,-1,1007,1289,0,0
-210,-265,0,0,0,0,0,0,0,0,0,-1,1014,1289,0,0
-203,-265,0,0,0,0,0,0,0,0,0,-1,1021,1289,0,0
-196,-265,0,0,0,0,0,0,0,0,0,-1,1028,1289,0,0
-189,-265,0,0,0,0,0,0,0,0,0,-1,1035,1289,0,0
-182,-265,0,0,0,0,0,0,0,0,0,-1,1042,1289,0,0
-175,-265,0,0,0,0,0,0,0,0,0,-1,1049,1289,0,0
-168,-265,0,0,0,0,0,0,0,0,0,-1,1056,1289,0,0
-161,-265,0,0,0,0,0,0,0,0,0,-1,1063,1289,0,0
-154,-265,0,0,0,0,0,0,0,0,0,-1,1070,1289,0,0
-147,-265,0,0,0,0,0,0,0,0,0,-1,1077,1289,0,0
-140,-265,0,0,0,0,0,0,0,0,0,-1,1084,1289,0,0
-133,-265,0,0,0,0,0,0,0,0,0,-1,1091,1289,0,0
-126,-265,0,0,0,0,0,0,0,0,0,-1,1098,1289,0,0
-119,-265,0,0,0,0,0,0,0,0,0,-1,1105,1289,0,0
-112,-265,0,0,0,0,0,0,0,0,0,-1,1112,1289,0,0
-105,-265,0,0,0,0,0,0,0,0,0,-1,1119,1289,0,0
-98,-265,0,0,0,0,0,0,0,0,0,-1,1126,1289,0,0
-91,-265,0,0,0,0,0,0,0,0,0,-1,1133,1289,0,0
-84,-265,0,0,0,0,0,0,0,0,0,-1,1140,1289,0,0
-77,-265,0,0,0,0,0,0,0,0,0,-1,1147,1289,0,0
-70,-265,0,0,0,0,0,0,0,0,0,-1,1154,1289,0,0
-63,-265,0,0,0,0,0,0,0,0,0,-1,1161,1289,0,0
-56,-265,0,0,0,0,0,0,0,0,0,-1,1168,1289,0,0
-49,-265,0,0,0,0,0,0,0,0,0,-1,1175,1289,0,0
-42,-265,0,0,0,0,0,0,0,0,0,-1,1182,1289,0,0
-35,-265,0,0,0,0,0,0,0,0,0,-1,1189,1289,0,0
-28,-265,0,0,0,0,0,0,0,0,0,-1,1196,1289,0,0
-21,-265,0,0,0,0,0,0,0,0,0,-1,1203,1289,0,0
-14,-265,0,0,0,0,0,0,0,0,0,-1,1210,1289,0,0
-7,-265,0,0,0,0,0,0,0,0,0,-1,1217,1289,0,0
0,-265,0,0,0,0,0,0,0,0,0,-1,1224,1289,0,0
7,-265,0,0,0,0,0,0,0,0,0,-1,1231,1289,0,0
14,-265,0,0,0,0,0,0,0,0,0,-1,1238,1289,0,0
21,-265,0,0,0,0,0,0,0,0,0,-1,1245,1289,0,0
28,-265,0,0,0,0,0,0,0,0,0,-1,1252,1289,0,0
35,-265,0,0,0,0,0,0,0,0,0,-1,1259,1289,0,0
42,-265,0,0,0,0,0,0,0,0,0,-1,1266,1289,0,0
49,-265,0,0,0,0,0,0,0,0,0,-1,1273,1289,0,0
56,-265,0,0,0,0,0,0,0,0,0,-1,1280,1289,0,0
63,-265,0,0,0,0,0,0,0,0,0,-1,1287,1289,0,0
70,-265,0,0,0,0,0,0,0,0,0,-1,1294,1289,0,0
77,-265,0,0,0,0,0,0,0,0,0,-1,1301,1289,0,0
84,-265,0,0,0,0,0,0,0,0,0,-1,1308,1289,0,0
91,-265,0,0,0,0,0,0,0,0,0,-1,1315,1289,0,0
98,-265,0,0,0,0,0,0,0,0,0,-1,1322,1289,0,0
105,-265,0,0,0,0,0,0,0,0,0,-1,1329,1289,0,0
112,-265,0,0,0,0,0,0,0,0,0,-1,1336,1289,0,0
119,-265,0,0,0,0,0,0,0,0,0,-1,1343,1289,0,0
126,-265,0,0,0,0,0,0,0,0,0,-1,1350,1289,0,0
133,-265,0,0,0,0,0,0,0,0,0,-1,1357,1289,0,0
140,-265,0,0,0,0,0,0,0,0,0,-1,1364,1289,0,0
147,-265,0,0,0,0,0,0,0,0,0,-1,1371,1289,0,0
154,-265,0,0,0,0,0,0,0,0,0,-1,1378,1289,0,0
161,-265,0,0,0,0,0,0,0,0,0,-1,1385,1289,0,0
168,-265,0,0,0,0,0,0,0,0,0,-1,1392,1289,0,0
175,-265,0,0,0,0,0,0,0,0,0,-1,1399,1289,0,0
182,-265,0,0,0,0,0,0,0,0,0,-1,1406,1289,0,0
189,-265,0,0,0,0,0,0,0,0,0,-1,1413,1289,0,0
196,-265,0,0,0,0,0,0,0,0,0,-1,1420,1289,0,0
203,-265,0,0,0,0,0,0,0,0,0,-1,1427,1289,0,0
210,-265,0,0,0,0,0,0,0,0,0,-1,1434,1289,0,0
217,-265,0,0,0,0,0,0,0,0,0,-1,1441,1289,0,0
224,-265,0,0,0,0,0,0,0,0,0,-1,1448,1289,0,0
231,-265,0,0,0,0,0,0,0,0,0,-1,1455,1289,0,0
238,-265,0,0,0,0,0,0,0,0,0,-1,1462,1289,0,0
245,-265,0,0,0,0,0,0,0,0,0,-1,1469,1289,0,0
252,-265,0,0,0,0,0,0,0,0,0,-1,1476,1289,0,0
259,-265,0,0,0,0,0,0,0,0,0,-1,1483,1289,0,0
266,-265,0,0,0,0,0,0,0,0,0,-1,1490,1289,0,0
273,-265,0,0,0,0,0,0,0,0,0,-1,1497,1289,0,0
280,-265,0,0,0,0,0,0,0,0,0,-1,1504,1289,0,0
287,-265,0,0,0,0,0,0,0,0,0,-1,1511,1289,0,0
294,-265,0,0,0,0,0,0,0,0,0,-1,1518,1289,0,0
301,-265,0,0,0,0,0,0,0,0,0,-1,1525,1289,0,0
308,-265,0,0,0,0,0,0,0,0,0,-1,1532,1289,0,0
315,-265,0,0,0,0,0,0,0,0,0,-1,1539,1289,0,0
322,-265,0,0,0,0,0,0,0,0,0,-1,1546,1289,0,0
329,-265,0,0,0,0,0,0,0,0,0,-1,1553,1289,0,0
336,-265,0,0,0,0,0,0,0,0,0,-1,1560,1289,0,0
343,-265,0,0,0,0,0,0,0,0,0,-1,1567,1289,0,0
350,-265,0,0,0,0,0,0,0,0,0,-1,1574,1289,0,0
357,-265,0,0,0,0,0,0,0,0,0,-1,1581,1289,0,0
364,-265,0,0,0,0,0,0,0,0,0,-1,1588,1289,0,0
371,-265,0,0,0,0,0,0,0,0,0,-1,1595,1289,0,0
378,-265,0,0,0,0,0,0,0,0,0,-1,1602,1289,0,0
385,-265,0,0,0,0,0,0,0,0,0,-1,1609,1289,0,0
392,-265,0,0,0,0,0,0,0,0,0,-1,1616,1289,0,0
399,-265,0,0,0,0,0,0,0,0,0,-1,1623,1289,0,0
406,-265,0,0,0,0,0,0,0,0,0,-1,1630,1289,0,0
413,-265,0,0,0,0,0,0,0,0,0,-1,1637,1289,0,0
420,-265,0,0,0,0,0,0,0,0,0,-1,1644,1289,0,0
427,-265,0,0,0,0,0,0,0,0,0,-1,1651,1289,0,0
434,-265,0,0,0,0,0,0,0,0,0,-1,1658,1289,0,0
441,-265,0,0,0,0,0,0,0,0,0,-1,1665,1289,0,0
448,-265,0,0,0,0,0,0,0,0,0,-1,1672,1289,0,0
455,-265,0,0,0,0,0,0,0,0,0,-1,1679,1289,0,0
462,-265,0,0,0,0,0,0,0,0,0,-1,1686,1289,0,0
469,-265,0,0,0,0,0,0,0,0,0,-1,1693,1289,0,0
476,-265,0,0,0,0,0,0,0,0,0,-1,1700,1289,0,0
483,-265,0,0,0,0,0,0,0,0,0,-1,1707,1289,0,0
490,-265,0,0,0,0,0,0,0,0,0,-1,1714,1289,0,0
497,-265,0,0,0,0,0,0,0,0,0,-1,1721,1289,0,0
504,-265,0,0,0,0,0,0,0,0,0,-1,1728,1289,0,0
511,-265,0,0,0,0,0,0,0,0,0,-1,1735,1289,0,0
518,-265,0,0,0,0,0,0,0,0,0,-1,1742,1289,0,0
525,-265,0,0,0,0,0,0,0,0,0,-1,1749,1289,0,0
532,-265,0,0,0,0,0,0,0,0,0,-1,1756,1289,0,0
539,-265,0,0,0,0,0,0,0,0,0,-1,1763,1289,0,0
546,-265,0,0,0,0,0,0,0,0,0,-1,1770,1289,0,0
553,-265,0,0,0,0,0,0,0,0,0,-1,1777,1289,0,0
560,-265,0,0,0,0,0,0,0,0,0,-1,1784,1289,0,0
567,-265,0,0,0,0,0,0,0,0,0,-1,1791,1289,0,0
574,-265,0,0,0,0,0,0,0,0,0,-1,1798,1289,0,0
581,-265,0,0,0,0,0,0,0,0,0,-1,1805,1289,0,0
588,-265,0,0,0,0,0,0,0,0,0,-1,1812,1289,0,0
595,-265,0,0,0,0,0,0,0,0,0,-1,1819,1289,0,0
602,-265,36.0155,2.77344,-0.00575355,0.00898472,-0.00160366,0.00915719,-0.00592602,-1.46366,0.00877465,0.0281942,1826,1289,36.0154,-2.77341
609,-265,36.045,2.69299,-0.00947083,0.009649,0.000793798,0.0096819,-0.00950373,1.52937,0.011077,0.0260436,1833,1289,36.0451,-2.69302
616,-265,35.9904,2.72681,-0.0132759,0.0101105,0.00339652,0.0105938,-0.0137592,1.42945,0.0140998,0.0296169,1840,1289,35.9904,-2.72681
623,-265,35.8804,2.66833,-0.0153037,0.00963738,0.00529883,0.0107164,-0.0163828,1.3699,0.0157594,0.0435319,1847,1289,35.8804,-2.66828
630,-265,35.7524,2.77136,-0.0149169,0.00827984,0.00585402,0.00967346,-0.0163105,1.33708,0.0151641,0.0457023,1854,1289,35.7525,-2.77138
637,-265,35.8528,2.56262,-0.0129295,0.00655482,0.00541648,0.00795932,-0.014334,1.31708,0.0130453,0.0450655,1861,1289,35.8528,-2.56261
644,-265,36.1312,2.22754,0,0,0,0,0,0,0,-1,1868,1289,36.1313,-2.22756
651,-265,33.0018,2.61646,0,0,0,0,0,0,0,-1,1875,1289,33.0019,-2.6165
658,-265,32.7052,2.53784,0,0,0,0,0,0,0,-1,1882,1289,32.7052,-2.53779
665,-265,31.3497,2.93079,0,0,0,0,0,0,0,-1,1889,1289,31.3497,-2.93077
672,-265,20.0045,6.62671,0,0,0,0,0,0,0,-1,1896,1289,20.0045,-6.62668
679,-265,26.9994,8.48779,0,0,0,0,0,0,0,-1,1903,1289,26.9994,-8.48774
686,-265,27.0638,8.1189,-0.00204883,-0.00016296,0.00145104,0.000624608,-0.00283639,1.07353,0.00212988,0.0289826,1910,1289,27.0639,-8.11892
693,-265,27.1091,7.76624,-0.00156041,-0.000319797,0.000788842,6.3416e-05,-0.00194362,1.11858,0.0013174,0.0101562,1917,1289,27.1092,-7.76627
700,-265,27.11,7.41382,0.000116972,-0.00024295,0.000554024,0.000519531,-0.000645509,0.628361,0.000673945,0.0101072,1924,1289,27.11,-7.41384
707,-265,27.1169,7.06799,0.00084988,-0.000248889,0.000252185,0.000904996,-0.000304005,0.21517,0.000726196,0.00933258,1931,1289,27.117,-7.06794
714,-265,27.0991,6.74536,0.000348645,-0.000534381,0.000926644,0.000933584,-0.00111932,0.563077,0.00118686,0.00979378,1938,1289,27.0991,-6.7454
721,-265,27.0775,6.40967,0.000312765,-0.000637402,0.0014162,0.00133144,-0.00165608,0.623565,0.00172824,0.0106774,1945,1289,27.0775,-6.40967
728,-265,27.0569,6.09277,0.000504787,-0.000905763,0.00190207,0.00182813,-0.00222911,0.60786,0.00234626,0.0130867,1952,1289,27.0569,-6.09273
735,-265,27.0867,5.77563,0.00124927,-0.00123085,0.00222464,0.00255612,-0.00253771,0.531138,0.00294093,0.0166774,1959,1289,27.0867,-5.77563
742,-265,27.1088,5.45789,0.00282715,-0.00157215,0.00225733,0.00377933,-0.00252432,0.399169,0.00366338,0.020471,1966,1289,27.1088,-5.45785
749,-265,27.0721,5.17749,0.00580799,-0.0019987,0.00187345,0.0062343,-0.00242501,0.223744,0.00515819,0.0444876,1973,1289,27.0721,-5.17743
756,-265,27.1265,4.89014,0,0,0,0,0,0,0,-1,1980,1289,27.1264,-4.8901
763,-265,27.5735,3.68811,0,0,0,0,0,0,0,-1,1987,1289,27.5735,-3.68807
770,-265,26.0203,3.4718,0,0,0,0,0,0,0,-1,1994,1289,26.0203,-3.47181
777,-265,32.1664,5.3457,0,0,0,0,0,0,0,-1,2001,1289,32.1664,-5.34568
784,-265,0,0,0,0,0,0,0,0,0,-1,2008,1289,0,0
791,-265,0,0,0,0,0,0,0,0,0,-1,2015,1289,0,0
798,-265,0,0,0,0,0,0,0,0,0,-1,2022,1289,0,0
805,-265,0,0,0,0,0,0,0,0,0,-1,2029,1289,0,0
812,-265,0,0,0,0,0,0,0,0,0,-1,2036,1289,0,0
-700,-272,0,0,0,0,0,0,0,0,0,-1,524,1296,0,0
-693,-272,0,0,0,0,0,0,0,0,0,-1,531,1296,0,0
-686,-272,0,0,0,0,0,0,0,0,0,-1,538,1296,0,0
-679,-272,0,0,0,0,0,0,0,0,0,-1,545,1296,0,0
-672,-272,0,0,0,0,0,0,0,0,0,-1,552,1296,0,0
-665,-272,0,0,0,0,0,0,0,0,0,-1,559,1296,0,0
-658,-272,-13.7506,0.696777,0,0,0,0,0,0,0,-1,566,1296,-13.7506,-0.69681
-651,-272,-13.9782,0.694336,0,0,0,0,0,0,0,-1,573,1296,-13.9782,-0.694381
-644,-272,-19.1806,0.587158,0,0,0,0,0,0,0,-1,580,1296,-19.1806,-0.587141
-637,-272,-17.827,1.83655,0,0,0,0,0,0,0,-1,587,1296,-17.827,-1.83656
-630,-272,-16.4734,3.08594,0,0,0,0,0,0,0,-1,594,1296,-16.4735,-3.08598
-623,-272,-15.3936,1.8335,0,0,0,0,0,0,0,-1,601,1296,-15.3935,-1.83355
-616,-272,-15.5834,2.30444,0,0,0,0,0,0,0,-1,608,1296,-15.5834,-2.30444
-609,-272,-15.7055,3.06702,0.0386761,0.00957219,0.016785,0.0463389,0.00190936,0.428269,0.0302762,0.0245394,615,1296,-15.7055,-3.06699
-602,-272,-15.7652,3.31421,0.0245664,0.00889255,0.0115034,0.0306488,0.00281019,0.486376,0.0195632,0.0143797,622,1296,-15.7652,-3.31425
-595,-272,-15.7896,3.7124,0.0152313,0.00732437,0.00766912,0.019906,0.00264965,0.547412,0.0124815,0.0108595,629,1296,-15.7896,-3.71238
-588,-272,-15.7981,4.07874,0.00887355,0.00589989,0.00494252,0.012548,0.0022254,0.639292,0.00773107,0.0101927,636,1296,-15.7981,-4.07878
-581,-272,-15.8226,4.43115,0.00581864,0.00436993,0.00315451,0.00833089,0.00185767,0.672542,0.00504991,0.00995575,643,1296,-15.8226,-4.43113
-574,-272,-15.8339,4.81885,0.00520369,0.00275387,0.00300689,0.00722559,0.000731966,0.591977,0.00459256,0.0149353,650,1296,-15.8338,-4.81882
-567,-272,-15.8387,5.2113,0.00552433,0.00166461,0.003257,0.00738029,-0.000191343,0.517945,0.0049852,0.020046,657,1296,-15.8388,-5.21135
-560,-272,-15.8731,5.61316,0.00623845,0.00197762,0.00403039,0.00866684,-0.000450775,0.54227,0.00593386,0.0188157,664,1296,-15.8731,-5.61317
-553,-272,-15.8087,5.98303,0.00632174,0.00257176,0.00522869,0.0100015,-0.00110796,0.613242,0.00706598,0.0180427,671,1296,-15.8087,-5.98308
-546,-272,-15.654,6.44373,0.00535469,0.00280531,0.00644984,0.0106546,-0.00249459,0.68784,0.00806424,0.0333159,678,1296,-15.654,-6.44376
-539,-272,-15.7772,6.97363,0,0,0,0,0,0,0,-1,685,1296,-15.7772,-6.97364
-532,-272,-10.5572,4.53943,0,0,0,0,0,0,0,-1,692,1296,-10.5572,-4.53943
-525,-272,-11.9599,0.0393066,0,0,0,0,0,0,0,-1,699,1296,-11.9599,-0.0393577
-518,-272,-21.1357,-1.41382,0,0,0,0,0,0,0,-1,706,1296,-21.1357,1.41379
-511,-272,-23.2565,0.226318,0,0,0,0,0,0,0,-1,713,1296,-23.2565,-0.22626
-504,-272,-19.7397,0.114746,0,0,0,0,0,0,0,-1,720,1296,-19.7397,-0.114701
-497,-272,-19.2225,1.71301,0,0,0,0,0,0,0,-1,727,1296,-19.2225,-1.71302
-490,-272,-20.1948,2.4032,0,0,0,0,0,0,0,-1,734,1296,-20.1948,-2.40322
-483,-272,-15.3736,0.792603,0,0,0,0,0,0,0,-1,741,1296,-15.3736,-0.79263
-476,-272,0,0,0,0,0,0,0,0,0,-1,748,1296,0,0
-469,-272,0,0,0,0,0,0,0,0,0,-1,755,1296,0,0
-462,-272,0,0,0,0,0,0,0,0,0,-1,762,1296,0,0
-455,-272,0,0,0,0,0,0,0,0,0,-1,769,1296,0,0
-448,-272,0,0,0,0,0,0,0,0,0,-1,776,1296,0,0
-441,-272,0,0,0,0,0,0,0,0,0,-1,783,1296,0,0
-434,-272,0,0,0,0,0,0,0,0,0,-1,790,1296,0,0
-427,-272,0,0,0,0,0,0,0,0,0,-1,797,1296,0,0
-420,-272,0,0,0,0,0,0,0,0,0,-1,804,1296,0,0
-413,-272,0,0,0,0,0,0,0,0,0,-1,811,1296,0,0
-406,-272,0,0,0,0,0,0,0,0,0,-1,818,1296,0,0
-399,-272,0,0,0,0,0,0,0,0,0,-1,825,1296,0,0
-392,-272,0,0,0,0,0,0,0,0,0,-1,832,1296,0,0
-385,-272,0,0,0,0,0,0,0,0,0,-1,839,1296,0,0
-378,-272,0,0,0,0,0,0,0,0,0,-1,846,1296,0,0
-371,-272,0,0,0,0,0,0,0,0,0,-1,853,1296,0,0
-364,-272,0,0,0,0,0,0,0,0,0,-1,860,1296,0,0
-357,-272,0,0,0,0,0,0,0,0,0,-1,867,1296,0,0
-350,-272,0,0,0,0,0,0,0,0,0,-1,874,1296,0,0
-343,-272,0,0,0,0,0,0,0,0,0,-1,881,1296,0,0
-336,-272,0,0,0,0,0,0,0,0,0,-1,888,1296,0,0
-329,-272,0,0,0,0,0,0,0,0,0,-1,895,1296,0,0
-322,-272,0,0,0,0,0,0,0,0,0,-1,902,1296,0,0
-315,-272,0,0,0,0,0,0,0,0,0,-1,909,1296,0,0
-308,-272,0,0,0,0,0,0,0,0,0,-1,916,1296,0,0
-301,-272,0,0,0,0,0,0,0,0,0,-1,923,1296,0,0
-294,-272,0,0,0,0,0,0,0,0,0,-1,930,1296,0,0
-287,-272,0,0,0,0,0,0,0,0,0,-1,937,1296,0,0
-280,-272,0,0,0,0,0,0,0,0,0,-1,944,1296,0,0
-273,-272,0,0,0,0,0,0,0,0,0,-1,951,1296,0,0
-266,-272,0,0,0,0,0,0,0,0,0,-1,958,1296,0,0
-259,-272,0,0,0,0,0,0,0,0,0,-1,965,1296,0,0
-252,-272,0,0,0,0,0,0,0,0,0,-1,972,1296,0,0
-245,-272,0,0,0,0,0,0,0,0,0,-1,979,1296,0,0
-238,-272,0,0,0,0,0,0,0,0,0,-1,986,1296,0,0
-231,-272,0,0,0,0,0,0,0,0,0,-1,993,1296,0,0
-224,-272,0,0,0,0,0,0,0,0,0,-1,1000,1296,0,0
-217,-272,0,0,0,0,0,0,0,0,0,-1,1007,1296,0,0
-210,-272,0,0,0,0,0,0,0,0,0,-1,1014,1296,0,0
-203,-272,0,0,0,0,0,0,0,0,0,-1,1021,1296,0,0
-196,-272,0,0,0,0,0,0,0,0,0,-1,1028,1296,0,0
-189,-272,0,0,0,0,0,0,0,0,0,-1,1035,1296,0,0
-182,-272,0,0,0,0,0,0,0,0,0,-1,1042,1296,0,0
-175,-272,0,0,0,0,0,0,0,0,0,-1,1049,1296,0,0
-168,-272,0,0,0,0,0,0,0,0,0,-1,1056,1296,0,0
-161,-272,0,0,0,0,0,0,0,0,0,-1,1063,1296,0,0
-154,-272,0,0,0,0,0,0,0,0,0,-1,1070,1296,0,0
-147,-272,0,0,0,0,0,0,0,0,0,-1,1077,1296,0,0
-140,-272,0,0,0,0,0,0,0,0,0,-1,1084,1296,0,0
-133,-272,0,0,0,0,0,0,0,0,0,-1,1091,1296,0,0
-126,-272,0,0,0,0,0,0,0,0,0,-1,1098,1296,0,0
-119,-272,0,0,0,0,0,0,0,0,0,-1,1105,1296,0,0
-112,-272,0,0,0,0,0,0,0,0,0,-1,1112,1296,0,0
-105,-272,0,0,0,0,0,0,0,0,0,-1,1119,1296,0,0
-98,-272,0,0,0,0,0,0,0,0,0,-1,1126,1296,0,0
-91,-272,0,0,0,0,0,0,0,0,0,-1,1133,1296,0,0
-84,-272,0,0,0,0,0,0,0,0,0,-1,1140,1296,0,0
-77,-272,0,0,0,0,0,0,0,0,0,-1,1147,1296,0,0
-70,-272,0,0,0,0,0,0,0,0,0,-1,1154,1296,0,0
-63,-272,0,0,0,0,0,0,0,0,0,-1,1161,1296,0,0
-56,-272,0,0,0,0,0,0,0,0,0,-1,1168,1296,0,0
-49,-272,0,0,0,0,0,0,0,0,0,-1,1175,1296,0,0
-42,-272,0,0,0,0,0,0,0,0,0,-1,1182,1296,0,0
-35,-272,0,0,0,0,0,0,0,0,0,-1,1189,1296,0,0
-28,-272,0,0,0,0,0,0,0,0,0,-1,1196,1296,0,0
-21,-272,0,0,0,0,0,0,0,0,0,-1,1203,1296,0,0
-14,-272,0,0,0,0,0,0,0,0,0,-1,1210,1296,0,0
-7,-272,0,0,0,0,0,0,0,0,0,-1,1217,1296,0,0
0,-272,0,0,0,0,0,0,0,0,0,-1,1224,1296,0,0
7,-272,0,0,0,0,0,0,0,0,0,-1,1231,1296,0,0
14,-272,0,0,0,0,0,0,0,0,0,-1,1238,1296,0,0
21,-272,0,0,0,0,0,0,0,0,0,-1,1245,1296,0,0
28,-272,0,0,0,0,0,0,0,0,0,-1,1252,1296,0,0
35,-272,0,0,0,0,0,0,0,0,0,-1,1259,1296,0,0
42,-272,0,0,0,0,0,0,0,0,0,-1,1266,1296,0,0
49,-272,0,0,0,0,0,0,0,0,0,-1,1273,1296,0,0
56,-272,0,0,0,0,0,0,0,0,0,-1,1280,1296,0,0
63,-272,0,0,0,0,0,0,0,0,0,-1,1287,1296,0,0
70,-272,0,0,0,0,0,0,0,0,0,-1,1294,1296,0,0
77,-272,0,0,0,0,0,0,0,0,0,-1,1301,1296,0,0
84,-272,0,0,0,0,0,0,0,0,0,-1,1308,1296,0,0
91,-272,0,0,0,0,0,0,0,0,0,-1,1315,1296,0,0
98,-272,0,0,0,0,0,0,0,0,0,-1,1322,1296,0,0
105,-272,0,0,0,0,0,0,0,0,0,-1,1329,1296,0,0
112,-272,0,0,0,0,0,0,0,0,0,-1,1336,1296,0,0
119,-272,0,0,0,0,0,0,0,0,0,-1,1343,1296,0,0
126,-272,0,0,0,0,0,0,0,0,0,-1,1350,1296,0,0
133,-272,0,0,0,0,0,0,0,0,0,-1,1357,1296,0,0
140,-272,0,0,0,0,0,0,0,0,0,-1,1364,1296,0,0
147,-272,0,0,0,0,0,0,0,0,0,-1,1371,1296,0,0
154,-272,0,0,0,0,0,0,0,0,0,-1,1378,1296,0,0
161,-272,0,0,0,0,0,0,0,0,0,-1,1385,1296,0,0
168,-272,0,0,0,0,0,0,0,0,0,-1,1392,1296,0,0
175,-272,0,0,0,0,0,0,0,0,0,-1,1399,1296,0,0
182,-272,0,0,0,0,0,0,0,0,0,-1,1406,1296,0,0
189,-272,0,0,0,0,0,0,0,0,0,-1,1413,1296,0,0
196,-272,0,0,0,0,0,0,0,0,0,-1,1420,1296,0,0
203,-272,0,0,0,0,0,0,0,0,0,-1,1427,1296,0,0
210,-272,0,0,0,0,0,0,0,0,0,-1,1434,1296,0,0
217,-272,0,0,0,0,0,0,0,0,0,-1,1441,1296,0,0
224,-272,0,0,0,0,0,0,0,0,0,-1,1448,1296,0,0
231,-272,0,0,0,0,0,0,0,0,0,-1,1455,1296,0,0
238,-272,0,0,0,0,0,0,0,0,0,-1,1462,1296,0,0
245,-272,0,0,0,0,0,0,0,0,0,-1,1469,1296,0,0
252,-272,0,0,0,0,0,0,0,0,0,-1,1476,1296,0,0
259,-272,0,0,0,0,0,0,0,0,0,-1,1483,1296,0,0
266,-272,0,0,0,0,0,0,0,0,0,-1,1490,1296,0,0
273,-272,0,0,0,0,0,0,0,0,0,-1,1497,1296,0,0
280,-272,0,0,0,0,0,0,0,0,0,-1,1504,1296,0,0
287,-272,0,0,0,0,0,0,0,0,0,-1,1511,1296,0,0
294,-272,0,0,0,0,0,0,0,0,0,-1,1518,1296,0,0
301,-272,0,0,0,0,0,0,0,0,0,-1,1525,1296,0,0
308,-272,0,0,0,0,0,0,0,0,0,-1,1532,1296,0,0
315,-272,0,0,0,0,0,0,0,0,0,-1,1539,1296,0,0
322,-272,0,0,0,0,0,0,0,0,0,-1,1546,1296,0,0
329,-272,0,0,0,0,0,0,0,0,0,-1,1553,1296,0,0
336,-272,0,0,0,0,0,0,0,0,0,-1,1560,1296,0,0
343,-272,0,0,0,0,0,0,0,0,0,-1,1567,1296,0,0
350,-272,0,0,0,0,0,0,0,0,0,-1,1574,1296,0,0
357,-272,0,0,0,0,0,0,0,0,0,-1,1581,1296,0,0
364,-272,0,0,0,0,0,0,0,0,0,-1,1588,1296,0,0
371,-272,0,0,0,0,0,0,0,0,0,-1,1595,1296,0,0
378,-272,0,0,0,0,0,0,0,0,0,-1,1602,1296,0,0
385,-272,0,0,0,0,0,0,0,0,0,-1,1609,1296,0,0
392,-272,0,0,0,0,0,0,0,0,0,-1,1616,1296,0,0
399,-272,0,0,0,0,0,0,0,0,0,-1,1623,1296,0,0
406,-272,0,0,0,0,0,0,0,0,0,-1,1630,1296,0,0
413,-272,0,0,0,0,0,0,0,0,0,-1,1637,1296,0,0
420,-272,0,0,0,0,0,0,0,0,0,-1,1644,1296,0,0
427,-272,0,0,0,0,0,0,0,0,0,-1,1651,1296,0,0
434,-272,0,0,0,0,0,0,0,0,0,-1,1658,1296,0,0
441,-272,0,0,0,0,0,0,0,0,0,-1,1665,1296,0,0
448,-272,0,0,0,0,0,0,0,0,0,-1,1672,1296,0,0
455,-272,0,0,0,0,0,0,0,0,0,-1,1679,1296,0,0
462,-272,0,0,0,0,0,0,0,0,0,-1,1686,1296,0,0
469,-272,0,0,0,0,0,0,0,0,0,-1,1693,1296,0,0
476,-272,0,0,0,0,0,0,0,0,0,-1,1700,1296,0,0
483,-272,0,0,0,0,0,0,0,0,0,-1,1707,1296,0,0
490,-272,0,0,0,0,0,0,0,0,0,-1,1714,1296,0,0
497,-272,0,0,0,0,0,0,0,0,0,-1,1721,1296,0,0
504,-272,0,0,0,0,0,0,0,0,0,-1,1728,1296,0,0
511,-272,0,0,0,0,0,0,0,0,0,-1,1735,1296,0,0
518,-272,0,0,0,0,0,0,0,0,0,-1,1742,1296,0,0
525,-272,0,0,0,0,0,0,0,0,0,-1,1749,1296,0,0
532,-272,0,0,0,0,0,0,0,0,0,-1,1756,1296,0,0
539,-272,0,0,0,0,0,0,0,0,0,-1,1763,1296,0,0
546,-272,0,0,0,0,0,0,0,0,0,-1,1770,1296,0,0
553,-272,0,0,0,0,0,0,0,0,0,-1,1777,1296,0,0
560,-272,0,0,0,0,0,0,0,0,0,-1,1784,1296,0,0
567,-272,0,0,0,0,0,0,0,0,0,-1,1791,1296,0,0
574,-272,0,0,0,0,0,0,0,0,0,-1,1798,1296,0,0
581,-272,0,0,0,0,0,0,0,0,0,-1,1805,1296,0,0
588,-272,0,0,0,0,0,0,0,0,0,-1,1812,1296,0,0
595,-272,0,0,0,0,0,0,0,0,0,-1,1819,1296,0,0
602,-272,35.9508,2.73572,-0.011973,0.0124646,-0.000482283,0.0124741,-0.0119826,-1.55107,0.014121,0.0325372,1826,1296,35.9508,-2.7357
609,-272,35.9298,2.59058,-0.0155657,0.0130561,0.0020464,0.0132017,-0.0157113,1.49978,0.0167138,0.036105,1833,1296,35.9298,-2.59063
616,-272,36.0065,2.6322,-0.0183707,0.0131008,0.00446656,0.0137224,-0.0189923,1.43251,0.0189694,0.0393545,1840,1296,36.0065,-2.63224
623,-272,35.7094,2.56091,-0.018325,0.011772,0.00571303,0.0128199,-0.019373,1.38938,0.0187145,0.0412563,1847,1296,35.7093,-2.56089
630,-272,35.2595,2.40894,-0.0163603,0.00981796,0.00578697,0.0110402,-0.0175825,1.36266,0.0166686,0.0447021,1854,1296,35.2595,-2.409
637,-272,35.5508,2.6123,-0.0137697,0.007797,0.0052791,0.00901988,-0.0149926,1.34317,0.0140058,0.0449678,1861,1296,35.5508,-2.61231
644,-272,31.8978,2.58643,0,0,0,0,0,0,0,-1,1868,1296,31.8978,-2.58637
651,-272,31.4108,2.48743,0,0,0,0,0,0,0,-1,1875,1296,31.4107,-2.48747
658,-272,30.9236,2.38855,0,0,0,0,0,0,0,-1,1882,1296,30.9236,-2.38858
665,-272,22.0238,4.14417,0,0,0,0,0,0,0,-1,1889,1296,22.0238,-4.14421
672,-272,22.661,7.21765,0,0,0,0,0,0,0,-1,1896,1296,22.661,-7.21761
679,-272,26.7507,8.4563,0,0,0,0,0,0,0,-1,1903,1296,26.7507,-8.45625
686,-272,26.7427,8.1073,-0.00194933,-0.000168568,0.00147912,0.000667489,-0.00278538,1.05633,0.00211483,0.0184694,1910,1296,26.7427,-8.10731
693,-272,26.7522,7.76086,-0.00147736,-0.000335195,0.000772383,5.43011e-05,-0.00186686,1.10373,0.00126306,0.0118071,1917,1296,26.7523,-7.76087
700,-272,26.7651,7.43494,-1.81796e-05,-0.000247593,0.00062805,0.000505553,-0.000771326,0.695074,0.00074251,0.0109684,1924,1296,26.7651,-7.43492
707,-272,26.7711,7.08264,0.000489966,-0.000277889,0.000527638,0.000758574,-0.000546496,0.470882,0.000756792,0.0100751,1931,1296,26.7712,-7.08268
714,-272,26.7551,6.7356,7.7804e-06,-0.000580504,0.00120146,0.000950583,-0.00152331,0.665349,0.001441,0.0105537,1938,1296,26.7551,-6.7356
721,-272,26.7415,6.41772,-0.000172416,-0.00071343,0.0017416,0.00131956,-0.00220541,0.708353,0.00205645,0.0122175,1945,1296,26.7415,-6.41772
728,-272,26.7393,6.0708,-0.000202632,-0.00103441,0.00232548,0.00174385,-0.0029809,0.696913,0.00275882,0.0140603,1952,1296,26.7393,-6.07086
735,-272,26.7451,5.77234,0.000236156,-0.00143022,0.0027775,0.00230275,-0.00349681,0.63968,0.00337195,0.0144431,1959,1296,26.7451,-5.77237
742,-272,26.7007,5.50012,0.0014447,-0.00189253,0.00297241,0.00318482,-0.00363266,0.529633,0.0039389,0.0264406,1966,1296,26.7007,-5.50011
749,-272,26.3849,5.43005,0.00397502,-0.00253386,0.00279613,0.00501124,-0.00357008,0.354898,0.00497766,0.0469095,1973,1296,26.3849,-5.43004
756,-272,26.2428,5.49121,0,0,0,0,0,0,0,-1,1980,1296,26.2428,-5.49126
763,-272,25.4053,4.14624,0,0,0,0,0,0,0,-1,1987,1296,25.4052,-4.14628
770,-272,25.9485,3.67749,0,0,0,0,0,0,0,-1,1994,1296,25.9485,-3.67744
777,-272,32.3619,6.13257,0,0,0,0,0,0,0,-1,2001,1296,32.362,-6.1326
784,-272,0,0,0,0,0,0,0,0,0,-1,2008,1296,0,0
791,-272,0,0,0,0,0,0,0,0,0,-1,2015,1296,0,0
798,-272,0,0,0,0,0,0,0,0,0,-1,2022,1296,0,0
805,-272,0,0,0,0,0,0,0,0,0,-1,2029,1296,0,0
812,-272,0,0,0,0,0,0,0,0,0,-1,2036,1296,0,0
-700,-279,0,0,0,0,0,0,0,0,0,-1,524,1303,0,0
-693,-279,0,0,0,0,0,0,0,0,0,-1,531,1303,0,0
-686,-279,0,0,0,0,0,0,0,0,0,-1,538,1303,0,0
-679,-279,0,0,0,0,0,0,0,0,0,-1,545,1303,0,0
-672,-279,0,0,0,0,0,0,0,0,0,-1,552,1303,0,0
-665,-279,0,0,0,0,0,0,0,0,0,-1,559,1303,0,0
-658,-279,-13.1476,0.515503,0,0,0,0,0,0,0,-1,566,1303,-13.1477,-0.515444
-651,-279,-13.3882,0.514038,0,0,0,0,0,0,0,-1,573,1303,-13.3882,-0.514061
-644,-279,-13.5609,0.237915,0,0,0,0,0,0,0,-1,580,1303,-13.5609,-0.237912
-637,-279,-17.6313,2.24109,0,0,0,0,0,0,0,-1,587,1303,-17.6313,-2.24113
-630,-279,-14.007,-0.194946,0,0,0,0,0,0,0,-1,594,1303,-14.007,0.194889
-623,-279,-16.1068,2.00403,0,0,0,0,0,0,0,-1,601,1303,-16.1068,-2.00408
-616,-279,-15.8821,2.4856,0.0591384,0.0120985,0.0259296,0.070626,0.000610802,0.417045,0.0468817,0.0493038,608,1303,-15.8822,-2.48558
-609,-279,-15.5861,2.90308,0.0395878,0.0122971,0.0182412,0.0487226,0.00316226,0.464272,0.0314806,0.0411505,615,1303,-15.586,-2.90303
-602,-279,-15.377,3.33228,0.0253561,0.0108758,0.0125661,0.0326186,0.00361335,0.524043,0.0206469,0.0141853,622,1303,-15.3769,-3.33228
-595,-279,-15.4102,3.70874,0.0158566,0.00867173,0.00839261,0.0213933,0.00313502,0.583173,0.0133406,0.0101568,629,1303,-15.4102,-3.7088
-588,-279,-15.4091,4.07227,0.00929505,0.00674656,0.0053747,0.0135445,0.00249712,0.669006,0.0083231,0.0103706,636,1303,-15.4091,-4.07223
-581,-279,-15.4374,4.44055,0.00584274,0.00493513,0.00329634,0.00871637,0.0020615,0.716993,0.00526017,0.0116852,643,1303,-15.4374,-4.44054
-574,-279,-15.4412,4.82373,0.00486355,0.00308766,0.00288956,0.00699852,0.000952692,0.636331,0.00438277,0.0119712,650,1303,-15.4412,-4.82373
-567,-279,-15.4265,5.20264,0.00488991,0.00185787,0.00290858,0.00665385,9.39262e-05,0.545157,0.00440493,0.0157893,657,1303,-15.4265,-5.20266
-560,-279,-15.446,5.62708,0.00549525,0.00173438,0.00344346,0.00753826,-0.000308631,0.53548,0.00513148,0.0160218,664,1303,-15.446,-5.62707
-553,-279,-15.4612,6.02771,0.00611701,0.00228238,0.00454811,0.00913542,-0.000736038,0.58592,0.00634986,0.0127381,671,1303,-15.4612,-6.02767
-546,-279,-15.4316,6.37732,0.00597896,0.00269958,0.00585996,0.0104243,-0.00174577,0.648981,0.00759861,0.0187956,678,1303,-15.4316,-6.37726
-539,-279,-15.2286,7.11389,0.0052334,0.00302228,0.00713842,0.0113514,-0.00309569,0.708571,0.00878324,0.0497694,685,1303,-15.2286,-7.11395
-532,-279,-14.9813,7.89917,0,0,0,0,0,0,0,-1,692,1303,-14.9813,-7.89918
-525,-279,-11.7063,-0.539185,0,0,0,0,0,0,0,-1,699,1303,-11.7063,0.539166
-518,-279,-16.8138,1.11963,0,0,0,0,0,0,0,-1,706,1303,-16.8138,-1.11968
-511,-279,-20.1063,-1.37915,0,0,0,0,0,0,0,-1,713,1303,-20.1062,1.37918
-504,-279,-18.3766,1.04578,0,0,0,0,0,0,0,-1,720,1303,-18.3767,-1.04577
-497,-279,-19.0046,2.08911,0,0,0,0,0,0,0,-1,727,1303,-19.0046,-2.08905
-490,-279,-20.0176,2.55188,0,0,0,0,0,0,0,-1,734,1303,-20.0176,-2.55183
-483,-279,-20.8064,2.99792,0,0,0,0,0,0,0,-1,741,1303,-20.8064,-2.99797
-476,-279,0,0,0,0,0,0,0,0,0,-1,748,1303,0,0
-469,-279,0,0,0,0,0,0,0,0,0,-1,755,1303,0,0
-462,-279,0,0,0,0,0,0,0,0,0,-1,762,1303,0,0
-455,-279,0,0,0,0,0,0,0,0,0,-1,769,1303,0,0
-448,-279,0,0,0,0,0,0,0,0,0,-1,776,1303,0,0
-441,-279,0,0,0,0,0,0,0,0,0,-1,783,1303,0,0
-434,-279,0,0,0,0,0,0,0,0,0,-1,790,1303,0,0
-427,-279,0,0,0,0,0,0,0,0,0,-1,797,1303,0,0
-420,-279,0,0,0,0,0,0,0,0,0,-1,804,1303,0,0
-413,-279,0,0,0,0,0,0,0,0,0,-1,811,1303,0,0
-406,-279,0,0,0,0,0,0,0,0,0,-1,818,1303,0,0
-399,-279,0,0,0,0,0,0,0,0,0,-1,825,1303,0,0
-392,-279,0,0,0,0,0,0,0,0,0,-1,832,1303,0,0
-385,-279,0,0,0,0,0,0,0,0,0,-1,839,1303,0,0
-378,-279,0,0,0,0,0,0,0,0,0,-1,846,1303,0,0
-371,-279,0,0,0,0,0,0,0,0,0,-1,853,1303,0,0
-364,-279,0,0,0,0,0,0,0,0,0,-1,860,1303,0,0
-357,-279,0,0,0,0,0,0,0,0,0,-1,867,1303,0,0
-350,-279,0,0,0,0,0,0,0,0,0,-1,874,1303,0,0
-343,-279,0,0,0,0,0,0,0,0,0,-1,881,1303,0,0
-336,-279,0,0,0,0,0,0,0,0,0,-1,888,1303,0,0
-329,-279,0,0,0,0,0,0,0,0,0,-1,895,1303,0,0
-322,-279,0,0,0,0,0,0,0,0,0,-1,902,1303,0,0
-315,-279,0,0,0,0,0,0,0,0,0,-1,909,1303,0,0
-308,-279,0,0,0,0,0,0,0,0,0,-1,916,1303,0,0
-301,-279,0,0,0,0,0,0,0,0,0,-1,923,1303,0,0
-294,-279,0,0,0,0,0,0,0,0,0,-1,930,1303,0,0
-287,-279,0,0,0,0,0,0,0,0,0,-1,937,1303,0,0
-280,-279,0,0,0,0,0,0,0,0,0,-1,944,1303,0,0
-273,-279,0,0,0,0,0,0,0,0,0,-1,951,1303,0,0
-266,-279,0,0,0,0,0,0,0,0,0,-1,958,1303,0,0
-259,-279,0,0,0,0,0,0,0,0,0,-1,965,1303,0,0
-252,-279,0,0,0,0,0,0,0,0,0,-1,972,1303,0,0
-245,-279,0,0,0,0,0,0,0,0,0,-1,979,1303,0,0
-238,-279,0,0,0,0,0,0,0,0,0,-1,986,1303,0,0
-231,-279,0,0,0,0,0,0,0,0,0,-1,993,1303,0,0
-224,-279,0,0,0,0,0,0,0,0,0,-1,1000,1303,0,0
-217,-279,0,0,0,0,0,0,0,0,0,-1,1007,1303,0,0
-210,-279,0,0,0,0,0,0,0,0,0,-1,1014,1303,0,0
-203,-279,0,0,0,0,0,0,0,0,0,-1,1021,1303,0,0
-196,-279,0,0,0,0,0,0,0,0,0,-1,1028,1303,0,0
-189,-279,0,0,0,0,0,0,0,0,0,-1,1035,1303,0,0
-182,-279,0,0,0,0,0,0,0,0,0,-1,1042,1303,0,0
-175,-279,0,0,0,0,0,0,0,0,0,-1,1049,1303,0,0
-168,-279,0,0,0,0,0,0,0,0,0,-1,1056,1303,0,0
-161,-279,0,0,0,0,0,0,0,0,0,-1,1063,1303,0,0
-154,-279,0,0,0,0,0,0,0,0,0,-1,1070,1303,0,0
-147,-279,0,0,0,0,0,0,0,0,0,-1,1077,1303,0,0
-140,-279,0,0,0,0,0,0,0,0,0,-1,1084,1303,0,0
-133,-279,0,0,0,0,0,0,0,0,0,-1,1091,1303,0,0
-126,-279,0,0,0,0,0,0,0,0,0,-1,1098,1303,0,0
-119,-279,0,0,0,0,0,0,0,0,0,-1,1105,1303,0,0
-112,-279,0,0,0,0,0,0,0,0,0,-1,1112,1303,0,0
-105,-279,0,0,0,0,0,0,0,0,0,-1,1119,1303,0,0
-98,-279,0,0,0,0,0,0,0,0,0,-1,1126,1303,0,0
-91,-279,0,0,0,0,0,0,0,0,0,-1,1133,1303,0,0
-84,-279,0,0,0,0,0,0,0,0,0,-1,1140,1303,0,0
-77,-279,0,0,0,0,0,0,0,0,0,-1,1147,1303,0,0
-70,-279,0,0,0,0,0,0,0,0,0,-1,1154,1303,0,0
-63,-279,0,0,0,0,0,0,0,0,0,-1,1161,1303,0,0
-56,-279,0,0,0,0,0,0,0,0,0,-1,1168,1303,0,0
-49,-279,0,0,0,0,0,0,0,0,0,-1,1175,1303,0,0
-42,-279,0,0,0,0,0,0,0,0,0,-1,1182,1303,0,0
-35,-279,0,0,0,0,0,0,0,0,0,-1,1189,1303,0,0
-28,-279,0,0,0,0,0,0,0,0,0,-1,1196,1303,0,0
-21,-279,0,0,0,0,0,0,0,0,0,-1,1203,1303,0,0
-14,-279,0,0,0,0,0,0,0,0,0,-1,1210,1303,0,0
-7,-279,0,0,0,0,0,0,0,0,0,-1,1217,1303,0,0
0,-279,0,0,0,0,0,0,0,0,0,-1,1224,1303,0,0
7,-279,0,0,0,0,0,0,0,0,0,-1,1231,1303,0,0
14,-279,0,0,0,0,0,0,0,0,0,-1,1238,1303,0,0
21,-279,0,0,0,0,0,0,0,0,0,-1,1245,1303,0,0
28,-279,0,0,0,0,0,0,0,0,0,-1,1252,1303,0,0
35,-279,0,0,0,0,0,0,0,0,0,-1,1259,1303,0,0
42,-279,0,0,0,0,0,0,0,0,0,-1,1266,1303,0,0
49,-279,0,0,0,0,0,0,0,0,0,-1,1273,1303,0,0
56,-279,0,0,0,0,0,0,0,0,0,-1,1280,1303,0,0
63,-279,0,0,0,0,0,0,0,0,0,-1,1287,1303,0,0
70,-279,0,0,0,0,0,0,0,0,0,-1,1294,1303,0,0
77,-279,0,0,0,0,0,0,0,0,0,-1,1301,1303,0,0
84,-279,0,0,0,0,0,0,0,0,0,-1,1308,1303,0,0
91,-279,0,0,0,0,0,0,0,0,0,-1,1315,1303,0,0
98,-279,0,0,0,0,0,0,0,0,0,-1,1322,1303,0,0
105,-279,0,0,0,0,0,0,0,0,0,-1,1329,1303,0,0
112,-279,0,0,0,0,0,0,0,0,0,-1,1336,1303,0,0
119,-279,0,0,0,0,0,0,0,0,0,-1,1343,1303,0,0
126,-279,0,0,0,0,0,0,0,0,0,-1,1350,1303,0,0
133,-279,0,0,0,0,0,0,0,0,0,-1,1357,1303,0,0
140,-279,0,0,0,0,0,0,0,0,0,-1,1364,1303,0,0
147,-279,0,0,0,0,0,0,0,0,0,-1,1371,1303,0,0
154,-279,0,0,0,0,0,0,0,0,0,-1,1378,1303,0,0
161,-279,0,0,0,0,0,0,0,0,0,-1,1385,1303,0,0
168,-279,0,0,0,0,0,0,0,0,0,-1,1392,1303,0,0
175,-279,0,0,0,0,0,0,0,0,0,-1,1399,1303,0,0
182,-279,0,0,0,0,0,0,0,0,0,-1,1406,1303,0,0
189,-279,0,0,0,0,0,0,0,0,0,-1,1413,1303,0,0
196,-279,0,0,0,0,0,0,0,0,0,-1,1420,1303,0,0
203,-279,0,0,0,0,0,0,0,0,0,-1,1427,1303,0,0
210,-279,0,0,0,0,0,0,0,0,0,-1,1434,1303,0,0
217,-279,0,0,0,0,0,0,0,0,0,-1,1441,1303,0,0
224,-279,0,0,0,0,0,0,0,0,0,-1,1448,1303,0,0
231,-279,0,0,0,0,0,0,0,0,0,-1,1455,1303,0,0
238,-279,0,0,0,0,0,0,0,0,0,-1,1462,1303,0,0
245,-279,0,0,0,0,0,0,0,0,0,-1,1469,1303,0,0
252,-279,0,0,0,0,0,0,0,0,0,-1,1476,1303,0,0
259,-279,0,0,0,0,0,0,0,0,0,-1,1483,1303,0,0
266,-279,0,0,0,0,0,0,0,0,0,-1,1490,1303,0,0
273,-279,0,0,0,0,0,0,0,0,0,-1,1497,1303,0,0
280,-279,0,0,0,0,0,0,0,0,0,-1,1504,1303,0,0
287,-279,0,0,0,0,0,0,0,0,0,-1,1511,1303,0,0
294,-279,0,0,0,0,0,0,0,0,0,-1,1518,1303,0,0
301,-279,0,0,0,0,0,0,0,0,0,-1,1525,1303,0,0
308,-279,0,0,0,0,0,0,0,0,0,-1,1532,1303,0,0
315,-279,0,0,0,0,0,0,0,0,0,-1,1539,1303,0,0
322,-279,0,0,0,0,0,0,0,0,0,-1,1546,1303,0,0
329,-279,0,0,0,0,0,0,0,0,0,-1,1553,1303,0,0
336,-279,0,0,0,0,0,0,0,0,0,-1,1560,1303,0,0
343,-279,0,0,0,0,0,0,0,0,0,-1,1567,1303,0,0
350,-279,0,0,0,0,0,0,0,0,0,-1,1574,1303,0,0
357,-279,0,0,0,0,0,0,0,0,0,-1,1581,1303,0,0
364,-279,0,0,0,0,0,0,0,0,0,-1,1588,1303,0,0
371,-279,0,0,0,0,0,0,0,0,0,-1,1595,1303,0,0
378,-279,0,0,0,0,0,0,0,0,0,-1,1602,1303,0,0
385,-279,0,0,0,0,0,0,0,0,0,-1,1609,1303,0,0
392,-279,0,0,0,0,0,0,0,0,0,-1,1616,1303,0,0
399,-279,0,0,0,0,0,0,0,0,0,-1,1623,1303,0,0
406,-279,0,0,0,0,0,0,0,0,0,-1,1630,1303,0,0
413,-279,0,0,0,0,0,0,0,0,0,-1,1637,1303,0,0
420,-279,0,0,0,0,0,0,0,0,0,-1,1644,1303,0,0
427,-279,0,0,0,0,0,0,0,0,0,-1,1651,1303,0,0
434,-279,0,0,0,0,0,0,0,0,0,-1,1658,1303,0,0
441,-279,0,0,0,0,0,0,0,0,0,-1,1665,1303,0,0
448,-279,0,0,0,0,0,0,0,0,0,-1,1672,1303,0,0
455,-279,0,0,0,0,0,0,0,0,0,-1,1679,1303,0,0
462,-279,0,0,0,0,0,0,0,0,0,-1,1686,1303,0,0
469,-279,0,0,0,0,0,0,0,0,0,-1,1693,1303,0,0
476,-279,0,0,0,0,0,0,0,0,0,-1,1700,1303,0,0
483,-279,0,0,0,0,0,0,0,0,0,-1,1707,1303,0,0
490,-279,0,0,0,0,0,0,0,0,0,-1,1714,1303,0,0
497,-279,0,0,0,0,0,0,0,0,0,-1,1721,1303,0,0
504,-279,0,0,0,0,0,0,0,0,0,-1,1728,1303,0,0
511,-279,0,0,0,0,0,0,0,0,0,-1,1735,1303,0,0
518,-279,0,0,0,0,0,0,0,0,0,-1,1742,1303,0,0
525,-279,0,0,0,0,0,0,0,0,0,-1,1749,1303,0,0
532,-279,0,0,0,0,0,0,0,0,0,-1,1756,1303,0,0
539,-279,0,0,0,0,0,0,0,0,0,-1,1763,1303,0,0
546,-279,0,0,0,0,0,0,0,0,0,-1,1770,1303,0,0
553,-279,0,0,0,0,0,0,0,0,0,-1,1777,1303,0,0
560,-279,0,0,0,0,0,0,0,0,0,-1,1784,1303,0,0
567,-279,0,0,0,0,0,0,0,0,0,-1,1791,1303,0,0
574,-279,0,0,0,0,0,0,0,0,0,-1,1798,1303,0,0
581,-279,0,0,0,0,0,0,0,0,0,-1,1805,1303,0,0
588,-279,0,0,0,0,0,0,0,0,0,-1,1812,1303,0,0
595,-279,0,0,0,0,0,0,0,0,0,-1,1819,1303,0,0
602,-279,35.9156,2.63086,0,0,0,0,0,0,0,-1,1826,1303,35.9157,-2.63082
609,-279,36.1147,2.58325,0,0,0,0,0,0,0,-1,1833,1303,36.1147,-2.5832
616,-279,36.0948,2.53125,-0.02261,0.015425,0.00471222,0.0160001,-0.0231852,1.44935,0.02275,0.0472033,1840,1303,36.0949,-2.53122
623,-279,35.6892,2.39905,-0.0203878,0.013319,0.00531265,0.0141365,-0.0212053,1.41811,0.0205402,0.0447394,1847,1303,35.6892,-2.3991
630,-279,35.3534,2.3197,-0.0173118,0.0109609,0.00520328,0.0118881,-0.018239,1.39445,0.0175222,0.0459271,1854,1303,35.3534,-2.31974
637,-279,35.2772,2.79285,0,0,0,0,0,0,0,-1,1861,1303,35.2772,-2.79288
644,-279,33.5021,3.40234,0,0,0,0,0,0,0,-1,1868,1303,33.5021,-3.40237
651,-279,29.8456,2.3562,0,0,0,0,0,0,0,-1,1875,1303,29.8455,-2.35615
658,-279,21.5076,7.65649,0,0,0,0,0,0,0,-1,1882,1303,21.5076,-7.65648
665,-279,18.9794,6.09607,0,0,0,0,0,0,0,-1,1889,1303,18.9793,-6.09601
672,-279,23.5206,8.32507,0,0,0,0,0,0,0,-1,1896,1303,23.5206,-8.32512
679,-279,26.3781,8.4646,0,0,0,0,0,0,0,-1,1903,1303,26.3781,-8.46463
686,-279,26.4014,8.11133,-0.00130824,-0.000220277,0.00112458,0.000484978,-0.00201349,1.01067,0.00152983,0.02303,1910,1303,26.4014,-8.11136
693,-279,26.3882,7.75842,-0.000934049,-0.000369146,0.000454081,-0.000116838,-0.00118636,1.06363,0.000754979,0.0154974,1917,1303,26.3882,-7.75841
700,-279,26.4032,7.44458,4.46023e-05,-0.000288225,0.000499736,0.000404904,-0.000648527,0.624671,0.000613597,0.0107799,1924,1303,26.4032,-7.44455
707,-279,26.4078,7.09998,0.000187528,-0.000333482,0.000672127,0.000647868,-0.000793822,0.60052,0.000833781,0.00865933,1931,1303,26.4078,-7.10001
714,-279,26.3879,6.74219,-0.000381362,-0.000628561,0.00140736,0.000907819,-0.00191774,0.741599,0.00166571,0.00969359,1938,1303,26.3879,-6.74223
721,-279,26.3962,6.39758,-0.000792368,-0.000823651,0.00208087,0.00127291,-0.00288893,0.78164,0.00246248,0.0121766,1945,1303,26.3963,-6.39754
728,-279,26.4113,6.06177,-0.00111485,-0.00120477,0.0028312,0.00167174,-0.00399136,0.777459,0.00335978,0.0136281,1952,1303,26.4112,-6.06181
735,-279,26.3931,5.76013,-0.00105448,-0.00169441,0.00348826,0.00212845,-0.00487735,0.739663,0.00414729,0.0147796,1959,1303,26.3931,-5.76013
742,-279,26.2948,5.45813,-0.000321278,-0.00234099,0.00396145,0.00275701,-0.00541928,0.660596,0.00480327,0.0323072,1966,1303,26.2948,-5.45807
749,-279,26.3473,5.1084,0,0,0,0,0,0,0,-1,1973,1303,26.3472,-5.10845
756,-279,23.2091,4.43433,0,0,0,0,0,0,0,-1,1980,1303,23.2092,-4.43432
763,-279,27.1613,3.46265,0,0,0,0,0,0,0,-1,1987,1303,27.1613,-3.4627
770,-279,21.5828,3.54199,0,0,0,0,0,0,0,-1,1994,1303,21.5827,-3.54198
777,-279,32.5369,6.99609,0,0,0,0,0,0,0,-1,2001,1303,32.5369,-6.99608
784,-279,0,0,0,0,0,0,0,0,0,-1,2008,1303,0,0
791,-279,0,0,0,0,0,0,0,0,0,-1,2015,1303,0,0
798,-279,0,0,0,0,0,0,0,0,0,-1,2022,1303,0,0
805,-279,0,0,0,0,0,0,0,0,0,-1,2029,1303,0,0
812,-279,0,0,0,0,0,0,0,0,0,-1,2036,1303,0,0
-700,-286,0,0,0,0,0,0,0,0,0,-1,524,1310,0,0
-693,-286,0,0,0,0,0,0,0,0,0,-1,531,1310,0,0
-686,-286,0,0,0,0,0,0,0,0,0,-1,538,1310,0,0
-679,-286,0,0,0,0,0,0,0,0,0,-1,545,1310,0,0
-672,-286,0,0,0,0,0,0,0,0,0,-1,552,1310,0,0
-665,-286,0,0,0,0,0,0,0,0,0,-1,559,1310,0,0
-658,-286,-14.1937,-4.05469,0,0,0,0,0,0,0,-1,566,1310,-14.1937,4.05469
-651,-286,-12.7995,0.209229,0,0,0,0,0,0,0,-1,573,1310,-12.7995,-0.209249
-644,-286,-12.9057,-0.512085,0,0,0,0,0,0,0,-1,580,1310,-12.9057,0.512109
-637,-286,-13.0769,-0.757568,0,0,0,0,0,0,0,-1,587,1310,-13.0769,0.757592
-630,-286,-13.2317,-0.993164,0,0,0,0,0,0,0,-1,594,1310,-13.2317,0.993121
-623,-286,-16.557,-0.6604,0,0,0,0,0,0,0,-1,601,1310,-16.557,0.660343
-616,-286,-15.8632,0.661011,0.0600034,0.0153871,0.0273481,0.072988,0.0024026,0.443274,0.0478779,0.0494809,608,1310,-15.8631,-0.661012
-609,-286,-15.2633,2.03418,0.0401163,0.0145432,0.0191783,0.0503798,0.00427974,0.491378,0.0322547,0.0457296,615,1310,-15.2633,-2.03417
-602,-286,-15.028,3.26208,0.0260058,0.0123816,0.0132542,0.034096,0.00429136,0.548022,0.0214438,0.018167,622,1310,-15.0279,-3.26203
-595,-286,-15.0385,3.69434,0.0164279,0.0096436,0.00885257,0.022516,0.00355553,0.602435,0.0139771,0.0115958,629,1310,-15.0385,-3.69429
-588,-286,-15.0364,4.04639,0.0097845,0.00730547,0.00565656,0.0143358,0.0027542,0.677538,0.00878423,0.0116728,636,1310,-15.0364,-4.04637
-581,-286,-15.0242,4.44202,0.00608006,0.00532577,0.00342967,0.00915326,0.00225257,0.730636,0.00550708,0.0136585,643,1310,-15.0242,-4.44202
-574,-286,-15.0372,4.84351,0.00479708,0.00338771,0.00281995,0.00699906,0.00118573,0.662959,0.00432532,0.0141239,650,1310,-15.0372,-4.84345
-567,-286,-15.0554,5.22803,0.00457462,0.00209402,0.00264314,0.006254,0.000414644,0.566024,0.00403822,0.0133192,657,1310,-15.0554,-5.22798
-560,-286,-15.0618,5.63953,0.00502392,0.00159925,0.00292127,0.00669771,-7.45486e-05,0.520307,0.0044902,0.01434,664,1310,-15.0618,-5.63948
-553,-286,-15.0723,6.04126,0.00602989,0.00204189,0.00380924,0.00833547,-0.00026369,0.544277,0.00564693,0.011342,671,1310,-15.0723,-6.04127
-546,-286,-15.0658,6.43054,0.00669742,0.00252958,0.00503694,0.0100645,-0.000837504,0.589256,0.00700554,0.01566,678,1310,-15.0658,-6.43051
-539,-286,-15.0388,6.81921,0.00707749,0.00294766,0.00636175,0.011701,-0.00167591,0.628471,0.00841515,0.0398854,685,1310,-15.0388,-6.81922
-532,-286,-14.9221,7.2135,0,0,0,0,0,0,0,-1,692,1310,-14.9221,-7.21353
-525,-286,-11.4528,-1.11768,0,0,0,0,0,0,0,-1,699,1310,-11.4528,1.11769
-518,-286,-11.0701,1.37329,0,0,0,0,0,0,0,-1,706,1310,-11.0701,-1.37332
-511,-286,-17.7545,-0.0791016,0,0,0,0,0,0,0,-1,713,1310,-17.7544,0.0791606
-504,-286,-18.0455,1.29602,0,0,0,0,0,0,0,-1,720,1310,-18.0455,-1.29601
-497,-286,-18.3367,2.67114,0,0,0,0,0,0,0,-1,727,1310,-18.3366,-2.67118
-490,-286,-19.5795,2.47266,0,0,0,0,0,0,0,-1,734,1310,-19.5795,-2.4727
-483,-286,-19.7277,2.74744,0,0,0,0,0,0,0,-1,741,1310,-19.7277,-2.74747
-476,-286,-20.0391,3.06177,0,0,0,0,0,0,0,-1,748,1310,-20.0391,-3.06178
-469,-286,0,0,0,0,0,0,0,0,0,-1,755,1310,0,0
-462,-286,0,0,0,0,0,0,0,0,0,-1,762,1310,0,0
-455,-286,0,0,0,0,0,0,0,0,0,-1,769,1310,0,0
-448,-286,0,0,0,0,0,0,0,0,0,-1,776,1310,0,0
-441,-286,0,0,0,0,0,0,0,0,0,-1,783,1310,0,0
-434,-286,0,0,0,0,0,0,0,0,0,-1,790,1310,0,0
-427,-286,0,0,0,0,0,0,0,0,0,-1,797,1310,0,0
-420,-286,0,0,0,0,0,0,0,0,0,-1,804,1310,0,0
-413,-286,0,0,0,0,0,0,0,0,0,-1,811,1310,0,0
-406,-286,0,0,0,0,0,0,0,0,0,-1,818,1310,0,0
-399,-286,0,0,0,0,0,0,0,0,0,-1,825,1310,0,0
-392,-286,0,0,0,0,0,0,0,0,0,-1,832,1310,0,0
-385,-286,0,0,0,0,0,0,0,0,0,-1,839,1310,0,0
-378,-286,0,0,0,0,0,0,0,0,0,-1,846,1310,0,0
-371,-286,0,0,0,0,0,0,0,0,0,-1,853,1310,0,0
-364,-286,0,0,0,0,0,0,0,0,0,-1,860,1310,0,0
-357,-286,0,0,0,0,0,0,0,0,0,-1,867,1310,0,0
-350,-286,0,0,0,0,0,0,0,0,0,-1,874,1310,0,0
-343,-286,0,0,0,0,0,0,0,0,0,-1,881,1310,0,0
-336,-286,0,0,0,0,0,0,0,0,0,-1,888,1310,0,0
-329,-286,0,0,0,0,0,0,0,0,0,-1,895,1310,0,0
-322,-286,0,0,0,0,0,0,0,0,0,-1,902,1310,0,0
-315,-286,0,0,0,0,0,0,0,0,0,-1,909,1310,0,0
-308,-286,0,0,0,0,0,0,0,0,0,-1,916,1310,0,0
-301,-286,0,0,0,0,0,0,0,0,0,-1,923,1310,0,0
-294,-286,0,0,0,0,0,0,0,0,0,-1,930,1310,0,0
-287,-286,0,0,0,0,0,0,0,0,0,-1,937,1310,0,0
-280,-286,0,0,0,0,0,0,0,0,0,-1,944,1310,0,0
-273,-286,0,0,0,0,0,0,0,0,0,-1,951,1310,0,0
-266,-286,0,0,0,0,0,0,0,0,0,-1,958,1310,0,0
-259,-286,0,0,0,0,0,0,0,0,0,-1,965,1310,0,0
-252,-286,0,0,0,0,0,0,0,0,0,-1,972,1310,0,0
-245,-286,0,0,0,0,0,0,0,0,0,-1,979,1310,0,0
-238,-286,0,0,0,0,0,0,0,0,0,-1,986,1310,0,0
-231,-286,0,0,0,0,0,0,0,0,0,-1,993,1310,0,0
-224,-286,0,0,0,0,0,0,0,0,0,-1,1000,1310,0,0
-217,-286,0,0,0,0,0,0,0,0,0,-1,1007,1310,0,0
-210,-286,0,0,0,0,0,0,0,0,0,-1,1014,1310,0,0
-203,-286,0,0,0,0,0,0,0,0,0,-1,1021,1310,0,0
-196,-286,0,0,0,0,0,0,0,0,0,-1,1028,1310,0,0
-189,-286,0,0,0,0,0,0,0,0,0,-1,1035,1310,0,0
-182,-286,0,0,0,0,0,0,0,0,0,-1,1042,1310,0,0
-175,-286,0,0,0,0,0,0,0,0,0,-1,1049,1310,0,0
-168,-286,0,0,0,0,0,0,0,0,0,-1,1056,1310,0,0
-161,-286,0,0,0,0,0,0,0,0,0,-1,1063,1310,0,0
-154,-286,0,0,0,0,0,0,0,0,0,-1,1070,1310,0,0
-147,-286,0,0,0,0,0,0,0,0,0,-1,1077,1310,0,0
-140,-286,0,0,0,0,0,0,0,0,0,-1,1084,1310,0,0
-133,-286,0,0,0,0,0,0,0,0,0,-1,1091,1310,0,0
-126,-286,0,0,0,0,0,0,0,0,0,-1,1098,1310,0,0
-119,-286,0,0,0,0,0,0,0,0,0,-1,1105,1310,0,0
-112,-286,0,0,0,0,0,0,0,0,0,-1,1112,1310,0,0
-105,-286,0,0,0,0,0,0,0,0,0,-1,1119,1310,0,0
-98,-286,0,0,0,0,0,0,0,0,0,-1,1126,1310,0,0
-91,-286,0,0,0,0,0,0,0,0,0,-1,1133,1310,0,0
-84,-286,0,0,0,0,0,0,0,0,0,-1,1140,1310,0,0
-77,-286,0,0,0,0,0,0,0,0,0,-1,1147,1310,0,0
-70,-286,0,0,0,0,0,0,0,0,0,-1,1154,1310,0,0
-63,-286,0,0,0,0,0,0,0,0,0,-1,1161,1310,0,0
-56,-286,0,0,0,0,0,0,0,0,0,-1,1168,1310,0,0
-49,-286,0,0,0,0,0,0,0,0,0,-1,1175,1310,0,0
-42,-286,0,0,0,0,0,0,0,0,0,-1,1182,1310,0,0
-35,-286,0,0,0,0,0,0,0,0,0,-1,1189,1310,0,0
-28,-286,0,0,0,0,0,0,0,0,0,-1,1196,1310,0,0
-21,-286,0,0,0,0,0,0,0,0,0,-1,1203,1310,0,0
-14,-286,0,0,0,0,0,0,0,0,0,-1,1210,1310,0,0
-7,-286,0,0,0,0,0,0,0,0,0,-1,1217,1310,0,0
0,-286,0,0,0,0,0,0,0,0,0,-1,1224,1310,0,0
7,-286,0,0,0,0,0,0,0,0,0,-1,1231,1310,0,0
14,-286,0,0,0,0,0,0,0,0,0,-1,1238,1310,0,0
21,-286,0,0,0,0,0,0,0,0,0,-1,1245,1310,0,0
28,-286,0,0,0,0,0,0,0,0,0,-1,1252,1310,0,0
35,-286,0,0,0,0,0,0,0,0,0,-1,1259,1310,0,0
42,-286,0,0,0,0,0,0,0,0,0,-1,1266,1310,0,0
49,-286,0,0,0,0,0,0,0,0,0,-1,1273,1310,0,0
56,-286,0,0,0,0,0,0,0,0,0,-1,1280,1310,0,0
63,-286,0,0,0,0,0,0,0,0,0,-1,1287,1310,0,0
70,-286,0,0,0,0,0,0,0,0,0,-1,1294,1310,0,0
77,-286,0,0,0,0,0,0,0,0,0,-1,1301,1310,0,0
84,-286,0,0,0,0,0,0,0,0,0,-1,1308,1310,0,0
91,-286,0,0,0,0,0,0,0,0,0,-1,1315,1310,0,0
98,-286,0,0,0,0,0,0,0,0,0,-1,1322,1310,0,0
105,-286,0,0,0,0,0,0,0,0,0,-1,1329,1310,0,0
112,-286,0,0,0,0,0,0,0,0,0,-1,1336,1310,0,0
119,-286,0,0,0,0,0,0,0,0,0,-1,1343,1310,0,0
126,-286,0,0,0,0,0,0,0,0,0,-1,1350,1310,0,0
133,-286,0,0,0,0,0,0,0,0,0,-1,1357,1310,0,0
140,-286,0,0,0,0,0,0,0,0,0,-1,1364,1310,0,0
147,-286,0,0,0,0,0,0,0,0,0,-1,1371,1310,0,0
154,-286,0,0,0,0,0,0,0,0,0,-1,1378,1310,0,0
161,-286,0,0,0,0,0,0,0,0,0,-1,1385,1310,0,0
168,-286,0,0,0,0,0,0,0,0,0,-1,1392,1310,0,0
175,-286,0,0,0,0,0,0,0,0,0,-1,1399,1310,0,0
182,-286,0,0,0,0,0,0,0,0,0,-1,1406,1310,0,0
189,-286,0,0,0,0,0,0,0,0,0,-1,1413,1310,0,0
196,-286,0,0,0,0,0,0,0,0,0,-1,1420,1310,0,0
203,-286,0,0,0,0,0,0,0,0,0,-1,1427,1310,0,0
210,-286,0,0,0,0,0,0,0,0,0,-1,1434,1310,0,0
217,-286,0,0,0,0,0,0,0,0,0,-1,1441,1310,0,0
224,-286,0,0,0,0,0,0,0,0,0,-1,1448,1310,0,0
231,-286,0,0,0,0,0,0,0,0,0,-1,1455,1310,0,0
238,-286,0,0,0,0,0,0,0,0,0,-1,1462,1310,0,0
245,-286,0,0,0,0,0,0,0,0,0,-1,1469,1310,0,0
252,-286,0,0,0,0,0,0,0,0,0,-1,1476,1310,0,0
259,-286,0,0,0,0,0,0,0,0,0,-1,1483,1310,0,0
266,-286,0,0,0,0,0,0,0,0,0,-1,1490,1310,0,0
273,-286,0,0,0,0,0,0,0,0,0,-1,1497,1310,0,0
280,-286,0,0,0,0,0,0,0,0,0,-1,1504,1310,0,0
287,-286,0,0,0,0,0,0,0,0,0,-1,1511,1310,0,0
294,-286,0,0,0,0,0,0,0,0,0,-1,1518,1310,0,0
301,-286,0,0,0,0,0,0,0,0,0,-1,1525,1310,0,0
308,-286,0,0,0,0,0,0,0,0,0,-1,1532,1310,0,0
315,-286,0,0,0,0,0,0,0,0,0,-1,1539,1310,0,0
322,-286,0,0,0,0,0,0,0,0,0,-1,1546,1310,0,0
329,-286,0,0,0,0,0,0,0,0,0,-1,1553,1310,0,0
336,-286,0,0,0,0,0,0,0,0,0,-1,1560,1310,0,0
343,-286,0,0,0,0,0,0,0,0,0,-1,1567,1310,0,0
350,-286,0,0,0,0,0,0,0,0,0,-1,1574,1310,0,0
357,-286,0,0,0,0,0,0,0,0,0,-1,1581,1310,0,0
364,-286,0,0,0,0,0,0,0,0,0,-1,1588,1310,0,0
371,-286,0,0,0,0,0,0,0,0,0,-1,1595,1310,0,0
378,-286,0,0,0,0,0,0,0,0,0,-1,1602,1310,0,0
385,-286,0,0,0,0,0,0,0,0,0,-1,1609,1310,0,0
392,-286,0,0,0,0,0,0,0,0,0,-1,1616,1310,0,0
399,-286,0,0,0,0,0,0,0,0,0,-1,1623,1310,0,0
406,-286,0,0,0,0,0,0,0,0,0,-1,1630,1310,0,0
413,-286,0,0,0,0,0,0,0,0,0,-1,1637,1310,0,0
420,-286,0,0,0,0,0,0,0,0,0,-1,1644,1310,0,0
427,-286,0,0,0,0,0,0,0,0,0,-1,1651,1310,0,0
434,-286,0,0,0,0,0,0,0,0,0,-1,1658,1310,0,0
441,-286,0,0,0,0,0,0,0,0,0,-1,1665,1310,0,0
448,-286,0,0,0,0,0,0,0,0,0,-1,1672,1310,0,0
455,-286,0,0,0,0,0,0,0,0,0,-1,1679,1310,0,0
462,-286,0,0,0,0,0,0,0,0,0,-1,1686,1310,0,0
469,-286,0,0,0,0,0,0,0,0,0,-1,1693,1310,0,0
476,-286,0,0,0,0,0,0,0,0,0,-1,1700,1310,0,0
483,-286,0,0,0,0,0,0,0,0,0,-1,1707,1310,0,0
490,-286,0,0,0,0,0,0,0,0,0,-1,1714,1310,0,0
497,-286,0,0,0,0,0,0,0,0,0,-1,1721,1310,0,0
504,-286,0,0,0,0,0,0,0,0,0,-1,1728,1310,0,0
511,-286,0,0,0,0,0,0,0,0,0,-1,1735,1310,0,0
518,-286,0,0,0,0,0,0,0,0,0,-1,1742,1310,0,0
525,-286,0,0,0,0,0,0,0,0,0,-1,1749,1310,0,0
532,-286,0,0,0,0,0,0,0,0,0,-1,1756,1310,0,0
539,-286,0,0,0,0,0,0,0,0,0,-1,1763,1310,0,0
546,-286,0,0,0,0,0,0,0,0,0,-1,1770,1310,0,0
553,-286,0,0,0,0,0,0,0,0,0,-1,1777,1310,0,0
560,-286,0,0,0,0,0,0,0,0,0,-1,1784,1310,0,0
567,-286,0,0,0,0,0,0,0,0,0,-1,1791,1310,0,0
574,-286,0,0,0,0,0,0,0,0,0,-1,1798,1310,0,0
581,-286,0,0,0,0,0,0,0,0,0,-1,1805,1310,0,0
588,-286,0,0,0,0,0,0,0,0,0,-1,1812,1310,0,0
595,-286,36.2539,2.87598,0,0,0,0,0,0,0,-1,1819,1310,36.2539,-2.876
602,-286,36.0887,2.57349,0,0,0,0,0,0,0,-1,1826,1310,36.0887,-2.57349
609,-286,36.2557,1.9071,0,0,0,0,0,0,0,-1,1833,1310,36.2557,-1.90715
616,-286,35.8282,2.29907,-0.0255096,0.016794,0.00366865,0.0171098,-0.0258254,1.48493,0.0249583,0.0457827,1840,1310,35.8282,-2.29906
623,-286,35.3951,2.34302,-0.0219053,0.0140846,0.00420654,0.0145697,-0.0223905,1.45598,0.0214976,0.0452544,1847,1310,35.3951,-2.34296
630,-286,35.0973,2.11182,-0.0182183,0.0113124,0.00443719,0.0119647,-0.0188706,1.42483,0.017951,0.0463976,1854,1310,35.0973,-2.11181
637,-286,34.8643,1.83215,0,0,0,0,0,0,0,-1,1861,1310,34.8642,-1.8321
644,-286,25.6433,1.33862,0,0,0,0,0,0,0,-1,1868,1310,25.6433,-1.33858
651,-286,25.2507,1.88245,0,0,0,0,0,0,0,-1,1875,1310,25.2508,-1.88245
658,-286,25.9475,9.43689,0,0,0,0,0,0,0,-1,1882,1310,25.9475,-9.43693
665,-286,24.9838,8.03101,0,0,0,0,0,0,0,-1,1889,1310,24.9837,-8.03104
672,-286,25.9886,8.99658,0,0,0,0,0,0,0,-1,1896,1310,25.9886,-8.99654
679,-286,26.0072,8.55066,-0.00226276,0.000894039,0.00170367,0.0016381,-0.00300683,1.15902,0.00272029,0.0365107,1903,1310,26.0072,-8.55065
686,-286,26.0573,8.13074,-0.000734688,-0.000316514,0.000789866,0.00029147,-0.00134267,0.914787,0.00100644,0.0208089,1910,1310,26.0572,-8.13077
693,-286,26.0317,7.77771,-0.000531006,-0.000367025,0.000226373,-0.000208252,-0.000689779,0.959147,0.000408529,0.0158026,1917,1310,26.0317,-7.7777
700,-286,26.048,7.43738,-1.13445e-05,-0.000269857,0.000435883,0.000314044,-0.000595245,0.641259,0.00053328,0.0110715,1924,1310,26.048,-7.43739
707,-286,26.0635,7.11523,-0.000150569,-0.000303032,0.0008125,0.000589268,-0.00104287,0.738624,0.000954368,0.00866405,1931,1310,26.0635,-7.11528
714,-286,26.0558,6.77856,-0.000789194,-0.000588116,0.00160973,0.000924207,-0.00230152,0.816586,0.00191813,0.00920447,1938,1310,26.0558,-6.77854
721,-286,26.0685,6.43335,-0.00143009,-0.000852001,0.00244433,0.00132031,-0.0036024,0.84425,0.00294217,0.0117804,1945,1310,26.0685,-6.43338
728,-286,26.0664,6.08179,-0.00206074,-0.00128752,0.00339618,0.00174399,-0.00509224,0.842072,0.00410167,0.0150075,1952,1310,26.0664,-6.08174
735,-286,26.0983,5.73022,-0.00244884,-0.00186487,0.00432843,0.00218141,-0.00649513,0.819076,0.00521169,0.0201019,1959,1310,26.0982,-5.73027
742,-286,26.1284,5.45764,-0.00237107,-0.00271237,0.00523072,0.00269178,-0.00777522,0.769092,0.0062762,0.0429673,1966,1310,26.1284,-5.4576
749,-286,26.3517,5.14832,0,0,0,0,0,0,0,-1,1973,1310,26.3517,-5.14832
756,-286,24.8226,4.43481,0,0,0,0,0,0,0,-1,1980,1310,24.8227,-4.43479
763,-286,20.6671,3.99683,0,0,0,0,0,0,0,-1,1987,1310,20.6671,-3.99683
770,-286,23.9147,4.45679,0,0,0,0,0,0,0,-1,1994,1310,23.9146,-4.45675
777,-286,0,0,0,0,0,0,0,0,0,-1,2001,1310,0,0
784,-286,0,0,0,0,0,0,0,0,0,-1,2008,1310,0,0
791,-286,0,0,0,0,0,0,0,0,0,-1,2015,1310,0,0
798,-286,0,0,0,0,0,0,0,0,0,-1,2022,1310,0,0
805,-286,0,0,0,0,0,0,0,0,0,-1,2029,1310,0,0
812,-286,0,0,0,0,0,0,0,0,0,-1,2036,1310,0,0
-700,-293,0,0,0,0,0,0,0,0,0,-1,524,1317,0,0
-693,-293,0,0,0,0,0,0,0,0,0,-1,531,1317,0,0
-686,-293,0,0,0,0,0,0,0,0,0,-1,538,1317,0,0
-679,-293,0,0,0,0,0,0,0,0,0,-1,545,1317,0,0
-672,-293,0,0,0,0,0,0,0,0,0,-1,552,1317,0,0
-665,-293,0,0,0,0,0,0,0,0,0,-1,559,1317,0,0
-658,-293,0,0,0,0,0,0,0,0,0,-1,566,1317,0,0
-651,-293,-12.2428,-0.811401,0,0,0,0,0,0,0,-1,573,1317,-12.2428,0.811454
-644,-293,-12.1519,-1.05615,0,0,0,0,0,0,0,-1,580,1317,-12.1519,1.0561
-637,-293,-12.2043,-1.37793,0,0,0,0,0,0,0,-1,587,1317,-12.2043,1.37789
-630,-293,-12.4562,-1.74414,0,0,0,0,0,0,0,-1,594,1317,-12.4561,1.7441
-623,-293,-15.0671,0.482178,0,0,0,0,0,0,0,-1,601,1317,-15.0671,-0.482183
-616,-293,-14.7654,1.26978,0.0594451,0.0189212,0.0288091,0.074404,0.00396223,0.478924,0.0483361,0.0488134,608,1317,-14.7655,-1.26974
-609,-293,-14.4796,2.3783,0.0398836,0.016833,0.0201808,0.0515983,0.00511832,0.525948,0.0328261,0.0447974,615,1317,-14.4795,-2.37831
-602,-293,-14.5291,3.09912,0.0262326,0.013717,0.01386,0.035182,0.0047676,0.573347,0.0220381,0.0390017,622,1317,-14.5291,-3.09916
-595,-293,-14.6753,3.66504,0.0168723,0.0103626,0.0092218,0.0233968,0.00383812,0.615748,0.0144889,0.0177004,629,1317,-14.6753,-3.66506
-588,-293,-14.6625,4.0271,0.0102855,0.00757757,0.00583545,0.014922,0.00294108,0.671401,0.00912701,0.0151103,636,1317,-14.6625,-4.02704
-581,-293,-14.6567,4.4259,0.00636923,0.00548053,0.00350616,0.00945909,0.00239068,0.722367,0.00567944,0.0175905,643,1317,-14.6567,-4.42596
-574,-293,-14.6693,4.87122,0.0047921,0.00351036,0.00270106,0.00692727,0.00137518,0.668919,0.00423488,0.0166411,650,1317,-14.6693,-4.87124
-567,-293,-14.6852,5.26843,0.00433053,0.00220981,0.00233922,0.0058385,0.000701846,0.572603,0.00368076,0.0156364,657,1317,-14.6852,-5.26839
-560,-293,-14.6763,5.65979,0.00459637,0.00149651,0.00238332,0.00588942,0.000203468,0.497096,0.00386024,0.0163808,664,1317,-14.6763,-5.65982
-553,-293,-14.6672,6.04626,0.00584834,0.00190898,0.00306048,0.00751819,0.000239132,0.499472,0.00493435,0.011547,671,1317,-14.6673,-6.04625
-546,-293,-14.6788,6.45557,0.00738984,0.00263585,0.00420354,0.00984191,0.000183778,0.528076,0.00650088,0.0108889,678,1317,-14.6788,-6.45558
-539,-293,-14.6342,6.79175,0.00923805,0.00348199,0.00563039,0.0126833,3.67011e-05,0.54913,0.00844335,0.0313853,685,1317,-14.6341,-6.79174
-532,-293,-14.5836,7.05127,0,0,0,0,0,0,0,-1,692,1317,-14.5836,-7.05133
-525,-293,-8.20642,3.62256,0,0,0,0,0,0,0,-1,699,1317,-8.20639,-3.6226
-518,-293,-10.1053,0.314209,0,0,0,0,0,0,0,-1,706,1317,-10.1053,-0.314234
-511,-293,-11.6276,0.235352,0,0,0,0,0,0,0,-1,713,1317,-11.6276,-0.235372
-504,-293,-17.9086,1.25427,0,0,0,0,0,0,0,-1,720,1317,-17.9086,-1.25423
-497,-293,-18.8006,1.62122,0,0,0,0,0,0,0,-1,727,1317,-18.8006,-1.62119
-490,-293,-18.8961,1.99255,0,0,0,0,0,0,0,-1,734,1317,-18.8961,-1.99251
-483,-293,-19.0831,2.35498,0,0,0,0,0,0,0,-1,741,1317,-19.0831,-2.35497
-476,-293,-19.5228,2.61243,0,0,0,0,0,0,0,-1,748,1317,-19.5228,-2.61237
-469,-293,0,0,0,0,0,0,0,0,0,-1,755,1317,0,0
-462,-293,0,0,0,0,0,0,0,0,0,-1,762,1317,0,0
-455,-293,0,0,0,0,0,0,0,0,0,-1,769,1317,0,0
-448,-293,0,0,0,0,0,0,0,0,0,-1,776,1317,0,0
-441,-293,0,0,0,0,0,0,0,0,0,-1,783,1317,0,0
-434,-293,0,0,0,0,0,0,0,0,0,-1,790,1317,0,0
-427,-293,0,0,0,0,0,0,0,0,0,-1,797,1317,0,0
-420,-293,0,0,0,0,0,0,0,0,0,-1,804,1317,0,0
-413,-293,0,0,0,0,0,0,0,0,0,-1,811,1317,0,0
-406,-293,0,0,0,0,0,0,0,0,0,-1,818,1317,0,0
-399,-293,0,0,0,0,0,0,0,0,0,-1,825,1317,0,0
-392,-293,0,0,0,0,0,0,0,0,0,-1,832,1317,0,0
-385,-293,0,0,0,0,0,0,0,0,0,-1,839,1317,0,0
-378,-293,0,0,0,0,0,0,0,0,0,-1,846,1317,0,0
-371,-293,0,0,0,0,0,0,0,0,0,-1,853,1317,0,0
-364,-293,0,0,0,0,0,0,0,0,0,-1,860,1317,0,0
-357,-293,0,0,0,0,0,0,0,0,0,-1,867,1317,0,0
-350,-293,0,0,0,0,0,0,0,0,0,-1,874,1317,0,0
-343,-293,0,0,0,0,0,0,0,0,0,-1,881,1317,0,0
-336,-293,0,0,0,0,0,0,0,0,0,-1,888,1317,0,0
-329,-293,0,0,0,0,0,0,0,0,0,-1,895,1317,0,0
-322,-293,0,0,0,0,0,0,0,0,0,-1,902,1317,0,0
-315,-293,0,0,0,0,0,0,0,0,0,-1,909,1317,0,0
-308,-293,0,0,0,0,0,0,0,0,0,-1,916,1317,0,0
-301,-293,0,0,0,0,0,0,0,0,0,-1,923,1317,0,0
-294,-293,0,0,0,0,0,0,0,0,0,-1,930,1317,0,0
-287,-293,0,0,0,0,0,0,0,0,0,-1,937,1317,0,0
-280,-293,0,0,0,0,0,0,0,0,0,-1,944,1317,0,0
-273,-293,0,0,0,0,0,0,0,0,0,-1,951,1317,0,0
-266,-293,0,0,0,0,0,0,0,0,0,-1,958,1317,0,0
-259,-293,0,0,0,0,0,0,0,0,0,-1,965,1317,0,0
-252,-293,0,0,0,0,0,0,0,0,0,-1,972,1317,0,0
-245,-293,0,0,0,0,0,0,0,0,0,-1,979,1317,0,0
-238,-293,0,0,0,0,0,0,0,0,0,-1,986,1317,0,0
-231,-293,0,0,0,0,0,0,0,0,0,-1,993,1317,0,0
-224,-293,0,0,0,0,0,0,0,0,0,-1,1000,1317,0,0
-217,-293,0,0,0,0,0,0,0,0,0,-1,1007,1317,0,0
-210,-293,0,0,0,0,0,0,0,0,0,-1,1014,1317,0,0
-203,-293,0,0,0,0,0,0,0,0,0,-1,1021,1317,0,0
-196,-293,0,0,0,0,0,0,0,0,0,-1,1028,1317,0,0
-189,-293,0,0,0,0,0,0,0,0,0,-1,1035,1317,0,0
-182,-293,0,0,0,0,0,0,0,0,0,-1,1042,1317,0,0
-175,-293,0,0,0,0,0,0,0,0,0,-1,1049,1317,0,0
-168,-293,0,0,0,0,0,0,0,0,0,-1,1056,1317,0,0
-161,-293,0,0,0,0,0,0,0,0,0,-1,1063,1317,0,0
-154,-293,0,0,0,0,0,0,0,0,0,-1,1070,1317,0,0
-147,-293,0,0,0,0,0,0,0,0,0,-1,1077,1317,0,0
-140,-293,0,0,0,0,0,0,0,0,0,-1,1084,1317,0,0
-133,-293,0,0,0,0,0,0,0,0,0,-1,1091,1317,0,0
-126,-293,0,0,0,0,0,0,0,0,0,-1,1098,1317,0,0
-119,-293,0,0,0,0,0,0,0,0,0,-1,1105,1317,0,0
-112,-293,0,0,0,0,0,0,0,0,0,-1,1112,1317,0,0
-105,-293,0,0,0,0,0,0,0,0,0,-1,1119,1317,0,0
-98,-293,0,0,0,0,0,0,0,0,0,-1,1126,1317,0,0
-91,-293,0,0,0,0,0,0,0,0,0,-1,1133,1317,0,0
-84,-293,0,0,0,0,0,0,0,0,0,-1,1140,1317,0,0
-77,-293,0,0,0,0,0,0,0,0,0,-1,1147,1317,0,0
-70,-293,0,0,0,0,0,0,0,0,0,-1,1154,1317,0,0
-63,-293,0,0,0,0,0,0,0,0,0,-1,1161,1317,0,0
-56,-293,0,0,0,0,0,0,0,0,0,-1,1168,1317,0,0
-49,-293,0,0,0,0,0,0,0,0,0,-1,1175,1317,0,0
-42,-293,0,0,0,0,0,0,0,0,0,-1,1182,1317,0,0
-35,-293,0,0,0,0,0,0,0,0,0,-1,1189,1317,0,0
-28,-293,0,0,0,0,0,0,0,0,0,-1,1196,1317,0,0
-21,-293,0,0,0,0,0,0,0,0,0,-1,1203,1317,0,0
-14,-293,0,0,0,0,0,0,0,0,0,-1,1210,1317,0,0
-7,-293,0,0,0,0,0,0,0,0,0,-1,1217,1317,0,0
0,-293,0,0,0,0,0,0,0,0,0,-1,1224,1317,0,0
7,-293,0,0,0,0,0,0,0,0,0,-1,1231,1317,0,0
14,-293,0,0,0,0,0,0,0,0,0,-1,1238,1317,0,0
21,-293,0,0,0,0,0,0,0,0,0,-1,1245,1317,0,0
28,-293,0,0,0,0,0,0,0,0,0,-1,1252,1317,0,0
35,-293,0,0,0,0,0,0,0,0,0,-1,1259,1317,0,0
42,-293,0,0,0,0,0,0,0,0,0,-1,1266,1317,0,0
49,-293,0,0,0,0,0,0,0,0,0,-1,1273,1317,0,0
56,-293,0,0,0,0,0,0,0,0,0,-1,1280,1317,0,0
63,-293,0,0,0,0,0,0,0,0,0,-1,1287,1317,0,0
70,-293,0,0,0,0,0,0,0,0,0,-1,1294,1317,0,0
77,-293,0,0,0,0,0,0,0,0,0,-1,1301,1317,0,0
84,-293,0,0,0,0,0,0,0,0,0,-1,1308,1317,0,0
91,-293,0,0,0,0,0,0,0,0,0,-1,1315,1317,0,0
98,-293,0,0,0,0,0,0,0,0,0,-1,1322,1317,0,0
105,-293,0,0,0,0,0,0,0,0,0,-1,1329,1317,0,0
112,-293,0,0,0,0,0,0,0,0,0,-1,1336,1317,0,0
119,-293,0,0,0,0,0,0,0,0,0,-1,1343,1317,0,0
126,-293,0,0,0,0,0,0,0,0,0,-1,1350,1317,0,0
133,-293,0,0,0,0,0,0,0,0,0,-1,1357,1317,0,0
140,-293,0,0,0,0,0,0,0,0,0,-1,1364,1317,0,0
147,-293,0,0,0,0,0,0,0,0,0,-1,1371,1317,0,0
154,-293,0,0,0,0,0,0,0,0,0,-1,1378,1317,0,0
161,-293,0,0,0,0,0,0,0,0,0,-1,1385,1317,0,0
168,-293,0,0,0,0,0,0,0,0,0,-1,1392,1317,0,0
175,-293,0,0,0,0,0,0,0,0,0,-1,1399,1317,0,0
182,-293,0,0,0,0,0,0,0,0,0,-1,1406,1317,0,0
189,-293,0,0,0,0,0,0,0,0,0,-1,1413,1317,0,0
196,-293,0,0,0,0,0,0,0,0,0,-1,1420,1317,0,0
203,-293,0,0,0,0,0,0,0,0,0,-1,1427,1317,0,0
210,-293,0,0,0,0,0,0,0,0,0,-1,1434,1317,0,0
217,-293,0,0,0,0,0,0,0,0,0,-1,1441,1317,0,0
224,-293,0,0,0,0,0,0,0,0,0,-1,1448,1317,0,0
231,-293,0,0,0,0,0,0,0,0,0,-1,1455,1317,0,0
238,-293,0,0,0,0,0,0,0,0,0,-1,1462,1317,0,0
245,-293,0,0,0,0,0,0,0,0,0,-1,1469,1317,0,0
252,-293,0,0,0,0,0,0,0,0,0,-1,1476,1317,0,0
259,-293,0,0,0,0,0,0,0,0,0,-1,1483,1317,0,0
266,-293,0,0,0,0,0,0,0,0,0,-1,1490,1317,0,0
273,-293,0,0,0,0,0,0,0,0,0,-1,1497,1317,0,0
280,-293,0,0,0,0,0,0,0,0,0,-1,1504,1317,0,0
287,-293,0,0,0,0,0,0,0,0,0,-1,1511,1317,0,0
294,-293,0,0,0,0,0,0,0,0,0,-1,1518,1317,0,0
301,-293,0,0,0,0,0,0,0,0,0,-1,1525,1317,0,0
308,-293,0,0,0,0,0,0,0,0,0,-1,1532,1317,0,0
315,-293,0,0,0,0,0,0,0,0,0,-1,1539,1317,0,0
322,-293,0,0,0,0,0,0,0,0,0,-1,1546,1317,0,0
329,-293,0,0,0,0,0,0,0,0,0,-1,1553,1317,0,0
336,-293,0,0,0,0,0,0,0,0,0,-1,1560,1317,0,0
343,-293,0,0,0,0,0,0,0,0,0,-1,1567,1317,0,0
350,-293,0,0,0,0,0,0,0,0,0,-1,1574,1317,0,0
357,-293,0,0,0,0,0,0,0,0,0,-1,1581,1317,0,0
364,-293,0,0,0,0,0,0,0,0,0,-1,1588,1317,0,0
371,-293,0,0,0,0,0,0,0,0,0,-1,1595,1317,0,0
378,-293,0,0,0,0,0,0,0,0,0,-1,1602,1317,0,0
385,-293,0,0,0,0,0,0,0,0,0,-1,1609,1317,0,0
392,-293,0,0,0,0,0,0,0,0,0,-1,1616,1317,0,0
399,-293,0,0,0,0,0,0,0,0,0,-1,1623,1317,0,0
406,-293,0,0,0,0,0,0,0,0,0,-1,1630,1317,0,0
413,-293,0,0,0,0,0,0,0,0,0,-1,1637,1317,0,0
420,-293,0,0,0,0,0,0,0,0,0,-1,1644,1317,0,0
427,-293,0,0,0,0,0,0,0,0,0,-1,1651,1317,0,0
434,-293,0,0,0,0,0,0,0,0,0,-1,1658,1317,0,0
441,-293,0,0,0,0,0,0,0,0,0,-1,1665,1317,0,0
448,-293,0,0,0,0,0,0,0,0,0,-1,1672,1317,0,0
455,-293,0,0,0,0,0,0,0,0,0,-1,1679,1317,0,0
462,-293,0,0,0,0,0,0,0,0,0,-1,1686,1317,0,0
469,-293,0,0,0,0,0,0,0,0,0,-1,1693,1317,0,0
476,-293,0,0,0,0,0,0,0,0,0,-1,1700,1317,0,0
483,-293,0,0,0,0,0,0,0,0,0,-1,1707,1317,0,0
490,-293,0,0,0,0,0,0,0,0,0,-1,1714,1317,0,0
497,-293,0,0,0,0,0,0,0,0,0,-1,1721,1317,0,0
504,-293,0,0,0,0,0,0,0,0,0,-1,1728,1317,0,0
511,-293,0,0,0,0,0,0,0,0,0,-1,1735,1317,0,0
518,-293,0,0,0,0,0,0,0,0,0,-1,1742,1317,0,0
525,-293,0,0,0,0,0,0,0,0,0,-1,1749,1317,0,0
532,-293,0,0,0,0,0,0,0,0,0,-1,1756,1317,0,0
539,-293,0,0,0,0,0,0,0,0,0,-1,1763,1317,0,0
546,-293,0,0,0,0,0,0,0,0,0,-1,1770,1317,0,0
553,-293,0,0,0,0,0,0,0,0,0,-1,1777,1317,0,0
560,-293,0,0,0,0,0,0,0,0,0,-1,1784,1317,0,0
567,-293,0,0,0,0,0,0,0,0,0,-1,1791,1317,0,0
574,-293,0,0,0,0,0,0,0,0,0,-1,1798,1317,0,0
581,-293,0,0,0,0,0,0,0,0,0,-1,1805,1317,0,0
588,-293,0,0,0,0,0,0,0,0,0,-1,1812,1317,0,0
595,-293,35.011,1.63013,0,0,0,0,0,0,0,-1,1819,1317,35.011,-1.63009
602,-293,36.3171,2.55688,0,0,0,0,0,0,0,-1,1826,1317,36.3172,-2.5569
609,-293,35.4271,2.17041,0,0,0,0,0,0,0,-1,1833,1317,35.4271,-2.17046
616,-293,35.1995,2.84656,0,0,0,0,0,0,0,-1,1840,1317,35.1995,-2.8466
623,-293,34.9468,2.51465,0,0,0,0,0,0,0,-1,1847,1317,34.9468,-2.5147
630,-293,34.7789,2.2533,0,0,0,0,0,0,0,-1,1854,1317,34.7789,-2.25334
637,-293,30.8379,3.60046,0,0,0,0,0,0,0,-1,1861,1317,30.8379,-3.60043
644,-293,24.4565,0.520752,0,0,0,0,0,0,0,-1,1868,1317,24.4566,-0.520709
651,-293,25.8926,9.51245,0,0,0,0,0,0,0,-1,1875,1317,25.8926,-9.51246
658,-293,25.4904,9.10205,0,0,0,0,0,0,0,-1,1882,1317,25.4904,-9.10209
665,-293,25.973,9.08215,0,0,0,0,0,0,0,-1,1889,1317,25.973,-9.08217
672,-293,25.791,8.87073,-0.00412836,0.00163982,0.00213108,0.00234174,-0.00483028,1.25261,0.00422304,0.0266456,1896,1317,25.7911,-8.87069
679,-293,25.7543,8.495,-0.00167443,0.00086205,0.00127013,0.00138871,-0.00220109,1.17772,0.00209019,0.0138879,1903,1317,25.7543,-8.49495
686,-293,25.7555,8.14734,-0.000249051,-0.000232604,0.000454291,0.000213538,-0.000695192,0.794448,0.000548671,0.0165653,1910,1317,25.7555,-8.14736
693,-293,25.733,7.78967,-0.000253074,-0.00025098,0.000105032,-0.00014699,-0.000357065,0.790381,0.000207221,0.0126406,1917,1317,25.733,-7.78965
700,-293,25.7101,7.4353,-0.000121573,-0.000210878,0.000483743,0.000319573,-0.000652025,0.739376,0.000571794,0.010901,1924,1317,25.7101,-7.43532
707,-293,25.7166,7.12207,-0.000498332,-0.000274272,0.00103303,0.000652789,-0.00142539,0.839411,0.00122717,0.0120804,1931,1317,25.7166,-7.1221
714,-293,25.7183,6.79834,-0.0012422,-0.000521635,0.0018716,0.00102404,-0.00278787,0.880484,0.00227799,0.00884678,1938,1317,25.7183,-6.79834
721,-293,25.7322,6.44092,-0.00216541,-0.000806123,0.00285314,0.00144721,-0.00441874,0.902324,0.00352859,0.0100381,1945,1317,25.7322,-6.4409
728,-293,25.7427,6.07349,-0.00316614,-0.00122203,0.00399553,0.00191798,-0.00630616,0.904723,0.00496841,0.0125868,1952,1317,25.7427,-6.07354
735,-293,25.7548,5.70703,-0.00412896,-0.00176613,0.0052208,0.00240526,-0.00830034,0.89667,0.00648572,0.0225216,1959,1317,25.7547,-5.70702
742,-293,25.7869,5.40491,-0.00499292,-0.00263841,0.00665333,0.00294101,-0.0105723,0.872963,0.00820616,0.0479924,1966,1317,25.7869,-5.4049
749,-293,26.356,5.00586,0,0,0,0,0,0,0,-1,1973,1317,26.3559,-5.00587
756,-293,24.978,3.9718,0,0,0,0,0,0,0,-1,1980,1317,24.978,-3.97186
763,-293,26.6713,4.74097,0,0,0,0,0,0,0,-1,1987,1317,26.6713,-4.74098
770,-293,24.1349,4.69153,0,0,0,0,0,0,0,-1,1994,1317,24.1348,-4.69159
777,-293,0,0,0,0,0,0,0,0,0,-1,2001,1317,0,0
784,-293,0,0,0,0,0,0,0,0,0,-1,2008,1317,0,0
791,-293,0,0,0,0,0,0,0,0,0,-1,2015,1317,0,0
798,-293,0,0,0,0,0,0,0,0,0,-1,2022,1317,0,0
805,-293,0,0,0,0,0,0,0,0,0,-1,2029,1317,0,0
812,-293,0,0,0,0,0,0,0,0,0,-1,2036,1317,0,0
-700,-300,0,0,0,0,0,0,0,0,0,-1,524,1324,0,0
-693,-300,0,0,0,0,0,0,0,0,0,-1,531,1324,0,0
-686,-300,0,0,0,0,0,0,0,0,0,-1,538,1324,0,0
-679,-300,0,0,0,0,0,0,0,0,0,-1,545,1324,0,0
-672,-300,0,0,0,0,0,0,0,0,0,-1,552,1324,0,0
-665,-300,0,0,0,0,0,0,0,0,0,-1,559,1324,0,0
-658,-300,0,0,0,0,0,0,0,0,0,-1,566,1324,0,0
-651,-300,-11.6391,-1.20459,0,0,0,0,0,0,0,-1,573,1324,-11.6391,1.20456
-644,-300,-11.488,-1.48987,0,0,0,0,0,0,0,-1,580,1324,-11.488,1.48988
-637,-300,-11.6964,-1.78064,0,0,0,0,0,0,0,-1,587,1324,-11.6964,1.78059
-630,-300,-11.5876,-2.3512,0,0,0,0,0,0,0,-1,594,1324,-11.5876,2.35116
-623,-300,-12.7067,1.48462,0,0,0,0,0,0,0,-1,601,1324,-12.7067,-1.48462
-616,-300,-14.2523,1.63464,0,0,0,0,0,0,0,-1,608,1324,-14.2523,-1.63458
-609,-300,-14.1759,2.45166,0,0,0,0,0,0,0,-1,615,1324,-14.1759,-2.45168
-602,-300,-14.1053,2.98438,0,0,0,0,0,0,0,-1,622,1324,-14.1054,-2.98438
-595,-300,-14.2971,3.66113,0.0167707,0.0106095,0.00938896,0.0235715,0.00380866,0.626877,0.0146112,0.0288939,629,1324,-14.2971,-3.66115
-588,-300,-14.2589,4.07239,0.0104484,0.00744027,0.00587234,0.0150062,0.00288245,0.660029,0.00919519,0.0196069,636,1324,-14.2589,-4.07235
-581,-300,-14.2789,4.46729,0.00651438,0.00530352,0.00352306,0.00948365,0.00233424,0.700306,0.00570579,0.0200204,643,1324,-14.2789,-4.46733
-574,-300,-14.2834,4.87439,0.00486477,0.00337634,0.00259057,0.00681591,0.0014252,0.645526,0.00415124,0.0158496,650,1324,-14.2835,-4.87435
-567,-300,-14.2874,5.26465,0.00426051,0.0021344,0.00214479,0.00559124,0.000803673,0.55532,0.00349058,0.0157793,657,1324,-14.2873,-5.26464
-560,-300,-14.2863,5.65723,0.00426991,0.00126579,0.00204011,0.00530127,0.000234423,0.468072,0.00345869,0.0150695,664,1324,-14.2862,-5.65722
-553,-300,-14.2777,6.05359,0.00541069,0.00151726,0.00251132,0.00664146,0.000286488,0.455687,0.0043353,0.0104871,671,1324,-14.2777,-6.05357
-546,-300,-14.2887,6.44727,0.00718555,0.00214218,0.00340105,0.00889777,0.000429951,0.466397,0.00579385,0.00906194,678,1324,-14.2887,-6.44722
-539,-300,-14.2596,6.82361,0.00949667,0.00289846,0.00458337,0.0118448,0.000550325,0.473452,0.00771964,0.0189203,685,1324,-14.2596,-6.82365
-532,-300,-14.2233,7.1803,0,0,0,0,0,0,0,-1,692,1324,-14.2233,-7.18028
-525,-300,-13.5115,6.27783,0,0,0,0,0,0,0,-1,699,1324,-13.5115,-6.2778
-518,-300,-9.8349,-0.537109,0,0,0,0,0,0,0,-1,706,1324,-9.83487,0.537068
-511,-300,-12.8644,0.081665,0,0,0,0,0,0,0,-1,713,1324,-12.8644,-0.0817016
-504,-300,-13.4829,-0.165527,0,0,0,0,0,0,0,-1,720,1324,-13.4829,0.165544
-497,-300,-18.1063,0.956543,0,0,0,0,0,0,0,-1,727,1324,-18.1063,-0.9565
-490,-300,-18.2293,1.53625,0,0,0,0,0,0,0,-1,734,1324,-18.2293,-1.53626
-483,-300,-18.3522,1.61084,0,0,0,0,0,0,0,-1,741,1324,-18.3522,-1.6108
-476,-300,-18.7489,1.96387,0,0,0,0,0,0,0,-1,748,1324,-18.7489,-1.96387
-469,-300,0,0,0,0,0,0,0,0,0,-1,755,1324,0,0
-462,-300,0,0,0,0,0,0,0,0,0,-1,762,1324,0,0
-455,-300,0,0,0,0,0,0,0,0,0,-1,769,1324,0,0
-448,-300,0,0,0,0,0,0,0,0,0,-1,776,1324,0,0
-441,-300,0,0,0,0,0,0,0,0,0,-1,783,1324,0,0
-434,-300,0,0,0,0,0,0,0,0,0,-1,790,1324,0,0
-427,-300,0,0,0,0,0,0,0,0,0,-1,797,1324,0,0
-420,-300,0,0,0,0,0,0,0,0,0,-1,804,1324,0,0
-413,-300,0,0,0,0,0,0,0,0,0,-1,811,1324,0,0
-406,-300,0,0,0,0,0,0,0,0,0,-1,818,1324,0,0
-399,-300,0,0,0,0,0,0,0,0,0,-1,825,1324,0,0
-392,-300,0,0,0,0,0,0,0,0,0,-1,832,1324,0,0
-385,-300,0,0,0,0,0,0,0,0,0,-1,839,1324,0,0
-378,-300,0,0,0,0,0,0,0,0,0,-1,846,1324,0,0
-371,-300,0,0,0,0,0,0,0,0,0,-1,853,1324,0,0
-364,-300,0,0,0,0,0,0,0,0,0,-1,860,1324,0,0
-357,-300,0,0,0,0,0,0,0,0,0,-1,867,1324,0,0
-350,-300,0,0,0,0,0,0,0,0,0,-1,874,1324,0,0
-343,-300,0,0,0,0,0,0,0,0,0,-1,881,1324,0,0
-336,-300,0,0,0,0,0,0,0,0,0,-1,888,1324,0,0
-329,-300,0,0,0,0,0,0,0,0,0,-1,895,1324,0,0
-322,-300,0,0,0,0,0,0,0,0,0,-1,902,1324,0,0
-315,-300,0,0,0,0,0,0,0,0,0,-1,909,1324,0,0
-308,-300,0,0,0,0,0,0,0,0,0,-1,916,1324,0,0
-301,-300,0,0,0,0,0,0,0,0,0,-1,923,1324,0,0
-294,-300,0,0,0,0,0,0,0,0,0,-1,930,1324,0,0
-287,-300,0,0,0,0,0,0,0,0,0,-1,937,1324,0,0
-280,-300,0,0,0,0,0,0,0,0,0,-1,944,1324,0,0
-273,-300,0,0,0,0,0,0,0,0,0,-1,951,1324,0,0
-266,-300,0,0,0,0,0,0,0,0,0,-1,958,1324,0,0
-259,-300,0,0,0,0,0,0,0,0,0,-1,965,1324,0,0
-252,-300,0,0,0,0,0,0,0,0,0,-1,972,1324,0,0
-245,-300,0,0,0,0,0,0,0,0,0,-1,979,1324,0,0
-238,-300,0,0,0,0,0,0,0,0,0,-1,986,1324,0,0
-231,-300,0,0,0,0,0,0,0,0,0,-1,993,1324,0,0
-224,-300,0,0,0,0,0,0,0,0,0,-1,1000,1324,0,0
-217,-300,0,0,0,0,0,0,0,0,0,-1,1007,1324,0,0
-210,-300,0,0,0,0,0,0,0,0,0,-1,1014,1324,0,0
-203,-300,0,0,0,0,0,0,0,0,0,-1,1021,1324,0,0
-196,-300,0,0,0,0,0,0,0,0,0,-1,1028,1324,0,0
-189,-300,0,0,0,0,0,0,0,0,0,-1,1035,1324,0,0
-182,-300,0,0,0,0,0,0,0,0,0,-1,1042,1324,0,0
-175,-300,0,0,0,0,0,0,0,0,0,-1,1049,1324,0,0
-168,-300,0,0,0,0,0,0,0,0,0,-1,1056,1324,0,0
-161,-300,0,0,0,0,0,0,0,0,0,-1,1063,1324,0,0
-154,-300,0,0,0,0,0,0,0,0,0,-1,1070,1324,0,0
-147,-300,0,0,0,0,0,0,0,0,0,-1,1077,1324,0,0
-140,-300,0,0,0,0,0,0,0,0,0,-1,1084,1324,0,0
-133,-300,0,0,0,0,0,0,0,0,0,-1,1091,1324,0,0
-126,-300,0,0,0,0,0,0,0,0,0,-1,1098,1324,0,0
-119,-300,0,0,0,0,0,0,0,0,0,-1,1105,1324,0,0
-112,-300,0,0,0,0,0,0,0,0,0,-1,1112,1324,0,0
-105,-300,0,0,0,0,0,0,0,0,0,-1,1119,1324,0,0
-98,-300,0,0,0,0,0,0,0,0,0,-1,1126,1324,0,0
-91,-300,0,0,0,0,0,0,0,0,0,-1,1133,1324,0,0
-84,-300,0,0,0,0,0,0,0,0,0,-1,1140,1324,0,0
-77,-300,0,0,0,0,0,0,0,0,0,-1,1147,1324,0,0
-70,-300,0,0,0,0,0,0,0,0,0,-1,1154,1324,0,0
-63,-300,0,0,0,0,0,0,0,0,0,-1,1161,1324,0,0
-56,-300,0,0,0,0,0,0,0,0,0,-1,1168,1324,0,0
-49,-300,0,0,0,0,0,0,0,0,0,-1,1175,1324,0,0
-42,-300,0,0,0,0,0,0,0,0,0,-1,1182,1324,0,0
-35,-300,0,0,0,0,0,0,0,0,0,-1,1189,1324,0,0
-28,-300,0,0,0,0,0,0,0,0,0,-1,1196,1324,0,0
-21,-300,0,0,0,0,0,0,0,0,0,-1,1203,1324,0,0
-14,-300,0,0,0,0,0,0,0,0,0,-1,1210,1324,0,0
-7,-300,0,0,0,0,0,0,0,0,0,-1,1217,1324,0,0
0,-300,0,0,0,0,0,0,0,0,0,-1,1224,1324,0,0
7,-300,0,0,0,0,0,0,0,0,0,-1,1231,1324,0,0
14,-300,0,0,0,0,0,0,0,0,0,-1,1238,1324,0,0
21,-300,0,0,0,0,0,0,0,0,0,-1,1245,1324,0,0
28,-300,0,0,0,0,0,0,0,0,0,-1,1252,1324,0,0
35,-300,0,0,0,0,0,0,0,0,0,-1,1259,1324,0,0
42,-300,0,0,0,0,0,0,0,0,0,-1,1266,1324,0,0
49,-300,0,0,0,0,0,0,0,0,0,-1,1273,1324,0,0
56,-300,0,0,0,0,0,0,0,0,0,-1,1280,1324,0,0
63,-300,0,0,0,0,0,0,0,0,0,-1,1287,1324,0,0
70,-300,0,0,0,0,0,0,0,0,0,-1,1294,1324,0,0
77,-300,0,0,0,0,0,0,0,0,0,-1,1301,1324,0,0
84,-300,0,0,0,0,0,0,0,0,0,-1,1308,1324,0,0
91,-300,0,0,0,0,0,0,0,0,0,-1,1315,1324,0,0
98,-300,0,0,0,0,0,0,0,0,0,-1,1322,1324,0,0
105,-300,0,0,0,0,0,0,0,0,0,-1,1329,1324,0,0
112,-300,0,0,0,0,0,0,0,0,0,-1,1336,1324,0,0
119,-300,0,0,0,0,0,0,0,0,0,-1,1343,1324,0,0
126,-300,0,0,0,0,0,0,0,0,0,-1,1350,1324,0,0
133,-300,0,0,0,0,0,0,0,0,0,-1,1357,1324,0,0
140,-300,0,0,0,0,0,0,0,0,0,-1,1364,1324,0,0
147,-300,0,0,0,0,0,0,0,0,0,-1,1371,1324,0,0
154,-300,0,0,0,0,0,0,0,0,0,-1,1378,1324,0,0
161,-300,0,0,0,0,0,0,0,0,0,-1,1385,1324,0,0
168,-300,0,0,0,0,0,0,0,0,0,-1,1392,1324,0,0
175,-300,0,0,0,0,0,0,0,0,0,-1,1399,1324,0,0
182,-300,0,0,0,0,0,0,0,0,0,-1,1406,1324,0,0
189,-300,0,0,0,0,0,0,0,0,0,-1,1413,1324,0,0
196,-300,0,0,0,0,0,0,0,0,0,-1,1420,1324,0,0
203,-300,0,0,0,0,0,0,0,0,0,-1,1427,1324,0,0
210,-300,0,0,0,0,0,0,0,0,0,-1,1434,1324,0,0
217,-300,0,0,0,0,0,0,0,0,0,-1,1441,1324,0,0
224,-300,0,0,0,0,0,0,0,0,0,-1,1448,1324,0,0
231,-300,0,0,0,0,0,0,0,0,0,-1,1455,1324,0,0
238,-300,0,0,0,0,0,0,0,0,0,-1,1462,1324,0,0
245,-300,0,0,0,0,0,0,0,0,0,-1,1469,1324,0,0
252,-300,0,0,0,0,0,0,0,0,0,-1,1476,1324,0,0
259,-300,0,0,0,0,0,0,0,0,0,-1,1483,1324,0,0
266,-300,0,0,0,0,0,0,0,0,0,-1,1490,1324,0,0
273,-300,0,0,0,0,0,0,0,0,0,-1,1497,1324,0,0
280,-300,0,0,0,0,0,0,0,0,0,-1,1504,1324,0,0
287,-300,0,0,0,0,0,0,0,0,0,-1,1511,1324,0,0
294,-300,0,0,0,0,0,0,0,0,0,-1,1518,1324,0,0
301,-300,0,0,0,0,0,0,0,0,0,-1,1525,1324,0,0
308,-300,0,0,0,0,0,0,0,0,0,-1,1532,1324,0,0
315,-300,0,0,0,0,0,0,0,0,0,-1,1539,1324,0,0
322,-300,0,0,0,0,0,0,0,0,0,-1,1546,1324,0,0
329,-300,0,0,0,0,0,0,0,0,0,-1,1553,1324,0,0
336,-300,0,0,0,0,0,0,0,0,0,-1,1560,1324,0,0
343,-300,0,0,0,0,0,0,0,0,0,-1,1567,1324,0,0
350,-300,0,0,0,0,0,0,0,0,0,-1,1574,1324,0,0
357,-300,0,0,0,0,0,0,0,0,0,-1,1581,1324,0,0
364,-300,0,0,0,0,0,0,0,0,0,-1,1588,1324,0,0
371,-300,0,0,0,0,0,0,0,0,0,-1,1595,1324,0,0
378,-300,0,0,0,0,0,0,0,0,0,-1,1602,1324,0,0
385,-300,0,0,0,0,0,0,0,0,0,-1,1609,1324,0,0
392,-300,0,0,0,0,0,0,0,0,0,-1,1616,1324,0,0
399,-300,0,0,0,0,0,0,0,0,0,-1,1623,1324,0,0
406,-300,0,0,0,0,0,0,0,0,0,-1,1630,1324,0,0
413,-300,0,0,0,0,0,0,0,0,0,-1,1637,1324,0,0
420,-300,0,0,0,0,0,0,0,0,0,-1,1644,1324,0,0
427,-300,0,0,0,0,0,0,0,0,0,-1,1651,1324,0,0
434,-300,0,0,0,0,0,0,0,0,0,-1,1658,1324,0,0
441,-300,0,0,0,0,0,0,0,0,0,-1,1665,1324,0,0
448,-300,0,0,0,0,0,0,0,0,0,-1,1672,1324,0,0
455,-300,0,0,0,0,0,0,0,0,0,-1,1679,1324,0,0
462,-300,0,0,0,0,0,0,0,0,0,-1,1686,1324,0,0
469,-300,0,0,0,0,0,0,0,0,0,-1,1693,1324,0,0
476,-300,0,0,0,0,0,0,0,0,0,-1,1700,1324,0,0
483,-300,0,0,0,0,0,0,0,0,0,-1,1707,1324,0,0
490,-300,0,0,0,0,0,0,0,0,0,-1,1714,1324,0,0
497,-300,0,0,0,0,0,0,0,0,0,-1,1721,1324,0,0
504,-300,0,0,0,0,0,0,0,0,0,-1,1728,1324,0,0
511,-300,0,0,0,0,0,0,0,0,0,-1,1735,1324,0,0
518,-300,0,0,0,0,0,0,0,0,0,-1,1742,1324,0,0
525,-300,0,0,0,0,0,0,0,0,0,-1,1749,1324,0,0
532,-300,0,0,0,0,0,0,0,0,0,-1,1756,1324,0,0
539,-300,0,0,0,0,0,0,0,0,0,-1,1763,1324,0,0
546,-300,0,0,0,0,0,0,0,0,0,-1,1770,1324,0,0
553,-300,0,0,0,0,0,0,0,0,0,-1,1777,1324,0,0
560,-300,0,0,0,0,0,0,0,0,0,-1,1784,1324,0,0
567,-300,0,0,0,0,0,0,0,0,0,-1,1791,1324,0,0
574,-300,0,0,0,0,0,0,0,0,0,-1,1798,1324,0,0
581,-300,0,0,0,0,0,0,0,0,0,-1,1805,1324,0,0
588,-300,35.509,3.08911,0,0,0,0,0,0,0,-1,1812,1324,35.509,-3.08913
595,-300,35.0093,2.37744,0,0,0,0,0,0,0,-1,1819,1324,35.0092,-2.3775
602,-300,34.6365,1.51331,0,0,0,0,0,0,0,-1,1826,1324,34.6365,-1.51331
609,-300,34.9525,1.44312,0,0,0,0,0,0,0,-1,1833,1324,34.9525,-1.44306
616,-300,35.4565,1.35962,0,0,0,0,0,0,0,-1,1840,1324,35.4565,-1.35957
623,-300,34.5723,2.62451,0,0,0,0,0,0,0,-1,1847,1324,34.5722,-2.62451
630,-300,34.4613,4.74854,0,0,0,0,0,0,0,-1,1854,1324,34.4614,-4.74855
637,-300,31.1719,4.6366,0,0,0,0,0,0,0,-1,1861,1324,31.1718,-4.63665
644,-300,22.9836,3.44934,0,0,0,0,0,0,0,-1,1868,1324,22.9836,-3.4493
651,-300,25.5004,9.11853,0,0,0,0,0,0,0,-1,1875,1324,25.5004,-9.11851
658,-300,25.4012,9.20032,0,0,0,0,0,0,0,-1,1882,1324,25.4012,-9.20036
665,-300,25.4309,9.26099,0,0,0,0,0,0,0,-1,1889,1324,25.4309,-9.26094
672,-300,25.3734,8.91223,-0.00332572,0.00161287,0.0015493,0.00205866,-0.00377152,1.29062,0.00341414,0.0166578,1896,1324,25.3735,-8.91228
679,-300,25.401,8.51526,-0.000942534,0.000825205,0.000759208,0.00110651,-0.00122383,1.21596,0.00134599,0.0132919,1903,1324,25.4011,-8.51527
686,-300,25.4192,8.16418,0.000209878,-0.000149198,0.000174226,0.000280518,-0.000219838,0.385192,0.000289588,0.0140089,1910,1324,25.4191,-8.16414
693,-300,25.3981,7.8147,-2.09993e-05,-0.000167763,6.9867e-05,6.94156e-06,-0.000195704,0.380433,0.000132843,0.0114649,1917,1324,25.3981,-7.81464
700,-300,25.3805,7.45251,-0.000228567,-0.000171689,0.000565412,0.000365999,-0.000766255,0.810526,0.000667183,0.0123045,1924,1324,25.3805,-7.45257
707,-300,25.3767,7.10229,-0.00077896,-0.000218891,0.00119737,0.000730752,-0.0017286,0.900271,0.00145835,0.00955687,1931,1324,25.3767,-7.10224
714,-300,25.3727,6.77966,-0.00160249,-0.000371048,0.00201237,0.00111768,-0.00309122,0.93386,0.00251748,0.0113145,1938,1324,25.3727,-6.7797
721,-300,25.3777,6.44397,-0.00265172,-0.000549232,0.00298886,0.00156787,-0.00476882,0.954501,0.00381091,0.0123314,1945,1324,25.3776,-6.44393
728,-300,25.4041,6.0708,-0.00388694,-0.000810239,0.00416889,0.00209507,-0.00679225,0.962151,0.00536467,0.013984,1952,1324,25.404,-6.07081
735,-300,25.22,5.92444,-0.00521499,-0.00109868,0.00546009,0.00267829,-0.00899195,0.965636,0.00705885,0.0255375,1959,1324,25.2199,-5.92449
742,-300,25.5857,5.5033,0,0,0,0,0,0,0,-1,1966,1324,25.5857,-5.50333
749,-300,25.5773,5.43201,0,0,0,0,0,0,0,-1,1973,1324,25.5773,-5.43203
756,-300,22.1423,3.45642,0,0,0,0,0,0,0,-1,1980,1324,22.1423,-3.45638
763,-300,22.6136,5.1571,0,0,0,0,0,0,0,-1,1987,1324,22.6136,-5.15706
770,-300,24.859,4.77979,0,0,0,0,0,0,0,-1,1994,1324,24.859,-4.77972
777,-300,0,0,0,0,0,0,0,0,0,-1,2001,1324,0,0
784,-300,0,0,0,0,0,0,0,0,0,-1,2008,1324,0,0
791,-300,0,0,0,0,0,0,0,0,0,-1,2015,1324,0,0
798,-300,0,0,0,0,0,0,0,0,0,-1,2022,1324,0,0
805,-300,0,0,0,0,0,0,0,0,0,-1,2029,1324,0,0
812,-300,0,0,0,0,0,0,0,0,0,-1,2036,1324,0,0
-700,-307,0,0,0,0,0,0,0,0,0,-1,524,1331,0,0
-693,-307,0,0,0,0,0,0,0,0,0,-1,531,1331,0,0
-686,-307,0,0,0,0,0,0,0,0,0,-1,538,1331,0,0
-679,-307,0,0,0,0,0,0,0,0,0,-1,545,1331,0,0
-672,-307,0,0,0,0,0,0,0,0,0,-1,552,1331,0,0
-665,-307,0,0,0,0,0,0,0,0,0,-1,559,1331,0,0
-658,-307,0,0,0,0,0,0,0,0,0,-1,566,1331,0,0
-651,-307,-12.0636,-4.25879,0,0,0,0,0,0,0,-1,573,1331,-12.0636,4.25881
-644,-307,-10.8427,-1.97888,0,0,0,0,0,0,0,-1,580,1331,-10.8427,1.97888
-637,-307,-11.3618,-2.50574,0,0,0,0,0,0,0,-1,587,1331,-11.3618,2.50571
-630,-307,-12.0005,0.767212,0,0,0,0,0,0,0,-1,594,1331,-12.0005,-0.767266
-623,-307,-12.2128,2.93811,0,0,0,0,0,0,0,-1,601,1331,-12.2128,-2.93813
-616,-307,-12.6612,2.08289,0,0,0,0,0,0,0,-1,608,1331,-12.6612,-2.08293
-609,-307,-12.2767,1.83228,0,0,0,0,0,0,0,-1,615,1331,-12.2768,-1.83224
-602,-307,-13.8708,3.21338,0,0,0,0,0,0,0,-1,622,1331,-13.8708,-3.21341
-595,-307,-13.9352,3.70435,0.0154434,0.0104379,0.008471,0.0217737,0.00410766,0.641758,0.0133587,0.0336009,629,1331,-13.9352,-3.70431
-588,-307,-13.8722,4.12634,0.0096451,0.00688068,0.00520662,0.0136499,0.00287592,0.655655,0.00830886,0.0195055,636,1331,-13.8722,-4.12636
-581,-307,-13.8564,4.50403,0.00605583,0.00468659,0.00310191,0.00854777,0.00219465,0.676785,0.00512603,0.0161669,643,1331,-13.8564,-4.50399
-574,-307,-13.8606,4.8866,0.00453408,0.002908,0.00221905,0.00608434,0.00135774,0.609797,0.00368792,0.0129669,650,1331,-13.8606,-4.88664
-567,-307,-13.8833,5.27417,0.00392836,0.00181602,0.0017953,0.00495512,0.00078926,0.519514,0.00307429,0.0125439,657,1331,-13.8833,-5.27417
-560,-307,-13.8684,5.66833,0.00387548,0.000954401,0.00167942,0.00464061,0.000189268,0.427497,0.00303262,0.0141571,664,1331,-13.8684,-5.66836
-553,-307,-13.8748,6.06018,0.00491954,0.00113402,0.00208176,0.00584037,0.000213192,0.416458,0.0038245,0.0111361,671,1331,-13.8748,-6.06023
-546,-307,-13.8876,6.43884,0.00662899,0.00160005,0.00287333,0.00793271,0.000296331,0.425953,0.00519252,0.0107972,678,1331,-13.8876,-6.43882
-539,-307,-13.8679,6.84521,0.00884595,0.00217041,0.00393266,0.0106663,0.00035003,0.43352,0.00699713,0.0149099,685,1331,-13.8679,-6.8452
-532,-307,-13.8536,7.26294,0,0,0,0,0,0,0,-1,692,1331,-13.8537,-7.2629
-525,-307,-13.2009,6.91309,0,0,0,0,0,0,0,-1,699,1331,-13.2009,-6.9131
-518,-307,-9.77777,-1.56653,0,0,0,0,0,0,0,-1,706,1331,-9.77777,1.56651
-511,-307,-12.5226,0.26709,0,0,0,0,0,0,0,-1,713,1331,-12.5226,-0.267038
-504,-307,-12.5913,-0.308105,0,0,0,0,0,0,0,-1,720,1331,-12.5913,0.308124
-497,-307,-13.8586,-0.115845,0,0,0,0,0,0,0,-1,727,1331,-13.8587,0.115861
-490,-307,-17.9429,0.982178,0,0,0,0,0,0,0,-1,734,1331,-17.9429,-0.982198
-483,-307,-18.1066,0.927612,0,0,0,0,0,0,0,-1,741,1331,-18.1066,-0.927609
-476,-307,-18.1288,1.1228,0,0,0,0,0,0,0,-1,748,1331,-18.1289,-1.12286
-469,-307,-18.2028,0.798584,0,0,0,0,0,0,0,-1,755,1331,-18.2027,-0.798546
-462,-307,0,0,0,0,0,0,0,0,0,-1,762,1331,0,0
-455,-307,0,0,0,0,0,0,0,0,0,-1,769,1331,0,0
-448,-307,0,0,0,0,0,0,0,0,0,-1,776,1331,0,0
-441,-307,0,0,0,0,0,0,0,0,0,-1,783,1331,0,0
-434,-307,0,0,0,0,0,0,0,0,0,-1,790,1331,0,0
-427,-307,0,0,0,0,0,0,0,0,0,-1,797,1331,0,0
-420,-307,0,0,0,0,0,0,0,0,0,-1,804,1331,0,0
-413,-307,0,0,0,0,0,0,0,0,0,-1,811,1331,0,0
-406,-307,0,0,0,0,0,0,0,0,0,-1,818,1331,0,0
-399,-307,0,0,0,0,0,0,0,0,0,-1,825,1331,0,0
-392,-307,0,0,0,0,0,0,0,0,0,-1,832,1331,0,0
-385,-307,0,0,0,0,0,0,0,0,0,-1,839,1331,0,0
-378,-307,0,0,0,0,0,0,0,0,0,-1,846,1331,0,0
-371,-307,0,0,0,0,0,0,0,0,0,-1,853,1331,0,0
-364,-307,0,0,0,0,0,0,0,0,0,-1,860,1331,0,0
-357,-307,0,0,0,0,0,0,0,0,0,-1,867,1331,0,0
-350,-307,0,0,0,0,0,0,0,0,0,-1,874,1331,0,0
-343,-307,0,0,0,0,0,0,0,0,0,-1,881,1331,0,0
-336,-307,0,0,0,0,0,0,0,0,0,-1,888,1331,0,0
-329,-307,0,0,0,0,0,0,0,0,0,-1,895,1331,0,0
-322,-307,0,0,0,0,0,0,0,0,0,-1,902,1331,0,0
-315,-307,0,0,0,0,0,0,0,0,0,-1,909,1331,0,0
-308,-307,0,0,0,0,0,0,0,0,0,-1,916,1331,0,0
-301,-307,0,0,0,0,0,0,0,0,0,-1,923,1331,0,0
-294,-307,0,0,0,0,0,0,0,0,0,-1,930,1331,0,0
-287,-307,0,0,0,0,0,0,0,0,0,-1,937,1331,0,0
-280,-307,0,0,0,0,0,0,0,0,0,-1,944,1331,0,0
-273,-307,0,0,0,0,0,0,0,0,0,-1,951,1331,0,0
-266,-307,0,0,0,0,0,0,0,0,0,-1,958,1331,0,0
-259,-307,0,0,0,0,0,0,0,0,0,-1,965,1331,0,0
-252,-307,0,0,0,0,0,0,0,0,0,-1,972,1331,0,0
-245,-307,0,0,0,0,0,0,0,0,0,-1,979,1331,0,0
-238,-307,0,0,0,0,0,0,0,0,0,-1,986,1331,0,0
-231,-307,0,0,0,0,0,0,0,0,0,-1,993,1331,0,0
-224,-307,0,0,0,0,0,0,0,0,0,-1,1000,1331,0,0
-217,-307,0,0,0,0,0,0,0,0,0,-1,1007,1331,0,0
-210,-307,0,0,0,0,0,0,0,0,0,-1,1014,1331,0,0
-203,-307,0,0,0,0,0,0,0,0,0,-1,1021,1331,0,0
-196,-307,0,0,0,0,0,0,0,0,0,-1,1028,1331,0,0
-189,-307,0,0,0,0,0,0,0,0,0,-1,1035,1331,0,0
-182,-307,0,0,0,0,0,0,0,0,0,-1,1042,1331,0,0
-175,-307,0,0,0,0,0,0,0,0,0,-1,1049,1331,0,0
-168,-307,0,0,0,0,0,0,0,0,0,-1,1056,1331,0,0
-161,-307,0,0,0,0,0,0,0,0,0,-1,1063,1331,0,0
-154,-307,0,0,0,0,0,0,0,0,0,-1,1070,1331,0,0
-147,-307,0,0,0,0,0,0,0,0,0,-1,1077,1331,0,0
-140,-307,0,0,0,0,0,0,0,0,0,-1,1084,1331,0,0
-133,-307,0,0,0,0,0,0,0,0,0,-1,1091,1331,0,0
-126,-307,0,0,0,0,0,0,0,0,0,-1,1098,1331,0,0
-119,-307,0,0,0,0,0,0,0,0,0,-1,1105,1331,0,0
-112,-307,0,0,0,0,0,0,0,0,0,-1,1112,1331,0,0
-105,-307,0,0,0,0,0,0,0,0,0,-1,1119,1331,0,0
-98,-307,0,0,0,0,0,0,0,0,0,-1,1126,1331,0,0
-91,-307,0,0,0,0,0,0,0,0,0,-1,1133,1331,0,0
-84,-307,0,0,0,0,0,0,0,0,0,-1,1140,1331,0,0
-77,-307,0,0,0,0,0,0,0,0,0,-1,1147,1331,0,0
-70,-307,0,0,0,0,0,0,0,0,0,-1,1154,1331,0,0
-63,-307,0,0,0,0,0,0,0,0,0,-1,1161,1331,0,0
-56,-307,0,0,0,0,0,0,0,0,0,-1,1168,1331,0,0
-49,-307,0,0,0,0,0,0,0,0,0,-1,1175,1331,0,0
-42,-307,0,0,0,0,0,0,0,0,0,-1,1182,1331,0,0
-35,-307,0,0,0,0,0,0,0,0,0,-1,1189,1331,0,0
-28,-307,0,0,0,0,0,0,0,0,0,-1,1196,1331,0,0
-21,-307,0,0,0,0,0,0,0,0,0,-1,1203,1331,0,0
-14,-307,0,0,0,0,0,0,0,0,0,-1,1210,1331,0,0
-7,-307,0,0,0,0,0,0,0,0,0,-1,1217,1331,0,0
0,-307,0,0,0,0,0,0,0,0,0,-1,1224,1331,0,0
7,-307,0,0,0,0,0,0,0,0,0,-1,1231,1331,0,0
14,-307,0,0,0,0,0,0,0,0,0,-1,1238,1331,0,0
21,-307,0,0,0,0,0,0,0,0,0,-1,1245,1331,0,0
28,-307,0,0,0,0,0,0,0,0,0,-1,1252,1331,0,0
35,-307,0,0,0,0,0,0,0,0,0,-1,1259,1331,0,0
42,-307,0,0,0,0,0,0,0,0,0,-1,1266,1331,0,0
49,-307,0,0,0,0,0,0,0,0,0,-1,1273,1331,0,0
56,-307,0,0,0,0,0,0,0,0,0,-1,1280,1331,0,0
63,-307,0,0,0,0,0,0,0,0,0,-1,1287,1331,0,0
70,-307,0,0,0,0,0,0,0,0,0,-1,1294,1331,0,0
77,-307,0,0,0,0,0,0,0,0,0,-1,1301,1331,0,0
84,-307,0,0,0,0,0,0,0,0,0,-1,1308,1331,0,0
91,-307,0,0,0,0,0,0,0,0,0,-1,1315,1331,0,0
98,-307,0,0,0,0,0,0,0,0,0,-1,1322,1331,0,0
105,-307,0,0,0,0,0,0,0,0,0,-1,1329,1331,0,0
112,-307,0,0,0,0,0,0,0,0,0,-1,1336,1331,0,0
119,-307,0,0,0,0,0,0,0,0,0,-1,1343,1331,0,0
126,-307,0,0,0,0,0,0,0,0,0,-1,1350,1331,0,0
133,-307,0,0,0,0,0,0,0,0,0,-1,1357,1331,0,0
140,-307,0,0,0,0,0,0,0,0,0,-1,1364,1331,0,0
147,-307,0,0,0,0,0,0,0,0,0,-1,1371,1331,0,0
154,-307,0,0,0,0,0,0,0,0,0,-1,1378,1331,0,0
161,-307,0,0,0,0,0,0,0,0,0,-1,1385,1331,0,0
168,-307,0,0,0,0,0,0,0,0,0,-1,1392,1331,0,0
175,-307,0,0,0,0,0,0,0,0,0,-1,1399,1331,0,0
182,-307,0,0,0,0,0,0,0,0,0,-1,1406,1331,0,0
189,-307,0,0,0,0,0,0,0,0,0,-1,1413,1331,0,0
196,-307,0,0,0,0,0,0,0,0,0,-1,1420,1331,0,0
203,-307,0,0,0,0,0,0,0,0,0,-1,1427,1331,0,0
210,-307,0,0,0,0,0,0,0,0,0,-1,1434,1331,0,0
217,-307,0,0,0,0,0,0,0,0,0,-1,1441,1331,0,0
224,-307,0,0,0,0,0,0,0,0,0,-1,1448,1331,0,0
231,-307,0,0,0,0,0,0,0,0,0,-1,1455,1331,0,0
238,-307,0,0,0,0,0,0,0,0,0,-1,1462,1331,0,0
245,-307,0,0,0,0,0,0,0,0,0,-1,1469,1331,0,0
252,-307,0,0,0,0,0,0,0,0,0,-1,1476,1331,0,0
259,-307,0,0,0,0,0,0,0,0,0,-1,1483,1331,0,0
266,-307,0,0,0,0,0,0,0,0,0,-1,1490,1331,0,0
273,-307,0,0,0,0,0,0,0,0,0,-1,1497,1331,0,0
280,-307,0,0,0,0,0,0,0,0,0,-1,1504,1331,0,0
287,-307,0,0,0,0,0,0,0,0,0,-1,1511,1331,0,0
294,-307,0,0,0,0,0,0,0,0,0,-1,1518,1331,0,0
301,-307,0,0,0,0,0,0,0,0,0,-1,1525,1331,0,0
308,-307,0,0,0,0,0,0,0,0,0,-1,1532,1331,0,0
315,-307,0,0,0,0,0,0,0,0,0,-1,1539,1331,0,0
322,-307,0,0,0,0,0,0,0,0,0,-1,1546,1331,0,0
329,-307,0,0,0,0,0,0,0,0,0,-1,1553,1331,0,0
336,-307,0,0,0,0,0,0,0,0,0,-1,1560,1331,0,0
343,-307,0,0,0,0,0,0,0,0,0,-1,1567,1331,0,0
350,-307,0,0,0,0,0,0,0,0,0,-1,1574,1331,0,0
357,-307,0,0,0,0,0,0,0,0,0,-1,1581,1331,0,0
364,-307,0,0,0,0,0,0,0,0,0,-1,1588,1331,0,0
371,-307,0,0,0,0,0,0,0,0,0,-1,1595,1331,0,0
378,-307,0,0,0,0,0,0,0,0,0,-1,1602,1331,0,0
385,-307,0,0,0,0,0,0,0,0,0,-1,1609,1331,0,0
392,-307,0,0,0,0,0,0,0,0,0,-1,1616,1331,0,0
399,-307,0,0,0,0,0,0,0,0,0,-1,1623,1331,0,0
406,-307,0,0,0,0,0,0,0,0,0,-1,1630,1331,0,0
413,-307,0,0,0,0,0,0,0,0,0,-1,1637,1331,0,0
420,-307,0,0,0,0,0,0,0,0,0,-1,1644,1331,0,0
427,-307,0,0,0,0,0,0,0,0,0,-1,1651,1331,0,0
434,-307,0,0,0,0,0,0,0,0,0,-1,1658,1331,0,0
441,-307,0,0,0,0,0,0,0,0,0,-1,1665,1331,0,0
448,-307,0,0,0,0,0,0,0,0,0,-1,1672,1331,0,0
455,-307,0,0,0,0,0,0,0,0,0,-1,1679,1331,0,0
462,-307,0,0,0,0,0,0,0,0,0,-1,1686,1331,0,0
469,-307,0,0,0,0,0,0,0,0,0,-1,1693,1331,0,0
476,-307,0,0,0,0,0,0,0,0,0,-1,1700,1331,0,0
483,-307,0,0,0,0,0,0,0,0,0,-1,1707,1331,0,0
490,-307,0,0,0,0,0,0,0,0,0,-1,1714,1331,0,0
497,-307,0,0,0,0,0,0,0,0,0,-1,1721,1331,0,0
504,-307,0,0,0,0,0,0,0,0,0,-1,1728,1331,0,0
511,-307,0,0,0,0,0,0,0,0,0,-1,1735,1331,0,0
518,-307,0,0,0,0,0,0,0,0,0,-1,1742,1331,0,0
525,-307,0,0,0,0,0,0,0,0,0,-1,1749,1331,0,0
532,-307,0,0,0,0,0,0,0,0,0,-1,1756,1331,0,0
539,-307,0,0,0,0,0,0,0,0,0,-1,1763,1331,0,0
546,-307,0,0,0,0,0,0,0,0,0,-1,1770,1331,0,0
553,-307,0,0,0,0,0,0,0,0,0,-1,1777,1331,0,0
560,-307,0,0,0,0,0,0,0,0,0,-1,1784,1331,0,0
567,-307,0,0,0,0,0,0,0,0,0,-1,1791,1331,0,0
574,-307,0,0,0,0,0,0,0,0,0,-1,1798,1331,0,0
581,-307,0,0,0,0,0,0,0,0,0,-1,1805,1331,0,0
588,-307,34.8495,4.31909,0,0,0,0,0,0,0,-1,1812,1331,34.8495,-4.31908
595,-307,35.038,3.08191,0,0,0,0,0,0,0,-1,1819,1331,35.038,-3.0819
602,-307,35.2095,2.46985,0,0,0,0,0,0,0,-1,1826,1331,35.2094,-2.46988
609,-307,35.4735,1.7384,0,0,0,0,0,0,0,-1,1833,1331,35.4735,-1.73845
616,-307,35.5509,0.760376,0,0,0,0,0,0,0,-1,1840,1331,35.5509,-0.760412
623,-307,31.056,1.59509,0,0,0,0,0,0,0,-1,1847,1331,31.0561,-1.59509
630,-307,29.8116,1.51184,0,0,0,0,0,0,0,-1,1854,1331,29.8116,-1.51188
637,-307,24.6407,4.09106,0,0,0,0,0,0,0,-1,1861,1331,24.6407,-4.09103
644,-307,22.6885,5.80408,0,0,0,0,0,0,0,-1,1868,1331,22.6884,-5.80408
651,-307,17.5013,5.80078,0,0,0,0,0,0,0,-1,1875,1331,17.5014,-5.80072
658,-307,25.2966,9.67603,0,0,0,0,0,0,0,-1,1882,1331,25.2966,-9.67603
665,-307,25.1006,9.23438,-0.00426456,0.00269813,0.00139028,0.00296547,-0.0045319,1.38082,0.00435998,0.0301927,1889,1331,25.1006,-9.23431
672,-307,25.0518,8.89282,-0.00156307,0.00126321,0.000750244,0.00145002,-0.00174987,1.32676,0.00185016,0.0119031,1896,1331,25.0518,-8.89288
679,-307,25.049,8.5304,0.000331628,0.000542281,0.000169631,0.000636626,0.000237284,1.06323,0.000371505,0.0107428,1903,1331,25.049,-8.53036
686,-307,25.0505,8.18176,0.000888026,-0.000226327,-8.39094e-05,0.000894309,-0.00023261,-0.0747371,0.000686997,0.0100582,1910,1331,25.0505,-8.18176
693,-307,25.0387,7.82837,0.000278804,-0.000181379,6.71002e-05,0.000288388,-0.000190963,0.141878,0.000278652,0.011618,1917,1331,25.0387,-7.82839
700,-307,25.0327,7.45483,-0.000316774,-0.000182975,0.000644933,0.000398519,-0.000898268,0.837079,0.000767008,0.0132398,1924,1331,25.0327,-7.45481
707,-307,25.0223,7.08582,-0.0010439,-0.000161364,0.00129402,0.000764554,-0.00196982,0.949719,0.00162901,0.0140498,1931,1331,25.0223,-7.08585
714,-307,25.0187,6.78357,-0.00201933,-0.000199455,0.00208825,0.00116849,-0.00338728,0.990865,0.00273228,0.0124357,1938,1331,25.0187,-6.78354
721,-307,25.0458,6.45984,-0.00327375,-0.000256985,0.00307054,0.00165566,-0.0051864,1.01371,0.00412186,0.0154825,1945,1331,25.0458,-6.45986
728,-307,25.0233,6.22668,-0.00488134,-0.000348963,0.00430569,0.0022505,-0.0074808,1.02764,0.00588266,0.0355125,1952,1331,25.0233,-6.22671
735,-307,24.7911,5.99536,-0.00681556,-0.000363096,0.00569198,0.00295339,-0.010132,1.04322,0.00792478,0.0452811,1959,1331,24.7911,-5.99539
742,-307,24.7614,5.7782,-0.00939279,-0.000459005,0.007539,0.00383707,-0.0136889,1.05284,0.0106382,0.0434179,1966,1331,24.7613,-5.77825
749,-307,24.8898,5.49622,0,0,0,0,0,0,0,-1,1973,1331,24.8898,-5.49624
756,-307,25.9033,5.2981,0,0,0,0,0,0,0,-1,1980,1331,25.9033,-5.29807
763,-307,18.7522,3.55298,0,0,0,0,0,0,0,-1,1987,1331,18.7522,-3.55301
770,-307,0,0,0,0,0,0,0,0,0,-1,1994,1331,0,0
777,-307,0,0,0,0,0,0,0,0,0,-1,2001,1331,0,0
784,-307,0,0,0,0,0,0,0,0,0,-1,2008,1331,0,0
791,-307,0,0,0,0,0,0,0,0,0,-1,2015,1331,0,0
798,-307,0,0,0,0,0,0,0,0,0,-1,2022,1331,0,0
805,-307,0,0,0,0,0,0,0,0,0,-1,2029,1331,0,0
812,-307,0,0,0,0,0,0,0,0,0,-1,2036,1331,0,0
-700,-314,0,0,0,0,0,0,0,0,0,-1,524,1338,0,0
-693,-314,0,0,0,0,0,0,0,0,0,-1,531,1338,0,0
-686,-314,0,0,0,0,0,0,0,0,0,-1,538,1338,0,0
-679,-314,0,0,0,0,0,0,0,0,0,-1,545,1338,0,0
-672,-314,0,0,0,0,0,0,0,0,0,-1,552,1338,0,0
-665,-314,0,0,0,0,0,0,0,0,0,-1,559,1338,0,0
-658,-314,0,0,0,0,0,0,0,0,0,-1,566,1338,0,0
-651,-314,0,0,0,0,0,0,0,0,0,-1,573,1338,0,0
-644,-314,-11.7038,-3.74414,0,0,0,0,0,0,0,-1,580,1338,-11.7038,3.74412
-637,-314,-11.3976,-1.95752,0,0,0,0,0,0,0,-1,587,1338,-11.3976,1.95747
-630,-314,-13.2771,2.98938,0,0,0,0,0,0,0,-1,594,1338,-13.2771,-2.98943
-623,-314,-13.3542,3.00903,0,0,0,0,0,0,0,-1,601,1338,-13.3542,-3.00907
-616,-314,-9.93311,1.15088,0,0,0,0,0,0,0,-1,608,1338,-9.93308,-1.15093
-609,-314,-9.4361,2.86292,0,0,0,0,0,0,0,-1,615,1338,-9.43612,-2.86286
-602,-314,-11.8027,2.42798,0,0,0,0,0,0,0,-1,622,1338,-11.8027,-2.42802
-595,-314,-13.5341,3.46484,0,0,0,0,0,0,0,-1,629,1338,-13.5341,-3.46488
-588,-314,-13.5012,4.08972,0.00903851,0.00603562,0.00445197,0.0122354,0.00283872,0.62276,0.00739461,0.0251358,636,1338,-13.5012,-4.08967
-581,-314,-13.4434,4.505,0.00568123,0.00386995,0.00261953,0.00754725,0.00200393,0.618967,0.0045143,0.0130779,643,1338,-13.4434,-4.50501
-574,-314,-13.4685,4.88806,0.00414057,0.00232979,0.00177734,0.00522984,0.00124053,0.549825,0.00315541,0.0126238,650,1338,-13.4685,-4.88808
-567,-314,-13.4816,5.28955,0.0035375,0.00140725,0.00138963,0.00422325,0.000721504,0.458416,0.00260847,0.0139967,657,1338,-13.4816,-5.28952
-560,-314,-13.4531,5.68958,0.00343545,0.000628016,0.00128578,0.00393532,0.000128141,0.370788,0.00258189,0.0150099,664,1338,-13.4531,-5.68964
-553,-314,-13.4772,6.06665,0.00436728,0.000754384,0.00163851,0.00499968,0.000121985,0.368344,0.00329321,0.0178513,671,1338,-13.4772,-6.06659
-546,-314,-13.532,6.453,0.00594972,0.001091,0.00234375,0.00689601,0.000144718,0.383732,0.00454987,0.0183297,678,1338,-13.532,-6.45299
-539,-314,-13.4968,6.87024,0.00797887,0.00151902,0.00328867,0.00935848,0.000139416,0.397205,0.00619304,0.0169409,685,1338,-13.4968,-6.87022
-532,-314,-13.2481,7.29626,0.0106886,0.00211366,0.0045194,0.0126307,0.000171574,0.405864,0.00836385,0.0478224,692,1338,-13.2481,-7.29625
-525,-314,-13.1431,7.59338,0,0,0,0,0,0,0,-1,699,1338,-13.1431,-7.59344
-518,-314,-8.52753,4.70032,0,0,0,0,0,0,0,-1,706,1338,-8.52755,-4.70034
-511,-314,-11.8597,0.384888,0,0,0,0,0,0,0,-1,713,1338,-11.8597,-0.384927
-504,-314,-11.4322,-0.187378,0,0,0,0,0,0,0,-1,720,1338,-11.4322,0.187381
-497,-314,-11.0047,-0.759644,0,0,0,0,0,0,0,-1,727,1338,-11.0047,0.759689
-490,-314,-18.5143,0.471069,0,0,0,0,0,0,0,-1,734,1338,-18.5143,-0.47103
-483,-314,-17.8528,0.577271,0,0,0,0,0,0,0,-1,741,1338,-17.8528,-0.577327
-476,-314,-17.714,0.665405,0,0,0,0,0,0,0,-1,748,1338,-17.714,-0.665388
-469,-314,-17.7246,0.794678,0,0,0,0,0,0,0,-1,755,1338,-17.7246,-0.794645
-462,-314,0,0,0,0,0,0,0,0,0,-1,762,1338,0,0
-455,-314,0,0,0,0,0,0,0,0,0,-1,769,1338,0,0
-448,-314,0,0,0,0,0,0,0,0,0,-1,776,1338,0,0
-441,-314,0,0,0,0,0,0,0,0,0,-1,783,1338,0,0
-434,-314,0,0,0,0,0,0,0,0,0,-1,790,1338,0,0
-427,-314,0,0,0,0,0,0,0,0,0,-1,797,1338,0,0
-420,-314,0,0,0,0,0,0,0,0,0,-1,804,1338,0,0
-413,-314,0,0,0,0,0,0,0,0,0,-1,811,1338,0,0
-406,-314,0,0,0,0,0,0,0,0,0,-1,818,1338,0,0
-399,-314,0,0,0,0,0,0,0,0,0,-1,825,1338,0,0
-392,-314,0,0,0,0,0,0,0,0,0,-1,832,1338,0,0
-385,-314,0,0,0,0,0,0,0,0,0,-1,839,1338,0,0
-378,-314,0,0,0,0,0,0,0,0,0,-1,846,1338,0,0
-371,-314,0,0,0,0,0,0,0,0,0,-1,853,1338,0,0
-364,-314,0,0,0,0,0,0,0,0,0,-1,860,1338,0,0
-357,-314,0,0,0,0,0,0,0,0,0,-1,867,1338,0,0
-350,-314,0,0,0,0,0,0,0,0,0,-1,874,1338,0,0
-343,-314,0,0,0,0,0,0,0,0,0,-1,881,1338,0,0
-336,-314,0,0,0,0,0,0,0,0,0,-1,888,1338,0,0
-329,-314,0,0,0,0,0,0,0,0,0,-1,895,1338,0,0
-322,-314,0,0,0,0,0,0,0,0,0,-1,902,1338,0,0
-315,-314,0,0,0,0,0,0,0,0,0,-1,909,1338,0,0
-308,-314,0,0,0,0,0,0,0,0,0,-1,916,1338,0,0
-301,-314,0,0,0,0,0,0,0,0,0,-1,923,1338,0,0
-294,-314,0,0,0,0,0,0,0,0,0,-1,930,1338,0,0
-287,-314,0,0,0,0,0,0,0,0,0,-1,937,1338,0,0
-280,-314,0,0,0,0,0,0,0,0,0,-1,944,1338,0,0
-273,-314,0,0,0,0,0,0,0,0,0,-1,951,1338,0,0
-266,-314,0,0,0,0,0,0,0,0,0,-1,958,1338,0,0
-259,-314,0,0,0,0,0,0,0,0,0,-1,965,1338,0,0
-252,-314,0,0,0,0,0,0,0,0,0,-1,972,1338,0,0
-245,-314,0,0,0,0,0,0,0,0,0,-1,979,1338,0,0
-238,-314,0,0,0,0,0,0,0,0,0,-1,986,1338,0,0
-231,-314,0,0,0,0,0,0,0,0,0,-1,993,1338,0,0
-224,-314,0,0,0,0,0,0,0,0,0,-1,1000,1338,0,0
-217,-314,0,0,0,0,0,0,0,0,0,-1,1007,1338,0,0
-210,-314,0,0,0,0,0,0,0,0,0,-1,1014,1338,0,0
-203,-314,0,0,0,0,0,0,0,0,0,-1,1021,1338,0,0
-196,-314,0,0,0,0,0,0,0,0,0,-1,1028,1338,0,0
-189,-314,0,0,0,0,0,0,0,0,0,-1,1035,1338,0,0
-182,-314,0,0,0,0,0,0,0,0,0,-1,1042,1338,0,0
-175,-314,0,0,0,0,0,0,0,0,0,-1,1049,1338,0,0
-168,-314,0,0,0,0,0,0,0,0,0,-1,1056,1338,0,0
-161,-314,0,0,0,0,0,0,0,0,0,-1,1063,1338,0,0
-154,-314,0,0,0,0,0,0,0,0,0,-1,1070,1338,0,0
-147,-314,0,0,0,0,0,0,0,0,0,-1,1077,1338,0,0
-140,-314,0,0,0,0,0,0,0,0,0,-1,1084,1338,0,0
-133,-314,0,0,0,0,0,0,0,0,0,-1,1091,1338,0,0
-126,-314,0,0,0,0,0,0,0,0,0,-1,1098,1338,0,0
-119,-314,0,0,0,0,0,0,0,0,0,-1,1105,1338,0,0
-112,-314,0,0,0,0,0,0,0,0,0,-1,1112,1338,0,0
-105,-314,0,0,0,0,0,0,0,0,0,-1,1119,1338,0,0
-98,-314,0,0,0,0,0,0,0,0,0,-1,1126,1338,0,0
-91,-314,0,0,0,0,0,0,0,0,0,-1,1133,1338,0,0
-84,-314,0,0,0,0,0,0,0,0,0,-1,1140,1338,0,0
-77,-314,0,0,0,0,0,0,0,0,0,-1,1147,1338,0,0
-70,-314,0,0,0,0,0,0,0,0,0,-1,1154,1338,0,0
-63,-314,0,0,0,0,0,0,0,0,0,-1,1161,1338,0,0
-56,-314,0,0,0,0,0,0,0,0,0,-1,1168,1338,0,0
-49,-314,0,0,0,0,0,0,0,0,0,-1,1175,1338,0,0
-42,-314,0,0,0,0,0,0,0,0,0,-1,1182,1338,0,0
-35,-314,0,0,0,0,0,0,0,0,0,-1,1189,1338,0,0
-28,-314,0,0,0,0,0,0,0,0,0,-1,1196,1338,0,0
-21,-314,0,0,0,0,0,0,0,0,0,-1,1203,1338,0,0
-14,-314,0,0,0,0,0,0,0,0,0,-1,1210,1338,0,0
-7,-314,0,0,0,0,0,0,0,0,0,-1,1217,1338,0,0
0,-314,0,0,0,0,0,0,0,0,0,-1,1224,1338,0,0
7,-314,0,0,0,0,0,0,0,0,0,-1,1231,1338,0,0
14,-314,0,0,0,0,0,0,0,0,0,-1,1238,1338,0,0
21,-314,0,0,0,0,0,0,0,0,0,-1,1245,1338,0,0
28,-314,0,0,0,0,0,0,0,0,0,-1,1252,1338,0,0
35,-314,0,0,0,0,0,0,0,0,0,-1,1259,1338,0,0
42,-314,0,0,0,0,0,0,0,0,0,-1,1266,1338,0,0
49,-314,0,0,0,0,0,0,0,0,0,-1,1273,1338,0,0
56,-314,0,0,0,0,0,0,0,0,0,-1,1280,1338,0,0
63,-314,0,0,0,0,0,0,0,0,0,-1,1287,1338,0,0
70,-314,0,0,0,0,0,0,0,0,0,-1,1294,1338,0,0
77,-314,0,0,0,0,0,0,0,0,0,-1,1301,1338,0,0
84,-314,0,0,0,0,0,0,0,0,0,-1,1308,1338,0,0
91,-314,0,0,0,0,0,0,0,0,0,-1,1315,1338,0,0
98,-314,0,0,0,0,0,0,0,0,0,-1,1322,1338,0,0
105,-314,0,0,0,0,0,0,0,0,0,-1,1329,1338,0,0
112,-314,0,0,0,0,0,0,0,0,0,-1,1336,1338,0,0
119,-314,0,0,0,0,0,0,0,0,0,-1,1343,1338,0,0
126,-314,0,0,0,0,0,0,0,0,0,-1,1350,1338,0,0
133,-314,0,0,0,0,0,0,0,0,0,-1,1357,1338,0,0
140,-314,0,0,0,0,0,0,0,0,0,-1,1364,1338,0,0
147,-314,0,0,0,0,0,0,0,0,0,-1,1371,1338,0,0
154,-314,0,0,0,0,0,0,0,0,0,-1,1378,1338,0,0
161,-314,0,0,0,0,0,0,0,0,0,-1,1385,1338,0,0
168,-314,0,0,0,0,0,0,0,0,0,-1,1392,1338,0,0
175,-314,0,0,0,0,0,0,0,0,0,-1,1399,1338,0,0
182,-314,0,0,0,0,0,0,0,0,0,-1,1406,1338,0,0
189,-314,0,0,0,0,0,0,0,0,0,-1,1413,1338,0,0
196,-314,0,0,0,0,0,0,0,0,0,-1,1420,1338,0,0
203,-314,0,0,0,0,0,0,0,0,0,-1,1427,1338,0,0
210,-314,0,0,0,0,0,0,0,0,0,-1,1434,1338,0,0
217,-314,0,0,0,0,0,0,0,0,0,-1,1441,1338,0,0
224,-314,0,0,0,0,0,0,0,0,0,-1,1448,1338,0,0
231,-314,0,0,0,0,0,0,0,0,0,-1,1455,1338,0,0
238,-314,0,0,0,0,0,0,0,0,0,-1,1462,1338,0,0
245,-314,0,0,0,0,0,0,0,0,0,-1,1469,1338,0,0
252,-314,0,0,0,0,0,0,0,0,0,-1,1476,1338,0,0
259,-314,0,0,0,0,0,0,0,0,0,-1,1483,1338,0,0
266,-314,0,0,0,0,0,0,0,0,0,-1,1490,1338,0,0
273,-314,0,0,0,0,0,0,0,0,0,-1,1497,1338,0,0
280,-314,0,0,0,0,0,0,0,0,0,-1,1504,1338,0,0
287,-314,0,0,0,0,0,0,0,0,0,-1,1511,1338,0,0
294,-314,0,0,0,0,0,0,0,0,0,-1,1518,1338,0,0
301,-314,0,0,0,0,0,0,0,0,0,-1,1525,1338,0,0
308,-314,0,0,0,0,0,0,0,0,0,-1,1532,1338,0,0
315,-314,0,0,0,0,0,0,0,0,0,-1,1539,1338,0,0
322,-314,0,0,0,0,0,0,0,0,0,-1,1546,1338,0,0
329,-314,0,0,0,0,0,0,0,0,0,-1,1553,1338,0,0
336,-314,0,0,0,0,0,0,0,0,0,-1,1560,1338,0,0
343,-314,0,0,0,0,0,0,0,0,0,-1,1567,1338,0,0
350,-314,0,0,0,0,0,0,0,0,0,-1,1574,1338,0,0
357,-314,0,0,0,0,0,0,0,0,0,-1,1581,1338,0,0
364,-314,0,0,0,0,0,0,0,0,0,-1,1588,1338,0,0
371,-314,0,0,0,0,0,0,0,0,0,-1,1595,1338,0,0
378,-314,0,0,0,0,0,0,0,0,0,-1,1602,1338,0,0
385,-314,0,0,0,0,0,0,0,0,0,-1,1609,1338,0,0
392,-314,0,0,0,0,0,0,0,0,0,-1,1616,1338,0,0
399,-314,0,0,0,0,0,0,0,0,0,-1,1623,1338,0,0
406,-314,0,0,0,0,0,0,0,0,0,-1,1630,1338,0,0
413,-314,0,0,0,0,0,0,0,0,0,-1,1637,1338,0,0
420,-314,0,0,0,0,0,0,0,0,0,-1,1644,1338,0,0
427,-314,0,0,0,0,0,0,0,0,0,-1,1651,1338,0,0
434,-314,0,0,0,0,0,0,0,0,0,-1,1658,1338,0,0
441,-314,0,0,0,0,0,0,0,0,0,-1,1665,1338,0,0
448,-314,0,0,0,0,0,0,0,0,0,-1,1672,1338,0,0
455,-314,0,0,0,0,0,0,0,0,0,-1,1679,1338,0,0
462,-314,0,0,0,0,0,0,0,0,0,-1,1686,1338,0,0
469,-314,0,0,0,0,0,0,0,0,0,-1,1693,1338,0,0
476,-314,0,0,0,0,0,0,0,0,0,-1,1700,1338,0,0
483,-314,0,0,0,0,0,0,0,0,0,-1,1707,1338,0,0
490,-314,0,0,0,0,0,0,0,0,0,-1,1714,1338,0,0
497,-314,0,0,0,0,0,0,0,0,0,-1,1721,1338,0,0
504,-314,0,0,0,0,0,0,0,0,0,-1,1728,1338,0,0
511,-314,0,0,0,0,0,0,0,0,0,-1,1735,1338,0,0
518,-314,0,0,0,0,0,0,0,0,0,-1,1742,1338,0,0
525,-314,0,0,0,0,0,0,0,0,0,-1,1749,1338,0,0
532,-314,0,0,0,0,0,0,0,0,0,-1,1756,1338,0,0
539,-314,0,0,0,0,0,0,0,0,0,-1,1763,1338,0,0
546,-314,0,0,0,0,0,0,0,0,0,-1,1770,1338,0,0
553,-314,0,0,0,0,0,0,0,0,0,-1,1777,1338,0,0
560,-314,0,0,0,0,0,0,0,0,0,-1,1784,1338,0,0
567,-314,0,0,0,0,0,0,0,0,0,-1,1791,1338,0,0
574,-314,0,0,0,0,0,0,0,0,0,-1,1798,1338,0,0
581,-314,35.1095,4.66479,0,0,0,0,0,0,0,-1,1805,1338,35.1095,-4.66479
588,-314,35.2278,3.98157,0,0,0,0,0,0,0,-1,1812,1338,35.2277,-3.98155
595,-314,35.3374,3.2865,0,0,0,0,0,0,0,-1,1819,1338,35.3375,-3.28644
602,-314,35.5853,2.59021,0,0,0,0,0,0,0,-1,1826,1338,35.5853,-2.59018
609,-314,35.7374,1.9342,0,0,0,0,0,0,0,-1,1833,1338,35.7374,-1.93421
616,-314,35.7719,1.36975,0,0,0,0,0,0,0,-1,1840,1338,35.7718,-1.36971
623,-314,31.2539,1.52954,0,0,0,0,0,0,0,-1,1847,1338,31.254,-1.52956
630,-314,29.4308,6.23206,0,0,0,0,0,0,0,-1,1854,1338,29.4308,-6.23202
637,-314,22.1349,5.16418,0,0,0,0,0,0,0,-1,1861,1338,22.1349,-5.16414
644,-314,18.7517,6.2605,0,0,0,0,0,0,0,-1,1868,1338,18.7517,-6.26053
651,-314,23.1317,8.005,0,0,0,0,0,0,0,-1,1875,1338,23.1317,-8.00506
658,-314,24.7721,9.59399,0,0,0,0,0,0,0,-1,1882,1338,24.7721,-9.59397
665,-314,24.7126,9.24963,-0.00395037,0.00204382,0.000880373,0.00217045,-0.004077,1.42794,0.00366252,0.0219402,1889,1338,24.7127,-9.24958
672,-314,24.7101,8.91882,-0.00140003,0.000734269,0.000342116,0.000787767,-0.00145353,1.41568,0.00131291,0.0124903,1896,1338,24.7101,-8.91879
679,-314,24.7002,8.54163,0.000175708,0.000205366,-2.47364e-05,0.000219377,0.000161696,-1.05542,0.000131317,0.0106082,1903,1338,24.7002,-8.5416
686,-314,24.6727,8.17944,0.000585724,-0.00029178,-5.4701e-05,0.000589121,-0.000295176,-0.062017,0.000519866,0.0120677,1910,1338,24.6728,-8.17949
693,-314,24.6603,7.828,0.000155718,-0.000153979,0.000175096,0.000234614,-0.000232876,0.423344,0.000269906,0.011798,1917,1338,24.6603,-7.82799
700,-314,24.6719,7.46045,-0.000370951,-0.000119998,0.000695339,0.000461095,-0.000952045,0.874664,0.000832127,0.013383,1924,1338,24.6719,-7.4605
707,-314,24.6836,7.10913,-0.00105475,-4.67016e-05,0.00128333,0.000828032,-0.00192949,0.972518,0.00163384,0.013101,1931,1338,24.6835,-7.1091
714,-314,24.6615,6.79028,-0.0020106,-2.7021e-05,0.00202103,0.00123246,-0.00327008,1.0135,0.00268681,0.0114055,1938,1338,24.6616,-6.79026
721,-314,24.6359,6.4834,-0.00329615,-2.88396e-05,0.0029847,0.00174004,-0.00506503,1.0358,0.00408224,0.0224007,1945,1338,24.6358,-6.48343
728,-314,24.6808,6.17896,0,0,0,0,0,0,0,-1,1952,1338,24.6808,-6.17893
735,-314,24.4678,5.97241,0,0,0,0,0,0,0,-1,1959,1338,24.4678,-5.97246
742,-314,24.5621,5.62708,0,0,0,0,0,0,0,-1,1966,1338,24.5622,-5.62702
749,-314,24.6415,5.27649,0,0,0,0,0,0,0,-1,1973,1338,24.6415,-5.27653
756,-314,24.2521,5.93408,0,0,0,0,0,0,0,-1,1980,1338,24.252,-5.93413
763,-314,19.2207,4.07239,0,0,0,0,0,0,0,-1,1987,1338,19.2206,-4.07239
770,-314,0,0,0,0,0,0,0,0,0,-1,1994,1338,0,0
777,-314,0,0,0,0,0,0,0,0,0,-1,2001,1338,0,0
784,-314,0,0,0,0,0,0,0,0,0,-1,2008,1338,0,0
791,-314,0,0,0,0,0,0,0,0,0,-1,2015,1338,0,0
798,-314,0,0,0,0,0,0,0,0,0,-1,2022,1338,0,0
805,-314,0,0,0,0,0,0,0,0,0,-1,2029,1338,0,0
812,-314,0,0,0,0,0,0,0,0,0,-1,2036,1338,0,0
-700,-321,0,0,0,0,0,0,0,0,0,-1,524,1345,0,0
-693,-321,0,0,0,0,0,0,0,0,0,-1,531,1345,0,0
-686,-321,0,0,0,0,0,0,0,0,0,-1,538,1345,0,0
-679,-321,0,0,0,0,0,0,0,0,0,-1,545,1345,0,0
-672,-321,0,0,0,0,0,0,0,0,0,-1,552,1345,0,0
-665,-321,0,0,0,0,0,0,0,0,0,-1,559,1345,0,0
-658,-321,0,0,0,0,0,0,0,0,0,-1,566,1345,0,0
-651,-321,0,0,0,0,0,0,0,0,0,-1,573,1345,0,0
-644,-321,-10.9585,-1.48376,0,0,0,0,0,0,0,-1,580,1345,-10.9585,1.48374
-637,-321,-13.3991,3.59241,0,0,0,0,0,0,0,-1,587,1345,-13.3991,-3.59236
-630,-321,-13.2958,3.65039,0,0,0,0,0,0,0,-1,594,1345,-13.2958,-3.65042
-623,-321,-13.2242,3.14148,0,0,0,0,0,0,0,-1,601,1345,-13.2243,-3.14146
-616,-321,-11.6754,3.13794,0,0,0,0,0,0,0,-1,608,1345,-11.6754,-3.13789
-609,-321,-7.95209,1.14758,0,0,0,0,0,0,0,-1,615,1345,-7.95208,-1.14757
-602,-321,-8.85791,2.50049,0,0,0,0,0,0,0,-1,622,1345,-8.85791,-2.50048
-595,-321,-13.5178,3.58923,0,0,0,0,0,0,0,-1,629,1345,-13.5177,-3.58921
-588,-321,-13.1588,4.02075,0.00779246,0.00522721,0.00316065,0.00992082,0.00309886,0.592645,0.0058607,0.0357125,636,1345,-13.1588,-4.02071
-581,-321,-13.0594,4.50928,0.00478985,0.00308829,0.00175845,0.00589253,0.00198562,0.560087,0.00346181,0.0133923,643,1345,-13.0594,-4.50928
-574,-321,-13.0947,4.89636,0.00331717,0.00176102,0.00104574,0.00384254,0.00123565,0.465559,0.00226509,0.0153593,650,1345,-13.0947,-4.8964
-567,-321,-13.1082,5.29456,0.0027994,0.000994758,0.000775482,0.00308685,0.000707307,0.354972,0.00186733,0.0217557,657,1345,-13.1082,-5.29451
-560,-321,-13.0685,5.68286,0.00276271,0.000338167,0.000771689,0.00298748,0.000113391,0.283436,0.00195496,0.0256476,664,1345,-13.0685,-5.68286
-553,-321,-13.1262,6.03809,0.00369014,0.000421742,0.00116559,0.00406323,4.86553e-05,0.30978,0.00269275,0.0270464,671,1345,-13.1261,-6.03814
-546,-321,-13.1965,6.45459,0.00522326,0.000660698,0.00185798,0.00588415,-1.8673e-07,0.341744,0.00392283,0.0268461,678,1345,-13.1965,-6.45453
-539,-321,-13.1695,6.85571,0.0071512,0.000990733,0.00276389,0.00820943,-6.7506e-05,0.365661,0.0054956,0.0234991,685,1345,-13.1695,-6.85566
-532,-321,-12.9817,7.276,0.00963383,0.00143592,0.0039145,0.0112027,-0.000132992,0.381192,0.00751322,0.0263367,692,1345,-12.9817,-7.27606
-525,-321,-13.0512,7.81689,0,0,0,0,0,0,0,-1,699,1345,-13.0512,-7.81695
-518,-321,-10.3564,6.75696,0,0,0,0,0,0,0,-1,706,1345,-10.3564,-6.75694
-511,-321,-9.3302,5.29297,0,0,0,0,0,0,0,-1,713,1345,-9.33023,-5.29294
-504,-321,-10.4713,0.0145264,0,0,0,0,0,0,0,-1,720,1345,-10.4713,-0.0145296
-497,-321,-9.96771,0.313599,0,0,0,0,0,0,0,-1,727,1345,-9.96769,-0.313618
-490,-321,-10.7631,0.973511,0,0,0,0,0,0,0,-1,734,1345,-10.7631,-0.97353
-483,-321,-17.5908,0.2323,0,0,0,0,0,0,0,-1,741,1345,-17.5908,-0.232355
-476,-321,-17.2915,0.297363,0,0,0,0,0,0,0,-1,748,1345,-17.2915,-0.297342
-469,-321,-17.2441,0.478027,0,0,0,0,0,0,0,-1,755,1345,-17.2441,-0.477994
-462,-321,-17.1672,0.526489,0,0,0,0,0,0,0,-1,762,1345,-17.1672,-0.526533
-455,-321,0,0,0,0,0,0,0,0,0,-1,769,1345,0,0
-448,-321,0,0,0,0,0,0,0,0,0,-1,776,1345,0,0
-441,-321,0,0,0,0,0,0,0,0,0,-1,783,1345,0,0
-434,-321,0,0,0,0,0,0,0,0,0,-1,790,1345,0,0
-427,-321,0,0,0,0,0,0,0,0,0,-1,797,1345,0,0
-420,-321,0,0,0,0,0,0,0,0,0,-1,804,1345,0,0
-413,-321,0,0,0,0,0,0,0,0,0,-1,811,1345,0,0
-406,-321,0,0,0,0,0,0,0,0,0,-1,818,1345,0,0
-399,-321,0,0,0,0,0,0,0,0,0,-1,825,1345,0,0
-392,-321,0,0,0,0,0,0,0,0,0,-1,832,1345,0,0
-385,-321,0,0,0,0,0,0,0,0,0,-1,839,1345,0,0
-378,-321,0,0,0,0,0,0,0,0,0,-1,846,1345,0,0
-371,-321,0,0,0,0,0,0,0,0,0,-1,853,1345,0,0
-364,-321,0,0,0,0,0,0,0,0,0,-1,860,1345,0,0
-357,-321,0,0,0,0,0,0,0,0,0,-1,867,1345,0,0
-350,-321,0,0,0,0,0,0,0,0,0,-1,874,1345,0,0
-343,-321,0,0,0,0,0,0,0,0,0,-1,881,1345,0,0
-336,-321,0,0,0,0,0,0,0,0,0,-1,888,1345,0,0
-329,-321,0,0,0,0,0,0,0,0,0,-1,895,1345,0,0
-322,-321,0,0,0,0,0,0,0,0,0,-1,902,1345,0,0
-315,-321,0,0,0,0,0,0,0,0,0,-1,909,1345,0,0
-308,-321,0,0,0,0,0,0,0,0,0,-1,916,1345,0,0
-301,-321,0,0,0,0,0,0,0,0,0,-1,923,1345,0,0
-294,-321,0,0,0,0,0,0,0,0,0,-1,930,1345,0,0
-287,-321,0,0,0,0,0,0,0,0,0,-1,937,1345,0,0
-280,-321,0,0,0,0,0,0,0,0,0,-1,944,1345,0,0
-273,-321,0,0,0,0,0,0,0,0,0,-1,951,1345,0,0
-266,-321,0,0,0,0,0,0,0,0,0,-1,958,1345,0,0
-259,-321,0,0,0,0,0,0,0,0,0,-1,965,1345,0,0
-252,-321,0,0,0,0,0,0,0,0,0,-1,972,1345,0,0
-245,-321,0,0,0,0,0,0,0,0,0,-1,979,1345,0,0
-238,-321,0,0,0,0,0,0,0,0,0,-1,986,1345,0,0
-231,-321,0,0,0,0,0,0,0,0,0,-1,993,1345,0,0
-224,-321,0,0,0,0,0,0,0,0,0,-1,1000,1345,0,0
-217,-321,0,0,0,0,0,0,0,0,0,-1,1007,1345,0,0
-210,-321,0,0,0,0,0,0,0,0,0,-1,1014,1345,0,0
-203,-321,0,0,0,0,0,0,0,0,0,-1,1021,1345,0,0
-196,-321,0,0,0,0,0,0,0,0,0,-1,1028,1345,0,0
-189,-321,0,0,0,0,0,0,0,0,0,-1,1035,1345,0,0
-182,-321,0,0,0,0,0,0,0,0,0,-1,1042,1345,0,0
-175,-321,0,0,0,0,0,0,0,0,0,-1,1049,1345,0,0
-168,-321,0,0,0,0,0,0,0,0,0,-1,1056,1345,0,0
-161,-321,0,0,0,0,0,0,0,0,0,-1,1063,1345,0,0
-154,-321,0,0,0,0,0,0,0,0,0,-1,1070,1345,0,0
-147,-321,0,0,0,0,0,0,0,0,0,-1,1077,1345,0,0
-140,-321,0,0,0,0,0,0,0,0,0,-1,1084,1345,0,0
-133,-321,0,0,0,0,0,0,0,0,0,-1,1091,1345,0,0
-126,-321,0,0,0,0,0,0,0,0,0,-1,1098,1345,0,0
-119,-321,0,0,0,0,0,0,0,0,0,-1,1105,1345,0,0
-112,-321,0,0,0,0,0,0,0,0,0,-1,1112,1345,0,0
-105,-321,0,0,0,0,0,0,0,0,0,-1,1119,1345,0,0
-98,-321,0,0,0,0,0,0,0,0,0,-1,1126,1345,0,0
-91,-321,0,0,0,0,0,0,0,0,0,-1,1133,1345,0,0
-84,-321,0,0,0,0,0,0,0,0,0,-1,1140,1345,0,0
-77,-321,0,0,0,0,0,0,0,0,0,-1,1147,1345,0,0
-70,-321,0,0,0,0,0,0,0,0,0,-1,1154,1345,0,0
-63,-321,0,0,0,0,0,0,0,0,0,-1,1161,1345,0,0
-56,-321,0,0,0,0,0,0,0,0,0,-1,1168,1345,0,0
-49,-321,0,0,0,0,0,0,0,0,0,-1,1175,1345,0,0
-42,-321,0,0,0,0,0,0,0,0,0,-1,1182,1345,0,0
-35,-321,0,0,0,0,0,0,0,0,0,-1,1189,1345,0,0
-28,-321,0,0,0,0,0,0,0,0,0,-1,1196,1345,0,0
-21,-321,0,0,0,0,0,0,0,0,0,-1,1203,1345,0,0
-14,-321,0,0,0,0,0,0,0,0,0,-1,1210,1345,0,0
-7,-321,0,0,0,0,0,0,0,0,0,-1,1217,1345,0,0
0,-321,0,0,0,0,0,0,0,0,0,-1,1224,1345,0,0
7,-321,0,0,0,0,0,0,0,0,0,-1,1231,1345,0,0
14,-321,0,0,0,0,0,0,0,0,0,-1,1238,1345,0,0
21,-321,0,0,0,0,0,0,0,0,0,-1,1245,1345,0,0
28,-321,0,0,0,0,0,0,0,0,0,-1,1252,1345,0,0
35,-321,0,0,0,0,0,0,0,0,0,-1,1259,1345,0,0
42,-321,0,0,0,0,0,0,0,0,0,-1,1266,1345,0,0
49,-321,0,0,0,0,0,0,0,0,0,-1,1273,1345,0,0
56,-321,0,0,0,0,0,0,0,0,0,-1,1280,1345,0,0
63,-321,0,0,0,0,0,0,0,0,0,-1,1287,1345,0,0
70,-321,0,0,0,0,0,0,0,0,0,-1,1294,1345,0,0
77,-321,0,0,0,0,0,0,0,0,0,-1,1301,1345,0,0
84,-321,0,0,0,0,0,0,0,0,0,-1,1308,1345,0,0
91,-321,0,0,0,0,0,0,0,0,0,-1,1315,1345,0,0
98,-321,0,0,0,0,0,0,0,0,0,-1,1322,1345,0,0
105,-321,0,0,0,0,0,0,0,0,0,-1,1329,1345,0,0
112,-321,0,0,0,0,0,0,0,0,0,-1,1336,1345,0,0
119,-321,0,0,0,0,0,0,0,0,0,-1,1343,1345,0,0
126,-321,0,0,0,0,0,0,0,0,0,-1,1350,1345,0,0
133,-321,0,0,0,0,0,0,0,0,0,-1,1357,1345,0,0
140,-321,0,0,0,0,0,0,0,0,0,-1,1364,1345,0,0
147,-321,0,0,0,0,0,0,0,0,0,-1,1371,1345,0,0
154,-321,0,0,0,0,0,0,0,0,0,-1,1378,1345,0,0
161,-321,0,0,0,0,0,0,0,0,0,-1,1385,1345,0,0
168,-321,0,0,0,0,0,0,0,0,0,-1,1392,1345,0,0
175,-321,0,0,0,0,0,0,0,0,0,-1,1399,1345,0,0
182,-321,0,0,0,0,0,0,0,0,0,-1,1406,1345,0,0
189,-321,0,0,0,0,0,0,0,0,0,-1,1413,1345,0,0
196,-321,0,0,0,0,0,0,0,0,0,-1,1420,1345,0,0
203,-321,0,0,0,0,0,0,0,0,0,-1,1427,1345,0,0
210,-321,0,0,0,0,0,0,0,0,0,-1,1434,1345,0,0
217,-321,0,0,0,0,0,0,0,0,0,-1,1441,1345,0,0
224,-321,0,0,0,0,0,0,0,0,0,-1,1448,1345,0,0
231,-321,0,0,0,0,0,0,0,0,0,-1,1455,1345,0,0
238,-321,0,0,0,0,0,0,0,0,0,-1,1462,1345,0,0
245,-321,0,0,0,0,0,0,0,0,0,-1,1469,1345,0,0
252,-321,0,0,0,0,0,0,0,0,0,-1,1476,1345,0,0
259,-321,0,0,0,0,0,0,0,0,0,-1,1483,1345,0,0
266,-321,0,0,0,0,0,0,0,0,0,-1,1490,1345,0,0
273,-321,0,0,0,0,0,0,0,0,0,-1,1497,1345,0,0
280,-321,0,0,0,0,0,0,0,0,0,-1,1504,1345,0,0
287,-321,0,0,0,0,0,0,0,0,0,-1,1511,1345,0,0
294,-321,0,0,0,0,0,0,0,0,0,-1,1518,1345,0,0
301,-321,0,0,0,0,0,0,0,0,0,-1,1525,1345,0,0
308,-321,0,0,0,0,0,0,0,0,0,-1,1532,1345,0,0
315,-321,0,0,0,0,0,0,0,0,0,-1,1539,1345,0,0
322,-321,0,0,0,0,0,0,0,0,0,-1,1546,1345,0,0
329,-321,0,0,0,0,0,0,0,0,0,-1,1553,1345,0,0
336,-321,0,0,0,0,0,0,0,0,0,-1,1560,1345,0,0
343,-321,0,0,0,0,0,0,0,0,0,-1,1567,1345,0,0
350,-321,0,0,0,0,0,0,0,0,0,-1,1574,1345,0,0
357,-321,0,0,0,0,0,0,0,0,0,-1,1581,1345,0,0
364,-321,0,0,0,0,0,0,0,0,0,-1,1588,1345,0,0
371,-321,0,0,0,0,0,0,0,0,0,-1,1595,1345,0,0
378,-321,0,0,0,0,0,0,0,0,0,-1,1602,1345,0,0
385,-321,0,0,0,0,0,0,0,0,0,-1,1609,1345,0,0
392,-321,0,0,0,0,0,0,0,0,0,-1,1616,1345,0,0
399,-321,0,0,0,0,0,0,0,0,0,-1,1623,1345,0,0
406,-321,0,0,0,0,0,0,0,0,0,-1,1630,1345,0,0
413,-321,0,0,0,0,0,0,0,0,0,-1,1637,1345,0,0
420,-321,0,0,0,0,0,0,0,0,0,-1,1644,1345,0,0
427,-321,0,0,0,0,0,0,0,0,0,-1,1651,1345,0,0
434,-321,0,0,0,0,0,0,0,0,0,-1,1658,1345,0,0
441,-321,0,0,0,0,0,0,0,0,0,-1,1665,1345,0,0
448,-321,0,0,0,0,0,0,0,0,0,-1,1672,1345,0,0
455,-321,0,0,0,0,0,0,0,0,0,-1,1679,1345,0,0
462,-321,0,0,0,0,0,0,0,0,0,-1,1686,1345,0,0
469,-321,0,0,0,0,0,0,0,0,0,-1,1693,1345,0,0
476,-321,0,0,0,0,0,0,0,0,0,-1,1700,1345,0,0
483,-321,0,0,0,0,0,0,0,0,0,-1,1707,1345,0,0
490,-321,0,0,0,0,0,0,0,0,0,-1,1714,1345,0,0
497,-321,0,0,0,0,0,0,0,0,0,-1,1721,1345,0,0
504,-321,0,0,0,0,0,0,0,0,0,-1,1728,1345,0,0
511,-321,0,0,0,0,0,0,0,0,0,-1,1735,1345,0,0
518,-321,0,0,0,0,0,0,0,0,0,-1,1742,1345,0,0
525,-321,0,0,0,0,0,0,0,0,0,-1,1749,1345,0,0
532,-321,0,0,0,0,0,0,0,0,0,-1,1756,1345,0,0
539,-321,0,0,0,0,0,0,0,0,0,-1,1763,1345,0,0
546,-321,0,0,0,0,0,0,0,0,0,-1,1770,1345,0,0
553,-321,0,0,0,0,0,0,0,0,0,-1,1777,1345,0,0
560,-321,0,0,0,0,0,0,0,0,0,-1,1784,1345,0,0
567,-321,0,0,0,0,0,0,0,0,0,-1,1791,1345,0,0
574,-321,0,0,0,0,0,0,0,0,0,-1,1798,1345,0,0
581,-321,35.2993,4.39661,0,0,0,0,0,0,0,-1,1805,1345,35.2993,-4.39665
588,-321,35.5114,3.67261,0,0,0,0,0,0,0,-1,1812,1345,35.5113,-3.67266
595,-321,35.764,2.99011,0,0,0,0,0,0,0,-1,1819,1345,35.764,-2.99016
602,-321,35.9858,2.27515,0,0,0,0,0,0,0,-1,1826,1345,35.9858,-2.2751
609,-321,35.979,1.82324,0,0,0,0,0,0,0,-1,1833,1345,35.979,-1.82319
616,-321,31.4971,2.1814,0,0,0,0,0,0,0,-1,1840,1345,31.4971,-2.18138
623,-321,30.2665,2.45361,0,0,0,0,0,0,0,-1,1847,1345,30.2665,-2.4536
630,-321,23.6674,4.34106,0,0,0,0,0,0,0,-1,1854,1345,23.6674,-4.34112
637,-321,21.7925,6.79224,0,0,0,0,0,0,0,-1,1861,1345,21.7925,-6.7922
644,-321,16.8844,6.71973,0,0,0,0,0,0,0,-1,1868,1345,16.8844,-6.71971
651,-321,23.2467,8.70581,0,0,0,0,0,0,0,-1,1875,1345,23.2467,-8.7058
658,-321,24.2996,9.61011,0,0,0,0,0,0,0,-1,1882,1345,24.2996,-9.61012
665,-321,24.3336,9.27759,-0.00332714,0.00126477,0.000278989,0.00128166,-0.00334403,1.51034,0.0027577,0.0193693,1889,1345,24.3336,-9.27759
672,-321,24.3517,8.91968,-0.00110343,0.000262854,-5.6563e-05,0.000265191,-0.00110576,-1.52949,0.000839651,0.0139021,1896,1345,24.3516,-8.91968
679,-321,24.3397,8.55811,0.000113673,-2.99123e-05,-0.000185224,0.000240531,-0.00015677,-0.600513,0.000231075,0.0116898,1903,1345,24.3397,-8.55812
686,-321,24.3168,8.20142,0.000426655,-0.000267139,-4.65532e-05,0.000429765,-0.000270249,-0.066701,0.000407636,0.0117014,1910,1345,24.3167,-8.2014
693,-321,24.3026,7.85291,0.000185378,-7.11825e-05,0.000203454,0.000297616,-0.000183421,0.504122,0.000280324,0.0117979,1917,1345,24.3026,-7.85287
700,-321,24.3199,7.48853,-0.000224687,3.05746e-05,0.000645851,0.000561285,-0.000755397,0.882949,0.000762936,0.0120108,1924,1345,24.3199,-7.48854
707,-321,24.3329,7.14819,-0.000829414,0.000171345,0.00115861,0.000933007,-0.00159108,0.98924,0.0014737,0.0135232,1931,1345,24.3329,-7.14825
714,-321,24.303,6.79187,-0.00173844,0.000287064,0.00181608,0.00135369,-0.00280506,1.03975,0.00244931,0.0131174,1938,1345,24.3029,-6.79181
721,-321,24.2565,6.43457,-0.003046,0.000401808,0.002736,0.00191171,-0.0045559,1.06652,0.00383669,0.0343861,1945,1345,24.2565,-6.43459
728,-321,24.2725,6.12805,0,0,0,0,0,0,0,-1,1952,1345,24.2725,-6.12802
735,-321,22.0081,5.65479,0,0,0,0,0,0,0,-1,1959,1345,22.008,-5.65481
742,-321,24.4603,5.41016,0,0,0,0,0,0,0,-1,1966,1345,24.4603,-5.41014
749,-321,24.0675,5.4458,0,0,0,0,0,0,0,-1,1973,1345,24.0675,-5.44581
756,-321,19.6251,4.98315,0,0,0,0,0,0,0,-1,1980,1345,19.6251,-4.98311
763,-321,19.6747,4.61438,0,0,0,0,0,0,0,-1,1987,1345,19.6747,-4.61436
770,-321,0,0,0,0,0,0,0,0,0,-1,1994,1345,0,0
777,-321,0,0,0,0,0,0,0,0,0,-1,2001,1345,0,0
784,-321,0,0,0,0,0,0,0,0,0,-1,2008,1345,0,0
791,-321,0,0,0,0,0,0,0,0,0,-1,2015,1345,0,0
798,-321,0,0,0,0,0,0,0,0,0,-1,2022,1345,0,0
805,-321,0,0,0,0,0,0,0,0,0,-1,2029,1345,0,0
812,-321,0,0,0,0,0,0,0,0,0,-1,2036,1345,0,0
-700,-328,0,0,0,0,0,0,0,0,0,-1,524,1352,0,0
-693,-328,0,0,0,0,0,0,0,0,0,-1,531,1352,0,0
-686,-328,0,0,0,0,0,0,0,0,0,-1,538,1352,0,0
-679,-328,0,0,0,0,0,0,0,0,0,-1,545,1352,0,0
-672,-328,0,0,0,0,0,0,0,0,0,-1,552,1352,0,0
-665,-328,0,0,0,0,0,0,0,0,0,-1,559,1352,0,0
-658,-328,0,0,0,0,0,0,0,0,0,-1,566,1352,0,0
-651,-328,0,0,0,0,0,0,0,0,0,-1,573,1352,0,0
-644,-328,0,0,0,0,0,0,0,0,0,-1,580,1352,0,0
-637,-328,-12.0695,1.02014,0,0,0,0,0,0,0,-1,587,1352,-12.0694,-1.02017
-630,-328,-13.3971,4.54578,0,0,0,0,0,0,0,-1,594,1352,-13.3971,-4.54572
-623,-328,-10.7739,4.55042,0,0,0,0,0,0,0,-1,601,1352,-10.7739,-4.55041
-616,-328,-8.22198,-0.25708,0,0,0,0,0,0,0,-1,608,1352,-8.22201,0.257067
-609,-328,-7.87439,0.192871,0,0,0,0,0,0,0,-1,615,1352,-7.87441,-0.192822
-602,-328,-7.63062,1.31665,0,0,0,0,0,0,0,-1,622,1352,-7.63064,-1.3166
-595,-328,-9.42639,2.93494,0,0,0,0,0,0,0,-1,629,1352,-9.42638,-2.93499
-588,-328,-12.8589,3.74292,0,0,0,0,0,0,0,-1,636,1352,-12.8589,-3.74289
-581,-328,-12.688,4.48767,0.00363652,0.00259646,0.00128212,0.00450006,0.00173292,0.592734,0.00262088,0.0209819,643,1352,-12.688,-4.48772
-574,-328,-12.6886,4.92554,0.00229133,0.00140338,0.000599255,0.00259316,0.00110155,0.466578,0.0015028,0.0143867,650,1352,-12.6886,-4.92555
-567,-328,-12.7216,5.31531,0.00189928,0.000738447,0.000360393,0.00200207,0.000635661,0.27783,0.00118128,0.01949,657,1352,-12.7216,-5.3153
-560,-328,-12.689,5.724,0.00197694,0.000166589,0.00038019,0.00205354,8.99868e-05,0.198822,0.00134004,0.0277523,664,1352,-12.689,-5.72396
-553,-328,-12.7179,6.12097,0.00293991,0.000201958,0.000761775,0.00313759,4.28315e-06,0.253893,0.0020903,0.0294067,671,1352,-12.7179,-6.12097
-546,-328,-12.7621,6.50134,0.00452472,0.000338719,0.00144529,0.00497524,-0.000111802,0.302172,0.00335472,0.027322,678,1352,-12.7621,-6.50135
-539,-328,-12.7749,6.87305,0.00645006,0.000561232,0.002318,0.007253,-0.000241715,0.333461,0.00491789,0.0223461,685,1352,-12.7749,-6.87305
-532,-328,-12.7383,7.27051,0.00887367,0.000847485,0.00342128,0.0101341,-0.000412945,0.35298,0.00689784,0.0176439,692,1352,-12.7383,-7.27053
-525,-328,-12.6727,7.73792,0.0118513,0.00109053,0.00477408,0.013664,-0.000722157,0.36288,0.00935936,0.0225734,699,1352,-12.6727,-7.73793
-518,-328,-12.6929,8.23145,0,0,0,0,0,0,0,-1,706,1352,-12.6929,-8.23144
-511,-328,-9.39868,7.16113,0,0,0,0,0,0,0,-1,713,1352,-9.39869,-7.16113
-504,-328,-8.60626,-0.905762,0,0,0,0,0,0,0,-1,720,1352,-8.60623,0.905787
-497,-328,-9.29102,-0.0517578,0,0,0,0,0,0,0,-1,727,1352,-9.29104,0.0518175
-490,-328,-10.0663,0.882813,0,0,0,0,0,0,0,-1,734,1352,-10.0663,-0.882795
-483,-328,-10.8181,1.72375,0,0,0,0,0,0,0,-1,741,1352,-10.8181,-1.72374
-476,-328,-16.8951,-0.150757,0,0,0,0,0,0,0,-1,748,1352,-16.8951,0.150795
-469,-328,-16.8412,0.00158691,0,0,0,0,0,0,0,-1,755,1352,-16.8412,-0.00161515
-462,-328,-16.3546,-0.203491,0,0,0,0,0,0,0,-1,762,1352,-16.3545,0.203532
-455,-328,0,0,0,0,0,0,0,0,0,-1,769,1352,0,0
-448,-328,0,0,0,0,0,0,0,0,0,-1,776,1352,0,0
-441,-328,0,0,0,0,0,0,0,0,0,-1,783,1352,0,0
-434,-328,0,0,0,0,0,0,0,0,0,-1,790,1352,0,0
-427,-328,0,0,0,0,0,0,0,0,0,-1,797,1352,0,0
-420,-328,0,0,0,0,0,0,0,0,0,-1,804,1352,0,0
-413,-328,0,0,0,0,0,0,0,0,0,-1,811,1352,0,0
-406,-328,0,0,0,0,0,0,0,0,0,-1,818,1352,0,0
-399,-328,0,0,0,0,0,0,0,0,0,-1,825,1352,0,0
-392,-328,0,0,0,0,0,0,0,0,0,-1,832,1352,0,0
-385,-328,0,0,0,0,0,0,0,0,0,-1,839,1352,0,0
-378,-328,0,0,0,0,0,0,0,0,0,-1,846,1352,0,0
-371,-328,0,0,0,0,0,0,0,0,0,-1,853,1352,0,0
-364,-328,0,0,0,0,0,0,0,0,0,-1,860,1352,0,0
-357,-328,0,0,0,0,0,0,0,0,0,-1,867,1352,0,0
-350,-328,0,0,0,0,0,0,0,0,0,-1,874,1352,0,0
-343,-328,0,0,0,0,0,0,0,0,0,-1,881,1352,0,0
-336,-328,0,0,0,0,0,0,0,0,0,-1,888,1352,0,0
-329,-328,0,0,0,0,0,0,0,0,0,-1,895,1352,0,0
-322,-328,0,0,0,0,0,0,0,0,0,-1,902,1352,0,0
-315,-328,0,0,0,0,0,0,0,0,0,-1,909,1352,0,0
-308,-328,0,0,0,0,0,0,0,0,0,-1,916,1352,0,0
-301,-328,0,0,0,0,0,0,0,0,0,-1,923,1352,0,0
-294,-328,0,0,0,0,0,0,0,0,0,-1,930,1352,0,0
-287,-328,0,0,0,0,0,0,0,0,0,-1,937,1352,0,0
-280,-328,0,0,0,0,0,0,0,0,0,-1,944,1352,0,0
-273,-328,0,0,0,0,0,0,0,0,0,-1,951,1352,0,0
-266,-328,0,0,0,0,0,0,0,0,0,-1,958,1352,0,0
-259,-328,0,0,0,0,0,0,0,0,0,-1,965,1352,0,0
-252,-328,0,0,0,0,0,0,0,0,0,-1,972,1352,0,0
-245,-328,0,0,0,0,0,0,0,0,0,-1,979,1352,0,0
-238,-328,0,0,0,0,0,0,0,0,0,-1,986,1352,0,0
-231,-328,0,0,0,0,0,0,0,0,0,-1,993,1352,0,0
-224,-328,0,0,0,0,0,0,0,0,0,-1,1000,1352,0,0
-217,-328,0,0,0,0,0,0,0,0,0,-1,1007,1352,0,0
-210,-328,0,0,0,0,0,0,0,0,0,-1,1014,1352,0,0
-203,-328,0,0,0,0,0,0,0,0,0,-1,1021,1352,0,0
-196,-328,0,0,0,0,0,0,0,0,0,-1,1028,1352,0,0
-189,-328,0,0,0,0,0,0,0,0,0,-1,1035,1352,0,0
-182,-328,0,0,0,0,0,0,0,0,0,-1,1042,1352,0,0
-175,-328,0,0,0,0,0,0,0,0,0,-1,1049,1352,0,0
-168,-328,0,0,0,0,0,0,0,0,0,-1,1056,1352,0,0
-161,-328,0,0,0,0,0,0,0,0,0,-1,1063,1352,0,0
-154,-328,0,0,0,0,0,0,0,0,0,-1,1070,1352,0,0
-147,-328,0,0,0,0,0,0,0,0,0,-1,1077,1352,0,0
-140,-328,0,0,0,0,0,0,0,0,0,-1,1084,1352,0,0
-133,-328,0,0,0,0,0,0,0,0,0,-1,1091,1352,0,0
-126,-328,0,0,0,0,0,0,0,0,0,-1,1098,1352,0,0
-119,-328,0,0,0,0,0,0,0,0,0,-1,1105,1352,0,0
-112,-328,0,0,0,0,0,0,0,0,0,-1,1112,1352,0,0
-105,-328,0,0,0,0,0,0,0,0,0,-1,1119,1352,0,0
-98,-328,0,0,0,0,0,0,0,0,0,-1,1126,1352,0,0
-91,-328,0,0,0,0,0,0,0,0,0,-1,1133,1352,0,0
-84,-328,0,0,0,0,0,0,0,0,0,-1,1140,1352,0,0
-77,-328,0,0,0,0,0,0,0,0,0,-1,1147,1352,0,0
-70,-328,0,0,0,0,0,0,0,0,0,-1,1154,1352,0,0
-63,-328,0,0,0,0,0,0,0,0,0,-1,1161,1352,0,0
-56,-328,0,0,0,0,0,0,0,0,0,-1,1168,1352,0,0
-49,-328,0,0,0,0,0,0,0,0,0,-1,1175,1352,0,0
-42,-328,0,0,0,0,0,0,0,0,0,-1,1182,1352,0,0
-35,-328,0,0,0,0,0,0,0,0,0,-1,1189,1352,0,0
-28,-328,0,0,0,0,0,0,0,0,0,-1,1196,1352,0,0
-21,-328,0,0,0,0,0,0,0,0,0,-1,1203,1352,0,0
-14,-328,0,0,0,0,0,0,0,0,0,-1,1210,1352,0,0
-7,-328,0,0,0,0,0,0,0,0,0,-1,1217,1352,0,0
0,-328,0,0,0,0,0,0,0,0,0,-1,1224,1352,0,0
7,-328,0,0,0,0,0,0,0,0,0,-1,1231,1352,0,0
14,-328,0,0,0,0,0,0,0,0,0,-1,1238,1352,0,0
21,-328,0,0,0,0,0,0,0,0,0,-1,1245,1352,0,0
28,-328,0,0,0,0,0,0,0,0,0,-1,1252,1352,0,0
35,-328,0,0,0,0,0,0,0,0,0,-1,1259,1352,0,0
42,-328,0,0,0,0,0,0,0,0,0,-1,1266,1352,0,0
49,-328,0,0,0,0,0,0,0,0,0,-1,1273,1352,0,0
56,-328,0,0,0,0,0,0,0,0,0,-1,1280,1352,0,0
63,-328,0,0,0,0,0,0,0,0,0,-1,1287,1352,0,0
70,-328,0,0,0,0,0,0,0,0,0,-1,1294,1352,0,0
77,-328,0,0,0,0,0,0,0,0,0,-1,1301,1352,0,0
84,-328,0,0,0,0,0,0,0,0,0,-1,1308,1352,0,0
91,-328,0,0,0,0,0,0,0,0,0,-1,1315,1352,0,0
98,-328,0,0,0,0,0,0,0,0,0,-1,1322,1352,0,0
105,-328,0,0,0,0,0,0,0,0,0,-1,1329,1352,0,0
112,-328,0,0,0,0,0,0,0,0,0,-1,1336,1352,0,0
119,-328,0,0,0,0,0,0,0,0,0,-1,1343,1352,0,0
126,-328,0,0,0,0,0,0,0,0,0,-1,1350,1352,0,0
133,-328,0,0,0,0,0,0,0,0,0,-1,1357,1352,0,0
140,-328,0,0,0,0,0,0,0,0,0,-1,1364,1352,0,0
147,-328,0,0,0,0,0,0,0,0,0,-1,1371,1352,0,0
154,-328,0,0,0,0,0,0,0,0,0,-1,1378,1352,0,0
161,-328,0,0,0,0,0,0,0,0,0,-1,1385,1352,0,0
168,-328,0,0,0,0,0,0,0,0,0,-1,1392,1352,0,0
175,-328,0,0,0,0,0,0,0,0,0,-1,1399,1352,0,0
182,-328,0,0,0,0,0,0,0,0,0,-1,1406,1352,0,0
189,-328,0,0,0,0,0,0,0,0,0,-1,1413,1352,0,0
196,-328,0,0,0,0,0,0,0,0,0,-1,1420,1352,0,0
203,-328,0,0,0,0,0,0,0,0,0,-1,1427,1352,0,0
210,-328,0,0,0,0,0,0,0,0,0,-1,1434,1352,0,0
217,-328,0,0,0,0,0,0,0,0,0,-1,1441,1352,0,0
224,-328,0,0,0,0,0,0,0,0,0,-1,1448,1352,0,0
231,-328,0,0,0,0,0,0,0,0,0,-1,1455,1352,0,0
238,-328,0,0,0,0,0,0,0,0,0,-1,1462,1352,0,0
245,-328,0,0,0,0,0,0,0,0,0,-1,1469,1352,0,0
252,-328,0,0,0,0,0,0,0,0,0,-1,1476,1352,0,0
259,-328,0,0,0,0,0,0,0,0,0,-1,1483,1352,0,0
266,-328,0,0,0,0,0,0,0,0,0,-1,1490,1352,0,0
273,-328,0,0,0,0,0,0,0,0,0,-1,1497,1352,0,0
280,-328,0,0,0,0,0,0,0,0,0,-1,1504,1352,0,0
287,-328,0,0,0,0,0,0,0,0,0,-1,1511,1352,0,0
294,-328,0,0,0,0,0,0,0,0,0,-1,1518,1352,0,0
301,-328,0,0,0,0,0,0,0,0,0,-1,1525,1352,0,0
308,-328,0,0,0,0,0,0,0,0,0,-1,1532,1352,0,0
315,-328,0,0,0,0,0,0,0,0,0,-1,1539,1352,0,0
322,-328,0,0,0,0,0,0,0,0,0,-1,1546,1352,0,0
329,-328,0,0,0,0,0,0,0,0,0,-1,1553,1352,0,0
336,-328,0,0,0,0,0,0,0,0,0,-1,1560,1352,0,0
343,-328,0,0,0,0,0,0,0,0,0,-1,1567,1352,0,0
350,-328,0,0,0,0,0,0,0,0,0,-1,1574,1352,0,0
357,-328,0,0,0,0,0,0,0,0,0,-1,1581,1352,0,0
364,-328,0,0,0,0,0,0,0,0,0,-1,1588,1352,0,0
371,-328,0,0,0,0,0,0,0,0,0,-1,1595,1352,0,0
378,-328,0,0,0,0,0,0,0,0,0,-1,1602,1352,0,0
385,-328,0,0,0,0,0,0,0,0,0,-1,1609,1352,0,0
392,-328,0,0,0,0,0,0,0,0,0,-1,1616,1352,0,0
399,-328,0,0,0,0,0,0,0,0,0,-1,1623,1352,0,0
406,-328,0,0,0,0,0,0,0,0,0,-1,1630,1352,0,0
413,-328,0,0,0,0,0,0,0,0,0,-1,1637,1352,0,0
420,-328,0,0,0,0,0,0,0,0,0,-1,1644,1352,0,0
427,-328,0,0,0,0,0,0,0,0,0,-1,1651,1352,0,0
434,-328,0,0,0,0,0,0,0,0,0,-1,1658,1352,0,0
441,-328,0,0,0,0,0,0,0,0,0,-1,1665,1352,0,0
448,-328,0,0,0,0,0,0,0,0,0,-1,1672,1352,0,0
455,-328,0,0,0,0,0,0,0,0,0,-1,1679,1352,0,0
462,-328,0,0,0,0,0,0,0,0,0,-1,1686,1352,0,0
469,-328,0,0,0,0,0,0,0,0,0,-1,1693,1352,0,0
476,-328,0,0,0,0,0,0,0,0,0,-1,1700,1352,0,0
483,-328,0,0,0,0,0,0,0,0,0,-1,1707,1352,0,0
490,-328,0,0,0,0,0,0,0,0,0,-1,1714,1352,0,0
497,-328,0,0,0,0,0,0,0,0,0,-1,1721,1352,0,0
504,-328,0,0,0,0,0,0,0,0,0,-1,1728,1352,0,0
511,-328,0,0,0,0,0,0,0,0,0,-1,1735,1352,0,0
518,-328,0,0,0,0,0,0,0,0,0,-1,1742,1352,0,0
525,-328,0,0,0,0,0,0,0,0,0,-1,1749,1352,0,0
532,-328,0,0,0,0,0,0,0,0,0,-1,1756,1352,0,0
539,-328,0,0,0,0,0,0,0,0,0,-1,1763,1352,0,0
546,-328,0,0,0,0,0,0,0,0,0,-1,1770,1352,0,0
553,-328,0,0,0,0,0,0,0,0,0,-1,1777,1352,0,0
560,-328,0,0,0,0,0,0,0,0,0,-1,1784,1352,0,0
567,-328,0,0,0,0,0,0,0,0,0,-1,1791,1352,0,0
574,-328,35.0659,5.07495,0,0,0,0,0,0,0,-1,1798,1352,35.0659,-5.07493
581,-328,35.3311,4.30994,0,0,0,0,0,0,0,-1,1805,1352,35.3311,-4.30996
588,-328,35.8888,3.33984,0,0,0,0,0,0,0,-1,1812,1352,35.8888,-3.3398
595,-328,36.3195,2.73535,0,0,0,0,0,0,0,-1,1819,1352,36.3194,-2.73535
602,-328,36.4172,1.94446,0,0,0,0,0,0,0,-1,1826,1352,36.4172,-1.94447
609,-328,34.6511,3.51038,0,0,0,0,0,0,0,-1,1833,1352,34.6511,-3.51036
616,-328,30.9546,2.59326,0,0,0,0,0,0,0,-1,1840,1352,30.9546,-2.59329
623,-328,26.8594,6.41528,0,0,0,0,0,0,0,-1,1847,1352,26.8593,-6.41528
630,-328,22.0211,5.026,0,0,0,0,0,0,0,-1,1854,1352,22.0212,-5.02603
637,-328,21.15,5.53699,0,0,0,0,0,0,0,-1,1861,1352,21.15,-5.53704
644,-328,16.9579,6.3396,0,0,0,0,0,0,0,-1,1868,1352,16.9579,-6.33959
651,-328,24.1173,10.0406,0,0,0,0,0,0,0,-1,1875,1352,24.1173,-10.0406
658,-328,23.9761,9.6781,-0.00455709,0.00149452,-0.000454534,0.00152847,-0.00459104,-1.49624,0.00367763,0.0336412,1882,1352,23.976,-9.6781
665,-328,23.9923,9.28357,-0.0023905,0.000574933,-0.000421475,0.000633673,-0.00244924,-1.43232,0.00188,0.0150279,1889,1352,23.9923,-9.28354
672,-328,23.9718,8.92993,-0.000666262,-2.61111e-05,-0.000453991,0.000209291,-0.000901664,-1.09244,0.000681669,0.0125283,1896,1352,23.9718,-8.92993
679,-328,23.9801,8.56726,0.000169614,-0.000116964,-0.000341107,0.000396305,-0.000343655,-0.586554,0.000427577,0.0141463,1903,1352,23.9801,-8.56727
686,-328,23.9703,8.2063,0.000421546,-0.000187534,-5.97862e-05,0.000427359,-0.000193347,-0.0969256,0.000366756,0.0131613,1910,1352,23.9704,-8.20635
693,-328,23.9636,7.86108,0.000331327,1.78062e-05,0.00022041,0.000445037,-9.59041e-05,0.476289,0.000333291,0.00895074,1917,1352,23.9636,-7.86109
700,-328,23.9589,7.52795,6.93348e-05,0.000193108,0.000560846,0.000695472,-0.000433028,0.840349,0.000657386,0.0127984,1924,1352,23.9588,-7.52793
707,-328,23.963,7.17639,-0.000419428,0.000393542,0.000973758,0.00104225,-0.00106814,0.983123,0.00121846,0.0144855,1931,1352,23.963,-7.17639
714,-328,23.9686,6.80188,-0.00120265,0.000624854,0.00149858,0.00146629,-0.00204409,1.05918,0.00203585,0.0152582,1938,1352,23.9686,-6.80187
721,-328,23.7908,6.45935,-0.00238954,0.000909033,0.00228815,0.00208035,-0.00356085,1.09767,0.00329412,0.043265,1945,1352,23.7908,-6.45932
728,-328,23.8633,5.96899,0,0,0,0,0,0,0,-1,1952,1352,23.8633,-5.96894
735,-328,20.8927,5.23523,0,0,0,0,0,0,0,-1,1959,1352,20.8927,-5.23528
742,-328,20.3547,4.11316,0,0,0,0,0,0,0,-1,1966,1352,20.3547,-4.11321
749,-328,20.0669,5.66321,0,0,0,0,0,0,0,-1,1973,1352,20.0669,-5.66319
756,-328,19.9543,5.50464,0,0,0,0,0,0,0,-1,1980,1352,19.9543,-5.50463
763,-328,0,0,0,0,0,0,0,0,0,-1,1987,1352,0,0
770,-328,0,0,0,0,0,0,0,0,0,-1,1994,1352,0,0
777,-328,0,0,0,0,0,0,0,0,0,-1,2001,1352,0,0
784,-328,0,0,0,0,0,0,0,0,0,-1,2008,1352,0,0
791,-328,0,0,0,0,0,0,0,0,0,-1,2015,1352,0,0
798,-328,0,0,0,0,0,0,0,0,0,-1,2022,1352,0,0
805,-328,0,0,0,0,0,0,0,0,0,-1,2029,1352,0,0
812,-328,0,0,0,0,0,0,0,0,0,-1,2036,1352,0,0
-700,-335,0,0,0,0,0,0,0,0,0,-1,524,1359,0,0
-693,-335,0,0,0,0,0,0,0,0,0,-1,531,1359,0,0
-686,-335,0,0,0,0,0,0,0,0,0,-1,538,1359,0,0
-679,-335,0,0,0,0,0,0,0,0,0,-1,545,1359,0,0
-672,-335,0,0,0,0,0,0,0,0,0,-1,552,1359,0,0
-665,-335,0,0,0,0,0,0,0,0,0,-1,559,1359,0,0
-658,-335,0,0,0,0,0,0,0,0,0,-1,566,1359,0,0
-651,-335,0,0,0,0,0,0,0,0,0,-1,573,1359,0,0
-644,-335,0,0,0,0,0,0,0,0,0,-1,580,1359,0,0
-637,-335,-9.64746,3.53809,0,0,0,0,0,0,0,-1,587,1359,-9.64744,-3.53803
-630,-335,-6.07397,-2.99902,0,0,0,0,0,0,0,-1,594,1359,-6.07397,2.99902
-623,-335,-8.43304,1.09509,0,0,0,0,0,0,0,-1,601,1359,-8.43301,-1.09507
-616,-335,-7.80927,-0.485352,0,0,0,0,0,0,0,-1,608,1359,-7.80926,0.485291
-609,-335,-7.12256,-2.03601,0,0,0,0,0,0,0,-1,615,1359,-7.12253,2.03601
-602,-335,-9.39935,2.25146,0,0,0,0,0,0,0,-1,622,1359,-9.39935,-2.25145
-595,-335,-9.54767,3.01917,0,0,0,0,0,0,0,-1,629,1359,-9.54768,-3.01911
-588,-335,-12.3934,3.90161,0,0,0,0,0,0,0,-1,636,1359,-12.3934,-3.90163
-581,-335,-12.2867,4.54321,0.00272798,0.00154689,0.00301253,0.00520729,-0.00093243,0.688611,0.00382046,0.0342516,643,1359,-12.2867,-4.54317
-574,-335,-12.2997,4.91956,0.00155485,0.000983687,0.00172302,0.0030158,-0.000477258,0.703272,0.00218704,0.011926,650,1359,-12.2997,-4.91955
-567,-335,-12.291,5.33862,0.00126232,0.00061164,0.000988599,0.00197774,-0.000103776,0.626433,0.00135441,0.0157006,657,1359,-12.291,-5.33867
-560,-335,-12.2758,5.73572,0.00142491,0.000340571,0.000626375,0.00171117,5.43128e-05,0.428666,0.00112311,0.0239599,664,1359,-12.2758,-5.73574
-553,-335,-12.3073,6.14636,0.00232554,0.000196889,0.000642918,0.00250465,1.77785e-05,0.2717,0.00166387,0.0269139,671,1359,-12.3073,-6.14639
-546,-335,-12.332,6.53088,0.00376486,8.28547e-05,0.00102189,0.00402945,-0.000181744,0.253365,0.00274889,0.0241217,678,1359,-12.332,-6.53083
-539,-335,-12.3493,6.89844,0.00549386,7.24244e-05,0.00163611,0.00594934,-0.000383059,0.27152,0.00409988,0.0193898,685,1359,-12.3493,-6.89844
-532,-335,-12.3659,7.32507,0.00763896,0.000119186,0.00251773,0.00840408,-0.000645935,0.295025,0.00582997,0.0154444,692,1359,-12.3659,-7.32508
-525,-335,-12.291,7.74536,0.010308,0.000279437,0.00391923,0.011658,-0.0010705,0.331713,0.00815228,0.0108882,699,1359,-12.291,-7.74541
-518,-335,-12.2473,8.09277,0.0136532,0.000454886,0.00565164,0.0157425,-0.00163446,0.354105,0.0110801,0.0323138,706,1359,-12.2473,-8.09276
-511,-335,-12.2028,8.41724,0,0,0,0,0,0,0,-1,713,1359,-12.2028,-8.41724
-504,-335,-9.35767,5.99695,0,0,0,0,0,0,0,-1,720,1359,-9.35767,-5.99694
-497,-335,-8.75024,-0.650513,0,0,0,0,0,0,0,-1,727,1359,-8.75024,0.650521
-490,-335,-9.51971,0.417603,0,0,0,0,0,0,0,-1,734,1359,-9.51974,-0.41765
-483,-335,-10.2883,1.29224,0,0,0,0,0,0,0,-1,741,1359,-10.2883,-1.2922
-476,-335,-11.9938,-0.173462,0,0,0,0,0,0,0,-1,748,1359,-11.9938,0.173429
-469,-335,-12.8704,-0.204102,0,0,0,0,0,0,0,-1,755,1359,-12.8704,0.204117
-462,-335,-13.486,0.0218506,0,0,0,0,0,0,0,-1,762,1359,-13.4859,-0.0217908
-455,-335,-14.1504,0.549561,0,0,0,0,0,0,0,-1,769,1359,-14.1504,-0.549583
-448,-335,0,0,0,0,0,0,0,0,0,-1,776,1359,0,0
-441,-335,0,0,0,0,0,0,0,0,0,-1,783,1359,0,0
-434,-335,0,0,0,0,0,0,0,0,0,-1,790,1359,0,0
-427,-335,0,0,0,0,0,0,0,0,0,-1,797,1359,0,0
-420,-335,0,0,0,0,0,0,0,0,0,-1,804,1359,0,0
-413,-335,0,0,0,0,0,0,0,0,0,-1,811,1359,0,0
-406,-335,0,0,0,0,0,0,0,0,0,-1,818,1359,0,0
-399,-335,0,0,0,0,0,0,0,0,0,-1,825,1359,0,0
-392,-335,0,0,0,0,0,0,0,0,0,-1,832,1359,0,0
-385,-335,0,0,0,0,0,0,0,0,0,-1,839,1359,0,0
-378,-335,0,0,0,0,0,0,0,0,0,-1,846,1359,0,0
-371,-335,0,0,0,0,0,0,0,0,0,-1,853,1359,0,0
-364,-335,0,0,0,0,0,0,0,0,0,-1,860,1359,0,0
-357,-335,0,0,0,0,0,0,0,0,0,-1,867,1359,0,0
-350,-335,0,0,0,0,0,0,0,0,0,-1,874,1359,0,0
-343,-335,0,0,0,0,0,0,0,0,0,-1,881,1359,0,0
-336,-335,0,0,0,0,0,0,0,0,0,-1,888,1359,0,0
-329,-335,0,0,0,0,0,0,0,0,0,-1,895,1359,0,0
-322,-335,0,0,0,0,0,0,0,0,0,-1,902,1359,0,0
-315,-335,0,0,0,0,0,0,0,0,0,-1,909,1359,0,0
-308,-335,0,0,0,0,0,0,0,0,0,-1,916,1359,0,0
-301,-335,0,0,0,0,0,0,0,0,0,-1,923,1359,0,0
-294,-335,0,0,0,0,0,0,0,0,0,-1,930,1359,0,0
-287,-335,0,0,0,0,0,0,0,0,0,-1,937,1359,0,0
-280,-335,0,0,0,0,0,0,0,0,0,-1,944,1359,0,0
-273,-335,0,0,0,0,0,0,0,0,0,-1,951,1359,0,0
-266,-335,0,0,0,0,0,0,0,0,0,-1,958,1359,0,0
-259,-335,0,0,0,0,0,0,0,0,0,-1,965,1359,0,0
-252,-335,0,0,0,0,0,0,0,0,0,-1,972,1359,0,0
-245,-335,0,0,0,0,0,0,0,0,0,-1,979,1359,0,0
-238,-335,0,0,0,0,0,0,0,0,0,-1,986,1359,0,0
-231,-335,0,0,0,0,0,0,0,0,0,-1,993,1359,0,0
-224,-335,0,0,0,0,0,0,0,0,0,-1,1000,1359,0,0
-217,-335,0,0,0,0,0,0,0,0,0,-1,1007,1359,0,0
-210,-335,0,0,0,0,0,0,0,0,0,-1,1014,1359,0,0
-203,-335,0,0,0,0,0,0,0,0,0,-1,1021,1359,0,0
-196,-335,0,0,0,0,0,0,0,0,0,-1,1028,1359,0,0
-189,-335,0,0,0,0,0,0,0,0,0,-1,1035,1359,0,0
-182,-335,0,0,0,0,0,0,0,0,0,-1,1042,1359,0,0
-175,-335,0,0,0,0,0,0,0,0,0,-1,1049,1359,0,0
-168,-335,0,0,0,0,0,0,0,0,0,-1,1056,1359,0,0
-161,-335,0,0,0,0,0,0,0,0,0,-1,1063,1359,0,0
-154,-335,0,0,0,0,0,0,0,0,0,-1,1070,1359,0,0
-147,-335,0,0,0,0,0,0,0,0,0,-1,1077,1359,0,0
-140,-335,0,0,0,0,0,0,0,0,0,-1,1084,1359,0,0
-133,-335,0,0,0,0,0,0,0,0,0,-1,1091,1359,0,0
-126,-335,0,0,0,0,0,0,0,0,0,-1,1098,1359,0,0
-119,-335,0,0,0,0,0,0,0,0,0,-1,1105,1359,0,0
-112,-335,0,0,0,0,0,0,0,0,0,-1,1112,1359,0,0
-105,-335,0,0,0,0,0,0,0,0,0,-1,1119,1359,0,0
-98,-335,0,0,0,0,0,0,0,0,0,-1,1126,1359,0,0
-91,-335,0,0,0,0,0,0,0,0,0,-1,1133,1359,0,0
-84,-335,0,0,0,0,0,0,0,0,0,-1,1140,1359,0,0
-77,-335,0,0,0,0,0,0,0,0,0,-1,1147,1359,0,0
-70,-335,0,0,0,0,0,0,0,0,0,-1,1154,1359,0,0
-63,-335,0,0,0,0,0,0,0,0,0,-1,1161,1359,0,0
-56,-335,0,0,0,0,0,0,0,0,0,-1,1168,1359,0,0
-49,-335,0,0,0,0,0,0,0,0,0,-1,1175,1359,0,0
-42,-335,0,0,0,0,0,0,0,0,0,-1,1182,1359,0,0
-35,-335,0,0,0,0,0,0,0,0,0,-1,1189,1359,0,0
-28,-335,0,0,0,0,0,0,0,0,0,-1,1196,1359,0,0
-21,-335,0,0,0,0,0,0,0,0,0,-1,1203,1359,0,0
-14,-335,0,0,0,0,0,0,0,0,0,-1,1210,1359,0,0
-7,-335,0,0,0,0,0,0,0,0,0,-1,1217,1359,0,0
0,-335,0,0,0,0,0,0,0,0,0,-1,1224,1359,0,0
7,-335,0,0,0,0,0,0,0,0,0,-1,1231,1359,0,0
14,-335,0,0,0,0,0,0,0,0,0,-1,1238,1359,0,0
21,-335,0,0,0,0,0,0,0,0,0,-1,1245,1359,0,0
28,-335,0,0,0,0,0,0,0,0,0,-1,1252,1359,0,0
35,-335,0,0,0,0,0,0,0,0,0,-1,1259,1359,0,0
42,-335,0,0,0,0,0,0,0,0,0,-1,1266,1359,0,0
49,-335,0,0,0,0,0,0,0,0,0,-1,1273,1359,0,0
56,-335,0,0,0,0,0,0,0,0,0,-1,1280,1359,0,0
63,-335,0,0,0,0,0,0,0,0,0,-1,1287,1359,0,0
70,-335,0,0,0,0,0,0,0,0,0,-1,1294,1359,0,0
77,-335,0,0,0,0,0,0,0,0,0,-1,1301,1359,0,0
84,-335,0,0,0,0,0,0,0,0,0,-1,1308,1359,0,0
91,-335,0,0,0,0,0,0,0,0,0,-1,1315,1359,0,0
98,-335,0,0,0,0,0,0,0,0,0,-1,1322,1359,0,0
105,-335,0,0,0,0,0,0,0,0,0,-1,1329,1359,0,0
112,-335,0,0,0,0,0,0,0,0,0,-1,1336,1359,0,0
119,-335,0,0,0,0,0,0,0,0,0,-1,1343,1359,0,0
126,-335,0,0,0,0,0,0,0,0,0,-1,1350,1359,0,0
133,-335,0,0,0,0,0,0,0,0,0,-1,1357,1359,0,0
140,-335,0,0,0,0,0,0,0,0,0,-1,1364,1359,0,0
147,-335,0,0,0,0,0,0,0,0,0,-1,1371,1359,0,0
154,-335,0,0,0,0,0,0,0,0,0,-1,1378,1359,0,0
161,-335,0,0,0,0,0,0,0,0,0,-1,1385,1359,0,0
168,-335,0,0,0,0,0,0,0,0,0,-1,1392,1359,0,0
175,-335,0,0,0,0,0,0,0,0,0,-1,1399,1359,0,0
182,-335,0,0,0,0,0,0,0,0,0,-1,1406,1359,0,0
189,-335,0,0,0,0,0,0,0,0,0,-1,1413,1359,0,0
196,-335,0,0,0,0,0,0,0,0,0,-1,1420,1359,0,0
203,-335,0,0,0,0,0,0,0,0,0,-1,1427,1359,0,0
210,-335,0,0,0,0,0,0,0,0,0,-1,1434,1359,0,0
217,-335,0,0,0,0,0,0,0,0,0,-1,1441,1359,0,0
224,-335,0,0,0,0,0,0,0,0,0,-1,1448,1359,0,0
231,-335,0,0,0,0,0,0,0,0,0,-1,1455,1359,0,0
238,-335,0,0,0,0,0,0,0,0,0,-1,1462,1359,0,0
245,-335,0,0,0,0,0,0,0,0,0,-1,1469,1359,0,0
252,-335,0,0,0,0,0,0,0,0,0,-1,1476,1359,0,0
259,-335,0,0,0,0,0,0,0,0,0,-1,1483,1359,0,0
266,-335,0,0,0,0,0,0,0,0,0,-1,1490,1359,0,0
273,-335,0,0,0,0,0,0,0,0,0,-1,1497,1359,0,0
280,-335,0,0,0,0,0,0,0,0,0,-1,1504,1359,0,0
287,-335,0,0,0,0,0,0,0,0,0,-1,1511,1359,0,0
294,-335,0,0,0,0,0,0,0,0,0,-1,1518,1359,0,0
301,-335,0,0,0,0,0,0,0,0,0,-1,1525,1359,0,0
308,-335,0,0,0,0,0,0,0,0,0,-1,1532,1359,0,0
315,-335,0,0,0,0,0,0,0,0,0,-1,1539,1359,0,0
322,-335,0,0,0,0,0,0,0,0,0,-1,1546,1359,0,0
329,-335,0,0,0,0,0,0,0,0,0,-1,1553,1359,0,0
336,-335,0,0,0,0,0,0,0,0,0,-1,1560,1359,0,0
343,-335,0,0,0,0,0,0,0,0,0,-1,1567,1359,0,0
350,-335,0,0,0,0,0,0,0,0,0,-1,1574,1359,0,0
357,-335,0,0,0,0,0,0,0,0,0,-1,1581,1359,0,0
364,-335,0,0,0,0,0,0,0,0,0,-1,1588,1359,0,0
371,-335,0,0,0,0,0,0,0,0,0,-1,1595,1359,0,0
378,-335,0,0,0,0,0,0,0,0,0,-1,1602,1359,0,0
385,-335,0,0,0,0,0,0,0,0,0,-1,1609,1359,0,0
392,-335,0,0,0,0,0,0,0,0,0,-1,1616,1359,0,0
399,-335,0,0,0,0,0,0,0,0,0,-1,1623,1359,0,0
406,-335,0,0,0,0,0,0,0,0,0,-1,1630,1359,0,0
413,-335,0,0,0,0,0,0,0,0,0,-1,1637,1359,0,0
420,-335,0,0,0,0,0,0,0,0,0,-1,1644,1359,0,0
427,-335,0,0,0,0,0,0,0,0,0,-1,1651,1359,0,0
434,-335,0,0,0,0,0,0,0,0,0,-1,1658,1359,0,0
441,-335,0,0,0,0,0,0,0,0,0,-1,1665,1359,0,0
448,-335,0,0,0,0,0,0,0,0,0,-1,1672,1359,0,0
455,-335,0,0,0,0,0,0,0,0,0,-1,1679,1359,0,0
462,-335,0,0,0,0,0,0,0,0,0,-1,1686,1359,0,0
469,-335,0,0,0,0,0,0,0,0,0,-1,1693,1359,0,0
476,-335,0,0,0,0,0,0,0,0,0,-1,1700,1359,0,0
483,-335,0,0,0,0,0,0,0,0,0,-1,1707,1359,0,0
490,-335,0,0,0,0,0,0,0,0,0,-1,1714,1359,0,0
497,-335,0,0,0,0,0,0,0,0,0,-1,1721,1359,0,0
504,-335,0,0,0,0,0,0,0,0,0,-1,1728,1359,0,0
511,-335,0,0,0,0,0,0,0,0,0,-1,1735,1359,0,0
518,-335,0,0,0,0,0,0,0,0,0,-1,1742,1359,0,0
525,-335,0,0,0,0,0,0,0,0,0,-1,1749,1359,0,0
532,-335,0,0,0,0,0,0,0,0,0,-1,1756,1359,0,0
539,-335,0,0,0,0,0,0,0,0,0,-1,1763,1359,0,0
546,-335,0,0,0,0,0,0,0,0,0,-1,1770,1359,0,0
553,-335,0,0,0,0,0,0,0,0,0,-1,1777,1359,0,0
560,-335,0,0,0,0,0,0,0,0,0,-1,1784,1359,0,0
567,-335,0,0,0,0,0,0,0,0,0,-1,1791,1359,0,0
574,-335,35.8188,5.09021,0,0,0,0,0,0,0,-1,1798,1359,35.8188,-5.0902
581,-335,36.1947,4.1853,0,0,0,0,0,0,0,-1,1805,1359,36.1948,-4.1853
588,-335,36.327,2.96924,0,0,0,0,0,0,0,-1,1812,1359,36.3271,-2.96928
595,-335,37.0405,2.40552,0,0,0,0,0,0,0,-1,1819,1359,37.0406,-2.40547
602,-335,36.3344,3.88892,0,0,0,0,0,0,0,-1,1826,1359,36.3343,-3.88897
609,-335,30.826,4.40063,0,0,0,0,0,0,0,-1,1833,1359,30.826,-4.40063
616,-335,28.298,5.98853,0,0,0,0,0,0,0,-1,1840,1359,28.298,-5.98849
623,-335,26.6051,6.54333,0,0,0,0,0,0,0,-1,1847,1359,26.6051,-6.54339
630,-335,19.1707,1.00952,0,0,0,0,0,0,0,-1,1854,1359,19.1707,-1.00953
637,-335,18.2009,6.65454,0,0,0,0,0,0,0,-1,1861,1359,18.2009,-6.6546
644,-335,23.8501,10.2943,0,0,0,0,0,0,0,-1,1868,1359,23.8501,-10.2944
651,-335,23.6981,9.99487,-0.00352394,0.00150567,-0.00100473,0.00169895,-0.00371722,-1.38075,0.00319858,0.0409462,1875,1359,23.6982,-9.99484
658,-335,23.6045,9.72461,-0.00200789,0.000638205,-0.000796777,0.000859602,-0.00222929,-1.29977,0.00184089,0.020831,1882,1359,23.6045,-9.72458
665,-335,23.6415,9.30176,-0.000886597,0.000126939,-0.000592325,0.000399699,-0.00115936,-1.13925,0.00093506,0.0146852,1889,1359,23.6415,-9.3018
672,-335,23.6276,8.93884,1.99542e-07,-0.000116949,-0.000485586,0.000430732,-0.000547481,-0.725375,0.000566111,0.0171873,1896,1359,23.6275,-8.9388
679,-335,23.6322,8.61133,0.000459742,-0.000100948,-0.0003018,0.000591315,-0.000232521,-0.411118,0.000490447,0.0148065,1903,1359,23.6322,-8.61131
686,-335,23.6415,8.23499,0.00062802,-9.05256e-05,-2.83323e-05,0.000629135,-9.1641e-05,-0.0393487,0.00045307,0.0117539,1910,1359,23.6415,-8.23499
693,-335,23.6204,7.8595,0.000647922,0.000118356,0.000214221,0.000723728,4.25505e-05,0.340116,0.000468945,0.00948313,1917,1359,23.6203,-7.85953
700,-335,23.599,7.54089,0.000511092,0.000330977,0.000491589,0.000920805,-7.87363e-05,0.694804,0.000641727,0.0101867,1924,1359,23.5991,-7.54085
707,-335,23.595,7.18762,0.000114078,0.000551122,0.000840362,0.00120091,-0.000535709,0.912598,0.00102686,0.0136018,1931,1359,23.595,-7.18764
714,-335,23.6177,6.70227,-0.000592401,0.000844982,0.00129614,0.00160835,-0.00135577,1.03854,0.0017134,0.0297908,1938,1359,23.6176,-6.70224
721,-335,23.579,6.15051,0,0,0,0,0,0,0,-1,1945,1359,23.579,-6.1505
728,-335,20.8126,5.21167,0,0,0,0,0,0,0,-1,1952,1359,20.8127,-5.21172
735,-335,20.2725,5.34729,0,0,0,0,0,0,0,-1,1959,1359,20.2724,-5.34734
742,-335,19.8624,4.72229,0,0,0,0,0,0,0,-1,1966,1359,19.8624,-4.72225
749,-335,20.5887,6.05322,0,0,0,0,0,0,0,-1,1973,1359,20.5887,-6.05322
756,-335,20.7832,6.00452,0,0,0,0,0,0,0,-1,1980,1359,20.7832,-6.00447
763,-335,0,0,0,0,0,0,0,0,0,-1,1987,1359,0,0
770,-335,0,0,0,0,0,0,0,0,0,-1,1994,1359,0,0
777,-335,0,0,0,0,0,0,0,0,0,-1,2001,1359,0,0
784,-335,0,0,0,0,0,0,0,0,0,-1,2008,1359,0,0
791,-335,0,0,0,0,0,0,0,0,0,-1,2015,1359,0,0
798,-335,0,0,0,0,0,0,0,0,0,-1,2022,1359,0,0
805,-335,0,0,0,0,0,0,0,0,0,-1,2029,1359,0,0
812,-335,0,0,0,0,0,0,0,0,0,-1,2036,1359,0,0
-700,-342,0,0,0,0,0,0,0,0,0,-1,524,1366,0,0
-693,-342,0,0,0,0,0,0,0,0,0,-1,531,1366,0,0
-686,-342,0,0,0,0,0,0,0,0,0,-1,538,1366,0,0
-679,-342,0,0,0,0,0,0,0,0,0,-1,545,1366,0,0
-672,-342,0,0,0,0,0,0,0,0,0,-1,552,1366,0,0
-665,-342,0,0,0,0,0,0,0,0,0,-1,559,1366,0,0
-658,-342,0,0,0,0,0,0,0,0,0,-1,566,1366,0,0
-651,-342,0,0,0,0,0,0,0,0,0,-1,573,1366,0,0
-644,-342,0,0,0,0,0,0,0,0,0,-1,580,1366,0,0
-637,-342,-8.67786,-4.58557,0,0,0,0,0,0,0,-1,587,1366,-8.67788,4.5856
-630,-342,-8.60132,2.71777,0,0,0,0,0,0,0,-1,594,1366,-8.60135,-2.71779
-623,-342,-8.41168,0.662476,0,0,0,0,0,0,0,-1,601,1366,-8.41168,-0.662442
-616,-342,-6.625,-1.28015,0,0,0,0,0,0,0,-1,608,1366,-6.62499,1.28011
-609,-342,-7.83154,0.674561,0,0,0,0,0,0,0,-1,615,1366,-7.83155,-0.674598
-602,-342,-9.65765,2.25195,0,0,0,0,0,0,0,-1,622,1366,-9.65767,-2.25192
-595,-342,-9.47687,3.00671,0,0,0,0,0,0,0,-1,629,1366,-9.47686,-3.00668
-588,-342,-9.78467,3.57727,0,0,0,0,0,0,0,-1,636,1366,-9.78468,-3.57723
-581,-342,-11.9597,4.40723,0,0,0,0,0,0,0,-1,643,1366,-11.9597,-4.40725
-574,-342,-11.9389,4.93164,-0.000158393,0.000771134,0.00158176,0.00195499,-0.00134225,0.928291,0.00191459,0.0141813,650,1366,-11.9389,-4.93167
-567,-342,-11.881,5.32617,6.22904e-05,0.000550988,0.000869966,0.00121027,-0.000596991,0.922307,0.00106326,0.0156795,657,1366,-11.881,-5.32613
-560,-342,-11.9069,5.74341,0.000633598,0.000395782,0.000540152,0.00106778,-3.83962e-05,0.677057,0.000724988,0.0231765,664,1366,-11.9069,-5.74339
-553,-342,-11.9586,6.13489,0.00168046,0.000208814,0.000529822,0.00185136,3.79141e-05,0.312024,0.0012218,0.0259771,671,1366,-11.9586,-6.1349
-546,-342,-11.9359,6.49817,0.00313329,3.52037e-05,0.000861193,0.00335658,-0.000188093,0.253701,0.00230298,0.0263604,678,1366,-11.9358,-6.49819
-539,-342,-11.9116,6.91235,0.00482066,-1.11537e-05,0.00143462,0.00521452,-0.000405006,0.267933,0.00361891,0.0222139,685,1366,-11.9115,-6.91237
-532,-342,-11.9504,7.35974,0.00685559,7.07432e-06,0.00227846,0.00754435,-0.000681687,0.293559,0.00527151,0.0171235,692,1366,-11.9504,-7.35971
-525,-342,-11.9078,7.76648,0.00935754,0.000205771,0.00366277,0.0106429,-0.00107963,0.337508,0.00748118,0.0114827,699,1366,-11.9078,-7.76647
-518,-342,-11.8597,8.16675,0.0124743,0.00052889,0.00543921,0.0145799,-0.00157666,0.369341,0.0102858,0.0219439,706,1366,-11.8597,-8.1668
-511,-342,-11.8696,8.5498,0,0,0,0,0,0,0,-1,713,1366,-11.8696,-8.54982
-504,-342,-8.95709,6.5719,0,0,0,0,0,0,0,-1,720,1366,-8.95707,-6.57192
-497,-342,-8.26587,-0.943604,0,0,0,0,0,0,0,-1,727,1366,-8.26586,0.943543
-490,-342,-9.07153,-0.0227051,0,0,0,0,0,0,0,-1,734,1366,-9.07155,0.0227087
-483,-342,-9.87726,0.898071,0,0,0,0,0,0,0,-1,741,1366,-9.87724,-0.898125
-476,-342,-11.6371,-0.736328,0,0,0,0,0,0,0,-1,748,1366,-11.6371,0.736281
-469,-342,-12.6245,-0.987549,0,0,0,0,0,0,0,-1,755,1366,-12.6245,0.987553
-462,-342,-13.0912,-0.533203,0,0,0,0,0,0,0,-1,762,1366,-13.0912,0.533224
-455,-342,-13.7612,0.122925,0,0,0,0,0,0,0,-1,769,1366,-13.7612,-0.122896
-448,-342,-14.5278,0.826904,0,0,0,0,0,0,0,-1,776,1366,-14.5277,-0.826861
-441,-342,0,0,0,0,0,0,0,0,0,-1,783,1366,0,0
-434,-342,0,0,0,0,0,0,0,0,0,-1,790,1366,0,0
-427,-342,0,0,0,0,0,0,0,0,0,-1,797,1366,0,0
-420,-342,0,0,0,0,0,0,0,0,0,-1,804,1366,0,0
-413,-342,0,0,0,0,0,0,0,0,0,-1,811,1366,0,0
-406,-342,0,0,0,0,0,0,0,0,0,-1,818,1366,0,0
-399,-342,0,0,0,0,0,0,0,0,0,-1,825,1366,0,0
-392,-342,0,0,0,0,0,0,0,0,0,-1,832,1366,0,0
-385,-342,0,0,0,0,0,0,0,0,0,-1,839,1366,0,0
-378,-342,0,0,0,0,0,0,0,0,0,-1,846,1366,0,0
-371,-342,0,0,0,0,0,0,0,0,0,-1,853,1366,0,0
-364,-342,0,0,0,0,0,0,0,0,0,-1,860,1366,0,0
-357,-342,0,0,0,0,0,0,0,0,0,-1,867,1366,0,0
-350,-342,0,0,0,0,0,0,0,0,0,-1,874,1366,0,0
-343,-342,0,0,0,0,0,0,0,0,0,-1,881,1366,0,0
-336,-342,0,0,0,0,0,0,0,0,0,-1,888,1366,0,0
-329,-342,0,0,0,0,0,0,0,0,0,-1,895,1366,0,0
-322,-342,0,0,0,0,0,0,0,0,0,-1,902,1366,0,0
-315,-342,0,0,0,0,0,0,0,0,0,-1,909,1366,0,0
-308,-342,0,0,0,0,0,0,0,0,0,-1,916,1366,0,0
-301,-342,0,0,0,0,0,0,0,0,0,-1,923,1366,0,0
-294,-342,0,0,0,0,0,0,0,0,0,-1,930,1366,0,0
-287,-342,0,0,0,0,0,0,0,0,0,-1,937,1366,0,0
-280,-342,0,0,0,0,0,0,0,0,0,-1,944,1366,0,0
-273,-342,0,0,0,0,0,0,0,0,0,-1,951,1366,0,0
-266,-342,0,0,0,0,0,0,0,0,0,-1,958,1366,0,0
-259,-342,0,0,0,0,0,0,0,0,0,-1,965,1366,0,0
-252,-342,0,0,0,0,0,0,0,0,0,-1,972,1366,0,0
-245,-342,0,0,0,0,0,0,0,0,0,-1,979,1366,0,0
-238,-342,0,0,0,0,0,0,0,0,0,-1,986,1366,0,0
-231,-342,0,0,0,0,0,0,0,0,0,-1,993,1366,0,0
-224,-342,0,0,0,0,0,0,0,0,0,-1,1000,1366,0,0
-217,-342,0,0,0,0,0,0,0,0,0,-1,1007,1366,0,0
-210,-342,0,0,0,0,0,0,0,0,0,-1,1014,1366,0,0
-203,-342,0,0,0,0,0,0,0,0,0,-1,1021,1366,0,0
-196,-342,0,0,0,0,0,0,0,0,0,-1,1028,1366,0,0
-189,-342,0,0,0,0,0,0,0,0,0,-1,1035,1366,0,0
-182,-342,0,0,0,0,0,0,0,0,0,-1,1042,1366,0,0
-175,-342,0,0,0,0,0,0,0,0,0,-1,1049,1366,0,0
-168,-342,0,0,0,0,0,0,0,0,0,-1,1056,1366,0,0
-161,-342,0,0,0,0,0,0,0,0,0,-1,1063,1366,0,0
-154,-342,0,0,0,0,0,0,0,0,0,-1,1070,1366,0,0
-147,-342,0,0,0,0,0,0,0,0,0,-1,1077,1366,0,0
-140,-342,0,0,0,0,0,0,0,0,0,-1,1084,1366,0,0
-133,-342,0,0,0,0,0,0,0,0,0,-1,1091,1366,0,0
-126,-342,0,0,0,0,0,0,0,0,0,-1,1098,1366,0,0
-119,-342,0,0,0,0,0,0,0,0,0,-1,1105,1366,0,0
-112,-342,0,0,0,0,0,0,0,0,0,-1,1112,1366,0,0
-105,-342,0,0,0,0,0,0,0,0,0,-1,1119,1366,0,0
-98,-342,0,0,0,0,0,0,0,0,0,-1,1126,1366,0,0
-91,-342,0,0,0,0,0,0,0,0,0,-1,1133,1366,0,0
-84,-342,0,0,0,0,0,0,0,0,0,-1,1140,1366,0,0
-77,-342,0,0,0,0,0,0,0,0,0,-1,1147,1366,0,0
-70,-342,0,0,0,0,0,0,0,0,0,-1,1154,1366,0,0
-63,-342,0,0,0,0,0,0,0,0,0,-1,1161,1366,0,0
-56,-342,0,0,0,0,0,0,0,0,0,-1,1168,1366,0,0
-49,-342,0,0,0,0,0,0,0,0,0,-1,1175,1366,0,0
-42,-342,0,0,0,0,0,0,0,0,0,-1,1182,1366,0,0
-35,-342,0,0,0,0,0,0,0,0,0,-1,1189,1366,0,0
-28,-342,0,0,0,0,0,0,0,0,0,-1,1196,1366,0,0
-21,-342,0,0,0,0,0,0,0,0,0,-1,1203,1366,0,0
-14,-342,0,0,0,0,0,0,0,0,0,-1,1210,1366,0,0
-7,-342,0,0,0,0,0,0,0,0,0,-1,1217,1366,0,0
0,-342,0,0,0,0,0,0,0,0,0,-1,1224,1366,0,0
7,-342,0,0,0,0,0,0,0,0,0,-1,1231,1366,0,0
14,-342,0,0,0,0,0,0,0,0,0,-1,1238,1366,0,0
21,-342,0,0,0,0,0,0,0,0,0,-1,1245,1366,0,0
28,-342,0,0,0,0,0,0,0,0,0,-1,1252,1366,0,0
35,-342,0,0,0,0,0,0,0,0,0,-1,1259,1366,0,0
42,-342,0,0,0,0,0,0,0,0,0,-1,1266,1366,0,0
49,-342,0,0,0,0,0,0,0,0,0,-1,1273,1366,0,0
56,-342,0,0,0,0,0,0,0,0,0,-1,1280,1366,0,0
63,-342,0,0,0,0,0,0,0,0,0,-1,1287,1366,0,0
70,-342,0,0,0,0,0,0,0,0,0,-1,1294,1366,0,0
77,-342,0,0,0,0,0,0,0,0,0,-1,1301,1366,0,0
84,-342,0,0,0,0,0,0,0,0,0,-1,1308,1366,0,0
91,-342,0,0,0,0,0,0,0,0,0,-1,1315,1366,0,0
98,-342,0,0,0,0,0,0,0,0,0,-1,1322,1366,0,0
105,-342,0,0,0,0,0,0,0,0,0,-1,1329,1366,0,0
112,-342,0,0,0,0,0,0,0,0,0,-1,1336,1366,0,0
119,-342,0,0,0,0,0,0,0,0,0,-1,1343,1366,0,0
126,-342,0,0,0,0,0,0,0,0,0,-1,1350,1366,0,0
133,-342,0,0,0,0,0,0,0,0,0,-1,1357,1366,0,0
140,-342,0,0,0,0,0,0,0,0,0,-1,1364,1366,0,0
147,-342,0,0,0,0,0,0,0,0,0,-1,1371,1366,0,0
154,-342,0,0,0,0,0,0,0,0,0,-1,1378,1366,0,0
161,-342,0,0,0,0,0,0,0,0,0,-1,1385,1366,0,0
168,-342,0,0,0,0,0,0,0,0,0,-1,1392,1366,0,0
175,-342,0,0,0,0,0,0,0,0,0,-1,1399,1366,0,0
182,-342,0,0,0,0,0,0,0,0,0,-1,1406,1366,0,0
189,-342,0,0,0,0,0,0,0,0,0,-1,1413,1366,0,0
196,-342,0,0,0,0,0,0,0,0,0,-1,1420,1366,0,0
203,-342,0,0,0,0,0,0,0,0,0,-1,1427,1366,0,0
210,-342,0,0,0,0,0,0,0,0,0,-1,1434,1366,0,0
217,-342,0,0,0,0,0,0,0,0,0,-1,1441,1366,0,0
224,-342,0,0,0,0,0,0,0,0,0,-1,1448,1366,0,0
231,-342,0,0,0,0,0,0,0,0,0,-1,1455,1366,0,0
238,-342,0,0,0,0,0,0,0,0,0,-1,1462,1366,0,0
245,-342,0,0,0,0,0,0,0,0,0,-1,1469,1366,0,0
252,-342,0,0,0,0,0,0,0,0,0,-1,1476,1366,0,0
259,-342,0,0,0,0,0,0,0,0,0,-1,1483,1366,0,0
266,-342,0,0,0,0,0,0,0,0,0,-1,1490,1366,0,0
273,-342,0,0,0,0,0,0,0,0,0,-1,1497,1366,0,0
280,-342,0,0,0,0,0,0,0,0,0,-1,1504,1366,0,0
287,-342,0,0,0,0,0,0,0,0,0,-1,1511,1366,0,0
294,-342,0,0,0,0,0,0,0,0,0,-1,1518,1366,0,0
301,-342,0,0,0,0,0,0,0,0,0,-1,1525,1366,0,0
308,-342,0,0,0,0,0,0,0,0,0,-1,1532,1366,0,0
315,-342,0,0,0,0,0,0,0,0,0,-1,1539,1366,0,0
322,-342,0,0,0,0,0,0,0,0,0,-1,1546,1366,0,0
329,-342,0,0,0,0,0,0,0,0,0,-1,1553,1366,0,0
336,-342,0,0,0,0,0,0,0,0,0,-1,1560,1366,0,0
343,-342,0,0,0,0,0,0,0,0,0,-1,1567,1366,0,0
350,-342,0,0,0,0,0,0,0,0,0,-1,1574,1366,0,0
357,-342,0,0,0,0,0,0,0,0,0,-1,1581,1366,0,0
364,-342,0,0,0,0,0,0,0,0,0,-1,1588,1366,0,0
371,-342,0,0,0,0,0,0,0,0,0,-1,1595,1366,0,0
378,-342,0,0,0,0,0,0,0,0,0,-1,1602,1366,0,0
385,-342,0,0,0,0,0,0,0,0,0,-1,1609,1366,0,0
392,-342,0,0,0,0,0,0,0,0,0,-1,1616,1366,0,0
399,-342,0,0,0,0,0,0,0,0,0,-1,1623,1366,0,0
406,-342,0,0,0,0,0,0,0,0,0,-1,1630,1366,0,0
413,-342,0,0,0,0,0,0,0,0,0,-1,1637,1366,0,0
420,-342,0,0,0,0,0,0,0,0,0,-1,1644,1366,0,0
427,-342,0,0,0,0,0,0,0,0,0,-1,1651,1366,0,0
434,-342,0,0,0,0,0,0,0,0,0,-1,1658,1366,0,0
441,-342,0,0,0,0,0,0,0,0,0,-1,1665,1366,0,0
448,-342,0,0,0,0,0,0,0,0,0,-1,1672,1366,0,0
455,-342,0,0,0,0,0,0,0,0,0,-1,1679,1366,0,0
462,-342,0,0,0,0,0,0,0,0,0,-1,1686,1366,0,0
469,-342,0,0,0,0,0,0,0,0,0,-1,1693,1366,0,0
476,-342,0,0,0,0,0,0,0,0,0,-1,1700,1366,0,0
483,-342,0,0,0,0,0,0,0,0,0,-1,1707,1366,0,0
490,-342,0,0,0,0,0,0,0,0,0,-1,1714,1366,0,0
497,-342,0,0,0,0,0,0,0,0,0,-1,1721,1366,0,0
504,-342,0,0,0,0,0,0,0,0,0,-1,1728,1366,0,0
511,-342,0,0,0,0,0,0,0,0,0,-1,1735,1366,0,0
518,-342,0,0,0,0,0,0,0,0,0,-1,1742,1366,0,0
525,-342,0,0,0,0,0,0,0,0,0,-1,1749,1366,0,0
532,-342,0,0,0,0,0,0,0,0,0,-1,1756,1366,0,0
539,-342,0,0,0,0,0,0,0,0,0,-1,1763,1366,0,0
546,-342,0,0,0,0,0,0,0,0,0,-1,1770,1366,0,0
553,-342,0,0,0,0,0,0,0,0,0,-1,1777,1366,0,0
560,-342,0,0,0,0,0,0,0,0,0,-1,1784,1366,0,0
567,-342,36.3977,6.41162,0,0,0,0,0,0,0,-1,1791,1366,36.3977,-6.41167
574,-342,36.4338,4.94275,0,0,0,0,0,0,0,-1,1798,1366,36.4338,-4.94275
581,-342,36.7969,3.72156,0,0,0,0,0,0,0,-1,1805,1366,36.7968,-3.72162
588,-342,36.7841,2.57886,0,0,0,0,0,0,0,-1,1812,1366,36.7841,-2.57887
595,-342,32.9098,4.32629,0,0,0,0,0,0,0,-1,1819,1366,32.9098,-4.32627
602,-342,31.0818,5.28552,0,0,0,0,0,0,0,-1,1826,1366,31.0818,-5.28547
609,-342,29.3829,5.81714,0,0,0,0,0,0,0,-1,1833,1366,29.3829,-5.81711
616,-342,27.7058,6.33801,0,0,0,0,0,0,0,-1,1840,1366,27.7058,-6.33796
623,-342,26.0299,6.86865,0,0,0,0,0,0,0,-1,1847,1366,26.0299,-6.86863
630,-342,17.3431,0.773071,0,0,0,0,0,0,0,-1,1854,1366,17.3432,-0.773095
637,-342,16.196,6.76172,0,0,0,0,0,0,0,-1,1861,1366,16.1961,-6.76174
644,-342,23.1293,10.48,0,0,0,0,0,0,0,-1,1868,1366,23.1293,-10.48
651,-342,23.2974,10.1637,-0.000374612,0.000453,-0.00195613,0.00203861,-0.00196023,-0.889633,0.00230888,0.034137,1875,1366,23.2974,-10.1637
658,-342,23.2744,9.67773,-0.000252761,8.43573e-05,-0.0012331,0.00116037,-0.00132877,-0.853325,0.0014382,0.0203987,1882,1366,23.2744,-9.67769
665,-342,23.2722,9.28625,5.79706e-05,-0.000126244,-0.000745419,0.000716952,-0.000785225,-0.723928,0.000867581,0.0168173,1889,1366,23.2722,-9.28623
672,-342,23.2692,8.96008,0.000384133,-0.000153379,-0.000418546,0.000612781,-0.000382026,-0.499991,0.00057948,0.0130424,1896,1366,23.2692,-8.96006
679,-342,23.261,8.61926,0.000657864,-0.000124515,-0.000157288,0.000688301,-0.000154952,-0.191148,0.000518297,0.0131984,1903,1366,23.261,-8.61922
686,-342,23.2653,8.29126,0.000834572,-7.88663e-05,0.000104347,0.00084634,-9.06348e-05,0.112308,0.000596737,0.0113647,1910,1366,23.2653,-8.29131
693,-342,23.2507,7.90308,0.000942086,0.000113697,0.000319156,0.00105079,4.99818e-06,0.328261,0.000698864,0.0109608,1917,1366,23.2507,-7.90309
700,-342,23.219,7.52808,0.000924519,0.000358344,0.000533567,0.00124544,3.74183e-05,0.541501,0.000818109,0.0134514,1924,1366,23.219,-7.52809
707,-342,23.2358,7.16772,0.000604991,0.000584248,0.000809567,0.00140425,-0.000215014,0.778993,0.00101546,0.0132625,1931,1366,23.2359,-7.16772
714,-342,23.3126,6.59314,0,0,0,0,0,0,0,-1,1938,1366,23.3126,-6.59317
721,-342,22.4666,6.08679,0,0,0,0,0,0,0,-1,1945,1366,22.4666,-6.08678
728,-342,19.8912,5.26636,0,0,0,0,0,0,0,-1,1952,1366,19.8913,-5.26636
735,-342,19.481,4.41968,0,0,0,0,0,0,0,-1,1959,1366,19.4809,-4.41962
742,-342,19.309,2.66943,0,0,0,0,0,0,0,-1,1966,1366,19.3089,-2.66948
749,-342,21.0934,6.47729,0,0,0,0,0,0,0,-1,1973,1366,21.0934,-6.4773
756,-342,0,0,0,0,0,0,0,0,0,-1,1980,1366,0,0
763,-342,0,0,0,0,0,0,0,0,0,-1,1987,1366,0,0
770,-342,0,0,0,0,0,0,0,0,0,-1,1994,1366,0,0
777,-342,0,0,0,0,0,0,0,0,0,-1,2001,1366,0,0
784,-342,0,0,0,0,0,0,0,0,0,-1,2008,1366,0,0
791,-342,0,0,0,0,0,0,0,0,0,-1,2015,1366,0,0
798,-342,0,0,0,0,0,0,0,0,0,-1,2022,1366,0,0
805,-342,0,0,0,0,0,0,0,0,0,-1,2029,1366,0,0
812,-342,0,0,0,0,0,0,0,0,0,-1,2036,1366,0,0
-700,-349,0,0,0,0,0,0,0,0,0,-1,524,1373,0,0
-693,-349,0,0,0,0,0,0,0,0,0,-1,531,1373,0,0
-686,-349,0,0,0,0,0,0,0,0,0,-1,538,1373,0,0
-679,-349,0,0,0,0,0,0,0,0,0,-1,545,1373,0,0
-672,-349,0,0,0,0,0,0,0,0,0,-1,552,1373,0,0
-665,-349,0,0,0,0,0,0,0,0,0,-1,559,1373,0,0
-658,-349,0,0,0,0,0,0,0,0,0,-1,566,1373,0,0
-651,-349,0,0,0,0,0,0,0,0,0,-1,573,1373,0,0
-644,-349,0,0,0,0,0,0,0,0,0,-1,580,1373,0,0
-637,-349,0,0,0,0,0,0,0,0,0,-1,587,1373,0,0
-630,-349,-7.64117,-5.06177,0,0,0,0,0,0,0,-1,594,1373,-7.64118,5.0618
-623,-349,-8.63507,0.51123,0,0,0,0,0,0,0,-1,601,1373,-8.63505,-0.511275
-616,-349,-5.2066,-0.188232,0,0,0,0,0,0,0,-1,608,1373,-5.20659,0.188211
-609,-349,-7.12073,1.37048,0,0,0,0,0,0,0,-1,615,1373,-7.12072,-1.37044
-602,-349,-9.00623,3.39587,0,0,0,0,0,0,0,-1,622,1373,-9.0062,-3.39591
-595,-349,-9.50568,2.96912,0,0,0,0,0,0,0,-1,629,1373,-9.50569,-2.96906
-588,-349,-8.60046,3.56042,0,0,0,0,0,0,0,-1,636,1373,-8.60046,-3.56047
-581,-349,-11.5043,4.59912,0,0,0,0,0,0,0,-1,643,1373,-11.5043,-4.59907
-574,-349,-11.502,4.91211,-0.00118089,0.00196365,0.0023866,0.00324933,-0.00246658,1.07666,0.00331038,0.0282395,650,1373,-11.502,-4.91211
-567,-349,-11.5219,5.33008,-0.000781509,0.00121829,0.00127191,0.00183628,-0.0013995,1.11851,0.00187384,0.0167175,657,1373,-11.5219,-5.3301
-560,-349,-11.5095,5.75366,-7.17025e-05,0.000658968,0.000662434,0.00105013,-0.000462864,1.0374,0.000895193,0.0200082,664,1373,-11.5095,-5.75371
-553,-349,-11.5399,6.10925,0.000987652,0.000316457,0.000501035,0.0012551,4.90106e-05,0.490311,0.000820883,0.0256781,671,1373,-11.5399,-6.10929
-546,-349,-11.5322,6.48706,0.00239959,0.000111995,0.000745973,0.00262135,-0.000109765,0.288956,0.00178528,0.0290973,678,1373,-11.5322,-6.48711
-539,-349,-11.5103,6.90576,0.00404609,5.60518e-05,0.00127389,0.00441812,-0.000315974,0.284137,0.00305619,0.0232845,685,1373,-11.5103,-6.90577
-532,-349,-11.5414,7.34705,0.00602683,0.000101907,0.0021073,0.00669987,-0.000571135,0.309146,0.00466862,0.016525,692,1373,-11.5414,-7.34706
-525,-349,-11.5274,7.77417,0.00841936,0.000360825,0.0034688,0.00970682,-0.000926634,0.355394,0.00680117,0.0128991,699,1373,-11.5274,-7.77419
-518,-349,-11.5223,8.19409,0.0113919,0.000831438,0.00528665,0.0135836,-0.00136025,0.393003,0.00954151,0.0164372,706,1373,-11.5223,-8.19412
-511,-349,-11.183,8.80005,0,0,0,0,0,0,0,-1,713,1373,-11.183,-8.8
-504,-349,-9.60516,7.88831,0,0,0,0,0,0,0,-1,720,1373,-9.60519,-7.88825
-497,-349,-7.9339,5.58789,0,0,0,0,0,0,0,-1,727,1373,-7.93388,-5.58785
-490,-349,-8.73969,-0.503784,0,0,0,0,0,0,0,-1,734,1373,-8.73966,0.503752
-483,-349,-5.66974,3.7395,0,0,0,0,0,0,0,-1,741,1373,-5.66975,-3.73949
-476,-349,-10.8496,1.15759,0,0,0,0,0,0,0,-1,748,1373,-10.8496,-1.15756
-469,-349,-12.3314,-1.74878,0,0,0,0,0,0,0,-1,755,1373,-12.3314,1.74882
-462,-349,-12.6559,-0.995361,0,0,0,0,0,0,0,-1,762,1373,-12.656,0.995351
-455,-349,-13.2897,-0.234253,0,0,0,0,0,0,0,-1,769,1373,-13.2897,0.234261
-448,-349,-14.045,0.712891,0,0,0,0,0,0,0,-1,776,1373,-14.045,-0.712838
-441,-349,0,0,0,0,0,0,0,0,0,-1,783,1373,0,0
-434,-349,0,0,0,0,0,0,0,0,0,-1,790,1373,0,0
-427,-349,0,0,0,0,0,0,0,0,0,-1,797,1373,0,0
-420,-349,0,0,0,0,0,0,0,0,0,-1,804,1373,0,0
-413,-349,0,0,0,0,0,0,0,0,0,-1,811,1373,0,0
-406,-349,0,0,0,0,0,0,0,0,0,-1,818,1373,0,0
-399,-349,0,0,0,0,0,0,0,0,0,-1,825,1373,0,0
-392,-349,0,0,0,0,0,0,0,0,0,-1,832,1373,0,0
-385,-349,0,0,0,0,0,0,0,0,0,-1,839,1373,0,0
-378,-349,0,0,0,0,0,0,0,0,0,-1,846,1373,0,0
-371,-349,0,0,0,0,0,0,0,0,0,-1,853,1373,0,0
-364,-349,0,0,0,0,0,0,0,0,0,-1,860,1373,0,0
-357,-349,0,0,0,0,0,0,0,0,0,-1,867,1373,0,0
-350,-349,0,0,0,0,0,0,0,0,0,-1,874,1373,0,0
-343,-349,0,0,0,0,0,0,0,0,0,-1,881,1373,0,0
-336,-349,0,0,0,0,0,0,0,0,0,-1,888,1373,0,0
-329,-349,0,0,0,0,0,0,0,0,0,-1,895,1373,0,0
-322,-349,0,0,0,0,0,0,0,0,0,-1,902,1373,0,0
-315,-349,0,0,0,0,0,0,0,0,0,-1,909,1373,0,0
-308,-349,0,0,0,0,0,0,0,0,0,-1,916,1373,0,0
-301,-349,0,0,0,0,0,0,0,0,0,-1,923,1373,0,0
-294,-349,0,0,0,0,0,0,0,0,0,-1,930,1373,0,0
-287,-349,0,0,0,0,0,0,0,0,0,-1,937,1373,0,0
-280,-349,0,0,0,0,0,0,0,0,0,-1,944,1373,0,0
-273,-349,0,0,0,0,0,0,0,0,0,-1,951,1373,0,0
-266,-349,0,0,0,0,0,0,0,0,0,-1,958,1373,0,0
-259,-349,0,0,0,0,0,0,0,0,0,-1,965,1373,0,0
-252,-349,0,0,0,0,0,0,0,0,0,-1,972,1373,0,0
-245,-349,0,0,0,0,0,0,0,0,0,-1,979,1373,0,0
-238,-349,0,0,0,0,0,0,0,0,0,-1,986,1373,0,0
-231,-349,0,0,0,0,0,0,0,0,0,-1,993,1373,0,0
-224,-349,0,0,0,0,0,0,0,0,0,-1,1000,1373,0,0
-217,-349,0,0,0,0,0,0,0,0,0,-1,1007,1373,0,0
-210,-349,0,0,0,0,0,0,0,0,0,-1,1014,1373,0,0
-203,-349,0,0,0,0,0,0,0,0,0,-1,1021,1373,0,0
-196,-349,0,0,0,0,0,0,0,0,0,-1,1028,1373,0,0
-189,-349,0,0,0,0,0,0,0,0,0,-1,1035,1373,0,0
-182,-349,0,0,0,0,0,0,0,0,0,-1,1042,1373,0,0
-175,-349,0,0,0,0,0,0,0,0,0,-1,1049,1373,0,0
-168,-349,0,0,0,0,0,0,0,0,0,-1,1056,1373,0,0
-161,-349,0,0,0,0,0,0,0,0,0,-1,1063,1373,0,0
-154,-349,0,0,0,0,0,0,0,0,0,-1,1070,1373,0,0
-147,-349,0,0,0,0,0,0,0,0,0,-1,1077,1373,0,0
-140,-349,0,0,0,0,0,0,0,0,0,-1,1084,1373,0,0
-133,-349,0,0,0,0,0,0,0,0,0,-1,1091,1373,0,0
-126,-349,0,0,0,0,0,0,0,0,0,-1,1098,1373,0,0
-119,-349,0,0,0,0,0,0,0,0,0,-1,1105,1373,0,0
-112,-349,0,0,0,0,0,0,0,0,0,-1,1112,1373,0,0
-105,-349,0,0,0,0,0,0,0,0,0,-1,1119,1373,0,0
-98,-349,0,0,0,0,0,0,0,0,0,-1,1126,1373,0,0
-91,-349,0,0,0,0,0,0,0,0,0,-1,1133,1373,0,0
-84,-349,0,0,0,0,0,0,0,0,0,-1,1140,1373,0,0
-77,-349,0,0,0,0,0,0,0,0,0,-1,1147,1373,0,0
-70,-349,0,0,0,0,0,0,0,0,0,-1,1154,1373,0,0
-63,-349,0,0,0,0,0,0,0,0,0,-1,1161,1373,0,0
-56,-349,0,0,0,0,0,0,0,0,0,-1,1168,1373,0,0
-49,-349,0,0,0,0,0,0,0,0,0,-1,1175,1373,0,0
-42,-349,0,0,0,0,0,0,0,0,0,-1,1182,1373,0,0
-35,-349,0,0,0,0,0,0,0,0,0,-1,1189,1373,0,0
-28,-349,0,0,0,0,0,0,0,0,0,-1,1196,1373,0,0
-21,-349,0,0,0,0,0,0,0,0,0,-1,1203,1373,0,0
-14,-349,0,0,0,0,0,0,0,0,0,-1,1210,1373,0,0
-7,-349,0,0,0,0,0,0,0,0,0,-1,1217,1373,0,0
0,-349,0,0,0,0,0,0,0,0,0,-1,1224,1373,0,0
7,-349,0,0,0,0,0,0,0,0,0,-1,1231,1373,0,0
14,-349,0,0,0,0,0,0,0,0,0,-1,1238,1373,0,0
21,-349,0,0,0,0,0,0,0,0,0,-1,1245,1373,0,0
28,-349,0,0,0,0,0,0,0,0,0,-1,1252,1373,0,0
35,-349,0,0,0,0,0,0,0,0,0,-1,1259,1373,0,0
42,-349,0,0,0,0,0,0,0,0,0,-1,1266,1373,0,0
49,-349,0,0,0,0,0,0,0,0,0,-1,1273,1373,0,0
56,-349,0,0,0,0,0,0,0,0,0,-1,1280,1373,0,0
63,-349,0,0,0,0,0,0,0,0,0,-1,1287,1373,0,0
70,-349,0,0,0,0,0,0,0,0,0,-1,1294,1373,0,0
77,-349,0,0,0,0,0,0,0,0,0,-1,1301,1373,0,0
84,-349,0,0,0,0,0,0,0,0,0,-1,1308,1373,0,0
91,-349,0,0,0,0,0,0,0,0,0,-1,1315,1373,0,0
98,-349,0,0,0,0,0,0,0,0,0,-1,1322,1373,0,0
105,-349,0,0,0,0,0,0,0,0,0,-1,1329,1373,0,0
112,-349,0,0,0,0,0,0,0,0,0,-1,1336,1373,0,0
119,-349,0,0,0,0,0,0,0,0,0,-1,1343,1373,0,0
126,-349,0,0,0,0,0,0,0,0,0,-1,1350,1373,0,0
133,-349,0,0,0,0,0,0,0,0,0,-1,1357,1373,0,0
140,-349,0,0,0,0,0,0,0,0,0,-1,1364,1373,0,0
147,-349,0,0,0,0,0,0,0,0,0,-1,1371,1373,0,0
154,-349,0,0,0,0,0,0,0,0,0,-1,1378,1373,0,0
161,-349,0,0,0,0,0,0,0,0,0,-1,1385,1373,0,0
168,-349,0,0,0,0,0,0,0,0,0,-1,1392,1373,0,0
175,-349,0,0,0,0,0,0,0,0,0,-1,1399,1373,0,0
182,-349,0,0,0,0,0,0,0,0,0,-1,1406,1373,0,0
189,-349,0,0,0,0,0,0,0,0,0,-1,1413,1373,0,0
196,-349,0,0,0,0,0,0,0,0,0,-1,1420,1373,0,0
203,-349,0,0,0,0,0,0,0,0,0,-1,1427,1373,0,0
210,-349,0,0,0,0,0,0,0,0,0,-1,1434,1373,0,0
217,-349,0,0,0,0,0,0,0,0,0,-1,1441,1373,0,0
224,-349,0,0,0,0,0,0,0,0,0,-1,1448,1373,0,0
231,-349,0,0,0,0,0,0,0,0,0,-1,1455,1373,0,0
238,-349,0,0,0,0,0,0,0,0,0,-1,1462,1373,0,0
245,-349,0,0,0,0,0,0,0,0,0,-1,1469,1373,0,0
252,-349,0,0,0,0,0,0,0,0,0,-1,1476,1373,0,0
259,-349,0,0,0,0,0,0,0,0,0,-1,1483,1373,0,0
266,-349,0,0,0,0,0,0,0,0,0,-1,1490,1373,0,0
273,-349,0,0,0,0,0,0,0,0,0,-1,1497,1373,0,0
280,-349,0,0,0,0,0,0,0,0,0,-1,1504,1373,0,0
287,-349,0,0,0,0,0,0,0,0,0,-1,1511,1373,0,0
294,-349,0,0,0,0,0,0,0,0,0,-1,1518,1373,0,0
301,-349,0,0,0,0,0,0,0,0,0,-1,1525,1373,0,0
308,-349,0,0,0,0,0,0,0,0,0,-1,1532,1373,0,0
315,-349,0,0,0,0,0,0,0,0,0,-1,1539,1373,0,0
322,-349,0,0,0,0,0,0,0,0,0,-1,1546,1373,0,0
329,-349,0,0,0,0,0,0,0,0,0,-1,1553,1373,0,0
336,-349,0,0,0,0,0,0,0,0,0,-1,1560,1373,0,0
343,-349,0,0,0,0,0,0,0,0,0,-1,1567,1373,0,0
350,-349,0,0,0,0,0,0,0,0,0,-1,1574,1373,0,0
357,-349,0,0,0,0,0,0,0,0,0,-1,1581,1373,0,0
364,-349,0,0,0,0,0,0,0,0,0,-1,1588,1373,0,0
371,-349,0,0,0,0,0,0,0,0,0,-1,1595,1373,0,0
378,-349,0,0,0,0,0,0,0,0,0,-1,1602,1373,0,0
385,-349,0,0,0,0,0,0,0,0,0,-1,1609,1373,0,0
392,-349,0,0,0,0,0,0,0,0,0,-1,1616,1373,0,0
399,-349,0,0,0,0,0,0,0,0,0,-1,1623,1373,0,0
406,-349,0,0,0,0,0,0,0,0,0,-1,1630,1373,0,0
413,-349,0,0,0,0,0,0,0,0,0,-1,1637,1373,0,0
420,-349,0,0,0,0,0,0,0,0,0,-1,1644,1373,0,0
427,-349,0,0,0,0,0,0,0,0,0,-1,1651,1373,0,0
434,-349,0,0,0,0,0,0,0,0,0,-1,1658,1373,0,0
441,-349,0,0,0,0,0,0,0,0,0,-1,1665,1373,0,0
448,-349,0,0,0,0,0,0,0,0,0,-1,1672,1373,0,0
455,-349,0,0,0,0,0,0,0,0,0,-1,1679,1373,0,0
462,-349,0,0,0,0,0,0,0,0,0,-1,1686,1373,0,0
469,-349,0,0,0,0,0,0,0,0,0,-1,1693,1373,0,0
476,-349,0,0,0,0,0,0,0,0,0,-1,1700,1373,0,0
483,-349,0,0,0,0,0,0,0,0,0,-1,1707,1373,0,0
490,-349,0,0,0,0,0,0,0,0,0,-1,1714,1373,0,0
497,-349,0,0,0,0,0,0,0,0,0,-1,1721,1373,0,0
504,-349,0,0,0,0,0,0,0,0,0,-1,1728,1373,0,0
511,-349,0,0,0,0,0,0,0,0,0,-1,1735,1373,0,0
518,-349,0,0,0,0,0,0,0,0,0,-1,1742,1373,0,0
525,-349,0,0,0,0,0,0,0,0,0,-1,1749,1373,0,0
532,-349,0,0,0,0,0,0,0,0,0,-1,1756,1373,0,0
539,-349,0,0,0,0,0,0,0,0,0,-1,1763,1373,0,0
546,-349,0,0,0,0,0,0,0,0,0,-1,1770,1373,0,0
553,-349,0,0,0,0,0,0,0,0,0,-1,1777,1373,0,0
560,-349,27.868,-1.07703,0,0,0,0,0,0,0,-1,1784,1373,27.8681,1.07708
567,-349,36.7175,5.95227,0,0,0,0,0,0,0,-1,1791,1373,36.7176,-5.95222
574,-349,37.0201,4.75085,0,0,0,0,0,0,0,-1,1798,1373,37.0201,-4.75091
581,-349,37.5353,3.49927,0,0,0,0,0,0,0,-1,1805,1373,37.5353,-3.49928
588,-349,33.0247,1.43933,0,0,0,0,0,0,0,-1,1812,1373,33.0247,-1.43931
595,-349,32.3793,4.93115,0,0,0,0,0,0,0,-1,1819,1373,32.3793,-4.9312
602,-349,30.6421,5.56592,0,0,0,0,0,0,0,-1,1826,1373,30.6421,-5.56589
609,-349,28.8674,6.13806,0,0,0,0,0,0,0,-1,1833,1373,28.8674,-6.13809
616,-349,27.1451,6.68274,0,0,0,0,0,0,0,-1,1840,1373,27.1451,-6.6828
623,-349,18.8478,2.75769,0,0,0,0,0,0,0,-1,1847,1373,18.8478,-2.75774
630,-349,15.4948,6.47644,0,0,0,0,0,0,0,-1,1854,1373,15.4947,-6.4765
637,-349,16.5161,6.92639,0,0,0,0,0,0,0,-1,1861,1373,16.5161,-6.92636
644,-349,22.8966,10.7538,0,0,0,0,0,0,0,-1,1868,1373,22.8966,-10.7538
651,-349,23.0332,10.0515,-6.73503e-05,0.000503056,-0.00174277,0.0019838,-0.0015481,-0.866504,0.00204431,0.029613,1875,1373,23.0332,-10.0516
658,-349,22.9644,9.65674,4.69768e-05,0.00017019,-0.00109958,0.00120989,-0.000992723,-0.813383,0.00127374,0.0279381,1882,1373,22.9643,-9.65676
665,-349,22.9061,9.28162,0.000328579,-2.20104e-05,-0.000643193,0.000819937,-0.000513368,-0.65236,0.000776537,0.0217241,1889,1373,22.9061,-9.28167
672,-349,22.9,8.95068,0.00064085,-7.64597e-05,-0.00030533,0.000753215,-0.000188825,-0.35263,0.000575505,0.0153226,1896,1373,22.9,-8.95066
679,-349,22.8832,8.62244,0.000951316,-7.73678e-05,-4.0829e-05,0.000952934,-7.89858e-05,-0.0396075,0.000663188,0.0145379,1903,1373,22.8832,-8.62247
686,-349,22.9136,8.31018,0.00120557,-3.79974e-05,0.000201035,0.00123726,-6.96889e-05,0.156356,0.000849024,0.0140487,1910,1373,22.9136,-8.31015
693,-349,22.8901,7.92188,0.00140925,0.000133525,0.00038531,0.00151659,2.6181e-05,0.271701,0.00100245,0.0158599,1917,1373,22.8902,-7.92191
700,-349,22.8617,7.54321,0.00153078,0.000423479,0.000525618,0.00174055,0.000213715,0.379714,0.00109609,0.0173071,1924,1373,22.8617,-7.5432
707,-349,22.9132,7.13428,0.00130808,0.000661858,0.000708004,0.00176322,0.00020672,0.57133,0.00111299,0.0319469,1931,1373,22.9132,-7.13423
714,-349,23.0656,6.71143,0,0,0,0,0,0,0,-1,1938,1373,23.0656,-6.71144
721,-349,19.6688,5.93604,0,0,0,0,0,0,0,-1,1945,1373,19.6688,-5.93606
728,-349,18.6333,3.73218,0,0,0,0,0,0,0,-1,1952,1373,18.6333,-3.73214
735,-349,18.1918,3.39954,0,0,0,0,0,0,0,-1,1959,1373,18.1918,-3.3995
742,-349,20.7345,2.07483,0,0,0,0,0,0,0,-1,1966,1373,20.7345,-2.07485
749,-349,21.9037,1.45789,0,0,0,0,0,0,0,-1,1973,1373,21.9037,-1.45788
756,-349,0,0,0,0,0,0,0,0,0,-1,1980,1373,0,0
763,-349,0,0,0,0,0,0,0,0,0,-1,1987,1373,0,0
770,-349,0,0,0,0,0,0,0,0,0,-1,1994,1373,0,0
777,-349,0,0,0,0,0,0,0,0,0,-1,2001,1373,0,0
784,-349,0,0,0,0,0,0,0,0,0,-1,2008,1373,0,0
791,-349,0,0,0,0,0,0,0,0,0,-1,2015,1373,0,0
798,-349,0,0,0,0,0,0,0,0,0,-1,2022,1373,0,0
805,-349,0,0,0,0,0,0,0,0,0,-1,2029,1373,0,0
812,-349,0,0,0,0,0,0,0,0,0,-1,2036,1373,0,0
-700,-356,0,0,0,0,0,0,0,0,0,-1,524,1380,0,0
-693,-356,0,0,0,0,0,0,0,0,0,-1,531,1380,0,0
-686,-356,0,0,0,0,0,0,0,0,0,-1,538,1380,0,0
-679,-356,0,0,0,0,0,0,0,0,0,-1,545,1380,0,0
-672,-356,0,0,0,0,0,0,0,0,0,-1,552,1380,0,0
-665,-356,0,0,0,0,0,0,0,0,0,-1,559,1380,0,0
-658,-356,0,0,0,0,0,0,0,0,0,-1,566,1380,0,0
-651,-356,0,0,0,0,0,0,0,0,0,-1,573,1380,0,0
-644,-356,0,0,0,0,0,0,0,0,0,-1,580,1380,0,0
-637,-356,0,0,0,0,0,0,0,0,0,-1,587,1380,0,0
-630,-356,-8.23126,-5.01917,0,0,0,0,0,0,0,-1,594,1380,-8.23124,5.0192
-623,-356,-0.263855,-0.675781,0,0,0,0,0,0,0,-1,601,1380,-0.263835,0.675841
-616,-356,-8.26532,-3.43945,0,0,0,0,0,0,0,-1,608,1380,-8.2653,3.43948
-609,-356,-4.88483,0.734497,0,0,0,0,0,0,0,-1,615,1380,-4.88485,-0.734532
-602,-356,-9.06635,2.4021,0,0,0,0,0,0,0,-1,622,1380,-9.06634,-2.40206
-595,-356,-8.45703,3.61853,0,0,0,0,0,0,0,-1,629,1380,-8.45706,-3.61848
-588,-356,-9.31738,4.14258,0,0,0,0,0,0,0,-1,636,1380,-9.31736,-4.14255
-581,-356,-11.1066,4.99524,0,0,0,0,0,0,0,-1,643,1380,-11.1066,-4.99525
-574,-356,-10.9092,5.1394,-0.00178897,0.00311603,0.00383401,0.00521483,-0.00388778,1.06994,0.00527398,0.0386566,650,1380,-10.9092,-5.13942
-567,-356,-11.133,5.30811,-0.0013558,0.00195527,0.0021139,0.00298477,-0.0023853,1.11759,0.00310684,0.0180371,657,1380,-11.133,-5.30806
-560,-356,-11.0925,5.75256,-0.000666906,0.00111249,0.00109109,0.00163064,-0.00118505,1.12744,0.00163241,0.0169774,664,1380,-11.0925,-5.75261
-553,-356,-11.1141,6.1355,0.0003538,0.000591544,0.000654817,0.00113819,-0.000192847,0.875188,0.000830573,0.0196755,671,1380,-11.1141,-6.13545
-546,-356,-11.1375,6.50049,0.00170564,0.000276738,0.000716406,0.00200295,-2.05809e-05,0.393383,0.00134222,0.0229547,678,1380,-11.1375,-6.50053
-539,-356,-11.1266,6.93726,0.00328161,0.000161522,0.00113091,0.0036484,-0.00020527,0.313629,0.0025035,0.0163259,685,1380,-11.1267,-6.93725
-532,-356,-11.156,7.36707,0.00515344,0.000196222,0.00189135,0.00579264,-0.000442974,0.325907,0.00401756,0.0149163,692,1380,-11.156,-7.36702
-525,-356,-11.1516,7.7738,0.00736761,0.000416086,0.00312406,0.00856525,-0.000781551,0.366079,0.00598771,0.0121982,699,1380,-11.1516,-7.77375
-518,-356,-11.1355,8.19568,0.010089,0.000899235,0.00485398,0.0121779,-0.00118976,0.406408,0.00854288,0.01228,706,1380,-11.1355,-8.1957
-511,-356,-10.9203,8.68408,0.0134006,0.00126696,0.00674485,0.0164057,-0.00173811,0.419135,0.0115601,0.037222,713,1380,-10.9203,-8.68406
-504,-356,-10.6995,9.2804,0,0,0,0,0,0,0,-1,720,1380,-10.6995,-9.28039
-497,-356,-5.68604,4.96387,0,0,0,0,0,0,0,-1,727,1380,-5.68605,-4.96385
-490,-356,-7.95288,5.5625,0,0,0,0,0,0,0,-1,734,1380,-7.95285,-5.56246
-483,-356,-7.2627,4.07446,0,0,0,0,0,0,0,-1,741,1380,-7.2627,-4.07441
-476,-356,-5.1936,4.16016,0,0,0,0,0,0,0,-1,748,1380,-5.1936,-4.16012
-469,-356,-10.0883,0.536011,0,0,0,0,0,0,0,-1,755,1380,-10.0883,-0.535989
-462,-356,-12.3481,-0.215698,0,0,0,0,0,0,0,-1,762,1380,-12.3481,0.215641
-455,-356,-13.1367,-0.264648,0,0,0,0,0,0,0,-1,769,1380,-13.1367,0.264647
-448,-356,-13.9116,-0.310181,0,0,0,0,0,0,0,-1,776,1380,-13.9115,0.310207
-441,-356,-13.1602,3.05603,0,0,0,0,0,0,0,-1,783,1380,-13.1602,-3.05609
-434,-356,0,0,0,0,0,0,0,0,0,-1,790,1380,0,0
-427,-356,0,0,0,0,0,0,0,0,0,-1,797,1380,0,0
-420,-356,0,0,0,0,0,0,0,0,0,-1,804,1380,0,0
-413,-356,0,0,0,0,0,0,0,0,0,-1,811,1380,0,0
-406,-356,0,0,0,0,0,0,0,0,0,-1,818,1380,0,0
-399,-356,0,0,0,0,0,0,0,0,0,-1,825,1380,0,0
-392,-356,0,0,0,0,0,0,0,0,0,-1,832,1380,0,0
-385,-356,0,0,0,0,0,0,0,0,0,-1,839,1380,0,0
-378,-356,0,0,0,0,0,0,0,0,0,-1,846,1380,0,0
-371,-356,0,0,0,0,0,0,0,0,0,-1,853,1380,0,0
-364,-356,0,0,0,0,0,0,0,0,0,-1,860,1380,0,0
-357,-356,0,0,0,0,0,0,0,0,0,-1,867,1380,0,0
-350,-356,0,0,0,0,0,0,0,0,0,-1,874,1380,0,0
-343,-356,0,0,0,0,0,0,0,0,0,-1,881,1380,0,0
-336,-356,0,0,0,0,0,0,0,0,0,-1,888,1380,0,0
-329,-356,0,0,0,0,0,0,0,0,0,-1,895,1380,0,0
-322,-356,0,0,0,0,0,0,0,0,0,-1,902,1380,0,0
-315,-356,0,0,0,0,0,0,0,0,0,-1,909,1380,0,0
-308,-356,0,0,0,0,0,0,0,0,0,-1,916,1380,0,0
-301,-356,0,0,0,0,0,0,0,0,0,-1,923,1380,0,0
-294,-356,0,0,0,0,0,0,0,0,0,-1,930,1380,0,0
-287,-356,0,0,0,0,0,0,0,0,0,-1,937,1380,0,0
-280,-356,0,0,0,0,0,0,0,0,0,-1,944,1380,0,0
-273,-356,0,0,0,0,0,0,0,0,0,-1,951,1380,0,0
-266,-356,0,0,0,0,0,0,0,0,0,-1,958,1380,0,0
-259,-356,0,0,0,0,0,0,0,0,0,-1,965,1380,0,0
-252,-356,0,0,0,0,0,0,0,0,0,-1,972,1380,0,0
-245,-356,0,0,0,0,0,0,0,0,0,-1,979,1380,0,0
-238,-356,0,0,0,0,0,0,0,0,0,-1,986,1380,0,0
-231,-356,0,0,0,0,0,0,0,0,0,-1,993,1380,0,0
-224,-356,0,0,0,0,0,0,0,0,0,-1,1000,1380,0,0
-217,-356,0,0,0,0,0,0,0,0,0,-1,1007,1380,0,0
-210,-356,0,0,0,0,0,0,0,0,0,-1,1014,1380,0,0
-203,-356,0,0,0,0,0,0,0,0,0,-1,1021,1380,0,0
-196,-356,0,0,0,0,0,0,0,0,0,-1,1028,1380,0,0
-189,-356,0,0,0,0,0,0,0,0,0,-1,1035,1380,0,0
-182,-356,0,0,0,0,0,0,0,0,0,-1,1042,1380,0,0
-175,-356,0,0,0,0,0,0,0,0,0,-1,1049,1380,0,0
-168,-356,0,0,0,0,0,0,0,0,0,-1,1056,1380,0,0
-161,-356,0,0,0,0,0,0,0,0,0,-1,1063,1380,0,0
-154,-356,0,0,0,0,0,0,0,0,0,-1,1070,1380,0,0
-147,-356,0,0,0,0,0,0,0,0,0,-1,1077,1380,0,0
-140,-356,0,0,0,0,0,0,0,0,0,-1,1084,1380,0,0
-133,-356,0,0,0,0,0,0,0,0,0,-1,1091,1380,0,0
-126,-356,0,0,0,0,0,0,0,0,0,-1,1098,1380,0,0
-119,-356,0,0,0,0,0,0,0,0,0,-1,1105,1380,0,0
-112,-356,0,0,0,0,0,0,0,0,0,-1,1112,1380,0,0
-105,-356,0,0,0,0,0,0,0,0,0,-1,1119,1380,0,0
-98,-356,0,0,0,0,0,0,0,0,0,-1,1126,1380,0,0
-91,-356,0,0,0,0,0,0,0,0,0,-1,1133,1380,0,0
-84,-356,0,0,0,0,0,0,0,0,0,-1,1140,1380,0,0
-77,-356,0,0,0,0,0,0,0,0,0,-1,1147,1380,0,0
-70,-356,0,0,0,0,0,0,0,0,0,-1,1154,1380,0,0
-63,-356,0,0,0,0,0,0,0,0,0,-1,1161,1380,0,0
-56,-356,0,0,0,0,0,0,0,0,0,-1,1168,1380,0,0
-49,-356,0,0,0,0,0,0,0,0,0,-1,1175,1380,0,0
-42,-356,0,0,0,0,0,0,0,0,0,-1,1182,1380,0,0
-35,-356,0,0,0,0,0,0,0,0,0,-1,1189,1380,0,0
-28,-356,0,0,0,0,0,0,0,0,0,-1,1196,1380,0,0
-21,-356,0,0,0,0,0,0,0,0,0,-1,1203,1380,0,0
-14,-356,0,0,0,0,0,0,0,0,0,-1,1210,1380,0,0
-7,-356,0,0,0,0,0,0,0,0,0,-1,1217,1380,0,0
0,-356,0,0,0,0,0,0,0,0,0,-1,1224,1380,0,0
7,-356,0,0,0,0,0,0,0,0,0,-1,1231,1380,0,0
14,-356,0,0,0,0,0,0,0,0,0,-1,1238,1380,0,0
21,-356,0,0,0,0,0,0,0,0,0,-1,1245,1380,0,0
28,-356,0,0,0,0,0,0,0,0,0,-1,1252,1380,0,0
35,-356,0,0,0,0,0,0,0,0,0,-1,1259,1380,0,0
42,-356,0,0,0,0,0,0,0,0,0,-1,1266,1380,0,0
49,-356,0,0,0,0,0,0,0,0,0,-1,1273,1380,0,0
56,-356,0,0,0,0,0,0,0,0,0,-1,1280,1380,0,0
63,-356,0,0,0,0,0,0,0,0,0,-1,1287,1380,0,0
70,-356,0,0,0,0,0,0,0,0,0,-1,1294,1380,0,0
77,-356,0,0,0,0,0,0,0,0,0,-1,1301,1380,0,0
84,-356,0,0,0,0,0,0,0,0,0,-1,1308,1380,0,0
91,-356,0,0,0,0,0,0,0,0,0,-1,1315,1380,0,0
98,-356,0,0,0,0,0,0,0,0,0,-1,1322,1380,0,0
105,-356,0,0,0,0,0,0,0,0,0,-1,1329,1380,0,0
112,-356,0,0,0,0,0,0,0,0,0,-1,1336,1380,0,0
119,-356,0,0,0,0,0,0,0,0,0,-1,1343,1380,0,0
126,-356,0,0,0,0,0,0,0,0,0,-1,1350,1380,0,0
133,-356,0,0,0,0,0,0,0,0,0,-1,1357,1380,0,0
140,-356,0,0,0,0,0,0,0,0,0,-1,1364,1380,0,0
147,-356,0,0,0,0,0,0,0,0,0,-1,1371,1380,0,0
154,-356,0,0,0,0,0,0,0,0,0,-1,1378,1380,0,0
161,-356,0,0,0,0,0,0,0,0,0,-1,1385,1380,0,0
168,-356,0,0,0,0,0,0,0,0,0,-1,1392,1380,0,0
175,-356,0,0,0,0,0,0,0,0,0,-1,1399,1380,0,0
182,-356,0,0,0,0,0,0,0,0,0,-1,1406,1380,0,0
189,-356,0,0,0,0,0,0,0,0,0,-1,1413,1380,0,0
196,-356,0,0,0,0,0,0,0,0,0,-1,1420,1380,0,0
203,-356,0,0,0,0,0,0,0,0,0,-1,1427,1380,0,0
210,-356,0,0,0,0,0,0,0,0,0,-1,1434,1380,0,0
217,-356,0,0,0,0,0,0,0,0,0,-1,1441,1380,0,0
224,-356,0,0,0,0,0,0,0,0,0,-1,1448,1380,0,0
231,-356,0,0,0,0,0,0,0,0,0,-1,1455,1380,0,0
238,-356,0,0,0,0,0,0,0,0,0,-1,1462,1380,0,0
245,-356,0,0,0,0,0,0,0,0,0,-1,1469,1380,0,0
252,-356,0,0,0,0,0,0,0,0,0,-1,1476,1380,0,0
259,-356,0,0,0,0,0,0,0,0,0,-1,1483,1380,0,0
266,-356,0,0,0,0,0,0,0,0,0,-1,1490,1380,0,0
273,-356,0,0,0,0,0,0,0,0,0,-1,1497,1380,0,0
280,-356,0,0,0,0,0,0,0,0,0,-1,1504,1380,0,0
287,-356,0,0,0,0,0,0,0,0,0,-1,1511,1380,0,0
294,-356,0,0,0,0,0,0,0,0,0,-1,1518,1380,0,0
301,-356,0,0,0,0,0,0,0,0,0,-1,1525,1380,0,0
308,-356,0,0,0,0,0,0,0,0,0,-1,1532,1380,0,0
315,-356,0,0,0,0,0,0,0,0,0,-1,1539,1380,0,0
322,-356,0,0,0,0,0,0,0,0,0,-1,1546,1380,0,0
329,-356,0,0,0,0,0,0,0,0,0,-1,1553,1380,0,0
336,-356,0,0,0,0,0,0,0,0,0,-1,1560,1380,0,0
343,-356,0,0,0,0,0,0,0,0,0,-1,1567,1380,0,0
350,-356,0,0,0,0,0,0,0,0,0,-1,1574,1380,0,0
357,-356,0,0,0,0,0,0,0,0,0,-1,1581,1380,0,0
364,-356,0,0,0,0,0,0,0,0,0,-1,1588,1380,0,0
371,-356,0,0,0,0,0,0,0,0,0,-1,1595,1380,0,0
378,-356,0,0,0,0,0,0,0,0,0,-1,1602,1380,0,0
385,-356,0,0,0,0,0,0,0,0,0,-1,1609,1380,0,0
392,-356,0,0,0,0,0,0,0,0,0,-1,1616,1380,0,0
399,-356,0,0,0,0,0,0,0,0,0,-1,1623,1380,0,0
406,-356,0,0,0,0,0,0,0,0,0,-1,1630,1380,0,0
413,-356,0,0,0,0,0,0,0,0,0,-1,1637,1380,0,0
420,-356,0,0,0,0,0,0,0,0,0,-1,1644,1380,0,0
427,-356,0,0,0,0,0,0,0,0,0,-1,1651,1380,0,0
434,-356,0,0,0,0,0,0,0,0,0,-1,1658,1380,0,0
441,-356,0,0,0,0,0,0,0,0,0,-1,1665,1380,0,0
448,-356,0,0,0,0,0,0,0,0,0,-1,1672,1380,0,0
455,-356,0,0,0,0,0,0,0,0,0,-1,1679,1380,0,0
462,-356,0,0,0,0,0,0,0,0,0,-1,1686,1380,0,0
469,-356,0,0,0,0,0,0,0,0,0,-1,1693,1380,0,0
476,-356,0,0,0,0,0,0,0,0,0,-1,1700,1380,0,0
483,-356,0,0,0,0,0,0,0,0,0,-1,1707,1380,0,0
490,-356,0,0,0,0,0,0,0,0,0,-1,1714,1380,0,0
497,-356,0,0,0,0,0,0,0,0,0,-1,1721,1380,0,0
504,-356,0,0,0,0,0,0,0,0,0,-1,1728,1380,0,0
511,-356,0,0,0,0,0,0,0,0,0,-1,1735,1380,0,0
518,-356,0,0,0,0,0,0,0,0,0,-1,1742,1380,0,0
525,-356,0,0,0,0,0,0,0,0,0,-1,1749,1380,0,0
532,-356,0,0,0,0,0,0,0,0,0,-1,1756,1380,0,0
539,-356,0,0,0,0,0,0,0,0,0,-1,1763,1380,0,0
546,-356,0,0,0,0,0,0,0,0,0,-1,1770,1380,0,0
553,-356,0,0,0,0,0,0,0,0,0,-1,1777,1380,0,0
560,-356,27.4741,2.35632,0,0,0,0,0,0,0,-1,1784,1380,27.4741,-2.35628
567,-356,30.0057,-0.38623,0,0,0,0,0,0,0,-1,1791,1380,30.0058,0.386207
574,-356,37.5858,4.53564,0,0,0,0,0,0,0,-1,1798,1380,37.5858,-4.53559
581,-356,31.9545,0.788452,0,0,0,0,0,0,0,-1,1805,1380,31.9545,-0.788436
588,-356,32.496,1.32678,0,0,0,0,0,0,0,-1,1812,1380,32.496,-1.32676
595,-356,32.0834,5.86084,0,0,0,0,0,0,0,-1,1819,1380,32.0834,-5.86079
602,-356,30.1604,6.07104,0,0,0,0,0,0,0,-1,1826,1380,30.1604,-6.07104
609,-356,28.3435,6.48901,0,0,0,0,0,0,0,-1,1833,1380,28.3435,-6.48899
616,-356,26.9358,6.80872,0,0,0,0,0,0,0,-1,1840,1380,26.9358,-6.80877
623,-356,16.1803,1.07532,0,0,0,0,0,0,0,-1,1847,1380,16.1803,-1.07529
630,-356,16.4138,6.91553,0,0,0,0,0,0,0,-1,1854,1380,16.4138,-6.9155
637,-356,22.5037,11.2791,0,0,0,0,0,0,0,-1,1861,1380,22.5037,-11.2791
644,-356,22.5262,10.6069,0.000447928,0.00106822,-0.00231298,0.00309176,-0.00157561,-0.852046,0.00274168,0.0440902,1868,1380,22.5262,-10.607
651,-356,22.6078,10.0519,0.000173463,0.000628817,-0.00155445,0.00197218,-0.0011699,-0.858115,0.00183368,0.0169923,1875,1380,22.6078,-10.0518
658,-356,22.5863,9.6405,0.000279829,0.000290931,-0.000963895,0.00124929,-0.000678532,-0.788278,0.00112917,0.0159184,1882,1380,22.5864,-9.64051
665,-356,22.5597,9.30603,0.000523134,7.25536e-05,-0.000520688,0.000865181,-0.000269493,-0.58122,0.000684535,0.0150592,1889,1380,22.5597,-9.306
672,-356,22.5234,8.97217,0.000796879,-1.5128e-05,-0.000163761,0.000828661,-4.69105e-05,-0.191695,0.000568723,0.0149472,1896,1380,22.5234,-8.97217
679,-356,22.5262,8.6283,0.00111993,-3.59458e-05,0.000104453,0.00112929,-4.53091e-05,0.0894022,0.00076841,0.0166584,1903,1380,22.5263,-8.62833
686,-356,22.5258,8.28882,0.00146264,1.1277e-06,0.000316095,0.00152808,-6.43074e-05,0.204127,0.00104082,0.0168873,1910,1380,22.5258,-8.28878
693,-356,22.5242,7.93591,0.00179306,0.000166768,0.000464134,0.0019162,4.36309e-05,0.259331,0.00126317,0.0147579,1917,1380,22.5242,-7.93597
700,-356,22.5326,7.56055,0.00214355,0.0005295,0.000506784,0.00228947,0.000383572,0.280365,0.00141588,0.0205556,1924,1380,22.5326,-7.56058
707,-356,22.6191,6.97156,0,0,0,0,0,0,0,-1,1931,1380,22.6191,-6.9716
714,-356,19.6907,5.82129,0,0,0,0,0,0,0,-1,1938,1380,19.6907,-5.82132
721,-356,17.2948,4.1958,0,0,0,0,0,0,0,-1,1945,1380,17.2948,-4.19584
728,-356,19.1846,2.31519,0,0,0,0,0,0,0,-1,1952,1380,19.1846,-2.31514
735,-356,20.0731,2.50842,0,0,0,0,0,0,0,-1,1959,1380,20.0731,-2.50844
742,-356,21.0111,2.43762,0,0,0,0,0,0,0,-1,1966,1380,21.0112,-2.43762
749,-356,22.1411,1.83276,0,0,0,0,0,0,0,-1,1973,1380,22.1411,-1.83275
756,-356,0,0,0,0,0,0,0,0,0,-1,1980,1380,0,0
763,-356,0,0,0,0,0,0,0,0,0,-1,1987,1380,0,0
770,-356,0,0,0,0,0,0,0,0,0,-1,1994,1380,0,0
777,-356,0,0,0,0,0,0,0,0,0,-1,2001,1380,0,0
784,-356,0,0,0,0,0,0,0,0,0,-1,2008,1380,0,0
791,-356,0,0,0,0,0,0,0,0,0,-1,2015,1380,0,0
798,-356,0,0,0,0,0,0,0,0,0,-1,2022,1380,0,0
805,-356,0,0,0,0,0,0,0,0,0,-1,2029,1380,0,0
812,-356,0,0,0,0,0,0,0,0,0,-1,2036,1380,0,0
-700,-363,0,0,0,0,0,0,0,0,0,-1,524,1387,0,0
-693,-363,0,0,0,0,0,0,0,0,0,-1,531,1387,0,0
-686,-363,0,0,0,0,0,0,0,0,0,-1,538,1387,0,0
-679,-363,0,0,0,0,0,0,0,0,0,-1,545,1387,0,0
-672,-363,0,0,0,0,0,0,0,0,0,-1,552,1387,0,0
-665,-363,0,0,0,0,0,0,0,0,0,-1,559,1387,0,0
-658,-363,0,0,0,0,0,0,0,0,0,-1,566,1387,0,0
-651,-363,0,0,0,0,0,0,0,0,0,-1,573,1387,0,0
-644,-363,0,0,0,0,0,0,0,0,0,-1,580,1387,0,0
-637,-363,0,0,0,0,0,0,0,0,0,-1,587,1387,0,0
-630,-363,0,0,0,0,0,0,0,0,0,-1,594,1387,0,0
-623,-363,-9.67566,-5.91846,0,0,0,0,0,0,0,-1,601,1387,-9.67563,5.91847
-616,-363,-9.02985,-2.98083,0,0,0,0,0,0,0,-1,608,1387,-9.02987,2.98079
-609,-363,-4.90265,0.195679,0,0,0,0,0,0,0,-1,615,1387,-4.90263,-0.195721
-602,-363,-9.65009,3.5321,0,0,0,0,0,0,0,-1,622,1387,-9.65007,-3.53211
-595,-363,-8.00256,3.48853,0,0,0,0,0,0,0,-1,629,1387,-8.00256,-3.48855
-588,-363,-9.78369,4.58679,0,0,0,0,0,0,0,-1,636,1387,-9.78372,-4.58682
-581,-363,-10.1558,5.11975,0,0,0,0,0,0,0,-1,643,1387,-10.1558,-5.11969
-574,-363,-10.6281,4.94409,0,0,0,0,0,0,0,-1,650,1387,-10.628,-4.94414
-567,-363,-10.6987,5.37927,-0.00187893,0.00290166,0.0033625,0.00463689,-0.00361415,1.09439,0.00477593,0.0313186,657,1387,-10.6987,-5.3793
-560,-363,-10.6956,5.72693,-0.00122049,0.00170375,0.00178541,0.00254933,-0.00206607,1.12848,0.00266957,0.0130411,664,1387,-10.6956,-5.72691
-553,-363,-10.7148,6.16357,-0.000258126,0.00095462,0.00097212,0.00149398,-0.000797487,1.06425,0.0013432,0.0131917,671,1387,-10.7149,-6.16363
-546,-363,-10.7223,6.53748,0.00101043,0.000495281,0.000768923,0.00156377,-5.80609e-05,0.623781,0.0010624,0.0137789,678,1387,-10.7223,-6.53753
-539,-363,-10.6939,6.9364,0.00250366,0.000293313,0.00100991,0.00289559,-9.86224e-05,0.370195,0.00196409,0.0158303,685,1387,-10.6939,-6.93644
-532,-363,-10.7313,7.36963,0.0042711,0.000297691,0.00165475,0.00486997,-0.000301177,0.347244,0.00335155,0.0134114,692,1387,-10.7313,-7.36969
-525,-363,-10.7401,7.77136,0.00631931,0.000472649,0.00271509,0.00738566,-0.000593705,0.374241,0.00513314,0.0107257,699,1387,-10.74,-7.7713
-518,-363,-10.7302,8.18982,0.00874816,0.00091661,0.00425588,0.0106156,-0.00095085,0.413497,0.00741438,0.00963983,706,1387,-10.7302,-8.18982
-511,-363,-10.6647,8.6366,0.0115126,0.00104309,0.00576522,0.0140651,-0.00150935,0.416792,0.00991817,0.0201642,713,1387,-10.6647,-8.63665
-504,-363,-10.5656,9.10718,0,0,0,0,0,0,0,-1,720,1387,-10.5656,-9.10721
-497,-363,-7.18842,7.29944,0,0,0,0,0,0,0,-1,727,1387,-7.18839,-7.29945
-490,-363,-5.42413,4.6958,0,0,0,0,0,0,0,-1,734,1387,-5.42412,-4.69583
-483,-363,-6.28375,4.1394,0,0,0,0,0,0,0,-1,741,1387,-6.28374,-4.13944
-476,-363,-5.83807,4.31018,0,0,0,0,0,0,0,-1,748,1387,-5.8381,-4.31013
-469,-363,-10.7125,0.697754,0,0,0,0,0,0,0,-1,755,1387,-10.7125,-0.697811
-462,-363,-9.55951,-0.0830078,0,0,0,0,0,0,0,-1,762,1387,-9.55949,0.0830163
-455,-363,-13.1008,-0.290894,0,0,0,0,0,0,0,-1,769,1387,-13.1008,0.290921
-448,-363,-11.7324,2.46606,0,0,0,0,0,0,0,-1,776,1387,-11.7324,-2.46605
-441,-363,-12.4464,2.5354,0,0,0,0,0,0,0,-1,783,1387,-12.4463,-2.53537
-434,-363,-13.6918,2.14661,0,0,0,0,0,0,0,-1,790,1387,-13.6918,-2.14662
-427,-363,0,0,0,0,0,0,0,0,0,-1,797,1387,0,0
-420,-363,0,0,0,0,0,0,0,0,0,-1,804,1387,0,0
-413,-363,0,0,0,0,0,0,0,0,0,-1,811,1387,0,0
-406,-363,0,0,0,0,0,0,0,0,0,-1,818,1387,0,0
-399,-363,0,0,0,0,0,0,0,0,0,-1,825,1387,0,0
-392,-363,0,0,0,0,0,0,0,0,0,-1,832,1387,0,0
-385,-363,0,0,0,0,0,0,0,0,0,-1,839,1387,0,0
-378,-363,0,0,0,0,0,0,0,0,0,-1,846,1387,0,0
-371,-363,0,0,0,0,0,0,0,0,0,-1,853,1387,0,0
-364,-363,0,0,0,0,0,0,0,0,0,-1,860,1387,0,0
-357,-363,0,0,0,0,0,0,0,0,0,-1,867,1387,0,0
-350,-363,0,0,0,0,0,0,0,0,0,-1,874,1387,0,0
-343,-363,0,0,0,0,0,0,0,0,0,-1,881,1387,0,0
-336,-363,0,0,0,0,0,0,0,0,0,-1,888,1387,0,0
-329,-363,0,0,0,0,0,0,0,0,0,-1,895,1387,0,0
-322,-363,0,0,0,0,0,0,0,0,0,-1,902,1387,0,0
-315,-363,0,0,0,0,0,0,0,0,0,-1,909,1387,0,0
-308,-363,0,0,0,0,0,0,0,0,0,-1,916,1387,0,0
-301,-363,0,0,0,0,0,0,0,0,0,-1,923,1387,0,0
-294,-363,0,0,0,0,0,0,0,0,0,-1,930,1387,0,0
-287,-363,0,0,0,0,0,0,0,0,0,-1,937,1387,0,0
-280,-363,0,0,0,0,0,0,0,0,0,-1,944,1387,0,0
-273,-363,0,0,0,0,0,0,0,0,0,-1,951,1387,0,0
-266,-363,0,0,0,0,0,0,0,0,0,-1,958,1387,0,0
-259,-363,0,0,0,0,0,0,0,0,0,-1,965,1387,0,0
-252,-363,0,0,0,0,0,0,0,0,0,-1,972,1387,0,0
-245,-363,0,0,0,0,0,0,0,0,0,-1,979,1387,0,0
-238,-363,0,0,0,0,0,0,0,0,0,-1,986,1387,0,0
-231,-363,0,0,0,0,0,0,0,0,0,-1,993,1387,0,0
-224,-363,0,0,0,0,0,0,0,0,0,-1,1000,1387,0,0
-217,-363,0,0,0,0,0,0,0,0,0,-1,1007,1387,0,0
-210,-363,0,0,0,0,0,0,0,0,0,-1,1014,1387,0,0
-203,-363,0,0,0,0,0,0,0,0,0,-1,1021,1387,0,0
-196,-363,0,0,0,0,0,0,0,0,0,-1,1028,1387,0,0
-189,-363,0,0,0,0,0,0,0,0,0,-1,1035,1387,0,0
-182,-363,0,0,0,0,0,0,0,0,0,-1,1042,1387,0,0
-175,-363,0,0,0,0,0,0,0,0,0,-1,1049,1387,0,0
-168,-363,0,0,0,0,0,0,0,0,0,-1,1056,1387,0,0
-161,-363,0,0,0,0,0,0,0,0,0,-1,1063,1387,0,0
-154,-363,0,0,0,0,0,0,0,0,0,-1,1070,1387,0,0
-147,-363,0,0,0,0,0,0,0,0,0,-1,1077,1387,0,0
-140,-363,0,0,0,0,0,0,0,0,0,-1,1084,1387,0,0
-133,-363,0,0,0,0,0,0,0,0,0,-1,1091,1387,0,0
-126,-363,0,0,0,0,0,0,0,0,0,-1,1098,1387,0,0
-119,-363,0,0,0,0,0,0,0,0,0,-1,1105,1387,0,0
-112,-363,0,0,0,0,0,0,0,0,0,-1,1112,1387,0,0
-105,-363,0,0,0,0,0,0,0,0,0,-1,1119,1387,0,0
-98,-363,0,0,0,0,0,0,0,0,0,-1,1126,1387,0,0
-91,-363,0,0,0,0,0,0,0,0,0,-1,1133,1387,0,0
-84,-363,0,0,0,0,0,0,0,0,0,-1,1140,1387,0,0
-77,-363,0,0,0,0,0,0,0,0,0,-1,1147,1387,0,0
-70,-363,0,0,0,0,0,0,0,0,0,-1,1154,1387,0,0
-63,-363,0,0,0,0,0,0,0,0,0,-1,1161,1387,0,0
-56,-363,0,0,0,0,0,0,0,0,0,-1,1168,1387,0,0
-49,-363,0,0,0,0,0,0,0,0,0,-1,1175,1387,0,0
-42,-363,0,0,0,0,0,0,0,0,0,-1,1182,1387,0,0
-35,-363,0,0,0,0,0,0,0,0,0,-1,1189,1387,0,0
-28,-363,0,0,0,0,0,0,0,0,0,-1,1196,1387,0,0
-21,-363,0,0,0,0,0,0,0,0,0,-1,1203,1387,0,0
-14,-363,0,0,0,0,0,0,0,0,0,-1,1210,1387,0,0
-7,-363,0,0,0,0,0,0,0,0,0,-1,1217,1387,0,0
0,-363,0,0,0,0,0,0,0,0,0,-1,1224,1387,0,0
7,-363,0,0,0,0,0,0,0,0,0,-1,1231,1387,0,0
14,-363,0,0,0,0,0,0,0,0,0,-1,1238,1387,0,0
21,-363,0,0,0,0,0,0,0,0,0,-1,1245,1387,0,0
28,-363,0,0,0,0,0,0,0,0,0,-1,1252,1387,0,0
35,-363,0,0,0,0,0,0,0,0,0,-1,1259,1387,0,0
42,-363,0,0,0,0,0,0,0,0,0,-1,1266,1387,0,0
49,-363,0,0,0,0,0,0,0,0,0,-1,1273,1387,0,0
56,-363,0,0,0,0,0,0,0,0,0,-1,1280,1387,0,0
63,-363,0,0,0,0,0,0,0,0,0,-1,1287,1387,0,0
70,-363,0,0,0,0,0,0,0,0,0,-1,1294,1387,0,0
77,-363,0,0,0,0,0,0,0,0,0,-1,1301,1387,0,0
84,-363,0,0,0,0,0,0,0,0,0,-1,1308,1387,0,0
91,-363,0,0,0,0,0,0,0,0,0,-1,1315,1387,0,0
98,-363,0,0,0,0,0,0,0,0,0,-1,1322,1387,0,0
105,-363,0,0,0,0,0,0,0,0,0,-1,1329,1387,0,0
112,-363,0,0,0,0,0,0,0,0,0,-1,1336,1387,0,0
119,-363,0,0,0,0,0,0,0,0,0,-1,1343,1387,0,0
126,-363,0,0,0,0,0,0,0,0,0,-1,1350,1387,0,0
133,-363,0,0,0,0,0,0,0,0,0,-1,1357,1387,0,0
140,-363,0,0,0,0,0,0,0,0,0,-1,1364,1387,0,0
147,-363,0,0,0,0,0,0,0,0,0,-1,1371,1387,0,0
154,-363,0,0,0,0,0,0,0,0,0,-1,1378,1387,0,0
161,-363,0,0,0,0,0,0,0,0,0,-1,1385,1387,0,0
168,-363,0,0,0,0,0,0,0,0,0,-1,1392,1387,0,0
175,-363,0,0,0,0,0,0,0,0,0,-1,1399,1387,0,0
182,-363,0,0,0,0,0,0,0,0,0,-1,1406,1387,0,0
189,-363,0,0,0,0,0,0,0,0,0,-1,1413,1387,0,0
196,-363,0,0,0,0,0,0,0,0,0,-1,1420,1387,0,0
203,-363,0,0,0,0,0,0,0,0,0,-1,1427,1387,0,0
210,-363,0,0,0,0,0,0,0,0,0,-1,1434,1387,0,0
217,-363,0,0,0,0,0,0,0,0,0,-1,1441,1387,0,0
224,-363,0,0,0,0,0,0,0,0,0,-1,1448,1387,0,0
231,-363,0,0,0,0,0,0,0,0,0,-1,1455,1387,0,0
238,-363,0,0,0,0,0,0,0,0,0,-1,1462,1387,0,0
245,-363,0,0,0,0,0,0,0,0,0,-1,1469,1387,0,0
252,-363,0,0,0,0,0,0,0,0,0,-1,1476,1387,0,0
259,-363,0,0,0,0,0,0,0,0,0,-1,1483,1387,0,0
266,-363,0,0,0,0,0,0,0,0,0,-1,1490,1387,0,0
273,-363,0,0,0,0,0,0,0,0,0,-1,1497,1387,0,0
280,-363,0,0,0,0,0,0,0,0,0,-1,1504,1387,0,0
287,-363,0,0,0,0,0,0,0,0,0,-1,1511,1387,0,0
294,-363,0,0,0,0,0,0,0,0,0,-1,1518,1387,0,0
301,-363,0,0,0,0,0,0,0,0,0,-1,1525,1387,0,0
308,-363,0,0,0,0,0,0,0,0,0,-1,1532,1387,0,0
315,-363,0,0,0,0,0,0,0,0,0,-1,1539,1387,0,0
322,-363,0,0,0,0,0,0,0,0,0,-1,1546,1387,0,0
329,-363,0,0,0,0,0,0,0,0,0,-1,1553,1387,0,0
336,-363,0,0,0,0,0,0,0,0,0,-1,1560,1387,0,0
343,-363,0,0,0,0,0,0,0,0,0,-1,1567,1387,0,0
350,-363,0,0,0,0,0,0,0,0,0,-1,1574,1387,0,0
357,-363,0,0,0,0,0,0,0,0,0,-1,1581,1387,0,0
364,-363,0,0,0,0,0,0,0,0,0,-1,1588,1387,0,0
371,-363,0,0,0,0,0,0,0,0,0,-1,1595,1387,0,0
378,-363,0,0,0,0,0,0,0,0,0,-1,1602,1387,0,0
385,-363,0,0,0,0,0,0,0,0,0,-1,1609,1387,0,0
392,-363,0,0,0,0,0,0,0,0,0,-1,1616,1387,0,0
399,-363,0,0,0,0,0,0,0,0,0,-1,1623,1387,0,0
406,-363,0,0,0,0,0,0,0,0,0,-1,1630,1387,0,0
413,-363,0,0,0,0,0,0,0,0,0,-1,1637,1387,0,0
420,-363,0,0,0,0,0,0,0,0,0,-1,1644,1387,0,0
427,-363,0,0,0,0,0,0,0,0,0,-1,1651,1387,0,0
434,-363,0,0,0,0,0,0,0,0,0,-1,1658,1387,0,0
441,-363,0,0,0,0,0,0,0,0,0,-1,1665,1387,0,0
448,-363,0,0,0,0,0,0,0,0,0,-1,1672,1387,0,0
455,-363,0,0,0,0,0,0,0,0,0,-1,1679,1387,0,0
462,-363,0,0,0,0,0,0,0,0,0,-1,1686,1387,0,0
469,-363,0,0,0,0,0,0,0,0,0,-1,1693,1387,0,0
476,-363,0,0,0,0,0,0,0,0,0,-1,1700,1387,0,0
483,-363,0,0,0,0,0,0,0,0,0,-1,1707,1387,0,0
490,-363,0,0,0,0,0,0,0,0,0,-1,1714,1387,0,0
497,-363,0,0,0,0,0,0,0,0,0,-1,1721,1387,0,0
504,-363,0,0,0,0,0,0,0,0,0,-1,1728,1387,0,0
511,-363,0,0,0,0,0,0,0,0,0,-1,1735,1387,0,0
518,-363,0,0,0,0,0,0,0,0,0,-1,1742,1387,0,0
525,-363,0,0,0,0,0,0,0,0,0,-1,1749,1387,0,0
532,-363,0,0,0,0,0,0,0,0,0,-1,1756,1387,0,0
539,-363,0,0,0,0,0,0,0,0,0,-1,1763,1387,0,0
546,-363,0,0,0,0,0,0,0,0,0,-1,1770,1387,0,0
553,-363,26.4719,2.09753,0,0,0,0,0,0,0,-1,1777,1387,26.472,-2.09757
560,-363,27.1924,2.3584,0,0,0,0,0,0,0,-1,1784,1387,27.1924,-2.35836
567,-363,27.807,2.3446,0,0,0,0,0,0,0,-1,1791,1387,27.807,-2.34464
574,-363,32.0331,0.156006,0,0,0,0,0,0,0,-1,1798,1387,32.0331,-0.155952
581,-363,31.9629,1.03845,0,0,0,0,0,0,0,-1,1805,1387,31.9629,-1.03847
588,-363,32.5608,6.72131,0,0,0,0,0,0,0,-1,1812,1387,32.5608,-6.72131
595,-363,31.4688,6.95435,0,0,0,0,0,0,0,-1,1819,1387,31.4688,-6.95431
602,-363,25.7437,5.33667,0,0,0,0,0,0,0,-1,1826,1387,25.7437,-5.33667
609,-363,27.7048,7.06885,0,0,0,0,0,0,0,-1,1833,1387,27.7048,-7.06882
616,-363,16.229,1.08704,0,0,0,0,0,0,0,-1,1840,1387,16.229,-1.08706
623,-363,15.7283,7.16663,0,0,0,0,0,0,0,-1,1847,1387,15.7282,-7.16665
630,-363,18.3192,9.27844,0,0,0,0,0,0,0,-1,1854,1387,18.3192,-9.27843
637,-363,22.1737,10.9504,0,0,0,0,0,0,0,-1,1861,1387,22.1737,-10.9504
644,-363,22.193,10.476,0.000216215,0.00107022,-0.00191538,0.00260561,-0.00131918,-0.895071,0.0023062,0.0133879,1868,1387,22.193,-10.476
651,-363,22.2018,10.0632,0.000236959,0.000645672,-0.00130893,0.0017661,-0.000883467,-0.862836,0.00155776,0.0117734,1875,1387,22.2017,-10.0633
658,-363,22.2063,9.68811,0.000503299,0.000312767,-0.000810562,0.00122417,-0.000408108,-0.726901,0.000980873,0.012942,1882,1387,22.2063,-9.68814
665,-363,22.1874,9.3468,0.000778747,9.28939e-05,-0.000387286,0.00095311,-8.14694e-05,-0.423036,0.000664231,0.0117984,1889,1387,22.1874,-9.34676
672,-363,22.1515,8.99744,0.00105727,-1.14618e-05,-2.76066e-05,0.00105798,-1.21744e-05,-0.0258083,0.000709413,0.0126296,1896,1387,22.1515,-8.9974
679,-363,22.1487,8.64111,0.00142555,-3.77041e-05,0.000242404,0.00146467,-7.68153e-05,0.159969,0.00100303,0.0143969,1903,1387,22.1487,-8.64114
686,-363,22.1508,8.29224,0.00186528,-1.21137e-05,0.000443432,0.00196475,-0.00011158,0.220659,0.00134856,0.0151537,1910,1387,22.1508,-8.29218
693,-363,22.1587,7.927,0.00234624,9.97298e-05,0.00057452,0.00248464,-3.86708e-05,0.236394,0.00166947,0.0142048,1917,1387,22.1587,-7.92704
700,-363,22.2806,7.53125,0.00297213,0.000492588,0.000534063,0.00308227,0.000382449,0.203376,0.00193997,0.0228789,1924,1387,22.2806,-7.53126
707,-363,22.5,7.17065,0,0,0,0,0,0,0,-1,1931,1387,22.5,-7.17062
714,-363,16.5782,5.3147,0,0,0,0,0,0,0,-1,1938,1387,16.5783,-5.31472
721,-363,14.4045,4.51685,0,0,0,0,0,0,0,-1,1945,1387,14.4045,-4.51685
728,-363,19.9756,0.853027,0,0,0,0,0,0,0,-1,1952,1387,19.9756,-0.853059
735,-363,21.4297,1.2981,0,0,0,0,0,0,0,-1,1959,1387,21.4297,-1.29811
742,-363,21.3621,2.79663,0,0,0,0,0,0,0,-1,1966,1387,21.362,-2.7966
749,-363,0,0,0,0,0,0,0,0,0,-1,1973,1387,0,0
756,-363,0,0,0,0,0,0,0,0,0,-1,1980,1387,0,0
763,-363,0,0,0,0,0,0,0,0,0,-1,1987,1387,0,0
770,-363,0,0,0,0,0,0,0,0,0,-1,1994,1387,0,0
777,-363,0,0,0,0,0,0,0,0,0,-1,2001,1387,0,0
784,-363,0,0,0,0,0,0,0,0,0,-1,2008,1387,0,0
791,-363,0,0,0,0,0,0,0,0,0,-1,2015,1387,0,0
798,-363,0,0,0,0,0,0,0,0,0,-1,2022,1387,0,0
805,-363,0,0,0,0,0,0,0,0,0,-1,2029,1387,0,0
812,-363,0,0,0,0,0,0,0,0,0,-1,2036,1387,0,0
-700,-370,0,0,0,0,0,0,0,0,0,-1,524,1394,0,0
-693,-370,0,0,0,0,0,0,0,0,0,-1,531,1394,0,0
-686,-370,0,0,0,0,0,0,0,0,0,-1,538,1394,0,0
-679,-370,0,0,0,0,0,0,0,0,0,-1,545,1394,0,0
-672,-370,0,0,0,0,0,0,0,0,0,-1,552,1394,0,0
-665,-370,0,0,0,0,0,0,0,0,0,-1,559,1394,0,0
-658,-370,0,0,0,0,0,0,0,0,0,-1,566,1394,0,0
-651,-370,0,0,0,0,0,0,0,0,0,-1,573,1394,0,0
-644,-370,0,0,0,0,0,0,0,0,0,-1,580,1394,0,0
-637,-370,0,0,0,0,0,0,0,0,0,-1,587,1394,0,0
-630,-370,0,0,0,0,0,0,0,0,0,-1,594,1394,0,0
-623,-370,-10.1758,-7.10486,0,0,0,0,0,0,0,-1,601,1394,-10.1758,7.10483
-616,-370,-8.85925,-1.61475,0,0,0,0,0,0,0,-1,608,1394,-8.85925,1.61476
-609,-370,-5.39325,0.0421143,0,0,0,0,0,0,0,-1,615,1394,-5.39328,-0.0421372
-602,-370,-12.3151,3.44592,0,0,0,0,0,0,0,-1,622,1394,-12.3151,-3.44595
-595,-370,-7.53284,5.44214,0,0,0,0,0,0,0,-1,629,1394,-7.53284,-5.44216
-588,-370,-9.82947,4.03198,0,0,0,0,0,0,0,-1,636,1394,-9.82949,-4.03199
-581,-370,-10.0264,4.72009,0,0,0,0,0,0,0,-1,643,1394,-10.0263,-4.72014
-574,-370,-10.0801,5.2218,-0.00256071,0.00616235,0.00850434,0.0113584,-0.00775673,1.02234,0.0111012,0.045341,650,1394,-10.0801,-5.22177
-567,-370,-10.17,5.46924,-0.00223299,0.00383901,0.00491529,0.00658032,-0.00497431,1.06205,0.00669251,0.038815,657,1394,-10.17,-5.46923
-560,-370,-10.3358,5.72314,-0.00173796,0.00221763,0.00262939,0.00353003,-0.00305036,1.10785,0.00380255,0.0198832,664,1394,-10.3358,-5.72316
-553,-370,-10.3099,6.15979,-0.000937021,0.00120564,0.00134259,0.00185196,-0.00158334,1.12214,0.00198539,0.0111975,671,1394,-10.3099,-6.15979
-546,-370,-10.2861,6.55627,0.000170389,0.000593084,0.000807945,0.00121687,-0.000453393,0.913325,0.000997341,0.0151789,678,1394,-10.2861,-6.55623
-539,-370,-10.2556,7.00024,0.00153272,0.000311287,0.000838025,0.00195895,-0.000114945,0.470516,0.00134592,0.0192459,685,1394,-10.2556,-7.00022
-532,-370,-10.3199,7.39282,0.00317776,0.000299971,0.00134424,0.00370798,-0.000230247,0.375701,0.0025522,0.0206061,692,1394,-10.3199,-7.39281
-525,-370,-10.3268,7.77771,0.00506691,0.000451957,0.00220979,0.00595437,-0.000435506,0.381889,0.00412243,0.0150087,699,1394,-10.3268,-7.77769
-518,-370,-10.3312,8.17065,0.00726934,0.000893405,0.00358406,0.0088781,-0.000715354,0.42191,0.00617102,0.0110032,706,1394,-10.3312,-8.17062
-511,-370,-10.3049,8.59338,0.00970349,0.000963727,0.00489773,0.0118974,-0.0012302,0.421146,0.00837186,0.0143792,713,1394,-10.305,-8.59333
-504,-370,-10.1652,9.05286,0.0124545,0.00113265,0.00629903,0.0152626,-0.00167541,0.41935,0.010777,0.0395637,720,1394,-10.1652,-9.0528
-497,-370,-10.002,9.48035,0,0,0,0,0,0,0,-1,727,1394,-10.002,-9.48039
-490,-370,-5.30695,4.5271,0,0,0,0,0,0,0,-1,734,1394,-5.30698,-4.52704
-483,-370,-6.02997,4.59253,0,0,0,0,0,0,0,-1,741,1394,-6.02994,-4.5925
-476,-370,-6.75293,4.65796,0,0,0,0,0,0,0,-1,748,1394,-6.7529,-4.65795
-469,-370,-10.584,1.14294,0,0,0,0,0,0,0,-1,755,1394,-10.584,-1.14293
-462,-370,-9.54462,0.387207,0,0,0,0,0,0,0,-1,762,1394,-9.5446,-0.387176
-455,-370,-8.50525,-0.36853,0,0,0,0,0,0,0,-1,769,1394,-8.50523,0.368582
-448,-370,-10.9543,2.28833,0,0,0,0,0,0,0,-1,776,1394,-10.9543,-2.28835
-441,-370,-11.8699,1.8313,0,0,0,0,0,0,0,-1,783,1394,-11.8699,-1.83127
-434,-370,-12.7855,1.37415,0,0,0,0,0,0,0,-1,790,1394,-12.7855,-1.37419
-427,-370,0,0,0,0,0,0,0,0,0,-1,797,1394,0,0
-420,-370,0,0,0,0,0,0,0,0,0,-1,804,1394,0,0
-413,-370,0,0,0,0,0,0,0,0,0,-1,811,1394,0,0
-406,-370,0,0,0,0,0,0,0,0,0,-1,818,1394,0,0
-399,-370,0,0,0,0,0,0,0,0,0,-1,825,1394,0,0
-392,-370,0,0,0,0,0,0,0,0,0,-1,832,1394,0,0
-385,-370,0,0,0,0,0,0,0,0,0,-1,839,1394,0,0
-378,-370,0,0,0,0,0,0,0,0,0,-1,846,1394,0,0
-371,-370,0,0,0,0,0,0,0,0,0,-1,853,1394,0,0
-364,-370,0,0,0,0,0,0,0,0,0,-1,860,1394,0,0
-357,-370,0,0,0,0,0,0,0,0,0,-1,867,1394,0,0
-350,-370,0,0,0,0,0,0,0,0,0,-1,874,1394,0,0
-343,-370,0,0,0,0,0,0,0,0,0,-1,881,1394,0,0
-336,-370,0,0,0,0,0,0,0,0,0,-1,888,1394,0,0
-329,-370,0,0,0,0,0,0,0,0,0,-1,895,1394,0,0
-322,-370,0,0,0,0,0,0,0,0,0,-1,902,1394,0,0
-315,-370,0,0,0,0,0,0,0,0,0,-1,909,1394,0,0
-308,-370,0,0,0,0,0,0,0,0,0,-1,916,1394,0,0
-301,-370,0,0,0,0,0,0,0,0,0,-1,923,1394,0,0
-294,-370,0,0,0,0,0,0,0,0,0,-1,930,1394,0,0
-287,-370,0,0,0,0,0,0,0,0,0,-1,937,1394,0,0
-280,-370,0,0,0,0,0,0,0,0,0,-1,944,1394,0,0
-273,-370,0,0,0,0,0,0,0,0,0,-1,951,1394,0,0
-266,-370,0,0,0,0,0,0,0,0,0,-1,958,1394,0,0
-259,-370,0,0,0,0,0,0,0,0,0,-1,965,1394,0,0
-252,-370,0,0,0,0,0,0,0,0,0,-1,972,1394,0,0
-245,-370,0,0,0,0,0,0,0,0,0,-1,979,1394,0,0
-238,-370,0,0,0,0,0,0,0,0,0,-1,986,1394,0,0
-231,-370,0,0,0,0,0,0,0,0,0,-1,993,1394,0,0
-224,-370,0,0,0,0,0,0,0,0,0,-1,1000,1394,0,0
-217,-370,0,0,0,0,0,0,0,0,0,-1,1007,1394,0,0
-210,-370,0,0,0,0,0,0,0,0,0,-1,1014,1394,0,0
-203,-370,0,0,0,0,0,0,0,0,0,-1,1021,1394,0,0
-196,-370,0,0,0,0,0,0,0,0,0,-1,1028,1394,0,0
-189,-370,0,0,0,0,0,0,0,0,0,-1,1035,1394,0,0
-182,-370,0,0,0,0,0,0,0,0,0,-1,1042,1394,0,0
-175,-370,0,0,0,0,0,0,0,0,0,-1,1049,1394,0,0
-168,-370,0,0,0,0,0,0,0,0,0,-1,1056,1394,0,0
-161,-370,0,0,0,0,0,0,0,0,0,-1,1063,1394,0,0
-154,-370,0,0,0,0,0,0,0,0,0,-1,1070,1394,0,0
-147,-370,0,0,0,0,0,0,0,0,0,-1,1077,1394,0,0
-140,-370,0,0,0,0,0,0,0,0,0,-1,1084,1394,0,0
-133,-370,0,0,0,0,0,0,0,0,0,-1,1091,1394,0,0
-126,-370,0,0,0,0,0,0,0,0,0,-1,1098,1394,0,0
-119,-370,0,0,0,0,0,0,0,0,0,-1,1105,1394,0,0
-112,-370,0,0,0,0,0,0,0,0,0,-1,1112,1394,0,0
-105,-370,0,0,0,0,0,0,0,0,0,-1,1119,1394,0,0
-98,-370,0,0,0,0,0,0,0,0,0,-1,1126,1394,0,0
-91,-370,0,0,0,0,0,0,0,0,0,-1,1133,1394,0,0
-84,-370,0,0,0,0,0,0,0,0,0,-1,1140,1394,0,0
-77,-370,0,0,0,0,0,0,0,0,0,-1,1147,1394,0,0
-70,-370,0,0,0,0,0,0,0,0,0,-1,1154,1394,0,0
-63,-370,0,0,0,0,0,0,0,0,0,-1,1161,1394,0,0
-56,-370,0,0,0,0,0,0,0,0,0,-1,1168,1394,0,0
-49,-370,0,0,0,0,0,0,0,0,0,-1,1175,1394,0,0
-42,-370,0,0,0,0,0,0,0,0,0,-1,1182,1394,0,0
-35,-370,0,0,0,0,0,0,0,0,0,-1,1189,1394,0,0
-28,-370,0,0,0,0,0,0,0,0,0,-1,1196,1394,0,0
-21,-370,0,0,0,0,0,0,0,0,0,-1,1203,1394,0,0
-14,-370,0,0,0,0,0,0,0,0,0,-1,1210,1394,0,0
-7,-370,0,0,0,0,0,0,0,0,0,-1,1217,1394,0,0
0,-370,0,0,0,0,0,0,0,0,0,-1,1224,1394,0,0
7,-370,0,0,0,0,0,0,0,0,0,-1,1231,1394,0,0
14,-370,0,0,0,0,0,0,0,0,0,-1,1238,1394,0,0
21,-370,0,0,0,0,0,0,0,0,0,-1,1245,1394,0,0
28,-370,0,0,0,0,0,0,0,0,0,-1,1252,1394,0,0
35,-370,0,0,0,0,0,0,0,0,0,-1,1259,1394,0,0
42,-370,0,0,0,0,0,0,0,0,0,-1,1266,1394,0,0
49,-370,0,0,0,0,0,0,0,0,0,-1,1273,1394,0,0
56,-370,0,0,0,0,0,0,0,0,0,-1,1280,1394,0,0
63,-370,0,0,0,0,0,0,0,0,0,-1,1287,1394,0,0
70,-370,0,0,0,0,0,0,0,0,0,-1,1294,1394,0,0
77,-370,0,0,0,0,0,0,0,0,0,-1,1301,1394,0,0
84,-370,0,0,0,0,0,0,0,0,0,-1,1308,1394,0,0
91,-370,0,0,0,0,0,0,0,0,0,-1,1315,1394,0,0
98,-370,0,0,0,0,0,0,0,0,0,-1,1322,1394,0,0
105,-370,0,0,0,0,0,0,0,0,0,-1,1329,1394,0,0
112,-370,0,0,0,0,0,0,0,0,0,-1,1336,1394,0,0
119,-370,0,0,0,0,0,0,0,0,0,-1,1343,1394,0,0
126,-370,0,0,0,0,0,0,0,0,0,-1,1350,1394,0,0
133,-370,0,0,0,0,0,0,0,0,0,-1,1357,1394,0,0
140,-370,0,0,0,0,0,0,0,0,0,-1,1364,1394,0,0
147,-370,0,0,0,0,0,0,0,0,0,-1,1371,1394,0,0
154,-370,0,0,0,0,0,0,0,0,0,-1,1378,1394,0,0
161,-370,0,0,0,0,0,0,0,0,0,-1,1385,1394,0,0
168,-370,0,0,0,0,0,0,0,0,0,-1,1392,1394,0,0
175,-370,0,0,0,0,0,0,0,0,0,-1,1399,1394,0,0
182,-370,0,0,0,0,0,0,0,0,0,-1,1406,1394,0,0
189,-370,0,0,0,0,0,0,0,0,0,-1,1413,1394,0,0
196,-370,0,0,0,0,0,0,0,0,0,-1,1420,1394,0,0
203,-370,0,0,0,0,0,0,0,0,0,-1,1427,1394,0,0
210,-370,0,0,0,0,0,0,0,0,0,-1,1434,1394,0,0
217,-370,0,0,0,0,0,0,0,0,0,-1,1441,1394,0,0
224,-370,0,0,0,0,0,0,0,0,0,-1,1448,1394,0,0
231,-370,0,0,0,0,0,0,0,0,0,-1,1455,1394,0,0
238,-370,0,0,0,0,0,0,0,0,0,-1,1462,1394,0,0
245,-370,0,0,0,0,0,0,0,0,0,-1,1469,1394,0,0
252,-370,0,0,0,0,0,0,0,0,0,-1,1476,1394,0,0
259,-370,0,0,0,0,0,0,0,0,0,-1,1483,1394,0,0
266,-370,0,0,0,0,0,0,0,0,0,-1,1490,1394,0,0
273,-370,0,0,0,0,0,0,0,0,0,-1,1497,1394,0,0
280,-370,0,0,0,0,0,0,0,0,0,-1,1504,1394,0,0
287,-370,0,0,0,0,0,0,0,0,0,-1,1511,1394,0,0
294,-370,0,0,0,0,0,0,0,0,0,-1,1518,1394,0,0
301,-370,0,0,0,0,0,0,0,0,0,-1,1525,1394,0,0
308,-370,0,0,0,0,0,0,0,0,0,-1,1532,1394,0,0
315,-370,0,0,0,0,0,0,0,0,0,-1,1539,1394,0,0
322,-370,0,0,0,0,0,0,0,0,0,-1,1546,1394,0,0
329,-370,0,0,0,0,0,0,0,0,0,-1,1553,1394,0,0
336,-370,0,0,0,0,0,0,0,0,0,-1,1560,1394,0,0
343,-370,0,0,0,0,0,0,0,0,0,-1,1567,1394,0,0
350,-370,0,0,0,0,0,0,0,0,0,-1,1574,1394,0,0
357,-370,0,0,0,0,0,0,0,0,0,-1,1581,1394,0,0
364,-370,0,0,0,0,0,0,0,0,0,-1,1588,1394,0,0
371,-370,0,0,0,0,0,0,0,0,0,-1,1595,1394,0,0
378,-370,0,0,0,0,0,0,0,0,0,-1,1602,1394,0,0
385,-370,0,0,0,0,0,0,0,0,0,-1,1609,1394,0,0
392,-370,0,0,0,0,0,0,0,0,0,-1,1616,1394,0,0
399,-370,0,0,0,0,0,0,0,0,0,-1,1623,1394,0,0
406,-370,0,0,0,0,0,0,0,0,0,-1,1630,1394,0,0
413,-370,0,0,0,0,0,0,0,0,0,-1,1637,1394,0,0
420,-370,0,0,0,0,0,0,0,0,0,-1,1644,1394,0,0
427,-370,0,0,0,0,0,0,0,0,0,-1,1651,1394,0,0
434,-370,0,0,0,0,0,0,0,0,0,-1,1658,1394,0,0
441,-370,0,0,0,0,0,0,0,0,0,-1,1665,1394,0,0
448,-370,0,0,0,0,0,0,0,0,0,-1,1672,1394,0,0
455,-370,0,0,0,0,0,0,0,0,0,-1,1679,1394,0,0
462,-370,0,0,0,0,0,0,0,0,0,-1,1686,1394,0,0
469,-370,0,0,0,0,0,0,0,0,0,-1,1693,1394,0,0
476,-370,0,0,0,0,0,0,0,0,0,-1,1700,1394,0,0
483,-370,0,0,0,0,0,0,0,0,0,-1,1707,1394,0,0
490,-370,0,0,0,0,0,0,0,0,0,-1,1714,1394,0,0
497,-370,0,0,0,0,0,0,0,0,0,-1,1721,1394,0,0
504,-370,0,0,0,0,0,0,0,0,0,-1,1728,1394,0,0
511,-370,0,0,0,0,0,0,0,0,0,-1,1735,1394,0,0
518,-370,0,0,0,0,0,0,0,0,0,-1,1742,1394,0,0
525,-370,0,0,0,0,0,0,0,0,0,-1,1749,1394,0,0
532,-370,0,0,0,0,0,0,0,0,0,-1,1756,1394,0,0
539,-370,0,0,0,0,0,0,0,0,0,-1,1763,1394,0,0
546,-370,27.4949,2.81201,0,0,0,0,0,0,0,-1,1770,1394,27.4948,-2.81198
553,-370,26.5985,1.99329,0,0,0,0,0,0,0,-1,1777,1394,26.5985,-1.99327
560,-370,27.1606,2.1084,0,0,0,0,0,0,0,-1,1784,1394,27.1606,-2.10838
567,-370,27.619,2.3833,0,0,0,0,0,0,0,-1,1791,1394,27.619,-2.38327
574,-370,28.0094,2.6936,0,0,0,0,0,0,0,-1,1798,1394,28.0094,-2.69357
581,-370,26.7473,2.29626,0,0,0,0,0,0,0,-1,1805,1394,26.7473,-2.29625
588,-370,32.1333,7.8728,0,0,0,0,0,0,0,-1,1812,1394,32.1333,-7.87275
595,-370,25.793,4.5271,0,0,0,0,0,0,0,-1,1819,1394,25.793,-4.52711
602,-370,25.1077,5.34937,0,0,0,0,0,0,0,-1,1826,1394,25.1077,-5.34932
609,-370,16.712,0.993286,0,0,0,0,0,0,0,-1,1833,1394,16.7121,-0.99323
616,-370,16.7764,7.23315,0,0,0,0,0,0,0,-1,1840,1394,16.7764,-7.23313
623,-370,17.6625,8.94263,0,0,0,0,0,0,0,-1,1847,1394,17.6624,-8.94258
630,-370,20.9681,11.1785,0,0,0,0,0,0,0,-1,1854,1394,20.9681,-11.1784
637,-370,21.811,10.8423,0,0,0,0,0,0,0,-1,1861,1394,21.811,-10.8423
644,-370,21.8429,10.4572,0.000169663,0.000931917,-0.00145801,0.00205779,-0.000956213,-0.913238,0.00177846,0.0122866,1868,1394,21.8429,-10.4572
651,-370,21.8578,10.0796,0.000338928,0.00056485,-0.00100161,0.00145985,-0.000556073,-0.84155,0.00120225,0.012298,1875,1394,21.8578,-10.0796
658,-370,21.8494,9.72864,0.000669226,0.000275369,-0.000608147,0.00111153,-0.00016694,-0.628817,0.000802479,0.0124702,1882,1394,21.8494,-9.72869
665,-370,21.8168,9.37488,0.000968005,8.27616e-05,-0.000224442,0.00102166,2.9109e-05,-0.234645,0.000671612,0.0130286,1889,1394,21.8168,-9.37492
672,-370,21.7886,9.01501,0.00126419,-1.73948e-05,0.000121736,0.00127565,-2.88559e-05,0.0938704,0.000860214,0.0143387,1896,1394,21.7886,-9.01497
679,-370,21.7957,8.63928,0.00165715,-6.17119e-05,0.000403078,0.00174698,-0.00015154,0.219273,0.00121831,0.0135783,1903,1394,21.7957,-8.63932
686,-370,21.8115,8.28882,0.00213506,-8.89518e-05,0.000641081,0.00230662,-0.000260512,0.261483,0.00163153,0.0134024,1910,1394,21.8116,-8.28887
693,-370,21.8013,7.90442,0.00268044,-4.67282e-05,0.000815972,0.00290594,-0.000272223,0.269622,0.00203411,0.0122534,1917,1394,21.8013,-7.90441
700,-370,21.9537,7.49402,0.00345741,0.000278692,0.000811441,0.00365257,8.3535e-05,0.236024,0.00240768,0.0277641,1924,1394,21.9537,-7.49408
707,-370,22.25,7.01685,0,0,0,0,0,0,0,-1,1931,1394,22.25,-7.01682
714,-370,16.9116,5.93018,0,0,0,0,0,0,0,-1,1938,1394,16.9116,-5.93014
721,-370,17.2007,4.69153,0,0,0,0,0,0,0,-1,1945,1394,17.2007,-4.69158
728,-370,20.5315,-0.313354,0,0,0,0,0,0,0,-1,1952,1394,20.5315,0.313332
735,-370,22.3652,0.233398,0,0,0,0,0,0,0,-1,1959,1394,22.3652,-0.233355
742,-370,24.1989,0.780029,0,0,0,0,0,0,0,-1,1966,1394,24.1989,-0.780041
749,-370,0,0,0,0,0,0,0,0,0,-1,1973,1394,0,0
756,-370,0,0,0,0,0,0,0,0,0,-1,1980,1394,0,0
763,-370,0,0,0,0,0,0,0,0,0,-1,1987,1394,0,0
770,-370,0,0,0,0,0,0,0,0,0,-1,1994,1394,0,0
777,-370,0,0,0,0,0,0,0,0,0,-1,2001,1394,0,0
784,-370,0,0,0,0,0,0,0,0,0,-1,2008,1394,0,0
791,-370,0,0,0,0,0,0,0,0,0,-1,2015,1394,0,0
798,-370,0,0,0,0,0,0,0,0,0,-1,2022,1394,0,0
805,-370,0,0,0,0,0,0,0,0,0,-1,2029,1394,0,0
812,-370,0,0,0,0,0,0,0,0,0,-1,2036,1394,0,0
-700,-377,0,0,0,0,0,0,0,0,0,-1,524,1401,0,0
-693,-377,0,0,0,0,0,0,0,0,0,-1,531,1401,0,0
-686,-377,0,0,0,0,0,0,0,0,0,-1,538,1401,0,0
-679,-377,0,0,0,0,0,0,0,0,0,-1,545,1401,0,0
-672,-377,0,0,0,0,0,0,0,0,0,-1,552,1401,0,0
-665,-377,0,0,0,0,0,0,0,0,0,-1,559,1401,0,0
-658,-377,0,0,0,0,0,0,0,0,0,-1,566,1401,0,0
-651,-377,0,0,0,0,0,0,0,0,0,-1,573,1401,0,0
-644,-377,0,0,0,0,0,0,0,0,0,-1,580,1401,0,0
-637,-377,0,0,0,0,0,0,0,0,0,-1,587,1401,0,0
-630,-377,0,0,0,0,0,0,0,0,0,-1,594,1401,0,0
-623,-377,0,0,0,0,0,0,0,0,0,-1,601,1401,0,0
-616,-377,-9.43915,-2.4906,0,0,0,0,0,0,0,-1,608,1401,-9.43915,2.49062
-609,-377,-7.2821,-1.35278,0,0,0,0,0,0,0,-1,615,1401,-7.28208,1.35279
-602,-377,-14.9736,3.98279,0,0,0,0,0,0,0,-1,622,1401,-14.9737,-3.98276
-595,-377,-6.9082,1.18201,0,0,0,0,0,0,0,-1,629,1401,-6.90822,-1.18204
-588,-377,-9.32385,4.25415,0,0,0,0,0,0,0,-1,636,1401,-9.32383,-4.25418
-581,-377,-9.63312,4.55225,0,0,0,0,0,0,0,-1,643,1401,-9.63314,-4.55219
-574,-377,-9.68561,5.08728,-0.00289088,0.00793981,0.0114701,0.0152087,-0.0101598,1.00595,0.0147429,0.0487029,650,1401,-9.68564,-5.08732
-567,-377,-9.72681,5.57068,-0.00276367,0.00488147,0.00663527,0.0087165,-0.0065987,1.04673,0.00887037,0.0387121,657,1401,-9.72678,-5.57068
-560,-377,-10.0109,5.82983,-0.00245806,0.00277792,0.00353209,0.00455646,-0.00423661,1.10432,0.0050778,0.0345068,664,1401,-10.0109,-5.82986
-553,-377,-9.89069,6.14575,-0.00182073,0.00147442,0.00171686,0.00220636,-0.00255267,1.1678,0.00275005,0.0133538,671,1401,-9.89067,-6.14576
-546,-377,-9.91174,6.62085,-0.00085471,0.000695333,0.000819126,0.00104798,-0.00120735,1.16427,0.0013032,0.0162068,678,1401,-9.91177,-6.62082
-539,-377,-9.8855,6.99463,0.000429167,0.000319849,0.000636462,0.00101331,-0.000264296,0.742564,0.000778737,0.021532,685,1401,-9.88552,-6.99462
-532,-377,-9.93311,7.35559,0.00201744,0.000276399,0.00100878,0.00247937,-0.000185536,0.429418,0.0017181,0.019891,692,1401,-9.93314,-7.35565
-525,-377,-9.8877,7.79175,0.00382069,0.000372512,0.00167106,0.00449762,-0.000304424,0.38489,0.00310487,0.0190569,699,1401,-9.88771,-7.79176
-518,-377,-9.92932,8.1759,0.0058845,0.000770446,0.00287198,0.00717282,-0.000517867,0.421673,0.00496351,0.0124981,706,1401,-9.9293,-8.17593
-511,-377,-9.92969,8.58777,0.00814526,0.000845895,0.00406703,0.00996009,-0.000968932,0.419714,0.00698547,0.011719,713,1401,-9.92971,-8.58776
-504,-377,-9.93866,9.01575,0.0106578,0.00100123,0.00532964,0.013021,-0.00136196,0.417356,0.00916846,0.014248,720,1401,-9.93867,-9.01578
-497,-377,-9.51111,9.48523,0.0133551,0.000721844,0.00654778,0.0161364,-0.00205951,0.401683,0.0115057,0.0487515,727,1401,-9.5111,-9.48521
-490,-377,-8.88409,10.1245,0,0,0,0,0,0,0,-1,734,1401,-8.8841,-10.1245
-483,-377,-5.6524,5.07324,0,0,0,0,0,0,0,-1,741,1401,-5.6524,-5.07325
-476,-377,-6.11682,5.10535,0,0,0,0,0,0,0,-1,748,1401,-6.11681,-5.10537
-469,-377,-10.3211,1.9281,0,0,0,0,0,0,0,-1,755,1401,-10.3211,-1.92808
-462,-377,-9.2204,1.0022,0,0,0,0,0,0,0,-1,762,1401,-9.22039,-1.00218
-455,-377,-8.11969,0.0762939,0,0,0,0,0,0,0,-1,769,1401,-8.11968,-0.0762759
-448,-377,-9.05334,0.877319,0,0,0,0,0,0,0,-1,776,1401,-9.05332,-0.877324
-441,-377,-11.212,0.763428,0,0,0,0,0,0,0,-1,783,1401,-11.212,-0.763415
-434,-377,-11.0984,0.996216,0,0,0,0,0,0,0,-1,790,1401,-11.0984,-0.996265
-427,-377,-11.1733,1.25732,0,0,0,0,0,0,0,-1,797,1401,-11.1733,-1.25732
-420,-377,0,0,0,0,0,0,0,0,0,-1,804,1401,0,0
-413,-377,0,0,0,0,0,0,0,0,0,-1,811,1401,0,0
-406,-377,0,0,0,0,0,0,0,0,0,-1,818,1401,0,0
-399,-377,0,0,0,0,0,0,0,0,0,-1,825,1401,0,0
-392,-377,0,0,0,0,0,0,0,0,0,-1,832,1401,0,0
-385,-377,0,0,0,0,0,0,0,0,0,-1,839,1401,0,0
-378,-377,0,0,0,0,0,0,0,0,0,-1,846,1401,0,0
-371,-377,0,0,0,0,0,0,0,0,0,-1,853,1401,0,0
-364,-377,0,0,0,0,0,0,0,0,0,-1,860,1401,0,0
-357,-377,0,0,0,0,0,0,0,0,0,-1,867,1401,0,0
-350,-377,0,0,0,0,0,0,0,0,0,-1,874,1401,0,0
-343,-377,0,0,0,0,0,0,0,0,0,-1,881,1401,0,0
-336,-377,0,0,0,0,0,0,0,0,0,-1,888,1401,0,0
-329,-377,0,0,0,0,0,0,0,0,0,-1,895,1401,0,0
-322,-377,0,0,0,0,0,0,0,0,0,-1,902,1401,0,0
-315,-377,0,0,0,0,0,0,0,0,0,-1,909,1401,0,0
-308,-377,0,0,0,0,0,0,0,0,0,-1,916,1401,0,0
-301,-377,0,0,0,0,0,0,0,0,0,-1,923,1401,0,0
-294,-377,0,0,0,0,0,0,0,0,0,-1,930,1401,0,0
-287,-377,0,0,0,0,0,0,0,0,0,-1,937,1401,0,0
-280,-377,0,0,0,0,0,0,0,0,0,-1,944,1401,0,0
-273,-377,0,0,0,0,0,0,0,0,0,-1,951,1401,0,0
-266,-377,0,0,0,0,0,0,0,0,0,-1,958,1401,0,0
-259,-377,0,0,0,0,0,0,0,0,0,-1,965,1401,0,0
-252,-377,0,0,0,0,0,0,0,0,0,-1,972,1401,0,0
-245,-377,0,0,0,0,0,0,0,0,0,-1,979,1401,0,0
-238,-377,0,0,0,0,0,0,0,0,0,-1,986,1401,0,0
-231,-377,0,0,0,0,0,0,0,0,0,-1,993,1401,0,0
-224,-377,0,0,0,0,0,0,0,0,0,-1,1000,1401,0,0
-217,-377,0,0,0,0,0,0,0,0,0,-1,1007,1401,0,0
-210,-377,0,0,0,0,0,0,0,0,0,-1,1014,1401,0,0
-203,-377,0,0,0,0,0,0,0,0,0,-1,1021,1401,0,0
-196,-377,0,0,0,0,0,0,0,0,0,-1,1028,1401,0,0
-189,-377,0,0,0,0,0,0,0,0,0,-1,1035,1401,0,0
-182,-377,0,0,0,0,0,0,0,0,0,-1,1042,1401,0,0
-175,-377,0,0,0,0,0,0,0,0,0,-1,1049,1401,0,0
-168,-377,0,0,0,0,0,0,0,0,0,-1,1056,1401,0,0
-161,-377,0,0,0,0,0,0,0,0,0,-1,1063,1401,0,0
-154,-377,0,0,0,0,0,0,0,0,0,-1,1070,1401,0,0
-147,-377,0,0,0,0,0,0,0,0,0,-1,1077,1401,0,0
-140,-377,0,0,0,0,0,0,0,0,0,-1,1084,1401,0,0
-133,-377,0,0,0,0,0,0,0,0,0,-1,1091,1401,0,0
-126,-377,0,0,0,0,0,0,0,0,0,-1,1098,1401,0,0
-119,-377,0,0,0,0,0,0,0,0,0,-1,1105,1401,0,0
-112,-377,0,0,0,0,0,0,0,0,0,-1,1112,1401,0,0
-105,-377,0,0,0,0,0,0,0,0,0,-1,1119,1401,0,0
-98,-377,0,0,0,0,0,0,0,0,0,-1,1126,1401,0,0
-91,-377,0,0,0,0,0,0,0,0,0,-1,1133,1401,0,0
-84,-377,0,0,0,0,0,0,0,0,0,-1,1140,1401,0,0
-77,-377,0,0,0,0,0,0,0,0,0,-1,1147,1401,0,0
-70,-377,0,0,0,0,0,0,0,0,0,-1,1154,1401,0,0
-63,-377,0,0,0,0,0,0,0,0,0,-1,1161,1401,0,0
-56,-377,0,0,0,0,0,0,0,0,0,-1,1168,1401,0,0
-49,-377,0,0,0,0,0,0,0,0,0,-1,1175,1401,0,0
-42,-377,0,0,0,0,0,0,0,0,0,-1,1182,1401,0,0
-35,-377,0,0,0,0,0,0,0,0,0,-1,1189,1401,0,0
-28,-377,0,0,0,0,0,0,0,0,0,-1,1196,1401,0,0
-21,-377,0,0,0,0,0,0,0,0,0,-1,1203,1401,0,0
-14,-377,0,0,0,0,0,0,0,0,0,-1,1210,1401,0,0
-7,-377,0,0,0,0,0,0,0,0,0,-1,1217,1401,0,0
0,-377,0,0,0,0,0,0,0,0,0,-1,1224,1401,0,0
7,-377,0,0,0,0,0,0,0,0,0,-1,1231,1401,0,0
14,-377,0,0,0,0,0,0,0,0,0,-1,1238,1401,0,0
21,-377,0,0,0,0,0,0,0,0,0,-1,1245,1401,0,0
28,-377,0,0,0,0,0,0,0,0,0,-1,1252,1401,0,0
35,-377,0,0,0,0,0,0,0,0,0,-1,1259,1401,0,0
42,-377,0,0,0,0,0,0,0,0,0,-1,1266,1401,0,0
49,-377,0,0,0,0,0,0,0,0,0,-1,1273,1401,0,0
56,-377,0,0,0,0,0,0,0,0,0,-1,1280,1401,0,0
63,-377,0,0,0,0,0,0,0,0,0,-1,1287,1401,0,0
70,-377,0,0,0,0,0,0,0,0,0,-1,1294,1401,0,0
77,-377,0,0,0,0,0,0,0,0,0,-1,1301,1401,0,0
84,-377,0,0,0,0,0,0,0,0,0,-1,1308,1401,0,0
91,-377,0,0,0,0,0,0,0,0,0,-1,1315,1401,0,0
98,-377,0,0,0,0,0,0,0,0,0,-1,1322,1401,0,0
105,-377,0,0,0,0,0,0,0,0,0,-1,1329,1401,0,0
112,-377,0,0,0,0,0,0,0,0,0,-1,1336,1401,0,0
119,-377,0,0,0,0,0,0,0,0,0,-1,1343,1401,0,0
126,-377,0,0,0,0,0,0,0,0,0,-1,1350,1401,0,0
133,-377,0,0,0,0,0,0,0,0,0,-1,1357,1401,0,0
140,-377,0,0,0,0,0,0,0,0,0,-1,1364,1401,0,0
147,-377,0,0,0,0,0,0,0,0,0,-1,1371,1401,0,0
154,-377,0,0,0,0,0,0,0,0,0,-1,1378,1401,0,0
161,-377,0,0,0,0,0,0,0,0,0,-1,1385,1401,0,0
168,-377,0,0,0,0,0,0,0,0,0,-1,1392,1401,0,0
175,-377,0,0,0,0,0,0,0,0,0,-1,1399,1401,0,0
182,-377,0,0,0,0,0,0,0,0,0,-1,1406,1401,0,0
189,-377,0,0,0,0,0,0,0,0,0,-1,1413,1401,0,0
196,-377,0,0,0,0,0,0,0,0,0,-1,1420,1401,0,0
203,-377,0,0,0,0,0,0,0,0,0,-1,1427,1401,0,0
210,-377,0,0,0,0,0,0,0,0,0,-1,1434,1401,0,0
217,-377,0,0,0,0,0,0,0,0,0,-1,1441,1401,0,0
224,-377,0,0,0,0,0,0,0,0,0,-1,1448,1401,0,0
231,-377,0,0,0,0,0,0,0,0,0,-1,1455,1401,0,0
238,-377,0,0,0,0,0,0,0,0,0,-1,1462,1401,0,0
245,-377,0,0,0,0,0,0,0,0,0,-1,1469,1401,0,0
252,-377,0,0,0,0,0,0,0,0,0,-1,1476,1401,0,0
259,-377,0,0,0,0,0,0,0,0,0,-1,1483,1401,0,0
266,-377,0,0,0,0,0,0,0,0,0,-1,1490,1401,0,0
273,-377,0,0,0,0,0,0,0,0,0,-1,1497,1401,0,0
280,-377,0,0,0,0,0,0,0,0,0,-1,1504,1401,0,0
287,-377,0,0,0,0,0,0,0,0,0,-1,1511,1401,0,0
294,-377,0,0,0,0,0,0,0,0,0,-1,1518,1401,0,0
301,-377,0,0,0,0,0,0,0,0,0,-1,1525,1401,0,0
308,-377,0,0,0,0,0,0,0,0,0,-1,1532,1401,0,0
315,-377,0,0,0,0,0,0,0,0,0,-1,1539,1401,0,0
322,-377,0,0,0,0,0,0,0,0,0,-1,1546,1401,0,0
329,-377,0,0,0,0,0,0,0,0,0,-1,1553,1401,0,0
336,-377,0,0,0,0,0,0,0,0,0,-1,1560,1401,0,0
343,-377,0,0,0,0,0,0,0,0,0,-1,1567,1401,0,0
350,-377,0,0,0,0,0,0,0,0,0,-1,1574,1401,0,0
357,-377,0,0,0,0,0,0,0,0,0,-1,1581,1401,0,0
364,-377,0,0,0,0,0,0,0,0,0,-1,1588,1401,0,0
371,-377,0,0,0,0,0,0,0,0,0,-1,1595,1401,0,0
378,-377,0,0,0,0,0,0,0,0,0,-1,1602,1401,0,0
385,-377,0,0,0,0,0,0,0,0,0,-1,1609,1401,0,0
392,-377,0,0,0,0,0,0,0,0,0,-1,1616,1401,0,0
399,-377,0,0,0,0,0,0,0,0,0,-1,1623,1401,0,0
406,-377,0,0,0,0,0,0,0,0,0,-1,1630,1401,0,0
413,-377,0,0,0,0,0,0,0,0,0,-1,1637,1401,0,0
420,-377,0,0,0,0,0,0,0,0,0,-1,1644,1401,0,0
427,-377,0,0,0,0,0,0,0,0,0,-1,1651,1401,0,0
434,-377,0,0,0,0,0,0,0,0,0,-1,1658,1401,0,0
441,-377,0,0,0,0,0,0,0,0,0,-1,1665,1401,0,0
448,-377,0,0,0,0,0,0,0,0,0,-1,1672,1401,0,0
455,-377,0,0,0,0,0,0,0,0,0,-1,1679,1401,0,0
462,-377,0,0,0,0,0,0,0,0,0,-1,1686,1401,0,0
469,-377,0,0,0,0,0,0,0,0,0,-1,1693,1401,0,0
476,-377,0,0,0,0,0,0,0,0,0,-1,1700,1401,0,0
483,-377,0,0,0,0,0,0,0,0,0,-1,1707,1401,0,0
490,-377,0,0,0,0,0,0,0,0,0,-1,1714,1401,0,0
497,-377,0,0,0,0,0,0,0,0,0,-1,1721,1401,0,0
504,-377,0,0,0,0,0,0,0,0,0,-1,1728,1401,0,0
511,-377,0,0,0,0,0,0,0,0,0,-1,1735,1401,0,0
518,-377,0,0,0,0,0,0,0,0,0,-1,1742,1401,0,0
525,-377,0,0,0,0,0,0,0,0,0,-1,1749,1401,0,0
532,-377,0,0,0,0,0,0,0,0,0,-1,1756,1401,0,0
539,-377,0,0,0,0,0,0,0,0,0,-1,1763,1401,0,0
546,-377,27.8485,2.34094,0,0,0,0,0,0,0,-1,1770,1401,27.8486,-2.34091
553,-377,27.2189,2.42493,0,0,0,0,0,0,0,-1,1777,1401,27.2188,-2.42498
560,-377,26.9808,1.78674,0,0,0,0,0,0,0,-1,1784,1401,26.9808,-1.78676
567,-377,27.4503,2.03894,0,0,0,0,0,0,0,-1,1791,1401,27.4503,-2.03893
574,-377,27.812,2.3855,0,0,0,0,0,0,0,-1,1798,1401,27.812,-2.38552
581,-377,26.3328,2.77588,0,0,0,0,0,0,0,-1,1805,1401,26.3328,-2.77582
588,-377,25.882,4.35217,0,0,0,0,0,0,0,-1,1812,1401,25.8819,-4.3522
595,-377,25.5392,5.11804,0,0,0,0,0,0,0,-1,1819,1401,25.5392,-5.11808
602,-377,24.816,5.79126,0,0,0,0,0,0,0,-1,1826,1401,24.816,-5.79124
609,-377,15.0223,4.76135,0,0,0,0,0,0,0,-1,1833,1401,15.0224,-4.76129
616,-377,14.1842,5.78992,0,0,0,0,0,0,0,-1,1840,1401,14.1842,-5.78987
623,-377,15.8248,8.76721,0,0,0,0,0,0,0,-1,1847,1401,15.8248,-8.76725
630,-377,21.1943,11.4513,0,0,0,0,0,0,0,-1,1854,1401,21.1943,-11.4513
637,-377,21.3975,10.8978,-0.000185204,0.00116397,-0.00134625,0.00199519,-0.00101642,-1.01766,0.0017691,0.0238475,1861,1401,21.3974,-10.8979
644,-377,21.4709,10.4834,0.000162889,0.000809424,-0.00104263,0.00157775,-0.000605441,-0.935723,0.00130147,0.0116086,1868,1401,21.4709,-10.4834
651,-377,21.4956,10.0942,0.00043557,0.000497459,-0.000707607,0.0011748,-0.000241769,-0.80725,0.000874994,0.0128179,1875,1401,21.4956,-10.0942
658,-377,21.4913,9.72827,0.00080316,0.000252713,-0.000405857,0.00101831,3.75615e-05,-0.48745,0.000666707,0.0148763,1882,1401,21.4913,-9.72828
665,-377,21.4705,9.36365,0.00111938,8.55785e-05,-6.99505e-05,0.00112409,8.08668e-05,-0.0672549,0.000723945,0.0172186,1889,1401,21.4704,-9.36368
672,-377,21.4452,9.00415,0.00143178,-7.07354e-06,0.00025493,0.00147561,-5.09056e-05,0.170273,0.00100114,0.017444,1896,1401,21.4452,-9.00412
679,-377,21.4237,8.66199,0.00183871,-7.21656e-05,0.000550151,0.00198578,-0.000219238,0.261222,0.00140266,0.0172084,1903,1401,21.4238,-8.66201
686,-377,21.4293,8.30994,0.00233563,-0.000160729,0.000845438,0.002595,-0.000420103,0.297677,0.0018857,0.0142409,1910,1401,21.4293,-8.30994
693,-377,21.4607,7.90369,0.00291917,-0.000200107,0.00110204,0.00326923,-0.000550172,0.307571,0.00238413,0.0133614,1917,1401,21.4607,-7.90363
700,-377,21.438,7.57776,0.00382041,1.92546e-05,0.00120475,0.00417009,-0.000330417,0.282482,0.00289648,0.0397003,1924,1401,21.438,-7.57777
707,-377,21.5902,7.15588,0,0,0,0,0,0,0,-1,1931,1401,21.5903,-7.15589
714,-377,16.5369,5.45959,0,0,0,0,0,0,0,-1,1938,1401,16.5369,-5.4596
721,-377,17.0913,5.42529,0,0,0,0,0,0,0,-1,1945,1401,17.0914,-5.42529
728,-377,14.5396,2.79724,0,0,0,0,0,0,0,-1,1952,1401,14.5396,-2.7972
735,-377,23.2977,-0.991089,0,0,0,0,0,0,0,-1,1959,1401,23.2978,0.991076
742,-377,0,0,0,0,0,0,0,0,0,-1,1966,1401,0,0
749,-377,0,0,0,0,0,0,0,0,0,-1,1973,1401,0,0
756,-377,0,0,0,0,0,0,0,0,0,-1,1980,1401,0,0
763,-377,0,0,0,0,0,0,0,0,0,-1,1987,1401,0,0
770,-377,0,0,0,0,0,0,0,0,0,-1,1994,1401,0,0
777,-377,0,0,0,0,0,0,0,0,0,-1,2001,1401,0,0
784,-377,0,0,0,0,0,0,0,0,0,-1,2008,1401,0,0
791,-377,0,0,0,0,0,0,0,0,0,-1,2015,1401,0,0
798,-377,0,0,0,0,0,0,0,0,0,-1,2022,1401,0,0
805,-377,0,0,0,0,0,0,0,0,0,-1,2029,1401,0,0
812,-377,0,0,0,0,0,0,0,0,0,-1,2036,1401,0,0
-700,-384,0,0,0,0,0,0,0,0,0,-1,524,1408,0,0
-693,-384,0,0,0,0,0,0,0,0,0,-1,531,1408,0,0
-686,-384,0,0,0,0,0,0,0,0,0,-1,538,1408,0,0
-679,-384,0,0,0,0,0,0,0,0,0,-1,545,1408,0,0
-672,-384,0,0,0,0,0,0,0,0,0,-1,552,1408,0,0
-665,-384,0,0,0,0,0,0,0,0,0,-1,559,1408,0,0
-658,-384,0,0,0,0,0,0,0,0,0,-1,566,1408,0,0
-651,-384,0,0,0,0,0,0,0,0,0,-1,573,1408,0,0
-644,-384,0,0,0,0,0,0,0,0,0,-1,580,1408,0,0
-637,-384,0,0,0,0,0,0,0,0,0,-1,587,1408,0,0
-630,-384,0,0,0,0,0,0,0,0,0,-1,594,1408,0,0
-623,-384,0,0,0,0,0,0,0,0,0,-1,601,1408,0,0
-616,-384,-10.019,-3.36646,0,0,0,0,0,0,0,-1,608,1408,-10.019,3.36648
-609,-384,-7.72357,-2.3418,0,0,0,0,0,0,0,-1,615,1408,-7.72358,2.34182
-602,-384,-11.7632,-2.85156,0,0,0,0,0,0,0,-1,622,1408,-11.7632,2.85157
-595,-384,-10.2217,2.8855,0,0,0,0,0,0,0,-1,629,1408,-10.2218,-2.88548
-588,-384,-9.71045,2.79968,0,0,0,0,0,0,0,-1,636,1408,-9.71046,-2.79971
-581,-384,-9.6947,3.86914,-0.00226628,0.0158388,0.0245658,0.0329669,-0.0193944,0.961929,0.0305675,0.0478478,643,1408,-9.69467,-3.86911
-574,-384,-9.75775,4.86597,-0.00292113,0.00999744,0.015052,0.0199176,-0.0128413,0.98808,0.0190599,0.0484546,650,1408,-9.75772,-4.86599
-567,-384,-9.41638,5.50293,-0.00309349,0.00611065,0.00878365,0.0114248,-0.00840764,1.0267,0.0114944,0.0426537,657,1408,-9.41636,-5.50288
-560,-384,-9.39935,5.81689,-0.00302143,0.00347732,0.00475619,0.00598813,-0.00553224,1.08507,0.00665303,0.0446846,664,1408,-9.39935,-5.8169
-553,-384,-9.49719,6.16138,-0.00257159,0.00186008,0.00234917,0.00287357,-0.00358508,1.1635,0.00373644,0.025766,671,1408,-9.4972,-6.16133
-546,-384,-9.50586,6.6228,-0.00176487,0.000900601,0.00103566,0.0012557,-0.00211996,1.24049,0.00197012,0.0135716,678,1408,-9.50587,-6.62282
-539,-384,-9.54114,6.98401,-0.000568864,0.000412671,0.000601828,0.000698466,-0.00085466,1.12745,0.000898208,0.0156239,685,1408,-9.54115,-6.98398
-532,-384,-9.54315,7.31628,0.000930878,0.000307564,0.000785127,0.00146394,-0.000225501,0.59646,0.00105916,0.0222359,692,1408,-9.54318,-7.31632
-525,-384,-9.51971,7.76721,0.00262664,0.000326405,0.00120077,0.00313924,-0.000186191,0.40347,0.00215757,0.0209242,699,1408,-9.51968,-7.76726
-518,-384,-9.53101,8.19849,0.00451434,0.000640761,0.00216876,0.00548524,-0.000330143,0.42092,0.00377169,0.0126076,706,1408,-9.531,-8.19845
-511,-384,-9.55396,8.61963,0.00657094,0.000689991,0.00319606,0.00797341,-0.000712484,0.413512,0.00556832,0.0103462,713,1408,-9.55393,-8.6196
-504,-384,-9.54401,9.0603,0.00888255,0.000826277,0.00432465,0.0107644,-0.00105562,0.410441,0.0075528,0.0115577,720,1408,-9.54398,-9.06033
-497,-384,-9.4964,9.51855,0.0112426,0.000577329,0.00534042,0.013457,-0.00163703,0.393064,0.0095638,0.0279366,727,1408,-9.4964,-9.51859
-490,-384,-9.18048,10.219,0,0,0,0,0,0,0,-1,734,1408,-9.18049,-10.219
-483,-384,-6.26471,7.61194,0,0,0,0,0,0,0,-1,741,1408,-6.26469,-7.61191
-476,-384,-6.02734,5.67761,0,0,0,0,0,0,0,-1,748,1408,-6.02736,-5.6776
-469,-384,-10.206,2.63721,0,0,0,0,0,0,0,-1,755,1408,-10.206,-2.6372
-462,-384,-9.04291,1.43542,0,0,0,0,0,0,0,-1,762,1408,-9.04293,-1.43545
-455,-384,-7.87988,0.233765,0,0,0,0,0,0,0,-1,769,1408,-7.87986,-0.233709
-448,-384,-9.35529,7.19226,0,0,0,0,0,0,0,-1,776,1408,-9.35531,-7.19226
-441,-384,-10.4697,1.79004,0,0,0,0,0,0,0,-1,783,1408,-10.4697,-1.79003
-434,-384,-10.6449,0.552246,0,0,0,0,0,0,0,-1,790,1408,-10.6449,-0.552216
-427,-384,-10.968,1.10583,0,0,0,0,0,0,0,-1,797,1408,-10.968,-1.10588
-420,-384,-12.5607,4.54858,0,0,0,0,0,0,0,-1,804,1408,-12.5607,-4.54859
-413,-384,0,0,0,0,0,0,0,0,0,-1,811,1408,0,0
-406,-384,0,0,0,0,0,0,0,0,0,-1,818,1408,0,0
-399,-384,0,0,0,0,0,0,0,0,0,-1,825,1408,0,0
-392,-384,0,0,0,0,0,0,0,0,0,-1,832,1408,0,0
-385,-384,0,0,0,0,0,0,0,0,0,-1,839,1408,0,0
-378,-384,0,0,0,0,0,0,0,0,0,-1,846,1408,0,0
-371,-384,0,0,0,0,0,0,0,0,0,-1,853,1408,0,0
-364,-384,0,0,0,0,0,0,0,0,0,-1,860,1408,0,0
-357,-384,0,0,0,0,0,0,0,0,0,-1,867,1408,0,0
-350,-384,0,0,0,0,0,0,0,0,0,-1,874,1408,0,0
-343,-384,0,0,0,0,0,0,0,0,0,-1,881,1408,0,0
-336,-384,0,0,0,0,0,0,0,0,0,-1,888,1408,0,0
-329,-384,0,0,0,0,0,0,0,0,0,-1,895,1408,0,0
-322,-384,0,0,0,0,0,0,0,0,0,-1,902,1408,0,0
-315,-384,0,0,0,0,0,0,0,0,0,-1,909,1408,0,0
-308,-384,0,0,0,0,0,0,0,0,0,-1,916,1408,0,0
-301,-384,0,0,0,0,0,0,0,0,0,-1,923,1408,0,0
-294,-384,0,0,0,0,0,0,0,0,0,-1,930,1408,0,0
-287,-384,0,0,0,0,0,0,0,0,0,-1,937,1408,0,0
-280,-384,0,0,0,0,0,0,0,0,0,-1,944,1408,0,0
-273,-384,0,0,0,0,0,0,0,0,0,-1,951,1408,0,0
-266,-384,0,0,0,0,0,0,0,0,0,-1,958,1408,0,0
-259,-384,0,0,0,0,0,0,0,0,0,-1,965,1408,0,0
-252,-384,0,0,0,0,0,0,0,0,0,-1,972,1408,0,0
-245,-384,0,0,0,0,0,0,0,0,0,-1,979,1408,0,0
-238,-384,0,0,0,0,0,0,0,0,0,-1,986,1408,0,0
-231,-384,0,0,0,0,0,0,0,0,0,-1,993,1408,0,0
-224,-384,0,0,0,0,0,0,0,0,0,-1,1000,1408,0,0
-217,-384,0,0,0,0,0,0,0,0,0,-1,1007,1408,0,0
-210,-384,0,0,0,0,0,0,0,0,0,-1,1014,1408,0,0
-203,-384,0,0,0,0,0,0,0,0,0,-1,1021,1408,0,0
-196,-384,0,0,0,0,0,0,0,0,0,-1,1028,1408,0,0
-189,-384,0,0,0,0,0,0,0,0,0,-1,1035,1408,0,0
-182,-384,0,0,0,0,0,0,0,0,0,-1,1042,1408,0,0
-175,-384,0,0,0,0,0,0,0,0,0,-1,1049,1408,0,0
-168,-384,0,0,0,0,0,0,0,0,0,-1,1056,1408,0,0
-161,-384,0,0,0,0,0,0,0,0,0,-1,1063,1408,0,0
-154,-384,0,0,0,0,0,0,0,0,0,-1,1070,1408,0,0
-147,-384,0,0,0,0,0,0,0,0,0,-1,1077,1408,0,0
-140,-384,0,0,0,0,0,0,0,0,0,-1,1084,1408,0,0
-133,-384,0,0,0,0,0,0,0,0,0,-1,1091,1408,0,0
-126,-384,0,0,0,0,0,0,0,0,0,-1,1098,1408,0,0
-119,-384,0,0,0,0,0,0,0,0,0,-1,1105,1408,0,0
-112,-384,0,0,0,0,0,0,0,0,0,-1,1112,1408,0,0
-105,-384,0,0,0,0,0,0,0,0,0,-1,1119,1408,0,0
-98,-384,0,0,0,0,0,0,0,0,0,-1,1126,1408,0,0
-91,-384,0,0,0,0,0,0,0,0,0,-1,1133,1408,0,0
-84,-384,0,0,0,0,0,0,0,0,0,-1,1140,1408,0,0
-77,-384,0,0,0,0,0,0,0,0,0,-1,1147,1408,0,0
-70,-384,0,0,0,0,0,0,0,0,0,-1,1154,1408,0,0
-63,-384,0,0,0,0,0,0,0,0,0,-1,1161,1408,0,0
-56,-384,0,0,0,0,0,0,0,0,0,-1,1168,1408,0,0
-49,-384,0,0,0,0,0,0,0,0,0,-1,1175,1408,0,0
-42,-384,0,0,0,0,0,0,0,0,0,-1,1182,1408,0,0
-35,-384,0,0,0,0,0,0,0,0,0,-1,1189,1408,0,0
-28,-384,0,0,0,0,0,0,0,0,0,-1,1196,1408,0,0
-21,-384,0,0,0,0,0,0,0,0,0,-1,1203,1408,0,0
-14,-384,0,0,0,0,0,0,0,0,0,-1,1210,1408,0,0
-7,-384,0,0,0,0,0,0,0,0,0,-1,1217,1408,0,0
0,-384,0,0,0,0,0,0,0,0,0,-1,1224,1408,0,0
7,-384,0,0,0,0,0,0,0,0,0,-1,1231,1408,0,0
14,-384,0,0,0,0,0,0,0,0,0,-1,1238,1408,0,0
21,-384,0,0,0,0,0,0,0,0,0,-1,1245,1408,0,0
28,-384,0,0,0,0,0,0,0,0,0,-1,1252,1408,0,0
35,-384,0,0,0,0,0,0,0,0,0,-1,1259,1408,0,0
42,-384,0,0,0,0,0,0,0,0,0,-1,1266,1408,0,0
49,-384,0,0,0,0,0,0,0,0,0,-1,1273,1408,0,0
56,-384,0,0,0,0,0,0,0,0,0,-1,1280,1408,0,0
63,-384,0,0,0,0,0,0,0,0,0,-1,1287,1408,0,0
70,-384,0,0,0,0,0,0,0,0,0,-1,1294,1408,0,0
77,-384,0,0,0,0,0,0,0,0,0,-1,1301,1408,0,0
84,-384,0,0,0,0,0,0,0,0,0,-1,1308,1408,0,0
91,-384,0,0,0,0,0,0,0,0,0,-1,1315,1408,0,0
98,-384,0,0,0,0,0,0,0,0,0,-1,1322,1408,0,0
105,-384,0,0,0,0,0,0,0,0,0,-1,1329,1408,0,0
112,-384,0,0,0,0,0,0,0,0,0,-1,1336,1408,0,0
119,-384,0,0,0,0,0,0,0,0,0,-1,1343,1408,0,0
126,-384,0,0,0,0,0,0,0,0,0,-1,1350,1408,0,0
133,-384,0,0,0,0,0,0,0,0,0,-1,1357,1408,0,0
140,-384,0,0,0,0,0,0,0,0,0,-1,1364,1408,0,0
147,-384,0,0,0,0,0,0,0,0,0,-1,1371,1408,0,0
154,-384,0,0,0,0,0,0,0,0,0,-1,1378,1408,0,0
161,-384,0,0,0,0,0,0,0,0,0,-1,1385,1408,0,0
168,-384,0,0,0,0,0,0,0,0,0,-1,1392,1408,0,0
175,-384,0,0,0,0,0,0,0,0,0,-1,1399,1408,0,0
182,-384,0,0,0,0,0,0,0,0,0,-1,1406,1408,0,0
189,-384,0,0,0,0,0,0,0,0,0,-1,1413,1408,0,0
196,-384,0,0,0,0,0,0,0,0,0,-1,1420,1408,0,0
203,-384,0,0,0,0,0,0,0,0,0,-1,1427,1408,0,0
210,-384,0,0,0,0,0,0,0,0,0,-1,1434,1408,0,0
217,-384,0,0,0,0,0,0,0,0,0,-1,1441,1408,0,0
224,-384,0,0,0,0,0,0,0,0,0,-1,1448,1408,0,0
231,-384,0,0,0,0,0,0,0,0,0,-1,1455,1408,0,0
238,-384,0,0,0,0,0,0,0,0,0,-1,1462,1408,0,0
245,-384,0,0,0,0,0,0,0,0,0,-1,1469,1408,0,0
252,-384,0,0,0,0,0,0,0,0,0,-1,1476,1408,0,0
259,-384,0,0,0,0,0,0,0,0,0,-1,1483,1408,0,0
266,-384,0,0,0,0,0,0,0,0,0,-1,1490,1408,0,0
273,-384,0,0,0,0,0,0,0,0,0,-1,1497,1408,0,0
280,-384,0,0,0,0,0,0,0,0,0,-1,1504,1408,0,0
287,-384,0,0,0,0,0,0,0,0,0,-1,1511,1408,0,0
294,-384,0,0,0,0,0,0,0,0,0,-1,1518,1408,0,0
301,-384,0,0,0,0,0,0,0,0,0,-1,1525,1408,0,0
308,-384,0,0,0,0,0,0,0,0,0,-1,1532,1408,0,0
315,-384,0,0,0,0,0,0,0,0,0,-1,1539,1408,0,0
322,-384,0,0,0,0,0,0,0,0,0,-1,1546,1408,0,0
329,-384,0,0,0,0,0,0,0,0,0,-1,1553,1408,0,0
336,-384,0,0,0,0,0,0,0,0,0,-1,1560,1408,0,0
343,-384,0,0,0,0,0,0,0,0,0,-1,1567,1408,0,0
350,-384,0,0,0,0,0,0,0,0,0,-1,1574,1408,0,0
357,-384,0,0,0,0,0,0,0,0,0,-1,1581,1408,0,0
364,-384,0,0,0,0,0,0,0,0,0,-1,1588,1408,0,0
371,-384,0,0,0,0,0,0,0,0,0,-1,1595,1408,0,0
378,-384,0,0,0,0,0,0,0,0,0,-1,1602,1408,0,0
385,-384,0,0,0,0,0,0,0,0,0,-1,1609,1408,0,0
392,-384,0,0,0,0,0,0,0,0,0,-1,1616,1408,0,0
399,-384,0,0,0,0,0,0,0,0,0,-1,1623,1408,0,0
406,-384,0,0,0,0,0,0,0,0,0,-1,1630,1408,0,0
413,-384,0,0,0,0,0,0,0,0,0,-1,1637,1408,0,0
420,-384,0,0,0,0,0,0,0,0,0,-1,1644,1408,0,0
427,-384,0,0,0,0,0,0,0,0,0,-1,1651,1408,0,0
434,-384,0,0,0,0,0,0,0,0,0,-1,1658,1408,0,0
441,-384,0,0,0,0,0,0,0,0,0,-1,1665,1408,0,0
448,-384,0,0,0,0,0,0,0,0,0,-1,1672,1408,0,0
455,-384,0,0,0,0,0,0,0,0,0,-1,1679,1408,0,0
462,-384,0,0,0,0,0,0,0,0,0,-1,1686,1408,0,0
469,-384,0,0,0,0,0,0,0,0,0,-1,1693,1408,0,0
476,-384,0,0,0,0,0,0,0,0,0,-1,1700,1408,0,0
483,-384,0,0,0,0,0,0,0,0,0,-1,1707,1408,0,0
490,-384,0,0,0,0,0,0,0,0,0,-1,1714,1408,0,0
497,-384,0,0,0,0,0,0,0,0,0,-1,1721,1408,0,0
504,-384,0,0,0,0,0,0,0,0,0,-1,1728,1408,0,0
511,-384,0,0,0,0,0,0,0,0,0,-1,1735,1408,0,0
518,-384,0,0,0,0,0,0,0,0,0,-1,1742,1408,0,0
525,-384,0,0,0,0,0,0,0,0,0,-1,1749,1408,0,0
532,-384,0,0,0,0,0,0,0,0,0,-1,1756,1408,0,0
539,-384,27.6886,2.85803,0,0,0,0,0,0,0,-1,1763,1408,27.6886,-2.85807
546,-384,27.5044,2.9425,0,0,0,0,0,0,0,-1,1770,1408,27.5044,-2.94255
553,-384,27.3052,2.78394,0,0,0,0,0,0,0,-1,1777,1408,27.3051,-2.78394
560,-384,26.833,3.19812,0,0,0,0,0,0,0,-1,1784,1408,26.833,-3.19816
567,-384,32.4751,6.03601,0,0,0,0,0,0,0,-1,1791,1408,32.4751,-6.03605
574,-384,25.8635,3.7915,0,0,0,0,0,0,0,-1,1798,1408,25.8636,-3.79148
581,-384,25.819,3.91846,0,0,0,0,0,0,0,-1,1805,1408,25.8189,-3.91848
588,-384,23.3721,4.25439,0,0,0,0,0,0,0,-1,1812,1408,23.3721,-4.25442
595,-384,24.981,5.59595,0,0,0,0,0,0,0,-1,1819,1408,24.981,-5.59598
602,-384,20.6605,4.17261,0,0,0,0,0,0,0,-1,1826,1408,20.6606,-4.17265
609,-384,14.158,5.49475,0,0,0,0,0,0,0,-1,1833,1408,14.158,-5.49474
616,-384,14.7997,7.6908,0,0,0,0,0,0,0,-1,1840,1408,14.7996,-7.69079
623,-384,16.4293,9.58899,0,0,0,0,0,0,0,-1,1847,1408,16.4294,-9.58901
630,-384,21.0751,11.2614,0,0,0,0,0,0,0,-1,1854,1408,21.0751,-11.2614
637,-384,21.104,10.8691,-0.000242783,0.0010756,-0.000929855,0.00155622,-0.0007234,-1.09374,0.00134509,0.0181081,1861,1408,21.1039,-10.8691
644,-384,21.0508,10.5251,0.000156029,0.000730791,-0.000707003,0.00120659,-0.000319768,-0.978437,0.0009295,0.0153354,1868,1408,21.0508,-10.5252
651,-384,21.0651,10.113,0.000498251,0.000444265,-0.000449068,0.000921136,2.13791e-05,-0.75538,0.00060709,0.0155732,1875,1408,21.0651,-10.113
658,-384,21.0876,9.72571,0.000886646,0.00022744,-0.0002095,0.000947592,0.000166494,-0.283097,0.000584192,0.0160478,1882,1408,21.0876,-9.72573
665,-384,21.0927,9.38123,0.00121171,7.65082e-05,8.84379e-05,0.00121856,6.96597e-05,0.0772833,0.000790179,0.0164516,1889,1408,21.0927,-9.38121
672,-384,21.0887,9.01868,0.00154963,-1.0936e-05,0.000390947,0.00164209,-0.000103396,0.232237,0.00113077,0.0147367,1896,1408,21.0887,-9.0187
679,-384,21.0624,8.65857,0.00197599,-0.000108881,0.000700489,0.00218949,-0.000322374,0.295833,0.00157813,0.0156989,1903,1408,21.0624,-8.65857
686,-384,21.0654,8.30713,0.00250102,-0.000278355,0.00105976,0.00285899,-0.000636329,0.325755,0.00214973,0.0123742,1910,1408,21.0654,-8.30713
693,-384,21.0874,7.94043,0.00314558,-0.000423962,0.00141215,0.00363668,-0.000915062,0.334684,0.00278013,0.0202717,1917,1408,21.0874,-7.94041
700,-384,20.8474,7.33875,0,0,0,0,0,0,0,-1,1924,1408,20.8474,-7.33878
707,-384,17.0566,6.62842,0,0,0,0,0,0,0,-1,1931,1408,17.0567,-6.62848
714,-384,16.038,5.0282,0,0,0,0,0,0,0,-1,1938,1408,16.038,-5.02819
721,-384,13.8843,2.8717,0,0,0,0,0,0,0,-1,1945,1408,13.8843,-2.87171
728,-384,15.4409,6.25745,0,0,0,0,0,0,0,-1,1952,1408,15.4409,-6.2574
735,-384,16.7598,6.71289,0,0,0,0,0,0,0,-1,1959,1408,16.7598,-6.71287
742,-384,0,0,0,0,0,0,0,0,0,-1,1966,1408,0,0
749,-384,0,0,0,0,0,0,0,0,0,-1,1973,1408,0,0
756,-384,0,0,0,0,0,0,0,0,0,-1,1980,1408,0,0
763,-384,0,0,0,0,0,0,0,0,0,-1,1987,1408,0,0
770,-384,0,0,0,0,0,0,0,0,0,-1,1994,1408,0,0
777,-384,0,0,0,0,0,0,0,0,0,-1,2001,1408,0,0
784,-384,0,0,0,0,0,0,0,0,0,-1,2008,1408,0,0
791,-384,0,0,0,0,0,0,0,0,0,-1,2015,1408,0,0
798,-384,0,0,0,0,0,0,0,0,0,-1,2022,1408,0,0
805,-384,0,0,0,0,0,0,0,0,0,-1,2029,1408,0,0
812,-384,0,0,0,0,0,0,0,0,0,-1,2036,1408,0,0
-700,-391,0,0,0,0,0,0,0,0,0,-1,524,1415,0,0
-693,-391,0,0,0,0,0,0,0,0,0,-1,531,1415,0,0
-686,-391,0,0,0,0,0,0,0,0,0,-1,538,1415,0,0
-679,-391,0,0,0,0,0,0,0,0,0,-1,545,1415,0,0
-672,-391,0,0,0,0,0,0,0,0,0,-1,552,1415,0,0
-665,-391,0,0,0,0,0,0,0,0,0,-1,559,1415,0,0
-658,-391,0,0,0,0,0,0,0,0,0,-1,566,1415,0,0
-651,-391,0,0,0,0,0,0,0,0,0,-1,573,1415,0,0
-644,-391,0,0,0,0,0,0,0,0,0,-1,580,1415,0,0
-637,-391,0,0,0,0,0,0,0,0,0,-1,587,1415,0,0
-630,-391,0,0,0,0,0,0,0,0,0,-1,594,1415,0,0
-623,-391,0,0,0,0,0,0,0,0,0,-1,601,1415,0,0
-616,-391,0,0,0,0,0,0,0,0,0,-1,608,1415,0,0
-609,-391,-7.71753,-3.69763,0,0,0,0,0,0,0,-1,615,1415,-7.71751,3.69759
-602,-391,-13.9493,-4.12805,0,0,0,0,0,0,0,-1,622,1415,-13.9493,4.12803
-595,-391,-10.8315,1.76172,0,0,0,0,0,0,0,-1,629,1415,-10.8315,-1.76171
-588,-391,-10.265,2.16431,0,0,0,0,0,0,0,-1,636,1415,-10.265,-2.16431
-581,-391,-10.071,3.51843,0,0,0,0,0,0,0,-1,643,1415,-10.071,-3.51848
-574,-391,-9.6377,4.80872,0,0,0,0,0,0,0,-1,650,1415,-9.63771,-4.80874
-567,-391,-8.93573,5.55054,0,0,0,0,0,0,0,-1,657,1415,-8.93572,-5.5505
-560,-391,-8.87469,6.06738,0,0,0,0,0,0,0,-1,664,1415,-8.87467,-6.06736
-553,-391,-9.04633,6.15479,-0.00350765,0.00212533,0.00299378,0.00341924,-0.00480155,1.16285,0.00476859,0.0412264,671,1415,-9.04634,-6.15477
-546,-391,-9.10522,6.58569,-0.00282237,0.000991838,0.00124759,0.00136367,-0.0031942,1.28114,0.0027013,0.0132971,678,1415,-9.10525,-6.58565
-539,-391,-9.06921,6.99963,-0.00167,0.000405255,0.000575032,0.000553938,-0.00181868,1.31777,0.00143324,0.0134994,685,1415,-9.06923,-6.99965
-532,-391,-9.08582,7.40979,-0.000227914,0.000259423,0.0005822,0.00064689,-0.000615381,0.983587,0.000728848,0.0246615,692,1415,-9.0858,-7.40976
-525,-391,-9.07306,7.84888,0.00139126,0.000236379,0.000784658,0.00178805,-0.000160411,0.468185,0.00124894,0.0229459,699,1415,-9.07308,-7.84891
-518,-391,-9.12598,8.23901,0.00313453,0.000507421,0.00155882,0.00385944,-0.000217486,0.435289,0.00264844,0.0142878,706,1415,-9.12598,-8.23899
-511,-391,-9.14246,8.62952,0.00501087,0.000561063,0.00244486,0.00609164,-0.000519714,0.416233,0.00424495,0.0135021,713,1415,-9.14245,-8.62953
-504,-391,-9.13721,9.05652,0.00711724,0.000704336,0.00345385,0.00862358,-0.000802003,0.411263,0.00603418,0.0118193,720,1415,-9.13719,-9.05653
-497,-391,-9.1369,9.48047,0.00917151,0.00051095,0.00430548,0.0109477,-0.0012652,0.391263,0.00775465,0.0115154,727,1415,-9.13692,-9.48047
-490,-391,-9.0791,9.97888,0.0109966,-0.000288386,0.00487327,0.0128098,-0.00210152,0.356188,0.00931967,0.0380417,734,1415,-9.07909,-9.97892
-483,-391,-8.91364,10.5972,0,0,0,0,0,0,0,-1,741,1415,-8.91363,-10.5971
-476,-391,-6.05731,6.85303,0,0,0,0,0,0,0,-1,748,1415,-6.05728,-6.85304
-469,-391,-3.88953,5.0979,0,0,0,0,0,0,0,-1,755,1415,-3.88955,-5.09794
-462,-391,-8.67688,2.03125,0,0,0,0,0,0,0,-1,762,1415,-8.67685,-2.03121
-455,-391,-8.65576,6.46997,0,0,0,0,0,0,0,-1,769,1415,-8.65579,-6.46999
-448,-391,-8.39618,4.38403,0,0,0,0,0,0,0,-1,776,1415,-8.39617,-4.38405
-441,-391,-9.77704,2.5946,0,0,0,0,0,0,0,-1,783,1415,-9.77702,-2.5946
-434,-391,-11.5403,2.12878,0,0,0,0,0,0,0,-1,790,1415,-11.5403,-2.12881
-427,-391,-10.5311,2.50403,0,0,0,0,0,0,0,-1,797,1415,-10.5311,-2.504
-420,-391,-14.7087,1.24365,0,0,0,0,0,0,0,-1,804,1415,-14.7088,-1.24365
-413,-391,0,0,0,0,0,0,0,0,0,-1,811,1415,0,0
-406,-391,0,0,0,0,0,0,0,0,0,-1,818,1415,0,0
-399,-391,0,0,0,0,0,0,0,0,0,-1,825,1415,0,0
-392,-391,0,0,0,0,0,0,0,0,0,-1,832,1415,0,0
-385,-391,0,0,0,0,0,0,0,0,0,-1,839,1415,0,0
-378,-391,0,0,0,0,0,0,0,0,0,-1,846,1415,0,0
-371,-391,0,0,0,0,0,0,0,0,0,-1,853,1415,0,0
-364,-391,0,0,0,0,0,0,0,0,0,-1,860,1415,0,0
-357,-391,0,0,0,0,0,0,0,0,0,-1,867,1415,0,0
-350,-391,0,0,0,0,0,0,0,0,0,-1,874,1415,0,0
-343,-391,0,0,0,0,0,0,0,0,0,-1,881,1415,0,0
-336,-391,0,0,0,0,0,0,0,0,0,-1,888,1415,0,0
-329,-391,0,0,0,0,0,0,0,0,0,-1,895,1415,0,0
-322,-391,0,0,0,0,0,0,0,0,0,-1,902,1415,0,0
-315,-391,0,0,0,0,0,0,0,0,0,-1,909,1415,0,0
-308,-391,0,0,0,0,0,0,0,0,0,-1,916,1415,0,0
-301,-391,0,0,0,0,0,0,0,0,0,-1,923,1415,0,0
-294,-391,0,0,0,0,0,0,0,0,0,-1,930,1415,0,0
-287,-391,0,0,0,0,0,0,0,0,0,-1,937,1415,0,0
-280,-391,0,0,0,0,0,0,0,0,0,-1,944,1415,0,0
-273,-391,0,0,0,0,0,0,0,0,0,-1,951,1415,0,0
-266,-391,0,0,0,0,0,0,0,0,0,-1,958,1415,0,0
-259,-391,0,0,0,0,0,0,0,0,0,-1,965,1415,0,0
-252,-391,0,0,0,0,0,0,0,0,0,-1,972,1415,0,0
-245,-391,0,0,0,0,0,0,0,0,0,-1,979,1415,0,0
-238,-391,0,0,0,0,0,0,0,0,0,-1,986,1415,0,0
-231,-391,0,0,0,0,0,0,0,0,0,-1,993,1415,0,0
-224,-391,0,0,0,0,0,0,0,0,0,-1,1000,1415,0,0
-217,-391,0,0,0,0,0,0,0,0,0,-1,1007,1415,0,0
-210,-391,0,0,0,0,0,0,0,0,0,-1,1014,1415,0,0
-203,-391,0,0,0,0,0,0,0,0,0,-1,1021,1415,0,0
-196,-391,0,0,0,0,0,0,0,0,0,-1,1028,1415,0,0
-189,-391,0,0,0,0,0,0,0,0,0,-1,1035,1415,0,0
-182,-391,0,0,0,0,0,0,0,0,0,-1,1042,1415,0,0
-175,-391,0,0,0,0,0,0,0,0,0,-1,1049,1415,0,0
-168,-391,0,0,0,0,0,0,0,0,0,-1,1056,1415,0,0
-161,-391,0,0,0,0,0,0,0,0,0,-1,1063,1415,0,0
-154,-391,0,0,0,0,0,0,0,0,0,-1,1070,1415,0,0
-147,-391,0,0,0,0,0,0,0,0,0,-1,1077,1415,0,0
-140,-391,0,0,0,0,0,0,0,0,0,-1,1084,1415,0,0
-133,-391,0,0,0,0,0,0,0,0,0,-1,1091,1415,0,0
-126,-391,0,0,0,0,0,0,0,0,0,-1,1098,1415,0,0
-119,-391,0,0,0,0,0,0,0,0,0,-1,1105,1415,0,0
-112,-391,0,0,0,0,0,0,0,0,0,-1,1112,1415,0,0
-105,-391,0,0,0,0,0,0,0,0,0,-1,1119,1415,0,0
-98,-391,0,0,0,0,0,0,0,0,0,-1,1126,1415,0,0
-91,-391,0,0,0,0,0,0,0,0,0,-1,1133,1415,0,0
-84,-391,0,0,0,0,0,0,0,0,0,-1,1140,1415,0,0
-77,-391,0,0,0,0,0,0,0,0,0,-1,1147,1415,0,0
-70,-391,0,0,0,0,0,0,0,0,0,-1,1154,1415,0,0
-63,-391,0,0,0,0,0,0,0,0,0,-1,1161,1415,0,0
-56,-391,0,0,0,0,0,0,0,0,0,-1,1168,1415,0,0
-49,-391,0,0,0,0,0,0,0,0,0,-1,1175,1415,0,0
-42,-391,0,0,0,0,0,0,0,0,0,-1,1182,1415,0,0
-35,-391,0,0,0,0,0,0,0,0,0,-1,1189,1415,0,0
-28,-391,0,0,0,0,0,0,0,0,0,-1,1196,1415,0,0
-21,-391,0,0,0,0,0,0,0,0,0,-1,1203,1415,0,0
-14,-391,0,0,0,0,0,0,0,0,0,-1,1210,1415,0,0
-7,-391,0,0,0,0,0,0,0,0,0,-1,1217,1415,0,0
0,-391,0,0,0,0,0,0,0,0,0,-1,1224,1415,0,0
7,-391,0,0,0,0,0,0,0,0,0,-1,1231,1415,0,0
14,-391,0,0,0,0,0,0,0,0,0,-1,1238,1415,0,0
21,-391,0,0,0,0,0,0,0,0,0,-1,1245,1415,0,0
28,-391,0,0,0,0,0,0,0,0,0,-1,1252,1415,0,0
35,-391,0,0,0,0,0,0,0,0,0,-1,1259,1415,0,0
42,-391,0,0,0,0,0,0,0,0,0,-1,1266,1415,0,0
49,-391,0,0,0,0,0,0,0,0,0,-1,1273,1415,0,0
56,-391,0,0,0,0,0,0,0,0,0,-1,1280,1415,0,0
63,-391,0,0,0,0,0,0,0,0,0,-1,1287,1415,0,0
70,-391,0,0,0,0,0,0,0,0,0,-1,1294,1415,0,0
77,-391,0,0,0,0,0,0,0,0,0,-1,1301,1415,0,0
84,-391,0,0,0,0,0,0,0,0,0,-1,1308,1415,0,0
91,-391,0,0,0,0,0,0,0,0,0,-1,1315,1415,0,0
98,-391,0,0,0,0,0,0,0,0,0,-1,1322,1415,0,0
105,-391,0,0,0,0,0,0,0,0,0,-1,1329,1415,0,0
112,-391,0,0,0,0,0,0,0,0,0,-1,1336,1415,0,0
119,-391,0,0,0,0,0,0,0,0,0,-1,1343,1415,0,0
126,-391,0,0,0,0,0,0,0,0,0,-1,1350,1415,0,0
133,-391,0,0,0,0,0,0,0,0,0,-1,1357,1415,0,0
140,-391,0,0,0,0,0,0,0,0,0,-1,1364,1415,0,0
147,-391,0,0,0,0,0,0,0,0,0,-1,1371,1415,0,0
154,-391,0,0,0,0,0,0,0,0,0,-1,1378,1415,0,0
161,-391,0,0,0,0,0,0,0,0,0,-1,1385,1415,0,0
168,-391,0,0,0,0,0,0,0,0,0,-1,1392,1415,0,0
175,-391,0,0,0,0,0,0,0,0,0,-1,1399,1415,0,0
182,-391,0,0,0,0,0,0,0,0,0,-1,1406,1415,0,0
189,-391,0,0,0,0,0,0,0,0,0,-1,1413,1415,0,0
196,-391,0,0,0,0,0,0,0,0,0,-1,1420,1415,0,0
203,-391,0,0,0,0,0,0,0,0,0,-1,1427,1415,0,0
210,-391,0,0,0,0,0,0,0,0,0,-1,1434,1415,0,0
217,-391,0,0,0,0,0,0,0,0,0,-1,1441,1415,0,0
224,-391,0,0,0,0,0,0,0,0,0,-1,1448,1415,0,0
231,-391,0,0,0,0,0,0,0,0,0,-1,1455,1415,0,0
238,-391,0,0,0,0,0,0,0,0,0,-1,1462,1415,0,0
245,-391,0,0,0,0,0,0,0,0,0,-1,1469,1415,0,0
252,-391,0,0,0,0,0,0,0,0,0,-1,1476,1415,0,0
259,-391,0,0,0,0,0,0,0,0,0,-1,1483,1415,0,0
266,-391,0,0,0,0,0,0,0,0,0,-1,1490,1415,0,0
273,-391,0,0,0,0,0,0,0,0,0,-1,1497,1415,0,0
280,-391,0,0,0,0,0,0,0,0,0,-1,1504,1415,0,0
287,-391,0,0,0,0,0,0,0,0,0,-1,1511,1415,0,0
294,-391,0,0,0,0,0,0,0,0,0,-1,1518,1415,0,0
301,-391,0,0,0,0,0,0,0,0,0,-1,1525,1415,0,0
308,-391,0,0,0,0,0,0,0,0,0,-1,1532,1415,0,0
315,-391,0,0,0,0,0,0,0,0,0,-1,1539,1415,0,0
322,-391,0,0,0,0,0,0,0,0,0,-1,1546,1415,0,0
329,-391,0,0,0,0,0,0,0,0,0,-1,1553,1415,0,0
336,-391,0,0,0,0,0,0,0,0,0,-1,1560,1415,0,0
343,-391,0,0,0,0,0,0,0,0,0,-1,1567,1415,0,0
350,-391,0,0,0,0,0,0,0,0,0,-1,1574,1415,0,0
357,-391,0,0,0,0,0,0,0,0,0,-1,1581,1415,0,0
364,-391,0,0,0,0,0,0,0,0,0,-1,1588,1415,0,0
371,-391,0,0,0,0,0,0,0,0,0,-1,1595,1415,0,0
378,-391,0,0,0,0,0,0,0,0,0,-1,1602,1415,0,0
385,-391,0,0,0,0,0,0,0,0,0,-1,1609,1415,0,0
392,-391,0,0,0,0,0,0,0,0,0,-1,1616,1415,0,0
399,-391,0,0,0,0,0,0,0,0,0,-1,1623,1415,0,0
406,-391,0,0,0,0,0,0,0,0,0,-1,1630,1415,0,0
413,-391,0,0,0,0,0,0,0,0,0,-1,1637,1415,0,0
420,-391,0,0,0,0,0,0,0,0,0,-1,1644,1415,0,0
427,-391,0,0,0,0,0,0,0,0,0,-1,1651,1415,0,0
434,-391,0,0,0,0,0,0,0,0,0,-1,1658,1415,0,0
441,-391,0,0,0,0,0,0,0,0,0,-1,1665,1415,0,0
448,-391,0,0,0,0,0,0,0,0,0,-1,1672,1415,0,0
455,-391,0,0,0,0,0,0,0,0,0,-1,1679,1415,0,0
462,-391,0,0,0,0,0,0,0,0,0,-1,1686,1415,0,0
469,-391,0,0,0,0,0,0,0,0,0,-1,1693,1415,0,0
476,-391,0,0,0,0,0,0,0,0,0,-1,1700,1415,0,0
483,-391,0,0,0,0,0,0,0,0,0,-1,1707,1415,0,0
490,-391,0,0,0,0,0,0,0,0,0,-1,1714,1415,0,0
497,-391,0,0,0,0,0,0,0,0,0,-1,1721,1415,0,0
504,-391,0,0,0,0,0,0,0,0,0,-1,1728,1415,0,0
511,-391,0,0,0,0,0,0,0,0,0,-1,1735,1415,0,0
518,-391,0,0,0,0,0,0,0,0,0,-1,1742,1415,0,0
525,-391,0,0,0,0,0,0,0,0,0,-1,1749,1415,0,0
532,-391,28.5959,3.02356,0,0,0,0,0,0,0,-1,1756,1415,28.596,-3.02358
539,-391,27.5881,3.25012,0,0,0,0,0,0,0,-1,1763,1415,27.5882,-3.25016
546,-391,27.2837,3.28064,0,0,0,0,0,0,0,-1,1770,1415,27.2837,-3.28064
553,-391,32.5952,5.04553,0,0,0,0,0,0,0,-1,1777,1415,32.5952,-5.04551
560,-391,31.2947,5.67017,0,0,0,0,0,0,0,-1,1784,1415,31.2947,-5.67011
567,-391,30.1473,6.17603,0,0,0,0,0,0,0,-1,1791,1415,30.1473,-6.17602
574,-391,27.5656,5.6842,0,0,0,0,0,0,0,-1,1798,1415,27.5655,-5.68422
581,-391,25.8883,5.76123,0,0,0,0,0,0,0,-1,1805,1415,25.8883,-5.76124
588,-391,24.2717,5.47986,0,0,0,0,0,0,0,-1,1812,1415,24.2717,-5.47982
595,-391,22.8827,6.1991,0,0,0,0,0,0,0,-1,1819,1415,22.8827,-6.19909
602,-391,15.1635,5.69849,0,0,0,0,0,0,0,-1,1826,1415,15.1635,-5.69847
609,-391,14.8285,7.50476,0,0,0,0,0,0,0,-1,1833,1415,14.8285,-7.50479
616,-391,20.2079,11.7131,0,0,0,0,0,0,0,-1,1840,1415,20.2079,-11.7132
623,-391,20.6799,11.6019,0,0,0,0,0,0,0,-1,1847,1415,20.68,-11.6019
630,-391,20.7828,11.1678,-0.000726996,0.00176402,-0.000943637,0.00208112,-0.0010441,-1.24661,0.00183716,0.0284089,1854,1415,20.7828,-11.1679
637,-391,20.7284,10.8702,-0.000131336,0.00112517,-0.000747604,0.00147345,-0.000479614,-1.13483,0.00117526,0.015061,1861,1415,20.7284,-10.8702
644,-391,20.6906,10.5259,0.00026435,0.000730202,-0.000517505,0.00106478,-7.02321e-05,-0.996865,0.000734387,0.0154964,1868,1415,20.6905,-10.5259
651,-391,20.6975,10.1465,0.000623053,0.00042743,-0.000270166,0.000812569,0.000237914,-0.611717,0.000482378,0.0165654,1875,1415,20.6975,-10.1465
658,-391,20.7047,9.76184,0.000994376,0.000203169,-3.70929e-05,0.000996111,0.000201434,-0.0467447,0.000608153,0.0161975,1882,1415,20.7047,-9.76188
665,-391,20.7137,9.38794,0.00128654,4.04792e-05,0.000269077,0.00134216,-1.51433e-05,0.203844,0.000899863,0.0132476,1889,1415,20.7137,-9.38798
672,-391,20.7137,9.03381,0.00157456,-6.60407e-05,0.00059432,0.00176723,-0.000258711,0.313495,0.00127318,0.0118569,1896,1415,20.7137,-9.03386
679,-391,20.7024,8.67236,0.00193414,-0.000223014,0.000961846,0.00230072,-0.000589594,0.364126,0.00176351,0.0115396,1903,1415,20.7023,-8.67236
686,-391,20.7123,8.29626,0.00234868,-0.000508153,0.00144501,0.00295211,-0.00111159,0.395586,0.00242507,0.0143863,1910,1415,20.7123,-8.29627
693,-391,20.6552,8.06836,0.00281667,-0.000811076,0.00198692,0.00369315,-0.00168756,0.415449,0.00317767,0.0345965,1917,1415,20.6552,-8.06837
700,-391,20.6388,7.85547,0,0,0,0,0,0,0,-1,1924,1415,20.6388,-7.85544
707,-391,12.9524,5.96851,0,0,0,0,0,0,0,-1,1931,1415,12.9524,-5.96849
714,-391,15.6875,7.67896,0,0,0,0,0,0,0,-1,1938,1415,15.6875,-7.67893
721,-391,14.1808,8.08435,0,0,0,0,0,0,0,-1,1945,1415,14.1808,-8.08439
728,-391,13.8102,7.28174,0,0,0,0,0,0,0,-1,1952,1415,13.8102,-7.28174
735,-391,0,0,0,0,0,0,0,0,0,-1,1959,1415,0,0
742,-391,0,0,0,0,0,0,0,0,0,-1,1966,1415,0,0
749,-391,0,0,0,0,0,0,0,0,0,-1,1973,1415,0,0
756,-391,0,0,0,0,0,0,0,0,0,-1,1980,1415,0,0
763,-391,0,0,0,0,0,0,0,0,0,-1,1987,1415,0,0
770,-391,0,0,0,0,0,0,0,0,0,-1,1994,1415,0,0
777,-391,0,0,0,0,0,0,0,0,0,-1,2001,1415,0,0
784,-391,0,0,0,0,0,0,0,0,0,-1,2008,1415,0,0
791,-391,0,0,0,0,0,0,0,0,0,-1,2015,1415,0,0
798,-391,0,0,0,0,0,0,0,0,0,-1,2022,1415,0,0
805,-391,0,0,0,0,0,0,0,0,0,-1,2029,1415,0,0
812,-391,0,0,0,0,0,0,0,0,0,-1,2036,1415,0,0
-700,-398,0,0,0,0,0,0,0,0,0,-1,524,1422,0,0
-693,-398,0,0,0,0,0,0,0,0,0,-1,531,1422,0,0
-686,-398,0,0,0,0,0,0,0,0,0,-1,538,1422,0,0
-679,-398,0,0,0,0,0,0,0,0,0,-1,545,1422,0,0
-672,-398,0,0,0,0,0,0,0,0,0,-1,552,1422,0,0
-665,-398,0,0,0,0,0,0,0,0,0,-1,559,1422,0,0
-658,-398,0,0,0,0,0,0,0,0,0,-1,566,1422,0,0
-651,-398,0,0,0,0,0,0,0,0,0,-1,573,1422,0,0
-644,-398,0,0,0,0,0,0,0,0,0,-1,580,1422,0,0
-637,-398,0,0,0,0,0,0,0,0,0,-1,587,1422,0,0
-630,-398,0,0,0,0,0,0,0,0,0,-1,594,1422,0,0
-623,-398,0,0,0,0,0,0,0,0,0,-1,601,1422,0,0
-616,-398,0,0,0,0,0,0,0,0,0,-1,608,1422,0,0
-609,-398,-7.47125,-4.05322,0,0,0,0,0,0,0,-1,615,1422,-7.47128,4.05317
-602,-398,-4.58868,-2.77026,0,0,0,0,0,0,0,-1,622,1422,-4.58869,2.77023
-595,-398,-12.2224,-1.82007,0,0,0,0,0,0,0,-1,629,1422,-12.2224,1.82006
-588,-398,-10.6939,1.32336,0,0,0,0,0,0,0,-1,636,1422,-10.6939,-1.32337
-581,-398,-10.433,3.1123,0,0,0,0,0,0,0,-1,643,1422,-10.433,-3.11233
-574,-398,-6.07343,3.35437,0,0,0,0,0,0,0,-1,650,1422,-6.07343,-3.35439
-567,-398,-8.46008,5.53882,0,0,0,0,0,0,0,-1,657,1422,-8.46011,-5.53886
-560,-398,-8.4776,6.01099,0,0,0,0,0,0,0,-1,664,1422,-8.47762,-6.01101
-553,-398,-8.57574,6.32349,-0.00467488,0.00228224,0.00357859,0.00379434,-0.00618698,1.17101,0.00581765,0.0487845,671,1422,-8.57577,-6.32346
-546,-398,-8.71008,6.58228,-0.00406453,0.000986418,0.00140182,0.00134939,-0.00442751,1.31743,0.00348955,0.0226698,678,1422,-8.71007,-6.58224
-539,-398,-8.64178,7.03528,-0.00291811,0.000301213,0.000501253,0.000377453,-0.00299435,1.41985,0.00213321,0.0120249,685,1422,-8.64176,-7.03523
-532,-398,-8.65308,7.46887,-0.00151204,0.000106139,0.000332744,0.000171889,-0.00157779,1.37571,0.00111358,0.0199723,692,1422,-8.6531,-7.46883
-525,-398,-8.66168,7.87964,5.82699e-05,4.66075e-05,0.000345388,0.000397875,-0.000292998,0.776957,0.000400405,0.0198661,699,1422,-8.6617,-7.87964
-518,-398,-8.68451,8.271,0.00169979,0.000278801,0.000949822,0.00217545,-0.000196859,0.464279,0.00152018,0.0176525,706,1422,-8.68453,-8.27102
-511,-398,-8.70074,8.63074,0.00343696,0.000353764,0.00171743,0.0042032,-0.000412469,0.419649,0.00294925,0.0137223,713,1422,-8.70076,-8.63076
-504,-398,-8.71796,9.05286,0.00537302,0.000504068,0.00261068,0.00650818,-0.000631095,0.410155,0.00456372,0.0133809,720,1422,-8.71793,-9.05281
-497,-398,-8.72955,9.47351,0.00719804,0.000398722,0.00333838,0.00856309,-0.000966327,0.388152,0.00605659,0.00931601,727,1422,-8.72957,-9.47354
-490,-398,-8.73358,9.88965,0.00858395,-0.00042609,0.00370636,0.00991266,-0.00175479,0.34422,0.00726437,0.0142783,734,1422,-8.73355,-9.88965
-483,-398,-8.53662,10.4244,0.0091614,-0.00231922,0.00354061,0.0101655,-0.00332332,0.27634,0.00811487,0.0415275,741,1422,-8.53664,-10.4245
-476,-398,-8.03644,10.9382,0,0,0,0,0,0,0,-1,748,1422,-8.03641,-10.9383
-469,-398,-8.41608,10.077,0,0,0,0,0,0,0,-1,755,1422,-8.41605,-10.077
-462,-398,-9.59753,9.32532,0,0,0,0,0,0,0,-1,762,1422,-9.59753,-9.32531
-455,-398,-8.08331,6.75024,0,0,0,0,0,0,0,-1,769,1422,-8.08333,-6.75022
-448,-398,-7.4505,5.25293,0,0,0,0,0,0,0,-1,776,1422,-7.4505,-5.25291
-441,-398,-7.61639,3.32141,0,0,0,0,0,0,0,-1,783,1422,-7.61637,-3.32145
-434,-398,-10.7618,3.297,0,0,0,0,0,0,0,-1,790,1422,-10.7618,-3.29704
-427,-398,-11.9061,2.24939,0,0,0,0,0,0,0,-1,797,1422,-11.9061,-2.24941
-420,-398,-13.467,2.32788,0,0,0,0,0,0,0,-1,804,1422,-13.467,-2.32787
-413,-398,-14.7983,2.15515,0,0,0,0,0,0,0,-1,811,1422,-14.7983,-2.15516
-406,-398,0,0,0,0,0,0,0,0,0,-1,818,1422,0,0
-399,-398,0,0,0,0,0,0,0,0,0,-1,825,1422,0,0
-392,-398,0,0,0,0,0,0,0,0,0,-1,832,1422,0,0
-385,-398,0,0,0,0,0,0,0,0,0,-1,839,1422,0,0
-378,-398,0,0,0,0,0,0,0,0,0,-1,846,1422,0,0
-371,-398,0,0,0,0,0,0,0,0,0,-1,853,1422,0,0
-364,-398,0,0,0,0,0,0,0,0,0,-1,860,1422,0,0
-357,-398,0,0,0,0,0,0,0,0,0,-1,867,1422,0,0
-350,-398,0,0,0,0,0,0,0,0,0,-1,874,1422,0,0
-343,-398,0,0,0,0,0,0,0,0,0,-1,881,1422,0,0
-336,-398,0,0,0,0,0,0,0,0,0,-1,888,1422,0,0
-329,-398,0,0,0,0,0,0,0,0,0,-1,895,1422,0,0
-322,-398,0,0,0,0,0,0,0,0,0,-1,902,1422,0,0
-315,-398,0,0,0,0,0,0,0,0,0,-1,909,1422,0,0
-308,-398,0,0,0,0,0,0,0,0,0,-1,916,1422,0,0
-301,-398,0,0,0,0,0,0,0,0,0,-1,923,1422,0,0
-294,-398,0,0,0,0,0,0,0,0,0,-1,930,1422,0,0
-287,-398,0,0,0,0,0,0,0,0,0,-1,937,1422,0,0
-280,-398,0,0,0,0,0,0,0,0,0,-1,944,1422,0,0
-273,-398,0,0,0,0,0,0,0,0,0,-1,951,1422,0,0
-266,-398,0,0,0,0,0,0,0,0,0,-1,958,1422,0,0
-259,-398,0,0,0,0,0,0,0,0,0,-1,965,1422,0,0
-252,-398,0,0,0,0,0,0,0,0,0,-1,972,1422,0,0
-245,-398,0,0,0,0,0,0,0,0,0,-1,979,1422,0,0
-238,-398,0,0,0,0,0,0,0,0,0,-1,986,1422,0,0
-231,-398,0,0,0,0,0,0,0,0,0,-1,993,1422,0,0
-224,-398,0,0,0,0,0,0,0,0,0,-1,1000,1422,0,0
-217,-398,0,0,0,0,0,0,0,0,0,-1,1007,1422,0,0
-210,-398,0,0,0,0,0,0,0,0,0,-1,1014,1422,0,0
-203,-398,0,0,0,0,0,0,0,0,0,-1,1021,1422,0,0
-196,-398,0,0,0,0,0,0,0,0,0,-1,1028,1422,0,0
-189,-398,0,0,0,0,0,0,0,0,0,-1,1035,1422,0,0
-182,-398,0,0,0,0,0,0,0,0,0,-1,1042,1422,0,0
-175,-398,0,0,0,0,0,0,0,0,0,-1,1049,1422,0,0
-168,-398,0,0,0,0,0,0,0,0,0,-1,1056,1422,0,0
-161,-398,0,0,0,0,0,0,0,0,0,-1,1063,1422,0,0
-154,-398,0,0,0,0,0,0,0,0,0,-1,1070,1422,0,0
-147,-398,0,0,0,0,0,0,0,0,0,-1,1077,1422,0,0
-140,-398,0,0,0,0,0,0,0,0,0,-1,1084,1422,0,0
-133,-398,0,0,0,0,0,0,0,0,0,-1,1091,1422,0,0
-126,-398,0,0,0,0,0,0,0,0,0,-1,1098,1422,0,0
-119,-398,0,0,0,0,0,0,0,0,0,-1,1105,1422,0,0
-112,-398,0,0,0,0,0,0,0,0,0,-1,1112,1422,0,0
-105,-398,0,0,0,0,0,0,0,0,0,-1,1119,1422,0,0
-98,-398,0,0,0,0,0,0,0,0,0,-1,1126,1422,0,0
-91,-398,0,0,0,0,0,0,0,0,0,-1,1133,1422,0,0
-84,-398,0,0,0,0,0,0,0,0,0,-1,1140,1422,0,0
-77,-398,0,0,0,0,0,0,0,0,0,-1,1147,1422,0,0
-70,-398,0,0,0,0,0,0,0,0,0,-1,1154,1422,0,0
-63,-398,0,0,0,0,0,0,0,0,0,-1,1161,1422,0,0
-56,-398,0,0,0,0,0,0,0,0,0,-1,1168,1422,0,0
-49,-398,0,0,0,0,0,0,0,0,0,-1,1175,1422,0,0
-42,-398,0,0,0,0,0,0,0,0,0,-1,1182,1422,0,0
-35,-398,0,0,0,0,0,0,0,0,0,-1,1189,1422,0,0
-28,-398,0,0,0,0,0,0,0,0,0,-1,1196,1422,0,0
-21,-398,0,0,0,0,0,0,0,0,0,-1,1203,1422,0,0
-14,-398,0,0,0,0,0,0,0,0,0,-1,1210,1422,0,0
-7,-398,0,0,0,0,0,0,0,0,0,-1,1217,1422,0,0
0,-398,0,0,0,0,0,0,0,0,0,-1,1224,1422,0,0
7,-398,0,0,0,0,0,0,0,0,0,-1,1231,1422,0,0
14,-398,0,0,0,0,0,0,0,0,0,-1,1238,1422,0,0
21,-398,0,0,0,0,0,0,0,0,0,-1,1245,1422,0,0
28,-398,0,0,0,0,0,0,0,0,0,-1,1252,1422,0,0
35,-398,0,0,0,0,0,0,0,0,0,-1,1259,1422,0,0
42,-398,0,0,0,0,0,0,0,0,0,-1,1266,1422,0,0
49,-398,0,0,0,0,0,0,0,0,0,-1,1273,1422,0,0
56,-398,0,0,0,0,0,0,0,0,0,-1,1280,1422,0,0
63,-398,0,0,0,0,0,0,0,0,0,-1,1287,1422,0,0
70,-398,0,0,0,0,0,0,0,0,0,-1,1294,1422,0,0
77,-398,0,0,0,0,0,0,0,0,0,-1,1301,1422,0,0
84,-398,0,0,0,0,0,0,0,0,0,-1,1308,1422,0,0
91,-398,0,0,0,0,0,0,0,0,0,-1,1315,1422,0,0
98,-398,0,0,0,0,0,0,0,0,0,-1,1322,1422,0,0
105,-398,0,0,0,0,0,0,0,0,0,-1,1329,1422,0,0
112,-398,0,0,0,0,0,0,0,0,0,-1,1336,1422,0,0
119,-398,0,0,0,0,0,0,0,0,0,-1,1343,1422,0,0
126,-398,0,0,0,0,0,0,0,0,0,-1,1350,1422,0,0
133,-398,0,0,0,0,0,0,0,0,0,-1,1357,1422,0,0
140,-398,0,0,0,0,0,0,0,0,0,-1,1364,1422,0,0
147,-398,0,0,0,0,0,0,0,0,0,-1,1371,1422,0,0
154,-398,0,0,0,0,0,0,0,0,0,-1,1378,1422,0,0
161,-398,0,0,0,0,0,0,0,0,0,-1,1385,1422,0,0
168,-398,0,0,0,0,0,0,0,0,0,-1,1392,1422,0,0
175,-398,0,0,0,0,0,0,0,0,0,-1,1399,1422,0,0
182,-398,0,0,0,0,0,0,0,0,0,-1,1406,1422,0,0
189,-398,0,0,0,0,0,0,0,0,0,-1,1413,1422,0,0
196,-398,0,0,0,0,0,0,0,0,0,-1,1420,1422,0,0
203,-398,0,0,0,0,0,0,0,0,0,-1,1427,1422,0,0
210,-398,0,0,0,0,0,0,0,0,0,-1,1434,1422,0,0
217,-398,0,0,0,0,0,0,0,0,0,-1,1441,1422,0,0
224,-398,0,0,0,0,0,0,0,0,0,-1,1448,1422,0,0
231,-398,0,0,0,0,0,0,0,0,0,-1,1455,1422,0,0
238,-398,0,0,0,0,0,0,0,0,0,-1,1462,1422,0,0
245,-398,0,0,0,0,0,0,0,0,0,-1,1469,1422,0,0
252,-398,0,0,0,0,0,0,0,0,0,-1,1476,1422,0,0
259,-398,0,0,0,0,0,0,0,0,0,-1,1483,1422,0,0
266,-398,0,0,0,0,0,0,0,0,0,-1,1490,1422,0,0
273,-398,0,0,0,0,0,0,0,0,0,-1,1497,1422,0,0
280,-398,0,0,0,0,0,0,0,0,0,-1,1504,1422,0,0
287,-398,0,0,0,0,0,0,0,0,0,-1,1511,1422,0,0
294,-398,0,0,0,0,0,0,0,0,0,-1,1518,1422,0,0
301,-398,0,0,0,0,0,0,0,0,0,-1,1525,1422,0,0
308,-398,0,0,0,0,0,0,0,0,0,-1,1532,1422,0,0
315,-398,0,0,0,0,0,0,0,0,0,-1,1539,1422,0,0
322,-398,0,0,0,0,0,0,0,0,0,-1,1546,1422,0,0
329,-398,0,0,0,0,0,0,0,0,0,-1,1553,1422,0,0
336,-398,0,0,0,0,0,0,0,0,0,-1,1560,1422,0,0
343,-398,0,0,0,0,0,0,0,0,0,-1,1567,1422,0,0
350,-398,0,0,0,0,0,0,0,0,0,-1,1574,1422,0,0
357,-398,0,0,0,0,0,0,0,0,0,-1,1581,1422,0,0
364,-398,0,0,0,0,0,0,0,0,0,-1,1588,1422,0,0
371,-398,0,0,0,0,0,0,0,0,0,-1,1595,1422,0,0
378,-398,0,0,0,0,0,0,0,0,0,-1,1602,1422,0,0
385,-398,0,0,0,0,0,0,0,0,0,-1,1609,1422,0,0
392,-398,0,0,0,0,0,0,0,0,0,-1,1616,1422,0,0
399,-398,0,0,0,0,0,0,0,0,0,-1,1623,1422,0,0
406,-398,0,0,0,0,0,0,0,0,0,-1,1630,1422,0,0
413,-398,0,0,0,0,0,0,0,0,0,-1,1637,1422,0,0
420,-398,0,0,0,0,0,0,0,0,0,-1,1644,1422,0,0
427,-398,0,0,0,0,0,0,0,0,0,-1,1651,1422,0,0
434,-398,0,0,0,0,0,0,0,0,0,-1,1658,1422,0,0
441,-398,0,0,0,0,0,0,0,0,0,-1,1665,1422,0,0
448,-398,0,0,0,0,0,0,0,0,0,-1,1672,1422,0,0
455,-398,0,0,0,0,0,0,0,0,0,-1,1679,1422,0,0
462,-398,0,0,0,0,0,0,0,0,0,-1,1686,1422,0,0
469,-398,0,0,0,0,0,0,0,0,0,-1,1693,1422,0,0
476,-398,0,0,0,0,0,0,0,0,0,-1,1700,1422,0,0
483,-398,0,0,0,0,0,0,0,0,0,-1,1707,1422,0,0
490,-398,0,0,0,0,0,0,0,0,0,-1,1714,1422,0,0
497,-398,0,0,0,0,0,0,0,0,0,-1,1721,1422,0,0
504,-398,0,0,0,0,0,0,0,0,0,-1,1728,1422,0,0
511,-398,0,0,0,0,0,0,0,0,0,-1,1735,1422,0,0
518,-398,0,0,0,0,0,0,0,0,0,-1,1742,1422,0,0
525,-398,0,0,0,0,0,0,0,0,0,-1,1749,1422,0,0
532,-398,28.4558,3.84094,0,0,0,0,0,0,0,-1,1756,1422,28.4558,-3.8409
539,-398,27.0594,3.33887,0,0,0,0,0,0,0,-1,1763,1422,27.0595,-3.3389
546,-398,31.6873,5.58582,0,0,0,0,0,0,0,-1,1770,1422,31.6872,-5.58585
553,-398,30.4392,5.92383,0,0,0,0,0,0,0,-1,1777,1422,30.4392,-5.92386
560,-398,29.1621,6.30469,0,0,0,0,0,0,0,-1,1784,1422,29.1621,-6.30469
567,-398,27.8411,6.55029,0,0,0,0,0,0,0,-1,1791,1422,27.8411,-6.55033
574,-398,26.411,6.8916,0,0,0,0,0,0,0,-1,1798,1422,26.411,-6.8916
581,-398,24.75,7.11145,0,0,0,0,0,0,0,-1,1805,1422,24.7499,-7.11142
588,-398,23.1649,7.67969,0,0,0,0,0,0,0,-1,1812,1422,23.1649,-7.67975
595,-398,21.4253,7.86023,0,0,0,0,0,0,0,-1,1819,1422,21.4253,-7.86029
602,-398,19.6857,8.04077,0,0,0,0,0,0,0,-1,1826,1422,19.6856,-8.04083
609,-398,20.4225,12.7622,0,0,0,0,0,0,0,-1,1833,1422,20.4225,-12.7622
616,-398,20.1826,12.1687,0,0,0,0,0,0,0,-1,1840,1422,20.1826,-12.1687
623,-398,20.3639,11.6057,-0.00109528,0.00237459,-0.000903714,0.00259585,-0.00131654,-1.33069,0.00229872,0.0211003,1847,1422,20.3639,-11.6057
630,-398,20.3876,11.2223,-0.00044712,0.00157645,-0.000701915,0.00179609,-0.000666754,-1.26754,0.00147091,0.0119719,1854,1422,20.3876,-11.2223
637,-398,20.3785,10.88,-2.16053e-05,0.000957905,-0.000481963,0.00115528,-0.00021898,-1.18211,0.000852606,0.0131003,1861,1422,20.3786,-10.88
644,-398,20.2913,10.5251,0.000233458,0.000545418,-0.000237584,0.000673649,0.000105227,-1.07587,0.000418458,0.018874,1868,1422,20.2913,-10.5252
651,-398,20.3276,10.1805,0.000482693,0.000254743,-5.14566e-07,0.000482694,0.000254742,-0.00225735,0.000278827,0.0255363,1875,1422,20.3277,-10.1805
658,-398,20.3757,9.81409,0.000728954,5.53718e-05,0.000219885,0.000794379,-1.00529e-05,0.289199,0.000532968,0.0212044,1882,1422,20.3757,-9.81406
665,-398,20.3511,9.41943,0.000907491,-6.10862e-05,0.000503045,0.00112148,-0.000275074,0.402196,0.000854236,0.0145508,1889,1422,20.3511,-9.41946
672,-398,20.335,9.047,0.0010967,-0.000125475,0.000809019,0.00149949,-0.00052826,0.461941,0.00121466,0.012894,1896,1422,20.3349,-9.04701
679,-398,20.3276,8.67407,0.00137082,-0.000267762,0.00117687,0.0019855,-0.000882441,0.481326,0.00169614,0.0118611,1903,1422,20.3276,-8.67412
686,-398,20.3534,8.29968,0.00167307,-0.000571791,0.00171912,0.00260374,-0.00150246,0.49619,0.00239897,0.0200637,1910,1422,20.3534,-8.29973
693,-398,20.1808,8.20459,0,0,0,0,0,0,0,-1,1917,1422,20.1808,-8.20461
700,-398,14.0787,6.53918,0,0,0,0,0,0,0,-1,1924,1422,14.0787,-6.53921
707,-398,10.9731,5.479,0,0,0,0,0,0,0,-1,1931,1422,10.9732,-5.47896
714,-398,11.7313,6.17346,0,0,0,0,0,0,0,-1,1938,1422,11.7313,-6.17348
721,-398,13.9371,8.05103,0,0,0,0,0,0,0,-1,1945,1422,13.9372,-8.05102
728,-398,14.786,7.0282,0,0,0,0,0,0,0,-1,1952,1422,14.786,-7.0282
735,-398,0,0,0,0,0,0,0,0,0,-1,1959,1422,0,0
742,-398,0,0,0,0,0,0,0,0,0,-1,1966,1422,0,0
749,-398,0,0,0,0,0,0,0,0,0,-1,1973,1422,0,0
756,-398,0,0,0,0,0,0,0,0,0,-1,1980,1422,0,0
763,-398,0,0,0,0,0,0,0,0,0,-1,1987,1422,0,0
770,-398,0,0,0,0,0,0,0,0,0,-1,1994,1422,0,0
777,-398,0,0,0,0,0,0,0,0,0,-1,2001,1422,0,0
784,-398,0,0,0,0,0,0,0,0,0,-1,2008,1422,0,0
791,-398,0,0,0,0,0,0,0,0,0,-1,2015,1422,0,0
798,-398,0,0,0,0,0,0,0,0,0,-1,2022,1422,0,0
805,-398,0,0,0,0,0,0,0,0,0,-1,2029,1422,0,0
812,-398,0,0,0,0,0,0,0,0,0,-1,2036,1422,0,0
-700,-405,0,0,0,0,0,0,0,0,0,-1,524,1429,0,0
-693,-405,0,0,0,0,0,0,0,0,0,-1,531,1429,0,0
-686,-405,0,0,0,0,0,0,0,0,0,-1,538,1429,0,0
-679,-405,0,0,0,0,0,0,0,0,0,-1,545,1429,0,0
-672,-405,0,0,0,0,0,0,0,0,0,-1,552,1429,0,0
-665,-405,0,0,0,0,0,0,0,0,0,-1,559,1429,0,0
-658,-405,0,0,0,0,0,0,0,0,0,-1,566,1429,0,0
-651,-405,0,0,0,0,0,0,0,0,0,-1,573,1429,0,0
-644,-405,0,0,0,0,0,0,0,0,0,-1,580,1429,0,0
-637,-405,0,0,0,0,0,0,0,0,0,-1,587,1429,0,0
-630,-405,0,0,0,0,0,0,0,0,0,-1,594,1429,0,0
-623,-405,0,0,0,0,0,0,0,0,0,-1,601,1429,0,0
-616,-405,0,0,0,0,0,0,0,0,0,-1,608,1429,0,0
-609,-405,0,0,0,0,0,0,0,0,0,-1,615,1429,0,0
-602,-405,-5.80988,-3.46594,0,0,0,0,0,0,0,-1,622,1429,-5.80987,3.46592
-595,-405,-9.35413,2.01477,0,0,0,0,0,0,0,-1,629,1429,-9.35411,-2.01476
-588,-405,-7.35693,0.507202,0,0,0,0,0,0,0,-1,636,1429,-7.35696,-0.507187
-581,-405,-10.1284,1.62927,0,0,0,0,0,0,0,-1,643,1429,-10.1284,-1.62922
-574,-405,-9.32074,3.05896,0,0,0,0,0,0,0,-1,650,1429,-9.32077,-3.0589
-567,-405,-6.08093,4.52332,0,0,0,0,0,0,0,-1,657,1429,-6.08094,-4.52335
-560,-405,-8.08057,5.95471,0,0,0,0,0,0,0,-1,664,1429,-8.08057,-5.95466
-553,-405,-8.30579,6.22754,0,0,0,0,0,0,0,-1,671,1429,-8.30579,-6.22757
-546,-405,-8.28345,6.58081,-0.00542181,0.0010021,0.00160762,0.00138196,-0.00580167,1.33877,0.00440136,0.0338475,678,1429,-8.28342,-6.58078
-539,-405,-8.28253,7.00745,-0.0042084,0.000207327,0.000495767,0.000262304,-0.00426338,1.46036,0.0029336,0.0117835,685,1429,-8.28256,-7.00747
-532,-405,-8.27496,7.44861,-0.0027866,-5.34979e-05,0.000153182,-4.49395e-05,-0.00279515,1.51498,0.00184864,0.0153447,692,1429,-8.27497,-7.4486
-525,-405,-8.27625,7.87061,-0.00121359,-0.00014556,7.49466e-06,-0.000145507,-0.00121364,1.56378,0.000765216,0.0150095,699,1429,-8.27624,-7.87062
-518,-405,-8.26685,8.27722,0.000372326,4.84661e-05,0.000463106,0.000700997,-0.000280204,0.617212,0.000583603,0.0151541,706,1429,-8.26683,-8.27722
-511,-405,-8.29279,8.65613,0.00200999,0.000163405,0.00112497,0.00254204,-0.000368645,0.441772,0.00183,0.014461,713,1429,-8.29281,-8.65609
-504,-405,-8.31049,9.07007,0.00379863,0.000320552,0.00189382,0.00463075,-0.000511561,0.413989,0.00327105,0.0152046,720,1429,-8.31049,-9.07003
-497,-405,-8.31226,9.5011,0.0054591,0.000294799,0.00251265,0.00647985,-0.000725952,0.385879,0.0045811,0.0130754,727,1429,-8.31224,-9.50115
-490,-405,-8.32837,9.9115,0.00658635,-0.000454527,0.00275841,0.0075383,-0.00140648,0.332312,0.00555404,0.0117815,734,1429,-8.32838,-9.91153
-483,-405,-8.27484,10.3472,0.00689834,-0.00216541,0.00233636,0.00746514,-0.0027322,0.238001,0.00609515,0.0158885,741,1429,-8.27482,-10.3472
-476,-405,-8.21899,10.7406,0.00697071,-0.00472668,0.00153314,0.00716832,-0.00492429,0.128182,0.00702163,0.0414308,748,1429,-8.219,-10.7406
-469,-405,-8.42383,11.1387,0,0,0,0,0,0,0,-1,755,1429,-8.42383,-11.1387
-462,-405,-8.49969,10.4749,0,0,0,0,0,0,0,-1,762,1429,-8.49968,-10.4748
-455,-405,-9.021,9.51111,0,0,0,0,0,0,0,-1,769,1429,-9.021,-9.51109
-448,-405,-8.4649,6.82813,0,0,0,0,0,0,0,-1,776,1429,-8.46492,-6.82817
-441,-405,-6.6712,4.23767,0,0,0,0,0,0,0,-1,783,1429,-6.67121,-4.23764
-434,-405,-9.62549,3.94189,0,0,0,0,0,0,0,-1,790,1429,-9.62546,-3.94191
-427,-405,-10.9764,3.73926,0,0,0,0,0,0,0,-1,797,1429,-10.9764,-3.73923
-420,-405,-12.1187,3.68506,0,0,0,0,0,0,0,-1,804,1429,-12.1187,-3.68512
-413,-405,-13.5353,3.75659,0,0,0,0,0,0,0,-1,811,1429,-13.5353,-3.75655
-406,-405,-14.7374,3.99817,0,0,0,0,0,0,0,-1,818,1429,-14.7374,-3.99814
-399,-405,0,0,0,0,0,0,0,0,0,-1,825,1429,0,0
-392,-405,0,0,0,0,0,0,0,0,0,-1,832,1429,0,0
-385,-405,0,0,0,0,0,0,0,0,0,-1,839,1429,0,0
-378,-405,0,0,0,0,0,0,0,0,0,-1,846,1429,0,0
-371,-405,0,0,0,0,0,0,0,0,0,-1,853,1429,0,0
-364,-405,0,0,0,0,0,0,0,0,0,-1,860,1429,0,0
-357,-405,0,0,0,0,0,0,0,0,0,-1,867,1429,0,0
-350,-405,0,0,0,0,0,0,0,0,0,-1,874,1429,0,0
-343,-405,0,0,0,0,0,0,0,0,0,-1,881,1429,0,0
-336,-405,0,0,0,0,0,0,0,0,0,-1,888,1429,0,0
-329,-405,0,0,0,0,0,0,0,0,0,-1,895,1429,0,0
-322,-405,0,0,0,0,0,0,0,0,0,-1,902,1429,0,0
-315,-405,0,0,0,0,0,0,0,0,0,-1,909,1429,0,0
-308,-405,0,0,0,0,0,0,0,0,0,-1,916,1429,0,0
-301,-405,0,0,0,0,0,0,0,0,0,-1,923,1429,0,0
-294,-405,0,0,0,0,0,0,0,0,0,-1,930,1429,0,0
-287,-405,0,0,0,0,0,0,0,0,0,-1,937,1429,0,0
-280,-405,0,0,0,0,0,0,0,0,0,-1,944,1429,0,0
-273,-405,0,0,0,0,0,0,0,0,0,-1,951,1429,0,0
-266,-405,0,0,0,0,0,0,0,0,0,-1,958,1429,0,0
-259,-405,0,0,0,0,0,0,0,0,0,-1,965,1429,0,0
-252,-405,0,0,0,0,0,0,0,0,0,-1,972,1429,0,0
-245,-405,0,0,0,0,0,0,0,0,0,-1,979,1429,0,0
-238,-405,0,0,0,0,0,0,0,0,0,-1,986,1429,0,0
-231,-405,0,0,0,0,0,0,0,0,0,-1,993,1429,0,0
-224,-405,0,0,0,0,0,0,0,0,0,-1,1000,1429,0,0
-217,-405,0,0,0,0,0,0,0,0,0,-1,1007,1429,0,0
-210,-405,0,0,0,0,0,0,0,0,0,-1,1014,1429,0,0
-203,-405,0,0,0,0,0,0,0,0,0,-1,1021,1429,0,0
-196,-405,0,0,0,0,0,0,0,0,0,-1,1028,1429,0,0
-189,-405,0,0,0,0,0,0,0,0,0,-1,1035,1429,0,0
-182,-405,0,0,0,0,0,0,0,0,0,-1,1042,1429,0,0
-175,-405,0,0,0,0,0,0,0,0,0,-1,1049,1429,0,0
-168,-405,0,0,0,0,0,0,0,0,0,-1,1056,1429,0,0
-161,-405,0,0,0,0,0,0,0,0,0,-1,1063,1429,0,0
-154,-405,0,0,0,0,0,0,0,0,0,-1,1070,1429,0,0
-147,-405,0,0,0,0,0,0,0,0,0,-1,1077,1429,0,0
-140,-405,0,0,0,0,0,0,0,0,0,-1,1084,1429,0,0
-133,-405,0,0,0,0,0,0,0,0,0,-1,1091,1429,0,0
-126,-405,0,0,0,0,0,0,0,0,0,-1,1098,1429,0,0
-119,-405,0,0,0,0,0,0,0,0,0,-1,1105,1429,0,0
-112,-405,0,0,0,0,0,0,0,0,0,-1,1112,1429,0,0
-105,-405,0,0,0,0,0,0,0,0,0,-1,1119,1429,0,0
-98,-405,0,0,0,0,0,0,0,0,0,-1,1126,1429,0,0
-91,-405,0,0,0,0,0,0,0,0,0,-1,1133,1429,0,0
-84,-405,0,0,0,0,0,0,0,0,0,-1,1140,1429,0,0
-77,-405,0,0,0,0,0,0,0,0,0,-1,1147,1429,0,0
-70,-405,0,0,0,0,0,0,0,0,0,-1,1154,1429,0,0
-63,-405,0,0,0,0,0,0,0,0,0,-1,1161,1429,0,0
-56,-405,0,0,0,0,0,0,0,0,0,-1,1168,1429,0,0
-49,-405,0,0,0,0,0,0,0,0,0,-1,1175,1429,0,0
-42,-405,0,0,0,0,0,0,0,0,0,-1,1182,1429,0,0
-35,-405,0,0,0,0,0,0,0,0,0,-1,1189,1429,0,0
-28,-405,0,0,0,0,0,0,0,0,0,-1,1196,1429,0,0
-21,-405,0,0,0,0,0,0,0,0,0,-1,1203,1429,0,0
-14,-405,0,0,0,0,0,0,0,0,0,-1,1210,1429,0,0
-7,-405,0,0,0,0,0,0,0,0,0,-1,1217,1429,0,0
0,-405,0,0,0,0,0,0,0,0,0,-1,1224,1429,0,0
7,-405,0,0,0,0,0,0,0,0,0,-1,1231,1429,0,0
14,-405,0,0,0,0,0,0,0,0,0,-1,1238,1429,0,0
21,-405,0,0,0,0,0,0,0,0,0,-1,1245,1429,0,0
28,-405,0,0,0,0,0,0,0,0,0,-1,1252,1429,0,0
35,-405,0,0,0,0,0,0,0,0,0,-1,1259,1429,0,0
42,-405,0,0,0,0,0,0,0,0,0,-1,1266,1429,0,0
49,-405,0,0,0,0,0,0,0,0,0,-1,1273,1429,0,0
56,-405,0,0,0,0,0,0,0,0,0,-1,1280,1429,0,0
63,-405,0,0,0,0,0,0,0,0,0,-1,1287,1429,0,0
70,-405,0,0,0,0,0,0,0,0,0,-1,1294,1429,0,0
77,-405,0,0,0,0,0,0,0,0,0,-1,1301,1429,0,0
84,-405,0,0,0,0,0,0,0,0,0,-1,1308,1429,0,0
91,-405,0,0,0,0,0,0,0,0,0,-1,1315,1429,0,0
98,-405,0,0,0,0,0,0,0,0,0,-1,1322,1429,0,0
105,-405,0,0,0,0,0,0,0,0,0,-1,1329,1429,0,0
112,-405,0,0,0,0,0,0,0,0,0,-1,1336,1429,0,0
119,-405,0,0,0,0,0,0,0,0,0,-1,1343,1429,0,0
126,-405,0,0,0,0,0,0,0,0,0,-1,1350,1429,0,0
133,-405,0,0,0,0,0,0,0,0,0,-1,1357,1429,0,0
140,-405,0,0,0,0,0,0,0,0,0,-1,1364,1429,0,0
147,-405,0,0,0,0,0,0,0,0,0,-1,1371,1429,0,0
154,-405,0,0,0,0,0,0,0,0,0,-1,1378,1429,0,0
161,-405,0,0,0,0,0,0,0,0,0,-1,1385,1429,0,0
168,-405,0,0,0,0,0,0,0,0,0,-1,1392,1429,0,0
175,-405,0,0,0,0,0,0,0,0,0,-1,1399,1429,0,0
182,-405,0,0,0,0,0,0,0,0,0,-1,1406,1429,0,0
189,-405,0,0,0,0,0,0,0,0,0,-1,1413,1429,0,0
196,-405,0,0,0,0,0,0,0,0,0,-1,1420,1429,0,0
203,-405,0,0,0,0,0,0,0,0,0,-1,1427,1429,0,0
210,-405,0,0,0,0,0,0,0,0,0,-1,1434,1429,0,0
217,-405,0,0,0,0,0,0,0,0,0,-1,1441,1429,0,0
224,-405,0,0,0,0,0,0,0,0,0,-1,1448,1429,0,0
231,-405,0,0,0,0,0,0,0,0,0,-1,1455,1429,0,0
238,-405,0,0,0,0,0,0,0,0,0,-1,1462,1429,0,0
245,-405,0,0,0,0,0,0,0,0,0,-1,1469,1429,0,0
252,-405,0,0,0,0,0,0,0,0,0,-1,1476,1429,0,0
259,-405,0,0,0,0,0,0,0,0,0,-1,1483,1429,0,0
266,-405,0,0,0,0,0,0,0,0,0,-1,1490,1429,0,0
273,-405,0,0,0,0,0,0,0,0,0,-1,1497,1429,0,0
280,-405,0,0,0,0,0,0,0,0,0,-1,1504,1429,0,0
287,-405,0,0,0,0,0,0,0,0,0,-1,1511,1429,0,0
294,-405,0,0,0,0,0,0,0,0,0,-1,1518,1429,0,0
301,-405,0,0,0,0,0,0,0,0,0,-1,1525,1429,0,0
308,-405,0,0,0,0,0,0,0,0,0,-1,1532,1429,0,0
315,-405,0,0,0,0,0,0,0,0,0,-1,1539,1429,0,0
322,-405,0,0,0,0,0,0,0,0,0,-1,1546,1429,0,0
329,-405,0,0,0,0,0,0,0,0,0,-1,1553,1429,0,0
336,-405,0,0,0,0,0,0,0,0,0,-1,1560,1429,0,0
343,-405,0,0,0,0,0,0,0,0,0,-1,1567,1429,0,0
350,-405,0,0,0,0,0,0,0,0,0,-1,1574,1429,0,0
357,-405,0,0,0,0,0,0,0,0,0,-1,1581,1429,0,0
364,-405,0,0,0,0,0,0,0,0,0,-1,1588,1429,0,0
371,-405,0,0,0,0,0,0,0,0,0,-1,1595,1429,0,0
378,-405,0,0,0,0,0,0,0,0,0,-1,1602,1429,0,0
385,-405,0,0,0,0,0,0,0,0,0,-1,1609,1429,0,0
392,-405,0,0,0,0,0,0,0,0,0,-1,1616,1429,0,0
399,-405,0,0,0,0,0,0,0,0,0,-1,1623,1429,0,0
406,-405,0,0,0,0,0,0,0,0,0,-1,1630,1429,0,0
413,-405,0,0,0,0,0,0,0,0,0,-1,1637,1429,0,0
420,-405,0,0,0,0,0,0,0,0,0,-1,1644,1429,0,0
427,-405,0,0,0,0,0,0,0,0,0,-1,1651,1429,0,0
434,-405,0,0,0,0,0,0,0,0,0,-1,1658,1429,0,0
441,-405,0,0,0,0,0,0,0,0,0,-1,1665,1429,0,0
448,-405,0,0,0,0,0,0,0,0,0,-1,1672,1429,0,0
455,-405,0,0,0,0,0,0,0,0,0,-1,1679,1429,0,0
462,-405,0,0,0,0,0,0,0,0,0,-1,1686,1429,0,0
469,-405,0,0,0,0,0,0,0,0,0,-1,1693,1429,0,0
476,-405,0,0,0,0,0,0,0,0,0,-1,1700,1429,0,0
483,-405,0,0,0,0,0,0,0,0,0,-1,1707,1429,0,0
490,-405,0,0,0,0,0,0,0,0,0,-1,1714,1429,0,0
497,-405,0,0,0,0,0,0,0,0,0,-1,1721,1429,0,0
504,-405,0,0,0,0,0,0,0,0,0,-1,1728,1429,0,0
511,-405,0,0,0,0,0,0,0,0,0,-1,1735,1429,0,0
518,-405,0,0,0,0,0,0,0,0,0,-1,1742,1429,0,0
525,-405,31.1563,-1.40942,0,0,0,0,0,0,0,-1,1749,1429,31.1563,1.40937
532,-405,28.156,4.8783,0,0,0,0,0,0,0,-1,1756,1429,28.1561,-4.87833
539,-405,26.5133,3.02454,0,0,0,0,0,0,0,-1,1763,1429,26.5133,-3.0246
546,-405,29.5735,6.53052,0,0,0,0,0,0,0,-1,1770,1429,29.5735,-6.53049
553,-405,28.2911,6.70654,0,0,0,0,0,0,0,-1,1777,1429,28.2912,-6.70656
560,-405,26.9299,7.08472,0,0,0,0,0,0,0,-1,1784,1429,26.9299,-7.08469
567,-405,25.804,7.14661,0,0,0,0,0,0,0,-1,1791,1429,25.8039,-7.14665
574,-405,25.1151,8.07971,0,0,0,0,0,0,0,-1,1798,1429,25.1151,-8.07965
581,-405,23.5055,8.505,0,0,0,0,0,0,0,-1,1805,1429,23.5054,-8.50501
588,-405,21.7491,8.98254,0,0,0,0,0,0,0,-1,1812,1429,21.7491,-8.98254
595,-405,21.6327,10.7795,0,0,0,0,0,0,0,-1,1819,1429,21.6327,-10.7796
602,-405,20.3051,12.9791,0,0,0,0,0,0,0,-1,1826,1429,20.3051,-12.9792
609,-405,20.0149,12.5081,-0.00228334,0.00460635,-0.00120335,0.00481048,-0.00248747,-1.40276,0.00428404,0.0438605,1833,1429,20.0148,-12.5081
616,-405,19.9657,12.0941,-0.00142804,0.00318752,-0.00094446,0.0033733,-0.00161382,-1.37657,0.00293844,0.0186279,1840,1429,19.9657,-12.0941
623,-405,19.9813,11.6516,-0.000841702,0.00209631,-0.000724775,0.00226538,-0.00101077,-1.34163,0.00193716,0.0114036,1847,1429,19.9813,-11.6516
630,-405,19.9963,11.245,-0.000298796,0.00134287,-0.000564864,0.00151845,-0.000474375,-1.26943,0.00120204,0.0107451,1854,1429,19.9963,-11.245
637,-405,19.9944,10.8943,4.67127e-06,0.000730241,-0.000312389,0.000846204,-0.000111292,-1.21535,0.000604657,0.0112625,1861,1429,19.9944,-10.8943
644,-405,19.9088,10.5585,0.000179082,0.000295411,-4.68242e-05,0.000311917,0.000162577,-1.2319,0.000180139,0.0288077,1868,1429,19.9088,-10.5585
651,-405,19.8403,10.2098,0.000357641,6.93552e-06,0.000198918,0.000447461,-8.28854e-05,0.42414,0.00032943,0.029569,1875,1429,19.8403,-10.2099
658,-405,19.9778,9.79346,0.000506013,-0.00017338,0.000435216,0.00071841,-0.000385777,0.454022,0.000647073,0.0223226,1882,1429,19.9778,-9.79347
665,-405,19.9575,9.41895,0.000586418,-0.000237425,0.000717126,0.00100151,-0.000652516,0.524704,0.000962011,0.0175807,1889,1429,19.9575,-9.41894
672,-405,19.9694,9.04944,0.000677759,-0.000244733,0.00102616,0.00134157,-0.000908547,0.574185,0.0013071,0.0228253,1896,1429,19.9693,-9.0494
679,-405,19.9902,8.68152,0.000843408,-0.000352526,0.00141588,0.00178241,-0.00129153,0.585595,0.00178226,0.0220726,1903,1429,19.9902,-8.68154
686,-405,19.8372,8.29041,0.00097343,-0.000642985,0.00205361,0.00237214,-0.0020417,0.597929,0.00255071,0.0394774,1910,1429,19.8372,-8.29043
693,-405,19.5977,8.04565,0,0,0,0,0,0,0,-1,1917,1429,19.5976,-8.0457
700,-405,9.1958,4.02026,0,0,0,0,0,0,0,-1,1924,1429,9.19579,-4.02025
707,-405,7.40308,3.83191,0,0,0,0,0,0,0,-1,1931,1429,7.40311,-3.83194
714,-405,7.33252,3.47388,0,0,0,0,0,0,0,-1,1938,1429,7.33255,-3.47383
721,-405,9.23523,0.993896,0,0,0,0,0,0,0,-1,1945,1429,9.23523,-0.993884
728,-405,0,0,0,0,0,0,0,0,0,-1,1952,1429,0,0
735,-405,0,0,0,0,0,0,0,0,0,-1,1959,1429,0,0
742,-405,0,0,0,0,0,0,0,0,0,-1,1966,1429,0,0
749,-405,0,0,0,0,0,0,0,0,0,-1,1973,1429,0,0
756,-405,0,0,0,0,0,0,0,0,0,-1,1980,1429,0,0
763,-405,0,0,0,0,0,0,0,0,0,-1,1987,1429,0,0
770,-405,0,0,0,0,0,0,0,0,0,-1,1994,1429,0,0
777,-405,0,0,0,0,0,0,0,0,0,-1,2001,1429,0,0
784,-405,0,0,0,0,0,0,0,0,0,-1,2008,1429,0,0
791,-405,0,0,0,0,0,0,0,0,0,-1,2015,1429,0,0
798,-405,0,0,0,0,0,0,0,0,0,-1,2022,1429,0,0
805,-405,0,0,0,0,0,0,0,0,0,-1,2029,1429,0,0
812,-405,0,0,0,0,0,0,0,0,0,-1,2036,1429,0,0
-700,-412,0,0,0,0,0,0,0,0,0,-1,524,1436,0,0
-693,-412,0,0,0,0,0,0,0,0,0,-1,531,1436,0,0
-686,-412,0,0,0,0,0,0,0,0,0,-1,538,1436,0,0
-679,-412,0,0,0,0,0,0,0,0,0,-1,545,1436,0,0
-672,-412,0,0,0,0,0,0,0,0,0,-1,552,1436,0,0
-665,-412,0,0,0,0,0,0,0,0,0,-1,559,1436,0,0
-658,-412,0,0,0,0,0,0,0,0,0,-1,566,1436,0,0
-651,-412,0,0,0,0,0,0,0,0,0,-1,573,1436,0,0
-644,-412,0,0,0,0,0,0,0,0,0,-1,580,1436,0,0
-637,-412,0,0,0,0,0,0,0,0,0,-1,587,1436,0,0
-630,-412,0,0,0,0,0,0,0,0,0,-1,594,1436,0,0
-623,-412,0,0,0,0,0,0,0,0,0,-1,601,1436,0,0
-616,-412,0,0,0,0,0,0,0,0,0,-1,608,1436,0,0
-609,-412,0,0,0,0,0,0,0,0,0,-1,615,1436,0,0
-602,-412,-3.72766,-3.50012,0,0,0,0,0,0,0,-1,622,1436,-3.72764,3.50017
-595,-412,-10.3706,0.65564,0,0,0,0,0,0,0,-1,629,1436,-10.3706,-0.655672
-588,-412,-8.17957,1.94934,0,0,0,0,0,0,0,-1,636,1436,-8.17956,-1.94939
-581,-412,-6.60065,-0.0554199,0,0,0,0,0,0,0,-1,643,1436,-6.60063,0.0554733
-574,-412,-8.34131,5.25012,0,0,0,0,0,0,0,-1,650,1436,-8.34129,-5.25012
-567,-412,-7.50354,3.65454,0,0,0,0,0,0,0,-1,657,1436,-7.50356,-3.65452
-560,-412,-5.49805,5.2561,0,0,0,0,0,0,0,-1,664,1436,-5.49802,-5.25609
-553,-412,-7.36761,6.54651,0,0,0,0,0,0,0,-1,671,1436,-7.36763,-6.54654
-546,-412,-7.5799,6.75049,0,0,0,0,0,0,0,-1,678,1436,-7.57991,-6.7505
-539,-412,-7.79218,6.95447,0,0,0,0,0,0,0,-1,685,1436,-7.79218,-6.95445
-532,-412,-7.86292,7.4624,-0.00406599,-0.000125506,4.79371e-05,-0.000124923,-0.00406657,1.55863,0.00267038,0.0142375,692,1436,-7.8629,-7.46244
-525,-412,-7.86774,7.88586,-0.00250583,-0.00025574,-0.000246561,-0.000229039,-0.00253253,-1.46292,0.00161742,0.0145016,699,1436,-7.86772,-7.88581
-518,-412,-7.85388,8.27747,-0.000980722,-0.00011256,6.4666e-05,-0.000107769,-0.000985513,1.49685,0.000624194,0.0151286,706,1436,-7.85388,-8.27744
-511,-412,-7.8844,8.65076,0.000579755,4.28642e-05,0.000630783,0.000996839,-0.00037422,0.58422,0.000818336,0.0184469,713,1436,-7.88438,-8.65078
-504,-412,-7.91486,9.0918,0.00226072,0.000193533,0.00128957,0.0028798,-0.00042554,0.44757,0.0020763,0.0180274,720,1436,-7.91485,-9.09174
-497,-412,-7.92133,9.51135,0.00381527,0.000220428,0.0018318,0.00458421,-0.000548516,0.397436,0.00325443,0.0137156,727,1436,-7.92134,-9.51136
-490,-412,-7.92523,9.91382,0.00480266,-0.000451029,0.00202705,0.00549383,-0.0011422,0.328613,0.00409671,0.0122107,734,1436,-7.92524,-9.91382
-483,-412,-7.9231,10.3008,0.0050348,-0.00198197,0.00155093,0.00536232,-0.00230949,0.208117,0.00454471,0.00911137,741,1436,-7.92308,-10.3008
-476,-412,-7.8103,10.8585,0.00510885,-0.00431034,0.00076878,0.00517119,-0.00437267,0.080905,0.00551657,0.02126,748,1436,-7.81032,-10.8585
-469,-412,-7.86169,11.1519,0.00445702,-0.00778188,-0.000690782,0.00449589,-0.00782075,-0.0562036,0.00719686,0.0385966,755,1436,-7.86167,-11.1519
-462,-412,-7.99597,11.0994,0.00290386,-0.0127305,-0.00320415,0.00353504,-0.0133617,-0.1945,0.0102906,0.0484525,762,1436,-7.99595,-11.0994
-455,-412,-8.25006,11.2572,0,0,0,0,0,0,0,-1,769,1436,-8.25007,-11.2572
-448,-412,-7.38086,8.78186,0,0,0,0,0,0,0,-1,776,1436,-7.38088,-8.78183
-441,-412,-8.79523,9.05286,0,0,0,0,0,0,0,-1,783,1436,-8.79521,-9.0529
-434,-412,-10.6305,8.03577,0,0,0,0,0,0,0,-1,790,1436,-10.6305,-8.0358
-427,-412,-10.0004,5.15271,0,0,0,0,0,0,0,-1,797,1436,-10.0004,-5.15266
-420,-412,-10.4468,4.9043,0,0,0,0,0,0,0,-1,804,1436,-10.4468,-4.90429
-413,-412,-11.5704,4.97766,0,0,0,0,0,0,0,-1,811,1436,-11.5704,-4.97771
-406,-412,-13.1968,5.70093,0,0,0,0,0,0,0,-1,818,1436,-13.1968,-5.70096
-399,-412,-10.5506,0.771973,0,0,0,0,0,0,0,-1,825,1436,-10.5506,-0.771954
-392,-412,0,0,0,0,0,0,0,0,0,-1,832,1436,0,0
-385,-412,0,0,0,0,0,0,0,0,0,-1,839,1436,0,0
-378,-412,0,0,0,0,0,0,0,0,0,-1,846,1436,0,0
-371,-412,0,0,0,0,0,0,0,0,0,-1,853,1436,0,0
-364,-412,0,0,0,0,0,0,0,0,0,-1,860,1436,0,0
-357,-412,0,0,0,0,0,0,0,0,0,-1,867,1436,0,0
-350,-412,0,0,0,0,0,0,0,0,0,-1,874,1436,0,0
-343,-412,0,0,0,0,0,0,0,0,0,-1,881,1436,0,0
-336,-412,0,0,0,0,0,0,0,0,0,-1,888,1436,0,0
-329,-412,0,0,0,0,0,0,0,0,0,-1,895,1436,0,0
-322,-412,0,0,0,0,0,0,0,0,0,-1,902,1436,0,0
-315,-412,0,0,0,0,0,0,0,0,0,-1,909,1436,0,0
-308,-412,0,0,0,0,0,0,0,0,0,-1,916,1436,0,0
-301,-412,0,0,0,0,0,0,0,0,0,-1,923,1436,0,0
-294,-412,0,0,0,0,0,0,0,0,0,-1,930,1436,0,0
-287,-412,0,0,0,0,0,0,0,0,0,-1,937,1436,0,0
-280,-412,0,0,0,0,0,0,0,0,0,-1,944,1436,0,0
-273,-412,0,0,0,0,0,0,0,0,0,-1,951,1436,0,0
-266,-412,0,0,0,0,0,0,0,0,0,-1,958,1436,0,0
-259,-412,0,0,0,0,0,0,0,0,0,-1,965,1436,0,0
-252,-412,0,0,0,0,0,0,0,0,0,-1,972,1436,0,0
-245,-412,0,0,0,0,0,0,0,0,0,-1,979,1436,0,0
-238,-412,0,0,0,0,0,0,0,0,0,-1,986,1436,0,0
-231,-412,0,0,0,0,0,0,0,0,0,-1,993,1436,0,0
-224,-412,0,0,0,0,0,0,0,0,0,-1,1000,1436,0,0
-217,-412,0,0,0,0,0,0,0,0,0,-1,1007,1436,0,0
-210,-412,0,0,0,0,0,0,0,0,0,-1,1014,1436,0,0
-203,-412,0,0,0,0,0,0,0,0,0,-1,1021,1436,0,0
-196,-412,0,0,0,0,0,0,0,0,0,-1,1028,1436,0,0
-189,-412,0,0,0,0,0,0,0,0,0,-1,1035,1436,0,0
-182,-412,0,0,0,0,0,0,0,0,0,-1,1042,1436,0,0
-175,-412,0,0,0,0,0,0,0,0,0,-1,1049,1436,0,0
-168,-412,0,0,0,0,0,0,0,0,0,-1,1056,1436,0,0
-161,-412,0,0,0,0,0,0,0,0,0,-1,1063,1436,0,0
-154,-412,0,0,0,0,0,0,0,0,0,-1,1070,1436,0,0
-147,-412,0,0,0,0,0,0,0,0,0,-1,1077,1436,0,0
-140,-412,0,0,0,0,0,0,0,0,0,-1,1084,1436,0,0
-133,-412,0,0,0,0,0,0,0,0,0,-1,1091,1436,0,0
-126,-412,0,0,0,0,0,0,0,0,0,-1,1098,1436,0,0
-119,-412,0,0,0,0,0,0,0,0,0,-1,1105,1436,0,0
-112,-412,0,0,0,0,0,0,0,0,0,-1,1112,1436,0,0
-105,-412,0,0,0,0,0,0,0,0,0,-1,1119,1436,0,0
-98,-412,0,0,0,0,0,0,0,0,0,-1,1126,1436,0,0
-91,-412,0,0,0,0,0,0,0,0,0,-1,1133,1436,0,0
-84,-412,0,0,0,0,0,0,0,0,0,-1,1140,1436,0,0
-77,-412,0,0,0,0,0,0,0,0,0,-1,1147,1436,0,0
-70,-412,0,0,0,0,0,0,0,0,0,-1,1154,1436,0,0
-63,-412,0,0,0,0,0,0,0,0,0,-1,1161,1436,0,0
-56,-412,0,0,0,0,0,0,0,0,0,-1,1168,1436,0,0
-49,-412,0,0,0,0,0,0,0,0,0,-1,1175,1436,0,0
-42,-412,0,0,0,0,0,0,0,0,0,-1,1182,1436,0,0
-35,-412,0,0,0,0,0,0,0,0,0,-1,1189,1436,0,0
-28,-412,0,0,0,0,0,0,0,0,0,-1,1196,1436,0,0
-21,-412,0,0,0,0,0,0,0,0,0,-1,1203,1436,0,0
-14,-412,0,0,0,0,0,0,0,0,0,-1,1210,1436,0,0
-7,-412,0,0,0,0,0,0,0,0,0,-1,1217,1436,0,0
0,-412,0,0,0,0,0,0,0,0,0,-1,1224,1436,0,0
7,-412,0,0,0,0,0,0,0,0,0,-1,1231,1436,0,0
14,-412,0,0,0,0,0,0,0,0,0,-1,1238,1436,0,0
21,-412,0,0,0,0,0,0,0,0,0,-1,1245,1436,0,0
28,-412,0,0,0,0,0,0,0,0,0,-1,1252,1436,0,0
35,-412,0,0,0,0,0,0,0,0,0,-1,1259,1436,0,0
42,-412,0,0,0,0,0,0,0,0,0,-1,1266,1436,0,0
49,-412,0,0,0,0,0,0,0,0,0,-1,1273,1436,0,0
56,-412,0,0,0,0,0,0,0,0,0,-1,1280,1436,0,0
63,-412,0,0,0,0,0,0,0,0,0,-1,1287,1436,0,0
70,-412,0,0,0,0,0,0,0,0,0,-1,1294,1436,0,0
77,-412,0,0,0,0,0,0,0,0,0,-1,1301,1436,0,0
84,-412,0,0,0,0,0,0,0,0,0,-1,1308,1436,0,0
91,-412,0,0,0,0,0,0,0,0,0,-1,1315,1436,0,0
98,-412,0,0,0,0,0,0,0,0,0,-1,1322,1436,0,0
105,-412,0,0,0,0,0,0,0,0,0,-1,1329,1436,0,0
112,-412,0,0,0,0,0,0,0,0,0,-1,1336,1436,0,0
119,-412,0,0,0,0,0,0,0,0,0,-1,1343,1436,0,0
126,-412,0,0,0,0,0,0,0,0,0,-1,1350,1436,0,0
133,-412,0,0,0,0,0,0,0,0,0,-1,1357,1436,0,0
140,-412,0,0,0,0,0,0,0,0,0,-1,1364,1436,0,0
147,-412,0,0,0,0,0,0,0,0,0,-1,1371,1436,0,0
154,-412,0,0,0,0,0,0,0,0,0,-1,1378,1436,0,0
161,-412,0,0,0,0,0,0,0,0,0,-1,1385,1436,0,0
168,-412,0,0,0,0,0,0,0,0,0,-1,1392,1436,0,0
175,-412,0,0,0,0,0,0,0,0,0,-1,1399,1436,0,0
182,-412,0,0,0,0,0,0,0,0,0,-1,1406,1436,0,0
189,-412,0,0,0,0,0,0,0,0,0,-1,1413,1436,0,0
196,-412,0,0,0,0,0,0,0,0,0,-1,1420,1436,0,0
203,-412,0,0,0,0,0,0,0,0,0,-1,1427,1436,0,0
210,-412,0,0,0,0,0,0,0,0,0,-1,1434,1436,0,0
217,-412,0,0,0,0,0,0,0,0,0,-1,1441,1436,0,0
224,-412,0,0,0,0,0,0,0,0,0,-1,1448,1436,0,0
231,-412,0,0,0,0,0,0,0,0,0,-1,1455,1436,0,0
238,-412,0,0,0,0,0,0,0,0,0,-1,1462,1436,0,0
245,-412,0,0,0,0,0,0,0,0,0,-1,1469,1436,0,0
252,-412,0,0,0,0,0,0,0,0,0,-1,1476,1436,0,0
259,-412,0,0,0,0,0,0,0,0,0,-1,1483,1436,0,0
266,-412,0,0,0,0,0,0,0,0,0,-1,1490,1436,0,0
273,-412,0,0,0,0,0,0,0,0,0,-1,1497,1436,0,0
280,-412,0,0,0,0,0,0,0,0,0,-1,1504,1436,0,0
287,-412,0,0,0,0,0,0,0,0,0,-1,1511,1436,0,0
294,-412,0,0,0,0,0,0,0,0,0,-1,1518,1436,0,0
301,-412,0,0,0,0,0,0,0,0,0,-1,1525,1436,0,0
308,-412,0,0,0,0,0,0,0,0,0,-1,1532,1436,0,0
315,-412,0,0,0,0,0,0,0,0,0,-1,1539,1436,0,0
322,-412,0,0,0,0,0,0,0,0,0,-1,1546,1436,0,0
329,-412,0,0,0,0,0,0,0,0,0,-1,1553,1436,0,0
336,-412,0,0,0,0,0,0,0,0,0,-1,1560,1436,0,0
343,-412,0,0,0,0,0,0,0,0,0,-1,1567,1436,0,0
350,-412,0,0,0,0,0,0,0,0,0,-1,1574,1436,0,0
357,-412,0,0,0,0,0,0,0,0,0,-1,1581,1436,0,0
364,-412,0,0,0,0,0,0,0,0,0,-1,1588,1436,0,0
371,-412,0,0,0,0,0,0,0,0,0,-1,1595,1436,0,0
378,-412,0,0,0,0,0,0,0,0,0,-1,1602,1436,0,0
385,-412,0,0,0,0,0,0,0,0,0,-1,1609,1436,0,0
392,-412,0,0,0,0,0,0,0,0,0,-1,1616,1436,0,0
399,-412,0,0,0,0,0,0,0,0,0,-1,1623,1436,0,0
406,-412,0,0,0,0,0,0,0,0,0,-1,1630,1436,0,0
413,-412,0,0,0,0,0,0,0,0,0,-1,1637,1436,0,0
420,-412,0,0,0,0,0,0,0,0,0,-1,1644,1436,0,0
427,-412,0,0,0,0,0,0,0,0,0,-1,1651,1436,0,0
434,-412,0,0,0,0,0,0,0,0,0,-1,1658,1436,0,0
441,-412,0,0,0,0,0,0,0,0,0,-1,1665,1436,0,0
448,-412,0,0,0,0,0,0,0,0,0,-1,1672,1436,0,0
455,-412,0,0,0,0,0,0,0,0,0,-1,1679,1436,0,0
462,-412,0,0,0,0,0,0,0,0,0,-1,1686,1436,0,0
469,-412,0,0,0,0,0,0,0,0,0,-1,1693,1436,0,0
476,-412,0,0,0,0,0,0,0,0,0,-1,1700,1436,0,0
483,-412,0,0,0,0,0,0,0,0,0,-1,1707,1436,0,0
490,-412,0,0,0,0,0,0,0,0,0,-1,1714,1436,0,0
497,-412,0,0,0,0,0,0,0,0,0,-1,1721,1436,0,0
504,-412,0,0,0,0,0,0,0,0,0,-1,1728,1436,0,0
511,-412,0,0,0,0,0,0,0,0,0,-1,1735,1436,0,0
518,-412,30.1038,-2.43384,0,0,0,0,0,0,0,-1,1742,1436,30.1038,2.43383
525,-412,29.5283,-1.42493,0,0,0,0,0,0,0,-1,1749,1436,29.5283,1.42495
532,-412,28.8533,-0.386597,0,0,0,0,0,0,0,-1,1756,1436,28.8533,0.386632
539,-412,25.8654,2.74683,0,0,0,0,0,0,0,-1,1763,1436,25.8654,-2.74685
546,-412,25.4265,2.4342,0,0,0,0,0,0,0,-1,1770,1436,25.4265,-2.4342
553,-412,26.3595,7.49255,0,0,0,0,0,0,0,-1,1777,1436,26.3595,-7.4925
560,-412,24.9116,7.94324,0,0,0,0,0,0,0,-1,1784,1436,24.9116,-7.94327
567,-412,23.668,7.94531,0,0,0,0,0,0,0,-1,1791,1436,23.6679,-7.94534
574,-412,23.0142,9.17236,0,0,0,0,0,0,0,-1,1798,1436,23.0141,-9.17235
581,-412,22.2615,10.0349,0,0,0,0,0,0,0,-1,1805,1436,22.2615,-10.0349
588,-412,21.6893,10.8069,0,0,0,0,0,0,0,-1,1812,1436,21.6893,-10.8069
595,-412,20.2496,13.368,0,0,0,0,0,0,0,-1,1819,1436,20.2496,-13.368
602,-412,19.8831,12.8615,-0.00326326,0.00509301,-0.000780672,0.00516532,-0.00333557,-1.47844,0.00494574,0.038813,1826,1436,19.8831,-12.8614
609,-412,19.647,12.4069,-0.00195992,0.00386911,-0.000905639,0.00400657,-0.00209738,-1.42016,0.00358112,0.013258,1833,1436,19.6469,-12.4068
616,-412,19.6525,12.0421,-0.00128216,0.00269153,-0.000698915,0.00281087,-0.0014015,-1.40167,0.00247698,0.00911346,1840,1436,19.6525,-12.0421
623,-412,19.626,11.6621,-0.000812436,0.00176747,-0.000503222,0.00186215,-0.000907117,-1.38482,0.00163022,0.00965457,1847,1436,19.626,-11.6621
630,-412,19.6282,11.2516,-0.000366912,0.00105814,-0.000360358,0.00114408,-0.000452854,-1.33668,0.000950346,0.0113075,1854,1436,19.6282,-11.2516
637,-412,19.6178,10.8951,-0.000162503,0.000457095,-8.1053e-05,0.000467522,-0.000172931,-1.44285,0.000382583,0.0135007,1861,1436,19.6178,-10.8952
644,-412,19.5988,10.5425,-4.77012e-05,5.02851e-06,0.000200664,0.000181052,-0.000223725,0.850718,0.000234131,0.0150057,1868,1436,19.5987,-10.5425
651,-412,19.5941,10.1761,8.84738e-05,-0.000292365,0.000454332,0.000390677,-0.000594568,0.586959,0.000572877,0.0252754,1875,1436,19.5941,-10.1762
658,-412,19.5868,9.7876,0.000184901,-0.000463171,0.000698724,0.000631069,-0.000909339,0.568282,0.000894179,0.0174234,1882,1436,19.5868,-9.78759
665,-412,19.5623,9.40674,0.000227478,-0.000488696,0.000963844,0.000897604,-0.00115882,0.60754,0.00119047,0.0214488,1889,1436,19.5623,-9.40675
672,-412,19.6146,9.03931,0.000298737,-0.000450745,0.00125239,0.00123125,-0.00138326,0.640027,0.00151034,0.0272921,1896,1436,19.6146,-9.03925
679,-412,19.6759,8.69556,0.000446096,-0.00053506,0.00162556,0.00165349,-0.00174245,0.638849,0.00196087,0.0381595,1903,1436,19.6758,-8.6956
686,-412,19.6265,8.30579,0,0,0,0,0,0,0,-1,1910,1436,19.6264,-8.30583
693,-412,11.9346,6.02344,0,0,0,0,0,0,0,-1,1917,1436,11.9346,-6.02343
700,-412,8.82764,5.8844,0,0,0,0,0,0,0,-1,1924,1436,8.82761,-5.88444
707,-412,6.59998,1.68994,0,0,0,0,0,0,0,-1,1931,1436,6.60002,-1.68995
714,-412,4.77283,-2.39832,0,0,0,0,0,0,0,-1,1938,1436,4.77288,2.39835
721,-412,0,0,0,0,0,0,0,0,0,-1,1945,1436,0,0
728,-412,0,0,0,0,0,0,0,0,0,-1,1952,1436,0,0
735,-412,0,0,0,0,0,0,0,0,0,-1,1959,1436,0,0
742,-412,0,0,0,0,0,0,0,0,0,-1,1966,1436,0,0
749,-412,0,0,0,0,0,0,0,0,0,-1,1973,1436,0,0
756,-412,0,0,0,0,0,0,0,0,0,-1,1980,1436,0,0
763,-412,0,0,0,0,0,0,0,0,0,-1,1987,1436,0,0
770,-412,0,0,0,0,0,0,0,0,0,-1,1994,1436,0,0
777,-412,0,0,0,0,0,0,0,0,0,-1,2001,1436,0,0
784,-412,0,0,0,0,0,0,0,0,0,-1,2008,1436,0,0
791,-412,0,0,0,0,0,0,0,0,0,-1,2015,1436,0,0
798,-412,0,0,0,0,0,0,0,0,0,-1,2022,1436,0,0
805,-412,0,0,0,0,0,0,0,0,0,-1,2029,1436,0,0
812,-412,0,0,0,0,0,0,0,0,0,-1,2036,1436,0,0
-700,-419,0,0,0,0,0,0,0,0,0,-1,524,1443,0,0
-693,-419,0,0,0,0,0,0,0,0,0,-1,531,1443,0,0
-686,-419,0,0,0,0,0,0,0,0,0,-1,538,1443,0,0
-679,-419,0,0,0,0,0,0,0,0,0,-1,545,1443,0,0
-672,-419,0,0,0,0,0,0,0,0,0,-1,552,1443,0,0
-665,-419,0,0,0,0,0,0,0,0,0,-1,559,1443,0,0
-658,-419,0,0,0,0,0,0,0,0,0,-1,566,1443,0,0
-651,-419,0,0,0,0,0,0,0,0,0,-1,573,1443,0,0
-644,-419,0,0,0,0,0,0,0,0,0,-1,580,1443,0,0
-637,-419,0,0,0,0,0,0,0,0,0,-1,587,1443,0,0
-630,-419,0,0,0,0,0,0,0,0,0,-1,594,1443,0,0
-623,-419,0,0,0,0,0,0,0,0,0,-1,601,1443,0,0
-616,-419,0,0,0,0,0,0,0,0,0,-1,608,1443,0,0
-609,-419,0,0,0,0,0,0,0,0,0,-1,615,1443,0,0
-602,-419,0,0,0,0,0,0,0,0,0,-1,622,1443,0,0
-595,-419,-11.4904,-0.622681,0,0,0,0,0,0,0,-1,629,1443,-11.4903,0.622714
-588,-419,-9.09369,0.742432,0,0,0,0,0,0,0,-1,636,1443,-9.09366,-0.742482
-581,-419,-6.39172,2.14673,0,0,0,0,0,0,0,-1,643,1443,-6.39175,-2.14668
-574,-419,-4.09772,3.54773,0,0,0,0,0,0,0,-1,650,1443,-4.09772,-3.54767
-567,-419,-6.14038,3.22498,0,0,0,0,0,0,0,-1,657,1443,-6.14037,-3.22497
-560,-419,-4.52814,5.22253,0,0,0,0,0,0,0,-1,664,1443,-4.52816,-5.22251
-553,-419,-5.08331,6.11829,0,0,0,0,0,0,0,-1,671,1443,-5.08331,-6.1183
-546,-419,-6.94983,6.81775,0,0,0,0,0,0,0,-1,678,1443,-6.94983,-6.8178
-539,-419,-7.24988,7.03394,-0.00680037,0.000176088,0.000869324,0.000282781,-0.00690707,1.44868,0.00470181,0.0427466,685,1443,-7.24987,-7.03397
-532,-419,-7.45776,7.44604,-0.00525619,-0.000250052,0.000170695,-0.000244239,-0.005262,1.53675,0.00342949,0.017916,692,1443,-7.45775,-7.44607
-525,-419,-7.43646,7.91003,-0.00358456,-0.000393365,-0.000219714,-0.000378309,-0.00359962,-1.50238,0.00228411,0.0123068,699,1443,-7.43648,-7.91009
-518,-419,-7.42432,8.29968,-0.00200408,-0.000264926,-1.37345e-05,-0.000264818,-0.00200419,-1.5629,0.00125718,0.0162708,706,1443,-7.42434,-8.29969
-511,-419,-7.45087,8.68884,-0.000464287,-5.43276e-05,0.000439314,0.000225475,-0.000744089,1.00368,0.000585864,0.0198388,713,1443,-7.45089,-8.68887
-504,-419,-7.49097,9.0918,0.00112084,9.76086e-05,0.000953779,0.00169156,-0.000473108,0.539223,0.00131411,0.0198023,720,1443,-7.49095,-9.09179
-497,-419,-7.50702,9.49829,0.00258035,0.000183225,0.00139472,0.00322076,-0.000457182,0.430448,0.00231467,0.0134375,727,1443,-7.50702,-9.49833
-490,-419,-7.50775,9.8999,0.00345035,-0.000386047,0.00152112,0.00398028,-0.000915969,0.335227,0.00300573,0.0106195,734,1443,-7.50776,-9.89994
-483,-419,-7.51086,10.3037,0.0036263,-0.00171362,0.00100468,0.00380907,-0.00189639,0.179951,0.00335518,0.00910129,741,1443,-7.51086,-10.3037
-476,-419,-7.50031,10.7318,0.0037184,-0.00375392,0.000260671,0.00372748,-0.003763,0.0348285,0.00432465,0.0113126,748,1443,-7.50033,-10.7318
-469,-419,-7.46344,11.2408,0.00317347,-0.00663532,-0.00100296,0.00327497,-0.00673682,-0.10086,0.00589437,0.0206219,755,1443,-7.46342,-11.2408
-462,-419,-7.44391,11.6132,0.00188586,-0.0107363,-0.00308905,0.00260129,-0.0114518,-0.227591,0.00863325,0.0483271,762,1443,-7.44391,-11.6132
-455,-419,-7.35645,11.9451,0,0,0,0,0,0,0,-1,769,1443,-7.35646,-11.9451
-448,-419,-7.49109,9.92444,0,0,0,0,0,0,0,-1,776,1443,-7.49109,-9.92442
-441,-419,-7.65527,8.75574,0,0,0,0,0,0,0,-1,783,1443,-7.65525,-8.75568
-434,-419,-6.75922,7.50049,0,0,0,0,0,0,0,-1,790,1443,-6.75921,-7.50055
-427,-419,-8.23193,7.89404,0,0,0,0,0,0,0,-1,797,1443,-8.23193,-7.89404
-420,-419,-8.74091,6.36597,0,0,0,0,0,0,0,-1,804,1443,-8.74089,-6.366
-413,-419,-9.88391,6.53955,0,0,0,0,0,0,0,-1,811,1443,-9.8839,-6.53955
-406,-419,-10.3372,2.75195,0,0,0,0,0,0,0,-1,818,1443,-10.3372,-2.75201
-399,-419,-11.5999,1.40002,0,0,0,0,0,0,0,-1,825,1443,-11.5999,-1.39998
-392,-419,0,0,0,0,0,0,0,0,0,-1,832,1443,0,0
-385,-419,0,0,0,0,0,0,0,0,0,-1,839,1443,0,0
-378,-419,0,0,0,0,0,0,0,0,0,-1,846,1443,0,0
-371,-419,0,0,0,0,0,0,0,0,0,-1,853,1443,0,0
-364,-419,0,0,0,0,0,0,0,0,0,-1,860,1443,0,0
-357,-419,0,0,0,0,0,0,0,0,0,-1,867,1443,0,0
-350,-419,0,0,0,0,0,0,0,0,0,-1,874,1443,0,0
-343,-419,0,0,0,0,0,0,0,0,0,-1,881,1443,0,0
-336,-419,0,0,0,0,0,0,0,0,0,-1,888,1443,0,0
-329,-419,0,0,0,0,0,0,0,0,0,-1,895,1443,0,0
-322,-419,0,0,0,0,0,0,0,0,0,-1,902,1443,0,0
-315,-419,0,0,0,0,0,0,0,0,0,-1,909,1443,0,0
-308,-419,0,0,0,0,0,0,0,0,0,-1,916,1443,0,0
-301,-419,0,0,0,0,0,0,0,0,0,-1,923,1443,0,0
-294,-419,0,0,0,0,0,0,0,0,0,-1,930,1443,0,0
-287,-419,0,0,0,0,0,0,0,0,0,-1,937,1443,0,0
-280,-419,0,0,0,0,0,0,0,0,0,-1,944,1443,0,0
-273,-419,0,0,0,0,0,0,0,0,0,-1,951,1443,0,0
-266,-419,0,0,0,0,0,0,0,0,0,-1,958,1443,0,0
-259,-419,0,0,0,0,0,0,0,0,0,-1,965,1443,0,0
-252,-419,0,0,0,0,0,0,0,0,0,-1,972,1443,0,0
-245,-419,0,0,0,0,0,0,0,0,0,-1,979,1443,0,0
-238,-419,0,0,0,0,0,0,0,0,0,-1,986,1443,0,0
-231,-419,0,0,0,0,0,0,0,0,0,-1,993,1443,0,0
-224,-419,0,0,0,0,0,0,0,0,0,-1,1000,1443,0,0
-217,-419,0,0,0,0,0,0,0,0,0,-1,1007,1443,0,0
-210,-419,0,0,0,0,0,0,0,0,0,-1,1014,1443,0,0
-203,-419,0,0,0,0,0,0,0,0,0,-1,1021,1443,0,0
-196,-419,0,0,0,0,0,0,0,0,0,-1,1028,1443,0,0
-189,-419,0,0,0,0,0,0,0,0,0,-1,1035,1443,0,0
-182,-419,0,0,0,0,0,0,0,0,0,-1,1042,1443,0,0
-175,-419,0,0,0,0,0,0,0,0,0,-1,1049,1443,0,0
-168,-419,0,0,0,0,0,0,0,0,0,-1,1056,1443,0,0
-161,-419,0,0,0,0,0,0,0,0,0,-1,1063,1443,0,0
-154,-419,0,0,0,0,0,0,0,0,0,-1,1070,1443,0,0
-147,-419,0,0,0,0,0,0,0,0,0,-1,1077,1443,0,0
-140,-419,0,0,0,0,0,0,0,0,0,-1,1084,1443,0,0
-133,-419,0,0,0,0,0,0,0,0,0,-1,1091,1443,0,0
-126,-419,0,0,0,0,0,0,0,0,0,-1,1098,1443,0,0
-119,-419,0,0,0,0,0,0,0,0,0,-1,1105,1443,0,0
-112,-419,0,0,0,0,0,0,0,0,0,-1,1112,1443,0,0
-105,-419,0,0,0,0,0,0,0,0,0,-1,1119,1443,0,0
-98,-419,0,0,0,0,0,0,0,0,0,-1,1126,1443,0,0
-91,-419,0,0,0,0,0,0,0,0,0,-1,1133,1443,0,0
-84,-419,0,0,0,0,0,0,0,0,0,-1,1140,1443,0,0
-77,-419,0,0,0,0,0,0,0,0,0,-1,1147,1443,0,0
-70,-419,0,0,0,0,0,0,0,0,0,-1,1154,1443,0,0
-63,-419,0,0,0,0,0,0,0,0,0,-1,1161,1443,0,0
-56,-419,0,0,0,0,0,0,0,0,0,-1,1168,1443,0,0
-49,-419,0,0,0,0,0,0,0,0,0,-1,1175,1443,0,0
-42,-419,0,0,0,0,0,0,0,0,0,-1,1182,1443,0,0
-35,-419,0,0,0,0,0,0,0,0,0,-1,1189,1443,0,0
-28,-419,0,0,0,0,0,0,0,0,0,-1,1196,1443,0,0
-21,-419,0,0,0,0,0,0,0,0,0,-1,1203,1443,0,0
-14,-419,0,0,0,0,0,0,0,0,0,-1,1210,1443,0,0
-7,-419,0,0,0,0,0,0,0,0,0,-1,1217,1443,0,0
0,-419,0,0,0,0,0,0,0,0,0,-1,1224,1443,0,0
7,-419,0,0,0,0,0,0,0,0,0,-1,1231,1443,0,0
14,-419,0,0,0,0,0,0,0,0,0,-1,1238,1443,0,0
21,-419,0,0,0,0,0,0,0,0,0,-1,1245,1443,0,0
28,-419,0,0,0,0,0,0,0,0,0,-1,1252,1443,0,0
35,-419,0,0,0,0,0,0,0,0,0,-1,1259,1443,0,0
42,-419,0,0,0,0,0,0,0,0,0,-1,1266,1443,0,0
49,-419,0,0,0,0,0,0,0,0,0,-1,1273,1443,0,0
56,-419,0,0,0,0,0,0,0,0,0,-1,1280,1443,0,0
63,-419,0,0,0,0,0,0,0,0,0,-1,1287,1443,0,0
70,-419,0,0,0,0,0,0,0,0,0,-1,1294,1443,0,0
77,-419,0,0,0,0,0,0,0,0,0,-1,1301,1443,0,0
84,-419,0,0,0,0,0,0,0,0,0,-1,1308,1443,0,0
91,-419,0,0,0,0,0,0,0,0,0,-1,1315,1443,0,0
98,-419,0,0,0,0,0,0,0,0,0,-1,1322,1443,0,0
105,-419,0,0,0,0,0,0,0,0,0,-1,1329,1443,0,0
112,-419,0,0,0,0,0,0,0,0,0,-1,1336,1443,0,0
119,-419,0,0,0,0,0,0,0,0,0,-1,1343,1443,0,0
126,-419,0,0,0,0,0,0,0,0,0,-1,1350,1443,0,0
133,-419,0,0,0,0,0,0,0,0,0,-1,1357,1443,0,0
140,-419,0,0,0,0,0,0,0,0,0,-1,1364,1443,0,0
147,-419,0,0,0,0,0,0,0,0,0,-1,1371,1443,0,0
154,-419,0,0,0,0,0,0,0,0,0,-1,1378,1443,0,0
161,-419,0,0,0,0,0,0,0,0,0,-1,1385,1443,0,0
168,-419,0,0,0,0,0,0,0,0,0,-1,1392,1443,0,0
175,-419,0,0,0,0,0,0,0,0,0,-1,1399,1443,0,0
182,-419,0,0,0,0,0,0,0,0,0,-1,1406,1443,0,0
189,-419,0,0,0,0,0,0,0,0,0,-1,1413,1443,0,0
196,-419,0,0,0,0,0,0,0,0,0,-1,1420,1443,0,0
203,-419,0,0,0,0,0,0,0,0,0,-1,1427,1443,0,0
210,-419,0,0,0,0,0,0,0,0,0,-1,1434,1443,0,0
217,-419,0,0,0,0,0,0,0,0,0,-1,1441,1443,0,0
224,-419,0,0,0,0,0,0,0,0,0,-1,1448,1443,0,0
231,-419,0,0,0,0,0,0,0,0,0,-1,1455,1443,0,0
238,-419,0,0,0,0,0,0,0,0,0,-1,1462,1443,0,0
245,-419,0,0,0,0,0,0,0,0,0,-1,1469,1443,0,0
252,-419,0,0,0,0,0,0,0,0,0,-1,1476,1443,0,0
259,-419,0,0,0,0,0,0,0,0,0,-1,1483,1443,0,0
266,-419,0,0,0,0,0,0,0,0,0,-1,1490,1443,0,0
273,-419,0,0,0,0,0,0,0,0,0,-1,1497,1443,0,0
280,-419,0,0,0,0,0,0,0,0,0,-1,1504,1443,0,0
287,-419,0,0,0,0,0,0,0,0,0,-1,1511,1443,0,0
294,-419,0,0,0,0,0,0,0,0,0,-1,1518,1443,0,0
301,-419,0,0,0,0,0,0,0,0,0,-1,1525,1443,0,0
308,-419,0,0,0,0,0,0,0,0,0,-1,1532,1443,0,0
315,-419,0,0,0,0,0,0,0,0,0,-1,1539,1443,0,0
322,-419,0,0,0,0,0,0,0,0,0,-1,1546,1443,0,0
329,-419,0,0,0,0,0,0,0,0,0,-1,1553,1443,0,0
336,-419,0,0,0,0,0,0,0,0,0,-1,1560,1443,0,0
343,-419,0,0,0,0,0,0,0,0,0,-1,1567,1443,0,0
350,-419,0,0,0,0,0,0,0,0,0,-1,1574,1443,0,0
357,-419,0,0,0,0,0,0,0,0,0,-1,1581,1443,0,0
364,-419,0,0,0,0,0,0,0,0,0,-1,1588,1443,0,0
371,-419,0,0,0,0,0,0,0,0,0,-1,1595,1443,0,0
378,-419,0,0,0,0,0,0,0,0,0,-1,1602,1443,0,0
385,-419,0,0,0,0,0,0,0,0,0,-1,1609,1443,0,0
392,-419,0,0,0,0,0,0,0,0,0,-1,1616,1443,0,0
399,-419,0,0,0,0,0,0,0,0,0,-1,1623,1443,0,0
406,-419,0,0,0,0,0,0,0,0,0,-1,1630,1443,0,0
413,-419,0,0,0,0,0,0,0,0,0,-1,1637,1443,0,0
420,-419,0,0,0,0,0,0,0,0,0,-1,1644,1443,0,0
427,-419,0,0,0,0,0,0,0,0,0,-1,1651,1443,0,0
434,-419,0,0,0,0,0,0,0,0,0,-1,1658,1443,0,0
441,-419,0,0,0,0,0,0,0,0,0,-1,1665,1443,0,0
448,-419,0,0,0,0,0,0,0,0,0,-1,1672,1443,0,0
455,-419,0,0,0,0,0,0,0,0,0,-1,1679,1443,0,0
462,-419,0,0,0,0,0,0,0,0,0,-1,1686,1443,0,0
469,-419,0,0,0,0,0,0,0,0,0,-1,1693,1443,0,0
476,-419,0,0,0,0,0,0,0,0,0,-1,1700,1443,0,0
483,-419,0,0,0,0,0,0,0,0,0,-1,1707,1443,0,0
490,-419,0,0,0,0,0,0,0,0,0,-1,1714,1443,0,0
497,-419,0,0,0,0,0,0,0,0,0,-1,1721,1443,0,0
504,-419,0,0,0,0,0,0,0,0,0,-1,1728,1443,0,0
511,-419,20.3005,3.7959,0,0,0,0,0,0,0,-1,1735,1443,20.3005,-3.79584
518,-419,21.3154,2.03027,0,0,0,0,0,0,0,-1,1742,1443,21.3155,-2.03029
525,-419,28.3439,-1.24475,0,0,0,0,0,0,0,-1,1749,1443,28.3438,1.24471
532,-419,27.5902,-0.272583,0,0,0,0,0,0,0,-1,1756,1443,27.5902,0.272526
539,-419,26.5278,1.60583,0,0,0,0,0,0,0,-1,1763,1443,26.5279,-1.60579
546,-419,24.9509,2.77539,0,0,0,0,0,0,0,-1,1770,1443,24.9509,-2.77537
553,-419,24.118,3.75525,0,0,0,0,0,0,0,-1,1777,1443,24.1181,-3.75526
560,-419,11.8199,8.26343,0,0,0,0,0,0,0,-1,1784,1443,11.82,-8.26341
567,-419,21.5143,8.74719,0,0,0,0,0,0,0,-1,1791,1443,21.5143,-8.74722
574,-419,19.5886,6.46155,0,0,0,0,0,0,0,-1,1798,1443,19.5886,-6.46157
581,-419,20.7926,11.4265,0,0,0,0,0,0,0,-1,1805,1443,20.7926,-11.4265
588,-419,19.4242,12.5363,0,0,0,0,0,0,0,-1,1812,1443,19.4242,-12.5362
595,-419,19.2643,13.3474,0,0,0,0,0,0,0,-1,1819,1443,19.2642,-13.3474
602,-419,19.3075,12.8192,-0.00279631,0.00409571,-0.000599857,0.00414753,-0.00284813,-1.48462,0.0040621,0.0185408,1826,1443,19.3075,-12.8193
609,-419,19.2836,12.4131,-0.00166788,0.00318851,-0.000721014,0.0032933,-0.00177267,-1.42648,0.00296843,0.0119046,1833,1443,19.2836,-12.4131
616,-419,19.271,12.0552,-0.00109375,0.00224483,-0.000558096,0.00233565,-0.00118458,-1.40947,0.00206831,0.0114103,1840,1443,19.271,-12.0551
623,-419,19.2626,11.686,-0.000714264,0.00144811,-0.000351926,0.00150395,-0.000770098,-1.41345,0.00133551,0.00930731,1847,1443,19.2626,-11.686
630,-419,19.269,11.2855,-0.000352445,0.000780241,-0.000192687,0.000812123,-0.000384327,-1.40682,0.000705336,0.011077,1854,1443,19.269,-11.2855
637,-419,19.2511,10.9241,-0.000241648,0.000187903,0.000134771,0.000226685,-0.00028043,1.2906,0.000293331,0.0124732,1861,1443,19.2511,-10.924
644,-419,19.2319,10.5774,-0.000207916,-0.000279974,0.000461269,0.000218729,-0.000706619,0.746423,0.000558454,0.0117658,1868,1443,19.2319,-10.5773
651,-419,19.2045,10.2163,-0.000161523,-0.000600458,0.000760925,0.000410952,-0.00117293,0.644997,0.000949075,0.0117398,1875,1443,19.2045,-10.2163
658,-419,19.2014,9.80249,-0.000175366,-0.00078249,0.00105949,0.000623197,-0.00158105,0.645878,0.00131207,0.0136191,1882,1443,19.2014,-9.80249
665,-419,19.1931,9.4071,-0.000248576,-0.000801791,0.00135584,0.000858586,-0.00190895,0.684773,0.00163575,0.0205199,1889,1443,19.1931,-9.40712
672,-419,19.2499,8.9906,-0.000292673,-0.000760727,0.00167358,0.00116316,-0.00221656,0.715931,0.00198263,0.0261836,1896,1443,19.2498,-8.99056
679,-419,19.3835,8.62256,0,0,0,0,0,0,0,-1,1903,1443,19.3835,-8.62254
686,-419,17.4127,8.03076,0,0,0,0,0,0,0,-1,1910,1443,17.4127,-8.03071
693,-419,8.76086,5.60535,0,0,0,0,0,0,0,-1,1917,1443,8.76091,-5.6054
700,-419,11.0498,4.85156,0,0,0,0,0,0,0,-1,1924,1443,11.0498,-4.85153
707,-419,9.5752,1.80042,0,0,0,0,0,0,0,-1,1931,1443,9.57523,-1.80037
714,-419,5.77576,-1.25061,0,0,0,0,0,0,0,-1,1938,1443,5.7757,1.25056
721,-419,0,0,0,0,0,0,0,0,0,-1,1945,1443,0,0
728,-419,0,0,0,0,0,0,0,0,0,-1,1952,1443,0,0
735,-419,0,0,0,0,0,0,0,0,0,-1,1959,1443,0,0
742,-419,0,0,0,0,0,0,0,0,0,-1,1966,1443,0,0
749,-419,0,0,0,0,0,0,0,0,0,-1,1973,1443,0,0
756,-419,0,0,0,0,0,0,0,0,0,-1,1980,1443,0,0
763,-419,0,0,0,0,0,0,0,0,0,-1,1987,1443,0,0
770,-419,0,0,0,0,0,0,0,0,0,-1,1994,1443,0,0
777,-419,0,0,0,0,0,0,0,0,0,-1,2001,1443,0,0
784,-419,0,0,0,0,0,0,0,0,0,-1,2008,1443,0,0
791,-419,0,0,0,0,0,0,0,0,0,-1,2015,1443,0,0
798,-419,0,0,0,0,0,0,0,0,0,-1,2022,1443,0,0
805,-419,0,0,0,0,0,0,0,0,0,-1,2029,1443,0,0
812,-419,0,0,0,0,0,0,0,0,0,-1,2036,1443,0,0
-700,-426,0,0,0,0,0,0,0,0,0,-1,524,1450,0,0
-693,-426,0,0,0,0,0,0,0,0,0,-1,531,1450,0,0
-686,-426,0,0,0,0,0,0,0,0,0,-1,538,1450,0,0
-679,-426,0,0,0,0,0,0,0,0,0,-1,545,1450,0,0
-672,-426,0,0,0,0,0,0,0,0,0,-1,552,1450,0,0
-665,-426,0,0,0,0,0,0,0,0,0,-1,559,1450,0,0
-658,-426,0,0,0,0,0,0,0,0,0,-1,566,1450,0,0
-651,-426,0,0,0,0,0,0,0,0,0,-1,573,1450,0,0
-644,-426,0,0,0,0,0,0,0,0,0,-1,580,1450,0,0
-637,-426,0,0,0,0,0,0,0,0,0,-1,587,1450,0,0
-630,-426,0,0,0,0,0,0,0,0,0,-1,594,1450,0,0
-623,-426,0,0,0,0,0,0,0,0,0,-1,601,1450,0,0
-616,-426,0,0,0,0,0,0,0,0,0,-1,608,1450,0,0
-609,-426,0,0,0,0,0,0,0,0,0,-1,615,1450,0,0
-602,-426,0,0,0,0,0,0,0,0,0,-1,622,1450,0,0
-595,-426,0,0,0,0,0,0,0,0,0,-1,629,1450,0,0
-588,-426,-10.184,-0.554321,0,0,0,0,0,0,0,-1,636,1450,-10.184,0.554321
-581,-426,-7.3349,1.48157,0,0,0,0,0,0,0,-1,643,1450,-7.33491,-1.48152
-574,-426,-5.02856,2.89319,0,0,0,0,0,0,0,-1,650,1450,-5.02858,-2.89319
-567,-426,-3.04797,1.72644,0,0,0,0,0,0,0,-1,657,1450,-3.04797,-1.72639
-560,-426,-5.55682,3.44397,0,0,0,0,0,0,0,-1,664,1450,-5.55684,-3.44399
-553,-426,-4.67017,6.66614,0,0,0,0,0,0,0,-1,671,1450,-4.67015,-6.66619
-546,-426,-6.56012,6.95984,0,0,0,0,0,0,0,-1,678,1450,-6.56015,-6.95981
-539,-426,-6.67242,7.23413,-0.00718052,-5.84317e-05,0.00172096,0.000335614,-0.00757457,1.34571,0.00516522,0.045629,685,1450,-6.67243,-7.23408
-532,-426,-6.94354,7.46558,-0.00554059,-0.000533107,0.000779252,-0.000414645,-0.00565905,1.41993,0.00364236,0.0350098,692,1450,-6.94352,-7.46559
-525,-426,-7.07764,7.86304,-0.00382943,-0.000665823,0.000228345,-0.000649426,-0.00384583,1.49911,0.00237717,0.0154135,699,1450,-7.07766,-7.86307
-518,-426,-7.05261,8.3064,-0.00228118,-0.000509683,0.000266289,-0.000470521,-0.00232034,1.42478,0.00141635,0.0157169,706,1450,-7.05264,-8.30643
-511,-426,-7.06335,8.71765,-0.000877531,-0.000224274,0.000550335,8.9062e-05,-0.00119087,1.05321,0.000825202,0.0159295,713,1450,-7.06337,-8.71769
-504,-426,-7.09924,9.10266,0.000494418,-5.96066e-05,0.00087293,0.00113323,-0.000698423,0.631756,0.00106739,0.0157445,720,1450,-7.09925,-9.10271
-497,-426,-7.08844,9.49829,0.00175489,9.84655e-05,0.00117664,0.00236557,-0.000512212,0.478734,0.00177263,0.0127776,727,1450,-7.08845,-9.49834
-490,-426,-7.09412,9.90625,0.00244687,-0.000332741,0.00121785,0.00290496,-0.000790835,0.359777,0.00224713,0.0118412,734,1450,-7.09413,-9.9062
-483,-426,-7.10406,10.3171,0.00253226,-0.00143504,0.000662245,0.00263988,-0.00154266,0.161109,0.00244233,0.0113191,741,1450,-7.10408,-10.3172
-476,-426,-7.10126,10.7209,0.00260647,-0.00318951,-6.00851e-05,0.00260709,-0.00319014,-0.0103652,0.00335267,0.00929601,748,1450,-7.10125,-10.7209
-469,-426,-7.11804,11.1198,0.00215203,-0.0055706,-0.00116,0.0023225,-0.00574108,-0.145919,0.00479294,0.00835762,755,1450,-7.11807,-11.1198
-462,-426,-6.98846,11.681,0.00109317,-0.00898878,-0.00291819,0.00187691,-0.00977252,-0.262378,0.0072224,0.0267395,762,1450,-6.98847,-11.681
-455,-426,-6.82336,12.3027,0,0,0,0,0,0,0,-1,769,1450,-6.82336,-12.3027
-448,-426,-6.46545,10.1322,0,0,0,0,0,0,0,-1,776,1450,-6.46543,-10.1322
-441,-426,-6.6189,9.86353,0,0,0,0,0,0,0,-1,783,1450,-6.61889,-9.86351
-434,-426,-9.05634,10.936,0,0,0,0,0,0,0,-1,790,1450,-9.05635,-10.9361
-427,-426,-5.90222,8.90906,0,0,0,0,0,0,0,-1,797,1450,-5.9022,-8.90905
-420,-426,-5.33765,7.95044,0,0,0,0,0,0,0,-1,804,1450,-5.33766,-7.95041
-413,-426,-10.1148,5.0415,0,0,0,0,0,0,0,-1,811,1450,-10.1148,-5.04152
-406,-426,-11.4199,3.6438,0,0,0,0,0,0,0,-1,818,1450,-11.4198,-3.64382
-399,-426,-12.7595,2.29004,0,0,0,0,0,0,0,-1,825,1450,-12.7595,-2.29003
-392,-426,-12.4147,0.537354,0,0,0,0,0,0,0,-1,832,1450,-12.4147,-0.53731
-385,-426,0,0,0,0,0,0,0,0,0,-1,839,1450,0,0
-378,-426,0,0,0,0,0,0,0,0,0,-1,846,1450,0,0
-371,-426,0,0,0,0,0,0,0,0,0,-1,853,1450,0,0
-364,-426,0,0,0,0,0,0,0,0,0,-1,860,1450,0,0
-357,-426,0,0,0,0,0,0,0,0,0,-1,867,1450,0,0
-350,-426,0,0,0,0,0,0,0,0,0,-1,874,1450,0,0
-343,-426,0,0,0,0,0,0,0,0,0,-1,881,1450,0,0
-336,-426,0,0,0,0,0,0,0,0,0,-1,888,1450,0,0
-329,-426,0,0,0,0,0,0,0,0,0,-1,895,1450,0,0
-322,-426,0,0,0,0,0,0,0,0,0,-1,902,1450,0,0
-315,-426,0,0,0,0,0,0,0,0,0,-1,909,1450,0,0
-308,-426,0,0,0,0,0,0,0,0,0,-1,916,1450,0,0
-301,-426,0,0,0,0,0,0,0,0,0,-1,923,1450,0,0
-294,-426,0,0,0,0,0,0,0,0,0,-1,930,1450,0,0
-287,-426,0,0,0,0,0,0,0,0,0,-1,937,1450,0,0
-280,-426,0,0,0,0,0,0,0,0,0,-1,944,1450,0,0
-273,-426,0,0,0,0,0,0,0,0,0,-1,951,1450,0,0
-266,-426,0,0,0,0,0,0,0,0,0,-1,958,1450,0,0
-259,-426,0,0,0,0,0,0,0,0,0,-1,965,1450,0,0
-252,-426,0,0,0,0,0,0,0,0,0,-1,972,1450,0,0
-245,-426,0,0,0,0,0,0,0,0,0,-1,979,1450,0,0
-238,-426,0,0,0,0,0,0,0,0,0,-1,986,1450,0,0
-231,-426,0,0,0,0,0,0,0,0,0,-1,993,1450,0,0
-224,-426,0,0,0,0,0,0,0,0,0,-1,1000,1450,0,0
-217,-426,0,0,0,0,0,0,0,0,0,-1,1007,1450,0,0
-210,-426,0,0,0,0,0,0,0,0,0,-1,1014,1450,0,0
-203,-426,0,0,0,0,0,0,0,0,0,-1,1021,1450,0,0
-196,-426,0,0,0,0,0,0,0,0,0,-1,1028,1450,0,0
-189,-426,0,0,0,0,0,0,0,0,0,-1,1035,1450,0,0
-182,-426,0,0,0,0,0,0,0,0,0,-1,1042,1450,0,0
-175,-426,0,0,0,0,0,0,0,0,0,-1,1049,1450,0,0
-168,-426,0,0,0,0,0,0,0,0,0,-1,1056,1450,0,0
-161,-426,0,0,0,0,0,0,0,0,0,-1,1063,1450,0,0
-154,-426,0,0,0,0,0,0,0,0,0,-1,1070,1450,0,0
-147,-426,0,0,0,0,0,0,0,0,0,-1,1077,1450,0,0
-140,-426,0,0,0,0,0,0,0,0,0,-1,1084,1450,0,0
-133,-426,0,0,0,0,0,0,0,0,0,-1,1091,1450,0,0
-126,-426,0,0,0,0,0,0,0,0,0,-1,1098,1450,0,0
-119,-426,0,0,0,0,0,0,0,0,0,-1,1105,1450,0,0
-112,-426,0,0,0,0,0,0,0,0,0,-1,1112,1450,0,0
-105,-426,0,0,0,0,0,0,0,0,0,-1,1119,1450,0,0
-98,-426,0,0,0,0,0,0,0,0,0,-1,1126,1450,0,0
-91,-426,0,0,0,0,0,0,0,0,0,-1,1133,1450,0,0
-84,-426,0,0,0,0,0,0,0,0,0,-1,1140,1450,0,0
-77,-426,0,0,0,0,0,0,0,0,0,-1,1147,1450,0,0
-70,-426,0,0,0,0,0,0,0,0,0,-1,1154,1450,0,0
-63,-426,0,0,0,0,0,0,0,0,0,-1,1161,1450,0,0
-56,-426,0,0,0,0,0,0,0,0,0,-1,1168,1450,0,0
-49,-426,0,0,0,0,0,0,0,0,0,-1,1175,1450,0,0
-42,-426,0,0,0,0,0,0,0,0,0,-1,1182,1450,0,0
-35,-426,0,0,0,0,0,0,0,0,0,-1,1189,1450,0,0
-28,-426,0,0,0,0,0,0,0,0,0,-1,1196,1450,0,0
-21,-426,0,0,0,0,0,0,0,0,0,-1,1203,1450,0,0
-14,-426,0,0,0,0,0,0,0,0,0,-1,1210,1450,0,0
-7,-426,0,0,0,0,0,0,0,0,0,-1,1217,1450,0,0
0,-426,0,0,0,0,0,0,0,0,0,-1,1224,1450,0,0
7,-426,0,0,0,0,0,0,0,0,0,-1,1231,1450,0,0
14,-426,0,0,0,0,0,0,0,0,0,-1,1238,1450,0,0
21,-426,0,0,0,0,0,0,0,0,0,-1,1245,1450,0,0
28,-426,0,0,0,0,0,0,0,0,0,-1,1252,1450,0,0
35,-426,0,0,0,0,0,0,0,0,0,-1,1259,1450,0,0
42,-426,0,0,0,0,0,0,0,0,0,-1,1266,1450,0,0
49,-426,0,0,0,0,0,0,0,0,0,-1,1273,1450,0,0
56,-426,0,0,0,0,0,0,0,0,0,-1,1280,1450,0,0
63,-426,0,0,0,0,0,0,0,0,0,-1,1287,1450,0,0
70,-426,0,0,0,0,0,0,0,0,0,-1,1294,1450,0,0
77,-426,0,0,0,0,0,0,0,0,0,-1,1301,1450,0,0
84,-426,0,0,0,0,0,0,0,0,0,-1,1308,1450,0,0
91,-426,0,0,0,0,0,0,0,0,0,-1,1315,1450,0,0
98,-426,0,0,0,0,0,0,0,0,0,-1,1322,1450,0,0
105,-426,0,0,0,0,0,0,0,0,0,-1,1329,1450,0,0
112,-426,0,0,0,0,0,0,0,0,0,-1,1336,1450,0,0
119,-426,0,0,0,0,0,0,0,0,0,-1,1343,1450,0,0
126,-426,0,0,0,0,0,0,0,0,0,-1,1350,1450,0,0
133,-426,0,0,0,0,0,0,0,0,0,-1,1357,1450,0,0
140,-426,0,0,0,0,0,0,0,0,0,-1,1364,1450,0,0
147,-426,0,0,0,0,0,0,0,0,0,-1,1371,1450,0,0
154,-426,0,0,0,0,0,0,0,0,0,-1,1378,1450,0,0
161,-426,0,0,0,0,0,0,0,0,0,-1,1385,1450,0,0
168,-426,0,0,0,0,0,0,0,0,0,-1,1392,1450,0,0
175,-426,0,0,0,0,0,0,0,0,0,-1,1399,1450,0,0
182,-426,0,0,0,0,0,0,0,0,0,-1,1406,1450,0,0
189,-426,0,0,0,0,0,0,0,0,0,-1,1413,1450,0,0
196,-426,0,0,0,0,0,0,0,0,0,-1,1420,1450,0,0
203,-426,0,0,0,0,0,0,0,0,0,-1,1427,1450,0,0
210,-426,0,0,0,0,0,0,0,0,0,-1,1434,1450,0,0
217,-426,0,0,0,0,0,0,0,0,0,-1,1441,1450,0,0
224,-426,0,0,0,0,0,0,0,0,0,-1,1448,1450,0,0
231,-426,0,0,0,0,0,0,0,0,0,-1,1455,1450,0,0
238,-426,0,0,0,0,0,0,0,0,0,-1,1462,1450,0,0
245,-426,0,0,0,0,0,0,0,0,0,-1,1469,1450,0,0
252,-426,0,0,0,0,0,0,0,0,0,-1,1476,1450,0,0
259,-426,0,0,0,0,0,0,0,0,0,-1,1483,1450,0,0
266,-426,0,0,0,0,0,0,0,0,0,-1,1490,1450,0,0
273,-426,0,0,0,0,0,0,0,0,0,-1,1497,1450,0,0
280,-426,0,0,0,0,0,0,0,0,0,-1,1504,1450,0,0
287,-426,0,0,0,0,0,0,0,0,0,-1,1511,1450,0,0
294,-426,0,0,0,0,0,0,0,0,0,-1,1518,1450,0,0
301,-426,0,0,0,0,0,0,0,0,0,-1,1525,1450,0,0
308,-426,0,0,0,0,0,0,0,0,0,-1,1532,1450,0,0
315,-426,0,0,0,0,0,0,0,0,0,-1,1539,1450,0,0
322,-426,0,0,0,0,0,0,0,0,0,-1,1546,1450,0,0
329,-426,0,0,0,0,0,0,0,0,0,-1,1553,1450,0,0
336,-426,0,0,0,0,0,0,0,0,0,-1,1560,1450,0,0
343,-426,0,0,0,0,0,0,0,0,0,-1,1567,1450,0,0
350,-426,0,0,0,0,0,0,0,0,0,-1,1574,1450,0,0
357,-426,0,0,0,0,0,0,0,0,0,-1,1581,1450,0,0
364,-426,0,0,0,0,0,0,0,0,0,-1,1588,1450,0,0
371,-426,0,0,0,0,0,0,0,0,0,-1,1595,1450,0,0
378,-426,0,0,0,0,0,0,0,0,0,-1,1602,1450,0,0
385,-426,0,0,0,0,0,0,0,0,0,-1,1609,1450,0,0
392,-426,0,0,0,0,0,0,0,0,0,-1,1616,1450,0,0
399,-426,0,0,0,0,0,0,0,0,0,-1,1623,1450,0,0
406,-426,0,0,0,0,0,0,0,0,0,-1,1630,1450,0,0
413,-426,0,0,0,0,0,0,0,0,0,-1,1637,1450,0,0
420,-426,0,0,0,0,0,0,0,0,0,-1,1644,1450,0,0
427,-426,0,0,0,0,0,0,0,0,0,-1,1651,1450,0,0
434,-426,0,0,0,0,0,0,0,0,0,-1,1658,1450,0,0
441,-426,0,0,0,0,0,0,0,0,0,-1,1665,1450,0,0
448,-426,0,0,0,0,0,0,0,0,0,-1,1672,1450,0,0
455,-426,0,0,0,0,0,0,0,0,0,-1,1679,1450,0,0
462,-426,0,0,0,0,0,0,0,0,0,-1,1686,1450,0,0
469,-426,0,0,0,0,0,0,0,0,0,-1,1693,1450,0,0
476,-426,0,0,0,0,0,0,0,0,0,-1,1700,1450,0,0
483,-426,0,0,0,0,0,0,0,0,0,-1,1707,1450,0,0
490,-426,0,0,0,0,0,0,0,0,0,-1,1714,1450,0,0
497,-426,0,0,0,0,0,0,0,0,0,-1,1721,1450,0,0
504,-426,20.6873,3.38367,0,0,0,0,0,0,0,-1,1728,1450,20.6873,-3.38361
511,-426,19.6676,3.53748,0,0,0,0,0,0,0,-1,1735,1450,19.6676,-3.53749
518,-426,18.6853,3.32288,0,0,0,0,0,0,0,-1,1742,1450,18.6853,-3.3229
525,-426,18.9552,2.71033,0,0,0,0,0,0,0,-1,1749,1450,18.9552,-2.71034
532,-426,19.4333,2.70764,0,0,0,0,0,0,0,-1,1756,1450,19.4334,-2.70764
539,-426,25.1482,2.56287,0,0,0,0,0,0,0,-1,1763,1450,25.1482,-2.56286
546,-426,24.1136,3.75659,0,0,0,0,0,0,0,-1,1770,1450,24.1136,-3.7566
553,-426,23.0791,4.95032,0,0,0,0,0,0,0,-1,1777,1450,23.0791,-4.95034
560,-426,12.9688,11.8289,0,0,0,0,0,0,0,-1,1784,1450,12.9688,-11.8288
567,-426,13.6388,11.5623,0,0,0,0,0,0,0,-1,1791,1450,13.6388,-11.5623
574,-426,14.3943,11.0286,0,0,0,0,0,0,0,-1,1798,1450,14.3942,-11.0285
581,-426,16.3879,11.4653,0,0,0,0,0,0,0,-1,1805,1450,16.3879,-11.4653
588,-426,18.1212,12.5547,0,0,0,0,0,0,0,-1,1812,1450,18.1212,-12.5547
595,-426,18.8274,13.2792,0,0,0,0,0,0,0,-1,1819,1450,18.8273,-13.2792
602,-426,18.8768,12.8276,-0.00227442,0.00344153,-0.000345017,0.00346228,-0.00229517,-1.51073,0.00334676,0.0202469,1826,1450,18.8768,-12.8277
609,-426,18.9053,12.4069,-0.00136253,0.00266179,-0.000489773,0.00272054,-0.00142128,-1.45141,0.00243018,0.0127299,1833,1450,18.9052,-12.4069
616,-426,18.905,12.0466,-0.000890821,0.00182745,-0.000369843,0.00187687,-0.000940243,-1.43795,0.00165615,0.0135546,1840,1450,18.905,-12.0466
623,-426,18.8994,11.6838,-0.00060982,0.00107405,-0.000172912,0.00109162,-0.000627392,-1.46952,0.00100446,0.01054,1847,1450,18.8994,-11.6838
630,-426,18.9043,11.2986,-0.000339553,0.000390453,-1.21534e-05,0.000390656,-0.000339756,-1.55415,0.000422044,0.0111035,1854,1450,18.9043,-11.2986
637,-426,18.8958,10.9297,-0.000328178,-0.000243835,0.000339337,5.59411e-05,-0.000627954,0.847219,0.000438474,0.0125712,1861,1450,18.8957,-10.9297
644,-426,18.8643,10.5892,-0.000389512,-0.000767081,0.000696001,0.000142854,-0.00129945,0.652964,0.000917629,0.0125363,1868,1450,18.8643,-10.5893
651,-426,18.8384,10.239,-0.000457268,-0.00114511,0.00103043,0.000285118,-0.0018875,0.624328,0.00136335,0.0119501,1875,1450,18.8384,-10.239
658,-426,18.8469,9.81921,-0.00060789,-0.00137296,0.00138822,0.000449531,-0.00243039,0.650955,0.00178903,0.0120649,1882,1450,18.8469,-9.81922
665,-426,18.8843,9.3595,-0.00082846,-0.00141594,0.00172959,0.000632153,-0.00287655,0.701285,0.00215948,0.0207171,1889,1450,18.8842,-9.35944
672,-426,18.9961,8.98743,0,0,0,0,0,0,0,-1,1896,1450,18.9961,-8.98747
679,-426,17.1522,8.15784,0,0,0,0,0,0,0,-1,1903,1450,17.1522,-8.15784
686,-426,13.5326,8.03711,0,0,0,0,0,0,0,-1,1910,1450,13.5326,-8.03717
693,-426,11.8607,6.45215,0,0,0,0,0,0,0,-1,1917,1450,11.8607,-6.45215
700,-426,9.24304,2.95447,0,0,0,0,0,0,0,-1,1924,1450,9.24305,-2.95442
707,-426,8.44519,-1.21448,0,0,0,0,0,0,0,-1,1931,1450,8.44514,1.21454
714,-426,0,0,0,0,0,0,0,0,0,-1,1938,1450,0,0
721,-426,0,0,0,0,0,0,0,0,0,-1,1945,1450,0,0
728,-426,0,0,0,0,0,0,0,0,0,-1,1952,1450,0,0
735,-426,0,0,0,0,0,0,0,0,0,-1,1959,1450,0,0
742,-426,0,0,0,0,0,0,0,0,0,-1,1966,1450,0,0
749,-426,0,0,0,0,0,0,0,0,0,-1,1973,1450,0,0
756,-426,0,0,0,0,0,0,0,0,0,-1,1980,1450,0,0
763,-426,0,0,0,0,0,0,0,0,0,-1,1987,1450,0,0
770,-426,0,0,0,0,0,0,0,0,0,-1,1994,1450,0,0
777,-426,0,0,0,0,0,0,0,0,0,-1,2001,1450,0,0
784,-426,0,0,0,0,0,0,0,0,0,-1,2008,1450,0,0
791,-426,0,0,0,0,0,0,0,0,0,-1,2015,1450,0,0
798,-426,0,0,0,0,0,0,0,0,0,-1,2022,1450,0,0
805,-426,0,0,0,0,0,0,0,0,0,-1,2029,1450,0,0
812,-426,0,0,0,0,0,0,0,0,0,-1,2036,1450,0,0
-700,-433,0,0,0,0,0,0,0,0,0,-1,524,1457,0,0
-693,-433,0,0,0,0,0,0,0,0,0,-1,531,1457,0,0
-686,-433,0,0,0,0,0,0,0,0,0,-1,538,1457,0,0
-679,-433,0,0,0,0,0,0,0,0,0,-1,545,1457,0,0
-672,-433,0,0,0,0,0,0,0,0,0,-1,552,1457,0,0
-665,-433,0,0,0,0,0,0,0,0,0,-1,559,1457,0,0
-658,-433,0,0,0,0,0,0,0,0,0,-1,566,1457,0,0
-651,-433,0,0,0,0,0,0,0,0,0,-1,573,1457,0,0
-644,-433,0,0,0,0,0,0,0,0,0,-1,580,1457,0,0
-637,-433,0,0,0,0,0,0,0,0,0,-1,587,1457,0,0
-630,-433,0,0,0,0,0,0,0,0,0,-1,594,1457,0,0
-623,-433,0,0,0,0,0,0,0,0,0,-1,601,1457,0,0
-616,-433,0,0,0,0,0,0,0,0,0,-1,608,1457,0,0
-609,-433,0,0,0,0,0,0,0,0,0,-1,615,1457,0,0
-602,-433,0,0,0,0,0,0,0,0,0,-1,622,1457,0,0
-595,-433,0,0,0,0,0,0,0,0,0,-1,629,1457,0,0
-588,-433,-10.3756,-0.467041,0,0,0,0,0,0,0,-1,636,1457,-10.3756,0.467081
-581,-433,-8.12201,0.884033,0,0,0,0,0,0,0,-1,643,1457,-8.12204,-0.884056
-574,-433,-5.86847,2.23523,0,0,0,0,0,0,0,-1,650,1457,-5.86844,-2.23519
-567,-433,-5.42255,1.16833,0,0,0,0,0,0,0,-1,657,1457,-5.42254,-1.1683
-560,-433,-6.84027,1.86414,0,0,0,0,0,0,0,-1,664,1457,-6.84026,-1.86412
-553,-433,-5.74017,1.79163,0,0,0,0,0,0,0,-1,671,1457,-5.74015,-1.79166
-546,-433,-6.47528,6.63879,0,0,0,0,0,0,0,-1,678,1457,-6.47525,-6.63884
-539,-433,-6.45349,7.11194,-0.00697767,-0.000436506,0.00250292,0.000411324,-0.0078255,1.24419,0.00535937,0.046716,685,1457,-6.4535,-7.11198
-532,-433,-6.44165,7.55457,-0.00524855,-0.00088164,0.00134558,-0.000500323,-0.00562986,1.29465,0.00359808,0.0412999,692,1457,-6.44162,-7.55455
-525,-433,-6.64136,7.93958,-0.00354758,-0.000953482,0.000638809,-0.000804704,-0.00369635,1.34198,0.00224461,0.0290128,699,1457,-6.64134,-7.93952
-518,-433,-6.67346,8.33008,-0.00208258,-0.000731934,0.000538223,-0.000543692,-0.00227082,1.23435,0.00136912,0.0174756,706,1457,-6.67344,-8.33011
-511,-433,-6.68396,8.72571,-0.000897291,-0.000349662,0.000647895,7.99029e-05,-0.00132686,0.985326,0.000912372,0.0172482,713,1457,-6.68396,-8.72573
-504,-433,-6.67682,9.09583,0.000195945,-0.000175417,0.000772386,0.000804655,-0.000784127,0.667437,0.000917309,0.0137504,720,1457,-6.67684,-9.09586
-497,-433,-6.66443,9.49585,0.0012114,3.80487e-05,0.000962768,0.00175216,-0.000502711,0.51176,0.00136685,0.0132239,727,1457,-6.66445,-9.49581
-490,-433,-6.68994,9.90881,0.0017254,-0.000249326,0.000967499,0.0021204,-0.000644331,0.387619,0.00167033,0.0143127,734,1457,-6.68994,-9.90887
-483,-433,-6.71216,10.348,0.00173632,-0.00113788,0.000440569,0.00180234,-0.0012039,0.148736,0.00174707,0.0154046,741,1457,-6.71219,-10.348
-476,-433,-6.71674,10.7456,0.00179286,-0.00264732,-0.000206701,0.00180246,-0.00265692,-0.0464187,0.00259033,0.0107749,748,1457,-6.71672,-10.7455
-469,-433,-6.73254,11.1433,0.00143162,-0.00461589,-0.00110109,0.00162586,-0.00481013,-0.174611,0.00386445,0.0105003,755,1457,-6.73257,-11.1433
-462,-433,-6.74719,11.5597,0.000582196,-0.00748525,-0.00254444,0.00131766,-0.00822071,-0.281377,0.00596838,0.0117323,762,1457,-6.74718,-11.5596
-455,-433,-6.4809,12.17,-0.000817643,-0.0117399,-0.00468797,0.000918521,-0.0134761,-0.354683,0.00930534,0.0422767,769,1457,-6.4809,-12.17
-448,-433,-6.10431,12.798,0,0,0,0,0,0,0,-1,776,1457,-6.10429,-12.798
-441,-433,-7.13043,11.9403,0,0,0,0,0,0,0,-1,783,1457,-7.13045,-11.9403
-434,-433,-8.12756,11.6251,0,0,0,0,0,0,0,-1,790,1457,-8.12755,-11.6252
-427,-433,-7.80414,11.9174,0,0,0,0,0,0,0,-1,797,1457,-7.80413,-11.9173
-420,-433,-5.74658,9.49121,0,0,0,0,0,0,0,-1,804,1457,-5.7466,-9.49119
-413,-433,-3.63074,5.5813,0,0,0,0,0,0,0,-1,811,1457,-3.63072,-5.58129
-406,-433,-12.3472,4.69373,0,0,0,0,0,0,0,-1,818,1457,-12.3472,-4.69374
-399,-433,-12.055,2.83594,0,0,0,0,0,0,0,-1,825,1457,-12.055,-2.83594
-392,-433,-12.9772,1.6228,0,0,0,0,0,0,0,-1,832,1457,-12.9772,-1.62282
-385,-433,-13.7999,0.514771,0,0,0,0,0,0,0,-1,839,1457,-13.7999,-0.514788
-378,-433,0,0,0,0,0,0,0,0,0,-1,846,1457,0,0
-371,-433,0,0,0,0,0,0,0,0,0,-1,853,1457,0,0
-364,-433,0,0,0,0,0,0,0,0,0,-1,860,1457,0,0
-357,-433,0,0,0,0,0,0,0,0,0,-1,867,1457,0,0
-350,-433,0,0,0,0,0,0,0,0,0,-1,874,1457,0,0
-343,-433,0,0,0,0,0,0,0,0,0,-1,881,1457,0,0
-336,-433,0,0,0,0,0,0,0,0,0,-1,888,1457,0,0
-329,-433,0,0,0,0,0,0,0,0,0,-1,895,1457,0,0
-322,-433,0,0,0,0,0,0,0,0,0,-1,902,1457,0,0
-315,-433,0,0,0,0,0,0,0,0,0,-1,909,1457,0,0
-308,-433,0,0,0,0,0,0,0,0,0,-1,916,1457,0,0
-301,-433,0,0,0,0,0,0,0,0,0,-1,923,1457,0,0
-294,-433,0,0,0,0,0,0,0,0,0,-1,930,1457,0,0
-287,-433,0,0,0,0,0,0,0,0,0,-1,937,1457,0,0
-280,-433,0,0,0,0,0,0,0,0,0,-1,944,1457,0,0
-273,-433,0,0,0,0,0,0,0,0,0,-1,951,1457,0,0
-266,-433,0,0,0,0,0,0,0,0,0,-1,958,1457,0,0
-259,-433,0,0,0,0,0,0,0,0,0,-1,965,1457,0,0
-252,-433,0,0,0,0,0,0,0,0,0,-1,972,1457,0,0
-245,-433,0,0,0,0,0,0,0,0,0,-1,979,1457,0,0
-238,-433,0,0,0,0,0,0,0,0,0,-1,986,1457,0,0
-231,-433,0,0,0,0,0,0,0,0,0,-1,993,1457,0,0
-224,-433,0,0,0,0,0,0,0,0,0,-1,1000,1457,0,0
-217,-433,0,0,0,0,0,0,0,0,0,-1,1007,1457,0,0
-210,-433,0,0,0,0,0,0,0,0,0,-1,1014,1457,0,0
-203,-433,0,0,0,0,0,0,0,0,0,-1,1021,1457,0,0
-196,-433,0,0,0,0,0,0,0,0,0,-1,1028,1457,0,0
-189,-433,0,0,0,0,0,0,0,0,0,-1,1035,1457,0,0
-182,-433,0,0,0,0,0,0,0,0,0,-1,1042,1457,0,0
-175,-433,0,0,0,0,0,0,0,0,0,-1,1049,1457,0,0
-168,-433,0,0,0,0,0,0,0,0,0,-1,1056,1457,0,0
-161,-433,0,0,0,0,0,0,0,0,0,-1,1063,1457,0,0
-154,-433,0,0,0,0,0,0,0,0,0,-1,1070,1457,0,0
-147,-433,0,0,0,0,0,0,0,0,0,-1,1077,1457,0,0
-140,-433,0,0,0,0,0,0,0,0,0,-1,1084,1457,0,0
-133,-433,0,0,0,0,0,0,0,0,0,-1,1091,1457,0,0
-126,-433,0,0,0,0,0,0,0,0,0,-1,1098,1457,0,0
-119,-433,0,0,0,0,0,0,0,0,0,-1,1105,1457,0,0
-112,-433,0,0,0,0,0,0,0,0,0,-1,1112,1457,0,0
-105,-433,0,0,0,0,0,0,0,0,0,-1,1119,1457,0,0
-98,-433,0,0,0,0,0,0,0,0,0,-1,1126,1457,0,0
-91,-433,0,0,0,0,0,0,0,0,0,-1,1133,1457,0,0
-84,-433,0,0,0,0,0,0,0,0,0,-1,1140,1457,0,0
-77,-433,0,0,0,0,0,0,0,0,0,-1,1147,1457,0,0
-70,-433,0,0,0,0,0,0,0,0,0,-1,1154,1457,0,0
-63,-433,0,0,0,0,0,0,0,0,0,-1,1161,1457,0,0
-56,-433,0,0,0,0,0,0,0,0,0,-1,1168,1457,0,0
-49,-433,0,0,0,0,0,0,0,0,0,-1,1175,1457,0,0
-42,-433,0,0,0,0,0,0,0,0,0,-1,1182,1457,0,0
-35,-433,0,0,0,0,0,0,0,0,0,-1,1189,1457,0,0
-28,-433,0,0,0,0,0,0,0,0,0,-1,1196,1457,0,0
-21,-433,0,0,0,0,0,0,0,0,0,-1,1203,1457,0,0
-14,-433,0,0,0,0,0,0,0,0,0,-1,1210,1457,0,0
-7,-433,0,0,0,0,0,0,0,0,0,-1,1217,1457,0,0
0,-433,0,0,0,0,0,0,0,0,0,-1,1224,1457,0,0
7,-433,0,0,0,0,0,0,0,0,0,-1,1231,1457,0,0
14,-433,0,0,0,0,0,0,0,0,0,-1,1238,1457,0,0
21,-433,0,0,0,0,0,0,0,0,0,-1,1245,1457,0,0
28,-433,0,0,0,0,0,0,0,0,0,-1,1252,1457,0,0
35,-433,0,0,0,0,0,0,0,0,0,-1,1259,1457,0,0
42,-433,0,0,0,0,0,0,0,0,0,-1,1266,1457,0,0
49,-433,0,0,0,0,0,0,0,0,0,-1,1273,1457,0,0
56,-433,0,0,0,0,0,0,0,0,0,-1,1280,1457,0,0
63,-433,0,0,0,0,0,0,0,0,0,-1,1287,1457,0,0
70,-433,0,0,0,0,0,0,0,0,0,-1,1294,1457,0,0
77,-433,0,0,0,0,0,0,0,0,0,-1,1301,1457,0,0
84,-433,0,0,0,0,0,0,0,0,0,-1,1308,1457,0,0
91,-433,0,0,0,0,0,0,0,0,0,-1,1315,1457,0,0
98,-433,0,0,0,0,0,0,0,0,0,-1,1322,1457,0,0
105,-433,0,0,0,0,0,0,0,0,0,-1,1329,1457,0,0
112,-433,0,0,0,0,0,0,0,0,0,-1,1336,1457,0,0
119,-433,0,0,0,0,0,0,0,0,0,-1,1343,1457,0,0
126,-433,0,0,0,0,0,0,0,0,0,-1,1350,1457,0,0
133,-433,0,0,0,0,0,0,0,0,0,-1,1357,1457,0,0
140,-433,0,0,0,0,0,0,0,0,0,-1,1364,1457,0,0
147,-433,0,0,0,0,0,0,0,0,0,-1,1371,1457,0,0
154,-433,0,0,0,0,0,0,0,0,0,-1,1378,1457,0,0
161,-433,0,0,0,0,0,0,0,0,0,-1,1385,1457,0,0
168,-433,0,0,0,0,0,0,0,0,0,-1,1392,1457,0,0
175,-433,0,0,0,0,0,0,0,0,0,-1,1399,1457,0,0
182,-433,0,0,0,0,0,0,0,0,0,-1,1406,1457,0,0
189,-433,0,0,0,0,0,0,0,0,0,-1,1413,1457,0,0
196,-433,0,0,0,0,0,0,0,0,0,-1,1420,1457,0,0
203,-433,0,0,0,0,0,0,0,0,0,-1,1427,1457,0,0
210,-433,0,0,0,0,0,0,0,0,0,-1,1434,1457,0,0
217,-433,0,0,0,0,0,0,0,0,0,-1,1441,1457,0,0
224,-433,0,0,0,0,0,0,0,0,0,-1,1448,1457,0,0
231,-433,0,0,0,0,0,0,0,0,0,-1,1455,1457,0,0
238,-433,0,0,0,0,0,0,0,0,0,-1,1462,1457,0,0
245,-433,0,0,0,0,0,0,0,0,0,-1,1469,1457,0,0
252,-433,0,0,0,0,0,0,0,0,0,-1,1476,1457,0,0
259,-433,0,0,0,0,0,0,0,0,0,-1,1483,1457,0,0
266,-433,0,0,0,0,0,0,0,0,0,-1,1490,1457,0,0
273,-433,0,0,0,0,0,0,0,0,0,-1,1497,1457,0,0
280,-433,0,0,0,0,0,0,0,0,0,-1,1504,1457,0,0
287,-433,0,0,0,0,0,0,0,0,0,-1,1511,1457,0,0
294,-433,0,0,0,0,0,0,0,0,0,-1,1518,1457,0,0
301,-433,0,0,0,0,0,0,0,0,0,-1,1525,1457,0,0
308,-433,0,0,0,0,0,0,0,0,0,-1,1532,1457,0,0
315,-433,0,0,0,0,0,0,0,0,0,-1,1539,1457,0,0
322,-433,0,0,0,0,0,0,0,0,0,-1,1546,1457,0,0
329,-433,0,0,0,0,0,0,0,0,0,-1,1553,1457,0,0
336,-433,0,0,0,0,0,0,0,0,0,-1,1560,1457,0,0
343,-433,0,0,0,0,0,0,0,0,0,-1,1567,1457,0,0
350,-433,0,0,0,0,0,0,0,0,0,-1,1574,1457,0,0
357,-433,0,0,0,0,0,0,0,0,0,-1,1581,1457,0,0
364,-433,0,0,0,0,0,0,0,0,0,-1,1588,1457,0,0
371,-433,0,0,0,0,0,0,0,0,0,-1,1595,1457,0,0
378,-433,0,0,0,0,0,0,0,0,0,-1,1602,1457,0,0
385,-433,0,0,0,0,0,0,0,0,0,-1,1609,1457,0,0
392,-433,0,0,0,0,0,0,0,0,0,-1,1616,1457,0,0
399,-433,0,0,0,0,0,0,0,0,0,-1,1623,1457,0,0
406,-433,0,0,0,0,0,0,0,0,0,-1,1630,1457,0,0
413,-433,0,0,0,0,0,0,0,0,0,-1,1637,1457,0,0
420,-433,0,0,0,0,0,0,0,0,0,-1,1644,1457,0,0
427,-433,0,0,0,0,0,0,0,0,0,-1,1651,1457,0,0
434,-433,0,0,0,0,0,0,0,0,0,-1,1658,1457,0,0
441,-433,0,0,0,0,0,0,0,0,0,-1,1665,1457,0,0
448,-433,0,0,0,0,0,0,0,0,0,-1,1672,1457,0,0
455,-433,0,0,0,0,0,0,0,0,0,-1,1679,1457,0,0
462,-433,0,0,0,0,0,0,0,0,0,-1,1686,1457,0,0
469,-433,0,0,0,0,0,0,0,0,0,-1,1693,1457,0,0
476,-433,0,0,0,0,0,0,0,0,0,-1,1700,1457,0,0
483,-433,0,0,0,0,0,0,0,0,0,-1,1707,1457,0,0
490,-433,0,0,0,0,0,0,0,0,0,-1,1714,1457,0,0
497,-433,0,0,0,0,0,0,0,0,0,-1,1721,1457,0,0
504,-433,19.9058,3.03662,0,0,0,0,0,0,0,-1,1728,1457,19.9058,-3.03656
511,-433,19.0145,3.07837,0,0,0,0,0,0,0,-1,1735,1457,19.0146,-3.07834
518,-433,18.071,3.06433,0,0,0,0,0,0,0,-1,1742,1457,18.071,-3.06432
525,-433,17.2048,3.37085,0,0,0,0,0,0,0,-1,1749,1457,17.2049,-3.37083
532,-433,16.5637,3.36646,0,0,0,0,0,0,0,-1,1756,1457,16.5637,-3.36643
539,-433,15.9193,3.30396,0,0,0,0,0,0,0,-1,1763,1457,15.9193,-3.30394
546,-433,23.1903,4.81775,0,0,0,0,0,0,0,-1,1770,1457,23.1903,-4.81775
553,-433,13.9674,11.5781,0,0,0,0,0,0,0,-1,1777,1457,13.9674,-11.5781
560,-433,13.9855,11.7341,0,0,0,0,0,0,0,-1,1784,1457,13.9855,-11.7341
567,-433,13.9264,11.3364,0,0,0,0,0,0,0,-1,1791,1457,13.9263,-11.3364
574,-433,15.5305,12.3673,0,0,0,0,0,0,0,-1,1798,1457,15.5305,-12.3673
581,-433,16.6405,12.1898,0,0,0,0,0,0,0,-1,1805,1457,16.6405,-12.1898
588,-433,18.5945,13.7875,0,0,0,0,0,0,0,-1,1812,1457,18.5945,-13.7874
595,-433,18.5471,13.2378,-0.00318406,0.00328692,0.000228936,0.003295,-0.00319215,1.53548,0.00374552,0.0311801,1819,1457,18.5471,-13.2379
602,-433,18.5349,12.8101,-0.00201209,0.00284134,-0.000170565,0.00284732,-0.00201808,-1.53571,0.00282261,0.0222934,1826,1457,18.5349,-12.81
609,-433,18.5514,12.3925,-0.00119067,0.00210228,-0.000284755,0.00212672,-0.00121511,-1.48517,0.00195319,0.0169344,1833,1457,18.5514,-12.3924
616,-433,18.5597,12.0552,-0.000724398,0.00129491,-0.000174476,0.00130988,-0.000739362,-1.48524,0.00119831,0.0133507,1840,1457,18.5597,-12.0551
623,-433,18.5205,11.667,-0.00043929,0.00052178,3.07996e-05,0.000522766,-0.000440276,1.53879,0.000556692,0.0101309,1847,1457,18.5205,-11.667
630,-433,18.5013,11.2897,-0.000170066,-0.00023234,0.000218558,1.95611e-05,-0.000421968,0.714641,0.000288054,0.0132555,1854,1457,18.5013,-11.2897
637,-433,18.5042,10.9287,-0.000166546,-0.000957705,0.000603182,0.000159201,-0.00128345,0.49517,0.000913338,0.0151285,1861,1457,18.5041,-10.9288
644,-433,18.5077,10.5795,-0.000238225,-0.00157795,0.000995206,0.000291558,-0.00210774,0.489179,0.00151174,0.0153048,1868,1457,18.5076,-10.5795
651,-433,18.4899,10.2321,-0.000327549,-0.00204681,0.00135781,0.000419867,-0.00279423,0.503196,0.00201739,0.011496,1875,1457,18.4899,-10.232
658,-433,18.4684,9.81702,-0.000531116,-0.00235715,0.00176685,0.000544676,-0.00343295,0.54692,0.00249013,0.0189545,1882,1457,18.4684,-9.81707
665,-433,18.6188,9.3125,0,0,0,0,0,0,0,-1,1889,1457,18.6187,-9.31251
672,-433,18.115,8.7207,0,0,0,0,0,0,0,-1,1896,1457,18.115,-8.72074
679,-433,17.2969,9.6355,0,0,0,0,0,0,0,-1,1903,1457,17.2968,-9.63548
686,-433,13.6356,8.61694,0,0,0,0,0,0,0,-1,1910,1457,13.6356,-8.61694
693,-433,13.4081,8.39624,0,0,0,0,0,0,0,-1,1917,1457,13.4081,-8.39624
700,-433,7.16809,-1.5166,0,0,0,0,0,0,0,-1,1924,1457,7.16806,1.51656
707,-433,8.68359,-2.82202,0,0,0,0,0,0,0,-1,1931,1457,8.68359,2.82197
714,-433,0,0,0,0,0,0,0,0,0,-1,1938,1457,0,0
721,-433,0,0,0,0,0,0,0,0,0,-1,1945,1457,0,0
728,-433,0,0,0,0,0,0,0,0,0,-1,1952,1457,0,0
735,-433,0,0,0,0,0,0,0,0,0,-1,1959,1457,0,0
742,-433,0,0,0,0,0,0,0,0,0,-1,1966,1457,0,0
749,-433,0,0,0,0,0,0,0,0,0,-1,1973,1457,0,0
756,-433,0,0,0,0,0,0,0,0,0,-1,1980,1457,0,0
763,-433,0,0,0,0,0,0,0,0,0,-1,1987,1457,0,0
770,-433,0,0,0,0,0,0,0,0,0,-1,1994,1457,0,0
777,-433,0,0,0,0,0,0,0,0,0,-1,2001,1457,0,0
784,-433,0,0,0,0,0,0,0,0,0,-1,2008,1457,0,0
791,-433,0,0,0,0,0,0,0,0,0,-1,2015,1457,0,0
798,-433,0,0,0,0,0,0,0,0,0,-1,2022,1457,0,0
805,-433,0,0,0,0,0,0,0,0,0,-1,2029,1457,0,0
812,-433,0,0,0,0,0,0,0,0,0,-1,2036,1457,0,0
-700,-440,0,0,0,0,0,0,0,0,0,-1,524,1464,0,0
-693,-440,0,0,0,0,0,0,0,0,0,-1,531,1464,0,0
-686,-440,0,0,0,0,0,0,0,0,0,-1,538,1464,0,0
-679,-440,0,0,0,0,0,0,0,0,0,-1,545,1464,0,0
-672,-440,0,0,0,0,0,0,0,0,0,-1,552,1464,0,0
-665,-440,0,0,0,0,0,0,0,0,0,-1,559,1464,0,0
-658,-440,0,0,0,0,0,0,0,0,0,-1,566,1464,0,0
-651,-440,0,0,0,0,0,0,0,0,0,-1,573,1464,0,0
-644,-440,0,0,0,0,0,0,0,0,0,-1,580,1464,0,0
-637,-440,0,0,0,0,0,0,0,0,0,-1,587,1464,0,0
-630,-440,0,0,0,0,0,0,0,0,0,-1,594,1464,0,0
-623,-440,0,0,0,0,0,0,0,0,0,-1,601,1464,0,0
-616,-440,0,0,0,0,0,0,0,0,0,-1,608,1464,0,0
-609,-440,0,0,0,0,0,0,0,0,0,-1,615,1464,0,0
-602,-440,0,0,0,0,0,0,0,0,0,-1,622,1464,0,0
-595,-440,0,0,0,0,0,0,0,0,0,-1,629,1464,0,0
-588,-440,0,0,0,0,0,0,0,0,0,-1,636,1464,0,0
-581,-440,-8.97278,0.254517,0,0,0,0,0,0,0,-1,643,1464,-8.97276,-0.254526
-574,-440,-7.00818,-0.918579,0,0,0,0,0,0,0,-1,650,1464,-7.00817,0.918538
-567,-440,-6.12152,-0.0766602,0,0,0,0,0,0,0,-1,657,1464,-6.12151,0.0767097
-560,-440,-5.46747,0.82251,0,0,0,0,0,0,0,-1,664,1464,-5.46748,-0.822551
-553,-440,-6.84729,0.0831299,0,0,0,0,0,0,0,-1,671,1464,-6.84732,-0.083136
-546,-440,-5.63446,-0.153198,0,0,0,0,0,0,0,-1,678,1464,-5.63447,0.153147
-539,-440,-6.22424,7.005,0,0,0,0,0,0,0,-1,685,1464,-6.22426,-7.00497
-532,-440,-6.19568,7.47705,-0.00443902,-0.00188177,0.00127762,-0.00135286,-0.00496793,1.17829,0.00296571,0.0464781,692,1464,-6.19571,-7.47708
-525,-440,-6.29974,7.96716,-0.0023887,-0.0015601,0.000970388,-0.000919268,-0.00302953,0.987155,0.00179359,0.0323746,699,1464,-6.29977,-7.96717
-518,-440,-6.29327,8.28943,-0.000864855,-0.00122471,0.000824392,-0.000200983,-0.00188858,0.677956,0.00119769,0.0186295,706,1464,-6.29328,-8.28946
-511,-440,-6.25787,8.71472,0.000115253,-0.000738464,0.000754054,0.000554885,-0.0011781,0.527844,0.00102187,0.0166721,713,1464,-6.25788,-8.71472
-504,-440,-6.23907,9.11975,0.000854684,-0.000538661,0.000687662,0.00113691,-0.000820882,0.389445,0.00113523,0.0194361,720,1464,-6.23905,-9.11981
-497,-440,-6.23724,9.50659,0.00153493,-0.000262051,0.000788181,0.00183165,-0.000558766,0.360045,0.00144385,0.0204737,727,1464,-6.23724,-9.50661
-490,-440,-6.26141,9.86975,0.00181322,-0.000359343,0.000792408,0.00207153,-0.00061765,0.315115,0.00162648,0.0207556,734,1464,-6.26143,-9.86974
-483,-440,-6.30896,10.2975,0.00169252,-0.000987453,0.000341918,0.00173546,-0.00103039,0.124917,0.00161406,0.0201174,741,1464,-6.30896,-10.2975
-476,-440,-6.32196,10.709,0.00164789,-0.00220973,-0.000205726,0.00165883,-0.00222067,-0.0531289,0.00224764,0.0142902,748,1464,-6.32198,-10.709
-469,-440,-6.34625,11.1405,0.00129176,-0.00373998,-0.000897995,0.00144722,-0.00389544,-0.171418,0.00319071,0.0130001,755,1464,-6.34624,-11.1405
-462,-440,-6.38727,11.5583,0.000564738,-0.00605217,-0.00205211,0.00114949,-0.00663692,-0.277593,0.00485337,0.0150075,762,1464,-6.3873,-11.5583
-455,-440,-6.23444,12.0718,-0.000488515,-0.00940676,-0.00373184,0.000867032,-0.0107623,-0.34842,0.00748065,0.0267731,769,1464,-6.23443,-12.0718
-448,-440,-5.79828,12.6887,0,0,0,0,0,0,0,-1,776,1464,-5.79826,-12.6887
-441,-440,-6.54041,12.2843,-0.00422627,-0.0209671,-0.0102353,0.000625495,-0.0258189,-0.442649,0.0174248,0.0468101,783,1464,-6.54041,-12.2843
-434,-440,-7.12396,12.3875,-0.00808408,-0.0298117,-0.0155608,3.00072e-05,-0.0379258,-0.480656,0.0252939,0.047022,790,1464,-7.12395,-12.3874
-427,-440,-7.06665,12.6027,0,0,0,0,0,0,0,-1,797,1464,-7.06663,-12.6027
-420,-440,-3.84052,9.66321,0,0,0,0,0,0,0,-1,804,1464,-3.84054,-9.66322
-413,-440,-3.46796,5.72278,0,0,0,0,0,0,0,-1,811,1464,-3.46797,-5.72276
-406,-440,-5.2887,5.20264,0,0,0,0,0,0,0,-1,818,1464,-5.2887,-5.20261
-399,-440,-12.7318,3.94421,0,0,0,0,0,0,0,-1,825,1464,-12.7318,-3.94419
-392,-440,-13.5565,2.51855,0,0,0,0,0,0,0,-1,832,1464,-13.5565,-2.51861
-385,-440,-14.6741,1.39795,0,0,0,0,0,0,0,-1,839,1464,-14.6741,-1.39801
-378,-440,-15.8063,0.293457,0,0,0,0,0,0,0,-1,846,1464,-15.8063,-0.293412
-371,-440,0,0,0,0,0,0,0,0,0,-1,853,1464,0,0
-364,-440,0,0,0,0,0,0,0,0,0,-1,860,1464,0,0
-357,-440,0,0,0,0,0,0,0,0,0,-1,867,1464,0,0
-350,-440,0,0,0,0,0,0,0,0,0,-1,874,1464,0,0
-343,-440,0,0,0,0,0,0,0,0,0,-1,881,1464,0,0
-336,-440,0,0,0,0,0,0,0,0,0,-1,888,1464,0,0
-329,-440,0,0,0,0,0,0,0,0,0,-1,895,1464,0,0
-322,-440,0,0,0,0,0,0,0,0,0,-1,902,1464,0,0
-315,-440,0,0,0,0,0,0,0,0,0,-1,909,1464,0,0
-308,-440,0,0,0,0,0,0,0,0,0,-1,916,1464,0,0
-301,-440,0,0,0,0,0,0,0,0,0,-1,923,1464,0,0
-294,-440,0,0,0,0,0,0,0,0,0,-1,930,1464,0,0
-287,-440,0,0,0,0,0,0,0,0,0,-1,937,1464,0,0
-280,-440,0,0,0,0,0,0,0,0,0,-1,944,1464,0,0
-273,-440,0,0,0,0,0,0,0,0,0,-1,951,1464,0,0
-266,-440,0,0,0,0,0,0,0,0,0,-1,958,1464,0,0
-259,-440,0,0,0,0,0,0,0,0,0,-1,965,1464,0,0
-252,-440,0,0,0,0,0,0,0,0,0,-1,972,1464,0,0
-245,-440,0,0,0,0,0,0,0,0,0,-1,979,1464,0,0
-238,-440,0,0,0,0,0,0,0,0,0,-1,986,1464,0,0
-231,-440,0,0,0,0,0,0,0,0,0,-1,993,1464,0,0
-224,-440,0,0,0,0,0,0,0,0,0,-1,1000,1464,0,0
-217,-440,0,0,0,0,0,0,0,0,0,-1,1007,1464,0,0
-210,-440,0,0,0,0,0,0,0,0,0,-1,1014,1464,0,0
-203,-440,0,0,0,0,0,0,0,0,0,-1,1021,1464,0,0
-196,-440,0,0,0,0,0,0,0,0,0,-1,1028,1464,0,0
-189,-440,0,0,0,0,0,0,0,0,0,-1,1035,1464,0,0
-182,-440,0,0,0,0,0,0,0,0,0,-1,1042,1464,0,0
-175,-440,0,0,0,0,0,0,0,0,0,-1,1049,1464,0,0
-168,-440,0,0,0,0,0,0,0,0,0,-1,1056,1464,0,0
-161,-440,0,0,0,0,0,0,0,0,0,-1,1063,1464,0,0
-154,-440,0,0,0,0,0,0,0,0,0,-1,1070,1464,0,0
-147,-440,0,0,0,0,0,0,0,0,0,-1,1077,1464,0,0
-140,-440,0,0,0,0,0,0,0,0,0,-1,1084,1464,0,0
-133,-440,0,0,0,0,0,0,0,0,0,-1,1091,1464,0,0
-126,-440,0,0,0,0,0,0,0,0,0,-1,1098,1464,0,0
-119,-440,0,0,0,0,0,0,0,0,0,-1,1105,1464,0,0
-112,-440,0,0,0,0,0,0,0,0,0,-1,1112,1464,0,0
-105,-440,0,0,0,0,0,0,0,0,0,-1,1119,1464,0,0
-98,-440,0,0,0,0,0,0,0,0,0,-1,1126,1464,0,0
-91,-440,0,0,0,0,0,0,0,0,0,-1,1133,1464,0,0
-84,-440,0,0,0,0,0,0,0,0,0,-1,1140,1464,0,0
-77,-440,0,0,0,0,0,0,0,0,0,-1,1147,1464,0,0
-70,-440,0,0,0,0,0,0,0,0,0,-1,1154,1464,0,0
-63,-440,0,0,0,0,0,0,0,0,0,-1,1161,1464,0,0
-56,-440,0,0,0,0,0,0,0,0,0,-1,1168,1464,0,0
-49,-440,0,0,0,0,0,0,0,0,0,-1,1175,1464,0,0
-42,-440,0,0,0,0,0,0,0,0,0,-1,1182,1464,0,0
-35,-440,0,0,0,0,0,0,0,0,0,-1,1189,1464,0,0
-28,-440,0,0,0,0,0,0,0,0,0,-1,1196,1464,0,0
-21,-440,0,0,0,0,0,0,0,0,0,-1,1203,1464,0,0
-14,-440,0,0,0,0,0,0,0,0,0,-1,1210,1464,0,0
-7,-440,0,0,0,0,0,0,0,0,0,-1,1217,1464,0,0
0,-440,0,0,0,0,0,0,0,0,0,-1,1224,1464,0,0
7,-440,0,0,0,0,0,0,0,0,0,-1,1231,1464,0,0
14,-440,0,0,0,0,0,0,0,0,0,-1,1238,1464,0,0
21,-440,0,0,0,0,0,0,0,0,0,-1,1245,1464,0,0
28,-440,0,0,0,0,0,0,0,0,0,-1,1252,1464,0,0
35,-440,0,0,0,0,0,0,0,0,0,-1,1259,1464,0,0
42,-440,0,0,0,0,0,0,0,0,0,-1,1266,1464,0,0
49,-440,0,0,0,0,0,0,0,0,0,-1,1273,1464,0,0
56,-440,0,0,0,0,0,0,0,0,0,-1,1280,1464,0,0
63,-440,0,0,0,0,0,0,0,0,0,-1,1287,1464,0,0
70,-440,0,0,0,0,0,0,0,0,0,-1,1294,1464,0,0
77,-440,0,0,0,0,0,0,0,0,0,-1,1301,1464,0,0
84,-440,0,0,0,0,0,0,0,0,0,-1,1308,1464,0,0
91,-440,0,0,0,0,0,0,0,0,0,-1,1315,1464,0,0
98,-440,0,0,0,0,0,0,0,0,0,-1,1322,1464,0,0
105,-440,0,0,0,0,0,0,0,0,0,-1,1329,1464,0,0
112,-440,0,0,0,0,0,0,0,0,0,-1,1336,1464,0,0
119,-440,0,0,0,0,0,0,0,0,0,-1,1343,1464,0,0
126,-440,0,0,0,0,0,0,0,0,0,-1,1350,1464,0,0
133,-440,0,0,0,0,0,0,0,0,0,-1,1357,1464,0,0
140,-440,0,0,0,0,0,0,0,0,0,-1,1364,1464,0,0
147,-440,0,0,0,0,0,0,0,0,0,-1,1371,1464,0,0
154,-440,0,0,0,0,0,0,0,0,0,-1,1378,1464,0,0
161,-440,0,0,0,0,0,0,0,0,0,-1,1385,1464,0,0
168,-440,0,0,0,0,0,0,0,0,0,-1,1392,1464,0,0
175,-440,0,0,0,0,0,0,0,0,0,-1,1399,1464,0,0
182,-440,0,0,0,0,0,0,0,0,0,-1,1406,1464,0,0
189,-440,0,0,0,0,0,0,0,0,0,-1,1413,1464,0,0
196,-440,0,0,0,0,0,0,0,0,0,-1,1420,1464,0,0
203,-440,0,0,0,0,0,0,0,0,0,-1,1427,1464,0,0
210,-440,0,0,0,0,0,0,0,0,0,-1,1434,1464,0,0
217,-440,0,0,0,0,0,0,0,0,0,-1,1441,1464,0,0
224,-440,0,0,0,0,0,0,0,0,0,-1,1448,1464,0,0
231,-440,0,0,0,0,0,0,0,0,0,-1,1455,1464,0,0
238,-440,0,0,0,0,0,0,0,0,0,-1,1462,1464,0,0
245,-440,0,0,0,0,0,0,0,0,0,-1,1469,1464,0,0
252,-440,0,0,0,0,0,0,0,0,0,-1,1476,1464,0,0
259,-440,0,0,0,0,0,0,0,0,0,-1,1483,1464,0,0
266,-440,0,0,0,0,0,0,0,0,0,-1,1490,1464,0,0
273,-440,0,0,0,0,0,0,0,0,0,-1,1497,1464,0,0
280,-440,0,0,0,0,0,0,0,0,0,-1,1504,1464,0,0
287,-440,0,0,0,0,0,0,0,0,0,-1,1511,1464,0,0
294,-440,0,0,0,0,0,0,0,0,0,-1,1518,1464,0,0
301,-440,0,0,0,0,0,0,0,0,0,-1,1525,1464,0,0
308,-440,0,0,0,0,0,0,0,0,0,-1,1532,1464,0,0
315,-440,0,0,0,0,0,0,0,0,0,-1,1539,1464,0,0
322,-440,0,0,0,0,0,0,0,0,0,-1,1546,1464,0,0
329,-440,0,0,0,0,0,0,0,0,0,-1,1553,1464,0,0
336,-440,0,0,0,0,0,0,0,0,0,-1,1560,1464,0,0
343,-440,0,0,0,0,0,0,0,0,0,-1,1567,1464,0,0
350,-440,0,0,0,0,0,0,0,0,0,-1,1574,1464,0,0
357,-440,0,0,0,0,0,0,0,0,0,-1,1581,1464,0,0
364,-440,0,0,0,0,0,0,0,0,0,-1,1588,1464,0,0
371,-440,0,0,0,0,0,0,0,0,0,-1,1595,1464,0,0
378,-440,0,0,0,0,0,0,0,0,0,-1,1602,1464,0,0
385,-440,0,0,0,0,0,0,0,0,0,-1,1609,1464,0,0
392,-440,0,0,0,0,0,0,0,0,0,-1,1616,1464,0,0
399,-440,0,0,0,0,0,0,0,0,0,-1,1623,1464,0,0
406,-440,0,0,0,0,0,0,0,0,0,-1,1630,1464,0,0
413,-440,0,0,0,0,0,0,0,0,0,-1,1637,1464,0,0
420,-440,0,0,0,0,0,0,0,0,0,-1,1644,1464,0,0
427,-440,0,0,0,0,0,0,0,0,0,-1,1651,1464,0,0
434,-440,0,0,0,0,0,0,0,0,0,-1,1658,1464,0,0
441,-440,0,0,0,0,0,0,0,0,0,-1,1665,1464,0,0
448,-440,0,0,0,0,0,0,0,0,0,-1,1672,1464,0,0
455,-440,0,0,0,0,0,0,0,0,0,-1,1679,1464,0,0
462,-440,0,0,0,0,0,0,0,0,0,-1,1686,1464,0,0
469,-440,0,0,0,0,0,0,0,0,0,-1,1693,1464,0,0
476,-440,0,0,0,0,0,0,0,0,0,-1,1700,1464,0,0
483,-440,0,0,0,0,0,0,0,0,0,-1,1707,1464,0,0
490,-440,0,0,0,0,0,0,0,0,0,-1,1714,1464,0,0
497,-440,16.965,-0.528442,0,0,0,0,0,0,0,-1,1721,1464,16.965,0.528492
504,-440,15.8052,0.670166,0,0,0,0,0,0,0,-1,1728,1464,15.8052,-0.670145
511,-440,17.5754,2.77832,0,0,0,0,0,0,0,-1,1735,1464,17.5754,-2.77826
518,-440,16.9017,3.07861,0,0,0,0,0,0,0,-1,1742,1464,16.9018,-3.07859
525,-440,18.4495,12.0867,0,0,0,0,0,0,0,-1,1749,1464,18.4495,-12.0867
532,-440,15.4319,3.64392,0,0,0,0,0,0,0,-1,1756,1464,15.4318,-3.64391
539,-440,14.8214,3.41321,0,0,0,0,0,0,0,-1,1763,1464,14.8214,-3.4132
546,-440,14.8651,10.7683,0,0,0,0,0,0,0,-1,1770,1464,14.8651,-10.7683
553,-440,15.1213,11.4121,0,0,0,0,0,0,0,-1,1777,1464,15.1213,-11.4121
560,-440,17.4325,12.5394,0,0,0,0,0,0,0,-1,1784,1464,17.4325,-12.5394
567,-440,16.9025,12.4249,0,0,0,0,0,0,0,-1,1791,1464,16.9025,-12.425
574,-440,18.5867,14.2843,0,0,0,0,0,0,0,-1,1798,1464,18.5867,-14.2843
581,-440,18.0189,14.1083,0,0,0,0,0,0,0,-1,1805,1464,18.019,-14.1082
588,-440,18.1359,13.6246,-0.00363445,0.00261456,0.000940939,0.00275317,-0.00377305,1.42454,0.00378322,0.0458902,1812,1464,18.1358,-13.6246
595,-440,18.1357,13.2029,-0.00235669,0.002425,0.000292379,0.00244281,-0.0023745,1.50995,0.00278137,0.020382,1819,1464,18.1357,-13.2029
602,-440,18.1788,12.7808,-0.00146204,0.00209028,-4.23689e-05,0.00209078,-0.00146255,-1.55887,0.00206218,0.018215,1826,1464,18.1788,-12.7807
609,-440,18.1699,12.4198,-0.000784904,0.00143369,-0.000126702,0.00144091,-0.000792116,-1.51393,0.00130725,0.0166555,1833,1464,18.1699,-12.4197
616,-440,18.153,12.0983,-0.000383529,0.000686223,-2.21218e-05,0.00068668,-0.000383986,-1.55013,0.00062633,0.0172524,1840,1464,18.153,-12.0983
623,-440,18.1581,11.6958,-0.000158428,-7.62164e-05,0.000194673,8.16429e-05,-0.000316288,0.889447,0.000242694,0.0130164,1847,1464,18.1581,-11.6958
630,-440,18.1187,11.2891,3.16057e-05,-0.00087172,0.000427781,0.000202033,-0.00104215,0.379125,0.000770984,0.0117859,1854,1464,18.1186,-11.289
637,-440,18.1222,10.9608,-4.35365e-05,-0.00166133,0.000857506,0.000326393,-0.00203126,0.407281,0.00147506,0.0159547,1861,1464,18.1221,-10.9608
644,-440,18.1427,10.6073,-0.000203992,-0.00235892,0.0013041,0.000410175,-0.00297308,0.440138,0.00213197,0.0144393,1868,1464,18.1427,-10.6073
651,-440,18.1613,10.2086,-0.000403461,-0.00293531,0.00174774,0.000488664,-0.00382743,0.471968,0.00272913,0.0163544,1875,1464,18.1612,-10.2087
658,-440,18.0264,9.91211,-0.000748382,-0.00336796,0.00226511,0.000558367,-0.00467471,0.523263,0.00331829,0.0332779,1882,1464,18.0264,-9.91211
665,-440,18.1829,9.75623,0,0,0,0,0,0,0,-1,1889,1464,18.1829,-9.75628
672,-440,18.613,9.54382,0,0,0,0,0,0,0,-1,1896,1464,18.613,-9.54383
679,-440,16.9508,10.2336,0,0,0,0,0,0,0,-1,1903,1464,16.9508,-10.2337
686,-440,15.2556,8.44177,0,0,0,0,0,0,0,-1,1910,1464,15.2556,-8.44177
693,-440,9.88635,2.89795,0,0,0,0,0,0,0,-1,1917,1464,9.88638,-2.89798
700,-440,7.07825,-2.62061,0,0,0,0,0,0,0,-1,1924,1464,7.07829,2.62057
707,-440,0,0,0,0,0,0,0,0,0,-1,1931,1464,0,0
714,-440,0,0,0,0,0,0,0,0,0,-1,1938,1464,0,0
721,-440,0,0,0,0,0,0,0,0,0,-1,1945,1464,0,0
728,-440,0,0,0,0,0,0,0,0,0,-1,1952,1464,0,0
735,-440,0,0,0,0,0,0,0,0,0,-1,1959,1464,0,0
742,-440,0,0,0,0,0,0,0,0,0,-1,1966,1464,0,0
749,-440,0,0,0,0,0,0,0,0,0,-1,1973,1464,0,0
756,-440,0,0,0,0,0,0,0,0,0,-1,1980,1464,0,0
763,-440,0,0,0,0,0,0,0,0,0,-1,1987,1464,0,0
770,-440,0,0,0,0,0,0,0,0,0,-1,1994,1464,0,0
777,-440,0,0,0,0,0,0,0,0,0,-1,2001,1464,0,0
784,-440,0,0,0,0,0,0,0,0,0,-1,2008,1464,0,0
791,-440,0,0,0,0,0,0,0,0,0,-1,2015,1464,0,0
798,-440,0,0,0,0,0,0,0,0,0,-1,2022,1464,0,0
805,-440,0,0,0,0,0,0,0,0,0,-1,2029,1464,0,0
812,-440,0,0,0,0,0,0,0,0,0,-1,2036,1464,0,0
-700,-447,0,0,0,0,0,0,0,0,0,-1,524,1471,0,0
-693,-447,0,0,0,0,0,0,0,0,0,-1,531,1471,0,0
-686,-447,0,0,0,0,0,0,0,0,0,-1,538,1471,0,0
-679,-447,0,0,0,0,0,0,0,0,0,-1,545,1471,0,0
-672,-447,0,0,0,0,0,0,0,0,0,-1,552,1471,0,0
-665,-447,0,0,0,0,0,0,0,0,0,-1,559,1471,0,0
-658,-447,0,0,0,0,0,0,0,0,0,-1,566,1471,0,0
-651,-447,0,0,0,0,0,0,0,0,0,-1,573,1471,0,0
-644,-447,0,0,0,0,0,0,0,0,0,-1,580,1471,0,0
-637,-447,0,0,0,0,0,0,0,0,0,-1,587,1471,0,0
-630,-447,0,0,0,0,0,0,0,0,0,-1,594,1471,0,0
-623,-447,0,0,0,0,0,0,0,0,0,-1,601,1471,0,0
-616,-447,0,0,0,0,0,0,0,0,0,-1,608,1471,0,0
-609,-447,0,0,0,0,0,0,0,0,0,-1,615,1471,0,0
-602,-447,0,0,0,0,0,0,0,0,0,-1,622,1471,0,0
-595,-447,0,0,0,0,0,0,0,0,0,-1,629,1471,0,0
-588,-447,0,0,0,0,0,0,0,0,0,-1,636,1471,0,0
-581,-447,-7.06482,-1.50476,0,0,0,0,0,0,0,-1,643,1471,-7.0648,1.50474
-574,-447,-6.88092,-0.00585938,0,0,0,0,0,0,0,-1,650,1471,-6.88095,0.00589852
-567,-447,-6.8205,-1.32178,0,0,0,0,0,0,0,-1,657,1471,-6.82047,1.32172
-560,-447,-8.85748,2.80774,0,0,0,0,0,0,0,-1,664,1471,-8.85748,-2.80775
-553,-447,-7.60486,3.26794,0,0,0,0,0,0,0,-1,671,1471,-7.60487,-3.26799
-546,-447,-3.94501,1.8656,0,0,0,0,0,0,0,-1,678,1471,-3.945,-1.86554
-539,-447,-5.35492,4.50024,0,0,0,0,0,0,0,-1,685,1471,-5.35492,-4.50018
-532,-447,-6.00714,7.46301,0,0,0,0,0,0,0,-1,692,1471,-6.00712,-7.46298
-525,-447,-5.75787,8.1344,0,0,0,0,0,0,0,-1,699,1471,-5.75789,-8.13439
-518,-447,-5.90656,8.18628,0,0,0,0,0,0,0,-1,706,1471,-5.90655,-8.1863
-511,-447,-5.85913,8.6958,0.000794375,-0.00152943,0.000662926,0.000970191,-0.00170524,0.259243,0.00156397,0.0184117,713,1471,-5.85914,-8.69575
-504,-447,-5.8363,9.16406,0.00119533,-0.00132556,0.000433898,0.00126792,-0.00139816,0.165768,0.00153987,0.0200074,720,1471,-5.83628,-9.1641
-497,-447,-5.8335,9.56604,0.00160642,-0.000990021,0.000452343,0.00168297,-0.00106657,0.167639,0.00160069,0.0240408,727,1471,-5.83352,-9.56607
-490,-447,-5.81708,9.89087,0.00176017,-0.000861484,0.00047976,0.00184521,-0.000946521,0.175427,0.00163941,0.0237547,734,1471,-5.8171,-9.89089
-483,-447,-5.8938,10.2767,0.0016251,-0.0011897,0.000146798,0.00163274,-0.00119733,0.0519643,0.00164038,0.0218977,741,1471,-5.8938,-10.2767
-476,-447,-5.9118,10.697,0.00158124,-0.00207734,-0.000273602,0.00160159,-0.00209768,-0.0742334,0.00214217,0.0148093,748,1471,-5.91183,-10.697
-469,-447,-5.93994,11.1472,0.0013361,-0.00316172,-0.000762962,0.001462,-0.00328762,-0.163537,0.0028089,0.0127394,755,1471,-5.93995,-11.1472
-462,-447,-5.95007,11.5854,0.000830626,-0.00489546,-0.00162129,0.00125781,-0.00532265,-0.257628,0.00403361,0.0132319,762,1471,-5.95007,-11.5855
-455,-447,-5.94696,11.9977,0.000158103,-0.0074075,-0.00287779,0.00112833,-0.00837772,-0.325175,0.00599675,0.0167968,769,1471,-5.94698,-11.9977
-448,-447,-5.81519,12.5082,-0.0006087,-0.0110635,-0.00475484,0.00123031,-0.0129025,-0.369047,0.00903974,0.0326191,776,1471,-5.81518,-12.5082
-441,-447,-5.90204,12.8774,-0.00198542,-0.0161963,-0.00768415,0.00137496,-0.0195567,-0.412254,0.0135194,0.0416046,783,1471,-5.90205,-12.8774
-434,-447,-6.33142,13.0978,-0.00434265,-0.0229648,-0.0116386,0.00125109,-0.0285585,-0.448023,0.0194694,0.0433698,790,1471,-6.33144,-13.0978
-427,-447,-6.60107,13.334,0,0,0,0,0,0,0,-1,797,1471,-6.60105,-13.334
-420,-447,-6.92676,11.7188,0,0,0,0,0,0,0,-1,804,1471,-6.92674,-11.7188
-413,-447,-4.27393,6.59705,0,0,0,0,0,0,0,-1,811,1471,-4.27392,-6.59707
-406,-447,-1.04279,6.18591,0,0,0,0,0,0,0,-1,818,1471,-1.04276,-6.18586
-399,-447,0.0134888,0.687622,0,0,0,0,0,0,0,-1,825,1471,0.0134841,-0.68767
-392,-447,-14.0646,3.76147,0,0,0,0,0,0,0,-1,832,1471,-14.0646,-3.7615
-385,-447,-15.1695,2.61865,0,0,0,0,0,0,0,-1,839,1471,-15.1695,-2.61871
-378,-447,-15.9424,1.49316,0,0,0,0,0,0,0,-1,846,1471,-15.9424,-1.49313
-371,-447,-17.3655,0.73291,0,0,0,0,0,0,0,-1,853,1471,-17.3655,-0.732946
-364,-447,0,0,0,0,0,0,0,0,0,-1,860,1471,0,0
-357,-447,0,0,0,0,0,0,0,0,0,-1,867,1471,0,0
-350,-447,0,0,0,0,0,0,0,0,0,-1,874,1471,0,0
-343,-447,0,0,0,0,0,0,0,0,0,-1,881,1471,0,0
-336,-447,0,0,0,0,0,0,0,0,0,-1,888,1471,0,0
-329,-447,0,0,0,0,0,0,0,0,0,-1,895,1471,0,0
-322,-447,0,0,0,0,0,0,0,0,0,-1,902,1471,0,0
-315,-447,0,0,0,0,0,0,0,0,0,-1,909,1471,0,0
-308,-447,0,0,0,0,0,0,0,0,0,-1,916,1471,0,0
-301,-447,0,0,0,0,0,0,0,0,0,-1,923,1471,0,0
-294,-447,0,0,0,0,0,0,0,0,0,-1,930,1471,0,0
-287,-447,0,0,0,0,0,0,0,0,0,-1,937,1471,0,0
-280,-447,0,0,0,0,0,0,0,0,0,-1,944,1471,0,0
-273,-447,0,0,0,0,0,0,0,0,0,-1,951,1471,0,0
-266,-447,0,0,0,0,0,0,0,0,0,-1,958,1471,0,0
-259,-447,0,0,0,0,0,0,0,0,0,-1,965,1471,0,0
-252,-447,0,0,0,0,0,0,0,0,0,-1,972,1471,0,0
-245,-447,0,0,0,0,0,0,0,0,0,-1,979,1471,0,0
-238,-447,0,0,0,0,0,0,0,0,0,-1,986,1471,0,0
-231,-447,0,0,0,0,0,0,0,0,0,-1,993,1471,0,0
-224,-447,0,0,0,0,0,0,0,0,0,-1,1000,1471,0,0
-217,-447,0,0,0,0,0,0,0,0,0,-1,1007,1471,0,0
-210,-447,0,0,0,0,0,0,0,0,0,-1,1014,1471,0,0
-203,-447,0,0,0,0,0,0,0,0,0,-1,1021,1471,0,0
-196,-447,0,0,0,0,0,0,0,0,0,-1,1028,1471,0,0
-189,-447,0,0,0,0,0,0,0,0,0,-1,1035,1471,0,0
-182,-447,0,0,0,0,0,0,0,0,0,-1,1042,1471,0,0
-175,-447,0,0,0,0,0,0,0,0,0,-1,1049,1471,0,0
-168,-447,0,0,0,0,0,0,0,0,0,-1,1056,1471,0,0
-161,-447,0,0,0,0,0,0,0,0,0,-1,1063,1471,0,0
-154,-447,0,0,0,0,0,0,0,0,0,-1,1070,1471,0,0
-147,-447,0,0,0,0,0,0,0,0,0,-1,1077,1471,0,0
-140,-447,0,0,0,0,0,0,0,0,0,-1,1084,1471,0,0
-133,-447,0,0,0,0,0,0,0,0,0,-1,1091,1471,0,0
-126,-447,0,0,0,0,0,0,0,0,0,-1,1098,1471,0,0
-119,-447,0,0,0,0,0,0,0,0,0,-1,1105,1471,0,0
-112,-447,0,0,0,0,0,0,0,0,0,-1,1112,1471,0,0
-105,-447,0,0,0,0,0,0,0,0,0,-1,1119,1471,0,0
-98,-447,0,0,0,0,0,0,0,0,0,-1,1126,1471,0,0
-91,-447,0,0,0,0,0,0,0,0,0,-1,1133,1471,0,0
-84,-447,0,0,0,0,0,0,0,0,0,-1,1140,1471,0,0
-77,-447,0,0,0,0,0,0,0,0,0,-1,1147,1471,0,0
-70,-447,0,0,0,0,0,0,0,0,0,-1,1154,1471,0,0
-63,-447,0,0,0,0,0,0,0,0,0,-1,1161,1471,0,0
-56,-447,0,0,0,0,0,0,0,0,0,-1,1168,1471,0,0
-49,-447,0,0,0,0,0,0,0,0,0,-1,1175,1471,0,0
-42,-447,0,0,0,0,0,0,0,0,0,-1,1182,1471,0,0
-35,-447,0,0,0,0,0,0,0,0,0,-1,1189,1471,0,0
-28,-447,0,0,0,0,0,0,0,0,0,-1,1196,1471,0,0
-21,-447,0,0,0,0,0,0,0,0,0,-1,1203,1471,0,0
-14,-447,0,0,0,0,0,0,0,0,0,-1,1210,1471,0,0
-7,-447,0,0,0,0,0,0,0,0,0,-1,1217,1471,0,0
0,-447,0,0,0,0,0,0,0,0,0,-1,1224,1471,0,0
7,-447,0,0,0,0,0,0,0,0,0,-1,1231,1471,0,0
14,-447,0,0,0,0,0,0,0,0,0,-1,1238,1471,0,0
21,-447,0,0,0,0,0,0,0,0,0,-1,1245,1471,0,0
28,-447,0,0,0,0,0,0,0,0,0,-1,1252,1471,0,0
35,-447,0,0,0,0,0,0,0,0,0,-1,1259,1471,0,0
42,-447,0,0,0,0,0,0,0,0,0,-1,1266,1471,0,0
49,-447,0,0,0,0,0,0,0,0,0,-1,1273,1471,0,0
56,-447,0,0,0,0,0,0,0,0,0,-1,1280,1471,0,0
63,-447,0,0,0,0,0,0,0,0,0,-1,1287,1471,0,0
70,-447,0,0,0,0,0,0,0,0,0,-1,1294,1471,0,0
77,-447,0,0,0,0,0,0,0,0,0,-1,1301,1471,0,0
84,-447,0,0,0,0,0,0,0,0,0,-1,1308,1471,0,0
91,-447,0,0,0,0,0,0,0,0,0,-1,1315,1471,0,0
98,-447,0,0,0,0,0,0,0,0,0,-1,1322,1471,0,0
105,-447,0,0,0,0,0,0,0,0,0,-1,1329,1471,0,0
112,-447,0,0,0,0,0,0,0,0,0,-1,1336,1471,0,0
119,-447,0,0,0,0,0,0,0,0,0,-1,1343,1471,0,0
126,-447,0,0,0,0,0,0,0,0,0,-1,1350,1471,0,0
133,-447,0,0,0,0,0,0,0,0,0,-1,1357,1471,0,0
140,-447,0,0,0,0,0,0,0,0,0,-1,1364,1471,0,0
147,-447,0,0,0,0,0,0,0,0,0,-1,1371,1471,0,0
154,-447,0,0,0,0,0,0,0,0,0,-1,1378,1471,0,0
161,-447,0,0,0,0,0,0,0,0,0,-1,1385,1471,0,0
168,-447,0,0,0,0,0,0,0,0,0,-1,1392,1471,0,0
175,-447,0,0,0,0,0,0,0,0,0,-1,1399,1471,0,0
182,-447,0,0,0,0,0,0,0,0,0,-1,1406,1471,0,0
189,-447,0,0,0,0,0,0,0,0,0,-1,1413,1471,0,0
196,-447,0,0,0,0,0,0,0,0,0,-1,1420,1471,0,0
203,-447,0,0,0,0,0,0,0,0,0,-1,1427,1471,0,0
210,-447,0,0,0,0,0,0,0,0,0,-1,1434,1471,0,0
217,-447,0,0,0,0,0,0,0,0,0,-1,1441,1471,0,0
224,-447,0,0,0,0,0,0,0,0,0,-1,1448,1471,0,0
231,-447,0,0,0,0,0,0,0,0,0,-1,1455,1471,0,0
238,-447,0,0,0,0,0,0,0,0,0,-1,1462,1471,0,0
245,-447,0,0,0,0,0,0,0,0,0,-1,1469,1471,0,0
252,-447,0,0,0,0,0,0,0,0,0,-1,1476,1471,0,0
259,-447,0,0,0,0,0,0,0,0,0,-1,1483,1471,0,0
266,-447,0,0,0,0,0,0,0,0,0,-1,1490,1471,0,0
273,-447,0,0,0,0,0,0,0,0,0,-1,1497,1471,0,0
280,-447,0,0,0,0,0,0,0,0,0,-1,1504,1471,0,0
287,-447,0,0,0,0,0,0,0,0,0,-1,1511,1471,0,0
294,-447,0,0,0,0,0,0,0,0,0,-1,1518,1471,0,0
301,-447,0,0,0,0,0,0,0,0,0,-1,1525,1471,0,0
308,-447,0,0,0,0,0,0,0,0,0,-1,1532,1471,0,0
315,-447,0,0,0,0,0,0,0,0,0,-1,1539,1471,0,0
322,-447,0,0,0,0,0,0,0,0,0,-1,1546,1471,0,0
329,-447,0,0,0,0,0,0,0,0,0,-1,1553,1471,0,0
336,-447,0,0,0,0,0,0,0,0,0,-1,1560,1471,0,0
343,-447,0,0,0,0,0,0,0,0,0,-1,1567,1471,0,0
350,-447,0,0,0,0,0,0,0,0,0,-1,1574,1471,0,0
357,-447,0,0,0,0,0,0,0,0,0,-1,1581,1471,0,0
364,-447,0,0,0,0,0,0,0,0,0,-1,1588,1471,0,0
371,-447,0,0,0,0,0,0,0,0,0,-1,1595,1471,0,0
378,-447,0,0,0,0,0,0,0,0,0,-1,1602,1471,0,0
385,-447,0,0,0,0,0,0,0,0,0,-1,1609,1471,0,0
392,-447,0,0,0,0,0,0,0,0,0,-1,1616,1471,0,0
399,-447,0,0,0,0,0,0,0,0,0,-1,1623,1471,0,0
406,-447,0,0,0,0,0,0,0,0,0,-1,1630,1471,0,0
413,-447,0,0,0,0,0,0,0,0,0,-1,1637,1471,0,0
420,-447,0,0,0,0,0,0,0,0,0,-1,1644,1471,0,0
427,-447,0,0,0,0,0,0,0,0,0,-1,1651,1471,0,0
434,-447,0,0,0,0,0,0,0,0,0,-1,1658,1471,0,0
441,-447,0,0,0,0,0,0,0,0,0,-1,1665,1471,0,0
448,-447,0,0,0,0,0,0,0,0,0,-1,1672,1471,0,0
455,-447,0,0,0,0,0,0,0,0,0,-1,1679,1471,0,0
462,-447,0,0,0,0,0,0,0,0,0,-1,1686,1471,0,0
469,-447,0,0,0,0,0,0,0,0,0,-1,1693,1471,0,0
476,-447,0,0,0,0,0,0,0,0,0,-1,1700,1471,0,0
483,-447,0,0,0,0,0,0,0,0,0,-1,1707,1471,0,0
490,-447,18.2214,-0.810303,0,0,0,0,0,0,0,-1,1714,1471,18.2215,0.810307
497,-447,17.0237,0.352417,0,0,0,0,0,0,0,-1,1721,1471,17.0237,-0.352442
504,-447,15.8998,1.53479,0,0,0,0,0,0,0,-1,1728,1471,15.8997,-1.53478
511,-447,14.7201,2.76111,0,0,0,0,0,0,0,-1,1735,1471,14.7201,-2.76107
518,-447,17.7618,13.2864,0,0,0,0,0,0,0,-1,1742,1471,17.7619,-13.2863
525,-447,17.1191,11.9014,0,0,0,0,0,0,0,-1,1749,1471,17.1191,-11.9013
532,-447,16.3959,10.0455,0,0,0,0,0,0,0,-1,1756,1471,16.3959,-10.0456
539,-447,14.1699,10.0204,0,0,0,0,0,0,0,-1,1763,1471,14.1699,-10.0204
546,-447,16.3715,11.8046,0,0,0,0,0,0,0,-1,1770,1471,16.3714,-11.8046
553,-447,17.5106,13.4012,0,0,0,0,0,0,0,-1,1777,1471,17.5107,-13.4012
560,-447,17.0187,13.168,0,0,0,0,0,0,0,-1,1784,1471,17.0187,-13.168
567,-447,18.2528,14.5715,0,0,0,0,0,0,0,-1,1791,1471,18.2528,-14.5716
574,-447,18.0442,14.2222,-0.00506226,0.000300613,0.00308281,0.00170498,-0.00646662,1.14334,0.00497771,0.0472834,1798,1471,18.0442,-14.2221
581,-447,17.7391,14.0618,-0.00371752,0.00107996,0.00183852,0.00170349,-0.00434105,1.24382,0.00359886,0.0287139,1805,1471,17.7391,-14.0618
588,-447,17.8087,13.5626,-0.00265301,0.00170805,0.000918012,0.00189342,-0.00283837,1.37156,0.00275,0.0175278,1812,1471,17.8087,-13.5626
595,-447,17.8038,13.1821,-0.0016078,0.00165243,0.00030895,0.00168145,-0.00163682,1.47714,0.00191586,0.0122694,1819,1471,17.8038,-13.1821
602,-447,17.7981,12.7927,-0.000934524,0.00141637,2.65214e-05,0.00141667,-0.000934823,1.55952,0.0013671,0.0109304,1826,1471,17.7981,-12.7927
609,-447,17.7883,12.4208,-0.000368586,0.000850239,-4.80502e-05,0.00085213,-0.000370477,-1.53145,0.000723901,0.01229,1833,1471,17.7883,-12.4208
616,-447,17.7908,12.0635,-1.12279e-05,0.000165996,4.24728e-05,0.000175649,-2.0881e-05,1.34732,0.000124644,0.0131475,1840,1471,17.7908,-12.0634
623,-447,17.7976,11.7076,0.000177337,-0.000592077,0.000265191,0.000259884,-0.000674623,0.301766,0.000556968,0.014992,1847,1471,17.7976,-11.7076
630,-447,17.7701,11.3198,0.000302877,-0.00144409,0.000552677,0.00046304,-0.00160425,0.282068,0.00125271,0.00987611,1854,1471,17.7701,-11.3199
637,-447,17.7706,10.9563,0.000175493,-0.00232008,0.00103075,0.000546164,-0.00269075,0.345215,0.00200089,0.0100954,1861,1471,17.7706,-10.9563
644,-447,17.782,10.5979,-3.97497e-05,-0.00313585,0.00153667,0.000593439,-0.00376904,0.390854,0.00273207,0.0108972,1868,1471,17.782,-10.5979
651,-447,17.8248,10.2184,-0.000330234,-0.00388164,0.00208063,0.000629412,-0.00484129,0.432153,0.00345648,0.0374758,1875,1471,17.8249,-10.2184
658,-447,17.4323,10.0731,-0.000793486,-0.00452195,0.00272397,0.000643098,-0.00595853,0.485315,0.00420315,0.0481329,1882,1471,17.4322,-10.0731
665,-447,17.1963,9.55627,0,0,0,0,0,0,0,-1,1889,1471,17.1963,-9.55626
672,-447,18.418,9.70593,0,0,0,0,0,0,0,-1,1896,1471,18.4179,-9.70589
679,-447,14.844,7.4248,0,0,0,0,0,0,0,-1,1903,1471,14.844,-7.42477
686,-447,9.81079,4.30859,0,0,0,0,0,0,0,-1,1910,1471,9.8108,-4.30864
693,-447,10.48,2.08643,0,0,0,0,0,0,0,-1,1917,1471,10.48,-2.08642
700,-447,0,0,0,0,0,0,0,0,0,-1,1924,1471,0,0
707,-447,0,0,0,0,0,0,0,0,0,-1,1931,1471,0,0
714,-447,0,0,0,0,0,0,0,0,0,-1,1938,1471,0,0
721,-447,0,0,0,0,0,0,0,0,0,-1,1945,1471,0,0
728,-447,0,0,0,0,0,0,0,0,0,-1,1952,1471,0,0
735,-447,0,0,0,0,0,0,0,0,0,-1,1959,1471,0,0
742,-447,0,0,0,0,0,0,0,0,0,-1,1966,1471,0,0
749,-447,0,0,0,0,0,0,0,0,0,-1,1973,1471,0,0
756,-447,0,0,0,0,0,0,0,0,0,-1,1980,1471,0,0
763,-447,0,0,0,0,0,0,0,0,0,-1,1987,1471,0,0
770,-447,0,0,0,0,0,0,0,0,0,-1,1994,1471,0,0
777,-447,0,0,0,0,0,0,0,0,0,-1,2001,1471,0,0
784,-447,0,0,0,0,0,0,0,0,0,-1,2008,1471,0,0
791,-447,0,0,0,0,0,0,0,0,0,-1,2015,1471,0,0
798,-447,0,0,0,0,0,0,0,0,0,-1,2022,1471,0,0
805,-447,0,0,0,0,0,0,0,0,0,-1,2029,1471,0,0
812,-447,0,0,0,0,0,0,0,0,0,-1,2036,1471,0,0
-700,-454,0,0,0,0,0,0,0,0,0,-1,524,1478,0,0
-693,-454,0,0,0,0,0,0,0,0,0,-1,531,1478,0,0
-686,-454,0,0,0,0,0,0,0,0,0,-1,538,1478,0,0
-679,-454,0,0,0,0,0,0,0,0,0,-1,545,1478,0,0
-672,-454,0,0,0,0,0,0,0,0,0,-1,552,1478,0,0
-665,-454,0,0,0,0,0,0,0,0,0,-1,559,1478,0,0
-658,-454,0,0,0,0,0,0,0,0,0,-1,566,1478,0,0
-651,-454,0,0,0,0,0,0,0,0,0,-1,573,1478,0,0
-644,-454,0,0,0,0,0,0,0,0,0,-1,580,1478,0,0
-637,-454,0,0,0,0,0,0,0,0,0,-1,587,1478,0,0
-630,-454,0,0,0,0,0,0,0,0,0,-1,594,1478,0,0
-623,-454,0,0,0,0,0,0,0,0,0,-1,601,1478,0,0
-616,-454,0,0,0,0,0,0,0,0,0,-1,608,1478,0,0
-609,-454,0,0,0,0,0,0,0,0,0,-1,615,1478,0,0
-602,-454,0,0,0,0,0,0,0,0,0,-1,622,1478,0,0
-595,-454,0,0,0,0,0,0,0,0,0,-1,629,1478,0,0
-588,-454,0,0,0,0,0,0,0,0,0,-1,636,1478,0,0
-581,-454,0,0,0,0,0,0,0,0,0,-1,643,1478,0,0
-574,-454,-8.4881,-0.465942,0,0,0,0,0,0,0,-1,650,1478,-8.4881,0.465885
-567,-454,-8.10046,0.922974,0,0,0,0,0,0,0,-1,657,1478,-8.10047,-0.923034
-560,-454,-10.656,3.51172,0,0,0,0,0,0,0,-1,664,1478,-10.656,-3.51176
-553,-454,-9.01129,3.95251,0,0,0,0,0,0,0,-1,671,1478,-9.0113,-3.95256
-546,-454,-9.61896,6.05237,0,0,0,0,0,0,0,-1,678,1478,-9.61897,-6.05239
-539,-454,-7.72589,4.96533,0,0,0,0,0,0,0,-1,685,1478,-7.72592,-4.96532
-532,-454,-6.10248,6.6394,0,0,0,0,0,0,0,-1,692,1478,-6.10249,-6.63936
-525,-454,-5.73004,7.61267,0,0,0,0,0,0,0,-1,699,1478,-5.73006,-7.61261
-518,-454,-5.35767,8.58582,0,0,0,0,0,0,0,-1,706,1478,-5.35764,-8.58586
-511,-454,-5.5166,8.67346,0.00184388,-0.0023562,0.000420314,0.00188553,-0.00239785,0.098768,0.0024789,0.0299869,713,1478,-5.51658,-8.67344
-504,-454,-5.47845,9.14368,0.00171731,-0.00214491,-1.67384e-05,0.00171738,-0.00214499,-0.00433376,0.00223449,0.0150213,720,1478,-5.47847,-9.14367
-497,-454,-5.47186,9.56824,0.00171634,-0.00176747,-0.000114792,0.00172011,-0.00177124,-0.0329028,0.00201581,0.0184567,727,1478,-5.47184,-9.56826
-490,-454,-5.47137,9.95337,0.00166156,-0.00142304,-6.68573e-05,0.001663,-0.00142449,-0.021661,0.00178434,0.017665,734,1478,-5.47137,-9.95336
-483,-454,-5.48553,10.3562,0.00145979,-0.00147339,-0.000258135,0.00148234,-0.00149593,-0.0871128,0.00171951,0.015503,741,1478,-5.48551,-10.3561
-476,-454,-5.50952,10.7637,0.001377,-0.00205259,-0.00053205,0.00145764,-0.00213324,-0.150426,0.00208539,0.0127301,748,1478,-5.50949,-10.7636
-469,-454,-5.51147,11.1683,0.00122248,-0.00277396,-0.000811199,0.00138086,-0.00293234,-0.192817,0.00254336,0.00955034,755,1478,-5.51145,-11.1683
-462,-454,-5.53766,11.588,0.000921459,-0.00402849,-0.00137362,0.00127709,-0.00438412,-0.253339,0.00342866,0.0102281,762,1478,-5.53769,-11.5881
-455,-454,-5.55121,11.9937,0.000584074,-0.00585771,-0.00222509,0.00127792,-0.00655155,-0.302272,0.00485012,0.0115302,769,1478,-5.55123,-11.9937
-448,-454,-5.52942,12.4027,0.000338442,-0.00845447,-0.00342253,0.00151357,-0.00962959,-0.330739,0.00697918,0.0149398,776,1478,-5.52942,-12.4027
-441,-454,-5.29303,12.9415,-0.000169472,-0.0121469,-0.00534237,0.00186712,-0.0141835,-0.364208,0.0101355,0.0304257,783,1478,-5.29305,-12.9416
-434,-454,-5.32825,13.2244,-0.00130813,-0.0170425,-0.00802826,0.00206504,-0.0204157,-0.397765,0.0143484,0.0405071,790,1478,-5.32823,-13.2244
-427,-454,-5.22284,12.8639,-0.00286556,-0.0231406,-0.0113548,0.00221868,-0.0282248,-0.420989,0.019598,0.047839,797,1478,-5.22282,-12.8639
-420,-454,-5.04224,12.7375,0,0,0,0,0,0,0,-1,804,1478,-5.04224,-12.7376
-413,-454,-4.54706,11.8824,0,0,0,0,0,0,0,-1,811,1478,-4.54707,-11.8825
-406,-454,-2.38208,10.0308,0,0,0,0,0,0,0,-1,818,1478,-2.38209,-10.0308
-399,-454,-1.21033,6.95447,0,0,0,0,0,0,0,-1,825,1478,-1.21035,-6.95452
-392,-454,0.0967407,0.985474,0,0,0,0,0,0,0,-1,832,1478,0.0967364,-0.985529
-385,-454,2.38629,3.297,0,0,0,0,0,0,0,-1,839,1478,2.38629,-3.29702
-378,-454,-15.9756,2.83997,0,0,0,0,0,0,0,-1,846,1478,-15.9756,-2.83994
-371,-454,-17.2753,2.01453,0,0,0,0,0,0,0,-1,853,1478,-17.2753,-2.01455
-364,-454,1.08124,0.819458,0,0,0,0,0,0,0,-1,860,1478,1.08124,-0.819513
-357,-454,0,0,0,0,0,0,0,0,0,-1,867,1478,0,0
-350,-454,0,0,0,0,0,0,0,0,0,-1,874,1478,0,0
-343,-454,0,0,0,0,0,0,0,0,0,-1,881,1478,0,0
-336,-454,0,0,0,0,0,0,0,0,0,-1,888,1478,0,0
-329,-454,0,0,0,0,0,0,0,0,0,-1,895,1478,0,0
-322,-454,0,0,0,0,0,0,0,0,0,-1,902,1478,0,0
-315,-454,0,0,0,0,0,0,0,0,0,-1,909,1478,0,0
-308,-454,0,0,0,0,0,0,0,0,0,-1,916,1478,0,0
-301,-454,0,0,0,0,0,0,0,0,0,-1,923,1478,0,0
-294,-454,0,0,0,0,0,0,0,0,0,-1,930,1478,0,0
-287,-454,0,0,0,0,0,0,0,0,0,-1,937,1478,0,0
-280,-454,0,0,0,0,0,0,0,0,0,-1,944,1478,0,0
-273,-454,0,0,0,0,0,0,0,0,0,-1,951,1478,0,0
-266,-454,0,0,0,0,0,0,0,0,0,-1,958,1478,0,0
-259,-454,0,0,0,0,0,0,0,0,0,-1,965,1478,0,0
-252,-454,0,0,0,0,0,0,0,0,0,-1,972,1478,0,0
-245,-454,0,0,0,0,0,0,0,0,0,-1,979,1478,0,0
-238,-454,0,0,0,0,0,0,0,0,0,-1,986,1478,0,0
-231,-454,0,0,0,0,0,0,0,0,0,-1,993,1478,0,0
-224,-454,0,0,0,0,0,0,0,0,0,-1,1000,1478,0,0
-217,-454,0,0,0,0,0,0,0,0,0,-1,1007,1478,0,0
-210,-454,0,0,0,0,0,0,0,0,0,-1,1014,1478,0,0
-203,-454,0,0,0,0,0,0,0,0,0,-1,1021,1478,0,0
-196,-454,0,0,0,0,0,0,0,0,0,-1,1028,1478,0,0
-189,-454,0,0,0,0,0,0,0,0,0,-1,1035,1478,0,0
-182,-454,0,0,0,0,0,0,0,0,0,-1,1042,1478,0,0
-175,-454,0,0,0,0,0,0,0,0,0,-1,1049,1478,0,0
-168,-454,0,0,0,0,0,0,0,0,0,-1,1056,1478,0,0
-161,-454,0,0,0,0,0,0,0,0,0,-1,1063,1478,0,0
-154,-454,0,0,0,0,0,0,0,0,0,-1,1070,1478,0,0
-147,-454,0,0,0,0,0,0,0,0,0,-1,1077,1478,0,0
-140,-454,0,0,0,0,0,0,0,0,0,-1,1084,1478,0,0
-133,-454,0,0,0,0,0,0,0,0,0,-1,1091,1478,0,0
-126,-454,0,0,0,0,0,0,0,0,0,-1,1098,1478,0,0
-119,-454,0,0,0,0,0,0,0,0,0,-1,1105,1478,0,0
-112,-454,0,0,0,0,0,0,0,0,0,-1,1112,1478,0,0
-105,-454,0,0,0,0,0,0,0,0,0,-1,1119,1478,0,0
-98,-454,0,0,0,0,0,0,0,0,0,-1,1126,1478,0,0
-91,-454,0,0,0,0,0,0,0,0,0,-1,1133,1478,0,0
-84,-454,0,0,0,0,0,0,0,0,0,-1,1140,1478,0,0
-77,-454,0,0,0,0,0,0,0,0,0,-1,1147,1478,0,0
-70,-454,0,0,0,0,0,0,0,0,0,-1,1154,1478,0,0
-63,-454,0,0,0,0,0,0,0,0,0,-1,1161,1478,0,0
-56,-454,0,0,0,0,0,0,0,0,0,-1,1168,1478,0,0
-49,-454,0,0,0,0,0,0,0,0,0,-1,1175,1478,0,0
-42,-454,0,0,0,0,0,0,0,0,0,-1,1182,1478,0,0
-35,-454,0,0,0,0,0,0,0,0,0,-1,1189,1478,0,0
-28,-454,0,0,0,0,0,0,0,0,0,-1,1196,1478,0,0
-21,-454,0,0,0,0,0,0,0,0,0,-1,1203,1478,0,0
-14,-454,0,0,0,0,0,0,0,0,0,-1,1210,1478,0,0
-7,-454,0,0,0,0,0,0,0,0,0,-1,1217,1478,0,0
0,-454,0,0,0,0,0,0,0,0,0,-1,1224,1478,0,0
7,-454,0,0,0,0,0,0,0,0,0,-1,1231,1478,0,0
14,-454,0,0,0,0,0,0,0,0,0,-1,1238,1478,0,0
21,-454,0,0,0,0,0,0,0,0,0,-1,1245,1478,0,0
28,-454,0,0,0,0,0,0,0,0,0,-1,1252,1478,0,0
35,-454,0,0,0,0,0,0,0,0,0,-1,1259,1478,0,0
42,-454,0,0,0,0,0,0,0,0,0,-1,1266,1478,0,0
49,-454,0,0,0,0,0,0,0,0,0,-1,1273,1478,0,0
56,-454,0,0,0,0,0,0,0,0,0,-1,1280,1478,0,0
63,-454,0,0,0,0,0,0,0,0,0,-1,1287,1478,0,0
70,-454,0,0,0,0,0,0,0,0,0,-1,1294,1478,0,0
77,-454,0,0,0,0,0,0,0,0,0,-1,1301,1478,0,0
84,-454,0,0,0,0,0,0,0,0,0,-1,1308,1478,0,0
91,-454,0,0,0,0,0,0,0,0,0,-1,1315,1478,0,0
98,-454,0,0,0,0,0,0,0,0,0,-1,1322,1478,0,0
105,-454,0,0,0,0,0,0,0,0,0,-1,1329,1478,0,0
112,-454,0,0,0,0,0,0,0,0,0,-1,1336,1478,0,0
119,-454,0,0,0,0,0,0,0,0,0,-1,1343,1478,0,0
126,-454,0,0,0,0,0,0,0,0,0,-1,1350,1478,0,0
133,-454,0,0,0,0,0,0,0,0,0,-1,1357,1478,0,0
140,-454,0,0,0,0,0,0,0,0,0,-1,1364,1478,0,0
147,-454,0,0,0,0,0,0,0,0,0,-1,1371,1478,0,0
154,-454,0,0,0,0,0,0,0,0,0,-1,1378,1478,0,0
161,-454,0,0,0,0,0,0,0,0,0,-1,1385,1478,0,0
168,-454,0,0,0,0,0,0,0,0,0,-1,1392,1478,0,0
175,-454,0,0,0,0,0,0,0,0,0,-1,1399,1478,0,0
182,-454,0,0,0,0,0,0,0,0,0,-1,1406,1478,0,0
189,-454,0,0,0,0,0,0,0,0,0,-1,1413,1478,0,0
196,-454,0,0,0,0,0,0,0,0,0,-1,1420,1478,0,0
203,-454,0,0,0,0,0,0,0,0,0,-1,1427,1478,0,0
210,-454,0,0,0,0,0,0,0,0,0,-1,1434,1478,0,0
217,-454,0,0,0,0,0,0,0,0,0,-1,1441,1478,0,0
224,-454,0,0,0,0,0,0,0,0,0,-1,1448,1478,0,0
231,-454,0,0,0,0,0,0,0,0,0,-1,1455,1478,0,0
238,-454,0,0,0,0,0,0,0,0,0,-1,1462,1478,0,0
245,-454,0,0,0,0,0,0,0,0,0,-1,1469,1478,0,0
252,-454,0,0,0,0,0,0,0,0,0,-1,1476,1478,0,0
259,-454,0,0,0,0,0,0,0,0,0,-1,1483,1478,0,0
266,-454,0,0,0,0,0,0,0,0,0,-1,1490,1478,0,0
273,-454,0,0,0,0,0,0,0,0,0,-1,1497,1478,0,0
280,-454,0,0,0,0,0,0,0,0,0,-1,1504,1478,0,0
287,-454,0,0,0,0,0,0,0,0,0,-1,1511,1478,0,0
294,-454,0,0,0,0,0,0,0,0,0,-1,1518,1478,0,0
301,-454,0,0,0,0,0,0,0,0,0,-1,1525,1478,0,0
308,-454,0,0,0,0,0,0,0,0,0,-1,1532,1478,0,0
315,-454,0,0,0,0,0,0,0,0,0,-1,1539,1478,0,0
322,-454,0,0,0,0,0,0,0,0,0,-1,1546,1478,0,0
329,-454,0,0,0,0,0,0,0,0,0,-1,1553,1478,0,0
336,-454,0,0,0,0,0,0,0,0,0,-1,1560,1478,0,0
343,-454,0,0,0,0,0,0,0,0,0,-1,1567,1478,0,0
350,-454,0,0,0,0,0,0,0,0,0,-1,1574,1478,0,0
357,-454,0,0,0,0,0,0,0,0,0,-1,1581,1478,0,0
364,-454,0,0,0,0,0,0,0,0,0,-1,1588,1478,0,0
371,-454,0,0,0,0,0,0,0,0,0,-1,1595,1478,0,0
378,-454,0,0,0,0,0,0,0,0,0,-1,1602,1478,0,0
385,-454,0,0,0,0,0,0,0,0,0,-1,1609,1478,0,0
392,-454,0,0,0,0,0,0,0,0,0,-1,1616,1478,0,0
399,-454,0,0,0,0,0,0,0,0,0,-1,1623,1478,0,0
406,-454,0,0,0,0,0,0,0,0,0,-1,1630,1478,0,0
413,-454,0,0,0,0,0,0,0,0,0,-1,1637,1478,0,0
420,-454,0,0,0,0,0,0,0,0,0,-1,1644,1478,0,0
427,-454,0,0,0,0,0,0,0,0,0,-1,1651,1478,0,0
434,-454,0,0,0,0,0,0,0,0,0,-1,1658,1478,0,0
441,-454,0,0,0,0,0,0,0,0,0,-1,1665,1478,0,0
448,-454,0,0,0,0,0,0,0,0,0,-1,1672,1478,0,0
455,-454,0,0,0,0,0,0,0,0,0,-1,1679,1478,0,0
462,-454,0,0,0,0,0,0,0,0,0,-1,1686,1478,0,0
469,-454,0,0,0,0,0,0,0,0,0,-1,1693,1478,0,0
476,-454,0,0,0,0,0,0,0,0,0,-1,1700,1478,0,0
483,-454,14.2399,3.97498,0,0,0,0,0,0,0,-1,1707,1478,14.2399,-3.97502
490,-454,18.1821,-0.175781,0,0,0,0,0,0,0,-1,1714,1478,18.1821,0.175822
497,-454,16.8854,1.01208,0,0,0,0,0,0,0,-1,1721,1478,16.8854,-1.01209
504,-454,15.587,2.05994,0,0,0,0,0,0,0,-1,1728,1478,15.5871,-2.05998
511,-454,17.0273,14.5258,0,0,0,0,0,0,0,-1,1735,1478,17.0273,-14.5258
518,-454,16.4158,13.1039,0,0,0,0,0,0,0,-1,1742,1478,16.4157,-13.1038
525,-454,15.7842,11.6628,0,0,0,0,0,0,0,-1,1749,1478,15.7841,-11.6629
532,-454,15.1094,10.2476,0,0,0,0,0,0,0,-1,1756,1478,15.1094,-10.2475
539,-454,13.7905,10.9373,0,0,0,0,0,0,0,-1,1763,1478,13.7906,-10.9372
546,-454,16.2002,13.2458,0,0,0,0,0,0,0,-1,1770,1478,16.2002,-13.2459
553,-454,15.6747,12.1868,0,0,0,0,0,0,0,-1,1777,1478,15.6747,-12.1868
560,-454,16.3895,14.0527,0,0,0,0,0,0,0,-1,1784,1478,16.3895,-14.0528
567,-454,17.5482,14.7523,0,0,0,0,0,0,0,-1,1791,1478,17.5482,-14.7524
574,-454,17.4661,14.3014,-0.00397474,-0.000414676,0.00285642,0.00117095,-0.00556037,1.06404,0.00415263,0.0241555,1798,1478,17.466,-14.3014
581,-454,17.4382,13.9271,-0.00286549,0.000400305,0.00172863,0.00114533,-0.00361051,1.16386,0.00286611,0.0160531,1805,1478,17.4383,-13.9272
588,-454,17.4656,13.5352,-0.00190102,0.00105125,0.000840077,0.00127356,-0.00212333,1.3121,0.00198154,0.0128921,1812,1478,17.4656,-13.5352
595,-454,17.4399,13.1812,-0.000989096,0.00105746,0.000266485,0.00109159,-0.00102323,1.44341,0.0012212,0.0120505,1819,1478,17.44,-13.1811
602,-454,17.4204,12.8192,-0.000442179,0.00086475,2.17649e-05,0.000865113,-0.000442541,1.55415,0.000768002,0.00887645,1826,1478,17.4205,-12.8192
609,-454,17.4299,12.4489,8.00063e-05,0.000337806,-4.84232e-05,0.000346601,7.12109e-05,-1.39112,0.000211368,0.0108058,1833,1478,17.4299,-12.4489
616,-454,17.4368,12.0776,0.000444698,-0.000337049,3.32655e-05,0.000446111,-0.000338462,0.0424505,0.000454392,0.0134831,1840,1478,17.4368,-12.0776
623,-454,17.4301,11.7145,0.000651424,-0.00114116,0.000264424,0.000689615,-0.00117936,0.143441,0.00109133,0.0119792,1847,1478,17.43,-11.7145
630,-454,17.4274,11.3387,0.000760687,-0.00209906,0.000616054,0.000887753,-0.00222612,0.203406,0.00185232,0.0113375,1854,1478,17.4273,-11.3387
637,-454,17.3984,10.98,0.000628531,-0.00311112,0.00114506,0.000951287,-0.00343387,0.27474,0.00266358,0.0102678,1861,1478,17.3984,-10.9799
644,-454,17.4623,10.5977,0.000396802,-0.00413734,0.00174302,0.000989407,-0.00472995,0.327726,0.00352963,0.0213584,1868,1478,17.4623,-10.5976
651,-454,17.1884,10.4054,3.50254e-05,-0.00516622,0.00243428,0.000996561,-0.00612775,0.376186,0.00445467,0.0478691,1875,1478,17.1883,-10.4054
658,-454,17.2583,10.0765,-0.000546648,-0.00618003,0.00328192,0.000961557,-0.00768823,0.430768,0.00547423,0.0454508,1882,1478,17.2583,-10.0765
665,-454,17.683,9.67566,0,0,0,0,0,0,0,-1,1889,1478,17.683,-9.67572
672,-454,16.5476,6.41931,0,0,0,0,0,0,0,-1,1896,1478,16.5476,-6.41929
679,-454,14.2161,5.45007,0,0,0,0,0,0,0,-1,1903,1478,14.2161,-5.45013
686,-454,10.3767,2.12842,0,0,0,0,0,0,0,-1,1910,1478,10.3767,-2.12839
693,-454,11.1857,1.48486,0,0,0,0,0,0,0,-1,1917,1478,11.1857,-1.48487
700,-454,0,0,0,0,0,0,0,0,0,-1,1924,1478,0,0
707,-454,0,0,0,0,0,0,0,0,0,-1,1931,1478,0,0
714,-454,0,0,0,0,0,0,0,0,0,-1,1938,1478,0,0
721,-454,0,0,0,0,0,0,0,0,0,-1,1945,1478,0,0
728,-454,0,0,0,0,0,0,0,0,0,-1,1952,1478,0,0
735,-454,0,0,0,0,0,0,0,0,0,-1,1959,1478,0,0
742,-454,0,0,0,0,0,0,0,0,0,-1,1966,1478,0,0
749,-454,0,0,0,0,0,0,0,0,0,-1,1973,1478,0,0
756,-454,0,0,0,0,0,0,0,0,0,-1,1980,1478,0,0
763,-454,0,0,0,0,0,0,0,0,0,-1,1987,1478,0,0
770,-454,0,0,0,0,0,0,0,0,0,-1,1994,1478,0,0
777,-454,0,0,0,0,0,0,0,0,0,-1,2001,1478,0,0
784,-454,0,0,0,0,0,0,0,0,0,-1,2008,1478,0,0
791,-454,0,0,0,0,0,0,0,0,0,-1,2015,1478,0,0
798,-454,0,0,0,0,0,0,0,0,0,-1,2022,1478,0,0
805,-454,0,0,0,0,0,0,0,0,0,-1,2029,1478,0,0
812,-454,0,0,0,0,0,0,0,0,0,-1,2036,1478,0,0
-700,-461,0,0,0,0,0,0,0,0,0,-1,524,1485,0,0
-693,-461,0,0,0,0,0,0,0,0,0,-1,531,1485,0,0
-686,-461,0,0,0,0,0,0,0,0,0,-1,538,1485,0,0
-679,-461,0,0,0,0,0,0,0,0,0,-1,545,1485,0,0
-672,-461,0,0,0,0,0,0,0,0,0,-1,552,1485,0,0
-665,-461,0,0,0,0,0,0,0,0,0,-1,559,1485,0,0
-658,-461,0,0,0,0,0,0,0,0,0,-1,566,1485,0,0
-651,-461,0,0,0,0,0,0,0,0,0,-1,573,1485,0,0
-644,-461,0,0,0,0,0,0,0,0,0,-1,580,1485,0,0
-637,-461,0,0,0,0,0,0,0,0,0,-1,587,1485,0,0
-630,-461,0,0,0,0,0,0,0,0,0,-1,594,1485,0,0
-623,-461,0,0,0,0,0,0,0,0,0,-1,601,1485,0,0
-616,-461,0,0,0,0,0,0,0,0,0,-1,608,1485,0,0
-609,-461,0,0,0,0,0,0,0,0,0,-1,615,1485,0,0
-602,-461,0,0,0,0,0,0,0,0,0,-1,622,1485,0,0
-595,-461,0,0,0,0,0,0,0,0,0,-1,629,1485,0,0
-588,-461,0,0,0,0,0,0,0,0,0,-1,636,1485,0,0
-581,-461,0,0,0,0,0,0,0,0,0,-1,643,1485,0,0
-574,-461,0,0,0,0,0,0,0,0,0,-1,650,1485,0,0
-567,-461,-9.69031,0.513306,0,0,0,0,0,0,0,-1,657,1485,-9.69032,-0.513305
-560,-461,-7.28815,1.54004,0,0,0,0,0,0,0,-1,664,1485,-7.28817,-1.54005
-553,-461,-11.9607,5.27783,0,0,0,0,0,0,0,-1,671,1485,-11.9607,-5.27778
-546,-461,-11.4215,4.44666,0,0,0,0,0,0,0,-1,678,1485,-11.4215,-4.4467
-539,-461,-9.36493,5.23438,0,0,0,0,0,0,0,-1,685,1485,-9.3649,-5.23432
-532,-461,-6.83673,5.70691,0,0,0,0,0,0,0,-1,692,1485,-6.83675,-5.70696
-525,-461,-6.09283,6.6051,0,0,0,0,0,0,0,-1,699,1485,-6.09281,-6.60508
-518,-461,-5.34888,7.50317,0,0,0,0,0,0,0,-1,706,1485,-5.34887,-7.50319
-511,-461,-4.98608,8.80908,0.00276114,-0.0033605,-0.000253272,0.0027716,-0.00337096,-0.0412792,0.00355203,0.0333206,713,1485,-4.98607,-8.80907
-504,-461,-5.11444,9.12,0.00203926,-0.00302922,-0.000832468,0.00217249,-0.00316245,-0.158692,0.00309775,0.0172485,720,1485,-5.11444,-9.12
-497,-461,-5.08472,9.58191,0.00161248,-0.00252036,-0.000970976,0.00182924,-0.00273712,-0.219632,0.0026537,0.0103353,727,1485,-5.08474,-9.58187
-490,-461,-5.09167,9.97449,0.0013402,-0.00193969,-0.000854165,0.00154931,-0.00214881,-0.240094,0.00214444,0.0121227,734,1485,-5.09166,-9.97445
-483,-461,-5.09821,10.3793,0.00107568,-0.00170808,-0.000850003,0.0013147,-0.0019471,-0.27412,0.00189496,0.0122707,741,1485,-5.09818,-10.3793
-476,-461,-5.11139,10.7949,0.000977121,-0.00198815,-0.000934501,0.00124705,-0.00225809,-0.2812,0.00205156,0.0105548,748,1485,-5.11138,-10.7949
-469,-461,-5.11981,11.1902,0.000940409,-0.00240714,-0.000983174,0.00120781,-0.00267454,-0.265551,0.00229418,0.0121911,755,1485,-5.1198,-11.1902
-462,-461,-5.15479,11.6001,0.000861989,-0.00326469,-0.0012432,0.00120758,-0.00361027,-0.271135,0.00289459,0.0175806,762,1485,-5.15481,-11.6001
-455,-461,-5.16516,11.9998,0.000819915,-0.00455845,-0.00173285,0.00132987,-0.0050684,-0.286207,0.00389858,0.0217923,769,1485,-5.16517,-11.9998
-448,-461,-5.1322,12.3875,0.000974992,-0.00634615,-0.00237176,0.00167619,-0.00704735,-0.287456,0.00534529,0.0174231,776,1485,-5.1322,-12.3875
-441,-461,-5.08508,12.8021,0.00116225,-0.00888149,-0.00343239,0.00222319,-0.00994243,-0.299779,0.00748029,0.0173497,783,1485,-5.08507,-12.8021
-434,-461,-4.8537,13.2124,0.000944409,-0.0122765,-0.00508502,0.00267395,-0.0140061,-0.32785,0.0103445,0.025611,790,1485,-4.85371,-13.2124
-427,-461,-4.81427,13.4485,0.000493962,-0.0163405,-0.00708251,0.00307726,-0.0189238,-0.349748,0.0137569,0.0381054,797,1485,-4.8143,-13.4485
-420,-461,-4.54657,13.7606,0,0,0,0,0,0,0,-1,804,1485,-4.54659,-13.7606
-413,-461,-5.38361,12.7788,0,0,0,0,0,0,0,-1,811,1485,-5.38361,-12.7788
-406,-461,-4.95618,12.4502,0,0,0,0,0,0,0,-1,818,1485,-4.95617,-12.4502
-399,-461,-1.93439,9.82849,0,0,0,0,0,0,0,-1,825,1485,-1.9344,-9.82846
-392,-461,-0.357544,5.55225,0,0,0,0,0,0,0,-1,832,1485,-0.357536,-5.55228
-385,-461,1.71509,3.35254,0,0,0,0,0,0,0,-1,839,1485,1.71511,-3.35255
-378,-461,1.95996,3.01111,0,0,0,0,0,0,0,-1,846,1485,1.95993,-3.01111
-371,-461,0.702881,2.33459,0,0,0,0,0,0,0,-1,853,1485,0.702859,-2.33459
-364,-461,-1.93097,2.56458,0,0,0,0,0,0,0,-1,860,1485,-1.93095,-2.56456
-357,-461,-2.41516,3.49487,0,0,0,0,0,0,0,-1,867,1485,-2.41517,-3.49487
-350,-461,0,0,0,0,0,0,0,0,0,-1,874,1485,0,0
-343,-461,0,0,0,0,0,0,0,0,0,-1,881,1485,0,0
-336,-461,0,0,0,0,0,0,0,0,0,-1,888,1485,0,0
-329,-461,0,0,0,0,0,0,0,0,0,-1,895,1485,0,0
-322,-461,0,0,0,0,0,0,0,0,0,-1,902,1485,0,0
-315,-461,0,0,0,0,0,0,0,0,0,-1,909,1485,0,0
-308,-461,0,0,0,0,0,0,0,0,0,-1,916,1485,0,0
-301,-461,0,0,0,0,0,0,0,0,0,-1,923,1485,0,0
-294,-461,0,0,0,0,0,0,0,0,0,-1,930,1485,0,0
-287,-461,0,0,0,0,0,0,0,0,0,-1,937,1485,0,0
-280,-461,0,0,0,0,0,0,0,0,0,-1,944,1485,0,0
-273,-461,0,0,0,0,0,0,0,0,0,-1,951,1485,0,0
-266,-461,0,0,0,0,0,0,0,0,0,-1,958,1485,0,0
-259,-461,0,0,0,0,0,0,0,0,0,-1,965,1485,0,0
-252,-461,0,0,0,0,0,0,0,0,0,-1,972,1485,0,0
-245,-461,0,0,0,0,0,0,0,0,0,-1,979,1485,0,0
-238,-461,0,0,0,0,0,0,0,0,0,-1,986,1485,0,0
-231,-461,0,0,0,0,0,0,0,0,0,-1,993,1485,0,0
-224,-461,0,0,0,0,0,0,0,0,0,-1,1000,1485,0,0
-217,-461,0,0,0,0,0,0,0,0,0,-1,1007,1485,0,0
-210,-461,0,0,0,0,0,0,0,0,0,-1,1014,1485,0,0
-203,-461,0,0,0,0,0,0,0,0,0,-1,1021,1485,0,0
-196,-461,0,0,0,0,0,0,0,0,0,-1,1028,1485,0,0
-189,-461,0,0,0,0,0,0,0,0,0,-1,1035,1485,0,0
-182,-461,0,0,0,0,0,0,0,0,0,-1,1042,1485,0,0
-175,-461,0,0,0,0,0,0,0,0,0,-1,1049,1485,0,0
-168,-461,0,0,0,0,0,0,0,0,0,-1,1056,1485,0,0
-161,-461,0,0,0,0,0,0,0,0,0,-1,1063,1485,0,0
-154,-461,0,0,0,0,0,0,0,0,0,-1,1070,1485,0,0
-147,-461,0,0,0,0,0,0,0,0,0,-1,1077,1485,0,0
-140,-461,0,0,0,0,0,0,0,0,0,-1,1084,1485,0,0
-133,-461,0,0,0,0,0,0,0,0,0,-1,1091,1485,0,0
-126,-461,0,0,0,0,0,0,0,0,0,-1,1098,1485,0,0
-119,-461,0,0,0,0,0,0,0,0,0,-1,1105,1485,0,0
-112,-461,0,0,0,0,0,0,0,0,0,-1,1112,1485,0,0
-105,-461,0,0,0,0,0,0,0,0,0,-1,1119,1485,0,0
-98,-461,0,0,0,0,0,0,0,0,0,-1,1126,1485,0,0
-91,-461,0,0,0,0,0,0,0,0,0,-1,1133,1485,0,0
-84,-461,0,0,0,0,0,0,0,0,0,-1,1140,1485,0,0
-77,-461,0,0,0,0,0,0,0,0,0,-1,1147,1485,0,0
-70,-461,0,0,0,0,0,0,0,0,0,-1,1154,1485,0,0
-63,-461,0,0,0,0,0,0,0,0,0,-1,1161,1485,0,0
-56,-461,0,0,0,0,0,0,0,0,0,-1,1168,1485,0,0
-49,-461,0,0,0,0,0,0,0,0,0,-1,1175,1485,0,0
-42,-461,0,0,0,0,0,0,0,0,0,-1,1182,1485,0,0
-35,-461,0,0,0,0,0,0,0,0,0,-1,1189,1485,0,0
-28,-461,0,0,0,0,0,0,0,0,0,-1,1196,1485,0,0
-21,-461,0,0,0,0,0,0,0,0,0,-1,1203,1485,0,0
-14,-461,0,0,0,0,0,0,0,0,0,-1,1210,1485,0,0
-7,-461,0,0,0,0,0,0,0,0,0,-1,1217,1485,0,0
0,-461,0,0,0,0,0,0,0,0,0,-1,1224,1485,0,0
7,-461,0,0,0,0,0,0,0,0,0,-1,1231,1485,0,0
14,-461,0,0,0,0,0,0,0,0,0,-1,1238,1485,0,0
21,-461,0,0,0,0,0,0,0,0,0,-1,1245,1485,0,0
28,-461,0,0,0,0,0,0,0,0,0,-1,1252,1485,0,0
35,-461,0,0,0,0,0,0,0,0,0,-1,1259,1485,0,0
42,-461,0,0,0,0,0,0,0,0,0,-1,1266,1485,0,0
49,-461,0,0,0,0,0,0,0,0,0,-1,1273,1485,0,0
56,-461,0,0,0,0,0,0,0,0,0,-1,1280,1485,0,0
63,-461,0,0,0,0,0,0,0,0,0,-1,1287,1485,0,0
70,-461,0,0,0,0,0,0,0,0,0,-1,1294,1485,0,0
77,-461,0,0,0,0,0,0,0,0,0,-1,1301,1485,0,0
84,-461,0,0,0,0,0,0,0,0,0,-1,1308,1485,0,0
91,-461,0,0,0,0,0,0,0,0,0,-1,1315,1485,0,0
98,-461,0,0,0,0,0,0,0,0,0,-1,1322,1485,0,0
105,-461,0,0,0,0,0,0,0,0,0,-1,1329,1485,0,0
112,-461,0,0,0,0,0,0,0,0,0,-1,1336,1485,0,0
119,-461,0,0,0,0,0,0,0,0,0,-1,1343,1485,0,0
126,-461,0,0,0,0,0,0,0,0,0,-1,1350,1485,0,0
133,-461,0,0,0,0,0,0,0,0,0,-1,1357,1485,0,0
140,-461,0,0,0,0,0,0,0,0,0,-1,1364,1485,0,0
147,-461,0,0,0,0,0,0,0,0,0,-1,1371,1485,0,0
154,-461,0,0,0,0,0,0,0,0,0,-1,1378,1485,0,0
161,-461,0,0,0,0,0,0,0,0,0,-1,1385,1485,0,0
168,-461,0,0,0,0,0,0,0,0,0,-1,1392,1485,0,0
175,-461,0,0,0,0,0,0,0,0,0,-1,1399,1485,0,0
182,-461,0,0,0,0,0,0,0,0,0,-1,1406,1485,0,0
189,-461,0,0,0,0,0,0,0,0,0,-1,1413,1485,0,0
196,-461,0,0,0,0,0,0,0,0,0,-1,1420,1485,0,0
203,-461,0,0,0,0,0,0,0,0,0,-1,1427,1485,0,0
210,-461,0,0,0,0,0,0,0,0,0,-1,1434,1485,0,0
217,-461,0,0,0,0,0,0,0,0,0,-1,1441,1485,0,0
224,-461,0,0,0,0,0,0,0,0,0,-1,1448,1485,0,0
231,-461,0,0,0,0,0,0,0,0,0,-1,1455,1485,0,0
238,-461,0,0,0,0,0,0,0,0,0,-1,1462,1485,0,0
245,-461,0,0,0,0,0,0,0,0,0,-1,1469,1485,0,0
252,-461,0,0,0,0,0,0,0,0,0,-1,1476,1485,0,0
259,-461,0,0,0,0,0,0,0,0,0,-1,1483,1485,0,0
266,-461,0,0,0,0,0,0,0,0,0,-1,1490,1485,0,0
273,-461,0,0,0,0,0,0,0,0,0,-1,1497,1485,0,0
280,-461,0,0,0,0,0,0,0,0,0,-1,1504,1485,0,0
287,-461,0,0,0,0,0,0,0,0,0,-1,1511,1485,0,0
294,-461,0,0,0,0,0,0,0,0,0,-1,1518,1485,0,0
301,-461,0,0,0,0,0,0,0,0,0,-1,1525,1485,0,0
308,-461,0,0,0,0,0,0,0,0,0,-1,1532,1485,0,0
315,-461,0,0,0,0,0,0,0,0,0,-1,1539,1485,0,0
322,-461,0,0,0,0,0,0,0,0,0,-1,1546,1485,0,0
329,-461,0,0,0,0,0,0,0,0,0,-1,1553,1485,0,0
336,-461,0,0,0,0,0,0,0,0,0,-1,1560,1485,0,0
343,-461,0,0,0,0,0,0,0,0,0,-1,1567,1485,0,0
350,-461,0,0,0,0,0,0,0,0,0,-1,1574,1485,0,0
357,-461,0,0,0,0,0,0,0,0,0,-1,1581,1485,0,0
364,-461,0,0,0,0,0,0,0,0,0,-1,1588,1485,0,0
371,-461,0,0,0,0,0,0,0,0,0,-1,1595,1485,0,0
378,-461,0,0,0,0,0,0,0,0,0,-1,1602,1485,0,0
385,-461,0,0,0,0,0,0,0,0,0,-1,1609,1485,0,0
392,-461,0,0,0,0,0,0,0,0,0,-1,1616,1485,0,0
399,-461,0,0,0,0,0,0,0,0,0,-1,1623,1485,0,0
406,-461,0,0,0,0,0,0,0,0,0,-1,1630,1485,0,0
413,-461,0,0,0,0,0,0,0,0,0,-1,1637,1485,0,0
420,-461,0,0,0,0,0,0,0,0,0,-1,1644,1485,0,0
427,-461,0,0,0,0,0,0,0,0,0,-1,1651,1485,0,0
434,-461,0,0,0,0,0,0,0,0,0,-1,1658,1485,0,0
441,-461,0,0,0,0,0,0,0,0,0,-1,1665,1485,0,0
448,-461,0,0,0,0,0,0,0,0,0,-1,1672,1485,0,0
455,-461,0,0,0,0,0,0,0,0,0,-1,1679,1485,0,0
462,-461,0,0,0,0,0,0,0,0,0,-1,1686,1485,0,0
469,-461,0,0,0,0,0,0,0,0,0,-1,1693,1485,0,0
476,-461,14.1906,0.690552,0,0,0,0,0,0,0,-1,1700,1485,14.1906,-0.690525
483,-461,10.6361,3.09106,0,0,0,0,0,0,0,-1,1707,1485,10.6361,-3.091
490,-461,17.9972,0.665894,0,0,0,0,0,0,0,-1,1714,1485,17.9972,-0.665876
497,-461,16.6829,1.87732,0,0,0,0,0,0,0,-1,1721,1485,16.6828,-1.87736
504,-461,15.3884,3.09216,0,0,0,0,0,0,0,-1,1728,1485,15.3885,-3.09212
511,-461,15.4292,14.3512,0,0,0,0,0,0,0,-1,1735,1485,15.4292,-14.3512
518,-461,14.8081,10.0085,0,0,0,0,0,0,0,-1,1742,1485,14.8081,-10.0086
525,-461,14.0022,10.8033,0,0,0,0,0,0,0,-1,1749,1485,14.0022,-10.8033
532,-461,17.1704,14.077,0,0,0,0,0,0,0,-1,1756,1485,17.1704,-14.077
539,-461,16.8231,13.2952,0,0,0,0,0,0,0,-1,1763,1485,16.8231,-13.2952
546,-461,16.2106,14.1372,0,0,0,0,0,0,0,-1,1770,1485,16.2106,-14.1372
553,-461,16.9908,15.3213,0,0,0,0,0,0,0,-1,1777,1485,16.9909,-15.3213
560,-461,16.9513,14.8036,0,0,0,0,0,0,0,-1,1784,1485,16.9513,-14.8036
567,-461,17.1072,14.5721,-0.00431037,-0.00188443,0.0039133,0.000999582,-0.00719437,0.935683,0.00516181,0.0236075,1791,1485,17.1072,-14.5721
574,-461,17.1095,14.2631,-0.00304024,-0.000806365,0.00256743,0.000876566,-0.00472317,0.99057,0.00347798,0.0197488,1798,1485,17.1095,-14.263
581,-461,17.1119,13.9033,-0.00209718,-8.12422e-05,0.00157061,0.000777018,-0.00295544,1.07068,0.00227399,0.0151531,1805,1485,17.1119,-13.9034
588,-461,17.0944,13.5625,-0.00117802,0.00050067,0.000719047,0.000766553,-0.0014439,1.21662,0.00129603,0.0109087,1812,1485,17.0944,-13.5624
595,-461,17.0636,13.2163,-0.000342586,0.000510276,0.000183628,0.000548132,-0.000380442,1.36749,0.000539019,0.00916299,1819,1485,17.0636,-13.2163
602,-461,17.0583,12.8301,0.000138461,0.000313104,-2.83086e-05,0.000317578,0.000133987,-1.41405,0.000184098,0.00967548,1826,1485,17.0584,-12.8301
609,-461,17.0635,12.4373,0.000645221,-0.000204832,-9.95916e-05,0.000656733,-0.000216344,-0.115083,0.000525012,0.0111952,1833,1485,17.0635,-12.4372
616,-461,17.0659,12.0707,0.00104039,-0.000892395,-3.38817e-05,0.00104099,-0.000892988,-0.0175228,0.00111767,0.0130406,1840,1485,17.066,-12.0707
623,-461,17.0587,11.7288,0.00130055,-0.00175612,0.000187524,0.00131201,-0.00176758,0.0610442,0.00178447,0.013346,1847,1485,17.0588,-11.7287
630,-461,17.0669,11.3717,0.00144011,-0.00282926,0.000587005,0.00151935,-0.0029085,0.134176,0.00259802,0.0127568,1854,1485,17.0669,-11.3717
637,-461,17.0569,11.0123,0.00139044,-0.00398768,0.00113809,0.00162136,-0.0042186,0.200185,0.00348107,0.0130495,1861,1485,17.0568,-11.0123
644,-461,17.1096,10.7118,0.00123361,-0.0052536,0.0018044,0.00170173,-0.00572172,0.253832,0.00449052,0.0295883,1868,1485,17.1096,-10.7117
651,-461,16.7561,10.5016,0.000913057,-0.00661475,0.00262656,0.0017389,-0.00744059,0.304633,0.00563026,0.0442121,1875,1485,16.7561,-10.5016
658,-461,16.8987,10.1084,0.000390276,-0.00808525,0.00365056,0.00174583,-0.0094408,0.355548,0.0069493,0.0487483,1882,1485,16.8986,-10.1084
665,-461,17.2638,9.81384,0,0,0,0,0,0,0,-1,1889,1485,17.2638,-9.81385
672,-461,14.4877,6.89429,0,0,0,0,0,0,0,-1,1896,1485,14.4876,-6.89431
679,-461,10.0535,2.16321,0,0,0,0,0,0,0,-1,1903,1485,10.0535,-2.16317
686,-461,10.8195,1.84192,0,0,0,0,0,0,0,-1,1910,1485,10.8194,-1.84195
693,-461,0,0,0,0,0,0,0,0,0,-1,1917,1485,0,0
700,-461,0,0,0,0,0,0,0,0,0,-1,1924,1485,0,0
707,-461,0,0,0,0,0,0,0,0,0,-1,1931,1485,0,0
714,-461,0,0,0,0,0,0,0,0,0,-1,1938,1485,0,0
721,-461,0,0,0,0,0,0,0,0,0,-1,1945,1485,0,0
728,-461,0,0,0,0,0,0,0,0,0,-1,1952,1485,0,0
735,-461,0,0,0,0,0,0,0,0,0,-1,1959,1485,0,0
742,-461,0,0,0,0,0,0,0,0,0,-1,1966,1485,0,0
749,-461,0,0,0,0,0,0,0,0,0,-1,1973,1485,0,0
756,-461,0,0,0,0,0,0,0,0,0,-1,1980,1485,0,0
763,-461,0,0,0,0,0,0,0,0,0,-1,1987,1485,0,0
770,-461,0,0,0,0,0,0,0,0,0,-1,1994,1485,0,0
777,-461,0,0,0,0,0,0,0,0,0,-1,2001,1485,0,0
784,-461,0,0,0,0,0,0,0,0,0,-1,2008,1485,0,0
791,-461,0,0,0,0,0,0,0,0,0,-1,2015,1485,0,0
798,-461,0,0,0,0,0,0,0,0,0,-1,2022,1485,0,0
805,-461,0,0,0,0,0,0,0,0,0,-1,2029,1485,0,0
812,-461,0,0,0,0,0,0,0,0,0,-1,2036,1485,0,0
-700,-468,0,0,0,0,0,0,0,0,0,-1,524,1492,0,0
-693,-468,0,0,0,0,0,0,0,0,0,-1,531,1492,0,0
-686,-468,0,0,0,0,0,0,0,0,0,-1,538,1492,0,0
-679,-468,0,0,0,0,0,0,0,0,0,-1,545,1492,0,0
-672,-468,0,0,0,0,0,0,0,0,0,-1,552,1492,0,0
-665,-468,0,0,0,0,0,0,0,0,0,-1,559,1492,0,0
-658,-468,0,0,0,0,0,0,0,0,0,-1,566,1492,0,0
-651,-468,0,0,0,0,0,0,0,0,0,-1,573,1492,0,0
-644,-468,0,0,0,0,0,0,0,0,0,-1,580,1492,0,0
-637,-468,0,0,0,0,0,0,0,0,0,-1,587,1492,0,0
-630,-468,0,0,0,0,0,0,0,0,0,-1,594,1492,0,0
-623,-468,0,0,0,0,0,0,0,0,0,-1,601,1492,0,0
-616,-468,0,0,0,0,0,0,0,0,0,-1,608,1492,0,0
-609,-468,0,0,0,0,0,0,0,0,0,-1,615,1492,0,0
-602,-468,0,0,0,0,0,0,0,0,0,-1,622,1492,0,0
-595,-468,0,0,0,0,0,0,0,0,0,-1,629,1492,0,0
-588,-468,0,0,0,0,0,0,0,0,0,-1,636,1492,0,0
-581,-468,0,0,0,0,0,0,0,0,0,-1,643,1492,0,0
-574,-468,0,0,0,0,0,0,0,0,0,-1,650,1492,0,0
-567,-468,-11.2603,1.8042,0,0,0,0,0,0,0,-1,657,1492,-11.2603,-1.80424
-560,-468,-8.77441,2.23694,0,0,0,0,0,0,0,-1,664,1492,-8.77443,-2.23692
-553,-468,-5.94061,9.26318,0,0,0,0,0,0,0,-1,671,1492,-5.94062,-9.26322
-546,-468,-10.47,5.43237,0,0,0,0,0,0,0,-1,678,1492,-10.47,-5.4324
-539,-468,-10.2468,5.45203,0,0,0,0,0,0,0,-1,685,1492,-10.2468,-5.45197
-532,-468,-7.78821,4.96826,0,0,0,0,0,0,0,-1,692,1492,-7.78822,-4.96825
-525,-468,-6.6037,5.88245,0,0,0,0,0,0,0,-1,699,1492,-6.60369,-5.8825
-518,-468,-5.41913,6.79675,0,0,0,0,0,0,0,-1,706,1492,-5.41916,-6.79675
-511,-468,-4.64508,8.67798,0.0038901,-0.00471501,-0.0011363,0.00403762,-0.00486253,-0.129102,0.00514585,0.0437756,713,1492,-4.6451,-8.67792
-504,-468,-4.61072,9.16553,0.0023864,-0.00415472,-0.00175751,0.00282871,-0.00459703,-0.246548,0.00432758,0.0249668,720,1492,-4.61073,-9.16557
-497,-468,-4.68018,9.58179,0.00143321,-0.00343213,-0.00185384,0.00205907,-0.00405799,-0.325587,0.00359399,0.0119129,727,1492,-4.68015,-9.58183
-490,-468,-4.66833,10.0186,0.000892994,-0.00255378,-0.00159246,0.00151609,-0.00317688,-0.372966,0.00276546,0.00773735,734,1492,-4.66834,-10.0185
-483,-468,-4.6947,10.4044,0.000547382,-0.00200974,-0.00135542,0.00113212,-0.00259448,-0.407284,0.00220608,0.0087197,741,1492,-4.69472,-10.4044
-476,-468,-4.69873,10.8035,0.000428149,-0.00195744,-0.00123108,0.000949506,-0.00247879,-0.400596,0.00204392,0.00933972,748,1492,-4.69873,-10.8034
-469,-468,-4.71185,11.2047,0.000500825,-0.00207394,-0.0010622,0.000882462,-0.00245558,-0.344926,0.00199728,0.0128656,755,1492,-4.71186,-11.2047
-462,-468,-4.68768,11.6428,0.000630423,-0.00255426,-0.00105558,0.000948529,-0.00287237,-0.2927,0.00229731,0.0221627,762,1492,-4.68768,-11.6429
-455,-468,-4.70801,12.0176,0.000836551,-0.00338131,-0.00125521,0.00118183,-0.00372659,-0.268438,0.00295811,0.0239909,769,1492,-4.70803,-12.0175
-448,-468,-4.72607,12.3784,0.0012683,-0.0045137,-0.00148803,0.00162878,-0.00487418,-0.237673,0.00390723,0.0142605,776,1492,-4.7261,-12.3785
-441,-468,-4.7403,12.7732,0.00192111,-0.00614504,-0.00194052,0.00236367,-0.0065876,-0.224228,0.00535638,0.0127475,783,1492,-4.74032,-12.7732
-434,-468,-4.70868,13.2034,0.00238954,-0.00827673,-0.00276401,0.00306324,-0.00895043,-0.239079,0.00720836,0.0155327,790,1492,-4.70865,-13.2034
-427,-468,-4.6571,13.5979,0.00266071,-0.0107314,-0.00378465,0.00365626,-0.0117269,-0.257222,0.00927998,0.0271024,797,1492,-4.65711,-13.5979
-420,-468,-4.58466,13.9816,0.0030213,-0.0134563,-0.00470789,0.00427155,-0.0147065,-0.259574,0.0114959,0.0414478,804,1492,-4.58465,-13.9816
-413,-468,-4.36438,14.4097,0,0,0,0,0,0,0,-1,811,1492,-4.36437,-14.4096
-406,-468,-2.2356,9.396,0,0,0,0,0,0,0,-1,818,1492,-2.2356,-9.396
-399,-468,-0.940369,8.1936,0,0,0,0,0,0,0,-1,825,1492,-0.940365,-8.19357
-392,-468,-0.35144,8.14673,0,0,0,0,0,0,0,-1,832,1492,-0.351449,-8.14674
-385,-468,0.465759,5.35864,0,0,0,0,0,0,0,-1,839,1492,0.465732,-5.35864
-378,-468,1.99835,3.25391,0,0,0,0,0,0,0,-1,846,1492,1.99837,-3.2539
-371,-468,-0.31842,3.1532,0,0,0,0,0,0,0,-1,853,1492,-0.318441,-3.15324
-364,-468,-0.966736,2.14563,0,0,0,0,0,0,0,-1,860,1492,-0.966735,-2.14557
-357,-468,-3.06787,3.22742,0,0,0,0,0,0,0,-1,867,1492,-3.06784,-3.2274
-350,-468,-3.18658,4.12659,0,0,0,0,0,0,0,-1,874,1492,-3.18659,-4.12658
-343,-468,0,0,0,0,0,0,0,0,0,-1,881,1492,0,0
-336,-468,0,0,0,0,0,0,0,0,0,-1,888,1492,0,0
-329,-468,0,0,0,0,0,0,0,0,0,-1,895,1492,0,0
-322,-468,0,0,0,0,0,0,0,0,0,-1,902,1492,0,0
-315,-468,0,0,0,0,0,0,0,0,0,-1,909,1492,0,0
-308,-468,0,0,0,0,0,0,0,0,0,-1,916,1492,0,0
-301,-468,0,0,0,0,0,0,0,0,0,-1,923,1492,0,0
-294,-468,0,0,0,0,0,0,0,0,0,-1,930,1492,0,0
-287,-468,0,0,0,0,0,0,0,0,0,-1,937,1492,0,0
-280,-468,0,0,0,0,0,0,0,0,0,-1,944,1492,0,0
-273,-468,0,0,0,0,0,0,0,0,0,-1,951,1492,0,0
-266,-468,0,0,0,0,0,0,0,0,0,-1,958,1492,0,0
-259,-468,0,0,0,0,0,0,0,0,0,-1,965,1492,0,0
-252,-468,0,0,0,0,0,0,0,0,0,-1,972,1492,0,0
-245,-468,0,0,0,0,0,0,0,0,0,-1,979,1492,0,0
-238,-468,0,0,0,0,0,0,0,0,0,-1,986,1492,0,0
-231,-468,0,0,0,0,0,0,0,0,0,-1,993,1492,0,0
-224,-468,0,0,0,0,0,0,0,0,0,-1,1000,1492,0,0
-217,-468,0,0,0,0,0,0,0,0,0,-1,1007,1492,0,0
-210,-468,0,0,0,0,0,0,0,0,0,-1,1014,1492,0,0
-203,-468,0,0,0,0,0,0,0,0,0,-1,1021,1492,0,0
-196,-468,0,0,0,0,0,0,0,0,0,-1,1028,1492,0,0
-189,-468,0,0,0,0,0,0,0,0,0,-1,1035,1492,0,0
-182,-468,0,0,0,0,0,0,0,0,0,-1,1042,1492,0,0
-175,-468,0,0,0,0,0,0,0,0,0,-1,1049,1492,0,0
-168,-468,0,0,0,0,0,0,0,0,0,-1,1056,1492,0,0
-161,-468,0,0,0,0,0,0,0,0,0,-1,1063,1492,0,0
-154,-468,0,0,0,0,0,0,0,0,0,-1,1070,1492,0,0
-147,-468,0,0,0,0,0,0,0,0,0,-1,1077,1492,0,0
-140,-468,0,0,0,0,0,0,0,0,0,-1,1084,1492,0,0
-133,-468,0,0,0,0,0,0,0,0,0,-1,1091,1492,0,0
-126,-468,0,0,0,0,0,0,0,0,0,-1,1098,1492,0,0
-119,-468,0,0,0,0,0,0,0,0,0,-1,1105,1492,0,0
-112,-468,0,0,0,0,0,0,0,0,0,-1,1112,1492,0,0
-105,-468,0,0,0,0,0,0,0,0,0,-1,1119,1492,0,0
-98,-468,0,0,0,0,0,0,0,0,0,-1,1126,1492,0,0
-91,-468,0,0,0,0,0,0,0,0,0,-1,1133,1492,0,0
-84,-468,0,0,0,0,0,0,0,0,0,-1,1140,1492,0,0
-77,-468,0,0,0,0,0,0,0,0,0,-1,1147,1492,0,0
-70,-468,0,0,0,0,0,0,0,0,0,-1,1154,1492,0,0
-63,-468,0,0,0,0,0,0,0,0,0,-1,1161,1492,0,0
-56,-468,0,0,0,0,0,0,0,0,0,-1,1168,1492,0,0
-49,-468,0,0,0,0,0,0,0,0,0,-1,1175,1492,0,0
-42,-468,0,0,0,0,0,0,0,0,0,-1,1182,1492,0,0
-35,-468,0,0,0,0,0,0,0,0,0,-1,1189,1492,0,0
-28,-468,0,0,0,0,0,0,0,0,0,-1,1196,1492,0,0
-21,-468,0,0,0,0,0,0,0,0,0,-1,1203,1492,0,0
-14,-468,0,0,0,0,0,0,0,0,0,-1,1210,1492,0,0
-7,-468,0,0,0,0,0,0,0,0,0,-1,1217,1492,0,0
0,-468,0,0,0,0,0,0,0,0,0,-1,1224,1492,0,0
7,-468,0,0,0,0,0,0,0,0,0,-1,1231,1492,0,0
14,-468,0,0,0,0,0,0,0,0,0,-1,1238,1492,0,0
21,-468,0,0,0,0,0,0,0,0,0,-1,1245,1492,0,0
28,-468,0,0,0,0,0,0,0,0,0,-1,1252,1492,0,0
35,-468,0,0,0,0,0,0,0,0,0,-1,1259,1492,0,0
42,-468,0,0,0,0,0,0,0,0,0,-1,1266,1492,0,0
49,-468,0,0,0,0,0,0,0,0,0,-1,1273,1492,0,0
56,-468,0,0,0,0,0,0,0,0,0,-1,1280,1492,0,0
63,-468,0,0,0,0,0,0,0,0,0,-1,1287,1492,0,0
70,-468,0,0,0,0,0,0,0,0,0,-1,1294,1492,0,0
77,-468,0,0,0,0,0,0,0,0,0,-1,1301,1492,0,0
84,-468,0,0,0,0,0,0,0,0,0,-1,1308,1492,0,0
91,-468,0,0,0,0,0,0,0,0,0,-1,1315,1492,0,0
98,-468,0,0,0,0,0,0,0,0,0,-1,1322,1492,0,0
105,-468,0,0,0,0,0,0,0,0,0,-1,1329,1492,0,0
112,-468,0,0,0,0,0,0,0,0,0,-1,1336,1492,0,0
119,-468,0,0,0,0,0,0,0,0,0,-1,1343,1492,0,0
126,-468,0,0,0,0,0,0,0,0,0,-1,1350,1492,0,0
133,-468,0,0,0,0,0,0,0,0,0,-1,1357,1492,0,0
140,-468,0,0,0,0,0,0,0,0,0,-1,1364,1492,0,0
147,-468,0,0,0,0,0,0,0,0,0,-1,1371,1492,0,0
154,-468,0,0,0,0,0,0,0,0,0,-1,1378,1492,0,0
161,-468,0,0,0,0,0,0,0,0,0,-1,1385,1492,0,0
168,-468,0,0,0,0,0,0,0,0,0,-1,1392,1492,0,0
175,-468,0,0,0,0,0,0,0,0,0,-1,1399,1492,0,0
182,-468,0,0,0,0,0,0,0,0,0,-1,1406,1492,0,0
189,-468,0,0,0,0,0,0,0,0,0,-1,1413,1492,0,0
196,-468,0,0,0,0,0,0,0,0,0,-1,1420,1492,0,0
203,-468,0,0,0,0,0,0,0,0,0,-1,1427,1492,0,0
210,-468,0,0,0,0,0,0,0,0,0,-1,1434,1492,0,0
217,-468,0,0,0,0,0,0,0,0,0,-1,1441,1492,0,0
224,-468,0,0,0,0,0,0,0,0,0,-1,1448,1492,0,0
231,-468,0,0,0,0,0,0,0,0,0,-1,1455,1492,0,0
238,-468,0,0,0,0,0,0,0,0,0,-1,1462,1492,0,0
245,-468,0,0,0,0,0,0,0,0,0,-1,1469,1492,0,0
252,-468,0,0,0,0,0,0,0,0,0,-1,1476,1492,0,0
259,-468,0,0,0,0,0,0,0,0,0,-1,1483,1492,0,0
266,-468,0,0,0,0,0,0,0,0,0,-1,1490,1492,0,0
273,-468,0,0,0,0,0,0,0,0,0,-1,1497,1492,0,0
280,-468,0,0,0,0,0,0,0,0,0,-1,1504,1492,0,0
287,-468,0,0,0,0,0,0,0,0,0,-1,1511,1492,0,0
294,-468,0,0,0,0,0,0,0,0,0,-1,1518,1492,0,0
301,-468,0,0,0,0,0,0,0,0,0,-1,1525,1492,0,0
308,-468,0,0,0,0,0,0,0,0,0,-1,1532,1492,0,0
315,-468,0,0,0,0,0,0,0,0,0,-1,1539,1492,0,0
322,-468,0,0,0,0,0,0,0,0,0,-1,1546,1492,0,0
329,-468,0,0,0,0,0,0,0,0,0,-1,1553,1492,0,0
336,-468,0,0,0,0,0,0,0,0,0,-1,1560,1492,0,0
343,-468,0,0,0,0,0,0,0,0,0,-1,1567,1492,0,0
350,-468,0,0,0,0,0,0,0,0,0,-1,1574,1492,0,0
357,-468,0,0,0,0,0,0,0,0,0,-1,1581,1492,0,0
364,-468,0,0,0,0,0,0,0,0,0,-1,1588,1492,0,0
371,-468,0,0,0,0,0,0,0,0,0,-1,1595,1492,0,0
378,-468,0,0,0,0,0,0,0,0,0,-1,1602,1492,0,0
385,-468,0,0,0,0,0,0,0,0,0,-1,1609,1492,0,0
392,-468,0,0,0,0,0,0,0,0,0,-1,1616,1492,0,0
399,-468,0,0,0,0,0,0,0,0,0,-1,1623,1492,0,0
406,-468,0,0,0,0,0,0,0,0,0,-1,1630,1492,0,0
413,-468,0,0,0,0,0,0,0,0,0,-1,1637,1492,0,0
420,-468,0,0,0,0,0,0,0,0,0,-1,1644,1492,0,0
427,-468,0,0,0,0,0,0,0,0,0,-1,1651,1492,0,0
434,-468,0,0,0,0,0,0,0,0,0,-1,1658,1492,0,0
441,-468,0,0,0,0,0,0,0,0,0,-1,1665,1492,0,0
448,-468,0,0,0,0,0,0,0,0,0,-1,1672,1492,0,0
455,-468,0,0,0,0,0,0,0,0,0,-1,1679,1492,0,0
462,-468,0,0,0,0,0,0,0,0,0,-1,1686,1492,0,0
469,-468,15.6879,1.2677,0,0,0,0,0,0,0,-1,1693,1492,15.6879,-1.26772
476,-468,14.9318,1.61865,0,0,0,0,0,0,0,-1,1700,1492,14.9318,-1.61869
483,-468,11.265,4.64795,0,0,0,0,0,0,0,-1,1707,1492,11.265,-4.64798
490,-468,12.1316,3.51624,0,0,0,0,0,0,0,-1,1714,1492,12.1316,-3.51628
497,-468,16.5355,3.14587,0,0,0,0,0,0,0,-1,1721,1492,16.5356,-3.14583
504,-468,15.0642,4.10437,0,0,0,0,0,0,0,-1,1728,1492,15.0643,-4.10431
511,-468,15.6877,9.4801,0,0,0,0,0,0,0,-1,1735,1492,15.6878,-9.48007
518,-468,13.759,11.0887,0,0,0,0,0,0,0,-1,1742,1492,13.759,-11.0887
525,-468,16.6531,14.2238,0,0,0,0,0,0,0,-1,1749,1492,16.653,-14.2237
532,-468,18.0321,15.9307,0,0,0,0,0,0,0,-1,1756,1492,18.0321,-15.9307
539,-468,17.7644,15.8289,0,0,0,0,0,0,0,-1,1763,1492,17.7645,-15.8289
546,-468,16.9677,15.7144,0,0,0,0,0,0,0,-1,1770,1492,16.9676,-15.7144
553,-468,16.8979,15.3033,-0.00576369,-0.00487148,0.0063992,0.00109715,-0.0117323,0.820198,0.00821173,0.0416059,1777,1492,16.898,-15.3034
560,-468,16.7129,14.9957,-0.00428637,-0.00312606,0.00462453,0.000954565,-0.00836699,0.847798,0.00592188,0.0299156,1784,1492,16.7129,-14.9957
567,-468,16.7175,14.663,-0.0030387,-0.00184415,0.00321398,0.000827574,-0.00571043,0.877268,0.00411068,0.0186163,1791,1492,16.7175,-14.663
574,-468,16.7335,14.2629,-0.00203437,-0.000960176,0.00212028,0.000689973,-0.00368452,0.909446,0.00271571,0.01526,1798,1492,16.7335,-14.2629
581,-468,16.7314,13.9009,-0.00122899,-0.000340087,0.00126617,0.000557376,-0.00212645,0.954189,0.0016354,0.0156471,1805,1492,16.7314,-13.9008
588,-468,16.7308,13.5636,-0.000359024,0.000137593,0.000468026,0.000419101,-0.000640532,1.02929,0.000616216,0.0126034,1812,1492,16.7309,-13.5636
595,-468,16.7307,13.2236,0.000398862,0.000127176,-1.70833e-05,0.000399932,0.000126106,-0.0625505,0.000236093,0.0109303,1819,1492,16.7307,-13.2236
602,-468,16.7086,12.8344,0.000837796,-9.86047e-05,-0.000195308,0.0008769,-0.000137708,-0.1976,0.000635495,0.00963509,1826,1492,16.7086,-12.8344
609,-468,16.6929,12.4493,0.00133491,-0.000622822,-0.000264057,0.0013699,-0.000657813,-0.131744,0.00119452,0.00992439,1833,1492,16.6928,-12.4493
616,-468,16.6825,12.0836,0.00175982,-0.0013421,-0.000211815,0.00177421,-0.0013565,-0.0678652,0.00181287,0.00920155,1840,1492,16.6825,-12.0836
623,-468,16.6827,11.7356,0.00209411,-0.0022902,-7.90202e-06,0.00209413,-0.00229021,-0.00180233,0.00253214,0.00982417,1847,1492,16.6828,-11.7356
630,-468,16.6957,11.3651,0.00227136,-0.00350978,0.00042914,0.00230305,-0.00354146,0.0736928,0.00339948,0.0108382,1854,1492,16.6957,-11.3652
637,-468,16.6958,10.9912,0.00230672,-0.00483766,0.000988366,0.00244093,-0.00497187,0.134965,0.00436214,0.014742,1861,1492,16.6958,-10.9912
644,-468,16.7528,10.7549,0.00224659,-0.00640374,0.00170499,0.00257051,-0.00672766,0.187749,0.00554427,0.0432231,1868,1492,16.7529,-10.7549
651,-468,16.4775,10.7173,0,0,0,0,0,0,0,-1,1875,1492,16.4776,-10.7173
658,-468,16.4969,10.0774,0,0,0,0,0,0,0,-1,1882,1492,16.497,-10.0774
665,-468,15.4673,8.59546,0,0,0,0,0,0,0,-1,1889,1492,15.4672,-8.59548
672,-468,9.96814,3.61133,0,0,0,0,0,0,0,-1,1896,1492,9.96817,-3.61139
679,-468,11.2191,1.91968,0,0,0,0,0,0,0,-1,1903,1492,11.2191,-1.91965
686,-468,11.9252,1.42285,0,0,0,0,0,0,0,-1,1910,1492,11.9252,-1.42291
693,-468,0,0,0,0,0,0,0,0,0,-1,1917,1492,0,0
700,-468,0,0,0,0,0,0,0,0,0,-1,1924,1492,0,0
707,-468,0,0,0,0,0,0,0,0,0,-1,1931,1492,0,0
714,-468,0,0,0,0,0,0,0,0,0,-1,1938,1492,0,0
721,-468,0,0,0,0,0,0,0,0,0,-1,1945,1492,0,0
728,-468,0,0,0,0,0,0,0,0,0,-1,1952,1492,0,0
735,-468,0,0,0,0,0,0,0,0,0,-1,1959,1492,0,0
742,-468,0,0,0,0,0,0,0,0,0,-1,1966,1492,0,0
749,-468,0,0,0,0,0,0,0,0,0,-1,1973,1492,0,0
756,-468,0,0,0,0,0,0,0,0,0,-1,1980,1492,0,0
763,-468,0,0,0,0,0,0,0,0,0,-1,1987,1492,0,0
770,-468,0,0,0,0,0,0,0,0,0,-1,1994,1492,0,0
777,-468,0,0,0,0,0,0,0,0,0,-1,2001,1492,0,0
784,-468,0,0,0,0,0,0,0,0,0,-1,2008,1492,0,0
791,-468,0,0,0,0,0,0,0,0,0,-1,2015,1492,0,0
798,-468,0,0,0,0,0,0,0,0,0,-1,2022,1492,0,0
805,-468,0,0,0,0,0,0,0,0,0,-1,2029,1492,0,0
812,-468,0,0,0,0,0,0,0,0,0,-1,2036,1492,0,0
-700,-475,0,0,0,0,0,0,0,0,0,-1,524,1499,0,0
-693,-475,0,0,0,0,0,0,0,0,0,-1,531,1499,0,0
-686,-475,0,0,0,0,0,0,0,0,0,-1,538,1499,0,0
-679,-475,0,0,0,0,0,0,0,0,0,-1,545,1499,0,0
-672,-475,0,0,0,0,0,0,0,0,0,-1,552,1499,0,0
-665,-475,0,0,0,0,0,0,0,0,0,-1,559,1499,0,0
-658,-475,0,0,0,0,0,0,0,0,0,-1,566,1499,0,0
-651,-475,0,0,0,0,0,0,0,0,0,-1,573,1499,0,0
-644,-475,0,0,0,0,0,0,0,0,0,-1,580,1499,0,0
-637,-475,0,0,0,0,0,0,0,0,0,-1,587,1499,0,0
-630,-475,0,0,0,0,0,0,0,0,0,-1,594,1499,0,0
-623,-475,0,0,0,0,0,0,0,0,0,-1,601,1499,0,0
-616,-475,0,0,0,0,0,0,0,0,0,-1,608,1499,0,0
-609,-475,0,0,0,0,0,0,0,0,0,-1,615,1499,0,0
-602,-475,0,0,0,0,0,0,0,0,0,-1,622,1499,0,0
-595,-475,0,0,0,0,0,0,0,0,0,-1,629,1499,0,0
-588,-475,0,0,0,0,0,0,0,0,0,-1,636,1499,0,0
-581,-475,0,0,0,0,0,0,0,0,0,-1,643,1499,0,0
-574,-475,0,0,0,0,0,0,0,0,0,-1,650,1499,0,0
-567,-475,0,0,0,0,0,0,0,0,0,-1,657,1499,0,0
-560,-475,-9.42731,9.29517,0,0,0,0,0,0,0,-1,664,1499,-9.42731,-9.29519
-553,-475,-8.15131,8.78369,0,0,0,0,0,0,0,-1,671,1499,-8.15131,-8.78367
-546,-475,-8.41254,8.20654,0,0,0,0,0,0,0,-1,678,1499,-8.41251,-8.20655
-539,-475,-4.7345,4.17419,0,0,0,0,0,0,0,-1,685,1499,-4.73449,-4.17418
-532,-475,-4.00354,6.03528,0,0,0,0,0,0,0,-1,692,1499,-4.00353,-6.03526
-525,-475,-7.23901,5.08032,0,0,0,0,0,0,0,-1,699,1499,-7.23904,-5.08036
-518,-475,-4.80957,8.17932,0,0,0,0,0,0,0,-1,706,1499,-4.80956,-8.17932
-511,-475,-4.55475,8.76245,0.00577837,-0.00618482,-0.00197711,0.00609665,-0.0065031,-0.159614,0.00727573,0.0466662,713,1499,-4.55473,-8.76249
-504,-475,-4.2265,9.31384,0.00315704,-0.00545226,-0.00268685,0.00392675,-0.00622197,-0.279003,0.00590911,0.0329907,720,1499,-4.22649,-9.31382
-497,-475,-4.26385,9.67078,0.00147499,-0.00456192,-0.00276843,0.0025523,-0.00563923,-0.37111,0.00484002,0.0211253,727,1499,-4.26383,-9.67083
-490,-475,-4.2663,10.0133,0.000531164,-0.00344446,-0.00239393,0.00165499,-0.00456828,-0.43891,0.00372193,0.00942518,734,1499,-4.26629,-10.0133
-483,-475,-4.27325,10.4283,-1.38914e-05,-0.00265144,-0.00196785,0.00103621,-0.00370154,-0.490189,0.00287601,0.00822196,741,1499,-4.27324,-10.4283
-476,-475,-4.2868,10.8108,-0.000226566,-0.0022886,-0.00166852,0.000703782,-0.00321895,-0.508651,0.00241499,0.0095782,748,1499,-4.2868,-10.8108
-469,-475,-4.30225,11.1962,-0.000117402,-0.00213582,-0.00133253,0.00054496,-0.00279819,-0.4613,0.00207115,0.0120448,755,1499,-4.30224,-11.1961
-462,-475,-4.26965,11.6108,0.000140635,-0.0022834,-0.00112092,0.00057951,-0.00272227,-0.373185,0.0020357,0.0169082,762,1499,-4.26967,-11.6108
-455,-475,-4.29028,12.0164,0.000498788,-0.0027079,-0.00110259,0.000841313,-0.00305043,-0.301204,0.00236448,0.0157546,769,1499,-4.2903,-12.0164
-448,-475,-4.34326,12.4136,0.00106803,-0.00328975,-0.00103821,0.00130273,-0.00352445,-0.22233,0.00288369,0.0140847,776,1499,-4.34327,-12.4135
-441,-475,-4.36981,12.8149,0.00198178,-0.00418571,-0.00105079,0.00215589,-0.00435982,-0.164206,0.00383291,0.0167209,783,1499,-4.36982,-12.815
-434,-475,-4.33929,13.1742,0.00284736,-0.00534132,-0.00128633,0.00304467,-0.00553863,-0.152204,0.00502482,0.0108254,790,1499,-4.33928,-13.1741
-427,-475,-4.27972,13.6198,0.00356621,-0.00650459,-0.0015802,0.00380834,-0.00674672,-0.152043,0.00617217,0.0206141,797,1499,-4.27974,-13.6197
-420,-475,-4.17493,14.0566,0.00439357,-0.00773615,-0.00160787,0.00460308,-0.00794566,-0.129575,0.00733019,0.0350195,804,1499,-4.17493,-14.0567
-413,-475,-3.93304,14.5728,0,0,0,0,0,0,0,-1,811,1499,-3.93306,-14.5728
-406,-475,-2.56116,12.4956,0,0,0,0,0,0,0,-1,818,1499,-2.56116,-12.4956
-399,-475,-1.39667,6.1615,0,0,0,0,0,0,0,-1,825,1499,-1.39664,-6.16155
-392,-475,0.217163,8.61389,0,0,0,0,0,0,0,-1,832,1499,0.217167,-8.6139
-385,-475,1.18372,2.73999,0,0,0,0,0,0,0,-1,839,1499,1.18372,-2.73995
-378,-475,1.31409,2.90149,0,0,0,0,0,0,0,-1,846,1499,1.31411,-2.90151
-371,-475,2.3476,3.31116,0,0,0,0,0,0,0,-1,853,1499,2.34761,-3.31121
-364,-475,1.04462,9.05823,0,0,0,0,0,0,0,-1,860,1499,1.04461,-9.05825
-357,-475,-0.262756,7.97205,0,0,0,0,0,0,0,-1,867,1499,-0.262784,-7.97205
-350,-475,-2.77173,4.35486,0,0,0,0,0,0,0,-1,874,1499,-2.77175,-4.35491
-343,-475,-6.81641,-1.95203,0,0,0,0,0,0,0,-1,881,1499,-6.81643,1.95198
-336,-475,0,0,0,0,0,0,0,0,0,-1,888,1499,0,0
-329,-475,0,0,0,0,0,0,0,0,0,-1,895,1499,0,0
-322,-475,0,0,0,0,0,0,0,0,0,-1,902,1499,0,0
-315,-475,0,0,0,0,0,0,0,0,0,-1,909,1499,0,0
-308,-475,0,0,0,0,0,0,0,0,0,-1,916,1499,0,0
-301,-475,0,0,0,0,0,0,0,0,0,-1,923,1499,0,0
-294,-475,0,0,0,0,0,0,0,0,0,-1,930,1499,0,0
-287,-475,0,0,0,0,0,0,0,0,0,-1,937,1499,0,0
-280,-475,0,0,0,0,0,0,0,0,0,-1,944,1499,0,0
-273,-475,0,0,0,0,0,0,0,0,0,-1,951,1499,0,0
-266,-475,0,0,0,0,0,0,0,0,0,-1,958,1499,0,0
-259,-475,0,0,0,0,0,0,0,0,0,-1,965,1499,0,0
-252,-475,0,0,0,0,0,0,0,0,0,-1,972,1499,0,0
-245,-475,0,0,0,0,0,0,0,0,0,-1,979,1499,0,0
-238,-475,0,0,0,0,0,0,0,0,0,-1,986,1499,0,0
-231,-475,0,0,0,0,0,0,0,0,0,-1,993,1499,0,0
-224,-475,0,0,0,0,0,0,0,0,0,-1,1000,1499,0,0
-217,-475,0,0,0,0,0,0,0,0,0,-1,1007,1499,0,0
-210,-475,0,0,0,0,0,0,0,0,0,-1,1014,1499,0,0
-203,-475,0,0,0,0,0,0,0,0,0,-1,1021,1499,0,0
-196,-475,0,0,0,0,0,0,0,0,0,-1,1028,1499,0,0
-189,-475,0,0,0,0,0,0,0,0,0,-1,1035,1499,0,0
-182,-475,0,0,0,0,0,0,0,0,0,-1,1042,1499,0,0
-175,-475,0,0,0,0,0,0,0,0,0,-1,1049,1499,0,0
-168,-475,0,0,0,0,0,0,0,0,0,-1,1056,1499,0,0
-161,-475,0,0,0,0,0,0,0,0,0,-1,1063,1499,0,0
-154,-475,0,0,0,0,0,0,0,0,0,-1,1070,1499,0,0
-147,-475,0,0,0,0,0,0,0,0,0,-1,1077,1499,0,0
-140,-475,0,0,0,0,0,0,0,0,0,-1,1084,1499,0,0
-133,-475,0,0,0,0,0,0,0,0,0,-1,1091,1499,0,0
-126,-475,0,0,0,0,0,0,0,0,0,-1,1098,1499,0,0
-119,-475,0,0,0,0,0,0,0,0,0,-1,1105,1499,0,0
-112,-475,0,0,0,0,0,0,0,0,0,-1,1112,1499,0,0
-105,-475,0,0,0,0,0,0,0,0,0,-1,1119,1499,0,0
-98,-475,0,0,0,0,0,0,0,0,0,-1,1126,1499,0,0
-91,-475,0,0,0,0,0,0,0,0,0,-1,1133,1499,0,0
-84,-475,0,0,0,0,0,0,0,0,0,-1,1140,1499,0,0
-77,-475,0,0,0,0,0,0,0,0,0,-1,1147,1499,0,0
-70,-475,0,0,0,0,0,0,0,0,0,-1,1154,1499,0,0
-63,-475,0,0,0,0,0,0,0,0,0,-1,1161,1499,0,0
-56,-475,0,0,0,0,0,0,0,0,0,-1,1168,1499,0,0
-49,-475,0,0,0,0,0,0,0,0,0,-1,1175,1499,0,0
-42,-475,0,0,0,0,0,0,0,0,0,-1,1182,1499,0,0
-35,-475,0,0,0,0,0,0,0,0,0,-1,1189,1499,0,0
-28,-475,0,0,0,0,0,0,0,0,0,-1,1196,1499,0,0
-21,-475,0,0,0,0,0,0,0,0,0,-1,1203,1499,0,0
-14,-475,0,0,0,0,0,0,0,0,0,-1,1210,1499,0,0
-7,-475,0,0,0,0,0,0,0,0,0,-1,1217,1499,0,0
0,-475,0,0,0,0,0,0,0,0,0,-1,1224,1499,0,0
7,-475,0,0,0,0,0,0,0,0,0,-1,1231,1499,0,0
14,-475,0,0,0,0,0,0,0,0,0,-1,1238,1499,0,0
21,-475,0,0,0,0,0,0,0,0,0,-1,1245,1499,0,0
28,-475,0,0,0,0,0,0,0,0,0,-1,1252,1499,0,0
35,-475,0,0,0,0,0,0,0,0,0,-1,1259,1499,0,0
42,-475,0,0,0,0,0,0,0,0,0,-1,1266,1499,0,0
49,-475,0,0,0,0,0,0,0,0,0,-1,1273,1499,0,0
56,-475,0,0,0,0,0,0,0,0,0,-1,1280,1499,0,0
63,-475,0,0,0,0,0,0,0,0,0,-1,1287,1499,0,0
70,-475,0,0,0,0,0,0,0,0,0,-1,1294,1499,0,0
77,-475,0,0,0,0,0,0,0,0,0,-1,1301,1499,0,0
84,-475,0,0,0,0,0,0,0,0,0,-1,1308,1499,0,0
91,-475,0,0,0,0,0,0,0,0,0,-1,1315,1499,0,0
98,-475,0,0,0,0,0,0,0,0,0,-1,1322,1499,0,0
105,-475,0,0,0,0,0,0,0,0,0,-1,1329,1499,0,0
112,-475,0,0,0,0,0,0,0,0,0,-1,1336,1499,0,0
119,-475,0,0,0,0,0,0,0,0,0,-1,1343,1499,0,0
126,-475,0,0,0,0,0,0,0,0,0,-1,1350,1499,0,0
133,-475,0,0,0,0,0,0,0,0,0,-1,1357,1499,0,0
140,-475,0,0,0,0,0,0,0,0,0,-1,1364,1499,0,0
147,-475,0,0,0,0,0,0,0,0,0,-1,1371,1499,0,0
154,-475,0,0,0,0,0,0,0,0,0,-1,1378,1499,0,0
161,-475,0,0,0,0,0,0,0,0,0,-1,1385,1499,0,0
168,-475,0,0,0,0,0,0,0,0,0,-1,1392,1499,0,0
175,-475,0,0,0,0,0,0,0,0,0,-1,1399,1499,0,0
182,-475,0,0,0,0,0,0,0,0,0,-1,1406,1499,0,0
189,-475,0,0,0,0,0,0,0,0,0,-1,1413,1499,0,0
196,-475,0,0,0,0,0,0,0,0,0,-1,1420,1499,0,0
203,-475,0,0,0,0,0,0,0,0,0,-1,1427,1499,0,0
210,-475,0,0,0,0,0,0,0,0,0,-1,1434,1499,0,0
217,-475,0,0,0,0,0,0,0,0,0,-1,1441,1499,0,0
224,-475,0,0,0,0,0,0,0,0,0,-1,1448,1499,0,0
231,-475,0,0,0,0,0,0,0,0,0,-1,1455,1499,0,0
238,-475,0,0,0,0,0,0,0,0,0,-1,1462,1499,0,0
245,-475,0,0,0,0,0,0,0,0,0,-1,1469,1499,0,0
252,-475,0,0,0,0,0,0,0,0,0,-1,1476,1499,0,0
259,-475,0,0,0,0,0,0,0,0,0,-1,1483,1499,0,0
266,-475,0,0,0,0,0,0,0,0,0,-1,1490,1499,0,0
273,-475,0,0,0,0,0,0,0,0,0,-1,1497,1499,0,0
280,-475,0,0,0,0,0,0,0,0,0,-1,1504,1499,0,0
287,-475,0,0,0,0,0,0,0,0,0,-1,1511,1499,0,0
294,-475,0,0,0,0,0,0,0,0,0,-1,1518,1499,0,0
301,-475,0,0,0,0,0,0,0,0,0,-1,1525,1499,0,0
308,-475,0,0,0,0,0,0,0,0,0,-1,1532,1499,0,0
315,-475,0,0,0,0,0,0,0,0,0,-1,1539,1499,0,0
322,-475,0,0,0,0,0,0,0,0,0,-1,1546,1499,0,0
329,-475,0,0,0,0,0,0,0,0,0,-1,1553,1499,0,0
336,-475,0,0,0,0,0,0,0,0,0,-1,1560,1499,0,0
343,-475,0,0,0,0,0,0,0,0,0,-1,1567,1499,0,0
350,-475,0,0,0,0,0,0,0,0,0,-1,1574,1499,0,0
357,-475,0,0,0,0,0,0,0,0,0,-1,1581,1499,0,0
364,-475,0,0,0,0,0,0,0,0,0,-1,1588,1499,0,0
371,-475,0,0,0,0,0,0,0,0,0,-1,1595,1499,0,0
378,-475,0,0,0,0,0,0,0,0,0,-1,1602,1499,0,0
385,-475,0,0,0,0,0,0,0,0,0,-1,1609,1499,0,0
392,-475,0,0,0,0,0,0,0,0,0,-1,1616,1499,0,0
399,-475,0,0,0,0,0,0,0,0,0,-1,1623,1499,0,0
406,-475,0,0,0,0,0,0,0,0,0,-1,1630,1499,0,0
413,-475,0,0,0,0,0,0,0,0,0,-1,1637,1499,0,0
420,-475,0,0,0,0,0,0,0,0,0,-1,1644,1499,0,0
427,-475,0,0,0,0,0,0,0,0,0,-1,1651,1499,0,0
434,-475,0,0,0,0,0,0,0,0,0,-1,1658,1499,0,0
441,-475,0,0,0,0,0,0,0,0,0,-1,1665,1499,0,0
448,-475,0,0,0,0,0,0,0,0,0,-1,1672,1499,0,0
455,-475,0,0,0,0,0,0,0,0,0,-1,1679,1499,0,0
462,-475,12.6372,0.275391,0,0,0,0,0,0,0,-1,1686,1499,12.6372,-0.27536
469,-475,15.6437,2.28296,0,0,0,0,0,0,0,-1,1693,1499,15.6437,-2.28293
476,-475,15.3302,2.71436,0,0,0,0,0,0,0,-1,1700,1499,15.3303,-2.7143
483,-475,10.7461,5.91479,0,0,0,0,0,0,0,-1,1707,1499,10.7461,-5.91476
490,-475,11.9305,4.4364,0,0,0,0,0,0,0,-1,1714,1499,11.9305,-4.43644
497,-475,15.3451,4.3479,0,0,0,0,0,0,0,-1,1721,1499,15.3451,-4.34789
504,-475,16.9646,7.71265,0,0,0,0,0,0,0,-1,1728,1499,16.9646,-7.71265
511,-475,18.941,12.7572,0,0,0,0,0,0,0,-1,1735,1499,18.941,-12.7572
518,-475,17.0021,13.8564,0,0,0,0,0,0,0,-1,1742,1499,17.0021,-13.8564
525,-475,17.7463,15.323,0,0,0,0,0,0,0,-1,1749,1499,17.7463,-15.3229
532,-475,17.3365,15.6532,0,0,0,0,0,0,0,-1,1756,1499,17.3366,-15.6532
539,-475,16.1821,15.8479,0,0,0,0,0,0,0,-1,1763,1499,16.1821,-15.8479
546,-475,16.3484,15.5913,-0.00546352,-0.0059714,0.0070811,0.00136819,-0.0128031,0.767475,0.00902611,0.0414973,1770,1499,16.3484,-15.5913
553,-475,16.4999,15.3807,-0.00416521,-0.00398292,0.00514324,0.00106999,-0.00921811,0.794258,0.00653135,0.0265598,1777,1499,16.4999,-15.3808
560,-475,16.2775,15.1025,-0.00306782,-0.00266224,0.00371893,0.000859424,-0.00658948,0.812636,0.0047057,0.0208131,1784,1499,16.2775,-15.1026
567,-475,16.3962,14.6508,-0.00212203,-0.00166341,0.00257444,0.00069192,-0.00447735,0.829817,0.00324026,0.0150563,1791,1499,16.3962,-14.6508
574,-475,16.3627,14.2716,-0.00132101,-0.000933586,0.00166607,0.00055,-0.0028046,0.843273,0.00207748,0.0149841,1798,1499,16.3626,-14.2716
581,-475,16.3529,13.9241,-0.000598932,-0.00039817,0.000919137,0.000426051,-0.00142315,0.839789,0.00111818,0.0123266,1805,1499,16.3529,-13.9241
588,-475,16.3542,13.5732,0.000259097,-2.35101e-05,0.000162889,0.00033343,-9.78437e-05,0.428119,0.000261086,0.0103897,1812,1499,16.3543,-13.5732
595,-475,16.3654,13.2103,0.000993295,-4.94693e-05,-0.000292781,0.00106988,-0.00012605,-0.255833,0.000758766,0.0114762,1819,1499,16.3653,-13.2103
602,-475,16.3571,12.838,0.00147226,-0.000305939,-0.000473562,0.00159051,-0.000424192,-0.244705,0.00122644,0.0132731,1826,1499,16.3571,-12.838
609,-475,16.3322,12.4857,0.00202922,-0.000838745,-0.000561273,0.00213515,-0.000944675,-0.186539,0.00182188,0.0123093,1833,1499,16.3321,-12.4857
616,-475,16.3042,12.1326,0.00256785,-0.00160236,-0.000542728,0.00263733,-0.00167184,-0.127319,0.00250863,0.010805,1840,1499,16.3042,-12.1326
623,-475,16.2954,11.7422,0.00309369,-0.00266107,-0.000377843,0.00311839,-0.00268577,-0.065284,0.00335413,0.0101261,1847,1499,16.2955,-11.7422
630,-475,16.318,11.3712,0.00345995,-0.0040564,6.76774e-05,0.00346056,-0.00405701,0.00900305,0.00434482,0.0131112,1854,1499,16.318,-11.3713
637,-475,16.373,10.9771,0.00375772,-0.00560379,0.000601787,0.00379624,-0.00564231,0.0639324,0.00548399,0.025273,1861,1499,16.3731,-10.9771
644,-475,16.3221,10.8981,0,0,0,0,0,0,0,-1,1868,1499,16.3222,-10.8981
651,-475,11.7965,7.57593,0,0,0,0,0,0,0,-1,1875,1499,11.7965,-7.5759
658,-475,14.6708,8.80322,0,0,0,0,0,0,0,-1,1882,1499,14.6708,-8.8032
665,-475,9.33435,5.43335,0,0,0,0,0,0,0,-1,1889,1499,9.33439,-5.43332
672,-475,9.38635,1.10474,0,0,0,0,0,0,0,-1,1896,1499,9.38629,-1.10475
679,-475,12.2594,1.31079,0,0,0,0,0,0,0,-1,1903,1499,12.2594,-1.31077
686,-475,0,0,0,0,0,0,0,0,0,-1,1910,1499,0,0
693,-475,0,0,0,0,0,0,0,0,0,-1,1917,1499,0,0
700,-475,0,0,0,0,0,0,0,0,0,-1,1924,1499,0,0
707,-475,0,0,0,0,0,0,0,0,0,-1,1931,1499,0,0
714,-475,0,0,0,0,0,0,0,0,0,-1,1938,1499,0,0
721,-475,0,0,0,0,0,0,0,0,0,-1,1945,1499,0,0
728,-475,0,0,0,0,0,0,0,0,0,-1,1952,1499,0,0
735,-475,0,0,0,0,0,0,0,0,0,-1,1959,1499,0,0
742,-475,0,0,0,0,0,0,0,0,0,-1,1966,1499,0,0
749,-475,0,0,0,0,0,0,0,0,0,-1,1973,1499,0,0
756,-475,0,0,0,0,0,0,0,0,0,-1,1980,1499,0,0
763,-475,0,0,0,0,0,0,0,0,0,-1,1987,1499,0,0
770,-475,0,0,0,0,0,0,0,0,0,-1,1994,1499,0,0
777,-475,0,0,0,0,0,0,0,0,0,-1,2001,1499,0,0
784,-475,0,0,0,0,0,0,0,0,0,-1,2008,1499,0,0
791,-475,0,0,0,0,0,0,0,0,0,-1,2015,1499,0,0
798,-475,0,0,0,0,0,0,0,0,0,-1,2022,1499,0,0
805,-475,0,0,0,0,0,0,0,0,0,-1,2029,1499,0,0
812,-475,0,0,0,0,0,0,0,0,0,-1,2036,1499,0,0
-700,-482,0,0,0,0,0,0,0,0,0,-1,524,1506,0,0
-693,-482,0,0,0,0,0,0,0,0,0,-1,531,1506,0,0
-686,-482,0,0,0,0,0,0,0,0,0,-1,538,1506,0,0
-679,-482,0,0,0,0,0,0,0,0,0,-1,545,1506,0,0
-672,-482,0,0,0,0,0,0,0,0,0,-1,552,1506,0,0
-665,-482,0,0,0,0,0,0,0,0,0,-1,559,1506,0,0
-658,-482,0,0,0,0,0,0,0,0,0,-1,566,1506,0,0
-651,-482,0,0,0,0,0,0,0,0,0,-1,573,1506,0,0
-644,-482,0,0,0,0,0,0,0,0,0,-1,580,1506,0,0
-637,-482,0,0,0,0,0,0,0,0,0,-1,587,1506,0,0
-630,-482,0,0,0,0,0,0,0,0,0,-1,594,1506,0,0
-623,-482,0,0,0,0,0,0,0,0,0,-1,601,1506,0,0
-616,-482,0,0,0,0,0,0,0,0,0,-1,608,1506,0,0
-609,-482,0,0,0,0,0,0,0,0,0,-1,615,1506,0,0
-602,-482,0,0,0,0,0,0,0,0,0,-1,622,1506,0,0
-595,-482,0,0,0,0,0,0,0,0,0,-1,629,1506,0,0
-588,-482,0,0,0,0,0,0,0,0,0,-1,636,1506,0,0
-581,-482,0,0,0,0,0,0,0,0,0,-1,643,1506,0,0
-574,-482,0,0,0,0,0,0,0,0,0,-1,650,1506,0,0
-567,-482,0,0,0,0,0,0,0,0,0,-1,657,1506,0,0
-560,-482,0,0,0,0,0,0,0,0,0,-1,664,1506,0,0
-553,-482,-9.06055,9.34314,0,0,0,0,0,0,0,-1,671,1506,-9.06056,-9.34312
-546,-482,-4.08624,8.34241,0,0,0,0,0,0,0,-1,678,1506,-4.08624,-8.3424
-539,-482,-4.29877,2.73499,0,0,0,0,0,0,0,-1,685,1506,-4.29879,-2.73494
-532,-482,-3.63611,4.23987,0,0,0,0,0,0,0,-1,692,1506,-3.63609,-4.23983
-525,-482,-3.09674,5.62305,0,0,0,0,0,0,0,-1,699,1506,-3.09676,-5.62309
-518,-482,-4.74774,5.74902,0,0,0,0,0,0,0,-1,706,1506,-4.74771,-5.74908
-511,-482,-4.27515,8.94702,0,0,0,0,0,0,0,-1,713,1506,-4.27512,-8.94703
-504,-482,-4.06726,9.40625,0.00410476,-0.00677215,-0.00382098,0.00531286,-0.00798025,-0.30623,0.00772611,0.0466385,720,1506,-4.06727,-9.40624
-497,-482,-3.77222,9.66455,0.00154291,-0.0056604,-0.00383273,0.0032007,-0.00731818,-0.408235,0.00622624,0.0316357,727,1506,-3.77225,-9.66454
-490,-482,-3.8844,9.97754,0.000147402,-0.00432407,-0.00329921,0.00189705,-0.00607372,-0.487612,0.00480791,0.02013,734,1506,-3.8844,-9.97757
-483,-482,-3.88306,10.4259,-0.000608583,-0.0033101,-0.00265328,0.00101798,-0.00493666,-0.549951,0.0036777,0.00839827,741,1506,-3.88304,-10.4259
-476,-482,-3.89539,10.8193,-0.000905297,-0.00269443,-0.00216476,0.00054245,-0.00414218,-0.589464,0.00295889,0.00920236,748,1506,-3.89539,-10.8193
-469,-482,-3.91626,11.204,-0.000764923,-0.00233878,-0.00166138,0.000286471,-0.00339018,-0.56422,0.00236141,0.0111978,755,1506,-3.91623,-11.204
-462,-482,-3.90771,11.6106,-0.000399963,-0.00223294,-0.00126238,0.000243531,-0.00287644,-0.471415,0.00200374,0.0118966,762,1506,-3.90772,-11.6106
-455,-482,-3.90375,12.0132,6.23946e-05,-0.00235033,-0.00106142,0.000462869,-0.0027508,-0.360786,0.00200604,0.0123422,769,1506,-3.90373,-12.0132
-448,-482,-3.93445,12.4221,0.000682894,-0.00252067,-0.000776651,0.00086125,-0.00269903,-0.225734,0.00214487,0.0137148,776,1506,-3.93445,-12.4222
-441,-482,-3.9599,12.8226,0.00171143,-0.00286426,-0.00047446,0.00176011,-0.00291294,-0.102242,0.00272522,0.0134972,783,1506,-3.95988,-12.8227
-434,-482,-3.96234,13.2158,0.00276815,-0.00331936,-0.000309318,0.00278383,-0.00333503,-0.0506381,0.0035375,0.0157741,790,1506,-3.96233,-13.2159
-427,-482,-3.95911,13.6426,0.00368309,-0.00363309,-0.000163177,0.00368672,-0.00363672,-0.0222889,0.00422823,0.0177657,797,1506,-3.9591,-13.6426
-420,-482,-3.86041,14.2085,0.00467217,-0.00384761,0.000287764,0.00468188,-0.00385732,0.0337248,0.00493777,0.0364904,804,1506,-3.86043,-14.2085
-413,-482,-3.62665,14.7112,0,0,0,0,0,0,0,-1,811,1506,-3.62665,-14.7112
-406,-482,-2.51373,12.7556,0,0,0,0,0,0,0,-1,818,1506,-2.51376,-12.7556
-399,-482,-1.3822,9.22595,0,0,0,0,0,0,0,-1,825,1506,-1.38221,-9.22598
-392,-482,-1.06836,9.22729,0,0,0,0,0,0,0,-1,832,1506,-1.06835,-9.2273
-385,-482,0.0647583,8.90649,0,0,0,0,0,0,0,-1,839,1506,0.0647778,-8.90644
-378,-482,0.215698,5.96948,0,0,0,0,0,0,0,-1,846,1506,0.215681,-5.9695
-371,-482,-0.10907,8.10437,0,0,0,0,0,0,0,-1,853,1506,-0.109063,-8.10433
-364,-482,-0.154968,10.5032,0,0,0,0,0,0,0,-1,860,1506,-0.154976,-10.5032
-357,-482,2.14807,4.60144,0,0,0,0,0,0,0,-1,867,1506,2.14807,-4.60144
-350,-482,-7.5813,-1.45935,0,0,0,0,0,0,0,-1,874,1506,-7.58133,1.45937
-343,-482,-7.19983,-1.26416,0,0,0,0,0,0,0,-1,881,1506,-7.19981,1.26414
-336,-482,-6.78491,-1.18127,0,0,0,0,0,0,0,-1,888,1506,-6.78488,1.18125
-329,-482,0,0,0,0,0,0,0,0,0,-1,895,1506,0,0
-322,-482,0,0,0,0,0,0,0,0,0,-1,902,1506,0,0
-315,-482,0,0,0,0,0,0,0,0,0,-1,909,1506,0,0
-308,-482,0,0,0,0,0,0,0,0,0,-1,916,1506,0,0
-301,-482,0,0,0,0,0,0,0,0,0,-1,923,1506,0,0
-294,-482,0,0,0,0,0,0,0,0,0,-1,930,1506,0,0
-287,-482,0,0,0,0,0,0,0,0,0,-1,937,1506,0,0
-280,-482,0,0,0,0,0,0,0,0,0,-1,944,1506,0,0
-273,-482,0,0,0,0,0,0,0,0,0,-1,951,1506,0,0
-266,-482,0,0,0,0,0,0,0,0,0,-1,958,1506,0,0
-259,-482,0,0,0,0,0,0,0,0,0,-1,965,1506,0,0
-252,-482,0,0,0,0,0,0,0,0,0,-1,972,1506,0,0
-245,-482,0,0,0,0,0,0,0,0,0,-1,979,1506,0,0
-238,-482,0,0,0,0,0,0,0,0,0,-1,986,1506,0,0
-231,-482,0,0,0,0,0,0,0,0,0,-1,993,1506,0,0
-224,-482,0,0,0,0,0,0,0,0,0,-1,1000,1506,0,0
-217,-482,0,0,0,0,0,0,0,0,0,-1,1007,1506,0,0
-210,-482,0,0,0,0,0,0,0,0,0,-1,1014,1506,0,0
-203,-482,0,0,0,0,0,0,0,0,0,-1,1021,1506,0,0
-196,-482,0,0,0,0,0,0,0,0,0,-1,1028,1506,0,0
-189,-482,0,0,0,0,0,0,0,0,0,-1,1035,1506,0,0
-182,-482,0,0,0,0,0,0,0,0,0,-1,1042,1506,0,0
-175,-482,0,0,0,0,0,0,0,0,0,-1,1049,1506,0,0
-168,-482,0,0,0,0,0,0,0,0,0,-1,1056,1506,0,0
-161,-482,0,0,0,0,0,0,0,0,0,-1,1063,1506,0,0
-154,-482,0,0,0,0,0,0,0,0,0,-1,1070,1506,0,0
-147,-482,0,0,0,0,0,0,0,0,0,-1,1077,1506,0,0
-140,-482,0,0,0,0,0,0,0,0,0,-1,1084,1506,0,0
-133,-482,0,0,0,0,0,0,0,0,0,-1,1091,1506,0,0
-126,-482,0,0,0,0,0,0,0,0,0,-1,1098,1506,0,0
-119,-482,0,0,0,0,0,0,0,0,0,-1,1105,1506,0,0
-112,-482,0,0,0,0,0,0,0,0,0,-1,1112,1506,0,0
-105,-482,0,0,0,0,0,0,0,0,0,-1,1119,1506,0,0
-98,-482,0,0,0,0,0,0,0,0,0,-1,1126,1506,0,0
-91,-482,0,0,0,0,0,0,0,0,0,-1,1133,1506,0,0
-84,-482,0,0,0,0,0,0,0,0,0,-1,1140,1506,0,0
-77,-482,0,0,0,0,0,0,0,0,0,-1,1147,1506,0,0
-70,-482,0,0,0,0,0,0,0,0,0,-1,1154,1506,0,0
-63,-482,0,0,0,0,0,0,0,0,0,-1,1161,1506,0,0
-56,-482,0,0,0,0,0,0,0,0,0,-1,1168,1506,0,0
-49,-482,0,0,0,0,0,0,0,0,0,-1,1175,1506,0,0
-42,-482,0,0,0,0,0,0,0,0,0,-1,1182,1506,0,0
-35,-482,0,0,0,0,0,0,0,0,0,-1,1189,1506,0,0
-28,-482,0,0,0,0,0,0,0,0,0,-1,1196,1506,0,0
-21,-482,0,0,0,0,0,0,0,0,0,-1,1203,1506,0,0
-14,-482,0,0,0,0,0,0,0,0,0,-1,1210,1506,0,0
-7,-482,0,0,0,0,0,0,0,0,0,-1,1217,1506,0,0
0,-482,0,0,0,0,0,0,0,0,0,-1,1224,1506,0,0
7,-482,0,0,0,0,0,0,0,0,0,-1,1231,1506,0,0
14,-482,0,0,0,0,0,0,0,0,0,-1,1238,1506,0,0
21,-482,0,0,0,0,0,0,0,0,0,-1,1245,1506,0,0
28,-482,0,0,0,0,0,0,0,0,0,-1,1252,1506,0,0
35,-482,0,0,0,0,0,0,0,0,0,-1,1259,1506,0,0
42,-482,0,0,0,0,0,0,0,0,0,-1,1266,1506,0,0
49,-482,0,0,0,0,0,0,0,0,0,-1,1273,1506,0,0
56,-482,0,0,0,0,0,0,0,0,0,-1,1280,1506,0,0
63,-482,0,0,0,0,0,0,0,0,0,-1,1287,1506,0,0
70,-482,0,0,0,0,0,0,0,0,0,-1,1294,1506,0,0
77,-482,0,0,0,0,0,0,0,0,0,-1,1301,1506,0,0
84,-482,0,0,0,0,0,0,0,0,0,-1,1308,1506,0,0
91,-482,0,0,0,0,0,0,0,0,0,-1,1315,1506,0,0
98,-482,0,0,0,0,0,0,0,0,0,-1,1322,1506,0,0
105,-482,0,0,0,0,0,0,0,0,0,-1,1329,1506,0,0
112,-482,0,0,0,0,0,0,0,0,0,-1,1336,1506,0,0
119,-482,0,0,0,0,0,0,0,0,0,-1,1343,1506,0,0
126,-482,0,0,0,0,0,0,0,0,0,-1,1350,1506,0,0
133,-482,0,0,0,0,0,0,0,0,0,-1,1357,1506,0,0
140,-482,0,0,0,0,0,0,0,0,0,-1,1364,1506,0,0
147,-482,0,0,0,0,0,0,0,0,0,-1,1371,1506,0,0
154,-482,0,0,0,0,0,0,0,0,0,-1,1378,1506,0,0
161,-482,0,0,0,0,0,0,0,0,0,-1,1385,1506,0,0
168,-482,0,0,0,0,0,0,0,0,0,-1,1392,1506,0,0
175,-482,0,0,0,0,0,0,0,0,0,-1,1399,1506,0,0
182,-482,0,0,0,0,0,0,0,0,0,-1,1406,1506,0,0
189,-482,0,0,0,0,0,0,0,0,0,-1,1413,1506,0,0
196,-482,0,0,0,0,0,0,0,0,0,-1,1420,1506,0,0
203,-482,0,0,0,0,0,0,0,0,0,-1,1427,1506,0,0
210,-482,0,0,0,0,0,0,0,0,0,-1,1434,1506,0,0
217,-482,0,0,0,0,0,0,0,0,0,-1,1441,1506,0,0
224,-482,0,0,0,0,0,0,0,0,0,-1,1448,1506,0,0
231,-482,0,0,0,0,0,0,0,0,0,-1,1455,1506,0,0
238,-482,0,0,0,0,0,0,0,0,0,-1,1462,1506,0,0
245,-482,0,0,0,0,0,0,0,0,0,-1,1469,1506,0,0
252,-482,0,0,0,0,0,0,0,0,0,-1,1476,1506,0,0
259,-482,0,0,0,0,0,0,0,0,0,-1,1483,1506,0,0
266,-482,0,0,0,0,0,0,0,0,0,-1,1490,1506,0,0
273,-482,0,0,0,0,0,0,0,0,0,-1,1497,1506,0,0
280,-482,0,0,0,0,0,0,0,0,0,-1,1504,1506,0,0
287,-482,0,0,0,0,0,0,0,0,0,-1,1511,1506,0,0
294,-482,0,0,0,0,0,0,0,0,0,-1,1518,1506,0,0
301,-482,0,0,0,0,0,0,0,0,0,-1,1525,1506,0,0
308,-482,0,0,0,0,0,0,0,0,0,-1,1532,1506,0,0
315,-482,0,0,0,0,0,0,0,0,0,-1,1539,1506,0,0
322,-482,0,0,0,0,0,0,0,0,0,-1,1546,1506,0,0
329,-482,0,0,0,0,0,0,0,0,0,-1,1553,1506,0,0
336,-482,0,0,0,0,0,0,0,0,0,-1,1560,1506,0,0
343,-482,0,0,0,0,0,0,0,0,0,-1,1567,1506,0,0
350,-482,0,0,0,0,0,0,0,0,0,-1,1574,1506,0,0
357,-482,0,0,0,0,0,0,0,0,0,-1,1581,1506,0,0
364,-482,0,0,0,0,0,0,0,0,0,-1,1588,1506,0,0
371,-482,0,0,0,0,0,0,0,0,0,-1,1595,1506,0,0
378,-482,0,0,0,0,0,0,0,0,0,-1,1602,1506,0,0
385,-482,0,0,0,0,0,0,0,0,0,-1,1609,1506,0,0
392,-482,0,0,0,0,0,0,0,0,0,-1,1616,1506,0,0
399,-482,0,0,0,0,0,0,0,0,0,-1,1623,1506,0,0
406,-482,0,0,0,0,0,0,0,0,0,-1,1630,1506,0,0
413,-482,0,0,0,0,0,0,0,0,0,-1,1637,1506,0,0
420,-482,0,0,0,0,0,0,0,0,0,-1,1644,1506,0,0
427,-482,0,0,0,0,0,0,0,0,0,-1,1651,1506,0,0
434,-482,0,0,0,0,0,0,0,0,0,-1,1658,1506,0,0
441,-482,0,0,0,0,0,0,0,0,0,-1,1665,1506,0,0
448,-482,4.24146,1.55383,0,0,0,0,0,0,0,-1,1672,1506,4.24149,-1.55381
455,-482,12.4122,1.09729,0,0,0,0,0,0,0,-1,1679,1506,12.4122,-1.09734
462,-482,15.0673,3.13135,0,0,0,0,0,0,0,-1,1686,1506,15.0672,-3.13134
469,-482,15.3793,3.46301,0,0,0,0,0,0,0,-1,1693,1506,15.3793,-3.46307
476,-482,8.69751,9.18738,0,0,0,0,0,0,0,-1,1700,1506,8.69753,-9.18739
483,-482,10.0902,7.17432,0,0,0,0,0,0,0,-1,1707,1506,10.0902,-7.1743
490,-482,11.6289,5.4928,0,0,0,0,0,0,0,-1,1714,1506,11.6289,-5.49283
497,-482,15.9539,7.40222,0,0,0,0,0,0,0,-1,1721,1506,15.9538,-7.40219
504,-482,20.4233,12.006,0,0,0,0,0,0,0,-1,1728,1506,20.4233,-12.006
511,-482,18.4937,12.9175,0,0,0,0,0,0,0,-1,1735,1506,18.4936,-12.9174
518,-482,16.6002,13.9679,0,0,0,0,0,0,0,-1,1742,1506,16.6003,-13.9679
525,-482,16.9209,15.1997,0,0,0,0,0,0,0,-1,1749,1506,16.9209,-15.1997
532,-482,16.2767,16.2618,0,0,0,0,0,0,0,-1,1756,1506,16.2767,-16.2618
539,-482,16.2094,16.0358,-0.00450444,-0.00648591,0.00716053,0.00173358,-0.0127239,0.716654,0.00911559,0.0344232,1763,1506,16.2093,-16.0358
546,-482,16.0853,15.7776,-0.00367148,-0.00458197,0.00547041,0.0013626,-0.00961605,0.743884,0.00690982,0.0201616,1770,1506,16.0853,-15.7776
553,-482,16.0283,15.3529,-0.00280545,-0.00302851,0.00401278,0.00109735,-0.00693131,0.771505,0.00502674,0.0189336,1777,1506,16.0283,-15.3529
560,-482,15.9844,15.0377,-0.00201947,-0.00209207,0.00291314,0.00085759,-0.00496913,0.779169,0.00363252,0.0130376,1784,1506,15.9844,-15.0377
567,-482,16.0364,14.6581,-0.00129835,-0.00135603,0.00198874,0.00066176,-0.00331613,0.778148,0.00246118,0.015389,1791,1506,16.0364,-14.658
574,-482,16.0428,14.3035,-0.00064408,-0.000778354,0.001223,0.000513621,-0.00193606,0.757978,0.00149168,0.0146646,1798,1506,16.0428,-14.3035
581,-482,16.012,13.9481,2.34822e-05,-0.000336394,0.000554929,0.000426917,-0.000739829,0.628619,0.000681648,0.00997616,1805,1506,16.012,-13.9481
588,-482,15.9856,13.5907,0.000881627,-7.59108e-05,-0.00016618,0.000909647,-0.000103931,-0.167044,0.000643877,0.0106204,1812,1506,15.9856,-13.5907
595,-482,15.9838,13.2085,0.001622,-0.000119581,-0.000613744,0.00181655,-0.000314134,-0.306974,0.00132819,0.0164202,1819,1506,15.9838,-13.2084
602,-482,16.0012,12.8417,0.00218853,-0.000408552,-0.000834295,0.00243344,-0.000653467,-0.285538,0.0018784,0.0207499,1826,1506,16.0012,-12.8417
609,-482,15.9738,12.5033,0.00283792,-0.000946495,-0.000972564,0.00307323,-0.0011818,-0.237386,0.00253626,0.0158006,1833,1506,15.9737,-12.5034
616,-482,15.9399,12.1337,0.0035268,-0.0017402,-0.00102226,0.00371825,-0.00193165,-0.185136,0.00331589,0.0110104,1840,1506,15.94,-12.1337
623,-482,15.9191,11.7651,0.00432165,-0.00287829,-0.00094746,0.00444424,-0.00300088,-0.128675,0.00432528,0.0116891,1847,1506,15.919,-11.7651
630,-482,16.0239,11.4467,0.00498553,-0.00441769,-0.000556742,0.00501838,-0.00445054,-0.0589332,0.00547016,0.0245651,1854,1506,16.024,-11.4466
637,-482,16.34,11.3094,0.00570771,-0.00615179,-0.000124844,0.00570902,-0.00615311,-0.0105254,0.0068502,0.0478371,1861,1506,16.34,-11.3095
644,-482,16.6019,11.1945,0,0,0,0,0,0,0,-1,1868,1506,16.6019,-11.1945
651,-482,4.03845,7.05273,0,0,0,0,0,0,0,-1,1875,1506,4.03843,-7.05279
658,-482,10.0278,5.87903,0,0,0,0,0,0,0,-1,1882,1506,10.0279,-5.87902
665,-482,8.15198,3.22229,0,0,0,0,0,0,0,-1,1889,1506,8.15199,-3.22232
672,-482,9.87415,1.3147,0,0,0,0,0,0,0,-1,1896,1506,9.87416,-1.31473
679,-482,0,0,0,0,0,0,0,0,0,-1,1903,1506,0,0
686,-482,0,0,0,0,0,0,0,0,0,-1,1910,1506,0,0
693,-482,0,0,0,0,0,0,0,0,0,-1,1917,1506,0,0
700,-482,0,0,0,0,0,0,0,0,0,-1,1924,1506,0,0
707,-482,0,0,0,0,0,0,0,0,0,-1,1931,1506,0,0
714,-482,0,0,0,0,0,0,0,0,0,-1,1938,1506,0,0
721,-482,0,0,0,0,0,0,0,0,0,-1,1945,1506,0,0
728,-482,0,0,0,0,0,0,0,0,0,-1,1952,1506,0,0
735,-482,0,0,0,0,0,0,0,0,0,-1,1959,1506,0,0
742,-482,0,0,0,0,0,0,0,0,0,-1,1966,1506,0,0
749,-482,0,0,0,0,0,0,0,0,0,-1,1973,1506,0,0
756,-482,0,0,0,0,0,0,0,0,0,-1,1980,1506,0,0
763,-482,0,0,0,0,0,0,0,0,0,-1,1987,1506,0,0
770,-482,0,0,0,0,0,0,0,0,0,-1,1994,1506,0,0
777,-482,0,0,0,0,0,0,0,0,0,-1,2001,1506,0,0
784,-482,0,0,0,0,0,0,0,0,0,-1,2008,1506,0,0
791,-482,0,0,0,0,0,0,0,0,0,-1,2015,1506,0,0
798,-482,0,0,0,0,0,0,0,0,0,-1,2022,1506,0,0
805,-482,0,0,0,0,0,0,0,0,0,-1,2029,1506,0,0
812,-482,0,0,0,0,0,0,0,0,0,-1,2036,1506,0,0
-700,-489,0,0,0,0,0,0,0,0,0,-1,524,1513,0,0
-693,-489,0,0,0,0,0,0,0,0,0,-1,531,1513,0,0
-686,-489,0,0,0,0,0,0,0,0,0,-1,538,1513,0,0
-679,-489,0,0,0,0,0,0,0,0,0,-1,545,1513,0,0
-672,-489,0,0,0,0,0,0,0,0,0,-1,552,1513,0,0
-665,-489,0,0,0,0,0,0,0,0,0,-1,559,1513,0,0
-658,-489,0,0,0,0,0,0,0,0,0,-1,566,1513,0,0
-651,-489,0,0,0,0,0,0,0,0,0,-1,573,1513,0,0
-644,-489,0,0,0,0,0,0,0,0,0,-1,580,1513,0,0
-637,-489,0,0,0,0,0,0,0,0,0,-1,587,1513,0,0
-630,-489,0,0,0,0,0,0,0,0,0,-1,594,1513,0,0
-623,-489,0,0,0,0,0,0,0,0,0,-1,601,1513,0,0
-616,-489,0,0,0,0,0,0,0,0,0,-1,608,1513,0,0
-609,-489,0,0,0,0,0,0,0,0,0,-1,615,1513,0,0
-602,-489,0,0,0,0,0,0,0,0,0,-1,622,1513,0,0
-595,-489,0,0,0,0,0,0,0,0,0,-1,629,1513,0,0
-588,-489,0,0,0,0,0,0,0,0,0,-1,636,1513,0,0
-581,-489,0,0,0,0,0,0,0,0,0,-1,643,1513,0,0
-574,-489,0,0,0,0,0,0,0,0,0,-1,650,1513,0,0
-567,-489,0,0,0,0,0,0,0,0,0,-1,657,1513,0,0
-560,-489,0,0,0,0,0,0,0,0,0,-1,664,1513,0,0
-553,-489,-9.42206,8.5116,0,0,0,0,0,0,0,-1,671,1513,-9.42205,-8.51158
-546,-489,-7.80951,8.18506,0,0,0,0,0,0,0,-1,678,1513,-7.8095,-8.18503
-539,-489,-3.06879,2.82349,0,0,0,0,0,0,0,-1,685,1513,-3.06881,-2.82354
-532,-489,-3.14215,2.5835,0,0,0,0,0,0,0,-1,692,1513,-3.14213,-2.58353
-525,-489,-2.604,4.06274,0,0,0,0,0,0,0,-1,699,1513,-2.60399,-4.06274
-518,-489,-5.94751,7.97607,0,0,0,0,0,0,0,-1,706,1513,-5.94753,-7.97609
-511,-489,-4.2146,9.43323,0,0,0,0,0,0,0,-1,713,1513,-4.2146,-9.43319
-504,-489,-3.84204,9.44849,0.00425816,-0.00827879,-0.00564447,0.00642496,-0.0104456,-0.366533,0.00983199,0.0474879,720,1513,-3.84207,-9.44845
-497,-489,-3.23853,9.67151,0.000873178,-0.00675327,-0.00536353,0.00364084,-0.00952093,-0.476378,0.00784766,0.0411198,727,1513,-3.23855,-9.67152
-490,-489,-3.3396,9.99976,-0.000867474,-0.00511678,-0.00454264,0.00202282,-0.00800707,-0.566655,0.0061247,0.0275552,734,1513,-3.33959,-9.99972
-483,-489,-3.50464,10.4022,-0.00169743,-0.00383337,-0.00359057,0.000980635,-0.00651143,-0.640846,0.00470204,0.0131885,741,1513,-3.50465,-10.4023
-476,-489,-3.5083,10.8212,-0.00198843,-0.00296226,-0.00288231,0.000447809,-0.00539849,-0.701722,0.00375717,0.00952138,748,1513,-3.5083,-10.8212
-469,-489,-3.51636,11.1991,-0.00176756,-0.00242722,-0.00221612,0.000143138,-0.00433792,-0.711524,0.00294082,0.0106191,755,1513,-3.51635,-11.199
-462,-489,-3.50903,11.6021,-0.00125726,-0.00211679,-0.00164453,1.27294e-05,-0.00338678,-0.657591,0.00226211,0.0145892,762,1513,-3.50902,-11.6021
-455,-489,-3.50677,11.9976,-0.000659816,-0.00200915,-0.00127503,0.000108043,-0.00277701,-0.542055,0.00188839,0.0182215,769,1513,-3.50677,-11.9976
-448,-489,-3.53839,12.4061,2.91547e-05,-0.00190765,-0.000806887,0.000321256,-0.00219975,-0.347334,0.00158448,0.0169614,776,1513,-3.53837,-12.4061
-441,-489,-3.552,12.8257,0.00115587,-0.00189288,-0.000253385,0.00117679,-0.0019138,-0.082358,0.00180118,0.0147913,783,1513,-3.55201,-12.8257
-434,-489,-3.59619,13.2277,0.00236949,-0.00191809,0.000233596,0.00238218,-0.00193077,0.0542681,0.00249463,0.0175125,790,1513,-3.59618,-13.2277
-427,-489,-3.60815,13.6511,0.00343426,-0.00178327,0.000707204,0.00352842,-0.00187743,0.132363,0.00316922,0.0192622,797,1513,-3.60815,-13.6511
-420,-489,-3.59888,14.136,0.00451608,-0.00149998,0.00146135,0.00485227,-0.00183617,0.226118,0.0039903,0.0216932,804,1513,-3.59886,-14.1359
-413,-489,-3.52722,14.6549,0,0,0,0,0,0,0,-1,811,1513,-3.52724,-14.6549
-406,-489,-2.61365,14.45,0,0,0,0,0,0,0,-1,818,1513,-2.61365,-14.45
-399,-489,-1.41241,9.10718,0,0,0,0,0,0,0,-1,825,1513,-1.41244,-9.10722
-392,-489,-1.0368,9.30469,0,0,0,0,0,0,0,-1,832,1513,-1.03682,-9.30466
-385,-489,-1.75165,10.6559,0,0,0,0,0,0,0,-1,839,1513,-1.75165,-10.6559
-378,-489,-0.401428,9.87048,0,0,0,0,0,0,0,-1,846,1513,-0.401415,-9.87047
-371,-489,-1.11633,10.6606,0,0,0,0,0,0,0,-1,853,1513,-1.11633,-10.6606
-364,-489,-0.503113,8.98486,0,0,0,0,0,0,0,-1,860,1513,-0.503097,-8.98482
-357,-489,-0.609924,10.9606,0,0,0,0,0,0,0,-1,867,1513,-0.609947,-10.9605
-350,-489,-7.94659,-0.358887,0,0,0,0,0,0,0,-1,874,1513,-7.94657,0.358912
-343,-489,-7.49323,-0.437866,0,0,0,0,0,0,0,-1,881,1513,-7.49322,0.437823
-336,-489,-7.02332,-0.53125,0,0,0,0,0,0,0,-1,888,1513,-7.0233,0.531295
-329,-489,-6.70221,-0.242432,0,0,0,0,0,0,0,-1,895,1513,-6.70221,0.2424
-322,-489,0,0,0,0,0,0,0,0,0,-1,902,1513,0,0
-315,-489,0,0,0,0,0,0,0,0,0,-1,909,1513,0,0
-308,-489,0,0,0,0,0,0,0,0,0,-1,916,1513,0,0
-301,-489,0,0,0,0,0,0,0,0,0,-1,923,1513,0,0
-294,-489,0,0,0,0,0,0,0,0,0,-1,930,1513,0,0
-287,-489,0,0,0,0,0,0,0,0,0,-1,937,1513,0,0
-280,-489,0,0,0,0,0,0,0,0,0,-1,944,1513,0,0
-273,-489,0,0,0,0,0,0,0,0,0,-1,951,1513,0,0
-266,-489,0,0,0,0,0,0,0,0,0,-1,958,1513,0,0
-259,-489,0,0,0,0,0,0,0,0,0,-1,965,1513,0,0
-252,-489,0,0,0,0,0,0,0,0,0,-1,972,1513,0,0
-245,-489,0,0,0,0,0,0,0,0,0,-1,979,1513,0,0
-238,-489,0,0,0,0,0,0,0,0,0,-1,986,1513,0,0
-231,-489,0,0,0,0,0,0,0,0,0,-1,993,1513,0,0
-224,-489,0,0,0,0,0,0,0,0,0,-1,1000,1513,0,0
-217,-489,0,0,0,0,0,0,0,0,0,-1,1007,1513,0,0
-210,-489,0,0,0,0,0,0,0,0,0,-1,1014,1513,0,0
-203,-489,0,0,0,0,0,0,0,0,0,-1,1021,1513,0,0
-196,-489,0,0,0,0,0,0,0,0,0,-1,1028,1513,0,0
-189,-489,0,0,0,0,0,0,0,0,0,-1,1035,1513,0,0
-182,-489,0,0,0,0,0,0,0,0,0,-1,1042,1513,0,0
-175,-489,0,0,0,0,0,0,0,0,0,-1,1049,1513,0,0
-168,-489,0,0,0,0,0,0,0,0,0,-1,1056,1513,0,0
-161,-489,0,0,0,0,0,0,0,0,0,-1,1063,1513,0,0
-154,-489,0,0,0,0,0,0,0,0,0,-1,1070,1513,0,0
-147,-489,0,0,0,0,0,0,0,0,0,-1,1077,1513,0,0
-140,-489,0,0,0,0,0,0,0,0,0,-1,1084,1513,0,0
-133,-489,0,0,0,0,0,0,0,0,0,-1,1091,1513,0,0
-126,-489,0,0,0,0,0,0,0,0,0,-1,1098,1513,0,0
-119,-489,0,0,0,0,0,0,0,0,0,-1,1105,1513,0,0
-112,-489,0,0,0,0,0,0,0,0,0,-1,1112,1513,0,0
-105,-489,0,0,0,0,0,0,0,0,0,-1,1119,1513,0,0
-98,-489,0,0,0,0,0,0,0,0,0,-1,1126,1513,0,0
-91,-489,0,0,0,0,0,0,0,0,0,-1,1133,1513,0,0
-84,-489,0,0,0,0,0,0,0,0,0,-1,1140,1513,0,0
-77,-489,0,0,0,0,0,0,0,0,0,-1,1147,1513,0,0
-70,-489,0,0,0,0,0,0,0,0,0,-1,1154,1513,0,0
-63,-489,0,0,0,0,0,0,0,0,0,-1,1161,1513,0,0
-56,-489,0,0,0,0,0,0,0,0,0,-1,1168,1513,0,0
-49,-489,0,0,0,0,0,0,0,0,0,-1,1175,1513,0,0
-42,-489,0,0,0,0,0,0,0,0,0,-1,1182,1513,0,0
-35,-489,0,0,0,0,0,0,0,0,0,-1,1189,1513,0,0
-28,-489,0,0,0,0,0,0,0,0,0,-1,1196,1513,0,0
-21,-489,0,0,0,0,0,0,0,0,0,-1,1203,1513,0,0
-14,-489,0,0,0,0,0,0,0,0,0,-1,1210,1513,0,0
-7,-489,0,0,0,0,0,0,0,0,0,-1,1217,1513,0,0
0,-489,0,0,0,0,0,0,0,0,0,-1,1224,1513,0,0
7,-489,0,0,0,0,0,0,0,0,0,-1,1231,1513,0,0
14,-489,0,0,0,0,0,0,0,0,0,-1,1238,1513,0,0
21,-489,0,0,0,0,0,0,0,0,0,-1,1245,1513,0,0
28,-489,0,0,0,0,0,0,0,0,0,-1,1252,1513,0,0
35,-489,0,0,0,0,0,0,0,0,0,-1,1259,1513,0,0
42,-489,0,0,0,0,0,0,0,0,0,-1,1266,1513,0,0
49,-489,0,0,0,0,0,0,0,0,0,-1,1273,1513,0,0
56,-489,0,0,0,0,0,0,0,0,0,-1,1280,1513,0,0
63,-489,0,0,0,0,0,0,0,0,0,-1,1287,1513,0,0
70,-489,0,0,0,0,0,0,0,0,0,-1,1294,1513,0,0
77,-489,0,0,0,0,0,0,0,0,0,-1,1301,1513,0,0
84,-489,0,0,0,0,0,0,0,0,0,-1,1308,1513,0,0
91,-489,0,0,0,0,0,0,0,0,0,-1,1315,1513,0,0
98,-489,0,0,0,0,0,0,0,0,0,-1,1322,1513,0,0
105,-489,0,0,0,0,0,0,0,0,0,-1,1329,1513,0,0
112,-489,0,0,0,0,0,0,0,0,0,-1,1336,1513,0,0
119,-489,0,0,0,0,0,0,0,0,0,-1,1343,1513,0,0
126,-489,0,0,0,0,0,0,0,0,0,-1,1350,1513,0,0
133,-489,0,0,0,0,0,0,0,0,0,-1,1357,1513,0,0
140,-489,0,0,0,0,0,0,0,0,0,-1,1364,1513,0,0
147,-489,0,0,0,0,0,0,0,0,0,-1,1371,1513,0,0
154,-489,0,0,0,0,0,0,0,0,0,-1,1378,1513,0,0
161,-489,0,0,0,0,0,0,0,0,0,-1,1385,1513,0,0
168,-489,0,0,0,0,0,0,0,0,0,-1,1392,1513,0,0
175,-489,0,0,0,0,0,0,0,0,0,-1,1399,1513,0,0
182,-489,0,0,0,0,0,0,0,0,0,-1,1406,1513,0,0
189,-489,0,0,0,0,0,0,0,0,0,-1,1413,1513,0,0
196,-489,0,0,0,0,0,0,0,0,0,-1,1420,1513,0,0
203,-489,0,0,0,0,0,0,0,0,0,-1,1427,1513,0,0
210,-489,0,0,0,0,0,0,0,0,0,-1,1434,1513,0,0
217,-489,0,0,0,0,0,0,0,0,0,-1,1441,1513,0,0
224,-489,0,0,0,0,0,0,0,0,0,-1,1448,1513,0,0
231,-489,0,0,0,0,0,0,0,0,0,-1,1455,1513,0,0
238,-489,0,0,0,0,0,0,0,0,0,-1,1462,1513,0,0
245,-489,0,0,0,0,0,0,0,0,0,-1,1469,1513,0,0
252,-489,0,0,0,0,0,0,0,0,0,-1,1476,1513,0,0
259,-489,0,0,0,0,0,0,0,0,0,-1,1483,1513,0,0
266,-489,0,0,0,0,0,0,0,0,0,-1,1490,1513,0,0
273,-489,0,0,0,0,0,0,0,0,0,-1,1497,1513,0,0
280,-489,0,0,0,0,0,0,0,0,0,-1,1504,1513,0,0
287,-489,0,0,0,0,0,0,0,0,0,-1,1511,1513,0,0
294,-489,0,0,0,0,0,0,0,0,0,-1,1518,1513,0,0
301,-489,0,0,0,0,0,0,0,0,0,-1,1525,1513,0,0
308,-489,0,0,0,0,0,0,0,0,0,-1,1532,1513,0,0
315,-489,0,0,0,0,0,0,0,0,0,-1,1539,1513,0,0
322,-489,0,0,0,0,0,0,0,0,0,-1,1546,1513,0,0
329,-489,0,0,0,0,0,0,0,0,0,-1,1553,1513,0,0
336,-489,0,0,0,0,0,0,0,0,0,-1,1560,1513,0,0
343,-489,0,0,0,0,0,0,0,0,0,-1,1567,1513,0,0
350,-489,0,0,0,0,0,0,0,0,0,-1,1574,1513,0,0
357,-489,0,0,0,0,0,0,0,0,0,-1,1581,1513,0,0
364,-489,0,0,0,0,0,0,0,0,0,-1,1588,1513,0,0
371,-489,0,0,0,0,0,0,0,0,0,-1,1595,1513,0,0
378,-489,0,0,0,0,0,0,0,0,0,-1,1602,1513,0,0
385,-489,0,0,0,0,0,0,0,0,0,-1,1609,1513,0,0
392,-489,0,0,0,0,0,0,0,0,0,-1,1616,1513,0,0
399,-489,0,0,0,0,0,0,0,0,0,-1,1623,1513,0,0
406,-489,0,0,0,0,0,0,0,0,0,-1,1630,1513,0,0
413,-489,0,0,0,0,0,0,0,0,0,-1,1637,1513,0,0
420,-489,0,0,0,0,0,0,0,0,0,-1,1644,1513,0,0
427,-489,0,0,0,0,0,0,0,0,0,-1,1651,1513,0,0
434,-489,0,0,0,0,0,0,0,0,0,-1,1658,1513,0,0
441,-489,11.4602,2.56787,0,0,0,0,0,0,0,-1,1665,1513,11.4602,-2.56786
448,-489,12.4425,1.72351,0,0,0,0,0,0,0,-1,1672,1513,12.4425,-1.72349
455,-489,12.5575,1.37463,0,0,0,0,0,0,0,-1,1679,1513,12.5575,-1.37469
462,-489,14.9784,3.84888,0,0,0,0,0,0,0,-1,1686,1513,14.9784,-3.84892
469,-489,15.1367,4.53101,0,0,0,0,0,0,0,-1,1693,1513,15.1368,-4.531
476,-489,15.5536,5.09338,0,0,0,0,0,0,0,-1,1700,1513,15.5536,-5.09339
483,-489,8.96912,8.37805,0,0,0,0,0,0,0,-1,1707,1513,8.96909,-8.37809
490,-489,10.5366,7.49561,0,0,0,0,0,0,0,-1,1714,1513,10.5367,-7.49558
497,-489,14.6051,11.8397,0,0,0,0,0,0,0,-1,1721,1513,14.6051,-11.8397
504,-489,16.7527,14.1735,0,0,0,0,0,0,0,-1,1728,1513,16.7527,-14.1735
511,-489,17.83,17.7993,0,0,0,0,0,0,0,-1,1735,1513,17.83,-17.7993
518,-489,16.4751,14.3682,0,0,0,0,0,0,0,-1,1742,1513,16.4751,-14.3682
525,-489,16.0594,16.4166,0,0,0,0,0,0,0,-1,1749,1513,16.0595,-16.4166
532,-489,15.9938,16.1154,-0.00346557,-0.00667655,0.00697032,0.00208177,-0.0122239,0.672206,0.00892449,0.0453164,1756,1513,15.9938,-16.1153
539,-489,15.72,16.0818,-0.00279309,-0.00462418,0.0053214,0.00169095,-0.00910822,0.700207,0.00670723,0.0205976,1763,1513,15.7199,-16.0818
546,-489,15.641,15.8535,-0.00227424,-0.00330595,0.00410831,0.00135048,-0.00693067,0.722943,0.0051302,0.0143232,1770,1513,15.641,-15.8535
553,-489,15.6487,15.4255,-0.00168635,-0.00214087,0.00300881,0.00110376,-0.00493099,0.747704,0.00371038,0.0149867,1777,1513,15.6487,-15.4256
560,-489,15.6648,15.0265,-0.00110595,-0.00150856,0.00215996,0.000862068,-0.00347658,0.738933,0.0026522,0.0121406,1784,1513,15.6647,-15.0265
567,-489,15.6801,14.6643,-0.000532811,-0.000991633,0.00141047,0.000666787,-0.00219123,0.70478,0.00172655,0.0148822,1791,1513,15.68,-14.6642
574,-489,15.6576,14.3219,2.91518e-05,-0.000550441,0.000759324,0.0005521,-0.00107339,0.603104,0.000954428,0.0156348,1798,1513,15.6575,-14.3219
581,-489,15.65,13.9698,0.000674393,-0.000193338,0.000150882,0.00069988,-0.000218825,0.16734,0.000554123,0.0110134,1805,1513,15.65,-13.9699
588,-489,15.6221,13.6123,0.00154286,-4.06324e-05,-0.000533161,0.00170564,-0.000203414,-0.296324,0.00121061,0.013302,1812,1513,15.6221,-13.6122
595,-489,15.6156,13.2469,0.00230562,-9.40877e-05,-0.000981036,0.00265563,-0.000444098,-0.342699,0.00193551,0.0196252,1819,1513,15.6156,-13.247
602,-489,15.631,12.8807,0.00298656,-0.000408007,-0.00125971,0.00340296,-0.000824405,-0.319243,0.0025876,0.0251192,1826,1513,15.631,-12.8807
609,-489,15.6125,12.5314,0.00375438,-0.000941761,-0.0014704,0.00417678,-0.00136416,-0.279736,0.00333361,0.016767,1833,1513,15.6125,-12.5314
616,-489,15.6074,12.1416,0.00462284,-0.00174126,-0.00162977,0.00501593,-0.00213434,-0.23667,0.00423848,0.012982,1840,1513,15.6074,-12.1416
623,-489,15.6117,11.7698,0.00573473,-0.0029202,-0.00170005,0.00605669,-0.00324216,-0.187164,0.00545005,0.0223282,1847,1513,15.6117,-11.7698
630,-489,15.647,11.3502,0,0,0,0,0,0,0,-1,1854,1513,15.6469,-11.3502
637,-489,16.2678,11.4788,0,0,0,0,0,0,0,-1,1861,1513,16.2678,-11.4788
644,-489,9.67578,8.45874,0,0,0,0,0,0,0,-1,1868,1513,9.67576,-8.45879
651,-489,6.13818,6.85095,0,0,0,0,0,0,0,-1,1875,1513,6.13823,-6.85097
658,-489,5.43848,7.75513,0,0,0,0,0,0,0,-1,1882,1513,5.43844,-7.75509
665,-489,5.48438,8.59912,0,0,0,0,0,0,0,-1,1889,1513,5.48434,-8.59907
672,-489,0,0,0,0,0,0,0,0,0,-1,1896,1513,0,0
679,-489,0,0,0,0,0,0,0,0,0,-1,1903,1513,0,0
686,-489,0,0,0,0,0,0,0,0,0,-1,1910,1513,0,0
693,-489,0,0,0,0,0,0,0,0,0,-1,1917,1513,0,0
700,-489,0,0,0,0,0,0,0,0,0,-1,1924,1513,0,0
707,-489,0,0,0,0,0,0,0,0,0,-1,1931,1513,0,0
714,-489,0,0,0,0,0,0,0,0,0,-1,1938,1513,0,0
721,-489,0,0,0,0,0,0,0,0,0,-1,1945,1513,0,0
728,-489,0,0,0,0,0,0,0,0,0,-1,1952,1513,0,0
735,-489,0,0,0,0,0,0,0,0,0,-1,1959,1513,0,0
742,-489,0,0,0,0,0,0,0,0,0,-1,1966,1513,0,0
749,-489,0,0,0,0,0,0,0,0,0,-1,1973,1513,0,0
756,-489,0,0,0,0,0,0,0,0,0,-1,1980,1513,0,0
763,-489,0,0,0,0,0,0,0,0,0,-1,1987,1513,0,0
770,-489,0,0,0,0,0,0,0,0,0,-1,1994,1513,0,0
777,-489,0,0,0,0,0,0,0,0,0,-1,2001,1513,0,0
784,-489,0,0,0,0,0,0,0,0,0,-1,2008,1513,0,0
791,-489,0,0,0,0,0,0,0,0,0,-1,2015,1513,0,0
798,-489,0,0,0,0,0,0,0,0,0,-1,2022,1513,0,0
805,-489,0,0,0,0,0,0,0,0,0,-1,2029,1513,0,0
812,-489,0,0,0,0,0,0,0,0,0,-1,2036,1513,0,0
-700,-496,0,0,0,0,0,0,0,0,0,-1,524,1520,0,0
-693,-496,0,0,0,0,0,0,0,0,0,-1,531,1520,0,0
-686,-496,0,0,0,0,0,0,0,0,0,-1,538,1520,0,0
-679,-496,0,0,0,0,0,0,0,0,0,-1,545,1520,0,0
-672,-496,0,0,0,0,0,0,0,0,0,-1,552,1520,0,0
-665,-496,0,0,0,0,0,0,0,0,0,-1,559,1520,0,0
-658,-496,0,0,0,0,0,0,0,0,0,-1,566,1520,0,0
-651,-496,0,0,0,0,0,0,0,0,0,-1,573,1520,0,0
-644,-496,0,0,0,0,0,0,0,0,0,-1,580,1520,0,0
-637,-496,0,0,0,0,0,0,0,0,0,-1,587,1520,0,0
-630,-496,0,0,0,0,0,0,0,0,0,-1,594,1520,0,0
-623,-496,0,0,0,0,0,0,0,0,0,-1,601,1520,0,0
-616,-496,0,0,0,0,0,0,0,0,0,-1,608,1520,0,0
-609,-496,0,0,0,0,0,0,0,0,0,-1,615,1520,0,0
-602,-496,0,0,0,0,0,0,0,0,0,-1,622,1520,0,0
-595,-496,0,0,0,0,0,0,0,0,0,-1,629,1520,0,0
-588,-496,0,0,0,0,0,0,0,0,0,-1,636,1520,0,0
-581,-496,0,0,0,0,0,0,0,0,0,-1,643,1520,0,0
-574,-496,0,0,0,0,0,0,0,0,0,-1,650,1520,0,0
-567,-496,0,0,0,0,0,0,0,0,0,-1,657,1520,0,0
-560,-496,0,0,0,0,0,0,0,0,0,-1,664,1520,0,0
-553,-496,0,0,0,0,0,0,0,0,0,-1,671,1520,0,0
-546,-496,-8.09711,7.94836,0,0,0,0,0,0,0,-1,678,1520,-8.09712,-7.94842
-539,-496,-3.20129,1.16052,0,0,0,0,0,0,0,-1,685,1520,-3.20131,-1.16054
-532,-496,-2.98279,2.62146,0,0,0,0,0,0,0,-1,692,1520,-2.98278,-2.62151
-525,-496,-2.75201,4.08032,0,0,0,0,0,0,0,-1,699,1520,-2.75201,-4.08031
-518,-496,-2.6333,5.36072,0,0,0,0,0,0,0,-1,706,1520,-2.63328,-5.36077
-511,-496,-5.47473,8.00757,0,0,0,0,0,0,0,-1,713,1520,-5.47471,-8.00762
-504,-496,-3.52753,9.20483,0,0,0,0,0,0,0,-1,720,1520,-3.5275,-9.20479
-497,-496,-2.67395,9.9967,-0.000605221,-0.00725993,-0.00693444,0.00375883,-0.011624,-0.561707,0.00926015,0.0489122,727,1520,-2.67395,-9.99671
-490,-496,-2.82361,10.2311,-0.00259014,-0.00540694,-0.00572436,0.00189654,-0.00989362,-0.664776,0.00731039,0.039182,734,1520,-2.82363,-10.2311
-483,-496,-3.03729,10.4982,-0.00333335,-0.00390186,-0.00441707,0.000808598,-0.00804382,-0.753266,0.00565139,0.0238775,741,1520,-3.03726,-10.4981
-476,-496,-3.13812,10.829,-0.00338285,-0.00266396,-0.00337041,0.000366113,-0.00641293,-0.838521,0.0044024,0.0122108,748,1520,-3.13813,-10.829
-469,-496,-3.13434,11.2367,-0.00288929,-0.00189074,-0.00248611,0.000145733,-0.00492576,-0.884493,0.00333348,0.010326,755,1520,-3.13436,-11.2367
-462,-496,-3.12225,11.6194,-0.00208451,-0.00135289,-0.00172037,4.01317e-05,-0.00347754,-0.890155,0.00233185,0.0141029,762,1520,-3.12227,-11.6194
-455,-496,-3.1192,12.0156,-0.0012196,-0.00103694,-0.00118169,5.69446e-05,-0.00231348,-0.823966,0.00156165,0.0185302,769,1520,-3.11922,-12.0156
-448,-496,-3.13049,12.4335,-0.000344719,-0.000741969,-0.000574149,6.41916e-05,-0.00115088,-0.618868,0.00078952,0.0183046,776,1520,-3.1305,-12.4335
-441,-496,-3.14935,12.8301,0.000961759,-0.00050254,0.000137549,0.000974568,-0.000515349,0.0928529,0.000873717,0.0146914,783,1520,-3.14936,-12.8301
-434,-496,-3.17249,13.2236,0.00238547,-0.000290761,0.000817629,0.0026155,-0.000520788,0.274245,0.0019407,0.0139954,790,1520,-3.17251,-13.2237
-427,-496,-3.18292,13.6361,0.0036483,4.40011e-05,0.00145934,0.00416508,-0.000472777,0.340338,0.00294698,0.0177953,797,1520,-3.18293,-13.6362
-420,-496,-3.17865,14.0129,0.00486627,0.000525224,0.00231197,0.00586692,-0.00047543,0.408471,0.004079,0.0181791,804,1520,-3.17864,-14.0129
-413,-496,-3.11975,14.4247,0.00638922,0.00129486,0.00355697,0.00821699,-0.000532907,0.47467,0.00566399,0.02329,811,1520,-3.11974,-14.4247
-406,-496,-3.01263,14.9889,0,0,0,0,0,0,0,-1,818,1520,-3.01265,-14.9889
-399,-496,-2.72931,15.6332,0,0,0,0,0,0,0,-1,825,1520,-2.72932,-15.6332
-392,-496,-1.49786,12.387,0,0,0,0,0,0,0,-1,832,1520,-1.49788,-12.387
-385,-496,-1.72437,11.4985,0,0,0,0,0,0,0,-1,839,1520,-1.72436,-11.4985
-378,-496,-1.45532,14.0719,0,0,0,0,0,0,0,-1,846,1520,-1.45533,-14.0719
-371,-496,0.0877075,12.5299,0,0,0,0,0,0,0,-1,853,1520,0.0876896,-12.5299
-364,-496,0.0881348,10.6422,0,0,0,0,0,0,0,-1,860,1520,0.0881368,-10.6423
-357,-496,0.323792,7.56812,0,0,0,0,0,0,0,-1,867,1520,0.323782,-7.56806
-350,-496,2.1535,7.18945,0,0,0,0,0,0,0,-1,874,1520,2.15348,-7.1894
-343,-496,-7.56244,0.335327,0,0,0,0,0,0,0,-1,881,1520,-7.56242,-0.335322
-336,-496,-3.99249,6.02222,0,0,0,0,0,0,0,-1,888,1520,-3.99246,-6.0222
-329,-496,-6.93689,-0.100342,0,0,0,0,0,0,0,-1,895,1520,-6.93686,0.1003
-322,-496,-6.17505,0.494385,0,0,0,0,0,0,0,-1,902,1520,-6.17507,-0.49437
-315,-496,-5.39636,3.87366,0,0,0,0,0,0,0,-1,909,1520,-5.39636,-3.87363
-308,-496,0,0,0,0,0,0,0,0,0,-1,916,1520,0,0
-301,-496,0,0,0,0,0,0,0,0,0,-1,923,1520,0,0
-294,-496,0,0,0,0,0,0,0,0,0,-1,930,1520,0,0
-287,-496,0,0,0,0,0,0,0,0,0,-1,937,1520,0,0
-280,-496,0,0,0,0,0,0,0,0,0,-1,944,1520,0,0
-273,-496,0,0,0,0,0,0,0,0,0,-1,951,1520,0,0
-266,-496,0,0,0,0,0,0,0,0,0,-1,958,1520,0,0
-259,-496,0,0,0,0,0,0,0,0,0,-1,965,1520,0,0
-252,-496,0,0,0,0,0,0,0,0,0,-1,972,1520,0,0
-245,-496,0,0,0,0,0,0,0,0,0,-1,979,1520,0,0
-238,-496,0,0,0,0,0,0,0,0,0,-1,986,1520,0,0
-231,-496,0,0,0,0,0,0,0,0,0,-1,993,1520,0,0
-224,-496,0,0,0,0,0,0,0,0,0,-1,1000,1520,0,0
-217,-496,0,0,0,0,0,0,0,0,0,-1,1007,1520,0,0
-210,-496,0,0,0,0,0,0,0,0,0,-1,1014,1520,0,0
-203,-496,0,0,0,0,0,0,0,0,0,-1,1021,1520,0,0
-196,-496,0,0,0,0,0,0,0,0,0,-1,1028,1520,0,0
-189,-496,0,0,0,0,0,0,0,0,0,-1,1035,1520,0,0
-182,-496,0,0,0,0,0,0,0,0,0,-1,1042,1520,0,0
-175,-496,0,0,0,0,0,0,0,0,0,-1,1049,1520,0,0
-168,-496,0,0,0,0,0,0,0,0,0,-1,1056,1520,0,0
-161,-496,0,0,0,0,0,0,0,0,0,-1,1063,1520,0,0
-154,-496,0,0,0,0,0,0,0,0,0,-1,1070,1520,0,0
-147,-496,0,0,0,0,0,0,0,0,0,-1,1077,1520,0,0
-140,-496,0,0,0,0,0,0,0,0,0,-1,1084,1520,0,0
-133,-496,0,0,0,0,0,0,0,0,0,-1,1091,1520,0,0
-126,-496,0,0,0,0,0,0,0,0,0,-1,1098,1520,0,0
-119,-496,0,0,0,0,0,0,0,0,0,-1,1105,1520,0,0
-112,-496,0,0,0,0,0,0,0,0,0,-1,1112,1520,0,0
-105,-496,0,0,0,0,0,0,0,0,0,-1,1119,1520,0,0
-98,-496,0,0,0,0,0,0,0,0,0,-1,1126,1520,0,0
-91,-496,0,0,0,0,0,0,0,0,0,-1,1133,1520,0,0
-84,-496,0,0,0,0,0,0,0,0,0,-1,1140,1520,0,0
-77,-496,0,0,0,0,0,0,0,0,0,-1,1147,1520,0,0
-70,-496,0,0,0,0,0,0,0,0,0,-1,1154,1520,0,0
-63,-496,0,0,0,0,0,0,0,0,0,-1,1161,1520,0,0
-56,-496,0,0,0,0,0,0,0,0,0,-1,1168,1520,0,0
-49,-496,0,0,0,0,0,0,0,0,0,-1,1175,1520,0,0
-42,-496,0,0,0,0,0,0,0,0,0,-1,1182,1520,0,0
-35,-496,0,0,0,0,0,0,0,0,0,-1,1189,1520,0,0
-28,-496,0,0,0,0,0,0,0,0,0,-1,1196,1520,0,0
-21,-496,0,0,0,0,0,0,0,0,0,-1,1203,1520,0,0
-14,-496,0,0,0,0,0,0,0,0,0,-1,1210,1520,0,0
-7,-496,0,0,0,0,0,0,0,0,0,-1,1217,1520,0,0
0,-496,0,0,0,0,0,0,0,0,0,-1,1224,1520,0,0
7,-496,0,0,0,0,0,0,0,0,0,-1,1231,1520,0,0
14,-496,0,0,0,0,0,0,0,0,0,-1,1238,1520,0,0
21,-496,0,0,0,0,0,0,0,0,0,-1,1245,1520,0,0
28,-496,0,0,0,0,0,0,0,0,0,-1,1252,1520,0,0
35,-496,0,0,0,0,0,0,0,0,0,-1,1259,1520,0,0
42,-496,0,0,0,0,0,0,0,0,0,-1,1266,1520,0,0
49,-496,0,0,0,0,0,0,0,0,0,-1,1273,1520,0,0
56,-496,0,0,0,0,0,0,0,0,0,-1,1280,1520,0,0
63,-496,0,0,0,0,0,0,0,0,0,-1,1287,1520,0,0
70,-496,0,0,0,0,0,0,0,0,0,-1,1294,1520,0,0
77,-496,0,0,0,0,0,0,0,0,0,-1,1301,1520,0,0
84,-496,0,0,0,0,0,0,0,0,0,-1,1308,1520,0,0
91,-496,0,0,0,0,0,0,0,0,0,-1,1315,1520,0,0
98,-496,0,0,0,0,0,0,0,0,0,-1,1322,1520,0,0
105,-496,0,0,0,0,0,0,0,0,0,-1,1329,1520,0,0
112,-496,0,0,0,0,0,0,0,0,0,-1,1336,1520,0,0
119,-496,0,0,0,0,0,0,0,0,0,-1,1343,1520,0,0
126,-496,0,0,0,0,0,0,0,0,0,-1,1350,1520,0,0
133,-496,0,0,0,0,0,0,0,0,0,-1,1357,1520,0,0
140,-496,0,0,0,0,0,0,0,0,0,-1,1364,1520,0,0
147,-496,0,0,0,0,0,0,0,0,0,-1,1371,1520,0,0
154,-496,0,0,0,0,0,0,0,0,0,-1,1378,1520,0,0
161,-496,0,0,0,0,0,0,0,0,0,-1,1385,1520,0,0
168,-496,0,0,0,0,0,0,0,0,0,-1,1392,1520,0,0
175,-496,0,0,0,0,0,0,0,0,0,-1,1399,1520,0,0
182,-496,0,0,0,0,0,0,0,0,0,-1,1406,1520,0,0
189,-496,0,0,0,0,0,0,0,0,0,-1,1413,1520,0,0
196,-496,0,0,0,0,0,0,0,0,0,-1,1420,1520,0,0
203,-496,0,0,0,0,0,0,0,0,0,-1,1427,1520,0,0
210,-496,0,0,0,0,0,0,0,0,0,-1,1434,1520,0,0
217,-496,0,0,0,0,0,0,0,0,0,-1,1441,1520,0,0
224,-496,0,0,0,0,0,0,0,0,0,-1,1448,1520,0,0
231,-496,0,0,0,0,0,0,0,0,0,-1,1455,1520,0,0
238,-496,0,0,0,0,0,0,0,0,0,-1,1462,1520,0,0
245,-496,0,0,0,0,0,0,0,0,0,-1,1469,1520,0,0
252,-496,0,0,0,0,0,0,0,0,0,-1,1476,1520,0,0
259,-496,0,0,0,0,0,0,0,0,0,-1,1483,1520,0,0
266,-496,0,0,0,0,0,0,0,0,0,-1,1490,1520,0,0
273,-496,0,0,0,0,0,0,0,0,0,-1,1497,1520,0,0
280,-496,0,0,0,0,0,0,0,0,0,-1,1504,1520,0,0
287,-496,0,0,0,0,0,0,0,0,0,-1,1511,1520,0,0
294,-496,0,0,0,0,0,0,0,0,0,-1,1518,1520,0,0
301,-496,0,0,0,0,0,0,0,0,0,-1,1525,1520,0,0
308,-496,0,0,0,0,0,0,0,0,0,-1,1532,1520,0,0
315,-496,0,0,0,0,0,0,0,0,0,-1,1539,1520,0,0
322,-496,0,0,0,0,0,0,0,0,0,-1,1546,1520,0,0
329,-496,0,0,0,0,0,0,0,0,0,-1,1553,1520,0,0
336,-496,0,0,0,0,0,0,0,0,0,-1,1560,1520,0,0
343,-496,0,0,0,0,0,0,0,0,0,-1,1567,1520,0,0
350,-496,0,0,0,0,0,0,0,0,0,-1,1574,1520,0,0
357,-496,0,0,0,0,0,0,0,0,0,-1,1581,1520,0,0
364,-496,0,0,0,0,0,0,0,0,0,-1,1588,1520,0,0
371,-496,0,0,0,0,0,0,0,0,0,-1,1595,1520,0,0
378,-496,0,0,0,0,0,0,0,0,0,-1,1602,1520,0,0
385,-496,0,0,0,0,0,0,0,0,0,-1,1609,1520,0,0
392,-496,0,0,0,0,0,0,0,0,0,-1,1616,1520,0,0
399,-496,0,0,0,0,0,0,0,0,0,-1,1623,1520,0,0
406,-496,0,0,0,0,0,0,0,0,0,-1,1630,1520,0,0
413,-496,0,0,0,0,0,0,0,0,0,-1,1637,1520,0,0
420,-496,0,0,0,0,0,0,0,0,0,-1,1644,1520,0,0
427,-496,0,0,0,0,0,0,0,0,0,-1,1651,1520,0,0
434,-496,11.0457,3.37732,0,0,0,0,0,0,0,-1,1658,1520,11.0456,-3.37736
441,-496,11.788,2.75488,0,0,0,0,0,0,0,-1,1665,1520,11.7879,-2.75485
448,-496,12.2146,2.18494,0,0,0,0,0,0,0,-1,1672,1520,12.2146,-2.18489
455,-496,12.3489,1.65173,0,0,0,0,0,0,0,-1,1679,1520,12.3489,-1.65178
462,-496,12.1912,1.32361,0,0,0,0,0,0,0,-1,1686,1520,12.1911,-1.32357
469,-496,14.8138,5.77954,0,0,0,0,0,0,0,-1,1693,1520,14.8138,-5.77958
476,-496,15.2449,6.27942,0,0,0,0,0,0,0,-1,1700,1520,15.2449,-6.27936
483,-496,9.19812,6.88367,0,0,0,0,0,0,0,-1,1707,1520,9.19812,-6.88361
490,-496,10.2123,7.97144,0,0,0,0,0,0,0,-1,1714,1520,10.2122,-7.97145
497,-496,13.9297,12.2981,0,0,0,0,0,0,0,-1,1721,1520,13.9297,-12.2982
504,-496,16.3271,16.6501,0,0,0,0,0,0,0,-1,1728,1520,16.3272,-16.6502
511,-496,16.7263,17.4911,0,0,0,0,0,0,0,-1,1735,1520,16.7263,-17.4911
518,-496,16.0439,16.2972,0,0,0,0,0,0,0,-1,1742,1520,16.044,-16.2972
525,-496,14.9502,16.7458,0,0,0,0,0,0,0,-1,1749,1520,14.9502,-16.7459
532,-496,15.2772,16.4534,-0.00196133,-0.00486455,0.00509131,0.00188126,-0.00870714,0.646525,0.00652291,0.040614,1756,1520,15.2773,-16.4533
539,-496,15.3154,16.1624,-0.00152704,-0.00323031,0.00388211,0.00159575,-0.00635311,0.677421,0.00485553,0.0173869,1763,1520,15.3154,-16.1624
546,-496,15.2526,15.7893,-0.00118854,-0.00228911,0.00298854,0.00129996,-0.0047776,0.694352,0.0036954,0.0109479,1770,1520,15.2526,-15.7893
553,-496,15.2953,15.3903,-0.000774982,-0.00138077,0.00212598,0.00106957,-0.00322532,0.714638,0.00258168,0.0144951,1777,1520,15.2953,-15.3903
560,-496,15.3148,15.0463,-0.000318866,-0.000958569,0.00144816,0.000844342,-0.00212178,0.676709,0.00176464,0.0143314,1784,1520,15.3149,-15.0463
567,-496,15.309,14.6763,0.000166971,-0.000609862,0.000827365,0.000692557,-0.00113545,0.565938,0.00106567,0.0117277,1791,1520,15.309,-14.6763
574,-496,15.2919,14.316,0.000678838,-0.000270256,0.000256585,0.000743763,-0.000335182,0.247835,0.000637644,0.0124206,1798,1520,15.2918,-14.3161
581,-496,15.2765,13.979,0.00133008,2.99211e-05,-0.000314332,0.00140208,-4.20855e-05,-0.225193,0.000949061,0.01351,1805,1520,15.2765,-13.979
588,-496,15.2637,13.6135,0.00222396,9.10935e-05,-0.000963369,0.00259466,-0.000279609,-0.367333,0.00183011,0.0158845,1812,1520,15.2637,-13.6135
595,-496,15.2581,13.2516,0.00302829,5.05026e-05,-0.00142448,0.00359997,-0.000521171,-0.381645,0.00259123,0.0172733,1819,1520,15.2581,-13.2515
602,-496,15.2588,12.8971,0.00386127,-0.000255922,-0.00178866,0.00452978,-0.000924432,-0.357674,0.00337053,0.0183457,1826,1520,15.2587,-12.8971
609,-496,15.2667,12.521,0.00478422,-0.000741732,-0.00212059,0.00550419,-0.0014617,-0.327304,0.0042415,0.0150835,1833,1520,15.2667,-12.521
616,-496,15.2952,12.0847,0.00588436,-0.00150235,-0.00244267,0.00661904,-0.00223704,-0.292163,0.0053176,0.0228352,1840,1520,15.2952,-12.0848
623,-496,15.2554,11.7465,0.0073965,-0.00268274,-0.00273174,0.00808926,-0.0033755,-0.248361,0.00680312,0.0359205,1847,1520,15.2553,-11.7465
630,-496,15.3685,11.394,0,0,0,0,0,0,0,-1,1854,1520,15.3685,-11.3941
637,-496,13.8105,9.92615,0,0,0,0,0,0,0,-1,1861,1520,13.8105,-9.92612
644,-496,12.4537,10.087,0,0,0,0,0,0,0,-1,1868,1520,12.4537,-10.0871
651,-496,8.18506,5.47803,0,0,0,0,0,0,0,-1,1875,1520,8.18505,-5.47806
658,-496,7.79993,4.02563,0,0,0,0,0,0,0,-1,1882,1520,7.79997,-4.02568
665,-496,5.47583,7.90625,0,0,0,0,0,0,0,-1,1889,1520,5.47581,-7.90628
672,-496,0,0,0,0,0,0,0,0,0,-1,1896,1520,0,0
679,-496,0,0,0,0,0,0,0,0,0,-1,1903,1520,0,0
686,-496,0,0,0,0,0,0,0,0,0,-1,1910,1520,0,0
693,-496,0,0,0,0,0,0,0,0,0,-1,1917,1520,0,0
700,-496,0,0,0,0,0,0,0,0,0,-1,1924,1520,0,0
707,-496,0,0,0,0,0,0,0,0,0,-1,1931,1520,0,0
714,-496,0,0,0,0,0,0,0,0,0,-1,1938,1520,0,0
721,-496,0,0,0,0,0,0,0,0,0,-1,1945,1520,0,0
728,-496,0,0,0,0,0,0,0,0,0,-1,1952,1520,0,0
735,-496,0,0,0,0,0,0,0,0,0,-1,1959,1520,0,0
742,-496,0,0,0,0,0,0,0,0,0,-1,1966,1520,0,0
749,-496,0,0,0,0,0,0,0,0,0,-1,1973,1520,0,0
756,-496,0,0,0,0,0,0,0,0,0,-1,1980,1520,0,0
763,-496,0,0,0,0,0,0,0,0,0,-1,1987,1520,0,0
770,-496,0,0,0,0,0,0,0,0,0,-1,1994,1520,0,0
777,-496,0,0,0,0,0,0,0,0,0,-1,2001,1520,0,0
784,-496,0,0,0,0,0,0,0,0,0,-1,2008,1520,0,0
791,-496,0,0,0,0,0,0,0,0,0,-1,2015,1520,0,0
798,-496,0,0,0,0,0,0,0,0,0,-1,2022,1520,0,0
805,-496,0,0,0,0,0,0,0,0,0,-1,2029,1520,0,0
812,-496,0,0,0,0,0,0,0,0,0,-1,2036,1520,0,0
-700,-503,0,0,0,0,0,0,0,0,0,-1,524,1527,0,0
-693,-503,0,0,0,0,0,0,0,0,0,-1,531,1527,0,0
-686,-503,0,0,0,0,0,0,0,0,0,-1,538,1527,0,0
-679,-503,0,0,0,0,0,0,0,0,0,-1,545,1527,0,0
-672,-503,0,0,0,0,0,0,0,0,0,-1,552,1527,0,0
-665,-503,0,0,0,0,0,0,0,0,0,-1,559,1527,0,0
-658,-503,0,0,0,0,0,0,0,0,0,-1,566,1527,0,0
-651,-503,0,0,0,0,0,0,0,0,0,-1,573,1527,0,0
-644,-503,0,0,0,0,0,0,0,0,0,-1,580,1527,0,0
-637,-503,0,0,0,0,0,0,0,0,0,-1,587,1527,0,0
-630,-503,0,0,0,0,0,0,0,0,0,-1,594,1527,0,0
-623,-503,0,0,0,0,0,0,0,0,0,-1,601,1527,0,0
-616,-503,0,0,0,0,0,0,0,0,0,-1,608,1527,0,0
-609,-503,0,0,0,0,0,0,0,0,0,-1,615,1527,0,0
-602,-503,0,0,0,0,0,0,0,0,0,-1,622,1527,0,0
-595,-503,0,0,0,0,0,0,0,0,0,-1,629,1527,0,0
-588,-503,0,0,0,0,0,0,0,0,0,-1,636,1527,0,0
-581,-503,0,0,0,0,0,0,0,0,0,-1,643,1527,0,0
-574,-503,0,0,0,0,0,0,0,0,0,-1,650,1527,0,0
-567,-503,0,0,0,0,0,0,0,0,0,-1,657,1527,0,0
-560,-503,0,0,0,0,0,0,0,0,0,-1,664,1527,0,0
-553,-503,0,0,0,0,0,0,0,0,0,-1,671,1527,0,0
-546,-503,0,0,0,0,0,0,0,0,0,-1,678,1527,0,0
-539,-503,3.50177,4.26428,0,0,0,0,0,0,0,-1,685,1527,3.50177,-4.26424
-532,-503,-3.13196,1.05298,0,0,0,0,0,0,0,-1,692,1527,-3.13194,-1.05299
-525,-503,-2.94293,2.59314,0,0,0,0,0,0,0,-1,699,1527,-2.94296,-2.59314
-518,-503,-2.7395,4.05872,0,0,0,0,0,0,0,-1,706,1527,-2.73948,-4.05871
-511,-503,-2.46967,5.46399,0,0,0,0,0,0,0,-1,713,1527,-2.46967,-5.46394
-504,-503,-2.26831,7.44678,0,0,0,0,0,0,0,-1,720,1527,-2.26831,-7.44684
-497,-503,-2.19824,10.2208,0,0,0,0,0,0,0,-1,727,1527,-2.19822,-10.2209
-490,-503,-2.20471,10.4508,-0.00495873,-0.00524782,-0.00659475,0.00149306,-0.0116996,-0.774441,0.00834208,0.0485387,734,1527,-2.20471,-10.4508
-483,-503,-2.4519,10.5923,-0.00540594,-0.00364551,-0.0049626,0.000514334,-0.00956578,-0.87317,0.00655536,0.0423959,741,1527,-2.4519,-10.5923
-476,-503,-2.66028,10.9197,-0.00508729,-0.00221484,-0.00362563,0.000248673,-0.0075508,-0.973981,0.00511877,0.022615,748,1527,-2.66029,-10.9197
-469,-503,-2.742,11.274,-0.0042908,-0.00133637,-0.00255656,0.000139069,-0.00576624,-1.04737,0.00389134,0.0107036,755,1527,-2.74198,-11.2741
-462,-503,-2.72711,11.6886,-0.00322975,-0.000726455,-0.00165856,9.97463e-05,-0.00405595,-1.10864,0.00273782,0.0109933,762,1527,-2.7271,-11.6887
-455,-503,-2.73401,12.0883,-0.0021569,-0.000350909,-0.00102176,0.000109689,-0.0026175,-1.14729,0.00178269,0.0160213,769,1527,-2.73402,-12.0883
-448,-503,-2.73071,12.4519,-0.00116392,-2.53185e-05,-0.000374298,8.67042e-05,-0.00127595,-1.27999,0.000880956,0.0155582,776,1527,-2.73071,-12.4519
-441,-503,-2.73798,12.8455,0.000225507,0.000270555,0.000366741,0.000615463,-0.0001194,0.816068,0.000455357,0.0131642,783,1527,-2.73795,-12.8455
-434,-503,-2.76062,13.2264,0.00174569,0.000549617,0.00109892,0.00239877,-0.000103458,0.536208,0.00163476,0.0114532,790,1527,-2.76064,-13.2265
-427,-503,-2.78668,13.5874,0.00309341,0.000917587,0.00175346,0.00406903,-5.80393e-05,0.507743,0.00273224,0.0177243,797,1527,-2.78665,-13.5874
-420,-503,-2.77277,13.9963,0.00433507,0.0014532,0.00253352,0.00580876,-2.04886e-05,0.526836,0.00387935,0.018047,804,1527,-2.77275,-13.9963
-413,-503,-2.7854,14.3989,0.00574517,0.00227722,0.0036233,0.00802803,-5.64102e-06,0.562222,0.0053539,0.0147709,811,1527,-2.78543,-14.3989
-406,-503,-2.77533,14.7726,0.00724165,0.00324672,0.00486538,0.0105036,-1.5262e-05,0.590616,0.00700752,0.0205661,818,1527,-2.77532,-14.7726
-399,-503,-2.65607,15.3237,0.0088007,0.00536044,0.00621165,0.013526,0.000635153,0.650323,0.00881324,0.0332387,825,1527,-2.65609,-15.3238
-392,-503,-2.42163,16.0142,0,0,0,0,0,0,0,-1,832,1527,-2.42166,-16.0142
-385,-503,-2.00403,14.1218,0,0,0,0,0,0,0,-1,839,1527,-2.00403,-14.1218
-378,-503,-2.07043,13.8632,0,0,0,0,0,0,0,-1,846,1527,-2.07043,-13.8631
-371,-503,-1.67285,13.8081,0,0,0,0,0,0,0,-1,853,1527,-1.67285,-13.8081
-364,-503,0.181396,12.3768,0,0,0,0,0,0,0,-1,860,1527,0.18138,-12.3768
-357,-503,0.558533,9.25452,0,0,0,0,0,0,0,-1,867,1527,0.558542,-9.25446
-350,-503,0.219971,6.84827,0,0,0,0,0,0,0,-1,874,1527,0.21996,-6.84831
-343,-503,-3.5802,4.43274,0,0,0,0,0,0,0,-1,881,1527,-3.58018,-4.43276
-336,-503,-3.2384,6.40637,0,0,0,0,0,0,0,-1,888,1527,-3.2384,-6.40643
-329,-503,-1.70691,11.886,0,0,0,0,0,0,0,-1,895,1527,-1.70689,-11.886
-322,-503,-3.31317,8.81519,0,0,0,0,0,0,0,-1,902,1527,-3.31315,-8.81524
-315,-503,-3.90265,7.73853,0,0,0,0,0,0,0,-1,909,1527,-3.90264,-7.73854
-308,-503,-1.70264,7.35413,0,0,0,0,0,0,0,-1,916,1527,-1.70262,-7.35416
-301,-503,0,0,0,0,0,0,0,0,0,-1,923,1527,0,0
-294,-503,0,0,0,0,0,0,0,0,0,-1,930,1527,0,0
-287,-503,0,0,0,0,0,0,0,0,0,-1,937,1527,0,0
-280,-503,0,0,0,0,0,0,0,0,0,-1,944,1527,0,0
-273,-503,0,0,0,0,0,0,0,0,0,-1,951,1527,0,0
-266,-503,0,0,0,0,0,0,0,0,0,-1,958,1527,0,0
-259,-503,0,0,0,0,0,0,0,0,0,-1,965,1527,0,0
-252,-503,0,0,0,0,0,0,0,0,0,-1,972,1527,0,0
-245,-503,0,0,0,0,0,0,0,0,0,-1,979,1527,0,0
-238,-503,0,0,0,0,0,0,0,0,0,-1,986,1527,0,0
-231,-503,0,0,0,0,0,0,0,0,0,-1,993,1527,0,0
-224,-503,0,0,0,0,0,0,0,0,0,-1,1000,1527,0,0
-217,-503,0,0,0,0,0,0,0,0,0,-1,1007,1527,0,0
-210,-503,0,0,0,0,0,0,0,0,0,-1,1014,1527,0,0
-203,-503,0,0,0,0,0,0,0,0,0,-1,1021,1527,0,0
-196,-503,0,0,0,0,0,0,0,0,0,-1,1028,1527,0,0
-189,-503,0,0,0,0,0,0,0,0,0,-1,1035,1527,0,0
-182,-503,0,0,0,0,0,0,0,0,0,-1,1042,1527,0,0
-175,-503,0,0,0,0,0,0,0,0,0,-1,1049,1527,0,0
-168,-503,0,0,0,0,0,0,0,0,0,-1,1056,1527,0,0
-161,-503,0,0,0,0,0,0,0,0,0,-1,1063,1527,0,0
-154,-503,0,0,0,0,0,0,0,0,0,-1,1070,1527,0,0
-147,-503,0,0,0,0,0,0,0,0,0,-1,1077,1527,0,0
-140,-503,0,0,0,0,0,0,0,0,0,-1,1084,1527,0,0
-133,-503,0,0,0,0,0,0,0,0,0,-1,1091,1527,0,0
-126,-503,0,0,0,0,0,0,0,0,0,-1,1098,1527,0,0
-119,-503,0,0,0,0,0,0,0,0,0,-1,1105,1527,0,0
-112,-503,0,0,0,0,0,0,0,0,0,-1,1112,1527,0,0
-105,-503,0,0,0,0,0,0,0,0,0,-1,1119,1527,0,0
-98,-503,0,0,0,0,0,0,0,0,0,-1,1126,1527,0,0
-91,-503,0,0,0,0,0,0,0,0,0,-1,1133,1527,0,0
-84,-503,0,0,0,0,0,0,0,0,0,-1,1140,1527,0,0
-77,-503,0,0,0,0,0,0,0,0,0,-1,1147,1527,0,0
-70,-503,0,0,0,0,0,0,0,0,0,-1,1154,1527,0,0
-63,-503,0,0,0,0,0,0,0,0,0,-1,1161,1527,0,0
-56,-503,0,0,0,0,0,0,0,0,0,-1,1168,1527,0,0
-49,-503,0,0,0,0,0,0,0,0,0,-1,1175,1527,0,0
-42,-503,0,0,0,0,0,0,0,0,0,-1,1182,1527,0,0
-35,-503,0,0,0,0,0,0,0,0,0,-1,1189,1527,0,0
-28,-503,0,0,0,0,0,0,0,0,0,-1,1196,1527,0,0
-21,-503,0,0,0,0,0,0,0,0,0,-1,1203,1527,0,0
-14,-503,0,0,0,0,0,0,0,0,0,-1,1210,1527,0,0
-7,-503,0,0,0,0,0,0,0,0,0,-1,1217,1527,0,0
0,-503,0,0,0,0,0,0,0,0,0,-1,1224,1527,0,0
7,-503,0,0,0,0,0,0,0,0,0,-1,1231,1527,0,0
14,-503,0,0,0,0,0,0,0,0,0,-1,1238,1527,0,0
21,-503,0,0,0,0,0,0,0,0,0,-1,1245,1527,0,0
28,-503,0,0,0,0,0,0,0,0,0,-1,1252,1527,0,0
35,-503,0,0,0,0,0,0,0,0,0,-1,1259,1527,0,0
42,-503,0,0,0,0,0,0,0,0,0,-1,1266,1527,0,0
49,-503,0,0,0,0,0,0,0,0,0,-1,1273,1527,0,0
56,-503,0,0,0,0,0,0,0,0,0,-1,1280,1527,0,0
63,-503,0,0,0,0,0,0,0,0,0,-1,1287,1527,0,0
70,-503,0,0,0,0,0,0,0,0,0,-1,1294,1527,0,0
77,-503,0,0,0,0,0,0,0,0,0,-1,1301,1527,0,0
84,-503,0,0,0,0,0,0,0,0,0,-1,1308,1527,0,0
91,-503,0,0,0,0,0,0,0,0,0,-1,1315,1527,0,0
98,-503,0,0,0,0,0,0,0,0,0,-1,1322,1527,0,0
105,-503,0,0,0,0,0,0,0,0,0,-1,1329,1527,0,0
112,-503,0,0,0,0,0,0,0,0,0,-1,1336,1527,0,0
119,-503,0,0,0,0,0,0,0,0,0,-1,1343,1527,0,0
126,-503,0,0,0,0,0,0,0,0,0,-1,1350,1527,0,0
133,-503,0,0,0,0,0,0,0,0,0,-1,1357,1527,0,0
140,-503,0,0,0,0,0,0,0,0,0,-1,1364,1527,0,0
147,-503,0,0,0,0,0,0,0,0,0,-1,1371,1527,0,0
154,-503,0,0,0,0,0,0,0,0,0,-1,1378,1527,0,0
161,-503,0,0,0,0,0,0,0,0,0,-1,1385,1527,0,0
168,-503,0,0,0,0,0,0,0,0,0,-1,1392,1527,0,0
175,-503,0,0,0,0,0,0,0,0,0,-1,1399,1527,0,0
182,-503,0,0,0,0,0,0,0,0,0,-1,1406,1527,0,0
189,-503,0,0,0,0,0,0,0,0,0,-1,1413,1527,0,0
196,-503,0,0,0,0,0,0,0,0,0,-1,1420,1527,0,0
203,-503,0,0,0,0,0,0,0,0,0,-1,1427,1527,0,0
210,-503,0,0,0,0,0,0,0,0,0,-1,1434,1527,0,0
217,-503,0,0,0,0,0,0,0,0,0,-1,1441,1527,0,0
224,-503,0,0,0,0,0,0,0,0,0,-1,1448,1527,0,0
231,-503,0,0,0,0,0,0,0,0,0,-1,1455,1527,0,0
238,-503,0,0,0,0,0,0,0,0,0,-1,1462,1527,0,0
245,-503,0,0,0,0,0,0,0,0,0,-1,1469,1527,0,0
252,-503,0,0,0,0,0,0,0,0,0,-1,1476,1527,0,0
259,-503,0,0,0,0,0,0,0,0,0,-1,1483,1527,0,0
266,-503,0,0,0,0,0,0,0,0,0,-1,1490,1527,0,0
273,-503,0,0,0,0,0,0,0,0,0,-1,1497,1527,0,0
280,-503,0,0,0,0,0,0,0,0,0,-1,1504,1527,0,0
287,-503,0,0,0,0,0,0,0,0,0,-1,1511,1527,0,0
294,-503,0,0,0,0,0,0,0,0,0,-1,1518,1527,0,0
301,-503,0,0,0,0,0,0,0,0,0,-1,1525,1527,0,0
308,-503,0,0,0,0,0,0,0,0,0,-1,1532,1527,0,0
315,-503,0,0,0,0,0,0,0,0,0,-1,1539,1527,0,0
322,-503,0,0,0,0,0,0,0,0,0,-1,1546,1527,0,0
329,-503,0,0,0,0,0,0,0,0,0,-1,1553,1527,0,0
336,-503,0,0,0,0,0,0,0,0,0,-1,1560,1527,0,0
343,-503,0,0,0,0,0,0,0,0,0,-1,1567,1527,0,0
350,-503,0,0,0,0,0,0,0,0,0,-1,1574,1527,0,0
357,-503,0,0,0,0,0,0,0,0,0,-1,1581,1527,0,0
364,-503,0,0,0,0,0,0,0,0,0,-1,1588,1527,0,0
371,-503,0,0,0,0,0,0,0,0,0,-1,1595,1527,0,0
378,-503,0,0,0,0,0,0,0,0,0,-1,1602,1527,0,0
385,-503,0,0,0,0,0,0,0,0,0,-1,1609,1527,0,0
392,-503,0,0,0,0,0,0,0,0,0,-1,1616,1527,0,0
399,-503,0,0,0,0,0,0,0,0,0,-1,1623,1527,0,0
406,-503,0,0,0,0,0,0,0,0,0,-1,1630,1527,0,0
413,-503,0,0,0,0,0,0,0,0,0,-1,1637,1527,0,0
420,-503,0,0,0,0,0,0,0,0,0,-1,1644,1527,0,0
427,-503,10.5968,4.9856,0,0,0,0,0,0,0,-1,1651,1527,10.5969,-4.98563
434,-503,11.4329,3.97217,0,0,0,0,0,0,0,-1,1658,1527,11.4328,-3.97222
441,-503,12.0957,2.96509,0,0,0,0,0,0,0,-1,1665,1527,12.0957,-2.96512
448,-503,12.3259,2.53894,0,0,0,0,0,0,0,-1,1672,1527,12.326,-2.53895
455,-503,12.1669,2.18762,0,0,0,0,0,0,0,-1,1679,1527,12.1668,-2.18767
462,-503,11.59,2.60791,0,0,0,0,0,0,0,-1,1686,1527,11.5899,-2.60794
469,-503,11.1625,1.61853,0,0,0,0,0,0,0,-1,1693,1527,11.1625,-1.61856
476,-503,9.07703,5.81042,0,0,0,0,0,0,0,-1,1700,1527,9.07699,-5.81047
483,-503,9.74414,6.92432,0,0,0,0,0,0,0,-1,1707,1527,9.74417,-6.9243
490,-503,10.5033,10.1071,0,0,0,0,0,0,0,-1,1714,1527,10.5032,-10.107
497,-503,15.0057,17.9476,0,0,0,0,0,0,0,-1,1721,1527,15.0058,-17.9476
504,-503,15.8759,17.4501,0,0,0,0,0,0,0,-1,1728,1527,15.8759,-17.4501
511,-503,16.2531,15.6869,0,0,0,0,0,0,0,-1,1735,1527,16.2531,-15.6869
518,-503,15.9948,17.0463,0,0,0,0,0,0,0,-1,1742,1527,15.9947,-17.0463
525,-503,14.5449,16.9329,0,0,0,0,0,0,0,-1,1749,1527,14.5449,-16.9329
532,-503,14.8761,16.5227,-0.000704708,-0.00332163,0.00350805,0.00173095,-0.00575729,0.606895,0.00452687,0.0215929,1756,1527,14.8761,-16.5227
539,-503,14.9277,16.1371,-0.000441469,-0.00206609,0.00261671,0.00148612,-0.00399368,0.634898,0.00327231,0.0139392,1763,1527,14.9278,-16.137
546,-503,14.9275,15.7437,-0.000204755,-0.00143412,0.00195597,0.00123084,-0.00286971,0.633155,0.00242967,0.0112294,1770,1527,14.9274,-15.7437
553,-503,14.9442,15.3966,9.81059e-05,-0.000747204,0.00128112,0.00102449,-0.00167359,0.626064,0.00157269,0.0133241,1777,1527,14.9443,-15.3966
560,-503,14.9323,15.0659,0.000472005,-0.000500978,0.000743383,0.000873934,-0.000902908,0.495657,0.00102591,0.0136835,1784,1527,14.9323,-15.0659
567,-503,14.9475,14.6967,0.000895119,-0.0002944,0.000234927,0.000939835,-0.000339117,0.188092,0.000765072,0.0119266,1791,1527,14.9475,-14.6967
574,-503,14.9402,14.3318,0.001365,-3.41293e-05,-0.000267949,0.00141456,-8.36891e-05,-0.182893,0.000972135,0.0120366,1798,1527,14.9402,-14.3317
581,-503,14.9076,13.9863,0.00200819,0.000230994,-0.00080175,0.00231643,-7.72409e-05,-0.367032,0.00157066,0.01396,1805,1527,14.9076,-13.9863
588,-503,14.8925,13.6233,0.00289623,0.000218834,-0.00139482,0.00349082,-0.000375762,-0.402963,0.00246204,0.0170727,1812,1527,14.8925,-13.6232
595,-503,14.8936,13.2428,0.0036991,0.000214018,-0.00185495,0.00450161,-0.000588496,-0.408318,0.00321524,0.0130009,1819,1527,14.8935,-13.2428
602,-503,14.9375,12.868,0.00465485,-3.55749e-05,-0.00231776,0.00560691,-0.000987639,-0.389756,0.00410693,0.019799,1826,1527,14.9375,-12.8681
609,-503,15.0103,12.4523,0.00580446,-0.000436475,-0.00277697,0.00686117,-0.00149319,-0.363609,0.00514459,0.0367846,1833,1527,15.0103,-12.4522
616,-503,14.6947,12.2813,0,0,0,0,0,0,0,-1,1840,1527,14.6947,-12.2813
623,-503,15.1315,11.5839,0,0,0,0,0,0,0,-1,1847,1527,15.1315,-11.5839
630,-503,15.5682,10.8865,0,0,0,0,0,0,0,-1,1854,1527,15.5682,-10.8865
637,-503,14.5564,9.20496,0,0,0,0,0,0,0,-1,1861,1527,14.5564,-9.2049
644,-503,11.4802,7.57214,0,0,0,0,0,0,0,-1,1868,1527,11.4802,-7.57215
651,-503,11.5718,6.5448,0,0,0,0,0,0,0,-1,1875,1527,11.5718,-6.54476
658,-503,8.25635,3.10498,0,0,0,0,0,0,0,-1,1882,1527,8.2563,-3.10493
665,-503,0,0,0,0,0,0,0,0,0,-1,1889,1527,0,0
672,-503,0,0,0,0,0,0,0,0,0,-1,1896,1527,0,0
679,-503,0,0,0,0,0,0,0,0,0,-1,1903,1527,0,0
686,-503,0,0,0,0,0,0,0,0,0,-1,1910,1527,0,0
693,-503,0,0,0,0,0,0,0,0,0,-1,1917,1527,0,0
700,-503,0,0,0,0,0,0,0,0,0,-1,1924,1527,0,0
707,-503,0,0,0,0,0,0,0,0,0,-1,1931,1527,0,0
714,-503,0,0,0,0,0,0,0,0,0,-1,1938,1527,0,0
721,-503,0,0,0,0,0,0,0,0,0,-1,1945,1527,0,0
728,-503,0,0,0,0,0,0,0,0,0,-1,1952,1527,0,0
735,-503,0,0,0,0,0,0,0,0,0,-1,1959,1527,0,0
742,-503,0,0,0,0,0,0,0,0,0,-1,1966,1527,0,0
749,-503,0,0,0,0,0,0,0,0,0,-1,1973,1527,0,0
756,-503,0,0,0,0,0,0,0,0,0,-1,1980,1527,0,0
763,-503,0,0,0,0,0,0,0,0,0,-1,1987,1527,0,0
770,-503,0,0,0,0,0,0,0,0,0,-1,1994,1527,0,0
777,-503,0,0,0,0,0,0,0,0,0,-1,2001,1527,0,0
784,-503,0,0,0,0,0,0,0,0,0,-1,2008,1527,0,0
791,-503,0,0,0,0,0,0,0,0,0,-1,2015,1527,0,0
798,-503,0,0,0,0,0,0,0,0,0,-1,2022,1527,0,0
805,-503,0,0,0,0,0,0,0,0,0,-1,2029,1527,0,0
812,-503,0,0,0,0,0,0,0,0,0,-1,2036,1527,0,0
-700,-510,0,0,0,0,0,0,0,0,0,-1,524,1534,0,0
-693,-510,0,0,0,0,0,0,0,0,0,-1,531,1534,0,0
-686,-510,0,0,0,0,0,0,0,0,0,-1,538,1534,0,0
-679,-510,0,0,0,0,0,0,0,0,0,-1,545,1534,0,0
-672,-510,0,0,0,0,0,0,0,0,0,-1,552,1534,0,0
-665,-510,0,0,0,0,0,0,0,0,0,-1,559,1534,0,0
-658,-510,0,0,0,0,0,0,0,0,0,-1,566,1534,0,0
-651,-510,0,0,0,0,0,0,0,0,0,-1,573,1534,0,0
-644,-510,0,0,0,0,0,0,0,0,0,-1,580,1534,0,0
-637,-510,0,0,0,0,0,0,0,0,0,-1,587,1534,0,0
-630,-510,0,0,0,0,0,0,0,0,0,-1,594,1534,0,0
-623,-510,0,0,0,0,0,0,0,0,0,-1,601,1534,0,0
-616,-510,0,0,0,0,0,0,0,0,0,-1,608,1534,0,0
-609,-510,0,0,0,0,0,0,0,0,0,-1,615,1534,0,0
-602,-510,0,0,0,0,0,0,0,0,0,-1,622,1534,0,0
-595,-510,0,0,0,0,0,0,0,0,0,-1,629,1534,0,0
-588,-510,0,0,0,0,0,0,0,0,0,-1,636,1534,0,0
-581,-510,0,0,0,0,0,0,0,0,0,-1,643,1534,0,0
-574,-510,0,0,0,0,0,0,0,0,0,-1,650,1534,0,0
-567,-510,0,0,0,0,0,0,0,0,0,-1,657,1534,0,0
-560,-510,0,0,0,0,0,0,0,0,0,-1,664,1534,0,0
-553,-510,0,0,0,0,0,0,0,0,0,-1,671,1534,0,0
-546,-510,0,0,0,0,0,0,0,0,0,-1,678,1534,0,0
-539,-510,0,0,0,0,0,0,0,0,0,-1,685,1534,0,0
-532,-510,-3.95129,4.52014,0,0,0,0,0,0,0,-1,692,1534,-3.95131,-4.5202
-525,-510,-2.77411,0.316772,0,0,0,0,0,0,0,-1,699,1534,-2.77409,-0.3168
-518,-510,-2.86847,2.71423,0,0,0,0,0,0,0,-1,706,1534,-2.86849,-2.71424
-511,-510,-2.28571,4.48083,0,0,0,0,0,0,0,-1,713,1534,-2.28571,-4.48086
-504,-510,-1.59497,8.94751,0,0,0,0,0,0,0,-1,720,1534,-1.59499,-8.94753
-497,-510,-1.41199,10.3259,0,0,0,0,0,0,0,-1,727,1534,-1.412,-10.326
-490,-510,-1.52979,10.4994,-0.00742186,-0.00440651,-0.00710154,0.00134564,-0.013174,-0.889996,0.00926385,0.0455221,734,1534,-1.52979,-10.4993
-483,-510,-1.81927,10.6393,-0.00740455,-0.00277038,-0.00532412,0.000719015,-0.0108939,-0.99064,0.00751377,0.0422088,741,1534,-1.81927,-10.6392
-476,-510,-2.12115,10.8986,-0.00673526,-0.00142647,-0.00388057,0.000620691,-0.00878243,-1.08536,0.00607243,0.0348466,748,1534,-2.12117,-10.8986
-469,-510,-2.34082,11.3021,-0.00570437,-0.000565936,-0.00269141,0.000585677,-0.00685598,-1.16649,0.00477786,0.0143725,755,1534,-2.34083,-11.3022
-462,-510,-2.33545,11.6823,-0.00448314,1.05168e-05,-0.00170936,0.000586832,-0.00505946,-1.24561,0.00358463,0.0120296,762,1534,-2.33543,-11.6822
-455,-510,-2.35059,12.0988,-0.0033156,0.000348546,-0.00100161,0.000604468,-0.00357152,-1.32064,0.00260598,0.0140961,769,1534,-2.35056,-12.0988
-448,-510,-2.34113,12.4954,-0.00231223,0.000616945,-0.000327444,0.000653102,-0.00234839,-1.46082,0.00182272,0.0123471,776,1534,-2.34114,-12.4954
-441,-510,-2.35577,12.8578,-0.000960813,0.000887987,0.00043755,0.000986311,-0.00105914,1.34975,0.00118119,0.0128119,783,1534,-2.3558,-12.8578
-434,-510,-2.40015,13.2167,0.000539739,0.00116285,0.00123148,0.00212157,-0.000418982,0.909295,0.00157276,0.0148605,790,1534,-2.40014,-13.2167
-427,-510,-2.41052,13.5886,0.00187897,0.00150401,0.00192312,0.00362373,-0.000240748,0.736809,0.00249993,0.0231765,797,1534,-2.41053,-13.5886
-420,-510,-2.3913,14.0162,0.00307792,0.00204653,0.00266725,0.00527887,-0.000154424,0.689905,0.00357184,0.0218666,804,1534,-2.3913,-14.0163
-413,-510,-2.4032,14.4194,0.00434573,0.00287121,0.00365409,0.0073362,-0.000119255,0.685853,0.00493103,0.0109787,811,1534,-2.40321,-14.4194
-406,-510,-2.43219,14.7747,0.00566255,0.00388228,0.00479225,0.00964664,-0.000101807,0.693573,0.00646529,0.0102334,818,1534,-2.43219,-14.7747
-399,-510,-2.42682,15.1409,0.00699828,0.0058008,0.00596098,0.0123905,0.000408565,0.735344,0.00812757,0.0129776,825,1534,-2.42681,-15.1409
-392,-510,-2.28052,15.704,0.00851128,0.00847215,0.00707153,0.0155633,0.00142016,0.784015,0.00993602,0.0345977,832,1534,-2.2805,-15.7039
-385,-510,-2.03619,16.3154,0,0,0,0,0,0,0,-1,839,1534,-2.0362,-16.3154
-378,-510,-1.78308,13.8044,0,0,0,0,0,0,0,-1,846,1534,-1.78309,-13.8044
-371,-510,-1.74982,13.8027,0,0,0,0,0,0,0,-1,853,1534,-1.74981,-13.8028
-364,-510,-1.3479,13.7771,0,0,0,0,0,0,0,-1,860,1534,-1.34791,-13.7771
-357,-510,-0.254395,8.89575,0,0,0,0,0,0,0,-1,867,1534,-0.254397,-8.89569
-350,-510,0.471191,6.06458,0,0,0,0,0,0,0,-1,874,1534,0.47118,-6.06453
-343,-510,-2.94617,5.00989,0,0,0,0,0,0,0,-1,881,1534,-2.94615,-5.00992
-336,-510,-1.92963,11.3776,0,0,0,0,0,0,0,-1,888,1534,-1.92962,-11.3775
-329,-510,-4.87781,20.6893,0,0,0,0,0,0,0,-1,895,1534,-4.87782,-20.6894
-322,-510,-0.251526,11.973,0,0,0,0,0,0,0,-1,902,1534,-0.251497,-11.9731
-315,-510,-1.73047,10.9796,0,0,0,0,0,0,0,-1,909,1534,-1.73049,-10.9796
-308,-510,-2.05328,9.72034,0,0,0,0,0,0,0,-1,916,1534,-2.05327,-9.72036
-301,-510,-1.85437,11.5869,0,0,0,0,0,0,0,-1,923,1534,-1.85437,-11.5869
-294,-510,0,0,0,0,0,0,0,0,0,-1,930,1534,0,0
-287,-510,0,0,0,0,0,0,0,0,0,-1,937,1534,0,0
-280,-510,0,0,0,0,0,0,0,0,0,-1,944,1534,0,0
-273,-510,0,0,0,0,0,0,0,0,0,-1,951,1534,0,0
-266,-510,0,0,0,0,0,0,0,0,0,-1,958,1534,0,0
-259,-510,0,0,0,0,0,0,0,0,0,-1,965,1534,0,0
-252,-510,0,0,0,0,0,0,0,0,0,-1,972,1534,0,0
-245,-510,0,0,0,0,0,0,0,0,0,-1,979,1534,0,0
-238,-510,0,0,0,0,0,0,0,0,0,-1,986,1534,0,0
-231,-510,0,0,0,0,0,0,0,0,0,-1,993,1534,0,0
-224,-510,0,0,0,0,0,0,0,0,0,-1,1000,1534,0,0
-217,-510,0,0,0,0,0,0,0,0,0,-1,1007,1534,0,0
-210,-510,0,0,0,0,0,0,0,0,0,-1,1014,1534,0,0
-203,-510,0,0,0,0,0,0,0,0,0,-1,1021,1534,0,0
-196,-510,0,0,0,0,0,0,0,0,0,-1,1028,1534,0,0
-189,-510,0,0,0,0,0,0,0,0,0,-1,1035,1534,0,0
-182,-510,0,0,0,0,0,0,0,0,0,-1,1042,1534,0,0
-175,-510,0,0,0,0,0,0,0,0,0,-1,1049,1534,0,0
-168,-510,0,0,0,0,0,0,0,0,0,-1,1056,1534,0,0
-161,-510,0,0,0,0,0,0,0,0,0,-1,1063,1534,0,0
-154,-510,0,0,0,0,0,0,0,0,0,-1,1070,1534,0,0
-147,-510,0,0,0,0,0,0,0,0,0,-1,1077,1534,0,0
-140,-510,0,0,0,0,0,0,0,0,0,-1,1084,1534,0,0
-133,-510,0,0,0,0,0,0,0,0,0,-1,1091,1534,0,0
-126,-510,0,0,0,0,0,0,0,0,0,-1,1098,1534,0,0
-119,-510,0,0,0,0,0,0,0,0,0,-1,1105,1534,0,0
-112,-510,0,0,0,0,0,0,0,0,0,-1,1112,1534,0,0
-105,-510,0,0,0,0,0,0,0,0,0,-1,1119,1534,0,0
-98,-510,0,0,0,0,0,0,0,0,0,-1,1126,1534,0,0
-91,-510,0,0,0,0,0,0,0,0,0,-1,1133,1534,0,0
-84,-510,0,0,0,0,0,0,0,0,0,-1,1140,1534,0,0
-77,-510,0,0,0,0,0,0,0,0,0,-1,1147,1534,0,0
-70,-510,0,0,0,0,0,0,0,0,0,-1,1154,1534,0,0
-63,-510,0,0,0,0,0,0,0,0,0,-1,1161,1534,0,0
-56,-510,0,0,0,0,0,0,0,0,0,-1,1168,1534,0,0
-49,-510,0,0,0,0,0,0,0,0,0,-1,1175,1534,0,0
-42,-510,0,0,0,0,0,0,0,0,0,-1,1182,1534,0,0
-35,-510,0,0,0,0,0,0,0,0,0,-1,1189,1534,0,0
-28,-510,0,0,0,0,0,0,0,0,0,-1,1196,1534,0,0
-21,-510,0,0,0,0,0,0,0,0,0,-1,1203,1534,0,0
-14,-510,0,0,0,0,0,0,0,0,0,-1,1210,1534,0,0
-7,-510,0,0,0,0,0,0,0,0,0,-1,1217,1534,0,0
0,-510,0,0,0,0,0,0,0,0,0,-1,1224,1534,0,0
7,-510,0,0,0,0,0,0,0,0,0,-1,1231,1534,0,0
14,-510,0,0,0,0,0,0,0,0,0,-1,1238,1534,0,0
21,-510,0,0,0,0,0,0,0,0,0,-1,1245,1534,0,0
28,-510,0,0,0,0,0,0,0,0,0,-1,1252,1534,0,0
35,-510,0,0,0,0,0,0,0,0,0,-1,1259,1534,0,0
42,-510,0,0,0,0,0,0,0,0,0,-1,1266,1534,0,0
49,-510,0,0,0,0,0,0,0,0,0,-1,1273,1534,0,0
56,-510,0,0,0,0,0,0,0,0,0,-1,1280,1534,0,0
63,-510,0,0,0,0,0,0,0,0,0,-1,1287,1534,0,0
70,-510,0,0,0,0,0,0,0,0,0,-1,1294,1534,0,0
77,-510,0,0,0,0,0,0,0,0,0,-1,1301,1534,0,0
84,-510,0,0,0,0,0,0,0,0,0,-1,1308,1534,0,0
91,-510,0,0,0,0,0,0,0,0,0,-1,1315,1534,0,0
98,-510,0,0,0,0,0,0,0,0,0,-1,1322,1534,0,0
105,-510,0,0,0,0,0,0,0,0,0,-1,1329,1534,0,0
112,-510,0,0,0,0,0,0,0,0,0,-1,1336,1534,0,0
119,-510,0,0,0,0,0,0,0,0,0,-1,1343,1534,0,0
126,-510,0,0,0,0,0,0,0,0,0,-1,1350,1534,0,0
133,-510,0,0,0,0,0,0,0,0,0,-1,1357,1534,0,0
140,-510,0,0,0,0,0,0,0,0,0,-1,1364,1534,0,0
147,-510,0,0,0,0,0,0,0,0,0,-1,1371,1534,0,0
154,-510,0,0,0,0,0,0,0,0,0,-1,1378,1534,0,0
161,-510,0,0,0,0,0,0,0,0,0,-1,1385,1534,0,0
168,-510,0,0,0,0,0,0,0,0,0,-1,1392,1534,0,0
175,-510,0,0,0,0,0,0,0,0,0,-1,1399,1534,0,0
182,-510,0,0,0,0,0,0,0,0,0,-1,1406,1534,0,0
189,-510,0,0,0,0,0,0,0,0,0,-1,1413,1534,0,0
196,-510,0,0,0,0,0,0,0,0,0,-1,1420,1534,0,0
203,-510,0,0,0,0,0,0,0,0,0,-1,1427,1534,0,0
210,-510,0,0,0,0,0,0,0,0,0,-1,1434,1534,0,0
217,-510,0,0,0,0,0,0,0,0,0,-1,1441,1534,0,0
224,-510,0,0,0,0,0,0,0,0,0,-1,1448,1534,0,0
231,-510,0,0,0,0,0,0,0,0,0,-1,1455,1534,0,0
238,-510,0,0,0,0,0,0,0,0,0,-1,1462,1534,0,0
245,-510,0,0,0,0,0,0,0,0,0,-1,1469,1534,0,0
252,-510,0,0,0,0,0,0,0,0,0,-1,1476,1534,0,0
259,-510,0,0,0,0,0,0,0,0,0,-1,1483,1534,0,0
266,-510,0,0,0,0,0,0,0,0,0,-1,1490,1534,0,0
273,-510,0,0,0,0,0,0,0,0,0,-1,1497,1534,0,0
280,-510,0,0,0,0,0,0,0,0,0,-1,1504,1534,0,0
287,-510,0,0,0,0,0,0,0,0,0,-1,1511,1534,0,0
294,-510,0,0,0,0,0,0,0,0,0,-1,1518,1534,0,0
301,-510,0,0,0,0,0,0,0,0,0,-1,1525,1534,0,0
308,-510,0,0,0,0,0,0,0,0,0,-1,1532,1534,0,0
315,-510,0,0,0,0,0,0,0,0,0,-1,1539,1534,0,0
322,-510,0,0,0,0,0,0,0,0,0,-1,1546,1534,0,0
329,-510,0,0,0,0,0,0,0,0,0,-1,1553,1534,0,0
336,-510,0,0,0,0,0,0,0,0,0,-1,1560,1534,0,0
343,-510,0,0,0,0,0,0,0,0,0,-1,1567,1534,0,0
350,-510,0,0,0,0,0,0,0,0,0,-1,1574,1534,0,0
357,-510,0,0,0,0,0,0,0,0,0,-1,1581,1534,0,0
364,-510,0,0,0,0,0,0,0,0,0,-1,1588,1534,0,0
371,-510,0,0,0,0,0,0,0,0,0,-1,1595,1534,0,0
378,-510,0,0,0,0,0,0,0,0,0,-1,1602,1534,0,0
385,-510,0,0,0,0,0,0,0,0,0,-1,1609,1534,0,0
392,-510,0,0,0,0,0,0,0,0,0,-1,1616,1534,0,0
399,-510,0,0,0,0,0,0,0,0,0,-1,1623,1534,0,0
406,-510,0,0,0,0,0,0,0,0,0,-1,1630,1534,0,0
413,-510,0,0,0,0,0,0,0,0,0,-1,1637,1534,0,0
420,-510,13.9399,6.59412,0,0,0,0,0,0,0,-1,1644,1534,13.94,-6.59417
427,-510,10.9799,5.12341,0,0,0,0,0,0,0,-1,1651,1534,10.9798,-5.12337
434,-510,11.8219,4.07898,0,0,0,0,0,0,0,-1,1658,1534,11.8219,-4.07895
441,-510,12.6812,3.02991,0,0,0,0,0,0,0,-1,1665,1534,12.6811,-3.0299
448,-510,13.2379,2.2804,0,0,0,0,0,0,0,-1,1672,1534,13.2379,-2.28037
455,-510,9.76892,2.20642,0,0,0,0,0,0,0,-1,1679,1534,9.76894,-2.20647
462,-510,9.84692,2.49182,0,0,0,0,0,0,0,-1,1686,1534,9.84695,-2.49185
469,-510,16.6072,7.26941,0,0,0,0,0,0,0,-1,1693,1534,16.6072,-7.26945
476,-510,15.9199,7.8645,0,0,0,0,0,0,0,-1,1700,1534,15.9199,-7.86455
483,-510,13.0833,8.10938,0,0,0,0,0,0,0,-1,1707,1534,13.0833,-8.10932
490,-510,13.0841,15.3286,0,0,0,0,0,0,0,-1,1714,1534,13.0841,-15.3286
497,-510,14.6643,18.2444,0,0,0,0,0,0,0,-1,1721,1534,14.6643,-18.2444
504,-510,15.0892,17.6357,0,0,0,0,0,0,0,-1,1728,1534,15.0893,-17.6358
511,-510,15.5143,17.0272,0,0,0,0,0,0,0,-1,1735,1534,15.5142,-17.0272
518,-510,14.5522,17.5298,0,0,0,0,0,0,0,-1,1742,1534,14.5522,-17.5298
525,-510,14.4883,16.9644,-9.22104e-06,-0.00318796,0.00295545,0.00175712,-0.0049543,0.538693,0.00401872,0.0360603,1749,1534,14.4882,-16.9644
532,-510,14.5747,16.5059,2.90647e-05,-0.00205706,0.00225864,0.00147386,-0.00350185,0.569082,0.00295119,0.0156485,1756,1534,14.5746,-16.5058
539,-510,14.6185,16.0959,0.000216559,-0.00112798,0.00161973,0.00129799,-0.00220941,0.588692,0.00204767,0.0130804,1763,1534,14.6185,-16.0959
546,-510,14.5774,15.7687,0.000408124,-0.000775414,0.00115799,0.00111679,-0.00148408,0.549181,0.0015066,0.0121312,1770,1534,14.5774,-15.7687
553,-510,14.5723,15.4139,0.000653411,-0.000320902,0.000657749,0.000984762,-0.000652254,0.466656,0.000951608,0.012802,1777,1534,14.5723,-15.414
560,-510,14.5693,15.0363,0.000995976,-0.000247065,0.000246471,0.00104306,-0.000294152,0.188769,0.000811398,0.0130044,1784,1534,14.5693,-15.0362
567,-510,14.571,14.6909,0.0014144,-0.000174883,-0.000170287,0.00143244,-0.000192924,-0.105551,0.00102534,0.012018,1791,1534,14.5711,-14.691
574,-510,14.5724,14.3568,0.00191025,1.41887e-05,-0.000636918,0.00210433,-0.000179896,-0.295786,0.00146654,0.0130453,1798,1534,14.5724,-14.3568
581,-510,14.5416,14.0226,0.00262193,0.000248702,-0.00116763,0.00310007,-0.000229443,-0.388668,0.00214729,0.0128452,1805,1534,14.5416,-14.0226
588,-510,14.5419,13.6598,0.00358188,0.00016759,-0.00172888,0.00430442,-0.000554952,-0.395862,0.00307135,0.0136973,1812,1534,14.5419,-13.6598
595,-510,14.6343,13.1841,0.00448266,0.000213659,-0.00222689,0.00543281,-0.000736498,-0.403289,0.00389068,0.0196871,1819,1534,14.6343,-13.1841
602,-510,14.6599,12.7462,0,0,0,0,0,0,0,-1,1826,1534,14.6599,-12.7462
609,-510,14.8094,12.3877,0,0,0,0,0,0,0,-1,1833,1534,14.8095,-12.3877
616,-510,14.1313,12.0229,0,0,0,0,0,0,0,-1,1840,1534,14.1314,-12.023
623,-510,14.9148,11.4377,0,0,0,0,0,0,0,-1,1847,1534,14.9148,-11.4378
630,-510,13.7461,9.30334,0,0,0,0,0,0,0,-1,1854,1534,13.7461,-9.30335
637,-510,11.0155,7.38464,0,0,0,0,0,0,0,-1,1861,1534,11.0155,-7.38463
644,-510,11.5809,7.17126,0,0,0,0,0,0,0,-1,1868,1534,11.5809,-7.17123
651,-510,8.70471,3.5061,0,0,0,0,0,0,0,-1,1875,1534,8.70475,-3.50611
658,-510,0,0,0,0,0,0,0,0,0,-1,1882,1534,0,0
665,-510,0,0,0,0,0,0,0,0,0,-1,1889,1534,0,0
672,-510,0,0,0,0,0,0,0,0,0,-1,1896,1534,0,0
679,-510,0,0,0,0,0,0,0,0,0,-1,1903,1534,0,0
686,-510,0,0,0,0,0,0,0,0,0,-1,1910,1534,0,0
693,-510,0,0,0,0,0,0,0,0,0,-1,1917,1534,0,0
700,-510,0,0,0,0,0,0,0,0,0,-1,1924,1534,0,0
707,-510,0,0,0,0,0,0,0,0,0,-1,1931,1534,0,0
714,-510,0,0,0,0,0,0,0,0,0,-1,1938,1534,0,0
721,-510,0,0,0,0,0,0,0,0,0,-1,1945,1534,0,0
728,-510,0,0,0,0,0,0,0,0,0,-1,1952,1534,0,0
735,-510,0,0,0,0,0,0,0,0,0,-1,1959,1534,0,0
742,-510,0,0,0,0,0,0,0,0,0,-1,1966,1534,0,0
749,-510,0,0,0,0,0,0,0,0,0,-1,1973,1534,0,0
756,-510,0,0,0,0,0,0,0,0,0,-1,1980,1534,0,0
763,-510,0,0,0,0,0,0,0,0,0,-1,1987,1534,0,0
770,-510,0,0,0,0,0,0,0,0,0,-1,1994,1534,0,0
777,-510,0,0,0,0,0,0,0,0,0,-1,2001,1534,0,0
784,-510,0,0,0,0,0,0,0,0,0,-1,2008,1534,0,0
791,-510,0,0,0,0,0,0,0,0,0,-1,2015,1534,0,0
798,-510,0,0,0,0,0,0,0,0,0,-1,2022,1534,0,0
805,-510,0,0,0,0,0,0,0,0,0,-1,2029,1534,0,0
812,-510,0,0,0,0,0,0,0,0,0,-1,2036,1534,0,0
-700,-517,0,0,0,0,0,0,0,0,0,-1,524,1541,0,0
-693,-517,0,0,0,0,0,0,0,0,0,-1,531,1541,0,0
-686,-517,0,0,0,0,0,0,0,0,0,-1,538,1541,0,0
-679,-517,0,0,0,0,0,0,0,0,0,-1,545,1541,0,0
-672,-517,0,0,0,0,0,0,0,0,0,-1,552,1541,0,0
-665,-517,0,0,0,0,0,0,0,0,0,-1,559,1541,0,0
-658,-517,0,0,0,0,0,0,0,0,0,-1,566,1541,0,0
-651,-517,0,0,0,0,0,0,0,0,0,-1,573,1541,0,0
-644,-517,0,0,0,0,0,0,0,0,0,-1,580,1541,0,0
-637,-517,0,0,0,0,0,0,0,0,0,-1,587,1541,0,0
-630,-517,0,0,0,0,0,0,0,0,0,-1,594,1541,0,0
-623,-517,0,0,0,0,0,0,0,0,0,-1,601,1541,0,0
-616,-517,0,0,0,0,0,0,0,0,0,-1,608,1541,0,0
-609,-517,0,0,0,0,0,0,0,0,0,-1,615,1541,0,0
-602,-517,0,0,0,0,0,0,0,0,0,-1,622,1541,0,0
-595,-517,0,0,0,0,0,0,0,0,0,-1,629,1541,0,0
-588,-517,0,0,0,0,0,0,0,0,0,-1,636,1541,0,0
-581,-517,0,0,0,0,0,0,0,0,0,-1,643,1541,0,0
-574,-517,0,0,0,0,0,0,0,0,0,-1,650,1541,0,0
-567,-517,0,0,0,0,0,0,0,0,0,-1,657,1541,0,0
-560,-517,0,0,0,0,0,0,0,0,0,-1,664,1541,0,0
-553,-517,0,0,0,0,0,0,0,0,0,-1,671,1541,0,0
-546,-517,0,0,0,0,0,0,0,0,0,-1,678,1541,0,0
-539,-517,0,0,0,0,0,0,0,0,0,-1,685,1541,0,0
-532,-517,0,0,0,0,0,0,0,0,0,-1,692,1541,0,0
-525,-517,-3.62903,4.3606,0,0,0,0,0,0,0,-1,699,1541,-3.62904,-4.36056
-518,-517,-1.664,2.27209,0,0,0,0,0,0,0,-1,706,1541,-1.66399,-2.27207
-511,-517,-0.999146,5.52063,0,0,0,0,0,0,0,-1,713,1541,-0.999126,-5.52059
-504,-517,-0.883362,4.79858,0,0,0,0,0,0,0,-1,720,1541,-0.88337,-4.79854
-497,-517,-1.95294,9.60901,0,0,0,0,0,0,0,-1,727,1541,-1.95291,-9.60901
-490,-517,-0.833435,10.47,0,0,0,0,0,0,0,-1,734,1541,-0.833412,-10.47
-483,-517,-1.40491,10.4589,-0.00920014,-0.000995876,-0.00492633,0.00131263,-0.0115086,-1.13258,0.0081453,0.0421337,741,1541,-1.40489,-10.4589
-476,-517,-1.66223,10.8521,-0.00818879,0.000123535,-0.00348,0.00138808,-0.00945334,-1.22226,0.00681222,0.041509,748,1541,-1.66224,-10.8521
-469,-517,-1.88843,11.3,-0.00692819,0.000831819,-0.00234763,0.00148677,-0.00758314,-1.29873,0.005617,0.0191532,755,1541,-1.88846,-11.3001
-462,-517,-1.9693,11.6687,-0.00555428,0.00124825,-0.00144603,0.00154287,-0.00584891,-1.3698,0.00450256,0.0183641,762,1541,-1.96931,-11.6687
-455,-517,-1.96503,12.1023,-0.00430938,0.00142971,-0.000835003,0.00154873,-0.0044284,-1.42921,0.00358191,0.014477,769,1541,-1.96506,-12.1024
-448,-517,-1.97498,12.5231,-0.00328854,0.00149418,-0.000303927,0.00151341,-0.00330777,-1.50759,0.00284705,0.0134272,776,1541,-1.97498,-12.523
-441,-517,-2.00348,12.8788,-0.00198041,0.00158691,0.000311442,0.0016139,-0.00200739,1.48436,0.00209486,0.0111744,783,1541,-2.00347,-12.8788
-434,-517,-1.99731,13.2413,-0.000520016,0.001704,0.000995239,0.00208433,-0.000900342,1.20578,0.00176782,0.0143695,790,1541,-1.99734,-13.2414
-427,-517,-1.99078,13.625,0.000788425,0.00187005,0.00156662,0.00298658,-0.000328103,0.951599,0.00210895,0.0142093,797,1541,-1.99078,-13.625
-420,-517,-2.00818,14.0746,0.00192076,0.00227229,0.00213282,0.00423658,-4.35216e-05,0.82651,0.002839,0.0205666,804,1541,-2.00815,-14.0746
-413,-517,-2.0495,14.4232,0.00302568,0.00294097,0.00289727,0.00588091,8.5742e-05,0.778089,0.00389234,0.0108819,811,1541,-2.04947,-14.4232
-406,-517,-2.05054,14.7933,0.00416845,0.00385023,0.00384422,0.00785685,0.00016183,0.764716,0.0051848,0.0107422,818,1541,-2.05056,-14.7933
-399,-517,-2.03851,15.1711,0.00529733,0.0054036,0.00477694,0.0101277,0.000573227,0.79096,0.00656907,0.0104711,825,1541,-2.03849,-15.1711
-392,-517,-2.02008,15.5657,0.00653624,0.00766103,0.00559213,0.012719,0.00147829,0.835514,0.00803203,0.0138066,832,1541,-2.02007,-15.5657
-385,-517,-1.9281,16.1484,0.00790774,0.00924643,0.00607641,0.0146902,0.00246393,0.840254,0.00908426,0.0285565,839,1541,-1.92812,-16.1484
-378,-517,-1.8252,16.803,0,0,0,0,0,0,0,-1,846,1541,-1.82519,-16.803
-371,-517,-1.37585,13.2646,0,0,0,0,0,0,0,-1,853,1541,-1.37586,-13.2647
-364,-517,-1.26245,12.6289,0,0,0,0,0,0,0,-1,860,1541,-1.26243,-12.6289
-357,-517,-1.23889,12.979,0,0,0,0,0,0,0,-1,867,1541,-1.23891,-12.979
-350,-517,0.722412,10.0829,0,0,0,0,0,0,0,-1,874,1541,0.722399,-10.0828
-343,-517,-4.67834,14.4569,0,0,0,0,0,0,0,-1,881,1541,-4.67837,-14.4569
-336,-517,-4.32434,16.3674,0,0,0,0,0,0,0,-1,888,1541,-4.32433,-16.3674
-329,-517,-3.86652,19.4402,0,0,0,0,0,0,0,-1,895,1541,-3.86649,-19.4402
-322,-517,-4.21246,19.5819,0,0,0,0,0,0,0,-1,902,1541,-4.21244,-19.5819
-315,-517,-0.987976,7.29749,0,0,0,0,0,0,0,-1,909,1541,-0.987993,-7.29743
-308,-517,3.27911,17.621,0,0,0,0,0,0,0,-1,916,1541,3.27913,-17.621
-301,-517,-1.69141,8.87488,0,0,0,0,0,0,0,-1,923,1541,-1.69141,-8.87485
-294,-517,-1.72583,9.92566,0,0,0,0,0,0,0,-1,930,1541,-1.72584,-9.92571
-287,-517,-3.09045,12.1472,0,0,0,0,0,0,0,-1,937,1541,-3.09043,-12.1472
-280,-517,0,0,0,0,0,0,0,0,0,-1,944,1541,0,0
-273,-517,0,0,0,0,0,0,0,0,0,-1,951,1541,0,0
-266,-517,0,0,0,0,0,0,0,0,0,-1,958,1541,0,0
-259,-517,0,0,0,0,0,0,0,0,0,-1,965,1541,0,0
-252,-517,0,0,0,0,0,0,0,0,0,-1,972,1541,0,0
-245,-517,0,0,0,0,0,0,0,0,0,-1,979,1541,0,0
-238,-517,0,0,0,0,0,0,0,0,0,-1,986,1541,0,0
-231,-517,0,0,0,0,0,0,0,0,0,-1,993,1541,0,0
-224,-517,0,0,0,0,0,0,0,0,0,-1,1000,1541,0,0
-217,-517,0,0,0,0,0,0,0,0,0,-1,1007,1541,0,0
-210,-517,0,0,0,0,0,0,0,0,0,-1,1014,1541,0,0
-203,-517,0,0,0,0,0,0,0,0,0,-1,1021,1541,0,0
-196,-517,0,0,0,0,0,0,0,0,0,-1,1028,1541,0,0
-189,-517,0,0,0,0,0,0,0,0,0,-1,1035,1541,0,0
-182,-517,0,0,0,0,0,0,0,0,0,-1,1042,1541,0,0
-175,-517,0,0,0,0,0,0,0,0,0,-1,1049,1541,0,0
-168,-517,0,0,0,0,0,0,0,0,0,-1,1056,1541,0,0
-161,-517,0,0,0,0,0,0,0,0,0,-1,1063,1541,0,0
-154,-517,0,0,0,0,0,0,0,0,0,-1,1070,1541,0,0
-147,-517,0,0,0,0,0,0,0,0,0,-1,1077,1541,0,0
-140,-517,0,0,0,0,0,0,0,0,0,-1,1084,1541,0,0
-133,-517,0,0,0,0,0,0,0,0,0,-1,1091,1541,0,0
-126,-517,0,0,0,0,0,0,0,0,0,-1,1098,1541,0,0
-119,-517,0,0,0,0,0,0,0,0,0,-1,1105,1541,0,0
-112,-517,0,0,0,0,0,0,0,0,0,-1,1112,1541,0,0
-105,-517,0,0,0,0,0,0,0,0,0,-1,1119,1541,0,0
-98,-517,0,0,0,0,0,0,0,0,0,-1,1126,1541,0,0
-91,-517,0,0,0,0,0,0,0,0,0,-1,1133,1541,0,0
-84,-517,0,0,0,0,0,0,0,0,0,-1,1140,1541,0,0
-77,-517,0,0,0,0,0,0,0,0,0,-1,1147,1541,0,0
-70,-517,0,0,0,0,0,0,0,0,0,-1,1154,1541,0,0
-63,-517,0,0,0,0,0,0,0,0,0,-1,1161,1541,0,0
-56,-517,0,0,0,0,0,0,0,0,0,-1,1168,1541,0,0
-49,-517,0,0,0,0,0,0,0,0,0,-1,1175,1541,0,0
-42,-517,0,0,0,0,0,0,0,0,0,-1,1182,1541,0,0
-35,-517,0,0,0,0,0,0,0,0,0,-1,1189,1541,0,0
-28,-517,0,0,0,0,0,0,0,0,0,-1,1196,1541,0,0
-21,-517,0,0,0,0,0,0,0,0,0,-1,1203,1541,0,0
-14,-517,0,0,0,0,0,0,0,0,0,-1,1210,1541,0,0
-7,-517,0,0,0,0,0,0,0,0,0,-1,1217,1541,0,0
0,-517,0,0,0,0,0,0,0,0,0,-1,1224,1541,0,0
7,-517,0,0,0,0,0,0,0,0,0,-1,1231,1541,0,0
14,-517,0,0,0,0,0,0,0,0,0,-1,1238,1541,0,0
21,-517,0,0,0,0,0,0,0,0,0,-1,1245,1541,0,0
28,-517,0,0,0,0,0,0,0,0,0,-1,1252,1541,0,0
35,-517,0,0,0,0,0,0,0,0,0,-1,1259,1541,0,0
42,-517,0,0,0,0,0,0,0,0,0,-1,1266,1541,0,0
49,-517,0,0,0,0,0,0,0,0,0,-1,1273,1541,0,0
56,-517,0,0,0,0,0,0,0,0,0,-1,1280,1541,0,0
63,-517,0,0,0,0,0,0,0,0,0,-1,1287,1541,0,0
70,-517,0,0,0,0,0,0,0,0,0,-1,1294,1541,0,0
77,-517,0,0,0,0,0,0,0,0,0,-1,1301,1541,0,0
84,-517,0,0,0,0,0,0,0,0,0,-1,1308,1541,0,0
91,-517,0,0,0,0,0,0,0,0,0,-1,1315,1541,0,0
98,-517,0,0,0,0,0,0,0,0,0,-1,1322,1541,0,0
105,-517,0,0,0,0,0,0,0,0,0,-1,1329,1541,0,0
112,-517,0,0,0,0,0,0,0,0,0,-1,1336,1541,0,0
119,-517,0,0,0,0,0,0,0,0,0,-1,1343,1541,0,0
126,-517,0,0,0,0,0,0,0,0,0,-1,1350,1541,0,0
133,-517,0,0,0,0,0,0,0,0,0,-1,1357,1541,0,0
140,-517,0,0,0,0,0,0,0,0,0,-1,1364,1541,0,0
147,-517,0,0,0,0,0,0,0,0,0,-1,1371,1541,0,0
154,-517,0,0,0,0,0,0,0,0,0,-1,1378,1541,0,0
161,-517,0,0,0,0,0,0,0,0,0,-1,1385,1541,0,0
168,-517,0,0,0,0,0,0,0,0,0,-1,1392,1541,0,0
175,-517,0,0,0,0,0,0,0,0,0,-1,1399,1541,0,0
182,-517,0,0,0,0,0,0,0,0,0,-1,1406,1541,0,0
189,-517,0,0,0,0,0,0,0,0,0,-1,1413,1541,0,0
196,-517,0,0,0,0,0,0,0,0,0,-1,1420,1541,0,0
203,-517,0,0,0,0,0,0,0,0,0,-1,1427,1541,0,0
210,-517,0,0,0,0,0,0,0,0,0,-1,1434,1541,0,0
217,-517,0,0,0,0,0,0,0,0,0,-1,1441,1541,0,0
224,-517,0,0,0,0,0,0,0,0,0,-1,1448,1541,0,0
231,-517,0,0,0,0,0,0,0,0,0,-1,1455,1541,0,0
238,-517,0,0,0,0,0,0,0,0,0,-1,1462,1541,0,0
245,-517,0,0,0,0,0,0,0,0,0,-1,1469,1541,0,0
252,-517,0,0,0,0,0,0,0,0,0,-1,1476,1541,0,0
259,-517,0,0,0,0,0,0,0,0,0,-1,1483,1541,0,0
266,-517,0,0,0,0,0,0,0,0,0,-1,1490,1541,0,0
273,-517,0,0,0,0,0,0,0,0,0,-1,1497,1541,0,0
280,-517,0,0,0,0,0,0,0,0,0,-1,1504,1541,0,0
287,-517,0,0,0,0,0,0,0,0,0,-1,1511,1541,0,0
294,-517,0,0,0,0,0,0,0,0,0,-1,1518,1541,0,0
301,-517,0,0,0,0,0,0,0,0,0,-1,1525,1541,0,0
308,-517,0,0,0,0,0,0,0,0,0,-1,1532,1541,0,0
315,-517,0,0,0,0,0,0,0,0,0,-1,1539,1541,0,0
322,-517,0,0,0,0,0,0,0,0,0,-1,1546,1541,0,0
329,-517,0,0,0,0,0,0,0,0,0,-1,1553,1541,0,0
336,-517,0,0,0,0,0,0,0,0,0,-1,1560,1541,0,0
343,-517,0,0,0,0,0,0,0,0,0,-1,1567,1541,0,0
350,-517,0,0,0,0,0,0,0,0,0,-1,1574,1541,0,0
357,-517,0,0,0,0,0,0,0,0,0,-1,1581,1541,0,0
364,-517,0,0,0,0,0,0,0,0,0,-1,1588,1541,0,0
371,-517,0,0,0,0,0,0,0,0,0,-1,1595,1541,0,0
378,-517,0,0,0,0,0,0,0,0,0,-1,1602,1541,0,0
385,-517,0,0,0,0,0,0,0,0,0,-1,1609,1541,0,0
392,-517,0,0,0,0,0,0,0,0,0,-1,1616,1541,0,0
399,-517,0,0,0,0,0,0,0,0,0,-1,1623,1541,0,0
406,-517,13.1395,7.01978,0,0,0,0,0,0,0,-1,1630,1541,13.1396,-7.01981
413,-517,12.8859,6.31592,0,0,0,0,0,0,0,-1,1637,1541,12.8858,-6.31588
420,-517,12.4789,6.20337,0,0,0,0,0,0,0,-1,1644,1541,12.4789,-6.20333
427,-517,11.647,4.66516,0,0,0,0,0,0,0,-1,1651,1541,11.647,-4.66519
434,-517,12.3719,3.92773,0,0,0,0,0,0,0,-1,1658,1541,12.3719,-3.92776
441,-517,13.146,3.14124,0,0,0,0,0,0,0,-1,1665,1541,13.146,-3.14121
448,-517,13.8861,2.36682,0,0,0,0,0,0,0,-1,1672,1541,13.8861,-2.36684
455,-517,13.6012,4.06335,0,0,0,0,0,0,0,-1,1679,1541,13.6012,-4.06335
462,-517,14.8956,7.0752,0,0,0,0,0,0,0,-1,1686,1541,14.8956,-7.07525
469,-517,13.6292,6.87744,0,0,0,0,0,0,0,-1,1693,1541,13.6292,-6.87739
476,-517,17.1632,14.1487,0,0,0,0,0,0,0,-1,1700,1541,17.1632,-14.1487
483,-517,16.5157,15.0776,0,0,0,0,0,0,0,-1,1707,1541,16.5157,-15.0777
490,-517,14.7307,16.3545,0,0,0,0,0,0,0,-1,1714,1541,14.7307,-16.3545
497,-517,15.0801,17.8052,0,0,0,0,0,0,0,-1,1721,1541,15.0801,-17.8052
504,-517,14.4656,17.6886,0,0,0,0,0,0,0,-1,1728,1541,14.4656,-17.6886
511,-517,14.1039,18.0262,0,0,0,0,0,0,0,-1,1735,1541,14.1039,-18.0263
518,-517,14.0786,17.3505,0.000634016,-0.00297506,0.00217973,0.00165925,-0.00400029,0.439645,0.00335942,0.0490812,1742,1541,14.0787,-17.3505
525,-517,14.1312,16.8506,0.000623873,-0.00184236,0.00163304,0.00143707,-0.00265556,0.462019,0.00239754,0.0170294,1749,1541,14.1312,-16.8505
532,-517,14.2656,16.4366,0.000544105,-0.00112877,0.00126418,0.00122351,-0.00180818,0.493138,0.00176116,0.011008,1756,1541,14.2657,-16.4366
539,-517,14.2728,16.0848,0.000667419,-0.000521195,0.00088785,0.00114151,-0.000995288,0.49046,0.00123464,0.0120991,1763,1541,14.2728,-16.0848
546,-517,14.2367,15.7577,0.000802211,-0.000452861,0.000658909,0.0010846,-0.00073525,0.40489,0.00105712,0.0133113,1770,1541,14.2366,-15.7577
553,-517,14.2203,15.4097,0.000981937,-0.000275381,0.00038145,0.00108861,-0.000382056,0.272691,0.000881149,0.0170536,1777,1541,14.2203,-15.4096
560,-517,14.231,15.0571,0.00129042,-0.000401572,0.000137423,0.00130151,-0.000412661,0.0805165,0.00103307,0.0162175,1784,1541,14.231,-15.0571
567,-517,14.2264,14.7159,0.00171102,-0.000486509,-0.000160863,0.00172273,-0.000498222,-0.0726857,0.00134566,0.0130207,1791,1541,14.2265,-14.716
574,-517,14.2037,14.3635,0.00224784,-0.000388564,-0.000582233,0.0023707,-0.000511421,-0.20796,0.00177566,0.0136441,1798,1541,14.2037,-14.3636
581,-517,14.1975,14.001,0.00304631,-0.000206227,-0.00111011,0.00338908,-0.000548995,-0.299481,0.00246287,0.0152282,1805,1541,14.1975,-14.001
588,-517,14.2124,13.6268,0.00410616,-0.000380928,-0.00164528,0.00464478,-0.000919549,-0.316377,0.0034442,0.0157548,1812,1541,14.2124,-13.6269
595,-517,14.2534,13.3049,0.00513485,-0.000301197,-0.00219878,0.00591286,-0.00107921,-0.340091,0.00434654,0.0409651,1819,1541,14.2535,-13.305
602,-517,14.59,12.7568,0,0,0,0,0,0,0,-1,1826,1541,14.5899,-12.7569
609,-517,12.6417,10.8751,0,0,0,0,0,0,0,-1,1833,1541,12.6417,-10.8751
616,-517,14.205,10.3193,0,0,0,0,0,0,0,-1,1840,1541,14.205,-10.3194
623,-517,12.578,10.0779,0,0,0,0,0,0,0,-1,1847,1541,12.578,-10.0779
630,-517,11.7035,7.47815,0,0,0,0,0,0,0,-1,1854,1541,11.7035,-7.47812
637,-517,11.5172,5.79822,0,0,0,0,0,0,0,-1,1861,1541,11.5173,-5.79825
644,-517,11.4232,3.30579,0,0,0,0,0,0,0,-1,1868,1541,11.4232,-3.30574
651,-517,0,0,0,0,0,0,0,0,0,-1,1875,1541,0,0
658,-517,0,0,0,0,0,0,0,0,0,-1,1882,1541,0,0
665,-517,0,0,0,0,0,0,0,0,0,-1,1889,1541,0,0
672,-517,0,0,0,0,0,0,0,0,0,-1,1896,1541,0,0
679,-517,0,0,0,0,0,0,0,0,0,-1,1903,1541,0,0
686,-517,0,0,0,0,0,0,0,0,0,-1,1910,1541,0,0
693,-517,0,0,0,0,0,0,0,0,0,-1,1917,1541,0,0
700,-517,0,0,0,0,0,0,0,0,0,-1,1924,1541,0,0
707,-517,0,0,0,0,0,0,0,0,0,-1,1931,1541,0,0
714,-517,0,0,0,0,0,0,0,0,0,-1,1938,1541,0,0
721,-517,0,0,0,0,0,0,0,0,0,-1,1945,1541,0,0
728,-517,0,0,0,0,0,0,0,0,0,-1,1952,1541,0,0
735,-517,0,0,0,0,0,0,0,0,0,-1,1959,1541,0,0
742,-517,0,0,0,0,0,0,0,0,0,-1,1966,1541,0,0
749,-517,0,0,0,0,0,0,0,0,0,-1,1973,1541,0,0
756,-517,0,0,0,0,0,0,0,0,0,-1,1980,1541,0,0
763,-517,0,0,0,0,0,0,0,0,0,-1,1987,1541,0,0
770,-517,0,0,0,0,0,0,0,0,0,-1,1994,1541,0,0
777,-517,0,0,0,0,0,0,0,0,0,-1,2001,1541,0,0
784,-517,0,0,0,0,0,0,0,0,0,-1,2008,1541,0,0
791,-517,0,0,0,0,0,0,0,0,0,-1,2015,1541,0,0
798,-517,0,0,0,0,0,0,0,0,0,-1,2022,1541,0,0
805,-517,0,0,0,0,0,0,0,0,0,-1,2029,1541,0,0
812,-517,0,0,0,0,0,0,0,0,0,-1,2036,1541,0,0
-700,-524,0,0,0,0,0,0,0,0,0,-1,524,1548,0,0
-693,-524,0,0,0,0,0,0,0,0,0,-1,531,1548,0,0
-686,-524,0,0,0,0,0,0,0,0,0,-1,538,1548,0,0
-679,-524,0,0,0,0,0,0,0,0,0,-1,545,1548,0,0
-672,-524,0,0,0,0,0,0,0,0,0,-1,552,1548,0,0
-665,-524,0,0,0,0,0,0,0,0,0,-1,559,1548,0,0
-658,-524,0,0,0,0,0,0,0,0,0,-1,566,1548,0,0
-651,-524,0,0,0,0,0,0,0,0,0,-1,573,1548,0,0
-644,-524,0,0,0,0,0,0,0,0,0,-1,580,1548,0,0
-637,-524,0,0,0,0,0,0,0,0,0,-1,587,1548,0,0
-630,-524,0,0,0,0,0,0,0,0,0,-1,594,1548,0,0
-623,-524,0,0,0,0,0,0,0,0,0,-1,601,1548,0,0
-616,-524,0,0,0,0,0,0,0,0,0,-1,608,1548,0,0
-609,-524,0,0,0,0,0,0,0,0,0,-1,615,1548,0,0
-602,-524,0,0,0,0,0,0,0,0,0,-1,622,1548,0,0
-595,-524,0,0,0,0,0,0,0,0,0,-1,629,1548,0,0
-588,-524,0,0,0,0,0,0,0,0,0,-1,636,1548,0,0
-581,-524,0,0,0,0,0,0,0,0,0,-1,643,1548,0,0
-574,-524,0,0,0,0,0,0,0,0,0,-1,650,1548,0,0
-567,-524,0,0,0,0,0,0,0,0,0,-1,657,1548,0,0
-560,-524,0,0,0,0,0,0,0,0,0,-1,664,1548,0,0
-553,-524,0,0,0,0,0,0,0,0,0,-1,671,1548,0,0
-546,-524,0,0,0,0,0,0,0,0,0,-1,678,1548,0,0
-539,-524,0,0,0,0,0,0,0,0,0,-1,685,1548,0,0
-532,-524,0,0,0,0,0,0,0,0,0,-1,692,1548,0,0
-525,-524,-0.215515,3.97131,0,0,0,0,0,0,0,-1,699,1548,-0.215501,-3.97136
-518,-524,-0.806274,4.35632,0,0,0,0,0,0,0,-1,706,1548,-0.806259,-4.35633
-511,-524,-1.08301,4.29004,0,0,0,0,0,0,0,-1,713,1548,-1.08301,-4.29006
-504,-524,-1.28821,3.98145,0,0,0,0,0,0,0,-1,720,1548,-1.28822,-3.98151
-497,-524,-0.420349,8.55383,0,0,0,0,0,0,0,-1,727,1548,-0.420322,-8.55384
-490,-524,-0.145386,8.50439,0,0,0,0,0,0,0,-1,734,1548,-0.145407,-8.50436
-483,-524,-1.38239,10.4773,0,0,0,0,0,0,0,-1,741,1548,-1.3824,-10.4773
-476,-524,-1.54437,10.9055,-0.00966928,0.00283758,-0.00252495,0.00332809,-0.0101598,-1.37892,0.00811337,0.0480123,748,1548,-1.54437,-10.9055
-469,-524,-1.49231,11.4838,-0.00813575,0.00316946,-0.00156269,0.00338148,-0.00834778,-1.43594,0.0069713,0.0365616,755,1548,-1.49229,-11.4838
-462,-524,-1.52551,11.8348,-0.00659462,0.00325058,-0.000824816,0.00331921,-0.00666324,-1.48779,0.00587017,0.0282147,762,1548,-1.52553,-11.8349
-455,-524,-1.61548,12.131,-0.00524802,0.00309828,-0.000374279,0.00311503,-0.00526477,-1.52607,0.00489086,0.0209415,769,1548,-1.61546,-12.131
-448,-524,-1.60583,12.5463,-0.00418849,0.00277729,-6.16685e-05,0.00277784,-0.00418903,-1.56194,0.00404974,0.0133895,776,1548,-1.60582,-12.5462
-441,-524,-1.61542,12.9026,-0.00291558,0.00252419,0.00033037,0.00254418,-0.00293557,1.51036,0.00316642,0.0107861,783,1548,-1.6154,-12.9026
-434,-524,-1.60492,13.2418,-0.00149573,0.00233866,0.000837221,0.00251349,-0.00167057,1.36493,0.00243195,0.0128105,790,1548,-1.60492,-13.2419
-427,-524,-1.60187,13.6428,-0.000214058,0.00221439,0.00124669,0.00274045,-0.000740117,1.1715,0.00211724,0.0134618,797,1548,-1.60185,-13.6428
-420,-524,-1.64532,14.0516,0.000866862,0.00238353,0.0016212,0.00341499,-0.000164596,1.00416,0.00233346,0.0113502,804,1548,-1.64531,-14.0516
-413,-524,-1.6438,14.4329,0.00184362,0.00282117,0.00216572,0.00455258,0.000112203,0.896383,0.00299835,0.0105099,811,1548,-1.64378,-14.4328
-406,-524,-1.64612,14.8123,0.00287133,0.00357303,0.00293705,0.00618011,0.000264248,0.844845,0.00403487,0.010928,818,1548,-1.64613,-14.8122
-399,-524,-1.65375,15.1895,0.00385421,0.0047005,0.00366802,0.00796971,0.000585006,0.842824,0.00512927,0.00943279,825,1548,-1.65376,-15.1895
-392,-524,-1.66028,15.5538,0.00489813,0.00650566,0.00422885,0.0100065,0.00139734,0.879311,0.00625742,0.0105267,832,1548,-1.66027,-15.5539
-385,-524,-1.66443,15.9502,0.00603737,0.00781706,0.00450041,0.0115148,0.00233967,0.883002,0.00702766,0.0135315,839,1548,-1.66443,-15.9502
-378,-524,-1.59851,16.5376,0.00697691,0.0090818,0.00449917,0.01265,0.00340873,0.900292,0.0075578,0.0374431,846,1548,-1.59849,-16.5377
-371,-524,-1.35577,17.0687,0,0,0,0,0,0,0,-1,853,1548,-1.35577,-17.0687
-364,-524,-0.712097,14.9871,0,0,0,0,0,0,0,-1,860,1548,-0.712116,-14.9871
-357,-524,-1.34052,14.7448,0,0,0,0,0,0,0,-1,867,1548,-1.34054,-14.7447
-350,-524,-2.63245,12.7522,0,0,0,0,0,0,0,-1,874,1548,-2.63245,-12.7522
-343,-524,-3.11719,14.8851,0,0,0,0,0,0,0,-1,881,1548,-3.11718,-14.8851
-336,-524,-2.3161,17.8035,0,0,0,0,0,0,0,-1,888,1548,-2.31607,-17.8035
-329,-524,-0.442932,18.7251,0,0,0,0,0,0,0,-1,895,1548,-0.442949,-18.7251
-322,-524,-2.88702,18.4606,0,0,0,0,0,0,0,-1,902,1548,-2.88699,-18.4606
-315,-524,-1.90839,19.4824,0,0,0,0,0,0,0,-1,909,1548,-1.90838,-19.4824
-308,-524,-2.36938,19.3059,0,0,0,0,0,0,0,-1,916,1548,-2.3694,-19.3058
-301,-524,2.72394,17.7618,0,0,0,0,0,0,0,-1,923,1548,2.72396,-17.7619
-294,-524,-1.52515,9.05408,0,0,0,0,0,0,0,-1,930,1548,-1.52512,-9.05411
-287,-524,-0.962219,10.3199,0,0,0,0,0,0,0,-1,937,1548,-0.962241,-10.32
-280,-524,-1.36255,10.3859,0,0,0,0,0,0,0,-1,944,1548,-1.36253,-10.3859
-273,-524,0,0,0,0,0,0,0,0,0,-1,951,1548,0,0
-266,-524,0,0,0,0,0,0,0,0,0,-1,958,1548,0,0
-259,-524,0,0,0,0,0,0,0,0,0,-1,965,1548,0,0
-252,-524,0,0,0,0,0,0,0,0,0,-1,972,1548,0,0
-245,-524,0,0,0,0,0,0,0,0,0,-1,979,1548,0,0
-238,-524,0,0,0,0,0,0,0,0,0,-1,986,1548,0,0
-231,-524,0,0,0,0,0,0,0,0,0,-1,993,1548,0,0
-224,-524,0,0,0,0,0,0,0,0,0,-1,1000,1548,0,0
-217,-524,0,0,0,0,0,0,0,0,0,-1,1007,1548,0,0
-210,-524,0,0,0,0,0,0,0,0,0,-1,1014,1548,0,0
-203,-524,0,0,0,0,0,0,0,0,0,-1,1021,1548,0,0
-196,-524,0,0,0,0,0,0,0,0,0,-1,1028,1548,0,0
-189,-524,0,0,0,0,0,0,0,0,0,-1,1035,1548,0,0
-182,-524,0,0,0,0,0,0,0,0,0,-1,1042,1548,0,0
-175,-524,0,0,0,0,0,0,0,0,0,-1,1049,1548,0,0
-168,-524,0,0,0,0,0,0,0,0,0,-1,1056,1548,0,0
-161,-524,0,0,0,0,0,0,0,0,0,-1,1063,1548,0,0
-154,-524,0,0,0,0,0,0,0,0,0,-1,1070,1548,0,0
-147,-524,0,0,0,0,0,0,0,0,0,-1,1077,1548,0,0
-140,-524,0,0,0,0,0,0,0,0,0,-1,1084,1548,0,0
-133,-524,0,0,0,0,0,0,0,0,0,-1,1091,1548,0,0
-126,-524,0,0,0,0,0,0,0,0,0,-1,1098,1548,0,0
-119,-524,0,0,0,0,0,0,0,0,0,-1,1105,1548,0,0
-112,-524,0,0,0,0,0,0,0,0,0,-1,1112,1548,0,0
-105,-524,0,0,0,0,0,0,0,0,0,-1,1119,1548,0,0
-98,-524,0,0,0,0,0,0,0,0,0,-1,1126,1548,0,0
-91,-524,0,0,0,0,0,0,0,0,0,-1,1133,1548,0,0
-84,-524,0,0,0,0,0,0,0,0,0,-1,1140,1548,0,0
-77,-524,0,0,0,0,0,0,0,0,0,-1,1147,1548,0,0
-70,-524,0,0,0,0,0,0,0,0,0,-1,1154,1548,0,0
-63,-524,0,0,0,0,0,0,0,0,0,-1,1161,1548,0,0
-56,-524,0,0,0,0,0,0,0,0,0,-1,1168,1548,0,0
-49,-524,0,0,0,0,0,0,0,0,0,-1,1175,1548,0,0
-42,-524,0,0,0,0,0,0,0,0,0,-1,1182,1548,0,0
-35,-524,0,0,0,0,0,0,0,0,0,-1,1189,1548,0,0
-28,-524,0,0,0,0,0,0,0,0,0,-1,1196,1548,0,0
-21,-524,0,0,0,0,0,0,0,0,0,-1,1203,1548,0,0
-14,-524,0,0,0,0,0,0,0,0,0,-1,1210,1548,0,0
-7,-524,0,0,0,0,0,0,0,0,0,-1,1217,1548,0,0
0,-524,0,0,0,0,0,0,0,0,0,-1,1224,1548,0,0
7,-524,0,0,0,0,0,0,0,0,0,-1,1231,1548,0,0
14,-524,0,0,0,0,0,0,0,0,0,-1,1238,1548,0,0
21,-524,0,0,0,0,0,0,0,0,0,-1,1245,1548,0,0
28,-524,0,0,0,0,0,0,0,0,0,-1,1252,1548,0,0
35,-524,0,0,0,0,0,0,0,0,0,-1,1259,1548,0,0
42,-524,0,0,0,0,0,0,0,0,0,-1,1266,1548,0,0
49,-524,0,0,0,0,0,0,0,0,0,-1,1273,1548,0,0
56,-524,0,0,0,0,0,0,0,0,0,-1,1280,1548,0,0
63,-524,0,0,0,0,0,0,0,0,0,-1,1287,1548,0,0
70,-524,0,0,0,0,0,0,0,0,0,-1,1294,1548,0,0
77,-524,0,0,0,0,0,0,0,0,0,-1,1301,1548,0,0
84,-524,0,0,0,0,0,0,0,0,0,-1,1308,1548,0,0
91,-524,0,0,0,0,0,0,0,0,0,-1,1315,1548,0,0
98,-524,0,0,0,0,0,0,0,0,0,-1,1322,1548,0,0
105,-524,0,0,0,0,0,0,0,0,0,-1,1329,1548,0,0
112,-524,0,0,0,0,0,0,0,0,0,-1,1336,1548,0,0
119,-524,0,0,0,0,0,0,0,0,0,-1,1343,1548,0,0
126,-524,0,0,0,0,0,0,0,0,0,-1,1350,1548,0,0
133,-524,0,0,0,0,0,0,0,0,0,-1,1357,1548,0,0
140,-524,0,0,0,0,0,0,0,0,0,-1,1364,1548,0,0
147,-524,0,0,0,0,0,0,0,0,0,-1,1371,1548,0,0
154,-524,0,0,0,0,0,0,0,0,0,-1,1378,1548,0,0
161,-524,0,0,0,0,0,0,0,0,0,-1,1385,1548,0,0
168,-524,0,0,0,0,0,0,0,0,0,-1,1392,1548,0,0
175,-524,0,0,0,0,0,0,0,0,0,-1,1399,1548,0,0
182,-524,0,0,0,0,0,0,0,0,0,-1,1406,1548,0,0
189,-524,0,0,0,0,0,0,0,0,0,-1,1413,1548,0,0
196,-524,0,0,0,0,0,0,0,0,0,-1,1420,1548,0,0
203,-524,0,0,0,0,0,0,0,0,0,-1,1427,1548,0,0
210,-524,0,0,0,0,0,0,0,0,0,-1,1434,1548,0,0
217,-524,0,0,0,0,0,0,0,0,0,-1,1441,1548,0,0
224,-524,0,0,0,0,0,0,0,0,0,-1,1448,1548,0,0
231,-524,0,0,0,0,0,0,0,0,0,-1,1455,1548,0,0
238,-524,0,0,0,0,0,0,0,0,0,-1,1462,1548,0,0
245,-524,0,0,0,0,0,0,0,0,0,-1,1469,1548,0,0
252,-524,0,0,0,0,0,0,0,0,0,-1,1476,1548,0,0
259,-524,0,0,0,0,0,0,0,0,0,-1,1483,1548,0,0
266,-524,0,0,0,0,0,0,0,0,0,-1,1490,1548,0,0
273,-524,0,0,0,0,0,0,0,0,0,-1,1497,1548,0,0
280,-524,0,0,0,0,0,0,0,0,0,-1,1504,1548,0,0
287,-524,0,0,0,0,0,0,0,0,0,-1,1511,1548,0,0
294,-524,0,0,0,0,0,0,0,0,0,-1,1518,1548,0,0
301,-524,0,0,0,0,0,0,0,0,0,-1,1525,1548,0,0
308,-524,0,0,0,0,0,0,0,0,0,-1,1532,1548,0,0
315,-524,0,0,0,0,0,0,0,0,0,-1,1539,1548,0,0
322,-524,0,0,0,0,0,0,0,0,0,-1,1546,1548,0,0
329,-524,0,0,0,0,0,0,0,0,0,-1,1553,1548,0,0
336,-524,0,0,0,0,0,0,0,0,0,-1,1560,1548,0,0
343,-524,0,0,0,0,0,0,0,0,0,-1,1567,1548,0,0
350,-524,0,0,0,0,0,0,0,0,0,-1,1574,1548,0,0
357,-524,0,0,0,0,0,0,0,0,0,-1,1581,1548,0,0
364,-524,0,0,0,0,0,0,0,0,0,-1,1588,1548,0,0
371,-524,0,0,0,0,0,0,0,0,0,-1,1595,1548,0,0
378,-524,0,0,0,0,0,0,0,0,0,-1,1602,1548,0,0
385,-524,0,0,0,0,0,0,0,0,0,-1,1609,1548,0,0
392,-524,0,0,0,0,0,0,0,0,0,-1,1616,1548,0,0
399,-524,8.81848,5.05774,0,0,0,0,0,0,0,-1,1623,1548,8.81843,-5.05769
406,-524,8.64294,6.06799,0,0,0,0,0,0,0,-1,1630,1548,8.6429,-6.06805
413,-524,11.677,6.41858,0,0,0,0,0,0,0,-1,1637,1548,11.677,-6.41864
420,-524,11.4913,6.36401,0,0,0,0,0,0,0,-1,1644,1548,11.4913,-6.36402
427,-524,7.68335,6.17249,0,0,0,0,0,0,0,-1,1651,1548,7.68341,-6.17245
434,-524,10.432,11.6801,0,0,0,0,0,0,0,-1,1658,1548,10.432,-11.68
441,-524,8.78552,4.12305,0,0,0,0,0,0,0,-1,1665,1548,8.78553,-4.12301
448,-524,14.1854,4.78674,0,0,0,0,0,0,0,-1,1672,1548,14.1854,-4.78674
455,-524,12.4784,3.65576,0,0,0,0,0,0,0,-1,1679,1548,12.4784,-3.65572
462,-524,14.7551,9.29395,0,0,0,0,0,0,0,-1,1686,1548,14.7552,-9.29397
469,-524,16.3314,14.3779,0,0,0,0,0,0,0,-1,1693,1548,16.3314,-14.3779
476,-524,15.9106,15.1875,0,0,0,0,0,0,0,-1,1700,1548,15.9107,-15.1876
483,-524,15.2776,16.2268,0,0,0,0,0,0,0,-1,1707,1548,15.2776,-16.2269
490,-524,14.4736,17.0702,0,0,0,0,0,0,0,-1,1714,1548,14.4736,-17.0702
497,-524,13.9589,17.7306,4.98355e-05,-0.00845287,0.00446339,0.00196256,-0.0103656,0.404862,0.00764897,0.048197,1721,1548,13.9589,-17.7306
504,-524,13.8256,17.786,0.000758953,-0.00535279,0.00286295,0.00189055,-0.00648438,0.376408,0.00507194,0.0340464,1728,1548,13.8255,-17.786
511,-524,13.7922,17.6025,0.00109027,-0.0030636,0.00175695,0.00173373,-0.00370705,0.351065,0.00320937,0.0298911,1735,1548,13.7923,-17.6026
518,-524,13.9083,17.1412,0.00111886,-0.00184602,0.00122171,0.00155742,-0.00228457,0.344639,0.00223137,0.0203364,1742,1548,13.9083,-17.1413
525,-524,13.9135,16.812,0.00101163,-0.00109151,0.000906774,0.0013486,-0.00142848,0.355797,0.00160357,0.0144338,1749,1548,13.9135,-16.812
532,-524,13.9132,16.4531,0.00087796,-0.000637935,0.00070223,0.00115327,-0.000913241,0.373629,0.00119578,0.0100228,1756,1548,13.9132,-16.4531
539,-524,13.9089,16.0857,0.000974635,-0.000247534,0.000458038,0.00112724,-0.00040014,0.321606,0.000914534,0.0108647,1763,1548,13.9089,-16.0856
546,-524,13.8765,15.7528,0.00108225,-0.000372422,0.000355035,0.00116427,-0.000454449,0.227054,0.000964056,0.0152384,1770,1548,13.8765,-15.7528
553,-524,13.874,15.4366,0.0012258,-0.000426812,0.000219336,0.00125441,-0.000455427,0.129729,0.00102247,0.0249181,1777,1548,13.8741,-15.4367
560,-524,13.8958,15.0535,0.00152109,-0.000713086,8.02557e-05,0.00152397,-0.000715965,0.0358603,0.00132097,0.0325091,1784,1548,13.8957,-15.0534
567,-524,13.8707,14.7169,0.00196137,-0.000929835,-0.00014248,0.00196837,-0.000936839,-0.0491218,0.0017122,0.018498,1791,1548,13.8707,-14.7169
574,-524,13.8478,14.3605,0.00255042,-0.000919239,-0.00054527,0.0026341,-0.00100291,-0.152265,0.00216908,0.0131377,1798,1548,13.8478,-14.3605
581,-524,13.8383,13.9878,0.00344257,-0.000803029,-0.00108436,0.00370349,-0.00106395,-0.236132,0.00288968,0.0138949,1805,1548,13.8383,-13.9877
588,-524,13.8967,13.6162,0.00461627,-0.00111145,-0.00159652,0.00503122,-0.00152639,-0.254281,0.00396219,0.0212514,1812,1548,13.8968,-13.6162
595,-524,14.2072,13.3977,0,0,0,0,0,0,0,-1,1819,1548,14.2071,-13.3978
602,-524,13.837,12.0682,0,0,0,0,0,0,0,-1,1826,1548,13.837,-12.0683
609,-524,13.0056,10.5138,0,0,0,0,0,0,0,-1,1833,1548,13.0056,-10.5138
616,-524,11.6941,8.65515,0,0,0,0,0,0,0,-1,1840,1548,11.6941,-8.65514
623,-524,9.38452,5.15356,0,0,0,0,0,0,0,-1,1847,1548,9.38456,-5.15359
630,-524,11.0541,3.57434,0,0,0,0,0,0,0,-1,1854,1548,11.0541,-3.57438
637,-524,11.6067,3.20728,0,0,0,0,0,0,0,-1,1861,1548,11.6067,-3.20724
644,-524,12.2134,0.727173,0,0,0,0,0,0,0,-1,1868,1548,12.2134,-0.727222
651,-524,0,0,0,0,0,0,0,0,0,-1,1875,1548,0,0
658,-524,0,0,0,0,0,0,0,0,0,-1,1882,1548,0,0
665,-524,0,0,0,0,0,0,0,0,0,-1,1889,1548,0,0
672,-524,0,0,0,0,0,0,0,0,0,-1,1896,1548,0,0
679,-524,0,0,0,0,0,0,0,0,0,-1,1903,1548,0,0
686,-524,0,0,0,0,0,0,0,0,0,-1,1910,1548,0,0
693,-524,0,0,0,0,0,0,0,0,0,-1,1917,1548,0,0
700,-524,0,0,0,0,0,0,0,0,0,-1,1924,1548,0,0
707,-524,0,0,0,0,0,0,0,0,0,-1,1931,1548,0,0
714,-524,0,0,0,0,0,0,0,0,0,-1,1938,1548,0,0
721,-524,0,0,0,0,0,0,0,0,0,-1,1945,1548,0,0
728,-524,0,0,0,0,0,0,0,0,0,-1,1952,1548,0,0
735,-524,0,0,0,0,0,0,0,0,0,-1,1959,1548,0,0
742,-524,0,0,0,0,0,0,0,0,0,-1,1966,1548,0,0
749,-524,0,0,0,0,0,0,0,0,0,-1,1973,1548,0,0
756,-524,0,0,0,0,0,0,0,0,0,-1,1980,1548,0,0
763,-524,0,0,0,0,0,0,0,0,0,-1,1987,1548,0,0
770,-524,0,0,0,0,0,0,0,0,0,-1,1994,1548,0,0
777,-524,0,0,0,0,0,0,0,0,0,-1,2001,1548,0,0
784,-524,0,0,0,0,0,0,0,0,0,-1,2008,1548,0,0
791,-524,0,0,0,0,0,0,0,0,0,-1,2015,1548,0,0
798,-524,0,0,0,0,0,0,0,0,0,-1,2022,1548,0,0
805,-524,0,0,0,0,0,0,0,0,0,-1,2029,1548,0,0
812,-524,0,0,0,0,0,0,0,0,0,-1,2036,1548,0,0
-700,-531,0,0,0,0,0,0,0,0,0,-1,524,1555,0,0
-693,-531,0,0,0,0,0,0,0,0,0,-1,531,1555,0,0
-686,-531,0,0,0,0,0,0,0,0,0,-1,538,1555,0,0
-679,-531,0,0,0,0,0,0,0,0,0,-1,545,1555,0,0
-672,-531,0,0,0,0,0,0,0,0,0,-1,552,1555,0,0
-665,-531,0,0,0,0,0,0,0,0,0,-1,559,1555,0,0
-658,-531,0,0,0,0,0,0,0,0,0,-1,566,1555,0,0
-651,-531,0,0,0,0,0,0,0,0,0,-1,573,1555,0,0
-644,-531,0,0,0,0,0,0,0,0,0,-1,580,1555,0,0
-637,-531,0,0,0,0,0,0,0,0,0,-1,587,1555,0,0
-630,-531,0,0,0,0,0,0,0,0,0,-1,594,1555,0,0
-623,-531,0,0,0,0,0,0,0,0,0,-1,601,1555,0,0
-616,-531,0,0,0,0,0,0,0,0,0,-1,608,1555,0,0
-609,-531,0,0,0,0,0,0,0,0,0,-1,615,1555,0,0
-602,-531,0,0,0,0,0,0,0,0,0,-1,622,1555,0,0
-595,-531,0,0,0,0,0,0,0,0,0,-1,629,1555,0,0
-588,-531,0,0,0,0,0,0,0,0,0,-1,636,1555,0,0
-581,-531,0,0,0,0,0,0,0,0,0,-1,643,1555,0,0
-574,-531,0,0,0,0,0,0,0,0,0,-1,650,1555,0,0
-567,-531,0,0,0,0,0,0,0,0,0,-1,657,1555,0,0
-560,-531,0,0,0,0,0,0,0,0,0,-1,664,1555,0,0
-553,-531,0,0,0,0,0,0,0,0,0,-1,671,1555,0,0
-546,-531,0,0,0,0,0,0,0,0,0,-1,678,1555,0,0
-539,-531,0,0,0,0,0,0,0,0,0,-1,685,1555,0,0
-532,-531,0,0,0,0,0,0,0,0,0,-1,692,1555,0,0
-525,-531,0,0,0,0,0,0,0,0,0,-1,699,1555,0,0
-518,-531,-1.63983,4.03821,0,0,0,0,0,0,0,-1,706,1555,-1.63982,-4.03821
-511,-531,-2.9682,8.07483,0,0,0,0,0,0,0,-1,713,1555,-2.9682,-8.07479
-504,-531,-2.95978,0.557861,0,0,0,0,0,0,0,-1,720,1555,-2.95978,-0.557917
-497,-531,-2.46039,8.07422,0,0,0,0,0,0,0,-1,727,1555,-2.46039,-8.07423
-490,-531,-0.423462,7.92065,0,0,0,0,0,0,0,-1,734,1555,-0.42344,-7.92066
-483,-531,-0.657166,8.91162,0,0,0,0,0,0,0,-1,741,1555,-0.65716,-8.9116
-476,-531,-1.16309,10.9215,0,0,0,0,0,0,0,-1,748,1555,-1.16309,-10.9215
-469,-531,-1.40265,11.3939,-0.00934629,0.00675951,-0.000212348,0.0067623,-0.00934909,-1.55761,0.0093418,0.0449047,755,1555,-1.40265,-11.3939
-462,-531,-1.06989,12.0212,-0.00763848,0.00623987,0.000234685,0.00624384,-0.00764245,1.55389,0.0080308,0.041766,762,1555,-1.06989,-12.0213
-455,-531,-1.22534,12.2806,-0.00621261,0.00547704,0.000407042,0.0054912,-0.00622676,1.53603,0.00676981,0.0331302,769,1555,-1.22534,-12.2807
-448,-531,-1.16705,12.5215,-0.00513878,0.00456543,0.000407012,0.00458247,-0.00515582,1.52895,0.00562565,0.015919,776,1555,-1.16703,-12.5215
-441,-531,-1.23517,12.8868,-0.00391855,0.00379965,0.000496175,0.00383142,-0.00395031,1.50686,0.00449296,0.0120097,783,1555,-1.23518,-12.8869
-434,-531,-1.23291,13.2743,-0.00255666,0.00317654,0.000766017,0.00327712,-0.00265724,1.44024,0.00343243,0.0118394,790,1555,-1.23293,-13.2742
-427,-531,-1.24255,13.663,-0.00131063,0.00266333,0.000981536,0.00289254,-0.00153984,1.34138,0.00259846,0.0134575,797,1555,-1.24256,-13.663
-420,-531,-1.25641,14.0619,-0.00026861,0.0025306,0.00116165,0.00294987,-0.000687885,1.22442,0.0022315,0.0121199,804,1555,-1.25643,-14.0619
-413,-531,-1.25684,14.4467,0.000621706,0.00268651,0.0014998,0.00347489,-0.000166675,1.08683,0.0023741,0.0103675,811,1555,-1.25681,-14.4467
-406,-531,-1.2569,14.8204,0.00159739,0.00323599,0.0021212,0.00469062,0.000142764,0.969694,0.00308059,0.0117125,818,1555,-1.2569,-14.8204
-399,-531,-1.26746,15.1925,0.00250863,0.00389653,0.00269653,0.00598697,0.000418187,0.911339,0.00385948,0.0138943,825,1555,-1.26746,-15.1925
-392,-531,-1.29578,15.5613,0.00344991,0.00521792,0.00305465,0.00751391,0.00115392,0.926248,0.00467237,0.0177977,832,1555,-1.29578,-15.5613
-385,-531,-1.31964,15.924,0.00444775,0.00625166,0.00317909,0.00865427,0.00204515,0.923624,0.00522301,0.0149006,839,1555,-1.31967,-15.924
-378,-531,-1.31116,16.2679,0.0052249,0.00719421,0.00311001,0.00947172,0.00294739,0.93871,0.00559697,0.0145567,846,1555,-1.31115,-16.2679
-371,-531,-1.23413,16.7515,0.00607539,0.00825853,0.00278386,0.0101572,0.00417675,0.97224,0.00589499,0.0272445,853,1555,-1.23411,-16.7514
-364,-531,-1.03766,17.4438,0,0,0,0,0,0,0,-1,860,1555,-1.03768,-17.4439
-357,-531,-1.19165,17.5492,0,0,0,0,0,0,0,-1,867,1555,-1.19163,-17.5492
-350,-531,-1.5556,18.2562,0,0,0,0,0,0,0,-1,874,1555,-1.5556,-18.2562
-343,-531,-1.47913,18.7594,0,0,0,0,0,0,0,-1,881,1555,-1.4791,-18.7593
-336,-531,-0.958252,18.3114,0,0,0,0,0,0,0,-1,888,1555,-0.958242,-18.3114
-329,-531,-0.390564,18.3883,0,0,0,0,0,0,0,-1,895,1555,-0.390582,-18.3883
-322,-531,-0.542908,18.327,0,0,0,0,0,0,0,-1,902,1555,-0.542884,-18.327
-315,-531,-1.26715,19.2592,0,0,0,0,0,0,0,-1,909,1555,-1.26717,-19.2592
-308,-531,-1.66455,19.0624,0,0,0,0,0,0,0,-1,916,1555,-1.66455,-19.0623
-301,-531,-2.02405,18.8912,0,0,0,0,0,0,0,-1,923,1555,-2.02407,-18.8913
-294,-531,-1.3244,8.1825,0,0,0,0,0,0,0,-1,930,1555,-1.3244,-8.18251
-287,-531,-1.78192,10.1661,0,0,0,0,0,0,0,-1,937,1555,-1.78192,-10.1661
-280,-531,-2.14508,10.3945,0,0,0,0,0,0,0,-1,944,1555,-2.14506,-10.3945
-273,-531,-2.50818,10.6229,0,0,0,0,0,0,0,-1,951,1555,-2.5082,-10.6229
-266,-531,-4.97742,17.9215,0,0,0,0,0,0,0,-1,958,1555,-4.97744,-17.9215
-259,-531,0,0,0,0,0,0,0,0,0,-1,965,1555,0,0
-252,-531,0,0,0,0,0,0,0,0,0,-1,972,1555,0,0
-245,-531,0,0,0,0,0,0,0,0,0,-1,979,1555,0,0
-238,-531,0,0,0,0,0,0,0,0,0,-1,986,1555,0,0
-231,-531,0,0,0,0,0,0,0,0,0,-1,993,1555,0,0
-224,-531,0,0,0,0,0,0,0,0,0,-1,1000,1555,0,0
-217,-531,0,0,0,0,0,0,0,0,0,-1,1007,1555,0,0
-210,-531,0,0,0,0,0,0,0,0,0,-1,1014,1555,0,0
-203,-531,0,0,0,0,0,0,0,0,0,-1,1021,1555,0,0
-196,-531,0,0,0,0,0,0,0,0,0,-1,1028,1555,0,0
-189,-531,0,0,0,0,0,0,0,0,0,-1,1035,1555,0,0
-182,-531,0,0,0,0,0,0,0,0,0,-1,1042,1555,0,0
-175,-531,0,0,0,0,0,0,0,0,0,-1,1049,1555,0,0
-168,-531,0,0,0,0,0,0,0,0,0,-1,1056,1555,0,0
-161,-531,0,0,0,0,0,0,0,0,0,-1,1063,1555,0,0
-154,-531,0,0,0,0,0,0,0,0,0,-1,1070,1555,0,0
-147,-531,0,0,0,0,0,0,0,0,0,-1,1077,1555,0,0
-140,-531,0,0,0,0,0,0,0,0,0,-1,1084,1555,0,0
-133,-531,0,0,0,0,0,0,0,0,0,-1,1091,1555,0,0
-126,-531,0,0,0,0,0,0,0,0,0,-1,1098,1555,0,0
-119,-531,0,0,0,0,0,0,0,0,0,-1,1105,1555,0,0
-112,-531,0,0,0,0,0,0,0,0,0,-1,1112,1555,0,0
-105,-531,0,0,0,0,0,0,0,0,0,-1,1119,1555,0,0
-98,-531,0,0,0,0,0,0,0,0,0,-1,1126,1555,0,0
-91,-531,0,0,0,0,0,0,0,0,0,-1,1133,1555,0,0
-84,-531,0,0,0,0,0,0,0,0,0,-1,1140,1555,0,0
-77,-531,0,0,0,0,0,0,0,0,0,-1,1147,1555,0,0
-70,-531,0,0,0,0,0,0,0,0,0,-1,1154,1555,0,0
-63,-531,0,0,0,0,0,0,0,0,0,-1,1161,1555,0,0
-56,-531,0,0,0,0,0,0,0,0,0,-1,1168,1555,0,0
-49,-531,0,0,0,0,0,0,0,0,0,-1,1175,1555,0,0
-42,-531,0,0,0,0,0,0,0,0,0,-1,1182,1555,0,0
-35,-531,0,0,0,0,0,0,0,0,0,-1,1189,1555,0,0
-28,-531,0,0,0,0,0,0,0,0,0,-1,1196,1555,0,0
-21,-531,0,0,0,0,0,0,0,0,0,-1,1203,1555,0,0
-14,-531,0,0,0,0,0,0,0,0,0,-1,1210,1555,0,0
-7,-531,0,0,0,0,0,0,0,0,0,-1,1217,1555,0,0
0,-531,0,0,0,0,0,0,0,0,0,-1,1224,1555,0,0
7,-531,0,0,0,0,0,0,0,0,0,-1,1231,1555,0,0
14,-531,0,0,0,0,0,0,0,0,0,-1,1238,1555,0,0
21,-531,0,0,0,0,0,0,0,0,0,-1,1245,1555,0,0
28,-531,0,0,0,0,0,0,0,0,0,-1,1252,1555,0,0
35,-531,0,0,0,0,0,0,0,0,0,-1,1259,1555,0,0
42,-531,0,0,0,0,0,0,0,0,0,-1,1266,1555,0,0
49,-531,0,0,0,0,0,0,0,0,0,-1,1273,1555,0,0
56,-531,0,0,0,0,0,0,0,0,0,-1,1280,1555,0,0
63,-531,0,0,0,0,0,0,0,0,0,-1,1287,1555,0,0
70,-531,0,0,0,0,0,0,0,0,0,-1,1294,1555,0,0
77,-531,0,0,0,0,0,0,0,0,0,-1,1301,1555,0,0
84,-531,0,0,0,0,0,0,0,0,0,-1,1308,1555,0,0
91,-531,0,0,0,0,0,0,0,0,0,-1,1315,1555,0,0
98,-531,0,0,0,0,0,0,0,0,0,-1,1322,1555,0,0
105,-531,0,0,0,0,0,0,0,0,0,-1,1329,1555,0,0
112,-531,0,0,0,0,0,0,0,0,0,-1,1336,1555,0,0
119,-531,0,0,0,0,0,0,0,0,0,-1,1343,1555,0,0
126,-531,0,0,0,0,0,0,0,0,0,-1,1350,1555,0,0
133,-531,0,0,0,0,0,0,0,0,0,-1,1357,1555,0,0
140,-531,0,0,0,0,0,0,0,0,0,-1,1364,1555,0,0
147,-531,0,0,0,0,0,0,0,0,0,-1,1371,1555,0,0
154,-531,0,0,0,0,0,0,0,0,0,-1,1378,1555,0,0
161,-531,0,0,0,0,0,0,0,0,0,-1,1385,1555,0,0
168,-531,0,0,0,0,0,0,0,0,0,-1,1392,1555,0,0
175,-531,0,0,0,0,0,0,0,0,0,-1,1399,1555,0,0
182,-531,0,0,0,0,0,0,0,0,0,-1,1406,1555,0,0
189,-531,0,0,0,0,0,0,0,0,0,-1,1413,1555,0,0
196,-531,0,0,0,0,0,0,0,0,0,-1,1420,1555,0,0
203,-531,0,0,0,0,0,0,0,0,0,-1,1427,1555,0,0
210,-531,0,0,0,0,0,0,0,0,0,-1,1434,1555,0,0
217,-531,0,0,0,0,0,0,0,0,0,-1,1441,1555,0,0
224,-531,0,0,0,0,0,0,0,0,0,-1,1448,1555,0,0
231,-531,0,0,0,0,0,0,0,0,0,-1,1455,1555,0,0
238,-531,0,0,0,0,0,0,0,0,0,-1,1462,1555,0,0
245,-531,0,0,0,0,0,0,0,0,0,-1,1469,1555,0,0
252,-531,0,0,0,0,0,0,0,0,0,-1,1476,1555,0,0
259,-531,0,0,0,0,0,0,0,0,0,-1,1483,1555,0,0
266,-531,0,0,0,0,0,0,0,0,0,-1,1490,1555,0,0
273,-531,0,0,0,0,0,0,0,0,0,-1,1497,1555,0,0
280,-531,0,0,0,0,0,0,0,0,0,-1,1504,1555,0,0
287,-531,0,0,0,0,0,0,0,0,0,-1,1511,1555,0,0
294,-531,0,0,0,0,0,0,0,0,0,-1,1518,1555,0,0
301,-531,0,0,0,0,0,0,0,0,0,-1,1525,1555,0,0
308,-531,0,0,0,0,0,0,0,0,0,-1,1532,1555,0,0
315,-531,0,0,0,0,0,0,0,0,0,-1,1539,1555,0,0
322,-531,0,0,0,0,0,0,0,0,0,-1,1546,1555,0,0
329,-531,0,0,0,0,0,0,0,0,0,-1,1553,1555,0,0
336,-531,0,0,0,0,0,0,0,0,0,-1,1560,1555,0,0
343,-531,0,0,0,0,0,0,0,0,0,-1,1567,1555,0,0
350,-531,0,0,0,0,0,0,0,0,0,-1,1574,1555,0,0
357,-531,0,0,0,0,0,0,0,0,0,-1,1581,1555,0,0
364,-531,0,0,0,0,0,0,0,0,0,-1,1588,1555,0,0
371,-531,0,0,0,0,0,0,0,0,0,-1,1595,1555,0,0
378,-531,0,0,0,0,0,0,0,0,0,-1,1602,1555,0,0
385,-531,3.48169,1.78625,0,0,0,0,0,0,0,-1,1609,1555,3.48165,-1.78624
392,-531,10.8781,9.09204,0,0,0,0,0,0,0,-1,1616,1555,10.8781,-9.09205
399,-531,8.26306,5.29602,0,0,0,0,0,0,0,-1,1623,1555,8.26302,-5.29607
406,-531,8.26147,5.42712,0,0,0,0,0,0,0,-1,1630,1555,8.26145,-5.42716
413,-531,8.20618,5.75012,0,0,0,0,0,0,0,-1,1637,1555,8.20619,-5.75017
420,-531,7.64868,7.09558,0,0,0,0,0,0,0,-1,1644,1555,7.64867,-7.09564
427,-531,9.93054,11.8412,0,0,0,0,0,0,0,-1,1651,1555,9.93059,-11.8412
434,-531,10.244,11.7072,0,0,0,0,0,0,0,-1,1658,1555,10.244,-11.7071
441,-531,11.4528,12.9397,0,0,0,0,0,0,0,-1,1665,1555,11.4528,-12.9397
448,-531,11.928,18.8029,0,0,0,0,0,0,0,-1,1672,1555,11.928,-18.8028
455,-531,14.4877,9.67065,0,0,0,0,0,0,0,-1,1679,1555,14.4876,-9.67066
462,-531,13.5253,12.2002,0,0,0,0,0,0,0,-1,1686,1555,13.5252,-12.2002
469,-531,15.5087,15.7894,0,0,0,0,0,0,0,-1,1693,1555,15.5086,-15.7895
476,-531,14.6582,16.2264,0,0,0,0,0,0,0,-1,1700,1555,14.6582,-16.2264
483,-531,14.0396,17.3761,0,0,0,0,0,0,0,-1,1707,1555,14.0395,-17.3761
490,-531,14.2166,17.7859,0,0,0,0,0,0,0,-1,1714,1555,14.2165,-17.7858
497,-531,13.4293,18.2949,0.00049556,-0.0055516,0.00275575,0.00156297,-0.00661901,0.369544,0.00501551,0.0375515,1721,1555,13.4293,-18.2949
504,-531,13.483,17.8976,0.000998487,-0.00341237,0.00163423,0.00153799,-0.00395187,0.31886,0.00327011,0.0195313,1728,1555,13.4831,-17.8976
511,-531,13.5436,17.5144,0.00119758,-0.00189283,0.000924383,0.00145297,-0.00214822,0.269557,0.00209202,0.0140479,1735,1555,13.5436,-17.5145
518,-531,13.5602,17.1678,0.00113998,-0.00111136,0.000625325,0.001302,-0.00127338,0.253534,0.00148693,0.0145906,1742,1555,13.5601,-17.1679
525,-531,13.5658,16.8282,0.000990634,-0.000664742,0.000484734,0.00112213,-0.000796238,0.2649,0.00111288,0.0138286,1749,1555,13.5658,-16.8283
532,-531,13.5818,16.4637,0.000855287,-0.00043832,0.000409867,0.000974216,-0.000557248,0.282409,0.000895049,0.0104031,1756,1555,13.5818,-16.4637
539,-531,13.5623,16.1155,0.000962873,-0.000271081,0.000285173,0.00102559,-0.000333798,0.216481,0.000818018,0.0121896,1763,1555,13.5623,-16.1155
546,-531,13.4847,15.7673,0.00108435,-0.000595284,0.000302995,0.00113734,-0.000648271,0.173126,0.00104373,0.0163432,1770,1555,13.4847,-15.7673
553,-531,13.4557,15.4882,0.00124655,-0.000923489,0.000317689,0.00129211,-0.000969042,0.142417,0.00130991,0.0310745,1777,1555,13.4557,-15.4881
560,-531,13.446,15.125,0.00158984,-0.00140529,0.000293349,0.0016183,-0.00143375,0.0967175,0.00176318,0.0358826,1784,1555,13.446,-15.125
567,-531,13.4872,14.7352,0.00211822,-0.00178515,0.000153801,0.00212427,-0.0017912,0.0393207,0.00226332,0.0197375,1791,1555,13.4871,-14.7353
574,-531,13.4919,14.3665,0.00283827,-0.00189319,-0.00022387,0.00284884,-0.00190376,-0.0471746,0.00276194,0.0131429,1798,1555,13.492,-14.3664
581,-531,13.5101,13.9777,0.00390572,-0.00187089,-0.000767371,0.00400592,-0.00197109,-0.129842,0.00351685,0.0139758,1805,1555,13.5101,-13.9777
588,-531,13.5483,13.5687,0.00528063,-0.00229232,-0.00121403,0.00547049,-0.00248218,-0.155134,0.00469828,0.0245739,1812,1555,13.5483,-13.5687
595,-531,13.564,13.1265,0,0,0,0,0,0,0,-1,1819,1555,13.564,-13.1265
602,-531,13.701,11.8346,0,0,0,0,0,0,0,-1,1826,1555,13.701,-11.8347
609,-531,10.9072,8.50903,0,0,0,0,0,0,0,-1,1833,1555,10.9073,-8.50902
616,-531,10.5723,7.17859,0,0,0,0,0,0,0,-1,1840,1555,10.5723,-7.17855
623,-531,10.0674,5.08984,0,0,0,0,0,0,0,-1,1847,1555,10.0674,-5.08981
630,-531,11.672,3.18909,0,0,0,0,0,0,0,-1,1854,1555,11.672,-3.18904
637,-531,13.2546,1.38965,0,0,0,0,0,0,0,-1,1861,1555,13.2547,-1.3896
644,-531,0,0,0,0,0,0,0,0,0,-1,1868,1555,0,0
651,-531,0,0,0,0,0,0,0,0,0,-1,1875,1555,0,0
658,-531,0,0,0,0,0,0,0,0,0,-1,1882,1555,0,0
665,-531,0,0,0,0,0,0,0,0,0,-1,1889,1555,0,0
672,-531,0,0,0,0,0,0,0,0,0,-1,1896,1555,0,0
679,-531,0,0,0,0,0,0,0,0,0,-1,1903,1555,0,0
686,-531,0,0,0,0,0,0,0,0,0,-1,1910,1555,0,0
693,-531,0,0,0,0,0,0,0,0,0,-1,1917,1555,0,0
700,-531,0,0,0,0,0,0,0,0,0,-1,1924,1555,0,0
707,-531,0,0,0,0,0,0,0,0,0,-1,1931,1555,0,0
714,-531,0,0,0,0,0,0,0,0,0,-1,1938,1555,0,0
721,-531,0,0,0,0,0,0,0,0,0,-1,1945,1555,0,0
728,-531,0,0,0,0,0,0,0,0,0,-1,1952,1555,0,0
735,-531,0,0,0,0,0,0,0,0,0,-1,1959,1555,0,0
742,-531,0,0,0,0,0,0,0,0,0,-1,1966,1555,0,0
749,-531,0,0,0,0,0,0,0,0,0,-1,1973,1555,0,0
756,-531,0,0,0,0,0,0,0,0,0,-1,1980,1555,0,0
763,-531,0,0,0,0,0,0,0,0,0,-1,1987,1555,0,0
770,-531,0,0,0,0,0,0,0,0,0,-1,1994,1555,0,0
777,-531,0,0,0,0,0,0,0,0,0,-1,2001,1555,0,0
784,-531,0,0,0,0,0,0,0,0,0,-1,2008,1555,0,0
791,-531,0,0,0,0,0,0,0,0,0,-1,2015,1555,0,0
798,-531,0,0,0,0,0,0,0,0,0,-1,2022,1555,0,0
805,-531,0,0,0,0,0,0,0,0,0,-1,2029,1555,0,0
812,-531,0,0,0,0,0,0,0,0,0,-1,2036,1555,0,0
-700,-538,0,0,0,0,0,0,0,0,0,-1,524,1562,0,0
-693,-538,0,0,0,0,0,0,0,0,0,-1,531,1562,0,0
-686,-538,0,0,0,0,0,0,0,0,0,-1,538,1562,0,0
-679,-538,0,0,0,0,0,0,0,0,0,-1,545,1562,0,0
-672,-538,0,0,0,0,0,0,0,0,0,-1,552,1562,0,0
-665,-538,0,0,0,0,0,0,0,0,0,-1,559,1562,0,0
-658,-538,0,0,0,0,0,0,0,0,0,-1,566,1562,0,0
-651,-538,0,0,0,0,0,0,0,0,0,-1,573,1562,0,0
-644,-538,0,0,0,0,0,0,0,0,0,-1,580,1562,0,0
-637,-538,0,0,0,0,0,0,0,0,0,-1,587,1562,0,0
-630,-538,0,0,0,0,0,0,0,0,0,-1,594,1562,0,0
-623,-538,0,0,0,0,0,0,0,0,0,-1,601,1562,0,0
-616,-538,0,0,0,0,0,0,0,0,0,-1,608,1562,0,0
-609,-538,0,0,0,0,0,0,0,0,0,-1,615,1562,0,0
-602,-538,0,0,0,0,0,0,0,0,0,-1,622,1562,0,0
-595,-538,0,0,0,0,0,0,0,0,0,-1,629,1562,0,0
-588,-538,0,0,0,0,0,0,0,0,0,-1,636,1562,0,0
-581,-538,0,0,0,0,0,0,0,0,0,-1,643,1562,0,0
-574,-538,0,0,0,0,0,0,0,0,0,-1,650,1562,0,0
-567,-538,0,0,0,0,0,0,0,0,0,-1,657,1562,0,0
-560,-538,0,0,0,0,0,0,0,0,0,-1,664,1562,0,0
-553,-538,0,0,0,0,0,0,0,0,0,-1,671,1562,0,0
-546,-538,0,0,0,0,0,0,0,0,0,-1,678,1562,0,0
-539,-538,0,0,0,0,0,0,0,0,0,-1,685,1562,0,0
-532,-538,0,0,0,0,0,0,0,0,0,-1,692,1562,0,0
-525,-538,0,0,0,0,0,0,0,0,0,-1,699,1562,0,0
-518,-538,0,0,0,0,0,0,0,0,0,-1,706,1562,0,0
-511,-538,-2.6582,-1.54321,0,0,0,0,0,0,0,-1,713,1562,-2.65821,1.54327
-504,-538,-2.66455,-0.71167,0,0,0,0,0,0,0,-1,720,1562,-2.66456,0.711667
-497,-538,-0.763855,6.77747,0,0,0,0,0,0,0,-1,727,1562,-0.76385,-6.77743
-490,-538,-2.70453,8.01465,0,0,0,0,0,0,0,-1,734,1562,-2.70451,-8.0147
-483,-538,-0.933533,7.84644,0,0,0,0,0,0,0,-1,741,1562,-0.933548,-7.84638
-476,-538,-0.43866,8.38074,0,0,0,0,0,0,0,-1,748,1562,-0.438631,-8.38068
-469,-538,-0.567749,11.8073,0,0,0,0,0,0,0,-1,755,1562,-0.567727,-11.8073
-462,-538,-0.720276,12.1892,-0.00864534,0.0105157,0.00205648,0.010734,-0.00886357,1.46507,0.0113318,0.0447961,762,1562,-0.720278,-12.1892
-455,-538,-0.821716,12.3767,-0.00726758,0.00881698,0.0017037,0.00899546,-0.00744606,1.46642,0.00950656,0.0395102,769,1562,-0.821713,-12.3767
-448,-538,-0.74115,12.5674,-0.00618736,0.00703562,0.00120628,0.00714477,-0.0062965,1.48056,0.00776547,0.0187656,776,1562,-0.741179,-12.5674
-441,-538,-0.822937,12.9636,-0.00502092,0.00555822,0.000865204,0.00562851,-0.00509122,1.48973,0.00619163,0.0195109,783,1562,-0.822937,-12.9637
-434,-538,-0.862305,13.2882,-0.00371932,0.00432119,0.000808853,0.00440175,-0.00379988,1.47152,0.00473946,0.0125833,790,1562,-0.862293,-13.2882
-427,-538,-0.867371,13.6871,-0.00249402,0.00330553,0.000777631,0.00340799,-0.00259648,1.43979,0.00347722,0.0137453,797,1562,-0.867343,-13.6871
-420,-538,-0.890564,14.0464,-0.00146281,0.00279056,0.000742882,0.00291657,-0.00158883,1.40276,0.00263858,0.0175732,804,1562,-0.890586,-14.0463
-413,-538,-0.899109,14.4358,-0.000613765,0.00260865,0.000876755,0.00283175,-0.000836866,1.32162,0.00222,0.0174284,811,1562,-0.899138,-14.4358
-406,-538,-0.888367,14.8245,0.000359856,0.00290237,0.00135802,0.00349131,-0.000229078,1.1616,0.00240753,0.0140462,818,1562,-0.888347,-14.8245
-399,-538,-0.892578,15.2017,0.00125841,0.00308767,0.00181125,0.00420213,0.000143955,1.01921,0.00275469,0.0134444,825,1562,-0.892574,-15.2016
-392,-538,-0.912598,15.5636,0.00216318,0.003945,0.00202425,0.00526572,0.000842466,0.992702,0.00326608,0.0149446,832,1562,-0.912583,-15.5636
-385,-538,-0.927551,15.933,0.0030824,0.00474335,0.00207629,0.00614909,0.00167666,0.975643,0.00367046,0.012682,839,1562,-0.927528,-15.9329
-378,-538,-0.919556,16.3115,0.00378947,0.00543297,0.00201977,0.00679176,0.00243067,0.978598,0.00397367,0.00996864,846,1562,-0.919564,-16.3115
-371,-538,-0.943726,16.6663,0.00452247,0.00618312,0.00173894,0.0072798,0.00342579,1.00814,0.00420542,0.0120453,853,1562,-0.943752,-16.6663
-364,-538,-0.901855,17.0927,0.00537922,0.00681784,0.00130353,0.00758735,0.00460971,1.03752,0.00441421,0.0144561,860,1562,-0.901844,-17.0927
-357,-538,-0.871521,17.4858,0.00653859,0.00776154,0.000683846,0.00806743,0.0062327,1.15019,0.00488299,0.0311558,867,1562,-0.87152,-17.4859
-350,-538,-1.00928,17.8646,0.00758837,0.00844707,-0.000310725,0.00854771,0.00748773,-1.25757,0.00538006,0.0412603,874,1562,-1.00926,-17.8646
-343,-538,-0.973999,18.3696,0.00905658,0.00908181,-0.00139254,0.0104618,0.0076766,-0.789929,0.00625631,0.0484737,881,1562,-0.974019,-18.3696
-336,-538,-0.668701,18.283,0.0111363,0.0103089,-0.00189884,0.012666,0.00877923,-0.678143,0.00749236,0.0441529,888,1562,-0.668671,-18.2829
-329,-538,-0.400635,18.2041,0,0,0,0,0,0,0,-1,895,1562,-0.400636,-18.2041
-322,-538,-0.452515,18.0629,0,0,0,0,0,0,0,-1,902,1562,-0.452539,-18.0628
-315,-538,1.88379,19.6062,0,0,0,0,0,0,0,-1,909,1562,1.88378,-19.6062
-308,-538,-0.564453,18.6516,0,0,0,0,0,0,0,-1,916,1562,-0.564434,-18.6517
-301,-538,-0.452393,18.5101,0,0,0,0,0,0,0,-1,923,1562,-0.452367,-18.5102
-294,-538,1.23138,14.0757,0,0,0,0,0,0,0,-1,930,1562,1.23137,-14.0757
-287,-538,-2.60419,10.2361,0,0,0,0,0,0,0,-1,937,1562,-2.6042,-10.2361
-280,-538,-2.93475,10.5106,0,0,0,0,0,0,0,-1,944,1562,-2.93475,-10.5106
-273,-538,-3.26532,10.785,0,0,0,0,0,0,0,-1,951,1562,-3.26531,-10.785
-266,-538,-5.03412,15.9951,0,0,0,0,0,0,0,-1,958,1562,-5.03409,-15.9951
-259,-538,-5.89642,16.5184,0,0,0,0,0,0,0,-1,965,1562,-5.89644,-16.5184
-252,-538,0,0,0,0,0,0,0,0,0,-1,972,1562,0,0
-245,-538,0,0,0,0,0,0,0,0,0,-1,979,1562,0,0
-238,-538,0,0,0,0,0,0,0,0,0,-1,986,1562,0,0
-231,-538,0,0,0,0,0,0,0,0,0,-1,993,1562,0,0
-224,-538,0,0,0,0,0,0,0,0,0,-1,1000,1562,0,0
-217,-538,0,0,0,0,0,0,0,0,0,-1,1007,1562,0,0
-210,-538,0,0,0,0,0,0,0,0,0,-1,1014,1562,0,0
-203,-538,0,0,0,0,0,0,0,0,0,-1,1021,1562,0,0
-196,-538,0,0,0,0,0,0,0,0,0,-1,1028,1562,0,0
-189,-538,0,0,0,0,0,0,0,0,0,-1,1035,1562,0,0
-182,-538,0,0,0,0,0,0,0,0,0,-1,1042,1562,0,0
-175,-538,0,0,0,0,0,0,0,0,0,-1,1049,1562,0,0
-168,-538,0,0,0,0,0,0,0,0,0,-1,1056,1562,0,0
-161,-538,0,0,0,0,0,0,0,0,0,-1,1063,1562,0,0
-154,-538,0,0,0,0,0,0,0,0,0,-1,1070,1562,0,0
-147,-538,0,0,0,0,0,0,0,0,0,-1,1077,1562,0,0
-140,-538,0,0,0,0,0,0,0,0,0,-1,1084,1562,0,0
-133,-538,0,0,0,0,0,0,0,0,0,-1,1091,1562,0,0
-126,-538,0,0,0,0,0,0,0,0,0,-1,1098,1562,0,0
-119,-538,0,0,0,0,0,0,0,0,0,-1,1105,1562,0,0
-112,-538,0,0,0,0,0,0,0,0,0,-1,1112,1562,0,0
-105,-538,0,0,0,0,0,0,0,0,0,-1,1119,1562,0,0
-98,-538,0,0,0,0,0,0,0,0,0,-1,1126,1562,0,0
-91,-538,0,0,0,0,0,0,0,0,0,-1,1133,1562,0,0
-84,-538,0,0,0,0,0,0,0,0,0,-1,1140,1562,0,0
-77,-538,0,0,0,0,0,0,0,0,0,-1,1147,1562,0,0
-70,-538,0,0,0,0,0,0,0,0,0,-1,1154,1562,0,0
-63,-538,0,0,0,0,0,0,0,0,0,-1,1161,1562,0,0
-56,-538,0,0,0,0,0,0,0,0,0,-1,1168,1562,0,0
-49,-538,0,0,0,0,0,0,0,0,0,-1,1175,1562,0,0
-42,-538,0,0,0,0,0,0,0,0,0,-1,1182,1562,0,0
-35,-538,0,0,0,0,0,0,0,0,0,-1,1189,1562,0,0
-28,-538,0,0,0,0,0,0,0,0,0,-1,1196,1562,0,0
-21,-538,0,0,0,0,0,0,0,0,0,-1,1203,1562,0,0
-14,-538,0,0,0,0,0,0,0,0,0,-1,1210,1562,0,0
-7,-538,0,0,0,0,0,0,0,0,0,-1,1217,1562,0,0
0,-538,0,0,0,0,0,0,0,0,0,-1,1224,1562,0,0
7,-538,0,0,0,0,0,0,0,0,0,-1,1231,1562,0,0
14,-538,0,0,0,0,0,0,0,0,0,-1,1238,1562,0,0
21,-538,0,0,0,0,0,0,0,0,0,-1,1245,1562,0,0
28,-538,0,0,0,0,0,0,0,0,0,-1,1252,1562,0,0
35,-538,0,0,0,0,0,0,0,0,0,-1,1259,1562,0,0
42,-538,0,0,0,0,0,0,0,0,0,-1,1266,1562,0,0
49,-538,0,0,0,0,0,0,0,0,0,-1,1273,1562,0,0
56,-538,0,0,0,0,0,0,0,0,0,-1,1280,1562,0,0
63,-538,0,0,0,0,0,0,0,0,0,-1,1287,1562,0,0
70,-538,0,0,0,0,0,0,0,0,0,-1,1294,1562,0,0
77,-538,0,0,0,0,0,0,0,0,0,-1,1301,1562,0,0
84,-538,0,0,0,0,0,0,0,0,0,-1,1308,1562,0,0
91,-538,0,0,0,0,0,0,0,0,0,-1,1315,1562,0,0
98,-538,0,0,0,0,0,0,0,0,0,-1,1322,1562,0,0
105,-538,0,0,0,0,0,0,0,0,0,-1,1329,1562,0,0
112,-538,0,0,0,0,0,0,0,0,0,-1,1336,1562,0,0
119,-538,0,0,0,0,0,0,0,0,0,-1,1343,1562,0,0
126,-538,0,0,0,0,0,0,0,0,0,-1,1350,1562,0,0
133,-538,0,0,0,0,0,0,0,0,0,-1,1357,1562,0,0
140,-538,0,0,0,0,0,0,0,0,0,-1,1364,1562,0,0
147,-538,0,0,0,0,0,0,0,0,0,-1,1371,1562,0,0
154,-538,0,0,0,0,0,0,0,0,0,-1,1378,1562,0,0
161,-538,0,0,0,0,0,0,0,0,0,-1,1385,1562,0,0
168,-538,0,0,0,0,0,0,0,0,0,-1,1392,1562,0,0
175,-538,0,0,0,0,0,0,0,0,0,-1,1399,1562,0,0
182,-538,0,0,0,0,0,0,0,0,0,-1,1406,1562,0,0
189,-538,0,0,0,0,0,0,0,0,0,-1,1413,1562,0,0
196,-538,0,0,0,0,0,0,0,0,0,-1,1420,1562,0,0
203,-538,0,0,0,0,0,0,0,0,0,-1,1427,1562,0,0
210,-538,0,0,0,0,0,0,0,0,0,-1,1434,1562,0,0
217,-538,0,0,0,0,0,0,0,0,0,-1,1441,1562,0,0
224,-538,0,0,0,0,0,0,0,0,0,-1,1448,1562,0,0
231,-538,0,0,0,0,0,0,0,0,0,-1,1455,1562,0,0
238,-538,0,0,0,0,0,0,0,0,0,-1,1462,1562,0,0
245,-538,0,0,0,0,0,0,0,0,0,-1,1469,1562,0,0
252,-538,0,0,0,0,0,0,0,0,0,-1,1476,1562,0,0
259,-538,0,0,0,0,0,0,0,0,0,-1,1483,1562,0,0
266,-538,0,0,0,0,0,0,0,0,0,-1,1490,1562,0,0
273,-538,0,0,0,0,0,0,0,0,0,-1,1497,1562,0,0
280,-538,0,0,0,0,0,0,0,0,0,-1,1504,1562,0,0
287,-538,0,0,0,0,0,0,0,0,0,-1,1511,1562,0,0
294,-538,0,0,0,0,0,0,0,0,0,-1,1518,1562,0,0
301,-538,0,0,0,0,0,0,0,0,0,-1,1525,1562,0,0
308,-538,0,0,0,0,0,0,0,0,0,-1,1532,1562,0,0
315,-538,0,0,0,0,0,0,0,0,0,-1,1539,1562,0,0
322,-538,0,0,0,0,0,0,0,0,0,-1,1546,1562,0,0
329,-538,0,0,0,0,0,0,0,0,0,-1,1553,1562,0,0
336,-538,0,0,0,0,0,0,0,0,0,-1,1560,1562,0,0
343,-538,0,0,0,0,0,0,0,0,0,-1,1567,1562,0,0
350,-538,0,0,0,0,0,0,0,0,0,-1,1574,1562,0,0
357,-538,0,0,0,0,0,0,0,0,0,-1,1581,1562,0,0
364,-538,0,0,0,0,0,0,0,0,0,-1,1588,1562,0,0
371,-538,0,0,0,0,0,0,0,0,0,-1,1595,1562,0,0
378,-538,9.65479,5.82434,0,0,0,0,0,0,0,-1,1602,1562,9.6548,-5.82439
385,-538,10.5449,7.9502,0,0,0,0,0,0,0,-1,1609,1562,10.5449,-7.95014
392,-538,8.20361,7.07214,0,0,0,0,0,0,0,-1,1616,1562,8.20362,-7.07211
399,-538,7.85425,4.70508,0,0,0,0,0,0,0,-1,1623,1562,7.85425,-4.70512
406,-538,7.77734,4.96094,0,0,0,0,0,0,0,-1,1630,1562,7.77729,-4.96097
413,-538,13.0446,13.1765,0,0,0,0,0,0,0,-1,1637,1562,13.0446,-13.1765
420,-538,9.96216,12.7653,0,0,0,0,0,0,0,-1,1644,1562,9.96221,-12.7653
427,-538,10.1732,14.5863,0,0,0,0,0,0,0,-1,1651,1562,10.1732,-14.5863
434,-538,9.64331,14.7745,0,0,0,0,0,0,0,-1,1658,1562,9.64326,-14.7746
441,-538,11.5039,20.5195,0,0,0,0,0,0,0,-1,1665,1562,11.5039,-20.5195
448,-538,12.0366,18.9662,0,0,0,0,0,0,0,-1,1672,1562,12.0366,-18.9662
455,-538,12.5693,17.4128,0,0,0,0,0,0,0,-1,1679,1562,12.5694,-17.4128
462,-538,12.1389,17.017,0,0,0,0,0,0,0,-1,1686,1562,12.1389,-17.017
469,-538,14.3802,16.6945,0,0,0,0,0,0,0,-1,1693,1562,14.3803,-16.6945
476,-538,13.391,18.8309,0,0,0,0,0,0,0,-1,1700,1562,13.3909,-18.8309
483,-538,13.3026,18.4818,-0.00064871,-0.0063973,0.00331385,0.000863701,-0.00790971,0.428156,0.00558335,0.047637,1707,1562,13.3026,-18.4819
490,-538,13.147,18.4742,0.000323546,-0.00479694,0.0024204,0.00128654,-0.00575993,0.378664,0.00433294,0.0284005,1714,1562,13.147,-18.4743
497,-538,13.1521,18.2391,0.0008038,-0.00354731,0.00162572,0.00134412,-0.00408764,0.320874,0.00326665,0.0194919,1721,1562,13.1521,-18.2391
504,-538,13.217,17.8297,0.00119319,-0.00207017,0.000834488,0.00139419,-0.00227118,0.236375,0.0021363,0.0109728,1728,1562,13.217,-17.8297
511,-538,13.2107,17.5005,0.00130304,-0.00115165,0.000411003,0.00137002,-0.00121863,0.161568,0.00149541,0.00965608,1735,1562,13.2107,-17.5005
518,-538,13.21,17.165,0.00120341,-0.000706111,0.000277464,0.00124291,-0.000745611,0.141411,0.00115998,0.0101907,1742,1562,13.21,-17.1651
525,-538,13.1998,16.8253,0.00103412,-0.000501172,0.000266497,0.00107906,-0.000546115,0.167072,0.000954968,0.0115412,1749,1562,13.1998,-16.8253
532,-538,13.2083,16.4966,0.000901799,-0.000466208,0.000300691,0.000964974,-0.000529383,0.207088,0.0008749,0.0127957,1756,1562,13.2082,-16.4966
539,-538,13.1897,16.1542,0.000990398,-0.000525269,0.000303709,0.00104899,-0.000583861,0.19058,0.000955392,0.0152153,1763,1562,13.1897,-16.1542
546,-538,13.1342,15.7881,0.0010793,-0.00105042,0.000458523,0.00117382,-0.00114494,0.2033,0.00133877,0.0159818,1770,1562,13.1341,-15.7881
553,-538,13.0911,15.4552,0.0012125,-0.00169762,0.000655199,0.00135321,-0.00183833,0.211548,0.00184972,0.0246801,1777,1562,13.091,-15.4552
560,-538,13.0654,15.1782,0.00154426,-0.00242572,0.00078577,0.00169412,-0.00257559,0.188465,0.00248257,0.0297098,1784,1562,13.0654,-15.1782
567,-538,13.1108,14.7742,0.00209341,-0.00302458,0.000770621,0.00220692,-0.00313809,0.146252,0.00310152,0.0212813,1791,1562,13.1109,-14.7742
574,-538,13.1295,14.3776,0.0028764,-0.00332179,0.000457739,0.00291002,-0.00335541,0.0733204,0.00362039,0.016866,1798,1562,13.1296,-14.3776
581,-538,13.1763,13.9792,0.00400801,-0.00347672,-6.73077e-05,0.00400862,-0.00347733,-0.00899169,0.00432564,0.0209581,1805,1562,13.1762,-13.9793
588,-538,13.2085,13.6259,0.0053379,-0.00402417,-0.000436306,0.00535819,-0.00404446,-0.0464693,0.00544626,0.0387546,1812,1562,13.2084,-13.6259
595,-538,13.2726,13.1893,0,0,0,0,0,0,0,-1,1819,1562,13.2726,-13.1893
602,-538,10.314,8.94238,0,0,0,0,0,0,0,-1,1826,1562,10.314,-8.94238
609,-538,10.1046,7.05713,0,0,0,0,0,0,0,-1,1833,1562,10.1046,-7.05719
616,-538,9.92249,5.43506,0,0,0,0,0,0,0,-1,1840,1562,9.92254,-5.43507
623,-538,11.1711,4.31604,0,0,0,0,0,0,0,-1,1847,1562,11.1711,-4.316
630,-538,12.6112,2.61633,0,0,0,0,0,0,0,-1,1854,1562,12.6112,-2.61637
637,-538,0,0,0,0,0,0,0,0,0,-1,1861,1562,0,0
644,-538,0,0,0,0,0,0,0,0,0,-1,1868,1562,0,0
651,-538,0,0,0,0,0,0,0,0,0,-1,1875,1562,0,0
658,-538,0,0,0,0,0,0,0,0,0,-1,1882,1562,0,0
665,-538,0,0,0,0,0,0,0,0,0,-1,1889,1562,0,0
672,-538,0,0,0,0,0,0,0,0,0,-1,1896,1562,0,0
679,-538,0,0,0,0,0,0,0,0,0,-1,1903,1562,0,0
686,-538,0,0,0,0,0,0,0,0,0,-1,1910,1562,0,0
693,-538,0,0,0,0,0,0,0,0,0,-1,1917,1562,0,0
700,-538,0,0,0,0,0,0,0,0,0,-1,1924,1562,0,0
707,-538,0,0,0,0,0,0,0,0,0,-1,1931,1562,0,0
714,-538,0,0,0,0,0,0,0,0,0,-1,1938,1562,0,0
721,-538,0,0,0,0,0,0,0,0,0,-1,1945,1562,0,0
728,-538,0,0,0,0,0,0,0,0,0,-1,1952,1562,0,0
735,-538,0,0,0,0,0,0,0,0,0,-1,1959,1562,0,0
742,-538,0,0,0,0,0,0,0,0,0,-1,1966,1562,0,0
749,-538,0,0,0,0,0,0,0,0,0,-1,1973,1562,0,0
756,-538,0,0,0,0,0,0,0,0,0,-1,1980,1562,0,0
763,-538,0,0,0,0,0,0,0,0,0,-1,1987,1562,0,0
770,-538,0,0,0,0,0,0,0,0,0,-1,1994,1562,0,0
777,-538,0,0,0,0,0,0,0,0,0,-1,2001,1562,0,0
784,-538,0,0,0,0,0,0,0,0,0,-1,2008,1562,0,0
791,-538,0,0,0,0,0,0,0,0,0,-1,2015,1562,0,0
798,-538,0,0,0,0,0,0,0,0,0,-1,2022,1562,0,0
805,-538,0,0,0,0,0,0,0,0,0,-1,2029,1562,0,0
812,-538,0,0,0,0,0,0,0,0,0,-1,2036,1562,0,0
-700,-545,0,0,0,0,0,0,0,0,0,-1,524,1569,0,0
-693,-545,0,0,0,0,0,0,0,0,0,-1,531,1569,0,0
-686,-545,0,0,0,0,0,0,0,0,0,-1,538,1569,0,0
-679,-545,0,0,0,0,0,0,0,0,0,-1,545,1569,0,0
-672,-545,0,0,0,0,0,0,0,0,0,-1,552,1569,0,0
-665,-545,0,0,0,0,0,0,0,0,0,-1,559,1569,0,0
-658,-545,0,0,0,0,0,0,0,0,0,-1,566,1569,0,0
-651,-545,0,0,0,0,0,0,0,0,0,-1,573,1569,0,0
-644,-545,0,0,0,0,0,0,0,0,0,-1,580,1569,0,0
-637,-545,0,0,0,0,0,0,0,0,0,-1,587,1569,0,0
-630,-545,0,0,0,0,0,0,0,0,0,-1,594,1569,0,0
-623,-545,0,0,0,0,0,0,0,0,0,-1,601,1569,0,0
-616,-545,0,0,0,0,0,0,0,0,0,-1,608,1569,0,0
-609,-545,0,0,0,0,0,0,0,0,0,-1,615,1569,0,0
-602,-545,0,0,0,0,0,0,0,0,0,-1,622,1569,0,0
-595,-545,0,0,0,0,0,0,0,0,0,-1,629,1569,0,0
-588,-545,0,0,0,0,0,0,0,0,0,-1,636,1569,0,0
-581,-545,0,0,0,0,0,0,0,0,0,-1,643,1569,0,0
-574,-545,0,0,0,0,0,0,0,0,0,-1,650,1569,0,0
-567,-545,0,0,0,0,0,0,0,0,0,-1,657,1569,0,0
-560,-545,0,0,0,0,0,0,0,0,0,-1,664,1569,0,0
-553,-545,0,0,0,0,0,0,0,0,0,-1,671,1569,0,0
-546,-545,0,0,0,0,0,0,0,0,0,-1,678,1569,0,0
-539,-545,0,0,0,0,0,0,0,0,0,-1,685,1569,0,0
-532,-545,0,0,0,0,0,0,0,0,0,-1,692,1569,0,0
-525,-545,0,0,0,0,0,0,0,0,0,-1,699,1569,0,0
-518,-545,0,0,0,0,0,0,0,0,0,-1,706,1569,0,0
-511,-545,0,0,0,0,0,0,0,0,0,-1,713,1569,0,0
-504,-545,-3.55237,-2.5354,0,0,0,0,0,0,0,-1,720,1569,-3.55236,2.53545
-497,-545,2.26575,5.69214,0,0,0,0,0,0,0,-1,727,1569,2.26573,-5.6922
-490,-545,-2.17334,7.81396,0,0,0,0,0,0,0,-1,734,1569,-2.17334,-7.81399
-483,-545,-1.88336,5.8446,0,0,0,0,0,0,0,-1,741,1569,-1.88334,-5.84466
-476,-545,-1.13147,6.5741,0,0,0,0,0,0,0,-1,748,1569,-1.13149,-6.57405
-469,-545,0.500305,8.22754,0,0,0,0,0,0,0,-1,755,1569,0.500333,-8.22759
-462,-545,-0.330261,12.2292,0,0,0,0,0,0,0,-1,762,1569,-0.330276,-12.2293
-455,-545,-0.138916,11.588,-0.00873025,0.0134128,0.00343632,0.0139338,-0.00925126,1.42032,0.0134766,0.0461518,769,1569,-0.138941,-11.588
-448,-545,-0.229797,12.3624,-0.0075415,0.0103531,0.00230599,0.0106455,-0.00783388,1.44468,0.0107101,0.0305085,776,1569,-0.229807,-12.3624
-441,-545,-0.358643,13.0083,-0.00642533,0.00796503,0.00153325,0.00812658,-0.00658688,1.46582,0.00851031,0.0226389,783,1569,-0.358666,-13.0083
-434,-545,-0.515747,13.3469,-0.005171,0.00589341,0.00113496,0.00600864,-0.00528623,1.46962,0.00652554,0.0188703,790,1569,-0.51576,-13.3469
-427,-545,-0.493591,13.6871,-0.00392696,0.00423877,0.000854468,0.00432722,-0.00401542,1.46764,0.00481774,0.0185265,797,1569,-0.493568,-13.6871
-420,-545,-0.467651,14.0287,-0.00284943,0.00326432,0.000627904,0.00332814,-0.00291325,1.4695,0.00360612,0.0241597,804,1569,-0.467642,-14.0287
-413,-545,-0.483215,14.4218,-0.00197765,0.00270189,0.000584847,0.00277387,-0.00204963,1.44833,0.0027953,0.022835,811,1569,-0.483217,-14.4218
-406,-545,-0.507141,14.8148,-0.000948282,0.00270409,0.000934203,0.00292917,-0.00117336,1.33437,0.00243983,0.0159939,818,1569,-0.507138,-14.8148
-399,-545,-0.522034,15.1951,-2.39317e-06,0.0024369,0.00126864,0.00297708,-0.000542573,1.16825,0.00218811,0.0112396,825,1569,-0.522042,-15.1951
-392,-545,-0.527771,15.5603,0.000929243,0.00287041,0.00134484,0.00355833,0.000241324,1.09797,0.00229601,0.0119024,832,1569,-0.527787,-15.5603
-385,-545,-0.525391,15.9425,0.00183168,0.00347749,0.00132631,0.00421544,0.00109373,1.06306,0.00252592,0.0102378,839,1569,-0.525381,-15.9425
-378,-545,-0.540649,16.328,0.0025489,0.00397728,0.0012671,0.0047176,0.00180857,1.04203,0.0027483,0.0117952,846,1569,-0.54067,-16.328
-371,-545,-0.563843,16.7107,0.00324897,0.00449469,0.00100364,0.00505303,0.00269062,1.06311,0.00291942,0.0148605,853,1569,-0.563835,-16.7107
-364,-545,-0.568054,17.051,0.00401487,0.00493673,0.000631841,0.0052579,0.0036937,1.10052,0.00311754,0.0101958,860,1569,-0.56803,-17.051
-357,-545,-0.515076,17.4655,0.00503635,0.00565429,0.000154661,0.00569084,0.0049998,1.33874,0.00358581,0.0147134,867,1569,-0.515066,-17.4654
-350,-545,-0.482361,17.8274,0.00595619,0.00614424,-0.000542497,0.0066008,0.00549963,-0.871206,0.00408327,0.0214818,874,1569,-0.482366,-17.8274
-343,-545,-0.450928,18.1812,0.00730641,0.00668529,-0.00107157,0.00811151,0.00588019,-0.644351,0.00483855,0.0304153,881,1569,-0.450903,-18.1811
-336,-545,-0.461975,18.2786,0.00911417,0.0080836,-0.000779102,0.00953298,0.0076648,-0.493229,0.00583318,0.0405663,888,1569,-0.461999,-18.2786
-329,-545,-0.71228,18.311,0,0,0,0,0,0,0,-1,895,1569,-0.712301,-18.311
-322,-545,-0.457581,17.886,0,0,0,0,0,0,0,-1,902,1569,-0.457581,-17.886
-315,-545,1.57739,18.9076,0,0,0,0,0,0,0,-1,909,1569,1.57737,-18.9076
-308,-545,1.64972,19.1172,0,0,0,0,0,0,0,-1,916,1569,1.64975,-19.1172
-301,-545,1.52191,17.5009,0,0,0,0,0,0,0,-1,923,1569,1.52192,-17.5008
-294,-545,-2.69287,8.42102,0,0,0,0,0,0,0,-1,930,1569,-2.69287,-8.42097
-287,-545,-3.47784,9.96021,0,0,0,0,0,0,0,-1,937,1569,-3.47785,-9.96021
-280,-545,-3.7879,10.5448,0,0,0,0,0,0,0,-1,944,1569,-3.78793,-10.5448
-273,-545,-5.10333,12.864,0,0,0,0,0,0,0,-1,951,1569,-5.10331,-12.864
-266,-545,-5.78955,13.3704,0,0,0,0,0,0,0,-1,958,1569,-5.78952,-13.3703
-259,-545,-6.32184,13.8101,0,0,0,0,0,0,0,-1,965,1569,-6.32182,-13.81
-252,-545,0.369263,7.54053,0,0,0,0,0,0,0,-1,972,1569,0.369276,-7.54056
-245,-545,-0.236633,6.65564,0,0,0,0,0,0,0,-1,979,1569,-0.236605,-6.65566
-238,-545,0,0,0,0,0,0,0,0,0,-1,986,1569,0,0
-231,-545,0,0,0,0,0,0,0,0,0,-1,993,1569,0,0
-224,-545,0,0,0,0,0,0,0,0,0,-1,1000,1569,0,0
-217,-545,0,0,0,0,0,0,0,0,0,-1,1007,1569,0,0
-210,-545,0,0,0,0,0,0,0,0,0,-1,1014,1569,0,0
-203,-545,0,0,0,0,0,0,0,0,0,-1,1021,1569,0,0
-196,-545,0,0,0,0,0,0,0,0,0,-1,1028,1569,0,0
-189,-545,0,0,0,0,0,0,0,0,0,-1,1035,1569,0,0
-182,-545,0,0,0,0,0,0,0,0,0,-1,1042,1569,0,0
-175,-545,0,0,0,0,0,0,0,0,0,-1,1049,1569,0,0
-168,-545,0,0,0,0,0,0,0,0,0,-1,1056,1569,0,0
-161,-545,0,0,0,0,0,0,0,0,0,-1,1063,1569,0,0
-154,-545,0,0,0,0,0,0,0,0,0,-1,1070,1569,0,0
-147,-545,0,0,0,0,0,0,0,0,0,-1,1077,1569,0,0
-140,-545,0,0,0,0,0,0,0,0,0,-1,1084,1569,0,0
-133,-545,0,0,0,0,0,0,0,0,0,-1,1091,1569,0,0
-126,-545,0,0,0,0,0,0,0,0,0,-1,1098,1569,0,0
-119,-545,0,0,0,0,0,0,0,0,0,-1,1105,1569,0,0
-112,-545,0,0,0,0,0,0,0,0,0,-1,1112,1569,0,0
-105,-545,0,0,0,0,0,0,0,0,0,-1,1119,1569,0,0
-98,-545,0,0,0,0,0,0,0,0,0,-1,1126,1569,0,0
-91,-545,0,0,0,0,0,0,0,0,0,-1,1133,1569,0,0
-84,-545,0,0,0,0,0,0,0,0,0,-1,1140,1569,0,0
-77,-545,0,0,0,0,0,0,0,0,0,-1,1147,1569,0,0
-70,-545,0,0,0,0,0,0,0,0,0,-1,1154,1569,0,0
-63,-545,0,0,0,0,0,0,0,0,0,-1,1161,1569,0,0
-56,-545,0,0,0,0,0,0,0,0,0,-1,1168,1569,0,0
-49,-545,0,0,0,0,0,0,0,0,0,-1,1175,1569,0,0
-42,-545,0,0,0,0,0,0,0,0,0,-1,1182,1569,0,0
-35,-545,0,0,0,0,0,0,0,0,0,-1,1189,1569,0,0
-28,-545,0,0,0,0,0,0,0,0,0,-1,1196,1569,0,0
-21,-545,0,0,0,0,0,0,0,0,0,-1,1203,1569,0,0
-14,-545,0,0,0,0,0,0,0,0,0,-1,1210,1569,0,0
-7,-545,0,0,0,0,0,0,0,0,0,-1,1217,1569,0,0
0,-545,0,0,0,0,0,0,0,0,0,-1,1224,1569,0,0
7,-545,0,0,0,0,0,0,0,0,0,-1,1231,1569,0,0
14,-545,0,0,0,0,0,0,0,0,0,-1,1238,1569,0,0
21,-545,0,0,0,0,0,0,0,0,0,-1,1245,1569,0,0
28,-545,0,0,0,0,0,0,0,0,0,-1,1252,1569,0,0
35,-545,0,0,0,0,0,0,0,0,0,-1,1259,1569,0,0
42,-545,0,0,0,0,0,0,0,0,0,-1,1266,1569,0,0
49,-545,0,0,0,0,0,0,0,0,0,-1,1273,1569,0,0
56,-545,0,0,0,0,0,0,0,0,0,-1,1280,1569,0,0
63,-545,0,0,0,0,0,0,0,0,0,-1,1287,1569,0,0
70,-545,0,0,0,0,0,0,0,0,0,-1,1294,1569,0,0
77,-545,0,0,0,0,0,0,0,0,0,-1,1301,1569,0,0
84,-545,0,0,0,0,0,0,0,0,0,-1,1308,1569,0,0
91,-545,0,0,0,0,0,0,0,0,0,-1,1315,1569,0,0
98,-545,0,0,0,0,0,0,0,0,0,-1,1322,1569,0,0
105,-545,0,0,0,0,0,0,0,0,0,-1,1329,1569,0,0
112,-545,0,0,0,0,0,0,0,0,0,-1,1336,1569,0,0
119,-545,0,0,0,0,0,0,0,0,0,-1,1343,1569,0,0
126,-545,0,0,0,0,0,0,0,0,0,-1,1350,1569,0,0
133,-545,0,0,0,0,0,0,0,0,0,-1,1357,1569,0,0
140,-545,0,0,0,0,0,0,0,0,0,-1,1364,1569,0,0
147,-545,0,0,0,0,0,0,0,0,0,-1,1371,1569,0,0
154,-545,0,0,0,0,0,0,0,0,0,-1,1378,1569,0,0
161,-545,0,0,0,0,0,0,0,0,0,-1,1385,1569,0,0
168,-545,0,0,0,0,0,0,0,0,0,-1,1392,1569,0,0
175,-545,0,0,0,0,0,0,0,0,0,-1,1399,1569,0,0
182,-545,0,0,0,0,0,0,0,0,0,-1,1406,1569,0,0
189,-545,0,0,0,0,0,0,0,0,0,-1,1413,1569,0,0
196,-545,0,0,0,0,0,0,0,0,0,-1,1420,1569,0,0
203,-545,0,0,0,0,0,0,0,0,0,-1,1427,1569,0,0
210,-545,0,0,0,0,0,0,0,0,0,-1,1434,1569,0,0
217,-545,0,0,0,0,0,0,0,0,0,-1,1441,1569,0,0
224,-545,0,0,0,0,0,0,0,0,0,-1,1448,1569,0,0
231,-545,0,0,0,0,0,0,0,0,0,-1,1455,1569,0,0
238,-545,0,0,0,0,0,0,0,0,0,-1,1462,1569,0,0
245,-545,0,0,0,0,0,0,0,0,0,-1,1469,1569,0,0
252,-545,0,0,0,0,0,0,0,0,0,-1,1476,1569,0,0
259,-545,0,0,0,0,0,0,0,0,0,-1,1483,1569,0,0
266,-545,0,0,0,0,0,0,0,0,0,-1,1490,1569,0,0
273,-545,0,0,0,0,0,0,0,0,0,-1,1497,1569,0,0
280,-545,0,0,0,0,0,0,0,0,0,-1,1504,1569,0,0
287,-545,0,0,0,0,0,0,0,0,0,-1,1511,1569,0,0
294,-545,0,0,0,0,0,0,0,0,0,-1,1518,1569,0,0
301,-545,0,0,0,0,0,0,0,0,0,-1,1525,1569,0,0
308,-545,0,0,0,0,0,0,0,0,0,-1,1532,1569,0,0
315,-545,0,0,0,0,0,0,0,0,0,-1,1539,1569,0,0
322,-545,0,0,0,0,0,0,0,0,0,-1,1546,1569,0,0
329,-545,0,0,0,0,0,0,0,0,0,-1,1553,1569,0,0
336,-545,0,0,0,0,0,0,0,0,0,-1,1560,1569,0,0
343,-545,0,0,0,0,0,0,0,0,0,-1,1567,1569,0,0
350,-545,0,0,0,0,0,0,0,0,0,-1,1574,1569,0,0
357,-545,0,0,0,0,0,0,0,0,0,-1,1581,1569,0,0
364,-545,7.19495,4.88098,0,0,0,0,0,0,0,-1,1588,1569,7.19497,-4.88095
371,-545,7.82324,3.84302,0,0,0,0,0,0,0,-1,1595,1569,7.82324,-3.84307
378,-545,7.65674,5.52673,0,0,0,0,0,0,0,-1,1602,1569,7.6567,-5.52667
385,-545,8.58447,1.16125,0,0,0,0,0,0,0,-1,1609,1569,8.5845,-1.1612
392,-545,12.5654,3.89526,0,0,0,0,0,0,0,-1,1616,1569,12.5655,-3.89532
399,-545,11.5869,5.6333,0,0,0,0,0,0,0,-1,1623,1569,11.5869,-5.63326
406,-545,11.234,6.36414,0,0,0,0,0,0,0,-1,1630,1569,11.234,-6.3641
413,-545,12.1521,13.4817,0,0,0,0,0,0,0,-1,1637,1569,12.1521,-13.4817
420,-545,11.1954,13.6047,0,0,0,0,0,0,0,-1,1644,1569,11.1954,-13.6047
427,-545,9.61072,14.9135,0,0,0,0,0,0,0,-1,1651,1569,9.61076,-14.9134
434,-545,13.1598,23.9921,0,0,0,0,0,0,0,-1,1658,1569,13.1598,-23.992
441,-545,11.4506,19.9683,0,0,0,0,0,0,0,-1,1665,1569,11.4506,-19.9683
448,-545,11.3901,19.0835,0,0,0,0,0,0,0,-1,1672,1569,11.3901,-19.0835
455,-545,11.2894,18.7405,0,0,0,0,0,0,0,-1,1679,1569,11.2894,-18.7405
462,-545,11.9757,17.9946,0,0,0,0,0,0,0,-1,1686,1569,11.9757,-17.9946
469,-545,12.7837,17.7919,0,0,0,0,0,0,0,-1,1693,1569,12.7837,-17.7919
476,-545,12.8099,19.418,0,0,0,0,0,0,0,-1,1700,1569,12.8099,-19.418
483,-545,12.9357,18.8594,-0.000203804,-0.00369417,0.00208935,0.00077334,-0.00467132,0.437457,0.00340142,0.0307759,1707,1569,12.9357,-18.8593
490,-545,12.8419,18.5332,0.000591914,-0.00280448,0.00141336,0.00110312,-0.00331568,0.347056,0.00265566,0.0174197,1714,1569,12.8419,-18.5332
497,-545,12.8252,18.1934,0.000985329,-0.00205543,0.000787953,0.00117738,-0.00224748,0.239075,0.00200926,0.0184764,1721,1569,12.8252,-18.1933
504,-545,12.9177,17.8448,0.00131444,-0.00101262,0.000194354,0.00133056,-0.00102875,0.0827548,0.00136585,0.0154512,1728,1569,12.9177,-17.8448
511,-545,12.91,17.5011,0.00138188,-0.00050844,-4.72e-05,0.00138306,-0.000509618,-0.0249486,0.00113086,0.0111681,1735,1569,12.91,-17.5012
518,-545,12.8912,17.1632,0.00128303,-0.000282332,-8.09622e-05,0.00128721,-0.000286509,-0.0515376,0.000967883,0.0123584,1742,1569,12.8913,-17.1632
525,-545,12.8658,16.8373,0.0011231,-0.000244688,8.72672e-07,0.00112311,-0.000244689,0.000638014,0.000842232,0.0135106,1749,1569,12.8658,-16.8373
532,-545,12.8459,16.5111,0.00100209,-0.000369597,0.000142936,0.00101683,-0.000384333,0.102734,0.000835985,0.0133763,1756,1569,12.8459,-16.5111
539,-545,12.8231,16.1714,0.00104927,-0.000676452,0.000315788,0.00110524,-0.000732422,0.175419,0.00106823,0.0152353,1763,1569,12.8231,-16.1713
546,-545,12.7955,15.7952,0.00107343,-0.00144109,0.000676117,0.0012437,-0.00161136,0.246703,0.00165292,0.0161336,1770,1569,12.7955,-15.7952
553,-545,12.8088,15.4133,0.00114031,-0.00250313,0.00115891,0.0014777,-0.00284052,0.283293,0.00253417,0.0229922,1777,1569,12.8089,-15.4134
560,-545,12.8375,15.0575,0.00141043,-0.00361304,0.00157893,0.00186549,-0.00406809,0.2806,0.00350355,0.026533,1784,1569,12.8376,-15.0574
567,-545,12.8405,14.6577,0,0,0,0,0,0,0,-1,1791,1569,12.8404,-14.6578
574,-545,12.908,14.2701,0,0,0,0,0,0,0,-1,1798,1569,12.9079,-14.2702
581,-545,12.9199,13.8964,0,0,0,0,0,0,0,-1,1805,1569,12.9199,-13.8963
588,-545,12.9247,13.6074,0,0,0,0,0,0,0,-1,1812,1569,12.9246,-13.6074
595,-545,10.2859,9.11218,0,0,0,0,0,0,0,-1,1819,1569,10.2858,-9.11215
602,-545,8.82117,6.32214,0,0,0,0,0,0,0,-1,1826,1569,8.82121,-6.32217
609,-545,10.2406,5.22351,0,0,0,0,0,0,0,-1,1833,1569,10.2406,-5.22353
616,-545,11.701,3.93188,0,0,0,0,0,0,0,-1,1840,1569,11.701,-3.93191
623,-545,13.2139,2.32043,0,0,0,0,0,0,0,-1,1847,1569,13.2139,-2.32042
630,-545,0,0,0,0,0,0,0,0,0,-1,1854,1569,0,0
637,-545,0,0,0,0,0,0,0,0,0,-1,1861,1569,0,0
644,-545,0,0,0,0,0,0,0,0,0,-1,1868,1569,0,0
651,-545,0,0,0,0,0,0,0,0,0,-1,1875,1569,0,0
658,-545,0,0,0,0,0,0,0,0,0,-1,1882,1569,0,0
665,-545,0,0,0,0,0,0,0,0,0,-1,1889,1569,0,0
672,-545,0,0,0,0,0,0,0,0,0,-1,1896,1569,0,0
679,-545,0,0,0,0,0,0,0,0,0,-1,1903,1569,0,0
686,-545,0,0,0,0,0,0,0,0,0,-1,1910,1569,0,0
693,-545,0,0,0,0,0,0,0,0,0,-1,1917,1569,0,0
700,-545,0,0,0,0,0,0,0,0,0,-1,1924,1569,0,0
707,-545,0,0,0,0,0,0,0,0,0,-1,1931,1569,0,0
714,-545,0,0,0,0,0,0,0,0,0,-1,1938,1569,0,0
721,-545,0,0,0,0,0,0,0,0,0,-1,1945,1569,0,0
728,-545,0,0,0,0,0,0,0,0,0,-1,1952,1569,0,0
735,-545,0,0,0,0,0,0,0,0,0,-1,1959,1569,0,0
742,-545,0,0,0,0,0,0,0,0,0,-1,1966,1569,0,0
749,-545,0,0,0,0,0,0,0,0,0,-1,1973,1569,0,0
756,-545,0,0,0,0,0,0,0,0,0,-1,1980,1569,0,0
763,-545,0,0,0,0,0,0,0,0,0,-1,1987,1569,0,0
770,-545,0,0,0,0,0,0,0,0,0,-1,1994,1569,0,0
777,-545,0,0,0,0,0,0,0,0,0,-1,2001,1569,0,0
784,-545,0,0,0,0,0,0,0,0,0,-1,2008,1569,0,0
791,-545,0,0,0,0,0,0,0,0,0,-1,2015,1569,0,0
798,-545,0,0,0,0,0,0,0,0,0,-1,2022,1569,0,0
805,-545,0,0,0,0,0,0,0,0,0,-1,2029,1569,0,0
812,-545,0,0,0,0,0,0,0,0,0,-1,2036,1569,0,0
-700,-552,0,0,0,0,0,0,0,0,0,-1,524,1576,0,0
-693,-552,0,0,0,0,0,0,0,0,0,-1,531,1576,0,0
-686,-552,0,0,0,0,0,0,0,0,0,-1,538,1576,0,0
-679,-552,0,0,0,0,0,0,0,0,0,-1,545,1576,0,0
-672,-552,0,0,0,0,0,0,0,0,0,-1,552,1576,0,0
-665,-552,0,0,0,0,0,0,0,0,0,-1,559,1576,0,0
-658,-552,0,0,0,0,0,0,0,0,0,-1,566,1576,0,0
-651,-552,0,0,0,0,0,0,0,0,0,-1,573,1576,0,0
-644,-552,0,0,0,0,0,0,0,0,0,-1,580,1576,0,0
-637,-552,0,0,0,0,0,0,0,0,0,-1,587,1576,0,0
-630,-552,0,0,0,0,0,0,0,0,0,-1,594,1576,0,0
-623,-552,0,0,0,0,0,0,0,0,0,-1,601,1576,0,0
-616,-552,0,0,0,0,0,0,0,0,0,-1,608,1576,0,0
-609,-552,0,0,0,0,0,0,0,0,0,-1,615,1576,0,0
-602,-552,0,0,0,0,0,0,0,0,0,-1,622,1576,0,0
-595,-552,0,0,0,0,0,0,0,0,0,-1,629,1576,0,0
-588,-552,0,0,0,0,0,0,0,0,0,-1,636,1576,0,0
-581,-552,0,0,0,0,0,0,0,0,0,-1,643,1576,0,0
-574,-552,0,0,0,0,0,0,0,0,0,-1,650,1576,0,0
-567,-552,0,0,0,0,0,0,0,0,0,-1,657,1576,0,0
-560,-552,0,0,0,0,0,0,0,0,0,-1,664,1576,0,0
-553,-552,0,0,0,0,0,0,0,0,0,-1,671,1576,0,0
-546,-552,0,0,0,0,0,0,0,0,0,-1,678,1576,0,0
-539,-552,0,0,0,0,0,0,0,0,0,-1,685,1576,0,0
-532,-552,0,0,0,0,0,0,0,0,0,-1,692,1576,0,0
-525,-552,0,0,0,0,0,0,0,0,0,-1,699,1576,0,0
-518,-552,0,0,0,0,0,0,0,0,0,-1,706,1576,0,0
-511,-552,0,0,0,0,0,0,0,0,0,-1,713,1576,0,0
-504,-552,0,0,0,0,0,0,0,0,0,-1,720,1576,0,0
-497,-552,1.51282,3.96924,0,0,0,0,0,0,0,-1,727,1576,1.5128,-3.96924
-490,-552,-3.82312,6.32104,0,0,0,0,0,0,0,-1,734,1576,-3.82314,-6.3211
-483,-552,-3.50586,6.47986,0,0,0,0,0,0,0,-1,741,1576,-3.50587,-6.47983
-476,-552,-1.95129,4.43054,0,0,0,0,0,0,0,-1,748,1576,-1.95128,-4.43054
-469,-552,-1.40491,7.9895,0,0,0,0,0,0,0,-1,755,1576,-1.40491,-7.98947
-462,-552,0.258972,6.98975,0,0,0,0,0,0,0,-1,762,1576,0.258987,-6.98975
-455,-552,0.391357,11.3134,0,0,0,0,0,0,0,-1,769,1576,0.39138,-11.3133
-448,-552,0.278259,11.9368,-0.00913153,0.0145359,0.00362015,0.0150772,-0.00967289,1.42236,0.0144026,0.0465242,776,1576,0.278254,-11.9368
-441,-552,-0.0150146,12.972,-0.00797608,0.0112072,0.00271271,0.0115835,-0.0083523,1.43299,0.0115602,0.0391214,783,1576,-0.0150113,-12.9721
-434,-552,-0.0148926,13.4523,-0.0066556,0.00809825,0.00207603,0.00838481,-0.00694216,1.43363,0.00886208,0.0262744,790,1576,-0.0149214,-13.4523
-427,-552,-0.148987,13.6628,-0.00531532,0.00568188,0.00157158,0.00590206,-0.0055355,1.4316,0.00660461,0.0225183,797,1576,-0.149009,-13.6629
-420,-552,-0.101746,14.075,-0.00412848,0.00420497,0.00118893,0.00437128,-0.00429479,1.43182,0.00500342,0.020429,804,1576,-0.101751,-14.0749
-413,-552,-0.0924683,14.4369,-0.00318338,0.00325485,0.00100018,0.00340665,-0.00333518,1.42017,0.00389247,0.0173747,811,1576,-0.0924641,-14.4369
-406,-552,-0.127991,14.8177,-0.00207057,0.00294623,0.00121635,0.00322559,-0.00234993,1.34504,0.00323223,0.0132905,818,1576,-0.128013,-14.8177
-399,-552,-0.132507,15.2162,-0.001069,0.00226021,0.00141143,0.00277804,-0.00158684,1.21916,0.00255116,0.013675,825,1576,-0.132527,-15.2162
-392,-552,-0.153687,15.5667,-0.000124235,0.00230166,0.00132096,0.00288208,-0.000704656,1.1568,0.00219432,0.0153719,832,1576,-0.15367,-15.5666
-385,-552,-0.162781,15.9434,0.000735833,0.00271711,0.00117694,0.00326483,0.000188112,1.13523,0.00211664,0.0144421,839,1576,-0.162808,-15.9433
-378,-552,-0.182068,16.3156,0.00143446,0.00302933,0.00103968,0.00354218,0.000921612,1.11255,0.00212204,0.0158634,846,1576,-0.182075,-16.3155
-371,-552,-0.201538,16.6769,0.00207621,0.00331984,0.000709109,0.00364115,0.00175489,1.14535,0.00210267,0.0200645,853,1576,-0.201568,-16.6769
-364,-552,-0.202271,17.0294,0.00274904,0.00356295,0.000312443,0.00366906,0.00264293,1.24341,0.00218581,0.0156074,860,1576,-0.202254,-17.0295
-357,-552,-0.1745,17.3969,0.00364681,0.00405635,-0.000100431,0.00407965,0.00362351,-1.3428,0.00258119,0.0106627,867,1576,-0.174479,-17.3968
-350,-552,-0.172302,17.7604,0.00446385,0.00436852,-0.000618226,0.00503624,0.00379612,-0.746925,0.00302993,0.0112096,874,1576,-0.172329,-17.7604
-343,-552,-0.179565,18.1083,0.00570093,0.00478222,-0.000819991,0.00618147,0.00430169,-0.530079,0.00365904,0.0126399,881,1576,-0.179542,-18.1083
-336,-552,-0.1297,18.3981,0.00737511,0.0061743,-1.55146e-05,0.00737531,0.0061741,-0.0129173,0.00456941,0.0216921,888,1576,-0.129675,-18.398
-329,-552,-0.275635,18.6617,0.00933046,0.00716719,0.000807503,0.00959864,0.00689901,0.320647,0.00571583,0.0432672,895,1576,-0.275611,-18.6618
-322,-552,-0.256348,19.212,0,0,0,0,0,0,0,-1,902,1576,-0.256336,-19.212
-315,-552,0.0803833,19.6613,0,0,0,0,0,0,0,-1,909,1576,0.0803771,-19.6613
-308,-552,-0.190491,20.4116,0,0,0,0,0,0,0,-1,916,1576,-0.190461,-20.4116
-301,-552,1.39453,18.4995,0,0,0,0,0,0,0,-1,923,1576,1.3945,-18.4995
-294,-552,0.842163,13.7863,0,0,0,0,0,0,0,-1,930,1576,0.842149,-13.7863
-287,-552,-0.663757,13.3474,0,0,0,0,0,0,0,-1,937,1576,-0.663744,-13.3474
-280,-552,-5.47241,8.96765,0,0,0,0,0,0,0,-1,944,1576,-5.47239,-8.96766
-273,-552,1.64587,10.6685,0,0,0,0,0,0,0,-1,951,1576,1.6459,-10.6685
-266,-552,-1.32678,8.05688,0,0,0,0,0,0,0,-1,958,1576,-1.32677,-8.05683
-259,-552,-5.54321,8.31213,0,0,0,0,0,0,0,-1,965,1576,-5.54324,-8.31214
-252,-552,-1.93445,7.81543,0,0,0,0,0,0,0,-1,972,1576,-1.93445,-7.81546
-245,-552,-2.53613,6.92212,0,0,0,0,0,0,0,-1,979,1576,-2.53614,-6.92216
-238,-552,-6.5365,2.81885,0,0,0,0,0,0,0,-1,986,1576,-6.53649,-2.8188
-231,-552,-4.32239,4.34583,0,0,0,0,0,0,0,-1,993,1576,-4.32239,-4.34587
-224,-552,0,0,0,0,0,0,0,0,0,-1,1000,1576,0,0
-217,-552,0,0,0,0,0,0,0,0,0,-1,1007,1576,0,0
-210,-552,0,0,0,0,0,0,0,0,0,-1,1014,1576,0,0
-203,-552,0,0,0,0,0,0,0,0,0,-1,1021,1576,0,0
-196,-552,0,0,0,0,0,0,0,0,0,-1,1028,1576,0,0
-189,-552,0,0,0,0,0,0,0,0,0,-1,1035,1576,0,0
-182,-552,0,0,0,0,0,0,0,0,0,-1,1042,1576,0,0
-175,-552,0,0,0,0,0,0,0,0,0,-1,1049,1576,0,0
-168,-552,0,0,0,0,0,0,0,0,0,-1,1056,1576,0,0
-161,-552,0,0,0,0,0,0,0,0,0,-1,1063,1576,0,0
-154,-552,0,0,0,0,0,0,0,0,0,-1,1070,1576,0,0
-147,-552,0,0,0,0,0,0,0,0,0,-1,1077,1576,0,0
-140,-552,0,0,0,0,0,0,0,0,0,-1,1084,1576,0,0
-133,-552,0,0,0,0,0,0,0,0,0,-1,1091,1576,0,0
-126,-552,0,0,0,0,0,0,0,0,0,-1,1098,1576,0,0
-119,-552,0,0,0,0,0,0,0,0,0,-1,1105,1576,0,0
-112,-552,0,0,0,0,0,0,0,0,0,-1,1112,1576,0,0
-105,-552,0,0,0,0,0,0,0,0,0,-1,1119,1576,0,0
-98,-552,0,0,0,0,0,0,0,0,0,-1,1126,1576,0,0
-91,-552,0,0,0,0,0,0,0,0,0,-1,1133,1576,0,0
-84,-552,0,0,0,0,0,0,0,0,0,-1,1140,1576,0,0
-77,-552,0,0,0,0,0,0,0,0,0,-1,1147,1576,0,0
-70,-552,0,0,0,0,0,0,0,0,0,-1,1154,1576,0,0
-63,-552,0,0,0,0,0,0,0,0,0,-1,1161,1576,0,0
-56,-552,0,0,0,0,0,0,0,0,0,-1,1168,1576,0,0
-49,-552,0,0,0,0,0,0,0,0,0,-1,1175,1576,0,0
-42,-552,0,0,0,0,0,0,0,0,0,-1,1182,1576,0,0
-35,-552,0,0,0,0,0,0,0,0,0,-1,1189,1576,0,0
-28,-552,0,0,0,0,0,0,0,0,0,-1,1196,1576,0,0
-21,-552,0,0,0,0,0,0,0,0,0,-1,1203,1576,0,0
-14,-552,0,0,0,0,0,0,0,0,0,-1,1210,1576,0,0
-7,-552,0,0,0,0,0,0,0,0,0,-1,1217,1576,0,0
0,-552,0,0,0,0,0,0,0,0,0,-1,1224,1576,0,0
7,-552,0,0,0,0,0,0,0,0,0,-1,1231,1576,0,0
14,-552,0,0,0,0,0,0,0,0,0,-1,1238,1576,0,0
21,-552,0,0,0,0,0,0,0,0,0,-1,1245,1576,0,0
28,-552,0,0,0,0,0,0,0,0,0,-1,1252,1576,0,0
35,-552,0,0,0,0,0,0,0,0,0,-1,1259,1576,0,0
42,-552,0,0,0,0,0,0,0,0,0,-1,1266,1576,0,0
49,-552,0,0,0,0,0,0,0,0,0,-1,1273,1576,0,0
56,-552,0,0,0,0,0,0,0,0,0,-1,1280,1576,0,0
63,-552,0,0,0,0,0,0,0,0,0,-1,1287,1576,0,0
70,-552,0,0,0,0,0,0,0,0,0,-1,1294,1576,0,0
77,-552,0,0,0,0,0,0,0,0,0,-1,1301,1576,0,0
84,-552,0,0,0,0,0,0,0,0,0,-1,1308,1576,0,0
91,-552,0,0,0,0,0,0,0,0,0,-1,1315,1576,0,0
98,-552,0,0,0,0,0,0,0,0,0,-1,1322,1576,0,0
105,-552,0,0,0,0,0,0,0,0,0,-1,1329,1576,0,0
112,-552,0,0,0,0,0,0,0,0,0,-1,1336,1576,0,0
119,-552,0,0,0,0,0,0,0,0,0,-1,1343,1576,0,0
126,-552,0,0,0,0,0,0,0,0,0,-1,1350,1576,0,0
133,-552,0,0,0,0,0,0,0,0,0,-1,1357,1576,0,0
140,-552,0,0,0,0,0,0,0,0,0,-1,1364,1576,0,0
147,-552,0,0,0,0,0,0,0,0,0,-1,1371,1576,0,0
154,-552,0,0,0,0,0,0,0,0,0,-1,1378,1576,0,0
161,-552,0,0,0,0,0,0,0,0,0,-1,1385,1576,0,0
168,-552,0,0,0,0,0,0,0,0,0,-1,1392,1576,0,0
175,-552,0,0,0,0,0,0,0,0,0,-1,1399,1576,0,0
182,-552,0,0,0,0,0,0,0,0,0,-1,1406,1576,0,0
189,-552,0,0,0,0,0,0,0,0,0,-1,1413,1576,0,0
196,-552,0,0,0,0,0,0,0,0,0,-1,1420,1576,0,0
203,-552,0,0,0,0,0,0,0,0,0,-1,1427,1576,0,0
210,-552,0,0,0,0,0,0,0,0,0,-1,1434,1576,0,0
217,-552,0,0,0,0,0,0,0,0,0,-1,1441,1576,0,0
224,-552,0,0,0,0,0,0,0,0,0,-1,1448,1576,0,0
231,-552,0,0,0,0,0,0,0,0,0,-1,1455,1576,0,0
238,-552,0,0,0,0,0,0,0,0,0,-1,1462,1576,0,0
245,-552,0,0,0,0,0,0,0,0,0,-1,1469,1576,0,0
252,-552,0,0,0,0,0,0,0,0,0,-1,1476,1576,0,0
259,-552,0,0,0,0,0,0,0,0,0,-1,1483,1576,0,0
266,-552,0,0,0,0,0,0,0,0,0,-1,1490,1576,0,0
273,-552,0,0,0,0,0,0,0,0,0,-1,1497,1576,0,0
280,-552,0,0,0,0,0,0,0,0,0,-1,1504,1576,0,0
287,-552,0,0,0,0,0,0,0,0,0,-1,1511,1576,0,0
294,-552,0,0,0,0,0,0,0,0,0,-1,1518,1576,0,0
301,-552,0,0,0,0,0,0,0,0,0,-1,1525,1576,0,0
308,-552,0,0,0,0,0,0,0,0,0,-1,1532,1576,0,0
315,-552,0,0,0,0,0,0,0,0,0,-1,1539,1576,0,0
322,-552,0,0,0,0,0,0,0,0,0,-1,1546,1576,0,0
329,-552,0,0,0,0,0,0,0,0,0,-1,1553,1576,0,0
336,-552,0,0,0,0,0,0,0,0,0,-1,1560,1576,0,0
343,-552,0,0,0,0,0,0,0,0,0,-1,1567,1576,0,0
350,-552,4.97876,4.09888,0,0,0,0,0,0,0,-1,1574,1576,4.97875,-4.09883
357,-552,5.18469,4.10706,0,0,0,0,0,0,0,-1,1581,1576,5.1847,-4.10702
364,-552,5.80872,5.07031,0,0,0,0,0,0,0,-1,1588,1576,5.80874,-5.07037
371,-552,7.10657,5.64783,0,0,0,0,0,0,0,-1,1595,1576,7.10651,-5.64786
378,-552,6.44446,4.91492,0,0,0,0,0,0,0,-1,1602,1576,6.44448,-4.91496
385,-552,12.8276,3.16504,0,0,0,0,0,0,0,-1,1609,1576,12.8276,-3.16503
392,-552,12.1301,4.3363,0,0,0,0,0,0,0,-1,1616,1576,12.1302,-4.33631
399,-552,11.3486,5.6012,0,0,0,0,0,0,0,-1,1623,1576,11.3486,-5.60115
406,-552,10.7863,6.42542,0,0,0,0,0,0,0,-1,1630,1576,10.7863,-6.42536
413,-552,8.39307,10.365,0,0,0,0,0,0,0,-1,1637,1576,8.3931,-10.365
420,-552,10.2306,12.7225,0,0,0,0,0,0,0,-1,1644,1576,10.2305,-12.7226
427,-552,9.73267,14.783,0,0,0,0,0,0,0,-1,1651,1576,9.73269,-14.783
434,-552,12.0377,20.1364,0,0,0,0,0,0,0,-1,1658,1576,12.0377,-20.1364
441,-552,11.4086,19.4784,0,0,0,0,0,0,0,-1,1665,1576,11.4085,-19.4783
448,-552,11.5298,19.1862,0,0,0,0,0,0,0,-1,1672,1576,11.5298,-19.1862
455,-552,11.5428,18.8829,0,0,0,0,0,0,0,-1,1679,1576,11.5428,-18.883
462,-552,11.7712,18.6907,0,0,0,0,0,0,0,-1,1686,1576,11.7713,-18.6907
469,-552,12.2555,19.9003,0,0,0,0,0,0,0,-1,1693,1576,12.2555,-19.9003
476,-552,12.4817,19.2379,-0.00129305,-0.00231775,0.00254859,0.000794179,-0.00440498,0.686204,0.00323405,0.0332028,1700,1576,12.4817,-19.238
483,-552,12.5824,18.795,-0.000172129,-0.00188909,0.00147765,0.000678319,-0.00273954,0.522241,0.0020895,0.0222359,1707,1576,12.5823,-18.795
490,-552,12.5468,18.4851,0.000487727,-0.00142922,0.000930309,0.000864973,-0.00180646,0.385244,0.00157396,0.0139168,1714,1576,12.5468,-18.4851
497,-552,12.5564,18.1609,0.000867858,-0.000980649,0.000369583,0.000939012,-0.0010518,0.190198,0.00115001,0.0203576,1721,1576,12.5564,-18.1609
504,-552,12.5796,17.8523,0.00120803,-0.00022889,-0.00014217,0.00122197,-0.000242822,-0.0976785,0.000906491,0.0222614,1728,1576,12.5796,-17.8523
511,-552,12.5759,17.5006,0.00130728,-5.11056e-06,-0.000313778,0.00137845,-7.62723e-05,-0.223018,0.000945414,0.0158156,1735,1576,12.5759,-17.5006
518,-552,12.5443,17.1616,0.00129413,9.7646e-05,-0.000351042,0.00138952,2.257e-06,-0.265324,0.000925597,0.0138328,1742,1576,12.5443,-17.1616
525,-552,12.5236,16.843,0.00123599,4.65088e-05,-0.000275001,0.0012965,-1.39922e-05,-0.216553,0.000869032,0.0138739,1749,1576,12.5235,-16.8431
532,-552,12.5165,16.4958,0.00122131,-0.000180836,-0.000111522,0.00123012,-0.000189651,-0.0788761,0.00089006,0.0139195,1756,1576,12.5165,-16.4958
539,-552,12.4915,16.1387,0.00130862,-0.000709196,0.000171013,0.00132301,-0.000723587,0.0839533,0.00119838,0.01636,1763,1576,12.4915,-16.1387
546,-552,12.4945,15.8109,0.00135312,-0.00169232,0.000690146,0.00150221,-0.00184142,0.212769,0.00193376,0.0195316,1770,1576,12.4945,-15.8109
553,-552,12.5414,15.4047,0.00144169,-0.00318403,0.00144694,0.001857,-0.00359935,0.279518,0.00320332,0.0233471,1777,1576,12.5414,-15.4047
560,-552,12.5261,15.1313,0.00172604,-0.00474781,0.00219368,0.00239935,-0.00542112,0.297803,0.00462614,0.0486541,1784,1576,12.5261,-15.1314
567,-552,12.5651,14.5201,0,0,0,0,0,0,0,-1,1791,1576,12.565,-14.5201
574,-552,11.9689,13.4098,0,0,0,0,0,0,0,-1,1798,1576,11.9689,-13.4097
581,-552,9.74841,9.98645,0,0,0,0,0,0,0,-1,1805,1576,9.74847,-9.9864
588,-552,10.5619,9.34924,0,0,0,0,0,0,0,-1,1812,1576,10.5619,-9.34921
595,-552,5.36194,6.62744,0,0,0,0,0,0,0,-1,1819,1576,5.36193,-6.62742
602,-552,10.6863,4.31616,0,0,0,0,0,0,0,-1,1826,1576,10.6862,-4.31619
609,-552,12.146,3.18286,0,0,0,0,0,0,0,-1,1833,1576,12.1459,-3.18281
616,-552,13.8762,2.08167,0,0,0,0,0,0,0,-1,1840,1576,13.8763,-2.08167
623,-552,0,0,0,0,0,0,0,0,0,-1,1847,1576,0,0
630,-552,0,0,0,0,0,0,0,0,0,-1,1854,1576,0,0
637,-552,0,0,0,0,0,0,0,0,0,-1,1861,1576,0,0
644,-552,0,0,0,0,0,0,0,0,0,-1,1868,1576,0,0
651,-552,0,0,0,0,0,0,0,0,0,-1,1875,1576,0,0
658,-552,0,0,0,0,0,0,0,0,0,-1,1882,1576,0,0
665,-552,0,0,0,0,0,0,0,0,0,-1,1889,1576,0,0
672,-552,0,0,0,0,0,0,0,0,0,-1,1896,1576,0,0
679,-552,0,0,0,0,0,0,0,0,0,-1,1903,1576,0,0
686,-552,0,0,0,0,0,0,0,0,0,-1,1910,1576,0,0
693,-552,0,0,0,0,0,0,0,0,0,-1,1917,1576,0,0
700,-552,0,0,0,0,0,0,0,0,0,-1,1924,1576,0,0
707,-552,0,0,0,0,0,0,0,0,0,-1,1931,1576,0,0
714,-552,0,0,0,0,0,0,0,0,0,-1,1938,1576,0,0
721,-552,0,0,0,0,0,0,0,0,0,-1,1945,1576,0,0
728,-552,0,0,0,0,0,0,0,0,0,-1,1952,1576,0,0
735,-552,0,0,0,0,0,0,0,0,0,-1,1959,1576,0,0
742,-552,0,0,0,0,0,0,0,0,0,-1,1966,1576,0,0
749,-552,0,0,0,0,0,0,0,0,0,-1,1973,1576,0,0
756,-552,0,0,0,0,0,0,0,0,0,-1,1980,1576,0,0
763,-552,0,0,0,0,0,0,0,0,0,-1,1987,1576,0,0
770,-552,0,0,0,0,0,0,0,0,0,-1,1994,1576,0,0
777,-552,0,0,0,0,0,0,0,0,0,-1,2001,1576,0,0
784,-552,0,0,0,0,0,0,0,0,0,-1,2008,1576,0,0
791,-552,0,0,0,0,0,0,0,0,0,-1,2015,1576,0,0
798,-552,0,0,0,0,0,0,0,0,0,-1,2022,1576,0,0
805,-552,0,0,0,0,0,0,0,0,0,-1,2029,1576,0,0
812,-552,0,0,0,0,0,0,0,0,0,-1,2036,1576,0,0
-700,-559,0,0,0,0,0,0,0,0,0,-1,524,1583,0,0
-693,-559,0,0,0,0,0,0,0,0,0,-1,531,1583,0,0
-686,-559,0,0,0,0,0,0,0,0,0,-1,538,1583,0,0
-679,-559,0,0,0,0,0,0,0,0,0,-1,545,1583,0,0
-672,-559,0,0,0,0,0,0,0,0,0,-1,552,1583,0,0
-665,-559,0,0,0,0,0,0,0,0,0,-1,559,1583,0,0
-658,-559,0,0,0,0,0,0,0,0,0,-1,566,1583,0,0
-651,-559,0,0,0,0,0,0,0,0,0,-1,573,1583,0,0
-644,-559,0,0,0,0,0,0,0,0,0,-1,580,1583,0,0
-637,-559,0,0,0,0,0,0,0,0,0,-1,587,1583,0,0
-630,-559,0,0,0,0,0,0,0,0,0,-1,594,1583,0,0
-623,-559,0,0,0,0,0,0,0,0,0,-1,601,1583,0,0
-616,-559,0,0,0,0,0,0,0,0,0,-1,608,1583,0,0
-609,-559,0,0,0,0,0,0,0,0,0,-1,615,1583,0,0
-602,-559,0,0,0,0,0,0,0,0,0,-1,622,1583,0,0
-595,-559,0,0,0,0,0,0,0,0,0,-1,629,1583,0,0
-588,-559,0,0,0,0,0,0,0,0,0,-1,636,1583,0,0
-581,-559,0,0,0,0,0,0,0,0,0,-1,643,1583,0,0
-574,-559,0,0,0,0,0,0,0,0,0,-1,650,1583,0,0
-567,-559,0,0,0,0,0,0,0,0,0,-1,657,1583,0,0
-560,-559,0,0,0,0,0,0,0,0,0,-1,664,1583,0,0
-553,-559,0,0,0,0,0,0,0,0,0,-1,671,1583,0,0
-546,-559,0,0,0,0,0,0,0,0,0,-1,678,1583,0,0
-539,-559,0,0,0,0,0,0,0,0,0,-1,685,1583,0,0
-532,-559,0,0,0,0,0,0,0,0,0,-1,692,1583,0,0
-525,-559,0,0,0,0,0,0,0,0,0,-1,699,1583,0,0
-518,-559,0,0,0,0,0,0,0,0,0,-1,706,1583,0,0
-511,-559,0,0,0,0,0,0,0,0,0,-1,713,1583,0,0
-504,-559,0,0,0,0,0,0,0,0,0,-1,720,1583,0,0
-497,-559,0,0,0,0,0,0,0,0,0,-1,727,1583,0,0
-490,-559,-5.49835,4.47424,0,0,0,0,0,0,0,-1,734,1583,-5.49833,-4.4743
-483,-559,-5.24078,4.74561,0,0,0,0,0,0,0,-1,741,1583,-5.24079,-4.74563
-476,-559,-4.98022,4.99316,0,0,0,0,0,0,0,-1,748,1583,-4.98024,-4.99321
-469,-559,-4.6424,5.38062,0,0,0,0,0,0,0,-1,755,1583,-4.64237,-5.38058
-462,-559,-0.161865,6.49438,0,0,0,0,0,0,0,-1,762,1583,-0.161835,-6.49444
-455,-559,1.08826,7.02527,0,0,0,0,0,0,0,-1,769,1583,1.08823,-7.02529
-448,-559,0.652771,11.646,0,0,0,0,0,0,0,-1,776,1583,0.652798,-11.646
-441,-559,0.754761,13.2521,0,0,0,0,0,0,0,-1,783,1583,0.754784,-13.2521
-434,-559,0.511108,13.4692,-0.00843484,0.010802,0.00331775,0.0113581,-0.00899097,1.40472,0.011775,0.0399665,790,1583,0.511138,-13.4692
-427,-559,0.343445,13.7952,-0.00693167,0.00745455,0.00247058,0.007867,-0.00734412,1.40538,0.00878387,0.0301099,797,1583,0.343431,-13.7951
-420,-559,0.196472,14.0942,-0.00558837,0.0053777,0.00185781,0.00568389,-0.00589456,1.40745,0.00668519,0.0323932,804,1583,0.196488,-14.0943
-413,-559,0.230408,14.4587,-0.00453201,0.00398497,0.00148117,0.00423521,-0.00478225,1.40343,0.00520942,0.0141577,811,1583,0.230422,-14.4587
-406,-559,0.227539,14.8527,-0.00330589,0.00330724,0.0015409,0.00364865,-0.0036473,1.35275,0.00421232,0.0097137,818,1583,0.227511,-14.8527
-399,-559,0.234558,15.225,-0.00221536,0.00222618,0.00161336,0.00275036,-0.00273954,1.25666,0.0031696,0.0124408,825,1583,0.234583,-15.225
-392,-559,0.212646,15.5643,-0.00121456,0.00192014,0.0014168,0.00246558,-0.00176001,1.2033,0.00245096,0.0157374,832,1583,0.212663,-15.5643
-385,-559,0.195374,15.9417,-0.00034505,0.0021833,0.00122453,0.00267913,-0.000840881,1.18606,0.00212265,0.016849,839,1583,0.195377,-15.9416
-378,-559,0.187134,16.3071,0.000392679,0.00237067,0.00108881,0.0028526,-8.92511e-05,1.1541,0.00193217,0.0152473,846,1583,0.187125,-16.3071
-371,-559,0.160034,16.6332,0.00104653,0.00251291,0.000766561,0.00284046,0.000718976,1.16697,0.00170528,0.0221342,853,1583,0.160061,-16.6331
-364,-559,0.169983,16.9863,0.00169932,0.00263495,0.000395623,0.00277981,0.00155446,1.21981,0.00160867,0.0199013,860,1583,0.169983,-16.9864
-357,-559,0.18512,17.399,0.00253889,0.0029943,4.81701e-05,0.00299934,0.00253385,1.46656,0.00186388,0.0121237,867,1583,0.18512,-17.399
-350,-559,0.167053,17.7277,0.00333289,0.00322141,-0.000329451,0.00361128,0.00294302,-0.701596,0.00221857,0.0102111,874,1583,0.16703,-17.7276
-343,-559,0.160095,18.0859,0.00451457,0.00359035,-0.000326719,0.0046184,0.00348652,-0.30771,0.00277955,0.0110108,881,1583,0.160089,-18.086
-336,-559,0.144043,18.4156,0.0060376,0.00481049,0.000555977,0.00625203,0.00459606,0.368104,0.00374029,0.0156828,888,1583,0.144047,-18.4156
-329,-559,0.206665,18.8922,0.00775613,0.00578811,0.00145462,0.00852831,0.00501593,0.488019,0.00494926,0.0260069,895,1583,0.206643,-18.8922
-322,-559,0.448914,19.4895,0,0,0,0,0,0,0,-1,902,1583,0.448926,-19.4895
-315,-559,0.173645,19.5396,0.0126229,0.00895503,0.0049419,0.0160602,0.00551774,0.607727,0.0094224,0.0466578,909,1583,0.173653,-19.5395
-308,-559,0.213135,20.1292,0.0160192,0.0115323,0.00800215,0.0220864,0.00546508,0.648728,0.0132828,0.0487127,916,1583,0.213131,-20.1292
-301,-559,0.496582,20.6752,0,0,0,0,0,0,0,-1,923,1583,0.496586,-20.6751
-294,-559,0.945129,18.5165,0,0,0,0,0,0,0,-1,930,1583,0.945117,-18.5165
-287,-559,-0.11792,15.4912,0,0,0,0,0,0,0,-1,937,1583,-0.117939,-15.4912
-280,-559,0.191467,13.5093,0,0,0,0,0,0,0,-1,944,1583,0.191441,-13.5093
-273,-559,2.12836,10.3059,0,0,0,0,0,0,0,-1,951,1583,2.12839,-10.3059
-266,-559,-0.597046,6.68933,0,0,0,0,0,0,0,-1,958,1583,-0.597031,-6.68937
-259,-559,-7.00311,8.62756,0,0,0,0,0,0,0,-1,965,1583,-7.00312,-8.6275
-252,-559,-9.4483,2.87805,0,0,0,0,0,0,0,-1,972,1583,-9.44829,-2.87805
-245,-559,-4.80804,7.1803,0,0,0,0,0,0,0,-1,979,1583,-4.80804,-7.18027
-238,-559,-8.45764,2.54858,0,0,0,0,0,0,0,-1,986,1583,-8.45763,-2.54862
-231,-559,-5.86914,4.34021,0,0,0,0,0,0,0,-1,993,1583,-5.86914,-4.34019
-224,-559,-3.30505,6.22864,0,0,0,0,0,0,0,-1,1000,1583,-3.30505,-6.22859
-217,-559,0,0,0,0,0,0,0,0,0,-1,1007,1583,0,0
-210,-559,0,0,0,0,0,0,0,0,0,-1,1014,1583,0,0
-203,-559,0,0,0,0,0,0,0,0,0,-1,1021,1583,0,0
-196,-559,0,0,0,0,0,0,0,0,0,-1,1028,1583,0,0
-189,-559,0,0,0,0,0,0,0,0,0,-1,1035,1583,0,0
-182,-559,0,0,0,0,0,0,0,0,0,-1,1042,1583,0,0
-175,-559,0,0,0,0,0,0,0,0,0,-1,1049,1583,0,0
-168,-559,0,0,0,0,0,0,0,0,0,-1,1056,1583,0,0
-161,-559,0,0,0,0,0,0,0,0,0,-1,1063,1583,0,0
-154,-559,0,0,0,0,0,0,0,0,0,-1,1070,1583,0,0
-147,-559,0,0,0,0,0,0,0,0,0,-1,1077,1583,0,0
-140,-559,0,0,0,0,0,0,0,0,0,-1,1084,1583,0,0
-133,-559,0,0,0,0,0,0,0,0,0,-1,1091,1583,0,0
-126,-559,0,0,0,0,0,0,0,0,0,-1,1098,1583,0,0
-119,-559,0,0,0,0,0,0,0,0,0,-1,1105,1583,0,0
-112,-559,0,0,0,0,0,0,0,0,0,-1,1112,1583,0,0
-105,-559,0,0,0,0,0,0,0,0,0,-1,1119,1583,0,0
-98,-559,0,0,0,0,0,0,0,0,0,-1,1126,1583,0,0
-91,-559,0,0,0,0,0,0,0,0,0,-1,1133,1583,0,0
-84,-559,0,0,0,0,0,0,0,0,0,-1,1140,1583,0,0
-77,-559,0,0,0,0,0,0,0,0,0,-1,1147,1583,0,0
-70,-559,0,0,0,0,0,0,0,0,0,-1,1154,1583,0,0
-63,-559,0,0,0,0,0,0,0,0,0,-1,1161,1583,0,0
-56,-559,0,0,0,0,0,0,0,0,0,-1,1168,1583,0,0
-49,-559,0,0,0,0,0,0,0,0,0,-1,1175,1583,0,0
-42,-559,0,0,0,0,0,0,0,0,0,-1,1182,1583,0,0
-35,-559,0,0,0,0,0,0,0,0,0,-1,1189,1583,0,0
-28,-559,0,0,0,0,0,0,0,0,0,-1,1196,1583,0,0
-21,-559,0,0,0,0,0,0,0,0,0,-1,1203,1583,0,0
-14,-559,0,0,0,0,0,0,0,0,0,-1,1210,1583,0,0
-7,-559,0,0,0,0,0,0,0,0,0,-1,1217,1583,0,0
0,-559,0,0,0,0,0,0,0,0,0,-1,1224,1583,0,0
7,-559,0,0,0,0,0,0,0,0,0,-1,1231,1583,0,0
14,-559,0,0,0,0,0,0,0,0,0,-1,1238,1583,0,0
21,-559,0,0,0,0,0,0,0,0,0,-1,1245,1583,0,0
28,-559,0,0,0,0,0,0,0,0,0,-1,1252,1583,0,0
35,-559,0,0,0,0,0,0,0,0,0,-1,1259,1583,0,0
42,-559,0,0,0,0,0,0,0,0,0,-1,1266,1583,0,0
49,-559,0,0,0,0,0,0,0,0,0,-1,1273,1583,0,0
56,-559,0,0,0,0,0,0,0,0,0,-1,1280,1583,0,0
63,-559,0,0,0,0,0,0,0,0,0,-1,1287,1583,0,0
70,-559,0,0,0,0,0,0,0,0,0,-1,1294,1583,0,0
77,-559,0,0,0,0,0,0,0,0,0,-1,1301,1583,0,0
84,-559,0,0,0,0,0,0,0,0,0,-1,1308,1583,0,0
91,-559,0,0,0,0,0,0,0,0,0,-1,1315,1583,0,0
98,-559,0,0,0,0,0,0,0,0,0,-1,1322,1583,0,0
105,-559,0,0,0,0,0,0,0,0,0,-1,1329,1583,0,0
112,-559,0,0,0,0,0,0,0,0,0,-1,1336,1583,0,0
119,-559,0,0,0,0,0,0,0,0,0,-1,1343,1583,0,0
126,-559,0,0,0,0,0,0,0,0,0,-1,1350,1583,0,0
133,-559,0,0,0,0,0,0,0,0,0,-1,1357,1583,0,0
140,-559,0,0,0,0,0,0,0,0,0,-1,1364,1583,0,0
147,-559,0,0,0,0,0,0,0,0,0,-1,1371,1583,0,0
154,-559,0,0,0,0,0,0,0,0,0,-1,1378,1583,0,0
161,-559,0,0,0,0,0,0,0,0,0,-1,1385,1583,0,0
168,-559,0,0,0,0,0,0,0,0,0,-1,1392,1583,0,0
175,-559,0,0,0,0,0,0,0,0,0,-1,1399,1583,0,0
182,-559,0,0,0,0,0,0,0,0,0,-1,1406,1583,0,0
189,-559,0,0,0,0,0,0,0,0,0,-1,1413,1583,0,0
196,-559,0,0,0,0,0,0,0,0,0,-1,1420,1583,0,0
203,-559,0,0,0,0,0,0,0,0,0,-1,1427,1583,0,0
210,-559,0,0,0,0,0,0,0,0,0,-1,1434,1583,0,0
217,-559,0,0,0,0,0,0,0,0,0,-1,1441,1583,0,0
224,-559,0,0,0,0,0,0,0,0,0,-1,1448,1583,0,0
231,-559,0,0,0,0,0,0,0,0,0,-1,1455,1583,0,0
238,-559,0,0,0,0,0,0,0,0,0,-1,1462,1583,0,0
245,-559,0,0,0,0,0,0,0,0,0,-1,1469,1583,0,0
252,-559,0,0,0,0,0,0,0,0,0,-1,1476,1583,0,0
259,-559,0,0,0,0,0,0,0,0,0,-1,1483,1583,0,0
266,-559,0,0,0,0,0,0,0,0,0,-1,1490,1583,0,0
273,-559,0,0,0,0,0,0,0,0,0,-1,1497,1583,0,0
280,-559,0,0,0,0,0,0,0,0,0,-1,1504,1583,0,0
287,-559,0,0,0,0,0,0,0,0,0,-1,1511,1583,0,0
294,-559,0,0,0,0,0,0,0,0,0,-1,1518,1583,0,0
301,-559,0,0,0,0,0,0,0,0,0,-1,1525,1583,0,0
308,-559,0,0,0,0,0,0,0,0,0,-1,1532,1583,0,0
315,-559,0,0,0,0,0,0,0,0,0,-1,1539,1583,0,0
322,-559,0,0,0,0,0,0,0,0,0,-1,1546,1583,0,0
329,-559,0,0,0,0,0,0,0,0,0,-1,1553,1583,0,0
336,-559,5.97668,3.09827,0,0,0,0,0,0,0,-1,1560,1583,5.97667,-3.09824
343,-559,5.44824,2.88696,0,0,0,0,0,0,0,-1,1567,1583,5.44819,-2.88693
350,-559,4.69775,3.27051,0,0,0,0,0,0,0,-1,1574,1583,4.69771,-3.27048
357,-559,3.88025,3.60999,0,0,0,0,0,0,0,-1,1581,1583,3.88027,-3.60998
364,-559,5.00928,5.32605,0,0,0,0,0,0,0,-1,1588,1583,5.00928,-5.32607
371,-559,1.84436,2.52441,0,0,0,0,0,0,0,-1,1595,1583,1.84441,-2.52447
378,-559,6.34753,1.53137,0,0,0,0,0,0,0,-1,1602,1583,6.34752,-1.53139
385,-559,6.95911,1.48181,0,0,0,0,0,0,0,-1,1609,1583,6.95916,-1.48175
392,-559,11.6949,4.77734,0,0,0,0,0,0,0,-1,1616,1583,11.6949,-4.77731
399,-559,11.1104,5.56909,0,0,0,0,0,0,0,-1,1623,1583,11.1103,-5.56905
406,-559,10.3385,6.48657,0,0,0,0,0,0,0,-1,1630,1583,10.3385,-6.48661
413,-559,9.76147,6.97571,0,0,0,0,0,0,0,-1,1637,1583,9.76143,-6.97574
420,-559,7.77124,10.5851,0,0,0,0,0,0,0,-1,1644,1583,7.77128,-10.585
427,-559,10.1022,12.5565,0,0,0,0,0,0,0,-1,1651,1583,10.1021,-12.5565
434,-559,9.62769,14.6309,0,0,0,0,0,0,0,-1,1658,1583,9.62771,-14.6309
441,-559,11.4775,19.4996,0,0,0,0,0,0,0,-1,1665,1583,11.4776,-19.4996
448,-559,12.3629,19.9055,0,0,0,0,0,0,0,-1,1672,1583,12.3629,-19.9055
455,-559,12.3191,20.0634,0,0,0,0,0,0,0,-1,1679,1583,12.3191,-20.0633
462,-559,11.9532,20.1665,0,0,0,0,0,0,0,-1,1686,1583,11.9532,-20.1665
469,-559,12.0631,19.6614,-0.00186569,-0.00131659,0.0031743,0.00159501,-0.00477729,0.828537,0.00382892,0.030843,1693,1583,12.0631,-19.6614
476,-559,12.1584,19.2129,-0.000786498,-0.000677806,0.00169395,0.000962668,-0.00242697,0.801434,0.00201696,0.0136429,1700,1583,12.1585,-19.2129
483,-559,12.2229,18.8209,8.97159e-05,-0.000565658,0.000826761,0.000651362,-0.0011273,0.59672,0.0010391,0.0131704,1707,1583,12.2229,-18.8209
490,-559,12.2277,18.4891,0.000605175,-0.000384918,0.000413024,0.000754845,-0.000534589,0.347658,0.000748066,0.0150127,1714,1583,12.2277,-18.4892
497,-559,12.2064,18.1609,0.000922659,-0.000132209,-5.40887e-05,0.000925425,-0.000134975,-0.0510967,0.000666513,0.0170687,1721,1583,12.2064,-18.1608
504,-559,12.1915,17.8508,0.00121454,0.000383851,-0.000446053,0.00140869,0.00018971,-0.410515,0.000882709,0.0210594,1728,1583,12.1916,-17.8509
511,-559,12.1927,17.5117,0.00128715,0.000375582,-0.000510527,0.00151575,0.000146986,-0.420994,0.000965241,0.0189472,1735,1583,12.1928,-17.5118
518,-559,12.2177,17.1807,0.00130567,0.000368274,-0.000510664,0.00153012,0.000143823,-0.414112,0.000975678,0.0131558,1742,1583,12.2176,-17.1807
525,-559,12.1981,16.8506,0.0013092,0.00023308,-0.000408993,0.001447,9.52823e-05,-0.324976,0.000934523,0.0120817,1749,1583,12.1982,-16.8506
532,-559,12.184,16.4735,0.00137424,-9.95878e-05,-0.00020139,0.00140127,-0.000126611,-0.133387,0.000979115,0.013325,1756,1583,12.1839,-16.4735
539,-559,12.167,16.1178,0.00148216,-0.000858786,0.00020851,0.00150059,-0.000877213,0.0881459,0.00138846,0.0166169,1763,1583,12.1671,-16.1178
546,-559,12.1578,15.7882,0.00153544,-0.00207011,0.000901369,0.00174822,-0.00228289,0.23182,0.00233418,0.0149696,1770,1583,12.1578,-15.7882
553,-559,12.2839,15.379,0.00165644,-0.00399692,0.00194583,0.00226143,-0.00460191,0.301442,0.00403862,0.0216927,1777,1583,12.2839,-15.379
560,-559,12.2655,15.2473,0.00196255,-0.00609035,0.0030757,0.00300288,-0.00713068,0.32616,0.00601023,0.047082,1784,1583,12.2655,-15.2473
567,-559,12.1671,14.9451,0,0,0,0,0,0,0,-1,1791,1583,12.1671,-14.9451
574,-559,10.5109,10.7317,0,0,0,0,0,0,0,-1,1798,1583,10.5108,-10.7317
581,-559,5.97095,5.96179,0,0,0,0,0,0,0,-1,1805,1583,5.97093,-5.96181
588,-559,5.79102,5.89954,0,0,0,0,0,0,0,-1,1812,1583,5.79098,-5.89949
595,-559,5.79089,6.24231,0,0,0,0,0,0,0,-1,1819,1583,5.7909,-6.24227
602,-559,12.478,2.35669,0,0,0,0,0,0,0,-1,1826,1583,12.4781,-2.35675
609,-559,14.0479,1.22681,0,0,0,0,0,0,0,-1,1833,1583,14.0479,-1.22681
616,-559,0,0,0,0,0,0,0,0,0,-1,1840,1583,0,0
623,-559,0,0,0,0,0,0,0,0,0,-1,1847,1583,0,0
630,-559,0,0,0,0,0,0,0,0,0,-1,1854,1583,0,0
637,-559,0,0,0,0,0,0,0,0,0,-1,1861,1583,0,0
644,-559,0,0,0,0,0,0,0,0,0,-1,1868,1583,0,0
651,-559,0,0,0,0,0,0,0,0,0,-1,1875,1583,0,0
658,-559,0,0,0,0,0,0,0,0,0,-1,1882,1583,0,0
665,-559,0,0,0,0,0,0,0,0,0,-1,1889,1583,0,0
672,-559,0,0,0,0,0,0,0,0,0,-1,1896,1583,0,0
679,-559,0,0,0,0,0,0,0,0,0,-1,1903,1583,0,0
686,-559,0,0,0,0,0,0,0,0,0,-1,1910,1583,0,0
693,-559,0,0,0,0,0,0,0,0,0,-1,1917,1583,0,0
700,-559,0,0,0,0,0,0,0,0,0,-1,1924,1583,0,0
707,-559,0,0,0,0,0,0,0,0,0,-1,1931,1583,0,0
714,-559,0,0,0,0,0,0,0,0,0,-1,1938,1583,0,0
721,-559,0,0,0,0,0,0,0,0,0,-1,1945,1583,0,0
728,-559,0,0,0,0,0,0,0,0,0,-1,1952,1583,0,0
735,-559,0,0,0,0,0,0,0,0,0,-1,1959,1583,0,0
742,-559,0,0,0,0,0,0,0,0,0,-1,1966,1583,0,0
749,-559,0,0,0,0,0,0,0,0,0,-1,1973,1583,0,0
756,-559,0,0,0,0,0,0,0,0,0,-1,1980,1583,0,0
763,-559,0,0,0,0,0,0,0,0,0,-1,1987,1583,0,0
770,-559,0,0,0,0,0,0,0,0,0,-1,1994,1583,0,0
777,-559,0,0,0,0,0,0,0,0,0,-1,2001,1583,0,0
784,-559,0,0,0,0,0,0,0,0,0,-1,2008,1583,0,0
791,-559,0,0,0,0,0,0,0,0,0,-1,2015,1583,0,0
798,-559,0,0,0,0,0,0,0,0,0,-1,2022,1583,0,0
805,-559,0,0,0,0,0,0,0,0,0,-1,2029,1583,0,0
812,-559,0,0,0,0,0,0,0,0,0,-1,2036,1583,0,0
-700,-566,0,0,0,0,0,0,0,0,0,-1,524,1590,0,0
-693,-566,0,0,0,0,0,0,0,0,0,-1,531,1590,0,0
-686,-566,0,0,0,0,0,0,0,0,0,-1,538,1590,0,0
-679,-566,0,0,0,0,0,0,0,0,0,-1,545,1590,0,0
-672,-566,0,0,0,0,0,0,0,0,0,-1,552,1590,0,0
-665,-566,0,0,0,0,0,0,0,0,0,-1,559,1590,0,0
-658,-566,0,0,0,0,0,0,0,0,0,-1,566,1590,0,0
-651,-566,0,0,0,0,0,0,0,0,0,-1,573,1590,0,0
-644,-566,0,0,0,0,0,0,0,0,0,-1,580,1590,0,0
-637,-566,0,0,0,0,0,0,0,0,0,-1,587,1590,0,0
-630,-566,0,0,0,0,0,0,0,0,0,-1,594,1590,0,0
-623,-566,0,0,0,0,0,0,0,0,0,-1,601,1590,0,0
-616,-566,0,0,0,0,0,0,0,0,0,-1,608,1590,0,0
-609,-566,0,0,0,0,0,0,0,0,0,-1,615,1590,0,0
-602,-566,0,0,0,0,0,0,0,0,0,-1,622,1590,0,0
-595,-566,0,0,0,0,0,0,0,0,0,-1,629,1590,0,0
-588,-566,0,0,0,0,0,0,0,0,0,-1,636,1590,0,0
-581,-566,0,0,0,0,0,0,0,0,0,-1,643,1590,0,0
-574,-566,0,0,0,0,0,0,0,0,0,-1,650,1590,0,0
-567,-566,0,0,0,0,0,0,0,0,0,-1,657,1590,0,0
-560,-566,0,0,0,0,0,0,0,0,0,-1,664,1590,0,0
-553,-566,0,0,0,0,0,0,0,0,0,-1,671,1590,0,0
-546,-566,0,0,0,0,0,0,0,0,0,-1,678,1590,0,0
-539,-566,0,0,0,0,0,0,0,0,0,-1,685,1590,0,0
-532,-566,0,0,0,0,0,0,0,0,0,-1,692,1590,0,0
-525,-566,0,0,0,0,0,0,0,0,0,-1,699,1590,0,0
-518,-566,0,0,0,0,0,0,0,0,0,-1,706,1590,0,0
-511,-566,0,0,0,0,0,0,0,0,0,-1,713,1590,0,0
-504,-566,0,0,0,0,0,0,0,0,0,-1,720,1590,0,0
-497,-566,0,0,0,0,0,0,0,0,0,-1,727,1590,0,0
-490,-566,0,0,0,0,0,0,0,0,0,-1,734,1590,0,0
-483,-566,-7.17084,2.78613,0,0,0,0,0,0,0,-1,741,1590,-7.17083,-2.78618
-476,-566,-7.13971,2.87183,0,0,0,0,0,0,0,-1,748,1590,-7.13971,-2.87184
-469,-566,-6.43829,3.2998,0,0,0,0,0,0,0,-1,755,1590,-6.43829,-3.2998
-462,-566,-0.459106,3.89343,0,0,0,0,0,0,0,-1,762,1590,-0.459095,-3.89341
-455,-566,0.280212,4.74023,0,0,0,0,0,0,0,-1,769,1590,0.280207,-4.74023
-448,-566,0.436951,5.51306,0,0,0,0,0,0,0,-1,776,1590,0.436971,-5.51301
-441,-566,-0.141785,12.2795,0,0,0,0,0,0,0,-1,783,1590,-0.141772,-12.2796
-434,-566,0.748169,12.9473,0,0,0,0,0,0,0,-1,790,1590,0.748144,-12.9473
-427,-566,0.641968,13.6671,0,0,0,0,0,0,0,-1,797,1590,0.641939,-13.6672
-420,-566,0.535706,14.387,0,0,0,0,0,0,0,-1,804,1590,0.535733,-14.387
-413,-566,0.575562,14.4573,-0.00591869,0.00529858,0.00253012,0.00584286,-0.00646296,1.35891,0.00710778,0.0228311,811,1590,0.575571,-14.4573
-406,-566,0.59198,14.8524,-0.00454987,0.0041723,0.00238893,0.00478374,-0.00516132,1.32023,0.00574316,0.0106967,818,1590,0.591989,-14.8524
-399,-566,0.585083,15.2234,-0.00335198,0.00269247,0.00229217,0.00346339,-0.00412289,1.24636,0.00438545,0.00967466,825,1590,0.585053,-15.2234
-392,-566,0.564941,15.5839,-0.0022712,0.00202734,0.00195653,0.00278451,-0.00302837,1.20155,0.00335705,0.0120494,832,1590,0.564943,-15.5838
-385,-566,0.568176,15.9694,-0.00136981,0.00209284,0.0016716,0.00276811,-0.00204509,1.18687,0.00278934,0.01515,839,1590,0.568157,-15.9694
-378,-566,0.58197,16.3424,-0.000577969,0.00211292,0.00148119,0.00276851,-0.00123356,1.1541,0.00236657,0.0152246,846,1590,0.582,-16.3424
-371,-566,0.524109,16.6514,0.000109391,0.00206784,0.00111236,0.00257058,-0.000393349,1.14631,0.00185876,0.0199572,853,1590,0.524103,-16.6513
-364,-566,0.539551,17.0212,0.000766043,0.00203512,0.000713403,0.00235535,0.000445813,1.14888,0.00144474,0.0208222,860,1590,0.539544,-17.0213
-357,-566,0.532104,17.3943,0.00156847,0.00223533,0.000370209,0.00240013,0.00140367,1.15199,0.00139235,0.0179173,867,1590,0.532104,-17.3943
-350,-566,0.534668,17.749,0.0023531,0.00237077,4.91235e-05,0.00241185,0.00231203,0.874371,0.00157568,0.0211053,874,1590,0.53469,-17.749
-343,-566,0.556824,18.0887,0.00346954,0.00265549,0.000119699,0.00348677,0.00263825,0.143009,0.00209963,0.024761,881,1590,0.556854,-18.0888
-336,-566,0.433594,18.4202,0.00486201,0.00367146,0.000941545,0.00538067,0.00315279,0.503507,0.00312179,0.024498,888,1590,0.433614,-18.4202
-329,-566,0.514709,18.7145,0.00636315,0.00459927,0.00177387,0.00746223,0.00350019,0.554702,0.00431107,0.0179653,895,1590,0.514693,-18.7145
-322,-566,0.59137,19.1661,0.00817703,0.00578317,0.00300965,0.010219,0.00374117,0.596139,0.00597006,0.0238308,902,1590,0.591346,-19.1661
-315,-566,0.495911,19.4578,0.0103386,0.00729011,0.0046796,0.013736,0.00389278,0.627954,0.00817474,0.0409543,909,1590,0.495919,-19.4578
-308,-566,0.699219,19.8571,0.0129847,0.00945387,0.00710113,0.0185366,0.003902,0.663563,0.0112842,0.0440256,916,1590,0.699243,-19.8571
-301,-566,1.06628,20.377,0,0,0,0,0,0,0,-1,923,1590,1.06631,-20.3769
-294,-566,1.06671,20.8225,0,0,0,0,0,0,0,-1,930,1590,1.06673,-20.8225
-287,-566,1.84833,21.4893,0,0,0,0,0,0,0,-1,937,1590,1.84833,-21.4893
-280,-566,1.59406,17.8762,0,0,0,0,0,0,0,-1,944,1590,1.59405,-17.8762
-273,-566,0.49762,11.2427,0,0,0,0,0,0,0,-1,951,1590,0.497591,-11.2426
-266,-566,0.392151,6.90295,0,0,0,0,0,0,0,-1,958,1590,0.392151,-6.90294
-259,-566,0.343628,6.47437,0,0,0,0,0,0,0,-1,965,1590,0.34363,-6.47438
-252,-566,-7.68311,1.01343,0,0,0,0,0,0,0,-1,972,1590,-7.68308,-1.01348
-245,-566,-11.1835,1.97522,0,0,0,0,0,0,0,-1,979,1590,-11.1835,-1.97527
-238,-566,-10.4883,2.40491,0,0,0,0,0,0,0,-1,986,1590,-10.4883,-2.40487
-231,-566,-7.41827,4.22803,0,0,0,0,0,0,0,-1,993,1590,-7.41827,-4.22803
-224,-566,-4.67188,6.30859,0,0,0,0,0,0,0,-1,1000,1590,-4.67185,-6.30853
-217,-566,-2.82867,7.52527,0,0,0,0,0,0,0,-1,1007,1590,-2.82869,-7.52531
-210,-566,-1.03436,8.67737,0,0,0,0,0,0,0,-1,1014,1590,-1.03439,-8.67733
-203,-566,0,0,0,0,0,0,0,0,0,-1,1021,1590,0,0
-196,-566,0,0,0,0,0,0,0,0,0,-1,1028,1590,0,0
-189,-566,0,0,0,0,0,0,0,0,0,-1,1035,1590,0,0
-182,-566,0,0,0,0,0,0,0,0,0,-1,1042,1590,0,0
-175,-566,0,0,0,0,0,0,0,0,0,-1,1049,1590,0,0
-168,-566,0,0,0,0,0,0,0,0,0,-1,1056,1590,0,0
-161,-566,0,0,0,0,0,0,0,0,0,-1,1063,1590,0,0
-154,-566,0,0,0,0,0,0,0,0,0,-1,1070,1590,0,0
-147,-566,0,0,0,0,0,0,0,0,0,-1,1077,1590,0,0
-140,-566,0,0,0,0,0,0,0,0,0,-1,1084,1590,0,0
-133,-566,0,0,0,0,0,0,0,0,0,-1,1091,1590,0,0
-126,-566,0,0,0,0,0,0,0,0,0,-1,1098,1590,0,0
-119,-566,0,0,0,0,0,0,0,0,0,-1,1105,1590,0,0
-112,-566,0,0,0,0,0,0,0,0,0,-1,1112,1590,0,0
-105,-566,0,0,0,0,0,0,0,0,0,-1,1119,1590,0,0
-98,-566,0,0,0,0,0,0,0,0,0,-1,1126,1590,0,0
-91,-566,0,0,0,0,0,0,0,0,0,-1,1133,1590,0,0
-84,-566,0,0,0,0,0,0,0,0,0,-1,1140,1590,0,0
-77,-566,0,0,0,0,0,0,0,0,0,-1,1147,1590,0,0
-70,-566,0,0,0,0,0,0,0,0,0,-1,1154,1590,0,0
-63,-566,0,0,0,0,0,0,0,0,0,-1,1161,1590,0,0
-56,-566,0,0,0,0,0,0,0,0,0,-1,1168,1590,0,0
-49,-566,0,0,0,0,0,0,0,0,0,-1,1175,1590,0,0
-42,-566,0,0,0,0,0,0,0,0,0,-1,1182,1590,0,0
-35,-566,0,0,0,0,0,0,0,0,0,-1,1189,1590,0,0
-28,-566,0,0,0,0,0,0,0,0,0,-1,1196,1590,0,0
-21,-566,0,0,0,0,0,0,0,0,0,-1,1203,1590,0,0
-14,-566,0,0,0,0,0,0,0,0,0,-1,1210,1590,0,0
-7,-566,0,0,0,0,0,0,0,0,0,-1,1217,1590,0,0
0,-566,0,0,0,0,0,0,0,0,0,-1,1224,1590,0,0
7,-566,0,0,0,0,0,0,0,0,0,-1,1231,1590,0,0
14,-566,0,0,0,0,0,0,0,0,0,-1,1238,1590,0,0
21,-566,0,0,0,0,0,0,0,0,0,-1,1245,1590,0,0
28,-566,0,0,0,0,0,0,0,0,0,-1,1252,1590,0,0
35,-566,0,0,0,0,0,0,0,0,0,-1,1259,1590,0,0
42,-566,0,0,0,0,0,0,0,0,0,-1,1266,1590,0,0
49,-566,0,0,0,0,0,0,0,0,0,-1,1273,1590,0,0
56,-566,0,0,0,0,0,0,0,0,0,-1,1280,1590,0,0
63,-566,0,0,0,0,0,0,0,0,0,-1,1287,1590,0,0
70,-566,0,0,0,0,0,0,0,0,0,-1,1294,1590,0,0
77,-566,0,0,0,0,0,0,0,0,0,-1,1301,1590,0,0
84,-566,0,0,0,0,0,0,0,0,0,-1,1308,1590,0,0
91,-566,0,0,0,0,0,0,0,0,0,-1,1315,1590,0,0
98,-566,0,0,0,0,0,0,0,0,0,-1,1322,1590,0,0
105,-566,0,0,0,0,0,0,0,0,0,-1,1329,1590,0,0
112,-566,0,0,0,0,0,0,0,0,0,-1,1336,1590,0,0
119,-566,0,0,0,0,0,0,0,0,0,-1,1343,1590,0,0
126,-566,0,0,0,0,0,0,0,0,0,-1,1350,1590,0,0
133,-566,0,0,0,0,0,0,0,0,0,-1,1357,1590,0,0
140,-566,0,0,0,0,0,0,0,0,0,-1,1364,1590,0,0
147,-566,0,0,0,0,0,0,0,0,0,-1,1371,1590,0,0
154,-566,0,0,0,0,0,0,0,0,0,-1,1378,1590,0,0
161,-566,0,0,0,0,0,0,0,0,0,-1,1385,1590,0,0
168,-566,0,0,0,0,0,0,0,0,0,-1,1392,1590,0,0
175,-566,0,0,0,0,0,0,0,0,0,-1,1399,1590,0,0
182,-566,0,0,0,0,0,0,0,0,0,-1,1406,1590,0,0
189,-566,0,0,0,0,0,0,0,0,0,-1,1413,1590,0,0
196,-566,0,0,0,0,0,0,0,0,0,-1,1420,1590,0,0
203,-566,0,0,0,0,0,0,0,0,0,-1,1427,1590,0,0
210,-566,0,0,0,0,0,0,0,0,0,-1,1434,1590,0,0
217,-566,0,0,0,0,0,0,0,0,0,-1,1441,1590,0,0
224,-566,0,0,0,0,0,0,0,0,0,-1,1448,1590,0,0
231,-566,0,0,0,0,0,0,0,0,0,-1,1455,1590,0,0
238,-566,0,0,0,0,0,0,0,0,0,-1,1462,1590,0,0
245,-566,0,0,0,0,0,0,0,0,0,-1,1469,1590,0,0
252,-566,0,0,0,0,0,0,0,0,0,-1,1476,1590,0,0
259,-566,0,0,0,0,0,0,0,0,0,-1,1483,1590,0,0
266,-566,0,0,0,0,0,0,0,0,0,-1,1490,1590,0,0
273,-566,0,0,0,0,0,0,0,0,0,-1,1497,1590,0,0
280,-566,0,0,0,0,0,0,0,0,0,-1,1504,1590,0,0
287,-566,0,0,0,0,0,0,0,0,0,-1,1511,1590,0,0
294,-566,0,0,0,0,0,0,0,0,0,-1,1518,1590,0,0
301,-566,0,0,0,0,0,0,0,0,0,-1,1525,1590,0,0
308,-566,0,0,0,0,0,0,0,0,0,-1,1532,1590,0,0
315,-566,0,0,0,0,0,0,0,0,0,-1,1539,1590,0,0
322,-566,6.07983,4.44873,0,0,0,0,0,0,0,-1,1546,1590,6.07983,-4.44873
329,-566,5.77026,3.47534,0,0,0,0,0,0,0,-1,1553,1590,5.77026,-3.47535
336,-566,5.41138,2.62915,0,0,0,0,0,0,0,-1,1560,1590,5.41138,-2.62909
343,-566,4.81873,1.79089,0,0,0,0,0,0,0,-1,1567,1590,4.81878,-1.79095
350,-566,4.41663,2.44214,0,0,0,0,0,0,0,-1,1574,1590,4.41666,-2.44214
357,-566,6.34058,5.18579,0,0,0,0,0,0,0,-1,1581,1590,6.34059,-5.1858
364,-566,6.06262,4.20251,0,0,0,0,0,0,0,-1,1588,1590,6.06259,-4.20246
371,-566,5.78455,3.21912,0,0,0,0,0,0,0,-1,1595,1590,5.7846,-3.21912
378,-566,5.7439,0.695557,0,0,0,0,0,0,0,-1,1602,1590,5.74392,-0.695531
385,-566,5.67615,-0.573975,0,0,0,0,0,0,0,-1,1609,1590,5.67612,0.573956
392,-566,5.78638,1.82434,0,0,0,0,0,0,0,-1,1616,1590,5.78637,-1.82439
399,-566,5.36621,1.7373,0,0,0,0,0,0,0,-1,1623,1590,5.36627,-1.7373
406,-566,4.30359,5.26868,0,0,0,0,0,0,0,-1,1630,1590,4.30364,-5.26867
413,-566,4.27124,5.79492,0,0,0,0,0,0,0,-1,1637,1590,4.27123,-5.7949
420,-566,7.19812,8.25146,0,0,0,0,0,0,0,-1,1644,1590,7.19817,-8.25149
427,-566,10.455,10.6842,0,0,0,0,0,0,0,-1,1651,1590,10.455,-10.6842
434,-566,9.18567,14.3304,0,0,0,0,0,0,0,-1,1658,1590,9.18571,-14.3305
441,-566,12.1625,20.1854,0,0,0,0,0,0,0,-1,1665,1590,12.1625,-20.1855
448,-566,12.0371,20.1576,-0.0052659,-0.00325643,0.00813419,0.00393484,-0.0124572,0.846847,0.0098811,0.0453347,1672,1590,12.0371,-20.1576
455,-566,11.8159,20.1831,-0.00381882,-0.00213781,0.0058876,0.00296898,-0.0089256,0.856298,0.00714862,0.0422954,1679,1590,11.8159,-20.1831
462,-566,11.7686,19.9502,-0.00250614,-0.000979054,0.00392424,0.00225524,-0.00574043,0.881483,0.00476024,0.025638,1686,1590,11.7686,-19.9502
469,-566,11.8395,19.4833,-0.00134958,-0.000273568,0.00238458,0.00163295,-0.0032561,0.89635,0.00287408,0.0136816,1693,1590,11.8395,-19.4832
476,-566,11.8645,19.1196,-0.000483269,0.000212581,0.00110219,0.00102045,-0.00129114,0.938282,0.00133764,0.00979863,1700,1590,11.8645,-19.1196
483,-566,11.869,18.8019,0.000236778,0.000216502,0.000354956,0.000581741,-0.000128461,0.771122,0.000436987,0.0102634,1707,1590,11.869,-18.8018
490,-566,11.8729,18.4818,0.000673392,0.000301001,-2.92759e-06,0.000673415,0.000300978,-0.00786096,0.000389525,0.0111094,1714,1590,11.8729,-18.4818
497,-566,11.8813,18.1517,0.000979998,0.000511072,-0.00043953,0.00124369,0.000247379,-0.540377,0.000760205,0.014329,1721,1590,11.8814,-18.1517
504,-566,11.8807,17.8505,0.00127288,0.000921588,-0.000774006,0.00189092,0.000303548,-0.673823,0.0011726,0.0178207,1728,1590,11.8808,-17.8505
511,-566,11.8857,17.5319,0.00137387,0.000823724,-0.000797644,0.00194254,0.000255053,-0.619357,0.00121893,0.0181033,1735,1590,11.8858,-17.5319
518,-566,11.8762,17.1963,0.00148041,0.000820555,-0.000817739,0.00203227,0.000268694,-0.593654,0.00127476,0.0118006,1742,1590,11.8762,-17.1963
525,-566,11.8619,16.8291,0.00160179,0.000697414,-0.000742221,0.00201872,0.000280483,-0.511807,0.00126274,0.0113953,1749,1590,11.862,-16.8291
532,-566,11.8567,16.4791,0.00179594,0.000333091,-0.000528432,0.00196686,0.000162173,-0.312824,0.00126066,0.013466,1756,1590,11.8567,-16.4792
539,-566,11.8413,16.1151,0.00195749,-0.000600202,-1.23967e-05,0.00195755,-0.000600262,-0.00484667,0.00154451,0.0168019,1763,1590,11.8413,-16.1151
546,-566,11.8878,15.7218,0.00203263,-0.00200015,0.000855331,0.00220654,-0.00217406,0.200592,0.00252917,0.0212705,1770,1590,11.8879,-15.7218
553,-566,11.938,15.5792,0.00222531,-0.00435264,0.00219949,0.00289299,-0.00502031,0.294721,0.00462345,0.0360106,1777,1590,11.9379,-15.5793
560,-566,11.7823,15.6616,0.00256925,-0.00696993,0.00376241,0.00387459,-0.00827527,0.333947,0.00716646,0.0460042,1784,1590,11.7824,-15.6616
567,-566,11.7529,15.603,0,0,0,0,0,0,0,-1,1791,1590,11.7529,-15.603
574,-566,7.99548,3.14514,0,0,0,0,0,0,0,-1,1798,1590,7.99543,-3.14511
581,-566,2.54102,5.1311,0,0,0,0,0,0,0,-1,1805,1590,2.54099,-5.13111
588,-566,-1.91321,8.39197,0,0,0,0,0,0,0,-1,1812,1590,-1.91316,-8.39199
595,-566,9.0271,4.66467,0,0,0,0,0,0,0,-1,1819,1590,9.02705,-4.66468
602,-566,9.953,3.54895,0,0,0,0,0,0,0,-1,1826,1590,9.953,-3.54898
609,-566,0,0,0,0,0,0,0,0,0,-1,1833,1590,0,0
616,-566,0,0,0,0,0,0,0,0,0,-1,1840,1590,0,0
623,-566,0,0,0,0,0,0,0,0,0,-1,1847,1590,0,0
630,-566,0,0,0,0,0,0,0,0,0,-1,1854,1590,0,0
637,-566,0,0,0,0,0,0,0,0,0,-1,1861,1590,0,0
644,-566,0,0,0,0,0,0,0,0,0,-1,1868,1590,0,0
651,-566,0,0,0,0,0,0,0,0,0,-1,1875,1590,0,0
658,-566,0,0,0,0,0,0,0,0,0,-1,1882,1590,0,0
665,-566,0,0,0,0,0,0,0,0,0,-1,1889,1590,0,0
672,-566,0,0,0,0,0,0,0,0,0,-1,1896,1590,0,0
679,-566,0,0,0,0,0,0,0,0,0,-1,1903,1590,0,0
686,-566,0,0,0,0,0,0,0,0,0,-1,1910,1590,0,0
693,-566,0,0,0,0,0,0,0,0,0,-1,1917,1590,0,0
700,-566,0,0,0,0,0,0,0,0,0,-1,1924,1590,0,0
707,-566,0,0,0,0,0,0,0,0,0,-1,1931,1590,0,0
714,-566,0,0,0,0,0,0,0,0,0,-1,1938,1590,0,0
721,-566,0,0,0,0,0,0,0,0,0,-1,1945,1590,0,0
728,-566,0,0,0,0,0,0,0,0,0,-1,1952,1590,0,0
735,-566,0,0,0,0,0,0,0,0,0,-1,1959,1590,0,0
742,-566,0,0,0,0,0,0,0,0,0,-1,1966,1590,0,0
749,-566,0,0,0,0,0,0,0,0,0,-1,1973,1590,0,0
756,-566,0,0,0,0,0,0,0,0,0,-1,1980,1590,0,0
763,-566,0,0,0,0,0,0,0,0,0,-1,1987,1590,0,0
770,-566,0,0,0,0,0,0,0,0,0,-1,1994,1590,0,0
777,-566,0,0,0,0,0,0,0,0,0,-1,2001,1590,0,0
784,-566,0,0,0,0,0,0,0,0,0,-1,2008,1590,0,0
791,-566,0,0,0,0,0,0,0,0,0,-1,2015,1590,0,0
798,-566,0,0,0,0,0,0,0,0,0,-1,2022,1590,0,0
805,-566,0,0,0,0,0,0,0,0,0,-1,2029,1590,0,0
812,-566,0,0,0,0,0,0,0,0,0,-1,2036,1590,0,0
-700,-573,0,0,0,0,0,0,0,0,0,-1,524,1597,0,0
-693,-573,0,0,0,0,0,0,0,0,0,-1,531,1597,0,0
-686,-573,0,0,0,0,0,0,0,0,0,-1,538,1597,0,0
-679,-573,0,0,0,0,0,0,0,0,0,-1,545,1597,0,0
-672,-573,0,0,0,0,0,0,0,0,0,-1,552,1597,0,0
-665,-573,0,0,0,0,0,0,0,0,0,-1,559,1597,0,0
-658,-573,0,0,0,0,0,0,0,0,0,-1,566,1597,0,0
-651,-573,0,0,0,0,0,0,0,0,0,-1,573,1597,0,0
-644,-573,0,0,0,0,0,0,0,0,0,-1,580,1597,0,0
-637,-573,0,0,0,0,0,0,0,0,0,-1,587,1597,0,0
-630,-573,0,0,0,0,0,0,0,0,0,-1,594,1597,0,0
-623,-573,0,0,0,0,0,0,0,0,0,-1,601,1597,0,0
-616,-573,0,0,0,0,0,0,0,0,0,-1,608,1597,0,0
-609,-573,0,0,0,0,0,0,0,0,0,-1,615,1597,0,0
-602,-573,0,0,0,0,0,0,0,0,0,-1,622,1597,0,0
-595,-573,0,0,0,0,0,0,0,0,0,-1,629,1597,0,0
-588,-573,0,0,0,0,0,0,0,0,0,-1,636,1597,0,0
-581,-573,0,0,0,0,0,0,0,0,0,-1,643,1597,0,0
-574,-573,0,0,0,0,0,0,0,0,0,-1,650,1597,0,0
-567,-573,0,0,0,0,0,0,0,0,0,-1,657,1597,0,0
-560,-573,0,0,0,0,0,0,0,0,0,-1,664,1597,0,0
-553,-573,0,0,0,0,0,0,0,0,0,-1,671,1597,0,0
-546,-573,0,0,0,0,0,0,0,0,0,-1,678,1597,0,0
-539,-573,0,0,0,0,0,0,0,0,0,-1,685,1597,0,0
-532,-573,0,0,0,0,0,0,0,0,0,-1,692,1597,0,0
-525,-573,0,0,0,0,0,0,0,0,0,-1,699,1597,0,0
-518,-573,0,0,0,0,0,0,0,0,0,-1,706,1597,0,0
-511,-573,0,0,0,0,0,0,0,0,0,-1,713,1597,0,0
-504,-573,0,0,0,0,0,0,0,0,0,-1,720,1597,0,0
-497,-573,0,0,0,0,0,0,0,0,0,-1,727,1597,0,0
-490,-573,0,0,0,0,0,0,0,0,0,-1,734,1597,0,0
-483,-573,0,0,0,0,0,0,0,0,0,-1,741,1597,0,0
-476,-573,-9.3327,0.972778,0,0,0,0,0,0,0,-1,748,1597,-9.33268,-0.972776
-469,-573,-1.41681,1.13379,0,0,0,0,0,0,0,-1,755,1597,-1.41681,-1.13382
-462,-573,-0.748535,2.02588,0,0,0,0,0,0,0,-1,762,1597,-0.748533,-2.02584
-455,-573,-0.112976,2.70703,0,0,0,0,0,0,0,-1,769,1597,-0.112988,-2.70697
-448,-573,-1.26172,3.33252,0,0,0,0,0,0,0,-1,776,1597,-1.26173,-3.33248
-441,-573,0.108582,5.06726,0,0,0,0,0,0,0,-1,783,1597,0.108584,-5.06721
-434,-573,1.61768,7.05444,0,0,0,0,0,0,0,-1,790,1597,1.61767,-7.05446
-427,-573,0.817383,13.5431,0,0,0,0,0,0,0,-1,797,1597,0.817368,-13.543
-420,-573,0.915222,13.6124,0,0,0,0,0,0,0,-1,804,1597,0.915238,-13.6124
-413,-573,0.914368,14.2772,0,0,0,0,0,0,0,-1,811,1597,0.914378,-14.2772
-406,-573,0.966614,14.7926,-0.00585967,0.00556273,0.00387237,0.00675175,-0.00704869,1.27288,0.0079683,0.0242359,818,1597,0.966587,-14.7925
-399,-573,0.928284,15.235,-0.00450374,0.00364846,0.0035336,0.00496689,-0.00582217,1.21368,0.00623558,0.011908,825,1597,0.92827,-15.2349
-392,-573,0.933411,15.6161,-0.00328561,0.00256806,0.00298242,0.00381989,-0.00453744,1.17339,0.00483103,0.0113897,832,1597,0.933439,-15.6161
-385,-573,0.937256,15.9907,-0.00230559,0.00235827,0.00252246,0.00346155,-0.00340888,1.15848,0.00396668,0.0129389,839,1597,0.937284,-15.9907
-378,-573,0.94696,16.3464,-0.00143263,0.00215352,0.00219299,0.00319317,-0.00247228,1.1281,0.00327976,0.0143979,846,1597,0.946952,-16.3464
-371,-573,0.924805,16.7123,-0.000690634,0.00188992,0.00170629,0.00273886,-0.00153957,1.10912,0.00250229,0.0149558,853,1597,0.924823,-16.7123
-364,-573,0.895752,17.0701,-1.44322e-05,0.0016863,0.00121377,0.00231795,-0.000646081,1.09096,0.00179974,0.0176957,860,1597,0.895747,-17.0701
-357,-573,0.902222,17.4008,0.000759737,0.00171515,0.000809608,0.00217748,0.000297408,1.05193,0.00136337,0.0220727,867,1597,0.902206,-17.4007
-350,-573,0.90863,17.7709,0.0015381,0.00175787,0.000477831,0.00213829,0.00115768,0.898414,0.00123595,0.0179459,874,1597,0.908615,-17.7708
-343,-573,0.917053,18.116,0.00256352,0.00194508,0.000520589,0.0028598,0.0016488,0.517408,0.00165754,0.0215331,881,1597,0.917056,-18.1159
-336,-573,0.868042,18.4612,0.00379398,0.00271912,0.00115327,0.00452889,0.00198421,0.567355,0.00262142,0.0168702,888,1597,0.868049,-18.4612
-329,-573,0.864136,18.7889,0.00509509,0.00360087,0.00187013,0.00636182,0.00233413,0.595362,0.00371613,0.0168631,895,1597,0.864126,-18.789
-322,-573,0.870789,19.1438,0.00658558,0.00465789,0.0028976,0.00867543,0.00256804,0.624837,0.00514583,0.0140364,902,1597,0.8708,-19.1439
-315,-573,0.983398,19.5968,0.00829463,0.00587876,0.00420638,0.0114631,0.00271031,0.645577,0.00691791,0.0297332,909,1597,0.983385,-19.5968
-308,-573,1.03601,19.8824,0.0103125,0.00753582,0.00603843,0.0151201,0.00272818,0.672403,0.00930498,0.0449299,916,1597,1.03602,-19.8824
-301,-573,1.15131,20.3258,0,0,0,0,0,0,0,-1,923,1597,1.15128,-20.3258
-294,-573,1.17126,20.4904,0.0145891,0.0104794,0.0110539,0.0237775,0.00129092,0.693501,0.0154394,0.0385545,930,1597,1.17128,-20.4904
-287,-573,1.58148,21.2982,0.0171371,0.0122515,0.0142062,0.029109,0.000279528,0.700254,0.0193135,0.0465127,937,1597,1.58145,-21.2982
-280,-573,1.34747,21.6625,0,0,0,0,0,0,0,-1,944,1597,1.3475,-21.6624
-273,-573,1.13562,22.0223,0,0,0,0,0,0,0,-1,951,1597,1.13562,-22.0224
-266,-573,1.31116,7.1814,0,0,0,0,0,0,0,-1,958,1597,1.31118,-7.18142
-259,-573,1.2514,6.70959,0,0,0,0,0,0,0,-1,965,1597,1.25137,-6.70965
-252,-573,2.07874,5.27161,0,0,0,0,0,0,0,-1,972,1597,2.07875,-5.27157
-245,-573,-10.2592,1.09827,0,0,0,0,0,0,0,-1,979,1597,-10.2592,-1.09823
-238,-573,-11.5463,4.44141,0,0,0,0,0,0,0,-1,986,1597,-11.5463,-4.44146
-231,-573,-9.23431,4.14539,0,0,0,0,0,0,0,-1,993,1597,-9.23431,-4.14534
-224,-573,-6.70044,7.40857,0,0,0,0,0,0,0,-1,1000,1597,-6.70045,-7.40851
-217,-573,-4.25824,8.59119,0,0,0,0,0,0,0,-1,1007,1597,-4.25824,-8.59122
-210,-573,-2.39661,9.73914,0,0,0,0,0,0,0,-1,1014,1597,-2.39658,-9.73915
-203,-573,-0.557373,10.9005,0,0,0,0,0,0,0,-1,1021,1597,-0.557387,-10.9006
-196,-573,-1.65344,9.02246,0,0,0,0,0,0,0,-1,1028,1597,-1.65349,-9.02241
-189,-573,-6.12915,6.66882,0,0,0,0,0,0,0,-1,1035,1597,-6.12913,-6.66884
-182,-573,0,0,0,0,0,0,0,0,0,-1,1042,1597,0,0
-175,-573,0,0,0,0,0,0,0,0,0,-1,1049,1597,0,0
-168,-573,0,0,0,0,0,0,0,0,0,-1,1056,1597,0,0
-161,-573,0,0,0,0,0,0,0,0,0,-1,1063,1597,0,0
-154,-573,0,0,0,0,0,0,0,0,0,-1,1070,1597,0,0
-147,-573,0,0,0,0,0,0,0,0,0,-1,1077,1597,0,0
-140,-573,0,0,0,0,0,0,0,0,0,-1,1084,1597,0,0
-133,-573,0,0,0,0,0,0,0,0,0,-1,1091,1597,0,0
-126,-573,0,0,0,0,0,0,0,0,0,-1,1098,1597,0,0
-119,-573,0,0,0,0,0,0,0,0,0,-1,1105,1597,0,0
-112,-573,0,0,0,0,0,0,0,0,0,-1,1112,1597,0,0
-105,-573,0,0,0,0,0,0,0,0,0,-1,1119,1597,0,0
-98,-573,0,0,0,0,0,0,0,0,0,-1,1126,1597,0,0
-91,-573,0,0,0,0,0,0,0,0,0,-1,1133,1597,0,0
-84,-573,0,0,0,0,0,0,0,0,0,-1,1140,1597,0,0
-77,-573,0,0,0,0,0,0,0,0,0,-1,1147,1597,0,0
-70,-573,0,0,0,0,0,0,0,0,0,-1,1154,1597,0,0
-63,-573,0,0,0,0,0,0,0,0,0,-1,1161,1597,0,0
-56,-573,0,0,0,0,0,0,0,0,0,-1,1168,1597,0,0
-49,-573,0,0,0,0,0,0,0,0,0,-1,1175,1597,0,0
-42,-573,0,0,0,0,0,0,0,0,0,-1,1182,1597,0,0
-35,-573,0,0,0,0,0,0,0,0,0,-1,1189,1597,0,0
-28,-573,0,0,0,0,0,0,0,0,0,-1,1196,1597,0,0
-21,-573,0,0,0,0,0,0,0,0,0,-1,1203,1597,0,0
-14,-573,0,0,0,0,0,0,0,0,0,-1,1210,1597,0,0
-7,-573,0,0,0,0,0,0,0,0,0,-1,1217,1597,0,0
0,-573,0,0,0,0,0,0,0,0,0,-1,1224,1597,0,0
7,-573,0,0,0,0,0,0,0,0,0,-1,1231,1597,0,0
14,-573,0,0,0,0,0,0,0,0,0,-1,1238,1597,0,0
21,-573,0,0,0,0,0,0,0,0,0,-1,1245,1597,0,0
28,-573,0,0,0,0,0,0,0,0,0,-1,1252,1597,0,0
35,-573,0,0,0,0,0,0,0,0,0,-1,1259,1597,0,0
42,-573,0,0,0,0,0,0,0,0,0,-1,1266,1597,0,0
49,-573,0,0,0,0,0,0,0,0,0,-1,1273,1597,0,0
56,-573,0,0,0,0,0,0,0,0,0,-1,1280,1597,0,0
63,-573,0,0,0,0,0,0,0,0,0,-1,1287,1597,0,0
70,-573,0,0,0,0,0,0,0,0,0,-1,1294,1597,0,0
77,-573,0,0,0,0,0,0,0,0,0,-1,1301,1597,0,0
84,-573,0,0,0,0,0,0,0,0,0,-1,1308,1597,0,0
91,-573,0,0,0,0,0,0,0,0,0,-1,1315,1597,0,0
98,-573,0,0,0,0,0,0,0,0,0,-1,1322,1597,0,0
105,-573,0,0,0,0,0,0,0,0,0,-1,1329,1597,0,0
112,-573,0,0,0,0,0,0,0,0,0,-1,1336,1597,0,0
119,-573,0,0,0,0,0,0,0,0,0,-1,1343,1597,0,0
126,-573,0,0,0,0,0,0,0,0,0,-1,1350,1597,0,0
133,-573,0,0,0,0,0,0,0,0,0,-1,1357,1597,0,0
140,-573,0,0,0,0,0,0,0,0,0,-1,1364,1597,0,0
147,-573,0,0,0,0,0,0,0,0,0,-1,1371,1597,0,0
154,-573,0,0,0,0,0,0,0,0,0,-1,1378,1597,0,0
161,-573,0,0,0,0,0,0,0,0,0,-1,1385,1597,0,0
168,-573,0,0,0,0,0,0,0,0,0,-1,1392,1597,0,0
175,-573,0,0,0,0,0,0,0,0,0,-1,1399,1597,0,0
182,-573,0,0,0,0,0,0,0,0,0,-1,1406,1597,0,0
189,-573,0,0,0,0,0,0,0,0,0,-1,1413,1597,0,0
196,-573,0,0,0,0,0,0,0,0,0,-1,1420,1597,0,0
203,-573,0,0,0,0,0,0,0,0,0,-1,1427,1597,0,0
210,-573,0,0,0,0,0,0,0,0,0,-1,1434,1597,0,0
217,-573,0,0,0,0,0,0,0,0,0,-1,1441,1597,0,0
224,-573,0,0,0,0,0,0,0,0,0,-1,1448,1597,0,0
231,-573,0,0,0,0,0,0,0,0,0,-1,1455,1597,0,0
238,-573,0,0,0,0,0,0,0,0,0,-1,1462,1597,0,0
245,-573,0,0,0,0,0,0,0,0,0,-1,1469,1597,0,0
252,-573,0,0,0,0,0,0,0,0,0,-1,1476,1597,0,0
259,-573,0,0,0,0,0,0,0,0,0,-1,1483,1597,0,0
266,-573,0,0,0,0,0,0,0,0,0,-1,1490,1597,0,0
273,-573,0,0,0,0,0,0,0,0,0,-1,1497,1597,0,0
280,-573,0,0,0,0,0,0,0,0,0,-1,1504,1597,0,0
287,-573,0,0,0,0,0,0,0,0,0,-1,1511,1597,0,0
294,-573,0,0,0,0,0,0,0,0,0,-1,1518,1597,0,0
301,-573,0,0,0,0,0,0,0,0,0,-1,1525,1597,0,0
308,-573,5.93042,9.71143,0,0,0,0,0,0,0,-1,1532,1597,5.93046,-9.71144
315,-573,4.34204,11.719,0,0,0,0,0,0,0,-1,1539,1597,4.34205,-11.719
322,-573,10.3269,7.77563,0,0,0,0,0,0,0,-1,1546,1597,10.327,-7.77565
329,-573,4.99573,3.80273,0,0,0,0,0,0,0,-1,1553,1597,4.9957,-3.80273
336,-573,4.85693,2.53455,0,0,0,0,0,0,0,-1,1560,1597,4.8569,-2.53459
343,-573,5.5946,2.15894,0,0,0,0,0,0,0,-1,1567,1597,5.59456,-2.1589
350,-573,2.53748,1.56433,0,0,0,0,0,0,0,-1,1574,1597,2.53753,-1.5643
357,-573,7.40247,4.03613,0,0,0,0,0,0,0,-1,1581,1597,7.40244,-4.03614
364,-573,7.14551,3.02087,0,0,0,0,0,0,0,-1,1588,1597,7.14556,-3.02084
371,-573,6.88867,2.00549,0,0,0,0,0,0,0,-1,1595,1597,6.88868,-2.00553
378,-573,8.62012,6.09106,0,0,0,0,0,0,0,-1,1602,1597,8.62012,-6.09103
385,-573,6.54346,-0.951904,0,0,0,0,0,0,0,-1,1609,1597,6.54349,0.951901
392,-573,6.41833,-2.18225,0,0,0,0,0,0,0,-1,1616,1597,6.41831,2.18228
399,-573,4.26282,4.73657,0,0,0,0,0,0,0,-1,1623,1597,4.26285,-4.73652
406,-573,6.82715,10.823,0,0,0,0,0,0,0,-1,1630,1597,6.82719,-10.823
413,-573,8.90552,13.1737,0,0,0,0,0,0,0,-1,1637,1597,8.90553,-13.1737
420,-573,12.4368,20.7463,0,0,0,0,0,0,0,-1,1644,1597,12.4368,-20.7463
427,-573,12.485,21.2085,0,0,0,0,0,0,0,-1,1651,1597,12.485,-21.2085
434,-573,11.7938,20.8647,0,0,0,0,0,0,0,-1,1658,1597,11.7938,-20.8647
441,-573,11.7109,20.7528,-0.00520959,-0.00269346,0.00850602,0.00464703,-0.0125501,0.858817,0.0102723,0.043115,1665,1597,11.7109,-20.7528
448,-573,11.5234,20.5698,-0.00399434,-0.00194985,0.00654721,0.00365444,-0.00959862,0.86284,0.00790404,0.0315984,1672,1597,11.5235,-20.5699
455,-573,11.4908,20.1791,-0.00296808,-0.00115218,0.0047862,0.00281143,-0.00693168,0.879135,0.00579042,0.0234118,1679,1597,11.4908,-20.1791
462,-573,11.5811,19.7462,-0.00198315,-0.000296672,0.00317602,0.00214615,-0.00442597,0.915155,0.00386976,0.0204749,1686,1597,11.5811,-19.7462
469,-573,11.5891,19.4249,-0.00104089,0.000208583,0.00185896,0.00154498,-0.00237729,0.947503,0.00228145,0.0148223,1693,1597,11.5891,-19.4249
476,-573,11.5793,19.1101,-0.000264357,0.000685577,0.000647778,0.00101386,-0.000592639,1.10174,0.00093808,0.0130374,1700,1597,11.5794,-19.1101
483,-573,11.5773,18.8135,0.000398609,0.000710321,-9.93485e-05,0.000739292,0.000369638,-1.28705,0.000426831,0.0114563,1707,1597,11.5773,-18.8134
490,-573,11.554,18.4995,0.000837991,0.000821976,-0.000516022,0.00134607,0.0003139,-0.77764,0.000813197,0.0108416,1714,1597,11.5539,-18.4995
497,-573,11.5648,18.1331,0.00119931,0.00110134,-0.00101388,0.00216539,0.000135264,-0.761259,0.00140068,0.0165685,1721,1597,11.5648,-18.133
504,-573,11.5955,17.8392,0.00155113,0.00151951,-0.00137885,0.00291426,0.000156383,-0.779665,0.00189287,0.0167552,1728,1597,11.5955,-17.8393
511,-573,11.5961,17.5229,0.00173646,0.00147351,-0.00144884,0.00305978,0.000150195,-0.740151,0.00199168,0.0169847,1735,1597,11.596,-17.5229
518,-573,11.5377,17.1959,0.00198455,0.00160273,-0.00155859,0.00336388,0.000223399,-0.724458,0.00217196,0.0130311,1742,1597,11.5377,-17.196
525,-573,11.5497,16.8451,0.00227666,0.00161253,-0.00157014,0.00354946,0.000339724,-0.68119,0.00226159,0.016146,1749,1597,11.5497,-16.8451
532,-573,11.5398,16.5188,0.00264945,0.00132833,-0.00139912,0.0035361,0.000441678,-0.564847,0.00222484,0.0153625,1756,1597,11.5398,-16.5187
539,-573,11.4916,16.1873,0.00292624,0.000338142,-0.000821191,0.00316481,9.95732e-05,-0.282733,0.00207748,0.0250189,1763,1597,11.4916,-16.1873
546,-573,11.5134,15.8892,0,0,0,0,0,0,0,-1,1770,1597,11.5135,-15.8891
553,-573,11.1938,15.7997,0,0,0,0,0,0,0,-1,1777,1597,11.1938,-15.7997
560,-573,11.2239,16.0326,0,0,0,0,0,0,0,-1,1784,1597,11.2239,-16.0326
567,-573,4.99597,2.77759,0,0,0,0,0,0,0,-1,1791,1597,4.99596,-2.7776
574,-573,0.83374,5.7041,0,0,0,0,0,0,0,-1,1798,1597,0.833718,-5.70405
581,-573,-0.224854,7.41602,0,0,0,0,0,0,0,-1,1805,1597,-0.224904,-7.41596
588,-573,-0.134033,7.67065,0,0,0,0,0,0,0,-1,1812,1597,-0.134037,-7.67063
595,-573,-0.0825195,8.35083,0,0,0,0,0,0,0,-1,1819,1597,-0.0824684,-8.35088
602,-573,0,0,0,0,0,0,0,0,0,-1,1826,1597,0,0
609,-573,0,0,0,0,0,0,0,0,0,-1,1833,1597,0,0
616,-573,0,0,0,0,0,0,0,0,0,-1,1840,1597,0,0
623,-573,0,0,0,0,0,0,0,0,0,-1,1847,1597,0,0
630,-573,0,0,0,0,0,0,0,0,0,-1,1854,1597,0,0
637,-573,0,0,0,0,0,0,0,0,0,-1,1861,1597,0,0
644,-573,0,0,0,0,0,0,0,0,0,-1,1868,1597,0,0
651,-573,0,0,0,0,0,0,0,0,0,-1,1875,1597,0,0
658,-573,0,0,0,0,0,0,0,0,0,-1,1882,1597,0,0
665,-573,0,0,0,0,0,0,0,0,0,-1,1889,1597,0,0
672,-573,0,0,0,0,0,0,0,0,0,-1,1896,1597,0,0
679,-573,0,0,0,0,0,0,0,0,0,-1,1903,1597,0,0
686,-573,0,0,0,0,0,0,0,0,0,-1,1910,1597,0,0
693,-573,0,0,0,0,0,0,0,0,0,-1,1917,1597,0,0
700,-573,0,0,0,0,0,0,0,0,0,-1,1924,1597,0,0
707,-573,0,0,0,0,0,0,0,0,0,-1,1931,1597,0,0
714,-573,0,0,0,0,0,0,0,0,0,-1,1938,1597,0,0
721,-573,0,0,0,0,0,0,0,0,0,-1,1945,1597,0,0
728,-573,0,0,0,0,0,0,0,0,0,-1,1952,1597,0,0
735,-573,0,0,0,0,0,0,0,0,0,-1,1959,1597,0,0
742,-573,0,0,0,0,0,0,0,0,0,-1,1966,1597,0,0
749,-573,0,0,0,0,0,0,0,0,0,-1,1973,1597,0,0
756,-573,0,0,0,0,0,0,0,0,0,-1,1980,1597,0,0
763,-573,0,0,0,0,0,0,0,0,0,-1,1987,1597,0,0
770,-573,0,0,0,0,0,0,0,0,0,-1,1994,1597,0,0
777,-573,0,0,0,0,0,0,0,0,0,-1,2001,1597,0,0
784,-573,0,0,0,0,0,0,0,0,0,-1,2008,1597,0,0
791,-573,0,0,0,0,0,0,0,0,0,-1,2015,1597,0,0
798,-573,0,0,0,0,0,0,0,0,0,-1,2022,1597,0,0
805,-573,0,0,0,0,0,0,0,0,0,-1,2029,1597,0,0
812,-573,0,0,0,0,0,0,0,0,0,-1,2036,1597,0,0
-700,-580,0,0,0,0,0,0,0,0,0,-1,524,1604,0,0
-693,-580,0,0,0,0,0,0,0,0,0,-1,531,1604,0,0
-686,-580,0,0,0,0,0,0,0,0,0,-1,538,1604,0,0
-679,-580,0,0,0,0,0,0,0,0,0,-1,545,1604,0,0
-672,-580,0,0,0,0,0,0,0,0,0,-1,552,1604,0,0
-665,-580,0,0,0,0,0,0,0,0,0,-1,559,1604,0,0
-658,-580,0,0,0,0,0,0,0,0,0,-1,566,1604,0,0
-651,-580,0,0,0,0,0,0,0,0,0,-1,573,1604,0,0
-644,-580,0,0,0,0,0,0,0,0,0,-1,580,1604,0,0
-637,-580,0,0,0,0,0,0,0,0,0,-1,587,1604,0,0
-630,-580,0,0,0,0,0,0,0,0,0,-1,594,1604,0,0
-623,-580,0,0,0,0,0,0,0,0,0,-1,601,1604,0,0
-616,-580,0,0,0,0,0,0,0,0,0,-1,608,1604,0,0
-609,-580,0,0,0,0,0,0,0,0,0,-1,615,1604,0,0
-602,-580,0,0,0,0,0,0,0,0,0,-1,622,1604,0,0
-595,-580,0,0,0,0,0,0,0,0,0,-1,629,1604,0,0
-588,-580,0,0,0,0,0,0,0,0,0,-1,636,1604,0,0
-581,-580,0,0,0,0,0,0,0,0,0,-1,643,1604,0,0
-574,-580,0,0,0,0,0,0,0,0,0,-1,650,1604,0,0
-567,-580,0,0,0,0,0,0,0,0,0,-1,657,1604,0,0
-560,-580,0,0,0,0,0,0,0,0,0,-1,664,1604,0,0
-553,-580,0,0,0,0,0,0,0,0,0,-1,671,1604,0,0
-546,-580,0,0,0,0,0,0,0,0,0,-1,678,1604,0,0
-539,-580,0,0,0,0,0,0,0,0,0,-1,685,1604,0,0
-532,-580,0,0,0,0,0,0,0,0,0,-1,692,1604,0,0
-525,-580,0,0,0,0,0,0,0,0,0,-1,699,1604,0,0
-518,-580,0,0,0,0,0,0,0,0,0,-1,706,1604,0,0
-511,-580,0,0,0,0,0,0,0,0,0,-1,713,1604,0,0
-504,-580,0,0,0,0,0,0,0,0,0,-1,720,1604,0,0
-497,-580,0,0,0,0,0,0,0,0,0,-1,727,1604,0,0
-490,-580,0,0,0,0,0,0,0,0,0,-1,734,1604,0,0
-483,-580,0,0,0,0,0,0,0,0,0,-1,741,1604,0,0
-476,-580,0,0,0,0,0,0,0,0,0,-1,748,1604,0,0
-469,-580,-1.69189,-0.38916,0,0,0,0,0,0,0,-1,755,1604,-1.69192,0.389188
-462,-580,-0.859863,0.675293,0,0,0,0,0,0,0,-1,762,1604,-0.859834,-0.675245
-455,-580,-0.730164,0.651978,0,0,0,0,0,0,0,-1,769,1604,-0.730153,-0.651957
-448,-580,-3.31891,2.07544,0,0,0,0,0,0,0,-1,776,1604,-3.3189,-2.07539
-441,-580,-1.63843,3.9469,0,0,0,0,0,0,0,-1,783,1604,-1.63842,-3.94695
-434,-580,0.23291,5.97876,0,0,0,0,0,0,0,-1,790,1604,0.232901,-5.97878
-427,-580,1.62756,8.05493,0,0,0,0,0,0,0,-1,797,1604,1.62758,-8.05488
-420,-580,0.986572,11.2383,0,0,0,0,0,0,0,-1,804,1604,0.986544,-11.2382
-413,-580,1.40515,14.4537,0,0,0,0,0,0,0,-1,811,1604,1.40515,-14.4537
-406,-580,1.43732,14.8691,-0.00730625,0.00780861,0.00620825,0.0100316,-0.00952927,1.22695,0.0112947,0.0491542,818,1604,1.43729,-14.8692
-399,-580,1.29205,15.2488,-0.00573743,0.00531112,0.00548167,0.00756928,-0.00799559,1.18003,0.00898751,0.0218594,825,1604,1.29204,-15.2487
-392,-580,1.29224,15.6327,-0.00431628,0.00367702,0.00456218,0.00574558,-0.00638484,1.14511,0.00700674,0.0128531,832,1604,1.29226,-15.6327
-385,-580,1.31586,15.9907,-0.00320474,0.00305593,0.00379498,0.00484503,-0.00499384,1.13026,0.00568069,0.0114642,839,1604,1.31588,-15.9908
-378,-580,1.28351,16.3613,-0.00222413,0.00252272,0.00320705,0.00413907,-0.00384048,1.10395,0.00460807,0.0142101,846,1604,1.28349,-16.3614
-371,-580,1.26575,16.7441,-0.00140799,0.00197218,0.00250366,0.00330281,-0.00273862,1.08229,0.00349309,0.0137187,853,1604,1.26575,-16.7442
-364,-580,1.2674,17.0895,-0.000694417,0.0015449,0.00183276,0.00257295,-0.00172247,1.0596,0.00249611,0.0197425,860,1604,1.2674,-17.0895
-357,-580,1.28131,17.406,6.3434e-05,0.00136142,0.00129684,0.00216259,-0.000737738,1.0174,0.00174056,0.0133141,867,1604,1.2813,-17.406
-350,-580,1.27148,17.7877,0.000842329,0.00128811,0.000893099,0.00198571,0.000144725,0.907684,0.0012783,0.0100011,874,1604,1.27149,-17.7877
-343,-580,1.24774,18.1328,0.00177706,0.00136461,0.000842832,0.00243853,0.000703139,0.665414,0.00144932,0.0112775,881,1604,1.24776,-18.1328
-336,-580,1.2439,18.4387,0.00285064,0.00186288,0.00120573,0.00365972,0.0010538,0.591016,0.00217536,0.0200079,888,1604,1.24388,-18.4387
-329,-580,1.22839,18.8148,0.00396393,0.0026714,0.00175471,0.0051876,0.00144773,0.608954,0.00309098,0.0175891,895,1604,1.22842,-18.8148
-322,-580,1.21155,19.1459,0.005179,0.00362845,0.00258812,0.00710547,0.00170198,0.639876,0.00428387,0.0188215,902,1604,1.21153,-19.1459
-315,-580,1.24023,19.4966,0.00650733,0.00461423,0.00357731,0.0092612,0.00186037,0.656063,0.00565691,0.0189882,909,1604,1.24024,-19.4966
-308,-580,1.3233,19.9478,0.00802494,0.00586273,0.00491664,0.0119779,0.00190974,0.677177,0.00743097,0.0261047,916,1604,1.32328,-19.9478
-301,-580,1.39148,20.1448,0.00957361,0.00701446,0.00658233,0.0149996,0.00158849,0.689398,0.00951453,0.0243702,923,1604,1.39151,-20.1448
-294,-580,1.32214,20.3649,0.0110388,0.00801317,0.00848242,0.0181422,0.000909701,0.697154,0.0118033,0.0279757,930,1604,1.32213,-20.3649
-287,-580,1.37958,20.8822,0.012874,0.00935523,0.0105722,0.0218322,0.00039705,0.702946,0.0144242,0.0394885,937,1604,1.37961,-20.8823
-280,-580,1.44049,21.4237,0,0,0,0,0,0,0,-1,944,1604,1.44048,-21.4237
-273,-580,1.32697,21.8063,0,0,0,0,0,0,0,-1,951,1604,1.32696,-21.8062
-266,-580,1.10474,22.2063,0,0,0,0,0,0,0,-1,958,1604,1.10475,-22.2063
-259,-580,1.31091,9.11536,0,0,0,0,0,0,0,-1,965,1604,1.31092,-9.11539
-252,-580,1.07629,7.74097,0,0,0,0,0,0,0,-1,972,1604,1.07627,-7.74101
-245,-580,3.80304,9.16028,0,0,0,0,0,0,0,-1,979,1604,3.80306,-9.16034
-238,-580,-10.3588,1.57556,0,0,0,0,0,0,0,-1,986,1604,-10.3588,-1.5755
-231,-580,-10.576,6.43787,0,0,0,0,0,0,0,-1,993,1604,-10.576,-6.43783
-224,-580,-8.27435,7.58972,0,0,0,0,0,0,0,-1,1000,1604,-8.27435,-7.5897
-217,-580,-5.85632,9.51221,0,0,0,0,0,0,0,-1,1007,1604,-5.85632,-9.5122
-210,-580,-3.6684,11.1569,0,0,0,0,0,0,0,-1,1014,1604,-3.66839,-11.1569
-203,-580,-1.92474,12.7845,0,0,0,0,0,0,0,-1,1021,1604,-1.92477,-12.7845
-196,-580,-2.28552,10.3289,0,0,0,0,0,0,0,-1,1028,1604,-2.28552,-10.3288
-189,-580,-4.58252,7.59058,0,0,0,0,0,0,0,-1,1035,1604,-4.58256,-7.59057
-182,-580,-5.45874,7.65942,0,0,0,0,0,0,0,-1,1042,1604,-5.45876,-7.65939
-175,-580,-6.38977,7.55005,0,0,0,0,0,0,0,-1,1049,1604,-6.38981,-7.5501
-168,-580,0,0,0,0,0,0,0,0,0,-1,1056,1604,0,0
-161,-580,0,0,0,0,0,0,0,0,0,-1,1063,1604,0,0
-154,-580,0,0,0,0,0,0,0,0,0,-1,1070,1604,0,0
-147,-580,0,0,0,0,0,0,0,0,0,-1,1077,1604,0,0
-140,-580,0,0,0,0,0,0,0,0,0,-1,1084,1604,0,0
-133,-580,0,0,0,0,0,0,0,0,0,-1,1091,1604,0,0
-126,-580,0,0,0,0,0,0,0,0,0,-1,1098,1604,0,0
-119,-580,0,0,0,0,0,0,0,0,0,-1,1105,1604,0,0
-112,-580,0,0,0,0,0,0,0,0,0,-1,1112,1604,0,0
-105,-580,0,0,0,0,0,0,0,0,0,-1,1119,1604,0,0
-98,-580,0,0,0,0,0,0,0,0,0,-1,1126,1604,0,0
-91,-580,0,0,0,0,0,0,0,0,0,-1,1133,1604,0,0
-84,-580,0,0,0,0,0,0,0,0,0,-1,1140,1604,0,0
-77,-580,0,0,0,0,0,0,0,0,0,-1,1147,1604,0,0
-70,-580,0,0,0,0,0,0,0,0,0,-1,1154,1604,0,0
-63,-580,0,0,0,0,0,0,0,0,0,-1,1161,1604,0,0
-56,-580,0,0,0,0,0,0,0,0,0,-1,1168,1604,0,0
-49,-580,0,0,0,0,0,0,0,0,0,-1,1175,1604,0,0
-42,-580,0,0,0,0,0,0,0,0,0,-1,1182,1604,0,0
-35,-580,0,0,0,0,0,0,0,0,0,-1,1189,1604,0,0
-28,-580,0,0,0,0,0,0,0,0,0,-1,1196,1604,0,0
-21,-580,0,0,0,0,0,0,0,0,0,-1,1203,1604,0,0
-14,-580,0,0,0,0,0,0,0,0,0,-1,1210,1604,0,0
-7,-580,0,0,0,0,0,0,0,0,0,-1,1217,1604,0,0
0,-580,0,0,0,0,0,0,0,0,0,-1,1224,1604,0,0
7,-580,0,0,0,0,0,0,0,0,0,-1,1231,1604,0,0
14,-580,0,0,0,0,0,0,0,0,0,-1,1238,1604,0,0
21,-580,0,0,0,0,0,0,0,0,0,-1,1245,1604,0,0
28,-580,0,0,0,0,0,0,0,0,0,-1,1252,1604,0,0
35,-580,0,0,0,0,0,0,0,0,0,-1,1259,1604,0,0
42,-580,0,0,0,0,0,0,0,0,0,-1,1266,1604,0,0
49,-580,0,0,0,0,0,0,0,0,0,-1,1273,1604,0,0
56,-580,0,0,0,0,0,0,0,0,0,-1,1280,1604,0,0
63,-580,0,0,0,0,0,0,0,0,0,-1,1287,1604,0,0
70,-580,0,0,0,0,0,0,0,0,0,-1,1294,1604,0,0
77,-580,0,0,0,0,0,0,0,0,0,-1,1301,1604,0,0
84,-580,0,0,0,0,0,0,0,0,0,-1,1308,1604,0,0
91,-580,0,0,0,0,0,0,0,0,0,-1,1315,1604,0,0
98,-580,0,0,0,0,0,0,0,0,0,-1,1322,1604,0,0
105,-580,0,0,0,0,0,0,0,0,0,-1,1329,1604,0,0
112,-580,0,0,0,0,0,0,0,0,0,-1,1336,1604,0,0
119,-580,0,0,0,0,0,0,0,0,0,-1,1343,1604,0,0
126,-580,0,0,0,0,0,0,0,0,0,-1,1350,1604,0,0
133,-580,0,0,0,0,0,0,0,0,0,-1,1357,1604,0,0
140,-580,0,0,0,0,0,0,0,0,0,-1,1364,1604,0,0
147,-580,0,0,0,0,0,0,0,0,0,-1,1371,1604,0,0
154,-580,0,0,0,0,0,0,0,0,0,-1,1378,1604,0,0
161,-580,0,0,0,0,0,0,0,0,0,-1,1385,1604,0,0
168,-580,0,0,0,0,0,0,0,0,0,-1,1392,1604,0,0
175,-580,0,0,0,0,0,0,0,0,0,-1,1399,1604,0,0
182,-580,0,0,0,0,0,0,0,0,0,-1,1406,1604,0,0
189,-580,0,0,0,0,0,0,0,0,0,-1,1413,1604,0,0
196,-580,0,0,0,0,0,0,0,0,0,-1,1420,1604,0,0
203,-580,0,0,0,0,0,0,0,0,0,-1,1427,1604,0,0
210,-580,0,0,0,0,0,0,0,0,0,-1,1434,1604,0,0
217,-580,0,0,0,0,0,0,0,0,0,-1,1441,1604,0,0
224,-580,0,0,0,0,0,0,0,0,0,-1,1448,1604,0,0
231,-580,0,0,0,0,0,0,0,0,0,-1,1455,1604,0,0
238,-580,0,0,0,0,0,0,0,0,0,-1,1462,1604,0,0
245,-580,0,0,0,0,0,0,0,0,0,-1,1469,1604,0,0
252,-580,0,0,0,0,0,0,0,0,0,-1,1476,1604,0,0
259,-580,0,0,0,0,0,0,0,0,0,-1,1483,1604,0,0
266,-580,0,0,0,0,0,0,0,0,0,-1,1490,1604,0,0
273,-580,0,0,0,0,0,0,0,0,0,-1,1497,1604,0,0
280,-580,0,0,0,0,0,0,0,0,0,-1,1504,1604,0,0
287,-580,0,0,0,0,0,0,0,0,0,-1,1511,1604,0,0
294,-580,4.0437,0.177368,0,0,0,0,0,0,0,-1,1518,1604,4.04369,-0.177371
301,-580,7.55164,8.05798,0,0,0,0,0,0,0,-1,1525,1604,7.55158,-8.05802
308,-580,5.9126,9.99341,0,0,0,0,0,0,0,-1,1532,1604,5.91255,-9.99337
315,-580,4.27356,11.9287,0,0,0,0,0,0,0,-1,1539,1604,4.27352,-11.9287
322,-580,10.2366,7.50281,0,0,0,0,0,0,0,-1,1546,1604,10.2366,-7.50282
329,-580,10.5962,8.69641,0,0,0,0,0,0,0,-1,1553,1604,10.5962,-8.69642
336,-580,3.66431,1.58862,0,0,0,0,0,0,0,-1,1560,1604,3.6643,-1.58864
343,-580,3.32227,1.39636,0,0,0,0,0,0,0,-1,1567,1604,3.32222,-1.39633
350,-580,8.71277,4.0564,0,0,0,0,0,0,0,-1,1574,1604,8.71271,-4.05638
357,-580,8.52332,3.08154,0,0,0,0,0,0,0,-1,1581,1604,8.52332,-3.08157
364,-580,8.25818,2.07605,0,0,0,0,0,0,0,-1,1588,1604,8.25812,-2.07608
371,-580,7.42114,7.14282,0,0,0,0,0,0,0,-1,1595,1604,7.42119,-7.14281
378,-580,7.9718,6.6731,0,0,0,0,0,0,0,-1,1602,1604,7.9718,-6.67307
385,-580,8.52246,6.20337,0,0,0,0,0,0,0,-1,1609,1604,8.52241,-6.20334
392,-580,6.5498,-2.15625,0,0,0,0,0,0,0,-1,1616,1604,6.54984,2.15626
399,-580,6.52625,10.7247,0,0,0,0,0,0,0,-1,1623,1604,6.52628,-10.7248
406,-580,11.5446,21.8303,0,0,0,0,0,0,0,-1,1630,1604,11.5446,-21.8304
413,-580,11.9888,21.0469,0,0,0,0,0,0,0,-1,1637,1604,11.9887,-21.0469
420,-580,11.7512,21.1045,-0.00537187,-0.00373238,0.0112898,0.00676737,-0.0158716,0.821639,0.0134183,0.0451575,1644,1604,11.7513,-21.1045
427,-580,11.6506,21.2776,-0.00500917,-0.00300695,0.00985251,0.00589518,-0.0139113,0.836029,0.0117433,0.0400871,1651,1604,11.6506,-21.2776
434,-580,11.2407,21.0074,-0.00449675,-0.00255724,0.0083082,0.00483761,-0.0118916,0.843496,0.0099407,0.0293202,1658,1604,11.2408,-21.0075
441,-580,11.1914,20.6946,-0.00385952,-0.00163659,0.00668674,0.00403043,-0.00952654,0.867755,0.00803867,0.0132234,1665,1604,11.1914,-20.6946
448,-580,11.2369,20.3579,-0.00300565,-0.000956114,0.00511087,0.00323171,-0.00719347,0.88434,0.00616215,0.0127507,1672,1604,11.2369,-20.358
455,-580,11.2555,20.068,-0.00223897,-0.000367878,0.00365907,0.00247336,-0.00508021,0.910556,0.00444678,0.0194232,1679,1604,11.2555,-20.068
462,-580,11.2285,19.7502,-0.00145402,0.00025226,0.00228619,0.00183931,-0.00304107,0.963981,0.00284602,0.0229155,1686,1604,11.2285,-19.7502
469,-580,11.2551,19.4291,-0.000609291,0.000636803,0.0010748,0.00125609,-0.00122857,1.04807,0.00143455,0.0179966,1693,1604,11.2551,-19.429
476,-580,11.2706,19.1122,0.000175754,0.00112567,-0.000127856,0.00114258,0.000158846,-1.43932,0.000714682,0.0134695,1700,1604,11.2706,-19.1121
483,-580,11.2415,18.8135,0.000853524,0.0011899,-0.000912146,0.00194924,9.41917e-05,-0.876568,0.00126926,0.0125071,1707,1604,11.2415,-18.8135
490,-580,11.2119,18.5172,0.0013415,0.00134207,-0.00142073,0.00276251,-7.89394e-05,-0.785498,0.00186854,0.0149684,1714,1604,11.2119,-18.5172
497,-580,11.2042,18.1763,0.00178245,0.0016989,-0.00199549,0.0037366,-0.000255253,-0.774933,0.00258037,0.0120644,1721,1604,11.2042,-18.1763
504,-580,11.2111,17.8424,0.00220631,0.0021452,-0.00240414,0.00458009,-0.000228574,-0.779044,0.00313237,0.0172345,1728,1604,11.2111,-17.8424
511,-580,11.2251,17.5283,0.0024857,0.00219941,-0.0025347,0.00488129,-0.000196178,-0.75719,0.00332152,0.0174753,1735,1604,11.2251,-17.5283
518,-580,11.218,17.2067,0.00288184,0.00250539,-0.00273289,0.00543297,-4.5748e-05,-0.751015,0.00363733,0.0150017,1742,1604,11.218,-17.2067
525,-580,11.191,16.8649,0.00335416,0.00270028,-0.00282352,0.0058696,0.00018484,-0.727758,0.00385293,0.0165013,1749,1604,11.1911,-16.8648
532,-580,11.1914,16.5546,0.00390739,0.00257254,-0.0026724,0.00599445,0.000485479,-0.663027,0.0038447,0.0188757,1756,1604,11.1914,-16.5545
539,-580,11.2104,16.2338,0,0,0,0,0,0,0,-1,1763,1604,11.2104,-16.2337
546,-580,11.3363,15.9675,0,0,0,0,0,0,0,-1,1770,1604,11.3364,-15.9675
553,-580,10.4012,15.915,0,0,0,0,0,0,0,-1,1777,1604,10.4013,-15.9151
560,-580,7.09021,6.49438,0,0,0,0,0,0,0,-1,1784,1604,7.09016,-6.4944
567,-580,3.87708,4.0647,0,0,0,0,0,0,0,-1,1791,1604,3.87711,-4.06471
574,-580,2.31653,5.62952,0,0,0,0,0,0,0,-1,1798,1604,2.31654,-5.62947
581,-580,1.60876,6.67664,0,0,0,0,0,0,0,-1,1805,1604,1.60873,-6.67667
588,-580,1.38684,7.14441,0,0,0,0,0,0,0,-1,1812,1604,1.38689,-7.14443
595,-580,0,0,0,0,0,0,0,0,0,-1,1819,1604,0,0
602,-580,0,0,0,0,0,0,0,0,0,-1,1826,1604,0,0
609,-580,0,0,0,0,0,0,0,0,0,-1,1833,1604,0,0
616,-580,0,0,0,0,0,0,0,0,0,-1,1840,1604,0,0
623,-580,0,0,0,0,0,0,0,0,0,-1,1847,1604,0,0
630,-580,0,0,0,0,0,0,0,0,0,-1,1854,1604,0,0
637,-580,0,0,0,0,0,0,0,0,0,-1,1861,1604,0,0
644,-580,0,0,0,0,0,0,0,0,0,-1,1868,1604,0,0
651,-580,0,0,0,0,0,0,0,0,0,-1,1875,1604,0,0
658,-580,0,0,0,0,0,0,0,0,0,-1,1882,1604,0,0
665,-580,0,0,0,0,0,0,0,0,0,-1,1889,1604,0,0
672,-580,0,0,0,0,0,0,0,0,0,-1,1896,1604,0,0
679,-580,0,0,0,0,0,0,0,0,0,-1,1903,1604,0,0
686,-580,0,0,0,0,0,0,0,0,0,-1,1910,1604,0,0
693,-580,0,0,0,0,0,0,0,0,0,-1,1917,1604,0,0
700,-580,0,0,0,0,0,0,0,0,0,-1,1924,1604,0,0
707,-580,0,0,0,0,0,0,0,0,0,-1,1931,1604,0,0
714,-580,0,0,0,0,0,0,0,0,0,-1,1938,1604,0,0
721,-580,0,0,0,0,0,0,0,0,0,-1,1945,1604,0,0
728,-580,0,0,0,0,0,0,0,0,0,-1,1952,1604,0,0
735,-580,0,0,0,0,0,0,0,0,0,-1,1959,1604,0,0
742,-580,0,0,0,0,0,0,0,0,0,-1,1966,1604,0,0
749,-580,0,0,0,0,0,0,0,0,0,-1,1973,1604,0,0
756,-580,0,0,0,0,0,0,0,0,0,-1,1980,1604,0,0
763,-580,0,0,0,0,0,0,0,0,0,-1,1987,1604,0,0
770,-580,0,0,0,0,0,0,0,0,0,-1,1994,1604,0,0
777,-580,0,0,0,0,0,0,0,0,0,-1,2001,1604,0,0
784,-580,0,0,0,0,0,0,0,0,0,-1,2008,1604,0,0
791,-580,0,0,0,0,0,0,0,0,0,-1,2015,1604,0,0
798,-580,0,0,0,0,0,0,0,0,0,-1,2022,1604,0,0
805,-580,0,0,0,0,0,0,0,0,0,-1,2029,1604,0,0
812,-580,0,0,0,0,0,0,0,0,0,-1,2036,1604,0,0
-700,-587,0,0,0,0,0,0,0,0,0,-1,524,1611,0,0
-693,-587,0,0,0,0,0,0,0,0,0,-1,531,1611,0,0
-686,-587,0,0,0,0,0,0,0,0,0,-1,538,1611,0,0
-679,-587,0,0,0,0,0,0,0,0,0,-1,545,1611,0,0
-672,-587,0,0,0,0,0,0,0,0,0,-1,552,1611,0,0
-665,-587,0,0,0,0,0,0,0,0,0,-1,559,1611,0,0
-658,-587,0,0,0,0,0,0,0,0,0,-1,566,1611,0,0
-651,-587,0,0,0,0,0,0,0,0,0,-1,573,1611,0,0
-644,-587,0,0,0,0,0,0,0,0,0,-1,580,1611,0,0
-637,-587,0,0,0,0,0,0,0,0,0,-1,587,1611,0,0
-630,-587,0,0,0,0,0,0,0,0,0,-1,594,1611,0,0
-623,-587,0,0,0,0,0,0,0,0,0,-1,601,1611,0,0
-616,-587,0,0,0,0,0,0,0,0,0,-1,608,1611,0,0
-609,-587,0,0,0,0,0,0,0,0,0,-1,615,1611,0,0
-602,-587,0,0,0,0,0,0,0,0,0,-1,622,1611,0,0
-595,-587,0,0,0,0,0,0,0,0,0,-1,629,1611,0,0
-588,-587,0,0,0,0,0,0,0,0,0,-1,636,1611,0,0
-581,-587,0,0,0,0,0,0,0,0,0,-1,643,1611,0,0
-574,-587,0,0,0,0,0,0,0,0,0,-1,650,1611,0,0
-567,-587,0,0,0,0,0,0,0,0,0,-1,657,1611,0,0
-560,-587,0,0,0,0,0,0,0,0,0,-1,664,1611,0,0
-553,-587,0,0,0,0,0,0,0,0,0,-1,671,1611,0,0
-546,-587,0,0,0,0,0,0,0,0,0,-1,678,1611,0,0
-539,-587,0,0,0,0,0,0,0,0,0,-1,685,1611,0,0
-532,-587,0,0,0,0,0,0,0,0,0,-1,692,1611,0,0
-525,-587,0,0,0,0,0,0,0,0,0,-1,699,1611,0,0
-518,-587,0,0,0,0,0,0,0,0,0,-1,706,1611,0,0
-511,-587,0,0,0,0,0,0,0,0,0,-1,713,1611,0,0
-504,-587,0,0,0,0,0,0,0,0,0,-1,720,1611,0,0
-497,-587,0,0,0,0,0,0,0,0,0,-1,727,1611,0,0
-490,-587,0,0,0,0,0,0,0,0,0,-1,734,1611,0,0
-483,-587,0,0,0,0,0,0,0,0,0,-1,741,1611,0,0
-476,-587,0,0,0,0,0,0,0,0,0,-1,748,1611,0,0
-469,-587,0,0,0,0,0,0,0,0,0,-1,755,1611,0,0
-462,-587,-0.714355,-0.418457,0,0,0,0,0,0,0,-1,762,1611,-0.714359,0.418483
-455,-587,-0.619812,-0.522461,0,0,0,0,0,0,0,-1,769,1611,-0.619802,0.522515
-448,-587,-0.461731,-0.686523,0,0,0,0,0,0,0,-1,776,1611,-0.461739,0.686559
-441,-587,-3.56555,2.72253,0,0,0,0,0,0,0,-1,783,1611,-3.56555,-2.72259
-434,-587,-1.77319,4.76318,0,0,0,0,0,0,0,-1,790,1611,-1.77318,-4.76323
-427,-587,0.0346069,6.92944,0,0,0,0,0,0,0,-1,797,1611,0.034587,-6.92941
-420,-587,-0.647156,10.1157,0,0,0,0,0,0,0,-1,804,1611,-0.647128,-10.1158
-413,-587,2.13971,10.3901,0,0,0,0,0,0,0,-1,811,1611,2.13971,-10.3902
-406,-587,1.91803,14.8381,0,0,0,0,0,0,0,-1,818,1611,1.91804,-14.8382
-399,-587,1.84888,15.1968,-0.00705994,0.00770878,0.00821718,0.0113721,-0.0107232,1.15143,0.0127586,0.0394248,825,1611,1.84889,-15.1968
-392,-587,1.75092,15.5626,-0.00537725,0.00539606,0.00676739,0.00865889,-0.00864008,1.12154,0.00998757,0.0293762,832,1611,1.75091,-15.5626
-385,-587,1.62482,15.9634,-0.0040767,0.00422569,0.00554246,0.00699919,-0.00685019,1.10682,0.0079961,0.0166004,839,1611,1.62481,-15.9634
-378,-587,1.59229,16.3706,-0.00296245,0.00327331,0.00456115,0.0056804,-0.00536954,1.08521,0.00638052,0.0125429,846,1611,1.59229,-16.3707
-371,-587,1.57538,16.7423,-0.00205536,0.00237496,0.0035386,0.00433456,-0.00401496,1.06506,0.00482177,0.0138518,853,1611,1.57539,-16.7423
-364,-587,1.60114,17.0944,-0.00129267,0.00166933,0.0026048,0.00318472,-0.00280806,1.04389,0.00346221,0.0181295,860,1611,1.60113,-17.0944
-357,-587,1.60614,17.406,-0.000544333,0.00123161,0.00186642,0.00241052,-0.00172324,1.00743,0.0023976,0.0169508,867,1611,1.60614,-17.406
-350,-587,1.58472,17.7854,0.00023812,0.00101343,0.0013312,0.00201227,-0.000760722,0.927083,0.00165445,0.00923202,874,1611,1.5847,-17.7854
-343,-587,1.55511,18.1453,0.00108433,0.000956278,0.00112762,0.00214975,-0.000109134,0.757038,0.00147089,0.0118057,881,1611,1.5551,-18.1453
-336,-587,1.52606,18.4678,0.00201519,0.0011534,0.00116497,0.0028264,0.000342191,0.608261,0.00178119,0.0126788,888,1611,1.52607,-18.4678
-329,-587,1.53949,18.7965,0.00296144,0.00186479,0.0015149,0.0040242,0.000802031,0.611756,0.00245944,0.0148604,895,1611,1.53952,-18.7965
-322,-587,1.55969,19.1282,0.00394186,0.00269592,0.00214511,0.00555263,0.00108515,0.644078,0.00339829,0.017502,902,1611,1.55968,-19.1281
-315,-587,1.54852,19.4545,0.00496948,0.0034915,0.00287343,0.00719743,0.00126355,0.659535,0.00443747,0.0152861,909,1611,1.54851,-19.4545
-308,-587,1.53748,19.8087,0.00610701,0.00440528,0.00381785,0.00916767,0.00134463,0.675758,0.00571653,0.0158176,916,1611,1.53745,-19.8087
-301,-587,1.60968,20.1362,0.00722367,0.00528775,0.00499987,0.0113484,0.001163,0.689783,0.00720928,0.0140159,923,1611,1.60969,-20.1363
-294,-587,1.69666,20.4972,0.00823553,0.00600502,0.00630976,0.0135278,0.00071271,0.697926,0.00879063,0.0216746,930,1611,1.69665,-20.4972
-287,-587,1.65002,20.9105,0.00952671,0.007036,0.00765445,0.0160365,0.000526257,0.704757,0.0105199,0.0357065,937,1611,1.65001,-20.9105
-280,-587,1.74884,21.1718,0,0,0,0,0,0,0,-1,944,1611,1.74883,-21.1717
-273,-587,1.53906,21.526,0,0,0,0,0,0,0,-1,951,1611,1.53909,-21.526
-266,-587,1.58716,21.6108,0,0,0,0,0,0,0,-1,958,1611,1.58716,-21.6109
-259,-587,1.65869,20.3835,0,0,0,0,0,0,0,-1,965,1611,1.65868,-20.3835
-252,-587,1.30188,10.3103,0,0,0,0,0,0,0,-1,972,1611,1.30188,-10.3104
-245,-587,2.30078,21.8326,0,0,0,0,0,0,0,-1,979,1611,2.30077,-21.8326
-238,-587,2.87799,9.53821,0,0,0,0,0,0,0,-1,986,1611,2.87797,-9.53823
-231,-587,2.49548,9.14465,0,0,0,0,0,0,0,-1,993,1611,2.49551,-9.14468
-224,-587,-9.72528,9.21069,0,0,0,0,0,0,0,-1,1000,1611,-9.72529,-9.21072
-217,-587,-7.07495,10.7847,0,0,0,0,0,0,0,-1,1007,1611,-7.07495,-10.7847
-210,-587,-4.72308,12.5889,0,0,0,0,0,0,0,-1,1014,1611,-4.72307,-12.5888
-203,-587,-3.2583,13.7289,0,0,0,0,0,0,0,-1,1021,1611,-3.25828,-13.7289
-196,-587,-1.953,14.8145,0,0,0,0,0,0,0,-1,1028,1611,-1.95302,-14.8144
-189,-587,-3.04138,8.66638,0,0,0,0,0,0,0,-1,1035,1611,-3.04136,-8.66635
-182,-587,-3.97095,9.7146,0,0,0,0,0,0,0,-1,1042,1611,-3.97093,-9.71461
-175,-587,-4.80969,8.37878,0,0,0,0,0,0,0,-1,1049,1611,-4.80964,-8.37883
-168,-587,-5.91394,8.72546,0,0,0,0,0,0,0,-1,1056,1611,-5.91398,-8.72542
-161,-587,-7.06946,8.88501,0,0,0,0,0,0,0,-1,1063,1611,-7.06947,-8.885
-154,-587,-2.24731,6.56519,0,0,0,0,0,0,0,-1,1070,1611,-2.24728,-6.56517
-147,-587,0,0,0,0,0,0,0,0,0,-1,1077,1611,0,0
-140,-587,0,0,0,0,0,0,0,0,0,-1,1084,1611,0,0
-133,-587,0,0,0,0,0,0,0,0,0,-1,1091,1611,0,0
-126,-587,0,0,0,0,0,0,0,0,0,-1,1098,1611,0,0
-119,-587,0,0,0,0,0,0,0,0,0,-1,1105,1611,0,0
-112,-587,0,0,0,0,0,0,0,0,0,-1,1112,1611,0,0
-105,-587,0,0,0,0,0,0,0,0,0,-1,1119,1611,0,0
-98,-587,0,0,0,0,0,0,0,0,0,-1,1126,1611,0,0
-91,-587,0,0,0,0,0,0,0,0,0,-1,1133,1611,0,0
-84,-587,0,0,0,0,0,0,0,0,0,-1,1140,1611,0,0
-77,-587,0,0,0,0,0,0,0,0,0,-1,1147,1611,0,0
-70,-587,0,0,0,0,0,0,0,0,0,-1,1154,1611,0,0
-63,-587,0,0,0,0,0,0,0,0,0,-1,1161,1611,0,0
-56,-587,0,0,0,0,0,0,0,0,0,-1,1168,1611,0,0
-49,-587,0,0,0,0,0,0,0,0,0,-1,1175,1611,0,0
-42,-587,0,0,0,0,0,0,0,0,0,-1,1182,1611,0,0
-35,-587,0,0,0,0,0,0,0,0,0,-1,1189,1611,0,0
-28,-587,0,0,0,0,0,0,0,0,0,-1,1196,1611,0,0
-21,-587,0,0,0,0,0,0,0,0,0,-1,1203,1611,0,0
-14,-587,0,0,0,0,0,0,0,0,0,-1,1210,1611,0,0
-7,-587,0,0,0,0,0,0,0,0,0,-1,1217,1611,0,0
0,-587,0,0,0,0,0,0,0,0,0,-1,1224,1611,0,0
7,-587,0,0,0,0,0,0,0,0,0,-1,1231,1611,0,0
14,-587,0,0,0,0,0,0,0,0,0,-1,1238,1611,0,0
21,-587,0,0,0,0,0,0,0,0,0,-1,1245,1611,0,0
28,-587,0,0,0,0,0,0,0,0,0,-1,1252,1611,0,0
35,-587,0,0,0,0,0,0,0,0,0,-1,1259,1611,0,0
42,-587,0,0,0,0,0,0,0,0,0,-1,1266,1611,0,0
49,-587,0,0,0,0,0,0,0,0,0,-1,1273,1611,0,0
56,-587,0,0,0,0,0,0,0,0,0,-1,1280,1611,0,0
63,-587,0,0,0,0,0,0,0,0,0,-1,1287,1611,0,0
70,-587,0,0,0,0,0,0,0,0,0,-1,1294,1611,0,0
77,-587,0,0,0,0,0,0,0,0,0,-1,1301,1611,0,0
84,-587,0,0,0,0,0,0,0,0,0,-1,1308,1611,0,0
91,-587,0,0,0,0,0,0,0,0,0,-1,1315,1611,0,0
98,-587,0,0,0,0,0,0,0,0,0,-1,1322,1611,0,0
105,-587,0,0,0,0,0,0,0,0,0,-1,1329,1611,0,0
112,-587,0,0,0,0,0,0,0,0,0,-1,1336,1611,0,0
119,-587,0,0,0,0,0,0,0,0,0,-1,1343,1611,0,0
126,-587,0,0,0,0,0,0,0,0,0,-1,1350,1611,0,0
133,-587,0,0,0,0,0,0,0,0,0,-1,1357,1611,0,0
140,-587,0,0,0,0,0,0,0,0,0,-1,1364,1611,0,0
147,-587,0,0,0,0,0,0,0,0,0,-1,1371,1611,0,0
154,-587,0,0,0,0,0,0,0,0,0,-1,1378,1611,0,0
161,-587,0,0,0,0,0,0,0,0,0,-1,1385,1611,0,0
168,-587,0,0,0,0,0,0,0,0,0,-1,1392,1611,0,0
175,-587,0,0,0,0,0,0,0,0,0,-1,1399,1611,0,0
182,-587,0,0,0,0,0,0,0,0,0,-1,1406,1611,0,0
189,-587,0,0,0,0,0,0,0,0,0,-1,1413,1611,0,0
196,-587,0,0,0,0,0,0,0,0,0,-1,1420,1611,0,0
203,-587,0,0,0,0,0,0,0,0,0,-1,1427,1611,0,0
210,-587,0,0,0,0,0,0,0,0,0,-1,1434,1611,0,0
217,-587,0,0,0,0,0,0,0,0,0,-1,1441,1611,0,0
224,-587,0,0,0,0,0,0,0,0,0,-1,1448,1611,0,0
231,-587,0,0,0,0,0,0,0,0,0,-1,1455,1611,0,0
238,-587,0,0,0,0,0,0,0,0,0,-1,1462,1611,0,0
245,-587,0,0,0,0,0,0,0,0,0,-1,1469,1611,0,0
252,-587,0,0,0,0,0,0,0,0,0,-1,1476,1611,0,0
259,-587,0,0,0,0,0,0,0,0,0,-1,1483,1611,0,0
266,-587,0,0,0,0,0,0,0,0,0,-1,1490,1611,0,0
273,-587,10.2936,6.35083,0,0,0,0,0,0,0,-1,1497,1611,10.2936,-6.35087
280,-587,2.09204,1.1217,0,0,0,0,0,0,0,-1,1504,1611,2.092,-1.12176
287,-587,3.2865,0.671509,0,0,0,0,0,0,0,-1,1511,1611,3.28656,-0.671538
294,-587,4.24646,1.58765,0,0,0,0,0,0,0,-1,1518,1611,4.24648,-1.58761
301,-587,7.60474,8.37085,0,0,0,0,0,0,0,-1,1525,1611,7.60478,-8.37084
308,-587,5.99316,10.2291,0,0,0,0,0,0,0,-1,1532,1611,5.99315,-10.2291
315,-587,4.34558,12.3289,0,0,0,0,0,0,0,-1,1539,1611,4.34556,-12.3288
322,-587,10.4526,6.38245,0,0,0,0,0,0,0,-1,1546,1611,10.4526,-6.38245
329,-587,10.7738,8.42444,0,0,0,0,0,0,0,-1,1553,1611,10.7738,-8.42438
336,-587,7.5531,5.96619,0,0,0,0,0,0,0,-1,1560,1611,7.55311,-5.96617
343,-587,9.57495,4.38391,0,0,0,0,0,0,0,-1,1567,1611,9.57494,-4.38397
350,-587,9.50378,3.45093,0,0,0,0,0,0,0,-1,1574,1611,9.50376,-3.4509
357,-587,9.40027,2.50806,0,0,0,0,0,0,0,-1,1581,1611,9.40022,-2.50803
364,-587,9.26477,1.34131,0,0,0,0,0,0,0,-1,1588,1611,9.26479,-1.34126
371,-587,6.98926,7.87561,0,0,0,0,0,0,0,-1,1595,1611,6.98928,-7.87564
378,-587,9.25146,13.8358,0,0,0,0,0,0,0,-1,1602,1611,9.2515,-13.8359
385,-587,7.17224,7.03772,0,0,0,0,0,0,0,-1,1609,1611,7.1722,-7.03778
392,-587,5.3916,8.21436,0,0,0,0,0,0,0,-1,1616,1611,5.39157,-8.21437
399,-587,10.8422,22.373,0,0,0,0,0,0,0,-1,1623,1611,10.8422,-22.3731
406,-587,11.1267,21.9679,-0.00180863,0.000365401,0.0077297,0.00708415,-0.00852738,0.855254,0.00902615,0.0478443,1630,1611,11.1267,-21.9679
413,-587,11.1626,21.6401,-0.00276417,-0.00109172,0.00820059,0.00631517,-0.0101711,0.836208,0.00960472,0.0353878,1637,1611,11.1626,-21.6401
420,-587,11.0162,21.6271,-0.00319853,-0.00158193,0.00779662,0.00544818,-0.0102286,0.83705,0.00919022,0.0316396,1644,1611,11.0163,-21.6271
427,-587,10.9897,21.3411,-0.00330544,-0.0015707,0.00708964,0.00470443,-0.00958057,0.846267,0.00840608,0.0244947,1651,1611,10.9897,-21.3411
434,-587,10.9211,20.9807,-0.00308008,-0.00156627,0.0061226,0.00384603,-0.00849239,0.846898,0.00729001,0.0156252,1658,1611,10.9211,-20.9807
441,-587,10.9379,20.634,-0.0026656,-0.00104572,0.0049511,0.00316125,-0.00687257,0.866474,0.00592365,0.0175636,1665,1611,10.9379,-20.6341
448,-587,10.9543,20.3606,-0.00207586,-0.000561205,0.00375753,0.00251456,-0.00515162,0.88484,0.00451252,0.0149108,1672,1611,10.9543,-20.3606
455,-587,10.9316,20.0658,-0.00151145,-0.000171678,0.00261549,0.00185835,-0.00354148,0.910765,0.00316768,0.0137733,1679,1611,10.9316,-20.0658
462,-587,10.9084,19.7637,-0.000873944,0.000258677,0.00148177,0.00127867,-0.00189394,0.967925,0.00184315,0.0172339,1686,1611,10.9085,-19.7636
469,-587,10.9288,19.4612,-9.92291e-05,0.000552358,0.000407389,0.000748204,-0.000295075,1.12268,0.000620986,0.0144981,1693,1611,10.9288,-19.4612
476,-587,10.9365,19.165,0.00069537,0.00106878,-0.000741124,0.00164635,0.000117795,-0.908791,0.00106049,0.00997743,1700,1611,10.9365,-19.1651
483,-587,10.89,18.8344,0.00138765,0.00121905,-0.00153254,0.00283821,-0.000231508,-0.757921,0.00197384,0.0125826,1707,1611,10.89,-18.8343
490,-587,10.8812,18.5056,0.0019345,0.00148463,-0.00214046,0.00386181,-0.000442678,-0.733047,0.00273407,0.0154731,1714,1611,10.8813,-18.5056
497,-587,10.8721,18.1801,0.00248006,0.00201292,-0.002832,0.00508811,-0.000595127,-0.744253,0.00360685,0.0126723,1721,1611,10.8721,-18.1801
504,-587,10.8525,17.8684,0.00302815,0.00260925,-0.00337799,0.00620318,-0.000565773,-0.754436,0.00433636,0.0127475,1728,1611,10.8525,-17.8684
511,-587,10.8677,17.5524,0.00348071,0.00293365,-0.00370719,0.00692445,-0.000510084,-0.748573,0.00479538,0.0146031,1735,1611,10.8676,-17.5523
518,-587,10.8921,17.2213,0.00412102,0.00360736,-0.00415425,0.00802638,-0.000297992,-0.754526,0.00545296,0.0136224,1742,1611,10.8921,-17.2213
525,-587,10.864,16.8804,0.00487893,0.00421494,-0.00452422,0.00908333,1.05454e-05,-0.748773,0.00605204,0.0161524,1749,1611,10.864,-16.8804
532,-587,10.8965,16.5886,0.00570763,0.00453459,-0.00459827,0.00975664,0.000485589,-0.721965,0.00634876,0.0293453,1756,1611,10.8965,-16.5887
539,-587,10.9591,16.2699,0,0,0,0,0,0,0,-1,1763,1611,10.9591,-16.2699
546,-587,9.57629,12.9152,0,0,0,0,0,0,0,-1,1770,1611,9.57624,-12.9152
553,-587,7.5813,8.45068,0,0,0,0,0,0,0,-1,1777,1611,7.58125,-8.45068
560,-587,4.21179,5.23547,0,0,0,0,0,0,0,-1,1784,1611,4.21185,-5.23553
567,-587,4.03711,5.46387,0,0,0,0,0,0,0,-1,1791,1611,4.03715,-5.46382
574,-587,3.83142,5.68884,0,0,0,0,0,0,0,-1,1798,1611,3.83141,-5.68881
581,-587,3.47168,6.00977,0,0,0,0,0,0,0,-1,1805,1611,3.47167,-6.00983
588,-587,0,0,0,0,0,0,0,0,0,-1,1812,1611,0,0
595,-587,0,0,0,0,0,0,0,0,0,-1,1819,1611,0,0
602,-587,0,0,0,0,0,0,0,0,0,-1,1826,1611,0,0
609,-587,0,0,0,0,0,0,0,0,0,-1,1833,1611,0,0
616,-587,0,0,0,0,0,0,0,0,0,-1,1840,1611,0,0
623,-587,0,0,0,0,0,0,0,0,0,-1,1847,1611,0,0
630,-587,0,0,0,0,0,0,0,0,0,-1,1854,1611,0,0
637,-587,0,0,0,0,0,0,0,0,0,-1,1861,1611,0,0
644,-587,0,0,0,0,0,0,0,0,0,-1,1868,1611,0,0
651,-587,0,0,0,0,0,0,0,0,0,-1,1875,1611,0,0
658,-587,0,0,0,0,0,0,0,0,0,-1,1882,1611,0,0
665,-587,0,0,0,0,0,0,0,0,0,-1,1889,1611,0,0
672,-587,0,0,0,0,0,0,0,0,0,-1,1896,1611,0,0
679,-587,0,0,0,0,0,0,0,0,0,-1,1903,1611,0,0
686,-587,0,0,0,0,0,0,0,0,0,-1,1910,1611,0,0
693,-587,0,0,0,0,0,0,0,0,0,-1,1917,1611,0,0
700,-587,0,0,0,0,0,0,0,0,0,-1,1924,1611,0,0
707,-587,0,0,0,0,0,0,0,0,0,-1,1931,1611,0,0
714,-587,0,0,0,0,0,0,0,0,0,-1,1938,1611,0,0
721,-587,0,0,0,0,0,0,0,0,0,-1,1945,1611,0,0
728,-587,0,0,0,0,0,0,0,0,0,-1,1952,1611,0,0
735,-587,0,0,0,0,0,0,0,0,0,-1,1959,1611,0,0
742,-587,0,0,0,0,0,0,0,0,0,-1,1966,1611,0,0
749,-587,0,0,0,0,0,0,0,0,0,-1,1973,1611,0,0
756,-587,0,0,0,0,0,0,0,0,0,-1,1980,1611,0,0
763,-587,0,0,0,0,0,0,0,0,0,-1,1987,1611,0,0
770,-587,0,0,0,0,0,0,0,0,0,-1,1994,1611,0,0
777,-587,0,0,0,0,0,0,0,0,0,-1,2001,1611,0,0
784,-587,0,0,0,0,0,0,0,0,0,-1,2008,1611,0,0
791,-587,0,0,0,0,0,0,0,0,0,-1,2015,1611,0,0
798,-587,0,0,0,0,0,0,0,0,0,-1,2022,1611,0,0
805,-587,0,0,0,0,0,0,0,0,0,-1,2029,1611,0,0
812,-587,0,0,0,0,0,0,0,0,0,-1,2036,1611,0,0
-700,-594,0,0,0,0,0,0,0,0,0,-1,524,1618,0,0
-693,-594,0,0,0,0,0,0,0,0,0,-1,531,1618,0,0
-686,-594,0,0,0,0,0,0,0,0,0,-1,538,1618,0,0
-679,-594,0,0,0,0,0,0,0,0,0,-1,545,1618,0,0
-672,-594,0,0,0,0,0,0,0,0,0,-1,552,1618,0,0
-665,-594,0,0,0,0,0,0,0,0,0,-1,559,1618,0,0
-658,-594,0,0,0,0,0,0,0,0,0,-1,566,1618,0,0
-651,-594,0,0,0,0,0,0,0,0,0,-1,573,1618,0,0
-644,-594,0,0,0,0,0,0,0,0,0,-1,580,1618,0,0
-637,-594,0,0,0,0,0,0,0,0,0,-1,587,1618,0,0
-630,-594,0,0,0,0,0,0,0,0,0,-1,594,1618,0,0
-623,-594,0,0,0,0,0,0,0,0,0,-1,601,1618,0,0
-616,-594,0,0,0,0,0,0,0,0,0,-1,608,1618,0,0
-609,-594,0,0,0,0,0,0,0,0,0,-1,615,1618,0,0
-602,-594,0,0,0,0,0,0,0,0,0,-1,622,1618,0,0
-595,-594,0,0,0,0,0,0,0,0,0,-1,629,1618,0,0
-588,-594,0,0,0,0,0,0,0,0,0,-1,636,1618,0,0
-581,-594,0,0,0,0,0,0,0,0,0,-1,643,1618,0,0
-574,-594,0,0,0,0,0,0,0,0,0,-1,650,1618,0,0
-567,-594,0,0,0,0,0,0,0,0,0,-1,657,1618,0,0
-560,-594,0,0,0,0,0,0,0,0,0,-1,664,1618,0,0
-553,-594,0,0,0,0,0,0,0,0,0,-1,671,1618,0,0
-546,-594,0,0,0,0,0,0,0,0,0,-1,678,1618,0,0
-539,-594,0,0,0,0,0,0,0,0,0,-1,685,1618,0,0
-532,-594,0,0,0,0,0,0,0,0,0,-1,692,1618,0,0
-525,-594,0,0,0,0,0,0,0,0,0,-1,699,1618,0,0
-518,-594,0,0,0,0,0,0,0,0,0,-1,706,1618,0,0
-511,-594,0,0,0,0,0,0,0,0,0,-1,713,1618,0,0
-504,-594,0,0,0,0,0,0,0,0,0,-1,720,1618,0,0
-497,-594,0,0,0,0,0,0,0,0,0,-1,727,1618,0,0
-490,-594,0,0,0,0,0,0,0,0,0,-1,734,1618,0,0
-483,-594,0,0,0,0,0,0,0,0,0,-1,741,1618,0,0
-476,-594,0,0,0,0,0,0,0,0,0,-1,748,1618,0,0
-469,-594,0,0,0,0,0,0,0,0,0,-1,755,1618,0,0
-462,-594,0,0,0,0,0,0,0,0,0,-1,762,1618,0,0
-455,-594,-0.509216,-1.58411,0,0,0,0,0,0,0,-1,769,1618,-0.509245,1.58415
-448,-594,-7.71887,-0.0559082,0,0,0,0,0,0,0,-1,776,1618,-7.71885,0.055939
-441,-594,-5.78473,1.18298,0,0,0,0,0,0,0,-1,783,1618,-5.78474,-1.18295
-434,-594,-3.93628,3.06213,0,0,0,0,0,0,0,-1,790,1618,-3.93631,-3.06208
-427,-594,-3.97693,6.77759,0,0,0,0,0,0,0,-1,797,1618,-3.97695,-6.77764
-420,-594,-2.53046,7.71606,0,0,0,0,0,0,0,-1,804,1618,-2.53047,-7.71609
-413,-594,-0.860413,8.00391,0,0,0,0,0,0,0,-1,811,1618,-0.860423,-8.00389
-406,-594,2.51178,12.3219,0,0,0,0,0,0,0,-1,818,1618,2.5118,-12.3219
-399,-594,2.4361,14.9004,0,0,0,0,0,0,0,-1,825,1618,2.43612,-14.9005
-392,-594,2.3009,15.4327,-0.00656163,0.00799333,0.00975755,0.0128884,-0.0114567,1.10581,0.0140638,0.0424893,832,1618,2.30092,-15.4328
-385,-594,2.01465,16.0724,-0.00490053,0.00604246,0.00778698,0.010088,-0.00894609,1.09165,0.0109959,0.0280451,839,1618,2.01466,-16.0724
-378,-594,1.91821,16.3743,-0.00363406,0.0044814,0.00617991,0.00781667,-0.00696933,1.0759,0.00854137,0.0121048,846,1618,1.91821,-16.3742
-371,-594,1.9198,16.7561,-0.00264257,0.00312264,0.0047137,0.00576529,-0.00528521,1.05983,0.00638202,0.011349,853,1618,1.91977,-16.7561
-364,-594,1.94476,17.0983,-0.00185251,0.00204168,0.003436,0.00404392,-0.00385475,1.04318,0.00456074,0.0106478,860,1618,1.94479,-17.0983
-357,-594,1.93909,17.436,-0.00113912,0.00128926,0.00245626,0.00281505,-0.00266491,1.01495,0.00316425,0.0109746,867,1618,1.93909,-17.436
-350,-594,1.91412,17.8035,-0.000383307,0.000887229,0.00177887,0.00214086,-0.00163694,0.956899,0.00218757,0.0148067,874,1618,1.91411,-17.8034
-343,-594,1.88385,18.1757,0.000353863,0.000675255,0.00142162,0.00194523,-0.000916115,0.841678,0.00168724,0.0155582,881,1618,1.88387,-18.1757
-336,-594,1.85742,18.4946,0.00114576,0.000568014,0.00115174,0.00204431,-0.00033053,0.662526,0.00148536,0.0138142,888,1618,1.85742,-18.4946
-329,-594,1.88226,18.8185,0.0019461,0.00118091,0.00133651,0.0029537,0.000173306,0.645993,0.00191398,0.0141957,895,1618,1.88229,-18.8184
-322,-594,1.9093,19.1311,0.00274237,0.00188758,0.00180102,0.00416601,0.000463944,0.668899,0.00263634,0.0157322,902,1618,1.90929,-19.131
-315,-594,1.92737,19.4481,0.00355236,0.00252658,0.00231865,0.00541417,0.000664777,0.67655,0.00340952,0.0161371,909,1618,1.92735,-19.4481
-308,-594,1.89673,19.7949,0.00444003,0.00317854,0.00295774,0.00683354,0.000785035,0.680346,0.00431787,0.0154641,916,1618,1.89672,-19.7949
-301,-594,1.87799,20.1177,0.00528032,0.00387814,0.00377007,0.00841393,0.000744527,0.693467,0.00537831,0.0118284,923,1618,1.87796,-20.1177
-294,-594,1.92444,20.418,0.00601375,0.00440758,0.00463618,0.00991588,0.000505441,0.699638,0.00644872,0.0128151,930,1618,1.92446,-20.418
-287,-594,1.89758,20.7179,0.00697452,0.00522773,0.00544154,0.0116123,0.000589936,0.705825,0.00755258,0.0202892,937,1618,1.89758,-20.7179
-280,-594,1.89063,21.1274,0,0,0,0,0,0,0,-1,944,1618,1.8906,-21.1275
-273,-594,1.89557,21.3939,0.00881245,0.0061977,0.00703399,0.0146595,0.000350618,0.693514,0.00965827,0.0317357,951,1618,1.89559,-21.3939
-266,-594,1.89209,21.5807,0.00938687,0.00635106,0.00764113,0.0156594,7.8531e-05,0.68735,0.0104135,0.0404747,958,1618,1.89209,-21.5806
-259,-594,2.06519,21.8885,0,0,0,0,0,0,0,-1,965,1618,2.06518,-21.8886
-252,-594,2.29083,22.3076,0,0,0,0,0,0,0,-1,972,1618,2.29083,-22.3077
-245,-594,2.4632,22.5358,0,0,0,0,0,0,0,-1,979,1618,2.46317,-22.5358
-238,-594,2.0072,21.9227,0,0,0,0,0,0,0,-1,986,1618,2.00718,-21.9227
-231,-594,1.93774,9.35388,0,0,0,0,0,0,0,-1,993,1618,1.93776,-9.35393
-224,-594,1.81824,8.62744,0,0,0,0,0,0,0,-1,1000,1618,1.81822,-8.62745
-217,-594,-8.24066,12.0752,0,0,0,0,0,0,0,-1,1007,1618,-8.24068,-12.0751
-210,-594,-5.61438,14.2119,0,0,0,0,0,0,0,-1,1014,1618,-5.6144,-14.212
-203,-594,-3.94507,15.5768,0,0,0,0,0,0,0,-1,1021,1618,-3.94506,-15.5768
-196,-594,2.78613,10.5815,0,0,0,0,0,0,0,-1,1028,1618,2.78612,-10.5815
-189,-594,2.60913,9.48865,0,0,0,0,0,0,0,-1,1035,1618,2.6091,-9.48871
-182,-594,1.2395,9.38806,0,0,0,0,0,0,0,-1,1042,1618,1.23951,-9.38804
-175,-594,0.234863,8.73792,0,0,0,0,0,0,0,-1,1049,1618,0.234812,-8.73786
-168,-594,-0.495483,8.46289,0,0,0,0,0,0,0,-1,1056,1618,-0.495513,-8.46285
-161,-594,-1.39734,8.28699,0,0,0,0,0,0,0,-1,1063,1618,-1.39729,-8.28699
-154,-594,-0.000854492,7.68445,0,0,0,0,0,0,0,-1,1070,1618,-0.000805755,-7.6845
-147,-594,0.348267,9.3385,0,0,0,0,0,0,0,-1,1077,1618,0.348237,-9.33849
-140,-594,0.675171,11.5884,0,0,0,0,0,0,0,-1,1084,1618,0.675204,-11.5884
-133,-594,0,0,0,0,0,0,0,0,0,-1,1091,1618,0,0
-126,-594,0,0,0,0,0,0,0,0,0,-1,1098,1618,0,0
-119,-594,0,0,0,0,0,0,0,0,0,-1,1105,1618,0,0
-112,-594,0,0,0,0,0,0,0,0,0,-1,1112,1618,0,0
-105,-594,0,0,0,0,0,0,0,0,0,-1,1119,1618,0,0
-98,-594,0,0,0,0,0,0,0,0,0,-1,1126,1618,0,0
-91,-594,0,0,0,0,0,0,0,0,0,-1,1133,1618,0,0
-84,-594,0,0,0,0,0,0,0,0,0,-1,1140,1618,0,0
-77,-594,0,0,0,0,0,0,0,0,0,-1,1147,1618,0,0
-70,-594,0,0,0,0,0,0,0,0,0,-1,1154,1618,0,0
-63,-594,0,0,0,0,0,0,0,0,0,-1,1161,1618,0,0
-56,-594,0,0,0,0,0,0,0,0,0,-1,1168,1618,0,0
-49,-594,0,0,0,0,0,0,0,0,0,-1,1175,1618,0,0
-42,-594,0,0,0,0,0,0,0,0,0,-1,1182,1618,0,0
-35,-594,0,0,0,0,0,0,0,0,0,-1,1189,1618,0,0
-28,-594,0,0,0,0,0,0,0,0,0,-1,1196,1618,0,0
-21,-594,0,0,0,0,0,0,0,0,0,-1,1203,1618,0,0
-14,-594,0,0,0,0,0,0,0,0,0,-1,1210,1618,0,0
-7,-594,0,0,0,0,0,0,0,0,0,-1,1217,1618,0,0
0,-594,0,0,0,0,0,0,0,0,0,-1,1224,1618,0,0
7,-594,0,0,0,0,0,0,0,0,0,-1,1231,1618,0,0
14,-594,0,0,0,0,0,0,0,0,0,-1,1238,1618,0,0
21,-594,0,0,0,0,0,0,0,0,0,-1,1245,1618,0,0
28,-594,0,0,0,0,0,0,0,0,0,-1,1252,1618,0,0
35,-594,0,0,0,0,0,0,0,0,0,-1,1259,1618,0,0
42,-594,0,0,0,0,0,0,0,0,0,-1,1266,1618,0,0
49,-594,0,0,0,0,0,0,0,0,0,-1,1273,1618,0,0
56,-594,0,0,0,0,0,0,0,0,0,-1,1280,1618,0,0
63,-594,0,0,0,0,0,0,0,0,0,-1,1287,1618,0,0
70,-594,0,0,0,0,0,0,0,0,0,-1,1294,1618,0,0
77,-594,0,0,0,0,0,0,0,0,0,-1,1301,1618,0,0
84,-594,0,0,0,0,0,0,0,0,0,-1,1308,1618,0,0
91,-594,0,0,0,0,0,0,0,0,0,-1,1315,1618,0,0
98,-594,0,0,0,0,0,0,0,0,0,-1,1322,1618,0,0
105,-594,0,0,0,0,0,0,0,0,0,-1,1329,1618,0,0
112,-594,0,0,0,0,0,0,0,0,0,-1,1336,1618,0,0
119,-594,0,0,0,0,0,0,0,0,0,-1,1343,1618,0,0
126,-594,0,0,0,0,0,0,0,0,0,-1,1350,1618,0,0
133,-594,0,0,0,0,0,0,0,0,0,-1,1357,1618,0,0
140,-594,0,0,0,0,0,0,0,0,0,-1,1364,1618,0,0
147,-594,0,0,0,0,0,0,0,0,0,-1,1371,1618,0,0
154,-594,0,0,0,0,0,0,0,0,0,-1,1378,1618,0,0
161,-594,0,0,0,0,0,0,0,0,0,-1,1385,1618,0,0
168,-594,0,0,0,0,0,0,0,0,0,-1,1392,1618,0,0
175,-594,0,0,0,0,0,0,0,0,0,-1,1399,1618,0,0
182,-594,0,0,0,0,0,0,0,0,0,-1,1406,1618,0,0
189,-594,0,0,0,0,0,0,0,0,0,-1,1413,1618,0,0
196,-594,0,0,0,0,0,0,0,0,0,-1,1420,1618,0,0
203,-594,0,0,0,0,0,0,0,0,0,-1,1427,1618,0,0
210,-594,0,0,0,0,0,0,0,0,0,-1,1434,1618,0,0
217,-594,0,0,0,0,0,0,0,0,0,-1,1441,1618,0,0
224,-594,0,0,0,0,0,0,0,0,0,-1,1448,1618,0,0
231,-594,0,0,0,0,0,0,0,0,0,-1,1455,1618,0,0
238,-594,0,0,0,0,0,0,0,0,0,-1,1462,1618,0,0
245,-594,0,0,0,0,0,0,0,0,0,-1,1469,1618,0,0
252,-594,3.03674,1.20996,0,0,0,0,0,0,0,-1,1476,1618,3.0368,-1.20999
259,-594,4.79834,1.53113,0,0,0,0,0,0,0,-1,1483,1618,4.79837,-1.53118
266,-594,3.71606,2.68152,0,0,0,0,0,0,0,-1,1490,1618,3.71609,-2.68149
273,-594,9.7655,6.33557,0,0,0,0,0,0,0,-1,1497,1618,9.76555,-6.33554
280,-594,3.13281,0.911255,0,0,0,0,0,0,0,-1,1504,1618,3.13277,-0.911207
287,-594,4.42749,1.51563,0,0,0,0,0,0,0,-1,1511,1618,4.42747,-1.51564
294,-594,5.36475,3.34937,0,0,0,0,0,0,0,-1,1518,1618,5.36475,-3.3494
301,-594,7.97144,9.04333,0,0,0,0,0,0,0,-1,1525,1618,7.9714,-9.04328
308,-594,6.30347,10.4633,0,0,0,0,0,0,0,-1,1532,1618,6.30351,-10.4633
315,-594,4.62012,11.934,0,0,0,0,0,0,0,-1,1539,1618,4.62006,-11.934
322,-594,2.91528,13.3134,0,0,0,0,0,0,0,-1,1546,1618,2.91523,-13.3133
329,-594,4.19861,9.77258,0,0,0,0,0,0,0,-1,1553,1618,4.19865,-9.77264
336,-594,10.1353,4.66528,0,0,0,0,0,0,0,-1,1560,1618,10.1353,-4.66533
343,-594,10.5729,3.71228,0,0,0,0,0,0,0,-1,1567,1618,10.5729,-3.71232
350,-594,10.219,2.98792,0,0,0,0,0,0,0,-1,1574,1618,10.219,-2.98797
357,-594,9.83154,1.96326,0,0,0,0,0,0,0,-1,1581,1618,9.8315,-1.96321
364,-594,9.74939,0.700562,0,0,0,0,0,0,0,-1,1588,1618,9.74939,-0.700615
371,-594,8.54297,14.3988,0,0,0,0,0,0,0,-1,1595,1618,8.54296,-14.3989
378,-594,8.9137,16.3073,0,0,0,0,0,0,0,-1,1602,1618,8.91369,-16.3072
385,-594,9.58142,21.5156,0,0,0,0,0,0,0,-1,1609,1618,9.58145,-21.5157
392,-594,10.4221,22.9866,0,0,0,0,0,0,0,-1,1616,1618,10.4221,-22.9866
399,-594,10.5333,22.5389,0.00107836,0.00533594,0.00316457,0.00702111,-0.000606806,1.08148,0.00489556,0.0414014,1623,1618,10.5334,-22.5389
406,-594,10.7024,22.1162,-0.000275521,0.00245961,0.0045717,0.00586391,-0.00367982,0.930731,0.00555796,0.0285422,1630,1618,10.7024,-22.1162
413,-594,10.665,21.8551,-0.0011622,0.000748513,0.00520777,0.00508783,-0.00550152,0.876113,0.00611532,0.0212839,1637,1618,10.665,-21.8551
420,-594,10.6418,21.5406,-0.00172635,-0.000180617,0.00519192,0.00429565,-0.00620262,0.859285,0.00609442,0.0169741,1644,1618,10.6418,-21.5406
427,-594,10.6339,21.2872,-0.00205593,-0.000663512,0.00494326,0.00363233,-0.00635177,0.855358,0.00583516,0.012056,1651,1618,10.6339,-21.2872
434,-594,10.6147,20.9987,-0.00193019,-0.000933801,0.00434422,0.0029407,-0.00580469,0.842489,0.00513861,0.0167942,1658,1618,10.6147,-20.9987
441,-594,10.6178,20.6857,-0.00157764,-0.00068888,0.00347245,0.00236751,-0.00463404,0.849039,0.00411234,0.0173606,1665,1618,10.6178,-20.6857
448,-594,10.6462,20.3662,-0.00107067,-0.000396629,0.00255031,0.00183884,-0.00330614,0.851092,0.00301045,0.0163814,1672,1618,10.6463,-20.3662
455,-594,10.6229,20.0703,-0.000549571,-0.000178759,0.00163708,0.00128338,-0.00201171,0.841785,0.00191785,0.011863,1679,1618,10.6229,-20.0703
462,-594,10.6088,19.7761,7.3334e-05,8.62942e-05,0.000686031,0.000765875,-0.000606247,0.790121,0.00079398,0.0136923,1686,1618,10.6087,-19.7761
469,-594,10.611,19.4792,0.000882342,0.000282177,-0.00027952,0.000992358,0.00017216,-0.374968,0.000612307,0.0121724,1693,1618,10.611,-19.4792
476,-594,10.5909,19.1843,0.00176318,0.00080101,-0.00138786,0.00275097,-0.000186779,-0.618559,0.0018993,0.012119,1700,1618,10.591,-19.1843
483,-594,10.5876,18.8597,0.00252606,0.00102378,-0.00219988,0.0040995,-0.000549664,-0.620881,0.00293344,0.014861,1707,1618,10.5877,-18.8598
490,-594,10.5699,18.5256,0.00316392,0.00140214,-0.00292824,0.0053409,-0.000774836,-0.639291,0.00384499,0.0134171,1714,1618,10.57,-18.5256
497,-594,10.5726,18.1859,0.00382729,0.00212137,-0.00376279,0.00683259,-0.000883926,-0.67394,0.00487648,0.0104153,1721,1618,10.5727,-18.1859
504,-594,10.5729,17.8633,0.00450051,0.00292668,-0.00449483,0.00827679,-0.000849605,-0.698741,0.00582176,0.0105064,1728,1618,10.5729,-17.8632
511,-594,10.5847,17.536,0.00511106,0.00361666,-0.00509726,0.00951559,-0.00078787,-0.712622,0.006622,0.0134476,1735,1618,10.5847,-17.536
518,-594,10.564,17.179,0.00597601,0.00482681,-0.00589308,0.0113224,-0.00051962,-0.7368,0.00772732,0.017321,1742,1618,10.564,-17.179
525,-594,10.5698,16.8009,0.00698039,0.00612399,-0.00669922,0.0132651,-0.000160701,-0.753482,0.00889744,0.0291572,1749,1618,10.5698,-16.8009
532,-594,10.7113,16.4611,0.00798179,0.00731664,-0.00719734,0.0148542,0.000444198,-0.762311,0.00975813,0.0451599,1756,1618,10.7113,-16.4611
539,-594,10.8423,16.1097,0,0,0,0,0,0,0,-1,1763,1618,10.8423,-16.1097
546,-594,7.48645,8.54785,0,0,0,0,0,0,0,-1,1770,1618,7.48639,-8.54789
553,-594,3.69714,5.68762,0,0,0,0,0,0,0,-1,1777,1618,3.69715,-5.68764
560,-594,6.06616,4.44482,0,0,0,0,0,0,0,-1,1784,1618,6.06621,-4.44477
567,-594,5.97266,4.73303,0,0,0,0,0,0,0,-1,1791,1618,5.97271,-4.73309
574,-594,5.9906,4.96326,0,0,0,0,0,0,0,-1,1798,1618,5.99065,-4.96326
581,-594,0,0,0,0,0,0,0,0,0,-1,1805,1618,0,0
588,-594,0,0,0,0,0,0,0,0,0,-1,1812,1618,0,0
595,-594,0,0,0,0,0,0,0,0,0,-1,1819,1618,0,0
602,-594,0,0,0,0,0,0,0,0,0,-1,1826,1618,0,0
609,-594,0,0,0,0,0,0,0,0,0,-1,1833,1618,0,0
616,-594,0,0,0,0,0,0,0,0,0,-1,1840,1618,0,0
623,-594,0,0,0,0,0,0,0,0,0,-1,1847,1618,0,0
630,-594,0,0,0,0,0,0,0,0,0,-1,1854,1618,0,0
637,-594,0,0,0,0,0,0,0,0,0,-1,1861,1618,0,0
644,-594,0,0,0,0,0,0,0,0,0,-1,1868,1618,0,0
651,-594,0,0,0,0,0,0,0,0,0,-1,1875,1618,0,0
658,-594,0,0,0,0,0,0,0,0,0,-1,1882,1618,0,0
665,-594,0,0,0,0,0,0,0,0,0,-1,1889,1618,0,0
672,-594,0,0,0,0,0,0,0,0,0,-1,1896,1618,0,0
679,-594,0,0,0,0,0,0,0,0,0,-1,1903,1618,0,0
686,-594,0,0,0,0,0,0,0,0,0,-1,1910,1618,0,0
693,-594,0,0,0,0,0,0,0,0,0,-1,1917,1618,0,0
700,-594,0,0,0,0,0,0,0,0,0,-1,1924,1618,0,0
707,-594,0,0,0,0,0,0,0,0,0,-1,1931,1618,0,0
714,-594,0,0,0,0,0,0,0,0,0,-1,1938,1618,0,0
721,-594,0,0,0,0,0,0,0,0,0,-1,1945,1618,0,0
728,-594,0,0,0,0,0,0,0,0,0,-1,1952,1618,0,0
735,-594,0,0,0,0,0,0,0,0,0,-1,1959,1618,0,0
742,-594,0,0,0,0,0,0,0,0,0,-1,1966,1618,0,0
749,-594,0,0,0,0,0,0,0,0,0,-1,1973,1618,0,0
756,-594,0,0,0,0,0,0,0,0,0,-1,1980,1618,0,0
763,-594,0,0,0,0,0,0,0,0,0,-1,1987,1618,0,0
770,-594,0,0,0,0,0,0,0,0,0,-1,1994,1618,0,0
777,-594,0,0,0,0,0,0,0,0,0,-1,2001,1618,0,0
784,-594,0,0,0,0,0,0,0,0,0,-1,2008,1618,0,0
791,-594,0,0,0,0,0,0,0,0,0,-1,2015,1618,0,0
798,-594,0,0,0,0,0,0,0,0,0,-1,2022,1618,0,0
805,-594,0,0,0,0,0,0,0,0,0,-1,2029,1618,0,0
812,-594,0,0,0,0,0,0,0,0,0,-1,2036,1618,0,0
-700,-601,0,0,0,0,0,0,0,0,0,-1,524,1625,0,0
-693,-601,0,0,0,0,0,0,0,0,0,-1,531,1625,0,0
-686,-601,0,0,0,0,0,0,0,0,0,-1,538,1625,0,0
-679,-601,0,0,0,0,0,0,0,0,0,-1,545,1625,0,0
-672,-601,0,0,0,0,0,0,0,0,0,-1,552,1625,0,0
-665,-601,0,0,0,0,0,0,0,0,0,-1,559,1625,0,0
-658,-601,0,0,0,0,0,0,0,0,0,-1,566,1625,0,0
-651,-601,0,0,0,0,0,0,0,0,0,-1,573,1625,0,0
-644,-601,0,0,0,0,0,0,0,0,0,-1,580,1625,0,0
-637,-601,0,0,0,0,0,0,0,0,0,-1,587,1625,0,0
-630,-601,0,0,0,0,0,0,0,0,0,-1,594,1625,0,0
-623,-601,0,0,0,0,0,0,0,0,0,-1,601,1625,0,0
-616,-601,0,0,0,0,0,0,0,0,0,-1,608,1625,0,0
-609,-601,0,0,0,0,0,0,0,0,0,-1,615,1625,0,0
-602,-601,0,0,0,0,0,0,0,0,0,-1,622,1625,0,0
-595,-601,0,0,0,0,0,0,0,0,0,-1,629,1625,0,0
-588,-601,0,0,0,0,0,0,0,0,0,-1,636,1625,0,0
-581,-601,0,0,0,0,0,0,0,0,0,-1,643,1625,0,0
-574,-601,0,0,0,0,0,0,0,0,0,-1,650,1625,0,0
-567,-601,0,0,0,0,0,0,0,0,0,-1,657,1625,0,0
-560,-601,0,0,0,0,0,0,0,0,0,-1,664,1625,0,0
-553,-601,0,0,0,0,0,0,0,0,0,-1,671,1625,0,0
-546,-601,0,0,0,0,0,0,0,0,0,-1,678,1625,0,0
-539,-601,0,0,0,0,0,0,0,0,0,-1,685,1625,0,0
-532,-601,0,0,0,0,0,0,0,0,0,-1,692,1625,0,0
-525,-601,0,0,0,0,0,0,0,0,0,-1,699,1625,0,0
-518,-601,0,0,0,0,0,0,0,0,0,-1,706,1625,0,0
-511,-601,0,0,0,0,0,0,0,0,0,-1,713,1625,0,0
-504,-601,0,0,0,0,0,0,0,0,0,-1,720,1625,0,0
-497,-601,0,0,0,0,0,0,0,0,0,-1,727,1625,0,0
-490,-601,0,0,0,0,0,0,0,0,0,-1,734,1625,0,0
-483,-601,0,0,0,0,0,0,0,0,0,-1,741,1625,0,0
-476,-601,0,0,0,0,0,0,0,0,0,-1,748,1625,0,0
-469,-601,0,0,0,0,0,0,0,0,0,-1,755,1625,0,0
-462,-601,0,0,0,0,0,0,0,0,0,-1,762,1625,0,0
-455,-601,0,0,0,0,0,0,0,0,0,-1,769,1625,0,0
-448,-601,-7.07623,2.7616,0,0,0,0,0,0,0,-1,776,1625,-7.07626,-2.76161
-441,-601,-6.06689,3.33447,0,0,0,0,0,0,0,-1,783,1625,-6.06691,-3.33448
-434,-601,-5.02655,3.8468,0,0,0,0,0,0,0,-1,790,1625,-5.02657,-3.84674
-427,-601,-5.78601,4.2406,0,0,0,0,0,0,0,-1,797,1625,-5.786,-4.24058
-420,-601,-5.5191,5.60364,0,0,0,0,0,0,0,-1,804,1625,-5.51907,-5.60368
-413,-601,-4.30756,5.86047,0,0,0,0,0,0,0,-1,811,1625,-4.30757,-5.86046
-406,-601,-1.67493,7.20422,0,0,0,0,0,0,0,-1,818,1625,-1.67493,-7.20428
-399,-601,2.79584,13.8005,0,0,0,0,0,0,0,-1,825,1625,2.79582,-13.8006
-392,-601,2.32745,14.9019,-0.00771207,0.0116068,0.0137438,0.0187461,-0.0148513,1.09171,0.0194409,0.047989,832,1625,2.32748,-14.9019
-385,-601,2.30035,16.1208,-0.00575385,0.00851866,0.0106754,0.0142234,-0.0114586,1.08003,0.0148561,0.0441919,839,1625,2.30036,-16.1208
-378,-601,2.26349,16.4833,-0.00431735,0.00609741,0.00814686,0.010559,-0.00877889,1.06977,0.0111805,0.0329058,846,1625,2.26347,-16.4833
-371,-601,2.25653,16.7318,-0.00315568,0.00418519,0.0061168,0.00764829,-0.00661878,1.05563,0.00824424,0.0165791,853,1625,2.25652,-16.7318
-364,-601,2.25397,17.0691,-0.0022716,0.00263696,0.00439895,0.00521996,-0.00485461,1.03985,0.00581783,0.0109744,860,1625,2.25397,-17.0692
-357,-601,2.2373,17.424,-0.00154097,0.00152314,0.00311681,0.00346408,-0.00348191,1.01383,0.00401027,0.0104733,867,1625,2.23733,-17.4239
-350,-601,2.263,17.8241,-0.000764761,0.000917338,0.00226283,0.00249036,-0.00233779,0.963327,0.002788,0.0204807,874,1625,2.263,-17.8241
-343,-601,2.22693,18.1995,-8.89184e-05,0.000544082,0.00172173,0.00197816,-0.001523,0.876297,0.00202708,0.0214256,881,1625,2.22694,-18.1995
-336,-601,2.19208,18.5022,0.0006105,0.000139725,0.00113702,0.00153624,-0.000786017,0.683329,0.00136388,0.0181201,888,1625,2.19207,-18.5022
-329,-601,2.21661,18.8297,0.00130121,0.000665185,0.0011656,0.0021914,-0.000225008,0.652224,0.00154142,0.0146376,895,1625,2.21659,-18.8297
-322,-601,2.23145,19.1501,0.00193942,0.00126571,0.00148187,0.00312223,8.28945e-05,0.673639,0.00205441,0.0121238,902,1625,2.23147,-19.1501
-315,-601,2.24658,19.4746,0.00254962,0.00177879,0.00181639,0.00402104,0.000307375,0.680856,0.00258433,0.0118227,909,1625,2.24661,-19.4746
-308,-601,2.22571,19.7966,0.00321041,0.00222492,0.00220144,0.00497357,0.000461749,0.675299,0.00317302,0.011438,916,1625,2.2257,-19.7966
-301,-601,2.2323,20.1255,0.00382154,0.00281066,0.00272234,0.00608497,0.00054723,0.693612,0.00388709,0.0104058,923,1625,2.23231,-20.1255
-294,-601,2.22906,20.4346,0.00433659,0.00322839,0.00326382,0.00709301,0.000471971,0.701315,0.00457946,0.0102095,930,1625,2.22905,-20.4346
-287,-601,2.20093,20.7463,0.00500779,0.00389852,0.00373059,0.00822475,0.000681567,0.711603,0.00527069,0.010489,937,1625,2.20093,-20.7464
-280,-601,2.22137,21.0662,0.00571084,0.0042543,0.00419885,0.0092441,0.000721028,0.69953,0.00593701,0.0124461,944,1625,2.22134,-21.0662
-273,-601,2.23322,21.418,0.00632173,0.0045219,0.00462181,0.0101304,0.000713204,0.689246,0.00652888,0.013128,951,1625,2.23319,-21.418
-266,-601,2.27698,21.7214,0.00682053,0.00470054,0.00501891,0.0108902,0.000630909,0.681327,0.00705921,0.0165472,958,1625,2.277,-21.7215
-259,-601,2.32581,21.8853,0.00720819,0.00481057,0.00533384,0.0114763,0.000542485,0.674857,0.00747659,0.0275471,965,1625,2.3258,-21.8852
-252,-601,2.4281,22.2463,0.00756568,0.0046838,0.00566357,0.0119687,0.000280743,0.66083,0.00788724,0.0465911,972,1625,2.4281,-22.2463
-245,-601,2.34003,22.6501,0.00814988,0.00472283,0.00588739,0.012568,0.000304671,0.643785,0.008279,0.0468487,979,1625,2.34,-22.6502
-238,-601,2.34839,23.3406,0,0,0,0,0,0,0,-1,986,1625,2.34836,-23.3406
-231,-601,2.66772,13.7051,0,0,0,0,0,0,0,-1,993,1625,2.6677,-13.7051
-224,-601,-0.0305176,9.13684,0,0,0,0,0,0,0,-1,1000,1625,-0.030498,-9.13681
-217,-601,3.39429,10.3898,0,0,0,0,0,0,0,-1,1007,1625,3.39431,-10.3898
-210,-601,-6.53699,15.7931,0,0,0,0,0,0,0,-1,1014,1625,-6.53697,-15.7931
-203,-601,2.69348,15.9099,0,0,0,0,0,0,0,-1,1021,1625,2.69351,-15.91
-196,-601,2.66992,16.1815,0,0,0,0,0,0,0,-1,1028,1625,2.66995,-16.1815
-189,-601,2.849,16.6105,0,0,0,0,0,0,0,-1,1035,1625,2.84902,-16.6104
-182,-601,1.82153,13.9752,0,0,0,0,0,0,0,-1,1042,1625,1.82155,-13.9752
-175,-601,0.544922,9.28687,0,0,0,0,0,0,0,-1,1049,1625,0.544879,-9.28685
-168,-601,-0.247559,8.97461,0,0,0,0,0,0,0,-1,1056,1625,-0.247598,-8.97466
-161,-601,-1.16833,8.80078,0,0,0,0,0,0,0,-1,1063,1625,-1.16837,-8.80081
-154,-601,1.12756,7.94861,0,0,0,0,0,0,0,-1,1070,1625,1.12762,-7.94855
-147,-601,1.35352,9.55432,0,0,0,0,0,0,0,-1,1077,1625,1.35351,-9.55429
-140,-601,1.72437,11.1498,0,0,0,0,0,0,0,-1,1084,1625,1.72432,-11.1498
-133,-601,2.13281,12.8347,0,0,0,0,0,0,0,-1,1091,1625,2.13287,-12.8348
-126,-601,3.09534,15.427,0,0,0,0,0,0,0,-1,1098,1625,3.0953,-15.4271
-119,-601,1.22485,9.43457,0,0,0,0,0,0,0,-1,1105,1625,1.22489,-9.43456
-112,-601,0,0,0,0,0,0,0,0,0,-1,1112,1625,0,0
-105,-601,0,0,0,0,0,0,0,0,0,-1,1119,1625,0,0
-98,-601,0,0,0,0,0,0,0,0,0,-1,1126,1625,0,0
-91,-601,0,0,0,0,0,0,0,0,0,-1,1133,1625,0,0
-84,-601,0,0,0,0,0,0,0,0,0,-1,1140,1625,0,0
-77,-601,0,0,0,0,0,0,0,0,0,-1,1147,1625,0,0
-70,-601,0,0,0,0,0,0,0,0,0,-1,1154,1625,0,0
-63,-601,0,0,0,0,0,0,0,0,0,-1,1161,1625,0,0
-56,-601,0,0,0,0,0,0,0,0,0,-1,1168,1625,0,0
-49,-601,0,0,0,0,0,0,0,0,0,-1,1175,1625,0,0
-42,-601,0,0,0,0,0,0,0,0,0,-1,1182,1625,0,0
-35,-601,0,0,0,0,0,0,0,0,0,-1,1189,1625,0,0
-28,-601,0,0,0,0,0,0,0,0,0,-1,1196,1625,0,0
-21,-601,0,0,0,0,0,0,0,0,0,-1,1203,1625,0,0
-14,-601,0,0,0,0,0,0,0,0,0,-1,1210,1625,0,0
-7,-601,0,0,0,0,0,0,0,0,0,-1,1217,1625,0,0
0,-601,0,0,0,0,0,0,0,0,0,-1,1224,1625,0,0
7,-601,0,0,0,0,0,0,0,0,0,-1,1231,1625,0,0
14,-601,0,0,0,0,0,0,0,0,0,-1,1238,1625,0,0
21,-601,0,0,0,0,0,0,0,0,0,-1,1245,1625,0,0
28,-601,0,0,0,0,0,0,0,0,0,-1,1252,1625,0,0
35,-601,0,0,0,0,0,0,0,0,0,-1,1259,1625,0,0
42,-601,0,0,0,0,0,0,0,0,0,-1,1266,1625,0,0
49,-601,0,0,0,0,0,0,0,0,0,-1,1273,1625,0,0
56,-601,0,0,0,0,0,0,0,0,0,-1,1280,1625,0,0
63,-601,0,0,0,0,0,0,0,0,0,-1,1287,1625,0,0
70,-601,0,0,0,0,0,0,0,0,0,-1,1294,1625,0,0
77,-601,0,0,0,0,0,0,0,0,0,-1,1301,1625,0,0
84,-601,0,0,0,0,0,0,0,0,0,-1,1308,1625,0,0
91,-601,0,0,0,0,0,0,0,0,0,-1,1315,1625,0,0
98,-601,0,0,0,0,0,0,0,0,0,-1,1322,1625,0,0
105,-601,0,0,0,0,0,0,0,0,0,-1,1329,1625,0,0
112,-601,0,0,0,0,0,0,0,0,0,-1,1336,1625,0,0
119,-601,0,0,0,0,0,0,0,0,0,-1,1343,1625,0,0
126,-601,0,0,0,0,0,0,0,0,0,-1,1350,1625,0,0
133,-601,0,0,0,0,0,0,0,0,0,-1,1357,1625,0,0
140,-601,0,0,0,0,0,0,0,0,0,-1,1364,1625,0,0
147,-601,0,0,0,0,0,0,0,0,0,-1,1371,1625,0,0
154,-601,0,0,0,0,0,0,0,0,0,-1,1378,1625,0,0
161,-601,0,0,0,0,0,0,0,0,0,-1,1385,1625,0,0
168,-601,0,0,0,0,0,0,0,0,0,-1,1392,1625,0,0
175,-601,0,0,0,0,0,0,0,0,0,-1,1399,1625,0,0
182,-601,0,0,0,0,0,0,0,0,0,-1,1406,1625,0,0
189,-601,0,0,0,0,0,0,0,0,0,-1,1413,1625,0,0
196,-601,0,0,0,0,0,0,0,0,0,-1,1420,1625,0,0
203,-601,0,0,0,0,0,0,0,0,0,-1,1427,1625,0,0
210,-601,0,0,0,0,0,0,0,0,0,-1,1434,1625,0,0
217,-601,0,0,0,0,0,0,0,0,0,-1,1441,1625,0,0
224,-601,0,0,0,0,0,0,0,0,0,-1,1448,1625,0,0
231,-601,-0.0371094,0.525879,0,0,0,0,0,0,0,-1,1455,1625,-0.0371518,-0.525824
238,-601,2.03369,-1.32861,0,0,0,0,0,0,0,-1,1462,1625,2.03364,1.32858
245,-601,2.71375,2.44983,0,0,0,0,0,0,0,-1,1469,1625,2.71371,-2.44979
252,-601,4.66943,2.28381,0,0,0,0,0,0,0,-1,1476,1625,4.66947,-2.28376
259,-601,6.42712,2.61987,0,0,0,0,0,0,0,-1,1483,1625,6.42711,-2.61985
266,-601,6.75317,1.68701,0,0,0,0,0,0,0,-1,1490,1625,6.75323,-1.687
273,-601,5.4314,2.92053,0,0,0,0,0,0,0,-1,1497,1625,5.43144,-2.92051
280,-601,4.64722,1.17786,0,0,0,0,0,0,0,-1,1504,1625,4.64722,-1.1779
287,-601,5.32532,2.6217,0,0,0,0,0,0,0,-1,1511,1625,5.32535,-2.62171
294,-601,5.97693,4.22693,0,0,0,0,0,0,0,-1,1518,1625,5.97697,-4.22694
301,-601,7.28162,9.50024,0,0,0,0,0,0,0,-1,1525,1625,7.28162,-9.50025
308,-601,6.53528,10.3927,0,0,0,0,0,0,0,-1,1532,1625,6.53529,-10.3927
315,-601,4.88013,11.7184,0,0,0,0,0,0,0,-1,1539,1625,4.88015,-11.7184
322,-601,3.38098,12.7864,0,0,0,0,0,0,0,-1,1546,1625,3.38104,-12.7864
329,-601,1.8772,13.8768,0,0,0,0,0,0,0,-1,1553,1625,1.87716,-13.8768
336,-601,4.67847,9.53308,0,0,0,0,0,0,0,-1,1560,1625,4.67848,-9.53309
343,-601,11.1404,3.14575,0,0,0,0,0,0,0,-1,1567,1625,11.1404,-3.1458
350,-601,10.9462,2.37769,0,0,0,0,0,0,0,-1,1574,1625,10.9461,-2.37764
357,-601,10.7518,1.6095,0,0,0,0,0,0,0,-1,1581,1625,10.7518,-1.60948
364,-601,5.33643,9.74426,0,0,0,0,0,0,0,-1,1588,1625,5.33637,-9.74429
371,-601,8.46387,16.2725,0,0,0,0,0,0,0,-1,1595,1625,8.46385,-16.2725
378,-601,10.449,24.2494,0,0,0,0,0,0,0,-1,1602,1625,10.449,-24.2494
385,-601,10.0808,23.2922,0,0,0,0,0,0,0,-1,1609,1625,10.0808,-23.2922
392,-601,10.1895,22.8495,0.00298435,0.00947223,-0.000716277,0.00955036,0.00290621,-1.46214,0.00565293,0.0408463,1616,1625,10.1895,-22.8494
399,-601,10.2344,22.423,0.00175765,0.00597019,0.00122418,0.00630011,0.00142774,1.30755,0.00381429,0.0215142,1623,1625,10.2344,-22.4229
406,-601,10.3251,22.1166,0.000655886,0.0034428,0.00246895,0.00488438,-0.000785691,1.04231,0.00354727,0.0137583,1630,1625,10.325,-22.1166
413,-601,10.33,21.8258,-0.000121949,0.0017557,0.0031412,0.00409537,-0.00246162,0.93061,0.00382465,0.0118373,1637,1625,10.33,-21.8258
420,-601,10.3073,21.546,-0.000659886,0.000624679,0.00335993,0.00340317,-0.00343838,0.879838,0.00394999,0.0101223,1644,1625,10.3072,-21.546
427,-601,10.3195,21.2805,-0.000986033,-0.000183155,0.00339554,0.00283459,-0.00400378,0.844238,0.00396733,0.0143907,1651,1625,10.3195,-21.2806
434,-601,10.3094,20.9767,-0.000907961,-0.000693062,0.00304495,0.00224634,-0.00384736,0.803035,0.00355844,0.0159365,1658,1625,10.3095,-20.9767
441,-601,10.3333,20.6598,-0.000578163,-0.000669332,0.0023658,0.00174249,-0.00298998,0.775765,0.00276375,0.017721,1665,1625,10.3332,-20.6598
448,-601,10.349,20.3629,-0.000110148,-0.000526955,0.00161105,0.00130592,-0.00194302,0.721076,0.00188776,0.0158123,1672,1625,10.349,-20.3629
455,-601,10.3403,20.0797,0.000397766,-0.000456626,0.000835148,0.000908636,-0.000967496,0.548987,0.00108336,0.0138072,1679,1625,10.3403,-20.0797
462,-601,10.3223,19.7845,0.00102183,-0.000340585,-8.95456e-06,0.00102189,-0.000340644,-0.00657219,0.000818778,0.0114869,1686,1625,10.3223,-19.7845
469,-601,10.2972,19.4844,0.00186773,-0.000227897,-0.000934608,0.00222399,-0.00058415,-0.364177,0.00171094,0.0110401,1693,1625,10.2973,-19.4844
476,-601,10.285,19.1823,0.00284534,0.000306339,-0.00206789,0.00400232,-0.000850639,-0.510105,0.00299234,0.0135634,1700,1625,10.2851,-19.1822
483,-601,10.2744,18.8657,0.00370853,0.000644421,-0.00297762,0.00552511,-0.00117217,-0.547799,0.00412996,0.0163963,1707,1625,10.2744,-18.8657
490,-601,10.2683,18.536,0.00448608,0.00120524,-0.00392062,0.00709563,-0.00140431,-0.587261,0.00526137,0.012609,1714,1625,10.2683,-18.536
497,-601,10.2864,18.1987,0.00534257,0.00221074,-0.00500513,0.00902103,-0.00146771,-0.633791,0.00655823,0.0106889,1721,1625,10.2863,-18.1987
504,-601,10.3163,17.876,0.00624345,0.00336305,-0.00605462,0.0110268,-0.0014203,-0.668634,0.00786748,0.0170841,1728,1625,10.3163,-17.876
511,-601,10.245,17.5953,0.0071021,0.00459278,-0.00707332,0.0130312,-0.0013363,-0.697621,0.00916541,0.0289647,1735,1625,10.245,-17.5954
518,-601,10.2433,17.1183,0.00830904,0.00652612,-0.00838194,0.0158468,-0.00101164,-0.73242,0.0109174,0.041562,1742,1625,10.2432,-17.1183
525,-601,10.5735,16.303,0.00972226,0.00879242,-0.00986188,0.0191302,-0.000615485,-0.761844,0.0129635,0.0496279,1749,1625,10.5734,-16.303
532,-601,10.5413,16.4001,0,0,0,0,0,0,0,-1,1756,1625,10.5413,-16.4002
539,-601,7.77112,11.4299,0,0,0,0,0,0,0,-1,1763,1625,7.77116,-11.4299
546,-601,6.56873,3.62354,0,0,0,0,0,0,0,-1,1770,1625,6.56867,-3.62352
553,-601,7.03015,4.25049,0,0,0,0,0,0,0,-1,1777,1625,7.03011,-4.25048
560,-601,7.50745,4.83374,0,0,0,0,0,0,0,-1,1784,1625,7.50744,-4.83376
567,-601,7.82043,3.83301,0,0,0,0,0,0,0,-1,1791,1625,7.82041,-3.83303
574,-601,0,0,0,0,0,0,0,0,0,-1,1798,1625,0,0
581,-601,0,0,0,0,0,0,0,0,0,-1,1805,1625,0,0
588,-601,0,0,0,0,0,0,0,0,0,-1,1812,1625,0,0
595,-601,0,0,0,0,0,0,0,0,0,-1,1819,1625,0,0
602,-601,0,0,0,0,0,0,0,0,0,-1,1826,1625,0,0
609,-601,0,0,0,0,0,0,0,0,0,-1,1833,1625,0,0
616,-601,0,0,0,0,0,0,0,0,0,-1,1840,1625,0,0
623,-601,0,0,0,0,0,0,0,0,0,-1,1847,1625,0,0
630,-601,0,0,0,0,0,0,0,0,0,-1,1854,1625,0,0
637,-601,0,0,0,0,0,0,0,0,0,-1,1861,1625,0,0
644,-601,0,0,0,0,0,0,0,0,0,-1,1868,1625,0,0
651,-601,0,0,0,0,0,0,0,0,0,-1,1875,1625,0,0
658,-601,0,0,0,0,0,0,0,0,0,-1,1882,1625,0,0
665,-601,0,0,0,0,0,0,0,0,0,-1,1889,1625,0,0
672,-601,0,0,0,0,0,0,0,0,0,-1,1896,1625,0,0
679,-601,0,0,0,0,0,0,0,0,0,-1,1903,1625,0,0
686,-601,0,0,0,0,0,0,0,0,0,-1,1910,1625,0,0
693,-601,0,0,0,0,0,0,0,0,0,-1,1917,1625,0,0
700,-601,0,0,0,0,0,0,0,0,0,-1,1924,1625,0,0
707,-601,0,0,0,0,0,0,0,0,0,-1,1931,1625,0,0
714,-601,0,0,0,0,0,0,0,0,0,-1,1938,1625,0,0
721,-601,0,0,0,0,0,0,0,0,0,-1,1945,1625,0,0
728,-601,0,0,0,0,0,0,0,0,0,-1,1952,1625,0,0
735,-601,0,0,0,0,0,0,0,0,0,-1,1959,1625,0,0
742,-601,0,0,0,0,0,0,0,0,0,-1,1966,1625,0,0
749,-601,0,0,0,0,0,0,0,0,0,-1,1973,1625,0,0
756,-601,0,0,0,0,0,0,0,0,0,-1,1980,1625,0,0
763,-601,0,0,0,0,0,0,0,0,0,-1,1987,1625,0,0
770,-601,0,0,0,0,0,0,0,0,0,-1,1994,1625,0,0
777,-601,0,0,0,0,0,0,0,0,0,-1,2001,1625,0,0
784,-601,0,0,0,0,0,0,0,0,0,-1,2008,1625,0,0
791,-601,0,0,0,0,0,0,0,0,0,-1,2015,1625,0,0
798,-601,0,0,0,0,0,0,0,0,0,-1,2022,1625,0,0
805,-601,0,0,0,0,0,0,0,0,0,-1,2029,1625,0,0
812,-601,0,0,0,0,0,0,0,0,0,-1,2036,1625,0,0
-700,-608,0,0,0,0,0,0,0,0,0,-1,524,1632,0,0
-693,-608,0,0,0,0,0,0,0,0,0,-1,531,1632,0,0
-686,-608,0,0,0,0,0,0,0,0,0,-1,538,1632,0,0
-679,-608,0,0,0,0,0,0,0,0,0,-1,545,1632,0,0
-672,-608,0,0,0,0,0,0,0,0,0,-1,552,1632,0,0
-665,-608,0,0,0,0,0,0,0,0,0,-1,559,1632,0,0
-658,-608,0,0,0,0,0,0,0,0,0,-1,566,1632,0,0
-651,-608,0,0,0,0,0,0,0,0,0,-1,573,1632,0,0
-644,-608,0,0,0,0,0,0,0,0,0,-1,580,1632,0,0
-637,-608,0,0,0,0,0,0,0,0,0,-1,587,1632,0,0
-630,-608,0,0,0,0,0,0,0,0,0,-1,594,1632,0,0
-623,-608,0,0,0,0,0,0,0,0,0,-1,601,1632,0,0
-616,-608,0,0,0,0,0,0,0,0,0,-1,608,1632,0,0
-609,-608,0,0,0,0,0,0,0,0,0,-1,615,1632,0,0
-602,-608,0,0,0,0,0,0,0,0,0,-1,622,1632,0,0
-595,-608,0,0,0,0,0,0,0,0,0,-1,629,1632,0,0
-588,-608,0,0,0,0,0,0,0,0,0,-1,636,1632,0,0
-581,-608,0,0,0,0,0,0,0,0,0,-1,643,1632,0,0
-574,-608,0,0,0,0,0,0,0,0,0,-1,650,1632,0,0
-567,-608,0,0,0,0,0,0,0,0,0,-1,657,1632,0,0
-560,-608,0,0,0,0,0,0,0,0,0,-1,664,1632,0,0
-553,-608,0,0,0,0,0,0,0,0,0,-1,671,1632,0,0
-546,-608,0,0,0,0,0,0,0,0,0,-1,678,1632,0,0
-539,-608,0,0,0,0,0,0,0,0,0,-1,685,1632,0,0
-532,-608,0,0,0,0,0,0,0,0,0,-1,692,1632,0,0
-525,-608,0,0,0,0,0,0,0,0,0,-1,699,1632,0,0
-518,-608,0,0,0,0,0,0,0,0,0,-1,706,1632,0,0
-511,-608,0,0,0,0,0,0,0,0,0,-1,713,1632,0,0
-504,-608,0,0,0,0,0,0,0,0,0,-1,720,1632,0,0
-497,-608,0,0,0,0,0,0,0,0,0,-1,727,1632,0,0
-490,-608,0,0,0,0,0,0,0,0,0,-1,734,1632,0,0
-483,-608,0,0,0,0,0,0,0,0,0,-1,741,1632,0,0
-476,-608,0,0,0,0,0,0,0,0,0,-1,748,1632,0,0
-469,-608,0,0,0,0,0,0,0,0,0,-1,755,1632,0,0
-462,-608,0,0,0,0,0,0,0,0,0,-1,762,1632,0,0
-455,-608,0,0,0,0,0,0,0,0,0,-1,769,1632,0,0
-448,-608,0,0,0,0,0,0,0,0,0,-1,776,1632,0,0
-441,-608,-7.34601,2.78052,0,0,0,0,0,0,0,-1,783,1632,-7.346,-2.78056
-434,-608,-6.34558,3.27405,0,0,0,0,0,0,0,-1,790,1632,-6.34555,-3.27406
-427,-608,-7.74335,4.17688,0,0,0,0,0,0,0,-1,797,1632,-7.74334,-4.17693
-420,-608,-6.82794,4.34839,0,0,0,0,0,0,0,-1,804,1632,-6.82794,-4.34838
-413,-608,-5.41919,5.66138,0,0,0,0,0,0,0,-1,811,1632,-5.41917,-5.66133
-406,-608,-4.79681,4.98999,0,0,0,0,0,0,0,-1,818,1632,-4.79684,-4.98997
-399,-608,-2.60645,6.34167,0,0,0,0,0,0,0,-1,825,1632,-2.60643,-6.34169
-392,-608,2.57404,14.4753,0,0,0,0,0,0,0,-1,832,1632,2.57402,-14.4753
-385,-608,2.56384,16.1853,0,0,0,0,0,0,0,-1,839,1632,2.56385,-16.1853
-378,-608,2.60919,16.5449,0,0,0,0,0,0,0,-1,846,1632,2.60922,-16.5449
-371,-608,2.57648,16.603,0,0,0,0,0,0,0,-1,853,1632,2.57645,-16.6031
-364,-608,2.64203,16.9688,-0.00277095,0.00323709,0.00540463,0.00641645,-0.0059503,1.03905,0.00714164,0.0239442,860,1632,2.64205,-16.9688
-357,-608,2.57233,17.3773,-0.00198863,0.00172576,0.00374852,0.00405193,-0.0043148,1.0154,0.00483133,0.0181105,867,1632,2.57233,-17.3773
-350,-608,2.56104,17.7771,-0.00116355,0.000906283,0.00268562,0.00274949,-0.00300676,0.969307,0.00332448,0.018131,874,1632,2.56105,-17.7771
-343,-608,2.55359,18.1312,-0.000507396,0.000389137,0.00194734,0.00193914,-0.0020574,0.898525,0.00230774,0.0233063,881,1632,2.55357,-18.1313
-336,-608,2.5564,18.4928,0.000143055,-0.000268027,0.00107321,0.00103023,-0.0011552,0.690784,0.00126245,0.0158703,888,1632,2.55638,-18.4928
-329,-608,2.54956,18.8379,0.00076882,0.000207576,0.000989824,0.00151703,-0.000540637,0.647269,0.00123177,0.0137407,895,1632,2.54953,-18.8379
-322,-608,2.55011,19.1628,0.00130396,0.000743337,0.00121229,0.00226793,-0.000220629,0.671782,0.00159061,0.0146465,902,1632,2.55009,-19.1629
-315,-608,2.56903,19.4741,0.00177634,0.00118222,0.00143435,0.00294407,1.44914e-05,0.683288,0.0019579,0.0134225,909,1632,2.56902,-19.4741
-308,-608,2.54926,19.8033,0.00227967,0.00148664,0.00165242,0.00358249,0.000183827,0.667644,0.00232947,0.0137614,916,1632,2.54924,-19.8033
-301,-608,2.53601,20.1324,0.0027354,0.00200887,0.00197835,0.00438355,0.000360714,0.694599,0.00280986,0.0117581,923,1632,2.53602,-20.1324
-294,-608,2.5473,20.4376,0.0031063,0.00236248,0.00231243,0.00507654,0.000392242,0.705666,0.00326149,0.0114727,930,1632,2.54732,-20.4377
-287,-608,2.51678,20.7305,0.00358181,0.00292507,0.0025847,0.00585891,0.000647972,0.722215,0.00370887,0.0109792,937,1632,2.5168,-20.7305
-280,-608,2.53107,21.0284,0.00409589,0.00319219,0.00284797,0.00652763,0.00076045,0.706726,0.00412172,0.00866452,944,1632,2.53105,-21.0284
-273,-608,2.5368,21.354,0.00455613,0.0033665,0.00305683,0.00707548,0.000847152,0.689306,0.00446149,0.00902681,951,1632,2.53681,-21.354
-266,-608,2.55969,21.6842,0.0049801,0.00355989,0.00328104,0.007627,0.000912988,0.678828,0.00480931,0.00973929,958,1632,2.5597,-21.6842
-259,-608,2.60193,21.9456,0.00536073,0.00374659,0.00345453,0.00810122,0.0010061,0.670643,0.00509864,0.0123606,965,1632,2.60194,-21.9456
-252,-608,2.62927,22.2546,0.00579971,0.00386251,0.00365932,0.00861645,0.00104577,0.656019,0.00542938,0.0256202,972,1632,2.6293,-22.2547
-245,-608,2.51111,22.823,0.00638432,0.00404489,0.00385141,0.00923973,0.00118948,0.63797,0.00580409,0.0380757,979,1632,2.51112,-22.823
-238,-608,2.6546,23.156,0.00668008,0.00405398,0.00363013,0.00922734,0.00150672,0.611864,0.0057159,0.0492548,986,1632,2.65459,-23.156
-231,-608,2.93768,23.0149,0,0,0,0,0,0,0,-1,993,1632,2.93765,-23.0149
-224,-608,2.51642,15.3452,0,0,0,0,0,0,0,-1,1000,1632,2.5164,-15.3452
-217,-608,1.04419,12.8451,0,0,0,0,0,0,0,-1,1007,1632,1.04418,-12.8451
-210,-608,2.75903,15.9414,0,0,0,0,0,0,0,-1,1014,1632,2.75903,-15.9414
-203,-608,2.76776,16.217,0,0,0,0,0,0,0,-1,1021,1632,2.76773,-16.217
-196,-608,1.53955,18.6058,0,0,0,0,0,0,0,-1,1028,1632,1.53959,-18.6058
-189,-608,1.37634,19.119,0,0,0,0,0,0,0,-1,1035,1632,1.37634,-19.1191
-182,-608,2.89221,16.7092,0,0,0,0,0,0,0,-1,1042,1632,2.89224,-16.7093
-175,-608,0.219116,15.1643,0,0,0,0,0,0,0,-1,1049,1632,0.219173,-15.1644
-168,-608,0.000366211,9.48645,0,0,0,0,0,0,0,-1,1056,1632,0.000317105,-9.48648
-161,-608,2.27832,15.4423,0,0,0,0,0,0,0,-1,1063,1632,2.27826,-15.4423
-154,-608,1.3999,16.4037,0,0,0,0,0,0,0,-1,1070,1632,1.39987,-16.4037
-147,-608,2.4386,9.50317,0,0,0,0,0,0,0,-1,1077,1632,2.43858,-9.50313
-140,-608,2.60132,10.8401,0,0,0,0,0,0,0,-1,1084,1632,2.60134,-10.8401
-133,-608,3.2312,12.4738,0,0,0,0,0,0,0,-1,1091,1632,3.23116,-12.4738
-126,-608,3.76465,13.9644,0,0,0,0,0,0,0,-1,1098,1632,3.76466,-13.9644
-119,-608,4.28906,15.4196,0,0,0,0,0,0,0,-1,1105,1632,4.28911,-15.4195
-112,-608,0.745117,10.5587,0,0,0,0,0,0,0,-1,1112,1632,0.745145,-10.5587
-105,-608,-0.252319,1.42419,0,0,0,0,0,0,0,-1,1119,1632,-0.252331,-1.42418
-98,-608,-2.8595,3.0863,0,0,0,0,0,0,0,-1,1126,1632,-2.85948,-3.08625
-91,-608,-3.71948,1.73608,0,0,0,0,0,0,0,-1,1133,1632,-3.7195,-1.73607
-84,-608,0,0,0,0,0,0,0,0,0,-1,1140,1632,0,0
-77,-608,0,0,0,0,0,0,0,0,0,-1,1147,1632,0,0
-70,-608,0,0,0,0,0,0,0,0,0,-1,1154,1632,0,0
-63,-608,0,0,0,0,0,0,0,0,0,-1,1161,1632,0,0
-56,-608,0,0,0,0,0,0,0,0,0,-1,1168,1632,0,0
-49,-608,0,0,0,0,0,0,0,0,0,-1,1175,1632,0,0
-42,-608,0,0,0,0,0,0,0,0,0,-1,1182,1632,0,0
-35,-608,0,0,0,0,0,0,0,0,0,-1,1189,1632,0,0
-28,-608,0,0,0,0,0,0,0,0,0,-1,1196,1632,0,0
-21,-608,0,0,0,0,0,0,0,0,0,-1,1203,1632,0,0
-14,-608,0,0,0,0,0,0,0,0,0,-1,1210,1632,0,0
-7,-608,0,0,0,0,0,0,0,0,0,-1,1217,1632,0,0
0,-608,0,0,0,0,0,0,0,0,0,-1,1224,1632,0,0
7,-608,0,0,0,0,0,0,0,0,0,-1,1231,1632,0,0
14,-608,0,0,0,0,0,0,0,0,0,-1,1238,1632,0,0
21,-608,0,0,0,0,0,0,0,0,0,-1,1245,1632,0,0
28,-608,0,0,0,0,0,0,0,0,0,-1,1252,1632,0,0
35,-608,0,0,0,0,0,0,0,0,0,-1,1259,1632,0,0
42,-608,0,0,0,0,0,0,0,0,0,-1,1266,1632,0,0
49,-608,0,0,0,0,0,0,0,0,0,-1,1273,1632,0,0
56,-608,0,0,0,0,0,0,0,0,0,-1,1280,1632,0,0
63,-608,0,0,0,0,0,0,0,0,0,-1,1287,1632,0,0
70,-608,0,0,0,0,0,0,0,0,0,-1,1294,1632,0,0
77,-608,0,0,0,0,0,0,0,0,0,-1,1301,1632,0,0
84,-608,0,0,0,0,0,0,0,0,0,-1,1308,1632,0,0
91,-608,0,0,0,0,0,0,0,0,0,-1,1315,1632,0,0
98,-608,0,0,0,0,0,0,0,0,0,-1,1322,1632,0,0
105,-608,0,0,0,0,0,0,0,0,0,-1,1329,1632,0,0
112,-608,0,0,0,0,0,0,0,0,0,-1,1336,1632,0,0
119,-608,0,0,0,0,0,0,0,0,0,-1,1343,1632,0,0
126,-608,0,0,0,0,0,0,0,0,0,-1,1350,1632,0,0
133,-608,0,0,0,0,0,0,0,0,0,-1,1357,1632,0,0
140,-608,0,0,0,0,0,0,0,0,0,-1,1364,1632,0,0
147,-608,0,0,0,0,0,0,0,0,0,-1,1371,1632,0,0
154,-608,0,0,0,0,0,0,0,0,0,-1,1378,1632,0,0
161,-608,0,0,0,0,0,0,0,0,0,-1,1385,1632,0,0
168,-608,0,0,0,0,0,0,0,0,0,-1,1392,1632,0,0
175,-608,0,0,0,0,0,0,0,0,0,-1,1399,1632,0,0
182,-608,0,0,0,0,0,0,0,0,0,-1,1406,1632,0,0
189,-608,0,0,0,0,0,0,0,0,0,-1,1413,1632,0,0
196,-608,0,0,0,0,0,0,0,0,0,-1,1420,1632,0,0
203,-608,0,0,0,0,0,0,0,0,0,-1,1427,1632,0,0
210,-608,5.7157,-0.333008,0,0,0,0,0,0,0,-1,1434,1632,5.71566,0.333004
217,-608,4.49402,-0.831787,0,0,0,0,0,0,0,-1,1441,1632,4.49396,0.831738
224,-608,4.18018,-1.11792,0,0,0,0,0,0,0,-1,1448,1632,4.1802,1.11796
231,-608,0.361816,0.825195,0,0,0,0,0,0,0,-1,1455,1632,0.36185,-0.825226
238,-608,2.85388,-0.28833,0,0,0,0,0,0,0,-1,1462,1632,2.85391,0.288282
245,-608,3.87537,4.02173,0,0,0,0,0,0,0,-1,1469,1632,3.87538,-4.02168
252,-608,5.66956,3.5282,0,0,0,0,0,0,0,-1,1476,1632,5.6696,-3.52815
259,-608,7.47437,3.07178,0,0,0,0,0,0,0,-1,1483,1632,7.4744,-3.07172
266,-608,9.46936,2.34766,0,0,0,0,0,0,0,-1,1490,1632,9.46932,-2.34764
273,-608,6.03003,3.34241,0,0,0,0,0,0,0,-1,1497,1632,6.02997,-3.34245
280,-608,5.72461,2.0769,0,0,0,0,0,0,0,-1,1504,1632,5.72457,-2.07688
287,-608,6.20581,3.59338,0,0,0,0,0,0,0,-1,1511,1632,6.20585,-3.59341
294,-608,6.94922,5.17151,0,0,0,0,0,0,0,-1,1518,1632,6.94925,-5.17151
301,-608,7.60083,6.68018,0,0,0,0,0,0,0,-1,1525,1632,7.60086,-6.68013
308,-608,7.64746,9.93848,0,0,0,0,0,0,0,-1,1532,1632,7.64745,-9.93842
315,-608,5.30688,11.2054,0,0,0,0,0,0,0,-1,1539,1632,5.30694,-11.2054
322,-608,5.32617,13.7581,0,0,0,0,0,0,0,-1,1546,1632,5.32613,-13.758
329,-608,7.12231,13.9607,0,0,0,0,0,0,0,-1,1553,1632,7.12231,-13.9607
336,-608,5.48633,7.82446,0,0,0,0,0,0,0,-1,1560,1632,5.48634,-7.82446
343,-608,5.47192,5.61047,0,0,0,0,0,0,0,-1,1567,1632,5.47192,-5.61045
350,-608,11.6957,1.71387,0,0,0,0,0,0,0,-1,1574,1632,11.6957,-1.71388
357,-608,3.77002,5.10046,0,0,0,0,0,0,0,-1,1581,1632,3.77002,-5.10043
364,-608,5.6925,11.2163,0,0,0,0,0,0,0,-1,1588,1632,5.69255,-11.2163
371,-608,10.1324,24.0376,0,0,0,0,0,0,0,-1,1595,1632,10.1324,-24.0376
378,-608,10.0815,23.7208,0.00423836,0.0152745,-0.00418341,0.016681,0.00283183,-1.24645,0.0103072,0.0457786,1602,1632,10.0815,-23.7208
385,-608,9.99207,23.1128,0.00361372,0.0118864,-0.00301467,0.0128684,0.00263171,-1.25589,0.00785016,0.0345989,1609,1632,9.99205,-23.1127
392,-608,9.97449,22.7523,0.00284144,0.00854636,-0.0013726,0.00885943,0.00252837,-1.34655,0.00526971,0.0233472,1616,1632,9.97447,-22.7523
399,-608,9.98938,22.4039,0.00191072,0.005781,0.000131104,0.00578544,0.00190629,1.53697,0.00340434,0.0115193,1623,1632,9.98935,-22.404
406,-608,10.0284,22.108,0.00103911,0.00367525,0.00115736,0.00411126,0.000603094,1.21051,0.00256356,0.00900965,1630,1632,10.0285,-22.1081
413,-608,10.0194,21.8173,0.000400131,0.0021651,0.00175822,0.00324988,-0.000684648,1.01799,0.00242721,0.00918379,1637,1632,10.0194,-21.8173
420,-608,10.004,21.5342,-3.0554e-05,0.00102405,0.00206027,0.00262343,-0.00162993,0.910678,0.00247791,0.0172476,1644,1632,10.004,-21.5341
427,-608,10.0134,21.2612,-0.000244366,5.85269e-05,0.00223958,0.00215178,-0.00233762,0.819158,0.0025927,0.0187158,1651,1632,10.0134,-21.2612
434,-608,9.99731,20.9844,-0.000122771,-0.000600706,0.00202359,0.00167592,-0.00239939,0.726625,0.00236521,0.0151283,1658,1632,9.99732,-20.9843
441,-608,10.0215,20.691,0.000279751,-0.000736327,0.00144204,0.00130063,-0.00175721,0.616034,0.00177199,0.0142507,1665,1632,10.0215,-20.691
448,-608,10.0471,20.3927,0.000815121,-0.000712236,0.000779386,0.00114261,-0.00103973,0.397788,0.00126044,0.0165094,1672,1632,10.0472,-20.3927
455,-608,10.0549,20.0967,0.00141966,-0.000788697,8.35247e-05,0.00142282,-0.000791852,0.0377501,0.00129582,0.0121982,1679,1632,10.0549,-20.0966
462,-608,10.0345,19.7963,0.00214999,-0.000832693,-0.000700679,0.00230639,-0.000989092,-0.219611,0.00195266,0.0106648,1686,1632,10.0345,-19.7962
469,-608,10.0012,19.4932,0.00312892,-0.000825593,-0.00162556,0.00371135,-0.00140802,-0.344044,0.00305376,0.00827347,1693,1632,10.0012,-19.4932
476,-608,9.98633,19.1892,0.00429683,-0.000312656,-0.00282059,0.00563456,-0.00165038,-0.442854,0.00441065,0.0087857,1700,1632,9.98628,-19.1892
483,-608,9.9834,18.869,0.00536262,0.000122348,-0.0038816,0.00742563,-0.00194067,-0.488518,0.00570835,0.00828454,1707,1632,9.98339,-18.8691
490,-608,9.9978,18.5402,0.00638446,0.000881169,-0.0051092,0.00943588,-0.00217025,-0.538387,0.00712504,0.00904622,1714,1632,9.99782,-18.5402
497,-608,10.0198,18.2068,0.00754695,0.00223065,-0.00653039,0.0119395,-0.00216185,-0.592117,0.00876953,0.0180202,1721,1632,10.0197,-18.2068
504,-608,9.96741,17.9302,0.00880604,0.00384847,-0.00801602,0.0147178,-0.00206328,-0.635447,0.010567,0.0400643,1728,1632,9.96735,-17.9302
511,-608,9.88562,17.6492,0.0100618,0.00583272,-0.00961965,0.0177965,-0.00190207,-0.677212,0.0125465,0.0479861,1735,1632,9.88565,-17.6492
518,-608,10.0123,16.9928,0,0,0,0,0,0,0,-1,1742,1632,10.0123,-16.9928
525,-608,10.4341,15.9818,0,0,0,0,0,0,0,-1,1749,1632,10.434,-15.9818
532,-608,8.27917,11.6693,0,0,0,0,0,0,0,-1,1756,1632,8.27919,-11.6694
539,-608,9.40796,1.43457,0,0,0,0,0,0,0,-1,1763,1632,9.40801,-1.43463
546,-608,9.94031,2.1134,0,0,0,0,0,0,0,-1,1770,1632,9.94031,-2.11346
553,-608,10.363,2.81335,0,0,0,0,0,0,0,-1,1777,1632,10.3631,-2.81333
560,-608,9.23999,4.5636,0,0,0,0,0,0,0,-1,1784,1632,9.24,-4.56354
567,-608,0,0,0,0,0,0,0,0,0,-1,1791,1632,0,0
574,-608,0,0,0,0,0,0,0,0,0,-1,1798,1632,0,0
581,-608,0,0,0,0,0,0,0,0,0,-1,1805,1632,0,0
588,-608,0,0,0,0,0,0,0,0,0,-1,1812,1632,0,0
595,-608,0,0,0,0,0,0,0,0,0,-1,1819,1632,0,0
602,-608,0,0,0,0,0,0,0,0,0,-1,1826,1632,0,0
609,-608,0,0,0,0,0,0,0,0,0,-1,1833,1632,0,0
616,-608,0,0,0,0,0,0,0,0,0,-1,1840,1632,0,0
623,-608,0,0,0,0,0,0,0,0,0,-1,1847,1632,0,0
630,-608,0,0,0,0,0,0,0,0,0,-1,1854,1632,0,0
637,-608,0,0,0,0,0,0,0,0,0,-1,1861,1632,0,0
644,-608,0,0,0,0,0,0,0,0,0,-1,1868,1632,0,0
651,-608,0,0,0,0,0,0,0,0,0,-1,1875,1632,0,0
658,-608,0,0,0,0,0,0,0,0,0,-1,1882,1632,0,0
665,-608,0,0,0,0,0,0,0,0,0,-1,1889,1632,0,0
672,-608,0,0,0,0,0,0,0,0,0,-1,1896,1632,0,0
679,-608,0,0,0,0,0,0,0,0,0,-1,1903,1632,0,0
686,-608,0,0,0,0,0,0,0,0,0,-1,1910,1632,0,0
693,-608,0,0,0,0,0,0,0,0,0,-1,1917,1632,0,0
700,-608,0,0,0,0,0,0,0,0,0,-1,1924,1632,0,0
707,-608,0,0,0,0,0,0,0,0,0,-1,1931,1632,0,0
714,-608,0,0,0,0,0,0,0,0,0,-1,1938,1632,0,0
721,-608,0,0,0,0,0,0,0,0,0,-1,1945,1632,0,0
728,-608,0,0,0,0,0,0,0,0,0,-1,1952,1632,0,0
735,-608,0,0,0,0,0,0,0,0,0,-1,1959,1632,0,0
742,-608,0,0,0,0,0,0,0,0,0,-1,1966,1632,0,0
749,-608,0,0,0,0,0,0,0,0,0,-1,1973,1632,0,0
756,-608,0,0,0,0,0,0,0,0,0,-1,1980,1632,0,0
763,-608,0,0,0,0,0,0,0,0,0,-1,1987,1632,0,0
770,-608,0,0,0,0,0,0,0,0,0,-1,1994,1632,0,0
777,-608,0,0,0,0,0,0,0,0,0,-1,2001,1632,0,0
784,-608,0,0,0,0,0,0,0,0,0,-1,2008,1632,0,0
791,-608,0,0,0,0,0,0,0,0,0,-1,2015,1632,0,0
798,-608,0,0,0,0,0,0,0,0,0,-1,2022,1632,0,0
805,-608,0,0,0,0,0,0,0,0,0,-1,2029,1632,0,0
812,-608,0,0,0,0,0,0,0,0,0,-1,2036,1632,0,0
-700,-615,0,0,0,0,0,0,0,0,0,-1,524,1639,0,0
-693,-615,0,0,0,0,0,0,0,0,0,-1,531,1639,0,0
-686,-615,0,0,0,0,0,0,0,0,0,-1,538,1639,0,0
-679,-615,0,0,0,0,0,0,0,0,0,-1,545,1639,0,0
-672,-615,0,0,0,0,0,0,0,0,0,-1,552,1639,0,0
-665,-615,0,0,0,0,0,0,0,0,0,-1,559,1639,0,0
-658,-615,0,0,0,0,0,0,0,0,0,-1,566,1639,0,0
-651,-615,0,0,0,0,0,0,0,0,0,-1,573,1639,0,0
-644,-615,0,0,0,0,0,0,0,0,0,-1,580,1639,0,0
-637,-615,0,0,0,0,0,0,0,0,0,-1,587,1639,0,0
-630,-615,0,0,0,0,0,0,0,0,0,-1,594,1639,0,0
-623,-615,0,0,0,0,0,0,0,0,0,-1,601,1639,0,0
-616,-615,0,0,0,0,0,0,0,0,0,-1,608,1639,0,0
-609,-615,0,0,0,0,0,0,0,0,0,-1,615,1639,0,0
-602,-615,0,0,0,0,0,0,0,0,0,-1,622,1639,0,0
-595,-615,0,0,0,0,0,0,0,0,0,-1,629,1639,0,0
-588,-615,0,0,0,0,0,0,0,0,0,-1,636,1639,0,0
-581,-615,0,0,0,0,0,0,0,0,0,-1,643,1639,0,0
-574,-615,0,0,0,0,0,0,0,0,0,-1,650,1639,0,0
-567,-615,0,0,0,0,0,0,0,0,0,-1,657,1639,0,0
-560,-615,0,0,0,0,0,0,0,0,0,-1,664,1639,0,0
-553,-615,0,0,0,0,0,0,0,0,0,-1,671,1639,0,0
-546,-615,0,0,0,0,0,0,0,0,0,-1,678,1639,0,0
-539,-615,0,0,0,0,0,0,0,0,0,-1,685,1639,0,0
-532,-615,0,0,0,0,0,0,0,0,0,-1,692,1639,0,0
-525,-615,0,0,0,0,0,0,0,0,0,-1,699,1639,0,0
-518,-615,0,0,0,0,0,0,0,0,0,-1,706,1639,0,0
-511,-615,0,0,0,0,0,0,0,0,0,-1,713,1639,0,0
-504,-615,0,0,0,0,0,0,0,0,0,-1,720,1639,0,0
-497,-615,0,0,0,0,0,0,0,0,0,-1,727,1639,0,0
-490,-615,0,0,0,0,0,0,0,0,0,-1,734,1639,0,0
-483,-615,0,0,0,0,0,0,0,0,0,-1,741,1639,0,0
-476,-615,0,0,0,0,0,0,0,0,0,-1,748,1639,0,0
-469,-615,0,0,0,0,0,0,0,0,0,-1,755,1639,0,0
-462,-615,0,0,0,0,0,0,0,0,0,-1,762,1639,0,0
-455,-615,0,0,0,0,0,0,0,0,0,-1,769,1639,0,0
-448,-615,0,0,0,0,0,0,0,0,0,-1,776,1639,0,0
-441,-615,0,0,0,0,0,0,0,0,0,-1,783,1639,0,0
-434,-615,-7.64508,2.98596,0,0,0,0,0,0,0,-1,790,1639,-7.64505,-2.98594
-427,-615,-9.0011,2.89404,0,0,0,0,0,0,0,-1,797,1639,-9.00107,-2.89399
-420,-615,-8.07568,3.0752,0,0,0,0,0,0,0,-1,804,1639,-8.07569,-3.07514
-413,-615,-7.09149,3.396,0,0,0,0,0,0,0,-1,811,1639,-7.09147,-3.39599
-406,-615,-6.21368,3.7312,0,0,0,0,0,0,0,-1,818,1639,-6.21366,-3.73114
-399,-615,-4.84875,3.91907,0,0,0,0,0,0,0,-1,825,1639,-4.84877,-3.91901
-392,-615,1.7395,13.3127,0,0,0,0,0,0,0,-1,832,1639,1.73953,-13.3128
-385,-615,3.42297,14.9401,0,0,0,0,0,0,0,-1,839,1639,3.42296,-14.94
-378,-615,2.89063,16.5051,0,0,0,0,0,0,0,-1,846,1639,2.89064,-16.5051
-371,-615,3.30664,16.3768,0,0,0,0,0,0,0,-1,853,1639,3.30663,-16.3768
-364,-615,3.03571,17.0603,-0.00305647,0.00401775,0.00661642,0.00798318,-0.0070219,1.03087,0.00866911,0.0393499,860,1639,3.03569,-17.0603
-357,-615,2.98132,17.6447,-0.00223991,0.0021957,0.00450185,0.00499639,-0.0050406,1.01427,0.00579488,0.0370423,867,1639,2.98132,-17.6446
-350,-615,2.85339,17.8943,-0.00140538,0.00109966,0.00315112,0.00323806,-0.00354378,0.974566,0.00391683,0.0336607,874,1639,2.85341,-17.8943
-343,-615,2.84875,18.1322,-0.000785087,0.000371654,0.00215975,0.00202914,-0.00244257,0.916226,0.00258542,0.0201705,881,1639,2.84876,-18.1322
-336,-615,2.89282,18.4879,-0.000206734,-0.000593299,0.00097437,0.000593339,-0.00139337,0.687486,0.00117762,0.0106862,888,1639,2.89279,-18.4879
-329,-615,2.8797,18.83,0.00033213,-0.000233886,0.000758924,0.000859097,-0.000760852,0.606931,0.000935851,0.0102403,895,1639,2.87969,-18.8299
-322,-615,2.88318,19.1746,0.000765509,0.000182778,0.000882323,0.00140333,-0.000455043,0.625922,0.00111853,0.0116986,902,1639,2.88315,-19.1746
-315,-615,2.88342,19.5151,0.00111812,0.000511768,0.00100901,0.00186852,-0.000238633,0.639455,0.00133237,0.0139327,909,1639,2.88345,-19.5151
-308,-615,2.84247,19.8169,0.00149989,0.000675512,0.00110951,0.0022713,-9.59039e-05,0.607547,0.00154716,0.0204014,916,1639,2.84246,-19.8169
-301,-615,2.84833,20.1147,0.00184534,0.00113327,0.00131021,0.00284702,0.000131579,0.652732,0.00185571,0.0132214,923,1639,2.8483,-20.1148
-294,-615,2.8501,20.4246,0.00212277,0.00143823,0.00152428,0.00334273,0.000218268,0.674958,0.00215941,0.0106627,930,1639,2.85009,-20.4246
-287,-615,2.82581,20.7401,0.00246571,0.00192797,0.00170539,0.0039233,0.000470385,0.707212,0.00247369,0.00822638,937,1639,2.82578,-20.7401
-280,-615,2.83685,21.0369,0.00286973,0.00217727,0.00188606,0.00444108,0.000605922,0.694623,0.00278084,0.00902086,944,1639,2.83684,-21.0368
-273,-615,2.83612,21.3582,0.00327459,0.00236687,0.00203157,0.00490238,0.000739084,0.675501,0.00305187,0.0103225,951,1639,2.83613,-21.3581
-266,-615,2.83075,21.65,0.00364619,0.00260072,0.00217698,0.00536232,0.000884591,0.667569,0.00331954,0.011093,958,1639,2.83074,-21.65
-259,-615,2.84961,21.9158,0.0040091,0.00288256,0.00230139,0.00581515,0.00107651,0.665381,0.00357241,0.0119115,965,1639,2.84964,-21.9158
-252,-615,2.86877,22.2286,0.00446933,0.0032087,0.0024526,0.00637131,0.00130672,0.659621,0.00388591,0.0125207,972,1639,2.86878,-22.2286
-245,-615,2.9245,22.5806,0.00500706,0.00348332,0.00261849,0.00697227,0.00151812,0.643828,0.00423386,0.019661,979,1639,2.9245,-22.5806
-238,-615,2.93896,22.9146,0.0054376,0.00358419,0.0025195,0.00719542,0.00182637,0.609171,0.00431886,0.0298956,986,1639,2.93896,-22.9146
-231,-615,3.09778,23.0475,0.00593716,0.00272076,0.00201072,0.0069037,0.00175421,0.448085,0.00414342,0.0462037,993,1639,3.09777,-23.0474
-224,-615,3.21991,23.4795,0,0,0,0,0,0,0,-1,1000,1639,3.2199,-23.4795
-217,-615,3.64392,22.5289,0,0,0,0,0,0,0,-1,1007,1639,3.64393,-22.5289
-210,-615,2.48901,18.9324,0,0,0,0,0,0,0,-1,1014,1639,2.48902,-18.9323
-203,-615,2.13684,18.6173,0,0,0,0,0,0,0,-1,1021,1639,2.13683,-18.6173
-196,-615,4.27161,21.3264,0,0,0,0,0,0,0,-1,1028,1639,4.27165,-21.3264
-189,-615,1.8269,19.6761,0,0,0,0,0,0,0,-1,1035,1639,1.82691,-19.6761
-182,-615,1.63489,20.2278,0,0,0,0,0,0,0,-1,1042,1639,1.63492,-20.2277
-175,-615,-0.609985,13.8434,0,0,0,0,0,0,0,-1,1049,1639,-0.610016,-13.8434
-168,-615,3.85754,15.472,0,0,0,0,0,0,0,-1,1056,1639,3.85757,-15.472
-161,-615,2.15601,20.8517,0,0,0,0,0,0,0,-1,1063,1639,2.15602,-20.8516
-154,-615,2.42737,24.3593,0,0,0,0,0,0,0,-1,1070,1639,2.42742,-24.3593
-147,-615,1.52502,17.3442,0,0,0,0,0,0,0,-1,1077,1639,1.52501,-17.3442
-140,-615,3.73401,10.2349,0,0,0,0,0,0,0,-1,1084,1639,3.73402,-10.2348
-133,-615,2.6178,17.45,0,0,0,0,0,0,0,-1,1091,1639,2.61776,-17.4499
-126,-615,4.43408,12.5017,0,0,0,0,0,0,0,-1,1098,1639,4.43403,-12.5018
-119,-615,4.82983,13.9279,0,0,0,0,0,0,0,-1,1105,1639,4.82986,-13.9278
-112,-615,3.65698,14.4874,0,0,0,0,0,0,0,-1,1112,1639,3.65695,-14.4875
-105,-615,0.958496,2.45398,0,0,0,0,0,0,0,-1,1119,1639,0.958452,-2.45398
-98,-615,-0.647705,2.12109,0,0,0,0,0,0,0,-1,1126,1639,-0.647756,-2.12105
-91,-615,-3.07983,2.97375,0,0,0,0,0,0,0,-1,1133,1639,-3.07989,-2.97376
-84,-615,-2.46509,0.703247,0,0,0,0,0,0,0,-1,1140,1639,-2.46505,-0.703273
-77,-615,-3.17859,1.23755,0,0,0,0,0,0,0,-1,1147,1639,-3.17865,-1.23752
-70,-615,-4.03943,1.43335,0,0,0,0,0,0,0,-1,1154,1639,-4.03942,-1.43339
-63,-615,-4.8877,1.45544,0,0,0,0,0,0,0,-1,1161,1639,-4.88766,-1.45549
-56,-615,0,0,0,0,0,0,0,0,0,-1,1168,1639,0,0
-49,-615,0,0,0,0,0,0,0,0,0,-1,1175,1639,0,0
-42,-615,0,0,0,0,0,0,0,0,0,-1,1182,1639,0,0
-35,-615,0,0,0,0,0,0,0,0,0,-1,1189,1639,0,0
-28,-615,0,0,0,0,0,0,0,0,0,-1,1196,1639,0,0
-21,-615,0,0,0,0,0,0,0,0,0,-1,1203,1639,0,0
-14,-615,0,0,0,0,0,0,0,0,0,-1,1210,1639,0,0
-7,-615,0,0,0,0,0,0,0,0,0,-1,1217,1639,0,0
0,-615,0,0,0,0,0,0,0,0,0,-1,1224,1639,0,0
7,-615,0,0,0,0,0,0,0,0,0,-1,1231,1639,0,0
14,-615,0,0,0,0,0,0,0,0,0,-1,1238,1639,0,0
21,-615,0,0,0,0,0,0,0,0,0,-1,1245,1639,0,0
28,-615,0,0,0,0,0,0,0,0,0,-1,1252,1639,0,0
35,-615,0,0,0,0,0,0,0,0,0,-1,1259,1639,0,0
42,-615,0,0,0,0,0,0,0,0,0,-1,1266,1639,0,0
49,-615,0,0,0,0,0,0,0,0,0,-1,1273,1639,0,0
56,-615,0,0,0,0,0,0,0,0,0,-1,1280,1639,0,0
63,-615,0,0,0,0,0,0,0,0,0,-1,1287,1639,0,0
70,-615,0,0,0,0,0,0,0,0,0,-1,1294,1639,0,0
77,-615,0,0,0,0,0,0,0,0,0,-1,1301,1639,0,0
84,-615,0,0,0,0,0,0,0,0,0,-1,1308,1639,0,0
91,-615,0,0,0,0,0,0,0,0,0,-1,1315,1639,0,0
98,-615,0,0,0,0,0,0,0,0,0,-1,1322,1639,0,0
105,-615,0,0,0,0,0,0,0,0,0,-1,1329,1639,0,0
112,-615,0,0,0,0,0,0,0,0,0,-1,1336,1639,0,0
119,-615,0,0,0,0,0,0,0,0,0,-1,1343,1639,0,0
126,-615,0,0,0,0,0,0,0,0,0,-1,1350,1639,0,0
133,-615,0,0,0,0,0,0,0,0,0,-1,1357,1639,0,0
140,-615,0,0,0,0,0,0,0,0,0,-1,1364,1639,0,0
147,-615,0,0,0,0,0,0,0,0,0,-1,1371,1639,0,0
154,-615,0,0,0,0,0,0,0,0,0,-1,1378,1639,0,0
161,-615,0,0,0,0,0,0,0,0,0,-1,1385,1639,0,0
168,-615,0,0,0,0,0,0,0,0,0,-1,1392,1639,0,0
175,-615,5.39648,-2.00879,0,0,0,0,0,0,0,-1,1399,1639,5.3965,2.00881
182,-615,5.65393,-1.51025,0,0,0,0,0,0,0,-1,1406,1639,5.65388,1.51028
189,-615,5.58972,-1.35608,0,0,0,0,0,0,0,-1,1413,1639,5.58967,1.35607
196,-615,5.49915,-0.693604,0,0,0,0,0,0,0,-1,1420,1639,5.4991,0.693602
203,-615,5.33411,-0.226685,0,0,0,0,0,0,0,-1,1427,1639,5.33414,0.226689
210,-615,5.60278,0.108276,0,0,0,0,0,0,0,-1,1434,1639,5.60284,-0.10831
217,-615,6.26331,-0.307373,0,0,0,0,0,0,0,-1,1441,1639,6.26331,0.307372
224,-615,5.45422,-0.333984,0,0,0,0,0,0,0,-1,1448,1639,5.45422,0.333992
231,-615,4.92542,1.80298,0,0,0,0,0,0,0,-1,1455,1639,4.92537,-1.80297
238,-615,4.76355,1.96729,0,0,0,0,0,0,0,-1,1462,1639,4.76357,-1.96734
245,-615,4.08643,3.15906,0,0,0,0,0,0,0,-1,1469,1639,4.08638,-3.159
252,-615,6.37805,3.73889,0,0,0,0,0,0,0,-1,1476,1639,6.37806,-3.73891
259,-615,8.35974,3.16443,0,0,0,0,0,0,0,-1,1483,1639,8.35975,-3.16444
266,-615,10.3414,2.58997,0,0,0,0,0,0,0,-1,1490,1639,10.3414,-2.58996
273,-615,6.57043,1.84766,0,0,0,0,0,0,0,-1,1497,1639,6.5704,-1.84771
280,-615,7.10449,3.23438,0,0,0,0,0,0,0,-1,1504,1639,7.10447,-3.23435
287,-615,7.35779,4.68542,0,0,0,0,0,0,0,-1,1511,1639,7.35776,-4.68546
294,-615,7.63733,6.29114,0,0,0,0,0,0,0,-1,1518,1639,7.63735,-6.29109
301,-615,8.47925,11.452,0,0,0,0,0,0,0,-1,1525,1639,8.47922,-11.452
308,-615,6.8114,10.9059,0,0,0,0,0,0,0,-1,1532,1639,6.81137,-10.9058
315,-615,5.1427,14.7251,0,0,0,0,0,0,0,-1,1539,1639,5.14269,-14.7251
322,-615,7.17981,17.6864,0,0,0,0,0,0,0,-1,1546,1639,7.17985,-17.6864
329,-615,7.62134,20.4354,0,0,0,0,0,0,0,-1,1553,1639,7.62139,-20.4354
336,-615,6.45007,14.1138,0,0,0,0,0,0,0,-1,1560,1639,6.45011,-14.1138
343,-615,2.40491,6.50134,0,0,0,0,0,0,0,-1,1567,1639,2.40489,-6.50137
350,-615,6.4458,15.4594,0,0,0,0,0,0,0,-1,1574,1639,6.44578,-15.4593
357,-615,9.16479,24.2725,0,0,0,0,0,0,0,-1,1581,1639,9.1648,-24.2724
364,-615,9.578,24.2635,0,0,0,0,0,0,0,-1,1588,1639,9.57798,-24.2635
371,-615,9.53174,23.9707,0.00411037,0.0153052,-0.00475343,0.0170512,0.00236434,-1.21878,0.0106671,0.0476038,1595,1639,9.53178,-23.9707
378,-615,9.70313,23.2074,0.00351604,0.0126157,-0.00353467,0.0138274,0.00230438,-1.24055,0.00855422,0.0201602,1602,1639,9.70309,-23.2075
385,-615,9.71094,22.9528,0.00310664,0.0100937,-0.0027877,0.0110697,0.00213072,-1.23405,0.00678203,0.0120352,1609,1639,9.71091,-22.9528
392,-615,9.71399,22.6625,0.00255011,0.00744601,-0.00160829,0.00792706,0.00206906,-1.28016,0.00474776,0.0106864,1616,1639,9.71403,-22.6625
399,-615,9.72595,22.3883,0.00183291,0.00525209,-0.000471781,0.00531599,0.001769,-1.43617,0.00312589,0.0116591,1623,1639,9.72599,-22.3883
406,-615,9.74146,22.1178,0.00115028,0.00351836,0.000337522,0.00356553,0.00110311,1.43195,0.00210784,0.0113487,1630,1639,9.74143,-22.1178
413,-615,9.74658,21.8469,0.000639511,0.00220655,0.000826246,0.00256171,0.000284354,1.16483,0.00162135,0.01232,1637,1639,9.74664,-21.8469
420,-615,9.73621,21.5657,0.000327388,0.00110378,0.00115109,0.00193037,-0.000499202,0.94803,0.00148161,0.0135981,1644,1639,9.73616,-21.5656
427,-615,9.7301,21.2677,0.000298316,5.22574e-05,0.00138025,0.00156101,-0.00121043,0.740948,0.00160435,0.0141887,1651,1639,9.73011,-21.2677
434,-615,9.72571,20.9834,0.000526404,-0.000699068,0.00123221,0.00128981,-0.00146248,0.554668,0.00159008,0.0131688,1658,1639,9.72573,-20.9834
441,-615,9.74622,20.6906,0.00107195,-0.000959331,0.000692593,0.00128562,-0.001173,0.299247,0.00141998,0.0147486,1665,1639,9.74617,-20.6906
448,-615,9.74548,20.411,0.00176267,-0.00103492,7.58975e-05,0.00176473,-0.00103698,0.027103,0.00163566,0.0158709,1672,1639,9.74547,-20.411
455,-615,9.72925,20.126,0.00256717,-0.0012527,-0.0005791,0.00265303,-0.00133856,-0.147197,0.00234583,0.0141663,1679,1639,9.72921,-20.126
462,-615,9.72131,19.8282,0.00352053,-0.00145357,-0.00134146,0.00385925,-0.00179229,-0.247326,0.00333486,0.0141547,1686,1639,9.72133,-19.8282
469,-615,9.70056,19.5033,0.00475526,-0.00154503,-0.00230568,0.0055089,-0.00229867,-0.315917,0.00463298,0.0121361,1693,1639,9.70055,-19.5033
476,-615,9.68481,19.1791,0.0062436,-0.00108396,-0.0036034,0.00771867,-0.00255903,-0.388544,0.00617805,0.0105707,1700,1639,9.68484,-19.1791
483,-615,9.6897,18.8278,0.00764428,-0.000546835,-0.00488121,0.00992052,-0.00282308,-0.436348,0.00772853,0.0149837,1707,1639,9.6897,-18.8278
490,-615,9.69763,18.5186,0.0090542,0.000437103,-0.00648056,0.0125278,-0.00303646,-0.492029,0.00952669,0.0205417,1714,1639,9.69766,-18.5186
497,-615,9.6543,18.2936,0.0106821,0.00218409,-0.0083614,0.0158122,-0.00294597,-0.550317,0.0116483,0.0322544,1721,1639,9.65431,-18.2936
504,-615,9.42407,17.9694,0,0,0,0,0,0,0,-1,1728,1639,9.42409,-17.9694
511,-615,9.56616,17.6448,0,0,0,0,0,0,0,-1,1735,1639,9.56615,-17.6447
518,-615,13.2416,9.81812,0,0,0,0,0,0,0,-1,1742,1639,13.2416,-9.81813
525,-615,4.37524,3.90491,0,0,0,0,0,0,0,-1,1749,1639,4.37518,-3.90495
532,-615,7.3645,0.848145,0,0,0,0,0,0,0,-1,1756,1639,7.36451,-0.848093
539,-615,12.8112,-0.0476074,0,0,0,0,0,0,0,-1,1763,1639,12.8111,0.0475553
546,-615,8.33813,2.94556,0,0,0,0,0,0,0,-1,1770,1639,8.33813,-2.9455
553,-615,5.82532,-2.04199,0,0,0,0,0,0,0,-1,1777,1639,5.82534,2.04195
560,-615,0,0,0,0,0,0,0,0,0,-1,1784,1639,0,0
567,-615,0,0,0,0,0,0,0,0,0,-1,1791,1639,0,0
574,-615,0,0,0,0,0,0,0,0,0,-1,1798,1639,0,0
581,-615,0,0,0,0,0,0,0,0,0,-1,1805,1639,0,0
588,-615,0,0,0,0,0,0,0,0,0,-1,1812,1639,0,0
595,-615,0,0,0,0,0,0,0,0,0,-1,1819,1639,0,0
602,-615,0,0,0,0,0,0,0,0,0,-1,1826,1639,0,0
609,-615,0,0,0,0,0,0,0,0,0,-1,1833,1639,0,0
616,-615,0,0,0,0,0,0,0,0,0,-1,1840,1639,0,0
623,-615,0,0,0,0,0,0,0,0,0,-1,1847,1639,0,0
630,-615,0,0,0,0,0,0,0,0,0,-1,1854,1639,0,0
637,-615,0,0,0,0,0,0,0,0,0,-1,1861,1639,0,0
644,-615,0,0,0,0,0,0,0,0,0,-1,1868,1639,0,0
651,-615,0,0,0,0,0,0,0,0,0,-1,1875,1639,0,0
658,-615,0,0,0,0,0,0,0,0,0,-1,1882,1639,0,0
665,-615,0,0,0,0,0,0,0,0,0,-1,1889,1639,0,0
672,-615,0,0,0,0,0,0,0,0,0,-1,1896,1639,0,0
679,-615,0,0,0,0,0,0,0,0,0,-1,1903,1639,0,0
686,-615,0,0,0,0,0,0,0,0,0,-1,1910,1639,0,0
693,-615,0,0,0,0,0,0,0,0,0,-1,1917,1639,0,0
700,-615,0,0,0,0,0,0,0,0,0,-1,1924,1639,0,0
707,-615,0,0,0,0,0,0,0,0,0,-1,1931,1639,0,0
714,-615,0,0,0,0,0,0,0,0,0,-1,1938,1639,0,0
721,-615,0,0,0,0,0,0,0,0,0,-1,1945,1639,0,0
728,-615,0,0,0,0,0,0,0,0,0,-1,1952,1639,0,0
735,-615,0,0,0,0,0,0,0,0,0,-1,1959,1639,0,0
742,-615,0,0,0,0,0,0,0,0,0,-1,1966,1639,0,0
749,-615,0,0,0,0,0,0,0,0,0,-1,1973,1639,0,0
756,-615,0,0,0,0,0,0,0,0,0,-1,1980,1639,0,0
763,-615,0,0,0,0,0,0,0,0,0,-1,1987,1639,0,0
770,-615,0,0,0,0,0,0,0,0,0,-1,1994,1639,0,0
777,-615,0,0,0,0,0,0,0,0,0,-1,2001,1639,0,0
784,-615,0,0,0,0,0,0,0,0,0,-1,2008,1639,0,0
791,-615,0,0,0,0,0,0,0,0,0,-1,2015,1639,0,0
798,-615,0,0,0,0,0,0,0,0,0,-1,2022,1639,0,0
805,-615,0,0,0,0,0,0,0,0,0,-1,2029,1639,0,0
812,-615,0,0,0,0,0,0,0,0,0,-1,2036,1639,0,0
-700,-622,0,0,0,0,0,0,0,0,0,-1,524,1646,0,0
-693,-622,0,0,0,0,0,0,0,0,0,-1,531,1646,0,0
-686,-622,0,0,0,0,0,0,0,0,0,-1,538,1646,0,0
-679,-622,0,0,0,0,0,0,0,0,0,-1,545,1646,0,0
-672,-622,0,0,0,0,0,0,0,0,0,-1,552,1646,0,0
-665,-622,0,0,0,0,0,0,0,0,0,-1,559,1646,0,0
-658,-622,0,0,0,0,0,0,0,0,0,-1,566,1646,0,0
-651,-622,0,0,0,0,0,0,0,0,0,-1,573,1646,0,0
-644,-622,0,0,0,0,0,0,0,0,0,-1,580,1646,0,0
-637,-622,0,0,0,0,0,0,0,0,0,-1,587,1646,0,0
-630,-622,0,0,0,0,0,0,0,0,0,-1,594,1646,0,0
-623,-622,0,0,0,0,0,0,0,0,0,-1,601,1646,0,0
-616,-622,0,0,0,0,0,0,0,0,0,-1,608,1646,0,0
-609,-622,0,0,0,0,0,0,0,0,0,-1,615,1646,0,0
-602,-622,0,0,0,0,0,0,0,0,0,-1,622,1646,0,0
-595,-622,0,0,0,0,0,0,0,0,0,-1,629,1646,0,0
-588,-622,0,0,0,0,0,0,0,0,0,-1,636,1646,0,0
-581,-622,0,0,0,0,0,0,0,0,0,-1,643,1646,0,0
-574,-622,0,0,0,0,0,0,0,0,0,-1,650,1646,0,0
-567,-622,0,0,0,0,0,0,0,0,0,-1,657,1646,0,0
-560,-622,0,0,0,0,0,0,0,0,0,-1,664,1646,0,0
-553,-622,0,0,0,0,0,0,0,0,0,-1,671,1646,0,0
-546,-622,0,0,0,0,0,0,0,0,0,-1,678,1646,0,0
-539,-622,0,0,0,0,0,0,0,0,0,-1,685,1646,0,0
-532,-622,0,0,0,0,0,0,0,0,0,-1,692,1646,0,0
-525,-622,0,0,0,0,0,0,0,0,0,-1,699,1646,0,0
-518,-622,0,0,0,0,0,0,0,0,0,-1,706,1646,0,0
-511,-622,0,0,0,0,0,0,0,0,0,-1,713,1646,0,0
-504,-622,0,0,0,0,0,0,0,0,0,-1,720,1646,0,0
-497,-622,0,0,0,0,0,0,0,0,0,-1,727,1646,0,0
-490,-622,0,0,0,0,0,0,0,0,0,-1,734,1646,0,0
-483,-622,0,0,0,0,0,0,0,0,0,-1,741,1646,0,0
-476,-622,0,0,0,0,0,0,0,0,0,-1,748,1646,0,0
-469,-622,0,0,0,0,0,0,0,0,0,-1,755,1646,0,0
-462,-622,0,0,0,0,0,0,0,0,0,-1,762,1646,0,0
-455,-622,0,0,0,0,0,0,0,0,0,-1,769,1646,0,0
-448,-622,0,0,0,0,0,0,0,0,0,-1,776,1646,0,0
-441,-622,0,0,0,0,0,0,0,0,0,-1,783,1646,0,0
-434,-622,0,0,0,0,0,0,0,0,0,-1,790,1646,0,0
-427,-622,-7.62891,3.48096,0,0,0,0,0,0,0,-1,797,1646,-7.62892,-3.48092
-420,-622,-9.35791,1.77185,0,0,0,0,0,0,0,-1,804,1646,-9.35789,-1.77183
-413,-622,-8.46075,1.96777,0,0,0,0,0,0,0,-1,811,1646,-8.46074,-1.96774
-406,-622,-4.44318,2.16858,0,0,0,0,0,0,0,-1,818,1646,-4.44315,-2.16859
-399,-622,-7.06976,1.51001,0,0,0,0,0,0,0,-1,825,1646,-7.06976,-1.51005
-392,-622,3.89551,5.85376,0,0,0,0,0,0,0,-1,832,1646,3.8955,-5.85379
-385,-622,2.00543,14.0448,0,0,0,0,0,0,0,-1,839,1646,2.00544,-14.0448
-378,-622,1.49036,15.3436,0,0,0,0,0,0,0,-1,846,1646,1.49033,-15.3436
-371,-622,3.11438,15.4628,0,0,0,0,0,0,0,-1,853,1646,3.11437,-15.4628
-364,-622,3.46704,16.2544,0,0,0,0,0,0,0,-1,860,1646,3.46706,-16.2544
-357,-622,3.81976,17.046,0,0,0,0,0,0,0,-1,867,1646,3.81976,-17.046
-350,-622,3.02576,17.8973,0,0,0,0,0,0,0,-1,874,1646,3.02573,-17.8973
-343,-622,3.14233,18.204,-0.000842081,0.00042922,0.00241281,0.00228871,-0.00270157,0.914196,0.00288442,0.0264374,881,1646,3.14234,-18.204
-336,-622,3.21747,18.4952,-0.000351969,-0.00084542,0.000964822,0.000397175,-0.00159456,0.66022,0.00121723,0.00942655,888,1646,3.21746,-18.4953
-329,-622,3.19287,18.8252,7.02095e-05,-0.000612276,0.000647746,0.000461101,-0.00100317,0.542964,0.00086449,0.00837055,895,1646,3.19286,-18.8252
-322,-622,3.18262,19.1704,0.000373708,-0.000322953,0.000696658,0.000804266,-0.00075351,0.553573,0.000899541,0.0104536,902,1646,3.18265,-19.1705
-315,-622,3.15625,19.5085,0.000586673,-0.000105369,0.000747067,0.00106396,-0.000582658,0.568521,0.000964119,0.0143816,909,1646,3.15628,-19.5086
-308,-622,3.15179,19.8015,0.000834256,-6.7698e-05,0.000748041,0.00125675,-0.000490189,0.514132,0.00104046,0.0142906,916,1646,3.15178,-19.8015
-301,-622,3.17621,20.0935,0.00107527,0.00033074,0.000840036,0.00162183,-0.000215823,0.576826,0.00115987,0.0130301,923,1646,3.17619,-20.0935
-294,-622,3.15137,20.4235,0.00127877,0.000592231,0.000954968,0.00195029,-7.92893e-05,0.612862,0.00132741,0.00972153,930,1646,3.15139,-20.4235
-287,-622,3.14532,20.7393,0.00152088,0.001016,0.0010725,0.00237025,0.000166628,0.669814,0.00152765,0.00752572,937,1646,3.14534,-20.7393
-280,-622,3.14624,21.0398,0.00184913,0.00126614,0.00119583,0.00278848,0.000326796,0.665849,0.00176019,0.00863653,944,1646,3.14625,-21.0398
-273,-622,3.15753,21.3215,0.00223291,0.00149432,0.00131652,0.00323095,0.000496283,0.648656,0.00200907,0.0133711,951,1646,3.15754,-21.3215
-266,-622,3.13043,21.6166,0.00258368,0.00176819,0.00142207,0.00365531,0.000696558,0.64578,0.00224106,0.0135894,958,1646,3.13042,-21.6166
-259,-622,3.12445,21.9193,0.0029451,0.00212923,0.00152412,0.00411493,0.000959391,0.654637,0.00248598,0.0117535,965,1646,3.12447,-21.9194
-252,-622,3.14215,22.2002,0.00343477,0.00254311,0.00166626,0.00471381,0.00126407,0.654678,0.00281735,0.0112186,972,1646,3.14217,-22.2002
-245,-622,3.19458,22.4824,0.00393741,0.00289048,0.00182595,0.00531345,0.00151444,0.645801,0.00316083,0.00942685,979,1646,3.19457,-22.4824
-238,-622,3.20148,22.7643,0.00440156,0.00305989,0.00179356,0.00564563,0.00181582,0.60644,0.00332792,0.0110774,986,1646,3.20148,-22.7642
-231,-622,3.24615,23.1118,0.00493627,0.00245701,0.00148511,0.00563112,0.00176216,0.437623,0.00332611,0.0168721,993,1646,3.24613,-23.1119
-224,-622,3.32458,23.2737,0.00566873,0.0022876,0.00137308,0.00615609,0.00180024,0.341069,0.00365488,0.0283608,1000,1646,3.32458,-23.2737
-217,-622,3.41138,23.4733,0,0,0,0,0,0,0,-1,1007,1646,3.41138,-23.4733
-210,-622,3.06445,24.1309,0,0,0,0,0,0,0,-1,1014,1646,3.06445,-24.1309
-203,-622,4.21375,20.9574,0,0,0,0,0,0,0,-1,1021,1646,4.21375,-20.9574
-196,-622,4.18518,21.2491,0,0,0,0,0,0,0,-1,1028,1646,4.18521,-21.2491
-189,-622,3.89819,24.231,0,0,0,0,0,0,0,-1,1035,1646,3.89824,-24.2309
-182,-622,2.21411,20.6752,0,0,0,0,0,0,0,-1,1042,1646,2.21416,-20.6751
-175,-622,2.56091,11.0195,0,0,0,0,0,0,0,-1,1049,1646,2.56095,-11.0195
-168,-622,4.42639,22.1844,0,0,0,0,0,0,0,-1,1056,1646,4.42636,-22.1845
-161,-622,4.84448,24.2313,0,0,0,0,0,0,0,-1,1063,1646,4.84443,-24.2313
-154,-622,3.18298,25.1066,0,0,0,0,0,0,0,-1,1070,1646,3.18304,-25.1065
-147,-622,3.7146,25.5477,0,0,0,0,0,0,0,-1,1077,1646,3.71464,-25.5478
-140,-622,3.27515,16.0353,0,0,0,0,0,0,0,-1,1084,1646,3.27519,-16.0353
-133,-622,3.09644,17.677,0,0,0,0,0,0,0,-1,1091,1646,3.09638,-17.677
-126,-622,3.5061,19.5251,0,0,0,0,0,0,0,-1,1098,1646,3.50616,-19.5252
-119,-622,4.06384,13.1715,0,0,0,0,0,0,0,-1,1105,1646,4.06379,-13.1716
-112,-622,4.33276,14.6605,0,0,0,0,0,0,0,-1,1112,1646,4.33281,-14.6605
-105,-622,0.306519,4.38159,0,0,0,0,0,0,0,-1,1119,1646,0.306536,-4.38159
-98,-622,-0.510376,3.5033,0,0,0,0,0,0,0,-1,1126,1646,-0.510393,-3.50324
-91,-622,-1.146,0.975952,0,0,0,0,0,0,0,-1,1133,1646,-1.14599,-0.97597
-84,-622,-2.04895,1.31787,0,0,0,0,0,0,0,-1,1140,1646,-2.0489,-1.31781
-77,-622,-1.80627,0.332275,0,0,0,0,0,0,0,-1,1147,1646,-1.80622,-0.33223
-70,-622,-3.65588,2.28149,0,0,0,0,0,0,0,-1,1154,1646,-3.65589,-2.28155
-63,-622,-2.49683,1.27087,0,0,0,0,0,0,0,-1,1161,1646,-2.49679,-1.27093
-56,-622,-2.44238,-0.575562,0,0,0,0,0,0,0,-1,1168,1646,-2.44242,0.575508
-49,-622,-2.41089,1.38818,0,0,0,0,0,0,0,-1,1175,1646,-2.41088,-1.38815
-42,-622,-2.71497,2.85242,0,0,0,0,0,0,0,-1,1182,1646,-2.71491,-2.85247
-35,-622,-3.0177,4.25842,0,0,0,0,0,0,0,-1,1189,1646,-3.01773,-4.25838
-28,-622,-0.896606,0.678833,0,0,0,0,0,0,0,-1,1196,1646,-0.89661,-0.678835
-21,-622,3.69312,26.7708,0,0,0,0,0,0,0,-1,1203,1646,3.69309,-26.7708
-14,-622,6.38818,28.0786,0,0,0,0,0,0,0,-1,1210,1646,6.38816,-28.0786
-7,-622,7.1405,28.2963,0,0,0,0,0,0,0,-1,1217,1646,7.14049,-28.2963
0,-622,0,0,0,0,0,0,0,0,0,-1,1224,1646,0,0
7,-622,0,0,0,0,0,0,0,0,0,-1,1231,1646,0,0
14,-622,0,0,0,0,0,0,0,0,0,-1,1238,1646,0,0
21,-622,0,0,0,0,0,0,0,0,0,-1,1245,1646,0,0
28,-622,0,0,0,0,0,0,0,0,0,-1,1252,1646,0,0
35,-622,0,0,0,0,0,0,0,0,0,-1,1259,1646,0,0
42,-622,0,0,0,0,0,0,0,0,0,-1,1266,1646,0,0
49,-622,0,0,0,0,0,0,0,0,0,-1,1273,1646,0,0
56,-622,0,0,0,0,0,0,0,0,0,-1,1280,1646,0,0
63,-622,0,0,0,0,0,0,0,0,0,-1,1287,1646,0,0
70,-622,0,0,0,0,0,0,0,0,0,-1,1294,1646,0,0
77,-622,0,0,0,0,0,0,0,0,0,-1,1301,1646,0,0
84,-622,0,0,0,0,0,0,0,0,0,-1,1308,1646,0,0
91,-622,0,0,0,0,0,0,0,0,0,-1,1315,1646,0,0
98,-622,0,0,0,0,0,0,0,0,0,-1,1322,1646,0,0
105,-622,0,0,0,0,0,0,0,0,0,-1,1329,1646,0,0
112,-622,0,0,0,0,0,0,0,0,0,-1,1336,1646,0,0
119,-622,0,0,0,0,0,0,0,0,0,-1,1343,1646,0,0
126,-622,4.52173,2.45129,0,0,0,0,0,0,0,-1,1350,1646,4.52171,-2.45131
133,-622,5.09033,-0.333008,0,0,0,0,0,0,0,-1,1357,1646,5.09031,0.333067
140,-622,5.42188,-3.64551,0,0,0,0,0,0,0,-1,1364,1646,5.42186,3.64546
147,-622,-11.9849,27.2885,0,0,0,0,0,0,0,-1,1371,1646,-11.9849,-27.2885
154,-622,15.0535,51.2202,0,0,0,0,0,0,0,-1,1378,1646,15.0535,-51.2202
161,-622,10.6884,6.46448,0,0,0,0,0,0,0,-1,1385,1646,10.6883,-6.46442
168,-622,12.2402,5.18091,0,0,0,0,0,0,0,-1,1392,1646,12.2403,-5.1809
175,-622,5.64355,-1.77075,0,0,0,0,0,0,0,-1,1399,1646,5.64351,1.77077
182,-622,5.88586,-1.32251,0,0,0,0,0,0,0,-1,1406,1646,5.88587,1.32256
189,-622,5.97986,-1.18005,0,0,0,0,0,0,0,-1,1413,1646,5.97986,1.18003
196,-622,5.85022,-0.244507,0,0,0,0,0,0,0,-1,1420,1646,5.85026,0.244478
203,-622,5.25159,0.138794,0,0,0,0,0,0,0,-1,1427,1646,5.25162,-0.138822
210,-622,6.66833,0.0397949,0,0,0,0,0,0,0,-1,1434,1646,6.6684,-0.0398278
217,-622,6.12061,0.0506592,0,0,0,0,0,0,0,-1,1441,1646,6.12058,-0.0507181
224,-622,5.57275,0.0616455,0,0,0,0,0,0,0,-1,1448,1646,5.57276,-0.0616084
231,-622,5.31348,1.3949,0,0,0,0,0,0,0,-1,1455,1646,5.31342,-1.39495
238,-622,3.76477,2.90686,0,0,0,0,0,0,0,-1,1462,1646,3.7648,-2.90686
245,-622,5.13794,2.67993,0,0,0,0,0,0,0,-1,1469,1646,5.13796,-2.67992
252,-622,6.66528,2.53992,0,0,0,0,0,0,0,-1,1476,1646,6.66522,-2.53991
259,-622,8.93787,3.31458,0,0,0,0,0,0,0,-1,1483,1646,8.93791,-3.31454
266,-622,5.72644,3.11926,0,0,0,0,0,0,0,-1,1490,1646,5.72647,-3.1192
273,-622,7.28076,3.61218,0,0,0,0,0,0,0,-1,1497,1646,7.28071,-3.61212
280,-622,8.43127,4.4447,0,0,0,0,0,0,0,-1,1504,1646,8.43123,-4.44467
287,-622,8.60315,5.94617,0,0,0,0,0,0,0,-1,1511,1646,8.60319,-5.94622
294,-622,7.62756,11.5143,0,0,0,0,0,0,0,-1,1518,1646,7.62762,-11.5143
301,-622,7.36548,11.6569,0,0,0,0,0,0,0,-1,1525,1646,7.36549,-11.6569
308,-622,7.10339,11.7994,0,0,0,0,0,0,0,-1,1532,1646,7.10335,-11.7995
315,-622,8.28687,16.5842,0,0,0,0,0,0,0,-1,1539,1646,8.28689,-16.5843
322,-622,7.43689,20.5786,0,0,0,0,0,0,0,-1,1546,1646,7.43685,-20.5786
329,-622,9.46814,24.8834,0,0,0,0,0,0,0,-1,1553,1646,9.46811,-24.8834
336,-622,9.10925,25.1943,0,0,0,0,0,0,0,-1,1560,1646,9.10931,-25.1944
343,-622,9.16809,24.5667,0,0,0,0,0,0,0,-1,1567,1646,9.16813,-24.5667
350,-622,9.35156,24.1292,0,0,0,0,0,0,0,-1,1574,1646,9.35156,-24.1292
357,-622,9.23511,24.1212,0,0,0,0,0,0,0,-1,1581,1646,9.23507,-24.1212
364,-622,9.37878,23.8945,0.0036665,0.0141734,-0.0044958,0.0158345,0.0020054,-1.21688,0.00995541,0.0368768,1588,1646,9.37876,-23.8945
371,-622,9.47314,23.47,0.00329646,0.0120839,-0.00367063,0.0134154,0.00196494,-1.22281,0.00836589,0.0207515,1595,1646,9.47312,-23.47
378,-622,9.427,23.1776,0.00286384,0.0101783,-0.00291118,0.0111955,0.00184664,-1.23465,0.00693065,0.0101652,1602,1646,9.42699,-23.1777
385,-622,9.41931,22.908,0.0025873,0.00826739,-0.00244516,0.00917496,0.00167972,-1.21539,0.00564072,0.00873683,1609,1646,9.41926,-22.9079
392,-622,9.42041,22.6537,0.00216413,0.00612283,-0.00159208,0.00668367,0.00160329,-1.2321,0.00402912,0.00987218,1616,1646,9.42036,-22.6537
399,-622,9.4292,22.3929,0.00161223,0.00437489,-0.000751702,0.00456618,0.00142094,-1.32161,0.00269821,0.0102005,1623,1646,9.42919,-22.393
406,-622,9.45166,22.1168,0.00109292,0.00294187,-0.000125025,0.00295028,0.0010845,-1.50358,0.00172314,0.0133552,1630,1646,9.45168,-22.1169
413,-622,9.46338,21.8331,0.000697925,0.00180708,0.000264999,0.00186714,0.000637864,1.34792,0.00109587,0.0156613,1637,1646,9.46342,-21.8331
420,-622,9.44971,21.5648,0.000532542,0.000808713,0.0005676,0.00125478,8.64723e-05,0.90472,0.000809239,0.0157382,1644,1646,9.44974,-21.5648
427,-622,9.4364,21.2726,0.00074143,-0.000251877,0.000787244,0.00117559,-0.000686039,0.503991,0.00108713,0.0125122,1651,1646,9.43646,-21.2725
434,-622,9.44934,20.981,0.00112362,-0.00102851,0.000661242,0.00131055,-0.00121544,0.275507,0.00145872,0.0130822,1658,1646,9.44935,-20.981
441,-622,9.45483,20.6906,0.00186711,-0.00136151,0.000123297,0.00187181,-0.00136621,0.0381149,0.00187705,0.0148806,1665,1646,9.45483,-20.6906
448,-622,9.42749,20.4055,0.00278324,-0.00150745,-0.000476874,0.0028356,-0.00155981,-0.109363,0.00257308,0.0140396,1672,1646,9.42747,-20.4055
455,-622,9.41467,20.1138,0.00387301,-0.00184709,-0.00111302,0.00408195,-0.00205603,-0.185564,0.00360754,0.0158954,1679,1646,9.41463,-20.1138
462,-622,9.42969,19.8286,0.00516428,-0.00219382,-0.00187159,0.00561297,-0.00264251,-0.235298,0.00486807,0.0177183,1686,1646,9.42971,-19.8286
469,-622,9.41357,19.5239,0.00679362,-0.00240823,-0.00290247,0.00763263,-0.00324724,-0.281396,0.00644935,0.0180533,1693,1646,9.41355,-19.5239
476,-622,9.43384,19.1967,0.00873164,-0.00208866,-0.00430637,0.0102363,-0.00359331,-0.336142,0.00828588,0.0182286,1700,1646,9.4338,-19.1966
483,-622,9.41345,18.8866,0.0106273,-0.00151341,-0.00584378,0.012983,-0.00386915,-0.383193,0.0101928,0.0261419,1707,1646,9.41349,-18.8866
490,-622,9.41345,18.5428,0.0126071,-0.000317713,-0.00790395,0.0163543,-0.00406486,-0.442702,0.0124804,0.032479,1714,1646,9.41341,-18.5429
497,-622,9.58447,17.9469,0.0149278,0.00189513,-0.0104111,0.0206937,-0.00387083,-0.505776,0.0152507,0.0489075,1721,1646,9.58452,-17.9469
504,-622,9.68811,17.3639,0,0,0,0,0,0,0,-1,1728,1646,9.68815,-17.3639
511,-622,5.29004,4.14587,0,0,0,0,0,0,0,-1,1735,1646,5.29008,-4.14589
518,-622,5.6001,1.55359,0,0,0,0,0,0,0,-1,1742,1646,5.60015,-1.5536
525,-622,5.83093,2.01807,0,0,0,0,0,0,0,-1,1749,1646,5.83097,-2.01802
532,-622,5.44202,0.57373,0,0,0,0,0,0,0,-1,1756,1646,5.44196,-0.573705
539,-622,9.32129,1.06116,0,0,0,0,0,0,0,-1,1763,1646,9.32131,-1.0612
546,-622,6.50977,-3.45618,0,0,0,0,0,0,0,-1,1770,1646,6.50981,3.4562
553,-622,0,0,0,0,0,0,0,0,0,-1,1777,1646,0,0
560,-622,0,0,0,0,0,0,0,0,0,-1,1784,1646,0,0
567,-622,0,0,0,0,0,0,0,0,0,-1,1791,1646,0,0
574,-622,0,0,0,0,0,0,0,0,0,-1,1798,1646,0,0
581,-622,0,0,0,0,0,0,0,0,0,-1,1805,1646,0,0
588,-622,0,0,0,0,0,0,0,0,0,-1,1812,1646,0,0
595,-622,0,0,0,0,0,0,0,0,0,-1,1819,1646,0,0
602,-622,0,0,0,0,0,0,0,0,0,-1,1826,1646,0,0
609,-622,0,0,0,0,0,0,0,0,0,-1,1833,1646,0,0
616,-622,0,0,0,0,0,0,0,0,0,-1,1840,1646,0,0
623,-622,0,0,0,0,0,0,0,0,0,-1,1847,1646,0,0
630,-622,0,0,0,0,0,0,0,0,0,-1,1854,1646,0,0
637,-622,0,0,0,0,0,0,0,0,0,-1,1861,1646,0,0
644,-622,0,0,0,0,0,0,0,0,0,-1,1868,1646,0,0
651,-622,0,0,0,0,0,0,0,0,0,-1,1875,1646,0,0
658,-622,0,0,0,0,0,0,0,0,0,-1,1882,1646,0,0
665,-622,0,0,0,0,0,0,0,0,0,-1,1889,1646,0,0
672,-622,0,0,0,0,0,0,0,0,0,-1,1896,1646,0,0
679,-622,0,0,0,0,0,0,0,0,0,-1,1903,1646,0,0
686,-622,0,0,0,0,0,0,0,0,0,-1,1910,1646,0,0
693,-622,0,0,0,0,0,0,0,0,0,-1,1917,1646,0,0
700,-622,0,0,0,0,0,0,0,0,0,-1,1924,1646,0,0
707,-622,0,0,0,0,0,0,0,0,0,-1,1931,1646,0,0
714,-622,0,0,0,0,0,0,0,0,0,-1,1938,1646,0,0
721,-622,0,0,0,0,0,0,0,0,0,-1,1945,1646,0,0
728,-622,0,0,0,0,0,0,0,0,0,-1,1952,1646,0,0
735,-622,0,0,0,0,0,0,0,0,0,-1,1959,1646,0,0
742,-622,0,0,0,0,0,0,0,0,0,-1,1966,1646,0,0
749,-622,0,0,0,0,0,0,0,0,0,-1,1973,1646,0,0
756,-622,0,0,0,0,0,0,0,0,0,-1,1980,1646,0,0
763,-622,0,0,0,0,0,0,0,0,0,-1,1987,1646,0,0
770,-622,0,0,0,0,0,0,0,0,0,-1,1994,1646,0,0
777,-622,0,0,0,0,0,0,0,0,0,-1,2001,1646,0,0
784,-622,0,0,0,0,0,0,0,0,0,-1,2008,1646,0,0
791,-622,0,0,0,0,0,0,0,0,0,-1,2015,1646,0,0
798,-622,0,0,0,0,0,0,0,0,0,-1,2022,1646,0,0
805,-622,0,0,0,0,0,0,0,0,0,-1,2029,1646,0,0
812,-622,0,0,0,0,0,0,0,0,0,-1,2036,1646,0,0
-700,-629,0,0,0,0,0,0,0,0,0,-1,524,1653,0,0
-693,-629,0,0,0,0,0,0,0,0,0,-1,531,1653,0,0
-686,-629,0,0,0,0,0,0,0,0,0,-1,538,1653,0,0
-679,-629,0,0,0,0,0,0,0,0,0,-1,545,1653,0,0
-672,-629,0,0,0,0,0,0,0,0,0,-1,552,1653,0,0
-665,-629,0,0,0,0,0,0,0,0,0,-1,559,1653,0,0
-658,-629,0,0,0,0,0,0,0,0,0,-1,566,1653,0,0
-651,-629,0,0,0,0,0,0,0,0,0,-1,573,1653,0,0
-644,-629,0,0,0,0,0,0,0,0,0,-1,580,1653,0,0
-637,-629,0,0,0,0,0,0,0,0,0,-1,587,1653,0,0
-630,-629,0,0,0,0,0,0,0,0,0,-1,594,1653,0,0
-623,-629,0,0,0,0,0,0,0,0,0,-1,601,1653,0,0
-616,-629,0,0,0,0,0,0,0,0,0,-1,608,1653,0,0
-609,-629,0,0,0,0,0,0,0,0,0,-1,615,1653,0,0
-602,-629,0,0,0,0,0,0,0,0,0,-1,622,1653,0,0
-595,-629,0,0,0,0,0,0,0,0,0,-1,629,1653,0,0
-588,-629,0,0,0,0,0,0,0,0,0,-1,636,1653,0,0
-581,-629,0,0,0,0,0,0,0,0,0,-1,643,1653,0,0
-574,-629,0,0,0,0,0,0,0,0,0,-1,650,1653,0,0
-567,-629,0,0,0,0,0,0,0,0,0,-1,657,1653,0,0
-560,-629,0,0,0,0,0,0,0,0,0,-1,664,1653,0,0
-553,-629,0,0,0,0,0,0,0,0,0,-1,671,1653,0,0
-546,-629,0,0,0,0,0,0,0,0,0,-1,678,1653,0,0
-539,-629,0,0,0,0,0,0,0,0,0,-1,685,1653,0,0
-532,-629,0,0,0,0,0,0,0,0,0,-1,692,1653,0,0
-525,-629,0,0,0,0,0,0,0,0,0,-1,699,1653,0,0
-518,-629,0,0,0,0,0,0,0,0,0,-1,706,1653,0,0
-511,-629,0,0,0,0,0,0,0,0,0,-1,713,1653,0,0
-504,-629,0,0,0,0,0,0,0,0,0,-1,720,1653,0,0
-497,-629,0,0,0,0,0,0,0,0,0,-1,727,1653,0,0
-490,-629,0,0,0,0,0,0,0,0,0,-1,734,1653,0,0
-483,-629,0,0,0,0,0,0,0,0,0,-1,741,1653,0,0
-476,-629,0,0,0,0,0,0,0,0,0,-1,748,1653,0,0
-469,-629,0,0,0,0,0,0,0,0,0,-1,755,1653,0,0
-462,-629,0,0,0,0,0,0,0,0,0,-1,762,1653,0,0
-455,-629,0,0,0,0,0,0,0,0,0,-1,769,1653,0,0
-448,-629,0,0,0,0,0,0,0,0,0,-1,776,1653,0,0
-441,-629,0,0,0,0,0,0,0,0,0,-1,783,1653,0,0
-434,-629,0,0,0,0,0,0,0,0,0,-1,790,1653,0,0
-427,-629,0,0,0,0,0,0,0,0,0,-1,797,1653,0,0
-420,-629,-3.87103,3.37634,0,0,0,0,0,0,0,-1,804,1653,-3.87101,-3.37633
-413,-629,-5.69751,1.33582,0,0,0,0,0,0,0,-1,811,1653,-5.69754,-1.3358
-406,-629,2.85406,6.01501,0,0,0,0,0,0,0,-1,818,1653,2.85405,-6.01507
-399,-629,-0.455627,10.8687,0,0,0,0,0,0,0,-1,825,1653,-0.455625,-10.8687
-392,-629,1.15369,11.1295,0,0,0,0,0,0,0,-1,832,1653,1.1537,-11.1295
-385,-629,1.81976,11.6935,0,0,0,0,0,0,0,-1,839,1653,1.81975,-11.6935
-378,-629,2.19452,14.7941,0,0,0,0,0,0,0,-1,846,1653,2.19451,-14.7941
-371,-629,3.60114,14.7299,0,0,0,0,0,0,0,-1,853,1653,3.60113,-14.7299
-364,-629,3.99451,15.5371,0,0,0,0,0,0,0,-1,860,1653,3.99448,-15.5371
-357,-629,4.38782,16.3444,0,0,0,0,0,0,0,-1,867,1653,4.38783,-16.3443
-350,-629,3.39032,18.0283,0,0,0,0,0,0,0,-1,874,1653,3.3903,-18.0283
-343,-629,3.48602,18.2883,-0.000572931,0.000455816,0.00280263,0.00279089,-0.002908,0.876154,0.00329049,0.0430997,881,1653,3.48602,-18.2883
-336,-629,3.50342,18.5078,-6.1339e-05,-0.000939596,0.00127417,0.000847254,-0.00184819,0.619453,0.00159158,0.0178104,888,1653,3.50343,-18.5078
-329,-629,3.52039,18.8467,0.000163158,-0.000855929,0.000812138,0.000612365,-0.00130514,0.505233,0.0011309,0.0115279,895,1653,3.52039,-18.8467
-322,-629,3.50439,19.1626,0.000248253,-0.000719843,0.000733922,0.000643377,-0.00111497,0.493873,0.00102728,0.0117289,902,1653,3.50441,-19.1626
-315,-629,3.46631,19.491,0.000230691,-0.000652555,0.000640556,0.000567106,-0.00098897,0.483598,0.00090934,0.0150971,909,1653,3.46633,-19.491
-308,-629,3.4671,19.8137,0.000258727,-0.000771503,0.000470404,0.000441196,-0.000953972,0.370031,0.000823436,0.0122705,916,1653,3.46713,-19.8138
-301,-629,3.48834,20.1465,0.000318601,-0.000488897,0.000387218,0.000474272,-0.000644569,0.382251,0.000648452,0.0108753,923,1653,3.48833,-20.1465
-294,-629,3.47339,20.4496,0.000385929,-0.000322696,0.00035634,0.000534126,-0.000470893,0.394126,0.000580631,0.0118887,930,1653,3.47338,-20.4496
-287,-629,3.45795,20.7474,0.000496441,-4.85938e-06,0.000380228,0.000701202,-0.00020962,0.493987,0.000550801,0.00917562,937,1653,3.45796,-20.7475
-280,-629,3.46271,21.0524,0.000732905,0.000217283,0.000432743,0.000978813,-2.86255e-05,0.51675,0.00066229,0.00940319,944,1653,3.46269,-21.0524
-273,-629,3.46716,21.3131,0.00108686,0.000452239,0.000526792,0.00138453,0.000154574,0.514327,0.000876051,0.0132933,951,1653,3.46717,-21.3131
-266,-629,3.44336,21.6078,0.001441,0.000746299,0.000606494,0.00179257,0.000394731,0.525338,0.00108761,0.0137036,958,1653,3.44339,-21.6078
-259,-629,3.42517,21.9259,0.00182734,0.00117355,0.000724162,0.00229497,0.000705921,0.573387,0.00135731,0.0144068,965,1653,3.42516,-21.9259
-252,-629,3.43921,22.198,0.00233148,0.0016339,0.000888933,0.0029376,0.00102778,0.598442,0.00172132,0.010645,972,1653,3.4392,-22.198
-245,-629,3.46436,22.4923,0.00285137,0.0020612,0.0010745,0.00360112,0.00131145,0.609224,0.00210452,0.0080438,979,1653,3.46434,-22.4923
-238,-629,3.4668,22.7729,0.00339981,0.00232628,0.00114973,0.0041319,0.00159419,0.567005,0.0024062,0.0105337,986,1653,3.46681,-22.773
-231,-629,3.45709,23.0505,0.00399292,0.00204318,0.00107564,0.00446973,0.00156637,0.417252,0.0026188,0.0120517,993,1653,3.45707,-23.0506
-224,-629,3.54919,23.3906,0.00460884,0.00192701,0.000957427,0.00491556,0.00162029,0.310034,0.0028924,0.0136559,1000,1653,3.54918,-23.3906
-217,-629,3.521,23.5835,0.00507533,0.000612446,0.00126124,0.0054071,0.000280673,0.257225,0.00351491,0.0233903,1007,1653,3.52102,-23.5835
-210,-629,3.4104,23.8977,0.00281309,-0.00215542,0.00349729,0.00461866,-0.00396099,0.476583,0.00495831,0.0489832,1014,1653,3.41043,-23.8977
-203,-629,3.771,24.5795,0,0,0,0,0,0,0,-1,1021,1653,3.77103,-24.5795
-196,-629,4.02649,24.4771,0,0,0,0,0,0,0,-1,1028,1653,4.02652,-24.4771
-189,-629,3.83716,24.2963,0,0,0,0,0,0,0,-1,1035,1653,3.83722,-24.2963
-182,-629,3.53589,24.4594,0,0,0,0,0,0,0,-1,1042,1653,3.53593,-24.4594
-175,-629,3.29102,19.1411,0,0,0,0,0,0,0,-1,1049,1653,3.29096,-19.1411
-168,-629,4.81873,24.399,0,0,0,0,0,0,0,-1,1056,1653,4.81875,-24.3991
-161,-629,4.79504,24.3347,-0.0381241,-0.0223046,0.0303296,0.00112963,-0.0615584,0.912954,0.0414206,0.0464604,1063,1653,4.79504,-24.3347
-154,-629,3.79712,25.5338,-0.0454909,-0.0234704,0.0349009,0.00211578,-0.0710771,0.938193,0.0481055,0.0483497,1070,1653,3.79713,-25.5338
-147,-629,3.854,25.7474,0,0,0,0,0,0,0,-1,1077,1653,3.85403,-25.7474
-140,-629,2.34851,19.2911,0,0,0,0,0,0,0,-1,1084,1653,2.34853,-19.2911
-133,-629,3.41248,17.6686,0,0,0,0,0,0,0,-1,1091,1653,3.41243,-17.6686
-126,-629,4.01025,19.5328,0,0,0,0,0,0,0,-1,1098,1653,4.01022,-19.5328
-119,-629,4.94177,13.5525,0,0,0,0,0,0,0,-1,1105,1653,4.94172,-13.5525
-112,-629,5.63123,15.9187,0,0,0,0,0,0,0,-1,1112,1653,5.63118,-15.9187
-105,-629,2.15881,4.38342,0,0,0,0,0,0,0,-1,1119,1653,2.15878,-4.38347
-98,-629,0.825806,4.19385,0,0,0,0,0,0,0,-1,1126,1653,0.825779,-4.1939
-91,-629,-0.452271,3.64465,0,0,0,0,0,0,0,-1,1133,1653,-0.452278,-3.6446
-84,-629,-2.6084,0.466797,0,0,0,0,0,0,0,-1,1140,1653,-2.6084,-0.466786
-77,-629,-3.50903,2.10706,0,0,0,0,0,0,0,-1,1147,1653,-3.509,-2.10707
-70,-629,-1.20886,2.52502,0,0,0,0,0,0,0,-1,1154,1653,-1.20886,-2.525
-63,-629,-0.960693,4.30212,0,0,0,0,0,0,0,-1,1161,1653,-0.960691,-4.30215
-56,-629,-1.31934,5.64343,0,0,0,0,0,0,0,-1,1168,1653,-1.31928,-5.6434
-49,-629,-2.15662,2.57458,0,0,0,0,0,0,0,-1,1175,1653,-2.15656,-2.57459
-42,-629,-2.46326,3.91467,0,0,0,0,0,0,0,-1,1182,1653,-2.4633,-3.91466
-35,-629,-2.67261,5.24292,0,0,0,0,0,0,0,-1,1189,1653,-2.67257,-5.24298
-28,-629,-0.402954,-0.866577,0,0,0,0,0,0,0,-1,1196,1653,-0.402943,0.866612
-21,-629,3.45508,27.0596,0,0,0,0,0,0,0,-1,1203,1653,3.45508,-27.0596
-14,-629,5.41602,28.2192,0,0,0,0,0,0,0,-1,1210,1653,5.41603,-28.2192
-7,-629,6.1626,28.4286,0.103609,0.00979197,0.0988588,0.166124,-0.0527227,0.563877,0.131884,0.0482278,1217,1653,6.16264,-28.4285
0,-629,6.97583,28.6455,0.0759683,0.0192918,0.0658856,0.119351,-0.0240914,0.582301,0.0886955,0.0461067,1224,1653,6.97588,-28.6456
7,-629,7.3894,28.7646,0.0594845,0.0460021,0.0484795,0.101689,0.00379732,0.716314,0.0665632,0.0446945,1231,1653,7.38944,-28.7647
14,-629,7.52795,28.6941,0.052376,0.0738524,0.0339654,0.0987366,0.0274918,0.938503,0.0588417,0.0422972,1238,1653,7.52793,-28.6941
21,-629,7.52917,28.0623,0.0424756,0.104056,0.0201017,0.110037,0.0364946,1.2816,0.0647187,0.0457537,1245,1653,7.52916,-28.0623
28,-629,7.51733,27.4464,0,0,0,0,0,0,0,-1,1252,1653,7.51728,-27.4465
35,-629,7.52417,26.8044,0.0178474,0.168571,-0.00615469,0.168822,0.0175965,-1.53005,0.107165,0.0464096,1259,1653,7.52414,-26.8045
42,-629,7.5979,26.3538,0.00831417,0.187265,-0.0244193,0.190537,0.00504179,-1.43758,0.125378,0.0457893,1266,1653,7.59787,-26.3538
49,-629,7.45923,24.9082,0,0,0,0,0,0,0,-1,1273,1653,7.45922,-24.9082
56,-629,7.29248,24.7783,0,0,0,0,0,0,0,-1,1280,1653,7.2925,-24.7783
63,-629,6.56482,24.5013,-0.00224351,0.187638,-0.0990193,0.229878,-0.0444837,-1.16758,0.170031,0.0475695,1287,1653,6.56484,-24.5013
70,-629,6.46008,23.6621,0.00710707,0.176975,-0.12042,0.2394,-0.0553181,-1.09254,0.180882,0.0476459,1294,1653,6.46005,-23.6622
77,-629,6.44006,22.7537,0,0,0,0,0,0,0,-1,1301,1653,6.44002,-22.7537
84,-629,2.72241,17.1737,0,0,0,0,0,0,0,-1,1308,1653,2.72236,-17.1737
91,-629,2.98657,14.6533,0.0612954,0.121977,-0.177318,0.271531,-0.0882591,-0.870132,0.216522,0.0444962,1315,1653,2.98662,-14.6533
98,-629,3.38281,12.2516,0.0818864,0.0989914,-0.197372,0.287996,-0.107118,-0.807051,0.235953,0.0443437,1322,1653,3.38286,-12.2515
105,-629,3.97644,9.54773,0.101441,0.0775541,-0.213986,0.303817,-0.124821,-0.757519,0.254565,0.0477109,1329,1653,3.97645,-9.54776
112,-629,4.22583,6.41406,0.115265,0.0625437,-0.232908,0.3233,-0.145491,-0.729047,0.27707,0.0467384,1336,1653,4.22579,-6.41405
119,-629,4.42834,3.93713,0.118281,0.0578475,-0.250931,0.340808,-0.164679,-0.725477,0.29769,0.04429,1343,1653,4.42832,-3.93713
126,-629,4.86243,1.55627,0.110036,0.0714921,-0.263292,0.35476,-0.173232,-0.748865,0.310784,0.0422789,1350,1653,4.86243,-1.55623
133,-629,5.25256,-1.27502,0,0,0,0,0,0,0,-1,1357,1653,5.25253,1.27503
140,-629,5.63171,-4.44238,0,0,0,0,0,0,0,-1,1364,1653,5.63171,4.44236
147,-629,6.20081,-7.66833,0,0,0,0,0,0,0,-1,1371,1653,6.20075,7.66834
154,-629,10.8354,22.9854,0,0,0,0,0,0,0,-1,1378,1653,10.8355,-22.9854
161,-629,10.5461,6.83752,0,0,0,0,0,0,0,-1,1385,1653,10.5461,-6.83758
168,-629,12.0059,5.56348,0,0,0,0,0,0,0,-1,1392,1653,12.0059,-5.56352
175,-629,5.84485,-1.78845,0,0,0,0,0,0,0,-1,1399,1653,5.84479,1.7884
182,-629,5.99036,-1.27783,0,0,0,0,0,0,0,-1,1406,1653,5.99041,1.27778
189,-629,5.97668,-0.748535,0,0,0,0,0,0,0,-1,1413,1653,5.97671,0.748544
196,-629,4.52869,9.24695,0,0,0,0,0,0,0,-1,1420,1653,4.52869,-9.2469
203,-629,3.75085,6.88037,0,0,0,0,0,0,0,-1,1427,1653,3.75087,-6.88032
210,-629,3.5907,6.52637,0,0,0,0,0,0,0,-1,1434,1653,3.59067,-6.52642
217,-629,2.4585,4.84448,0,0,0,0,0,0,0,-1,1441,1653,2.45855,-4.84448
224,-629,1.31982,3.68481,0,0,0,0,0,0,0,-1,1448,1653,1.31986,-3.68487
231,-629,3.63025,1.73499,0,0,0,0,0,0,0,-1,1455,1653,3.6303,-1.735
238,-629,4.26428,2.11255,0,0,0,0,0,0,0,-1,1462,1653,4.26429,-2.11253
245,-629,5.61816,1.95361,0,0,0,0,0,0,0,-1,1469,1653,5.61815,-1.95359
252,-629,7.27136,2.18982,0,0,0,0,0,0,0,-1,1476,1653,7.27131,-2.18985
259,-629,8.67334,2.18628,0,0,0,0,0,0,0,-1,1483,1653,8.6733,-2.18633
266,-629,6.86475,3.72058,0,0,0,0,0,0,0,-1,1490,1653,6.86479,-3.72063
273,-629,7.9021,3.8717,0,0,0,0,0,0,0,-1,1497,1653,7.90205,-3.87171
280,-629,9.70837,4.39087,0,0,0,0,0,0,0,-1,1504,1653,9.7084,-4.39082
287,-629,9.82947,7.19348,0,0,0,0,0,0,0,-1,1511,1653,9.8295,-7.19347
294,-629,6.56555,11.6359,0,0,0,0,0,0,0,-1,1518,1653,6.5656,-11.6358
301,-629,6.93835,15.6102,0,0,0,0,0,0,0,-1,1525,1653,6.93835,-15.6103
308,-629,6.08264,12.1423,0,0,0,0,0,0,0,-1,1532,1653,6.08263,-12.1423
315,-629,6.82043,18.2764,0,0,0,0,0,0,0,-1,1539,1653,6.82049,-18.2764
322,-629,9.17688,24.9291,0,0,0,0,0,0,0,-1,1546,1653,9.17683,-24.9291
329,-629,9.18848,24.8099,0.00310406,0.0121334,-0.00193072,0.0125289,0.00270854,-1.36874,0.0076121,0.0453602,1553,1653,9.18851,-24.8099
336,-629,8.99976,24.9031,0.00282619,0.0124698,-0.00233383,0.0130049,0.00229108,-1.34541,0.00801614,0.0458727,1560,1653,8.99976,-24.9031
343,-629,9.01477,24.4945,0.00284134,0.0125794,-0.00297561,0.0134167,0.00200409,-1.29652,0.0083569,0.0468689,1567,1653,9.01478,-24.4946
350,-629,9.09058,24.1477,0.0030297,0.0122652,-0.00341705,0.013392,0.0019029,-1.25227,0.00836616,0.0292888,1574,1653,9.09057,-24.1477
357,-629,9.17651,23.8612,0.00305184,0.0116567,-0.00349134,0.012895,0.00181348,-1.22994,0.00806049,0.0158046,1581,1653,9.17651,-23.8612
364,-629,9.16821,23.6389,0.00281801,0.0105773,-0.00321992,0.0117394,0.00165587,-1.22443,0.00733688,0.0128901,1588,1653,9.1682,-23.6389
371,-629,9.15918,23.4072,0.0025218,0.00917414,-0.00274546,0.0101608,0.00153509,-1.22577,0.00632461,0.0110155,1595,1653,9.1592,-23.4073
378,-629,9.14563,23.1506,0.00220634,0.00775115,-0.00225066,0.0085497,0.00140779,-1.22985,0.00529331,0.00957801,1602,1653,9.14558,-23.1507
385,-629,9.15015,22.9056,0.00203248,0.00622707,-0.00193524,0.00698351,0.00127604,-1.19818,0.004294,0.0104916,1609,1653,9.15012,-22.9056
392,-629,9.15356,22.6564,0.00174267,0.00442245,-0.00130797,0.00495501,0.00121011,-1.18413,0.00298294,0.00979723,1616,1653,9.15355,-22.6563
399,-629,9.15771,22.3939,0.00131869,0.00293377,-0.000655294,0.0031662,0.00108626,-1.22995,0.00185777,0.00990314,1623,1653,9.15775,-22.3939
406,-629,9.17139,22.1376,0.000937246,0.00172506,-0.000155694,0.00175471,0.000907593,-1.38259,0.00101329,0.0134633,1630,1653,9.17136,-22.1376
413,-629,9.16772,21.8584,0.000654323,0.000770885,0.00013979,0.000864057,0.000561151,0.982901,0.000506236,0.0219344,1637,1653,9.1677,-21.8583
420,-629,9.15625,21.5856,0.000642293,-7.25953e-05,0.000394518,0.000817212,-0.000247515,0.417331,0.000643384,0.0199359,1644,1653,9.15628,-21.5856
427,-629,9.15332,21.2936,0.00110454,-0.00106469,0.000567501,0.00124404,-0.00120418,0.241029,0.00141354,0.012961,1651,1653,9.15332,-21.2936
434,-629,9.15259,21.0018,0.00165565,-0.00178138,0.000425834,0.00170762,-0.00183335,0.12145,0.00204481,0.0109953,1658,1653,9.15253,-21.0018
441,-629,9.14465,20.7128,0.00263118,-0.00210353,-0.000150314,0.00263595,-0.0021083,-0.0317046,0.00274473,0.015302,1665,1653,9.14467,-20.7128
448,-629,9.11877,20.4031,0.00384455,-0.0022347,-0.000783557,0.00394392,-0.00233407,-0.126144,0.0036641,0.0147143,1672,1653,9.11878,-20.4031
455,-629,9.11792,20.103,0.00531323,-0.00262452,-0.00145194,0.00557048,-0.00288176,-0.175354,0.00496152,0.0138791,1679,1653,9.11787,-20.103
462,-629,9.14709,19.8483,0.0070621,-0.00302627,-0.00224887,0.00754071,-0.00350488,-0.209692,0.00651752,0.0172792,1686,1653,9.14713,-19.8483
469,-629,9.13354,19.5194,0.00929113,-0.00340555,-0.00336574,0.0101282,-0.00424259,-0.243748,0.00852575,0.0203086,1693,1653,9.13352,-19.5194
476,-629,9.21484,19.264,0.0119307,-0.00332252,-0.0049053,0.013372,-0.00476383,-0.285785,0.0108568,0.0285725,1700,1653,9.21482,-19.2641
483,-629,9.29822,19.0739,0.0146195,-0.00280515,-0.00677836,0.0169458,-0.00513143,-0.330596,0.0133408,0.0414715,1707,1653,9.29819,-19.0738
490,-629,9.54846,18.3748,0.0175253,-0.00146949,-0.00942473,0.021408,-0.00535215,-0.390779,0.0163507,0.0454846,1714,1653,9.54849,-18.3747
497,-629,9.69189,17.9692,0,0,0,0,0,0,0,-1,1721,1653,9.69185,-17.9692
504,-629,7.89453,15.5316,0,0,0,0,0,0,0,-1,1728,1653,7.89447,-15.5316
511,-629,6.29138,3.40295,0,0,0,0,0,0,0,-1,1735,1653,6.29137,-3.403
518,-629,5.84387,1.41858,0,0,0,0,0,0,0,-1,1742,1653,5.84391,-1.4186
525,-629,6.4729,1.02319,0,0,0,0,0,0,0,-1,1749,1653,6.47284,-1.02316
532,-629,6.86511,0.903687,0,0,0,0,0,0,0,-1,1756,1653,6.86514,-0.903691
539,-629,6.60803,0.746704,0,0,0,0,0,0,0,-1,1763,1653,6.60809,-0.746691
546,-629,0,0,0,0,0,0,0,0,0,-1,1770,1653,0,0
553,-629,0,0,0,0,0,0,0,0,0,-1,1777,1653,0,0
560,-629,0,0,0,0,0,0,0,0,0,-1,1784,1653,0,0
567,-629,0,0,0,0,0,0,0,0,0,-1,1791,1653,0,0
574,-629,0,0,0,0,0,0,0,0,0,-1,1798,1653,0,0
581,-629,0,0,0,0,0,0,0,0,0,-1,1805,1653,0,0
588,-629,0,0,0,0,0,0,0,0,0,-1,1812,1653,0,0
595,-629,0,0,0,0,0,0,0,0,0,-1,1819,1653,0,0
602,-629,0,0,0,0,0,0,0,0,0,-1,1826,1653,0,0
609,-629,0,0,0,0,0,0,0,0,0,-1,1833,1653,0,0
616,-629,0,0,0,0,0,0,0,0,0,-1,1840,1653,0,0
623,-629,0,0,0,0,0,0,0,0,0,-1,1847,1653,0,0
630,-629,0,0,0,0,0,0,0,0,0,-1,1854,1653,0,0
637,-629,0,0,0,0,0,0,0,0,0,-1,1861,1653,0,0
644,-629,0,0,0,0,0,0,0,0,0,-1,1868,1653,0,0
651,-629,0,0,0,0,0,0,0,0,0,-1,1875,1653,0,0
658,-629,0,0,0,0,0,0,0,0,0,-1,1882,1653,0,0
665,-629,0,0,0,0,0,0,0,0,0,-1,1889,1653,0,0
672,-629,0,0,0,0,0,0,0,0,0,-1,1896,1653,0,0
679,-629,0,0,0,0,0,0,0,0,0,-1,1903,1653,0,0
686,-629,0,0,0,0,0,0,0,0,0,-1,1910,1653,0,0
693,-629,0,0,0,0,0,0,0,0,0,-1,1917,1653,0,0
700,-629,0,0,0,0,0,0,0,0,0,-1,1924,1653,0,0
707,-629,0,0,0,0,0,0,0,0,0,-1,1931,1653,0,0
714,-629,0,0,0,0,0,0,0,0,0,-1,1938,1653,0,0
721,-629,0,0,0,0,0,0,0,0,0,-1,1945,1653,0,0
728,-629,0,0,0,0,0,0,0,0,0,-1,1952,1653,0,0
735,-629,0,0,0,0,0,0,0,0,0,-1,1959,1653,0,0
742,-629,0,0,0,0,0,0,0,0,0,-1,1966,1653,0,0
749,-629,0,0,0,0,0,0,0,0,0,-1,1973,1653,0,0
756,-629,0,0,0,0,0,0,0,0,0,-1,1980,1653,0,0
763,-629,0,0,0,0,0,0,0,0,0,-1,1987,1653,0,0
770,-629,0,0,0,0,0,0,0,0,0,-1,1994,1653,0,0
777,-629,0,0,0,0,0,0,0,0,0,-1,2001,1653,0,0
784,-629,0,0,0,0,0,0,0,0,0,-1,2008,1653,0,0
791,-629,0,0,0,0,0,0,0,0,0,-1,2015,1653,0,0
798,-629,0,0,0,0,0,0,0,0,0,-1,2022,1653,0,0
805,-629,0,0,0,0,0,0,0,0,0,-1,2029,1653,0,0
812,-629,0,0,0,0,0,0,0,0,0,-1,2036,1653,0,0
-700,-636,0,0,0,0,0,0,0,0,0,-1,524,1660,0,0
-693,-636,0,0,0,0,0,0,0,0,0,-1,531,1660,0,0
-686,-636,0,0,0,0,0,0,0,0,0,-1,538,1660,0,0
-679,-636,0,0,0,0,0,0,0,0,0,-1,545,1660,0,0
-672,-636,0,0,0,0,0,0,0,0,0,-1,552,1660,0,0
-665,-636,0,0,0,0,0,0,0,0,0,-1,559,1660,0,0
-658,-636,0,0,0,0,0,0,0,0,0,-1,566,1660,0,0
-651,-636,0,0,0,0,0,0,0,0,0,-1,573,1660,0,0
-644,-636,0,0,0,0,0,0,0,0,0,-1,580,1660,0,0
-637,-636,0,0,0,0,0,0,0,0,0,-1,587,1660,0,0
-630,-636,0,0,0,0,0,0,0,0,0,-1,594,1660,0,0
-623,-636,0,0,0,0,0,0,0,0,0,-1,601,1660,0,0
-616,-636,0,0,0,0,0,0,0,0,0,-1,608,1660,0,0
-609,-636,0,0,0,0,0,0,0,0,0,-1,615,1660,0,0
-602,-636,0,0,0,0,0,0,0,0,0,-1,622,1660,0,0
-595,-636,0,0,0,0,0,0,0,0,0,-1,629,1660,0,0
-588,-636,0,0,0,0,0,0,0,0,0,-1,636,1660,0,0
-581,-636,0,0,0,0,0,0,0,0,0,-1,643,1660,0,0
-574,-636,0,0,0,0,0,0,0,0,0,-1,650,1660,0,0
-567,-636,0,0,0,0,0,0,0,0,0,-1,657,1660,0,0
-560,-636,0,0,0,0,0,0,0,0,0,-1,664,1660,0,0
-553,-636,0,0,0,0,0,0,0,0,0,-1,671,1660,0,0
-546,-636,0,0,0,0,0,0,0,0,0,-1,678,1660,0,0
-539,-636,0,0,0,0,0,0,0,0,0,-1,685,1660,0,0
-532,-636,0,0,0,0,0,0,0,0,0,-1,692,1660,0,0
-525,-636,0,0,0,0,0,0,0,0,0,-1,699,1660,0,0
-518,-636,0,0,0,0,0,0,0,0,0,-1,706,1660,0,0
-511,-636,0,0,0,0,0,0,0,0,0,-1,713,1660,0,0
-504,-636,0,0,0,0,0,0,0,0,0,-1,720,1660,0,0
-497,-636,0,0,0,0,0,0,0,0,0,-1,727,1660,0,0
-490,-636,0,0,0,0,0,0,0,0,0,-1,734,1660,0,0
-483,-636,0,0,0,0,0,0,0,0,0,-1,741,1660,0,0
-476,-636,0,0,0,0,0,0,0,0,0,-1,748,1660,0,0
-469,-636,0,0,0,0,0,0,0,0,0,-1,755,1660,0,0
-462,-636,0,0,0,0,0,0,0,0,0,-1,762,1660,0,0
-455,-636,0,0,0,0,0,0,0,0,0,-1,769,1660,0,0
-448,-636,0,0,0,0,0,0,0,0,0,-1,776,1660,0,0
-441,-636,0,0,0,0,0,0,0,0,0,-1,783,1660,0,0
-434,-636,0,0,0,0,0,0,0,0,0,-1,790,1660,0,0
-427,-636,0,0,0,0,0,0,0,0,0,-1,797,1660,0,0
-420,-636,0,0,0,0,0,0,0,0,0,-1,804,1660,0,0
-413,-636,0,0,0,0,0,0,0,0,0,-1,811,1660,0,0
-406,-636,-0.591125,10.6943,0,0,0,0,0,0,0,-1,818,1660,-0.59115,-10.6943
-399,-636,0.0766602,11.2408,0,0,0,0,0,0,0,-1,825,1660,0.076685,-11.2409
-392,-636,0.75946,11.9233,0,0,0,0,0,0,0,-1,832,1660,0.759481,-11.9233
-385,-636,1.68878,12.517,0,0,0,0,0,0,0,-1,839,1660,1.6888,-12.5169
-378,-636,2.22107,13.0013,0,0,0,0,0,0,0,-1,846,1660,2.22107,-13.0014
-371,-636,2.52185,11.9684,0,0,0,0,0,0,0,-1,853,1660,2.52184,-11.9684
-364,-636,4.51947,14.8503,0,0,0,0,0,0,0,-1,860,1660,4.51949,-14.8504
-357,-636,4.55682,15.8809,0,0,0,0,0,0,0,-1,867,1660,4.55681,-15.8808
-350,-636,2.63104,14.4946,0,0,0,0,0,0,0,-1,874,1660,2.63102,-14.4946
-343,-636,3.81238,18.1981,0,0,0,0,0,0,0,-1,881,1660,3.81237,-18.1982
-336,-636,3.81854,18.5338,0.000216697,-0.000926501,0.00163456,0.00137672,-0.00208653,0.617197,0.00201346,0.0336155,888,1660,3.81851,-18.5338
-329,-636,3.849,18.861,0.000300257,-0.0010416,0.00104825,0.000873903,-0.00161525,0.500724,0.0014582,0.0185628,895,1660,3.84899,-18.8609
-322,-636,3.83917,19.1761,0.000280086,-0.00108853,0.000915797,0.000739002,-0.00154745,0.464536,0.00134731,0.0111079,902,1660,3.83918,-19.1762
-315,-636,3.78906,19.5048,0.000168617,-0.00113608,0.000718287,0.000486576,-0.00145404,0.416735,0.0011659,0.0117369,909,1660,3.78906,-19.5048
-308,-636,3.78387,19.8356,9.38991e-05,-0.00137642,0.000428113,0.000209469,-0.00149199,0.263666,0.00107133,0.0105874,916,1660,3.78389,-19.8356
-301,-636,3.7926,20.1616,6.63842e-05,-0.00117863,0.000226342,0.000106256,-0.0012185,0.174368,0.000849969,0.010627,923,1660,3.79259,-20.1616
-294,-636,3.77338,20.4783,6.7718e-05,-0.00103499,9.48558e-05,7.58181e-05,-0.00104309,0.0851873,0.000721991,0.0140328,930,1660,3.77335,-20.4782
-287,-636,3.76715,20.7737,9.34413e-05,-0.000760874,4.63534e-05,9.5949e-05,-0.000763381,0.0540465,0.000543733,0.0119086,937,1660,3.76716,-20.7737
-280,-636,3.76276,21.0579,0.000246809,-0.000519751,3.64066e-05,0.000248534,-0.000521477,0.0473514,0.00045378,0.0110252,944,1660,3.76273,-21.0579
-273,-636,3.75714,21.3296,0.000539296,-0.000249884,9.73127e-05,0.000551118,-0.000261707,0.120896,0.000479098,0.0113373,951,1660,3.75713,-21.3296
-266,-636,3.74915,21.6262,0.000830966,6.29108e-05,0.000129394,0.000852179,4.16978e-05,0.162496,0.000554743,0.0132771,958,1660,3.74913,-21.6262
-259,-636,3.74567,21.9401,0.00115524,0.000531574,0.000243164,0.00123884,0.000447972,0.331146,0.000724322,0.0150238,965,1660,3.74568,-21.9401
-252,-636,3.74963,22.2206,0.00158085,0.000985704,0.000407485,0.00178785,0.000778704,0.470023,0.00103507,0.0108883,972,1660,3.74966,-22.2206
-245,-636,3.76184,22.5154,0.00202432,0.00140981,0.000594766,0.00238651,0.00104762,0.546977,0.00138127,0.0100034,979,1660,3.76184,-22.5154
-238,-636,3.77252,22.7878,0.00248861,0.0016627,0.000710434,0.00289739,0.00125392,0.522131,0.00167784,0.011737,986,1660,3.77253,-22.7878
-231,-636,3.76953,23.0498,0.00300159,0.00149723,0.000755509,0.00331551,0.00118331,0.393803,0.00194016,0.0112161,993,1660,3.76953,-23.0498
-224,-636,3.77759,23.3121,0.00354826,0.00141204,0.0007219,0.00376934,0.00119096,0.297172,0.00222483,0.00911207,1000,1660,3.77758,-23.3122
-217,-636,3.76965,23.6133,0.00398689,0.000350898,0.00102137,0.00425415,8.36356e-05,0.255932,0.00280864,0.0135588,1007,1660,3.76966,-23.6133
-210,-636,3.784,23.8589,0.00252058,-0.00177097,0.00261802,0.00375983,-0.00301022,0.442103,0.00391667,0.022714,1014,1660,3.78403,-23.8589
-203,-636,3.84436,24.1737,-0.00028198,-0.00307955,0.00441799,0.00295337,-0.0063149,0.632085,0.0054671,0.0296716,1021,1660,3.84441,-24.1737
-196,-636,3.98645,24.339,-0.00235908,-0.00550305,0.00599928,0.00227074,-0.0101329,0.657264,0.00762571,0.0316036,1028,1660,3.98648,-24.339
-189,-636,3.94531,24.502,-0.0054494,-0.00795923,0.00818405,0.00157539,-0.014984,0.709322,0.0105537,0.0310938,1035,1660,3.94532,-24.5019
-182,-636,4.02612,24.5648,-0.00961205,-0.0109746,0.0110187,0.00074645,-0.0213331,0.754524,0.0144773,0.0462388,1042,1660,4.02616,-24.5648
-175,-636,4.09521,25.2395,0,0,0,0,0,0,0,-1,1049,1660,4.09519,-25.2395
-168,-636,4.76697,24.646,-0.0193286,-0.0154152,0.0176942,0.00043023,-0.035174,0.840467,0.023594,0.0489744,1056,1660,4.76693,-24.6461
-161,-636,4.77722,24.538,-0.0240986,-0.0169652,0.0209603,0.000729712,-0.0417935,0.869674,0.0281087,0.0458578,1063,1660,4.77723,-24.5379
-154,-636,4.05823,25.3878,-0.028903,-0.0176479,0.0240608,0.00143467,-0.0479855,0.900278,0.0324792,0.0463683,1070,1660,4.05826,-25.3878
-147,-636,4.0647,25.5504,0,0,0,0,0,0,0,-1,1077,1660,4.06475,-25.5504
-140,-636,3.4729,27.1271,0,0,0,0,0,0,0,-1,1084,1660,3.47287,-27.1271
-133,-636,4.68311,18.0922,0,0,0,0,0,0,0,-1,1091,1660,4.68316,-18.0921
-126,-636,3.79028,18.2225,0,0,0,0,0,0,0,-1,1098,1660,3.79025,-18.2226
-119,-636,1.8667,13.8916,0,0,0,0,0,0,0,-1,1105,1660,1.86668,-13.8916
-112,-636,-1.24963,9.7998,0,0,0,0,0,0,0,-1,1112,1660,-1.24968,-9.79978
-105,-636,3.51624,4.72791,0,0,0,0,0,0,0,-1,1119,1660,3.51618,-4.7279
-98,-636,1.54504,5.11914,0,0,0,0,0,0,0,-1,1126,1660,1.54503,-5.11912
-91,-636,-1.87964,-2.25012,0,0,0,0,0,0,0,-1,1133,1660,-1.87966,2.25016
-84,-636,-2.84143,0.133667,0,0,0,0,0,0,0,-1,1140,1660,-2.84144,-0.133701
-77,-636,-3.57349,2.45935,0,0,0,0,0,0,0,-1,1147,1660,-3.57345,-2.45939
-70,-636,-4.23682,4.82312,0,0,0,0,0,0,0,-1,1154,1660,-4.23681,-4.82307
-63,-636,-2.21033,6.97168,0,0,0,0,0,0,0,-1,1161,1660,-2.21034,-6.97165
-56,-636,-2.51917,8.80359,0,0,0,0,0,0,0,-1,1168,1660,-2.51916,-8.80361
-49,-636,-3.13,10.4113,0,0,0,0,0,0,0,-1,1175,1660,-3.12996,-10.4112
-42,-636,-2.27771,4.90173,0,0,0,0,0,0,0,-1,1182,1660,-2.27775,-4.90173
-35,-636,-2.27698,5.89685,0,0,0,0,0,0,0,-1,1189,1660,-2.27695,-5.89686
-28,-636,-1.70654,4.83936,0,0,0,0,0,0,0,-1,1196,1660,-1.70656,-4.8393
-21,-636,4.24683,27.7834,0,0,0,0,0,0,0,-1,1203,1660,4.24687,-27.7835
-14,-636,2.75708,29.0751,0,0,0,0,0,0,0,-1,1210,1660,2.75705,-29.0751
-7,-636,4.10645,28.9573,0.0909938,0.0153304,0.053457,0.118652,-0.0123275,0.477459,0.0835141,0.0482799,1217,1660,4.10641,-28.9572
0,-636,5.23108,29.095,0.0720442,0.0218216,0.0314666,0.0871911,0.00667462,0.448629,0.0560352,0.0440436,1224,1660,5.23102,-29.095
7,-636,6.15222,28.7333,0.0637012,0.042135,0.0213386,0.0768265,0.0290097,0.551446,0.0447966,0.042869,1231,1660,6.15224,-28.7333
14,-636,6.52612,28.2954,0.0618923,0.0646991,0.0128976,0.0762694,0.050322,0.839591,0.0447775,0.0400576,1238,1660,6.52609,-28.2954
21,-636,6.51379,27.6218,0.0580386,0.0895935,0.00488676,0.090333,0.0572991,1.42062,0.0527772,0.0446497,1245,1660,6.51373,-27.6219
28,-636,6.51733,26.976,0,0,0,0,0,0,0,-1,1252,1660,6.51732,-26.976
35,-636,6.07764,25.1835,0.0562747,0.14028,-0.00696869,0.140855,0.0557006,-1.48859,0.0819129,0.0456516,1259,1660,6.07766,-25.1835
42,-636,6.45117,24.9091,0.0571242,0.155925,-0.0165894,0.158636,0.0544131,-1.4088,0.0930814,0.0471231,1266,1660,6.45112,-24.909
49,-636,6.91809,24.2488,0.0568484,0.165202,-0.0320311,0.173962,0.0480878,-1.30382,0.10373,0.0487539,1273,1660,6.9181,-24.2487
56,-636,7.29065,23.5957,0,0,0,0,0,0,0,-1,1280,1660,7.2907,-23.5957
63,-636,6.23572,22.751,0.0650957,0.159721,-0.0675392,0.194871,0.0299461,-1.09094,0.121172,0.0445242,1287,1660,6.23575,-22.751
70,-636,6.13464,21.9928,0.0726074,0.150037,-0.0852043,0.20491,0.0177348,-0.998642,0.131095,0.0451799,1294,1660,6.13463,-21.9929
77,-636,6.07898,21.2137,0,0,0,0,0,0,0,-1,1301,1660,6.07904,-21.2138
84,-636,6.00513,20.4138,0,0,0,0,0,0,0,-1,1308,1660,6.00515,-20.4138
91,-636,3.24207,14.9915,0.108603,0.0999896,-0.138063,0.242426,-0.0338333,-0.769806,0.173995,0.0418569,1315,1660,3.24205,-14.9914
98,-636,3.33594,12.213,0.118324,0.0797144,-0.157585,0.257782,-0.0597443,-0.72445,0.194847,0.0451215,1322,1660,3.33592,-12.213
105,-636,3.68823,9.51233,0.123924,0.0612306,-0.175551,0.270906,-0.0857507,-0.697048,0.214966,0.0484616,1329,1660,3.68823,-9.51229
112,-636,4.08386,6.73047,0.125804,0.0490259,-0.192533,0.283738,-0.108908,-0.686994,0.234065,0.0479622,1336,1660,4.08382,-6.73043
119,-636,4.43738,3.58582,0.119937,0.0450498,-0.208497,0.294326,-0.129339,-0.696551,0.250709,0.0461819,1343,1660,4.43739,-3.58584
126,-636,5.05908,0.651611,0.10251,0.0567836,-0.219686,0.30052,-0.141226,-0.733548,0.260511,0.0445288,1350,1660,5.05912,-0.651612
133,-636,5.62439,-2.23376,0,0,0,0,0,0,0,-1,1357,1660,5.62437,2.23373
140,-636,5.82446,-5.1853,0.156494,0.0990315,-0.222008,0.351622,-0.0960965,-0.721048,0.272162,0.0432689,1364,1660,5.82443,5.18531
147,-636,6.48218,-8.49463,0,0,0,0,0,0,0,-1,1371,1660,6.48218,8.49459
154,-636,7.16003,-11.835,0,0,0,0,0,0,0,-1,1378,1660,7.15999,11.835
161,-636,10.2961,7.13025,0,0,0,0,0,0,0,-1,1385,1660,10.2961,-7.13021
168,-636,11.7659,5.83899,0,0,0,0,0,0,0,-1,1392,1660,11.7658,-5.83899
175,-636,5.94592,-1.72888,0,0,0,0,0,0,0,-1,1399,1660,5.94598,1.72886
182,-636,5.93994,-1.11938,0,0,0,0,0,0,0,-1,1406,1660,5.93998,1.11936
189,-636,5.32544,11.9595,0,0,0,0,0,0,0,-1,1413,1660,5.32542,-11.9595
196,-636,5.3623,9.38025,0,0,0,0,0,0,0,-1,1420,1660,5.36225,-9.38027
203,-636,5.18542,9.02429,0,0,0,0,0,0,0,-1,1427,1660,5.18547,-9.0243
210,-636,4.09167,7.17041,0,0,0,0,0,0,0,-1,1434,1660,4.09173,-7.17041
217,-636,2.94897,5.28992,0,0,0,0,0,0,0,-1,1441,1660,2.94899,-5.28991
224,-636,1.49194,3.63916,0,0,0,0,0,0,0,-1,1448,1660,1.49197,-3.63918
231,-636,0.17749,2.24854,0,0,0,0,0,0,0,-1,1455,1660,0.177501,-2.24855
238,-636,-0.764648,1.00598,0,0,0,0,0,0,0,-1,1462,1660,-0.764704,-1.00595
245,-636,6.21204,1.18005,0,0,0,0,0,0,0,-1,1469,1660,6.21206,-1.18001
252,-636,7.70251,0.865723,0,0,0,0,0,0,0,-1,1476,1660,7.7025,-0.865692
259,-636,9.03601,0.787231,0,0,0,0,0,0,0,-1,1483,1660,9.03598,-0.787243
266,-636,10.1071,3.24109,0,0,0,0,0,0,0,-1,1490,1660,10.1071,-3.24103
273,-636,8.48535,5.02466,0,0,0,0,0,0,0,-1,1497,1660,8.48533,-5.02472
280,-636,8.81384,5.66992,0,0,0,0,0,0,0,-1,1504,1660,8.81381,-5.66998
287,-636,6.08606,11.49,0,0,0,0,0,0,0,-1,1511,1660,6.08606,-11.49
294,-636,6.69592,15.9669,0,0,0,0,0,0,0,-1,1518,1660,6.69595,-15.9669
301,-636,8.25903,23.0582,0,0,0,0,0,0,0,-1,1525,1660,8.25903,-23.0583
308,-636,8.39233,26.0168,0,0,0,0,0,0,0,-1,1532,1660,8.39228,-26.0169
315,-636,8.70801,25.4534,0,0,0,0,0,0,0,-1,1539,1660,8.70803,-25.4533
322,-636,8.86523,24.9292,0,0,0,0,0,0,0,-1,1546,1660,8.86525,-24.9292
329,-636,8.89783,24.7377,0.0029723,0.00812485,-0.00108626,0.00834449,0.00275266,-1.37129,0.00490977,0.0291129,1553,1660,8.89787,-24.7376
336,-636,8.91418,24.6005,0.00263106,0.00842235,-0.00141209,0.00874832,0.00230509,-1.34393,0.00523581,0.0229767,1560,1660,8.91424,-24.6005
343,-636,8.85315,24.4424,0.00249681,0.00863765,-0.00191562,0.00918622,0.00194824,-1.29189,0.00558909,0.0219583,1567,1660,8.85321,-24.4424
350,-636,8.84131,24.168,0.00247351,0.00851308,-0.00225629,0.00926291,0.00172369,-1.24995,0.00568844,0.0118851,1574,1660,8.8413,-24.1679
357,-636,8.88843,23.8977,0.00240929,0.00818507,-0.00236084,0.00902725,0.0015671,-1.22814,0.00556978,0.00977566,1581,1660,8.88843,-23.8977
364,-636,8.89075,23.6591,0.00216173,0.00740777,-0.00216656,0.00818684,0.00138266,-1.22561,0.00506037,0.010345,1588,1660,8.89079,-23.6591
371,-636,8.88403,23.4137,0.00190058,0.00646477,-0.0019156,0.00716218,0.00120317,-1.22164,0.00442855,0.00973991,1595,1660,8.88402,-23.4137
378,-636,8.89429,23.1456,0.00166799,0.0053626,-0.00159245,0.00595424,0.00107635,-1.21508,0.0036638,0.0093183,1602,1660,8.89427,-23.1457
385,-636,8.9021,22.8892,0.00156608,0.00411189,-0.00135587,0.00469874,0.000979229,-1.16232,0.00286247,0.0135594,1609,1660,8.9021,-22.8892
392,-636,8.89966,22.6471,0.0013354,0.0025761,-0.000867723,0.00302241,0.000889081,-1.09573,0.0017936,0.0149545,1616,1660,8.89969,-22.6471
399,-636,8.89722,22.3927,0.000980108,0.00127505,-0.000353175,0.0015103,0.00074485,-0.98317,0.000872001,0.011349,1623,1660,8.89722,-22.3927
406,-636,8.8949,22.1398,0.000698209,0.000251516,4.0546e-05,0.000701859,0.000247866,0.0897915,0.000411003,0.0136675,1630,1660,8.89488,-22.1398
413,-636,8.90869,21.8519,0.000496828,-0.000540827,0.000259956,0.000558309,-0.000602309,0.232242,0.000670244,0.0214889,1637,1660,8.90866,-21.8519
420,-636,8.88623,21.566,0.000605606,-0.00123652,0.000487147,0.000726497,-0.00135741,0.243248,0.00122139,0.0215403,1644,1660,8.88623,-21.566
427,-636,8.88086,21.3157,0.00130862,-0.00215373,0.000634685,0.0014213,-0.0022664,0.175702,0.00214765,0.0132024,1651,1660,8.88081,-21.3156
434,-636,8.86108,21.0199,0.00203207,-0.00280256,0.000500564,0.00208335,-0.00285384,0.102094,0.00286204,0.0111349,1658,1660,8.86106,-21.0199
441,-636,8.86572,20.7102,0.00328162,-0.00309759,-0.000120469,0.0032839,-0.00309986,-0.0188757,0.00368617,0.0116903,1665,1660,8.8657,-20.7102
448,-636,8.86475,20.4303,0.00486527,-0.00318752,-0.000777597,0.00493967,-0.00326191,-0.0953882,0.0047681,0.0140558,1672,1660,8.86471,-20.4303
455,-636,8.85938,20.1423,0.00681275,-0.00362773,-0.00142419,0.00700354,-0.00381851,-0.133169,0.00633767,0.0150399,1679,1660,8.85938,-20.1424
462,-636,8.88586,19.8265,0.00922252,-0.00414683,-0.00220736,0.00957754,-0.00450185,-0.15947,0.00830295,0.0189176,1686,1660,8.88591,-19.8265
469,-636,8.88525,19.5176,0.0123384,-0.00476982,-0.00337898,0.0129816,-0.005413,-0.1881,0.0109156,0.0286874,1693,1660,8.88526,-19.5176
476,-636,9.15625,19.6172,0.0160132,-0.00494113,-0.00513687,0.0172047,-0.00613266,-0.227926,0.0139702,0.0418648,1700,1660,9.15631,-19.6172
483,-636,9.12573,19.2744,0,0,0,0,0,0,0,-1,1707,1660,9.12569,-19.2744
490,-636,9.55566,18.2371,0,0,0,0,0,0,0,-1,1714,1660,9.55567,-18.2371
497,-636,12.0768,16.6431,0,0,0,0,0,0,0,-1,1721,1660,12.0768,-16.6431
504,-636,9.27905,15.3159,0,0,0,0,0,0,0,-1,1728,1660,9.279,-15.3159
511,-636,5.65466,9.23218,0,0,0,0,0,0,0,-1,1735,1660,5.65461,-9.23216
518,-636,6.72791,1.07605,0,0,0,0,0,0,0,-1,1742,1660,6.7279,-1.0761
525,-636,7.04309,0.93335,0,0,0,0,0,0,0,-1,1749,1660,7.04308,-0.933298
532,-636,0,0,0,0,0,0,0,0,0,-1,1756,1660,0,0
539,-636,0,0,0,0,0,0,0,0,0,-1,1763,1660,0,0
546,-636,0,0,0,0,0,0,0,0,0,-1,1770,1660,0,0
553,-636,0,0,0,0,0,0,0,0,0,-1,1777,1660,0,0
560,-636,0,0,0,0,0,0,0,0,0,-1,1784,1660,0,0
567,-636,0,0,0,0,0,0,0,0,0,-1,1791,1660,0,0
574,-636,0,0,0,0,0,0,0,0,0,-1,1798,1660,0,0
581,-636,0,0,0,0,0,0,0,0,0,-1,1805,1660,0,0
588,-636,0,0,0,0,0,0,0,0,0,-1,1812,1660,0,0
595,-636,0,0,0,0,0,0,0,0,0,-1,1819,1660,0,0
602,-636,0,0,0,0,0,0,0,0,0,-1,1826,1660,0,0
609,-636,0,0,0,0,0,0,0,0,0,-1,1833,1660,0,0
616,-636,0,0,0,0,0,0,0,0,0,-1,1840,1660,0,0
623,-636,0,0,0,0,0,0,0,0,0,-1,1847,1660,0,0
630,-636,0,0,0,0,0,0,0,0,0,-1,1854,1660,0,0
637,-636,0,0,0,0,0,0,0,0,0,-1,1861,1660,0,0
644,-636,0,0,0,0,0,0,0,0,0,-1,1868,1660,0,0
651,-636,0,0,0,0,0,0,0,0,0,-1,1875,1660,0,0
658,-636,0,0,0,0,0,0,0,0,0,-1,1882,1660,0,0
665,-636,0,0,0,0,0,0,0,0,0,-1,1889,1660,0,0
672,-636,0,0,0,0,0,0,0,0,0,-1,1896,1660,0,0
679,-636,0,0,0,0,0,0,0,0,0,-1,1903,1660,0,0
686,-636,0,0,0,0,0,0,0,0,0,-1,1910,1660,0,0
693,-636,0,0,0,0,0,0,0,0,0,-1,1917,1660,0,0
700,-636,0,0,0,0,0,0,0,0,0,-1,1924,1660,0,0
707,-636,0,0,0,0,0,0,0,0,0,-1,1931,1660,0,0
714,-636,0,0,0,0,0,0,0,0,0,-1,1938,1660,0,0
721,-636,0,0,0,0,0,0,0,0,0,-1,1945,1660,0,0
728,-636,0,0,0,0,0,0,0,0,0,-1,1952,1660,0,0
735,-636,0,0,0,0,0,0,0,0,0,-1,1959,1660,0,0
742,-636,0,0,0,0,0,0,0,0,0,-1,1966,1660,0,0
749,-636,0,0,0,0,0,0,0,0,0,-1,1973,1660,0,0
756,-636,0,0,0,0,0,0,0,0,0,-1,1980,1660,0,0
763,-636,0,0,0,0,0,0,0,0,0,-1,1987,1660,0,0
770,-636,0,0,0,0,0,0,0,0,0,-1,1994,1660,0,0
777,-636,0,0,0,0,0,0,0,0,0,-1,2001,1660,0,0
784,-636,0,0,0,0,0,0,0,0,0,-1,2008,1660,0,0
791,-636,0,0,0,0,0,0,0,0,0,-1,2015,1660,0,0
798,-636,0,0,0,0,0,0,0,0,0,-1,2022,1660,0,0
805,-636,0,0,0,0,0,0,0,0,0,-1,2029,1660,0,0
812,-636,0,0,0,0,0,0,0,0,0,-1,2036,1660,0,0
-700,-643,0,0,0,0,0,0,0,0,0,-1,524,1667,0,0
-693,-643,0,0,0,0,0,0,0,0,0,-1,531,1667,0,0
-686,-643,0,0,0,0,0,0,0,0,0,-1,538,1667,0,0
-679,-643,0,0,0,0,0,0,0,0,0,-1,545,1667,0,0
-672,-643,0,0,0,0,0,0,0,0,0,-1,552,1667,0,0
-665,-643,0,0,0,0,0,0,0,0,0,-1,559,1667,0,0
-658,-643,0,0,0,0,0,0,0,0,0,-1,566,1667,0,0
-651,-643,0,0,0,0,0,0,0,0,0,-1,573,1667,0,0
-644,-643,0,0,0,0,0,0,0,0,0,-1,580,1667,0,0
-637,-643,0,0,0,0,0,0,0,0,0,-1,587,1667,0,0
-630,-643,0,0,0,0,0,0,0,0,0,-1,594,1667,0,0
-623,-643,0,0,0,0,0,0,0,0,0,-1,601,1667,0,0
-616,-643,0,0,0,0,0,0,0,0,0,-1,608,1667,0,0
-609,-643,0,0,0,0,0,0,0,0,0,-1,615,1667,0,0
-602,-643,0,0,0,0,0,0,0,0,0,-1,622,1667,0,0
-595,-643,0,0,0,0,0,0,0,0,0,-1,629,1667,0,0
-588,-643,0,0,0,0,0,0,0,0,0,-1,636,1667,0,0
-581,-643,0,0,0,0,0,0,0,0,0,-1,643,1667,0,0
-574,-643,0,0,0,0,0,0,0,0,0,-1,650,1667,0,0
-567,-643,0,0,0,0,0,0,0,0,0,-1,657,1667,0,0
-560,-643,0,0,0,0,0,0,0,0,0,-1,664,1667,0,0
-553,-643,0,0,0,0,0,0,0,0,0,-1,671,1667,0,0
-546,-643,0,0,0,0,0,0,0,0,0,-1,678,1667,0,0
-539,-643,0,0,0,0,0,0,0,0,0,-1,685,1667,0,0
-532,-643,0,0,0,0,0,0,0,0,0,-1,692,1667,0,0
-525,-643,0,0,0,0,0,0,0,0,0,-1,699,1667,0,0
-518,-643,0,0,0,0,0,0,0,0,0,-1,706,1667,0,0
-511,-643,0,0,0,0,0,0,0,0,0,-1,713,1667,0,0
-504,-643,0,0,0,0,0,0,0,0,0,-1,720,1667,0,0
-497,-643,0,0,0,0,0,0,0,0,0,-1,727,1667,0,0
-490,-643,0,0,0,0,0,0,0,0,0,-1,734,1667,0,0
-483,-643,0,0,0,0,0,0,0,0,0,-1,741,1667,0,0
-476,-643,0,0,0,0,0,0,0,0,0,-1,748,1667,0,0
-469,-643,0,0,0,0,0,0,0,0,0,-1,755,1667,0,0
-462,-643,0,0,0,0,0,0,0,0,0,-1,762,1667,0,0
-455,-643,0,0,0,0,0,0,0,0,0,-1,769,1667,0,0
-448,-643,0,0,0,0,0,0,0,0,0,-1,776,1667,0,0
-441,-643,0,0,0,0,0,0,0,0,0,-1,783,1667,0,0
-434,-643,0,0,0,0,0,0,0,0,0,-1,790,1667,0,0
-427,-643,0,0,0,0,0,0,0,0,0,-1,797,1667,0,0
-420,-643,0,0,0,0,0,0,0,0,0,-1,804,1667,0,0
-413,-643,0,0,0,0,0,0,0,0,0,-1,811,1667,0,0
-406,-643,0,0,0,0,0,0,0,0,0,-1,818,1667,0,0
-399,-643,0.589417,11.6465,0,0,0,0,0,0,0,-1,825,1667,0.58939,-11.6465
-392,-643,0.865295,12.6523,0,0,0,0,0,0,0,-1,832,1667,0.865315,-12.6523
-385,-643,1.72968,13.2692,0,0,0,0,0,0,0,-1,839,1667,1.72967,-13.2692
-378,-643,2.66522,13.8193,0,0,0,0,0,0,0,-1,846,1667,2.66524,-13.8193
-371,-643,0.466125,3.35095,0,0,0,0,0,0,0,-1,853,1667,0.466148,-3.351
-364,-643,1.69513,9.922,0,0,0,0,0,0,0,-1,860,1667,1.69511,-9.92205
-357,-643,1.14227,10.8429,0,0,0,0,0,0,0,-1,867,1667,1.14228,-10.8429
-350,-643,2.50061,9.96948,0,0,0,0,0,0,0,-1,874,1667,2.50059,-9.96954
-343,-643,2.61505,6.17407,0,0,0,0,0,0,0,-1,881,1667,2.61504,-6.17412
-336,-643,4.33698,18.5583,0,0,0,0,0,0,0,-1,888,1667,4.337,-18.5584
-329,-643,4.27942,18.855,0.000565294,-0.0012207,0.00130858,0.00125655,-0.00191195,0.485986,0.00184233,0.0403258,895,1667,4.27944,-18.8549
-322,-643,4.20001,19.1887,0.000395868,-0.0015052,0.00110785,0.000905075,-0.00201441,0.430838,0.00172565,0.0250605,902,1667,4.2,-19.1887
-315,-643,4.11389,19.5292,0.000155084,-0.00171612,0.00080206,0.000451818,-0.00201286,0.354348,0.00151514,0.0166234,909,1667,4.11392,-19.5291
-308,-643,4.0899,19.8379,-5.54469e-05,-0.00209526,0.000398655,1.96967e-05,-0.0021704,0.186307,0.00145355,0.0122322,916,1667,4.08992,-19.8379
-301,-643,4.09814,20.1614,-0.000197615,-0.00201268,8.75516e-05,-0.000193401,-0.0020169,0.0480871,0.00128499,0.0127594,923,1667,4.09815,-20.1614
-294,-643,4.078,20.4564,-0.000256541,-0.00180982,-0.000122377,-0.000246959,-0.0018194,-0.0781435,0.00113957,0.0116235,930,1667,4.07798,-20.4564
-287,-643,4.07019,20.7533,-0.000308789,-0.00150186,-0.000232242,-0.000265175,-0.00154548,-0.185632,0.000954286,0.00979735,937,1667,4.07019,-20.7533
-280,-643,4.05933,21.0627,-0.000253128,-0.00122584,-0.000258952,-0.000188486,-0.00129048,-0.244627,0.000804885,0.0132052,944,1667,4.05934,-21.0627
-273,-643,4.04663,21.3458,-3.38898e-05,-0.000887286,-0.000192761,7.62998e-06,-0.000928806,-0.212154,0.000621763,0.011614,951,1667,4.04663,-21.3458
-266,-643,4.02875,21.6488,0.000197785,-0.000514046,-0.000178625,0.000240094,-0.000556355,-0.232574,0.00047176,0.0125364,958,1667,4.02877,-21.6488
-259,-643,4.03186,21.9465,0.000465429,2.35687e-05,-5.13081e-05,0.000471309,1.76891e-05,-0.114096,0.000308479,0.0123789,965,1667,4.03186,-21.9465
-252,-643,4.03955,22.2347,0.000826645,0.000495584,0.000122639,0.000867126,0.000455103,0.31882,0.000500841,0.0126959,972,1667,4.03957,-22.2347
-245,-643,4.04596,22.5316,0.00122242,0.000940749,0.000311,0.00142299,0.000740182,0.572787,0.000821786,0.0113971,979,1667,4.04597,-22.5316
-238,-643,4.08392,22.7941,0.00163091,0.00120538,0.000436039,0.00190332,0.000932967,0.558419,0.00109896,0.0157744,986,1667,4.08393,-22.7941
-231,-643,4.04608,23.0575,0.00208692,0.00114406,0.000509696,0.00230978,0.0009212,0.412189,0.00134262,0.0120702,993,1667,4.04609,-23.0575
-224,-643,4.03271,23.3083,0.00260381,0.00110978,0.000499647,0.0027555,0.000958082,0.294758,0.00161531,0.00960422,1000,1667,4.0327,-23.3083
-217,-643,4.03589,23.5394,0.00302938,0.000291213,0.000713266,0.00320403,0.000116555,0.240146,0.00209825,0.00852674,1007,1667,4.0359,-23.5394
-210,-643,4.04218,23.8105,0.00213615,-0.00130781,0.00183058,0.00292738,-0.00209905,0.407979,0.00291511,0.0111581,1014,1667,4.04218,-23.8106
-203,-643,4.05371,24.1176,0.00033914,-0.00233864,0.00307231,0.00235163,-0.00435113,0.57991,0.00392681,0.0144471,1021,1667,4.05367,-24.1176
-196,-643,4.07056,24.3673,-0.000920714,-0.00424323,0.00416868,0.00190553,-0.00706947,0.595788,0.00546014,0.0142662,1028,1667,4.07055,-24.3673
-189,-643,4.14648,24.5817,-0.00286103,-0.0060676,0.00566484,0.00142304,-0.0103517,0.647493,0.00742108,0.0147788,1035,1667,4.1465,-24.5816
-182,-643,4.19702,24.8099,-0.00545533,-0.00815539,0.00754416,0.000858649,-0.0144694,0.69686,0.00994482,0.0222609,1042,1667,4.19705,-24.81
-175,-643,4.2627,25.0626,-0.00849313,-0.00996546,0.00975883,0.000557256,-0.0190158,0.747752,0.012867,0.035141,1049,1667,4.26268,-25.0627
-168,-643,4.57605,24.9602,-0.0116,-0.011454,0.0120695,0.000542705,-0.0235967,0.788422,0.0159151,0.0383483,1056,1667,4.57606,-24.9602
-161,-643,4.29163,25.3193,-0.0146136,-0.0124643,0.0142514,0.00075289,-0.0278308,0.82303,0.0188098,0.0435142,1063,1667,4.29166,-25.3193
-154,-643,4.34326,25.4354,-0.0175781,-0.0127428,0.0162788,0.00129691,-0.0316178,0.859117,0.0215239,0.0453103,1070,1667,4.3433,-25.4354
-147,-643,4.58362,25.0688,0,0,0,0,0,0,0,-1,1077,1667,4.58364,-25.0689
-140,-643,4.30322,22.9166,0,0,0,0,0,0,0,-1,1084,1667,4.30327,-22.9167
-133,-643,3.66748,21.6034,0,0,0,0,0,0,0,-1,1091,1667,3.66743,-21.6034
-126,-643,3.13904,17.689,0,0,0,0,0,0,0,-1,1098,1667,3.13909,-17.689
-119,-643,3.76282,14.1458,0,0,0,0,0,0,0,-1,1105,1667,3.76283,-14.1458
-112,-643,3.81458,16.2069,0,0,0,0,0,0,0,-1,1112,1667,3.81463,-16.2069
-105,-643,-2.23413,10.0996,0,0,0,0,0,0,0,-1,1119,1667,-2.23415,-10.0996
-98,-643,3.11035,4.68066,0,0,0,0,0,0,0,-1,1126,1667,3.11041,-4.68071
-91,-643,-1.74146,-2.5885,0,0,0,0,0,0,0,-1,1133,1667,-1.74146,2.58856
-84,-643,-3.07446,-0.199341,0,0,0,0,0,0,0,-1,1140,1667,-3.07449,0.199383
-77,-643,-3.63794,2.81165,0,0,0,0,0,0,0,-1,1147,1667,-3.63791,-2.8117
-70,-643,-3.36938,4.45203,0,0,0,0,0,0,0,-1,1154,1667,-3.36941,-4.452
-63,-643,-3.67822,6.26855,0,0,0,0,0,0,0,-1,1161,1667,-3.67823,-6.26856
-56,-643,-3.95142,8.1073,0,0,0,0,0,0,0,-1,1168,1667,-3.95139,-8.10732
-49,-643,-4.23535,9.90552,0,0,0,0,0,0,0,-1,1175,1667,-4.23537,-9.90557
-42,-643,-4.25195,10.7059,0,0,0,0,0,0,0,-1,1182,1667,-4.25192,-10.706
-35,-643,-4.10986,11.6588,0,0,0,0,0,0,0,-1,1189,1667,-4.10982,-11.6589
-28,-643,-1.38513,5.604,0,0,0,0,0,0,0,-1,1196,1667,-1.3851,-5.60403
-21,-643,1.61011,23.1276,0,0,0,0,0,0,0,-1,1203,1667,1.61011,-23.1275
-14,-643,7.57239,25.1812,0,0,0,0,0,0,0,-1,1210,1667,7.57233,-25.1812
-7,-643,3.43457,29.3243,0,0,0,0,0,0,0,-1,1217,1667,3.43458,-29.3243
0,-643,4.17859,28.8243,0,0,0,0,0,0,0,-1,1224,1667,4.17857,-28.8244
7,-643,5.39246,28.5868,0.0626695,0.0389327,0.00587042,0.064042,0.0375602,0.22967,0.0371586,0.0393392,1231,1667,5.39251,-28.5868
14,-643,5.6991,28.0999,0.064227,0.0570383,0.00189849,0.0646975,0.0565677,0.242971,0.0406934,0.0418441,1238,1667,5.69914,-28.0999
21,-643,5.71082,26.9604,0.064166,0.0773377,-0.00188485,0.0776021,0.0639016,-1.43142,0.0478265,0.0424738,1245,1667,5.7108,-26.9604
28,-643,5.95837,25.5724,0.0682787,0.0982002,-0.00310954,0.09852,0.067959,-1.46833,0.0582305,0.043522,1252,1667,5.95841,-25.5724
35,-643,6.07654,24.517,0.0762049,0.116549,-0.00460519,0.117068,0.0756859,-1.45857,0.0685496,0.0446458,1259,1667,6.07657,-24.517
42,-643,6.31152,23.3179,0.0827629,0.129168,-0.00879504,0.130779,0.0811519,-1.38963,0.0762328,0.0476772,1266,1667,6.31155,-23.3178
49,-643,6.30798,22.4246,0.0878286,0.137236,-0.0179518,0.14307,0.0819948,-1.25659,0.0828952,0.0465616,1273,1667,6.30804,-22.4245
56,-643,6.09814,21.8807,0.0945091,0.139069,-0.0305078,0.154566,0.0790117,-1.10079,0.0892464,0.044591,1280,1667,6.09814,-21.8807
63,-643,5.88721,21.1859,0.100839,0.13414,-0.0438624,0.164406,0.070573,-0.966802,0.0952359,0.0431836,1287,1667,5.88722,-21.1859
70,-643,5.91028,19.9434,0.106927,0.125424,-0.0585238,0.175426,0.0569253,-0.863768,0.103341,0.0454106,1294,1667,5.9103,-19.9434
77,-643,5.92163,18.9739,0,0,0,0,0,0,0,-1,1301,1667,5.92167,-18.9739
84,-643,-3.33069,29.4742,0,0,0,0,0,0,0,-1,1308,1667,-3.33067,-29.4742
91,-643,3.68359,13.4664,0,0,0,0,0,0,0,-1,1315,1667,3.68357,-13.4665
98,-643,3.04187,11.9602,0.130198,0.0636113,-0.12532,0.226572,-0.0327625,-0.655564,0.16307,0.0455819,1322,1667,3.04191,-11.9602
105,-643,3.42419,9.20483,0.12702,0.0479765,-0.143254,0.236105,-0.0611077,-0.650803,0.181239,0.04758,1329,1667,3.42419,-9.20483
112,-643,4.19153,6.34033,0.12189,0.0385131,-0.158237,0.243838,-0.0834348,-0.656597,0.196371,0.0492999,1336,1667,4.19148,-6.34035
119,-643,4.64514,3.2063,0.112284,0.0349241,-0.172213,0.250108,-0.102899,-0.674929,0.209633,0.047153,1343,1667,4.64511,-3.20628
126,-643,4.98096,0.15686,0,0,0,0,0,0,0,-1,1350,1667,4.98099,-0.156809
133,-643,5.56946,-2.79248,0,0,0,0,0,0,0,-1,1357,1667,5.56952,2.79254
140,-643,6.15649,-6.02161,0,0,0,0,0,0,0,-1,1364,1667,6.15644,6.02155
147,-643,6.74341,-9.25061,0,0,0,0,0,0,0,-1,1371,1667,6.74336,9.25056
154,-643,-4.57739,22.3903,0,0,0,0,0,0,0,-1,1378,1667,-4.57743,-22.3902
161,-643,5.57935,26.2754,0,0,0,0,0,0,0,-1,1385,1667,5.57931,-26.2754
168,-643,10.5563,10.9818,0,0,0,0,0,0,0,-1,1392,1667,10.5562,-10.9819
175,-643,5.88525,-1.1698,0,0,0,0,0,0,0,-1,1399,1667,5.88526,1.16977
182,-643,5.80945,-0.418701,0,0,0,0,0,0,0,-1,1406,1667,5.80949,0.418712
189,-643,5.42297,12.9208,0,0,0,0,0,0,0,-1,1413,1667,5.42298,-12.9208
196,-643,5.51953,11.2415,0,0,0,0,0,0,0,-1,1420,1667,5.51948,-11.2414
203,-643,5.60828,9.82153,0,0,0,0,0,0,0,-1,1427,1667,5.60833,-9.82148
210,-643,4.73218,7.58728,0,0,0,0,0,0,0,-1,1434,1667,4.73222,-7.58728
217,-643,3.8031,5.28955,0,0,0,0,0,0,0,-1,1441,1667,3.80305,-5.28955
224,-643,2.96436,2.97095,0,0,0,0,0,0,0,-1,1448,1667,2.96432,-2.97095
231,-643,2.13403,1.08472,0,0,0,0,0,0,0,-1,1455,1667,2.13403,-1.08467
238,-643,1.18152,-0.261963,0,0,0,0,0,0,0,-1,1462,1667,1.18152,0.26192
245,-643,-0.157471,-1.79016,0,0,0,0,0,0,0,-1,1469,1667,-0.157517,1.7901
252,-643,8.08789,0.0202637,0,0,0,0,0,0,0,-1,1476,1667,8.08791,-0.0203056
259,-643,9.02979,-0.46936,0,0,0,0,0,0,0,-1,1483,1667,9.02974,0.46933
266,-643,4.55066,5.17554,0,0,0,0,0,0,0,-1,1490,1667,4.55063,-5.17556
273,-643,4.34363,6.56836,0,0,0,0,0,0,0,-1,1497,1667,4.34363,-6.5684
280,-643,5.75854,14.5217,0,0,0,0,0,0,0,-1,1504,1667,5.75854,-14.5218
287,-643,6.81299,21.0212,0,0,0,0,0,0,0,-1,1511,1667,6.81297,-21.0212
294,-643,8.57678,26.1809,0,0,0,0,0,0,0,-1,1518,1667,8.57675,-26.1809
301,-643,8.48096,25.7123,0,0,0,0,0,0,0,-1,1525,1667,8.48093,-25.7123
308,-643,8.36902,25.5592,0.00459771,0.00462115,-0.000440766,0.00505035,0.0041685,-0.798691,0.00311484,0.0442375,1532,1667,8.36903,-25.5592
315,-643,8.50024,25.2491,0.00367031,0.00453881,-0.000180134,0.00457469,0.00363443,-1.37419,0.0027897,0.0424865,1539,1667,8.50029,-25.2491
322,-643,8.58618,24.9646,0.00309687,0.00502549,-0.000381118,0.00509807,0.00302429,-1.38261,0.00296038,0.0242985,1546,1667,8.58623,-24.9646
329,-643,8.62024,24.7955,0.00262086,0.0054873,-0.000596106,0.00560632,0.00250183,-1.37372,0.00324304,0.0136833,1553,1667,8.62025,-24.7955
336,-643,8.58765,24.6436,0.00219195,0.00568235,-0.000854294,0.00588023,0.00199407,-1.34319,0.00345304,0.0120037,1560,1667,8.58768,-24.6436
343,-643,8.60095,24.4275,0.00194298,0.00581304,-0.00119548,0.00615255,0.00160348,-1.29409,0.00368538,0.0140833,1567,1667,8.60101,-24.4274
350,-643,8.62024,24.1658,0.00184012,0.00565655,-0.00138816,0.00610806,0.00138862,-1.25633,0.00369714,0.01258,1574,1667,8.62019,-24.1658
357,-643,8.63501,23.9216,0.00176083,0.00539203,-0.00142473,0.0058843,0.00126855,-1.23812,0.00357582,0.0105689,1581,1667,8.63505,-23.9217
364,-643,8.64355,23.6724,0.00155635,0.004743,-0.00121344,0.00515245,0.0011469,-1.24536,0.00312366,0.00994077,1588,1667,8.64357,-23.6723
371,-643,8.64233,23.436,0.00135653,0.00395158,-0.000961386,0.00426894,0.00103917,-1.25196,0.00257056,0.00848312,1595,1667,8.64235,-23.4361
378,-643,8.63904,23.1917,0.00119386,0.00298178,-0.000625771,0.00317904,0.000996603,-1.26543,0.0018775,0.00990887,1602,1667,8.63901,-23.1916
385,-643,8.63416,22.9224,0.00114135,0.00186167,-0.000348495,0.00200267,0.00100035,-1.18633,0.00115624,0.0156585,1609,1667,8.63414,-22.9224
392,-643,8.64148,22.6592,0.000962866,0.000482494,0.00011227,0.00098781,0.00045755,0.218627,0.000570827,0.016249,1616,1667,8.6415,-22.6592
399,-643,8.6427,22.4093,0.000662806,-0.000720171,0.00056825,0.000866339,-0.000923705,0.34394,0.00103366,0.013415,1623,1667,8.64275,-22.4093
406,-643,8.63623,22.1251,0.000456305,-0.0016447,0.000906155,0.000793129,-0.00198152,0.35588,0.0016502,0.0123029,1630,1667,8.63628,-22.1251
413,-643,8.64612,21.8494,0.000310892,-0.00234797,0.00107138,0.000688868,-0.00272595,0.339162,0.0020852,0.0178238,1637,1667,8.64606,-21.8494
420,-643,8.62061,21.6088,0.000518432,-0.00293358,0.00126211,0.000930657,-0.0033458,0.315691,0.00259695,0.0176387,1644,1667,8.62056,-21.6087
427,-643,8.61646,21.3384,0.00146126,-0.00379841,0.00136163,0.00179285,-0.00413,0.238878,0.00350718,0.0144807,1651,1667,8.61642,-21.3383
434,-643,8.60632,21.0344,0.00239169,-0.00438783,0.00119567,0.00259639,-0.00459252,0.169552,0.00420351,0.0140473,1658,1667,8.60629,-21.0344
441,-643,8.62134,20.7231,0.00396807,-0.00463031,0.000383962,0.00398518,-0.00464742,0.044537,0.00498892,0.0154067,1665,1667,8.62134,-20.7231
448,-643,8.54541,20.4154,0.00603994,-0.00464401,-0.00041443,0.00605599,-0.00466006,-0.0387124,0.00620439,0.0226147,1672,1667,8.54542,-20.4154
455,-643,8.521,20.0587,0.00864947,-0.00517191,-0.00104954,0.00872872,-0.00525115,-0.0753604,0.0081541,0.0313312,1679,1667,8.521,-20.0587
462,-643,8.63086,19.8239,0.0119105,-0.00575624,-0.00181685,0.0120954,-0.00594115,-0.101425,0.0106136,0.0445085,1686,1667,8.63087,-19.8238
469,-643,8.66248,19.6555,0.0162534,-0.00665641,-0.00306736,0.016657,-0.00705998,-0.130819,0.0140617,0.0478237,1693,1667,8.66243,-19.6555
476,-643,9.19092,19.8854,0.0213765,-0.00740382,-0.00494626,0.0222029,-0.00823017,-0.165537,0.0181774,0.0461394,1700,1667,9.19092,-19.8854
483,-643,9.61035,19.709,0,0,0,0,0,0,0,-1,1707,1667,9.61038,-19.709
490,-643,9.64624,17.491,0,0,0,0,0,0,0,-1,1714,1667,9.64625,-17.4909
497,-643,10.8936,16.9469,0,0,0,0,0,0,0,-1,1721,1667,10.8936,-16.9469
504,-643,11.1781,16.2119,0,0,0,0,0,0,0,-1,1728,1667,11.1781,-16.2119
511,-643,7.15686,15.3853,0,0,0,0,0,0,0,-1,1735,1667,7.15681,-15.3853
518,-643,7.40564,0.922607,0,0,0,0,0,0,0,-1,1742,1667,7.4057,-0.922598
525,-643,0,0,0,0,0,0,0,0,0,-1,1749,1667,0,0
532,-643,0,0,0,0,0,0,0,0,0,-1,1756,1667,0,0
539,-643,0,0,0,0,0,0,0,0,0,-1,1763,1667,0,0
546,-643,0,0,0,0,0,0,0,0,0,-1,1770,1667,0,0
553,-643,0,0,0,0,0,0,0,0,0,-1,1777,1667,0,0
560,-643,0,0,0,0,0,0,0,0,0,-1,1784,1667,0,0
567,-643,0,0,0,0,0,0,0,0,0,-1,1791,1667,0,0
574,-643,0,0,0,0,0,0,0,0,0,-1,1798,1667,0,0
581,-643,0,0,0,0,0,0,0,0,0,-1,1805,1667,0,0
588,-643,0,0,0,0,0,0,0,0,0,-1,1812,1667,0,0
595,-643,0,0,0,0,0,0,0,0,0,-1,1819,1667,0,0
602,-643,0,0,0,0,0,0,0,0,0,-1,1826,1667,0,0
609,-643,0,0,0,0,0,0,0,0,0,-1,1833,1667,0,0
616,-643,0,0,0,0,0,0,0,0,0,-1,1840,1667,0,0
623,-643,0,0,0,0,0,0,0,0,0,-1,1847,1667,0,0
630,-643,0,0,0,0,0,0,0,0,0,-1,1854,1667,0,0
637,-643,0,0,0,0,0,0,0,0,0,-1,1861,1667,0,0
644,-643,0,0,0,0,0,0,0,0,0,-1,1868,1667,0,0
651,-643,0,0,0,0,0,0,0,0,0,-1,1875,1667,0,0
658,-643,0,0,0,0,0,0,0,0,0,-1,1882,1667,0,0
665,-643,0,0,0,0,0,0,0,0,0,-1,1889,1667,0,0
672,-643,0,0,0,0,0,0,0,0,0,-1,1896,1667,0,0
679,-643,0,0,0,0,0,0,0,0,0,-1,1903,1667,0,0
686,-643,0,0,0,0,0,0,0,0,0,-1,1910,1667,0,0
693,-643,0,0,0,0,0,0,0,0,0,-1,1917,1667,0,0
700,-643,0,0,0,0,0,0,0,0,0,-1,1924,1667,0,0
707,-643,0,0,0,0,0,0,0,0,0,-1,1931,1667,0,0
714,-643,0,0,0,0,0,0,0,0,0,-1,1938,1667,0,0
721,-643,0,0,0,0,0,0,0,0,0,-1,1945,1667,0,0
728,-643,0,0,0,0,0,0,0,0,0,-1,1952,1667,0,0
735,-643,0,0,0,0,0,0,0,0,0,-1,1959,1667,0,0
742,-643,0,0,0,0,0,0,0,0,0,-1,1966,1667,0,0
749,-643,0,0,0,0,0,0,0,0,0,-1,1973,1667,0,0
756,-643,0,0,0,0,0,0,0,0,0,-1,1980,1667,0,0
763,-643,0,0,0,0,0,0,0,0,0,-1,1987,1667,0,0
770,-643,0,0,0,0,0,0,0,0,0,-1,1994,1667,0,0
777,-643,0,0,0,0,0,0,0,0,0,-1,2001,1667,0,0
784,-643,0,0,0,0,0,0,0,0,0,-1,2008,1667,0,0
791,-643,0,0,0,0,0,0,0,0,0,-1,2015,1667,0,0
798,-643,0,0,0,0,0,0,0,0,0,-1,2022,1667,0,0
805,-643,0,0,0,0,0,0,0,0,0,-1,2029,1667,0,0
812,-643,0,0,0,0,0,0,0,0,0,-1,2036,1667,0,0
-700,-650,0,0,0,0,0,0,0,0,0,-1,524,1674,0,0
-693,-650,0,0,0,0,0,0,0,0,0,-1,531,1674,0,0
-686,-650,0,0,0,0,0,0,0,0,0,-1,538,1674,0,0
-679,-650,0,0,0,0,0,0,0,0,0,-1,545,1674,0,0
-672,-650,0,0,0,0,0,0,0,0,0,-1,552,1674,0,0
-665,-650,0,0,0,0,0,0,0,0,0,-1,559,1674,0,0
-658,-650,0,0,0,0,0,0,0,0,0,-1,566,1674,0,0
-651,-650,0,0,0,0,0,0,0,0,0,-1,573,1674,0,0
-644,-650,0,0,0,0,0,0,0,0,0,-1,580,1674,0,0
-637,-650,0,0,0,0,0,0,0,0,0,-1,587,1674,0,0
-630,-650,0,0,0,0,0,0,0,0,0,-1,594,1674,0,0
-623,-650,0,0,0,0,0,0,0,0,0,-1,601,1674,0,0
-616,-650,0,0,0,0,0,0,0,0,0,-1,608,1674,0,0
-609,-650,0,0,0,0,0,0,0,0,0,-1,615,1674,0,0
-602,-650,0,0,0,0,0,0,0,0,0,-1,622,1674,0,0
-595,-650,0,0,0,0,0,0,0,0,0,-1,629,1674,0,0
-588,-650,0,0,0,0,0,0,0,0,0,-1,636,1674,0,0
-581,-650,0,0,0,0,0,0,0,0,0,-1,643,1674,0,0
-574,-650,0,0,0,0,0,0,0,0,0,-1,650,1674,0,0
-567,-650,0,0,0,0,0,0,0,0,0,-1,657,1674,0,0
-560,-650,0,0,0,0,0,0,0,0,0,-1,664,1674,0,0
-553,-650,0,0,0,0,0,0,0,0,0,-1,671,1674,0,0
-546,-650,0,0,0,0,0,0,0,0,0,-1,678,1674,0,0
-539,-650,0,0,0,0,0,0,0,0,0,-1,685,1674,0,0
-532,-650,0,0,0,0,0,0,0,0,0,-1,692,1674,0,0
-525,-650,0,0,0,0,0,0,0,0,0,-1,699,1674,0,0
-518,-650,0,0,0,0,0,0,0,0,0,-1,706,1674,0,0
-511,-650,0,0,0,0,0,0,0,0,0,-1,713,1674,0,0
-504,-650,0,0,0,0,0,0,0,0,0,-1,720,1674,0,0
-497,-650,0,0,0,0,0,0,0,0,0,-1,727,1674,0,0
-490,-650,0,0,0,0,0,0,0,0,0,-1,734,1674,0,0
-483,-650,0,0,0,0,0,0,0,0,0,-1,741,1674,0,0
-476,-650,0,0,0,0,0,0,0,0,0,-1,748,1674,0,0
-469,-650,0,0,0,0,0,0,0,0,0,-1,755,1674,0,0
-462,-650,0,0,0,0,0,0,0,0,0,-1,762,1674,0,0
-455,-650,0,0,0,0,0,0,0,0,0,-1,769,1674,0,0
-448,-650,0,0,0,0,0,0,0,0,0,-1,776,1674,0,0
-441,-650,0,0,0,0,0,0,0,0,0,-1,783,1674,0,0
-434,-650,0,0,0,0,0,0,0,0,0,-1,790,1674,0,0
-427,-650,0,0,0,0,0,0,0,0,0,-1,797,1674,0,0
-420,-650,0,0,0,0,0,0,0,0,0,-1,804,1674,0,0
-413,-650,0,0,0,0,0,0,0,0,0,-1,811,1674,0,0
-406,-650,0,0,0,0,0,0,0,0,0,-1,818,1674,0,0
-399,-650,0,0,0,0,0,0,0,0,0,-1,825,1674,0,0
-392,-650,5.44415,6.85669,0,0,0,0,0,0,0,-1,832,1674,5.44414,-6.85674
-385,-650,1.74451,14.0183,0,0,0,0,0,0,0,-1,839,1674,1.74453,-14.0183
-378,-650,0.997986,4.11108,0,0,0,0,0,0,0,-1,846,1674,0.998006,-4.11113
-371,-650,-1.80096,3.78625,0,0,0,0,0,0,0,-1,853,1674,-1.80094,-3.78625
-364,-650,-2.95679,2.57507,0,0,0,0,0,0,0,-1,860,1674,-2.95681,-2.57506
-357,-650,1.97833,10.8362,0,0,0,0,0,0,0,-1,867,1674,1.97835,-10.8362
-350,-650,-5.30243,0.159912,0,0,0,0,0,0,0,-1,874,1674,-5.30244,-0.159866
-343,-650,-6.21338,-1.4425,0,0,0,0,0,0,0,-1,881,1674,-6.21341,1.44248
-336,-650,4.20111,17.2285,0,0,0,0,0,0,0,-1,888,1674,4.20113,-17.2285
-329,-650,4.68616,18.8456,0,0,0,0,0,0,0,-1,895,1674,4.68617,-18.8456
-322,-650,4.29919,19.0509,0.000547107,-0.00205982,0.00115373,0.000984365,-0.00249708,0.362268,0.00207229,0.042152,902,1674,4.29921,-19.0509
-315,-650,4.41888,19.5216,0.000162769,-0.00250296,0.000718202,0.000343952,-0.00268414,0.247118,0.00191441,0.0375817,909,1674,4.41889,-19.5216
-308,-650,4.40314,19.7894,-0.000205524,-0.00303368,0.000217636,-0.000188874,-0.00305033,0.0763541,0.00197361,0.0218185,916,1674,4.40314,-19.7894
-301,-650,4.4007,20.1654,-0.000480346,-0.00307055,-0.000178564,-0.000468094,-0.00308281,-0.0685061,0.0019183,0.0122621,923,1674,4.40071,-20.1654
-294,-650,4.36761,20.4507,-0.000612466,-0.00280079,-0.000439341,-0.000527556,-0.0028857,-0.190913,0.00177429,0.0101332,930,1674,4.36761,-20.4507
-287,-650,4.3537,20.7499,-0.000738791,-0.00243509,-0.000582724,-0.0005579,-0.00261599,-0.300992,0.00159097,0.0124598,937,1674,4.35372,-20.7499
-280,-650,4.34735,21.0542,-0.000741629,-0.00220254,-0.000564858,-0.000548704,-0.00239546,-0.329123,0.00144912,0.0137147,944,1674,4.34735,-21.0542
-273,-650,4.34241,21.3533,-0.000551932,-0.00183327,-0.000470051,-0.000397991,-0.00198721,-0.31649,0.00121409,0.0130205,951,1674,4.34241,-21.3533
-266,-650,4.31342,21.6512,-0.000348975,-0.00141394,-0.000439959,-0.000190733,-0.00157219,-0.345268,0.000990686,0.0118321,958,1674,4.31339,-21.6513
-259,-650,4.30847,21.9176,-0.000103951,-0.000827578,-0.000272402,-1.28724e-05,-0.000918657,-0.32267,0.000608193,0.0151663,965,1674,4.30846,-21.9176
-252,-650,4.30304,22.1989,0.000221732,-0.000346855,-7.10751e-05,0.000230482,-0.000355605,-0.122492,0.000340938,0.0132825,972,1674,4.30303,-22.1989
-245,-650,4.31958,22.4846,0.000585398,0.00014919,0.000132509,0.000622496,0.000112092,0.272976,0.000383139,0.0117498,979,1674,4.31955,-22.4846
-238,-650,4.29938,22.785,0.000944851,0.000495732,0.000283596,0.00108203,0.000358554,0.450529,0.000636442,0.0135605,986,1674,4.29938,-22.785
-231,-650,4.27435,23.0732,0.00134139,0.000619167,0.000398512,0.00151807,0.000442493,0.417296,0.000901503,0.0183739,993,1674,4.27436,-23.0733
-224,-650,4.28894,23.3317,0.00180046,0.000738252,0.000433681,0.00195503,0.000583681,0.34238,0.00115887,0.0144932,1000,1674,4.28895,-23.3316
-217,-650,4.31042,23.5577,0.00216494,0.00022493,0.000579521,0.00232487,6.49998e-05,0.269268,0.00152871,0.00993211,1007,1674,4.31045,-23.5577
-210,-650,4.31836,23.7961,0.00164291,-0.000900817,0.00134538,0.00222245,-0.00148036,0.40674,0.00215208,0.00967307,1014,1674,4.31837,-23.7962
-203,-650,4.33484,24.0537,0.000525773,-0.00166194,0.0021957,0.001885,-0.00302117,0.554303,0.00285778,0.0146617,1021,1674,4.3349,-24.0537
-196,-650,4.34607,24.2926,-0.000213488,-0.00311743,0.00294739,0.00162016,-0.00495108,0.556531,0.00395304,0.0135416,1028,1674,4.34607,-24.2926
-189,-650,4.34192,24.5354,-0.00140478,-0.00450322,0.00393833,0.00127809,-0.00718608,0.598009,0.00526868,0.010689,1035,1674,4.34187,-24.5354
-182,-650,4.38367,24.7896,-0.00295611,-0.00594605,0.00515644,0.000917707,-0.00981986,0.644305,0.00687293,0.0100242,1042,1674,4.38362,-24.7895
-175,-650,4.41418,25.0112,-0.00474913,-0.00724417,0.0066205,0.000740366,-0.0127337,0.692274,0.00874635,0.0149987,1049,1674,4.41417,-25.0113
-168,-650,4.41248,25.2196,-0.00658595,-0.00826023,0.00812059,0.000740538,-0.0155867,0.734035,0.0106466,0.0189019,1056,1674,4.41242,-25.2196
-161,-650,4.45593,25.4608,-0.00836103,-0.00883416,0.0095224,0.000927743,-0.0181229,0.772979,0.0124028,0.0275718,1063,1674,4.45588,-25.4608
-154,-650,4.50439,25.5905,-0.0100675,-0.0088224,0.0108014,0.00137439,-0.0202643,0.814184,0.0139902,0.0313105,1070,1674,4.50438,-25.5904
-147,-650,4.68359,25.4333,-0.011538,-0.00800429,0.0116825,0.00204421,-0.0215865,0.86045,0.0151185,0.0427001,1077,1674,4.68355,-25.4334
-140,-650,4.2229,26.1406,0,0,0,0,0,0,0,-1,1084,1674,4.22288,-26.1406
-133,-650,4.13257,26.6415,0,0,0,0,0,0,0,-1,1091,1674,4.13257,-26.6414
-126,-650,4.42639,25.1362,0,0,0,0,0,0,0,-1,1098,1674,4.42633,-25.1363
-119,-650,5.16663,20.6232,0,0,0,0,0,0,0,-1,1105,1674,5.16665,-20.6232
-112,-650,3.86292,14.4513,0,0,0,0,0,0,0,-1,1112,1674,3.8629,-14.4513
-105,-650,4.9259,12.0626,0,0,0,0,0,0,0,-1,1119,1674,4.92591,-12.0626
-98,-650,3.3761,6.78003,0,0,0,0,0,0,0,-1,1126,1674,3.37611,-6.78009
-91,-650,3.66809,7.04443,0,0,0,0,0,0,0,-1,1133,1674,3.66806,-7.04439
-84,-650,-3.82666,-1.59521,0,0,0,0,0,0,0,-1,1140,1674,-3.82661,1.59517
-77,-650,-4.70557,1.90198,0,0,0,0,0,0,0,-1,1147,1674,-4.7056,-1.90194
-70,-650,-4.88171,3.81653,0,0,0,0,0,0,0,-1,1154,1674,-4.88176,-3.81651
-63,-650,-5.14612,5.56543,0,0,0,0,0,0,0,-1,1161,1674,-5.14612,-5.56547
-56,-650,-5.38367,7.41101,0,0,0,0,0,0,0,-1,1168,1674,-5.38361,-7.41102
-49,-650,-5.11316,8.23706,0,0,0,0,0,0,0,-1,1175,1674,-5.11317,-8.23708
-42,-650,-4.99487,9.6792,0,0,0,0,0,0,0,-1,1182,1674,-4.99484,-9.67921
-35,-650,-4.77771,11.3369,0,0,0,0,0,0,0,-1,1189,1674,-4.77769,-11.3369
-28,-650,-4.1936,13.1501,0,0,0,0,0,0,0,-1,1196,1674,-4.19358,-13.1501
-21,-650,5.67578,27.3243,0,0,0,0,0,0,0,-1,1203,1674,5.67573,-27.3243
-14,-650,3.21155,29.9375,0,0,0,0,0,0,0,-1,1210,1674,3.21157,-29.9375
-7,-650,3.62354,29.2334,0.0646491,0.021609,0.00704138,0.0657718,0.0204863,0.158111,0.0388627,0.0478429,1217,1674,3.62359,-29.2335
0,-650,4.12585,28.7786,0.0575086,0.0250363,-0.00112538,0.0575475,0.0249974,-0.0346013,0.0333203,0.0446432,1224,1674,4.12587,-28.7786
7,-650,4.81738,28.3782,0.058797,0.035803,-0.00239262,0.0590434,0.0355566,-0.102589,0.0343253,0.0457986,1231,1674,4.81738,-28.3782
14,-650,5.46167,27.9508,0.0622628,0.0499717,-0.00334341,0.0631134,0.0491211,-0.249128,0.0382738,0.045674,1238,1674,5.4617,-27.9508
21,-650,8.28784,30.1733,0.0645363,0.0662224,-0.00425989,0.0697218,0.0610368,-0.883089,0.0438737,0.0468162,1245,1674,8.28786,-30.1734
28,-650,5.83801,25.1101,0.072549,0.0828981,-0.00215725,0.0833297,0.0721173,-1.3733,0.0522185,0.044587,1252,1674,5.838,-25.1101
35,-650,6.00208,24.009,0.0842654,0.0961904,-0.00143588,0.0963609,0.0840949,-1.45264,0.0605674,0.0468632,1259,1674,6.00211,-24.009
42,-650,6.10425,22.9828,0.0936833,0.106205,-0.00231457,0.106619,0.0932691,-1.39374,0.0670737,0.0465591,1266,1674,6.10421,-22.9828
49,-650,6.12512,21.6532,0.101439,0.11302,-0.00740146,0.116627,0.0978317,-1.11734,0.072305,0.0468858,1273,1674,6.12507,-21.6531
56,-650,5.64954,20.448,0.109714,0.11509,-0.0162565,0.128879,0.0959246,-0.867328,0.0773123,0.0479027,1280,1674,5.64955,-20.448
63,-650,5.61621,19.6488,0.116367,0.1115,-0.0263655,0.140411,0.0874555,-0.739379,0.0818778,0.0459559,1287,1674,5.6162,-19.6488
70,-650,5.21973,19.2628,0.12129,0.103802,-0.0385129,0.152039,0.0730527,-0.673771,0.087802,0.048205,1294,1674,5.21978,-19.2628
77,-650,5.11987,18.3926,0.127375,0.0955162,-0.0510525,0.164926,0.0579658,-0.634173,0.0966104,0.0490588,1301,1674,5.11992,-18.3925
84,-650,4.83691,17.5103,0,0,0,0,0,0,0,-1,1308,1674,4.83695,-17.5103
91,-650,3.87427,13.0846,0,0,0,0,0,0,0,-1,1315,1674,3.87431,-13.0845
98,-650,3.26355,10.7043,0,0,0,0,0,0,0,-1,1322,1674,3.26356,-10.7043
105,-650,3.45593,8.71472,0.121048,0.0379143,-0.115233,0.201981,-0.0430193,-0.612302,0.15105,0.047728,1329,1674,3.45589,-8.71469
112,-650,3.86609,6.14636,0.112611,0.0306356,-0.128208,0.206224,-0.0629775,-0.630684,0.162593,0.0479227,1336,1674,3.86605,-6.14636
119,-650,4.24731,3.50073,0,0,0,0,0,0,0,-1,1343,1674,4.24731,-3.50071
126,-650,6.54089,27.7842,0,0,0,0,0,0,0,-1,1350,1674,6.54085,-27.7842
133,-650,6.95886,27.8035,0,0,0,0,0,0,0,-1,1357,1674,6.95886,-27.8034
140,-650,6.42334,-7.04102,0,0,0,0,0,0,0,-1,1364,1674,6.42328,7.04099
147,-650,6.89063,27.6573,0,0,0,0,0,0,0,-1,1371,1674,6.89058,-27.6573
154,-650,7.36658,27.2474,0,0,0,0,0,0,0,-1,1378,1674,7.36662,-27.2474
161,-650,1.92163,18.5155,0,0,0,0,0,0,0,-1,1385,1674,1.92164,-18.5155
168,-650,11.2113,7.87231,0,0,0,0,0,0,0,-1,1392,1674,11.2113,-7.87236
175,-650,5.62537,-0.230713,0,0,0,0,0,0,0,-1,1399,1674,5.62538,0.230745
182,-650,5.56006,0.421631,0,0,0,0,0,0,0,-1,1406,1674,5.56,-0.421652
189,-650,4.81543,11.0654,0,0,0,0,0,0,0,-1,1413,1674,4.81542,-11.0654
196,-650,5.39575,11.9077,0,0,0,0,0,0,0,-1,1420,1674,5.39575,-11.9078
203,-650,3.93628,11.8215,0,0,0,0,0,0,0,-1,1427,1674,3.93624,-11.8216
210,-650,5.40955,8.08594,0,0,0,0,0,0,0,-1,1434,1674,5.40958,-8.086
217,-650,5.12451,4.69739,0,0,0,0,0,0,0,-1,1441,1674,5.12451,-4.69738
224,-650,4.79041,1.45813,0,0,0,0,0,0,0,-1,1448,1674,4.79046,-1.45816
231,-650,4.04102,-0.642212,0,0,0,0,0,0,0,-1,1455,1674,4.04101,0.642209
238,-650,3.23022,-1.43396,0,0,0,0,0,0,0,-1,1462,1674,3.23023,1.43394
245,-650,1.65894,-2.55042,0,0,0,0,0,0,0,-1,1469,1674,1.65889,2.55036
252,-650,8.75342,0.355103,0,0,0,0,0,0,0,-1,1476,1674,8.75337,-0.355147
259,-650,5.61255,3.17566,0,0,0,0,0,0,0,-1,1483,1674,5.61257,-3.17572
266,-650,4.00403,6.10229,0,0,0,0,0,0,0,-1,1490,1674,4.00401,-6.10225
273,-650,5.4093,14.3718,0,0,0,0,0,0,0,-1,1497,1674,5.40929,-14.3718
280,-650,7.81433,26.2362,0,0,0,0,0,0,0,-1,1504,1674,7.81437,-26.2362
287,-650,8.31006,26.1003,0,0,0,0,0,0,0,-1,1511,1674,8.31011,-26.1004
294,-650,8.34912,25.9988,0.00595514,0.0040325,-0.000961214,0.00635326,0.00363438,-0.392671,0.00368073,0.0438227,1518,1674,8.34914,-25.9987
301,-650,8.35193,25.651,0.00507574,0.00351019,-0.000610513,0.00528567,0.00330026,-0.331193,0.00308299,0.0337759,1525,1674,8.3519,-25.651
308,-650,8.31494,25.4589,0.00419093,0.00312964,-0.000309174,0.00427443,0.00304614,-0.263777,0.00254115,0.02396,1532,1674,8.31491,-25.4589
315,-650,8.31458,25.2772,0.00338192,0.00311438,-0.000171673,0.00346579,0.00303052,-0.454431,0.00217997,0.0168709,1539,1674,8.3146,-25.2772
322,-650,8.3269,25.0737,0.00279241,0.00342524,-0.000248868,0.00351139,0.00270627,-1.23756,0.00212404,0.0123944,1546,1674,8.32695,-25.0738
329,-650,8.35571,24.8267,0.00229697,0.00367124,-0.000349322,0.00375494,0.00221327,-1.33563,0.00217944,0.0155649,1553,1674,8.35575,-24.8267
336,-650,8.36169,24.6267,0.00182324,0.00374005,-0.000413842,0.00382558,0.00173771,-1.36699,0.00221178,0.0141806,1560,1674,8.36167,-24.6267
343,-650,8.3877,24.4152,0.00148971,0.00371719,-0.000523624,0.00383414,0.00137276,-1.35105,0.00224319,0.0139393,1567,1674,8.38764,-24.4152
350,-650,8.38611,24.1681,0.00129772,0.00345539,-0.000539689,0.00358285,0.00117026,-1.33887,0.0021096,0.0159471,1574,1674,8.38613,-24.1681
357,-650,8.38147,23.9183,0.00117887,0.00307463,-0.000442064,0.00317264,0.00108085,-1.3526,0.00186246,0.013317,1581,1674,8.38144,-23.9183
364,-650,8.39734,23.6738,0.000965138,0.00236241,-0.000134248,0.00237519,0.000952356,-1.47588,0.00138026,0.0096826,1588,1674,8.39731,-23.6738
371,-650,8.39819,23.4381,0.000773079,0.00152676,0.000193138,0.00157337,0.000726468,1.33399,0.000909273,0.0115479,1595,1674,8.39822,-23.4381
378,-650,8.37756,23.1733,0.000640853,0.000530074,0.000587328,0.0011754,-4.47058e-06,0.738383,0.000785093,0.0128299,1602,1674,8.37753,-23.1733
385,-650,8.36853,22.9114,0.000613888,-0.000603784,0.000930001,0.00111662,-0.00110652,0.495576,0.00128353,0.014574,1609,1674,8.3685,-22.9114
392,-650,8.38928,22.6758,0.00048051,-0.00195132,0.00138244,0.00110568,-0.00257649,0.4247,0.0021817,0.018019,1616,1674,8.38931,-22.6758
399,-650,8.39294,22.4202,0.000248349,-0.00315352,0.00179389,0.0010195,-0.00392468,0.405994,0.00301431,0.0156441,1623,1674,8.39299,-22.4202
406,-650,8.36182,22.1401,0.000152529,-0.00405695,0.00207816,0.00100561,-0.00491003,0.389522,0.00365496,0.0139588,1630,1674,8.36183,-22.1402
413,-650,8.35291,21.8575,0.000105384,-0.00472248,0.00217809,0.000942782,-0.00555988,0.367042,0.00405752,0.0151457,1637,1674,8.35296,-21.8576
420,-650,8.34766,21.6084,0.000445043,-0.00519757,0.00231156,0.00127108,-0.0060236,0.343206,0.00449967,0.015333,1644,1674,8.34763,-21.6084
427,-650,8.33411,21.3386,0.00168433,-0.00599804,0.00236689,0.002355,-0.00666871,0.276119,0.00540463,0.0136034,1651,1674,8.33405,-21.3386
434,-650,8.32385,21.0538,0.00289172,-0.00650293,0.00216827,0.003368,-0.00697922,0.216228,0.00609404,0.0159288,1658,1674,8.3239,-21.0539
441,-650,8.32703,20.8097,0.00490255,-0.00667264,0.00116026,0.0050177,-0.0067878,0.0989255,0.0068414,0.0292901,1665,1674,8.32704,-20.8097
448,-650,8.20471,20.5316,0.00761837,-0.00655678,0.000197355,0.00762112,-0.00655953,0.013919,0.00819484,0.0481363,1672,1674,8.2047,-20.5316
455,-650,8.08142,20.0658,0,0,0,0,0,0,0,-1,1679,1674,8.08142,-20.0657
462,-650,8.29663,19.8608,0,0,0,0,0,0,0,-1,1686,1674,8.29662,-19.8608
469,-650,8.4165,19.7461,0,0,0,0,0,0,0,-1,1693,1674,8.41649,-19.7461
476,-650,9.05078,20.3824,0,0,0,0,0,0,0,-1,1700,1674,9.05078,-20.3824
483,-650,8.70923,18.4282,0,0,0,0,0,0,0,-1,1707,1674,8.70923,-18.4282
490,-650,9.34119,17.7961,0,0,0,0,0,0,0,-1,1714,1674,9.34118,-17.7961
497,-650,9.97998,17.2683,0,0,0,0,0,0,0,-1,1721,1674,9.97997,-17.2683
504,-650,10.4026,16.5255,0,0,0,0,0,0,0,-1,1728,1674,10.4026,-16.5255
511,-650,10.8226,15.705,0,0,0,0,0,0,0,-1,1735,1674,10.8227,-15.705
518,-650,0,0,0,0,0,0,0,0,0,-1,1742,1674,0,0
525,-650,0,0,0,0,0,0,0,0,0,-1,1749,1674,0,0
532,-650,0,0,0,0,0,0,0,0,0,-1,1756,1674,0,0
539,-650,0,0,0,0,0,0,0,0,0,-1,1763,1674,0,0
546,-650,0,0,0,0,0,0,0,0,0,-1,1770,1674,0,0
553,-650,0,0,0,0,0,0,0,0,0,-1,1777,1674,0,0
560,-650,0,0,0,0,0,0,0,0,0,-1,1784,1674,0,0
567,-650,0,0,0,0,0,0,0,0,0,-1,1791,1674,0,0
574,-650,0,0,0,0,0,0,0,0,0,-1,1798,1674,0,0
581,-650,0,0,0,0,0,0,0,0,0,-1,1805,1674,0,0
588,-650,0,0,0,0,0,0,0,0,0,-1,1812,1674,0,0
595,-650,0,0,0,0,0,0,0,0,0,-1,1819,1674,0,0
602,-650,0,0,0,0,0,0,0,0,0,-1,1826,1674,0,0
609,-650,0,0,0,0,0,0,0,0,0,-1,1833,1674,0,0
616,-650,0,0,0,0,0,0,0,0,0,-1,1840,1674,0,0
623,-650,0,0,0,0,0,0,0,0,0,-1,1847,1674,0,0
630,-650,0,0,0,0,0,0,0,0,0,-1,1854,1674,0,0
637,-650,0,0,0,0,0,0,0,0,0,-1,1861,1674,0,0
644,-650,0,0,0,0,0,0,0,0,0,-1,1868,1674,0,0
651,-650,0,0,0,0,0,0,0,0,0,-1,1875,1674,0,0
658,-650,0,0,0,0,0,0,0,0,0,-1,1882,1674,0,0
665,-650,0,0,0,0,0,0,0,0,0,-1,1889,1674,0,0
672,-650,0,0,0,0,0,0,0,0,0,-1,1896,1674,0,0
679,-650,0,0,0,0,0,0,0,0,0,-1,1903,1674,0,0
686,-650,0,0,0,0,0,0,0,0,0,-1,1910,1674,0,0
693,-650,0,0,0,0,0,0,0,0,0,-1,1917,1674,0,0
700,-650,0,0,0,0,0,0,0,0,0,-1,1924,1674,0,0
707,-650,0,0,0,0,0,0,0,0,0,-1,1931,1674,0,0
714,-650,0,0,0,0,0,0,0,0,0,-1,1938,1674,0,0
721,-650,0,0,0,0,0,0,0,0,0,-1,1945,1674,0,0
728,-650,0,0,0,0,0,0,0,0,0,-1,1952,1674,0,0
735,-650,0,0,0,0,0,0,0,0,0,-1,1959,1674,0,0
742,-650,0,0,0,0,0,0,0,0,0,-1,1966,1674,0,0
749,-650,0,0,0,0,0,0,0,0,0,-1,1973,1674,0,0
756,-650,0,0,0,0,0,0,0,0,0,-1,1980,1674,0,0
763,-650,0,0,0,0,0,0,0,0,0,-1,1987,1674,0,0
770,-650,0,0,0,0,0,0,0,0,0,-1,1994,1674,0,0
777,-650,0,0,0,0,0,0,0,0,0,-1,2001,1674,0,0
784,-650,0,0,0,0,0,0,0,0,0,-1,2008,1674,0,0
791,-650,0,0,0,0,0,0,0,0,0,-1,2015,1674,0,0
798,-650,0,0,0,0,0,0,0,0,0,-1,2022,1674,0,0
805,-650,0,0,0,0,0,0,0,0,0,-1,2029,1674,0,0
812,-650,0,0,0,0,0,0,0,0,0,-1,2036,1674,0,0
-700,-657,0,0,0,0,0,0,0,0,0,-1,524,1681,0,0
-693,-657,0,0,0,0,0,0,0,0,0,-1,531,1681,0,0
-686,-657,0,0,0,0,0,0,0,0,0,-1,538,1681,0,0
-679,-657,0,0,0,0,0,0,0,0,0,-1,545,1681,0,0
-672,-657,0,0,0,0,0,0,0,0,0,-1,552,1681,0,0
-665,-657,0,0,0,0,0,0,0,0,0,-1,559,1681,0,0
-658,-657,0,0,0,0,0,0,0,0,0,-1,566,1681,0,0
-651,-657,0,0,0,0,0,0,0,0,0,-1,573,1681,0,0
-644,-657,0,0,0,0,0,0,0,0,0,-1,580,1681,0,0
-637,-657,0,0,0,0,0,0,0,0,0,-1,587,1681,0,0
-630,-657,0,0,0,0,0,0,0,0,0,-1,594,1681,0,0
-623,-657,0,0,0,0,0,0,0,0,0,-1,601,1681,0,0
-616,-657,0,0,0,0,0,0,0,0,0,-1,608,1681,0,0
-609,-657,0,0,0,0,0,0,0,0,0,-1,615,1681,0,0
-602,-657,0,0,0,0,0,0,0,0,0,-1,622,1681,0,0
-595,-657,0,0,0,0,0,0,0,0,0,-1,629,1681,0,0
-588,-657,0,0,0,0,0,0,0,0,0,-1,636,1681,0,0
-581,-657,0,0,0,0,0,0,0,0,0,-1,643,1681,0,0
-574,-657,0,0,0,0,0,0,0,0,0,-1,650,1681,0,0
-567,-657,0,0,0,0,0,0,0,0,0,-1,657,1681,0,0
-560,-657,0,0,0,0,0,0,0,0,0,-1,664,1681,0,0
-553,-657,0,0,0,0,0,0,0,0,0,-1,671,1681,0,0
-546,-657,0,0,0,0,0,0,0,0,0,-1,678,1681,0,0
-539,-657,0,0,0,0,0,0,0,0,0,-1,685,1681,0,0
-532,-657,0,0,0,0,0,0,0,0,0,-1,692,1681,0,0
-525,-657,0,0,0,0,0,0,0,0,0,-1,699,1681,0,0
-518,-657,0,0,0,0,0,0,0,0,0,-1,706,1681,0,0
-511,-657,0,0,0,0,0,0,0,0,0,-1,713,1681,0,0
-504,-657,0,0,0,0,0,0,0,0,0,-1,720,1681,0,0
-497,-657,0,0,0,0,0,0,0,0,0,-1,727,1681,0,0
-490,-657,0,0,0,0,0,0,0,0,0,-1,734,1681,0,0
-483,-657,0,0,0,0,0,0,0,0,0,-1,741,1681,0,0
-476,-657,0,0,0,0,0,0,0,0,0,-1,748,1681,0,0
-469,-657,0,0,0,0,0,0,0,0,0,-1,755,1681,0,0
-462,-657,0,0,0,0,0,0,0,0,0,-1,762,1681,0,0
-455,-657,0,0,0,0,0,0,0,0,0,-1,769,1681,0,0
-448,-657,0,0,0,0,0,0,0,0,0,-1,776,1681,0,0
-441,-657,0,0,0,0,0,0,0,0,0,-1,783,1681,0,0
-434,-657,0,0,0,0,0,0,0,0,0,-1,790,1681,0,0
-427,-657,0,0,0,0,0,0,0,0,0,-1,797,1681,0,0
-420,-657,0,0,0,0,0,0,0,0,0,-1,804,1681,0,0
-413,-657,0,0,0,0,0,0,0,0,0,-1,811,1681,0,0
-406,-657,0,0,0,0,0,0,0,0,0,-1,818,1681,0,0
-399,-657,0,0,0,0,0,0,0,0,0,-1,825,1681,0,0
-392,-657,0,0,0,0,0,0,0,0,0,-1,832,1681,0,0
-385,-657,1.09814,6.18896,0,0,0,0,0,0,0,-1,839,1681,1.09814,-6.18894
-378,-657,0.31488,4.46753,0,0,0,0,0,0,0,-1,846,1681,0.31487,-4.46755
-371,-657,-0.519043,2.69421,0,0,0,0,0,0,0,-1,853,1681,-0.519064,-2.69422
-364,-657,-3.42017,4.18323,0,0,0,0,0,0,0,-1,860,1681,-3.42019,-4.18319
-357,-657,-4.41913,2.97168,0,0,0,0,0,0,0,-1,867,1681,-4.41913,-2.97165
-350,-657,-5.42291,1.70276,0,0,0,0,0,0,0,-1,874,1681,-5.42291,-1.70277
-343,-657,-6.51294,0.397339,0,0,0,0,0,0,0,-1,881,1681,-6.51295,-0.397335
-336,-657,3.07172,15.946,0,0,0,0,0,0,0,-1,888,1681,3.07169,-15.946
-329,-657,4.4201,17.7438,0,0,0,0,0,0,0,-1,895,1681,4.4201,-17.7438
-322,-657,4.29761,19.0552,0,0,0,0,0,0,0,-1,902,1681,4.29758,-19.0552
-315,-657,4.62866,19.5598,0.000278125,-0.0036095,0.000503659,0.000342317,-0.00367369,0.126767,0.00257084,0.0412008,909,1681,4.62869,-19.5598
-308,-657,4.64508,19.829,-0.000278696,-0.00432317,-0.000132753,-0.000274343,-0.00432752,-0.0327764,0.00279805,0.036974,916,1681,4.64506,-19.829
-301,-657,4.62836,20.2013,-0.00073618,-0.00447468,-0.000609548,-0.000639306,-0.00457156,-0.15761,0.00285853,0.032767,923,1681,4.62833,-20.2013
-294,-657,4.65485,20.5101,-0.000978095,-0.00406228,-0.000905038,-0.000732132,-0.00430825,-0.265362,0.00266189,0.0191077,930,1681,4.65483,-20.5101
-287,-657,4.63361,20.7845,-0.00118994,-0.00353506,-0.00108877,-0.000762405,-0.0039626,-0.37418,0.00242783,0.0129054,937,1681,4.63359,-20.7846
-280,-657,4.6109,21.0646,-0.00127151,-0.00324958,-0.00101966,-0.000840018,-0.00368107,-0.400324,0.00222748,0.0133976,944,1681,4.61092,-21.0646
-273,-657,4.61652,21.37,-0.00106592,-0.00281259,-0.000899123,-0.000685807,-0.0031927,-0.399974,0.00194069,0.00983348,951,1681,4.61654,-21.37
-266,-657,4.5896,21.6552,-0.000871041,-0.00228254,-0.000842177,-0.000477997,-0.00267558,-0.436654,0.00164766,0.0146534,958,1681,4.58961,-21.6552
-259,-657,4.58087,21.9215,-0.000608926,-0.00160823,-0.000620429,-0.000311969,-0.00190518,-0.446407,0.00117996,0.0191601,965,1681,4.58085,-21.9215
-252,-657,4.56897,22.1907,-0.000270702,-0.00107988,-0.0003769,-0.000122349,-0.00122824,-0.37499,0.000781243,0.012619,972,1681,4.56898,-22.1907
-245,-657,4.57458,22.4851,9.94611e-05,-0.000520031,-0.00013884,0.000129154,-0.000549725,-0.210693,0.000416268,0.0147214,979,1681,4.57461,-22.4851
-238,-657,4.53546,22.7971,0.000439382,-0.000106979,6.12634e-05,0.000446167,-0.000113764,0.110305,0.000341737,0.0195661,986,1681,4.53544,-22.7972
-231,-657,4.53003,23.0781,0.000807998,0.000150193,0.00024892,0.000891573,6.66175e-05,0.323926,0.000573468,0.019843,993,1681,4.53004,-23.0781
-224,-657,4.5564,23.3634,0.00123096,0.000359614,0.000361556,0.00136145,0.000229131,0.346348,0.000841714,0.0157244,1000,1681,4.55639,-23.3634
-217,-657,4.57251,23.6029,0.00154652,5.91212e-05,0.000477373,0.00168655,-8.09063e-05,0.285326,0.00115228,0.0105964,1007,1681,4.57249,-23.603
-210,-657,4.57574,23.8284,0.00128229,-0.000709078,0.00100772,0.00170325,-0.00113004,0.395704,0.00164693,0.0108602,1014,1681,4.57573,-23.8284
-203,-657,4.57703,24.0651,0.000624239,-0.00126033,0.00158358,0.00152468,-0.00216077,0.517019,0.00213834,0.0131202,1021,1681,4.577,-24.0651
-196,-657,4.59912,24.2985,0.00019991,-0.00234988,0.00209406,0.00137663,-0.00352661,0.51196,0.00292019,0.0137456,1028,1681,4.59915,-24.2985
-189,-657,4.60315,24.5385,-0.000533271,-0.00341373,0.0027335,0.00111621,-0.00506321,0.542938,0.00380255,0.00980119,1035,1681,4.60315,-24.5384
-182,-657,4.59595,24.7714,-0.00143185,-0.0043762,0.00350014,0.000893118,-0.00670117,0.586328,0.00479297,0.00831865,1042,1681,4.59598,-24.7713
-175,-657,4.62048,25.0027,-0.00243511,-0.0051483,0.00440941,0.000821667,-0.00840508,0.636164,0.00589639,0.0100044,1049,1681,4.62051,-25.0027
-168,-657,4.6123,25.2369,-0.00344935,-0.00576604,0.00535685,0.000872961,-0.0100883,0.678919,0.00703463,0.0113482,1056,1681,4.61233,-25.2369
-161,-657,4.61243,25.4554,-0.00442833,-0.00604604,0.00623651,0.00105156,-0.0115259,0.72091,0.00805738,0.0117251,1063,1681,4.6124,-25.4555
-154,-657,4.64355,25.6421,-0.00530598,-0.00585132,0.00700983,0.00143648,-0.0125938,0.765959,0.00891335,0.0118392,1070,1681,4.6435,-25.642
-147,-657,4.66064,25.8412,-0.0059954,-0.00507088,0.00748159,0.00196272,-0.013029,0.816252,0.00940873,0.0183379,1077,1681,4.66069,-25.8412
-140,-657,4.5636,26.1177,-0.00639421,-0.00368056,0.00778233,0.00286234,-0.0129371,0.871704,0.00972036,0.0316022,1084,1681,4.56356,-26.1176
-133,-657,4.49438,26.4658,-0.00644439,-0.00185404,0.00803338,0.00420561,-0.012504,0.924544,0.010036,0.0432908,1091,1681,4.49435,-26.4659
-126,-657,4.72729,26.9701,0,0,0,0,0,0,0,-1,1098,1681,4.72729,-26.9701
-119,-657,5.00391,27.1427,0,0,0,0,0,0,0,-1,1105,1681,5.00385,-27.1426
-112,-657,4.6051,21.3439,0,0,0,0,0,0,0,-1,1112,1681,4.60512,-21.3438
-105,-657,3.82434,14.4906,0,0,0,0,0,0,0,-1,1119,1681,3.8244,-14.4906
-98,-657,3.78662,8.16785,0,0,0,0,0,0,0,-1,1126,1681,3.78663,-8.16786
-91,-657,3.6521,16.6017,0,0,0,0,0,0,0,-1,1133,1681,3.65215,-16.6017
-84,-657,4.08008,10.4579,0,0,0,0,0,0,0,-1,1140,1681,4.08006,-10.4579
-77,-657,-5.29846,0.396606,0,0,0,0,0,0,0,-1,1147,1681,-5.29842,-0.396573
-70,-657,-4.14893,2.14575,0,0,0,0,0,0,0,-1,1154,1681,-4.14893,-2.1458
-63,-657,-4.1239,3.177,0,0,0,0,0,0,0,-1,1161,1681,-4.12391,-3.17698
-56,-657,-6.40576,5.73987,0,0,0,0,0,0,0,-1,1168,1681,-6.40577,-5.7399
-49,-657,-5.98462,7.54053,0,0,0,0,0,0,0,-1,1175,1681,-5.98466,-7.5405
-42,-657,-5.71948,9.28955,0,0,0,0,0,0,0,-1,1182,1681,-5.71951,-9.2895
-35,-657,-5.44556,11.015,0,0,0,0,0,0,0,-1,1189,1681,-5.44555,-11.015
-28,-657,-1.3446,8.92847,0,0,0,0,0,0,0,-1,1196,1681,-1.34459,-8.92848
-21,-657,3.6676,30.5784,0,0,0,0,0,0,0,-1,1203,1681,3.66763,-30.5783
-14,-657,3.86963,29.8199,0.0539435,0.0220258,-0.00101575,0.0539758,0.0219935,-0.0317813,0.0313403,0.0484842,1210,1681,3.86969,-29.8199
-7,-657,4.08362,29.0442,0.0531693,0.0218298,-0.00350442,0.0535563,0.0214427,-0.110011,0.0311247,0.0457582,1217,1681,4.08358,-29.0442
0,-657,4.35889,28.3691,0.0499275,0.0246918,-0.00706103,0.0517689,0.0228504,-0.255094,0.0299571,0.0461525,1224,1681,4.35885,-28.3691
7,-657,4.75342,27.6965,0.0535358,0.0321767,-0.00617786,0.055194,0.0305185,-0.26222,0.0319257,0.0488917,1231,1681,4.75345,-27.6965
14,-657,7.85217,30.0322,0,0,0,0,0,0,0,-1,1238,1681,7.85223,-30.0322
21,-657,7.91052,29.9502,0,0,0,0,0,0,0,-1,1245,1681,7.91057,-29.9501
28,-657,7.96887,29.8682,0,0,0,0,0,0,0,-1,1252,1681,7.96891,-29.8681
35,-657,5.97058,23.5634,0,0,0,0,0,0,0,-1,1259,1681,5.97053,-23.5634
42,-657,6.12488,22.5225,0,0,0,0,0,0,0,-1,1266,1681,6.12483,-22.5225
49,-657,5.57495,19.6636,0.104434,0.0917495,0.000294411,0.104441,0.0917426,0.023194,0.0658041,0.0446335,1273,1681,5.57494,-19.6636
56,-657,5.12842,19.0507,0.113271,0.0937895,-0.00581642,0.114876,0.0921851,-0.269146,0.0702526,0.0481499,1280,1681,5.12843,-19.0506
63,-657,4.75879,18.2754,0,0,0,0,0,0,0,-1,1287,1681,4.75881,-18.2754
70,-657,4.97449,17.7682,0,0,0,0,0,0,0,-1,1294,1681,4.97451,-17.7682
77,-657,5.2356,17.2172,0.128168,0.077387,-0.0339547,0.145176,0.0603794,-0.46436,0.0842115,0.0472651,1301,1681,5.23558,-17.2172
84,-657,4.64453,15.125,0.128709,0.06476,-0.0463013,0.153003,0.0404657,-0.483212,0.091545,0.0443743,1308,1681,4.64456,-15.125
91,-657,4.06018,12.6733,0,0,0,0,0,0,0,-1,1315,1681,4.06017,-12.6734
98,-657,3.52075,10.2665,0,0,0,0,0,0,0,-1,1322,1681,3.52076,-10.2665
105,-657,3.5459,7.95972,0,0,0,0,0,0,0,-1,1329,1681,3.54588,-7.95977
112,-657,3.55005,5.37024,0,0,0,0,0,0,0,-1,1336,1681,3.55,-5.37018
119,-657,6.51404,28.0552,0.0931624,0.0205498,-0.111644,0.174255,-0.0605433,-0.628193,0.140761,0.0491155,1343,1681,6.514,-28.0552
126,-657,6.58228,28.1045,0,0,0,0,0,0,0,-1,1350,1681,6.58229,-28.1045
133,-657,7.02771,28.157,0,0,0,0,0,0,0,-1,1357,1681,7.02772,-28.157
140,-657,7.3219,28.1868,0.0919377,0.0348433,-0.125617,0.19221,-0.065429,-0.673668,0.154635,0.0469096,1364,1681,7.32192,-28.1867
147,-657,7.53699,28.0359,0,0,0,0,0,0,0,-1,1371,1681,7.53703,-28.0359
154,-657,7.94946,27.609,0,0,0,0,0,0,0,-1,1378,1681,7.94943,-27.609
161,-657,4.2926,24.9226,0,0,0,0,0,0,0,-1,1385,1681,4.29264,-24.9226
168,-657,5.21643,0.70105,0,0,0,0,0,0,0,-1,1392,1681,5.21648,-0.7011
175,-657,5.52771,0.649048,0,0,0,0,0,0,0,-1,1399,1681,5.52774,-0.649019
182,-657,5.73999,1.02612,0,0,0,0,0,0,0,-1,1406,1681,5.73995,-1.02611
189,-657,5.92126,1.44116,0,0,0,0,0,0,0,-1,1413,1681,5.92126,-1.44115
196,-657,4.92834,9.59021,0,0,0,0,0,0,0,-1,1420,1681,4.9284,-9.59018
203,-657,6.26343,5.16492,0,0,0,0,0,0,0,-1,1427,1681,6.26345,-5.16488
210,-657,3.9856,5.28088,0,0,0,0,0,0,0,-1,1434,1681,3.98555,-5.28084
217,-657,3.95178,5.2843,0,0,0,0,0,0,0,-1,1441,1681,3.95174,-5.28431
224,-657,6.66736,-0.250244,0,0,0,0,0,0,0,-1,1448,1681,6.66737,0.250229
231,-657,6.85498,-1.70752,0,0,0,0,0,0,0,-1,1455,1681,6.855,1.70758
238,-657,5.34143,-2.89819,0,0,0,0,0,0,0,-1,1462,1681,5.34143,2.89813
245,-657,8.66003,-0.102783,0,0,0,0,0,0,0,-1,1469,1681,8.66,0.102824
252,-657,4.78955,0.623779,0,0,0,0,0,0,0,-1,1476,1681,4.7895,-0.623826
259,-657,2.61523,4.31909,0,0,0,0,0,0,0,-1,1483,1681,2.61523,-4.31908
266,-657,5.35437,11.4742,0,0,0,0,0,0,0,-1,1490,1681,5.35441,-11.4742
273,-657,7.8158,26.2588,0,0,0,0,0,0,0,-1,1497,1681,7.81574,-26.2588
280,-657,7.78796,26.2626,0.00654089,0.00266428,-0.00104069,0.0068026,0.00240258,-0.246368,0.00398352,0.0497664,1504,1681,7.78792,-26.2626
287,-657,7.97009,26.0662,0.00569402,0.00285546,-0.000700445,0.00585745,0.00269203,-0.229226,0.00338548,0.0343274,1511,1681,7.9701,-26.0662
294,-657,8.09705,25.8857,0.00491135,0.00265032,-0.000509596,0.0050209,0.00254078,-0.211745,0.00289889,0.0244534,1518,1681,8.09702,-25.8857
301,-657,8.06262,25.7152,0.0042915,0.00231044,-0.000349886,0.00435148,0.00225046,-0.169775,0.00251282,0.0174782,1525,1681,8.0626,-25.7153
308,-657,8.08862,25.4952,0.00357921,0.00211084,-0.00018389,0.00360189,0.00208817,-0.122709,0.00208835,0.0129574,1532,1681,8.08865,-25.4953
315,-657,8.11597,25.2677,0.00289128,0.00211597,-9.03586e-05,0.00290167,0.00210558,-0.114501,0.00173121,0.0109357,1539,1681,8.11599,-25.2676
322,-657,8.13989,25.0428,0.00231848,0.00232935,-0.000109154,0.0024332,0.00221463,-0.810259,0.00155441,0.0126084,1546,1681,8.13988,-25.0428
329,-657,8.13147,24.8401,0.00181694,0.00245214,-0.000142537,0.00248266,0.00178642,-1.35987,0.00147871,0.0190762,1553,1681,8.13142,-24.84
336,-657,8.13794,24.6218,0.00131532,0.00241065,-4.84526e-05,0.00241279,0.00131319,-1.52668,0.00139484,0.0172348,1560,1681,8.13796,-24.6218
343,-657,8.16492,24.3986,0.000916254,0.00221505,5.59563e-05,0.00221746,0.000913848,1.52782,0.00128682,0.0129956,1567,1681,8.16489,-24.3985
350,-657,8.16272,24.1722,0.000688487,0.00180238,0.000213835,0.00184202,0.000648847,1.3875,0.00107885,0.0151029,1574,1681,8.1627,-24.1722
357,-657,8.14307,23.9218,0.000562016,0.00119855,0.000480309,0.00145647,0.000304098,1.078,0.000887162,0.0148798,1581,1681,8.14301,-23.9217
364,-657,8.15527,23.6912,0.000354873,0.000296602,0.000938437,0.00126463,-0.000613152,0.76988,0.00110567,0.0109243,1588,1681,8.15529,-23.6911
371,-657,8.15503,23.4542,0.000192399,-0.000711618,0.0014038,0.00121516,-0.00173438,0.629645,0.00171169,0.0147841,1595,1681,8.15499,-23.4542
378,-657,8.12683,23.1796,0.000110265,-0.00188413,0.00193462,0.00128957,-0.00306344,0.547433,0.00258183,0.0150229,1602,1681,8.12679,-23.1796
385,-657,8.10547,22.899,0.000130699,-0.00317608,0.00242495,0.00141228,-0.00445766,0.486187,0.00353778,0.0134245,1609,1681,8.10552,-22.899
392,-657,8.11035,22.6597,6.76317e-05,-0.00461958,0.00294775,0.00148989,-0.00604183,0.449541,0.00460556,0.0134092,1616,1681,8.11029,-22.6597
399,-657,8.13525,22.413,-6.38397e-05,-0.00596344,0.00337815,0.00147113,-0.00749841,0.426493,0.00555464,0.0129848,1623,1681,8.13522,-22.4129
406,-657,8.12073,22.1385,-1.34242e-05,-0.00697942,0.00365477,0.0015522,-0.00854504,0.404729,0.00627838,0.0143638,1630,1681,8.12075,-22.1386
413,-657,8.09802,21.8511,4.15131e-05,-0.00770079,0.003726,0.00154334,-0.00920261,0.383147,0.00670896,0.0146292,1637,1681,8.09803,-21.8511
420,-657,8.10522,21.554,0.000520345,-0.00814264,0.00383131,0.00197165,-0.00959395,0.3621,0.00714445,0.0168736,1644,1681,8.10522,-21.5539
427,-657,8.05933,21.2334,0.00207609,-0.00893692,0.00386854,0.00329916,-0.01016,0.306215,0.00810019,0.020917,1651,1681,8.05934,-21.2334
434,-657,8.1123,21.0043,0.00361628,-0.00940551,0.00364968,0.00456943,-0.0103587,0.255453,0.00883213,0.0287006,1658,1681,8.1123,-21.0042
441,-657,8.01929,20.9296,0,0,0,0,0,0,0,-1,1665,1681,8.01929,-20.9295
448,-657,7.86707,20.663,0,0,0,0,0,0,0,-1,1672,1681,7.86711,-20.663
455,-657,5.12244,16.671,0,0,0,0,0,0,0,-1,1679,1681,5.12248,-16.6711
462,-657,6.51733,15.4801,0,0,0,0,0,0,0,-1,1686,1681,6.51737,-15.4801
469,-657,7.38184,17.5225,0,0,0,0,0,0,0,-1,1693,1681,7.38188,-17.5224
476,-657,7.34668,19.126,0,0,0,0,0,0,0,-1,1700,1681,7.34674,-19.1259
483,-657,8.24194,18.7671,0,0,0,0,0,0,0,-1,1707,1681,8.24193,-18.767
490,-657,8.83167,18.0902,0,0,0,0,0,0,0,-1,1714,1681,8.83161,-18.0902
497,-657,9.20862,17.8127,0,0,0,0,0,0,0,-1,1721,1681,9.2086,-17.8127
504,-657,0,0,0,0,0,0,0,0,0,-1,1728,1681,0,0
511,-657,0,0,0,0,0,0,0,0,0,-1,1735,1681,0,0
518,-657,0,0,0,0,0,0,0,0,0,-1,1742,1681,0,0
525,-657,0,0,0,0,0,0,0,0,0,-1,1749,1681,0,0
532,-657,0,0,0,0,0,0,0,0,0,-1,1756,1681,0,0
539,-657,0,0,0,0,0,0,0,0,0,-1,1763,1681,0,0
546,-657,0,0,0,0,0,0,0,0,0,-1,1770,1681,0,0
553,-657,0,0,0,0,0,0,0,0,0,-1,1777,1681,0,0
560,-657,0,0,0,0,0,0,0,0,0,-1,1784,1681,0,0
567,-657,0,0,0,0,0,0,0,0,0,-1,1791,1681,0,0
574,-657,0,0,0,0,0,0,0,0,0,-1,1798,1681,0,0
581,-657,0,0,0,0,0,0,0,0,0,-1,1805,1681,0,0
588,-657,0,0,0,0,0,0,0,0,0,-1,1812,1681,0,0
595,-657,0,0,0,0,0,0,0,0,0,-1,1819,1681,0,0
602,-657,0,0,0,0,0,0,0,0,0,-1,1826,1681,0,0
609,-657,0,0,0,0,0,0,0,0,0,-1,1833,1681,0,0
616,-657,0,0,0,0,0,0,0,0,0,-1,1840,1681,0,0
623,-657,0,0,0,0,0,0,0,0,0,-1,1847,1681,0,0
630,-657,0,0,0,0,0,0,0,0,0,-1,1854,1681,0,0
637,-657,0,0,0,0,0,0,0,0,0,-1,1861,1681,0,0
644,-657,0,0,0,0,0,0,0,0,0,-1,1868,1681,0,0
651,-657,0,0,0,0,0,0,0,0,0,-1,1875,1681,0,0
658,-657,0,0,0,0,0,0,0,0,0,-1,1882,1681,0,0
665,-657,0,0,0,0,0,0,0,0,0,-1,1889,1681,0,0
672,-657,0,0,0,0,0,0,0,0,0,-1,1896,1681,0,0
679,-657,0,0,0,0,0,0,0,0,0,-1,1903,1681,0,0
686,-657,0,0,0,0,0,0,0,0,0,-1,1910,1681,0,0
693,-657,0,0,0,0,0,0,0,0,0,-1,1917,1681,0,0
700,-657,0,0,0,0,0,0,0,0,0,-1,1924,1681,0,0
707,-657,0,0,0,0,0,0,0,0,0,-1,1931,1681,0,0
714,-657,0,0,0,0,0,0,0,0,0,-1,1938,1681,0,0
721,-657,0,0,0,0,0,0,0,0,0,-1,1945,1681,0,0
728,-657,0,0,0,0,0,0,0,0,0,-1,1952,1681,0,0
735,-657,0,0,0,0,0,0,0,0,0,-1,1959,1681,0,0
742,-657,0,0,0,0,0,0,0,0,0,-1,1966,1681,0,0
749,-657,0,0,0,0,0,0,0,0,0,-1,1973,1681,0,0
756,-657,0,0,0,0,0,0,0,0,0,-1,1980,1681,0,0
763,-657,0,0,0,0,0,0,0,0,0,-1,1987,1681,0,0
770,-657,0,0,0,0,0,0,0,0,0,-1,1994,1681,0,0
777,-657,0,0,0,0,0,0,0,0,0,-1,2001,1681,0,0
784,-657,0,0,0,0,0,0,0,0,0,-1,2008,1681,0,0
791,-657,0,0,0,0,0,0,0,0,0,-1,2015,1681,0,0
798,-657,0,0,0,0,0,0,0,0,0,-1,2022,1681,0,0
805,-657,0,0,0,0,0,0,0,0,0,-1,2029,1681,0,0
812,-657,0,0,0,0,0,0,0,0,0,-1,2036,1681,0,0
-700,-664,0,0,0,0,0,0,0,0,0,-1,524,1688,0,0
-693,-664,0,0,0,0,0,0,0,0,0,-1,531,1688,0,0
-686,-664,0,0,0,0,0,0,0,0,0,-1,538,1688,0,0
-679,-664,0,0,0,0,0,0,0,0,0,-1,545,1688,0,0
-672,-664,0,0,0,0,0,0,0,0,0,-1,552,1688,0,0
-665,-664,0,0,0,0,0,0,0,0,0,-1,559,1688,0,0
-658,-664,0,0,0,0,0,0,0,0,0,-1,566,1688,0,0
-651,-664,0,0,0,0,0,0,0,0,0,-1,573,1688,0,0
-644,-664,0,0,0,0,0,0,0,0,0,-1,580,1688,0,0
-637,-664,0,0,0,0,0,0,0,0,0,-1,587,1688,0,0
-630,-664,0,0,0,0,0,0,0,0,0,-1,594,1688,0,0
-623,-664,0,0,0,0,0,0,0,0,0,-1,601,1688,0,0
-616,-664,0,0,0,0,0,0,0,0,0,-1,608,1688,0,0
-609,-664,0,0,0,0,0,0,0,0,0,-1,615,1688,0,0
-602,-664,0,0,0,0,0,0,0,0,0,-1,622,1688,0,0
-595,-664,0,0,0,0,0,0,0,0,0,-1,629,1688,0,0
-588,-664,0,0,0,0,0,0,0,0,0,-1,636,1688,0,0
-581,-664,0,0,0,0,0,0,0,0,0,-1,643,1688,0,0
-574,-664,0,0,0,0,0,0,0,0,0,-1,650,1688,0,0
-567,-664,0,0,0,0,0,0,0,0,0,-1,657,1688,0,0
-560,-664,0,0,0,0,0,0,0,0,0,-1,664,1688,0,0
-553,-664,0,0,0,0,0,0,0,0,0,-1,671,1688,0,0
-546,-664,0,0,0,0,0,0,0,0,0,-1,678,1688,0,0
-539,-664,0,0,0,0,0,0,0,0,0,-1,685,1688,0,0
-532,-664,0,0,0,0,0,0,0,0,0,-1,692,1688,0,0
-525,-664,0,0,0,0,0,0,0,0,0,-1,699,1688,0,0
-518,-664,0,0,0,0,0,0,0,0,0,-1,706,1688,0,0
-511,-664,0,0,0,0,0,0,0,0,0,-1,713,1688,0,0
-504,-664,0,0,0,0,0,0,0,0,0,-1,720,1688,0,0
-497,-664,0,0,0,0,0,0,0,0,0,-1,727,1688,0,0
-490,-664,0,0,0,0,0,0,0,0,0,-1,734,1688,0,0
-483,-664,0,0,0,0,0,0,0,0,0,-1,741,1688,0,0
-476,-664,0,0,0,0,0,0,0,0,0,-1,748,1688,0,0
-469,-664,0,0,0,0,0,0,0,0,0,-1,755,1688,0,0
-462,-664,0,0,0,0,0,0,0,0,0,-1,762,1688,0,0
-455,-664,0,0,0,0,0,0,0,0,0,-1,769,1688,0,0
-448,-664,0,0,0,0,0,0,0,0,0,-1,776,1688,0,0
-441,-664,0,0,0,0,0,0,0,0,0,-1,783,1688,0,0
-434,-664,0,0,0,0,0,0,0,0,0,-1,790,1688,0,0
-427,-664,0,0,0,0,0,0,0,0,0,-1,797,1688,0,0
-420,-664,0,0,0,0,0,0,0,0,0,-1,804,1688,0,0
-413,-664,0,0,0,0,0,0,0,0,0,-1,811,1688,0,0
-406,-664,0,0,0,0,0,0,0,0,0,-1,818,1688,0,0
-399,-664,0,0,0,0,0,0,0,0,0,-1,825,1688,0,0
-392,-664,0,0,0,0,0,0,0,0,0,-1,832,1688,0,0
-385,-664,0,0,0,0,0,0,0,0,0,-1,839,1688,0,0
-378,-664,0,0,0,0,0,0,0,0,0,-1,846,1688,0,0
-371,-664,-1.61676,5.92737,0,0,0,0,0,0,0,-1,853,1688,-1.61675,-5.92735
-364,-664,-3.901,5.87024,0,0,0,0,0,0,0,-1,860,1688,-3.90097,-5.87027
-357,-664,-4.81012,4.53479,0,0,0,0,0,0,0,-1,867,1688,-4.81012,-4.5348
-350,-664,-5.7193,3.19934,0,0,0,0,0,0,0,-1,874,1688,-5.71927,-3.19932
-343,-664,2.96515,14.8083,0,0,0,0,0,0,0,-1,881,1688,2.96517,-14.8083
-336,-664,2.79852,15.5814,0,0,0,0,0,0,0,-1,888,1688,2.79853,-15.5814
-329,-664,3.0072,16.3878,0,0,0,0,0,0,0,-1,895,1688,3.00721,-16.3878
-322,-664,4.74896,19.5612,0,0,0,0,0,0,0,-1,902,1688,4.74897,-19.5612
-315,-664,4.82306,19.646,0.000454301,-0.0049062,9.01947e-05,0.000455818,-0.00490772,0.0168194,0.00343385,0.0460057,909,1688,4.82307,-19.646
-308,-664,4.83606,19.7261,-0.000352683,-0.00587524,-0.000700966,-0.000265101,-0.00596282,-0.124302,0.00388986,0.0468667,916,1688,4.83605,-19.7261
-301,-664,4.82532,20.1801,0,0,0,0,0,0,0,-1,923,1688,4.82529,-20.18
-294,-664,4.90735,20.5867,-0.00136969,-0.00545504,-0.00153264,-0.000858639,-0.00596608,-0.32185,0.00372432,0.048026,930,1688,4.90735,-20.5866
-287,-664,4.96509,20.8893,-0.00161968,-0.00462125,-0.00173818,-0.000824028,-0.0054169,-0.42928,0.00337034,0.0335007,937,1688,4.9651,-20.8893
-280,-664,4.85553,21.0978,-0.00176707,-0.00431442,-0.00155306,-0.0010322,-0.00504929,-0.441958,0.00308032,0.0227803,944,1688,4.85555,-21.0978
-273,-664,4.90314,21.3466,-0.0015462,-0.00380999,-0.00136765,-0.000902803,-0.00445339,-0.439718,0.00271843,0.016472,951,1688,4.90315,-21.3465
-266,-664,4.86816,21.6387,-0.0013556,-0.00316386,-0.00124117,-0.000724166,-0.00379529,-0.470614,0.00232668,0.0219157,958,1688,4.86816,-21.6386
-259,-664,4.85663,21.9326,-0.00107674,-0.00242031,-0.00093286,-0.000598947,-0.0028981,-0.473342,0.00176659,0.0187286,965,1688,4.85664,-21.9327
-252,-664,4.87299,22.2444,-0.000723179,-0.00183275,-0.000601108,-0.000459967,-0.00209596,-0.412727,0.00127201,0.0150161,972,1688,4.87296,-22.2444
-245,-664,4.82904,22.5571,-0.000350885,-0.00120763,-0.000284041,-0.000265271,-0.00129324,-0.292755,0.000788751,0.0191425,979,1688,4.82905,-22.5571
-238,-664,4.8056,22.8159,-3.67752e-05,-0.00073311,-3.61254e-06,-3.67564e-05,-0.000733129,-0.00518775,0.000476973,0.022386,986,1688,4.80558,-22.8159
-231,-664,4.79816,23.0885,0.000311601,-0.00035467,0.000281433,0.000414566,-0.000457636,0.350734,0.00050377,0.018424,993,1688,4.79813,-23.0885
-224,-664,4.82013,23.3628,0.000729663,-8.13915e-05,0.00047288,0.000947087,-0.000298815,0.430962,0.000751079,0.0138461,1000,1688,4.82011,-23.3628
-217,-664,4.83301,23.6044,0.00102138,-0.000196403,0.000552769,0.00123487,-0.000409888,0.368561,0.000988615,0.0112627,1007,1688,4.83302,-23.6043
-210,-664,4.82965,23.8344,0.000949901,-0.000652993,0.000914664,0.00136457,-0.00106766,0.425638,0.00140773,0.011341,1014,1688,4.82967,-23.8344
-203,-664,4.80994,24.0607,0.000617343,-0.000995176,0.00128861,0.00133114,-0.00170897,0.505854,0.00175972,0.0129121,1021,1688,4.80992,-24.0606
-196,-664,4.81506,24.2964,0.000397811,-0.00176398,0.00161037,0.00125641,-0.00262258,0.489828,0.00228537,0.0133561,1028,1688,4.81508,-24.2964
-189,-664,4.8219,24.5454,-3.16114e-05,-0.00256307,0.00198426,0.00105624,-0.00365093,0.501493,0.00285199,0.00941954,1035,1688,4.82189,-24.5454
-182,-664,4.82544,24.7692,-0.000516746,-0.0031658,0.00243672,0.000932171,-0.00461472,0.536452,0.00342969,0.00959728,1042,1688,4.82547,-24.7692
-175,-664,4.83618,24.9637,-0.00104332,-0.00353344,0.00294864,0.00091235,-0.00548911,0.585629,0.00399837,0.0123902,1049,1688,4.83619,-24.9638
-168,-664,4.8418,25.1827,-0.00158345,-0.00383382,0.00352043,0.000987242,-0.00640451,0.630721,0.00463394,0.0130958,1056,1688,4.84183,-25.1828
-161,-664,4.84448,25.4227,-0.00208343,-0.00392156,0.00404131,0.001142,-0.00714699,0.673591,0.0051874,0.00992145,1063,1688,4.84448,-25.4227
-154,-664,4.87366,25.6284,-0.00246785,-0.00359441,0.00445877,0.00146307,-0.00752534,0.722566,0.00556902,0.00913973,1070,1688,4.87365,-25.6284
-147,-664,4.87817,25.8472,-0.00270992,-0.00283284,0.00466539,0.00189441,-0.00743718,0.778812,0.00569559,0.0111906,1077,1688,4.87812,-25.8472
-140,-664,4.89404,26.0836,-0.00275644,-0.00159275,0.00476363,0.00262443,-0.00697363,0.846168,0.00572794,0.0128011,1084,1688,4.89408,-26.0836
-133,-664,4.85889,26.2994,-0.00255568,-4.31961e-05,0.00484526,0.00370602,-0.0063049,0.912241,0.00584437,0.0145484,1091,1688,4.85893,-26.2994
-126,-664,4.97021,26.6549,-0.00190816,0.00209783,0.00508658,0.00556157,-0.00537191,0.972965,0.00631277,0.0267179,1098,1688,4.97024,-26.6549
-119,-664,5.06677,26.8475,-0.00102054,0.00400716,0.00502033,0.00710786,-0.00412123,1.01752,0.00655911,0.0392409,1105,1688,5.06677,-26.8475
-112,-664,5.06458,27.1023,0,0,0,0,0,0,0,-1,1112,1688,5.06453,-27.1023
-105,-664,4.48108,21.4276,0,0,0,0,0,0,0,-1,1119,1688,4.48104,-21.4276
-98,-664,4.98584,19.8645,0,0,0,0,0,0,0,-1,1126,1688,4.98586,-19.8645
-91,-664,5.41931,25.6302,0,0,0,0,0,0,0,-1,1133,1688,5.41932,-25.6302
-84,-664,3.48389,16.6913,0,0,0,0,0,0,0,-1,1140,1688,3.4839,-16.6913
-77,-664,4.52014,11.2122,0,0,0,0,0,0,0,-1,1147,1688,4.5202,-11.2122
-70,-664,4.20374,8.24524,0,0,0,0,0,0,0,-1,1154,1688,4.20379,-8.24519
-63,-664,-4.677,2.40503,0,0,0,0,0,0,0,-1,1161,1688,-4.67702,-2.40498
-56,-664,-4.66504,3.32727,0,0,0,0,0,0,0,-1,1168,1688,-4.6651,-3.32724
-49,-664,-2.54297,3.31848,0,0,0,0,0,0,0,-1,1175,1688,-2.54297,-3.31852
-42,-664,-0.359253,4.38684,0,0,0,0,0,0,0,-1,1182,1688,-0.359261,-4.38685
-35,-664,-0.705566,3.55017,0,0,0,0,0,0,0,-1,1189,1688,-0.705567,-3.55023
-28,-664,-1.54236,10.2538,0,0,0,0,0,0,0,-1,1196,1688,-1.54236,-10.2538
-21,-664,4.89539,28.8873,0,0,0,0,0,0,0,-1,1203,1688,4.8954,-28.8874
-14,-664,5.26245,28.8212,0.043545,0.0202719,-0.00790449,0.0459758,0.0178411,-0.298343,0.026765,0.0485749,1210,1688,5.2625,-28.8212
-7,-664,4.87219,28.8273,0.0430364,0.0204048,-0.00883736,0.0460784,0.0173628,-0.331516,0.0268712,0.047578,1217,1688,4.87225,-28.8272
0,-664,6.25818,28.8107,0,0,0,0,0,0,0,-1,1224,1688,6.25817,-28.8107
7,-664,7.55505,30.309,0.0474688,0.028124,-0.00715266,0.0498262,0.0257666,-0.318371,0.0287728,0.045868,1231,1688,7.55505,-30.3089
14,-664,7.48608,29.8558,0.0519884,0.036337,-0.00516459,0.053539,0.0347865,-0.29167,0.0313694,0.0421453,1238,1688,7.48612,-29.8558
21,-664,7.55969,29.7253,0.0561541,0.0461182,-0.00326805,0.0571245,0.0451478,-0.288634,0.034785,0.0451811,1245,1688,7.55969,-29.7253
28,-664,7.65515,29.6016,0,0,0,0,0,0,0,-1,1252,1688,7.65514,-29.6015
35,-664,6.48083,29.6409,0,0,0,0,0,0,0,-1,1259,1688,6.4808,-29.6408
42,-664,4.82764,18.9138,0,0,0,0,0,0,0,-1,1266,1688,4.82759,-18.9138
49,-664,4.71484,18.6282,0.100341,0.0731352,0.00559915,0.101449,0.072028,0.195236,0.0602687,0.0452373,1273,1688,4.71482,-18.6282
56,-664,6.26526,29.9188,0.109084,0.0749549,0.00154423,0.109154,0.0748852,0.0451241,0.0644578,0.0483319,1280,1688,6.26528,-29.9189
63,-664,6.50708,29.7998,0,0,0,0,0,0,0,-1,1287,1688,6.50706,-29.7999
70,-664,5.15662,17.8384,0,0,0,0,0,0,0,-1,1294,1688,5.15657,-17.8384
77,-664,5.07214,16.0127,0.121818,0.0613982,-0.0206341,0.128192,0.0550239,-0.299621,0.0742586,0.0470959,1301,1688,5.07216,-16.0127
84,-664,7.56348,27.3911,0.120972,0.0511695,-0.0308511,0.132653,0.0394888,-0.361938,0.0786495,0.0457227,1308,1688,7.56353,-27.3911
91,-664,4.26685,12.1664,0,0,0,0,0,0,0,-1,1315,1688,4.26681,-12.1664
98,-664,3.73499,9.77795,0,0,0,0,0,0,0,-1,1322,1688,3.73499,-9.7779
105,-664,3.55554,7.71936,0,0,0,0,0,0,0,-1,1329,1688,3.55559,-7.7194
112,-664,6.43713,28.2286,0.0905515,0.0180168,-0.0779058,0.140218,-0.0316497,-0.567552,0.105621,0.0474849,1336,1688,6.43708,-28.2287
119,-664,6.49146,28.2222,0.0833062,0.0146278,-0.086106,0.141668,-0.0437337,-0.595662,0.111909,0.0497445,1343,1688,6.49142,-28.2222
126,-664,6.5614,28.1981,0,0,0,0,0,0,0,-1,1350,1688,6.5614,-28.1981
133,-664,7.09656,28.5106,0,0,0,0,0,0,0,-1,1357,1688,7.09659,-28.5107
140,-664,7.4491,28.4015,0,0,0,0,0,0,0,-1,1364,1688,7.44915,-28.4014
147,-664,7.82397,28.4015,0,0,0,0,0,0,0,-1,1371,1688,7.82393,-28.4015
154,-664,4.76721,26.2594,0,0,0,0,0,0,0,-1,1378,1688,4.76723,-26.2594
161,-664,4.60132,1.56238,0,0,0,0,0,0,0,-1,1385,1688,4.60134,-1.56233
168,-664,5.172,1.25488,0,0,0,0,0,0,0,-1,1392,1688,5.17203,-1.25484
175,-664,5.58313,1.16467,0,0,0,0,0,0,0,-1,1399,1688,5.58317,-1.16466
182,-664,5.74268,1.41113,0,0,0,0,0,0,0,-1,1406,1688,5.74263,-1.41115
189,-664,5.87744,1.87061,0,0,0,0,0,0,0,-1,1413,1688,5.87745,-1.87065
196,-664,6.7594,5.97473,0,0,0,0,0,0,0,-1,1420,1688,6.75943,-5.97478
203,-664,5.38452,5.22034,0,0,0,0,0,0,0,-1,1427,1688,5.38453,-5.2203
210,-664,5.25549,6.45715,0,0,0,0,0,0,0,-1,1434,1688,5.25549,-6.45721
217,-664,5.72009,6.73975,0,0,0,0,0,0,0,-1,1441,1688,5.72014,-6.73972
224,-664,5.05725,7.42908,0,0,0,0,0,0,0,-1,1448,1688,5.05723,-7.42912
231,-664,5.13318,7.60864,0,0,0,0,0,0,0,-1,1455,1688,5.13313,-7.60862
238,-664,4.23193,6.45471,0,0,0,0,0,0,0,-1,1462,1688,4.23197,-6.45476
245,-664,4.42004,6.80896,0,0,0,0,0,0,0,-1,1469,1688,4.4201,-6.80901
252,-664,3.67346,6.85461,0,0,0,0,0,0,0,-1,1476,1688,3.6734,-6.85462
259,-664,4.55823,11.7435,0,0,0,0,0,0,0,-1,1483,1688,4.55826,-11.7435
266,-664,7.55835,26.0309,0,0,0,0,0,0,0,-1,1490,1688,7.55833,-26.0308
273,-664,7.77478,26.303,0,0,0,0,0,0,0,-1,1497,1688,7.77474,-26.303
280,-664,7.77991,26.1777,0.00493989,0.00119872,-0.000544894,0.00501764,0.00112097,-0.141726,0.0030411,0.0292862,1504,1688,7.77991,-26.1777
287,-664,7.78992,25.9919,0.00441432,0.00156618,-0.000417559,0.00447427,0.00150622,-0.142611,0.00262878,0.0199038,1511,1688,7.7899,-25.9919
294,-664,7.82874,25.8369,0.00385452,0.00158351,-0.000341472,0.00390475,0.00153327,-0.14606,0.00227166,0.0150214,1518,1688,7.8287,-25.8369
301,-664,7.87683,25.6771,0.00335987,0.00147314,-0.000280422,0.00340067,0.00143235,-0.14447,0.00197149,0.0110897,1525,1688,7.87686,-25.6771
308,-664,7.90967,25.4583,0.00277322,0.00146014,-0.0001849,0.00279876,0.0014346,-0.137258,0.00161604,0.0110078,1532,1688,7.90972,-25.4583
315,-664,7.91638,25.2505,0.00219206,0.00150998,-9.61186e-05,0.00220534,0.0014967,-0.137358,0.00130007,0.011582,1539,1688,7.91635,-25.2505
322,-664,7.93848,25.0603,0.00166436,0.00167467,-6.27736e-05,0.0017325,0.00160653,-0.826385,0.00111538,0.0148174,1546,1688,7.93848,-25.0603
329,-664,7.92383,24.8534,0.00119207,0.0016589,-7.91576e-06,0.00165904,0.00119194,-1.55385,0.000987849,0.0174189,1553,1688,7.92383,-24.8534
336,-664,7.9104,24.6167,0.000704494,0.00146529,0.000274291,0.00155387,0.000615916,1.25844,0.000903525,0.0144489,1560,1688,7.91045,-24.6166
343,-664,7.92676,24.3889,0.000290765,0.00103495,0.000610101,0.00137748,-5.17578e-05,1.05923,0.000936048,0.0112402,1567,1688,7.92676,-24.3889
350,-664,7.91626,24.168,7.44437e-05,0.000395467,0.000978218,0.00122625,-0.000756344,0.866716,0.00115532,0.0123829,1574,1688,7.91624,-24.168
357,-664,7.89624,23.9263,-1.73511e-05,-0.000517794,0.00146546,0.0012191,-0.00175425,0.700841,0.00172591,0.012714,1581,1688,7.89623,-23.9263
364,-664,7.91345,23.691,-0.000189087,-0.00169247,0.00212888,0.00131692,-0.00319847,0.615685,0.00268134,0.0111301,1588,1688,7.9135,-23.691
371,-664,7.92407,23.4486,-0.000305091,-0.00297555,0.00279721,0.00145923,-0.00473987,0.562718,0.00374239,0.013784,1595,1688,7.92411,-23.4486
378,-664,7.88928,23.1925,-0.000328276,-0.00442899,0.00353856,0.00171103,-0.0064683,0.522819,0.00498148,0.0130441,1602,1688,7.88923,-23.1926
385,-664,7.87146,22.9348,-0.000249648,-0.00596744,0.00423919,0.00200458,-0.00822167,0.488731,0.00625727,0.0131685,1609,1688,7.87141,-22.9348
392,-664,7.82727,22.6864,-0.000231413,-0.00755711,0.00490095,0.00222422,-0.0100127,0.464489,0.00752692,0.0160875,1616,1688,7.82723,-22.6864
399,-664,7.85156,22.4015,-0.000266828,-0.00913692,0.00542188,0.00230287,-0.0117066,0.44259,0.00867453,0.0140695,1623,1688,7.85162,-22.4014
406,-664,7.88428,22.1354,-8.02115e-05,-0.0103825,0.00574878,0.00248762,-0.0129504,0.420085,0.00957116,0.015598,1630,1688,7.88432,-22.1354
413,-664,7.8916,21.8334,7.6297e-05,-0.0112869,0.0058293,0.0025348,-0.0137454,0.399114,0.010115,0.0184852,1637,1688,7.89161,-21.8334
420,-664,7.86719,21.5432,0.000689365,-0.0118178,0.00594012,0.00306088,-0.0141893,0.379848,0.0106278,0.0377633,1644,1688,7.86725,-21.5432
427,-664,7.88306,21.2349,0,0,0,0,0,0,0,-1,1651,1688,7.8831,-21.2349
434,-664,7.8877,20.8324,0,0,0,0,0,0,0,-1,1658,1688,7.88772,-20.8323
441,-664,7.88513,20.3176,0,0,0,0,0,0,0,-1,1665,1688,7.88513,-20.3176
448,-664,8.24695,21.0626,0,0,0,0,0,0,0,-1,1672,1688,8.24695,-21.0626
455,-664,7.53198,11.3838,0,0,0,0,0,0,0,-1,1679,1688,7.53195,-11.3838
462,-664,4.3147,4.25439,0,0,0,0,0,0,0,-1,1686,1688,4.31467,-4.25435
469,-664,6.05469,7.49341,0,0,0,0,0,0,0,-1,1693,1688,6.05474,-7.49339
476,-664,9.76514,11.5648,0,0,0,0,0,0,0,-1,1700,1688,9.76511,-11.5648
483,-664,8.41895,10.9768,0,0,0,0,0,0,0,-1,1707,1688,8.41897,-10.9769
490,-664,3.90771,13.2842,0,0,0,0,0,0,0,-1,1714,1688,3.90776,-13.2841
497,-664,0,0,0,0,0,0,0,0,0,-1,1721,1688,0,0
504,-664,0,0,0,0,0,0,0,0,0,-1,1728,1688,0,0
511,-664,0,0,0,0,0,0,0,0,0,-1,1735,1688,0,0
518,-664,0,0,0,0,0,0,0,0,0,-1,1742,1688,0,0
525,-664,0,0,0,0,0,0,0,0,0,-1,1749,1688,0,0
532,-664,0,0,0,0,0,0,0,0,0,-1,1756,1688,0,0
539,-664,0,0,0,0,0,0,0,0,0,-1,1763,1688,0,0
546,-664,0,0,0,0,0,0,0,0,0,-1,1770,1688,0,0
553,-664,0,0,0,0,0,0,0,0,0,-1,1777,1688,0,0
560,-664,0,0,0,0,0,0,0,0,0,-1,1784,1688,0,0
567,-664,0,0,0,0,0,0,0,0,0,-1,1791,1688,0,0
574,-664,0,0,0,0,0,0,0,0,0,-1,1798,1688,0,0
581,-664,0,0,0,0,0,0,0,0,0,-1,1805,1688,0,0
588,-664,0,0,0,0,0,0,0,0,0,-1,1812,1688,0,0
595,-664,0,0,0,0,0,0,0,0,0,-1,1819,1688,0,0
602,-664,0,0,0,0,0,0,0,0,0,-1,1826,1688,0,0
609,-664,0,0,0,0,0,0,0,0,0,-1,1833,1688,0,0
616,-664,0,0,0,0,0,0,0,0,0,-1,1840,1688,0,0
623,-664,0,0,0,0,0,0,0,0,0,-1,1847,1688,0,0
630,-664,0,0,0,0,0,0,0,0,0,-1,1854,1688,0,0
637,-664,0,0,0,0,0,0,0,0,0,-1,1861,1688,0,0
644,-664,0,0,0,0,0,0,0,0,0,-1,1868,1688,0,0
651,-664,0,0,0,0,0,0,0,0,0,-1,1875,1688,0,0
658,-664,0,0,0,0,0,0,0,0,0,-1,1882,1688,0,0
665,-664,0,0,0,0,0,0,0,0,0,-1,1889,1688,0,0
672,-664,0,0,0,0,0,0,0,0,0,-1,1896,1688,0,0
679,-664,0,0,0,0,0,0,0,0,0,-1,1903,1688,0,0
686,-664,0,0,0,0,0,0,0,0,0,-1,1910,1688,0,0
693,-664,0,0,0,0,0,0,0,0,0,-1,1917,1688,0,0
700,-664,0,0,0,0,0,0,0,0,0,-1,1924,1688,0,0
707,-664,0,0,0,0,0,0,0,0,0,-1,1931,1688,0,0
714,-664,0,0,0,0,0,0,0,0,0,-1,1938,1688,0,0
721,-664,0,0,0,0,0,0,0,0,0,-1,1945,1688,0,0
728,-664,0,0,0,0,0,0,0,0,0,-1,1952,1688,0,0
735,-664,0,0,0,0,0,0,0,0,0,-1,1959,1688,0,0
742,-664,0,0,0,0,0,0,0,0,0,-1,1966,1688,0,0
749,-664,0,0,0,0,0,0,0,0,0,-1,1973,1688,0,0
756,-664,0,0,0,0,0,0,0,0,0,-1,1980,1688,0,0
763,-664,0,0,0,0,0,0,0,0,0,-1,1987,1688,0,0
770,-664,0,0,0,0,0,0,0,0,0,-1,1994,1688,0,0
777,-664,0,0,0,0,0,0,0,0,0,-1,2001,1688,0,0
784,-664,0,0,0,0,0,0,0,0,0,-1,2008,1688,0,0
791,-664,0,0,0,0,0,0,0,0,0,-1,2015,1688,0,0
798,-664,0,0,0,0,0,0,0,0,0,-1,2022,1688,0,0
805,-664,0,0,0,0,0,0,0,0,0,-1,2029,1688,0,0
812,-664,0,0,0,0,0,0,0,0,0,-1,2036,1688,0,0
-700,-671,0,0,0,0,0,0,0,0,0,-1,524,1695,0,0
-693,-671,0,0,0,0,0,0,0,0,0,-1,531,1695,0,0
-686,-671,0,0,0,0,0,0,0,0,0,-1,538,1695,0,0
-679,-671,0,0,0,0,0,0,0,0,0,-1,545,1695,0,0
-672,-671,0,0,0,0,0,0,0,0,0,-1,552,1695,0,0
-665,-671,0,0,0,0,0,0,0,0,0,-1,559,1695,0,0
-658,-671,0,0,0,0,0,0,0,0,0,-1,566,1695,0,0
-651,-671,0,0,0,0,0,0,0,0,0,-1,573,1695,0,0
-644,-671,0,0,0,0,0,0,0,0,0,-1,580,1695,0,0
-637,-671,0,0,0,0,0,0,0,0,0,-1,587,1695,0,0
-630,-671,0,0,0,0,0,0,0,0,0,-1,594,1695,0,0
-623,-671,0,0,0,0,0,0,0,0,0,-1,601,1695,0,0
-616,-671,0,0,0,0,0,0,0,0,0,-1,608,1695,0,0
-609,-671,0,0,0,0,0,0,0,0,0,-1,615,1695,0,0
-602,-671,0,0,0,0,0,0,0,0,0,-1,622,1695,0,0
-595,-671,0,0,0,0,0,0,0,0,0,-1,629,1695,0,0
-588,-671,0,0,0,0,0,0,0,0,0,-1,636,1695,0,0
-581,-671,0,0,0,0,0,0,0,0,0,-1,643,1695,0,0
-574,-671,0,0,0,0,0,0,0,0,0,-1,650,1695,0,0
-567,-671,0,0,0,0,0,0,0,0,0,-1,657,1695,0,0
-560,-671,0,0,0,0,0,0,0,0,0,-1,664,1695,0,0
-553,-671,0,0,0,0,0,0,0,0,0,-1,671,1695,0,0
-546,-671,0,0,0,0,0,0,0,0,0,-1,678,1695,0,0
-539,-671,0,0,0,0,0,0,0,0,0,-1,685,1695,0,0
-532,-671,0,0,0,0,0,0,0,0,0,-1,692,1695,0,0
-525,-671,0,0,0,0,0,0,0,0,0,-1,699,1695,0,0
-518,-671,0,0,0,0,0,0,0,0,0,-1,706,1695,0,0
-511,-671,0,0,0,0,0,0,0,0,0,-1,713,1695,0,0
-504,-671,0,0,0,0,0,0,0,0,0,-1,720,1695,0,0
-497,-671,0,0,0,0,0,0,0,0,0,-1,727,1695,0,0
-490,-671,0,0,0,0,0,0,0,0,0,-1,734,1695,0,0
-483,-671,0,0,0,0,0,0,0,0,0,-1,741,1695,0,0
-476,-671,0,0,0,0,0,0,0,0,0,-1,748,1695,0,0
-469,-671,0,0,0,0,0,0,0,0,0,-1,755,1695,0,0
-462,-671,0,0,0,0,0,0,0,0,0,-1,762,1695,0,0
-455,-671,0,0,0,0,0,0,0,0,0,-1,769,1695,0,0
-448,-671,0,0,0,0,0,0,0,0,0,-1,776,1695,0,0
-441,-671,0,0,0,0,0,0,0,0,0,-1,783,1695,0,0
-434,-671,0,0,0,0,0,0,0,0,0,-1,790,1695,0,0
-427,-671,0,0,0,0,0,0,0,0,0,-1,797,1695,0,0
-420,-671,0,0,0,0,0,0,0,0,0,-1,804,1695,0,0
-413,-671,0,0,0,0,0,0,0,0,0,-1,811,1695,0,0
-406,-671,0,0,0,0,0,0,0,0,0,-1,818,1695,0,0
-399,-671,0,0,0,0,0,0,0,0,0,-1,825,1695,0,0
-392,-671,0,0,0,0,0,0,0,0,0,-1,832,1695,0,0
-385,-671,0,0,0,0,0,0,0,0,0,-1,839,1695,0,0
-378,-671,0,0,0,0,0,0,0,0,0,-1,846,1695,0,0
-371,-671,0,0,0,0,0,0,0,0,0,-1,853,1695,0,0
-364,-671,-4.18738,7.51416,0,0,0,0,0,0,0,-1,860,1695,-4.18739,-7.51419
-357,-671,-5.02393,6.07129,0,0,0,0,0,0,0,-1,867,1695,-5.0239,-6.07135
-350,-671,-5.72333,4.58386,0,0,0,0,0,0,0,-1,874,1695,-5.72333,-4.58386
-343,-671,-6.4884,3.11353,0,0,0,0,0,0,0,-1,881,1695,-6.48839,-3.11349
-336,-671,2.55884,15.6338,0,0,0,0,0,0,0,-1,888,1695,2.55886,-15.6338
-329,-671,2.71729,16.1058,0,0,0,0,0,0,0,-1,895,1695,2.71729,-16.1058
-322,-671,5.32996,18.7546,0,0,0,0,0,0,0,-1,902,1695,5.32993,-18.7547
-315,-671,4.94421,19.505,0,0,0,0,0,0,0,-1,909,1695,4.9442,-19.505
-308,-671,4.99249,19.6208,0,0,0,0,0,0,0,-1,916,1695,4.99251,-19.6208
-301,-671,4.95648,19.6602,0,0,0,0,0,0,0,-1,923,1695,4.95649,-19.6602
-294,-671,5.14917,20.6154,0,0,0,0,0,0,0,-1,930,1695,5.14918,-20.6154
-287,-671,5.34973,21.1539,-0.00201705,-0.00553007,-0.00266901,-0.000578422,-0.0069687,-0.49437,0.0044655,0.046043,937,1695,5.34975,-21.1539
-280,-671,5.34344,21.248,-0.00215959,-0.00527352,-0.00225646,-0.000975075,-0.00645804,-0.483405,0.00401995,0.0382343,944,1695,5.34347,-21.248
-273,-671,5.24292,21.3966,-0.00186035,-0.00473307,-0.00194462,-0.000879139,-0.00571429,-0.467305,0.00355292,0.0326333,951,1695,5.24293,-21.3966
-266,-671,5.25598,21.725,-0.00164888,-0.0039537,-0.00167633,-0.000767054,-0.00483552,-0.484268,0.00300086,0.0242651,958,1695,5.25598,-21.7249
-259,-671,5.12189,21.9667,-0.00132871,-0.00316042,-0.0012224,-0.00071713,-0.003772,-0.463896,0.00231298,0.0210161,965,1695,5.1219,-21.9667
-252,-671,5.11951,22.2561,-0.000947693,-0.00254278,-0.000759931,-0.000643615,-0.00284686,-0.380626,0.00172389,0.0160648,972,1695,5.11951,-22.2561
-245,-671,5.1095,22.5638,-0.000579062,-0.00189358,-0.000336041,-0.000498139,-0.00197451,-0.236314,0.0011857,0.0192789,979,1695,5.10948,-22.5639
-238,-671,5.11365,22.8324,-0.000304573,-0.00139457,3.90771e-05,-0.000303173,-0.00139597,0.0357894,0.000847852,0.0197701,986,1695,5.11363,-22.8324
-231,-671,5.11127,23.0813,0.00010345,-0.000940915,0.000461941,0.00027845,-0.00111592,0.362131,0.000852064,0.0143831,993,1695,5.11126,-23.0812
-224,-671,5.07806,23.3229,0.000577368,-0.000670449,0.000722585,0.000908128,-0.00100121,0.429276,0.00110279,0.0116683,1000,1695,5.07805,-23.3229
-217,-671,5.07635,23.5685,0.000841534,-0.000655561,0.000742708,0.00114747,-0.000961498,0.390741,0.00121919,0.0121413,1007,1695,5.07636,-23.5685
-210,-671,5.07843,23.8374,0.000896307,-0.000861999,0.000985336,0.00133768,-0.00130337,0.421144,0.00152486,0.0114241,1014,1695,5.07845,-23.8374
-203,-671,5.03308,24.0504,0.000800893,-0.00101825,0.00121174,0.00140646,-0.00162382,0.463445,0.00175103,0.017763,1021,1695,5.03306,-24.0504
-196,-671,5.02161,24.3116,0.000712211,-0.00151255,0.00138344,0.00137502,-0.00217536,0.446789,0.0020671,0.0151652,1028,1695,5.02161,-24.3117
-189,-671,5.05066,24.599,0.000457815,-0.00210562,0.00156256,0.00119709,-0.00284489,0.44191,0.00239741,0.0118293,1035,1695,5.0507,-24.599
-182,-671,5.04053,24.7865,0.000192073,-0.00245456,0.00180141,0.00110399,-0.00336647,0.468612,0.00268894,0.0099288,1042,1695,5.0405,-24.7865
-175,-671,5.03943,24.9768,-7.86021e-05,-0.00248223,0.00203357,0.00108174,-0.00364257,0.518515,0.00285803,0.0128127,1049,1695,5.03942,-24.9768
-168,-671,5.05005,25.1827,-0.000408524,-0.00253101,0.00236797,0.00112514,-0.00406467,0.574735,0.00315248,0.0134301,1056,1695,5.05002,-25.1828
-161,-671,5.07373,25.4211,-0.000692049,-0.00247568,0.0026589,0.00122062,-0.00438834,0.62359,0.00340613,0.00924514,1063,1695,5.07373,-25.4212
-154,-671,5.08594,25.6389,-0.000866321,-0.00205229,0.00285923,0.00146077,-0.00437938,0.683151,0.00350936,0.00809192,1070,1695,5.08595,-25.639
-147,-671,5.08508,25.8625,-0.000927636,-0.00133487,0.00289686,0.00177275,-0.00403526,0.750312,0.00343702,0.00924973,1077,1695,5.08508,-25.8625
-140,-671,5.1145,26.0664,-0.000843066,-0.000257216,0.00286453,0.00232933,-0.00342961,0.836351,0.00334509,0.0112812,1084,1695,5.11452,-26.0663
-133,-671,5.11572,26.2346,-0.0005593,0.00101624,0.0028395,0.00317522,-0.00271828,0.920711,0.00340603,0.0148311,1091,1695,5.11577,-26.2346
-126,-671,5.13818,26.4587,0.00016942,0.00272475,0.00303169,0.00473701,-0.00184284,0.984822,0.00391946,0.0196983,1098,1695,5.13818,-26.4587
-119,-671,5.18787,26.7788,0.00101158,0.0041365,0.00293855,0.00590216,-0.000754077,1.02974,0.00420871,0.0346981,1105,1695,5.18786,-26.7788
-112,-671,5.21582,27.0189,0.00191518,0.00609841,0.00267625,0.00740344,0.000610157,1.11709,0.00474534,0.0480308,1112,1695,5.21587,-27.0189
-105,-671,5.22864,27.2104,0,0,0,0,0,0,0,-1,1119,1695,5.22861,-27.2105
-98,-671,5.08813,27.1665,0,0,0,0,0,0,0,-1,1126,1695,5.08812,-27.1665
-91,-671,5.28064,27.2755,0,0,0,0,0,0,0,-1,1133,1695,5.28061,-27.2756
-84,-671,5.4209,26.2415,0,0,0,0,0,0,0,-1,1140,1695,5.42096,-26.2414
-77,-671,4.31763,16.489,0,0,0,0,0,0,0,-1,1147,1695,4.31757,-16.489
-70,-671,3.06067,10.7737,0,0,0,0,0,0,0,-1,1154,1695,3.0607,-10.7737
-63,-671,2.94592,6.90198,0,0,0,0,0,0,0,-1,1161,1695,2.94594,-6.90198
-56,-671,-3.07678,2.87976,0,0,0,0,0,0,0,-1,1168,1695,-3.07675,-2.87979
-49,-671,-1.05957,4.76917,0,0,0,0,0,0,0,-1,1175,1695,-1.05958,-4.76921
-42,-671,0.539307,3.7865,0,0,0,0,0,0,0,-1,1182,1695,0.539266,-3.78648
-35,-671,-0.272461,0.347534,0,0,0,0,0,0,0,-1,1189,1695,-0.272434,-0.347569
-28,-671,-10.4878,17.2009,0,0,0,0,0,0,0,-1,1196,1695,-10.4878,-17.2009
-21,-671,5.1123,28.6414,0,0,0,0,0,0,0,-1,1203,1695,5.11226,-28.6414
-14,-671,5.47717,28.5864,0.0343672,0.01771,-0.0105128,0.0394507,0.0126264,-0.450404,0.0232634,0.0457026,1210,1695,5.47715,-28.5865
-7,-671,5.54553,28.7682,0.0341286,0.0179985,-0.0105517,0.0393445,0.0127826,-0.459091,0.0231752,0.0493038,1217,1695,5.5455,-28.7682
0,-671,6.17505,28.9674,0.0355923,0.0203795,-0.00893454,0.0397197,0.016252,-0.432761,0.023058,0.045671,1224,1695,6.17502,-28.9674
7,-671,6.89111,29.6599,0,0,0,0,0,0,0,-1,1231,1695,6.89114,-29.6599
14,-671,7.06335,29.6116,0.0451359,0.029888,-0.00408616,0.0461619,0.0288621,-0.246002,0.0269288,0.0439953,1238,1695,7.0634,-29.6116
21,-671,7.14404,29.5341,0.0493457,0.0371973,-0.00178437,0.0496024,0.0369406,-0.142862,0.0297595,0.045462,1245,1695,7.14399,-29.534
28,-671,7.02466,29.4452,0,0,0,0,0,0,0,-1,1252,1695,7.02469,-29.4452
35,-671,6.4646,29.3536,0,0,0,0,0,0,0,-1,1259,1695,6.46457,-29.3536
42,-671,6.19836,29.228,0,0,0,0,0,0,0,-1,1266,1695,6.19838,-29.228
49,-671,7.27734,29.7369,0,0,0,0,0,0,0,-1,1273,1695,7.27736,-29.737
56,-671,6.86597,29.7095,0.0995387,0.058451,0.00633925,0.100495,0.0574952,0.149651,0.0582214,0.0426195,1280,1695,6.86598,-29.7094
63,-671,6.57568,29.6206,0.105437,0.0571256,0.0025592,0.105572,0.0569904,0.0527766,0.0610163,0.0466502,1287,1695,6.57567,-29.6206
70,-671,6.72253,29.667,0,0,0,0,0,0,0,-1,1294,1695,6.72251,-29.667
77,-671,7.02051,28.6974,0,0,0,0,0,0,0,-1,1301,1695,7.0205,-28.6974
84,-671,7.0741,27.5751,0.108992,0.0392506,-0.0186674,0.113675,0.0345684,-0.245755,0.0672882,0.0448258,1308,1695,7.07413,-27.5751
91,-671,6.62402,26.7454,0,0,0,0,0,0,0,-1,1315,1695,6.62403,-26.7454
98,-671,7.21619,28.2225,0.0985069,0.02335,-0.038524,0.114745,0.00711174,-0.398912,0.0742398,0.0463624,1322,1695,7.21615,-28.2225
105,-671,6.87524,28.3239,0,0,0,0,0,0,0,-1,1329,1695,6.87526,-28.3238
112,-671,6.51843,28.4573,0.0786093,0.0126261,-0.0572446,0.111689,-0.0204534,-0.523983,0.0821304,0.0426669,1336,1695,6.5184,-28.4573
119,-671,6.42896,28.397,0.072746,0.00938009,-0.0636242,0.112139,-0.0300133,-0.554387,0.0865171,0.0483301,1343,1695,6.42895,-28.397
126,-671,6.54895,28.379,0,0,0,0,0,0,0,-1,1350,1695,6.54889,-28.379
133,-671,7.53931,27.6052,0,0,0,0,0,0,0,-1,1357,1695,7.53931,-27.6052
140,-671,7.55835,28.639,0,0,0,0,0,0,0,-1,1364,1695,7.55836,-28.639
147,-671,8.0719,28.8245,0,0,0,0,0,0,0,-1,1371,1695,8.07184,-28.8245
154,-671,7.93762,28.3004,0,0,0,0,0,0,0,-1,1378,1695,7.93764,-28.3004
161,-671,4.49292,4.91272,0,0,0,0,0,0,0,-1,1385,1695,4.49297,-4.91273
168,-671,5.17639,6.1416,0,0,0,0,0,0,0,-1,1392,1695,5.1764,-6.14164
175,-671,5.6731,1.64685,0,0,0,0,0,0,0,-1,1399,1695,5.67313,-1.64691
182,-671,5.56812,1.71692,0,0,0,0,0,0,0,-1,1406,1695,5.56809,-1.71686
189,-671,6.98315,6.36169,0,0,0,0,0,0,0,-1,1413,1695,6.98312,-6.36175
196,-671,5.38123,5.69775,0,0,0,0,0,0,0,-1,1420,1695,5.38125,-5.69769
203,-671,5.95117,8.11658,0,0,0,0,0,0,0,-1,1427,1695,5.9512,-8.11662
210,-671,4.73596,8.39624,0,0,0,0,0,0,0,-1,1434,1695,4.736,-8.39618
217,-671,5.37097,11.863,0,0,0,0,0,0,0,-1,1441,1695,5.37094,-11.863
224,-671,5.08167,13.6694,0,0,0,0,0,0,0,-1,1448,1695,5.08165,-13.6695
231,-671,5.66663,15.3348,0,0,0,0,0,0,0,-1,1455,1695,5.66667,-15.3349
238,-671,6.32959,16.2036,0,0,0,0,0,0,0,-1,1462,1695,6.32961,-16.2037
245,-671,7.90234,26.2939,0,0,0,0,0,0,0,-1,1469,1695,7.90234,-26.2939
252,-671,7.58496,26.5692,0,0,0,0,0,0,0,-1,1476,1695,7.58493,-26.5692
259,-671,7.48877,26.3706,0,0,0,0,0,0,0,-1,1483,1695,7.48877,-26.3706
266,-671,7.56592,26.5042,0.00374277,0.000459502,-0.000147573,0.00374939,0.000452882,-0.0448264,0.00236314,0.0365824,1490,1695,7.56596,-26.5042
273,-671,7.62524,26.387,0.00383731,0.000309305,-0.000248181,0.00385468,0.000291932,-0.0698872,0.00247822,0.0131222,1497,1695,7.62521,-26.3869
280,-671,7.63428,26.2268,0.00369271,0.000298962,-0.000233966,0.00370877,0.000282909,-0.0685082,0.00238381,0.0089135,1504,1695,7.63423,-26.2268
287,-671,7.62891,25.9868,0.00333051,0.000744857,-0.000242677,0.00335309,0.000722278,-0.0927755,0.00203776,0.0103387,1511,1695,7.62893,-25.9868
294,-671,7.62634,25.8021,0.00288852,0.000978902,-0.000275411,0.00292745,0.000939975,-0.140412,0.00172585,0.0106826,1518,1695,7.62635,-25.8021
301,-671,7.65833,25.6611,0.00243884,0.00108898,-0.000303619,0.00250399,0.00102383,-0.211365,0.00145366,0.0107026,1525,1695,7.65831,-25.6611
308,-671,7.6792,25.4655,0.00190783,0.0012507,-0.000269953,0.00200451,0.00115403,-0.343889,0.00116172,0.0117671,1532,1695,7.67917,-25.4654
315,-671,7.69336,25.2544,0.00138513,0.00135252,-0.000188026,0.00155756,0.0011801,-0.742145,0.000938213,0.0133431,1539,1695,7.6934,-25.2544
322,-671,7.69397,25.0737,0.000869285,0.00144651,-9.06472e-05,0.00146041,0.000855385,-1.41863,0.000847287,0.0151054,1546,1695,7.69393,-25.0737
329,-671,7.67468,24.8795,0.000391257,0.00136048,4.08787e-05,0.0013622,0.000389536,1.52872,0.000810133,0.0141359,1553,1695,7.67466,-24.8795
336,-671,7.67163,24.634,-9.39065e-05,0.00101673,0.000512013,0.00121675,-0.000293926,1.19837,0.000924847,0.0110364,1560,1695,7.67159,-24.634
343,-671,7.68677,24.3832,-0.000530836,0.000324746,0.0010962,0.00107367,-0.00127976,0.971434,0.00136049,0.0101429,1567,1695,7.68672,-24.3831
350,-671,7.69104,24.1592,-0.000737287,-0.000575628,0.00170834,0.00105379,-0.00236671,0.809038,0.00202274,0.0103208,1574,1695,7.69106,-24.1591
357,-671,7.67249,23.9138,-0.000765313,-0.00183729,0.00246332,0.00121966,-0.00382226,0.678274,0.00303748,0.0102725,1581,1695,7.67244,-23.9138
364,-671,7.66724,23.6713,-0.000859931,-0.00334315,0.00339468,0.00151308,-0.00571616,0.610079,0.00440267,0.0125471,1588,1695,7.66728,-23.6713
371,-671,7.65637,23.4348,-0.000876968,-0.00501896,0.00434805,0.00186811,-0.00776404,0.563142,0.00589818,0.0141546,1595,1695,7.6564,-23.4349
378,-671,7.65479,23.1959,-0.000791733,-0.00684709,0.00537704,0.00235144,-0.00999027,0.528985,0.00756678,0.0120478,1602,1695,7.65478,-23.196
385,-671,7.65552,22.942,-0.000592285,-0.00876929,0.00638831,0.00290383,-0.0122654,0.500742,0.00929729,0.0142978,1609,1695,7.65558,-22.942
392,-671,7.58008,22.7373,-0.00040836,-0.0106826,0.00730722,0.00338679,-0.0144778,0.479023,0.0109567,0.020594,1616,1695,7.58006,-22.7373
399,-671,7.54663,22.4174,-0.000238162,-0.0127058,0.00804142,0.00370275,-0.0166467,0.455677,0.012516,0.0205902,1623,1695,7.54664,-22.4174
406,-671,7.62549,22.1416,0.000205355,-0.0144226,0.00853706,0.00413307,-0.0183503,0.431203,0.0138188,0.0347689,1630,1695,7.62543,-22.1416
413,-671,7.56641,22.0906,0.000551895,-0.0157456,0.00872886,0.00434446,-0.0195382,0.409878,0.0146894,0.0476887,1637,1695,7.56635,-22.0905
420,-671,7.56665,22.0497,0,0,0,0,0,0,0,-1,1644,1695,7.5666,-22.0497
427,-671,7.78882,21.553,0,0,0,0,0,0,0,-1,1651,1695,7.78887,-21.553
434,-671,7.5802,21.1841,0,0,0,0,0,0,0,-1,1658,1695,7.58014,-21.1841
441,-671,7.26685,21.1763,0,0,0,0,0,0,0,-1,1665,1695,7.26684,-21.1763
448,-671,7.90466,21.3672,0,0,0,0,0,0,0,-1,1672,1695,7.90463,-21.3671
455,-671,3.40137,9.28076,0,0,0,0,0,0,0,-1,1679,1695,3.40135,-9.28082
462,-671,5.86255,4.47961,0,0,0,0,0,0,0,-1,1686,1695,5.8625,-4.4796
469,-671,3.71301,3.76978,0,0,0,0,0,0,0,-1,1693,1695,3.71297,-3.76974
476,-671,3.75574,3.18848,0,0,0,0,0,0,0,-1,1700,1695,3.7558,-3.18847
483,-671,7.81824,12.1041,0,0,0,0,0,0,0,-1,1707,1695,7.81826,-12.1041
490,-671,0,0,0,0,0,0,0,0,0,-1,1714,1695,0,0
497,-671,0,0,0,0,0,0,0,0,0,-1,1721,1695,0,0
504,-671,0,0,0,0,0,0,0,0,0,-1,1728,1695,0,0
511,-671,0,0,0,0,0,0,0,0,0,-1,1735,1695,0,0
518,-671,0,0,0,0,0,0,0,0,0,-1,1742,1695,0,0
525,-671,0,0,0,0,0,0,0,0,0,-1,1749,1695,0,0
532,-671,0,0,0,0,0,0,0,0,0,-1,1756,1695,0,0
539,-671,0,0,0,0,0,0,0,0,0,-1,1763,1695,0,0
546,-671,0,0,0,0,0,0,0,0,0,-1,1770,1695,0,0
553,-671,0,0,0,0,0,0,0,0,0,-1,1777,1695,0,0
560,-671,0,0,0,0,0,0,0,0,0,-1,1784,1695,0,0
567,-671,0,0,0,0,0,0,0,0,0,-1,1791,1695,0,0
574,-671,0,0,0,0,0,0,0,0,0,-1,1798,1695,0,0
581,-671,0,0,0,0,0,0,0,0,0,-1,1805,1695,0,0
588,-671,0,0,0,0,0,0,0,0,0,-1,1812,1695,0,0
595,-671,0,0,0,0,0,0,0,0,0,-1,1819,1695,0,0
602,-671,0,0,0,0,0,0,0,0,0,-1,1826,1695,0,0
609,-671,0,0,0,0,0,0,0,0,0,-1,1833,1695,0,0
616,-671,0,0,0,0,0,0,0,0,0,-1,1840,1695,0,0
623,-671,0,0,0,0,0,0,0,0,0,-1,1847,1695,0,0
630,-671,0,0,0,0,0,0,0,0,0,-1,1854,1695,0,0
637,-671,0,0,0,0,0,0,0,0,0,-1,1861,1695,0,0
644,-671,0,0,0,0,0,0,0,0,0,-1,1868,1695,0,0
651,-671,0,0,0,0,0,0,0,0,0,-1,1875,1695,0,0
658,-671,0,0,0,0,0,0,0,0,0,-1,1882,1695,0,0
665,-671,0,0,0,0,0,0,0,0,0,-1,1889,1695,0,0
672,-671,0,0,0,0,0,0,0,0,0,-1,1896,1695,0,0
679,-671,0,0,0,0,0,0,0,0,0,-1,1903,1695,0,0
686,-671,0,0,0,0,0,0,0,0,0,-1,1910,1695,0,0
693,-671,0,0,0,0,0,0,0,0,0,-1,1917,1695,0,0
700,-671,0,0,0,0,0,0,0,0,0,-1,1924,1695,0,0
707,-671,0,0,0,0,0,0,0,0,0,-1,1931,1695,0,0
714,-671,0,0,0,0,0,0,0,0,0,-1,1938,1695,0,0
721,-671,0,0,0,0,0,0,0,0,0,-1,1945,1695,0,0
728,-671,0,0,0,0,0,0,0,0,0,-1,1952,1695,0,0
735,-671,0,0,0,0,0,0,0,0,0,-1,1959,1695,0,0
742,-671,0,0,0,0,0,0,0,0,0,-1,1966,1695,0,0
749,-671,0,0,0,0,0,0,0,0,0,-1,1973,1695,0,0
756,-671,0,0,0,0,0,0,0,0,0,-1,1980,1695,0,0
763,-671,0,0,0,0,0,0,0,0,0,-1,1987,1695,0,0
770,-671,0,0,0,0,0,0,0,0,0,-1,1994,1695,0,0
777,-671,0,0,0,0,0,0,0,0,0,-1,2001,1695,0,0
784,-671,0,0,0,0,0,0,0,0,0,-1,2008,1695,0,0
791,-671,0,0,0,0,0,0,0,0,0,-1,2015,1695,0,0
798,-671,0,0,0,0,0,0,0,0,0,-1,2022,1695,0,0
805,-671,0,0,0,0,0,0,0,0,0,-1,2029,1695,0,0
812,-671,0,0,0,0,0,0,0,0,0,-1,2036,1695,0,0
-700,-678,0,0,0,0,0,0,0,0,0,-1,524,1702,0,0
-693,-678,0,0,0,0,0,0,0,0,0,-1,531,1702,0,0
-686,-678,0,0,0,0,0,0,0,0,0,-1,538,1702,0,0
-679,-678,0,0,0,0,0,0,0,0,0,-1,545,1702,0,0
-672,-678,0,0,0,0,0,0,0,0,0,-1,552,1702,0,0
-665,-678,0,0,0,0,0,0,0,0,0,-1,559,1702,0,0
-658,-678,0,0,0,0,0,0,0,0,0,-1,566,1702,0,0
-651,-678,0,0,0,0,0,0,0,0,0,-1,573,1702,0,0
-644,-678,0,0,0,0,0,0,0,0,0,-1,580,1702,0,0
-637,-678,0,0,0,0,0,0,0,0,0,-1,587,1702,0,0
-630,-678,0,0,0,0,0,0,0,0,0,-1,594,1702,0,0
-623,-678,0,0,0,0,0,0,0,0,0,-1,601,1702,0,0
-616,-678,0,0,0,0,0,0,0,0,0,-1,608,1702,0,0
-609,-678,0,0,0,0,0,0,0,0,0,-1,615,1702,0,0
-602,-678,0,0,0,0,0,0,0,0,0,-1,622,1702,0,0
-595,-678,0,0,0,0,0,0,0,0,0,-1,629,1702,0,0
-588,-678,0,0,0,0,0,0,0,0,0,-1,636,1702,0,0
-581,-678,0,0,0,0,0,0,0,0,0,-1,643,1702,0,0
-574,-678,0,0,0,0,0,0,0,0,0,-1,650,1702,0,0
-567,-678,0,0,0,0,0,0,0,0,0,-1,657,1702,0,0
-560,-678,0,0,0,0,0,0,0,0,0,-1,664,1702,0,0
-553,-678,0,0,0,0,0,0,0,0,0,-1,671,1702,0,0
-546,-678,0,0,0,0,0,0,0,0,0,-1,678,1702,0,0
-539,-678,0,0,0,0,0,0,0,0,0,-1,685,1702,0,0
-532,-678,0,0,0,0,0,0,0,0,0,-1,692,1702,0,0
-525,-678,0,0,0,0,0,0,0,0,0,-1,699,1702,0,0
-518,-678,0,0,0,0,0,0,0,0,0,-1,706,1702,0,0
-511,-678,0,0,0,0,0,0,0,0,0,-1,713,1702,0,0
-504,-678,0,0,0,0,0,0,0,0,0,-1,720,1702,0,0
-497,-678,0,0,0,0,0,0,0,0,0,-1,727,1702,0,0
-490,-678,0,0,0,0,0,0,0,0,0,-1,734,1702,0,0
-483,-678,0,0,0,0,0,0,0,0,0,-1,741,1702,0,0
-476,-678,0,0,0,0,0,0,0,0,0,-1,748,1702,0,0
-469,-678,0,0,0,0,0,0,0,0,0,-1,755,1702,0,0
-462,-678,0,0,0,0,0,0,0,0,0,-1,762,1702,0,0
-455,-678,0,0,0,0,0,0,0,0,0,-1,769,1702,0,0
-448,-678,0,0,0,0,0,0,0,0,0,-1,776,1702,0,0
-441,-678,0,0,0,0,0,0,0,0,0,-1,783,1702,0,0
-434,-678,0,0,0,0,0,0,0,0,0,-1,790,1702,0,0
-427,-678,0,0,0,0,0,0,0,0,0,-1,797,1702,0,0
-420,-678,0,0,0,0,0,0,0,0,0,-1,804,1702,0,0
-413,-678,0,0,0,0,0,0,0,0,0,-1,811,1702,0,0
-406,-678,0,0,0,0,0,0,0,0,0,-1,818,1702,0,0
-399,-678,0,0,0,0,0,0,0,0,0,-1,825,1702,0,0
-392,-678,0,0,0,0,0,0,0,0,0,-1,832,1702,0,0
-385,-678,0,0,0,0,0,0,0,0,0,-1,839,1702,0,0
-378,-678,0,0,0,0,0,0,0,0,0,-1,846,1702,0,0
-371,-678,0,0,0,0,0,0,0,0,0,-1,853,1702,0,0
-364,-678,0,0,0,0,0,0,0,0,0,-1,860,1702,0,0
-357,-678,0,0,0,0,0,0,0,0,0,-1,867,1702,0,0
-350,-678,-5.79944,6.11865,0,0,0,0,0,0,0,-1,874,1702,-5.79942,-6.11864
-343,-678,-6.44891,4.52759,0,0,0,0,0,0,0,-1,881,1702,-6.4489,-4.52758
-336,-678,-6.91888,2.99438,0,0,0,0,0,0,0,-1,888,1702,-6.9189,-2.99435
-329,-678,-7.14575,1.29761,0,0,0,0,0,0,0,-1,895,1702,-7.14577,-1.29755
-322,-678,3.78455,20.3917,0,0,0,0,0,0,0,-1,902,1702,3.78457,-20.3917
-315,-678,5.64337,19.1178,0,0,0,0,0,0,0,-1,909,1702,5.64339,-19.1178
-308,-678,5.09766,19.599,0,0,0,0,0,0,0,-1,916,1702,5.09766,-19.5991
-301,-678,6.60962,19.6086,0,0,0,0,0,0,0,-1,923,1702,6.60964,-19.6087
-294,-678,4.7326,22.7963,0,0,0,0,0,0,0,-1,930,1702,4.73258,-22.7962
-287,-678,5.76385,21.36,0,0,0,0,0,0,0,-1,937,1702,5.76386,-21.36
-280,-678,5.75031,21.4774,-0.00248589,-0.00618271,-0.00310901,-0.000717317,-0.00795129,-0.517203,0.00507867,0.0457998,944,1702,5.75031,-21.4774
-273,-678,5.5647,21.5974,-0.00197265,-0.00573435,-0.00263052,-0.000619733,-0.00708727,-0.475034,0.00453241,0.0406669,951,1702,5.56472,-21.5974
-266,-678,5.43451,21.7952,-0.00169372,-0.00480398,-0.00214904,-0.000596157,-0.00590155,-0.47219,0.00375147,0.0358544,958,1702,5.43451,-21.7951
-259,-678,5.36078,22.0435,-0.00128737,-0.00398377,-0.00149851,-0.000619837,-0.00465131,-0.419075,0.0029163,0.0239895,965,1702,5.36075,-22.0434
-252,-678,5.34491,22.2424,-0.000843907,-0.00331629,-0.000858682,-0.00057494,-0.00358526,-0.303553,0.00222344,0.017933,972,1702,5.34494,-22.2424
-245,-678,5.36676,22.5332,-0.00047198,-0.0026387,-0.000297923,-0.000431763,-0.00267892,-0.134183,0.00166084,0.0176854,979,1702,5.36678,-22.5332
-238,-678,5.36072,22.809,-0.000249401,-0.00211053,0.000185485,-0.000231095,-0.00212884,0.0983732,0.00134881,0.0145187,986,1702,5.36075,-22.809
-231,-678,5.3382,23.0709,0.000182636,-0.00157833,0.0007442,0.000455012,-0.00185071,0.350855,0.00141016,0.0121733,993,1702,5.33819,-23.071
-224,-678,5.30444,23.3153,0.000676991,-0.00129088,0.00106489,0.00114292,-0.00175681,0.412445,0.00168662,0.0123011,1000,1702,5.30442,-23.3153
-217,-678,5.30804,23.5698,0.000880946,-0.00113626,0.00102239,0.0013085,-0.00156382,0.396092,0.00166052,0.0139116,1007,1702,5.30804,-23.5699
-210,-678,5.29193,23.8436,0.000976376,-0.00111601,0.00118136,0.0015082,-0.00164783,0.423002,0.00182273,0.0147059,1014,1702,5.29191,-23.8436
-203,-678,5.29407,24.068,0.00100621,-0.00108409,0.00129957,0.00162875,-0.00170664,0.446742,0.00192587,0.0185367,1021,1702,5.29403,-24.068
-196,-678,5.26953,24.307,0.000973937,-0.00132745,0.00135007,0.00159716,-0.00195067,0.432477,0.00205173,0.0178053,1028,1702,5.26954,-24.307
-189,-678,5.27283,24.5898,0.000823196,-0.00176528,0.0013833,0.00142331,-0.00236539,0.409325,0.00220983,0.0103094,1035,1702,5.27283,-24.5898
-182,-678,5.28467,24.7985,0.000689959,-0.00192948,0.00146807,0.00134762,-0.00258714,0.421171,0.00230901,0.00977754,1042,1702,5.28462,-24.7985
-175,-678,5.27576,25.0055,0.00056401,-0.00166469,0.00148991,0.0013102,-0.00241088,0.46431,0.00217947,0.0112291,1049,1702,5.27571,-25.0054
-168,-678,5.27991,25.2286,0.000348509,-0.0015452,0.00166564,0.00131761,-0.00251431,0.526944,0.00224803,0.0101575,1056,1702,5.27985,-25.2287
-161,-678,5.28577,25.4445,0.000186147,-0.00145548,0.00180774,0.00135069,-0.00262002,0.572288,0.00233121,0.00879712,1063,1702,5.28571,-25.4445
-154,-678,5.29321,25.6558,0.000107534,-0.00105691,0.00188267,0.00149596,-0.00244533,0.635436,0.0022974,0.00841436,1070,1702,5.2932,-25.6558
-147,-678,5.28711,25.8552,0.000101913,-0.000482954,0.00183465,0.00166728,-0.00204833,0.706366,0.00214897,0.00997602,1077,1702,5.28716,-25.8553
-140,-678,5.30334,26.0552,0.000193095,0.00037667,0.00174507,0.00203237,-0.0014626,0.811673,0.00202674,0.0110104,1084,1702,5.3034,-26.0552
-133,-678,5.32666,26.2335,0.000436124,0.00136728,0.00167346,0.00263873,-0.000835317,0.921074,0.00209389,0.0121209,1091,1702,5.3267,-26.2335
-126,-678,5.3418,26.436,0.00100214,0.00269153,0.00178738,0.00382376,-0.000130089,1.00614,0.00259362,0.010015,1098,1702,5.34179,-26.436
-119,-678,5.37708,26.7477,0.00163082,0.00376608,0.001704,0.00470929,0.000687615,1.06525,0.00293727,0.0233891,1105,1702,5.37702,-26.7477
-112,-678,5.37048,26.9661,0.00231163,0.00512791,0.00150416,0.00578019,0.00165934,1.16162,0.00343658,0.0375934,1112,1702,5.37046,-26.966
-105,-678,5.40076,27.132,0.00351221,0.00664318,0.00117466,0.00703488,0.00312051,1.24894,0.0040702,0.0395355,1119,1702,5.4008,-27.132
-98,-678,5.3772,27.1318,0.00506098,0.00751756,0.0010818,0.00792604,0.00465251,1.20976,0.00459913,0.0234419,1126,1702,5.37725,-27.1318
-91,-678,5.44189,27.2527,0.00572459,0.00866547,0.00138508,0.00921508,0.00517497,1.19304,0.00533376,0.0246469,1133,1702,5.44187,-27.2527
-84,-678,5.54871,27.5345,0,0,0,0,0,0,0,-1,1140,1702,5.54871,-27.5346
-77,-678,5.87341,28.2317,0,0,0,0,0,0,0,-1,1147,1702,5.87344,-28.2316
-70,-678,4.75891,19.6552,0,0,0,0,0,0,0,-1,1154,1702,4.75895,-19.6551
-63,-678,3.41687,11.0365,0,0,0,0,0,0,0,-1,1161,1702,3.41682,-11.0365
-56,-678,1.72388,6.13159,0,0,0,0,0,0,0,-1,1168,1702,1.72388,-6.13157
-49,-678,-0.241699,5.29895,0,0,0,0,0,0,0,-1,1175,1702,-0.241682,-5.29897
-42,-678,0.297119,3.90649,0,0,0,0,0,0,0,-1,1182,1702,0.297139,-3.90655
-35,-678,0.498413,3.64038,0,0,0,0,0,0,0,-1,1189,1702,0.498471,-3.64038
-28,-678,0.132446,3.55994,0,0,0,0,0,0,0,-1,1196,1702,0.132432,-3.55993
-21,-678,5.84155,28.4109,0,0,0,0,0,0,0,-1,1203,1702,5.84153,-28.4109
-14,-678,5.87769,28.4978,0.0263811,0.0148165,-0.0103403,0.032446,0.0087516,-0.530456,0.0193836,0.0425182,1210,1702,5.87771,-28.4978
-7,-678,5.88245,28.597,0.0263901,0.0151329,-0.00997218,0.0322125,0.00931047,-0.52847,0.0191418,0.0447427,1217,1702,5.8825,-28.597
0,-678,5.97388,29.1339,0.0288997,0.0172346,-0.00741235,0.0324991,0.0136352,-0.452056,0.0188441,0.0460847,1224,1702,5.9739,-29.1339
7,-678,6.34595,28.9963,0.0340461,0.0195526,-0.00497655,0.0355903,0.0180083,-0.300881,0.0205486,0.0455038,1231,1702,6.34592,-28.9963
14,-678,6.54053,29.1624,0.0377567,0.0238933,-0.00261747,0.0382345,0.0234156,-0.180528,0.0222599,0.0460817,1238,1702,6.5405,-29.1623
21,-678,6.62915,29.1707,0.0416382,0.0291873,-0.000314905,0.0416461,0.0291794,-0.0252704,0.0246813,0.0453351,1245,1702,6.62918,-29.1707
28,-678,6.70129,29.1471,0.0509487,0.0348542,0.0043935,0.0520699,0.033733,0.249869,0.0304975,0.0456457,1252,1702,6.70132,-29.1471
35,-678,6.45325,29.0842,0.062115,0.0375565,0.0067525,0.0638492,0.0358223,0.251388,0.0369548,0.0414823,1259,1702,6.45319,-29.0843
42,-678,6.21411,28.9889,0,0,0,0,0,0,0,-1,1266,1702,6.21409,-28.9889
49,-678,7.2738,29.5835,0,0,0,0,0,0,0,-1,1273,1702,7.27375,-29.5835
56,-678,7.05029,29.5028,0.0863904,0.0442144,0.00898511,0.0882248,0.04238,0.201391,0.0509497,0.0449333,1280,1702,7.0503,-29.5028
63,-678,6.6217,29.4664,0.091611,0.043211,0.00647859,0.0924632,0.0423588,0.130788,0.0534461,0.0472636,1287,1702,6.62171,-29.4664
70,-678,6.68164,29.528,0.0940856,0.0392369,0.00179429,0.0941442,0.0391782,0.0326669,0.0546084,0.0462908,1294,1702,6.68165,-29.528
77,-678,6.7019,29.0131,0.0956391,0.0352228,-0.00343327,0.0958336,0.0350283,-0.0565841,0.0559928,0.0437801,1301,1702,6.70187,-29.0131
84,-678,6.68469,28.1597,0.093999,0.028917,-0.00956415,0.0953754,0.0275407,-0.142931,0.0566794,0.0437425,1308,1702,6.68467,-28.1597
91,-678,7.64307,29.667,0,0,0,0,0,0,0,-1,1315,1702,7.64306,-29.6669
98,-678,6.61951,28.9369,0,0,0,0,0,0,0,-1,1322,1702,6.61955,-28.9369
105,-678,5.6427,29.2303,0,0,0,0,0,0,0,-1,1329,1702,5.6427,-29.2304
112,-678,5.86523,28.8987,0,0,0,0,0,0,0,-1,1336,1702,5.86527,-28.8987
119,-678,6.52112,28.451,0,0,0,0,0,0,0,-1,1343,1702,6.52106,-28.4511
126,-678,7.00427,28.5409,0,0,0,0,0,0,0,-1,1350,1702,7.00431,-28.5409
133,-678,7.23547,28.2469,0,0,0,0,0,0,0,-1,1357,1702,7.23552,-28.2469
140,-678,7.5802,27.5269,0,0,0,0,0,0,0,-1,1364,1702,7.58018,-27.5268
147,-678,7.33252,28.8873,0,0,0,0,0,0,0,-1,1371,1702,7.33247,-28.8874
154,-678,7.82019,28.4672,0,0,0,0,0,0,0,-1,1378,1702,7.82014,-28.4672
161,-678,7.77563,27.5094,0,0,0,0,0,0,0,-1,1385,1702,7.77565,-27.5094
168,-678,4.21863,5.25781,0,0,0,0,0,0,0,-1,1392,1702,4.21865,-5.25781
175,-678,5.21899,5.9635,0,0,0,0,0,0,0,-1,1399,1702,5.21894,-5.96346
182,-678,7.31262,6.75122,0,0,0,0,0,0,0,-1,1406,1702,7.3126,-6.75123
189,-678,5.96021,6.36853,0,0,0,0,0,0,0,-1,1413,1702,5.96018,-6.36851
196,-678,5.01599,8.15771,0,0,0,0,0,0,0,-1,1420,1702,5.01596,-8.15767
203,-678,4.64771,13.0559,0,0,0,0,0,0,0,-1,1427,1702,4.64766,-13.0559
210,-678,5.6532,18.5957,0,0,0,0,0,0,0,-1,1434,1702,5.65318,-18.5958
217,-678,6.88049,23.4835,0,0,0,0,0,0,0,-1,1441,1702,6.88047,-23.4835
224,-678,7.47217,27.6699,0,0,0,0,0,0,0,-1,1448,1702,7.47213,-27.6699
231,-678,7.29663,27.3325,0,0,0,0,0,0,0,-1,1455,1702,7.29669,-27.3325
238,-678,7.45715,27.3347,0,0,0,0,0,0,0,-1,1462,1702,7.45721,-27.3347
245,-678,7.4458,27.1377,0.00172055,0.000555856,0.000792115,0.00212135,0.000155059,0.468423,0.00136548,0.0454858,1469,1702,7.44586,-27.1377
252,-678,7.4248,26.8912,0.00198658,0.000388144,0.000619018,0.00219827,0.000176455,0.329508,0.00141038,0.0303496,1476,1702,7.42479,-26.8912
259,-678,7.4137,26.7756,0.00230695,0.000404485,0.000271012,0.00234481,0.000366632,0.138776,0.00145646,0.0167877,1483,1702,7.41372,-26.7757
266,-678,7.43726,26.6078,0.0025521,0.000223698,6.06824e-06,0.00255212,0.000223682,0.00260616,0.00163197,0.0109829,1490,1702,7.43732,-26.6078
273,-678,7.44641,26.4202,0.00266139,0.000195929,-0.000153803,0.00267095,0.000186372,-0.0620622,0.00172187,0.0112554,1497,1702,7.44643,-26.4202
280,-678,7.43909,26.2363,0.00260664,0.000265364,-0.000264644,0.00263618,0.000235823,-0.111166,0.00168436,0.0114324,1504,1702,7.43911,-26.2363
287,-678,7.45789,26.0248,0.00234243,0.000646996,-0.000343158,0.00240926,0.000580174,-0.192319,0.00145195,0.011219,1511,1702,7.45791,-26.0247
294,-678,7.46643,25.8306,0.00196951,0.000933306,-0.000429725,0.00212453,0.000778285,-0.346213,0.00124112,0.0116185,1518,1702,7.46641,-25.8306
301,-678,7.45471,25.6609,0.00152564,0.00111654,-0.000488187,0.0018504,0.000791781,-0.587009,0.00107202,0.0115751,1525,1702,7.45467,-25.6608
308,-678,7.45044,25.4657,0.00101735,0.00133377,-0.000459733,0.00166176,0.000689368,-0.951117,0.000964042,0.0134651,1532,1702,7.45039,-25.4657
315,-678,7.44714,25.259,0.000523507,0.0013944,-0.000329062,0.00150476,0.000413155,-1.24723,0.000897723,0.0151575,1539,1702,7.44709,-25.259
322,-678,7.44116,25.0852,2.82128e-05,0.00142886,-0.000193172,0.00145502,2.05962e-06,-1.43623,0.000969325,0.0179657,1546,1702,7.44118,-25.0852
329,-678,7.43726,24.864,-0.000454023,0.00129891,1.65395e-05,0.00129907,-0.000454179,1.56136,0.00105068,0.0156017,1553,1702,7.43724,-24.864
336,-678,7.42578,24.62,-0.000926697,0.000818766,0.000688134,0.00105742,-0.00116536,1.23696,0.00128383,0.0133155,1560,1702,7.42575,-24.62
343,-678,7.43835,24.3967,-0.00136871,-0.000112404,0.00153362,0.00091672,-0.00239783,0.97977,0.00197632,0.0119207,1567,1702,7.4383,-24.3967
350,-678,7.46619,24.1656,-0.00155249,-0.00125549,0.00241176,0.00101234,-0.00382032,0.816146,0.00294295,0.011477,1574,1702,7.46614,-24.1656
357,-678,7.46204,23.9238,-0.00151108,-0.00285923,0.00348005,0.00135957,-0.00572989,0.689734,0.00434461,0.00930696,1581,1702,7.46198,-23.9238
364,-678,7.43188,23.689,-0.0015228,-0.00472238,0.00475235,0.00189181,-0.00813698,0.62304,0.00615298,0.0113127,1588,1702,7.43184,-23.6889
371,-678,7.40356,23.4435,-0.0014345,-0.00687438,0.00610273,0.00252698,-0.0108359,0.575765,0.00819711,0.0119491,1595,1702,7.40361,-23.4434
378,-678,7.41638,23.1803,-0.00123183,-0.00924027,0.00757812,0.00333493,-0.013807,0.542347,0.0104945,0.0132543,1602,1702,7.41641,-23.1802
385,-678,7.42139,22.9667,-0.000894811,-0.0117617,0.00909228,0.00426381,-0.0169203,0.516076,0.0129378,0.0171591,1609,1702,7.42136,-22.9667
392,-678,7.32141,22.786,-0.000513092,-0.0142437,0.0104918,0.00515999,-0.0199168,0.495685,0.0152909,0.0326909,1616,1702,7.32144,-22.786
399,-678,7.1825,22.6642,-8.58542e-05,-0.0170569,0.0116806,0.0058661,-0.0230088,0.471265,0.0176231,0.0436682,1623,1702,7.18246,-22.6642
406,-678,7.40527,22.647,0.000693174,-0.0196508,0.0125825,0.00670109,-0.0256588,0.44547,0.0197227,0.0462798,1630,1702,7.40522,-22.647
413,-678,7.31494,22.2468,0,0,0,0,0,0,0,-1,1637,1702,7.31492,-22.2468
420,-678,6.60071,17.4585,0,0,0,0,0,0,0,-1,1644,1702,6.60066,-17.4585
427,-678,4.57483,10.1555,0,0,0,0,0,0,0,-1,1651,1702,4.57485,-10.1555
434,-678,7.04639,19.2208,0,0,0,0,0,0,0,-1,1658,1702,7.04643,-19.2208
441,-678,6.7561,21.5529,0,0,0,0,0,0,0,-1,1665,1702,6.75608,-21.5529
448,-678,3.25525,9.74719,0,0,0,0,0,0,0,-1,1672,1702,3.25522,-9.7472
455,-678,5.44678,5.54297,0,0,0,0,0,0,0,-1,1679,1702,5.44676,-5.54294
462,-678,3.86792,2.87402,0,0,0,0,0,0,0,-1,1686,1702,3.86796,-2.87406
469,-678,2.26587,1.98755,0,0,0,0,0,0,0,-1,1693,1702,2.26592,-1.98755
476,-678,0,0,0,0,0,0,0,0,0,-1,1700,1702,0,0
483,-678,0,0,0,0,0,0,0,0,0,-1,1707,1702,0,0
490,-678,0,0,0,0,0,0,0,0,0,-1,1714,1702,0,0
497,-678,0,0,0,0,0,0,0,0,0,-1,1721,1702,0,0
504,-678,0,0,0,0,0,0,0,0,0,-1,1728,1702,0,0
511,-678,0,0,0,0,0,0,0,0,0,-1,1735,1702,0,0
518,-678,0,0,0,0,0,0,0,0,0,-1,1742,1702,0,0
525,-678,0,0,0,0,0,0,0,0,0,-1,1749,1702,0,0
532,-678,0,0,0,0,0,0,0,0,0,-1,1756,1702,0,0
539,-678,0,0,0,0,0,0,0,0,0,-1,1763,1702,0,0
546,-678,0,0,0,0,0,0,0,0,0,-1,1770,1702,0,0
553,-678,0,0,0,0,0,0,0,0,0,-1,1777,1702,0,0
560,-678,0,0,0,0,0,0,0,0,0,-1,1784,1702,0,0
567,-678,0,0,0,0,0,0,0,0,0,-1,1791,1702,0,0
574,-678,0,0,0,0,0,0,0,0,0,-1,1798,1702,0,0
581,-678,0,0,0,0,0,0,0,0,0,-1,1805,1702,0,0
588,-678,0,0,0,0,0,0,0,0,0,-1,1812,1702,0,0
595,-678,0,0,0,0,0,0,0,0,0,-1,1819,1702,0,0
602,-678,0,0,0,0,0,0,0,0,0,-1,1826,1702,0,0
609,-678,0,0,0,0,0,0,0,0,0,-1,1833,1702,0,0
616,-678,0,0,0,0,0,0,0,0,0,-1,1840,1702,0,0
623,-678,0,0,0,0,0,0,0,0,0,-1,1847,1702,0,0
630,-678,0,0,0,0,0,0,0,0,0,-1,1854,1702,0,0
637,-678,0,0,0,0,0,0,0,0,0,-1,1861,1702,0,0
644,-678,0,0,0,0,0,0,0,0,0,-1,1868,1702,0,0
651,-678,0,0,0,0,0,0,0,0,0,-1,1875,1702,0,0
658,-678,0,0,0,0,0,0,0,0,0,-1,1882,1702,0,0
665,-678,0,0,0,0,0,0,0,0,0,-1,1889,1702,0,0
672,-678,0,0,0,0,0,0,0,0,0,-1,1896,1702,0,0
679,-678,0,0,0,0,0,0,0,0,0,-1,1903,1702,0,0
686,-678,0,0,0,0,0,0,0,0,0,-1,1910,1702,0,0
693,-678,0,0,0,0,0,0,0,0,0,-1,1917,1702,0,0
700,-678,0,0,0,0,0,0,0,0,0,-1,1924,1702,0,0
707,-678,0,0,0,0,0,0,0,0,0,-1,1931,1702,0,0
714,-678,0,0,0,0,0,0,0,0,0,-1,1938,1702,0,0
721,-678,0,0,0,0,0,0,0,0,0,-1,1945,1702,0,0
728,-678,0,0,0,0,0,0,0,0,0,-1,1952,1702,0,0
735,-678,0,0,0,0,0,0,0,0,0,-1,1959,1702,0,0
742,-678,0,0,0,0,0,0,0,0,0,-1,1966,1702,0,0
749,-678,0,0,0,0,0,0,0,0,0,-1,1973,1702,0,0
756,-678,0,0,0,0,0,0,0,0,0,-1,1980,1702,0,0
763,-678,0,0,0,0,0,0,0,0,0,-1,1987,1702,0,0
770,-678,0,0,0,0,0,0,0,0,0,-1,1994,1702,0,0
777,-678,0,0,0,0,0,0,0,0,0,-1,2001,1702,0,0
784,-678,0,0,0,0,0,0,0,0,0,-1,2008,1702,0,0
791,-678,0,0,0,0,0,0,0,0,0,-1,2015,1702,0,0
798,-678,0,0,0,0,0,0,0,0,0,-1,2022,1702,0,0
805,-678,0,0,0,0,0,0,0,0,0,-1,2029,1702,0,0
812,-678,0,0,0,0,0,0,0,0,0,-1,2036,1702,0,0
-700,-685,0,0,0,0,0,0,0,0,0,-1,524,1709,0,0
-693,-685,0,0,0,0,0,0,0,0,0,-1,531,1709,0,0
-686,-685,0,0,0,0,0,0,0,0,0,-1,538,1709,0,0
-679,-685,0,0,0,0,0,0,0,0,0,-1,545,1709,0,0
-672,-685,0,0,0,0,0,0,0,0,0,-1,552,1709,0,0
-665,-685,0,0,0,0,0,0,0,0,0,-1,559,1709,0,0
-658,-685,0,0,0,0,0,0,0,0,0,-1,566,1709,0,0
-651,-685,0,0,0,0,0,0,0,0,0,-1,573,1709,0,0
-644,-685,0,0,0,0,0,0,0,0,0,-1,580,1709,0,0
-637,-685,0,0,0,0,0,0,0,0,0,-1,587,1709,0,0
-630,-685,0,0,0,0,0,0,0,0,0,-1,594,1709,0,0
-623,-685,0,0,0,0,0,0,0,0,0,-1,601,1709,0,0
-616,-685,0,0,0,0,0,0,0,0,0,-1,608,1709,0,0
-609,-685,0,0,0,0,0,0,0,0,0,-1,615,1709,0,0
-602,-685,0,0,0,0,0,0,0,0,0,-1,622,1709,0,0
-595,-685,0,0,0,0,0,0,0,0,0,-1,629,1709,0,0
-588,-685,0,0,0,0,0,0,0,0,0,-1,636,1709,0,0
-581,-685,0,0,0,0,0,0,0,0,0,-1,643,1709,0,0
-574,-685,0,0,0,0,0,0,0,0,0,-1,650,1709,0,0
-567,-685,0,0,0,0,0,0,0,0,0,-1,657,1709,0,0
-560,-685,0,0,0,0,0,0,0,0,0,-1,664,1709,0,0
-553,-685,0,0,0,0,0,0,0,0,0,-1,671,1709,0,0
-546,-685,0,0,0,0,0,0,0,0,0,-1,678,1709,0,0
-539,-685,0,0,0,0,0,0,0,0,0,-1,685,1709,0,0
-532,-685,0,0,0,0,0,0,0,0,0,-1,692,1709,0,0
-525,-685,0,0,0,0,0,0,0,0,0,-1,699,1709,0,0
-518,-685,0,0,0,0,0,0,0,0,0,-1,706,1709,0,0
-511,-685,0,0,0,0,0,0,0,0,0,-1,713,1709,0,0
-504,-685,0,0,0,0,0,0,0,0,0,-1,720,1709,0,0
-497,-685,0,0,0,0,0,0,0,0,0,-1,727,1709,0,0
-490,-685,0,0,0,0,0,0,0,0,0,-1,734,1709,0,0
-483,-685,0,0,0,0,0,0,0,0,0,-1,741,1709,0,0
-476,-685,0,0,0,0,0,0,0,0,0,-1,748,1709,0,0
-469,-685,0,0,0,0,0,0,0,0,0,-1,755,1709,0,0
-462,-685,0,0,0,0,0,0,0,0,0,-1,762,1709,0,0
-455,-685,0,0,0,0,0,0,0,0,0,-1,769,1709,0,0
-448,-685,0,0,0,0,0,0,0,0,0,-1,776,1709,0,0
-441,-685,0,0,0,0,0,0,0,0,0,-1,783,1709,0,0
-434,-685,0,0,0,0,0,0,0,0,0,-1,790,1709,0,0
-427,-685,0,0,0,0,0,0,0,0,0,-1,797,1709,0,0
-420,-685,0,0,0,0,0,0,0,0,0,-1,804,1709,0,0
-413,-685,0,0,0,0,0,0,0,0,0,-1,811,1709,0,0
-406,-685,0,0,0,0,0,0,0,0,0,-1,818,1709,0,0
-399,-685,0,0,0,0,0,0,0,0,0,-1,825,1709,0,0
-392,-685,0,0,0,0,0,0,0,0,0,-1,832,1709,0,0
-385,-685,0,0,0,0,0,0,0,0,0,-1,839,1709,0,0
-378,-685,0,0,0,0,0,0,0,0,0,-1,846,1709,0,0
-371,-685,0,0,0,0,0,0,0,0,0,-1,853,1709,0,0
-364,-685,0,0,0,0,0,0,0,0,0,-1,860,1709,0,0
-357,-685,0,0,0,0,0,0,0,0,0,-1,867,1709,0,0
-350,-685,0,0,0,0,0,0,0,0,0,-1,874,1709,0,0
-343,-685,-5.98505,6.56335,0,0,0,0,0,0,0,-1,881,1709,-5.98505,-6.56329
-336,-685,-6.51312,5.10571,0,0,0,0,0,0,0,-1,888,1709,-6.51311,-5.10575
-329,-685,-6.81384,3.34106,0,0,0,0,0,0,0,-1,895,1709,-6.81385,-3.341
-322,-685,3.83191,16.7219,0,0,0,0,0,0,0,-1,902,1709,3.8319,-16.7219
-315,-685,5.15784,21.4388,0,0,0,0,0,0,0,-1,909,1709,5.15783,-21.4389
-308,-685,6.36969,21.0303,0,0,0,0,0,0,0,-1,916,1709,6.36968,-21.0302
-301,-685,7.71271,20.1454,0,0,0,0,0,0,0,-1,923,1709,7.71272,-20.1454
-294,-685,4.99249,22.5214,0,0,0,0,0,0,0,-1,930,1709,4.9925,-22.5213
-287,-685,5.16522,21.9656,0,0,0,0,0,0,0,-1,937,1709,5.16522,-21.9655
-280,-685,6.13123,21.6705,0,0,0,0,0,0,0,-1,944,1709,6.1312,-21.6706
-273,-685,5.54321,21.608,-0.00177217,-0.00692042,-0.00342576,-6.12088e-05,-0.00863138,-0.463199,0.00573396,0.0454449,951,1709,5.54324,-21.608
-266,-685,5.61621,21.8953,-0.0014134,-0.00588214,-0.00265506,-0.000177647,-0.00711789,-0.435613,0.00468717,0.0446797,958,1709,5.61623,-21.8953
-259,-685,5.72418,22.1124,-0.000927332,-0.0050885,-0.00176441,-0.000279921,-0.00573591,-0.351676,0.00373413,0.0462478,965,1709,5.72419,-22.1124
-252,-685,5.63855,22.2354,-0.000401924,-0.00434062,-0.000880485,-0.000214056,-0.00452849,-0.210217,0.00295023,0.0394464,972,1709,5.63855,-22.2353
-245,-685,5.63263,22.5399,-3.31156e-05,-0.00362322,-0.000139982,-2.76656e-05,-0.00362867,-0.0389124,0.00240994,0.0330122,979,1709,5.63264,-22.5399
-238,-685,5.62488,22.8156,0.000113972,-0.00305187,0.000472714,0.000183049,-0.00312095,0.145102,0.00214425,0.0237785,986,1709,5.62485,-22.8156
-231,-685,5.58527,23.0925,0.000605601,-0.00242958,0.00119941,0.00102235,-0.00284633,0.334411,0.00231485,0.0153847,993,1709,5.58529,-23.0925
-224,-685,5.55786,23.3302,0.0011435,-0.00212594,0.00156277,0.00177031,-0.00275276,0.381449,0.00263185,0.0136963,1000,1709,5.55786,-23.3303
-217,-685,5.54803,23.5819,0.00126827,-0.00182459,0.00143852,0.0018339,-0.00239022,0.374632,0.00244583,0.0112039,1007,1709,5.54804,-23.582
-210,-685,5.53015,23.8478,0.00131183,-0.00159473,0.0015658,0.00199485,-0.00227775,0.411326,0.00246859,0.0150586,1014,1709,5.53015,-23.8478
-203,-685,5.53516,24.079,0.00139016,-0.00136309,0.00160035,0.00212451,-0.00209744,0.430204,0.00243756,0.0154735,1021,1709,5.53515,-24.0789
-196,-685,5.53235,24.3071,0.00139343,-0.00137456,0.0015222,0.00206674,-0.00204787,0.416458,0.00237558,0.0131715,1028,1709,5.53232,-24.3072
-189,-685,5.51697,24.5557,0.00133921,-0.00169487,0.00139977,0.00188633,-0.00224199,0.372607,0.00238644,0.00881938,1035,1709,5.51694,-24.5556
-182,-685,5.51086,24.7825,0.0013181,-0.00172959,0.00130692,0.00180178,-0.00221327,0.354458,0.00232214,0.013265,1042,1709,5.51081,-24.7825
-175,-685,5.50757,25.0004,0.00129977,-0.00121567,0.00110132,0.0017138,-0.00162971,0.359599,0.00193058,0.0144098,1049,1709,5.50752,-25.0004
-168,-685,5.50647,25.2406,0.00116583,-0.000962914,0.00112171,0.00164778,-0.00144487,0.40581,0.00178682,0.0105753,1056,1709,5.50649,-25.2406
-161,-685,5.51514,25.4681,0.00112106,-0.000884318,0.00109899,0.00160604,-0.0013693,0.415592,0.00171962,0.0116,1063,1709,5.51512,-25.4681
-154,-685,5.5094,25.6687,0.0011247,-0.000532968,0.00104016,0.00162586,-0.00103414,0.448996,0.00154837,0.0108388,1070,1709,5.50934,-25.6687
-147,-685,5.49426,25.8564,0.00115873,-9.16481e-05,0.0009051,0.00163357,-0.000566489,0.483156,0.00131907,0.00908345,1077,1709,5.49423,-25.8565
-140,-685,5.49109,26.031,0.0012373,0.00060261,0.000772727,0.00175531,8.4603e-05,0.590556,0.00114305,0.0111669,1084,1709,5.49112,-26.031
-133,-685,5.52588,26.2242,0.00141354,0.00139951,0.000688573,0.00209513,0.000717915,0.780302,0.00122943,0.0107152,1091,1709,5.52584,-26.2242
-126,-685,5.54456,26.4287,0.00176361,0.0024509,0.000766076,0.00294688,0.00126764,0.996233,0.0017069,0.00901105,1098,1709,5.54454,-26.4287
-119,-685,5.56836,26.6088,0.00213913,0.00331552,0.000753147,0.00368294,0.00177171,1.11692,0.00212685,0.0124947,1105,1709,5.56833,-26.6087
-112,-685,5.56152,26.7697,0.00257979,0.0042728,0.000674332,0.00450856,0.00234403,1.23446,0.00260371,0.0129691,1112,1709,5.56147,-26.7696
-105,-685,5.5387,26.9353,0.00313662,0.00513794,0.000636064,0.00532298,0.00295157,1.28769,0.0030793,0.0125231,1119,1709,5.53873,-26.9352
-98,-685,5.61731,27.0817,0.0038313,0.00562546,0.00077347,0.00591286,0.00354389,1.21503,0.00343619,0.0162227,1126,1709,5.61736,-27.0817
-91,-685,5.61255,27.1976,0.0043397,0.00618471,0.000976772,0.00660575,0.00391867,1.16381,0.00383586,0.0205314,1133,1709,5.61256,-27.1977
-84,-685,5.57532,27.3259,0.00510476,0.00620765,0.0012355,0.00700918,0.00430323,0.995299,0.00408163,0.0278449,1140,1709,5.57535,-27.326
-77,-685,5.7688,27.7166,0.00583103,0.00595994,0.00109939,0.00699675,0.00479421,0.814678,0.00413092,0.0466286,1147,1709,5.76876,-27.7166
-70,-685,5.75415,27.8795,0,0,0,0,0,0,0,-1,1154,1709,5.75417,-27.8796
-63,-685,5.8634,28.2644,0,0,0,0,0,0,0,-1,1161,1709,5.86335,-28.2645
-56,-685,3.93909,15.8704,0,0,0,0,0,0,0,-1,1168,1709,3.93905,-15.8704
-49,-685,3.07471,9.86011,0,0,0,0,0,0,0,-1,1175,1709,3.07467,-9.86009
-42,-685,2.70618,7.54504,0,0,0,0,0,0,0,-1,1182,1709,2.7062,-7.54504
-35,-685,2.95264,7.91516,0,0,0,0,0,0,0,-1,1189,1709,2.95262,-7.91517
-28,-685,5.7937,28.2739,0,0,0,0,0,0,0,-1,1196,1709,5.79375,-28.2739
-21,-685,5.83887,28.4111,0.0189973,0.0123603,-0.0121387,0.0282629,0.00309467,-0.651967,0.0178998,0.0465516,1203,1709,5.83888,-28.4112
-14,-685,5.98511,28.4269,0.0195657,0.012241,-0.0117818,0.0282412,0.0035655,-0.634709,0.0177587,0.0288485,1210,1709,5.98507,-28.4269
-7,-685,5.95386,28.551,0.0198981,0.0122396,-0.0111188,0.0278286,0.0043092,-0.619561,0.0172958,0.0410931,1217,1709,5.9538,-28.551
0,-685,6.00903,28.8997,0.0231319,0.0139103,-0.00790847,0.0276755,0.00936666,-0.521476,0.0162541,0.0442447,1224,1709,6.00903,-28.8996
7,-685,6.12244,29.1609,0.0280814,0.0152794,-0.00543481,0.0300774,0.0132834,-0.351974,0.0174046,0.0386201,1231,1709,6.12238,-29.1609
14,-685,6.22595,29.1472,0.031387,0.0180551,-0.00301493,0.0320371,0.017405,-0.212378,0.0185197,0.0405549,1238,1709,6.2259,-29.1472
21,-685,6.33789,29.0024,0.0349871,0.0214985,-0.000608235,0.0350145,0.0214711,-0.0449707,0.0203876,0.0389009,1245,1709,6.33786,-29.0025
28,-685,6.43616,29.0194,0.0432619,0.0253997,0.00386692,0.0440631,0.0245985,0.204302,0.0254973,0.04119,1252,1709,6.43622,-29.0194
35,-685,6.42639,28.9395,0.0529763,0.0267989,0.00620295,0.0543717,0.0254035,0.221282,0.031414,0.0412129,1259,1709,6.42643,-28.9394
42,-685,6.39514,29.0051,0.0610617,0.0289387,0.00913098,0.0634757,0.0265246,0.258468,0.0368122,0.0430827,1266,1709,6.39515,-29.0051
49,-685,5.84753,29.3279,0,0,0,0,0,0,0,-1,1273,1709,5.84759,-29.3278
56,-685,6.12024,29.4213,0.0745704,0.0312246,0.0107249,0.0770788,0.0287162,0.22976,0.0449808,0.0447636,1280,1709,6.12024,-29.4212
63,-685,6.49976,29.1829,0.0791284,0.0306193,0.00960831,0.0809622,0.0287855,0.188589,0.0473894,0.0467608,1287,1709,6.49978,-29.1828
70,-685,6.50269,29.1799,0.0811888,0.0275445,0.00655449,0.081978,0.0267552,0.119836,0.0482719,0.0447135,1294,1709,6.50271,-29.18
77,-685,6.48718,29.1578,0.0823627,0.0244825,0.00325389,0.082545,0.0243002,0.0559826,0.0489822,0.0435202,1301,1709,6.48716,-29.1578
84,-685,6.66406,28.9993,0.0807951,0.0198358,-0.000854348,0.0808071,0.0198238,-0.0140114,0.0486295,0.0461106,1308,1709,6.66404,-28.9992
91,-685,7.20715,29.2294,0.0770762,0.0151844,-0.00624461,0.0777,0.0145607,-0.0995587,0.0476932,0.0440499,1315,1709,7.20713,-29.2294
98,-685,7.20313,29.3567,0,0,0,0,0,0,0,-1,1322,1709,7.20313,-29.3567
105,-685,5.97522,29.0469,0.0623747,0.00581792,-0.0190058,0.0681681,2.44901e-05,-0.295876,0.0454373,0.041102,1329,1709,5.97522,-29.0469
112,-685,6.10266,28.8065,0.0547054,0.00350672,-0.0228863,0.0634442,-0.00523207,-0.36475,0.0441436,0.0445759,1336,1709,6.10264,-28.8065
119,-685,6.61743,28.5149,0.0504373,0.000882207,-0.0259764,0.0615583,-0.0102387,-0.404508,0.0448431,0.0408543,1343,1709,6.61747,-28.5149
126,-685,6.91724,28.5361,0.0456605,-0.000496212,-0.028248,0.059059,-0.0138947,-0.44289,0.0447295,0.0429047,1350,1709,6.91725,-28.5362
133,-685,7.07275,28.4039,0.0369023,-0.00129481,-0.031754,0.0548588,-0.0192512,-0.514654,0.0444032,0.047242,1357,1709,7.07271,-28.4039
140,-685,7.05212,28.9498,0,0,0,0,0,0,0,-1,1364,1709,7.05211,-28.9499
147,-685,7.1123,28.7803,0,0,0,0,0,0,0,-1,1371,1709,7.11232,-28.7803
154,-685,7.17249,28.6106,0,0,0,0,0,0,0,-1,1378,1709,7.17253,-28.6106
161,-685,7.2323,28.5691,0,0,0,0,0,0,0,-1,1385,1709,7.23231,-28.569
168,-685,4.37524,10.8778,0,0,0,0,0,0,0,-1,1392,1709,4.37525,-10.8778
175,-685,3.97522,8.94324,0,0,0,0,0,0,0,-1,1399,1709,3.97519,-8.94328
182,-685,3.98218,9.19739,0,0,0,0,0,0,0,-1,1406,1709,3.98221,-9.1974
189,-685,4.53479,15.2343,0,0,0,0,0,0,0,-1,1413,1709,4.53474,-15.2343
196,-685,7.09387,28.2169,0,0,0,0,0,0,0,-1,1420,1709,7.09386,-28.2169
203,-685,7.1051,27.9938,0,0,0,0,0,0,0,-1,1427,1709,7.10511,-27.9937
210,-685,7.27209,27.8035,0,0,0,0,0,0,0,-1,1434,1709,7.27208,-27.8034
217,-685,7.16968,27.6016,0,0,0,0,0,0,0,-1,1441,1709,7.16963,-27.6016
224,-685,7.30005,27.5817,0.000310096,-0.000286598,0.00192236,0.00195712,-0.00193362,0.708413,0.00224634,0.0331277,1448,1709,7.3001,-27.5817
231,-685,7.1908,27.377,0.000587653,-0.000190306,0.00133991,0.0015939,-0.00119655,0.644129,0.0016165,0.0210462,1455,1709,7.19081,-27.3769
238,-685,7.21643,27.2048,0.000845442,-0.000159464,0.000910389,0.00138283,-0.000696851,0.533244,0.00122228,0.0201019,1462,1709,7.21637,-27.2048
245,-685,7.21228,27.0649,0.0010338,-4.87905e-06,0.000652748,0.0013486,-0.000319682,0.449367,0.00102242,0.0195097,1469,1709,7.21222,-27.0649
252,-685,7.23792,26.922,0.00125611,2.24872e-05,0.000458771,0.00140801,-0.000129419,0.319754,0.000984655,0.013865,1476,1709,7.23793,-26.922
259,-685,7.23865,26.7769,0.00151412,0.000165988,0.000164759,0.00153397,0.000146144,0.119862,0.000977578,0.0100874,1483,1709,7.2386,-26.7769
266,-685,7.25049,26.6091,0.00171228,0.000216445,-8.9078e-05,0.00171756,0.000211159,-0.0592716,0.00108155,0.011879,1490,1709,7.25048,-26.6091
273,-685,7.25586,26.4089,0.00179397,0.000384039,-0.000275946,0.00184606,0.000331956,-0.186549,0.00113633,0.0149933,1497,1709,7.25585,-26.409
280,-685,7.25024,26.22,0.00177377,0.000577823,-0.000474626,0.00193924,0.000412355,-0.335451,0.00117965,0.0163567,1504,1709,7.25028,-26.2199
287,-685,7.27051,26.0519,0.00155094,0.000891679,-0.000589841,0.00189701,0.000545611,-0.530594,0.00112769,0.0120113,1511,1709,7.27051,-26.0519
294,-685,7.26746,25.8622,0.00118995,0.00121405,-0.000709445,0.00191155,0.000492454,-0.793888,0.00114604,0.0102504,1518,1709,7.26744,-25.8622
301,-685,7.25916,25.6567,0.000694602,0.0014345,-0.000776815,0.00192496,0.000204141,-1.00763,0.00122096,0.0129662,1525,1709,7.25911,-25.6567
308,-685,7.24927,25.4453,0.000157168,0.00163194,-0.000743271,0.00194154,-0.000152438,-1.17611,0.00134805,0.0143361,1532,1709,7.24924,-25.4453
315,-685,7.25354,25.2615,-0.000345842,0.00167492,-0.000557442,0.00181849,-0.000489416,-1.31872,0.00140419,0.0126408,1539,1709,7.25359,-25.2614
322,-685,7.24255,25.058,-0.000848066,0.00168065,-0.000379224,0.0017363,-0.000903712,-1.4251,0.00154927,0.0205947,1546,1709,7.24259,-25.058
329,-685,7.22498,24.8477,-0.0013685,0.00152238,-7.79674e-05,0.00152449,-0.0013706,-1.54385,0.00167226,0.0194597,1553,1709,7.22496,-24.8477
336,-685,7.21765,24.6141,-0.00185913,0.000923347,0.000816166,0.00114508,-0.00208086,1.30552,0.00188844,0.0133065,1560,1709,7.21766,-24.6141
343,-685,7.21448,24.3943,-0.00233523,-0.000242455,0.00195901,0.000932114,-0.0035098,1.03069,0.00270465,0.0123548,1567,1709,7.21447,-24.3943
350,-685,7.22351,24.1677,-0.00252951,-0.00164281,0.00316897,0.00111367,-0.00528599,0.854899,0.00394793,0.0126465,1574,1709,7.22354,-24.1678
357,-685,7.22766,23.9337,-0.00243317,-0.00363193,0.0046533,0.00165919,-0.00772429,0.721347,0.00578249,0.0099129,1581,1709,7.22766,-23.9337
364,-685,7.20056,23.7014,-0.00235518,-0.00595506,0.00641463,0.00250725,-0.0108175,0.648616,0.00817657,0.00984478,1588,1709,7.20057,-23.7014
371,-685,7.21631,23.443,-0.00213962,-0.00879484,0.00836629,0.00353653,-0.014471,0.59612,0.011017,0.0155502,1595,1709,7.21628,-23.443
378,-685,7.14673,23.2389,-0.00178532,-0.0119602,0.0105326,0.00482418,-0.0185697,0.560414,0.0142625,0.0237043,1602,1709,7.1467,-23.2389
385,-685,7.07202,23.0826,-0.00120921,-0.0153861,0.012768,0.00630605,-0.0229014,0.531995,0.0177471,0.042824,1609,1709,7.07207,-23.0827
392,-685,6.79028,23.1779,-0.000516592,-0.0188068,0.014939,0.00785416,-0.0271775,0.51074,0.0212264,0.0424114,1616,1709,6.79034,-23.1779
399,-685,6.87842,22.8953,0.000258567,-0.0228232,0.0169081,0.00918905,-0.0317537,0.485934,0.0248061,0.0457127,1623,1709,6.87841,-22.8953
406,-685,6.88416,22.7294,0,0,0,0,0,0,0,-1,1630,1709,6.88411,-22.7294
413,-685,6.13098,16.2029,0,0,0,0,0,0,0,-1,1637,1709,6.13099,-16.2029
420,-685,4.84631,10.3781,0,0,0,0,0,0,0,-1,1644,1709,4.84634,-10.378
427,-685,6.05151,9.21155,0,0,0,0,0,0,0,-1,1651,1709,6.05156,-9.21156
434,-685,4.87769,8.91418,0,0,0,0,0,0,0,-1,1658,1709,4.87768,-8.91413
441,-685,5.62,8.75549,0,0,0,0,0,0,0,-1,1665,1709,5.61996,-8.75545
448,-685,6.4043,8.58972,0,0,0,0,0,0,0,-1,1672,1709,6.40435,-8.58971
455,-685,2.31958,4.09802,0,0,0,0,0,0,0,-1,1679,1709,2.31957,-4.09803
462,-685,0,0,0,0,0,0,0,0,0,-1,1686,1709,0,0
469,-685,0,0,0,0,0,0,0,0,0,-1,1693,1709,0,0
476,-685,0,0,0,0,0,0,0,0,0,-1,1700,1709,0,0
483,-685,0,0,0,0,0,0,0,0,0,-1,1707,1709,0,0
490,-685,0,0,0,0,0,0,0,0,0,-1,1714,1709,0,0
497,-685,0,0,0,0,0,0,0,0,0,-1,1721,1709,0,0
504,-685,0,0,0,0,0,0,0,0,0,-1,1728,1709,0,0
511,-685,0,0,0,0,0,0,0,0,0,-1,1735,1709,0,0
518,-685,0,0,0,0,0,0,0,0,0,-1,1742,1709,0,0
525,-685,0,0,0,0,0,0,0,0,0,-1,1749,1709,0,0
532,-685,0,0,0,0,0,0,0,0,0,-1,1756,1709,0,0
539,-685,0,0,0,0,0,0,0,0,0,-1,1763,1709,0,0
546,-685,0,0,0,0,0,0,0,0,0,-1,1770,1709,0,0
553,-685,0,0,0,0,0,0,0,0,0,-1,1777,1709,0,0
560,-685,0,0,0,0,0,0,0,0,0,-1,1784,1709,0,0
567,-685,0,0,0,0,0,0,0,0,0,-1,1791,1709,0,0
574,-685,0,0,0,0,0,0,0,0,0,-1,1798,1709,0,0
581,-685,0,0,0,0,0,0,0,0,0,-1,1805,1709,0,0
588,-685,0,0,0,0,0,0,0,0,0,-1,1812,1709,0,0
595,-685,0,0,0,0,0,0,0,0,0,-1,1819,1709,0,0
602,-685,0,0,0,0,0,0,0,0,0,-1,1826,1709,0,0
609,-685,0,0,0,0,0,0,0,0,0,-1,1833,1709,0,0
616,-685,0,0,0,0,0,0,0,0,0,-1,1840,1709,0,0
623,-685,0,0,0,0,0,0,0,0,0,-1,1847,1709,0,0
630,-685,0,0,0,0,0,0,0,0,0,-1,1854,1709,0,0
637,-685,0,0,0,0,0,0,0,0,0,-1,1861,1709,0,0
644,-685,0,0,0,0,0,0,0,0,0,-1,1868,1709,0,0
651,-685,0,0,0,0,0,0,0,0,0,-1,1875,1709,0,0
658,-685,0,0,0,0,0,0,0,0,0,-1,1882,1709,0,0
665,-685,0,0,0,0,0,0,0,0,0,-1,1889,1709,0,0
672,-685,0,0,0,0,0,0,0,0,0,-1,1896,1709,0,0
679,-685,0,0,0,0,0,0,0,0,0,-1,1903,1709,0,0
686,-685,0,0,0,0,0,0,0,0,0,-1,1910,1709,0,0
693,-685,0,0,0,0,0,0,0,0,0,-1,1917,1709,0,0
700,-685,0,0,0,0,0,0,0,0,0,-1,1924,1709,0,0
707,-685,0,0,0,0,0,0,0,0,0,-1,1931,1709,0,0
714,-685,0,0,0,0,0,0,0,0,0,-1,1938,1709,0,0
721,-685,0,0,0,0,0,0,0,0,0,-1,1945,1709,0,0
728,-685,0,0,0,0,0,0,0,0,0,-1,1952,1709,0,0
735,-685,0,0,0,0,0,0,0,0,0,-1,1959,1709,0,0
742,-685,0,0,0,0,0,0,0,0,0,-1,1966,1709,0,0
749,-685,0,0,0,0,0,0,0,0,0,-1,1973,1709,0,0
756,-685,0,0,0,0,0,0,0,0,0,-1,1980,1709,0,0
763,-685,0,0,0,0,0,0,0,0,0,-1,1987,1709,0,0
770,-685,0,0,0,0,0,0,0,0,0,-1,1994,1709,0,0
777,-685,0,0,0,0,0,0,0,0,0,-1,2001,1709,0,0
784,-685,0,0,0,0,0,0,0,0,0,-1,2008,1709,0,0
791,-685,0,0,0,0,0,0,0,0,0,-1,2015,1709,0,0
798,-685,0,0,0,0,0,0,0,0,0,-1,2022,1709,0,0
805,-685,0,0,0,0,0,0,0,0,0,-1,2029,1709,0,0
812,-685,0,0,0,0,0,0,0,0,0,-1,2036,1709,0,0
-700,-692,0,0,0,0,0,0,0,0,0,-1,524,1716,0,0
-693,-692,0,0,0,0,0,0,0,0,0,-1,531,1716,0,0
-686,-692,0,0,0,0,0,0,0,0,0,-1,538,1716,0,0
-679,-692,0,0,0,0,0,0,0,0,0,-1,545,1716,0,0
-672,-692,0,0,0,0,0,0,0,0,0,-1,552,1716,0,0
-665,-692,0,0,0,0,0,0,0,0,0,-1,559,1716,0,0
-658,-692,0,0,0,0,0,0,0,0,0,-1,566,1716,0,0
-651,-692,0,0,0,0,0,0,0,0,0,-1,573,1716,0,0
-644,-692,0,0,0,0,0,0,0,0,0,-1,580,1716,0,0
-637,-692,0,0,0,0,0,0,0,0,0,-1,587,1716,0,0
-630,-692,0,0,0,0,0,0,0,0,0,-1,594,1716,0,0
-623,-692,0,0,0,0,0,0,0,0,0,-1,601,1716,0,0
-616,-692,0,0,0,0,0,0,0,0,0,-1,608,1716,0,0
-609,-692,0,0,0,0,0,0,0,0,0,-1,615,1716,0,0
-602,-692,0,0,0,0,0,0,0,0,0,-1,622,1716,0,0
-595,-692,0,0,0,0,0,0,0,0,0,-1,629,1716,0,0
-588,-692,0,0,0,0,0,0,0,0,0,-1,636,1716,0,0
-581,-692,0,0,0,0,0,0,0,0,0,-1,643,1716,0,0
-574,-692,0,0,0,0,0,0,0,0,0,-1,650,1716,0,0
-567,-692,0,0,0,0,0,0,0,0,0,-1,657,1716,0,0
-560,-692,0,0,0,0,0,0,0,0,0,-1,664,1716,0,0
-553,-692,0,0,0,0,0,0,0,0,0,-1,671,1716,0,0
-546,-692,0,0,0,0,0,0,0,0,0,-1,678,1716,0,0
-539,-692,0,0,0,0,0,0,0,0,0,-1,685,1716,0,0
-532,-692,0,0,0,0,0,0,0,0,0,-1,692,1716,0,0
-525,-692,0,0,0,0,0,0,0,0,0,-1,699,1716,0,0
-518,-692,0,0,0,0,0,0,0,0,0,-1,706,1716,0,0
-511,-692,0,0,0,0,0,0,0,0,0,-1,713,1716,0,0
-504,-692,0,0,0,0,0,0,0,0,0,-1,720,1716,0,0
-497,-692,0,0,0,0,0,0,0,0,0,-1,727,1716,0,0
-490,-692,0,0,0,0,0,0,0,0,0,-1,734,1716,0,0
-483,-692,0,0,0,0,0,0,0,0,0,-1,741,1716,0,0
-476,-692,0,0,0,0,0,0,0,0,0,-1,748,1716,0,0
-469,-692,0,0,0,0,0,0,0,0,0,-1,755,1716,0,0
-462,-692,0,0,0,0,0,0,0,0,0,-1,762,1716,0,0
-455,-692,0,0,0,0,0,0,0,0,0,-1,769,1716,0,0
-448,-692,0,0,0,0,0,0,0,0,0,-1,776,1716,0,0
-441,-692,0,0,0,0,0,0,0,0,0,-1,783,1716,0,0
-434,-692,0,0,0,0,0,0,0,0,0,-1,790,1716,0,0
-427,-692,0,0,0,0,0,0,0,0,0,-1,797,1716,0,0
-420,-692,0,0,0,0,0,0,0,0,0,-1,804,1716,0,0
-413,-692,0,0,0,0,0,0,0,0,0,-1,811,1716,0,0
-406,-692,0,0,0,0,0,0,0,0,0,-1,818,1716,0,0
-399,-692,0,0,0,0,0,0,0,0,0,-1,825,1716,0,0
-392,-692,0,0,0,0,0,0,0,0,0,-1,832,1716,0,0
-385,-692,0,0,0,0,0,0,0,0,0,-1,839,1716,0,0
-378,-692,0,0,0,0,0,0,0,0,0,-1,846,1716,0,0
-371,-692,0,0,0,0,0,0,0,0,0,-1,853,1716,0,0
-364,-692,0,0,0,0,0,0,0,0,0,-1,860,1716,0,0
-357,-692,0,0,0,0,0,0,0,0,0,-1,867,1716,0,0
-350,-692,0,0,0,0,0,0,0,0,0,-1,874,1716,0,0
-343,-692,0,0,0,0,0,0,0,0,0,-1,881,1716,0,0
-336,-692,0,0,0,0,0,0,0,0,0,-1,888,1716,0,0
-329,-692,3.03107,4.10266,0,0,0,0,0,0,0,-1,895,1716,3.03105,-4.10267
-322,-692,4.43713,18.5242,0,0,0,0,0,0,0,-1,902,1716,4.43711,-18.5241
-315,-692,5.38965,17.975,0,0,0,0,0,0,0,-1,909,1716,5.38963,-17.975
-308,-692,5.86938,17.4392,0,0,0,0,0,0,0,-1,916,1716,5.86937,-17.4392
-301,-692,8.65558,20.7662,0,0,0,0,0,0,0,-1,923,1716,8.65556,-20.7663
-294,-692,6.66138,19.0796,0,0,0,0,0,0,0,-1,930,1716,6.66141,-19.0796
-287,-692,5.45862,21.7904,0,0,0,0,0,0,0,-1,937,1716,5.45862,-21.7904
-280,-692,5.68671,21.759,0,0,0,0,0,0,0,-1,944,1716,5.68673,-21.7591
-273,-692,5.78705,21.6196,0,0,0,0,0,0,0,-1,951,1716,5.78702,-21.6196
-266,-692,6.29578,21.556,0,0,0,0,0,0,0,-1,958,1716,6.29578,-21.556
-259,-692,6.1391,22.0856,0,0,0,0,0,0,0,-1,965,1716,6.13908,-22.0856
-252,-692,5.94135,21.6224,0,0,0,0,0,0,0,-1,972,1716,5.94135,-21.6224
-245,-692,6.12787,22.0054,0.00112761,-0.00495596,0.000180794,0.00113298,-0.00496133,0.0296834,0.00374282,0.046205,979,1716,6.12787,-22.0053
-238,-692,6.24573,22.5446,0.00111206,-0.00434101,0.000933749,0.00126752,-0.00449647,0.164974,0.00349757,0.0408205,986,1716,6.24573,-22.5446
-231,-692,6.10632,23.0017,0.00168109,-0.00365227,0.00187174,0.00227241,-0.0042436,0.306,0.00381897,0.0332041,993,1716,6.1063,-23.0017
-224,-692,5.82611,23.3711,0.0022305,-0.00332089,0.00225988,0.00303412,-0.00412451,0.34166,0.00414899,0.0166594,1000,1716,5.82611,-23.3711
-217,-692,5.77856,23.598,0.00218003,-0.00287896,0.00203167,0.00289492,-0.00359385,0.338342,0.00375353,0.0117325,1007,1716,5.77855,-23.598
-210,-692,5.771,23.8423,0.00202045,-0.00244857,0.00217611,0.00290499,-0.00333311,0.386079,0.00360439,0.0133275,1014,1716,5.77101,-23.8423
-203,-692,5.78784,24.0709,0.00195256,-0.00196648,0.00218442,0.00292756,-0.00294148,0.419808,0.00338849,0.0150009,1021,1716,5.78783,-24.0709
-196,-692,5.78015,24.3204,0.00184671,-0.00171555,0.0020181,0.00275726,-0.0026261,0.423846,0.00310839,0.0165467,1028,1716,5.78018,-24.3204
-189,-692,5.72473,24.554,0.0017319,-0.0018851,0.00179524,0.00247165,-0.00262485,0.39086,0.00294291,0.00869252,1035,1716,5.72474,-24.5539
-182,-692,5.7168,24.7858,0.00165934,-0.00176138,0.0015865,0.00228185,-0.00238389,0.373924,0.00269399,0.0136884,1042,1716,5.71683,-24.7858
-175,-692,5.70459,25.0248,0.0015801,-0.000981777,0.00122125,0.00206898,-0.00147066,0.380775,0.00205332,0.0157785,1049,1716,5.70455,-25.0248
-168,-692,5.71057,25.2452,0.00136951,-0.000578505,0.00115671,0.00190768,-0.00111667,0.435469,0.0017659,0.0119816,1056,1716,5.71059,-25.2452
-161,-692,5.7323,25.4917,0.00131415,-0.000493436,0.00102915,0.00178002,-0.000959309,0.42508,0.00160504,0.0142702,1063,1716,5.73228,-25.4917
-154,-692,5.70605,25.6982,0.0012963,-0.000177865,0.000889731,0.0017146,-0.000596167,0.439479,0.00138523,0.0148804,1070,1716,5.706,-25.6983
-147,-692,5.69629,25.8806,0.00129281,0.000147716,0.000697631,0.00162276,-0.000182232,0.441779,0.00114742,0.0126166,1077,1716,5.69627,-25.8807
-140,-692,5.69751,26.0474,0.00132337,0.000697846,0.000537166,0.00163219,0.000389024,0.521767,0.00098442,0.0101902,1084,1716,5.69751,-26.0473
-133,-692,5.7168,26.2303,0.00143195,0.001331,0.000439365,0.00182373,0.000939219,0.728203,0.00105309,0.00979539,1091,1716,5.71683,-26.2303
-126,-692,5.72302,26.4207,0.00158667,0.00214548,0.000457703,0.00240232,0.00132983,1.05943,0.00138963,0.00817306,1098,1716,5.723,-26.4207
-119,-692,5.72852,26.6051,0.00178489,0.00287562,0.000494896,0.0030667,0.00159381,1.20234,0.00177102,0.0117693,1105,1716,5.72852,-26.6051
-112,-692,5.729,26.7758,0.00210208,0.00354357,0.000497155,0.0036984,0.00194725,1.26888,0.00213627,0.0113519,1112,1716,5.72902,-26.7758
-105,-692,5.78162,26.9323,0.00244272,0.0040555,0.000509216,0.00420282,0.0022954,1.28918,0.00242995,0.0160078,1119,1716,5.7816,-26.9323
-98,-692,5.81177,27.0681,0.00279807,0.00439576,0.000665143,0.00463642,0.00255741,1.22363,0.00268158,0.0166791,1126,1716,5.81175,-27.0681
-91,-692,5.78052,27.199,0.00319651,0.0047537,0.000810293,0.00509884,0.00285137,1.16812,0.00295069,0.018271,1133,1716,5.78055,-27.199
-84,-692,5.77307,27.35,0.00374829,0.00477014,0.000992073,0.00537513,0.00314331,1.02319,0.00311817,0.0206161,1140,1716,5.77309,-27.35
-77,-692,5.78149,27.5402,0.00429398,0.00461046,0.000883948,0.00535022,0.00355422,0.873967,0.00314406,0.0164381,1147,1716,5.78147,-27.5402
-70,-692,5.83801,27.71,0.00476657,0.00422575,0.00044156,0.00501394,0.00397838,0.510655,0.00305649,0.0305344,1154,1716,5.83796,-27.71
-63,-692,5.87878,27.8665,0.00432795,0.00721201,-0.00253905,0.00868995,0.00285001,-1.04365,0.00511518,0.0487529,1161,1716,5.87875,-27.8664
-56,-692,5.8291,27.8954,0,0,0,0,0,0,0,-1,1168,1716,5.82908,-27.8954
-49,-692,5.86096,28.0791,0,0,0,0,0,0,0,-1,1175,1716,5.86099,-28.0791
-42,-692,5.90027,28.3285,0,0,0,0,0,0,0,-1,1182,1716,5.90022,-28.3285
-35,-692,5.98596,28.4117,0,0,0,0,0,0,0,-1,1189,1716,5.98597,-28.4118
-28,-692,5.9303,28.4392,0.0115238,0.00986507,-0.00969455,0.0204244,0.000964453,-0.742728,0.0133064,0.0444536,1196,1716,5.93025,-28.4392
-21,-692,6.02808,28.351,0.0121132,0.00968665,-0.0105759,0.0215452,0.000254669,-0.728287,0.0142793,0.0319059,1203,1716,6.02804,-28.3509
-14,-692,6.05493,28.4491,0.0127434,0.00953401,-0.0103122,0.021575,0.000702386,-0.708212,0.014155,0.01684,1210,1716,6.05497,-28.449
-7,-692,6.02087,28.5752,0.0132452,0.0093516,-0.00973241,0.0212236,0.0013732,-0.686684,0.0137143,0.0155136,1217,1716,6.02082,-28.5752
0,-692,6.0625,28.6647,0.0165498,0.0104107,-0.00670624,0.0208556,0.00610494,-0.570774,0.0123811,0.0187305,1224,1716,6.06255,-28.6647
7,-692,6.10693,28.7678,0.0210022,0.0111339,-0.00451897,0.0227588,0.00937722,-0.370753,0.0132075,0.022977,1231,1716,6.10696,-28.7678
14,-692,6.20459,28.8983,0.0238848,0.0126855,-0.00234205,0.0243548,0.0122155,-0.19807,0.0140613,0.024211,1238,1716,6.20461,-28.8983
21,-692,6.32495,28.8823,0.0270638,0.0146,-0.000131937,0.0270652,0.0145986,-0.010584,0.0156423,0.0255596,1245,1716,6.32498,-28.8823
28,-692,6.31836,28.8538,0.0340718,0.0170318,0.00377465,0.0348705,0.0162331,0.208523,0.0201484,0.0273824,1252,1716,6.31831,-28.8537
35,-692,6.30298,28.9114,0.0421727,0.0174737,0.00586299,0.0434938,0.0161526,0.221624,0.0253866,0.0251619,1259,1716,6.30298,-28.9114
42,-692,6.37854,29.0239,0.0490622,0.0186607,0.00870727,0.0513794,0.0163435,0.260096,0.0303113,0.0220958,1266,1716,6.3785,-29.024
49,-692,6.41125,29.0497,0.055213,0.019405,0.0108676,0.0582532,0.0163648,0.272773,0.0346919,0.0266336,1273,1716,6.41121,-29.0497
56,-692,6.39368,29.0486,0.0604704,0.0197159,0.0113298,0.0634083,0.016778,0.25372,0.0379371,0.0323173,1280,1716,6.39367,-29.0486
63,-692,6.41064,29.0411,0.0642108,0.0192765,0.0111375,0.0668198,0.0166674,0.230111,0.0401607,0.0314673,1287,1716,6.41069,-29.0412
70,-692,6.45007,29.0808,0.0657973,0.0169446,0.00943671,0.0675568,0.0151852,0.184335,0.0409262,0.0279246,1294,1716,6.45011,-29.0808
77,-692,6.52295,29.0692,0.0665193,0.0146354,0.00778799,0.0676631,0.0134916,0.145824,0.0413518,0.0321209,1301,1716,6.52296,-29.0692
84,-692,6.5415,28.9578,0.0650272,0.0113061,0.00544761,0.065574,0.0107593,0.100049,0.0406075,0.0412467,1308,1716,6.54153,-28.9577
91,-692,6.68469,29.0098,0.0615676,0.00793624,0.0024185,0.0616764,0.0078274,0.0449732,0.0387727,0.0373117,1315,1716,6.68465,-29.0098
98,-692,6.54773,29.0004,0.056441,0.00473038,-0.000791583,0.0564531,0.00471827,-0.0153032,0.0361654,0.0288978,1322,1716,6.54768,-29.0004
105,-692,6.3761,29.0779,0.0481336,0.000904823,-0.00564324,0.0487985,0.00023989,-0.117288,0.0324527,0.0368259,1329,1716,6.37612,-29.0779
112,-692,6.46313,28.9448,0.0410459,-0.00122305,-0.00756534,0.0423592,-0.0025363,-0.171875,0.0291217,0.0413622,1336,1716,6.46314,-28.9448
119,-692,6.69836,28.7599,0.0368596,-0.00351993,-0.00888504,0.0387281,-0.00538851,-0.207286,0.0277896,0.0307238,1343,1716,6.69838,-28.7598
126,-692,6.76331,28.6943,0.0320503,-0.00491817,-0.00961575,0.0344018,-0.00726971,-0.239844,0.0257028,0.0297423,1350,1716,6.76331,-28.6943
133,-692,6.85632,28.6805,0.0230891,-0.0063894,-0.0118684,0.0272734,-0.0105738,-0.338959,0.022549,0.023541,1357,1716,6.85631,-28.6805
140,-692,6.86694,28.7415,0.0150922,-0.00461845,-0.0103991,0.0195641,-0.00909035,-0.40612,0.016908,0.0279916,1364,1716,6.86694,-28.7414
147,-692,6.8717,28.7112,0.0137215,-0.00441258,-0.00907551,0.0174832,-0.00817426,-0.392932,0.0151348,0.032675,1371,1716,6.87175,-28.7112
154,-692,6.8385,28.6178,0.0126957,-0.00359722,-0.00718229,0.0154097,-0.00631124,-0.361291,0.0129021,0.0291003,1378,1716,6.83849,-28.6178
161,-692,6.99292,28.5328,0.0104511,-0.00390285,-0.00351855,0.0112672,-0.00471894,-0.22791,0.00948422,0.0388797,1385,1716,6.99297,-28.5329
168,-692,6.90405,28.4377,0,0,0,0,0,0,0,-1,1392,1716,6.9041,-28.4377
175,-692,6.95508,28.2944,0,0,0,0,0,0,0,-1,1399,1716,6.95503,-28.2945
182,-692,6.95325,28.1743,0,0,0,0,0,0,0,-1,1406,1716,6.95328,-28.1743
189,-692,6.96191,28.1317,0,0,0,0,0,0,0,-1,1413,1716,6.96197,-28.1317
196,-692,6.96973,28.022,0.00234207,0.001015,0.00250145,0.0042665,-0.00090943,0.655754,0.00319097,0.0356755,1420,1716,6.96976,-28.0219
203,-692,6.98608,27.9041,0.00197563,1.94117e-06,0.00243981,0.00362062,-0.00164304,0.593218,0.00310965,0.0222979,1427,1716,6.98613,-27.904
210,-692,7.06653,27.7892,0.0014201,-0.00027236,0.00237313,0.00309336,-0.00194562,0.614132,0.0029343,0.0182925,1434,1716,7.06659,-27.7892
217,-692,7.03247,27.6382,0.000923647,-0.000680555,0.00202358,0.0022983,-0.00205521,0.596709,0.0025148,0.0174383,1441,1716,7.0325,-27.6382
224,-692,7.01331,27.53,0.000725549,-0.000703899,0.00179777,0.00194546,-0.00192381,0.596197,0.00223393,0.0138376,1448,1716,7.01332,-27.5301
231,-692,7.02429,27.4004,0.000749887,-0.000556022,0.00130996,0.00156061,-0.00136674,0.554193,0.00169134,0.0118117,1455,1716,7.02433,-27.4004
238,-692,7.0614,27.2029,0.000795102,-0.000372626,0.000884313,0.00127091,-0.000848435,0.493626,0.00123168,0.0175462,1462,1716,7.06141,-27.2029
245,-692,7.05811,27.0588,0.000826337,-7.20488e-05,0.000536673,0.001077,-0.000322707,0.43695,0.000846329,0.0193448,1469,1716,7.05805,-27.0589
252,-692,7.06799,26.9257,0.000879878,0.000178082,0.000226521,0.000946641,0.000111318,0.286619,0.000597455,0.0181419,1476,1716,7.06797,-26.9257
259,-692,7.06653,26.7787,0.000961719,0.000498684,-0.000128911,0.000995189,0.000465214,-0.254028,0.000574978,0.010175,1483,1716,7.06651,-26.7787
266,-692,7.06348,26.6285,0.00102023,0.000809691,-0.000445222,0.00137246,0.000457463,-0.669308,0.000806933,0.0105881,1490,1716,7.06342,-26.6286
273,-692,7.06213,26.4147,0.00101502,0.00117493,-0.000695072,0.00179463,0.000395318,-0.842663,0.00108884,0.0154736,1497,1716,7.0621,-26.4147
280,-692,7.07617,26.22,0.000928432,0.00149314,-0.000934362,0.00218688,0.000234693,-0.932129,0.00138632,0.0147233,1504,1716,7.07613,-26.2199
287,-692,7.09058,26.0612,0.000703874,0.00175722,-0.00105343,0.00240829,5.27988e-05,-1.01721,0.00158822,0.0112759,1511,1716,7.0906,-26.0612
294,-692,7.08215,25.8861,0.000330054,0.00208625,-0.00118697,0.00268462,-0.00026831,-1.10386,0.00188556,0.0102292,1518,1716,7.08221,-25.8861
301,-692,7.0719,25.6884,-0.00023344,0.0022985,-0.00120848,0.0027827,-0.00071764,-1.18971,0.00213494,0.0132557,1525,1716,7.07184,-25.6883
308,-692,7.04517,25.4828,-0.000798688,0.00234333,-0.00111531,0.00269898,-0.00115433,-1.26212,0.00228351,0.0166762,1532,1716,7.04515,-25.4828
315,-692,7.04797,25.2765,-0.0013488,0.00238452,-0.000864372,0.00257493,-0.00153921,-1.35397,0.00240026,0.0150319,1539,1716,7.048,-25.2765
322,-692,7.01648,25.0493,-0.00189512,0.00235366,-0.000626375,0.00244408,-0.00198554,-1.42743,0.00256201,0.0199685,1546,1716,7.01648,-25.0493
329,-692,7.01318,24.848,-0.00248456,0.0021464,-0.000206816,0.00215562,-0.00249378,-1.52626,0.0026867,0.018146,1553,1716,7.01315,-24.848
336,-692,7.01636,24.6246,-0.00300704,0.00138621,0.000942493,0.00157986,-0.0032007,1.36814,0.00281244,0.0116431,1560,1716,7.01632,-24.6247
343,-692,7.00342,24.3933,-0.00353017,-8.384e-05,0.00243729,0.0011779,-0.00479191,1.0931,0.00365113,0.0126078,1567,1716,7.00343,-24.3933
350,-692,6.99109,24.1669,-0.00375553,-0.00183448,0.00407004,0.00138684,-0.00697686,0.901277,0.00517583,0.0140695,1574,1716,6.99112,-24.1668
357,-692,6.95984,23.9043,-0.00360337,-0.00432255,0.00609701,0.00214465,-0.0100706,0.755943,0.00753108,0.0169456,1581,1716,6.9598,-23.9044
364,-692,6.98547,23.6641,-0.00341113,-0.00726635,0.00851683,0.0033935,-0.014071,0.674108,0.0106929,0.0234367,1588,1716,6.98544,-23.6641
371,-692,7.0592,23.469,-0.00303061,-0.011065,0.0112989,0.00494396,-0.0190395,0.614598,0.0146223,0.0387993,1595,1716,7.05921,-23.469
378,-692,6.92078,23.3955,0,0,0,0,0,0,0,-1,1602,1716,6.92074,-23.3956
385,-692,6.14868,23.3893,-0.00161536,-0.0199337,0.0176594,0.00911882,-0.0306679,0.546167,0.0240677,0.048398,1609,1716,6.14863,-23.3892
392,-692,6.21472,23.4783,-0.000488901,-0.0245481,0.0208916,0.011589,-0.0366259,0.524177,0.029061,0.0490153,1616,1716,6.21469,-23.4783
399,-692,6.26379,23.5751,0,0,0,0,0,0,0,-1,1623,1716,6.26378,-23.5751
406,-692,4.73633,10.6808,0,0,0,0,0,0,0,-1,1630,1716,4.73637,-10.6808
413,-692,4.25085,10.5685,0,0,0,0,0,0,0,-1,1637,1716,4.2508,-10.5685
420,-692,5.48901,10.4845,0,0,0,0,0,0,0,-1,1644,1716,5.48906,-10.4845
427,-692,3.79578,8.60339,0,0,0,0,0,0,0,-1,1651,1716,3.79577,-8.6034
434,-692,4.78516,8.64636,0,0,0,0,0,0,0,-1,1658,1716,4.78512,-8.64634
441,-692,5.8208,8.74036,0,0,0,0,0,0,0,-1,1665,1716,5.82084,-8.7404
448,-692,6.73792,8.51013,0,0,0,0,0,0,0,-1,1672,1716,6.73793,-8.5101
455,-692,0,0,0,0,0,0,0,0,0,-1,1679,1716,0,0
462,-692,0,0,0,0,0,0,0,0,0,-1,1686,1716,0,0
469,-692,0,0,0,0,0,0,0,0,0,-1,1693,1716,0,0
476,-692,0,0,0,0,0,0,0,0,0,-1,1700,1716,0,0
483,-692,0,0,0,0,0,0,0,0,0,-1,1707,1716,0,0
490,-692,0,0,0,0,0,0,0,0,0,-1,1714,1716,0,0
497,-692,0,0,0,0,0,0,0,0,0,-1,1721,1716,0,0
504,-692,0,0,0,0,0,0,0,0,0,-1,1728,1716,0,0
511,-692,0,0,0,0,0,0,0,0,0,-1,1735,1716,0,0
518,-692,0,0,0,0,0,0,0,0,0,-1,1742,1716,0,0
525,-692,0,0,0,0,0,0,0,0,0,-1,1749,1716,0,0
532,-692,0,0,0,0,0,0,0,0,0,-1,1756,1716,0,0
539,-692,0,0,0,0,0,0,0,0,0,-1,1763,1716,0,0
546,-692,0,0,0,0,0,0,0,0,0,-1,1770,1716,0,0
553,-692,0,0,0,0,0,0,0,0,0,-1,1777,1716,0,0
560,-692,0,0,0,0,0,0,0,0,0,-1,1784,1716,0,0
567,-692,0,0,0,0,0,0,0,0,0,-1,1791,1716,0,0
574,-692,0,0,0,0,0,0,0,0,0,-1,1798,1716,0,0
581,-692,0,0,0,0,0,0,0,0,0,-1,1805,1716,0,0
588,-692,0,0,0,0,0,0,0,0,0,-1,1812,1716,0,0
595,-692,0,0,0,0,0,0,0,0,0,-1,1819,1716,0,0
602,-692,0,0,0,0,0,0,0,0,0,-1,1826,1716,0,0
609,-692,0,0,0,0,0,0,0,0,0,-1,1833,1716,0,0
616,-692,0,0,0,0,0,0,0,0,0,-1,1840,1716,0,0
623,-692,0,0,0,0,0,0,0,0,0,-1,1847,1716,0,0
630,-692,0,0,0,0,0,0,0,0,0,-1,1854,1716,0,0
637,-692,0,0,0,0,0,0,0,0,0,-1,1861,1716,0,0
644,-692,0,0,0,0,0,0,0,0,0,-1,1868,1716,0,0
651,-692,0,0,0,0,0,0,0,0,0,-1,1875,1716,0,0
658,-692,0,0,0,0,0,0,0,0,0,-1,1882,1716,0,0
665,-692,0,0,0,0,0,0,0,0,0,-1,1889,1716,0,0
672,-692,0,0,0,0,0,0,0,0,0,-1,1896,1716,0,0
679,-692,0,0,0,0,0,0,0,0,0,-1,1903,1716,0,0
686,-692,0,0,0,0,0,0,0,0,0,-1,1910,1716,0,0
693,-692,0,0,0,0,0,0,0,0,0,-1,1917,1716,0,0
700,-692,0,0,0,0,0,0,0,0,0,-1,1924,1716,0,0
707,-692,0,0,0,0,0,0,0,0,0,-1,1931,1716,0,0
714,-692,0,0,0,0,0,0,0,0,0,-1,1938,1716,0,0
721,-692,0,0,0,0,0,0,0,0,0,-1,1945,1716,0,0
728,-692,0,0,0,0,0,0,0,0,0,-1,1952,1716,0,0
735,-692,0,0,0,0,0,0,0,0,0,-1,1959,1716,0,0
742,-692,0,0,0,0,0,0,0,0,0,-1,1966,1716,0,0
749,-692,0,0,0,0,0,0,0,0,0,-1,1973,1716,0,0
756,-692,0,0,0,0,0,0,0,0,0,-1,1980,1716,0,0
763,-692,0,0,0,0,0,0,0,0,0,-1,1987,1716,0,0
770,-692,0,0,0,0,0,0,0,0,0,-1,1994,1716,0,0
777,-692,0,0,0,0,0,0,0,0,0,-1,2001,1716,0,0
784,-692,0,0,0,0,0,0,0,0,0,-1,2008,1716,0,0
791,-692,0,0,0,0,0,0,0,0,0,-1,2015,1716,0,0
798,-692,0,0,0,0,0,0,0,0,0,-1,2022,1716,0,0
805,-692,0,0,0,0,0,0,0,0,0,-1,2029,1716,0,0
812,-692,0,0,0,0,0,0,0,0,0,-1,2036,1716,0,0
-700,-699,0,0,0,0,0,0,0,0,0,-1,524,1723,0,0
-693,-699,0,0,0,0,0,0,0,0,0,-1,531,1723,0,0
-686,-699,0,0,0,0,0,0,0,0,0,-1,538,1723,0,0
-679,-699,0,0,0,0,0,0,0,0,0,-1,545,1723,0,0
-672,-699,0,0,0,0,0,0,0,0,0,-1,552,1723,0,0
-665,-699,0,0,0,0,0,0,0,0,0,-1,559,1723,0,0
-658,-699,0,0,0,0,0,0,0,0,0,-1,566,1723,0,0
-651,-699,0,0,0,0,0,0,0,0,0,-1,573,1723,0,0
-644,-699,0,0,0,0,0,0,0,0,0,-1,580,1723,0,0
-637,-699,0,0,0,0,0,0,0,0,0,-1,587,1723,0,0
-630,-699,0,0,0,0,0,0,0,0,0,-1,594,1723,0,0
-623,-699,0,0,0,0,0,0,0,0,0,-1,601,1723,0,0
-616,-699,0,0,0,0,0,0,0,0,0,-1,608,1723,0,0
-609,-699,0,0,0,0,0,0,0,0,0,-1,615,1723,0,0
-602,-699,0,0,0,0,0,0,0,0,0,-1,622,1723,0,0
-595,-699,0,0,0,0,0,0,0,0,0,-1,629,1723,0,0
-588,-699,0,0,0,0,0,0,0,0,0,-1,636,1723,0,0
-581,-699,0,0,0,0,0,0,0,0,0,-1,643,1723,0,0
-574,-699,0,0,0,0,0,0,0,0,0,-1,650,1723,0,0
-567,-699,0,0,0,0,0,0,0,0,0,-1,657,1723,0,0
-560,-699,0,0,0,0,0,0,0,0,0,-1,664,1723,0,0
-553,-699,0,0,0,0,0,0,0,0,0,-1,671,1723,0,0
-546,-699,0,0,0,0,0,0,0,0,0,-1,678,1723,0,0
-539,-699,0,0,0,0,0,0,0,0,0,-1,685,1723,0,0
-532,-699,0,0,0,0,0,0,0,0,0,-1,692,1723,0,0
-525,-699,0,0,0,0,0,0,0,0,0,-1,699,1723,0,0
-518,-699,0,0,0,0,0,0,0,0,0,-1,706,1723,0,0
-511,-699,0,0,0,0,0,0,0,0,0,-1,713,1723,0,0
-504,-699,0,0,0,0,0,0,0,0,0,-1,720,1723,0,0
-497,-699,0,0,0,0,0,0,0,0,0,-1,727,1723,0,0
-490,-699,0,0,0,0,0,0,0,0,0,-1,734,1723,0,0
-483,-699,0,0,0,0,0,0,0,0,0,-1,741,1723,0,0
-476,-699,0,0,0,0,0,0,0,0,0,-1,748,1723,0,0
-469,-699,0,0,0,0,0,0,0,0,0,-1,755,1723,0,0
-462,-699,0,0,0,0,0,0,0,0,0,-1,762,1723,0,0
-455,-699,0,0,0,0,0,0,0,0,0,-1,769,1723,0,0
-448,-699,0,0,0,0,0,0,0,0,0,-1,776,1723,0,0
-441,-699,0,0,0,0,0,0,0,0,0,-1,783,1723,0,0
-434,-699,0,0,0,0,0,0,0,0,0,-1,790,1723,0,0
-427,-699,0,0,0,0,0,0,0,0,0,-1,797,1723,0,0
-420,-699,0,0,0,0,0,0,0,0,0,-1,804,1723,0,0
-413,-699,0,0,0,0,0,0,0,0,0,-1,811,1723,0,0
-406,-699,0,0,0,0,0,0,0,0,0,-1,818,1723,0,0
-399,-699,0,0,0,0,0,0,0,0,0,-1,825,1723,0,0
-392,-699,0,0,0,0,0,0,0,0,0,-1,832,1723,0,0
-385,-699,0,0,0,0,0,0,0,0,0,-1,839,1723,0,0
-378,-699,0,0,0,0,0,0,0,0,0,-1,846,1723,0,0
-371,-699,0,0,0,0,0,0,0,0,0,-1,853,1723,0,0
-364,-699,0,0,0,0,0,0,0,0,0,-1,860,1723,0,0
-357,-699,0,0,0,0,0,0,0,0,0,-1,867,1723,0,0
-350,-699,0,0,0,0,0,0,0,0,0,-1,874,1723,0,0
-343,-699,0,0,0,0,0,0,0,0,0,-1,881,1723,0,0
-336,-699,0,0,0,0,0,0,0,0,0,-1,888,1723,0,0
-329,-699,0,0,0,0,0,0,0,0,0,-1,895,1723,0,0
-322,-699,0,0,0,0,0,0,0,0,0,-1,902,1723,0,0
-315,-699,6.20001,19.5193,0,0,0,0,0,0,0,-1,909,1723,6.20001,-19.5193
-308,-699,6.98151,18.9218,0,0,0,0,0,0,0,-1,916,1723,6.98151,-18.9217
-301,-699,4.72729,12.8752,0,0,0,0,0,0,0,-1,923,1723,4.72732,-12.8752
-294,-699,6.90332,19.8601,0,0,0,0,0,0,0,-1,930,1723,6.90332,-19.8601
-287,-699,7.09802,22.7235,0,0,0,0,0,0,0,-1,937,1723,7.09805,-22.7235
-280,-699,6.72089,21.9105,0,0,0,0,0,0,0,-1,944,1723,6.72088,-21.9105
-273,-699,6.34369,21.0975,0,0,0,0,0,0,0,-1,951,1723,6.34372,-21.0975
-266,-699,6.81915,20.8951,0,0,0,0,0,0,0,-1,958,1723,6.81914,-20.8952
-259,-699,5.39758,14.5466,0,0,0,0,0,0,0,-1,965,1723,5.39759,-14.5466
-252,-699,6.98651,21.5909,0,0,0,0,0,0,0,-1,972,1723,6.98649,-21.591
-245,-699,6.67914,21.5701,0,0,0,0,0,0,0,-1,979,1723,6.67915,-21.5701
-238,-699,6.84857,22.3107,0,0,0,0,0,0,0,-1,986,1723,6.84854,-22.3107
-231,-699,5.52728,23.8601,0.00359688,-0.00522768,0.00294572,0.00448984,-0.00612063,0.294331,0.00615003,0.0419211,993,1723,5.52731,-23.8601
-224,-699,5.66864,23.6904,0.00421692,-0.0048447,0.00329615,0.00528904,-0.00591682,0.314471,0.00647309,0.0354888,1000,1723,5.66862,-23.6904
-217,-699,5.91852,23.787,0,0,0,0,0,0,0,-1,1007,1723,5.9185,-23.787
-210,-699,6.03448,23.87,0.00344633,-0.00367499,0.00312699,0.00462448,-0.00485315,0.360321,0.00547244,0.0192231,1014,1723,6.03449,-23.87
-203,-699,6.02698,24.0684,0.00317332,-0.00296217,0.00307427,0.00444863,-0.00423749,0.39323,0.00501543,0.0220781,1021,1723,6.02701,-24.0684
-196,-699,6.01099,24.2856,0.002847,-0.00247519,0.00280409,0.0040517,-0.00367989,0.405779,0.00446555,0.0175091,1028,1723,6.01096,-24.2857
-189,-699,5.95593,24.5564,0.00255725,-0.00251676,0.00247214,0.00356254,-0.00352205,0.386225,0.00409031,0.0091619,1035,1723,5.95593,-24.5565
-182,-699,5.93994,24.7963,0.00228352,-0.00227304,0.00213805,0.00312963,-0.00311915,0.376827,0.00360774,0.0126729,1042,1723,5.94,-24.7963
-175,-699,5.9314,25.0226,0.00197867,-0.00126368,0.00162343,0.00265178,-0.00193678,0.393046,0.00265991,0.0147215,1049,1723,5.93135,-25.0226
-168,-699,5.9502,25.2228,0.00154007,-0.000732911,0.00149476,0.00228132,-0.00147416,0.460363,0.00218486,0.0154469,1056,1723,5.9502,-25.2228
-161,-699,5.93799,25.4598,0.00133823,-0.000645633,0.00128348,0.00196841,-0.00127582,0.456417,0.00188723,0.0132959,1063,1723,5.93801,-25.4598
-154,-699,5.91235,25.6852,0.00118496,-0.000348129,0.00108749,0.00174891,-0.000912082,0.478403,0.00156144,0.0131174,1070,1723,5.91239,-25.6851
-147,-699,5.90125,25.8868,0.00105705,-9.56387e-05,0.000851308,0.00150876,-0.00054735,0.487834,0.00122959,0.0140428,1077,1723,5.90121,-25.8868
-140,-699,5.89502,26.0514,0.000993229,0.000389051,0.000666482,0.00142289,-4.06093e-05,0.572618,0.000962415,0.00963562,1084,1723,5.89501,-26.0513
-133,-699,5.90771,26.2512,0.00102191,0.000958813,0.00055821,0.00154946,0.000431259,0.757171,0.000923422,0.00887659,1091,1723,5.90772,-26.2512
-126,-699,5.9165,26.4243,0.00097747,0.00165383,0.00049956,0.00191891,0.000712387,1.08294,0.00112006,0.0119212,1098,1723,5.91645,-26.4244
-119,-699,5.93237,26.6025,0.00104585,0.00235093,0.000561453,0.00255923,0.000837559,1.21554,0.00150667,0.0173529,1105,1723,5.93233,-26.6025
-112,-699,5.89966,26.7864,0.00131521,0.00287394,0.000608932,0.00308362,0.00110553,1.23917,0.00180393,0.0114632,1112,1723,5.8996,-26.7864
-105,-699,5.92249,26.9517,0.00158493,0.00321001,0.000575996,0.00339345,0.00140148,1.26246,0.00196907,0.0116223,1119,1723,5.92244,-26.9517
-98,-699,5.94702,27.0831,0.00183713,0.00345949,0.000650888,0.00368834,0.00160827,1.2327,0.00213526,0.0131585,1126,1723,5.94705,-27.0831
-91,-699,5.94189,27.2103,0.00212871,0.00371194,0.000738641,0.00400303,0.00183763,1.1954,0.00231373,0.0187627,1133,1723,5.94186,-27.2103
-84,-699,5.94153,27.3776,0.00249429,0.00373399,0.000846106,0.004163,0.00206528,1.10153,0.00240353,0.0216867,1140,1723,5.94148,-27.3776
-77,-699,5.93823,27.5359,0.00290758,0.0036481,0.000761429,0.00412452,0.00243116,1.0117,0.00239396,0.0147199,1147,1723,5.93828,-27.5359
-70,-699,5.9469,27.6797,0.00329497,0.0033826,0.000446329,0.00378726,0.00289031,0.834327,0.0022853,0.0162518,1154,1723,5.94691,-27.6797
-63,-699,5.96912,27.8195,0.00315894,0.00490542,-0.00118627,0.0055052,0.00255915,-1.10268,0.00318105,0.0138319,1161,1723,5.96916,-27.8195
-56,-699,5.96716,27.9241,0.00355708,0.00564346,-0.00268156,0.00747759,0.00172295,-0.970902,0.00452153,0.0102014,1168,1723,5.96714,-27.9241
-49,-699,5.99036,28.0714,0.0047892,0.0064749,-0.00326936,0.00900831,0.00225579,-0.911553,0.00541263,0.0231094,1175,1723,5.99035,-28.0714
-42,-699,6.01843,28.2264,0.00572054,0.00605576,-0.00486075,0.0107518,0.00102451,-0.802632,0.00685193,0.0269691,1182,1723,6.01837,-28.2265
-35,-699,6.0354,28.3171,0.0069632,0.00677115,-0.00503849,0.0119066,0.00182777,-0.77587,0.00740405,0.0252639,1189,1723,6.03536,-28.3171
-28,-699,6.06226,28.3732,0.00790403,0.00700878,-0.00547452,0.0129492,0.00196361,-0.744606,0.00805841,0.0201388,1196,1723,6.06224,-28.3732
-21,-699,6.08142,28.4089,0.00835434,0.00696631,-0.00600039,0.0137007,0.00161993,-0.727823,0.00864457,0.0138992,1203,1723,6.08144,-28.409
-14,-699,6.07947,28.4845,0.0088297,0.00694421,-0.00579411,0.0137573,0.00201665,-0.704751,0.00857867,0.0121554,1210,1723,6.07949,-28.4845
-7,-699,6.09485,28.5671,0.00923689,0.00683615,-0.00534793,0.0135175,0.00255553,-0.675,0.00829215,0.00902419,1217,1723,6.09482,-28.5671
0,-699,6.13843,28.6519,0.0119402,0.00756811,-0.00296533,0.0134382,0.00607015,-0.467766,0.00777061,0.0104926,1224,1723,6.13837,-28.6518
7,-699,6.16772,28.7449,0.0155152,0.00792036,-0.00127246,0.0157227,0.00771285,-0.161663,0.00907806,0.0158659,1231,1723,6.16775,-28.7449
14,-699,6.2063,28.8273,0.0178158,0.00871737,0.000474225,0.0178404,0.00869272,0.0519343,0.0103013,0.016821,1238,1723,6.20634,-28.8272
21,-699,6.24805,28.8448,0.0203864,0.00967796,0.00228787,0.0208547,0.00920964,0.201909,0.0120678,0.0162043,1245,1723,6.24806,-28.8449
28,-699,6.26416,28.8412,0.0259226,0.0110706,0.0053536,0.0276512,0.00934202,0.312317,0.0162418,0.0158428,1252,1723,6.26413,-28.8412
35,-699,6.30273,28.9058,0.0322992,0.0109318,0.0069501,0.0343609,0.00887008,0.288375,0.0205974,0.0132766,1259,1723,6.30279,-28.9057
42,-699,6.34448,28.962,0.037722,0.0113458,0.00919348,0.0406102,0.00845764,0.304389,0.0247409,0.0121732,1266,1723,6.34445,-28.962
49,-699,6.37427,28.9843,0.042496,0.011454,0.0110052,0.0460017,0.00794831,0.308387,0.0283917,0.0148939,1273,1723,6.37432,-28.9843
56,-699,6.40894,29.0071,0.0463959,0.0113341,0.0115011,0.0498318,0.00789813,0.290308,0.0309265,0.0151669,1280,1723,6.40899,-29.0071
63,-699,6.43127,29.0021,0.0489723,0.0108139,0.0115357,0.0521885,0.00759763,0.271905,0.0325567,0.0125939,1287,1723,6.43127,-29.0021
70,-699,6.43921,28.9979,0.0498494,0.00893141,0.0105055,0.052389,0.0063918,0.237191,0.0330024,0.0106109,1294,1723,6.43916,-28.9979
77,-699,6.45532,28.9823,0.0498669,0.0070819,0.00941623,0.0518476,0.00510125,0.207322,0.0329963,0.0108202,1301,1723,6.45536,-28.9823
84,-699,6.47241,28.934,0.0481413,0.0047762,0.00794886,0.0495524,0.00336508,0.175694,0.0319723,0.013518,1308,1723,6.4724,-28.9339
91,-699,6.50623,28.9406,0.0450053,0.00254477,0.00606463,0.0458545,0.00169554,0.139124,0.0300205,0.0129028,1315,1723,6.50624,-28.9405
98,-699,6.54626,28.9567,0.0405915,0.000493579,0.00410818,0.041008,7.70073e-05,0.101055,0.0273131,0.0113862,1322,1723,6.54628,-28.9567
105,-699,6.55774,28.9591,0.0336532,-0.00204046,0.000879478,0.0336749,-0.00206211,0.0246197,0.0231679,0.0167982,1329,1723,6.55769,-28.9592
112,-699,6.54944,28.9084,0.027771,-0.00337817,-0.000100224,0.0277714,-0.00337849,-0.0032175,0.019737,0.0226172,1336,1723,6.54947,-28.9085
119,-699,6.58789,28.8365,0.024353,-0.00476389,-0.000818256,0.0243759,-0.00478687,-0.0280729,0.018059,0.015179,1343,1723,6.58789,-28.8365
126,-699,6.63623,28.8031,0.020573,-0.00549784,-0.00129099,0.0206368,-0.00556161,-0.0493576,0.0159385,0.0166924,1350,1723,6.63622,-28.8031
133,-699,6.70276,28.7804,0.0137514,-0.00641587,-0.00295895,0.0141766,-0.00684104,-0.142714,0.0123785,0.0154721,1357,1723,6.70279,-28.7804
140,-699,6.74268,28.7284,0.00788606,-0.00484377,-0.00198774,0.00818922,-0.00514693,-0.15135,0.00776613,0.016558,1364,1723,6.74265,-28.7284
147,-699,6.74963,28.677,0.00711159,-0.00445907,-0.00161936,0.00733395,-0.00468143,-0.136462,0.00699321,0.0140117,1371,1723,6.74969,-28.677
154,-699,6.7345,28.5945,0.00691193,-0.00343282,-0.00111685,0.00703113,-0.00355202,-0.106331,0.00621927,0.014179,1378,1723,6.73451,-28.5945
161,-699,6.7644,28.4874,0.00602629,-0.00308435,0.000379575,0.00604207,-0.00310014,0.0415668,0.00536858,0.0101007,1385,1723,6.76438,-28.4875
168,-699,6.79236,28.4114,0.00493338,-0.00216861,0.00172295,0.0053293,-0.00256453,0.225869,0.00464975,0.0111573,1392,1723,6.79233,-28.4114
175,-699,6.82056,28.3187,0.00388333,-0.000751214,0.00206887,0.0046725,-0.00154038,0.364413,0.00373586,0.0131503,1399,1723,6.82051,-28.3187
182,-699,6.84253,28.2201,0.0029638,2.43628e-05,0.00187695,0.00387799,-0.000889829,0.453243,0.00292737,0.0140229,1406,1723,6.84254,-28.2201
189,-699,6.84436,28.1372,0.00228785,0.00075191,0.00163469,0.00332598,-0.00028622,0.565802,0.00231862,0.0167279,1413,1723,6.84432,-28.1372
196,-699,6.84546,28.0186,0.00171939,0.000885725,0.00170623,0.00305896,-0.000453848,0.665594,0.00220621,0.0159745,1420,1723,6.8454,-28.0186
203,-699,6.85217,27.8998,0.00142235,0.000269418,0.00161852,0.002564,-0.000872227,0.614318,0.00206249,0.013225,1427,1723,6.8522,-27.8997
210,-699,6.87585,27.781,0.000994145,0.000144975,0.00151451,0.00214246,-0.00100334,0.648734,0.00185549,0.0132499,1434,1723,6.8759,-27.781
217,-699,6.88501,27.6514,0.000590675,-2.38224e-05,0.00120391,0.00152592,-0.00095907,0.66046,0.0014471,0.014942,1441,1723,6.88499,-27.6514
224,-699,6.8866,27.5193,0.00040238,7.39411e-05,0.000952635,0.00120485,-0.000728525,0.700045,0.00112747,0.0166305,1448,1723,6.88662,-27.5193
231,-699,6.8916,27.3945,0.0003275,0.000280444,0.000558542,0.000863009,-0.000255065,0.764349,0.000676582,0.0119578,1455,1723,6.89163,-27.3945
238,-699,6.88599,27.2349,0.000322881,0.000540705,0.000206474,0.000665231,0.000198355,1.0281,0.000394363,0.00982672,1462,1723,6.88596,-27.2349
245,-699,6.90063,27.0721,0.00035682,0.000868624,-0.000114659,0.000893136,0.000332307,-1.36018,0.000521249,0.0111415,1469,1723,6.90065,-27.0721
252,-699,6.89221,26.9299,0.000383263,0.00116118,-0.000415113,0.00134108,0.000203355,-1.16184,0.00083457,0.0106089,1476,1723,6.89219,-26.93
259,-699,6.88696,26.793,0.000401693,0.00146783,-0.000714673,0.00182635,4.31801e-05,-1.10583,0.00120343,0.0112739,1483,1723,6.88693,-26.7929
266,-699,6.88342,26.6356,0.000396105,0.00188939,-0.00100164,0.00239205,-0.000106559,-1.10568,0.00163138,0.0133155,1490,1723,6.88338,-26.6356
273,-699,6.89075,26.4469,0.000348385,0.00234941,-0.00125755,0.0029559,-0.000258105,-1.12143,0.00206203,0.0125273,1497,1723,6.89075,-26.4469
280,-699,6.90869,26.2402,0.000207927,0.0027397,-0.00149216,0.00343059,-0.00048297,-1.13717,0.00246388,0.012344,1504,1723,6.90872,-26.2402
287,-699,6.90051,26.0333,-3.611e-05,0.00294277,-0.00159705,0.00363714,-0.000730475,-1.16067,0.00270137,0.0108055,1511,1723,6.90056,-26.0334
294,-699,6.90271,25.8636,-0.00045092,0.00329506,-0.00174741,0.00398361,-0.00113948,-1.19543,0.00310604,0.0107476,1518,1723,6.90277,-25.8637
301,-699,6.89685,25.698,-0.00111327,0.00351661,-0.00173463,0.0040944,-0.00169106,-1.24926,0.00343496,0.0120817,1525,1723,6.89681,-25.698
308,-699,6.87195,25.4983,-0.00174223,0.00341296,-0.00159933,0.00386882,-0.0021981,-1.29313,0.00354673,0.0169902,1532,1723,6.87193,-25.4983
315,-699,6.8855,25.287,-0.00238226,0.00346552,-0.00128365,0.00373489,-0.00265162,-1.36395,0.00370489,0.0185425,1539,1723,6.88546,-25.287
322,-699,6.85913,25.0668,-0.00301339,0.00338371,-0.000978416,0.00353001,-0.00315969,-1.42237,0.00386427,0.0189131,1546,1723,6.85915,-25.0668
329,-699,6.82642,24.8575,-0.00371323,0.00309479,-0.000417965,0.00312036,-0.0037388,-1.50971,0.0039655,0.0159171,1553,1723,6.82641,-24.8575
336,-699,6.80859,24.6581,-0.00429312,0.00210844,0.00101998,0.00226703,-0.00445171,1.41655,0.00394683,0.0158241,1560,1723,6.80863,-24.658
343,-699,6.8186,24.4204,-0.00489289,0.000231483,0.00294107,0.00156989,-0.00623131,1.14373,0.00476451,0.0215839,1567,1723,6.81864,-24.4204
350,-699,6.72644,24.1202,-0.00518811,-0.00200399,0.00512752,0.00177295,-0.00896505,0.935926,0.00664697,0.0304491,1574,1723,6.72641,-24.1202
357,-699,6.50989,23.8911,-0.00498656,-0.00514777,0.00788056,0.00281381,-0.0129481,0.780284,0.00970694,0.0387175,1581,1723,6.50993,-23.8911
364,-699,6.54932,23.8367,-0.00468416,-0.00890723,0.0112015,0.00460308,-0.0181945,0.692239,0.01392,0.0424902,1588,1723,6.54934,-23.8367
371,-699,6.91638,23.476,0,0,0,0,0,0,0,-1,1595,1723,6.91637,-23.476
378,-699,6.86218,22.624,0,0,0,0,0,0,0,-1,1602,1723,6.86222,-22.624
385,-699,5.18677,23.5579,0,0,0,0,0,0,0,-1,1609,1723,5.1868,-23.5579
392,-699,5.6571,23.7054,0,0,0,0,0,0,0,-1,1616,1723,5.65712,-23.7055
399,-699,3.91516,9.81726,0,0,0,0,0,0,0,-1,1623,1723,3.9152,-9.81721
406,-699,5.50757,21.6672,0,0,0,0,0,0,0,-1,1630,1723,5.50755,-21.6672
413,-699,9.31396,23.2781,0,0,0,0,0,0,0,-1,1637,1723,9.31396,-23.278
420,-699,2.15076,7.65527,0,0,0,0,0,0,0,-1,1644,1723,2.15079,-7.65522
427,-699,3.36328,8.2428,0,0,0,0,0,0,0,-1,1651,1723,3.36332,-8.24283
434,-699,4.66455,8.90222,0,0,0,0,0,0,0,-1,1658,1723,4.66456,-8.90223
441,-699,0,0,0,0,0,0,0,0,0,-1,1665,1723,0,0
448,-699,0,0,0,0,0,0,0,0,0,-1,1672,1723,0,0
455,-699,0,0,0,0,0,0,0,0,0,-1,1679,1723,0,0
462,-699,0,0,0,0,0,0,0,0,0,-1,1686,1723,0,0
469,-699,0,0,0,0,0,0,0,0,0,-1,1693,1723,0,0
476,-699,0,0,0,0,0,0,0,0,0,-1,1700,1723,0,0
483,-699,0,0,0,0,0,0,0,0,0,-1,1707,1723,0,0
490,-699,0,0,0,0,0,0,0,0,0,-1,1714,1723,0,0
497,-699,0,0,0,0,0,0,0,0,0,-1,1721,1723,0,0
504,-699,0,0,0,0,0,0,0,0,0,-1,1728,1723,0,0
511,-699,0,0,0,0,0,0,0,0,0,-1,1735,1723,0,0
518,-699,0,0,0,0,0,0,0,0,0,-1,1742,1723,0,0
525,-699,0,0,0,0,0,0,0,0,0,-1,1749,1723,0,0
532,-699,0,0,0,0,0,0,0,0,0,-1,1756,1723,0,0
539,-699,0,0,0,0,0,0,0,0,0,-1,1763,1723,0,0
546,-699,0,0,0,0,0,0,0,0,0,-1,1770,1723,0,0
553,-699,0,0,0,0,0,0,0,0,0,-1,1777,1723,0,0
560,-699,0,0,0,0,0,0,0,0,0,-1,1784,1723,0,0
567,-699,0,0,0,0,0,0,0,0,0,-1,1791,1723,0,0
574,-699,0,0,0,0,0,0,0,0,0,-1,1798,1723,0,0
581,-699,0,0,0,0,0,0,0,0,0,-1,1805,1723,0,0
588,-699,0,0,0,0,0,0,0,0,0,-1,1812,1723,0,0
595,-699,0,0,0,0,0,0,0,0,0,-1,1819,1723,0,0
602,-699,0,0,0,0,0,0,0,0,0,-1,1826,1723,0,0
609,-699,0,0,0,0,0,0,0,0,0,-1,1833,1723,0,0
616,-699,0,0,0,0,0,0,0,0,0,-1,1840,1723,0,0
623,-699,0,0,0,0,0,0,0,0,0,-1,1847,1723,0,0
630,-699,0,0,0,0,0,0,0,0,0,-1,1854,1723,0,0
637,-699,0,0,0,0,0,0,0,0,0,-1,1861,1723,0,0
644,-699,0,0,0,0,0,0,0,0,0,-1,1868,1723,0,0
651,-699,0,0,0,0,0,0,0,0,0,-1,1875,1723,0,0
658,-699,0,0,0,0,0,0,0,0,0,-1,1882,1723,0,0
665,-699,0,0,0,0,0,0,0,0,0,-1,1889,1723,0,0
672,-699,0,0,0,0,0,0,0,0,0,-1,1896,1723,0,0
679,-699,0,0,0,0,0,0,0,0,0,-1,1903,1723,0,0
686,-699,0,0,0,0,0,0,0,0,0,-1,1910,1723,0,0
693,-699,0,0,0,0,0,0,0,0,0,-1,1917,1723,0,0
700,-699,0,0,0,0,0,0,0,0,0,-1,1924,1723,0,0
707,-699,0,0,0,0,0,0,0,0,0,-1,1931,1723,0,0
714,-699,0,0,0,0,0,0,0,0,0,-1,1938,1723,0,0
721,-699,0,0,0,0,0,0,0,0,0,-1,1945,1723,0,0
728,-699,0,0,0,0,0,0,0,0,0,-1,1952,1723,0,0
735,-699,0,0,0,0,0,0,0,0,0,-1,1959,1723,0,0
742,-699,0,0,0,0,0,0,0,0,0,-1,1966,1723,0,0
749,-699,0,0,0,0,0,0,0,0,0,-1,1973,1723,0,0
756,-699,0,0,0,0,0,0,0,0,0,-1,1980,1723,0,0
763,-699,0,0,0,0,0,0,0,0,0,-1,1987,1723,0,0
770,-699,0,0,0,0,0,0,0,0,0,-1,1994,1723,0,0
777,-699,0,0,0,0,0,0,0,0,0,-1,2001,1723,0,0
784,-699,0,0,0,0,0,0,0,0,0,-1,2008,1723,0,0
791,-699,0,0,0,0,0,0,0,0,0,-1,2015,1723,0,0
798,-699,0,0,0,0,0,0,0,0,0,-1,2022,1723,0,0
805,-699,0,0,0,0,0,0,0,0,0,-1,2029,1723,0,0
812,-699,0,0,0,0,0,0,0,0,0,-1,2036,1723,0,0
-700,-706,0,0,0,0,0,0,0,0,0,-1,524,1730,0,0
-693,-706,0,0,0,0,0,0,0,0,0,-1,531,1730,0,0
-686,-706,0,0,0,0,0,0,0,0,0,-1,538,1730,0,0
-679,-706,0,0,0,0,0,0,0,0,0,-1,545,1730,0,0
-672,-706,0,0,0,0,0,0,0,0,0,-1,552,1730,0,0
-665,-706,0,0,0,0,0,0,0,0,0,-1,559,1730,0,0
-658,-706,0,0,0,0,0,0,0,0,0,-1,566,1730,0,0
-651,-706,0,0,0,0,0,0,0,0,0,-1,573,1730,0,0
-644,-706,0,0,0,0,0,0,0,0,0,-1,580,1730,0,0
-637,-706,0,0,0,0,0,0,0,0,0,-1,587,1730,0,0
-630,-706,0,0,0,0,0,0,0,0,0,-1,594,1730,0,0
-623,-706,0,0,0,0,0,0,0,0,0,-1,601,1730,0,0
-616,-706,0,0,0,0,0,0,0,0,0,-1,608,1730,0,0
-609,-706,0,0,0,0,0,0,0,0,0,-1,615,1730,0,0
-602,-706,0,0,0,0,0,0,0,0,0,-1,622,1730,0,0
-595,-706,0,0,0,0,0,0,0,0,0,-1,629,1730,0,0
-588,-706,0,0,0,0,0,0,0,0,0,-1,636,1730,0,0
-581,-706,0,0,0,0,0,0,0,0,0,-1,643,1730,0,0
-574,-706,0,0,0,0,0,0,0,0,0,-1,650,1730,0,0
-567,-706,0,0,0,0,0,0,0,0,0,-1,657,1730,0,0
-560,-706,0,0,0,0,0,0,0,0,0,-1,664,1730,0,0
-553,-706,0,0,0,0,0,0,0,0,0,-1,671,1730,0,0
-546,-706,0,0,0,0,0,0,0,0,0,-1,678,1730,0,0
-539,-706,0,0,0,0,0,0,0,0,0,-1,685,1730,0,0
-532,-706,0,0,0,0,0,0,0,0,0,-1,692,1730,0,0
-525,-706,0,0,0,0,0,0,0,0,0,-1,699,1730,0,0
-518,-706,0,0,0,0,0,0,0,0,0,-1,706,1730,0,0
-511,-706,0,0,0,0,0,0,0,0,0,-1,713,1730,0,0
-504,-706,0,0,0,0,0,0,0,0,0,-1,720,1730,0,0
-497,-706,0,0,0,0,0,0,0,0,0,-1,727,1730,0,0
-490,-706,0,0,0,0,0,0,0,0,0,-1,734,1730,0,0
-483,-706,0,0,0,0,0,0,0,0,0,-1,741,1730,0,0
-476,-706,0,0,0,0,0,0,0,0,0,-1,748,1730,0,0
-469,-706,0,0,0,0,0,0,0,0,0,-1,755,1730,0,0
-462,-706,0,0,0,0,0,0,0,0,0,-1,762,1730,0,0
-455,-706,0,0,0,0,0,0,0,0,0,-1,769,1730,0,0
-448,-706,0,0,0,0,0,0,0,0,0,-1,776,1730,0,0
-441,-706,0,0,0,0,0,0,0,0,0,-1,783,1730,0,0
-434,-706,0,0,0,0,0,0,0,0,0,-1,790,1730,0,0
-427,-706,0,0,0,0,0,0,0,0,0,-1,797,1730,0,0
-420,-706,0,0,0,0,0,0,0,0,0,-1,804,1730,0,0
-413,-706,0,0,0,0,0,0,0,0,0,-1,811,1730,0,0
-406,-706,0,0,0,0,0,0,0,0,0,-1,818,1730,0,0
-399,-706,0,0,0,0,0,0,0,0,0,-1,825,1730,0,0
-392,-706,0,0,0,0,0,0,0,0,0,-1,832,1730,0,0
-385,-706,0,0,0,0,0,0,0,0,0,-1,839,1730,0,0
-378,-706,0,0,0,0,0,0,0,0,0,-1,846,1730,0,0
-371,-706,0,0,0,0,0,0,0,0,0,-1,853,1730,0,0
-364,-706,0,0,0,0,0,0,0,0,0,-1,860,1730,0,0
-357,-706,0,0,0,0,0,0,0,0,0,-1,867,1730,0,0
-350,-706,0,0,0,0,0,0,0,0,0,-1,874,1730,0,0
-343,-706,0,0,0,0,0,0,0,0,0,-1,881,1730,0,0
-336,-706,0,0,0,0,0,0,0,0,0,-1,888,1730,0,0
-329,-706,0,0,0,0,0,0,0,0,0,-1,895,1730,0,0
-322,-706,0,0,0,0,0,0,0,0,0,-1,902,1730,0,0
-315,-706,0,0,0,0,0,0,0,0,0,-1,909,1730,0,0
-308,-706,5.08191,14.6245,0,0,0,0,0,0,0,-1,916,1730,5.08188,-14.6245
-301,-706,7.45007,21.1975,0,0,0,0,0,0,0,-1,923,1730,7.45005,-21.1976
-294,-706,11.8603,21.026,0,0,0,0,0,0,0,-1,930,1730,11.8603,-21.026
-287,-706,10.3292,20.8425,0,0,0,0,0,0,0,-1,937,1730,10.3292,-20.8425
-280,-706,7.9162,21.8951,0,0,0,0,0,0,0,-1,944,1730,7.9162,-21.8952
-273,-706,7.38953,20.6355,0,0,0,0,0,0,0,-1,951,1730,7.38955,-20.6355
-266,-706,9.66724,22.8231,0,0,0,0,0,0,0,-1,958,1730,9.66722,-22.8231
-259,-706,3.47852,20.7363,0,0,0,0,0,0,0,-1,965,1730,3.47851,-20.7364
-252,-706,3.84259,20.1979,0,0,0,0,0,0,0,-1,972,1730,3.84256,-20.1979
-245,-706,4.698,19.2992,0,0,0,0,0,0,0,-1,979,1730,4.69799,-19.2991
-238,-706,6.4928,21.2333,0,0,0,0,0,0,0,-1,986,1730,6.49278,-21.2332
-231,-706,5.51123,24.1489,0,0,0,0,0,0,0,-1,993,1730,5.51121,-24.1489
-224,-706,5.7749,24.0118,0.00735373,-0.00686435,0.00473442,0.00878595,-0.00829658,0.293761,0.00986395,0.0464106,1000,1730,5.77492,-24.0118
-217,-706,6.05725,23.9125,0,0,0,0,0,0,0,-1,1007,1730,6.05725,-23.9124
-210,-706,6.15564,23.927,0.00575134,-0.00516145,0.00441108,0.00731135,-0.00672145,0.339928,0.00810423,0.0404365,1014,1730,6.15564,-23.927
-203,-706,6.21082,24.1227,0.00522136,-0.004198,0.00425925,0.00686166,-0.0058383,0.367609,0.00734026,0.0311078,1021,1730,6.21084,-24.1227
-196,-706,6.27588,24.3605,0.00463777,-0.00358501,0.00385353,0.00616138,-0.00510862,0.376517,0.00651619,0.0250363,1028,1730,6.2759,-24.3605
-189,-706,6.19507,24.5483,0.0041049,-0.00350829,0.00338745,0.00539389,-0.00479728,0.3636,0.00588724,0.0189236,1035,1730,6.19507,-24.5484
-182,-706,6.14978,24.8079,0.00352811,-0.00318875,0.00289185,0.00460159,-0.00426223,0.355443,0.00511878,0.013762,1042,1730,6.14977,-24.8078
-175,-706,6.15039,25.0225,0.00288353,-0.00199416,0.00221551,0.0037396,-0.00285023,0.368726,0.00381617,0.0145611,1049,1730,6.1504,-25.0224
-168,-706,6.14954,25.2161,0.00211849,-0.00135952,0.00202037,0.0030452,-0.00228623,0.430051,0.00308849,0.0153127,1056,1730,6.14955,-25.2161
-161,-706,6.12573,25.4454,0.0016822,-0.00127156,0.00171982,0.00247225,-0.00206161,0.430625,0.0026212,0.0122481,1063,1730,6.12576,-25.4455
-154,-706,6.10144,25.6824,0.00131665,-0.000964876,0.00146405,0.0020319,-0.00168013,0.454439,0.00214635,0.0123658,1070,1730,6.10139,-25.6824
-147,-706,6.09668,25.8602,0.00100047,-0.00072832,0.0011778,0.00159703,-0.00132488,0.468837,0.00168941,0.0121507,1077,1730,6.09664,-25.8603
-140,-706,6.09595,26.0616,0.000786584,-0.000218669,0.000962845,0.0013701,-0.000802184,0.544843,0.00126837,0.010534,1084,1730,6.09595,-26.0617
-133,-706,6.09692,26.2444,0.000690816,0.00039479,0.000839657,0.00139541,-0.0003098,0.698155,0.0010489,0.0080195,1091,1730,6.09694,-26.2444
-126,-706,6.09631,26.4172,0.000407417,0.00108014,0.000687624,0.00150926,-2.17045e-05,1.01287,0.00101349,0.0125902,1098,1730,6.09633,-26.4172
-119,-706,6.08533,26.5835,0.000320022,0.00184131,0.000771054,0.00216377,-2.43203e-06,1.1747,0.00144332,0.0173916,1105,1730,6.08528,-26.5835
-112,-706,6.07629,26.7926,0.000556369,0.00234532,0.000834941,0.00267445,0.000227238,1.1953,0.00171225,0.0119761,1112,1730,6.0763,-26.7927
-105,-706,6.07837,26.9708,0.000787163,0.0026406,0.000723357,0.00288949,0.000538273,1.23941,0.00177433,0.00901255,1119,1730,6.07835,-26.9708
-98,-706,6.09692,27.101,0.000939061,0.00286606,0.000728411,0.00311042,0.000694706,1.24713,0.0018852,0.010612,1126,1730,6.09697,-27.101
-91,-706,6.0929,27.2383,0.00113693,0.00305232,0.000753131,0.00331298,0.000876272,1.2376,0.00198221,0.0134295,1133,1730,6.09293,-27.2383
-84,-706,6.08325,27.3928,0.00133511,0.00308734,0.000787773,0.00338942,0.00103302,1.20462,0.00200599,0.0151765,1140,1730,6.08329,-27.3928
-77,-706,6.07629,27.564,0.00165256,0.00305665,0.000721496,0.0033613,0.00134791,1.17127,0.00195328,0.0147587,1147,1730,6.07629,-27.564
-70,-706,6.073,27.7192,0.00197739,0.00285857,0.000490118,0.00307702,0.00175894,1.15152,0.00178259,0.0172517,1154,1730,6.073,-27.7192
-63,-706,6.06995,27.8313,0.00201211,0.00347132,-0.000335648,0.00354483,0.00193861,-1.35521,0.0020496,0.0129752,1161,1730,6.06989,-27.8313
-56,-706,6.08936,27.9302,0.0022012,0.00378319,-0.00103419,0.0042942,0.00169019,-1.11187,0.0024979,0.0127635,1168,1730,6.08941,-27.9302
-49,-706,6.10254,28.064,0.00281359,0.00415354,-0.00128617,0.00493377,0.00203336,-1.02552,0.00286314,0.013048,1175,1730,6.10257,-28.064
-42,-706,6.1322,28.1829,0.00328954,0.00386489,-0.00214382,0.00574025,0.00141418,-0.852095,0.00345335,0.0170641,1182,1730,6.13226,-28.1828
-35,-706,6.13306,28.2793,0.0037457,0.00428754,-0.00237564,0.00640766,0.00162558,-0.842173,0.00384618,0.0166251,1189,1730,6.13308,-28.2793
-28,-706,6.14795,28.3491,0.00407046,0.00460986,-0.00256018,0.0069145,0.00176582,-0.837877,0.00414829,0.0105859,1196,1730,6.14794,-28.3491
-21,-706,6.15466,28.4209,0.0042321,0.00460649,-0.00274238,0.00716806,0.00167053,-0.819475,0.00433063,0.0104585,1203,1730,6.15468,-28.4209
-14,-706,6.16418,28.4882,0.00440919,0.00462575,-0.00253663,0.00705641,0.00197853,-0.806729,0.00420297,0.0101222,1210,1730,6.16415,-28.4882
-7,-706,6.18701,28.5687,0.0045508,0.00460729,-0.00213525,0.00671449,0.00244361,-0.792011,0.00392417,0.00899287,1217,1730,6.187,-28.5687
0,-706,6.22168,28.6475,0.00641051,0.00507527,-0.000304154,0.00647653,0.00500925,-0.213742,0.00392119,0.0123628,1224,1730,6.22163,-28.6474
7,-706,6.23706,28.7202,0.00900958,0.00522808,0.00104303,0.00927819,0.00495947,0.252055,0.00536102,0.0136247,1231,1730,6.23706,-28.7202
14,-706,6.24023,28.7965,0.0107668,0.00555081,0.00244979,0.0117369,0.00458066,0.377065,0.0068305,0.0138224,1238,1730,6.2402,-28.7965
21,-706,6.26453,28.8289,0.0128132,0.00597242,0.00388392,0.0145681,0.00421749,0.424387,0.00865579,0.0117388,1245,1730,6.26453,-28.8289
28,-706,6.28455,28.8634,0.01712,0.0065814,0.00622788,0.0200086,0.00369275,0.434292,0.0122944,0.0121554,1252,1730,6.2845,-28.8634
35,-706,6.31201,28.9122,0.0220795,0.00614207,0.0073913,0.0249797,0.00324194,0.373912,0.0156845,0.013669,1259,1730,6.312,-28.9122
42,-706,6.33459,28.959,0.0262868,0.00607065,0.00903603,0.0297369,0.00262059,0.364729,0.0190114,0.0126869,1266,1730,6.33457,-28.959
49,-706,6.36523,28.9772,0.029909,0.00577937,0.0101918,0.0336376,0.00205072,0.350722,0.0217737,0.0149172,1273,1730,6.36528,-28.9772
56,-706,6.3999,28.9867,0.0328024,0.00537672,0.0104647,0.0363392,0.00183987,0.325926,0.0236367,0.013518,1280,1730,6.39985,-28.9867
63,-706,6.42163,28.9895,0.0346859,0.00484722,0.0103969,0.0379512,0.00158191,0.304312,0.0247903,0.0113049,1287,1730,6.42168,-28.9895
70,-706,6.43042,28.9838,0.0353581,0.00341224,0.00951574,0.0379777,0.000792593,0.268641,0.0250585,0.0117782,1294,1730,6.43036,-28.9838
77,-706,6.43909,28.9878,0.0351705,0.00200485,0.00850079,0.0372224,-4.70635e-05,0.236849,0.0248306,0.01029,1301,1730,6.43907,-28.9878
84,-706,6.44788,28.9739,0.0335576,0.000553091,0.00725889,0.0350835,-0.000972854,0.2072,0.0237199,0.0085573,1308,1730,6.44785,-28.9739
91,-706,6.48096,28.9684,0.0310403,-0.000753163,0.00592125,0.0321073,-0.00182014,0.178281,0.0220366,0.00945652,1315,1730,6.48101,-28.9684
98,-706,6.49707,28.9758,0.0276434,-0.0019131,0.00456404,0.0283321,-0.00260182,0.149771,0.0198124,0.0138393,1322,1730,6.49703,-28.9758
105,-706,6.50757,28.9602,0.0224942,-0.0032964,0.00232983,0.022703,-0.00350518,0.0893722,0.0164289,0.0174195,1329,1730,6.50755,-28.9602
112,-706,6.50513,28.917,0.0181777,-0.00393827,0.00169034,0.0183062,-0.00406672,0.0758435,0.0137615,0.0160078,1336,1730,6.50519,-28.917
119,-706,6.5498,28.8956,0.0156745,-0.00453711,0.00119862,0.0157454,-0.00460795,0.0590275,0.0123235,0.0131472,1343,1730,6.54985,-28.8956
126,-706,6.59717,28.8575,0.0130086,-0.00478137,0.000835061,0.0130477,-0.00482048,0.0468029,0.0106745,0.0146527,1350,1730,6.5972,-28.8576
133,-706,6.62915,28.7954,0.00850798,-0.00494398,-0.00033773,0.00851646,-0.00495245,-0.0250853,0.0078665,0.0124977,1357,1730,6.62919,-28.7954
140,-706,6.65295,28.7156,0.0048581,-0.00369284,0.000191905,0.00486241,-0.00369715,0.0224275,0.0049571,0.0119057,1364,1730,6.65294,-28.7156
147,-706,6.68225,28.6356,0.00435129,-0.00325667,0.000194048,0.00435624,-0.00326162,0.0254838,0.00441328,0.0208664,1371,1730,6.68223,-28.6356
154,-706,6.68384,28.5762,0.00424077,-0.00238867,0.000337418,0.0042579,-0.0024058,0.0507222,0.00389651,0.0192366,1378,1730,6.68388,-28.5761
161,-706,6.67981,28.4967,0.00383865,-0.00181963,0.000821097,0.00395539,-0.00193637,0.141234,0.00346755,0.0099507,1385,1730,6.67982,-28.4967
168,-706,6.68469,28.4115,0.00325517,-0.00106602,0.00125082,0.00359111,-0.00140197,0.262389,0.00297368,0.0104845,1392,1730,6.68468,-28.4114
175,-706,6.70251,28.3196,0.00247329,-0.000150628,0.00139995,0.00307995,-0.000757288,0.408916,0.00234682,0.0106221,1399,1730,6.70248,-28.3195
182,-706,6.70972,28.2291,0.00183257,0.000319919,0.00120869,0.00250206,-0.000349576,0.505833,0.00179594,0.0107494,1406,1730,6.70977,-28.2291
189,-706,6.7168,28.1235,0.00136843,0.000753054,0.000990845,0.00209826,2.32223e-05,0.634853,0.00139116,0.0139965,1413,1730,6.71674,-28.1235
196,-706,6.72729,28.0032,0.000994026,0.000834151,0.000903088,0.00182071,7.46979e-06,0.741255,0.00121132,0.0128724,1420,1730,6.72731,-28.0031
203,-706,6.73108,27.905,0.000743639,0.000709704,0.000748082,0.00147495,-2.16029e-05,0.77406,0.000990577,0.0138048,1427,1730,6.73107,-27.905
210,-706,6.73047,27.7775,0.000429975,0.000783908,0.000577473,0.00121092,2.96137e-06,0.93408,0.000806296,0.0125387,1434,1730,6.73051,-27.7774
217,-706,6.73499,27.6527,0.000109743,0.00087463,0.000269653,0.000960135,2.42382e-05,1.26373,0.000632165,0.0140446,1441,1730,6.73498,-27.6527
224,-706,6.73022,27.5205,-6.24242e-05,0.00112928,-2.23299e-05,0.0011297,-6.28425e-05,-1.55207,0.00077493,0.0197039,1448,1730,6.73023,-27.5205
231,-706,6.73804,27.3721,-0.000199101,0.00145317,-0.000368351,0.00153157,-0.0002775,-1.36109,0.00112501,0.0137373,1455,1730,6.73799,-27.3721
238,-706,6.7323,27.2301,-0.000217073,0.00184043,-0.000671004,0.00203991,-0.000416562,-1.28182,0.00151797,0.00833998,1462,1730,6.73232,-27.2301
245,-706,6.75,27.0649,-0.000145326,0.00223743,-0.000969961,0.00258234,-0.000490244,-1.22914,0.00190611,0.0104595,1469,1730,6.75005,-27.0649
252,-706,6.7522,26.9156,-0.000111225,0.00259455,-0.00126027,0.0030906,-0.00060728,-1.19581,0.00228983,0.0113239,1476,1730,6.75223,-26.9157
259,-706,6.74878,26.7853,-0.000103816,0.00293005,-0.00153618,0.00357204,-0.000745804,-1.17495,0.00266498,0.0130365,1483,1730,6.74882,-26.7852
266,-706,6.73962,26.6289,-0.000132202,0.0034846,-0.00181004,0.00423482,-0.000882427,-1.17787,0.00315871,0.0131613,1490,1730,6.73958,-26.6289
273,-706,6.7334,26.4454,-0.000195547,0.00404254,-0.00207473,0.00488911,-0.00104211,-1.18338,0.00365661,0.0116572,1497,1730,6.7334,-26.4455
280,-706,6.72046,26.256,-0.000385095,0.00451573,-0.00229721,0.00542414,-0.00129351,-1.19423,0.00411559,0.00934903,1504,1730,6.7204,-26.256
287,-706,6.70679,26.0483,-0.000652776,0.00466466,-0.00237248,0.00556929,-0.0015574,-1.20651,0.00432647,0.0104829,1511,1730,6.70674,-26.0483
294,-706,6.72034,25.8716,-0.00113281,0.00504938,-0.00253503,0.00595594,-0.00203937,-1.22736,0.00479716,0.0111071,1518,1730,6.72038,-25.8716
301,-706,6.71094,25.6809,-0.00193295,0.00527565,-0.00246452,0.00603768,-0.00269498,-1.27092,0.00516346,0.0108409,1525,1730,6.711,-25.6809
308,-706,6.70313,25.4788,-0.00267146,0.00491326,-0.00227021,0.00554083,-0.00329903,-1.30109,0.00515811,0.012492,1532,1730,6.7031,-25.4788
315,-706,6.71228,25.3008,-0.00349532,0.00502286,-0.00188093,0.00541971,-0.00389216,-1.36286,0.00540027,0.0186365,1539,1730,6.71225,-25.3008
322,-706,6.66785,25.1248,-0.00430706,0.0048953,-0.00148536,0.00512911,-0.00454087,-1.41467,0.00558641,0.0238998,1546,1730,6.66786,-25.1248
329,-706,6.66785,24.8289,-0.00522198,0.00451193,-0.000738139,0.00456758,-0.00527763,-1.49554,0.00568906,0.0222561,1553,1730,6.66786,-24.8289
336,-706,6.59229,24.4962,-0.00593849,0.00324335,0.00104371,0.0033605,-0.00605564,1.45903,0.00551014,0.0300918,1560,1730,6.59225,-24.4962
343,-706,6.58618,24.3357,-0.00668926,0.000858172,0.00349247,0.00222627,-0.00805736,1.19744,0.00624731,0.0370932,1567,1730,6.58616,-24.3357
350,-706,6.34949,24.1031,-0.00712124,-0.00200933,0.0063794,0.0023071,-0.0114377,0.975935,0.00849917,0.0414695,1574,1730,6.34954,-24.1031
357,-706,6.05078,23.9598,0,0,0,0,0,0,0,-1,1581,1730,6.05073,-23.9598
364,-706,6.00244,23.9824,0,0,0,0,0,0,0,-1,1588,1730,6.00248,-23.9824
371,-706,6.27881,24.0759,0,0,0,0,0,0,0,-1,1595,1730,6.27883,-24.0759
378,-706,5.92419,23.6315,0,0,0,0,0,0,0,-1,1602,1730,5.92421,-23.6315
385,-706,5.51501,23.2277,0,0,0,0,0,0,0,-1,1609,1730,5.51507,-23.2277
392,-706,5.10022,22.8113,0,0,0,0,0,0,0,-1,1616,1730,5.10016,-22.8113
399,-706,6.0332,16.6144,0,0,0,0,0,0,0,-1,1623,1730,6.03321,-16.6143
406,-706,6.04211,18.8085,0,0,0,0,0,0,0,-1,1630,1730,6.04216,-18.8085
413,-706,6.23413,20.7725,0,0,0,0,0,0,0,-1,1637,1730,6.23413,-20.7725
420,-706,6.51294,21.9171,0,0,0,0,0,0,0,-1,1644,1730,6.51292,-21.9171
427,-706,0,0,0,0,0,0,0,0,0,-1,1651,1730,0,0
434,-706,0,0,0,0,0,0,0,0,0,-1,1658,1730,0,0
441,-706,0,0,0,0,0,0,0,0,0,-1,1665,1730,0,0
448,-706,0,0,0,0,0,0,0,0,0,-1,1672,1730,0,0
455,-706,0,0,0,0,0,0,0,0,0,-1,1679,1730,0,0
462,-706,0,0,0,0,0,0,0,0,0,-1,1686,1730,0,0
469,-706,0,0,0,0,0,0,0,0,0,-1,1693,1730,0,0
476,-706,0,0,0,0,0,0,0,0,0,-1,1700,1730,0,0
483,-706,0,0,0,0,0,0,0,0,0,-1,1707,1730,0,0
490,-706,0,0,0,0,0,0,0,0,0,-1,1714,1730,0,0
497,-706,0,0,0,0,0,0,0,0,0,-1,1721,1730,0,0
504,-706,0,0,0,0,0,0,0,0,0,-1,1728,1730,0,0
511,-706,0,0,0,0,0,0,0,0,0,-1,1735,1730,0,0
518,-706,0,0,0,0,0,0,0,0,0,-1,1742,1730,0,0
525,-706,0,0,0,0,0,0,0,0,0,-1,1749,1730,0,0
532,-706,0,0,0,0,0,0,0,0,0,-1,1756,1730,0,0
539,-706,0,0,0,0,0,0,0,0,0,-1,1763,1730,0,0
546,-706,0,0,0,0,0,0,0,0,0,-1,1770,1730,0,0
553,-706,0,0,0,0,0,0,0,0,0,-1,1777,1730,0,0
560,-706,0,0,0,0,0,0,0,0,0,-1,1784,1730,0,0
567,-706,0,0,0,0,0,0,0,0,0,-1,1791,1730,0,0
574,-706,0,0,0,0,0,0,0,0,0,-1,1798,1730,0,0
581,-706,0,0,0,0,0,0,0,0,0,-1,1805,1730,0,0
588,-706,0,0,0,0,0,0,0,0,0,-1,1812,1730,0,0
595,-706,0,0,0,0,0,0,0,0,0,-1,1819,1730,0,0
602,-706,0,0,0,0,0,0,0,0,0,-1,1826,1730,0,0
609,-706,0,0,0,0,0,0,0,0,0,-1,1833,1730,0,0
616,-706,0,0,0,0,0,0,0,0,0,-1,1840,1730,0,0
623,-706,0,0,0,0,0,0,0,0,0,-1,1847,1730,0,0
630,-706,0,0,0,0,0,0,0,0,0,-1,1854,1730,0,0
637,-706,0,0,0,0,0,0,0,0,0,-1,1861,1730,0,0
644,-706,0,0,0,0,0,0,0,0,0,-1,1868,1730,0,0
651,-706,0,0,0,0,0,0,0,0,0,-1,1875,1730,0,0
658,-706,0,0,0,0,0,0,0,0,0,-1,1882,1730,0,0
665,-706,0,0,0,0,0,0,0,0,0,-1,1889,1730,0,0
672,-706,0,0,0,0,0,0,0,0,0,-1,1896,1730,0,0
679,-706,0,0,0,0,0,0,0,0,0,-1,1903,1730,0,0
686,-706,0,0,0,0,0,0,0,0,0,-1,1910,1730,0,0
693,-706,0,0,0,0,0,0,0,0,0,-1,1917,1730,0,0
700,-706,0,0,0,0,0,0,0,0,0,-1,1924,1730,0,0
707,-706,0,0,0,0,0,0,0,0,0,-1,1931,1730,0,0
714,-706,0,0,0,0,0,0,0,0,0,-1,1938,1730,0,0
721,-706,0,0,0,0,0,0,0,0,0,-1,1945,1730,0,0
728,-706,0,0,0,0,0,0,0,0,0,-1,1952,1730,0,0
735,-706,0,0,0,0,0,0,0,0,0,-1,1959,1730,0,0
742,-706,0,0,0,0,0,0,0,0,0,-1,1966,1730,0,0
749,-706,0,0,0,0,0,0,0,0,0,-1,1973,1730,0,0
756,-706,0,0,0,0,0,0,0,0,0,-1,1980,1730,0,0
763,-706,0,0,0,0,0,0,0,0,0,-1,1987,1730,0,0
770,-706,0,0,0,0,0,0,0,0,0,-1,1994,1730,0,0
777,-706,0,0,0,0,0,0,0,0,0,-1,2001,1730,0,0
784,-706,0,0,0,0,0,0,0,0,0,-1,2008,1730,0,0
791,-706,0,0,0,0,0,0,0,0,0,-1,2015,1730,0,0
798,-706,0,0,0,0,0,0,0,0,0,-1,2022,1730,0,0
805,-706,0,0,0,0,0,0,0,0,0,-1,2029,1730,0,0
812,-706,0,0,0,0,0,0,0,0,0,-1,2036,1730,0,0
-700,-713,0,0,0,0,0,0,0,0,0,-1,524,1737,0,0
-693,-713,0,0,0,0,0,0,0,0,0,-1,531,1737,0,0
-686,-713,0,0,0,0,0,0,0,0,0,-1,538,1737,0,0
-679,-713,0,0,0,0,0,0,0,0,0,-1,545,1737,0,0
-672,-713,0,0,0,0,0,0,0,0,0,-1,552,1737,0,0
-665,-713,0,0,0,0,0,0,0,0,0,-1,559,1737,0,0
-658,-713,0,0,0,0,0,0,0,0,0,-1,566,1737,0,0
-651,-713,0,0,0,0,0,0,0,0,0,-1,573,1737,0,0
-644,-713,0,0,0,0,0,0,0,0,0,-1,580,1737,0,0
-637,-713,0,0,0,0,0,0,0,0,0,-1,587,1737,0,0
-630,-713,0,0,0,0,0,0,0,0,0,-1,594,1737,0,0
-623,-713,0,0,0,0,0,0,0,0,0,-1,601,1737,0,0
-616,-713,0,0,0,0,0,0,0,0,0,-1,608,1737,0,0
-609,-713,0,0,0,0,0,0,0,0,0,-1,615,1737,0,0
-602,-713,0,0,0,0,0,0,0,0,0,-1,622,1737,0,0
-595,-713,0,0,0,0,0,0,0,0,0,-1,629,1737,0,0
-588,-713,0,0,0,0,0,0,0,0,0,-1,636,1737,0,0
-581,-713,0,0,0,0,0,0,0,0,0,-1,643,1737,0,0
-574,-713,0,0,0,0,0,0,0,0,0,-1,650,1737,0,0
-567,-713,0,0,0,0,0,0,0,0,0,-1,657,1737,0,0
-560,-713,0,0,0,0,0,0,0,0,0,-1,664,1737,0,0
-553,-713,0,0,0,0,0,0,0,0,0,-1,671,1737,0,0
-546,-713,0,0,0,0,0,0,0,0,0,-1,678,1737,0,0
-539,-713,0,0,0,0,0,0,0,0,0,-1,685,1737,0,0
-532,-713,0,0,0,0,0,0,0,0,0,-1,692,1737,0,0
-525,-713,0,0,0,0,0,0,0,0,0,-1,699,1737,0,0
-518,-713,0,0,0,0,0,0,0,0,0,-1,706,1737,0,0
-511,-713,0,0,0,0,0,0,0,0,0,-1,713,1737,0,0
-504,-713,0,0,0,0,0,0,0,0,0,-1,720,1737,0,0
-497,-713,0,0,0,0,0,0,0,0,0,-1,727,1737,0,0
-490,-713,0,0,0,0,0,0,0,0,0,-1,734,1737,0,0
-483,-713,0,0,0,0,0,0,0,0,0,-1,741,1737,0,0
-476,-713,0,0,0,0,0,0,0,0,0,-1,748,1737,0,0
-469,-713,0,0,0,0,0,0,0,0,0,-1,755,1737,0,0
-462,-713,0,0,0,0,0,0,0,0,0,-1,762,1737,0,0
-455,-713,0,0,0,0,0,0,0,0,0,-1,769,1737,0,0
-448,-713,0,0,0,0,0,0,0,0,0,-1,776,1737,0,0
-441,-713,0,0,0,0,0,0,0,0,0,-1,783,1737,0,0
-434,-713,0,0,0,0,0,0,0,0,0,-1,790,1737,0,0
-427,-713,0,0,0,0,0,0,0,0,0,-1,797,1737,0,0
-420,-713,0,0,0,0,0,0,0,0,0,-1,804,1737,0,0
-413,-713,0,0,0,0,0,0,0,0,0,-1,811,1737,0,0
-406,-713,0,0,0,0,0,0,0,0,0,-1,818,1737,0,0
-399,-713,0,0,0,0,0,0,0,0,0,-1,825,1737,0,0
-392,-713,0,0,0,0,0,0,0,0,0,-1,832,1737,0,0
-385,-713,0,0,0,0,0,0,0,0,0,-1,839,1737,0,0
-378,-713,0,0,0,0,0,0,0,0,0,-1,846,1737,0,0
-371,-713,0,0,0,0,0,0,0,0,0,-1,853,1737,0,0
-364,-713,0,0,0,0,0,0,0,0,0,-1,860,1737,0,0
-357,-713,0,0,0,0,0,0,0,0,0,-1,867,1737,0,0
-350,-713,0,0,0,0,0,0,0,0,0,-1,874,1737,0,0
-343,-713,0,0,0,0,0,0,0,0,0,-1,881,1737,0,0
-336,-713,0,0,0,0,0,0,0,0,0,-1,888,1737,0,0
-329,-713,0,0,0,0,0,0,0,0,0,-1,895,1737,0,0
-322,-713,0,0,0,0,0,0,0,0,0,-1,902,1737,0,0
-315,-713,0,0,0,0,0,0,0,0,0,-1,909,1737,0,0
-308,-713,0,0,0,0,0,0,0,0,0,-1,916,1737,0,0
-301,-713,0,0,0,0,0,0,0,0,0,-1,923,1737,0,0
-294,-713,7.17883,22.0453,0,0,0,0,0,0,0,-1,930,1737,7.17881,-22.0453
-287,-713,11.8916,21.5834,0,0,0,0,0,0,0,-1,937,1737,11.8916,-21.5833
-280,-713,10.2786,21.3551,0,0,0,0,0,0,0,-1,944,1737,10.2787,-21.3551
-273,-713,11.1981,23.8683,0,0,0,0,0,0,0,-1,951,1737,11.198,-23.8683
-266,-713,3.17981,19.8851,0,0,0,0,0,0,0,-1,958,1737,3.17983,-19.8851
-259,-713,3.5921,19.6868,0,0,0,0,0,0,0,-1,965,1737,3.59207,-19.6868
-252,-713,4.55469,20.5758,0,0,0,0,0,0,0,-1,972,1737,4.55466,-20.5758
-245,-713,3.89014,25.9825,0,0,0,0,0,0,0,-1,979,1737,3.89013,-25.9826
-238,-713,5.06873,23.7134,0,0,0,0,0,0,0,-1,986,1737,5.06872,-23.7133
-231,-713,7.57281,19.7676,0,0,0,0,0,0,0,-1,993,1737,7.5728,-19.7676
-224,-713,5.92444,24.2316,0,0,0,0,0,0,0,-1,1000,1737,5.92443,-24.2316
-217,-713,6.19598,24.0378,0,0,0,0,0,0,0,-1,1007,1737,6.196,-24.0378
-210,-713,6.21069,23.5792,0,0,0,0,0,0,0,-1,1014,1737,6.2107,-23.5792
-203,-713,6.30103,23.8796,0.00834912,-0.0057404,0.00580855,0.010435,-0.00782624,0.344757,0.0105789,0.0453667,1021,1737,6.30099,-23.8796
-196,-713,6.33826,24.1959,0.00732586,-0.00499615,0.00526383,0.0092683,-0.00693859,0.353515,0.00938923,0.0483706,1028,1737,6.33824,-24.1959
-189,-713,6.31873,24.4973,0.00641671,-0.0047371,0.00462226,0.00808323,-0.00640362,0.346035,0.0083827,0.0444607,1035,1737,6.31876,-24.4974
-182,-713,6.24133,24.748,0.00537511,-0.00431196,0.00390621,0.00675398,-0.00569083,0.339339,0.00719375,0.0268283,1042,1737,6.24139,-24.7481
-175,-713,6.36011,24.9359,0.00422862,-0.00294037,0.00303302,0.00533964,-0.00405139,0.351127,0.00543889,0.0250863,1049,1737,6.36012,-24.9359
-168,-713,6.47217,25.1046,0.00302366,-0.00220231,0.00274752,0.00420232,-0.00338097,0.405245,0.00438676,0.0324823,1056,1737,6.47219,-25.1046
-161,-713,6.35535,25.4376,0.00228108,-0.00211772,0.00232567,0.00328264,-0.00311927,0.406648,0.00369655,0.0171895,1063,1737,6.3553,-25.4376
-154,-713,6.29468,25.6549,0.00165282,-0.00179162,0.00198606,0.00255937,-0.00269818,0.428213,0.0030358,0.0125053,1070,1737,6.29462,-25.6549
-147,-713,6.28625,25.8851,0.00111955,-0.00154193,0.00162686,0.0018906,-0.00231299,0.442593,0.00243102,0.018834,1077,1737,6.28629,-25.8852
-140,-713,6.29504,26.1095,0.000737585,-0.000957488,0.00136448,0.00149633,-0.00171623,0.507488,0.00185622,0.0179461,1084,1737,6.2951,-26.1095
-133,-713,6.27563,26.2489,0.00050185,-0.000239368,0.00121371,0.00140028,-0.00113779,0.637219,0.00146797,0.0109028,1091,1737,6.27558,-26.2489
-126,-713,6.26843,26.4218,-4.18728e-05,0.000495463,0.000953289,0.00121722,-0.00076363,0.922752,0.0011536,0.0160234,1098,1737,6.26842,-26.4218
-119,-713,6.2561,26.5698,-0.000287184,0.00138833,0.00105099,0.0018946,-0.000793454,1.12189,0.00159476,0.0239679,1105,1737,6.25608,-26.5698
-112,-713,6.24512,26.8092,-8.392e-05,0.00195456,0.00111844,0.00244852,-0.000577875,1.15491,0.00185522,0.0127487,1112,1737,6.24515,-26.8092
-105,-713,6.26099,26.9608,9.82393e-05,0.00227622,0.000931586,0.00262032,-0.000245863,1.21697,0.00183433,0.0105492,1119,1737,6.26102,-26.9608
-98,-713,6.26294,27.0994,0.000135938,0.0025405,0.000877952,0.00282694,-0.000150499,1.25543,0.00193674,0.00989622,1126,1737,6.26294,-27.0994
-91,-713,6.22729,27.2382,0.000225242,0.00276168,0.000845291,0.00301756,-3.0644e-05,1.27685,0.002022,0.00960663,1133,1737,6.22731,-27.2381
-84,-713,6.21069,27.386,0.000267029,0.00281272,0.000808015,0.00304753,3.22192e-05,1.28799,0.00202103,0.00884866,1140,1737,6.21066,-27.386
-77,-713,6.22339,27.5378,0.000515144,0.00282086,0.000755836,0.00304654,0.000289463,1.28064,0.00194175,0.0116483,1147,1737,6.22342,-27.5378
-70,-713,6.21667,27.6824,0.000797151,0.00264184,0.000574213,0.00280598,0.000633015,1.29238,0.00169941,0.0135471,1154,1737,6.21665,-27.6824
-63,-713,6.20349,27.8149,0.000882067,0.00258253,0.000305358,0.0026357,0.000828896,1.3984,0.00155625,0.0122578,1161,1737,6.20351,-27.8149
-56,-713,6.22571,27.939,0.0010329,0.00252408,9.66256e-05,0.00253032,0.00102667,1.50636,0.00146951,0.0129736,1168,1737,6.2257,-27.939
-49,-713,6.21387,28.0599,0.00133758,0.00249194,7.33396e-05,0.00249658,0.00133294,1.5076,0.00144251,0.0152795,1175,1737,6.2139,-28.06
-42,-713,6.2334,28.1559,0.00161432,0.00227242,-0.00011999,0.00229361,0.00159313,-1.39596,0.00135724,0.0175663,1182,1737,6.23335,-28.1558
-35,-713,6.25171,28.2378,0.00194583,0.00237748,-0.000170953,0.00243698,0.00188633,-1.23585,0.00147576,0.0145407,1189,1737,6.25168,-28.2378
-28,-713,6.24268,28.3456,0.00217726,0.00250676,-0.000234988,0.00262899,0.00205502,-1.09113,0.00159612,0.0128701,1196,1737,6.24266,-28.3455
-21,-713,6.23633,28.4377,0.00229513,0.00249314,-0.000287558,0.00269826,0.00209001,-0.951191,0.00163427,0.00916552,1203,1737,6.23627,-28.4378
-14,-713,6.25708,28.5068,0.0024395,0.00251906,-0.000126106,0.00261151,0.00234705,-0.938192,0.00165989,0.0102229,1210,1737,6.25702,-28.5068
-7,-713,6.27917,28.5839,0.00255416,0.00256747,0.000121181,0.00268218,0.00243945,0.812824,0.00171295,0.00970533,1217,1737,6.27921,-28.5839
0,-713,6.2937,28.6477,0.00370849,0.00284544,0.00118133,0.00453464,0.00201929,0.610284,0.00262329,0.0144844,1224,1737,6.29374,-28.6477
7,-713,6.30798,28.7125,0.005392,0.00306978,0.00196383,0.0065123,0.00194948,0.518419,0.00385947,0.0173931,1231,1737,6.30794,-28.7125
14,-713,6.30884,28.7802,0.00658616,0.00334481,0.00274695,0.0081549,0.00177608,0.518884,0.0049519,0.012871,1238,1737,6.30889,-28.7801
21,-713,6.30469,28.8264,0.00795378,0.00366571,0.00352163,0.0099327,0.00168679,0.511959,0.0061373,0.0109227,1245,1737,6.30472,-28.8264
28,-713,6.3136,28.8674,0.0107623,0.00397585,0.00494552,0.0133667,0.00137139,0.484724,0.00849102,0.0116965,1252,1737,6.3136,-28.8675
35,-713,6.33838,28.9106,0.0140852,0.00374102,0.00564655,0.0165704,0.00125582,0.414613,0.010653,0.011524,1259,1737,6.33836,-28.9107
42,-713,6.35876,28.9579,0.0168561,0.00373383,0.00656576,0.0195771,0.00101286,0.392875,0.0127272,0.0119681,1266,1737,6.35877,-28.9579
49,-713,6.37878,28.9698,0.0191896,0.0034862,0.00720259,0.0219928,0.000683013,0.371154,0.0144395,0.0119631,1273,1737,6.37881,-28.9698
56,-713,6.41113,28.9714,0.0210094,0.00320856,0.00725505,0.0235917,0.000626247,0.341951,0.0155233,0.0116015,1280,1737,6.41116,-28.9715
63,-713,6.4071,28.9862,0.0222278,0.00282392,0.00704591,0.0245164,0.000535348,0.314059,0.0161688,0.0118215,1287,1737,6.40712,-28.9862
70,-713,6.41992,28.9915,0.0227784,0.00187756,0.00646765,0.0246179,3.80762e-05,0.277097,0.0163992,0.0118185,1294,1737,6.41988,-28.9915
77,-713,6.43396,28.9934,0.0226389,0.000916526,0.005774,0.0240783,-0.000522875,0.24431,0.0162293,0.0115557,1301,1737,6.43393,-28.9934
84,-713,6.44946,29.0002,0.0215822,-8.93674e-05,0.00491868,0.0226463,-0.00115348,0.213058,0.0154963,0.0113631,1308,1737,6.44949,-29.0002
91,-713,6.46704,29.0029,0.0200033,-0.000916838,0.004044,0.0207579,-0.00167135,0.184456,0.014428,0.011486,1315,1737,6.46701,-29.003
98,-713,6.47534,28.9739,0.01784,-0.00167375,0.0031435,0.0183339,-0.00216764,0.155841,0.0130055,0.0118754,1322,1737,6.47537,-28.9739
105,-713,6.48914,28.9449,0.0144809,-0.00246093,0.00167033,0.014644,-0.00262404,0.0973433,0.0107447,0.0143885,1329,1737,6.48916,-28.9449
112,-713,6.50391,28.9254,0.0116343,-0.00297056,0.001221,0.0117356,-0.00307193,0.082836,0.00902375,0.0140003,1336,1737,6.50396,-28.9255
119,-713,6.51831,28.8982,0.0100101,-0.00337046,0.000912786,0.0100721,-0.00343244,0.0677987,0.00810488,0.0142434,1343,1737,6.51835,-28.8982
126,-713,6.53113,28.8668,0.00828062,-0.00349893,0.00070075,0.00832216,-0.00354047,0.0592104,0.00703192,0.0139446,1350,1737,6.53107,-28.8668
133,-713,6.53369,28.7922,0.00546158,-0.00335243,-2.09879e-05,0.00546163,-0.00335247,-0.00238119,0.00513716,0.0121577,1357,1737,6.53364,-28.7923
140,-713,6.55176,28.7092,0.00326012,-0.00252973,0.000324616,0.00327826,-0.00254787,0.0558331,0.00337252,0.0127578,1364,1737,6.55173,-28.7092
147,-713,6.57507,28.6301,0.00284383,-0.00214439,0.000357648,0.00286935,-0.0021699,0.071213,0.00291874,0.0142339,1371,1737,6.57507,-28.6301
154,-713,6.56238,28.5752,0.00265921,-0.00149626,0.000471715,0.00271208,-0.00154913,0.111625,0.00249057,0.0135986,1378,1737,6.56234,-28.5752
161,-713,6.58459,28.498,0.00229243,-0.00104364,0.000754321,0.00245506,-0.00120628,0.212349,0.00215447,0.00983668,1385,1737,6.58454,-28.4981
168,-713,6.58704,28.4097,0.00182276,-0.00051592,0.000939212,0.00215324,-0.000846405,0.338344,0.00178579,0.0107085,1392,1737,6.58707,-28.4097
175,-713,6.59216,28.3053,0.00128031,6.27444e-05,0.000919366,0.00177419,-0.000431128,0.492953,0.00134965,0.0139738,1399,1737,6.59217,-28.3052
182,-713,6.58594,28.2261,0.00084392,0.000381268,0.0006756,0.0013267,-0.000101512,0.620454,0.000920172,0.0116127,1406,1737,6.58598,-28.2261
189,-713,6.59729,28.1335,0.000552618,0.000698556,0.000425258,0.00105706,0.000194114,0.870364,0.000649741,0.0112458,1413,1737,6.59726,-28.1335
196,-713,6.62646,28.0248,0.000291253,0.000820081,0.000105785,0.000840457,0.000270878,1.38051,0.000495348,0.0134115,1420,1737,6.62651,-28.0248
203,-713,6.62,27.9312,-1.01907e-05,0.00131499,-0.000191969,0.00134224,-3.74395e-05,-1.42979,0.000907562,0.0180353,1427,1737,6.61999,-27.9311
210,-713,6.60645,27.7883,-0.00027744,0.0016579,-0.000456178,0.00176003,-0.000379575,-1.35053,0.00131823,0.0143474,1434,1737,6.60642,-27.7884
217,-713,6.62024,27.6459,-0.000532622,0.0020418,-0.000798236,0.00226922,-0.000760036,-1.29325,0.00181985,0.0113191,1441,1737,6.62029,-27.6459
224,-713,6.59949,27.5206,-0.000688915,0.00250376,-0.00115127,0.00287559,-0.00106075,-1.25839,0.00235179,0.0121158,1448,1737,6.59946,-27.5207
231,-713,6.59241,27.3754,-0.000871241,0.00300639,-0.00148522,0.00350988,-0.00137474,-1.24395,0.00290856,0.0110629,1455,1737,6.59237,-27.3754
238,-713,6.59778,27.2239,-0.000884195,0.00357259,-0.00176397,0.00418626,-0.00149787,-1.236,0.00340188,0.0082765,1462,1737,6.59782,-27.2239
245,-713,6.61584,27.068,-0.00075338,0.00412181,-0.00206904,0.00488152,-0.00151309,-1.2189,0.00385889,0.0107818,1469,1737,6.61586,-27.068
252,-713,6.61938,26.9104,-0.000683763,0.00458913,-0.00236224,0.0054926,-0.00158724,-1.2055,0.00428984,0.0118883,1476,1737,6.61941,-26.9104
259,-713,6.62195,26.7571,-0.000655491,0.00500366,-0.00263033,0.00603738,-0.00168922,-1.19634,0.00469051,0.0123459,1483,1737,6.62194,-26.7571
266,-713,6.60034,26.616,-0.000666151,0.00574004,-0.00290201,0.00685916,-0.00178527,-1.20274,0.00526965,0.0107599,1490,1737,6.60034,-26.616
273,-713,6.57385,26.4531,-0.000695545,0.00644154,-0.0031831,0.00765491,-0.00190891,-1.20661,0.00584443,0.00858114,1497,1737,6.57382,-26.4531
280,-713,6.54346,26.2732,-0.000887588,0.00705351,-0.0033946,0.00830681,-0.00214088,-1.21712,0.00637252,0.00890954,1504,1737,6.5434,-26.2732
287,-713,6.52844,26.0901,-0.00112491,0.00720789,-0.00343014,0.00843823,-0.00235524,-1.22641,0.0065532,0.0106131,1511,1737,6.52846,-26.09
294,-713,6.56421,25.9261,-0.0016405,0.00767639,-0.00360401,0.00890776,-0.00287187,-1.24156,0.00709234,0.0190834,1518,1737,6.56421,-25.9261
301,-713,6.57678,25.7313,-0.00257193,0.00793335,-0.0034405,0.00895982,-0.0035984,-1.28085,0.0074675,0.0221352,1525,1737,6.57681,-25.7313
308,-713,6.55054,25.5146,-0.00342098,0.00714058,-0.00316128,0.0080145,-0.0042949,-1.30109,0.00721418,0.021533,1532,1737,6.55057,-25.5146
315,-713,6.52393,25.2593,-0.00452247,0.00739883,-0.00269269,0.00797882,-0.00510246,-1.35864,0.00761309,0.026655,1539,1737,6.52395,-25.2593
322,-713,6.56592,24.8906,-0.00561562,0.00724734,-0.00218381,0.00760798,-0.00597627,-1.40713,0.00786171,0.0375907,1546,1737,6.56596,-24.8906
329,-713,6.52795,24.7935,-0.00686708,0.00675653,-0.0011953,0.00686061,-0.00697115,-1.48394,0.00798586,0.0448185,1553,1737,6.52798,-24.7934
336,-713,6.42517,24.8744,-0.00786556,0.00508681,0.00102111,0.00516682,-0.00794557,1.4926,0.00762689,0.0443628,1560,1737,6.42521,-24.8744
343,-713,6.25061,24.3773,0,0,0,0,0,0,0,-1,1567,1737,6.25063,-24.3773
350,-713,5.9436,24.1514,0,0,0,0,0,0,0,-1,1574,1737,5.94356,-24.1514
357,-713,5.9812,22.2378,0,0,0,0,0,0,0,-1,1581,1737,5.98117,-22.2378
364,-713,7.35474,20.9537,0,0,0,0,0,0,0,-1,1588,1737,7.35472,-20.9537
371,-713,5.89465,23.9154,0,0,0,0,0,0,0,-1,1595,1737,5.89463,-23.9155
378,-713,5.39514,23.4774,0,0,0,0,0,0,0,-1,1602,1737,5.39513,-23.4774
385,-713,4.89343,23.2245,0,0,0,0,0,0,0,-1,1609,1737,4.89341,-23.2245
392,-713,4.23035,23.1071,0,0,0,0,0,0,0,-1,1616,1737,4.23034,-23.107
399,-713,3.36182,16.5532,0,0,0,0,0,0,0,-1,1623,1737,3.36185,-16.5532
406,-713,2.97656,16.4902,0,0,0,0,0,0,0,-1,1630,1737,2.97656,-16.4902
413,-713,3.24731,18.2787,0,0,0,0,0,0,0,-1,1637,1737,3.24726,-18.2787
420,-713,0,0,0,0,0,0,0,0,0,-1,1644,1737,0,0
427,-713,0,0,0,0,0,0,0,0,0,-1,1651,1737,0,0
434,-713,0,0,0,0,0,0,0,0,0,-1,1658,1737,0,0
441,-713,0,0,0,0,0,0,0,0,0,-1,1665,1737,0,0
448,-713,0,0,0,0,0,0,0,0,0,-1,1672,1737,0,0
455,-713,0,0,0,0,0,0,0,0,0,-1,1679,1737,0,0
462,-713,0,0,0,0,0,0,0,0,0,-1,1686,1737,0,0
469,-713,0,0,0,0,0,0,0,0,0,-1,1693,1737,0,0
476,-713,0,0,0,0,0,0,0,0,0,-1,1700,1737,0,0
483,-713,0,0,0,0,0,0,0,0,0,-1,1707,1737,0,0
490,-713,0,0,0,0,0,0,0,0,0,-1,1714,1737,0,0
497,-713,0,0,0,0,0,0,0,0,0,-1,1721,1737,0,0
504,-713,0,0,0,0,0,0,0,0,0,-1,1728,1737,0,0
511,-713,0,0,0,0,0,0,0,0,0,-1,1735,1737,0,0
518,-713,0,0,0,0,0,0,0,0,0,-1,1742,1737,0,0
525,-713,0,0,0,0,0,0,0,0,0,-1,1749,1737,0,0
532,-713,0,0,0,0,0,0,0,0,0,-1,1756,1737,0,0
539,-713,0,0,0,0,0,0,0,0,0,-1,1763,1737,0,0
546,-713,0,0,0,0,0,0,0,0,0,-1,1770,1737,0,0
553,-713,0,0,0,0,0,0,0,0,0,-1,1777,1737,0,0
560,-713,0,0,0,0,0,0,0,0,0,-1,1784,1737,0,0
567,-713,0,0,0,0,0,0,0,0,0,-1,1791,1737,0,0
574,-713,0,0,0,0,0,0,0,0,0,-1,1798,1737,0,0
581,-713,0,0,0,0,0,0,0,0,0,-1,1805,1737,0,0
588,-713,0,0,0,0,0,0,0,0,0,-1,1812,1737,0,0
595,-713,0,0,0,0,0,0,0,0,0,-1,1819,1737,0,0
602,-713,0,0,0,0,0,0,0,0,0,-1,1826,1737,0,0
609,-713,0,0,0,0,0,0,0,0,0,-1,1833,1737,0,0
616,-713,0,0,0,0,0,0,0,0,0,-1,1840,1737,0,0
623,-713,0,0,0,0,0,0,0,0,0,-1,1847,1737,0,0
630,-713,0,0,0,0,0,0,0,0,0,-1,1854,1737,0,0
637,-713,0,0,0,0,0,0,0,0,0,-1,1861,1737,0,0
644,-713,0,0,0,0,0,0,0,0,0,-1,1868,1737,0,0
651,-713,0,0,0,0,0,0,0,0,0,-1,1875,1737,0,0
658,-713,0,0,0,0,0,0,0,0,0,-1,1882,1737,0,0
665,-713,0,0,0,0,0,0,0,0,0,-1,1889,1737,0,0
672,-713,0,0,0,0,0,0,0,0,0,-1,1896,1737,0,0
679,-713,0,0,0,0,0,0,0,0,0,-1,1903,1737,0,0
686,-713,0,0,0,0,0,0,0,0,0,-1,1910,1737,0,0
693,-713,0,0,0,0,0,0,0,0,0,-1,1917,1737,0,0
700,-713,0,0,0,0,0,0,0,0,0,-1,1924,1737,0,0
707,-713,0,0,0,0,0,0,0,0,0,-1,1931,1737,0,0
714,-713,0,0,0,0,0,0,0,0,0,-1,1938,1737,0,0
721,-713,0,0,0,0,0,0,0,0,0,-1,1945,1737,0,0
728,-713,0,0,0,0,0,0,0,0,0,-1,1952,1737,0,0
735,-713,0,0,0,0,0,0,0,0,0,-1,1959,1737,0,0
742,-713,0,0,0,0,0,0,0,0,0,-1,1966,1737,0,0
749,-713,0,0,0,0,0,0,0,0,0,-1,1973,1737,0,0
756,-713,0,0,0,0,0,0,0,0,0,-1,1980,1737,0,0
763,-713,0,0,0,0,0,0,0,0,0,-1,1987,1737,0,0
770,-713,0,0,0,0,0,0,0,0,0,-1,1994,1737,0,0
777,-713,0,0,0,0,0,0,0,0,0,-1,2001,1737,0,0
784,-713,0,0,0,0,0,0,0,0,0,-1,2008,1737,0,0
791,-713,0,0,0,0,0,0,0,0,0,-1,2015,1737,0,0
798,-713,0,0,0,0,0,0,0,0,0,-1,2022,1737,0,0
805,-713,0,0,0,0,0,0,0,0,0,-1,2029,1737,0,0
812,-713,0,0,0,0,0,0,0,0,0,-1,2036,1737,0,0
-700,-720,0,0,0,0,0,0,0,0,0,-1,524,1744,0,0
-693,-720,0,0,0,0,0,0,0,0,0,-1,531,1744,0,0
-686,-720,0,0,0,0,0,0,0,0,0,-1,538,1744,0,0
-679,-720,0,0,0,0,0,0,0,0,0,-1,545,1744,0,0
-672,-720,0,0,0,0,0,0,0,0,0,-1,552,1744,0,0
-665,-720,0,0,0,0,0,0,0,0,0,-1,559,1744,0,0
-658,-720,0,0,0,0,0,0,0,0,0,-1,566,1744,0,0
-651,-720,0,0,0,0,0,0,0,0,0,-1,573,1744,0,0
-644,-720,0,0,0,0,0,0,0,0,0,-1,580,1744,0,0
-637,-720,0,0,0,0,0,0,0,0,0,-1,587,1744,0,0
-630,-720,0,0,0,0,0,0,0,0,0,-1,594,1744,0,0
-623,-720,0,0,0,0,0,0,0,0,0,-1,601,1744,0,0
-616,-720,0,0,0,0,0,0,0,0,0,-1,608,1744,0,0
-609,-720,0,0,0,0,0,0,0,0,0,-1,615,1744,0,0
-602,-720,0,0,0,0,0,0,0,0,0,-1,622,1744,0,0
-595,-720,0,0,0,0,0,0,0,0,0,-1,629,1744,0,0
-588,-720,0,0,0,0,0,0,0,0,0,-1,636,1744,0,0
-581,-720,0,0,0,0,0,0,0,0,0,-1,643,1744,0,0
-574,-720,0,0,0,0,0,0,0,0,0,-1,650,1744,0,0
-567,-720,0,0,0,0,0,0,0,0,0,-1,657,1744,0,0
-560,-720,0,0,0,0,0,0,0,0,0,-1,664,1744,0,0
-553,-720,0,0,0,0,0,0,0,0,0,-1,671,1744,0,0
-546,-720,0,0,0,0,0,0,0,0,0,-1,678,1744,0,0
-539,-720,0,0,0,0,0,0,0,0,0,-1,685,1744,0,0
-532,-720,0,0,0,0,0,0,0,0,0,-1,692,1744,0,0
-525,-720,0,0,0,0,0,0,0,0,0,-1,699,1744,0,0
-518,-720,0,0,0,0,0,0,0,0,0,-1,706,1744,0,0
-511,-720,0,0,0,0,0,0,0,0,0,-1,713,1744,0,0
-504,-720,0,0,0,0,0,0,0,0,0,-1,720,1744,0,0
-497,-720,0,0,0,0,0,0,0,0,0,-1,727,1744,0,0
-490,-720,0,0,0,0,0,0,0,0,0,-1,734,1744,0,0
-483,-720,0,0,0,0,0,0,0,0,0,-1,741,1744,0,0
-476,-720,0,0,0,0,0,0,0,0,0,-1,748,1744,0,0
-469,-720,0,0,0,0,0,0,0,0,0,-1,755,1744,0,0
-462,-720,0,0,0,0,0,0,0,0,0,-1,762,1744,0,0
-455,-720,0,0,0,0,0,0,0,0,0,-1,769,1744,0,0
-448,-720,0,0,0,0,0,0,0,0,0,-1,776,1744,0,0
-441,-720,0,0,0,0,0,0,0,0,0,-1,783,1744,0,0
-434,-720,0,0,0,0,0,0,0,0,0,-1,790,1744,0,0
-427,-720,0,0,0,0,0,0,0,0,0,-1,797,1744,0,0
-420,-720,0,0,0,0,0,0,0,0,0,-1,804,1744,0,0
-413,-720,0,0,0,0,0,0,0,0,0,-1,811,1744,0,0
-406,-720,0,0,0,0,0,0,0,0,0,-1,818,1744,0,0
-399,-720,0,0,0,0,0,0,0,0,0,-1,825,1744,0,0
-392,-720,0,0,0,0,0,0,0,0,0,-1,832,1744,0,0
-385,-720,0,0,0,0,0,0,0,0,0,-1,839,1744,0,0
-378,-720,0,0,0,0,0,0,0,0,0,-1,846,1744,0,0
-371,-720,0,0,0,0,0,0,0,0,0,-1,853,1744,0,0
-364,-720,0,0,0,0,0,0,0,0,0,-1,860,1744,0,0
-357,-720,0,0,0,0,0,0,0,0,0,-1,867,1744,0,0
-350,-720,0,0,0,0,0,0,0,0,0,-1,874,1744,0,0
-343,-720,0,0,0,0,0,0,0,0,0,-1,881,1744,0,0
-336,-720,0,0,0,0,0,0,0,0,0,-1,888,1744,0,0
-329,-720,0,0,0,0,0,0,0,0,0,-1,895,1744,0,0
-322,-720,0,0,0,0,0,0,0,0,0,-1,902,1744,0,0
-315,-720,0,0,0,0,0,0,0,0,0,-1,909,1744,0,0
-308,-720,0,0,0,0,0,0,0,0,0,-1,916,1744,0,0
-301,-720,0,0,0,0,0,0,0,0,0,-1,923,1744,0,0
-294,-720,0,0,0,0,0,0,0,0,0,-1,930,1744,0,0
-287,-720,0,0,0,0,0,0,0,0,0,-1,937,1744,0,0
-280,-720,6.46796,22.6417,0,0,0,0,0,0,0,-1,944,1744,6.46793,-22.6417
-273,-720,8.54633,13.262,0,0,0,0,0,0,0,-1,951,1744,8.54636,-13.2619
-266,-720,7.28027,13.3165,0,0,0,0,0,0,0,-1,958,1744,7.28026,-13.3166
-259,-720,3.70563,18.6372,0,0,0,0,0,0,0,-1,965,1744,3.70564,-18.6372
-252,-720,4.00989,18.5059,0,0,0,0,0,0,0,-1,972,1744,4.00988,-18.5058
-245,-720,4.63318,20.3199,0,0,0,0,0,0,0,-1,979,1744,4.6332,-20.32
-238,-720,5.02216,24.1455,0,0,0,0,0,0,0,-1,986,1744,5.02217,-24.1455
-231,-720,6.34106,21.7759,0,0,0,0,0,0,0,-1,993,1744,6.34103,-21.7758
-224,-720,7.65991,19.4061,0,0,0,0,0,0,0,-1,1000,1744,7.6599,-19.4061
-217,-720,7.33716,20.2433,0,0,0,0,0,0,0,-1,1007,1744,7.33715,-20.2432
-210,-720,7.36743,23.2506,0,0,0,0,0,0,0,-1,1014,1744,7.3674,-23.2506
-203,-720,6.41455,23.6854,0,0,0,0,0,0,0,-1,1021,1744,6.41451,-23.6854
-196,-720,6.45947,24.0579,0,0,0,0,0,0,0,-1,1028,1744,6.45949,-24.0578
-189,-720,5.95789,24.4058,0,0,0,0,0,0,0,-1,1035,1744,5.9579,-24.4057
-182,-720,6.2229,24.8306,0.00828828,-0.00566655,0.00513823,0.00997607,-0.00735434,0.317373,0.0100438,0.0450563,1042,1744,6.22293,-24.8306
-175,-720,6.76672,25.3214,0.00644055,-0.00402116,0.00406151,0.00783221,-0.00541282,0.330108,0.00768943,0.0416651,1049,1744,6.76671,-25.3214
-168,-720,6.87817,25.2985,0.00465073,-0.00309922,0.00368382,0.00612235,-0.00457083,0.380057,0.00619533,0.0411192,1056,1744,6.87817,-25.2985
-161,-720,6.33325,25.4476,0.00344171,-0.00295925,0.00311586,0.00470795,-0.0042255,0.386001,0.00516023,0.0373669,1063,1744,6.3332,-25.4477
-154,-720,6.50903,25.7377,0.00241915,-0.002551,0.0026821,0.00359048,-0.00372233,0.411755,0.00422228,0.0312128,1070,1744,6.50898,-25.7377
-147,-720,6.4668,26.0012,0.00156529,-0.00222139,0.00224158,0.00260614,-0.00326223,0.43471,0.00339515,0.028865,1077,1744,6.46676,-26.0013
-140,-720,6.4812,26.1799,0.000925882,-0.00149092,0.00192578,0.001991,-0.00255603,0.505206,0.00263198,0.022402,1084,1744,6.48115,-26.1799
-133,-720,6.44788,26.2635,0.000475406,-0.000604331,0.00174238,0.00175964,-0.00188857,0.635166,0.00210673,0.0139295,1091,1744,6.44787,-26.2635
-126,-720,6.43115,26.4288,-0.000388527,0.000217655,0.00135924,0.00130719,-0.00147806,0.895096,0.00160907,0.0121703,1098,1744,6.43118,-26.4289
-119,-720,6.42065,26.6331,-0.000814846,0.00127572,0.00145635,0.00202308,-0.00156221,1.09666,0.00207566,0.0137458,1105,1744,6.42069,-26.633
-112,-720,6.40527,26.7939,-0.000657749,0.00193367,0.00150985,0.00262756,-0.00135164,1.14001,0.00233643,0.0130918,1112,1744,6.40531,-26.794
-105,-720,6.39917,26.9475,-0.000537283,0.00230265,0.00124247,0.00276948,-0.00100412,1.21138,0.00225676,0.0126441,1119,1744,6.39923,-26.9475
-98,-720,6.39844,27.0884,-0.000613884,0.00261668,0.00111973,0.00296683,-0.000964035,1.26772,0.00236564,0.00976074,1126,1744,6.39841,-27.0884
-91,-720,6.35901,27.2368,-0.000621645,0.00288753,0.00101553,0.00316022,-0.00089434,1.30846,0.00245973,0.00906357,1133,1744,6.35898,-27.2368
-84,-720,6.34241,27.3873,-0.000719629,0.00293816,0.000904762,0.00314972,-0.000931187,1.3411,0.00246944,0.00981444,1140,1744,6.34243,-27.3873
-77,-720,6.34399,27.5413,-0.000508903,0.0029304,0.000861145,0.00313397,-0.000712471,1.33867,0.00236288,0.0117763,1147,1744,6.34395,-27.5412
-70,-720,6.34961,27.673,-0.000256103,0.002709,0.000699558,0.00286576,-0.000412863,1.35035,0.00206195,0.0107215,1154,1744,6.34962,-27.6729
-63,-720,6.33154,27.8015,-0.000170474,0.0024608,0.000493878,0.00255045,-0.000260118,1.39124,0.0017933,0.0103047,1161,1744,6.33151,-27.8015
-56,-720,6.34949,27.9309,-2.54215e-05,0.00222784,0.000379307,0.00228997,-8.75595e-05,1.40842,0.00155666,0.0126359,1168,1744,6.34943,-27.9309
-49,-720,6.33643,28.0276,0.000142754,0.00197534,0.000308417,0.00202585,9.22414e-05,1.40846,0.00132089,0.0187189,1175,1744,6.33644,-28.0276
-42,-720,6.33179,28.1439,0.000380779,0.00160662,0.000277526,0.00166653,0.000320875,1.35821,0.00102101,0.0209057,1182,1744,6.33182,-28.1439
-35,-720,6.35791,28.2279,0.000686784,0.00142288,0.000233176,0.00149052,0.000619136,1.28843,0.000864653,0.0186423,1189,1744,6.35786,-28.2279
-28,-720,6.34741,28.339,0.000931043,0.00139299,0.000161261,0.00144371,0.000880318,1.26604,0.000840195,0.0112377,1196,1744,6.34745,-28.339
-21,-720,6.34473,28.4589,0.00113263,0.00141077,0.000136549,0.0014666,0.0010768,1.18267,0.00087716,0.00918244,1203,1744,6.34473,-28.4588
-14,-720,6.34778,28.5178,0.00133662,0.00142529,0.000281093,0.00166552,0.00109639,0.863615,0.00097752,0.0109728,1210,1744,6.34781,-28.5179
-7,-720,6.34924,28.5946,0.00143764,0.00150606,0.000455564,0.0019287,0.00101501,0.822874,0.00111405,0.0120707,1217,1744,6.34922,-28.5946
0,-720,6.36206,28.6771,0.00148543,0.00168999,0.000710211,0.00230525,0.000870169,0.856914,0.00134419,0.0133924,1224,1744,6.36207,-28.6771
7,-720,6.35999,28.7362,0.00147291,0.00194061,0.000906669,0.0026431,0.000770418,0.911608,0.0015696,0.0161885,1231,1744,6.36002,-28.7362
14,-720,6.37439,28.7932,0.0013883,0.00215024,0.00103837,0.00287532,0.000663219,0.961222,0.0017385,0.0146782,1238,1744,6.37434,-28.7932
21,-720,6.37134,28.8445,0.00127226,0.00239213,0.00110292,0.00306911,0.000595283,1.02029,0.00187934,0.0113795,1245,1744,6.37136,-28.8444
28,-720,6.36707,28.897,0.00113209,0.00252511,0.00105274,0.0030909,0.000566307,1.07765,0.00190017,0.0111453,1252,1744,6.36708,-28.897
35,-720,6.39001,28.9302,0.00103652,0.00237843,0.000902095,0.00283173,0.000583216,1.10515,0.00172657,0.0111434,1259,1744,6.39002,-28.9301
42,-720,6.3938,28.9585,0.00107387,0.00237011,0.000832756,0.00277724,0.000666742,1.11608,0.0016741,0.0115555,1266,1744,6.39379,-28.9585
49,-720,6.3999,28.9786,0.000952291,0.00217662,0.000604528,0.00242481,0.000704107,1.18124,0.00144039,0.011534,1273,1744,6.39986,-28.9787
56,-720,6.41418,28.9839,0.00092184,0.00197689,0.000159725,0.00200054,0.000898189,1.42379,0.00115702,0.01023,1280,1744,6.41418,-28.9839
63,-720,6.4198,28.9846,0.0010605,0.00167667,-0.00029925,0.00179808,0.000939087,-1.18537,0.00103847,0.0121954,1287,1744,6.41983,-28.9846
70,-720,6.44446,28.9917,0.00126013,0.00104224,-0.000668943,0.00182894,0.000473428,-0.704675,0.00109611,0.0121669,1294,1744,6.44444,-28.9916
77,-720,6.45044,29.0002,0.00145862,0.000312571,-0.000935211,0.00198239,-0.000211208,-0.510538,0.00139733,0.0137705,1301,1744,6.45046,-29.0003
84,-720,6.44788,28.9901,0.00164634,-0.000473774,-0.00113147,0.00213675,-0.000964184,-0.408986,0.0018325,0.0147201,1308,1744,6.44785,-28.9901
91,-720,6.43787,28.9984,0.00185299,-0.00106566,-0.0012172,0.00229398,-0.00150665,-0.347592,0.00220994,0.0142024,1315,1744,6.43785,-28.9984
98,-720,6.43323,28.9668,0.00203474,-0.00163705,-0.00120564,0.00239522,-0.00199753,-0.290536,0.00253962,0.0128344,1322,1744,6.4332,-28.9668
105,-720,6.45459,28.9353,0.00214168,-0.00216577,-0.0011519,0.00243037,-0.00245446,-0.245565,0.00282027,0.0117957,1329,1744,6.45458,-28.9352
112,-720,6.47168,28.9216,0.00220833,-0.00267833,-0.000949188,0.00238623,-0.00285622,-0.185269,0.00303078,0.0104827,1336,1744,6.47165,-28.9216
119,-720,6.47656,28.9022,0.00220329,-0.0030175,-0.000700439,0.00229563,-0.00310984,-0.131076,0.00313263,0.0103623,1343,1744,6.47657,-28.9022
126,-720,6.4801,28.8563,0.0021257,-0.00316328,-0.000406109,0.0021567,-0.00319428,-0.0761888,0.00310869,0.0104928,1350,1744,6.48013,-28.8563
133,-720,6.4762,28.7827,0.00198349,-0.00297545,-4.76649e-05,0.00198395,-0.0029759,-0.00961073,0.0028826,0.0117844,1357,1744,6.47622,-28.7827
140,-720,6.48865,28.7225,0.00178923,-0.00246362,0.000271578,0.0018065,-0.0024809,0.063514,0.00248552,0.018657,1364,1744,6.48864,-28.7225
147,-720,6.48877,28.6407,0.00151644,-0.00212359,0.000398335,0.00155952,-0.00216667,0.107733,0.00216082,0.0204992,1371,1744,6.48874,-28.6408
154,-720,6.49207,28.5638,0.00134129,-0.00162752,0.000541761,0.00143707,-0.00172329,0.174973,0.00182713,0.0135472,1378,1744,6.49202,-28.5638
161,-720,6.50854,28.4875,0.0010507,-0.00121715,0.000691348,0.00124484,-0.00141129,0.273759,0.00153452,0.00960548,1385,1744,6.50854,-28.4875
168,-720,6.50525,28.4114,0.000754847,-0.000790139,0.000670441,0.00100521,-0.0010405,0.357395,0.00118115,0.0102729,1392,1744,6.50526,-28.4113
175,-720,6.49487,28.3107,0.000482342,-0.000266231,0.000487589,0.000722737,-0.000506626,0.458055,0.000713419,0.0158885,1399,1744,6.49483,-28.3107
182,-720,6.49377,28.2234,0.000191232,0.000144629,0.00015428,0.00032396,1.19012e-05,0.710447,0.000212117,0.0155884,1406,1744,6.49379,-28.2234
189,-720,6.51123,28.1381,-7.06386e-06,0.000532817,-0.000142489,0.000568116,-4.23624e-05,-1.32796,0.000393625,0.0132005,1413,1744,6.51117,-28.1381
196,-720,6.51917,28.0271,-0.000342381,0.000840251,-0.00069621,0.00116237,-0.0006645,-1.13745,0.00106772,0.0141173,1420,1744,6.51916,-28.0271
203,-720,6.49792,27.9081,-0.000839097,0.00209382,-0.00121442,0.00253139,-0.00127666,-1.22497,0.00223801,0.0165405,1427,1744,6.49795,-27.9081
210,-720,6.48499,27.7986,-0.00114001,0.00277962,-0.00160369,0.00335213,-0.00171253,-1.2279,0.00297472,0.0143192,1434,1744,6.48496,-27.7986
217,-720,6.48596,27.639,-0.00135445,0.00350621,-0.00202252,0.00423769,-0.00208593,-1.22376,0.00372074,0.0130769,1441,1744,6.48591,-27.6391
224,-720,6.48328,27.4941,-0.00150256,0.00424178,-0.00246277,0.00515308,-0.00241385,-1.21639,0.00446316,0.00948072,1448,1744,6.48331,-27.4942
231,-720,6.46643,27.3673,-0.00170087,0.00502119,-0.00284513,0.00606371,-0.0027434,-1.21957,0.00520384,0.00944766,1455,1744,6.46649,-27.3673
238,-720,6.46509,27.2212,-0.00167877,0.00586091,-0.00314395,0.00699985,-0.00281771,-1.22324,0.00583709,0.00856872,1462,1744,6.46506,-27.2212
245,-720,6.46277,27.0857,-0.00146213,0.0066557,-0.00347786,0.00794191,-0.00274833,-1.21657,0.00641021,0.0111178,1469,1744,6.4628,-27.0857
252,-720,6.45288,26.9309,-0.00132481,0.00731047,-0.00379055,0.00873829,-0.00275263,-1.21055,0.00692782,0.0114736,1476,1744,6.45292,-26.9309
259,-720,6.4397,26.7697,-0.00124495,0.00786419,-0.00406331,0.00941328,-0.00279404,-1.20657,0.0073852,0.0101646,1483,1744,6.43972,-26.7697
266,-720,6.42078,26.609,-0.00121507,0.00883259,-0.00433965,0.0104474,-0.00282988,-1.21457,0.00807523,0.00837559,1490,1744,6.42082,-26.609
273,-720,6.40295,26.4314,-0.00119714,0.00971939,-0.00463609,0.0114225,-0.0029003,-1.21873,0.00874364,0.0158606,1497,1744,6.40294,-26.4314
280,-720,6.32251,26.2689,-0.00139038,0.0105203,-0.0048293,0.0122323,-0.00310239,-1.23011,0.00936194,0.0235402,1504,1744,6.32254,-26.2689
287,-720,6.245,26.0208,-0.00158099,0.0107496,-0.00480492,0.0124008,-0.00323222,-1.23979,0.00952913,0.0384496,1511,1744,6.24495,-26.0208
294,-720,6.51172,25.7645,-0.00213961,0.0113589,-0.00498029,0.0129975,-0.00377818,-1.25294,0.0101613,0.0387886,1518,1744,6.51177,-25.7645
301,-720,6.52686,25.6184,-0.00321669,0.0116805,-0.00466115,0.0130187,-0.0045549,-1.29122,0.0105311,0.0410888,1525,1744,6.52683,-25.6184
308,-720,6.35327,25.3782,-0.00417772,0.0101582,-0.00424916,0.011323,-0.00534253,-1.30324,0.00982618,0.0439731,1532,1744,6.35322,-25.3781
315,-720,6.20459,24.8857,-0.00569889,0.0107376,-0.00370483,0.011534,-0.00649538,-1.35903,0.0105439,0.0473134,1539,1744,6.20456,-24.8858
322,-720,6.52307,24.6083,0,0,0,0,0,0,0,-1,1546,1744,6.52311,-24.6083
329,-720,6.38,24.8297,0,0,0,0,0,0,0,-1,1553,1744,6.37995,-24.8297
336,-720,6.50476,25.2849,0,0,0,0,0,0,0,-1,1560,1744,6.50474,-25.2849
343,-720,6.78552,21.3625,0,0,0,0,0,0,0,-1,1567,1744,6.78551,-21.3625
350,-720,4.0741,11.1836,0,0,0,0,0,0,0,-1,1574,1744,4.07412,-11.1836
357,-720,6.90833,21.4504,0,0,0,0,0,0,0,-1,1581,1744,6.90827,-21.4505
364,-720,5.83777,24.1599,0,0,0,0,0,0,0,-1,1588,1744,5.83773,-24.1599
371,-720,5.46997,23.6176,0,0,0,0,0,0,0,-1,1595,1744,5.47001,-23.6176
378,-720,4.97656,23.3204,0,0,0,0,0,0,0,-1,1602,1744,4.97659,-23.3205
385,-720,4.23535,22.9569,0,0,0,0,0,0,0,-1,1609,1744,4.23534,-22.9569
392,-720,3.19006,23.2148,0,0,0,0,0,0,0,-1,1616,1744,3.1901,-23.2149
399,-720,0.197021,14.5314,0,0,0,0,0,0,0,-1,1623,1744,0.197043,-14.5313
406,-720,0,0,0,0,0,0,0,0,0,-1,1630,1744,0,0
413,-720,0,0,0,0,0,0,0,0,0,-1,1637,1744,0,0
420,-720,0,0,0,0,0,0,0,0,0,-1,1644,1744,0,0
427,-720,0,0,0,0,0,0,0,0,0,-1,1651,1744,0,0
434,-720,0,0,0,0,0,0,0,0,0,-1,1658,1744,0,0
441,-720,0,0,0,0,0,0,0,0,0,-1,1665,1744,0,0
448,-720,0,0,0,0,0,0,0,0,0,-1,1672,1744,0,0
455,-720,0,0,0,0,0,0,0,0,0,-1,1679,1744,0,0
462,-720,0,0,0,0,0,0,0,0,0,-1,1686,1744,0,0
469,-720,0,0,0,0,0,0,0,0,0,-1,1693,1744,0,0
476,-720,0,0,0,0,0,0,0,0,0,-1,1700,1744,0,0
483,-720,0,0,0,0,0,0,0,0,0,-1,1707,1744,0,0
490,-720,0,0,0,0,0,0,0,0,0,-1,1714,1744,0,0
497,-720,0,0,0,0,0,0,0,0,0,-1,1721,1744,0,0
504,-720,0,0,0,0,0,0,0,0,0,-1,1728,1744,0,0
511,-720,0,0,0,0,0,0,0,0,0,-1,1735,1744,0,0
518,-720,0,0,0,0,0,0,0,0,0,-1,1742,1744,0,0
525,-720,0,0,0,0,0,0,0,0,0,-1,1749,1744,0,0
532,-720,0,0,0,0,0,0,0,0,0,-1,1756,1744,0,0
539,-720,0,0,0,0,0,0,0,0,0,-1,1763,1744,0,0
546,-720,0,0,0,0,0,0,0,0,0,-1,1770,1744,0,0
553,-720,0,0,0,0,0,0,0,0,0,-1,1777,1744,0,0
560,-720,0,0,0,0,0,0,0,0,0,-1,1784,1744,0,0
567,-720,0,0,0,0,0,0,0,0,0,-1,1791,1744,0,0
574,-720,0,0,0,0,0,0,0,0,0,-1,1798,1744,0,0
581,-720,0,0,0,0,0,0,0,0,0,-1,1805,1744,0,0
588,-720,0,0,0,0,0,0,0,0,0,-1,1812,1744,0,0
595,-720,0,0,0,0,0,0,0,0,0,-1,1819,1744,0,0
602,-720,0,0,0,0,0,0,0,0,0,-1,1826,1744,0,0
609,-720,0,0,0,0,0,0,0,0,0,-1,1833,1744,0,0
616,-720,0,0,0,0,0,0,0,0,0,-1,1840,1744,0,0
623,-720,0,0,0,0,0,0,0,0,0,-1,1847,1744,0,0
630,-720,0,0,0,0,0,0,0,0,0,-1,1854,1744,0,0
637,-720,0,0,0,0,0,0,0,0,0,-1,1861,1744,0,0
644,-720,0,0,0,0,0,0,0,0,0,-1,1868,1744,0,0
651,-720,0,0,0,0,0,0,0,0,0,-1,1875,1744,0,0
658,-720,0,0,0,0,0,0,0,0,0,-1,1882,1744,0,0
665,-720,0,0,0,0,0,0,0,0,0,-1,1889,1744,0,0
672,-720,0,0,0,0,0,0,0,0,0,-1,1896,1744,0,0
679,-720,0,0,0,0,0,0,0,0,0,-1,1903,1744,0,0
686,-720,0,0,0,0,0,0,0,0,0,-1,1910,1744,0,0
693,-720,0,0,0,0,0,0,0,0,0,-1,1917,1744,0,0
700,-720,0,0,0,0,0,0,0,0,0,-1,1924,1744,0,0
707,-720,0,0,0,0,0,0,0,0,0,-1,1931,1744,0,0
714,-720,0,0,0,0,0,0,0,0,0,-1,1938,1744,0,0
721,-720,0,0,0,0,0,0,0,0,0,-1,1945,1744,0,0
728,-720,0,0,0,0,0,0,0,0,0,-1,1952,1744,0,0
735,-720,0,0,0,0,0,0,0,0,0,-1,1959,1744,0,0
742,-720,0,0,0,0,0,0,0,0,0,-1,1966,1744,0,0
749,-720,0,0,0,0,0,0,0,0,0,-1,1973,1744,0,0
756,-720,0,0,0,0,0,0,0,0,0,-1,1980,1744,0,0
763,-720,0,0,0,0,0,0,0,0,0,-1,1987,1744,0,0
770,-720,0,0,0,0,0,0,0,0,0,-1,1994,1744,0,0
777,-720,0,0,0,0,0,0,0,0,0,-1,2001,1744,0,0
784,-720,0,0,0,0,0,0,0,0,0,-1,2008,1744,0,0
791,-720,0,0,0,0,0,0,0,0,0,-1,2015,1744,0,0
798,-720,0,0,0,0,0,0,0,0,0,-1,2022,1744,0,0
805,-720,0,0,0,0,0,0,0,0,0,-1,2029,1744,0,0
812,-720,0,0,0,0,0,0,0,0,0,-1,2036,1744,0,0
-700,-727,0,0,0,0,0,0,0,0,0,-1,524,1751,0,0
-693,-727,0,0,0,0,0,0,0,0,0,-1,531,1751,0,0
-686,-727,0,0,0,0,0,0,0,0,0,-1,538,1751,0,0
-679,-727,0,0,0,0,0,0,0,0,0,-1,545,1751,0,0
-672,-727,0,0,0,0,0,0,0,0,0,-1,552,1751,0,0
-665,-727,0,0,0,0,0,0,0,0,0,-1,559,1751,0,0
-658,-727,0,0,0,0,0,0,0,0,0,-1,566,1751,0,0
-651,-727,0,0,0,0,0,0,0,0,0,-1,573,1751,0,0
-644,-727,0,0,0,0,0,0,0,0,0,-1,580,1751,0,0
-637,-727,0,0,0,0,0,0,0,0,0,-1,587,1751,0,0
-630,-727,0,0,0,0,0,0,0,0,0,-1,594,1751,0,0
-623,-727,0,0,0,0,0,0,0,0,0,-1,601,1751,0,0
-616,-727,0,0,0,0,0,0,0,0,0,-1,608,1751,0,0
-609,-727,0,0,0,0,0,0,0,0,0,-1,615,1751,0,0
-602,-727,0,0,0,0,0,0,0,0,0,-1,622,1751,0,0
-595,-727,0,0,0,0,0,0,0,0,0,-1,629,1751,0,0
-588,-727,0,0,0,0,0,0,0,0,0,-1,636,1751,0,0
-581,-727,0,0,0,0,0,0,0,0,0,-1,643,1751,0,0
-574,-727,0,0,0,0,0,0,0,0,0,-1,650,1751,0,0
-567,-727,0,0,0,0,0,0,0,0,0,-1,657,1751,0,0
-560,-727,0,0,0,0,0,0,0,0,0,-1,664,1751,0,0
-553,-727,0,0,0,0,0,0,0,0,0,-1,671,1751,0,0
-546,-727,0,0,0,0,0,0,0,0,0,-1,678,1751,0,0
-539,-727,0,0,0,0,0,0,0,0,0,-1,685,1751,0,0
-532,-727,0,0,0,0,0,0,0,0,0,-1,692,1751,0,0
-525,-727,0,0,0,0,0,0,0,0,0,-1,699,1751,0,0
-518,-727,0,0,0,0,0,0,0,0,0,-1,706,1751,0,0
-511,-727,0,0,0,0,0,0,0,0,0,-1,713,1751,0,0
-504,-727,0,0,0,0,0,0,0,0,0,-1,720,1751,0,0
-497,-727,0,0,0,0,0,0,0,0,0,-1,727,1751,0,0
-490,-727,0,0,0,0,0,0,0,0,0,-1,734,1751,0,0
-483,-727,0,0,0,0,0,0,0,0,0,-1,741,1751,0,0
-476,-727,0,0,0,0,0,0,0,0,0,-1,748,1751,0,0
-469,-727,0,0,0,0,0,0,0,0,0,-1,755,1751,0,0
-462,-727,0,0,0,0,0,0,0,0,0,-1,762,1751,0,0
-455,-727,0,0,0,0,0,0,0,0,0,-1,769,1751,0,0
-448,-727,0,0,0,0,0,0,0,0,0,-1,776,1751,0,0
-441,-727,0,0,0,0,0,0,0,0,0,-1,783,1751,0,0
-434,-727,0,0,0,0,0,0,0,0,0,-1,790,1751,0,0
-427,-727,0,0,0,0,0,0,0,0,0,-1,797,1751,0,0
-420,-727,0,0,0,0,0,0,0,0,0,-1,804,1751,0,0
-413,-727,0,0,0,0,0,0,0,0,0,-1,811,1751,0,0
-406,-727,0,0,0,0,0,0,0,0,0,-1,818,1751,0,0
-399,-727,0,0,0,0,0,0,0,0,0,-1,825,1751,0,0
-392,-727,0,0,0,0,0,0,0,0,0,-1,832,1751,0,0
-385,-727,0,0,0,0,0,0,0,0,0,-1,839,1751,0,0
-378,-727,0,0,0,0,0,0,0,0,0,-1,846,1751,0,0
-371,-727,0,0,0,0,0,0,0,0,0,-1,853,1751,0,0
-364,-727,0,0,0,0,0,0,0,0,0,-1,860,1751,0,0
-357,-727,0,0,0,0,0,0,0,0,0,-1,867,1751,0,0
-350,-727,0,0,0,0,0,0,0,0,0,-1,874,1751,0,0
-343,-727,0,0,0,0,0,0,0,0,0,-1,881,1751,0,0
-336,-727,0,0,0,0,0,0,0,0,0,-1,888,1751,0,0
-329,-727,0,0,0,0,0,0,0,0,0,-1,895,1751,0,0
-322,-727,0,0,0,0,0,0,0,0,0,-1,902,1751,0,0
-315,-727,0,0,0,0,0,0,0,0,0,-1,909,1751,0,0
-308,-727,0,0,0,0,0,0,0,0,0,-1,916,1751,0,0
-301,-727,0,0,0,0,0,0,0,0,0,-1,923,1751,0,0
-294,-727,0,0,0,0,0,0,0,0,0,-1,930,1751,0,0
-287,-727,0,0,0,0,0,0,0,0,0,-1,937,1751,0,0
-280,-727,0,0,0,0,0,0,0,0,0,-1,944,1751,0,0
-273,-727,0,0,0,0,0,0,0,0,0,-1,951,1751,0,0
-266,-727,4.24805,7.61145,0,0,0,0,0,0,0,-1,958,1751,4.24802,-7.6115
-259,-727,3.65228,5.4082,0,0,0,0,0,0,0,-1,965,1751,3.65229,-5.40818
-252,-727,6.35193,19.5046,0,0,0,0,0,0,0,-1,972,1751,6.35193,-19.5046
-245,-727,6.6543,20.9005,0,0,0,0,0,0,0,-1,979,1751,6.65433,-20.9005
-238,-727,4.31769,18.0181,0,0,0,0,0,0,0,-1,986,1751,4.31766,-18.018
-231,-727,6.50403,21.7985,0,0,0,0,0,0,0,-1,993,1751,6.50403,-21.7985
-224,-727,5.36774,18.8488,0,0,0,0,0,0,0,-1,1000,1751,5.36772,-18.8487
-217,-727,5.94122,16.1447,0,0,0,0,0,0,0,-1,1007,1751,5.9412,-16.1446
-210,-727,6.63403,19.8335,0,0,0,0,0,0,0,-1,1014,1751,6.63405,-19.8335
-203,-727,6.70361,20.4543,0,0,0,0,0,0,0,-1,1021,1751,6.70363,-20.4544
-196,-727,5.04541,20.356,0,0,0,0,0,0,0,-1,1028,1751,5.04537,-20.356
-189,-727,5.33643,22.0458,0,0,0,0,0,0,0,-1,1035,1751,5.33649,-22.0457
-182,-727,6.2561,25.0558,0,0,0,0,0,0,0,-1,1042,1751,6.25616,-25.0558
-175,-727,7.18445,25.8511,0,0,0,0,0,0,0,-1,1049,1751,7.18445,-25.8511
-168,-727,7.2063,25.6376,0,0,0,0,0,0,0,-1,1056,1751,7.20625,-25.6376
-161,-727,6.19238,25.7233,0,0,0,0,0,0,0,-1,1063,1751,6.19244,-25.7233
-154,-727,6.67371,25.73,0,0,0,0,0,0,0,-1,1070,1751,6.67369,-25.73
-147,-727,6.2865,25.8857,0,0,0,0,0,0,0,-1,1077,1751,6.28654,-25.8857
-140,-727,6.50854,25.9261,0.00138013,-0.00190363,0.00272047,0.00291579,-0.00343929,0.513893,0.00367325,0.0335963,1084,1751,6.50853,-25.9261
-133,-727,6.62402,26.1388,0.000641208,-0.000723644,0.00249408,0.00254454,-0.00262697,0.651857,0.0029859,0.0243268,1091,1751,6.62396,-26.1388
-126,-727,6.56213,26.385,-0.000593599,0.000260553,0.00197105,0.00185027,-0.00218331,0.892086,0.00233143,0.0158421,1098,1751,6.56219,-26.385
-119,-727,6.57349,26.6272,-0.00121382,0.00153844,0.00204408,0.00262645,-0.00230183,1.08166,0.0028474,0.0118588,1105,1751,6.57347,-26.6272
-112,-727,6.57324,26.781,-0.00112228,0.00233101,0.00205635,0.00328948,-0.00208076,1.13463,0.00312658,0.0127081,1112,1751,6.57322,-26.7811
-105,-727,6.526,26.959,-0.00108518,0.00277199,0.00170127,0.00341513,-0.00172832,1.20937,0.00302234,0.0131684,1119,1751,6.52605,-26.959
-98,-727,6.52539,27.0995,-0.00128011,0.00313717,0.00149241,0.00359413,-0.00173706,1.27368,0.00313959,0.0107702,1126,1751,6.52539,-27.0995
-91,-727,6.51868,27.2346,-0.00138674,0.00344214,0.00130125,0.00377047,-0.00171506,1.32364,0.00324033,0.0102437,1133,1751,6.51868,-27.2346
-84,-727,6.4856,27.3976,-0.00162252,0.00346931,0.001106,0.00369917,-0.00185238,1.36589,0.00326377,0.0112005,1140,1751,6.48563,-27.3976
-77,-727,6.47363,27.5503,-0.0014271,0.00339187,0.0010578,0.00361383,-0.00164907,1.36396,0.00310832,0.0126561,1147,1751,6.47366,-27.5503
-70,-727,6.47168,27.6833,-0.00119157,0.00304288,0.0008802,0.00321855,-0.00136724,1.3738,0.00271858,0.0124618,1154,1751,6.47165,-27.6833
-63,-727,6.4635,27.8188,-0.00120762,0.00268919,0.000623054,0.00278639,-0.00130481,1.41605,0.00241313,0.00992215,1161,1751,6.46347,-27.8188
-56,-727,6.44946,27.9343,-0.00112039,0.00235785,0.000487002,0.00242475,-0.00118729,1.43428,0.00212582,0.0105328,1168,1751,6.44945,-27.9343
-49,-727,6.46179,28.0297,-0.00103564,0.00189503,0.000366481,0.00194016,-0.00108077,1.44826,0.00176751,0.0134852,1175,1751,6.46183,-28.0296
-42,-727,6.46118,28.1428,-0.00091382,0.0011384,0.000251633,0.00116881,-0.000944223,1.45055,0.00122225,0.0169189,1182,1751,6.46115,-28.1428
-35,-727,6.4248,28.2375,-0.000527298,0.00070809,5.2377e-05,0.000710307,-0.000529515,1.5285,0.000718344,0.015717,1189,1751,6.42481,-28.2376
-28,-727,6.43652,28.3401,-0.000244393,0.000587672,-0.000234968,0.00064944,-0.00030616,-1.31374,0.000563457,0.00940424,1196,1751,6.43654,-28.34
-21,-727,6.43811,28.4531,-2.23497e-05,0.000686724,-0.000460925,0.000913692,-0.000249318,-1.11323,0.000707042,0.0100737,1203,1751,6.43815,-28.4531
-14,-727,6.4397,28.5187,0.000175851,0.000740312,-0.000508855,0.00103996,-0.000123801,-1.0386,0.000738046,0.0113165,1210,1751,6.43971,-28.5187
-7,-727,6.44043,28.6031,0.000254082,0.000831225,-0.000531321,0.00114728,-6.19745e-05,-1.03417,0.000786327,0.0149038,1217,1751,6.44049,-28.6031
0,-727,6.44507,28.6849,0.000310514,0.00102015,-0.000445485,0.00123485,9.5812e-05,-1.12169,0.000793227,0.0151654,1224,1751,6.44511,-28.6849
7,-727,6.42834,28.7408,0.000380487,0.00124304,-0.000358415,0.00137253,0.000250995,-1.2241,0.000843891,0.0146105,1231,1751,6.4283,-28.7409
14,-727,6.42944,28.8025,0.000425075,0.0013997,-0.000295687,0.0014824,0.000342384,-1.29811,0.000896208,0.013961,1238,1751,6.42947,-28.8025
21,-727,6.42981,28.8645,0.000452654,0.00162215,-0.000305866,0.00169731,0.00037749,-1.32983,0.00102906,0.0118355,1245,1751,6.42976,-28.8645
28,-727,6.43054,28.9095,0.00043515,0.00174401,-0.000334168,0.00182439,0.00035477,-1.33474,0.00111695,0.010768,1252,1751,6.43051,-28.9095
35,-727,6.44067,28.9446,0.000605361,0.00171968,-0.0003896,0.00184239,0.000482657,-1.26568,0.00110315,0.0114684,1259,1751,6.44065,-28.9446
42,-727,6.42493,28.9594,0.000891213,0.00175834,-0.000444906,0.001946,0.000703553,-1.17164,0.00113779,0.0112445,1266,1751,6.42495,-28.9593
49,-727,6.39783,28.9672,0.00116272,0.00177552,-0.000714243,0.00224631,0.000691928,-0.98802,0.00132839,0.00981116,1273,1751,6.39786,-28.9672
56,-727,6.39563,28.9969,0.00146018,0.00173346,-0.00109294,0.00269827,0.000495369,-0.847586,0.00165857,0.0096341,1280,1751,6.39557,-28.9969
63,-727,6.42651,29.0045,0.00179791,0.00160814,-0.00143425,0.00314041,0.000265645,-0.752368,0.00201091,0.0117661,1287,1751,6.42647,-29.0045
70,-727,6.45667,28.9991,0.00206867,0.00114247,-0.00167054,0.00333911,-0.000127973,-0.650187,0.00226994,0.0126082,1294,1751,6.45663,-28.9992
77,-727,6.45544,29.0347,0.00228353,0.000467264,-0.00181251,0.00340269,-0.000651892,-0.55316,0.00251409,0.0145631,1301,1751,6.45547,-29.0347
84,-727,6.44507,29.0063,0.0024202,-0.000299949,-0.00192946,0.00342076,-0.00130051,-0.478395,0.00281596,0.0167839,1308,1751,6.44501,-29.0064
91,-727,6.44006,28.9695,0.00251145,-0.000896227,-0.00191749,0.00337273,-0.00175751,-0.422164,0.00301048,0.0176826,1315,1751,6.44,-28.9695
98,-727,6.42322,28.9568,0.00252951,-0.00151362,-0.00178325,0.00320363,-0.00218774,-0.361423,0.00313107,0.014631,1322,1751,6.42327,-28.9568
105,-727,6.44043,28.9349,0.00238759,-0.00214784,-0.00160916,0.0029005,-0.00266076,-0.308569,0.00321179,0.0136005,1329,1751,6.44038,-28.9349
112,-727,6.44397,28.9188,0.00210142,-0.00279463,-0.00128641,0.00241884,-0.00311205,-0.241916,0.00320161,0.0115619,1336,1751,6.44395,-28.9188
119,-727,6.44861,28.8981,0.00174775,-0.00333176,-0.000884317,0.0018973,-0.00348131,-0.167531,0.00314991,0.00878352,1343,1751,6.44856,-28.8981
126,-727,6.44287,28.8401,0.00138774,-0.0037548,-0.000416678,0.00142128,-0.00378835,-0.0803273,0.00310955,0.00956777,1350,1751,6.44284,-28.8401
133,-727,6.44324,28.7664,0.00105034,-0.00382524,2.35094e-05,0.00105046,-0.00382535,0.00482172,0.00296312,0.0138358,1357,1751,6.44318,-28.7664
140,-727,6.44287,28.7051,0.000660823,-0.00361546,0.000389284,0.000695972,-0.00365061,0.0900471,0.00269584,0.0208032,1364,1751,6.44284,-28.7051
147,-727,6.44214,28.6567,0.000360243,-0.00334246,0.000651696,0.000471597,-0.00345381,0.169233,0.00247476,0.0193639,1371,1751,6.44219,-28.6567
154,-727,6.43591,28.5676,0.00010179,-0.00295415,0.000885156,0.000339661,-0.00319202,0.262531,0.00224979,0.0125393,1378,1751,6.43589,-28.5677
161,-727,6.42615,28.4904,-9.34059e-05,-0.00244744,0.000923189,0.000225454,-0.0027663,0.332561,0.00192376,0.00955161,1385,1751,6.42613,-28.4904
168,-727,6.40918,28.4191,-0.000165869,-0.00179589,0.000667687,7.27085e-05,-0.00203447,0.34318,0.00138119,0.0120432,1392,1751,6.40914,-28.4191
175,-727,6.41833,28.3243,-0.000130296,-0.00100645,0.000273602,-5.18752e-05,-0.00108487,0.279139,0.000706589,0.0166802,1399,1751,6.41835,-28.3244
182,-727,6.42249,28.225,-0.000278566,-0.000230044,-0.000242985,-1.01123e-05,-0.000498498,-0.835156,0.000329013,0.0192373,1406,1751,6.42253,-28.225
189,-727,6.40112,28.1228,-0.000410854,0.000351717,-0.000624109,0.000701793,-0.000760931,-1.05961,0.000844734,0.0122793,1413,1751,6.40108,-28.1228
196,-727,6.3844,28.0216,-0.000894804,0.000876549,-0.00150654,0.00173846,-0.00175672,-1.05113,0.00201795,0.0140041,1420,1751,6.38434,-28.0216
203,-727,6.3822,27.8948,-0.00173357,0.00304473,-0.00233418,0.0039957,-0.00268455,-1.18392,0.00388153,0.0171506,1427,1751,6.38224,-27.8947
210,-727,6.36877,27.7854,-0.0021737,0.00416395,-0.00288496,0.0052805,-0.00329025,-1.20153,0.0049926,0.0163907,1434,1751,6.36878,-27.7854
217,-727,6.35718,27.6521,-0.00237425,0.00528728,-0.00343314,0.00660057,-0.00368754,-1.20544,0.00601868,0.0122173,1441,1751,6.35717,-27.6521
224,-727,6.35486,27.4777,-0.00252829,0.00637872,-0.00399649,0.007909,-0.00405857,-1.20511,0.00702767,0.0125053,1448,1751,6.35485,-27.4776
231,-727,6.34497,27.344,-0.00275001,0.007532,-0.00447749,0.00920846,-0.00442646,-1.21253,0.00803189,0.00966366,1455,1751,6.34499,-27.344
238,-727,6.33252,27.2146,-0.00269998,0.00874229,-0.00484744,0.0105198,-0.00447745,-1.21934,0.00888981,0.00987273,1462,1751,6.33255,-27.2146
245,-727,6.32129,27.0852,-0.00239258,0.00988106,-0.00524409,0.0118165,-0.004328,-1.21724,0.00964946,0.0099055,1469,1751,6.32124,-27.0852
252,-727,6.30298,26.9321,-0.0021607,0.0108191,-0.00560377,0.0129037,-0.00424524,-1.21467,0.010313,0.0108053,1476,1751,6.30301,-26.9321
259,-727,6.30273,26.757,-0.00199423,0.0115886,-0.00590492,0.0137967,-0.00420234,-1.21295,0.0108727,0.01424,1483,1751,6.30273,-26.757
266,-727,6.30603,26.6271,-0.00188592,0.0128473,-0.00620484,0.0151122,-0.00415087,-1.22079,0.0117064,0.0223371,1490,1751,6.30605,-26.6271
273,-727,6.40674,26.502,-0.00178277,0.0139701,-0.00652693,0.016323,-0.00413566,-1.22481,0.0124909,0.0432899,1497,1751,6.40677,-26.502
280,-727,6.06079,26.319,0,0,0,0,0,0,0,-1,1504,1751,6.06081,-26.319
287,-727,5.9126,25.7607,0,0,0,0,0,0,0,-1,1511,1751,5.91256,-25.7607
294,-727,6.328,25.5851,0,0,0,0,0,0,0,-1,1518,1751,6.32797,-25.5851
301,-727,6.34705,25.6505,0,0,0,0,0,0,0,-1,1525,1751,6.34703,-25.6505
308,-727,6.13782,25.3719,0,0,0,0,0,0,0,-1,1532,1751,6.13779,-25.372
315,-727,5.86914,24.5013,0,0,0,0,0,0,0,-1,1539,1751,5.86913,-24.5014
322,-727,5.75818,18.2477,0,0,0,0,0,0,0,-1,1546,1751,5.75815,-18.2477
329,-727,6.61853,11.6267,0,0,0,0,0,0,0,-1,1553,1751,6.61859,-11.6267
336,-727,5.55823,20.2439,0,0,0,0,0,0,0,-1,1560,1751,5.55829,-20.2438
343,-727,2.41699,8.72095,0,0,0,0,0,0,0,-1,1567,1751,2.41702,-8.72098
350,-727,3.89783,7.50195,0,0,0,0,0,0,0,-1,1574,1751,3.89782,-7.50193
357,-727,4.48462,10.2948,0,0,0,0,0,0,0,-1,1581,1751,4.48464,-10.2948
364,-727,6.96729,17.2365,0,0,0,0,0,0,0,-1,1588,1751,6.96732,-17.2365
371,-727,5.04565,23.2227,0,0,0,0,0,0,0,-1,1595,1751,5.04564,-23.2227
378,-727,4.56726,23.0574,0,0,0,0,0,0,0,-1,1602,1751,4.56727,-23.0574
385,-727,3.52307,22.6431,0,0,0,0,0,0,0,-1,1609,1751,3.52303,-22.643
392,-727,0,0,0,0,0,0,0,0,0,-1,1616,1751,0,0
399,-727,0,0,0,0,0,0,0,0,0,-1,1623,1751,0,0
406,-727,0,0,0,0,0,0,0,0,0,-1,1630,1751,0,0
413,-727,0,0,0,0,0,0,0,0,0,-1,1637,1751,0,0
420,-727,0,0,0,0,0,0,0,0,0,-1,1644,1751,0,0
427,-727,0,0,0,0,0,0,0,0,0,-1,1651,1751,0,0
434,-727,0,0,0,0,0,0,0,0,0,-1,1658,1751,0,0
441,-727,0,0,0,0,0,0,0,0,0,-1,1665,1751,0,0
448,-727,0,0,0,0,0,0,0,0,0,-1,1672,1751,0,0
455,-727,0,0,0,0,0,0,0,0,0,-1,1679,1751,0,0
462,-727,0,0,0,0,0,0,0,0,0,-1,1686,1751,0,0
469,-727,0,0,0,0,0,0,0,0,0,-1,1693,1751,0,0
476,-727,0,0,0,0,0,0,0,0,0,-1,1700,1751,0,0
483,-727,0,0,0,0,0,0,0,0,0,-1,1707,1751,0,0
490,-727,0,0,0,0,0,0,0,0,0,-1,1714,1751,0,0
497,-727,0,0,0,0,0,0,0,0,0,-1,1721,1751,0,0
504,-727,0,0,0,0,0,0,0,0,0,-1,1728,1751,0,0
511,-727,0,0,0,0,0,0,0,0,0,-1,1735,1751,0,0
518,-727,0,0,0,0,0,0,0,0,0,-1,1742,1751,0,0
525,-727,0,0,0,0,0,0,0,0,0,-1,1749,1751,0,0
532,-727,0,0,0,0,0,0,0,0,0,-1,1756,1751,0,0
539,-727,0,0,0,0,0,0,0,0,0,-1,1763,1751,0,0
546,-727,0,0,0,0,0,0,0,0,0,-1,1770,1751,0,0
553,-727,0,0,0,0,0,0,0,0,0,-1,1777,1751,0,0
560,-727,0,0,0,0,0,0,0,0,0,-1,1784,1751,0,0
567,-727,0,0,0,0,0,0,0,0,0,-1,1791,1751,0,0
574,-727,0,0,0,0,0,0,0,0,0,-1,1798,1751,0,0
581,-727,0,0,0,0,0,0,0,0,0,-1,1805,1751,0,0
588,-727,0,0,0,0,0,0,0,0,0,-1,1812,1751,0,0
595,-727,0,0,0,0,0,0,0,0,0,-1,1819,1751,0,0
602,-727,0,0,0,0,0,0,0,0,0,-1,1826,1751,0,0
609,-727,0,0,0,0,0,0,0,0,0,-1,1833,1751,0,0
616,-727,0,0,0,0,0,0,0,0,0,-1,1840,1751,0,0
623,-727,0,0,0,0,0,0,0,0,0,-1,1847,1751,0,0
630,-727,0,0,0,0,0,0,0,0,0,-1,1854,1751,0,0
637,-727,0,0,0,0,0,0,0,0,0,-1,1861,1751,0,0
644,-727,0,0,0,0,0,0,0,0,0,-1,1868,1751,0,0
651,-727,0,0,0,0,0,0,0,0,0,-1,1875,1751,0,0
658,-727,0,0,0,0,0,0,0,0,0,-1,1882,1751,0,0
665,-727,0,0,0,0,0,0,0,0,0,-1,1889,1751,0,0
672,-727,0,0,0,0,0,0,0,0,0,-1,1896,1751,0,0
679,-727,0,0,0,0,0,0,0,0,0,-1,1903,1751,0,0
686,-727,0,0,0,0,0,0,0,0,0,-1,1910,1751,0,0
693,-727,0,0,0,0,0,0,0,0,0,-1,1917,1751,0,0
700,-727,0,0,0,0,0,0,0,0,0,-1,1924,1751,0,0
707,-727,0,0,0,0,0,0,0,0,0,-1,1931,1751,0,0
714,-727,0,0,0,0,0,0,0,0,0,-1,1938,1751,0,0
721,-727,0,0,0,0,0,0,0,0,0,-1,1945,1751,0,0
728,-727,0,0,0,0,0,0,0,0,0,-1,1952,1751,0,0
735,-727,0,0,0,0,0,0,0,0,0,-1,1959,1751,0,0
742,-727,0,0,0,0,0,0,0,0,0,-1,1966,1751,0,0
749,-727,0,0,0,0,0,0,0,0,0,-1,1973,1751,0,0
756,-727,0,0,0,0,0,0,0,0,0,-1,1980,1751,0,0
763,-727,0,0,0,0,0,0,0,0,0,-1,1987,1751,0,0
770,-727,0,0,0,0,0,0,0,0,0,-1,1994,1751,0,0
777,-727,0,0,0,0,0,0,0,0,0,-1,2001,1751,0,0
784,-727,0,0,0,0,0,0,0,0,0,-1,2008,1751,0,0
791,-727,0,0,0,0,0,0,0,0,0,-1,2015,1751,0,0
798,-727,0,0,0,0,0,0,0,0,0,-1,2022,1751,0,0
805,-727,0,0,0,0,0,0,0,0,0,-1,2029,1751,0,0
812,-727,0,0,0,0,0,0,0,0,0,-1,2036,1751,0,0
-700,-734,0,0,0,0,0,0,0,0,0,-1,524,1758,0,0
-693,-734,0,0,0,0,0,0,0,0,0,-1,531,1758,0,0
-686,-734,0,0,0,0,0,0,0,0,0,-1,538,1758,0,0
-679,-734,0,0,0,0,0,0,0,0,0,-1,545,1758,0,0
-672,-734,0,0,0,0,0,0,0,0,0,-1,552,1758,0,0
-665,-734,0,0,0,0,0,0,0,0,0,-1,559,1758,0,0
-658,-734,0,0,0,0,0,0,0,0,0,-1,566,1758,0,0
-651,-734,0,0,0,0,0,0,0,0,0,-1,573,1758,0,0
-644,-734,0,0,0,0,0,0,0,0,0,-1,580,1758,0,0
-637,-734,0,0,0,0,0,0,0,0,0,-1,587,1758,0,0
-630,-734,0,0,0,0,0,0,0,0,0,-1,594,1758,0,0
-623,-734,0,0,0,0,0,0,0,0,0,-1,601,1758,0,0
-616,-734,0,0,0,0,0,0,0,0,0,-1,608,1758,0,0
-609,-734,0,0,0,0,0,0,0,0,0,-1,615,1758,0,0
-602,-734,0,0,0,0,0,0,0,0,0,-1,622,1758,0,0
-595,-734,0,0,0,0,0,0,0,0,0,-1,629,1758,0,0
-588,-734,0,0,0,0,0,0,0,0,0,-1,636,1758,0,0
-581,-734,0,0,0,0,0,0,0,0,0,-1,643,1758,0,0
-574,-734,0,0,0,0,0,0,0,0,0,-1,650,1758,0,0
-567,-734,0,0,0,0,0,0,0,0,0,-1,657,1758,0,0
-560,-734,0,0,0,0,0,0,0,0,0,-1,664,1758,0,0
-553,-734,0,0,0,0,0,0,0,0,0,-1,671,1758,0,0
-546,-734,0,0,0,0,0,0,0,0,0,-1,678,1758,0,0
-539,-734,0,0,0,0,0,0,0,0,0,-1,685,1758,0,0
-532,-734,0,0,0,0,0,0,0,0,0,-1,692,1758,0,0
-525,-734,0,0,0,0,0,0,0,0,0,-1,699,1758,0,0
-518,-734,0,0,0,0,0,0,0,0,0,-1,706,1758,0,0
-511,-734,0,0,0,0,0,0,0,0,0,-1,713,1758,0,0
-504,-734,0,0,0,0,0,0,0,0,0,-1,720,1758,0,0
-497,-734,0,0,0,0,0,0,0,0,0,-1,727,1758,0,0
-490,-734,0,0,0,0,0,0,0,0,0,-1,734,1758,0,0
-483,-734,0,0,0,0,0,0,0,0,0,-1,741,1758,0,0
-476,-734,0,0,0,0,0,0,0,0,0,-1,748,1758,0,0
-469,-734,0,0,0,0,0,0,0,0,0,-1,755,1758,0,0
-462,-734,0,0,0,0,0,0,0,0,0,-1,762,1758,0,0
-455,-734,0,0,0,0,0,0,0,0,0,-1,769,1758,0,0
-448,-734,0,0,0,0,0,0,0,0,0,-1,776,1758,0,0
-441,-734,0,0,0,0,0,0,0,0,0,-1,783,1758,0,0
-434,-734,0,0,0,0,0,0,0,0,0,-1,790,1758,0,0
-427,-734,0,0,0,0,0,0,0,0,0,-1,797,1758,0,0
-420,-734,0,0,0,0,0,0,0,0,0,-1,804,1758,0,0
-413,-734,0,0,0,0,0,0,0,0,0,-1,811,1758,0,0
-406,-734,0,0,0,0,0,0,0,0,0,-1,818,1758,0,0
-399,-734,0,0,0,0,0,0,0,0,0,-1,825,1758,0,0
-392,-734,0,0,0,0,0,0,0,0,0,-1,832,1758,0,0
-385,-734,0,0,0,0,0,0,0,0,0,-1,839,1758,0,0
-378,-734,0,0,0,0,0,0,0,0,0,-1,846,1758,0,0
-371,-734,0,0,0,0,0,0,0,0,0,-1,853,1758,0,0
-364,-734,0,0,0,0,0,0,0,0,0,-1,860,1758,0,0
-357,-734,0,0,0,0,0,0,0,0,0,-1,867,1758,0,0
-350,-734,0,0,0,0,0,0,0,0,0,-1,874,1758,0,0
-343,-734,0,0,0,0,0,0,0,0,0,-1,881,1758,0,0
-336,-734,0,0,0,0,0,0,0,0,0,-1,888,1758,0,0
-329,-734,0,0,0,0,0,0,0,0,0,-1,895,1758,0,0
-322,-734,0,0,0,0,0,0,0,0,0,-1,902,1758,0,0
-315,-734,0,0,0,0,0,0,0,0,0,-1,909,1758,0,0
-308,-734,0,0,0,0,0,0,0,0,0,-1,916,1758,0,0
-301,-734,0,0,0,0,0,0,0,0,0,-1,923,1758,0,0
-294,-734,0,0,0,0,0,0,0,0,0,-1,930,1758,0,0
-287,-734,0,0,0,0,0,0,0,0,0,-1,937,1758,0,0
-280,-734,0,0,0,0,0,0,0,0,0,-1,944,1758,0,0
-273,-734,0,0,0,0,0,0,0,0,0,-1,951,1758,0,0
-266,-734,0,0,0,0,0,0,0,0,0,-1,958,1758,0,0
-259,-734,0,0,0,0,0,0,0,0,0,-1,965,1758,0,0
-252,-734,6.93439,18.351,0,0,0,0,0,0,0,-1,972,1758,6.93438,-18.3509
-245,-734,6.95746,19.5341,0,0,0,0,0,0,0,-1,979,1758,6.95746,-19.5341
-238,-734,6.69128,15.3165,0,0,0,0,0,0,0,-1,986,1758,6.69128,-15.3166
-231,-734,7.35022,15.5492,0,0,0,0,0,0,0,-1,993,1758,7.3502,-15.5492
-224,-734,7.4632,15.9962,0,0,0,0,0,0,0,-1,1000,1758,7.46319,-15.9962
-217,-734,7.54193,16.1692,0,0,0,0,0,0,0,-1,1007,1758,7.54194,-16.1691
-210,-734,7.62262,16.1628,0,0,0,0,0,0,0,-1,1014,1758,7.6226,-16.1628
-203,-734,5.32764,21.4656,0,0,0,0,0,0,0,-1,1021,1758,5.32762,-21.4655
-196,-734,6.00171,20.7645,0,0,0,0,0,0,0,-1,1028,1758,6.00166,-20.7645
-189,-734,5.2373,22.2926,0,0,0,0,0,0,0,-1,1035,1758,5.23734,-22.2926
-182,-734,5.53125,23.9364,0,0,0,0,0,0,0,-1,1042,1758,5.53122,-23.9364
-175,-734,3.95435,22.882,0,0,0,0,0,0,0,-1,1049,1758,3.95434,-22.8819
-168,-734,4.50208,15.4194,0,0,0,0,0,0,0,-1,1056,1758,4.50212,-15.4194
-161,-734,6.17456,21.793,0,0,0,0,0,0,0,-1,1063,1758,6.1746,-21.7929
-154,-734,6.0907,25.8704,0,0,0,0,0,0,0,-1,1070,1758,6.09068,-25.8703
-147,-734,6.4519,25.9735,0,0,0,0,0,0,0,-1,1077,1758,6.45186,-25.9736
-140,-734,6.73132,25.9622,0.00225418,-0.00188261,0.00362919,0.00436302,-0.00399145,0.52639,0.00482504,0.0454076,1084,1758,6.73136,-25.9622
-133,-734,6.86035,26.2289,0.00110432,-0.000243944,0.00333809,0.00383567,-0.00297529,0.685762,0.00394275,0.0453105,1091,1758,6.86032,-26.2289
-126,-734,6.672,26.3322,-0.000601693,0.0010034,0.00263846,0.00295867,-0.00255696,0.933038,0.00318726,0.0402847,1098,1758,6.67197,-26.3322
-119,-734,6.62122,26.6111,-0.00144992,0.0025776,0.00265307,0.00389461,-0.00276693,1.11003,0.00386437,0.0354817,1105,1758,6.62124,-26.611
-112,-734,6.65137,26.7842,-0.00146229,0.00356281,0.00258449,0.00465477,-0.00255425,1.17104,0.00422061,0.0292614,1112,1758,6.65138,-26.7842
-105,-734,6.6582,26.938,-0.0015477,0.00410973,0.00213066,0.00482239,-0.00226036,1.24802,0.00417745,0.0245593,1119,1758,6.6582,-26.938
-98,-734,6.71008,27.0126,-0.00187412,0.00451544,0.00181325,0.00499415,-0.00235283,1.31268,0.00433219,0.0260075,1126,1758,6.71008,-27.0126
-91,-734,6.69507,27.1372,-0.0020884,0.00480585,0.0015197,0.00512597,-0.00240852,1.36318,0.00444335,0.0298191,1133,1758,6.69502,-27.1372
-84,-734,6.6377,27.3221,-0.00246359,0.00473073,0.00123565,0.00493704,-0.00266991,1.40536,0.00445642,0.0237235,1140,1758,6.63764,-27.3221
-77,-734,6.59949,27.5326,-0.00225446,0.0044372,0.00119768,0.00464511,-0.00246236,1.39892,0.0041675,0.0231873,1147,1758,6.59943,-27.5326
-70,-734,6.54883,27.5691,-0.00202127,0.00380012,0.00101288,0.00397132,-0.00219247,1.40336,0.00360773,0.0212776,1154,1758,6.5488,-27.5691
-63,-734,6.53394,27.6932,-0.00162666,0.00315258,0.000174339,0.00315893,-0.00163301,1.53438,0.002813,0.0188512,1161,1758,6.53392,-27.6932
-56,-734,6.55237,27.9077,-0.000879232,0.00287232,-0.000484751,0.00293394,-0.000940856,-1.44435,0.00233368,0.0150129,1168,1758,6.5524,-27.9078
-49,-734,6.56226,28.0499,-3.29798e-05,0.00248249,-0.00101082,0.00283834,-0.000388829,-1.2323,0.00203426,0.0129164,1175,1758,6.56225,-28.0499
-42,-734,6.54456,28.1442,0.000594667,0.00152147,-0.00148344,0.0026122,-0.000496066,-0.936787,0.00192821,0.0142507,1182,1758,6.54461,-28.1442
-35,-734,6.51526,28.2167,0.0014285,0.00101202,-0.00203028,0.00326119,-0.000820668,-0.734292,0.00249312,0.0147679,1189,1758,6.51525,-28.2166
-28,-734,6.53979,28.3257,0.00200563,0.000958076,-0.00260021,0.0041343,-0.00117059,-0.68601,0.00321816,0.0100714,1196,1758,6.53974,-28.3257
-21,-734,6.57373,28.442,0.00224762,0.00114974,-0.00298282,0.00473159,-0.00133424,-0.694399,0.00368065,0.0154769,1203,1758,6.57374,-28.442
-14,-734,6.51733,28.5536,0.00229971,0.00132361,-0.00316343,0.00501252,-0.0013892,-0.708863,0.00388836,0.0161593,1210,1758,6.51737,-28.5536
-7,-734,6.51514,28.6255,0.00216657,0.00149153,-0.00317814,0.00502506,-0.00136696,-0.732496,0.00388667,0.0174825,1217,1758,6.51512,-28.6254
0,-734,6.50806,28.6796,0.00195461,0.00176327,-0.00291938,0.00477988,-0.001062,-0.769019,0.00359329,0.0159525,1224,1758,6.50809,-28.6795
7,-734,6.4834,28.7327,0.00170161,0.0020084,-0.00263641,0.00449587,-0.000785869,-0.814457,0.00329064,0.0128837,1231,1758,6.48342,-28.7327
14,-734,6.48157,28.8082,0.00149756,0.00215801,-0.00233611,0.00418712,-0.000531545,-0.855611,0.00298442,0.0137475,1238,1758,6.48153,-28.8082
21,-734,6.46338,28.8613,0.00124866,0.00238534,-0.00214424,0.00403528,-0.000401278,-0.914946,0.00283343,0.0117753,1245,1758,6.46339,-28.8613
28,-734,6.4696,28.9053,0.000992517,0.00270185,-0.00204098,0.00405988,-0.000365522,-0.983681,0.00283629,0.0119345,1252,1758,6.46955,-28.9052
35,-734,6.4624,28.9592,0.00111976,0.00288395,-0.00185573,0.00405657,-5.28495e-05,-1.00726,0.00272216,0.0142817,1259,1758,6.46242,-28.9593
42,-734,6.43884,28.9669,0.00139671,0.00318878,-0.00183266,0.00433273,0.000252759,-1.01277,0.00280803,0.0109689,1266,1758,6.43889,-28.967
49,-734,6.42371,28.974,0.00181729,0.00346363,-0.00204948,0.00484908,0.000431845,-0.976361,0.00309882,0.00926276,1273,1758,6.42373,-28.974
56,-734,6.41504,29.0033,0.00226111,0.00366227,-0.00242791,0.00548866,0.000434718,-0.92586,0.00352315,0.00930118,1280,1758,6.41499,-29.0033
63,-734,6.43604,29.0107,0.00275204,0.00363805,-0.00275704,0.00598745,0.000402642,-0.865058,0.00386442,0.0114607,1287,1758,6.43603,-29.0107
70,-734,6.41943,29.0281,0.00311345,0.0031994,-0.00297429,0.00613103,0.000181824,-0.792622,0.00402812,0.0117252,1294,1758,6.41944,-29.028
77,-734,6.42786,29.0787,0.00337376,0.00236574,-0.00311018,0.0060205,-0.000281008,-0.705071,0.00411054,0.0162564,1301,1758,6.42789,-29.0787
84,-734,6.42371,29.0342,0.0035416,0.0013777,-0.00325307,0.00588793,-0.000968634,-0.624856,0.00428481,0.0161314,1308,1758,6.42376,-29.0342
91,-734,6.43933,28.9933,0.00359847,0.000408538,-0.00319385,0.00557346,-0.00156646,-0.55382,0.00433322,0.0180427,1315,1758,6.43939,-28.9933
98,-734,6.4353,28.9647,0.00351318,-0.000682243,-0.00297725,0.0050575,-0.00222657,-0.478502,0.00431003,0.0139971,1322,1758,6.43531,-28.9648
105,-734,6.43872,28.936,0.00315521,-0.00187143,-0.00271127,0.00433888,-0.0030551,-0.411634,0.00429031,0.0155129,1329,1758,6.43872,-28.936
112,-734,6.43665,28.9033,0.00255178,-0.00309123,-0.00216729,0.00328809,-0.00382754,-0.327503,0.00411214,0.0134353,1336,1758,6.43661,-28.9034
119,-734,6.42944,28.8757,0.00181248,-0.00422532,-0.00149416,0.002162,-0.00457485,-0.229794,0.00397181,0.0135043,1343,1758,6.42943,-28.8757
126,-734,6.42041,28.8217,0.00115495,-0.00524018,-0.000707487,0.00123229,-0.00531752,-0.108875,0.00401925,0.0155724,1350,1758,6.42037,-28.8216
133,-734,6.38562,28.7557,0.000580473,-0.0059015,3.06024e-05,0.000580618,-0.00590165,0.00472101,0.00414156,0.013907,1357,1758,6.38558,-28.7557
140,-734,6.39417,28.6943,-8.37652e-05,-0.00605823,0.000513601,-3.99344e-05,-0.00610206,0.0851336,0.00405479,0.0179665,1364,1758,6.3942,-28.6943
147,-734,6.38513,28.6323,-0.000512563,-0.00597482,0.00101414,-0.000330352,-0.00615703,0.177773,0.00399912,0.0134098,1371,1758,6.38509,-28.6323
154,-734,6.36145,28.5896,-0.000919404,-0.00562833,0.00133405,-0.000567727,-0.00598001,0.257751,0.00381155,0.0101889,1378,1758,6.36151,-28.5897
161,-734,6.34314,28.5162,-0.00098374,-0.00488254,0.00131777,-0.000580124,-0.00528615,0.297214,0.00334753,0.00956444,1385,1758,6.34319,-28.5162
168,-734,6.3031,28.4265,-0.000817458,-0.0036939,0.000872264,-0.000573619,-0.00393774,0.272589,0.00245638,0.0146292,1392,1758,6.30313,-28.4266
175,-734,6.32446,28.3175,-0.000477459,-0.00227439,0.000252869,-0.000442552,-0.0023093,0.137174,0.00141527,0.0169487,1399,1758,6.3244,-28.3175
182,-734,6.34583,28.2036,-0.00050485,-0.000764707,-0.000505245,-0.000113095,-0.00115646,-0.659545,0.000736178,0.0152115,1406,1758,6.34589,-28.2036
189,-734,6.31506,28.1025,-0.000585251,0.000136182,-0.00100414,0.000842431,-0.0012915,-0.957835,0.00124109,0.0113024,1413,1758,6.31508,-28.1026
196,-734,6.28687,28.0044,-0.0012988,0.000912498,-0.00232491,0.00238128,-0.00276758,-1.00735,0.00297548,0.0133205,1420,1758,6.28685,-28.0044
203,-734,6.30713,27.8765,-0.00268119,0.00417686,-0.0035809,0.00570576,-0.00421009,-1.16727,0.00574659,0.0156953,1427,1758,6.30714,-27.8765
210,-734,6.27393,27.7587,-0.00343566,0.00586329,-0.00434894,0.0075802,-0.00515257,-1.19479,0.00739567,0.0175094,1434,1758,6.27389,-27.7587
217,-734,6.2583,27.6228,-0.00368213,0.00749084,-0.0051095,0.00947507,-0.00566636,-1.20038,0.00883362,0.0133484,1441,1758,6.25828,-27.6227
224,-734,6.26526,27.4674,-0.00389277,0.00908574,-0.00586251,0.0113417,-0.00614877,-1.20345,0.0102454,0.0137015,1448,1758,6.26528,-27.4674
231,-734,6.22351,27.3568,-0.00416786,0.0107804,-0.00651378,0.0132205,-0.00660796,-1.21237,0.0116582,0.0140125,1455,1758,6.22345,-27.3569
238,-734,6.19434,27.2261,-0.00412119,0.0125299,-0.0070349,0.0151041,-0.00669539,-1.22001,0.0128943,0.0171235,1462,1758,6.19433,-27.2261
245,-734,6.20752,27.0219,-0.00374748,0.0141978,-0.00756102,0.0169587,-0.00650844,-1.22068,0.0139894,0.0225905,1469,1758,6.20748,-27.0218
252,-734,6.22498,26.8451,-0.00342057,0.0156293,-0.00803074,0.0185629,-0.00635426,-1.22055,0.0149505,0.028299,1476,1758,6.22501,-26.8451
259,-734,6.32556,26.7839,-0.00315666,0.0168202,-0.00842146,0.0198966,-0.00623306,-1.22055,0.0157585,0.0389623,1483,1758,6.32554,-26.7839
266,-734,6.14856,26.6566,0,0,0,0,0,0,0,-1,1490,1758,6.1485,-26.6566
273,-734,6.41626,26.6838,0,0,0,0,0,0,0,-1,1497,1758,6.41621,-26.6838
280,-734,16.6191,7.38013,0,0,0,0,0,0,0,-1,1504,1758,16.6192,-7.38011
287,-734,5.45947,25.5913,0,0,0,0,0,0,0,-1,1511,1758,5.4595,-25.5913
294,-734,12.0439,5.7876,0,0,0,0,0,0,0,-1,1518,1758,12.044,-5.78759
301,-734,10.1803,10.5541,0,0,0,0,0,0,0,-1,1525,1758,10.1803,-10.5541
308,-734,9.00854,5.43774,0,0,0,0,0,0,0,-1,1532,1758,9.00857,-5.4377
315,-734,5.3158,17.4298,0,0,0,0,0,0,0,-1,1539,1758,5.31581,-17.4299
322,-734,9.85913,7.48096,0,0,0,0,0,0,0,-1,1546,1758,9.85916,-7.48098
329,-734,5.45972,12.4125,0,0,0,0,0,0,0,-1,1553,1758,5.45969,-12.4125
336,-734,5.92188,13.8751,0,0,0,0,0,0,0,-1,1560,1758,5.92183,-13.8751
343,-734,5.54968,5.14221,0,0,0,0,0,0,0,-1,1567,1758,5.54973,-5.14225
350,-734,5.07397,6.73242,0,0,0,0,0,0,0,-1,1574,1758,5.07402,-6.73243
357,-734,5.05542,7.19189,0,0,0,0,0,0,0,-1,1581,1758,5.05541,-7.19184
364,-734,4.43896,10.4904,0,0,0,0,0,0,0,-1,1588,1758,4.43893,-10.4904
371,-734,7.36975,17.4751,0,0,0,0,0,0,0,-1,1595,1758,7.36972,-17.4752
378,-734,0,0,0,0,0,0,0,0,0,-1,1602,1758,0,0
385,-734,0,0,0,0,0,0,0,0,0,-1,1609,1758,0,0
392,-734,0,0,0,0,0,0,0,0,0,-1,1616,1758,0,0
399,-734,0,0,0,0,0,0,0,0,0,-1,1623,1758,0,0
406,-734,0,0,0,0,0,0,0,0,0,-1,1630,1758,0,0
413,-734,0,0,0,0,0,0,0,0,0,-1,1637,1758,0,0
420,-734,0,0,0,0,0,0,0,0,0,-1,1644,1758,0,0
427,-734,0,0,0,0,0,0,0,0,0,-1,1651,1758,0,0
434,-734,0,0,0,0,0,0,0,0,0,-1,1658,1758,0,0
441,-734,0,0,0,0,0,0,0,0,0,-1,1665,1758,0,0
448,-734,0,0,0,0,0,0,0,0,0,-1,1672,1758,0,0
455,-734,0,0,0,0,0,0,0,0,0,-1,1679,1758,0,0
462,-734,0,0,0,0,0,0,0,0,0,-1,1686,1758,0,0
469,-734,0,0,0,0,0,0,0,0,0,-1,1693,1758,0,0
476,-734,0,0,0,0,0,0,0,0,0,-1,1700,1758,0,0
483,-734,0,0,0,0,0,0,0,0,0,-1,1707,1758,0,0
490,-734,0,0,0,0,0,0,0,0,0,-1,1714,1758,0,0
497,-734,0,0,0,0,0,0,0,0,0,-1,1721,1758,0,0
504,-734,0,0,0,0,0,0,0,0,0,-1,1728,1758,0,0
511,-734,0,0,0,0,0,0,0,0,0,-1,1735,1758,0,0
518,-734,0,0,0,0,0,0,0,0,0,-1,1742,1758,0,0
525,-734,0,0,0,0,0,0,0,0,0,-1,1749,1758,0,0
532,-734,0,0,0,0,0,0,0,0,0,-1,1756,1758,0,0
539,-734,0,0,0,0,0,0,0,0,0,-1,1763,1758,0,0
546,-734,0,0,0,0,0,0,0,0,0,-1,1770,1758,0,0
553,-734,0,0,0,0,0,0,0,0,0,-1,1777,1758,0,0
560,-734,0,0,0,0,0,0,0,0,0,-1,1784,1758,0,0
567,-734,0,0,0,0,0,0,0,0,0,-1,1791,1758,0,0
574,-734,0,0,0,0,0,0,0,0,0,-1,1798,1758,0,0
581,-734,0,0,0,0,0,0,0,0,0,-1,1805,1758,0,0
588,-734,0,0,0,0,0,0,0,0,0,-1,1812,1758,0,0
595,-734,0,0,0,0,0,0,0,0,0,-1,1819,1758,0,0
602,-734,0,0,0,0,0,0,0,0,0,-1,1826,1758,0,0
609,-734,0,0,0,0,0,0,0,0,0,-1,1833,1758,0,0
616,-734,0,0,0,0,0,0,0,0,0,-1,1840,1758,0,0
623,-734,0,0,0,0,0,0,0,0,0,-1,1847,1758,0,0
630,-734,0,0,0,0,0,0,0,0,0,-1,1854,1758,0,0
637,-734,0,0,0,0,0,0,0,0,0,-1,1861,1758,0,0
644,-734,0,0,0,0,0,0,0,0,0,-1,1868,1758,0,0
651,-734,0,0,0,0,0,0,0,0,0,-1,1875,1758,0,0
658,-734,0,0,0,0,0,0,0,0,0,-1,1882,1758,0,0
665,-734,0,0,0,0,0,0,0,0,0,-1,1889,1758,0,0
672,-734,0,0,0,0,0,0,0,0,0,-1,1896,1758,0,0
679,-734,0,0,0,0,0,0,0,0,0,-1,1903,1758,0,0
686,-734,0,0,0,0,0,0,0,0,0,-1,1910,1758,0,0
693,-734,0,0,0,0,0,0,0,0,0,-1,1917,1758,0,0
700,-734,0,0,0,0,0,0,0,0,0,-1,1924,1758,0,0
707,-734,0,0,0,0,0,0,0,0,0,-1,1931,1758,0,0
714,-734,0,0,0,0,0,0,0,0,0,-1,1938,1758,0,0
721,-734,0,0,0,0,0,0,0,0,0,-1,1945,1758,0,0
728,-734,0,0,0,0,0,0,0,0,0,-1,1952,1758,0,0
735,-734,0,0,0,0,0,0,0,0,0,-1,1959,1758,0,0
742,-734,0,0,0,0,0,0,0,0,0,-1,1966,1758,0,0
749,-734,0,0,0,0,0,0,0,0,0,-1,1973,1758,0,0
756,-734,0,0,0,0,0,0,0,0,0,-1,1980,1758,0,0
763,-734,0,0,0,0,0,0,0,0,0,-1,1987,1758,0,0
770,-734,0,0,0,0,0,0,0,0,0,-1,1994,1758,0,0
777,-734,0,0,0,0,0,0,0,0,0,-1,2001,1758,0,0
784,-734,0,0,0,0,0,0,0,0,0,-1,2008,1758,0,0
791,-734,0,0,0,0,0,0,0,0,0,-1,2015,1758,0,0
798,-734,0,0,0,0,0,0,0,0,0,-1,2022,1758,0,0
805,-734,0,0,0,0,0,0,0,0,0,-1,2029,1758,0,0
812,-734,0,0,0,0,0,0,0,0,0,-1,2036,1758,0,0
-700,-741,0,0,0,0,0,0,0,0,0,-1,524,1765,0,0
-693,-741,0,0,0,0,0,0,0,0,0,-1,531,1765,0,0
-686,-741,0,0,0,0,0,0,0,0,0,-1,538,1765,0,0
-679,-741,0,0,0,0,0,0,0,0,0,-1,545,1765,0,0
-672,-741,0,0,0,0,0,0,0,0,0,-1,552,1765,0,0
-665,-741,0,0,0,0,0,0,0,0,0,-1,559,1765,0,0
-658,-741,0,0,0,0,0,0,0,0,0,-1,566,1765,0,0
-651,-741,0,0,0,0,0,0,0,0,0,-1,573,1765,0,0
-644,-741,0,0,0,0,0,0,0,0,0,-1,580,1765,0,0
-637,-741,0,0,0,0,0,0,0,0,0,-1,587,1765,0,0
-630,-741,0,0,0,0,0,0,0,0,0,-1,594,1765,0,0
-623,-741,0,0,0,0,0,0,0,0,0,-1,601,1765,0,0
-616,-741,0,0,0,0,0,0,0,0,0,-1,608,1765,0,0
-609,-741,0,0,0,0,0,0,0,0,0,-1,615,1765,0,0
-602,-741,0,0,0,0,0,0,0,0,0,-1,622,1765,0,0
-595,-741,0,0,0,0,0,0,0,0,0,-1,629,1765,0,0
-588,-741,0,0,0,0,0,0,0,0,0,-1,636,1765,0,0
-581,-741,0,0,0,0,0,0,0,0,0,-1,643,1765,0,0
-574,-741,0,0,0,0,0,0,0,0,0,-1,650,1765,0,0
-567,-741,0,0,0,0,0,0,0,0,0,-1,657,1765,0,0
-560,-741,0,0,0,0,0,0,0,0,0,-1,664,1765,0,0
-553,-741,0,0,0,0,0,0,0,0,0,-1,671,1765,0,0
-546,-741,0,0,0,0,0,0,0,0,0,-1,678,1765,0,0
-539,-741,0,0,0,0,0,0,0,0,0,-1,685,1765,0,0
-532,-741,0,0,0,0,0,0,0,0,0,-1,692,1765,0,0
-525,-741,0,0,0,0,0,0,0,0,0,-1,699,1765,0,0
-518,-741,0,0,0,0,0,0,0,0,0,-1,706,1765,0,0
-511,-741,0,0,0,0,0,0,0,0,0,-1,713,1765,0,0
-504,-741,0,0,0,0,0,0,0,0,0,-1,720,1765,0,0
-497,-741,0,0,0,0,0,0,0,0,0,-1,727,1765,0,0
-490,-741,0,0,0,0,0,0,0,0,0,-1,734,1765,0,0
-483,-741,0,0,0,0,0,0,0,0,0,-1,741,1765,0,0
-476,-741,0,0,0,0,0,0,0,0,0,-1,748,1765,0,0
-469,-741,0,0,0,0,0,0,0,0,0,-1,755,1765,0,0
-462,-741,0,0,0,0,0,0,0,0,0,-1,762,1765,0,0
-455,-741,0,0,0,0,0,0,0,0,0,-1,769,1765,0,0
-448,-741,0,0,0,0,0,0,0,0,0,-1,776,1765,0,0
-441,-741,0,0,0,0,0,0,0,0,0,-1,783,1765,0,0
-434,-741,0,0,0,0,0,0,0,0,0,-1,790,1765,0,0
-427,-741,0,0,0,0,0,0,0,0,0,-1,797,1765,0,0
-420,-741,0,0,0,0,0,0,0,0,0,-1,804,1765,0,0
-413,-741,0,0,0,0,0,0,0,0,0,-1,811,1765,0,0
-406,-741,0,0,0,0,0,0,0,0,0,-1,818,1765,0,0
-399,-741,0,0,0,0,0,0,0,0,0,-1,825,1765,0,0
-392,-741,0,0,0,0,0,0,0,0,0,-1,832,1765,0,0
-385,-741,0,0,0,0,0,0,0,0,0,-1,839,1765,0,0
-378,-741,0,0,0,0,0,0,0,0,0,-1,846,1765,0,0
-371,-741,0,0,0,0,0,0,0,0,0,-1,853,1765,0,0
-364,-741,0,0,0,0,0,0,0,0,0,-1,860,1765,0,0
-357,-741,0,0,0,0,0,0,0,0,0,-1,867,1765,0,0
-350,-741,0,0,0,0,0,0,0,0,0,-1,874,1765,0,0
-343,-741,0,0,0,0,0,0,0,0,0,-1,881,1765,0,0
-336,-741,0,0,0,0,0,0,0,0,0,-1,888,1765,0,0
-329,-741,0,0,0,0,0,0,0,0,0,-1,895,1765,0,0
-322,-741,0,0,0,0,0,0,0,0,0,-1,902,1765,0,0
-315,-741,0,0,0,0,0,0,0,0,0,-1,909,1765,0,0
-308,-741,0,0,0,0,0,0,0,0,0,-1,916,1765,0,0
-301,-741,0,0,0,0,0,0,0,0,0,-1,923,1765,0,0
-294,-741,0,0,0,0,0,0,0,0,0,-1,930,1765,0,0
-287,-741,0,0,0,0,0,0,0,0,0,-1,937,1765,0,0
-280,-741,0,0,0,0,0,0,0,0,0,-1,944,1765,0,0
-273,-741,0,0,0,0,0,0,0,0,0,-1,951,1765,0,0
-266,-741,0,0,0,0,0,0,0,0,0,-1,958,1765,0,0
-259,-741,0,0,0,0,0,0,0,0,0,-1,965,1765,0,0
-252,-741,0,0,0,0,0,0,0,0,0,-1,972,1765,0,0
-245,-741,0,0,0,0,0,0,0,0,0,-1,979,1765,0,0
-238,-741,5.63202,14.9113,0,0,0,0,0,0,0,-1,986,1765,5.632,-14.9112
-231,-741,6.10602,15.245,0,0,0,0,0,0,0,-1,993,1765,6.10605,-15.245
-224,-741,6.60541,15.9323,0,0,0,0,0,0,0,-1,1000,1765,6.60538,-15.9323
-217,-741,6.99121,16.5245,0,0,0,0,0,0,0,-1,1007,1765,6.99118,-16.5245
-210,-741,5.80957,23.4917,0,0,0,0,0,0,0,-1,1014,1765,5.8096,-23.4917
-203,-741,5.50122,22.6226,0,0,0,0,0,0,0,-1,1021,1765,5.50125,-22.6225
-196,-741,5.14233,21.7794,0,0,0,0,0,0,0,-1,1028,1765,5.1423,-21.7795
-189,-741,4.28918,20.7313,0,0,0,0,0,0,0,-1,1035,1765,4.28921,-20.7314
-182,-741,3.81775,21.2374,0,0,0,0,0,0,0,-1,1042,1765,3.81779,-21.2375
-175,-741,3.34644,21.7435,0,0,0,0,0,0,0,-1,1049,1765,3.34638,-21.7435
-168,-741,5.4801,16.3933,0,0,0,0,0,0,0,-1,1056,1765,5.4801,-16.3933
-161,-741,3.73047,14.4974,0,0,0,0,0,0,0,-1,1063,1765,3.73043,-14.4974
-154,-741,2.46143,9.75415,0,0,0,0,0,0,0,-1,1070,1765,2.46145,-9.75416
-147,-741,6.45422,26.2377,0,0,0,0,0,0,0,-1,1077,1765,6.45422,-26.2377
-140,-741,6.96057,26.0854,0,0,0,0,0,0,0,-1,1084,1765,6.96062,-26.0854
-133,-741,7.19556,26.5186,0,0,0,0,0,0,0,-1,1091,1765,7.19555,-26.5185
-126,-741,6.81274,26.4061,0,0,0,0,0,0,0,-1,1098,1765,6.81271,-26.4062
-119,-741,6.69104,26.4688,0,0,0,0,0,0,0,-1,1105,1765,6.6911,-26.4688
-112,-741,6.69788,26.8241,0,0,0,0,0,0,0,-1,1112,1765,6.69791,-26.8241
-105,-741,6.79907,26.8898,0,0,0,0,0,0,0,-1,1119,1765,6.79908,-26.8898
-98,-741,6.88513,26.9532,0,0,0,0,0,0,0,-1,1126,1765,6.88516,-26.9533
-91,-741,6.77881,27.0234,0,0,0,0,0,0,0,-1,1133,1765,6.77878,-27.0234
-84,-741,6.72302,27.032,0,0,0,0,0,0,0,-1,1140,1765,6.723,-27.032
-77,-741,6.70703,27.0203,0,0,0,0,0,0,0,-1,1147,1765,6.70701,-27.0203
-70,-741,6.55139,27.1185,0,0,0,0,0,0,0,-1,1154,1765,6.55138,-27.1185
-63,-741,6.5083,27.4749,0,0,0,0,0,0,0,-1,1161,1765,6.50835,-27.4749
-56,-741,6.67236,27.8379,0,0,0,0,0,0,0,-1,1168,1765,6.6724,-27.8379
-49,-741,6.64893,28.1173,0,0,0,0,0,0,0,-1,1175,1765,6.64896,-28.1173
-42,-741,6.62207,28.1766,0,0,0,0,0,0,0,-1,1182,1765,6.62203,-28.1766
-35,-741,6.625,28.2146,0.00611759,0.0023002,-0.00655464,0.0110358,-0.002618,-0.643717,0.0083675,0.0237667,1189,1765,6.62498,-28.2146
-28,-741,6.6311,28.329,0.0069813,0.00237335,-0.0073143,0.0123459,-0.00299127,-0.632819,0.00938792,0.0150737,1196,1765,6.63114,-28.329
-21,-741,6.64392,28.4336,0.00710845,0.0026055,-0.00762602,0.0128084,-0.00309446,-0.641858,0.00973576,0.0180804,1203,1765,6.64395,-28.4336
-14,-741,6.58972,28.5419,0.00682929,0.00277575,-0.00765046,0.0127169,-0.00311186,-0.655912,0.00968335,0.0186269,1210,1765,6.58969,-28.5419
-7,-741,6.56018,28.6075,0.00611941,0.00298355,-0.00731545,0.0120331,-0.00293011,-0.67983,0.00915639,0.0149282,1217,1765,6.56021,-28.6075
0,-741,6.55066,28.6599,0.00528382,0.00331744,-0.00651298,0.0108874,-0.00228614,-0.710485,0.0081282,0.0140168,1224,1765,6.55069,-28.6599
7,-741,6.52539,28.7081,0.00434558,0.00359528,-0.0056917,0.00967448,-0.00173362,-0.75249,0.00709844,0.0167009,1231,1765,6.52537,-28.7082
14,-741,6.52625,28.7772,0.00360408,0.00375968,-0.00490142,0.00858391,-0.00122016,-0.793334,0.00616968,0.0163106,1238,1765,6.52621,-28.7772
21,-741,6.51294,28.8411,0.00295228,0.00402826,-0.00432519,0.00784878,-0.000868248,-0.847273,0.00554465,0.0125477,1245,1765,6.51291,-28.841
28,-741,6.48987,28.9091,0.00235668,0.00454851,-0.0040247,0.00762384,-0.000718646,-0.918324,0.00533826,0.0133228,1252,1765,6.48981,-28.9091
35,-741,6.4762,28.9346,0.00227085,0.00488322,-0.00357058,0.00737903,-0.000224964,-0.960746,0.00499603,0.0150096,1259,1765,6.47616,-28.9346
42,-741,6.47229,28.9575,0.00241251,0.00537178,-0.00341916,0.00761773,0.000166559,-0.989606,0.00502388,0.0139188,1266,1765,6.47231,-28.9576
49,-741,6.45569,28.9854,0.00290818,0.0058091,-0.00364087,0.00827779,0.000439485,-0.974954,0.00537802,0.00934437,1273,1765,6.45564,-28.9853
56,-741,6.43738,28.9956,0.00349874,0.00617112,-0.00411932,0.00916554,0.000504316,-0.94223,0.00594939,0.00932434,1280,1765,6.43735,-28.9956
63,-741,6.42468,29.0142,0.00408604,0.00607601,-0.00453778,0.00972661,0.000435442,-0.893323,0.00634424,0.0131589,1287,1765,6.42466,-29.0141
70,-741,6.39807,29.0298,0.00446017,0.00544129,-0.00482668,0.00980227,9.91868e-05,-0.836042,0.00650204,0.0153185,1294,1765,6.39813,-29.0298
77,-741,6.40271,29.0587,0.00470884,0.00423258,-0.00500937,0.00948573,-0.000544312,-0.761648,0.00651285,0.0132429,1301,1765,6.40271,-29.0588
84,-741,6.38562,29.0492,0.00485772,0.00282092,-0.00520732,0.00914529,-0.00146666,-0.688832,0.00663996,0.0155226,1308,1765,6.38567,-29.0492
91,-741,6.36108,29.0199,0.0047974,0.0013188,-0.00508206,0.00842955,-0.00231336,-0.620524,0.00652889,0.0124484,1315,1765,6.36105,-29.0199
98,-741,6.35742,28.9646,0.00457168,-0.000418746,-0.00474404,0.00743669,-0.00328376,-0.543296,0.00634237,0.0100827,1322,1765,6.35743,-28.9646
105,-741,6.39331,28.9274,0.00392522,-0.00229734,-0.00434691,0.00615956,-0.00453169,-0.474791,0.0061964,0.0107944,1329,1765,6.39328,-28.9274
112,-741,6.40686,28.8856,0.00296026,-0.00423212,-0.00349644,0.00437981,-0.00565167,-0.385668,0.00580718,0.0108564,1336,1765,6.40681,-28.8857
119,-741,6.38464,28.8296,0.0017099,-0.0060982,-0.00239865,0.00238789,-0.00677619,-0.27547,0.00548937,0.0137464,1343,1765,6.38469,-28.8296
126,-741,6.36609,28.802,0.000611629,-0.00785131,-0.00113409,0.000760968,-0.00800065,-0.130929,0.00560467,0.0186817,1350,1765,6.36612,-28.802
133,-741,6.33411,28.7511,-0.000186234,-0.00923537,9.22598e-05,-0.000185293,-0.00923631,0.010194,0.00609671,0.0142994,1357,1765,6.33408,-28.751
140,-741,6.32068,28.686,-0.000970327,-0.00976735,0.000727593,-0.000910554,-0.00982712,0.0819668,0.00626998,0.0111548,1364,1765,6.32068,-28.6861
147,-741,6.3092,28.6379,-0.00141046,-0.00992889,0.00142522,-0.00117833,-0.010161,0.161455,0.0064174,0.01021,1371,1765,6.30916,-28.6379
154,-741,6.29053,28.5992,-0.00181308,-0.00964778,0.00186118,-0.00139342,-0.0100674,0.22177,0.00629874,0.00921569,1378,1765,6.29052,-28.5993
161,-741,6.27209,28.5172,-0.00163563,-0.00860585,0.00185647,-0.00117201,-0.00906948,0.244727,0.00569598,0.0113395,1385,1765,6.27207,-28.5172
168,-741,6.24646,28.4329,-0.00113447,-0.00661127,0.00129763,-0.000842576,-0.00690316,0.221261,0.00434854,0.0253213,1392,1765,6.2464,-28.4329
175,-741,6.19263,28.303,0,0,0,0,0,0,0,-1,1399,1765,6.19265,-28.303
182,-741,6.26917,28.1958,0,0,0,0,0,0,0,-1,1406,1765,6.2692,-28.1958
189,-741,6.22424,28.1338,0,0,0,0,0,0,0,-1,1413,1765,6.22424,-28.1338
196,-741,6.19617,28.0129,0,0,0,0,0,0,0,-1,1420,1765,6.19618,-28.0129
203,-741,6.21497,27.8285,0,0,0,0,0,0,0,-1,1427,1765,6.21499,-27.8285
210,-741,6.17786,27.7037,0,0,0,0,0,0,0,-1,1434,1765,6.17788,-27.7037
217,-741,6.22205,27.5385,0,0,0,0,0,0,0,-1,1441,1765,6.22202,-27.5385
224,-741,6.30908,27.4052,0,0,0,0,0,0,0,-1,1448,1765,6.30912,-27.4052
231,-741,6.26611,27.4115,-0.00631893,0.0152233,-0.00911903,0.0185651,-0.0096607,-1.21953,0.0165643,0.0432691,1455,1765,6.26611,-27.4114
238,-741,6.04785,27.2227,-0.0063115,0.0178024,-0.00990501,0.0213493,-0.00985837,-1.22693,0.0184204,0.0391654,1462,1765,6.04781,-27.2227
245,-741,6.09729,26.8481,-0.00589032,0.0203126,-0.010655,0.0240983,-0.00967603,-1.22941,0.0200835,0.0434406,1469,1765,6.09728,-26.8481
252,-741,5.78027,25.9427,-0.00544778,0.0225883,-0.0113265,0.0265924,-0.00945182,-1.231,0.0215802,0.0472562,1476,1765,5.78027,-25.9428
259,-741,6.29785,26.8943,0,0,0,0,0,0,0,-1,1483,1765,6.2979,-26.8942
266,-741,6.37451,25.1742,0,0,0,0,0,0,0,-1,1490,1765,6.37449,-25.1742
273,-741,17.0328,7.54468,0,0,0,0,0,0,0,-1,1497,1765,17.0328,-7.54474
280,-741,16.2363,9.84546,0,0,0,0,0,0,0,-1,1504,1765,16.2363,-9.84547
287,-741,14.5045,8.71423,0,0,0,0,0,0,0,-1,1511,1765,14.5045,-8.71429
294,-741,11.6001,7.95422,0,0,0,0,0,0,0,-1,1518,1765,11.6001,-7.95423
301,-741,11.036,7.02612,0,0,0,0,0,0,0,-1,1525,1765,11.036,-7.02617
308,-741,10.4718,6.09814,0,0,0,0,0,0,0,-1,1532,1765,10.4718,-6.0981
315,-741,9.70715,6.86963,0,0,0,0,0,0,0,-1,1539,1765,9.70712,-6.86963
322,-741,9.21252,8.54858,0,0,0,0,0,0,0,-1,1546,1765,9.21251,-8.54858
329,-741,8.5603,10.1146,0,0,0,0,0,0,0,-1,1553,1765,8.56033,-10.1146
336,-741,4.74475,14.6453,0,0,0,0,0,0,0,-1,1560,1765,4.7447,-14.6452
343,-741,5.42297,5.93701,0,0,0,0,0,0,0,-1,1567,1765,5.42296,-5.937
350,-741,4.90369,5.44666,0,0,0,0,0,0,0,-1,1574,1765,4.90368,-5.44664
357,-741,4.02063,5.16626,0,0,0,0,0,0,0,-1,1581,1765,4.02058,-5.1662
364,-741,0,0,0,0,0,0,0,0,0,-1,1588,1765,0,0
371,-741,0,0,0,0,0,0,0,0,0,-1,1595,1765,0,0
378,-741,0,0,0,0,0,0,0,0,0,-1,1602,1765,0,0
385,-741,0,0,0,0,0,0,0,0,0,-1,1609,1765,0,0
392,-741,0,0,0,0,0,0,0,0,0,-1,1616,1765,0,0
399,-741,0,0,0,0,0,0,0,0,0,-1,1623,1765,0,0
406,-741,0,0,0,0,0,0,0,0,0,-1,1630,1765,0,0
413,-741,0,0,0,0,0,0,0,0,0,-1,1637,1765,0,0
420,-741,0,0,0,0,0,0,0,0,0,-1,1644,1765,0,0
427,-741,0,0,0,0,0,0,0,0,0,-1,1651,1765,0,0
434,-741,0,0,0,0,0,0,0,0,0,-1,1658,1765,0,0
441,-741,0,0,0,0,0,0,0,0,0,-1,1665,1765,0,0
448,-741,0,0,0,0,0,0,0,0,0,-1,1672,1765,0,0
455,-741,0,0,0,0,0,0,0,0,0,-1,1679,1765,0,0
462,-741,0,0,0,0,0,0,0,0,0,-1,1686,1765,0,0
469,-741,0,0,0,0,0,0,0,0,0,-1,1693,1765,0,0
476,-741,0,0,0,0,0,0,0,0,0,-1,1700,1765,0,0
483,-741,0,0,0,0,0,0,0,0,0,-1,1707,1765,0,0
490,-741,0,0,0,0,0,0,0,0,0,-1,1714,1765,0,0
497,-741,0,0,0,0,0,0,0,0,0,-1,1721,1765,0,0
504,-741,0,0,0,0,0,0,0,0,0,-1,1728,1765,0,0
511,-741,0,0,0,0,0,0,0,0,0,-1,1735,1765,0,0
518,-741,0,0,0,0,0,0,0,0,0,-1,1742,1765,0,0
525,-741,0,0,0,0,0,0,0,0,0,-1,1749,1765,0,0
532,-741,0,0,0,0,0,0,0,0,0,-1,1756,1765,0,0
539,-741,0,0,0,0,0,0,0,0,0,-1,1763,1765,0,0
546,-741,0,0,0,0,0,0,0,0,0,-1,1770,1765,0,0
553,-741,0,0,0,0,0,0,0,0,0,-1,1777,1765,0,0
560,-741,0,0,0,0,0,0,0,0,0,-1,1784,1765,0,0
567,-741,0,0,0,0,0,0,0,0,0,-1,1791,1765,0,0
574,-741,0,0,0,0,0,0,0,0,0,-1,1798,1765,0,0
581,-741,0,0,0,0,0,0,0,0,0,-1,1805,1765,0,0
588,-741,0,0,0,0,0,0,0,0,0,-1,1812,1765,0,0
595,-741,0,0,0,0,0,0,0,0,0,-1,1819,1765,0,0
602,-741,0,0,0,0,0,0,0,0,0,-1,1826,1765,0,0
609,-741,0,0,0,0,0,0,0,0,0,-1,1833,1765,0,0
616,-741,0,0,0,0,0,0,0,0,0,-1,1840,1765,0,0
623,-741,0,0,0,0,0,0,0,0,0,-1,1847,1765,0,0
630,-741,0,0,0,0,0,0,0,0,0,-1,1854,1765,0,0
637,-741,0,0,0,0,0,0,0,0,0,-1,1861,1765,0,0
644,-741,0,0,0,0,0,0,0,0,0,-1,1868,1765,0,0
651,-741,0,0,0,0,0,0,0,0,0,-1,1875,1765,0,0
658,-741,0,0,0,0,0,0,0,0,0,-1,1882,1765,0,0
665,-741,0,0,0,0,0,0,0,0,0,-1,1889,1765,0,0
672,-741,0,0,0,0,0,0,0,0,0,-1,1896,1765,0,0
679,-741,0,0,0,0,0,0,0,0,0,-1,1903,1765,0,0
686,-741,0,0,0,0,0,0,0,0,0,-1,1910,1765,0,0
693,-741,0,0,0,0,0,0,0,0,0,-1,1917,1765,0,0
700,-741,0,0,0,0,0,0,0,0,0,-1,1924,1765,0,0
707,-741,0,0,0,0,0,0,0,0,0,-1,1931,1765,0,0
714,-741,0,0,0,0,0,0,0,0,0,-1,1938,1765,0,0
721,-741,0,0,0,0,0,0,0,0,0,-1,1945,1765,0,0
728,-741,0,0,0,0,0,0,0,0,0,-1,1952,1765,0,0
735,-741,0,0,0,0,0,0,0,0,0,-1,1959,1765,0,0
742,-741,0,0,0,0,0,0,0,0,0,-1,1966,1765,0,0
749,-741,0,0,0,0,0,0,0,0,0,-1,1973,1765,0,0
756,-741,0,0,0,0,0,0,0,0,0,-1,1980,1765,0,0
763,-741,0,0,0,0,0,0,0,0,0,-1,1987,1765,0,0
770,-741,0,0,0,0,0,0,0,0,0,-1,1994,1765,0,0
777,-741,0,0,0,0,0,0,0,0,0,-1,2001,1765,0,0
784,-741,0,0,0,0,0,0,0,0,0,-1,2008,1765,0,0
791,-741,0,0,0,0,0,0,0,0,0,-1,2015,1765,0,0
798,-741,0,0,0,0,0,0,0,0,0,-1,2022,1765,0,0
805,-741,0,0,0,0,0,0,0,0,0,-1,2029,1765,0,0
812,-741,0,0,0,0,0,0,0,0,0,-1,2036,1765,0,0
-700,-748,0,0,0,0,0,0,0,0,0,-1,524,1772,0,0
-693,-748,0,0,0,0,0,0,0,0,0,-1,531,1772,0,0
-686,-748,0,0,0,0,0,0,0,0,0,-1,538,1772,0,0
-679,-748,0,0,0,0,0,0,0,0,0,-1,545,1772,0,0
-672,-748,0,0,0,0,0,0,0,0,0,-1,552,1772,0,0
-665,-748,0,0,0,0,0,0,0,0,0,-1,559,1772,0,0
-658,-748,0,0,0,0,0,0,0,0,0,-1,566,1772,0,0
-651,-748,0,0,0,0,0,0,0,0,0,-1,573,1772,0,0
-644,-748,0,0,0,0,0,0,0,0,0,-1,580,1772,0,0
-637,-748,0,0,0,0,0,0,0,0,0,-1,587,1772,0,0
-630,-748,0,0,0,0,0,0,0,0,0,-1,594,1772,0,0
-623,-748,0,0,0,0,0,0,0,0,0,-1,601,1772,0,0
-616,-748,0,0,0,0,0,0,0,0,0,-1,608,1772,0,0
-609,-748,0,0,0,0,0,0,0,0,0,-1,615,1772,0,0
-602,-748,0,0,0,0,0,0,0,0,0,-1,622,1772,0,0
-595,-748,0,0,0,0,0,0,0,0,0,-1,629,1772,0,0
-588,-748,0,0,0,0,0,0,0,0,0,-1,636,1772,0,0
-581,-748,0,0,0,0,0,0,0,0,0,-1,643,1772,0,0
-574,-748,0,0,0,0,0,0,0,0,0,-1,650,1772,0,0
-567,-748,0,0,0,0,0,0,0,0,0,-1,657,1772,0,0
-560,-748,0,0,0,0,0,0,0,0,0,-1,664,1772,0,0
-553,-748,0,0,0,0,0,0,0,0,0,-1,671,1772,0,0
-546,-748,0,0,0,0,0,0,0,0,0,-1,678,1772,0,0
-539,-748,0,0,0,0,0,0,0,0,0,-1,685,1772,0,0
-532,-748,0,0,0,0,0,0,0,0,0,-1,692,1772,0,0
-525,-748,0,0,0,0,0,0,0,0,0,-1,699,1772,0,0
-518,-748,0,0,0,0,0,0,0,0,0,-1,706,1772,0,0
-511,-748,0,0,0,0,0,0,0,0,0,-1,713,1772,0,0
-504,-748,0,0,0,0,0,0,0,0,0,-1,720,1772,0,0
-497,-748,0,0,0,0,0,0,0,0,0,-1,727,1772,0,0
-490,-748,0,0,0,0,0,0,0,0,0,-1,734,1772,0,0
-483,-748,0,0,0,0,0,0,0,0,0,-1,741,1772,0,0
-476,-748,0,0,0,0,0,0,0,0,0,-1,748,1772,0,0
-469,-748,0,0,0,0,0,0,0,0,0,-1,755,1772,0,0
-462,-748,0,0,0,0,0,0,0,0,0,-1,762,1772,0,0
-455,-748,0,0,0,0,0,0,0,0,0,-1,769,1772,0,0
-448,-748,0,0,0,0,0,0,0,0,0,-1,776,1772,0,0
-441,-748,0,0,0,0,0,0,0,0,0,-1,783,1772,0,0
-434,-748,0,0,0,0,0,0,0,0,0,-1,790,1772,0,0
-427,-748,0,0,0,0,0,0,0,0,0,-1,797,1772,0,0
-420,-748,0,0,0,0,0,0,0,0,0,-1,804,1772,0,0
-413,-748,0,0,0,0,0,0,0,0,0,-1,811,1772,0,0
-406,-748,0,0,0,0,0,0,0,0,0,-1,818,1772,0,0
-399,-748,0,0,0,0,0,0,0,0,0,-1,825,1772,0,0
-392,-748,0,0,0,0,0,0,0,0,0,-1,832,1772,0,0
-385,-748,0,0,0,0,0,0,0,0,0,-1,839,1772,0,0
-378,-748,0,0,0,0,0,0,0,0,0,-1,846,1772,0,0
-371,-748,0,0,0,0,0,0,0,0,0,-1,853,1772,0,0
-364,-748,0,0,0,0,0,0,0,0,0,-1,860,1772,0,0
-357,-748,0,0,0,0,0,0,0,0,0,-1,867,1772,0,0
-350,-748,0,0,0,0,0,0,0,0,0,-1,874,1772,0,0
-343,-748,0,0,0,0,0,0,0,0,0,-1,881,1772,0,0
-336,-748,0,0,0,0,0,0,0,0,0,-1,888,1772,0,0
-329,-748,0,0,0,0,0,0,0,0,0,-1,895,1772,0,0
-322,-748,0,0,0,0,0,0,0,0,0,-1,902,1772,0,0
-315,-748,0,0,0,0,0,0,0,0,0,-1,909,1772,0,0
-308,-748,0,0,0,0,0,0,0,0,0,-1,916,1772,0,0
-301,-748,0,0,0,0,0,0,0,0,0,-1,923,1772,0,0
-294,-748,0,0,0,0,0,0,0,0,0,-1,930,1772,0,0
-287,-748,0,0,0,0,0,0,0,0,0,-1,937,1772,0,0
-280,-748,0,0,0,0,0,0,0,0,0,-1,944,1772,0,0
-273,-748,0,0,0,0,0,0,0,0,0,-1,951,1772,0,0
-266,-748,0,0,0,0,0,0,0,0,0,-1,958,1772,0,0
-259,-748,0,0,0,0,0,0,0,0,0,-1,965,1772,0,0
-252,-748,0,0,0,0,0,0,0,0,0,-1,972,1772,0,0
-245,-748,0,0,0,0,0,0,0,0,0,-1,979,1772,0,0
-238,-748,0,0,0,0,0,0,0,0,0,-1,986,1772,0,0
-231,-748,0,0,0,0,0,0,0,0,0,-1,993,1772,0,0
-224,-748,0,0,0,0,0,0,0,0,0,-1,1000,1772,0,0
-217,-748,6.45807,16.5496,0,0,0,0,0,0,0,-1,1007,1772,6.45805,-16.5495
-210,-748,5.46893,25.1432,0,0,0,0,0,0,0,-1,1014,1772,5.4689,-25.1432
-203,-748,5.40662,24.1573,0,0,0,0,0,0,0,-1,1021,1772,5.40657,-24.1574
-196,-748,5.15344,22.8755,0,0,0,0,0,0,0,-1,1028,1772,5.15342,-22.8754
-189,-748,4.52478,21.7634,0,0,0,0,0,0,0,-1,1035,1772,4.52475,-21.7634
-182,-748,3.94958,20.8662,0,0,0,0,0,0,0,-1,1042,1772,3.94959,-20.8662
-175,-748,3.56726,19.4518,0,0,0,0,0,0,0,-1,1049,1772,3.5673,-19.4518
-168,-748,3.04858,18.0109,0,0,0,0,0,0,0,-1,1056,1772,3.04853,-18.0108
-161,-748,3.50562,13.2729,0,0,0,0,0,0,0,-1,1063,1772,3.5056,-13.2729
-154,-748,-3.38562,10.6989,0,0,0,0,0,0,0,-1,1070,1772,-3.38564,-10.6989
-147,-748,-6.38733,11.0702,0,0,0,0,0,0,0,-1,1077,1772,-6.38731,-11.0702
-140,-748,7.42126,23.8113,0,0,0,0,0,0,0,-1,1084,1772,7.42133,-23.8113
-133,-748,7.44727,22.0308,0,0,0,0,0,0,0,-1,1091,1772,7.44728,-22.0308
-126,-748,5.98035,22.6067,0,0,0,0,0,0,0,-1,1098,1772,5.9803,-22.6067
-119,-748,6.63342,26.309,0,0,0,0,0,0,0,-1,1105,1772,6.6334,-26.3089
-112,-748,6.91333,24.923,0,0,0,0,0,0,0,-1,1112,1772,6.91339,-24.923
-105,-748,6.83313,25.0537,0,0,0,0,0,0,0,-1,1119,1772,6.83311,-25.0537
-98,-748,6.99341,13.5935,0,0,0,0,0,0,0,-1,1126,1772,6.99343,-13.5935
-91,-748,4.85352,15.3033,0,0,0,0,0,0,0,-1,1133,1772,4.85351,-15.3033
-84,-748,-0.192017,7.26196,0,0,0,0,0,0,0,-1,1140,1772,-0.192047,-7.26201
-77,-748,4.42615,13.5537,0,0,0,0,0,0,0,-1,1147,1772,4.4261,-13.5538
-70,-748,4.46191,13.7446,0,0,0,0,0,0,0,-1,1154,1772,4.4619,-13.7446
-63,-748,4.49768,13.9355,0,0,0,0,0,0,0,-1,1161,1772,4.49769,-13.9355
-56,-748,3.05762,7.87817,0,0,0,0,0,0,0,-1,1168,1772,3.05768,-7.87822
-49,-748,3.04102,7.82471,0,0,0,0,0,0,0,-1,1175,1772,3.04096,-7.82468
-42,-748,0.793457,14.9474,0,0,0,0,0,0,0,-1,1182,1772,0.793413,-14.9474
-35,-748,6.67603,28.2732,0,0,0,0,0,0,0,-1,1189,1772,6.67601,-28.2733
-28,-748,6.72742,28.3724,0.0137877,0.00489691,-0.0134525,0.0235103,-0.00482566,-0.625821,0.0175052,0.048989,1196,1772,6.72746,-28.3724
-21,-748,6.73035,28.47,0.0136642,0.00511847,-0.0135543,0.0236032,-0.00482054,-0.632709,0.0175642,0.0232042,1203,1772,6.73031,-28.47
-14,-748,6.65796,28.5148,0.0130636,0.00529996,-0.013253,0.0229916,-0.00462798,-0.642931,0.0170807,0.0176396,1210,1772,6.65801,-28.5148
-7,-748,6.62451,28.5758,0.0115451,0.00554646,-0.0124632,0.0213648,-0.00427323,-0.667316,0.0158607,0.0155798,1217,1772,6.6245,-28.5758
0,-748,6.61328,28.6447,0.00974468,0.00598365,-0.0109501,0.0189745,-0.00324621,-0.70036,0.0138591,0.0149436,1224,1772,6.61328,-28.6447
7,-748,6.59924,28.7034,0.00802961,0.0062911,-0.00940972,0.0166101,-0.00228943,-0.73934,0.0119101,0.0147989,1231,1772,6.59922,-28.7034
14,-748,6.57239,28.7804,0.00669222,0.00646285,-0.00805899,0.0146373,-0.00148227,-0.778283,0.010288,0.0158956,1238,1772,6.57238,-28.7804
21,-748,6.57654,28.8389,0.00558483,0.00675442,-0.00702182,0.0132158,-0.000876506,-0.826943,0.00911673,0.0122104,1245,1772,6.5765,-28.8389
28,-748,6.51855,28.8853,0.00468025,0.00742324,-0.00643502,0.0126313,-0.000527803,-0.890392,0.00860219,0.0123976,1252,1772,6.51861,-28.8853
35,-748,6.51428,28.9194,0.00450984,0.00791694,-0.00565426,0.0121187,0.000308077,-0.931716,0.00797842,0.0129212,1259,1772,6.5143,-28.9194
42,-748,6.52026,28.9469,0.00470911,0.00858863,-0.00533572,0.0123262,0.00097149,-0.959742,0.00791357,0.0136415,1266,1772,6.52021,-28.9469
49,-748,6.49219,28.965,0.00549187,0.00919228,-0.00554377,0.0131864,0.00149771,-0.946458,0.00833669,0.0104224,1273,1772,6.49219,-28.965
56,-748,6.45667,28.9824,0.00645022,0.00972775,-0.00610821,0.0144132,0.00176476,-0.916456,0.00907791,0.0099951,1280,1772,6.45672,-28.9824
63,-748,6.43298,28.9879,0.00732933,0.00946925,-0.006612,0.0150973,0.00170128,-0.865613,0.00954843,0.0116817,1287,1772,6.43293,-28.9879
70,-748,6.42004,28.9967,0.007903,0.00852333,-0.0070069,0.0152269,0.0011994,-0.807517,0.00977604,0.0131152,1294,1772,6.42003,-28.9967
77,-748,6.41284,29.0045,0.00822488,0.00682952,-0.00724352,0.0148042,0.000250164,-0.737387,0.00978717,0.0121784,1301,1772,6.41284,-29.0046
84,-748,6.37805,29.0254,0.0084312,0.00484967,-0.00753599,0.0143863,-0.0011054,-0.668747,0.00997974,0.013905,1308,1772,6.3781,-29.0253
91,-748,6.33984,29.0143,0.00818624,0.00261185,-0.00736856,0.0132771,-0.00247904,-0.604587,0.00978303,0.0112405,1315,1772,6.33982,-29.0143
98,-748,6.3103,28.965,0.00778763,-6.8165e-06,-0.00690422,0.0118186,-0.00403781,-0.528456,0.00951501,0.0104957,1322,1772,6.31034,-28.965
105,-748,6.34229,28.9191,0.00673597,-0.00289204,-0.00641133,0.00993944,-0.00609551,-0.463373,0.00934603,0.0120944,1329,1772,6.34227,-28.9191
112,-748,6.37793,28.8833,0.00498349,-0.00586122,-0.00525013,0.0071087,-0.00798643,-0.384631,0.00872009,0.0148715,1336,1772,6.37793,-28.8833
119,-748,6.33826,28.8389,0.00280678,-0.0087949,-0.00358277,0.003824,-0.00981212,-0.276641,0.00812191,0.0128084,1343,1772,6.33826,-28.8388
126,-748,6.29578,28.8096,0.000902333,-0.0116072,-0.00172152,0.00113492,-0.0118398,-0.134292,0.00829739,0.0143829,1350,1772,6.29582,-28.8095
133,-748,6.26123,28.7571,-0.00046679,-0.0139779,9.84395e-05,-0.000466072,-0.0139786,0.00728531,0.00916767,0.0090126,1357,1772,6.2612,-28.757
140,-748,6.26514,28.705,-0.00165727,-0.0152082,0.000994308,-0.0015847,-0.0152808,0.0728553,0.00970221,0.0121817,1364,1772,6.26512,-28.7049
147,-748,6.27515,28.6519,-0.00219246,-0.0156814,0.00196671,-0.00191156,-0.0159623,0.141867,0.0100651,0.0140962,1371,1772,6.2751,-28.6519
154,-748,6.22058,28.5946,-0.00259845,-0.0154577,0.00258242,-0.00209922,-0.0159569,0.190961,0.0100118,0.0122485,1378,1772,6.22054,-28.5946
161,-748,6.19482,28.5189,-0.00208644,-0.014009,0.00266133,-0.00151935,-0.0145761,0.209942,0.00925263,0.0186269,1385,1772,6.19478,-28.5189
168,-748,6.20349,28.4708,0,0,0,0,0,0,0,-1,1392,1772,6.20352,-28.4708
175,-748,11.6235,16.8242,0,0,0,0,0,0,0,-1,1399,1772,11.6236,-16.8242
182,-748,7.62476,10.3058,0,0,0,0,0,0,0,-1,1406,1772,7.62476,-10.3058
189,-748,6.15857,6.95898,0,0,0,0,0,0,0,-1,1413,1772,6.15862,-6.95896
196,-748,3.9425,8.46021,0,0,0,0,0,0,0,-1,1420,1772,3.9425,-8.46026
203,-748,3.9668,12.9835,0,0,0,0,0,0,0,-1,1427,1772,3.96678,-12.9836
210,-748,4.71472,16.8318,0,0,0,0,0,0,0,-1,1434,1772,4.71471,-16.8317
217,-748,5.38452,21.5551,0,0,0,0,0,0,0,-1,1441,1772,5.38455,-21.555
224,-748,6.14258,25.2345,0,0,0,0,0,0,0,-1,1448,1772,6.14263,-25.2345
231,-748,6.31702,27.4193,0,0,0,0,0,0,0,-1,1455,1772,6.31702,-27.4193
238,-748,5.82642,27.0483,0,0,0,0,0,0,0,-1,1462,1772,5.82636,-27.0483
245,-748,6.0022,26.6515,0,0,0,0,0,0,0,-1,1469,1772,6.00225,-26.6514
252,-748,5.48145,25.1458,0,0,0,0,0,0,0,-1,1476,1772,5.48144,-25.1458
259,-748,3.5614,20.4832,0,0,0,0,0,0,0,-1,1483,1772,3.56142,-20.4832
266,-748,17.9011,7.59448,0,0,0,0,0,0,0,-1,1490,1772,17.9011,-7.59452
273,-748,16.4131,7.57129,0,0,0,0,0,0,0,-1,1497,1772,16.413,-7.57125
280,-748,15.2177,7.24829,0,0,0,0,0,0,0,-1,1504,1772,15.2176,-7.24833
287,-748,14.161,8.32813,0,0,0,0,0,0,0,-1,1511,1772,14.161,-8.32808
294,-748,12.2117,7.453,0,0,0,0,0,0,0,-1,1518,1772,12.2116,-7.45297
301,-748,11.7134,7.3595,0,0,0,0,0,0,0,-1,1525,1772,11.7133,-7.35949
308,-748,9.92456,7.80225,0,0,0,0,0,0,0,-1,1532,1772,9.92453,-7.80224
315,-748,8.91541,8.29773,0,0,0,0,0,0,0,-1,1539,1772,8.91544,-8.29773
322,-748,7.83618,8.87122,0,0,0,0,0,0,0,-1,1546,1772,7.83613,-8.87124
329,-748,3.48315,14.6533,0,0,0,0,0,0,0,-1,1553,1772,3.48316,-14.6534
336,-748,3.76001,15.8163,0,0,0,0,0,0,0,-1,1560,1772,3.75995,-15.8163
343,-748,0,0,0,0,0,0,0,0,0,-1,1567,1772,0,0
350,-748,0,0,0,0,0,0,0,0,0,-1,1574,1772,0,0
357,-748,0,0,0,0,0,0,0,0,0,-1,1581,1772,0,0
364,-748,0,0,0,0,0,0,0,0,0,-1,1588,1772,0,0
371,-748,0,0,0,0,0,0,0,0,0,-1,1595,1772,0,0
378,-748,0,0,0,0,0,0,0,0,0,-1,1602,1772,0,0
385,-748,0,0,0,0,0,0,0,0,0,-1,1609,1772,0,0
392,-748,0,0,0,0,0,0,0,0,0,-1,1616,1772,0,0
399,-748,0,0,0,0,0,0,0,0,0,-1,1623,1772,0,0
406,-748,0,0,0,0,0,0,0,0,0,-1,1630,1772,0,0
413,-748,0,0,0,0,0,0,0,0,0,-1,1637,1772,0,0
420,-748,0,0,0,0,0,0,0,0,0,-1,1644,1772,0,0
427,-748,0,0,0,0,0,0,0,0,0,-1,1651,1772,0,0
434,-748,0,0,0,0,0,0,0,0,0,-1,1658,1772,0,0
441,-748,0,0,0,0,0,0,0,0,0,-1,1665,1772,0,0
448,-748,0,0,0,0,0,0,0,0,0,-1,1672,1772,0,0
455,-748,0,0,0,0,0,0,0,0,0,-1,1679,1772,0,0
462,-748,0,0,0,0,0,0,0,0,0,-1,1686,1772,0,0
469,-748,0,0,0,0,0,0,0,0,0,-1,1693,1772,0,0
476,-748,0,0,0,0,0,0,0,0,0,-1,1700,1772,0,0
483,-748,0,0,0,0,0,0,0,0,0,-1,1707,1772,0,0
490,-748,0,0,0,0,0,0,0,0,0,-1,1714,1772,0,0
497,-748,0,0,0,0,0,0,0,0,0,-1,1721,1772,0,0
504,-748,0,0,0,0,0,0,0,0,0,-1,1728,1772,0,0
511,-748,0,0,0,0,0,0,0,0,0,-1,1735,1772,0,0
518,-748,0,0,0,0,0,0,0,0,0,-1,1742,1772,0,0
525,-748,0,0,0,0,0,0,0,0,0,-1,1749,1772,0,0
532,-748,0,0,0,0,0,0,0,0,0,-1,1756,1772,0,0
539,-748,0,0,0,0,0,0,0,0,0,-1,1763,1772,0,0
546,-748,0,0,0,0,0,0,0,0,0,-1,1770,1772,0,0
553,-748,0,0,0,0,0,0,0,0,0,-1,1777,1772,0,0
560,-748,0,0,0,0,0,0,0,0,0,-1,1784,1772,0,0
567,-748,0,0,0,0,0,0,0,0,0,-1,1791,1772,0,0
574,-748,0,0,0,0,0,0,0,0,0,-1,1798,1772,0,0
581,-748,0,0,0,0,0,0,0,0,0,-1,1805,1772,0,0
588,-748,0,0,0,0,0,0,0,0,0,-1,1812,1772,0,0
595,-748,0,0,0,0,0,0,0,0,0,-1,1819,1772,0,0
602,-748,0,0,0,0,0,0,0,0,0,-1,1826,1772,0,0
609,-748,0,0,0,0,0,0,0,0,0,-1,1833,1772,0,0
616,-748,0,0,0,0,0,0,0,0,0,-1,1840,1772,0,0
623,-748,0,0,0,0,0,0,0,0,0,-1,1847,1772,0,0
630,-748,0,0,0,0,0,0,0,0,0,-1,1854,1772,0,0
637,-748,0,0,0,0,0,0,0,0,0,-1,1861,1772,0,0
644,-748,0,0,0,0,0,0,0,0,0,-1,1868,1772,0,0
651,-748,0,0,0,0,0,0,0,0,0,-1,1875,1772,0,0
658,-748,0,0,0,0,0,0,0,0,0,-1,1882,1772,0,0
665,-748,0,0,0,0,0,0,0,0,0,-1,1889,1772,0,0
672,-748,0,0,0,0,0,0,0,0,0,-1,1896,1772,0,0
679,-748,0,0,0,0,0,0,0,0,0,-1,1903,1772,0,0
686,-748,0,0,0,0,0,0,0,0,0,-1,1910,1772,0,0
693,-748,0,0,0,0,0,0,0,0,0,-1,1917,1772,0,0
700,-748,0,0,0,0,0,0,0,0,0,-1,1924,1772,0,0
707,-748,0,0,0,0,0,0,0,0,0,-1,1931,1772,0,0
714,-748,0,0,0,0,0,0,0,0,0,-1,1938,1772,0,0
721,-748,0,0,0,0,0,0,0,0,0,-1,1945,1772,0,0
728,-748,0,0,0,0,0,0,0,0,0,-1,1952,1772,0,0
735,-748,0,0,0,0,0,0,0,0,0,-1,1959,1772,0,0
742,-748,0,0,0,0,0,0,0,0,0,-1,1966,1772,0,0
749,-748,0,0,0,0,0,0,0,0,0,-1,1973,1772,0,0
756,-748,0,0,0,0,0,0,0,0,0,-1,1980,1772,0,0
763,-748,0,0,0,0,0,0,0,0,0,-1,1987,1772,0,0
770,-748,0,0,0,0,0,0,0,0,0,-1,1994,1772,0,0
777,-748,0,0,0,0,0,0,0,0,0,-1,2001,1772,0,0
784,-748,0,0,0,0,0,0,0,0,0,-1,2008,1772,0,0
791,-748,0,0,0,0,0,0,0,0,0,-1,2015,1772,0,0
798,-748,0,0,0,0,0,0,0,0,0,-1,2022,1772,0,0
805,-748,0,0,0,0,0,0,0,0,0,-1,2029,1772,0,0
812,-748,0,0,0,0,0,0,0,0,0,-1,2036,1772,0,0
-700,-755,0,0,0,0,0,0,0,0,0,-1,524,1779,0,0
-693,-755,0,0,0,0,0,0,0,0,0,-1,531,1779,0,0
-686,-755,0,0,0,0,0,0,0,0,0,-1,538,1779,0,0
-679,-755,0,0,0,0,0,0,0,0,0,-1,545,1779,0,0
-672,-755,0,0,0,0,0,0,0,0,0,-1,552,1779,0,0
-665,-755,0,0,0,0,0,0,0,0,0,-1,559,1779,0,0
-658,-755,0,0,0,0,0,0,0,0,0,-1,566,1779,0,0
-651,-755,0,0,0,0,0,0,0,0,0,-1,573,1779,0,0
-644,-755,0,0,0,0,0,0,0,0,0,-1,580,1779,0,0
-637,-755,0,0,0,0,0,0,0,0,0,-1,587,1779,0,0
-630,-755,0,0,0,0,0,0,0,0,0,-1,594,1779,0,0
-623,-755,0,0,0,0,0,0,0,0,0,-1,601,1779,0,0
-616,-755,0,0,0,0,0,0,0,0,0,-1,608,1779,0,0
-609,-755,0,0,0,0,0,0,0,0,0,-1,615,1779,0,0
-602,-755,0,0,0,0,0,0,0,0,0,-1,622,1779,0,0
-595,-755,0,0,0,0,0,0,0,0,0,-1,629,1779,0,0
-588,-755,0,0,0,0,0,0,0,0,0,-1,636,1779,0,0
-581,-755,0,0,0,0,0,0,0,0,0,-1,643,1779,0,0
-574,-755,0,0,0,0,0,0,0,0,0,-1,650,1779,0,0
-567,-755,0,0,0,0,0,0,0,0,0,-1,657,1779,0,0
-560,-755,0,0,0,0,0,0,0,0,0,-1,664,1779,0,0
-553,-755,0,0,0,0,0,0,0,0,0,-1,671,1779,0,0
-546,-755,0,0,0,0,0,0,0,0,0,-1,678,1779,0,0
-539,-755,0,0,0,0,0,0,0,0,0,-1,685,1779,0,0
-532,-755,0,0,0,0,0,0,0,0,0,-1,692,1779,0,0
-525,-755,0,0,0,0,0,0,0,0,0,-1,699,1779,0,0
-518,-755,0,0,0,0,0,0,0,0,0,-1,706,1779,0,0
-511,-755,0,0,0,0,0,0,0,0,0,-1,713,1779,0,0
-504,-755,0,0,0,0,0,0,0,0,0,-1,720,1779,0,0
-497,-755,0,0,0,0,0,0,0,0,0,-1,727,1779,0,0
-490,-755,0,0,0,0,0,0,0,0,0,-1,734,1779,0,0
-483,-755,0,0,0,0,0,0,0,0,0,-1,741,1779,0,0
-476,-755,0,0,0,0,0,0,0,0,0,-1,748,1779,0,0
-469,-755,0,0,0,0,0,0,0,0,0,-1,755,1779,0,0
-462,-755,0,0,0,0,0,0,0,0,0,-1,762,1779,0,0
-455,-755,0,0,0,0,0,0,0,0,0,-1,769,1779,0,0
-448,-755,0,0,0,0,0,0,0,0,0,-1,776,1779,0,0
-441,-755,0,0,0,0,0,0,0,0,0,-1,783,1779,0,0
-434,-755,0,0,0,0,0,0,0,0,0,-1,790,1779,0,0
-427,-755,0,0,0,0,0,0,0,0,0,-1,797,1779,0,0
-420,-755,0,0,0,0,0,0,0,0,0,-1,804,1779,0,0
-413,-755,0,0,0,0,0,0,0,0,0,-1,811,1779,0,0
-406,-755,0,0,0,0,0,0,0,0,0,-1,818,1779,0,0
-399,-755,0,0,0,0,0,0,0,0,0,-1,825,1779,0,0
-392,-755,0,0,0,0,0,0,0,0,0,-1,832,1779,0,0
-385,-755,0,0,0,0,0,0,0,0,0,-1,839,1779,0,0
-378,-755,0,0,0,0,0,0,0,0,0,-1,846,1779,0,0
-371,-755,0,0,0,0,0,0,0,0,0,-1,853,1779,0,0
-364,-755,0,0,0,0,0,0,0,0,0,-1,860,1779,0,0
-357,-755,0,0,0,0,0,0,0,0,0,-1,867,1779,0,0
-350,-755,0,0,0,0,0,0,0,0,0,-1,874,1779,0,0
-343,-755,0,0,0,0,0,0,0,0,0,-1,881,1779,0,0
-336,-755,0,0,0,0,0,0,0,0,0,-1,888,1779,0,0
-329,-755,0,0,0,0,0,0,0,0,0,-1,895,1779,0,0
-322,-755,0,0,0,0,0,0,0,0,0,-1,902,1779,0,0
-315,-755,0,0,0,0,0,0,0,0,0,-1,909,1779,0,0
-308,-755,0,0,0,0,0,0,0,0,0,-1,916,1779,0,0
-301,-755,0,0,0,0,0,0,0,0,0,-1,923,1779,0,0
-294,-755,0,0,0,0,0,0,0,0,0,-1,930,1779,0,0
-287,-755,0,0,0,0,0,0,0,0,0,-1,937,1779,0,0
-280,-755,0,0,0,0,0,0,0,0,0,-1,944,1779,0,0
-273,-755,0,0,0,0,0,0,0,0,0,-1,951,1779,0,0
-266,-755,0,0,0,0,0,0,0,0,0,-1,958,1779,0,0
-259,-755,0,0,0,0,0,0,0,0,0,-1,965,1779,0,0
-252,-755,0,0,0,0,0,0,0,0,0,-1,972,1779,0,0
-245,-755,0,0,0,0,0,0,0,0,0,-1,979,1779,0,0
-238,-755,0,0,0,0,0,0,0,0,0,-1,986,1779,0,0
-231,-755,0,0,0,0,0,0,0,0,0,-1,993,1779,0,0
-224,-755,0,0,0,0,0,0,0,0,0,-1,1000,1779,0,0
-217,-755,0,0,0,0,0,0,0,0,0,-1,1007,1779,0,0
-210,-755,0,0,0,0,0,0,0,0,0,-1,1014,1779,0,0
-203,-755,5.47998,25.527,0,0,0,0,0,0,0,-1,1021,1779,5.47993,-25.527
-196,-755,5.18445,23.9307,0,0,0,0,0,0,0,-1,1028,1779,5.1844,-23.9306
-189,-755,4.8175,22.4788,0,0,0,0,0,0,0,-1,1035,1779,4.81745,-22.4788
-182,-755,4.021,20.8032,0,0,0,0,0,0,0,-1,1042,1779,4.02094,-20.8032
-175,-755,3.79993,18.8242,0,0,0,0,0,0,0,-1,1049,1779,3.79995,-18.8242
-168,-755,3.14294,16.9865,0,0,0,0,0,0,0,-1,1056,1779,3.14291,-16.9864
-161,-755,-2.85889,11.5868,0,0,0,0,0,0,0,-1,1063,1779,-2.85887,-11.5868
-154,-755,-5.39026,8.51416,0,0,0,0,0,0,0,-1,1070,1779,-5.3903,-8.51417
-147,-755,-6.45593,10.2422,0,0,0,0,0,0,0,-1,1077,1779,-6.45594,-10.2422
-140,-755,1.33521,21.3856,0,0,0,0,0,0,0,-1,1084,1779,1.33522,-21.3857
-133,-755,2.89417,21.0964,0,0,0,0,0,0,0,-1,1091,1779,2.89422,-21.0964
-126,-755,3.26404,20.9304,0,0,0,0,0,0,0,-1,1098,1779,3.26399,-20.9305
-119,-755,5.17761,21.9325,0,0,0,0,0,0,0,-1,1105,1779,5.17761,-21.9325
-112,-755,5.40247,24.5646,0,0,0,0,0,0,0,-1,1112,1779,5.40244,-24.5646
-105,-755,6.6344,19.6062,0,0,0,0,0,0,0,-1,1119,1779,6.63439,-19.6062
-98,-755,6.32544,15.6812,0,0,0,0,0,0,0,-1,1126,1779,6.32543,-15.6812
-91,-755,5.51025,12.0438,0,0,0,0,0,0,0,-1,1133,1779,5.51022,-12.0439
-84,-755,0.169312,8.66443,0,0,0,0,0,0,0,-1,1140,1779,0.16932,-8.66446
-77,-755,-0.0491943,6.87439,0,0,0,0,0,0,0,-1,1147,1779,-0.0491385,-6.87443
-70,-755,4.5686,13.2169,0,0,0,0,0,0,0,-1,1154,1779,4.56865,-13.2169
-63,-755,-1.36316,7.3147,0,0,0,0,0,0,0,-1,1161,1779,-1.36312,-7.31473
-56,-755,0.0483398,5.06079,0,0,0,0,0,0,0,-1,1168,1779,0.0483138,-5.06084
-49,-755,-1.32263,5.33716,0,0,0,0,0,0,0,-1,1175,1779,-1.32264,-5.33718
-42,-755,-2.03613,4.01672,0,0,0,0,0,0,0,-1,1182,1779,-2.0361,-4.01671
-35,-755,-2.72498,2.37476,0,0,0,0,0,0,0,-1,1189,1779,-2.72502,-2.37473
-28,-755,6.70496,28.455,0,0,0,0,0,0,0,-1,1196,1779,6.70493,-28.4549
-21,-755,6.75793,28.5815,0,0,0,0,0,0,0,-1,1203,1779,6.75794,-28.5815
-14,-755,6.82104,28.5179,0.0212343,0.0080464,-0.0201881,0.035878,-0.0065973,-0.627547,0.0263941,0.0368417,1210,1779,6.821,-28.518
-7,-755,6.6991,28.5658,0.0189873,0.00834479,-0.0186826,0.0330917,-0.00575955,-0.646659,0.0242104,0.0246398,1217,1779,6.69915,-28.5658
0,-755,6.65991,28.6401,0.0162491,0.0089779,-0.0163435,0.0293565,-0.00412949,-0.675955,0.0210828,0.0151763,1224,1779,6.65986,-28.6401
7,-755,6.65503,28.7129,0.0136036,0.00944253,-0.0139277,0.0256053,-0.00255916,-0.711256,0.017984,0.0136507,1231,1779,6.65507,-28.7129
14,-755,6.64392,28.7919,0.0114817,0.009721,-0.0117905,0.0224247,-0.00122201,-0.748135,0.0153733,0.0114798,1238,1779,6.64389,-28.7918
21,-755,6.59253,28.8624,0.00988352,0.01011,-0.0101809,0.0201783,-0.000184757,-0.790959,0.0135142,0.0161913,1245,1779,6.59252,-28.8624
28,-755,6.56543,28.8793,0.00862501,0.0110431,-0.00927022,0.0191828,0.000485322,-0.850244,0.0126299,0.0198382,1252,1779,6.56548,-28.8793
35,-755,6.55273,28.9314,0.00833731,0.0118206,-0.00814723,0.0184102,0.00174762,-0.890698,0.0117344,0.0191879,1259,1779,6.55272,-28.9315
42,-755,6.54919,28.9501,0.00859117,0.0128207,-0.00767197,0.0186641,0.00274786,-0.919884,0.0116354,0.0143084,1266,1779,6.54922,-28.95
49,-755,6.52234,28.9407,0.00966397,0.0137281,-0.00791834,0.019871,0.00352111,-0.911002,0.0122436,0.0100728,1273,1779,6.52238,-28.9407
56,-755,6.48169,28.9663,0.0110321,0.0145791,-0.00869285,0.0216775,0.00393369,-0.886026,0.0133353,0.00922151,1280,1779,6.48172,-28.9663
63,-755,6.4635,28.9768,0.0122153,0.0142597,-0.00939404,0.022687,0.00378796,-0.839591,0.0140334,0.00909601,1287,1779,6.46345,-28.9768
70,-755,6.45349,28.9769,0.0129631,0.013064,-0.00996144,0.0229751,0.00305199,-0.787931,0.0144076,0.0114391,1294,1779,6.45352,-28.9769
77,-755,6.43042,28.9707,0.0133684,0.0109057,-0.0103112,0.0225215,0.00175256,-0.725971,0.0144656,0.0105248,1301,1779,6.43044,-28.9707
84,-755,6.41968,28.9731,0.013601,0.00827623,-0.0107244,0.0219885,-0.000111322,-0.663731,0.0146963,0.0112815,1308,1779,6.41969,-28.9732
91,-755,6.38904,28.9639,0.0130921,0.00515564,-0.0105168,0.0203644,-0.00211665,-0.604995,0.014334,0.0116974,1315,1779,6.38902,-28.9639
98,-755,6.323,28.9551,0.0123406,0.00143367,-0.00988603,0.0181775,-0.0044033,-0.533351,0.0138219,0.0130869,1322,1779,6.32303,-28.955
105,-755,6.34338,28.9358,0.0107203,-0.00281073,-0.00915815,0.0153409,-0.00743135,-0.46727,0.0134093,0.0175332,1329,1779,6.34337,-28.9358
112,-755,6.35901,28.8835,0.00806892,-0.00724939,-0.00749496,0.011126,-0.0103064,-0.387282,0.012377,0.0221601,1336,1779,6.35899,-28.8835
119,-755,6.29431,28.8619,0.00477127,-0.0117131,-0.00507457,0.00620819,-0.01315,-0.275936,0.0114135,0.020046,1343,1779,6.29437,-28.8619
126,-755,6.25549,28.9065,0.00169983,-0.016089,-0.00232747,0.00199931,-0.0163885,-0.127969,0.0116494,0.0231431,1350,1779,6.2555,-28.9065
133,-755,6.16846,28.7992,-0.000505666,-0.0199788,0.000375037,-0.000498446,-0.0199861,0.0192497,0.013161,0.0243439,1357,1779,6.16844,-28.7992
140,-755,6.08301,28.7595,-0.00224902,-0.0223192,0.00168364,-0.00210876,-0.0224595,0.0831133,0.0143219,0.0297937,1364,1779,6.08302,-28.7596
147,-755,6.22913,28.6985,-0.00291153,-0.0231813,0.00299595,-0.00247799,-0.0236148,0.143712,0.0149857,0.0324888,1371,1779,6.2291,-28.6984
154,-755,6.19385,28.6716,-0.00333743,-0.0230564,0.00376477,-0.00264311,-0.0237508,0.182378,0.0150305,0.0334016,1378,1779,6.19389,-28.6716
161,-755,6.12817,28.5548,0,0,0,0,0,0,0,-1,1385,1779,6.12814,-28.5548
168,-755,3.98181,7.35901,0,0,0,0,0,0,0,-1,1392,1779,3.98184,-7.35904
175,-755,8.17065,1.34363,0,0,0,0,0,0,0,-1,1399,1779,8.1706,-1.34368
182,-755,8.09216,2.96924,0,0,0,0,0,0,0,-1,1406,1779,8.09213,-2.9693
189,-755,8.04419,4.68042,0,0,0,0,0,0,0,-1,1413,1779,8.04419,-4.68046
196,-755,7.74841,7.4541,0,0,0,0,0,0,0,-1,1420,1779,7.74842,-7.45405
203,-755,4.80554,6.88696,0,0,0,0,0,0,0,-1,1427,1779,4.80554,-6.88697
210,-755,25.1694,7.35693,0,0,0,0,0,0,0,-1,1434,1779,25.1694,-7.35688
217,-755,5.01648,16.411,0,0,0,0,0,0,0,-1,1441,1779,5.01646,-16.411
224,-755,5.18103,22.6283,0,0,0,0,0,0,0,-1,1448,1779,5.18101,-22.6283
231,-755,6.65674,25.4557,0,0,0,0,0,0,0,-1,1455,1779,6.65679,-25.4557
238,-755,5.7207,26.6676,0,0,0,0,0,0,0,-1,1462,1779,5.72071,-26.6676
245,-755,6.09351,21.4081,0,0,0,0,0,0,0,-1,1469,1779,6.09355,-21.408
252,-755,6.65991,23.8298,0,0,0,0,0,0,0,-1,1476,1779,6.65986,-23.8298
259,-755,7.58691,23.2006,0,0,0,0,0,0,0,-1,1483,1779,7.58687,-23.2005
266,-755,17.255,7.86096,0,0,0,0,0,0,0,-1,1490,1779,17.255,-7.86092
273,-755,15.7932,7.59778,0,0,0,0,0,0,0,-1,1497,1779,15.7932,-7.59777
280,-755,14.6255,7.34802,0,0,0,0,0,0,0,-1,1504,1779,14.6254,-7.34806
287,-755,13.8279,7.83105,0,0,0,0,0,0,0,-1,1511,1779,13.8279,-7.83104
294,-755,12.5695,7.96814,0,0,0,0,0,0,0,-1,1518,1779,12.5694,-7.9682
301,-755,11.2659,8.27087,0,0,0,0,0,0,0,-1,1525,1779,11.2658,-8.27087
308,-755,9.94434,8.55811,0,0,0,0,0,0,0,-1,1532,1779,9.94428,-8.55806
315,-755,8.64502,9.04492,0,0,0,0,0,0,0,-1,1539,1779,8.64497,-9.04488
322,-755,0,0,0,0,0,0,0,0,0,-1,1546,1779,0,0
329,-755,0,0,0,0,0,0,0,0,0,-1,1553,1779,0,0
336,-755,0,0,0,0,0,0,0,0,0,-1,1560,1779,0,0
343,-755,0,0,0,0,0,0,0,0,0,-1,1567,1779,0,0
350,-755,0,0,0,0,0,0,0,0,0,-1,1574,1779,0,0
357,-755,0,0,0,0,0,0,0,0,0,-1,1581,1779,0,0
364,-755,0,0,0,0,0,0,0,0,0,-1,1588,1779,0,0
371,-755,0,0,0,0,0,0,0,0,0,-1,1595,1779,0,0
378,-755,0,0,0,0,0,0,0,0,0,-1,1602,1779,0,0
385,-755,0,0,0,0,0,0,0,0,0,-1,1609,1779,0,0
392,-755,0,0,0,0,0,0,0,0,0,-1,1616,1779,0,0
399,-755,0,0,0,0,0,0,0,0,0,-1,1623,1779,0,0
406,-755,0,0,0,0,0,0,0,0,0,-1,1630,1779,0,0
413,-755,0,0,0,0,0,0,0,0,0,-1,1637,1779,0,0
420,-755,0,0,0,0,0,0,0,0,0,-1,1644,1779,0,0
427,-755,0,0,0,0,0,0,0,0,0,-1,1651,1779,0,0
434,-755,0,0,0,0,0,0,0,0,0,-1,1658,1779,0,0
441,-755,0,0,0,0,0,0,0,0,0,-1,1665,1779,0,0
448,-755,0,0,0,0,0,0,0,0,0,-1,1672,1779,0,0
455,-755,0,0,0,0,0,0,0,0,0,-1,1679,1779,0,0
462,-755,0,0,0,0,0,0,0,0,0,-1,1686,1779,0,0
469,-755,0,0,0,0,0,0,0,0,0,-1,1693,1779,0,0
476,-755,0,0,0,0,0,0,0,0,0,-1,1700,1779,0,0
483,-755,0,0,0,0,0,0,0,0,0,-1,1707,1779,0,0
490,-755,0,0,0,0,0,0,0,0,0,-1,1714,1779,0,0
497,-755,0,0,0,0,0,0,0,0,0,-1,1721,1779,0,0
504,-755,0,0,0,0,0,0,0,0,0,-1,1728,1779,0,0
511,-755,0,0,0,0,0,0,0,0,0,-1,1735,1779,0,0
518,-755,0,0,0,0,0,0,0,0,0,-1,1742,1779,0,0
525,-755,0,0,0,0,0,0,0,0,0,-1,1749,1779,0,0
532,-755,0,0,0,0,0,0,0,0,0,-1,1756,1779,0,0
539,-755,0,0,0,0,0,0,0,0,0,-1,1763,1779,0,0
546,-755,0,0,0,0,0,0,0,0,0,-1,1770,1779,0,0
553,-755,0,0,0,0,0,0,0,0,0,-1,1777,1779,0,0
560,-755,0,0,0,0,0,0,0,0,0,-1,1784,1779,0,0
567,-755,0,0,0,0,0,0,0,0,0,-1,1791,1779,0,0
574,-755,0,0,0,0,0,0,0,0,0,-1,1798,1779,0,0
581,-755,0,0,0,0,0,0,0,0,0,-1,1805,1779,0,0
588,-755,0,0,0,0,0,0,0,0,0,-1,1812,1779,0,0
595,-755,0,0,0,0,0,0,0,0,0,-1,1819,1779,0,0
602,-755,0,0,0,0,0,0,0,0,0,-1,1826,1779,0,0
609,-755,0,0,0,0,0,0,0,0,0,-1,1833,1779,0,0
616,-755,0,0,0,0,0,0,0,0,0,-1,1840,1779,0,0
623,-755,0,0,0,0,0,0,0,0,0,-1,1847,1779,0,0
630,-755,0,0,0,0,0,0,0,0,0,-1,1854,1779,0,0
637,-755,0,0,0,0,0,0,0,0,0,-1,1861,1779,0,0
644,-755,0,0,0,0,0,0,0,0,0,-1,1868,1779,0,0
651,-755,0,0,0,0,0,0,0,0,0,-1,1875,1779,0,0
658,-755,0,0,0,0,0,0,0,0,0,-1,1882,1779,0,0
665,-755,0,0,0,0,0,0,0,0,0,-1,1889,1779,0,0
672,-755,0,0,0,0,0,0,0,0,0,-1,1896,1779,0,0
679,-755,0,0,0,0,0,0,0,0,0,-1,1903,1779,0,0
686,-755,0,0,0,0,0,0,0,0,0,-1,1910,1779,0,0
693,-755,0,0,0,0,0,0,0,0,0,-1,1917,1779,0,0
700,-755,0,0,0,0,0,0,0,0,0,-1,1924,1779,0,0
707,-755,0,0,0,0,0,0,0,0,0,-1,1931,1779,0,0
714,-755,0,0,0,0,0,0,0,0,0,-1,1938,1779,0,0
721,-755,0,0,0,0,0,0,0,0,0,-1,1945,1779,0,0
728,-755,0,0,0,0,0,0,0,0,0,-1,1952,1779,0,0
735,-755,0,0,0,0,0,0,0,0,0,-1,1959,1779,0,0
742,-755,0,0,0,0,0,0,0,0,0,-1,1966,1779,0,0
749,-755,0,0,0,0,0,0,0,0,0,-1,1973,1779,0,0
756,-755,0,0,0,0,0,0,0,0,0,-1,1980,1779,0,0
763,-755,0,0,0,0,0,0,0,0,0,-1,1987,1779,0,0
770,-755,0,0,0,0,0,0,0,0,0,-1,1994,1779,0,0
777,-755,0,0,0,0,0,0,0,0,0,-1,2001,1779,0,0
784,-755,0,0,0,0,0,0,0,0,0,-1,2008,1779,0,0
791,-755,0,0,0,0,0,0,0,0,0,-1,2015,1779,0,0
798,-755,0,0,0,0,0,0,0,0,0,-1,2022,1779,0,0
805,-755,0,0,0,0,0,0,0,0,0,-1,2029,1779,0,0
812,-755,0,0,0,0,0,0,0,0,0,-1,2036,1779,0,0
-700,-762,0,0,0,0,0,0,0,0,0,-1,524,1786,0,0
-693,-762,0,0,0,0,0,0,0,0,0,-1,531,1786,0,0
-686,-762,0,0,0,0,0,0,0,0,0,-1,538,1786,0,0
-679,-762,0,0,0,0,0,0,0,0,0,-1,545,1786,0,0
-672,-762,0,0,0,0,0,0,0,0,0,-1,552,1786,0,0
-665,-762,0,0,0,0,0,0,0,0,0,-1,559,1786,0,0
-658,-762,0,0,0,0,0,0,0,0,0,-1,566,1786,0,0
-651,-762,0,0,0,0,0,0,0,0,0,-1,573,1786,0,0
-644,-762,0,0,0,0,0,0,0,0,0,-1,580,1786,0,0
-637,-762,0,0,0,0,0,0,0,0,0,-1,587,1786,0,0
-630,-762,0,0,0,0,0,0,0,0,0,-1,594,1786,0,0
-623,-762,0,0,0,0,0,0,0,0,0,-1,601,1786,0,0
-616,-762,0,0,0,0,0,0,0,0,0,-1,608,1786,0,0
-609,-762,0,0,0,0,0,0,0,0,0,-1,615,1786,0,0
-602,-762,0,0,0,0,0,0,0,0,0,-1,622,1786,0,0
-595,-762,0,0,0,0,0,0,0,0,0,-1,629,1786,0,0
-588,-762,0,0,0,0,0,0,0,0,0,-1,636,1786,0,0
-581,-762,0,0,0,0,0,0,0,0,0,-1,643,1786,0,0
-574,-762,0,0,0,0,0,0,0,0,0,-1,650,1786,0,0
-567,-762,0,0,0,0,0,0,0,0,0,-1,657,1786,0,0
-560,-762,0,0,0,0,0,0,0,0,0,-1,664,1786,0,0
-553,-762,0,0,0,0,0,0,0,0,0,-1,671,1786,0,0
-546,-762,0,0,0,0,0,0,0,0,0,-1,678,1786,0,0
-539,-762,0,0,0,0,0,0,0,0,0,-1,685,1786,0,0
-532,-762,0,0,0,0,0,0,0,0,0,-1,692,1786,0,0
-525,-762,0,0,0,0,0,0,0,0,0,-1,699,1786,0,0
-518,-762,0,0,0,0,0,0,0,0,0,-1,706,1786,0,0
-511,-762,0,0,0,0,0,0,0,0,0,-1,713,1786,0,0
-504,-762,0,0,0,0,0,0,0,0,0,-1,720,1786,0,0
-497,-762,0,0,0,0,0,0,0,0,0,-1,727,1786,0,0
-490,-762,0,0,0,0,0,0,0,0,0,-1,734,1786,0,0
-483,-762,0,0,0,0,0,0,0,0,0,-1,741,1786,0,0
-476,-762,0,0,0,0,0,0,0,0,0,-1,748,1786,0,0
-469,-762,0,0,0,0,0,0,0,0,0,-1,755,1786,0,0
-462,-762,0,0,0,0,0,0,0,0,0,-1,762,1786,0,0
-455,-762,0,0,0,0,0,0,0,0,0,-1,769,1786,0,0
-448,-762,0,0,0,0,0,0,0,0,0,-1,776,1786,0,0
-441,-762,0,0,0,0,0,0,0,0,0,-1,783,1786,0,0
-434,-762,0,0,0,0,0,0,0,0,0,-1,790,1786,0,0
-427,-762,0,0,0,0,0,0,0,0,0,-1,797,1786,0,0
-420,-762,0,0,0,0,0,0,0,0,0,-1,804,1786,0,0
-413,-762,0,0,0,0,0,0,0,0,0,-1,811,1786,0,0
-406,-762,0,0,0,0,0,0,0,0,0,-1,818,1786,0,0
-399,-762,0,0,0,0,0,0,0,0,0,-1,825,1786,0,0
-392,-762,0,0,0,0,0,0,0,0,0,-1,832,1786,0,0
-385,-762,0,0,0,0,0,0,0,0,0,-1,839,1786,0,0
-378,-762,0,0,0,0,0,0,0,0,0,-1,846,1786,0,0
-371,-762,0,0,0,0,0,0,0,0,0,-1,853,1786,0,0
-364,-762,0,0,0,0,0,0,0,0,0,-1,860,1786,0,0
-357,-762,0,0,0,0,0,0,0,0,0,-1,867,1786,0,0
-350,-762,0,0,0,0,0,0,0,0,0,-1,874,1786,0,0
-343,-762,0,0,0,0,0,0,0,0,0,-1,881,1786,0,0
-336,-762,0,0,0,0,0,0,0,0,0,-1,888,1786,0,0
-329,-762,0,0,0,0,0,0,0,0,0,-1,895,1786,0,0
-322,-762,0,0,0,0,0,0,0,0,0,-1,902,1786,0,0
-315,-762,0,0,0,0,0,0,0,0,0,-1,909,1786,0,0
-308,-762,0,0,0,0,0,0,0,0,0,-1,916,1786,0,0
-301,-762,0,0,0,0,0,0,0,0,0,-1,923,1786,0,0
-294,-762,0,0,0,0,0,0,0,0,0,-1,930,1786,0,0
-287,-762,0,0,0,0,0,0,0,0,0,-1,937,1786,0,0
-280,-762,0,0,0,0,0,0,0,0,0,-1,944,1786,0,0
-273,-762,0,0,0,0,0,0,0,0,0,-1,951,1786,0,0
-266,-762,0,0,0,0,0,0,0,0,0,-1,958,1786,0,0
-259,-762,0,0,0,0,0,0,0,0,0,-1,965,1786,0,0
-252,-762,0,0,0,0,0,0,0,0,0,-1,972,1786,0,0
-245,-762,0,0,0,0,0,0,0,0,0,-1,979,1786,0,0
-238,-762,0,0,0,0,0,0,0,0,0,-1,986,1786,0,0
-231,-762,0,0,0,0,0,0,0,0,0,-1,993,1786,0,0
-224,-762,0,0,0,0,0,0,0,0,0,-1,1000,1786,0,0
-217,-762,0,0,0,0,0,0,0,0,0,-1,1007,1786,0,0
-210,-762,0,0,0,0,0,0,0,0,0,-1,1014,1786,0,0
-203,-762,0,0,0,0,0,0,0,0,0,-1,1021,1786,0,0
-196,-762,0,0,0,0,0,0,0,0,0,-1,1028,1786,0,0
-189,-762,0,0,0,0,0,0,0,0,0,-1,1035,1786,0,0
-182,-762,4.44226,13.2462,0,0,0,0,0,0,0,-1,1042,1786,4.44227,-13.2462
-175,-762,4.3219,18.3975,0,0,0,0,0,0,0,-1,1049,1786,4.32192,-18.3974
-168,-762,-2.08618,13.0768,0,0,0,0,0,0,0,-1,1056,1786,-2.08623,-13.0768
-161,-762,-3.29077,11.9508,0,0,0,0,0,0,0,-1,1063,1786,-3.29076,-11.9508
-154,-762,-4.55823,11.1176,0,0,0,0,0,0,0,-1,1070,1786,-4.55828,-11.1175
-147,-762,-6.52454,9.41418,0,0,0,0,0,0,0,-1,1077,1786,-6.52458,-9.41419
-140,-762,4.99792,5.28589,0,0,0,0,0,0,0,-1,1084,1786,4.99793,-5.28587
-133,-762,0.689819,19.2172,0,0,0,0,0,0,0,-1,1091,1786,0.689867,-19.2171
-126,-762,1.48743,19.9288,0,0,0,0,0,0,0,-1,1098,1786,1.48738,-19.9289
-119,-762,2.65637,20.208,0,0,0,0,0,0,0,-1,1105,1786,2.65632,-20.208
-112,-762,3.09082,20.488,0,0,0,0,0,0,0,-1,1112,1786,3.09077,-20.488
-105,-762,6.20923,21.3702,0,0,0,0,0,0,0,-1,1119,1786,6.20928,-21.3703
-98,-762,5.58447,17.7201,0,0,0,0,0,0,0,-1,1126,1786,5.58445,-17.7201
-91,-762,4.74573,14.093,0,0,0,0,0,0,0,-1,1133,1786,4.74571,-14.0931
-84,-762,3.96375,10.4547,0,0,0,0,0,0,0,-1,1140,1786,3.96371,-10.4548
-77,-762,0.305054,8.49365,0,0,0,0,0,0,0,-1,1147,1786,0.305008,-8.49362
-70,-762,0.183716,6.74622,0,0,0,0,0,0,0,-1,1154,1786,0.183696,-6.74621
-63,-762,-0.883057,9.08813,0,0,0,0,0,0,0,-1,1161,1786,-0.88311,-9.08808
-56,-762,-0.578979,5.10254,0,0,0,0,0,0,0,-1,1168,1786,-0.578951,-5.10249
-49,-762,-2.04541,3.66321,0,0,0,0,0,0,0,-1,1175,1786,-2.0454,-3.66319
-42,-762,-2.23462,3.474,0,0,0,0,0,0,0,-1,1182,1786,-2.23459,-3.47399
-35,-762,-3.28992,1.68164,0,0,0,0,0,0,0,-1,1189,1786,-3.28998,-1.68164
-28,-762,-3.75378,1.37769,0,0,0,0,0,0,0,-1,1196,1786,-3.75373,-1.37767
-21,-762,6.9585,27.4912,0,0,0,0,0,0,0,-1,1203,1786,6.95846,-27.4912
-14,-762,7.01221,28.5063,0,0,0,0,0,0,0,-1,1210,1786,7.01223,-28.5064
-7,-762,6.80762,28.6396,0,0,0,0,0,0,0,-1,1217,1786,6.80765,-28.6397
0,-762,6.77283,28.6869,0.0248021,0.012778,-0.0234036,0.0429535,-0.00537338,-0.659674,0.0305845,0.0394231,1224,1786,6.77282,-28.6868
7,-762,6.74683,28.7617,0.0208982,0.013537,-0.019827,0.0373833,-0.00294808,-0.693624,0.0259608,0.0226551,1231,1786,6.74687,-28.7617
14,-762,6.72778,28.8855,0.0176783,0.014038,-0.0166094,0.0325669,-0.000850687,-0.730824,0.0220003,0.0339123,1238,1786,6.72776,-28.8855
21,-762,6.55127,28.8588,0.0152855,0.0145891,-0.0141343,0.0290759,0.000798683,-0.773083,0.0191233,0.0409379,1245,1786,6.55128,-28.8587
28,-762,6.49072,28.8894,0.0134324,0.0158487,-0.012689,0.0273869,0.00189419,-0.832863,0.0176604,0.0425617,1252,1786,6.49072,-28.8894
35,-762,6.55969,28.9731,0.0128782,0.0169558,-0.0110384,0.0261421,0.00369187,-0.876719,0.0163371,0.0435493,1259,1786,6.55971,-28.9731
42,-762,6.5697,29.019,0.0131221,0.0183714,-0.010276,0.0263527,0.00514086,-0.910432,0.0161303,0.0413043,1266,1786,6.56965,-29.019
49,-762,6.47888,29.0096,0.0145261,0.019641,-0.0104885,0.0278794,0.00628774,-0.904981,0.0168852,0.0324463,1273,1786,6.47887,-29.0096
56,-762,6.53918,28.9927,0.0164139,0.0208697,-0.0114753,0.0303314,0.00695222,-0.88128,0.018348,0.0236894,1280,1786,6.5392,-28.9927
63,-762,6.47729,29.0063,0.0179944,0.020378,-0.012402,0.0316454,0.00672707,-0.8333,0.0192504,0.0214394,1287,1786,6.47731,-29.0064
70,-762,6.46008,29.0107,0.0189986,0.0187745,-0.0131844,0.0320715,0.00570164,-0.781147,0.0197566,0.0211195,1294,1786,6.4601,-29.0107
77,-762,6.495,29.0051,0.0195835,0.0159773,-0.0136923,0.0315909,0.00396992,-0.719931,0.0198699,0.0263031,1301,1786,6.49496,-29.0051
84,-762,6.54407,29.0032,0.0199439,0.012457,-0.0142907,0.0309733,0.00142756,-0.657301,0.0201899,0.0331726,1308,1786,6.54405,-29.0032
91,-762,6.55493,29.0665,0.0192009,0.00814894,-0.0140623,0.028784,-0.00143415,-0.598184,0.0196848,0.0438956,1315,1786,6.55491,-29.0665
98,-762,6.34741,28.998,0.0180811,0.00293367,-0.013258,0.0257762,-0.00476142,-0.52589,0.0189715,0.0448545,1322,1786,6.34741,-28.998
105,-762,6.26672,28.924,0.0157506,-0.00312709,-0.0122739,0.0217953,-0.00917179,-0.457617,0.0183674,0.043644,1329,1786,6.26672,-28.9239
112,-762,6.36816,28.8976,0.0119075,-0.00952568,-0.0099881,0.0158404,-0.0134586,-0.375114,0.0169344,0.0430808,1336,1786,6.36816,-28.8976
119,-762,6.46106,29.0284,0.00712133,-0.0160288,-0.0066005,0.008871,-0.0177785,-0.259122,0.01567,0.042031,1343,1786,6.4611,-29.0284
126,-762,6.31262,29.2731,0.00259847,-0.0224133,-0.00279353,0.00290668,-0.0227215,-0.109885,0.0162037,0.0450183,1350,1786,6.31263,-29.2731
133,-762,6.00378,29.2764,-0.000667197,-0.0282092,0.000967034,-0.000633286,-0.0282432,0.0350537,0.0186213,0.0460928,1357,1786,6.00381,-29.2763
140,-762,5.54944,28.8018,-0.00304069,-0.0318996,0.00277566,-0.00277615,-0.0321642,0.0950196,0.0205799,0.0427295,1364,1786,5.54945,-28.8017
147,-762,5.92908,28.7593,-0.0037747,-0.0331946,0.00444154,-0.00311878,-0.0338506,0.146618,0.0216026,0.0407817,1371,1786,5.92905,-28.7592
154,-762,6.25391,28.7192,-0.00406185,-0.0331114,0.0052282,-0.00314956,-0.0340237,0.172756,0.0217089,0.0484324,1378,1786,6.25391,-28.7193
161,-762,6.55212,28.5924,0,0,0,0,0,0,0,-1,1385,1786,6.55206,-28.5924
168,-762,8.19287,0.880615,0,0,0,0,0,0,0,-1,1392,1786,8.19291,-0.880603
175,-762,8.33997,1.95947,0,0,0,0,0,0,0,-1,1399,1786,8.33997,-1.95942
182,-762,8.28418,3.56482,0,0,0,0,0,0,0,-1,1406,1786,8.28415,-3.56485
189,-762,8.21179,5.23389,0,0,0,0,0,0,0,-1,1413,1786,8.21183,-5.23383
196,-762,8.05969,6.95483,0,0,0,0,0,0,0,-1,1420,1786,8.05972,-6.9548
203,-762,24.0077,7.10425,0,0,0,0,0,0,0,-1,1427,1786,24.0077,-7.10426
210,-762,23.8073,7.6499,0,0,0,0,0,0,0,-1,1434,1786,23.8073,-7.64987
217,-762,23.3193,8.24426,0,0,0,0,0,0,0,-1,1441,1786,23.3194,-8.2442
224,-762,2.65149,20.6106,0,0,0,0,0,0,0,-1,1448,1786,2.65153,-20.6106
231,-762,5.46655,23.521,0,0,0,0,0,0,0,-1,1455,1786,5.46653,-23.521
238,-762,3.96863,24.0858,0,0,0,0,0,0,0,-1,1462,1786,3.96865,-24.0858
245,-762,5.97974,21.9014,0,0,0,0,0,0,0,-1,1469,1786,5.97972,-21.9014
252,-762,7.99072,19.7169,0,0,0,0,0,0,0,-1,1476,1786,7.99078,-19.717
259,-762,17.4619,7.89832,0,0,0,0,0,0,0,-1,1483,1786,17.462,-7.89836
266,-762,16.451,7.67773,0,0,0,0,0,0,0,-1,1490,1786,16.4511,-7.67773
273,-762,15.287,7.5304,0,0,0,0,0,0,0,-1,1497,1786,15.2869,-7.53044
280,-762,14.1501,7.38379,0,0,0,0,0,0,0,-1,1504,1786,14.1502,-7.38376
287,-762,12.6891,7.99133,0,0,0,0,0,0,0,-1,1511,1786,12.6891,-7.99135
294,-762,12.6959,8.30371,0,0,0,0,0,0,0,-1,1518,1786,12.6959,-8.30368
301,-762,11.4222,8.84143,0,0,0,0,0,0,0,-1,1525,1786,11.4223,-8.84149
308,-762,0,0,0,0,0,0,0,0,0,-1,1532,1786,0,0
315,-762,0,0,0,0,0,0,0,0,0,-1,1539,1786,0,0
322,-762,0,0,0,0,0,0,0,0,0,-1,1546,1786,0,0
329,-762,0,0,0,0,0,0,0,0,0,-1,1553,1786,0,0
336,-762,0,0,0,0,0,0,0,0,0,-1,1560,1786,0,0
343,-762,0,0,0,0,0,0,0,0,0,-1,1567,1786,0,0
350,-762,0,0,0,0,0,0,0,0,0,-1,1574,1786,0,0
357,-762,0,0,0,0,0,0,0,0,0,-1,1581,1786,0,0
364,-762,0,0,0,0,0,0,0,0,0,-1,1588,1786,0,0
371,-762,0,0,0,0,0,0,0,0,0,-1,1595,1786,0,0
378,-762,0,0,0,0,0,0,0,0,0,-1,1602,1786,0,0
385,-762,0,0,0,0,0,0,0,0,0,-1,1609,1786,0,0
392,-762,0,0,0,0,0,0,0,0,0,-1,1616,1786,0,0
399,-762,0,0,0,0,0,0,0,0,0,-1,1623,1786,0,0
406,-762,0,0,0,0,0,0,0,0,0,-1,1630,1786,0,0
413,-762,0,0,0,0,0,0,0,0,0,-1,1637,1786,0,0
420,-762,0,0,0,0,0,0,0,0,0,-1,1644,1786,0,0
427,-762,0,0,0,0,0,0,0,0,0,-1,1651,1786,0,0
434,-762,0,0,0,0,0,0,0,0,0,-1,1658,1786,0,0
441,-762,0,0,0,0,0,0,0,0,0,-1,1665,1786,0,0
448,-762,0,0,0,0,0,0,0,0,0,-1,1672,1786,0,0
455,-762,0,0,0,0,0,0,0,0,0,-1,1679,1786,0,0
462,-762,0,0,0,0,0,0,0,0,0,-1,1686,1786,0,0
469,-762,0,0,0,0,0,0,0,0,0,-1,1693,1786,0,0
476,-762,0,0,0,0,0,0,0,0,0,-1,1700,1786,0,0
483,-762,0,0,0,0,0,0,0,0,0,-1,1707,1786,0,0
490,-762,0,0,0,0,0,0,0,0,0,-1,1714,1786,0,0
497,-762,0,0,0,0,0,0,0,0,0,-1,1721,1786,0,0
504,-762,0,0,0,0,0,0,0,0,0,-1,1728,1786,0,0
511,-762,0,0,0,0,0,0,0,0,0,-1,1735,1786,0,0
518,-762,0,0,0,0,0,0,0,0,0,-1,1742,1786,0,0
525,-762,0,0,0,0,0,0,0,0,0,-1,1749,1786,0,0
532,-762,0,0,0,0,0,0,0,0,0,-1,1756,1786,0,0
539,-762,0,0,0,0,0,0,0,0,0,-1,1763,1786,0,0
546,-762,0,0,0,0,0,0,0,0,0,-1,1770,1786,0,0
553,-762,0,0,0,0,0,0,0,0,0,-1,1777,1786,0,0
560,-762,0,0,0,0,0,0,0,0,0,-1,1784,1786,0,0
567,-762,0,0,0,0,0,0,0,0,0,-1,1791,1786,0,0
574,-762,0,0,0,0,0,0,0,0,0,-1,1798,1786,0,0
581,-762,0,0,0,0,0,0,0,0,0,-1,1805,1786,0,0
588,-762,0,0,0,0,0,0,0,0,0,-1,1812,1786,0,0
595,-762,0,0,0,0,0,0,0,0,0,-1,1819,1786,0,0
602,-762,0,0,0,0,0,0,0,0,0,-1,1826,1786,0,0
609,-762,0,0,0,0,0,0,0,0,0,-1,1833,1786,0,0
616,-762,0,0,0,0,0,0,0,0,0,-1,1840,1786,0,0
623,-762,0,0,0,0,0,0,0,0,0,-1,1847,1786,0,0
630,-762,0,0,0,0,0,0,0,0,0,-1,1854,1786,0,0
637,-762,0,0,0,0,0,0,0,0,0,-1,1861,1786,0,0
644,-762,0,0,0,0,0,0,0,0,0,-1,1868,1786,0,0
651,-762,0,0,0,0,0,0,0,0,0,-1,1875,1786,0,0
658,-762,0,0,0,0,0,0,0,0,0,-1,1882,1786,0,0
665,-762,0,0,0,0,0,0,0,0,0,-1,1889,1786,0,0
672,-762,0,0,0,0,0,0,0,0,0,-1,1896,1786,0,0
679,-762,0,0,0,0,0,0,0,0,0,-1,1903,1786,0,0
686,-762,0,0,0,0,0,0,0,0,0,-1,1910,1786,0,0
693,-762,0,0,0,0,0,0,0,0,0,-1,1917,1786,0,0
700,-762,0,0,0,0,0,0,0,0,0,-1,1924,1786,0,0
707,-762,0,0,0,0,0,0,0,0,0,-1,1931,1786,0,0
714,-762,0,0,0,0,0,0,0,0,0,-1,1938,1786,0,0
721,-762,0,0,0,0,0,0,0,0,0,-1,1945,1786,0,0
728,-762,0,0,0,0,0,0,0,0,0,-1,1952,1786,0,0
735,-762,0,0,0,0,0,0,0,0,0,-1,1959,1786,0,0
742,-762,0,0,0,0,0,0,0,0,0,-1,1966,1786,0,0
749,-762,0,0,0,0,0,0,0,0,0,-1,1973,1786,0,0
756,-762,0,0,0,0,0,0,0,0,0,-1,1980,1786,0,0
763,-762,0,0,0,0,0,0,0,0,0,-1,1987,1786,0,0
770,-762,0,0,0,0,0,0,0,0,0,-1,1994,1786,0,0
777,-762,0,0,0,0,0,0,0,0,0,-1,2001,1786,0,0
784,-762,0,0,0,0,0,0,0,0,0,-1,2008,1786,0,0
791,-762,0,0,0,0,0,0,0,0,0,-1,2015,1786,0,0
798,-762,0,0,0,0,0,0,0,0,0,-1,2022,1786,0,0
805,-762,0,0,0,0,0,0,0,0,0,-1,2029,1786,0,0
812,-762,0,0,0,0,0,0,0,0,0,-1,2036,1786,0,0
-700,-769,0,0,0,0,0,0,0,0,0,-1,524,1793,0,0
-693,-769,0,0,0,0,0,0,0,0,0,-1,531,1793,0,0
-686,-769,0,0,0,0,0,0,0,0,0,-1,538,1793,0,0
-679,-769,0,0,0,0,0,0,0,0,0,-1,545,1793,0,0
-672,-769,0,0,0,0,0,0,0,0,0,-1,552,1793,0,0
-665,-769,0,0,0,0,0,0,0,0,0,-1,559,1793,0,0
-658,-769,0,0,0,0,0,0,0,0,0,-1,566,1793,0,0
-651,-769,0,0,0,0,0,0,0,0,0,-1,573,1793,0,0
-644,-769,0,0,0,0,0,0,0,0,0,-1,580,1793,0,0
-637,-769,0,0,0,0,0,0,0,0,0,-1,587,1793,0,0
-630,-769,0,0,0,0,0,0,0,0,0,-1,594,1793,0,0
-623,-769,0,0,0,0,0,0,0,0,0,-1,601,1793,0,0
-616,-769,0,0,0,0,0,0,0,0,0,-1,608,1793,0,0
-609,-769,0,0,0,0,0,0,0,0,0,-1,615,1793,0,0
-602,-769,0,0,0,0,0,0,0,0,0,-1,622,1793,0,0
-595,-769,0,0,0,0,0,0,0,0,0,-1,629,1793,0,0
-588,-769,0,0,0,0,0,0,0,0,0,-1,636,1793,0,0
-581,-769,0,0,0,0,0,0,0,0,0,-1,643,1793,0,0
-574,-769,0,0,0,0,0,0,0,0,0,-1,650,1793,0,0
-567,-769,0,0,0,0,0,0,0,0,0,-1,657,1793,0,0
-560,-769,0,0,0,0,0,0,0,0,0,-1,664,1793,0,0
-553,-769,0,0,0,0,0,0,0,0,0,-1,671,1793,0,0
-546,-769,0,0,0,0,0,0,0,0,0,-1,678,1793,0,0
-539,-769,0,0,0,0,0,0,0,0,0,-1,685,1793,0,0
-532,-769,0,0,0,0,0,0,0,0,0,-1,692,1793,0,0
-525,-769,0,0,0,0,0,0,0,0,0,-1,699,1793,0,0
-518,-769,0,0,0,0,0,0,0,0,0,-1,706,1793,0,0
-511,-769,0,0,0,0,0,0,0,0,0,-1,713,1793,0,0
-504,-769,0,0,0,0,0,0,0,0,0,-1,720,1793,0,0
-497,-769,0,0,0,0,0,0,0,0,0,-1,727,1793,0,0
-490,-769,0,0,0,0,0,0,0,0,0,-1,734,1793,0,0
-483,-769,0,0,0,0,0,0,0,0,0,-1,741,1793,0,0
-476,-769,0,0,0,0,0,0,0,0,0,-1,748,1793,0,0
-469,-769,0,0,0,0,0,0,0,0,0,-1,755,1793,0,0
-462,-769,0,0,0,0,0,0,0,0,0,-1,762,1793,0,0
-455,-769,0,0,0,0,0,0,0,0,0,-1,769,1793,0,0
-448,-769,0,0,0,0,0,0,0,0,0,-1,776,1793,0,0
-441,-769,0,0,0,0,0,0,0,0,0,-1,783,1793,0,0
-434,-769,0,0,0,0,0,0,0,0,0,-1,790,1793,0,0
-427,-769,0,0,0,0,0,0,0,0,0,-1,797,1793,0,0
-420,-769,0,0,0,0,0,0,0,0,0,-1,804,1793,0,0
-413,-769,0,0,0,0,0,0,0,0,0,-1,811,1793,0,0
-406,-769,0,0,0,0,0,0,0,0,0,-1,818,1793,0,0
-399,-769,0,0,0,0,0,0,0,0,0,-1,825,1793,0,0
-392,-769,0,0,0,0,0,0,0,0,0,-1,832,1793,0,0
-385,-769,0,0,0,0,0,0,0,0,0,-1,839,1793,0,0
-378,-769,0,0,0,0,0,0,0,0,0,-1,846,1793,0,0
-371,-769,0,0,0,0,0,0,0,0,0,-1,853,1793,0,0
-364,-769,0,0,0,0,0,0,0,0,0,-1,860,1793,0,0
-357,-769,0,0,0,0,0,0,0,0,0,-1,867,1793,0,0
-350,-769,0,0,0,0,0,0,0,0,0,-1,874,1793,0,0
-343,-769,0,0,0,0,0,0,0,0,0,-1,881,1793,0,0
-336,-769,0,0,0,0,0,0,0,0,0,-1,888,1793,0,0
-329,-769,0,0,0,0,0,0,0,0,0,-1,895,1793,0,0
-322,-769,0,0,0,0,0,0,0,0,0,-1,902,1793,0,0
-315,-769,0,0,0,0,0,0,0,0,0,-1,909,1793,0,0
-308,-769,0,0,0,0,0,0,0,0,0,-1,916,1793,0,0
-301,-769,0,0,0,0,0,0,0,0,0,-1,923,1793,0,0
-294,-769,0,0,0,0,0,0,0,0,0,-1,930,1793,0,0
-287,-769,0,0,0,0,0,0,0,0,0,-1,937,1793,0,0
-280,-769,0,0,0,0,0,0,0,0,0,-1,944,1793,0,0
-273,-769,0,0,0,0,0,0,0,0,0,-1,951,1793,0,0
-266,-769,0,0,0,0,0,0,0,0,0,-1,958,1793,0,0
-259,-769,0,0,0,0,0,0,0,0,0,-1,965,1793,0,0
-252,-769,0,0,0,0,0,0,0,0,0,-1,972,1793,0,0
-245,-769,0,0,0,0,0,0,0,0,0,-1,979,1793,0,0
-238,-769,0,0,0,0,0,0,0,0,0,-1,986,1793,0,0
-231,-769,0,0,0,0,0,0,0,0,0,-1,993,1793,0,0
-224,-769,0,0,0,0,0,0,0,0,0,-1,1000,1793,0,0
-217,-769,0,0,0,0,0,0,0,0,0,-1,1007,1793,0,0
-210,-769,0,0,0,0,0,0,0,0,0,-1,1014,1793,0,0
-203,-769,0,0,0,0,0,0,0,0,0,-1,1021,1793,0,0
-196,-769,0,0,0,0,0,0,0,0,0,-1,1028,1793,0,0
-189,-769,0,0,0,0,0,0,0,0,0,-1,1035,1793,0,0
-182,-769,0,0,0,0,0,0,0,0,0,-1,1042,1793,0,0
-175,-769,0,0,0,0,0,0,0,0,0,-1,1049,1793,0,0
-168,-769,0,0,0,0,0,0,0,0,0,-1,1056,1793,0,0
-161,-769,-3.61145,12.4761,0,0,0,0,0,0,0,-1,1063,1793,-3.6114,-12.476
-154,-769,-0.813232,5.32874,0,0,0,0,0,0,0,-1,1070,1793,-0.813269,-5.32872
-147,-769,4.26587,4.7002,0,0,0,0,0,0,0,-1,1077,1793,4.26593,-4.70022
-140,-769,4.10376,5.28589,0,0,0,0,0,0,0,-1,1084,1793,4.10371,-5.28584
-133,-769,6.422,8.21777,0,0,0,0,0,0,0,-1,1091,1793,6.42198,-8.21773
-126,-769,-0.352295,19.326,0,0,0,0,0,0,0,-1,1098,1793,-0.352235,-19.326
-119,-769,6.01685,16.2577,0,0,0,0,0,0,0,-1,1105,1793,6.01689,-16.2576
-112,-769,2.77722,20.0741,0,0,0,0,0,0,0,-1,1112,1793,2.77727,-20.0741
-105,-769,4.55212,21.8363,0,0,0,0,0,0,0,-1,1119,1793,4.55214,-21.8363
-98,-769,4.71545,19.8396,0,0,0,0,0,0,0,-1,1126,1793,4.71539,-19.8396
-91,-769,3.96802,16.1481,0,0,0,0,0,0,0,-1,1133,1793,3.96803,-16.1481
-84,-769,3.2207,12.4565,0,0,0,0,0,0,0,-1,1140,1793,3.22066,-12.4565
-77,-769,2.48816,8.98486,0,0,0,0,0,0,0,-1,1147,1793,2.48815,-8.98489
-70,-769,1.04944,11.9852,0,0,0,0,0,0,0,-1,1154,1793,1.04947,-11.9852
-63,-769,-2.39709,9.60339,0,0,0,0,0,0,0,-1,1161,1793,-2.39706,-9.6034
-56,-769,-5.84363,7.22156,0,0,0,0,0,0,0,-1,1168,1793,-5.84359,-7.22157
-49,-769,-2.41443,3.95471,0,0,0,0,0,0,0,-1,1175,1793,-2.41446,-3.95471
-42,-769,-3.1991,2.64941,0,0,0,0,0,0,0,-1,1182,1793,-3.19914,-2.64944
-35,-769,-3.50183,1.73389,0,0,0,0,0,0,0,-1,1189,1793,-3.50189,-1.7339
-28,-769,-3.96985,1.14075,0,0,0,0,0,0,0,-1,1196,1793,-3.96985,-1.14078
-21,-769,7.18909,27.4938,0,0,0,0,0,0,0,-1,1203,1793,7.18905,-27.4938
-14,-769,7.85962,29.5334,0,0,0,0,0,0,0,-1,1210,1793,7.85963,-29.5335
-7,-769,6.64404,28.6688,0,0,0,0,0,0,0,-1,1217,1793,6.64404,-28.6688
0,-769,6.87317,28.7263,0,0,0,0,0,0,0,-1,1224,1793,6.87315,-28.7263
7,-769,6.69336,29.2263,0.0303326,0.0184899,-0.0270768,0.0521279,-0.0033054,-0.677749,0.0359045,0.0444093,1231,1793,6.69335,-29.2263
14,-769,6.6134,28.9048,0.0257762,0.0193502,-0.0224713,0.045263,-0.000136565,-0.714388,0.030221,0.0407287,1238,1793,6.61336,-28.9047
21,-769,6.47083,28.7418,0.0224598,0.0201343,-0.0188747,0.0402075,0.00238653,-0.754635,0.026046,0.0443774,1245,1793,6.47079,-28.7419
28,-769,6.63281,28.5442,0.0199303,0.0217946,-0.0167269,0.0376153,0.00410962,-0.813233,0.0238254,0.0439538,1252,1793,6.63285,-28.5442
35,-769,6.50525,28.9406,0,0,0,0,0,0,0,-1,1259,1793,6.50524,-28.9406
42,-769,7.05188,29.1431,0.0192757,0.025263,-0.0132822,0.0358847,0.00865394,-0.896241,0.0216237,0.0468481,1266,1793,7.05191,-29.1431
49,-769,6.47925,29.4186,0.0210737,0.026982,-0.0134208,0.03777,0.0102857,-0.89373,0.0225475,0.0451416,1273,1793,6.4792,-29.4186
56,-769,6.49268,29.3358,0.0236235,0.0286989,-0.0146535,0.0410328,0.0112896,-0.871139,0.0244758,0.0437374,1280,1793,6.49268,-29.3358
63,-769,6.61218,28.8733,0.0256906,0.0279962,-0.0158714,0.0427566,0.0109302,-0.821651,0.0256494,0.0441176,1287,1793,6.61214,-28.8732
70,-769,6.62061,28.8629,0.0270041,0.0259076,-0.0169467,0.0434114,0.00950027,-0.769228,0.0263513,0.043664,1294,1793,6.62056,-28.8629
77,-769,6.70544,28.8344,0.0278197,0.0223989,-0.0176847,0.0430005,0.00721818,-0.709358,0.0265896,0.0455669,1301,1793,6.70541,-28.8343
84,-769,6.81555,29.0627,0.0283126,0.0178159,-0.0185313,0.0423244,0.0038041,-0.647405,0.0270376,0.0446098,1308,1793,6.81551,-29.0628
91,-769,6.78455,29.1924,0.0272211,0.0120676,-0.0182934,0.0394447,-0.000156021,-0.589063,0.0263486,0.0479369,1315,1793,6.78449,-29.1924
98,-769,6.87402,29.2113,0.0255675,0.00499413,-0.017277,0.0353883,-0.00482668,-0.516884,0.0253547,0.0485372,1322,1793,6.87398,-29.2113
105,-769,7.08313,28.8962,0.0222582,-0.00339896,-0.0159422,0.0298924,-0.0110332,-0.4466,0.0244503,0.046982,1329,1793,7.08312,-28.8962
112,-769,7.22607,28.65,0.0167747,-0.0123455,-0.0128552,0.0216376,-0.0172084,-0.361646,0.0224763,0.0474083,1336,1793,7.22605,-28.65
119,-769,6.59265,29.5117,0.00999023,-0.0215315,-0.00823211,0.0120106,-0.0235518,-0.24067,0.0208893,0.0447614,1343,1793,6.59262,-29.5117
126,-769,6.35193,29.8065,0.00349046,-0.0305362,-0.00312153,0.00377445,-0.0308202,-0.0907286,0.0219135,0.0445451,1350,1793,6.35195,-29.8065
133,-769,5.90063,29.65,0,0,0,0,0,0,0,-1,1357,1793,5.90067,-29.65
140,-769,5.03003,28.6458,0,0,0,0,0,0,0,-1,1364,1793,5.03,-28.6458
147,-769,5.62097,28.8292,0,0,0,0,0,0,0,-1,1371,1793,5.62093,-28.8292
154,-769,6.29919,28.8264,0,0,0,0,0,0,0,-1,1378,1793,6.29915,-28.8264
161,-769,6.57019,1.53223,0,0,0,0,0,0,0,-1,1385,1793,6.57019,-1.53226
168,-769,8.27637,0.756958,0,0,0,0,0,0,0,-1,1392,1793,8.27639,-0.756944
175,-769,8.47144,2.41174,0,0,0,0,0,0,0,-1,1399,1793,8.47147,-2.4118
182,-769,8.41479,4.05994,0,0,0,0,0,0,0,-1,1406,1793,8.41479,-4.05997
189,-769,8.25049,5.68433,0,0,0,0,0,0,0,-1,1413,1793,8.25054,-5.68428
196,-769,7.97729,7.42847,0,0,0,0,0,0,0,-1,1420,1793,7.9773,-7.42848
203,-769,22.0977,6.73889,0,0,0,0,0,0,0,-1,1427,1793,22.0977,-6.7389
210,-769,22.1115,7.77246,0,0,0,0,0,0,0,-1,1434,1793,22.1115,-7.77248
217,-769,22.4723,8.79102,0,0,0,0,0,0,0,-1,1441,1793,22.4723,-8.79099
224,-769,22.1348,9.35278,0,0,0,0,0,0,0,-1,1448,1793,22.1348,-9.35283
231,-769,3.13318,19.7184,0,0,0,0,0,0,0,-1,1455,1793,3.13323,-19.7184
238,-769,5.74512,18.6597,0,0,0,0,0,0,0,-1,1462,1793,5.74512,-18.6596
245,-769,5.86584,22.3948,0,0,0,0,0,0,0,-1,1469,1793,5.86589,-22.3947
252,-769,4.34961,12.5251,0,0,0,0,0,0,0,-1,1476,1793,4.34959,-12.5252
259,-769,16.4871,7.42102,0,0,0,0,0,0,0,-1,1483,1793,16.4871,-7.42104
266,-769,15.8488,7.3905,0,0,0,0,0,0,0,-1,1490,1793,15.8488,-7.39046
273,-769,14.8075,7.56152,0,0,0,0,0,0,0,-1,1497,1793,14.8075,-7.56152
280,-769,13.6519,7.43054,0,0,0,0,0,0,0,-1,1504,1793,13.6518,-7.43058
287,-769,0,0,0,0,0,0,0,0,0,-1,1511,1793,0,0
294,-769,0,0,0,0,0,0,0,0,0,-1,1518,1793,0,0
301,-769,0,0,0,0,0,0,0,0,0,-1,1525,1793,0,0
308,-769,0,0,0,0,0,0,0,0,0,-1,1532,1793,0,0
315,-769,0,0,0,0,0,0,0,0,0,-1,1539,1793,0,0
322,-769,0,0,0,0,0,0,0,0,0,-1,1546,1793,0,0
329,-769,0,0,0,0,0,0,0,0,0,-1,1553,1793,0,0
336,-769,0,0,0,0,0,0,0,0,0,-1,1560,1793,0,0
343,-769,0,0,0,0,0,0,0,0,0,-1,1567,1793,0,0
350,-769,0,0,0,0,0,0,0,0,0,-1,1574,1793,0,0
357,-769,0,0,0,0,0,0,0,0,0,-1,1581,1793,0,0
364,-769,0,0,0,0,0,0,0,0,0,-1,1588,1793,0,0
371,-769,0,0,0,0,0,0,0,0,0,-1,1595,1793,0,0
378,-769,0,0,0,0,0,0,0,0,0,-1,1602,1793,0,0
385,-769,0,0,0,0,0,0,0,0,0,-1,1609,1793,0,0
392,-769,0,0,0,0,0,0,0,0,0,-1,1616,1793,0,0
399,-769,0,0,0,0,0,0,0,0,0,-1,1623,1793,0,0
406,-769,0,0,0,0,0,0,0,0,0,-1,1630,1793,0,0
413,-769,0,0,0,0,0,0,0,0,0,-1,1637,1793,0,0
420,-769,0,0,0,0,0,0,0,0,0,-1,1644,1793,0,0
427,-769,0,0,0,0,0,0,0,0,0,-1,1651,1793,0,0
434,-769,0,0,0,0,0,0,0,0,0,-1,1658,1793,0,0
441,-769,0,0,0,0,0,0,0,0,0,-1,1665,1793,0,0
448,-769,0,0,0,0,0,0,0,0,0,-1,1672,1793,0,0
455,-769,0,0,0,0,0,0,0,0,0,-1,1679,1793,0,0
462,-769,0,0,0,0,0,0,0,0,0,-1,1686,1793,0,0
469,-769,0,0,0,0,0,0,0,0,0,-1,1693,1793,0,0
476,-769,0,0,0,0,0,0,0,0,0,-1,1700,1793,0,0
483,-769,0,0,0,0,0,0,0,0,0,-1,1707,1793,0,0
490,-769,0,0,0,0,0,0,0,0,0,-1,1714,1793,0,0
497,-769,0,0,0,0,0,0,0,0,0,-1,1721,1793,0,0
504,-769,0,0,0,0,0,0,0,0,0,-1,1728,1793,0,0
511,-769,0,0,0,0,0,0,0,0,0,-1,1735,1793,0,0
518,-769,0,0,0,0,0,0,0,0,0,-1,1742,1793,0,0
525,-769,0,0,0,0,0,0,0,0,0,-1,1749,1793,0,0
532,-769,0,0,0,0,0,0,0,0,0,-1,1756,1793,0,0
539,-769,0,0,0,0,0,0,0,0,0,-1,1763,1793,0,0
546,-769,0,0,0,0,0,0,0,0,0,-1,1770,1793,0,0
553,-769,0,0,0,0,0,0,0,0,0,-1,1777,1793,0,0
560,-769,0,0,0,0,0,0,0,0,0,-1,1784,1793,0,0
567,-769,0,0,0,0,0,0,0,0,0,-1,1791,1793,0,0
574,-769,0,0,0,0,0,0,0,0,0,-1,1798,1793,0,0
581,-769,0,0,0,0,0,0,0,0,0,-1,1805,1793,0,0
588,-769,0,0,0,0,0,0,0,0,0,-1,1812,1793,0,0
595,-769,0,0,0,0,0,0,0,0,0,-1,1819,1793,0,0
602,-769,0,0,0,0,0,0,0,0,0,-1,1826,1793,0,0
609,-769,0,0,0,0,0,0,0,0,0,-1,1833,1793,0,0
616,-769,0,0,0,0,0,0,0,0,0,-1,1840,1793,0,0
623,-769,0,0,0,0,0,0,0,0,0,-1,1847,1793,0,0
630,-769,0,0,0,0,0,0,0,0,0,-1,1854,1793,0,0
637,-769,0,0,0,0,0,0,0,0,0,-1,1861,1793,0,0
644,-769,0,0,0,0,0,0,0,0,0,-1,1868,1793,0,0
651,-769,0,0,0,0,0,0,0,0,0,-1,1875,1793,0,0
658,-769,0,0,0,0,0,0,0,0,0,-1,1882,1793,0,0
665,-769,0,0,0,0,0,0,0,0,0,-1,1889,1793,0,0
672,-769,0,0,0,0,0,0,0,0,0,-1,1896,1793,0,0
679,-769,0,0,0,0,0,0,0,0,0,-1,1903,1793,0,0
686,-769,0,0,0,0,0,0,0,0,0,-1,1910,1793,0,0
693,-769,0,0,0,0,0,0,0,0,0,-1,1917,1793,0,0
700,-769,0,0,0,0,0,0,0,0,0,-1,1924,1793,0,0
707,-769,0,0,0,0,0,0,0,0,0,-1,1931,1793,0,0
714,-769,0,0,0,0,0,0,0,0,0,-1,1938,1793,0,0
721,-769,0,0,0,0,0,0,0,0,0,-1,1945,1793,0,0
728,-769,0,0,0,0,0,0,0,0,0,-1,1952,1793,0,0
735,-769,0,0,0,0,0,0,0,0,0,-1,1959,1793,0,0
742,-769,0,0,0,0,0,0,0,0,0,-1,1966,1793,0,0
749,-769,0,0,0,0,0,0,0,0,0,-1,1973,1793,0,0
756,-769,0,0,0,0,0,0,0,0,0,-1,1980,1793,0,0
763,-769,0,0,0,0,0,0,0,0,0,-1,1987,1793,0,0
770,-769,0,0,0,0,0,0,0,0,0,-1,1994,1793,0,0
777,-769,0,0,0,0,0,0,0,0,0,-1,2001,1793,0,0
784,-769,0,0,0,0,0,0,0,0,0,-1,2008,1793,0,0
791,-769,0,0,0,0,0,0,0,0,0,-1,2015,1793,0,0
798,-769,0,0,0,0,0,0,0,0,0,-1,2022,1793,0,0
805,-769,0,0,0,0,0,0,0,0,0,-1,2029,1793,0,0
812,-769,0,0,0,0,0,0,0,0,0,-1,2036,1793,0,0
-700,-776,0,0,0,0,0,0,0,0,0,-1,524,1800,0,0
-693,-776,0,0,0,0,0,0,0,0,0,-1,531,1800,0,0
-686,-776,0,0,0,0,0,0,0,0,0,-1,538,1800,0,0
-679,-776,0,0,0,0,0,0,0,0,0,-1,545,1800,0,0
-672,-776,0,0,0,0,0,0,0,0,0,-1,552,1800,0,0
-665,-776,0,0,0,0,0,0,0,0,0,-1,559,1800,0,0
-658,-776,0,0,0,0,0,0,0,0,0,-1,566,1800,0,0
-651,-776,0,0,0,0,0,0,0,0,0,-1,573,1800,0,0
-644,-776,0,0,0,0,0,0,0,0,0,-1,580,1800,0,0
-637,-776,0,0,0,0,0,0,0,0,0,-1,587,1800,0,0
-630,-776,0,0,0,0,0,0,0,0,0,-1,594,1800,0,0
-623,-776,0,0,0,0,0,0,0,0,0,-1,601,1800,0,0
-616,-776,0,0,0,0,0,0,0,0,0,-1,608,1800,0,0
-609,-776,0,0,0,0,0,0,0,0,0,-1,615,1800,0,0
-602,-776,0,0,0,0,0,0,0,0,0,-1,622,1800,0,0
-595,-776,0,0,0,0,0,0,0,0,0,-1,629,1800,0,0
-588,-776,0,0,0,0,0,0,0,0,0,-1,636,1800,0,0
-581,-776,0,0,0,0,0,0,0,0,0,-1,643,1800,0,0
-574,-776,0,0,0,0,0,0,0,0,0,-1,650,1800,0,0
-567,-776,0,0,0,0,0,0,0,0,0,-1,657,1800,0,0
-560,-776,0,0,0,0,0,0,0,0,0,-1,664,1800,0,0
-553,-776,0,0,0,0,0,0,0,0,0,-1,671,1800,0,0
-546,-776,0,0,0,0,0,0,0,0,0,-1,678,1800,0,0
-539,-776,0,0,0,0,0,0,0,0,0,-1,685,1800,0,0
-532,-776,0,0,0,0,0,0,0,0,0,-1,692,1800,0,0
-525,-776,0,0,0,0,0,0,0,0,0,-1,699,1800,0,0
-518,-776,0,0,0,0,0,0,0,0,0,-1,706,1800,0,0
-511,-776,0,0,0,0,0,0,0,0,0,-1,713,1800,0,0
-504,-776,0,0,0,0,0,0,0,0,0,-1,720,1800,0,0
-497,-776,0,0,0,0,0,0,0,0,0,-1,727,1800,0,0
-490,-776,0,0,0,0,0,0,0,0,0,-1,734,1800,0,0
-483,-776,0,0,0,0,0,0,0,0,0,-1,741,1800,0,0
-476,-776,0,0,0,0,0,0,0,0,0,-1,748,1800,0,0
-469,-776,0,0,0,0,0,0,0,0,0,-1,755,1800,0,0
-462,-776,0,0,0,0,0,0,0,0,0,-1,762,1800,0,0
-455,-776,0,0,0,0,0,0,0,0,0,-1,769,1800,0,0
-448,-776,0,0,0,0,0,0,0,0,0,-1,776,1800,0,0
-441,-776,0,0,0,0,0,0,0,0,0,-1,783,1800,0,0
-434,-776,0,0,0,0,0,0,0,0,0,-1,790,1800,0,0
-427,-776,0,0,0,0,0,0,0,0,0,-1,797,1800,0,0
-420,-776,0,0,0,0,0,0,0,0,0,-1,804,1800,0,0
-413,-776,0,0,0,0,0,0,0,0,0,-1,811,1800,0,0
-406,-776,0,0,0,0,0,0,0,0,0,-1,818,1800,0,0
-399,-776,0,0,0,0,0,0,0,0,0,-1,825,1800,0,0
-392,-776,0,0,0,0,0,0,0,0,0,-1,832,1800,0,0
-385,-776,0,0,0,0,0,0,0,0,0,-1,839,1800,0,0
-378,-776,0,0,0,0,0,0,0,0,0,-1,846,1800,0,0
-371,-776,0,0,0,0,0,0,0,0,0,-1,853,1800,0,0
-364,-776,0,0,0,0,0,0,0,0,0,-1,860,1800,0,0
-357,-776,0,0,0,0,0,0,0,0,0,-1,867,1800,0,0
-350,-776,0,0,0,0,0,0,0,0,0,-1,874,1800,0,0
-343,-776,0,0,0,0,0,0,0,0,0,-1,881,1800,0,0
-336,-776,0,0,0,0,0,0,0,0,0,-1,888,1800,0,0
-329,-776,0,0,0,0,0,0,0,0,0,-1,895,1800,0,0
-322,-776,0,0,0,0,0,0,0,0,0,-1,902,1800,0,0
-315,-776,0,0,0,0,0,0,0,0,0,-1,909,1800,0,0
-308,-776,0,0,0,0,0,0,0,0,0,-1,916,1800,0,0
-301,-776,0,0,0,0,0,0,0,0,0,-1,923,1800,0,0
-294,-776,0,0,0,0,0,0,0,0,0,-1,930,1800,0,0
-287,-776,0,0,0,0,0,0,0,0,0,-1,937,1800,0,0
-280,-776,0,0,0,0,0,0,0,0,0,-1,944,1800,0,0
-273,-776,0,0,0,0,0,0,0,0,0,-1,951,1800,0,0
-266,-776,0,0,0,0,0,0,0,0,0,-1,958,1800,0,0
-259,-776,0,0,0,0,0,0,0,0,0,-1,965,1800,0,0
-252,-776,0,0,0,0,0,0,0,0,0,-1,972,1800,0,0
-245,-776,0,0,0,0,0,0,0,0,0,-1,979,1800,0,0
-238,-776,0,0,0,0,0,0,0,0,0,-1,986,1800,0,0
-231,-776,0,0,0,0,0,0,0,0,0,-1,993,1800,0,0
-224,-776,0,0,0,0,0,0,0,0,0,-1,1000,1800,0,0
-217,-776,0,0,0,0,0,0,0,0,0,-1,1007,1800,0,0
-210,-776,0,0,0,0,0,0,0,0,0,-1,1014,1800,0,0
-203,-776,0,0,0,0,0,0,0,0,0,-1,1021,1800,0,0
-196,-776,0,0,0,0,0,0,0,0,0,-1,1028,1800,0,0
-189,-776,0,0,0,0,0,0,0,0,0,-1,1035,1800,0,0
-182,-776,0,0,0,0,0,0,0,0,0,-1,1042,1800,0,0
-175,-776,0,0,0,0,0,0,0,0,0,-1,1049,1800,0,0
-168,-776,0,0,0,0,0,0,0,0,0,-1,1056,1800,0,0
-161,-776,0,0,0,0,0,0,0,0,0,-1,1063,1800,0,0
-154,-776,0,0,0,0,0,0,0,0,0,-1,1070,1800,0,0
-147,-776,0,0,0,0,0,0,0,0,0,-1,1077,1800,0,0
-140,-776,2.98499,5.20911,0,0,0,0,0,0,0,-1,1084,1800,2.98493,-5.2091
-133,-776,6.72363,9.35828,0,0,0,0,0,0,0,-1,1091,1800,6.72358,-9.35824
-126,-776,6.55029,13.7832,0,0,0,0,0,0,0,-1,1098,1800,6.55029,-13.7832
-119,-776,5.72107,13.7787,0,0,0,0,0,0,0,-1,1105,1800,5.72106,-13.7787
-112,-776,6.84998,20.4421,0,0,0,0,0,0,0,-1,1112,1800,6.84993,-20.4421
-105,-776,2.15039,19.7095,0,0,0,0,0,0,0,-1,1119,1800,2.1504,-19.7095
-98,-776,3.92517,21.9519,0,0,0,0,0,0,0,-1,1126,1800,3.92517,-21.9519
-91,-776,3.30225,18.134,0,0,0,0,0,0,0,-1,1133,1800,3.30222,-18.134
-84,-776,2.67932,14.3162,0,0,0,0,0,0,0,-1,1140,1800,2.67926,-14.3161
-77,-776,0.580078,11.1272,0,0,0,0,0,0,0,-1,1147,1800,0.58002,-11.1272
-70,-776,-0.562866,12.3163,0,0,0,0,0,0,0,-1,1154,1800,-0.562897,-12.3163
-63,-776,-3.96106,9.97656,0,0,0,0,0,0,0,-1,1161,1800,-3.961,-9.97654
-56,-776,-7.35913,7.63672,0,0,0,0,0,0,0,-1,1168,1800,-7.3591,-7.63676
-49,-776,-7.62952,3.1908,0,0,0,0,0,0,0,-1,1175,1800,-7.62955,-3.19076
-42,-776,-3.41272,3.0249,0,0,0,0,0,0,0,-1,1182,1800,-3.41269,-3.02488
-35,-776,-3.71753,1.63635,0,0,0,0,0,0,0,-1,1189,1800,-3.71755,-1.63631
-28,-776,-4.03979,0.716064,0,0,0,0,0,0,0,-1,1196,1800,-4.03977,-0.716055
-21,-776,7.60083,30.3594,0,0,0,0,0,0,0,-1,1203,1800,7.60079,-30.3594
-14,-776,3.97144,32.172,0,0,0,0,0,0,0,-1,1210,1800,3.97142,-32.172
-7,-776,4.67456,31.8582,0,0,0,0,0,0,0,-1,1217,1800,4.67459,-31.8582
0,-776,5.6311,30.9851,0,0,0,0,0,0,0,-1,1224,1800,5.63111,-30.9851
7,-776,5.62244,29.3695,0,0,0,0,0,0,0,-1,1231,1800,5.62245,-29.3695
14,-776,6.34302,28.9104,0.0358155,0.025596,-0.0292858,0.060434,0.000977514,-0.699028,0.0399675,0.0429149,1238,1800,6.343,-28.9104
21,-776,7.06543,28.4426,0.0315274,0.026685,-0.0243289,0.0535553,0.00465714,-0.735801,0.0342568,0.0418914,1245,1800,7.06547,-28.4426
28,-776,7.15686,28.0729,0.0283106,0.0288113,-0.021329,0.0498914,0.00723052,-0.791268,0.0311319,0.0420823,1252,1800,7.15685,-28.0728
35,-776,6.79541,27.8904,0.0270599,0.0308886,-0.0182664,0.0473406,0.0106078,-0.837609,0.0286859,0.0438977,1259,1800,6.79542,-27.8904
42,-776,7.16687,29.2388,0,0,0,0,0,0,0,-1,1266,1800,7.1669,-29.2388
49,-776,6.49036,29.7085,0,0,0,0,0,0,0,-1,1273,1800,6.4904,-29.7085
56,-776,6.57104,29.572,0.032899,0.0380141,-0.0181961,0.0538315,0.0170816,-0.855219,0.0317636,0.044175,1280,1800,6.57102,-29.5721
63,-776,6.53918,29.4717,0.0355514,0.0370857,-0.0197897,0.0561231,0.016514,-0.804771,0.0333046,0.0461128,1287,1800,6.53916,-29.4717
70,-776,6.80713,28.5986,0.0372245,0.0344535,-0.0212592,0.0571433,0.0145347,-0.752859,0.0342932,0.0475222,1294,1800,6.80714,-28.5986
77,-776,5.7948,28.886,0,0,0,0,0,0,0,-1,1301,1800,5.79481,-28.886
84,-776,6.83069,28.8932,0.0389017,0.0243956,-0.0234795,0.0562229,0.00707443,-0.635593,0.0353605,0.0472797,1308,1800,6.83072,-28.8931
91,-776,7.88159,28.8608,0.0372762,0.016973,-0.0232355,0.052481,0.00176825,-0.579446,0.034413,0.0446772,1315,1800,7.88162,-28.8608
98,-776,8.91968,28.7799,0.0348402,0.00767255,-0.0219455,0.0470657,-0.004553,-0.508269,0.0329997,0.0476238,1322,1800,8.9197,-28.7799
105,-776,9.92053,28.7538,0,0,0,0,0,0,0,-1,1329,1800,9.92056,-28.7538
112,-776,6.76184,29.6558,0.0224787,-0.0157816,-0.0160059,0.0282916,-0.0215944,-0.348357,0.0288881,0.0465878,1336,1800,6.7618,-29.6558
119,-776,6.52905,30.1305,0.0130756,-0.0284066,-0.00984263,0.0152925,-0.0306235,-0.22154,0.0269977,0.0435209,1343,1800,6.52907,-30.1304
126,-776,6.3136,30.4491,0.00395832,-0.0407468,-0.0031881,0.00418453,-0.040973,-0.0708362,0.0288117,0.0437081,1350,1800,6.31363,-30.449
133,-776,6.22192,30.9,0,0,0,0,0,0,0,-1,1357,1800,6.22189,-30.9
140,-776,4.54187,28.328,0,0,0,0,0,0,0,-1,1364,1800,4.54182,-28.328
147,-776,4.8064,28.348,0,0,0,0,0,0,0,-1,1371,1800,4.80635,-28.3481
154,-776,6.43774,0.344116,0,0,0,0,0,0,0,-1,1378,1800,6.43776,-0.344162
161,-776,6.50293,1.1731,0,0,0,0,0,0,0,-1,1385,1800,6.5029,-1.17313
168,-776,8.44971,1.22913,0,0,0,0,0,0,0,-1,1392,1800,8.44974,-1.22915
175,-776,8.61523,2.87061,0,0,0,0,0,0,0,-1,1399,1800,8.6152,-2.87063
182,-776,8.54065,4.60645,0,0,0,0,0,0,0,-1,1406,1800,8.5407,-4.60643
189,-776,8.35303,6.28223,0,0,0,0,0,0,0,-1,1413,1800,8.35297,-6.28225
196,-776,8.0387,8.21704,0,0,0,0,0,0,0,-1,1420,1800,8.03865,-8.217
203,-776,7.91736,9.79919,0,0,0,0,0,0,0,-1,1427,1800,7.91735,-9.79922
210,-776,20.2479,7.85718,0,0,0,0,0,0,0,-1,1434,1800,20.248,-7.85719
217,-776,21.5171,9.3418,0,0,0,0,0,0,0,-1,1441,1800,21.5171,-9.34182
224,-776,3.09253,14.9313,0,0,0,0,0,0,0,-1,1448,1800,3.09254,-14.9313
231,-776,20.8671,9.21057,0,0,0,0,0,0,0,-1,1455,1800,20.867,-9.21054
238,-776,20.7511,9.05847,0,0,0,0,0,0,0,-1,1462,1800,20.7511,-9.05848
245,-776,3.80823,15.4108,0,0,0,0,0,0,0,-1,1469,1800,3.80826,-15.4108
252,-776,16.6313,6.47168,0,0,0,0,0,0,0,-1,1476,1800,16.6313,-6.47165
259,-776,14.1882,7.69055,0,0,0,0,0,0,0,-1,1483,1800,14.1882,-7.69061
266,-776,0,0,0,0,0,0,0,0,0,-1,1490,1800,0,0
273,-776,0,0,0,0,0,0,0,0,0,-1,1497,1800,0,0
280,-776,0,0,0,0,0,0,0,0,0,-1,1504,1800,0,0
287,-776,0,0,0,0,0,0,0,0,0,-1,1511,1800,0,0
294,-776,0,0,0,0,0,0,0,0,0,-1,1518,1800,0,0
301,-776,0,0,0,0,0,0,0,0,0,-1,1525,1800,0,0
308,-776,0,0,0,0,0,0,0,0,0,-1,1532,1800,0,0
315,-776,0,0,0,0,0,0,0,0,0,-1,1539,1800,0,0
322,-776,0,0,0,0,0,0,0,0,0,-1,1546,1800,0,0
329,-776,0,0,0,0,0,0,0,0,0,-1,1553,1800,0,0
336,-776,0,0,0,0,0,0,0,0,0,-1,1560,1800,0,0
343,-776,0,0,0,0,0,0,0,0,0,-1,1567,1800,0,0
350,-776,0,0,0,0,0,0,0,0,0,-1,1574,1800,0,0
357,-776,0,0,0,0,0,0,0,0,0,-1,1581,1800,0,0
364,-776,0,0,0,0,0,0,0,0,0,-1,1588,1800,0,0
371,-776,0,0,0,0,0,0,0,0,0,-1,1595,1800,0,0
378,-776,0,0,0,0,0,0,0,0,0,-1,1602,1800,0,0
385,-776,0,0,0,0,0,0,0,0,0,-1,1609,1800,0,0
392,-776,0,0,0,0,0,0,0,0,0,-1,1616,1800,0,0
399,-776,0,0,0,0,0,0,0,0,0,-1,1623,1800,0,0
406,-776,0,0,0,0,0,0,0,0,0,-1,1630,1800,0,0
413,-776,0,0,0,0,0,0,0,0,0,-1,1637,1800,0,0
420,-776,0,0,0,0,0,0,0,0,0,-1,1644,1800,0,0
427,-776,0,0,0,0,0,0,0,0,0,-1,1651,1800,0,0
434,-776,0,0,0,0,0,0,0,0,0,-1,1658,1800,0,0
441,-776,0,0,0,0,0,0,0,0,0,-1,1665,1800,0,0
448,-776,0,0,0,0,0,0,0,0,0,-1,1672,1800,0,0
455,-776,0,0,0,0,0,0,0,0,0,-1,1679,1800,0,0
462,-776,0,0,0,0,0,0,0,0,0,-1,1686,1800,0,0
469,-776,0,0,0,0,0,0,0,0,0,-1,1693,1800,0,0
476,-776,0,0,0,0,0,0,0,0,0,-1,1700,1800,0,0
483,-776,0,0,0,0,0,0,0,0,0,-1,1707,1800,0,0
490,-776,0,0,0,0,0,0,0,0,0,-1,1714,1800,0,0
497,-776,0,0,0,0,0,0,0,0,0,-1,1721,1800,0,0
504,-776,0,0,0,0,0,0,0,0,0,-1,1728,1800,0,0
511,-776,0,0,0,0,0,0,0,0,0,-1,1735,1800,0,0
518,-776,0,0,0,0,0,0,0,0,0,-1,1742,1800,0,0
525,-776,0,0,0,0,0,0,0,0,0,-1,1749,1800,0,0
532,-776,0,0,0,0,0,0,0,0,0,-1,1756,1800,0,0
539,-776,0,0,0,0,0,0,0,0,0,-1,1763,1800,0,0
546,-776,0,0,0,0,0,0,0,0,0,-1,1770,1800,0,0
553,-776,0,0,0,0,0,0,0,0,0,-1,1777,1800,0,0
560,-776,0,0,0,0,0,0,0,0,0,-1,1784,1800,0,0
567,-776,0,0,0,0,0,0,0,0,0,-1,1791,1800,0,0
574,-776,0,0,0,0,0,0,0,0,0,-1,1798,1800,0,0
581,-776,0,0,0,0,0,0,0,0,0,-1,1805,1800,0,0
588,-776,0,0,0,0,0,0,0,0,0,-1,1812,1800,0,0
595,-776,0,0,0,0,0,0,0,0,0,-1,1819,1800,0,0
602,-776,0,0,0,0,0,0,0,0,0,-1,1826,1800,0,0
609,-776,0,0,0,0,0,0,0,0,0,-1,1833,1800,0,0
616,-776,0,0,0,0,0,0,0,0,0,-1,1840,1800,0,0
623,-776,0,0,0,0,0,0,0,0,0,-1,1847,1800,0,0
630,-776,0,0,0,0,0,0,0,0,0,-1,1854,1800,0,0
637,-776,0,0,0,0,0,0,0,0,0,-1,1861,1800,0,0
644,-776,0,0,0,0,0,0,0,0,0,-1,1868,1800,0,0
651,-776,0,0,0,0,0,0,0,0,0,-1,1875,1800,0,0
658,-776,0,0,0,0,0,0,0,0,0,-1,1882,1800,0,0
665,-776,0,0,0,0,0,0,0,0,0,-1,1889,1800,0,0
672,-776,0,0,0,0,0,0,0,0,0,-1,1896,1800,0,0
679,-776,0,0,0,0,0,0,0,0,0,-1,1903,1800,0,0
686,-776,0,0,0,0,0,0,0,0,0,-1,1910,1800,0,0
693,-776,0,0,0,0,0,0,0,0,0,-1,1917,1800,0,0
700,-776,0,0,0,0,0,0,0,0,0,-1,1924,1800,0,0
707,-776,0,0,0,0,0,0,0,0,0,-1,1931,1800,0,0
714,-776,0,0,0,0,0,0,0,0,0,-1,1938,1800,0,0
721,-776,0,0,0,0,0,0,0,0,0,-1,1945,1800,0,0
728,-776,0,0,0,0,0,0,0,0,0,-1,1952,1800,0,0
735,-776,0,0,0,0,0,0,0,0,0,-1,1959,1800,0,0
742,-776,0,0,0,0,0,0,0,0,0,-1,1966,1800,0,0
749,-776,0,0,0,0,0,0,0,0,0,-1,1973,1800,0,0
756,-776,0,0,0,0,0,0,0,0,0,-1,1980,1800,0,0
763,-776,0,0,0,0,0,0,0,0,0,-1,1987,1800,0,0
770,-776,0,0,0,0,0,0,0,0,0,-1,1994,1800,0,0
777,-776,0,0,0,0,0,0,0,0,0,-1,2001,1800,0,0
784,-776,0,0,0,0,0,0,0,0,0,-1,2008,1800,0,0
791,-776,0,0,0,0,0,0,0,0,0,-1,2015,1800,0,0
798,-776,0,0,0,0,0,0,0,0,0,-1,2022,1800,0,0
805,-776,0,0,0,0,0,0,0,0,0,-1,2029,1800,0,0
812,-776,0,0,0,0,0,0,0,0,0,-1,2036,1800,0,0
-700,-783,0,0,0,0,0,0,0,0,0,-1,524,1807,0,0
-693,-783,0,0,0,0,0,0,0,0,0,-1,531,1807,0,0
-686,-783,0,0,0,0,0,0,0,0,0,-1,538,1807,0,0
-679,-783,0,0,0,0,0,0,0,0,0,-1,545,1807,0,0
-672,-783,0,0,0,0,0,0,0,0,0,-1,552,1807,0,0
-665,-783,0,0,0,0,0,0,0,0,0,-1,559,1807,0,0
-658,-783,0,0,0,0,0,0,0,0,0,-1,566,1807,0,0
-651,-783,0,0,0,0,0,0,0,0,0,-1,573,1807,0,0
-644,-783,0,0,0,0,0,0,0,0,0,-1,580,1807,0,0
-637,-783,0,0,0,0,0,0,0,0,0,-1,587,1807,0,0
-630,-783,0,0,0,0,0,0,0,0,0,-1,594,1807,0,0
-623,-783,0,0,0,0,0,0,0,0,0,-1,601,1807,0,0
-616,-783,0,0,0,0,0,0,0,0,0,-1,608,1807,0,0
-609,-783,0,0,0,0,0,0,0,0,0,-1,615,1807,0,0
-602,-783,0,0,0,0,0,0,0,0,0,-1,622,1807,0,0
-595,-783,0,0,0,0,0,0,0,0,0,-1,629,1807,0,0
-588,-783,0,0,0,0,0,0,0,0,0,-1,636,1807,0,0
-581,-783,0,0,0,0,0,0,0,0,0,-1,643,1807,0,0
-574,-783,0,0,0,0,0,0,0,0,0,-1,650,1807,0,0
-567,-783,0,0,0,0,0,0,0,0,0,-1,657,1807,0,0
-560,-783,0,0,0,0,0,0,0,0,0,-1,664,1807,0,0
-553,-783,0,0,0,0,0,0,0,0,0,-1,671,1807,0,0
-546,-783,0,0,0,0,0,0,0,0,0,-1,678,1807,0,0
-539,-783,0,0,0,0,0,0,0,0,0,-1,685,1807,0,0
-532,-783,0,0,0,0,0,0,0,0,0,-1,692,1807,0,0
-525,-783,0,0,0,0,0,0,0,0,0,-1,699,1807,0,0
-518,-783,0,0,0,0,0,0,0,0,0,-1,706,1807,0,0
-511,-783,0,0,0,0,0,0,0,0,0,-1,713,1807,0,0
-504,-783,0,0,0,0,0,0,0,0,0,-1,720,1807,0,0
-497,-783,0,0,0,0,0,0,0,0,0,-1,727,1807,0,0
-490,-783,0,0,0,0,0,0,0,0,0,-1,734,1807,0,0
-483,-783,0,0,0,0,0,0,0,0,0,-1,741,1807,0,0
-476,-783,0,0,0,0,0,0,0,0,0,-1,748,1807,0,0
-469,-783,0,0,0,0,0,0,0,0,0,-1,755,1807,0,0
-462,-783,0,0,0,0,0,0,0,0,0,-1,762,1807,0,0
-455,-783,0,0,0,0,0,0,0,0,0,-1,769,1807,0,0
-448,-783,0,0,0,0,0,0,0,0,0,-1,776,1807,0,0
-441,-783,0,0,0,0,0,0,0,0,0,-1,783,1807,0,0
-434,-783,0,0,0,0,0,0,0,0,0,-1,790,1807,0,0
-427,-783,0,0,0,0,0,0,0,0,0,-1,797,1807,0,0
-420,-783,0,0,0,0,0,0,0,0,0,-1,804,1807,0,0
-413,-783,0,0,0,0,0,0,0,0,0,-1,811,1807,0,0
-406,-783,0,0,0,0,0,0,0,0,0,-1,818,1807,0,0
-399,-783,0,0,0,0,0,0,0,0,0,-1,825,1807,0,0
-392,-783,0,0,0,0,0,0,0,0,0,-1,832,1807,0,0
-385,-783,0,0,0,0,0,0,0,0,0,-1,839,1807,0,0
-378,-783,0,0,0,0,0,0,0,0,0,-1,846,1807,0,0
-371,-783,0,0,0,0,0,0,0,0,0,-1,853,1807,0,0
-364,-783,0,0,0,0,0,0,0,0,0,-1,860,1807,0,0
-357,-783,0,0,0,0,0,0,0,0,0,-1,867,1807,0,0
-350,-783,0,0,0,0,0,0,0,0,0,-1,874,1807,0,0
-343,-783,0,0,0,0,0,0,0,0,0,-1,881,1807,0,0
-336,-783,0,0,0,0,0,0,0,0,0,-1,888,1807,0,0
-329,-783,0,0,0,0,0,0,0,0,0,-1,895,1807,0,0
-322,-783,0,0,0,0,0,0,0,0,0,-1,902,1807,0,0
-315,-783,0,0,0,0,0,0,0,0,0,-1,909,1807,0,0
-308,-783,0,0,0,0,0,0,0,0,0,-1,916,1807,0,0
-301,-783,0,0,0,0,0,0,0,0,0,-1,923,1807,0,0
-294,-783,0,0,0,0,0,0,0,0,0,-1,930,1807,0,0
-287,-783,0,0,0,0,0,0,0,0,0,-1,937,1807,0,0
-280,-783,0,0,0,0,0,0,0,0,0,-1,944,1807,0,0
-273,-783,0,0,0,0,0,0,0,0,0,-1,951,1807,0,0
-266,-783,0,0,0,0,0,0,0,0,0,-1,958,1807,0,0
-259,-783,0,0,0,0,0,0,0,0,0,-1,965,1807,0,0
-252,-783,0,0,0,0,0,0,0,0,0,-1,972,1807,0,0
-245,-783,0,0,0,0,0,0,0,0,0,-1,979,1807,0,0
-238,-783,0,0,0,0,0,0,0,0,0,-1,986,1807,0,0
-231,-783,0,0,0,0,0,0,0,0,0,-1,993,1807,0,0
-224,-783,0,0,0,0,0,0,0,0,0,-1,1000,1807,0,0
-217,-783,0,0,0,0,0,0,0,0,0,-1,1007,1807,0,0
-210,-783,0,0,0,0,0,0,0,0,0,-1,1014,1807,0,0
-203,-783,0,0,0,0,0,0,0,0,0,-1,1021,1807,0,0
-196,-783,0,0,0,0,0,0,0,0,0,-1,1028,1807,0,0
-189,-783,0,0,0,0,0,0,0,0,0,-1,1035,1807,0,0
-182,-783,0,0,0,0,0,0,0,0,0,-1,1042,1807,0,0
-175,-783,0,0,0,0,0,0,0,0,0,-1,1049,1807,0,0
-168,-783,0,0,0,0,0,0,0,0,0,-1,1056,1807,0,0
-161,-783,0,0,0,0,0,0,0,0,0,-1,1063,1807,0,0
-154,-783,0,0,0,0,0,0,0,0,0,-1,1070,1807,0,0
-147,-783,0,0,0,0,0,0,0,0,0,-1,1077,1807,0,0
-140,-783,0,0,0,0,0,0,0,0,0,-1,1084,1807,0,0
-133,-783,0,0,0,0,0,0,0,0,0,-1,1091,1807,0,0
-126,-783,0,0,0,0,0,0,0,0,0,-1,1098,1807,0,0
-119,-783,0,0,0,0,0,0,0,0,0,-1,1105,1807,0,0
-112,-783,5.33936,14.7699,0,0,0,0,0,0,0,-1,1112,1807,5.33931,-14.7699
-105,-783,6.44263,21.2224,0,0,0,0,0,0,0,-1,1119,1807,6.44263,-21.2224
-98,-783,5.54773,20.5695,0,0,0,0,0,0,0,-1,1126,1807,5.54772,-20.5695
-91,-783,2.6106,20.2491,0,0,0,0,0,0,0,-1,1133,1807,2.61056,-20.2492
-84,-783,-0.0491943,14.5743,0,0,0,0,0,0,0,-1,1140,1807,-0.0491562,-14.5743
-77,-783,0.332764,12.7788,0,0,0,0,0,0,0,-1,1147,1807,0.332743,-12.7788
-70,-783,-1.93176,5.12817,0,0,0,0,0,0,0,-1,1154,1807,-1.93171,-5.12813
-63,-783,-5.31702,10.54,0,0,0,0,0,0,0,-1,1161,1807,-5.31703,-10.54
-56,-783,-6.26135,6.9679,0,0,0,0,0,0,0,-1,1168,1807,-6.26136,-6.96785
-49,-783,-3.17688,4.59705,0,0,0,0,0,0,0,-1,1175,1807,-3.17685,-4.5971
-42,-783,-3.72876,3.1405,0,0,0,0,0,0,0,-1,1182,1807,-3.72874,-3.14055
-35,-783,-3.97046,1.59399,0,0,0,0,0,0,0,-1,1189,1807,-3.97041,-1.59401
-28,-783,-4.12195,0.270386,0,0,0,0,0,0,0,-1,1196,1807,-4.12197,-0.270408
-21,-783,3.90479,33.3453,0,0,0,0,0,0,0,-1,1203,1807,3.90481,-33.3454
-14,-783,4.43677,32.4908,0.0754829,0.0228316,-0.0654171,0.119673,-0.0213583,-0.5941,0.0877718,0.0461562,1210,1807,4.43674,-32.4908
-7,-783,4.93726,31.7953,0.0718787,0.0248731,-0.060627,0.113399,-0.0166472,-0.600486,0.0817157,0.0448494,1217,1807,4.93721,-31.7953
0,-783,5.72351,30.9094,0.0643581,0.0279376,-0.0539764,0.103113,-0.0108176,-0.622707,0.0726172,0.0440876,1224,1807,5.72356,-30.9095
7,-783,6.45728,29.8956,0.055488,0.0307214,-0.0451417,0.0899141,-0.00370467,-0.651531,0.061215,0.0435441,1231,1807,6.45733,-29.8956
14,-783,6.77209,28.6998,0.0477853,0.0327323,-0.0368328,0.0778527,0.00266491,-0.684614,0.0510367,0.045011,1238,1807,6.77214,-28.6999
21,-783,7.38306,28.1735,0.042603,0.0341612,-0.0303306,0.0690049,0.00775918,-0.716261,0.0436474,0.0475442,1245,1807,7.38307,-28.1734
28,-783,7.44556,27.5212,0,0,0,0,0,0,0,-1,1252,1807,7.4455,-27.5213
35,-783,7.1062,27.303,0.0371513,0.0394806,-0.0224869,0.060833,0.0157989,-0.811271,0.0364488,0.0471263,1259,1807,7.10618,-27.303
42,-783,6.76245,27.0955,0.0373545,0.0426875,-0.0203289,0.060524,0.019518,-0.850609,0.0356701,0.0463588,1266,1807,6.76241,-27.0954
49,-783,6.57288,29.2598,0.0401213,0.0455537,-0.0202083,0.0632275,0.0224475,-0.852204,0.0370124,0.0450752,1273,1807,6.57291,-29.2598
56,-783,6.23108,29.4159,0.0444655,0.0486181,-0.0220427,0.0686821,0.0244015,-0.832356,0.0402035,0.0483126,1280,1807,6.23104,-29.4159
63,-783,6.07776,29.4779,0.0478046,0.0474799,-0.0241209,0.0717637,0.0235208,-0.782033,0.0422444,0.0474799,1287,1807,6.07773,-29.4779
70,-783,7.15137,28.3253,0.049879,0.0442684,-0.0261182,0.0733422,0.0208053,-0.731899,0.0436452,0.0450556,1294,1807,7.15131,-28.3253
77,-783,5.42078,28.243,0.051276,0.0392566,-0.0276206,0.0735331,0.0169995,-0.678278,0.0444526,0.046433,1301,1807,5.42079,-28.243
84,-783,6.79175,28.2137,0.0518466,0.0321133,-0.0291532,0.0727576,0.0112024,-0.622228,0.0452357,0.0494261,1308,1807,6.79169,-28.2138
91,-783,7.57837,28.359,0.0494048,0.0228179,-0.0288945,0.0679172,0.00430556,-0.569801,0.0439133,0.046891,1315,1807,7.57841,-28.359
98,-783,8.58582,28.135,0.0458298,0.0109428,-0.0272418,0.0607343,-0.00396165,-0.500627,0.0418726,0.0495176,1322,1807,8.58588,-28.135
105,-783,9.56506,28.0834,0,0,0,0,0,0,0,-1,1329,1807,9.56508,-28.0834
112,-783,6.39587,30.9572,0.0286704,-0.0199551,-0.0193126,0.0354074,-0.0266921,-0.33564,0.0359707,0.0459232,1336,1807,6.3959,-30.9572
119,-783,6.33325,30.9746,0.0159087,-0.0368853,-0.0112798,0.0182177,-0.0391943,-0.201914,0.0338763,0.0429321,1343,1807,6.33328,-30.9746
126,-783,6.33691,31.0674,0.0033978,-0.0533818,-0.00286927,0.00354243,-0.0535264,-0.0503625,0.0369218,0.0462188,1350,1807,6.33692,-31.0674
133,-783,6.3999,31.2976,0,0,0,0,0,0,0,-1,1357,1807,6.3999,-31.2977
140,-783,6.79797,31.8633,0,0,0,0,0,0,0,-1,1364,1807,6.798,-31.8633
147,-783,-0.309937,27.2825,0,0,0,0,0,0,0,-1,1371,1807,-0.309948,-27.2825
154,-783,22.8251,14.2119,0,0,0,0,0,0,0,-1,1378,1807,22.8251,-14.2119
161,-783,6.57568,1.16174,0,0,0,0,0,0,0,-1,1385,1807,6.57562,-1.1617
168,-783,8.62561,1.79944,0,0,0,0,0,0,0,-1,1392,1807,8.62561,-1.79946
175,-783,8.78699,3.40857,0,0,0,0,0,0,0,-1,1399,1807,8.78697,-3.40854
182,-783,8.70984,5.14661,0,0,0,0,0,0,0,-1,1406,1807,8.70989,-5.14666
189,-783,8.55762,6.79871,0,0,0,0,0,0,0,-1,1413,1807,8.55766,-6.79872
196,-783,8.25488,8.66626,0,0,0,0,0,0,0,-1,1420,1807,8.25492,-8.66628
203,-783,7.86755,10.5735,0,0,0,0,0,0,0,-1,1427,1807,7.8676,-10.5734
210,-783,5.6969,8.99231,0,0,0,0,0,0,0,-1,1434,1807,5.69693,-8.99234
217,-783,5.28503,3.80872,0,0,0,0,0,0,0,-1,1441,1807,5.285,-3.80868
224,-783,3.22571,6.62903,0,0,0,0,0,0,0,-1,1448,1807,3.2257,-6.62907
231,-783,4.27942,4.56262,0,0,0,0,0,0,0,-1,1455,1807,4.27948,-4.56267
238,-783,0,0,0,0,0,0,0,0,0,-1,1462,1807,0,0
245,-783,0,0,0,0,0,0,0,0,0,-1,1469,1807,0,0
252,-783,0,0,0,0,0,0,0,0,0,-1,1476,1807,0,0
259,-783,0,0,0,0,0,0,0,0,0,-1,1483,1807,0,0
266,-783,0,0,0,0,0,0,0,0,0,-1,1490,1807,0,0
273,-783,0,0,0,0,0,0,0,0,0,-1,1497,1807,0,0
280,-783,0,0,0,0,0,0,0,0,0,-1,1504,1807,0,0
287,-783,0,0,0,0,0,0,0,0,0,-1,1511,1807,0,0
294,-783,0,0,0,0,0,0,0,0,0,-1,1518,1807,0,0
301,-783,0,0,0,0,0,0,0,0,0,-1,1525,1807,0,0
308,-783,0,0,0,0,0,0,0,0,0,-1,1532,1807,0,0
315,-783,0,0,0,0,0,0,0,0,0,-1,1539,1807,0,0
322,-783,0,0,0,0,0,0,0,0,0,-1,1546,1807,0,0
329,-783,0,0,0,0,0,0,0,0,0,-1,1553,1807,0,0
336,-783,0,0,0,0,0,0,0,0,0,-1,1560,1807,0,0
343,-783,0,0,0,0,0,0,0,0,0,-1,1567,1807,0,0
350,-783,0,0,0,0,0,0,0,0,0,-1,1574,1807,0,0
357,-783,0,0,0,0,0,0,0,0,0,-1,1581,1807,0,0
364,-783,0,0,0,0,0,0,0,0,0,-1,1588,1807,0,0
371,-783,0,0,0,0,0,0,0,0,0,-1,1595,1807,0,0
378,-783,0,0,0,0,0,0,0,0,0,-1,1602,1807,0,0
385,-783,0,0,0,0,0,0,0,0,0,-1,1609,1807,0,0
392,-783,0,0,0,0,0,0,0,0,0,-1,1616,1807,0,0
399,-783,0,0,0,0,0,0,0,0,0,-1,1623,1807,0,0
406,-783,0,0,0,0,0,0,0,0,0,-1,1630,1807,0,0
413,-783,0,0,0,0,0,0,0,0,0,-1,1637,1807,0,0
420,-783,0,0,0,0,0,0,0,0,0,-1,1644,1807,0,0
427,-783,0,0,0,0,0,0,0,0,0,-1,1651,1807,0,0
434,-783,0,0,0,0,0,0,0,0,0,-1,1658,1807,0,0
441,-783,0,0,0,0,0,0,0,0,0,-1,1665,1807,0,0
448,-783,0,0,0,0,0,0,0,0,0,-1,1672,1807,0,0
455,-783,0,0,0,0,0,0,0,0,0,-1,1679,1807,0,0
462,-783,0,0,0,0,0,0,0,0,0,-1,1686,1807,0,0
469,-783,0,0,0,0,0,0,0,0,0,-1,1693,1807,0,0
476,-783,0,0,0,0,0,0,0,0,0,-1,1700,1807,0,0
483,-783,0,0,0,0,0,0,0,0,0,-1,1707,1807,0,0
490,-783,0,0,0,0,0,0,0,0,0,-1,1714,1807,0,0
497,-783,0,0,0,0,0,0,0,0,0,-1,1721,1807,0,0
504,-783,0,0,0,0,0,0,0,0,0,-1,1728,1807,0,0
511,-783,0,0,0,0,0,0,0,0,0,-1,1735,1807,0,0
518,-783,0,0,0,0,0,0,0,0,0,-1,1742,1807,0,0
525,-783,0,0,0,0,0,0,0,0,0,-1,1749,1807,0,0
532,-783,0,0,0,0,0,0,0,0,0,-1,1756,1807,0,0
539,-783,0,0,0,0,0,0,0,0,0,-1,1763,1807,0,0
546,-783,0,0,0,0,0,0,0,0,0,-1,1770,1807,0,0
553,-783,0,0,0,0,0,0,0,0,0,-1,1777,1807,0,0
560,-783,0,0,0,0,0,0,0,0,0,-1,1784,1807,0,0
567,-783,0,0,0,0,0,0,0,0,0,-1,1791,1807,0,0
574,-783,0,0,0,0,0,0,0,0,0,-1,1798,1807,0,0
581,-783,0,0,0,0,0,0,0,0,0,-1,1805,1807,0,0
588,-783,0,0,0,0,0,0,0,0,0,-1,1812,1807,0,0
595,-783,0,0,0,0,0,0,0,0,0,-1,1819,1807,0,0
602,-783,0,0,0,0,0,0,0,0,0,-1,1826,1807,0,0
609,-783,0,0,0,0,0,0,0,0,0,-1,1833,1807,0,0
616,-783,0,0,0,0,0,0,0,0,0,-1,1840,1807,0,0
623,-783,0,0,0,0,0,0,0,0,0,-1,1847,1807,0,0
630,-783,0,0,0,0,0,0,0,0,0,-1,1854,1807,0,0
637,-783,0,0,0,0,0,0,0,0,0,-1,1861,1807,0,0
644,-783,0,0,0,0,0,0,0,0,0,-1,1868,1807,0,0
651,-783,0,0,0,0,0,0,0,0,0,-1,1875,1807,0,0
658,-783,0,0,0,0,0,0,0,0,0,-1,1882,1807,0,0
665,-783,0,0,0,0,0,0,0,0,0,-1,1889,1807,0,0
672,-783,0,0,0,0,0,0,0,0,0,-1,1896,1807,0,0
679,-783,0,0,0,0,0,0,0,0,0,-1,1903,1807,0,0
686,-783,0,0,0,0,0,0,0,0,0,-1,1910,1807,0,0
693,-783,0,0,0,0,0,0,0,0,0,-1,1917,1807,0,0
700,-783,0,0,0,0,0,0,0,0,0,-1,1924,1807,0,0
707,-783,0,0,0,0,0,0,0,0,0,-1,1931,1807,0,0
714,-783,0,0,0,0,0,0,0,0,0,-1,1938,1807,0,0
721,-783,0,0,0,0,0,0,0,0,0,-1,1945,1807,0,0
728,-783,0,0,0,0,0,0,0,0,0,-1,1952,1807,0,0
735,-783,0,0,0,0,0,0,0,0,0,-1,1959,1807,0,0
742,-783,0,0,0,0,0,0,0,0,0,-1,1966,1807,0,0
749,-783,0,0,0,0,0,0,0,0,0,-1,1973,1807,0,0
756,-783,0,0,0,0,0,0,0,0,0,-1,1980,1807,0,0
763,-783,0,0,0,0,0,0,0,0,0,-1,1987,1807,0,0
770,-783,0,0,0,0,0,0,0,0,0,-1,1994,1807,0,0
777,-783,0,0,0,0,0,0,0,0,0,-1,2001,1807,0,0
784,-783,0,0,0,0,0,0,0,0,0,-1,2008,1807,0,0
791,-783,0,0,0,0,0,0,0,0,0,-1,2015,1807,0,0
798,-783,0,0,0,0,0,0,0,0,0,-1,2022,1807,0,0
805,-783,0,0,0,0,0,0,0,0,0,-1,2029,1807,0,0
812,-783,0,0,0,0,0,0,0,0,0,-1,2036,1807,0,0
-700,-790,0,0,0,0,0,0,0,0,0,-1,524,1814,0,0
-693,-790,0,0,0,0,0,0,0,0,0,-1,531,1814,0,0
-686,-790,0,0,0,0,0,0,0,0,0,-1,538,1814,0,0
-679,-790,0,0,0,0,0,0,0,0,0,-1,545,1814,0,0
-672,-790,0,0,0,0,0,0,0,0,0,-1,552,1814,0,0
-665,-790,0,0,0,0,0,0,0,0,0,-1,559,1814,0,0
-658,-790,0,0,0,0,0,0,0,0,0,-1,566,1814,0,0
-651,-790,0,0,0,0,0,0,0,0,0,-1,573,1814,0,0
-644,-790,0,0,0,0,0,0,0,0,0,-1,580,1814,0,0
-637,-790,0,0,0,0,0,0,0,0,0,-1,587,1814,0,0
-630,-790,0,0,0,0,0,0,0,0,0,-1,594,1814,0,0
-623,-790,0,0,0,0,0,0,0,0,0,-1,601,1814,0,0
-616,-790,0,0,0,0,0,0,0,0,0,-1,608,1814,0,0
-609,-790,0,0,0,0,0,0,0,0,0,-1,615,1814,0,0
-602,-790,0,0,0,0,0,0,0,0,0,-1,622,1814,0,0
-595,-790,0,0,0,0,0,0,0,0,0,-1,629,1814,0,0
-588,-790,0,0,0,0,0,0,0,0,0,-1,636,1814,0,0
-581,-790,0,0,0,0,0,0,0,0,0,-1,643,1814,0,0
-574,-790,0,0,0,0,0,0,0,0,0,-1,650,1814,0,0
-567,-790,0,0,0,0,0,0,0,0,0,-1,657,1814,0,0
-560,-790,0,0,0,0,0,0,0,0,0,-1,664,1814,0,0
-553,-790,0,0,0,0,0,0,0,0,0,-1,671,1814,0,0
-546,-790,0,0,0,0,0,0,0,0,0,-1,678,1814,0,0
-539,-790,0,0,0,0,0,0,0,0,0,-1,685,1814,0,0
-532,-790,0,0,0,0,0,0,0,0,0,-1,692,1814,0,0
-525,-790,0,0,0,0,0,0,0,0,0,-1,699,1814,0,0
-518,-790,0,0,0,0,0,0,0,0,0,-1,706,1814,0,0
-511,-790,0,0,0,0,0,0,0,0,0,-1,713,1814,0,0
-504,-790,0,0,0,0,0,0,0,0,0,-1,720,1814,0,0
-497,-790,0,0,0,0,0,0,0,0,0,-1,727,1814,0,0
-490,-790,0,0,0,0,0,0,0,0,0,-1,734,1814,0,0
-483,-790,0,0,0,0,0,0,0,0,0,-1,741,1814,0,0
-476,-790,0,0,0,0,0,0,0,0,0,-1,748,1814,0,0
-469,-790,0,0,0,0,0,0,0,0,0,-1,755,1814,0,0
-462,-790,0,0,0,0,0,0,0,0,0,-1,762,1814,0,0
-455,-790,0,0,0,0,0,0,0,0,0,-1,769,1814,0,0
-448,-790,0,0,0,0,0,0,0,0,0,-1,776,1814,0,0
-441,-790,0,0,0,0,0,0,0,0,0,-1,783,1814,0,0
-434,-790,0,0,0,0,0,0,0,0,0,-1,790,1814,0,0
-427,-790,0,0,0,0,0,0,0,0,0,-1,797,1814,0,0
-420,-790,0,0,0,0,0,0,0,0,0,-1,804,1814,0,0
-413,-790,0,0,0,0,0,0,0,0,0,-1,811,1814,0,0
-406,-790,0,0,0,0,0,0,0,0,0,-1,818,1814,0,0
-399,-790,0,0,0,0,0,0,0,0,0,-1,825,1814,0,0
-392,-790,0,0,0,0,0,0,0,0,0,-1,832,1814,0,0
-385,-790,0,0,0,0,0,0,0,0,0,-1,839,1814,0,0
-378,-790,0,0,0,0,0,0,0,0,0,-1,846,1814,0,0
-371,-790,0,0,0,0,0,0,0,0,0,-1,853,1814,0,0
-364,-790,0,0,0,0,0,0,0,0,0,-1,860,1814,0,0
-357,-790,0,0,0,0,0,0,0,0,0,-1,867,1814,0,0
-350,-790,0,0,0,0,0,0,0,0,0,-1,874,1814,0,0
-343,-790,0,0,0,0,0,0,0,0,0,-1,881,1814,0,0
-336,-790,0,0,0,0,0,0,0,0,0,-1,888,1814,0,0
-329,-790,0,0,0,0,0,0,0,0,0,-1,895,1814,0,0
-322,-790,0,0,0,0,0,0,0,0,0,-1,902,1814,0,0
-315,-790,0,0,0,0,0,0,0,0,0,-1,909,1814,0,0
-308,-790,0,0,0,0,0,0,0,0,0,-1,916,1814,0,0
-301,-790,0,0,0,0,0,0,0,0,0,-1,923,1814,0,0
-294,-790,0,0,0,0,0,0,0,0,0,-1,930,1814,0,0
-287,-790,0,0,0,0,0,0,0,0,0,-1,937,1814,0,0
-280,-790,0,0,0,0,0,0,0,0,0,-1,944,1814,0,0
-273,-790,0,0,0,0,0,0,0,0,0,-1,951,1814,0,0
-266,-790,0,0,0,0,0,0,0,0,0,-1,958,1814,0,0
-259,-790,0,0,0,0,0,0,0,0,0,-1,965,1814,0,0
-252,-790,0,0,0,0,0,0,0,0,0,-1,972,1814,0,0
-245,-790,0,0,0,0,0,0,0,0,0,-1,979,1814,0,0
-238,-790,0,0,0,0,0,0,0,0,0,-1,986,1814,0,0
-231,-790,0,0,0,0,0,0,0,0,0,-1,993,1814,0,0
-224,-790,0,0,0,0,0,0,0,0,0,-1,1000,1814,0,0
-217,-790,0,0,0,0,0,0,0,0,0,-1,1007,1814,0,0
-210,-790,0,0,0,0,0,0,0,0,0,-1,1014,1814,0,0
-203,-790,0,0,0,0,0,0,0,0,0,-1,1021,1814,0,0
-196,-790,0,0,0,0,0,0,0,0,0,-1,1028,1814,0,0
-189,-790,0,0,0,0,0,0,0,0,0,-1,1035,1814,0,0
-182,-790,0,0,0,0,0,0,0,0,0,-1,1042,1814,0,0
-175,-790,0,0,0,0,0,0,0,0,0,-1,1049,1814,0,0
-168,-790,0,0,0,0,0,0,0,0,0,-1,1056,1814,0,0
-161,-790,0,0,0,0,0,0,0,0,0,-1,1063,1814,0,0
-154,-790,0,0,0,0,0,0,0,0,0,-1,1070,1814,0,0
-147,-790,0,0,0,0,0,0,0,0,0,-1,1077,1814,0,0
-140,-790,0,0,0,0,0,0,0,0,0,-1,1084,1814,0,0
-133,-790,0,0,0,0,0,0,0,0,0,-1,1091,1814,0,0
-126,-790,0,0,0,0,0,0,0,0,0,-1,1098,1814,0,0
-119,-790,0,0,0,0,0,0,0,0,0,-1,1105,1814,0,0
-112,-790,0,0,0,0,0,0,0,0,0,-1,1112,1814,0,0
-105,-790,0,0,0,0,0,0,0,0,0,-1,1119,1814,0,0
-98,-790,0,0,0,0,0,0,0,0,0,-1,1126,1814,0,0
-91,-790,0,0,0,0,0,0,0,0,0,-1,1133,1814,0,0
-84,-790,0,0,0,0,0,0,0,0,0,-1,1140,1814,0,0
-77,-790,-0.969238,5.30847,0,0,0,0,0,0,0,-1,1147,1814,-0.969277,-5.3085
-70,-790,-1.23169,4.98914,0,0,0,0,0,0,0,-1,1154,1814,-1.23163,-4.98916
-63,-790,-1.69128,4.32263,0,0,0,0,0,0,0,-1,1161,1814,-1.69128,-4.32258
-56,-790,-2.24756,3.75305,0,0,0,0,0,0,0,-1,1168,1814,-2.24758,-3.75302
-49,-790,-3.11011,3.35779,0,0,0,0,0,0,0,-1,1175,1814,-3.11006,-3.35781
-42,-790,0.593262,1.19165,0,0,0,0,0,0,0,-1,1182,1814,0.593225,-1.19165
-35,-790,0.307129,-0.20105,0,0,0,0,0,0,0,-1,1189,1814,0.307178,0.201006
-28,-790,-2.78467,0.785156,0,0,0,0,0,0,0,-1,1196,1814,-2.78471,-0.785183
-21,-790,4.22046,33.5687,0,0,0,0,0,0,0,-1,1203,1814,4.22043,-33.5688
-14,-790,4.7793,32.5431,0.0923045,0.0260116,-0.0803172,0.146046,-0.02773,-0.589697,0.107803,0.0470216,1210,1814,4.77931,-32.5431
-7,-790,5.17395,31.541,0.0903158,0.0299318,-0.0747195,0.140713,-0.0204651,-0.593393,0.101321,0.0472234,1217,1814,5.17395,-31.5411
0,-790,5.61047,30.5143,0.0817299,0.0342569,-0.0666432,0.128738,-0.0127508,-0.614316,0.0903757,0.0456186,1224,1814,5.61042,-30.5142
7,-790,6.20947,29.5317,0.0709629,0.0380566,-0.0552841,0.11219,-0.00317068,-0.640766,0.0758725,0.0437873,1231,1814,6.20945,-29.5317
14,-790,6.88684,28.751,0.0616664,0.0407523,-0.0447241,0.0971397,0.00527909,-0.670555,0.0630738,0.047156,1238,1814,6.88685,-28.7509
21,-790,7.49219,28.0492,0.0558446,0.0424692,-0.0366007,0.0863636,0.0119502,-0.695035,0.0540346,0.0487448,1245,1814,7.49219,-28.0492
28,-790,8.10034,27.3511,0,0,0,0,0,0,0,-1,1252,1814,8.10036,-27.3511
35,-790,7.39819,26.7302,0,0,0,0,0,0,0,-1,1259,1814,7.39823,-26.7302
42,-790,7.06946,26.5306,0.0498117,0.0527609,-0.0241749,0.0755062,0.0270664,-0.815859,0.0441718,0.0447709,1266,1814,7.06949,-26.5307
49,-790,5.8114,28.5768,0.0531107,0.0562631,-0.0238896,0.0786285,0.0307454,-0.81834,0.0457542,0.0467296,1273,1814,5.81144,-28.5768
56,-790,5.6123,28.8037,0.0585604,0.0601621,-0.0260879,0.0854615,0.0332611,-0.800742,0.0497434,0.0485469,1280,1814,5.61228,-28.8038
63,-790,5.4281,28.9487,0.0626852,0.0588719,-0.0287934,0.0896351,0.0319221,-0.752338,0.05246,0.04446,1287,1814,5.42809,-28.9487
70,-790,7.39807,27.9846,0.0651899,0.0550801,-0.0314931,0.0920313,0.0282388,-0.705823,0.0544399,0.0409768,1294,1814,7.39801,-27.9846
77,-790,8.25793,27.137,0.0668888,0.0493561,-0.0335862,0.0928339,0.023411,-0.657742,0.0557489,0.0442962,1301,1814,8.25791,-27.137
84,-790,6.44971,27.7322,0,0,0,0,0,0,0,-1,1308,1814,6.44973,-27.7322
91,-790,10.495,26.7466,0,0,0,0,0,0,0,-1,1315,1814,10.495,-26.7466
98,-790,8.36963,27.5709,0,0,0,0,0,0,0,-1,1322,1814,8.36967,-27.5709
105,-790,6.97009,31.4446,0,0,0,0,0,0,0,-1,1329,1814,6.97014,-31.4445
112,-790,6.69897,31.6553,0.0348027,-0.0248858,-0.022492,0.0423292,-0.0324123,-0.322915,0.0432784,0.0496575,1336,1814,6.69898,-31.6553
119,-790,6.40332,31.8029,0.0178308,-0.0470805,-0.0122171,0.020054,-0.0493038,-0.180009,0.0412136,0.0463556,1343,1814,6.4033,-31.8029
126,-790,6.24927,31.7258,0,0,0,0,0,0,0,-1,1350,1814,6.24921,-31.7258
133,-790,6.13464,31.9248,0,0,0,0,0,0,0,-1,1357,1814,6.1346,-31.9248
140,-790,6.46509,32.3086,0,0,0,0,0,0,0,-1,1364,1814,6.46505,-32.3086
147,-790,5.91211,33.0096,0,0,0,0,0,0,0,-1,1371,1814,5.91206,-33.0096
154,-790,31.2002,12.8408,0,0,0,0,0,0,0,-1,1378,1814,31.2001,-12.8408
161,-790,26.6003,11.7516,0,0,0,0,0,0,0,-1,1385,1814,26.6004,-11.7516
168,-790,7.04077,2.23279,0,0,0,0,0,0,0,-1,1392,1814,7.04082,-2.23275
175,-790,9.03918,3.98535,0,0,0,0,0,0,0,-1,1399,1814,9.0392,-3.98535
182,-790,8.96997,5.67896,0,0,0,0,0,0,0,-1,1406,1814,8.97001,-5.6789
189,-790,8.59729,6.86975,0,0,0,0,0,0,0,-1,1413,1814,8.59728,-6.86972
196,-790,8.21924,9.29053,0,0,0,0,0,0,0,-1,1420,1814,8.21924,-9.29048
203,-790,0,0,0,0,0,0,0,0,0,-1,1427,1814,0,0
210,-790,0,0,0,0,0,0,0,0,0,-1,1434,1814,0,0
217,-790,0,0,0,0,0,0,0,0,0,-1,1441,1814,0,0
224,-790,0,0,0,0,0,0,0,0,0,-1,1448,1814,0,0
231,-790,0,0,0,0,0,0,0,0,0,-1,1455,1814,0,0
238,-790,0,0,0,0,0,0,0,0,0,-1,1462,1814,0,0
245,-790,0,0,0,0,0,0,0,0,0,-1,1469,1814,0,0
252,-790,0,0,0,0,0,0,0,0,0,-1,1476,1814,0,0
259,-790,0,0,0,0,0,0,0,0,0,-1,1483,1814,0,0
266,-790,0,0,0,0,0,0,0,0,0,-1,1490,1814,0,0
273,-790,0,0,0,0,0,0,0,0,0,-1,1497,1814,0,0
280,-790,0,0,0,0,0,0,0,0,0,-1,1504,1814,0,0
287,-790,0,0,0,0,0,0,0,0,0,-1,1511,1814,0,0
294,-790,0,0,0,0,0,0,0,0,0,-1,1518,1814,0,0
301,-790,0,0,0,0,0,0,0,0,0,-1,1525,1814,0,0
308,-790,0,0,0,0,0,0,0,0,0,-1,1532,1814,0,0
315,-790,0,0,0,0,0,0,0,0,0,-1,1539,1814,0,0
322,-790,0,0,0,0,0,0,0,0,0,-1,1546,1814,0,0
329,-790,0,0,0,0,0,0,0,0,0,-1,1553,1814,0,0
336,-790,0,0,0,0,0,0,0,0,0,-1,1560,1814,0,0
343,-790,0,0,0,0,0,0,0,0,0,-1,1567,1814,0,0
350,-790,0,0,0,0,0,0,0,0,0,-1,1574,1814,0,0
357,-790,0,0,0,0,0,0,0,0,0,-1,1581,1814,0,0
364,-790,0,0,0,0,0,0,0,0,0,-1,1588,1814,0,0
371,-790,0,0,0,0,0,0,0,0,0,-1,1595,1814,0,0
378,-790,0,0,0,0,0,0,0,0,0,-1,1602,1814,0,0
385,-790,0,0,0,0,0,0,0,0,0,-1,1609,1814,0,0
392,-790,0,0,0,0,0,0,0,0,0,-1,1616,1814,0,0
399,-790,0,0,0,0,0,0,0,0,0,-1,1623,1814,0,0
406,-790,0,0,0,0,0,0,0,0,0,-1,1630,1814,0,0
413,-790,0,0,0,0,0,0,0,0,0,-1,1637,1814,0,0
420,-790,0,0,0,0,0,0,0,0,0,-1,1644,1814,0,0
427,-790,0,0,0,0,0,0,0,0,0,-1,1651,1814,0,0
434,-790,0,0,0,0,0,0,0,0,0,-1,1658,1814,0,0
441,-790,0,0,0,0,0,0,0,0,0,-1,1665,1814,0,0
448,-790,0,0,0,0,0,0,0,0,0,-1,1672,1814,0,0
455,-790,0,0,0,0,0,0,0,0,0,-1,1679,1814,0,0
462,-790,0,0,0,0,0,0,0,0,0,-1,1686,1814,0,0
469,-790,0,0,0,0,0,0,0,0,0,-1,1693,1814,0,0
476,-790,0,0,0,0,0,0,0,0,0,-1,1700,1814,0,0
483,-790,0,0,0,0,0,0,0,0,0,-1,1707,1814,0,0
490,-790,0,0,0,0,0,0,0,0,0,-1,1714,1814,0,0
497,-790,0,0,0,0,0,0,0,0,0,-1,1721,1814,0,0
504,-790,0,0,0,0,0,0,0,0,0,-1,1728,1814,0,0
511,-790,0,0,0,0,0,0,0,0,0,-1,1735,1814,0,0
518,-790,0,0,0,0,0,0,0,0,0,-1,1742,1814,0,0
525,-790,0,0,0,0,0,0,0,0,0,-1,1749,1814,0,0
532,-790,0,0,0,0,0,0,0,0,0,-1,1756,1814,0,0
539,-790,0,0,0,0,0,0,0,0,0,-1,1763,1814,0,0
546,-790,0,0,0,0,0,0,0,0,0,-1,1770,1814,0,0
553,-790,0,0,0,0,0,0,0,0,0,-1,1777,1814,0,0
560,-790,0,0,0,0,0,0,0,0,0,-1,1784,1814,0,0
567,-790,0,0,0,0,0,0,0,0,0,-1,1791,1814,0,0
574,-790,0,0,0,0,0,0,0,0,0,-1,1798,1814,0,0
581,-790,0,0,0,0,0,0,0,0,0,-1,1805,1814,0,0
588,-790,0,0,0,0,0,0,0,0,0,-1,1812,1814,0,0
595,-790,0,0,0,0,0,0,0,0,0,-1,1819,1814,0,0
602,-790,0,0,0,0,0,0,0,0,0,-1,1826,1814,0,0
609,-790,0,0,0,0,0,0,0,0,0,-1,1833,1814,0,0
616,-790,0,0,0,0,0,0,0,0,0,-1,1840,1814,0,0
623,-790,0,0,0,0,0,0,0,0,0,-1,1847,1814,0,0
630,-790,0,0,0,0,0,0,0,0,0,-1,1854,1814,0,0
637,-790,0,0,0,0,0,0,0,0,0,-1,1861,1814,0,0
644,-790,0,0,0,0,0,0,0,0,0,-1,1868,1814,0,0
651,-790,0,0,0,0,0,0,0,0,0,-1,1875,1814,0,0
658,-790,0,0,0,0,0,0,0,0,0,-1,1882,1814,0,0
665,-790,0,0,0,0,0,0,0,0,0,-1,1889,1814,0,0
672,-790,0,0,0,0,0,0,0,0,0,-1,1896,1814,0,0
679,-790,0,0,0,0,0,0,0,0,0,-1,1903,1814,0,0
686,-790,0,0,0,0,0,0,0,0,0,-1,1910,1814,0,0
693,-790,0,0,0,0,0,0,0,0,0,-1,1917,1814,0,0
700,-790,0,0,0,0,0,0,0,0,0,-1,1924,1814,0,0
707,-790,0,0,0,0,0,0,0,0,0,-1,1931,1814,0,0
714,-790,0,0,0,0,0,0,0,0,0,-1,1938,1814,0,0
721,-790,0,0,0,0,0,0,0,0,0,-1,1945,1814,0,0
728,-790,0,0,0,0,0,0,0,0,0,-1,1952,1814,0,0
735,-790,0,0,0,0,0,0,0,0,0,-1,1959,1814,0,0
742,-790,0,0,0,0,0,0,0,0,0,-1,1966,1814,0,0
749,-790,0,0,0,0,0,0,0,0,0,-1,1973,1814,0,0
756,-790,0,0,0,0,0,0,0,0,0,-1,1980,1814,0,0
763,-790,0,0,0,0,0,0,0,0,0,-1,1987,1814,0,0
770,-790,0,0,0,0,0,0,0,0,0,-1,1994,1814,0,0
777,-790,0,0,0,0,0,0,0,0,0,-1,2001,1814,0,0
784,-790,0,0,0,0,0,0,0,0,0,-1,2008,1814,0,0
791,-790,0,0,0,0,0,0,0,0,0,-1,2015,1814,0,0
798,-790,0,0,0,0,0,0,0,0,0,-1,2022,1814,0,0
805,-790,0,0,0,0,0,0,0,0,0,-1,2029,1814,0,0
812,-790,0,0,0,0,0,0,0,0,0,-1,2036,1814,0,0
-700,-797,0,0,0,0,0,0,0,0,0,-1,524,1821,0,0
-693,-797,0,0,0,0,0,0,0,0,0,-1,531,1821,0,0
-686,-797,0,0,0,0,0,0,0,0,0,-1,538,1821,0,0
-679,-797,0,0,0,0,0,0,0,0,0,-1,545,1821,0,0
-672,-797,0,0,0,0,0,0,0,0,0,-1,552,1821,0,0
-665,-797,0,0,0,0,0,0,0,0,0,-1,559,1821,0,0
-658,-797,0,0,0,0,0,0,0,0,0,-1,566,1821,0,0
-651,-797,0,0,0,0,0,0,0,0,0,-1,573,1821,0,0
-644,-797,0,0,0,0,0,0,0,0,0,-1,580,1821,0,0
-637,-797,0,0,0,0,0,0,0,0,0,-1,587,1821,0,0
-630,-797,0,0,0,0,0,0,0,0,0,-1,594,1821,0,0
-623,-797,0,0,0,0,0,0,0,0,0,-1,601,1821,0,0
-616,-797,0,0,0,0,0,0,0,0,0,-1,608,1821,0,0
-609,-797,0,0,0,0,0,0,0,0,0,-1,615,1821,0,0
-602,-797,0,0,0,0,0,0,0,0,0,-1,622,1821,0,0
-595,-797,0,0,0,0,0,0,0,0,0,-1,629,1821,0,0
-588,-797,0,0,0,0,0,0,0,0,0,-1,636,1821,0,0
-581,-797,0,0,0,0,0,0,0,0,0,-1,643,1821,0,0
-574,-797,0,0,0,0,0,0,0,0,0,-1,650,1821,0,0
-567,-797,0,0,0,0,0,0,0,0,0,-1,657,1821,0,0
-560,-797,0,0,0,0,0,0,0,0,0,-1,664,1821,0,0
-553,-797,0,0,0,0,0,0,0,0,0,-1,671,1821,0,0
-546,-797,0,0,0,0,0,0,0,0,0,-1,678,1821,0,0
-539,-797,0,0,0,0,0,0,0,0,0,-1,685,1821,0,0
-532,-797,0,0,0,0,0,0,0,0,0,-1,692,1821,0,0
-525,-797,0,0,0,0,0,0,0,0,0,-1,699,1821,0,0
-518,-797,0,0,0,0,0,0,0,0,0,-1,706,1821,0,0
-511,-797,0,0,0,0,0,0,0,0,0,-1,713,1821,0,0
-504,-797,0,0,0,0,0,0,0,0,0,-1,720,1821,0,0
-497,-797,0,0,0,0,0,0,0,0,0,-1,727,1821,0,0
-490,-797,0,0,0,0,0,0,0,0,0,-1,734,1821,0,0
-483,-797,0,0,0,0,0,0,0,0,0,-1,741,1821,0,0
-476,-797,0,0,0,0,0,0,0,0,0,-1,748,1821,0,0
-469,-797,0,0,0,0,0,0,0,0,0,-1,755,1821,0,0
-462,-797,0,0,0,0,0,0,0,0,0,-1,762,1821,0,0
-455,-797,0,0,0,0,0,0,0,0,0,-1,769,1821,0,0
-448,-797,0,0,0,0,0,0,0,0,0,-1,776,1821,0,0
-441,-797,0,0,0,0,0,0,0,0,0,-1,783,1821,0,0
-434,-797,0,0,0,0,0,0,0,0,0,-1,790,1821,0,0
-427,-797,0,0,0,0,0,0,0,0,0,-1,797,1821,0,0
-420,-797,0,0,0,0,0,0,0,0,0,-1,804,1821,0,0
-413,-797,0,0,0,0,0,0,0,0,0,-1,811,1821,0,0
-406,-797,0,0,0,0,0,0,0,0,0,-1,818,1821,0,0
-399,-797,0,0,0,0,0,0,0,0,0,-1,825,1821,0,0
-392,-797,0,0,0,0,0,0,0,0,0,-1,832,1821,0,0
-385,-797,0,0,0,0,0,0,0,0,0,-1,839,1821,0,0
-378,-797,0,0,0,0,0,0,0,0,0,-1,846,1821,0,0
-371,-797,0,0,0,0,0,0,0,0,0,-1,853,1821,0,0
-364,-797,0,0,0,0,0,0,0,0,0,-1,860,1821,0,0
-357,-797,0,0,0,0,0,0,0,0,0,-1,867,1821,0,0
-350,-797,0,0,0,0,0,0,0,0,0,-1,874,1821,0,0
-343,-797,0,0,0,0,0,0,0,0,0,-1,881,1821,0,0
-336,-797,0,0,0,0,0,0,0,0,0,-1,888,1821,0,0
-329,-797,0,0,0,0,0,0,0,0,0,-1,895,1821,0,0
-322,-797,0,0,0,0,0,0,0,0,0,-1,902,1821,0,0
-315,-797,0,0,0,0,0,0,0,0,0,-1,909,1821,0,0
-308,-797,0,0,0,0,0,0,0,0,0,-1,916,1821,0,0
-301,-797,0,0,0,0,0,0,0,0,0,-1,923,1821,0,0
-294,-797,0,0,0,0,0,0,0,0,0,-1,930,1821,0,0
-287,-797,0,0,0,0,0,0,0,0,0,-1,937,1821,0,0
-280,-797,0,0,0,0,0,0,0,0,0,-1,944,1821,0,0
-273,-797,0,0,0,0,0,0,0,0,0,-1,951,1821,0,0
-266,-797,0,0,0,0,0,0,0,0,0,-1,958,1821,0,0
-259,-797,0,0,0,0,0,0,0,0,0,-1,965,1821,0,0
-252,-797,0,0,0,0,0,0,0,0,0,-1,972,1821,0,0
-245,-797,0,0,0,0,0,0,0,0,0,-1,979,1821,0,0
-238,-797,0,0,0,0,0,0,0,0,0,-1,986,1821,0,0
-231,-797,0,0,0,0,0,0,0,0,0,-1,993,1821,0,0
-224,-797,0,0,0,0,0,0,0,0,0,-1,1000,1821,0,0
-217,-797,0,0,0,0,0,0,0,0,0,-1,1007,1821,0,0
-210,-797,0,0,0,0,0,0,0,0,0,-1,1014,1821,0,0
-203,-797,0,0,0,0,0,0,0,0,0,-1,1021,1821,0,0
-196,-797,0,0,0,0,0,0,0,0,0,-1,1028,1821,0,0
-189,-797,0,0,0,0,0,0,0,0,0,-1,1035,1821,0,0
-182,-797,0,0,0,0,0,0,0,0,0,-1,1042,1821,0,0
-175,-797,0,0,0,0,0,0,0,0,0,-1,1049,1821,0,0
-168,-797,0,0,0,0,0,0,0,0,0,-1,1056,1821,0,0
-161,-797,0,0,0,0,0,0,0,0,0,-1,1063,1821,0,0
-154,-797,0,0,0,0,0,0,0,0,0,-1,1070,1821,0,0
-147,-797,0,0,0,0,0,0,0,0,0,-1,1077,1821,0,0
-140,-797,0,0,0,0,0,0,0,0,0,-1,1084,1821,0,0
-133,-797,0,0,0,0,0,0,0,0,0,-1,1091,1821,0,0
-126,-797,0,0,0,0,0,0,0,0,0,-1,1098,1821,0,0
-119,-797,0,0,0,0,0,0,0,0,0,-1,1105,1821,0,0
-112,-797,0,0,0,0,0,0,0,0,0,-1,1112,1821,0,0
-105,-797,0,0,0,0,0,0,0,0,0,-1,1119,1821,0,0
-98,-797,0,0,0,0,0,0,0,0,0,-1,1126,1821,0,0
-91,-797,0,0,0,0,0,0,0,0,0,-1,1133,1821,0,0
-84,-797,0,0,0,0,0,0,0,0,0,-1,1140,1821,0,0
-77,-797,0,0,0,0,0,0,0,0,0,-1,1147,1821,0,0
-70,-797,0,0,0,0,0,0,0,0,0,-1,1154,1821,0,0
-63,-797,0,0,0,0,0,0,0,0,0,-1,1161,1821,0,0
-56,-797,0,0,0,0,0,0,0,0,0,-1,1168,1821,0,0
-49,-797,0,0,0,0,0,0,0,0,0,-1,1175,1821,0,0
-42,-797,0.579834,0.692871,0,0,0,0,0,0,0,-1,1182,1821,0.579856,-0.692816
-35,-797,-0.185425,5.55396,0,0,0,0,0,0,0,-1,1189,1821,-0.18542,-5.55396
-28,-797,-0.310181,4.71509,0,0,0,0,0,0,0,-1,1196,1821,-0.310228,-4.71503
-21,-797,6.50159,30.3633,0,0,0,0,0,0,0,-1,1203,1821,6.50164,-30.3632
-14,-797,5.00146,32.4198,0,0,0,0,0,0,0,-1,1210,1821,5.00142,-32.4198
-7,-797,5.36816,31.235,0,0,0,0,0,0,0,-1,1217,1821,5.36817,-31.2349
0,-797,5.53601,30.2899,0.100451,0.0418062,-0.0792314,0.155612,-0.0133546,-0.60817,0.108467,0.048634,1224,1821,5.53598,-30.2899
7,-797,5.91187,29.1216,0.0880265,0.0463829,-0.0650871,0.135541,-0.00113181,-0.630589,0.0907404,0.048127,1231,1821,5.91192,-29.1216
14,-797,6.88879,28.5551,0,0,0,0,0,0,0,-1,1238,1821,6.88877,-28.5551
21,-797,7.82275,27.4911,0.0715134,0.0514259,-0.0426942,0.105329,0.01761,-0.669874,0.0651478,0.0476553,1245,1821,7.82273,-27.4911
28,-797,8.65344,26.918,0,0,0,0,0,0,0,-1,1252,1821,8.65343,-26.9179
35,-797,9.46936,26.6918,0.064865,0.0587915,-0.0314553,0.0934298,0.0302267,-0.737276,0.0550503,0.0464618,1259,1821,9.46941,-26.6918
42,-797,10.2319,26.5498,0.0650093,0.0632177,-0.0280477,0.0921755,0.0360515,-0.769434,0.0536365,0.0482171,1266,1821,10.2319,-26.5498
49,-797,4.87732,28.0682,0.0687968,0.0673299,-0.0276034,0.0956765,0.0404502,-0.772115,0.055458,0.0464395,1273,1821,4.87734,-28.0683
56,-797,5.08069,28.4236,0.0754217,0.0721398,-0.0302075,0.104033,0.0435287,-0.758264,0.0603293,0.0448747,1280,1821,5.08065,-28.4236
63,-797,6.49255,28.7948,0.0804123,0.0708407,-0.0337244,0.109689,0.0415642,-0.714915,0.0639447,0.0436428,1287,1821,6.49251,-28.7949
70,-797,7.67773,27.7737,0.0833474,0.0665412,-0.0373526,0.11323,0.0366582,-0.674757,0.0667138,0.0401892,1294,1821,7.67767,-27.7737
77,-797,8.93372,27.0577,0.0852855,0.060229,-0.0402191,0.114882,0.0306321,-0.634411,0.0686932,0.0396712,1301,1821,8.93369,-27.0577
84,-797,9.74963,26.4833,0.0850357,0.0502805,-0.0425866,0.113654,0.0216625,-0.591683,0.0696799,0.0468314,1308,1821,9.74963,-26.4832
91,-797,10.2029,25.7733,0,0,0,0,0,0,0,-1,1315,1821,10.2029,-25.7733
98,-797,10.8348,24.8951,0,0,0,0,0,0,0,-1,1322,1821,10.8348,-24.8952
105,-797,6.99536,32.2307,0,0,0,0,0,0,0,-1,1329,1821,6.99532,-32.2307
112,-797,6.83301,32.3514,0.0400519,-0.0303714,-0.0251795,0.0481284,-0.038448,-0.310391,0.050089,0.0484956,1336,1821,6.83301,-32.3514
119,-797,6.73242,32.3773,0.0179067,-0.0588844,-0.0122615,0.019817,-0.0607947,-0.154556,0.0485042,0.0483393,1343,1821,6.73238,-32.3774
126,-797,6.45386,32.5035,0,0,0,0,0,0,0,-1,1350,1821,6.4538,-32.5035
133,-797,6.19336,32.606,0,0,0,0,0,0,0,-1,1357,1821,6.19338,-32.606
140,-797,6.11084,32.8335,0,0,0,0,0,0,0,-1,1364,1821,6.11088,-32.8334
147,-797,5.82178,33.3655,0,0,0,0,0,0,0,-1,1371,1821,5.82176,-33.3655
154,-797,31.4951,9.60852,0,0,0,0,0,0,0,-1,1378,1821,31.4951,-9.6085
161,-797,34.0564,8.97107,0,0,0,0,0,0,0,-1,1385,1821,34.0564,-8.97107
168,-797,0,0,0,0,0,0,0,0,0,-1,1392,1821,0,0
175,-797,0,0,0,0,0,0,0,0,0,-1,1399,1821,0,0
182,-797,0,0,0,0,0,0,0,0,0,-1,1406,1821,0,0
189,-797,0,0,0,0,0,0,0,0,0,-1,1413,1821,0,0
196,-797,0,0,0,0,0,0,0,0,0,-1,1420,1821,0,0
203,-797,0,0,0,0,0,0,0,0,0,-1,1427,1821,0,0
210,-797,0,0,0,0,0,0,0,0,0,-1,1434,1821,0,0
217,-797,0,0,0,0,0,0,0,0,0,-1,1441,1821,0,0
224,-797,0,0,0,0,0,0,0,0,0,-1,1448,1821,0,0
231,-797,0,0,0,0,0,0,0,0,0,-1,1455,1821,0,0
238,-797,0,0,0,0,0,0,0,0,0,-1,1462,1821,0,0
245,-797,0,0,0,0,0,0,0,0,0,-1,1469,1821,0,0
252,-797,0,0,0,0,0,0,0,0,0,-1,1476,1821,0,0
259,-797,0,0,0,0,0,0,0,0,0,-1,1483,1821,0,0
266,-797,0,0,0,0,0,0,0,0,0,-1,1490,1821,0,0
273,-797,0,0,0,0,0,0,0,0,0,-1,1497,1821,0,0
280,-797,0,0,0,0,0,0,0,0,0,-1,1504,1821,0,0
287,-797,0,0,0,0,0,0,0,0,0,-1,1511,1821,0,0
294,-797,0,0,0,0,0,0,0,0,0,-1,1518,1821,0,0
301,-797,0,0,0,0,0,0,0,0,0,-1,1525,1821,0,0
308,-797,0,0,0,0,0,0,0,0,0,-1,1532,1821,0,0
315,-797,0,0,0,0,0,0,0,0,0,-1,1539,1821,0,0
322,-797,0,0,0,0,0,0,0,0,0,-1,1546,1821,0,0
329,-797,0,0,0,0,0,0,0,0,0,-1,1553,1821,0,0
336,-797,0,0,0,0,0,0,0,0,0,-1,1560,1821,0,0
343,-797,0,0,0,0,0,0,0,0,0,-1,1567,1821,0,0
350,-797,0,0,0,0,0,0,0,0,0,-1,1574,1821,0,0
357,-797,0,0,0,0,0,0,0,0,0,-1,1581,1821,0,0
364,-797,0,0,0,0,0,0,0,0,0,-1,1588,1821,0,0
371,-797,0,0,0,0,0,0,0,0,0,-1,1595,1821,0,0
378,-797,0,0,0,0,0,0,0,0,0,-1,1602,1821,0,0
385,-797,0,0,0,0,0,0,0,0,0,-1,1609,1821,0,0
392,-797,0,0,0,0,0,0,0,0,0,-1,1616,1821,0,0
399,-797,0,0,0,0,0,0,0,0,0,-1,1623,1821,0,0
406,-797,0,0,0,0,0,0,0,0,0,-1,1630,1821,0,0
413,-797,0,0,0,0,0,0,0,0,0,-1,1637,1821,0,0
420,-797,0,0,0,0,0,0,0,0,0,-1,1644,1821,0,0
427,-797,0,0,0,0,0,0,0,0,0,-1,1651,1821,0,0
434,-797,0,0,0,0,0,0,0,0,0,-1,1658,1821,0,0
441,-797,0,0,0,0,0,0,0,0,0,-1,1665,1821,0,0
448,-797,0,0,0,0,0,0,0,0,0,-1,1672,1821,0,0
455,-797,0,0,0,0,0,0,0,0,0,-1,1679,1821,0,0
462,-797,0,0,0,0,0,0,0,0,0,-1,1686,1821,0,0
469,-797,0,0,0,0,0,0,0,0,0,-1,1693,1821,0,0
476,-797,0,0,0,0,0,0,0,0,0,-1,1700,1821,0,0
483,-797,0,0,0,0,0,0,0,0,0,-1,1707,1821,0,0
490,-797,0,0,0,0,0,0,0,0,0,-1,1714,1821,0,0
497,-797,0,0,0,0,0,0,0,0,0,-1,1721,1821,0,0
504,-797,0,0,0,0,0,0,0,0,0,-1,1728,1821,0,0
511,-797,0,0,0,0,0,0,0,0,0,-1,1735,1821,0,0
518,-797,0,0,0,0,0,0,0,0,0,-1,1742,1821,0,0
525,-797,0,0,0,0,0,0,0,0,0,-1,1749,1821,0,0
532,-797,0,0,0,0,0,0,0,0,0,-1,1756,1821,0,0
539,-797,0,0,0,0,0,0,0,0,0,-1,1763,1821,0,0
546,-797,0,0,0,0,0,0,0,0,0,-1,1770,1821,0,0
553,-797,0,0,0,0,0,0,0,0,0,-1,1777,1821,0,0
560,-797,0,0,0,0,0,0,0,0,0,-1,1784,1821,0,0
567,-797,0,0,0,0,0,0,0,0,0,-1,1791,1821,0,0
574,-797,0,0,0,0,0,0,0,0,0,-1,1798,1821,0,0
581,-797,0,0,0,0,0,0,0,0,0,-1,1805,1821,0,0
588,-797,0,0,0,0,0,0,0,0,0,-1,1812,1821,0,0
595,-797,0,0,0,0,0,0,0,0,0,-1,1819,1821,0,0
602,-797,0,0,0,0,0,0,0,0,0,-1,1826,1821,0,0
609,-797,0,0,0,0,0,0,0,0,0,-1,1833,1821,0,0
616,-797,0,0,0,0,0,0,0,0,0,-1,1840,1821,0,0
623,-797,0,0,0,0,0,0,0,0,0,-1,1847,1821,0,0
630,-797,0,0,0,0,0,0,0,0,0,-1,1854,1821,0,0
637,-797,0,0,0,0,0,0,0,0,0,-1,1861,1821,0,0
644,-797,0,0,0,0,0,0,0,0,0,-1,1868,1821,0,0
651,-797,0,0,0,0,0,0,0,0,0,-1,1875,1821,0,0
658,-797,0,0,0,0,0,0,0,0,0,-1,1882,1821,0,0
665,-797,0,0,0,0,0,0,0,0,0,-1,1889,1821,0,0
672,-797,0,0,0,0,0,0,0,0,0,-1,1896,1821,0,0
679,-797,0,0,0,0,0,0,0,0,0,-1,1903,1821,0,0
686,-797,0,0,0,0,0,0,0,0,0,-1,1910,1821,0,0
693,-797,0,0,0,0,0,0,0,0,0,-1,1917,1821,0,0
700,-797,0,0,0,0,0,0,0,0,0,-1,1924,1821,0,0
707,-797,0,0,0,0,0,0,0,0,0,-1,1931,1821,0,0
714,-797,0,0,0,0,0,0,0,0,0,-1,1938,1821,0,0
721,-797,0,0,0,0,0,0,0,0,0,-1,1945,1821,0,0
728,-797,0,0,0,0,0,0,0,0,0,-1,1952,1821,0,0
735,-797,0,0,0,0,0,0,0,0,0,-1,1959,1821,0,0
742,-797,0,0,0,0,0,0,0,0,0,-1,1966,1821,0,0
749,-797,0,0,0,0,0,0,0,0,0,-1,1973,1821,0,0
756,-797,0,0,0,0,0,0,0,0,0,-1,1980,1821,0,0
763,-797,0,0,0,0,0,0,0,0,0,-1,1987,1821,0,0
770,-797,0,0,0,0,0,0,0,0,0,-1,1994,1821,0,0
777,-797,0,0,0,0,0,0,0,0,0,-1,2001,1821,0,0
784,-797,0,0,0,0,0,0,0,0,0,-1,2008,1821,0,0
791,-797,0,0,0,0,0,0,0,0,0,-1,2015,1821,0,0
798,-797,0,0,0,0,0,0,0,0,0,-1,2022,1821,0,0
805,-797,0,0,0,0,0,0,0,0,0,-1,2029,1821,0,0
812,-797,0,0,0,0,0,0,0,0,0,-1,2036,1821,0,0
-700,-804,0,0,0,0,0,0,0,0,0,-1,524,1828,0,0
-693,-804,0,0,0,0,0,0,0,0,0,-1,531,1828,0,0
-686,-804,0,0,0,0,0,0,0,0,0,-1,538,1828,0,0
-679,-804,0,0,0,0,0,0,0,0,0,-1,545,1828,0,0
-672,-804,0,0,0,0,0,0,0,0,0,-1,552,1828,0,0
-665,-804,0,0,0,0,0,0,0,0,0,-1,559,1828,0,0
-658,-804,0,0,0,0,0,0,0,0,0,-1,566,1828,0,0
-651,-804,0,0,0,0,0,0,0,0,0,-1,573,1828,0,0
-644,-804,0,0,0,0,0,0,0,0,0,-1,580,1828,0,0
-637,-804,0,0,0,0,0,0,0,0,0,-1,587,1828,0,0
-630,-804,0,0,0,0,0,0,0,0,0,-1,594,1828,0,0
-623,-804,0,0,0,0,0,0,0,0,0,-1,601,1828,0,0
-616,-804,0,0,0,0,0,0,0,0,0,-1,608,1828,0,0
-609,-804,0,0,0,0,0,0,0,0,0,-1,615,1828,0,0
-602,-804,0,0,0,0,0,0,0,0,0,-1,622,1828,0,0
-595,-804,0,0,0,0,0,0,0,0,0,-1,629,1828,0,0
-588,-804,0,0,0,0,0,0,0,0,0,-1,636,1828,0,0
-581,-804,0,0,0,0,0,0,0,0,0,-1,643,1828,0,0
-574,-804,0,0,0,0,0,0,0,0,0,-1,650,1828,0,0
-567,-804,0,0,0,0,0,0,0,0,0,-1,657,1828,0,0
-560,-804,0,0,0,0,0,0,0,0,0,-1,664,1828,0,0
-553,-804,0,0,0,0,0,0,0,0,0,-1,671,1828,0,0
-546,-804,0,0,0,0,0,0,0,0,0,-1,678,1828,0,0
-539,-804,0,0,0,0,0,0,0,0,0,-1,685,1828,0,0
-532,-804,0,0,0,0,0,0,0,0,0,-1,692,1828,0,0
-525,-804,0,0,0,0,0,0,0,0,0,-1,699,1828,0,0
-518,-804,0,0,0,0,0,0,0,0,0,-1,706,1828,0,0
-511,-804,0,0,0,0,0,0,0,0,0,-1,713,1828,0,0
-504,-804,0,0,0,0,0,0,0,0,0,-1,720,1828,0,0
-497,-804,0,0,0,0,0,0,0,0,0,-1,727,1828,0,0
-490,-804,0,0,0,0,0,0,0,0,0,-1,734,1828,0,0
-483,-804,0,0,0,0,0,0,0,0,0,-1,741,1828,0,0
-476,-804,0,0,0,0,0,0,0,0,0,-1,748,1828,0,0
-469,-804,0,0,0,0,0,0,0,0,0,-1,755,1828,0,0
-462,-804,0,0,0,0,0,0,0,0,0,-1,762,1828,0,0
-455,-804,0,0,0,0,0,0,0,0,0,-1,769,1828,0,0
-448,-804,0,0,0,0,0,0,0,0,0,-1,776,1828,0,0
-441,-804,0,0,0,0,0,0,0,0,0,-1,783,1828,0,0
-434,-804,0,0,0,0,0,0,0,0,0,-1,790,1828,0,0
-427,-804,0,0,0,0,0,0,0,0,0,-1,797,1828,0,0
-420,-804,0,0,0,0,0,0,0,0,0,-1,804,1828,0,0
-413,-804,0,0,0,0,0,0,0,0,0,-1,811,1828,0,0
-406,-804,0,0,0,0,0,0,0,0,0,-1,818,1828,0,0
-399,-804,0,0,0,0,0,0,0,0,0,-1,825,1828,0,0
-392,-804,0,0,0,0,0,0,0,0,0,-1,832,1828,0,0
-385,-804,0,0,0,0,0,0,0,0,0,-1,839,1828,0,0
-378,-804,0,0,0,0,0,0,0,0,0,-1,846,1828,0,0
-371,-804,0,0,0,0,0,0,0,0,0,-1,853,1828,0,0
-364,-804,0,0,0,0,0,0,0,0,0,-1,860,1828,0,0
-357,-804,0,0,0,0,0,0,0,0,0,-1,867,1828,0,0
-350,-804,0,0,0,0,0,0,0,0,0,-1,874,1828,0,0
-343,-804,0,0,0,0,0,0,0,0,0,-1,881,1828,0,0
-336,-804,0,0,0,0,0,0,0,0,0,-1,888,1828,0,0
-329,-804,0,0,0,0,0,0,0,0,0,-1,895,1828,0,0
-322,-804,0,0,0,0,0,0,0,0,0,-1,902,1828,0,0
-315,-804,0,0,0,0,0,0,0,0,0,-1,909,1828,0,0
-308,-804,0,0,0,0,0,0,0,0,0,-1,916,1828,0,0
-301,-804,0,0,0,0,0,0,0,0,0,-1,923,1828,0,0
-294,-804,0,0,0,0,0,0,0,0,0,-1,930,1828,0,0
-287,-804,0,0,0,0,0,0,0,0,0,-1,937,1828,0,0
-280,-804,0,0,0,0,0,0,0,0,0,-1,944,1828,0,0
-273,-804,0,0,0,0,0,0,0,0,0,-1,951,1828,0,0
-266,-804,0,0,0,0,0,0,0,0,0,-1,958,1828,0,0
-259,-804,0,0,0,0,0,0,0,0,0,-1,965,1828,0,0
-252,-804,0,0,0,0,0,0,0,0,0,-1,972,1828,0,0
-245,-804,0,0,0,0,0,0,0,0,0,-1,979,1828,0,0
-238,-804,0,0,0,0,0,0,0,0,0,-1,986,1828,0,0
-231,-804,0,0,0,0,0,0,0,0,0,-1,993,1828,0,0
-224,-804,0,0,0,0,0,0,0,0,0,-1,1000,1828,0,0
-217,-804,0,0,0,0,0,0,0,0,0,-1,1007,1828,0,0
-210,-804,0,0,0,0,0,0,0,0,0,-1,1014,1828,0,0
-203,-804,0,0,0,0,0,0,0,0,0,-1,1021,1828,0,0
-196,-804,0,0,0,0,0,0,0,0,0,-1,1028,1828,0,0
-189,-804,0,0,0,0,0,0,0,0,0,-1,1035,1828,0,0
-182,-804,0,0,0,0,0,0,0,0,0,-1,1042,1828,0,0
-175,-804,0,0,0,0,0,0,0,0,0,-1,1049,1828,0,0
-168,-804,0,0,0,0,0,0,0,0,0,-1,1056,1828,0,0
-161,-804,0,0,0,0,0,0,0,0,0,-1,1063,1828,0,0
-154,-804,0,0,0,0,0,0,0,0,0,-1,1070,1828,0,0
-147,-804,0,0,0,0,0,0,0,0,0,-1,1077,1828,0,0
-140,-804,0,0,0,0,0,0,0,0,0,-1,1084,1828,0,0
-133,-804,0,0,0,0,0,0,0,0,0,-1,1091,1828,0,0
-126,-804,0,0,0,0,0,0,0,0,0,-1,1098,1828,0,0
-119,-804,0,0,0,0,0,0,0,0,0,-1,1105,1828,0,0
-112,-804,0,0,0,0,0,0,0,0,0,-1,1112,1828,0,0
-105,-804,0,0,0,0,0,0,0,0,0,-1,1119,1828,0,0
-98,-804,0,0,0,0,0,0,0,0,0,-1,1126,1828,0,0
-91,-804,0,0,0,0,0,0,0,0,0,-1,1133,1828,0,0
-84,-804,0,0,0,0,0,0,0,0,0,-1,1140,1828,0,0
-77,-804,0,0,0,0,0,0,0,0,0,-1,1147,1828,0,0
-70,-804,0,0,0,0,0,0,0,0,0,-1,1154,1828,0,0
-63,-804,0,0,0,0,0,0,0,0,0,-1,1161,1828,0,0
-56,-804,0,0,0,0,0,0,0,0,0,-1,1168,1828,0,0
-49,-804,0,0,0,0,0,0,0,0,0,-1,1175,1828,0,0
-42,-804,0,0,0,0,0,0,0,0,0,-1,1182,1828,0,0
-35,-804,0,0,0,0,0,0,0,0,0,-1,1189,1828,0,0
-28,-804,0,0,0,0,0,0,0,0,0,-1,1196,1828,0,0
-21,-804,0,0,0,0,0,0,0,0,0,-1,1203,1828,0,0
-14,-804,0,0,0,0,0,0,0,0,0,-1,1210,1828,0,0
-7,-804,0,0,0,0,0,0,0,0,0,-1,1217,1828,0,0
0,-804,0,0,0,0,0,0,0,0,0,-1,1224,1828,0,0
7,-804,0,0,0,0,0,0,0,0,0,-1,1231,1828,0,0
14,-804,0,0,0,0,0,0,0,0,0,-1,1238,1828,0,0
21,-804,0,0,0,0,0,0,0,0,0,-1,1245,1828,0,0
28,-804,0,0,0,0,0,0,0,0,0,-1,1252,1828,0,0
35,-804,9.73425,26.4448,0.0834934,0.0682293,-0.035711,0.112379,0.0393439,-0.680123,0.0658467,0.0445755,1259,1828,9.7342,-26.4449
42,-804,10.546,26.6276,0.0834539,0.0730331,-0.0317195,0.110388,0.0460989,-0.703993,0.0640204,0.0488423,1266,1828,10.546,-26.6276
49,-804,11.3533,26.7841,0,0,0,0,0,0,0,-1,1273,1828,11.3532,-26.7841
56,-804,4.21875,28.624,0,0,0,0,0,0,0,-1,1280,1828,4.21879,-28.624
63,-804,6.85461,28.4606,0,0,0,0,0,0,0,-1,1287,1828,6.85466,-28.4606
70,-804,7.94739,27.4314,0.104461,0.0779041,-0.0436952,0.136851,0.0455144,-0.637886,0.0804738,0.0447121,1294,1828,7.94735,-27.4314
77,-804,9.06018,26.3895,0.106458,0.0712689,-0.0475825,0.139595,0.0381321,-0.60831,0.0833139,0.0427239,1301,1828,9.0602,-26.3896
84,-804,9.40894,25.5762,0.104983,0.060124,-0.0503008,0.137629,0.0274786,-0.575675,0.0841027,0.0442424,1308,1828,9.40888,-25.5761
91,-804,0,0,0,0,0,0,0,0,0,-1,1315,1828,0,0
98,-804,0,0,0,0,0,0,0,0,0,-1,1322,1828,0,0
105,-804,0,0,0,0,0,0,0,0,0,-1,1329,1828,0,0
112,-804,0,0,0,0,0,0,0,0,0,-1,1336,1828,0,0
119,-804,0,0,0,0,0,0,0,0,0,-1,1343,1828,0,0
126,-804,0,0,0,0,0,0,0,0,0,-1,1350,1828,0,0
133,-804,0,0,0,0,0,0,0,0,0,-1,1357,1828,0,0
140,-804,0,0,0,0,0,0,0,0,0,-1,1364,1828,0,0
147,-804,0,0,0,0,0,0,0,0,0,-1,1371,1828,0,0
154,-804,0,0,0,0,0,0,0,0,0,-1,1378,1828,0,0
161,-804,0,0,0,0,0,0,0,0,0,-1,1385,1828,0,0
168,-804,0,0,0,0,0,0,0,0,0,-1,1392,1828,0,0
175,-804,0,0,0,0,0,0,0,0,0,-1,1399,1828,0,0
182,-804,0,0,0,0,0,0,0,0,0,-1,1406,1828,0,0
189,-804,0,0,0,0,0,0,0,0,0,-1,1413,1828,0,0
196,-804,0,0,0,0,0,0,0,0,0,-1,1420,1828,0,0
203,-804,0,0,0,0,0,0,0,0,0,-1,1427,1828,0,0
210,-804,0,0,0,0,0,0,0,0,0,-1,1434,1828,0,0
217,-804,0,0,0,0,0,0,0,0,0,-1,1441,1828,0,0
224,-804,0,0,0,0,0,0,0,0,0,-1,1448,1828,0,0
231,-804,0,0,0,0,0,0,0,0,0,-1,1455,1828,0,0
238,-804,0,0,0,0,0,0,0,0,0,-1,1462,1828,0,0
245,-804,0,0,0,0,0,0,0,0,0,-1,1469,1828,0,0
252,-804,0,0,0,0,0,0,0,0,0,-1,1476,1828,0,0
259,-804,0,0,0,0,0,0,0,0,0,-1,1483,1828,0,0
266,-804,0,0,0,0,0,0,0,0,0,-1,1490,1828,0,0
273,-804,0,0,0,0,0,0,0,0,0,-1,1497,1828,0,0
280,-804,0,0,0,0,0,0,0,0,0,-1,1504,1828,0,0
287,-804,0,0,0,0,0,0,0,0,0,-1,1511,1828,0,0
294,-804,0,0,0,0,0,0,0,0,0,-1,1518,1828,0,0
301,-804,0,0,0,0,0,0,0,0,0,-1,1525,1828,0,0
308,-804,0,0,0,0,0,0,0,0,0,-1,1532,1828,0,0
315,-804,0,0,0,0,0,0,0,0,0,-1,1539,1828,0,0
322,-804,0,0,0,0,0,0,0,0,0,-1,1546,1828,0,0
329,-804,0,0,0,0,0,0,0,0,0,-1,1553,1828,0,0
336,-804,0,0,0,0,0,0,0,0,0,-1,1560,1828,0,0
343,-804,0,0,0,0,0,0,0,0,0,-1,1567,1828,0,0
350,-804,0,0,0,0,0,0,0,0,0,-1,1574,1828,0,0
357,-804,0,0,0,0,0,0,0,0,0,-1,1581,1828,0,0
364,-804,0,0,0,0,0,0,0,0,0,-1,1588,1828,0,0
371,-804,0,0,0,0,0,0,0,0,0,-1,1595,1828,0,0
378,-804,0,0,0,0,0,0,0,0,0,-1,1602,1828,0,0
385,-804,0,0,0,0,0,0,0,0,0,-1,1609,1828,0,0
392,-804,0,0,0,0,0,0,0,0,0,-1,1616,1828,0,0
399,-804,0,0,0,0,0,0,0,0,0,-1,1623,1828,0,0
406,-804,0,0,0,0,0,0,0,0,0,-1,1630,1828,0,0
413,-804,0,0,0,0,0,0,0,0,0,-1,1637,1828,0,0
420,-804,0,0,0,0,0,0,0,0,0,-1,1644,1828,0,0
427,-804,0,0,0,0,0,0,0,0,0,-1,1651,1828,0,0
434,-804,0,0,0,0,0,0,0,0,0,-1,1658,1828,0,0
441,-804,0,0,0,0,0,0,0,0,0,-1,1665,1828,0,0
448,-804,0,0,0,0,0,0,0,0,0,-1,1672,1828,0,0
455,-804,0,0,0,0,0,0,0,0,0,-1,1679,1828,0,0
462,-804,0,0,0,0,0,0,0,0,0,-1,1686,1828,0,0
469,-804,0,0,0,0,0,0,0,0,0,-1,1693,1828,0,0
476,-804,0,0,0,0,0,0,0,0,0,-1,1700,1828,0,0
483,-804,0,0,0,0,0,0,0,0,0,-1,1707,1828,0,0
490,-804,0,0,0,0,0,0,0,0,0,-1,1714,1828,0,0
497,-804,0,0,0,0,0,0,0,0,0,-1,1721,1828,0,0
504,-804,0,0,0,0,0,0,0,0,0,-1,1728,1828,0,0
511,-804,0,0,0,0,0,0,0,0,0,-1,1735,1828,0,0
518,-804,0,0,0,0,0,0,0,0,0,-1,1742,1828,0,0
525,-804,0,0,0,0,0,0,0,0,0,-1,1749,1828,0,0
532,-804,0,0,0,0,0,0,0,0,0,-1,1756,1828,0,0
539,-804,0,0,0,0,0,0,0,0,0,-1,1763,1828,0,0
546,-804,0,0,0,0,0,0,0,0,0,-1,1770,1828,0,0
553,-804,0,0,0,0,0,0,0,0,0,-1,1777,1828,0,0
560,-804,0,0,0,0,0,0,0,0,0,-1,1784,1828,0,0
567,-804,0,0,0,0,0,0,0,0,0,-1,1791,1828,0,0
574,-804,0,0,0,0,0,0,0,0,0,-1,1798,1828,0,0
581,-804,0,0,0,0,0,0,0,0,0,-1,1805,1828,0,0
588,-804,0,0,0,0,0,0,0,0,0,-1,1812,1828,0,0
595,-804,0,0,0,0,0,0,0,0,0,-1,1819,1828,0,0
602,-804,0,0,0,0,0,0,0,0,0,-1,1826,1828,0,0
609,-804,0,0,0,0,0,0,0,0,0,-1,1833,1828,0,0
616,-804,0,0,0,0,0,0,0,0,0,-1,1840,1828,0,0
623,-804,0,0,0,0,0,0,0,0,0,-1,1847,1828,0,0
630,-804,0,0,0,0,0,0,0,0,0,-1,1854,1828,0,0
637,-804,0,0,0,0,0,0,0,0,0,-1,1861,1828,0,0
644,-804,0,0,0,0,0,0,0,0,0,-1,1868,1828,0,0
651,-804,0,0,0,0,0,0,0,0,0,-1,1875,1828,0,0
658,-804,0,0,0,0,0,0,0,0,0,-1,1882,1828,0,0
665,-804,0,0,0,0,0,0,0,0,0,-1,1889,1828,0,0
672,-804,0,0,0,0,0,0,0,0,0,-1,1896,1828,0,0
679,-804,0,0,0,0,0,0,0,0,0,-1,1903,1828,0,0
686,-804,0,0,0,0,0,0,0,0,0,-1,1910,1828,0,0
693,-804,0,0,0,0,0,0,0,0,0,-1,1917,1828,0,0
700,-804,0,0,0,0,0,0,0,0,0,-1,1924,1828,0,0
707,-804,0,0,0,0,0,0,0,0,0,-1,1931,1828,0,0
714,-804,0,0,0,0,0,0,0,0,0,-1,1938,1828,0,0
721,-804,0,0,0,0,0,0,0,0,0,-1,1945,1828,0,0
728,-804,0,0,0,0,0,0,0,0,0,-1,1952,1828,0,0
735,-804,0,0,0,0,0,0,0,0,0,-1,1959,1828,0,0
742,-804,0,0,0,0,0,0,0,0,0,-1,1966,1828,0,0
749,-804,0,0,0,0,0,0,0,0,0,-1,1973,1828,0,0
756,-804,0,0,0,0,0,0,0,0,0,-1,1980,1828,0,0
763,-804,0,0,0,0,0,0,0,0,0,-1,1987,1828,0,0
770,-804,0,0,0,0,0,0,0,0,0,-1,1994,1828,0,0
777,-804,0,0,0,0,0,0,0,0,0,-1,2001,1828,0,0
784,-804,0,0,0,0,0,0,0,0,0,-1,2008,1828,0,0
791,-804,0,0,0,0,0,0,0,0,0,-1,2015,1828,0,0
798,-804,0,0,0,0,0,0,0,0,0,-1,2022,1828,0,0
805,-804,0,0,0,0,0,0,0,0,0,-1,2029,1828,0,0
812,-804,0,0,0,0,0,0,0,0,0,-1,2036,1828,0,0

