 "x_c",  "y_c",  "u_c",  "v_c",  "exx",  "eyy",  "exy",  "e1",  "e2",  "gamma",  "e_vonmises",  "sigma",  "x",  "y",  "u",  "v"
-700,715,0,0,0,0,0,0,0,0,0,-1,524,309,0,0
-693,715,0,0,0,0,0,0,0,0,0,-1,531,309,0,0
-686,715,0,0,0,0,0,0,0,0,0,-1,538,309,0,0
-679,715,0,0,0,0,0,0,0,0,0,-1,545,309,0,0
-672,715,0,0,0,0,0,0,0,0,0,-1,552,309,0,0
-665,715,0,0,0,0,0,0,0,0,0,-1,559,309,0,0
-658,715,0,0,0,0,0,0,0,0,0,-1,566,309,0,0
-651,715,0,0,0,0,0,0,0,0,0,-1,573,309,0,0
-644,715,0,0,0,0,0,0,0,0,0,-1,580,309,0,0
-637,715,0,0,0,0,0,0,0,0,0,-1,587,309,0,0
-630,715,0,0,0,0,0,0,0,0,0,-1,594,309,0,0
-623,715,0,0,0,0,0,0,0,0,0,-1,601,309,0,0
-616,715,0,0,0,0,0,0,0,0,0,-1,608,309,0,0
-609,715,0,0,0,0,0,0,0,0,0,-1,615,309,0,0
-602,715,0,0,0,0,0,0,0,0,0,-1,622,309,0,0
-595,715,0,0,0,0,0,0,0,0,0,-1,629,309,0,0
-588,715,0,0,0,0,0,0,0,0,0,-1,636,309,0,0
-581,715,0,0,0,0,0,0,0,0,0,-1,643,309,0,0
-574,715,0,0,0,0,0,0,0,0,0,-1,650,309,0,0
-567,715,0,0,0,0,0,0,0,0,0,-1,657,309,0,0
-560,715,0,0,0,0,0,0,0,0,0,-1,664,309,0,0
-553,715,0,0,0,0,0,0,0,0,0,-1,671,309,0,0
-546,715,0,0,0,0,0,0,0,0,0,-1,678,309,0,0
-539,715,0,0,0,0,0,0,0,0,0,-1,685,309,0,0
-532,715,0,0,0,0,0,0,0,0,0,-1,692,309,0,0
-525,715,0,0,0,0,0,0,0,0,0,-1,699,309,0,0
-518,715,0,0,0,0,0,0,0,0,0,-1,706,309,0,0
-511,715,0,0,0,0,0,0,0,0,0,-1,713,309,0,0
-504,715,0,0,0,0,0,0,0,0,0,-1,720,309,0,0
-497,715,0,0,0,0,0,0,0,0,0,-1,727,309,0,0
-490,715,0,0,0,0,0,0,0,0,0,-1,734,309,0,0
-483,715,0,0,0,0,0,0,0,0,0,-1,741,309,0,0
-476,715,0,0,0,0,0,0,0,0,0,-1,748,309,0,0
-469,715,0,0,0,0,0,0,0,0,0,-1,755,309,0,0
-462,715,0,0,0,0,0,0,0,0,0,-1,762,309,0,0
-455,715,0,0,0,0,0,0,0,0,0,-1,769,309,0,0
-448,715,0,0,0,0,0,0,0,0,0,-1,776,309,0,0
-441,715,0,0,0,0,0,0,0,0,0,-1,783,309,0,0
-434,715,0,0,0,0,0,0,0,0,0,-1,790,309,0,0
-427,715,0,0,0,0,0,0,0,0,0,-1,797,309,0,0
-420,715,0,0,0,0,0,0,0,0,0,-1,804,309,0,0
-413,715,0,0,0,0,0,0,0,0,0,-1,811,309,0,0
-406,715,0,0,0,0,0,0,0,0,0,-1,818,309,0,0
-399,715,0,0,0,0,0,0,0,0,0,-1,825,309,0,0
-392,715,0,0,0,0,0,0,0,0,0,-1,832,309,0,0
-385,715,0,0,0,0,0,0,0,0,0,-1,839,309,0,0
-378,715,0,0,0,0,0,0,0,0,0,-1,846,309,0,0
-371,715,0,0,0,0,0,0,0,0,0,-1,853,309,0,0
-364,715,0,0,0,0,0,0,0,0,0,-1,860,309,0,0
-357,715,0,0,0,0,0,0,0,0,0,-1,867,309,0,0
-350,715,0,0,0,0,0,0,0,0,0,-1,874,309,0,0
-343,715,0,0,0,0,0,0,0,0,0,-1,881,309,0,0
-336,715,0,0,0,0,0,0,0,0,0,-1,888,309,0,0
-329,715,0,0,0,0,0,0,0,0,0,-1,895,309,0,0
-322,715,0,0,0,0,0,0,0,0,0,-1,902,309,0,0
-315,715,0,0,0,0,0,0,0,0,0,-1,909,309,0,0
-308,715,0,0,0,0,0,0,0,0,0,-1,916,309,0,0
-301,715,0,0,0,0,0,0,0,0,0,-1,923,309,0,0
-294,715,0,0,0,0,0,0,0,0,0,-1,930,309,0,0
-287,715,0,0,0,0,0,0,0,0,0,-1,937,309,0,0
-280,715,0,0,0,0,0,0,0,0,0,-1,944,309,0,0
-273,715,0,0,0,0,0,0,0,0,0,-1,951,309,0,0
-266,715,0,0,0,0,0,0,0,0,0,-1,958,309,0,0
-259,715,0,0,0,0,0,0,0,0,0,-1,965,309,0,0
-252,715,0,0,0,0,0,0,0,0,0,-1,972,309,0,0
-245,715,0,0,0,0,0,0,0,0,0,-1,979,309,0,0
-238,715,0,0,0,0,0,0,0,0,0,-1,986,309,0,0
-231,715,0,0,0,0,0,0,0,0,0,-1,993,309,0,0
-224,715,0,0,0,0,0,0,0,0,0,-1,1000,309,0,0
-217,715,0,0,0,0,0,0,0,0,0,-1,1007,309,0,0
-210,715,0,0,0,0,0,0,0,0,0,-1,1014,309,0,0
-203,715,0,0,0,0,0,0,0,0,0,-1,1021,309,0,0
-196,715,0,0,0,0,0,0,0,0,0,-1,1028,309,0,0
-189,715,0,0,0,0,0,0,0,0,0,-1,1035,309,0,0
-182,715,0,0,0,0,0,0,0,0,0,-1,1042,309,0,0
-175,715,0,0,0,0,0,0,0,0,0,-1,1049,309,0,0
-168,715,0,0,0,0,0,0,0,0,0,-1,1056,309,0,0
-161,715,0,0,0,0,0,0,0,0,0,-1,1063,309,0,0
-154,715,0,0,0,0,0,0,0,0,0,-1,1070,309,0,0
-147,715,0,0,0,0,0,0,0,0,0,-1,1077,309,0,0
-140,715,0,0,0,0,0,0,0,0,0,-1,1084,309,0,0
-133,715,0,0,0,0,0,0,0,0,0,-1,1091,309,0,0
-126,715,0,0,0,0,0,0,0,0,0,-1,1098,309,0,0
-119,715,0,0,0,0,0,0,0,0,0,-1,1105,309,0,0
-112,715,0,0,0,0,0,0,0,0,0,-1,1112,309,0,0
-105,715,0,0,0,0,0,0,0,0,0,-1,1119,309,0,0
-98,715,0,0,0,0,0,0,0,0,0,-1,1126,309,0,0
-91,715,0,0,0,0,0,0,0,0,0,-1,1133,309,0,0
-84,715,0,0,0,0,0,0,0,0,0,-1,1140,309,0,0
-77,715,0,0,0,0,0,0,0,0,0,-1,1147,309,0,0
-70,715,0,0,0,0,0,0,0,0,0,-1,1154,309,0,0
-63,715,0,0,0,0,0,0,0,0,0,-1,1161,309,0,0
-56,715,0,0,0,0,0,0,0,0,0,-1,1168,309,0,0
-49,715,0,0,0,0,0,0,0,0,0,-1,1175,309,0,0
-42,715,0,0,0,0,0,0,0,0,0,-1,1182,309,0,0
-35,715,0,0,0,0,0,0,0,0,0,-1,1189,309,0,0
-28,715,0,0,0,0,0,0,0,0,0,-1,1196,309,0,0
-21,715,0,0,0,0,0,0,0,0,0,-1,1203,309,0,0
-14,715,0,0,0,0,0,0,0,0,0,-1,1210,309,0,0
-7,715,0,0,0,0,0,0,0,0,0,-1,1217,309,0,0
0,715,0,0,0,0,0,0,0,0,0,-1,1224,309,0,0
7,715,0,0,0,0,0,0,0,0,0,-1,1231,309,0,0
14,715,0,0,0,0,0,0,0,0,0,-1,1238,309,0,0
21,715,0,0,0,0,0,0,0,0,0,-1,1245,309,0,0
28,715,0,0,0,0,0,0,0,0,0,-1,1252,309,0,0
35,715,0,0,0,0,0,0,0,0,0,-1,1259,309,0,0
42,715,0,0,0,0,0,0,0,0,0,-1,1266,309,0,0
49,715,0,0,0,0,0,0,0,0,0,-1,1273,309,0,0
56,715,0,0,0,0,0,0,0,0,0,-1,1280,309,0,0
63,715,8.69604,-8.7384,0.131763,0.0728872,0.144656,0.249946,-0.0452957,0.685017,0.183601,0.0437586,1287,309,8.69606,8.73839
70,715,7.83606,-9.61966,0.114237,0.0627514,0.140715,0.231544,-0.0545562,0.694927,0.1754,0.0448884,1294,309,7.83606,9.61966
77,715,0,0,0,0,0,0,0,0,0,-1,1301,309,0,0
84,715,0,0,0,0,0,0,0,0,0,-1,1308,309,0,0
91,715,0,0,0,0,0,0,0,0,0,-1,1315,309,0,0
98,715,0,0,0,0,0,0,0,0,0,-1,1322,309,0,0
105,715,0,0,0,0,0,0,0,0,0,-1,1329,309,0,0
112,715,0,0,0,0,0,0,0,0,0,-1,1336,309,0,0
119,715,0,0,0,0,0,0,0,0,0,-1,1343,309,0,0
126,715,0,0,0,0,0,0,0,0,0,-1,1350,309,0,0
133,715,0,0,0,0,0,0,0,0,0,-1,1357,309,0,0
140,715,0,0,0,0,0,0,0,0,0,-1,1364,309,0,0
147,715,0,0,0,0,0,0,0,0,0,-1,1371,309,0,0
154,715,0,0,0,0,0,0,0,0,0,-1,1378,309,0,0
161,715,0,0,0,0,0,0,0,0,0,-1,1385,309,0,0
168,715,0,0,0,0,0,0,0,0,0,-1,1392,309,0,0
175,715,0,0,0,0,0,0,0,0,0,-1,1399,309,0,0
182,715,0,0,0,0,0,0,0,0,0,-1,1406,309,0,0
189,715,0,0,0,0,0,0,0,0,0,-1,1413,309,0,0
196,715,0,0,0,0,0,0,0,0,0,-1,1420,309,0,0
203,715,0,0,0,0,0,0,0,0,0,-1,1427,309,0,0
210,715,0,0,0,0,0,0,0,0,0,-1,1434,309,0,0
217,715,0,0,0,0,0,0,0,0,0,-1,1441,309,0,0
224,715,0,0,0,0,0,0,0,0,0,-1,1448,309,0,0
231,715,0,0,0,0,0,0,0,0,0,-1,1455,309,0,0
238,715,0,0,0,0,0,0,0,0,0,-1,1462,309,0,0
245,715,0,0,0,0,0,0,0,0,0,-1,1469,309,0,0
252,715,0,0,0,0,0,0,0,0,0,-1,1476,309,0,0
259,715,0,0,0,0,0,0,0,0,0,-1,1483,309,0,0
266,715,0,0,0,0,0,0,0,0,0,-1,1490,309,0,0
273,715,0,0,0,0,0,0,0,0,0,-1,1497,309,0,0
280,715,0,0,0,0,0,0,0,0,0,-1,1504,309,0,0
287,715,0,0,0,0,0,0,0,0,0,-1,1511,309,0,0
294,715,0,0,0,0,0,0,0,0,0,-1,1518,309,0,0
301,715,0,0,0,0,0,0,0,0,0,-1,1525,309,0,0
308,715,0,0,0,0,0,0,0,0,0,-1,1532,309,0,0
315,715,0,0,0,0,0,0,0,0,0,-1,1539,309,0,0
322,715,0,0,0,0,0,0,0,0,0,-1,1546,309,0,0
329,715,0,0,0,0,0,0,0,0,0,-1,1553,309,0,0
336,715,0,0,0,0,0,0,0,0,0,-1,1560,309,0,0
343,715,0,0,0,0,0,0,0,0,0,-1,1567,309,0,0
350,715,0,0,0,0,0,0,0,0,0,-1,1574,309,0,0
357,715,0,0,0,0,0,0,0,0,0,-1,1581,309,0,0
364,715,0,0,0,0,0,0,0,0,0,-1,1588,309,0,0
371,715,0,0,0,0,0,0,0,0,0,-1,1595,309,0,0
378,715,0,0,0,0,0,0,0,0,0,-1,1602,309,0,0
385,715,0,0,0,0,0,0,0,0,0,-1,1609,309,0,0
392,715,0,0,0,0,0,0,0,0,0,-1,1616,309,0,0
399,715,0,0,0,0,0,0,0,0,0,-1,1623,309,0,0
406,715,0,0,0,0,0,0,0,0,0,-1,1630,309,0,0
413,715,0,0,0,0,0,0,0,0,0,-1,1637,309,0,0
420,715,0,0,0,0,0,0,0,0,0,-1,1644,309,0,0
427,715,0,0,0,0,0,0,0,0,0,-1,1651,309,0,0
434,715,0,0,0,0,0,0,0,0,0,-1,1658,309,0,0
441,715,0,0,0,0,0,0,0,0,0,-1,1665,309,0,0
448,715,0,0,0,0,0,0,0,0,0,-1,1672,309,0,0
455,715,0,0,0,0,0,0,0,0,0,-1,1679,309,0,0
462,715,0,0,0,0,0,0,0,0,0,-1,1686,309,0,0
469,715,0,0,0,0,0,0,0,0,0,-1,1693,309,0,0
476,715,0,0,0,0,0,0,0,0,0,-1,1700,309,0,0
483,715,0,0,0,0,0,0,0,0,0,-1,1707,309,0,0
490,715,0,0,0,0,0,0,0,0,0,-1,1714,309,0,0
497,715,0,0,0,0,0,0,0,0,0,-1,1721,309,0,0
504,715,0,0,0,0,0,0,0,0,0,-1,1728,309,0,0
511,715,0,0,0,0,0,0,0,0,0,-1,1735,309,0,0
518,715,0,0,0,0,0,0,0,0,0,-1,1742,309,0,0
525,715,0,0,0,0,0,0,0,0,0,-1,1749,309,0,0
532,715,0,0,0,0,0,0,0,0,0,-1,1756,309,0,0
539,715,0,0,0,0,0,0,0,0,0,-1,1763,309,0,0
546,715,0,0,0,0,0,0,0,0,0,-1,1770,309,0,0
553,715,0,0,0,0,0,0,0,0,0,-1,1777,309,0,0
560,715,0,0,0,0,0,0,0,0,0,-1,1784,309,0,0
567,715,0,0,0,0,0,0,0,0,0,-1,1791,309,0,0
574,715,0,0,0,0,0,0,0,0,0,-1,1798,309,0,0
581,715,0,0,0,0,0,0,0,0,0,-1,1805,309,0,0
588,715,0,0,0,0,0,0,0,0,0,-1,1812,309,0,0
595,715,0,0,0,0,0,0,0,0,0,-1,1819,309,0,0
602,715,0,0,0,0,0,0,0,0,0,-1,1826,309,0,0
609,715,0,0,0,0,0,0,0,0,0,-1,1833,309,0,0
616,715,0,0,0,0,0,0,0,0,0,-1,1840,309,0,0
623,715,0,0,0,0,0,0,0,0,0,-1,1847,309,0,0
630,715,0,0,0,0,0,0,0,0,0,-1,1854,309,0,0
637,715,0,0,0,0,0,0,0,0,0,-1,1861,309,0,0
644,715,0,0,0,0,0,0,0,0,0,-1,1868,309,0,0
651,715,0,0,0,0,0,0,0,0,0,-1,1875,309,0,0
658,715,0,0,0,0,0,0,0,0,0,-1,1882,309,0,0
665,715,0,0,0,0,0,0,0,0,0,-1,1889,309,0,0
672,715,0,0,0,0,0,0,0,0,0,-1,1896,309,0,0
679,715,0,0,0,0,0,0,0,0,0,-1,1903,309,0,0
686,715,0,0,0,0,0,0,0,0,0,-1,1910,309,0,0
693,715,0,0,0,0,0,0,0,0,0,-1,1917,309,0,0
700,715,0,0,0,0,0,0,0,0,0,-1,1924,309,0,0
707,715,0,0,0,0,0,0,0,0,0,-1,1931,309,0,0
714,715,0,0,0,0,0,0,0,0,0,-1,1938,309,0,0
721,715,0,0,0,0,0,0,0,0,0,-1,1945,309,0,0
728,715,0,0,0,0,0,0,0,0,0,-1,1952,309,0,0
735,715,0,0,0,0,0,0,0,0,0,-1,1959,309,0,0
742,715,0,0,0,0,0,0,0,0,0,-1,1966,309,0,0
749,715,0,0,0,0,0,0,0,0,0,-1,1973,309,0,0
756,715,0,0,0,0,0,0,0,0,0,-1,1980,309,0,0
763,715,0,0,0,0,0,0,0,0,0,-1,1987,309,0,0
770,715,0,0,0,0,0,0,0,0,0,-1,1994,309,0,0
777,715,0,0,0,0,0,0,0,0,0,-1,2001,309,0,0
784,715,0,0,0,0,0,0,0,0,0,-1,2008,309,0,0
791,715,0,0,0,0,0,0,0,0,0,-1,2015,309,0,0
798,715,0,0,0,0,0,0,0,0,0,-1,2022,309,0,0
805,715,0,0,0,0,0,0,0,0,0,-1,2029,309,0,0
812,715,0,0,0,0,0,0,0,0,0,-1,2036,309,0,0
-700,708,0,0,0,0,0,0,0,0,0,-1,524,316,0,0
-693,708,0,0,0,0,0,0,0,0,0,-1,531,316,0,0
-686,708,0,0,0,0,0,0,0,0,0,-1,538,316,0,0
-679,708,0,0,0,0,0,0,0,0,0,-1,545,316,0,0
-672,708,0,0,0,0,0,0,0,0,0,-1,552,316,0,0
-665,708,0,0,0,0,0,0,0,0,0,-1,559,316,0,0
-658,708,0,0,0,0,0,0,0,0,0,-1,566,316,0,0
-651,708,0,0,0,0,0,0,0,0,0,-1,573,316,0,0
-644,708,0,0,0,0,0,0,0,0,0,-1,580,316,0,0
-637,708,0,0,0,0,0,0,0,0,0,-1,587,316,0,0
-630,708,0,0,0,0,0,0,0,0,0,-1,594,316,0,0
-623,708,0,0,0,0,0,0,0,0,0,-1,601,316,0,0
-616,708,0,0,0,0,0,0,0,0,0,-1,608,316,0,0
-609,708,0,0,0,0,0,0,0,0,0,-1,615,316,0,0
-602,708,0,0,0,0,0,0,0,0,0,-1,622,316,0,0
-595,708,0,0,0,0,0,0,0,0,0,-1,629,316,0,0
-588,708,0,0,0,0,0,0,0,0,0,-1,636,316,0,0
-581,708,0,0,0,0,0,0,0,0,0,-1,643,316,0,0
-574,708,0,0,0,0,0,0,0,0,0,-1,650,316,0,0
-567,708,0,0,0,0,0,0,0,0,0,-1,657,316,0,0
-560,708,0,0,0,0,0,0,0,0,0,-1,664,316,0,0
-553,708,0,0,0,0,0,0,0,0,0,-1,671,316,0,0
-546,708,0,0,0,0,0,0,0,0,0,-1,678,316,0,0
-539,708,0,0,0,0,0,0,0,0,0,-1,685,316,0,0
-532,708,0,0,0,0,0,0,0,0,0,-1,692,316,0,0
-525,708,0,0,0,0,0,0,0,0,0,-1,699,316,0,0
-518,708,0,0,0,0,0,0,0,0,0,-1,706,316,0,0
-511,708,0,0,0,0,0,0,0,0,0,-1,713,316,0,0
-504,708,0,0,0,0,0,0,0,0,0,-1,720,316,0,0
-497,708,0,0,0,0,0,0,0,0,0,-1,727,316,0,0
-490,708,0,0,0,0,0,0,0,0,0,-1,734,316,0,0
-483,708,0,0,0,0,0,0,0,0,0,-1,741,316,0,0
-476,708,0,0,0,0,0,0,0,0,0,-1,748,316,0,0
-469,708,0,0,0,0,0,0,0,0,0,-1,755,316,0,0
-462,708,0,0,0,0,0,0,0,0,0,-1,762,316,0,0
-455,708,0,0,0,0,0,0,0,0,0,-1,769,316,0,0
-448,708,0,0,0,0,0,0,0,0,0,-1,776,316,0,0
-441,708,0,0,0,0,0,0,0,0,0,-1,783,316,0,0
-434,708,0,0,0,0,0,0,0,0,0,-1,790,316,0,0
-427,708,0,0,0,0,0,0,0,0,0,-1,797,316,0,0
-420,708,0,0,0,0,0,0,0,0,0,-1,804,316,0,0
-413,708,0,0,0,0,0,0,0,0,0,-1,811,316,0,0
-406,708,0,0,0,0,0,0,0,0,0,-1,818,316,0,0
-399,708,0,0,0,0,0,0,0,0,0,-1,825,316,0,0
-392,708,0,0,0,0,0,0,0,0,0,-1,832,316,0,0
-385,708,0,0,0,0,0,0,0,0,0,-1,839,316,0,0
-378,708,0,0,0,0,0,0,0,0,0,-1,846,316,0,0
-371,708,0,0,0,0,0,0,0,0,0,-1,853,316,0,0
-364,708,0,0,0,0,0,0,0,0,0,-1,860,316,0,0
-357,708,0,0,0,0,0,0,0,0,0,-1,867,316,0,0
-350,708,0,0,0,0,0,0,0,0,0,-1,874,316,0,0
-343,708,0,0,0,0,0,0,0,0,0,-1,881,316,0,0
-336,708,0,0,0,0,0,0,0,0,0,-1,888,316,0,0
-329,708,0,0,0,0,0,0,0,0,0,-1,895,316,0,0
-322,708,0,0,0,0,0,0,0,0,0,-1,902,316,0,0
-315,708,0,0,0,0,0,0,0,0,0,-1,909,316,0,0
-308,708,0,0,0,0,0,0,0,0,0,-1,916,316,0,0
-301,708,0,0,0,0,0,0,0,0,0,-1,923,316,0,0
-294,708,0,0,0,0,0,0,0,0,0,-1,930,316,0,0
-287,708,0,0,0,0,0,0,0,0,0,-1,937,316,0,0
-280,708,0,0,0,0,0,0,0,0,0,-1,944,316,0,0
-273,708,0,0,0,0,0,0,0,0,0,-1,951,316,0,0
-266,708,0,0,0,0,0,0,0,0,0,-1,958,316,0,0
-259,708,0,0,0,0,0,0,0,0,0,-1,965,316,0,0
-252,708,0,0,0,0,0,0,0,0,0,-1,972,316,0,0
-245,708,0,0,0,0,0,0,0,0,0,-1,979,316,0,0
-238,708,0,0,0,0,0,0,0,0,0,-1,986,316,0,0
-231,708,0,0,0,0,0,0,0,0,0,-1,993,316,0,0
-224,708,0,0,0,0,0,0,0,0,0,-1,1000,316,0,0
-217,708,0,0,0,0,0,0,0,0,0,-1,1007,316,0,0
-210,708,0,0,0,0,0,0,0,0,0,-1,1014,316,0,0
-203,708,0,0,0,0,0,0,0,0,0,-1,1021,316,0,0
-196,708,0,0,0,0,0,0,0,0,0,-1,1028,316,0,0
-189,708,0,0,0,0,0,0,0,0,0,-1,1035,316,0,0
-182,708,0,0,0,0,0,0,0,0,0,-1,1042,316,0,0
-175,708,0,0,0,0,0,0,0,0,0,-1,1049,316,0,0
-168,708,0,0,0,0,0,0,0,0,0,-1,1056,316,0,0
-161,708,0,0,0,0,0,0,0,0,0,-1,1063,316,0,0
-154,708,0,0,0,0,0,0,0,0,0,-1,1070,316,0,0
-147,708,0,0,0,0,0,0,0,0,0,-1,1077,316,0,0
-140,708,0,0,0,0,0,0,0,0,0,-1,1084,316,0,0
-133,708,0,0,0,0,0,0,0,0,0,-1,1091,316,0,0
-126,708,0,0,0,0,0,0,0,0,0,-1,1098,316,0,0
-119,708,0,0,0,0,0,0,0,0,0,-1,1105,316,0,0
-112,708,0,0,0,0,0,0,0,0,0,-1,1112,316,0,0
-105,708,0,0,0,0,0,0,0,0,0,-1,1119,316,0,0
-98,708,0,0,0,0,0,0,0,0,0,-1,1126,316,0,0
-91,708,0,0,0,0,0,0,0,0,0,-1,1133,316,0,0
-84,708,0,0,0,0,0,0,0,0,0,-1,1140,316,0,0
-77,708,0,0,0,0,0,0,0,0,0,-1,1147,316,0,0
-70,708,0,0,0,0,0,0,0,0,0,-1,1154,316,0,0
-63,708,0,0,0,0,0,0,0,0,0,-1,1161,316,0,0
-56,708,0,0,0,0,0,0,0,0,0,-1,1168,316,0,0
-49,708,0,0,0,0,0,0,0,0,0,-1,1175,316,0,0
-42,708,0,0,0,0,0,0,0,0,0,-1,1182,316,0,0
-35,708,-2.71204,-6.31558,0,0,0,0,0,0,0,-1,1189,316,-2.712,6.3156
-28,708,-2.92371,-5.53253,0,0,0,0,0,0,0,-1,1196,316,-2.92375,5.53254
-21,708,-5.32227,-7.36841,0,0,0,0,0,0,0,-1,1203,316,-5.32232,7.3684
-14,708,2.2572,-10.7642,0,0,0,0,0,0,0,-1,1210,316,2.25722,10.7642
-7,708,4.70288,-9.46448,0,0,0,0,0,0,0,-1,1217,316,4.70287,9.46448
0,708,3.86511,-8.90692,0,0,0,0,0,0,0,-1,1224,316,3.86513,8.90692
7,708,3.60962,-8.7742,0,0,0,0,0,0,0,-1,1231,316,3.60966,8.77419
14,708,3.36243,-8.59393,0,0,0,0,0,0,0,-1,1238,316,3.36245,8.59394
21,708,3.08582,-8.59799,0,0,0,0,0,0,0,-1,1245,316,3.08576,8.59798
28,708,2.87476,-8.53067,0,0,0,0,0,0,0,-1,1252,316,2.87473,8.53067
35,708,2.3761,-8.02213,0,0,0,0,0,0,0,-1,1259,316,2.37613,8.02213
42,708,7.29675,-11.8553,0,0,0,0,0,0,0,-1,1266,316,7.29674,11.8553
49,708,6.67224,-11.3856,0,0,0,0,0,0,0,-1,1273,316,6.67222,11.3856
56,708,1.9021,-8.96552,0,0,0,0,0,0,0,-1,1280,316,1.90206,8.96553
63,708,2.29492,-8.77005,0.102843,0.0498099,0.106362,0.185944,-0.0332906,0.663235,0.13642,0.0422391,1287,316,2.2949,8.77004
70,708,7.38574,-9.39746,0.0900798,0.0438808,0.104295,0.173803,-0.0398426,0.676417,0.131182,0.0428024,1294,316,7.38577,9.39747
77,708,6.37292,-9.92743,0.072789,0.0364069,0.100189,0.156425,-0.0472292,0.695593,0.123085,0.0409418,1301,316,6.37296,9.92743
84,708,5.25623,-10.0995,0.0514409,0.0267201,0.0932951,0.133191,-0.0550299,0.719538,0.111749,0.0436919,1308,316,5.25617,10.0995
91,708,4.62927,-9.97461,0.027816,0.0152295,0.0842072,0.105965,-0.0629193,0.7481,0.0985553,0.0453814,1315,316,4.62931,9.97462
98,708,4.28711,-10.229,0,0,0,0,0,0,0,-1,1322,316,4.28712,10.229
105,708,3.52087,-10.5256,0,0,0,0,0,0,0,-1,1329,316,3.52084,10.5256
112,708,2.93237,-10.3965,0,0,0,0,0,0,0,-1,1336,316,2.93235,10.3965
119,708,-0.484497,-10.3253,0,0,0,0,0,0,0,-1,1343,316,-0.48453,10.3253
126,708,-1.94275,-9.21149,0,0,0,0,0,0,0,-1,1350,316,-1.94273,9.21149
133,708,-3.22681,-8.05276,0,0,0,0,0,0,0,-1,1357,316,-3.22675,8.05276
140,708,-4.51648,-6.89447,0,0,0,0,0,0,0,-1,1364,316,-4.51652,6.89447
147,708,2.93713,-10.0973,0,0,0,0,0,0,0,-1,1371,316,2.93718,10.0973
154,708,0,0,0,0,0,0,0,0,0,-1,1378,316,0,0
161,708,0,0,0,0,0,0,0,0,0,-1,1385,316,0,0
168,708,0,0,0,0,0,0,0,0,0,-1,1392,316,0,0
175,708,0,0,0,0,0,0,0,0,0,-1,1399,316,0,0
182,708,0,0,0,0,0,0,0,0,0,-1,1406,316,0,0
189,708,0,0,0,0,0,0,0,0,0,-1,1413,316,0,0
196,708,0,0,0,0,0,0,0,0,0,-1,1420,316,0,0
203,708,0,0,0,0,0,0,0,0,0,-1,1427,316,0,0
210,708,0,0,0,0,0,0,0,0,0,-1,1434,316,0,0
217,708,0,0,0,0,0,0,0,0,0,-1,1441,316,0,0
224,708,0,0,0,0,0,0,0,0,0,-1,1448,316,0,0
231,708,0,0,0,0,0,0,0,0,0,-1,1455,316,0,0
238,708,0,0,0,0,0,0,0,0,0,-1,1462,316,0,0
245,708,0,0,0,0,0,0,0,0,0,-1,1469,316,0,0
252,708,0,0,0,0,0,0,0,0,0,-1,1476,316,0,0
259,708,0,0,0,0,0,0,0,0,0,-1,1483,316,0,0
266,708,0,0,0,0,0,0,0,0,0,-1,1490,316,0,0
273,708,0,0,0,0,0,0,0,0,0,-1,1497,316,0,0
280,708,0,0,0,0,0,0,0,0,0,-1,1504,316,0,0
287,708,0,0,0,0,0,0,0,0,0,-1,1511,316,0,0
294,708,0,0,0,0,0,0,0,0,0,-1,1518,316,0,0
301,708,0,0,0,0,0,0,0,0,0,-1,1525,316,0,0
308,708,0,0,0,0,0,0,0,0,0,-1,1532,316,0,0
315,708,0,0,0,0,0,0,0,0,0,-1,1539,316,0,0
322,708,0,0,0,0,0,0,0,0,0,-1,1546,316,0,0
329,708,0,0,0,0,0,0,0,0,0,-1,1553,316,0,0
336,708,0,0,0,0,0,0,0,0,0,-1,1560,316,0,0
343,708,0,0,0,0,0,0,0,0,0,-1,1567,316,0,0
350,708,0,0,0,0,0,0,0,0,0,-1,1574,316,0,0
357,708,0,0,0,0,0,0,0,0,0,-1,1581,316,0,0
364,708,0,0,0,0,0,0,0,0,0,-1,1588,316,0,0
371,708,0,0,0,0,0,0,0,0,0,-1,1595,316,0,0
378,708,0,0,0,0,0,0,0,0,0,-1,1602,316,0,0
385,708,0,0,0,0,0,0,0,0,0,-1,1609,316,0,0
392,708,0,0,0,0,0,0,0,0,0,-1,1616,316,0,0
399,708,0,0,0,0,0,0,0,0,0,-1,1623,316,0,0
406,708,0,0,0,0,0,0,0,0,0,-1,1630,316,0,0
413,708,0,0,0,0,0,0,0,0,0,-1,1637,316,0,0
420,708,0,0,0,0,0,0,0,0,0,-1,1644,316,0,0
427,708,0,0,0,0,0,0,0,0,0,-1,1651,316,0,0
434,708,0,0,0,0,0,0,0,0,0,-1,1658,316,0,0
441,708,0,0,0,0,0,0,0,0,0,-1,1665,316,0,0
448,708,0,0,0,0,0,0,0,0,0,-1,1672,316,0,0
455,708,0,0,0,0,0,0,0,0,0,-1,1679,316,0,0
462,708,0,0,0,0,0,0,0,0,0,-1,1686,316,0,0
469,708,0,0,0,0,0,0,0,0,0,-1,1693,316,0,0
476,708,0,0,0,0,0,0,0,0,0,-1,1700,316,0,0
483,708,0,0,0,0,0,0,0,0,0,-1,1707,316,0,0
490,708,0,0,0,0,0,0,0,0,0,-1,1714,316,0,0
497,708,0,0,0,0,0,0,0,0,0,-1,1721,316,0,0
504,708,0,0,0,0,0,0,0,0,0,-1,1728,316,0,0
511,708,0,0,0,0,0,0,0,0,0,-1,1735,316,0,0
518,708,0,0,0,0,0,0,0,0,0,-1,1742,316,0,0
525,708,0,0,0,0,0,0,0,0,0,-1,1749,316,0,0
532,708,0,0,0,0,0,0,0,0,0,-1,1756,316,0,0
539,708,0,0,0,0,0,0,0,0,0,-1,1763,316,0,0
546,708,0,0,0,0,0,0,0,0,0,-1,1770,316,0,0
553,708,0,0,0,0,0,0,0,0,0,-1,1777,316,0,0
560,708,0,0,0,0,0,0,0,0,0,-1,1784,316,0,0
567,708,0,0,0,0,0,0,0,0,0,-1,1791,316,0,0
574,708,0,0,0,0,0,0,0,0,0,-1,1798,316,0,0
581,708,0,0,0,0,0,0,0,0,0,-1,1805,316,0,0
588,708,0,0,0,0,0,0,0,0,0,-1,1812,316,0,0
595,708,0,0,0,0,0,0,0,0,0,-1,1819,316,0,0
602,708,0,0,0,0,0,0,0,0,0,-1,1826,316,0,0
609,708,0,0,0,0,0,0,0,0,0,-1,1833,316,0,0
616,708,0,0,0,0,0,0,0,0,0,-1,1840,316,0,0
623,708,0,0,0,0,0,0,0,0,0,-1,1847,316,0,0
630,708,0,0,0,0,0,0,0,0,0,-1,1854,316,0,0
637,708,0,0,0,0,0,0,0,0,0,-1,1861,316,0,0
644,708,0,0,0,0,0,0,0,0,0,-1,1868,316,0,0
651,708,0,0,0,0,0,0,0,0,0,-1,1875,316,0,0
658,708,0,0,0,0,0,0,0,0,0,-1,1882,316,0,0
665,708,0,0,0,0,0,0,0,0,0,-1,1889,316,0,0
672,708,0,0,0,0,0,0,0,0,0,-1,1896,316,0,0
679,708,0,0,0,0,0,0,0,0,0,-1,1903,316,0,0
686,708,0,0,0,0,0,0,0,0,0,-1,1910,316,0,0
693,708,0,0,0,0,0,0,0,0,0,-1,1917,316,0,0
700,708,0,0,0,0,0,0,0,0,0,-1,1924,316,0,0
707,708,0,0,0,0,0,0,0,0,0,-1,1931,316,0,0
714,708,0,0,0,0,0,0,0,0,0,-1,1938,316,0,0
721,708,0,0,0,0,0,0,0,0,0,-1,1945,316,0,0
728,708,0,0,0,0,0,0,0,0,0,-1,1952,316,0,0
735,708,0,0,0,0,0,0,0,0,0,-1,1959,316,0,0
742,708,0,0,0,0,0,0,0,0,0,-1,1966,316,0,0
749,708,0,0,0,0,0,0,0,0,0,-1,1973,316,0,0
756,708,0,0,0,0,0,0,0,0,0,-1,1980,316,0,0
763,708,0,0,0,0,0,0,0,0,0,-1,1987,316,0,0
770,708,0,0,0,0,0,0,0,0,0,-1,1994,316,0,0
777,708,0,0,0,0,0,0,0,0,0,-1,2001,316,0,0
784,708,0,0,0,0,0,0,0,0,0,-1,2008,316,0,0
791,708,0,0,0,0,0,0,0,0,0,-1,2015,316,0,0
798,708,0,0,0,0,0,0,0,0,0,-1,2022,316,0,0
805,708,0,0,0,0,0,0,0,0,0,-1,2029,316,0,0
812,708,0,0,0,0,0,0,0,0,0,-1,2036,316,0,0
-700,701,0,0,0,0,0,0,0,0,0,-1,524,323,0,0
-693,701,0,0,0,0,0,0,0,0,0,-1,531,323,0,0
-686,701,0,0,0,0,0,0,0,0,0,-1,538,323,0,0
-679,701,0,0,0,0,0,0,0,0,0,-1,545,323,0,0
-672,701,0,0,0,0,0,0,0,0,0,-1,552,323,0,0
-665,701,0,0,0,0,0,0,0,0,0,-1,559,323,0,0
-658,701,0,0,0,0,0,0,0,0,0,-1,566,323,0,0
-651,701,0,0,0,0,0,0,0,0,0,-1,573,323,0,0
-644,701,0,0,0,0,0,0,0,0,0,-1,580,323,0,0
-637,701,0,0,0,0,0,0,0,0,0,-1,587,323,0,0
-630,701,0,0,0,0,0,0,0,0,0,-1,594,323,0,0
-623,701,0,0,0,0,0,0,0,0,0,-1,601,323,0,0
-616,701,0,0,0,0,0,0,0,0,0,-1,608,323,0,0
-609,701,0,0,0,0,0,0,0,0,0,-1,615,323,0,0
-602,701,0,0,0,0,0,0,0,0,0,-1,622,323,0,0
-595,701,0,0,0,0,0,0,0,0,0,-1,629,323,0,0
-588,701,0,0,0,0,0,0,0,0,0,-1,636,323,0,0
-581,701,0,0,0,0,0,0,0,0,0,-1,643,323,0,0
-574,701,0,0,0,0,0,0,0,0,0,-1,650,323,0,0
-567,701,0,0,0,0,0,0,0,0,0,-1,657,323,0,0
-560,701,0,0,0,0,0,0,0,0,0,-1,664,323,0,0
-553,701,0,0,0,0,0,0,0,0,0,-1,671,323,0,0
-546,701,0,0,0,0,0,0,0,0,0,-1,678,323,0,0
-539,701,0,0,0,0,0,0,0,0,0,-1,685,323,0,0
-532,701,0,0,0,0,0,0,0,0,0,-1,692,323,0,0
-525,701,0,0,0,0,0,0,0,0,0,-1,699,323,0,0
-518,701,0,0,0,0,0,0,0,0,0,-1,706,323,0,0
-511,701,0,0,0,0,0,0,0,0,0,-1,713,323,0,0
-504,701,0,0,0,0,0,0,0,0,0,-1,720,323,0,0
-497,701,0,0,0,0,0,0,0,0,0,-1,727,323,0,0
-490,701,0,0,0,0,0,0,0,0,0,-1,734,323,0,0
-483,701,0,0,0,0,0,0,0,0,0,-1,741,323,0,0
-476,701,0,0,0,0,0,0,0,0,0,-1,748,323,0,0
-469,701,0,0,0,0,0,0,0,0,0,-1,755,323,0,0
-462,701,0,0,0,0,0,0,0,0,0,-1,762,323,0,0
-455,701,0,0,0,0,0,0,0,0,0,-1,769,323,0,0
-448,701,0,0,0,0,0,0,0,0,0,-1,776,323,0,0
-441,701,0,0,0,0,0,0,0,0,0,-1,783,323,0,0
-434,701,0,0,0,0,0,0,0,0,0,-1,790,323,0,0
-427,701,0,0,0,0,0,0,0,0,0,-1,797,323,0,0
-420,701,0,0,0,0,0,0,0,0,0,-1,804,323,0,0
-413,701,0,0,0,0,0,0,0,0,0,-1,811,323,0,0
-406,701,0,0,0,0,0,0,0,0,0,-1,818,323,0,0
-399,701,0,0,0,0,0,0,0,0,0,-1,825,323,0,0
-392,701,0,0,0,0,0,0,0,0,0,-1,832,323,0,0
-385,701,0,0,0,0,0,0,0,0,0,-1,839,323,0,0
-378,701,0,0,0,0,0,0,0,0,0,-1,846,323,0,0
-371,701,0,0,0,0,0,0,0,0,0,-1,853,323,0,0
-364,701,0,0,0,0,0,0,0,0,0,-1,860,323,0,0
-357,701,0,0,0,0,0,0,0,0,0,-1,867,323,0,0
-350,701,0,0,0,0,0,0,0,0,0,-1,874,323,0,0
-343,701,0,0,0,0,0,0,0,0,0,-1,881,323,0,0
-336,701,0,0,0,0,0,0,0,0,0,-1,888,323,0,0
-329,701,0,0,0,0,0,0,0,0,0,-1,895,323,0,0
-322,701,0,0,0,0,0,0,0,0,0,-1,902,323,0,0
-315,701,0,0,0,0,0,0,0,0,0,-1,909,323,0,0
-308,701,0,0,0,0,0,0,0,0,0,-1,916,323,0,0
-301,701,0,0,0,0,0,0,0,0,0,-1,923,323,0,0
-294,701,0,0,0,0,0,0,0,0,0,-1,930,323,0,0
-287,701,0,0,0,0,0,0,0,0,0,-1,937,323,0,0
-280,701,0,0,0,0,0,0,0,0,0,-1,944,323,0,0
-273,701,0,0,0,0,0,0,0,0,0,-1,951,323,0,0
-266,701,0,0,0,0,0,0,0,0,0,-1,958,323,0,0
-259,701,0,0,0,0,0,0,0,0,0,-1,965,323,0,0
-252,701,0,0,0,0,0,0,0,0,0,-1,972,323,0,0
-245,701,0,0,0,0,0,0,0,0,0,-1,979,323,0,0
-238,701,0,0,0,0,0,0,0,0,0,-1,986,323,0,0
-231,701,0,0,0,0,0,0,0,0,0,-1,993,323,0,0
-224,701,0,0,0,0,0,0,0,0,0,-1,1000,323,0,0
-217,701,0,0,0,0,0,0,0,0,0,-1,1007,323,0,0
-210,701,0,0,0,0,0,0,0,0,0,-1,1014,323,0,0
-203,701,0,0,0,0,0,0,0,0,0,-1,1021,323,0,0
-196,701,0,0,0,0,0,0,0,0,0,-1,1028,323,0,0
-189,701,0,0,0,0,0,0,0,0,0,-1,1035,323,0,0
-182,701,0,0,0,0,0,0,0,0,0,-1,1042,323,0,0
-175,701,0,0,0,0,0,0,0,0,0,-1,1049,323,0,0
-168,701,0,0,0,0,0,0,0,0,0,-1,1056,323,0,0
-161,701,0,0,0,0,0,0,0,0,0,-1,1063,323,0,0
-154,701,0,0,0,0,0,0,0,0,0,-1,1070,323,0,0
-147,701,0,0,0,0,0,0,0,0,0,-1,1077,323,0,0
-140,701,0,0,0,0,0,0,0,0,0,-1,1084,323,0,0
-133,701,0,0,0,0,0,0,0,0,0,-1,1091,323,0,0
-126,701,0,0,0,0,0,0,0,0,0,-1,1098,323,0,0
-119,701,0,0,0,0,0,0,0,0,0,-1,1105,323,0,0
-112,701,0,0,0,0,0,0,0,0,0,-1,1112,323,0,0
-105,701,0,0,0,0,0,0,0,0,0,-1,1119,323,0,0
-98,701,0,0,0,0,0,0,0,0,0,-1,1126,323,0,0
-91,701,0,0,0,0,0,0,0,0,0,-1,1133,323,0,0
-84,701,0,0,0,0,0,0,0,0,0,-1,1140,323,0,0
-77,701,0,0,0,0,0,0,0,0,0,-1,1147,323,0,0
-70,701,-2.36731,-1.49271,0,0,0,0,0,0,0,-1,1154,323,-2.36729,1.4927
-63,701,-2.479,-0.295959,0,0,0,0,0,0,0,-1,1161,323,-2.47895,0.295961
-56,701,-0.420166,-0.101776,0,0,0,0,0,0,0,-1,1168,323,-0.420119,0.101777
-49,701,-1.09021,-0.155762,0,0,0,0,0,0,0,-1,1175,323,-1.09024,0.155768
-42,701,-0.210327,-0.299133,0,0,0,0,0,0,0,-1,1182,323,-0.210379,0.29914
-35,701,-2.9635,-7.98676,0,0,0,0,0,0,0,-1,1189,323,-2.9635,7.98676
-28,701,-6.64417,-5.4917,0,0,0,0,0,0,0,-1,1196,323,-6.64411,5.4917
-21,701,-5.11584,-5.84219,0,0,0,0,0,0,0,-1,1203,323,-5.11583,5.8422
-14,701,3.48462,-9.72348,0,0,0,0,0,0,0,-1,1210,323,3.4846,9.72348
-7,701,3.74634,-9.46732,0,0,0,0,0,0,0,-1,1217,323,3.74632,9.46732
0,701,3.21826,-8.78455,0,0,0,0,0,0,0,-1,1224,323,3.21822,8.78453
7,701,3.03564,-8.60715,0,0,0,0,0,0,0,-1,1231,323,3.03569,8.60714
14,701,2.68103,-8.04318,0,0,0,0,0,0,0,-1,1238,323,2.68106,8.04319
21,701,3.13245,-9.16699,0,0,0,0,0,0,0,-1,1245,323,3.13245,9.16699
28,701,0.300903,-10.4907,0,0,0,0,0,0,0,-1,1252,323,0.300851,10.4907
35,701,2.15051,-8.28952,0,0,0,0,0,0,0,-1,1259,323,2.15052,8.28953
42,701,1.41895,-10.6005,0,0,0,0,0,0,0,-1,1266,323,1.419,10.6005
49,701,1.41797,-10.0132,0,0,0,0,0,0,0,-1,1273,323,1.41794,10.0132
56,701,2.4574,-9.73441,0,0,0,0,0,0,0,-1,1280,323,2.45742,9.7344
63,701,2.32251,-9.27533,0,0,0,0,0,0,0,-1,1287,323,2.32257,9.27533
70,701,2.65088,-9.04987,0,0,0,0,0,0,0,-1,1294,323,2.6509,9.04986
77,701,2.40454,-9.13235,0.0559578,0.0266828,0.0740913,0.116844,-0.0342031,0.687874,0.0914542,0.0420384,1301,323,2.40452,9.13236
84,701,2.62451,-9.11456,0.0398549,0.0206607,0.0695895,0.100506,-0.0399904,0.716875,0.0835861,0.044147,1308,323,2.62456,9.11456
91,701,3.24487,-8.95685,0.0216845,0.0128847,0.0629859,0.080424,-0.0458548,0.750527,0.0738121,0.0454995,1315,323,3.24489,8.95684
98,701,3.80652,-9.69949,0,0,0,0,0,0,0,-1,1322,323,3.80652,9.69949
105,701,3.24744,-10.0224,-0.013074,-0.00133864,0.0468872,0.0400467,-0.0544593,0.847647,0.0547741,0.0462005,1329,323,3.24749,10.0224
112,701,2.68286,-10.1381,-0.0283992,-0.00768983,0.037864,0.0212098,-0.0572988,0.91887,0.0468961,0.047433,1336,323,2.68283,10.138
119,701,2.10571,-10.4763,0,0,0,0,0,0,0,-1,1343,323,2.10577,10.4763
126,701,-1.62537,-8.08109,0,0,0,0,0,0,0,-1,1350,323,-1.62535,8.08109
133,701,2.54688,-6.82736,0,0,0,0,0,0,0,-1,1357,323,2.54685,6.82737
140,701,2.80554,-6.91022,0,0,0,0,0,0,0,-1,1364,323,2.80554,6.91021
147,701,-1.35242,-6.08636,0,0,0,0,0,0,0,-1,1371,323,-1.35241,6.08638
154,701,-1.77588,-4.77414,0,0,0,0,0,0,0,-1,1378,323,-1.77588,4.77413
161,701,-2.26953,-3.39673,0,0,0,0,0,0,0,-1,1385,323,-2.26948,3.39672
168,701,6.88513,-0.0237427,0,0,0,0,0,0,0,-1,1392,323,6.88517,0.0237498
175,701,6.94556,0.0693054,0,0,0,0,0,0,0,-1,1399,323,6.94555,-0.0692958
182,701,8.80652,5.42807,0,0,0,0,0,0,0,-1,1406,323,8.8065,-5.42808
189,701,8.58081,4.24493,0,0,0,0,0,0,0,-1,1413,323,8.58082,-4.24494
196,701,0,0,0,0,0,0,0,0,0,-1,1420,323,0,0
203,701,0,0,0,0,0,0,0,0,0,-1,1427,323,0,0
210,701,0,0,0,0,0,0,0,0,0,-1,1434,323,0,0
217,701,0,0,0,0,0,0,0,0,0,-1,1441,323,0,0
224,701,0,0,0,0,0,0,0,0,0,-1,1448,323,0,0
231,701,0,0,0,0,0,0,0,0,0,-1,1455,323,0,0
238,701,0,0,0,0,0,0,0,0,0,-1,1462,323,0,0
245,701,0,0,0,0,0,0,0,0,0,-1,1469,323,0,0
252,701,0,0,0,0,0,0,0,0,0,-1,1476,323,0,0
259,701,0,0,0,0,0,0,0,0,0,-1,1483,323,0,0
266,701,0,0,0,0,0,0,0,0,0,-1,1490,323,0,0
273,701,0,0,0,0,0,0,0,0,0,-1,1497,323,0,0
280,701,0,0,0,0,0,0,0,0,0,-1,1504,323,0,0
287,701,0,0,0,0,0,0,0,0,0,-1,1511,323,0,0
294,701,0,0,0,0,0,0,0,0,0,-1,1518,323,0,0
301,701,0,0,0,0,0,0,0,0,0,-1,1525,323,0,0
308,701,0,0,0,0,0,0,0,0,0,-1,1532,323,0,0
315,701,0,0,0,0,0,0,0,0,0,-1,1539,323,0,0
322,701,0,0,0,0,0,0,0,0,0,-1,1546,323,0,0
329,701,0,0,0,0,0,0,0,0,0,-1,1553,323,0,0
336,701,0,0,0,0,0,0,0,0,0,-1,1560,323,0,0
343,701,0,0,0,0,0,0,0,0,0,-1,1567,323,0,0
350,701,0,0,0,0,0,0,0,0,0,-1,1574,323,0,0
357,701,0,0,0,0,0,0,0,0,0,-1,1581,323,0,0
364,701,0,0,0,0,0,0,0,0,0,-1,1588,323,0,0
371,701,0,0,0,0,0,0,0,0,0,-1,1595,323,0,0
378,701,0,0,0,0,0,0,0,0,0,-1,1602,323,0,0
385,701,0,0,0,0,0,0,0,0,0,-1,1609,323,0,0
392,701,0,0,0,0,0,0,0,0,0,-1,1616,323,0,0
399,701,0,0,0,0,0,0,0,0,0,-1,1623,323,0,0
406,701,0,0,0,0,0,0,0,0,0,-1,1630,323,0,0
413,701,0,0,0,0,0,0,0,0,0,-1,1637,323,0,0
420,701,0,0,0,0,0,0,0,0,0,-1,1644,323,0,0
427,701,0,0,0,0,0,0,0,0,0,-1,1651,323,0,0
434,701,0,0,0,0,0,0,0,0,0,-1,1658,323,0,0
441,701,0,0,0,0,0,0,0,0,0,-1,1665,323,0,0
448,701,0,0,0,0,0,0,0,0,0,-1,1672,323,0,0
455,701,0,0,0,0,0,0,0,0,0,-1,1679,323,0,0
462,701,0,0,0,0,0,0,0,0,0,-1,1686,323,0,0
469,701,0,0,0,0,0,0,0,0,0,-1,1693,323,0,0
476,701,0,0,0,0,0,0,0,0,0,-1,1700,323,0,0
483,701,0,0,0,0,0,0,0,0,0,-1,1707,323,0,0
490,701,0,0,0,0,0,0,0,0,0,-1,1714,323,0,0
497,701,0,0,0,0,0,0,0,0,0,-1,1721,323,0,0
504,701,0,0,0,0,0,0,0,0,0,-1,1728,323,0,0
511,701,0,0,0,0,0,0,0,0,0,-1,1735,323,0,0
518,701,0,0,0,0,0,0,0,0,0,-1,1742,323,0,0
525,701,0,0,0,0,0,0,0,0,0,-1,1749,323,0,0
532,701,0,0,0,0,0,0,0,0,0,-1,1756,323,0,0
539,701,0,0,0,0,0,0,0,0,0,-1,1763,323,0,0
546,701,0,0,0,0,0,0,0,0,0,-1,1770,323,0,0
553,701,0,0,0,0,0,0,0,0,0,-1,1777,323,0,0
560,701,0,0,0,0,0,0,0,0,0,-1,1784,323,0,0
567,701,0,0,0,0,0,0,0,0,0,-1,1791,323,0,0
574,701,0,0,0,0,0,0,0,0,0,-1,1798,323,0,0
581,701,0,0,0,0,0,0,0,0,0,-1,1805,323,0,0
588,701,0,0,0,0,0,0,0,0,0,-1,1812,323,0,0
595,701,0,0,0,0,0,0,0,0,0,-1,1819,323,0,0
602,701,0,0,0,0,0,0,0,0,0,-1,1826,323,0,0
609,701,0,0,0,0,0,0,0,0,0,-1,1833,323,0,0
616,701,0,0,0,0,0,0,0,0,0,-1,1840,323,0,0
623,701,0,0,0,0,0,0,0,0,0,-1,1847,323,0,0
630,701,0,0,0,0,0,0,0,0,0,-1,1854,323,0,0
637,701,0,0,0,0,0,0,0,0,0,-1,1861,323,0,0
644,701,0,0,0,0,0,0,0,0,0,-1,1868,323,0,0
651,701,0,0,0,0,0,0,0,0,0,-1,1875,323,0,0
658,701,0,0,0,0,0,0,0,0,0,-1,1882,323,0,0
665,701,0,0,0,0,0,0,0,0,0,-1,1889,323,0,0
672,701,0,0,0,0,0,0,0,0,0,-1,1896,323,0,0
679,701,0,0,0,0,0,0,0,0,0,-1,1903,323,0,0
686,701,0,0,0,0,0,0,0,0,0,-1,1910,323,0,0
693,701,0,0,0,0,0,0,0,0,0,-1,1917,323,0,0
700,701,0,0,0,0,0,0,0,0,0,-1,1924,323,0,0
707,701,0,0,0,0,0,0,0,0,0,-1,1931,323,0,0
714,701,0,0,0,0,0,0,0,0,0,-1,1938,323,0,0
721,701,0,0,0,0,0,0,0,0,0,-1,1945,323,0,0
728,701,0,0,0,0,0,0,0,0,0,-1,1952,323,0,0
735,701,0,0,0,0,0,0,0,0,0,-1,1959,323,0,0
742,701,0,0,0,0,0,0,0,0,0,-1,1966,323,0,0
749,701,0,0,0,0,0,0,0,0,0,-1,1973,323,0,0
756,701,0,0,0,0,0,0,0,0,0,-1,1980,323,0,0
763,701,0,0,0,0,0,0,0,0,0,-1,1987,323,0,0
770,701,0,0,0,0,0,0,0,0,0,-1,1994,323,0,0
777,701,0,0,0,0,0,0,0,0,0,-1,2001,323,0,0
784,701,0,0,0,0,0,0,0,0,0,-1,2008,323,0,0
791,701,0,0,0,0,0,0,0,0,0,-1,2015,323,0,0
798,701,0,0,0,0,0,0,0,0,0,-1,2022,323,0,0
805,701,0,0,0,0,0,0,0,0,0,-1,2029,323,0,0
812,701,0,0,0,0,0,0,0,0,0,-1,2036,323,0,0
-700,694,0,0,0,0,0,0,0,0,0,-1,524,330,0,0
-693,694,0,0,0,0,0,0,0,0,0,-1,531,330,0,0
-686,694,0,0,0,0,0,0,0,0,0,-1,538,330,0,0
-679,694,0,0,0,0,0,0,0,0,0,-1,545,330,0,0
-672,694,0,0,0,0,0,0,0,0,0,-1,552,330,0,0
-665,694,0,0,0,0,0,0,0,0,0,-1,559,330,0,0
-658,694,0,0,0,0,0,0,0,0,0,-1,566,330,0,0
-651,694,0,0,0,0,0,0,0,0,0,-1,573,330,0,0
-644,694,0,0,0,0,0,0,0,0,0,-1,580,330,0,0
-637,694,0,0,0,0,0,0,0,0,0,-1,587,330,0,0
-630,694,0,0,0,0,0,0,0,0,0,-1,594,330,0,0
-623,694,0,0,0,0,0,0,0,0,0,-1,601,330,0,0
-616,694,0,0,0,0,0,0,0,0,0,-1,608,330,0,0
-609,694,0,0,0,0,0,0,0,0,0,-1,615,330,0,0
-602,694,0,0,0,0,0,0,0,0,0,-1,622,330,0,0
-595,694,0,0,0,0,0,0,0,0,0,-1,629,330,0,0
-588,694,0,0,0,0,0,0,0,0,0,-1,636,330,0,0
-581,694,0,0,0,0,0,0,0,0,0,-1,643,330,0,0
-574,694,0,0,0,0,0,0,0,0,0,-1,650,330,0,0
-567,694,0,0,0,0,0,0,0,0,0,-1,657,330,0,0
-560,694,0,0,0,0,0,0,0,0,0,-1,664,330,0,0
-553,694,0,0,0,0,0,0,0,0,0,-1,671,330,0,0
-546,694,0,0,0,0,0,0,0,0,0,-1,678,330,0,0
-539,694,0,0,0,0,0,0,0,0,0,-1,685,330,0,0
-532,694,0,0,0,0,0,0,0,0,0,-1,692,330,0,0
-525,694,0,0,0,0,0,0,0,0,0,-1,699,330,0,0
-518,694,0,0,0,0,0,0,0,0,0,-1,706,330,0,0
-511,694,0,0,0,0,0,0,0,0,0,-1,713,330,0,0
-504,694,0,0,0,0,0,0,0,0,0,-1,720,330,0,0
-497,694,0,0,0,0,0,0,0,0,0,-1,727,330,0,0
-490,694,0,0,0,0,0,0,0,0,0,-1,734,330,0,0
-483,694,0,0,0,0,0,0,0,0,0,-1,741,330,0,0
-476,694,0,0,0,0,0,0,0,0,0,-1,748,330,0,0
-469,694,0,0,0,0,0,0,0,0,0,-1,755,330,0,0
-462,694,0,0,0,0,0,0,0,0,0,-1,762,330,0,0
-455,694,0,0,0,0,0,0,0,0,0,-1,769,330,0,0
-448,694,0,0,0,0,0,0,0,0,0,-1,776,330,0,0
-441,694,0,0,0,0,0,0,0,0,0,-1,783,330,0,0
-434,694,0,0,0,0,0,0,0,0,0,-1,790,330,0,0
-427,694,0,0,0,0,0,0,0,0,0,-1,797,330,0,0
-420,694,0,0,0,0,0,0,0,0,0,-1,804,330,0,0
-413,694,0,0,0,0,0,0,0,0,0,-1,811,330,0,0
-406,694,0,0,0,0,0,0,0,0,0,-1,818,330,0,0
-399,694,0,0,0,0,0,0,0,0,0,-1,825,330,0,0
-392,694,0,0,0,0,0,0,0,0,0,-1,832,330,0,0
-385,694,0,0,0,0,0,0,0,0,0,-1,839,330,0,0
-378,694,0,0,0,0,0,0,0,0,0,-1,846,330,0,0
-371,694,0,0,0,0,0,0,0,0,0,-1,853,330,0,0
-364,694,0,0,0,0,0,0,0,0,0,-1,860,330,0,0
-357,694,0,0,0,0,0,0,0,0,0,-1,867,330,0,0
-350,694,0,0,0,0,0,0,0,0,0,-1,874,330,0,0
-343,694,0,0,0,0,0,0,0,0,0,-1,881,330,0,0
-336,694,0,0,0,0,0,0,0,0,0,-1,888,330,0,0
-329,694,0,0,0,0,0,0,0,0,0,-1,895,330,0,0
-322,694,0,0,0,0,0,0,0,0,0,-1,902,330,0,0
-315,694,0,0,0,0,0,0,0,0,0,-1,909,330,0,0
-308,694,0,0,0,0,0,0,0,0,0,-1,916,330,0,0
-301,694,0,0,0,0,0,0,0,0,0,-1,923,330,0,0
-294,694,0,0,0,0,0,0,0,0,0,-1,930,330,0,0
-287,694,0,0,0,0,0,0,0,0,0,-1,937,330,0,0
-280,694,0,0,0,0,0,0,0,0,0,-1,944,330,0,0
-273,694,0,0,0,0,0,0,0,0,0,-1,951,330,0,0
-266,694,0,0,0,0,0,0,0,0,0,-1,958,330,0,0
-259,694,0,0,0,0,0,0,0,0,0,-1,965,330,0,0
-252,694,0,0,0,0,0,0,0,0,0,-1,972,330,0,0
-245,694,0,0,0,0,0,0,0,0,0,-1,979,330,0,0
-238,694,0,0,0,0,0,0,0,0,0,-1,986,330,0,0
-231,694,0,0,0,0,0,0,0,0,0,-1,993,330,0,0
-224,694,0,0,0,0,0,0,0,0,0,-1,1000,330,0,0
-217,694,0,0,0,0,0,0,0,0,0,-1,1007,330,0,0
-210,694,0,0,0,0,0,0,0,0,0,-1,1014,330,0,0
-203,694,0,0,0,0,0,0,0,0,0,-1,1021,330,0,0
-196,694,0,0,0,0,0,0,0,0,0,-1,1028,330,0,0
-189,694,0,0,0,0,0,0,0,0,0,-1,1035,330,0,0
-182,694,0,0,0,0,0,0,0,0,0,-1,1042,330,0,0
-175,694,0,0,0,0,0,0,0,0,0,-1,1049,330,0,0
-168,694,0,0,0,0,0,0,0,0,0,-1,1056,330,0,0
-161,694,0,0,0,0,0,0,0,0,0,-1,1063,330,0,0
-154,694,0,0,0,0,0,0,0,0,0,-1,1070,330,0,0
-147,694,0,0,0,0,0,0,0,0,0,-1,1077,330,0,0
-140,694,0,0,0,0,0,0,0,0,0,-1,1084,330,0,0
-133,694,0,0,0,0,0,0,0,0,0,-1,1091,330,0,0
-126,694,0,0,0,0,0,0,0,0,0,-1,1098,330,0,0
-119,694,0,0,0,0,0,0,0,0,0,-1,1105,330,0,0
-112,694,0,0,0,0,0,0,0,0,0,-1,1112,330,0,0
-105,694,-1.35962,-7.57141,0,0,0,0,0,0,0,-1,1119,330,-1.3596,7.57142
-98,694,1.34875,-10.1051,0,0,0,0,0,0,0,-1,1126,330,1.34874,10.1051
-91,694,1.35474,-9.22229,0,0,0,0,0,0,0,-1,1133,330,1.35476,9.22229
-84,694,-4.39136,-4.62332,0,0,0,0,0,0,0,-1,1140,330,-4.3914,4.62331
-77,694,-3.93665,-2.81979,0,0,0,0,0,0,0,-1,1147,330,-3.93667,2.81979
-70,694,-3.48193,-1.01627,0,0,0,0,0,0,0,-1,1154,330,-3.48194,1.01627
-63,694,-5.80835,-4.75275,0,0,0,0,0,0,0,-1,1161,330,-5.80834,4.75274
-56,694,-6.50623,-0.649139,0,0,0,0,0,0,0,-1,1168,330,-6.5062,0.649126
-49,694,-1.11426,0.0341797,0,0,0,0,0,0,0,-1,1175,330,-1.11424,-0.0341846
-42,694,-0.346313,-0.709595,0,0,0,0,0,0,0,-1,1182,330,-0.346298,0.709581
-35,694,-0.459106,-1.24713,0,0,0,0,0,0,0,-1,1189,330,-0.459142,1.24714
-28,694,-6.48413,-3.95972,0,0,0,0,0,0,0,-1,1196,330,-6.48414,3.9597
-21,694,-5.01636,-4.28162,0,0,0,0,0,0,0,-1,1203,330,-5.01641,4.28162
-14,694,2.71851,-9.58539,0,0,0,0,0,0,0,-1,1210,330,2.7185,9.58538
-7,694,3.00159,-9.5134,0,0,0,0,0,0,0,-1,1217,330,3.00164,9.51339
0,694,2.72339,-9.03625,0,0,0,0,0,0,0,-1,1224,330,2.72342,9.03625
7,694,2.84851,-8.89609,0,0,0,0,0,0,0,-1,1231,330,2.84847,8.8961
14,694,2.13135,-7.28989,0,0,0,0,0,0,0,-1,1238,330,2.13135,7.28988
21,694,0.891235,-10.1887,0,0,0,0,0,0,0,-1,1245,330,0.891207,10.1887
28,694,0.855347,-10.4518,0,0,0,0,0,0,0,-1,1252,330,0.855388,10.4518
35,694,1.40125,-11.0978,0,0,0,0,0,0,0,-1,1259,330,1.4013,11.0978
42,694,1.60889,-10.3649,0.0589767,0.020127,0.0460081,0.0894925,-0.0103888,0.585648,0.063409,0.0481093,1266,330,1.60895,10.3649
49,694,1.61755,-9.72879,0.062297,0.0231229,0.050509,0.0968838,-0.011464,0.600429,0.06873,0.0453813,1273,330,1.61754,9.72878
56,694,2.35681,-9.78867,0.0616341,0.0239697,0.0534779,0.0994988,-0.013895,0.616104,0.0714162,0.0436046,1280,330,2.35676,9.78865
63,694,2.34924,-9.75125,0.0571449,0.0236259,0.0549187,0.0978044,-0.0170337,0.637302,0.0715598,0.0439227,1287,330,2.34922,9.75125
70,694,2.33618,-9.5766,0,0,0,0,0,0,0,-1,1294,330,2.33623,9.57659
77,694,2.27063,-9.39359,0.0415757,0.0198173,0.0540926,0.0858723,-0.0244793,0.686161,0.0669175,0.0445412,1301,330,2.27067,9.39358
84,694,2.53479,-9.54324,0.0296395,0.016208,0.0513353,0.0746965,-0.028849,0.720357,0.0617045,0.0445729,1308,330,2.53477,9.54324
91,694,3.07678,-9.25797,0.0159804,0.0110192,0.0467008,0.0602665,-0.0332669,0.758864,0.0547463,0.0463701,1315,330,3.07673,9.25796
98,694,3.07532,-9.14941,0.0026871,0.00658767,0.0413579,0.0460412,-0.0367664,0.808959,0.0479089,0.0465905,1322,330,3.07531,9.14941
105,694,2.97827,-9.49744,-0.0099171,0.00189292,0.0351115,0.0315925,-0.0396167,0.868708,0.0411996,0.0443479,1329,330,2.97833,9.49742
112,694,2.4303,-9.85413,-0.0213413,-0.00225791,0.0285803,0.0183314,-0.0419307,0.946508,0.0356705,0.0441074,1336,330,2.43033,9.85414
119,694,1.83215,-10.2323,-0.0359465,-0.0100916,0.018518,-0.000435112,-0.045603,1.09012,0.030258,0.0457764,1343,330,1.83211,10.2323
126,694,2.06653,-7.34756,0,0,0,0,0,0,0,-1,1350,330,2.06657,7.34756
133,694,2.19116,-7.48181,0,0,0,0,0,0,0,-1,1357,330,2.19122,7.48181
140,694,2.40173,-7.58643,0,0,0,0,0,0,0,-1,1364,330,2.40175,7.58644
147,694,2.58411,-7.5726,0,0,0,0,0,0,0,-1,1371,330,2.58406,7.57259
154,694,-3.33093,-3.67932,0,0,0,0,0,0,0,-1,1378,330,-3.33094,3.67932
161,694,-3.86377,-2.27493,0,0,0,0,0,0,0,-1,1385,330,-3.86381,2.27494
168,694,6.77161,1.01288,0,0,0,0,0,0,0,-1,1392,330,6.77156,-1.01287
175,694,6.72839,0.473175,0,0,0,0,0,0,0,-1,1399,330,6.72838,-0.473182
182,694,8.29028,5.75238,0,0,0,0,0,0,0,-1,1406,330,8.29034,-5.75237
189,694,7.9801,4.46118,0,0,0,0,0,0,0,-1,1413,330,7.9801,-4.46118
196,694,7.39331,3.32632,0,0,0,0,0,0,0,-1,1420,330,7.39329,-3.32633
203,694,7.04492,2.20529,0,0,0,0,0,0,0,-1,1427,330,7.04496,-2.20529
210,694,6.44714,0.646912,0,0,0,0,0,0,0,-1,1434,330,6.44717,-0.646903
217,694,7.12061,-0.644958,0,0,0,0,0,0,0,-1,1441,330,7.12059,0.644961
224,694,6.74011,-1.70544,0,0,0,0,0,0,0,-1,1448,330,6.74013,1.70546
231,694,0,0,0,0,0,0,0,0,0,-1,1455,330,0,0
238,694,0,0,0,0,0,0,0,0,0,-1,1462,330,0,0
245,694,0,0,0,0,0,0,0,0,0,-1,1469,330,0,0
252,694,0,0,0,0,0,0,0,0,0,-1,1476,330,0,0
259,694,0,0,0,0,0,0,0,0,0,-1,1483,330,0,0
266,694,0,0,0,0,0,0,0,0,0,-1,1490,330,0,0
273,694,0,0,0,0,0,0,0,0,0,-1,1497,330,0,0
280,694,0,0,0,0,0,0,0,0,0,-1,1504,330,0,0
287,694,0,0,0,0,0,0,0,0,0,-1,1511,330,0,0
294,694,0,0,0,0,0,0,0,0,0,-1,1518,330,0,0
301,694,0,0,0,0,0,0,0,0,0,-1,1525,330,0,0
308,694,0,0,0,0,0,0,0,0,0,-1,1532,330,0,0
315,694,0,0,0,0,0,0,0,0,0,-1,1539,330,0,0
322,694,0,0,0,0,0,0,0,0,0,-1,1546,330,0,0
329,694,0,0,0,0,0,0,0,0,0,-1,1553,330,0,0
336,694,0,0,0,0,0,0,0,0,0,-1,1560,330,0,0
343,694,0,0,0,0,0,0,0,0,0,-1,1567,330,0,0
350,694,0,0,0,0,0,0,0,0,0,-1,1574,330,0,0
357,694,0,0,0,0,0,0,0,0,0,-1,1581,330,0,0
364,694,0,0,0,0,0,0,0,0,0,-1,1588,330,0,0
371,694,0,0,0,0,0,0,0,0,0,-1,1595,330,0,0
378,694,0,0,0,0,0,0,0,0,0,-1,1602,330,0,0
385,694,0,0,0,0,0,0,0,0,0,-1,1609,330,0,0
392,694,0,0,0,0,0,0,0,0,0,-1,1616,330,0,0
399,694,0,0,0,0,0,0,0,0,0,-1,1623,330,0,0
406,694,0,0,0,0,0,0,0,0,0,-1,1630,330,0,0
413,694,0,0,0,0,0,0,0,0,0,-1,1637,330,0,0
420,694,0,0,0,0,0,0,0,0,0,-1,1644,330,0,0
427,694,0,0,0,0,0,0,0,0,0,-1,1651,330,0,0
434,694,0,0,0,0,0,0,0,0,0,-1,1658,330,0,0
441,694,0,0,0,0,0,0,0,0,0,-1,1665,330,0,0
448,694,0,0,0,0,0,0,0,0,0,-1,1672,330,0,0
455,694,0,0,0,0,0,0,0,0,0,-1,1679,330,0,0
462,694,0,0,0,0,0,0,0,0,0,-1,1686,330,0,0
469,694,0,0,0,0,0,0,0,0,0,-1,1693,330,0,0
476,694,0,0,0,0,0,0,0,0,0,-1,1700,330,0,0
483,694,0,0,0,0,0,0,0,0,0,-1,1707,330,0,0
490,694,0,0,0,0,0,0,0,0,0,-1,1714,330,0,0
497,694,0,0,0,0,0,0,0,0,0,-1,1721,330,0,0
504,694,0,0,0,0,0,0,0,0,0,-1,1728,330,0,0
511,694,0,0,0,0,0,0,0,0,0,-1,1735,330,0,0
518,694,0,0,0,0,0,0,0,0,0,-1,1742,330,0,0
525,694,0,0,0,0,0,0,0,0,0,-1,1749,330,0,0
532,694,0,0,0,0,0,0,0,0,0,-1,1756,330,0,0
539,694,0,0,0,0,0,0,0,0,0,-1,1763,330,0,0
546,694,0,0,0,0,0,0,0,0,0,-1,1770,330,0,0
553,694,0,0,0,0,0,0,0,0,0,-1,1777,330,0,0
560,694,0,0,0,0,0,0,0,0,0,-1,1784,330,0,0
567,694,0,0,0,0,0,0,0,0,0,-1,1791,330,0,0
574,694,0,0,0,0,0,0,0,0,0,-1,1798,330,0,0
581,694,0,0,0,0,0,0,0,0,0,-1,1805,330,0,0
588,694,0,0,0,0,0,0,0,0,0,-1,1812,330,0,0
595,694,0,0,0,0,0,0,0,0,0,-1,1819,330,0,0
602,694,0,0,0,0,0,0,0,0,0,-1,1826,330,0,0
609,694,0,0,0,0,0,0,0,0,0,-1,1833,330,0,0
616,694,0,0,0,0,0,0,0,0,0,-1,1840,330,0,0
623,694,0,0,0,0,0,0,0,0,0,-1,1847,330,0,0
630,694,0,0,0,0,0,0,0,0,0,-1,1854,330,0,0
637,694,0,0,0,0,0,0,0,0,0,-1,1861,330,0,0
644,694,0,0,0,0,0,0,0,0,0,-1,1868,330,0,0
651,694,0,0,0,0,0,0,0,0,0,-1,1875,330,0,0
658,694,0,0,0,0,0,0,0,0,0,-1,1882,330,0,0
665,694,0,0,0,0,0,0,0,0,0,-1,1889,330,0,0
672,694,0,0,0,0,0,0,0,0,0,-1,1896,330,0,0
679,694,0,0,0,0,0,0,0,0,0,-1,1903,330,0,0
686,694,0,0,0,0,0,0,0,0,0,-1,1910,330,0,0
693,694,0,0,0,0,0,0,0,0,0,-1,1917,330,0,0
700,694,0,0,0,0,0,0,0,0,0,-1,1924,330,0,0
707,694,0,0,0,0,0,0,0,0,0,-1,1931,330,0,0
714,694,0,0,0,0,0,0,0,0,0,-1,1938,330,0,0
721,694,0,0,0,0,0,0,0,0,0,-1,1945,330,0,0
728,694,0,0,0,0,0,0,0,0,0,-1,1952,330,0,0
735,694,0,0,0,0,0,0,0,0,0,-1,1959,330,0,0
742,694,0,0,0,0,0,0,0,0,0,-1,1966,330,0,0
749,694,0,0,0,0,0,0,0,0,0,-1,1973,330,0,0
756,694,0,0,0,0,0,0,0,0,0,-1,1980,330,0,0
763,694,0,0,0,0,0,0,0,0,0,-1,1987,330,0,0
770,694,0,0,0,0,0,0,0,0,0,-1,1994,330,0,0
777,694,0,0,0,0,0,0,0,0,0,-1,2001,330,0,0
784,694,0,0,0,0,0,0,0,0,0,-1,2008,330,0,0
791,694,0,0,0,0,0,0,0,0,0,-1,2015,330,0,0
798,694,0,0,0,0,0,0,0,0,0,-1,2022,330,0,0
805,694,0,0,0,0,0,0,0,0,0,-1,2029,330,0,0
812,694,0,0,0,0,0,0,0,0,0,-1,2036,330,0,0
-700,687,0,0,0,0,0,0,0,0,0,-1,524,337,0,0
-693,687,0,0,0,0,0,0,0,0,0,-1,531,337,0,0
-686,687,0,0,0,0,0,0,0,0,0,-1,538,337,0,0
-679,687,0,0,0,0,0,0,0,0,0,-1,545,337,0,0
-672,687,0,0,0,0,0,0,0,0,0,-1,552,337,0,0
-665,687,0,0,0,0,0,0,0,0,0,-1,559,337,0,0
-658,687,0,0,0,0,0,0,0,0,0,-1,566,337,0,0
-651,687,0,0,0,0,0,0,0,0,0,-1,573,337,0,0
-644,687,0,0,0,0,0,0,0,0,0,-1,580,337,0,0
-637,687,0,0,0,0,0,0,0,0,0,-1,587,337,0,0
-630,687,0,0,0,0,0,0,0,0,0,-1,594,337,0,0
-623,687,0,0,0,0,0,0,0,0,0,-1,601,337,0,0
-616,687,0,0,0,0,0,0,0,0,0,-1,608,337,0,0
-609,687,0,0,0,0,0,0,0,0,0,-1,615,337,0,0
-602,687,0,0,0,0,0,0,0,0,0,-1,622,337,0,0
-595,687,0,0,0,0,0,0,0,0,0,-1,629,337,0,0
-588,687,0,0,0,0,0,0,0,0,0,-1,636,337,0,0
-581,687,0,0,0,0,0,0,0,0,0,-1,643,337,0,0
-574,687,0,0,0,0,0,0,0,0,0,-1,650,337,0,0
-567,687,0,0,0,0,0,0,0,0,0,-1,657,337,0,0
-560,687,0,0,0,0,0,0,0,0,0,-1,664,337,0,0
-553,687,0,0,0,0,0,0,0,0,0,-1,671,337,0,0
-546,687,0,0,0,0,0,0,0,0,0,-1,678,337,0,0
-539,687,0,0,0,0,0,0,0,0,0,-1,685,337,0,0
-532,687,0,0,0,0,0,0,0,0,0,-1,692,337,0,0
-525,687,0,0,0,0,0,0,0,0,0,-1,699,337,0,0
-518,687,0,0,0,0,0,0,0,0,0,-1,706,337,0,0
-511,687,0,0,0,0,0,0,0,0,0,-1,713,337,0,0
-504,687,0,0,0,0,0,0,0,0,0,-1,720,337,0,0
-497,687,0,0,0,0,0,0,0,0,0,-1,727,337,0,0
-490,687,0,0,0,0,0,0,0,0,0,-1,734,337,0,0
-483,687,0,0,0,0,0,0,0,0,0,-1,741,337,0,0
-476,687,0,0,0,0,0,0,0,0,0,-1,748,337,0,0
-469,687,0,0,0,0,0,0,0,0,0,-1,755,337,0,0
-462,687,0,0,0,0,0,0,0,0,0,-1,762,337,0,0
-455,687,0,0,0,0,0,0,0,0,0,-1,769,337,0,0
-448,687,0,0,0,0,0,0,0,0,0,-1,776,337,0,0
-441,687,0,0,0,0,0,0,0,0,0,-1,783,337,0,0
-434,687,0,0,0,0,0,0,0,0,0,-1,790,337,0,0
-427,687,0,0,0,0,0,0,0,0,0,-1,797,337,0,0
-420,687,0,0,0,0,0,0,0,0,0,-1,804,337,0,0
-413,687,0,0,0,0,0,0,0,0,0,-1,811,337,0,0
-406,687,0,0,0,0,0,0,0,0,0,-1,818,337,0,0
-399,687,0,0,0,0,0,0,0,0,0,-1,825,337,0,0
-392,687,0,0,0,0,0,0,0,0,0,-1,832,337,0,0
-385,687,0,0,0,0,0,0,0,0,0,-1,839,337,0,0
-378,687,0,0,0,0,0,0,0,0,0,-1,846,337,0,0
-371,687,0,0,0,0,0,0,0,0,0,-1,853,337,0,0
-364,687,0,0,0,0,0,0,0,0,0,-1,860,337,0,0
-357,687,0,0,0,0,0,0,0,0,0,-1,867,337,0,0
-350,687,0,0,0,0,0,0,0,0,0,-1,874,337,0,0
-343,687,0,0,0,0,0,0,0,0,0,-1,881,337,0,0
-336,687,0,0,0,0,0,0,0,0,0,-1,888,337,0,0
-329,687,0,0,0,0,0,0,0,0,0,-1,895,337,0,0
-322,687,0,0,0,0,0,0,0,0,0,-1,902,337,0,0
-315,687,0,0,0,0,0,0,0,0,0,-1,909,337,0,0
-308,687,0,0,0,0,0,0,0,0,0,-1,916,337,0,0
-301,687,0,0,0,0,0,0,0,0,0,-1,923,337,0,0
-294,687,0,0,0,0,0,0,0,0,0,-1,930,337,0,0
-287,687,0,0,0,0,0,0,0,0,0,-1,937,337,0,0
-280,687,0,0,0,0,0,0,0,0,0,-1,944,337,0,0
-273,687,0,0,0,0,0,0,0,0,0,-1,951,337,0,0
-266,687,0,0,0,0,0,0,0,0,0,-1,958,337,0,0
-259,687,0,0,0,0,0,0,0,0,0,-1,965,337,0,0
-252,687,0,0,0,0,0,0,0,0,0,-1,972,337,0,0
-245,687,0,0,0,0,0,0,0,0,0,-1,979,337,0,0
-238,687,0,0,0,0,0,0,0,0,0,-1,986,337,0,0
-231,687,0,0,0,0,0,0,0,0,0,-1,993,337,0,0
-224,687,0,0,0,0,0,0,0,0,0,-1,1000,337,0,0
-217,687,0,0,0,0,0,0,0,0,0,-1,1007,337,0,0
-210,687,0,0,0,0,0,0,0,0,0,-1,1014,337,0,0
-203,687,0,0,0,0,0,0,0,0,0,-1,1021,337,0,0
-196,687,0,0,0,0,0,0,0,0,0,-1,1028,337,0,0
-189,687,0,0,0,0,0,0,0,0,0,-1,1035,337,0,0
-182,687,0,0,0,0,0,0,0,0,0,-1,1042,337,0,0
-175,687,0,0,0,0,0,0,0,0,0,-1,1049,337,0,0
-168,687,0,0,0,0,0,0,0,0,0,-1,1056,337,0,0
-161,687,0,0,0,0,0,0,0,0,0,-1,1063,337,0,0
-154,687,0,0,0,0,0,0,0,0,0,-1,1070,337,0,0
-147,687,0,0,0,0,0,0,0,0,0,-1,1077,337,0,0
-140,687,0,0,0,0,0,0,0,0,0,-1,1084,337,0,0
-133,687,1.63049,-10.3847,0,0,0,0,0,0,0,-1,1091,337,1.63044,10.3847
-126,687,0.941284,-10.8708,0,0,0,0,0,0,0,-1,1098,337,0.941263,10.8708
-119,687,0.577881,-11.4252,0,0,0,0,0,0,0,-1,1105,337,0.57784,11.4252
-112,687,0.14917,-11.9645,0,0,0,0,0,0,0,-1,1112,337,0.149153,11.9645
-105,687,-0.227173,-12.5151,0,0,0,0,0,0,0,-1,1119,337,-0.227166,12.5151
-98,687,-1.97437,-6.83603,0,0,0,0,0,0,0,-1,1126,337,-1.97434,6.83603
-91,687,2.28162,-7.72437,0,0,0,0,0,0,0,-1,1133,337,2.28167,7.72437
-84,687,-1.72876,-5.14783,0,0,0,0,0,0,0,-1,1140,337,-1.7288,5.14782
-77,687,-1.29443,-3.39886,0,0,0,0,0,0,0,-1,1147,337,-1.29447,3.39887
-70,687,-4.52661,-13.0772,0,0,0,0,0,0,0,-1,1154,337,-4.52662,13.0772
-63,687,-6.23987,-9.08102,0,0,0,0,0,0,0,-1,1161,337,-6.23981,9.08103
-56,687,-7.86511,-5.93417,0,0,0,0,0,0,0,-1,1168,337,-7.86511,5.93419
-49,687,-7.44934,-0.550262,0,0,0,0,0,0,0,-1,1175,337,-7.44938,0.550261
-42,687,-4.2019,-0.405609,0,0,0,0,0,0,0,-1,1182,337,-4.20192,0.405614
-35,687,-4.42273,-0.688171,0,0,0,0,0,0,0,-1,1189,337,-4.42276,0.688178
-28,687,-1.14038,-1.39072,0,0,0,0,0,0,0,-1,1196,337,-1.14035,1.3907
-21,687,1.70532,-9.20108,0,0,0,0,0,0,0,-1,1203,337,1.70537,9.20109
-14,687,2.04126,-9.34009,0,0,0,0,0,0,0,-1,1210,337,2.04128,9.34009
-7,687,2.30896,-9.38409,0,0,0,0,0,0,0,-1,1217,337,2.30901,9.38408
0,687,2.4281,-9.35373,0,0,0,0,0,0,0,-1,1224,337,2.42813,9.35372
7,687,2.46582,-9.28214,0,0,0,0,0,0,0,-1,1231,337,2.46579,9.28215
14,687,1.49768,-10.0072,0,0,0,0,0,0,0,-1,1238,337,1.49763,10.0072
21,687,1.47656,-10.2257,0.0257855,0.00326462,0.0129861,0.0317133,-0.00266318,0.428225,0.0220835,0.0481057,1245,337,1.47662,10.2257
28,687,1.52673,-10.4614,0.0320037,0.00770811,0.0201547,0.0433884,-0.00367662,0.514186,0.0302258,0.0446707,1252,337,1.52674,10.4614
35,687,1.73926,-10.8112,0,0,0,0,0,0,0,-1,1259,337,1.73921,10.8112
42,687,1.78162,-10.133,0.0409674,0.0122111,0.0303803,0.0602002,-0.00702166,0.564379,0.042667,0.0481551,1266,337,1.78156,10.133
49,687,1.82617,-9.479,0.0441023,0.0150471,0.0342585,0.0667862,-0.00763679,0.584862,0.0472758,0.0451179,1273,337,1.82618,9.47901
56,687,1.73547,-9.03735,0.0439486,0.0162014,0.0370023,0.0695926,-0.00944266,0.60604,0.0498417,0.0434247,1280,337,1.73549,9.03736
63,687,2.2616,-9.79221,0.0407594,0.0164977,0.0385362,0.069029,-0.0117718,0.632913,0.0504036,0.0438361,1287,337,2.26163,9.79221
70,687,2.2301,-9.80054,0,0,0,0,0,0,0,-1,1294,337,2.23007,9.80055
77,687,2.03162,-9.80838,0.0298682,0.0149061,0.0389622,0.0620611,-0.0172868,0.690549,0.0481814,0.0453486,1301,337,2.03165,9.80839
84,687,3.5199,-9.289,0.0211797,0.0128423,0.0374086,0.0546512,-0.0206292,0.729909,0.0449183,0.0431733,1308,337,3.51986,9.28899
91,687,2.82996,-9.73444,0.0111436,0.00942857,0.0342697,0.0445665,-0.0239943,0.77289,0.0401732,0.0452103,1315,337,2.82994,9.73444
98,687,2.83032,-9.39136,0.00138188,0.00673183,0.0305389,0.0347126,-0.0265989,0.829083,0.0355014,0.0471449,1322,337,2.83032,9.39136
105,687,2.82227,-9.41125,-0.0079194,0.0036003,0.0260517,0.0245213,-0.0288404,0.894194,0.030842,0.0433661,1329,337,2.82229,9.41126
112,687,1.98035,-9.72894,-0.0163203,0.00083669,0.0213789,0.015294,-0.0307776,0.976195,0.0270956,0.0418745,1336,337,1.98035,9.72893
119,687,1.46985,-9.96561,-0.0271022,-0.00437566,0.0143035,0.0025289,-0.0340067,1.12107,0.0235594,0.0427708,1343,337,1.46991,9.96561
126,687,1.41467,-10.303,0,0,0,0,0,0,0,-1,1350,337,1.4147,10.303
133,687,1.94324,-8.26257,0,0,0,0,0,0,0,-1,1357,337,1.94322,8.26256
140,687,2.0531,-8.28278,0,0,0,0,0,0,0,-1,1364,337,2.05311,8.28276
147,687,2.16113,-8.29495,0,0,0,0,0,0,0,-1,1371,337,2.16115,8.29495
154,687,2.25159,-8.29913,0,0,0,0,0,0,0,-1,1378,337,2.25154,8.29914
161,687,6.5564,1.68158,0,0,0,0,0,0,0,-1,1385,337,6.55636,-1.68157
168,687,6.66968,1.37039,0,0,0,0,0,0,0,-1,1392,337,6.6697,-1.37039
175,687,6.64075,0.771606,0,0,0,0,0,0,0,-1,1399,337,6.64073,-0.771595
182,687,6.67249,0.289917,0,0,0,0,0,0,0,-1,1406,337,6.67247,-0.289916
189,687,7.76062,4.53635,0,0,0,0,0,0,0,-1,1413,337,7.76064,-4.53636
196,687,6.99048,3.2966,0,0,0,0,0,0,0,-1,1420,337,6.99046,-3.2966
203,687,6.36499,2.1445,0,0,0,0,0,0,0,-1,1427,337,6.36499,-2.14451
210,687,6.68066,0.674652,0,0,0,0,0,0,0,-1,1434,337,6.68062,-0.674655
217,687,5.99683,-0.630493,0,0,0,0,0,0,0,-1,1441,337,5.99684,0.630497
224,687,5.52917,0.524902,0,0,0,0,0,0,0,-1,1448,337,5.5292,-0.524915
231,687,5.85583,-1.73651,0,0,0,0,0,0,0,-1,1455,337,5.85577,1.73651
238,687,5.96582,-2.96774,0,0,0,0,0,0,0,-1,1462,337,5.96577,2.96773
245,687,1.28259,2.32211,0,0,0,0,0,0,0,-1,1469,337,1.28258,-2.32211
252,687,1.97278,3.88422,0,0,0,0,0,0,0,-1,1476,337,1.97281,-3.88421
259,687,0,0,0,0,0,0,0,0,0,-1,1483,337,0,0
266,687,0,0,0,0,0,0,0,0,0,-1,1490,337,0,0
273,687,0,0,0,0,0,0,0,0,0,-1,1497,337,0,0
280,687,0,0,0,0,0,0,0,0,0,-1,1504,337,0,0
287,687,0,0,0,0,0,0,0,0,0,-1,1511,337,0,0
294,687,0,0,0,0,0,0,0,0,0,-1,1518,337,0,0
301,687,0,0,0,0,0,0,0,0,0,-1,1525,337,0,0
308,687,0,0,0,0,0,0,0,0,0,-1,1532,337,0,0
315,687,0,0,0,0,0,0,0,0,0,-1,1539,337,0,0
322,687,0,0,0,0,0,0,0,0,0,-1,1546,337,0,0
329,687,0,0,0,0,0,0,0,0,0,-1,1553,337,0,0
336,687,0,0,0,0,0,0,0,0,0,-1,1560,337,0,0
343,687,0,0,0,0,0,0,0,0,0,-1,1567,337,0,0
350,687,0,0,0,0,0,0,0,0,0,-1,1574,337,0,0
357,687,0,0,0,0,0,0,0,0,0,-1,1581,337,0,0
364,687,0,0,0,0,0,0,0,0,0,-1,1588,337,0,0
371,687,0,0,0,0,0,0,0,0,0,-1,1595,337,0,0
378,687,0,0,0,0,0,0,0,0,0,-1,1602,337,0,0
385,687,0,0,0,0,0,0,0,0,0,-1,1609,337,0,0
392,687,0,0,0,0,0,0,0,0,0,-1,1616,337,0,0
399,687,0,0,0,0,0,0,0,0,0,-1,1623,337,0,0
406,687,0,0,0,0,0,0,0,0,0,-1,1630,337,0,0
413,687,0,0,0,0,0,0,0,0,0,-1,1637,337,0,0
420,687,0,0,0,0,0,0,0,0,0,-1,1644,337,0,0
427,687,0,0,0,0,0,0,0,0,0,-1,1651,337,0,0
434,687,0,0,0,0,0,0,0,0,0,-1,1658,337,0,0
441,687,0,0,0,0,0,0,0,0,0,-1,1665,337,0,0
448,687,0,0,0,0,0,0,0,0,0,-1,1672,337,0,0
455,687,0,0,0,0,0,0,0,0,0,-1,1679,337,0,0
462,687,0,0,0,0,0,0,0,0,0,-1,1686,337,0,0
469,687,0,0,0,0,0,0,0,0,0,-1,1693,337,0,0
476,687,0,0,0,0,0,0,0,0,0,-1,1700,337,0,0
483,687,0,0,0,0,0,0,0,0,0,-1,1707,337,0,0
490,687,0,0,0,0,0,0,0,0,0,-1,1714,337,0,0
497,687,0,0,0,0,0,0,0,0,0,-1,1721,337,0,0
504,687,0,0,0,0,0,0,0,0,0,-1,1728,337,0,0
511,687,0,0,0,0,0,0,0,0,0,-1,1735,337,0,0
518,687,0,0,0,0,0,0,0,0,0,-1,1742,337,0,0
525,687,0,0,0,0,0,0,0,0,0,-1,1749,337,0,0
532,687,0,0,0,0,0,0,0,0,0,-1,1756,337,0,0
539,687,0,0,0,0,0,0,0,0,0,-1,1763,337,0,0
546,687,0,0,0,0,0,0,0,0,0,-1,1770,337,0,0
553,687,0,0,0,0,0,0,0,0,0,-1,1777,337,0,0
560,687,0,0,0,0,0,0,0,0,0,-1,1784,337,0,0
567,687,0,0,0,0,0,0,0,0,0,-1,1791,337,0,0
574,687,0,0,0,0,0,0,0,0,0,-1,1798,337,0,0
581,687,0,0,0,0,0,0,0,0,0,-1,1805,337,0,0
588,687,0,0,0,0,0,0,0,0,0,-1,1812,337,0,0
595,687,0,0,0,0,0,0,0,0,0,-1,1819,337,0,0
602,687,0,0,0,0,0,0,0,0,0,-1,1826,337,0,0
609,687,0,0,0,0,0,0,0,0,0,-1,1833,337,0,0
616,687,0,0,0,0,0,0,0,0,0,-1,1840,337,0,0
623,687,0,0,0,0,0,0,0,0,0,-1,1847,337,0,0
630,687,0,0,0,0,0,0,0,0,0,-1,1854,337,0,0
637,687,0,0,0,0,0,0,0,0,0,-1,1861,337,0,0
644,687,0,0,0,0,0,0,0,0,0,-1,1868,337,0,0
651,687,0,0,0,0,0,0,0,0,0,-1,1875,337,0,0
658,687,0,0,0,0,0,0,0,0,0,-1,1882,337,0,0
665,687,0,0,0,0,0,0,0,0,0,-1,1889,337,0,0
672,687,0,0,0,0,0,0,0,0,0,-1,1896,337,0,0
679,687,0,0,0,0,0,0,0,0,0,-1,1903,337,0,0
686,687,0,0,0,0,0,0,0,0,0,-1,1910,337,0,0
693,687,0,0,0,0,0,0,0,0,0,-1,1917,337,0,0
700,687,0,0,0,0,0,0,0,0,0,-1,1924,337,0,0
707,687,0,0,0,0,0,0,0,0,0,-1,1931,337,0,0
714,687,0,0,0,0,0,0,0,0,0,-1,1938,337,0,0
721,687,0,0,0,0,0,0,0,0,0,-1,1945,337,0,0
728,687,0,0,0,0,0,0,0,0,0,-1,1952,337,0,0
735,687,0,0,0,0,0,0,0,0,0,-1,1959,337,0,0
742,687,0,0,0,0,0,0,0,0,0,-1,1966,337,0,0
749,687,0,0,0,0,0,0,0,0,0,-1,1973,337,0,0
756,687,0,0,0,0,0,0,0,0,0,-1,1980,337,0,0
763,687,0,0,0,0,0,0,0,0,0,-1,1987,337,0,0
770,687,0,0,0,0,0,0,0,0,0,-1,1994,337,0,0
777,687,0,0,0,0,0,0,0,0,0,-1,2001,337,0,0
784,687,0,0,0,0,0,0,0,0,0,-1,2008,337,0,0
791,687,0,0,0,0,0,0,0,0,0,-1,2015,337,0,0
798,687,0,0,0,0,0,0,0,0,0,-1,2022,337,0,0
805,687,0,0,0,0,0,0,0,0,0,-1,2029,337,0,0
812,687,0,0,0,0,0,0,0,0,0,-1,2036,337,0,0
-700,680,0,0,0,0,0,0,0,0,0,-1,524,344,0,0
-693,680,0,0,0,0,0,0,0,0,0,-1,531,344,0,0
-686,680,0,0,0,0,0,0,0,0,0,-1,538,344,0,0
-679,680,0,0,0,0,0,0,0,0,0,-1,545,344,0,0
-672,680,0,0,0,0,0,0,0,0,0,-1,552,344,0,0
-665,680,0,0,0,0,0,0,0,0,0,-1,559,344,0,0
-658,680,0,0,0,0,0,0,0,0,0,-1,566,344,0,0
-651,680,0,0,0,0,0,0,0,0,0,-1,573,344,0,0
-644,680,0,0,0,0,0,0,0,0,0,-1,580,344,0,0
-637,680,0,0,0,0,0,0,0,0,0,-1,587,344,0,0
-630,680,0,0,0,0,0,0,0,0,0,-1,594,344,0,0
-623,680,0,0,0,0,0,0,0,0,0,-1,601,344,0,0
-616,680,0,0,0,0,0,0,0,0,0,-1,608,344,0,0
-609,680,0,0,0,0,0,0,0,0,0,-1,615,344,0,0
-602,680,0,0,0,0,0,0,0,0,0,-1,622,344,0,0
-595,680,0,0,0,0,0,0,0,0,0,-1,629,344,0,0
-588,680,0,0,0,0,0,0,0,0,0,-1,636,344,0,0
-581,680,0,0,0,0,0,0,0,0,0,-1,643,344,0,0
-574,680,0,0,0,0,0,0,0,0,0,-1,650,344,0,0
-567,680,0,0,0,0,0,0,0,0,0,-1,657,344,0,0
-560,680,0,0,0,0,0,0,0,0,0,-1,664,344,0,0
-553,680,0,0,0,0,0,0,0,0,0,-1,671,344,0,0
-546,680,0,0,0,0,0,0,0,0,0,-1,678,344,0,0
-539,680,0,0,0,0,0,0,0,0,0,-1,685,344,0,0
-532,680,0,0,0,0,0,0,0,0,0,-1,692,344,0,0
-525,680,0,0,0,0,0,0,0,0,0,-1,699,344,0,0
-518,680,0,0,0,0,0,0,0,0,0,-1,706,344,0,0
-511,680,0,0,0,0,0,0,0,0,0,-1,713,344,0,0
-504,680,0,0,0,0,0,0,0,0,0,-1,720,344,0,0
-497,680,0,0,0,0,0,0,0,0,0,-1,727,344,0,0
-490,680,0,0,0,0,0,0,0,0,0,-1,734,344,0,0
-483,680,0,0,0,0,0,0,0,0,0,-1,741,344,0,0
-476,680,0,0,0,0,0,0,0,0,0,-1,748,344,0,0
-469,680,0,0,0,0,0,0,0,0,0,-1,755,344,0,0
-462,680,0,0,0,0,0,0,0,0,0,-1,762,344,0,0
-455,680,0,0,0,0,0,0,0,0,0,-1,769,344,0,0
-448,680,0,0,0,0,0,0,0,0,0,-1,776,344,0,0
-441,680,0,0,0,0,0,0,0,0,0,-1,783,344,0,0
-434,680,0,0,0,0,0,0,0,0,0,-1,790,344,0,0
-427,680,0,0,0,0,0,0,0,0,0,-1,797,344,0,0
-420,680,0,0,0,0,0,0,0,0,0,-1,804,344,0,0
-413,680,0,0,0,0,0,0,0,0,0,-1,811,344,0,0
-406,680,0,0,0,0,0,0,0,0,0,-1,818,344,0,0
-399,680,0,0,0,0,0,0,0,0,0,-1,825,344,0,0
-392,680,0,0,0,0,0,0,0,0,0,-1,832,344,0,0
-385,680,0,0,0,0,0,0,0,0,0,-1,839,344,0,0
-378,680,0,0,0,0,0,0,0,0,0,-1,846,344,0,0
-371,680,0,0,0,0,0,0,0,0,0,-1,853,344,0,0
-364,680,0,0,0,0,0,0,0,0,0,-1,860,344,0,0
-357,680,0,0,0,0,0,0,0,0,0,-1,867,344,0,0
-350,680,0,0,0,0,0,0,0,0,0,-1,874,344,0,0
-343,680,0,0,0,0,0,0,0,0,0,-1,881,344,0,0
-336,680,0,0,0,0,0,0,0,0,0,-1,888,344,0,0
-329,680,0,0,0,0,0,0,0,0,0,-1,895,344,0,0
-322,680,0,0,0,0,0,0,0,0,0,-1,902,344,0,0
-315,680,0,0,0,0,0,0,0,0,0,-1,909,344,0,0
-308,680,0,0,0,0,0,0,0,0,0,-1,916,344,0,0
-301,680,0,0,0,0,0,0,0,0,0,-1,923,344,0,0
-294,680,0,0,0,0,0,0,0,0,0,-1,930,344,0,0
-287,680,0,0,0,0,0,0,0,0,0,-1,937,344,0,0
-280,680,0,0,0,0,0,0,0,0,0,-1,944,344,0,0
-273,680,0,0,0,0,0,0,0,0,0,-1,951,344,0,0
-266,680,0,0,0,0,0,0,0,0,0,-1,958,344,0,0
-259,680,0,0,0,0,0,0,0,0,0,-1,965,344,0,0
-252,680,0,0,0,0,0,0,0,0,0,-1,972,344,0,0
-245,680,0,0,0,0,0,0,0,0,0,-1,979,344,0,0
-238,680,0,0,0,0,0,0,0,0,0,-1,986,344,0,0
-231,680,0,0,0,0,0,0,0,0,0,-1,993,344,0,0
-224,680,0,0,0,0,0,0,0,0,0,-1,1000,344,0,0
-217,680,0,0,0,0,0,0,0,0,0,-1,1007,344,0,0
-210,680,0,0,0,0,0,0,0,0,0,-1,1014,344,0,0
-203,680,0,0,0,0,0,0,0,0,0,-1,1021,344,0,0
-196,680,0,0,0,0,0,0,0,0,0,-1,1028,344,0,0
-189,680,0,0,0,0,0,0,0,0,0,-1,1035,344,0,0
-182,680,0,0,0,0,0,0,0,0,0,-1,1042,344,0,0
-175,680,0,0,0,0,0,0,0,0,0,-1,1049,344,0,0
-168,680,0,0,0,0,0,0,0,0,0,-1,1056,344,0,0
-161,680,0,0,0,0,0,0,0,0,0,-1,1063,344,0,0
-154,680,-1.22534,-3.19229,0,0,0,0,0,0,0,-1,1070,344,-1.22529,3.1923
-147,680,1.31897,-11.5357,0,0,0,0,0,0,0,-1,1077,344,1.31896,11.5357
-140,680,2.14502,-11.7579,0,0,0,0,0,0,0,-1,1084,344,2.145,11.7579
-133,680,3.11047,-11.7595,0,0,0,0,0,0,0,-1,1091,344,3.11044,11.7595
-126,680,1.31165,-10.1951,0,0,0,0,0,0,0,-1,1098,344,1.31166,10.1951
-119,680,1.04834,-10.3552,0,0,0,0,0,0,0,-1,1105,344,1.04835,10.3552
-112,680,0.719482,-10.732,0,0,0,0,0,0,0,-1,1112,344,0.719423,10.732
-105,680,3.65027,-10.3892,0,0,0,0,0,0,0,-1,1119,344,3.65033,10.3892
-98,680,2.23914,-7.96515,0,0,0,0,0,0,0,-1,1126,344,2.23908,7.96514
-91,680,2.84448,-8.00763,0,0,0,0,0,0,0,-1,1133,344,2.84447,8.00764
-84,680,2.71631,-7.27869,0,0,0,0,0,0,0,-1,1140,344,2.71634,7.2787
-77,680,1.31738,-3.86298,0,0,0,0,0,0,0,-1,1147,344,1.31733,3.86296
-70,680,1.79248,-2.08197,0,0,0,0,0,0,0,-1,1154,344,1.79242,2.08198
-63,680,-5.41333,-13.0013,0,0,0,0,0,0,0,-1,1161,344,-5.41332,13.0013
-56,680,-6.96912,-8.83356,0,0,0,0,0,0,0,-1,1168,344,-6.96907,8.83354
-49,680,-6.7677,-2.24063,0,0,0,0,0,0,0,-1,1175,344,-6.76772,2.24063
-42,680,-1.02368,0.618805,0,0,0,0,0,0,0,-1,1182,344,-1.0237,-0.618797
-35,680,-0.947876,-0.942719,0,0,0,0,0,0,0,-1,1189,344,-0.947842,0.942731
-28,680,-1.46118,-1.10574,0,0,0,0,0,0,0,-1,1196,344,-1.4612,1.10575
-21,680,1.02527,-8.81476,0,0,0,0,0,0,0,-1,1203,344,1.02531,8.81476
-14,680,1.23669,-9.1022,0,0,0,0,0,0,0,-1,1210,344,1.23674,9.10219
-7,680,2.3634,-10.02,0,0,0,0,0,0,0,-1,1217,344,2.36335,10.02
0,680,2.18884,-9.86179,0,0,0,0,0,0,0,-1,1224,344,2.1888,9.86178
7,680,2.09912,-9.89371,0,0,0,0,0,0,0,-1,1231,344,2.09909,9.89371
14,680,2.47046,-9.67203,0.00773881,-0.00108274,0.00488664,0.0099109,-0.00325484,0.418268,0.00791843,0.0449447,1238,344,2.47046,9.67204
21,680,1.59802,-10.1888,0.0148349,0.000407719,0.0069427,0.0176331,-0.00239054,0.383133,0.0126279,0.0430887,1245,344,1.59803,10.1888
28,680,1.89001,-10.1963,0.0201244,0.00362401,0.0119336,0.026382,-0.00263357,0.482952,0.0185283,0.0413391,1252,344,1.89,10.1962
35,680,1.84875,-9.92212,0,0,0,0,0,0,0,-1,1259,344,1.84876,9.92211
42,680,1.87036,-9.88498,0.0275978,0.00745898,0.0196818,0.0396365,-0.00457967,0.548952,0.0280756,0.0456859,1266,344,1.8704,9.88498
49,680,1.93701,-9.85184,0.0303052,0.00988972,0.0228207,0.0450971,-0.00490223,0.575095,0.0318249,0.0370921,1273,344,1.93698,9.85182
56,680,2.05188,-9.8367,0.0304298,0.0110845,0.0251888,0.0477393,-0.00622499,0.602076,0.0340912,0.0339848,1280,344,2.05191,9.83669
63,680,2.16211,-9.84879,0.0282051,0.0116659,0.0266302,0.0478201,-0.00794912,0.634852,0.0348334,0.036539,1287,344,2.1621,9.84879
70,680,2.4198,-9.75076,0.0252422,0.0115807,0.0272989,0.046552,-0.00972904,0.662804,0.0347348,0.0381865,1294,344,2.41981,9.75075
77,680,2.43628,-9.50208,0,0,0,0,0,0,0,-1,1301,344,2.43624,9.50207
84,680,2.84998,-9.51785,0.0145253,0.0102064,0.0269136,0.0393659,-0.0146342,0.745365,0.0322485,0.0415053,1308,344,2.84998,9.51785
91,680,2.33276,-9.77606,0.00731857,0.00798848,0.0248647,0.0325204,-0.0172134,0.792133,0.0291637,0.0449411,1315,344,2.33277,9.77607
98,680,2.58923,-9.63895,0.00025175,0.00638464,0.0223083,0.0258363,-0.0191999,0.853699,0.0260956,0.0449754,1322,344,2.58923,9.63896
105,680,2.58569,-9.57593,-0.00650906,0.00427772,0.0191282,0.0187584,-0.0209897,0.922811,0.0229606,0.0433692,1329,344,2.58568,9.57594
112,680,1.64429,-9.73682,-0.0125778,0.00239734,0.0158308,0.012422,-0.0226025,1.0063,0.0205042,0.0457031,1336,344,1.64432,9.73682
119,680,1.46912,-10.1082,-0.0202889,-0.00105875,0.0109431,0.00389328,-0.025241,1.14584,0.0182639,0.0436288,1343,344,1.46916,10.1082
126,680,1.92627,-9.72406,0,0,0,0,0,0,0,-1,1350,344,1.92631,9.72406
133,680,1.87854,-9.9718,0,0,0,0,0,0,0,-1,1357,344,1.87855,9.97179
140,680,1.8866,-9.66159,0,0,0,0,0,0,0,-1,1364,344,1.88657,9.66159
147,680,1.77258,-9.07367,-0.0288033,0.000834747,-0.0021127,0.000984589,-0.0289532,-1.49999,0.0196386,0.041276,1371,344,1.77255,9.07368
154,680,1.39343,-9.36179,-0.0281982,0.00131828,-0.00339451,0.00170364,-0.0285835,-1.45776,0.0196482,0.0476,1378,344,1.39344,9.36179
161,680,1.35413,-9.52432,0,0,0,0,0,0,0,-1,1385,344,1.3541,9.52433
168,680,6.85046,1.69257,0,0,0,0,0,0,0,-1,1392,344,6.85045,-1.69257
175,680,6.66541,0.942078,0,0,0,0,0,0,0,-1,1399,344,6.66538,-0.942088
182,680,6.52917,0.532379,0,0,0,0,0,0,0,-1,1406,344,6.52922,-0.532385
189,680,7.55884,4.77695,0,0,0,0,0,0,0,-1,1413,344,7.55886,-4.77694
196,680,6.55627,3.35254,0,0,0,0,0,0,0,-1,1420,344,6.55622,-3.35255
203,680,5.7334,1.90753,0,0,0,0,0,0,0,-1,1427,344,5.73341,-1.90754
210,680,5.27515,0.493622,0,0,0,0,0,0,0,-1,1434,344,5.27514,-0.493632
217,680,3.96936,1.3656,0,0,0,0,0,0,0,-1,1441,344,3.96942,-1.36559
224,680,3.9491,-0.640228,0,0,0,0,0,0,0,-1,1448,344,3.94908,0.64024
231,680,4.24866,-1.96881,0,0,0,0,0,0,0,-1,1455,344,4.2486,1.96882
238,680,4.29333,-3.23984,0,0,0,0,0,0,0,-1,1462,344,4.29332,3.23984
245,680,2.44397,0.985382,0,0,0,0,0,0,0,-1,1469,344,2.44402,-0.985394
252,680,3.07349,2.18951,0,0,0,0,0,0,0,-1,1476,344,3.0735,-2.18952
259,680,2.82971,1.30682,0,0,0,0,0,0,0,-1,1483,344,2.82972,-1.30684
266,680,2.67554,1.44067,0,0,0,0,0,0,0,-1,1490,344,2.67551,-1.44066
273,680,2.46411,1.54666,0,0,0,0,0,0,0,-1,1497,344,2.46407,-1.54666
280,680,0,0,0,0,0,0,0,0,0,-1,1504,344,0,0
287,680,0,0,0,0,0,0,0,0,0,-1,1511,344,0,0
294,680,0,0,0,0,0,0,0,0,0,-1,1518,344,0,0
301,680,0,0,0,0,0,0,0,0,0,-1,1525,344,0,0
308,680,0,0,0,0,0,0,0,0,0,-1,1532,344,0,0
315,680,0,0,0,0,0,0,0,0,0,-1,1539,344,0,0
322,680,0,0,0,0,0,0,0,0,0,-1,1546,344,0,0
329,680,0,0,0,0,0,0,0,0,0,-1,1553,344,0,0
336,680,0,0,0,0,0,0,0,0,0,-1,1560,344,0,0
343,680,0,0,0,0,0,0,0,0,0,-1,1567,344,0,0
350,680,0,0,0,0,0,0,0,0,0,-1,1574,344,0,0
357,680,0,0,0,0,0,0,0,0,0,-1,1581,344,0,0
364,680,0,0,0,0,0,0,0,0,0,-1,1588,344,0,0
371,680,0,0,0,0,0,0,0,0,0,-1,1595,344,0,0
378,680,0,0,0,0,0,0,0,0,0,-1,1602,344,0,0
385,680,0,0,0,0,0,0,0,0,0,-1,1609,344,0,0
392,680,0,0,0,0,0,0,0,0,0,-1,1616,344,0,0
399,680,0,0,0,0,0,0,0,0,0,-1,1623,344,0,0
406,680,0,0,0,0,0,0,0,0,0,-1,1630,344,0,0
413,680,0,0,0,0,0,0,0,0,0,-1,1637,344,0,0
420,680,0,0,0,0,0,0,0,0,0,-1,1644,344,0,0
427,680,0,0,0,0,0,0,0,0,0,-1,1651,344,0,0
434,680,0,0,0,0,0,0,0,0,0,-1,1658,344,0,0
441,680,0,0,0,0,0,0,0,0,0,-1,1665,344,0,0
448,680,0,0,0,0,0,0,0,0,0,-1,1672,344,0,0
455,680,0,0,0,0,0,0,0,0,0,-1,1679,344,0,0
462,680,0,0,0,0,0,0,0,0,0,-1,1686,344,0,0
469,680,0,0,0,0,0,0,0,0,0,-1,1693,344,0,0
476,680,0,0,0,0,0,0,0,0,0,-1,1700,344,0,0
483,680,0,0,0,0,0,0,0,0,0,-1,1707,344,0,0
490,680,0,0,0,0,0,0,0,0,0,-1,1714,344,0,0
497,680,0,0,0,0,0,0,0,0,0,-1,1721,344,0,0
504,680,0,0,0,0,0,0,0,0,0,-1,1728,344,0,0
511,680,0,0,0,0,0,0,0,0,0,-1,1735,344,0,0
518,680,0,0,0,0,0,0,0,0,0,-1,1742,344,0,0
525,680,0,0,0,0,0,0,0,0,0,-1,1749,344,0,0
532,680,0,0,0,0,0,0,0,0,0,-1,1756,344,0,0
539,680,0,0,0,0,0,0,0,0,0,-1,1763,344,0,0
546,680,0,0,0,0,0,0,0,0,0,-1,1770,344,0,0
553,680,0,0,0,0,0,0,0,0,0,-1,1777,344,0,0
560,680,0,0,0,0,0,0,0,0,0,-1,1784,344,0,0
567,680,0,0,0,0,0,0,0,0,0,-1,1791,344,0,0
574,680,0,0,0,0,0,0,0,0,0,-1,1798,344,0,0
581,680,0,0,0,0,0,0,0,0,0,-1,1805,344,0,0
588,680,0,0,0,0,0,0,0,0,0,-1,1812,344,0,0
595,680,0,0,0,0,0,0,0,0,0,-1,1819,344,0,0
602,680,0,0,0,0,0,0,0,0,0,-1,1826,344,0,0
609,680,0,0,0,0,0,0,0,0,0,-1,1833,344,0,0
616,680,0,0,0,0,0,0,0,0,0,-1,1840,344,0,0
623,680,0,0,0,0,0,0,0,0,0,-1,1847,344,0,0
630,680,0,0,0,0,0,0,0,0,0,-1,1854,344,0,0
637,680,0,0,0,0,0,0,0,0,0,-1,1861,344,0,0
644,680,0,0,0,0,0,0,0,0,0,-1,1868,344,0,0
651,680,0,0,0,0,0,0,0,0,0,-1,1875,344,0,0
658,680,0,0,0,0,0,0,0,0,0,-1,1882,344,0,0
665,680,0,0,0,0,0,0,0,0,0,-1,1889,344,0,0
672,680,0,0,0,0,0,0,0,0,0,-1,1896,344,0,0
679,680,0,0,0,0,0,0,0,0,0,-1,1903,344,0,0
686,680,0,0,0,0,0,0,0,0,0,-1,1910,344,0,0
693,680,0,0,0,0,0,0,0,0,0,-1,1917,344,0,0
700,680,0,0,0,0,0,0,0,0,0,-1,1924,344,0,0
707,680,0,0,0,0,0,0,0,0,0,-1,1931,344,0,0
714,680,0,0,0,0,0,0,0,0,0,-1,1938,344,0,0
721,680,0,0,0,0,0,0,0,0,0,-1,1945,344,0,0
728,680,0,0,0,0,0,0,0,0,0,-1,1952,344,0,0
735,680,0,0,0,0,0,0,0,0,0,-1,1959,344,0,0
742,680,0,0,0,0,0,0,0,0,0,-1,1966,344,0,0
749,680,0,0,0,0,0,0,0,0,0,-1,1973,344,0,0
756,680,0,0,0,0,0,0,0,0,0,-1,1980,344,0,0
763,680,0,0,0,0,0,0,0,0,0,-1,1987,344,0,0
770,680,0,0,0,0,0,0,0,0,0,-1,1994,344,0,0
777,680,0,0,0,0,0,0,0,0,0,-1,2001,344,0,0
784,680,0,0,0,0,0,0,0,0,0,-1,2008,344,0,0
791,680,0,0,0,0,0,0,0,0,0,-1,2015,344,0,0
798,680,0,0,0,0,0,0,0,0,0,-1,2022,344,0,0
805,680,0,0,0,0,0,0,0,0,0,-1,2029,344,0,0
812,680,0,0,0,0,0,0,0,0,0,-1,2036,344,0,0
-700,673,0,0,0,0,0,0,0,0,0,-1,524,351,0,0
-693,673,0,0,0,0,0,0,0,0,0,-1,531,351,0,0
-686,673,0,0,0,0,0,0,0,0,0,-1,538,351,0,0
-679,673,0,0,0,0,0,0,0,0,0,-1,545,351,0,0
-672,673,0,0,0,0,0,0,0,0,0,-1,552,351,0,0
-665,673,0,0,0,0,0,0,0,0,0,-1,559,351,0,0
-658,673,0,0,0,0,0,0,0,0,0,-1,566,351,0,0
-651,673,0,0,0,0,0,0,0,0,0,-1,573,351,0,0
-644,673,0,0,0,0,0,0,0,0,0,-1,580,351,0,0
-637,673,0,0,0,0,0,0,0,0,0,-1,587,351,0,0
-630,673,0,0,0,0,0,0,0,0,0,-1,594,351,0,0
-623,673,0,0,0,0,0,0,0,0,0,-1,601,351,0,0
-616,673,0,0,0,0,0,0,0,0,0,-1,608,351,0,0
-609,673,0,0,0,0,0,0,0,0,0,-1,615,351,0,0
-602,673,0,0,0,0,0,0,0,0,0,-1,622,351,0,0
-595,673,0,0,0,0,0,0,0,0,0,-1,629,351,0,0
-588,673,0,0,0,0,0,0,0,0,0,-1,636,351,0,0
-581,673,0,0,0,0,0,0,0,0,0,-1,643,351,0,0
-574,673,0,0,0,0,0,0,0,0,0,-1,650,351,0,0
-567,673,0,0,0,0,0,0,0,0,0,-1,657,351,0,0
-560,673,0,0,0,0,0,0,0,0,0,-1,664,351,0,0
-553,673,0,0,0,0,0,0,0,0,0,-1,671,351,0,0
-546,673,0,0,0,0,0,0,0,0,0,-1,678,351,0,0
-539,673,0,0,0,0,0,0,0,0,0,-1,685,351,0,0
-532,673,0,0,0,0,0,0,0,0,0,-1,692,351,0,0
-525,673,0,0,0,0,0,0,0,0,0,-1,699,351,0,0
-518,673,0,0,0,0,0,0,0,0,0,-1,706,351,0,0
-511,673,0,0,0,0,0,0,0,0,0,-1,713,351,0,0
-504,673,0,0,0,0,0,0,0,0,0,-1,720,351,0,0
-497,673,0,0,0,0,0,0,0,0,0,-1,727,351,0,0
-490,673,0,0,0,0,0,0,0,0,0,-1,734,351,0,0
-483,673,0,0,0,0,0,0,0,0,0,-1,741,351,0,0
-476,673,0,0,0,0,0,0,0,0,0,-1,748,351,0,0
-469,673,0,0,0,0,0,0,0,0,0,-1,755,351,0,0
-462,673,0,0,0,0,0,0,0,0,0,-1,762,351,0,0
-455,673,0,0,0,0,0,0,0,0,0,-1,769,351,0,0
-448,673,0,0,0,0,0,0,0,0,0,-1,776,351,0,0
-441,673,0,0,0,0,0,0,0,0,0,-1,783,351,0,0
-434,673,0,0,0,0,0,0,0,0,0,-1,790,351,0,0
-427,673,0,0,0,0,0,0,0,0,0,-1,797,351,0,0
-420,673,0,0,0,0,0,0,0,0,0,-1,804,351,0,0
-413,673,0,0,0,0,0,0,0,0,0,-1,811,351,0,0
-406,673,0,0,0,0,0,0,0,0,0,-1,818,351,0,0
-399,673,0,0,0,0,0,0,0,0,0,-1,825,351,0,0
-392,673,0,0,0,0,0,0,0,0,0,-1,832,351,0,0
-385,673,0,0,0,0,0,0,0,0,0,-1,839,351,0,0
-378,673,0,0,0,0,0,0,0,0,0,-1,846,351,0,0
-371,673,0,0,0,0,0,0,0,0,0,-1,853,351,0,0
-364,673,0,0,0,0,0,0,0,0,0,-1,860,351,0,0
-357,673,0,0,0,0,0,0,0,0,0,-1,867,351,0,0
-350,673,0,0,0,0,0,0,0,0,0,-1,874,351,0,0
-343,673,0,0,0,0,0,0,0,0,0,-1,881,351,0,0
-336,673,0,0,0,0,0,0,0,0,0,-1,888,351,0,0
-329,673,0,0,0,0,0,0,0,0,0,-1,895,351,0,0
-322,673,0,0,0,0,0,0,0,0,0,-1,902,351,0,0
-315,673,0,0,0,0,0,0,0,0,0,-1,909,351,0,0
-308,673,0,0,0,0,0,0,0,0,0,-1,916,351,0,0
-301,673,0,0,0,0,0,0,0,0,0,-1,923,351,0,0
-294,673,0,0,0,0,0,0,0,0,0,-1,930,351,0,0
-287,673,0,0,0,0,0,0,0,0,0,-1,937,351,0,0
-280,673,0,0,0,0,0,0,0,0,0,-1,944,351,0,0
-273,673,0,0,0,0,0,0,0,0,0,-1,951,351,0,0
-266,673,0,0,0,0,0,0,0,0,0,-1,958,351,0,0
-259,673,0,0,0,0,0,0,0,0,0,-1,965,351,0,0
-252,673,0,0,0,0,0,0,0,0,0,-1,972,351,0,0
-245,673,0,0,0,0,0,0,0,0,0,-1,979,351,0,0
-238,673,0,0,0,0,0,0,0,0,0,-1,986,351,0,0
-231,673,0,0,0,0,0,0,0,0,0,-1,993,351,0,0
-224,673,0,0,0,0,0,0,0,0,0,-1,1000,351,0,0
-217,673,0,0,0,0,0,0,0,0,0,-1,1007,351,0,0
-210,673,0,0,0,0,0,0,0,0,0,-1,1014,351,0,0
-203,673,0,0,0,0,0,0,0,0,0,-1,1021,351,0,0
-196,673,0,0,0,0,0,0,0,0,0,-1,1028,351,0,0
-189,673,0,0,0,0,0,0,0,0,0,-1,1035,351,0,0
-182,673,0,0,0,0,0,0,0,0,0,-1,1042,351,0,0
-175,673,0.35144,-5.74207,0,0,0,0,0,0,0,-1,1049,351,0.35139,5.74208
-168,673,0.501221,-5.83353,0,0,0,0,0,0,0,-1,1056,351,0.501161,5.83354
-161,673,3.87073,-11.1271,0,0,0,0,0,0,0,-1,1063,351,3.87074,11.1271
-154,673,0.910889,-11.0724,0,0,0,0,0,0,0,-1,1070,351,0.910902,11.0724
-147,673,1.51672,-11.1369,0,0,0,0,0,0,0,-1,1077,351,1.51672,11.1369
-140,673,2.18262,-11.1477,0,0,0,0,0,0,0,-1,1084,351,2.18266,11.1477
-133,673,2.93616,-10.9825,0,0,0,0,0,0,0,-1,1091,351,2.93615,10.9825
-126,673,1.7196,-9.62213,0,0,0,0,0,0,0,-1,1098,351,1.71964,9.62213
-119,673,1.62122,-9.49423,0,0,0,0,0,0,0,-1,1105,351,1.62124,9.49424
-112,673,2.24219,-9.00363,0,0,0,0,0,0,0,-1,1112,351,2.24223,9.00364
-105,673,2.1062,-8.13123,0,0,0,0,0,0,0,-1,1119,351,2.10615,8.13122
-98,673,2.26013,-8.16525,0.0186376,0.0479553,0.00538531,0.0489132,0.0176797,1.39476,0.0285992,0.046551,1126,351,2.26012,8.16525
-91,673,2.68127,-8.34396,0.0181563,0.049037,0.00499729,0.0498255,0.0173678,1.41429,0.0292032,0.0420638,1133,351,2.68123,8.34395
-84,673,2.5874,-8.18658,0,0,0,0,0,0,0,-1,1140,351,2.58741,8.18658
-77,673,2.36157,-7.52881,0,0,0,0,0,0,0,-1,1147,351,2.36159,7.5288
-70,673,1.88684,-4.7381,0,0,0,0,0,0,0,-1,1154,351,1.88682,4.73809
-63,673,1.11719,-2.95016,0,0,0,0,0,0,0,-1,1161,351,1.11724,2.95016
-56,673,-6.18872,-9.52338,0,0,0,0,0,0,0,-1,1168,351,-6.18874,9.52336
-49,673,-0.926758,-0.115448,0,0,0,0,0,0,0,-1,1175,351,-0.926732,0.115444
-42,673,-1.15015,0.289917,0,0,0,0,0,0,0,-1,1182,351,-1.15017,-0.289932
-35,673,-0.919556,-1.00711,0,0,0,0,0,0,0,-1,1189,351,-0.919514,1.00711
-28,673,1.03564,-2.58228,0,0,0,0,0,0,0,-1,1196,351,1.0356,2.58229
-21,673,2.02368,-9.74957,0,0,0,0,0,0,0,-1,1203,351,2.02363,9.74957
-14,673,2.02612,-9.98691,0,0,0,0,0,0,0,-1,1210,351,2.02617,9.9869
-7,673,2.17603,-9.93185,-0.00596262,-0.00466604,-0.00197649,-0.00323424,-0.00739443,-0.94387,0.00428032,0.0424383,1217,351,2.176,9.93185
0,673,2.13318,-9.8338,-0.00505223,-0.00483015,-0.00189921,-0.00303873,-0.00684365,-0.814598,0.00395943,0.0443914,1224,351,2.13315,9.8338
7,673,2.0697,-9.87814,-0.00359025,-0.00528142,-0.00159365,-0.00263174,-0.00623993,-0.541486,0.0036173,0.0451074,1231,351,2.06968,9.87814
14,673,2.10437,-9.87079,0.00345262,-0.00159572,0.0022408,0.00430375,-0.00244685,0.362999,0.0039463,0.0377458,1238,351,2.10434,9.8708
21,673,2.05713,-9.86783,0.00808281,-0.000615932,0.00363508,0.00940185,-0.00193497,0.348088,0.00700257,0.0235962,1245,351,2.05714,9.86782
28,673,2.01965,-9.86371,0.0121819,0.00159869,0.0069411,0.0156184,-0.00183781,0.459716,0.0110758,0.0163018,1252,351,2.01967,9.86372
35,673,2.01208,-9.89523,0.015406,0.00318677,0.00978243,0.0208299,-0.00223719,0.506261,0.0146893,0.0236117,1259,351,2.01211,9.89524
42,673,1.92468,-9.88235,0.018014,0.00464228,0.012532,0.025532,-0.00287575,0.540352,0.0180564,0.02677,1266,351,1.92473,9.88234
49,673,1.94312,-9.89508,0.0201993,0.00660039,0.0149511,0.0298245,-0.00302482,0.571989,0.0209641,0.0162834,1273,351,1.94313,9.89507
56,673,1.96387,-9.88559,0.0204444,0.00769532,0.0168872,0.0321201,-0.00398036,0.604927,0.022856,0.0127398,1280,351,1.96385,9.88558
63,673,2.03564,-9.87567,0.0189255,0.00835229,0.0181362,0.03253,-0.00525215,0.643581,0.0236327,0.0156072,1287,351,2.03568,9.87566
70,673,2.02551,-9.84131,0.0169851,0.00852935,0.018846,0.0320717,-0.00655718,0.675055,0.023869,0.0244034,1294,351,2.02553,9.8413
77,673,2.13525,-9.69894,0.0139018,0.00862321,0.0194066,0.0308478,-0.00832277,0.717813,0.023829,0.0334741,1301,351,2.13528,9.69894
84,673,2.18701,-9.64667,0.00954434,0.00807055,0.0191051,0.0279267,-0.0103118,0.766122,0.0228445,0.0394106,1308,351,2.18702,9.64666
91,673,2.12109,-9.87292,0.00448406,0.00664582,0.0178209,0.0234186,-0.0122887,0.815687,0.0209467,0.0431304,1315,351,2.12111,9.87292
98,673,2.17761,-9.88763,-0.000553001,0.0057146,0.0161052,0.018988,-0.0138264,0.881489,0.0190234,0.0444863,1322,351,2.17761,9.88763
105,673,2.22815,-9.66553,-0.00537859,0.00428722,0.0138867,0.014158,-0.0152493,0.952855,0.0169822,0.040537,1329,351,2.22818,9.66552
112,673,1.80652,-9.76212,-0.00966618,0.00298037,0.0115977,0.00986656,-0.0165524,1.03498,0.0154149,0.0429472,1336,351,1.80649,9.7621
119,673,1.89392,-9.81348,0,0,0,0,0,0,0,-1,1343,351,1.89388,9.81346
126,673,1.89929,-9.68127,-0.0177558,0.000328143,0.00630603,0.00230993,-0.0197376,1.2663,0.0139921,0.0417409,1350,351,1.89923,9.68128
133,673,1.86462,-9.76831,-0.0193839,-0.000357696,0.00325699,0.000184403,-0.019926,1.40587,0.0133459,0.0399533,1357,351,1.86466,9.76832
140,673,1.85669,-9.61664,-0.0199799,0.000126077,0.00106413,0.00018224,-0.020036,1.51807,0.0134185,0.0388807,1364,351,1.85668,9.61665
147,673,1.62842,-9.50064,-0.0201905,0.00116312,-0.000914737,0.00120223,-0.0202296,-1.52806,0.0139045,0.0380458,1371,351,1.62848,9.50063
154,673,1.58826,-9.39444,-0.0195059,0.00123783,-0.0019157,0.00141326,-0.0196813,-1.47947,0.0136164,0.0385796,1378,351,1.58827,9.39443
161,673,1.62671,-9.30313,0,0,0,0,0,0,0,-1,1385,351,1.62674,9.30314
168,673,6.87061,1.83954,0,0,0,0,0,0,0,-1,1392,351,6.87063,-1.83953
175,673,6.6228,1.1459,0,0,0,0,0,0,0,-1,1399,351,6.62276,-1.14591
182,673,6.37244,0.796112,0,0,0,0,0,0,0,-1,1406,351,6.3724,-0.796102
189,673,6.12097,0.265472,0,0,0,0,0,0,0,-1,1413,351,6.121,-0.265482
196,673,6.02173,3.12717,0,0,0,0,0,0,0,-1,1420,351,6.02176,-3.12717
203,673,5.04456,1.6351,0,0,0,0,0,0,0,-1,1427,351,5.04455,-1.63509
210,673,4.79224,0.447479,0,0,0,0,0,0,0,-1,1434,351,4.79229,-0.447469
217,673,2.01648,0.972687,0,0,0,0,0,0,0,-1,1441,351,2.01644,-0.972691
224,673,2.3689,-1.80539,0,0,0,0,0,0,0,-1,1448,351,2.36896,1.80539
231,673,2.65857,-2.18497,0,0,0,0,0,0,0,-1,1455,351,2.65852,2.18496
238,673,3.24146,-1.01593,0,0,0,0,0,0,0,-1,1462,351,3.24142,1.01593
245,673,3.5376,-0.190399,0,0,0,0,0,0,0,-1,1469,351,3.53759,0.1904
252,673,3.80518,0.55603,0,0,0,0,0,0,0,-1,1476,351,3.80519,-0.556022
259,673,3.88562,1.29617,0,0,0,0,0,0,0,-1,1483,351,3.88562,-1.29618
266,673,4.22424,2.04834,0,0,0,0,0,0,0,-1,1490,351,4.22429,-2.04834
273,673,6.07886,0.385895,0,0,0,0,0,0,0,-1,1497,351,6.0789,-0.385906
280,673,6.97534,-0.0820007,0,0,0,0,0,0,0,-1,1504,351,6.97536,0.0820122
287,673,7.66968,-0.348541,0,0,0,0,0,0,0,-1,1511,351,7.66969,0.348534
294,673,8.20996,0.28537,0,0,0,0,0,0,0,-1,1518,351,8.20993,-0.28536
301,673,0,0,0,0,0,0,0,0,0,-1,1525,351,0,0
308,673,0,0,0,0,0,0,0,0,0,-1,1532,351,0,0
315,673,0,0,0,0,0,0,0,0,0,-1,1539,351,0,0
322,673,0,0,0,0,0,0,0,0,0,-1,1546,351,0,0
329,673,0,0,0,0,0,0,0,0,0,-1,1553,351,0,0
336,673,0,0,0,0,0,0,0,0,0,-1,1560,351,0,0
343,673,0,0,0,0,0,0,0,0,0,-1,1567,351,0,0
350,673,0,0,0,0,0,0,0,0,0,-1,1574,351,0,0
357,673,0,0,0,0,0,0,0,0,0,-1,1581,351,0,0
364,673,0,0,0,0,0,0,0,0,0,-1,1588,351,0,0
371,673,0,0,0,0,0,0,0,0,0,-1,1595,351,0,0
378,673,0,0,0,0,0,0,0,0,0,-1,1602,351,0,0
385,673,0,0,0,0,0,0,0,0,0,-1,1609,351,0,0
392,673,0,0,0,0,0,0,0,0,0,-1,1616,351,0,0
399,673,0,0,0,0,0,0,0,0,0,-1,1623,351,0,0
406,673,0,0,0,0,0,0,0,0,0,-1,1630,351,0,0
413,673,0,0,0,0,0,0,0,0,0,-1,1637,351,0,0
420,673,0,0,0,0,0,0,0,0,0,-1,1644,351,0,0
427,673,0,0,0,0,0,0,0,0,0,-1,1651,351,0,0
434,673,0,0,0,0,0,0,0,0,0,-1,1658,351,0,0
441,673,0,0,0,0,0,0,0,0,0,-1,1665,351,0,0
448,673,0,0,0,0,0,0,0,0,0,-1,1672,351,0,0
455,673,0,0,0,0,0,0,0,0,0,-1,1679,351,0,0
462,673,0,0,0,0,0,0,0,0,0,-1,1686,351,0,0
469,673,0,0,0,0,0,0,0,0,0,-1,1693,351,0,0
476,673,0,0,0,0,0,0,0,0,0,-1,1700,351,0,0
483,673,0,0,0,0,0,0,0,0,0,-1,1707,351,0,0
490,673,0,0,0,0,0,0,0,0,0,-1,1714,351,0,0
497,673,0,0,0,0,0,0,0,0,0,-1,1721,351,0,0
504,673,0,0,0,0,0,0,0,0,0,-1,1728,351,0,0
511,673,0,0,0,0,0,0,0,0,0,-1,1735,351,0,0
518,673,0,0,0,0,0,0,0,0,0,-1,1742,351,0,0
525,673,0,0,0,0,0,0,0,0,0,-1,1749,351,0,0
532,673,0,0,0,0,0,0,0,0,0,-1,1756,351,0,0
539,673,0,0,0,0,0,0,0,0,0,-1,1763,351,0,0
546,673,0,0,0,0,0,0,0,0,0,-1,1770,351,0,0
553,673,0,0,0,0,0,0,0,0,0,-1,1777,351,0,0
560,673,0,0,0,0,0,0,0,0,0,-1,1784,351,0,0
567,673,0,0,0,0,0,0,0,0,0,-1,1791,351,0,0
574,673,0,0,0,0,0,0,0,0,0,-1,1798,351,0,0
581,673,0,0,0,0,0,0,0,0,0,-1,1805,351,0,0
588,673,0,0,0,0,0,0,0,0,0,-1,1812,351,0,0
595,673,0,0,0,0,0,0,0,0,0,-1,1819,351,0,0
602,673,0,0,0,0,0,0,0,0,0,-1,1826,351,0,0
609,673,0,0,0,0,0,0,0,0,0,-1,1833,351,0,0
616,673,0,0,0,0,0,0,0,0,0,-1,1840,351,0,0
623,673,0,0,0,0,0,0,0,0,0,-1,1847,351,0,0
630,673,0,0,0,0,0,0,0,0,0,-1,1854,351,0,0
637,673,0,0,0,0,0,0,0,0,0,-1,1861,351,0,0
644,673,0,0,0,0,0,0,0,0,0,-1,1868,351,0,0
651,673,0,0,0,0,0,0,0,0,0,-1,1875,351,0,0
658,673,0,0,0,0,0,0,0,0,0,-1,1882,351,0,0
665,673,0,0,0,0,0,0,0,0,0,-1,1889,351,0,0
672,673,0,0,0,0,0,0,0,0,0,-1,1896,351,0,0
679,673,0,0,0,0,0,0,0,0,0,-1,1903,351,0,0
686,673,0,0,0,0,0,0,0,0,0,-1,1910,351,0,0
693,673,0,0,0,0,0,0,0,0,0,-1,1917,351,0,0
700,673,0,0,0,0,0,0,0,0,0,-1,1924,351,0,0
707,673,0,0,0,0,0,0,0,0,0,-1,1931,351,0,0
714,673,0,0,0,0,0,0,0,0,0,-1,1938,351,0,0
721,673,0,0,0,0,0,0,0,0,0,-1,1945,351,0,0
728,673,0,0,0,0,0,0,0,0,0,-1,1952,351,0,0
735,673,0,0,0,0,0,0,0,0,0,-1,1959,351,0,0
742,673,0,0,0,0,0,0,0,0,0,-1,1966,351,0,0
749,673,0,0,0,0,0,0,0,0,0,-1,1973,351,0,0
756,673,0,0,0,0,0,0,0,0,0,-1,1980,351,0,0
763,673,0,0,0,0,0,0,0,0,0,-1,1987,351,0,0
770,673,0,0,0,0,0,0,0,0,0,-1,1994,351,0,0
777,673,0,0,0,0,0,0,0,0,0,-1,2001,351,0,0
784,673,0,0,0,0,0,0,0,0,0,-1,2008,351,0,0
791,673,0,0,0,0,0,0,0,0,0,-1,2015,351,0,0
798,673,0,0,0,0,0,0,0,0,0,-1,2022,351,0,0
805,673,0,0,0,0,0,0,0,0,0,-1,2029,351,0,0
812,673,0,0,0,0,0,0,0,0,0,-1,2036,351,0,0
-700,666,0,0,0,0,0,0,0,0,0,-1,524,358,0,0
-693,666,0,0,0,0,0,0,0,0,0,-1,531,358,0,0
-686,666,0,0,0,0,0,0,0,0,0,-1,538,358,0,0
-679,666,0,0,0,0,0,0,0,0,0,-1,545,358,0,0
-672,666,0,0,0,0,0,0,0,0,0,-1,552,358,0,0
-665,666,0,0,0,0,0,0,0,0,0,-1,559,358,0,0
-658,666,0,0,0,0,0,0,0,0,0,-1,566,358,0,0
-651,666,0,0,0,0,0,0,0,0,0,-1,573,358,0,0
-644,666,0,0,0,0,0,0,0,0,0,-1,580,358,0,0
-637,666,0,0,0,0,0,0,0,0,0,-1,587,358,0,0
-630,666,0,0,0,0,0,0,0,0,0,-1,594,358,0,0
-623,666,0,0,0,0,0,0,0,0,0,-1,601,358,0,0
-616,666,0,0,0,0,0,0,0,0,0,-1,608,358,0,0
-609,666,0,0,0,0,0,0,0,0,0,-1,615,358,0,0
-602,666,0,0,0,0,0,0,0,0,0,-1,622,358,0,0
-595,666,0,0,0,0,0,0,0,0,0,-1,629,358,0,0
-588,666,0,0,0,0,0,0,0,0,0,-1,636,358,0,0
-581,666,0,0,0,0,0,0,0,0,0,-1,643,358,0,0
-574,666,0,0,0,0,0,0,0,0,0,-1,650,358,0,0
-567,666,0,0,0,0,0,0,0,0,0,-1,657,358,0,0
-560,666,0,0,0,0,0,0,0,0,0,-1,664,358,0,0
-553,666,0,0,0,0,0,0,0,0,0,-1,671,358,0,0
-546,666,0,0,0,0,0,0,0,0,0,-1,678,358,0,0
-539,666,0,0,0,0,0,0,0,0,0,-1,685,358,0,0
-532,666,0,0,0,0,0,0,0,0,0,-1,692,358,0,0
-525,666,0,0,0,0,0,0,0,0,0,-1,699,358,0,0
-518,666,0,0,0,0,0,0,0,0,0,-1,706,358,0,0
-511,666,0,0,0,0,0,0,0,0,0,-1,713,358,0,0
-504,666,0,0,0,0,0,0,0,0,0,-1,720,358,0,0
-497,666,0,0,0,0,0,0,0,0,0,-1,727,358,0,0
-490,666,0,0,0,0,0,0,0,0,0,-1,734,358,0,0
-483,666,0,0,0,0,0,0,0,0,0,-1,741,358,0,0
-476,666,0,0,0,0,0,0,0,0,0,-1,748,358,0,0
-469,666,0,0,0,0,0,0,0,0,0,-1,755,358,0,0
-462,666,0,0,0,0,0,0,0,0,0,-1,762,358,0,0
-455,666,0,0,0,0,0,0,0,0,0,-1,769,358,0,0
-448,666,0,0,0,0,0,0,0,0,0,-1,776,358,0,0
-441,666,0,0,0,0,0,0,0,0,0,-1,783,358,0,0
-434,666,0,0,0,0,0,0,0,0,0,-1,790,358,0,0
-427,666,0,0,0,0,0,0,0,0,0,-1,797,358,0,0
-420,666,0,0,0,0,0,0,0,0,0,-1,804,358,0,0
-413,666,0,0,0,0,0,0,0,0,0,-1,811,358,0,0
-406,666,0,0,0,0,0,0,0,0,0,-1,818,358,0,0
-399,666,0,0,0,0,0,0,0,0,0,-1,825,358,0,0
-392,666,0,0,0,0,0,0,0,0,0,-1,832,358,0,0
-385,666,0,0,0,0,0,0,0,0,0,-1,839,358,0,0
-378,666,0,0,0,0,0,0,0,0,0,-1,846,358,0,0
-371,666,0,0,0,0,0,0,0,0,0,-1,853,358,0,0
-364,666,0,0,0,0,0,0,0,0,0,-1,860,358,0,0
-357,666,0,0,0,0,0,0,0,0,0,-1,867,358,0,0
-350,666,0,0,0,0,0,0,0,0,0,-1,874,358,0,0
-343,666,0,0,0,0,0,0,0,0,0,-1,881,358,0,0
-336,666,0,0,0,0,0,0,0,0,0,-1,888,358,0,0
-329,666,0,0,0,0,0,0,0,0,0,-1,895,358,0,0
-322,666,0,0,0,0,0,0,0,0,0,-1,902,358,0,0
-315,666,0,0,0,0,0,0,0,0,0,-1,909,358,0,0
-308,666,0,0,0,0,0,0,0,0,0,-1,916,358,0,0
-301,666,0,0,0,0,0,0,0,0,0,-1,923,358,0,0
-294,666,0,0,0,0,0,0,0,0,0,-1,930,358,0,0
-287,666,0,0,0,0,0,0,0,0,0,-1,937,358,0,0
-280,666,0,0,0,0,0,0,0,0,0,-1,944,358,0,0
-273,666,0,0,0,0,0,0,0,0,0,-1,951,358,0,0
-266,666,0,0,0,0,0,0,0,0,0,-1,958,358,0,0
-259,666,0,0,0,0,0,0,0,0,0,-1,965,358,0,0
-252,666,0,0,0,0,0,0,0,0,0,-1,972,358,0,0
-245,666,0,0,0,0,0,0,0,0,0,-1,979,358,0,0
-238,666,0,0,0,0,0,0,0,0,0,-1,986,358,0,0
-231,666,0,0,0,0,0,0,0,0,0,-1,993,358,0,0
-224,666,0,0,0,0,0,0,0,0,0,-1,1000,358,0,0
-217,666,0,0,0,0,0,0,0,0,0,-1,1007,358,0,0
-210,666,0,0,0,0,0,0,0,0,0,-1,1014,358,0,0
-203,666,0,0,0,0,0,0,0,0,0,-1,1021,358,0,0
-196,666,1.68958,-9.41406,0,0,0,0,0,0,0,-1,1028,358,1.68961,9.41406
-189,666,1.67078,-11.9919,0,0,0,0,0,0,0,-1,1035,358,1.67079,11.9919
-182,666,7.30676,-6.88602,0,0,0,0,0,0,0,-1,1042,358,7.30672,6.88601
-175,666,0.79187,-6.52982,0,0,0,0,0,0,0,-1,1049,358,0.791903,6.52981
-168,666,2.37268,-10.3326,0,0,0,0,0,0,0,-1,1056,358,2.37272,10.3326
-161,666,2.89368,-10.4963,0,0,0,0,0,0,0,-1,1063,358,2.89369,10.4963
-154,666,0.970825,-10.8174,0,0,0,0,0,0,0,-1,1070,358,0.970812,10.8174
-147,666,1.54553,-10.5376,0,0,0,0,0,0,0,-1,1077,358,1.54557,10.5376
-140,666,2.073,-9.9462,0,0,0,0,0,0,0,-1,1084,358,2.07299,9.94619
-133,666,2.38757,-9.25732,0,0,0,0,0,0,0,-1,1091,358,2.38757,9.25731
-126,666,3.12305,-8.97739,0,0,0,0,0,0,0,-1,1098,358,3.12299,8.97738
-119,666,2.2168,-9.11923,0,0,0,0,0,0,0,-1,1105,358,2.21684,9.11924
-112,666,2.18005,-8.99045,0.0146012,0.0269828,0.00405034,0.0281901,0.013394,1.28112,0.0162823,0.0479638,1112,358,2.18001,8.99046
-105,666,2.10327,-8.69412,0.0121545,0.0333708,0.00461127,0.0343297,0.0111956,1.36577,0.0202158,0.0466718,1119,358,2.10332,8.69412
-98,666,2.34546,-8.63287,0.0120663,0.0353748,0.00440927,0.036181,0.0112601,1.38995,0.0213797,0.0452961,1126,358,2.34551,8.63289
-91,666,2.53503,-8.59454,0.0116817,0.0361372,0.00411699,0.0368117,0.0110072,1.40841,0.0218181,0.0414453,1133,358,2.53501,8.59455
-84,666,2.44958,-8.54565,0.0109389,0.034835,0.00356762,0.0353563,0.0104177,1.42571,0.020979,0.0438348,1140,358,2.4496,8.54567
-77,666,2.21155,-8.41437,0,0,0,0,0,0,0,-1,1147,358,2.21151,8.41437
-70,666,2.05957,-6.51086,0,0,0,0,0,0,0,-1,1154,358,2.05959,6.51088
-63,666,1.47485,-3.79593,0,0,0,0,0,0,0,-1,1161,358,1.47481,3.79593
-56,666,0.424683,-2.04132,0,0,0,0,0,0,0,-1,1168,358,0.424665,2.04132
-49,666,0.754395,-2.23169,0,0,0,0,0,0,0,-1,1175,358,0.754383,2.23169
-42,666,1.34473,-3.53897,0,0,0,0,0,0,0,-1,1182,358,1.34476,3.53896
-35,666,1.82324,-9.96802,0,0,0,0,0,0,0,-1,1189,358,1.82318,9.96803
-28,666,2.04602,-9.87592,0,0,0,0,0,0,0,-1,1196,358,2.04596,9.8759
-21,666,2.02271,-9.78986,-0.0038996,-0.00218691,-0.000998019,-0.0017282,-0.0043583,-1.13997,0.00253416,0.0341895,1203,358,2.02265,9.78985
-14,666,2.03186,-9.80777,-0.00433826,-0.00241672,-0.00129969,-0.00176124,-0.00499374,-1.10368,0.00292455,0.0266097,1210,358,2.03182,9.80776
-7,666,2.05188,-9.81543,-0.00429117,-0.00305834,-0.00111579,-0.00240002,-0.0049495,-1.03776,0.00285803,0.017456,1217,358,2.05186,9.81544
0,666,2.0752,-9.81082,-0.00378312,-0.00313664,-0.0010907,-0.00232229,-0.00459747,-0.929455,0.00265439,0.0112086,1224,358,2.07519,9.81082
7,666,2.03687,-9.8429,-0.00285537,-0.00335584,-0.000950327,-0.00212289,-0.00408833,-0.656661,0.00236098,0.0146145,1231,358,2.03686,9.84289
14,666,2.03784,-9.87054,0.00120478,-0.00147227,0.00100079,0.00153755,-0.00180504,0.321008,0.0019319,0.0141091,1238,358,2.03785,9.87054
21,666,2.00452,-9.88,0.00411774,-0.000819601,0.00189405,0.00476062,-0.00146248,0.32722,0.00375734,0.0104693,1245,358,2.00448,9.88001
28,666,1.97632,-9.88791,0.00709437,0.000668716,0.00399089,0.00900496,-0.00124188,0.446494,0.0064572,0.0107896,1252,358,1.97636,9.88791
35,666,1.97571,-9.87671,0.00944914,0.00184472,0.0059019,0.0126676,-0.00137369,0.499242,0.00893819,0.00962066,1259,358,1.97566,9.8767
42,666,1.96863,-9.88525,0.0114009,0.00297091,0.00785092,0.0160967,-0.00172494,0.539042,0.0113499,0.0108599,1266,358,1.96857,9.88526
49,666,1.9469,-9.88364,0.0130702,0.00447348,0.00963649,0.0193235,-0.00177983,0.575616,0.0135147,0.00985067,1273,358,1.94687,9.88364
56,666,1.94495,-9.88525,0.0133393,0.00539919,0.011145,0.0212003,-0.00246176,0.614296,0.0150215,0.0112618,1280,358,1.94491,9.88527
63,666,1.91589,-9.88791,0.0123269,0.00601252,0.0121639,0.0217366,-0.00339719,0.658422,0.0157461,0.0128298,1287,358,1.91592,9.88792
70,666,1.9054,-9.87115,0.0110883,0.00628348,0.0128196,0.0217286,-0.00435688,0.692773,0.0161353,0.01252,1294,358,1.90537,9.87116
77,666,1.90845,-9.85947,0.00901055,0.00652358,0.0134023,0.0212269,-0.00569277,0.73914,0.016382,0.0160168,1301,358,1.90848,9.85948
84,666,1.90308,-9.87616,0.00600658,0.00628007,0.0133624,0.0195065,-0.00721982,0.790515,0.0159647,0.0228204,1308,358,1.9031,9.87617
91,666,1.88525,-9.85349,0.00253022,0.00537518,0.0125962,0.016629,-0.0087236,0.841625,0.0148726,0.0223965,1315,358,1.88527,9.85347
98,666,1.85217,-9.81387,-0.0010001,0.00485004,0.0114719,0.0137639,-0.00991397,0.910227,0.0137305,0.0188673,1322,358,1.85218,9.81388
105,666,1.8208,-9.74634,-0.0043744,0.00388289,0.00995339,0.0105299,-0.0110215,0.981997,0.0124438,0.0182101,1329,358,1.82078,9.74634
112,666,1.8252,-9.73108,-0.00732477,0.00296655,0.00839467,0.00766712,-0.0120253,1.06035,0.0114619,0.0217554,1336,358,1.8252,9.73109
119,666,1.86243,-9.70715,-0.0108763,0.00147386,0.00619796,0.00404785,-0.0134503,1.17717,0.0105776,0.0238538,1343,358,1.86246,9.70714
126,666,1.87329,-9.63547,-0.0126549,0.00109215,0.00471933,0.00255633,-0.0141191,1.26996,0.0103704,0.0233498,1350,358,1.87328,9.63546
133,666,1.86609,-9.56479,-0.0137826,0.000482117,0.002609,0.000944322,-0.0142448,1.39546,0.00982645,0.022044,1357,358,1.8661,9.56478
140,666,1.81763,-9.56418,-0.0139889,0.000614602,0.0011374,0.000702657,-0.014077,1.49353,0.00962743,0.0210703,1364,358,1.8176,9.56418
147,666,1.75061,-9.53946,-0.0138286,0.00111797,-0.00016241,0.00111973,-0.0138304,-1.55993,0.00961526,0.019845,1371,358,1.75062,9.53946
154,666,1.75586,-9.44736,-0.0131811,0.000979677,-0.000914238,0.00103846,-0.0132398,-1.50659,0.00919229,0.0179681,1378,358,1.7558,9.44735
161,666,1.83496,-9.41196,-0.0112185,0.00167188,-0.00122458,0.00178719,-0.0113338,-1.47692,0.00821664,0.0244935,1385,358,1.83493,9.41196
168,666,1.9093,-9.41104,0,0,0,0,0,0,0,-1,1392,358,1.90934,9.41103
175,666,2.00757,-9.53867,0,0,0,0,0,0,0,-1,1399,358,2.00762,9.53866
182,666,2.60876,-5.17068,0,0,0,0,0,0,0,-1,1406,358,2.6088,5.17068
189,666,2.46973,-5.49979,0,0,0,0,0,0,0,-1,1413,358,2.46975,5.49979
196,666,2.32458,-5.23651,0,0,0,0,0,0,0,-1,1420,358,2.32461,5.23653
203,666,2.28064,-3.88004,0,0,0,0,0,0,0,-1,1427,358,2.28059,3.88003
210,666,3.02576,-5.83548,0,0,0,0,0,0,0,-1,1434,358,3.02581,5.83547
217,666,2.30444,-5.36011,0,0,0,0,0,0,0,-1,1441,358,2.30447,5.3601
224,666,1.82324,-6.03101,0,0,0,0,0,0,0,-1,1448,358,1.82322,6.031
231,666,2.21924,-8.24487,0,0,0,0,0,0,0,-1,1455,358,2.21923,8.24487
238,666,2.52429,-6.10568,0,0,0,0,0,0,0,-1,1462,358,2.52423,6.10567
245,666,4.53345,-1.38205,0,0,0,0,0,0,0,-1,1469,358,4.53349,1.38204
252,666,4.77405,-0.246979,0,0,0,0,0,0,0,-1,1476,358,4.77405,0.246993
259,666,4.83655,1.14087,0,0,0,0,0,0,0,-1,1483,358,4.83652,-1.14087
266,666,6.14148,0.749512,0,0,0,0,0,0,0,-1,1490,358,6.14144,-0.749519
273,666,2.61304,-1.53772,0,0,0,0,0,0,0,-1,1497,358,2.613,1.53773
280,666,8.70898,-0.836975,0,0,0,0,0,0,0,-1,1504,358,8.70894,0.836988
287,666,2.27039,-4.09058,0,0,0,0,0,0,0,-1,1511,358,2.27042,4.09059
294,666,9.87,-1.10745,0,0,0,0,0,0,0,-1,1518,358,9.87,1.10745
301,666,2.8064,-3.51654,0,0,0,0,0,0,0,-1,1525,358,2.80635,3.51654
308,666,1.08496,-1.87576,0,0,0,0,0,0,0,-1,1532,358,1.08491,1.87575
315,666,1.76294,-0.284027,0,0,0,0,0,0,0,-1,1539,358,1.76291,0.284016
322,666,0,0,0,0,0,0,0,0,0,-1,1546,358,0,0
329,666,0,0,0,0,0,0,0,0,0,-1,1553,358,0,0
336,666,0,0,0,0,0,0,0,0,0,-1,1560,358,0,0
343,666,0,0,0,0,0,0,0,0,0,-1,1567,358,0,0
350,666,0,0,0,0,0,0,0,0,0,-1,1574,358,0,0
357,666,0,0,0,0,0,0,0,0,0,-1,1581,358,0,0
364,666,0,0,0,0,0,0,0,0,0,-1,1588,358,0,0
371,666,0,0,0,0,0,0,0,0,0,-1,1595,358,0,0
378,666,0,0,0,0,0,0,0,0,0,-1,1602,358,0,0
385,666,0,0,0,0,0,0,0,0,0,-1,1609,358,0,0
392,666,0,0,0,0,0,0,0,0,0,-1,1616,358,0,0
399,666,0,0,0,0,0,0,0,0,0,-1,1623,358,0,0
406,666,0,0,0,0,0,0,0,0,0,-1,1630,358,0,0
413,666,0,0,0,0,0,0,0,0,0,-1,1637,358,0,0
420,666,0,0,0,0,0,0,0,0,0,-1,1644,358,0,0
427,666,0,0,0,0,0,0,0,0,0,-1,1651,358,0,0
434,666,0,0,0,0,0,0,0,0,0,-1,1658,358,0,0
441,666,0,0,0,0,0,0,0,0,0,-1,1665,358,0,0
448,666,0,0,0,0,0,0,0,0,0,-1,1672,358,0,0
455,666,0,0,0,0,0,0,0,0,0,-1,1679,358,0,0
462,666,0,0,0,0,0,0,0,0,0,-1,1686,358,0,0
469,666,0,0,0,0,0,0,0,0,0,-1,1693,358,0,0
476,666,0,0,0,0,0,0,0,0,0,-1,1700,358,0,0
483,666,0,0,0,0,0,0,0,0,0,-1,1707,358,0,0
490,666,0,0,0,0,0,0,0,0,0,-1,1714,358,0,0
497,666,0,0,0,0,0,0,0,0,0,-1,1721,358,0,0
504,666,0,0,0,0,0,0,0,0,0,-1,1728,358,0,0
511,666,0,0,0,0,0,0,0,0,0,-1,1735,358,0,0
518,666,0,0,0,0,0,0,0,0,0,-1,1742,358,0,0
525,666,0,0,0,0,0,0,0,0,0,-1,1749,358,0,0
532,666,0,0,0,0,0,0,0,0,0,-1,1756,358,0,0
539,666,0,0,0,0,0,0,0,0,0,-1,1763,358,0,0
546,666,0,0,0,0,0,0,0,0,0,-1,1770,358,0,0
553,666,0,0,0,0,0,0,0,0,0,-1,1777,358,0,0
560,666,0,0,0,0,0,0,0,0,0,-1,1784,358,0,0
567,666,0,0,0,0,0,0,0,0,0,-1,1791,358,0,0
574,666,0,0,0,0,0,0,0,0,0,-1,1798,358,0,0
581,666,0,0,0,0,0,0,0,0,0,-1,1805,358,0,0
588,666,0,0,0,0,0,0,0,0,0,-1,1812,358,0,0
595,666,0,0,0,0,0,0,0,0,0,-1,1819,358,0,0
602,666,0,0,0,0,0,0,0,0,0,-1,1826,358,0,0
609,666,0,0,0,0,0,0,0,0,0,-1,1833,358,0,0
616,666,0,0,0,0,0,0,0,0,0,-1,1840,358,0,0
623,666,0,0,0,0,0,0,0,0,0,-1,1847,358,0,0
630,666,0,0,0,0,0,0,0,0,0,-1,1854,358,0,0
637,666,0,0,0,0,0,0,0,0,0,-1,1861,358,0,0
644,666,0,0,0,0,0,0,0,0,0,-1,1868,358,0,0
651,666,0,0,0,0,0,0,0,0,0,-1,1875,358,0,0
658,666,0,0,0,0,0,0,0,0,0,-1,1882,358,0,0
665,666,0,0,0,0,0,0,0,0,0,-1,1889,358,0,0
672,666,0,0,0,0,0,0,0,0,0,-1,1896,358,0,0
679,666,0,0,0,0,0,0,0,0,0,-1,1903,358,0,0
686,666,0,0,0,0,0,0,0,0,0,-1,1910,358,0,0
693,666,0,0,0,0,0,0,0,0,0,-1,1917,358,0,0
700,666,0,0,0,0,0,0,0,0,0,-1,1924,358,0,0
707,666,0,0,0,0,0,0,0,0,0,-1,1931,358,0,0
714,666,0,0,0,0,0,0,0,0,0,-1,1938,358,0,0
721,666,0,0,0,0,0,0,0,0,0,-1,1945,358,0,0
728,666,0,0,0,0,0,0,0,0,0,-1,1952,358,0,0
735,666,0,0,0,0,0,0,0,0,0,-1,1959,358,0,0
742,666,0,0,0,0,0,0,0,0,0,-1,1966,358,0,0
749,666,0,0,0,0,0,0,0,0,0,-1,1973,358,0,0
756,666,0,0,0,0,0,0,0,0,0,-1,1980,358,0,0
763,666,0,0,0,0,0,0,0,0,0,-1,1987,358,0,0
770,666,0,0,0,0,0,0,0,0,0,-1,1994,358,0,0
777,666,0,0,0,0,0,0,0,0,0,-1,2001,358,0,0
784,666,0,0,0,0,0,0,0,0,0,-1,2008,358,0,0
791,666,0,0,0,0,0,0,0,0,0,-1,2015,358,0,0
798,666,0,0,0,0,0,0,0,0,0,-1,2022,358,0,0
805,666,0,0,0,0,0,0,0,0,0,-1,2029,358,0,0
812,666,0,0,0,0,0,0,0,0,0,-1,2036,358,0,0
-700,659,0,0,0,0,0,0,0,0,0,-1,524,365,0,0
-693,659,0,0,0,0,0,0,0,0,0,-1,531,365,0,0
-686,659,0,0,0,0,0,0,0,0,0,-1,538,365,0,0
-679,659,0,0,0,0,0,0,0,0,0,-1,545,365,0,0
-672,659,0,0,0,0,0,0,0,0,0,-1,552,365,0,0
-665,659,0,0,0,0,0,0,0,0,0,-1,559,365,0,0
-658,659,0,0,0,0,0,0,0,0,0,-1,566,365,0,0
-651,659,0,0,0,0,0,0,0,0,0,-1,573,365,0,0
-644,659,0,0,0,0,0,0,0,0,0,-1,580,365,0,0
-637,659,0,0,0,0,0,0,0,0,0,-1,587,365,0,0
-630,659,0,0,0,0,0,0,0,0,0,-1,594,365,0,0
-623,659,0,0,0,0,0,0,0,0,0,-1,601,365,0,0
-616,659,0,0,0,0,0,0,0,0,0,-1,608,365,0,0
-609,659,0,0,0,0,0,0,0,0,0,-1,615,365,0,0
-602,659,0,0,0,0,0,0,0,0,0,-1,622,365,0,0
-595,659,0,0,0,0,0,0,0,0,0,-1,629,365,0,0
-588,659,0,0,0,0,0,0,0,0,0,-1,636,365,0,0
-581,659,0,0,0,0,0,0,0,0,0,-1,643,365,0,0
-574,659,0,0,0,0,0,0,0,0,0,-1,650,365,0,0
-567,659,0,0,0,0,0,0,0,0,0,-1,657,365,0,0
-560,659,0,0,0,0,0,0,0,0,0,-1,664,365,0,0
-553,659,0,0,0,0,0,0,0,0,0,-1,671,365,0,0
-546,659,0,0,0,0,0,0,0,0,0,-1,678,365,0,0
-539,659,0,0,0,0,0,0,0,0,0,-1,685,365,0,0
-532,659,0,0,0,0,0,0,0,0,0,-1,692,365,0,0
-525,659,0,0,0,0,0,0,0,0,0,-1,699,365,0,0
-518,659,0,0,0,0,0,0,0,0,0,-1,706,365,0,0
-511,659,0,0,0,0,0,0,0,0,0,-1,713,365,0,0
-504,659,0,0,0,0,0,0,0,0,0,-1,720,365,0,0
-497,659,0,0,0,0,0,0,0,0,0,-1,727,365,0,0
-490,659,0,0,0,0,0,0,0,0,0,-1,734,365,0,0
-483,659,0,0,0,0,0,0,0,0,0,-1,741,365,0,0
-476,659,0,0,0,0,0,0,0,0,0,-1,748,365,0,0
-469,659,0,0,0,0,0,0,0,0,0,-1,755,365,0,0
-462,659,0,0,0,0,0,0,0,0,0,-1,762,365,0,0
-455,659,0,0,0,0,0,0,0,0,0,-1,769,365,0,0
-448,659,0,0,0,0,0,0,0,0,0,-1,776,365,0,0
-441,659,0,0,0,0,0,0,0,0,0,-1,783,365,0,0
-434,659,0,0,0,0,0,0,0,0,0,-1,790,365,0,0
-427,659,0,0,0,0,0,0,0,0,0,-1,797,365,0,0
-420,659,0,0,0,0,0,0,0,0,0,-1,804,365,0,0
-413,659,0,0,0,0,0,0,0,0,0,-1,811,365,0,0
-406,659,0,0,0,0,0,0,0,0,0,-1,818,365,0,0
-399,659,0,0,0,0,0,0,0,0,0,-1,825,365,0,0
-392,659,0,0,0,0,0,0,0,0,0,-1,832,365,0,0
-385,659,0,0,0,0,0,0,0,0,0,-1,839,365,0,0
-378,659,0,0,0,0,0,0,0,0,0,-1,846,365,0,0
-371,659,0,0,0,0,0,0,0,0,0,-1,853,365,0,0
-364,659,0,0,0,0,0,0,0,0,0,-1,860,365,0,0
-357,659,0,0,0,0,0,0,0,0,0,-1,867,365,0,0
-350,659,0,0,0,0,0,0,0,0,0,-1,874,365,0,0
-343,659,0,0,0,0,0,0,0,0,0,-1,881,365,0,0
-336,659,0,0,0,0,0,0,0,0,0,-1,888,365,0,0
-329,659,0,0,0,0,0,0,0,0,0,-1,895,365,0,0
-322,659,0,0,0,0,0,0,0,0,0,-1,902,365,0,0
-315,659,0,0,0,0,0,0,0,0,0,-1,909,365,0,0
-308,659,0,0,0,0,0,0,0,0,0,-1,916,365,0,0
-301,659,0,0,0,0,0,0,0,0,0,-1,923,365,0,0
-294,659,0,0,0,0,0,0,0,0,0,-1,930,365,0,0
-287,659,0,0,0,0,0,0,0,0,0,-1,937,365,0,0
-280,659,0,0,0,0,0,0,0,0,0,-1,944,365,0,0
-273,659,0,0,0,0,0,0,0,0,0,-1,951,365,0,0
-266,659,0,0,0,0,0,0,0,0,0,-1,958,365,0,0
-259,659,0,0,0,0,0,0,0,0,0,-1,965,365,0,0
-252,659,0,0,0,0,0,0,0,0,0,-1,972,365,0,0
-245,659,0,0,0,0,0,0,0,0,0,-1,979,365,0,0
-238,659,0,0,0,0,0,0,0,0,0,-1,986,365,0,0
-231,659,0,0,0,0,0,0,0,0,0,-1,993,365,0,0
-224,659,0,0,0,0,0,0,0,0,0,-1,1000,365,0,0
-217,659,1.62122,-1.10727,0,0,0,0,0,0,0,-1,1007,365,1.62123,1.10728
-210,659,0.368042,-7.90527,0,0,0,0,0,0,0,-1,1014,365,0.368058,7.90528
-203,659,2.09253,-9.38916,0,0,0,0,0,0,0,-1,1021,365,2.09255,9.38917
-196,659,2.74927,-10.1771,0,0,0,0,0,0,0,-1,1028,365,2.74931,10.1771
-189,659,1.65295,-11.0335,0,0,0,0,0,0,0,-1,1035,365,1.65292,11.0335
-182,659,2.13037,-11.0247,0,0,0,0,0,0,0,-1,1042,365,2.1304,11.0248
-175,659,1.83948,-9.59216,0,0,0,0,0,0,0,-1,1049,365,1.83951,9.59216
-168,659,2.4292,-9.75555,0.0489567,-0.0557925,-0.00997445,0.049898,-0.0567338,-0.0940955,0.061606,0.0407599,1056,365,2.42917,9.75556
-161,659,2.99146,-9.89316,0.0420349,-0.0473566,-0.00755956,0.0426697,-0.0479914,-0.0837741,0.0523732,0.0465621,1063,365,2.99142,9.89317
-154,659,3.5376,-10.0795,0,0,0,0,0,0,0,-1,1070,365,3.53754,10.0795
-147,659,1.29297,-9.97034,0,0,0,0,0,0,0,-1,1077,365,1.29299,9.97033
-140,659,2.27856,-9.10022,0,0,0,0,0,0,0,-1,1084,365,2.27862,9.10023
-133,659,2.01013,-9.01233,0,0,0,0,0,0,0,-1,1091,365,2.01019,9.01234
-126,659,2.63489,-8.98193,0,0,0,0,0,0,0,-1,1098,365,2.63486,8.98193
-119,659,3.25952,-8.95151,0,0,0,0,0,0,0,-1,1105,365,3.25953,8.95152
-112,659,2.20996,-9.0849,0.00959002,0.0195013,0.00311788,0.0204005,0.00869079,1.29,0.0118211,0.0431363,1112,365,2.20992,9.08491
-105,659,2.18176,-9.08554,0.00773178,0.0242355,0.00356654,0.0249733,0.00699401,1.36682,0.014876,0.0407131,1119,365,2.18176,9.08555
-98,659,2.25159,-9.06152,0.00766266,0.0257492,0.00344457,0.026383,0.00702885,1.38883,0.0157766,0.0406559,1126,365,2.25162,9.06153
-91,659,2.37805,-9.00165,0.00739166,0.0262895,0.00323375,0.0268276,0.00685362,1.40593,0.0160945,0.0394393,1133,365,2.37805,9.00164
-84,659,2.30554,-9.04202,0.0068118,0.0253442,0.0027837,0.0257533,0.0064027,1.42488,0.0154824,0.0403407,1140,365,2.30551,9.04201
-77,659,2.25671,-9.09879,0,0,0,0,0,0,0,-1,1147,365,2.25672,9.09879
-70,659,2.15344,-9.21371,0,0,0,0,0,0,0,-1,1154,365,2.15345,9.21371
-63,659,2.07349,-9.12732,0,0,0,0,0,0,0,-1,1161,365,2.07352,9.12733
-56,659,2.05664,-9.27448,0,0,0,0,0,0,0,-1,1168,365,2.05665,9.27448
-49,659,2.07568,-9.57758,0,0,0,0,0,0,0,-1,1175,365,2.07573,9.57757
-42,659,2.0752,-9.67224,0,0,0,0,0,0,0,-1,1182,365,2.07524,9.67223
-35,659,2.0188,-9.83096,-0.00260667,0.00204689,0.000793148,0.00217836,-0.00273814,1.40653,0.00284467,0.0428102,1189,365,2.01877,9.83096
-28,659,2.06384,-9.80841,-0.00278109,-0.000715476,-0.000112631,-0.000709353,-0.00278721,-1.51648,0.00167261,0.0161501,1196,365,2.06389,9.80841
-21,659,2.03833,-9.80139,-0.00272191,-0.00139777,-0.000544306,-0.00120274,-0.00291693,-1.22675,0.0016927,0.0116113,1203,365,2.03836,9.80138
-14,659,2.01855,-9.83548,-0.00302979,-0.00156049,-0.000674073,-0.00129811,-0.00329218,-1.19958,0.00191484,0.00921888,1210,365,2.0185,9.83549
-7,659,2.01001,-9.85266,-0.00303936,-0.0019705,-0.000567079,-0.00172571,-0.00328416,-1.16328,0.00189693,0.00879694,1217,365,2.01001,9.85265
0,659,2.01709,-9.84845,-0.00274909,-0.00199968,-0.000562392,-0.0016986,-0.00305017,-1.07926,0.00176481,0.007752,1224,365,2.01712,9.84846
7,659,1.9978,-9.85703,-0.00216122,-0.00209609,-0.000515827,-0.0016118,-0.00264551,-0.816923,0.00153949,0.00764909,1231,365,1.99783,9.85704
14,659,1.98254,-9.87387,0.000293034,-0.00163612,5.18264e-05,0.000294425,-0.00163751,0.0268391,0.00120189,0.0101705,1238,365,1.98255,9.87386
21,659,1.98401,-9.88809,0.00226738,-0.00132173,0.000518139,0.00234068,-0.00139503,0.140542,0.00217973,0.0109781,1245,365,1.98403,9.88809
28,659,1.96912,-9.89761,0.00444348,-0.000476599,0.001709,0.00497886,-0.00101197,0.303582,0.00370294,0.0100373,1252,365,1.96917,9.89762
35,659,1.96802,-9.90466,0.00619359,0.0002436,0.0028772,0.0073573,-0.000920109,0.384344,0.00523858,0.00961503,1259,365,1.96807,9.90466
42,659,1.96558,-9.89795,0.00767914,0.000979589,0.00416021,0.00967056,-0.00101183,0.446448,0.00680942,0.0100702,1266,365,1.96555,9.89796
49,659,1.94153,-9.88831,0.00897423,0.00202421,0.00540308,0.0119233,-0.000924876,0.499625,0.00827441,0.0105666,1273,365,1.9415,9.88831
56,659,1.93384,-9.89789,0.00924074,0.00274104,0.00653384,0.0132883,-0.00130655,0.554621,0.00932496,0.0141723,1280,365,1.9338,9.89788
63,659,1.93701,-9.91281,0.00856048,0.00328837,0.00735562,0.0137381,-0.00188928,0.613341,0.0098491,0.015742,1287,365,1.93698,9.91281
70,659,1.92188,-9.91418,0.00774691,0.00362706,0.00795858,0.0139078,-0.00253386,0.658762,0.0102217,0.0159277,1294,365,1.92186,9.91419
77,659,1.8927,-9.88568,0.00630335,0.00398997,0.00854677,0.0137713,-0.00347803,0.718138,0.0105334,0.0173168,1301,365,1.89265,9.88569
84,659,1.91528,-9.86646,0.0041783,0.00402353,0.00870802,0.0128093,-0.00460745,0.780955,0.0104206,0.0131801,1308,365,1.91529,9.86645
91,659,1.89282,-9.83167,0.00173137,0.00358907,0.00835641,0.0110681,-0.00574765,0.840748,0.00986923,0.0117238,1315,365,1.89288,9.83167
98,659,1.88879,-9.81393,-0.000794152,0.00342384,0.00771216,0.00931017,-0.00668048,0.918867,0.00927373,0.00817061,1322,365,1.88878,9.81392
105,659,1.8905,-9.78076,-0.00318902,0.00288102,0.00676547,0.00726105,-0.00756905,0.996245,0.00856278,0.00881488,1329,365,1.89045,9.78077
112,659,1.87158,-9.73715,-0.00523211,0.00233608,0.00579331,0.00547165,-0.00836769,1.0747,0.00804825,0.0104166,1336,365,1.87154,9.73714
119,659,1.86279,-9.69788,-0.0076129,0.00164991,0.00457698,0.00352993,-0.00949293,1.18105,0.00777704,0.0118043,1343,365,1.86276,9.69787
126,659,1.8584,-9.64038,-0.00877755,0.00128089,0.00348349,0.0023695,-0.00986615,1.26791,0.00749321,0.0124009,1350,365,1.8584,9.64037
133,659,1.83179,-9.60052,-0.00951312,0.000779754,0.00207365,0.00118182,-0.00991518,1.37928,0.00703722,0.0113057,1357,365,1.83181,9.60052
140,659,1.81885,-9.5726,-0.00951003,0.000739348,0.00110857,0.000857879,-0.00962857,1.46428,0.00672327,0.00910706,1364,365,1.81889,9.57259
147,659,1.80212,-9.52866,-0.0092191,0.000964987,0.000274866,0.0009724,-0.00922651,1.54383,0.00649943,0.00824044,1371,365,1.80211,9.52865
154,659,1.78577,-9.45923,-0.00867319,0.000760573,-0.000273352,0.000768487,-0.00868111,-1.54185,0.00605983,0.00906467,1378,365,1.78575,9.45923
161,659,1.81738,-9.41324,-0.00722017,0.00101642,-0.000470452,0.00104321,-0.00724695,-1.51393,0.00521394,0.010328,1385,365,1.81741,9.41323
168,659,1.8468,-9.38312,-0.0053071,0.0015256,-0.000160159,0.00152936,-0.00531086,-1.54737,0.00414548,0.0180262,1392,365,1.84677,9.3831
175,659,1.83887,-9.35291,-0.00431641,0.00188813,0.000396458,0.00191336,-0.00434164,1.50724,0.00370092,0.0416182,1399,365,1.83883,9.3529
182,659,1.72083,-9.34433,0,0,0,0,0,0,0,-1,1406,365,1.72084,9.34431
189,659,1.81519,-9.12671,0,0,0,0,0,0,0,-1,1413,365,1.81513,9.12672
196,659,1.82703,-8.92126,0,0,0,0,0,0,0,-1,1420,365,1.82698,8.92125
203,659,1.79919,-8.87445,0,0,0,0,0,0,0,-1,1427,365,1.79922,8.87446
210,659,1.77576,-9.10828,0,0,0,0,0,0,0,-1,1434,365,1.7758,9.10827
217,659,1.85168,-8.72742,0,0,0,0,0,0,0,-1,1441,365,1.8517,8.72743
224,659,1.80566,-8.72592,0,0,0,0,0,0,0,-1,1448,365,1.80563,8.72592
231,659,2.08911,-8.30768,0,0,0,0,0,0,0,-1,1455,365,2.08909,8.30766
238,659,2.03955,-8.80399,0,0,0,0,0,0,0,-1,1462,365,2.03952,8.80398
245,659,1.74316,-8.88058,0,0,0,0,0,0,0,-1,1469,365,1.74317,8.88059
252,659,1.3689,-9.24057,0,0,0,0,0,0,0,-1,1476,365,1.36887,9.24056
259,659,2.33069,-3.36703,0,0,0,0,0,0,0,-1,1483,365,2.33073,3.36702
266,659,1.77869,-7.5657,0,0,0,0,0,0,0,-1,1490,365,1.77874,7.56571
273,659,1.74451,-7.42371,0,0,0,0,0,0,0,-1,1497,365,1.74453,7.42369
280,659,1.5481,-7.45435,0,0,0,0,0,0,0,-1,1504,365,1.54807,7.45436
287,659,1.5365,-6.8165,0,0,0,0,0,0,0,-1,1511,365,1.53655,6.81648
294,659,3.33215,-4.4032,0,0,0,0,0,0,0,-1,1518,365,3.33215,4.40321
301,659,3.15308,-3.47482,0,0,0,0,0,0,0,-1,1525,365,3.15309,3.47482
308,659,3.38879,-2.50711,0,0,0,0,0,0,0,-1,1532,365,3.38885,2.5071
315,659,1.4165,-2.37665,0,0,0,0,0,0,0,-1,1539,365,1.41651,2.37665
322,659,2.88672,-0.266174,0,0,0,0,0,0,0,-1,1546,365,2.88671,0.266163
329,659,5.20154,-4.3071,0,0,0,0,0,0,0,-1,1553,365,5.20158,4.3071
336,659,2.09851,-1.17941,0,0,0,0,0,0,0,-1,1560,365,2.09857,1.17942
343,659,0,0,0,0,0,0,0,0,0,-1,1567,365,0,0
350,659,0,0,0,0,0,0,0,0,0,-1,1574,365,0,0
357,659,0,0,0,0,0,0,0,0,0,-1,1581,365,0,0
364,659,0,0,0,0,0,0,0,0,0,-1,1588,365,0,0
371,659,0,0,0,0,0,0,0,0,0,-1,1595,365,0,0
378,659,0,0,0,0,0,0,0,0,0,-1,1602,365,0,0
385,659,0,0,0,0,0,0,0,0,0,-1,1609,365,0,0
392,659,0,0,0,0,0,0,0,0,0,-1,1616,365,0,0
399,659,0,0,0,0,0,0,0,0,0,-1,1623,365,0,0
406,659,0,0,0,0,0,0,0,0,0,-1,1630,365,0,0
413,659,0,0,0,0,0,0,0,0,0,-1,1637,365,0,0
420,659,0,0,0,0,0,0,0,0,0,-1,1644,365,0,0
427,659,0,0,0,0,0,0,0,0,0,-1,1651,365,0,0
434,659,0,0,0,0,0,0,0,0,0,-1,1658,365,0,0
441,659,0,0,0,0,0,0,0,0,0,-1,1665,365,0,0
448,659,0,0,0,0,0,0,0,0,0,-1,1672,365,0,0
455,659,0,0,0,0,0,0,0,0,0,-1,1679,365,0,0
462,659,0,0,0,0,0,0,0,0,0,-1,1686,365,0,0
469,659,0,0,0,0,0,0,0,0,0,-1,1693,365,0,0
476,659,0,0,0,0,0,0,0,0,0,-1,1700,365,0,0
483,659,0,0,0,0,0,0,0,0,0,-1,1707,365,0,0
490,659,0,0,0,0,0,0,0,0,0,-1,1714,365,0,0
497,659,0,0,0,0,0,0,0,0,0,-1,1721,365,0,0
504,659,0,0,0,0,0,0,0,0,0,-1,1728,365,0,0
511,659,0,0,0,0,0,0,0,0,0,-1,1735,365,0,0
518,659,0,0,0,0,0,0,0,0,0,-1,1742,365,0,0
525,659,0,0,0,0,0,0,0,0,0,-1,1749,365,0,0
532,659,0,0,0,0,0,0,0,0,0,-1,1756,365,0,0
539,659,0,0,0,0,0,0,0,0,0,-1,1763,365,0,0
546,659,0,0,0,0,0,0,0,0,0,-1,1770,365,0,0
553,659,0,0,0,0,0,0,0,0,0,-1,1777,365,0,0
560,659,0,0,0,0,0,0,0,0,0,-1,1784,365,0,0
567,659,0,0,0,0,0,0,0,0,0,-1,1791,365,0,0
574,659,0,0,0,0,0,0,0,0,0,-1,1798,365,0,0
581,659,0,0,0,0,0,0,0,0,0,-1,1805,365,0,0
588,659,0,0,0,0,0,0,0,0,0,-1,1812,365,0,0
595,659,0,0,0,0,0,0,0,0,0,-1,1819,365,0,0
602,659,0,0,0,0,0,0,0,0,0,-1,1826,365,0,0
609,659,0,0,0,0,0,0,0,0,0,-1,1833,365,0,0
616,659,0,0,0,0,0,0,0,0,0,-1,1840,365,0,0
623,659,0,0,0,0,0,0,0,0,0,-1,1847,365,0,0
630,659,0,0,0,0,0,0,0,0,0,-1,1854,365,0,0
637,659,0,0,0,0,0,0,0,0,0,-1,1861,365,0,0
644,659,0,0,0,0,0,0,0,0,0,-1,1868,365,0,0
651,659,0,0,0,0,0,0,0,0,0,-1,1875,365,0,0
658,659,0,0,0,0,0,0,0,0,0,-1,1882,365,0,0
665,659,0,0,0,0,0,0,0,0,0,-1,1889,365,0,0
672,659,0,0,0,0,0,0,0,0,0,-1,1896,365,0,0
679,659,0,0,0,0,0,0,0,0,0,-1,1903,365,0,0
686,659,0,0,0,0,0,0,0,0,0,-1,1910,365,0,0
693,659,0,0,0,0,0,0,0,0,0,-1,1917,365,0,0
700,659,0,0,0,0,0,0,0,0,0,-1,1924,365,0,0
707,659,0,0,0,0,0,0,0,0,0,-1,1931,365,0,0
714,659,0,0,0,0,0,0,0,0,0,-1,1938,365,0,0
721,659,0,0,0,0,0,0,0,0,0,-1,1945,365,0,0
728,659,0,0,0,0,0,0,0,0,0,-1,1952,365,0,0
735,659,0,0,0,0,0,0,0,0,0,-1,1959,365,0,0
742,659,0,0,0,0,0,0,0,0,0,-1,1966,365,0,0
749,659,0,0,0,0,0,0,0,0,0,-1,1973,365,0,0
756,659,0,0,0,0,0,0,0,0,0,-1,1980,365,0,0
763,659,0,0,0,0,0,0,0,0,0,-1,1987,365,0,0
770,659,0,0,0,0,0,0,0,0,0,-1,1994,365,0,0
777,659,0,0,0,0,0,0,0,0,0,-1,2001,365,0,0
784,659,0,0,0,0,0,0,0,0,0,-1,2008,365,0,0
791,659,0,0,0,0,0,0,0,0,0,-1,2015,365,0,0
798,659,0,0,0,0,0,0,0,0,0,-1,2022,365,0,0
805,659,0,0,0,0,0,0,0,0,0,-1,2029,365,0,0
812,659,0,0,0,0,0,0,0,0,0,-1,2036,365,0,0
-700,652,0,0,0,0,0,0,0,0,0,-1,524,372,0,0
-693,652,0,0,0,0,0,0,0,0,0,-1,531,372,0,0
-686,652,0,0,0,0,0,0,0,0,0,-1,538,372,0,0
-679,652,0,0,0,0,0,0,0,0,0,-1,545,372,0,0
-672,652,0,0,0,0,0,0,0,0,0,-1,552,372,0,0
-665,652,0,0,0,0,0,0,0,0,0,-1,559,372,0,0
-658,652,0,0,0,0,0,0,0,0,0,-1,566,372,0,0
-651,652,0,0,0,0,0,0,0,0,0,-1,573,372,0,0
-644,652,0,0,0,0,0,0,0,0,0,-1,580,372,0,0
-637,652,0,0,0,0,0,0,0,0,0,-1,587,372,0,0
-630,652,0,0,0,0,0,0,0,0,0,-1,594,372,0,0
-623,652,0,0,0,0,0,0,0,0,0,-1,601,372,0,0
-616,652,0,0,0,0,0,0,0,0,0,-1,608,372,0,0
-609,652,0,0,0,0,0,0,0,0,0,-1,615,372,0,0
-602,652,0,0,0,0,0,0,0,0,0,-1,622,372,0,0
-595,652,0,0,0,0,0,0,0,0,0,-1,629,372,0,0
-588,652,0,0,0,0,0,0,0,0,0,-1,636,372,0,0
-581,652,0,0,0,0,0,0,0,0,0,-1,643,372,0,0
-574,652,0,0,0,0,0,0,0,0,0,-1,650,372,0,0
-567,652,0,0,0,0,0,0,0,0,0,-1,657,372,0,0
-560,652,0,0,0,0,0,0,0,0,0,-1,664,372,0,0
-553,652,0,0,0,0,0,0,0,0,0,-1,671,372,0,0
-546,652,0,0,0,0,0,0,0,0,0,-1,678,372,0,0
-539,652,0,0,0,0,0,0,0,0,0,-1,685,372,0,0
-532,652,0,0,0,0,0,0,0,0,0,-1,692,372,0,0
-525,652,0,0,0,0,0,0,0,0,0,-1,699,372,0,0
-518,652,0,0,0,0,0,0,0,0,0,-1,706,372,0,0
-511,652,0,0,0,0,0,0,0,0,0,-1,713,372,0,0
-504,652,0,0,0,0,0,0,0,0,0,-1,720,372,0,0
-497,652,0,0,0,0,0,0,0,0,0,-1,727,372,0,0
-490,652,0,0,0,0,0,0,0,0,0,-1,734,372,0,0
-483,652,0,0,0,0,0,0,0,0,0,-1,741,372,0,0
-476,652,0,0,0,0,0,0,0,0,0,-1,748,372,0,0
-469,652,0,0,0,0,0,0,0,0,0,-1,755,372,0,0
-462,652,0,0,0,0,0,0,0,0,0,-1,762,372,0,0
-455,652,0,0,0,0,0,0,0,0,0,-1,769,372,0,0
-448,652,0,0,0,0,0,0,0,0,0,-1,776,372,0,0
-441,652,0,0,0,0,0,0,0,0,0,-1,783,372,0,0
-434,652,0,0,0,0,0,0,0,0,0,-1,790,372,0,0
-427,652,0,0,0,0,0,0,0,0,0,-1,797,372,0,0
-420,652,0,0,0,0,0,0,0,0,0,-1,804,372,0,0
-413,652,0,0,0,0,0,0,0,0,0,-1,811,372,0,0
-406,652,0,0,0,0,0,0,0,0,0,-1,818,372,0,0
-399,652,0,0,0,0,0,0,0,0,0,-1,825,372,0,0
-392,652,0,0,0,0,0,0,0,0,0,-1,832,372,0,0
-385,652,0,0,0,0,0,0,0,0,0,-1,839,372,0,0
-378,652,0,0,0,0,0,0,0,0,0,-1,846,372,0,0
-371,652,0,0,0,0,0,0,0,0,0,-1,853,372,0,0
-364,652,0,0,0,0,0,0,0,0,0,-1,860,372,0,0
-357,652,0,0,0,0,0,0,0,0,0,-1,867,372,0,0
-350,652,0,0,0,0,0,0,0,0,0,-1,874,372,0,0
-343,652,0,0,0,0,0,0,0,0,0,-1,881,372,0,0
-336,652,0,0,0,0,0,0,0,0,0,-1,888,372,0,0
-329,652,0,0,0,0,0,0,0,0,0,-1,895,372,0,0
-322,652,0,0,0,0,0,0,0,0,0,-1,902,372,0,0
-315,652,0,0,0,0,0,0,0,0,0,-1,909,372,0,0
-308,652,0,0,0,0,0,0,0,0,0,-1,916,372,0,0
-301,652,0,0,0,0,0,0,0,0,0,-1,923,372,0,0
-294,652,0,0,0,0,0,0,0,0,0,-1,930,372,0,0
-287,652,0,0,0,0,0,0,0,0,0,-1,937,372,0,0
-280,652,0,0,0,0,0,0,0,0,0,-1,944,372,0,0
-273,652,0,0,0,0,0,0,0,0,0,-1,951,372,0,0
-266,652,0,0,0,0,0,0,0,0,0,-1,958,372,0,0
-259,652,0,0,0,0,0,0,0,0,0,-1,965,372,0,0
-252,652,0,0,0,0,0,0,0,0,0,-1,972,372,0,0
-245,652,0,0,0,0,0,0,0,0,0,-1,979,372,0,0
-238,652,0,0,0,0,0,0,0,0,0,-1,986,372,0,0
-231,652,-3.17596,-5.87796,0,0,0,0,0,0,0,-1,993,372,-3.17597,5.87796
-224,652,-3.74396,-5.71695,0,0,0,0,0,0,0,-1,1000,372,-3.74397,5.71694
-217,652,-4.52545,-5.19208,0,0,0,0,0,0,0,-1,1007,372,-4.52543,5.19207
-210,652,2.33746,-9.61121,0,0,0,0,0,0,0,-1,1014,372,2.33747,9.61121
-203,652,2.37573,-9.60385,0,0,0,0,0,0,0,-1,1021,372,2.37575,9.60386
-196,652,2.40076,-9.9259,0,0,0,0,0,0,0,-1,1028,372,2.40074,9.92589
-189,652,1.66223,-10.1159,0,0,0,0,0,0,0,-1,1035,372,1.66229,10.1159
-182,652,1.48743,-9.48428,0,0,0,0,0,0,0,-1,1042,372,1.48746,9.48427
-175,652,1.99109,-8.85162,0,0,0,0,0,0,0,-1,1049,372,1.99105,8.85163
-168,652,2.56445,-9.0564,0.0322946,-0.0372957,-0.00754559,0.0331033,-0.0381045,-0.106775,0.0411456,0.0405907,1056,372,2.56441,9.05641
-161,652,3.09204,-9.24319,0.0281706,-0.0319809,-0.00592516,0.0287487,-0.032559,-0.0972584,0.0354188,0.0436091,1063,372,3.09203,9.2432
-154,652,2.31006,-8.78644,0,0,0,0,0,0,0,-1,1070,372,2.31006,8.78644
-147,652,2.04541,-9.39948,0,0,0,0,0,0,0,-1,1077,372,2.04547,9.39949
-140,652,2.005,-9.10306,0.0166759,-0.00953977,-0.00142046,0.0167526,-0.00961651,-0.053973,0.0154089,0.0447094,1084,372,2.00502,9.10305
-133,652,2.07617,-8.8739,0.013161,-0.00244267,-4.09363e-05,0.0131611,-0.00244277,-0.00262348,0.0096915,0.043755,1091,372,2.07613,8.8739
-126,652,2.21204,-8.97977,0.01036,0.00381116,0.00098968,0.0105063,0.00366487,0.146758,0.00615752,0.0397517,1098,372,2.21209,8.97976
-119,652,2.21802,-9.02316,0.0083765,0.00887442,0.00164127,0.0102855,0.00696541,0.860667,0.00606138,0.0349148,1105,372,2.21801,9.02316
-112,652,2.16736,-9.07779,0.00617504,0.0138205,0.0022859,0.0144519,0.00554371,1.30133,0.00841882,0.0246574,1112,372,2.16738,9.07778
-105,652,2.1488,-9.10156,0.00480788,0.0172565,0.00263883,0.0177928,0.00427161,1.3703,0.0107254,0.0203194,1119,372,2.14881,9.10155
-98,652,2.13342,-9.16992,0.00475995,0.0183997,0.00257104,0.0188682,0.00429142,1.39054,0.0114203,0.0231653,1126,372,2.13343,9.16992
-91,652,2.15796,-9.23505,0.00459643,0.0188166,0.00243547,0.0192221,0.00419088,1.40579,0.0116714,0.0223227,1133,372,2.15795,9.23503
-84,652,2.14844,-9.29636,0.00417674,0.0181767,0.00210126,0.0184853,0.00386816,1.42499,0.0112579,0.0185003,1140,372,2.14841,9.29637
-77,652,2.12329,-9.38184,0.0034709,0.0165159,0.00182775,0.0167671,0.00321965,1.43419,0.0102744,0.0162011,1147,372,2.12335,9.38183
-70,652,2.09302,-9.43466,0.00272833,0.0142664,0.00148288,0.0144539,0.0025408,1.445,0.00891058,0.0206522,1154,372,2.09306,9.43467
-63,652,2.08215,-9.51297,0.00210755,0.0117719,0.00108521,0.0118922,0.00198719,1.46034,0.00735577,0.0393747,1161,372,2.0821,9.51296
-56,652,2.02307,-9.60229,0.00166349,0.00919869,0.000867753,0.00929733,0.00156485,1.45761,0.00574805,0.0445318,1168,372,2.02302,9.60231
-49,652,2.05481,-9.60849,0.000951326,0.0063603,0.000714122,0.00645299,0.000858632,1.44172,0.00404627,0.0240829,1175,372,2.05482,9.60849
-42,652,2.04346,-9.66016,-0.000353547,0.00330526,0.000642406,0.00341478,-0.000463062,1.40194,0.00244553,0.0110957,1182,372,2.04346,9.66016
-35,652,2.03918,-9.72253,-0.00180096,0.0013758,0.000358939,0.00141585,-0.00184101,1.45967,0.00188569,0.00885731,1189,372,2.0392,9.72255
-28,652,2.03601,-9.75641,-0.0019105,-0.00043636,-0.000137464,-0.000423651,-0.00192321,-1.47861,0.00116685,0.00741056,1196,372,2.036,9.7564
-21,652,2.01453,-9.78391,-0.00187745,-0.000871808,-0.000319668,-0.000778796,-0.00197046,-1.28765,0.00114594,0.00763257,1203,372,2.01454,9.7839
-14,652,2.00366,-9.83755,-0.00205693,-0.000991188,-0.000334274,-0.000895019,-0.0021531,-1.29067,0.00124897,0.00945935,1210,372,2.00372,9.83755
-7,652,2.00244,-9.86603,-0.00205381,-0.00125832,-0.000251751,-0.00118534,-0.00212679,-1.28865,0.00123059,0.0121045,1217,372,2.00248,9.86603
0,652,2.0011,-9.86121,-0.00186831,-0.00126766,-0.000247316,-0.00117894,-0.00195703,-1.22634,0.00113777,0.0117049,1224,372,2.00113,9.8612
7,652,1.97766,-9.84909,-0.00148916,-0.00133206,-0.000248853,-0.00114965,-0.00167156,-0.938272,0.000987502,0.0126292,1231,372,1.97771,9.84908
14,652,1.96594,-9.8671,-0.000932759,-0.00133332,-0.000286765,-0.000783259,-0.00148282,-0.480567,0.000856562,0.010694,1238,372,1.966,9.86708
21,652,1.95862,-9.89078,-0.000373007,-0.00120229,-0.000138384,-0.000350524,-0.00122477,-0.16106,0.000728355,0.00993175,1245,372,1.95865,9.89078
28,652,1.95288,-9.91525,0.000762339,-0.000806614,0.000278631,0.000810352,-0.000854626,0.170641,0.000961389,0.00921865,1252,372,1.95294,9.91526
35,652,1.95667,-9.92084,0.00164905,-0.00037349,0.000737337,0.00188932,-0.000613752,0.315001,0.0015064,0.00948128,1259,372,1.95664,9.92084
42,652,1.95117,-9.90958,0.00244143,0.000156082,0.00134189,0.00306125,-0.000463739,0.432705,0.00221168,0.0105793,1266,372,1.9512,9.90957
49,652,1.94714,-9.91312,0.00316714,0.000881114,0.00199924,0.00432705,-0.000278792,0.525714,0.00298198,0.0126874,1273,372,1.94718,9.91312
56,652,1.92419,-9.91,0.00330964,0.00141709,0.00263818,0.00516612,-0.000439389,0.613203,0.0035995,0.0151339,1280,372,1.92424,9.91001
63,652,1.93408,-9.90945,0.00293285,0.00190678,0.00314376,0.00560516,-0.000765531,0.704515,0.00401634,0.0189915,1287,372,1.9341,9.90944
70,652,1.922,-9.9006,0.00259479,0.00227834,0.00355854,0.00599862,-0.00112549,0.763181,0.00442225,0.0161573,1294,372,1.922,9.9006
77,652,1.91211,-9.87967,0.00188687,0.00269894,0.00403271,0.006346,-0.00176019,0.835572,0.00492342,0.0160815,1301,372,1.91208,9.87967
84,652,1.9231,-9.8584,0.0007811,0.0028814,0.00427977,0.00623798,-0.00257548,0.905709,0.00523286,0.013513,1308,372,1.92311,9.85839
91,652,1.90942,-9.84808,-0.000478137,0.00271077,0.0042338,0.0056404,-0.00340777,0.965485,0.00527671,0.0162711,1315,372,1.90946,9.84808
98,652,1.93054,-9.81384,-0.00187476,0.00271178,0.00398961,0.00502025,-0.00418324,1.04624,0.00532096,0.0132533,1322,372,1.93058,9.81385
105,652,1.92151,-9.7652,-0.00320075,0.00238251,0.00356189,0.00411639,-0.00493464,1.11777,0.00523273,0.0106542,1329,372,1.92155,9.76519
112,652,1.90857,-9.73636,-0.00429368,0.00199964,0.00313334,0.00329362,-0.00558766,1.17916,0.00518431,0.00922055,1336,372,1.90861,9.73636
119,652,1.89246,-9.6955,-0.00517227,0.00162481,0.00267962,0.00255414,-0.0061016,1.23696,0.00513539,0.010326,1343,372,1.8925,9.69551
126,652,1.87231,-9.64639,-0.00564812,0.00126157,0.0020631,0.00183069,-0.00621724,1.30163,0.00487111,0.0123762,1350,372,1.87226,9.64638
133,652,1.83716,-9.60519,-0.00620421,0.000858671,0.00135769,0.00111067,-0.00645621,1.38728,0.00471814,0.0124245,1357,372,1.83716,9.60518
140,652,1.82507,-9.56876,-0.00617785,0.000678256,0.000877651,0.000788821,-0.00628842,1.44548,0.00447844,0.00945552,1364,372,1.8251,9.56876
147,652,1.82617,-9.52173,-0.00590984,0.000688889,0.000422511,0.000715832,-0.00593679,1.50711,0.00421677,0.00893327,1371,372,1.82618,9.52174
154,652,1.83557,-9.47049,-0.00547612,0.000521328,2.87135e-05,0.000521466,-0.00547626,1.56601,0.00383649,0.00948408,1378,372,1.83553,9.4705
161,652,1.83887,-9.405,-0.00446702,0.000610751,-0.000109876,0.000613128,-0.00446939,-1.54917,0.00320359,0.0106612,1385,372,1.83885,9.40499
168,652,1.81812,-9.34183,-0.0032537,0.000948895,0.000155132,0.000954614,-0.00325942,1.53395,0.00255139,0.0112021,1392,372,1.81807,9.34184
175,652,1.80884,-9.2832,-0.00267199,0.00122409,0.000552028,0.0013008,-0.00274869,1.43273,0.00238727,0.0111308,1399,372,1.80888,9.28319
182,652,1.80908,-9.23709,-0.00234987,0.00154056,0.000912754,0.00174406,-0.00255337,1.35143,0.00249575,0.0159856,1406,372,1.80909,9.23709
189,652,1.83057,-9.15253,-0.00202099,0.00180249,0.00136699,0.00224094,-0.00245944,1.26042,0.00271475,0.0197341,1413,372,1.83052,9.15253
196,652,1.82202,-9.04034,-0.00178721,0.0017235,0.00171619,0.00242306,-0.00248677,1.18374,0.00283477,0.029735,1420,372,1.822,9.04034
203,652,1.78223,-9.09854,-0.0014514,0.000284679,0.00195292,0.00155379,-0.0027205,0.994526,0.00249822,0.0352253,1427,372,1.78223,9.09854
210,652,1.79333,-9.00333,-0.00127558,0.000143874,0.00268974,0.00221594,-0.00334765,0.914391,0.00323422,0.0249919,1434,372,1.79334,9.00334
217,652,1.83862,-8.75961,-0.00180831,0.000171262,0.00263116,0.00199264,-0.00362969,0.965301,0.0032916,0.0249384,1441,372,1.83861,8.75962
224,652,1.81958,-8.64969,-0.00211538,0.000262446,0.00257685,0.00191143,-0.00376436,1.00154,0.00333462,0.0270498,1448,372,1.81962,8.64969
231,652,1.86475,-8.54245,-0.00329222,0.000566526,0.00291978,0.00213681,-0.00486251,1.07736,0.00414194,0.0324167,1455,372,1.8647,8.54244
238,652,1.9032,-8.59766,-0.00517739,0.000774957,0.00304894,0.00205949,-0.00646193,1.17206,0.00513404,0.0368761,1462,372,1.90323,8.59766
245,652,1.77881,-8.57602,-0.00680794,0.000923257,0.00309042,0.00200675,-0.00789144,1.23359,0.006042,0.0380646,1469,372,1.77876,8.57603
252,652,1.58069,-8.64771,-0.0085653,0.00134796,0.00338747,0.00239493,-0.00961227,1.27104,0.00733794,0.0437495,1476,372,1.58065,8.64772
259,652,1.64563,-8.21045,0,0,0,0,0,0,0,-1,1483,372,1.64566,8.21046
266,652,1.66138,-8.0253,0,0,0,0,0,0,0,-1,1490,372,1.66133,8.02529
273,652,1.75085,-7.52615,0,0,0,0,0,0,0,-1,1497,372,1.75089,7.52616
280,652,1.71802,-7.70184,-0.0149697,0.0085573,0.00752569,0.0107586,-0.017171,1.28623,0.0162662,0.0496053,1504,372,1.718,7.70184
287,652,1.2854,-7.35541,-0.015863,0.0110991,0.00929479,0.0139928,-0.0187567,1.26898,0.0189745,0.0479157,1511,372,1.28543,7.3554
294,652,1.20898,-6.96671,0,0,0,0,0,0,0,-1,1518,372,1.20898,6.96671
301,652,3.14185,-3.39789,0,0,0,0,0,0,0,-1,1525,372,3.14186,3.3979
308,652,3.43018,-2.31943,0,0,0,0,0,0,0,-1,1532,372,3.43021,2.31944
315,652,1.22485,-6.54614,0,0,0,0,0,0,0,-1,1539,372,1.22487,6.54614
322,652,1.90149,-1.68723,0,0,0,0,0,0,0,-1,1546,372,1.90154,1.68724
329,652,0.233154,-6.18842,0,0,0,0,0,0,0,-1,1553,372,0.233206,6.18842
336,652,4.32825,-3.46991,0,0,0,0,0,0,0,-1,1560,372,4.3282,3.46991
343,652,4.18225,-6.7092,0,0,0,0,0,0,0,-1,1567,372,4.18231,6.70921
350,652,4.64563,-7.2074,0,0,0,0,0,0,0,-1,1574,372,4.6456,7.2074
357,652,0,0,0,0,0,0,0,0,0,-1,1581,372,0,0
364,652,0,0,0,0,0,0,0,0,0,-1,1588,372,0,0
371,652,0,0,0,0,0,0,0,0,0,-1,1595,372,0,0
378,652,0,0,0,0,0,0,0,0,0,-1,1602,372,0,0
385,652,0,0,0,0,0,0,0,0,0,-1,1609,372,0,0
392,652,0,0,0,0,0,0,0,0,0,-1,1616,372,0,0
399,652,0,0,0,0,0,0,0,0,0,-1,1623,372,0,0
406,652,0,0,0,0,0,0,0,0,0,-1,1630,372,0,0
413,652,0,0,0,0,0,0,0,0,0,-1,1637,372,0,0
420,652,0,0,0,0,0,0,0,0,0,-1,1644,372,0,0
427,652,0,0,0,0,0,0,0,0,0,-1,1651,372,0,0
434,652,0,0,0,0,0,0,0,0,0,-1,1658,372,0,0
441,652,0,0,0,0,0,0,0,0,0,-1,1665,372,0,0
448,652,0,0,0,0,0,0,0,0,0,-1,1672,372,0,0
455,652,0,0,0,0,0,0,0,0,0,-1,1679,372,0,0
462,652,0,0,0,0,0,0,0,0,0,-1,1686,372,0,0
469,652,0,0,0,0,0,0,0,0,0,-1,1693,372,0,0
476,652,0,0,0,0,0,0,0,0,0,-1,1700,372,0,0
483,652,0,0,0,0,0,0,0,0,0,-1,1707,372,0,0
490,652,0,0,0,0,0,0,0,0,0,-1,1714,372,0,0
497,652,0,0,0,0,0,0,0,0,0,-1,1721,372,0,0
504,652,0,0,0,0,0,0,0,0,0,-1,1728,372,0,0
511,652,0,0,0,0,0,0,0,0,0,-1,1735,372,0,0
518,652,0,0,0,0,0,0,0,0,0,-1,1742,372,0,0
525,652,0,0,0,0,0,0,0,0,0,-1,1749,372,0,0
532,652,0,0,0,0,0,0,0,0,0,-1,1756,372,0,0
539,652,0,0,0,0,0,0,0,0,0,-1,1763,372,0,0
546,652,0,0,0,0,0,0,0,0,0,-1,1770,372,0,0
553,652,0,0,0,0,0,0,0,0,0,-1,1777,372,0,0
560,652,0,0,0,0,0,0,0,0,0,-1,1784,372,0,0
567,652,0,0,0,0,0,0,0,0,0,-1,1791,372,0,0
574,652,0,0,0,0,0,0,0,0,0,-1,1798,372,0,0
581,652,0,0,0,0,0,0,0,0,0,-1,1805,372,0,0
588,652,0,0,0,0,0,0,0,0,0,-1,1812,372,0,0
595,652,0,0,0,0,0,0,0,0,0,-1,1819,372,0,0
602,652,0,0,0,0,0,0,0,0,0,-1,1826,372,0,0
609,652,0,0,0,0,0,0,0,0,0,-1,1833,372,0,0
616,652,0,0,0,0,0,0,0,0,0,-1,1840,372,0,0
623,652,0,0,0,0,0,0,0,0,0,-1,1847,372,0,0
630,652,0,0,0,0,0,0,0,0,0,-1,1854,372,0,0
637,652,0,0,0,0,0,0,0,0,0,-1,1861,372,0,0
644,652,0,0,0,0,0,0,0,0,0,-1,1868,372,0,0
651,652,0,0,0,0,0,0,0,0,0,-1,1875,372,0,0
658,652,0,0,0,0,0,0,0,0,0,-1,1882,372,0,0
665,652,0,0,0,0,0,0,0,0,0,-1,1889,372,0,0
672,652,0,0,0,0,0,0,0,0,0,-1,1896,372,0,0
679,652,0,0,0,0,0,0,0,0,0,-1,1903,372,0,0
686,652,0,0,0,0,0,0,0,0,0,-1,1910,372,0,0
693,652,0,0,0,0,0,0,0,0,0,-1,1917,372,0,0
700,652,0,0,0,0,0,0,0,0,0,-1,1924,372,0,0
707,652,0,0,0,0,0,0,0,0,0,-1,1931,372,0,0
714,652,0,0,0,0,0,0,0,0,0,-1,1938,372,0,0
721,652,0,0,0,0,0,0,0,0,0,-1,1945,372,0,0
728,652,0,0,0,0,0,0,0,0,0,-1,1952,372,0,0
735,652,0,0,0,0,0,0,0,0,0,-1,1959,372,0,0
742,652,0,0,0,0,0,0,0,0,0,-1,1966,372,0,0
749,652,0,0,0,0,0,0,0,0,0,-1,1973,372,0,0
756,652,0,0,0,0,0,0,0,0,0,-1,1980,372,0,0
763,652,0,0,0,0,0,0,0,0,0,-1,1987,372,0,0
770,652,0,0,0,0,0,0,0,0,0,-1,1994,372,0,0
777,652,0,0,0,0,0,0,0,0,0,-1,2001,372,0,0
784,652,0,0,0,0,0,0,0,0,0,-1,2008,372,0,0
791,652,0,0,0,0,0,0,0,0,0,-1,2015,372,0,0
798,652,0,0,0,0,0,0,0,0,0,-1,2022,372,0,0
805,652,0,0,0,0,0,0,0,0,0,-1,2029,372,0,0
812,652,0,0,0,0,0,0,0,0,0,-1,2036,372,0,0
-700,645,0,0,0,0,0,0,0,0,0,-1,524,379,0,0
-693,645,0,0,0,0,0,0,0,0,0,-1,531,379,0,0
-686,645,0,0,0,0,0,0,0,0,0,-1,538,379,0,0
-679,645,0,0,0,0,0,0,0,0,0,-1,545,379,0,0
-672,645,0,0,0,0,0,0,0,0,0,-1,552,379,0,0
-665,645,0,0,0,0,0,0,0,0,0,-1,559,379,0,0
-658,645,0,0,0,0,0,0,0,0,0,-1,566,379,0,0
-651,645,0,0,0,0,0,0,0,0,0,-1,573,379,0,0
-644,645,0,0,0,0,0,0,0,0,0,-1,580,379,0,0
-637,645,0,0,0,0,0,0,0,0,0,-1,587,379,0,0
-630,645,0,0,0,0,0,0,0,0,0,-1,594,379,0,0
-623,645,0,0,0,0,0,0,0,0,0,-1,601,379,0,0
-616,645,0,0,0,0,0,0,0,0,0,-1,608,379,0,0
-609,645,0,0,0,0,0,0,0,0,0,-1,615,379,0,0
-602,645,0,0,0,0,0,0,0,0,0,-1,622,379,0,0
-595,645,0,0,0,0,0,0,0,0,0,-1,629,379,0,0
-588,645,0,0,0,0,0,0,0,0,0,-1,636,379,0,0
-581,645,0,0,0,0,0,0,0,0,0,-1,643,379,0,0
-574,645,0,0,0,0,0,0,0,0,0,-1,650,379,0,0
-567,645,0,0,0,0,0,0,0,0,0,-1,657,379,0,0
-560,645,0,0,0,0,0,0,0,0,0,-1,664,379,0,0
-553,645,0,0,0,0,0,0,0,0,0,-1,671,379,0,0
-546,645,0,0,0,0,0,0,0,0,0,-1,678,379,0,0
-539,645,0,0,0,0,0,0,0,0,0,-1,685,379,0,0
-532,645,0,0,0,0,0,0,0,0,0,-1,692,379,0,0
-525,645,0,0,0,0,0,0,0,0,0,-1,699,379,0,0
-518,645,0,0,0,0,0,0,0,0,0,-1,706,379,0,0
-511,645,0,0,0,0,0,0,0,0,0,-1,713,379,0,0
-504,645,0,0,0,0,0,0,0,0,0,-1,720,379,0,0
-497,645,0,0,0,0,0,0,0,0,0,-1,727,379,0,0
-490,645,0,0,0,0,0,0,0,0,0,-1,734,379,0,0
-483,645,0,0,0,0,0,0,0,0,0,-1,741,379,0,0
-476,645,0,0,0,0,0,0,0,0,0,-1,748,379,0,0
-469,645,0,0,0,0,0,0,0,0,0,-1,755,379,0,0
-462,645,0,0,0,0,0,0,0,0,0,-1,762,379,0,0
-455,645,0,0,0,0,0,0,0,0,0,-1,769,379,0,0
-448,645,0,0,0,0,0,0,0,0,0,-1,776,379,0,0
-441,645,0,0,0,0,0,0,0,0,0,-1,783,379,0,0
-434,645,0,0,0,0,0,0,0,0,0,-1,790,379,0,0
-427,645,0,0,0,0,0,0,0,0,0,-1,797,379,0,0
-420,645,0,0,0,0,0,0,0,0,0,-1,804,379,0,0
-413,645,0,0,0,0,0,0,0,0,0,-1,811,379,0,0
-406,645,0,0,0,0,0,0,0,0,0,-1,818,379,0,0
-399,645,0,0,0,0,0,0,0,0,0,-1,825,379,0,0
-392,645,0,0,0,0,0,0,0,0,0,-1,832,379,0,0
-385,645,0,0,0,0,0,0,0,0,0,-1,839,379,0,0
-378,645,0,0,0,0,0,0,0,0,0,-1,846,379,0,0
-371,645,0,0,0,0,0,0,0,0,0,-1,853,379,0,0
-364,645,0,0,0,0,0,0,0,0,0,-1,860,379,0,0
-357,645,0,0,0,0,0,0,0,0,0,-1,867,379,0,0
-350,645,0,0,0,0,0,0,0,0,0,-1,874,379,0,0
-343,645,0,0,0,0,0,0,0,0,0,-1,881,379,0,0
-336,645,0,0,0,0,0,0,0,0,0,-1,888,379,0,0
-329,645,0,0,0,0,0,0,0,0,0,-1,895,379,0,0
-322,645,0,0,0,0,0,0,0,0,0,-1,902,379,0,0
-315,645,0,0,0,0,0,0,0,0,0,-1,909,379,0,0
-308,645,0,0,0,0,0,0,0,0,0,-1,916,379,0,0
-301,645,0,0,0,0,0,0,0,0,0,-1,923,379,0,0
-294,645,0,0,0,0,0,0,0,0,0,-1,930,379,0,0
-287,645,0,0,0,0,0,0,0,0,0,-1,937,379,0,0
-280,645,0,0,0,0,0,0,0,0,0,-1,944,379,0,0
-273,645,0,0,0,0,0,0,0,0,0,-1,951,379,0,0
-266,645,0,0,0,0,0,0,0,0,0,-1,958,379,0,0
-259,645,0,0,0,0,0,0,0,0,0,-1,965,379,0,0
-252,645,0.0778198,-6.9191,0,0,0,0,0,0,0,-1,972,379,0.0778175,6.9191
-245,645,0.52948,-6.83511,0,0,0,0,0,0,0,-1,979,379,0.529504,6.83511
-238,645,0.53125,-7.3454,0,0,0,0,0,0,0,-1,986,379,0.531259,7.34541
-231,645,1.97729,-7.08783,0,0,0,0,0,0,0,-1,993,379,1.97729,7.08784
-224,645,-2.62988,-5.69568,0,0,0,0,0,0,0,-1,1000,379,-2.62987,5.69567
-217,645,-3.33527,-5.9166,0,0,0,0,0,0,0,-1,1007,379,-3.33529,5.91658
-210,645,2.6474,-10.0573,0,0,0,0,0,0,0,-1,1014,379,2.6474,10.0572
-203,645,2.67316,-9.8866,0,0,0,0,0,0,0,-1,1021,379,2.67317,9.88661
-196,645,2.23718,-9.66687,0,0,0,0,0,0,0,-1,1028,379,2.23715,9.66687
-189,645,1.85193,-9.51505,0,0,0,0,0,0,0,-1,1035,379,1.85192,9.51505
-182,645,1.71667,-8.88516,0,0,0,0,0,0,0,-1,1042,379,1.71668,8.88515
-175,645,2.10767,-8.08362,0,0,0,0,0,0,0,-1,1049,379,2.10765,8.08362
-168,645,2.44629,-8.55692,0,0,0,0,0,0,0,-1,1056,379,2.44627,8.55692
-161,645,2.18701,-8.46698,0,0,0,0,0,0,0,-1,1063,379,2.18696,8.46697
-154,645,2.18347,-8.63345,0.0155048,-0.0167578,-0.00338628,0.0158564,-0.0171094,-0.103458,0.0190374,0.0420512,1070,379,2.18344,8.63344
-147,645,2.14673,-8.73764,0.0130701,-0.0114583,-0.00229995,0.0132839,-0.0116721,-0.0926901,0.0144184,0.0410528,1077,379,2.14667,8.73764
-140,645,1.71301,-8.95825,0.0110195,-0.00659513,-0.00127455,0.0111112,-0.00668688,-0.0718589,0.010381,0.0369597,1084,379,1.71301,8.95826
-133,645,1.92664,-8.95093,0.00867292,-0.0017769,-0.000198444,0.00867669,-0.00178066,-0.018981,0.00646034,0.0300699,1091,379,1.92669,8.95093
-126,645,2.14771,-8.97946,0.00675043,0.00260639,0.000611771,0.00683886,0.00251796,0.143548,0.00399389,0.0231265,1098,379,2.14772,8.97945
-119,645,2.13757,-9.02966,0.00542786,0.00613168,0.00110547,0.0069399,0.00461964,0.939492,0.0040794,0.0156977,1105,379,2.13753,9.02968
-112,645,2.12561,-9.10751,0.00391493,0.00963831,0.00158942,0.0100501,0.00350316,1.3173,0.00589045,0.0114326,1112,379,2.12557,9.10752
-105,645,2.09949,-9.18179,0.00293951,0.0121239,0.0018619,0.012487,0.00257641,1.3782,0.00761261,0.0110358,1119,379,2.09945,9.1818
-98,645,2.06262,-9.24805,0.00291158,0.0130181,0.00182324,0.013337,0.00259273,1.39766,0.00816546,0.0122639,1126,379,2.06263,9.24806
-91,645,2.05835,-9.30789,0.00282349,0.0133682,0.00173718,0.0136471,0.00254467,1.41165,0.00837961,0.0133236,1133,379,2.05835,9.3079
-84,645,2.06116,-9.37457,0.00253966,0.0129909,0.0015123,0.0132053,0.00232523,1.42994,0.00813991,0.0126892,1140,379,2.06119,9.37457
-77,645,2.04602,-9.42957,0.00201681,0.0118302,0.00132281,0.0120054,0.00184163,1.43913,0.00746581,0.01058,1147,379,2.04601,9.42956
-70,645,2.03369,-9.48126,0.00153124,0.0102725,0.00108114,0.0104043,0.00139951,1.44955,0.00651994,0.00990513,1154,379,2.03374,9.48126
-63,645,2.03552,-9.53616,0.00117079,0.00849997,0.000793443,0.00858488,0.00108588,1.46418,0.00539783,0.0107772,1161,379,2.03551,9.53616
-56,645,2.01721,-9.56894,0.000939474,0.00665382,0.000607649,0.00671772,0.000875573,1.46602,0.00421703,0.011767,1168,379,2.01717,9.56895
-49,645,2.01099,-9.60657,0.000524492,0.00463057,0.000492542,0.00468883,0.000466236,1.45307,0.00298264,0.0100622,1175,379,2.01099,9.60657
-42,645,2.01733,-9.67126,-0.000283798,0.00249858,0.000416731,0.00255966,-0.000344873,1.42527,0.00183225,0.00946947,1182,379,2.01734,9.67126
-35,645,2.00842,-9.72562,-0.0011284,0.00111877,0.000234886,0.00114306,-0.00115269,1.46775,0.00132545,0.00999489,1189,379,2.00844,9.72561
-28,645,1.99683,-9.76678,-0.00118252,-0.000124539,-3.62164e-05,-0.0001233,-0.00118376,-1.53662,0.000751454,0.00832495,1196,379,1.9968,9.76679
-21,645,1.98108,-9.79141,-0.00114662,-0.000454429,-0.00010275,-0.000439499,-0.00116155,-1.4265,0.000677205,0.00950322,1203,379,1.98111,9.7914
-14,645,1.97974,-9.82343,-0.00122495,-0.000615948,-8.6917e-05,-0.000603786,-0.00123711,-1.43177,0.000714314,0.0092057,1210,379,1.97974,9.82342
-7,645,1.9884,-9.85959,-0.00120504,-0.000872228,-4.69532e-05,-0.000865731,-0.00121153,-1.43329,0.00072063,0.012576,1217,379,1.98845,9.8596
0,645,2.01367,-9.87399,-0.00107178,-0.000980155,-6.63626e-05,-0.000945327,-0.0011066,-1.08749,0.000690286,0.0234786,1224,379,2.0137,9.874
7,645,1.97974,-9.89877,-0.000812875,-0.00113007,-0.000125881,-0.00076899,-0.00117396,-0.335446,0.00068856,0.0155922,1231,379,1.97977,9.89878
14,645,1.96313,-9.89517,-0.000431221,-0.00125533,-0.00022474,-0.000373917,-0.00131264,-0.249657,0.000780885,0.0142109,1238,379,1.96317,9.89519
21,645,1.94727,-9.89603,-5.1514e-05,-0.0012759,-0.000212155,-1.57949e-05,-0.00131162,-0.166798,0.000869196,0.00955027,1245,379,1.94722,9.89601
28,645,1.9447,-9.91702,0.000670136,-0.00116941,-0.000139744,0.000680692,-0.00117996,-0.0753899,0.00108706,0.00842677,1252,379,1.94468,9.91704
35,645,1.94922,-9.92215,0.00121914,-0.000962441,-2.58452e-05,0.00121945,-0.000962747,-0.0118448,0.00126279,0.00822474,1259,379,1.94927,9.92216
42,645,1.95178,-9.92673,0.00171704,-0.000601744,0.000213364,0.00173651,-0.000621214,0.0909974,0.00141109,0.00872516,1266,379,1.95182,9.92671
49,645,1.96167,-9.93991,0.00222129,-3.84549e-05,0.000560403,0.00235264,-0.000169798,0.230216,0.00162798,0.0110966,1273,379,1.96165,9.93992
56,645,1.9502,-9.92795,0.00233373,0.000443047,0.000889666,0.00268653,9.02459e-05,0.377533,0.00176171,0.0114955,1280,379,1.95015,9.92796
63,645,1.9397,-9.91043,0.00212008,0.00097677,0.00119644,0.00287442,0.00022243,0.562535,0.00184661,0.0118252,1287,379,1.93965,9.91044
70,645,1.94226,-9.88266,0.00190387,0.00171178,0.00155343,0.00336422,0.000251429,0.754523,0.00216388,0.014593,1294,379,1.9422,9.88267
77,645,1.94263,-9.88089,0.0014233,0.00234163,0.00195269,0.00388841,-0.000123485,0.900873,0.0026344,0.0177664,1301,379,1.94259,9.88088
84,645,1.94189,-9.8685,0.000691961,0.00281113,0.00225444,0.00424257,-0.000739479,1.00508,0.00310437,0.012871,1308,379,1.94195,9.8685
91,645,1.92664,-9.85043,-0.000110353,0.00301887,0.00239434,0.00431449,-0.00140596,1.0748,0.00344206,0.0143255,1315,379,1.92668,9.85044
98,645,1.93494,-9.81204,-0.00105132,0.00324214,0.00238746,0.00430608,-0.00211526,1.15158,0.00377861,0.0137536,1322,379,1.9349,9.81205
105,645,1.93616,-9.76044,-0.00194405,0.00312442,0.00227609,0.00399649,-0.00281613,1.2049,0.0039529,0.00971595,1329,379,1.93619,9.76043
112,645,1.91357,-9.74091,-0.00262325,0.002819,0.00215172,0.00356694,-0.00337119,1.23626,0.00400627,0.00778341,1336,379,1.9136,9.74091
119,645,1.9231,-9.6976,-0.00315938,0.00242707,0.0019583,0.00304516,-0.00377747,1.26507,0.0039466,0.00823332,1343,379,1.92314,9.69761
126,645,1.90918,-9.65237,-0.00341379,0.00194039,0.00159062,0.00237729,-0.00385068,1.30274,0.00362911,0.0104115,1350,379,1.90916,9.65237
133,645,1.89282,-9.61804,-0.00370002,0.00136655,0.00118272,0.00162904,-0.00396251,1.3524,0.00332067,0.0115816,1357,379,1.89278,9.61804
140,645,1.87854,-9.57104,-0.00359212,0.000877465,0.000849784,0.00103358,-0.00374823,1.38911,0.00290529,0.0117009,1364,379,1.87853,9.57104
147,645,1.87817,-9.51715,-0.00334503,0.000559691,0.000498523,0.000622333,-0.00340767,1.4458,0.00250513,0.0122598,1371,379,1.87816,9.51715
154,645,1.89099,-9.48175,-0.00307299,0.000231375,0.000147129,0.000237913,-0.00307953,1.52639,0.00213675,0.0115478,1378,379,1.89101,9.48175
161,645,1.89307,-9.44366,-0.00248328,8.56686e-05,-1.18582e-07,8.56686e-05,-0.00248328,-1.57075,0.0016848,0.0135437,1385,379,1.89307,9.44367
168,645,1.86414,-9.36621,-0.00182337,0.000246968,0.000157795,0.000258925,-0.00183533,1.49516,0.00131836,0.0158347,1392,379,1.86416,9.3662
175,645,1.87512,-9.29507,-0.0015236,0.000665809,0.000446875,0.000753507,-0.0016113,1.37701,0.00139494,0.0133083,1399,379,1.87514,9.29506
182,645,1.88123,-9.23621,-0.0013711,0.000961633,0.000688521,0.00114969,-0.00155916,1.30416,0.0015699,0.00919462,1406,379,1.88125,9.2362
189,645,1.87085,-9.14792,-0.00120803,0.00118867,0.00102196,0.00156526,-0.00158462,1.21774,0.0018186,0.00973876,1413,379,1.87081,9.14792
196,645,1.85266,-9.07639,-0.00111036,0.00116377,0.00129923,0.00175324,-0.00169983,1.14486,0.00199371,0.0105524,1420,379,1.85266,9.07638
203,645,1.84021,-8.98715,-0.00102529,0.000274297,0.00147615,0.00123734,-0.00198833,0.992734,0.00187909,0.0107278,1427,379,1.84021,8.98715
210,645,1.85803,-8.91977,-0.00102468,0.000235143,0.00194824,0.00165278,-0.00244231,0.941755,0.0023789,0.0130642,1434,379,1.85799,8.91977
217,645,1.84265,-8.86267,-0.00136023,0.000302856,0.00193568,0.00157805,-0.00263542,0.988272,0.00245805,0.0122723,1441,379,1.84268,8.86267
224,645,1.82104,-8.77316,-0.00158077,0.000432566,0.00194806,0.00161868,-0.00276689,1.02388,0.00256077,0.0112533,1448,379,1.82102,8.77318
231,645,1.81201,-8.65887,-0.00236236,0.000735618,0.0022758,0.00193956,-0.0035663,1.0842,0.00322472,0.0124562,1455,379,1.81204,8.65887
238,645,1.81238,-8.55704,-0.00363285,0.00109136,0.00244687,0.00213024,-0.00467173,1.16929,0.00401746,0.0102203,1462,379,1.81241,8.55703
245,645,1.81628,-8.47333,-0.00472293,0.00133742,0.00255035,0.00226783,-0.00565334,1.22098,0.00471047,0.0113138,1469,379,1.81632,8.47334
252,645,1.84216,-8.29587,-0.00586693,0.00181228,0.00283593,0.00274604,-0.0068007,1.25271,0.0056751,0.0183881,1476,379,1.84211,8.29588
259,645,1.80042,-8.1846,-0.00693461,0.00283983,0.00341373,0.00391403,-0.00800881,1.26594,0.00701767,0.0285195,1483,379,1.80045,8.1846
266,645,1.77576,-8.07965,-0.0080134,0.00443564,0.0042135,0.00572765,-0.00930542,1.27326,0.0087609,0.0256437,1490,379,1.7757,8.07966
273,645,1.8219,-7.98657,-0.00902807,0.00618317,0.00513068,0.00775194,-0.0105968,1.27406,0.010636,0.0245531,1497,379,1.82192,7.98658
280,645,1.87134,-7.75067,-0.00974218,0.00796708,0.00626406,0.00995878,-0.0117339,1.26295,0.0125382,0.0410063,1504,379,1.87139,7.75067
287,645,1.58887,-7.20145,-0.0101294,0.00993461,0.00769438,0.0125456,-0.0127404,1.24366,0.014599,0.044651,1511,379,1.58881,7.20144
294,645,1.9541,-7.94669,0,0,0,0,0,0,0,-1,1518,379,1.95411,7.94668
301,645,1.4292,-7.12039,0,0,0,0,0,0,0,-1,1525,379,1.42926,7.12039
308,645,1.93799,-7.13315,0,0,0,0,0,0,0,-1,1532,379,1.93797,7.13316
315,645,1.67017,-6.63739,0,0,0,0,0,0,0,-1,1539,379,1.6702,6.6374
322,645,1.47461,-6.36633,0,0,0,0,0,0,0,-1,1546,379,1.47465,6.36634
329,645,1.11108,-5.34497,0,0,0,0,0,0,0,-1,1553,379,1.11112,5.34498
336,645,0.984131,-4.83829,0,0,0,0,0,0,0,-1,1560,379,0.984172,4.83828
343,645,3.48962,-5.22675,0,0,0,0,0,0,0,-1,1567,379,3.48959,5.22675
350,645,3.93213,-5.72198,0,0,0,0,0,0,0,-1,1574,379,3.9321,5.72198
357,645,1.63928,-6.465,0,0,0,0,0,0,0,-1,1581,379,1.63926,6.46499
364,645,-0.0794678,-3.22021,0,0,0,0,0,0,0,-1,1588,379,-0.0794987,3.22021
371,645,0,0,0,0,0,0,0,0,0,-1,1595,379,0,0
378,645,0,0,0,0,0,0,0,0,0,-1,1602,379,0,0
385,645,0,0,0,0,0,0,0,0,0,-1,1609,379,0,0
392,645,0,0,0,0,0,0,0,0,0,-1,1616,379,0,0
399,645,0,0,0,0,0,0,0,0,0,-1,1623,379,0,0
406,645,0,0,0,0,0,0,0,0,0,-1,1630,379,0,0
413,645,0,0,0,0,0,0,0,0,0,-1,1637,379,0,0
420,645,0,0,0,0,0,0,0,0,0,-1,1644,379,0,0
427,645,0,0,0,0,0,0,0,0,0,-1,1651,379,0,0
434,645,0,0,0,0,0,0,0,0,0,-1,1658,379,0,0
441,645,0,0,0,0,0,0,0,0,0,-1,1665,379,0,0
448,645,0,0,0,0,0,0,0,0,0,-1,1672,379,0,0
455,645,0,0,0,0,0,0,0,0,0,-1,1679,379,0,0
462,645,0,0,0,0,0,0,0,0,0,-1,1686,379,0,0
469,645,0,0,0,0,0,0,0,0,0,-1,1693,379,0,0
476,645,0,0,0,0,0,0,0,0,0,-1,1700,379,0,0
483,645,0,0,0,0,0,0,0,0,0,-1,1707,379,0,0
490,645,0,0,0,0,0,0,0,0,0,-1,1714,379,0,0
497,645,0,0,0,0,0,0,0,0,0,-1,1721,379,0,0
504,645,0,0,0,0,0,0,0,0,0,-1,1728,379,0,0
511,645,0,0,0,0,0,0,0,0,0,-1,1735,379,0,0
518,645,0,0,0,0,0,0,0,0,0,-1,1742,379,0,0
525,645,0,0,0,0,0,0,0,0,0,-1,1749,379,0,0
532,645,0,0,0,0,0,0,0,0,0,-1,1756,379,0,0
539,645,0,0,0,0,0,0,0,0,0,-1,1763,379,0,0
546,645,0,0,0,0,0,0,0,0,0,-1,1770,379,0,0
553,645,0,0,0,0,0,0,0,0,0,-1,1777,379,0,0
560,645,0,0,0,0,0,0,0,0,0,-1,1784,379,0,0
567,645,0,0,0,0,0,0,0,0,0,-1,1791,379,0,0
574,645,0,0,0,0,0,0,0,0,0,-1,1798,379,0,0
581,645,0,0,0,0,0,0,0,0,0,-1,1805,379,0,0
588,645,0,0,0,0,0,0,0,0,0,-1,1812,379,0,0
595,645,0,0,0,0,0,0,0,0,0,-1,1819,379,0,0
602,645,0,0,0,0,0,0,0,0,0,-1,1826,379,0,0
609,645,0,0,0,0,0,0,0,0,0,-1,1833,379,0,0
616,645,0,0,0,0,0,0,0,0,0,-1,1840,379,0,0
623,645,0,0,0,0,0,0,0,0,0,-1,1847,379,0,0
630,645,0,0,0,0,0,0,0,0,0,-1,1854,379,0,0
637,645,0,0,0,0,0,0,0,0,0,-1,1861,379,0,0
644,645,0,0,0,0,0,0,0,0,0,-1,1868,379,0,0
651,645,0,0,0,0,0,0,0,0,0,-1,1875,379,0,0
658,645,0,0,0,0,0,0,0,0,0,-1,1882,379,0,0
665,645,0,0,0,0,0,0,0,0,0,-1,1889,379,0,0
672,645,0,0,0,0,0,0,0,0,0,-1,1896,379,0,0
679,645,0,0,0,0,0,0,0,0,0,-1,1903,379,0,0
686,645,0,0,0,0,0,0,0,0,0,-1,1910,379,0,0
693,645,0,0,0,0,0,0,0,0,0,-1,1917,379,0,0
700,645,0,0,0,0,0,0,0,0,0,-1,1924,379,0,0
707,645,0,0,0,0,0,0,0,0,0,-1,1931,379,0,0
714,645,0,0,0,0,0,0,0,0,0,-1,1938,379,0,0
721,645,0,0,0,0,0,0,0,0,0,-1,1945,379,0,0
728,645,0,0,0,0,0,0,0,0,0,-1,1952,379,0,0
735,645,0,0,0,0,0,0,0,0,0,-1,1959,379,0,0
742,645,0,0,0,0,0,0,0,0,0,-1,1966,379,0,0
749,645,0,0,0,0,0,0,0,0,0,-1,1973,379,0,0
756,645,0,0,0,0,0,0,0,0,0,-1,1980,379,0,0
763,645,0,0,0,0,0,0,0,0,0,-1,1987,379,0,0
770,645,0,0,0,0,0,0,0,0,0,-1,1994,379,0,0
777,645,0,0,0,0,0,0,0,0,0,-1,2001,379,0,0
784,645,0,0,0,0,0,0,0,0,0,-1,2008,379,0,0
791,645,0,0,0,0,0,0,0,0,0,-1,2015,379,0,0
798,645,0,0,0,0,0,0,0,0,0,-1,2022,379,0,0
805,645,0,0,0,0,0,0,0,0,0,-1,2029,379,0,0
812,645,0,0,0,0,0,0,0,0,0,-1,2036,379,0,0
-700,638,0,0,0,0,0,0,0,0,0,-1,524,386,0,0
-693,638,0,0,0,0,0,0,0,0,0,-1,531,386,0,0
-686,638,0,0,0,0,0,0,0,0,0,-1,538,386,0,0
-679,638,0,0,0,0,0,0,0,0,0,-1,545,386,0,0
-672,638,0,0,0,0,0,0,0,0,0,-1,552,386,0,0
-665,638,0,0,0,0,0,0,0,0,0,-1,559,386,0,0
-658,638,0,0,0,0,0,0,0,0,0,-1,566,386,0,0
-651,638,0,0,0,0,0,0,0,0,0,-1,573,386,0,0
-644,638,0,0,0,0,0,0,0,0,0,-1,580,386,0,0
-637,638,0,0,0,0,0,0,0,0,0,-1,587,386,0,0
-630,638,0,0,0,0,0,0,0,0,0,-1,594,386,0,0
-623,638,0,0,0,0,0,0,0,0,0,-1,601,386,0,0
-616,638,0,0,0,0,0,0,0,0,0,-1,608,386,0,0
-609,638,0,0,0,0,0,0,0,0,0,-1,615,386,0,0
-602,638,0,0,0,0,0,0,0,0,0,-1,622,386,0,0
-595,638,0,0,0,0,0,0,0,0,0,-1,629,386,0,0
-588,638,0,0,0,0,0,0,0,0,0,-1,636,386,0,0
-581,638,0,0,0,0,0,0,0,0,0,-1,643,386,0,0
-574,638,0,0,0,0,0,0,0,0,0,-1,650,386,0,0
-567,638,0,0,0,0,0,0,0,0,0,-1,657,386,0,0
-560,638,0,0,0,0,0,0,0,0,0,-1,664,386,0,0
-553,638,0,0,0,0,0,0,0,0,0,-1,671,386,0,0
-546,638,0,0,0,0,0,0,0,0,0,-1,678,386,0,0
-539,638,0,0,0,0,0,0,0,0,0,-1,685,386,0,0
-532,638,0,0,0,0,0,0,0,0,0,-1,692,386,0,0
-525,638,0,0,0,0,0,0,0,0,0,-1,699,386,0,0
-518,638,0,0,0,0,0,0,0,0,0,-1,706,386,0,0
-511,638,0,0,0,0,0,0,0,0,0,-1,713,386,0,0
-504,638,0,0,0,0,0,0,0,0,0,-1,720,386,0,0
-497,638,0,0,0,0,0,0,0,0,0,-1,727,386,0,0
-490,638,0,0,0,0,0,0,0,0,0,-1,734,386,0,0
-483,638,0,0,0,0,0,0,0,0,0,-1,741,386,0,0
-476,638,0,0,0,0,0,0,0,0,0,-1,748,386,0,0
-469,638,0,0,0,0,0,0,0,0,0,-1,755,386,0,0
-462,638,0,0,0,0,0,0,0,0,0,-1,762,386,0,0
-455,638,0,0,0,0,0,0,0,0,0,-1,769,386,0,0
-448,638,0,0,0,0,0,0,0,0,0,-1,776,386,0,0
-441,638,0,0,0,0,0,0,0,0,0,-1,783,386,0,0
-434,638,0,0,0,0,0,0,0,0,0,-1,790,386,0,0
-427,638,0,0,0,0,0,0,0,0,0,-1,797,386,0,0
-420,638,0,0,0,0,0,0,0,0,0,-1,804,386,0,0
-413,638,0,0,0,0,0,0,0,0,0,-1,811,386,0,0
-406,638,0,0,0,0,0,0,0,0,0,-1,818,386,0,0
-399,638,0,0,0,0,0,0,0,0,0,-1,825,386,0,0
-392,638,0,0,0,0,0,0,0,0,0,-1,832,386,0,0
-385,638,0,0,0,0,0,0,0,0,0,-1,839,386,0,0
-378,638,0,0,0,0,0,0,0,0,0,-1,846,386,0,0
-371,638,0,0,0,0,0,0,0,0,0,-1,853,386,0,0
-364,638,0,0,0,0,0,0,0,0,0,-1,860,386,0,0
-357,638,0,0,0,0,0,0,0,0,0,-1,867,386,0,0
-350,638,0,0,0,0,0,0,0,0,0,-1,874,386,0,0
-343,638,0,0,0,0,0,0,0,0,0,-1,881,386,0,0
-336,638,0,0,0,0,0,0,0,0,0,-1,888,386,0,0
-329,638,0,0,0,0,0,0,0,0,0,-1,895,386,0,0
-322,638,0,0,0,0,0,0,0,0,0,-1,902,386,0,0
-315,638,0,0,0,0,0,0,0,0,0,-1,909,386,0,0
-308,638,0,0,0,0,0,0,0,0,0,-1,916,386,0,0
-301,638,0,0,0,0,0,0,0,0,0,-1,923,386,0,0
-294,638,0,0,0,0,0,0,0,0,0,-1,930,386,0,0
-287,638,0,0,0,0,0,0,0,0,0,-1,937,386,0,0
-280,638,0,0,0,0,0,0,0,0,0,-1,944,386,0,0
-273,638,0,0,0,0,0,0,0,0,0,-1,951,386,0,0
-266,638,-1.87286,-4.27911,0,0,0,0,0,0,0,-1,958,386,-1.87287,4.2791
-259,638,-0.718689,-3.6188,0,0,0,0,0,0,0,-1,965,386,-0.71871,3.61881
-252,638,0.300537,-6.37717,0,0,0,0,0,0,0,-1,972,386,0.300563,6.37716
-245,638,1.41455,-7.90482,0,0,0,0,0,0,0,-1,979,386,1.41455,7.90482
-238,638,0.552917,-6.91696,0,0,0,0,0,0,0,-1,986,386,0.552911,6.91695
-231,638,0.577515,-7.05582,0,0,0,0,0,0,0,-1,993,386,0.577542,7.05582
-224,638,3.45862,-6.89499,0,0,0,0,0,0,0,-1,1000,386,3.45865,6.89498
-217,638,3.35602,-8.43051,0,0,0,0,0,0,0,-1,1007,386,3.35604,8.43051
-210,638,3.63702,-10.4718,0,0,0,0,0,0,0,-1,1014,386,3.637,10.4718
-203,638,2.94855,-9.70029,0,0,0,0,0,0,0,-1,1021,386,2.94855,9.7003
-196,638,2.58167,-7.84561,0,0,0,0,0,0,0,-1,1028,386,2.58161,7.84561
-189,638,2.14355,-7.94733,0,0,0,0,0,0,0,-1,1035,386,2.14353,7.94733
-182,638,2.31921,-8.75082,0,0,0,0,0,0,0,-1,1042,386,2.31923,8.75082
-175,638,2.09131,-8.25693,0,0,0,0,0,0,0,-1,1049,386,2.09128,8.25693
-168,638,2.12183,-8.34573,0.0124107,-0.0148507,-0.00413976,0.0130255,-0.0154655,-0.147428,0.0164694,0.0337501,1056,386,2.12185,8.34573
-161,638,2.10754,-8.44116,0.0113302,-0.0131495,-0.00347304,0.0118134,-0.0136327,-0.138241,0.0147038,0.0285373,1063,386,2.10758,8.44117
-154,638,2.07935,-8.58234,0.00980522,-0.0107254,-0.00264123,0.0101396,-0.0110597,-0.125918,0.0122433,0.0216526,1070,386,2.07939,8.58234
-147,638,2.073,-8.69202,0.00831771,-0.00748963,-0.00185179,0.00853175,-0.00770366,-0.115072,0.00937758,0.0180674,1077,386,2.07303,8.69201
-140,638,2.07739,-8.78183,0.00708269,-0.00441628,-0.00112538,0.00719179,-0.00452538,-0.0966458,0.00682305,0.0147057,1084,386,2.07735,8.78184
-133,638,2.06921,-8.90149,0.0055785,-0.00124525,-0.000316524,0.00559315,-0.0012599,-0.0462532,0.00421202,0.0113729,1091,386,2.06922,8.90148
-126,638,2.06555,-8.96002,0.00430439,0.00177891,0.00029274,0.00433788,0.00174542,0.113903,0.00252034,0.0124959,1098,386,2.0655,8.96002
-119,638,2.05652,-9.01416,0.00346312,0.00421008,0.000647035,0.00458369,0.00308952,1.04715,0.0026993,0.0140114,1105,386,2.05647,9.01415
-112,638,2.05664,-9.10583,0.00246285,0.00667342,0.000995245,0.00689681,0.00223946,1.35,0.00406262,0.0131206,1112,386,2.05667,9.10582
-105,638,2.02332,-9.19702,0.00179893,0.0084489,0.00119254,0.0086563,0.00159154,1.39861,0.0053203,0.0142643,1119,386,2.0233,9.19703
-98,638,1.99988,-9.26611,0.00178643,0.00914839,0.00116227,0.00932752,0.0016073,1.41787,0.00575785,0.0141679,1126,386,1.99985,9.26612
-91,638,1.99475,-9.32779,0.00174399,0.00944285,0.00109694,0.00959609,0.00159075,1.432,0.00593859,0.0123039,1133,386,1.99475,9.3278
-84,638,1.98926,-9.38147,0.00155361,0.00923095,0.000946359,0.00934588,0.00143868,1.44994,0.0058107,0.0140735,1140,386,1.98929,9.38146
-77,638,1.97803,-9.44275,0.00116949,0.00843433,0.000816792,0.00852503,0.00107879,1.4602,0.00536007,0.0108328,1147,386,1.97799,9.44276
-70,638,1.99438,-9.48672,0.000853969,0.00736898,0.00065872,0.00743492,0.000788034,1.47103,0.00471593,0.00982487,1154,386,1.99442,9.48673
-63,638,1.99939,-9.53607,0.000654469,0.00612248,0.000475112,0.00616345,0.000613494,1.48477,0.0039205,0.0107815,1161,386,1.99934,9.53606
-56,638,1.99731,-9.58749,0.000552772,0.00481644,0.000353884,0.00484561,0.000523599,1.48855,0.00307079,0.012864,1168,386,1.99737,9.58749
-49,638,1.97791,-9.62845,0.000342536,0.00344198,0.000318869,0.00347445,0.00031007,1.46933,0.00222017,0.0108309,1175,386,1.9779,9.62846
-42,638,1.97864,-9.68762,-0.000110933,0.00200991,0.000285183,0.00204759,-0.000148611,1.43944,0.0014172,0.00993629,1182,386,1.97866,9.68762
-35,638,1.97839,-9.73129,-0.000548475,0.00103893,0.000199557,0.00106363,-0.000573177,1.44764,0.00095905,0.0096555,1189,386,1.97834,9.7313
-28,638,1.97681,-9.76889,-0.000535511,0.000157585,8.7685e-05,0.000168506,-0.000546433,1.44688,0.000431566,0.00967832,1196,386,1.97676,9.76889
-21,638,1.9574,-9.78717,-0.000461908,-0.000173447,8.02983e-05,-0.000152601,-0.000482754,1.3168,0.000284933,0.0107422,1203,386,1.95736,9.78716
-14,638,1.95068,-9.81061,-0.00050888,-0.000490315,9.10812e-05,-0.000408044,-0.00059115,0.83618,0.00034944,0.0106697,1210,386,1.95064,9.81062
-7,638,1.95605,-9.89435,-0.00053422,-0.000838647,7.93886e-05,-0.000514761,-0.000858106,0.240374,0.000498712,0.015446,1217,386,1.95603,9.89435
0,638,1.99976,-9.89886,-0.000457529,-0.00109118,1.58288e-05,-0.000457134,-0.00109158,0.0249593,0.000632989,0.0283121,1224,386,1.99981,9.89886
7,638,1.97888,-9.91946,-0.000261267,-0.00131561,-0.000167412,-0.000235323,-0.00134155,-0.153748,0.00082716,0.0228667,1231,386,1.97883,9.91947
14,638,1.94238,-9.9032,-1.14387e-05,-0.00154475,-0.000373122,7.45375e-05,-0.00163072,-0.226471,0.00111283,0.0119134,1238,386,1.94234,9.90319
21,638,1.94055,-9.89536,0.000225378,-0.00169153,-0.000507496,0.000351445,-0.00181759,-0.243482,0.00134428,0.00928969,1245,386,1.94052,9.89537
28,638,1.93958,-9.91107,0.000660972,-0.00176914,-0.000629621,0.000814413,-0.00192258,-0.239044,0.00162281,0.00769038,1252,386,1.93955,9.91107
35,638,1.94092,-9.91699,0.000987342,-0.00168855,-0.00070743,0.00116285,-0.00186406,-0.243188,0.00176315,0.00931687,1259,386,1.94092,9.917
42,638,1.94763,-9.92432,0.00129703,-0.00143929,-0.000678215,0.00145591,-0.00159816,-0.230106,0.0017639,0.00967598,1266,386,1.94769,9.92432
49,638,1.95605,-9.92197,0.00164009,-0.000918776,-0.000502437,0.00173521,-0.00101389,-0.1871,0.00160531,0.00829638,1273,386,1.95601,9.92198
56,638,1.96033,-9.90143,0.00169697,-0.00045901,-0.000313544,0.00174164,-0.000503683,-0.141525,0.00136043,0.010343,1280,386,1.96036,9.90142
63,638,1.97583,-9.91913,0.00156515,0.000115563,-7.18087e-05,0.0015687,0.000112015,-0.0493762,0.00101053,0.0122117,1287,386,1.97587,9.91913
70,638,1.9657,-9.88983,0.001992,0.00139657,0.000736795,0.00248895,0.000899611,0.593394,0.00145527,0.0161471,1294,386,1.96571,9.88983
77,638,1.94507,-9.90088,0.00245057,0.00275369,0.00181091,0.00441937,0.000784892,0.827147,0.00272259,0.0172125,1301,386,1.94503,9.90087
84,638,1.95618,-9.87302,0.00249672,0.00377001,0.00262437,0.00583385,0.000432871,0.904394,0.00375328,0.0122616,1308,386,1.9562,9.87302
91,638,1.9585,-9.83398,0.0026435,0.00465085,0.00340082,0.00719301,0.000101338,0.928888,0.00476192,0.0128983,1315,386,1.95855,9.83397
98,638,1.96655,-9.79788,0.00262737,0.00538592,0.00405754,0.0082922,-0.000278913,0.949236,0.00562341,0.0124639,1322,386,1.96653,9.79789
105,638,1.94604,-9.77792,0.00256128,0.00576962,0.00458848,0.00902627,-0.000695365,0.953561,0.00626218,0.00914342,1329,386,1.9461,9.77791
112,638,1.92773,-9.75641,0.00252725,0.0057729,0.00499712,0.0094041,-0.00110395,0.942402,0.00666791,0.00828664,1336,386,1.92773,9.7564
119,638,1.94958,-9.71631,0.00243097,0.00553388,0.00508772,0.00930144,-0.00133659,0.93339,0.00669114,0.0104105,1343,386,1.94956,9.71631
126,638,1.9668,-9.66214,0.00227416,0.00498752,0.00479477,0.00861385,-0.00135217,0.923269,0.0062423,0.0138698,1350,386,1.96674,9.66214
133,638,1.96362,-9.60724,0.00180964,0.00411525,0.00421325,0.00733056,-0.00140567,0.918937,0.00541673,0.0141888,1357,386,1.96362,9.60724
140,638,1.94995,-9.55963,0.00132621,0.00304958,0.00343912,0.00573333,-0.00135753,0.908148,0.00434599,0.0147675,1364,386,1.94999,9.55964
147,638,1.94421,-9.51315,0.000740452,0.00204733,0.00253697,0.00401366,-0.00122588,0.911442,0.00316456,0.0167231,1371,386,1.94419,9.51314
154,638,1.95203,-9.49316,0.000131019,0.0010472,0.00159246,0.00224614,-0.00106793,0.925448,0.00195327,0.0154397,1378,386,1.95202,9.49316
161,638,1.95471,-9.46356,-0.000196748,0.000333601,0.00087801,0.000985606,-0.000848753,0.932052,0.00106005,0.0183101,1385,386,1.95476,9.46355
168,638,1.97888,-9.35004,-0.00038486,-3.40443e-06,0.00051417,0.000354272,-0.000742537,0.963003,0.000646334,0.0230479,1392,386,1.97886,9.35003
175,638,1.97461,-9.2775,-0.000599411,-0.000105883,0.000366094,8.88476e-05,-0.000794141,1.08194,0.000561392,0.018515,1399,386,1.97463,9.2775
182,638,1.93518,-9.23633,-0.000575154,0.000201858,0.000480845,0.000431533,-0.00080483,1.12519,0.000724579,0.0117167,1406,386,1.93519,9.23633
189,638,1.92041,-9.17075,-0.000535201,0.000471574,0.000692287,0.000824143,-0.000887769,1.09975,0.0009886,0.010054,1413,386,1.92036,9.17074
196,638,1.91504,-9.09116,-0.000530158,0.000571476,0.000894727,0.00107134,-0.00103002,1.06131,0.0012133,0.012972,1420,386,1.91501,9.09115
203,638,1.91113,-9.01627,-0.000560768,0.000127582,0.00101778,0.00085781,-0.001291,0.948443,0.00124899,0.0174262,1427,386,1.91112,9.01627
210,638,1.92822,-8.94241,-0.000658923,0.00022129,0.00129958,0.00115326,-0.00159089,0.948664,0.00159104,0.014286,1434,386,1.92821,8.94241
217,638,1.9165,-8.87143,-0.000936873,0.000357892,0.00132912,0.00118891,-0.00176789,1.01203,0.00171798,0.0109036,1441,386,1.91656,8.87142
224,638,1.90271,-8.77536,-0.00110847,0.000506357,0.00138983,0.00130628,-0.0019084,1.04854,0.00186682,0.00947067,1448,386,1.90271,8.77537
231,638,1.89563,-8.66373,-0.00162187,0.000781683,0.00169272,0.00165586,-0.00249605,1.09409,0.00241341,0.010769,1455,386,1.89565,8.66373
238,638,1.87585,-8.58362,-0.00246879,0.0011764,0.00188686,0.00197718,-0.00326957,1.16944,0.00305969,0.0121496,1462,386,1.87581,8.58361
245,638,1.88733,-8.48502,-0.00319807,0.00144713,0.00202742,0.00220753,-0.00395847,1.21197,0.00360747,0.0137506,1469,386,1.88735,8.48503
252,638,1.88281,-8.37161,-0.00394385,0.00189779,0.00229179,0.00268958,-0.00473564,1.23814,0.00434087,0.0149247,1476,386,1.88279,8.37161
259,638,1.89441,-8.26114,-0.00462562,0.00275457,0.00277879,0.00368384,-0.00555488,1.24807,0.00537032,0.0147991,1483,386,1.89445,8.26114
266,638,1.88452,-8.16104,-0.00530293,0.00404878,0.00343327,0.00517387,-0.00642802,1.25412,0.00671139,0.0107729,1490,386,1.88448,8.16104
273,638,1.87024,-8.0835,-0.00590571,0.00547393,0.00417648,0.00684223,-0.00727401,1.2542,0.00815129,0.0101864,1497,386,1.87021,8.08349
280,638,1.89441,-7.89743,-0.00626436,0.00686218,0.00510008,0.00861079,-0.00801297,1.2405,0.0095998,0.02094,1504,386,1.89437,7.89744
287,638,2.14294,-7.55283,-0.00638504,0.00834387,0.0062409,0.0106326,-0.00867377,1.21929,0.0111656,0.0344932,1511,386,2.14298,7.55281
294,638,2.00378,-7.71368,-0.00618792,0.01029,0.00748261,0.0131808,-0.00907863,1.20213,0.012924,0.0447791,1518,386,2.00373,7.71368
301,638,1.8728,-7.50211,0,0,0,0,0,0,0,-1,1525,386,1.87275,7.50211
308,638,1.99573,-7.23837,-0.00437074,0.0141571,0.0106297,0.0189932,-0.00920685,1.14382,0.0166049,0.0463956,1532,386,1.99571,7.23837
315,638,2.04468,-6.94678,-0.00293511,0.0151232,0.0122047,0.0212756,-0.00908755,1.10387,0.0179948,0.0426531,1539,386,2.04468,6.94679
322,638,1.96008,-6.56091,0,0,0,0,0,0,0,-1,1546,386,1.96008,6.56091
329,638,2.02319,-4.79565,0,0,0,0,0,0,0,-1,1553,386,2.02319,4.79565
336,638,2.75012,-8.26135,0,0,0,0,0,0,0,-1,1560,386,2.75016,8.26134
343,638,1.04028,-10.3387,0,0,0,0,0,0,0,-1,1567,386,1.04031,10.3387
350,638,2.3783,-11.33,0,0,0,0,0,0,0,-1,1574,386,2.37831,11.33
357,638,0.130371,-3.02618,0,0,0,0,0,0,0,-1,1581,386,0.130345,3.0262
364,638,3.78149,-6.45215,0,0,0,0,0,0,0,-1,1588,386,3.78155,6.45216
371,638,4.18604,-6.71164,0,0,0,0,0,0,0,-1,1595,386,4.18598,6.71164
378,638,4.59045,-6.97113,0,0,0,0,0,0,0,-1,1602,386,4.5904,6.97112
385,638,0,0,0,0,0,0,0,0,0,-1,1609,386,0,0
392,638,0,0,0,0,0,0,0,0,0,-1,1616,386,0,0
399,638,0,0,0,0,0,0,0,0,0,-1,1623,386,0,0
406,638,0,0,0,0,0,0,0,0,0,-1,1630,386,0,0
413,638,0,0,0,0,0,0,0,0,0,-1,1637,386,0,0
420,638,0,0,0,0,0,0,0,0,0,-1,1644,386,0,0
427,638,0,0,0,0,0,0,0,0,0,-1,1651,386,0,0
434,638,0,0,0,0,0,0,0,0,0,-1,1658,386,0,0
441,638,0,0,0,0,0,0,0,0,0,-1,1665,386,0,0
448,638,0,0,0,0,0,0,0,0,0,-1,1672,386,0,0
455,638,0,0,0,0,0,0,0,0,0,-1,1679,386,0,0
462,638,0,0,0,0,0,0,0,0,0,-1,1686,386,0,0
469,638,0,0,0,0,0,0,0,0,0,-1,1693,386,0,0
476,638,0,0,0,0,0,0,0,0,0,-1,1700,386,0,0
483,638,0,0,0,0,0,0,0,0,0,-1,1707,386,0,0
490,638,0,0,0,0,0,0,0,0,0,-1,1714,386,0,0
497,638,0,0,0,0,0,0,0,0,0,-1,1721,386,0,0
504,638,0,0,0,0,0,0,0,0,0,-1,1728,386,0,0
511,638,0,0,0,0,0,0,0,0,0,-1,1735,386,0,0
518,638,0,0,0,0,0,0,0,0,0,-1,1742,386,0,0
525,638,0,0,0,0,0,0,0,0,0,-1,1749,386,0,0
532,638,0,0,0,0,0,0,0,0,0,-1,1756,386,0,0
539,638,0,0,0,0,0,0,0,0,0,-1,1763,386,0,0
546,638,0,0,0,0,0,0,0,0,0,-1,1770,386,0,0
553,638,0,0,0,0,0,0,0,0,0,-1,1777,386,0,0
560,638,0,0,0,0,0,0,0,0,0,-1,1784,386,0,0
567,638,0,0,0,0,0,0,0,0,0,-1,1791,386,0,0
574,638,0,0,0,0,0,0,0,0,0,-1,1798,386,0,0
581,638,0,0,0,0,0,0,0,0,0,-1,1805,386,0,0
588,638,0,0,0,0,0,0,0,0,0,-1,1812,386,0,0
595,638,0,0,0,0,0,0,0,0,0,-1,1819,386,0,0
602,638,0,0,0,0,0,0,0,0,0,-1,1826,386,0,0
609,638,0,0,0,0,0,0,0,0,0,-1,1833,386,0,0
616,638,0,0,0,0,0,0,0,0,0,-1,1840,386,0,0
623,638,0,0,0,0,0,0,0,0,0,-1,1847,386,0,0
630,638,0,0,0,0,0,0,0,0,0,-1,1854,386,0,0
637,638,0,0,0,0,0,0,0,0,0,-1,1861,386,0,0
644,638,0,0,0,0,0,0,0,0,0,-1,1868,386,0,0
651,638,0,0,0,0,0,0,0,0,0,-1,1875,386,0,0
658,638,0,0,0,0,0,0,0,0,0,-1,1882,386,0,0
665,638,0,0,0,0,0,0,0,0,0,-1,1889,386,0,0
672,638,0,0,0,0,0,0,0,0,0,-1,1896,386,0,0
679,638,0,0,0,0,0,0,0,0,0,-1,1903,386,0,0
686,638,0,0,0,0,0,0,0,0,0,-1,1910,386,0,0
693,638,0,0,0,0,0,0,0,0,0,-1,1917,386,0,0
700,638,0,0,0,0,0,0,0,0,0,-1,1924,386,0,0
707,638,0,0,0,0,0,0,0,0,0,-1,1931,386,0,0
714,638,0,0,0,0,0,0,0,0,0,-1,1938,386,0,0
721,638,0,0,0,0,0,0,0,0,0,-1,1945,386,0,0
728,638,0,0,0,0,0,0,0,0,0,-1,1952,386,0,0
735,638,0,0,0,0,0,0,0,0,0,-1,1959,386,0,0
742,638,0,0,0,0,0,0,0,0,0,-1,1966,386,0,0
749,638,0,0,0,0,0,0,0,0,0,-1,1973,386,0,0
756,638,0,0,0,0,0,0,0,0,0,-1,1980,386,0,0
763,638,0,0,0,0,0,0,0,0,0,-1,1987,386,0,0
770,638,0,0,0,0,0,0,0,0,0,-1,1994,386,0,0
777,638,0,0,0,0,0,0,0,0,0,-1,2001,386,0,0
784,638,0,0,0,0,0,0,0,0,0,-1,2008,386,0,0
791,638,0,0,0,0,0,0,0,0,0,-1,2015,386,0,0
798,638,0,0,0,0,0,0,0,0,0,-1,2022,386,0,0
805,638,0,0,0,0,0,0,0,0,0,-1,2029,386,0,0
812,638,0,0,0,0,0,0,0,0,0,-1,2036,386,0,0
-700,631,0,0,0,0,0,0,0,0,0,-1,524,393,0,0
-693,631,0,0,0,0,0,0,0,0,0,-1,531,393,0,0
-686,631,0,0,0,0,0,0,0,0,0,-1,538,393,0,0
-679,631,0,0,0,0,0,0,0,0,0,-1,545,393,0,0
-672,631,0,0,0,0,0,0,0,0,0,-1,552,393,0,0
-665,631,0,0,0,0,0,0,0,0,0,-1,559,393,0,0
-658,631,0,0,0,0,0,0,0,0,0,-1,566,393,0,0
-651,631,0,0,0,0,0,0,0,0,0,-1,573,393,0,0
-644,631,0,0,0,0,0,0,0,0,0,-1,580,393,0,0
-637,631,0,0,0,0,0,0,0,0,0,-1,587,393,0,0
-630,631,0,0,0,0,0,0,0,0,0,-1,594,393,0,0
-623,631,0,0,0,0,0,0,0,0,0,-1,601,393,0,0
-616,631,0,0,0,0,0,0,0,0,0,-1,608,393,0,0
-609,631,0,0,0,0,0,0,0,0,0,-1,615,393,0,0
-602,631,0,0,0,0,0,0,0,0,0,-1,622,393,0,0
-595,631,0,0,0,0,0,0,0,0,0,-1,629,393,0,0
-588,631,0,0,0,0,0,0,0,0,0,-1,636,393,0,0
-581,631,0,0,0,0,0,0,0,0,0,-1,643,393,0,0
-574,631,0,0,0,0,0,0,0,0,0,-1,650,393,0,0
-567,631,0,0,0,0,0,0,0,0,0,-1,657,393,0,0
-560,631,0,0,0,0,0,0,0,0,0,-1,664,393,0,0
-553,631,0,0,0,0,0,0,0,0,0,-1,671,393,0,0
-546,631,0,0,0,0,0,0,0,0,0,-1,678,393,0,0
-539,631,0,0,0,0,0,0,0,0,0,-1,685,393,0,0
-532,631,0,0,0,0,0,0,0,0,0,-1,692,393,0,0
-525,631,0,0,0,0,0,0,0,0,0,-1,699,393,0,0
-518,631,0,0,0,0,0,0,0,0,0,-1,706,393,0,0
-511,631,0,0,0,0,0,0,0,0,0,-1,713,393,0,0
-504,631,0,0,0,0,0,0,0,0,0,-1,720,393,0,0
-497,631,0,0,0,0,0,0,0,0,0,-1,727,393,0,0
-490,631,0,0,0,0,0,0,0,0,0,-1,734,393,0,0
-483,631,0,0,0,0,0,0,0,0,0,-1,741,393,0,0
-476,631,0,0,0,0,0,0,0,0,0,-1,748,393,0,0
-469,631,0,0,0,0,0,0,0,0,0,-1,755,393,0,0
-462,631,0,0,0,0,0,0,0,0,0,-1,762,393,0,0
-455,631,0,0,0,0,0,0,0,0,0,-1,769,393,0,0
-448,631,0,0,0,0,0,0,0,0,0,-1,776,393,0,0
-441,631,0,0,0,0,0,0,0,0,0,-1,783,393,0,0
-434,631,0,0,0,0,0,0,0,0,0,-1,790,393,0,0
-427,631,0,0,0,0,0,0,0,0,0,-1,797,393,0,0
-420,631,0,0,0,0,0,0,0,0,0,-1,804,393,0,0
-413,631,0,0,0,0,0,0,0,0,0,-1,811,393,0,0
-406,631,0,0,0,0,0,0,0,0,0,-1,818,393,0,0
-399,631,0,0,0,0,0,0,0,0,0,-1,825,393,0,0
-392,631,0,0,0,0,0,0,0,0,0,-1,832,393,0,0
-385,631,0,0,0,0,0,0,0,0,0,-1,839,393,0,0
-378,631,0,0,0,0,0,0,0,0,0,-1,846,393,0,0
-371,631,0,0,0,0,0,0,0,0,0,-1,853,393,0,0
-364,631,0,0,0,0,0,0,0,0,0,-1,860,393,0,0
-357,631,0,0,0,0,0,0,0,0,0,-1,867,393,0,0
-350,631,0,0,0,0,0,0,0,0,0,-1,874,393,0,0
-343,631,0,0,0,0,0,0,0,0,0,-1,881,393,0,0
-336,631,0,0,0,0,0,0,0,0,0,-1,888,393,0,0
-329,631,0,0,0,0,0,0,0,0,0,-1,895,393,0,0
-322,631,0,0,0,0,0,0,0,0,0,-1,902,393,0,0
-315,631,0,0,0,0,0,0,0,0,0,-1,909,393,0,0
-308,631,0,0,0,0,0,0,0,0,0,-1,916,393,0,0
-301,631,0,0,0,0,0,0,0,0,0,-1,923,393,0,0
-294,631,0,0,0,0,0,0,0,0,0,-1,930,393,0,0
-287,631,0,0,0,0,0,0,0,0,0,-1,937,393,0,0
-280,631,1.12305,-12.4633,0,0,0,0,0,0,0,-1,944,393,1.12305,12.4633
-273,631,2.26263,-7.24976,0,0,0,0,0,0,0,-1,951,393,2.26261,7.24974
-266,631,4.86389,-5.45331,0,0,0,0,0,0,0,-1,958,393,4.86386,5.4533
-259,631,1.00366,-7.67264,0,0,0,0,0,0,0,-1,965,393,1.00368,7.67264
-252,631,1.211,-7.45691,0,0,0,0,0,0,0,-1,972,393,1.211,7.45692
-245,631,1.41357,-7.72195,0,0,0,0,0,0,0,-1,979,393,1.41358,7.72195
-238,631,1.61615,-7.987,0,0,0,0,0,0,0,-1,986,393,1.61616,7.98699
-231,631,0.917847,-6.79459,0,0,0,0,0,0,0,-1,993,393,0.917823,6.79459
-224,631,2.19391,-7.561,0,0,0,0,0,0,0,-1,1000,393,2.19391,7.561
-217,631,2.77722,-7.90506,0,0,0,0,0,0,0,-1,1007,393,2.77721,7.90506
-210,631,2.19165,-7.66144,0,0,0,0,0,0,0,-1,1014,393,2.19164,7.66145
-203,631,2.05511,-7.82571,0,0,0,0,0,0,0,-1,1021,393,2.05511,7.82573
-196,631,2.22681,-7.8299,0.00395626,-0.00387832,-0.00297438,0.00495752,-0.00487957,-0.324711,0.00567951,0.0476037,1028,393,2.22679,7.8299
-189,631,2.00171,-7.9007,0.00516351,-0.00682874,-0.00375558,0.00624255,-0.00790778,-0.279779,0.00818853,0.0442405,1035,393,2.00165,7.90069
-182,631,2.14966,-8.5029,0.00645564,-0.00814711,-0.00372797,0.0073523,-0.00904377,-0.23604,0.00948305,0.0414201,1042,393,2.1497,8.5029
-175,631,2.38892,-8.46436,0,0,0,0,0,0,0,-1,1049,393,2.38888,8.46436
-168,631,2.04126,-8.42975,0.00714479,-0.00871615,-0.00297462,0.00768431,-0.00925567,-0.179424,0.00979432,0.018976,1056,393,2.0412,8.42976
-161,631,2.00183,-8.52396,0.00676204,-0.00790102,-0.00257217,0.00720016,-0.00833914,-0.16871,0.00897965,0.00909843,1063,393,2.00185,8.52395
-154,631,2.005,-8.61893,0.00600153,-0.00659382,-0.00201009,0.00631454,-0.00690683,-0.154479,0.00763592,0.00856875,1070,393,2.00501,8.61892
-147,631,2.00867,-8.71027,0.00515371,-0.00471499,-0.00145847,0.00536474,-0.00492602,-0.143696,0.00594317,0.0096846,1077,393,2.00867,8.71027
-140,631,2.0022,-8.81177,0.00447037,-0.00285541,-0.000961339,0.00459442,-0.00297946,-0.128333,0.00440579,0.00955547,1084,393,2.0022,8.81178
-133,631,1.99023,-8.89731,0.00355826,-0.000831942,-0.000370154,0.00358925,-0.000862932,-0.0835279,0.00272638,0.008236,1091,393,1.99021,8.89731
-126,631,1.98352,-8.96088,0.00273727,0.00123871,8.06959e-05,0.0027416,0.00123438,0.0536421,0.00158548,0.0121894,1098,393,1.98349,8.96087
-119,631,1.98083,-9.02512,0.00223289,0.0029155,0.000331684,0.00305012,0.00209827,1.18525,0.00180198,0.0148848,1105,393,1.9808,9.02511
-112,631,1.9657,-9.10852,0.00161496,0.0046478,0.000577468,0.00475403,0.00150873,1.38887,0.00280512,0.012867,1112,393,1.96568,9.10851
-105,631,1.96191,-9.19568,0.00120073,0.00592078,0.000716986,0.00602729,0.00109422,1.42332,0.00370767,0.0160097,1119,393,1.96193,9.19569
-98,631,1.95203,-9.26572,0.00120722,0.00649278,0.000689956,0.00658136,0.00111864,1.44311,0.00406631,0.0147993,1126,393,1.95209,9.26571
-91,631,1.93982,-9.33932,0.0011998,0.00675728,0.000632645,0.00682839,0.00112869,1.45887,0.00422657,0.0167233,1133,393,1.9398,9.33932
-84,631,1.93713,-9.39725,0.00108172,0.00664394,0.000530522,0.00669409,0.00103157,1.47655,0.00416171,0.015644,1140,393,1.93715,9.39725
-77,631,1.92468,-9.44019,0.000811306,0.0060988,0.000442208,0.00613552,0.000774578,1.48793,0.00385816,0.0102931,1147,393,1.92466,9.44018
-70,631,1.93652,-9.4816,0.000613459,0.00537217,0.000348149,0.00539751,0.000588123,1.49815,0.0034192,0.0109096,1154,393,1.93655,9.48161
-63,631,1.9447,-9.5405,0.000510434,0.00450037,0.000251544,0.00451617,0.000494638,1.50808,0.00286019,0.0105113,1161,393,1.94466,9.54049
-56,631,1.9375,-9.61066,0.000477738,0.00358749,0.000195714,0.00359976,0.000465469,1.50819,0.00226072,0.010986,1168,393,1.93756,9.61066
-49,631,1.91394,-9.65918,0.000395908,0.00272034,0.00024955,0.00274683,0.000369419,1.46504,0.00172135,0.00944933,1175,393,1.914,9.65917
-42,631,1.9187,-9.69501,0.000176882,0.00179618,0.000260023,0.00183691,0.000136152,1.41542,0.00118184,0.0080575,1182,393,1.91872,9.695
-35,631,1.94153,-9.72049,-1.00892e-05,0.00111334,0.000252618,0.00116753,-6.42795e-05,1.35948,0.000800642,0.00878631,1189,393,1.9415,9.72049
-28,631,1.93799,-9.75583,4.72273e-05,0.000448376,0.000258271,0.00057481,-7.92061e-05,1.11555,0.000412153,0.0118247,1196,393,1.93803,9.75583
-21,631,1.92163,-9.78998,0.000239237,-9.44133e-05,5.7783e-05,0.000248961,-0.000104137,0.166718,0.000209499,0.0108514,1203,393,1.92166,9.78999
-14,631,1.90137,-9.83749,0.0002463,-0.000762155,-5.88208e-05,0.000249719,-0.000765575,-0.0580652,0.00061088,0.0127508,1210,393,1.90132,9.83749
-7,631,1.92065,-9.91995,0.000266165,-0.00140517,-0.00023236,0.000297868,-0.00143687,-0.135602,0.0010711,0.0186916,1217,393,1.92062,9.91994
0,631,1.95056,-9.91238,0.000508444,-0.00195579,-0.000510122,0.00060987,-0.00205721,-0.196267,0.00161365,0.0193566,1224,393,1.95057,9.91238
7,631,1.93713,-9.8847,0.000855116,-0.00245399,-0.00092056,0.00109397,-0.00269284,-0.253864,0.00225034,0.0162552,1231,393,1.93712,9.8847
14,631,1.91541,-9.91019,0.00112267,-0.00289886,-0.00130758,0.00151043,-0.00328662,-0.288289,0.00283216,0.00939308,1238,393,1.91543,9.91019
21,631,1.93591,-9.91095,0.00133446,-0.00327382,-0.00161751,0.00184553,-0.00378489,-0.306035,0.00331438,0.0109036,1245,393,1.93596,9.91095
28,631,1.93323,-9.89746,0.00153056,-0.00354619,-0.00192873,0.00218019,-0.00419582,-0.324881,0.003742,0.0124617,1252,393,1.93322,9.89747
35,631,1.93237,-9.90851,0.00162118,-0.00360746,-0.00218891,0.00241656,-0.00440284,-0.348531,0.00399246,0.0118525,1259,393,1.93243,9.90849
42,631,1.94885,-9.9176,0.001666,-0.00341524,-0.00229541,0.00254937,-0.00429861,-0.367369,0.00399644,0.0110144,1266,393,1.94881,9.91759
49,631,1.95349,-9.91681,0.00165144,-0.00288954,-0.00223265,0.00256526,-0.00380336,-0.388498,0.00370001,0.0102714,1273,393,1.95352,9.91682
56,631,1.96387,-9.91302,0.00135903,-0.00239147,-0.00212975,0.00232145,-0.0033539,-0.424429,0.00329469,0.0113214,1280,393,1.96383,9.91301
63,631,1.97876,-9.9162,0.000941924,-0.00174577,-0.00194088,0.00195878,-0.00276263,-0.482598,0.00273905,0.0127925,1287,393,1.97881,9.91619
70,631,1.97705,-9.88876,0.00131888,-1.00668e-05,-0.000888773,0.00176411,-0.000455298,-0.464407,0.00135361,0.0133979,1294,393,1.97705,9.88877
77,631,1.95459,-9.88913,0.00189916,0.00234741,0.000561575,0.00272793,0.00151864,0.975265,0.00157834,0.0139398,1301,393,1.95457,9.88912
84,631,1.96289,-9.88666,0.00198246,0.00441904,0.00152205,0.00515033,0.00125117,1.1229,0.00310179,0.0117401,1308,393,1.96291,9.88667
91,631,1.97485,-9.84711,0.00238114,0.00622153,0.0025288,0.00747655,0.00112612,1.11012,0.00465463,0.013893,1315,393,1.97491,9.84711
98,631,1.98254,-9.80975,0.00273144,0.00784459,0.00350021,0.00962248,0.000953549,1.10082,0.00612194,0.0123083,1322,393,1.98249,9.80976
105,631,1.9635,-9.79129,0.00305647,0.009178,0.00442601,0.0114985,0.00073599,1.08791,0.00743248,0.0101906,1329,393,1.96347,9.79129
112,631,1.96997,-9.75815,0.00349288,0.010012,0.00519237,0.0128832,0.000621755,1.06569,0.00838921,0.0103194,1336,393,1.96993,9.75816
119,631,1.98474,-9.71692,0.00393514,0.0104151,0.00559308,0.0136388,0.000711363,1.04792,0.00886496,0.0112163,1343,393,1.98471,9.71691
126,631,2.00684,-9.64917,0.00421769,0.0103,0.0056028,0.0136338,0.000883906,1.03405,0.00880937,0.0156966,1350,393,2.00685,9.64917
133,631,2.01636,-9.59274,0.00421986,0.00950212,0.00529034,0.012774,0.000948015,1.01692,0.00821822,0.0158186,1357,393,2.01633,9.59274
140,631,2.00818,-9.55695,0.00392542,0.00809489,0.00467329,0.0111274,0.000892955,0.995199,0.00713922,0.0171628,1364,393,2.0082,9.55693
147,631,1.9978,-9.52271,0.00335207,0.00639293,0.00380795,0.00897276,0.000772236,0.97534,0.00574177,0.0217111,1371,393,1.99782,9.5227
154,631,1.97595,-9.45276,0.00268583,0.00449527,0.00282577,0.00655762,0.00062348,0.940326,0.00417945,0.0198881,1378,393,1.97593,9.45275
161,631,1.99353,-9.40186,0.00211968,0.0028648,0.00196768,0.00449488,0.000489593,0.878961,0.00284745,0.0223285,1385,393,1.99348,9.40185
168,631,2.04773,-9.31516,0.0015187,0.00156099,0.00135459,0.0028946,0.000185094,0.793203,0.00187109,0.0277604,1392,393,2.04772,9.31517
175,631,2.0387,-9.27109,0.000595768,0.000150336,0.000542733,0.000959705,-0.000213601,0.590695,0.00072162,0.0207855,1399,393,2.03872,9.27109
182,631,2.00439,-9.23611,1.34565e-05,-0.000592139,9.17318e-05,2.70465e-05,-0.000605729,0.147079,0.00041313,0.0106505,1406,393,2.00442,9.23611
189,631,2.0105,-9.15836,1.13987e-05,-0.000500336,0.000374267,0.000208901,-0.000697838,0.485564,0.000548289,0.0102308,1413,393,2.01054,9.15836
196,631,2.00781,-9.09283,-3.49078e-05,-0.000240913,0.000502749,0.000375282,-0.000651103,0.684357,0.000599673,0.0111369,1420,393,2.00785,9.09284
203,631,2.01416,-9.02469,-9.81657e-05,-0.000302697,0.000587542,0.000395944,-0.000796806,0.699233,0.000701479,0.0119726,1427,393,2.01417,9.02468
210,631,2.01196,-8.94983,-0.000245743,-7.8601e-05,0.000770571,0.000612917,-0.000937261,0.839414,0.000901503,0.014044,1434,393,2.01202,8.94982
217,631,2.00208,-8.88049,-0.000512852,0.000148503,0.000858785,0.000738075,-0.00110242,0.969176,0.00106953,0.0158884,1441,393,2.00209,8.8805
224,631,1.98633,-8.77692,-0.000661381,0.000348423,0.000969142,0.000936298,-0.00124926,1.02554,0.00126614,0.0120862,1448,393,1.98633,8.77691
231,631,1.97937,-8.65802,-0.000995815,0.000638396,0.00125119,0.00131566,-0.00167308,1.07466,0.00172966,0.0107251,1455,393,1.97934,8.65801
238,631,1.96558,-8.56476,-0.00154903,0.00106444,0.00145644,0.00171443,-0.00219902,1.15103,0.0022652,0.016798,1462,393,1.96553,8.56474
245,631,1.98193,-8.47931,-0.00203515,0.00137544,0.00161969,0.00202205,-0.00268175,1.19097,0.00272463,0.0177459,1469,393,1.98191,8.4793
252,631,1.95691,-8.39072,-0.00252518,0.00181569,0.00185808,0.0025024,-0.00321189,1.21679,0.00330761,0.0161744,1476,393,1.95693,8.39071
259,631,1.95667,-8.28778,-0.00297415,0.00253739,0.00225773,0.00334415,-0.00378091,1.2276,0.00411623,0.0123154,1483,393,1.95665,8.28779
266,631,1.979,-8.18069,-0.00341369,0.00357581,0.00277802,0.00454544,-0.00438332,1.23498,0.00515531,0.0115483,1490,393,1.97902,8.18069
273,631,1.9751,-8.06168,-0.00378672,0.00472412,0.00335304,0.0058864,-0.00494901,1.23712,0.00626362,0.0138839,1497,393,1.97509,8.06167
280,631,1.9458,-7.97278,-0.0039446,0.00576249,0.00407657,0.00724735,-0.00542946,1.22149,0.007344,0.0133951,1504,393,1.94575,7.97279
287,631,1.96802,-7.84677,-0.00391521,0.00684058,0.00496939,0.00878502,-0.00585965,1.19783,0.00851115,0.0144959,1511,393,1.96807,7.84676
294,631,1.97607,-7.69443,-0.00371234,0.00825672,0.00590457,0.0106792,-0.00613486,1.18146,0.0098251,0.0175935,1518,393,1.97604,7.69442
301,631,1.94177,-7.51678,-0.00314868,0.00963375,0.00695706,0.0126897,-0.0062046,1.15691,0.0111207,0.0260349,1525,393,1.94179,7.51678
308,631,2.01501,-7.36813,-0.00227971,0.0108211,0.00819769,0.014764,-0.00622264,1.12248,0.0124466,0.0329484,1532,393,2.015,7.36813
315,631,2.06653,-7.241,-0.00120896,0.011386,0.00936239,0.0163718,-0.00619476,1.08146,0.0134632,0.0355634,1539,393,2.06651,7.24101
322,631,1.98901,-6.88388,0.000263227,0.0115773,0.0106204,0.0179534,-0.00611287,1.03011,0.0144443,0.0405301,1546,393,1.989,6.88389
329,631,1.94019,-6.52563,0,0,0,0,0,0,0,-1,1553,393,1.94015,6.52563
336,631,2.49524,-7.20151,0,0,0,0,0,0,0,-1,1560,393,2.49528,7.2015
343,631,2.39612,-6.96481,0,0,0,0,0,0,0,-1,1567,393,2.39608,6.96482
350,631,2.1344,-9.23401,0,0,0,0,0,0,0,-1,1574,393,2.13439,9.23401
357,631,2.6449,-9.60303,0,0,0,0,0,0,0,-1,1581,393,2.64491,9.60304
364,631,3.39136,-5.7594,0,0,0,0,0,0,0,-1,1588,393,3.39137,5.75939
371,631,3.72839,-6.0574,0,0,0,0,0,0,0,-1,1595,393,3.72845,6.05742
378,631,4.06555,-6.35544,0,0,0,0,0,0,0,-1,1602,393,4.06553,6.35544
385,631,3.90442,-3.58298,0,0,0,0,0,0,0,-1,1609,393,3.90437,3.58299
392,631,0.352295,-2.21301,0,0,0,0,0,0,0,-1,1616,393,0.352345,2.213
399,631,0,0,0,0,0,0,0,0,0,-1,1623,393,0,0
406,631,0,0,0,0,0,0,0,0,0,-1,1630,393,0,0
413,631,0,0,0,0,0,0,0,0,0,-1,1637,393,0,0
420,631,0,0,0,0,0,0,0,0,0,-1,1644,393,0,0
427,631,0,0,0,0,0,0,0,0,0,-1,1651,393,0,0
434,631,0,0,0,0,0,0,0,0,0,-1,1658,393,0,0
441,631,0,0,0,0,0,0,0,0,0,-1,1665,393,0,0
448,631,0,0,0,0,0,0,0,0,0,-1,1672,393,0,0
455,631,0,0,0,0,0,0,0,0,0,-1,1679,393,0,0
462,631,0,0,0,0,0,0,0,0,0,-1,1686,393,0,0
469,631,0,0,0,0,0,0,0,0,0,-1,1693,393,0,0
476,631,0,0,0,0,0,0,0,0,0,-1,1700,393,0,0
483,631,0,0,0,0,0,0,0,0,0,-1,1707,393,0,0
490,631,0,0,0,0,0,0,0,0,0,-1,1714,393,0,0
497,631,0,0,0,0,0,0,0,0,0,-1,1721,393,0,0
504,631,0,0,0,0,0,0,0,0,0,-1,1728,393,0,0
511,631,0,0,0,0,0,0,0,0,0,-1,1735,393,0,0
518,631,0,0,0,0,0,0,0,0,0,-1,1742,393,0,0
525,631,0,0,0,0,0,0,0,0,0,-1,1749,393,0,0
532,631,0,0,0,0,0,0,0,0,0,-1,1756,393,0,0
539,631,0,0,0,0,0,0,0,0,0,-1,1763,393,0,0
546,631,0,0,0,0,0,0,0,0,0,-1,1770,393,0,0
553,631,0,0,0,0,0,0,0,0,0,-1,1777,393,0,0
560,631,0,0,0,0,0,0,0,0,0,-1,1784,393,0,0
567,631,0,0,0,0,0,0,0,0,0,-1,1791,393,0,0
574,631,0,0,0,0,0,0,0,0,0,-1,1798,393,0,0
581,631,0,0,0,0,0,0,0,0,0,-1,1805,393,0,0
588,631,0,0,0,0,0,0,0,0,0,-1,1812,393,0,0
595,631,0,0,0,0,0,0,0,0,0,-1,1819,393,0,0
602,631,0,0,0,0,0,0,0,0,0,-1,1826,393,0,0
609,631,0,0,0,0,0,0,0,0,0,-1,1833,393,0,0
616,631,0,0,0,0,0,0,0,0,0,-1,1840,393,0,0
623,631,0,0,0,0,0,0,0,0,0,-1,1847,393,0,0
630,631,0,0,0,0,0,0,0,0,0,-1,1854,393,0,0
637,631,0,0,0,0,0,0,0,0,0,-1,1861,393,0,0
644,631,0,0,0,0,0,0,0,0,0,-1,1868,393,0,0
651,631,0,0,0,0,0,0,0,0,0,-1,1875,393,0,0
658,631,0,0,0,0,0,0,0,0,0,-1,1882,393,0,0
665,631,0,0,0,0,0,0,0,0,0,-1,1889,393,0,0
672,631,0,0,0,0,0,0,0,0,0,-1,1896,393,0,0
679,631,0,0,0,0,0,0,0,0,0,-1,1903,393,0,0
686,631,0,0,0,0,0,0,0,0,0,-1,1910,393,0,0
693,631,0,0,0,0,0,0,0,0,0,-1,1917,393,0,0
700,631,0,0,0,0,0,0,0,0,0,-1,1924,393,0,0
707,631,0,0,0,0,0,0,0,0,0,-1,1931,393,0,0
714,631,0,0,0,0,0,0,0,0,0,-1,1938,393,0,0
721,631,0,0,0,0,0,0,0,0,0,-1,1945,393,0,0
728,631,0,0,0,0,0,0,0,0,0,-1,1952,393,0,0
735,631,0,0,0,0,0,0,0,0,0,-1,1959,393,0,0
742,631,0,0,0,0,0,0,0,0,0,-1,1966,393,0,0
749,631,0,0,0,0,0,0,0,0,0,-1,1973,393,0,0
756,631,0,0,0,0,0,0,0,0,0,-1,1980,393,0,0
763,631,0,0,0,0,0,0,0,0,0,-1,1987,393,0,0
770,631,0,0,0,0,0,0,0,0,0,-1,1994,393,0,0
777,631,0,0,0,0,0,0,0,0,0,-1,2001,393,0,0
784,631,0,0,0,0,0,0,0,0,0,-1,2008,393,0,0
791,631,0,0,0,0,0,0,0,0,0,-1,2015,393,0,0
798,631,0,0,0,0,0,0,0,0,0,-1,2022,393,0,0
805,631,0,0,0,0,0,0,0,0,0,-1,2029,393,0,0
812,631,0,0,0,0,0,0,0,0,0,-1,2036,393,0,0
-700,624,0,0,0,0,0,0,0,0,0,-1,524,400,0,0
-693,624,0,0,0,0,0,0,0,0,0,-1,531,400,0,0
-686,624,0,0,0,0,0,0,0,0,0,-1,538,400,0,0
-679,624,0,0,0,0,0,0,0,0,0,-1,545,400,0,0
-672,624,0,0,0,0,0,0,0,0,0,-1,552,400,0,0
-665,624,0,0,0,0,0,0,0,0,0,-1,559,400,0,0
-658,624,0,0,0,0,0,0,0,0,0,-1,566,400,0,0
-651,624,0,0,0,0,0,0,0,0,0,-1,573,400,0,0
-644,624,0,0,0,0,0,0,0,0,0,-1,580,400,0,0
-637,624,0,0,0,0,0,0,0,0,0,-1,587,400,0,0
-630,624,0,0,0,0,0,0,0,0,0,-1,594,400,0,0
-623,624,0,0,0,0,0,0,0,0,0,-1,601,400,0,0
-616,624,0,0,0,0,0,0,0,0,0,-1,608,400,0,0
-609,624,0,0,0,0,0,0,0,0,0,-1,615,400,0,0
-602,624,0,0,0,0,0,0,0,0,0,-1,622,400,0,0
-595,624,0,0,0,0,0,0,0,0,0,-1,629,400,0,0
-588,624,0,0,0,0,0,0,0,0,0,-1,636,400,0,0
-581,624,0,0,0,0,0,0,0,0,0,-1,643,400,0,0
-574,624,0,0,0,0,0,0,0,0,0,-1,650,400,0,0
-567,624,0,0,0,0,0,0,0,0,0,-1,657,400,0,0
-560,624,0,0,0,0,0,0,0,0,0,-1,664,400,0,0
-553,624,0,0,0,0,0,0,0,0,0,-1,671,400,0,0
-546,624,0,0,0,0,0,0,0,0,0,-1,678,400,0,0
-539,624,0,0,0,0,0,0,0,0,0,-1,685,400,0,0
-532,624,0,0,0,0,0,0,0,0,0,-1,692,400,0,0
-525,624,0,0,0,0,0,0,0,0,0,-1,699,400,0,0
-518,624,0,0,0,0,0,0,0,0,0,-1,706,400,0,0
-511,624,0,0,0,0,0,0,0,0,0,-1,713,400,0,0
-504,624,0,0,0,0,0,0,0,0,0,-1,720,400,0,0
-497,624,0,0,0,0,0,0,0,0,0,-1,727,400,0,0
-490,624,0,0,0,0,0,0,0,0,0,-1,734,400,0,0
-483,624,0,0,0,0,0,0,0,0,0,-1,741,400,0,0
-476,624,0,0,0,0,0,0,0,0,0,-1,748,400,0,0
-469,624,0,0,0,0,0,0,0,0,0,-1,755,400,0,0
-462,624,0,0,0,0,0,0,0,0,0,-1,762,400,0,0
-455,624,0,0,0,0,0,0,0,0,0,-1,769,400,0,0
-448,624,0,0,0,0,0,0,0,0,0,-1,776,400,0,0
-441,624,0,0,0,0,0,0,0,0,0,-1,783,400,0,0
-434,624,0,0,0,0,0,0,0,0,0,-1,790,400,0,0
-427,624,0,0,0,0,0,0,0,0,0,-1,797,400,0,0
-420,624,0,0,0,0,0,0,0,0,0,-1,804,400,0,0
-413,624,0,0,0,0,0,0,0,0,0,-1,811,400,0,0
-406,624,0,0,0,0,0,0,0,0,0,-1,818,400,0,0
-399,624,0,0,0,0,0,0,0,0,0,-1,825,400,0,0
-392,624,0,0,0,0,0,0,0,0,0,-1,832,400,0,0
-385,624,0,0,0,0,0,0,0,0,0,-1,839,400,0,0
-378,624,0,0,0,0,0,0,0,0,0,-1,846,400,0,0
-371,624,0,0,0,0,0,0,0,0,0,-1,853,400,0,0
-364,624,0,0,0,0,0,0,0,0,0,-1,860,400,0,0
-357,624,0,0,0,0,0,0,0,0,0,-1,867,400,0,0
-350,624,0,0,0,0,0,0,0,0,0,-1,874,400,0,0
-343,624,0,0,0,0,0,0,0,0,0,-1,881,400,0,0
-336,624,0,0,0,0,0,0,0,0,0,-1,888,400,0,0
-329,624,0,0,0,0,0,0,0,0,0,-1,895,400,0,0
-322,624,0,0,0,0,0,0,0,0,0,-1,902,400,0,0
-315,624,0,0,0,0,0,0,0,0,0,-1,909,400,0,0
-308,624,0,0,0,0,0,0,0,0,0,-1,916,400,0,0
-301,624,0,0,0,0,0,0,0,0,0,-1,923,400,0,0
-294,624,1.59058,-11.9451,0,0,0,0,0,0,0,-1,930,400,1.59057,11.9451
-287,624,1.05115,-11.63,0,0,0,0,0,0,0,-1,937,400,1.05116,11.63
-280,624,0.533264,-11.3326,0,0,0,0,0,0,0,-1,944,400,0.533236,11.3326
-273,624,0.486511,-10.8438,0,0,0,0,0,0,0,-1,951,400,0.486522,10.8438
-266,624,0.908997,-7.1413,0,0,0,0,0,0,0,-1,958,400,0.908985,7.1413
-259,624,2.46411,-6.14209,0,0,0,0,0,0,0,-1,965,400,2.46409,6.1421
-252,624,2.33142,-6.4119,0,0,0,0,0,0,0,-1,972,400,2.3314,6.41188
-245,624,2.78979,-6.29794,0,0,0,0,0,0,0,-1,979,400,2.7898,6.29796
-238,624,1.62433,-8.07269,0,0,0,0,0,0,0,-1,986,400,1.62434,8.07269
-231,624,2.10284,-7.10873,0,0,0,0,0,0,0,-1,993,400,2.10285,7.10875
-224,624,2.16412,-7.27347,0,0,0,0,0,0,0,-1,1000,400,2.1641,7.27346
-217,624,2.32996,-7.65015,-0.00217859,0.0147357,0.00419104,0.0157172,-0.0031601,1.34075,0.011675,0.0482575,1007,400,2.32994,7.65014
-210,624,2.04639,-7.71289,-0.000157765,0.00830157,0.00167071,0.00861958,-0.000475773,1.3827,0.00591136,0.0468371,1014,400,2.04641,7.71288
-203,624,1.97314,-7.84894,0.000579968,0.00441464,0.000210732,0.00442619,0.000568422,1.51606,0.00278075,0.0407557,1021,400,1.97314,7.84895
-196,624,2.0238,-7.98389,0.000975288,-0.000136285,-0.00183762,0.00233933,-0.00150033,-0.638547,0.0022344,0.0347139,1028,400,2.02375,7.98388
-189,624,1.92529,-8.039,0.00188754,-0.00259957,-0.00258095,0.00306376,-0.00377579,-0.427609,0.00395594,0.0318896,1035,400,1.92524,8.03901
-182,624,1.94043,-8.19775,0.00296557,-0.00385371,-0.00263437,0.0038647,-0.00475284,-0.328912,0.00498414,0.0286908,1042,400,1.94047,8.19775
-175,624,1.99719,-8.32553,0.00367368,-0.00454155,-0.00237177,0.00430925,-0.00517712,-0.261821,0.00548459,0.0192474,1049,400,1.99724,8.32554
-168,624,1.96826,-8.43945,0.00388464,-0.00482165,-0.00211132,0.00436963,-0.00530664,-0.225792,0.00559532,0.0120655,1056,400,1.96823,8.43946
-161,624,1.92737,-8.53748,0.00387623,-0.00453894,-0.00187854,0.00427654,-0.00493925,-0.209956,0.00532532,0.00965053,1063,400,1.92738,8.53747
-154,624,1.92615,-8.62323,0.00357299,-0.00393141,-0.0015048,0.00386349,-0.00422191,-0.190703,0.00466963,0.00940154,1070,400,1.92613,8.62324
-147,624,1.91199,-8.71616,0.00312666,-0.00291605,-0.00111681,0.00332646,-0.00311585,-0.177031,0.00372013,0.0103279,1077,400,1.91197,8.71615
-140,624,1.89673,-8.82025,0.0027763,-0.00184823,-0.000780887,0.0029046,-0.00197653,-0.162845,0.00283505,0.00962506,1084,400,1.89669,8.82026
-133,624,1.90002,-8.90643,0.00222765,-0.00059004,-0.000357455,0.00227229,-0.00063468,-0.124239,0.00176488,0.0108318,1091,400,1.89997,8.90644
-126,624,1.90869,-8.9765,0.00166689,0.000831277,-3.09812e-05,0.00166803,0.00083013,-0.0370085,0.000963043,0.0120809,1098,400,1.90866,8.9765
-119,624,1.89697,-9.04547,0.00133561,0.00201353,0.00014088,0.00204164,0.00130749,1.37385,0.00119413,0.0135541,1105,400,1.89695,9.04548
-112,624,1.87048,-9.11169,0.000948611,0.00326407,0.000308575,0.00330449,0.000908193,1.44056,0.00197128,0.0145253,1112,400,1.8705,9.11171
-105,624,1.86902,-9.19525,0.000686888,0.00421239,0.000401807,0.0042576,0.000641673,1.45874,0.00265053,0.0117816,1119,400,1.86903,9.19525
-98,624,1.87793,-9.27655,0.000685129,0.00472354,0.0003736,0.00475781,0.000650857,1.47932,0.00297872,0.0141997,1126,400,1.87796,9.27654
-91,624,1.87756,-9.3508,0.000697339,0.0050007,0.000319375,0.00502427,0.000673766,1.49712,0.00314904,0.0189668,1133,400,1.87754,9.35079
-84,624,1.88794,-9.40628,0.000650016,0.00497135,0.000254292,0.00498626,0.000635103,1.51222,0.003134,0.0163969,1140,400,1.88798,9.40627
-77,624,1.8905,-9.45752,0.000499744,0.00463186,0.000201337,0.00464165,0.000489957,1.52222,0.00294473,0.0122448,1147,400,1.8905,9.45752
-70,624,1.8844,-9.51205,0.000424736,0.00415412,0.000164343,0.00416135,0.000417508,1.52684,0.00264606,0.0128595,1154,400,1.88443,9.51205
-63,624,1.9021,-9.55246,0.000424474,0.00355504,0.000146776,0.0035619,0.000417608,1.52405,0.00224836,0.0119813,1161,400,1.90208,9.55247
-56,624,1.89783,-9.60629,0.000472483,0.00291278,0.000155281,0.00292262,0.000462641,1.5075,0.00181397,0.009958,1168,400,1.89778,9.6063
-49,624,1.88281,-9.66513,0.000534964,0.0024183,0.000294022,0.00246314,0.000490129,1.41947,0.00150555,0.0095081,1175,400,1.88281,9.66514
-42,624,1.89001,-9.68503,0.000439671,0.00193668,0.000140431,0.00194974,0.000426611,1.47807,0.00118354,0.00936151,1182,400,1.89004,9.68501
-35,624,1.90479,-9.70804,0.000262541,0.00170345,-4.81518e-05,0.00170506,0.000260934,-1.53743,0.00106048,0.0136094,1189,400,1.90478,9.70805
-28,624,1.88757,-9.7554,0.000263336,0.00128722,-0.000142933,0.0013068,0.000243757,-1.43466,0.000802385,0.0178972,1196,400,1.88755,9.7554
-21,624,1.8894,-9.79117,0.00193663,0.000554546,-0.00131242,0.00272882,-0.000237644,-0.54307,0.00190338,0.0131575,1203,400,1.88936,9.79117
-14,624,1.91565,-9.82162,0.00303706,-0.000335392,-0.00240338,0.00428675,-0.00158508,-0.479496,0.00350768,0.0143514,1210,400,1.91563,9.82161
-7,624,1.87683,-9.83463,0.00385798,-0.00116386,-0.00315309,0.00537778,-0.00268366,-0.449147,0.00474012,0.0181123,1217,400,1.8768,9.83463
0,624,1.91785,-9.85437,0.00510865,-0.00185035,-0.00404933,0.00696806,-0.00370976,-0.43047,0.00625979,0.0173689,1224,400,1.91781,9.85437
7,624,1.9281,-9.86493,0.00644934,-0.00253788,-0.00494544,0.00863779,-0.00472633,-0.416615,0.00782517,0.0138583,1231,400,1.92813,9.86493
14,624,1.91333,-9.92395,0.00746395,-0.00316861,-0.00570396,0.00994498,-0.00564964,-0.410281,0.00911669,0.0112275,1238,400,1.9133,9.92394
21,624,1.92029,-9.9166,0.00805249,-0.00383116,-0.00619993,0.0106981,-0.00647679,-0.403326,0.0100153,0.011306,1245,400,1.92028,9.91658
28,624,1.92395,-9.90677,0.0083901,-0.00434907,-0.00649844,0.01112,-0.00707901,-0.397706,0.0105932,0.0104105,1252,400,1.92397,9.90677
35,624,1.92383,-9.90649,0.00828079,-0.00474327,-0.00667601,0.0110948,-0.00755731,-0.398916,0.0108332,0.01385,1259,400,1.92387,9.90649
42,624,1.93213,-9.91629,0.00769206,-0.00480024,-0.0065785,0.0105174,-0.00762553,-0.405654,0.0105191,0.0154623,1266,400,1.93214,9.91628
49,624,1.95593,-9.91776,0.0067694,-0.00445922,-0.00622076,0.00953473,-0.00722454,-0.418298,0.00970657,0.0159519,1273,400,1.95597,9.91776
56,624,1.97363,-9.91605,0.00554362,-0.00411256,-0.00581679,0.00827499,-0.00684394,-0.439006,0.00874194,0.0160555,1280,400,1.9736,9.91605
63,624,1.99451,-9.90411,0.00406455,-0.00361981,-0.00529449,0.00676408,-0.00631935,-0.471517,0.00755517,0.0136451,1287,400,1.99445,9.90411
70,624,1.98438,-9.90103,0.00364976,-0.00162618,-0.00365772,0.00552154,-0.00349795,-0.472989,0.00525091,0.0117699,1294,400,1.98434,9.90104
77,624,1.97949,-9.87866,0.00398362,0.00139948,-0.00160867,0.00475487,0.000628234,-0.447056,0.00298264,0.0119639,1301,400,1.97944,9.87866
84,624,1.98206,-9.87527,0.00343107,0.0045053,-0.000450111,0.00466897,0.00326741,-1.22205,0.00276645,0.0114277,1308,400,1.98208,9.87526
91,624,1.98975,-9.85376,0.00374756,0.00714454,0.00098183,0.0074079,0.0034842,1.30873,0.00427946,0.0122239,1315,400,1.98969,9.85377
98,624,1.98938,-9.83035,0.00437778,0.00952745,0.00216006,0.0103135,0.00359171,1.22178,0.00604523,0.0119413,1322,400,1.98937,9.83035
105,624,2.00867,-9.82846,0.00499785,0.0116525,0.0033997,0.0130822,0.00356818,1.17272,0.00780872,0.0129814,1329,400,2.00865,9.82845
112,624,2.04004,-9.77902,0.00587572,0.0133226,0.0044011,0.015364,0.0038343,1.13649,0.00923389,0.0140594,1336,400,2.04006,9.77904
119,624,2.03503,-9.6908,0.00683523,0.0143612,0.0050236,0.0168749,0.00432155,1.10685,0.0101218,0.01439,1343,400,2.03508,9.69079
126,624,2.03223,-9.6373,0.0075383,0.0147648,0.00523672,0.0175138,0.00478925,1.08738,0.0104519,0.0169996,1350,400,2.03227,9.63731
133,624,2.06665,-9.59378,0.00769911,0.0141251,0.00506715,0.0169121,0.00491216,1.06795,0.0100459,0.0168525,1357,400,2.0667,9.59378
140,624,2.05945,-9.56018,0.00737835,0.0126458,0.00462408,0.0153336,0.00469055,1.04427,0.00907247,0.0178099,1364,400,2.05949,9.56018
147,624,2.00635,-9.50452,0.00671044,0.0105169,0.00386598,0.0129228,0.00430461,1.01414,0.00759825,0.0229524,1371,400,2.0064,9.50453
154,624,1.99341,-9.45633,0.00579533,0.00798944,0.00294369,0.0100339,0.00375091,0.963766,0.00585421,0.0232833,1378,400,1.99341,9.45633
161,624,2.01721,-9.3884,0.00474594,0.00563106,0.00209356,0.00732833,0.00304868,0.88956,0.00425086,0.0212596,1385,400,2.01727,9.3884
168,624,2.08264,-9.34186,0.00376135,0.00357626,0.0014975,0.00516917,0.00216845,0.754538,0.00299729,0.0215673,1392,400,2.08265,9.34186
175,624,2.1062,-9.30475,0.0019592,0.000842875,0.000173261,0.00198548,0.000816602,0.150491,0.00115231,0.0165148,1399,400,2.10625,9.30474
182,624,2.08447,-9.24576,0.000259416,-0.001344,-0.000789916,0.000583187,-0.00166777,-0.388994,0.00134894,0.00991338,1406,400,2.08447,9.24576
189,624,2.08093,-9.155,0.000115511,-0.00204633,0.000227894,0.000139274,-0.00207009,0.103895,0.00142875,0.00987971,1413,400,2.08092,9.15501
196,624,2.07507,-9.09265,0.00016957,-0.0015229,0.000234249,0.000201393,-0.00155472,0.135026,0.00110972,0.0106428,1420,400,2.07508,9.09265
203,624,2.09253,-9.03055,0.000279503,-0.00111742,0.000209808,0.000310335,-0.00114825,0.145906,0.000887223,0.0127419,1427,400,2.09259,9.03054
210,624,2.10303,-8.95853,0.000197659,-0.000687018,0.000255844,0.00026632,-0.000755678,0.262189,0.000612183,0.0171,1434,400,2.10307,8.95852
217,624,2.07153,-8.86432,-8.93293e-05,-0.00037699,0.000388679,0.000181278,-0.000647598,0.608187,0.000503163,0.0204665,1441,400,2.07156,8.86431
224,624,2.06567,-8.77539,-0.000223558,-0.000113955,0.000534167,0.000368215,-0.000705727,0.836516,0.000630165,0.0155935,1448,400,2.06563,8.77538
231,624,2.06238,-8.68085,-0.000432241,0.000215972,0.000793795,0.000749278,-0.000965547,0.979219,0.000992675,0.0116429,1455,400,2.06234,8.68085
238,624,2.05273,-8.58731,-0.000772421,0.000679949,0.00100444,0.00119321,-0.00128569,1.09839,0.00143152,0.0168259,1462,400,2.05276,8.58732
245,624,2.0603,-8.50272,-0.00108456,0.00104538,0.00118096,0.00157064,-0.00160982,1.1523,0.00183629,0.0171356,1469,400,2.06033,8.5027
252,624,2.05115,-8.39548,-0.00140644,0.00149007,0.00139325,0.00205143,-0.00196781,1.18778,0.00232068,0.0124286,1476,400,2.05118,8.39548
259,624,2.05627,-8.298,-0.00171819,0.00211759,0.0017188,0.00277508,-0.00237567,1.20544,0.00297677,0.00915646,1483,400,2.05631,8.29799
266,624,2.07483,-8.18384,-0.00202305,0.00295935,0.00212972,0.00374561,-0.00280931,1.21713,0.00379734,0.0133603,1490,400,2.07479,8.18384
273,624,2.0835,-8.06534,-0.00225256,0.00393077,0.00258308,0.00486784,-0.00318963,1.22279,0.00468549,0.0168982,1497,400,2.08351,8.06534
280,624,2.06067,-7.97095,-0.00233149,0.00472326,0.00314998,0.00592502,-0.00353326,1.20633,0.00551863,0.0155491,1504,400,2.06064,7.97096
287,624,2.04016,-7.88361,-0.00226523,0.00548582,0.00385941,0.00707973,-0.00385914,1.17914,0.00640615,0.0109921,1511,400,2.0402,7.88361
294,624,2.0271,-7.7532,-0.00208493,0.006488,0.004564,0.00846283,-0.00405977,1.16242,0.0073774,0.00913272,1518,400,2.02709,7.75321
301,624,2.00745,-7.6091,-0.00166477,0.00740299,0.00532956,0.00986627,-0.00412805,1.13785,0.00830295,0.0110006,1525,400,2.00744,7.60911
308,624,2.00525,-7.45908,-0.00102676,0.0081183,0.00623583,0.0112784,-0.00418686,1.10175,0.00923648,0.0149491,1532,400,2.00528,7.45907
315,624,1.99304,-7.33411,-0.000240744,0.00838711,0.007084,0.0123673,-0.00422097,1.05889,0.00995478,0.0167134,1539,400,1.99303,7.33412
322,624,1.99597,-7.2164,0.000838882,0.00835288,0.00799312,0.0134279,-0.00423616,1.00509,0.0106487,0.0240328,1546,400,1.99601,7.21639
329,624,2.24011,-7.15359,0.0021195,0.00755862,0.00897274,0.0142149,-0.00453676,0.932543,0.0112967,0.0399769,1553,400,2.24017,7.1536
336,624,2.32471,-7.05978,0.00386098,0.00671241,0.00982839,0.015218,-0.00464457,0.857426,0.011997,0.0419985,1560,400,2.32467,7.0598
343,624,2.48462,-6.59402,0,0,0,0,0,0,0,-1,1567,400,2.48464,6.59403
350,624,1.99194,-7.29742,0,0,0,0,0,0,0,-1,1574,400,1.99198,7.29741
357,624,2.64075,-3.13092,0,0,0,0,0,0,0,-1,1581,400,2.64076,3.13091
364,624,3.16565,-4.9458,0,0,0,0,0,0,0,-1,1588,400,3.16564,4.94579
371,624,3.37561,-5.23529,0,0,0,0,0,0,0,-1,1595,400,3.37563,5.23529
378,624,1.50439,-5.22165,0,0,0,0,0,0,0,-1,1602,400,1.50438,5.22164
385,624,0.724731,-2.43875,0,0,0,0,0,0,0,-1,1609,400,0.724746,2.43875
392,624,4.26819,-5.14236,0,0,0,0,0,0,0,-1,1616,400,4.26818,5.14236
399,624,3.86841,-2.36917,0,0,0,0,0,0,0,-1,1623,400,3.86838,2.36916
406,624,4.35376,-2.6962,0,0,0,0,0,0,0,-1,1630,400,4.35373,2.69619
413,624,0,0,0,0,0,0,0,0,0,-1,1637,400,0,0
420,624,0,0,0,0,0,0,0,0,0,-1,1644,400,0,0
427,624,0,0,0,0,0,0,0,0,0,-1,1651,400,0,0
434,624,0,0,0,0,0,0,0,0,0,-1,1658,400,0,0
441,624,0,0,0,0,0,0,0,0,0,-1,1665,400,0,0
448,624,0,0,0,0,0,0,0,0,0,-1,1672,400,0,0
455,624,0,0,0,0,0,0,0,0,0,-1,1679,400,0,0
462,624,0,0,0,0,0,0,0,0,0,-1,1686,400,0,0
469,624,0,0,0,0,0,0,0,0,0,-1,1693,400,0,0
476,624,0,0,0,0,0,0,0,0,0,-1,1700,400,0,0
483,624,0,0,0,0,0,0,0,0,0,-1,1707,400,0,0
490,624,0,0,0,0,0,0,0,0,0,-1,1714,400,0,0
497,624,0,0,0,0,0,0,0,0,0,-1,1721,400,0,0
504,624,0,0,0,0,0,0,0,0,0,-1,1728,400,0,0
511,624,0,0,0,0,0,0,0,0,0,-1,1735,400,0,0
518,624,0,0,0,0,0,0,0,0,0,-1,1742,400,0,0
525,624,0,0,0,0,0,0,0,0,0,-1,1749,400,0,0
532,624,0,0,0,0,0,0,0,0,0,-1,1756,400,0,0
539,624,0,0,0,0,0,0,0,0,0,-1,1763,400,0,0
546,624,0,0,0,0,0,0,0,0,0,-1,1770,400,0,0
553,624,0,0,0,0,0,0,0,0,0,-1,1777,400,0,0
560,624,0,0,0,0,0,0,0,0,0,-1,1784,400,0,0
567,624,0,0,0,0,0,0,0,0,0,-1,1791,400,0,0
574,624,0,0,0,0,0,0,0,0,0,-1,1798,400,0,0
581,624,0,0,0,0,0,0,0,0,0,-1,1805,400,0,0
588,624,0,0,0,0,0,0,0,0,0,-1,1812,400,0,0
595,624,0,0,0,0,0,0,0,0,0,-1,1819,400,0,0
602,624,0,0,0,0,0,0,0,0,0,-1,1826,400,0,0
609,624,0,0,0,0,0,0,0,0,0,-1,1833,400,0,0
616,624,0,0,0,0,0,0,0,0,0,-1,1840,400,0,0
623,624,0,0,0,0,0,0,0,0,0,-1,1847,400,0,0
630,624,0,0,0,0,0,0,0,0,0,-1,1854,400,0,0
637,624,0,0,0,0,0,0,0,0,0,-1,1861,400,0,0
644,624,0,0,0,0,0,0,0,0,0,-1,1868,400,0,0
651,624,0,0,0,0,0,0,0,0,0,-1,1875,400,0,0
658,624,0,0,0,0,0,0,0,0,0,-1,1882,400,0,0
665,624,0,0,0,0,0,0,0,0,0,-1,1889,400,0,0
672,624,0,0,0,0,0,0,0,0,0,-1,1896,400,0,0
679,624,0,0,0,0,0,0,0,0,0,-1,1903,400,0,0
686,624,0,0,0,0,0,0,0,0,0,-1,1910,400,0,0
693,624,0,0,0,0,0,0,0,0,0,-1,1917,400,0,0
700,624,0,0,0,0,0,0,0,0,0,-1,1924,400,0,0
707,624,0,0,0,0,0,0,0,0,0,-1,1931,400,0,0
714,624,0,0,0,0,0,0,0,0,0,-1,1938,400,0,0
721,624,0,0,0,0,0,0,0,0,0,-1,1945,400,0,0
728,624,0,0,0,0,0,0,0,0,0,-1,1952,400,0,0
735,624,0,0,0,0,0,0,0,0,0,-1,1959,400,0,0
742,624,0,0,0,0,0,0,0,0,0,-1,1966,400,0,0
749,624,0,0,0,0,0,0,0,0,0,-1,1973,400,0,0
756,624,0,0,0,0,0,0,0,0,0,-1,1980,400,0,0
763,624,0,0,0,0,0,0,0,0,0,-1,1987,400,0,0
770,624,0,0,0,0,0,0,0,0,0,-1,1994,400,0,0
777,624,0,0,0,0,0,0,0,0,0,-1,2001,400,0,0
784,624,0,0,0,0,0,0,0,0,0,-1,2008,400,0,0
791,624,0,0,0,0,0,0,0,0,0,-1,2015,400,0,0
798,624,0,0,0,0,0,0,0,0,0,-1,2022,400,0,0
805,624,0,0,0,0,0,0,0,0,0,-1,2029,400,0,0
812,624,0,0,0,0,0,0,0,0,0,-1,2036,400,0,0
-700,617,0,0,0,0,0,0,0,0,0,-1,524,407,0,0
-693,617,0,0,0,0,0,0,0,0,0,-1,531,407,0,0
-686,617,0,0,0,0,0,0,0,0,0,-1,538,407,0,0
-679,617,0,0,0,0,0,0,0,0,0,-1,545,407,0,0
-672,617,0,0,0,0,0,0,0,0,0,-1,552,407,0,0
-665,617,0,0,0,0,0,0,0,0,0,-1,559,407,0,0
-658,617,0,0,0,0,0,0,0,0,0,-1,566,407,0,0
-651,617,0,0,0,0,0,0,0,0,0,-1,573,407,0,0
-644,617,0,0,0,0,0,0,0,0,0,-1,580,407,0,0
-637,617,0,0,0,0,0,0,0,0,0,-1,587,407,0,0
-630,617,0,0,0,0,0,0,0,0,0,-1,594,407,0,0
-623,617,0,0,0,0,0,0,0,0,0,-1,601,407,0,0
-616,617,0,0,0,0,0,0,0,0,0,-1,608,407,0,0
-609,617,0,0,0,0,0,0,0,0,0,-1,615,407,0,0
-602,617,0,0,0,0,0,0,0,0,0,-1,622,407,0,0
-595,617,0,0,0,0,0,0,0,0,0,-1,629,407,0,0
-588,617,0,0,0,0,0,0,0,0,0,-1,636,407,0,0
-581,617,0,0,0,0,0,0,0,0,0,-1,643,407,0,0
-574,617,0,0,0,0,0,0,0,0,0,-1,650,407,0,0
-567,617,0,0,0,0,0,0,0,0,0,-1,657,407,0,0
-560,617,0,0,0,0,0,0,0,0,0,-1,664,407,0,0
-553,617,0,0,0,0,0,0,0,0,0,-1,671,407,0,0
-546,617,0,0,0,0,0,0,0,0,0,-1,678,407,0,0
-539,617,0,0,0,0,0,0,0,0,0,-1,685,407,0,0
-532,617,0,0,0,0,0,0,0,0,0,-1,692,407,0,0
-525,617,0,0,0,0,0,0,0,0,0,-1,699,407,0,0
-518,617,0,0,0,0,0,0,0,0,0,-1,706,407,0,0
-511,617,0,0,0,0,0,0,0,0,0,-1,713,407,0,0
-504,617,0,0,0,0,0,0,0,0,0,-1,720,407,0,0
-497,617,0,0,0,0,0,0,0,0,0,-1,727,407,0,0
-490,617,0,0,0,0,0,0,0,0,0,-1,734,407,0,0
-483,617,0,0,0,0,0,0,0,0,0,-1,741,407,0,0
-476,617,0,0,0,0,0,0,0,0,0,-1,748,407,0,0
-469,617,0,0,0,0,0,0,0,0,0,-1,755,407,0,0
-462,617,0,0,0,0,0,0,0,0,0,-1,762,407,0,0
-455,617,0,0,0,0,0,0,0,0,0,-1,769,407,0,0
-448,617,0,0,0,0,0,0,0,0,0,-1,776,407,0,0
-441,617,0,0,0,0,0,0,0,0,0,-1,783,407,0,0
-434,617,0,0,0,0,0,0,0,0,0,-1,790,407,0,0
-427,617,0,0,0,0,0,0,0,0,0,-1,797,407,0,0
-420,617,0,0,0,0,0,0,0,0,0,-1,804,407,0,0
-413,617,0,0,0,0,0,0,0,0,0,-1,811,407,0,0
-406,617,0,0,0,0,0,0,0,0,0,-1,818,407,0,0
-399,617,0,0,0,0,0,0,0,0,0,-1,825,407,0,0
-392,617,0,0,0,0,0,0,0,0,0,-1,832,407,0,0
-385,617,0,0,0,0,0,0,0,0,0,-1,839,407,0,0
-378,617,0,0,0,0,0,0,0,0,0,-1,846,407,0,0
-371,617,0,0,0,0,0,0,0,0,0,-1,853,407,0,0
-364,617,0,0,0,0,0,0,0,0,0,-1,860,407,0,0
-357,617,0,0,0,0,0,0,0,0,0,-1,867,407,0,0
-350,617,0,0,0,0,0,0,0,0,0,-1,874,407,0,0
-343,617,0,0,0,0,0,0,0,0,0,-1,881,407,0,0
-336,617,0,0,0,0,0,0,0,0,0,-1,888,407,0,0
-329,617,0,0,0,0,0,0,0,0,0,-1,895,407,0,0
-322,617,0,0,0,0,0,0,0,0,0,-1,902,407,0,0
-315,617,0,0,0,0,0,0,0,0,0,-1,909,407,0,0
-308,617,0,0,0,0,0,0,0,0,0,-1,916,407,0,0
-301,617,6.7511,-7.32471,0,0,0,0,0,0,0,-1,923,407,6.75112,7.3247
-294,617,0.739624,-10.7959,0,0,0,0,0,0,0,-1,930,407,0.739635,10.7959
-287,617,0.250366,-10.4579,0,0,0,0,0,0,0,-1,937,407,0.250386,10.4578
-280,617,-0.105164,-10.0824,0,0,0,0,0,0,0,-1,944,407,-0.105181,10.0824
-273,617,0.0418091,-9.35403,0,0,0,0,0,0,0,-1,951,407,0.041821,9.35404
-266,617,3.05334,-6.05438,0,0,0,0,0,0,0,-1,958,407,3.05333,6.05438
-259,617,2.81244,-6.20709,0,0,0,0,0,0,0,-1,965,407,2.81243,6.20709
-252,617,2.55646,-6.48502,0.00378489,0.0342133,0.0158602,0.0409768,-0.0029786,1.1677,0.0283629,0.0438687,972,407,2.55649,6.48502
-245,617,2.44293,-6.63287,0.0020295,0.0304603,0.0133193,0.0357252,-0.00323541,1.19436,0.0249652,0.043977,979,407,2.44294,6.63287
-238,617,1.96716,-7.0195,0,0,0,0,0,0,0,-1,986,407,1.96716,7.0195
-231,617,1.99664,-7.15982,-0.000967054,0.0214724,0.00794535,0.0240008,-0.00349544,1.26271,0.0172839,0.0451372,993,407,1.99667,7.15983
-224,617,1.99701,-7.3707,-0.00220167,0.0171634,0.00558598,0.0186592,-0.00369744,1.30916,0.0138376,0.0434551,1000,407,1.99703,7.3707
-217,617,2.06287,-7.57117,-0.00179072,0.0122384,0.00335245,0.0129984,-0.00255067,1.34788,0.00962909,0.0361288,1007,407,2.06286,7.57116
-210,617,1.92334,-7.76724,-0.000882438,0.00788016,0.00153845,0.00814242,-0.00114469,1.40195,0.00584731,0.023647,1014,407,1.92331,7.76724
-203,617,1.91162,-7.91101,-0.000552006,0.0050543,0.000476437,0.0050945,-0.000592207,1.48662,0.00360997,0.0180685,1021,407,1.91161,7.91101
-196,617,1.87122,-8.0397,-0.000404572,0.00161594,-0.00111807,0.00211257,-0.000901202,-1.15279,0.00178624,0.0146717,1028,407,1.87121,8.03972
-189,617,1.84241,-8.12894,0.000243726,-0.000355182,-0.00177928,0.00174858,-0.00186003,-0.702029,0.00208376,0.012891,1035,407,1.84242,8.12892
-182,617,1.86096,-8.21634,0.00110006,-0.00145971,-0.00186417,0.00208142,-0.00244107,-0.48457,0.00261381,0.0146311,1042,407,1.8609,8.21633
-175,617,1.88135,-8.32892,0.00173803,-0.00216153,-0.00166293,0.00235086,-0.00277436,-0.353081,0.00296241,0.0122453,1049,407,1.88138,8.32891
-168,617,1.8739,-8.44669,0.00201819,-0.00258448,-0.00147366,0.00244959,-0.00301588,-0.28478,0.00316113,0.00945692,1056,407,1.87387,8.44668
-161,617,1.84143,-8.56186,0.00216199,-0.00259993,-0.00133535,0.00251089,-0.00294883,-0.255567,0.00315555,0.010514,1063,407,1.84142,8.56187
-154,617,1.83154,-8.64642,0.00207042,-0.00239456,-0.00106816,0.0023128,-0.00263694,-0.223134,0.00285978,0.0108357,1070,407,1.83158,8.64644
-147,617,1.82532,-8.72375,0.0017817,-0.00194226,-0.000745514,0.0019254,-0.00208596,-0.19042,0.00231658,0.0146924,1077,407,1.82538,8.72377
-140,617,1.80859,-8.84326,0.00156432,-0.00140173,-0.000496335,0.00164518,-0.00148258,-0.16148,0.00180662,0.0114144,1084,407,1.80857,8.84327
-133,617,1.81433,-8.93756,0.00121983,-0.00065703,-0.000186092,0.0012381,-0.000675304,-0.097881,0.00112052,0.013569,1091,407,1.81436,8.93757
-126,617,1.82751,-8.99329,0.000812076,0.000293847,4.89379e-05,0.000816657,0.000289266,0.0933335,0.000478132,0.012698,1098,407,1.82754,8.99327
-119,617,1.7981,-9.0596,0.000581425,0.001136,0.000158606,0.00117816,0.000539269,1.31101,0.00068102,0.0123918,1105,407,1.79806,9.05961
-112,617,1.78638,-9.13168,0.000353254,0.0020654,0.000257646,0.00210333,0.000315324,1.42463,0.00130983,0.0137754,1112,407,1.78635,9.13169
-105,617,1.78015,-9.20816,0.000212668,0.00282131,0.000298938,0.00285513,0.000178849,1.45815,0.00184669,0.0161917,1119,407,1.78018,9.20817
-98,617,1.81226,-9.29941,0.000225252,0.00335099,0.000247722,0.0033705,0.000205741,1.4922,0.00218166,0.0140575,1126,407,1.8122,9.2994
-91,617,1.82153,-9.3667,0.000287026,0.00372586,0.000173126,0.00373456,0.000278333,1.52062,0.00240231,0.0183385,1133,407,1.82156,9.36671
-84,617,1.82605,-9.40909,0.000339713,0.00384773,0.000107635,0.00385102,0.000336414,1.54015,0.00246288,0.0169273,1140,407,1.82611,9.40907
-77,617,1.84192,-9.46561,0.000338321,0.00377805,5.87919e-05,0.00377905,0.000337317,1.55371,0.00241479,0.012866,1147,407,1.84187,9.46562
-70,617,1.84399,-9.53711,0.000410637,0.00353574,6.85214e-05,0.00353725,0.000409135,1.54888,0.00223431,0.0137195,1154,407,1.84402,9.5371
-63,617,1.85791,-9.57327,0.000380252,0.00374754,-0.000196777,0.003759,0.000368792,-1.51262,0.00239256,0.0141381,1161,407,1.85797,9.57328
-56,617,1.86841,-9.59747,0.000270464,0.00410476,-0.000619389,0.00420233,0.000172892,-1.41455,0.00274574,0.0106491,1168,407,1.86835,9.59748
-49,617,1.86316,-9.64743,0.000261024,0.00452885,-0.000786764,0.00466927,0.000120606,-1.39418,0.00307343,0.00950688,1175,407,1.86321,9.64743
-42,617,1.86951,-9.6933,-0.000178343,0.00535014,-0.00189874,0.00593944,-0.000767643,-1.26986,0.00423874,0.011307,1182,407,1.86951,9.6933
-35,617,1.87622,-9.7175,-0.000934104,0.00655078,-0.00305377,0.00763859,-0.00202192,-1.22859,0.00588334,0.0160384,1189,407,1.87621,9.71751
-28,617,1.85938,-9.75327,-0.00149092,0.00749384,-0.00406495,0.00905995,-0.00305703,-1.20305,0.00727628,0.0181312,1196,407,1.85943,9.75328
-21,617,1.87903,-9.78201,0.00189873,0.00736678,-0.00752256,0.0126367,-0.00337123,-0.959699,0.0097446,0.0131625,1203,407,1.87903,9.78202
-14,617,1.88562,-9.77316,0.00450648,0.00640805,-0.010163,0.0156647,-0.00475015,-0.832039,0.0123352,0.0147411,1210,407,1.88564,9.77316
-7,617,1.85071,-9.78653,0.00636109,0.00532779,-0.0115758,0.0174318,-0.00574292,-0.763097,0.0139357,0.0171391,1217,407,1.85068,9.78653
0,617,1.87256,-9.82489,0.00869484,0.00394454,-0.0131006,0.0196339,-0.00699448,-0.695722,0.0159407,0.0150135,1224,407,1.87253,9.82488
7,617,1.91492,-9.86682,0.0112338,0.00229591,-0.0142029,0.0216543,-0.00812457,-0.632977,0.0177745,0.0113635,1231,407,1.91492,9.86683
14,617,1.90332,-9.90509,0.0134791,0.000913465,-0.014958,0.0234202,-0.00902762,-0.586571,0.0193383,0.0129295,1238,407,1.90331,9.90508
21,617,1.89099,-9.90787,0.0148529,-0.000832381,-0.0152638,0.024171,-0.0101505,-0.548082,0.0203592,0.0112495,1245,407,1.89105,9.90786
28,617,1.90381,-9.91116,0.0157549,-0.0023539,-0.0150382,0.0242541,-0.0108531,-0.51442,0.0207556,0.00997045,1252,407,1.90382,9.91115
35,617,1.93188,-9.91309,0.0158059,-0.00377948,-0.014533,0.0235376,-0.0115112,-0.488927,0.0206287,0.0127215,1259,407,1.93186,9.91309
42,617,1.94507,-9.91751,0.0149436,-0.00489737,-0.0136191,0.0218723,-0.0118261,-0.470623,0.0197419,0.0183364,1266,407,1.94502,9.91751
49,617,1.97168,-9.90845,0.0133171,-0.00530216,-0.0124365,0.0195425,-0.0115275,-0.464104,0.0181361,0.0173363,1273,407,1.97165,9.90845
56,617,1.98303,-9.89349,0.0109973,-0.00544855,-0.0113538,0.0167932,-0.0112444,-0.471993,0.0162928,0.0123689,1280,407,1.98305,9.8935
63,617,1.99316,-9.90796,0.00826314,-0.00542851,-0.0101482,0.0136587,-0.010824,-0.488665,0.0141666,0.00974641,1287,407,1.99321,9.90796
70,617,1.98474,-9.91763,0.00676353,-0.00347612,-0.00768034,0.0108741,-0.00758669,-0.491415,0.0107145,0.0138716,1294,407,1.9847,9.91763
77,617,2.00732,-9.88571,0.00616383,-7.63045e-05,-0.00473961,0.00871816,-0.00263063,-0.494306,0.00685924,0.0120696,1301,407,2.00738,9.8857
84,617,2.00488,-9.85297,0.00429429,0.00372158,-0.00286665,0.00688885,0.00112702,-0.735617,0.0042668,0.010034,1308,407,2.00485,9.85297
91,617,2.02039,-9.83127,0.00374326,0.00711977,-0.000861647,0.00732694,0.00353609,-1.33484,0.00423106,0.00974081,1315,407,2.02044,9.83128
98,617,2.03918,-9.82217,0.00388163,0.0100861,0.000661445,0.0101558,0.0038119,1.46576,0.0059239,0.0104428,1322,407,2.03915,9.82218
105,617,2.0636,-9.81979,0.00417068,0.0128907,0.00240359,0.0135094,0.00355205,1.31888,0.00808659,0.0122128,1329,407,2.06361,9.81981
112,617,2.07361,-9.76163,0.00498038,0.0153096,0.00376247,0.0165348,0.00375519,1.25599,0.0100091,0.0163217,1336,407,2.07365,9.76163
119,617,2.06714,-9.698,0.00602041,0.0167585,0.00475176,0.0185592,0.00421966,1.20855,0.0112336,0.0196096,1343,407,2.06711,9.69798
126,617,2.04309,-9.67184,0.00693051,0.0176248,0.00532907,0.0198269,0.00472842,1.17894,0.0119576,0.0208885,1350,407,2.04314,9.67186
133,617,2.06079,-9.6178,0.00722106,0.0171358,0.00534244,0.0194666,0.00489027,1.15941,0.0116936,0.018382,1357,407,2.06075,9.61781
140,617,2.10742,-9.56476,0.00701698,0.0156486,0.00501756,0.0179511,0.00471446,1.14057,0.0107463,0.0166199,1364,407,2.10743,9.56475
147,617,2.08716,-9.51834,0.00653887,0.0132434,0.00432984,0.015367,0.00441526,1.11481,0.00913577,0.0191885,1371,407,2.08712,9.51835
154,617,2.05237,-9.47415,0.0057371,0.0102482,0.0034068,0.0120785,0.00390685,1.07781,0.00711692,0.0207795,1378,407,2.05233,9.47416
161,617,2.07349,-9.38925,0.0047313,0.00744104,0.00253311,0.00895885,0.00321349,1.03097,0.0052408,0.0218568,1385,407,2.0735,9.38926
168,617,2.14209,-9.36969,0.00390433,0.00484666,0.00193285,0.00636495,0.00238605,0.904949,0.00371296,0.0205326,1392,407,2.14214,9.36969
175,617,2.15796,-9.33087,0.00164834,0.000922111,1.75441e-05,0.00164877,0.000921687,0.0241389,0.000954123,0.0162007,1399,407,2.15795,9.33087
182,617,2.15894,-9.24182,-0.000858686,-0.00283132,-0.00167032,9.47856e-05,-0.00378479,-0.518697,0.00255537,0.0102308,1406,407,2.15899,9.24182
189,617,2.14197,-9.15839,-0.00089557,-0.00447798,0.000295085,-0.000871427,-0.00450213,0.0816372,0.00275723,0.009853,1413,407,2.14193,9.15838
196,617,2.12244,-9.08749,-0.000460247,-0.00351292,0.000129094,-0.000454797,-0.00351837,0.0421886,0.00220964,0.0130255,1420,407,2.12242,9.08749
203,617,2.1322,-9.02719,0.000321576,-0.00241725,-9.91663e-05,0.000325162,-0.00242084,-0.0361445,0.00173248,0.0137014,1427,407,2.13226,9.02719
210,617,2.16248,-8.95871,0.00067065,-0.00154302,-0.000233625,0.000695037,-0.00156741,-0.104011,0.0013382,0.0141454,1434,407,2.16246,8.9587
217,617,2.14258,-8.84433,0.000331771,-0.00112714,-6.14593e-05,0.000334356,-0.00112972,-0.0420276,0.000885889,0.0186982,1441,407,2.14262,8.84433
224,617,2.13647,-8.76816,0.000203951,-0.000773277,0.000112547,0.000216745,-0.000786071,0.113196,0.000609285,0.0177828,1448,407,2.13651,8.76815
231,617,2.14758,-8.71075,8.21759e-05,-0.000369546,0.000352548,0.000275008,-0.000562378,0.50051,0.000492863,0.0137498,1455,407,2.14756,8.71077
238,617,2.1582,-8.63324,-9.47768e-05,0.000148166,0.000563728,0.000603361,-0.000549972,0.891515,0.000666115,0.0143584,1462,407,2.15824,8.63323
245,617,2.17773,-8.54706,-0.000272313,0.000586245,0.000742804,0.00101489,-0.000700961,1.04741,0.00099616,0.0123968,1469,407,2.17774,8.54707
252,617,2.1687,-8.4198,-0.000478453,0.00105287,0.000921929,0.00148562,-0.000911202,1.13193,0.00139699,0.0135343,1476,407,2.16868,8.41979
259,617,2.14722,-8.29724,-0.000711035,0.00161188,0.00117543,0.00210288,-0.00120203,1.17511,0.00193157,0.0116685,1483,407,2.14726,8.29723
266,617,2.14795,-8.18213,-0.000944128,0.00229007,0.00148394,0.00286776,-0.00152182,1.19955,0.00257373,0.0136956,1490,407,2.14795,8.18214
273,617,2.17639,-8.07202,-0.00109988,0.00312439,0.00183293,0.00380882,-0.00178431,1.21342,0.00329895,0.0147512,1497,407,2.1764,8.07203
280,617,2.15393,-7.97232,-0.00117817,0.00372912,0.00226844,0.00461706,-0.00206611,1.1977,0.00395111,0.0135625,1504,407,2.15392,7.97233
287,617,2.12378,-7.87717,-0.00114108,0.00425538,0.00283555,0.00547133,-0.00235702,1.16569,0.00463739,0.0118505,1511,407,2.12377,7.87716
294,617,2.11816,-7.75421,-0.00101733,0.00495692,0.00337411,0.00647618,-0.00253659,1.14772,0.00536667,0.00959572,1518,407,2.11816,7.75421
301,617,2.11768,-7.62292,-0.000742925,0.00555277,0.00394443,0.00745145,-0.00264161,1.12217,0.00604377,0.00792055,1525,407,2.1177,7.62291
308,617,2.11792,-7.49814,-0.00030428,0.00597897,0.00463441,0.00843623,-0.00276154,1.08326,0.00673608,0.00811691,1532,407,2.11789,7.49814
315,617,2.11365,-7.37796,0.000256524,0.00607867,0.0052784,0.00919551,-0.00286032,1.0374,0.00727373,0.00946842,1539,407,2.11364,7.37796
322,617,2.11365,-7.24628,0.00102754,0.00593118,0.00596056,0.00992449,-0.00296577,0.98052,0.0077953,0.0122977,1546,407,2.11368,7.24628
329,617,2.11255,-7.12485,0.00194953,0.00516836,0.00670691,0.0104563,-0.00333837,0.903153,0.00831023,0.0130444,1553,407,2.11258,7.12483
336,617,2.13477,-7.00751,0.00312024,0.00439594,0.00736061,0.0111463,-0.00363011,0.828619,0.00889143,0.0280154,1560,407,2.1348,7.00751
343,617,2.2146,-6.75592,0,0,0,0,0,0,0,-1,1567,407,2.2146,6.75592
350,617,2.18103,-6.69006,0,0,0,0,0,0,0,-1,1574,407,2.18108,6.69006
357,617,2.37646,-6.56335,0,0,0,0,0,0,0,-1,1581,407,2.37647,6.56336
364,617,2.45313,-6.22031,0,0,0,0,0,0,0,-1,1588,407,2.4531,6.2203
371,617,2.60266,-6.20667,0,0,0,0,0,0,0,-1,1595,407,2.60261,6.20668
378,617,2.76233,-6.35052,0,0,0,0,0,0,0,-1,1602,407,2.76232,6.35053
385,617,1.37012,-5.41284,0,0,0,0,0,0,0,-1,1609,407,1.37016,5.41286
392,617,3.40723,-2.54929,0,0,0,0,0,0,0,-1,1616,407,3.40725,2.54929
399,617,3.25,-2.14835,0,0,0,0,0,0,0,-1,1623,407,3.25006,2.14836
406,617,3.02429,-3.19577,0,0,0,0,0,0,0,-1,1630,407,3.02431,3.19577
413,617,2.92786,-3.80649,0,0,0,0,0,0,0,-1,1637,407,2.92788,3.8065
420,617,3.42737,-4.47391,0,0,0,0,0,0,0,-1,1644,407,3.42737,4.47391
427,617,0,0,0,0,0,0,0,0,0,-1,1651,407,0,0
434,617,0,0,0,0,0,0,0,0,0,-1,1658,407,0,0
441,617,0,0,0,0,0,0,0,0,0,-1,1665,407,0,0
448,617,0,0,0,0,0,0,0,0,0,-1,1672,407,0,0
455,617,0,0,0,0,0,0,0,0,0,-1,1679,407,0,0
462,617,0,0,0,0,0,0,0,0,0,-1,1686,407,0,0
469,617,0,0,0,0,0,0,0,0,0,-1,1693,407,0,0
476,617,0,0,0,0,0,0,0,0,0,-1,1700,407,0,0
483,617,0,0,0,0,0,0,0,0,0,-1,1707,407,0,0
490,617,0,0,0,0,0,0,0,0,0,-1,1714,407,0,0
497,617,0,0,0,0,0,0,0,0,0,-1,1721,407,0,0
504,617,0,0,0,0,0,0,0,0,0,-1,1728,407,0,0
511,617,0,0,0,0,0,0,0,0,0,-1,1735,407,0,0
518,617,0,0,0,0,0,0,0,0,0,-1,1742,407,0,0
525,617,0,0,0,0,0,0,0,0,0,-1,1749,407,0,0
532,617,0,0,0,0,0,0,0,0,0,-1,1756,407,0,0
539,617,0,0,0,0,0,0,0,0,0,-1,1763,407,0,0
546,617,0,0,0,0,0,0,0,0,0,-1,1770,407,0,0
553,617,0,0,0,0,0,0,0,0,0,-1,1777,407,0,0
560,617,0,0,0,0,0,0,0,0,0,-1,1784,407,0,0
567,617,0,0,0,0,0,0,0,0,0,-1,1791,407,0,0
574,617,0,0,0,0,0,0,0,0,0,-1,1798,407,0,0
581,617,0,0,0,0,0,0,0,0,0,-1,1805,407,0,0
588,617,0,0,0,0,0,0,0,0,0,-1,1812,407,0,0
595,617,0,0,0,0,0,0,0,0,0,-1,1819,407,0,0
602,617,0,0,0,0,0,0,0,0,0,-1,1826,407,0,0
609,617,0,0,0,0,0,0,0,0,0,-1,1833,407,0,0
616,617,0,0,0,0,0,0,0,0,0,-1,1840,407,0,0
623,617,0,0,0,0,0,0,0,0,0,-1,1847,407,0,0
630,617,0,0,0,0,0,0,0,0,0,-1,1854,407,0,0
637,617,0,0,0,0,0,0,0,0,0,-1,1861,407,0,0
644,617,0,0,0,0,0,0,0,0,0,-1,1868,407,0,0
651,617,0,0,0,0,0,0,0,0,0,-1,1875,407,0,0
658,617,0,0,0,0,0,0,0,0,0,-1,1882,407,0,0
665,617,0,0,0,0,0,0,0,0,0,-1,1889,407,0,0
672,617,0,0,0,0,0,0,0,0,0,-1,1896,407,0,0
679,617,0,0,0,0,0,0,0,0,0,-1,1903,407,0,0
686,617,0,0,0,0,0,0,0,0,0,-1,1910,407,0,0
693,617,0,0,0,0,0,0,0,0,0,-1,1917,407,0,0
700,617,0,0,0,0,0,0,0,0,0,-1,1924,407,0,0
707,617,0,0,0,0,0,0,0,0,0,-1,1931,407,0,0
714,617,0,0,0,0,0,0,0,0,0,-1,1938,407,0,0
721,617,0,0,0,0,0,0,0,0,0,-1,1945,407,0,0
728,617,0,0,0,0,0,0,0,0,0,-1,1952,407,0,0
735,617,0,0,0,0,0,0,0,0,0,-1,1959,407,0,0
742,617,0,0,0,0,0,0,0,0,0,-1,1966,407,0,0
749,617,0,0,0,0,0,0,0,0,0,-1,1973,407,0,0
756,617,0,0,0,0,0,0,0,0,0,-1,1980,407,0,0
763,617,0,0,0,0,0,0,0,0,0,-1,1987,407,0,0
770,617,0,0,0,0,0,0,0,0,0,-1,1994,407,0,0
777,617,0,0,0,0,0,0,0,0,0,-1,2001,407,0,0
784,617,0,0,0,0,0,0,0,0,0,-1,2008,407,0,0
791,617,0,0,0,0,0,0,0,0,0,-1,2015,407,0,0
798,617,0,0,0,0,0,0,0,0,0,-1,2022,407,0,0
805,617,0,0,0,0,0,0,0,0,0,-1,2029,407,0,0
812,617,0,0,0,0,0,0,0,0,0,-1,2036,407,0,0
-700,610,0,0,0,0,0,0,0,0,0,-1,524,414,0,0
-693,610,0,0,0,0,0,0,0,0,0,-1,531,414,0,0
-686,610,0,0,0,0,0,0,0,0,0,-1,538,414,0,0
-679,610,0,0,0,0,0,0,0,0,0,-1,545,414,0,0
-672,610,0,0,0,0,0,0,0,0,0,-1,552,414,0,0
-665,610,0,0,0,0,0,0,0,0,0,-1,559,414,0,0
-658,610,0,0,0,0,0,0,0,0,0,-1,566,414,0,0
-651,610,0,0,0,0,0,0,0,0,0,-1,573,414,0,0
-644,610,0,0,0,0,0,0,0,0,0,-1,580,414,0,0
-637,610,0,0,0,0,0,0,0,0,0,-1,587,414,0,0
-630,610,0,0,0,0,0,0,0,0,0,-1,594,414,0,0
-623,610,0,0,0,0,0,0,0,0,0,-1,601,414,0,0
-616,610,0,0,0,0,0,0,0,0,0,-1,608,414,0,0
-609,610,0,0,0,0,0,0,0,0,0,-1,615,414,0,0
-602,610,0,0,0,0,0,0,0,0,0,-1,622,414,0,0
-595,610,0,0,0,0,0,0,0,0,0,-1,629,414,0,0
-588,610,0,0,0,0,0,0,0,0,0,-1,636,414,0,0
-581,610,0,0,0,0,0,0,0,0,0,-1,643,414,0,0
-574,610,0,0,0,0,0,0,0,0,0,-1,650,414,0,0
-567,610,0,0,0,0,0,0,0,0,0,-1,657,414,0,0
-560,610,0,0,0,0,0,0,0,0,0,-1,664,414,0,0
-553,610,0,0,0,0,0,0,0,0,0,-1,671,414,0,0
-546,610,0,0,0,0,0,0,0,0,0,-1,678,414,0,0
-539,610,0,0,0,0,0,0,0,0,0,-1,685,414,0,0
-532,610,0,0,0,0,0,0,0,0,0,-1,692,414,0,0
-525,610,0,0,0,0,0,0,0,0,0,-1,699,414,0,0
-518,610,0,0,0,0,0,0,0,0,0,-1,706,414,0,0
-511,610,0,0,0,0,0,0,0,0,0,-1,713,414,0,0
-504,610,0,0,0,0,0,0,0,0,0,-1,720,414,0,0
-497,610,0,0,0,0,0,0,0,0,0,-1,727,414,0,0
-490,610,0,0,0,0,0,0,0,0,0,-1,734,414,0,0
-483,610,0,0,0,0,0,0,0,0,0,-1,741,414,0,0
-476,610,0,0,0,0,0,0,0,0,0,-1,748,414,0,0
-469,610,0,0,0,0,0,0,0,0,0,-1,755,414,0,0
-462,610,0,0,0,0,0,0,0,0,0,-1,762,414,0,0
-455,610,0,0,0,0,0,0,0,0,0,-1,769,414,0,0
-448,610,0,0,0,0,0,0,0,0,0,-1,776,414,0,0
-441,610,0,0,0,0,0,0,0,0,0,-1,783,414,0,0
-434,610,0,0,0,0,0,0,0,0,0,-1,790,414,0,0
-427,610,0,0,0,0,0,0,0,0,0,-1,797,414,0,0
-420,610,0,0,0,0,0,0,0,0,0,-1,804,414,0,0
-413,610,0,0,0,0,0,0,0,0,0,-1,811,414,0,0
-406,610,0,0,0,0,0,0,0,0,0,-1,818,414,0,0
-399,610,0,0,0,0,0,0,0,0,0,-1,825,414,0,0
-392,610,0,0,0,0,0,0,0,0,0,-1,832,414,0,0
-385,610,0,0,0,0,0,0,0,0,0,-1,839,414,0,0
-378,610,0,0,0,0,0,0,0,0,0,-1,846,414,0,0
-371,610,0,0,0,0,0,0,0,0,0,-1,853,414,0,0
-364,610,0,0,0,0,0,0,0,0,0,-1,860,414,0,0
-357,610,0,0,0,0,0,0,0,0,0,-1,867,414,0,0
-350,610,0,0,0,0,0,0,0,0,0,-1,874,414,0,0
-343,610,0,0,0,0,0,0,0,0,0,-1,881,414,0,0
-336,610,0,0,0,0,0,0,0,0,0,-1,888,414,0,0
-329,610,0,0,0,0,0,0,0,0,0,-1,895,414,0,0
-322,610,0,0,0,0,0,0,0,0,0,-1,902,414,0,0
-315,610,4.19971,-8.80606,0,0,0,0,0,0,0,-1,909,414,4.19972,8.80606
-308,610,4.86316,-7.87192,0,0,0,0,0,0,0,-1,916,414,4.86317,7.87193
-301,610,4.92957,-7.07779,0,0,0,0,0,0,0,-1,923,414,4.92957,7.07778
-294,610,5.0918,-6.28671,0,0,0,0,0,0,0,-1,930,414,5.09183,6.28671
-287,610,-0.659546,-9.21835,0,0,0,0,0,0,0,-1,937,414,-0.65956,9.21835
-280,610,-0.524048,-8.94217,0,0,0,0,0,0,0,-1,944,414,-0.524063,8.94217
-273,610,0.0860596,-8.49475,0,0,0,0,0,0,0,-1,951,414,0.0860349,8.49476
-266,610,0.935852,-7.97665,0,0,0,0,0,0,0,-1,958,414,0.935865,7.97665
-259,610,3.16077,-6.27206,0,0,0,0,0,0,0,-1,965,414,3.16078,6.27207
-252,610,1.64099,-7.61609,0.00322328,0.0236823,0.0106724,0.028236,-0.0013304,1.1675,0.0192828,0.0489897,972,414,1.64099,7.6161
-245,610,2.07764,-6.89828,0.0020888,0.0215692,0.00909431,0.0251549,-0.00149683,1.19524,0.0172905,0.0464634,979,414,2.07763,6.89829
-238,610,2.052,-6.99707,0.000877154,0.0189964,0.00740587,0.0216382,-0.00176466,1.22815,0.0150482,0.0374149,986,414,2.05198,6.99707
-231,610,1.98016,-7.18219,-0.000195445,0.0157708,0.00568779,0.0175897,-0.00201443,1.26127,0.0124524,0.0296314,993,414,1.98019,7.18218
-224,610,1.84253,-7.49432,-0.00118375,0.0128241,0.0040994,0.0139356,-0.00229524,1.30603,0.0101424,0.0244686,1000,414,1.84251,7.49432
-217,610,1.84265,-7.65268,-0.00126568,0.00964108,0.00257673,0.0102192,-0.00184379,1.35009,0.00750329,0.0163561,1007,414,1.84262,7.65268
-210,610,1.79773,-7.79852,-0.000918289,0.00669885,0.00129497,0.00691298,-0.00113242,1.40692,0.00502881,0.0102243,1014,414,1.79776,7.79852
-203,610,1.78217,-7.92688,-0.00082049,0.00471377,0.000543774,0.00476669,-0.000873413,1.47378,0.00350539,0.01223,1021,414,1.78217,7.92689
-196,610,1.7793,-8.0336,-0.000831186,0.00219347,-0.000675809,0.0023376,-0.000975317,-1.36067,0.00196588,0.0126117,1028,414,1.77924,8.0336
-189,610,1.78198,-8.12076,-0.000410915,0.000673049,-0.0012071,0.00145426,-0.00119212,-0.996408,0.00153038,0.0104681,1035,414,1.78204,8.12074
-182,610,1.79053,-8.22342,0.000217091,-0.000278941,-0.0012636,0.00125679,-0.00131864,-0.688492,0.00148706,0.0119482,1042,414,1.79055,8.22341
-175,610,1.78674,-8.32983,0.000726468,-0.000921569,-0.00108156,0.00126215,-0.00145725,-0.459867,0.00157139,0.0116811,1049,414,1.78674,8.32984
-168,610,1.76794,-8.44214,0.000976666,-0.00138531,-0.000913929,0.001289,-0.00169764,-0.329301,0.00172971,0.0105731,1056,414,1.76793,8.44214
-161,610,1.74109,-8.56976,0.00114275,-0.00156195,-0.000823657,0.00137383,-0.00179303,-0.273526,0.00183372,0.0107542,1063,414,1.74108,8.56977
-154,610,1.74426,-8.65643,0.00111128,-0.0016066,-0.000619921,0.001246,-0.00174132,-0.213991,0.00173262,0.0136105,1070,414,1.74428,8.65644
-147,610,1.77161,-8.71811,0.000899876,-0.00146244,-0.000344319,0.000949039,-0.0015116,-0.141825,0.00143298,0.0149093,1077,414,1.77157,8.71809
-140,610,1.75391,-8.82181,0.00078601,-0.00123632,-0.0001682,0.000799904,-0.00125022,-0.0824168,0.00119312,0.0118149,1084,414,1.75394,8.82182
-133,610,1.74072,-8.92175,0.000599074,-0.000837485,2.99638e-05,0.000599699,-0.00083811,0.0208459,0.000833914,0.012932,1091,414,1.74074,8.92177
-126,610,1.74243,-9.00406,0.000321034,-0.000206408,0.000168587,0.000370315,-0.000255689,0.284395,0.000363438,0.0116121,1098,414,1.74243,9.00405
-119,610,1.73718,-9.0614,0.000178822,0.000436458,0.000206016,0.000550615,6.46654e-05,1.0648,0.000347533,0.0100209,1105,414,1.7372,9.0614
-112,610,1.73755,-9.12335,9.57246e-05,0.00119425,0.000236905,0.00124316,4.68122e-05,1.36719,0.00081362,0.016804,1112,414,1.73755,9.12335
-105,610,1.7157,-9.19348,7.67877e-05,0.00188861,0.000227047,0.00191663,4.87688e-05,1.44801,0.00126181,0.017153,1119,414,1.71569,9.19349
-98,610,1.75488,-9.29996,0.000112215,0.00254555,0.000152474,0.00255506,0.000102698,1.50846,0.0016702,0.0124067,1126,414,1.75485,9.29996
-91,610,1.77393,-9.35803,0.000203408,0.00313689,6.69947e-05,0.00313842,0.000201879,1.54797,0.00202834,0.0135547,1133,414,1.77392,9.35804
-84,610,1.77991,-9.39569,0.000314895,0.00350501,3.54823e-05,0.0035054,0.0003145,1.55968,0.00223947,0.0142962,1140,414,1.77989,9.3957
-77,610,1.77185,-9.47537,0.000408775,0.00376706,2.94094e-05,0.00376732,0.000408517,1.56204,0.00238706,0.0112126,1147,414,1.77184,9.47537
-70,610,1.78442,-9.54706,0.000576921,0.0037736,0.000119335,0.00377805,0.000572472,1.53353,0.00235122,0.0131856,1154,414,1.7844,9.54705
-63,610,1.79333,-9.57315,0.000128709,0.00564917,-0.000796314,0.00576174,1.61384e-05,-1.43036,0.00383579,0.012127,1161,414,1.79328,9.57314
-56,610,1.82837,-9.59647,-0.00068522,0.00802451,-0.0022168,0.00855626,-0.00121698,-1.33537,0.0061501,0.0102395,1168,414,1.8284,9.59647
-49,610,1.82813,-9.65063,-0.0011736,0.0100935,-0.0031291,0.0109042,-0.00198429,-1.31729,0.0080132,0.0110284,1175,414,1.82813,9.65063
-42,610,1.80493,-9.70969,-0.00260256,0.0133965,-0.00605348,0.0154288,-0.00463484,-1.2469,0.0121296,0.0143319,1182,414,1.80493,9.70968
-35,610,1.82043,-9.74069,-0.00445998,0.0169354,-0.00879134,0.0200843,-0.00760889,-1.22685,0.0165206,0.0143742,1189,414,1.82044,9.7407
-28,610,1.83008,-9.77426,-0.00595234,0.0199881,-0.0112061,0.0241586,-0.0101228,-1.21452,0.0203378,0.0124421,1196,414,1.83007,9.77425
-21,610,1.83594,-9.80566,-0.00116861,0.0207104,-0.0167937,0.0298134,-0.0102716,-1.07408,0.0240423,0.0110181,1203,414,1.8359,9.80567
-14,610,1.84436,-9.78223,0.0027991,0.0195333,-0.0210309,0.0338004,-0.011468,-0.974723,0.0271752,0.0120901,1210,414,1.84432,9.78223
-7,610,1.85303,-9.78723,0.00667095,0.0175787,-0.0231195,0.0358789,-0.0116292,-0.901231,0.0285951,0.0128572,1217,414,1.85305,9.78724
0,610,1.87732,-9.83588,0.0109711,0.0148114,-0.024957,0.037922,-0.0121395,-0.823791,0.0301537,0.00979959,1224,414,1.87727,9.83587
7,610,1.89917,-9.87231,0.0150418,0.0115406,-0.026249,0.0395986,-0.0130161,-0.752102,0.031643,0.0104421,1231,414,1.89915,9.8723
14,610,1.8988,-9.90286,0.0189305,0.00875051,-0.0270643,0.0413793,-0.0136983,-0.692449,0.0331107,0.0123787,1238,414,1.89883,9.90287
21,610,1.9021,-9.90442,0.0216218,0.00526264,-0.027193,0.0418388,-0.0149543,-0.639304,0.0339921,0.0110432,1245,414,1.90213,9.90441
28,610,1.92395,-9.92557,0.023611,0.00217274,-0.0264607,0.0414413,-0.0156576,-0.592952,0.034068,0.0113291,1252,414,1.92394,9.92558
35,610,1.96289,-9.9295,0.0242153,-0.000821464,-0.0252193,0.0398522,-0.0164584,-0.555024,0.0334331,0.0148945,1259,414,1.96289,9.92952
42,610,1.9751,-9.90503,0.0233786,-0.00352381,-0.0234512,0.0369624,-0.0171076,-0.525014,0.0319112,0.0142241,1266,414,1.97512,9.90504
49,610,1.97949,-9.92026,0.0211234,-0.00507043,-0.0212809,0.0330146,-0.0169616,-0.509554,0.0293458,0.0135486,1273,414,1.97947,9.92025
56,610,1.99414,-9.90857,0.0174282,-0.00594573,-0.0192189,0.0282346,-0.0167521,-0.512222,0.0262536,0.0113709,1280,414,1.99411,9.90857
63,610,2.0144,-9.89249,0.0130671,-0.00672101,-0.0170634,0.0228974,-0.0165513,-0.522666,0.0228738,0.0145622,1287,414,2.01437,9.89249
70,610,2.08447,-9.86856,0.0100249,-0.00509462,-0.013489,0.0179281,-0.0129978,-0.529987,0.0179306,0.0210503,1294,414,2.08446,9.86855
77,610,2.07288,-9.86301,0.00804611,-0.00152038,-0.00937655,0.013789,-0.00726326,-0.549539,0.0123476,0.0277841,1301,414,2.07293,9.86301
84,610,2.03577,-9.84113,0.00449512,0.00270826,-0.00669379,0.0103548,-0.00315146,-0.719054,0.00815917,0.0288909,1308,414,2.0358,9.84111
91,610,2.03284,-9.82187,0.00268249,0.00664208,-0.00385666,0.00899743,0.000327148,-1.02253,0.00589226,0.0244423,1315,414,2.03282,9.82188
98,610,2.08301,-9.82251,0.00163695,0.0100074,-0.00177377,0.0103678,0.00127658,-1.37036,0.00652805,0.0230964,1322,414,2.08306,9.82252
105,610,2.09753,-9.7897,0.00113758,0.0132459,0.000440008,0.0132618,0.00112161,1.53452,0.00849209,0.018225,1329,414,2.09759,9.78971
112,610,2.09619,-9.73697,0.00173787,0.0160619,0.00219266,0.0163901,0.00140974,1.42225,0.0104884,0.0124744,1336,414,2.09625,9.73697
119,610,2.06738,-9.70993,0.00276508,0.0175969,0.0035141,0.0183874,0.00197461,1.34954,0.0116559,0.0179126,1343,414,2.06741,9.70993
126,610,2.06677,-9.70132,0.0036039,0.0186169,0.00429994,0.0197612,0.00245956,1.3107,0.0124356,0.0242764,1350,414,2.06681,9.70133
133,610,2.12292,-9.6344,0.00369175,0.0179233,0.00435097,0.0191481,0.00246695,1.2964,0.0120277,0.0195006,1357,414,2.12292,9.63441
140,610,2.1676,-9.59357,0.00329751,0.0161443,0.00399645,0.0172861,0.00215575,1.29252,0.0108769,0.0154588,1364,414,2.1676,9.59358
147,610,2.16479,-9.53271,0.00271557,0.0132373,0.00335483,0.0142159,0.00173692,1.28696,0.00895464,0.0157282,1371,414,2.16483,9.53271
154,610,2.12805,-9.4675,0.00175282,0.00965867,0.00247146,0.0103677,0.0010438,1.29142,0.00659146,0.0204711,1378,414,2.12809,9.46751
161,610,2.15051,-9.4086,0.000755288,0.00644605,0.00175249,0.00694244,0.000258899,1.29478,0.00454445,0.0264453,1385,414,2.15047,9.40861
168,610,2.19385,-9.37781,0.000407652,0.00364074,0.00147093,0.0042098,-0.000161406,1.20166,0.00286185,0.0264435,1392,414,2.19388,9.37779
175,610,2.21362,-9.3197,-0.0017486,-0.000876115,-0.000590426,-0.000578253,-0.00204646,-1.10357,0.0012182,0.0196807,1399,414,2.21366,9.31969
182,610,2.22778,-9.22089,-0.00466166,-0.00590447,-0.00272282,-0.00249024,-0.0080759,-0.673209,0.00477542,0.0136061,1406,414,2.22778,9.22088
189,610,2.22253,-9.15845,-0.00416237,-0.00846362,0.000561826,-0.00409019,-0.0085358,0.127764,0.00492957,0.0120696,1413,414,2.22259,9.15846
196,610,2.20874,-9.09293,-0.00285224,-0.00676611,0.000198709,-0.00284217,-0.00677617,0.0505971,0.00392911,0.0121048,1420,414,2.20871,9.09291
203,610,2.20422,-9.03088,-0.00066868,-0.00452086,-0.00034539,-0.000637956,-0.00455158,-0.0887181,0.00284567,0.0134555,1427,414,2.20418,9.0309
210,610,2.22412,-8.95099,0.000779803,-0.00281628,-0.000735736,0.000924507,-0.00296098,-0.194201,0.00234375,0.0102479,1434,414,2.22414,8.951
217,610,2.2301,-8.83893,0.00075502,-0.00213663,-0.000500786,0.000839292,-0.0022209,-0.166717,0.00182584,0.0153337,1441,414,2.23008,8.83892
224,610,2.22546,-8.75977,0.000629664,-0.001653,-0.000303438,0.000669312,-0.00169265,-0.129926,0.00140569,0.0180204,1448,414,2.22551,8.75976
231,610,2.22534,-8.70795,0.000565568,-0.00113101,-7.86787e-05,0.000569208,-0.00113465,-0.0462426,0.00100162,0.0141764,1455,414,2.22531,8.70795
238,610,2.25146,-8.6347,0.000508641,-0.000525437,0.00013096,0.000524968,-0.000541764,0.124036,0.000615904,0.0105373,1462,414,2.25146,8.63472
245,610,2.26416,-8.52609,0.000439339,1.08096e-05,0.000296098,0.000590565,-0.000140416,0.472194,0.000447913,0.0117049,1469,414,2.26419,8.5261
252,610,2.27356,-8.41953,0.000305722,0.000529054,0.00042863,0.000860324,-2.55492e-05,0.912825,0.000582253,0.0138575,1476,414,2.2735,8.41952
259,610,2.2616,-8.30319,0.000102377,0.00105034,0.000609711,0.00134863,-0.000195914,1.1158,0.000971005,0.0127637,1483,414,2.26164,8.30318
266,610,2.24976,-8.17807,-0.000104826,0.00160538,0.000819242,0.00193449,-0.000433936,1.1888,0.00145602,0.0115936,1490,414,2.24972,8.17807
273,610,2.25854,-8.08398,-0.00023074,0.0023396,0.00107393,0.00272923,-0.000620377,1.22275,0.00205769,0.00938605,1497,414,2.25856,8.08397
280,610,2.25012,-7.97556,-0.000354053,0.00280172,0.0013949,0.00332989,-0.000882225,1.20883,0.00256508,0.00953698,1504,414,2.25018,7.97555
287,610,2.22583,-7.85406,-0.000379014,0.00314798,0.00184814,0.003939,-0.00117003,1.16638,0.00309073,0.0121419,1511,414,2.22579,7.85407
294,610,2.23706,-7.73926,-0.000317456,0.00362817,0.00226628,0.00466002,-0.00134931,1.14354,0.00364077,0.0105256,1518,414,2.23702,7.73925
301,610,2.25012,-7.62759,-0.000169074,0.00400442,0.00270607,0.00533488,-0.00149953,1.11384,0.00414779,0.0099904,1525,414,2.25007,7.6276
308,610,2.26697,-7.50305,0.000115349,0.00427434,0.00326216,0.00606343,-0.00167375,1.06915,0.00470061,0.0113386,1532,414,2.26693,7.50306
315,610,2.26208,-7.38095,0.000511022,0.00429792,0.00378048,0.00663261,-0.00182367,1.01756,0.00513865,0.0122868,1539,414,2.26205,7.38094
322,610,2.23608,-7.25812,0.00105618,0.00413642,0.00432679,0.00718902,-0.00199642,0.956381,0.00557853,0.0124619,1546,414,2.23605,7.25811
329,610,2.21448,-7.11154,0.00171802,0.003488,0.00492859,0.00761042,-0.0024044,0.874232,0.00603686,0.0112847,1553,414,2.21443,7.11153
336,610,2.23096,-6.94028,0.0025083,0.00287259,0.00546064,0.00815413,-0.00277323,0.80207,0.00655893,0.0119703,1560,414,2.23095,6.94029
343,610,2.24048,-6.80048,0.00346981,0.00191663,0.00606167,0.00880443,-0.00341799,0.721687,0.00728146,0.023218,1567,414,2.24043,6.80046
350,610,2.22302,-6.75977,0.00431676,0.000979516,0.0066828,0.0095361,-0.00423983,0.663055,0.00814711,0.0373965,1574,414,2.22301,6.75976
357,610,2.29993,-6.65811,0.00503399,-0.000184159,0.00727309,0.0101518,-0.00530199,0.613183,0.00906753,0.0450478,1581,414,2.29987,6.6581
364,610,2.32642,-6.3927,0.00574001,-0.00158361,0.00780307,0.0106978,-0.00654136,0.566013,0.010049,0.0447457,1588,414,2.32642,6.3927
371,610,2.51831,-6.28,0.00659547,-0.00357911,0.00828429,0.0112298,-0.00821345,0.510041,0.0112705,0.0475673,1595,414,2.51827,6.28
378,610,2.64832,-6.35217,0.0073014,-0.00557405,0.00890373,0.011851,-0.0101236,0.472388,0.0127001,0.0477136,1602,414,2.64829,6.35217
385,610,2.6438,-6.48584,0,0,0,0,0,0,0,-1,1609,414,2.64374,6.48585
392,610,2.54626,0.0437622,0,0,0,0,0,0,0,-1,1616,414,2.54632,-0.0437683
399,610,3.03833,-2.82547,0,0,0,0,0,0,0,-1,1623,414,3.03827,2.82546
406,610,2.91687,-2.9166,0,0,0,0,0,0,0,-1,1630,414,2.91688,2.91659
413,610,3.01929,-3.20306,0,0,0,0,0,0,0,-1,1637,414,3.01929,3.20306
420,610,4.78149,-3.64041,0,0,0,0,0,0,0,-1,1644,414,4.78152,3.64042
427,610,5.20764,-4.67545,0,0,0,0,0,0,0,-1,1651,414,5.20759,4.67545
434,610,5.39233,-5.45441,0,0,0,0,0,0,0,-1,1658,414,5.39228,5.4544
441,610,0,0,0,0,0,0,0,0,0,-1,1665,414,0,0
448,610,0,0,0,0,0,0,0,0,0,-1,1672,414,0,0
455,610,0,0,0,0,0,0,0,0,0,-1,1679,414,0,0
462,610,0,0,0,0,0,0,0,0,0,-1,1686,414,0,0
469,610,0,0,0,0,0,0,0,0,0,-1,1693,414,0,0
476,610,0,0,0,0,0,0,0,0,0,-1,1700,414,0,0
483,610,0,0,0,0,0,0,0,0,0,-1,1707,414,0,0
490,610,0,0,0,0,0,0,0,0,0,-1,1714,414,0,0
497,610,0,0,0,0,0,0,0,0,0,-1,1721,414,0,0
504,610,0,0,0,0,0,0,0,0,0,-1,1728,414,0,0
511,610,0,0,0,0,0,0,0,0,0,-1,1735,414,0,0
518,610,0,0,0,0,0,0,0,0,0,-1,1742,414,0,0
525,610,0,0,0,0,0,0,0,0,0,-1,1749,414,0,0
532,610,0,0,0,0,0,0,0,0,0,-1,1756,414,0,0
539,610,0,0,0,0,0,0,0,0,0,-1,1763,414,0,0
546,610,0,0,0,0,0,0,0,0,0,-1,1770,414,0,0
553,610,0,0,0,0,0,0,0,0,0,-1,1777,414,0,0
560,610,0,0,0,0,0,0,0,0,0,-1,1784,414,0,0
567,610,0,0,0,0,0,0,0,0,0,-1,1791,414,0,0
574,610,0,0,0,0,0,0,0,0,0,-1,1798,414,0,0
581,610,0,0,0,0,0,0,0,0,0,-1,1805,414,0,0
588,610,0,0,0,0,0,0,0,0,0,-1,1812,414,0,0
595,610,0,0,0,0,0,0,0,0,0,-1,1819,414,0,0
602,610,0,0,0,0,0,0,0,0,0,-1,1826,414,0,0
609,610,0,0,0,0,0,0,0,0,0,-1,1833,414,0,0
616,610,0,0,0,0,0,0,0,0,0,-1,1840,414,0,0
623,610,0,0,0,0,0,0,0,0,0,-1,1847,414,0,0
630,610,0,0,0,0,0,0,0,0,0,-1,1854,414,0,0
637,610,0,0,0,0,0,0,0,0,0,-1,1861,414,0,0
644,610,0,0,0,0,0,0,0,0,0,-1,1868,414,0,0
651,610,0,0,0,0,0,0,0,0,0,-1,1875,414,0,0
658,610,0,0,0,0,0,0,0,0,0,-1,1882,414,0,0
665,610,0,0,0,0,0,0,0,0,0,-1,1889,414,0,0
672,610,0,0,0,0,0,0,0,0,0,-1,1896,414,0,0
679,610,0,0,0,0,0,0,0,0,0,-1,1903,414,0,0
686,610,0,0,0,0,0,0,0,0,0,-1,1910,414,0,0
693,610,0,0,0,0,0,0,0,0,0,-1,1917,414,0,0
700,610,0,0,0,0,0,0,0,0,0,-1,1924,414,0,0
707,610,0,0,0,0,0,0,0,0,0,-1,1931,414,0,0
714,610,0,0,0,0,0,0,0,0,0,-1,1938,414,0,0
721,610,0,0,0,0,0,0,0,0,0,-1,1945,414,0,0
728,610,0,0,0,0,0,0,0,0,0,-1,1952,414,0,0
735,610,0,0,0,0,0,0,0,0,0,-1,1959,414,0,0
742,610,0,0,0,0,0,0,0,0,0,-1,1966,414,0,0
749,610,0,0,0,0,0,0,0,0,0,-1,1973,414,0,0
756,610,0,0,0,0,0,0,0,0,0,-1,1980,414,0,0
763,610,0,0,0,0,0,0,0,0,0,-1,1987,414,0,0
770,610,0,0,0,0,0,0,0,0,0,-1,1994,414,0,0
777,610,0,0,0,0,0,0,0,0,0,-1,2001,414,0,0
784,610,0,0,0,0,0,0,0,0,0,-1,2008,414,0,0
791,610,0,0,0,0,0,0,0,0,0,-1,2015,414,0,0
798,610,0,0,0,0,0,0,0,0,0,-1,2022,414,0,0
805,610,0,0,0,0,0,0,0,0,0,-1,2029,414,0,0
812,610,0,0,0,0,0,0,0,0,0,-1,2036,414,0,0
-700,603,0,0,0,0,0,0,0,0,0,-1,524,421,0,0
-693,603,0,0,0,0,0,0,0,0,0,-1,531,421,0,0
-686,603,0,0,0,0,0,0,0,0,0,-1,538,421,0,0
-679,603,0,0,0,0,0,0,0,0,0,-1,545,421,0,0
-672,603,0,0,0,0,0,0,0,0,0,-1,552,421,0,0
-665,603,0,0,0,0,0,0,0,0,0,-1,559,421,0,0
-658,603,0,0,0,0,0,0,0,0,0,-1,566,421,0,0
-651,603,0,0,0,0,0,0,0,0,0,-1,573,421,0,0
-644,603,0,0,0,0,0,0,0,0,0,-1,580,421,0,0
-637,603,0,0,0,0,0,0,0,0,0,-1,587,421,0,0
-630,603,0,0,0,0,0,0,0,0,0,-1,594,421,0,0
-623,603,0,0,0,0,0,0,0,0,0,-1,601,421,0,0
-616,603,0,0,0,0,0,0,0,0,0,-1,608,421,0,0
-609,603,0,0,0,0,0,0,0,0,0,-1,615,421,0,0
-602,603,0,0,0,0,0,0,0,0,0,-1,622,421,0,0
-595,603,0,0,0,0,0,0,0,0,0,-1,629,421,0,0
-588,603,0,0,0,0,0,0,0,0,0,-1,636,421,0,0
-581,603,0,0,0,0,0,0,0,0,0,-1,643,421,0,0
-574,603,0,0,0,0,0,0,0,0,0,-1,650,421,0,0
-567,603,0,0,0,0,0,0,0,0,0,-1,657,421,0,0
-560,603,0,0,0,0,0,0,0,0,0,-1,664,421,0,0
-553,603,0,0,0,0,0,0,0,0,0,-1,671,421,0,0
-546,603,0,0,0,0,0,0,0,0,0,-1,678,421,0,0
-539,603,0,0,0,0,0,0,0,0,0,-1,685,421,0,0
-532,603,0,0,0,0,0,0,0,0,0,-1,692,421,0,0
-525,603,0,0,0,0,0,0,0,0,0,-1,699,421,0,0
-518,603,0,0,0,0,0,0,0,0,0,-1,706,421,0,0
-511,603,0,0,0,0,0,0,0,0,0,-1,713,421,0,0
-504,603,0,0,0,0,0,0,0,0,0,-1,720,421,0,0
-497,603,0,0,0,0,0,0,0,0,0,-1,727,421,0,0
-490,603,0,0,0,0,0,0,0,0,0,-1,734,421,0,0
-483,603,0,0,0,0,0,0,0,0,0,-1,741,421,0,0
-476,603,0,0,0,0,0,0,0,0,0,-1,748,421,0,0
-469,603,0,0,0,0,0,0,0,0,0,-1,755,421,0,0
-462,603,0,0,0,0,0,0,0,0,0,-1,762,421,0,0
-455,603,0,0,0,0,0,0,0,0,0,-1,769,421,0,0
-448,603,0,0,0,0,0,0,0,0,0,-1,776,421,0,0
-441,603,0,0,0,0,0,0,0,0,0,-1,783,421,0,0
-434,603,0,0,0,0,0,0,0,0,0,-1,790,421,0,0
-427,603,0,0,0,0,0,0,0,0,0,-1,797,421,0,0
-420,603,0,0,0,0,0,0,0,0,0,-1,804,421,0,0
-413,603,0,0,0,0,0,0,0,0,0,-1,811,421,0,0
-406,603,0,0,0,0,0,0,0,0,0,-1,818,421,0,0
-399,603,0,0,0,0,0,0,0,0,0,-1,825,421,0,0
-392,603,0,0,0,0,0,0,0,0,0,-1,832,421,0,0
-385,603,0,0,0,0,0,0,0,0,0,-1,839,421,0,0
-378,603,0,0,0,0,0,0,0,0,0,-1,846,421,0,0
-371,603,0,0,0,0,0,0,0,0,0,-1,853,421,0,0
-364,603,0,0,0,0,0,0,0,0,0,-1,860,421,0,0
-357,603,0,0,0,0,0,0,0,0,0,-1,867,421,0,0
-350,603,0,0,0,0,0,0,0,0,0,-1,874,421,0,0
-343,603,0,0,0,0,0,0,0,0,0,-1,881,421,0,0
-336,603,0,0,0,0,0,0,0,0,0,-1,888,421,0,0
-329,603,2.60486,-10.5288,0,0,0,0,0,0,0,-1,895,421,2.60488,10.5288
-322,603,2.92212,-10.1007,0,0,0,0,0,0,0,-1,902,421,2.92213,10.1007
-315,603,3.2041,-9.34003,0,0,0,0,0,0,0,-1,909,421,3.20408,9.34003
-308,603,3.28351,-8.36868,0,0,0,0,0,0,0,-1,916,421,3.28348,8.36868
-301,603,3.22705,-7.12155,0,0,0,0,0,0,0,-1,923,421,3.22707,7.12155
-294,603,1.5553,-6.01224,0,0,0,0,0,0,0,-1,930,421,1.55532,6.01223
-287,603,1.67377,-6.26941,0,0,0,0,0,0,0,-1,937,421,1.67375,6.2694
-280,603,-0.615967,-8.22064,0,0,0,0,0,0,0,-1,944,421,-0.615986,8.22065
-273,603,1.74658,-6.70129,0,0,0,0,0,0,0,-1,951,421,1.74659,6.7013
-266,603,1.8584,-6.62198,0,0,0,0,0,0,0,-1,958,421,1.85842,6.62196
-259,603,1.34015,-7.07431,0.00294731,0.0170668,0.0077897,0.0205199,-0.000505773,1.15354,0.0138516,0.0460348,965,421,1.34016,7.07432
-252,603,1.55389,-7.26773,0.00253432,0.016203,0.00699854,0.0191507,-0.000413341,1.17216,0.0129071,0.0387146,972,421,1.55391,7.26774
-245,603,1.62933,-7.30817,0.00184629,0.0151008,0.00604236,0.0174419,-0.000494764,1.20116,0.0117963,0.0298711,979,421,1.62936,7.30816
-238,603,1.71191,-7.27982,0.00100694,0.0135095,0.00501507,0.0152725,-0.000756105,1.23274,0.0104429,0.0165697,986,421,1.71191,7.27981
-231,603,1.71533,-7.43054,0.000196631,0.0114186,0.00394737,0.012668,-0.00105277,1.26426,0.00881722,0.0115626,993,421,1.71536,7.43054
-224,603,1.69812,-7.58386,-0.000537607,0.0094432,0.00290925,0.0102293,-0.0013237,1.30689,0.00730087,0.0128569,1000,421,1.69809,7.58387
-217,603,1.69568,-7.68826,-0.000878645,0.00750547,0.00190828,0.00791937,-0.00129255,1.35721,0.00575898,0.0120651,1007,421,1.69569,7.68826
-210,603,1.6897,-7.80939,-0.000937539,0.00565531,0.00103862,0.00581506,-0.00109729,1.41818,0.00428951,0.00985726,1014,421,1.68967,7.80939
-203,603,1.68109,-7.92969,-0.00103583,0.00433685,0.000544566,0.00439149,-0.00109047,1.47079,0.00335083,0.0155543,1021,421,1.6811,7.9297
-196,603,1.69568,-8.05344,-0.00121393,0.00256512,-0.000336123,0.00259478,-0.00124359,-1.48277,0.00226139,0.0158619,1028,421,1.69567,8.05343
-189,603,1.69739,-8.12415,-0.00104735,0.00145749,-0.000715296,0.00164736,-0.00123722,-1.31134,0.00167102,0.0126236,1035,421,1.69733,8.12416
-182,603,1.68652,-8.24667,-0.000688266,0.000685824,-0.000706643,0.000984363,-0.000986805,-1.17107,0.00113805,0.0105088,1042,421,1.68656,8.24667
-175,603,1.66541,-8.36276,-0.000371983,0.00014226,-0.000507147,0.000453742,-0.000683464,-1.02001,0.000661016,0.0113295,1049,421,1.66542,8.36276
-168,603,1.65735,-8.44897,-0.00022336,-0.000316916,-0.000322709,5.59434e-05,-0.000596219,-0.713422,0.000417379,0.0135344,1056,421,1.65731,8.44898
-161,603,1.64575,-8.55682,-0.00011176,-0.000581243,-0.000216643,-2.70679e-05,-0.000665935,-0.372661,0.000435215,0.0130553,1063,421,1.64572,8.55682
-154,603,1.64343,-8.66711,-0.0001292,-0.000767689,-2.09643e-05,-0.000128513,-0.000768377,-0.0327872,0.000475241,0.0123822,1070,421,1.64348,8.66712
-147,603,1.69324,-8.73221,-0.000273452,-0.000805461,0.000255438,-0.000170666,-0.000908248,0.382569,0.000557388,0.0134257,1077,421,1.69319,8.73222
-140,603,1.70068,-8.79749,-0.000275934,-0.000786341,0.000402691,-5.43896e-05,-0.00100789,0.502967,0.000654548,0.0114958,1084,421,1.70071,8.79748
-133,603,1.66809,-8.88293,-0.000293989,-0.000604757,0.000527957,0.000100975,-0.000999721,0.642283,0.000702562,0.0124992,1091,421,1.66814,8.88293
-126,603,1.66309,-8.96783,-0.000408188,-0.000207718,0.000598867,0.000299244,-0.00091515,0.868317,0.00073057,0.0114637,1098,421,1.66305,8.96782
-119,603,1.6842,-9.03601,-0.000422918,0.000324945,0.000571584,0.000634046,-0.000732019,1.07506,0.000789374,0.010357,1105,421,1.68426,9.03602
-112,603,1.66357,-9.10773,-0.000309831,0.00100421,0.000548998,0.00120339,-0.000509008,1.22276,0.00101539,0.0137249,1112,421,1.66358,9.10774
-105,603,1.66394,-9.20511,-0.000188033,0.0017265,0.000476939,0.00183874,-0.000300266,1.33968,0.0013372,0.0140979,1119,421,1.66393,9.2051
-98,603,1.68506,-9.26608,-0.000110558,0.00257069,0.0003464,0.00261472,-0.000154588,1.44437,0.0017969,0.0120584,1126,421,1.68511,9.26609
-91,603,1.6958,-9.32413,2.14406e-05,0.00345664,0.000218936,0.00347054,7.54336e-06,1.50741,0.00231118,0.0092573,1133,421,1.69583,9.32414
-84,603,1.7124,-9.40735,0.000203178,0.00405326,0.000207206,0.00406438,0.000192058,1.51718,0.00264789,0.00942223,1140,421,1.71235,9.40736
-77,603,1.72522,-9.48001,0.000375982,0.00466599,0.000232215,0.00467852,0.000363449,1.51688,0.0030052,0.0101895,1147,421,1.72517,9.48
-70,603,1.75452,-9.60474,0.000644051,0.00485837,0.00039947,0.0048959,0.000606519,1.47712,0.00308172,0.019711,1154,421,1.75448,9.60473
-63,603,1.78662,-9.73627,-0.000365355,0.0088318,-0.00152033,0.00907661,-0.000610157,-1.41115,0.00626437,0.0359441,1161,421,1.78656,9.73627
-56,603,1.73352,-9.69263,-0.0020366,0.0136026,-0.00434117,0.0147269,-0.00316082,-1.3174,0.0110236,0.0445122,1168,421,1.73353,9.69263
-49,603,1.73682,-9.74936,-0.00306563,0.0175768,-0.0062902,0.0193425,-0.00483136,-1.29713,0.0147712,0.0489647,1175,421,1.73684,9.74936
-42,603,1.75342,-9.69086,0,0,0,0,0,0,0,-1,1182,421,1.75337,9.69084
-35,603,1.7113,-9.70358,-0.00919575,0.0305948,-0.0166401,0.0366363,-0.0152372,-1.22253,0.0307869,0.0367347,1189,421,1.71126,9.70359
-28,603,1.71887,-9.73441,-0.0117527,0.0360393,-0.0207874,0.0438157,-0.019529,-1.21283,0.0374574,0.0221426,1196,421,1.71883,9.7344
-21,603,1.75842,-9.76532,-0.00518084,0.0375142,-0.0286873,0.0519253,-0.0195919,-1.10527,0.0426739,0.0203783,1203,421,1.75842,9.76531
-14,603,1.8623,-9.76126,5.93803e-05,0.036366,-0.0343225,0.0570402,-0.0206149,-1.02865,0.0464492,0.0204701,1210,421,1.86233,9.76127
-7,603,1.89355,-9.80252,0.00520143,0.0330688,-0.0371907,0.0588503,-0.0205801,-0.964632,0.0476004,0.0211479,1217,421,1.89351,9.80253
0,603,1.85107,-9.85825,0.0107224,0.0290445,-0.0393747,0.0603098,-0.020543,-0.899696,0.048526,0.0241495,1224,421,1.85104,9.85824
7,603,1.88403,-9.84683,0.0159577,0.0243739,-0.0408962,0.0612779,-0.0209464,-0.836666,0.0493391,0.0302943,1231,421,1.88405,9.84684
14,603,1.92419,-9.84546,0.0212127,0.0201748,-0.0418512,0.0625481,-0.0211607,-0.779198,0.0502598,0.0281719,1238,421,1.92421,9.84545
21,603,1.96204,-9.86514,0.0252523,0.0149812,-0.0419259,0.0623561,-0.0221225,-0.724456,0.050584,0.0208369,1245,421,1.96208,9.86515
28,603,2.03345,-9.883,0.0283199,0.0102852,-0.0405611,0.0608538,-0.0222488,-0.676019,0.049675,0.0234662,1252,421,2.03345,9.88299
35,603,2.06494,-9.84247,0.0295346,0.00560139,-0.0383968,0.0577863,-0.0226504,-0.63434,0.0478943,0.0310648,1259,421,2.06499,9.84247
42,603,1.97729,-9.87384,0.0287677,0.00123528,-0.0355731,0.0531454,-0.0231424,-0.60078,0.0451659,0.0286428,1266,421,1.97727,9.87385
49,603,1.9707,-9.90912,0.0260099,-0.00169156,-0.0320827,0.047104,-0.0227857,-0.581624,0.041157,0.0156999,1273,421,1.97068,9.90911
56,603,2.03577,-9.8858,0.0211432,-0.00373335,-0.0285398,0.0398374,-0.0224276,-0.579898,0.0364141,0.0259875,1280,421,2.03581,9.88579
63,603,2.07654,-9.83914,0.0153926,-0.0058262,-0.0250161,0.0319561,-0.0223897,-0.584843,0.0315382,0.0340105,1287,421,2.07657,9.83913
70,603,2.18677,-9.71317,0.0109712,-0.00513571,-0.0199789,0.0244588,-0.0186232,-0.593811,0.0249494,0.0397577,1294,421,2.18681,9.71316
77,603,2.20593,-9.71954,0.00771928,-0.00205269,-0.0143902,0.0180303,-0.0123637,-0.621737,0.0176494,0.044151,1301,421,2.20595,9.71954
84,603,2.12988,-9.83954,0.00247503,0.00200001,-0.0106704,0.0129106,-0.00843553,-0.774271,0.0124141,0.0449571,1308,421,2.1299,9.83955
91,603,2.07922,-9.83755,-0.000586299,0.00583928,-0.00692268,0.0102584,-0.00500538,-1.00266,0.0089848,0.0458601,1315,421,2.07926,9.83756
98,603,2.3761,-9.76007,-0.00260516,0.00919742,-0.00423022,0.010557,-0.00396472,-1.25983,0.00866729,0.0462321,1322,421,2.37614,9.76009
105,603,2.3374,-9.6741,-0.00382106,0.0122857,-0.00165026,0.012453,-0.00398841,-1.46974,0.00990294,0.0386091,1329,421,2.33734,9.6741
112,603,2.22107,-9.73199,-0.00355752,0.0149574,0.000294971,0.0149621,-0.00356222,1.55487,0.01135,0.0297769,1336,421,2.22104,9.73198
119,603,2.16309,-9.7063,-0.00266039,0.0161988,0.00170598,0.0163519,-0.00281347,1.48131,0.01195,0.0320597,1343,421,2.16313,9.70629
126,603,2.17517,-9.68216,-0.00201326,0.0169726,0.00237657,0.0172656,-0.00230622,1.44814,0.0123511,0.038037,1350,421,2.17521,9.68217
133,603,2.23926,-9.60037,-0.00227966,0.0156122,0.00210902,0.0158574,-0.0025249,1.45503,0.011506,0.0328216,1357,421,2.2393,9.60038
140,603,2.24719,-9.55969,-0.0030827,0.0130813,0.00152572,0.013224,-0.00322546,1.4775,0.0100649,0.0209498,1364,421,2.24721,9.55969
147,603,2.20764,-9.53156,-0.00408134,0.00922596,0.000854075,0.00928055,-0.00413593,1.50696,0.00793357,0.016444,1371,421,2.20769,9.53156
154,603,2.17883,-9.46222,-0.00553754,0.00469782,5.37211e-06,0.00469782,-0.00553755,1.57027,0.00591602,0.0254874,1378,421,2.17888,9.46222
161,603,2.18506,-9.40436,-0.00673877,0.000940925,-0.000463692,0.000968821,-0.00676666,-1.51071,0.0048663,0.0305644,1385,421,2.18507,9.40436
168,603,2.22437,-9.35983,-0.0064721,-0.00179429,-0.000194418,-0.00178623,-0.00648017,-1.52933,0.00386484,0.027896,1392,421,2.2244,9.35984
175,603,2.35071,-9.2905,-0.00791783,-0.00603233,-0.00183345,-0.00491345,-0.00903671,-1.02287,0.00522399,0.0287128,1399,421,2.35073,9.2905
182,603,2.43433,-9.18048,-0.0106924,-0.0115605,-0.00399038,-0.0071125,-0.0151403,-0.731223,0.0087466,0.0327252,1406,421,2.43438,9.18049
189,603,2.44995,-9.09036,-0.0093912,-0.0148743,0.000946947,-0.00923226,-0.0150332,0.166288,0.00875448,0.0276988,1413,421,2.44994,9.09036
196,603,2.3136,-9.0517,-0.00689644,-0.0120572,0.00040727,-0.00686449,-0.0120892,0.0782704,0.00700106,0.0200742,1420,421,2.31364,9.05171
203,603,2.29956,-9.00125,-0.00272135,-0.00800844,-0.000500181,-0.00267444,-0.00805534,-0.0934989,0.00473745,0.0107127,1427,421,2.29959,9.00126
210,603,2.32019,-8.94705,0.000546474,-0.00476703,-0.00123551,0.000819708,-0.00504026,-0.217648,0.0036641,0.0096276,1434,421,2.32023,8.94706
217,603,2.32593,-8.85165,0.00118411,-0.0034539,-0.000940486,0.00136756,-0.00363736,-0.192643,0.002987,0.0126521,1441,421,2.32596,8.85165
224,603,2.33521,-8.76727,0.00106126,-0.00278721,-0.00072393,0.00119294,-0.00291888,-0.179919,0.00244268,0.0156345,1448,421,2.33526,8.76726
231,603,2.33545,-8.69455,0.00103426,-0.00209078,-0.000508906,0.00111504,-0.00217157,-0.157431,0.00192993,0.0134932,1455,421,2.33546,8.69456
238,603,2.33691,-8.60226,0.00106623,-0.00134711,-0.000302323,0.00110352,-0.00138441,-0.122745,0.00143945,0.0100069,1462,421,2.33691,8.60227
245,603,2.35339,-8.50195,0.00108048,-0.000669862,-0.000156173,0.0010943,-0.000683688,-0.0882952,0.00103561,0.010775,1469,421,2.35342,8.50195
252,603,2.35876,-8.4082,0.000990776,-6.10189e-05,-7.01676e-05,0.000995436,-6.56793e-05,-0.0663206,0.000686565,0.0105877,1476,421,2.35877,8.4082
259,603,2.35181,-8.30536,0.000792002,0.000463677,4.62843e-05,0.000798402,0.000457277,0.137404,0.000462581,0.010643,1483,421,2.35179,8.30535
266,603,2.34094,-8.18884,0.000588501,0.000938706,0.000169339,0.0010072,0.000520012,1.18646,0.000581607,0.0105792,1490,421,2.3409,8.18884
273,603,2.3468,-8.08401,0.000453097,0.00159625,0.000332631,0.00168599,0.000363354,1.30727,0.00102458,0.00971066,1497,421,2.34681,8.08403
280,603,2.35962,-7.95621,0.00024331,0.00193329,0.000537116,0.00208955,8.70491e-05,1.28769,0.00136494,0.011433,1504,421,2.3596,7.95621
287,603,2.36963,-7.83801,0.000128277,0.00212322,0.000882039,0.00245727,-0.00020577,1.20877,0.0017109,0.0116776,1511,421,2.36965,7.83802
294,603,2.36865,-7.74435,0.000119134,0.00242468,0.00119545,0.00293263,-0.000388811,1.16901,0.00209674,0.0104001,1518,421,2.36867,7.74434
301,603,2.36426,-7.62607,0.000145782,0.0026407,0.00153178,0.00336871,-0.000582236,1.12712,0.00246294,0.0118495,1525,421,2.36422,7.62607
308,603,2.37952,-7.48691,0.000296281,0.00284371,0.00199616,0.00393791,-0.000797919,1.06937,0.00292771,0.0160402,1532,421,2.37948,7.48692
315,603,2.37231,-7.38589,0.000560174,0.00285366,0.00243569,0.00439905,-0.000985217,1.00541,0.00331034,0.0146127,1539,421,2.37231,7.3859
322,603,2.36108,-7.26962,0.000936549,0.00274283,0.00291197,0.0048885,-0.00120912,0.935768,0.00372799,0.0145211,1546,421,2.36108,7.26964
329,603,2.34204,-7.11398,0.00141695,0.00225546,0.00344537,0.00530699,-0.00163458,0.845944,0.0041905,0.010951,1553,421,2.34203,7.11398
336,603,2.34827,-6.97205,0.00196932,0.00182697,0.00393562,0.00583441,-0.00203811,0.776356,0.00471807,0.00895237,1560,421,2.34828,6.97205
343,603,2.36194,-6.8389,0.0025995,0.00115749,0.00444966,0.00638619,-0.0026292,0.705079,0.00535357,0.0101271,1567,421,2.36189,6.83889
350,603,2.35278,-6.70145,0.00317794,0.000517962,0.00498242,0.00700483,-0.00330893,0.654971,0.00608076,0.0163351,1574,421,2.35276,6.70145
357,603,2.33826,-6.53809,0.00366389,-0.000254654,0.00549591,0.00753933,-0.00413009,0.614173,0.00683251,0.0187785,1581,421,2.3382,6.53809
364,603,2.32629,-6.37247,0.00411697,-0.00113926,0.00594232,0.0079864,-0.0050087,0.577194,0.0075681,0.0176671,1588,421,2.32631,6.37247
371,603,2.39819,-6.24356,0.00462865,-0.00241794,0.00634916,0.00836659,-0.00615587,0.532091,0.00841686,0.0190933,1595,421,2.39823,6.24355
378,603,2.44653,-6.13208,0.00496143,-0.00376995,0.00680306,0.00867911,-0.00748763,0.50013,0.00934232,0.0292301,1602,421,2.4465,6.13208
385,603,2.46436,-5.89825,0.00501584,-0.00447525,0.00702452,0.00874757,-0.00820698,0.488328,0.00979037,0.0447108,1609,421,2.46437,5.89824
392,603,2.45166,-5.81622,0,0,0,0,0,0,0,-1,1616,421,2.45161,5.81622
399,603,2.38013,-5.37076,0,0,0,0,0,0,0,-1,1623,421,2.38016,5.37075
406,603,3.01917,-2.37219,0,0,0,0,0,0,0,-1,1630,421,3.01915,2.37219
413,603,2.38928,-2.41275,0,0,0,0,0,0,0,-1,1637,421,2.38926,2.41274
420,603,2.74866,-2.30066,0,0,0,0,0,0,0,-1,1644,421,2.74867,2.30065
427,603,7.11548,-3.35352,0,0,0,0,0,0,0,-1,1651,421,7.11549,3.35351
434,603,7.32153,-4.50525,0,0,0,0,0,0,0,-1,1658,421,7.32149,4.50525
441,603,3.18213,-0.250946,0,0,0,0,0,0,0,-1,1665,421,3.18212,0.250944
448,603,2.95667,-0.066925,0,0,0,0,0,0,0,-1,1672,421,2.95662,0.0669226
455,603,0,0,0,0,0,0,0,0,0,-1,1679,421,0,0
462,603,0,0,0,0,0,0,0,0,0,-1,1686,421,0,0
469,603,0,0,0,0,0,0,0,0,0,-1,1693,421,0,0
476,603,0,0,0,0,0,0,0,0,0,-1,1700,421,0,0
483,603,0,0,0,0,0,0,0,0,0,-1,1707,421,0,0
490,603,0,0,0,0,0,0,0,0,0,-1,1714,421,0,0
497,603,0,0,0,0,0,0,0,0,0,-1,1721,421,0,0
504,603,0,0,0,0,0,0,0,0,0,-1,1728,421,0,0
511,603,0,0,0,0,0,0,0,0,0,-1,1735,421,0,0
518,603,0,0,0,0,0,0,0,0,0,-1,1742,421,0,0
525,603,0,0,0,0,0,0,0,0,0,-1,1749,421,0,0
532,603,0,0,0,0,0,0,0,0,0,-1,1756,421,0,0
539,603,0,0,0,0,0,0,0,0,0,-1,1763,421,0,0
546,603,0,0,0,0,0,0,0,0,0,-1,1770,421,0,0
553,603,0,0,0,0,0,0,0,0,0,-1,1777,421,0,0
560,603,0,0,0,0,0,0,0,0,0,-1,1784,421,0,0
567,603,0,0,0,0,0,0,0,0,0,-1,1791,421,0,0
574,603,0,0,0,0,0,0,0,0,0,-1,1798,421,0,0
581,603,0,0,0,0,0,0,0,0,0,-1,1805,421,0,0
588,603,0,0,0,0,0,0,0,0,0,-1,1812,421,0,0
595,603,0,0,0,0,0,0,0,0,0,-1,1819,421,0,0
602,603,0,0,0,0,0,0,0,0,0,-1,1826,421,0,0
609,603,0,0,0,0,0,0,0,0,0,-1,1833,421,0,0
616,603,0,0,0,0,0,0,0,0,0,-1,1840,421,0,0
623,603,0,0,0,0,0,0,0,0,0,-1,1847,421,0,0
630,603,0,0,0,0,0,0,0,0,0,-1,1854,421,0,0
637,603,0,0,0,0,0,0,0,0,0,-1,1861,421,0,0
644,603,0,0,0,0,0,0,0,0,0,-1,1868,421,0,0
651,603,0,0,0,0,0,0,0,0,0,-1,1875,421,0,0
658,603,0,0,0,0,0,0,0,0,0,-1,1882,421,0,0
665,603,0,0,0,0,0,0,0,0,0,-1,1889,421,0,0
672,603,0,0,0,0,0,0,0,0,0,-1,1896,421,0,0
679,603,0,0,0,0,0,0,0,0,0,-1,1903,421,0,0
686,603,0,0,0,0,0,0,0,0,0,-1,1910,421,0,0
693,603,0,0,0,0,0,0,0,0,0,-1,1917,421,0,0
700,603,0,0,0,0,0,0,0,0,0,-1,1924,421,0,0
707,603,0,0,0,0,0,0,0,0,0,-1,1931,421,0,0
714,603,0,0,0,0,0,0,0,0,0,-1,1938,421,0,0
721,603,0,0,0,0,0,0,0,0,0,-1,1945,421,0,0
728,603,0,0,0,0,0,0,0,0,0,-1,1952,421,0,0
735,603,0,0,0,0,0,0,0,0,0,-1,1959,421,0,0
742,603,0,0,0,0,0,0,0,0,0,-1,1966,421,0,0
749,603,0,0,0,0,0,0,0,0,0,-1,1973,421,0,0
756,603,0,0,0,0,0,0,0,0,0,-1,1980,421,0,0
763,603,0,0,0,0,0,0,0,0,0,-1,1987,421,0,0
770,603,0,0,0,0,0,0,0,0,0,-1,1994,421,0,0
777,603,0,0,0,0,0,0,0,0,0,-1,2001,421,0,0
784,603,0,0,0,0,0,0,0,0,0,-1,2008,421,0,0
791,603,0,0,0,0,0,0,0,0,0,-1,2015,421,0,0
798,603,0,0,0,0,0,0,0,0,0,-1,2022,421,0,0
805,603,0,0,0,0,0,0,0,0,0,-1,2029,421,0,0
812,603,0,0,0,0,0,0,0,0,0,-1,2036,421,0,0
-700,596,0,0,0,0,0,0,0,0,0,-1,524,428,0,0
-693,596,0,0,0,0,0,0,0,0,0,-1,531,428,0,0
-686,596,0,0,0,0,0,0,0,0,0,-1,538,428,0,0
-679,596,0,0,0,0,0,0,0,0,0,-1,545,428,0,0
-672,596,0,0,0,0,0,0,0,0,0,-1,552,428,0,0
-665,596,0,0,0,0,0,0,0,0,0,-1,559,428,0,0
-658,596,0,0,0,0,0,0,0,0,0,-1,566,428,0,0
-651,596,0,0,0,0,0,0,0,0,0,-1,573,428,0,0
-644,596,0,0,0,0,0,0,0,0,0,-1,580,428,0,0
-637,596,0,0,0,0,0,0,0,0,0,-1,587,428,0,0
-630,596,0,0,0,0,0,0,0,0,0,-1,594,428,0,0
-623,596,0,0,0,0,0,0,0,0,0,-1,601,428,0,0
-616,596,0,0,0,0,0,0,0,0,0,-1,608,428,0,0
-609,596,0,0,0,0,0,0,0,0,0,-1,615,428,0,0
-602,596,0,0,0,0,0,0,0,0,0,-1,622,428,0,0
-595,596,0,0,0,0,0,0,0,0,0,-1,629,428,0,0
-588,596,0,0,0,0,0,0,0,0,0,-1,636,428,0,0
-581,596,0,0,0,0,0,0,0,0,0,-1,643,428,0,0
-574,596,0,0,0,0,0,0,0,0,0,-1,650,428,0,0
-567,596,0,0,0,0,0,0,0,0,0,-1,657,428,0,0
-560,596,0,0,0,0,0,0,0,0,0,-1,664,428,0,0
-553,596,0,0,0,0,0,0,0,0,0,-1,671,428,0,0
-546,596,0,0,0,0,0,0,0,0,0,-1,678,428,0,0
-539,596,0,0,0,0,0,0,0,0,0,-1,685,428,0,0
-532,596,0,0,0,0,0,0,0,0,0,-1,692,428,0,0
-525,596,0,0,0,0,0,0,0,0,0,-1,699,428,0,0
-518,596,0,0,0,0,0,0,0,0,0,-1,706,428,0,0
-511,596,0,0,0,0,0,0,0,0,0,-1,713,428,0,0
-504,596,0,0,0,0,0,0,0,0,0,-1,720,428,0,0
-497,596,0,0,0,0,0,0,0,0,0,-1,727,428,0,0
-490,596,0,0,0,0,0,0,0,0,0,-1,734,428,0,0
-483,596,0,0,0,0,0,0,0,0,0,-1,741,428,0,0
-476,596,0,0,0,0,0,0,0,0,0,-1,748,428,0,0
-469,596,0,0,0,0,0,0,0,0,0,-1,755,428,0,0
-462,596,0,0,0,0,0,0,0,0,0,-1,762,428,0,0
-455,596,0,0,0,0,0,0,0,0,0,-1,769,428,0,0
-448,596,0,0,0,0,0,0,0,0,0,-1,776,428,0,0
-441,596,0,0,0,0,0,0,0,0,0,-1,783,428,0,0
-434,596,0,0,0,0,0,0,0,0,0,-1,790,428,0,0
-427,596,0,0,0,0,0,0,0,0,0,-1,797,428,0,0
-420,596,0,0,0,0,0,0,0,0,0,-1,804,428,0,0
-413,596,0,0,0,0,0,0,0,0,0,-1,811,428,0,0
-406,596,0,0,0,0,0,0,0,0,0,-1,818,428,0,0
-399,596,0,0,0,0,0,0,0,0,0,-1,825,428,0,0
-392,596,0,0,0,0,0,0,0,0,0,-1,832,428,0,0
-385,596,0,0,0,0,0,0,0,0,0,-1,839,428,0,0
-378,596,0,0,0,0,0,0,0,0,0,-1,846,428,0,0
-371,596,0,0,0,0,0,0,0,0,0,-1,853,428,0,0
-364,596,0,0,0,0,0,0,0,0,0,-1,860,428,0,0
-357,596,0,0,0,0,0,0,0,0,0,-1,867,428,0,0
-350,596,0,0,0,0,0,0,0,0,0,-1,874,428,0,0
-343,596,0,0,0,0,0,0,0,0,0,-1,881,428,0,0
-336,596,1.57922,-11.8646,0,0,0,0,0,0,0,-1,888,428,1.57922,11.8646
-329,596,1.8208,-11.4726,0,0,0,0,0,0,0,-1,895,428,1.82081,11.4726
-322,596,1.83429,-10.9059,0,0,0,0,0,0,0,-1,902,428,1.83428,10.9059
-315,596,-0.0229492,-7.5903,0,0,0,0,0,0,0,-1,909,428,-0.0229223,7.59031
-308,596,1.04559,-7.28033,0,0,0,0,0,0,0,-1,916,428,1.04558,7.28033
-301,596,1.77863,-6.33871,0,0,0,0,0,0,0,-1,923,428,1.7786,6.33872
-294,596,1.58051,-6.07251,-0.00183129,0.00195098,-0.00200775,0.002818,-0.00269832,-1.16315,0.0031851,0.0469205,930,428,1.58051,6.0725
-287,596,1.58441,-6.26517,-0.000117599,0.00554427,0.00100946,0.00571887,-0.000292191,1.39953,0.00391361,0.0489916,937,428,1.58444,6.26516
-280,596,1.62372,-6.59454,0,0,0,0,0,0,0,-1,944,428,1.62374,6.59454
-273,596,1.6131,-6.68292,0.0015661,0.00990081,0.00397316,0.0114913,-2.43979e-05,1.19002,0.00766902,0.0462801,951,428,1.61308,6.68292
-266,596,1.66357,-6.71521,0.00226658,0.0112009,0.00521391,0.0135996,-0.000132137,1.13961,0.00911079,0.0420135,958,428,1.66356,6.71522
-259,596,1.41693,-6.90454,0.00206349,0.011235,0.00489171,0.0133543,-5.58319e-05,1.16196,0.00892152,0.0326739,965,428,1.41693,6.90453
-252,596,1.57495,-7.10117,0.00189439,0.0108592,0.00445146,0.012694,5.95627e-05,1.17983,0.00844291,0.0163755,972,428,1.57495,7.10116
-245,596,1.59631,-7.22678,0.00154435,0.0103394,0.00387441,0.0118027,8.10497e-05,1.20968,0.00784161,0.0120722,979,428,1.59634,7.22678
-238,596,1.59253,-7.32919,0.00102026,0.00936926,0.0032597,0.0104912,-0.000101657,1.23932,0.00702825,0.0106106,986,428,1.59252,7.3292
-231,596,1.57031,-7.46533,0.000449993,0.00804185,0.00260372,0.00884901,-0.000357169,1.27019,0.00602193,0.0126003,993,428,1.57032,7.46534
-224,596,1.56445,-7.59991,-6.31277e-05,0.00672269,0.00193041,0.00723341,-0.000573846,1.31216,0.00502449,0.0132496,1000,428,1.56442,7.59991
-217,596,1.57208,-7.7041,-0.00046155,0.00552045,0.00125547,0.00577326,-0.000714357,1.37209,0.00410771,0.0135709,1007,428,1.57209,7.70409
-210,596,1.57092,-7.82791,-0.000695661,0.0043577,0.000679225,0.0044474,-0.000785364,1.43949,0.00325843,0.0108815,1014,428,1.5709,7.8279
-203,596,1.57477,-7.94144,-0.000894637,0.00350597,0.000416043,0.00354496,-0.000933625,1.47736,0.00272829,0.0131079,1021,428,1.57477,7.94145
-196,596,1.57776,-8.05176,-0.00115977,0.00227169,-0.000131363,0.00227671,-0.00116479,-1.53259,0.00202123,0.0137682,1028,428,1.57771,8.05177
-189,596,1.55493,-8.14737,-0.00116101,0.00151055,-0.000347251,0.00155494,-0.00120541,-1.44363,0.00159795,0.0113141,1035,428,1.55488,8.14737
-182,596,1.55481,-8.25272,-0.000990662,0.000872578,-0.00022973,0.000900485,-0.00101857,-1.44991,0.00110867,0.0111555,1042,428,1.55486,8.25273
-175,596,1.55225,-8.36984,-0.000811194,0.00041334,4.14882e-05,0.000414744,-0.000812598,1.53697,0.00072091,0.0138626,1049,428,1.5523,8.36983
-168,596,1.57117,-8.45859,-0.000724805,-3.26569e-05,0.000297151,7.74115e-05,-0.000834874,1.21605,0.000584099,0.0162699,1056,428,1.57121,8.4586
-161,596,1.5675,-8.5488,-0.000652226,-0.000343114,0.00047182,-1.18028e-06,-0.000994159,0.943677,0.00066238,0.01444,1063,428,1.56757,8.5488
-154,596,1.55762,-8.66531,-0.000668453,-0.000589074,0.000704828,7.71809e-05,-0.00133471,0.813524,0.000916616,0.0119888,1070,428,1.55766,8.66531
-147,596,1.58459,-8.73468,-0.000779728,-0.000692273,0.00103908,0.000303995,-0.001776,0.806427,0.00129726,0.0128463,1077,428,1.58459,8.73469
-140,596,1.59277,-8.79416,-0.000711089,-0.00073551,0.00120084,0.000477606,-0.0019242,0.780314,0.00146813,0.0138131,1084,428,1.59281,8.79415
-133,596,1.57166,-8.87936,-0.000630762,-0.000604816,0.00129205,0.000674323,-0.0019099,0.790418,0.0015478,0.015168,1091,428,1.57165,8.87936
-126,596,1.57727,-8.94693,-0.000667299,-0.00030478,0.0013205,0.000846839,-0.00181892,0.853605,0.00157282,0.0117317,1098,428,1.57727,8.94694
-119,596,1.60388,-9.0329,-0.000653885,0.000247636,0.00124829,0.00112406,-0.00153031,0.958664,0.00153847,0.0125965,1105,428,1.60389,9.0329
-112,596,1.6123,-9.11069,-0.000499901,0.00102119,0.00119536,0.00167744,-0.00115615,1.06872,0.00164517,0.0128346,1112,428,1.61225,9.11068
-105,596,1.60095,-9.1929,-0.00037538,0.00192471,0.00108061,0.00235274,-0.000803411,1.19366,0.00189398,0.0137987,1119,428,1.60096,9.19291
-98,596,1.62231,-9.25186,-0.000327188,0.00300588,0.000803963,0.00318967,-0.000510976,1.34606,0.00231564,0.0101472,1126,428,1.62236,9.25187
-91,596,1.61853,-9.32346,-0.000246274,0.00431524,0.000607567,0.00439478,-0.000325812,1.44062,0.00304427,0.0104155,1133,428,1.61857,9.32346
-84,596,1.67334,-9.44473,-0.000149602,0.00516541,0.000618351,0.00523641,-0.000220593,1.45649,0.00356674,0.0151057,1140,428,1.67336,9.44474
-77,596,1.69385,-9.54019,5.17862e-05,0.00613721,0.000642827,0.00620437,-1.53771e-05,1.46669,0.00414138,0.0232098,1147,428,1.69388,9.5402
-70,596,1.65137,-9.73276,0.000399126,0.00648094,0.000887261,0.00660774,0.000272329,1.42885,0.00431725,0.0484782,1154,428,1.65139,9.73275
-63,596,1.7334,-10.172,0,0,0,0,0,0,0,-1,1161,428,1.73336,10.172
-56,596,1.63562,-9.85507,0,0,0,0,0,0,0,-1,1168,428,1.63559,9.85508
-49,596,1.59473,-10.0393,0,0,0,0,0,0,0,-1,1175,428,1.59472,10.0393
-42,596,1.99585,-6.6246,0,0,0,0,0,0,0,-1,1182,428,1.99586,6.62459
-35,596,1.45532,-9.57831,0,0,0,0,0,0,0,-1,1189,428,1.45538,9.57832
-28,596,1.57166,-9.66702,0,0,0,0,0,0,0,-1,1196,428,1.57168,9.66701
-21,596,1.66211,-9.6701,0,0,0,0,0,0,0,-1,1203,428,1.66206,9.6701
-14,596,1.72522,-9.61594,0,0,0,0,0,0,0,-1,1210,428,1.72522,9.61593
-7,596,1.93103,-9.81699,0,0,0,0,0,0,0,-1,1217,428,1.93097,9.81699
0,596,1.15869,-10.3999,0,0,0,0,0,0,0,-1,1224,428,1.15867,10.3999
7,596,1.95313,-9.82971,0,0,0,0,0,0,0,-1,1231,428,1.95315,9.82971
14,596,1.98828,-9.83853,0.0255862,0.0328552,-0.0583411,0.0876749,-0.0292335,-0.816506,0.070252,0.0457295,1238,428,1.98825,9.83853
21,596,2.03406,-9.76993,0.0316925,0.025356,-0.0583208,0.0869311,-0.0298825,-0.758263,0.070072,0.044481,1245,428,2.03404,9.76993
28,596,2.22473,-9.65558,0.0364269,0.018519,-0.0563279,0.0845081,-0.0295621,-0.706577,0.0683578,0.0419455,1252,428,2.22474,9.65559
35,596,2.27563,-9.53723,0.0385822,0.0117337,-0.0531544,0.0799813,-0.0296654,-0.661709,0.0654887,0.0416107,1259,428,2.27567,9.53722
42,596,1.91577,-9.56506,0.0379825,0.00532324,-0.0491658,0.0734595,-0.0301538,-0.625063,0.0615382,0.044329,1266,428,1.91575,9.56508
49,596,2.0802,-9.37213,0.0345014,0.00078226,-0.0442366,0.0649823,-0.0296987,-0.603334,0.055915,0.042616,1273,428,2.08017,9.37212
56,596,2.4458,-9.79337,0.0277656,-0.00261894,-0.0390523,0.0544766,-0.02933,-0.599894,0.0491064,0.0419327,1280,428,2.44578,9.79335
63,596,2.62402,-9.76974,0.0198923,-0.00619759,-0.0340953,0.043353,-0.0296583,-0.602689,0.0423996,0.044155,1287,428,2.62399,9.76974
70,596,2.71008,-9.68564,0.0133013,-0.00668738,-0.0276102,0.0326703,-0.0260564,-0.611744,0.0339775,0.0433506,1294,428,2.71005,9.68565
77,596,2.32153,-9.58377,0.00798554,-0.00428096,-0.0206194,0.0233646,-0.01966,-0.64084,0.0248709,0.0420727,1301,428,2.32155,9.58377
84,596,2.27051,-9.88739,0.000256174,-0.00053199,-0.0159127,0.0157797,-0.0160555,-0.773018,0.0183803,0.0418832,1308,428,2.27052,9.8874
91,596,2.37073,-10.0871,-0.00476385,0.00314384,-0.0113532,0.011212,-0.012832,-0.952959,0.0138923,0.0415985,1315,428,2.37069,10.0871
98,596,2.72095,-9.63507,-0.00826968,0.00626048,-0.00823913,0.00998015,-0.0119893,-1.14673,0.0127018,0.0474953,1322,428,2.72092,9.63507
105,596,2.29309,-11.8206,0,0,0,0,0,0,0,-1,1329,428,2.29304,11.8206
112,596,2.06396,-9.85458,-0.0107518,0.0114494,-0.00329139,0.011927,-0.0112295,-1.42667,0.0133714,0.039825,1336,428,2.06399,9.85457
119,596,2.32458,-9.74738,-0.0100932,0.0121829,-0.00179888,0.0123272,-0.0102376,-1.49073,0.0130464,0.0439552,1343,428,2.32462,9.74737
126,596,2.27393,-9.61053,-0.0096932,0.0124098,-0.00114096,0.0124686,-0.00975194,-1.51936,0.0128609,0.0477455,1350,428,2.27389,9.61054
133,596,2.22766,-9.49274,-0.0103939,0.0099955,-0.00153462,0.0101104,-0.0105087,-1.49609,0.0119052,0.0455663,1357,428,2.22764,9.49273
140,596,2.2926,-9.39096,-0.0117899,0.00610055,-0.00220039,0.00636721,-0.0120566,-1.4502,0.0108047,0.0415489,1364,428,2.29262,9.39095
147,596,2.23743,-9.43027,-0.0135978,0.000578385,-0.00284144,0.00112671,-0.0141462,-1.38017,0.00982789,0.0364871,1371,428,2.2374,9.43026
154,596,1.96582,-9.2605,-0.0160312,-0.00557102,-0.00357844,-0.004464,-0.0171383,-1.27077,0.0102663,0.0424324,1378,428,1.96581,9.26049
161,596,2.25696,-9.23727,-0.0178208,-0.0102399,-0.003706,-0.00872923,-0.0193314,-1.18373,0.0111785,0.0477518,1385,428,2.25695,9.23726
168,596,2.21716,-9.1738,0,0,0,0,0,0,0,-1,1392,428,2.21716,9.17381
175,596,2.46155,-9.13632,0,0,0,0,0,0,0,-1,1399,428,2.4616,9.13633
182,596,2.54382,-9.07217,0,0,0,0,0,0,0,-1,1406,428,2.54386,9.07217
189,596,2.55981,-9.03339,0,0,0,0,0,0,0,-1,1413,428,2.55985,9.03338
196,596,2.4679,-8.93521,0,0,0,0,0,0,0,-1,1420,428,2.46788,8.93522
203,596,2.40796,-8.97202,0,0,0,0,0,0,0,-1,1427,428,2.40794,8.97201
210,596,2.39856,-8.96896,-0.000790404,-0.00823028,-0.00168458,-0.000426749,-0.00859394,-0.212611,0.00559247,0.0214573,1434,428,2.3985,8.96897
217,596,2.40942,-8.85956,0.00155731,-0.00540823,-0.00140253,0.0018291,-0.00568003,-0.191418,0.00452144,0.0116731,1441,428,2.40937,8.85957
224,596,2.42822,-8.77148,0.00143129,-0.00442604,-0.00118461,0.0016618,-0.00465654,-0.192185,0.00378202,0.0114271,1448,428,2.42828,8.77149
231,596,2.44287,-8.68588,0.00138029,-0.00343281,-0.000974292,0.00157003,-0.00362255,-0.19234,0.00307501,0.0114797,1455,428,2.44282,8.68588
238,596,2.42615,-8.58725,0.00145313,-0.00246625,-0.000771291,0.00159945,-0.00261257,-0.187479,0.00245514,0.0134526,1462,428,2.42618,8.58726
245,596,2.44702,-8.49857,0.00155481,-0.0015602,-0.00065111,0.00168543,-0.00169082,-0.197983,0.00194928,0.0127034,1469,428,2.44699,8.49857
252,596,2.47253,-8.40936,0.00151045,-0.000777175,-0.000611444,0.00166362,-0.000930348,-0.245459,0.00151744,0.0104705,1476,428,2.47259,8.40936
259,596,2.45129,-8.2955,0.00132779,-0.000173563,-0.000545802,0.00150524,-0.000351011,-0.314336,0.00113867,0.00851587,1483,428,2.45124,8.2955
266,596,2.44543,-8.19354,0.00115113,0.000297663,-0.000490229,0.00137434,7.44533e-05,-0.427266,0.000892445,0.00939685,1490,428,2.4454,8.19355
273,596,2.4585,-8.10324,0.00104299,0.000966623,-0.000391874,0.00139853,0.000611075,-0.736835,0.000809582,0.0118092,1497,428,2.45847,8.10323
280,596,2.47632,-7.97369,0.000774482,0.00122098,-0.000313251,0.0013824,0.000613067,-1.09499,0.000799825,0.0129432,1504,428,2.47631,7.97368
287,596,2.47327,-7.85645,0.000592707,0.00129651,-8.28741e-05,0.00130613,0.00058308,-1.45515,0.000755539,0.012317,1511,428,2.47328,7.85645
294,596,2.47632,-7.75427,0.000536885,0.00146322,0.000131296,0.00148147,0.000518635,1.43268,0.000868047,0.00980659,1518,428,2.4763,7.75428
301,596,2.47461,-7.62473,0.000456368,0.00153615,0.000366956,0.00164905,0.000343465,1.27232,0.00100464,0.0107345,1525,428,2.47459,7.62472
308,596,2.49182,-7.48285,0.000476759,0.00168542,0.000745971,0.00204113,0.000121043,1.12584,0.00132226,0.0158838,1532,428,2.49177,7.48285
315,596,2.48999,-7.37338,0.000614114,0.00168497,0.00112633,0.00239666,-9.75779e-05,1.00727,0.00163127,0.0159703,1539,428,2.48994,7.37338
322,596,2.48181,-7.25095,0.000828498,0.00161999,0.00156011,0.00283377,-0.00038528,0.90961,0.00202983,0.0134848,1546,428,2.48185,7.25094
329,596,2.4751,-7.11642,0.00114012,0.00127795,0.00205629,0.00326648,-0.000848408,0.802149,0.00250874,0.0102149,1553,428,2.47509,7.11641
336,596,2.46191,-6.9917,0.00147275,0.00101225,0.00254097,0.00379388,-0.00130889,0.740214,0.00306032,0.0088186,1560,428,2.46192,6.99169
343,596,2.48035,-6.86044,0.00183941,0.000571447,0.00302784,0.00429893,-0.00188807,0.682197,0.00366134,0.0111708,1567,428,2.4803,6.86045
350,596,2.48535,-6.72159,0.00224596,0.000189879,0.00354337,0.00490741,-0.00247157,0.644209,0.00433694,0.0119728,1574,428,2.48537,6.72158
357,596,2.47266,-6.56927,0.00260098,-0.000270755,0.00404267,0.0054552,-0.00312498,0.614758,0.0050143,0.00951332,1581,428,2.47265,6.56927
364,596,2.4679,-6.41724,0.00291851,-0.000768328,0.0044623,0.00590316,-0.00375298,0.58952,0.00562086,0.00864877,1588,428,2.46784,6.41723
371,596,2.45911,-6.2731,0.0032428,-0.00156227,0.00483643,0.00624056,-0.00456003,0.554873,0.00626084,0.0087568,1595,428,2.45911,6.27311
378,596,2.46716,-6.10477,0.00340913,-0.00240744,0.00521095,0.00646843,-0.00546674,0.530874,0.00689886,0.0122604,1602,428,2.46715,6.10477
385,596,2.51465,-5.91388,0.00338367,-0.00297437,0.00528648,0.00637337,-0.00596406,0.514693,0.00712433,0.0218321,1609,428,2.51468,5.91388
392,596,2.52344,-5.8038,0.00335521,-0.00368657,0.0050658,0.00600352,-0.00633488,0.481706,0.00712444,0.0356615,1616,428,2.52342,5.80379
399,596,2.51306,-5.67789,0,0,0,0,0,0,0,-1,1623,428,2.51302,5.67787
406,596,2.56213,-5.50912,0,0,0,0,0,0,0,-1,1630,428,2.56216,5.50911
413,596,3.39124,-2.63528,0,0,0,0,0,0,0,-1,1637,428,3.39122,2.6353
420,596,2.6344,-3.06308,0,0,0,0,0,0,0,-1,1644,428,2.63439,3.06308
427,596,2.99329,-1.90512,0,0,0,0,0,0,0,-1,1651,428,2.99327,1.90512
434,596,3.80896,-0.253998,0,0,0,0,0,0,0,-1,1658,428,3.80902,0.254004
441,596,3.86401,-0.131622,0,0,0,0,0,0,0,-1,1665,428,3.86406,0.131613
448,596,1.0769,0.0083313,0,0,0,0,0,0,0,-1,1672,428,1.07684,-0.00832231
455,596,2.00769,-1.43329,0,0,0,0,0,0,0,-1,1679,428,2.00765,1.4333
462,596,0,0,0,0,0,0,0,0,0,-1,1686,428,0,0
469,596,0,0,0,0,0,0,0,0,0,-1,1693,428,0,0
476,596,0,0,0,0,0,0,0,0,0,-1,1700,428,0,0
483,596,0,0,0,0,0,0,0,0,0,-1,1707,428,0,0
490,596,0,0,0,0,0,0,0,0,0,-1,1714,428,0,0
497,596,0,0,0,0,0,0,0,0,0,-1,1721,428,0,0
504,596,0,0,0,0,0,0,0,0,0,-1,1728,428,0,0
511,596,0,0,0,0,0,0,0,0,0,-1,1735,428,0,0
518,596,0,0,0,0,0,0,0,0,0,-1,1742,428,0,0
525,596,0,0,0,0,0,0,0,0,0,-1,1749,428,0,0
532,596,0,0,0,0,0,0,0,0,0,-1,1756,428,0,0
539,596,0,0,0,0,0,0,0,0,0,-1,1763,428,0,0
546,596,0,0,0,0,0,0,0,0,0,-1,1770,428,0,0
553,596,0,0,0,0,0,0,0,0,0,-1,1777,428,0,0
560,596,0,0,0,0,0,0,0,0,0,-1,1784,428,0,0
567,596,0,0,0,0,0,0,0,0,0,-1,1791,428,0,0
574,596,0,0,0,0,0,0,0,0,0,-1,1798,428,0,0
581,596,0,0,0,0,0,0,0,0,0,-1,1805,428,0,0
588,596,0,0,0,0,0,0,0,0,0,-1,1812,428,0,0
595,596,0,0,0,0,0,0,0,0,0,-1,1819,428,0,0
602,596,0,0,0,0,0,0,0,0,0,-1,1826,428,0,0
609,596,0,0,0,0,0,0,0,0,0,-1,1833,428,0,0
616,596,0,0,0,0,0,0,0,0,0,-1,1840,428,0,0
623,596,0,0,0,0,0,0,0,0,0,-1,1847,428,0,0
630,596,0,0,0,0,0,0,0,0,0,-1,1854,428,0,0
637,596,0,0,0,0,0,0,0,0,0,-1,1861,428,0,0
644,596,0,0,0,0,0,0,0,0,0,-1,1868,428,0,0
651,596,0,0,0,0,0,0,0,0,0,-1,1875,428,0,0
658,596,0,0,0,0,0,0,0,0,0,-1,1882,428,0,0
665,596,0,0,0,0,0,0,0,0,0,-1,1889,428,0,0
672,596,0,0,0,0,0,0,0,0,0,-1,1896,428,0,0
679,596,0,0,0,0,0,0,0,0,0,-1,1903,428,0,0
686,596,0,0,0,0,0,0,0,0,0,-1,1910,428,0,0
693,596,0,0,0,0,0,0,0,0,0,-1,1917,428,0,0
700,596,0,0,0,0,0,0,0,0,0,-1,1924,428,0,0
707,596,0,0,0,0,0,0,0,0,0,-1,1931,428,0,0
714,596,0,0,0,0,0,0,0,0,0,-1,1938,428,0,0
721,596,0,0,0,0,0,0,0,0,0,-1,1945,428,0,0
728,596,0,0,0,0,0,0,0,0,0,-1,1952,428,0,0
735,596,0,0,0,0,0,0,0,0,0,-1,1959,428,0,0
742,596,0,0,0,0,0,0,0,0,0,-1,1966,428,0,0
749,596,0,0,0,0,0,0,0,0,0,-1,1973,428,0,0
756,596,0,0,0,0,0,0,0,0,0,-1,1980,428,0,0
763,596,0,0,0,0,0,0,0,0,0,-1,1987,428,0,0
770,596,0,0,0,0,0,0,0,0,0,-1,1994,428,0,0
777,596,0,0,0,0,0,0,0,0,0,-1,2001,428,0,0
784,596,0,0,0,0,0,0,0,0,0,-1,2008,428,0,0
791,596,0,0,0,0,0,0,0,0,0,-1,2015,428,0,0
798,596,0,0,0,0,0,0,0,0,0,-1,2022,428,0,0
805,596,0,0,0,0,0,0,0,0,0,-1,2029,428,0,0
812,596,0,0,0,0,0,0,0,0,0,-1,2036,428,0,0
-700,589,0,0,0,0,0,0,0,0,0,-1,524,435,0,0
-693,589,0,0,0,0,0,0,0,0,0,-1,531,435,0,0
-686,589,0,0,0,0,0,0,0,0,0,-1,538,435,0,0
-679,589,0,0,0,0,0,0,0,0,0,-1,545,435,0,0
-672,589,0,0,0,0,0,0,0,0,0,-1,552,435,0,0
-665,589,0,0,0,0,0,0,0,0,0,-1,559,435,0,0
-658,589,0,0,0,0,0,0,0,0,0,-1,566,435,0,0
-651,589,0,0,0,0,0,0,0,0,0,-1,573,435,0,0
-644,589,0,0,0,0,0,0,0,0,0,-1,580,435,0,0
-637,589,0,0,0,0,0,0,0,0,0,-1,587,435,0,0
-630,589,0,0,0,0,0,0,0,0,0,-1,594,435,0,0
-623,589,0,0,0,0,0,0,0,0,0,-1,601,435,0,0
-616,589,0,0,0,0,0,0,0,0,0,-1,608,435,0,0
-609,589,0,0,0,0,0,0,0,0,0,-1,615,435,0,0
-602,589,0,0,0,0,0,0,0,0,0,-1,622,435,0,0
-595,589,0,0,0,0,0,0,0,0,0,-1,629,435,0,0
-588,589,0,0,0,0,0,0,0,0,0,-1,636,435,0,0
-581,589,0,0,0,0,0,0,0,0,0,-1,643,435,0,0
-574,589,0,0,0,0,0,0,0,0,0,-1,650,435,0,0
-567,589,0,0,0,0,0,0,0,0,0,-1,657,435,0,0
-560,589,0,0,0,0,0,0,0,0,0,-1,664,435,0,0
-553,589,0,0,0,0,0,0,0,0,0,-1,671,435,0,0
-546,589,0,0,0,0,0,0,0,0,0,-1,678,435,0,0
-539,589,0,0,0,0,0,0,0,0,0,-1,685,435,0,0
-532,589,0,0,0,0,0,0,0,0,0,-1,692,435,0,0
-525,589,0,0,0,0,0,0,0,0,0,-1,699,435,0,0
-518,589,0,0,0,0,0,0,0,0,0,-1,706,435,0,0
-511,589,0,0,0,0,0,0,0,0,0,-1,713,435,0,0
-504,589,0,0,0,0,0,0,0,0,0,-1,720,435,0,0
-497,589,0,0,0,0,0,0,0,0,0,-1,727,435,0,0
-490,589,0,0,0,0,0,0,0,0,0,-1,734,435,0,0
-483,589,0,0,0,0,0,0,0,0,0,-1,741,435,0,0
-476,589,0,0,0,0,0,0,0,0,0,-1,748,435,0,0
-469,589,0,0,0,0,0,0,0,0,0,-1,755,435,0,0
-462,589,0,0,0,0,0,0,0,0,0,-1,762,435,0,0
-455,589,0,0,0,0,0,0,0,0,0,-1,769,435,0,0
-448,589,0,0,0,0,0,0,0,0,0,-1,776,435,0,0
-441,589,0,0,0,0,0,0,0,0,0,-1,783,435,0,0
-434,589,0,0,0,0,0,0,0,0,0,-1,790,435,0,0
-427,589,0,0,0,0,0,0,0,0,0,-1,797,435,0,0
-420,589,0,0,0,0,0,0,0,0,0,-1,804,435,0,0
-413,589,0,0,0,0,0,0,0,0,0,-1,811,435,0,0
-406,589,0,0,0,0,0,0,0,0,0,-1,818,435,0,0
-399,589,0,0,0,0,0,0,0,0,0,-1,825,435,0,0
-392,589,0,0,0,0,0,0,0,0,0,-1,832,435,0,0
-385,589,0,0,0,0,0,0,0,0,0,-1,839,435,0,0
-378,589,0,0,0,0,0,0,0,0,0,-1,846,435,0,0
-371,589,0,0,0,0,0,0,0,0,0,-1,853,435,0,0
-364,589,0,0,0,0,0,0,0,0,0,-1,860,435,0,0
-357,589,0,0,0,0,0,0,0,0,0,-1,867,435,0,0
-350,589,-0.262695,-13.5742,0,0,0,0,0,0,0,-1,874,435,-0.262715,13.5742
-343,589,0.187195,-13.2853,0,0,0,0,0,0,0,-1,881,435,0.187181,13.2853
-336,589,0.677856,-12.7685,0,0,0,0,0,0,0,-1,888,435,0.677838,12.7685
-329,589,1.03149,-12.4765,0,0,0,0,0,0,0,-1,895,435,1.03147,12.4765
-322,589,-0.537964,-7.13254,0,0,0,0,0,0,0,-1,902,435,-0.537958,7.13254
-315,589,-1.37537,-8.21851,0,0,0,0,0,0,0,-1,909,435,-1.37537,8.2185
-308,589,1.72772,-5.98892,0,0,0,0,0,0,0,-1,916,435,1.72773,5.98892
-301,589,1.6156,-6.29135,-0.0028703,-0.00385478,-0.00647991,0.00313604,-0.00986112,-0.747489,0.0078316,0.0490905,923,435,1.6156,6.29136
-294,589,1.46057,-6.01788,-0.00135348,-0.000218837,-0.00279532,0.00206616,-0.00363847,-0.885515,0.00333501,0.0485952,930,435,1.46057,6.01787
-287,589,1.47919,-6.24744,-0.000253651,0.00246982,-0.000459863,0.00254538,-0.000329204,-1.40796,0.00181662,0.0414495,937,435,1.47916,6.24745
-280,589,1.50043,-6.46335,0.000522704,0.00441406,0.00096898,0.00464199,0.000294771,1.33977,0.00300124,0.0314393,944,435,1.5004,6.46335
-273,589,1.48987,-6.64798,0.000777223,0.00589965,0.00208558,0.00664138,3.54899e-05,1.2291,0.00441581,0.0190298,951,435,1.48987,6.64798
-266,589,1.47937,-6.79764,0.0014069,0.00705247,0.00314196,0.00845343,5.93625e-06,1.15137,0.00563364,0.0168535,958,435,1.47937,6.79764
-259,589,1.45734,-6.93698,0.00136421,0.00723209,0.00295581,0.00846286,0.000133443,1.17624,0.00559795,0.0152758,965,435,1.45732,6.93699
-252,589,1.48071,-7.08032,0.0013841,0.00711672,0.00270369,0.00819067,0.00031015,1.19269,0.00536005,0.0100223,972,435,1.48071,7.08033
-245,589,1.49384,-7.20346,0.00129723,0.00692615,0.00234207,0.00777318,0.000450203,1.22378,0.00503876,0.00974394,979,435,1.49384,7.20347
-238,589,1.48975,-7.33328,0.00101715,0.00635523,0.00197928,0.00700904,0.00036334,1.25175,0.00455641,0.0135599,986,435,1.48973,7.33328
-231,589,1.47321,-7.46127,0.000652127,0.00555171,0.00157574,0.00601472,0.000189112,1.285,0.00394829,0.0146632,993,435,1.4732,7.46127
-224,589,1.46002,-7.59473,0.000322786,0.00471262,0.00114158,0.00499174,4.36639e-05,1.331,0.00331337,0.0140258,1000,435,1.46,7.59473
-217,589,1.46167,-7.71768,-8.98262e-07,0.00393582,0.000670655,0.00404693,-0.000112014,1.40661,0.00273606,0.0148583,1007,435,1.46168,7.71769
-210,589,1.46942,-7.83258,-0.00024429,0.00316137,0.000287306,0.00318544,-0.000268357,1.48722,0.0022185,0.0134312,1014,435,1.46943,7.83258
-203,589,1.47076,-7.94156,-0.000432849,0.00263052,0.000297871,0.00265921,-0.000461545,1.47476,0.001945,0.00929729,1021,435,1.47075,7.94155
-196,589,1.44995,-8.03186,-0.000629863,0.00173387,0.000125363,0.0017405,-0.000636493,1.51796,0.00142084,0.012126,1028,435,1.44992,8.03185
-189,589,1.40479,-8.14282,-0.00058278,0.00119022,0.000159292,0.00120441,-0.000596978,1.4819,0.00105956,0.0162322,1035,435,1.40474,8.14283
-182,589,1.43066,-8.22937,-0.000430807,0.000610336,0.000500068,0.000811611,-0.000632082,1.18814,0.000835662,0.012286,1042,435,1.43065,8.22938
-175,589,1.45508,-8.34662,-0.000220515,0.000175323,0.000963441,0.000960964,-0.00100616,0.886704,0.00113582,0.016373,1049,435,1.45513,8.34663
-168,589,1.48584,-8.47275,-4.59795e-05,-0.000298613,0.00141163,0.00124497,-0.00158956,0.740776,0.00164055,0.0141429,1056,435,1.48587,8.47276
-161,589,1.47363,-8.55396,0.000115668,-0.000685535,0.00176125,0.0015213,-0.00209117,0.673574,0.00209429,0.0125086,1063,435,1.47361,8.55395
-154,589,1.47412,-8.64011,0.00016967,-0.000968779,0.00212384,0.00179925,-0.00259836,0.654467,0.00255289,0.0124054,1070,435,1.47415,8.64011
-147,589,1.48816,-8.73016,0.000134907,-0.0010961,0.00257921,0.00217104,-0.00313224,0.668269,0.00307857,0.0126212,1077,435,1.48818,8.73017
-140,589,1.49414,-8.80115,0.00031496,-0.00111626,0.00276192,0.00245247,-0.00325377,0.658636,0.00330531,0.0138267,1084,435,1.49419,8.80114
-133,589,1.49426,-8.88159,0.000418184,-0.000950546,0.00281355,0.0026294,-0.00316177,0.666095,0.00334824,0.0140684,1091,435,1.49421,8.88159
-126,589,1.50513,-8.96616,0.000341341,-0.000652483,0.00276441,0.00265315,-0.00296429,0.696471,0.00324489,0.011051,1098,435,1.50512,8.96617
-119,589,1.51257,-9.04059,0.000221198,1.17155e-05,0.00258114,0.00269972,-0.00246681,0.76512,0.0029839,0.0155952,1105,435,1.51257,9.04058
-112,589,1.52979,-9.11868,0.000235365,0.000970623,0.00242948,0.00306013,-0.00185414,0.860489,0.00286559,0.0156183,1112,435,1.5298,9.11868
-105,589,1.55017,-9.21841,0.000178857,0.00212422,0.00218962,0.00354748,-0.0012444,0.994419,0.00287113,0.0157894,1119,435,1.55014,9.21841
-98,589,1.58142,-9.27377,-0.000118305,0.00349198,0.00146936,0.0040144,-0.000640727,1.22919,0.00291342,0.0169133,1126,435,1.5814,9.27379
-91,589,1.62708,-9.33109,-0.000437936,0.00545605,0.00108593,0.00564976,-0.000631644,1.39427,0.00399374,0.0222018,1133,435,1.6271,9.33108
-84,589,1.70789,-9.45773,-0.000869142,0.00668022,0.00127649,0.00689021,-0.00107914,1.40775,0.00499222,0.0298092,1140,435,1.70785,9.45772
-77,589,1.78491,-9.59302,0,0,0,0,0,0,0,-1,1147,435,1.78485,9.59301
-70,589,1.48267,-9.90961,0,0,0,0,0,0,0,-1,1154,435,1.48264,9.9096
-63,589,0.880127,-5.50586,0,0,0,0,0,0,0,-1,1161,435,0.880186,5.50587
-56,589,-2.78052,-7.28082,0,0,0,0,0,0,0,-1,1168,435,-2.78053,7.28082
-49,589,-0.525757,-2.76703,0,0,0,0,0,0,0,-1,1175,435,-0.525771,2.76702
-42,589,-2.7738,-2.87921,0,0,0,0,0,0,0,-1,1182,435,-2.77383,2.87922
-35,589,-2.55225,-3.27551,0,0,0,0,0,0,0,-1,1189,435,-2.55223,3.27552
-28,589,-0.0632324,-3.42938,0,0,0,0,0,0,0,-1,1196,435,-0.063241,3.42938
-21,589,-3.0675,-9.39285,0,0,0,0,0,0,0,-1,1203,435,-3.06755,9.39284
-14,589,1.59668,-9.48651,0,0,0,0,0,0,0,-1,1210,435,1.59671,9.48652
-7,589,1.50293,-9.74774,0,0,0,0,0,0,0,-1,1217,435,1.50292,9.74775
0,589,0.6604,-10.8542,0,0,0,0,0,0,0,-1,1224,435,0.660363,10.8541
7,589,1.96289,-9.44052,0,0,0,0,0,0,0,-1,1231,435,1.96287,9.44052
14,589,2.03064,-9.85178,0,0,0,0,0,0,0,-1,1238,435,2.03061,9.85178
21,589,2.08594,-9.69281,0,0,0,0,0,0,0,-1,1245,435,2.08592,9.69279
28,589,2.39636,-9.4888,0,0,0,0,0,0,0,-1,1252,435,2.39638,9.4888
35,589,2.37207,-8.90549,0.0480772,0.0204071,-0.0707335,0.106316,-0.0378316,-0.68882,0.0862977,0.0439419,1259,435,2.37202,8.9055
42,589,1.7677,-9.25131,0.0479138,0.0115284,-0.0654827,0.097684,-0.0382418,-0.649903,0.0809395,0.0454898,1266,435,1.76767,9.25131
49,589,1.80811,-9.32678,0.0437714,0.0049504,-0.0589087,0.0863851,-0.0376633,-0.626249,0.0734377,0.0455003,1273,435,1.80808,9.32678
56,589,2.72681,-9.76511,0.0350398,-0.000201016,-0.0517421,0.0720794,-0.0372407,-0.621286,0.0641754,0.0461772,1280,435,2.72684,9.7651
63,589,2.90442,-9.79486,0,0,0,0,0,0,0,-1,1287,435,2.90437,9.79486
70,589,2.50183,-9.59799,0.0158722,-0.0078836,-0.0369405,0.0427975,-0.0348089,-0.629848,0.0448851,0.0429699,1294,435,2.50187,9.59798
77,589,2.40015,-9.53516,0.00805982,-0.00673197,-0.028358,0.0299705,-0.0286427,-0.657837,0.0338432,0.0421325,1301,435,2.40011,9.53516
84,589,2.5481,-9.92929,-0.00260782,-0.0037298,-0.0224079,0.0192461,-0.0255838,-0.772883,0.0259686,0.041744,1308,435,2.54805,9.92928
91,589,2.08521,-10.4068,-0.010111,-0.000550757,-0.0168347,0.0121693,-0.0228311,-0.923729,0.0205176,0.0426582,1315,435,2.08525,10.4068
98,589,1.52075,-10.9707,-0.0155225,0.00215281,-0.0131828,0.00918622,-0.0225559,-1.08069,0.0188604,0.0461285,1322,435,1.52073,10.9707
105,589,1.40234,-11.6726,-0.0190534,0.00456479,-0.0100171,0.00824105,-0.0227296,-1.21906,0.0185217,0.0461373,1329,435,1.4023,11.6726
112,589,1.19116,-12.1107,0,0,0,0,0,0,0,-1,1336,435,1.19112,12.1107
119,589,-1.23352,-13.8267,-0.0194753,0.00690029,-0.006143,0.00826084,-0.0208359,-1.35284,0.0173141,0.042663,1343,435,-1.23358,13.8267
126,589,2.33984,-9.50201,-0.0192417,0.00677948,-0.0054326,0.00786813,-0.0203303,-1.37302,0.016802,0.046242,1350,435,2.33983,9.50201
133,589,2.2384,-9.45679,0,0,0,0,0,0,0,-1,1357,435,2.23846,9.45679
140,589,2.24841,-9.237,-0.0221742,-0.0017214,-0.00651725,0.000178777,-0.0240744,-1.2871,0.0161095,0.0495074,1364,435,2.24844,9.23701
147,589,2.25647,-9.01477,-0.0248228,-0.00901807,-0.00697676,-0.00637898,-0.0274619,-1.20916,0.0165955,0.0460813,1371,435,2.25651,9.01478
154,589,1.7771,-9.09448,0,0,0,0,0,0,0,-1,1378,435,1.77716,9.09449
161,589,2.33435,-9.11594,0,0,0,0,0,0,0,-1,1385,435,2.3344,9.11592
168,589,9.95935,-10.3941,0,0,0,0,0,0,0,-1,1392,435,9.95931,10.3941
175,589,8.66992,-7.65527,0,0,0,0,0,0,0,-1,1399,435,8.66994,7.65528
182,589,3.8136,-2.45389,0,0,0,0,0,0,0,-1,1406,435,3.81363,2.4539
189,589,3.69983,-3.68149,0,0,0,0,0,0,0,-1,1413,435,3.69987,3.68147
196,589,3.31055,-5.31677,0,0,0,0,0,0,0,-1,1420,435,3.31059,5.31678
203,589,2.72559,-8.84338,0,0,0,0,0,0,0,-1,1427,435,2.72558,8.84338
210,589,2.44763,-8.92099,0,0,0,0,0,0,0,-1,1434,435,2.44759,8.92099
217,589,2.49097,-8.84845,0.00204815,-0.0080539,-0.00182045,0.00236619,-0.00837195,-0.17296,0.00651487,0.0272122,1441,435,2.49096,8.84846
224,589,2.5332,-8.77582,0.00194406,-0.00657929,-0.00159323,0.00223214,-0.00686737,-0.178882,0.0054761,0.0229875,1448,435,2.5332,8.77582
231,589,2.53333,-8.72495,0.00185832,-0.00513205,-0.00136954,0.00211706,-0.00539079,-0.186725,0.00446991,0.019133,1455,435,2.5333,8.72494
238,589,2.50549,-8.62964,0.0019056,-0.00380541,-0.00117602,0.00213828,-0.0040381,-0.195338,0.00362173,0.0202228,1462,435,2.5055,8.62964
245,589,2.51501,-8.46298,0.00204091,-0.00258958,-0.0011199,0.00229754,-0.00284621,-0.225265,0.00297538,0.0191207,1469,435,2.51498,8.46299
252,589,2.55884,-8.37546,0.00195853,-0.0015736,-0.00115899,0.00230486,-0.00191993,-0.290379,0.00244256,0.0130305,1476,435,2.55878,8.37546
259,589,2.57239,-8.29895,0.00170422,-0.000855673,-0.00115756,0.00215002,-0.00130147,-0.367614,0.00201269,0.00871205,1483,435,2.57234,8.29897
266,589,2.57532,-8.18637,0.00148096,-0.0003611,-0.00117776,0.00205506,-0.000935204,-0.453559,0.00176633,0.00887027,1490,435,2.57534,8.18638
273,589,2.57434,-8.10059,0.00133575,0.000327918,-0.00115089,0.00208821,-0.000424542,-0.579046,0.00155312,0.0118015,1497,435,2.57433,8.10059
280,589,2.57227,-7.99371,0.000951602,0.000496743,-0.0011964,0.001942,-0.000493656,-0.691472,0.00148679,0.0131706,1504,435,2.57227,7.9937
287,589,2.5769,-7.88593,0.000673988,0.000454592,-0.00106447,0.0016344,-0.00050582,-0.734052,0.00129165,0.0115533,1511,435,2.57696,7.88591
294,589,2.5929,-7.76083,0.000577328,0.000504568,-0.000925774,0.00146744,-0.000385541,-0.76576,0.00112897,0.00960099,1518,435,2.5929,7.76084
301,589,2.60095,-7.62436,0.000396437,0.000426711,-0.000784186,0.00119591,-0.000372757,-0.795048,0.00094632,0.0103435,1525,435,2.60094,7.62437
308,589,2.61255,-7.50055,0.000307979,0.000538295,-0.000477143,0.00091398,-6.77058e-05,-0.903808,0.000633097,0.0106633,1532,435,2.61257,7.50055
315,589,2.6134,-7.37241,0.000337554,0.000513914,-0.000164164,0.000612082,0.000239386,-1.03186,0.000356169,0.0111392,1539,435,2.61338,7.37242
322,589,2.6178,-7.24255,0.00043093,0.000489131,0.000223028,0.000684949,0.000235112,0.850271,0.000401881,0.0121153,1546,435,2.61779,7.24255
329,589,2.61731,-7.11893,0.000626496,0.00028428,0.000679194,0.0011558,-0.000245028,0.662002,0.000863874,0.010159,1553,435,2.61737,7.11893
336,589,2.60815,-6.99139,0.000855744,0.000173066,0.00115334,0.0017172,-0.000688389,0.641527,0.00143058,0.00886837,1560,435,2.6082,6.99138
343,589,2.60608,-6.86615,0.00109058,-3.63231e-05,0.00163302,0.00225462,-0.00120037,0.619275,0.00202545,0.0108263,1567,435,2.60614,6.86614
350,589,2.60352,-6.73538,0.00139666,-0.000198178,0.00215414,0.00289624,-0.00169775,0.608129,0.00268226,0.0166811,1574,435,2.60348,6.73537
357,589,2.61157,-6.57614,0.00170089,-0.000404269,0.00267015,0.00351844,-0.00222181,0.597648,0.0033422,0.0132194,1581,435,2.61155,6.57614
364,589,2.62097,-6.40729,0.00197937,-0.000595897,0.0031062,0.00405425,-0.00267078,0.588911,0.00390999,0.0106629,1588,435,2.62091,6.40729
371,589,2.599,-6.26547,0.00223734,-0.00102923,0.00349915,0.00446562,-0.00325751,0.567044,0.0044771,0.0110942,1595,435,2.59902,6.26549
378,589,2.58557,-6.1214,0.00236034,-0.00149817,0.00386887,0.00475429,-0.00389213,0.55411,0.00500028,0.0120258,1602,435,2.58555,6.12141
385,589,2.59875,-5.95932,0.00233809,-0.00186539,0.0039504,0.00471105,-0.00423835,0.540926,0.00516934,0.0134915,1609,435,2.5987,5.95933
392,589,2.60278,-5.80087,0.00227905,-0.00242223,0.00376011,0.00436282,-0.004506,0.506044,0.00512064,0.0149901,1616,435,2.60276,5.80089
399,589,2.59546,-5.65475,0.002261,-0.00319716,0.00367904,0.00411266,-0.00504882,0.466285,0.00529858,0.0208079,1623,435,2.59551,5.65475
406,589,2.61536,-5.491,0.00207977,-0.00412251,0.00343237,0.00360445,-0.0056472,0.418026,0.00538467,0.0474766,1630,435,2.61531,5.491
413,589,2.60315,-5.27277,0,0,0,0,0,0,0,-1,1637,435,2.60317,5.27275
420,589,2.75366,-5.45801,0,0,0,0,0,0,0,-1,1644,435,2.75371,5.45802
427,589,2.82385,-5.05334,0,0,0,0,0,0,0,-1,1651,435,2.82382,5.05335
434,589,2.52734,-2.73029,0,0,0,0,0,0,0,-1,1658,435,2.52736,2.73029
441,589,3.17639,-2.02435,0,0,0,0,0,0,0,-1,1665,435,3.17643,2.02435
448,589,0.453735,-3.2868,0,0,0,0,0,0,0,-1,1672,435,0.453701,3.28681
455,589,0.664307,-3.46848,0,0,0,0,0,0,0,-1,1679,435,0.66425,3.46846
462,589,2.39038,-3.22766,0,0,0,0,0,0,0,-1,1686,435,2.39041,3.22766
469,589,2.34412,-4.82892,0,0,0,0,0,0,0,-1,1693,435,2.34413,4.82892
476,589,0,0,0,0,0,0,0,0,0,-1,1700,435,0,0
483,589,0,0,0,0,0,0,0,0,0,-1,1707,435,0,0
490,589,0,0,0,0,0,0,0,0,0,-1,1714,435,0,0
497,589,0,0,0,0,0,0,0,0,0,-1,1721,435,0,0
504,589,0,0,0,0,0,0,0,0,0,-1,1728,435,0,0
511,589,0,0,0,0,0,0,0,0,0,-1,1735,435,0,0
518,589,0,0,0,0,0,0,0,0,0,-1,1742,435,0,0
525,589,0,0,0,0,0,0,0,0,0,-1,1749,435,0,0
532,589,0,0,0,0,0,0,0,0,0,-1,1756,435,0,0
539,589,0,0,0,0,0,0,0,0,0,-1,1763,435,0,0
546,589,0,0,0,0,0,0,0,0,0,-1,1770,435,0,0
553,589,0,0,0,0,0,0,0,0,0,-1,1777,435,0,0
560,589,0,0,0,0,0,0,0,0,0,-1,1784,435,0,0
567,589,0,0,0,0,0,0,0,0,0,-1,1791,435,0,0
574,589,0,0,0,0,0,0,0,0,0,-1,1798,435,0,0
581,589,0,0,0,0,0,0,0,0,0,-1,1805,435,0,0
588,589,0,0,0,0,0,0,0,0,0,-1,1812,435,0,0
595,589,0,0,0,0,0,0,0,0,0,-1,1819,435,0,0
602,589,0,0,0,0,0,0,0,0,0,-1,1826,435,0,0
609,589,0,0,0,0,0,0,0,0,0,-1,1833,435,0,0
616,589,0,0,0,0,0,0,0,0,0,-1,1840,435,0,0
623,589,0,0,0,0,0,0,0,0,0,-1,1847,435,0,0
630,589,0,0,0,0,0,0,0,0,0,-1,1854,435,0,0
637,589,0,0,0,0,0,0,0,0,0,-1,1861,435,0,0
644,589,0,0,0,0,0,0,0,0,0,-1,1868,435,0,0
651,589,0,0,0,0,0,0,0,0,0,-1,1875,435,0,0
658,589,0,0,0,0,0,0,0,0,0,-1,1882,435,0,0
665,589,0,0,0,0,0,0,0,0,0,-1,1889,435,0,0
672,589,0,0,0,0,0,0,0,0,0,-1,1896,435,0,0
679,589,0,0,0,0,0,0,0,0,0,-1,1903,435,0,0
686,589,0,0,0,0,0,0,0,0,0,-1,1910,435,0,0
693,589,0,0,0,0,0,0,0,0,0,-1,1917,435,0,0
700,589,0,0,0,0,0,0,0,0,0,-1,1924,435,0,0
707,589,0,0,0,0,0,0,0,0,0,-1,1931,435,0,0
714,589,0,0,0,0,0,0,0,0,0,-1,1938,435,0,0
721,589,0,0,0,0,0,0,0,0,0,-1,1945,435,0,0
728,589,0,0,0,0,0,0,0,0,0,-1,1952,435,0,0
735,589,0,0,0,0,0,0,0,0,0,-1,1959,435,0,0
742,589,0,0,0,0,0,0,0,0,0,-1,1966,435,0,0
749,589,0,0,0,0,0,0,0,0,0,-1,1973,435,0,0
756,589,0,0,0,0,0,0,0,0,0,-1,1980,435,0,0
763,589,0,0,0,0,0,0,0,0,0,-1,1987,435,0,0
770,589,0,0,0,0,0,0,0,0,0,-1,1994,435,0,0
777,589,0,0,0,0,0,0,0,0,0,-1,2001,435,0,0
784,589,0,0,0,0,0,0,0,0,0,-1,2008,435,0,0
791,589,0,0,0,0,0,0,0,0,0,-1,2015,435,0,0
798,589,0,0,0,0,0,0,0,0,0,-1,2022,435,0,0
805,589,0,0,0,0,0,0,0,0,0,-1,2029,435,0,0
812,589,0,0,0,0,0,0,0,0,0,-1,2036,435,0,0
-700,582,0,0,0,0,0,0,0,0,0,-1,524,442,0,0
-693,582,0,0,0,0,0,0,0,0,0,-1,531,442,0,0
-686,582,0,0,0,0,0,0,0,0,0,-1,538,442,0,0
-679,582,0,0,0,0,0,0,0,0,0,-1,545,442,0,0
-672,582,0,0,0,0,0,0,0,0,0,-1,552,442,0,0
-665,582,0,0,0,0,0,0,0,0,0,-1,559,442,0,0
-658,582,0,0,0,0,0,0,0,0,0,-1,566,442,0,0
-651,582,0,0,0,0,0,0,0,0,0,-1,573,442,0,0
-644,582,0,0,0,0,0,0,0,0,0,-1,580,442,0,0
-637,582,0,0,0,0,0,0,0,0,0,-1,587,442,0,0
-630,582,0,0,0,0,0,0,0,0,0,-1,594,442,0,0
-623,582,0,0,0,0,0,0,0,0,0,-1,601,442,0,0
-616,582,0,0,0,0,0,0,0,0,0,-1,608,442,0,0
-609,582,0,0,0,0,0,0,0,0,0,-1,615,442,0,0
-602,582,0,0,0,0,0,0,0,0,0,-1,622,442,0,0
-595,582,0,0,0,0,0,0,0,0,0,-1,629,442,0,0
-588,582,0,0,0,0,0,0,0,0,0,-1,636,442,0,0
-581,582,0,0,0,0,0,0,0,0,0,-1,643,442,0,0
-574,582,0,0,0,0,0,0,0,0,0,-1,650,442,0,0
-567,582,0,0,0,0,0,0,0,0,0,-1,657,442,0,0
-560,582,0,0,0,0,0,0,0,0,0,-1,664,442,0,0
-553,582,0,0,0,0,0,0,0,0,0,-1,671,442,0,0
-546,582,0,0,0,0,0,0,0,0,0,-1,678,442,0,0
-539,582,0,0,0,0,0,0,0,0,0,-1,685,442,0,0
-532,582,0,0,0,0,0,0,0,0,0,-1,692,442,0,0
-525,582,0,0,0,0,0,0,0,0,0,-1,699,442,0,0
-518,582,0,0,0,0,0,0,0,0,0,-1,706,442,0,0
-511,582,0,0,0,0,0,0,0,0,0,-1,713,442,0,0
-504,582,0,0,0,0,0,0,0,0,0,-1,720,442,0,0
-497,582,0,0,0,0,0,0,0,0,0,-1,727,442,0,0
-490,582,0,0,0,0,0,0,0,0,0,-1,734,442,0,0
-483,582,0,0,0,0,0,0,0,0,0,-1,741,442,0,0
-476,582,0,0,0,0,0,0,0,0,0,-1,748,442,0,0
-469,582,0,0,0,0,0,0,0,0,0,-1,755,442,0,0
-462,582,0,0,0,0,0,0,0,0,0,-1,762,442,0,0
-455,582,0,0,0,0,0,0,0,0,0,-1,769,442,0,0
-448,582,0,0,0,0,0,0,0,0,0,-1,776,442,0,0
-441,582,0,0,0,0,0,0,0,0,0,-1,783,442,0,0
-434,582,0,0,0,0,0,0,0,0,0,-1,790,442,0,0
-427,582,0,0,0,0,0,0,0,0,0,-1,797,442,0,0
-420,582,0,0,0,0,0,0,0,0,0,-1,804,442,0,0
-413,582,0,0,0,0,0,0,0,0,0,-1,811,442,0,0
-406,582,0,0,0,0,0,0,0,0,0,-1,818,442,0,0
-399,582,0,0,0,0,0,0,0,0,0,-1,825,442,0,0
-392,582,0,0,0,0,0,0,0,0,0,-1,832,442,0,0
-385,582,0,0,0,0,0,0,0,0,0,-1,839,442,0,0
-378,582,0,0,0,0,0,0,0,0,0,-1,846,442,0,0
-371,582,0,0,0,0,0,0,0,0,0,-1,853,442,0,0
-364,582,0,0,0,0,0,0,0,0,0,-1,860,442,0,0
-357,582,6.4043,-4.18127,0,0,0,0,0,0,0,-1,867,442,6.40427,4.18126
-350,582,-1.12933,-15.713,0,0,0,0,0,0,0,-1,874,442,-1.12935,15.713
-343,582,-0.551086,-15.4312,0,0,0,0,0,0,0,-1,881,442,-0.5511,15.4311
-336,582,0.0556641,-4.78558,0,0,0,0,0,0,0,-1,888,442,0.0556634,4.78559
-329,582,0.448486,-6.00391,0,0,0,0,0,0,0,-1,895,442,0.448462,6.00392
-322,582,-0.161682,-6.80951,-0.0057294,-0.0215292,-0.0181362,0.00615277,-0.0334114,-0.579996,0.0245832,0.0471867,902,442,-0.161662,6.8095
-315,582,-0.966248,-7.99994,0,0,0,0,0,0,0,-1,909,442,-0.966246,7.99992
-308,582,1.54828,-6.03781,-0.00302558,-0.00751811,-0.00952866,0.00451799,-0.0150617,-0.669643,0.0118381,0.0496239,916,442,1.54827,6.0378
-301,582,1.48199,-6.21265,-0.00184161,-0.00393045,-0.00574643,0.00295455,-0.0087266,-0.695504,0.0070132,0.0454813,923,442,1.48198,6.21264
-294,582,1.29944,-6.47601,-0.000923143,-0.00123923,-0.0029486,0.00187164,-0.00403402,-0.758624,0.00348499,0.0427207,930,442,1.29944,6.47602
-287,582,1.32233,-6.25201,-0.000263781,0.000733643,-0.00116347,0.00150078,-0.00103092,-0.987873,0.00147005,0.0316764,937,442,1.32232,6.252
-280,582,1.40796,-6.46127,0.000222987,0.00219647,7.81247e-06,0.0021965,0.000222956,1.56684,0.00139596,0.015034,944,442,1.40794,6.46126
-273,582,1.38538,-6.63727,0.000311698,0.00335798,0.000968143,0.00363962,3.00508e-05,1.2877,0.00241646,0.0102168,951,442,1.38538,6.63726
-266,582,1.36609,-6.80148,0.00085811,0.0043531,0.0018293,0.00513544,7.57668e-05,1.16666,0.00339865,0.0100571,958,442,1.3661,6.80148
-259,582,1.36316,-6.93942,0.000949841,0.00463976,0.00169095,0.00529744,0.000292165,1.19986,0.00343838,0.00882863,965,442,1.36315,6.93941
-252,582,1.36548,-7.06726,0.00108623,0.00472461,0.00150581,0.00526697,0.000543867,1.22508,0.00334479,0.00760725,972,442,1.36545,7.06725
-245,582,1.37451,-7.19693,0.00111653,0.0047402,0.00126063,0.00513561,0.000721118,1.26685,0.00321048,0.0104903,979,442,1.37449,7.19694
-238,582,1.38098,-7.31909,0.000983265,0.00444378,0.00101643,0.00472024,0.000706806,1.30523,0.00293969,0.0155953,986,442,1.38096,7.31909
-231,582,1.37854,-7.45172,0.000752608,0.00400408,0.000731458,0.00416105,0.000595636,1.3594,0.00259834,0.0127796,993,442,1.37853,7.45171
-224,582,1.36328,-7.58585,0.000546909,0.00350593,0.000420532,0.00356454,0.000488305,1.43233,0.00223147,0.00983668,1000,442,1.36327,7.58586
-217,582,1.35876,-7.71292,0.000257129,0.00302055,6.36178e-05,0.00302201,0.000255665,1.54779,0.00193509,0.012145,1007,442,1.35877,7.71291
-210,582,1.37213,-7.82843,-1.8213e-05,0.00252053,-0.000186208,0.00253412,-3.17979e-05,-1.49797,0.00170011,0.0123764,1014,442,1.37214,7.82842
-203,582,1.37006,-7.94012,-0.000194009,0.00219683,9.48497e-05,0.00220059,-0.000197766,1.53121,0.00153723,0.00947302,1021,442,1.37007,7.94012
-196,582,1.34766,-8.05957,-0.000347322,0.00149242,0.000288187,0.00153651,-0.000391409,1.41899,0.00117671,0.0145407,1028,442,1.3477,8.05958
-189,582,1.30713,-8.16412,-0.000269572,0.00107705,0.000571139,0.00128666,-0.000479181,1.21906,0.00105444,0.0210096,1035,442,1.30719,8.16411
-182,582,1.32324,-8.24112,-0.000145394,0.000492656,0.00115729,0.00137409,-0.00102683,0.919891,0.00139099,0.0146022,1042,442,1.32322,8.24112
-175,582,1.35974,-8.31464,7.21341e-05,3.06194e-05,0.00185002,0.00190152,-0.00179876,0.779788,0.00213663,0.0132104,1049,442,1.35971,8.31463
-168,582,1.3772,-8.43851,0.000301082,-0.000509796,0.00253518,0.00246304,-0.00267175,0.706107,0.00296539,0.0112486,1056,442,1.37723,8.4385
-161,582,1.38306,-8.53403,0.000522068,-0.00103902,0.00310673,0.00294481,-0.00346177,0.662324,0.00370285,0.0126454,1063,442,1.38302,8.53402
-154,582,1.38782,-8.61713,0.000611178,-0.00134312,0.00362438,0.00338782,-0.00411976,0.653726,0.00434136,0.0125222,1070,442,1.38786,8.61714
-147,582,1.40784,-8.72018,0.000618858,-0.00147002,0.00423232,0.00393371,-0.00478487,0.664427,0.00504166,0.0112129,1077,442,1.40781,8.72017
-140,582,1.40112,-8.806,0.000891552,-0.00144854,0.00447758,0.00434943,-0.00490642,0.6576,0.00534709,0.0116599,1084,442,1.40107,8.80598
-133,582,1.41785,-8.90359,0.00103359,-0.00122318,0.00452614,0.00456988,-0.00475947,0.663236,0.00538667,0.0142115,1091,442,1.41786,8.90358
-126,582,1.44275,-8.95697,0.000935836,-0.000901262,0.00442955,0.00454107,-0.0045065,0.683163,0.00522363,0.0131918,1098,442,1.44276,8.95698
-119,582,1.43896,-9.00192,0.000701059,-9.41473e-05,0.0041514,0.00447385,-0.00386694,0.737656,0.00481981,0.0173076,1105,442,1.43898,9.00191
-112,582,1.41748,-9.13724,0.000600362,0.00106652,0.00392607,0.00476643,-0.00309954,0.815047,0.00457528,0.0239918,1112,442,1.41746,9.13723
-105,582,1.39355,-9.24954,0.000368725,0.00247498,0.00357247,0.00514632,-0.00230261,0.928733,0.00440387,0.0298302,1119,442,1.39352,9.24953
-98,582,1.35864,-9.35522,-0.00029641,0.00413921,0.0023561,0.00515712,-0.00131432,1.16298,0.00394977,0.0322701,1126,442,1.35862,9.35521
-91,582,1.44336,-9.41199,-0.00115576,0.00691504,0.00173912,0.00727384,-0.00151456,1.36734,0.00542501,0.0378751,1133,442,1.4434,9.41198
-84,582,1.54517,-9.53162,-0.00238118,0.00850575,0.00227026,0.0089602,-0.00283563,1.37323,0.00710973,0.0434812,1140,442,1.54513,9.53161
-77,582,1.75818,-9.67789,0,0,0,0,0,0,0,-1,1147,442,1.75816,9.67789
-70,582,1.49255,-6.36548,0,0,0,0,0,0,0,-1,1154,442,1.49251,6.36549
-63,582,-4.62915,-4.0347,0,0,0,0,0,0,0,-1,1161,442,-4.6292,4.03471
-56,582,-5.81714,-5.24149,0,0,0,0,0,0,0,-1,1168,442,-5.81718,5.24149
-49,582,-3.88672,-10.1064,0,0,0,0,0,0,0,-1,1175,442,-3.88678,10.1064
-42,582,-0.948975,1.13968,0,0,0,0,0,0,0,-1,1182,442,-0.949003,-1.13969
-35,582,-2.58435,-3.86911,0,0,0,0,0,0,0,-1,1189,442,-2.58437,3.86912
-28,582,-0.825317,-3.45941,0,0,0,0,0,0,0,-1,1196,442,-0.825377,3.45942
-21,582,3.67322,-8.62357,0,0,0,0,0,0,0,-1,1203,442,3.67324,8.62355
-14,582,2.94043,-8.71582,0,0,0,0,0,0,0,-1,1210,442,2.94045,8.71583
-7,582,2.19702,-8.49255,0,0,0,0,0,0,0,-1,1217,442,2.19696,8.49255
0,582,1.58032,-8.1926,0,0,0,0,0,0,0,-1,1224,442,1.58037,8.19258
7,582,5.03296,5.94913,0,0,0,0,0,0,0,-1,1231,442,5.03295,-5.94912
14,582,4.62988,5.36633,0,0,0,0,0,0,0,-1,1238,442,4.62986,-5.36634
21,582,0.319824,-6.63226,0,0,0,0,0,0,0,-1,1245,442,0.319874,6.63226
28,582,0.74585,-7.60416,0.0519013,0.0441037,-0.0962101,0.144292,-0.0482866,-0.765148,0.115699,0.0453072,1252,442,0.745824,7.60417
35,582,1.27185,-8.43726,0.0573259,0.0318857,-0.0909464,0.136437,-0.0472258,-0.715917,0.110129,0.0462808,1259,442,1.27185,8.43725
42,582,1.56079,-8.92609,0.0578387,0.0202023,-0.0844002,0.125493,-0.0474522,-0.67571,0.103183,0.0437862,1266,442,1.5608,8.9261
49,582,1.87732,-9.35535,0.0531264,0.0112014,-0.0760268,0.111028,-0.0466999,-0.650878,0.0935545,0.0436202,1273,442,1.87728,9.35536
56,582,2.98169,-9.7627,0,0,0,0,0,0,0,-1,1280,442,2.98173,9.7627
63,582,2.73425,-9.41846,0,0,0,0,0,0,0,-1,1287,442,2.7343,9.41846
70,582,2.50769,-9.25455,0.0179667,-0.00876782,-0.0481022,0.0545245,-0.0453256,-0.649871,0.0577299,0.0441899,1294,442,2.50764,9.25453
77,582,2.46313,-9.42502,0.00712739,-0.00982411,-0.037904,0.0374917,-0.0401884,-0.675402,0.0448576,0.0451463,1301,442,2.46317,9.42501
84,582,2.30115,-10.0595,-0.0069606,-0.00847197,-0.0305224,0.0228154,-0.038248,-0.773021,0.0356283,0.0457886,1308,442,2.30115,10.0595
91,582,1.91699,-10.228,-0.0176113,-0.0065382,-0.0238336,0.0123935,-0.036543,-0.899524,0.0293778,0.0420822,1315,442,1.91694,10.228
98,582,1.18091,-10.8613,-0.0254725,-0.00481619,-0.0196086,0.00701798,-0.0373066,-1.02779,0.0275104,0.0440932,1322,442,1.18092,10.8613
105,582,0.204956,-11.8397,-0.0306335,-0.00331896,-0.0162054,0.00421656,-0.038169,-1.13554,0.0269617,0.0430065,1329,442,0.204999,11.8397
112,582,-0.695923,-12.6704,-0.0322089,-0.00190725,-0.0138084,0.0034412,-0.0375574,-1.20126,0.0262606,0.0409346,1336,442,-0.695937,12.6704
119,582,-1.7959,-13.9329,-0.0321934,-0.00246594,-0.0120899,0.00183007,-0.0364894,-1.22937,0.0249586,0.040693,1343,442,-1.7959,13.9328
126,582,-2.81934,-15.0738,-0.0320607,-0.00295995,-0.0112573,0.000886437,-0.0359071,-1.24155,0.0242389,0.0430105,1350,442,-2.81933,15.0738
133,582,-3.78247,-16.269,-0.033262,-0.00712621,-0.0116076,-0.00271536,-0.0376728,-1.20765,0.0242608,0.0470401,1357,442,-3.78247,16.269
140,582,2.21436,-9.09494,0,0,0,0,0,0,0,-1,1364,442,2.21439,9.09495
147,582,2.59851,-8.62579,0,0,0,0,0,0,0,-1,1371,442,2.59856,8.62578
154,582,-2.22729,-19.8313,0,0,0,0,0,0,0,-1,1378,442,-2.22728,19.8313
161,582,2.45288,-8.43344,0,0,0,0,0,0,0,-1,1385,442,2.4529,8.43345
168,582,4.51733,-5.80917,0,0,0,0,0,0,0,-1,1392,442,4.51737,5.80918
175,582,6.50549,-2.00424,0,0,0,0,0,0,0,-1,1399,442,6.50546,2.00425
182,582,5.18958,-2.18652,0,0,0,0,0,0,0,-1,1406,442,5.1896,2.18652
189,582,6.19751,-0.880951,0,0,0,0,0,0,0,-1,1413,442,6.19754,0.88096
196,582,4.87354,-2.22327,0,0,0,0,0,0,0,-1,1420,442,4.87348,2.22325
203,582,3.11401,-4.48257,0,0,0,0,0,0,0,-1,1427,442,3.11404,4.48259
210,582,2.47314,-8.1662,0,0,0,0,0,0,0,-1,1434,442,2.47317,8.16619
217,582,2.42419,-8.35269,0.00257914,-0.0116637,-0.00244958,0.00298866,-0.0120732,-0.165648,0.00920815,0.0396305,1441,442,2.42418,8.35268
224,582,2.21375,-8.67346,0.0025214,-0.00943569,-0.00217409,0.00290443,-0.00981872,-0.174391,0.00769879,0.0466251,1448,442,2.21368,8.67346
231,582,2.63818,-8.74899,0.00250536,-0.00728039,-0.00187885,0.0028537,-0.00762873,-0.183318,0.00625784,0.0435432,1455,442,2.63822,8.74901
238,582,2.58521,-8.6586,0.0026128,-0.005296,-0.00169755,0.00296176,-0.00564497,-0.202745,0.00504895,0.0383716,1462,442,2.58521,8.6586
245,582,2.56812,-8.65057,0.00275886,-0.00364641,-0.00173989,0.00320096,-0.00408851,-0.24883,0.00421896,0.0354939,1469,442,2.5681,8.65058
252,582,2.70959,-8.44955,0.00260393,-0.00227197,-0.00186404,0.00323489,-0.00290293,-0.326387,0.0035454,0.0216629,1476,442,2.70962,8.44955
259,582,2.67712,-8.36047,0.0022412,-0.00135272,-0.00188318,0.00304721,-0.00215873,-0.404411,0.0030202,0.0162257,1483,442,2.67707,8.36046
266,582,2.66919,-8.24442,0.00193972,-0.000738026,-0.0019336,0.00295273,-0.00175104,-0.482586,0.00274511,0.0128376,1490,442,2.66918,8.24442
273,582,2.69006,-8.11871,0.00170472,-8.59918e-06,-0.00195562,0.00298308,-0.00128696,-0.578963,0.00252931,0.0118203,1497,442,2.69001,8.11873
280,582,2.6886,-8.00998,0.00113025,3.61184e-05,-0.00212611,0.00277854,-0.00161218,-0.659475,0.00256462,0.0107631,1504,442,2.68858,8.00997
287,582,2.70337,-7.88,0.000692616,-0.000165421,-0.00208392,0.00239122,-0.00186402,-0.683881,0.00246304,0.0101828,1511,442,2.70335,7.88
294,582,2.72473,-7.75668,0.000513263,-0.000260207,-0.00200269,0.00216621,-0.00191316,-0.690018,0.00235674,0.00853336,1518,442,2.72476,7.75669
301,582,2.74329,-7.61877,0.000213634,-0.000516241,-0.00193576,0.00181855,-0.00212116,-0.692229,0.00227683,0.00980776,1525,442,2.74333,7.61879
308,582,2.75378,-7.49249,-2.15024e-05,-0.00050967,-0.00172731,0.00147888,-0.00201005,-0.715208,0.0020221,0.0131754,1532,442,2.75377,7.49248
315,582,2.74219,-7.38046,-0.000124022,-0.000612988,-0.00150437,0.0011556,-0.00189261,-0.704845,0.00177695,0.0143761,1539,442,2.74215,7.38047
322,582,2.74304,-7.25095,-0.000155417,-0.000637387,-0.00117292,0.000801016,-0.00159382,-0.684079,0.00140769,0.0114477,1546,442,2.7431,7.25093
329,582,2.74609,-7.12961,-5.97828e-05,-0.000755635,-0.000764137,0.000431909,-0.00124733,-0.571764,0.00100689,0.0100679,1553,442,2.74609,7.12961
336,582,2.74121,-6.99011,0.000106826,-0.000750546,-0.00031298,0.000208921,-0.000852641,-0.315319,0.000649368,0.00981787,1560,442,2.74117,6.99013
343,582,2.74878,-6.83115,0.000271528,-0.000778984,0.00015773,0.000294699,-0.000802155,0.145862,0.000655471,0.0129734,1567,442,2.74879,6.83115
350,582,2.73853,-6.72052,0.000498076,-0.000774348,0.000696708,0.000805351,-0.00108162,0.415376,0.00109333,0.0165715,1574,442,2.73854,6.72051
357,582,2.73767,-6.57483,0.000790672,-0.000789048,0.00125701,0.00148538,-0.00148376,0.504891,0.00171424,0.0135273,1581,442,2.73772,6.57483
364,582,2.74255,-6.40207,0.00108215,-0.000745291,0.00175293,0.00214521,-0.00180835,0.545145,0.00228535,0.0103122,1588,442,2.74253,6.40208
371,582,2.73315,-6.25974,0.00134402,-0.000891631,0.00221401,0.0027064,-0.00225401,0.551624,0.00286786,0.0149968,1595,442,2.73314,6.25974
378,582,2.71985,-6.13034,0.00149667,-0.00109355,0.00263283,0.00313569,-0.00273257,0.556822,0.00339071,0.0160375,1602,442,2.71981,6.13034
385,582,2.71484,-5.97321,0.00153174,-0.00130215,0.0027888,0.00324292,-0.00301332,0.550351,0.00361285,0.0106508,1609,442,2.7148,5.97319
392,582,2.71069,-5.81882,0.00151093,-0.00173279,0.00269406,0.00303365,-0.00325551,0.51445,0.0036318,0.00940445,1616,442,2.71066,5.81882
399,582,2.69934,-5.66617,0.00152003,-0.0023583,0.00266153,0.0028739,-0.00371217,0.470569,0.00381272,0.0117931,1623,442,2.69939,5.66616
406,582,2.69202,-5.4874,0.00139766,-0.00306949,0.00250569,0.00252077,-0.00419261,0.421377,0.00391583,0.0169733,1630,442,2.69207,5.4874
413,582,2.698,-5.31918,0.00145307,-0.00358235,0.000690528,0.00154605,-0.00367533,0.133843,0.00309699,0.0372524,1637,442,2.698,5.31919
420,582,2.73901,-5.3613,-0.00098621,-0.00464825,-0.00105822,-0.000702409,-0.00493205,-0.262021,0.0030807,0.048025,1644,442,2.739,5.3613
427,582,2.7323,-5.12106,-0.00629727,-0.00491183,-0.00340717,-0.00212767,-0.00908143,-0.885688,0.0054844,0.0475196,1651,442,2.73232,5.12108
434,582,2.38794,-4.87683,0,0,0,0,0,0,0,-1,1658,442,2.38788,4.87682
441,582,2.34778,-4.86676,0,0,0,0,0,0,0,-1,1665,442,2.34775,4.86677
448,582,1.52722,-2.85928,0,0,0,0,0,0,0,-1,1672,442,1.52724,2.85927
455,582,2.15161,-2.53387,0,0,0,0,0,0,0,-1,1679,442,2.1516,2.53388
462,582,2.35364,-3.22681,-0.0381458,-0.0057989,-0.0187652,0.0028009,-0.0467456,-1.14107,0.0321381,0.0494728,1686,442,2.35365,3.22681
469,582,2.45764,-4.08325,-0.0475251,-0.00519991,-0.0214495,0.00376947,-0.0564945,-1.17473,0.0389803,0.0485207,1693,442,2.45766,4.08326
476,582,1.02551,-3.672,-0.0583711,-0.00449395,-0.0241666,0.00475743,-0.0676225,-1.20519,0.0467482,0.0495424,1700,442,1.02547,3.67199
483,582,0,0,0,0,0,0,0,0,0,-1,1707,442,0,0
490,582,0,0,0,0,0,0,0,0,0,-1,1714,442,0,0
497,582,0,0,0,0,0,0,0,0,0,-1,1721,442,0,0
504,582,0,0,0,0,0,0,0,0,0,-1,1728,442,0,0
511,582,0,0,0,0,0,0,0,0,0,-1,1735,442,0,0
518,582,0,0,0,0,0,0,0,0,0,-1,1742,442,0,0
525,582,0,0,0,0,0,0,0,0,0,-1,1749,442,0,0
532,582,0,0,0,0,0,0,0,0,0,-1,1756,442,0,0
539,582,0,0,0,0,0,0,0,0,0,-1,1763,442,0,0
546,582,0,0,0,0,0,0,0,0,0,-1,1770,442,0,0
553,582,0,0,0,0,0,0,0,0,0,-1,1777,442,0,0
560,582,0,0,0,0,0,0,0,0,0,-1,1784,442,0,0
567,582,0,0,0,0,0,0,0,0,0,-1,1791,442,0,0
574,582,0,0,0,0,0,0,0,0,0,-1,1798,442,0,0
581,582,0,0,0,0,0,0,0,0,0,-1,1805,442,0,0
588,582,0,0,0,0,0,0,0,0,0,-1,1812,442,0,0
595,582,0,0,0,0,0,0,0,0,0,-1,1819,442,0,0
602,582,0,0,0,0,0,0,0,0,0,-1,1826,442,0,0
609,582,0,0,0,0,0,0,0,0,0,-1,1833,442,0,0
616,582,0,0,0,0,0,0,0,0,0,-1,1840,442,0,0
623,582,0,0,0,0,0,0,0,0,0,-1,1847,442,0,0
630,582,0,0,0,0,0,0,0,0,0,-1,1854,442,0,0
637,582,0,0,0,0,0,0,0,0,0,-1,1861,442,0,0
644,582,0,0,0,0,0,0,0,0,0,-1,1868,442,0,0
651,582,0,0,0,0,0,0,0,0,0,-1,1875,442,0,0
658,582,0,0,0,0,0,0,0,0,0,-1,1882,442,0,0
665,582,0,0,0,0,0,0,0,0,0,-1,1889,442,0,0
672,582,0,0,0,0,0,0,0,0,0,-1,1896,442,0,0
679,582,0,0,0,0,0,0,0,0,0,-1,1903,442,0,0
686,582,0,0,0,0,0,0,0,0,0,-1,1910,442,0,0
693,582,0,0,0,0,0,0,0,0,0,-1,1917,442,0,0
700,582,0,0,0,0,0,0,0,0,0,-1,1924,442,0,0
707,582,0,0,0,0,0,0,0,0,0,-1,1931,442,0,0
714,582,0,0,0,0,0,0,0,0,0,-1,1938,442,0,0
721,582,0,0,0,0,0,0,0,0,0,-1,1945,442,0,0
728,582,0,0,0,0,0,0,0,0,0,-1,1952,442,0,0
735,582,0,0,0,0,0,0,0,0,0,-1,1959,442,0,0
742,582,0,0,0,0,0,0,0,0,0,-1,1966,442,0,0
749,582,0,0,0,0,0,0,0,0,0,-1,1973,442,0,0
756,582,0,0,0,0,0,0,0,0,0,-1,1980,442,0,0
763,582,0,0,0,0,0,0,0,0,0,-1,1987,442,0,0
770,582,0,0,0,0,0,0,0,0,0,-1,1994,442,0,0
777,582,0,0,0,0,0,0,0,0,0,-1,2001,442,0,0
784,582,0,0,0,0,0,0,0,0,0,-1,2008,442,0,0
791,582,0,0,0,0,0,0,0,0,0,-1,2015,442,0,0
798,582,0,0,0,0,0,0,0,0,0,-1,2022,442,0,0
805,582,0,0,0,0,0,0,0,0,0,-1,2029,442,0,0
812,582,0,0,0,0,0,0,0,0,0,-1,2036,442,0,0
-700,575,0,0,0,0,0,0,0,0,0,-1,524,449,0,0
-693,575,0,0,0,0,0,0,0,0,0,-1,531,449,0,0
-686,575,0,0,0,0,0,0,0,0,0,-1,538,449,0,0
-679,575,0,0,0,0,0,0,0,0,0,-1,545,449,0,0
-672,575,0,0,0,0,0,0,0,0,0,-1,552,449,0,0
-665,575,0,0,0,0,0,0,0,0,0,-1,559,449,0,0
-658,575,0,0,0,0,0,0,0,0,0,-1,566,449,0,0
-651,575,0,0,0,0,0,0,0,0,0,-1,573,449,0,0
-644,575,0,0,0,0,0,0,0,0,0,-1,580,449,0,0
-637,575,0,0,0,0,0,0,0,0,0,-1,587,449,0,0
-630,575,0,0,0,0,0,0,0,0,0,-1,594,449,0,0
-623,575,0,0,0,0,0,0,0,0,0,-1,601,449,0,0
-616,575,0,0,0,0,0,0,0,0,0,-1,608,449,0,0
-609,575,0,0,0,0,0,0,0,0,0,-1,615,449,0,0
-602,575,0,0,0,0,0,0,0,0,0,-1,622,449,0,0
-595,575,0,0,0,0,0,0,0,0,0,-1,629,449,0,0
-588,575,0,0,0,0,0,0,0,0,0,-1,636,449,0,0
-581,575,0,0,0,0,0,0,0,0,0,-1,643,449,0,0
-574,575,0,0,0,0,0,0,0,0,0,-1,650,449,0,0
-567,575,0,0,0,0,0,0,0,0,0,-1,657,449,0,0
-560,575,0,0,0,0,0,0,0,0,0,-1,664,449,0,0
-553,575,0,0,0,0,0,0,0,0,0,-1,671,449,0,0
-546,575,0,0,0,0,0,0,0,0,0,-1,678,449,0,0
-539,575,0,0,0,0,0,0,0,0,0,-1,685,449,0,0
-532,575,0,0,0,0,0,0,0,0,0,-1,692,449,0,0
-525,575,0,0,0,0,0,0,0,0,0,-1,699,449,0,0
-518,575,0,0,0,0,0,0,0,0,0,-1,706,449,0,0
-511,575,0,0,0,0,0,0,0,0,0,-1,713,449,0,0
-504,575,0,0,0,0,0,0,0,0,0,-1,720,449,0,0
-497,575,0,0,0,0,0,0,0,0,0,-1,727,449,0,0
-490,575,0,0,0,0,0,0,0,0,0,-1,734,449,0,0
-483,575,0,0,0,0,0,0,0,0,0,-1,741,449,0,0
-476,575,0,0,0,0,0,0,0,0,0,-1,748,449,0,0
-469,575,0,0,0,0,0,0,0,0,0,-1,755,449,0,0
-462,575,0,0,0,0,0,0,0,0,0,-1,762,449,0,0
-455,575,0,0,0,0,0,0,0,0,0,-1,769,449,0,0
-448,575,0,0,0,0,0,0,0,0,0,-1,776,449,0,0
-441,575,0,0,0,0,0,0,0,0,0,-1,783,449,0,0
-434,575,0,0,0,0,0,0,0,0,0,-1,790,449,0,0
-427,575,0,0,0,0,0,0,0,0,0,-1,797,449,0,0
-420,575,0,0,0,0,0,0,0,0,0,-1,804,449,0,0
-413,575,0,0,0,0,0,0,0,0,0,-1,811,449,0,0
-406,575,0,0,0,0,0,0,0,0,0,-1,818,449,0,0
-399,575,0,0,0,0,0,0,0,0,0,-1,825,449,0,0
-392,575,0,0,0,0,0,0,0,0,0,-1,832,449,0,0
-385,575,0,0,0,0,0,0,0,0,0,-1,839,449,0,0
-378,575,0,0,0,0,0,0,0,0,0,-1,846,449,0,0
-371,575,0.56897,-3.52304,0,0,0,0,0,0,0,-1,853,449,0.568955,3.52306
-364,575,-1.88873,-3.23779,0,0,0,0,0,0,0,-1,860,449,-1.88874,3.23779
-357,575,7.00562,-3.99518,0,0,0,0,0,0,0,-1,867,449,7.0056,3.99517
-350,575,-1.09674,-6.20343,0,0,0,0,0,0,0,-1,874,449,-1.09671,6.20344
-343,575,0.29834,-5.3349,0,0,0,0,0,0,0,-1,881,449,0.298367,5.33489
-336,575,0.343018,-5.08307,0,0,0,0,0,0,0,-1,888,449,0.343009,5.08307
-329,575,0.565186,-6.08923,0,0,0,0,0,0,0,-1,895,449,0.565157,6.08922
-322,575,0.383667,-6.24185,0,0,0,0,0,0,0,-1,902,449,0.383686,6.24184
-315,575,1.34296,-5.99905,0,0,0,0,0,0,0,-1,909,449,1.34299,5.99904
-308,575,1.37158,-6.0882,-0.0017167,-0.00606208,-0.00754592,0.00396309,-0.0117419,-0.645225,0.00943072,0.0443205,916,449,1.37158,6.08819
-301,575,1.35437,-6.1507,-0.00108519,-0.00360492,-0.00482638,0.00264305,-0.00733316,-0.657729,0.00596817,0.0302813,923,449,1.3544,6.15068
-294,575,1.28589,-6.24481,-0.000547046,-0.00161446,-0.00271262,0.00168387,-0.00384538,-0.688264,0.00327261,0.0221009,930,449,1.28588,6.24481
-287,575,1.2785,-6.3605,-0.000171331,-0.000181134,-0.00136737,0.00119115,-0.00154361,-0.783606,0.00158328,0.0154021,937,449,1.27848,6.3605
-280,575,1.28107,-6.50754,0.000112627,0.000912793,-0.000449268,0.0011143,-8.88777e-05,-1.14917,0.000774194,0.0116855,944,449,1.28105,6.50754
-273,575,1.2655,-6.66452,7.53909e-05,0.0018468,0.000324028,0.00190421,1.79799e-05,1.39544,0.00126352,0.0107987,951,449,1.26552,6.66452
-266,575,1.25006,-6.81915,0.000502507,0.00277611,0.000972347,0.00313523,0.000143389,1.21701,0.00204404,0.0123236,958,449,1.25005,6.81917
-259,575,1.25177,-6.95636,0.000666478,0.00313989,0.00083827,0.00339722,0.00040915,1.27295,0.0021415,0.0121663,965,449,1.2518,6.95637
-252,575,1.24597,-7.06583,0.000859829,0.0033661,0.000663374,0.00353086,0.000695074,1.32736,0.00215982,0.00991365,972,449,1.24595,7.06583
-245,575,1.24084,-7.20114,0.000950709,0.00349478,0.000476063,0.00358095,0.000864543,1.39174,0.00215765,0.0126606,979,449,1.24086,7.20115
-238,575,1.24731,-7.33578,0.000908705,0.00336868,0.000300609,0.00340488,0.000872503,1.45095,0.00204219,0.0135137,986,449,1.24732,7.33579
-231,575,1.24402,-7.45517,0.000763654,0.00318131,9.03678e-05,0.00318469,0.000760281,1.53349,0.00192053,0.0117958,993,449,1.24399,7.45516
-224,575,1.22784,-7.56781,0.000644996,0.00290249,-0.000142166,0.00291141,0.000636078,-1.50815,0.00176749,0.0109464,1000,449,1.22784,7.5678
-217,575,1.23199,-7.68848,0.000360789,0.00259789,-0.000424468,0.00267572,0.000282958,-1.38945,0.00169738,0.00966564,1007,449,1.232,7.68848
-210,575,1.25488,-7.82385,2.93821e-05,0.00228406,-0.000572543,0.00242112,-0.000107676,-1.33583,0.00165114,0.00877873,1014,449,1.2549,7.82384
-203,575,1.25177,-7.94775,-0.000127564,0.00210135,1.50319e-05,0.00210145,-0.000127665,1.56405,0.0014454,0.0109494,1021,449,1.25176,7.94775
-196,575,1.2406,-8.07709,-0.000205456,0.00147721,0.000595143,0.00166643,-0.000394674,1.26297,0.00126323,0.0125101,1028,449,1.2406,8.07709
-189,575,1.24182,-8.17084,-2.94457e-05,0.00113511,0.00113085,0.00182479,-0.000719125,1.02315,0.00151426,0.0139715,1035,449,1.24187,8.17085
-182,575,1.26062,-8.24408,0.000118121,0.000505848,0.00200463,0.00232597,-0.001702,0.833602,0.00233483,0.0139357,1042,449,1.26068,8.24408
-175,575,1.276,-8.33221,0.000418967,-1.88229e-05,0.00299472,0.00320278,-0.00280264,0.748916,0.00346979,0.0111245,1049,449,1.27605,8.33222
-168,575,1.25464,-8.44058,0.000801647,-0.000641333,0.00399503,0.00413981,-0.0039795,0.696063,0.00468799,0.00995895,1056,449,1.25464,8.4406
-161,575,1.27344,-8.5419,0.00116474,-0.00131815,0.004869,0.00494807,-0.00510147,0.660573,0.00580233,0.013762,1063,449,1.27349,8.54189
-154,575,1.30164,-8.61807,0.00137997,-0.00167174,0.00562467,0.00568207,-0.00597385,0.652947,0.00673025,0.0150573,1070,449,1.30162,8.61807
-147,575,1.34021,-8.68436,0.00152932,-0.00182583,0.00645484,0.00652101,-0.00681752,0.658264,0.00770164,0.0141697,1077,449,1.34016,8.68437
-140,575,1.2959,-8.74335,0.00201446,-0.00177375,0.00680175,0.0071809,-0.0069402,0.649602,0.00815322,0.0243703,1084,449,1.29593,8.74333
-133,575,1.37061,-8.87473,0.002259,-0.0014958,0.00689301,0.0075257,-0.0067625,0.652442,0.00825322,0.0336055,1091,449,1.37058,8.87473
-126,575,1.45654,-8.85806,0.00215516,-0.00109255,0.00678828,0.00751111,-0.00644849,0.667997,0.00806736,0.040337,1098,449,1.45654,8.85806
-119,575,1.39038,-8.88504,0.00180448,-0.000100363,0.00642457,0.00734684,-0.00564273,0.711811,0.00752101,0.0415721,1105,449,1.39037,8.88504
-112,575,1.35889,-9.16946,0.00156236,0.0013108,0.00614189,0.00757975,-0.0047066,0.77516,0.00715789,0.04296,1112,449,1.35885,9.16947
-105,575,1.21179,-9.3812,0.0010776,0.00303093,0.00568493,0.00782248,-0.00371395,0.870467,0.0067999,0.0424365,1119,449,1.2118,9.3812
-98,575,0.798096,-9.50076,-0.000174126,0.00498377,0.00369363,0.00690969,-0.00210005,1.09016,0.00544323,0.0432348,1126,449,0.798044,9.50076
-91,575,1.24658,-9.43948,0,0,0,0,0,0,0,-1,1133,449,1.24661,9.43948
-84,575,1.27002,-9.56662,0,0,0,0,0,0,0,-1,1140,449,1.27006,9.56663
-77,575,0.659058,-9.26846,0,0,0,0,0,0,0,-1,1147,449,0.658999,9.26846
-70,575,-4.2467,-1.78738,0,0,0,0,0,0,0,-1,1154,449,-4.24674,1.78739
-63,575,-4.52209,-3.48798,0,0,0,0,0,0,0,-1,1161,449,-4.5221,3.48796
-56,575,-5.5968,-5.4928,0,0,0,0,0,0,0,-1,1168,449,-5.59683,5.49281
-49,575,-5.96863,-7.17612,0,0,0,0,0,0,0,-1,1175,449,-5.96868,7.1761
-42,575,-0.830322,0.773499,0,0,0,0,0,0,0,-1,1182,449,-0.83038,-0.77351
-35,575,-0.62085,0.205139,0,0,0,0,0,0,0,-1,1189,449,-0.620855,-0.205126
-28,575,0.49292,-3.87988,0,0,0,0,0,0,0,-1,1196,449,0.492941,3.87989
-21,575,4.37671,-8.89108,0,0,0,0,0,0,0,-1,1203,449,4.37669,8.89107
-14,575,8.10974,9.83411,0,0,0,0,0,0,0,-1,1210,449,8.10978,-9.8341
-7,575,7.49585,8.74567,0,0,0,0,0,0,0,-1,1217,449,7.49582,-8.74565
0,575,6.8717,7.51968,0,0,0,0,0,0,0,-1,1224,449,6.87168,-7.51967
7,575,5.94995,5.42889,0.00752993,0.11121,-0.117894,0.188158,-0.0694184,-0.992533,0.153889,0.0449144,1231,449,5.94989,-5.42889
14,575,5.45959,4.79214,0.0267349,0.0948181,-0.120976,0.18645,-0.0648973,-0.922548,0.150666,0.049537,1238,449,5.4596,-4.79215
21,575,4.78845,4.64648,0,0,0,0,0,0,0,-1,1245,449,4.78847,-4.64648
28,575,4.70544,3.32935,0.0578118,0.0617981,-0.119759,0.17958,-0.0599706,-0.793719,0.143937,0.0446174,1252,449,4.70549,-3.32933
35,575,1.03821,-8.1846,0.0654217,0.0464404,-0.11352,0.169847,-0.0579849,-0.743694,0.136722,0.0451951,1259,449,1.03825,8.18459
42,575,1.12207,-8.94574,0.0667397,0.0317245,-0.105677,0.156349,-0.0578851,-0.703308,0.127969,0.0412194,1266,449,1.12204,8.94573
49,575,2.02527,-9.43964,0.0615475,0.019973,-0.0953886,0.138388,-0.0568671,-0.678115,0.115959,0.0416759,1273,449,2.02524,9.43962
56,575,2.56873,-10.3741,0.0484926,0.00985958,-0.0834202,0.114804,-0.0564513,-0.671625,0.100769,0.0426835,1280,449,2.56871,10.3741
63,575,2.79248,-9.06461,0,0,0,0,0,0,0,-1,1287,449,2.79249,9.06459
70,575,2.48059,-8.86823,0.0190053,-0.00904073,-0.0611135,0.067684,-0.0577194,-0.672621,0.0724779,0.0464649,1294,449,2.48059,8.86821
77,575,2.38672,-9.40756,0.0047191,-0.0134743,-0.0493637,0.0458173,-0.0545725,-0.694281,0.0580335,0.0455155,1301,449,2.3867,9.40756
84,575,3.61597,-8.79492,-0.0131125,-0.014942,-0.0403447,0.0263278,-0.0543824,-0.774064,0.0475271,0.0469021,1308,449,3.61592,8.79492
91,575,2.36035,-9.93311,-0.0275475,-0.0152345,-0.0324215,0.0116098,-0.0543918,-0.879226,0.0406871,0.0435872,1315,449,2.3604,9.93311
98,575,1.20959,-10.5012,-0.0384075,-0.0151999,-0.0275532,0.00309319,-0.0567006,-0.984697,0.0388725,0.0427674,1322,449,1.20962,10.5012
105,575,0.00842285,-11.4597,0,0,0,0,0,0,0,-1,1329,449,0.00840492,11.4597
112,575,-1.11865,-12.2672,-0.0480349,-0.015056,-0.0214815,-0.00446487,-0.058626,-1.11274,0.037684,0.0411271,1336,449,-1.11863,12.2672
119,575,-2.87463,-13.5836,-0.0484754,-0.0167391,-0.0196428,-0.00735581,-0.0578587,-1.12515,0.0363694,0.0432335,1343,449,-2.87461,13.5836
126,575,-3.40979,-15.4032,-0.0483003,-0.0175375,-0.0185868,-0.00879304,-0.0570447,-1.13105,0.035464,0.0451495,1350,449,-3.40975,15.4032
133,575,0.518555,-18.0281,-0.0493601,-0.0222929,-0.0186,-0.0128239,-0.0588291,-1.09991,0.0357205,0.0435081,1357,449,0.518523,18.0281
140,575,-0.780518,-18.4384,0,0,0,0,0,0,0,-1,1364,449,-0.780575,18.4384
147,575,-2.16577,-18.6874,-0.0553887,-0.0404348,-0.0170521,-0.0292924,-0.0665311,-0.992013,0.038503,0.0466309,1371,449,-2.16572,18.6874
154,575,-3.07861,-18.7568,-0.0615554,-0.052993,-0.0158909,-0.0408167,-0.0737317,-0.916981,0.0426504,0.049493,1378,449,-3.07862,18.7568
161,575,-3.86523,-18.8377,0,0,0,0,0,0,0,-1,1385,449,-3.86521,18.8377
168,575,9.2522,-0.307129,0,0,0,0,0,0,0,-1,1392,449,9.25225,0.307127
175,575,4.32617,1.93634,0,0,0,0,0,0,0,-1,1399,449,4.32612,-1.93634
182,575,6.3147,-2.88345,0,0,0,0,0,0,0,-1,1406,449,6.31466,2.88346
189,575,6.10449,-1.30817,0,0,0,0,0,0,0,-1,1413,449,6.10455,1.30817
196,575,5.79895,0.818359,0,0,0,0,0,0,0,-1,1420,449,5.79895,-0.81837
203,575,3.29724,-1.46378,0,0,0,0,0,0,0,-1,1427,449,3.29722,1.46377
210,575,2.32739,-7.74503,0,0,0,0,0,0,0,-1,1434,449,2.32741,7.74502
217,575,2.34387,-7.90906,0,0,0,0,0,0,0,-1,1441,449,2.34381,7.90905
224,575,2.15564,-8.25012,0,0,0,0,0,0,0,-1,1448,449,2.15564,8.25012
231,575,2.10706,-9.39813,0,0,0,0,0,0,0,-1,1455,449,2.10707,9.39813
238,575,2.8429,-8.78824,0,0,0,0,0,0,0,-1,1462,449,2.84288,8.78824
245,575,2.73352,-8.94589,0,0,0,0,0,0,0,-1,1469,449,2.73354,8.94588
252,575,3.16431,-7.94684,0,0,0,0,0,0,0,-1,1476,449,3.16431,7.94685
259,575,3.09521,-7.93454,0,0,0,0,0,0,0,-1,1483,449,3.09519,7.93455
266,575,2.83423,-8.21725,0.00247205,-0.00103664,-0.00270663,0.00394316,-0.00250776,-0.497857,0.00375505,0.0477196,1490,449,2.83423,8.21724
273,575,2.85461,-8.15887,0.0021122,-9.20094e-05,-0.00271602,0.0039412,-0.00192102,-0.592659,0.00345089,0.031487,1497,449,2.85459,8.15886
280,575,2.83887,-7.97195,0.00130451,-0.000153659,-0.00304453,0.00370604,-0.00255519,-0.667874,0.00363522,0.0189123,1504,449,2.83885,7.97194
287,575,2.80847,-7.88705,0.000675338,-0.000502723,-0.00311821,0.00325967,-0.00308705,-0.692048,0.00366473,0.0121638,1511,449,2.80847,7.88705
294,575,2.83801,-7.75272,0.000401075,-0.00073325,-0.00310616,0.00299143,-0.0033236,-0.695096,0.00364766,0.00999933,1518,449,2.83806,7.75271
301,575,2.8562,-7.63589,-3.36769e-05,-0.00120916,-0.00314173,0.00257482,-0.00381765,-0.692929,0.00371387,0.00972628,1525,449,2.85617,7.63589
308,575,2.87305,-7.49954,-0.000418613,-0.00135281,-0.0030487,0.00219856,-0.00396999,-0.709383,0.00361003,0.0107089,1532,449,2.87309,7.49956
315,575,2.86304,-7.38635,-0.000641826,-0.00158276,-0.00291686,0.00184227,-0.00406685,-0.705441,0.00349129,0.011205,1539,449,2.86307,7.38636
322,575,2.87732,-7.25204,-0.000773795,-0.00165851,-0.00263476,0.00145548,-0.00388778,-0.702228,0.0031897,0.0102152,1546,449,2.87727,7.25204
329,575,2.84888,-7.13843,-0.000756318,-0.00174649,-0.00226703,0.00106906,-0.00357187,-0.677894,0.00280631,0.0101245,1553,449,2.84893,7.13844
336,575,2.84119,-6.99933,-0.000628526,-0.00165156,-0.0018161,0.000746715,-0.00302681,-0.648125,0.00230741,0.0115554,1560,449,2.84115,6.99932
343,575,2.89136,-6.83401,-0.000509701,-0.0015693,-0.00132012,0.000382962,-0.00246196,-0.594573,0.00178273,0.0119329,1567,449,2.89132,6.83401
350,575,2.88623,-6.70374,-0.000325125,-0.00142872,-0.00073141,3.92885e-05,-0.00179313,-0.462234,0.00120873,0.0110466,1574,449,2.88619,6.70374
357,575,2.87256,-6.55878,-2.84639e-05,-0.00128834,-0.000114687,-1.8109e-05,-0.0012987,-0.090044,0.000859826,0.0106961,1581,449,2.8726,6.55878
364,575,2.85986,-6.4021,0.000286627,-0.0010681,0.000441089,0.000417583,-0.00119905,0.288604,0.000969034,0.0101164,1588,449,2.85982,6.4021
371,575,2.85742,-6.28061,0.000560875,-0.00100845,0.000972511,0.0010258,-0.00147337,0.44595,0.00145059,0.0187306,1595,449,2.85742,6.28062
378,575,2.88074,-6.12418,0.000746885,-0.00096673,0.00146011,0.00158301,-0.00180286,0.520065,0.00195621,0.0183088,1602,449,2.88079,6.12417
385,575,2.86096,-5.95883,0.000834612,-0.00103466,0.00169815,0.00183834,-0.00203838,0.533829,0.00223922,0.0111166,1609,449,2.861,5.95883
392,575,2.84778,-5.81277,0.000857023,-0.00134918,0.00169812,0.00177888,-0.00227103,0.497351,0.00234397,0.00883678,1616,449,2.84778,5.81276
399,575,2.8595,-5.66876,0.000898865,-0.00184119,0.00171566,0.0017244,-0.00266672,0.448473,0.0025546,0.00898187,1623,449,2.85951,5.66876
406,575,2.8573,-5.49829,0.000835449,-0.00236042,0.00164592,0.00153151,-0.00305649,0.400094,0.00269722,0.010189,1630,449,2.85732,5.4983
413,575,2.82349,-5.34442,0.000875659,-0.00275086,0.00036182,0.000911405,-0.0027866,0.0984771,0.00222466,0.0117558,1637,449,2.82349,5.34441
420,575,2.7959,-5.1778,-0.000839985,-0.00353548,-0.000888823,-0.000573289,-0.00380218,-0.291508,0.00236695,0.013451,1644,449,2.79588,5.17778
427,575,2.76929,-5.04218,-0.00443968,-0.0037188,-0.00259207,-0.00146222,-0.00669625,-0.854483,0.00406538,0.0185421,1651,449,2.76933,5.04218
434,575,2.72083,-4.93906,-0.00725312,-0.00395577,-0.00453006,-0.000783701,-0.0104252,-0.959919,0.00670418,0.0251205,1658,449,2.72085,4.93904
441,575,2.70056,-4.87463,-0.0108328,-0.0043361,-0.00671045,-0.000129122,-0.0150398,-1.01081,0.00998377,0.0410971,1665,449,2.70054,4.87462
448,575,2.66687,-4.83276,0,0,0,0,0,0,0,-1,1672,449,2.66692,4.83276
455,575,2.25085,-2.58069,0,0,0,0,0,0,0,-1,1679,449,2.25082,2.58068
462,575,2.35681,-3.24911,-0.0271607,-0.00409491,-0.0139138,0.00244432,-0.0336999,-1.13145,0.0233241,0.0477358,1686,449,2.35687,3.2491
469,575,2.38806,-3.81097,-0.0342752,-0.00369072,-0.0162285,0.00331539,-0.0412813,-1.16325,0.0286899,0.0448218,1693,449,2.38808,3.81096
476,575,1.59045,-3.68457,-0.042604,-0.00329928,-0.0187662,0.00422164,-0.0501249,-1.18963,0.034909,0.0497005,1700,449,1.59051,3.68458
483,575,1.47107,-3.17142,0,0,0,0,0,0,0,-1,1707,449,1.47108,3.17143
490,575,1.43164,-2.68155,0,0,0,0,0,0,0,-1,1714,449,1.4316,2.68155
497,575,0,0,0,0,0,0,0,0,0,-1,1721,449,0,0
504,575,0,0,0,0,0,0,0,0,0,-1,1728,449,0,0
511,575,0,0,0,0,0,0,0,0,0,-1,1735,449,0,0
518,575,0,0,0,0,0,0,0,0,0,-1,1742,449,0,0
525,575,0,0,0,0,0,0,0,0,0,-1,1749,449,0,0
532,575,0,0,0,0,0,0,0,0,0,-1,1756,449,0,0
539,575,0,0,0,0,0,0,0,0,0,-1,1763,449,0,0
546,575,0,0,0,0,0,0,0,0,0,-1,1770,449,0,0
553,575,0,0,0,0,0,0,0,0,0,-1,1777,449,0,0
560,575,0,0,0,0,0,0,0,0,0,-1,1784,449,0,0
567,575,0,0,0,0,0,0,0,0,0,-1,1791,449,0,0
574,575,0,0,0,0,0,0,0,0,0,-1,1798,449,0,0
581,575,0,0,0,0,0,0,0,0,0,-1,1805,449,0,0
588,575,0,0,0,0,0,0,0,0,0,-1,1812,449,0,0
595,575,0,0,0,0,0,0,0,0,0,-1,1819,449,0,0
602,575,0,0,0,0,0,0,0,0,0,-1,1826,449,0,0
609,575,0,0,0,0,0,0,0,0,0,-1,1833,449,0,0
616,575,0,0,0,0,0,0,0,0,0,-1,1840,449,0,0
623,575,0,0,0,0,0,0,0,0,0,-1,1847,449,0,0
630,575,0,0,0,0,0,0,0,0,0,-1,1854,449,0,0
637,575,0,0,0,0,0,0,0,0,0,-1,1861,449,0,0
644,575,0,0,0,0,0,0,0,0,0,-1,1868,449,0,0
651,575,0,0,0,0,0,0,0,0,0,-1,1875,449,0,0
658,575,0,0,0,0,0,0,0,0,0,-1,1882,449,0,0
665,575,0,0,0,0,0,0,0,0,0,-1,1889,449,0,0
672,575,0,0,0,0,0,0,0,0,0,-1,1896,449,0,0
679,575,0,0,0,0,0,0,0,0,0,-1,1903,449,0,0
686,575,0,0,0,0,0,0,0,0,0,-1,1910,449,0,0
693,575,0,0,0,0,0,0,0,0,0,-1,1917,449,0,0
700,575,0,0,0,0,0,0,0,0,0,-1,1924,449,0,0
707,575,0,0,0,0,0,0,0,0,0,-1,1931,449,0,0
714,575,0,0,0,0,0,0,0,0,0,-1,1938,449,0,0
721,575,0,0,0,0,0,0,0,0,0,-1,1945,449,0,0
728,575,0,0,0,0,0,0,0,0,0,-1,1952,449,0,0
735,575,0,0,0,0,0,0,0,0,0,-1,1959,449,0,0
742,575,0,0,0,0,0,0,0,0,0,-1,1966,449,0,0
749,575,0,0,0,0,0,0,0,0,0,-1,1973,449,0,0
756,575,0,0,0,0,0,0,0,0,0,-1,1980,449,0,0
763,575,0,0,0,0,0,0,0,0,0,-1,1987,449,0,0
770,575,0,0,0,0,0,0,0,0,0,-1,1994,449,0,0
777,575,0,0,0,0,0,0,0,0,0,-1,2001,449,0,0
784,575,0,0,0,0,0,0,0,0,0,-1,2008,449,0,0
791,575,0,0,0,0,0,0,0,0,0,-1,2015,449,0,0
798,575,0,0,0,0,0,0,0,0,0,-1,2022,449,0,0
805,575,0,0,0,0,0,0,0,0,0,-1,2029,449,0,0
812,575,0,0,0,0,0,0,0,0,0,-1,2036,449,0,0
-700,568,0,0,0,0,0,0,0,0,0,-1,524,456,0,0
-693,568,0,0,0,0,0,0,0,0,0,-1,531,456,0,0
-686,568,0,0,0,0,0,0,0,0,0,-1,538,456,0,0
-679,568,0,0,0,0,0,0,0,0,0,-1,545,456,0,0
-672,568,0,0,0,0,0,0,0,0,0,-1,552,456,0,0
-665,568,0,0,0,0,0,0,0,0,0,-1,559,456,0,0
-658,568,0,0,0,0,0,0,0,0,0,-1,566,456,0,0
-651,568,0,0,0,0,0,0,0,0,0,-1,573,456,0,0
-644,568,0,0,0,0,0,0,0,0,0,-1,580,456,0,0
-637,568,0,0,0,0,0,0,0,0,0,-1,587,456,0,0
-630,568,0,0,0,0,0,0,0,0,0,-1,594,456,0,0
-623,568,0,0,0,0,0,0,0,0,0,-1,601,456,0,0
-616,568,0,0,0,0,0,0,0,0,0,-1,608,456,0,0
-609,568,0,0,0,0,0,0,0,0,0,-1,615,456,0,0
-602,568,0,0,0,0,0,0,0,0,0,-1,622,456,0,0
-595,568,0,0,0,0,0,0,0,0,0,-1,629,456,0,0
-588,568,0,0,0,0,0,0,0,0,0,-1,636,456,0,0
-581,568,0,0,0,0,0,0,0,0,0,-1,643,456,0,0
-574,568,0,0,0,0,0,0,0,0,0,-1,650,456,0,0
-567,568,0,0,0,0,0,0,0,0,0,-1,657,456,0,0
-560,568,0,0,0,0,0,0,0,0,0,-1,664,456,0,0
-553,568,0,0,0,0,0,0,0,0,0,-1,671,456,0,0
-546,568,0,0,0,0,0,0,0,0,0,-1,678,456,0,0
-539,568,0,0,0,0,0,0,0,0,0,-1,685,456,0,0
-532,568,0,0,0,0,0,0,0,0,0,-1,692,456,0,0
-525,568,0,0,0,0,0,0,0,0,0,-1,699,456,0,0
-518,568,0,0,0,0,0,0,0,0,0,-1,706,456,0,0
-511,568,0,0,0,0,0,0,0,0,0,-1,713,456,0,0
-504,568,0,0,0,0,0,0,0,0,0,-1,720,456,0,0
-497,568,0,0,0,0,0,0,0,0,0,-1,727,456,0,0
-490,568,0,0,0,0,0,0,0,0,0,-1,734,456,0,0
-483,568,0,0,0,0,0,0,0,0,0,-1,741,456,0,0
-476,568,0,0,0,0,0,0,0,0,0,-1,748,456,0,0
-469,568,0,0,0,0,0,0,0,0,0,-1,755,456,0,0
-462,568,0,0,0,0,0,0,0,0,0,-1,762,456,0,0
-455,568,0,0,0,0,0,0,0,0,0,-1,769,456,0,0
-448,568,0,0,0,0,0,0,0,0,0,-1,776,456,0,0
-441,568,0,0,0,0,0,0,0,0,0,-1,783,456,0,0
-434,568,0,0,0,0,0,0,0,0,0,-1,790,456,0,0
-427,568,0,0,0,0,0,0,0,0,0,-1,797,456,0,0
-420,568,0,0,0,0,0,0,0,0,0,-1,804,456,0,0
-413,568,0,0,0,0,0,0,0,0,0,-1,811,456,0,0
-406,568,0,0,0,0,0,0,0,0,0,-1,818,456,0,0
-399,568,0,0,0,0,0,0,0,0,0,-1,825,456,0,0
-392,568,0,0,0,0,0,0,0,0,0,-1,832,456,0,0
-385,568,0,0,0,0,0,0,0,0,0,-1,839,456,0,0
-378,568,-2.15979,-4.95175,0,0,0,0,0,0,0,-1,846,456,-2.15979,4.95174
-371,568,-2.20148,-4.23907,0,0,0,0,0,0,0,-1,853,456,-2.20147,4.23909
-364,568,-2.26978,-3.57724,0,0,0,0,0,0,0,-1,860,456,-2.2698,3.57725
-357,568,2.04034,-4.85086,0,0,0,0,0,0,0,-1,867,456,2.04033,4.85085
-350,568,0.575623,-5.33902,0,0,0,0,0,0,0,-1,874,456,0.575638,5.33903
-343,568,0.582275,-5.28043,0,0,0,0,0,0,0,-1,881,456,0.582299,5.28044
-336,568,0.649536,-5.31793,0,0,0,0,0,0,0,-1,888,456,0.649544,5.31792
-329,568,0.345947,-5.69952,-0.00299512,-0.0207587,-0.0147124,0.00530858,-0.0290624,-0.513833,0.0213654,0.0456758,895,456,0.345949,5.69953
-322,568,0.938538,-5.85742,-0.0022384,-0.0145173,-0.0112434,0.00443258,-0.0211883,-0.535495,0.0158116,0.0413719,902,456,0.938512,5.85743
-315,568,1.24237,-5.89725,-0.00147624,-0.00830321,-0.00814606,0.00394261,-0.0137221,-0.586994,0.010707,0.0389311,909,456,1.24239,5.89726
-308,568,1.22943,-5.98819,-0.000937418,-0.00481276,-0.00584829,0.00328584,-0.00903603,-0.625428,0.00736772,0.0265602,916,456,1.22945,5.9882
-301,568,1.20435,-6.10391,-0.000591973,-0.00312146,-0.00391219,0.00225483,-0.00596826,-0.629059,0.00490631,0.0130717,923,456,1.20438,6.10391
-294,568,1.16699,-6.23059,-0.000253114,-0.00163197,-0.00232862,0.00148599,-0.00337108,-0.641476,0.00287377,0.00985499,930,456,1.167,6.2306
-287,568,1.14063,-6.37704,-2.30108e-05,-0.000573774,-0.00132635,0.00105625,-0.00165303,-0.683041,0.0015768,0.00933021,937,456,1.14065,6.37704
-280,568,1.14886,-6.53104,0.000140397,0.000261627,-0.000621348,0.000825309,-0.000423285,-0.834022,0.000733226,0.00960768,944,456,1.14884,6.53102
-273,568,1.14044,-6.66901,2.90965e-05,0.00101998,-1.90228e-05,0.00102034,2.87314e-05,-1.55161,0.000670856,0.0107637,951,456,1.14042,6.669
-266,568,1.12231,-6.80646,0.000384,0.00189468,0.000426292,0.00200667,0.000272009,1.31389,0.00125696,0.0109233,958,456,1.12233,6.80645
-259,568,1.12445,-6.95071,0.000630241,0.00230349,0.000276051,0.00234785,0.000585874,1.41144,0.00141109,0.0118517,965,456,1.12445,6.95072
-252,568,1.11316,-7.06564,0.000876094,0.00262928,7.65746e-05,0.00263262,0.000872756,1.52723,0.00154844,0.0108442,972,456,1.11314,7.06566
-245,568,1.1123,-7.18518,0.000971912,0.00282137,-9.14428e-05,0.00282588,0.000967402,-1.52151,0.00165834,0.0120688,979,456,1.1123,7.18519
-238,568,1.12274,-7.32428,0.000988405,0.00282108,-0.000261134,0.00285756,0.000951923,-1.43199,0.00168016,0.0112764,986,456,1.12275,7.32428
-231,568,1.13202,-7.44586,0.00091835,0.00280947,-0.000472092,0.00292077,0.000807049,-1.33926,0.00174165,0.00992454,993,456,1.13201,7.44585
-224,568,1.10748,-7.56027,0.000852337,0.0026968,-0.000682303,0.00292176,0.000627377,-1.25231,0.00177604,0.0112758,1000,456,1.10749,7.56027
-217,568,1.12421,-7.67505,0.000523743,0.00253555,-0.000942679,0.00290823,0.000151065,-1.19431,0.00189047,0.0101603,1007,456,1.12422,7.67505
-210,568,1.14288,-7.80389,7.27746e-05,0.00237739,-0.00103504,0.00277399,-0.00032383,-1.20488,0.00196618,0.010632,1014,456,1.14288,7.80389
-203,568,1.13666,-7.9379,-0.000105822,0.00232613,-8.13611e-05,0.00232884,-0.000108541,-1.53739,0.00158998,0.00958882,1021,456,1.13668,7.9379
-196,568,1.14893,-8.02713,-9.53352e-05,0.00169444,0.000939612,0.00209712,-0.000498021,1.16591,0.0015903,0.0112627,1028,456,1.14897,8.02713
-189,568,1.15955,-8.12076,0.000251676,0.00140001,0.00177238,0.0026889,-0.00103722,0.942041,0.00222061,0.0114922,1035,456,1.1596,8.12075
-182,568,1.18176,-8.22885,0.000475641,0.00071314,0.00303635,0.00363306,-0.00244428,0.804943,0.00353106,0.0143968,1042,456,1.1817,8.22884
-175,568,1.19019,-8.34915,0.000940312,0.000111189,0.00446161,0.00500658,-0.00395508,0.739073,0.00518588,0.0124903,1049,456,1.19013,8.34914
-168,568,1.18884,-8.43155,0.0015883,-0.000615128,0.00593336,0.00652137,-0.0055482,0.693603,0.00697591,0.0157425,1056,456,1.18889,8.43156
-161,568,1.1676,-8.4903,0.00224608,-0.00149909,0.00726153,0.00787259,-0.0071256,0.659209,0.00866279,0.0240516,1063,456,1.16763,8.49028
-154,568,1.21729,-8.67969,0.00274117,-0.00192168,0.00838103,0.00910901,-0.00828952,0.649739,0.0100488,0.0311109,1070,456,1.21733,8.67969
-147,568,1.19702,-8.77835,0,0,0,0,0,0,0,-1,1077,456,1.197,8.77834
-140,568,1.23792,-8.64429,0.00405882,-0.00205405,0.0100208,0.011479,-0.00947419,0.637375,0.0121157,0.043918,1084,456,1.23792,8.64428
-133,568,1.23071,-8.50797,0.0045229,-0.00173351,0.0101721,0.012037,-0.00924756,0.636224,0.0123237,0.0448295,1091,456,1.2307,8.50795
-126,568,1.31152,-8.5314,0,0,0,0,0,0,0,-1,1098,456,1.31151,8.53141
-119,568,1.28149,-8.66934,0,0,0,0,0,0,0,-1,1105,456,1.28149,8.66933
-112,568,1.28394,-9.11307,0,0,0,0,0,0,0,-1,1112,456,1.28388,9.11306
-105,568,1.12561,-9.42526,0,0,0,0,0,0,0,-1,1119,456,1.12565,9.42526
-98,568,0.473145,-9.43759,0,0,0,0,0,0,0,-1,1126,456,0.473184,9.43759
-91,568,0.647339,-7.55716,0,0,0,0,0,0,0,-1,1133,456,0.647299,7.55716
-84,568,0.324463,-7.20621,0,0,0,0,0,0,0,-1,1140,456,0.324454,7.20621
-77,568,-1.13806,-8.57822,0,0,0,0,0,0,0,-1,1147,456,-1.13807,8.57821
-70,568,-4.09766,-1.42911,0,0,0,0,0,0,0,-1,1154,456,-4.09767,1.4291
-63,568,-5.92273,-3.70752,0,0,0,0,0,0,0,-1,1161,456,-5.92272,3.70751
-56,568,-5.24158,-6.01385,0,0,0,0,0,0,0,-1,1168,456,-5.24161,6.01386
-49,568,-5.24365,-8.33557,0,0,0,0,0,0,0,-1,1175,456,-5.24371,8.33557
-42,568,-0.664795,0.521973,0,0,0,0,0,0,0,-1,1182,456,-0.664829,-0.521984
-35,568,-0.153076,-1.67731,0,0,0,0,0,0,0,-1,1189,456,-0.153068,1.67731
-28,568,1.25439,-4.48798,0,0,0,0,0,0,0,-1,1196,456,1.2544,4.48797
-21,568,9.31921,9.57794,0,0,0,0,0,0,0,-1,1203,456,9.31916,-9.57794
-14,568,8.72192,8.53461,-0.0636229,0.191553,-0.117065,0.237121,-0.109191,-1.19959,0.20444,0.0447068,1210,456,8.72194,-8.5346
-7,568,8.12756,7.4292,-0.0472773,0.179435,-0.125951,0.235528,-0.103371,-1.15181,0.200561,0.0468374,1217,456,8.1275,-7.4292
0,568,7.49609,6.24628,0,0,0,0,0,0,0,-1,1224,456,7.4961,-6.24628
7,568,6.88635,5.02893,-0.0037823,0.144185,-0.13992,0.228477,-0.0880739,-1.02859,0.188658,0.0440228,1231,456,6.8864,-5.02893
14,568,6.34045,3.91653,0.0207948,0.12352,-0.14476,0.22576,-0.0814445,-0.955876,0.183772,0.044342,1238,456,6.34043,-3.91652
21,568,5.56067,3.19034,0.0436087,0.102335,-0.147863,0.223723,-0.0777789,-0.883415,0.180742,0.0437801,1245,456,5.56064,-3.19034
28,568,5.01636,2.12589,0.0611493,0.083086,-0.145324,0.217855,-0.07362,-0.823064,0.175017,0.0449096,1252,456,5.01637,-2.12589
35,568,-0.116699,-8.74283,0.0710191,0.0644947,-0.138123,0.205919,-0.0704049,-0.773591,0.165807,0.0431714,1259,456,-0.11672,8.74284
42,568,0.848145,-8.98557,0.0731003,0.046646,-0.128973,0.189523,-0.0697763,-0.734298,0.154936,0.0425301,1266,456,0.848114,8.98555
49,568,2.32239,-9.63989,0.0675176,0.0318849,-0.116676,0.16773,-0.0683272,-0.709634,0.140257,0.0483777,1273,456,2.32236,9.63991
56,568,1.51453,-10.0677,0.0523966,0.0185255,-0.102047,0.138904,-0.0679821,-0.703169,0.121763,0.0469315,1280,456,1.51451,10.0677
63,568,2.51941,-5.20905,0.0359824,0.00408255,-0.089257,0.110703,-0.0706384,-0.696983,0.105546,0.0440199,1287,456,2.51937,5.20904
70,568,2.53967,-8.46841,0.0181352,-0.00826568,-0.0759322,0.0820059,-0.0721363,-0.699336,0.0890548,0.0465951,1294,456,2.53965,8.46842
77,568,2.53247,-9.47293,0.000194264,-0.0174817,-0.0627987,0.0547738,-0.0720613,-0.71549,0.0734547,0.0461071,1301,456,2.53245,9.47293
84,568,3.47534,-8.28674,-0.0214319,-0.0232434,-0.0519094,0.0295796,-0.074255,-0.776675,0.0617709,0.045598,1308,456,3.47532,8.28673
91,568,2.3114,-9.23795,-0.0401749,-0.0270014,-0.0426002,0.00951828,-0.0766945,-0.8621,0.0545798,0.0432388,1315,456,2.31145,9.23795
98,568,1.12952,-10.1076,-0.054549,-0.0294993,-0.0369523,-0.00300684,-0.0810414,-0.948795,0.0530537,0.0460648,1322,456,1.12949,10.1076
105,568,-0.226685,-10.8137,-0.0639512,-0.0319346,-0.0333161,-0.0109804,-0.0849054,-1.00936,0.0533216,0.0465531,1329,456,-0.226696,10.8137
112,568,-1.54028,-11.8577,-0.0675132,-0.0335492,-0.0306807,-0.0154642,-0.0855982,-1.03816,0.0526729,0.0452773,1336,456,-1.54028,11.8577
119,568,-2.81335,-12.9062,-0.0684863,-0.036764,-0.0286982,-0.0198354,-0.0854149,-1.03785,0.0516178,0.0419982,1343,456,-2.81341,12.9062
126,568,-4.16711,-13.4445,-0.0680947,-0.0377445,-0.0273227,-0.0216656,-0.0841737,-1.03889,0.0504686,0.0437707,1350,456,-4.16707,13.4445
133,568,-4.53064,-14.2161,0,0,0,0,0,0,0,-1,1357,456,-4.5306,14.2161
140,568,-1.59167,-17.8947,0,0,0,0,0,0,0,-1,1364,456,-1.59167,17.8947
147,568,-2.63342,-17.9164,-0.0738489,-0.06195,-0.0223319,-0.0447886,-0.0910102,-0.91558,0.052547,0.0467635,1371,456,-2.63347,17.9164
154,568,-3.6864,-17.8634,-0.0808027,-0.0763577,-0.0193399,-0.059113,-0.0980474,-0.842606,0.0570059,0.0445124,1378,456,-3.68643,17.8634
161,568,-4.76416,-17.8524,0,0,0,0,0,0,0,-1,1385,456,-4.76418,17.8524
168,568,9.09583,-0.563782,0,0,0,0,0,0,0,-1,1392,456,9.09586,0.563788
175,568,10.5151,0.747498,0,0,0,0,0,0,0,-1,1399,456,10.5152,-0.747501
182,568,6.35095,-3.63361,0,0,0,0,0,0,0,-1,1406,456,6.35093,3.63359
189,568,6.17493,-1.70911,0,0,0,0,0,0,0,-1,1413,456,6.17497,1.70911
196,568,6.04724,0.200836,0,0,0,0,0,0,0,-1,1420,456,6.04724,-0.200835
203,568,5.9281,2.08649,0,0,0,0,0,0,0,-1,1427,456,5.92812,-2.08648
210,568,1.46216,-2.50446,0,0,0,0,0,0,0,-1,1434,456,1.46219,2.50446
217,568,2.62366,-7.86703,0,0,0,0,0,0,0,-1,1441,456,2.62365,7.86704
224,568,1.89819,-7.62418,0,0,0,0,0,0,0,-1,1448,456,1.89817,7.62418
231,568,4.38245,-9.3205,0,0,0,0,0,0,0,-1,1455,456,4.38244,9.32048
238,568,3.88123,-9.43616,0,0,0,0,0,0,0,-1,1462,456,3.88117,9.43617
245,568,3.33423,-8.26453,0,0,0,0,0,0,0,-1,1469,456,3.33419,8.26453
252,568,3.55615,-7.54276,0,0,0,0,0,0,0,-1,1476,456,3.55609,7.54277
259,568,2.94116,-7.55008,0,0,0,0,0,0,0,-1,1483,456,2.94116,7.55009
266,568,3.01672,-8.19415,0,0,0,0,0,0,0,-1,1490,456,3.01676,8.19416
273,568,2.91028,-8.29083,0,0,0,0,0,0,0,-1,1497,456,2.91032,8.29082
280,568,2.84961,-8.06247,0,0,0,0,0,0,0,-1,1504,456,2.84965,8.06248
287,568,2.94666,-7.87112,0.000699057,-0.000995951,-0.00443935,0.00437107,-0.00466797,-0.691079,0.00521963,0.0335588,1511,456,2.94664,7.87114
294,568,3.01746,-7.77271,0.000323315,-0.0013217,-0.00444715,0.00402338,-0.00502177,-0.693955,0.00523281,0.0258382,1518,456,3.01747,7.7727
301,568,3.01172,-7.66119,-0.000277774,-0.00202099,-0.00455782,0.00349103,-0.00578979,-0.690922,0.0054128,0.0194891,1525,456,3.01171,7.66119
308,568,2.99573,-7.51416,-0.000875026,-0.00233135,-0.00457685,0.00303122,-0.00623759,-0.706511,0.00545704,0.0116336,1532,456,2.99569,7.51415
315,568,2.98901,-7.38068,-0.0012737,-0.00266508,-0.00451648,0.00260036,-0.00653914,-0.708982,0.00543758,0.00785427,1539,456,2.989,7.38068
322,568,2.99951,-7.26486,-0.00153648,-0.0027635,-0.00425384,0.00214786,-0.00644785,-0.71378,0.00516558,0.00955091,1546,456,2.99948,7.26485
329,568,2.99109,-7.12332,-0.00160993,-0.00280585,-0.00389821,0.00173592,-0.0061517,-0.709294,0.00478589,0.0103983,1553,456,2.99115,7.12332
336,568,2.98828,-6.96976,-0.00152704,-0.00262059,-0.00342613,0.00139567,-0.0055433,-0.706271,0.00423807,0.0112102,1560,456,2.98831,6.96975
343,568,3.03333,-6.83109,-0.00145497,-0.00249186,-0.00289259,0.000965272,-0.0049121,-0.696724,0.00363941,0.0104912,1567,456,3.0333,6.83108
350,568,3.02905,-6.71017,-0.00129539,-0.00226644,-0.0022476,0.000518526,-0.00408035,-0.679023,0.00290852,0.0090967,1574,456,3.02905,6.71017
357,568,3.021,-6.57291,-0.000963789,-0.00201823,-0.0015571,0.000152922,-0.00313494,-0.62216,0.00214275,0.00915935,1581,456,3.02097,6.5729
364,568,3.03247,-6.43063,-0.000587005,-0.00166376,-0.000914977,-6.37643e-05,-0.002187,-0.519473,0.00143722,0.0113847,1588,456,3.03245,6.43063
371,568,3.0188,-6.26294,-0.000245488,-0.00143351,-0.0002892,-0.000178829,-0.00150017,-0.226539,0.000946155,0.0204716,1595,456,3.01883,6.26293
378,568,3.02612,-6.1026,4.26541e-05,-0.0011826,0.000293013,0.000109121,-0.00124907,0.223065,0.000871364,0.0187712,1602,456,3.02614,6.10259
385,568,3.01685,-5.95514,0.000232111,-0.00106749,0.000674243,0.000518711,-0.00135409,0.401929,0.00111654,0.00895869,1609,456,3.0168,5.95513
392,568,2.99695,-5.80774,0.000347095,-0.00120751,0.000830997,0.000707666,-0.00156808,0.409387,0.00134484,0.00969326,1616,456,2.99691,5.80775
399,568,2.97876,-5.6767,0.000461794,-0.00150268,0.000950764,0.000846576,-0.00188746,0.384559,0.00161618,0.014716,1623,456,2.97873,5.67669
406,568,3.00293,-5.51443,0.000492793,-0.00176967,0.00101381,0.000880608,-0.00215749,0.365357,0.00180495,0.0145364,1630,456,3.00295,5.51443
413,568,2.99878,-5.32483,0.000570052,-0.00197505,0.000198922,0.000585505,-0.0019905,0.0775314,0.00155926,0.0123474,1637,456,2.99875,5.32484
420,568,2.99097,-5.16568,-0.000574337,-0.00250637,-0.000642911,-0.000379956,-0.00270075,-0.293607,0.00168816,0.0102959,1644,456,2.991,5.16568
427,568,2.9873,-5.00204,-0.00294265,-0.00261763,-0.00184076,-0.000932223,-0.00462806,-0.829425,0.00282635,0.0115808,1651,456,2.9873,5.00203
434,568,2.98547,-4.8674,-0.00478948,-0.00280967,-0.00317571,-0.000473162,-0.00712598,-0.936481,0.00460105,0.0140646,1658,456,2.98549,4.86739
441,568,2.99622,-4.76309,-0.00713308,-0.00305666,-0.00465865,-9.85712e-06,-0.0101799,-0.991608,0.0067833,0.0212418,1665,456,2.99623,4.76309
448,568,3.05481,-4.61868,-0.0102203,-0.00312874,-0.00627897,0.000536452,-0.0138855,-1.04243,0.00944087,0.0417149,1672,456,3.05485,4.61867
455,568,3.09363,-4.45047,0,0,0,0,0,0,0,-1,1679,456,3.09364,4.45046
462,568,3.07813,-3.9068,0,0,0,0,0,0,0,-1,1686,456,3.07817,3.90681
469,568,2.61536,-3.90308,-0.0239633,-0.00271789,-0.0120317,0.00270943,-0.0293906,-1.14704,0.0205565,0.0408039,1693,456,2.61535,3.90307
476,568,2.3103,-3.7377,-0.0302312,-0.00263274,-0.0142921,0.00343467,-0.0362986,-1.16933,0.0254214,0.0445337,1700,456,2.31034,3.73771
483,568,2.22241,-3.44037,0,0,0,0,0,0,0,-1,1707,456,2.22242,3.44037
490,568,4.98596,-3.90405,0,0,0,0,0,0,0,-1,1714,456,4.98591,3.90406
497,568,5.04871,-3.51193,0,0,0,0,0,0,0,-1,1721,456,5.04872,3.51193
504,568,0,0,0,0,0,0,0,0,0,-1,1728,456,0,0
511,568,0,0,0,0,0,0,0,0,0,-1,1735,456,0,0
518,568,0,0,0,0,0,0,0,0,0,-1,1742,456,0,0
525,568,0,0,0,0,0,0,0,0,0,-1,1749,456,0,0
532,568,0,0,0,0,0,0,0,0,0,-1,1756,456,0,0
539,568,0,0,0,0,0,0,0,0,0,-1,1763,456,0,0
546,568,0,0,0,0,0,0,0,0,0,-1,1770,456,0,0
553,568,0,0,0,0,0,0,0,0,0,-1,1777,456,0,0
560,568,0,0,0,0,0,0,0,0,0,-1,1784,456,0,0
567,568,0,0,0,0,0,0,0,0,0,-1,1791,456,0,0
574,568,0,0,0,0,0,0,0,0,0,-1,1798,456,0,0
581,568,0,0,0,0,0,0,0,0,0,-1,1805,456,0,0
588,568,0,0,0,0,0,0,0,0,0,-1,1812,456,0,0
595,568,0,0,0,0,0,0,0,0,0,-1,1819,456,0,0
602,568,0,0,0,0,0,0,0,0,0,-1,1826,456,0,0
609,568,0,0,0,0,0,0,0,0,0,-1,1833,456,0,0
616,568,0,0,0,0,0,0,0,0,0,-1,1840,456,0,0
623,568,0,0,0,0,0,0,0,0,0,-1,1847,456,0,0
630,568,0,0,0,0,0,0,0,0,0,-1,1854,456,0,0
637,568,0,0,0,0,0,0,0,0,0,-1,1861,456,0,0
644,568,0,0,0,0,0,0,0,0,0,-1,1868,456,0,0
651,568,0,0,0,0,0,0,0,0,0,-1,1875,456,0,0
658,568,0,0,0,0,0,0,0,0,0,-1,1882,456,0,0
665,568,0,0,0,0,0,0,0,0,0,-1,1889,456,0,0
672,568,0,0,0,0,0,0,0,0,0,-1,1896,456,0,0
679,568,0,0,0,0,0,0,0,0,0,-1,1903,456,0,0
686,568,0,0,0,0,0,0,0,0,0,-1,1910,456,0,0
693,568,0,0,0,0,0,0,0,0,0,-1,1917,456,0,0
700,568,0,0,0,0,0,0,0,0,0,-1,1924,456,0,0
707,568,0,0,0,0,0,0,0,0,0,-1,1931,456,0,0
714,568,0,0,0,0,0,0,0,0,0,-1,1938,456,0,0
721,568,0,0,0,0,0,0,0,0,0,-1,1945,456,0,0
728,568,0,0,0,0,0,0,0,0,0,-1,1952,456,0,0
735,568,0,0,0,0,0,0,0,0,0,-1,1959,456,0,0
742,568,0,0,0,0,0,0,0,0,0,-1,1966,456,0,0
749,568,0,0,0,0,0,0,0,0,0,-1,1973,456,0,0
756,568,0,0,0,0,0,0,0,0,0,-1,1980,456,0,0
763,568,0,0,0,0,0,0,0,0,0,-1,1987,456,0,0
770,568,0,0,0,0,0,0,0,0,0,-1,1994,456,0,0
777,568,0,0,0,0,0,0,0,0,0,-1,2001,456,0,0
784,568,0,0,0,0,0,0,0,0,0,-1,2008,456,0,0
791,568,0,0,0,0,0,0,0,0,0,-1,2015,456,0,0
798,568,0,0,0,0,0,0,0,0,0,-1,2022,456,0,0
805,568,0,0,0,0,0,0,0,0,0,-1,2029,456,0,0
812,568,0,0,0,0,0,0,0,0,0,-1,2036,456,0,0
-700,561,0,0,0,0,0,0,0,0,0,-1,524,463,0,0
-693,561,0,0,0,0,0,0,0,0,0,-1,531,463,0,0
-686,561,0,0,0,0,0,0,0,0,0,-1,538,463,0,0
-679,561,0,0,0,0,0,0,0,0,0,-1,545,463,0,0
-672,561,0,0,0,0,0,0,0,0,0,-1,552,463,0,0
-665,561,0,0,0,0,0,0,0,0,0,-1,559,463,0,0
-658,561,0,0,0,0,0,0,0,0,0,-1,566,463,0,0
-651,561,0,0,0,0,0,0,0,0,0,-1,573,463,0,0
-644,561,0,0,0,0,0,0,0,0,0,-1,580,463,0,0
-637,561,0,0,0,0,0,0,0,0,0,-1,587,463,0,0
-630,561,0,0,0,0,0,0,0,0,0,-1,594,463,0,0
-623,561,0,0,0,0,0,0,0,0,0,-1,601,463,0,0
-616,561,0,0,0,0,0,0,0,0,0,-1,608,463,0,0
-609,561,0,0,0,0,0,0,0,0,0,-1,615,463,0,0
-602,561,0,0,0,0,0,0,0,0,0,-1,622,463,0,0
-595,561,0,0,0,0,0,0,0,0,0,-1,629,463,0,0
-588,561,0,0,0,0,0,0,0,0,0,-1,636,463,0,0
-581,561,0,0,0,0,0,0,0,0,0,-1,643,463,0,0
-574,561,0,0,0,0,0,0,0,0,0,-1,650,463,0,0
-567,561,0,0,0,0,0,0,0,0,0,-1,657,463,0,0
-560,561,0,0,0,0,0,0,0,0,0,-1,664,463,0,0
-553,561,0,0,0,0,0,0,0,0,0,-1,671,463,0,0
-546,561,0,0,0,0,0,0,0,0,0,-1,678,463,0,0
-539,561,0,0,0,0,0,0,0,0,0,-1,685,463,0,0
-532,561,0,0,0,0,0,0,0,0,0,-1,692,463,0,0
-525,561,0,0,0,0,0,0,0,0,0,-1,699,463,0,0
-518,561,0,0,0,0,0,0,0,0,0,-1,706,463,0,0
-511,561,0,0,0,0,0,0,0,0,0,-1,713,463,0,0
-504,561,0,0,0,0,0,0,0,0,0,-1,720,463,0,0
-497,561,0,0,0,0,0,0,0,0,0,-1,727,463,0,0
-490,561,0,0,0,0,0,0,0,0,0,-1,734,463,0,0
-483,561,0,0,0,0,0,0,0,0,0,-1,741,463,0,0
-476,561,0,0,0,0,0,0,0,0,0,-1,748,463,0,0
-469,561,0,0,0,0,0,0,0,0,0,-1,755,463,0,0
-462,561,0,0,0,0,0,0,0,0,0,-1,762,463,0,0
-455,561,0,0,0,0,0,0,0,0,0,-1,769,463,0,0
-448,561,0,0,0,0,0,0,0,0,0,-1,776,463,0,0
-441,561,0,0,0,0,0,0,0,0,0,-1,783,463,0,0
-434,561,0,0,0,0,0,0,0,0,0,-1,790,463,0,0
-427,561,0,0,0,0,0,0,0,0,0,-1,797,463,0,0
-420,561,0,0,0,0,0,0,0,0,0,-1,804,463,0,0
-413,561,0,0,0,0,0,0,0,0,0,-1,811,463,0,0
-406,561,0,0,0,0,0,0,0,0,0,-1,818,463,0,0
-399,561,0,0,0,0,0,0,0,0,0,-1,825,463,0,0
-392,561,-0.470642,-5.20639,-0.0676992,-0.0701223,-0.0301444,-0.0387421,-0.0990795,-0.765313,0.0576547,0.0436994,832,463,-0.470661,5.20639
-385,561,-1.15161,-4.86069,-0.0575948,-0.0698217,-0.02968,-0.0334051,-0.0940114,-0.683829,0.0550296,0.0468758,839,463,-1.15163,4.86067
-378,561,-1.31311,-4.33789,0,0,0,0,0,0,0,-1,846,463,-1.31308,4.33788
-371,561,-1.27527,-3.51813,-0.0374743,-0.0606631,-0.0285333,-0.0182697,-0.0798677,-0.592416,0.0483206,0.0445037,853,463,-1.27529,3.51812
-364,561,-1.33868,-2.72031,-0.0286965,-0.0538959,-0.026579,-0.011882,-0.0707104,-0.564063,0.0437212,0.0450994,860,463,-1.33866,2.72031
-357,561,0.856812,-5.51999,0,0,0,0,0,0,0,-1,867,463,0.856806,5.52
-350,561,0.880493,-5.33621,-0.015449,-0.0381249,-0.0208645,-0.00304089,-0.050533,-0.536515,0.0327222,0.0472196,874,463,0.880479,5.3362
-343,561,0.855164,-5.22684,-0.0105996,-0.0297541,-0.0175306,-0.000200722,-0.040153,-0.535392,0.026702,0.0450363,881,463,0.855192,5.22685
-336,561,0.792725,-5.36349,-0.00525894,-0.0220905,-0.0144575,0.00305386,-0.0304033,-0.52182,0.0213597,0.0459403,888,463,0.792743,5.3635
-329,561,0.929871,-5.57352,-0.00200815,-0.016636,-0.0113575,0.0041867,-0.0228308,-0.499336,0.016791,0.0350641,895,463,0.929864,5.57352
-322,561,1.06232,-5.6842,-0.00147344,-0.0115853,-0.0086589,0.00349753,-0.0165563,-0.521148,0.0123693,0.0263306,902,463,1.06231,5.68422
-315,561,1.10187,-5.76538,-0.000840336,-0.00654701,-0.00623699,0.00316501,-0.0105524,-0.570867,0.00829372,0.0186151,909,463,1.10189,5.76539
-308,561,1.05865,-5.9021,-0.000419655,-0.00376307,-0.00443197,0.00264541,-0.00682814,-0.605052,0.00564446,0.0144272,916,463,1.05863,5.9021
-301,561,1.04663,-6.09042,-0.000201471,-0.00275294,-0.00309878,0.00187391,-0.00482832,-0.590127,0.00399288,0.0113679,923,463,1.04664,6.09043
-294,561,1.01764,-6.23813,4.20248e-05,-0.00170541,-0.00193586,0.0012922,-0.00295558,-0.573417,0.00251435,0.00952897,930,463,1.01763,6.23813
-287,561,0.997925,-6.39001,0.000194277,-0.000972019,-0.00120869,0.000953141,-0.00173088,-0.560638,0.00157116,0.00820998,937,463,0.997895,6.39002
-280,561,1.0069,-6.54071,0.000279245,-0.000368858,-0.000686712,0.000714524,-0.000804138,-0.564945,0.000877308,0.0109994,944,463,1.00688,6.5407
-273,561,1.00946,-6.67932,0.000120532,0.000222272,-0.000248857,0.000425405,-8.26008e-05,-0.886216,0.000314771,0.0129654,951,463,1.00946,6.67933
-266,561,1.00055,-6.80609,0.000367297,0.00104682,2.1516e-05,0.0010475,0.000366616,1.53918,0.000613781,0.00872124,958,463,1.00056,6.80608
-259,561,0.99231,-6.93216,0.000632025,0.00152257,-0.00014367,0.00154517,0.000609421,-1.41474,0.000898713,0.00969521,965,463,0.992337,6.93216
-252,561,0.976746,-7.05151,0.000875132,0.00199201,-0.00037863,0.00210827,0.000758875,-1.27289,0.00123302,0.0128441,972,463,0.976754,7.05152
-245,561,0.984436,-7.19415,0.000913296,0.0023124,-0.000533396,0.00249255,0.000733141,-1.24507,0.00147918,0.0152587,979,463,0.984407,7.19416
-238,561,1.00049,-7.33176,0.000928897,0.0025239,-0.000711496,0.00279515,0.000657644,-1.20656,0.00168749,0.0125519,986,463,1.00048,7.33176
-231,561,1.01404,-7.45435,0.000882855,0.00277278,-0.00093813,0.00315937,0.000496261,-1.17991,0.00196186,0.0101977,993,463,1.01405,7.45433
-224,561,1.01202,-7.57413,0.000826541,0.00291889,-0.00114833,0.00342614,0.000319287,-1.15484,0.00218545,0.00969343,1000,463,1.01203,7.57413
-217,561,1.02258,-7.67963,0.000427518,0.00298316,-0.00142936,0.0036226,-0.000211924,-1.15014,0.00248872,0.00967121,1007,463,1.0226,7.67961
-210,561,1.03369,-7.79507,-0.000157191,0.00303502,-0.00149647,0.00362683,-0.000748999,-1.1942,0.00270237,0.0111131,1014,463,1.03367,7.79506
-203,561,1.03687,-7.92889,-0.000335206,0.00312638,-7.67273e-05,0.00312808,-0.000336905,-1.54865,0.00220628,0.0130255,1021,463,1.03687,7.92889
-196,561,1.04883,-8.0303,-0.000154768,0.0023556,0.00146972,0.00303318,-0.000832345,1.13881,0.00234924,0.0136243,1028,463,1.0488,8.0303
-189,561,1.04028,-8.11816,0.000523983,0.00204916,0.00265599,0.00404988,-0.00147673,0.925198,0.00330406,0.0156834,1035,463,1.04023,8.11816
-182,561,1.02991,-8.25049,0.000955364,0.00125811,0.00443899,0.00554831,-0.00333483,0.802442,0.00518148,0.0183108,1042,463,1.02991,8.25049
-175,561,1.0863,-8.37344,0.00176171,0.00051799,0.00646006,0.00762977,-0.00535007,0.737415,0.00753234,0.0274387,1049,463,1.08625,8.37345
-168,561,1.13159,-8.41675,0.00289282,-0.000372196,0.00857252,0.00998689,-0.00746627,0.691307,0.0101116,0.0396013,1056,463,1.13153,8.41673
-161,561,0.915405,-8.53876,0.00406011,-0.0015644,0.0105123,0.0121298,-0.00963412,0.654699,0.0125929,0.0436033,1063,463,0.915361,8.53877
-154,561,0.810669,-8.62808,0.00505249,-0.0020818,0.0121152,0.0141148,-0.0111441,0.642226,0.0146168,0.0446645,1070,463,0.81071,8.62809
-147,561,0.803833,-8.71259,0.00606379,-0.00237963,0.0136486,0.0161287,-0.0124445,0.635408,0.0165424,0.0489874,1077,463,0.803805,8.71258
-140,561,0.759766,-8.74506,0,0,0,0,0,0,0,-1,1084,463,0.759777,8.74507
-133,561,1.15833,-8.13156,0,0,0,0,0,0,0,-1,1091,463,1.15827,8.13155
-126,561,1.34412,-8.5946,0,0,0,0,0,0,0,-1,1098,463,1.34418,8.5946
-119,561,1.57751,-8.33603,0,0,0,0,0,0,0,-1,1105,463,1.57753,8.33603
-112,561,1.6554,-7.92682,0,0,0,0,0,0,0,-1,1112,463,1.65536,7.92683
-105,561,0.954102,-8.35388,0,0,0,0,0,0,0,-1,1119,463,0.954082,8.35388
-98,561,2.0647,-7.44724,0,0,0,0,0,0,0,-1,1126,463,2.06467,7.44724
-91,561,-0.767456,-6.61673,0,0,0,0,0,0,0,-1,1133,463,-0.76745,6.61672
-84,561,-2.70227,-8.30252,0,0,0,0,0,0,0,-1,1140,463,-2.70232,8.30253
-77,561,-2.36023,1.00204,0,0,0,0,0,0,0,-1,1147,463,-2.3602,-1.00205
-70,561,-3.90015,-1.41541,0,0,0,0,0,0,0,-1,1154,463,-3.90009,1.4154
-63,561,-5.44373,-3.84851,0,0,0,0,0,0,0,-1,1161,463,-5.44376,3.8485
-56,561,-5.37988,-6.66855,0,0,0,0,0,0,0,-1,1168,463,-5.37988,6.66854
-49,561,-5.7439,-9.11029,0,0,0,0,0,0,0,-1,1175,463,-5.74387,9.1103
-42,561,-1.72644,-5.63065,0,0,0,0,0,0,0,-1,1182,463,-1.72648,5.63064
-35,561,-1.65674,-4.87994,0,0,0,0,0,0,0,-1,1189,463,-1.6567,4.87993
-28,561,-1.91418,-3.86896,0,0,0,0,0,0,0,-1,1196,463,-1.91414,3.86895
-21,561,10.0948,7.96115,0,0,0,0,0,0,0,-1,1203,463,10.0948,-7.96116
-14,561,9.55774,6.85672,-0.0974194,0.239352,-0.128132,0.282559,-0.140626,-1.24556,0.248865,0.0463488,1210,463,9.55776,-6.85673
-7,561,8.77026,6.09454,-0.0769191,0.225151,-0.141381,0.280998,-0.132766,-1.1946,0.243943,0.0479001,1217,463,8.77026,-6.09454
0,561,8.12048,4.9729,0,0,0,0,0,0,0,-1,1224,463,8.12051,-4.97289
7,561,7.59167,3.72562,-0.0200337,0.181413,-0.162301,0.271705,-0.110326,-1.06311,0.227031,0.0409003,1231,463,7.59166,-3.72562
14,561,6.95264,2.73419,0.0101009,0.156361,-0.169486,0.267821,-0.10136,-0.989071,0.220251,0.0394295,1238,463,6.95258,-2.7342
21,561,6.34912,1.78506,0.0386293,0.131063,-0.174719,0.265574,-0.0958822,-0.914697,0.216217,0.0449715,1245,463,6.34912,-1.78506
28,561,5.78638,0.707031,0.0598976,0.108577,-0.172519,0.258464,-0.0899901,-0.855477,0.208871,0.0480282,1252,463,5.78637,-0.707029
35,561,4.96094,-0.257416,0.0717507,0.0868533,-0.164246,0.243721,-0.0851174,-0.80837,0.197079,0.0397055,1259,463,4.9609,0.25743
42,561,0.55896,-8.97287,0.0743987,0.0659006,-0.153748,0.223956,-0.0836568,-0.771583,0.183655,0.0434084,1266,463,0.558931,8.97286
49,561,4.64844,-3.68701,0.0686057,0.0479082,-0.139363,0.198004,-0.08149,-0.748337,0.165974,0.0484729,1273,463,4.64844,3.68701
56,561,4.21741,-5.24344,0.0518321,0.0307111,-0.122063,0.163791,-0.0812477,-0.742247,0.144124,0.0465997,1280,463,4.21738,5.24344
63,561,3.61328,-6.60208,0.0343825,0.0120202,-0.10721,0.130993,-0.0845906,-0.73344,0.125425,0.0428322,1287,463,3.61324,6.60208
70,561,3.18811,-8.21796,0.0140685,-0.00582006,-0.0924338,0.0970914,-0.088843,-0.731813,0.107384,0.0421665,1294,463,3.1881,8.21795
77,561,3.12109,-9.84525,-0.0073686,-0.0215186,-0.0782216,0.0640973,-0.0929845,-0.740297,0.091201,0.0442983,1301,463,3.12109,9.84523
84,561,3.35461,-7.94785,-0.0324033,-0.0334319,-0.065192,0.0322764,-0.0981116,-0.781454,0.078413,0.0455009,1308,463,3.35457,7.94783
91,561,1.90979,-8.73923,-0.0557453,-0.042201,-0.0542984,0.00574589,-0.103692,-0.847438,0.0711209,0.0426944,1315,463,1.90982,8.73922
98,561,0.978638,-9.31171,-0.0740631,-0.0482209,-0.0476375,-0.0117833,-0.110501,-0.917831,0.0700704,0.044994,1322,463,0.978696,9.31171
105,561,0.380127,-9.54767,-0.0860029,-0.0540035,-0.0440065,-0.0231784,-0.116828,-0.959757,0.0714241,0.0460502,1329,463,0.380096,9.54768
112,561,-1.39368,-10.9505,-0.0907457,-0.058243,-0.0412255,-0.0301813,-0.118807,-0.973149,0.0713064,0.0456479,1336,463,-1.39371,10.9505
119,561,-2.70654,-12.0266,-0.0923667,-0.0635433,-0.0390963,-0.0362871,-0.119623,-0.961982,0.0708226,0.0404637,1343,463,-2.70653,12.0266
126,561,-3.92822,-13.1987,-0.0916296,-0.0646227,-0.0373778,-0.0383839,-0.117868,-0.958737,0.0694167,0.0420083,1350,463,-3.92822,13.1987
133,561,-4.52307,-13.7372,-0.0913005,-0.0692908,-0.0361543,-0.0425035,-0.118088,-0.933136,0.0690639,0.0491157,1357,463,-4.52306,13.7372
140,561,-5.20178,-14.6476,0,0,0,0,0,0,0,-1,1364,463,-5.20174,14.6475
147,561,-3.18066,-16.8807,-0.0942023,-0.0875642,-0.0277419,-0.0629435,-0.118823,-0.844935,0.0686428,0.0474703,1371,463,-3.18068,16.8807
154,561,-4.17029,-17.052,-0.101073,-0.10276,-0.021978,-0.0799224,-0.123911,-0.766212,0.0725357,0.0437903,1378,463,-4.17023,17.052
161,561,-5.26538,-17.3527,-0.109318,-0.117888,-0.0170868,-0.0959867,-0.131218,-0.66254,0.0784191,0.0488943,1385,463,-5.26536,17.3527
168,561,-6.27832,-17.6375,0,0,0,0,0,0,0,-1,1392,463,-6.27827,17.6375
175,561,10.4185,0.276398,0,0,0,0,0,0,0,-1,1399,463,10.4185,-0.276394
182,561,6.45703,-4.02127,0,0,0,0,0,0,0,-1,1406,463,6.45704,4.02127
189,561,6.50854,-2.08685,0,0,0,0,0,0,0,-1,1413,463,6.50851,2.08686
196,561,6.44775,-0.27182,0,0,0,0,0,0,0,-1,1420,463,6.44773,0.271814
203,561,6.18591,1.1301,0,0,0,0,0,0,0,-1,1427,463,6.18592,-1.13009
210,561,5.68713,2.68427,0,0,0,0,0,0,0,-1,1434,463,5.6871,-2.68425
217,561,3.61743,-7.33582,0,0,0,0,0,0,0,-1,1441,463,3.61738,7.33581
224,561,4.27466,-8.59171,0,0,0,0,0,0,0,-1,1448,463,4.27466,8.59171
231,561,4.93188,-9.8476,0,0,0,0,0,0,0,-1,1455,463,4.93193,9.84761
238,561,2.18018,-5.18359,0,0,0,0,0,0,0,-1,1462,463,2.18023,5.18359
245,561,3.07568,-3.50238,0,0,0,0,0,0,0,-1,1469,463,3.0757,3.50238
252,561,3.47412,-3.71109,0,0,0,0,0,0,0,-1,1476,463,3.47413,3.71109
259,561,3.42212,-3.2334,0,0,0,0,0,0,0,-1,1483,463,3.42214,3.2334
266,561,4.44373,-5.90027,0,0,0,0,0,0,0,-1,1490,463,4.44372,5.90026
273,561,2.59485,-3.65268,0,0,0,0,0,0,0,-1,1497,463,2.5948,3.65268
280,561,3.10767,-6.38235,0,0,0,0,0,0,0,-1,1504,463,3.10766,6.38235
287,561,3.13733,-7.79568,0,0,0,0,0,0,0,-1,1511,463,3.13729,7.7957
294,561,3.23181,-7.72278,-8.46879e-05,-0.00242321,-0.00635387,0.00520661,-0.00771451,-0.694405,0.00750671,0.0476127,1518,463,3.23187,7.72277
301,561,3.29688,-7.68433,-0.000867242,-0.00335411,-0.00650934,0.00451636,-0.00873771,-0.691024,0.00778054,0.0414709,1525,463,3.29683,7.68433
308,561,3.16772,-7.49075,-0.00170305,-0.00385795,-0.0066302,0.00393667,-0.00949768,-0.704849,0.00797475,0.0282797,1532,463,3.16767,7.49075
315,561,3.14111,-7.40289,-0.00226272,-0.00424395,-0.00659151,0.0034122,-0.00991887,-0.710813,0.00799645,0.018298,1539,463,3.14109,7.4029
322,561,3.12903,-7.29623,-0.00260367,-0.00430143,-0.00627753,0.00288212,-0.00978721,-0.718193,0.00766823,0.0182937,1546,463,3.12905,7.29623
329,561,3.1228,-7.12912,-0.00270137,-0.00425063,-0.00586167,0.00243664,-0.00938863,-0.719703,0.00720988,0.0129804,1553,463,3.12285,7.12913
336,561,3.14722,-6.9537,-0.0025908,-0.00390988,-0.00529001,0.00208063,-0.00858131,-0.72338,0.00652593,0.0115034,1560,463,3.14725,6.95371
343,561,3.15247,-6.84366,-0.00245682,-0.00378394,-0.00465811,0.00158476,-0.00782552,-0.714648,0.00581766,0.00991455,1567,463,3.1525,6.84365
350,561,3.15002,-6.71552,-0.00224937,-0.00351907,-0.00393567,0.00110232,-0.00687077,-0.705434,0.00498871,0.00928507,1574,463,3.15008,6.7155
357,561,3.16589,-6.57452,-0.00184016,-0.00319759,-0.00315683,0.000710094,-0.00574784,-0.679511,0.0040892,0.00984751,1581,463,3.16587,6.57454
364,561,3.18115,-6.43988,-0.00136241,-0.0027339,-0.00241375,0.000461112,-0.00455742,-0.646994,0.00320307,0.00949216,1588,463,3.18119,6.43988
371,561,3.1582,-6.28564,-0.000920855,-0.00234333,-0.0016762,0.00018876,-0.00345295,-0.584752,0.0023674,0.016048,1595,463,3.15823,6.28565
378,561,3.15051,-6.11954,-0.00052654,-0.00190573,-0.000979816,-1.79781e-05,-0.0024143,-0.478761,0.00160357,0.0116857,1602,463,3.15053,6.11953
385,561,3.16089,-5.9675,-0.000247141,-0.00159566,-0.000441087,-0.000115681,-0.00172712,-0.289655,0.00111485,0.00970576,1609,463,3.16088,5.96751
392,561,3.14563,-5.81473,-4.93541e-05,-0.00153573,-0.000114719,-4.05521e-05,-0.00154453,-0.0765762,0.00101644,0.0132864,1616,463,3.14567,5.81472
399,561,3.1427,-5.65546,0.000124909,-0.00160432,0.000136533,0.000135622,-0.00161503,0.0783093,0.00112462,0.0198407,1623,463,3.1427,5.65546
406,561,3.17126,-5.48859,0.000228874,-0.00159371,0.00036092,0.000297744,-0.00166258,0.18855,0.00121981,0.0187972,1630,463,3.17128,5.48857
413,561,3.16516,-5.3172,0.000344674,-0.00157204,-3.10524e-05,0.000345177,-0.00157254,-0.0161952,0.00118036,0.0173963,1637,463,3.16513,5.31721
420,561,3.14478,-5.16019,-0.000365965,-0.00185158,-0.000513602,-0.000205695,-0.00201185,-0.302477,0.0012782,0.0137092,1644,463,3.14479,5.16019
427,561,3.15454,-4.98868,-0.00185191,-0.00186032,-0.00128716,-0.000568951,-0.00314328,-0.783764,0.00193397,0.0102608,1651,463,3.15456,4.98869
434,561,3.15857,-4.82263,-0.00301547,-0.0019581,-0.00214394,-0.000278624,-0.00469495,-0.906285,0.00304135,0.0109881,1658,463,3.15863,4.82263
441,561,3.15613,-4.69016,-0.00447489,-0.00210184,-0.00308452,1.65005e-05,-0.00659323,-0.969009,0.004401,0.0137017,1665,463,3.15618,4.69015
448,561,3.1665,-4.52917,-0.00647491,-0.00211088,-0.00414169,0.000388436,-0.00897422,-1.02784,0.0061164,0.0193522,1672,463,3.16647,4.52917
455,561,3.24866,-4.26785,-0.00897662,-0.00194401,-0.0053678,0.000956669,-0.0118773,-1.07537,0.00825558,0.0377716,1679,463,3.24863,4.26785
462,561,3.19653,-4.0549,-0.0123786,-0.00201275,-0.00702865,0.00153727,-0.0159287,-1.10309,0.0111669,0.0369021,1686,463,3.19656,4.05491
469,561,3.0437,-3.92621,-0.0161243,-0.00203253,-0.00863864,0.00206926,-0.0202261,-1.1275,0.0142241,0.0236849,1693,463,3.04367,3.92621
476,561,3.10071,-3.61011,-0.0206831,-0.00216186,-0.0105586,0.00262185,-0.0254668,-1.1454,0.0179159,0.0395619,1700,463,3.10068,3.61011
483,561,3.18433,-3.26666,0,0,0,0,0,0,0,-1,1707,463,3.18432,3.26666
490,561,6.13806,-3.71606,0,0,0,0,0,0,0,-1,1714,463,6.13809,3.71606
497,561,6.27173,-3.02441,0,0,0,0,0,0,0,-1,1721,463,6.2717,3.02441
504,561,6.45044,-2.35263,0,0,0,0,0,0,0,-1,1728,463,6.4504,2.35263
511,561,0,0,0,0,0,0,0,0,0,-1,1735,463,0,0
518,561,0,0,0,0,0,0,0,0,0,-1,1742,463,0,0
525,561,0,0,0,0,0,0,0,0,0,-1,1749,463,0,0
532,561,0,0,0,0,0,0,0,0,0,-1,1756,463,0,0
539,561,0,0,0,0,0,0,0,0,0,-1,1763,463,0,0
546,561,0,0,0,0,0,0,0,0,0,-1,1770,463,0,0
553,561,0,0,0,0,0,0,0,0,0,-1,1777,463,0,0
560,561,0,0,0,0,0,0,0,0,0,-1,1784,463,0,0
567,561,0,0,0,0,0,0,0,0,0,-1,1791,463,0,0
574,561,0,0,0,0,0,0,0,0,0,-1,1798,463,0,0
581,561,0,0,0,0,0,0,0,0,0,-1,1805,463,0,0
588,561,0,0,0,0,0,0,0,0,0,-1,1812,463,0,0
595,561,0,0,0,0,0,0,0,0,0,-1,1819,463,0,0
602,561,0,0,0,0,0,0,0,0,0,-1,1826,463,0,0
609,561,0,0,0,0,0,0,0,0,0,-1,1833,463,0,0
616,561,0,0,0,0,0,0,0,0,0,-1,1840,463,0,0
623,561,0,0,0,0,0,0,0,0,0,-1,1847,463,0,0
630,561,0,0,0,0,0,0,0,0,0,-1,1854,463,0,0
637,561,0,0,0,0,0,0,0,0,0,-1,1861,463,0,0
644,561,0,0,0,0,0,0,0,0,0,-1,1868,463,0,0
651,561,0,0,0,0,0,0,0,0,0,-1,1875,463,0,0
658,561,0,0,0,0,0,0,0,0,0,-1,1882,463,0,0
665,561,0,0,0,0,0,0,0,0,0,-1,1889,463,0,0
672,561,0,0,0,0,0,0,0,0,0,-1,1896,463,0,0
679,561,0,0,0,0,0,0,0,0,0,-1,1903,463,0,0
686,561,0,0,0,0,0,0,0,0,0,-1,1910,463,0,0
693,561,0,0,0,0,0,0,0,0,0,-1,1917,463,0,0
700,561,0,0,0,0,0,0,0,0,0,-1,1924,463,0,0
707,561,0,0,0,0,0,0,0,0,0,-1,1931,463,0,0
714,561,0,0,0,0,0,0,0,0,0,-1,1938,463,0,0
721,561,0,0,0,0,0,0,0,0,0,-1,1945,463,0,0
728,561,0,0,0,0,0,0,0,0,0,-1,1952,463,0,0
735,561,0,0,0,0,0,0,0,0,0,-1,1959,463,0,0
742,561,0,0,0,0,0,0,0,0,0,-1,1966,463,0,0
749,561,0,0,0,0,0,0,0,0,0,-1,1973,463,0,0
756,561,0,0,0,0,0,0,0,0,0,-1,1980,463,0,0
763,561,0,0,0,0,0,0,0,0,0,-1,1987,463,0,0
770,561,0,0,0,0,0,0,0,0,0,-1,1994,463,0,0
777,561,0,0,0,0,0,0,0,0,0,-1,2001,463,0,0
784,561,0,0,0,0,0,0,0,0,0,-1,2008,463,0,0
791,561,0,0,0,0,0,0,0,0,0,-1,2015,463,0,0
798,561,0,0,0,0,0,0,0,0,0,-1,2022,463,0,0
805,561,0,0,0,0,0,0,0,0,0,-1,2029,463,0,0
812,561,0,0,0,0,0,0,0,0,0,-1,2036,463,0,0
-700,554,0,0,0,0,0,0,0,0,0,-1,524,470,0,0
-693,554,0,0,0,0,0,0,0,0,0,-1,531,470,0,0
-686,554,0,0,0,0,0,0,0,0,0,-1,538,470,0,0
-679,554,0,0,0,0,0,0,0,0,0,-1,545,470,0,0
-672,554,0,0,0,0,0,0,0,0,0,-1,552,470,0,0
-665,554,0,0,0,0,0,0,0,0,0,-1,559,470,0,0
-658,554,0,0,0,0,0,0,0,0,0,-1,566,470,0,0
-651,554,0,0,0,0,0,0,0,0,0,-1,573,470,0,0
-644,554,0,0,0,0,0,0,0,0,0,-1,580,470,0,0
-637,554,0,0,0,0,0,0,0,0,0,-1,587,470,0,0
-630,554,0,0,0,0,0,0,0,0,0,-1,594,470,0,0
-623,554,0,0,0,0,0,0,0,0,0,-1,601,470,0,0
-616,554,0,0,0,0,0,0,0,0,0,-1,608,470,0,0
-609,554,0,0,0,0,0,0,0,0,0,-1,615,470,0,0
-602,554,0,0,0,0,0,0,0,0,0,-1,622,470,0,0
-595,554,0,0,0,0,0,0,0,0,0,-1,629,470,0,0
-588,554,0,0,0,0,0,0,0,0,0,-1,636,470,0,0
-581,554,0,0,0,0,0,0,0,0,0,-1,643,470,0,0
-574,554,0,0,0,0,0,0,0,0,0,-1,650,470,0,0
-567,554,0,0,0,0,0,0,0,0,0,-1,657,470,0,0
-560,554,0,0,0,0,0,0,0,0,0,-1,664,470,0,0
-553,554,0,0,0,0,0,0,0,0,0,-1,671,470,0,0
-546,554,0,0,0,0,0,0,0,0,0,-1,678,470,0,0
-539,554,0,0,0,0,0,0,0,0,0,-1,685,470,0,0
-532,554,0,0,0,0,0,0,0,0,0,-1,692,470,0,0
-525,554,0,0,0,0,0,0,0,0,0,-1,699,470,0,0
-518,554,0,0,0,0,0,0,0,0,0,-1,706,470,0,0
-511,554,0,0,0,0,0,0,0,0,0,-1,713,470,0,0
-504,554,0,0,0,0,0,0,0,0,0,-1,720,470,0,0
-497,554,0,0,0,0,0,0,0,0,0,-1,727,470,0,0
-490,554,0,0,0,0,0,0,0,0,0,-1,734,470,0,0
-483,554,0,0,0,0,0,0,0,0,0,-1,741,470,0,0
-476,554,0,0,0,0,0,0,0,0,0,-1,748,470,0,0
-469,554,0,0,0,0,0,0,0,0,0,-1,755,470,0,0
-462,554,0,0,0,0,0,0,0,0,0,-1,762,470,0,0
-455,554,0,0,0,0,0,0,0,0,0,-1,769,470,0,0
-448,554,0,0,0,0,0,0,0,0,0,-1,776,470,0,0
-441,554,0,0,0,0,0,0,0,0,0,-1,783,470,0,0
-434,554,0,0,0,0,0,0,0,0,0,-1,790,470,0,0
-427,554,0,0,0,0,0,0,0,0,0,-1,797,470,0,0
-420,554,0,0,0,0,0,0,0,0,0,-1,804,470,0,0
-413,554,0,0,0,0,0,0,0,0,0,-1,811,470,0,0
-406,554,0,0,0,0,0,0,0,0,0,-1,818,470,0,0
-399,554,1.22241,-4.88776,0,0,0,0,0,0,0,-1,825,470,1.2224,4.88775
-392,554,0.0355225,-4.51147,-0.0565043,-0.0559488,-0.0248683,-0.0313566,-0.0810964,-0.790982,0.0472203,0.0453598,832,470,0.035543,4.51146
-385,554,-0.465149,-4.54944,-0.0478545,-0.0558347,-0.0248128,-0.026713,-0.0769762,-0.705677,0.0451302,0.0484375,839,470,-0.465157,4.54944
-378,554,-0.736145,-4.49988,0,0,0,0,0,0,0,-1,846,470,-0.736148,4.49986
-371,554,-0.23938,-2.61755,-0.0309043,-0.0488725,-0.0234897,-0.0147392,-0.0650376,-0.602747,0.0393758,0.0463787,853,470,-0.239385,2.61754
-364,554,-0.52124,-1.97971,-0.0235867,-0.0433738,-0.0216089,-0.00971422,-0.0572464,-0.570718,0.0353736,0.0448603,860,470,-0.521268,1.97972
-357,554,1.21667,-5.36642,0,0,0,0,0,0,0,-1,867,470,1.21669,5.36643
-350,554,1.25494,-5.18182,-0.012432,-0.0306019,-0.0166507,-0.00254902,-0.0404849,-0.53566,0.0261816,0.0485368,874,470,1.25494,5.18183
-343,554,1.03851,-5.19107,-0.00840118,-0.0237922,-0.0138419,-0.000259431,-0.0319339,-0.531695,0.0212033,0.0401547,881,470,1.0385,5.19107
-336,554,0.915039,-5.37918,-0.00405748,-0.0175121,-0.0112109,0.00228964,-0.0238592,-0.515163,0.0167217,0.0315229,888,470,0.915065,5.37919
-329,554,0.888306,-5.52686,-0.00141159,-0.0131178,-0.00867398,0.00319937,-0.0177288,-0.488596,0.0130173,0.0161455,895,470,0.888308,5.52685
-322,554,0.900269,-5.65619,-0.00104025,-0.00907749,-0.00655418,0.00262921,-0.012747,-0.510386,0.00949648,0.0100032,902,470,0.900247,5.6562
-315,554,0.903137,-5.79401,-0.000507302,-0.00504718,-0.00466505,0.00241075,-0.00796524,-0.558969,0.00627017,0.0102181,909,470,0.903127,5.79399
-308,554,0.880981,-5.94977,-0.000133567,-0.00286631,-0.00324173,0.00201798,-0.00501786,-0.585949,0.00418341,0.0126024,916,470,0.880974,5.94978
-301,554,0.89679,-6.09778,-9.12522e-06,-0.00216864,-0.00234336,0.00149127,-0.00366904,-0.569509,0.00306647,0.0130316,923,470,0.896767,6.09778
-294,554,0.86377,-6.23318,0.000155925,-0.00140353,-0.00152843,0.00109203,-0.00233964,-0.549531,0.00202445,0.01034,930,470,0.863775,6.2332
-287,554,0.852478,-6.38962,0.000264715,-0.000887957,-0.00103945,0.000876912,-0.00150015,-0.532266,0.00138803,0.00986941,937,470,0.852495,6.38961
-280,554,0.851257,-6.54172,0.000297733,-0.000427223,-0.000701776,0.000725115,-0.000854605,-0.547012,0.000913073,0.0111482,944,470,0.851278,6.5417
-273,554,0.86731,-6.68335,0.000112604,7.57268e-05,-0.000437383,0.000531937,-0.000343606,-0.764332,0.000509378,0.0141335,951,470,0.867292,6.68335
-266,554,0.874207,-6.82465,0.000261285,0.00091982,-0.000335607,0.00106071,0.000120394,-1.17333,0.000670622,0.0113356,958,470,0.874212,6.82465
-259,554,0.855591,-6.92789,0.000540195,0.0015012,-0.000522013,0.00173019,0.000311204,-1.15741,0.00106499,0.0110338,965,470,0.855612,6.9279
-252,554,0.836365,-7.03204,0.000780039,0.00215077,-0.000799097,0.00251815,0.000412654,-1.13986,0.00155952,0.0131694,972,470,0.836392,7.03205
-245,554,0.832886,-7.16461,0.00075376,0.00262241,-0.000937171,0.00301143,0.000364735,-1.17734,0.00189776,0.015325,979,470,0.832875,7.1646
-238,554,0.851196,-7.32883,0.000769013,0.00306942,-0.00112176,0.00352587,0.00031257,-1.18436,0.00225362,0.0116657,986,470,0.851221,7.32883
-231,554,0.868164,-7.45334,0.00075077,0.00359652,-0.00136187,0.00414323,0.000204059,-1.18905,0.00269671,0.00980114,993,470,0.868189,7.45334
-224,554,0.879883,-7.57327,0.000704485,0.00400949,-0.00157187,0.00463767,7.62986e-05,-1.1906,0.00306667,0.00934237,1000,470,0.879898,7.57326
-217,554,0.89624,-7.67923,0.000212695,0.0043103,-0.00187463,0.00503851,-0.000515518,-1.20028,0.00354337,0.00951133,1007,470,0.896214,7.67923
-210,554,0.936523,-7.80319,-0.000559947,0.00457953,-0.00192662,0.00522156,-0.00120197,-1.24913,0.00394324,0.012459,1014,470,0.936513,7.8032
-203,554,0.964539,-7.95294,-0.000738866,0.00480876,0.000121258,0.00481141,-0.000741515,1.54895,0.0034812,0.0185209,1021,470,0.964524,7.95294
-196,554,0.993774,-8.04834,-0.000330636,0.00371655,0.0022815,0.00474257,-0.00135666,1.14818,0.00369784,0.024822,1028,470,0.993782,8.04833
-189,554,1.05823,-8.14148,0.000876905,0.00327306,0.00386006,0.0061167,-0.00196673,0.935874,0.00486767,0.0312763,1035,470,1.05817,8.14148
-182,554,1.06421,-8.28278,0.00170599,0.00226303,0.00631479,0.00830544,-0.00433642,0.807437,0.00741772,0.0378627,1042,470,1.06423,8.28276
-175,554,1.52039,-8.40005,0,0,0,0,0,0,0,-1,1049,470,1.52042,8.40005
-168,554,1.11438,-8.52029,0.00506774,0.000106672,0.0120912,0.0149302,-0.00975581,0.684226,0.0143565,0.0492874,1056,470,1.11443,8.52028
-161,554,0.68689,-8.71133,0.00703703,-0.00157159,0.0148292,0.018174,-0.0127086,0.64415,0.0179229,0.0457188,1063,470,0.686905,8.71134
-154,554,0.448364,-8.58685,0.00881358,-0.00222466,0.0170384,0.0212044,-0.0146155,0.628769,0.0207969,0.043715,1070,470,0.448396,8.58686
-147,554,0.383057,-8.59149,0.0107388,-0.00267205,0.0190124,0.0241936,-0.0161268,0.615865,0.0234338,0.0483145,1077,470,0.383096,8.59148
-140,554,0.234741,-8.58246,0.0132546,-0.00260042,0.0198043,0.0266591,-0.0160049,0.595018,0.0248868,0.049153,1084,470,0.234713,8.58245
-133,554,0.119629,-8.53613,0,0,0,0,0,0,0,-1,1091,470,0.119638,8.53614
-126,554,1.2655,-7.81555,0,0,0,0,0,0,0,-1,1098,470,1.26551,7.81555
-119,554,1.96191,-8.03354,0,0,0,0,0,0,0,-1,1105,470,1.96186,8.03354
-112,554,1.96594,-7.25043,0,0,0,0,0,0,0,-1,1112,470,1.96588,7.25043
-105,554,2.49744,-7.02872,0,0,0,0,0,0,0,-1,1119,470,2.49741,7.02871
-98,554,-0.573242,-8.06555,0,0,0,0,0,0,0,-1,1126,470,-0.573201,8.06555
-91,554,-0.60437,-5.328,0,0,0,0,0,0,0,-1,1133,470,-0.604344,5.32801
-84,554,-1.47241,3.85419,0,0,0,0,0,0,0,-1,1140,470,-1.47239,-3.8542
-77,554,-2.56958,1.33258,0,0,0,0,0,0,0,-1,1147,470,-2.56959,-1.33257
-70,554,-3.68164,-1.18332,0,0,0,0,0,0,0,-1,1154,470,-3.68158,1.18331
-63,554,-4.86853,-3.88708,0,0,0,0,0,0,0,-1,1161,470,-4.86853,3.88708
-56,554,-5.69958,-6.45422,0,0,0,0,0,0,0,-1,1168,470,-5.69955,6.45422
-49,554,-6.23645,-8.8569,0,0,0,0,0,0,0,-1,1175,470,-6.23643,8.85689
-42,554,-6.62524,-11.5382,0,0,0,0,0,0,0,-1,1182,470,-6.62522,11.5382
-35,554,-2.40173,-4.59482,0,0,0,0,0,0,0,-1,1189,470,-2.40169,4.59481
-28,554,-0.760132,-1.65555,0,0,0,0,0,0,0,-1,1196,470,-0.760095,1.65556
-21,554,6.67249,-10.1976,0,0,0,0,0,0,0,-1,1203,470,6.67249,10.1976
-14,554,10.2499,5.53912,0,0,0,0,0,0,0,-1,1210,470,10.2499,-5.53911
-7,554,9.40137,4.72589,0,0,0,0,0,0,0,-1,1217,470,9.40136,-4.7259
0,554,9.08936,3.50458,0,0,0,0,0,0,0,-1,1224,470,9.08937,-3.50459
7,554,8.38025,2.29782,-0.0429043,0.22227,-0.18448,0.316866,-0.1375,-1.09698,0.269056,0.0483204,1231,470,8.38022,-2.29782
14,554,7.71094,1.66986,-0.00836891,0.193602,-0.194418,0.311697,-0.126464,-1.02493,0.260399,0.0455366,1238,470,7.71095,-1.66987
21,554,7.21606,0.74173,0.0254552,0.164429,-0.202446,0.308981,-0.119097,-0.950716,0.255127,0.0452917,1245,470,7.21605,-0.74172
28,554,6.79358,-0.498444,0.0495616,0.139422,-0.200338,0.299806,-0.110823,-0.895708,0.245304,0.0451852,1252,470,6.79353,0.498455
35,554,6.39014,-1.80103,0.0627644,0.114915,-0.190718,0.281332,-0.103652,-0.853338,0.230026,0.0413052,1259,470,6.39018,1.80102
42,554,5.90234,-3.0798,0.0658158,0.0910056,-0.178853,0.257706,-0.100885,-0.82055,0.21353,0.0441043,1266,470,5.90234,3.0798
49,554,5.44995,-4.3992,0.0603918,0.0695221,-0.162399,0.22742,-0.0975059,-0.79945,0.192529,0.0480714,1273,470,5.44993,4.39919
56,554,5.28284,-6.52194,0.0430697,0.0477035,-0.142718,0.188123,-0.0973502,-0.793515,0.167573,0.0470832,1280,470,5.28283,6.52193
63,554,4.88257,-8.07938,0.0262094,0.0238984,-0.126142,0.151201,-0.101093,-0.780818,0.146617,0.0438493,1287,470,4.88259,8.07936
70,554,4.12988,-9.17603,0,0,0,0,0,0,0,-1,1294,470,4.12984,9.17602
77,554,3.79492,-10.4281,-0.0194236,-0.0252049,-0.0956987,0.0734281,-0.118057,-0.7703,0.11155,0.0442975,1301,470,3.79498,10.4281
84,554,2.69165,-7.34207,-0.046742,-0.045674,-0.080242,0.0340358,-0.126452,-0.788726,0.0976442,0.0455697,1308,470,2.69163,7.34206
91,554,1.4386,-8.0513,-0.0745509,-0.0614112,-0.0675251,-0.000137128,-0.135825,-0.833893,0.0905043,0.0427106,1315,470,1.43864,8.05131
98,554,0.471924,-8.73499,-0.0970675,-0.0721194,-0.0594739,-0.0238255,-0.145361,-0.88877,0.0900229,0.0436898,1322,470,0.471966,8.73499
105,554,0.0618896,-9.11044,-0.111721,-0.0825021,-0.0559403,-0.039295,-0.154928,-0.913125,0.0929967,0.0463963,1329,470,0.06191,9.11044
112,554,-1.28967,-10.062,-0.117754,-0.090456,-0.0529736,-0.0494013,-0.158809,-0.911484,0.0938446,0.0423964,1336,470,-1.28969,10.0619
119,554,-2.58362,-11.3368,-0.120245,-0.0986984,-0.0507435,-0.0575973,-0.161346,-0.89,0.0944151,0.038437,1343,470,-2.58367,11.3368
126,554,-3.4165,-12.2139,-0.119187,-0.100029,-0.0488166,-0.0598608,-0.159356,-0.88228,0.0929479,0.0401458,1350,470,-3.41652,12.2139
133,554,-4.41992,-13.2027,-0.117835,-0.104224,-0.0470713,-0.0634687,-0.15859,-0.857194,0.0921681,0.0433873,1357,470,-4.41995,13.2027
140,554,-5.40039,-14.2012,0,0,0,0,0,0,0,-1,1364,470,-5.40033,14.2012
147,554,-3.8457,-15.7556,-0.11695,-0.118957,-0.0339808,-0.0839578,-0.151949,-0.770634,0.0878892,0.0452199,1371,470,-3.84573,15.7556
154,554,-4.6731,-16.3886,-0.122453,-0.133007,-0.0243112,-0.102853,-0.152607,-0.678531,0.089868,0.0441973,1378,470,-4.67314,16.3886
161,554,-5.32324,-16.9128,-0.130984,-0.149528,-0.0158232,-0.121917,-0.158596,-0.52038,0.0958721,0.0464905,1385,470,-5.32321,16.9128
168,554,-5.56848,-17.5877,0,0,0,0,0,0,0,-1,1392,470,-5.56852,17.5877
175,554,10.663,0.286957,0,0,0,0,0,0,0,-1,1399,470,10.663,-0.286966
182,554,6.71106,-4.50217,0,0,0,0,0,0,0,-1,1406,470,6.71107,4.50215
189,554,6.90479,-2.50348,0,0,0,0,0,0,0,-1,1413,470,6.90477,2.50348
196,554,6.96216,-0.740906,0,0,0,0,0,0,0,-1,1420,470,6.96214,0.740912
203,554,6.43518,0.414154,0,0,0,0,0,0,0,-1,1427,470,6.43523,-0.414141
210,554,6.21167,1.96707,0,0,0,0,0,0,0,-1,1434,470,6.21165,-1.96706
217,554,5.64551,3.4989,0,0,0,0,0,0,0,-1,1441,470,5.64555,-3.49891
224,554,4.85144,-8.85172,0,0,0,0,0,0,0,-1,1448,470,4.85146,8.85173
231,554,3.25073,-5.29642,0,0,0,0,0,0,0,-1,1455,470,3.25078,5.29642
238,554,4.28625,-3.25253,0,0,0,0,0,0,0,-1,1462,470,4.28622,3.25252
245,554,4.0752,-2.90033,0,0,0,0,0,0,0,-1,1469,470,4.07515,2.90032
252,554,3.52112,-0.934998,0,0,0,0,0,0,0,-1,1476,470,3.52113,0.934996
259,554,3.96448,-2.16425,0,0,0,0,0,0,0,-1,1483,470,3.96446,2.16424
266,554,3.0592,-2.71716,0,0,0,0,0,0,0,-1,1490,470,3.05923,2.71718
273,554,2.58521,-3.06876,0,0,0,0,0,0,0,-1,1497,470,2.58524,3.06874
280,554,2.83301,-0.991699,0,0,0,0,0,0,0,-1,1504,470,2.83303,0.991704
287,554,3.54126,-4.12277,0,0,0,0,0,0,0,-1,1511,470,3.54123,4.12277
294,554,3.50671,-7.52646,0,0,0,0,0,0,0,-1,1518,470,3.50668,7.52646
301,554,3.57092,-7.63419,0,0,0,0,0,0,0,-1,1525,470,3.57092,7.63419
308,554,3.36438,-7.52518,0,0,0,0,0,0,0,-1,1532,470,3.36434,7.52519
315,554,3.44141,-7.21252,0,0,0,0,0,0,0,-1,1539,470,3.44142,7.21253
322,554,3.39526,-7.08463,-0.0040598,-0.00666861,-0.0090493,0.00377863,-0.014507,-0.713819,0.0111465,0.0408035,1546,470,3.39521,7.08462
329,554,3.26672,-7.05774,-0.0041109,-0.00651911,-0.00845803,0.0032283,-0.0138583,-0.714692,0.010482,0.0206208,1553,470,3.26672,7.05774
336,554,3.26721,-6.96027,-0.00390216,-0.00589295,-0.00764407,0.00281105,-0.0126062,-0.720653,0.00948107,0.0108712,1560,470,3.26727,6.96027
343,554,3.27686,-6.84998,-0.00365007,-0.00567851,-0.00678379,0.00219489,-0.0115235,-0.711195,0.00850885,0.0100585,1567,470,3.27681,6.84998
350,554,3.29309,-6.70938,-0.00335588,-0.00526408,-0.00587826,0.0016452,-0.0102652,-0.704945,0.00745262,0.00975516,1574,470,3.29306,6.70939
357,554,3.3125,-6.56503,-0.00282251,-0.00478438,-0.0049583,0.00125095,-0.00885785,-0.687741,0.00636333,0.0107755,1581,470,3.31245,6.56504
364,554,3.31201,-6.43417,-0.00223209,-0.00411857,-0.00408954,0.00102158,-0.00737224,-0.672057,0.00528835,0.0089072,1588,470,3.31203,6.43417
371,554,3.30627,-6.2886,-0.00169895,-0.00347722,-0.00321246,0.000745151,-0.00592132,-0.65039,0.00421793,0.00815264,1595,470,3.30628,6.28862
378,554,3.3136,-6.11331,-0.00120243,-0.00279842,-0.00238655,0.000516005,-0.00451686,-0.624056,0.00319715,0.00991726,1602,470,3.31362,6.11332
385,554,3.33179,-5.95636,-0.000833403,-0.00227059,-0.00169167,0.000285972,-0.00338996,-0.584555,0.00236108,0.0100218,1609,470,3.33176,5.95636
392,554,3.3302,-5.81577,-0.000548245,-0.00201417,-0.00120471,0.000128956,-0.00269138,-0.512106,0.00183874,0.0135008,1616,470,3.33015,5.81578
399,554,3.32483,-5.63556,-0.000304461,-0.00188967,-0.000832618,5.24881e-05,-0.00224662,-0.405007,0.00151555,0.0188512,1623,470,3.3248,5.63557
406,554,3.33557,-5.46661,-0.000111499,-0.00166803,-0.000464717,1.66898e-05,-0.00179622,-0.269149,0.00120308,0.0166447,1630,470,3.33563,5.46662
413,554,3.31421,-5.31088,7.67028e-05,-0.00147304,-0.000501556,0.000224862,-0.0016212,-0.28723,0.00116302,0.015129,1637,470,3.31422,5.31089
420,554,3.31067,-5.16425,-0.00028247,-0.00155841,-0.000677203,9.94111e-06,-0.00185082,-0.407609,0.00123721,0.0164119,1644,470,3.31066,5.16425
427,554,3.31897,-5.00165,-0.00112746,-0.00147292,-0.0010908,-0.000195802,-0.00240458,-0.706874,0.00154193,0.0116211,1651,470,3.31893,5.00163
434,554,3.30713,-4.82254,-0.00179332,-0.00148847,-0.00155568,-7.77659e-05,-0.00320403,-0.834232,0.00211058,0.00970418,1658,470,3.30708,4.82253
441,554,3.30457,-4.66946,-0.00263261,-0.00154526,-0.00206458,4.60278e-05,-0.0042239,-0.914142,0.0028314,0.010503,1665,470,3.30451,4.66945
448,554,3.31323,-4.49615,-0.00385409,-0.00144223,-0.0026445,0.000258324,-0.00555464,-0.999321,0.00379214,0.012553,1672,470,3.31322,4.49614
455,554,3.30249,-4.32178,-0.00542052,-0.00124601,-0.00340297,0.000658827,-0.00732536,-1.06049,0.00511734,0.0143761,1679,470,3.30249,4.32178
462,554,3.28992,-4.15402,-0.00776512,-0.00138633,-0.00469005,0.00109603,-0.0102475,-1.084,0.00722476,0.0174811,1686,470,3.28997,4.15402
469,554,3.29614,-3.96335,-0.0103472,-0.00153773,-0.00598156,0.00148591,-0.0133709,-1.10276,0.00944824,0.0236925,1693,470,3.29609,3.96335
476,554,3.59998,-3.47928,-0.013636,-0.00178373,-0.00753256,0.00187443,-0.0172941,-1.1187,0.0122023,0.0430595,1700,470,3.60001,3.47927
483,554,3.90405,-2.98495,0,0,0,0,0,0,0,-1,1707,470,3.90409,2.98495
490,554,7.31543,-3.51794,0,0,0,0,0,0,0,-1,1714,470,7.3154,3.51794
497,554,7.9751,-2.43454,0,0,0,0,0,0,0,-1,1721,470,7.97505,2.43453
504,554,2.13257,-3.81628,0,0,0,0,0,0,0,-1,1728,470,2.1326,3.8163
511,554,1.31396,-4.02713,0,0,0,0,0,0,0,-1,1735,470,1.31398,4.02712
518,554,-1.15686,-2.436,0,0,0,0,0,0,0,-1,1742,470,-1.15691,2.43599
525,554,0,0,0,0,0,0,0,0,0,-1,1749,470,0,0
532,554,0,0,0,0,0,0,0,0,0,-1,1756,470,0,0
539,554,0,0,0,0,0,0,0,0,0,-1,1763,470,0,0
546,554,0,0,0,0,0,0,0,0,0,-1,1770,470,0,0
553,554,0,0,0,0,0,0,0,0,0,-1,1777,470,0,0
560,554,0,0,0,0,0,0,0,0,0,-1,1784,470,0,0
567,554,0,0,0,0,0,0,0,0,0,-1,1791,470,0,0
574,554,0,0,0,0,0,0,0,0,0,-1,1798,470,0,0
581,554,0,0,0,0,0,0,0,0,0,-1,1805,470,0,0
588,554,0,0,0,0,0,0,0,0,0,-1,1812,470,0,0
595,554,0,0,0,0,0,0,0,0,0,-1,1819,470,0,0
602,554,0,0,0,0,0,0,0,0,0,-1,1826,470,0,0
609,554,0,0,0,0,0,0,0,0,0,-1,1833,470,0,0
616,554,0,0,0,0,0,0,0,0,0,-1,1840,470,0,0
623,554,0,0,0,0,0,0,0,0,0,-1,1847,470,0,0
630,554,0,0,0,0,0,0,0,0,0,-1,1854,470,0,0
637,554,0,0,0,0,0,0,0,0,0,-1,1861,470,0,0
644,554,0,0,0,0,0,0,0,0,0,-1,1868,470,0,0
651,554,0,0,0,0,0,0,0,0,0,-1,1875,470,0,0
658,554,0,0,0,0,0,0,0,0,0,-1,1882,470,0,0
665,554,0,0,0,0,0,0,0,0,0,-1,1889,470,0,0
672,554,0,0,0,0,0,0,0,0,0,-1,1896,470,0,0
679,554,0,0,0,0,0,0,0,0,0,-1,1903,470,0,0
686,554,0,0,0,0,0,0,0,0,0,-1,1910,470,0,0
693,554,0,0,0,0,0,0,0,0,0,-1,1917,470,0,0
700,554,0,0,0,0,0,0,0,0,0,-1,1924,470,0,0
707,554,0,0,0,0,0,0,0,0,0,-1,1931,470,0,0
714,554,0,0,0,0,0,0,0,0,0,-1,1938,470,0,0
721,554,0,0,0,0,0,0,0,0,0,-1,1945,470,0,0
728,554,0,0,0,0,0,0,0,0,0,-1,1952,470,0,0
735,554,0,0,0,0,0,0,0,0,0,-1,1959,470,0,0
742,554,0,0,0,0,0,0,0,0,0,-1,1966,470,0,0
749,554,0,0,0,0,0,0,0,0,0,-1,1973,470,0,0
756,554,0,0,0,0,0,0,0,0,0,-1,1980,470,0,0
763,554,0,0,0,0,0,0,0,0,0,-1,1987,470,0,0
770,554,0,0,0,0,0,0,0,0,0,-1,1994,470,0,0
777,554,0,0,0,0,0,0,0,0,0,-1,2001,470,0,0
784,554,0,0,0,0,0,0,0,0,0,-1,2008,470,0,0
791,554,0,0,0,0,0,0,0,0,0,-1,2015,470,0,0
798,554,0,0,0,0,0,0,0,0,0,-1,2022,470,0,0
805,554,0,0,0,0,0,0,0,0,0,-1,2029,470,0,0
812,554,0,0,0,0,0,0,0,0,0,-1,2036,470,0,0
-700,547,0,0,0,0,0,0,0,0,0,-1,524,477,0,0
-693,547,0,0,0,0,0,0,0,0,0,-1,531,477,0,0
-686,547,0,0,0,0,0,0,0,0,0,-1,538,477,0,0
-679,547,0,0,0,0,0,0,0,0,0,-1,545,477,0,0
-672,547,0,0,0,0,0,0,0,0,0,-1,552,477,0,0
-665,547,0,0,0,0,0,0,0,0,0,-1,559,477,0,0
-658,547,0,0,0,0,0,0,0,0,0,-1,566,477,0,0
-651,547,0,0,0,0,0,0,0,0,0,-1,573,477,0,0
-644,547,0,0,0,0,0,0,0,0,0,-1,580,477,0,0
-637,547,0,0,0,0,0,0,0,0,0,-1,587,477,0,0
-630,547,0,0,0,0,0,0,0,0,0,-1,594,477,0,0
-623,547,0,0,0,0,0,0,0,0,0,-1,601,477,0,0
-616,547,0,0,0,0,0,0,0,0,0,-1,608,477,0,0
-609,547,0,0,0,0,0,0,0,0,0,-1,615,477,0,0
-602,547,0,0,0,0,0,0,0,0,0,-1,622,477,0,0
-595,547,0,0,0,0,0,0,0,0,0,-1,629,477,0,0
-588,547,0,0,0,0,0,0,0,0,0,-1,636,477,0,0
-581,547,0,0,0,0,0,0,0,0,0,-1,643,477,0,0
-574,547,0,0,0,0,0,0,0,0,0,-1,650,477,0,0
-567,547,0,0,0,0,0,0,0,0,0,-1,657,477,0,0
-560,547,0,0,0,0,0,0,0,0,0,-1,664,477,0,0
-553,547,0,0,0,0,0,0,0,0,0,-1,671,477,0,0
-546,547,0,0,0,0,0,0,0,0,0,-1,678,477,0,0
-539,547,0,0,0,0,0,0,0,0,0,-1,685,477,0,0
-532,547,0,0,0,0,0,0,0,0,0,-1,692,477,0,0
-525,547,0,0,0,0,0,0,0,0,0,-1,699,477,0,0
-518,547,0,0,0,0,0,0,0,0,0,-1,706,477,0,0
-511,547,0,0,0,0,0,0,0,0,0,-1,713,477,0,0
-504,547,0,0,0,0,0,0,0,0,0,-1,720,477,0,0
-497,547,0,0,0,0,0,0,0,0,0,-1,727,477,0,0
-490,547,0,0,0,0,0,0,0,0,0,-1,734,477,0,0
-483,547,0,0,0,0,0,0,0,0,0,-1,741,477,0,0
-476,547,0,0,0,0,0,0,0,0,0,-1,748,477,0,0
-469,547,0,0,0,0,0,0,0,0,0,-1,755,477,0,0
-462,547,0,0,0,0,0,0,0,0,0,-1,762,477,0,0
-455,547,0,0,0,0,0,0,0,0,0,-1,769,477,0,0
-448,547,0,0,0,0,0,0,0,0,0,-1,776,477,0,0
-441,547,0,0,0,0,0,0,0,0,0,-1,783,477,0,0
-434,547,0,0,0,0,0,0,0,0,0,-1,790,477,0,0
-427,547,0,0,0,0,0,0,0,0,0,-1,797,477,0,0
-420,547,0,0,0,0,0,0,0,0,0,-1,804,477,0,0
-413,547,0,0,0,0,0,0,0,0,0,-1,811,477,0,0
-406,547,1.45746,-2.21689,0,0,0,0,0,0,0,-1,818,477,1.45743,2.21688
-399,547,1.0351,-3.86713,0,0,0,0,0,0,0,-1,825,477,1.03508,3.86714
-392,547,0.480042,-4.20746,-0.0459733,-0.0431264,-0.0195444,-0.0249537,-0.064146,-0.82175,0.0373376,0.0463355,832,477,0.48003,4.20747
-385,547,-0.078186,-4.52817,-0.0386522,-0.0432902,-0.0197995,-0.0210363,-0.0609061,-0.727101,0.0357202,0.0487825,839,477,-0.0781855,4.52817
-378,547,-0.612305,-4.85373,0,0,0,0,0,0,0,-1,846,477,-0.612301,4.85371
-371,547,0.729431,-1.58798,-0.0245828,-0.0382036,-0.0187616,-0.0114337,-0.0513527,-0.611295,0.0311318,0.0487994,853,477,0.729403,1.58799
-364,547,0.492371,-1.22168,-0.0186283,-0.0339025,-0.0171538,-0.00748837,-0.0450425,-0.575965,0.0278696,0.0499609,860,477,0.492363,1.22167
-357,547,1.11505,-4.9223,0,0,0,0,0,0,0,-1,867,477,1.11505,4.92231
-350,547,1.61804,-5.02103,0,0,0,0,0,0,0,-1,874,477,1.61806,5.02102
-343,547,0.762695,-5.16302,-0.00650113,-0.0184975,-0.0107163,-0.000218581,-0.0247801,-0.530258,0.0164477,0.0341803,881,477,0.762718,5.16301
-336,547,0.782043,-5.33267,-0.0030842,-0.013476,-0.00850974,0.0016905,-0.0182507,-0.511315,0.012768,0.0147476,888,477,0.782069,5.33266
-329,547,0.756409,-5.49185,-0.000993895,-0.0100163,-0.00647545,0.00238683,-0.013397,-0.481158,0.00982407,0.00881051,895,477,0.756431,5.49186
-322,547,0.744751,-5.64444,-0.000746071,-0.00684796,-0.00481869,0.00190632,-0.00950035,-0.503179,0.00705538,0.0103715,902,477,0.744729,5.64443
-315,547,0.737488,-5.80127,-0.000294653,-0.00371928,-0.00336693,0.00177036,-0.0057843,-0.550159,0.00456229,0.0106524,909,477,0.737508,5.80127
-308,547,0.733398,-5.9519,4.69185e-05,-0.0020683,-0.00225165,0.00147698,-0.00349836,-0.56584,0.00295048,0.0119841,916,477,0.733408,5.9519
-301,547,0.751587,-6.09869,0.000185384,-0.00153262,-0.00159074,0.00113424,-0.00248147,-0.537831,0.00213529,0.0112328,923,477,0.75156,6.09868
-294,547,0.723999,-6.23181,0.000351695,-0.000939837,-0.000983568,0.000882543,-0.00147068,-0.494914,0.00137271,0.00890794,930,477,0.72398,6.23182
-287,547,0.712769,-6.38394,0.000469882,-0.000532854,-0.000631235,0.000774633,-0.000837605,-0.449781,0.000931063,0.0101466,937,477,0.712744,6.38395
-280,547,0.709961,-6.52747,0.000494771,-0.000126174,-0.000412364,0.000700474,-0.000331877,-0.462718,0.00060856,0.01285,944,477,0.70995,6.52747
-273,547,0.732971,-6.68567,0.000317786,0.000362646,-0.000277976,0.000619095,6.13362e-05,-0.825656,0.00039388,0.0127152,951,477,0.732949,6.68565
-266,547,0.733887,-6.82178,0.000399846,0.0012989,-0.000304323,0.00139222,0.000306522,-1.27324,0.000844719,0.011753,958,477,0.733914,6.82179
-259,547,0.714355,-6.9241,0.000684385,0.00203153,-0.00051654,0.00220679,0.000509128,-1.24369,0.00133427,0.0102371,965,477,0.71434,6.92409
-252,547,0.717407,-7.0484,0.000889314,0.00290474,-0.000861138,0.00322256,0.000571491,-1.21723,0.00198548,0.0107276,972,477,0.717384,7.0484
-245,547,0.725891,-7.18765,0.000748029,0.0035699,-0.0010341,0.00390828,0.000409649,-1.25456,0.00248027,0.0125617,979,477,0.725886,7.18764
-238,547,0.736389,-7.32376,0.000701959,0.00430518,-0.0013072,0.00472946,0.000277681,-1.25695,0.00306461,0.00859087,986,477,0.736419,7.32375
-231,547,0.730591,-7.44992,0.000647228,0.0051533,-0.00164906,0.00569232,0.000108212,-1.25488,0.00375933,0.00768874,993,477,0.730564,7.44993
-224,547,0.74176,-7.56525,0.000537313,0.00586262,-0.0019524,0.00650173,-0.000101791,-1.25445,0.00436881,0.00978681,1000,477,0.741732,7.56524
-217,547,0.78363,-7.6882,-0.000119375,0.00644139,-0.00235956,0.00720185,-0.000879839,-1.25902,0.00511978,0.0134413,1007,477,0.783617,7.68819
-210,547,0.830566,-7.80356,-0.0011686,0.00696817,-0.00245149,0.00764969,-0.00185012,-1.29964,0.00581544,0.0212354,1014,477,0.830555,7.80356
-203,547,0.934021,-7.77029,-0.00137177,0.00740153,0.000483548,0.0074281,-0.00139834,1.5159,0.005478,0.0316937,1021,477,0.933994,7.77029
-196,547,0.970703,-7.81384,-0.000579583,0.00592026,0.00350463,0.00744992,-0.00210924,1.15925,0.005799,0.0406562,1028,477,0.970739,7.81385
-189,547,0.906982,-7.97595,0.00146739,0.00521983,0.00555746,0.00920924,-0.00252202,0.948192,0.00713042,0.0475132,1035,477,0.906965,7.97595
-182,547,1.09851,-8.05743,0,0,0,0,0,0,0,-1,1042,477,1.09855,8.05742
-175,547,-0.13501,-8.37143,0,0,0,0,0,0,0,-1,1049,477,-0.134964,8.37142
-168,547,1.12463,-8.66785,0,0,0,0,0,0,0,-1,1056,477,1.12461,8.66786
-161,547,0.659912,-9.0065,0,0,0,0,0,0,0,-1,1063,477,0.659958,9.00651
-154,547,0.0438232,-8.75415,0.0146836,-0.00236269,0.023442,0.0311039,-0.0187829,0.611036,0.0290935,0.0467876,1070,477,0.0438548,8.75415
-147,547,0.0224609,-8.42096,0.017989,-0.00303616,0.0258969,0.0354257,-0.0204729,0.592591,0.0326557,0.0425865,1077,477,0.0224946,8.42097
-140,547,0.199707,-8.88052,0.0219895,-0.00303558,0.0267512,0.0390099,-0.0200559,0.566645,0.034682,0.0469645,1084,477,0.199745,8.88052
-133,547,0.569336,-8.91837,0,0,0,0,0,0,0,-1,1091,477,0.569332,8.91836
-126,547,0.8396,-8.92032,0,0,0,0,0,0,0,-1,1098,477,0.839573,8.92033
-119,547,2.22949,-7.49625,0,0,0,0,0,0,0,-1,1105,477,2.22955,7.49624
-112,547,3.27466,-5.47641,0,0,0,0,0,0,0,-1,1112,477,3.27462,5.47642
-105,547,-0.50647,-7.05853,0,0,0,0,0,0,0,-1,1119,477,-0.506446,7.05853
-98,547,0.289429,-4.92862,0,0,0,0,0,0,0,-1,1126,477,0.289474,4.92861
-91,547,-0.491089,-4.73654,0,0,0,0,0,0,0,-1,1133,477,-0.491051,4.73654
-84,547,-0.648071,3.42496,0,0,0,0,0,0,0,-1,1140,477,-0.648118,-3.42494
-77,547,-2.28357,1.8588,0,0,0,0,0,0,0,-1,1147,477,-2.28356,-1.85879
-70,547,-3.70178,-0.874908,0,0,0,0,0,0,0,-1,1154,477,-3.70182,0.874918
-63,547,-5.12012,-3.60861,0,0,0,0,0,0,0,-1,1161,477,-5.12009,3.60862
-56,547,-6.01917,-6.2399,0,0,0,0,0,0,0,-1,1168,477,-6.01921,6.23991
-49,547,-6.729,-8.60349,0,0,0,0,0,0,0,-1,1175,477,-6.72899,8.60348
-42,547,-2.41736,-5.53012,0,0,0,0,0,0,0,-1,1182,477,-2.41734,5.53011
-35,547,-2.96838,-4.45734,0,0,0,0,0,0,0,-1,1189,477,-2.96839,4.45734
-28,547,-0.869141,-1.29901,0,0,0,0,0,0,0,-1,1196,477,-0.869135,1.29901
-21,547,7.02197,-10.6903,0,0,0,0,0,0,0,-1,1203,477,7.02195,10.6903
-14,547,6.62952,-10.9412,0,0,0,0,0,0,0,-1,1210,477,6.62958,10.9412
-7,547,6.28479,-11.3489,0,0,0,0,0,0,0,-1,1217,477,6.28479,11.3489
0,547,5.93384,-11.7541,0,0,0,0,0,0,0,-1,1224,477,5.93382,11.7541
7,547,9.09949,0.949463,0,0,0,0,0,0,0,-1,1231,477,9.0995,-0.949471
14,547,0,0,0,0,0,0,0,0,0,-1,1238,477,0,0
21,547,0,0,0,0,0,0,0,0,0,-1,1245,477,0,0
28,547,0,0,0,0,0,0,0,0,0,-1,1252,477,0,0
35,547,0,0,0,0,0,0,0,0,0,-1,1259,477,0,0
42,547,0,0,0,0,0,0,0,0,0,-1,1266,477,0,0
49,547,0,0,0,0,0,0,0,0,0,-1,1273,477,0,0
56,547,0,0,0,0,0,0,0,0,0,-1,1280,477,0,0
63,547,0,0,0,0,0,0,0,0,0,-1,1287,477,0,0
70,547,0,0,0,0,0,0,0,0,0,-1,1294,477,0,0
77,547,0,0,0,0,0,0,0,0,0,-1,1301,477,0,0
84,547,0,0,0,0,0,0,0,0,0,-1,1308,477,0,0
91,547,0,0,0,0,0,0,0,0,0,-1,1315,477,0,0
98,547,0,0,0,0,0,0,0,0,0,-1,1322,477,0,0
105,547,0.15979,-8.12494,-0.140985,-0.119142,-0.0691774,-0.0600296,-0.200098,-0.863689,0.118567,0.0479248,1329,477,0.159828,8.12495
112,547,-1.18799,-9.17807,-0.148487,-0.132617,-0.065882,-0.0741936,-0.20691,-0.84533,0.121042,0.0437235,1336,477,-1.18803,9.17806
119,547,-2.55811,-10.3867,-0.152306,-0.145424,-0.0636118,-0.0851598,-0.212569,-0.812419,0.123532,0.0412937,1343,477,-2.55807,10.3867
126,547,-3.49036,-11.5753,-0.151296,-0.14797,-0.0618631,-0.0877476,-0.211519,-0.798838,0.122709,0.0423126,1350,477,-3.4903,11.5753
133,547,-4.03247,-12.6805,-0.149261,-0.152448,-0.0602767,-0.0905571,-0.211153,-0.772182,0.122319,0.0425115,1357,477,-4.03246,12.6805
140,547,-4.17395,-13.7249,0,0,0,0,0,0,0,-1,1364,477,-4.17395,13.7248
147,547,-4.43469,-14.5129,-0.143994,-0.162004,-0.0430776,-0.10899,-0.197008,-0.682361,0.113957,0.0440525,1371,477,-4.43471,14.5129
154,547,-5.19653,-15.1495,-0.146622,-0.171749,-0.0285527,-0.127991,-0.19038,-0.578146,0.11207,0.0458799,1378,477,-5.19653,15.1495
161,547,-6.06335,-15.8329,-0.153207,-0.185958,-0.0134548,-0.148388,-0.190777,-0.343898,0.115674,0.0498522,1385,477,-6.06336,15.8329
168,547,-6.75854,-16.465,0,0,0,0,0,0,0,-1,1392,477,-6.75852,16.465
175,547,3.35034,-0.26532,0,0,0,0,0,0,0,-1,1399,477,3.3503,0.265306
182,547,4.26038,3.72672,0,0,0,0,0,0,0,-1,1406,477,4.26039,-3.7267
189,547,3.40454,1.28671,0,0,0,0,0,0,0,-1,1413,477,3.40457,-1.28673
196,547,3.53931,1.87793,0,0,0,0,0,0,0,-1,1420,477,3.53928,-1.87794
203,547,6.49414,-0.425842,0,0,0,0,0,0,0,-1,1427,477,6.4941,0.425844
210,547,4.82092,0.53595,0,0,0,0,0,0,0,-1,1434,477,4.82096,-0.535942
217,547,4.68579,0.480072,0,0,0,0,0,0,0,-1,1441,477,4.68577,-0.480069
224,547,4.55615,0.739807,0,0,0,0,0,0,0,-1,1448,477,4.55613,-0.73981
231,547,5.90869,-3.57721,0,0,0,0,0,0,0,-1,1455,477,5.90871,3.57722
238,547,5.50049,-3.15356,0,0,0,0,0,0,0,-1,1462,477,5.50045,3.15356
245,547,5.13708,-2.65213,0,0,0,0,0,0,0,-1,1469,477,5.13708,2.65212
252,547,3.73511,-0.645233,0,0,0,0,0,0,0,-1,1476,477,3.73515,0.645237
259,547,5.86816,-3.20816,0,0,0,0,0,0,0,-1,1483,477,5.86815,3.20816
266,547,5.40222,-2.45731,0,0,0,0,0,0,0,-1,1490,477,5.40221,2.45732
273,547,3.05737,0.495789,0,0,0,0,0,0,0,-1,1497,477,3.05742,-0.49578
280,547,2.0885,1.47797,0,0,0,0,0,0,0,-1,1504,477,2.08848,-1.47795
287,547,2.31177,-2.21716,0,0,0,0,0,0,0,-1,1511,477,2.31174,2.21717
294,547,2.4823,-3.03659,0,0,0,0,0,0,0,-1,1518,477,2.48229,3.0366
301,547,4.72119,-3.93454,0,0,0,0,0,0,0,-1,1525,477,4.72119,3.93453
308,547,4.07471,-5.42175,0,0,0,0,0,0,0,-1,1532,477,4.07468,5.42174
315,547,3.58496,-6.62112,0,0,0,0,0,0,0,-1,1539,477,3.58497,6.62113
322,547,3.67786,-6.93427,0,0,0,0,0,0,0,-1,1546,477,3.6779,6.93428
329,547,3.6283,-6.88602,-0.00629371,-0.00962404,-0.0118717,0.004029,-0.0199468,-0.715721,0.0148245,0.042343,1553,477,3.62833,6.88602
336,547,3.60022,-6.93112,-0.00585337,-0.00857836,-0.0106332,0.00350425,-0.017936,-0.721677,0.0132804,0.0281734,1560,477,3.60019,6.93111
343,547,3.49487,-6.88535,-0.00530257,-0.00829277,-0.00938289,0.00270358,-0.0162989,-0.706391,0.0118702,0.0236558,1567,477,3.49489,6.88534
350,547,3.48132,-6.7598,-0.00478289,-0.00771293,-0.00819561,0.00207761,-0.0145734,-0.696954,0.010477,0.0181449,1574,477,3.4813,6.75978
357,547,3.46118,-6.59369,-0.00400031,-0.00702078,-0.00704267,0.00169223,-0.0127133,-0.679777,0.00909227,0.0128988,1581,477,3.46123,6.5937
364,547,3.43811,-6.43478,-0.0031831,-0.00609725,-0.00596315,0.00149841,-0.0107788,-0.665573,0.00773385,0.0100662,1588,477,3.43811,6.43477
371,547,3.45569,-6.27869,-0.00246019,-0.00515215,-0.00488069,0.00125671,-0.00886905,-0.650855,0.00637304,0.00853822,1595,477,3.45573,6.27869
378,547,3.47961,-6.11261,-0.00179235,-0.00417015,-0.00387134,0.00106853,-0.00703103,-0.636418,0.00508112,0.0098219,1602,477,3.47957,6.11261
385,547,3.49426,-5.95618,-0.00129853,-0.00337168,-0.00298839,0.000827954,-0.00549817,-0.618457,0.00397031,0.0110142,1609,477,3.49427,5.95617
392,547,3.49292,-5.82013,-0.000913515,-0.00286135,-0.00232424,0.000632611,-0.00440748,-0.586998,0.0031703,0.0116064,1616,477,3.49294,5.82014
399,547,3.47021,-5.64944,-0.000604654,-0.00249841,-0.00182545,0.000504881,-0.00360794,-0.546147,0.00259004,0.0134189,1623,477,3.47018,5.64945
406,547,3.46838,-5.47574,-0.000347016,-0.00203127,-0.0013231,0.000379224,-0.00275751,-0.501993,0.00197691,0.0129857,1630,477,3.46835,5.47575
413,547,3.47778,-5.30515,-0.000110706,-0.00162041,-0.00106988,0.000443812,-0.00217493,-0.478179,0.00161831,0.0123564,1637,477,3.47777,5.30516
420,547,3.49133,-5.16849,-0.000232195,-0.00150473,-0.00100142,0.00031799,-0.00205491,-0.502388,0.00148731,0.0146222,1644,477,3.4913,5.16848
427,547,3.48682,-5.00165,-0.000659679,-0.00130895,-0.00112676,0.000188283,-0.00215691,-0.64514,0.00150463,0.0134028,1651,477,3.48679,5.00164
434,547,3.4519,-4.82779,-0.0010117,-0.00121832,-0.00129373,0.000182832,-0.00241286,-0.745555,0.00167285,0.00883565,1658,477,3.45189,4.82778
441,547,3.45898,-4.66782,-0.00143682,-0.00120467,-0.001477,0.000160808,-0.0028023,-0.824612,0.00192404,0.00930307,1665,477,3.45895,4.66781
448,547,3.45776,-4.49728,-0.00213419,-0.00100599,-0.00170292,0.000223827,-0.003364,-0.945337,0.00232088,0.0102714,1672,477,3.45782,4.49727
455,547,3.44751,-4.33084,-0.0030595,-0.000790508,-0.00210722,0.000468204,-0.00431821,-1.03234,0.00304689,0.0109642,1679,477,3.44746,4.33085
462,547,3.43506,-4.16595,-0.0046252,-0.000947127,-0.00305448,0.00077921,-0.00635154,-1.05637,0.00451656,0.0115818,1686,477,3.43506,4.16596
469,547,3.45142,-3.98563,-0.006328,-0.00118359,-0.0040227,0.00101897,-0.00853056,-1.06985,0.00605534,0.019719,1693,477,3.45136,3.98561
476,547,3.63098,-3.70093,-0.0086083,-0.0015122,-0.00522108,0.0012523,-0.0113728,-1.08384,0.00803191,0.038765,1700,477,3.63103,3.70092
483,547,3.43579,-3.82697,0,0,0,0,0,0,0,-1,1707,477,3.43575,3.82698
490,547,3.65271,-3.71707,0,0,0,0,0,0,0,-1,1714,477,3.65277,3.71708
497,547,2.55481,-3.81421,0,0,0,0,0,0,0,-1,1721,477,2.55476,3.8142
504,547,2.26501,-3.62109,0,0,0,0,0,0,0,-1,1728,477,2.26503,3.62111
511,547,1.76233,-3.53979,0,0,0,0,0,0,0,-1,1735,477,1.76232,3.53979
518,547,1.12366,-2.80795,0,0,0,0,0,0,0,-1,1742,477,1.12368,2.80796
525,547,0.781616,-3.76355,0,0,0,0,0,0,0,-1,1749,477,0.781645,3.76354
532,547,0,0,0,0,0,0,0,0,0,-1,1756,477,0,0
539,547,0,0,0,0,0,0,0,0,0,-1,1763,477,0,0
546,547,0,0,0,0,0,0,0,0,0,-1,1770,477,0,0
553,547,0,0,0,0,0,0,0,0,0,-1,1777,477,0,0
560,547,0,0,0,0,0,0,0,0,0,-1,1784,477,0,0
567,547,0,0,0,0,0,0,0,0,0,-1,1791,477,0,0
574,547,0,0,0,0,0,0,0,0,0,-1,1798,477,0,0
581,547,0,0,0,0,0,0,0,0,0,-1,1805,477,0,0
588,547,0,0,0,0,0,0,0,0,0,-1,1812,477,0,0
595,547,0,0,0,0,0,0,0,0,0,-1,1819,477,0,0
602,547,0,0,0,0,0,0,0,0,0,-1,1826,477,0,0
609,547,0,0,0,0,0,0,0,0,0,-1,1833,477,0,0
616,547,0,0,0,0,0,0,0,0,0,-1,1840,477,0,0
623,547,0,0,0,0,0,0,0,0,0,-1,1847,477,0,0
630,547,0,0,0,0,0,0,0,0,0,-1,1854,477,0,0
637,547,0,0,0,0,0,0,0,0,0,-1,1861,477,0,0
644,547,0,0,0,0,0,0,0,0,0,-1,1868,477,0,0
651,547,0,0,0,0,0,0,0,0,0,-1,1875,477,0,0
658,547,0,0,0,0,0,0,0,0,0,-1,1882,477,0,0
665,547,0,0,0,0,0,0,0,0,0,-1,1889,477,0,0
672,547,0,0,0,0,0,0,0,0,0,-1,1896,477,0,0
679,547,0,0,0,0,0,0,0,0,0,-1,1903,477,0,0
686,547,0,0,0,0,0,0,0,0,0,-1,1910,477,0,0
693,547,0,0,0,0,0,0,0,0,0,-1,1917,477,0,0
700,547,0,0,0,0,0,0,0,0,0,-1,1924,477,0,0
707,547,0,0,0,0,0,0,0,0,0,-1,1931,477,0,0
714,547,0,0,0,0,0,0,0,0,0,-1,1938,477,0,0
721,547,0,0,0,0,0,0,0,0,0,-1,1945,477,0,0
728,547,0,0,0,0,0,0,0,0,0,-1,1952,477,0,0
735,547,0,0,0,0,0,0,0,0,0,-1,1959,477,0,0
742,547,0,0,0,0,0,0,0,0,0,-1,1966,477,0,0
749,547,0,0,0,0,0,0,0,0,0,-1,1973,477,0,0
756,547,0,0,0,0,0,0,0,0,0,-1,1980,477,0,0
763,547,0,0,0,0,0,0,0,0,0,-1,1987,477,0,0
770,547,0,0,0,0,0,0,0,0,0,-1,1994,477,0,0
777,547,0,0,0,0,0,0,0,0,0,-1,2001,477,0,0
784,547,0,0,0,0,0,0,0,0,0,-1,2008,477,0,0
791,547,0,0,0,0,0,0,0,0,0,-1,2015,477,0,0
798,547,0,0,0,0,0,0,0,0,0,-1,2022,477,0,0
805,547,0,0,0,0,0,0,0,0,0,-1,2029,477,0,0
812,547,0,0,0,0,0,0,0,0,0,-1,2036,477,0,0
-700,540,0,0,0,0,0,0,0,0,0,-1,524,484,0,0
-693,540,0,0,0,0,0,0,0,0,0,-1,531,484,0,0
-686,540,0,0,0,0,0,0,0,0,0,-1,538,484,0,0
-679,540,0,0,0,0,0,0,0,0,0,-1,545,484,0,0
-672,540,0,0,0,0,0,0,0,0,0,-1,552,484,0,0
-665,540,0,0,0,0,0,0,0,0,0,-1,559,484,0,0
-658,540,0,0,0,0,0,0,0,0,0,-1,566,484,0,0
-651,540,0,0,0,0,0,0,0,0,0,-1,573,484,0,0
-644,540,0,0,0,0,0,0,0,0,0,-1,580,484,0,0
-637,540,0,0,0,0,0,0,0,0,0,-1,587,484,0,0
-630,540,0,0,0,0,0,0,0,0,0,-1,594,484,0,0
-623,540,0,0,0,0,0,0,0,0,0,-1,601,484,0,0
-616,540,0,0,0,0,0,0,0,0,0,-1,608,484,0,0
-609,540,0,0,0,0,0,0,0,0,0,-1,615,484,0,0
-602,540,0,0,0,0,0,0,0,0,0,-1,622,484,0,0
-595,540,0,0,0,0,0,0,0,0,0,-1,629,484,0,0
-588,540,0,0,0,0,0,0,0,0,0,-1,636,484,0,0
-581,540,0,0,0,0,0,0,0,0,0,-1,643,484,0,0
-574,540,0,0,0,0,0,0,0,0,0,-1,650,484,0,0
-567,540,0,0,0,0,0,0,0,0,0,-1,657,484,0,0
-560,540,0,0,0,0,0,0,0,0,0,-1,664,484,0,0
-553,540,0,0,0,0,0,0,0,0,0,-1,671,484,0,0
-546,540,0,0,0,0,0,0,0,0,0,-1,678,484,0,0
-539,540,0,0,0,0,0,0,0,0,0,-1,685,484,0,0
-532,540,0,0,0,0,0,0,0,0,0,-1,692,484,0,0
-525,540,0,0,0,0,0,0,0,0,0,-1,699,484,0,0
-518,540,0,0,0,0,0,0,0,0,0,-1,706,484,0,0
-511,540,0,0,0,0,0,0,0,0,0,-1,713,484,0,0
-504,540,0,0,0,0,0,0,0,0,0,-1,720,484,0,0
-497,540,0,0,0,0,0,0,0,0,0,-1,727,484,0,0
-490,540,0,0,0,0,0,0,0,0,0,-1,734,484,0,0
-483,540,0,0,0,0,0,0,0,0,0,-1,741,484,0,0
-476,540,0,0,0,0,0,0,0,0,0,-1,748,484,0,0
-469,540,0,0,0,0,0,0,0,0,0,-1,755,484,0,0
-462,540,0,0,0,0,0,0,0,0,0,-1,762,484,0,0
-455,540,0,0,0,0,0,0,0,0,0,-1,769,484,0,0
-448,540,0,0,0,0,0,0,0,0,0,-1,776,484,0,0
-441,540,0,0,0,0,0,0,0,0,0,-1,783,484,0,0
-434,540,0,0,0,0,0,0,0,0,0,-1,790,484,0,0
-427,540,0,0,0,0,0,0,0,0,0,-1,797,484,0,0
-420,540,3.71643,-1.39877,0,0,0,0,0,0,0,-1,804,484,3.71643,1.39876
-413,540,1.55273,-2.38461,0,0,0,0,0,0,0,-1,811,484,1.55274,2.38461
-406,540,1.4538,-2.68854,0,0,0,0,0,0,0,-1,818,484,1.45378,2.68853
-399,540,1.21448,-3.32211,0,0,0,0,0,0,0,-1,825,484,1.21446,3.32211
-392,540,0.615295,-3.98294,0,0,0,0,0,0,0,-1,832,484,0.61527,3.98293
-385,540,0.122314,-4.62384,0,0,0,0,0,0,0,-1,839,484,0.122298,4.62383
-378,540,-3.828,-3.2016,0,0,0,0,0,0,0,-1,846,484,-3.82798,3.20159
-371,540,1.67651,-0.848145,0,0,0,0,0,0,0,-1,853,484,1.67653,0.848159
-364,540,0.530273,-4.24316,0,0,0,0,0,0,0,-1,860,484,0.530256,4.24316
-357,540,0.85199,-4.83398,-0.0103438,-0.0218475,-0.0116631,-0.0030913,-0.0291,-0.556315,0.018456,0.0489792,867,484,0.851984,4.83398
-350,540,0.621704,-5.06128,-0.00730534,-0.0182178,-0.0100275,-0.00134576,-0.0241774,-0.536236,0.0156889,0.029232,874,484,0.621725,5.06128
-343,540,0.614868,-5.16241,-0.00485541,-0.014002,-0.00815579,-7.8192e-05,-0.0187792,-0.529872,0.0124935,0.012857,881,484,0.614896,5.16243
-336,540,0.610962,-5.34766,-0.00224644,-0.0100844,-0.00635477,0.00130061,-0.0136314,-0.509095,0.00955071,0.0111956,888,484,0.610939,5.34767
-329,540,0.595154,-5.49277,-0.000636086,-0.0074013,-0.00475621,0.0018177,-0.00985509,-0.476297,0.00725229,0.00946555,895,484,0.595144,5.49278
-322,540,0.587097,-5.64813,-0.000482439,-0.00493959,-0.00346784,0.00141118,-0.00683321,-0.499806,0.00509147,0.0134309,902,484,0.587118,5.64812
-315,540,0.570251,-5.79559,-0.000100179,-0.00258374,-0.00236972,0.0013334,-0.00401733,-0.544058,0.00321618,0.0129522,909,484,0.570249,5.79559
-308,540,0.579895,-5.9379,0.000246362,-0.00139518,-0.001512,0.00114601,-0.00229482,-0.536735,0.00202313,0.012379,916,484,0.579866,5.93789
-301,540,0.584351,-6.07782,0.000423818,-0.00100524,-0.00102818,0.000961371,-0.00154279,-0.481736,0.00145871,0.011886,923,484,0.584351,6.07783
-294,540,0.582092,-6.22537,0.000621014,-0.000546211,-0.000574665,0.000856452,-0.000781649,-0.388837,0.000946087,0.0105436,930,484,0.582069,6.22538
-287,540,0.590515,-6.37497,0.000785359,-0.000212069,-0.000316166,0.000877134,-0.000303844,-0.282509,0.00070811,0.00772759,937,484,0.590497,6.37498
-280,540,0.596252,-6.52335,0.000833401,0.000174877,-0.000187735,0.000883161,0.000125116,-0.259098,0.000551817,0.00922752,944,484,0.596277,6.52334
-273,540,0.602844,-6.67175,0.000682078,0.000674071,-0.000163726,0.00084185,0.000514299,-0.773175,0.000490012,0.011935,951,484,0.602854,6.67176
-266,540,0.599792,-6.81302,0.000717902,0.00173926,-0.000293428,0.00181756,0.000639605,-1.31003,0.0010646,0.0123983,958,484,0.599816,6.81303
-259,540,0.586365,-6.93292,0.000985007,0.00266716,-0.000527464,0.00281887,0.000833295,-1.29073,0.00167218,0.0108125,965,484,0.586359,6.93292
-252,540,0.594788,-7.0621,0.00110263,0.00382931,-0.000939342,0.00412158,0.000810357,-1.26914,0.00252139,0.0112336,972,484,0.594782,7.0621
-245,540,0.6026,-7.20245,0.00078685,0.00478465,-0.00116773,0.00510074,0.000470759,-1.30644,0.00325494,0.0122271,979,484,0.602607,7.20246
-238,540,0.612793,-7.31387,0.000598305,0.00592761,-0.00155718,0.00634925,0.000176668,-1.30637,0.00417519,0.00904964,986,484,0.612775,7.31388
-231,540,0.613647,-7.43106,0.000407914,0.00723246,-0.00203402,0.00779269,-0.000152323,-1.30203,0.00524664,0.0111674,993,484,0.613646,7.43106
-224,540,0.632568,-7.56689,0.000118345,0.00837416,-0.00247408,0.00905881,-0.000566305,-1.30082,0.00623655,0.0165156,1000,484,0.632555,7.5669
-217,540,0.685974,-7.76114,-0.000819366,0.00935752,-0.00304075,0.0101968,-0.00165869,-1.30148,0.00741291,0.0274964,1007,484,0.686002,7.76113
-210,540,0.827515,-7.9433,-0.00223999,0.0102209,-0.00320959,0.010999,-0.00301811,-1.33295,0.0085188,0.0429632,1014,484,0.82753,7.94331
-203,540,1.29449,-7.97852,-0.00240537,0.0109479,0.000981247,0.0110196,-0.00247709,1.49784,0.00829632,0.0442312,1021,484,1.29449,7.97853
-196,540,0.873291,-7.70645,-0.000983224,0.00895173,0.00519093,0.0111691,-0.00320056,1.1671,0.00871114,0.0493351,1028,484,0.873317,7.70646
-189,540,0.915039,-7.76663,0,0,0,0,0,0,0,-1,1035,484,0.915002,7.76665
-182,540,1.55078,-7.81339,0,0,0,0,0,0,0,-1,1042,484,1.5508,7.81339
-175,540,1.20837,-6.45352,0,0,0,0,0,0,0,-1,1049,484,1.20834,6.45351
-168,540,1.96252,-6.69171,0,0,0,0,0,0,0,-1,1056,484,1.96253,6.69171
-161,540,-1.31653,-9.93869,0,0,0,0,0,0,0,-1,1063,484,-1.31651,9.93868
-154,540,-1.05115,-8.78513,0.0235933,-0.00258815,0.0316465,0.0447497,-0.0237446,0.589287,0.0401602,0.0495531,1070,484,-1.05113,8.78512
-147,540,-0.589355,-8.09271,0.0288585,-0.00356968,0.0345737,0.0508313,-0.0255424,0.566139,0.0448929,0.0460474,1077,484,-0.589298,8.09272
-140,540,0.122925,-8.75717,0.0349512,-0.00366698,0.0353011,0.055879,-0.0245948,0.535136,0.0476174,0.0460808,1084,484,0.122904,8.75716
-133,540,0.215942,-9.13626,0,0,0,0,0,0,0,-1,1091,484,0.21595,9.13625
-126,540,1.78943,-1.73938,0,0,0,0,0,0,0,-1,1098,484,1.78942,1.73938
-119,540,1.22986,-5.17435,0,0,0,0,0,0,0,-1,1105,484,1.22989,5.17435
-112,540,2.65173,-3.42639,0,0,0,0,0,0,0,-1,1112,484,2.65174,3.42639
-105,540,1.73462,-4.61615,0,0,0,0,0,0,0,-1,1119,484,1.73465,4.61616
-98,540,0.73877,-3.08093,0,0,0,0,0,0,0,-1,1126,484,0.738754,3.08092
-91,540,0.586914,4.62909,0,0,0,0,0,0,0,-1,1133,484,0.586932,-4.6291
-84,540,-0.945923,4.43073,0,0,0,0,0,0,0,-1,1140,484,-0.945891,-4.43074
-77,540,-2.28894,2.14368,0,0,0,0,0,0,0,-1,1147,484,-2.28894,-2.14368
-70,540,-3.75244,-0.452576,0,0,0,0,0,0,0,-1,1154,484,-3.75244,0.452576
-63,540,-5.26257,-3.04767,0,0,0,0,0,0,0,-1,1161,484,-5.26262,3.04766
-56,540,-5.19055,-6.12595,0,0,0,0,0,0,0,-1,1168,484,-5.19057,6.12595
-49,540,-5.63867,-8.52298,0,0,0,0,0,0,0,-1,1175,484,-5.63871,8.52298
-42,540,0,0,0,0,0,0,0,0,0,-1,1182,484,0,0
-35,540,0,0,0,0,0,0,0,0,0,-1,1189,484,0,0
-28,540,0,0,0,0,0,0,0,0,0,-1,1196,484,0,0
-21,540,0,0,0,0,0,0,0,0,0,-1,1203,484,0,0
-14,540,0,0,0,0,0,0,0,0,0,-1,1210,484,0,0
-7,540,0,0,0,0,0,0,0,0,0,-1,1217,484,0,0
0,540,0,0,0,0,0,0,0,0,0,-1,1224,484,0,0
7,540,0,0,0,0,0,0,0,0,0,-1,1231,484,0,0
14,540,0,0,0,0,0,0,0,0,0,-1,1238,484,0,0
21,540,0,0,0,0,0,0,0,0,0,-1,1245,484,0,0
28,540,0,0,0,0,0,0,0,0,0,-1,1252,484,0,0
35,540,0,0,0,0,0,0,0,0,0,-1,1259,484,0,0
42,540,0,0,0,0,0,0,0,0,0,-1,1266,484,0,0
49,540,0,0,0,0,0,0,0,0,0,-1,1273,484,0,0
56,540,0,0,0,0,0,0,0,0,0,-1,1280,484,0,0
63,540,0,0,0,0,0,0,0,0,0,-1,1287,484,0,0
70,540,0,0,0,0,0,0,0,0,0,-1,1294,484,0,0
77,540,0,0,0,0,0,0,0,0,0,-1,1301,484,0,0
84,540,0,0,0,0,0,0,0,0,0,-1,1308,484,0,0
91,540,0,0,0,0,0,0,0,0,0,-1,1315,484,0,0
98,540,0,0,0,0,0,0,0,0,0,-1,1322,484,0,0
105,540,0,0,0,0,0,0,0,0,0,-1,1329,484,0,0
112,540,0,0,0,0,0,0,0,0,0,-1,1336,484,0,0
119,540,0,0,0,0,0,0,0,0,0,-1,1343,484,0,0
126,540,0,0,0,0,0,0,0,0,0,-1,1350,484,0,0
133,540,0,0,0,0,0,0,0,0,0,-1,1357,484,0,0
140,540,0,0,0,0,0,0,0,0,0,-1,1364,484,0,0
147,540,0,0,0,0,0,0,0,0,0,-1,1371,484,0,0
154,540,0,0,0,0,0,0,0,0,0,-1,1378,484,0,0
161,540,0,0,0,0,0,0,0,0,0,-1,1385,484,0,0
168,540,3.05078,-0.0010376,0,0,0,0,0,0,0,-1,1392,484,3.05084,0.00102554
175,540,3.37708,0.617035,0,0,0,0,0,0,0,-1,1399,484,3.37707,-0.617046
182,540,3.32678,1.23267,0,0,0,0,0,0,0,-1,1406,484,3.32678,-1.23266
189,540,3.5813,2.15619,0,0,0,0,0,0,0,-1,1413,484,3.58129,-2.1562
196,540,1.84448,-0.801483,0,0,0,0,0,0,0,-1,1420,484,1.84446,0.80148
203,540,4.14648,0.702087,0,0,0,0,0,0,0,-1,1427,484,4.14645,-0.702089
210,540,4.50671,-0.56076,0,0,0,0,0,0,0,-1,1434,484,4.50667,0.560771
217,540,5.00452,-0.278717,0,0,0,0,0,0,0,-1,1441,484,5.00452,0.278709
224,540,6.44458,-2.83527,0,0,0,0,0,0,0,-1,1448,484,6.44457,2.83525
231,540,6.9231,-3.10504,0,0,0,0,0,0,0,-1,1455,484,6.92307,3.10505
238,540,6.4823,-2.58365,0,0,0,0,0,0,0,-1,1462,484,6.48225,2.58363
245,540,6.02087,-1.97916,0,0,0,0,0,0,0,-1,1469,484,6.02088,1.97915
252,540,6.50647,-3.56006,0,0,0,0,0,0,0,-1,1476,484,6.50649,3.56006
259,540,6.01941,-2.798,0,0,0,0,0,0,0,-1,1483,484,6.01941,2.79801
266,540,5.5332,-2.02853,0,0,0,0,0,0,0,-1,1490,484,5.53323,2.02855
273,540,5.06787,-1.28137,0,0,0,0,0,0,0,-1,1497,484,5.06786,1.28136
280,540,1.62903,-2.14609,0,0,0,0,0,0,0,-1,1504,484,1.62906,2.1461
287,540,1.97156,-2.45053,0,0,0,0,0,0,0,-1,1511,484,1.97159,2.45053
294,540,2.44165,-2.6185,0,0,0,0,0,0,0,-1,1518,484,2.44167,2.6185
301,540,4.36169,-2.54272,0,0,0,0,0,0,0,-1,1525,484,4.36165,2.54272
308,540,4.2019,-4.30469,0,0,0,0,0,0,0,-1,1532,484,4.20193,4.3047
315,540,4.45923,-5.32101,0,0,0,0,0,0,0,-1,1539,484,4.45923,5.32103
322,540,4.71655,-6.33737,0,0,0,0,0,0,0,-1,1546,484,4.71653,6.33736
329,540,4.10095,-6.78897,0,0,0,0,0,0,0,-1,1553,484,4.10098,6.78898
336,540,3.9967,-6.95377,0,0,0,0,0,0,0,-1,1560,484,3.9967,6.95375
343,540,4.03345,-6.53482,0,0,0,0,0,0,0,-1,1567,484,4.03341,6.53481
350,540,3.88965,-6.47055,-0.0066698,-0.0109591,-0.0112027,0.00259173,-0.0202206,-0.690823,0.0144222,0.0420005,1574,484,3.88967,6.47055
357,540,3.71899,-6.45764,-0.00549284,-0.00999322,-0.00968192,0.00219694,-0.017683,-0.67122,0.0125851,0.030873,1581,484,3.71899,6.45764
364,540,3.5835,-6.38754,-0.00434288,-0.00873577,-0.00827465,0.00202188,-0.0151005,-0.655669,0.0108042,0.0176142,1588,484,3.58352,6.38753
371,540,3.58923,-6.267,-0.00335104,-0.0074087,-0.00687535,0.00178857,-0.0125483,-0.641926,0.00902103,0.0135562,1595,484,3.58926,6.26699
378,540,3.62708,-6.1124,-0.00245522,-0.00606752,-0.00559796,0.00162075,-0.0101435,-0.629348,0.00736228,0.0123415,1602,484,3.6271,6.11241
385,540,3.63232,-5.96936,-0.00182834,-0.00493014,-0.00447114,0.00135324,-0.00811172,-0.618457,0.00591076,0.0142745,1609,484,3.63227,5.96937
392,540,3.625,-5.82037,-0.00134493,-0.00409357,-0.00358779,0.00112276,-0.00656125,-0.602491,0.00479246,0.012471,1616,484,3.62495,5.82037
399,540,3.60962,-5.65463,-0.000976307,-0.0034322,-0.00293057,0.000973181,-0.00538169,-0.587004,0.00395233,0.0164542,1623,484,3.60967,5.65463
406,540,3.60828,-5.49588,-0.000663554,-0.00267307,-0.00227815,0.000821566,-0.00415819,-0.577709,0.00308269,0.0179233,1630,484,3.60829,5.49588
413,540,3.63135,-5.31866,-0.000381154,-0.001996,-0.0017625,0.000750069,-0.00312722,-0.570609,0.00237466,0.013158,1637,484,3.6314,5.31866
420,540,3.6582,-5.14972,-0.000335469,-0.00165179,-0.00147297,0.000619692,-0.00260695,-0.575293,0.00197717,0.0111283,1644,484,3.65826,5.14971
427,540,3.64441,-4.98517,-0.000489287,-0.00131473,-0.00135059,0.000510232,-0.00231425,-0.637111,0.00173806,0.0112511,1651,484,3.6444,4.98516
434,540,3.6178,-4.8262,-0.000628145,-0.00108687,-0.00127618,0.000439119,-0.00215413,-0.696485,0.00160264,0.0139184,1658,484,3.61781,4.82621
441,540,3.62488,-4.65927,-0.000776402,-0.000996884,-0.0012109,0.000329262,-0.00210255,-0.740003,0.00152336,0.0177858,1665,484,3.62489,4.65926
448,540,3.63977,-4.48529,-0.00110935,-0.000695684,-0.00115943,0.000275221,-0.00208026,-0.873666,0.00148709,0.0110563,1672,484,3.63981,4.48528
455,540,3.62207,-4.31912,-0.00158589,-0.00045907,-0.00128566,0.000381212,-0.00242617,-0.991908,0.00175835,0.00994733,1679,484,3.62212,4.31913
462,540,3.61096,-4.13821,-0.00257822,-0.000603002,-0.00194273,0.000588742,-0.00376996,-1.02055,0.00273079,0.0105127,1686,484,3.611,4.1382
469,540,3.61487,-3.96844,-0.00365158,-0.000890128,-0.00264166,0.000709882,-0.00525159,-1.02621,0.00376009,0.0137268,1693,484,3.61482,3.96844
476,540,3.59985,-3.84402,-0.0051999,-0.00127282,-0.00354444,0.000815627,-0.00728834,-1.03834,0.00515234,0.0192669,1700,484,3.5999,3.84404
483,540,3.62671,-3.72128,-0.00729021,-0.00171826,-0.00483578,0.00107666,-0.0100851,-1.04673,0.00710954,0.0296658,1707,484,3.62666,3.72128
490,540,3.79297,-3.58685,-0.0101925,-0.00249576,-0.00642611,0.00114619,-0.0138345,-1.05519,0.0096278,0.0486473,1714,484,3.79293,3.58686
497,540,3.63,-3.14307,0,0,0,0,0,0,0,-1,1721,484,3.63003,3.14308
504,540,3.24512,-2.86893,0,0,0,0,0,0,0,-1,1728,484,3.24513,2.86891
511,540,2.44946,-3.09265,-0.0257946,-0.00473885,-0.0131534,0.00158103,-0.0321145,-1.12289,0.0219556,0.0461284,1735,484,2.4495,3.09264
518,540,1.81604,-2.72589,0,0,0,0,0,0,0,-1,1742,484,1.81604,2.72589
525,540,1.4408,-2.13428,0,0,0,0,0,0,0,-1,1749,484,1.44076,2.13427
532,540,2.84265,-1.07925,0,0,0,0,0,0,0,-1,1756,484,2.84269,1.07927
539,540,0,0,0,0,0,0,0,0,0,-1,1763,484,0,0
546,540,0,0,0,0,0,0,0,0,0,-1,1770,484,0,0
553,540,0,0,0,0,0,0,0,0,0,-1,1777,484,0,0
560,540,0,0,0,0,0,0,0,0,0,-1,1784,484,0,0
567,540,0,0,0,0,0,0,0,0,0,-1,1791,484,0,0
574,540,0,0,0,0,0,0,0,0,0,-1,1798,484,0,0
581,540,0,0,0,0,0,0,0,0,0,-1,1805,484,0,0
588,540,0,0,0,0,0,0,0,0,0,-1,1812,484,0,0
595,540,0,0,0,0,0,0,0,0,0,-1,1819,484,0,0
602,540,0,0,0,0,0,0,0,0,0,-1,1826,484,0,0
609,540,0,0,0,0,0,0,0,0,0,-1,1833,484,0,0
616,540,0,0,0,0,0,0,0,0,0,-1,1840,484,0,0
623,540,0,0,0,0,0,0,0,0,0,-1,1847,484,0,0
630,540,0,0,0,0,0,0,0,0,0,-1,1854,484,0,0
637,540,0,0,0,0,0,0,0,0,0,-1,1861,484,0,0
644,540,0,0,0,0,0,0,0,0,0,-1,1868,484,0,0
651,540,0,0,0,0,0,0,0,0,0,-1,1875,484,0,0
658,540,0,0,0,0,0,0,0,0,0,-1,1882,484,0,0
665,540,0,0,0,0,0,0,0,0,0,-1,1889,484,0,0
672,540,0,0,0,0,0,0,0,0,0,-1,1896,484,0,0
679,540,0,0,0,0,0,0,0,0,0,-1,1903,484,0,0
686,540,0,0,0,0,0,0,0,0,0,-1,1910,484,0,0
693,540,0,0,0,0,0,0,0,0,0,-1,1917,484,0,0
700,540,0,0,0,0,0,0,0,0,0,-1,1924,484,0,0
707,540,0,0,0,0,0,0,0,0,0,-1,1931,484,0,0
714,540,0,0,0,0,0,0,0,0,0,-1,1938,484,0,0
721,540,0,0,0,0,0,0,0,0,0,-1,1945,484,0,0
728,540,0,0,0,0,0,0,0,0,0,-1,1952,484,0,0
735,540,0,0,0,0,0,0,0,0,0,-1,1959,484,0,0
742,540,0,0,0,0,0,0,0,0,0,-1,1966,484,0,0
749,540,0,0,0,0,0,0,0,0,0,-1,1973,484,0,0
756,540,0,0,0,0,0,0,0,0,0,-1,1980,484,0,0
763,540,0,0,0,0,0,0,0,0,0,-1,1987,484,0,0
770,540,0,0,0,0,0,0,0,0,0,-1,1994,484,0,0
777,540,0,0,0,0,0,0,0,0,0,-1,2001,484,0,0
784,540,0,0,0,0,0,0,0,0,0,-1,2008,484,0,0
791,540,0,0,0,0,0,0,0,0,0,-1,2015,484,0,0
798,540,0,0,0,0,0,0,0,0,0,-1,2022,484,0,0
805,540,0,0,0,0,0,0,0,0,0,-1,2029,484,0,0
812,540,0,0,0,0,0,0,0,0,0,-1,2036,484,0,0
-700,533,0,0,0,0,0,0,0,0,0,-1,524,491,0,0
-693,533,0,0,0,0,0,0,0,0,0,-1,531,491,0,0
-686,533,0,0,0,0,0,0,0,0,0,-1,538,491,0,0
-679,533,0,0,0,0,0,0,0,0,0,-1,545,491,0,0
-672,533,0,0,0,0,0,0,0,0,0,-1,552,491,0,0
-665,533,0,0,0,0,0,0,0,0,0,-1,559,491,0,0
-658,533,0,0,0,0,0,0,0,0,0,-1,566,491,0,0
-651,533,0,0,0,0,0,0,0,0,0,-1,573,491,0,0
-644,533,0,0,0,0,0,0,0,0,0,-1,580,491,0,0
-637,533,0,0,0,0,0,0,0,0,0,-1,587,491,0,0
-630,533,0,0,0,0,0,0,0,0,0,-1,594,491,0,0
-623,533,0,0,0,0,0,0,0,0,0,-1,601,491,0,0
-616,533,0,0,0,0,0,0,0,0,0,-1,608,491,0,0
-609,533,0,0,0,0,0,0,0,0,0,-1,615,491,0,0
-602,533,0,0,0,0,0,0,0,0,0,-1,622,491,0,0
-595,533,0,0,0,0,0,0,0,0,0,-1,629,491,0,0
-588,533,0,0,0,0,0,0,0,0,0,-1,636,491,0,0
-581,533,0,0,0,0,0,0,0,0,0,-1,643,491,0,0
-574,533,0,0,0,0,0,0,0,0,0,-1,650,491,0,0
-567,533,0,0,0,0,0,0,0,0,0,-1,657,491,0,0
-560,533,0,0,0,0,0,0,0,0,0,-1,664,491,0,0
-553,533,0,0,0,0,0,0,0,0,0,-1,671,491,0,0
-546,533,0,0,0,0,0,0,0,0,0,-1,678,491,0,0
-539,533,0,0,0,0,0,0,0,0,0,-1,685,491,0,0
-532,533,0,0,0,0,0,0,0,0,0,-1,692,491,0,0
-525,533,0,0,0,0,0,0,0,0,0,-1,699,491,0,0
-518,533,0,0,0,0,0,0,0,0,0,-1,706,491,0,0
-511,533,0,0,0,0,0,0,0,0,0,-1,713,491,0,0
-504,533,0,0,0,0,0,0,0,0,0,-1,720,491,0,0
-497,533,0,0,0,0,0,0,0,0,0,-1,727,491,0,0
-490,533,0,0,0,0,0,0,0,0,0,-1,734,491,0,0
-483,533,0,0,0,0,0,0,0,0,0,-1,741,491,0,0
-476,533,0,0,0,0,0,0,0,0,0,-1,748,491,0,0
-469,533,0,0,0,0,0,0,0,0,0,-1,755,491,0,0
-462,533,0,0,0,0,0,0,0,0,0,-1,762,491,0,0
-455,533,0,0,0,0,0,0,0,0,0,-1,769,491,0,0
-448,533,0,0,0,0,0,0,0,0,0,-1,776,491,0,0
-441,533,0,0,0,0,0,0,0,0,0,-1,783,491,0,0
-434,533,0,0,0,0,0,0,0,0,0,-1,790,491,0,0
-427,533,3.10034,-2.32062,0,0,0,0,0,0,0,-1,797,491,3.10034,2.32062
-420,533,3.06226,-2.05475,0,0,0,0,0,0,0,-1,804,491,3.06228,2.05476
-413,533,1.28101,-2.74377,0,0,0,0,0,0,0,-1,811,491,1.28103,2.74378
-406,533,1.25336,-2.94385,-0.0349416,-0.0117228,-0.00994595,-0.00804498,-0.0386195,-1.21661,0.0235277,0.0464253,818,491,1.25338,2.94386
-399,533,1.08795,-3.16263,0,0,0,0,0,0,0,-1,825,491,1.08794,3.16262
-392,533,0.588989,-3.75467,0,0,0,0,0,0,0,-1,832,491,0.588997,3.75466
-385,533,0.109924,-4.41916,0,0,0,0,0,0,0,-1,839,491,0.109918,4.41915
-378,533,-0.761414,-5.15549,0,0,0,0,0,0,0,-1,846,491,-0.761387,5.15549
-371,533,0.232361,-4.57764,0,0,0,0,0,0,0,-1,853,491,0.232365,4.57763
-364,533,0.452698,-4.46494,-0.0102956,-0.0188195,-0.00990147,-0.00377778,-0.0253373,-0.582165,0.0157837,0.0413766,860,491,0.452687,4.46492
-357,533,0.540894,-4.86087,-0.00745819,-0.0160623,-0.00875052,-0.00200938,-0.0215111,-0.556932,0.0137201,0.0249527,867,491,0.540912,4.86086
-350,533,0.473572,-4.97684,-0.00520437,-0.0134079,-0.00755456,-0.000709878,-0.0179024,-0.536689,0.0117055,0.0116149,874,491,0.473559,4.97683
-343,533,0.491882,-5.17847,-0.00339124,-0.0102492,-0.00611489,0.000190463,-0.0138309,-0.529864,0.00928477,0.00973228,881,491,0.491865,5.17848
-336,533,0.46637,-5.35452,-0.00146209,-0.00727148,-0.00469302,0.00115243,-0.009886,-0.508284,0.00700647,0.0142681,888,491,0.466363,5.35452
-329,533,0.454102,-5.49054,-0.000259392,-0.00523371,-0.00347107,0.00152361,-0.00701672,-0.474528,0.00525976,0.0132039,895,491,0.454091,5.49055
-322,533,0.446167,-5.63718,-0.000169014,-0.00335446,-0.00246095,0.00116965,-0.00469313,-0.498197,0.00358285,0.0108802,902,491,0.446172,5.63717
-315,533,0.425842,-5.79965,0.00013448,-0.00165029,-0.00163229,0.0011024,-0.0026182,-0.535243,0.00220671,0.0120866,909,491,0.425869,5.79966
-308,533,0.426086,-5.93912,0.000465239,-0.000856044,-0.000977608,0.000984498,-0.0013753,-0.488258,0.00136864,0.0115736,916,491,0.426074,5.93912
-301,533,0.421753,-6.07141,0.000661081,-0.000579369,-0.000606519,0.000908349,-0.000826637,-0.387113,0.00100206,0.0123844,923,491,0.421753,6.07142
-294,533,0.437256,-6.22009,0.000871333,-0.000231953,-0.000259441,0.000929296,-0.000289916,-0.219806,0.00073547,0.0113401,930,491,0.437257,6.22009
-287,533,0.446106,-6.37817,0.00107281,6.0886e-05,-5.63647e-05,0.00107594,5.77562e-05,-0.0554717,0.000698839,0.0083843,937,491,0.446108,6.37818
-280,533,0.441528,-6.52716,0.00113996,0.000460655,5.64257e-06,0.00114001,0.000460608,0.00830559,0.000662213,0.00762112,944,491,0.4415,6.52715
-273,533,0.445435,-6.66623,0.00101049,0.00099103,-7.05173e-05,0.00107194,0.000929574,-0.716851,0.000672217,0.0112706,951,491,0.445441,6.66623
-266,533,0.45929,-6.80978,0.00101469,0.00223317,-0.000311749,0.0023083,0.00093956,-1.33431,0.00134036,0.0108688,958,491,0.459274,6.80979
-259,533,0.467529,-6.94543,0.00127306,0.00341416,-0.000575316,0.00355895,0.00112826,-1.32424,0.00210013,0.0108853,965,491,0.467518,6.94544
-252,533,0.471313,-7.07126,0.00126926,0.00495363,-0.00107184,0.00524276,0.000980138,-1.30732,0.0032186,0.0133667,972,491,0.471337,7.07127
-245,533,0.504272,-7.19131,0.000730439,0.00631061,-0.00139381,0.00663939,0.000401665,-1.33915,0.00429863,0.0171148,979,491,0.504303,7.1913
-238,533,0.518188,-7.2496,0.000326706,0.00798236,-0.00194303,0.00844728,-0.000138206,-1.33594,0.00567815,0.0188966,986,491,0.518209,7.24962
-231,533,0.588867,-7.39798,-0.000101718,0.00992772,-0.00257295,0.0105493,-0.000723263,-1.33377,0.00728591,0.0287994,993,491,0.588839,7.39797
-224,533,0.427124,-7.75598,-0.000697552,0.0116917,-0.00316051,0.0124514,-0.00145722,-1.33491,0.00882684,0.0363322,1000,491,0.427142,7.75598
-217,533,0.294678,-8.3537,-0.00203096,0.0132997,-0.00391383,0.0142411,-0.00297234,-1.33476,0.0106244,0.0399682,1007,491,0.294695,8.35371
-210,533,0.820801,-8.10056,0,0,0,0,0,0,0,-1,1014,491,0.820798,8.10056
-203,533,1.58673,-8.19989,0,0,0,0,0,0,0,-1,1021,491,1.58676,8.19988
-196,533,0.803833,-7.62634,0,0,0,0,0,0,0,-1,1028,491,0.803838,7.62634
-189,533,1.55664,-7.50671,0,0,0,0,0,0,0,-1,1035,491,1.55659,7.50672
-182,533,1.59631,-3.88702,0,0,0,0,0,0,0,-1,1042,491,1.59636,3.88702
-175,533,1.17761,-6.07086,0,0,0,0,0,0,0,-1,1049,491,1.17759,6.07086
-168,533,2.64807,-2.7543,0,0,0,0,0,0,0,-1,1056,491,2.64812,2.7543
-161,533,1.91833,-1.76553,0,0,0,0,0,0,0,-1,1063,491,1.91836,1.76554
-154,533,-2.11475,-8.4343,0,0,0,0,0,0,0,-1,1070,491,-2.11481,8.43431
-147,533,-1.22986,-7.79849,0,0,0,0,0,0,0,-1,1077,491,-1.2299,7.79851
-140,533,-0.399658,-8.64832,0,0,0,0,0,0,0,-1,1084,491,-0.399647,8.64831
-133,533,0.0407715,-9.75803,0,0,0,0,0,0,0,-1,1091,491,0.0407668,9.75802
-126,533,2.89612,-2.59003,0,0,0,0,0,0,0,-1,1098,491,2.89608,2.59003
-119,533,2.87903,-3.47372,0,0,0,0,0,0,0,-1,1105,491,2.87905,3.47373
-112,533,1.69788,-3.8486,0,0,0,0,0,0,0,-1,1112,491,1.69793,3.84862
-105,533,3.84839,1.12769,0,0,0,0,0,0,0,-1,1119,491,3.84843,-1.12769
-98,533,-1.39392,-5.16367,0,0,0,0,0,0,0,-1,1126,491,-1.39394,5.16367
-91,533,0.367432,4.49753,0,0,0,0,0,0,0,-1,1133,491,0.367468,-4.49754
-84,533,-0.88623,3.03604,0,0,0,0,0,0,0,-1,1140,491,-0.886288,-3.03605
-77,533,0,0,0,0,0,0,0,0,0,-1,1147,491,0,0
-70,533,0,0,0,0,0,0,0,0,0,-1,1154,491,0,0
-63,533,0,0,0,0,0,0,0,0,0,-1,1161,491,0,0
-56,533,0,0,0,0,0,0,0,0,0,-1,1168,491,0,0
-49,533,0,0,0,0,0,0,0,0,0,-1,1175,491,0,0
-42,533,0,0,0,0,0,0,0,0,0,-1,1182,491,0,0
-35,533,0,0,0,0,0,0,0,0,0,-1,1189,491,0,0
-28,533,0,0,0,0,0,0,0,0,0,-1,1196,491,0,0
-21,533,0,0,0,0,0,0,0,0,0,-1,1203,491,0,0
-14,533,0,0,0,0,0,0,0,0,0,-1,1210,491,0,0
-7,533,0,0,0,0,0,0,0,0,0,-1,1217,491,0,0
0,533,0,0,0,0,0,0,0,0,0,-1,1224,491,0,0
7,533,0,0,0,0,0,0,0,0,0,-1,1231,491,0,0
14,533,0,0,0,0,0,0,0,0,0,-1,1238,491,0,0
21,533,0,0,0,0,0,0,0,0,0,-1,1245,491,0,0
28,533,0,0,0,0,0,0,0,0,0,-1,1252,491,0,0
35,533,0,0,0,0,0,0,0,0,0,-1,1259,491,0,0
42,533,0,0,0,0,0,0,0,0,0,-1,1266,491,0,0
49,533,0,0,0,0,0,0,0,0,0,-1,1273,491,0,0
56,533,0,0,0,0,0,0,0,0,0,-1,1280,491,0,0
63,533,0,0,0,0,0,0,0,0,0,-1,1287,491,0,0
70,533,0,0,0,0,0,0,0,0,0,-1,1294,491,0,0
77,533,0,0,0,0,0,0,0,0,0,-1,1301,491,0,0
84,533,0,0,0,0,0,0,0,0,0,-1,1308,491,0,0
91,533,0,0,0,0,0,0,0,0,0,-1,1315,491,0,0
98,533,0,0,0,0,0,0,0,0,0,-1,1322,491,0,0
105,533,0,0,0,0,0,0,0,0,0,-1,1329,491,0,0
112,533,0,0,0,0,0,0,0,0,0,-1,1336,491,0,0
119,533,0,0,0,0,0,0,0,0,0,-1,1343,491,0,0
126,533,0,0,0,0,0,0,0,0,0,-1,1350,491,0,0
133,533,0,0,0,0,0,0,0,0,0,-1,1357,491,0,0
140,533,0,0,0,0,0,0,0,0,0,-1,1364,491,0,0
147,533,0,0,0,0,0,0,0,0,0,-1,1371,491,0,0
154,533,0,0,0,0,0,0,0,0,0,-1,1378,491,0,0
161,533,0,0,0,0,0,0,0,0,0,-1,1385,491,0,0
168,533,0,0,0,0,0,0,0,0,0,-1,1392,491,0,0
175,533,0,0,0,0,0,0,0,0,0,-1,1399,491,0,0
182,533,0,0,0,0,0,0,0,0,0,-1,1406,491,0,0
189,533,0,0,0,0,0,0,0,0,0,-1,1413,491,0,0
196,533,0,0,0,0,0,0,0,0,0,-1,1420,491,0,0
203,533,3.7887,1.16193,0,0,0,0,0,0,0,-1,1427,491,3.78872,-1.16193
210,533,5.09558,-0.216034,0,0,0,0,0,0,0,-1,1434,491,5.09559,0.216028
217,533,6.91614,-2.46814,0,0,0,0,0,0,0,-1,1441,491,6.91618,2.46814
224,533,7.23621,-2.1857,0,0,0,0,0,0,0,-1,1448,491,7.23621,2.1857
231,533,7.23474,-1.92282,0,0,0,0,0,0,0,-1,1455,491,7.2347,1.92282
238,533,7.23535,-1.67258,0,0,0,0,0,0,0,-1,1462,491,7.23539,1.67258
245,533,6.86682,-1.2301,0,0,0,0,0,0,0,-1,1469,491,6.86686,1.23011
252,533,6.63354,-3.07825,0,0,0,0,0,0,0,-1,1476,491,6.6335,3.07824
259,533,6.16431,-2.35037,0,0,0,0,0,0,0,-1,1483,491,6.1643,2.35037
266,533,5.68884,-1.6214,0,0,0,0,0,0,0,-1,1490,491,5.68885,1.6214
273,533,5.21399,-0.864227,0,0,0,0,0,0,0,-1,1497,491,5.21403,0.864227
280,533,1.41089,-1.97946,0,0,0,0,0,0,0,-1,1504,491,1.41087,1.97946
287,533,1.6814,-2.44443,0,0,0,0,0,0,0,-1,1511,491,1.6814,2.44444
294,533,2.2384,-2.57626,0,0,0,0,0,0,0,-1,1518,491,2.23839,2.57625
301,533,3.39941,-4.0817,0,0,0,0,0,0,0,-1,1525,491,3.3994,4.08171
308,533,4.13733,-4.14752,0,0,0,0,0,0,0,-1,1532,491,4.13727,4.14752
315,533,4.80762,-5.29349,0,0,0,0,0,0,0,-1,1539,491,4.80762,5.29347
322,533,5.47803,-6.43942,0,0,0,0,0,0,0,-1,1546,491,5.47798,6.43943
329,533,3.88477,-3.86301,0,0,0,0,0,0,0,-1,1553,491,3.88475,3.86299
336,533,3.53687,-5.68427,0,0,0,0,0,0,0,-1,1560,491,3.53689,5.68425
343,533,5.87952,-6.38858,0,0,0,0,0,0,0,-1,1567,491,5.87953,6.38857
350,533,4.1543,-6.07898,0,0,0,0,0,0,0,-1,1574,491,4.15434,6.07899
357,533,4.12402,-6.13113,-0.00742943,-0.0141755,-0.0131098,0.00273431,-0.0243392,-0.659484,0.0172101,0.0423732,1581,491,4.12398,6.13114
364,533,3.90332,-6.30463,-0.00580793,-0.0123844,-0.0112418,0.00261665,-0.020809,-0.643116,0.0148221,0.0331342,1588,491,3.90335,6.30462
371,533,3.7179,-6.26169,-0.00444612,-0.0104863,-0.00939262,0.00240002,-0.0173324,-0.62985,0.0124324,0.0276412,1595,491,3.71787,6.26169
378,533,3.73242,-6.0997,-0.00324554,-0.00862652,-0.00773663,0.00225507,-0.0141271,-0.618059,0.0102528,0.0221578,1602,491,3.73238,6.09972
385,533,3.79712,-5.94843,-0.00243535,-0.00703171,-0.00628744,0.00196076,-0.0114278,-0.610182,0.00834924,0.020724,1609,491,3.79715,5.94843
392,533,3.7804,-5.80652,-0.00182646,-0.00577237,-0.00513081,0.00169765,-0.00929649,-0.601848,0.00683419,0.0135878,1616,491,3.78041,5.80653
399,533,3.79004,-5.66788,-0.00139081,-0.00472599,-0.00426313,0.00151928,-0.00763608,-0.598964,0.00566546,0.0121405,1623,491,3.79006,5.66788
406,533,3.78516,-5.5159,-0.00101739,-0.00362099,-0.00342889,0.00134851,-0.00598688,-0.603975,0.00450849,0.0153643,1630,491,3.7851,5.51589
413,533,3.80359,-5.33636,-0.000677667,-0.00262416,-0.00265005,0.0011722,-0.00447402,-0.609416,0.00344063,0.0131266,1637,491,3.80364,5.33637
420,533,3.81885,-5.15103,-0.000511621,-0.0020183,-0.00213472,0.000998787,-0.00352871,-0.615771,0.00274662,0.0112041,1644,491,3.81879,5.15104
427,533,3.82617,-4.96582,-0.000493586,-0.00150544,-0.00177799,0.000849055,-0.00284808,-0.646787,0.00223613,0.0120532,1651,491,3.82617,4.96581
434,533,3.79602,-4.8197,-0.000496299,-0.00111305,-0.00148668,0.000713648,-0.002323,-0.683135,0.00183345,0.0132053,1658,491,3.79597,4.8197
441,533,3.80664,-4.66946,-0.000473984,-0.000923644,-0.00121661,0.000538397,-0.00193603,-0.694029,0.00150265,0.0154964,1665,491,3.80663,4.66946
448,533,3.81714,-4.51004,-0.000571623,-0.000500635,-0.000946021,0.000410558,-0.00148282,-0.804149,0.00115009,0.0163341,1672,491,3.81714,4.51004
455,533,3.80615,-4.31262,-0.000750293,-0.000228576,-0.000846246,0.000396105,-0.00137497,-0.934904,0.00107333,0.0155598,1679,491,3.80619,4.31262
462,533,3.79736,-4.10687,-0.00133222,-0.000327562,-0.00124458,0.00051224,-0.00217203,-0.977207,0.00164556,0.0142098,1686,491,3.79731,4.10687
469,533,3.79871,-3.9502,-0.00198716,-0.000631462,-0.00172413,0.000543287,-0.00316191,-0.972693,0.00231042,0.00941083,1693,491,3.79875,3.9502
476,533,3.80676,-3.79794,-0.00304957,-0.00104069,-0.00239119,0.00054846,-0.00463872,-0.984237,0.00329057,0.010072,1700,491,3.80682,3.79793
483,533,3.82959,-3.60117,-0.00452762,-0.00143207,-0.00339174,0.000748358,-0.00670805,-0.999454,0.00474121,0.0149609,1707,491,3.82954,3.60115
490,533,3.86987,-3.51611,-0.00667023,-0.00209458,-0.00458729,0.000743737,-0.00950855,-1.01671,0.00660093,0.0327652,1714,491,3.86985,3.51612
497,533,3.7699,-3.20172,-0.00987997,-0.00236136,-0.0058552,0.000837474,-0.0130788,-1.07078,0.00901134,0.0492985,1721,491,3.76989,3.20171
504,533,3.49988,-2.89468,-0.0140343,-0.0024028,-0.00744779,0.00123093,-0.017668,-1.11688,0.0122097,0.0435395,1728,491,3.49984,2.8947
511,533,3.25684,-2.67621,-0.0192093,-0.00263744,-0.00930255,0.00153432,-0.0233811,-1.14923,0.0161232,0.0489942,1735,491,3.2568,2.67621
518,533,2.99353,-2.42468,0,0,0,0,0,0,0,-1,1742,491,2.99349,2.42468
525,533,3.63171,-2.09952,0,0,0,0,0,0,0,-1,1749,491,3.63166,2.09952
532,533,3.24243,0.0737,0,0,0,0,0,0,0,-1,1756,491,3.24239,-0.0737072
539,533,3.61609,1.62427,0,0,0,0,0,0,0,-1,1763,491,3.61606,-1.62426
546,533,3.59607,1.65799,0,0,0,0,0,0,0,-1,1770,491,3.59605,-1.658
553,533,0,0,0,0,0,0,0,0,0,-1,1777,491,0,0
560,533,0,0,0,0,0,0,0,0,0,-1,1784,491,0,0
567,533,0,0,0,0,0,0,0,0,0,-1,1791,491,0,0
574,533,0,0,0,0,0,0,0,0,0,-1,1798,491,0,0
581,533,0,0,0,0,0,0,0,0,0,-1,1805,491,0,0
588,533,0,0,0,0,0,0,0,0,0,-1,1812,491,0,0
595,533,0,0,0,0,0,0,0,0,0,-1,1819,491,0,0
602,533,0,0,0,0,0,0,0,0,0,-1,1826,491,0,0
609,533,0,0,0,0,0,0,0,0,0,-1,1833,491,0,0
616,533,0,0,0,0,0,0,0,0,0,-1,1840,491,0,0
623,533,0,0,0,0,0,0,0,0,0,-1,1847,491,0,0
630,533,0,0,0,0,0,0,0,0,0,-1,1854,491,0,0
637,533,0,0,0,0,0,0,0,0,0,-1,1861,491,0,0
644,533,0,0,0,0,0,0,0,0,0,-1,1868,491,0,0
651,533,0,0,0,0,0,0,0,0,0,-1,1875,491,0,0
658,533,0,0,0,0,0,0,0,0,0,-1,1882,491,0,0
665,533,0,0,0,0,0,0,0,0,0,-1,1889,491,0,0
672,533,0,0,0,0,0,0,0,0,0,-1,1896,491,0,0
679,533,0,0,0,0,0,0,0,0,0,-1,1903,491,0,0
686,533,0,0,0,0,0,0,0,0,0,-1,1910,491,0,0
693,533,0,0,0,0,0,0,0,0,0,-1,1917,491,0,0
700,533,0,0,0,0,0,0,0,0,0,-1,1924,491,0,0
707,533,0,0,0,0,0,0,0,0,0,-1,1931,491,0,0
714,533,0,0,0,0,0,0,0,0,0,-1,1938,491,0,0
721,533,0,0,0,0,0,0,0,0,0,-1,1945,491,0,0
728,533,0,0,0,0,0,0,0,0,0,-1,1952,491,0,0
735,533,0,0,0,0,0,0,0,0,0,-1,1959,491,0,0
742,533,0,0,0,0,0,0,0,0,0,-1,1966,491,0,0
749,533,0,0,0,0,0,0,0,0,0,-1,1973,491,0,0
756,533,0,0,0,0,0,0,0,0,0,-1,1980,491,0,0
763,533,0,0,0,0,0,0,0,0,0,-1,1987,491,0,0
770,533,0,0,0,0,0,0,0,0,0,-1,1994,491,0,0
777,533,0,0,0,0,0,0,0,0,0,-1,2001,491,0,0
784,533,0,0,0,0,0,0,0,0,0,-1,2008,491,0,0
791,533,0,0,0,0,0,0,0,0,0,-1,2015,491,0,0
798,533,0,0,0,0,0,0,0,0,0,-1,2022,491,0,0
805,533,0,0,0,0,0,0,0,0,0,-1,2029,491,0,0
812,533,0,0,0,0,0,0,0,0,0,-1,2036,491,0,0
-700,526,0,0,0,0,0,0,0,0,0,-1,524,498,0,0
-693,526,0,0,0,0,0,0,0,0,0,-1,531,498,0,0
-686,526,0,0,0,0,0,0,0,0,0,-1,538,498,0,0
-679,526,0,0,0,0,0,0,0,0,0,-1,545,498,0,0
-672,526,0,0,0,0,0,0,0,0,0,-1,552,498,0,0
-665,526,0,0,0,0,0,0,0,0,0,-1,559,498,0,0
-658,526,0,0,0,0,0,0,0,0,0,-1,566,498,0,0
-651,526,0,0,0,0,0,0,0,0,0,-1,573,498,0,0
-644,526,0,0,0,0,0,0,0,0,0,-1,580,498,0,0
-637,526,0,0,0,0,0,0,0,0,0,-1,587,498,0,0
-630,526,0,0,0,0,0,0,0,0,0,-1,594,498,0,0
-623,526,0,0,0,0,0,0,0,0,0,-1,601,498,0,0
-616,526,0,0,0,0,0,0,0,0,0,-1,608,498,0,0
-609,526,0,0,0,0,0,0,0,0,0,-1,615,498,0,0
-602,526,0,0,0,0,0,0,0,0,0,-1,622,498,0,0
-595,526,0,0,0,0,0,0,0,0,0,-1,629,498,0,0
-588,526,0,0,0,0,0,0,0,0,0,-1,636,498,0,0
-581,526,0,0,0,0,0,0,0,0,0,-1,643,498,0,0
-574,526,0,0,0,0,0,0,0,0,0,-1,650,498,0,0
-567,526,0,0,0,0,0,0,0,0,0,-1,657,498,0,0
-560,526,0,0,0,0,0,0,0,0,0,-1,664,498,0,0
-553,526,0,0,0,0,0,0,0,0,0,-1,671,498,0,0
-546,526,0,0,0,0,0,0,0,0,0,-1,678,498,0,0
-539,526,0,0,0,0,0,0,0,0,0,-1,685,498,0,0
-532,526,0,0,0,0,0,0,0,0,0,-1,692,498,0,0
-525,526,0,0,0,0,0,0,0,0,0,-1,699,498,0,0
-518,526,0,0,0,0,0,0,0,0,0,-1,706,498,0,0
-511,526,0,0,0,0,0,0,0,0,0,-1,713,498,0,0
-504,526,0,0,0,0,0,0,0,0,0,-1,720,498,0,0
-497,526,0,0,0,0,0,0,0,0,0,-1,727,498,0,0
-490,526,0,0,0,0,0,0,0,0,0,-1,734,498,0,0
-483,526,0,0,0,0,0,0,0,0,0,-1,741,498,0,0
-476,526,0,0,0,0,0,0,0,0,0,-1,748,498,0,0
-469,526,0,0,0,0,0,0,0,0,0,-1,755,498,0,0
-462,526,0,0,0,0,0,0,0,0,0,-1,762,498,0,0
-455,526,0,0,0,0,0,0,0,0,0,-1,769,498,0,0
-448,526,0,0,0,0,0,0,0,0,0,-1,776,498,0,0
-441,526,0,0,0,0,0,0,0,0,0,-1,783,498,0,0
-434,526,3.10223,-3.88477,0,0,0,0,0,0,0,-1,790,498,3.10224,3.88476
-427,526,2.6554,-3.021,0,0,0,0,0,0,0,-1,797,498,2.65539,3.021
-420,526,2.04388,-5.36987,0,0,0,0,0,0,0,-1,804,498,2.04388,5.36987
-413,526,0.903076,-3.13574,0,0,0,0,0,0,0,-1,811,498,0.903084,3.13575
-406,526,0.888611,-3.30124,0,0,0,0,0,0,0,-1,818,498,0.888635,3.30124
-399,526,0.874207,-3.46674,0,0,0,0,0,0,0,-1,825,498,0.874185,3.46673
-392,526,0.552368,-3.55792,0,0,0,0,0,0,0,-1,832,498,0.552389,3.55793
-385,526,0.570435,-4.013,0,0,0,0,0,0,0,-1,839,498,0.570442,4.01302
-378,526,-0.431824,-4.80045,-0.0131618,-0.0152954,-0.00771452,-0.00644065,-0.0220165,-0.71669,0.0130709,0.0483646,846,498,-0.4318,4.80044
-371,526,0.232727,-4.55573,-0.00980484,-0.0147003,-0.00758688,-0.00428062,-0.0202245,-0.629356,0.0123069,0.039645,853,498,0.232745,4.55572
-364,526,0.350525,-4.70062,-0.00701897,-0.0131831,-0.00698664,-0.0024648,-0.0177373,-0.577668,0.0110949,0.0212602,860,498,0.350546,4.70062
-357,526,0.286865,-4.82635,-0.00495612,-0.0113103,-0.00619229,-0.00117344,-0.015093,-0.548374,0.00969453,0.0146232,867,498,0.286871,4.82635
-350,526,0.304016,-4.99484,-0.00334019,-0.0093883,-0.00529153,-0.000269556,-0.0124589,-0.525802,0.00821758,0.0112305,874,498,0.304001,4.99483
-343,526,0.304565,-5.17123,-0.00205297,-0.0070466,-0.00416976,0.00031036,-0.00940992,-0.515633,0.00637925,0.0144805,881,498,0.304576,5.17124
-336,526,0.284546,-5.34442,-0.000695198,-0.0048225,-0.00305034,0.000923982,-0.00644168,-0.487998,0.00463326,0.0146238,888,498,0.284544,5.34444
-329,526,0.289124,-5.48254,0.000138045,-0.00328644,-0.00212449,0.0011544,-0.0043028,-0.446218,0.0033209,0.0148277,895,498,0.289117,5.48254
-322,526,0.30072,-5.61594,0.000142741,-0.00188067,-0.00134654,0.000815293,-0.00255322,-0.46322,0.00202926,0.00973594,902,498,0.300722,5.61594
-315,526,0.293457,-5.78745,0.000328614,-0.00071903,-0.000757828,0.000726037,-0.00111645,-0.482996,0.00107169,0.00871792,909,498,0.293438,5.78745
-308,526,0.29303,-5.93961,0.000589156,-0.000262978,-0.000322783,0.000697619,-0.00037144,-0.32417,0.000626725,0.00856523,916,498,0.293046,5.93959
-301,526,0.277954,-6.07043,0.000742875,-9.60655e-05,-9.62772e-05,0.000753782,-0.000106972,-0.112807,0.000541711,0.0097468,923,498,0.27798,6.07042
-294,526,0.283508,-6.22977,0.000923132,0.000133765,9.98156e-05,0.000935558,0.000121339,0.123853,0.000587451,0.00936951,930,498,0.283498,6.22978
-287,526,0.28241,-6.38165,0.00114233,0.000386411,0.000206108,0.00119487,0.000333866,0.249622,0.000711885,0.00920379,937,498,0.282439,6.38165
-280,526,0.27478,-6.51776,0.00123292,0.000814336,0.00016643,0.00129103,0.00075623,0.335902,0.000749022,0.0109647,944,498,0.274773,6.51776
-273,526,0.287964,-6.66577,0.00117694,0.0014013,-4.37385e-05,0.00140952,0.00116872,-1.38491,0.000870586,0.00969275,951,498,0.287988,6.66577
-266,526,0.303711,-6.79703,0.00132306,0.0028795,-0.000370317,0.00296312,0.00123944,-1.34873,0.00171835,0.0095126,958,498,0.30369,6.79702
-259,526,0.344727,-6.91147,0.00154923,0.00436494,-0.000672055,0.00451712,0.00139705,-1.34811,0.00267045,0.0166762,965,498,0.344718,6.91145
-252,526,0.338989,-7.03503,0.00137054,0.00633362,-0.00124733,0.00662947,0.00107469,-1.33792,0.00410854,0.0326403,972,498,0.338981,7.03505
-245,526,0.346069,-7.27264,0.000540672,0.00820119,-0.00164507,0.00853952,0.000202341,-1.36796,0.00562678,0.0415876,979,498,0.346097,7.27265
-238,526,0.410522,-7.42664,-0.000177721,0.0105598,-0.00239166,0.0110684,-0.000686342,-1.36125,0.00761805,0.0370947,986,498,0.410505,7.42664
-231,526,0.412354,-7.6293,-0.00100124,0.0133471,-0.00322529,0.0140387,-0.00169289,-1.35955,0.00997146,0.0420518,993,498,0.41236,7.62931
-224,526,0.18103,-7.85999,-0.00209995,0.0159797,-0.00397703,0.0168159,-0.00293612,-1.36357,0.0123066,0.0498648,1000,498,0.181002,7.85997
-217,526,-0.11969,-8.64459,0,0,0,0,0,0,0,-1,1007,498,-0.119683,8.64459
-210,526,0.736877,-8.60431,0,0,0,0,0,0,0,-1,1014,498,0.736865,8.60429
-203,526,0.621277,-6.82285,0,0,0,0,0,0,0,-1,1021,498,0.621281,6.82286
-196,526,0.375732,-6.21689,0,0,0,0,0,0,0,-1,1028,498,0.375732,6.2169
-189,526,0.401245,-5.96826,0,0,0,0,0,0,0,-1,1035,498,0.401197,5.96826
-182,526,1.7323,-2.99405,0,0,0,0,0,0,0,-1,1042,498,1.73226,2.99404
-175,526,2.27637,-2.07983,0,0,0,0,0,0,0,-1,1049,498,2.27639,2.07984
-168,526,2.12036,-1.66049,0,0,0,0,0,0,0,-1,1056,498,2.12035,1.66048
-161,526,2.09082,-1.20572,0,0,0,0,0,0,0,-1,1063,498,2.09086,1.2057
-154,526,2.15234,-0.381561,0,0,0,0,0,0,0,-1,1070,498,2.15234,0.381553
-147,526,2.28003,0.0862732,0,0,0,0,0,0,0,-1,1077,498,2.28002,-0.0862774
-140,526,-1.09448,-8.34439,0,0,0,0,0,0,0,-1,1084,498,-1.09449,8.34439
-133,526,2.84351,-4.6127,0,0,0,0,0,0,0,-1,1091,498,2.84349,4.61269
-126,526,3.42529,-2.36053,0,0,0,0,0,0,0,-1,1098,498,3.42523,2.36052
-119,526,2.7771,-0.764099,0,0,0,0,0,0,0,-1,1105,498,2.7771,0.764107
-112,526,2.57715,-1.1893,0,0,0,0,0,0,0,-1,1112,498,2.57718,1.1893
-105,526,0,0,0,0,0,0,0,0,0,-1,1119,498,0,0
-98,526,0,0,0,0,0,0,0,0,0,-1,1126,498,0,0
-91,526,0,0,0,0,0,0,0,0,0,-1,1133,498,0,0
-84,526,0,0,0,0,0,0,0,0,0,-1,1140,498,0,0
-77,526,0,0,0,0,0,0,0,0,0,-1,1147,498,0,0
-70,526,0,0,0,0,0,0,0,0,0,-1,1154,498,0,0
-63,526,0,0,0,0,0,0,0,0,0,-1,1161,498,0,0
-56,526,0,0,0,0,0,0,0,0,0,-1,1168,498,0,0
-49,526,0,0,0,0,0,0,0,0,0,-1,1175,498,0,0
-42,526,0,0,0,0,0,0,0,0,0,-1,1182,498,0,0
-35,526,0,0,0,0,0,0,0,0,0,-1,1189,498,0,0
-28,526,0,0,0,0,0,0,0,0,0,-1,1196,498,0,0
-21,526,0,0,0,0,0,0,0,0,0,-1,1203,498,0,0
-14,526,0,0,0,0,0,0,0,0,0,-1,1210,498,0,0
-7,526,0,0,0,0,0,0,0,0,0,-1,1217,498,0,0
0,526,0,0,0,0,0,0,0,0,0,-1,1224,498,0,0
7,526,0,0,0,0,0,0,0,0,0,-1,1231,498,0,0
14,526,0,0,0,0,0,0,0,0,0,-1,1238,498,0,0
21,526,0,0,0,0,0,0,0,0,0,-1,1245,498,0,0
28,526,0,0,0,0,0,0,0,0,0,-1,1252,498,0,0
35,526,0,0,0,0,0,0,0,0,0,-1,1259,498,0,0
42,526,0,0,0,0,0,0,0,0,0,-1,1266,498,0,0
49,526,0,0,0,0,0,0,0,0,0,-1,1273,498,0,0
56,526,0,0,0,0,0,0,0,0,0,-1,1280,498,0,0
63,526,0,0,0,0,0,0,0,0,0,-1,1287,498,0,0
70,526,0,0,0,0,0,0,0,0,0,-1,1294,498,0,0
77,526,0,0,0,0,0,0,0,0,0,-1,1301,498,0,0
84,526,0,0,0,0,0,0,0,0,0,-1,1308,498,0,0
91,526,0,0,0,0,0,0,0,0,0,-1,1315,498,0,0
98,526,0,0,0,0,0,0,0,0,0,-1,1322,498,0,0
105,526,0,0,0,0,0,0,0,0,0,-1,1329,498,0,0
112,526,0,0,0,0,0,0,0,0,0,-1,1336,498,0,0
119,526,0,0,0,0,0,0,0,0,0,-1,1343,498,0,0
126,526,0,0,0,0,0,0,0,0,0,-1,1350,498,0,0
133,526,0,0,0,0,0,0,0,0,0,-1,1357,498,0,0
140,526,0,0,0,0,0,0,0,0,0,-1,1364,498,0,0
147,526,0,0,0,0,0,0,0,0,0,-1,1371,498,0,0
154,526,0,0,0,0,0,0,0,0,0,-1,1378,498,0,0
161,526,0,0,0,0,0,0,0,0,0,-1,1385,498,0,0
168,526,0,0,0,0,0,0,0,0,0,-1,1392,498,0,0
175,526,0,0,0,0,0,0,0,0,0,-1,1399,498,0,0
182,526,0,0,0,0,0,0,0,0,0,-1,1406,498,0,0
189,526,0,0,0,0,0,0,0,0,0,-1,1413,498,0,0
196,526,0,0,0,0,0,0,0,0,0,-1,1420,498,0,0
203,526,0,0,0,0,0,0,0,0,0,-1,1427,498,0,0
210,526,0,0,0,0,0,0,0,0,0,-1,1434,498,0,0
217,526,0,0,0,0,0,0,0,0,0,-1,1441,498,0,0
224,526,0,0,0,0,0,0,0,0,0,-1,1448,498,0,0
231,526,7.93237,-1.30618,0,0,0,0,0,0,0,-1,1455,498,7.93238,1.30618
238,526,7.97717,-1.08197,0,0,0,0,0,0,0,-1,1462,498,7.97723,1.08196
245,526,7.2793,-0.792938,0,0,0,0,0,0,0,-1,1469,498,7.27931,0.792926
252,526,6.73523,-2.23608,0,0,0,0,0,0,0,-1,1476,498,6.73525,2.23608
259,526,6.22949,-1.84967,0,0,0,0,0,0,0,-1,1483,498,6.22953,1.84968
266,526,5.72375,-1.46329,0,0,0,0,0,0,0,-1,1490,498,5.72381,1.46328
273,526,4.33984,0.49173,0,0,0,0,0,0,0,-1,1497,498,4.33979,-0.491727
280,526,1.4585,-1.59897,0,0,0,0,0,0,0,-1,1504,498,1.45846,1.59895
287,526,1.46411,-2.40134,0,0,0,0,0,0,0,-1,1511,498,1.46406,2.40133
294,526,5.57471,-4.59085,0,0,0,0,0,0,0,-1,1518,498,5.57466,4.59084
301,526,4.42786,-3.99677,0,0,0,0,0,0,0,-1,1525,498,4.42788,3.99676
308,526,5.79529,-4.19366,0,0,0,0,0,0,0,-1,1532,498,5.79528,4.19368
315,526,5.09851,-5.20068,0,0,0,0,0,0,0,-1,1539,498,5.09851,5.20068
322,526,5.50708,-4.72348,0,0,0,0,0,0,0,-1,1546,498,5.50713,4.72347
329,526,3.88672,-4.345,0,0,0,0,0,0,0,-1,1553,498,3.88674,4.34501
336,526,4.97876,-2.23828,0,0,0,0,0,0,0,-1,1560,498,4.97877,2.23828
343,526,3.31665,-2.69696,0,0,0,0,0,0,0,-1,1567,498,3.31667,2.69696
350,526,6.06287,-6.12015,0,0,0,0,0,0,0,-1,1574,498,6.06286,6.12014
357,526,4.50012,-5.95248,0,0,0,0,0,0,0,-1,1581,498,4.50016,5.95248
364,526,3.96338,-6.5166,0,0,0,0,0,0,0,-1,1588,498,3.96337,6.51661
371,526,3.9502,-6.3186,0,0,0,0,0,0,0,-1,1595,498,3.95022,6.3186
378,526,3.79333,-6.34473,0,0,0,0,0,0,0,-1,1602,498,3.79332,6.34473
385,526,3.94043,-6.11176,-0.00319864,-0.010038,-0.00863751,0.00267149,-0.0159082,-0.596909,0.011599,0.0469385,1609,498,3.94042,6.11176
392,526,4.01208,-5.83691,-0.00243613,-0.00813685,-0.00709131,0.00235623,-0.0129292,-0.594305,0.00950276,0.0255997,1616,498,4.01212,5.83692
399,526,3.93237,-5.67642,-0.00191462,-0.00652396,-0.00592249,0.00213582,-0.0105744,-0.599844,0.00785889,0.0152261,1623,498,3.93243,5.67641
406,526,3.95972,-5.49347,-0.00148207,-0.00493407,-0.00485585,0.00194541,-0.00836155,-0.614639,0.00632339,0.0122946,1630,498,3.95969,5.49346
413,526,3.96594,-5.33813,-0.00107733,-0.00351284,-0.00381142,0.00170615,-0.00629632,-0.630773,0.00486699,0.013015,1637,498,3.9659,5.33815
420,526,3.98279,-5.16693,-0.000844469,-0.00256929,-0.00304207,0.00145507,-0.00486883,-0.647275,0.00382432,0.0136213,1644,498,3.98279,5.16693
427,526,4.00098,-4.97595,-0.000713716,-0.00181232,-0.00243153,0.00122979,-0.00375582,-0.67431,0.00299907,0.0141425,1651,498,4.00093,4.97594
434,526,3.98914,-4.79495,-0.000567871,-0.00121082,-0.00190658,0.00104415,-0.00282283,-0.701877,0.00230999,0.0131813,1658,498,3.98916,4.79496
441,526,3.97498,-4.65646,-0.000352818,-0.000886037,-0.00142678,0.00083205,-0.0020709,-0.693033,0.00172615,0.0112329,1665,498,3.97503,4.65646
448,526,3.98645,-4.50275,-0.000179809,-0.000318226,-0.000941429,0.000694952,-0.00119299,-0.748707,0.00110257,0.0105157,1672,498,3.98642,4.50275
455,526,3.97461,-4.32901,-1.49541e-05,8.03003e-06,-0.000616104,0.000612749,-0.000619673,-0.794724,0.000711543,0.0134208,1679,498,3.97457,4.32902
462,526,3.98157,-4.13461,-0.000152612,-2.09806e-05,-0.000752725,0.000668801,-0.000842394,-0.829006,0.000874405,0.0101446,1686,498,3.98163,4.1346
469,526,3.98438,-3.97043,-0.00035147,-0.000307623,-0.00101554,0.000686227,-0.00134532,-0.796191,0.00119331,0.00749156,1693,498,3.98433,3.97042
476,526,3.98108,-3.79706,-0.000915922,-0.000724906,-0.00146543,0.000648125,-0.00228895,-0.817939,0.00178175,0.00909742,1700,498,3.98102,3.79706
483,526,3.99438,-3.5827,-0.00182861,-0.00106057,-0.00221038,0.000798899,-0.00368808,-0.871408,0.00276378,0.0104724,1707,498,3.99434,3.58269
490,526,4.03821,-3.37195,-0.00332456,-0.00161132,-0.00308743,0.000736124,-0.005672,-0.920722,0.00404908,0.0172631,1714,498,4.03823,3.37195
497,526,3.97253,-3.22778,-0.00582383,-0.00166916,-0.00395984,0.000725155,-0.00821815,-1.02697,0.00573578,0.0228606,1721,498,3.97259,3.22777
504,526,3.90051,-2.97763,-0.00909523,-0.00131421,-0.00505423,0.00117348,-0.0115829,-1.11341,0.00814134,0.0276123,1728,498,3.90057,2.97764
511,526,4.09375,-2.95923,-0.0131559,-0.00110798,-0.00633309,0.00160855,-0.0158724,-1.16559,0.0111565,0.04024,1735,498,4.09379,2.95922
518,526,4.20947,-2.88382,0,0,0,0,0,0,0,-1,1742,498,4.20945,2.88382
525,526,2.98242,-3.75757,0,0,0,0,0,0,0,-1,1749,498,2.98243,3.75757
532,526,3.54285,-2.81274,0,0,0,0,0,0,0,-1,1756,498,3.54284,2.81273
539,526,3.29407,0.932312,0,0,0,0,0,0,0,-1,1763,498,3.2941,-0.93232
546,526,3.36731,1.07721,0,0,0,0,0,0,0,-1,1770,498,3.36735,-1.07719
553,526,3.40796,1.37137,0,0,0,0,0,0,0,-1,1777,498,3.40792,-1.37138
560,526,0,0,0,0,0,0,0,0,0,-1,1784,498,0,0
567,526,0,0,0,0,0,0,0,0,0,-1,1791,498,0,0
574,526,0,0,0,0,0,0,0,0,0,-1,1798,498,0,0
581,526,0,0,0,0,0,0,0,0,0,-1,1805,498,0,0
588,526,0,0,0,0,0,0,0,0,0,-1,1812,498,0,0
595,526,0,0,0,0,0,0,0,0,0,-1,1819,498,0,0
602,526,0,0,0,0,0,0,0,0,0,-1,1826,498,0,0
609,526,0,0,0,0,0,0,0,0,0,-1,1833,498,0,0
616,526,0,0,0,0,0,0,0,0,0,-1,1840,498,0,0
623,526,0,0,0,0,0,0,0,0,0,-1,1847,498,0,0
630,526,0,0,0,0,0,0,0,0,0,-1,1854,498,0,0
637,526,0,0,0,0,0,0,0,0,0,-1,1861,498,0,0
644,526,0,0,0,0,0,0,0,0,0,-1,1868,498,0,0
651,526,0,0,0,0,0,0,0,0,0,-1,1875,498,0,0
658,526,0,0,0,0,0,0,0,0,0,-1,1882,498,0,0
665,526,0,0,0,0,0,0,0,0,0,-1,1889,498,0,0
672,526,0,0,0,0,0,0,0,0,0,-1,1896,498,0,0
679,526,0,0,0,0,0,0,0,0,0,-1,1903,498,0,0
686,526,0,0,0,0,0,0,0,0,0,-1,1910,498,0,0
693,526,0,0,0,0,0,0,0,0,0,-1,1917,498,0,0
700,526,0,0,0,0,0,0,0,0,0,-1,1924,498,0,0
707,526,0,0,0,0,0,0,0,0,0,-1,1931,498,0,0
714,526,0,0,0,0,0,0,0,0,0,-1,1938,498,0,0
721,526,0,0,0,0,0,0,0,0,0,-1,1945,498,0,0
728,526,0,0,0,0,0,0,0,0,0,-1,1952,498,0,0
735,526,0,0,0,0,0,0,0,0,0,-1,1959,498,0,0
742,526,0,0,0,0,0,0,0,0,0,-1,1966,498,0,0
749,526,0,0,0,0,0,0,0,0,0,-1,1973,498,0,0
756,526,0,0,0,0,0,0,0,0,0,-1,1980,498,0,0
763,526,0,0,0,0,0,0,0,0,0,-1,1987,498,0,0
770,526,0,0,0,0,0,0,0,0,0,-1,1994,498,0,0
777,526,0,0,0,0,0,0,0,0,0,-1,2001,498,0,0
784,526,0,0,0,0,0,0,0,0,0,-1,2008,498,0,0
791,526,0,0,0,0,0,0,0,0,0,-1,2015,498,0,0
798,526,0,0,0,0,0,0,0,0,0,-1,2022,498,0,0
805,526,0,0,0,0,0,0,0,0,0,-1,2029,498,0,0
812,526,0,0,0,0,0,0,0,0,0,-1,2036,498,0,0
-700,519,0,0,0,0,0,0,0,0,0,-1,524,505,0,0
-693,519,0,0,0,0,0,0,0,0,0,-1,531,505,0,0
-686,519,0,0,0,0,0,0,0,0,0,-1,538,505,0,0
-679,519,0,0,0,0,0,0,0,0,0,-1,545,505,0,0
-672,519,0,0,0,0,0,0,0,0,0,-1,552,505,0,0
-665,519,0,0,0,0,0,0,0,0,0,-1,559,505,0,0
-658,519,0,0,0,0,0,0,0,0,0,-1,566,505,0,0
-651,519,0,0,0,0,0,0,0,0,0,-1,573,505,0,0
-644,519,0,0,0,0,0,0,0,0,0,-1,580,505,0,0
-637,519,0,0,0,0,0,0,0,0,0,-1,587,505,0,0
-630,519,0,0,0,0,0,0,0,0,0,-1,594,505,0,0
-623,519,0,0,0,0,0,0,0,0,0,-1,601,505,0,0
-616,519,0,0,0,0,0,0,0,0,0,-1,608,505,0,0
-609,519,0,0,0,0,0,0,0,0,0,-1,615,505,0,0
-602,519,0,0,0,0,0,0,0,0,0,-1,622,505,0,0
-595,519,0,0,0,0,0,0,0,0,0,-1,629,505,0,0
-588,519,0,0,0,0,0,0,0,0,0,-1,636,505,0,0
-581,519,0,0,0,0,0,0,0,0,0,-1,643,505,0,0
-574,519,0,0,0,0,0,0,0,0,0,-1,650,505,0,0
-567,519,0,0,0,0,0,0,0,0,0,-1,657,505,0,0
-560,519,0,0,0,0,0,0,0,0,0,-1,664,505,0,0
-553,519,0,0,0,0,0,0,0,0,0,-1,671,505,0,0
-546,519,0,0,0,0,0,0,0,0,0,-1,678,505,0,0
-539,519,0,0,0,0,0,0,0,0,0,-1,685,505,0,0
-532,519,0,0,0,0,0,0,0,0,0,-1,692,505,0,0
-525,519,0,0,0,0,0,0,0,0,0,-1,699,505,0,0
-518,519,0,0,0,0,0,0,0,0,0,-1,706,505,0,0
-511,519,0,0,0,0,0,0,0,0,0,-1,713,505,0,0
-504,519,0,0,0,0,0,0,0,0,0,-1,720,505,0,0
-497,519,0,0,0,0,0,0,0,0,0,-1,727,505,0,0
-490,519,0,0,0,0,0,0,0,0,0,-1,734,505,0,0
-483,519,0,0,0,0,0,0,0,0,0,-1,741,505,0,0
-476,519,0,0,0,0,0,0,0,0,0,-1,748,505,0,0
-469,519,0,0,0,0,0,0,0,0,0,-1,755,505,0,0
-462,519,0,0,0,0,0,0,0,0,0,-1,762,505,0,0
-455,519,0,0,0,0,0,0,0,0,0,-1,769,505,0,0
-448,519,0,0,0,0,0,0,0,0,0,-1,776,505,0,0
-441,519,3.11029,-4.43204,0,0,0,0,0,0,0,-1,783,505,3.11027,4.43204
-434,519,2.73761,-4.07739,0,0,0,0,0,0,0,-1,790,505,2.73758,4.0774
-427,519,2.11298,-2.61298,0,0,0,0,0,0,0,-1,797,505,2.113,2.61296
-420,519,1.61176,-3.0419,0,0,0,0,0,0,0,-1,804,505,1.61173,3.04189
-413,519,0.743591,-3.44543,-0.0174575,0.0121466,-0.00491378,0.0129409,-0.0182518,-1.41054,0.0180959,0.0463153,811,505,0.743575,3.44544
-406,519,0.637268,-3.65433,-0.0166552,0.00375181,-0.0049102,0.0048718,-0.0177752,-1.34654,0.0137645,0.0452273,818,505,0.637246,3.65432
-399,519,0.483032,-3.7644,0,0,0,0,0,0,0,-1,825,505,0.483031,3.76439
-392,519,0.366333,-3.92603,0,0,0,0,0,0,0,-1,832,505,0.366308,3.92603
-385,519,0.311523,-4.07556,-0.0112119,-0.00857636,-0.00515344,-0.00457486,-0.0152134,-0.910568,0.00901299,0.0455801,839,505,0.311528,4.07555
-378,519,0.198792,-4.30399,-0.00912649,-0.00976915,-0.0050134,-0.00442414,-0.0144715,-0.753395,0.0085628,0.0306872,846,505,0.198802,4.304
-371,519,0.190247,-4.47299,-0.00665175,-0.00972853,-0.00509103,-0.00287176,-0.0135085,-0.638672,0.00821743,0.0181338,853,505,0.190221,4.47298
-364,519,0.149231,-4.64291,-0.00465089,-0.00882779,-0.00479456,-0.00150967,-0.011969,-0.579996,0.00752676,0.0112627,860,505,0.149219,4.64292
-357,519,0.154175,-4.83551,-0.00325508,-0.00763276,-0.0043471,-0.000576861,-0.010311,-0.55217,0.00668999,0.0091362,867,505,0.154198,4.8355
-350,519,0.152588,-5.00793,-0.00220806,-0.00627769,-0.00375051,2.40738e-05,-0.00850982,-0.536848,0.00568125,0.0111008,874,505,0.152568,5.00792
-343,519,0.140808,-5.15417,-0.00139705,-0.0045719,-0.00294366,0.000359931,-0.00632888,-0.538115,0.00434421,0.01357,881,505,0.140827,5.15419
-336,519,0.123413,-5.31366,-0.000541949,-0.00294719,-0.00211566,0.000689013,-0.00417816,-0.526954,0.00304124,0.0137634,888,505,0.12341,5.31366
-329,519,0.132202,-5.46014,-2.87014e-05,-0.00178296,-0.00144713,0.000786365,-0.00259803,-0.512945,0.00204517,0.0126637,895,505,0.132202,5.46015
-322,519,0.149292,-5.61755,-5.88265e-05,-0.000728041,-0.000842009,0.000512625,-0.00129949,-0.59627,0.0010786,0.0101016,902,505,0.149319,5.61757
-315,519,0.156616,-5.79263,6.68289e-05,3.08804e-05,-0.000404032,0.000453286,-0.000355577,-0.763169,0.000468132,0.0085519,909,505,0.15664,5.79264
-308,519,0.142456,-5.95544,0.000319564,0.000262524,-9.22409e-05,0.000387593,0.000194495,-0.635466,0.000223778,0.00799702,916,505,0.14243,5.95545
-301,519,0.116516,-6.06927,0.000494619,0.000384655,0.000104562,0.000557774,0.000321501,0.543349,0.000323282,0.0117131,923,505,0.116506,6.06929
-294,519,0.139099,-6.18759,0.000701423,0.000539461,0.000254044,0.000887081,0.000353804,0.631106,0.000515639,0.0137532,930,505,0.139078,6.18759
-287,519,0.127991,-6.38605,0.000996235,0.000783205,0.000347729,0.0012534,0.000526044,0.636778,0.000726753,0.0102861,937,505,0.127969,6.38606
-280,519,0.120483,-6.53436,0.00116061,0.00125225,0.000261339,0.00147175,0.000941105,0.872172,0.000860662,0.0135037,944,505,0.120501,6.53437
-273,519,0.169861,-6.69067,0.00123362,0.00195665,-4.00873e-05,0.00195886,0.0012314,-1.51558,0.00114336,0.0186743,951,505,0.169857,6.69066
-266,519,0.159973,-6.82797,0.00162986,0.00355857,-0.000447507,0.00365734,0.00153108,-1.35356,0.00212087,0.0254317,958,505,0.159952,6.82798
-259,519,0.326721,-6.84375,0.00179211,0.0053981,-0.000779932,0.00555956,0.00163065,-1.36666,0.00329997,0.0435421,965,505,0.326691,6.84375
-252,519,0.220581,-7.09845,0,0,0,0,0,0,0,-1,972,505,0.220584,7.09847
-245,519,0.13092,-7.45343,0,0,0,0,0,0,0,-1,979,505,0.130929,7.45343
-238,519,0.273438,-7.59619,0,0,0,0,0,0,0,-1,986,505,0.273418,7.59619
-231,519,0.187927,-7.82336,0,0,0,0,0,0,0,-1,993,505,0.187903,7.82336
-224,519,-0.0494995,-7.97394,0,0,0,0,0,0,0,-1,1000,505,-0.0495123,7.97392
-217,519,-2.97125,-4.84393,0,0,0,0,0,0,0,-1,1007,505,-2.97128,4.84393
-210,519,-2.14398,-4.74774,0,0,0,0,0,0,0,-1,1014,505,-2.14397,4.74775
-203,519,-0.513611,-5.39017,0,0,0,0,0,0,0,-1,1021,505,-0.513585,5.39017
-196,519,-0.374023,-5.41635,0,0,0,0,0,0,0,-1,1028,505,-0.374047,5.41635
-189,519,-0.234497,-5.44254,0,0,0,0,0,0,0,-1,1035,505,-0.234508,5.44253
-182,519,2.76697,-1.19659,0,0,0,0,0,0,0,-1,1042,505,2.76696,1.19661
-175,519,2.31323,-0.960938,0,0,0,0,0,0,0,-1,1049,505,2.31319,0.960941
-168,519,2.07849,-0.696259,0,0,0,0,0,0,0,-1,1056,505,2.07853,0.696256
-161,519,2.32056,-0.522339,0,0,0,0,0,0,0,-1,1063,505,2.32057,0.522328
-154,519,2.55566,0.116669,0,0,0,0,0,0,0,-1,1070,505,2.55563,-0.116661
-147,519,1.20239,-3.77567,0,0,0,0,0,0,0,-1,1077,505,1.20242,3.77568
-140,519,2.0553,-3.98102,0,0,0,0,0,0,0,-1,1084,505,2.05531,3.98103
-133,519,2.70911,-4.4516,0,0,0,0,0,0,0,-1,1091,505,2.70915,4.45161
-126,519,0,0,0,0,0,0,0,0,0,-1,1098,505,0,0
-119,519,0,0,0,0,0,0,0,0,0,-1,1105,505,0,0
-112,519,0,0,0,0,0,0,0,0,0,-1,1112,505,0,0
-105,519,0,0,0,0,0,0,0,0,0,-1,1119,505,0,0
-98,519,0,0,0,0,0,0,0,0,0,-1,1126,505,0,0
-91,519,0,0,0,0,0,0,0,0,0,-1,1133,505,0,0
-84,519,0,0,0,0,0,0,0,0,0,-1,1140,505,0,0
-77,519,0,0,0,0,0,0,0,0,0,-1,1147,505,0,0
-70,519,0,0,0,0,0,0,0,0,0,-1,1154,505,0,0
-63,519,0,0,0,0,0,0,0,0,0,-1,1161,505,0,0
-56,519,0,0,0,0,0,0,0,0,0,-1,1168,505,0,0
-49,519,0,0,0,0,0,0,0,0,0,-1,1175,505,0,0
-42,519,0,0,0,0,0,0,0,0,0,-1,1182,505,0,0
-35,519,0,0,0,0,0,0,0,0,0,-1,1189,505,0,0
-28,519,0,0,0,0,0,0,0,0,0,-1,1196,505,0,0
-21,519,0,0,0,0,0,0,0,0,0,-1,1203,505,0,0
-14,519,0,0,0,0,0,0,0,0,0,-1,1210,505,0,0
-7,519,0,0,0,0,0,0,0,0,0,-1,1217,505,0,0
0,519,0,0,0,0,0,0,0,0,0,-1,1224,505,0,0
7,519,0,0,0,0,0,0,0,0,0,-1,1231,505,0,0
14,519,0,0,0,0,0,0,0,0,0,-1,1238,505,0,0
21,519,0,0,0,0,0,0,0,0,0,-1,1245,505,0,0
28,519,0,0,0,0,0,0,0,0,0,-1,1252,505,0,0
35,519,0,0,0,0,0,0,0,0,0,-1,1259,505,0,0
42,519,0,0,0,0,0,0,0,0,0,-1,1266,505,0,0
49,519,0,0,0,0,0,0,0,0,0,-1,1273,505,0,0
56,519,0,0,0,0,0,0,0,0,0,-1,1280,505,0,0
63,519,0,0,0,0,0,0,0,0,0,-1,1287,505,0,0
70,519,0,0,0,0,0,0,0,0,0,-1,1294,505,0,0
77,519,0,0,0,0,0,0,0,0,0,-1,1301,505,0,0
84,519,0,0,0,0,0,0,0,0,0,-1,1308,505,0,0
91,519,0,0,0,0,0,0,0,0,0,-1,1315,505,0,0
98,519,0,0,0,0,0,0,0,0,0,-1,1322,505,0,0
105,519,0,0,0,0,0,0,0,0,0,-1,1329,505,0,0
112,519,0,0,0,0,0,0,0,0,0,-1,1336,505,0,0
119,519,0,0,0,0,0,0,0,0,0,-1,1343,505,0,0
126,519,0,0,0,0,0,0,0,0,0,-1,1350,505,0,0
133,519,0,0,0,0,0,0,0,0,0,-1,1357,505,0,0
140,519,0,0,0,0,0,0,0,0,0,-1,1364,505,0,0
147,519,0,0,0,0,0,0,0,0,0,-1,1371,505,0,0
154,519,0,0,0,0,0,0,0,0,0,-1,1378,505,0,0
161,519,0,0,0,0,0,0,0,0,0,-1,1385,505,0,0
168,519,0,0,0,0,0,0,0,0,0,-1,1392,505,0,0
175,519,0,0,0,0,0,0,0,0,0,-1,1399,505,0,0
182,519,0,0,0,0,0,0,0,0,0,-1,1406,505,0,0
189,519,0,0,0,0,0,0,0,0,0,-1,1413,505,0,0
196,519,0,0,0,0,0,0,0,0,0,-1,1420,505,0,0
203,519,0,0,0,0,0,0,0,0,0,-1,1427,505,0,0
210,519,0,0,0,0,0,0,0,0,0,-1,1434,505,0,0
217,519,0,0,0,0,0,0,0,0,0,-1,1441,505,0,0
224,519,0,0,0,0,0,0,0,0,0,-1,1448,505,0,0
231,519,0,0,0,0,0,0,0,0,0,-1,1455,505,0,0
238,519,0,0,0,0,0,0,0,0,0,-1,1462,505,0,0
245,519,0,0,0,0,0,0,0,0,0,-1,1469,505,0,0
252,519,5.26208,0.0938416,0,0,0,0,0,0,0,-1,1476,505,5.26207,-0.0938493
259,519,6.14246,-1.36441,0,0,0,0,0,0,0,-1,1483,505,6.14241,1.36441
266,519,5.31909,-0.400787,0,0,0,0,0,0,0,-1,1490,505,5.31912,0.400773
273,519,4.02393,0.325531,0,0,0,0,0,0,0,-1,1497,505,4.0239,-0.325522
280,519,4.68848,0.53006,0,0,0,0,0,0,0,-1,1504,505,4.68842,-0.530073
287,519,7.9519,-3.80801,0,0,0,0,0,0,0,-1,1511,505,7.95193,3.808
294,519,6.92273,-3.38889,0,0,0,0,0,0,0,-1,1518,505,6.92268,3.38888
301,519,5.35669,-2.92661,0,0,0,0,0,0,0,-1,1525,505,5.35675,2.9266
308,519,7.37549,-5.64529,0,0,0,0,0,0,0,-1,1532,505,7.3755,5.64529
315,519,6.30029,-4.53754,0,0,0,0,0,0,0,-1,1539,505,6.30024,4.53753
322,519,5.84302,-5.45117,0,0,0,0,0,0,0,-1,1546,505,5.84303,5.45116
329,519,4.92407,0.62384,0,0,0,0,0,0,0,-1,1553,505,4.92403,-0.623832
336,519,3.10095,-0.329285,0,0,0,0,0,0,0,-1,1560,505,3.1009,0.329283
343,519,2.49146,-2.31119,0,0,0,0,0,0,0,-1,1567,505,2.49145,2.31119
350,519,3.47729,-2.22516,0,0,0,0,0,0,0,-1,1574,505,3.47726,2.22515
357,519,4.51917,-4.51691,0,0,0,0,0,0,0,-1,1581,505,4.51914,4.51691
364,519,3.54626,-7.20673,0,0,0,0,0,0,0,-1,1588,505,3.54622,7.20675
371,519,3.375,-6.58112,0,0,0,0,0,0,0,-1,1595,505,3.37497,6.58111
378,519,3.20374,-5.95547,0,0,0,0,0,0,0,-1,1602,505,3.20372,5.95548
385,519,4.06165,-6.35373,0,0,0,0,0,0,0,-1,1609,505,4.06159,6.35374
392,519,4.24658,-5.64902,-0.00333578,-0.0114407,-0.00980045,0.00321701,-0.0179935,-0.589355,0.0131993,0.0394135,1616,505,4.24661,5.649
399,519,4.15784,-5.60596,-0.00269176,-0.00901514,-0.0081666,0.00290381,-0.0146107,-0.600709,0.0108389,0.0278173,1623,505,4.15782,5.60594
406,519,4.14185,-5.50269,-0.0021607,-0.00676096,-0.00673131,0.00265262,-0.0115743,-0.620765,0.00873569,0.0174777,1630,505,4.14187,5.50269
413,519,4.15308,-5.33865,-0.00160239,-0.00480228,-0.00534719,0.00237908,-0.00878375,-0.640031,0.00678926,0.0135107,1637,505,4.15307,5.33865
420,519,4.1554,-5.15872,-0.00131029,-0.00341857,-0.00426856,0.00203236,-0.00676122,-0.664343,0.00531605,0.0155215,1644,505,4.15539,5.15873
427,519,4.17346,-5.00888,-0.00115144,-0.00234705,-0.00335512,0.00165872,-0.00515721,-0.697235,0.00410433,0.0145913,1651,505,4.17348,5.00887
434,519,4.15051,-4.82913,-0.000920337,-0.00148236,-0.00256002,0.00137405,-0.00377674,-0.730733,0.00307977,0.0131102,1658,505,4.15054,4.82914
441,519,4.13733,-4.65045,-0.000619236,-0.000986483,-0.00186693,0.00107308,-0.0026788,-0.736378,0.00223129,0.0118374,1665,505,4.13736,4.65044
448,519,4.14661,-4.48514,-0.000320203,-0.00026034,-0.00118551,0.000895617,-0.00147616,-0.798019,0.00138295,0.00902102,1672,505,4.14655,4.48513
455,519,4.13062,-4.32672,-8.79214e-08,0.000119884,-0.000655821,0.000718457,-0.000598661,-0.831005,0.000761486,0.0100153,1679,505,4.13059,4.32673
462,519,4.14233,-4.15991,9.62649e-05,0.000164082,-0.000538813,0.000670053,-0.000409706,-0.816823,0.00062941,0.00951234,1686,505,4.14235,4.15992
469,519,4.15857,-3.96671,8.88339e-05,-0.00010315,-0.000603908,0.000604331,-0.000618647,-0.706582,0.000706103,0.0100616,1693,505,4.15853,3.96672
476,519,4.16321,-3.77142,-0.000263195,-0.000517338,-0.00087368,0.000492606,-0.00127314,-0.713183,0.00105213,0.0128448,1700,505,4.16319,3.77142
483,519,4.17407,-3.58606,-0.000917332,-0.000814448,-0.00141662,0.000551659,-0.00228344,-0.803547,0.00173565,0.0139859,1707,505,4.17413,3.58607
490,519,4.172,-3.38229,-0.00208228,-0.00128605,-0.00203489,0.000389304,-0.00375764,-0.882,0.00264443,0.0120418,1714,505,4.17194,3.3823
497,519,4.16699,-3.23056,-0.00418138,-0.00119987,-0.00259933,0.000305846,-0.0056871,-1.04576,0.00389735,0.0130377,1721,505,4.16698,3.23056
504,519,4.14917,-3.03577,-0.00690178,-0.000574106,-0.0032849,0.000822806,-0.00829869,-1.16871,0.00582613,0.0123034,1728,505,4.14915,3.03577
511,519,4.16382,-2.86966,-0.0101777,-5.7649e-05,-0.00405257,0.00136516,-0.0116005,-1.23315,0.00822659,0.0181282,1735,505,4.1638,2.86965
518,519,4.09912,-2.91296,-0.0140933,0.00132547,-0.00436896,0.00247738,-0.0152452,-1.31301,0.0110819,0.0397191,1742,505,4.09912,2.91295
525,519,4.11023,-2.88614,0,0,0,0,0,0,0,-1,1749,505,4.11023,2.88613
532,519,3.5155,-2.86511,0,0,0,0,0,0,0,-1,1756,505,3.51554,2.8651
539,519,3.30005,0.0229797,0,0,0,0,0,0,0,-1,1763,505,3.30008,-0.0229869
546,519,4.62024,-2.89774,0,0,0,0,0,0,0,-1,1770,505,4.62023,2.89775
553,519,4.14136,0.0667419,0,0,0,0,0,0,0,-1,1777,505,4.14141,-0.0667503
560,519,3.77856,0.279724,0,0,0,0,0,0,0,-1,1784,505,3.77861,-0.279731
567,519,0,0,0,0,0,0,0,0,0,-1,1791,505,0,0
574,519,0,0,0,0,0,0,0,0,0,-1,1798,505,0,0
581,519,0,0,0,0,0,0,0,0,0,-1,1805,505,0,0
588,519,0,0,0,0,0,0,0,0,0,-1,1812,505,0,0
595,519,0,0,0,0,0,0,0,0,0,-1,1819,505,0,0
602,519,0,0,0,0,0,0,0,0,0,-1,1826,505,0,0
609,519,0,0,0,0,0,0,0,0,0,-1,1833,505,0,0
616,519,0,0,0,0,0,0,0,0,0,-1,1840,505,0,0
623,519,0,0,0,0,0,0,0,0,0,-1,1847,505,0,0
630,519,0,0,0,0,0,0,0,0,0,-1,1854,505,0,0
637,519,0,0,0,0,0,0,0,0,0,-1,1861,505,0,0
644,519,0,0,0,0,0,0,0,0,0,-1,1868,505,0,0
651,519,0,0,0,0,0,0,0,0,0,-1,1875,505,0,0
658,519,0,0,0,0,0,0,0,0,0,-1,1882,505,0,0
665,519,0,0,0,0,0,0,0,0,0,-1,1889,505,0,0
672,519,0,0,0,0,0,0,0,0,0,-1,1896,505,0,0
679,519,0,0,0,0,0,0,0,0,0,-1,1903,505,0,0
686,519,0,0,0,0,0,0,0,0,0,-1,1910,505,0,0
693,519,0,0,0,0,0,0,0,0,0,-1,1917,505,0,0
700,519,0,0,0,0,0,0,0,0,0,-1,1924,505,0,0
707,519,0,0,0,0,0,0,0,0,0,-1,1931,505,0,0
714,519,0,0,0,0,0,0,0,0,0,-1,1938,505,0,0
721,519,0,0,0,0,0,0,0,0,0,-1,1945,505,0,0
728,519,0,0,0,0,0,0,0,0,0,-1,1952,505,0,0
735,519,0,0,0,0,0,0,0,0,0,-1,1959,505,0,0
742,519,0,0,0,0,0,0,0,0,0,-1,1966,505,0,0
749,519,0,0,0,0,0,0,0,0,0,-1,1973,505,0,0
756,519,0,0,0,0,0,0,0,0,0,-1,1980,505,0,0
763,519,0,0,0,0,0,0,0,0,0,-1,1987,505,0,0
770,519,0,0,0,0,0,0,0,0,0,-1,1994,505,0,0
777,519,0,0,0,0,0,0,0,0,0,-1,2001,505,0,0
784,519,0,0,0,0,0,0,0,0,0,-1,2008,505,0,0
791,519,0,0,0,0,0,0,0,0,0,-1,2015,505,0,0
798,519,0,0,0,0,0,0,0,0,0,-1,2022,505,0,0
805,519,0,0,0,0,0,0,0,0,0,-1,2029,505,0,0
812,519,0,0,0,0,0,0,0,0,0,-1,2036,505,0,0
-700,512,0,0,0,0,0,0,0,0,0,-1,524,512,0,0
-693,512,0,0,0,0,0,0,0,0,0,-1,531,512,0,0
-686,512,0,0,0,0,0,0,0,0,0,-1,538,512,0,0
-679,512,0,0,0,0,0,0,0,0,0,-1,545,512,0,0
-672,512,0,0,0,0,0,0,0,0,0,-1,552,512,0,0
-665,512,0,0,0,0,0,0,0,0,0,-1,559,512,0,0
-658,512,0,0,0,0,0,0,0,0,0,-1,566,512,0,0
-651,512,0,0,0,0,0,0,0,0,0,-1,573,512,0,0
-644,512,0,0,0,0,0,0,0,0,0,-1,580,512,0,0
-637,512,0,0,0,0,0,0,0,0,0,-1,587,512,0,0
-630,512,0,0,0,0,0,0,0,0,0,-1,594,512,0,0
-623,512,0,0,0,0,0,0,0,0,0,-1,601,512,0,0
-616,512,0,0,0,0,0,0,0,0,0,-1,608,512,0,0
-609,512,0,0,0,0,0,0,0,0,0,-1,615,512,0,0
-602,512,0,0,0,0,0,0,0,0,0,-1,622,512,0,0
-595,512,0,0,0,0,0,0,0,0,0,-1,629,512,0,0
-588,512,0,0,0,0,0,0,0,0,0,-1,636,512,0,0
-581,512,0,0,0,0,0,0,0,0,0,-1,643,512,0,0
-574,512,0,0,0,0,0,0,0,0,0,-1,650,512,0,0
-567,512,0,0,0,0,0,0,0,0,0,-1,657,512,0,0
-560,512,0,0,0,0,0,0,0,0,0,-1,664,512,0,0
-553,512,0,0,0,0,0,0,0,0,0,-1,671,512,0,0
-546,512,0,0,0,0,0,0,0,0,0,-1,678,512,0,0
-539,512,0,0,0,0,0,0,0,0,0,-1,685,512,0,0
-532,512,0,0,0,0,0,0,0,0,0,-1,692,512,0,0
-525,512,0,0,0,0,0,0,0,0,0,-1,699,512,0,0
-518,512,0,0,0,0,0,0,0,0,0,-1,706,512,0,0
-511,512,0,0,0,0,0,0,0,0,0,-1,713,512,0,0
-504,512,0,0,0,0,0,0,0,0,0,-1,720,512,0,0
-497,512,0,0,0,0,0,0,0,0,0,-1,727,512,0,0
-490,512,0,0,0,0,0,0,0,0,0,-1,734,512,0,0
-483,512,0,0,0,0,0,0,0,0,0,-1,741,512,0,0
-476,512,0,0,0,0,0,0,0,0,0,-1,748,512,0,0
-469,512,0,0,0,0,0,0,0,0,0,-1,755,512,0,0
-462,512,0,0,0,0,0,0,0,0,0,-1,762,512,0,0
-455,512,0,0,0,0,0,0,0,0,0,-1,769,512,0,0
-448,512,-2.04749,3.66714,0,0,0,0,0,0,0,-1,776,512,-2.04746,-3.66714
-441,512,2.80768,-3.99408,0,0,0,0,0,0,0,-1,783,512,2.80769,3.99407
-434,512,1.40381,-2.05713,0,0,0,0,0,0,0,-1,790,512,1.40383,2.0571
-427,512,1.30121,-2.61523,-0.00586305,0.0423426,-0.00817651,0.0436917,-0.00721217,-1.40727,0.0318056,0.0479839,797,512,1.30122,2.61525
-420,512,0.928406,-3.02148,-0.00899012,0.0275601,-0.00543035,0.0283499,-0.00977985,-1.42638,0.0228679,0.0474213,804,512,0.928426,3.02149
-413,512,0.525269,-3.43384,-0.0101206,0.0164853,-0.00418236,0.0171273,-0.0107625,-1.41849,0.0162414,0.0438292,811,512,0.525277,3.43383
-406,512,0.351563,-3.63971,-0.0101924,0.00848489,-0.00357002,0.00914401,-0.0108515,-1.38823,0.0115585,0.0446904,818,512,0.351547,3.6397
-399,512,0.254883,-3.79712,-0.00946898,0.00273259,-0.00350033,0.00366543,-0.0104018,-1.31035,0.00842643,0.0433469,825,512,0.254865,3.79715
-392,512,0.125916,-3.97198,-0.00824772,-0.00109133,-0.00351859,0.000348834,-0.00968789,-1.1823,0.00657796,0.0350035,832,512,0.125891,3.97199
-385,512,0.0578003,-4.14783,-0.00733101,-0.00411673,-0.00311254,-0.0022209,-0.00922684,-1.02372,0.00556078,0.017873,839,512,0.0578129,4.14783
-378,512,0.039978,-4.30878,-0.00616512,-0.00573114,-0.00296712,-0.00297309,-0.00892317,-0.821899,0.0052465,0.0133229,846,512,0.0399893,4.30878
-371,512,0.0187378,-4.48291,-0.00450035,-0.00605356,-0.00316362,-0.0020194,-0.0085345,-0.665038,0.00515024,0.0111278,853,512,0.0187672,4.48294
-364,512,-6.10352e-05,-4.67944,-0.00315404,-0.00556637,-0.00308516,-0.00104764,-0.00767277,-0.599055,0.00480419,0.0092312,860,512,-5.41415e-05,4.67944
-357,512,0.00134277,-4.84277,-0.00227741,-0.00481372,-0.00287951,-0.00039917,-0.00669196,-0.577974,0.00433438,0.00988122,867,512,0.001359,4.84277
-350,512,0.00598145,-5.00824,-0.00166964,-0.00382794,-0.0025013,-2.46298e-05,-0.00547295,-0.581743,0.00364045,0.0101698,874,512,0.00598182,5.00827
-343,512,-0.00646973,-5.15881,-0.00121146,-0.00257794,-0.00193767,0.000159897,-0.0039493,-0.615899,0.00268775,0.0105881,881,512,-0.00648198,5.1588
-336,512,-0.0170898,-5.31085,-0.000719472,-0.00138335,-0.00134826,0.000337113,-0.00243993,-0.664701,0.00174985,0.0110285,888,512,-0.0170865,5.31085
-329,512,-0.0180054,-5.46936,-0.000405535,-0.000480717,-0.000893227,0.000450892,-0.00133714,-0.764368,0.00107376,0.0120366,895,512,-0.0179864,5.46937
-322,512,-0.019104,-5.64026,-0.00036437,0.00029253,-0.000456656,0.000526587,-0.000598427,-1.09716,0.000649968,0.0101173,902,512,-0.0191113,5.64029
-315,512,-0.00360107,-5.81396,-0.00018048,0.000729334,-0.00016405,0.00075801,-0.000209156,-1.39774,0.000587601,0.00985591,909,512,-0.00357848,5.81395
-308,512,-0.0167847,-5.9632,0.000182244,0.000771559,1.17239e-05,0.000771792,0.000182011,1.55091,0.000465864,0.0103309,916,512,-0.0167618,5.96322
-301,512,-0.0153809,-6.08423,0.000477635,0.000825395,0.000167208,0.000892747,0.000410283,1.18788,0.000515989,0.0145982,923,512,-0.0153575,6.08421
-294,512,-0.00653076,-6.20441,0.000784891,0.000886996,0.000267049,0.00110783,0.000564058,0.879844,0.000639641,0.0136332,930,512,-0.00655073,6.20439
-287,512,-0.0701904,-6.32227,0.00120167,0.00109938,0.000349598,0.00150384,0.000797202,0.712765,0.000868767,0.0179966,937,512,-0.0701757,6.32225
-280,512,0.0109253,-6.56488,0.00145465,0.00158621,0.00026003,0.00178865,0.00125221,0.909282,0.00105988,0.0233373,944,512,0.0109095,6.56487
-273,512,0.0496216,-6.64233,0.00145305,0.00245321,-9.3678e-06,0.00245329,0.00145296,-1.56143,0.00142442,0.040404,951,512,0.0496325,6.64231
-266,512,-0.0529785,-6.83356,0.0019978,0.0042271,-0.000498633,0.00433355,0.00189136,-1.36047,0.0025087,0.0441376,958,512,-0.0529699,6.83358
-259,512,-0.241272,-7.16272,0,0,0,0,0,0,0,-1,965,512,-0.241301,7.16269
-252,512,1.45941,-3.43475,0,0,0,0,0,0,0,-1,972,512,1.45938,3.43475
-245,512,4.12927,-11.272,0,0,0,0,0,0,0,-1,979,512,4.1293,11.272
-238,512,0.157227,-7.62604,0,0,0,0,0,0,0,-1,986,512,0.15725,7.62602
-231,512,-2.54437,-10.169,0,0,0,0,0,0,0,-1,993,512,-2.54439,10.169
-224,512,-4.84601,-7.52783,0,0,0,0,0,0,0,-1,1000,512,-4.84602,7.52786
-217,512,-7.37274,-3.89563,0,0,0,0,0,0,0,-1,1007,512,-7.37274,3.89561
-210,512,-3.76642,-1.94702,0,0,0,0,0,0,0,-1,1014,512,-3.76641,1.94702
-203,512,-2.48328,-5.19061,0,0,0,0,0,0,0,-1,1021,512,-2.48328,5.19059
-196,512,-1.14929,-4.63202,0,0,0,0,0,0,0,-1,1028,512,-1.14934,4.632
-189,512,0.197998,4.55505,0,0,0,0,0,0,0,-1,1035,512,0.197996,-4.55506
-182,512,2.73938,0.0778503,0,0,0,0,0,0,0,-1,1042,512,2.73944,-0.077852
-175,512,2.29565,0.209808,0,0,0,0,0,0,0,-1,1049,512,2.29565,-0.209813
-168,512,2.09399,-0.302856,0,0,0,0,0,0,0,-1,1056,512,2.09403,0.302826
-161,512,2.76636,0.0921021,0,0,0,0,0,0,0,-1,1063,512,2.76633,-0.0921104
-154,512,3.41382,0.466187,0,0,0,0,0,0,0,-1,1070,512,3.41382,-0.466178
-147,512,0,0,0,0,0,0,0,0,0,-1,1077,512,0,0
-140,512,0,0,0,0,0,0,0,0,0,-1,1084,512,0,0
-133,512,0,0,0,0,0,0,0,0,0,-1,1091,512,0,0
-126,512,0,0,0,0,0,0,0,0,0,-1,1098,512,0,0
-119,512,0,0,0,0,0,0,0,0,0,-1,1105,512,0,0
-112,512,0,0,0,0,0,0,0,0,0,-1,1112,512,0,0
-105,512,0,0,0,0,0,0,0,0,0,-1,1119,512,0,0
-98,512,0,0,0,0,0,0,0,0,0,-1,1126,512,0,0
-91,512,0,0,0,0,0,0,0,0,0,-1,1133,512,0,0
-84,512,0,0,0,0,0,0,0,0,0,-1,1140,512,0,0
-77,512,0,0,0,0,0,0,0,0,0,-1,1147,512,0,0
-70,512,0,0,0,0,0,0,0,0,0,-1,1154,512,0,0
-63,512,0,0,0,0,0,0,0,0,0,-1,1161,512,0,0
-56,512,0,0,0,0,0,0,0,0,0,-1,1168,512,0,0
-49,512,0,0,0,0,0,0,0,0,0,-1,1175,512,0,0
-42,512,0,0,0,0,0,0,0,0,0,-1,1182,512,0,0
-35,512,0,0,0,0,0,0,0,0,0,-1,1189,512,0,0
-28,512,0,0,0,0,0,0,0,0,0,-1,1196,512,0,0
-21,512,0,0,0,0,0,0,0,0,0,-1,1203,512,0,0
-14,512,0,0,0,0,0,0,0,0,0,-1,1210,512,0,0
-7,512,0,0,0,0,0,0,0,0,0,-1,1217,512,0,0
0,512,0,0,0,0,0,0,0,0,0,-1,1224,512,0,0
7,512,0,0,0,0,0,0,0,0,0,-1,1231,512,0,0
14,512,0,0,0,0,0,0,0,0,0,-1,1238,512,0,0
21,512,0,0,0,0,0,0,0,0,0,-1,1245,512,0,0
28,512,0,0,0,0,0,0,0,0,0,-1,1252,512,0,0
35,512,0,0,0,0,0,0,0,0,0,-1,1259,512,0,0
42,512,0,0,0,0,0,0,0,0,0,-1,1266,512,0,0
49,512,0,0,0,0,0,0,0,0,0,-1,1273,512,0,0
56,512,0,0,0,0,0,0,0,0,0,-1,1280,512,0,0
63,512,0,0,0,0,0,0,0,0,0,-1,1287,512,0,0
70,512,0,0,0,0,0,0,0,0,0,-1,1294,512,0,0
77,512,0,0,0,0,0,0,0,0,0,-1,1301,512,0,0
84,512,0,0,0,0,0,0,0,0,0,-1,1308,512,0,0
91,512,0,0,0,0,0,0,0,0,0,-1,1315,512,0,0
98,512,0,0,0,0,0,0,0,0,0,-1,1322,512,0,0
105,512,0,0,0,0,0,0,0,0,0,-1,1329,512,0,0
112,512,0,0,0,0,0,0,0,0,0,-1,1336,512,0,0
119,512,0,0,0,0,0,0,0,0,0,-1,1343,512,0,0
126,512,0,0,0,0,0,0,0,0,0,-1,1350,512,0,0
133,512,0,0,0,0,0,0,0,0,0,-1,1357,512,0,0
140,512,0,0,0,0,0,0,0,0,0,-1,1364,512,0,0
147,512,0,0,0,0,0,0,0,0,0,-1,1371,512,0,0
154,512,0,0,0,0,0,0,0,0,0,-1,1378,512,0,0
161,512,0,0,0,0,0,0,0,0,0,-1,1385,512,0,0
168,512,0,0,0,0,0,0,0,0,0,-1,1392,512,0,0
175,512,0,0,0,0,0,0,0,0,0,-1,1399,512,0,0
182,512,0,0,0,0,0,0,0,0,0,-1,1406,512,0,0
189,512,0,0,0,0,0,0,0,0,0,-1,1413,512,0,0
196,512,0,0,0,0,0,0,0,0,0,-1,1420,512,0,0
203,512,0,0,0,0,0,0,0,0,0,-1,1427,512,0,0
210,512,0,0,0,0,0,0,0,0,0,-1,1434,512,0,0
217,512,0,0,0,0,0,0,0,0,0,-1,1441,512,0,0
224,512,0,0,0,0,0,0,0,0,0,-1,1448,512,0,0
231,512,0,0,0,0,0,0,0,0,0,-1,1455,512,0,0
238,512,0,0,0,0,0,0,0,0,0,-1,1462,512,0,0
245,512,0,0,0,0,0,0,0,0,0,-1,1469,512,0,0
252,512,0,0,0,0,0,0,0,0,0,-1,1476,512,0,0
259,512,0,0,0,0,0,0,0,0,0,-1,1483,512,0,0
266,512,0,0,0,0,0,0,0,0,0,-1,1490,512,0,0
273,512,4.00745,0.618622,0,0,0,0,0,0,0,-1,1497,512,4.00747,-0.618611
280,512,4.49609,0.649841,0,0,0,0,0,0,0,-1,1504,512,4.49612,-0.649834
287,512,4.77234,0.458069,0,0,0,0,0,0,0,-1,1511,512,4.77233,-0.458083
294,512,8.54956,-2.36273,0,0,0,0,0,0,0,-1,1518,512,8.54952,2.36274
301,512,6.302,-1.69092,0,0,0,0,0,0,0,-1,1525,512,6.30196,1.69093
308,512,8.2439,-6.22754,0,0,0,0,0,0,0,-1,1532,512,8.24394,6.22757
315,512,7.53687,-6.04211,0,0,0,0,0,0,0,-1,1539,512,7.53691,6.04211
322,512,6.82983,-5.85663,0,0,0,0,0,0,0,-1,1546,512,6.82988,5.85666
329,512,4.38147,-0.329651,0,0,0,0,0,0,0,-1,1553,512,4.38144,0.329662
336,512,4.41467,-0.741455,0,0,0,0,0,0,0,-1,1560,512,4.41467,0.741442
343,512,4.44727,-1.21667,0,0,0,0,0,0,0,-1,1567,512,4.44732,1.21666
350,512,4.55469,-1.65082,0,0,0,0,0,0,0,-1,1574,512,4.5547,1.65083
357,512,5.79993,-2.67456,0,0,0,0,0,0,0,-1,1581,512,5.79991,2.67454
364,512,5.18298,-6.80133,0,0,0,0,0,0,0,-1,1588,512,5.18296,6.80132
371,512,3.0448,-6.77563,0,0,0,0,0,0,0,-1,1595,512,3.04475,6.77563
378,512,4.78015,-5.58118,0,0,0,0,0,0,0,-1,1602,512,4.78018,5.58116
385,512,4.24597,-5.28308,0,0,0,0,0,0,0,-1,1609,512,4.24602,5.28309
392,512,4.37256,-5.20874,-0.00437459,-0.0157653,-0.0133502,0.00444435,-0.0245842,-0.58378,0.0180542,0.0492137,1616,512,4.37255,5.20873
399,512,4.495,-5.27765,-0.00360385,-0.0123027,-0.0110827,0.00395234,-0.0198588,-0.598408,0.0147344,0.0435721,1623,512,4.49496,5.27766
406,512,4.39575,-5.4007,-0.00298317,-0.00914705,-0.0091302,0.00357122,-0.0157014,-0.622626,0.011839,0.0302156,1630,512,4.39571,5.4007
413,512,4.29932,-5.3606,-0.00228744,-0.00647839,-0.00725933,0.00317281,-0.0119386,-0.644888,0.00920089,0.0244277,1637,512,4.29935,5.36058
420,512,4.34082,-5.17432,-0.00199525,-0.0045266,-0.00580874,0.0026841,-0.00920595,-0.678129,0.00720073,0.0161848,1644,512,4.34088,5.17434
427,512,4.33838,-5.0188,-0.00186121,-0.0030615,-0.00458903,0.00216675,-0.00708946,-0.720378,0.00559032,0.0140355,1651,512,4.33834,5.01879
434,512,4.31348,-4.85498,-0.00154161,-0.00184287,-0.00348279,0.0017938,-0.00517828,-0.763787,0.00418044,0.0111086,1658,512,4.31348,4.85499
441,512,4.30884,-4.66595,-0.00115789,-0.0011149,-0.00256939,0.00143308,-0.00370587,-0.789581,0.00306217,0.0125045,1665,512,4.30879,4.66595
448,512,4.30078,-4.48572,-0.000743917,-0.000196007,-0.00170464,0.00125655,-0.00219647,-0.865073,0.00201807,0.00859129,1672,512,4.3008,4.48569
455,512,4.29651,-4.3103,-0.000280618,0.000252195,-0.000983244,0.00100448,-0.00103291,-0.917695,0.00117633,0.00832235,1679,512,4.29655,4.31029
462,512,4.3125,-4.13916,3.74922e-05,0.000383891,-0.000608806,0.000843655,-0.000422272,-0.923982,0.000744258,0.00863679,1686,512,4.31247,4.13917
469,512,4.31494,-3.95575,0.00019805,0.000153917,-0.000488024,0.000664506,-0.000312539,-0.762806,0.000576168,0.0105618,1693,512,4.31491,3.95576
476,512,4.31677,-3.77234,2.59455e-05,-0.000238844,-0.000606238,0.000514077,-0.000726975,-0.677892,0.000720027,0.0139746,1700,512,4.31676,3.77232
483,512,4.32678,-3.57074,-0.00042536,-0.000507671,-0.000982317,0.000516663,-0.00144969,-0.764462,0.00117711,0.0130114,1707,512,4.3268,3.57074
490,512,4.33655,-3.38983,-0.0013411,-0.000921544,-0.00139461,0.000278971,-0.00254162,-0.86005,0.00179465,0.0108379,1714,512,4.33659,3.38983
497,512,4.33118,-3.2124,-0.00314472,-0.000752315,-0.00173618,0.000159855,-0.00405689,-1.08705,0.00275942,0.011628,1721,512,4.33121,3.21242
504,512,4.30969,-3.01593,-0.00548097,3.98414e-05,-0.00214065,0.000772605,-0.00621373,-1.24099,0.00442258,0.0111262,1728,512,4.30964,3.01594
511,512,4.30627,-2.81885,-0.00821474,0.000741073,-0.0025656,0.00142397,-0.00889764,-1.31065,0.00645895,0.0119962,1735,512,4.3063,2.81887
518,512,4.34485,-2.67206,-0.0113997,0.00230156,-0.00252519,0.00275214,-0.0118503,-1.39422,0.0089596,0.0195945,1742,512,4.34489,2.67207
525,512,4.28564,-2.6748,-0.0157095,0.00487212,-0.00222984,0.00511093,-0.0159483,-1.4641,0.0126839,0.0452429,1749,512,4.28559,2.67478
532,512,4.4801,-2.46515,0,0,0,0,0,0,0,-1,1756,512,4.48008,2.46515
539,512,4.39929,-3.11737,0,0,0,0,0,0,0,-1,1763,512,4.3993,3.11735
546,512,2.77551,-0.66449,0,0,0,0,0,0,0,-1,1770,512,2.77548,0.664503
553,512,3.927,-0.448853,0,0,0,0,0,0,0,-1,1777,512,3.92704,0.448843
560,512,3.55762,-0.201233,0,0,0,0,0,0,0,-1,1784,512,3.55768,0.201259
567,512,3.09045,0.191193,0,0,0,0,0,0,0,-1,1791,512,3.09045,-0.191203
574,512,0,0,0,0,0,0,0,0,0,-1,1798,512,0,0
581,512,0,0,0,0,0,0,0,0,0,-1,1805,512,0,0
588,512,0,0,0,0,0,0,0,0,0,-1,1812,512,0,0
595,512,0,0,0,0,0,0,0,0,0,-1,1819,512,0,0
602,512,0,0,0,0,0,0,0,0,0,-1,1826,512,0,0
609,512,0,0,0,0,0,0,0,0,0,-1,1833,512,0,0
616,512,0,0,0,0,0,0,0,0,0,-1,1840,512,0,0
623,512,0,0,0,0,0,0,0,0,0,-1,1847,512,0,0
630,512,0,0,0,0,0,0,0,0,0,-1,1854,512,0,0
637,512,0,0,0,0,0,0,0,0,0,-1,1861,512,0,0
644,512,0,0,0,0,0,0,0,0,0,-1,1868,512,0,0
651,512,0,0,0,0,0,0,0,0,0,-1,1875,512,0,0
658,512,0,0,0,0,0,0,0,0,0,-1,1882,512,0,0
665,512,0,0,0,0,0,0,0,0,0,-1,1889,512,0,0
672,512,0,0,0,0,0,0,0,0,0,-1,1896,512,0,0
679,512,0,0,0,0,0,0,0,0,0,-1,1903,512,0,0
686,512,0,0,0,0,0,0,0,0,0,-1,1910,512,0,0
693,512,0,0,0,0,0,0,0,0,0,-1,1917,512,0,0
700,512,0,0,0,0,0,0,0,0,0,-1,1924,512,0,0
707,512,0,0,0,0,0,0,0,0,0,-1,1931,512,0,0
714,512,0,0,0,0,0,0,0,0,0,-1,1938,512,0,0
721,512,0,0,0,0,0,0,0,0,0,-1,1945,512,0,0
728,512,0,0,0,0,0,0,0,0,0,-1,1952,512,0,0
735,512,0,0,0,0,0,0,0,0,0,-1,1959,512,0,0
742,512,0,0,0,0,0,0,0,0,0,-1,1966,512,0,0
749,512,0,0,0,0,0,0,0,0,0,-1,1973,512,0,0
756,512,0,0,0,0,0,0,0,0,0,-1,1980,512,0,0
763,512,0,0,0,0,0,0,0,0,0,-1,1987,512,0,0
770,512,0,0,0,0,0,0,0,0,0,-1,1994,512,0,0
777,512,0,0,0,0,0,0,0,0,0,-1,2001,512,0,0
784,512,0,0,0,0,0,0,0,0,0,-1,2008,512,0,0
791,512,0,0,0,0,0,0,0,0,0,-1,2015,512,0,0
798,512,0,0,0,0,0,0,0,0,0,-1,2022,512,0,0
805,512,0,0,0,0,0,0,0,0,0,-1,2029,512,0,0
812,512,0,0,0,0,0,0,0,0,0,-1,2036,512,0,0
-700,505,0,0,0,0,0,0,0,0,0,-1,524,519,0,0
-693,505,0,0,0,0,0,0,0,0,0,-1,531,519,0,0
-686,505,0,0,0,0,0,0,0,0,0,-1,538,519,0,0
-679,505,0,0,0,0,0,0,0,0,0,-1,545,519,0,0
-672,505,0,0,0,0,0,0,0,0,0,-1,552,519,0,0
-665,505,0,0,0,0,0,0,0,0,0,-1,559,519,0,0
-658,505,0,0,0,0,0,0,0,0,0,-1,566,519,0,0
-651,505,0,0,0,0,0,0,0,0,0,-1,573,519,0,0
-644,505,0,0,0,0,0,0,0,0,0,-1,580,519,0,0
-637,505,0,0,0,0,0,0,0,0,0,-1,587,519,0,0
-630,505,0,0,0,0,0,0,0,0,0,-1,594,519,0,0
-623,505,0,0,0,0,0,0,0,0,0,-1,601,519,0,0
-616,505,0,0,0,0,0,0,0,0,0,-1,608,519,0,0
-609,505,0,0,0,0,0,0,0,0,0,-1,615,519,0,0
-602,505,0,0,0,0,0,0,0,0,0,-1,622,519,0,0
-595,505,0,0,0,0,0,0,0,0,0,-1,629,519,0,0
-588,505,0,0,0,0,0,0,0,0,0,-1,636,519,0,0
-581,505,0,0,0,0,0,0,0,0,0,-1,643,519,0,0
-574,505,0,0,0,0,0,0,0,0,0,-1,650,519,0,0
-567,505,0,0,0,0,0,0,0,0,0,-1,657,519,0,0
-560,505,0,0,0,0,0,0,0,0,0,-1,664,519,0,0
-553,505,0,0,0,0,0,0,0,0,0,-1,671,519,0,0
-546,505,0,0,0,0,0,0,0,0,0,-1,678,519,0,0
-539,505,0,0,0,0,0,0,0,0,0,-1,685,519,0,0
-532,505,0,0,0,0,0,0,0,0,0,-1,692,519,0,0
-525,505,0,0,0,0,0,0,0,0,0,-1,699,519,0,0
-518,505,0,0,0,0,0,0,0,0,0,-1,706,519,0,0
-511,505,0,0,0,0,0,0,0,0,0,-1,713,519,0,0
-504,505,0,0,0,0,0,0,0,0,0,-1,720,519,0,0
-497,505,0,0,0,0,0,0,0,0,0,-1,727,519,0,0
-490,505,0,0,0,0,0,0,0,0,0,-1,734,519,0,0
-483,505,0,0,0,0,0,0,0,0,0,-1,741,519,0,0
-476,505,0,0,0,0,0,0,0,0,0,-1,748,519,0,0
-469,505,0,0,0,0,0,0,0,0,0,-1,755,519,0,0
-462,505,0,0,0,0,0,0,0,0,0,-1,762,519,0,0
-455,505,-2.77515,3.99298,0,0,0,0,0,0,0,-1,769,519,-2.77516,-3.99298
-448,505,-2.01489,2.76764,0,0,0,0,0,0,0,-1,776,519,-2.01488,-2.76765
-441,505,-1.25525,1.12067,0,0,0,0,0,0,0,-1,783,519,-1.25523,-1.12066
-434,505,0.584778,-2.03345,0,0,0,0,0,0,0,-1,790,519,0.58477,2.03344
-427,505,0.411865,-2.66156,0.00101729,0.0435511,-0.00904651,0.0453953,-0.000826854,-1.3697,0.0305429,0.0458938,797,519,0.411864,2.66153
-420,505,0.211304,-3.14307,-0.00246748,0.0301481,-0.00559698,0.0310818,-0.00340121,-1.40549,0.021943,0.042583,804,519,0.211325,3.14308
-413,505,-0.0935669,-3.30713,-0.00422879,0.0200184,-0.00374978,0.0205851,-0.00479544,-1.42081,0.01557,0.043767,811,519,-0.0935459,3.3071
-406,505,-0.00946045,-3.59344,-0.00493279,0.0125369,-0.00269029,0.0129418,-0.0053377,-1.42141,0.0108538,0.0453998,818,519,-0.00947708,3.59344
-399,505,0.00115967,-3.7854,-0.00490626,0.00702635,-0.00226762,0.00744275,-0.00532266,-1.38919,0.00740392,0.0400674,825,519,0.00115267,3.78538
-392,505,-0.0718994,-3.98505,-0.00437484,0.00315846,-0.00211247,0.0037104,-0.00492678,-1.31523,0.00500313,0.0197559,832,519,-0.0718777,3.98505
-385,505,-0.137207,-4.16925,-0.00413787,-0.000101118,-0.00163083,0.000475395,-0.00471439,-1.231,0.00331278,0.00866781,839,519,-0.137198,4.16927
-378,505,-0.151611,-4.33075,-0.00364035,-0.00207412,-0.00148106,-0.00118189,-0.00453259,-1.02859,0.00271491,0.0104585,846,519,-0.151636,4.33076
-371,505,-0.160278,-4.51733,-0.00258752,-0.00273186,-0.00174354,-0.000914653,-0.00440473,-0.764713,0.00268406,0.0133712,853,519,-0.160248,4.51736
-364,505,-0.170227,-4.69275,-0.00174582,-0.00265308,-0.00181724,-0.000326439,-0.00407245,-0.663085,0.00261296,0.0138992,860,519,-0.170197,4.69277
-357,505,-0.161011,-4.8316,-0.00127152,-0.00233751,-0.00179321,6.62353e-05,-0.00367526,-0.640943,0.00247255,0.0109721,867,519,-0.161029,4.83162
-350,505,-0.164917,-4.99133,-0.0010123,-0.00174285,-0.00159223,0.000256023,-0.00301117,-0.672644,0.002098,0.0105057,874,519,-0.164917,4.9913
-343,505,-0.182007,-5.16174,-0.000853866,-0.000954107,-0.00123457,0.000331598,-0.00213957,-0.765111,0.00154879,0.0087395,881,519,-0.182003,5.16176
-336,505,-0.181519,-5.30939,-0.000691718,-0.000191717,-0.000856199,0.000450234,-0.00133367,-0.927444,0.00107121,0.0101001,888,519,-0.181514,5.30941
-329,505,-0.182251,-5.46448,-0.00058744,0.000457715,-0.000588858,0.000722437,-0.000852163,-1.14831,0.000910124,0.0128539,895,519,-0.182277,5.46448
-322,505,-0.194763,-5.6272,-0.000549289,0.0009705,-0.000317751,0.00103426,-0.000613048,-1.37277,0.000961381,0.0140822,902,519,-0.194781,5.62722
-315,505,-0.184509,-5.80609,-0.000403863,0.00119156,-0.000150202,0.00120557,-0.000417881,-1.47774,0.000973383,0.0123142,909,519,-0.184499,5.80612
-308,505,-0.167969,-5.94904,-6.09393e-05,0.00117461,-9.74676e-05,0.00118225,-6.85808e-05,-1.49256,0.000811993,0.0114258,916,519,-0.167959,5.94903
-301,505,-0.146057,-6.10876,0.000205363,0.0012195,3.67077e-05,0.00122083,0.000204036,1.53466,0.000755119,0.0166902,923,519,-0.146048,6.10874
-294,505,-0.153625,-6.23273,0,0,0,0,0,0,0,-1,930,519,-0.153646,6.23276
-287,505,-0.205688,-6.33319,0,0,0,0,0,0,0,-1,937,519,-0.205705,6.33321
-280,505,-0.113037,-6.75134,0,0,0,0,0,0,0,-1,944,519,-0.113045,6.75132
-273,505,-0.486816,-6.59796,0,0,0,0,0,0,0,-1,951,519,-0.486811,6.59793
-266,505,-0.135559,-6.94824,0,0,0,0,0,0,0,-1,958,519,-0.135559,6.94824
-259,505,0.10321,-6.69824,0,0,0,0,0,0,0,-1,965,519,0.103235,6.69826
-252,505,6.82312,-15.6972,0,0,0,0,0,0,0,-1,972,519,6.82314,15.6972
-245,505,4.26727,-12.9861,0,0,0,0,0,0,0,-1,979,519,4.2673,12.9861
-238,505,1.67432,-11.2307,0,0,0,0,0,0,0,-1,986,519,1.67429,11.2307
-231,505,-0.958435,-8.3075,0,0,0,0,0,0,0,-1,993,519,-0.958421,8.30751
-224,505,-3.69653,-5.12732,0,0,0,0,0,0,0,-1,1000,519,-3.69653,5.12733
-217,505,-6.34302,-1.65533,0,0,0,0,0,0,0,-1,1007,519,-6.34299,1.65535
-210,505,-3.06128,-0.396301,0,0,0,0,0,0,0,-1,1014,519,-3.06129,0.396294
-203,505,-4.26465,2.03607,0,0,0,0,0,0,0,-1,1021,519,-4.26462,-2.03606
-196,505,-5.47595,4.27295,0,0,0,0,0,0,0,-1,1028,519,-5.47597,-4.27292
-189,505,1.51526,5.56207,0,0,0,0,0,0,0,-1,1035,519,1.51523,-5.56209
-182,505,2.97815,7.5097,0,0,0,0,0,0,0,-1,1042,519,2.97812,-7.5097
-175,505,-2.38416,-2.17548,0,0,0,0,0,0,0,-1,1049,519,-2.38411,2.1755
-168,505,0,0,0,0,0,0,0,0,0,-1,1056,519,0,0
-161,505,0,0,0,0,0,0,0,0,0,-1,1063,519,0,0
-154,505,0,0,0,0,0,0,0,0,0,-1,1070,519,0,0
-147,505,0,0,0,0,0,0,0,0,0,-1,1077,519,0,0
-140,505,0,0,0,0,0,0,0,0,0,-1,1084,519,0,0
-133,505,0,0,0,0,0,0,0,0,0,-1,1091,519,0,0
-126,505,0,0,0,0,0,0,0,0,0,-1,1098,519,0,0
-119,505,0,0,0,0,0,0,0,0,0,-1,1105,519,0,0
-112,505,0,0,0,0,0,0,0,0,0,-1,1112,519,0,0
-105,505,0,0,0,0,0,0,0,0,0,-1,1119,519,0,0
-98,505,0,0,0,0,0,0,0,0,0,-1,1126,519,0,0
-91,505,0,0,0,0,0,0,0,0,0,-1,1133,519,0,0
-84,505,0,0,0,0,0,0,0,0,0,-1,1140,519,0,0
-77,505,0,0,0,0,0,0,0,0,0,-1,1147,519,0,0
-70,505,0,0,0,0,0,0,0,0,0,-1,1154,519,0,0
-63,505,0,0,0,0,0,0,0,0,0,-1,1161,519,0,0
-56,505,0,0,0,0,0,0,0,0,0,-1,1168,519,0,0
-49,505,0,0,0,0,0,0,0,0,0,-1,1175,519,0,0
-42,505,0,0,0,0,0,0,0,0,0,-1,1182,519,0,0
-35,505,0,0,0,0,0,0,0,0,0,-1,1189,519,0,0
-28,505,0,0,0,0,0,0,0,0,0,-1,1196,519,0,0
-21,505,0,0,0,0,0,0,0,0,0,-1,1203,519,0,0
-14,505,0,0,0,0,0,0,0,0,0,-1,1210,519,0,0
-7,505,0,0,0,0,0,0,0,0,0,-1,1217,519,0,0
0,505,0,0,0,0,0,0,0,0,0,-1,1224,519,0,0
7,505,0,0,0,0,0,0,0,0,0,-1,1231,519,0,0
14,505,0,0,0,0,0,0,0,0,0,-1,1238,519,0,0
21,505,0,0,0,0,0,0,0,0,0,-1,1245,519,0,0
28,505,0,0,0,0,0,0,0,0,0,-1,1252,519,0,0
35,505,0,0,0,0,0,0,0,0,0,-1,1259,519,0,0
42,505,0,0,0,0,0,0,0,0,0,-1,1266,519,0,0
49,505,0,0,0,0,0,0,0,0,0,-1,1273,519,0,0
56,505,0,0,0,0,0,0,0,0,0,-1,1280,519,0,0
63,505,0,0,0,0,0,0,0,0,0,-1,1287,519,0,0
70,505,0,0,0,0,0,0,0,0,0,-1,1294,519,0,0
77,505,0,0,0,0,0,0,0,0,0,-1,1301,519,0,0
84,505,0,0,0,0,0,0,0,0,0,-1,1308,519,0,0
91,505,0,0,0,0,0,0,0,0,0,-1,1315,519,0,0
98,505,0,0,0,0,0,0,0,0,0,-1,1322,519,0,0
105,505,0,0,0,0,0,0,0,0,0,-1,1329,519,0,0
112,505,0,0,0,0,0,0,0,0,0,-1,1336,519,0,0
119,505,0,0,0,0,0,0,0,0,0,-1,1343,519,0,0
126,505,0,0,0,0,0,0,0,0,0,-1,1350,519,0,0
133,505,0,0,0,0,0,0,0,0,0,-1,1357,519,0,0
140,505,0,0,0,0,0,0,0,0,0,-1,1364,519,0,0
147,505,0,0,0,0,0,0,0,0,0,-1,1371,519,0,0
154,505,0,0,0,0,0,0,0,0,0,-1,1378,519,0,0
161,505,0,0,0,0,0,0,0,0,0,-1,1385,519,0,0
168,505,0,0,0,0,0,0,0,0,0,-1,1392,519,0,0
175,505,0,0,0,0,0,0,0,0,0,-1,1399,519,0,0
182,505,0,0,0,0,0,0,0,0,0,-1,1406,519,0,0
189,505,0,0,0,0,0,0,0,0,0,-1,1413,519,0,0
196,505,0,0,0,0,0,0,0,0,0,-1,1420,519,0,0
203,505,0,0,0,0,0,0,0,0,0,-1,1427,519,0,0
210,505,0,0,0,0,0,0,0,0,0,-1,1434,519,0,0
217,505,0,0,0,0,0,0,0,0,0,-1,1441,519,0,0
224,505,0,0,0,0,0,0,0,0,0,-1,1448,519,0,0
231,505,0,0,0,0,0,0,0,0,0,-1,1455,519,0,0
238,505,0,0,0,0,0,0,0,0,0,-1,1462,519,0,0
245,505,0,0,0,0,0,0,0,0,0,-1,1469,519,0,0
252,505,0,0,0,0,0,0,0,0,0,-1,1476,519,0,0
259,505,0,0,0,0,0,0,0,0,0,-1,1483,519,0,0
266,505,0,0,0,0,0,0,0,0,0,-1,1490,519,0,0
273,505,0,0,0,0,0,0,0,0,0,-1,1497,519,0,0
280,505,0,0,0,0,0,0,0,0,0,-1,1504,519,0,0
287,505,4.39478,0.499512,0,0,0,0,0,0,0,-1,1511,519,4.39476,-0.499506
294,505,4.88867,0.0822754,0,0,0,0,0,0,0,-1,1518,519,4.88871,-0.0822748
301,505,4.82153,-0.0704346,0,0,0,0,0,0,0,-1,1525,519,4.82156,0.0704312
308,505,4.67761,-0.29187,0,0,0,0,0,0,0,-1,1532,519,4.67762,0.291845
315,505,8.44055,-6.54352,0,0,0,0,0,0,0,-1,1539,519,8.44059,6.54349
322,505,4.78955,-0.594116,0,0,0,0,0,0,0,-1,1546,519,4.78957,0.594096
329,505,5.16321,0.434631,0,0,0,0,0,0,0,-1,1553,519,5.16316,-0.434614
336,505,4.94495,-0.920471,0,0,0,0,0,0,0,-1,1560,519,4.945,0.920495
343,505,5.01855,-1.4823,0,0,0,0,0,0,0,-1,1567,519,5.01851,1.48227
350,505,5.33154,-1.77838,0,0,0,0,0,0,0,-1,1574,519,5.33152,1.77838
357,505,5.56567,-1.9425,0,0,0,0,0,0,0,-1,1581,519,5.56562,1.94248
364,505,5.85205,-2.6579,0,0,0,0,0,0,0,-1,1588,519,5.85211,2.65788
371,505,5.88477,-7.00922,0,0,0,0,0,0,0,-1,1595,519,5.88473,7.00924
378,505,4.65857,-5.534,0,0,0,0,0,0,0,-1,1602,519,4.65861,5.53401
385,505,4.76294,-5.24506,0,0,0,0,0,0,0,-1,1609,519,4.76299,5.24507
392,505,4.46985,-4.68103,0,0,0,0,0,0,0,-1,1616,519,4.4699,4.68103
399,505,4.78101,-4.92157,0,0,0,0,0,0,0,-1,1623,519,4.78101,4.92156
406,505,4.75354,-5.16461,-0.00404303,-0.0120706,-0.0120076,0.00460388,-0.0207175,-0.624101,0.0155748,0.0418442,1630,519,4.7535,5.1646
413,505,4.76013,-5.26697,-0.00319995,-0.00848573,-0.00951074,0.00402828,-0.015714,-0.649875,0.0120454,0.0435596,1637,519,4.76009,5.26696
420,505,4.58997,-5.22424,-0.00286628,-0.00581998,-0.00761641,0.00341514,-0.0121014,-0.689635,0.00941477,0.0290653,1644,519,4.58992,5.22422
427,505,4.51978,-5.0224,-0.00271043,-0.00390105,-0.00605322,0.00277668,-0.00938816,-0.736383,0.00736102,0.0132608,1651,519,4.51974,5.02238
434,505,4.49231,-4.86041,-0.00229336,-0.00227506,-0.00460762,0.00232342,-0.00689184,-0.786391,0.00553407,0.0098464,1658,519,4.49228,4.86039
441,505,4.49353,-4.6557,-0.0018251,-0.00128633,-0.00346964,0.00192436,-0.0050358,-0.824141,0.00415013,0.0101657,1665,519,4.49347,4.65573
448,505,4.48804,-4.47028,-0.00130247,-0.00017175,-0.00242712,0.00175498,-0.00322921,-0.899825,0.00291928,0.0103864,1672,519,4.48808,4.47026
455,505,4.49316,-4.29626,-0.000723168,0.000336664,-0.00152375,0.00142001,-0.00180652,-0.952742,0.00186729,0.0108092,1679,519,4.49322,4.29623
462,505,4.48779,-4.12122,-0.000233501,0.000556753,-0.000902671,0.00114699,-0.000823737,-0.9917,0.00114289,0.0108526,1686,519,4.4878,4.12119
469,505,4.49377,-3.94324,4.8436e-05,0.000387252,-0.00060625,0.000847319,-0.000411631,-0.921641,0.000741221,0.0108754,1693,519,4.4938,3.94327
476,505,4.49231,-3.76801,1.79975e-05,4.40338e-05,-0.000582734,0.000613895,-0.000551864,-0.796566,0.000673369,0.0114718,1700,519,4.4923,3.76803
483,505,4.50317,-3.58972,-0.000267955,-0.000182833,-0.000795117,0.000570862,-0.00102165,-0.812137,0.000931635,0.0128184,1707,519,4.50321,3.58973
490,505,4.50586,-3.39886,-0.000961648,-0.000525888,-0.001015,0.000294349,-0.00178189,-0.891124,0.00129722,0.0121039,1714,519,4.50587,3.39885
497,505,4.49426,-3.21429,-0.0024772,-0.000306982,-0.00116875,0.000202728,-0.00298691,-1.15955,0.00206217,0.0116514,1721,519,4.4943,3.21427
504,505,4.48193,-3.00745,-0.00445162,0.00057856,-0.00135658,0.00092109,-0.00479415,-1.32347,0.00354326,0.0117619,1728,519,4.48197,3.00743
511,505,4.48376,-2.8269,-0.00669306,0.00138288,-0.00151535,0.00165785,-0.00696803,-1.39129,0.00528536,0.0132646,1735,519,4.48374,2.82692
518,505,4.58057,-2.70081,-0.0092593,0.00301557,-0.00123437,0.00313847,-0.0093822,-1.47156,0.00752245,0.0253584,1742,519,4.58063,2.7008
525,505,4.33081,-2.50201,-0.0126799,0.0054629,-0.000790086,0.00549724,-0.0127143,-1.52736,0.0107861,0.0317914,1749,519,4.3308,2.50201
532,505,4.09619,-2.16437,-0.0167713,0.0091765,0.00031697,0.00918037,-0.0167752,1.55858,0.0151978,0.043538,1756,519,4.09624,2.16434
539,505,3.8396,-1.84552,0,0,0,0,0,0,0,-1,1763,519,3.83956,1.84554
546,505,3.28613,-0.929382,0,0,0,0,0,0,0,-1,1770,519,3.28609,0.929398
553,505,2.82837,0.162659,0,0,0,0,0,0,0,-1,1777,519,2.82841,-0.162672
560,505,3.66223,-0.479797,0,0,0,0,0,0,0,-1,1784,519,3.66219,0.47982
567,505,4.65271,-0.950256,0,0,0,0,0,0,0,-1,1791,519,4.65274,0.95028
574,505,5.54443,-1.19977,0,0,0,0,0,0,0,-1,1798,519,5.54443,1.19974
581,505,0,0,0,0,0,0,0,0,0,-1,1805,519,0,0
588,505,0,0,0,0,0,0,0,0,0,-1,1812,519,0,0
595,505,0,0,0,0,0,0,0,0,0,-1,1819,519,0,0
602,505,0,0,0,0,0,0,0,0,0,-1,1826,519,0,0
609,505,0,0,0,0,0,0,0,0,0,-1,1833,519,0,0
616,505,0,0,0,0,0,0,0,0,0,-1,1840,519,0,0
623,505,0,0,0,0,0,0,0,0,0,-1,1847,519,0,0
630,505,0,0,0,0,0,0,0,0,0,-1,1854,519,0,0
637,505,0,0,0,0,0,0,0,0,0,-1,1861,519,0,0
644,505,0,0,0,0,0,0,0,0,0,-1,1868,519,0,0
651,505,0,0,0,0,0,0,0,0,0,-1,1875,519,0,0
658,505,0,0,0,0,0,0,0,0,0,-1,1882,519,0,0
665,505,0,0,0,0,0,0,0,0,0,-1,1889,519,0,0
672,505,0,0,0,0,0,0,0,0,0,-1,1896,519,0,0
679,505,0,0,0,0,0,0,0,0,0,-1,1903,519,0,0
686,505,0,0,0,0,0,0,0,0,0,-1,1910,519,0,0
693,505,0,0,0,0,0,0,0,0,0,-1,1917,519,0,0
700,505,0,0,0,0,0,0,0,0,0,-1,1924,519,0,0
707,505,0,0,0,0,0,0,0,0,0,-1,1931,519,0,0
714,505,0,0,0,0,0,0,0,0,0,-1,1938,519,0,0
721,505,0,0,0,0,0,0,0,0,0,-1,1945,519,0,0
728,505,0,0,0,0,0,0,0,0,0,-1,1952,519,0,0
735,505,0,0,0,0,0,0,0,0,0,-1,1959,519,0,0
742,505,0,0,0,0,0,0,0,0,0,-1,1966,519,0,0
749,505,0,0,0,0,0,0,0,0,0,-1,1973,519,0,0
756,505,0,0,0,0,0,0,0,0,0,-1,1980,519,0,0
763,505,0,0,0,0,0,0,0,0,0,-1,1987,519,0,0
770,505,0,0,0,0,0,0,0,0,0,-1,1994,519,0,0
777,505,0,0,0,0,0,0,0,0,0,-1,2001,519,0,0
784,505,0,0,0,0,0,0,0,0,0,-1,2008,519,0,0
791,505,0,0,0,0,0,0,0,0,0,-1,2015,519,0,0
798,505,0,0,0,0,0,0,0,0,0,-1,2022,519,0,0
805,505,0,0,0,0,0,0,0,0,0,-1,2029,519,0,0
812,505,0,0,0,0,0,0,0,0,0,-1,2036,519,0,0
-700,498,0,0,0,0,0,0,0,0,0,-1,524,526,0,0
-693,498,0,0,0,0,0,0,0,0,0,-1,531,526,0,0
-686,498,0,0,0,0,0,0,0,0,0,-1,538,526,0,0
-679,498,0,0,0,0,0,0,0,0,0,-1,545,526,0,0
-672,498,0,0,0,0,0,0,0,0,0,-1,552,526,0,0
-665,498,0,0,0,0,0,0,0,0,0,-1,559,526,0,0
-658,498,0,0,0,0,0,0,0,0,0,-1,566,526,0,0
-651,498,0,0,0,0,0,0,0,0,0,-1,573,526,0,0
-644,498,0,0,0,0,0,0,0,0,0,-1,580,526,0,0
-637,498,0,0,0,0,0,0,0,0,0,-1,587,526,0,0
-630,498,0,0,0,0,0,0,0,0,0,-1,594,526,0,0
-623,498,0,0,0,0,0,0,0,0,0,-1,601,526,0,0
-616,498,0,0,0,0,0,0,0,0,0,-1,608,526,0,0
-609,498,0,0,0,0,0,0,0,0,0,-1,615,526,0,0
-602,498,0,0,0,0,0,0,0,0,0,-1,622,526,0,0
-595,498,0,0,0,0,0,0,0,0,0,-1,629,526,0,0
-588,498,0,0,0,0,0,0,0,0,0,-1,636,526,0,0
-581,498,0,0,0,0,0,0,0,0,0,-1,643,526,0,0
-574,498,0,0,0,0,0,0,0,0,0,-1,650,526,0,0
-567,498,0,0,0,0,0,0,0,0,0,-1,657,526,0,0
-560,498,0,0,0,0,0,0,0,0,0,-1,664,526,0,0
-553,498,0,0,0,0,0,0,0,0,0,-1,671,526,0,0
-546,498,0,0,0,0,0,0,0,0,0,-1,678,526,0,0
-539,498,0,0,0,0,0,0,0,0,0,-1,685,526,0,0
-532,498,0,0,0,0,0,0,0,0,0,-1,692,526,0,0
-525,498,0,0,0,0,0,0,0,0,0,-1,699,526,0,0
-518,498,0,0,0,0,0,0,0,0,0,-1,706,526,0,0
-511,498,0,0,0,0,0,0,0,0,0,-1,713,526,0,0
-504,498,0,0,0,0,0,0,0,0,0,-1,720,526,0,0
-497,498,0,0,0,0,0,0,0,0,0,-1,727,526,0,0
-490,498,0,0,0,0,0,0,0,0,0,-1,734,526,0,0
-483,498,0,0,0,0,0,0,0,0,0,-1,741,526,0,0
-476,498,0,0,0,0,0,0,0,0,0,-1,748,526,0,0
-469,498,0,0,0,0,0,0,0,0,0,-1,755,526,0,0
-462,498,-3.86688,0.246216,0,0,0,0,0,0,0,-1,762,526,-3.86689,-0.246232
-455,498,-2.72784,3.01898,0,0,0,0,0,0,0,-1,769,526,-2.72783,-3.01901
-448,498,-1.98224,1.82361,0,0,0,0,0,0,0,-1,776,526,-1.98224,-1.82364
-441,498,-1.41852,0.453857,0,0,0,0,0,0,0,-1,783,526,-1.4185,-0.453878
-434,498,-0.178162,-2.14569,0,0,0,0,0,0,0,-1,790,526,-0.178161,2.14571
-427,498,-0.360474,-2.87915,0,0,0,0,0,0,0,-1,797,526,-0.360473,2.87918
-420,498,-0.351929,-3.35858,0,0,0,0,0,0,0,-1,804,526,-0.351952,3.35856
-413,498,-0.540649,-3.66992,-0.000155429,0.0208187,-0.00347734,0.0213801,-0.000716914,-1.41071,0.0144983,0.0431258,811,526,-0.540655,3.6699
-406,498,-0.352722,-3.71173,-0.00123656,0.0140802,-0.00209125,0.0143606,-0.00151695,-1.43751,0.0101174,0.0414545,818,526,-0.352723,3.71171
-399,498,-0.276123,-3.8324,-0.00161342,0.00905284,-0.00135468,0.0092222,-0.00178279,-1.44642,0.00682051,0.0247477,825,526,-0.276111,3.83242
-392,498,-0.284851,-3.99707,-0.00149772,0.00538976,-0.00102346,0.00553862,-0.00164659,-1.42636,0.00434651,0.0120962,832,526,-0.28486,3.99705
-385,498,-0.317017,-4.16235,-0.00162571,0.00217364,-0.000466113,0.00222999,-0.00168205,-1.45049,0.00226599,0.00849485,839,526,-0.316999,4.16236
-378,498,-0.321472,-4.31512,-0.00151316,8.84854e-05,-0.000317236,0.000149031,-0.0015737,-1.38221,0.00110218,0.00981923,846,526,-0.321487,4.31513
-371,498,-0.308594,-4.48364,-0.00087741,-0.000693179,-0.000614665,-0.000163766,-0.00140682,-0.859776,0.00088834,0.0149484,853,526,-0.308615,4.48364
-364,498,-0.318115,-4.66724,-0.000378896,-0.00083684,-0.00081291,0.000236673,-0.00145241,-0.64812,0.00105604,0.0148364,860,526,-0.318138,4.66722
-357,498,-0.321106,-4.82532,-0.000183693,-0.000786542,-0.000947407,0.000509084,-0.00147932,-0.631383,0.00119269,0.0104032,867,526,-0.321078,4.82529
-350,498,-0.331116,-4.99365,-0.000197656,-0.000449893,-0.000913226,0.000598119,-0.00124567,-0.716781,0.00108617,0.0107511,874,526,-0.331122,4.99363
-343,498,-0.332031,-5.16687,-0.000320017,1.29601e-05,-0.000746865,0.000611668,-0.000918725,-0.895063,0.000889481,0.0112501,881,526,-0.33201,5.16688
-336,498,-0.333435,-5.33142,-0.000490199,0.000484272,-0.000562834,0.00074147,-0.000747397,-1.14216,0.0008596,0.0142775,888,526,-0.33345,5.3314
-329,498,-0.337524,-5.46735,-0.000671365,0.000970922,-0.000442654,0.00108263,-0.000783077,-1.32359,0.00108179,0.0185182,895,526,-0.337553,5.46737
-322,498,-0.329346,-5.63373,-0.000771596,0.00129599,-0.000311295,0.00134184,-0.000817448,-1.42455,0.00125886,0.017596,902,526,-0.329341,5.6337
-315,498,-0.348938,-5.7962,-0.000782153,0.00146963,-0.0002069,0.00148848,-0.000801006,-1.47993,0.00134155,0.0151202,909,526,-0.348949,5.79618
-308,498,-0.31958,-5.94397,-0.000583646,0.00154343,-0.000216336,0.00156521,-0.000605426,-1.47046,0.00129341,0.015078,916,526,-0.319592,5.94397
-301,498,-0.213562,-6.1441,-0.000532684,0.00164016,-7.95094e-05,0.00164307,-0.00053559,-1.53427,0.0013109,0.0249502,923,526,-0.213571,6.14412
-294,498,-0.212402,-6.16498,-0.000411659,0.00198323,0.000121162,0.00198934,-0.000417773,1.52038,0.0014852,0.042204,930,526,-0.212386,6.16495
-287,498,-0.136475,-6.39557,0,0,0,0,0,0,0,-1,937,526,-0.136476,6.39555
-280,498,-0.0591431,-6.65137,0,0,0,0,0,0,0,-1,944,526,-0.0591678,6.65137
-273,498,-0.988708,-6.58148,0,0,0,0,0,0,0,-1,951,526,-0.988705,6.58146
-266,498,0.362488,-6.33545,0,0,0,0,0,0,0,-1,958,526,0.362478,6.33547
-259,498,10.9454,-17.3615,0,0,0,0,0,0,0,-1,965,526,10.9454,17.3614
-252,498,8.56586,-14.6886,0,0,0,0,0,0,0,-1,972,526,8.56584,14.6886
-245,498,5.97382,-11.928,0,0,0,0,0,0,0,-1,979,526,5.97381,11.928
-238,498,3.31403,-9.40442,0,0,0,0,0,0,0,-1,986,526,3.31405,9.40443
-231,498,0.675598,-6.60547,0,0,0,0,0,0,0,-1,993,526,0.675587,6.60545
-224,498,-2.11243,-4.76312,0,0,0,0,0,0,0,-1,1000,526,-2.11245,4.76314
-217,498,-3.82239,-1.42841,0,0,0,0,0,0,0,-1,1007,526,-3.82241,1.42843
-210,498,-1.80591,-0.358215,0,0,0,0,0,0,0,-1,1014,526,-1.8059,0.3582
-203,498,-3.17316,1.06641,0,0,0,0,0,0,0,-1,1021,526,-3.17313,-1.0664
-196,498,-0.103271,5.40527,0,0,0,0,0,0,0,-1,1028,526,-0.103285,-5.40528
-189,498,3.00256,6.47137,0,0,0,0,0,0,0,-1,1035,526,3.00256,-6.47139
-182,498,0,0,0,0,0,0,0,0,0,-1,1042,526,0,0
-175,498,0,0,0,0,0,0,0,0,0,-1,1049,526,0,0
-168,498,0,0,0,0,0,0,0,0,0,-1,1056,526,0,0
-161,498,0,0,0,0,0,0,0,0,0,-1,1063,526,0,0
-154,498,0,0,0,0,0,0,0,0,0,-1,1070,526,0,0
-147,498,0,0,0,0,0,0,0,0,0,-1,1077,526,0,0
-140,498,0,0,0,0,0,0,0,0,0,-1,1084,526,0,0
-133,498,0,0,0,0,0,0,0,0,0,-1,1091,526,0,0
-126,498,0,0,0,0,0,0,0,0,0,-1,1098,526,0,0
-119,498,0,0,0,0,0,0,0,0,0,-1,1105,526,0,0
-112,498,0,0,0,0,0,0,0,0,0,-1,1112,526,0,0
-105,498,0,0,0,0,0,0,0,0,0,-1,1119,526,0,0
-98,498,0,0,0,0,0,0,0,0,0,-1,1126,526,0,0
-91,498,0,0,0,0,0,0,0,0,0,-1,1133,526,0,0
-84,498,0,0,0,0,0,0,0,0,0,-1,1140,526,0,0
-77,498,0,0,0,0,0,0,0,0,0,-1,1147,526,0,0
-70,498,0,0,0,0,0,0,0,0,0,-1,1154,526,0,0
-63,498,0,0,0,0,0,0,0,0,0,-1,1161,526,0,0
-56,498,0,0,0,0,0,0,0,0,0,-1,1168,526,0,0
-49,498,0,0,0,0,0,0,0,0,0,-1,1175,526,0,0
-42,498,0,0,0,0,0,0,0,0,0,-1,1182,526,0,0
-35,498,0,0,0,0,0,0,0,0,0,-1,1189,526,0,0
-28,498,0,0,0,0,0,0,0,0,0,-1,1196,526,0,0
-21,498,0,0,0,0,0,0,0,0,0,-1,1203,526,0,0
-14,498,0,0,0,0,0,0,0,0,0,-1,1210,526,0,0
-7,498,0,0,0,0,0,0,0,0,0,-1,1217,526,0,0
0,498,0,0,0,0,0,0,0,0,0,-1,1224,526,0,0
7,498,0,0,0,0,0,0,0,0,0,-1,1231,526,0,0
14,498,0,0,0,0,0,0,0,0,0,-1,1238,526,0,0
21,498,0,0,0,0,0,0,0,0,0,-1,1245,526,0,0
28,498,0,0,0,0,0,0,0,0,0,-1,1252,526,0,0
35,498,0,0,0,0,0,0,0,0,0,-1,1259,526,0,0
42,498,0,0,0,0,0,0,0,0,0,-1,1266,526,0,0
49,498,0,0,0,0,0,0,0,0,0,-1,1273,526,0,0
56,498,0,0,0,0,0,0,0,0,0,-1,1280,526,0,0
63,498,0,0,0,0,0,0,0,0,0,-1,1287,526,0,0
70,498,0,0,0,0,0,0,0,0,0,-1,1294,526,0,0
77,498,0,0,0,0,0,0,0,0,0,-1,1301,526,0,0
84,498,0,0,0,0,0,0,0,0,0,-1,1308,526,0,0
91,498,0,0,0,0,0,0,0,0,0,-1,1315,526,0,0
98,498,0,0,0,0,0,0,0,0,0,-1,1322,526,0,0
105,498,0,0,0,0,0,0,0,0,0,-1,1329,526,0,0
112,498,0,0,0,0,0,0,0,0,0,-1,1336,526,0,0
119,498,0,0,0,0,0,0,0,0,0,-1,1343,526,0,0
126,498,0,0,0,0,0,0,0,0,0,-1,1350,526,0,0
133,498,0,0,0,0,0,0,0,0,0,-1,1357,526,0,0
140,498,0,0,0,0,0,0,0,0,0,-1,1364,526,0,0
147,498,0,0,0,0,0,0,0,0,0,-1,1371,526,0,0
154,498,0,0,0,0,0,0,0,0,0,-1,1378,526,0,0
161,498,0,0,0,0,0,0,0,0,0,-1,1385,526,0,0
168,498,0,0,0,0,0,0,0,0,0,-1,1392,526,0,0
175,498,0,0,0,0,0,0,0,0,0,-1,1399,526,0,0
182,498,0,0,0,0,0,0,0,0,0,-1,1406,526,0,0
189,498,0,0,0,0,0,0,0,0,0,-1,1413,526,0,0
196,498,0,0,0,0,0,0,0,0,0,-1,1420,526,0,0
203,498,0,0,0,0,0,0,0,0,0,-1,1427,526,0,0
210,498,0,0,0,0,0,0,0,0,0,-1,1434,526,0,0
217,498,0,0,0,0,0,0,0,0,0,-1,1441,526,0,0
224,498,0,0,0,0,0,0,0,0,0,-1,1448,526,0,0
231,498,0,0,0,0,0,0,0,0,0,-1,1455,526,0,0
238,498,0,0,0,0,0,0,0,0,0,-1,1462,526,0,0
245,498,0,0,0,0,0,0,0,0,0,-1,1469,526,0,0
252,498,0,0,0,0,0,0,0,0,0,-1,1476,526,0,0
259,498,0,0,0,0,0,0,0,0,0,-1,1483,526,0,0
266,498,0,0,0,0,0,0,0,0,0,-1,1490,526,0,0
273,498,0,0,0,0,0,0,0,0,0,-1,1497,526,0,0
280,498,0,0,0,0,0,0,0,0,0,-1,1504,526,0,0
287,498,0,0,0,0,0,0,0,0,0,-1,1511,526,0,0
294,498,0,0,0,0,0,0,0,0,0,-1,1518,526,0,0
301,498,0,0,0,0,0,0,0,0,0,-1,1525,526,0,0
308,498,4.77942,-0.293884,0,0,0,0,0,0,0,-1,1532,526,4.77939,0.293899
315,498,4.56091,-0.564148,0,0,0,0,0,0,0,-1,1539,526,4.56097,0.564142
322,498,4.52344,-0.447266,0,0,0,0,0,0,0,-1,1546,526,4.52341,0.447295
329,498,4.63232,-0.156982,0,0,0,0,0,0,0,-1,1553,526,4.63238,0.156991
336,498,5.22644,0.0925903,0,0,0,0,0,0,0,-1,1560,526,5.22648,-0.0926188
343,498,6.22607,-1.67615,0,0,0,0,0,0,0,-1,1567,526,6.22605,1.67617
350,498,6.19373,-1.59906,0,0,0,0,0,0,0,-1,1574,526,6.19367,1.59906
357,498,6.21472,-1.58929,0,0,0,0,0,0,0,-1,1581,526,6.21476,1.58927
364,498,5.73547,-1.2019,0,0,0,0,0,0,0,-1,1588,526,5.73547,1.20192
371,498,3.27087,-4.55334,0,0,0,0,0,0,0,-1,1595,526,3.27089,4.55332
378,498,8.42944,-4.70624,0,0,0,0,0,0,0,-1,1602,526,8.42942,4.70624
385,498,4.7793,-5.15314,0,0,0,0,0,0,0,-1,1609,526,4.77935,5.15311
392,498,3.44421,-4.27454,0,0,0,0,0,0,0,-1,1616,526,3.44416,4.27456
399,498,6.10608,-5.52478,0,0,0,0,0,0,0,-1,1623,526,6.10608,5.5248
406,498,5.04858,-4.97095,0,0,0,0,0,0,0,-1,1630,526,5.0486,4.97097
413,498,5.36816,-5.1698,0,0,0,0,0,0,0,-1,1637,526,5.3681,5.16982
420,498,4.87402,-5.21423,0,0,0,0,0,0,0,-1,1644,526,4.87405,5.21424
427,498,4.75867,-5.04938,-0.00353755,-0.00475297,-0.00766018,0.00353898,-0.0118295,-0.745814,0.00929339,0.0350323,1651,526,4.75868,5.04935
434,498,4.74158,-4.83704,-0.00296812,-0.00264622,-0.00578905,0.00298412,-0.00859845,-0.799296,0.00694413,0.0180594,1658,526,4.74158,4.83701
441,498,4.67944,-4.6452,-0.00238628,-0.00136907,-0.00438722,0.00253893,-0.00629428,-0.843105,0.00525123,0.00975762,1665,526,4.6795,4.64521
448,498,4.68005,-4.47083,-0.00174602,-7.43859e-05,-0.00316071,0.00235915,-0.00417956,-0.914659,0.00382358,0.00982513,1672,526,4.68001,4.47083
455,498,4.67297,-4.2995,-0.00105157,0.000471717,-0.00208025,0.00192537,-0.00250523,-0.960884,0.0025653,0.0136607,1679,526,4.67301,4.2995
462,498,4.66614,-4.12274,-0.000426343,0.000757983,-0.00123088,0.00153173,-0.00120009,-1.0096,0.00158109,0.0161372,1686,526,4.66611,4.12274
469,498,4.66504,-3.94305,-5.29271e-05,0.000642217,-0.000783664,0.00115193,-0.000562639,-0.994125,0.00100921,0.0137113,1693,526,4.6651,3.94308
476,498,4.68262,-3.75818,3.30059e-05,0.00034433,-0.000646537,0.000853679,-0.000476344,-0.903531,0.000778122,0.0103543,1700,526,4.68259,3.75818
483,498,4.68616,-3.5575,-0.000120221,0.00013577,-0.000720092,0.000739154,-0.000723605,-0.873354,0.00084454,0.00867378,1707,526,4.6861,3.55749
490,498,4.67712,-3.39783,-0.000620139,-0.000158484,-0.000787963,0.000431765,-0.00121039,-0.927883,0.000982981,0.0104674,1714,526,4.67719,3.3978
497,498,4.68494,-3.2218,-0.00185898,5.00836e-05,-0.000811774,0.000348592,-0.00215749,-1.21842,0.0015675,0.0121926,1721,526,4.68488,3.22182
504,498,4.66577,-3.03003,-0.00350611,0.000936591,-0.000853625,0.00109496,-0.00366448,-1.38735,0.00287826,0.0139049,1728,526,4.66573,3.03006
511,498,4.66467,-2.83673,-0.00532475,0.00174338,-0.000833657,0.00184038,-0.00542175,-1.45497,0.00435943,0.0150217,1735,526,4.66465,2.83676
518,498,4.7439,-2.64905,-0.00736806,0.00331517,-0.000413195,0.00333113,-0.00738401,-1.5322,0.00633218,0.0181487,1742,526,4.74387,2.64907
525,498,4.65198,-2.47162,-0.0100476,0.00551284,0.000109171,0.0055136,-0.0100483,1.56378,0.00911096,0.0268125,1749,526,4.65204,2.47163
532,498,4.49988,-2.30109,-0.0131387,0.00878378,0.00117122,0.00884618,-0.0132011,1.51757,0.0128115,0.0352184,1756,526,4.49993,2.30112
539,498,4.51624,-2.13745,-0.0163638,0.013587,0.00300947,0.0138864,-0.0166632,1.47164,0.0176621,0.0423198,1763,526,4.51625,2.13743
546,498,3.88489,-1.13196,-0.0196452,0.0197204,0.00546287,0.0204645,-0.0203892,1.43543,0.0235869,0.0463314,1770,526,3.88484,1.13197
553,498,3.24207,-0.396973,0,0,0,0,0,0,0,-1,1777,526,3.24206,0.396981
560,498,3.69385,-0.615112,0,0,0,0,0,0,0,-1,1784,526,3.69381,0.615118
567,498,5.12695,-0.581604,0,0,0,0,0,0,0,-1,1791,526,5.12699,0.58159
574,498,3.88,0.0286255,0,0,0,0,0,0,0,-1,1798,526,3.87999,-0.0286535
581,498,10.8722,2.58551,0,0,0,0,0,0,0,-1,1805,526,10.8723,-2.58551
588,498,0,0,0,0,0,0,0,0,0,-1,1812,526,0,0
595,498,0,0,0,0,0,0,0,0,0,-1,1819,526,0,0
602,498,0,0,0,0,0,0,0,0,0,-1,1826,526,0,0
609,498,0,0,0,0,0,0,0,0,0,-1,1833,526,0,0
616,498,0,0,0,0,0,0,0,0,0,-1,1840,526,0,0
623,498,0,0,0,0,0,0,0,0,0,-1,1847,526,0,0
630,498,0,0,0,0,0,0,0,0,0,-1,1854,526,0,0
637,498,0,0,0,0,0,0,0,0,0,-1,1861,526,0,0
644,498,0,0,0,0,0,0,0,0,0,-1,1868,526,0,0
651,498,0,0,0,0,0,0,0,0,0,-1,1875,526,0,0
658,498,0,0,0,0,0,0,0,0,0,-1,1882,526,0,0
665,498,0,0,0,0,0,0,0,0,0,-1,1889,526,0,0
672,498,0,0,0,0,0,0,0,0,0,-1,1896,526,0,0
679,498,0,0,0,0,0,0,0,0,0,-1,1903,526,0,0
686,498,0,0,0,0,0,0,0,0,0,-1,1910,526,0,0
693,498,0,0,0,0,0,0,0,0,0,-1,1917,526,0,0
700,498,0,0,0,0,0,0,0,0,0,-1,1924,526,0,0
707,498,0,0,0,0,0,0,0,0,0,-1,1931,526,0,0
714,498,0,0,0,0,0,0,0,0,0,-1,1938,526,0,0
721,498,0,0,0,0,0,0,0,0,0,-1,1945,526,0,0
728,498,0,0,0,0,0,0,0,0,0,-1,1952,526,0,0
735,498,0,0,0,0,0,0,0,0,0,-1,1959,526,0,0
742,498,0,0,0,0,0,0,0,0,0,-1,1966,526,0,0
749,498,0,0,0,0,0,0,0,0,0,-1,1973,526,0,0
756,498,0,0,0,0,0,0,0,0,0,-1,1980,526,0,0
763,498,0,0,0,0,0,0,0,0,0,-1,1987,526,0,0
770,498,0,0,0,0,0,0,0,0,0,-1,1994,526,0,0
777,498,0,0,0,0,0,0,0,0,0,-1,2001,526,0,0
784,498,0,0,0,0,0,0,0,0,0,-1,2008,526,0,0
791,498,0,0,0,0,0,0,0,0,0,-1,2015,526,0,0
798,498,0,0,0,0,0,0,0,0,0,-1,2022,526,0,0
805,498,0,0,0,0,0,0,0,0,0,-1,2029,526,0,0
812,498,0,0,0,0,0,0,0,0,0,-1,2036,526,0,0
-700,491,0,0,0,0,0,0,0,0,0,-1,524,533,0,0
-693,491,0,0,0,0,0,0,0,0,0,-1,531,533,0,0
-686,491,0,0,0,0,0,0,0,0,0,-1,538,533,0,0
-679,491,0,0,0,0,0,0,0,0,0,-1,545,533,0,0
-672,491,0,0,0,0,0,0,0,0,0,-1,552,533,0,0
-665,491,0,0,0,0,0,0,0,0,0,-1,559,533,0,0
-658,491,0,0,0,0,0,0,0,0,0,-1,566,533,0,0
-651,491,0,0,0,0,0,0,0,0,0,-1,573,533,0,0
-644,491,0,0,0,0,0,0,0,0,0,-1,580,533,0,0
-637,491,0,0,0,0,0,0,0,0,0,-1,587,533,0,0
-630,491,0,0,0,0,0,0,0,0,0,-1,594,533,0,0
-623,491,0,0,0,0,0,0,0,0,0,-1,601,533,0,0
-616,491,0,0,0,0,0,0,0,0,0,-1,608,533,0,0
-609,491,0,0,0,0,0,0,0,0,0,-1,615,533,0,0
-602,491,0,0,0,0,0,0,0,0,0,-1,622,533,0,0
-595,491,0,0,0,0,0,0,0,0,0,-1,629,533,0,0
-588,491,0,0,0,0,0,0,0,0,0,-1,636,533,0,0
-581,491,0,0,0,0,0,0,0,0,0,-1,643,533,0,0
-574,491,0,0,0,0,0,0,0,0,0,-1,650,533,0,0
-567,491,0,0,0,0,0,0,0,0,0,-1,657,533,0,0
-560,491,0,0,0,0,0,0,0,0,0,-1,664,533,0,0
-553,491,0,0,0,0,0,0,0,0,0,-1,671,533,0,0
-546,491,0,0,0,0,0,0,0,0,0,-1,678,533,0,0
-539,491,0,0,0,0,0,0,0,0,0,-1,685,533,0,0
-532,491,0,0,0,0,0,0,0,0,0,-1,692,533,0,0
-525,491,0,0,0,0,0,0,0,0,0,-1,699,533,0,0
-518,491,0,0,0,0,0,0,0,0,0,-1,706,533,0,0
-511,491,0,0,0,0,0,0,0,0,0,-1,713,533,0,0
-504,491,0,0,0,0,0,0,0,0,0,-1,720,533,0,0
-497,491,0,0,0,0,0,0,0,0,0,-1,727,533,0,0
-490,491,0,0,0,0,0,0,0,0,0,-1,734,533,0,0
-483,491,0,0,0,0,0,0,0,0,0,-1,741,533,0,0
-476,491,0,0,0,0,0,0,0,0,0,-1,748,533,0,0
-469,491,-4.83313,2.3125,0,0,0,0,0,0,0,-1,755,533,-4.83312,-2.3125
-462,491,-3.90533,0.759277,0,0,0,0,0,0,0,-1,762,533,-3.90533,-0.759296
-455,491,-3.37384,-0.687927,0,0,0,0,0,0,0,-1,769,533,-3.37385,0.687927
-448,491,-2.41095,0.844238,0,0,0,0,0,0,0,-1,776,533,-2.41097,-0.84423
-441,491,-1.60773,-0.22113,0.0194998,0.0626675,-0.0215101,0.0715557,0.0106116,-1.17895,0.0445895,0.044323,783,533,-1.6077,0.221126
-434,491,-0.92334,-1.02521,0.0124636,0.0487841,-0.0146246,0.0539407,0.00730701,-1.23181,0.0337892,0.045042,790,533,-0.923332,1.02522
-427,491,-1.10962,-3.18427,0,0,0,0,0,0,0,-1,797,533,-1.10963,3.18424
-420,491,-0.537415,-3.28796,0,0,0,0,0,0,0,-1,804,533,-0.537397,3.28799
-413,491,-0.857056,-3.97174,0,0,0,0,0,0,0,-1,811,533,-0.857084,3.97177
-406,491,-0.500793,-3.70508,0.00102805,0.0138367,-0.00184063,0.014096,0.000768795,-1.43087,0.00915182,0.0201626,818,533,-0.500764,3.70506
-399,491,-0.480164,-3.82312,0.000457694,0.00937901,-0.000914205,0.00947172,0.000364975,-1.46972,0.00619641,0.011325,825,533,-0.480172,3.82313
-392,491,-0.486755,-3.99365,0.000312944,0.00606865,-0.000435195,0.00610137,0.000280224,-1.49575,0.00397746,0.00966718,832,533,-0.486777,3.99365
-385,491,-0.499512,-4.15741,-1.4342e-05,0.00309496,0.000176268,0.00310492,-2.43029e-05,1.51435,0.0020781,0.00866846,839,533,-0.499489,4.15742
-378,491,-0.482483,-4.30804,-0.000140001,0.00109537,0.000336729,0.00118119,-0.000225822,1.32124,0.000872529,0.0124434,846,533,-0.482495,4.30804
-371,491,-0.473145,-4.47675,0.000162671,0.000357718,4.27965e-05,0.000366695,0.000153694,1.36403,0.000212633,0.0136834,853,533,-0.47314,4.47676
-364,491,-0.479126,-4.65735,0.000391568,0.000155714,-0.000239857,0.00054092,6.36169e-06,-0.556924,0.000358512,0.0130312,860,533,-0.479155,4.65736
-357,491,-0.489624,-4.82794,0.000375775,0.000106978,-0.000493322,0.000752678,-0.000269926,-0.652408,0.000611937,0.011609,867,533,-0.489617,4.82792
-350,491,-0.49231,-4.98242,0.000152033,0.000319726,-0.000597406,0.000839141,-0.000367382,-0.855118,0.000714116,0.0130813,874,533,-0.492308,4.98243
-343,491,-0.470398,-5.15533,-0.000192347,0.000604784,-0.000584816,0.000913936,-0.000501499,-1.08451,0.000828685,0.0202296,881,533,-0.470369,5.15532
-336,491,-0.484009,-5.32745,-0.000615365,0.000930404,-0.000540975,0.00110092,-0.000785881,-1.26545,0.0010944,0.0214633,888,533,-0.483998,5.32744
-329,491,-0.484619,-5.47388,-0.0010207,0.00134196,-0.000500373,0.00144356,-0.0011223,-1.37047,0.00148527,0.0234669,895,533,-0.484637,5.47385
-322,491,-0.471008,-5.63873,-0.00126486,0.00155417,-0.000467735,0.00162975,-0.00134044,-1.41059,0.00171755,0.0220962,902,533,-0.471024,5.63874
-315,491,-0.517395,-5.78156,-0.00141893,0.00185475,-0.000333828,0.00188844,-0.00145263,-1.4702,0.00193443,0.0169863,909,533,-0.517374,5.78154
-308,491,-0.404602,-5.99225,-0.0014096,0.00215093,-0.000304111,0.00217671,-0.00143539,-1.4862,0.00210004,0.0348865,916,533,-0.404601,5.99224
-301,491,-0.114746,-6.25488,0,0,0,0,0,0,0,-1,923,533,-0.114751,6.25488
-294,491,-0.407227,-6.14081,0,0,0,0,0,0,0,-1,930,533,-0.407198,6.14082
-287,491,0.0355835,-6.62549,0,0,0,0,0,0,0,-1,937,533,0.0355625,6.62547
-280,491,0.2948,-5.99219,0,0,0,0,0,0,0,-1,944,533,0.294811,5.99221
-273,491,0.369995,-5.33691,0,0,0,0,0,0,0,-1,951,533,0.369985,5.33693
-266,491,1.1167,-5.0321,0,0,0,0,0,0,0,-1,958,533,1.11668,5.0321
-259,491,12.0862,-16.9615,0,0,0,0,0,0,0,-1,965,533,12.0862,16.9615
-252,491,9.72443,-13.8417,0,0,0,0,0,0,0,-1,972,533,9.72444,13.8418
-245,491,7.36926,-10.7169,0,0,0,0,0,0,0,-1,979,533,7.36924,10.7169
-238,491,4.84167,-7.53986,0,0,0,0,0,0,0,-1,986,533,4.84169,7.53984
-231,491,2.15582,-5.05225,0,0,0,0,0,0,0,-1,993,533,2.1558,5.05223
-224,491,-0.429749,-3.09216,0,0,0,0,0,0,0,-1,1000,533,-0.429743,3.09215
-217,491,-2.92743,-1.0766,0,0,0,0,0,0,0,-1,1007,533,-2.92743,1.07659
-210,491,-0.92395,0.374512,0,0,0,0,0,0,0,-1,1014,533,-0.923959,-0.374531
-203,491,0.417419,4.77161,0,0,0,0,0,0,0,-1,1021,533,0.417446,-4.77162
-196,491,0,0,0,0,0,0,0,0,0,-1,1028,533,0,0
-189,491,0,0,0,0,0,0,0,0,0,-1,1035,533,0,0
-182,491,0,0,0,0,0,0,0,0,0,-1,1042,533,0,0
-175,491,0,0,0,0,0,0,0,0,0,-1,1049,533,0,0
-168,491,0,0,0,0,0,0,0,0,0,-1,1056,533,0,0
-161,491,0,0,0,0,0,0,0,0,0,-1,1063,533,0,0
-154,491,0,0,0,0,0,0,0,0,0,-1,1070,533,0,0
-147,491,0,0,0,0,0,0,0,0,0,-1,1077,533,0,0
-140,491,0,0,0,0,0,0,0,0,0,-1,1084,533,0,0
-133,491,0,0,0,0,0,0,0,0,0,-1,1091,533,0,0
-126,491,0,0,0,0,0,0,0,0,0,-1,1098,533,0,0
-119,491,0,0,0,0,0,0,0,0,0,-1,1105,533,0,0
-112,491,0,0,0,0,0,0,0,0,0,-1,1112,533,0,0
-105,491,0,0,0,0,0,0,0,0,0,-1,1119,533,0,0
-98,491,0,0,0,0,0,0,0,0,0,-1,1126,533,0,0
-91,491,0,0,0,0,0,0,0,0,0,-1,1133,533,0,0
-84,491,0,0,0,0,0,0,0,0,0,-1,1140,533,0,0
-77,491,0,0,0,0,0,0,0,0,0,-1,1147,533,0,0
-70,491,0,0,0,0,0,0,0,0,0,-1,1154,533,0,0
-63,491,0,0,0,0,0,0,0,0,0,-1,1161,533,0,0
-56,491,0,0,0,0,0,0,0,0,0,-1,1168,533,0,0
-49,491,0,0,0,0,0,0,0,0,0,-1,1175,533,0,0
-42,491,0,0,0,0,0,0,0,0,0,-1,1182,533,0,0
-35,491,0,0,0,0,0,0,0,0,0,-1,1189,533,0,0
-28,491,0,0,0,0,0,0,0,0,0,-1,1196,533,0,0
-21,491,0,0,0,0,0,0,0,0,0,-1,1203,533,0,0
-14,491,0,0,0,0,0,0,0,0,0,-1,1210,533,0,0
-7,491,0,0,0,0,0,0,0,0,0,-1,1217,533,0,0
0,491,0,0,0,0,0,0,0,0,0,-1,1224,533,0,0
7,491,0,0,0,0,0,0,0,0,0,-1,1231,533,0,0
14,491,0,0,0,0,0,0,0,0,0,-1,1238,533,0,0
21,491,0,0,0,0,0,0,0,0,0,-1,1245,533,0,0
28,491,0,0,0,0,0,0,0,0,0,-1,1252,533,0,0
35,491,0,0,0,0,0,0,0,0,0,-1,1259,533,0,0
42,491,0,0,0,0,0,0,0,0,0,-1,1266,533,0,0
49,491,0,0,0,0,0,0,0,0,0,-1,1273,533,0,0
56,491,0,0,0,0,0,0,0,0,0,-1,1280,533,0,0
63,491,0,0,0,0,0,0,0,0,0,-1,1287,533,0,0
70,491,0,0,0,0,0,0,0,0,0,-1,1294,533,0,0
77,491,0,0,0,0,0,0,0,0,0,-1,1301,533,0,0
84,491,0,0,0,0,0,0,0,0,0,-1,1308,533,0,0
91,491,0,0,0,0,0,0,0,0,0,-1,1315,533,0,0
98,491,0,0,0,0,0,0,0,0,0,-1,1322,533,0,0
105,491,0,0,0,0,0,0,0,0,0,-1,1329,533,0,0
112,491,0,0,0,0,0,0,0,0,0,-1,1336,533,0,0
119,491,0,0,0,0,0,0,0,0,0,-1,1343,533,0,0
126,491,0,0,0,0,0,0,0,0,0,-1,1350,533,0,0
133,491,0,0,0,0,0,0,0,0,0,-1,1357,533,0,0
140,491,0,0,0,0,0,0,0,0,0,-1,1364,533,0,0
147,491,0,0,0,0,0,0,0,0,0,-1,1371,533,0,0
154,491,0,0,0,0,0,0,0,0,0,-1,1378,533,0,0
161,491,0,0,0,0,0,0,0,0,0,-1,1385,533,0,0
168,491,0,0,0,0,0,0,0,0,0,-1,1392,533,0,0
175,491,0,0,0,0,0,0,0,0,0,-1,1399,533,0,0
182,491,0,0,0,0,0,0,0,0,0,-1,1406,533,0,0
189,491,0,0,0,0,0,0,0,0,0,-1,1413,533,0,0
196,491,0,0,0,0,0,0,0,0,0,-1,1420,533,0,0
203,491,0,0,0,0,0,0,0,0,0,-1,1427,533,0,0
210,491,0,0,0,0,0,0,0,0,0,-1,1434,533,0,0
217,491,0,0,0,0,0,0,0,0,0,-1,1441,533,0,0
224,491,0,0,0,0,0,0,0,0,0,-1,1448,533,0,0
231,491,0,0,0,0,0,0,0,0,0,-1,1455,533,0,0
238,491,0,0,0,0,0,0,0,0,0,-1,1462,533,0,0
245,491,0,0,0,0,0,0,0,0,0,-1,1469,533,0,0
252,491,0,0,0,0,0,0,0,0,0,-1,1476,533,0,0
259,491,0,0,0,0,0,0,0,0,0,-1,1483,533,0,0
266,491,0,0,0,0,0,0,0,0,0,-1,1490,533,0,0
273,491,0,0,0,0,0,0,0,0,0,-1,1497,533,0,0
280,491,0,0,0,0,0,0,0,0,0,-1,1504,533,0,0
287,491,0,0,0,0,0,0,0,0,0,-1,1511,533,0,0
294,491,0,0,0,0,0,0,0,0,0,-1,1518,533,0,0
301,491,0,0,0,0,0,0,0,0,0,-1,1525,533,0,0
308,491,0,0,0,0,0,0,0,0,0,-1,1532,533,0,0
315,491,0,0,0,0,0,0,0,0,0,-1,1539,533,0,0
322,491,4.26331,-0.734314,0,0,0,0,0,0,0,-1,1546,533,4.26326,0.734324
329,491,4.25354,-0.783752,0,0,0,0,0,0,0,-1,1553,533,4.25359,0.783734
336,491,4.81604,-0.722107,0,0,0,0,0,0,0,-1,1560,533,4.81605,0.722115
343,491,6.14478,-1.44281,0,0,0,0,0,0,0,-1,1567,533,6.14474,1.44281
350,491,6.36353,-1.30792,0,0,0,0,0,0,0,-1,1574,533,6.36352,1.3079
357,491,6.69482,-1.06018,0,0,0,0,0,0,0,-1,1581,533,6.69489,1.06018
364,491,8.01086,-1.69604,0,0,0,0,0,0,0,-1,1588,533,8.01087,1.69607
371,491,8.2135,-0.539307,0,0,0,0,0,0,0,-1,1595,533,8.21348,0.53929
378,491,13.3868,1.12128,0,0,0,0,0,0,0,-1,1602,533,13.3869,-1.12126
385,491,8.08228,-4.95471,0,0,0,0,0,0,0,-1,1609,533,8.08227,4.95474
392,491,2.88721,-4.30988,0,0,0,0,0,0,0,-1,1616,533,2.88716,4.30986
399,491,7.08691,-4.86603,0,0,0,0,0,0,0,-1,1623,533,7.08696,4.86606
406,491,5.62842,-4.76996,0,0,0,0,0,0,0,-1,1630,533,5.62843,4.76998
413,491,5.31848,-3.7124,0,0,0,0,0,0,0,-1,1637,533,5.31849,3.7124
420,491,4.86389,-3.95892,0,0,0,0,0,0,0,-1,1644,533,4.86387,3.95893
427,491,5.08826,-4.98364,0,0,0,0,0,0,0,-1,1651,533,5.08829,4.98363
434,491,5.04114,-4.85425,-0.00367905,-0.00294538,-0.00709539,0.00379265,-0.0104171,-0.811225,0.00849597,0.0375535,1658,533,5.04111,4.85423
441,491,4.90747,-4.71106,-0.0029011,-0.00133473,-0.00535081,0.00328991,-0.00752574,-0.858066,0.00640206,0.0236466,1665,533,4.90746,4.71109
448,491,4.87817,-4.47845,-0.00207801,0.000140124,-0.00388864,0.00307476,-0.00501265,-0.924314,0.00471374,0.0124438,1672,533,4.87815,4.47843
455,491,4.85913,-4.29663,-0.00122277,0.000711434,-0.00259995,0.00251832,-0.00302966,-0.963454,0.00320766,0.0111687,1679,533,4.85916,4.29663
462,491,4.85547,-4.12683,-0.000434742,0.00103469,-0.00149655,0.00196715,-0.0013672,-1.01358,0.00193545,0.0151806,1686,533,4.85549,4.12684
469,491,4.85083,-3.96014,5.81497e-05,0.000967637,-0.000884115,0.0015071,-0.000481316,-1.02293,0.00119785,0.0145951,1693,533,4.85082,3.96013
476,491,4.86816,-3.77106,0.000278085,0.000709624,-0.000629017,0.00115885,-0.000171141,-0.950623,0.000835477,0.0103328,1700,533,4.86817,3.77105
483,491,4.87231,-3.55157,0.000255318,0.000490315,-0.000567175,0.000952034,-0.000206401,-0.887536,0.000713511,0.0113873,1707,533,4.87233,3.55156
490,491,4.87329,-3.40094,-6.23013e-05,0.000216495,-0.000518606,0.000614111,-0.000459917,-0.916692,0.000622217,0.00987316,1714,533,4.87331,3.40097
497,491,4.87036,-3.23956,-0.00103055,0.000341714,-0.000470704,0.000487651,-0.00117648,-1.27015,0.000987845,0.0113449,1721,533,4.87033,3.23955
504,491,4.87231,-3.05359,-0.00238225,0.00112019,-0.000436176,0.00117369,-0.00243576,-1.44874,0.00212595,0.012779,1728,533,4.87229,3.05357
511,491,4.86365,-2.83868,-0.00385599,0.00184402,-0.000321558,0.0018621,-0.00387408,-1.51462,0.00337901,0.011827,1735,533,4.86359,2.8387
518,491,4.87366,-2.66003,-0.0054982,0.00325236,0.000131361,0.00325433,-0.00550017,1.55579,0.00510955,0.00953823,1742,533,4.8736,2.66005
525,491,4.88049,-2.47522,-0.00760995,0.0051256,0.000630529,0.00515674,-0.00764109,1.52145,0.00743509,0.0090546,1749,533,4.88053,2.47521
532,491,4.90356,-2.28735,-0.00997602,0.00791343,0.00155256,0.00804717,-0.0101098,1.48487,0.0105054,0.0147575,1756,533,4.90357,2.28736
539,491,4.87195,-2.14282,-0.0123741,0.0117852,0.00302826,0.012159,-0.0127479,1.44798,0.0143814,0.0230031,1763,533,4.87189,2.14283
546,491,4.44067,-1.55798,-0.0146118,0.0165962,0.00498013,0.0173716,-0.0153872,1.41633,0.0189249,0.034174,1770,533,4.44073,1.55801
553,491,3.96887,-0.5849,-0.0164448,0.0223816,0.00753934,0.0237942,-0.0178574,1.38558,0.0241289,0.044389,1777,533,3.96892,0.584906
560,491,3.61438,0.187805,0,0,0,0,0,0,0,-1,1784,533,3.61437,-0.18783
567,491,5.67651,-1.3562,0,0,0,0,0,0,0,-1,1791,533,5.67649,1.3562
574,491,8.0719,1.58325,0,0,0,0,0,0,0,-1,1798,533,8.07195,-1.58326
581,491,9.44812,1.60931,0,0,0,0,0,0,0,-1,1805,533,9.44808,-1.60933
588,491,11.0497,1.54962,0,0,0,0,0,0,0,-1,1812,533,11.0496,-1.54963
595,491,0,0,0,0,0,0,0,0,0,-1,1819,533,0,0
602,491,0,0,0,0,0,0,0,0,0,-1,1826,533,0,0
609,491,0,0,0,0,0,0,0,0,0,-1,1833,533,0,0
616,491,0,0,0,0,0,0,0,0,0,-1,1840,533,0,0
623,491,0,0,0,0,0,0,0,0,0,-1,1847,533,0,0
630,491,0,0,0,0,0,0,0,0,0,-1,1854,533,0,0
637,491,0,0,0,0,0,0,0,0,0,-1,1861,533,0,0
644,491,0,0,0,0,0,0,0,0,0,-1,1868,533,0,0
651,491,0,0,0,0,0,0,0,0,0,-1,1875,533,0,0
658,491,0,0,0,0,0,0,0,0,0,-1,1882,533,0,0
665,491,0,0,0,0,0,0,0,0,0,-1,1889,533,0,0
672,491,0,0,0,0,0,0,0,0,0,-1,1896,533,0,0
679,491,0,0,0,0,0,0,0,0,0,-1,1903,533,0,0
686,491,0,0,0,0,0,0,0,0,0,-1,1910,533,0,0
693,491,0,0,0,0,0,0,0,0,0,-1,1917,533,0,0
700,491,0,0,0,0,0,0,0,0,0,-1,1924,533,0,0
707,491,0,0,0,0,0,0,0,0,0,-1,1931,533,0,0
714,491,0,0,0,0,0,0,0,0,0,-1,1938,533,0,0
721,491,0,0,0,0,0,0,0,0,0,-1,1945,533,0,0
728,491,0,0,0,0,0,0,0,0,0,-1,1952,533,0,0
735,491,0,0,0,0,0,0,0,0,0,-1,1959,533,0,0
742,491,0,0,0,0,0,0,0,0,0,-1,1966,533,0,0
749,491,0,0,0,0,0,0,0,0,0,-1,1973,533,0,0
756,491,0,0,0,0,0,0,0,0,0,-1,1980,533,0,0
763,491,0,0,0,0,0,0,0,0,0,-1,1987,533,0,0
770,491,0,0,0,0,0,0,0,0,0,-1,1994,533,0,0
777,491,0,0,0,0,0,0,0,0,0,-1,2001,533,0,0
784,491,0,0,0,0,0,0,0,0,0,-1,2008,533,0,0
791,491,0,0,0,0,0,0,0,0,0,-1,2015,533,0,0
798,491,0,0,0,0,0,0,0,0,0,-1,2022,533,0,0
805,491,0,0,0,0,0,0,0,0,0,-1,2029,533,0,0
812,491,0,0,0,0,0,0,0,0,0,-1,2036,533,0,0
-700,484,0,0,0,0,0,0,0,0,0,-1,524,540,0,0
-693,484,0,0,0,0,0,0,0,0,0,-1,531,540,0,0
-686,484,0,0,0,0,0,0,0,0,0,-1,538,540,0,0
-679,484,0,0,0,0,0,0,0,0,0,-1,545,540,0,0
-672,484,0,0,0,0,0,0,0,0,0,-1,552,540,0,0
-665,484,0,0,0,0,0,0,0,0,0,-1,559,540,0,0
-658,484,0,0,0,0,0,0,0,0,0,-1,566,540,0,0
-651,484,0,0,0,0,0,0,0,0,0,-1,573,540,0,0
-644,484,0,0,0,0,0,0,0,0,0,-1,580,540,0,0
-637,484,0,0,0,0,0,0,0,0,0,-1,587,540,0,0
-630,484,0,0,0,0,0,0,0,0,0,-1,594,540,0,0
-623,484,0,0,0,0,0,0,0,0,0,-1,601,540,0,0
-616,484,0,0,0,0,0,0,0,0,0,-1,608,540,0,0
-609,484,0,0,0,0,0,0,0,0,0,-1,615,540,0,0
-602,484,0,0,0,0,0,0,0,0,0,-1,622,540,0,0
-595,484,0,0,0,0,0,0,0,0,0,-1,629,540,0,0
-588,484,0,0,0,0,0,0,0,0,0,-1,636,540,0,0
-581,484,0,0,0,0,0,0,0,0,0,-1,643,540,0,0
-574,484,0,0,0,0,0,0,0,0,0,-1,650,540,0,0
-567,484,0,0,0,0,0,0,0,0,0,-1,657,540,0,0
-560,484,0,0,0,0,0,0,0,0,0,-1,664,540,0,0
-553,484,0,0,0,0,0,0,0,0,0,-1,671,540,0,0
-546,484,0,0,0,0,0,0,0,0,0,-1,678,540,0,0
-539,484,0,0,0,0,0,0,0,0,0,-1,685,540,0,0
-532,484,0,0,0,0,0,0,0,0,0,-1,692,540,0,0
-525,484,0,0,0,0,0,0,0,0,0,-1,699,540,0,0
-518,484,0,0,0,0,0,0,0,0,0,-1,706,540,0,0
-511,484,0,0,0,0,0,0,0,0,0,-1,713,540,0,0
-504,484,0,0,0,0,0,0,0,0,0,-1,720,540,0,0
-497,484,0,0,0,0,0,0,0,0,0,-1,727,540,0,0
-490,484,0,0,0,0,0,0,0,0,0,-1,734,540,0,0
-483,484,0,0,0,0,0,0,0,0,0,-1,741,540,0,0
-476,484,-6.51776,4.0459,0,0,0,0,0,0,0,-1,748,540,-6.51775,-4.04591
-469,484,-5.76086,2.32959,0,0,0,0,0,0,0,-1,755,540,-5.76085,-2.32958
-462,484,-4.99866,0.658569,0,0,0,0,0,0,0,-1,762,540,-4.99868,-0.658599
-455,484,-3.6897,-0.426514,0,0,0,0,0,0,0,-1,769,540,-3.68968,0.426518
-448,484,-1.71118,-0.106445,0,0,0,0,0,0,0,-1,776,540,-1.71121,0.106458
-441,484,-1.37714,-1.07849,0.0186682,0.0521662,-0.0198201,0.0613665,0.00946795,-1.1362,0.0381487,0.0488802,783,540,-1.37713,1.07848
-434,484,-0.984192,-1.75256,0.0124485,0.04114,-0.0139614,0.0468123,0.00677619,-1.18489,0.0292126,0.0458825,790,540,-0.984171,1.75254
-427,484,-0.688843,-2.50824,0.00810587,0.031501,-0.00954432,0.0349007,0.00470618,-1.22861,0.0218679,0.0414727,797,540,-0.688839,2.50827
-420,484,-0.663879,-3.24786,0.00504834,0.0234775,-0.00618005,0.025358,0.0031678,-1.27541,0.0159546,0.0331637,804,540,-0.663883,3.24786
-413,484,-0.644531,-3.44049,0.00295665,0.017163,-0.00381044,0.0181205,0.00199914,-1.32461,0.0114721,0.0188807,811,540,-0.644559,3.4405
-406,484,-0.622253,-3.64984,0.00170225,0.0121297,-0.00225207,0.0125953,0.00123664,-1.36692,0.00801652,0.0112603,818,540,-0.622276,3.64982
-399,484,-0.630127,-3.83063,0.00108734,0.00822248,-0.00126629,0.00844055,0.000869275,-1.40026,0.00536082,0.0149684,825,540,-0.630135,3.83065
-392,484,-0.638,-3.98706,0.000837657,0.00528992,-0.0006886,0.00539399,0.000733589,-1.4208,0.00337812,0.0167023,832,540,-0.637991,3.98706
-385,484,-0.655945,-4.15649,0.00049236,0.00265625,-4.05642e-05,0.00265701,0.0004916,-1.55206,0.00163234,0.0116569,839,540,-0.655962,4.15649
-378,484,-0.651123,-4.32245,0.000308962,0.000869193,0.000182287,0.000923283,0.000254872,1.28234,0.000550593,0.0131383,846,540,-0.651133,4.32246
-371,484,-0.645203,-4.48816,0.000411425,0.000286338,-8.41394e-07,0.000411431,0.000286333,-0.00672606,0.000243544,0.0152639,853,540,-0.645183,4.48818
-364,484,-0.665649,-4.64874,0.000500741,0.000159248,-0.000222737,0.000610647,4.93415e-05,-0.458382,0.000391688,0.0116062,860,540,-0.665667,4.64875
-357,484,-0.662659,-4.82953,0.000396212,0.000184621,-0.000438459,0.000741459,-0.000160626,-0.667016,0.000555642,0.0122998,867,540,-0.662631,4.82951
-350,484,-0.655884,-4.97327,6.88998e-05,0.000450765,-0.000534035,0.000826973,-0.000307309,-0.957081,0.0006774,0.0124107,874,540,-0.655896,4.97329
-343,484,-0.638367,-5.13049,-0.000424572,0.000773754,-0.000532201,0.000975986,-0.000626805,-1.20766,0.000932663,0.0193745,881,540,-0.63834,5.13048
-336,484,-0.616577,-5.30988,-0.00107417,0.00116414,-0.000509159,0.00127452,-0.00118454,-1.35731,0.00142006,0.0244335,888,540,-0.616563,5.30987
-329,484,-0.591675,-5.46222,-0.00177215,0.00168008,-0.000479267,0.00174538,-0.00183745,-1.43538,0.00206877,0.0290305,895,540,-0.591669,5.46225
-322,484,-0.518982,-5.67786,-0.00227432,0.00195006,-0.000499747,0.00200838,-0.00233263,-1.45463,0.00250861,0.0326838,902,540,-0.518992,5.67788
-315,484,-0.600891,-5.78033,-0.0027113,0.00239229,-0.000345843,0.00241562,-0.00273463,-1.50344,0.0029754,0.0360689,909,540,-0.600898,5.78036
-308,484,-0.293518,-6.00195,0,0,0,0,0,0,0,-1,916,540,-0.293494,6.00197
-301,484,-0.413025,-4.94653,0,0,0,0,0,0,0,-1,923,540,-0.413034,4.94656
-294,484,-0.860168,-6.3125,0,0,0,0,0,0,0,-1,930,540,-0.86019,6.31251
-287,484,-0.715759,-5.62103,0,0,0,0,0,0,0,-1,937,540,-0.715772,5.62105
-280,484,2.66742,-1.6795,0,0,0,0,0,0,0,-1,944,540,2.6674,1.67949
-273,484,2.53125,-2.22296,0,0,0,0,0,0,0,-1,951,540,2.53128,2.22295
-266,484,2.6778,-2.72058,0,0,0,0,0,0,0,-1,958,540,2.6778,2.72061
-259,484,2.41718,-2.59894,0,0,0,0,0,0,0,-1,965,540,2.41717,2.59892
-252,484,10.6069,-11.696,0,0,0,0,0,0,0,-1,972,540,10.6069,11.696
-245,484,8.0415,-9.22931,0,0,0,0,0,0,0,-1,979,540,8.0415,9.2293
-238,484,5.56836,-6.82672,0,0,0,0,0,0,0,-1,986,540,5.56834,6.82672
-231,484,3.39185,-3.8576,0,0,0,0,0,0,0,-1,993,540,3.39183,3.85763
-224,484,1.14313,-1.21228,0,0,0,0,0,0,0,-1,1000,540,1.14312,1.21226
-217,484,-0.745056,1.17358,0,0,0,0,0,0,0,-1,1007,540,-0.745043,-1.17359
-210,484,0,0,0,0,0,0,0,0,0,-1,1014,540,0,0
-203,484,0,0,0,0,0,0,0,0,0,-1,1021,540,0,0
-196,484,0,0,0,0,0,0,0,0,0,-1,1028,540,0,0
-189,484,0,0,0,0,0,0,0,0,0,-1,1035,540,0,0
-182,484,0,0,0,0,0,0,0,0,0,-1,1042,540,0,0
-175,484,0,0,0,0,0,0,0,0,0,-1,1049,540,0,0
-168,484,0,0,0,0,0,0,0,0,0,-1,1056,540,0,0
-161,484,0,0,0,0,0,0,0,0,0,-1,1063,540,0,0
-154,484,0,0,0,0,0,0,0,0,0,-1,1070,540,0,0
-147,484,0,0,0,0,0,0,0,0,0,-1,1077,540,0,0
-140,484,0,0,0,0,0,0,0,0,0,-1,1084,540,0,0
-133,484,0,0,0,0,0,0,0,0,0,-1,1091,540,0,0
-126,484,0,0,0,0,0,0,0,0,0,-1,1098,540,0,0
-119,484,0,0,0,0,0,0,0,0,0,-1,1105,540,0,0
-112,484,0,0,0,0,0,0,0,0,0,-1,1112,540,0,0
-105,484,0,0,0,0,0,0,0,0,0,-1,1119,540,0,0
-98,484,0,0,0,0,0,0,0,0,0,-1,1126,540,0,0
-91,484,0,0,0,0,0,0,0,0,0,-1,1133,540,0,0
-84,484,0,0,0,0,0,0,0,0,0,-1,1140,540,0,0
-77,484,0,0,0,0,0,0,0,0,0,-1,1147,540,0,0
-70,484,0,0,0,0,0,0,0,0,0,-1,1154,540,0,0
-63,484,0,0,0,0,0,0,0,0,0,-1,1161,540,0,0
-56,484,0,0,0,0,0,0,0,0,0,-1,1168,540,0,0
-49,484,0,0,0,0,0,0,0,0,0,-1,1175,540,0,0
-42,484,0,0,0,0,0,0,0,0,0,-1,1182,540,0,0
-35,484,0,0,0,0,0,0,0,0,0,-1,1189,540,0,0
-28,484,0,0,0,0,0,0,0,0,0,-1,1196,540,0,0
-21,484,0,0,0,0,0,0,0,0,0,-1,1203,540,0,0
-14,484,0,0,0,0,0,0,0,0,0,-1,1210,540,0,0
-7,484,0,0,0,0,0,0,0,0,0,-1,1217,540,0,0
0,484,0,0,0,0,0,0,0,0,0,-1,1224,540,0,0
7,484,0,0,0,0,0,0,0,0,0,-1,1231,540,0,0
14,484,0,0,0,0,0,0,0,0,0,-1,1238,540,0,0
21,484,0,0,0,0,0,0,0,0,0,-1,1245,540,0,0
28,484,0,0,0,0,0,0,0,0,0,-1,1252,540,0,0
35,484,0,0,0,0,0,0,0,0,0,-1,1259,540,0,0
42,484,0,0,0,0,0,0,0,0,0,-1,1266,540,0,0
49,484,0,0,0,0,0,0,0,0,0,-1,1273,540,0,0
56,484,0,0,0,0,0,0,0,0,0,-1,1280,540,0,0
63,484,0,0,0,0,0,0,0,0,0,-1,1287,540,0,0
70,484,0,0,0,0,0,0,0,0,0,-1,1294,540,0,0
77,484,0,0,0,0,0,0,0,0,0,-1,1301,540,0,0
84,484,0,0,0,0,0,0,0,0,0,-1,1308,540,0,0
91,484,0,0,0,0,0,0,0,0,0,-1,1315,540,0,0
98,484,0,0,0,0,0,0,0,0,0,-1,1322,540,0,0
105,484,0,0,0,0,0,0,0,0,0,-1,1329,540,0,0
112,484,0,0,0,0,0,0,0,0,0,-1,1336,540,0,0
119,484,0,0,0,0,0,0,0,0,0,-1,1343,540,0,0
126,484,0,0,0,0,0,0,0,0,0,-1,1350,540,0,0
133,484,0,0,0,0,0,0,0,0,0,-1,1357,540,0,0
140,484,0,0,0,0,0,0,0,0,0,-1,1364,540,0,0
147,484,0,0,0,0,0,0,0,0,0,-1,1371,540,0,0
154,484,0,0,0,0,0,0,0,0,0,-1,1378,540,0,0
161,484,0,0,0,0,0,0,0,0,0,-1,1385,540,0,0
168,484,0,0,0,0,0,0,0,0,0,-1,1392,540,0,0
175,484,0,0,0,0,0,0,0,0,0,-1,1399,540,0,0
182,484,0,0,0,0,0,0,0,0,0,-1,1406,540,0,0
189,484,0,0,0,0,0,0,0,0,0,-1,1413,540,0,0
196,484,0,0,0,0,0,0,0,0,0,-1,1420,540,0,0
203,484,0,0,0,0,0,0,0,0,0,-1,1427,540,0,0
210,484,0,0,0,0,0,0,0,0,0,-1,1434,540,0,0
217,484,0,0,0,0,0,0,0,0,0,-1,1441,540,0,0
224,484,0,0,0,0,0,0,0,0,0,-1,1448,540,0,0
231,484,0,0,0,0,0,0,0,0,0,-1,1455,540,0,0
238,484,0,0,0,0,0,0,0,0,0,-1,1462,540,0,0
245,484,0,0,0,0,0,0,0,0,0,-1,1469,540,0,0
252,484,0,0,0,0,0,0,0,0,0,-1,1476,540,0,0
259,484,0,0,0,0,0,0,0,0,0,-1,1483,540,0,0
266,484,0,0,0,0,0,0,0,0,0,-1,1490,540,0,0
273,484,0,0,0,0,0,0,0,0,0,-1,1497,540,0,0
280,484,0,0,0,0,0,0,0,0,0,-1,1504,540,0,0
287,484,0,0,0,0,0,0,0,0,0,-1,1511,540,0,0
294,484,0,0,0,0,0,0,0,0,0,-1,1518,540,0,0
301,484,0,0,0,0,0,0,0,0,0,-1,1525,540,0,0
308,484,0,0,0,0,0,0,0,0,0,-1,1532,540,0,0
315,484,0,0,0,0,0,0,0,0,0,-1,1539,540,0,0
322,484,0,0,0,0,0,0,0,0,0,-1,1546,540,0,0
329,484,0,0,0,0,0,0,0,0,0,-1,1553,540,0,0
336,484,4.38708,-1.64136,0,0,0,0,0,0,0,-1,1560,540,4.38704,1.64138
343,484,7.57996,-1.05457,0,0,0,0,0,0,0,-1,1567,540,7.57995,1.05454
350,484,8.10425,-1.18878,0,0,0,0,0,0,0,-1,1574,540,8.1043,1.18877
357,484,7.74902,-3.80286,0,0,0,0,0,0,0,-1,1581,540,7.74901,3.80287
364,484,6.31262,-3.87213,0,0,0,0,0,0,0,-1,1588,540,6.31263,3.87215
371,484,8.71362,0.452087,0,0,0,0,0,0,0,-1,1595,540,8.71363,-0.452062
378,484,11.5304,1.16388,0,0,0,0,0,0,0,-1,1602,540,11.5304,-1.16387
385,484,14.3472,1.87567,0,0,0,0,0,0,0,-1,1609,540,14.3471,-1.87567
392,484,7.39453,-4.95026,0,0,0,0,0,0,0,-1,1616,540,7.39448,4.95023
399,484,7.14417,-2.5639,0,0,0,0,0,0,0,-1,1623,540,7.14417,2.56391
406,484,7.88953,-2.47321,0,0,0,0,0,0,0,-1,1630,540,7.88954,2.47323
413,484,4.4895,-1.08673,0,0,0,0,0,0,0,-1,1637,540,4.48952,1.08674
420,484,4.50012,-2.11255,0,0,0,0,0,0,0,-1,1644,540,4.50012,2.11256
427,484,5.28601,-3.54053,0,0,0,0,0,0,0,-1,1651,540,5.28599,3.54051
434,484,5.50513,-4.87305,0,0,0,0,0,0,0,-1,1658,540,5.50517,4.87306
441,484,5.21252,-4.78473,0,0,0,0,0,0,0,-1,1665,540,5.21256,4.78475
448,484,5.05664,-4.46637,-0.00230478,0.000236013,-0.00479714,0.00392812,-0.00599689,-0.914839,0.00577155,0.0400402,1672,540,5.05666,4.46634
455,484,5.01367,-4.29065,-0.00123108,0.00086613,-0.00321091,0.00319532,-0.00356027,-0.943227,0.00390224,0.0198249,1679,540,5.01363,4.29068
462,484,5.04187,-4.11688,-0.000334393,0.00116353,-0.0018253,0.00238755,-0.00155841,-0.980085,0.00229491,0.0148668,1686,540,5.04186,4.1169
469,484,5.05676,-3.96002,0.000323333,0.0012013,-0.000999394,0.00185387,-0.00032924,-0.992337,0.00135902,0.0167596,1693,540,5.05672,3.96005
476,484,5.04395,-3.77893,0.000704515,0.00104161,-0.00058708,0.00148386,0.000262267,-0.925186,0.00091444,0.0141233,1700,540,5.04389,3.77895
483,484,5.05457,-3.57495,0.000828207,0.000838782,-0.000363795,0.00119733,0.000469661,-0.792665,0.000696607,0.0113495,1707,540,5.05452,3.57495
490,484,5.06628,-3.40845,0.000707741,0.000614672,-0.000209046,0.00087537,0.000447044,-0.675882,0.000505433,0.0115059,1714,540,5.06634,3.40844
497,484,5.05359,-3.24298,3.13181e-05,0.000643696,-0.000119303,0.000666118,8.89669e-06,-1.38503,0.000441143,0.0122772,1721,540,5.05357,3.24299
504,484,5.05725,-3.05103,-0.0010292,0.00126793,-4.41835e-05,0.00126877,-0.00103004,-1.55157,0.00132961,0.0150499,1728,540,5.05728,3.05103
511,484,5.06592,-2.85797,-0.00221062,0.00189832,0.000121801,0.00190193,-0.00221422,1.54119,0.00237874,0.0180223,1735,540,5.06586,2.85796
518,484,5.06445,-2.67102,-0.00354597,0.0031179,0.000549299,0.00316287,-0.00359095,1.4891,0.00390193,0.0153729,1742,540,5.06441,2.67099
525,484,5.07788,-2.47052,-0.00522608,0.00465987,0.000978498,0.00475579,-0.005322,1.47308,0.00582147,0.0130787,1749,540,5.07792,2.47052
532,484,5.09448,-2.25964,-0.00706879,0.00694532,0.00170869,0.00715065,-0.00727412,1.4512,0.00832824,0.0141996,1756,540,5.09453,2.25966
539,484,5.07214,-2.04706,-0.00886159,0.0099589,0.00282856,0.0103748,-0.00927751,1.4248,0.0113522,0.0196584,1763,540,5.07212,2.04706
546,484,4.99121,-1.86633,-0.0104047,0.0136256,0.00430929,0.014375,-0.0111541,1.39861,0.0147783,0.0211377,1770,540,4.99116,1.86635
553,484,4.63892,-1.21832,-0.0116286,0.0178152,0.00611563,0.0190349,-0.0128484,1.37394,0.018523,0.0340019,1777,540,4.63889,1.21834
560,484,4.35461,-0.626221,0,0,0,0,0,0,0,-1,1784,540,4.35462,0.626212
567,484,5.95471,-0.74231,0,0,0,0,0,0,0,-1,1791,540,5.95476,0.742329
574,484,5.74463,1.50922,0,0,0,0,0,0,0,-1,1798,540,5.74463,-1.50924
581,484,10.34,2.9491,0,0,0,0,0,0,0,-1,1805,540,10.34,-2.94912
588,484,10.6669,2.88568,0,0,0,0,0,0,0,-1,1812,540,10.6669,-2.88567
595,484,10.7233,1.04767,0,0,0,0,0,0,0,-1,1819,540,10.7233,-1.04766
602,484,0,0,0,0,0,0,0,0,0,-1,1826,540,0,0
609,484,0,0,0,0,0,0,0,0,0,-1,1833,540,0,0
616,484,0,0,0,0,0,0,0,0,0,-1,1840,540,0,0
623,484,0,0,0,0,0,0,0,0,0,-1,1847,540,0,0
630,484,0,0,0,0,0,0,0,0,0,-1,1854,540,0,0
637,484,0,0,0,0,0,0,0,0,0,-1,1861,540,0,0
644,484,0,0,0,0,0,0,0,0,0,-1,1868,540,0,0
651,484,0,0,0,0,0,0,0,0,0,-1,1875,540,0,0
658,484,0,0,0,0,0,0,0,0,0,-1,1882,540,0,0
665,484,0,0,0,0,0,0,0,0,0,-1,1889,540,0,0
672,484,0,0,0,0,0,0,0,0,0,-1,1896,540,0,0
679,484,0,0,0,0,0,0,0,0,0,-1,1903,540,0,0
686,484,0,0,0,0,0,0,0,0,0,-1,1910,540,0,0
693,484,0,0,0,0,0,0,0,0,0,-1,1917,540,0,0
700,484,0,0,0,0,0,0,0,0,0,-1,1924,540,0,0
707,484,0,0,0,0,0,0,0,0,0,-1,1931,540,0,0
714,484,0,0,0,0,0,0,0,0,0,-1,1938,540,0,0
721,484,0,0,0,0,0,0,0,0,0,-1,1945,540,0,0
728,484,0,0,0,0,0,0,0,0,0,-1,1952,540,0,0
735,484,0,0,0,0,0,0,0,0,0,-1,1959,540,0,0
742,484,0,0,0,0,0,0,0,0,0,-1,1966,540,0,0
749,484,0,0,0,0,0,0,0,0,0,-1,1973,540,0,0
756,484,0,0,0,0,0,0,0,0,0,-1,1980,540,0,0
763,484,0,0,0,0,0,0,0,0,0,-1,1987,540,0,0
770,484,0,0,0,0,0,0,0,0,0,-1,1994,540,0,0
777,484,0,0,0,0,0,0,0,0,0,-1,2001,540,0,0
784,484,0,0,0,0,0,0,0,0,0,-1,2008,540,0,0
791,484,0,0,0,0,0,0,0,0,0,-1,2015,540,0,0
798,484,0,0,0,0,0,0,0,0,0,-1,2022,540,0,0
805,484,0,0,0,0,0,0,0,0,0,-1,2029,540,0,0
812,484,0,0,0,0,0,0,0,0,0,-1,2036,540,0,0
-700,477,0,0,0,0,0,0,0,0,0,-1,524,547,0,0
-693,477,0,0,0,0,0,0,0,0,0,-1,531,547,0,0
-686,477,0,0,0,0,0,0,0,0,0,-1,538,547,0,0
-679,477,0,0,0,0,0,0,0,0,0,-1,545,547,0,0
-672,477,0,0,0,0,0,0,0,0,0,-1,552,547,0,0
-665,477,0,0,0,0,0,0,0,0,0,-1,559,547,0,0
-658,477,0,0,0,0,0,0,0,0,0,-1,566,547,0,0
-651,477,0,0,0,0,0,0,0,0,0,-1,573,547,0,0
-644,477,0,0,0,0,0,0,0,0,0,-1,580,547,0,0
-637,477,0,0,0,0,0,0,0,0,0,-1,587,547,0,0
-630,477,0,0,0,0,0,0,0,0,0,-1,594,547,0,0
-623,477,0,0,0,0,0,0,0,0,0,-1,601,547,0,0
-616,477,0,0,0,0,0,0,0,0,0,-1,608,547,0,0
-609,477,0,0,0,0,0,0,0,0,0,-1,615,547,0,0
-602,477,0,0,0,0,0,0,0,0,0,-1,622,547,0,0
-595,477,0,0,0,0,0,0,0,0,0,-1,629,547,0,0
-588,477,0,0,0,0,0,0,0,0,0,-1,636,547,0,0
-581,477,0,0,0,0,0,0,0,0,0,-1,643,547,0,0
-574,477,0,0,0,0,0,0,0,0,0,-1,650,547,0,0
-567,477,0,0,0,0,0,0,0,0,0,-1,657,547,0,0
-560,477,0,0,0,0,0,0,0,0,0,-1,664,547,0,0
-553,477,0,0,0,0,0,0,0,0,0,-1,671,547,0,0
-546,477,0,0,0,0,0,0,0,0,0,-1,678,547,0,0
-539,477,0,0,0,0,0,0,0,0,0,-1,685,547,0,0
-532,477,0,0,0,0,0,0,0,0,0,-1,692,547,0,0
-525,477,0,0,0,0,0,0,0,0,0,-1,699,547,0,0
-518,477,0,0,0,0,0,0,0,0,0,-1,706,547,0,0
-511,477,0,0,0,0,0,0,0,0,0,-1,713,547,0,0
-504,477,0,0,0,0,0,0,0,0,0,-1,720,547,0,0
-497,477,0,0,0,0,0,0,0,0,0,-1,727,547,0,0
-490,477,0,0,0,0,0,0,0,0,0,-1,734,547,0,0
-483,477,-8.76355,6.08942,0,0,0,0,0,0,0,-1,741,547,-8.76358,-6.08941
-476,477,-7.86566,4.09344,0,0,0,0,0,0,0,-1,748,547,-7.86566,-4.09347
-469,477,-6.896,2.16138,0,0,0,0,0,0,0,-1,755,547,-6.896,-2.1614
-462,477,-5.93616,0.204834,0,0,0,0,0,0,0,-1,762,547,-5.93614,-0.204811
-455,477,-4.5426,-1.98047,0,0,0,0,0,0,0,-1,769,547,-4.54257,1.9805
-448,477,-3.32806,-4.05328,0,0,0,0,0,0,0,-1,776,547,-3.32808,4.05326
-441,477,-1.17731,-2.58813,0,0,0,0,0,0,0,-1,783,547,-1.17734,2.58811
-434,477,-0.983276,-2.84119,0.0115935,0.0336133,-0.0125895,0.0393281,0.00587873,-1.14468,0.0244954,0.0387462,790,547,-0.983285,2.84118
-427,477,-0.78717,-3.0755,0.00784172,0.0259181,-0.00887537,0.0295472,0.00421259,-1.18264,0.0184549,0.0211505,797,547,-0.787182,3.07547
-420,477,-0.8349,-3.22083,0.00507756,0.0194276,-0.00594102,0.021568,0.00293719,-1.225,0.0135065,0.0182003,804,547,-0.834916,3.22081
-413,477,-0.826599,-3.42639,0.003116,0.0142785,-0.00378937,0.0154433,0.00195117,-1.27257,0.00971074,0.0157153,811,547,-0.826573,3.42641
-406,477,-0.817261,-3.62732,0.0020272,0.0101131,-0.00229961,0.0107214,0.00141895,-1.31222,0.00672468,0.0104965,818,547,-0.817243,3.62733
-399,477,-0.807068,-3.82648,0.00154542,0.00676248,-0.00124883,0.00704601,0.00126189,-1.34754,0.00433832,0.0164436,825,547,-0.807082,3.82649
-392,477,-0.817932,-3.98553,0.00137849,0.00421967,-0.000526569,0.00431412,0.00128404,-1.39331,0.00255785,0.0161734,832,547,-0.817947,3.98554
-385,477,-0.821289,-4.13586,0.00120034,0.00194144,0.000229453,0.00200673,0.00113505,1.29358,0.00116191,0.0137271,839,547,-0.821306,4.13588
-378,477,-0.809265,-4.31067,0.00115755,0.000375863,0.000618822,0.00149862,3.47923e-05,0.503734,0.000987689,0.0126423,846,547,-0.809258,4.31065
-371,477,-0.827209,-4.4671,0.00126134,-7.99575e-05,0.000661844,0.00153293,-0.000351544,0.389396,0.00115707,0.0128965,853,547,-0.827202,4.46708
-364,477,-0.852234,-4.62219,0.00140043,-0.000170867,0.000637693,0.00162665,-0.000397096,0.340911,0.00123821,0.0129482,860,547,-0.852237,4.62221
-357,477,-0.847595,-4.80048,0.00137738,-9.98779e-05,0.000594741,0.00158706,-0.000309558,0.33895,0.0011749,0.0106297,867,547,-0.847621,4.80048
-350,477,-0.836182,-4.95795,0.0011054,0.000175347,0.000619978,0.00141537,-0.000134626,0.463626,0.000991507,0.00919192,874,547,-0.836178,4.95793
-343,477,-0.786316,-5.13031,0.000577492,0.000522073,0.000694799,0.00124513,-0.000145569,0.765468,0.000882623,0.0169209,881,547,-0.786331,5.13034
-336,477,-0.74176,-5.33411,-0.000236866,0.000983851,0.00074316,0.00133517,-0.000588185,1.1292,0.00113802,0.0259774,888,547,-0.741783,5.33411
-329,477,-0.723022,-5.60492,-0.00122776,0.00162657,0.000764882,0.00181862,-0.00141981,1.3248,0.00187443,0.0420766,895,547,-0.723041,5.60494
-322,477,-1.02966,-5.63794,-0.00207444,0.0020273,0.000674548,0.00213538,-0.00218253,1.41192,0.002493,0.0457309,902,547,-1.02967,5.63797
-315,477,-0.885925,-6.05823,0,0,0,0,0,0,0,-1,909,547,-0.885919,6.05821
-308,477,-1.20197,-5.65668,0,0,0,0,0,0,0,-1,916,547,-1.20199,5.65668
-301,477,-1.21185,-6.28351,0,0,0,0,0,0,0,-1,923,547,-1.21184,6.28352
-294,477,-0.352905,3.27142,0,0,0,0,0,0,0,-1,930,547,-0.35292,-3.27144
-287,477,3.54364,2.15399,0,0,0,0,0,0,0,-1,937,547,3.54362,-2.15396
-280,477,1.97308,-0.954163,0,0,0,0,0,0,0,-1,944,547,1.9731,0.954178
-273,477,2.11621,-3.76709,0,0,0,0,0,0,0,-1,951,547,2.11619,3.76706
-266,477,2.04669,-3.42389,0,0,0,0,0,0,0,-1,958,547,2.04671,3.42391
-259,477,-1.33478,-3.41205,0,0,0,0,0,0,0,-1,965,547,-1.3348,3.41206
-252,477,0.597168,-5.32922,0,0,0,0,0,0,0,-1,972,547,0.597144,5.32924
-245,477,2.27161,-7.02875,0,0,0,0,0,0,0,-1,979,547,2.27158,7.02873
-238,477,7.29095,-4.50336,0,0,0,0,0,0,0,-1,986,547,7.29093,4.50335
-231,477,4.88141,-2.23413,0,0,0,0,0,0,0,-1,993,547,4.88143,2.23413
-224,477,0,0,0,0,0,0,0,0,0,-1,1000,547,0,0
-217,477,0,0,0,0,0,0,0,0,0,-1,1007,547,0,0
-210,477,0,0,0,0,0,0,0,0,0,-1,1014,547,0,0
-203,477,0,0,0,0,0,0,0,0,0,-1,1021,547,0,0
-196,477,0,0,0,0,0,0,0,0,0,-1,1028,547,0,0
-189,477,0,0,0,0,0,0,0,0,0,-1,1035,547,0,0
-182,477,0,0,0,0,0,0,0,0,0,-1,1042,547,0,0
-175,477,0,0,0,0,0,0,0,0,0,-1,1049,547,0,0
-168,477,0,0,0,0,0,0,0,0,0,-1,1056,547,0,0
-161,477,0,0,0,0,0,0,0,0,0,-1,1063,547,0,0
-154,477,0,0,0,0,0,0,0,0,0,-1,1070,547,0,0
-147,477,0,0,0,0,0,0,0,0,0,-1,1077,547,0,0
-140,477,0,0,0,0,0,0,0,0,0,-1,1084,547,0,0
-133,477,0,0,0,0,0,0,0,0,0,-1,1091,547,0,0
-126,477,0,0,0,0,0,0,0,0,0,-1,1098,547,0,0
-119,477,0,0,0,0,0,0,0,0,0,-1,1105,547,0,0
-112,477,0,0,0,0,0,0,0,0,0,-1,1112,547,0,0
-105,477,0,0,0,0,0,0,0,0,0,-1,1119,547,0,0
-98,477,0,0,0,0,0,0,0,0,0,-1,1126,547,0,0
-91,477,0,0,0,0,0,0,0,0,0,-1,1133,547,0,0
-84,477,0,0,0,0,0,0,0,0,0,-1,1140,547,0,0
-77,477,0,0,0,0,0,0,0,0,0,-1,1147,547,0,0
-70,477,0,0,0,0,0,0,0,0,0,-1,1154,547,0,0
-63,477,0,0,0,0,0,0,0,0,0,-1,1161,547,0,0
-56,477,0,0,0,0,0,0,0,0,0,-1,1168,547,0,0
-49,477,0,0,0,0,0,0,0,0,0,-1,1175,547,0,0
-42,477,0,0,0,0,0,0,0,0,0,-1,1182,547,0,0
-35,477,0,0,0,0,0,0,0,0,0,-1,1189,547,0,0
-28,477,0,0,0,0,0,0,0,0,0,-1,1196,547,0,0
-21,477,0,0,0,0,0,0,0,0,0,-1,1203,547,0,0
-14,477,0,0,0,0,0,0,0,0,0,-1,1210,547,0,0
-7,477,0,0,0,0,0,0,0,0,0,-1,1217,547,0,0
0,477,0,0,0,0,0,0,0,0,0,-1,1224,547,0,0
7,477,0,0,0,0,0,0,0,0,0,-1,1231,547,0,0
14,477,0,0,0,0,0,0,0,0,0,-1,1238,547,0,0
21,477,0,0,0,0,0,0,0,0,0,-1,1245,547,0,0
28,477,0,0,0,0,0,0,0,0,0,-1,1252,547,0,0
35,477,0,0,0,0,0,0,0,0,0,-1,1259,547,0,0
42,477,0,0,0,0,0,0,0,0,0,-1,1266,547,0,0
49,477,0,0,0,0,0,0,0,0,0,-1,1273,547,0,0
56,477,0,0,0,0,0,0,0,0,0,-1,1280,547,0,0
63,477,0,0,0,0,0,0,0,0,0,-1,1287,547,0,0
70,477,0,0,0,0,0,0,0,0,0,-1,1294,547,0,0
77,477,0,0,0,0,0,0,0,0,0,-1,1301,547,0,0
84,477,0,0,0,0,0,0,0,0,0,-1,1308,547,0,0
91,477,0,0,0,0,0,0,0,0,0,-1,1315,547,0,0
98,477,0,0,0,0,0,0,0,0,0,-1,1322,547,0,0
105,477,0,0,0,0,0,0,0,0,0,-1,1329,547,0,0
112,477,0,0,0,0,0,0,0,0,0,-1,1336,547,0,0
119,477,0,0,0,0,0,0,0,0,0,-1,1343,547,0,0
126,477,0,0,0,0,0,0,0,0,0,-1,1350,547,0,0
133,477,0,0,0,0,0,0,0,0,0,-1,1357,547,0,0
140,477,0,0,0,0,0,0,0,0,0,-1,1364,547,0,0
147,477,0,0,0,0,0,0,0,0,0,-1,1371,547,0,0
154,477,0,0,0,0,0,0,0,0,0,-1,1378,547,0,0
161,477,0,0,0,0,0,0,0,0,0,-1,1385,547,0,0
168,477,0,0,0,0,0,0,0,0,0,-1,1392,547,0,0
175,477,0,0,0,0,0,0,0,0,0,-1,1399,547,0,0
182,477,0,0,0,0,0,0,0,0,0,-1,1406,547,0,0
189,477,0,0,0,0,0,0,0,0,0,-1,1413,547,0,0
196,477,0,0,0,0,0,0,0,0,0,-1,1420,547,0,0
203,477,0,0,0,0,0,0,0,0,0,-1,1427,547,0,0
210,477,0,0,0,0,0,0,0,0,0,-1,1434,547,0,0
217,477,0,0,0,0,0,0,0,0,0,-1,1441,547,0,0
224,477,0,0,0,0,0,0,0,0,0,-1,1448,547,0,0
231,477,0,0,0,0,0,0,0,0,0,-1,1455,547,0,0
238,477,0,0,0,0,0,0,0,0,0,-1,1462,547,0,0
245,477,0,0,0,0,0,0,0,0,0,-1,1469,547,0,0
252,477,0,0,0,0,0,0,0,0,0,-1,1476,547,0,0
259,477,0,0,0,0,0,0,0,0,0,-1,1483,547,0,0
266,477,0,0,0,0,0,0,0,0,0,-1,1490,547,0,0
273,477,0,0,0,0,0,0,0,0,0,-1,1497,547,0,0
280,477,0,0,0,0,0,0,0,0,0,-1,1504,547,0,0
287,477,0,0,0,0,0,0,0,0,0,-1,1511,547,0,0
294,477,0,0,0,0,0,0,0,0,0,-1,1518,547,0,0
301,477,0,0,0,0,0,0,0,0,0,-1,1525,547,0,0
308,477,0,0,0,0,0,0,0,0,0,-1,1532,547,0,0
315,477,0,0,0,0,0,0,0,0,0,-1,1539,547,0,0
322,477,0,0,0,0,0,0,0,0,0,-1,1546,547,0,0
329,477,0,0,0,0,0,0,0,0,0,-1,1553,547,0,0
336,477,0,0,0,0,0,0,0,0,0,-1,1560,547,0,0
343,477,0,0,0,0,0,0,0,0,0,-1,1567,547,0,0
350,477,1.7699,-3.32275,0,0,0,0,0,0,0,-1,1574,547,1.7699,3.32272
357,477,3.073,-4.83313,0,0,0,0,0,0,0,-1,1581,547,3.07303,4.83316
364,477,4.30127,-4.22864,0,0,0,0,0,0,0,-1,1588,547,4.30125,4.22865
371,477,6.76746,0.428284,0,0,0,0,0,0,0,-1,1595,547,6.76748,-0.428313
378,477,9.70935,0.88385,0,0,0,0,0,0,0,-1,1602,547,9.7093,-0.883864
385,477,12.6511,1.33942,0,0,0,0,0,0,0,-1,1609,547,12.6511,-1.33941
392,477,11.9564,1.24927,0,0,0,0,0,0,0,-1,1616,547,11.9564,-1.24924
399,477,8.00037,-2.29523,0,0,0,0,0,0,0,-1,1623,547,8.00031,2.2952
406,477,4.82495,2.7475,0,0,0,0,0,0,0,-1,1630,547,4.825,-2.74752
413,477,4.88171,-0.336426,0,0,0,0,0,0,0,-1,1637,547,4.88169,0.336398
420,477,3.34875,0.102722,0,0,0,0,0,0,0,-1,1644,547,3.34871,-0.1027
427,477,1.66772,-0.373108,0,0,0,0,0,0,0,-1,1651,547,1.66768,0.373104
434,477,3.76978,-2.30798,0,0,0,0,0,0,0,-1,1658,547,3.76974,2.30801
441,477,4.05444,-2.80402,0,0,0,0,0,0,0,-1,1665,547,4.05444,2.804
448,477,5.40637,-4.29022,0,0,0,0,0,0,0,-1,1672,547,5.40639,4.29024
455,477,5.32361,-4.26495,-0.00141957,0.00102466,-0.00389196,0.00388186,-0.00427678,-0.937528,0.00471224,0.0468826,1679,547,5.32364,4.26498
462,477,5.26196,-4.19525,-0.00038109,0.00132593,-0.00224726,0.0028763,-0.00193146,-0.966885,0.00279357,0.0335948,1686,547,5.26193,4.19525
469,477,5.25049,-3.94202,0.000477921,0.00146655,-0.00117862,0.00225032,-0.000305847,-0.983957,0.00161186,0.0206243,1693,547,5.25046,3.94202
476,477,5.22729,-3.79413,0.00106476,0.00140251,-0.000566371,0.00182465,0.000642625,-0.930287,0.0010687,0.014882,1700,547,5.22732,3.79412
483,477,5.24634,-3.58606,0.00136684,0.00117225,-0.000158867,0.00145584,0.00108325,-0.510645,0.000873271,0.0105547,1707,547,5.24637,3.58603
490,477,5.24597,-3.40814,0.00146714,0.000947664,8.50181e-05,0.0014807,0.000934104,0.158165,0.000864588,0.0112807,1714,547,5.24597,3.40814
497,477,5.24854,-3.21429,0.00109827,0.000783462,0.000187613,0.00118576,0.000695968,0.436369,0.00068804,0.0125063,1721,547,5.24857,3.21428
504,477,5.24768,-3.02216,0.000311052,0.00112559,0.000277248,0.00121101,0.000225641,1.27195,0.000743624,0.017569,1728,547,5.24764,3.02214
511,477,5.27881,-2.86182,-0.000650449,0.00158424,0.000462795,0.00167629,-0.0007425,1.37446,0.00143076,0.0219753,1735,547,5.27883,2.86183
518,477,5.27112,-2.6734,-0.00178953,0.00254121,0.000818195,0.00269064,-0.00193896,1.39016,0.00268461,0.0190984,1742,547,5.27108,2.67338
525,477,5.27222,-2.45435,-0.00316469,0.00372167,0.00115204,0.00390928,-0.00335231,1.40936,0.00419659,0.0165383,1749,547,5.27224,2.45438
532,477,5.26514,-2.25446,-0.00464624,0.00550646,0.00167408,0.00577537,-0.00491515,1.41152,0.00617883,0.01886,1756,547,5.26509,2.25446
539,477,5.24597,-2.039,-0.00605428,0.00777785,0.00246218,0.00820306,-0.00647949,1.39979,0.00849642,0.0166915,1763,547,5.246,2.03899
546,477,5.24438,-1.89087,-0.00718666,0.0105171,0.00353287,0.011196,-0.00786562,1.38093,0.0110611,0.0185344,1770,547,5.24436,1.89087
553,477,5.24207,-1.68195,-0.00803776,0.0135089,0.0047649,0.0145156,-0.00904445,1.36259,0.0137241,0.0181028,1777,547,5.24211,1.68195
560,477,5.30542,-1.42694,-0.00837103,0.0167229,0.00627539,0.0182047,-0.00985286,1.33891,0.0164365,0.032333,1784,547,5.30542,1.42696
567,477,5.71594,-0.980896,-0.00799428,0.0201277,0.00817868,0.0223333,-0.0101999,1.30738,0.0192135,0.0468978,1791,547,5.71591,0.980886
574,477,5.89197,-0.562988,0,0,0,0,0,0,0,-1,1798,547,5.89194,0.563016
581,477,9.29321,-0.557007,0,0,0,0,0,0,0,-1,1805,547,9.29324,0.55703
588,477,9.75195,0.422729,0,0,0,0,0,0,0,-1,1812,547,9.75198,-0.42273
595,477,9.89172,1.21326,0,0,0,0,0,0,0,-1,1819,547,9.89174,-1.21328
602,477,6.5271,-0.964417,0,0,0,0,0,0,0,-1,1826,547,6.52706,0.964427
609,477,0,0,0,0,0,0,0,0,0,-1,1833,547,0,0
616,477,0,0,0,0,0,0,0,0,0,-1,1840,547,0,0
623,477,0,0,0,0,0,0,0,0,0,-1,1847,547,0,0
630,477,0,0,0,0,0,0,0,0,0,-1,1854,547,0,0
637,477,0,0,0,0,0,0,0,0,0,-1,1861,547,0,0
644,477,0,0,0,0,0,0,0,0,0,-1,1868,547,0,0
651,477,0,0,0,0,0,0,0,0,0,-1,1875,547,0,0
658,477,0,0,0,0,0,0,0,0,0,-1,1882,547,0,0
665,477,0,0,0,0,0,0,0,0,0,-1,1889,547,0,0
672,477,0,0,0,0,0,0,0,0,0,-1,1896,547,0,0
679,477,0,0,0,0,0,0,0,0,0,-1,1903,547,0,0
686,477,0,0,0,0,0,0,0,0,0,-1,1910,547,0,0
693,477,0,0,0,0,0,0,0,0,0,-1,1917,547,0,0
700,477,0,0,0,0,0,0,0,0,0,-1,1924,547,0,0
707,477,0,0,0,0,0,0,0,0,0,-1,1931,547,0,0
714,477,0,0,0,0,0,0,0,0,0,-1,1938,547,0,0
721,477,0,0,0,0,0,0,0,0,0,-1,1945,547,0,0
728,477,0,0,0,0,0,0,0,0,0,-1,1952,547,0,0
735,477,0,0,0,0,0,0,0,0,0,-1,1959,547,0,0
742,477,0,0,0,0,0,0,0,0,0,-1,1966,547,0,0
749,477,0,0,0,0,0,0,0,0,0,-1,1973,547,0,0
756,477,0,0,0,0,0,0,0,0,0,-1,1980,547,0,0
763,477,0,0,0,0,0,0,0,0,0,-1,1987,547,0,0
770,477,0,0,0,0,0,0,0,0,0,-1,1994,547,0,0
777,477,0,0,0,0,0,0,0,0,0,-1,2001,547,0,0
784,477,0,0,0,0,0,0,0,0,0,-1,2008,547,0,0
791,477,0,0,0,0,0,0,0,0,0,-1,2015,547,0,0
798,477,0,0,0,0,0,0,0,0,0,-1,2022,547,0,0
805,477,0,0,0,0,0,0,0,0,0,-1,2029,547,0,0
812,477,0,0,0,0,0,0,0,0,0,-1,2036,547,0,0
-700,470,0,0,0,0,0,0,0,0,0,-1,524,554,0,0
-693,470,0,0,0,0,0,0,0,0,0,-1,531,554,0,0
-686,470,0,0,0,0,0,0,0,0,0,-1,538,554,0,0
-679,470,0,0,0,0,0,0,0,0,0,-1,545,554,0,0
-672,470,0,0,0,0,0,0,0,0,0,-1,552,554,0,0
-665,470,0,0,0,0,0,0,0,0,0,-1,559,554,0,0
-658,470,0,0,0,0,0,0,0,0,0,-1,566,554,0,0
-651,470,0,0,0,0,0,0,0,0,0,-1,573,554,0,0
-644,470,0,0,0,0,0,0,0,0,0,-1,580,554,0,0
-637,470,0,0,0,0,0,0,0,0,0,-1,587,554,0,0
-630,470,0,0,0,0,0,0,0,0,0,-1,594,554,0,0
-623,470,0,0,0,0,0,0,0,0,0,-1,601,554,0,0
-616,470,0,0,0,0,0,0,0,0,0,-1,608,554,0,0
-609,470,0,0,0,0,0,0,0,0,0,-1,615,554,0,0
-602,470,0,0,0,0,0,0,0,0,0,-1,622,554,0,0
-595,470,0,0,0,0,0,0,0,0,0,-1,629,554,0,0
-588,470,0,0,0,0,0,0,0,0,0,-1,636,554,0,0
-581,470,0,0,0,0,0,0,0,0,0,-1,643,554,0,0
-574,470,0,0,0,0,0,0,0,0,0,-1,650,554,0,0
-567,470,0,0,0,0,0,0,0,0,0,-1,657,554,0,0
-560,470,0,0,0,0,0,0,0,0,0,-1,664,554,0,0
-553,470,0,0,0,0,0,0,0,0,0,-1,671,554,0,0
-546,470,0,0,0,0,0,0,0,0,0,-1,678,554,0,0
-539,470,0,0,0,0,0,0,0,0,0,-1,685,554,0,0
-532,470,0,0,0,0,0,0,0,0,0,-1,692,554,0,0
-525,470,0,0,0,0,0,0,0,0,0,-1,699,554,0,0
-518,470,0,0,0,0,0,0,0,0,0,-1,706,554,0,0
-511,470,0,0,0,0,0,0,0,0,0,-1,713,554,0,0
-504,470,0,0,0,0,0,0,0,0,0,-1,720,554,0,0
-497,470,0,0,0,0,0,0,0,0,0,-1,727,554,0,0
-490,470,-10.6171,7.71643,0,0,0,0,0,0,0,-1,734,554,-10.6171,-7.71643
-483,470,-9.90387,5.77734,0,0,0,0,0,0,0,-1,741,554,-9.9039,-5.77735
-476,470,-8.96185,3.76733,0,0,0,0,0,0,0,-1,748,554,-8.96183,-3.76731
-469,470,-7.83228,1.96271,0,0,0,0,0,0,0,-1,755,554,-7.83227,-1.96272
-462,470,-6.81458,-0.110168,0,0,0,0,0,0,0,-1,762,554,-6.8146,0.11019
-455,470,-1.3266,-0.312195,0,0,0,0,0,0,0,-1,769,554,-1.32662,0.31218
-448,470,-0.510803,-1.91193,0,0,0,0,0,0,0,-1,776,554,-0.510822,1.91194
-441,470,-0.680176,-2.37714,0.0141695,0.0329504,-0.0145171,0.0408494,0.0062705,-1.07248,0.0254021,0.042661,783,554,-0.6802,2.37716
-434,470,-0.922241,-2.91882,0.00999991,0.0264578,-0.0107139,0.0317382,0.0047195,-1.11288,0.0197743,0.0236919,790,554,-0.922237,2.9188
-427,470,-0.991272,-3.08716,0.00686061,0.0207093,-0.00768274,0.0241276,0.00344226,-1.15216,0.0150693,0.0118547,797,554,-0.991295,3.08717
-420,470,-0.990601,-3.27319,0.00439812,0.0156633,-0.00520705,0.0177014,0.00236003,-1.19772,0.0110982,0.0125176,804,554,-0.990602,3.27317
-413,470,-0.978516,-3.45331,0.00266523,0.0116657,-0.00331383,0.0127542,0.00157677,-1.25344,0.00802898,0.0131542,811,554,-0.978544,3.45329
-406,470,-0.999512,-3.61127,0.00179564,0.00834325,-0.00195495,0.00888253,0.00125636,-1.30164,0.0055505,0.00952736,818,554,-0.999522,3.61124
-399,470,-0.991516,-3.79993,0.00145845,0.00554547,-0.000965486,0.00576207,0.00124185,-1.35011,0.00350162,0.0117489,825,554,-0.991503,3.79995
-392,470,-0.98877,-3.9812,0.00139102,0.00340253,-0.000229924,0.00342848,0.00136507,-1.45842,0.00199307,0.0131779,832,554,-0.988779,3.98121
-385,470,-0.985718,-4.13995,0.00140545,0.00150608,0.000505423,0.00196369,0.000947845,0.835011,0.00113396,0.0104375,839,554,-0.985696,4.13996
-378,470,-0.977722,-4.31842,0.00154926,0.00017355,0.000943898,0.00202934,-0.000306538,0.470522,0.0014658,0.0149755,846,554,-0.977728,4.31843
-371,470,-0.976624,-4.47571,0.00172616,-0.000196678,0.00112315,0.00224319,-0.0007137,0.431413,0.00178166,0.0129568,853,554,-0.976644,4.47569
-364,470,-0.998962,-4.62921,0.0020016,-0.000325368,0.00123325,0.00253358,-0.000857348,0.407249,0.00203593,0.0127904,860,554,-0.998967,4.62921
-357,470,-1.01239,-4.79968,0.00217155,-0.000291202,0.00133397,0.0027556,-0.000875252,0.412685,0.00218797,0.0123492,867,554,-1.01237,4.79968
-350,470,-0.984985,-4.97418,0.00208449,-0.00010374,0.00147915,0.0028302,-0.000849452,0.466962,0.00222468,0.00930285,874,554,-0.984993,4.9742
-343,470,-0.92157,-5.16162,0.0016464,0.000192407,0.00165501,0.00272705,-0.000888244,0.57845,0.00217543,0.0187578,881,554,-0.921596,5.16162
-336,470,-0.999512,-5.30878,0.00077798,0.00066021,0.00178075,0.00250082,-0.00106263,0.76887,0.00211248,0.0282995,888,554,-0.99954,5.30875
-329,470,-1.01727,-5.43353,-0.000432065,0.00137582,0.00187744,0.00255559,-0.00161184,1.00976,0.00242655,0.0392172,895,554,-1.01726,5.43351
-322,470,-1.34039,-5.86511,-0.0019692,0.00208644,0.00190733,0.0028425,-0.00272526,1.1934,0.00321478,0.0439059,902,554,-1.3404,5.8651
-315,470,-1.41803,-6.05536,0,0,0,0,0,0,0,-1,909,554,-1.41801,6.05536
-308,470,-1.39368,-6.68152,0,0,0,0,0,0,0,-1,916,554,-1.39369,6.68149
-301,470,-0.0340576,3.34888,0,0,0,0,0,0,0,-1,923,554,-0.0340496,-3.3489
-294,470,-1.18378,3.22266,0,0,0,0,0,0,0,-1,930,554,-1.18376,-3.22268
-287,470,-2.15454,3.2204,0,0,0,0,0,0,0,-1,937,554,-2.15452,-3.22037
-280,470,-3.00537,3.099,0,0,0,0,0,0,0,-1,944,554,-3.00536,-3.09898
-273,470,1.05981,-2.39728,0,0,0,0,0,0,0,-1,951,554,1.05983,2.39727
-266,470,-3.55084,-1.16742,0,0,0,0,0,0,0,-1,958,554,-3.55086,1.16744
-259,470,-2.06311,-2.73199,0,0,0,0,0,0,0,-1,965,554,-2.0631,2.732
-252,470,-0.369019,-4.24976,0,0,0,0,0,0,0,-1,972,554,-0.36901,4.24977
-245,470,1.21405,-5.86768,0,0,0,0,0,0,0,-1,979,554,1.21405,5.86766
-238,470,0,0,0,0,0,0,0,0,0,-1,986,554,0,0
-231,470,0,0,0,0,0,0,0,0,0,-1,993,554,0,0
-224,470,0,0,0,0,0,0,0,0,0,-1,1000,554,0,0
-217,470,0,0,0,0,0,0,0,0,0,-1,1007,554,0,0
-210,470,0,0,0,0,0,0,0,0,0,-1,1014,554,0,0
-203,470,0,0,0,0,0,0,0,0,0,-1,1021,554,0,0
-196,470,0,0,0,0,0,0,0,0,0,-1,1028,554,0,0
-189,470,0,0,0,0,0,0,0,0,0,-1,1035,554,0,0
-182,470,0,0,0,0,0,0,0,0,0,-1,1042,554,0,0
-175,470,0,0,0,0,0,0,0,0,0,-1,1049,554,0,0
-168,470,0,0,0,0,0,0,0,0,0,-1,1056,554,0,0
-161,470,0,0,0,0,0,0,0,0,0,-1,1063,554,0,0
-154,470,0,0,0,0,0,0,0,0,0,-1,1070,554,0,0
-147,470,0,0,0,0,0,0,0,0,0,-1,1077,554,0,0
-140,470,0,0,0,0,0,0,0,0,0,-1,1084,554,0,0
-133,470,0,0,0,0,0,0,0,0,0,-1,1091,554,0,0
-126,470,0,0,0,0,0,0,0,0,0,-1,1098,554,0,0
-119,470,0,0,0,0,0,0,0,0,0,-1,1105,554,0,0
-112,470,0,0,0,0,0,0,0,0,0,-1,1112,554,0,0
-105,470,0,0,0,0,0,0,0,0,0,-1,1119,554,0,0
-98,470,0,0,0,0,0,0,0,0,0,-1,1126,554,0,0
-91,470,0,0,0,0,0,0,0,0,0,-1,1133,554,0,0
-84,470,0,0,0,0,0,0,0,0,0,-1,1140,554,0,0
-77,470,0,0,0,0,0,0,0,0,0,-1,1147,554,0,0
-70,470,0,0,0,0,0,0,0,0,0,-1,1154,554,0,0
-63,470,0,0,0,0,0,0,0,0,0,-1,1161,554,0,0
-56,470,0,0,0,0,0,0,0,0,0,-1,1168,554,0,0
-49,470,0,0,0,0,0,0,0,0,0,-1,1175,554,0,0
-42,470,0,0,0,0,0,0,0,0,0,-1,1182,554,0,0
-35,470,0,0,0,0,0,0,0,0,0,-1,1189,554,0,0
-28,470,0,0,0,0,0,0,0,0,0,-1,1196,554,0,0
-21,470,0,0,0,0,0,0,0,0,0,-1,1203,554,0,0
-14,470,0,0,0,0,0,0,0,0,0,-1,1210,554,0,0
-7,470,0,0,0,0,0,0,0,0,0,-1,1217,554,0,0
0,470,0,0,0,0,0,0,0,0,0,-1,1224,554,0,0
7,470,0,0,0,0,0,0,0,0,0,-1,1231,554,0,0
14,470,0,0,0,0,0,0,0,0,0,-1,1238,554,0,0
21,470,0,0,0,0,0,0,0,0,0,-1,1245,554,0,0
28,470,0,0,0,0,0,0,0,0,0,-1,1252,554,0,0
35,470,0,0,0,0,0,0,0,0,0,-1,1259,554,0,0
42,470,0,0,0,0,0,0,0,0,0,-1,1266,554,0,0
49,470,0,0,0,0,0,0,0,0,0,-1,1273,554,0,0
56,470,0,0,0,0,0,0,0,0,0,-1,1280,554,0,0
63,470,0,0,0,0,0,0,0,0,0,-1,1287,554,0,0
70,470,0,0,0,0,0,0,0,0,0,-1,1294,554,0,0
77,470,0,0,0,0,0,0,0,0,0,-1,1301,554,0,0
84,470,0,0,0,0,0,0,0,0,0,-1,1308,554,0,0
91,470,0,0,0,0,0,0,0,0,0,-1,1315,554,0,0
98,470,0,0,0,0,0,0,0,0,0,-1,1322,554,0,0
105,470,0,0,0,0,0,0,0,0,0,-1,1329,554,0,0
112,470,0,0,0,0,0,0,0,0,0,-1,1336,554,0,0
119,470,0,0,0,0,0,0,0,0,0,-1,1343,554,0,0
126,470,0,0,0,0,0,0,0,0,0,-1,1350,554,0,0
133,470,0,0,0,0,0,0,0,0,0,-1,1357,554,0,0
140,470,0,0,0,0,0,0,0,0,0,-1,1364,554,0,0
147,470,0,0,0,0,0,0,0,0,0,-1,1371,554,0,0
154,470,0,0,0,0,0,0,0,0,0,-1,1378,554,0,0
161,470,0,0,0,0,0,0,0,0,0,-1,1385,554,0,0
168,470,0,0,0,0,0,0,0,0,0,-1,1392,554,0,0
175,470,0,0,0,0,0,0,0,0,0,-1,1399,554,0,0
182,470,0,0,0,0,0,0,0,0,0,-1,1406,554,0,0
189,470,0,0,0,0,0,0,0,0,0,-1,1413,554,0,0
196,470,0,0,0,0,0,0,0,0,0,-1,1420,554,0,0
203,470,0,0,0,0,0,0,0,0,0,-1,1427,554,0,0
210,470,0,0,0,0,0,0,0,0,0,-1,1434,554,0,0
217,470,0,0,0,0,0,0,0,0,0,-1,1441,554,0,0
224,470,0,0,0,0,0,0,0,0,0,-1,1448,554,0,0
231,470,0,0,0,0,0,0,0,0,0,-1,1455,554,0,0
238,470,0,0,0,0,0,0,0,0,0,-1,1462,554,0,0
245,470,0,0,0,0,0,0,0,0,0,-1,1469,554,0,0
252,470,0,0,0,0,0,0,0,0,0,-1,1476,554,0,0
259,470,0,0,0,0,0,0,0,0,0,-1,1483,554,0,0
266,470,0,0,0,0,0,0,0,0,0,-1,1490,554,0,0
273,470,0,0,0,0,0,0,0,0,0,-1,1497,554,0,0
280,470,0,0,0,0,0,0,0,0,0,-1,1504,554,0,0
287,470,0,0,0,0,0,0,0,0,0,-1,1511,554,0,0
294,470,0,0,0,0,0,0,0,0,0,-1,1518,554,0,0
301,470,0,0,0,0,0,0,0,0,0,-1,1525,554,0,0
308,470,0,0,0,0,0,0,0,0,0,-1,1532,554,0,0
315,470,0,0,0,0,0,0,0,0,0,-1,1539,554,0,0
322,470,0,0,0,0,0,0,0,0,0,-1,1546,554,0,0
329,470,0,0,0,0,0,0,0,0,0,-1,1553,554,0,0
336,470,0,0,0,0,0,0,0,0,0,-1,1560,554,0,0
343,470,0,0,0,0,0,0,0,0,0,-1,1567,554,0,0
350,470,0,0,0,0,0,0,0,0,0,-1,1574,554,0,0
357,470,0,0,0,0,0,0,0,0,0,-1,1581,554,0,0
364,470,1.33423,0.293335,0,0,0,0,0,0,0,-1,1588,554,1.33422,-0.293348
371,470,4.3595,0.741394,0,0,0,0,0,0,0,-1,1595,554,4.35956,-0.741385
378,470,7.41846,0.960266,0,0,0,0,0,0,0,-1,1602,554,7.4184,-0.960263
385,470,10.7914,1.98749,0,0,0,0,0,0,0,-1,1609,554,10.7914,-1.98748
392,470,12.5139,3.7251,0,0,0,0,0,0,0,-1,1616,554,12.5139,-3.72509
399,470,12.9828,1.44592,0,0,0,0,0,0,0,-1,1623,554,12.9828,-1.44594
406,470,15.1896,1.36676,0,0,0,0,0,0,0,-1,1630,554,15.1896,-1.36679
413,470,6.55383,1.99207,0,0,0,0,0,0,0,-1,1637,554,6.5538,-1.99208
420,470,4.47095,0.845703,0,0,0,0,0,0,0,-1,1644,554,4.47098,-0.845718
427,470,3.51038,1.19684,0,0,0,0,0,0,0,-1,1651,554,3.51039,-1.19684
434,470,3.31775,-1.37427,0,0,0,0,0,0,0,-1,1658,554,3.31781,1.37426
441,470,2.55457,-2.05902,0,0,0,0,0,0,0,-1,1665,554,2.55461,2.05904
448,470,3.27258,-2.64032,0,0,0,0,0,0,0,-1,1672,554,3.27257,2.64029
455,470,5.72107,-4.33557,0,0,0,0,0,0,0,-1,1679,554,5.72105,4.33555
462,470,5.45959,-4.07843,0.000181831,0.00163085,-0.00271256,0.00371399,-0.00190131,-0.915899,0.00329782,0.0496933,1686,554,5.45966,4.07846
469,470,5.59863,-3.97809,0.00118507,0.00185484,-0.00139265,0.0029523,8.76097e-05,-0.903391,0.00193965,0.0461445,1693,554,5.59865,3.97809
476,470,5.39526,-3.79138,0.00188077,0.00186566,-0.000577243,0.00245051,0.00129592,-0.778854,0.00141559,0.0254004,1700,554,5.39526,3.79137
483,470,5.4425,-3.57739,0.00226606,0.00158683,2.26162e-05,0.00226681,0.00158608,0.0332479,0.00134309,0.0128802,1707,554,5.44255,3.5774
490,470,5.43616,-3.39709,0.00247335,0.00135092,0.000335148,0.00256581,0.00125847,0.269174,0.00148146,0.011341,1714,554,5.4361,3.39708
497,470,5.44946,-3.21411,0.00229091,0.000933181,0.00042254,0.00241167,0.000812422,0.278371,0.00141686,0.0118558,1721,554,5.44952,3.21413
504,470,5.46472,-3.05701,0.0016484,0.000912431,0.000504991,0.00190526,0.000655573,0.470535,0.00111769,0.0188107,1728,554,5.46475,3.05703
511,470,5.50671,-2.88763,0.000755818,0.00118393,0.000685814,0.00168832,0.000251431,0.936668,0.0010518,0.0252925,1735,554,5.50672,2.88764
518,470,5.5083,-2.66071,-0.000331475,0.00186787,0.000940181,0.00221499,-0.000678599,1.21711,0.00174735,0.0240973,1742,554,5.5083,2.6607
525,470,5.45752,-2.43622,-0.00152501,0.00271826,0.00117946,0.00302406,-0.00183081,1.31711,0.00283104,0.015309,1749,554,5.45752,2.43625
532,470,5.4425,-2.21442,-0.00276628,0.00405913,0.00151158,0.0043789,-0.00308606,1.36232,0.00433139,0.0135052,1756,554,5.44248,2.21443
539,470,5.43237,-2.04333,-0.00391962,0.00570928,0.00201999,0.00611587,-0.00432621,1.37217,0.00605818,0.0159163,1763,554,5.43237,2.04336
546,470,5.43433,-1.87732,-0.00478677,0.00771391,0.00276022,0.00829626,-0.00536912,1.36287,0.00794981,0.0145301,1770,554,5.43438,1.87733
553,470,5.45032,-1.68958,-0.00541648,0.00980474,0.00355837,0.0105955,-0.00620726,1.35212,0.00981075,0.0109207,1777,554,5.45027,1.68955
560,470,5.47546,-1.47156,-0.00562982,0.0119624,0.00450878,0.0130507,-0.00671807,1.33396,0.011607,0.0128847,1784,554,5.4755,1.47157
567,470,5.46118,-1.29449,-0.00526774,0.0141016,0.00565875,0.0156337,-0.00679976,1.3064,0.0132825,0.0171526,1791,554,5.46118,1.29452
574,470,5.55273,-1.06097,0,0,0,0,0,0,0,-1,1798,554,5.55272,1.06096
581,470,8.24646,-4.06317,0,0,0,0,0,0,0,-1,1805,554,8.24648,4.06318
588,470,8.83704,-2.04022,0,0,0,0,0,0,0,-1,1812,554,8.83707,2.04021
595,470,4.72192,3.44116,0,0,0,0,0,0,0,-1,1819,554,4.72191,-3.44116
602,470,14.4307,2.76141,0,0,0,0,0,0,0,-1,1826,554,14.4306,-2.76139
609,470,16.2076,2.45117,0,0,0,0,0,0,0,-1,1833,554,16.2077,-2.45116
616,470,0,0,0,0,0,0,0,0,0,-1,1840,554,0,0
623,470,0,0,0,0,0,0,0,0,0,-1,1847,554,0,0
630,470,0,0,0,0,0,0,0,0,0,-1,1854,554,0,0
637,470,0,0,0,0,0,0,0,0,0,-1,1861,554,0,0
644,470,0,0,0,0,0,0,0,0,0,-1,1868,554,0,0
651,470,0,0,0,0,0,0,0,0,0,-1,1875,554,0,0
658,470,0,0,0,0,0,0,0,0,0,-1,1882,554,0,0
665,470,0,0,0,0,0,0,0,0,0,-1,1889,554,0,0
672,470,0,0,0,0,0,0,0,0,0,-1,1896,554,0,0
679,470,0,0,0,0,0,0,0,0,0,-1,1903,554,0,0
686,470,0,0,0,0,0,0,0,0,0,-1,1910,554,0,0
693,470,0,0,0,0,0,0,0,0,0,-1,1917,554,0,0
700,470,0,0,0,0,0,0,0,0,0,-1,1924,554,0,0
707,470,0,0,0,0,0,0,0,0,0,-1,1931,554,0,0
714,470,0,0,0,0,0,0,0,0,0,-1,1938,554,0,0
721,470,0,0,0,0,0,0,0,0,0,-1,1945,554,0,0
728,470,0,0,0,0,0,0,0,0,0,-1,1952,554,0,0
735,470,0,0,0,0,0,0,0,0,0,-1,1959,554,0,0
742,470,0,0,0,0,0,0,0,0,0,-1,1966,554,0,0
749,470,0,0,0,0,0,0,0,0,0,-1,1973,554,0,0
756,470,0,0,0,0,0,0,0,0,0,-1,1980,554,0,0
763,470,0,0,0,0,0,0,0,0,0,-1,1987,554,0,0
770,470,0,0,0,0,0,0,0,0,0,-1,1994,554,0,0
777,470,0,0,0,0,0,0,0,0,0,-1,2001,554,0,0
784,470,0,0,0,0,0,0,0,0,0,-1,2008,554,0,0
791,470,0,0,0,0,0,0,0,0,0,-1,2015,554,0,0
798,470,0,0,0,0,0,0,0,0,0,-1,2022,554,0,0
805,470,0,0,0,0,0,0,0,0,0,-1,2029,554,0,0
812,470,0,0,0,0,0,0,0,0,0,-1,2036,554,0,0
-700,463,0,0,0,0,0,0,0,0,0,-1,524,561,0,0
-693,463,0,0,0,0,0,0,0,0,0,-1,531,561,0,0
-686,463,0,0,0,0,0,0,0,0,0,-1,538,561,0,0
-679,463,0,0,0,0,0,0,0,0,0,-1,545,561,0,0
-672,463,0,0,0,0,0,0,0,0,0,-1,552,561,0,0
-665,463,0,0,0,0,0,0,0,0,0,-1,559,561,0,0
-658,463,0,0,0,0,0,0,0,0,0,-1,566,561,0,0
-651,463,0,0,0,0,0,0,0,0,0,-1,573,561,0,0
-644,463,0,0,0,0,0,0,0,0,0,-1,580,561,0,0
-637,463,0,0,0,0,0,0,0,0,0,-1,587,561,0,0
-630,463,0,0,0,0,0,0,0,0,0,-1,594,561,0,0
-623,463,0,0,0,0,0,0,0,0,0,-1,601,561,0,0
-616,463,0,0,0,0,0,0,0,0,0,-1,608,561,0,0
-609,463,0,0,0,0,0,0,0,0,0,-1,615,561,0,0
-602,463,0,0,0,0,0,0,0,0,0,-1,622,561,0,0
-595,463,0,0,0,0,0,0,0,0,0,-1,629,561,0,0
-588,463,0,0,0,0,0,0,0,0,0,-1,636,561,0,0
-581,463,0,0,0,0,0,0,0,0,0,-1,643,561,0,0
-574,463,0,0,0,0,0,0,0,0,0,-1,650,561,0,0
-567,463,0,0,0,0,0,0,0,0,0,-1,657,561,0,0
-560,463,0,0,0,0,0,0,0,0,0,-1,664,561,0,0
-553,463,0,0,0,0,0,0,0,0,0,-1,671,561,0,0
-546,463,0,0,0,0,0,0,0,0,0,-1,678,561,0,0
-539,463,0,0,0,0,0,0,0,0,0,-1,685,561,0,0
-532,463,0,0,0,0,0,0,0,0,0,-1,692,561,0,0
-525,463,0,0,0,0,0,0,0,0,0,-1,699,561,0,0
-518,463,0,0,0,0,0,0,0,0,0,-1,706,561,0,0
-511,463,0,0,0,0,0,0,0,0,0,-1,713,561,0,0
-504,463,0,0,0,0,0,0,0,0,0,-1,720,561,0,0
-497,463,-4.27014,3.24841,0,0,0,0,0,0,0,-1,727,561,-4.27015,-3.24842
-490,463,-3.59601,2.38934,0,0,0,0,0,0,0,-1,734,561,-3.59599,-2.38932
-483,463,-10.9605,5.51794,0,0,0,0,0,0,0,-1,741,561,-10.9605,-5.51794
-476,463,-9.86005,3.40265,0,0,0,0,0,0,0,-1,748,561,-9.86004,-3.40263
-469,463,-1.92133,-0.684265,0,0,0,0,0,0,0,-1,755,561,-1.92133,0.684277
-462,463,-1.36017,-1.14777,0,0,0,0,0,0,0,-1,762,561,-1.36016,1.14774
-455,463,-1.22137,-1.49664,0,0,0,0,0,0,0,-1,769,561,-1.22138,1.49662
-448,463,-0.997986,-2.21277,0.0163336,0.0303817,-0.0155672,0.0404361,0.00627918,-0.997328,0.0251273,0.0421572,776,561,-0.997995,2.21275
-441,463,-0.96405,-2.64764,0.0118301,0.0252083,-0.0118564,0.0321324,0.00490598,-1.04223,0.019988,0.0288527,783,561,-0.964038,2.64763
-434,463,-1.13397,-2.90088,0.00851713,0.0204343,-0.00886541,0.0251575,0.00379394,-1.08128,0.0156609,0.0123379,790,561,-1.134,2.90091
-427,463,-1.15192,-3.07361,0.00597632,0.0161701,-0.00643151,0.0192794,0.00286694,-1.12047,0.0120119,0.00957636,797,561,-1.15191,3.07363
-420,463,-1.13916,-3.24933,0.00386889,0.0122585,-0.00437435,0.0141243,0.00200306,-1.16762,0.00882464,0.0104389,804,561,-1.13914,3.24934
-413,463,-1.14587,-3.45477,0.00242865,0.00918353,-0.00272108,0.0101433,0.00146888,-1.2317,0.00632964,0.00899702,811,561,-1.14586,3.45477
-406,463,-1.17047,-3.63049,0.00184632,0.00653113,-0.0014816,0.00696037,0.00141708,-1.28881,0.00424743,0.007747,818,561,-1.17045,3.63049
-399,463,-1.16003,-3.79071,0.0017181,0.00417402,-0.000555348,0.00429376,0.00159836,-1.35843,0.00250583,0.0091769,825,561,-1.16003,3.79071
-392,463,-1.15002,-3.96588,0.00180766,0.00235471,0.00019827,0.00241901,0.00174335,1.25719,0.00144125,0.00942805,832,561,-1.15002,3.9659
-385,463,-1.16498,-4.15442,0.00205181,0.00079028,0.000936912,0.0025505,0.000291589,0.48913,0.00161195,0.0101981,839,561,-1.165,4.15443
-378,463,-1.15784,-4.33008,0.00241953,-0.00032357,0.00145657,0.00304867,-0.000952704,0.407725,0.00241353,0.0117112,846,561,-1.15786,4.33008
-371,463,-1.14215,-4.50012,0.00270907,-0.00062566,0.00181269,0.00350462,-0.00142121,0.413566,0.00292749,0.0111161,853,561,-1.14214,4.50011
-364,463,-1.1424,-4.64929,0.00312079,-0.000809039,0.00212446,0.0040497,-0.00173795,0.412197,0.00342921,0.0129783,860,561,-1.14241,4.64928
-357,463,-1.15729,-4.81116,0.00345671,-0.000824794,0.00245657,0.00457442,-0.0019425,0.426993,0.00386347,0.0145013,867,561,-1.15727,4.81114
-350,463,-1.1142,-5.0072,0.00351553,-0.000736527,0.00281304,0.00491557,-0.00213657,0.461804,0.00417561,0.0152887,874,561,-1.11419,5.00722
-343,463,-1.05273,-5.14673,0.00312307,-0.0004937,0.00319211,0.00498345,-0.00235407,0.52768,0.00432603,0.0280433,881,561,-1.05275,5.14674
-336,463,-1.1095,-5.40698,0.00213692,-3.1368e-05,0.003498,0.00471493,-0.00260938,0.635126,0.00428654,0.0386652,888,561,-1.10949,5.40699
-329,463,-0.990051,-5.17725,0,0,0,0,0,0,0,-1,895,561,-0.990022,5.17726
-322,463,-1.6593,-5.96161,0,0,0,0,0,0,0,-1,902,561,-1.6593,5.96161
-315,463,-0.944763,-5.96234,0,0,0,0,0,0,0,-1,909,561,-0.94479,5.96237
-308,463,-1.1535,-3.17889,0,0,0,0,0,0,0,-1,916,561,-1.15352,3.17889
-301,463,-1.50366,-3.15338,0,0,0,0,0,0,0,-1,923,561,-1.50364,3.15341
-294,463,-2.35889,-3.93463,0,0,0,0,0,0,0,-1,930,561,-2.35886,3.93465
-287,463,-2.80322,2.73999,0,0,0,0,0,0,0,-1,937,561,-2.80322,-2.74
-280,463,-3.29858,2.24219,0,0,0,0,0,0,0,-1,944,561,-3.29859,-2.24221
-273,463,-5.54578,0.486755,0,0,0,0,0,0,0,-1,951,561,-5.54576,-0.486736
-266,463,-3.96259,-0.93335,0,0,0,0,0,0,0,-1,958,561,-3.96258,0.933349
-259,463,-2.54156,-2.28058,0,0,0,0,0,0,0,-1,965,561,-2.54159,2.28059
-252,463,0,0,0,0,0,0,0,0,0,-1,972,561,0,0
-245,463,0,0,0,0,0,0,0,0,0,-1,979,561,0,0
-238,463,0,0,0,0,0,0,0,0,0,-1,986,561,0,0
-231,463,0,0,0,0,0,0,0,0,0,-1,993,561,0,0
-224,463,0,0,0,0,0,0,0,0,0,-1,1000,561,0,0
-217,463,0,0,0,0,0,0,0,0,0,-1,1007,561,0,0
-210,463,0,0,0,0,0,0,0,0,0,-1,1014,561,0,0
-203,463,0,0,0,0,0,0,0,0,0,-1,1021,561,0,0
-196,463,0,0,0,0,0,0,0,0,0,-1,1028,561,0,0
-189,463,0,0,0,0,0,0,0,0,0,-1,1035,561,0,0
-182,463,0,0,0,0,0,0,0,0,0,-1,1042,561,0,0
-175,463,0,0,0,0,0,0,0,0,0,-1,1049,561,0,0
-168,463,0,0,0,0,0,0,0,0,0,-1,1056,561,0,0
-161,463,0,0,0,0,0,0,0,0,0,-1,1063,561,0,0
-154,463,0,0,0,0,0,0,0,0,0,-1,1070,561,0,0
-147,463,0,0,0,0,0,0,0,0,0,-1,1077,561,0,0
-140,463,0,0,0,0,0,0,0,0,0,-1,1084,561,0,0
-133,463,0,0,0,0,0,0,0,0,0,-1,1091,561,0,0
-126,463,0,0,0,0,0,0,0,0,0,-1,1098,561,0,0
-119,463,0,0,0,0,0,0,0,0,0,-1,1105,561,0,0
-112,463,0,0,0,0,0,0,0,0,0,-1,1112,561,0,0
-105,463,0,0,0,0,0,0,0,0,0,-1,1119,561,0,0
-98,463,0,0,0,0,0,0,0,0,0,-1,1126,561,0,0
-91,463,0,0,0,0,0,0,0,0,0,-1,1133,561,0,0
-84,463,0,0,0,0,0,0,0,0,0,-1,1140,561,0,0
-77,463,0,0,0,0,0,0,0,0,0,-1,1147,561,0,0
-70,463,0,0,0,0,0,0,0,0,0,-1,1154,561,0,0
-63,463,0,0,0,0,0,0,0,0,0,-1,1161,561,0,0
-56,463,0,0,0,0,0,0,0,0,0,-1,1168,561,0,0
-49,463,0,0,0,0,0,0,0,0,0,-1,1175,561,0,0
-42,463,0,0,0,0,0,0,0,0,0,-1,1182,561,0,0
-35,463,0,0,0,0,0,0,0,0,0,-1,1189,561,0,0
-28,463,0,0,0,0,0,0,0,0,0,-1,1196,561,0,0
-21,463,0,0,0,0,0,0,0,0,0,-1,1203,561,0,0
-14,463,0,0,0,0,0,0,0,0,0,-1,1210,561,0,0
-7,463,0,0,0,0,0,0,0,0,0,-1,1217,561,0,0
0,463,0,0,0,0,0,0,0,0,0,-1,1224,561,0,0
7,463,0,0,0,0,0,0,0,0,0,-1,1231,561,0,0
14,463,0,0,0,0,0,0,0,0,0,-1,1238,561,0,0
21,463,0,0,0,0,0,0,0,0,0,-1,1245,561,0,0
28,463,0,0,0,0,0,0,0,0,0,-1,1252,561,0,0
35,463,0,0,0,0,0,0,0,0,0,-1,1259,561,0,0
42,463,0,0,0,0,0,0,0,0,0,-1,1266,561,0,0
49,463,0,0,0,0,0,0,0,0,0,-1,1273,561,0,0
56,463,0,0,0,0,0,0,0,0,0,-1,1280,561,0,0
63,463,0,0,0,0,0,0,0,0,0,-1,1287,561,0,0
70,463,0,0,0,0,0,0,0,0,0,-1,1294,561,0,0
77,463,0,0,0,0,0,0,0,0,0,-1,1301,561,0,0
84,463,0,0,0,0,0,0,0,0,0,-1,1308,561,0,0
91,463,0,0,0,0,0,0,0,0,0,-1,1315,561,0,0
98,463,0,0,0,0,0,0,0,0,0,-1,1322,561,0,0
105,463,0,0,0,0,0,0,0,0,0,-1,1329,561,0,0
112,463,0,0,0,0,0,0,0,0,0,-1,1336,561,0,0
119,463,0,0,0,0,0,0,0,0,0,-1,1343,561,0,0
126,463,0,0,0,0,0,0,0,0,0,-1,1350,561,0,0
133,463,0,0,0,0,0,0,0,0,0,-1,1357,561,0,0
140,463,0,0,0,0,0,0,0,0,0,-1,1364,561,0,0
147,463,0,0,0,0,0,0,0,0,0,-1,1371,561,0,0
154,463,0,0,0,0,0,0,0,0,0,-1,1378,561,0,0
161,463,0,0,0,0,0,0,0,0,0,-1,1385,561,0,0
168,463,0,0,0,0,0,0,0,0,0,-1,1392,561,0,0
175,463,0,0,0,0,0,0,0,0,0,-1,1399,561,0,0
182,463,0,0,0,0,0,0,0,0,0,-1,1406,561,0,0
189,463,0,0,0,0,0,0,0,0,0,-1,1413,561,0,0
196,463,0,0,0,0,0,0,0,0,0,-1,1420,561,0,0
203,463,0,0,0,0,0,0,0,0,0,-1,1427,561,0,0
210,463,0,0,0,0,0,0,0,0,0,-1,1434,561,0,0
217,463,0,0,0,0,0,0,0,0,0,-1,1441,561,0,0
224,463,0,0,0,0,0,0,0,0,0,-1,1448,561,0,0
231,463,0,0,0,0,0,0,0,0,0,-1,1455,561,0,0
238,463,0,0,0,0,0,0,0,0,0,-1,1462,561,0,0
245,463,0,0,0,0,0,0,0,0,0,-1,1469,561,0,0
252,463,0,0,0,0,0,0,0,0,0,-1,1476,561,0,0
259,463,0,0,0,0,0,0,0,0,0,-1,1483,561,0,0
266,463,0,0,0,0,0,0,0,0,0,-1,1490,561,0,0
273,463,0,0,0,0,0,0,0,0,0,-1,1497,561,0,0
280,463,0,0,0,0,0,0,0,0,0,-1,1504,561,0,0
287,463,0,0,0,0,0,0,0,0,0,-1,1511,561,0,0
294,463,0,0,0,0,0,0,0,0,0,-1,1518,561,0,0
301,463,0,0,0,0,0,0,0,0,0,-1,1525,561,0,0
308,463,0,0,0,0,0,0,0,0,0,-1,1532,561,0,0
315,463,0,0,0,0,0,0,0,0,0,-1,1539,561,0,0
322,463,0,0,0,0,0,0,0,0,0,-1,1546,561,0,0
329,463,0,0,0,0,0,0,0,0,0,-1,1553,561,0,0
336,463,0,0,0,0,0,0,0,0,0,-1,1560,561,0,0
343,463,0,0,0,0,0,0,0,0,0,-1,1567,561,0,0
350,463,0,0,0,0,0,0,0,0,0,-1,1574,561,0,0
357,463,0,0,0,0,0,0,0,0,0,-1,1581,561,0,0
364,463,0,0,0,0,0,0,0,0,0,-1,1588,561,0,0
371,463,1.75842,0.152588,0,0,0,0,0,0,0,-1,1595,561,1.75844,-0.152558
378,463,4.18835,0.841614,0,0,0,0,0,0,0,-1,1602,561,4.18833,-0.841636
385,463,8.22717,1.32404,0,0,0,0,0,0,0,-1,1609,561,8.22714,-1.32405
392,463,12.1678,1.70648,0,0,0,0,0,0,0,-1,1616,561,12.1679,-1.70647
399,463,13.1924,2.06775,0,0,0,0,0,0,0,-1,1623,561,13.1924,-2.06776
406,463,7.28088,1.38538,0,0,0,0,0,0,0,-1,1630,561,7.28091,-1.38537
413,463,8.05847,1.82239,0,0,0,0,0,0,0,-1,1637,561,8.05851,-1.82241
420,463,8.849,2.26611,0,0,0,0,0,0,0,-1,1644,561,8.84899,-2.26613
427,463,5.12207,1.69183,0,0,0,0,0,0,0,-1,1651,561,5.12206,-1.69184
434,463,4.59814,1.81995,0,0,0,0,0,0,0,-1,1658,561,4.59812,-1.81994
441,463,1.76392,-5.99225,0,0,0,0,0,0,0,-1,1665,561,1.7639,5.99225
448,463,2.49939,-4.30536,0,0,0,0,0,0,0,-1,1672,561,2.49941,4.30536
455,463,4.40295,-3.02557,0,0,0,0,0,0,0,-1,1679,561,4.40299,3.02558
462,463,5.38293,-4.06445,0,0,0,0,0,0,0,-1,1686,561,5.38289,4.06444
469,463,5.74512,-4.17474,0,0,0,0,0,0,0,-1,1693,561,5.74516,4.17476
476,463,5.51172,-3.97382,0,0,0,0,0,0,0,-1,1700,561,5.51176,3.9738
483,463,5.51465,-3.73706,0.00335333,0.00178376,0.000330197,0.00341997,0.00171712,0.199132,0.00197452,0.031649,1707,561,5.51468,3.73706
490,463,5.63306,-3.43817,0.00365559,0.00159599,0.000663716,0.00385095,0.00140063,0.286252,0.00225071,0.0163124,1714,561,5.63302,3.43816
497,463,5.62964,-3.19458,0.00365712,0.000963348,0.000688357,0.00382282,0.000797641,0.236234,0.00232866,0.0116293,1721,561,5.62966,3.19459
504,463,5.64673,-3.03021,0.00313801,0.00060617,0.000726026,0.00333143,0.000412752,0.260359,0.00209695,0.0148452,1728,561,5.64674,3.0302
511,463,5.6676,-2.84314,0.00226248,0.000766989,0.000868649,0.00266089,0.000368578,0.430028,0.00166473,0.0214065,1735,561,5.66765,2.84311
518,463,5.69751,-2.63147,0.00116107,0.00125094,0.000998483,0.0022055,0.00020651,0.807884,0.00140656,0.0222552,1742,561,5.69755,2.63145
525,463,5.64929,-2.43549,7.70787e-05,0.00187782,0.00115327,0.00244056,-0.000485661,1.11683,0.00181077,0.0176966,1749,561,5.64926,2.4355
532,463,5.6488,-2.24799,-0.00101686,0.00288511,0.00132353,0.00329168,-0.00142343,1.27276,0.00279259,0.0151101,1756,561,5.64876,2.24799
539,463,5.64441,-2.06146,-0.00203397,0.00406219,0.00160573,0.00445927,-0.00243105,1.32837,0.00403517,0.0150043,1763,561,5.64436,2.06143
546,463,5.63818,-1.89594,-0.00277086,0.00552409,0.00208808,0.00602007,-0.00326683,1.33759,0.00543977,0.0120936,1770,561,5.63813,1.89597
553,463,5.63306,-1.66681,-0.00331267,0.00696341,0.0025652,0.00756817,-0.00391743,1.33927,0.00674195,0.0105932,1777,561,5.63301,1.66679
560,463,5.64636,-1.427,-0.0035312,0.00839113,0.00311291,0.00915497,-0.00429504,1.33017,0.00793254,0.0108363,1784,561,5.64635,1.427
567,463,5.60327,-1.25208,-0.0033059,0.00955452,0.00372206,0.0105541,-0.00430545,1.30844,0.00882837,0.0147052,1791,561,5.60326,1.25205
574,463,5.60181,-1.23468,-0.00285671,0.0106358,0.00431948,0.0119001,-0.00412107,1.28604,0.00960641,0.0404179,1798,561,5.60182,1.2347
581,463,5.7688,-1.1911,0,0,0,0,0,0,0,-1,1805,561,5.76876,1.1911
588,463,1.97424,2.16016,0,0,0,0,0,0,0,-1,1812,561,1.97422,-2.16013
595,463,8.83997,2.83508,0,0,0,0,0,0,0,-1,1819,561,8.83994,-2.83507
602,463,12.1405,2.82471,0,0,0,0,0,0,0,-1,1826,561,12.1405,-2.82468
609,463,15.4412,2.81427,0,0,0,0,0,0,0,-1,1833,561,15.4411,-2.81429
616,463,16.8923,2.79462,0,0,0,0,0,0,0,-1,1840,561,16.8923,-2.79464
623,463,0,0,0,0,0,0,0,0,0,-1,1847,561,0,0
630,463,0,0,0,0,0,0,0,0,0,-1,1854,561,0,0
637,463,0,0,0,0,0,0,0,0,0,-1,1861,561,0,0
644,463,0,0,0,0,0,0,0,0,0,-1,1868,561,0,0
651,463,0,0,0,0,0,0,0,0,0,-1,1875,561,0,0
658,463,0,0,0,0,0,0,0,0,0,-1,1882,561,0,0
665,463,0,0,0,0,0,0,0,0,0,-1,1889,561,0,0
672,463,0,0,0,0,0,0,0,0,0,-1,1896,561,0,0
679,463,0,0,0,0,0,0,0,0,0,-1,1903,561,0,0
686,463,0,0,0,0,0,0,0,0,0,-1,1910,561,0,0
693,463,0,0,0,0,0,0,0,0,0,-1,1917,561,0,0
700,463,0,0,0,0,0,0,0,0,0,-1,1924,561,0,0
707,463,0,0,0,0,0,0,0,0,0,-1,1931,561,0,0
714,463,0,0,0,0,0,0,0,0,0,-1,1938,561,0,0
721,463,0,0,0,0,0,0,0,0,0,-1,1945,561,0,0
728,463,0,0,0,0,0,0,0,0,0,-1,1952,561,0,0
735,463,0,0,0,0,0,0,0,0,0,-1,1959,561,0,0
742,463,0,0,0,0,0,0,0,0,0,-1,1966,561,0,0
749,463,0,0,0,0,0,0,0,0,0,-1,1973,561,0,0
756,463,0,0,0,0,0,0,0,0,0,-1,1980,561,0,0
763,463,0,0,0,0,0,0,0,0,0,-1,1987,561,0,0
770,463,0,0,0,0,0,0,0,0,0,-1,1994,561,0,0
777,463,0,0,0,0,0,0,0,0,0,-1,2001,561,0,0
784,463,0,0,0,0,0,0,0,0,0,-1,2008,561,0,0
791,463,0,0,0,0,0,0,0,0,0,-1,2015,561,0,0
798,463,0,0,0,0,0,0,0,0,0,-1,2022,561,0,0
805,463,0,0,0,0,0,0,0,0,0,-1,2029,561,0,0
812,463,0,0,0,0,0,0,0,0,0,-1,2036,561,0,0
-700,456,0,0,0,0,0,0,0,0,0,-1,524,568,0,0
-693,456,0,0,0,0,0,0,0,0,0,-1,531,568,0,0
-686,456,0,0,0,0,0,0,0,0,0,-1,538,568,0,0
-679,456,0,0,0,0,0,0,0,0,0,-1,545,568,0,0
-672,456,0,0,0,0,0,0,0,0,0,-1,552,568,0,0
-665,456,0,0,0,0,0,0,0,0,0,-1,559,568,0,0
-658,456,0,0,0,0,0,0,0,0,0,-1,566,568,0,0
-651,456,0,0,0,0,0,0,0,0,0,-1,573,568,0,0
-644,456,0,0,0,0,0,0,0,0,0,-1,580,568,0,0
-637,456,0,0,0,0,0,0,0,0,0,-1,587,568,0,0
-630,456,0,0,0,0,0,0,0,0,0,-1,594,568,0,0
-623,456,0,0,0,0,0,0,0,0,0,-1,601,568,0,0
-616,456,0,0,0,0,0,0,0,0,0,-1,608,568,0,0
-609,456,0,0,0,0,0,0,0,0,0,-1,615,568,0,0
-602,456,0,0,0,0,0,0,0,0,0,-1,622,568,0,0
-595,456,0,0,0,0,0,0,0,0,0,-1,629,568,0,0
-588,456,0,0,0,0,0,0,0,0,0,-1,636,568,0,0
-581,456,0,0,0,0,0,0,0,0,0,-1,643,568,0,0
-574,456,0,0,0,0,0,0,0,0,0,-1,650,568,0,0
-567,456,0,0,0,0,0,0,0,0,0,-1,657,568,0,0
-560,456,0,0,0,0,0,0,0,0,0,-1,664,568,0,0
-553,456,0,0,0,0,0,0,0,0,0,-1,671,568,0,0
-546,456,0,0,0,0,0,0,0,0,0,-1,678,568,0,0
-539,456,0,0,0,0,0,0,0,0,0,-1,685,568,0,0
-532,456,0,0,0,0,0,0,0,0,0,-1,692,568,0,0
-525,456,0,0,0,0,0,0,0,0,0,-1,699,568,0,0
-518,456,0,0,0,0,0,0,0,0,0,-1,706,568,0,0
-511,456,0,0,0,0,0,0,0,0,0,-1,713,568,0,0
-504,456,-1.43451,-1.86499,0,0,0,0,0,0,0,-1,720,568,-1.43452,1.86499
-497,456,-3.59912,3.37024,0,0,0,0,0,0,0,-1,727,568,-3.59911,-3.37021
-490,456,-2.81476,2.5285,0,0,0,0,0,0,0,-1,734,568,-2.81477,-2.52848
-483,456,-2.06812,1.72504,0,0,0,0,0,0,0,-1,741,568,-2.06814,-1.72502
-476,456,-1.96539,-1.17493,0,0,0,0,0,0,0,-1,748,568,-1.9654,1.17492
-469,456,-2.81238,-3.51501,0,0,0,0,0,0,0,-1,755,568,-2.81237,3.51501
-462,456,-1.55164,-1.99927,0,0,0,0,0,0,0,-1,762,568,-1.55164,1.99926
-455,456,-1.11615,-2.68109,0,0,0,0,0,0,0,-1,769,568,-1.11614,2.68106
-448,456,-1.22858,-2.45801,0.0140161,0.0225761,-0.0127485,0.0317439,0.00484835,-0.947348,0.0197459,0.0316762,776,568,-1.22855,2.45798
-441,456,-1.26917,-2.71985,0.0104671,0.0189568,-0.00988492,0.0254698,0.00395413,-0.988207,0.0158273,0.0142442,783,568,-1.26917,2.71987
-434,456,-1.32996,-2.90771,0.00776148,0.0154794,-0.00751706,0.0200702,0.00317073,-1.02254,0.0124584,0.00900874,790,568,-1.32993,2.90769
-427,456,-1.3374,-3.07874,0.00560293,0.0122943,-0.00551844,0.015402,0.00249518,-1.05791,0.00954563,0.0089349,797,568,-1.33739,3.07876
-420,456,-1.33087,-3.25342,0.00368209,0.00923573,-0.00375691,0.0111306,0.00178717,-1.10365,0.00690227,0.0100394,804,568,-1.33088,3.2534
-413,456,-1.3288,-3.45013,0.00240102,0.00686936,-0.00224681,0.00780373,0.00146665,-1.17669,0.00478906,0.0086054,811,568,-1.32877,3.45013
-406,456,-1.34833,-3.63226,0.00198942,0.00473991,-0.00104506,0.00509193,0.0016374,-1.24589,0.00300158,0.00801174,818,568,-1.34836,3.63229
-399,456,-1.33655,-3.78491,0.00196059,0.00273548,-0.000116164,0.00275252,0.00194355,-1.42515,0.00163355,0.00973537,825,568,-1.33655,3.78493
-392,456,-1.31439,-3.95673,0.00213712,0.00118037,0.000718433,0.00252187,0.000795615,0.491676,0.00148868,0.00949389,832,568,-1.3144,3.95672
-385,456,-1.32654,-4.14148,0.00257051,-9.87333e-05,0.00154186,0.00327514,-0.000803362,0.42866,0.00249471,0.00948045,839,568,-1.32652,4.14148
-378,456,-1.33472,-4.3327,0.0031828,-0.00101337,0.00224108,0.00415463,-0.00198521,0.409171,0.00361785,0.0105309,846,568,-1.3347,4.3327
-371,456,-1.32263,-4.49829,0.00368831,-0.00126972,0.00288797,0.00501534,-0.00259674,0.430725,0.00446817,0.0112389,853,568,-1.32266,4.49832
-364,456,-1.28729,-4.64789,0.00439292,-0.00154457,0.00354705,0.00604965,-0.0032013,0.43696,0.00542477,0.0148481,860,568,-1.28731,4.64788
-357,456,-1.24658,-4.83313,0.00508927,-0.00163499,0.00429381,0.00718065,-0.00372637,0.453248,0.00640157,0.0160703,867,568,-1.24659,4.83313
-350,456,-1.13226,-4.91589,0.00551297,-0.00166485,0.00506744,0.00813367,-0.00428555,0.477284,0.00728407,0.0278977,874,568,-1.13226,4.91591
-343,456,-1.2793,-5.21924,0.00545328,-0.00150021,0.00588117,0.00880851,-0.00485545,0.518449,0.00799818,0.0410452,881,568,-1.27927,5.21922
-336,456,-1.25897,-5.40466,0,0,0,0,0,0,0,-1,888,568,-1.25896,5.40466
-329,456,-0.370544,-5.5014,0,0,0,0,0,0,0,-1,895,568,-0.370555,5.50137
-322,456,-0.344421,-3.39081,0,0,0,0,0,0,0,-1,902,568,-0.344438,3.39081
-315,456,-0.675476,-3.38397,0,0,0,0,0,0,0,-1,909,568,-0.675473,3.38399
-308,456,-1.1618,-3.15314,0,0,0,0,0,0,0,-1,916,568,-1.16178,3.15314
-301,456,-1.83551,-3.26447,0,0,0,0,0,0,0,-1,923,568,-1.8355,3.26449
-294,456,-2.93414,-3.35449,0,0,0,0,0,0,0,-1,930,568,-2.93413,3.35451
-287,456,-3.7569,-3.53101,0,0,0,0,0,0,0,-1,937,568,-3.75692,3.53101
-280,456,-3.58478,1.37744,0,0,0,0,0,0,0,-1,944,568,-3.58476,-1.37746
-273,456,-5.48199,0.679199,0,0,0,0,0,0,0,-1,951,568,-5.482,-0.679176
-266,456,-3.95667,-0.68927,0,0,0,0,0,0,0,-1,958,568,-3.95667,0.689273
-259,456,0,0,0,0,0,0,0,0,0,-1,965,568,0,0
-252,456,0,0,0,0,0,0,0,0,0,-1,972,568,0,0
-245,456,0,0,0,0,0,0,0,0,0,-1,979,568,0,0
-238,456,0,0,0,0,0,0,0,0,0,-1,986,568,0,0
-231,456,0,0,0,0,0,0,0,0,0,-1,993,568,0,0
-224,456,0,0,0,0,0,0,0,0,0,-1,1000,568,0,0
-217,456,0,0,0,0,0,0,0,0,0,-1,1007,568,0,0
-210,456,0,0,0,0,0,0,0,0,0,-1,1014,568,0,0
-203,456,0,0,0,0,0,0,0,0,0,-1,1021,568,0,0
-196,456,0,0,0,0,0,0,0,0,0,-1,1028,568,0,0
-189,456,0,0,0,0,0,0,0,0,0,-1,1035,568,0,0
-182,456,0,0,0,0,0,0,0,0,0,-1,1042,568,0,0
-175,456,0,0,0,0,0,0,0,0,0,-1,1049,568,0,0
-168,456,0,0,0,0,0,0,0,0,0,-1,1056,568,0,0
-161,456,0,0,0,0,0,0,0,0,0,-1,1063,568,0,0
-154,456,0,0,0,0,0,0,0,0,0,-1,1070,568,0,0
-147,456,0,0,0,0,0,0,0,0,0,-1,1077,568,0,0
-140,456,0,0,0,0,0,0,0,0,0,-1,1084,568,0,0
-133,456,0,0,0,0,0,0,0,0,0,-1,1091,568,0,0
-126,456,0,0,0,0,0,0,0,0,0,-1,1098,568,0,0
-119,456,0,0,0,0,0,0,0,0,0,-1,1105,568,0,0
-112,456,0,0,0,0,0,0,0,0,0,-1,1112,568,0,0
-105,456,0,0,0,0,0,0,0,0,0,-1,1119,568,0,0
-98,456,0,0,0,0,0,0,0,0,0,-1,1126,568,0,0
-91,456,0,0,0,0,0,0,0,0,0,-1,1133,568,0,0
-84,456,0,0,0,0,0,0,0,0,0,-1,1140,568,0,0
-77,456,0,0,0,0,0,0,0,0,0,-1,1147,568,0,0
-70,456,0,0,0,0,0,0,0,0,0,-1,1154,568,0,0
-63,456,0,0,0,0,0,0,0,0,0,-1,1161,568,0,0
-56,456,0,0,0,0,0,0,0,0,0,-1,1168,568,0,0
-49,456,0,0,0,0,0,0,0,0,0,-1,1175,568,0,0
-42,456,0,0,0,0,0,0,0,0,0,-1,1182,568,0,0
-35,456,0,0,0,0,0,0,0,0,0,-1,1189,568,0,0
-28,456,0,0,0,0,0,0,0,0,0,-1,1196,568,0,0
-21,456,0,0,0,0,0,0,0,0,0,-1,1203,568,0,0
-14,456,0,0,0,0,0,0,0,0,0,-1,1210,568,0,0
-7,456,0,0,0,0,0,0,0,0,0,-1,1217,568,0,0
0,456,0,0,0,0,0,0,0,0,0,-1,1224,568,0,0
7,456,0,0,0,0,0,0,0,0,0,-1,1231,568,0,0
14,456,0,0,0,0,0,0,0,0,0,-1,1238,568,0,0
21,456,0,0,0,0,0,0,0,0,0,-1,1245,568,0,0
28,456,0,0,0,0,0,0,0,0,0,-1,1252,568,0,0
35,456,0,0,0,0,0,0,0,0,0,-1,1259,568,0,0
42,456,0,0,0,0,0,0,0,0,0,-1,1266,568,0,0
49,456,0,0,0,0,0,0,0,0,0,-1,1273,568,0,0
56,456,0,0,0,0,0,0,0,0,0,-1,1280,568,0,0
63,456,0,0,0,0,0,0,0,0,0,-1,1287,568,0,0
70,456,0,0,0,0,0,0,0,0,0,-1,1294,568,0,0
77,456,0,0,0,0,0,0,0,0,0,-1,1301,568,0,0
84,456,0,0,0,0,0,0,0,0,0,-1,1308,568,0,0
91,456,0,0,0,0,0,0,0,0,0,-1,1315,568,0,0
98,456,0,0,0,0,0,0,0,0,0,-1,1322,568,0,0
105,456,0,0,0,0,0,0,0,0,0,-1,1329,568,0,0
112,456,0,0,0,0,0,0,0,0,0,-1,1336,568,0,0
119,456,0,0,0,0,0,0,0,0,0,-1,1343,568,0,0
126,456,0,0,0,0,0,0,0,0,0,-1,1350,568,0,0
133,456,0,0,0,0,0,0,0,0,0,-1,1357,568,0,0
140,456,0,0,0,0,0,0,0,0,0,-1,1364,568,0,0
147,456,0,0,0,0,0,0,0,0,0,-1,1371,568,0,0
154,456,0,0,0,0,0,0,0,0,0,-1,1378,568,0,0
161,456,0,0,0,0,0,0,0,0,0,-1,1385,568,0,0
168,456,0,0,0,0,0,0,0,0,0,-1,1392,568,0,0
175,456,0,0,0,0,0,0,0,0,0,-1,1399,568,0,0
182,456,0,0,0,0,0,0,0,0,0,-1,1406,568,0,0
189,456,0,0,0,0,0,0,0,0,0,-1,1413,568,0,0
196,456,0,0,0,0,0,0,0,0,0,-1,1420,568,0,0
203,456,0,0,0,0,0,0,0,0,0,-1,1427,568,0,0
210,456,0,0,0,0,0,0,0,0,0,-1,1434,568,0,0
217,456,0,0,0,0,0,0,0,0,0,-1,1441,568,0,0
224,456,0,0,0,0,0,0,0,0,0,-1,1448,568,0,0
231,456,0,0,0,0,0,0,0,0,0,-1,1455,568,0,0
238,456,0,0,0,0,0,0,0,0,0,-1,1462,568,0,0
245,456,0,0,0,0,0,0,0,0,0,-1,1469,568,0,0
252,456,0,0,0,0,0,0,0,0,0,-1,1476,568,0,0
259,456,0,0,0,0,0,0,0,0,0,-1,1483,568,0,0
266,456,0,0,0,0,0,0,0,0,0,-1,1490,568,0,0
273,456,0,0,0,0,0,0,0,0,0,-1,1497,568,0,0
280,456,0,0,0,0,0,0,0,0,0,-1,1504,568,0,0
287,456,0,0,0,0,0,0,0,0,0,-1,1511,568,0,0
294,456,0,0,0,0,0,0,0,0,0,-1,1518,568,0,0
301,456,0,0,0,0,0,0,0,0,0,-1,1525,568,0,0
308,456,0,0,0,0,0,0,0,0,0,-1,1532,568,0,0
315,456,0,0,0,0,0,0,0,0,0,-1,1539,568,0,0
322,456,0,0,0,0,0,0,0,0,0,-1,1546,568,0,0
329,456,0,0,0,0,0,0,0,0,0,-1,1553,568,0,0
336,456,0,0,0,0,0,0,0,0,0,-1,1560,568,0,0
343,456,0,0,0,0,0,0,0,0,0,-1,1567,568,0,0
350,456,0,0,0,0,0,0,0,0,0,-1,1574,568,0,0
357,456,0,0,0,0,0,0,0,0,0,-1,1581,568,0,0
364,456,0,0,0,0,0,0,0,0,0,-1,1588,568,0,0
371,456,0,0,0,0,0,0,0,0,0,-1,1595,568,0,0
378,456,0,0,0,0,0,0,0,0,0,-1,1602,568,0,0
385,456,5.66284,0.660645,0,0,0,0,0,0,0,-1,1609,568,5.66285,-0.660615
392,456,9.61865,2.70856,0,0,0,0,0,0,0,-1,1616,568,9.61862,-2.70856
399,456,11.889,2.58441,0,0,0,0,0,0,0,-1,1623,568,11.889,-2.58444
406,456,14.1594,2.46033,0,0,0,0,0,0,0,-1,1630,568,14.1595,-2.46032
413,456,9.55115,1.49933,0,0,0,0,0,0,0,-1,1637,568,9.55119,-1.49933
420,456,6.33875,1.88824,0,0,0,0,0,0,0,-1,1644,568,6.33876,-1.88827
427,456,6.21375,2.02905,0,0,0,0,0,0,0,-1,1651,568,6.21372,-2.02904
434,456,3.0719,-4.86285,0,0,0,0,0,0,0,-1,1658,568,3.07184,4.86287
441,456,2.90344,-4.70459,0,0,0,0,0,0,0,-1,1665,568,2.90346,4.7046
448,456,3.06995,-4.93689,0,0,0,0,0,0,0,-1,1672,568,3.06991,4.93687
455,456,3.46582,-3.43701,0,0,0,0,0,0,0,-1,1679,568,3.46585,3.43698
462,456,4.68445,-4.45831,0,0,0,0,0,0,0,-1,1686,568,4.68439,4.45833
469,456,4.93201,-2.289,0,0,0,0,0,0,0,-1,1693,568,4.93197,2.28903
476,456,4.8363,-2.79364,0,0,0,0,0,0,0,-1,1700,568,4.83636,2.79363
483,456,5.46033,-4.07269,0,0,0,0,0,0,0,-1,1707,568,5.46028,4.07268
490,456,5.73145,-3.61945,0,0,0,0,0,0,0,-1,1714,568,5.73147,3.61945
497,456,5.82056,-3.24683,0.00515895,0.000860866,0.00101874,0.00538819,0.000631628,0.221334,0.00340119,0.0280505,1721,568,5.82054,3.24682
504,456,5.81384,-3.00134,0.00465189,0.000166619,0.000976349,0.00485521,-3.66957e-05,0.205306,0.00324911,0.010045,1728,568,5.81382,3.00134
511,456,5.82556,-2.81757,0.00367518,0.000255072,0.00104675,0.00397011,-3.98625e-05,0.274641,0.00266013,0.0128796,1735,568,5.82557,2.81754
518,456,5.8429,-2.61987,0.00245514,0.000583644,0.0010303,0.0029112,0.000127578,0.416728,0.00189971,0.0151967,1742,568,5.84289,2.61984
525,456,5.84521,-2.43762,0.00138967,0.00107453,0.00110997,0.0023532,0.000111002,0.714891,0.00153314,0.0143629,1749,568,5.84517,2.43761
532,456,5.83118,-2.24701,0.000359408,0.00184397,0.00114683,0.00246778,-0.000264403,1.07262,0.00174003,0.0139303,1756,568,5.83112,2.24699
539,456,5.83215,-2.06775,-0.000591645,0.00268236,0.00125329,0.00310703,-0.00101632,1.24409,0.00248053,0.0159827,1763,568,5.83214,2.06773
546,456,5.81592,-1.84906,-0.00126187,0.00375447,0.00154019,0.00418962,-0.00169702,1.29545,0.00349874,0.0177346,1770,568,5.81595,1.84906
553,456,5.81018,-1.61603,-0.00176216,0.00474149,0.00179403,0.00520354,-0.00222422,1.31872,0.00440191,0.0127217,1777,568,5.81019,1.61605
560,456,5.82556,-1.43341,-0.00201014,0.00567721,0.00208735,0.00620742,-0.00254035,1.32205,0.00519634,0.0100332,1784,568,5.82556,1.4334
567,456,5.83154,-1.23206,-0.00190443,0.00626235,0.00239679,0.0069138,-0.00255588,1.30541,0.00565701,0.0115564,1791,568,5.83148,1.23207
574,456,5.81812,-1.15924,-0.0015857,0.00677184,0.00268658,0.00756095,-0.00237481,1.28511,0.00599123,0.0298223,1798,568,5.81808,1.15924
581,456,5.85742,-1.07001,0,0,0,0,0,0,0,-1,1805,568,5.85746,1.06999
588,456,5.23901,-0.0901489,0,0,0,0,0,0,0,-1,1812,568,5.23906,0.0901656
595,456,6.90063,3.14886,0,0,0,0,0,0,0,-1,1819,568,6.90066,-3.14887
602,456,9.85046,2.88794,0,0,0,0,0,0,0,-1,1826,568,9.85047,-2.88796
609,456,13.1351,2.96027,0,0,0,0,0,0,0,-1,1833,568,13.1351,-2.96027
616,456,16.0509,2.8313,0,0,0,0,0,0,0,-1,1840,568,16.0509,-2.8313
623,456,11.7659,2.72815,0,0,0,0,0,0,0,-1,1847,568,11.7658,-2.72815
630,456,0,0,0,0,0,0,0,0,0,-1,1854,568,0,0
637,456,0,0,0,0,0,0,0,0,0,-1,1861,568,0,0
644,456,0,0,0,0,0,0,0,0,0,-1,1868,568,0,0
651,456,0,0,0,0,0,0,0,0,0,-1,1875,568,0,0
658,456,0,0,0,0,0,0,0,0,0,-1,1882,568,0,0
665,456,0,0,0,0,0,0,0,0,0,-1,1889,568,0,0
672,456,0,0,0,0,0,0,0,0,0,-1,1896,568,0,0
679,456,0,0,0,0,0,0,0,0,0,-1,1903,568,0,0
686,456,0,0,0,0,0,0,0,0,0,-1,1910,568,0,0
693,456,0,0,0,0,0,0,0,0,0,-1,1917,568,0,0
700,456,0,0,0,0,0,0,0,0,0,-1,1924,568,0,0
707,456,0,0,0,0,0,0,0,0,0,-1,1931,568,0,0
714,456,0,0,0,0,0,0,0,0,0,-1,1938,568,0,0
721,456,0,0,0,0,0,0,0,0,0,-1,1945,568,0,0
728,456,0,0,0,0,0,0,0,0,0,-1,1952,568,0,0
735,456,0,0,0,0,0,0,0,0,0,-1,1959,568,0,0
742,456,0,0,0,0,0,0,0,0,0,-1,1966,568,0,0
749,456,0,0,0,0,0,0,0,0,0,-1,1973,568,0,0
756,456,0,0,0,0,0,0,0,0,0,-1,1980,568,0,0
763,456,0,0,0,0,0,0,0,0,0,-1,1987,568,0,0
770,456,0,0,0,0,0,0,0,0,0,-1,1994,568,0,0
777,456,0,0,0,0,0,0,0,0,0,-1,2001,568,0,0
784,456,0,0,0,0,0,0,0,0,0,-1,2008,568,0,0
791,456,0,0,0,0,0,0,0,0,0,-1,2015,568,0,0
798,456,0,0,0,0,0,0,0,0,0,-1,2022,568,0,0
805,456,0,0,0,0,0,0,0,0,0,-1,2029,568,0,0
812,456,0,0,0,0,0,0,0,0,0,-1,2036,568,0,0
-700,449,0,0,0,0,0,0,0,0,0,-1,524,575,0,0
-693,449,0,0,0,0,0,0,0,0,0,-1,531,575,0,0
-686,449,0,0,0,0,0,0,0,0,0,-1,538,575,0,0
-679,449,0,0,0,0,0,0,0,0,0,-1,545,575,0,0
-672,449,0,0,0,0,0,0,0,0,0,-1,552,575,0,0
-665,449,0,0,0,0,0,0,0,0,0,-1,559,575,0,0
-658,449,0,0,0,0,0,0,0,0,0,-1,566,575,0,0
-651,449,0,0,0,0,0,0,0,0,0,-1,573,575,0,0
-644,449,0,0,0,0,0,0,0,0,0,-1,580,575,0,0
-637,449,0,0,0,0,0,0,0,0,0,-1,587,575,0,0
-630,449,0,0,0,0,0,0,0,0,0,-1,594,575,0,0
-623,449,0,0,0,0,0,0,0,0,0,-1,601,575,0,0
-616,449,0,0,0,0,0,0,0,0,0,-1,608,575,0,0
-609,449,0,0,0,0,0,0,0,0,0,-1,615,575,0,0
-602,449,0,0,0,0,0,0,0,0,0,-1,622,575,0,0
-595,449,0,0,0,0,0,0,0,0,0,-1,629,575,0,0
-588,449,0,0,0,0,0,0,0,0,0,-1,636,575,0,0
-581,449,0,0,0,0,0,0,0,0,0,-1,643,575,0,0
-574,449,0,0,0,0,0,0,0,0,0,-1,650,575,0,0
-567,449,0,0,0,0,0,0,0,0,0,-1,657,575,0,0
-560,449,0,0,0,0,0,0,0,0,0,-1,664,575,0,0
-553,449,0,0,0,0,0,0,0,0,0,-1,671,575,0,0
-546,449,0,0,0,0,0,0,0,0,0,-1,678,575,0,0
-539,449,0,0,0,0,0,0,0,0,0,-1,685,575,0,0
-532,449,0,0,0,0,0,0,0,0,0,-1,692,575,0,0
-525,449,0,0,0,0,0,0,0,0,0,-1,699,575,0,0
-518,449,0,0,0,0,0,0,0,0,0,-1,706,575,0,0
-511,449,-0.941345,-4.4519,0,0,0,0,0,0,0,-1,713,575,-0.941356,4.45191
-504,449,-0.813354,-1.30457,0,0,0,0,0,0,0,-1,720,575,-0.813353,1.30454
-497,449,-1.06378,-0.79657,0,0,0,0,0,0,0,-1,727,575,-1.06381,0.796591
-490,449,-2.24689,2.591,0,0,0,0,0,0,0,-1,734,575,-2.24688,-2.59099
-483,449,-3.13385,-1.05109,0,0,0,0,0,0,0,-1,741,575,-3.13382,1.05107
-476,449,-2.12018,-1.27478,0,0,0,0,0,0,0,-1,748,575,-2.12021,1.27481
-469,449,-1.94928,-2.08643,0,0,0,0,0,0,0,-1,755,575,-1.94926,2.0864
-462,449,-1.7406,-2.24048,0.0191439,0.0208166,-0.0157672,0.0357696,0.0041909,-0.811895,0.0225794,0.0484622,762,575,-1.74062,2.2405
-455,449,-1.59784,-2.35193,0.0148393,0.0182674,-0.0127768,0.0294446,0.00366206,-0.852078,0.0185301,0.0431688,769,575,-1.59786,2.35195
-448,449,-1.47852,-2.51001,0.0112906,0.0157956,-0.0101497,0.0239397,0.00314642,-0.894591,0.0150213,0.0209081,776,575,-1.47855,2.51003
-441,449,-1.49933,-2.7525,0.00852476,0.0134285,-0.00795054,0.0192967,0.00265661,-0.934967,0.0120767,0.0122562,783,575,-1.49932,2.75251
-434,449,-1.52673,-2.93097,0.00635538,0.0109966,-0.0060639,0.0151688,0.00218324,-0.968149,0.00946905,0.011485,790,575,-1.52671,2.93098
-427,449,-1.52295,-3.09991,0.00455859,0.0087053,-0.00440186,0.0114977,0.00176623,-1.0055,0.00714946,0.0122855,797,575,-1.52297,3.09992
-420,449,-1.5061,-3.25842,0.00285518,0.00639361,-0.00287501,0.00800017,0.00124863,-1.06122,0.0049698,0.0122004,804,575,-1.50611,3.25845
-413,449,-1.50604,-3.44971,0.00180088,0.00465863,-0.00145584,0.00526964,0.00118986,-1.17342,0.00319129,0.00947917,811,575,-1.50605,3.44968
-406,449,-1.53088,-3.63269,0.00164049,0.00300914,-0.000232814,0.00304766,0.00160197,-1.40683,0.00176034,0.00865688,818,575,-1.53087,3.63269
-399,449,-1.52728,-3.79785,0.00179726,0.00135098,0.000745915,0.00235269,0.000795543,0.640061,0.00138185,0.00879572,825,575,-1.52726,3.79785
-392,449,-1.49933,-3.96429,0.00216379,6.22328e-05,0.00170999,0.00312005,-0.000894027,0.509894,0.00243342,0.00973398,832,575,-1.4993,3.96428
-385,449,-1.49792,-4.13239,0.00289237,-0.000943955,0.0026886,0.00427693,-0.00232851,0.475552,0.00386856,0.0097377,839,575,-1.49795,4.13239
-378,449,-1.51288,-4.30487,0.0038989,-0.00168181,0.00365941,0.00571043,-0.00349335,0.459667,0.00536495,0.00917261,846,575,-1.51289,4.30486
-371,449,-1.51129,-4.48859,0.00483461,-0.00195616,0.0047064,0.00724257,-0.00436412,0.472913,0.00676947,0.0102655,853,575,-1.5113,4.48859
-364,449,-1.46838,-4.68811,0.00607819,-0.00241712,0.00585911,0.00906737,-0.0054063,0.471755,0.00844502,0.0185284,860,575,-1.46837,4.68812
-357,449,-1.31372,-4.80383,0.00740873,-0.00272125,0.00719332,0.0111414,-0.00645387,0.478654,0.0102781,0.0297114,867,575,-1.3137,4.80386
-350,449,-1.06696,-4.63727,0.00849156,-0.00308501,0.00860278,0.0130721,-0.00766553,0.489267,0.0121077,0.0449324,874,575,-1.06695,4.63728
-343,449,-1.45984,-5.27417,0,0,0,0,0,0,0,-1,881,575,-1.45985,5.27417
-336,449,-0.988831,-5.33154,0,0,0,0,0,0,0,-1,888,575,-0.988801,5.33155
-329,449,-0.649353,-3.46033,0,0,0,0,0,0,0,-1,895,575,-0.649351,3.46035
-322,449,-0.628845,-3.16669,0,0,0,0,0,0,0,-1,902,575,-0.628861,3.16667
-315,449,-0.540344,-3.21918,0,0,0,0,0,0,0,-1,909,575,-0.540336,3.21917
-308,449,-1.04413,-2.99341,0,0,0,0,0,0,0,-1,916,575,-1.04415,2.99338
-301,449,-1.58691,-2.80725,0,0,0,0,0,0,0,-1,923,575,-1.58692,2.80728
-294,449,-3.71118,-2.76086,0,0,0,0,0,0,0,-1,930,575,-3.71119,2.76087
-287,449,-4.4082,-2.69525,0,0,0,0,0,0,0,-1,937,575,-4.40822,2.69526
-280,449,-5.09955,-2.96295,0,0,0,0,0,0,0,-1,944,575,-5.09953,2.96297
-273,449,0,0,0,0,0,0,0,0,0,-1,951,575,0,0
-266,449,0,0,0,0,0,0,0,0,0,-1,958,575,0,0
-259,449,0,0,0,0,0,0,0,0,0,-1,965,575,0,0
-252,449,0,0,0,0,0,0,0,0,0,-1,972,575,0,0
-245,449,0,0,0,0,0,0,0,0,0,-1,979,575,0,0
-238,449,0,0,0,0,0,0,0,0,0,-1,986,575,0,0
-231,449,0,0,0,0,0,0,0,0,0,-1,993,575,0,0
-224,449,0,0,0,0,0,0,0,0,0,-1,1000,575,0,0
-217,449,0,0,0,0,0,0,0,0,0,-1,1007,575,0,0
-210,449,0,0,0,0,0,0,0,0,0,-1,1014,575,0,0
-203,449,0,0,0,0,0,0,0,0,0,-1,1021,575,0,0
-196,449,0,0,0,0,0,0,0,0,0,-1,1028,575,0,0
-189,449,0,0,0,0,0,0,0,0,0,-1,1035,575,0,0
-182,449,0,0,0,0,0,0,0,0,0,-1,1042,575,0,0
-175,449,0,0,0,0,0,0,0,0,0,-1,1049,575,0,0
-168,449,0,0,0,0,0,0,0,0,0,-1,1056,575,0,0
-161,449,0,0,0,0,0,0,0,0,0,-1,1063,575,0,0
-154,449,0,0,0,0,0,0,0,0,0,-1,1070,575,0,0
-147,449,0,0,0,0,0,0,0,0,0,-1,1077,575,0,0
-140,449,0,0,0,0,0,0,0,0,0,-1,1084,575,0,0
-133,449,0,0,0,0,0,0,0,0,0,-1,1091,575,0,0
-126,449,0,0,0,0,0,0,0,0,0,-1,1098,575,0,0
-119,449,0,0,0,0,0,0,0,0,0,-1,1105,575,0,0
-112,449,0,0,0,0,0,0,0,0,0,-1,1112,575,0,0
-105,449,0,0,0,0,0,0,0,0,0,-1,1119,575,0,0
-98,449,0,0,0,0,0,0,0,0,0,-1,1126,575,0,0
-91,449,0,0,0,0,0,0,0,0,0,-1,1133,575,0,0
-84,449,0,0,0,0,0,0,0,0,0,-1,1140,575,0,0
-77,449,0,0,0,0,0,0,0,0,0,-1,1147,575,0,0
-70,449,0,0,0,0,0,0,0,0,0,-1,1154,575,0,0
-63,449,0,0,0,0,0,0,0,0,0,-1,1161,575,0,0
-56,449,0,0,0,0,0,0,0,0,0,-1,1168,575,0,0
-49,449,0,0,0,0,0,0,0,0,0,-1,1175,575,0,0
-42,449,0,0,0,0,0,0,0,0,0,-1,1182,575,0,0
-35,449,0,0,0,0,0,0,0,0,0,-1,1189,575,0,0
-28,449,0,0,0,0,0,0,0,0,0,-1,1196,575,0,0
-21,449,0,0,0,0,0,0,0,0,0,-1,1203,575,0,0
-14,449,0,0,0,0,0,0,0,0,0,-1,1210,575,0,0
-7,449,0,0,0,0,0,0,0,0,0,-1,1217,575,0,0
0,449,0,0,0,0,0,0,0,0,0,-1,1224,575,0,0
7,449,0,0,0,0,0,0,0,0,0,-1,1231,575,0,0
14,449,0,0,0,0,0,0,0,0,0,-1,1238,575,0,0
21,449,0,0,0,0,0,0,0,0,0,-1,1245,575,0,0
28,449,0,0,0,0,0,0,0,0,0,-1,1252,575,0,0
35,449,0,0,0,0,0,0,0,0,0,-1,1259,575,0,0
42,449,0,0,0,0,0,0,0,0,0,-1,1266,575,0,0
49,449,0,0,0,0,0,0,0,0,0,-1,1273,575,0,0
56,449,0,0,0,0,0,0,0,0,0,-1,1280,575,0,0
63,449,0,0,0,0,0,0,0,0,0,-1,1287,575,0,0
70,449,0,0,0,0,0,0,0,0,0,-1,1294,575,0,0
77,449,0,0,0,0,0,0,0,0,0,-1,1301,575,0,0
84,449,0,0,0,0,0,0,0,0,0,-1,1308,575,0,0
91,449,0,0,0,0,0,0,0,0,0,-1,1315,575,0,0
98,449,0,0,0,0,0,0,0,0,0,-1,1322,575,0,0
105,449,0,0,0,0,0,0,0,0,0,-1,1329,575,0,0
112,449,0,0,0,0,0,0,0,0,0,-1,1336,575,0,0
119,449,0,0,0,0,0,0,0,0,0,-1,1343,575,0,0
126,449,0,0,0,0,0,0,0,0,0,-1,1350,575,0,0
133,449,0,0,0,0,0,0,0,0,0,-1,1357,575,0,0
140,449,0,0,0,0,0,0,0,0,0,-1,1364,575,0,0
147,449,0,0,0,0,0,0,0,0,0,-1,1371,575,0,0
154,449,0,0,0,0,0,0,0,0,0,-1,1378,575,0,0
161,449,0,0,0,0,0,0,0,0,0,-1,1385,575,0,0
168,449,0,0,0,0,0,0,0,0,0,-1,1392,575,0,0
175,449,0,0,0,0,0,0,0,0,0,-1,1399,575,0,0
182,449,0,0,0,0,0,0,0,0,0,-1,1406,575,0,0
189,449,0,0,0,0,0,0,0,0,0,-1,1413,575,0,0
196,449,0,0,0,0,0,0,0,0,0,-1,1420,575,0,0
203,449,0,0,0,0,0,0,0,0,0,-1,1427,575,0,0
210,449,0,0,0,0,0,0,0,0,0,-1,1434,575,0,0
217,449,0,0,0,0,0,0,0,0,0,-1,1441,575,0,0
224,449,0,0,0,0,0,0,0,0,0,-1,1448,575,0,0
231,449,0,0,0,0,0,0,0,0,0,-1,1455,575,0,0
238,449,0,0,0,0,0,0,0,0,0,-1,1462,575,0,0
245,449,0,0,0,0,0,0,0,0,0,-1,1469,575,0,0
252,449,0,0,0,0,0,0,0,0,0,-1,1476,575,0,0
259,449,0,0,0,0,0,0,0,0,0,-1,1483,575,0,0
266,449,0,0,0,0,0,0,0,0,0,-1,1490,575,0,0
273,449,0,0,0,0,0,0,0,0,0,-1,1497,575,0,0
280,449,0,0,0,0,0,0,0,0,0,-1,1504,575,0,0
287,449,0,0,0,0,0,0,0,0,0,-1,1511,575,0,0
294,449,0,0,0,0,0,0,0,0,0,-1,1518,575,0,0
301,449,0,0,0,0,0,0,0,0,0,-1,1525,575,0,0
308,449,0,0,0,0,0,0,0,0,0,-1,1532,575,0,0
315,449,0,0,0,0,0,0,0,0,0,-1,1539,575,0,0
322,449,0,0,0,0,0,0,0,0,0,-1,1546,575,0,0
329,449,0,0,0,0,0,0,0,0,0,-1,1553,575,0,0
336,449,0,0,0,0,0,0,0,0,0,-1,1560,575,0,0
343,449,0,0,0,0,0,0,0,0,0,-1,1567,575,0,0
350,449,0,0,0,0,0,0,0,0,0,-1,1574,575,0,0
357,449,0,0,0,0,0,0,0,0,0,-1,1581,575,0,0
364,449,0,0,0,0,0,0,0,0,0,-1,1588,575,0,0
371,449,0,0,0,0,0,0,0,0,0,-1,1595,575,0,0
378,449,0,0,0,0,0,0,0,0,0,-1,1602,575,0,0
385,449,0,0,0,0,0,0,0,0,0,-1,1609,575,0,0
392,449,7.95471,3.66217,0,0,0,0,0,0,0,-1,1616,575,7.95471,-3.66218
399,449,10.4088,3.30078,0,0,0,0,0,0,0,-1,1623,575,10.4088,-3.30078
406,449,12.8629,2.93939,0,0,0,0,0,0,0,-1,1630,575,12.8629,-2.93939
413,449,13.7874,2.0094,0,0,0,0,0,0,0,-1,1637,575,13.7874,-2.00941
420,449,4.70264,2.21893,0,0,0,0,0,0,0,-1,1644,575,4.70263,-2.21894
427,449,8.96924,-4.53351,0,0,0,0,0,0,0,-1,1651,575,8.96925,4.53353
434,449,4.12927,-7.06952,0,0,0,0,0,0,0,-1,1658,575,4.12932,7.06952
441,449,3.89856,-6.06458,0,0,0,0,0,0,0,-1,1665,575,3.89855,6.06459
448,449,4.03198,-5.18207,0,0,0,0,0,0,0,-1,1672,575,4.03197,5.18207
455,449,4.21948,-4.09467,0,0,0,0,0,0,0,-1,1679,575,4.21952,4.09465
462,449,4.23181,-2.96924,0,0,0,0,0,0,0,-1,1686,575,4.23185,2.96926
469,449,4.51672,-2.95135,0,0,0,0,0,0,0,-1,1693,575,4.51672,2.95135
476,449,4.71838,-1.86688,0,0,0,0,0,0,0,-1,1700,575,4.71842,1.86689
483,449,4.87878,-1.73126,0,0,0,0,0,0,0,-1,1707,575,4.87875,1.73128
490,449,5.73279,-2.74573,0,0,0,0,0,0,0,-1,1714,575,5.73282,2.74575
497,449,5.95117,-3.36182,0,0,0,0,0,0,0,-1,1721,575,5.95116,3.36185
504,449,5.95203,-3.00726,0.00598648,-0.000134534,0.00133819,0.00626625,-0.000414305,0.206098,0.00432223,0.0305572,1728,575,5.95201,3.00726
511,449,6.0188,-2.81586,0.00488798,-0.000140772,0.0013,0.00520417,-0.000456958,0.238588,0.00363136,0.0113512,1735,575,6.01875,2.81586
518,449,6.04016,-2.61932,0.0035485,1.24411e-05,0.00111041,0.00386828,-0.000307337,0.280395,0.00268716,0.013566,1742,575,6.04014,2.61934
525,449,6.02271,-2.42468,0.00249135,0.000389702,0.00111063,0.00296948,-8.84354e-05,0.40653,0.00200978,0.0114382,1749,575,6.02276,2.42467
532,449,6,-2.24426,0.00150225,0.000956256,0.00102422,0.00228923,0.000169281,0.655154,0.00147297,0.00950483,1756,575,6.00004,2.24425
539,449,5.98743,-2.03778,0.000586987,0.00153476,0.00098434,0.00215335,-3.15963e-05,1.00974,0.00144621,0.0110225,1763,575,5.98744,2.03781
546,449,5.9978,-1.83539,-6.0726e-05,0.00231607,0.00111566,0.00275769,-0.000502355,1.19388,0.00202677,0.0186775,1770,575,5.99777,1.83537
553,449,5.99988,-1.65753,-0.000562993,0.00299406,0.00121481,0.00336935,-0.000938284,1.27117,0.0026157,0.0151983,1777,575,5.99983,1.65754
560,449,6.02161,-1.46143,-0.000876516,0.00361295,0.001341,0.003983,-0.00124657,1.30154,0.00315407,0.0135825,1784,575,6.02161,1.4614
567,449,6.01147,-1.25439,-0.000900814,0.0038794,0.00146636,0.00429336,-0.00131478,1.29565,0.00338667,0.00930693,1791,575,6.01144,1.25441
574,449,6.01904,-1.03607,-0.000762943,0.00409844,0.00160846,0.00458243,-0.00124694,1.27851,0.00354448,0.015969,1798,575,6.01902,1.03608
581,449,6.0105,-0.84021,-0.000720608,0.00415482,0.00172514,0.0047035,-0.00126929,1.26286,0.00363343,0.0376219,1805,575,6.01047,0.840238
588,449,6.06604,-0.48761,0,0,0,0,0,0,0,-1,1812,575,6.06606,0.487621
595,449,6.23901,-0.171021,0,0,0,0,0,0,0,-1,1819,575,6.23904,0.171025
602,449,5.81018,-0.312195,0,0,0,0,0,0,0,-1,1826,575,5.81012,0.312211
609,449,10.9318,3.04095,0,0,0,0,0,0,0,-1,1833,575,10.9318,-3.04097
616,449,8.89563,1.21643,0,0,0,0,0,0,0,-1,1840,575,8.89568,-1.21645
623,449,9.83789,-0.0820313,0,0,0,0,0,0,0,-1,1847,575,9.83794,0.0820443
630,449,8.90686,4.99329,0,0,0,0,0,0,0,-1,1854,575,8.90685,-4.99327
637,449,0,0,0,0,0,0,0,0,0,-1,1861,575,0,0
644,449,0,0,0,0,0,0,0,0,0,-1,1868,575,0,0
651,449,0,0,0,0,0,0,0,0,0,-1,1875,575,0,0
658,449,0,0,0,0,0,0,0,0,0,-1,1882,575,0,0
665,449,0,0,0,0,0,0,0,0,0,-1,1889,575,0,0
672,449,0,0,0,0,0,0,0,0,0,-1,1896,575,0,0
679,449,0,0,0,0,0,0,0,0,0,-1,1903,575,0,0
686,449,0,0,0,0,0,0,0,0,0,-1,1910,575,0,0
693,449,0,0,0,0,0,0,0,0,0,-1,1917,575,0,0
700,449,0,0,0,0,0,0,0,0,0,-1,1924,575,0,0
707,449,0,0,0,0,0,0,0,0,0,-1,1931,575,0,0
714,449,0,0,0,0,0,0,0,0,0,-1,1938,575,0,0
721,449,0,0,0,0,0,0,0,0,0,-1,1945,575,0,0
728,449,0,0,0,0,0,0,0,0,0,-1,1952,575,0,0
735,449,0,0,0,0,0,0,0,0,0,-1,1959,575,0,0
742,449,0,0,0,0,0,0,0,0,0,-1,1966,575,0,0
749,449,0,0,0,0,0,0,0,0,0,-1,1973,575,0,0
756,449,0,0,0,0,0,0,0,0,0,-1,1980,575,0,0
763,449,0,0,0,0,0,0,0,0,0,-1,1987,575,0,0
770,449,0,0,0,0,0,0,0,0,0,-1,1994,575,0,0
777,449,0,0,0,0,0,0,0,0,0,-1,2001,575,0,0
784,449,0,0,0,0,0,0,0,0,0,-1,2008,575,0,0
791,449,0,0,0,0,0,0,0,0,0,-1,2015,575,0,0
798,449,0,0,0,0,0,0,0,0,0,-1,2022,575,0,0
805,449,0,0,0,0,0,0,0,0,0,-1,2029,575,0,0
812,449,0,0,0,0,0,0,0,0,0,-1,2036,575,0,0
-700,442,0,0,0,0,0,0,0,0,0,-1,524,582,0,0
-693,442,0,0,0,0,0,0,0,0,0,-1,531,582,0,0
-686,442,0,0,0,0,0,0,0,0,0,-1,538,582,0,0
-679,442,0,0,0,0,0,0,0,0,0,-1,545,582,0,0
-672,442,0,0,0,0,0,0,0,0,0,-1,552,582,0,0
-665,442,0,0,0,0,0,0,0,0,0,-1,559,582,0,0
-658,442,0,0,0,0,0,0,0,0,0,-1,566,582,0,0
-651,442,0,0,0,0,0,0,0,0,0,-1,573,582,0,0
-644,442,0,0,0,0,0,0,0,0,0,-1,580,582,0,0
-637,442,0,0,0,0,0,0,0,0,0,-1,587,582,0,0
-630,442,0,0,0,0,0,0,0,0,0,-1,594,582,0,0
-623,442,0,0,0,0,0,0,0,0,0,-1,601,582,0,0
-616,442,0,0,0,0,0,0,0,0,0,-1,608,582,0,0
-609,442,0,0,0,0,0,0,0,0,0,-1,615,582,0,0
-602,442,0,0,0,0,0,0,0,0,0,-1,622,582,0,0
-595,442,0,0,0,0,0,0,0,0,0,-1,629,582,0,0
-588,442,0,0,0,0,0,0,0,0,0,-1,636,582,0,0
-581,442,0,0,0,0,0,0,0,0,0,-1,643,582,0,0
-574,442,0,0,0,0,0,0,0,0,0,-1,650,582,0,0
-567,442,0,0,0,0,0,0,0,0,0,-1,657,582,0,0
-560,442,0,0,0,0,0,0,0,0,0,-1,664,582,0,0
-553,442,0,0,0,0,0,0,0,0,0,-1,671,582,0,0
-546,442,0,0,0,0,0,0,0,0,0,-1,678,582,0,0
-539,442,0,0,0,0,0,0,0,0,0,-1,685,582,0,0
-532,442,0,0,0,0,0,0,0,0,0,-1,692,582,0,0
-525,442,0,0,0,0,0,0,0,0,0,-1,699,582,0,0
-518,442,-3.98541,-5.81055,0,0,0,0,0,0,0,-1,706,582,-3.98541,5.81057
-511,442,-2.64435,-5.87549,0,0,0,0,0,0,0,-1,713,582,-2.64437,5.87549
-504,442,-2.36841,-6.06586,0,0,0,0,0,0,0,-1,720,582,-2.36838,6.06589
-497,442,-4.27875,-4.42181,0,0,0,0,0,0,0,-1,727,582,-4.27876,4.42182
-490,442,-3.17236,-0.807495,0,0,0,0,0,0,0,-1,734,582,-3.17239,0.80752
-483,442,-2.79395,-1.12451,0,0,0,0,0,0,0,-1,741,582,-2.79395,1.1245
-476,442,-2.36658,-1.03802,0,0,0,0,0,0,0,-1,748,582,-2.36655,1.03803
-469,442,-2.25995,-2.05719,0.0177295,0.0149352,-0.0142912,0.0306916,0.00197303,-0.736672,0.0198361,0.0462167,755,582,-2.25994,2.05721
-462,442,-1.80243,-2.37952,0.0144258,0.0138047,-0.0115443,0.0256637,0.00256682,-0.771952,0.0163209,0.0340515,762,582,-1.80243,2.37951
-455,442,-1.70703,-2.42773,0.0113616,0.0120966,-0.00944155,0.0211778,0.00228043,-0.80485,0.0134231,0.0227687,769,582,-1.70705,2.42774
-448,442,-1.66858,-2.55872,0.00864543,0.0105296,-0.00752688,0.0171731,0.00200193,-0.847657,0.0108432,0.0123813,776,582,-1.66856,2.55871
-441,442,-1.68756,-2.7511,0.00638246,0.0090149,-0.0058649,0.0137095,0.0016879,-0.895781,0.00863219,0.012084,783,582,-1.68756,2.75111
-434,442,-1.69269,-2.93347,0.00451669,0.00733306,-0.00438934,0.0105346,0.00131518,-0.940621,0.00662829,0.0120892,790,582,-1.69269,2.93348
-427,442,-1.69995,-3.10309,0.00290287,0.00571109,-0.00303489,0.00765094,0.00096302,-1.00206,0.00481185,0.0125926,797,582,-1.69997,3.10307
-420,442,-1.67871,-3.26855,0.00130303,0.00399466,-0.0017562,0.00486142,0.000436281,-1.11233,0.00310575,0.0128472,804,582,-1.67871,3.26854
-413,442,-1.6745,-3.44409,0.000418033,0.00275636,-0.000446544,0.00283874,0.00033566,-1.38838,0.00179112,0.0103024,811,582,-1.67448,3.44407
-406,442,-1.69604,-3.63446,0.000485515,0.00149109,0.000801768,0.00193468,4.19263e-05,1.06545,0.00127604,0.00883495,818,582,-1.69605,3.63445
-399,442,-1.70209,-3.80994,0.000834313,0.000128363,0.0018353,0.00235027,-0.0013876,0.690395,0.00218179,0.00858233,825,582,-1.70211,3.80997
-392,442,-1.6731,-3.96588,0.0014481,-0.00093018,0.00295648,0.00344563,-0.0029277,0.594191,0.00368369,0.0101753,832,582,-1.67312,3.96591
-385,442,-1.67468,-4.12927,0.00256026,-0.00171874,0.00416771,0.00510555,-0.00426403,0.548262,0.0054168,0.0108334,839,582,-1.67467,4.12928
-378,442,-1.6712,-4.2912,0.00411782,-0.00235288,0.00553658,0.00729506,-0.00553011,0.520979,0.00742795,0.011386,846,582,-1.67122,4.29122
-371,442,-1.66461,-4.50623,0.00574063,-0.00273124,0.00717949,0.00984065,-0.00683126,0.518879,0.00967767,0.0216275,853,582,-1.66462,4.5062
-364,442,-1.68988,-4.78308,0.00788146,-0.00345273,0.00910898,0.0129423,-0.00851361,0.507127,0.0124753,0.036256,860,582,-1.68987,4.78309
-357,442,-1.42932,-4.91937,0.0102917,-0.00419833,0.0113381,0.0165018,-0.0104085,0.501097,0.0156689,0.0445084,867,582,-1.4293,4.91937
-350,442,-1.13641,-4.8913,0,0,0,0,0,0,0,-1,874,582,-1.13639,4.8913
-343,442,-2.63806,-4.60797,0,0,0,0,0,0,0,-1,881,582,-2.63808,4.60795
-336,442,-0.935913,-3.07611,0,0,0,0,0,0,0,-1,888,582,-0.935899,3.07609
-329,442,-0.952576,-2.76923,0,0,0,0,0,0,0,-1,895,582,-0.952571,2.7692
-322,442,-0.972534,-2.63208,0,0,0,0,0,0,0,-1,902,582,-0.972512,2.6321
-315,442,-0.445557,-2.89764,0,0,0,0,0,0,0,-1,909,582,-0.445582,2.89765
-308,442,-0.654175,-3.07831,0,0,0,0,0,0,0,-1,916,582,-0.654145,3.07832
-301,442,-1.37427,-2.41455,0,0,0,0,0,0,0,-1,923,582,-1.37425,2.41453
-294,442,-1.67377,-2.23328,0,0,0,0,0,0,0,-1,930,582,-1.67378,2.23326
-287,442,-5.00836,-2.38507,0,0,0,0,0,0,0,-1,937,582,-5.00839,2.38506
-280,442,0,0,0,0,0,0,0,0,0,-1,944,582,0,0
-273,442,0,0,0,0,0,0,0,0,0,-1,951,582,0,0
-266,442,0,0,0,0,0,0,0,0,0,-1,958,582,0,0
-259,442,0,0,0,0,0,0,0,0,0,-1,965,582,0,0
-252,442,0,0,0,0,0,0,0,0,0,-1,972,582,0,0
-245,442,0,0,0,0,0,0,0,0,0,-1,979,582,0,0
-238,442,0,0,0,0,0,0,0,0,0,-1,986,582,0,0
-231,442,0,0,0,0,0,0,0,0,0,-1,993,582,0,0
-224,442,0,0,0,0,0,0,0,0,0,-1,1000,582,0,0
-217,442,0,0,0,0,0,0,0,0,0,-1,1007,582,0,0
-210,442,0,0,0,0,0,0,0,0,0,-1,1014,582,0,0
-203,442,0,0,0,0,0,0,0,0,0,-1,1021,582,0,0
-196,442,0,0,0,0,0,0,0,0,0,-1,1028,582,0,0
-189,442,0,0,0,0,0,0,0,0,0,-1,1035,582,0,0
-182,442,0,0,0,0,0,0,0,0,0,-1,1042,582,0,0
-175,442,0,0,0,0,0,0,0,0,0,-1,1049,582,0,0
-168,442,0,0,0,0,0,0,0,0,0,-1,1056,582,0,0
-161,442,0,0,0,0,0,0,0,0,0,-1,1063,582,0,0
-154,442,0,0,0,0,0,0,0,0,0,-1,1070,582,0,0
-147,442,0,0,0,0,0,0,0,0,0,-1,1077,582,0,0
-140,442,0,0,0,0,0,0,0,0,0,-1,1084,582,0,0
-133,442,0,0,0,0,0,0,0,0,0,-1,1091,582,0,0
-126,442,0,0,0,0,0,0,0,0,0,-1,1098,582,0,0
-119,442,0,0,0,0,0,0,0,0,0,-1,1105,582,0,0
-112,442,0,0,0,0,0,0,0,0,0,-1,1112,582,0,0
-105,442,0,0,0,0,0,0,0,0,0,-1,1119,582,0,0
-98,442,0,0,0,0,0,0,0,0,0,-1,1126,582,0,0
-91,442,0,0,0,0,0,0,0,0,0,-1,1133,582,0,0
-84,442,0,0,0,0,0,0,0,0,0,-1,1140,582,0,0
-77,442,0,0,0,0,0,0,0,0,0,-1,1147,582,0,0
-70,442,0,0,0,0,0,0,0,0,0,-1,1154,582,0,0
-63,442,0,0,0,0,0,0,0,0,0,-1,1161,582,0,0
-56,442,0,0,0,0,0,0,0,0,0,-1,1168,582,0,0
-49,442,0,0,0,0,0,0,0,0,0,-1,1175,582,0,0
-42,442,0,0,0,0,0,0,0,0,0,-1,1182,582,0,0
-35,442,0,0,0,0,0,0,0,0,0,-1,1189,582,0,0
-28,442,0,0,0,0,0,0,0,0,0,-1,1196,582,0,0
-21,442,0,0,0,0,0,0,0,0,0,-1,1203,582,0,0
-14,442,0,0,0,0,0,0,0,0,0,-1,1210,582,0,0
-7,442,0,0,0,0,0,0,0,0,0,-1,1217,582,0,0
0,442,0,0,0,0,0,0,0,0,0,-1,1224,582,0,0
7,442,0,0,0,0,0,0,0,0,0,-1,1231,582,0,0
14,442,0,0,0,0,0,0,0,0,0,-1,1238,582,0,0
21,442,0,0,0,0,0,0,0,0,0,-1,1245,582,0,0
28,442,0,0,0,0,0,0,0,0,0,-1,1252,582,0,0
35,442,0,0,0,0,0,0,0,0,0,-1,1259,582,0,0
42,442,0,0,0,0,0,0,0,0,0,-1,1266,582,0,0
49,442,0,0,0,0,0,0,0,0,0,-1,1273,582,0,0
56,442,0,0,0,0,0,0,0,0,0,-1,1280,582,0,0
63,442,0,0,0,0,0,0,0,0,0,-1,1287,582,0,0
70,442,0,0,0,0,0,0,0,0,0,-1,1294,582,0,0
77,442,0,0,0,0,0,0,0,0,0,-1,1301,582,0,0
84,442,0,0,0,0,0,0,0,0,0,-1,1308,582,0,0
91,442,0,0,0,0,0,0,0,0,0,-1,1315,582,0,0
98,442,0,0,0,0,0,0,0,0,0,-1,1322,582,0,0
105,442,0,0,0,0,0,0,0,0,0,-1,1329,582,0,0
112,442,0,0,0,0,0,0,0,0,0,-1,1336,582,0,0
119,442,0,0,0,0,0,0,0,0,0,-1,1343,582,0,0
126,442,0,0,0,0,0,0,0,0,0,-1,1350,582,0,0
133,442,0,0,0,0,0,0,0,0,0,-1,1357,582,0,0
140,442,0,0,0,0,0,0,0,0,0,-1,1364,582,0,0
147,442,0,0,0,0,0,0,0,0,0,-1,1371,582,0,0
154,442,0,0,0,0,0,0,0,0,0,-1,1378,582,0,0
161,442,0,0,0,0,0,0,0,0,0,-1,1385,582,0,0
168,442,0,0,0,0,0,0,0,0,0,-1,1392,582,0,0
175,442,0,0,0,0,0,0,0,0,0,-1,1399,582,0,0
182,442,0,0,0,0,0,0,0,0,0,-1,1406,582,0,0
189,442,0,0,0,0,0,0,0,0,0,-1,1413,582,0,0
196,442,0,0,0,0,0,0,0,0,0,-1,1420,582,0,0
203,442,0,0,0,0,0,0,0,0,0,-1,1427,582,0,0
210,442,0,0,0,0,0,0,0,0,0,-1,1434,582,0,0
217,442,0,0,0,0,0,0,0,0,0,-1,1441,582,0,0
224,442,0,0,0,0,0,0,0,0,0,-1,1448,582,0,0
231,442,0,0,0,0,0,0,0,0,0,-1,1455,582,0,0
238,442,0,0,0,0,0,0,0,0,0,-1,1462,582,0,0
245,442,0,0,0,0,0,0,0,0,0,-1,1469,582,0,0
252,442,0,0,0,0,0,0,0,0,0,-1,1476,582,0,0
259,442,0,0,0,0,0,0,0,0,0,-1,1483,582,0,0
266,442,0,0,0,0,0,0,0,0,0,-1,1490,582,0,0
273,442,0,0,0,0,0,0,0,0,0,-1,1497,582,0,0
280,442,0,0,0,0,0,0,0,0,0,-1,1504,582,0,0
287,442,0,0,0,0,0,0,0,0,0,-1,1511,582,0,0
294,442,0,0,0,0,0,0,0,0,0,-1,1518,582,0,0
301,442,0,0,0,0,0,0,0,0,0,-1,1525,582,0,0
308,442,0,0,0,0,0,0,0,0,0,-1,1532,582,0,0
315,442,0,0,0,0,0,0,0,0,0,-1,1539,582,0,0
322,442,0,0,0,0,0,0,0,0,0,-1,1546,582,0,0
329,442,0,0,0,0,0,0,0,0,0,-1,1553,582,0,0
336,442,0,0,0,0,0,0,0,0,0,-1,1560,582,0,0
343,442,0,0,0,0,0,0,0,0,0,-1,1567,582,0,0
350,442,0,0,0,0,0,0,0,0,0,-1,1574,582,0,0
357,442,0,0,0,0,0,0,0,0,0,-1,1581,582,0,0
364,442,0,0,0,0,0,0,0,0,0,-1,1588,582,0,0
371,442,0,0,0,0,0,0,0,0,0,-1,1595,582,0,0
378,442,0,0,0,0,0,0,0,0,0,-1,1602,582,0,0
385,442,0,0,0,0,0,0,0,0,0,-1,1609,582,0,0
392,442,0,0,0,0,0,0,0,0,0,-1,1616,582,0,0
399,442,0,0,0,0,0,0,0,0,0,-1,1623,582,0,0
406,442,10.3704,2.44556,0,0,0,0,0,0,0,-1,1630,582,10.3703,-2.44558
413,442,3.66699,2.87408,0,0,0,0,0,0,0,-1,1637,582,3.66703,-2.87408
420,442,4.69055,3.09448,0,0,0,0,0,0,0,-1,1644,582,4.69054,-3.0945
427,442,2.44519,-1.35358,0,0,0,0,0,0,0,-1,1651,582,2.44514,1.35361
434,442,8.45898,-3.86719,0,0,0,0,0,0,0,-1,1658,582,8.45904,3.86719
441,442,4.89368,-7.42456,0,0,0,0,0,0,0,-1,1665,582,4.89365,7.42457
448,442,4.7749,-5.88562,0,0,0,0,0,0,0,-1,1672,582,4.7749,5.8856
455,442,4.87024,-4.60687,0,0,0,0,0,0,0,-1,1679,582,4.87019,4.60686
462,442,5.02307,-3.72821,0,0,0,0,0,0,0,-1,1686,582,5.02311,3.7282
469,442,5.12976,-2.98834,0,0,0,0,0,0,0,-1,1693,582,5.12971,2.98834
476,442,5.4624,1.76947,0,0,0,0,0,0,0,-1,1700,582,5.46234,-1.76944
483,442,5.98486,1.87042,0,0,0,0,0,0,0,-1,1707,582,5.98492,-1.87045
490,442,5.04407,-2.35834,0,0,0,0,0,0,0,-1,1714,582,5.04411,2.35837
497,442,6.20984,-3.07831,0,0,0,0,0,0,0,-1,1721,582,6.2098,3.07833
504,442,6.02722,-2.99811,0,0,0,0,0,0,0,-1,1728,582,6.02721,2.99809
511,442,6.16321,-2.81586,0.00544574,-0.000511134,0.00149806,0.00580127,-0.000866654,0.23301,0.0041864,0.0201738,1735,582,6.16319,2.81586
518,442,6.23938,-2.6059,0.00398428,-0.000565711,0.00111379,0.00424229,-0.000823726,0.227639,0.00313901,0.0114155,1742,582,6.23939,2.60589
525,442,6.21521,-2.42627,0.0029612,-0.000302188,0.00102174,0.00325471,-0.000595691,0.279726,0.00239321,0.0104871,1749,582,6.21518,2.42625
532,442,6.22278,-2.23718,0.00205897,7.27472e-05,0.000811426,0.00234831,-0.000216593,0.342527,0.00164251,0.00976918,1756,582,6.22277,2.23717
539,442,6.21021,-2.03131,0.00124536,0.000445229,0.000641307,0.00160116,8.94318e-05,0.506521,0.00103891,0.00963703,1763,582,6.21023,2.03131
546,442,6.21533,-1.86108,0.000693949,0.001012,0.00064567,0.00151794,0.000188008,0.906141,0.000955475,0.0122744,1770,582,6.21535,1.86109
553,442,6.20386,-1.67566,0.000273798,0.00150415,0.000650895,0.00178458,-6.62927e-06,1.164,0.00119194,0.0153072,1777,582,6.2038,1.67569
560,442,6.21069,-1.45758,-1.00069e-05,0.00195969,0.000689048,0.0021768,-0.000227121,1.26555,0.00153253,0.0152767,1784,582,6.21065,1.45755
567,442,6.19983,-1.25037,-7.10757e-05,0.0020963,0.000729515,0.00231897,-0.000293746,1.27455,0.00165262,0.0101384,1791,582,6.19981,1.25038
574,442,6.19995,-1.04816,3.0072e-05,0.00222828,0.000830371,0.00250669,-0.000248338,1.24729,0.00175976,0.0119127,1798,582,6.1999,1.04817
581,442,6.23474,-0.836243,2.50792e-05,0.00225351,0.000845381,0.00253792,-0.000259328,1.24627,0.00178468,0.016121,1805,582,6.2348,0.836271
588,442,6.20862,-0.711304,0.000143664,0.00206219,0.000878583,0.00240373,-0.000197878,1.20003,0.00167235,0.0219134,1812,582,6.20859,0.711275
595,442,6.25903,-0.387939,0.000471846,0.00170229,0.000664436,0.0019926,0.000181545,1.15888,0.00127221,0.0359275,1819,582,6.259,0.38795
602,442,6.3219,0.000183105,0,0,0,0,0,0,0,-1,1826,582,6.32191,-0.000162452
609,442,5.86462,-0.185486,0,0,0,0,0,0,0,-1,1833,582,5.86464,0.185507
616,442,7.16003,-1.18372,0,0,0,0,0,0,0,-1,1840,582,7.16,1.18373
623,442,9.23828,0.326721,0,0,0,0,0,0,0,-1,1847,582,9.23829,-0.326727
630,442,7.74304,2.3924,0,0,0,0,0,0,0,-1,1854,582,7.7431,-2.39238
637,442,5.87805,1.84027,0,0,0,0,0,0,0,-1,1861,582,5.87807,-1.84025
644,442,0,0,0,0,0,0,0,0,0,-1,1868,582,0,0
651,442,0,0,0,0,0,0,0,0,0,-1,1875,582,0,0
658,442,0,0,0,0,0,0,0,0,0,-1,1882,582,0,0
665,442,0,0,0,0,0,0,0,0,0,-1,1889,582,0,0
672,442,0,0,0,0,0,0,0,0,0,-1,1896,582,0,0
679,442,0,0,0,0,0,0,0,0,0,-1,1903,582,0,0
686,442,0,0,0,0,0,0,0,0,0,-1,1910,582,0,0
693,442,0,0,0,0,0,0,0,0,0,-1,1917,582,0,0
700,442,0,0,0,0,0,0,0,0,0,-1,1924,582,0,0
707,442,0,0,0,0,0,0,0,0,0,-1,1931,582,0,0
714,442,0,0,0,0,0,0,0,0,0,-1,1938,582,0,0
721,442,0,0,0,0,0,0,0,0,0,-1,1945,582,0,0
728,442,0,0,0,0,0,0,0,0,0,-1,1952,582,0,0
735,442,0,0,0,0,0,0,0,0,0,-1,1959,582,0,0
742,442,0,0,0,0,0,0,0,0,0,-1,1966,582,0,0
749,442,0,0,0,0,0,0,0,0,0,-1,1973,582,0,0
756,442,0,0,0,0,0,0,0,0,0,-1,1980,582,0,0
763,442,0,0,0,0,0,0,0,0,0,-1,1987,582,0,0
770,442,0,0,0,0,0,0,0,0,0,-1,1994,582,0,0
777,442,0,0,0,0,0,0,0,0,0,-1,2001,582,0,0
784,442,0,0,0,0,0,0,0,0,0,-1,2008,582,0,0
791,442,0,0,0,0,0,0,0,0,0,-1,2015,582,0,0
798,442,0,0,0,0,0,0,0,0,0,-1,2022,582,0,0
805,442,0,0,0,0,0,0,0,0,0,-1,2029,582,0,0
812,442,0,0,0,0,0,0,0,0,0,-1,2036,582,0,0
-700,435,0,0,0,0,0,0,0,0,0,-1,524,589,0,0
-693,435,0,0,0,0,0,0,0,0,0,-1,531,589,0,0
-686,435,0,0,0,0,0,0,0,0,0,-1,538,589,0,0
-679,435,0,0,0,0,0,0,0,0,0,-1,545,589,0,0
-672,435,0,0,0,0,0,0,0,0,0,-1,552,589,0,0
-665,435,0,0,0,0,0,0,0,0,0,-1,559,589,0,0
-658,435,0,0,0,0,0,0,0,0,0,-1,566,589,0,0
-651,435,0,0,0,0,0,0,0,0,0,-1,573,589,0,0
-644,435,0,0,0,0,0,0,0,0,0,-1,580,589,0,0
-637,435,0,0,0,0,0,0,0,0,0,-1,587,589,0,0
-630,435,0,0,0,0,0,0,0,0,0,-1,594,589,0,0
-623,435,0,0,0,0,0,0,0,0,0,-1,601,589,0,0
-616,435,0,0,0,0,0,0,0,0,0,-1,608,589,0,0
-609,435,0,0,0,0,0,0,0,0,0,-1,615,589,0,0
-602,435,0,0,0,0,0,0,0,0,0,-1,622,589,0,0
-595,435,0,0,0,0,0,0,0,0,0,-1,629,589,0,0
-588,435,0,0,0,0,0,0,0,0,0,-1,636,589,0,0
-581,435,0,0,0,0,0,0,0,0,0,-1,643,589,0,0
-574,435,0,0,0,0,0,0,0,0,0,-1,650,589,0,0
-567,435,0,0,0,0,0,0,0,0,0,-1,657,589,0,0
-560,435,0,0,0,0,0,0,0,0,0,-1,664,589,0,0
-553,435,0,0,0,0,0,0,0,0,0,-1,671,589,0,0
-546,435,0,0,0,0,0,0,0,0,0,-1,678,589,0,0
-539,435,0,0,0,0,0,0,0,0,0,-1,685,589,0,0
-532,435,0,0,0,0,0,0,0,0,0,-1,692,589,0,0
-525,435,-3.5592,-5.55487,0,0,0,0,0,0,0,-1,699,589,-3.55923,5.55486
-518,435,-3.13428,-5.49969,0,0,0,0,0,0,0,-1,706,589,-3.13427,5.49972
-511,435,-2.49548,-5.25159,0,0,0,0,0,0,0,-1,713,589,-2.49548,5.25157
-504,435,-1.96234,-5.20099,0,0,0,0,0,0,0,-1,720,589,-1.96233,5.20099
-497,435,-1.28979,-5.22174,0,0,0,0,0,0,0,-1,727,589,-1.2898,5.22177
-490,435,-3.24353,-1.6192,0,0,0,0,0,0,0,-1,734,589,-3.2435,1.61918
-483,435,-2.90723,-0.953613,0,0,0,0,0,0,0,-1,741,589,-2.90726,0.953626
-476,435,-2.4491,-1.34845,0.0140804,0.0101066,-0.0120416,0.0242979,-0.000110881,-0.703632,0.0162357,0.043655,748,589,-2.44909,1.34842
-469,435,-1.91895,-1.90466,0.0118173,0.00927489,-0.0100196,0.020646,0.000446226,-0.722298,0.0136177,0.0291273,755,589,-1.91894,1.90469
-462,435,-1.80408,-2.22375,0.0097704,0.00829339,-0.0079524,0.0170185,0.00104528,-0.739098,0.0110138,0.014292,762,589,-1.80406,2.22378
-455,435,-1.85931,-2.39044,0.00769983,0.00711872,-0.00640651,0.0138224,0.000996181,-0.762737,0.00890145,0.012407,769,589,-1.85934,2.39043
-448,435,-1.84808,-2.57275,0.00574532,0.00614839,-0.00494664,0.0108976,0.000996106,-0.805758,0.00695684,0.0123307,776,589,-1.84807,2.57273
-441,435,-1.86078,-2.74225,0.00400553,0.005242,-0.00365996,0.00833557,0.00091196,-0.869068,0.00527938,0.011339,783,589,-1.86076,2.74223
-434,435,-1.86639,-2.90424,0.0025205,0.00412909,-0.00248703,0.00593864,0.000710948,-0.941789,0.00374468,0.0121467,790,589,-1.86641,2.90423
-427,435,-1.87299,-3.09882,0.00119622,0.00305148,-0.00137482,0.00378236,0.000465349,-1.08218,0.00238166,0.00972992,797,589,-1.873,3.09882
-420,435,-1.85327,-3.26086,-0.000176862,0.00185387,-0.000323291,0.00190409,-0.000227088,-1.41667,0.00135147,0.0103023,804,589,-1.85328,3.26086
-413,435,-1.85193,-3.43762,-0.000797868,0.00103768,0.000866089,0.00138182,-0.001142,1.19258,0.00145932,0.0101867,811,589,-1.85196,3.43761
-406,435,-1.85712,-3.62994,-0.000448033,0.000100808,0.00213611,0.00198006,-0.00232728,0.849282,0.00248953,0.00992192,818,589,-1.85712,3.62997
-399,435,-1.86627,-3.80487,0.000121614,-0.000994704,0.00321758,0.00282909,-0.00370218,0.699517,0.00378205,0.00929528,825,589,-1.86624,3.80486
-392,435,-1.86407,-3.96564,0.00100297,-0.00186116,0.00450212,0.0042953,-0.00515349,0.631415,0.00546275,0.00969667,832,589,-1.86407,3.96561
-385,435,-1.85175,-4.1347,0.00244348,-0.00257044,0.00603286,0.00646954,-0.00659649,0.588478,0.00754379,0.0111727,839,589,-1.85176,4.13468
-378,435,-1.81,-4.27942,0.00446307,-0.00330977,0.00795032,0.00942605,-0.00827275,0.558059,0.0102256,0.0182492,846,589,-1.80999,4.27944
-371,435,-1.81476,-4.46021,0.00688545,-0.00392023,0.010362,0.0131686,-0.0102034,0.545085,0.0135299,0.0371927,853,589,-1.81476,4.4602
-364,435,-2.02747,-4.72711,0.0101739,-0.00502956,0.0133457,0.0179311,-0.0127867,0.526514,0.0178176,0.0463017,860,589,-2.02746,4.72712
-357,435,-1.91321,-4.93121,0,0,0,0,0,0,0,-1,867,589,-1.91319,4.93124
-350,435,-0.86676,-3.69836,0,0,0,0,0,0,0,-1,874,589,-0.866784,3.69834
-343,435,-1.60706,-2.36835,0,0,0,0,0,0,0,-1,881,589,-1.60706,2.36838
-336,435,-2.07263,-1.94012,0,0,0,0,0,0,0,-1,888,589,-2.07265,1.94014
-329,435,-2.55963,-1.5517,0,0,0,0,0,0,0,-1,895,589,-2.5596,1.55168
-322,435,-3.08545,-1.55255,0,0,0,0,0,0,0,-1,902,589,-3.08544,1.55254
-315,435,-0.404297,-2.63763,0,0,0,0,0,0,0,-1,909,589,-0.404276,2.63761
-308,435,-1.70056,-1.90369,0,0,0,0,0,0,0,-1,916,589,-1.70056,1.90367
-301,435,-1.25232,-2.05511,0,0,0,0,0,0,0,-1,923,589,-1.25234,2.05514
-294,435,-1.79974,-1.97321,0,0,0,0,0,0,0,-1,930,589,-1.79973,1.97322
-287,435,0,0,0,0,0,0,0,0,0,-1,937,589,0,0
-280,435,0,0,0,0,0,0,0,0,0,-1,944,589,0,0
-273,435,0,0,0,0,0,0,0,0,0,-1,951,589,0,0
-266,435,0,0,0,0,0,0,0,0,0,-1,958,589,0,0
-259,435,0,0,0,0,0,0,0,0,0,-1,965,589,0,0
-252,435,0,0,0,0,0,0,0,0,0,-1,972,589,0,0
-245,435,0,0,0,0,0,0,0,0,0,-1,979,589,0,0
-238,435,0,0,0,0,0,0,0,0,0,-1,986,589,0,0
-231,435,0,0,0,0,0,0,0,0,0,-1,993,589,0,0
-224,435,0,0,0,0,0,0,0,0,0,-1,1000,589,0,0
-217,435,0,0,0,0,0,0,0,0,0,-1,1007,589,0,0
-210,435,0,0,0,0,0,0,0,0,0,-1,1014,589,0,0
-203,435,0,0,0,0,0,0,0,0,0,-1,1021,589,0,0
-196,435,0,0,0,0,0,0,0,0,0,-1,1028,589,0,0
-189,435,0,0,0,0,0,0,0,0,0,-1,1035,589,0,0
-182,435,0,0,0,0,0,0,0,0,0,-1,1042,589,0,0
-175,435,0,0,0,0,0,0,0,0,0,-1,1049,589,0,0
-168,435,0,0,0,0,0,0,0,0,0,-1,1056,589,0,0
-161,435,0,0,0,0,0,0,0,0,0,-1,1063,589,0,0
-154,435,0,0,0,0,0,0,0,0,0,-1,1070,589,0,0
-147,435,0,0,0,0,0,0,0,0,0,-1,1077,589,0,0
-140,435,0,0,0,0,0,0,0,0,0,-1,1084,589,0,0
-133,435,0,0,0,0,0,0,0,0,0,-1,1091,589,0,0
-126,435,0,0,0,0,0,0,0,0,0,-1,1098,589,0,0
-119,435,0,0,0,0,0,0,0,0,0,-1,1105,589,0,0
-112,435,0,0,0,0,0,0,0,0,0,-1,1112,589,0,0
-105,435,0,0,0,0,0,0,0,0,0,-1,1119,589,0,0
-98,435,0,0,0,0,0,0,0,0,0,-1,1126,589,0,0
-91,435,0,0,0,0,0,0,0,0,0,-1,1133,589,0,0
-84,435,0,0,0,0,0,0,0,0,0,-1,1140,589,0,0
-77,435,0,0,0,0,0,0,0,0,0,-1,1147,589,0,0
-70,435,0,0,0,0,0,0,0,0,0,-1,1154,589,0,0
-63,435,0,0,0,0,0,0,0,0,0,-1,1161,589,0,0
-56,435,0,0,0,0,0,0,0,0,0,-1,1168,589,0,0
-49,435,0,0,0,0,0,0,0,0,0,-1,1175,589,0,0
-42,435,0,0,0,0,0,0,0,0,0,-1,1182,589,0,0
-35,435,0,0,0,0,0,0,0,0,0,-1,1189,589,0,0
-28,435,0,0,0,0,0,0,0,0,0,-1,1196,589,0,0
-21,435,0,0,0,0,0,0,0,0,0,-1,1203,589,0,0
-14,435,0,0,0,0,0,0,0,0,0,-1,1210,589,0,0
-7,435,0,0,0,0,0,0,0,0,0,-1,1217,589,0,0
0,435,0,0,0,0,0,0,0,0,0,-1,1224,589,0,0
7,435,0,0,0,0,0,0,0,0,0,-1,1231,589,0,0
14,435,0,0,0,0,0,0,0,0,0,-1,1238,589,0,0
21,435,0,0,0,0,0,0,0,0,0,-1,1245,589,0,0
28,435,0,0,0,0,0,0,0,0,0,-1,1252,589,0,0
35,435,0,0,0,0,0,0,0,0,0,-1,1259,589,0,0
42,435,0,0,0,0,0,0,0,0,0,-1,1266,589,0,0
49,435,0,0,0,0,0,0,0,0,0,-1,1273,589,0,0
56,435,0,0,0,0,0,0,0,0,0,-1,1280,589,0,0
63,435,0,0,0,0,0,0,0,0,0,-1,1287,589,0,0
70,435,0,0,0,0,0,0,0,0,0,-1,1294,589,0,0
77,435,0,0,0,0,0,0,0,0,0,-1,1301,589,0,0
84,435,0,0,0,0,0,0,0,0,0,-1,1308,589,0,0
91,435,0,0,0,0,0,0,0,0,0,-1,1315,589,0,0
98,435,0,0,0,0,0,0,0,0,0,-1,1322,589,0,0
105,435,0,0,0,0,0,0,0,0,0,-1,1329,589,0,0
112,435,0,0,0,0,0,0,0,0,0,-1,1336,589,0,0
119,435,0,0,0,0,0,0,0,0,0,-1,1343,589,0,0
126,435,0,0,0,0,0,0,0,0,0,-1,1350,589,0,0
133,435,0,0,0,0,0,0,0,0,0,-1,1357,589,0,0
140,435,0,0,0,0,0,0,0,0,0,-1,1364,589,0,0
147,435,0,0,0,0,0,0,0,0,0,-1,1371,589,0,0
154,435,0,0,0,0,0,0,0,0,0,-1,1378,589,0,0
161,435,0,0,0,0,0,0,0,0,0,-1,1385,589,0,0
168,435,0,0,0,0,0,0,0,0,0,-1,1392,589,0,0
175,435,0,0,0,0,0,0,0,0,0,-1,1399,589,0,0
182,435,0,0,0,0,0,0,0,0,0,-1,1406,589,0,0
189,435,0,0,0,0,0,0,0,0,0,-1,1413,589,0,0
196,435,0,0,0,0,0,0,0,0,0,-1,1420,589,0,0
203,435,0,0,0,0,0,0,0,0,0,-1,1427,589,0,0
210,435,0,0,0,0,0,0,0,0,0,-1,1434,589,0,0
217,435,0,0,0,0,0,0,0,0,0,-1,1441,589,0,0
224,435,0,0,0,0,0,0,0,0,0,-1,1448,589,0,0
231,435,0,0,0,0,0,0,0,0,0,-1,1455,589,0,0
238,435,0,0,0,0,0,0,0,0,0,-1,1462,589,0,0
245,435,0,0,0,0,0,0,0,0,0,-1,1469,589,0,0
252,435,0,0,0,0,0,0,0,0,0,-1,1476,589,0,0
259,435,0,0,0,0,0,0,0,0,0,-1,1483,589,0,0
266,435,0,0,0,0,0,0,0,0,0,-1,1490,589,0,0
273,435,0,0,0,0,0,0,0,0,0,-1,1497,589,0,0
280,435,0,0,0,0,0,0,0,0,0,-1,1504,589,0,0
287,435,0,0,0,0,0,0,0,0,0,-1,1511,589,0,0
294,435,0,0,0,0,0,0,0,0,0,-1,1518,589,0,0
301,435,0,0,0,0,0,0,0,0,0,-1,1525,589,0,0
308,435,0,0,0,0,0,0,0,0,0,-1,1532,589,0,0
315,435,0,0,0,0,0,0,0,0,0,-1,1539,589,0,0
322,435,0,0,0,0,0,0,0,0,0,-1,1546,589,0,0
329,435,0,0,0,0,0,0,0,0,0,-1,1553,589,0,0
336,435,0,0,0,0,0,0,0,0,0,-1,1560,589,0,0
343,435,0,0,0,0,0,0,0,0,0,-1,1567,589,0,0
350,435,0,0,0,0,0,0,0,0,0,-1,1574,589,0,0
357,435,0,0,0,0,0,0,0,0,0,-1,1581,589,0,0
364,435,0,0,0,0,0,0,0,0,0,-1,1588,589,0,0
371,435,0,0,0,0,0,0,0,0,0,-1,1595,589,0,0
378,435,0,0,0,0,0,0,0,0,0,-1,1602,589,0,0
385,435,0,0,0,0,0,0,0,0,0,-1,1609,589,0,0
392,435,0,0,0,0,0,0,0,0,0,-1,1616,589,0,0
399,435,0,0,0,0,0,0,0,0,0,-1,1623,589,0,0
406,435,0,0,0,0,0,0,0,0,0,-1,1630,589,0,0
413,435,3.62073,3.42682,0,0,0,0,0,0,0,-1,1637,589,3.62069,-3.4268
420,435,3.6062,3.71564,0,0,0,0,0,0,0,-1,1644,589,3.60616,-3.71562
427,435,3.11963,0.640198,0,0,0,0,0,0,0,-1,1651,589,3.11967,-0.640192
434,435,2.72107,-1.34802,0,0,0,0,0,0,0,-1,1658,589,2.7211,1.34803
441,435,7.33191,-1.57452,0,0,0,0,0,0,0,-1,1665,589,7.33193,1.57452
448,435,7.4585,-0.00292969,0,0,0,0,0,0,0,-1,1672,589,7.45848,0.00294131
455,435,5.49915,-5.047,0,0,0,0,0,0,0,-1,1679,589,5.49914,5.04703
462,435,5.60669,-4.71466,0,0,0,0,0,0,0,-1,1686,589,5.60675,4.71469
469,435,5.87708,1.22351,0,0,0,0,0,0,0,-1,1693,589,5.87703,-1.22351
476,435,6.14136,1.37714,0,0,0,0,0,0,0,-1,1700,589,6.14138,-1.37712
483,435,6.49243,1.36169,0,0,0,0,0,0,0,-1,1707,589,6.49242,-1.36171
490,435,4.38391,-1.36218,0,0,0,0,0,0,0,-1,1714,589,4.38389,1.3622
497,435,7.23499,-3.64551,0,0,0,0,0,0,0,-1,1721,589,7.23495,3.64551
504,435,5.94922,-2.87537,0,0,0,0,0,0,0,-1,1728,589,5.94925,2.87536
511,435,6.23352,-2.7597,0.00477052,-0.00105986,0.00111088,0.004975,-0.00126434,0.182039,0.00380872,0.0407242,1735,589,6.23348,2.75971
518,435,6.42212,-2.63275,0.00322388,-0.00133283,0.000574341,0.00329516,-0.00140411,0.12347,0.00278539,0.0147177,1742,589,6.4221,2.63273
525,435,6.40308,-2.43726,0.00228384,-0.00118289,0.000431536,0.00233675,-0.0012358,0.121999,0.00209501,0.0121579,1749,589,6.40302,2.43726
532,435,6.41516,-2.22467,0.00152958,-0.000986553,0.000161881,0.00153995,-0.000996925,0.0639854,0.00147581,0.0124751,1756,589,6.41521,2.2247
539,435,6.42603,-1.99243,0.00090298,-0.000771418,-5.4268e-05,0.000904737,-0.000773175,-0.0323652,0.000969735,0.0128648,1763,589,6.42603,1.99241
546,435,6.41272,-1.81775,0.000550551,-0.000360154,-8.08071e-05,0.000557665,-0.000367269,-0.087816,0.000537769,0.0126027,1770,589,6.41271,1.81775
553,435,6.41516,-1.66693,0.000335491,3.94668e-05,-5.19158e-05,0.000344332,3.0626e-05,-0.168673,0.000220057,0.00989803,1777,589,6.41516,1.66693
560,435,6.40564,-1.47717,0.000220634,0.000442167,2.52402e-05,0.000445007,0.000217794,1.45877,0.000256944,0.00960806,1784,589,6.40563,1.47719
567,435,6.4115,-1.25623,0.000268504,0.000582945,0.000113129,0.000619417,0.000232033,1.25893,0.00036135,0.00909121,1791,589,6.41148,1.25625
574,435,6.40515,-1.0542,0.000477916,0.0007567,0.000289556,0.000938668,0.000295947,1.00973,0.000554131,0.00985557,1798,589,6.4052,1.05417
581,435,6.38232,-0.897522,0.000560649,0.000865731,0.000350376,0.00109533,0.000331049,0.990706,0.000648669,0.0161839,1805,589,6.38228,0.897541
588,435,6.39026,-0.702881,0.00067948,0.000805268,0.000412194,0.00115934,0.000325409,0.861106,0.000690474,0.0186477,1812,589,6.39027,0.702883
595,435,6.375,-0.506042,0.00105169,0.000550911,0.000200904,0.00112232,0.000480274,0.338094,0.000650213,0.0202159,1819,589,6.37496,0.506018
602,435,6.27271,-0.323547,0.00157451,-0.000841122,-0.000932257,0.00189245,-0.00115906,-0.328671,0.00177867,0.0390938,1826,589,6.27274,0.323562
609,435,6.177,-0.143616,0,0,0,0,0,0,0,-1,1833,589,6.17694,0.143629
616,435,5.05151,-2.75269,0,0,0,0,0,0,0,-1,1840,589,5.05157,2.7527
623,435,8.69324,2.36554,0,0,0,0,0,0,0,-1,1847,589,8.69318,-2.36556
630,435,4.72742,-0.87561,0,0,0,0,0,0,0,-1,1854,589,4.7274,0.875636
637,435,5.05286,1.48792,0,0,0,0,0,0,0,-1,1861,589,5.05291,-1.48792
644,435,0,0,0,0,0,0,0,0,0,-1,1868,589,0,0
651,435,0,0,0,0,0,0,0,0,0,-1,1875,589,0,0
658,435,0,0,0,0,0,0,0,0,0,-1,1882,589,0,0
665,435,0,0,0,0,0,0,0,0,0,-1,1889,589,0,0
672,435,0,0,0,0,0,0,0,0,0,-1,1896,589,0,0
679,435,0,0,0,0,0,0,0,0,0,-1,1903,589,0,0
686,435,0,0,0,0,0,0,0,0,0,-1,1910,589,0,0
693,435,0,0,0,0,0,0,0,0,0,-1,1917,589,0,0
700,435,0,0,0,0,0,0,0,0,0,-1,1924,589,0,0
707,435,0,0,0,0,0,0,0,0,0,-1,1931,589,0,0
714,435,0,0,0,0,0,0,0,0,0,-1,1938,589,0,0
721,435,0,0,0,0,0,0,0,0,0,-1,1945,589,0,0
728,435,0,0,0,0,0,0,0,0,0,-1,1952,589,0,0
735,435,0,0,0,0,0,0,0,0,0,-1,1959,589,0,0
742,435,0,0,0,0,0,0,0,0,0,-1,1966,589,0,0
749,435,0,0,0,0,0,0,0,0,0,-1,1973,589,0,0
756,435,0,0,0,0,0,0,0,0,0,-1,1980,589,0,0
763,435,0,0,0,0,0,0,0,0,0,-1,1987,589,0,0
770,435,0,0,0,0,0,0,0,0,0,-1,1994,589,0,0
777,435,0,0,0,0,0,0,0,0,0,-1,2001,589,0,0
784,435,0,0,0,0,0,0,0,0,0,-1,2008,589,0,0
791,435,0,0,0,0,0,0,0,0,0,-1,2015,589,0,0
798,435,0,0,0,0,0,0,0,0,0,-1,2022,589,0,0
805,435,0,0,0,0,0,0,0,0,0,-1,2029,589,0,0
812,435,0,0,0,0,0,0,0,0,0,-1,2036,589,0,0
-700,428,0,0,0,0,0,0,0,0,0,-1,524,596,0,0
-693,428,0,0,0,0,0,0,0,0,0,-1,531,596,0,0
-686,428,0,0,0,0,0,0,0,0,0,-1,538,596,0,0
-679,428,0,0,0,0,0,0,0,0,0,-1,545,596,0,0
-672,428,0,0,0,0,0,0,0,0,0,-1,552,596,0,0
-665,428,0,0,0,0,0,0,0,0,0,-1,559,596,0,0
-658,428,0,0,0,0,0,0,0,0,0,-1,566,596,0,0
-651,428,0,0,0,0,0,0,0,0,0,-1,573,596,0,0
-644,428,0,0,0,0,0,0,0,0,0,-1,580,596,0,0
-637,428,0,0,0,0,0,0,0,0,0,-1,587,596,0,0
-630,428,0,0,0,0,0,0,0,0,0,-1,594,596,0,0
-623,428,0,0,0,0,0,0,0,0,0,-1,601,596,0,0
-616,428,0,0,0,0,0,0,0,0,0,-1,608,596,0,0
-609,428,0,0,0,0,0,0,0,0,0,-1,615,596,0,0
-602,428,0,0,0,0,0,0,0,0,0,-1,622,596,0,0
-595,428,0,0,0,0,0,0,0,0,0,-1,629,596,0,0
-588,428,0,0,0,0,0,0,0,0,0,-1,636,596,0,0
-581,428,0,0,0,0,0,0,0,0,0,-1,643,596,0,0
-574,428,0,0,0,0,0,0,0,0,0,-1,650,596,0,0
-567,428,0,0,0,0,0,0,0,0,0,-1,657,596,0,0
-560,428,0,0,0,0,0,0,0,0,0,-1,664,596,0,0
-553,428,0,0,0,0,0,0,0,0,0,-1,671,596,0,0
-546,428,0,0,0,0,0,0,0,0,0,-1,678,596,0,0
-539,428,0,0,0,0,0,0,0,0,0,-1,685,596,0,0
-532,428,0,0,0,0,0,0,0,0,0,-1,692,596,0,0
-525,428,-9.94873,5.86664,0,0,0,0,0,0,0,-1,699,596,-9.94875,-5.86666
-518,428,-2.68677,-4.75885,0,0,0,0,0,0,0,-1,706,596,-2.68679,4.75885
-511,428,-2.21271,-4.64166,0,0,0,0,0,0,0,-1,713,596,-2.21272,4.64167
-504,428,-1.73865,-4.52448,0,0,0,0,0,0,0,-1,720,596,-1.73866,4.5245
-497,428,-2.38306,-3.17322,0,0,0,0,0,0,0,-1,727,596,-2.38308,3.17324
-490,428,-2.01691,-1.36304,0,0,0,0,0,0,0,-1,734,596,-2.0169,1.36301
-483,428,-2.09735,-1.70288,0,0,0,0,0,0,0,-1,741,596,-2.09736,1.70291
-476,428,-2.31677,-1.72046,0.00944393,0.00647673,-0.00831598,0.0164076,-0.000486962,-0.697125,0.0111043,0.0346954,748,596,-2.31679,1.72046
-469,428,-2.01154,-1.99414,0.00820169,0.00557239,-0.00691209,0.013923,-0.000148953,-0.691423,0.00933207,0.0178572,755,596,-2.01152,1.99416
-462,428,-2.04065,-2.19476,0.00691505,0.00454898,-0.00534059,0.0112021,0.000261965,-0.676399,0.00738228,0.014915,762,596,-2.04068,2.19475
-455,428,-2.0564,-2.38348,0.0054367,0.00367394,-0.00414312,0.00879115,0.000319487,-0.680594,0.00575723,0.0111079,769,596,-2.05638,2.38351
-448,428,-2.02966,-2.56451,0.00392631,0.00303608,-0.00294986,0.00646445,0.000497941,-0.710516,0.00415361,0.0113519,776,596,-2.02963,2.56451
-441,428,-2.03888,-2.74451,0.00244225,0.00250503,-0.0018725,0.00434641,0.000600877,-0.793779,0.00271953,0.0143873,783,596,-2.03889,2.7445
-434,428,-2.0376,-2.93512,0.00110219,0.00176806,-0.000860395,0.00235769,0.000512562,-0.970002,0.00143185,0.0105588,790,596,-2.03762,2.93515
-427,428,-2.03125,-3.1156,-0.000147093,0.00107926,0.000127805,0.00109244,-0.00016027,1.46805,0.000787175,0.0104151,797,596,-2.03126,3.11563
-420,428,-2.02264,-3.25092,-0.0014676,0.00029292,0.00104078,0.000775775,-0.00195045,1.13641,0.00162196,0.0113556,804,596,-2.02267,3.25092
-413,428,-2.01813,-3.40576,-0.00198949,-0.000200606,0.00216705,0.00124934,-0.00343944,0.981121,0.00280377,0.0124155,811,596,-2.01811,3.40577
-406,428,-2.02399,-3.5954,-0.00152109,-0.000883204,0.00351513,0.00232742,-0.00473172,0.830641,0.00415365,0.0137909,818,596,-2.02402,3.59542
-399,428,-2.02649,-3.78918,-0.000866402,-0.00175297,0.00470615,0.00341729,-0.00603666,0.73844,0.00552764,0.0133355,825,596,-2.02652,3.78916
-392,428,-2.02051,-3.98108,0.000196259,-0.00246752,0.00623,0.00523515,-0.00750641,0.68009,0.0073952,0.0122426,832,596,-2.0205,3.98108
-385,428,-2.03052,-4.16046,0.00189604,-0.00324574,0.00823452,0.00795167,-0.00930137,0.634088,0.0099712,0.0188659,839,596,-2.03049,4.16045
-378,428,-2.01904,-4.23486,0.00444029,-0.0043023,0.0108952,0.0118084,-0.0116704,0.594623,0.0135556,0.0354798,846,596,-2.01906,4.23489
-371,428,-2.00098,-4.48328,0,0,0,0,0,0,0,-1,853,596,-2.00099,4.4833
-364,428,-2.92535,-4.59851,0.0126696,-0.00710692,0.0188554,0.0240722,-0.0185096,0.5439,0.0246545,0.0493601,860,596,-2.92538,4.59851
-357,428,-2.28003,-4.41528,0.0186786,-0.00920891,0.0244956,0.032921,-0.0234514,0.526653,0.0326993,0.0497305,867,596,-2.28004,4.41526
-350,428,-1.62793,-3.94055,0,0,0,0,0,0,0,-1,874,596,-1.62794,3.94055
-343,428,-0.0567017,-4.80994,0,0,0,0,0,0,0,-1,881,596,-0.0567096,4.80996
-336,428,-3.29175,-1.39569,0,0,0,0,0,0,0,-1,888,596,-3.29172,1.39568
-329,428,-3.71564,-0.791321,0,0,0,0,0,0,0,-1,895,596,-3.71564,0.791299
-322,428,-5.52863,-3.59827,0,0,0,0,0,0,0,-1,902,596,-5.52865,3.59829
-315,428,-4.57172,-1.22052,0,0,0,0,0,0,0,-1,909,596,-4.57171,1.22052
-308,428,-5.26538,-1.1521,0,0,0,0,0,0,0,-1,916,596,-5.26539,1.15209
-301,428,0,0,0,0,0,0,0,0,0,-1,923,596,0,0
-294,428,0,0,0,0,0,0,0,0,0,-1,930,596,0,0
-287,428,0,0,0,0,0,0,0,0,0,-1,937,596,0,0
-280,428,0,0,0,0,0,0,0,0,0,-1,944,596,0,0
-273,428,0,0,0,0,0,0,0,0,0,-1,951,596,0,0
-266,428,0,0,0,0,0,0,0,0,0,-1,958,596,0,0
-259,428,0,0,0,0,0,0,0,0,0,-1,965,596,0,0
-252,428,0,0,0,0,0,0,0,0,0,-1,972,596,0,0
-245,428,0,0,0,0,0,0,0,0,0,-1,979,596,0,0
-238,428,0,0,0,0,0,0,0,0,0,-1,986,596,0,0
-231,428,0,0,0,0,0,0,0,0,0,-1,993,596,0,0
-224,428,0,0,0,0,0,0,0,0,0,-1,1000,596,0,0
-217,428,0,0,0,0,0,0,0,0,0,-1,1007,596,0,0
-210,428,0,0,0,0,0,0,0,0,0,-1,1014,596,0,0
-203,428,0,0,0,0,0,0,0,0,0,-1,1021,596,0,0
-196,428,0,0,0,0,0,0,0,0,0,-1,1028,596,0,0
-189,428,0,0,0,0,0,0,0,0,0,-1,1035,596,0,0
-182,428,0,0,0,0,0,0,0,0,0,-1,1042,596,0,0
-175,428,0,0,0,0,0,0,0,0,0,-1,1049,596,0,0
-168,428,0,0,0,0,0,0,0,0,0,-1,1056,596,0,0
-161,428,0,0,0,0,0,0,0,0,0,-1,1063,596,0,0
-154,428,0,0,0,0,0,0,0,0,0,-1,1070,596,0,0
-147,428,0,0,0,0,0,0,0,0,0,-1,1077,596,0,0
-140,428,0,0,0,0,0,0,0,0,0,-1,1084,596,0,0
-133,428,0,0,0,0,0,0,0,0,0,-1,1091,596,0,0
-126,428,0,0,0,0,0,0,0,0,0,-1,1098,596,0,0
-119,428,0,0,0,0,0,0,0,0,0,-1,1105,596,0,0
-112,428,0,0,0,0,0,0,0,0,0,-1,1112,596,0,0
-105,428,0,0,0,0,0,0,0,0,0,-1,1119,596,0,0
-98,428,0,0,0,0,0,0,0,0,0,-1,1126,596,0,0
-91,428,0,0,0,0,0,0,0,0,0,-1,1133,596,0,0
-84,428,0,0,0,0,0,0,0,0,0,-1,1140,596,0,0
-77,428,0,0,0,0,0,0,0,0,0,-1,1147,596,0,0
-70,428,0,0,0,0,0,0,0,0,0,-1,1154,596,0,0
-63,428,0,0,0,0,0,0,0,0,0,-1,1161,596,0,0
-56,428,0,0,0,0,0,0,0,0,0,-1,1168,596,0,0
-49,428,0,0,0,0,0,0,0,0,0,-1,1175,596,0,0
-42,428,0,0,0,0,0,0,0,0,0,-1,1182,596,0,0
-35,428,0,0,0,0,0,0,0,0,0,-1,1189,596,0,0
-28,428,0,0,0,0,0,0,0,0,0,-1,1196,596,0,0
-21,428,0,0,0,0,0,0,0,0,0,-1,1203,596,0,0
-14,428,0,0,0,0,0,0,0,0,0,-1,1210,596,0,0
-7,428,0,0,0,0,0,0,0,0,0,-1,1217,596,0,0
0,428,0,0,0,0,0,0,0,0,0,-1,1224,596,0,0
7,428,0,0,0,0,0,0,0,0,0,-1,1231,596,0,0
14,428,0,0,0,0,0,0,0,0,0,-1,1238,596,0,0
21,428,0,0,0,0,0,0,0,0,0,-1,1245,596,0,0
28,428,0,0,0,0,0,0,0,0,0,-1,1252,596,0,0
35,428,0,0,0,0,0,0,0,0,0,-1,1259,596,0,0
42,428,0,0,0,0,0,0,0,0,0,-1,1266,596,0,0
49,428,0,0,0,0,0,0,0,0,0,-1,1273,596,0,0
56,428,0,0,0,0,0,0,0,0,0,-1,1280,596,0,0
63,428,0,0,0,0,0,0,0,0,0,-1,1287,596,0,0
70,428,0,0,0,0,0,0,0,0,0,-1,1294,596,0,0
77,428,0,0,0,0,0,0,0,0,0,-1,1301,596,0,0
84,428,0,0,0,0,0,0,0,0,0,-1,1308,596,0,0
91,428,0,0,0,0,0,0,0,0,0,-1,1315,596,0,0
98,428,0,0,0,0,0,0,0,0,0,-1,1322,596,0,0
105,428,0,0,0,0,0,0,0,0,0,-1,1329,596,0,0
112,428,0,0,0,0,0,0,0,0,0,-1,1336,596,0,0
119,428,0,0,0,0,0,0,0,0,0,-1,1343,596,0,0
126,428,0,0,0,0,0,0,0,0,0,-1,1350,596,0,0
133,428,0,0,0,0,0,0,0,0,0,-1,1357,596,0,0
140,428,0,0,0,0,0,0,0,0,0,-1,1364,596,0,0
147,428,0,0,0,0,0,0,0,0,0,-1,1371,596,0,0
154,428,0,0,0,0,0,0,0,0,0,-1,1378,596,0,0
161,428,0,0,0,0,0,0,0,0,0,-1,1385,596,0,0
168,428,0,0,0,0,0,0,0,0,0,-1,1392,596,0,0
175,428,0,0,0,0,0,0,0,0,0,-1,1399,596,0,0
182,428,0,0,0,0,0,0,0,0,0,-1,1406,596,0,0
189,428,0,0,0,0,0,0,0,0,0,-1,1413,596,0,0
196,428,0,0,0,0,0,0,0,0,0,-1,1420,596,0,0
203,428,0,0,0,0,0,0,0,0,0,-1,1427,596,0,0
210,428,0,0,0,0,0,0,0,0,0,-1,1434,596,0,0
217,428,0,0,0,0,0,0,0,0,0,-1,1441,596,0,0
224,428,0,0,0,0,0,0,0,0,0,-1,1448,596,0,0
231,428,0,0,0,0,0,0,0,0,0,-1,1455,596,0,0
238,428,0,0,0,0,0,0,0,0,0,-1,1462,596,0,0
245,428,0,0,0,0,0,0,0,0,0,-1,1469,596,0,0
252,428,0,0,0,0,0,0,0,0,0,-1,1476,596,0,0
259,428,0,0,0,0,0,0,0,0,0,-1,1483,596,0,0
266,428,0,0,0,0,0,0,0,0,0,-1,1490,596,0,0
273,428,0,0,0,0,0,0,0,0,0,-1,1497,596,0,0
280,428,0,0,0,0,0,0,0,0,0,-1,1504,596,0,0
287,428,0,0,0,0,0,0,0,0,0,-1,1511,596,0,0
294,428,0,0,0,0,0,0,0,0,0,-1,1518,596,0,0
301,428,0,0,0,0,0,0,0,0,0,-1,1525,596,0,0
308,428,0,0,0,0,0,0,0,0,0,-1,1532,596,0,0
315,428,0,0,0,0,0,0,0,0,0,-1,1539,596,0,0
322,428,0,0,0,0,0,0,0,0,0,-1,1546,596,0,0
329,428,0,0,0,0,0,0,0,0,0,-1,1553,596,0,0
336,428,0,0,0,0,0,0,0,0,0,-1,1560,596,0,0
343,428,0,0,0,0,0,0,0,0,0,-1,1567,596,0,0
350,428,0,0,0,0,0,0,0,0,0,-1,1574,596,0,0
357,428,0,0,0,0,0,0,0,0,0,-1,1581,596,0,0
364,428,0,0,0,0,0,0,0,0,0,-1,1588,596,0,0
371,428,0,0,0,0,0,0,0,0,0,-1,1595,596,0,0
378,428,0,0,0,0,0,0,0,0,0,-1,1602,596,0,0
385,428,0,0,0,0,0,0,0,0,0,-1,1609,596,0,0
392,428,0,0,0,0,0,0,0,0,0,-1,1616,596,0,0
399,428,0,0,0,0,0,0,0,0,0,-1,1623,596,0,0
406,428,0,0,0,0,0,0,0,0,0,-1,1630,596,0,0
413,428,0,0,0,0,0,0,0,0,0,-1,1637,596,0,0
420,428,2.95886,0.551819,0,0,0,0,0,0,0,-1,1644,596,2.9589,-0.551797
427,428,3.19385,0.384705,0,0,0,0,0,0,0,-1,1651,596,3.19383,-0.384692
434,428,8.18152,1.80432,0,0,0,0,0,0,0,-1,1658,596,8.18148,-1.80434
441,428,8.17993,0.607483,0,0,0,0,0,0,0,-1,1665,596,8.17997,-0.607513
448,428,7.84338,-0.385986,0,0,0,0,0,0,0,-1,1672,596,7.84336,0.385978
455,428,6.64038,2.1123,0,0,0,0,0,0,0,-1,1679,596,6.64037,-2.11229
462,428,4.84106,4.12341,0,0,0,0,0,0,0,-1,1686,596,4.84107,-4.12339
469,428,7.83789,3.10083,0,0,0,0,0,0,0,-1,1693,596,7.83785,-3.10086
476,428,7.61255,1.73956,0,0,0,0,0,0,0,-1,1700,596,7.61252,-1.73958
483,428,7.22766,1.05121,0,0,0,0,0,0,0,-1,1707,596,7.2277,-1.05121
490,428,5.4071,-3.2793,0,0,0,0,0,0,0,-1,1714,596,5.40707,3.27929
497,428,7.84106,-3.65491,0,0,0,0,0,0,0,-1,1721,596,7.84107,3.65491
504,428,6.92139,-2.83356,0,0,0,0,0,0,0,-1,1728,596,6.92137,2.83353
511,428,6.36169,-2.85114,0,0,0,0,0,0,0,-1,1735,596,6.36174,2.85111
518,428,6.57104,-2.69574,0,0,0,0,0,0,0,-1,1742,596,6.57109,2.69575
525,428,6.52258,-2.48334,0.00145365,-0.0016253,-7.30562e-05,0.00145538,-0.00162703,-0.0237099,0.00178055,0.0291244,1749,596,6.52263,2.48334
532,428,6.55835,-2.18372,0.000761136,-0.00152393,-0.000341223,0.000811002,-0.00157379,-0.145111,0.00140014,0.0177895,1756,596,6.55838,2.1837
539,428,6.62207,-1.98438,0.000230483,-0.0013851,-0.000551617,0.000400857,-0.00155547,-0.299569,0.00119326,0.0202487,1763,596,6.62212,1.98437
546,428,6.61304,-1.82745,-1.1305e-05,-0.00108,-0.00057769,0.000241275,-0.00133258,-0.412178,0.000978772,0.0155635,1770,596,6.61308,1.82744
553,428,6.60425,-1.67035,-9.6381e-05,-0.000741515,-0.000510505,0.000184927,-0.00102282,-0.50364,0.000751151,0.010022,1777,596,6.60419,1.67035
560,428,6.61951,-1.46936,-0.000105116,-0.000391331,-0.000400145,0.000176742,-0.000673189,-0.613666,0.000517859,0.0112132,1784,596,6.61954,1.46936
567,428,6.62439,-1.25543,1.27244e-05,-0.000265233,-0.00028577,0.000191518,-0.000444027,-0.559072,0.000376462,0.0108364,1791,596,6.62435,1.25545
574,428,6.61389,-1.06415,0.000303279,-0.000110109,-7.75738e-05,0.000317357,-0.000124187,-0.17952,0.000262932,0.0123537,1798,596,6.6139,1.06415
581,428,6.59338,-0.873047,0.00046577,-5.08464e-06,-1.21363e-05,0.000466083,-5.39725e-06,-0.0257522,0.000312536,0.0106547,1805,596,6.59343,0.873054
588,428,6.58887,-0.683044,0.000633066,-4.14263e-05,5.60279e-05,0.000637689,-4.60486e-05,0.0823149,0.000441277,0.0152087,1812,596,6.58888,0.683051
595,428,6.59021,-0.480835,0.00108464,-0.000295372,-0.000165571,0.00110422,-0.000314959,-0.117752,0.000860566,0.00962311,1819,596,6.59019,0.480836
602,428,6.55725,-0.267151,0.00175093,-0.0015034,-0.0012108,0.00215199,-0.00190446,-0.319862,0.00234345,0.0188415,1826,596,6.55725,0.267133
609,428,6.51563,-0.0229492,0,0,0,0,0,0,0,-1,1833,596,6.51559,0.0229294
616,428,5.88977,-0.239319,0,0,0,0,0,0,0,-1,1840,596,5.88983,0.239293
623,428,6.41541,0.466675,0,0,0,0,0,0,0,-1,1847,596,6.41543,-0.466696
630,428,4.94434,0.773193,0,0,0,0,0,0,0,-1,1854,596,4.9443,-0.773171
637,428,3.95435,1.90857,0,0,0,0,0,0,0,-1,1861,596,3.95439,-1.90858
644,428,5.75476,0.888977,0,0,0,0,0,0,0,-1,1868,596,5.75472,-0.888955
651,428,0,0,0,0,0,0,0,0,0,-1,1875,596,0,0
658,428,0,0,0,0,0,0,0,0,0,-1,1882,596,0,0
665,428,0,0,0,0,0,0,0,0,0,-1,1889,596,0,0
672,428,0,0,0,0,0,0,0,0,0,-1,1896,596,0,0
679,428,0,0,0,0,0,0,0,0,0,-1,1903,596,0,0
686,428,0,0,0,0,0,0,0,0,0,-1,1910,596,0,0
693,428,0,0,0,0,0,0,0,0,0,-1,1917,596,0,0
700,428,0,0,0,0,0,0,0,0,0,-1,1924,596,0,0
707,428,0,0,0,0,0,0,0,0,0,-1,1931,596,0,0
714,428,0,0,0,0,0,0,0,0,0,-1,1938,596,0,0
721,428,0,0,0,0,0,0,0,0,0,-1,1945,596,0,0
728,428,0,0,0,0,0,0,0,0,0,-1,1952,596,0,0
735,428,0,0,0,0,0,0,0,0,0,-1,1959,596,0,0
742,428,0,0,0,0,0,0,0,0,0,-1,1966,596,0,0
749,428,0,0,0,0,0,0,0,0,0,-1,1973,596,0,0
756,428,0,0,0,0,0,0,0,0,0,-1,1980,596,0,0
763,428,0,0,0,0,0,0,0,0,0,-1,1987,596,0,0
770,428,0,0,0,0,0,0,0,0,0,-1,1994,596,0,0
777,428,0,0,0,0,0,0,0,0,0,-1,2001,596,0,0
784,428,0,0,0,0,0,0,0,0,0,-1,2008,596,0,0
791,428,0,0,0,0,0,0,0,0,0,-1,2015,596,0,0
798,428,0,0,0,0,0,0,0,0,0,-1,2022,596,0,0
805,428,0,0,0,0,0,0,0,0,0,-1,2029,596,0,0
812,428,0,0,0,0,0,0,0,0,0,-1,2036,596,0,0
-700,421,0,0,0,0,0,0,0,0,0,-1,524,603,0,0
-693,421,0,0,0,0,0,0,0,0,0,-1,531,603,0,0
-686,421,0,0,0,0,0,0,0,0,0,-1,538,603,0,0
-679,421,0,0,0,0,0,0,0,0,0,-1,545,603,0,0
-672,421,0,0,0,0,0,0,0,0,0,-1,552,603,0,0
-665,421,0,0,0,0,0,0,0,0,0,-1,559,603,0,0
-658,421,0,0,0,0,0,0,0,0,0,-1,566,603,0,0
-651,421,0,0,0,0,0,0,0,0,0,-1,573,603,0,0
-644,421,0,0,0,0,0,0,0,0,0,-1,580,603,0,0
-637,421,0,0,0,0,0,0,0,0,0,-1,587,603,0,0
-630,421,0,0,0,0,0,0,0,0,0,-1,594,603,0,0
-623,421,0,0,0,0,0,0,0,0,0,-1,601,603,0,0
-616,421,0,0,0,0,0,0,0,0,0,-1,608,603,0,0
-609,421,0,0,0,0,0,0,0,0,0,-1,615,603,0,0
-602,421,0,0,0,0,0,0,0,0,0,-1,622,603,0,0
-595,421,0,0,0,0,0,0,0,0,0,-1,629,603,0,0
-588,421,0,0,0,0,0,0,0,0,0,-1,636,603,0,0
-581,421,0,0,0,0,0,0,0,0,0,-1,643,603,0,0
-574,421,0,0,0,0,0,0,0,0,0,-1,650,603,0,0
-567,421,0,0,0,0,0,0,0,0,0,-1,657,603,0,0
-560,421,0,0,0,0,0,0,0,0,0,-1,664,603,0,0
-553,421,0,0,0,0,0,0,0,0,0,-1,671,603,0,0
-546,421,0,0,0,0,0,0,0,0,0,-1,678,603,0,0
-539,421,0,0,0,0,0,0,0,0,0,-1,685,603,0,0
-532,421,-9.85718,5.32794,0,0,0,0,0,0,0,-1,692,603,-9.85718,-5.32797
-525,421,-10.3297,5.08777,0,0,0,0,0,0,0,-1,699,603,-10.3297,-5.08777
-518,421,-1.92688,-3.7323,0,0,0,0,0,0,0,-1,706,603,-1.92685,3.73228
-511,421,-1.95917,-3.88098,0,0,0,0,0,0,0,-1,713,603,-1.95916,3.88096
-504,421,-1.99146,-4.0296,0,0,0,0,0,0,0,-1,720,603,-1.99146,4.02963
-497,421,-1.92456,-1.21484,0,0,0,0,0,0,0,-1,727,603,-1.92454,1.21483
-490,421,-2.10663,-1.37903,0.00563559,0.00721398,-0.00799646,0.0144601,-0.00161052,-0.834585,0.0102193,0.0443826,734,603,-2.1066,1.37902
-483,421,-2.23047,-1.64893,0.00610784,0.00569248,-0.00685391,0.0127572,-0.000956901,-0.770252,0.00884106,0.0354784,741,603,-2.2305,1.64893
-476,421,-2.23981,-1.85724,0.00608139,0.00460804,-0.00589927,0.0112898,-0.00060038,-0.723282,0.00773443,0.0204891,748,603,-2.23982,1.85724
-469,421,-2.20416,-2.01215,0.00559449,0.00377271,-0.00495959,0.00972614,-0.000358942,-0.694579,0.00660699,0.0156602,755,603,-2.20413,2.01215
-462,421,-2.20093,-2.20947,0.00485402,0.00278209,-0.00376494,0.00772292,-8.68086e-05,-0.65114,0.00517779,0.01681,762,603,-2.20094,2.20944
-455,421,-2.1853,-2.40045,0.003791,0.00209871,-0.00282001,0.00588907,6.36559e-07,-0.639646,0.00392583,0.0168648,769,603,-2.18529,2.40048
-448,421,-2.2088,-2.57458,0.00259761,0.00161603,-0.00180354,0.00397595,0.000237692,-0.652551,0.00257506,0.0180227,776,603,-2.20879,2.57457
-441,421,-2.22913,-2.76721,0.00125708,0.00124305,-0.000833809,0.0020839,0.000416225,-0.781192,0.00127341,0.0148974,783,603,-2.22913,2.76722
-434,421,-2.22974,-2.9469,-5.04375e-05,0.000660997,0.000131322,0.000684463,-7.3904e-05,1.39397,0.000482833,0.0103514,790,603,-2.22976,2.94691
-427,421,-2.20807,-3.10992,-0.00134379,0.000127827,0.0011285,0.000739214,-0.00195518,1.0743,0.00160754,0.00985571,797,603,-2.20806,3.10991
-420,421,-2.19775,-3.24878,-0.00271794,-0.000458955,0.00204385,0.000746734,-0.00392363,1.03783,0.00289692,0.011534,804,603,-2.19778,3.2488
-413,421,-2.19946,-3.40717,-0.00327292,-0.000844651,0.0032503,0.00141088,-0.00552845,0.964146,0.004235,0.0126532,811,603,-2.19944,3.40718
-406,421,-2.21802,-3.61572,-0.00284459,-0.00146266,0.00484074,0.00273618,-0.00704343,0.856289,0.00582595,0.0161762,818,603,-2.21805,3.61571
-399,421,-2.19952,-3.83783,-0.00226181,-0.00226458,0.00632573,0.00406253,-0.00858892,0.785289,0.00745852,0.0154423,825,603,-2.1995,3.83785
-392,421,-2.22144,-3.98346,-0.00116333,-0.00297129,0.00829591,0.00627771,-0.0104123,0.731129,0.00973406,0.0176521,832,603,-2.22141,3.98348
-385,421,-2.33044,-4.19067,0.000752964,-0.00387929,0.0109708,0.00964947,-0.0127758,0.681367,0.0129891,0.0364622,839,603,-2.33043,4.19066
-378,421,-2.3609,-4.90033,0,0,0,0,0,0,0,-1,846,603,-2.36089,4.90034
-371,421,-2.00507,-4.96307,0,0,0,0,0,0,0,-1,853,603,-2.00507,4.96308
-364,421,-3.82251,-4.23065,0,0,0,0,0,0,0,-1,860,603,-3.8225,4.23065
-357,421,-3.68719,-3.85345,0,0,0,0,0,0,0,-1,867,603,-3.68721,3.85347
-350,421,-3.00177,-3.40668,0,0,0,0,0,0,0,-1,874,603,-3.00175,3.40665
-343,421,-2.70099,-2.13391,0,0,0,0,0,0,0,-1,881,603,-2.70101,2.13393
-336,421,-4.78381,-1.46234,0,0,0,0,0,0,0,-1,888,603,-4.78379,1.46232
-329,421,-4.50134,-1.49469,0,0,0,0,0,0,0,-1,895,603,-4.50137,1.49468
-322,421,-4.26563,-1.38239,0,0,0,0,0,0,0,-1,902,603,-4.26559,1.3824
-315,421,-4.47821,-1.26733,0,0,0,0,0,0,0,-1,909,603,-4.47824,1.26732
-308,421,0,0,0,0,0,0,0,0,0,-1,916,603,0,0
-301,421,0,0,0,0,0,0,0,0,0,-1,923,603,0,0
-294,421,0,0,0,0,0,0,0,0,0,-1,930,603,0,0
-287,421,0,0,0,0,0,0,0,0,0,-1,937,603,0,0
-280,421,0,0,0,0,0,0,0,0,0,-1,944,603,0,0
-273,421,0,0,0,0,0,0,0,0,0,-1,951,603,0,0
-266,421,0,0,0,0,0,0,0,0,0,-1,958,603,0,0
-259,421,0,0,0,0,0,0,0,0,0,-1,965,603,0,0
-252,421,0,0,0,0,0,0,0,0,0,-1,972,603,0,0
-245,421,0,0,0,0,0,0,0,0,0,-1,979,603,0,0
-238,421,0,0,0,0,0,0,0,0,0,-1,986,603,0,0
-231,421,0,0,0,0,0,0,0,0,0,-1,993,603,0,0
-224,421,0,0,0,0,0,0,0,0,0,-1,1000,603,0,0
-217,421,0,0,0,0,0,0,0,0,0,-1,1007,603,0,0
-210,421,0,0,0,0,0,0,0,0,0,-1,1014,603,0,0
-203,421,0,0,0,0,0,0,0,0,0,-1,1021,603,0,0
-196,421,0,0,0,0,0,0,0,0,0,-1,1028,603,0,0
-189,421,0,0,0,0,0,0,0,0,0,-1,1035,603,0,0
-182,421,0,0,0,0,0,0,0,0,0,-1,1042,603,0,0
-175,421,0,0,0,0,0,0,0,0,0,-1,1049,603,0,0
-168,421,0,0,0,0,0,0,0,0,0,-1,1056,603,0,0
-161,421,0,0,0,0,0,0,0,0,0,-1,1063,603,0,0
-154,421,0,0,0,0,0,0,0,0,0,-1,1070,603,0,0
-147,421,0,0,0,0,0,0,0,0,0,-1,1077,603,0,0
-140,421,0,0,0,0,0,0,0,0,0,-1,1084,603,0,0
-133,421,0,0,0,0,0,0,0,0,0,-1,1091,603,0,0
-126,421,0,0,0,0,0,0,0,0,0,-1,1098,603,0,0
-119,421,0,0,0,0,0,0,0,0,0,-1,1105,603,0,0
-112,421,0,0,0,0,0,0,0,0,0,-1,1112,603,0,0
-105,421,0,0,0,0,0,0,0,0,0,-1,1119,603,0,0
-98,421,0,0,0,0,0,0,0,0,0,-1,1126,603,0,0
-91,421,0,0,0,0,0,0,0,0,0,-1,1133,603,0,0
-84,421,0,0,0,0,0,0,0,0,0,-1,1140,603,0,0
-77,421,0,0,0,0,0,0,0,0,0,-1,1147,603,0,0
-70,421,0,0,0,0,0,0,0,0,0,-1,1154,603,0,0
-63,421,0,0,0,0,0,0,0,0,0,-1,1161,603,0,0
-56,421,0,0,0,0,0,0,0,0,0,-1,1168,603,0,0
-49,421,0,0,0,0,0,0,0,0,0,-1,1175,603,0,0
-42,421,0,0,0,0,0,0,0,0,0,-1,1182,603,0,0
-35,421,0,0,0,0,0,0,0,0,0,-1,1189,603,0,0
-28,421,0,0,0,0,0,0,0,0,0,-1,1196,603,0,0
-21,421,0,0,0,0,0,0,0,0,0,-1,1203,603,0,0
-14,421,0,0,0,0,0,0,0,0,0,-1,1210,603,0,0
-7,421,0,0,0,0,0,0,0,0,0,-1,1217,603,0,0
0,421,0,0,0,0,0,0,0,0,0,-1,1224,603,0,0
7,421,0,0,0,0,0,0,0,0,0,-1,1231,603,0,0
14,421,0,0,0,0,0,0,0,0,0,-1,1238,603,0,0
21,421,0,0,0,0,0,0,0,0,0,-1,1245,603,0,0
28,421,0,0,0,0,0,0,0,0,0,-1,1252,603,0,0
35,421,0,0,0,0,0,0,0,0,0,-1,1259,603,0,0
42,421,0,0,0,0,0,0,0,0,0,-1,1266,603,0,0
49,421,0,0,0,0,0,0,0,0,0,-1,1273,603,0,0
56,421,0,0,0,0,0,0,0,0,0,-1,1280,603,0,0
63,421,0,0,0,0,0,0,0,0,0,-1,1287,603,0,0
70,421,0,0,0,0,0,0,0,0,0,-1,1294,603,0,0
77,421,0,0,0,0,0,0,0,0,0,-1,1301,603,0,0
84,421,0,0,0,0,0,0,0,0,0,-1,1308,603,0,0
91,421,0,0,0,0,0,0,0,0,0,-1,1315,603,0,0
98,421,0,0,0,0,0,0,0,0,0,-1,1322,603,0,0
105,421,0,0,0,0,0,0,0,0,0,-1,1329,603,0,0
112,421,0,0,0,0,0,0,0,0,0,-1,1336,603,0,0
119,421,0,0,0,0,0,0,0,0,0,-1,1343,603,0,0
126,421,0,0,0,0,0,0,0,0,0,-1,1350,603,0,0
133,421,0,0,0,0,0,0,0,0,0,-1,1357,603,0,0
140,421,0,0,0,0,0,0,0,0,0,-1,1364,603,0,0
147,421,0,0,0,0,0,0,0,0,0,-1,1371,603,0,0
154,421,0,0,0,0,0,0,0,0,0,-1,1378,603,0,0
161,421,0,0,0,0,0,0,0,0,0,-1,1385,603,0,0
168,421,0,0,0,0,0,0,0,0,0,-1,1392,603,0,0
175,421,0,0,0,0,0,0,0,0,0,-1,1399,603,0,0
182,421,0,0,0,0,0,0,0,0,0,-1,1406,603,0,0
189,421,0,0,0,0,0,0,0,0,0,-1,1413,603,0,0
196,421,0,0,0,0,0,0,0,0,0,-1,1420,603,0,0
203,421,0,0,0,0,0,0,0,0,0,-1,1427,603,0,0
210,421,0,0,0,0,0,0,0,0,0,-1,1434,603,0,0
217,421,0,0,0,0,0,0,0,0,0,-1,1441,603,0,0
224,421,0,0,0,0,0,0,0,0,0,-1,1448,603,0,0
231,421,0,0,0,0,0,0,0,0,0,-1,1455,603,0,0
238,421,0,0,0,0,0,0,0,0,0,-1,1462,603,0,0
245,421,0,0,0,0,0,0,0,0,0,-1,1469,603,0,0
252,421,0,0,0,0,0,0,0,0,0,-1,1476,603,0,0
259,421,0,0,0,0,0,0,0,0,0,-1,1483,603,0,0
266,421,0,0,0,0,0,0,0,0,0,-1,1490,603,0,0
273,421,0,0,0,0,0,0,0,0,0,-1,1497,603,0,0
280,421,0,0,0,0,0,0,0,0,0,-1,1504,603,0,0
287,421,0,0,0,0,0,0,0,0,0,-1,1511,603,0,0
294,421,0,0,0,0,0,0,0,0,0,-1,1518,603,0,0
301,421,0,0,0,0,0,0,0,0,0,-1,1525,603,0,0
308,421,0,0,0,0,0,0,0,0,0,-1,1532,603,0,0
315,421,0,0,0,0,0,0,0,0,0,-1,1539,603,0,0
322,421,0,0,0,0,0,0,0,0,0,-1,1546,603,0,0
329,421,0,0,0,0,0,0,0,0,0,-1,1553,603,0,0
336,421,0,0,0,0,0,0,0,0,0,-1,1560,603,0,0
343,421,0,0,0,0,0,0,0,0,0,-1,1567,603,0,0
350,421,0,0,0,0,0,0,0,0,0,-1,1574,603,0,0
357,421,0,0,0,0,0,0,0,0,0,-1,1581,603,0,0
364,421,0,0,0,0,0,0,0,0,0,-1,1588,603,0,0
371,421,0,0,0,0,0,0,0,0,0,-1,1595,603,0,0
378,421,0,0,0,0,0,0,0,0,0,-1,1602,603,0,0
385,421,0,0,0,0,0,0,0,0,0,-1,1609,603,0,0
392,421,0,0,0,0,0,0,0,0,0,-1,1616,603,0,0
399,421,0,0,0,0,0,0,0,0,0,-1,1623,603,0,0
406,421,0,0,0,0,0,0,0,0,0,-1,1630,603,0,0
413,421,0,0,0,0,0,0,0,0,0,-1,1637,603,0,0
420,421,0,0,0,0,0,0,0,0,0,-1,1644,603,0,0
427,421,0,0,0,0,0,0,0,0,0,-1,1651,603,0,0
434,421,3.68176,-0.0327759,0,0,0,0,0,0,0,-1,1658,603,3.6818,0.0328037
441,421,8.06689,0.527832,0,0,0,0,0,0,0,-1,1665,603,8.06693,-0.527851
448,421,6.93921,0.802246,0,0,0,0,0,0,0,-1,1672,603,6.93923,-0.802251
455,421,7.29456,2.14825,0,0,0,0,0,0,0,-1,1679,603,7.29461,-2.14827
462,421,7.86902,3.53174,0,0,0,0,0,0,0,-1,1686,603,7.869,-3.53173
469,421,8.06604,2.81213,0,0,0,0,0,0,0,-1,1693,603,8.06606,-2.81212
476,421,8.26306,2.09253,0,0,0,0,0,0,0,-1,1700,603,8.26312,-2.09251
483,421,8.05322,0.798096,0,0,0,0,0,0,0,-1,1707,603,8.05323,-0.7981
490,421,7.51233,0.213074,0,0,0,0,0,0,0,-1,1714,603,7.51235,-0.213043
497,421,7.49634,-2.86688,0,0,0,0,0,0,0,-1,1721,603,7.4963,2.86688
504,421,6.90491,-2.18671,0,0,0,0,0,0,0,-1,1728,603,6.90491,2.18669
511,421,6.31348,-1.50653,0,0,0,0,0,0,0,-1,1735,603,6.31353,1.5065
518,421,6.27588,-2.49878,0,0,0,0,0,0,0,-1,1742,603,6.2759,2.4988
525,421,6.62122,-2.54169,0,0,0,0,0,0,0,-1,1749,603,6.62118,2.54169
532,421,6.72278,-2.25287,0.000295826,-0.00159288,-0.000791025,0.000583351,-0.00188041,-0.348636,0.00148671,0.0309203,1756,603,6.72282,2.25287
539,421,6.82178,-2.01965,-0.000331981,-0.0014137,-0.000990405,0.000255624,-0.0020013,-0.535477,0.00142706,0.0218175,1763,603,6.82177,2.01963
546,421,6.81189,-1.84814,-0.000629499,-0.00114272,-0.00102707,0.000172534,-0.00194476,-0.66298,0.00135768,0.0127292,1770,603,6.81195,1.84812
553,421,6.8042,-1.64856,-0.000722888,-0.000834952,-0.000941108,0.000163854,-0.00172169,-0.755664,0.00120613,0.0107442,1777,603,6.80415,1.64853
560,421,6.81567,-1.43665,-0.000745428,-0.000553366,-0.000825963,0.00018213,-0.00148092,-0.843271,0.00105325,0.013104,1784,603,6.81563,1.43662
567,421,6.82275,-1.23608,-0.000654322,-0.000490502,-0.000713753,0.000146025,-0.00129085,-0.842528,0.000913142,0.0157018,1791,603,6.82271,1.2361
574,421,6.81897,-1.05457,-0.000367823,-0.000447128,-0.000507377,0.000101449,-0.000916399,-0.746402,0.000647404,0.0181093,1798,603,6.81893,1.05458
581,421,6.8114,-0.854492,-0.000189526,-0.000457621,-0.000453001,0.000148844,-0.000795991,-0.641548,0.000586604,0.0155693,1805,603,6.81141,0.85451
588,421,6.79932,-0.674927,-6.68759e-06,-0.000593728,-0.000385623,0.000184415,-0.000784831,-0.460096,0.000594307,0.0112108,1812,603,6.79936,0.674912
595,421,6.81006,-0.44873,0.000502835,-0.000922501,-0.000597212,0.000719983,-0.00113965,-0.348741,0.00108273,0.0144241,1819,603,6.81001,0.448711
602,421,6.78967,-0.274109,0.00133072,-0.00200945,-0.00148924,0.00189827,-0.002577,-0.364109,0.00259368,0.0145678,1826,603,6.78962,0.274125
609,421,6.73596,-0.101929,0.00218037,-0.00304165,-0.00251359,0.00319366,-0.00405494,-0.383196,0.00419481,0.0334104,1833,603,6.73593,0.101946
616,421,6.99121,-0.491028,0,0,0,0,0,0,0,-1,1840,603,6.99126,0.491039
623,421,6.19885,0.376648,0,0,0,0,0,0,0,-1,1847,603,6.19881,-0.376624
630,421,6.54993,0.778748,0,0,0,0,0,0,0,-1,1854,603,6.54991,-0.778744
637,421,3.74512,1.65405,0,0,0,0,0,0,0,-1,1861,603,3.74517,-1.65407
644,421,3.58081,0.354675,0,0,0,0,0,0,0,-1,1868,603,3.58082,-0.354704
651,421,3.28687,3.66351,0,0,0,0,0,0,0,-1,1875,603,3.28688,-3.66353
658,421,0,0,0,0,0,0,0,0,0,-1,1882,603,0,0
665,421,0,0,0,0,0,0,0,0,0,-1,1889,603,0,0
672,421,0,0,0,0,0,0,0,0,0,-1,1896,603,0,0
679,421,0,0,0,0,0,0,0,0,0,-1,1903,603,0,0
686,421,0,0,0,0,0,0,0,0,0,-1,1910,603,0,0
693,421,0,0,0,0,0,0,0,0,0,-1,1917,603,0,0
700,421,0,0,0,0,0,0,0,0,0,-1,1924,603,0,0
707,421,0,0,0,0,0,0,0,0,0,-1,1931,603,0,0
714,421,0,0,0,0,0,0,0,0,0,-1,1938,603,0,0
721,421,0,0,0,0,0,0,0,0,0,-1,1945,603,0,0
728,421,0,0,0,0,0,0,0,0,0,-1,1952,603,0,0
735,421,0,0,0,0,0,0,0,0,0,-1,1959,603,0,0
742,421,0,0,0,0,0,0,0,0,0,-1,1966,603,0,0
749,421,0,0,0,0,0,0,0,0,0,-1,1973,603,0,0
756,421,0,0,0,0,0,0,0,0,0,-1,1980,603,0,0
763,421,0,0,0,0,0,0,0,0,0,-1,1987,603,0,0
770,421,0,0,0,0,0,0,0,0,0,-1,1994,603,0,0
777,421,0,0,0,0,0,0,0,0,0,-1,2001,603,0,0
784,421,0,0,0,0,0,0,0,0,0,-1,2008,603,0,0
791,421,0,0,0,0,0,0,0,0,0,-1,2015,603,0,0
798,421,0,0,0,0,0,0,0,0,0,-1,2022,603,0,0
805,421,0,0,0,0,0,0,0,0,0,-1,2029,603,0,0
812,421,0,0,0,0,0,0,0,0,0,-1,2036,603,0,0
-700,414,0,0,0,0,0,0,0,0,0,-1,524,610,0,0
-693,414,0,0,0,0,0,0,0,0,0,-1,531,610,0,0
-686,414,0,0,0,0,0,0,0,0,0,-1,538,610,0,0
-679,414,0,0,0,0,0,0,0,0,0,-1,545,610,0,0
-672,414,0,0,0,0,0,0,0,0,0,-1,552,610,0,0
-665,414,0,0,0,0,0,0,0,0,0,-1,559,610,0,0
-658,414,0,0,0,0,0,0,0,0,0,-1,566,610,0,0
-651,414,0,0,0,0,0,0,0,0,0,-1,573,610,0,0
-644,414,0,0,0,0,0,0,0,0,0,-1,580,610,0,0
-637,414,0,0,0,0,0,0,0,0,0,-1,587,610,0,0
-630,414,0,0,0,0,0,0,0,0,0,-1,594,610,0,0
-623,414,0,0,0,0,0,0,0,0,0,-1,601,610,0,0
-616,414,0,0,0,0,0,0,0,0,0,-1,608,610,0,0
-609,414,0,0,0,0,0,0,0,0,0,-1,615,610,0,0
-602,414,0,0,0,0,0,0,0,0,0,-1,622,610,0,0
-595,414,0,0,0,0,0,0,0,0,0,-1,629,610,0,0
-588,414,0,0,0,0,0,0,0,0,0,-1,636,610,0,0
-581,414,0,0,0,0,0,0,0,0,0,-1,643,610,0,0
-574,414,0,0,0,0,0,0,0,0,0,-1,650,610,0,0
-567,414,0,0,0,0,0,0,0,0,0,-1,657,610,0,0
-560,414,0,0,0,0,0,0,0,0,0,-1,664,610,0,0
-553,414,0,0,0,0,0,0,0,0,0,-1,671,610,0,0
-546,414,0,0,0,0,0,0,0,0,0,-1,678,610,0,0
-539,414,-8.2038,6.32764,0,0,0,0,0,0,0,-1,685,610,-8.20379,-6.32766
-532,414,-8.72266,4.98444,0,0,0,0,0,0,0,-1,692,610,-8.72265,-4.98445
-525,414,-9.23834,3.88635,0,0,0,0,0,0,0,-1,699,610,-9.23831,-3.88637
-518,414,-1.50458,-1.36444,0,0,0,0,0,0,0,-1,706,610,-1.50459,1.36443
-511,414,-2.05591,-3.11963,0,0,0,0,0,0,0,-1,713,610,-2.05588,3.1196
-504,414,-2.26416,-2.87775,0,0,0,0,0,0,0,-1,720,610,-2.26415,2.87776
-497,414,-2.29083,-1.80621,0,0,0,0,0,0,0,-1,727,610,-2.29082,1.80619
-490,414,-2.36023,-1.4505,0.00184468,0.0061681,-0.00524468,0.0096791,-0.00166632,-0.980876,0.0070739,0.0339637,734,610,-2.36026,1.45048
-483,414,-2.37701,-1.63806,0.00294509,0.0045729,-0.00452261,0.00835426,-0.000836271,-0.874427,0.00586816,0.0145933,741,610,-2.37701,1.63806
-476,414,-2.39807,-1.83063,0.00354339,0.00350566,-0.00396637,0.00749094,-0.000441893,-0.78302,0.00514758,0.00987646,748,610,-2.39809,1.83062
-469,414,-2.39795,-2.01349,0.00359006,0.00268124,-0.00333001,0.00649652,-0.000225216,-0.717587,0.004408,0.0106301,755,610,-2.39794,2.01347
-462,414,-2.37683,-2.20886,0.00326773,0.00170835,-0.00242107,0.00503156,-5.54798e-05,-0.62962,0.00337302,0.0199641,762,610,-2.37684,2.20888
-455,414,-2.37244,-2.43439,0.00251969,0.00118244,-0.00165422,0.0036353,6.68284e-05,-0.593341,0.00240157,0.0234638,769,610,-2.37242,2.43438
-448,414,-2.39557,-2.57648,0.00156593,0.00081107,-0.000766338,0.00204274,0.00033426,-0.556578,0.00126521,0.0234112,776,610,-2.39554,2.57645
-441,414,-2.4057,-2.74969,0.000302514,0.000532404,0.000133631,0.000593724,0.000241193,1.14058,0.00034479,0.0161987,783,610,-2.40568,2.74972
-434,414,-2.41113,-2.9408,-0.00104849,4.11853e-05,0.00108344,0.000709066,-0.00171637,1.01837,0.00144002,0.00883602,790,610,-2.41112,2.94078
-427,414,-2.39545,-3.11005,-0.00248267,-0.000415746,0.00211785,0.000907341,-0.00380575,1.01239,0.00288753,0.00973513,797,610,-2.39547,3.11002
-420,414,-2.39392,-3.2608,-0.00402169,-0.000882956,0.0030699,0.000995459,-0.0059001,1.02169,0.00430377,0.00999972,804,610,-2.39395,3.26079
-413,414,-2.3941,-3.44885,-0.00476834,-0.00125644,0.00438574,0.00171181,-0.00773658,0.975814,0.00581296,0.010216,811,610,-2.39412,3.44885
-406,414,-2.38116,-3.69183,-0.00457815,-0.00190758,0.00626468,0.00316254,-0.00964827,0.890399,0.0077058,0.0151836,818,610,-2.38114,3.69181
-399,414,-2.39679,-3.80933,-0.00427219,-0.00273393,0.00813196,0.00466519,-0.0116713,0.832548,0.00971671,0.0207715,825,610,-2.39679,3.80934
-392,414,-2.46857,-3.90869,-0.00332245,-0.00353008,0.010685,0.00725921,-0.0141117,0.78054,0.0125482,0.0273458,832,610,-2.46858,3.90867
-385,414,-2.50867,-4.12592,-0.00126965,-0.0047413,0.0141983,0.0112985,-0.0173095,0.724572,0.0166379,0.0439292,839,610,-2.50869,4.12589
-378,414,-2.56494,-4.56403,0,0,0,0,0,0,0,-1,846,610,-2.56494,4.564
-371,414,-2.58429,-5.2002,0,0,0,0,0,0,0,-1,853,610,-2.5843,5.20019
-364,414,-2.6181,-5.12628,0,0,0,0,0,0,0,-1,860,610,-2.61809,5.12627
-357,414,-5.09802,-3.25964,0,0,0,0,0,0,0,-1,867,610,-5.09801,3.25961
-350,414,-0.729858,-6.09155,0,0,0,0,0,0,0,-1,874,610,-0.729829,6.09153
-343,414,-0.68158,-7.48419,0,0,0,0,0,0,0,-1,881,610,-0.681581,7.4842
-336,414,-3.09222,-1.78766,0,0,0,0,0,0,0,-1,888,610,-3.09222,1.78763
-329,414,-4.73792,-1.55701,0,0,0,0,0,0,0,-1,895,610,-4.73793,1.557
-322,414,-4.42236,-1.29163,0,0,0,0,0,0,0,-1,902,610,-4.42238,1.2916
-315,414,0,0,0,0,0,0,0,0,0,-1,909,610,0,0
-308,414,0,0,0,0,0,0,0,0,0,-1,916,610,0,0
-301,414,0,0,0,0,0,0,0,0,0,-1,923,610,0,0
-294,414,0,0,0,0,0,0,0,0,0,-1,930,610,0,0
-287,414,0,0,0,0,0,0,0,0,0,-1,937,610,0,0
-280,414,0,0,0,0,0,0,0,0,0,-1,944,610,0,0
-273,414,0,0,0,0,0,0,0,0,0,-1,951,610,0,0
-266,414,0,0,0,0,0,0,0,0,0,-1,958,610,0,0
-259,414,0,0,0,0,0,0,0,0,0,-1,965,610,0,0
-252,414,0,0,0,0,0,0,0,0,0,-1,972,610,0,0
-245,414,0,0,0,0,0,0,0,0,0,-1,979,610,0,0
-238,414,0,0,0,0,0,0,0,0,0,-1,986,610,0,0
-231,414,0,0,0,0,0,0,0,0,0,-1,993,610,0,0
-224,414,0,0,0,0,0,0,0,0,0,-1,1000,610,0,0
-217,414,0,0,0,0,0,0,0,0,0,-1,1007,610,0,0
-210,414,0,0,0,0,0,0,0,0,0,-1,1014,610,0,0
-203,414,0,0,0,0,0,0,0,0,0,-1,1021,610,0,0
-196,414,0,0,0,0,0,0,0,0,0,-1,1028,610,0,0
-189,414,0,0,0,0,0,0,0,0,0,-1,1035,610,0,0
-182,414,0,0,0,0,0,0,0,0,0,-1,1042,610,0,0
-175,414,0,0,0,0,0,0,0,0,0,-1,1049,610,0,0
-168,414,0,0,0,0,0,0,0,0,0,-1,1056,610,0,0
-161,414,0,0,0,0,0,0,0,0,0,-1,1063,610,0,0
-154,414,0,0,0,0,0,0,0,0,0,-1,1070,610,0,0
-147,414,0,0,0,0,0,0,0,0,0,-1,1077,610,0,0
-140,414,0,0,0,0,0,0,0,0,0,-1,1084,610,0,0
-133,414,0,0,0,0,0,0,0,0,0,-1,1091,610,0,0
-126,414,0,0,0,0,0,0,0,0,0,-1,1098,610,0,0
-119,414,0,0,0,0,0,0,0,0,0,-1,1105,610,0,0
-112,414,0,0,0,0,0,0,0,0,0,-1,1112,610,0,0
-105,414,0,0,0,0,0,0,0,0,0,-1,1119,610,0,0
-98,414,0,0,0,0,0,0,0,0,0,-1,1126,610,0,0
-91,414,0,0,0,0,0,0,0,0,0,-1,1133,610,0,0
-84,414,0,0,0,0,0,0,0,0,0,-1,1140,610,0,0
-77,414,0,0,0,0,0,0,0,0,0,-1,1147,610,0,0
-70,414,0,0,0,0,0,0,0,0,0,-1,1154,610,0,0
-63,414,0,0,0,0,0,0,0,0,0,-1,1161,610,0,0
-56,414,0,0,0,0,0,0,0,0,0,-1,1168,610,0,0
-49,414,0,0,0,0,0,0,0,0,0,-1,1175,610,0,0
-42,414,0,0,0,0,0,0,0,0,0,-1,1182,610,0,0
-35,414,0,0,0,0,0,0,0,0,0,-1,1189,610,0,0
-28,414,0,0,0,0,0,0,0,0,0,-1,1196,610,0,0
-21,414,0,0,0,0,0,0,0,0,0,-1,1203,610,0,0
-14,414,0,0,0,0,0,0,0,0,0,-1,1210,610,0,0
-7,414,0,0,0,0,0,0,0,0,0,-1,1217,610,0,0
0,414,0,0,0,0,0,0,0,0,0,-1,1224,610,0,0
7,414,0,0,0,0,0,0,0,0,0,-1,1231,610,0,0
14,414,0,0,0,0,0,0,0,0,0,-1,1238,610,0,0
21,414,0,0,0,0,0,0,0,0,0,-1,1245,610,0,0
28,414,0,0,0,0,0,0,0,0,0,-1,1252,610,0,0
35,414,0,0,0,0,0,0,0,0,0,-1,1259,610,0,0
42,414,0,0,0,0,0,0,0,0,0,-1,1266,610,0,0
49,414,0,0,0,0,0,0,0,0,0,-1,1273,610,0,0
56,414,0,0,0,0,0,0,0,0,0,-1,1280,610,0,0
63,414,0,0,0,0,0,0,0,0,0,-1,1287,610,0,0
70,414,0,0,0,0,0,0,0,0,0,-1,1294,610,0,0
77,414,0,0,0,0,0,0,0,0,0,-1,1301,610,0,0
84,414,0,0,0,0,0,0,0,0,0,-1,1308,610,0,0
91,414,0,0,0,0,0,0,0,0,0,-1,1315,610,0,0
98,414,0,0,0,0,0,0,0,0,0,-1,1322,610,0,0
105,414,0,0,0,0,0,0,0,0,0,-1,1329,610,0,0
112,414,0,0,0,0,0,0,0,0,0,-1,1336,610,0,0
119,414,0,0,0,0,0,0,0,0,0,-1,1343,610,0,0
126,414,0,0,0,0,0,0,0,0,0,-1,1350,610,0,0
133,414,0,0,0,0,0,0,0,0,0,-1,1357,610,0,0
140,414,0,0,0,0,0,0,0,0,0,-1,1364,610,0,0
147,414,0,0,0,0,0,0,0,0,0,-1,1371,610,0,0
154,414,0,0,0,0,0,0,0,0,0,-1,1378,610,0,0
161,414,0,0,0,0,0,0,0,0,0,-1,1385,610,0,0
168,414,0,0,0,0,0,0,0,0,0,-1,1392,610,0,0
175,414,0,0,0,0,0,0,0,0,0,-1,1399,610,0,0
182,414,0,0,0,0,0,0,0,0,0,-1,1406,610,0,0
189,414,0,0,0,0,0,0,0,0,0,-1,1413,610,0,0
196,414,0,0,0,0,0,0,0,0,0,-1,1420,610,0,0
203,414,0,0,0,0,0,0,0,0,0,-1,1427,610,0,0
210,414,0,0,0,0,0,0,0,0,0,-1,1434,610,0,0
217,414,0,0,0,0,0,0,0,0,0,-1,1441,610,0,0
224,414,0,0,0,0,0,0,0,0,0,-1,1448,610,0,0
231,414,0,0,0,0,0,0,0,0,0,-1,1455,610,0,0
238,414,0,0,0,0,0,0,0,0,0,-1,1462,610,0,0
245,414,0,0,0,0,0,0,0,0,0,-1,1469,610,0,0
252,414,0,0,0,0,0,0,0,0,0,-1,1476,610,0,0
259,414,0,0,0,0,0,0,0,0,0,-1,1483,610,0,0
266,414,0,0,0,0,0,0,0,0,0,-1,1490,610,0,0
273,414,0,0,0,0,0,0,0,0,0,-1,1497,610,0,0
280,414,0,0,0,0,0,0,0,0,0,-1,1504,610,0,0
287,414,0,0,0,0,0,0,0,0,0,-1,1511,610,0,0
294,414,0,0,0,0,0,0,0,0,0,-1,1518,610,0,0
301,414,0,0,0,0,0,0,0,0,0,-1,1525,610,0,0
308,414,0,0,0,0,0,0,0,0,0,-1,1532,610,0,0
315,414,0,0,0,0,0,0,0,0,0,-1,1539,610,0,0
322,414,0,0,0,0,0,0,0,0,0,-1,1546,610,0,0
329,414,0,0,0,0,0,0,0,0,0,-1,1553,610,0,0
336,414,0,0,0,0,0,0,0,0,0,-1,1560,610,0,0
343,414,0,0,0,0,0,0,0,0,0,-1,1567,610,0,0
350,414,0,0,0,0,0,0,0,0,0,-1,1574,610,0,0
357,414,0,0,0,0,0,0,0,0,0,-1,1581,610,0,0
364,414,0,0,0,0,0,0,0,0,0,-1,1588,610,0,0
371,414,0,0,0,0,0,0,0,0,0,-1,1595,610,0,0
378,414,0,0,0,0,0,0,0,0,0,-1,1602,610,0,0
385,414,0,0,0,0,0,0,0,0,0,-1,1609,610,0,0
392,414,0,0,0,0,0,0,0,0,0,-1,1616,610,0,0
399,414,0,0,0,0,0,0,0,0,0,-1,1623,610,0,0
406,414,0,0,0,0,0,0,0,0,0,-1,1630,610,0,0
413,414,0,0,0,0,0,0,0,0,0,-1,1637,610,0,0
420,414,0,0,0,0,0,0,0,0,0,-1,1644,610,0,0
427,414,0,0,0,0,0,0,0,0,0,-1,1651,610,0,0
434,414,0,0,0,0,0,0,0,0,0,-1,1658,610,0,0
441,414,7.84375,0.584412,0,0,0,0,0,0,0,-1,1665,610,7.84379,-0.584394
448,414,7.40808,1.25446,0,0,0,0,0,0,0,-1,1672,610,7.40807,-1.25446
455,414,6.3512,1.73846,0,0,0,0,0,0,0,-1,1679,610,6.3512,-1.73847
462,414,8.18103,3.22113,0,0,0,0,0,0,0,-1,1686,610,8.18108,-3.22112
469,414,8.38513,2.49579,0,0,0,0,0,0,0,-1,1693,610,8.38516,-2.49576
476,414,8.64099,1.71161,0,0,0,0,0,0,0,-1,1700,610,8.64097,-1.71164
483,414,8.62744,0.687622,0,0,0,0,0,0,0,-1,1707,610,8.62749,-0.687615
490,414,8.38831,-0.0302734,0,0,0,0,0,0,0,-1,1714,610,8.38835,0.0302913
497,414,4.71094,-0.110046,0,0,0,0,0,0,0,-1,1721,610,4.71089,0.110024
504,414,7.19568,-1.43835,0,0,0,0,0,0,0,-1,1728,610,7.19563,1.43836
511,414,5.94153,-1.28772,0,0,0,0,0,0,0,-1,1735,610,5.94151,1.28769
518,414,4.53381,-0.0996704,0,0,0,0,0,0,0,-1,1742,610,4.53378,0.0996819
525,414,6.18811,-1.64056,0,0,0,0,0,0,0,-1,1749,610,6.18814,1.64055
532,414,6.9259,-2.47931,0,0,0,0,0,0,0,-1,1756,610,6.92593,2.47933
539,414,6.97607,-2.1377,-0.00239311,-0.00132192,-0.00187277,9.03336e-05,-0.00380536,-0.924675,0.00256755,0.0322425,1763,610,6.97611,2.13771
546,414,6.99402,-1.83618,-0.00247256,-0.000898846,-0.00176751,0.00024904,-0.00362045,-0.994817,0.00250078,0.0122782,1770,610,6.994,1.83615
553,414,7.00232,-1.63843,-0.00229514,-0.000485039,-0.0015193,0.000378354,-0.00315854,-1.05402,0.00224247,0.0108649,1777,610,7.0023,1.6384
560,414,7.0144,-1.42413,-0.00205089,-0.000173602,-0.00126954,0.000466613,-0.00269111,-1.10373,0.00196813,0.0128995,1784,610,7.01446,1.42415
567,414,7.02905,-1.22083,-0.00170431,-9.97142e-05,-0.00104281,0.000413715,-0.00221774,-1.11329,0.00163395,0.0215742,1791,610,7.02909,1.22085
574,414,6.99805,-1.04327,-0.00114275,-0.000133258,-0.00074808,0.000264432,-0.00154044,-1.08218,0.00112551,0.0204408,1798,610,6.9981,1.04325
581,414,7.00256,-0.843445,-0.000671584,-0.00024374,-0.000624116,0.000202097,-0.00111742,-0.950503,0.000820651,0.015493,1805,610,7.00251,0.843454
588,414,6.99597,-0.664917,-0.00020753,-0.0004823,-0.000504737,0.000178185,-0.000868016,-0.652522,0.000646312,0.0148868,1812,610,6.99601,0.664914
595,414,6.97571,-0.438538,0.000589988,-0.000894038,-0.000671619,0.000848802,-0.00115285,-0.367821,0.00116009,0.0206731,1819,610,6.97567,0.438509
602,414,6.97046,-0.269043,0.00175016,-0.00186523,-0.00139471,0.00222567,-0.00234073,-0.328573,0.00263669,0.0238168,1826,610,6.97045,0.269038
609,414,6.93274,-0.0906372,0.00277881,-0.00285372,-0.00228765,0.00359086,-0.00366577,-0.341098,0.0041897,0.0229522,1833,610,6.93278,0.0906669
616,414,7.01318,-0.124268,0.00436721,-0.00371815,-0.00344607,0.00563665,-0.00498759,-0.35295,0.00613772,0.0412856,1840,610,7.0132,0.124254
623,414,7.2926,0.112976,0,0,0,0,0,0,0,-1,1847,610,7.29259,-0.112983
630,414,5.47144,0.499329,0,0,0,0,0,0,0,-1,1854,610,5.47142,-0.499303
637,414,6.57898,2.38019,0,0,0,0,0,0,0,-1,1861,610,6.579,-2.38019
644,414,5.87073,1.51422,0,0,0,0,0,0,0,-1,1868,610,5.87076,-1.51424
651,414,3.6377,0.820557,0,0,0,0,0,0,0,-1,1875,610,3.6377,-0.820543
658,414,2.29761,3.87323,0,0,0,0,0,0,0,-1,1882,610,2.29758,-3.87325
665,414,0,0,0,0,0,0,0,0,0,-1,1889,610,0,0
672,414,0,0,0,0,0,0,0,0,0,-1,1896,610,0,0
679,414,0,0,0,0,0,0,0,0,0,-1,1903,610,0,0
686,414,0,0,0,0,0,0,0,0,0,-1,1910,610,0,0
693,414,0,0,0,0,0,0,0,0,0,-1,1917,610,0,0
700,414,0,0,0,0,0,0,0,0,0,-1,1924,610,0,0
707,414,0,0,0,0,0,0,0,0,0,-1,1931,610,0,0
714,414,0,0,0,0,0,0,0,0,0,-1,1938,610,0,0
721,414,0,0,0,0,0,0,0,0,0,-1,1945,610,0,0
728,414,0,0,0,0,0,0,0,0,0,-1,1952,610,0,0
735,414,0,0,0,0,0,0,0,0,0,-1,1959,610,0,0
742,414,0,0,0,0,0,0,0,0,0,-1,1966,610,0,0
749,414,0,0,0,0,0,0,0,0,0,-1,1973,610,0,0
756,414,0,0,0,0,0,0,0,0,0,-1,1980,610,0,0
763,414,0,0,0,0,0,0,0,0,0,-1,1987,610,0,0
770,414,0,0,0,0,0,0,0,0,0,-1,1994,610,0,0
777,414,0,0,0,0,0,0,0,0,0,-1,2001,610,0,0
784,414,0,0,0,0,0,0,0,0,0,-1,2008,610,0,0
791,414,0,0,0,0,0,0,0,0,0,-1,2015,610,0,0
798,414,0,0,0,0,0,0,0,0,0,-1,2022,610,0,0
805,414,0,0,0,0,0,0,0,0,0,-1,2029,610,0,0
812,414,0,0,0,0,0,0,0,0,0,-1,2036,610,0,0
-700,407,0,0,0,0,0,0,0,0,0,-1,524,617,0,0
-693,407,0,0,0,0,0,0,0,0,0,-1,531,617,0,0
-686,407,0,0,0,0,0,0,0,0,0,-1,538,617,0,0
-679,407,0,0,0,0,0,0,0,0,0,-1,545,617,0,0
-672,407,0,0,0,0,0,0,0,0,0,-1,552,617,0,0
-665,407,0,0,0,0,0,0,0,0,0,-1,559,617,0,0
-658,407,0,0,0,0,0,0,0,0,0,-1,566,617,0,0
-651,407,0,0,0,0,0,0,0,0,0,-1,573,617,0,0
-644,407,0,0,0,0,0,0,0,0,0,-1,580,617,0,0
-637,407,0,0,0,0,0,0,0,0,0,-1,587,617,0,0
-630,407,0,0,0,0,0,0,0,0,0,-1,594,617,0,0
-623,407,0,0,0,0,0,0,0,0,0,-1,601,617,0,0
-616,407,0,0,0,0,0,0,0,0,0,-1,608,617,0,0
-609,407,0,0,0,0,0,0,0,0,0,-1,615,617,0,0
-602,407,0,0,0,0,0,0,0,0,0,-1,622,617,0,0
-595,407,0,0,0,0,0,0,0,0,0,-1,629,617,0,0
-588,407,0,0,0,0,0,0,0,0,0,-1,636,617,0,0
-581,407,0,0,0,0,0,0,0,0,0,-1,643,617,0,0
-574,407,0,0,0,0,0,0,0,0,0,-1,650,617,0,0
-567,407,0,0,0,0,0,0,0,0,0,-1,657,617,0,0
-560,407,0,0,0,0,0,0,0,0,0,-1,664,617,0,0
-553,407,0,0,0,0,0,0,0,0,0,-1,671,617,0,0
-546,407,-6.47162,6.6189,0,0,0,0,0,0,0,-1,678,617,-6.47164,-6.61892
-539,407,-6.94537,5.34058,0,0,0,0,0,0,0,-1,685,617,-6.9454,-5.34059
-532,407,-7.50598,4.08948,0,0,0,0,0,0,0,-1,692,617,-7.50599,-4.0895
-525,407,-1.84094,0.627808,0,0,0,0,0,0,0,-1,699,617,-1.84093,-0.627793
-518,407,-1.79602,-0.880981,0,0,0,0,0,0,0,-1,706,617,-1.796,0.880991
-511,407,-1.7511,-2.38977,0,0,0,0,0,0,0,-1,713,617,-1.75107,2.38978
-504,407,-2.46686,-1.78601,0,0,0,0,0,0,0,-1,720,617,-2.46688,1.78599
-497,407,-2.46039,-1.65094,-0.00270245,0.00718509,-0.00415717,0.00870064,-0.00421801,-1.22121,0.00760679,0.0383693,727,617,-2.46041,1.65092
-490,407,-2.52667,-1.48816,-0.000781503,0.00515113,-0.00341913,0.00671135,-0.00234172,-1.1427,0.00542594,0.0188437,734,617,-2.52667,1.48816
-483,407,-2.55511,-1.62695,0.000637809,0.00381199,-0.00289598,0.00552726,-0.00107746,-1.03606,0.00409156,0.0102782,741,617,-2.55512,1.62695
-476,407,-2.56073,-1.81049,0.00156575,0.00274499,-0.00255481,0.00477734,-0.000466597,-0.898806,0.00335127,0.00871914,748,617,-2.56076,1.8105
-469,407,-2.56702,-1.99573,0.00191992,0.00186896,-0.00211089,0.00400548,-0.000216604,-0.779363,0.00274537,0.0112063,755,617,-2.56701,1.99574
-462,407,-2.59863,-2.19592,0.00185268,0.000852643,-0.00140376,0.00284282,-0.000137498,-0.614306,0.00194267,0.0188685,762,617,-2.59865,2.19593
-455,407,-2.58954,-2.41138,0.00128636,0.000422221,-0.000730473,0.00170298,5.60039e-06,-0.518328,0.00113346,0.0217399,769,617,-2.58952,2.41138
-448,407,-2.54309,-2.5733,0.000475397,0.000113647,0.000100951,0.000501662,8.73819e-05,0.254531,0.000309454,0.0183747,776,617,-2.54312,2.57327
-441,407,-2.56335,-2.73041,-0.000777715,-0.000117249,0.00100253,0.00060804,-0.001503,0.944501,0.00125479,0.0134286,783,617,-2.56338,2.73041
-434,407,-2.57031,-2.91113,-0.00223131,-0.000535784,0.00200815,0.000796219,-0.00356331,0.985129,0.00268066,0.00919535,790,617,-2.57032,2.91111
-427,407,-2.5741,-3.09595,-0.00386621,-0.000928123,0.00315322,0.00108146,-0.0058758,1.00339,0.00432302,0.00921462,797,617,-2.5741,3.09597
-420,407,-2.57489,-3.26001,-0.00563736,-0.00127033,0.00422546,0.00130244,-0.00821012,1.02388,0.00595523,0.00999989,804,617,-2.57487,3.26002
-413,407,-2.55548,-3.4472,-0.00668957,-0.0016241,0.00573062,0.00210853,-0.0104222,0.993474,0.00774722,0.0107604,811,617,-2.5555,3.44718
-406,407,-2.53601,-3.5932,-0.00690325,-0.00230246,0.00798947,0.00371119,-0.0129169,0.925571,0.0100787,0.0210558,818,617,-2.53601,3.5932
-399,407,-2.53186,-3.59534,-0.00706984,-0.00313928,0.0103772,0.00545707,-0.0156662,0.878982,0.0126614,0.0359662,825,617,-2.53185,3.59533
-392,407,-2.74011,-3.86865,-0.0065143,-0.00404906,0.0136943,0.00846799,-0.0190314,0.830282,0.0162625,0.0443306,832,617,-2.74014,3.86867
-385,407,-2.91315,-4.18469,0,0,0,0,0,0,0,-1,839,617,-2.91315,4.18471
-378,407,-2.76898,-4.22766,0,0,0,0,0,0,0,-1,846,617,-2.76899,4.22767
-371,407,-2.8996,-4.97571,0,0,0,0,0,0,0,-1,853,617,-2.89963,4.97573
-364,407,-3.09723,-5.1662,0,0,0,0,0,0,0,-1,860,617,-3.09725,5.16619
-357,407,-2.9917,-3.28107,0,0,0,0,0,0,0,-1,867,617,-2.99171,3.28106
-350,407,-1.05005,-4.43396,0,0,0,0,0,0,0,-1,874,617,-1.05007,4.43393
-343,407,-0.408447,-6.80444,0,0,0,0,0,0,0,-1,881,617,-0.408437,6.80447
-336,407,-0.174316,-8.50122,0,0,0,0,0,0,0,-1,888,617,-0.17432,8.50119
-329,407,-0.549561,-0.736267,0,0,0,0,0,0,0,-1,895,617,-0.549544,0.736255
-322,407,0,0,0,0,0,0,0,0,0,-1,902,617,0,0
-315,407,0,0,0,0,0,0,0,0,0,-1,909,617,0,0
-308,407,0,0,0,0,0,0,0,0,0,-1,916,617,0,0
-301,407,0,0,0,0,0,0,0,0,0,-1,923,617,0,0
-294,407,0,0,0,0,0,0,0,0,0,-1,930,617,0,0
-287,407,0,0,0,0,0,0,0,0,0,-1,937,617,0,0
-280,407,0,0,0,0,0,0,0,0,0,-1,944,617,0,0
-273,407,0,0,0,0,0,0,0,0,0,-1,951,617,0,0
-266,407,0,0,0,0,0,0,0,0,0,-1,958,617,0,0
-259,407,0,0,0,0,0,0,0,0,0,-1,965,617,0,0
-252,407,0,0,0,0,0,0,0,0,0,-1,972,617,0,0
-245,407,0,0,0,0,0,0,0,0,0,-1,979,617,0,0
-238,407,0,0,0,0,0,0,0,0,0,-1,986,617,0,0
-231,407,0,0,0,0,0,0,0,0,0,-1,993,617,0,0
-224,407,0,0,0,0,0,0,0,0,0,-1,1000,617,0,0
-217,407,0,0,0,0,0,0,0,0,0,-1,1007,617,0,0
-210,407,0,0,0,0,0,0,0,0,0,-1,1014,617,0,0
-203,407,0,0,0,0,0,0,0,0,0,-1,1021,617,0,0
-196,407,0,0,0,0,0,0,0,0,0,-1,1028,617,0,0
-189,407,0,0,0,0,0,0,0,0,0,-1,1035,617,0,0
-182,407,0,0,0,0,0,0,0,0,0,-1,1042,617,0,0
-175,407,0,0,0,0,0,0,0,0,0,-1,1049,617,0,0
-168,407,0,0,0,0,0,0,0,0,0,-1,1056,617,0,0
-161,407,0,0,0,0,0,0,0,0,0,-1,1063,617,0,0
-154,407,0,0,0,0,0,0,0,0,0,-1,1070,617,0,0
-147,407,0,0,0,0,0,0,0,0,0,-1,1077,617,0,0
-140,407,0,0,0,0,0,0,0,0,0,-1,1084,617,0,0
-133,407,0,0,0,0,0,0,0,0,0,-1,1091,617,0,0
-126,407,0,0,0,0,0,0,0,0,0,-1,1098,617,0,0
-119,407,0,0,0,0,0,0,0,0,0,-1,1105,617,0,0
-112,407,0,0,0,0,0,0,0,0,0,-1,1112,617,0,0
-105,407,0,0,0,0,0,0,0,0,0,-1,1119,617,0,0
-98,407,0,0,0,0,0,0,0,0,0,-1,1126,617,0,0
-91,407,0,0,0,0,0,0,0,0,0,-1,1133,617,0,0
-84,407,0,0,0,0,0,0,0,0,0,-1,1140,617,0,0
-77,407,0,0,0,0,0,0,0,0,0,-1,1147,617,0,0
-70,407,0,0,0,0,0,0,0,0,0,-1,1154,617,0,0
-63,407,0,0,0,0,0,0,0,0,0,-1,1161,617,0,0
-56,407,0,0,0,0,0,0,0,0,0,-1,1168,617,0,0
-49,407,0,0,0,0,0,0,0,0,0,-1,1175,617,0,0
-42,407,0,0,0,0,0,0,0,0,0,-1,1182,617,0,0
-35,407,0,0,0,0,0,0,0,0,0,-1,1189,617,0,0
-28,407,0,0,0,0,0,0,0,0,0,-1,1196,617,0,0
-21,407,0,0,0,0,0,0,0,0,0,-1,1203,617,0,0
-14,407,0,0,0,0,0,0,0,0,0,-1,1210,617,0,0
-7,407,0,0,0,0,0,0,0,0,0,-1,1217,617,0,0
0,407,0,0,0,0,0,0,0,0,0,-1,1224,617,0,0
7,407,0,0,0,0,0,0,0,0,0,-1,1231,617,0,0
14,407,0,0,0,0,0,0,0,0,0,-1,1238,617,0,0
21,407,0,0,0,0,0,0,0,0,0,-1,1245,617,0,0
28,407,0,0,0,0,0,0,0,0,0,-1,1252,617,0,0
35,407,0,0,0,0,0,0,0,0,0,-1,1259,617,0,0
42,407,0,0,0,0,0,0,0,0,0,-1,1266,617,0,0
49,407,0,0,0,0,0,0,0,0,0,-1,1273,617,0,0
56,407,0,0,0,0,0,0,0,0,0,-1,1280,617,0,0
63,407,0,0,0,0,0,0,0,0,0,-1,1287,617,0,0
70,407,0,0,0,0,0,0,0,0,0,-1,1294,617,0,0
77,407,0,0,0,0,0,0,0,0,0,-1,1301,617,0,0
84,407,0,0,0,0,0,0,0,0,0,-1,1308,617,0,0
91,407,0,0,0,0,0,0,0,0,0,-1,1315,617,0,0
98,407,0,0,0,0,0,0,0,0,0,-1,1322,617,0,0
105,407,0,0,0,0,0,0,0,0,0,-1,1329,617,0,0
112,407,0,0,0,0,0,0,0,0,0,-1,1336,617,0,0
119,407,0,0,0,0,0,0,0,0,0,-1,1343,617,0,0
126,407,0,0,0,0,0,0,0,0,0,-1,1350,617,0,0
133,407,0,0,0,0,0,0,0,0,0,-1,1357,617,0,0
140,407,0,0,0,0,0,0,0,0,0,-1,1364,617,0,0
147,407,0,0,0,0,0,0,0,0,0,-1,1371,617,0,0
154,407,0,0,0,0,0,0,0,0,0,-1,1378,617,0,0
161,407,0,0,0,0,0,0,0,0,0,-1,1385,617,0,0
168,407,0,0,0,0,0,0,0,0,0,-1,1392,617,0,0
175,407,0,0,0,0,0,0,0,0,0,-1,1399,617,0,0
182,407,0,0,0,0,0,0,0,0,0,-1,1406,617,0,0
189,407,0,0,0,0,0,0,0,0,0,-1,1413,617,0,0
196,407,0,0,0,0,0,0,0,0,0,-1,1420,617,0,0
203,407,0,0,0,0,0,0,0,0,0,-1,1427,617,0,0
210,407,0,0,0,0,0,0,0,0,0,-1,1434,617,0,0
217,407,0,0,0,0,0,0,0,0,0,-1,1441,617,0,0
224,407,0,0,0,0,0,0,0,0,0,-1,1448,617,0,0
231,407,0,0,0,0,0,0,0,0,0,-1,1455,617,0,0
238,407,0,0,0,0,0,0,0,0,0,-1,1462,617,0,0
245,407,0,0,0,0,0,0,0,0,0,-1,1469,617,0,0
252,407,0,0,0,0,0,0,0,0,0,-1,1476,617,0,0
259,407,0,0,0,0,0,0,0,0,0,-1,1483,617,0,0
266,407,0,0,0,0,0,0,0,0,0,-1,1490,617,0,0
273,407,0,0,0,0,0,0,0,0,0,-1,1497,617,0,0
280,407,0,0,0,0,0,0,0,0,0,-1,1504,617,0,0
287,407,0,0,0,0,0,0,0,0,0,-1,1511,617,0,0
294,407,0,0,0,0,0,0,0,0,0,-1,1518,617,0,0
301,407,0,0,0,0,0,0,0,0,0,-1,1525,617,0,0
308,407,0,0,0,0,0,0,0,0,0,-1,1532,617,0,0
315,407,0,0,0,0,0,0,0,0,0,-1,1539,617,0,0
322,407,0,0,0,0,0,0,0,0,0,-1,1546,617,0,0
329,407,0,0,0,0,0,0,0,0,0,-1,1553,617,0,0
336,407,0,0,0,0,0,0,0,0,0,-1,1560,617,0,0
343,407,0,0,0,0,0,0,0,0,0,-1,1567,617,0,0
350,407,0,0,0,0,0,0,0,0,0,-1,1574,617,0,0
357,407,0,0,0,0,0,0,0,0,0,-1,1581,617,0,0
364,407,0,0,0,0,0,0,0,0,0,-1,1588,617,0,0
371,407,0,0,0,0,0,0,0,0,0,-1,1595,617,0,0
378,407,0,0,0,0,0,0,0,0,0,-1,1602,617,0,0
385,407,0,0,0,0,0,0,0,0,0,-1,1609,617,0,0
392,407,0,0,0,0,0,0,0,0,0,-1,1616,617,0,0
399,407,0,0,0,0,0,0,0,0,0,-1,1623,617,0,0
406,407,0,0,0,0,0,0,0,0,0,-1,1630,617,0,0
413,407,0,0,0,0,0,0,0,0,0,-1,1637,617,0,0
420,407,0,0,0,0,0,0,0,0,0,-1,1644,617,0,0
427,407,0,0,0,0,0,0,0,0,0,-1,1651,617,0,0
434,407,0,0,0,0,0,0,0,0,0,-1,1658,617,0,0
441,407,0,0,0,0,0,0,0,0,0,-1,1665,617,0,0
448,407,7.02893,2.13843,0,0,0,0,0,0,0,-1,1672,617,7.02899,-2.13844
455,407,7.55237,2.29242,0,0,0,0,0,0,0,-1,1679,617,7.55236,-2.29244
462,407,8.2926,2.46173,0,0,0,0,0,0,0,-1,1686,617,8.29261,-2.46174
469,407,8.71509,2.22681,0,0,0,0,0,0,0,-1,1693,617,8.71511,-2.22681
476,407,8.89917,1.47766,0,0,0,0,0,0,0,-1,1700,617,8.89914,-1.47768
483,407,9.02612,0.682983,0,0,0,0,0,0,0,-1,1707,617,9.02608,-0.683004
490,407,9.12659,0.000671387,0,0,0,0,0,0,0,-1,1714,617,9.12653,-0.000675931
497,407,7.76819,0.855835,0,0,0,0,0,0,0,-1,1721,617,7.7682,-0.855865
504,407,4.69336,0.160706,0,0,0,0,0,0,0,-1,1728,617,4.69337,-0.1607
511,407,4.07104,-0.00140381,0,0,0,0,0,0,0,-1,1735,617,4.07109,0.00141425
518,407,6.09534,1.9411,0,0,0,0,0,0,0,-1,1742,617,6.09532,-1.94113
525,407,5.72534,-1.35986,0,0,0,0,0,0,0,-1,1749,617,5.72529,1.35988
532,407,7.31763,-2.34937,0,0,0,0,0,0,0,-1,1756,617,7.31766,2.34937
539,407,7.24219,-2.07629,-0.00487547,-0.00197253,-0.00331067,0.000190877,-0.00703888,-0.99199,0.00475749,0.049219,1763,617,7.24224,2.07628
546,407,7.19312,-1.84851,-0.0045495,-0.0011986,-0.0028639,0.000443938,-0.00619204,-1.05007,0.00428368,0.0129526,1770,617,7.19312,1.84851
553,407,7.19397,-1.63281,-0.00398253,-0.000529301,-0.00231191,0.00062959,-0.00514142,-1.10613,0.00365559,0.0135436,1777,617,7.194,1.63284
560,407,7.21667,-1.40033,-0.00340883,-6.58094e-05,-0.00182499,0.000737457,-0.0042121,-1.15616,0.00308342,0.0149151,1784,617,7.21664,1.4003
567,407,7.20496,-1.23944,-0.00279341,0.000149511,-0.00140726,0.000714118,-0.00335802,-1.18925,0.0025108,0.0273283,1791,617,7.20492,1.23946
574,407,7.19263,-1.052,-0.00199028,0.000164976,-0.000975276,0.000540773,-0.00236608,-1.20301,0.00178516,0.0232202,1798,617,7.1926,1.05201
581,407,7.17786,-0.839111,-0.00128976,8.80691e-05,-0.00073627,0.000407469,-0.00160916,-1.16149,0.00123128,0.0154917,1805,617,7.17782,0.839114
588,407,7.18396,-0.664429,-0.000635812,-0.00011152,-0.000533709,0.000220948,-0.00096828,-1.01368,0.000730395,0.0113415,1812,617,7.18394,0.664437
595,407,7.20422,-0.453796,0.000316481,-0.00046584,-0.000624218,0.000661971,-0.00081133,-0.505509,0.000852066,0.0225,1819,617,7.20426,0.453809
602,407,7.20447,-0.26825,0.0016371,-0.0011901,-0.0011443,0.0020422,-0.0015952,-0.340251,0.00210534,0.0184424,1826,617,7.20453,0.268254
609,407,7.20837,-0.048584,0.00270858,-0.00202412,-0.00188601,0.00336823,-0.00268377,-0.336458,0.00350156,0.0154937,1833,617,7.20838,0.0486099
616,407,7.22131,0.270264,0.00428423,-0.00274962,-0.00290245,0.00532724,-0.00379262,-0.344984,0.00529014,0.0232029,1840,617,7.22135,-0.270284
623,407,7.35718,0.504456,0.00627346,-0.00346952,-0.00454078,0.00806156,-0.00525762,-0.375138,0.00774642,0.0480687,1847,617,7.35713,-0.504431
630,407,6.55945,0.949524,0,0,0,0,0,0,0,-1,1854,617,6.55943,-0.949506
637,407,6.27808,1.17114,0,0,0,0,0,0,0,-1,1861,617,6.27803,-1.17116
644,407,5.09766,2.27747,0,0,0,0,0,0,0,-1,1868,617,5.09764,-2.27746
651,407,8.39294,0.114197,0,0,0,0,0,0,0,-1,1875,617,8.39292,-0.114212
658,407,3.76685,0.594177,0,0,0,0,0,0,0,-1,1882,617,3.76683,-0.594184
665,407,5.76123,0.375061,0,0,0,0,0,0,0,-1,1889,617,5.76118,-0.37509
672,407,0,0,0,0,0,0,0,0,0,-1,1896,617,0,0
679,407,0,0,0,0,0,0,0,0,0,-1,1903,617,0,0
686,407,0,0,0,0,0,0,0,0,0,-1,1910,617,0,0
693,407,0,0,0,0,0,0,0,0,0,-1,1917,617,0,0
700,407,0,0,0,0,0,0,0,0,0,-1,1924,617,0,0
707,407,0,0,0,0,0,0,0,0,0,-1,1931,617,0,0
714,407,0,0,0,0,0,0,0,0,0,-1,1938,617,0,0
721,407,0,0,0,0,0,0,0,0,0,-1,1945,617,0,0
728,407,0,0,0,0,0,0,0,0,0,-1,1952,617,0,0
735,407,0,0,0,0,0,0,0,0,0,-1,1959,617,0,0
742,407,0,0,0,0,0,0,0,0,0,-1,1966,617,0,0
749,407,0,0,0,0,0,0,0,0,0,-1,1973,617,0,0
756,407,0,0,0,0,0,0,0,0,0,-1,1980,617,0,0
763,407,0,0,0,0,0,0,0,0,0,-1,1987,617,0,0
770,407,0,0,0,0,0,0,0,0,0,-1,1994,617,0,0
777,407,0,0,0,0,0,0,0,0,0,-1,2001,617,0,0
784,407,0,0,0,0,0,0,0,0,0,-1,2008,617,0,0
791,407,0,0,0,0,0,0,0,0,0,-1,2015,617,0,0
798,407,0,0,0,0,0,0,0,0,0,-1,2022,617,0,0
805,407,0,0,0,0,0,0,0,0,0,-1,2029,617,0,0
812,407,0,0,0,0,0,0,0,0,0,-1,2036,617,0,0
-700,400,0,0,0,0,0,0,0,0,0,-1,524,624,0,0
-693,400,0,0,0,0,0,0,0,0,0,-1,531,624,0,0
-686,400,0,0,0,0,0,0,0,0,0,-1,538,624,0,0
-679,400,0,0,0,0,0,0,0,0,0,-1,545,624,0,0
-672,400,0,0,0,0,0,0,0,0,0,-1,552,624,0,0
-665,400,0,0,0,0,0,0,0,0,0,-1,559,624,0,0
-658,400,0,0,0,0,0,0,0,0,0,-1,566,624,0,0
-651,400,0,0,0,0,0,0,0,0,0,-1,573,624,0,0
-644,400,0,0,0,0,0,0,0,0,0,-1,580,624,0,0
-637,400,0,0,0,0,0,0,0,0,0,-1,587,624,0,0
-630,400,0,0,0,0,0,0,0,0,0,-1,594,624,0,0
-623,400,0,0,0,0,0,0,0,0,0,-1,601,624,0,0
-616,400,0,0,0,0,0,0,0,0,0,-1,608,624,0,0
-609,400,0,0,0,0,0,0,0,0,0,-1,615,624,0,0
-602,400,0,0,0,0,0,0,0,0,0,-1,622,624,0,0
-595,400,0,0,0,0,0,0,0,0,0,-1,629,624,0,0
-588,400,0,0,0,0,0,0,0,0,0,-1,636,624,0,0
-581,400,0,0,0,0,0,0,0,0,0,-1,643,624,0,0
-574,400,0,0,0,0,0,0,0,0,0,-1,650,624,0,0
-567,400,0,0,0,0,0,0,0,0,0,-1,657,624,0,0
-560,400,0,0,0,0,0,0,0,0,0,-1,664,624,0,0
-553,400,0,0,0,0,0,0,0,0,0,-1,671,624,0,0
-546,400,-5.37708,0.118958,0,0,0,0,0,0,0,-1,678,624,-5.37707,-0.118948
-539,400,-5.73517,4.28027,0,0,0,0,0,0,0,-1,685,624,-5.73516,-4.28025
-532,400,-6.32507,3.02686,0,0,0,0,0,0,0,-1,692,624,-6.32507,-3.02683
-525,400,-2.20245,0.901306,0,0,0,0,0,0,0,-1,699,624,-2.20247,-0.901316
-518,400,-2.08643,-0.387634,-0.00400203,0.012918,-0.0207527,0.0268689,-0.0179529,-0.978944,0.026048,0.0457408,706,624,-2.08644,0.387635
-511,400,-2.14136,-1.48688,0,0,0,0,0,0,0,-1,713,624,-2.14138,1.4869
-504,400,-2.72888,-1.36432,0,0,0,0,0,0,0,-1,720,624,-2.72889,1.36433
-497,400,-2.65259,-1.35284,-0.00455542,0.00677331,-0.00302962,0.00753262,-0.00531473,-1.32523,0.00745417,0.0320565,727,624,-2.6526,1.35285
-490,400,-2.72144,-1.4469,-0.00251397,0.00473843,-0.00235659,0.00543691,-0.00321245,-1.28265,0.00504846,0.0151693,734,624,-2.72143,1.44688
-483,400,-2.76343,-1.62531,-0.000893126,0.00338344,-0.00184077,0.00406663,-0.00157631,-1.21541,0.00336204,0.0145274,741,624,-2.7634,1.62531
-476,400,-2.75171,-1.80621,0.000214213,0.00224984,-0.00154498,0.00308214,-0.000618081,-1.07666,0.00228877,0.0126838,748,624,-2.7517,1.80619
-469,400,-2.77014,-1.98499,0.000724096,0.00128559,-0.00116461,0.00220281,-0.000193122,-0.903675,0.00153697,0.0135985,755,624,-2.77013,1.98499
-462,400,-2.75012,-2.17499,0.000781428,0.000182415,-0.000567374,0.00112349,-0.000159653,-0.542546,0.000807492,0.019651,762,624,-2.75012,2.17498
-455,400,-2.75171,-2.36047,0.000283343,-0.000219386,9.43163e-05,0.000300455,-0.000236498,0.17948,0.000310742,0.0205583,769,624,-2.75173,2.36046
-448,400,-2.74854,-2.54559,-0.000481827,-0.000530373,0.000944899,0.000439111,-0.00145131,0.772557,0.0011424,0.0147384,776,624,-2.74856,2.54558
-441,400,-2.74377,-2.7226,-0.00179845,-0.000784022,0.00192153,0.000696111,-0.00327859,0.914437,0.00245094,0.0135016,783,624,-2.74376,2.72258
-434,400,-2.74139,-2.88672,-0.00342536,-0.0011708,0.00305278,0.000956185,-0.00555234,0.962264,0.00405802,0.0109152,790,624,-2.7414,2.88671
-427,400,-2.73773,-3.06232,-0.0053361,-0.0015292,0.00437595,0.00133935,-0.00820466,0.990545,0.00596654,0.00907721,797,624,-2.73774,3.06232
-420,400,-2.71674,-3.26031,-0.00743543,-0.00175988,0.00564856,0.00172367,-0.010919,1.01818,0.00791668,0.0111077,804,624,-2.71671,3.26033
-413,400,-2.72278,-3.4502,-0.00895036,-0.00209086,0.00742594,0.00265911,-0.0137003,1.00173,0.0101369,0.0227329,811,624,-2.72278,3.45022
-406,400,-2.93304,-3.53345,-0.00979439,-0.0027763,0.0101524,0.0044564,-0.0170271,0.951789,0.0130922,0.0341239,818,624,-2.93302,3.53347
-399,400,-2.94092,-3.59106,-0.0106908,-0.00352152,0.0131877,0.00656003,-0.0207723,0.9181,0.0164761,0.0440147,825,624,-2.9409,3.59107
-392,400,-2.95001,-3.79016,0,0,0,0,0,0,0,-1,832,624,-2.95001,3.79016
-385,400,-2.18475,-3.68951,0,0,0,0,0,0,0,-1,839,624,-2.18474,3.68952
-378,400,-2.26953,-2.26978,0,0,0,0,0,0,0,-1,846,624,-2.26952,2.26975
-371,400,-2.23303,-1.85944,0,0,0,0,0,0,0,-1,853,624,-2.23305,1.85946
-364,400,-3.69025,-3.5376,0,0,0,0,0,0,0,-1,860,624,-3.69024,3.53759
-357,400,-1.43842,-3.62018,0,0,0,0,0,0,0,-1,867,624,-1.43842,3.62018
-350,400,-0.496826,-4.11804,0,0,0,0,0,0,0,-1,874,624,-0.496807,4.11803
-343,400,-0.111755,-5.8924,0,0,0,0,0,0,0,-1,881,624,-0.111774,5.89237
-336,400,0,0,0,0,0,0,0,0,0,-1,888,624,0,0
-329,400,0,0,0,0,0,0,0,0,0,-1,895,624,0,0
-322,400,0,0,0,0,0,0,0,0,0,-1,902,624,0,0
-315,400,0,0,0,0,0,0,0,0,0,-1,909,624,0,0
-308,400,0,0,0,0,0,0,0,0,0,-1,916,624,0,0
-301,400,0,0,0,0,0,0,0,0,0,-1,923,624,0,0
-294,400,0,0,0,0,0,0,0,0,0,-1,930,624,0,0
-287,400,0,0,0,0,0,0,0,0,0,-1,937,624,0,0
-280,400,0,0,0,0,0,0,0,0,0,-1,944,624,0,0
-273,400,0,0,0,0,0,0,0,0,0,-1,951,624,0,0
-266,400,0,0,0,0,0,0,0,0,0,-1,958,624,0,0
-259,400,0,0,0,0,0,0,0,0,0,-1,965,624,0,0
-252,400,0,0,0,0,0,0,0,0,0,-1,972,624,0,0
-245,400,0,0,0,0,0,0,0,0,0,-1,979,624,0,0
-238,400,0,0,0,0,0,0,0,0,0,-1,986,624,0,0
-231,400,0,0,0,0,0,0,0,0,0,-1,993,624,0,0
-224,400,0,0,0,0,0,0,0,0,0,-1,1000,624,0,0
-217,400,0,0,0,0,0,0,0,0,0,-1,1007,624,0,0
-210,400,0,0,0,0,0,0,0,0,0,-1,1014,624,0,0
-203,400,0,0,0,0,0,0,0,0,0,-1,1021,624,0,0
-196,400,0,0,0,0,0,0,0,0,0,-1,1028,624,0,0
-189,400,0,0,0,0,0,0,0,0,0,-1,1035,624,0,0
-182,400,0,0,0,0,0,0,0,0,0,-1,1042,624,0,0
-175,400,0,0,0,0,0,0,0,0,0,-1,1049,624,0,0
-168,400,0,0,0,0,0,0,0,0,0,-1,1056,624,0,0
-161,400,0,0,0,0,0,0,0,0,0,-1,1063,624,0,0
-154,400,0,0,0,0,0,0,0,0,0,-1,1070,624,0,0
-147,400,0,0,0,0,0,0,0,0,0,-1,1077,624,0,0
-140,400,0,0,0,0,0,0,0,0,0,-1,1084,624,0,0
-133,400,0,0,0,0,0,0,0,0,0,-1,1091,624,0,0
-126,400,0,0,0,0,0,0,0,0,0,-1,1098,624,0,0
-119,400,0,0,0,0,0,0,0,0,0,-1,1105,624,0,0
-112,400,0,0,0,0,0,0,0,0,0,-1,1112,624,0,0
-105,400,0,0,0,0,0,0,0,0,0,-1,1119,624,0,0
-98,400,0,0,0,0,0,0,0,0,0,-1,1126,624,0,0
-91,400,0,0,0,0,0,0,0,0,0,-1,1133,624,0,0
-84,400,0,0,0,0,0,0,0,0,0,-1,1140,624,0,0
-77,400,0,0,0,0,0,0,0,0,0,-1,1147,624,0,0
-70,400,0,0,0,0,0,0,0,0,0,-1,1154,624,0,0
-63,400,0,0,0,0,0,0,0,0,0,-1,1161,624,0,0
-56,400,0,0,0,0,0,0,0,0,0,-1,1168,624,0,0
-49,400,0,0,0,0,0,0,0,0,0,-1,1175,624,0,0
-42,400,0,0,0,0,0,0,0,0,0,-1,1182,624,0,0
-35,400,0,0,0,0,0,0,0,0,0,-1,1189,624,0,0
-28,400,0,0,0,0,0,0,0,0,0,-1,1196,624,0,0
-21,400,0,0,0,0,0,0,0,0,0,-1,1203,624,0,0
-14,400,0,0,0,0,0,0,0,0,0,-1,1210,624,0,0
-7,400,0,0,0,0,0,0,0,0,0,-1,1217,624,0,0
0,400,0,0,0,0,0,0,0,0,0,-1,1224,624,0,0
7,400,0,0,0,0,0,0,0,0,0,-1,1231,624,0,0
14,400,0,0,0,0,0,0,0,0,0,-1,1238,624,0,0
21,400,0,0,0,0,0,0,0,0,0,-1,1245,624,0,0
28,400,0,0,0,0,0,0,0,0,0,-1,1252,624,0,0
35,400,0,0,0,0,0,0,0,0,0,-1,1259,624,0,0
42,400,0,0,0,0,0,0,0,0,0,-1,1266,624,0,0
49,400,0,0,0,0,0,0,0,0,0,-1,1273,624,0,0
56,400,0,0,0,0,0,0,0,0,0,-1,1280,624,0,0
63,400,0,0,0,0,0,0,0,0,0,-1,1287,624,0,0
70,400,0,0,0,0,0,0,0,0,0,-1,1294,624,0,0
77,400,0,0,0,0,0,0,0,0,0,-1,1301,624,0,0
84,400,0,0,0,0,0,0,0,0,0,-1,1308,624,0,0
91,400,0,0,0,0,0,0,0,0,0,-1,1315,624,0,0
98,400,0,0,0,0,0,0,0,0,0,-1,1322,624,0,0
105,400,0,0,0,0,0,0,0,0,0,-1,1329,624,0,0
112,400,0,0,0,0,0,0,0,0,0,-1,1336,624,0,0
119,400,0,0,0,0,0,0,0,0,0,-1,1343,624,0,0
126,400,0,0,0,0,0,0,0,0,0,-1,1350,624,0,0
133,400,0,0,0,0,0,0,0,0,0,-1,1357,624,0,0
140,400,0,0,0,0,0,0,0,0,0,-1,1364,624,0,0
147,400,0,0,0,0,0,0,0,0,0,-1,1371,624,0,0
154,400,0,0,0,0,0,0,0,0,0,-1,1378,624,0,0
161,400,0,0,0,0,0,0,0,0,0,-1,1385,624,0,0
168,400,0,0,0,0,0,0,0,0,0,-1,1392,624,0,0
175,400,0,0,0,0,0,0,0,0,0,-1,1399,624,0,0
182,400,0,0,0,0,0,0,0,0,0,-1,1406,624,0,0
189,400,0,0,0,0,0,0,0,0,0,-1,1413,624,0,0
196,400,0,0,0,0,0,0,0,0,0,-1,1420,624,0,0
203,400,0,0,0,0,0,0,0,0,0,-1,1427,624,0,0
210,400,0,0,0,0,0,0,0,0,0,-1,1434,624,0,0
217,400,0,0,0,0,0,0,0,0,0,-1,1441,624,0,0
224,400,0,0,0,0,0,0,0,0,0,-1,1448,624,0,0
231,400,0,0,0,0,0,0,0,0,0,-1,1455,624,0,0
238,400,0,0,0,0,0,0,0,0,0,-1,1462,624,0,0
245,400,0,0,0,0,0,0,0,0,0,-1,1469,624,0,0
252,400,0,0,0,0,0,0,0,0,0,-1,1476,624,0,0
259,400,0,0,0,0,0,0,0,0,0,-1,1483,624,0,0
266,400,0,0,0,0,0,0,0,0,0,-1,1490,624,0,0
273,400,0,0,0,0,0,0,0,0,0,-1,1497,624,0,0
280,400,0,0,0,0,0,0,0,0,0,-1,1504,624,0,0
287,400,0,0,0,0,0,0,0,0,0,-1,1511,624,0,0
294,400,0,0,0,0,0,0,0,0,0,-1,1518,624,0,0
301,400,0,0,0,0,0,0,0,0,0,-1,1525,624,0,0
308,400,0,0,0,0,0,0,0,0,0,-1,1532,624,0,0
315,400,0,0,0,0,0,0,0,0,0,-1,1539,624,0,0
322,400,0,0,0,0,0,0,0,0,0,-1,1546,624,0,0
329,400,0,0,0,0,0,0,0,0,0,-1,1553,624,0,0
336,400,0,0,0,0,0,0,0,0,0,-1,1560,624,0,0
343,400,0,0,0,0,0,0,0,0,0,-1,1567,624,0,0
350,400,0,0,0,0,0,0,0,0,0,-1,1574,624,0,0
357,400,0,0,0,0,0,0,0,0,0,-1,1581,624,0,0
364,400,0,0,0,0,0,0,0,0,0,-1,1588,624,0,0
371,400,0,0,0,0,0,0,0,0,0,-1,1595,624,0,0
378,400,0,0,0,0,0,0,0,0,0,-1,1602,624,0,0
385,400,0,0,0,0,0,0,0,0,0,-1,1609,624,0,0
392,400,0,0,0,0,0,0,0,0,0,-1,1616,624,0,0
399,400,0,0,0,0,0,0,0,0,0,-1,1623,624,0,0
406,400,0,0,0,0,0,0,0,0,0,-1,1630,624,0,0
413,400,0,0,0,0,0,0,0,0,0,-1,1637,624,0,0
420,400,0,0,0,0,0,0,0,0,0,-1,1644,624,0,0
427,400,0,0,0,0,0,0,0,0,0,-1,1651,624,0,0
434,400,0,0,0,0,0,0,0,0,0,-1,1658,624,0,0
441,400,0,0,0,0,0,0,0,0,0,-1,1665,624,0,0
448,400,0,0,0,0,0,0,0,0,0,-1,1672,624,0,0
455,400,8.91309,2.75885,0,0,0,0,0,0,0,-1,1679,624,8.91312,-2.75885
462,400,8.90356,2.37878,0,0,0,0,0,0,0,-1,1686,624,8.90353,-2.37878
469,400,9.14429,1.76849,0,0,0,0,0,0,0,-1,1693,624,9.14432,-1.76847
476,400,9.23254,1.25995,0,0,0,0,0,0,0,-1,1700,624,9.23252,-1.25994
483,400,9.59766,0.562439,0,0,0,0,0,0,0,-1,1707,624,9.59771,-0.56242
490,400,9.92578,-0.213745,0,0,0,0,0,0,0,-1,1714,624,9.92579,0.21376
497,400,9.19141,0.175232,0,0,0,0,0,0,0,-1,1721,624,9.19138,-0.175209
504,400,9.23438,0.00823975,0,0,0,0,0,0,0,-1,1728,624,9.23436,-0.00823766
511,400,6.16687,3.3501,0,0,0,0,0,0,0,-1,1735,624,6.16682,-3.35007
518,400,6.55237,1.74994,0,0,0,0,0,0,0,-1,1742,624,6.55236,-1.74993
525,400,6.99731,1.08783,0,0,0,0,0,0,0,-1,1749,624,6.99736,-1.08785
532,400,6.96582,-1.74982,0,0,0,0,0,0,0,-1,1756,624,6.96585,1.74983
539,400,7.44055,-2.00018,0,0,0,0,0,0,0,-1,1763,624,7.44052,2.00018
546,400,7.44055,-1.8645,-0.00741431,-0.00163703,-0.0044243,0.00075814,-0.00980948,-1.0746,0.00680646,0.0181182,1770,624,7.4405,1.86448
553,400,7.39514,-1.64954,-0.00631171,-0.000678529,-0.00349411,0.000992863,-0.00798311,-1.12462,0.00568201,0.0127695,1777,624,7.39518,1.64956
560,400,7.40417,-1.39215,-0.00529654,-7.26995e-05,-0.00272806,0.00109221,-0.00646145,-1.16722,0.00471407,0.0129647,1784,624,7.40416,1.39213
567,400,7.41772,-1.21826,-0.00432896,0.000271119,-0.00209479,0.00108208,-0.00513993,-1.20143,0.00383849,0.017464,1791,624,7.41775,1.21824
574,400,7.40344,-1.06055,-0.00321536,0.000314421,-0.00150622,0.000869773,-0.00377071,-1.21755,0.00284835,0.0185407,1798,624,7.4035,1.06054
581,400,7.36951,-0.861328,-0.00221708,0.000263184,-0.00111049,0.000687719,-0.00264161,-1.20565,0.00202953,0.0167956,1805,624,7.3695,0.861356
588,400,7.38989,-0.664795,-0.00131689,0.000117502,-0.000776565,0.000457389,-0.00165678,-1.15824,0.00128442,0.0139505,1812,624,7.38985,0.664816
595,400,7.41223,-0.477356,-0.000185301,-0.000146847,-0.000722722,0.000556904,-0.000889051,-0.798697,0.000842132,0.0138477,1819,624,7.41222,0.477329
602,400,7.4281,-0.269714,0.0012954,-0.000592368,-0.000971336,0.00170592,-0.00100289,-0.399865,0.00158139,0.0132988,1826,624,7.42806,0.269695
609,400,7.38574,-0.0426025,0.00242427,-0.00122664,-0.00149457,0.00295806,-0.00176043,-0.343031,0.00275332,0.0135329,1833,624,7.38578,0.0425941
616,400,7.36609,0.187683,0.00394075,-0.00179951,-0.00229098,0.00474298,-0.00260174,-0.336825,0.00430012,0.0171448,1840,624,7.36614,-0.187677
623,400,7.54211,0.481079,0.00586183,-0.00243028,-0.0034496,0.00710924,-0.00367769,-0.346981,0.00633201,0.0328881,1847,624,7.54216,-0.48105
630,400,7.21155,0.681274,0.00889621,-0.00318238,-0.00496109,0.0106726,-0.0049588,-0.343848,0.0092236,0.044395,1854,624,7.21158,-0.681258
637,400,6.42859,1.06445,0,0,0,0,0,0,0,-1,1861,624,6.42854,-1.06448
644,400,7.3844,0.822327,0,0,0,0,0,0,0,-1,1868,624,7.38443,-0.822332
651,400,8.12268,0.343323,0,0,0,0,0,0,0,-1,1875,624,8.12273,-0.343307
658,400,9.40002,0.30603,0,0,0,0,0,0,0,-1,1882,624,9.39999,-0.306017
665,400,5.98438,0.522522,0,0,0,0,0,0,0,-1,1889,624,5.98442,-0.522552
672,400,0,0,0,0,0,0,0,0,0,-1,1896,624,0,0
679,400,0,0,0,0,0,0,0,0,0,-1,1903,624,0,0
686,400,0,0,0,0,0,0,0,0,0,-1,1910,624,0,0
693,400,0,0,0,0,0,0,0,0,0,-1,1917,624,0,0
700,400,0,0,0,0,0,0,0,0,0,-1,1924,624,0,0
707,400,0,0,0,0,0,0,0,0,0,-1,1931,624,0,0
714,400,0,0,0,0,0,0,0,0,0,-1,1938,624,0,0
721,400,0,0,0,0,0,0,0,0,0,-1,1945,624,0,0
728,400,0,0,0,0,0,0,0,0,0,-1,1952,624,0,0
735,400,0,0,0,0,0,0,0,0,0,-1,1959,624,0,0
742,400,0,0,0,0,0,0,0,0,0,-1,1966,624,0,0
749,400,0,0,0,0,0,0,0,0,0,-1,1973,624,0,0
756,400,0,0,0,0,0,0,0,0,0,-1,1980,624,0,0
763,400,0,0,0,0,0,0,0,0,0,-1,1987,624,0,0
770,400,0,0,0,0,0,0,0,0,0,-1,1994,624,0,0
777,400,0,0,0,0,0,0,0,0,0,-1,2001,624,0,0
784,400,0,0,0,0,0,0,0,0,0,-1,2008,624,0,0
791,400,0,0,0,0,0,0,0,0,0,-1,2015,624,0,0
798,400,0,0,0,0,0,0,0,0,0,-1,2022,624,0,0
805,400,0,0,0,0,0,0,0,0,0,-1,2029,624,0,0
812,400,0,0,0,0,0,0,0,0,0,-1,2036,624,0,0
-700,393,0,0,0,0,0,0,0,0,0,-1,524,631,0,0
-693,393,0,0,0,0,0,0,0,0,0,-1,531,631,0,0
-686,393,0,0,0,0,0,0,0,0,0,-1,538,631,0,0
-679,393,0,0,0,0,0,0,0,0,0,-1,545,631,0,0
-672,393,0,0,0,0,0,0,0,0,0,-1,552,631,0,0
-665,393,0,0,0,0,0,0,0,0,0,-1,559,631,0,0
-658,393,0,0,0,0,0,0,0,0,0,-1,566,631,0,0
-651,393,0,0,0,0,0,0,0,0,0,-1,573,631,0,0
-644,393,0,0,0,0,0,0,0,0,0,-1,580,631,0,0
-637,393,0,0,0,0,0,0,0,0,0,-1,587,631,0,0
-630,393,0,0,0,0,0,0,0,0,0,-1,594,631,0,0
-623,393,0,0,0,0,0,0,0,0,0,-1,601,631,0,0
-616,393,0,0,0,0,0,0,0,0,0,-1,608,631,0,0
-609,393,0,0,0,0,0,0,0,0,0,-1,615,631,0,0
-602,393,0,0,0,0,0,0,0,0,0,-1,622,631,0,0
-595,393,0,0,0,0,0,0,0,0,0,-1,629,631,0,0
-588,393,0,0,0,0,0,0,0,0,0,-1,636,631,0,0
-581,393,0,0,0,0,0,0,0,0,0,-1,643,631,0,0
-574,393,0,0,0,0,0,0,0,0,0,-1,650,631,0,0
-567,393,0,0,0,0,0,0,0,0,0,-1,657,631,0,0
-560,393,0,0,0,0,0,0,0,0,0,-1,664,631,0,0
-553,393,-1.47052,0.179993,0,0,0,0,0,0,0,-1,671,631,-1.4705,-0.179974
-546,393,-0.750122,-0.86554,0,0,0,0,0,0,0,-1,678,631,-0.750093,0.865514
-539,393,-4.38177,-2.64526,0,0,0,0,0,0,0,-1,685,631,-4.3818,2.64525
-532,393,-5.24463,2.12268,0,0,0,0,0,0,0,-1,692,631,-5.2446,-2.12269
-525,393,-2.5993,0.53241,0,0,0,0,0,0,0,-1,699,631,-2.59933,-0.532408
-518,393,-2.35974,-0.185608,0,0,0,0,0,0,0,-1,706,631,-2.35976,0.185613
-511,393,-2.27246,-1.02197,0,0,0,0,0,0,0,-1,713,631,-2.27246,1.02198
-504,393,-2.59094,-1.13721,-0.00805611,0.00893429,-0.0035155,0.00963295,-0.00875478,-1.37461,0.0106202,0.0445676,720,631,-2.59094,1.13723
-497,393,-2.92004,-1.21185,-0.00533094,0.00637252,-0.00212077,0.00674497,-0.00570339,-1.39695,0.00719545,0.0232958,727,631,-2.92006,1.21187
-490,393,-2.92926,-1.46252,-0.00341066,0.00437606,-0.00153654,0.00466829,-0.0037029,-1.38285,0.00484381,0.0151864,734,631,-2.92926,1.46252
-483,393,-2.93524,-1.65363,-0.00180336,0.00295703,-0.00105391,0.00317992,-0.00202625,-1.36238,0.00303029,0.0202529,741,631,-2.93523,1.65363
-476,393,-2.91974,-1.81183,-0.000671845,0.00176003,-0.000746407,0.00197085,-0.000882661,-1.29552,0.00168693,0.0157937,748,631,-2.91972,1.81181
-469,393,-2.92206,-1.97748,-0.000107602,0.000710839,-0.000341549,0.000834645,-0.000231407,-1.22304,0.000647499,0.0123076,755,631,-2.92207,1.97747
-462,393,-2.92163,-2.18152,1.1168e-05,-0.000464312,0.000229598,0.000103936,-0.00055708,0.383989,0.000410442,0.0151873,762,631,-2.92165,2.1815
-455,393,-2.9408,-2.37848,-0.000461347,-0.000869149,0.000949003,0.000305413,-0.00163591,0.679578,0.00120538,0.0141552,769,631,-2.94077,2.37846
-448,393,-2.95313,-2.56592,-0.00122051,-0.00121605,0.00188487,0.000666588,-0.00310315,0.785991,0.00232306,0.0129848,776,631,-2.95314,2.56591
-441,393,-2.94409,-2.7381,-0.0026153,-0.00153354,0.00300191,0.000975826,-0.00512467,0.874531,0.0037839,0.0115338,783,631,-2.94409,2.73812
-434,393,-2.92188,-2.87628,-0.00442842,-0.00191404,0.00432296,0.00133083,-0.00767329,0.926904,0.00561198,0.0110203,790,631,-2.92188,2.87625
-427,393,-2.8916,-3.07092,-0.00664706,-0.00225731,0.00588983,0.00183333,-0.0107377,0.963755,0.00784134,0.0139663,797,631,-2.8916,3.07095
-420,393,-2.87628,-3.2478,-0.00914528,-0.00239057,0.00745413,0.00241563,-0.0139515,0.998106,0.010202,0.0253204,804,631,-2.87628,3.2478
-413,393,-3.13019,-3.26422,-0.0112714,-0.00270127,0.00960273,0.00352911,-0.0175017,0.995256,0.0130048,0.0398758,811,631,-3.13016,3.2642
-406,393,-3.88068,-3.79584,-0.0130017,-0.00342103,0.0128421,0.0054951,-0.0219178,0.963914,0.0167469,0.0473986,818,631,-3.88069,3.79582
-399,393,-3.43134,-3.63232,0,0,0,0,0,0,0,-1,825,631,-3.43135,3.63231
-392,393,-2.08063,-3.02386,0,0,0,0,0,0,0,-1,832,631,-2.08063,3.02384
-385,393,-3.16931,-0.624756,0,0,0,0,0,0,0,-1,839,631,-3.16928,0.624764
-378,393,-2.34045,-1.48468,0,0,0,0,0,0,0,-1,846,631,-2.34048,1.48471
-371,393,-1.4248,-2.56482,0,0,0,0,0,0,0,-1,853,631,-1.4248,2.56481
-364,393,-1.349,-3.17017,0,0,0,0,0,0,0,-1,860,631,-1.349,3.17014
-357,393,-1.84821,-4.28015,0,0,0,0,0,0,0,-1,867,631,-1.84823,4.28018
-350,393,-7.6015,0.331421,0,0,0,0,0,0,0,-1,874,631,-7.60151,-0.331426
-343,393,0,0,0,0,0,0,0,0,0,-1,881,631,0,0
-336,393,0,0,0,0,0,0,0,0,0,-1,888,631,0,0
-329,393,0,0,0,0,0,0,0,0,0,-1,895,631,0,0
-322,393,0,0,0,0,0,0,0,0,0,-1,902,631,0,0
-315,393,0,0,0,0,0,0,0,0,0,-1,909,631,0,0
-308,393,0,0,0,0,0,0,0,0,0,-1,916,631,0,0
-301,393,0,0,0,0,0,0,0,0,0,-1,923,631,0,0
-294,393,0,0,0,0,0,0,0,0,0,-1,930,631,0,0
-287,393,0,0,0,0,0,0,0,0,0,-1,937,631,0,0
-280,393,0,0,0,0,0,0,0,0,0,-1,944,631,0,0
-273,393,0,0,0,0,0,0,0,0,0,-1,951,631,0,0
-266,393,0,0,0,0,0,0,0,0,0,-1,958,631,0,0
-259,393,0,0,0,0,0,0,0,0,0,-1,965,631,0,0
-252,393,0,0,0,0,0,0,0,0,0,-1,972,631,0,0
-245,393,0,0,0,0,0,0,0,0,0,-1,979,631,0,0
-238,393,0,0,0,0,0,0,0,0,0,-1,986,631,0,0
-231,393,0,0,0,0,0,0,0,0,0,-1,993,631,0,0
-224,393,0,0,0,0,0,0,0,0,0,-1,1000,631,0,0
-217,393,0,0,0,0,0,0,0,0,0,-1,1007,631,0,0
-210,393,0,0,0,0,0,0,0,0,0,-1,1014,631,0,0
-203,393,0,0,0,0,0,0,0,0,0,-1,1021,631,0,0
-196,393,0,0,0,0,0,0,0,0,0,-1,1028,631,0,0
-189,393,0,0,0,0,0,0,0,0,0,-1,1035,631,0,0
-182,393,0,0,0,0,0,0,0,0,0,-1,1042,631,0,0
-175,393,0,0,0,0,0,0,0,0,0,-1,1049,631,0,0
-168,393,0,0,0,0,0,0,0,0,0,-1,1056,631,0,0
-161,393,0,0,0,0,0,0,0,0,0,-1,1063,631,0,0
-154,393,0,0,0,0,0,0,0,0,0,-1,1070,631,0,0
-147,393,0,0,0,0,0,0,0,0,0,-1,1077,631,0,0
-140,393,0,0,0,0,0,0,0,0,0,-1,1084,631,0,0
-133,393,0,0,0,0,0,0,0,0,0,-1,1091,631,0,0
-126,393,0,0,0,0,0,0,0,0,0,-1,1098,631,0,0
-119,393,0,0,0,0,0,0,0,0,0,-1,1105,631,0,0
-112,393,0,0,0,0,0,0,0,0,0,-1,1112,631,0,0
-105,393,0,0,0,0,0,0,0,0,0,-1,1119,631,0,0
-98,393,0,0,0,0,0,0,0,0,0,-1,1126,631,0,0
-91,393,0,0,0,0,0,0,0,0,0,-1,1133,631,0,0
-84,393,0,0,0,0,0,0,0,0,0,-1,1140,631,0,0
-77,393,0,0,0,0,0,0,0,0,0,-1,1147,631,0,0
-70,393,0,0,0,0,0,0,0,0,0,-1,1154,631,0,0
-63,393,0,0,0,0,0,0,0,0,0,-1,1161,631,0,0
-56,393,0,0,0,0,0,0,0,0,0,-1,1168,631,0,0
-49,393,0,0,0,0,0,0,0,0,0,-1,1175,631,0,0
-42,393,0,0,0,0,0,0,0,0,0,-1,1182,631,0,0
-35,393,0,0,0,0,0,0,0,0,0,-1,1189,631,0,0
-28,393,0,0,0,0,0,0,0,0,0,-1,1196,631,0,0
-21,393,0,0,0,0,0,0,0,0,0,-1,1203,631,0,0
-14,393,0,0,0,0,0,0,0,0,0,-1,1210,631,0,0
-7,393,0,0,0,0,0,0,0,0,0,-1,1217,631,0,0
0,393,0,0,0,0,0,0,0,0,0,-1,1224,631,0,0
7,393,0,0,0,0,0,0,0,0,0,-1,1231,631,0,0
14,393,0,0,0,0,0,0,0,0,0,-1,1238,631,0,0
21,393,0,0,0,0,0,0,0,0,0,-1,1245,631,0,0
28,393,0,0,0,0,0,0,0,0,0,-1,1252,631,0,0
35,393,0,0,0,0,0,0,0,0,0,-1,1259,631,0,0
42,393,0,0,0,0,0,0,0,0,0,-1,1266,631,0,0
49,393,0,0,0,0,0,0,0,0,0,-1,1273,631,0,0
56,393,0,0,0,0,0,0,0,0,0,-1,1280,631,0,0
63,393,0,0,0,0,0,0,0,0,0,-1,1287,631,0,0
70,393,0,0,0,0,0,0,0,0,0,-1,1294,631,0,0
77,393,0,0,0,0,0,0,0,0,0,-1,1301,631,0,0
84,393,0,0,0,0,0,0,0,0,0,-1,1308,631,0,0
91,393,0,0,0,0,0,0,0,0,0,-1,1315,631,0,0
98,393,0,0,0,0,0,0,0,0,0,-1,1322,631,0,0
105,393,0,0,0,0,0,0,0,0,0,-1,1329,631,0,0
112,393,0,0,0,0,0,0,0,0,0,-1,1336,631,0,0
119,393,0,0,0,0,0,0,0,0,0,-1,1343,631,0,0
126,393,0,0,0,0,0,0,0,0,0,-1,1350,631,0,0
133,393,0,0,0,0,0,0,0,0,0,-1,1357,631,0,0
140,393,0,0,0,0,0,0,0,0,0,-1,1364,631,0,0
147,393,0,0,0,0,0,0,0,0,0,-1,1371,631,0,0
154,393,0,0,0,0,0,0,0,0,0,-1,1378,631,0,0
161,393,0,0,0,0,0,0,0,0,0,-1,1385,631,0,0
168,393,0,0,0,0,0,0,0,0,0,-1,1392,631,0,0
175,393,0,0,0,0,0,0,0,0,0,-1,1399,631,0,0
182,393,0,0,0,0,0,0,0,0,0,-1,1406,631,0,0
189,393,0,0,0,0,0,0,0,0,0,-1,1413,631,0,0
196,393,0,0,0,0,0,0,0,0,0,-1,1420,631,0,0
203,393,0,0,0,0,0,0,0,0,0,-1,1427,631,0,0
210,393,0,0,0,0,0,0,0,0,0,-1,1434,631,0,0
217,393,0,0,0,0,0,0,0,0,0,-1,1441,631,0,0
224,393,0,0,0,0,0,0,0,0,0,-1,1448,631,0,0
231,393,0,0,0,0,0,0,0,0,0,-1,1455,631,0,0
238,393,0,0,0,0,0,0,0,0,0,-1,1462,631,0,0
245,393,0,0,0,0,0,0,0,0,0,-1,1469,631,0,0
252,393,0,0,0,0,0,0,0,0,0,-1,1476,631,0,0
259,393,0,0,0,0,0,0,0,0,0,-1,1483,631,0,0
266,393,0,0,0,0,0,0,0,0,0,-1,1490,631,0,0
273,393,0,0,0,0,0,0,0,0,0,-1,1497,631,0,0
280,393,0,0,0,0,0,0,0,0,0,-1,1504,631,0,0
287,393,0,0,0,0,0,0,0,0,0,-1,1511,631,0,0
294,393,0,0,0,0,0,0,0,0,0,-1,1518,631,0,0
301,393,0,0,0,0,0,0,0,0,0,-1,1525,631,0,0
308,393,0,0,0,0,0,0,0,0,0,-1,1532,631,0,0
315,393,0,0,0,0,0,0,0,0,0,-1,1539,631,0,0
322,393,0,0,0,0,0,0,0,0,0,-1,1546,631,0,0
329,393,0,0,0,0,0,0,0,0,0,-1,1553,631,0,0
336,393,0,0,0,0,0,0,0,0,0,-1,1560,631,0,0
343,393,0,0,0,0,0,0,0,0,0,-1,1567,631,0,0
350,393,0,0,0,0,0,0,0,0,0,-1,1574,631,0,0
357,393,0,0,0,0,0,0,0,0,0,-1,1581,631,0,0
364,393,0,0,0,0,0,0,0,0,0,-1,1588,631,0,0
371,393,0,0,0,0,0,0,0,0,0,-1,1595,631,0,0
378,393,0,0,0,0,0,0,0,0,0,-1,1602,631,0,0
385,393,0,0,0,0,0,0,0,0,0,-1,1609,631,0,0
392,393,0,0,0,0,0,0,0,0,0,-1,1616,631,0,0
399,393,0,0,0,0,0,0,0,0,0,-1,1623,631,0,0
406,393,0,0,0,0,0,0,0,0,0,-1,1630,631,0,0
413,393,0,0,0,0,0,0,0,0,0,-1,1637,631,0,0
420,393,0,0,0,0,0,0,0,0,0,-1,1644,631,0,0
427,393,0,0,0,0,0,0,0,0,0,-1,1651,631,0,0
434,393,0,0,0,0,0,0,0,0,0,-1,1658,631,0,0
441,393,0,0,0,0,0,0,0,0,0,-1,1665,631,0,0
448,393,0,0,0,0,0,0,0,0,0,-1,1672,631,0,0
455,393,0,0,0,0,0,0,0,0,0,-1,1679,631,0,0
462,393,8.51099,1.89502,0,0,0,0,0,0,0,-1,1686,631,8.51103,-1.89504
469,393,9.39465,1.51703,0,0,0,0,0,0,0,-1,1693,631,9.39465,-1.51703
476,393,9.95569,1.185,0,0,0,0,0,0,0,-1,1700,631,9.95575,-1.18497
483,393,10.5267,0.887329,0,0,0,0,0,0,0,-1,1707,631,10.5267,-0.887321
490,393,10.9303,0.761414,0,0,0,0,0,0,0,-1,1714,631,10.9303,-0.761386
497,393,8.32153,1.88104,0,0,0,0,0,0,0,-1,1721,631,8.32148,-1.88103
504,393,9.46985,1.78711,0,0,0,0,0,0,0,-1,1728,631,9.46986,-1.78713
511,393,9.66565,-0.375977,0,0,0,0,0,0,0,-1,1735,631,9.66571,0.375949
518,393,7.01599,1.62482,0,0,0,0,0,0,0,-1,1742,631,7.01597,-1.62483
525,393,7.88245,-1.13422,0,0,0,0,0,0,0,-1,1749,631,7.88246,1.13423
532,393,7.06335,-1.18103,0,0,0,0,0,0,0,-1,1756,631,7.06332,1.18101
539,393,9.37024,-0.898682,0,0,0,0,0,0,0,-1,1763,631,9.37023,0.898663
546,393,7.79504,-1.68201,-0.0111183,-0.00157425,-0.00610688,0.00140397,-0.0140965,-1.11705,0.0098989,0.0368215,1770,631,7.7951,1.68202
553,393,7.64905,-1.69067,-0.00921786,-0.000349451,-0.00470697,0.00168301,-0.0112503,-1.16318,0.00811957,0.0165283,1777,631,7.64907,1.69065
560,393,7.61365,-1.45551,-0.00757679,0.000354967,-0.00360921,0.00175142,-0.00897324,-1.20162,0.00664337,0.0127032,1784,631,7.61366,1.45549
567,393,7.59949,-1.25079,-0.00614239,0.000752338,-0.00274101,0.00170923,-0.00709928,-1.23492,0.00539364,0.0141796,1791,631,7.59945,1.25082
574,393,7.5896,-1.0885,-0.00465176,0.000725486,-0.00200685,0.00139188,-0.00531816,-1.25019,0.00408914,0.0151477,1798,631,7.58955,1.08851
581,393,7.58179,-0.861267,-0.00331327,0.000595795,-0.00146991,0.00108683,-0.00380431,-1.24839,0.00296563,0.0140311,1805,631,7.58184,0.861264
588,393,7.59033,-0.640991,-0.00214875,0.00040211,-0.00103649,0.000770163,-0.0025168,-1.22959,0.00198503,0.0159421,1812,631,7.5903,0.640997
595,393,7.61316,-0.453003,-0.000854178,0.000131147,-0.000868885,0.000637323,-0.00136035,-1.0433,0.00117827,0.0139451,1819,631,7.61316,0.452986
602,393,7.60352,-0.256836,0.000735186,-0.000145451,-0.000900906,0.00129762,-0.000707884,-0.558094,0.00117445,0.015573,1826,631,7.60353,0.256844
609,393,7.57898,-0.0494385,0.00189252,-0.000688519,-0.00126932,0.00241214,-0.00120814,-0.388558,0.00212835,0.0147875,1833,631,7.57903,0.0494257
616,393,7.57654,0.161987,0.00333412,-0.00122174,-0.00193271,0.00404355,-0.00193118,-0.351797,0.00352064,0.0151946,1840,631,7.57653,-0.161999
623,393,7.61755,0.382263,0.00515287,-0.00183199,-0.00277212,0.00611933,-0.00279845,-0.335459,0.00526634,0.0192131,1847,631,7.6175,-0.382245
630,393,7.72546,0.602539,0.00794718,-0.00226324,-0.0038798,0.00925415,-0.00357021,-0.324926,0.00764271,0.0325645,1854,631,7.72552,-0.602541
637,393,7.68372,0.944702,0,0,0,0,0,0,0,-1,1861,631,7.68371,-0.94471
644,393,7.36755,0.734985,0.0184094,-0.00123901,-0.0080098,0.0212608,-0.00409045,-0.342004,0.0157158,0.0469082,1868,631,7.36754,-0.734979
651,393,7.69495,0.652527,0.0270455,6.0401e-05,-0.0107819,0.0308242,-0.00371834,-0.337096,0.0218944,0.0436538,1875,631,7.69492,-0.652527
658,393,8.17371,0.618835,0,0,0,0,0,0,0,-1,1882,631,8.17366,-0.618853
665,393,4.66687,1.0874,0,0,0,0,0,0,0,-1,1889,631,4.66689,-1.08738
672,393,5.56921,1.91486,0,0,0,0,0,0,0,-1,1896,631,5.56927,-1.91486
679,393,0,0,0,0,0,0,0,0,0,-1,1903,631,0,0
686,393,0,0,0,0,0,0,0,0,0,-1,1910,631,0,0
693,393,0,0,0,0,0,0,0,0,0,-1,1917,631,0,0
700,393,0,0,0,0,0,0,0,0,0,-1,1924,631,0,0
707,393,0,0,0,0,0,0,0,0,0,-1,1931,631,0,0
714,393,0,0,0,0,0,0,0,0,0,-1,1938,631,0,0
721,393,0,0,0,0,0,0,0,0,0,-1,1945,631,0,0
728,393,0,0,0,0,0,0,0,0,0,-1,1952,631,0,0
735,393,0,0,0,0,0,0,0,0,0,-1,1959,631,0,0
742,393,0,0,0,0,0,0,0,0,0,-1,1966,631,0,0
749,393,0,0,0,0,0,0,0,0,0,-1,1973,631,0,0
756,393,0,0,0,0,0,0,0,0,0,-1,1980,631,0,0
763,393,0,0,0,0,0,0,0,0,0,-1,1987,631,0,0
770,393,0,0,0,0,0,0,0,0,0,-1,1994,631,0,0
777,393,0,0,0,0,0,0,0,0,0,-1,2001,631,0,0
784,393,0,0,0,0,0,0,0,0,0,-1,2008,631,0,0
791,393,0,0,0,0,0,0,0,0,0,-1,2015,631,0,0
798,393,0,0,0,0,0,0,0,0,0,-1,2022,631,0,0
805,393,0,0,0,0,0,0,0,0,0,-1,2029,631,0,0
812,393,0,0,0,0,0,0,0,0,0,-1,2036,631,0,0
-700,386,0,0,0,0,0,0,0,0,0,-1,524,638,0,0
-693,386,0,0,0,0,0,0,0,0,0,-1,531,638,0,0
-686,386,0,0,0,0,0,0,0,0,0,-1,538,638,0,0
-679,386,0,0,0,0,0,0,0,0,0,-1,545,638,0,0
-672,386,0,0,0,0,0,0,0,0,0,-1,552,638,0,0
-665,386,0,0,0,0,0,0,0,0,0,-1,559,638,0,0
-658,386,0,0,0,0,0,0,0,0,0,-1,566,638,0,0
-651,386,0,0,0,0,0,0,0,0,0,-1,573,638,0,0
-644,386,0,0,0,0,0,0,0,0,0,-1,580,638,0,0
-637,386,0,0,0,0,0,0,0,0,0,-1,587,638,0,0
-630,386,0,0,0,0,0,0,0,0,0,-1,594,638,0,0
-623,386,0,0,0,0,0,0,0,0,0,-1,601,638,0,0
-616,386,0,0,0,0,0,0,0,0,0,-1,608,638,0,0
-609,386,0,0,0,0,0,0,0,0,0,-1,615,638,0,0
-602,386,0,0,0,0,0,0,0,0,0,-1,622,638,0,0
-595,386,0,0,0,0,0,0,0,0,0,-1,629,638,0,0
-588,386,0,0,0,0,0,0,0,0,0,-1,636,638,0,0
-581,386,0,0,0,0,0,0,0,0,0,-1,643,638,0,0
-574,386,0,0,0,0,0,0,0,0,0,-1,650,638,0,0
-567,386,0,0,0,0,0,0,0,0,0,-1,657,638,0,0
-560,386,-2.159,0.656677,0.0112695,0.0168101,-0.065207,0.0793056,-0.051226,-0.806628,0.0759415,0.0462676,664,638,-2.15901,-0.656669
-553,386,-1.3219,-0.642212,0,0,0,0,0,0,0,-1,671,638,-1.32192,0.64224
-546,386,-3.15051,-2.25391,0,0,0,0,0,0,0,-1,678,638,-3.15049,2.25389
-539,386,-3.41394,-3.4696,0,0,0,0,0,0,0,-1,685,638,-3.41397,3.46962
-532,386,-3.09497,0.169556,0,0,0,0,0,0,0,-1,692,638,-3.09497,-0.169573
-525,386,-2.51447,0.576355,0,0,0,0,0,0,0,-1,699,638,-2.51445,-0.576363
-518,386,-2.40344,0.0333862,-0.00820865,0.0107096,-0.0140666,0.0182017,-0.0157008,-1.0814,0.0195914,0.0487835,706,638,-2.40343,-0.0333789
-511,386,-2.57275,-0.59436,-0.00765386,0.00984749,-0.00765199,0.0127212,-0.0105276,-1.21154,0.0134426,0.0433017,713,638,-2.57277,0.594347
-504,386,-2.99634,-1.07092,-0.00812604,0.00827445,-0.00261682,0.00868186,-0.00853345,-1.41635,0.00993939,0.0253994,720,638,-2.99633,1.07089
-497,386,-3.12982,-1.27618,-0.00563866,0.00587796,-0.00140465,0.0060468,-0.0058075,-1.45117,0.00684455,0.0117535,727,638,-3.12984,1.27618
-490,386,-3.11432,-1.47479,-0.00388362,0.00398127,-0.000836444,0.00406924,-0.00397159,-1.46601,0.00464249,0.0131575,734,638,-3.11432,1.47481
-483,386,-3.091,-1.67841,-0.00234422,0.00257737,-0.000316458,0.00259764,-0.00236448,-1.50685,0.00286593,0.0165542,741,638,-3.09099,1.67843
-476,386,-3.08447,-1.83807,-0.00123937,0.00131506,5.38156e-05,0.0013162,-0.0012405,1.54974,0.00147633,0.0149036,748,638,-3.08447,1.83808
-469,386,-3.09052,-1.99567,-0.000649373,0.000150181,0.000521096,0.000407186,-0.000906378,1.1126,0.000776426,0.0117494,755,638,-3.09049,1.99567
-462,386,-3.0954,-2.18817,-0.00047385,-0.00111362,0.0011053,0.000356927,-0.0019444,0.644542,0.00143017,0.011381,762,638,-3.0954,2.18819
-455,386,-3.11792,-2.40155,-0.000907674,-0.00159255,0.00191146,0.00069178,-0.003192,0.696763,0.00239217,0.0117861,769,638,-3.11795,2.40154
-448,386,-3.11304,-2.57727,-0.00165229,-0.00205466,0.00296519,0.00111853,-0.00482548,0.751525,0.00364746,0.0114445,776,638,-3.11301,2.57728
-441,386,-3.11707,-2.72089,-0.00309333,-0.00252436,0.0042604,0.00146105,-0.00707874,0.818736,0.00527407,0.0113374,783,638,-3.11705,2.7209
-434,386,-3.08893,-2.90826,-0.00505587,-0.00298248,0.0058189,0.00189135,-0.0099297,0.873553,0.00733202,0.0169924,790,638,-3.08891,2.90828
-427,386,-3.01801,-3.08551,-0.00757522,-0.00338783,0.00769011,0.0024885,-0.0134515,0.918306,0.00990199,0.038253,797,638,-3.01802,3.08552
-420,386,-3.125,-2.9433,-0.0105195,-0.00349959,0.00965077,0.00325968,-0.0172788,0.959811,0.0127455,0.040379,804,638,-3.12499,2.94328
-413,386,-3.18982,-2.80853,0,0,0,0,0,0,0,-1,811,638,-3.18981,2.80855
-406,386,-4.53174,-3.974,0,0,0,0,0,0,0,-1,818,638,-4.53176,3.97402
-399,386,-3.57117,-3.42126,0,0,0,0,0,0,0,-1,825,638,-3.57116,3.42129
-392,386,-4.00977,0.403625,0,0,0,0,0,0,0,-1,832,638,-4.0098,-0.403616
-385,386,-3.2406,-0.118469,0,0,0,0,0,0,0,-1,839,638,-3.24058,0.118485
-378,386,-2.55243,-1.22748,0,0,0,0,0,0,0,-1,846,638,-2.55243,1.22748
-371,386,-1.46411,-2.6026,0,0,0,0,0,0,0,-1,853,638,-1.46413,2.60261
-364,386,-3.06403,0.651733,0,0,0,0,0,0,0,-1,860,638,-3.064,-0.651763
-357,386,-2.5058,-4.91699,0,0,0,0,0,0,0,-1,867,638,-2.50581,4.91698
-350,386,0,0,0,0,0,0,0,0,0,-1,874,638,0,0
-343,386,0,0,0,0,0,0,0,0,0,-1,881,638,0,0
-336,386,0,0,0,0,0,0,0,0,0,-1,888,638,0,0
-329,386,0,0,0,0,0,0,0,0,0,-1,895,638,0,0
-322,386,0,0,0,0,0,0,0,0,0,-1,902,638,0,0
-315,386,0,0,0,0,0,0,0,0,0,-1,909,638,0,0
-308,386,0,0,0,0,0,0,0,0,0,-1,916,638,0,0
-301,386,0,0,0,0,0,0,0,0,0,-1,923,638,0,0
-294,386,0,0,0,0,0,0,0,0,0,-1,930,638,0,0
-287,386,0,0,0,0,0,0,0,0,0,-1,937,638,0,0
-280,386,0,0,0,0,0,0,0,0,0,-1,944,638,0,0
-273,386,0,0,0,0,0,0,0,0,0,-1,951,638,0,0
-266,386,0,0,0,0,0,0,0,0,0,-1,958,638,0,0
-259,386,0,0,0,0,0,0,0,0,0,-1,965,638,0,0
-252,386,0,0,0,0,0,0,0,0,0,-1,972,638,0,0
-245,386,0,0,0,0,0,0,0,0,0,-1,979,638,0,0
-238,386,0,0,0,0,0,0,0,0,0,-1,986,638,0,0
-231,386,0,0,0,0,0,0,0,0,0,-1,993,638,0,0
-224,386,0,0,0,0,0,0,0,0,0,-1,1000,638,0,0
-217,386,0,0,0,0,0,0,0,0,0,-1,1007,638,0,0
-210,386,0,0,0,0,0,0,0,0,0,-1,1014,638,0,0
-203,386,0,0,0,0,0,0,0,0,0,-1,1021,638,0,0
-196,386,0,0,0,0,0,0,0,0,0,-1,1028,638,0,0
-189,386,0,0,0,0,0,0,0,0,0,-1,1035,638,0,0
-182,386,0,0,0,0,0,0,0,0,0,-1,1042,638,0,0
-175,386,0,0,0,0,0,0,0,0,0,-1,1049,638,0,0
-168,386,0,0,0,0,0,0,0,0,0,-1,1056,638,0,0
-161,386,0,0,0,0,0,0,0,0,0,-1,1063,638,0,0
-154,386,0,0,0,0,0,0,0,0,0,-1,1070,638,0,0
-147,386,0,0,0,0,0,0,0,0,0,-1,1077,638,0,0
-140,386,0,0,0,0,0,0,0,0,0,-1,1084,638,0,0
-133,386,0,0,0,0,0,0,0,0,0,-1,1091,638,0,0
-126,386,0,0,0,0,0,0,0,0,0,-1,1098,638,0,0
-119,386,0,0,0,0,0,0,0,0,0,-1,1105,638,0,0
-112,386,0,0,0,0,0,0,0,0,0,-1,1112,638,0,0
-105,386,0,0,0,0,0,0,0,0,0,-1,1119,638,0,0
-98,386,0,0,0,0,0,0,0,0,0,-1,1126,638,0,0
-91,386,0,0,0,0,0,0,0,0,0,-1,1133,638,0,0
-84,386,0,0,0,0,0,0,0,0,0,-1,1140,638,0,0
-77,386,0,0,0,0,0,0,0,0,0,-1,1147,638,0,0
-70,386,0,0,0,0,0,0,0,0,0,-1,1154,638,0,0
-63,386,0,0,0,0,0,0,0,0,0,-1,1161,638,0,0
-56,386,0,0,0,0,0,0,0,0,0,-1,1168,638,0,0
-49,386,0,0,0,0,0,0,0,0,0,-1,1175,638,0,0
-42,386,0,0,0,0,0,0,0,0,0,-1,1182,638,0,0
-35,386,0,0,0,0,0,0,0,0,0,-1,1189,638,0,0
-28,386,0,0,0,0,0,0,0,0,0,-1,1196,638,0,0
-21,386,0,0,0,0,0,0,0,0,0,-1,1203,638,0,0
-14,386,0,0,0,0,0,0,0,0,0,-1,1210,638,0,0
-7,386,0,0,0,0,0,0,0,0,0,-1,1217,638,0,0
0,386,0,0,0,0,0,0,0,0,0,-1,1224,638,0,0
7,386,0,0,0,0,0,0,0,0,0,-1,1231,638,0,0
14,386,0,0,0,0,0,0,0,0,0,-1,1238,638,0,0
21,386,0,0,0,0,0,0,0,0,0,-1,1245,638,0,0
28,386,0,0,0,0,0,0,0,0,0,-1,1252,638,0,0
35,386,0,0,0,0,0,0,0,0,0,-1,1259,638,0,0
42,386,0,0,0,0,0,0,0,0,0,-1,1266,638,0,0
49,386,0,0,0,0,0,0,0,0,0,-1,1273,638,0,0
56,386,0,0,0,0,0,0,0,0,0,-1,1280,638,0,0
63,386,0,0,0,0,0,0,0,0,0,-1,1287,638,0,0
70,386,0,0,0,0,0,0,0,0,0,-1,1294,638,0,0
77,386,0,0,0,0,0,0,0,0,0,-1,1301,638,0,0
84,386,0,0,0,0,0,0,0,0,0,-1,1308,638,0,0
91,386,0,0,0,0,0,0,0,0,0,-1,1315,638,0,0
98,386,0,0,0,0,0,0,0,0,0,-1,1322,638,0,0
105,386,0,0,0,0,0,0,0,0,0,-1,1329,638,0,0
112,386,0,0,0,0,0,0,0,0,0,-1,1336,638,0,0
119,386,0,0,0,0,0,0,0,0,0,-1,1343,638,0,0
126,386,0,0,0,0,0,0,0,0,0,-1,1350,638,0,0
133,386,0,0,0,0,0,0,0,0,0,-1,1357,638,0,0
140,386,0,0,0,0,0,0,0,0,0,-1,1364,638,0,0
147,386,0,0,0,0,0,0,0,0,0,-1,1371,638,0,0
154,386,0,0,0,0,0,0,0,0,0,-1,1378,638,0,0
161,386,0,0,0,0,0,0,0,0,0,-1,1385,638,0,0
168,386,0,0,0,0,0,0,0,0,0,-1,1392,638,0,0
175,386,0,0,0,0,0,0,0,0,0,-1,1399,638,0,0
182,386,0,0,0,0,0,0,0,0,0,-1,1406,638,0,0
189,386,0,0,0,0,0,0,0,0,0,-1,1413,638,0,0
196,386,0,0,0,0,0,0,0,0,0,-1,1420,638,0,0
203,386,0,0,0,0,0,0,0,0,0,-1,1427,638,0,0
210,386,0,0,0,0,0,0,0,0,0,-1,1434,638,0,0
217,386,0,0,0,0,0,0,0,0,0,-1,1441,638,0,0
224,386,0,0,0,0,0,0,0,0,0,-1,1448,638,0,0
231,386,0,0,0,0,0,0,0,0,0,-1,1455,638,0,0
238,386,0,0,0,0,0,0,0,0,0,-1,1462,638,0,0
245,386,0,0,0,0,0,0,0,0,0,-1,1469,638,0,0
252,386,0,0,0,0,0,0,0,0,0,-1,1476,638,0,0
259,386,0,0,0,0,0,0,0,0,0,-1,1483,638,0,0
266,386,0,0,0,0,0,0,0,0,0,-1,1490,638,0,0
273,386,0,0,0,0,0,0,0,0,0,-1,1497,638,0,0
280,386,0,0,0,0,0,0,0,0,0,-1,1504,638,0,0
287,386,0,0,0,0,0,0,0,0,0,-1,1511,638,0,0
294,386,0,0,0,0,0,0,0,0,0,-1,1518,638,0,0
301,386,0,0,0,0,0,0,0,0,0,-1,1525,638,0,0
308,386,0,0,0,0,0,0,0,0,0,-1,1532,638,0,0
315,386,0,0,0,0,0,0,0,0,0,-1,1539,638,0,0
322,386,0,0,0,0,0,0,0,0,0,-1,1546,638,0,0
329,386,0,0,0,0,0,0,0,0,0,-1,1553,638,0,0
336,386,0,0,0,0,0,0,0,0,0,-1,1560,638,0,0
343,386,0,0,0,0,0,0,0,0,0,-1,1567,638,0,0
350,386,0,0,0,0,0,0,0,0,0,-1,1574,638,0,0
357,386,0,0,0,0,0,0,0,0,0,-1,1581,638,0,0
364,386,0,0,0,0,0,0,0,0,0,-1,1588,638,0,0
371,386,0,0,0,0,0,0,0,0,0,-1,1595,638,0,0
378,386,0,0,0,0,0,0,0,0,0,-1,1602,638,0,0
385,386,0,0,0,0,0,0,0,0,0,-1,1609,638,0,0
392,386,0,0,0,0,0,0,0,0,0,-1,1616,638,0,0
399,386,0,0,0,0,0,0,0,0,0,-1,1623,638,0,0
406,386,0,0,0,0,0,0,0,0,0,-1,1630,638,0,0
413,386,0,0,0,0,0,0,0,0,0,-1,1637,638,0,0
420,386,0,0,0,0,0,0,0,0,0,-1,1644,638,0,0
427,386,0,0,0,0,0,0,0,0,0,-1,1651,638,0,0
434,386,0,0,0,0,0,0,0,0,0,-1,1658,638,0,0
441,386,0,0,0,0,0,0,0,0,0,-1,1665,638,0,0
448,386,0,0,0,0,0,0,0,0,0,-1,1672,638,0,0
455,386,0,0,0,0,0,0,0,0,0,-1,1679,638,0,0
462,386,0,0,0,0,0,0,0,0,0,-1,1686,638,0,0
469,386,9.84692,1.55804,0,0,0,0,0,0,0,-1,1693,638,9.84691,-1.55807
476,386,10.6145,0.986511,0,0,0,0,0,0,0,-1,1700,638,10.6145,-0.986529
483,386,11.4113,0.732971,0,0,0,0,0,0,0,-1,1707,638,11.4112,-0.732958
490,386,7.79785,1.79572,0,0,0,0,0,0,0,-1,1714,638,7.79788,-1.7957
497,386,8.96362,1.77081,0,0,0,0,0,0,0,-1,1721,638,8.96357,-1.77081
504,386,10.0555,1.69427,0,0,0,0,0,0,0,-1,1728,638,10.0555,-1.69426
511,386,11.2172,1.534,0,0,0,0,0,0,0,-1,1735,638,11.2172,-1.53398
518,386,7.41553,1.75238,0,0,0,0,0,0,0,-1,1742,638,7.41547,-1.75238
525,386,8.82422,-1.1449,0,0,0,0,0,0,0,-1,1749,638,8.82426,1.14492
532,386,10.6432,0.617371,0,0,0,0,0,0,0,-1,1756,638,10.6432,-0.617359
539,386,9.62061,-0.393616,0,0,0,0,0,0,0,-1,1763,638,9.62059,0.393634
546,386,8.35095,-1.12872,-0.0159634,-0.000842079,-0.00802764,0.0026248,-0.0194303,-1.16312,0.0139112,0.0467609,1770,638,8.3509,1.1287
553,386,7.88098,-1.50806,-0.0129098,0.000562884,-0.00600317,0.00284964,-0.0151966,-1.20684,0.0112024,0.0378096,1777,638,7.88095,1.50805
560,386,7.85571,-1.37708,-0.0104185,0.00122963,-0.00451102,0.00277231,-0.0119612,-1.24128,0.00904105,0.0278771,1784,638,7.85567,1.37708
567,386,7.76453,-1.2312,-0.00834983,0.00155017,-0.00337182,0.00258946,-0.00938913,-1.27181,0.00727778,0.0184515,1791,638,7.76448,1.23121
574,386,7.77649,-1.0614,-0.00637209,0.00133396,-0.00249041,0.00206874,-0.00710687,-1.28389,0.00555736,0.0137542,1798,638,7.77649,1.06138
581,386,7.76929,-0.848267,-0.004615,0.00102419,-0.0018152,0.00155796,-0.00514877,-1.2848,0.00405291,0.0139641,1805,638,7.76923,0.848285
588,386,7.79211,-0.638306,-0.00313661,0.000703117,-0.0012976,0.0011005,-0.00353399,-1.27362,0.00279598,0.0126949,1812,638,7.79215,0.638328
595,386,7.79346,-0.452759,-0.00166434,0.000367634,-0.00102678,0.00079612,-0.00209283,-1.17546,0.00172303,0.0133102,1819,638,7.79345,0.452789
602,386,7.77234,-0.263733,1.62491e-05,0.000189608,-0.00087393,0.000981147,-0.00077529,-0.834828,0.0010164,0.0148397,1826,638,7.77239,0.263709
609,386,7.78687,-0.0617676,0.00120457,-0.000315704,-0.00112059,0.00179851,-0.000909642,-0.487378,0.00159138,0.0144269,1833,638,7.78686,0.0617826
616,386,7.79199,0.145752,0.00257167,-0.000856989,-0.00168627,0.00326202,-0.00154733,-0.388574,0.00283489,0.011783,1840,638,7.79198,-0.145767
623,386,7.79163,0.34613,0.00427719,-0.00151374,-0.00226421,0.00505737,-0.00229391,-0.331829,0.00434308,0.0106296,1847,638,7.79165,-0.346122
630,386,7.85608,0.51709,0.00689159,-0.00174506,-0.00308107,0.00787807,-0.00273153,-0.30986,0.00636115,0.0179502,1854,638,7.85608,-0.517115
637,386,7.82776,0.741028,0.0113442,-0.000810187,-0.00454748,0.0128573,-0.00232324,-0.321201,0.0094417,0.0319101,1861,638,7.82775,-0.741037
644,386,7.67224,0.753906,0.0165831,-0.000222372,-0.00613834,0.0185864,-0.00222565,-0.315457,0.0131955,0.0409995,1868,638,7.67228,-0.7539
651,386,8.11877,0.885803,0.0242666,0.00140157,-0.00800611,0.0267912,-0.001123,-0.305461,0.0182466,0.0450413,1875,638,8.11874,-0.88579
658,386,8.65479,1.01599,0,0,0,0,0,0,0,-1,1882,638,8.65479,-1.01598
665,386,7.48633,0.081665,0,0,0,0,0,0,0,-1,1889,638,7.4863,-0.0816793
672,386,7.51563,2.42877,0,0,0,0,0,0,0,-1,1896,638,7.51562,-2.42878
679,386,9.11768,2.104,0,0,0,0,0,0,0,-1,1903,638,9.11765,-2.10402
686,386,0,0,0,0,0,0,0,0,0,-1,1910,638,0,0
693,386,0,0,0,0,0,0,0,0,0,-1,1917,638,0,0
700,386,0,0,0,0,0,0,0,0,0,-1,1924,638,0,0
707,386,0,0,0,0,0,0,0,0,0,-1,1931,638,0,0
714,386,0,0,0,0,0,0,0,0,0,-1,1938,638,0,0
721,386,0,0,0,0,0,0,0,0,0,-1,1945,638,0,0
728,386,0,0,0,0,0,0,0,0,0,-1,1952,638,0,0
735,386,0,0,0,0,0,0,0,0,0,-1,1959,638,0,0
742,386,0,0,0,0,0,0,0,0,0,-1,1966,638,0,0
749,386,0,0,0,0,0,0,0,0,0,-1,1973,638,0,0
756,386,0,0,0,0,0,0,0,0,0,-1,1980,638,0,0
763,386,0,0,0,0,0,0,0,0,0,-1,1987,638,0,0
770,386,0,0,0,0,0,0,0,0,0,-1,1994,638,0,0
777,386,0,0,0,0,0,0,0,0,0,-1,2001,638,0,0
784,386,0,0,0,0,0,0,0,0,0,-1,2008,638,0,0
791,386,0,0,0,0,0,0,0,0,0,-1,2015,638,0,0
798,386,0,0,0,0,0,0,0,0,0,-1,2022,638,0,0
805,386,0,0,0,0,0,0,0,0,0,-1,2029,638,0,0
812,386,0,0,0,0,0,0,0,0,0,-1,2036,638,0,0
-700,379,0,0,0,0,0,0,0,0,0,-1,524,645,0,0
-693,379,0,0,0,0,0,0,0,0,0,-1,531,645,0,0
-686,379,0,0,0,0,0,0,0,0,0,-1,538,645,0,0
-679,379,0,0,0,0,0,0,0,0,0,-1,545,645,0,0
-672,379,0,0,0,0,0,0,0,0,0,-1,552,645,0,0
-665,379,0,0,0,0,0,0,0,0,0,-1,559,645,0,0
-658,379,0,0,0,0,0,0,0,0,0,-1,566,645,0,0
-651,379,0,0,0,0,0,0,0,0,0,-1,573,645,0,0
-644,379,0,0,0,0,0,0,0,0,0,-1,580,645,0,0
-637,379,0,0,0,0,0,0,0,0,0,-1,587,645,0,0
-630,379,0,0,0,0,0,0,0,0,0,-1,594,645,0,0
-623,379,0,0,0,0,0,0,0,0,0,-1,601,645,0,0
-616,379,0,0,0,0,0,0,0,0,0,-1,608,645,0,0
-609,379,0,0,0,0,0,0,0,0,0,-1,615,645,0,0
-602,379,0,0,0,0,0,0,0,0,0,-1,622,645,0,0
-595,379,0,0,0,0,0,0,0,0,0,-1,629,645,0,0
-588,379,0,0,0,0,0,0,0,0,0,-1,636,645,0,0
-581,379,0,0,0,0,0,0,0,0,0,-1,643,645,0,0
-574,379,0,0,0,0,0,0,0,0,0,-1,650,645,0,0
-567,379,-2.41241,1.35297,0.00652851,0.0132101,-0.0548468,0.0648178,-0.0450792,-0.815816,0.0637893,0.0486118,657,645,-2.41239,-1.35299
-560,379,-2.19128,0.21698,0.0028602,0.0153094,-0.0498469,0.0593188,-0.0411492,-0.847514,0.0583206,0.0494411,664,645,-2.19126,-0.216987
-553,379,-2.05902,-0.899963,0,0,0,0,0,0,0,-1,671,645,-2.05901,0.899943
-546,379,-3.31799,-2.58472,0,0,0,0,0,0,0,-1,678,645,-3.31797,2.58473
-539,379,-3.85516,-4.31897,0,0,0,0,0,0,0,-1,685,645,-3.85519,4.31896
-532,379,-3.2301,0.443909,0,0,0,0,0,0,0,-1,692,645,-3.23012,-0.443922
-525,379,-3.05176,-0.145874,-0.00857851,0.0107765,-0.0151584,0.0190832,-0.0168852,-1.0695,0.0207793,0.0474381,699,645,-3.05174,0.145863
-518,379,-2.96967,-0.695068,-0.008968,0.00925637,-0.0114401,0.0147697,-0.0144814,-1.1217,0.0168884,0.0426533,706,645,-2.96968,0.695077
-511,379,-3.11414,-0.975342,-0.00793807,0.00858962,-0.00605068,0.0105679,-0.00991639,-1.25479,0.0118286,0.0291822,713,645,-3.11413,0.975337
-504,379,-3.25702,-1.13965,-0.0077479,0.00727298,-0.00185879,0.00749958,-0.0079745,-1.44949,0.00893537,0.0153287,720,645,-3.25705,1.13965
-497,379,-3.30243,-1.28717,-0.00548415,0.00498309,-0.000743662,0.00503566,-0.00553672,-1.50022,0.00610625,0.0100141,727,645,-3.30242,1.28716
-490,379,-3.2738,-1.47241,-0.00389277,0.00316854,-0.000208522,0.0031747,-0.00389892,-1.5413,0.00409108,0.0110355,734,645,-3.27381,1.47241
-483,379,-3.25806,-1.66748,-0.00243895,0.00176689,0.000321634,0.00179134,-0.0024634,1.49491,0.00246667,0.0121507,741,645,-3.25804,1.66747
-476,379,-3.25806,-1.82568,-0.00138559,0.000439546,0.000726535,0.00069344,-0.00163949,1.2346,0.00138334,0.0122297,748,645,-3.25805,1.82566
-469,379,-3.27338,-1.99023,-0.000797558,-0.000831781,0.0012198,0.000405252,-0.00203459,0.778385,0.00150972,0.0118986,755,645,-3.27336,1.99021
-462,379,-3.29321,-2.18066,-0.000595569,-0.00215537,0.00178859,0.000575762,-0.00332671,0.579805,0.00243254,0.00928612,762,645,-3.29321,2.18066
-455,379,-3.29407,-2.3631,-0.0010243,-0.0027205,0.00264631,0.00090649,-0.00465129,0.630327,0.00344303,0.00885804,769,645,-3.29406,2.36308
-448,379,-3.27429,-2.53064,-0.00180383,-0.00331739,0.00379463,0.00130874,-0.00642996,0.686973,0.00478295,0.0106052,776,645,-3.27431,2.53063
-441,379,-3.26721,-2.72125,-0.00332752,-0.0039692,0.00525944,0.00162086,-0.00891757,0.754935,0.0065525,0.0140151,783,645,-3.2672,2.72126
-434,379,-3.17993,-2.95477,-0.00547819,-0.00454199,0.00706568,0.00207108,-0.0120913,0.818475,0.00883251,0.035042,790,645,-3.17992,2.9548
-427,379,-3.42963,-2.89252,-0.00836814,-0.00504279,0.0092812,0.00272349,-0.0161344,0.87403,0.0117696,0.0461542,797,645,-3.42965,2.89252
-420,379,-3.58612,-2.91302,-0.0120326,-0.00529087,0.0118233,0.00363268,-0.0209561,0.924266,0.0153258,0.0467659,804,645,-3.58614,2.91302
-413,379,-3.71802,-3.01379,0,0,0,0,0,0,0,-1,811,645,-3.71803,3.01377
-406,379,-4.64063,-4.38489,0,0,0,0,0,0,0,-1,818,645,-4.64065,4.3849
-399,379,-2.93536,-1.40118,0,0,0,0,0,0,0,-1,825,645,-2.93534,1.40119
-392,379,-4.16711,-0.466003,0,0,0,0,0,0,0,-1,832,645,-4.16714,0.465992
-385,379,-3.51862,0.441101,0,0,0,0,0,0,0,-1,839,645,-3.51859,-0.441072
-378,379,-5.3504,0.212219,0,0,0,0,0,0,0,-1,846,645,-5.35038,-0.212241
-371,379,-4.32092,-0.186707,0,0,0,0,0,0,0,-1,853,645,-4.3209,0.186707
-364,379,-3.40887,-0.549805,0,0,0,0,0,0,0,-1,860,645,-3.4089,0.549802
-357,379,0,0,0,0,0,0,0,0,0,-1,867,645,0,0
-350,379,0,0,0,0,0,0,0,0,0,-1,874,645,0,0
-343,379,0,0,0,0,0,0,0,0,0,-1,881,645,0,0
-336,379,0,0,0,0,0,0,0,0,0,-1,888,645,0,0
-329,379,0,0,0,0,0,0,0,0,0,-1,895,645,0,0
-322,379,0,0,0,0,0,0,0,0,0,-1,902,645,0,0
-315,379,0,0,0,0,0,0,0,0,0,-1,909,645,0,0
-308,379,0,0,0,0,0,0,0,0,0,-1,916,645,0,0
-301,379,0,0,0,0,0,0,0,0,0,-1,923,645,0,0
-294,379,0,0,0,0,0,0,0,0,0,-1,930,645,0,0
-287,379,0,0,0,0,0,0,0,0,0,-1,937,645,0,0
-280,379,0,0,0,0,0,0,0,0,0,-1,944,645,0,0
-273,379,0,0,0,0,0,0,0,0,0,-1,951,645,0,0
-266,379,0,0,0,0,0,0,0,0,0,-1,958,645,0,0
-259,379,0,0,0,0,0,0,0,0,0,-1,965,645,0,0
-252,379,0,0,0,0,0,0,0,0,0,-1,972,645,0,0
-245,379,0,0,0,0,0,0,0,0,0,-1,979,645,0,0
-238,379,0,0,0,0,0,0,0,0,0,-1,986,645,0,0
-231,379,0,0,0,0,0,0,0,0,0,-1,993,645,0,0
-224,379,0,0,0,0,0,0,0,0,0,-1,1000,645,0,0
-217,379,0,0,0,0,0,0,0,0,0,-1,1007,645,0,0
-210,379,0,0,0,0,0,0,0,0,0,-1,1014,645,0,0
-203,379,0,0,0,0,0,0,0,0,0,-1,1021,645,0,0
-196,379,0,0,0,0,0,0,0,0,0,-1,1028,645,0,0
-189,379,0,0,0,0,0,0,0,0,0,-1,1035,645,0,0
-182,379,0,0,0,0,0,0,0,0,0,-1,1042,645,0,0
-175,379,0,0,0,0,0,0,0,0,0,-1,1049,645,0,0
-168,379,0,0,0,0,0,0,0,0,0,-1,1056,645,0,0
-161,379,0,0,0,0,0,0,0,0,0,-1,1063,645,0,0
-154,379,0,0,0,0,0,0,0,0,0,-1,1070,645,0,0
-147,379,0,0,0,0,0,0,0,0,0,-1,1077,645,0,0
-140,379,0,0,0,0,0,0,0,0,0,-1,1084,645,0,0
-133,379,0,0,0,0,0,0,0,0,0,-1,1091,645,0,0
-126,379,0,0,0,0,0,0,0,0,0,-1,1098,645,0,0
-119,379,0,0,0,0,0,0,0,0,0,-1,1105,645,0,0
-112,379,0,0,0,0,0,0,0,0,0,-1,1112,645,0,0
-105,379,0,0,0,0,0,0,0,0,0,-1,1119,645,0,0
-98,379,0,0,0,0,0,0,0,0,0,-1,1126,645,0,0
-91,379,0,0,0,0,0,0,0,0,0,-1,1133,645,0,0
-84,379,0,0,0,0,0,0,0,0,0,-1,1140,645,0,0
-77,379,0,0,0,0,0,0,0,0,0,-1,1147,645,0,0
-70,379,0,0,0,0,0,0,0,0,0,-1,1154,645,0,0
-63,379,0,0,0,0,0,0,0,0,0,-1,1161,645,0,0
-56,379,0,0,0,0,0,0,0,0,0,-1,1168,645,0,0
-49,379,0,0,0,0,0,0,0,0,0,-1,1175,645,0,0
-42,379,0,0,0,0,0,0,0,0,0,-1,1182,645,0,0
-35,379,0,0,0,0,0,0,0,0,0,-1,1189,645,0,0
-28,379,0,0,0,0,0,0,0,0,0,-1,1196,645,0,0
-21,379,0,0,0,0,0,0,0,0,0,-1,1203,645,0,0
-14,379,0,0,0,0,0,0,0,0,0,-1,1210,645,0,0
-7,379,0,0,0,0,0,0,0,0,0,-1,1217,645,0,0
0,379,0,0,0,0,0,0,0,0,0,-1,1224,645,0,0
7,379,0,0,0,0,0,0,0,0,0,-1,1231,645,0,0
14,379,0,0,0,0,0,0,0,0,0,-1,1238,645,0,0
21,379,0,0,0,0,0,0,0,0,0,-1,1245,645,0,0
28,379,0,0,0,0,0,0,0,0,0,-1,1252,645,0,0
35,379,0,0,0,0,0,0,0,0,0,-1,1259,645,0,0
42,379,0,0,0,0,0,0,0,0,0,-1,1266,645,0,0
49,379,0,0,0,0,0,0,0,0,0,-1,1273,645,0,0
56,379,0,0,0,0,0,0,0,0,0,-1,1280,645,0,0
63,379,0,0,0,0,0,0,0,0,0,-1,1287,645,0,0
70,379,0,0,0,0,0,0,0,0,0,-1,1294,645,0,0
77,379,0,0,0,0,0,0,0,0,0,-1,1301,645,0,0
84,379,0,0,0,0,0,0,0,0,0,-1,1308,645,0,0
91,379,0,0,0,0,0,0,0,0,0,-1,1315,645,0,0
98,379,0,0,0,0,0,0,0,0,0,-1,1322,645,0,0
105,379,0,0,0,0,0,0,0,0,0,-1,1329,645,0,0
112,379,0,0,0,0,0,0,0,0,0,-1,1336,645,0,0
119,379,0,0,0,0,0,0,0,0,0,-1,1343,645,0,0
126,379,0,0,0,0,0,0,0,0,0,-1,1350,645,0,0
133,379,0,0,0,0,0,0,0,0,0,-1,1357,645,0,0
140,379,0,0,0,0,0,0,0,0,0,-1,1364,645,0,0
147,379,0,0,0,0,0,0,0,0,0,-1,1371,645,0,0
154,379,0,0,0,0,0,0,0,0,0,-1,1378,645,0,0
161,379,0,0,0,0,0,0,0,0,0,-1,1385,645,0,0
168,379,0,0,0,0,0,0,0,0,0,-1,1392,645,0,0
175,379,0,0,0,0,0,0,0,0,0,-1,1399,645,0,0
182,379,0,0,0,0,0,0,0,0,0,-1,1406,645,0,0
189,379,0,0,0,0,0,0,0,0,0,-1,1413,645,0,0
196,379,0,0,0,0,0,0,0,0,0,-1,1420,645,0,0
203,379,0,0,0,0,0,0,0,0,0,-1,1427,645,0,0
210,379,0,0,0,0,0,0,0,0,0,-1,1434,645,0,0
217,379,0,0,0,0,0,0,0,0,0,-1,1441,645,0,0
224,379,0,0,0,0,0,0,0,0,0,-1,1448,645,0,0
231,379,0,0,0,0,0,0,0,0,0,-1,1455,645,0,0
238,379,0,0,0,0,0,0,0,0,0,-1,1462,645,0,0
245,379,0,0,0,0,0,0,0,0,0,-1,1469,645,0,0
252,379,0,0,0,0,0,0,0,0,0,-1,1476,645,0,0
259,379,0,0,0,0,0,0,0,0,0,-1,1483,645,0,0
266,379,0,0,0,0,0,0,0,0,0,-1,1490,645,0,0
273,379,0,0,0,0,0,0,0,0,0,-1,1497,645,0,0
280,379,0,0,0,0,0,0,0,0,0,-1,1504,645,0,0
287,379,0,0,0,0,0,0,0,0,0,-1,1511,645,0,0
294,379,0,0,0,0,0,0,0,0,0,-1,1518,645,0,0
301,379,0,0,0,0,0,0,0,0,0,-1,1525,645,0,0
308,379,0,0,0,0,0,0,0,0,0,-1,1532,645,0,0
315,379,0,0,0,0,0,0,0,0,0,-1,1539,645,0,0
322,379,0,0,0,0,0,0,0,0,0,-1,1546,645,0,0
329,379,0,0,0,0,0,0,0,0,0,-1,1553,645,0,0
336,379,0,0,0,0,0,0,0,0,0,-1,1560,645,0,0
343,379,0,0,0,0,0,0,0,0,0,-1,1567,645,0,0
350,379,0,0,0,0,0,0,0,0,0,-1,1574,645,0,0
357,379,0,0,0,0,0,0,0,0,0,-1,1581,645,0,0
364,379,0,0,0,0,0,0,0,0,0,-1,1588,645,0,0
371,379,0,0,0,0,0,0,0,0,0,-1,1595,645,0,0
378,379,0,0,0,0,0,0,0,0,0,-1,1602,645,0,0
385,379,0,0,0,0,0,0,0,0,0,-1,1609,645,0,0
392,379,0,0,0,0,0,0,0,0,0,-1,1616,645,0,0
399,379,0,0,0,0,0,0,0,0,0,-1,1623,645,0,0
406,379,0,0,0,0,0,0,0,0,0,-1,1630,645,0,0
413,379,0,0,0,0,0,0,0,0,0,-1,1637,645,0,0
420,379,0,0,0,0,0,0,0,0,0,-1,1644,645,0,0
427,379,0,0,0,0,0,0,0,0,0,-1,1651,645,0,0
434,379,0,0,0,0,0,0,0,0,0,-1,1658,645,0,0
441,379,0,0,0,0,0,0,0,0,0,-1,1665,645,0,0
448,379,0,0,0,0,0,0,0,0,0,-1,1672,645,0,0
455,379,0,0,0,0,0,0,0,0,0,-1,1679,645,0,0
462,379,0,0,0,0,0,0,0,0,0,-1,1686,645,0,0
469,379,0,0,0,0,0,0,0,0,0,-1,1693,645,0,0
476,379,11.1787,0.830383,0,0,0,0,0,0,0,-1,1700,645,11.1787,-0.830365
483,379,7.4231,1.54321,0,0,0,0,0,0,0,-1,1707,645,7.42314,-1.54324
490,379,8.52881,1.56677,0,0,0,0,0,0,0,-1,1714,645,8.52878,-1.56677
497,379,9.63599,1.49573,0,0,0,0,0,0,0,-1,1721,645,9.63604,-1.4957
504,379,10.0833,1.35229,0,0,0,0,0,0,0,-1,1728,645,10.0832,-1.35227
511,379,8.14343,1.59912,0,0,0,0,0,0,0,-1,1735,645,8.14347,-1.59912
518,379,12.7955,-0.324097,0,0,0,0,0,0,0,-1,1742,645,12.7955,0.324101
525,379,6.03711,1.10352,0,0,0,0,0,0,0,-1,1749,645,6.03711,-1.10351
532,379,8.70947,0.887817,0,0,0,0,0,0,0,-1,1756,645,8.70953,-0.887808
539,379,9.87097,0.111389,0,0,0,0,0,0,0,-1,1763,645,9.87095,-0.111395
546,379,8.42383,-0.730652,0,0,0,0,0,0,0,-1,1770,645,8.42378,0.730638
553,379,8.00952,-1.32678,0,0,0,0,0,0,0,-1,1777,645,8.00957,1.32677
560,379,8.14709,-1.36993,-0.0140861,0.00246083,-0.00559678,0.00417606,-0.0158014,-1.27342,0.0121675,0.0372962,1784,645,8.14713,1.36992
567,379,7.91284,-1.18896,-0.0110693,0.00254567,-0.00411831,0.00369446,-0.0122181,-1.29876,0.00961643,0.021832,1791,645,7.91278,1.18896
574,379,7.97864,-1.03656,-0.00840262,0.00202551,-0.00304505,0.00284956,-0.00922666,-1.30651,0.00728906,0.0125148,1798,645,7.97863,1.03658
581,379,7.98328,-0.836731,-0.00608019,0.00145875,-0.00218706,0.00204728,-0.00666872,-1.30793,0.0052627,0.0147693,1805,645,7.98322,0.836708
588,379,7.98755,-0.656494,-0.00418862,0.000971019,-0.00155382,0.00140281,-0.00462041,-1.29974,0.00363915,0.0169918,1812,645,7.98753,0.656519
595,379,7.96973,-0.47467,-0.00248485,0.00056207,-0.00114619,0.000945094,-0.00286787,-1.24829,0.00229282,0.0146771,1819,645,7.96974,0.474675
602,379,7.96558,-0.281677,-0.000698798,0.000457932,-0.000802694,0.000868922,-0.00110979,-1.09758,0.00114523,0.0149709,1826,645,7.96554,0.281673
609,379,7.97205,-0.0831909,0.000545221,-9.10972e-06,-0.000919836,0.00122874,-0.000692631,-0.639064,0.00112361,0.0146283,1833,645,7.97206,0.0831881
616,379,7.97314,0.134766,0.00184938,-0.000553352,-0.00138351,0.00248032,-0.0011843,-0.427873,0.00215943,0.0114714,1840,645,7.97311,-0.134741
623,379,7.99316,0.36261,0.00344924,-0.00125001,-0.00173173,0.00401846,-0.00181922,-0.317573,0.00344919,0.0115127,1847,645,7.99311,-0.362581
630,379,7.99011,0.538269,0.00585037,-0.00130763,-0.00230548,0.00652866,-0.00198591,-0.286133,0.00514383,0.0128491,1854,645,7.99008,-0.538244
637,379,8.01465,0.722656,0.0100002,-0.000148618,-0.00334698,0.0110046,-0.00115302,-0.291541,0.00774936,0.016217,1861,645,8.0147,-0.722686
644,379,8.02417,0.973694,0.0146375,0.000621928,-0.00445885,0.0159358,-0.00067633,-0.283331,0.0108563,0.0277768,1868,645,8.02413,-0.973674
651,379,8.20496,1.2403,0,0,0,0,0,0,0,-1,1875,645,8.20491,-1.2403
658,379,8.05872,1.6925,0,0,0,0,0,0,0,-1,1882,645,8.05868,-1.69251
665,379,8.3335,2.539,0,0,0,0,0,0,0,-1,1889,645,8.33346,-2.53902
672,379,7.43872,2.6579,0,0,0,0,0,0,0,-1,1896,645,7.43874,-2.65788
679,379,8.79382,2.41998,0,0,0,0,0,0,0,-1,1903,645,8.79376,-2.41999
686,379,0,0,0,0,0,0,0,0,0,-1,1910,645,0,0
693,379,0,0,0,0,0,0,0,0,0,-1,1917,645,0,0
700,379,0,0,0,0,0,0,0,0,0,-1,1924,645,0,0
707,379,0,0,0,0,0,0,0,0,0,-1,1931,645,0,0
714,379,0,0,0,0,0,0,0,0,0,-1,1938,645,0,0
721,379,0,0,0,0,0,0,0,0,0,-1,1945,645,0,0
728,379,0,0,0,0,0,0,0,0,0,-1,1952,645,0,0
735,379,0,0,0,0,0,0,0,0,0,-1,1959,645,0,0
742,379,0,0,0,0,0,0,0,0,0,-1,1966,645,0,0
749,379,0,0,0,0,0,0,0,0,0,-1,1973,645,0,0
756,379,0,0,0,0,0,0,0,0,0,-1,1980,645,0,0
763,379,0,0,0,0,0,0,0,0,0,-1,1987,645,0,0
770,379,0,0,0,0,0,0,0,0,0,-1,1994,645,0,0
777,379,0,0,0,0,0,0,0,0,0,-1,2001,645,0,0
784,379,0,0,0,0,0,0,0,0,0,-1,2008,645,0,0
791,379,0,0,0,0,0,0,0,0,0,-1,2015,645,0,0
798,379,0,0,0,0,0,0,0,0,0,-1,2022,645,0,0
805,379,0,0,0,0,0,0,0,0,0,-1,2029,645,0,0
812,379,0,0,0,0,0,0,0,0,0,-1,2036,645,0,0
-700,372,0,0,0,0,0,0,0,0,0,-1,524,652,0,0
-693,372,0,0,0,0,0,0,0,0,0,-1,531,652,0,0
-686,372,0,0,0,0,0,0,0,0,0,-1,538,652,0,0
-679,372,0,0,0,0,0,0,0,0,0,-1,545,652,0,0
-672,372,0,0,0,0,0,0,0,0,0,-1,552,652,0,0
-665,372,0,0,0,0,0,0,0,0,0,-1,559,652,0,0
-658,372,0,0,0,0,0,0,0,0,0,-1,566,652,0,0
-651,372,0,0,0,0,0,0,0,0,0,-1,573,652,0,0
-644,372,0,0,0,0,0,0,0,0,0,-1,580,652,0,0
-637,372,0,0,0,0,0,0,0,0,0,-1,587,652,0,0
-630,372,0,0,0,0,0,0,0,0,0,-1,594,652,0,0
-623,372,0,0,0,0,0,0,0,0,0,-1,601,652,0,0
-616,372,0,0,0,0,0,0,0,0,0,-1,608,652,0,0
-609,372,0,0,0,0,0,0,0,0,0,-1,615,652,0,0
-602,372,0,0,0,0,0,0,0,0,0,-1,622,652,0,0
-595,372,0,0,0,0,0,0,0,0,0,-1,629,652,0,0
-588,372,0,0,0,0,0,0,0,0,0,-1,636,652,0,0
-581,372,0,0,0,0,0,0,0,0,0,-1,643,652,0,0
-574,372,0,0,0,0,0,0,0,0,0,-1,650,652,0,0
-567,372,-1.87561,1.15137,0.00268232,0.0144916,-0.0410079,0.0500178,-0.0328438,-0.856901,0.0481815,0.0444221,657,652,-1.8756,-1.15135
-560,372,-2.48792,0.278076,-0.000838368,0.0148995,-0.0377492,0.0455912,-0.0315301,-0.888153,0.044772,0.0468131,664,652,-2.48793,-0.278046
-553,372,-2.89063,-1.16187,0,0,0,0,0,0,0,-1,671,652,-2.8906,1.16187
-546,372,-3.53088,-2.88269,0,0,0,0,0,0,0,-1,678,652,-3.5309,2.88268
-539,372,-3.42169,-0.189575,0,0,0,0,0,0,0,-1,685,652,-3.42171,0.189576
-532,372,-3.5304,0.264587,0,0,0,0,0,0,0,-1,692,652,-3.53041,-0.264582
-525,372,-3.47723,-0.210083,0,0,0,0,0,0,0,-1,699,652,-3.47724,0.210068
-518,372,-3.49695,-0.901245,0,0,0,0,0,0,0,-1,706,652,-3.49693,0.901237
-511,372,-3.44312,-0.979797,-0.00742341,0.00721765,-0.00493598,0.00872628,-0.00893204,-1.27417,0.0101953,0.0154084,713,652,-3.44314,0.979785
-504,372,-3.47687,-1.11511,-0.00678046,0.00611491,-0.0014948,0.00628592,-0.00695147,-1.45689,0.00764583,0.0115495,720,652,-3.47687,1.11513
-497,372,-3.47113,-1.30164,-0.00474368,0.00394468,-0.000475483,0.00397062,-0.00476963,-1.51629,0.00505321,0.0112538,727,652,-3.47113,1.30166
-490,372,-3.44904,-1.47339,-0.00332507,0.00221591,3.89564e-06,0.00221591,-0.00332507,1.57009,0.00322038,0.0120351,734,652,-3.44903,1.47337
-483,372,-3.4469,-1.64325,-0.00199725,0.000788309,0.000524259,0.000883711,-0.00209265,1.39079,0.00176502,0.0118206,741,652,-3.44688,1.64327
-476,372,-3.4566,-1.8017,-0.00104519,-0.000633244,0.000955025,0.000137768,-0.0018162,0.891607,0.00125924,0.0127917,748,652,-3.45662,1.80172
-469,372,-3.46545,-1.97223,-0.000509671,-0.00204209,0.00147651,0.000387597,-0.00293935,0.546059,0.00210072,0.0107594,755,652,-3.46545,1.97221
-462,372,-3.46503,-2.16553,-0.00033012,-0.00345893,0.00205861,0.000691057,-0.0044801,0.460485,0.00324173,0.00923786,762,652,-3.46501,2.16551
-455,372,-3.47571,-2.33789,-0.000788349,-0.00418675,0.00299258,0.000953789,-0.00592889,0.527193,0.00430588,0.00933686,769,652,-3.4757,2.3379
-448,372,-3.46381,-2.5163,-0.00163573,-0.00498966,0.00426721,0.0012722,-0.00789759,0.598174,0.00573635,0.0101203,776,652,-3.46379,2.5163
-441,372,-3.39618,-2.81317,-0.00323768,-0.00587686,0.00593282,0.00152053,-0.0106351,0.675969,0.00764745,0.023936,783,652,-3.3962,2.81314
-434,372,-3.58362,-2.87372,-0.00553971,-0.00662775,0.0080151,0.00194981,-0.0141173,0.751513,0.0101242,0.0393165,790,652,-3.5836,2.87369
-427,372,-3.66589,-2.92145,-0.00878127,-0.00727183,0.0106213,0.00262157,-0.0186747,0.820867,0.0134093,0.0460581,797,652,-3.66592,2.92142
-420,372,-3.98822,-2.80975,0,0,0,0,0,0,0,-1,804,652,-3.9882,2.80972
-413,372,-4.74762,-3.29541,0,0,0,0,0,0,0,-1,811,652,-4.74763,3.29542
-406,372,-0.885437,-0.583923,0,0,0,0,0,0,0,-1,818,652,-0.885437,0.5839
-399,372,-3.97357,-0.825012,0,0,0,0,0,0,0,-1,825,652,-3.97359,0.825037
-392,372,-7.64337,0.173035,0,0,0,0,0,0,0,-1,832,652,-7.64337,-0.173019
-385,372,-6.48871,-0.0271606,0,0,0,0,0,0,0,-1,839,652,-6.48874,0.0271353
-378,372,-5.33044,-0.242432,0,0,0,0,0,0,0,-1,846,652,-5.33042,0.242457
-371,372,-4.40802,-0.495667,0,0,0,0,0,0,0,-1,853,652,-4.40802,0.495661
-364,372,0,0,0,0,0,0,0,0,0,-1,860,652,0,0
-357,372,0,0,0,0,0,0,0,0,0,-1,867,652,0,0
-350,372,0,0,0,0,0,0,0,0,0,-1,874,652,0,0
-343,372,0,0,0,0,0,0,0,0,0,-1,881,652,0,0
-336,372,0,0,0,0,0,0,0,0,0,-1,888,652,0,0
-329,372,0,0,0,0,0,0,0,0,0,-1,895,652,0,0
-322,372,0,0,0,0,0,0,0,0,0,-1,902,652,0,0
-315,372,0,0,0,0,0,0,0,0,0,-1,909,652,0,0
-308,372,0,0,0,0,0,0,0,0,0,-1,916,652,0,0
-301,372,0,0,0,0,0,0,0,0,0,-1,923,652,0,0
-294,372,0,0,0,0,0,0,0,0,0,-1,930,652,0,0
-287,372,0,0,0,0,0,0,0,0,0,-1,937,652,0,0
-280,372,0,0,0,0,0,0,0,0,0,-1,944,652,0,0
-273,372,0,0,0,0,0,0,0,0,0,-1,951,652,0,0
-266,372,0,0,0,0,0,0,0,0,0,-1,958,652,0,0
-259,372,0,0,0,0,0,0,0,0,0,-1,965,652,0,0
-252,372,0,0,0,0,0,0,0,0,0,-1,972,652,0,0
-245,372,0,0,0,0,0,0,0,0,0,-1,979,652,0,0
-238,372,0,0,0,0,0,0,0,0,0,-1,986,652,0,0
-231,372,0,0,0,0,0,0,0,0,0,-1,993,652,0,0
-224,372,0,0,0,0,0,0,0,0,0,-1,1000,652,0,0
-217,372,0,0,0,0,0,0,0,0,0,-1,1007,652,0,0
-210,372,0,0,0,0,0,0,0,0,0,-1,1014,652,0,0
-203,372,0,0,0,0,0,0,0,0,0,-1,1021,652,0,0
-196,372,0,0,0,0,0,0,0,0,0,-1,1028,652,0,0
-189,372,0,0,0,0,0,0,0,0,0,-1,1035,652,0,0
-182,372,0,0,0,0,0,0,0,0,0,-1,1042,652,0,0
-175,372,0,0,0,0,0,0,0,0,0,-1,1049,652,0,0
-168,372,0,0,0,0,0,0,0,0,0,-1,1056,652,0,0
-161,372,0,0,0,0,0,0,0,0,0,-1,1063,652,0,0
-154,372,0,0,0,0,0,0,0,0,0,-1,1070,652,0,0
-147,372,0,0,0,0,0,0,0,0,0,-1,1077,652,0,0
-140,372,0,0,0,0,0,0,0,0,0,-1,1084,652,0,0
-133,372,0,0,0,0,0,0,0,0,0,-1,1091,652,0,0
-126,372,0,0,0,0,0,0,0,0,0,-1,1098,652,0,0
-119,372,0,0,0,0,0,0,0,0,0,-1,1105,652,0,0
-112,372,0,0,0,0,0,0,0,0,0,-1,1112,652,0,0
-105,372,0,0,0,0,0,0,0,0,0,-1,1119,652,0,0
-98,372,0,0,0,0,0,0,0,0,0,-1,1126,652,0,0
-91,372,0,0,0,0,0,0,0,0,0,-1,1133,652,0,0
-84,372,0,0,0,0,0,0,0,0,0,-1,1140,652,0,0
-77,372,0,0,0,0,0,0,0,0,0,-1,1147,652,0,0
-70,372,0,0,0,0,0,0,0,0,0,-1,1154,652,0,0
-63,372,0,0,0,0,0,0,0,0,0,-1,1161,652,0,0
-56,372,0,0,0,0,0,0,0,0,0,-1,1168,652,0,0
-49,372,0,0,0,0,0,0,0,0,0,-1,1175,652,0,0
-42,372,0,0,0,0,0,0,0,0,0,-1,1182,652,0,0
-35,372,0,0,0,0,0,0,0,0,0,-1,1189,652,0,0
-28,372,0,0,0,0,0,0,0,0,0,-1,1196,652,0,0
-21,372,0,0,0,0,0,0,0,0,0,-1,1203,652,0,0
-14,372,0,0,0,0,0,0,0,0,0,-1,1210,652,0,0
-7,372,0,0,0,0,0,0,0,0,0,-1,1217,652,0,0
0,372,0,0,0,0,0,0,0,0,0,-1,1224,652,0,0
7,372,0,0,0,0,0,0,0,0,0,-1,1231,652,0,0
14,372,0,0,0,0,0,0,0,0,0,-1,1238,652,0,0
21,372,0,0,0,0,0,0,0,0,0,-1,1245,652,0,0
28,372,0,0,0,0,0,0,0,0,0,-1,1252,652,0,0
35,372,0,0,0,0,0,0,0,0,0,-1,1259,652,0,0
42,372,0,0,0,0,0,0,0,0,0,-1,1266,652,0,0
49,372,0,0,0,0,0,0,0,0,0,-1,1273,652,0,0
56,372,0,0,0,0,0,0,0,0,0,-1,1280,652,0,0
63,372,0,0,0,0,0,0,0,0,0,-1,1287,652,0,0
70,372,0,0,0,0,0,0,0,0,0,-1,1294,652,0,0
77,372,0,0,0,0,0,0,0,0,0,-1,1301,652,0,0
84,372,0,0,0,0,0,0,0,0,0,-1,1308,652,0,0
91,372,0,0,0,0,0,0,0,0,0,-1,1315,652,0,0
98,372,0,0,0,0,0,0,0,0,0,-1,1322,652,0,0
105,372,0,0,0,0,0,0,0,0,0,-1,1329,652,0,0
112,372,0,0,0,0,0,0,0,0,0,-1,1336,652,0,0
119,372,0,0,0,0,0,0,0,0,0,-1,1343,652,0,0
126,372,0,0,0,0,0,0,0,0,0,-1,1350,652,0,0
133,372,0,0,0,0,0,0,0,0,0,-1,1357,652,0,0
140,372,0,0,0,0,0,0,0,0,0,-1,1364,652,0,0
147,372,0,0,0,0,0,0,0,0,0,-1,1371,652,0,0
154,372,0,0,0,0,0,0,0,0,0,-1,1378,652,0,0
161,372,0,0,0,0,0,0,0,0,0,-1,1385,652,0,0
168,372,0,0,0,0,0,0,0,0,0,-1,1392,652,0,0
175,372,0,0,0,0,0,0,0,0,0,-1,1399,652,0,0
182,372,0,0,0,0,0,0,0,0,0,-1,1406,652,0,0
189,372,0,0,0,0,0,0,0,0,0,-1,1413,652,0,0
196,372,0,0,0,0,0,0,0,0,0,-1,1420,652,0,0
203,372,0,0,0,0,0,0,0,0,0,-1,1427,652,0,0
210,372,0,0,0,0,0,0,0,0,0,-1,1434,652,0,0
217,372,0,0,0,0,0,0,0,0,0,-1,1441,652,0,0
224,372,0,0,0,0,0,0,0,0,0,-1,1448,652,0,0
231,372,0,0,0,0,0,0,0,0,0,-1,1455,652,0,0
238,372,0,0,0,0,0,0,0,0,0,-1,1462,652,0,0
245,372,0,0,0,0,0,0,0,0,0,-1,1469,652,0,0
252,372,0,0,0,0,0,0,0,0,0,-1,1476,652,0,0
259,372,0,0,0,0,0,0,0,0,0,-1,1483,652,0,0
266,372,0,0,0,0,0,0,0,0,0,-1,1490,652,0,0
273,372,0,0,0,0,0,0,0,0,0,-1,1497,652,0,0
280,372,0,0,0,0,0,0,0,0,0,-1,1504,652,0,0
287,372,0,0,0,0,0,0,0,0,0,-1,1511,652,0,0
294,372,0,0,0,0,0,0,0,0,0,-1,1518,652,0,0
301,372,0,0,0,0,0,0,0,0,0,-1,1525,652,0,0
308,372,0,0,0,0,0,0,0,0,0,-1,1532,652,0,0
315,372,0,0,0,0,0,0,0,0,0,-1,1539,652,0,0
322,372,0,0,0,0,0,0,0,0,0,-1,1546,652,0,0
329,372,0,0,0,0,0,0,0,0,0,-1,1553,652,0,0
336,372,0,0,0,0,0,0,0,0,0,-1,1560,652,0,0
343,372,0,0,0,0,0,0,0,0,0,-1,1567,652,0,0
350,372,0,0,0,0,0,0,0,0,0,-1,1574,652,0,0
357,372,0,0,0,0,0,0,0,0,0,-1,1581,652,0,0
364,372,0,0,0,0,0,0,0,0,0,-1,1588,652,0,0
371,372,0,0,0,0,0,0,0,0,0,-1,1595,652,0,0
378,372,0,0,0,0,0,0,0,0,0,-1,1602,652,0,0
385,372,0,0,0,0,0,0,0,0,0,-1,1609,652,0,0
392,372,0,0,0,0,0,0,0,0,0,-1,1616,652,0,0
399,372,0,0,0,0,0,0,0,0,0,-1,1623,652,0,0
406,372,0,0,0,0,0,0,0,0,0,-1,1630,652,0,0
413,372,0,0,0,0,0,0,0,0,0,-1,1637,652,0,0
420,372,0,0,0,0,0,0,0,0,0,-1,1644,652,0,0
427,372,0,0,0,0,0,0,0,0,0,-1,1651,652,0,0
434,372,0,0,0,0,0,0,0,0,0,-1,1658,652,0,0
441,372,0,0,0,0,0,0,0,0,0,-1,1665,652,0,0
448,372,0,0,0,0,0,0,0,0,0,-1,1672,652,0,0
455,372,0,0,0,0,0,0,0,0,0,-1,1679,652,0,0
462,372,0,0,0,0,0,0,0,0,0,-1,1686,652,0,0
469,372,0,0,0,0,0,0,0,0,0,-1,1693,652,0,0
476,372,0,0,0,0,0,0,0,0,0,-1,1700,652,0,0
483,372,8.74182,1.53125,0,0,0,0,0,0,0,-1,1707,652,8.74186,-1.53126
490,372,9.78455,1.67096,0,0,0,0,0,0,0,-1,1714,652,9.7846,-1.67093
497,372,9.97644,1.46069,0,0,0,0,0,0,0,-1,1721,652,9.97647,-1.46071
504,372,10.1216,1.28375,0,0,0,0,0,0,0,-1,1728,652,10.1216,-1.28376
511,372,11.7367,-0.0272217,0,0,0,0,0,0,0,-1,1735,652,11.7367,0.0272326
518,372,12.0657,-0.0995483,0,0,0,0,0,0,0,-1,1742,652,12.0657,0.0995285
525,372,12.3947,-0.171814,0,0,0,0,0,0,0,-1,1749,652,12.3946,0.171824
532,372,9.36597,1.72034,0,0,0,0,0,0,0,-1,1756,652,9.36597,-1.72036
539,372,7.82886,-0.0865479,0,0,0,0,0,0,0,-1,1763,652,7.82882,0.0865771
546,372,10.953,-0.187195,0,0,0,0,0,0,0,-1,1770,652,10.953,0.187181
553,372,7.87354,-2.30817,0,0,0,0,0,0,0,-1,1777,652,7.87348,2.30816
560,372,8.05835,-1.77582,-0.0181408,0.00388871,-0.00677194,0.00580392,-0.020056,-1.29518,0.0156678,0.0417625,1784,652,8.05839,1.77584
567,372,8.14368,-1.24066,-0.0140524,0.00354537,-0.00496838,0.0048512,-0.0153582,-1.31378,0.0121822,0.0230619,1791,652,8.14363,1.24068
574,372,8.19714,-0.992493,-0.010582,0.00260012,-0.0036979,0.0035666,-0.0115485,-1.31515,0.0091233,0.0151096,1798,652,8.19718,0.992487
581,372,8.19043,-0.841797,-0.00759683,0.00171767,-0.00264005,0.00241391,-0.00829307,-1.31295,0.00648487,0.0147838,1805,652,8.19039,0.841806
588,372,8.18408,-0.651672,-0.00524918,0.00104542,-0.00188933,0.00156896,-0.00577272,-1.30048,0.00446433,0.0156484,1812,652,8.18409,0.651644
595,372,8.16187,-0.460083,-0.00330875,0.00056609,-0.00133844,0.000983455,-0.00372611,-1.26852,0.00286865,0.0139667,1819,652,8.16185,0.460053
602,372,8.1792,-0.278625,-0.00144043,0.000515933,-0.000818404,0.000813143,-0.00173764,-1.22245,0.00150459,0.0134601,1826,652,8.1792,0.278606
609,372,8.15918,-0.0678711,-0.000143502,9.58265e-05,-0.000806548,0.000791539,-0.000839214,-0.859044,0.00094165,0.012804,1833,652,8.15923,0.0678896
616,372,8.1698,0.143066,0.0010877,-0.000432755,-0.00116339,0.00171723,-0.00106228,-0.495996,0.00161953,0.0123634,1840,652,8.16978,-0.143036
623,372,8.18665,0.359558,0.00257221,-0.00113801,-0.00131552,0.00299131,-0.00155711,-0.308415,0.0026692,0.0116117,1847,652,8.18666,-0.35955
630,372,8.17078,0.54834,0.00473543,-0.0010504,-0.00169492,0.00519538,-0.00151036,-0.264988,0.00406175,0.0156306,1854,652,8.1708,-0.548363
637,372,8.20752,0.719055,0.00851564,0.000270977,-0.00239711,0.00916193,-0.000375311,-0.26335,0.00623682,0.0202402,1861,652,8.2075,-0.719035
644,372,8.27417,0.973267,0.0125688,0.00114896,-0.0031594,0.0133846,0.000333161,-0.252693,0.00881414,0.0199502,1868,652,8.27422,-0.973289
651,372,8.32251,1.22168,0.0184045,0.00290946,-0.00398387,0.0193688,0.00194519,-0.237476,0.0123154,0.0433459,1875,652,8.32247,-1.2217
658,372,8.36401,1.38983,0,0,0,0,0,0,0,-1,1882,652,8.36398,-1.38981
665,372,8.1178,1.89673,0,0,0,0,0,0,0,-1,1889,652,8.11778,-1.89675
672,372,7.22559,3.03308,0,0,0,0,0,0,0,-1,1896,652,7.22561,-3.03306
679,372,8.4137,2.41138,0,0,0,0,0,0,0,-1,1903,652,8.41365,-2.41136
686,372,9.61511,1.97632,0,0,0,0,0,0,0,-1,1910,652,9.61512,-1.97632
693,372,0,0,0,0,0,0,0,0,0,-1,1917,652,0,0
700,372,0,0,0,0,0,0,0,0,0,-1,1924,652,0,0
707,372,0,0,0,0,0,0,0,0,0,-1,1931,652,0,0
714,372,0,0,0,0,0,0,0,0,0,-1,1938,652,0,0
721,372,0,0,0,0,0,0,0,0,0,-1,1945,652,0,0
728,372,0,0,0,0,0,0,0,0,0,-1,1952,652,0,0
735,372,0,0,0,0,0,0,0,0,0,-1,1959,652,0,0
742,372,0,0,0,0,0,0,0,0,0,-1,1966,652,0,0
749,372,0,0,0,0,0,0,0,0,0,-1,1973,652,0,0
756,372,0,0,0,0,0,0,0,0,0,-1,1980,652,0,0
763,372,0,0,0,0,0,0,0,0,0,-1,1987,652,0,0
770,372,0,0,0,0,0,0,0,0,0,-1,1994,652,0,0
777,372,0,0,0,0,0,0,0,0,0,-1,2001,652,0,0
784,372,0,0,0,0,0,0,0,0,0,-1,2008,652,0,0
791,372,0,0,0,0,0,0,0,0,0,-1,2015,652,0,0
798,372,0,0,0,0,0,0,0,0,0,-1,2022,652,0,0
805,372,0,0,0,0,0,0,0,0,0,-1,2029,652,0,0
812,372,0,0,0,0,0,0,0,0,0,-1,2036,652,0,0
-700,365,0,0,0,0,0,0,0,0,0,-1,524,659,0,0
-693,365,0,0,0,0,0,0,0,0,0,-1,531,659,0,0
-686,365,0,0,0,0,0,0,0,0,0,-1,538,659,0,0
-679,365,0,0,0,0,0,0,0,0,0,-1,545,659,0,0
-672,365,0,0,0,0,0,0,0,0,0,-1,552,659,0,0
-665,365,0,0,0,0,0,0,0,0,0,-1,559,659,0,0
-658,365,0,0,0,0,0,0,0,0,0,-1,566,659,0,0
-651,365,0,0,0,0,0,0,0,0,0,-1,573,659,0,0
-644,365,0,0,0,0,0,0,0,0,0,-1,580,659,0,0
-637,365,0,0,0,0,0,0,0,0,0,-1,587,659,0,0
-630,365,0,0,0,0,0,0,0,0,0,-1,594,659,0,0
-623,365,0,0,0,0,0,0,0,0,0,-1,601,659,0,0
-616,365,0,0,0,0,0,0,0,0,0,-1,608,659,0,0
-609,365,0,0,0,0,0,0,0,0,0,-1,615,659,0,0
-602,365,0,0,0,0,0,0,0,0,0,-1,622,659,0,0
-595,365,0,0,0,0,0,0,0,0,0,-1,629,659,0,0
-588,365,0,0,0,0,0,0,0,0,0,-1,636,659,0,0
-581,365,0,0,0,0,0,0,0,0,0,-1,643,659,0,0
-574,365,-1.83624,1.87457,0.00439805,0.0162282,-0.0298513,0.0407448,-0.0201185,-0.883207,0.0358058,0.0445794,650,659,-1.83625,-1.87455
-567,365,-2.29413,1.4375,0.00103647,0.0150098,-0.0300756,0.0388996,-0.0228533,-0.899525,0.036052,0.0432213,657,659,-2.29413,-1.4375
-560,365,-2.72125,0.467163,-0.00200157,0.0142648,-0.0282405,0.03552,-0.0232567,-0.925603,0.03418,0.0471584,664,659,-2.72128,-0.467171
-553,365,-3.94324,1.3606,0,0,0,0,0,0,0,-1,671,659,-3.94326,-1.36059
-546,365,-3.29694,0.104858,0,0,0,0,0,0,0,-1,678,659,-3.29692,-0.104875
-539,365,-3.43518,-0.12738,0,0,0,0,0,0,0,-1,685,659,-3.43516,0.127368
-532,365,-3.47424,-0.21875,0,0,0,0,0,0,0,-1,692,659,-3.47426,0.218724
-525,365,-3.48224,-0.464294,-0.00815533,0.00813611,-0.00989658,0.0128082,-0.0128274,-1.12973,0.0148007,0.0393341,699,659,-3.48225,0.464305
-518,365,-3.53931,-0.77124,-0.00801378,0.00647853,-0.00762355,0.00975023,-0.0112855,-1.16541,0.0121557,0.0233471,706,659,-3.53933,0.771237
-511,365,-3.63757,-0.919556,-0.00652068,0.00592767,-0.0040492,0.00712888,-0.00772189,-1.28241,0.00857637,0.0178623,713,659,-3.63755,0.919528
-504,365,-3.65692,-1.1048,-0.00558776,0.00493341,-0.00127137,0.00508487,-0.00573921,-1.45223,0.00625309,0.012683,720,659,-3.65692,1.10478
-497,365,-3.65479,-1.30145,-0.00373381,0.00287629,-0.000340549,0.00289379,-0.00375131,-1.51946,0.00384718,0.0124854,727,659,-3.65476,1.30147
-490,365,-3.6391,-1.48309,-0.00246727,0.00122688,8.14835e-05,0.00122868,-0.00246907,1.54875,0.00217456,0.012945,734,659,-3.63912,1.48308
-483,365,-3.63812,-1.63922,-0.00127647,-0.000227761,0.000575106,2.6148e-05,-0.00153038,1.15503,0.00102908,0.0118979,741,659,-3.6381,1.6392
-476,365,-3.63086,-1.81213,-0.000456074,-0.00173362,0.00100679,9.74881e-05,-0.00228718,0.502711,0.0015583,0.011885,748,659,-3.63086,1.81211
-469,365,-3.63025,-1.98651,-2.09534e-05,-0.00327402,0.00152962,0.000585304,-0.00388028,0.377351,0.0028024,0.0115283,755,659,-3.63026,1.9865
-462,365,-3.62372,-2.15228,7.16932e-05,-0.00479031,0.0021041,0.000855814,-0.00557443,0.35672,0.00403195,0.0129143,762,659,-3.62374,2.15231
-455,365,-3.63293,-2.32605,-0.000488335,-0.00573308,0.0030712,0.000927748,-0.00714916,0.432033,0.00510354,0.0143056,769,659,-3.63292,2.32606
-448,365,-3.59302,-2.5683,-0.00149418,-0.00679766,0.00441085,0.00100066,-0.0092925,0.514752,0.00655407,0.0168335,776,659,-3.59303,2.56831
-441,365,-3.6861,-2.78912,-0.00325638,-0.00796497,0.00619103,0.00101289,-0.0122342,0.603704,0.0085139,0.0380914,783,659,-3.68607,2.78915
-434,365,-3.59155,-2.92719,-0.00574656,-0.00893141,0.00845274,0.00126244,-0.0159404,0.692294,0.0110718,0.0429928,790,659,-3.59158,2.92717
-427,365,-3.44836,-3.30334,0,0,0,0,0,0,0,-1,797,659,-3.44836,3.30334
-420,365,-4.58813,-3.16376,0,0,0,0,0,0,0,-1,804,659,-4.58816,3.16374
-413,365,0.141357,0.672729,0,0,0,0,0,0,0,-1,811,659,0.141365,-0.672714
-406,365,-1.75067,-0.934448,0,0,0,0,0,0,0,-1,818,659,-1.7507,0.934424
-399,365,-4.10242,-1.25439,0,0,0,0,0,0,0,-1,825,659,-4.10244,1.25438
-392,365,-7.46545,-0.779724,0,0,0,0,0,0,0,-1,832,659,-7.46543,0.779744
-385,365,-6.27875,-0.887573,0,0,0,0,0,0,0,-1,839,659,-6.27874,0.887545
-378,365,-5.34503,-0.263306,0,0,0,0,0,0,0,-1,846,659,-5.34504,0.263275
-371,365,0,0,0,0,0,0,0,0,0,-1,853,659,0,0
-364,365,0,0,0,0,0,0,0,0,0,-1,860,659,0,0
-357,365,0,0,0,0,0,0,0,0,0,-1,867,659,0,0
-350,365,0,0,0,0,0,0,0,0,0,-1,874,659,0,0
-343,365,0,0,0,0,0,0,0,0,0,-1,881,659,0,0
-336,365,0,0,0,0,0,0,0,0,0,-1,888,659,0,0
-329,365,0,0,0,0,0,0,0,0,0,-1,895,659,0,0
-322,365,0,0,0,0,0,0,0,0,0,-1,902,659,0,0
-315,365,0,0,0,0,0,0,0,0,0,-1,909,659,0,0
-308,365,0,0,0,0,0,0,0,0,0,-1,916,659,0,0
-301,365,0,0,0,0,0,0,0,0,0,-1,923,659,0,0
-294,365,0,0,0,0,0,0,0,0,0,-1,930,659,0,0
-287,365,0,0,0,0,0,0,0,0,0,-1,937,659,0,0
-280,365,0,0,0,0,0,0,0,0,0,-1,944,659,0,0
-273,365,0,0,0,0,0,0,0,0,0,-1,951,659,0,0
-266,365,0,0,0,0,0,0,0,0,0,-1,958,659,0,0
-259,365,0,0,0,0,0,0,0,0,0,-1,965,659,0,0
-252,365,0,0,0,0,0,0,0,0,0,-1,972,659,0,0
-245,365,0,0,0,0,0,0,0,0,0,-1,979,659,0,0
-238,365,0,0,0,0,0,0,0,0,0,-1,986,659,0,0
-231,365,0,0,0,0,0,0,0,0,0,-1,993,659,0,0
-224,365,0,0,0,0,0,0,0,0,0,-1,1000,659,0,0
-217,365,0,0,0,0,0,0,0,0,0,-1,1007,659,0,0
-210,365,0,0,0,0,0,0,0,0,0,-1,1014,659,0,0
-203,365,0,0,0,0,0,0,0,0,0,-1,1021,659,0,0
-196,365,0,0,0,0,0,0,0,0,0,-1,1028,659,0,0
-189,365,0,0,0,0,0,0,0,0,0,-1,1035,659,0,0
-182,365,0,0,0,0,0,0,0,0,0,-1,1042,659,0,0
-175,365,0,0,0,0,0,0,0,0,0,-1,1049,659,0,0
-168,365,0,0,0,0,0,0,0,0,0,-1,1056,659,0,0
-161,365,0,0,0,0,0,0,0,0,0,-1,1063,659,0,0
-154,365,0,0,0,0,0,0,0,0,0,-1,1070,659,0,0
-147,365,0,0,0,0,0,0,0,0,0,-1,1077,659,0,0
-140,365,0,0,0,0,0,0,0,0,0,-1,1084,659,0,0
-133,365,0,0,0,0,0,0,0,0,0,-1,1091,659,0,0
-126,365,0,0,0,0,0,0,0,0,0,-1,1098,659,0,0
-119,365,0,0,0,0,0,0,0,0,0,-1,1105,659,0,0
-112,365,0,0,0,0,0,0,0,0,0,-1,1112,659,0,0
-105,365,0,0,0,0,0,0,0,0,0,-1,1119,659,0,0
-98,365,0,0,0,0,0,0,0,0,0,-1,1126,659,0,0
-91,365,0,0,0,0,0,0,0,0,0,-1,1133,659,0,0
-84,365,0,0,0,0,0,0,0,0,0,-1,1140,659,0,0
-77,365,0,0,0,0,0,0,0,0,0,-1,1147,659,0,0
-70,365,0,0,0,0,0,0,0,0,0,-1,1154,659,0,0
-63,365,0,0,0,0,0,0,0,0,0,-1,1161,659,0,0
-56,365,0,0,0,0,0,0,0,0,0,-1,1168,659,0,0
-49,365,0,0,0,0,0,0,0,0,0,-1,1175,659,0,0
-42,365,0,0,0,0,0,0,0,0,0,-1,1182,659,0,0
-35,365,0,0,0,0,0,0,0,0,0,-1,1189,659,0,0
-28,365,0,0,0,0,0,0,0,0,0,-1,1196,659,0,0
-21,365,0,0,0,0,0,0,0,0,0,-1,1203,659,0,0
-14,365,0,0,0,0,0,0,0,0,0,-1,1210,659,0,0
-7,365,0,0,0,0,0,0,0,0,0,-1,1217,659,0,0
0,365,0,0,0,0,0,0,0,0,0,-1,1224,659,0,0
7,365,0,0,0,0,0,0,0,0,0,-1,1231,659,0,0
14,365,0,0,0,0,0,0,0,0,0,-1,1238,659,0,0
21,365,0,0,0,0,0,0,0,0,0,-1,1245,659,0,0
28,365,0,0,0,0,0,0,0,0,0,-1,1252,659,0,0
35,365,0,0,0,0,0,0,0,0,0,-1,1259,659,0,0
42,365,0,0,0,0,0,0,0,0,0,-1,1266,659,0,0
49,365,0,0,0,0,0,0,0,0,0,-1,1273,659,0,0
56,365,0,0,0,0,0,0,0,0,0,-1,1280,659,0,0
63,365,0,0,0,0,0,0,0,0,0,-1,1287,659,0,0
70,365,0,0,0,0,0,0,0,0,0,-1,1294,659,0,0
77,365,0,0,0,0,0,0,0,0,0,-1,1301,659,0,0
84,365,0,0,0,0,0,0,0,0,0,-1,1308,659,0,0
91,365,0,0,0,0,0,0,0,0,0,-1,1315,659,0,0
98,365,0,0,0,0,0,0,0,0,0,-1,1322,659,0,0
105,365,0,0,0,0,0,0,0,0,0,-1,1329,659,0,0
112,365,0,0,0,0,0,0,0,0,0,-1,1336,659,0,0
119,365,0,0,0,0,0,0,0,0,0,-1,1343,659,0,0
126,365,0,0,0,0,0,0,0,0,0,-1,1350,659,0,0
133,365,0,0,0,0,0,0,0,0,0,-1,1357,659,0,0
140,365,0,0,0,0,0,0,0,0,0,-1,1364,659,0,0
147,365,0,0,0,0,0,0,0,0,0,-1,1371,659,0,0
154,365,0,0,0,0,0,0,0,0,0,-1,1378,659,0,0
161,365,0,0,0,0,0,0,0,0,0,-1,1385,659,0,0
168,365,0,0,0,0,0,0,0,0,0,-1,1392,659,0,0
175,365,0,0,0,0,0,0,0,0,0,-1,1399,659,0,0
182,365,0,0,0,0,0,0,0,0,0,-1,1406,659,0,0
189,365,0,0,0,0,0,0,0,0,0,-1,1413,659,0,0
196,365,0,0,0,0,0,0,0,0,0,-1,1420,659,0,0
203,365,0,0,0,0,0,0,0,0,0,-1,1427,659,0,0
210,365,0,0,0,0,0,0,0,0,0,-1,1434,659,0,0
217,365,0,0,0,0,0,0,0,0,0,-1,1441,659,0,0
224,365,0,0,0,0,0,0,0,0,0,-1,1448,659,0,0
231,365,0,0,0,0,0,0,0,0,0,-1,1455,659,0,0
238,365,0,0,0,0,0,0,0,0,0,-1,1462,659,0,0
245,365,0,0,0,0,0,0,0,0,0,-1,1469,659,0,0
252,365,0,0,0,0,0,0,0,0,0,-1,1476,659,0,0
259,365,0,0,0,0,0,0,0,0,0,-1,1483,659,0,0
266,365,0,0,0,0,0,0,0,0,0,-1,1490,659,0,0
273,365,0,0,0,0,0,0,0,0,0,-1,1497,659,0,0
280,365,0,0,0,0,0,0,0,0,0,-1,1504,659,0,0
287,365,0,0,0,0,0,0,0,0,0,-1,1511,659,0,0
294,365,0,0,0,0,0,0,0,0,0,-1,1518,659,0,0
301,365,0,0,0,0,0,0,0,0,0,-1,1525,659,0,0
308,365,0,0,0,0,0,0,0,0,0,-1,1532,659,0,0
315,365,0,0,0,0,0,0,0,0,0,-1,1539,659,0,0
322,365,0,0,0,0,0,0,0,0,0,-1,1546,659,0,0
329,365,0,0,0,0,0,0,0,0,0,-1,1553,659,0,0
336,365,0,0,0,0,0,0,0,0,0,-1,1560,659,0,0
343,365,0,0,0,0,0,0,0,0,0,-1,1567,659,0,0
350,365,0,0,0,0,0,0,0,0,0,-1,1574,659,0,0
357,365,0,0,0,0,0,0,0,0,0,-1,1581,659,0,0
364,365,0,0,0,0,0,0,0,0,0,-1,1588,659,0,0
371,365,0,0,0,0,0,0,0,0,0,-1,1595,659,0,0
378,365,0,0,0,0,0,0,0,0,0,-1,1602,659,0,0
385,365,0,0,0,0,0,0,0,0,0,-1,1609,659,0,0
392,365,0,0,0,0,0,0,0,0,0,-1,1616,659,0,0
399,365,0,0,0,0,0,0,0,0,0,-1,1623,659,0,0
406,365,0,0,0,0,0,0,0,0,0,-1,1630,659,0,0
413,365,0,0,0,0,0,0,0,0,0,-1,1637,659,0,0
420,365,0,0,0,0,0,0,0,0,0,-1,1644,659,0,0
427,365,0,0,0,0,0,0,0,0,0,-1,1651,659,0,0
434,365,0,0,0,0,0,0,0,0,0,-1,1658,659,0,0
441,365,0,0,0,0,0,0,0,0,0,-1,1665,659,0,0
448,365,0,0,0,0,0,0,0,0,0,-1,1672,659,0,0
455,365,0,0,0,0,0,0,0,0,0,-1,1679,659,0,0
462,365,0,0,0,0,0,0,0,0,0,-1,1686,659,0,0
469,365,0,0,0,0,0,0,0,0,0,-1,1693,659,0,0
476,365,0,0,0,0,0,0,0,0,0,-1,1700,659,0,0
483,365,0,0,0,0,0,0,0,0,0,-1,1707,659,0,0
490,365,8.39551,0.471252,0,0,0,0,0,0,0,-1,1714,659,8.39551,-0.471241
497,365,9.89233,1.35394,0,0,0,0,0,0,0,-1,1721,659,9.89237,-1.35396
504,365,10.1414,1.18005,0,0,0,0,0,0,0,-1,1728,659,10.1413,-1.18004
511,365,10.5151,0.993896,0,0,0,0,0,0,0,-1,1735,659,10.5152,-0.993894
518,365,11.2029,0.398132,0,0,0,0,0,0,0,-1,1742,659,11.2029,-0.398136
525,365,11.3424,0.597229,0,0,0,0,0,0,0,-1,1749,659,11.3424,-0.597203
532,365,11.2446,1.00629,0,0,0,0,0,0,0,-1,1756,659,11.2446,-1.00631
539,365,12.6301,1.03204,0,0,0,0,0,0,0,-1,1763,659,12.6302,-1.03204
546,365,11.647,0.84198,0,0,0,0,0,0,0,-1,1770,659,11.6469,-0.841955
553,365,12.028,-0.558899,0,0,0,0,0,0,0,-1,1777,659,12.028,0.558873
560,365,9.73889,-2.49536,0,0,0,0,0,0,0,-1,1784,659,9.73886,2.49537
567,365,9.28003,-1.89606,-0.017475,0.00457503,-0.00586444,0.00603772,-0.0189377,-1.32637,0.0150471,0.0469314,1791,659,9.28001,1.89609
574,365,8.55811,-1.10107,-0.0130095,0.00308121,-0.00440618,0.00420875,-0.0141371,-1.32027,0.011097,0.0308631,1798,659,8.55811,1.10109
581,365,8.39246,-0.87146,-0.0092586,0.00182976,-0.00315686,0.00266553,-0.0100944,-1.31199,0.00777198,0.0168434,1805,659,8.39247,0.871446
588,365,8.36426,-0.645935,-0.00637354,0.000967753,-0.00227537,0.00161578,-0.00702157,-1.29334,0.00530235,0.0123691,1812,659,8.36423,0.645921
595,365,8.37537,-0.436279,-0.00415461,0.000427883,-0.00156704,0.0009125,-0.00463923,-1.27087,0.0034376,0.0121688,1819,659,8.37542,0.436304
602,365,8.36914,-0.239014,-0.0021779,0.000409804,-0.000884953,0.000683497,-0.00245159,-1.27085,0.00190358,0.0128916,1826,659,8.36909,0.239029
609,365,8.33752,-0.041687,-0.000782847,4.60243e-05,-0.000746259,0.000485204,-0.00122203,-1.03887,0.00101581,0.0137757,1833,659,8.33748,0.0416919
616,365,8.36658,0.146851,0.000409671,-0.000450362,-0.000997945,0.00106631,-0.001107,-0.581969,0.00125483,0.0148398,1840,659,8.36656,-0.146867
623,365,8.39758,0.353882,0.00180944,-0.0011361,-0.00100488,0.0021196,-0.00144626,-0.299376,0.00207095,0.010634,1847,659,8.39763,-0.353872
630,365,8.37561,0.542297,0.00375454,-0.000957492,-0.00124818,0.00406475,-0.0012677,-0.243595,0.00321677,0.0146976,1854,659,8.37556,-0.542285
637,365,8.38367,0.706543,0.00715652,0.000388047,-0.00169114,0.00755554,-1.0971e-05,-0.231708,0.00504068,0.0204906,1861,659,8.38361,-0.706552
644,365,8.41333,0.908752,0.0106289,0.00130871,-0.00219202,0.0111187,0.000818912,-0.219836,0.00715514,0.0144179,1868,659,8.41328,-0.908769
651,365,8.50098,1.1485,0.0156278,0.00295137,-0.0027322,0.0161916,0.00238756,-0.203499,0.0100931,0.0250323,1875,659,8.50103,-1.14851
658,365,8.27563,1.16736,0.0225789,0.00584756,-0.00322361,0.0231785,0.00524796,-0.183902,0.014034,0.0418283,1882,659,8.27567,-1.16735
665,365,8.16748,1.39349,0,0,0,0,0,0,0,-1,1889,659,8.16751,-1.3935
672,365,9.05249,0.789734,0,0,0,0,0,0,0,-1,1896,659,9.05252,-0.789742
679,365,8.49744,2.29791,0,0,0,0,0,0,0,-1,1903,659,8.49744,-2.29793
686,365,9.25122,2.93066,0,0,0,0,0,0,0,-1,1910,659,9.25117,-2.93068
693,365,9.40967,1.14368,0,0,0,0,0,0,0,-1,1917,659,9.40962,-1.14368
700,365,0,0,0,0,0,0,0,0,0,-1,1924,659,0,0
707,365,0,0,0,0,0,0,0,0,0,-1,1931,659,0,0
714,365,0,0,0,0,0,0,0,0,0,-1,1938,659,0,0
721,365,0,0,0,0,0,0,0,0,0,-1,1945,659,0,0
728,365,0,0,0,0,0,0,0,0,0,-1,1952,659,0,0
735,365,0,0,0,0,0,0,0,0,0,-1,1959,659,0,0
742,365,0,0,0,0,0,0,0,0,0,-1,1966,659,0,0
749,365,0,0,0,0,0,0,0,0,0,-1,1973,659,0,0
756,365,0,0,0,0,0,0,0,0,0,-1,1980,659,0,0
763,365,0,0,0,0,0,0,0,0,0,-1,1987,659,0,0
770,365,0,0,0,0,0,0,0,0,0,-1,1994,659,0,0
777,365,0,0,0,0,0,0,0,0,0,-1,2001,659,0,0
784,365,0,0,0,0,0,0,0,0,0,-1,2008,659,0,0
791,365,0,0,0,0,0,0,0,0,0,-1,2015,659,0,0
798,365,0,0,0,0,0,0,0,0,0,-1,2022,659,0,0
805,365,0,0,0,0,0,0,0,0,0,-1,2029,659,0,0
812,365,0,0,0,0,0,0,0,0,0,-1,2036,659,0,0
-700,358,0,0,0,0,0,0,0,0,0,-1,524,666,0,0
-693,358,0,0,0,0,0,0,0,0,0,-1,531,666,0,0
-686,358,0,0,0,0,0,0,0,0,0,-1,538,666,0,0
-679,358,0,0,0,0,0,0,0,0,0,-1,545,666,0,0
-672,358,0,0,0,0,0,0,0,0,0,-1,552,666,0,0
-665,358,0,0,0,0,0,0,0,0,0,-1,559,666,0,0
-658,358,0,0,0,0,0,0,0,0,0,-1,566,666,0,0
-651,358,0,0,0,0,0,0,0,0,0,-1,573,666,0,0
-644,358,0,0,0,0,0,0,0,0,0,-1,580,666,0,0
-637,358,0,0,0,0,0,0,0,0,0,-1,587,666,0,0
-630,358,0,0,0,0,0,0,0,0,0,-1,594,666,0,0
-623,358,0,0,0,0,0,0,0,0,0,-1,601,666,0,0
-616,358,0,0,0,0,0,0,0,0,0,-1,608,666,0,0
-609,358,0,0,0,0,0,0,0,0,0,-1,615,666,0,0
-602,358,0,0,0,0,0,0,0,0,0,-1,622,666,0,0
-595,358,0,0,0,0,0,0,0,0,0,-1,629,666,0,0
-588,358,0,0,0,0,0,0,0,0,0,-1,636,666,0,0
-581,358,-2.9502,2.69635,0.00418819,0.0229147,-0.0176533,0.0335341,-0.0064313,-1.02923,0.0247796,0.0452089,643,666,-2.9502,-2.69637
-574,358,-2.79327,2.15497,0.00229135,0.0193101,-0.0204425,0.0329436,-0.0113421,-0.98262,0.026563,0.043818,650,666,-2.79326,-2.15495
-567,358,-2.83911,1.65131,-0.00015092,0.0169289,-0.0212443,0.0312854,-0.0145075,-0.976507,0.0270236,0.0461515,657,666,-2.83911,-1.65132
-560,358,-3.14063,0.866699,-0.00257221,0.0150573,-0.0204096,0.0284743,-0.0159892,-0.989245,0.0260062,0.0492085,664,666,-3.14062,-0.866687
-553,358,-3.91821,0.631042,-0.00464605,0.0133842,-0.0183423,0.0248071,-0.0160689,-1.01381,0.0237788,0.0485414,671,666,-3.91821,-0.631017
-546,358,-3.46906,0.273743,0,0,0,0,0,0,0,-1,678,666,-3.46906,-0.273743
-539,358,-3.58423,-0.00463867,-0.00608809,0.010573,-0.0127268,0.0174533,-0.0129684,-1.07519,0.0176275,0.0481746,685,666,-3.58426,0.00464538
-532,358,-3.70331,-0.338623,-0.00655395,0.00964874,-0.00956785,0.0140844,-0.0109896,-1.13669,0.0145132,0.0423002,692,666,-3.70333,0.338637
-525,358,-3.72107,-0.633362,-0.0073688,0.00710849,-0.00756089,0.0103372,-0.0105975,-1.16721,0.0120869,0.0269919,699,666,-3.72106,0.633369
-518,358,-3.74139,-0.713562,-0.00708344,0.00522747,-0.00592224,0.00761382,-0.0094698,-1.18775,0.00988261,0.0210536,706,666,-3.7414,0.713556
-511,358,-3.78278,-0.922119,-0.00554535,0.00459242,-0.00320548,0.00552093,-0.00647386,-1.28885,0.00693248,0.0151671,713,666,-3.78276,0.922092
-504,358,-3.79559,-1.1015,-0.00444582,0.0036626,-0.00105491,0.00379759,-0.00458081,-1.44352,0.00484431,0.0114054,720,666,-3.79557,1.10152
-497,358,-3.80426,-1.29028,-0.00276366,0.00168419,-0.000224278,0.00169547,-0.00277494,-1.52054,0.00260595,0.0109978,727,666,-3.80426,1.29031
-490,358,-3.79437,-1.46765,-0.00161295,4.70058e-05,0.000172196,6.46804e-05,-0.00163063,1.46851,0.00110927,0.00996232,734,666,-3.79437,1.46764
-483,358,-3.80365,-1.63184,-0.000530224,-0.0014999,0.000658483,-0.00019734,-0.00183278,0.468063,0.00116167,0.00961302,741,666,-3.80364,1.63181
-476,358,-3.79285,-1.8161,0.000191588,-0.00314894,0.00111354,0.000528746,-0.0034861,0.294006,0.00251888,0.0103735,748,666,-3.79287,1.81611
-469,358,-3.79688,-1.98273,0.000560595,-0.0048838,0.00166998,0.00103201,-0.00535522,0.275132,0.00395924,0.0116698,755,666,-3.79687,1.98275
-462,358,-3.79553,-2.146,0.000598202,-0.00657283,0.00229162,0.00126797,-0.00724259,0.284349,0.00530184,0.0158531,762,666,-3.79551,2.14599
-455,358,-3.76001,-2.33856,-1.97476e-05,-0.00783594,0.00334226,0.00121452,-0.00907021,0.353757,0.00648964,0.019308,769,666,-3.76003,2.33858
-448,358,-3.65308,-2.59821,-0.00113054,-0.00926031,0.00479776,0.0010928,-0.0114837,0.433952,0.00804481,0.041042,776,666,-3.65309,2.59821
-441,358,-4.00464,-3.06586,0,0,0,0,0,0,0,-1,783,666,-4.00463,3.06585
-434,358,-3.59692,-3.08447,0,0,0,0,0,0,0,-1,790,666,-3.59692,3.08445
-427,358,-3.56189,-3.15729,0,0,0,0,0,0,0,-1,797,666,-3.56192,3.15729
-420,358,0.200195,1.08234,0,0,0,0,0,0,0,-1,804,666,0.200174,-1.08231
-413,358,0.0325317,0.161072,0,0,0,0,0,0,0,-1,811,666,0.0325501,-0.161098
-406,358,-0.505615,0.0419312,0,0,0,0,0,0,0,-1,818,666,-0.50561,-0.0419371
-399,358,-1.31213,0.190735,0,0,0,0,0,0,0,-1,825,666,-1.31215,-0.190763
-392,358,-3.73914,-0.832214,0,0,0,0,0,0,0,-1,832,666,-3.73915,0.832202
-385,358,-5.95178,-1.69141,0,0,0,0,0,0,0,-1,839,666,-5.9518,1.69143
-378,358,0,0,0,0,0,0,0,0,0,-1,846,666,0,0
-371,358,0,0,0,0,0,0,0,0,0,-1,853,666,0,0
-364,358,0,0,0,0,0,0,0,0,0,-1,860,666,0,0
-357,358,0,0,0,0,0,0,0,0,0,-1,867,666,0,0
-350,358,0,0,0,0,0,0,0,0,0,-1,874,666,0,0
-343,358,0,0,0,0,0,0,0,0,0,-1,881,666,0,0
-336,358,0,0,0,0,0,0,0,0,0,-1,888,666,0,0
-329,358,0,0,0,0,0,0,0,0,0,-1,895,666,0,0
-322,358,0,0,0,0,0,0,0,0,0,-1,902,666,0,0
-315,358,0,0,0,0,0,0,0,0,0,-1,909,666,0,0
-308,358,0,0,0,0,0,0,0,0,0,-1,916,666,0,0
-301,358,0,0,0,0,0,0,0,0,0,-1,923,666,0,0
-294,358,0,0,0,0,0,0,0,0,0,-1,930,666,0,0
-287,358,0,0,0,0,0,0,0,0,0,-1,937,666,0,0
-280,358,0,0,0,0,0,0,0,0,0,-1,944,666,0,0
-273,358,0,0,0,0,0,0,0,0,0,-1,951,666,0,0
-266,358,0,0,0,0,0,0,0,0,0,-1,958,666,0,0
-259,358,0,0,0,0,0,0,0,0,0,-1,965,666,0,0
-252,358,0,0,0,0,0,0,0,0,0,-1,972,666,0,0
-245,358,0,0,0,0,0,0,0,0,0,-1,979,666,0,0
-238,358,0,0,0,0,0,0,0,0,0,-1,986,666,0,0
-231,358,0,0,0,0,0,0,0,0,0,-1,993,666,0,0
-224,358,0,0,0,0,0,0,0,0,0,-1,1000,666,0,0
-217,358,0,0,0,0,0,0,0,0,0,-1,1007,666,0,0
-210,358,0,0,0,0,0,0,0,0,0,-1,1014,666,0,0
-203,358,0,0,0,0,0,0,0,0,0,-1,1021,666,0,0
-196,358,0,0,0,0,0,0,0,0,0,-1,1028,666,0,0
-189,358,0,0,0,0,0,0,0,0,0,-1,1035,666,0,0
-182,358,0,0,0,0,0,0,0,0,0,-1,1042,666,0,0
-175,358,0,0,0,0,0,0,0,0,0,-1,1049,666,0,0
-168,358,0,0,0,0,0,0,0,0,0,-1,1056,666,0,0
-161,358,0,0,0,0,0,0,0,0,0,-1,1063,666,0,0
-154,358,0,0,0,0,0,0,0,0,0,-1,1070,666,0,0
-147,358,0,0,0,0,0,0,0,0,0,-1,1077,666,0,0
-140,358,0,0,0,0,0,0,0,0,0,-1,1084,666,0,0
-133,358,0,0,0,0,0,0,0,0,0,-1,1091,666,0,0
-126,358,0,0,0,0,0,0,0,0,0,-1,1098,666,0,0
-119,358,0,0,0,0,0,0,0,0,0,-1,1105,666,0,0
-112,358,0,0,0,0,0,0,0,0,0,-1,1112,666,0,0
-105,358,0,0,0,0,0,0,0,0,0,-1,1119,666,0,0
-98,358,0,0,0,0,0,0,0,0,0,-1,1126,666,0,0
-91,358,0,0,0,0,0,0,0,0,0,-1,1133,666,0,0
-84,358,0,0,0,0,0,0,0,0,0,-1,1140,666,0,0
-77,358,0,0,0,0,0,0,0,0,0,-1,1147,666,0,0
-70,358,0,0,0,0,0,0,0,0,0,-1,1154,666,0,0
-63,358,0,0,0,0,0,0,0,0,0,-1,1161,666,0,0
-56,358,0,0,0,0,0,0,0,0,0,-1,1168,666,0,0
-49,358,0,0,0,0,0,0,0,0,0,-1,1175,666,0,0
-42,358,0,0,0,0,0,0,0,0,0,-1,1182,666,0,0
-35,358,0,0,0,0,0,0,0,0,0,-1,1189,666,0,0
-28,358,0,0,0,0,0,0,0,0,0,-1,1196,666,0,0
-21,358,0,0,0,0,0,0,0,0,0,-1,1203,666,0,0
-14,358,0,0,0,0,0,0,0,0,0,-1,1210,666,0,0
-7,358,0,0,0,0,0,0,0,0,0,-1,1217,666,0,0
0,358,0,0,0,0,0,0,0,0,0,-1,1224,666,0,0
7,358,0,0,0,0,0,0,0,0,0,-1,1231,666,0,0
14,358,0,0,0,0,0,0,0,0,0,-1,1238,666,0,0
21,358,0,0,0,0,0,0,0,0,0,-1,1245,666,0,0
28,358,0,0,0,0,0,0,0,0,0,-1,1252,666,0,0
35,358,0,0,0,0,0,0,0,0,0,-1,1259,666,0,0
42,358,0,0,0,0,0,0,0,0,0,-1,1266,666,0,0
49,358,0,0,0,0,0,0,0,0,0,-1,1273,666,0,0
56,358,0,0,0,0,0,0,0,0,0,-1,1280,666,0,0
63,358,0,0,0,0,0,0,0,0,0,-1,1287,666,0,0
70,358,0,0,0,0,0,0,0,0,0,-1,1294,666,0,0
77,358,0,0,0,0,0,0,0,0,0,-1,1301,666,0,0
84,358,0,0,0,0,0,0,0,0,0,-1,1308,666,0,0
91,358,0,0,0,0,0,0,0,0,0,-1,1315,666,0,0
98,358,0,0,0,0,0,0,0,0,0,-1,1322,666,0,0
105,358,0,0,0,0,0,0,0,0,0,-1,1329,666,0,0
112,358,0,0,0,0,0,0,0,0,0,-1,1336,666,0,0
119,358,0,0,0,0,0,0,0,0,0,-1,1343,666,0,0
126,358,0,0,0,0,0,0,0,0,0,-1,1350,666,0,0
133,358,0,0,0,0,0,0,0,0,0,-1,1357,666,0,0
140,358,0,0,0,0,0,0,0,0,0,-1,1364,666,0,0
147,358,0,0,0,0,0,0,0,0,0,-1,1371,666,0,0
154,358,0,0,0,0,0,0,0,0,0,-1,1378,666,0,0
161,358,0,0,0,0,0,0,0,0,0,-1,1385,666,0,0
168,358,0,0,0,0,0,0,0,0,0,-1,1392,666,0,0
175,358,0,0,0,0,0,0,0,0,0,-1,1399,666,0,0
182,358,0,0,0,0,0,0,0,0,0,-1,1406,666,0,0
189,358,0,0,0,0,0,0,0,0,0,-1,1413,666,0,0
196,358,0,0,0,0,0,0,0,0,0,-1,1420,666,0,0
203,358,0,0,0,0,0,0,0,0,0,-1,1427,666,0,0
210,358,0,0,0,0,0,0,0,0,0,-1,1434,666,0,0
217,358,0,0,0,0,0,0,0,0,0,-1,1441,666,0,0
224,358,0,0,0,0,0,0,0,0,0,-1,1448,666,0,0
231,358,0,0,0,0,0,0,0,0,0,-1,1455,666,0,0
238,358,0,0,0,0,0,0,0,0,0,-1,1462,666,0,0
245,358,0,0,0,0,0,0,0,0,0,-1,1469,666,0,0
252,358,0,0,0,0,0,0,0,0,0,-1,1476,666,0,0
259,358,0,0,0,0,0,0,0,0,0,-1,1483,666,0,0
266,358,0,0,0,0,0,0,0,0,0,-1,1490,666,0,0
273,358,0,0,0,0,0,0,0,0,0,-1,1497,666,0,0
280,358,0,0,0,0,0,0,0,0,0,-1,1504,666,0,0
287,358,0,0,0,0,0,0,0,0,0,-1,1511,666,0,0
294,358,0,0,0,0,0,0,0,0,0,-1,1518,666,0,0
301,358,0,0,0,0,0,0,0,0,0,-1,1525,666,0,0
308,358,0,0,0,0,0,0,0,0,0,-1,1532,666,0,0
315,358,0,0,0,0,0,0,0,0,0,-1,1539,666,0,0
322,358,0,0,0,0,0,0,0,0,0,-1,1546,666,0,0
329,358,0,0,0,0,0,0,0,0,0,-1,1553,666,0,0
336,358,0,0,0,0,0,0,0,0,0,-1,1560,666,0,0
343,358,0,0,0,0,0,0,0,0,0,-1,1567,666,0,0
350,358,0,0,0,0,0,0,0,0,0,-1,1574,666,0,0
357,358,0,0,0,0,0,0,0,0,0,-1,1581,666,0,0
364,358,0,0,0,0,0,0,0,0,0,-1,1588,666,0,0
371,358,0,0,0,0,0,0,0,0,0,-1,1595,666,0,0
378,358,0,0,0,0,0,0,0,0,0,-1,1602,666,0,0
385,358,0,0,0,0,0,0,0,0,0,-1,1609,666,0,0
392,358,0,0,0,0,0,0,0,0,0,-1,1616,666,0,0
399,358,0,0,0,0,0,0,0,0,0,-1,1623,666,0,0
406,358,0,0,0,0,0,0,0,0,0,-1,1630,666,0,0
413,358,0,0,0,0,0,0,0,0,0,-1,1637,666,0,0
420,358,0,0,0,0,0,0,0,0,0,-1,1644,666,0,0
427,358,0,0,0,0,0,0,0,0,0,-1,1651,666,0,0
434,358,0,0,0,0,0,0,0,0,0,-1,1658,666,0,0
441,358,0,0,0,0,0,0,0,0,0,-1,1665,666,0,0
448,358,0,0,0,0,0,0,0,0,0,-1,1672,666,0,0
455,358,0,0,0,0,0,0,0,0,0,-1,1679,666,0,0
462,358,0,0,0,0,0,0,0,0,0,-1,1686,666,0,0
469,358,0,0,0,0,0,0,0,0,0,-1,1693,666,0,0
476,358,0,0,0,0,0,0,0,0,0,-1,1700,666,0,0
483,358,0,0,0,0,0,0,0,0,0,-1,1707,666,0,0
490,358,0,0,0,0,0,0,0,0,0,-1,1714,666,0,0
497,358,8.57239,1.1322,0,0,0,0,0,0,0,-1,1721,666,8.57234,-1.13219
504,358,10.5972,0.832947,0,0,0,0,0,0,0,-1,1728,666,10.5972,-0.832968
511,358,10.6873,0.868469,0,0,0,0,0,0,0,-1,1735,666,10.6872,-0.868484
518,358,10.7079,0.866211,0,0,0,0,0,0,0,-1,1742,666,10.7079,-0.8662
525,358,10.797,0.692993,0,0,0,0,0,0,0,-1,1749,666,10.797,-0.693009
532,358,13.5295,1.88013,0,0,0,0,0,0,0,-1,1756,666,13.5296,-1.88011
539,358,12.9438,1.70734,0,0,0,0,0,0,0,-1,1763,666,12.9438,-1.70732
546,358,12.3792,1.53558,0,0,0,0,0,0,0,-1,1770,666,12.3792,-1.5356
553,358,11.6584,1.26172,0,0,0,0,0,0,0,-1,1777,666,11.6585,-1.26175
560,358,10.8234,1.43042,0,0,0,0,0,0,0,-1,1784,666,10.8233,-1.43041
567,358,10.526,-2.54449,0,0,0,0,0,0,0,-1,1791,666,10.526,2.54451
574,358,8.95154,-1.32062,0,0,0,0,0,0,0,-1,1798,666,8.95153,1.32063
581,358,8.6554,-0.84668,-0.010799,0.00152714,-0.0038124,0.00261099,-0.0118828,-1.29381,0.00892051,0.0251192,1805,666,8.65543,0.846692
588,358,8.53613,-0.652283,-0.00739103,0.000544324,-0.00275311,0.00140594,-0.00825264,-1.26749,0.00602533,0.0143715,1812,666,8.53613,0.652312
595,358,8.57837,-0.417236,-0.00489866,3.55869e-05,-0.00184102,0.000646784,-0.00550986,-1.25026,0.00390672,0.0118571,1819,666,8.57837,0.417245
602,358,8.56482,-0.220215,-0.00281693,0.000109963,-0.000987273,0.000411844,-0.00311882,-1.27405,0.00222921,0.0120529,1826,666,8.56488,0.220218
609,358,8.53357,-0.0509644,-0.00131395,-0.000116295,-0.00070338,0.00020864,-0.00163889,-1.13804,0.00116837,0.0158958,1833,666,8.53362,0.0509369
616,358,8.54871,0.142761,-0.000162845,-0.000502802,-0.000831666,0.000516035,-0.00118168,-0.684595,0.00100498,0.0152618,1840,666,8.54872,-0.142786
623,358,8.56909,0.338196,0.00113729,-0.00108507,-0.000726809,0.00135388,-0.00130166,-0.289622,0.00153328,0.0137336,1847,666,8.56907,-0.338214
630,358,8.55298,0.528198,0.00284993,-0.000829081,-0.000870665,0.00304557,-0.00102473,-0.221036,0.00244463,0.0168587,1854,666,8.553,-0.528209
637,358,8.54749,0.715942,0.00584937,0.000448669,-0.00111894,0.00607202,0.000226022,-0.196415,0.00397482,0.0221506,1861,666,8.54748,-0.71594
644,358,8.57422,0.912659,0.00877532,0.00133938,-0.00146259,0.00905266,0.00106205,-0.187394,0.00571408,0.0176915,1868,666,8.57421,-0.912664
651,358,8.62854,1.14282,0.0130022,0.00277674,-0.00183748,0.0133223,0.00245658,-0.172509,0.00818649,0.0183892,1875,666,8.62855,-1.1428
658,358,8.47412,1.32532,0.0188671,0.00520268,-0.00217148,0.0192039,0.0048659,-0.153867,0.0115282,0.0309169,1882,666,8.47409,-1.32534
665,358,8.36292,1.39612,0.0269779,0.00904507,-0.00244452,0.0273052,0.00871782,-0.133081,0.0161043,0.0419709,1889,666,8.36286,-1.39609
672,358,8.87708,1.30811,0.0380753,0.0151859,-0.00267663,0.0383841,0.0148771,-0.114873,0.022347,0.0479992,1896,666,8.87704,-1.30808
679,358,8.90369,2.1933,0.0526724,0.0243429,-0.00279899,0.0529463,0.024069,-0.0975444,0.0306106,0.0430262,1903,666,8.90363,-2.1933
686,358,9.65405,2.65137,0.0716238,0.0376336,-0.00269929,0.0718368,0.0374205,-0.0787558,0.0414871,0.0464991,1910,666,9.65411,-2.65139
693,358,10.5232,3.14716,0,0,0,0,0,0,0,-1,1917,666,10.5232,-3.14715
700,358,0,0,0,0,0,0,0,0,0,-1,1924,666,0,0
707,358,0,0,0,0,0,0,0,0,0,-1,1931,666,0,0
714,358,0,0,0,0,0,0,0,0,0,-1,1938,666,0,0
721,358,0,0,0,0,0,0,0,0,0,-1,1945,666,0,0
728,358,0,0,0,0,0,0,0,0,0,-1,1952,666,0,0
735,358,0,0,0,0,0,0,0,0,0,-1,1959,666,0,0
742,358,0,0,0,0,0,0,0,0,0,-1,1966,666,0,0
749,358,0,0,0,0,0,0,0,0,0,-1,1973,666,0,0
756,358,0,0,0,0,0,0,0,0,0,-1,1980,666,0,0
763,358,0,0,0,0,0,0,0,0,0,-1,1987,666,0,0
770,358,0,0,0,0,0,0,0,0,0,-1,1994,666,0,0
777,358,0,0,0,0,0,0,0,0,0,-1,2001,666,0,0
784,358,0,0,0,0,0,0,0,0,0,-1,2008,666,0,0
791,358,0,0,0,0,0,0,0,0,0,-1,2015,666,0,0
798,358,0,0,0,0,0,0,0,0,0,-1,2022,666,0,0
805,358,0,0,0,0,0,0,0,0,0,-1,2029,666,0,0
812,358,0,0,0,0,0,0,0,0,0,-1,2036,666,0,0
-700,351,0,0,0,0,0,0,0,0,0,-1,524,673,0,0
-693,351,0,0,0,0,0,0,0,0,0,-1,531,673,0,0
-686,351,0,0,0,0,0,0,0,0,0,-1,538,673,0,0
-679,351,0,0,0,0,0,0,0,0,0,-1,545,673,0,0
-672,351,0,0,0,0,0,0,0,0,0,-1,552,673,0,0
-665,351,0,0,0,0,0,0,0,0,0,-1,559,673,0,0
-658,351,0,0,0,0,0,0,0,0,0,-1,566,673,0,0
-651,351,0,0,0,0,0,0,0,0,0,-1,573,673,0,0
-644,351,0,0,0,0,0,0,0,0,0,-1,580,673,0,0
-637,351,0,0,0,0,0,0,0,0,0,-1,587,673,0,0
-630,351,0,0,0,0,0,0,0,0,0,-1,594,673,0,0
-623,351,0,0,0,0,0,0,0,0,0,-1,601,673,0,0
-616,351,0,0,0,0,0,0,0,0,0,-1,608,673,0,0
-609,351,0,0,0,0,0,0,0,0,0,-1,615,673,0,0
-602,351,0,0,0,0,0,0,0,0,0,-1,622,673,0,0
-595,351,0,0,0,0,0,0,0,0,0,-1,629,673,0,0
-588,351,0,0,0,0,0,0,0,0,0,-1,636,673,0,0
-581,351,-3.80444,3.50916,-0.00125608,0.0274258,-0.00937214,0.0302167,-0.00404697,-1.28137,0.0216201,0.0452683,643,673,-3.80442,-3.50916
-574,351,-3.66425,2.48633,-0.000933137,0.0231665,-0.0121571,0.0282337,-0.00600034,-1.17588,0.0211088,0.0455832,650,673,-3.66425,-2.48635
-567,351,-3.46033,1.73804,-0.00186678,0.01956,-0.0135082,0.0260875,-0.00839428,-1.12066,0.0207633,0.0451227,657,673,-3.46033,-1.73806
-560,351,-3.57037,0.9599,-0.00327959,0.0165351,-0.0135497,0.0234131,-0.0101576,-1.10107,0.0198793,0.04517,664,673,-3.57036,-0.959917
-553,351,-3.71869,0.228149,-0.0046679,0.013951,-0.0125728,0.0202858,-0.0110027,-1.10408,0.0183275,0.0452108,671,673,-3.7187,-0.228179
-546,351,-3.70087,0.043457,0,0,0,0,0,0,0,-1,678,673,-3.70088,-0.0434348
-539,351,-3.30945,0.718567,-0.00533155,0.0101166,-0.00932112,0.0144981,-0.00971303,-1.13139,0.014069,0.0422214,685,673,-3.30945,-0.71854
-532,351,-3.70978,-0.163208,-0.00565423,0.00883004,-0.00699326,0.0116554,-0.00847958,-1.18684,0.011673,0.0309074,692,673,-3.7098,0.163186
-525,351,-3.94611,-0.618408,-0.00632155,0.00616641,-0.00564208,0.00833791,-0.00849306,-1.2034,0.0097175,0.0193541,699,673,-3.9461,0.618438
-518,351,-3.98102,-0.75177,-0.00594428,0.0041529,-0.00451988,0.00588056,-0.00767194,-1.2057,0.00784729,0.0123839,706,673,-3.98101,0.751754
-511,351,-3.95532,-0.923706,-0.00444282,0.00341442,-0.00252804,0.00415753,-0.00518592,-1.2849,0.00540532,0.0112858,713,673,-3.95533,0.923696
-504,351,-3.9552,-1.09747,-0.00328704,0.00248571,-0.000923292,0.00262979,-0.00343111,-1.416,0.00350944,0.00967067,720,673,-3.9552,1.0975
-497,351,-3.9707,-1.27222,-0.00178599,0.000555373,-0.000206497,0.000573446,-0.00180406,-1.4835,0.00143264,0.00970436,727,673,-3.97072,1.27223
-490,351,-3.9707,-1.43958,-0.000752248,-0.00112882,0.000159806,-0.000693573,-0.00118749,0.351882,0.000688822,0.00934972,734,673,-3.97073,1.43957
-483,351,-3.96222,-1.62,0.000209323,-0.00283384,0.000622181,0.000331615,-0.00295613,0.19408,0.00209008,0.0116251,741,673,-3.96222,1.62
-476,351,-3.96826,-1.80463,0.000820076,-0.00469683,0.00108691,0.00102649,-0.00490325,0.187675,0.00365931,0.0109638,748,673,-3.96826,1.80462
-469,351,-3.96191,-1.96039,0.00110847,-0.00670699,0.00166718,0.00144925,-0.00704777,0.201627,0.00524872,0.0120788,755,673,-3.96189,1.96036
-462,351,-3.95941,-2.1546,0.00107671,-0.00867566,0.00233205,0.00160568,-0.00920462,0.223049,0.00673574,0.0152523,762,673,-3.95941,2.15461
-455,351,-3.9198,-2.396,0.000401529,-0.0103871,0.00342671,0.00139791,-0.0113835,0.282967,0.00809528,0.024937,769,673,-3.91977,2.396
-448,351,-3.92242,-2.2262,-0.000787714,-0.0123061,0.00493901,0.00104006,-0.0141339,0.35444,0.00978774,0.047453,776,673,-3.92241,2.2262
-441,351,-3.82776,-2.22369,0,0,0,0,0,0,0,-1,783,673,-3.82774,2.22367
-434,351,-3.81708,-2.28003,0,0,0,0,0,0,0,-1,790,673,-3.81706,2.28006
-427,351,-2.05157,-2.7785,0,0,0,0,0,0,0,-1,797,673,-2.05157,2.77848
-420,351,-1.06989,-2.43665,0,0,0,0,0,0,0,-1,804,673,-1.06991,2.43663
-413,351,-0.392334,-2.06671,0,0,0,0,0,0,0,-1,811,673,-0.392363,2.06672
-406,351,-1.86316,-2.58105,0,0,0,0,0,0,0,-1,818,673,-1.86313,2.58106
-399,351,1.00952,-1.53455,0,0,0,0,0,0,0,-1,825,673,1.00954,1.53457
-392,351,-1.02197,0.877136,0,0,0,0,0,0,0,-1,832,673,-1.02195,-0.877143
-385,351,-1.47205,1.04437,0,0,0,0,0,0,0,-1,839,673,-1.47207,-1.04435
-378,351,0,0,0,0,0,0,0,0,0,-1,846,673,0,0
-371,351,0,0,0,0,0,0,0,0,0,-1,853,673,0,0
-364,351,0,0,0,0,0,0,0,0,0,-1,860,673,0,0
-357,351,0,0,0,0,0,0,0,0,0,-1,867,673,0,0
-350,351,0,0,0,0,0,0,0,0,0,-1,874,673,0,0
-343,351,0,0,0,0,0,0,0,0,0,-1,881,673,0,0
-336,351,0,0,0,0,0,0,0,0,0,-1,888,673,0,0
-329,351,0,0,0,0,0,0,0,0,0,-1,895,673,0,0
-322,351,0,0,0,0,0,0,0,0,0,-1,902,673,0,0
-315,351,0,0,0,0,0,0,0,0,0,-1,909,673,0,0
-308,351,0,0,0,0,0,0,0,0,0,-1,916,673,0,0
-301,351,0,0,0,0,0,0,0,0,0,-1,923,673,0,0
-294,351,0,0,0,0,0,0,0,0,0,-1,930,673,0,0
-287,351,0,0,0,0,0,0,0,0,0,-1,937,673,0,0
-280,351,0,0,0,0,0,0,0,0,0,-1,944,673,0,0
-273,351,0,0,0,0,0,0,0,0,0,-1,951,673,0,0
-266,351,0,0,0,0,0,0,0,0,0,-1,958,673,0,0
-259,351,0,0,0,0,0,0,0,0,0,-1,965,673,0,0
-252,351,0,0,0,0,0,0,0,0,0,-1,972,673,0,0
-245,351,0,0,0,0,0,0,0,0,0,-1,979,673,0,0
-238,351,0,0,0,0,0,0,0,0,0,-1,986,673,0,0
-231,351,0,0,0,0,0,0,0,0,0,-1,993,673,0,0
-224,351,0,0,0,0,0,0,0,0,0,-1,1000,673,0,0
-217,351,0,0,0,0,0,0,0,0,0,-1,1007,673,0,0
-210,351,0,0,0,0,0,0,0,0,0,-1,1014,673,0,0
-203,351,0,0,0,0,0,0,0,0,0,-1,1021,673,0,0
-196,351,0,0,0,0,0,0,0,0,0,-1,1028,673,0,0
-189,351,0,0,0,0,0,0,0,0,0,-1,1035,673,0,0
-182,351,0,0,0,0,0,0,0,0,0,-1,1042,673,0,0
-175,351,0,0,0,0,0,0,0,0,0,-1,1049,673,0,0
-168,351,0,0,0,0,0,0,0,0,0,-1,1056,673,0,0
-161,351,0,0,0,0,0,0,0,0,0,-1,1063,673,0,0
-154,351,0,0,0,0,0,0,0,0,0,-1,1070,673,0,0
-147,351,0,0,0,0,0,0,0,0,0,-1,1077,673,0,0
-140,351,0,0,0,0,0,0,0,0,0,-1,1084,673,0,0
-133,351,0,0,0,0,0,0,0,0,0,-1,1091,673,0,0
-126,351,0,0,0,0,0,0,0,0,0,-1,1098,673,0,0
-119,351,0,0,0,0,0,0,0,0,0,-1,1105,673,0,0
-112,351,0,0,0,0,0,0,0,0,0,-1,1112,673,0,0
-105,351,0,0,0,0,0,0,0,0,0,-1,1119,673,0,0
-98,351,0,0,0,0,0,0,0,0,0,-1,1126,673,0,0
-91,351,0,0,0,0,0,0,0,0,0,-1,1133,673,0,0
-84,351,0,0,0,0,0,0,0,0,0,-1,1140,673,0,0
-77,351,0,0,0,0,0,0,0,0,0,-1,1147,673,0,0
-70,351,0,0,0,0,0,0,0,0,0,-1,1154,673,0,0
-63,351,0,0,0,0,0,0,0,0,0,-1,1161,673,0,0
-56,351,0,0,0,0,0,0,0,0,0,-1,1168,673,0,0
-49,351,0,0,0,0,0,0,0,0,0,-1,1175,673,0,0
-42,351,0,0,0,0,0,0,0,0,0,-1,1182,673,0,0
-35,351,0,0,0,0,0,0,0,0,0,-1,1189,673,0,0
-28,351,0,0,0,0,0,0,0,0,0,-1,1196,673,0,0
-21,351,0,0,0,0,0,0,0,0,0,-1,1203,673,0,0
-14,351,0,0,0,0,0,0,0,0,0,-1,1210,673,0,0
-7,351,0,0,0,0,0,0,0,0,0,-1,1217,673,0,0
0,351,0,0,0,0,0,0,0,0,0,-1,1224,673,0,0
7,351,0,0,0,0,0,0,0,0,0,-1,1231,673,0,0
14,351,0,0,0,0,0,0,0,0,0,-1,1238,673,0,0
21,351,0,0,0,0,0,0,0,0,0,-1,1245,673,0,0
28,351,0,0,0,0,0,0,0,0,0,-1,1252,673,0,0
35,351,0,0,0,0,0,0,0,0,0,-1,1259,673,0,0
42,351,0,0,0,0,0,0,0,0,0,-1,1266,673,0,0
49,351,0,0,0,0,0,0,0,0,0,-1,1273,673,0,0
56,351,0,0,0,0,0,0,0,0,0,-1,1280,673,0,0
63,351,0,0,0,0,0,0,0,0,0,-1,1287,673,0,0
70,351,0,0,0,0,0,0,0,0,0,-1,1294,673,0,0
77,351,0,0,0,0,0,0,0,0,0,-1,1301,673,0,0
84,351,0,0,0,0,0,0,0,0,0,-1,1308,673,0,0
91,351,0,0,0,0,0,0,0,0,0,-1,1315,673,0,0
98,351,0,0,0,0,0,0,0,0,0,-1,1322,673,0,0
105,351,0,0,0,0,0,0,0,0,0,-1,1329,673,0,0
112,351,0,0,0,0,0,0,0,0,0,-1,1336,673,0,0
119,351,0,0,0,0,0,0,0,0,0,-1,1343,673,0,0
126,351,0,0,0,0,0,0,0,0,0,-1,1350,673,0,0
133,351,0,0,0,0,0,0,0,0,0,-1,1357,673,0,0
140,351,0,0,0,0,0,0,0,0,0,-1,1364,673,0,0
147,351,0,0,0,0,0,0,0,0,0,-1,1371,673,0,0
154,351,0,0,0,0,0,0,0,0,0,-1,1378,673,0,0
161,351,0,0,0,0,0,0,0,0,0,-1,1385,673,0,0
168,351,0,0,0,0,0,0,0,0,0,-1,1392,673,0,0
175,351,0,0,0,0,0,0,0,0,0,-1,1399,673,0,0
182,351,0,0,0,0,0,0,0,0,0,-1,1406,673,0,0
189,351,0,0,0,0,0,0,0,0,0,-1,1413,673,0,0
196,351,0,0,0,0,0,0,0,0,0,-1,1420,673,0,0
203,351,0,0,0,0,0,0,0,0,0,-1,1427,673,0,0
210,351,0,0,0,0,0,0,0,0,0,-1,1434,673,0,0
217,351,0,0,0,0,0,0,0,0,0,-1,1441,673,0,0
224,351,0,0,0,0,0,0,0,0,0,-1,1448,673,0,0
231,351,0,0,0,0,0,0,0,0,0,-1,1455,673,0,0
238,351,0,0,0,0,0,0,0,0,0,-1,1462,673,0,0
245,351,0,0,0,0,0,0,0,0,0,-1,1469,673,0,0
252,351,0,0,0,0,0,0,0,0,0,-1,1476,673,0,0
259,351,0,0,0,0,0,0,0,0,0,-1,1483,673,0,0
266,351,0,0,0,0,0,0,0,0,0,-1,1490,673,0,0
273,351,0,0,0,0,0,0,0,0,0,-1,1497,673,0,0
280,351,0,0,0,0,0,0,0,0,0,-1,1504,673,0,0
287,351,0,0,0,0,0,0,0,0,0,-1,1511,673,0,0
294,351,0,0,0,0,0,0,0,0,0,-1,1518,673,0,0
301,351,0,0,0,0,0,0,0,0,0,-1,1525,673,0,0
308,351,0,0,0,0,0,0,0,0,0,-1,1532,673,0,0
315,351,0,0,0,0,0,0,0,0,0,-1,1539,673,0,0
322,351,0,0,0,0,0,0,0,0,0,-1,1546,673,0,0
329,351,0,0,0,0,0,0,0,0,0,-1,1553,673,0,0
336,351,0,0,0,0,0,0,0,0,0,-1,1560,673,0,0
343,351,0,0,0,0,0,0,0,0,0,-1,1567,673,0,0
350,351,0,0,0,0,0,0,0,0,0,-1,1574,673,0,0
357,351,0,0,0,0,0,0,0,0,0,-1,1581,673,0,0
364,351,0,0,0,0,0,0,0,0,0,-1,1588,673,0,0
371,351,0,0,0,0,0,0,0,0,0,-1,1595,673,0,0
378,351,0,0,0,0,0,0,0,0,0,-1,1602,673,0,0
385,351,0,0,0,0,0,0,0,0,0,-1,1609,673,0,0
392,351,0,0,0,0,0,0,0,0,0,-1,1616,673,0,0
399,351,0,0,0,0,0,0,0,0,0,-1,1623,673,0,0
406,351,0,0,0,0,0,0,0,0,0,-1,1630,673,0,0
413,351,0,0,0,0,0,0,0,0,0,-1,1637,673,0,0
420,351,0,0,0,0,0,0,0,0,0,-1,1644,673,0,0
427,351,0,0,0,0,0,0,0,0,0,-1,1651,673,0,0
434,351,0,0,0,0,0,0,0,0,0,-1,1658,673,0,0
441,351,0,0,0,0,0,0,0,0,0,-1,1665,673,0,0
448,351,0,0,0,0,0,0,0,0,0,-1,1672,673,0,0
455,351,0,0,0,0,0,0,0,0,0,-1,1679,673,0,0
462,351,0,0,0,0,0,0,0,0,0,-1,1686,673,0,0
469,351,0,0,0,0,0,0,0,0,0,-1,1693,673,0,0
476,351,0,0,0,0,0,0,0,0,0,-1,1700,673,0,0
483,351,0,0,0,0,0,0,0,0,0,-1,1707,673,0,0
490,351,0,0,0,0,0,0,0,0,0,-1,1714,673,0,0
497,351,0,0,0,0,0,0,0,0,0,-1,1721,673,0,0
504,351,10.8842,1.61615,0,0,0,0,0,0,0,-1,1728,673,10.8842,-1.61618
511,351,15.4548,0.0236816,0,0,0,0,0,0,0,-1,1735,673,15.4549,-0.0236664
518,351,15.4282,0.152954,0,0,0,0,0,0,0,-1,1742,673,15.4282,-0.152972
525,351,15.4595,0.39502,0,0,0,0,0,0,0,-1,1749,673,15.4595,-0.395007
532,351,13.8259,2.63629,0,0,0,0,0,0,0,-1,1756,673,13.8259,-2.63632
539,351,13.2594,2.43634,0,0,0,0,0,0,0,-1,1763,673,13.2594,-2.43634
546,351,12.6396,2.22565,0,0,0,0,0,0,0,-1,1770,673,12.6396,-2.22564
553,351,12.0682,2.02832,0,0,0,0,0,0,0,-1,1777,673,12.0683,-2.02831
560,351,12.0173,0.55304,0,0,0,0,0,0,0,-1,1784,673,12.0174,-0.553028
567,351,10.7827,0.130188,0,0,0,0,0,0,0,-1,1791,673,10.7827,-0.130183
574,351,9.27625,-0.21051,0,0,0,0,0,0,0,-1,1798,673,9.27628,0.210515
581,351,8.96655,-0.321777,-0.0073347,0.000289586,0.00393772,0.00195814,-0.00900326,1.17,0.00675023,0.0426898,1805,673,8.96657,0.321761
588,351,8.69775,-0.57074,-0.00557715,-0.000213252,0.00202476,0.000465229,-0.00625563,1.24746,0.00433383,0.0278972,1812,673,8.69773,0.57076
595,351,8.75305,-0.454346,-0.00405974,-0.000491117,0.000907593,-0.000273557,-0.0042773,1.33552,0.00276487,0.0169335,1819,673,8.75309,0.454374
602,351,8.7865,-0.23645,-0.00272597,-0.000167565,0.000441805,-9.34198e-05,-0.00280012,1.40452,0.0018364,0.0173349,1826,673,8.78651,0.236478
609,351,8.80164,-0.0610352,-0.00147858,-0.00028007,-4.4128e-05,-0.000278448,-0.0014802,-1.53404,0.000908323,0.0165182,1833,673,8.80163,0.0610145
616,351,8.80347,0.128296,-0.000514182,-0.000628215,-0.000553039,-1.52281e-05,-0.00112717,-0.734031,0.000746422,0.0141476,1840,673,8.8035,-0.128313
623,351,8.78198,0.319702,0.000614598,-0.00120844,-0.000599891,0.000794288,-0.00138813,-0.291032,0.00127547,0.0150783,1847,673,8.78193,-0.31969
630,351,8.75891,0.508118,0.00206373,-0.000918387,-0.00068855,0.00221503,-0.00106969,-0.216306,0.00193448,0.0246889,1854,673,8.75892,-0.508143
637,351,8.76404,0.711365,0.00463451,0.000217841,-0.000794334,0.00477302,7.93247e-05,-0.172644,0.00315591,0.0273388,1861,673,8.76402,-0.711387
644,351,8.7395,0.907166,0.00711072,0.00103487,-0.00103432,0.00728197,0.000863619,-0.164079,0.00459391,0.0192354,1868,673,8.73956,-0.907158
651,351,8.75232,1.1145,0.0107292,0.00225213,-0.00126288,0.0109133,0.00206799,-0.144788,0.00669357,0.0147135,1875,673,8.75236,-1.11452
658,351,8.74707,1.34045,0.015685,0.00421816,-0.00147024,0.0158705,0.00403265,-0.125513,0.00952503,0.0207495,1882,673,8.74702,-1.34047
665,351,8.59558,1.43799,0.0225885,0.00755423,-0.00163802,0.0227649,0.00737784,-0.107276,0.0134117,0.0266067,1889,673,8.59559,-1.438
672,351,8.64233,1.7099,0.0321241,0.0129638,-0.0017736,0.0322869,0.012801,-0.0915298,0.0187736,0.035315,1896,673,8.64232,-1.70987
679,351,9.14673,1.77863,0.0446098,0.0208654,-0.00182713,0.0447496,0.0207256,-0.0763508,0.0258596,0.041588,1903,673,9.14669,-1.77864
686,351,10.0842,1.56036,0.0609072,0.0325706,-0.00180403,0.0610216,0.0324562,-0.0633237,0.0352547,0.0462001,1910,673,10.0842,-1.56037
693,351,11.0352,1.71332,0,0,0,0,0,0,0,-1,1917,673,11.0352,-1.71332
700,351,10.7412,0.567078,0,0,0,0,0,0,0,-1,1924,673,10.7412,-0.567079
707,351,0,0,0,0,0,0,0,0,0,-1,1931,673,0,0
714,351,0,0,0,0,0,0,0,0,0,-1,1938,673,0,0
721,351,0,0,0,0,0,0,0,0,0,-1,1945,673,0,0
728,351,0,0,0,0,0,0,0,0,0,-1,1952,673,0,0
735,351,0,0,0,0,0,0,0,0,0,-1,1959,673,0,0
742,351,0,0,0,0,0,0,0,0,0,-1,1966,673,0,0
749,351,0,0,0,0,0,0,0,0,0,-1,1973,673,0,0
756,351,0,0,0,0,0,0,0,0,0,-1,1980,673,0,0
763,351,0,0,0,0,0,0,0,0,0,-1,1987,673,0,0
770,351,0,0,0,0,0,0,0,0,0,-1,1994,673,0,0
777,351,0,0,0,0,0,0,0,0,0,-1,2001,673,0,0
784,351,0,0,0,0,0,0,0,0,0,-1,2008,673,0,0
791,351,0,0,0,0,0,0,0,0,0,-1,2015,673,0,0
798,351,0,0,0,0,0,0,0,0,0,-1,2022,673,0,0
805,351,0,0,0,0,0,0,0,0,0,-1,2029,673,0,0
812,351,0,0,0,0,0,0,0,0,0,-1,2036,673,0,0
-700,344,0,0,0,0,0,0,0,0,0,-1,524,680,0,0
-693,344,0,0,0,0,0,0,0,0,0,-1,531,680,0,0
-686,344,0,0,0,0,0,0,0,0,0,-1,538,680,0,0
-679,344,0,0,0,0,0,0,0,0,0,-1,545,680,0,0
-672,344,0,0,0,0,0,0,0,0,0,-1,552,680,0,0
-665,344,0,0,0,0,0,0,0,0,0,-1,559,680,0,0
-658,344,0,0,0,0,0,0,0,0,0,-1,566,680,0,0
-651,344,0,0,0,0,0,0,0,0,0,-1,573,680,0,0
-644,344,0,0,0,0,0,0,0,0,0,-1,580,680,0,0
-637,344,0,0,0,0,0,0,0,0,0,-1,587,680,0,0
-630,344,0,0,0,0,0,0,0,0,0,-1,594,680,0,0
-623,344,0,0,0,0,0,0,0,0,0,-1,601,680,0,0
-616,344,0,0,0,0,0,0,0,0,0,-1,608,680,0,0
-609,344,0,0,0,0,0,0,0,0,0,-1,615,680,0,0
-602,344,0,0,0,0,0,0,0,0,0,-1,622,680,0,0
-595,344,0,0,0,0,0,0,0,0,0,-1,629,680,0,0
-588,344,-5.67627,1.07837,0,0,0,0,0,0,0,-1,636,680,-5.67625,-1.07835
-581,344,-4.98511,0.791992,-0.00747979,0.0305943,-0.00191729,0.0306906,-0.00757609,-1.52061,0.0233983,0.0462237,643,680,-4.9851,-0.792016
-574,344,-4.13623,0.724182,-0.00481985,0.025894,-0.00505032,0.0267031,-0.00562897,-1.41194,0.019945,0.0490185,650,680,-4.13625,-0.724189
-567,344,-4.15546,0.727478,0,0,0,0,0,0,0,-1,657,680,-4.15544,-0.727466
-560,344,-3.97937,0.470215,0,0,0,0,0,0,0,-1,664,680,-3.97939,-0.470194
-553,344,-3.93695,0.260437,-0.00483871,0.014382,-0.00767675,0.0170717,-0.00752841,-1.23379,0.0145547,0.0484419,671,680,-3.93695,-0.260433
-546,344,-3.95935,0.059021,-0.00467911,0.0113626,-0.00747317,0.0143045,-0.00762102,-1.19576,0.0128533,0.0447931,678,680,-3.95935,-0.0590357
-539,344,-4.01514,-0.185669,-0.0045503,0.0096591,-0.00621381,0.0119931,-0.00688425,-1.21149,0.0110311,0.0373182,685,680,-4.01512,0.185645
-532,344,-4.07092,-0.409485,-0.00475474,0.00807699,-0.00452807,0.00951395,-0.00619169,-1.2635,0.00913503,0.0205315,692,680,-4.07094,0.409465
-525,344,-4.15955,-0.555603,-0.00525902,0.00533559,-0.00369896,0.00649923,-0.00642266,-1.26601,0.0074605,0.0177451,699,680,-4.15957,0.555599
-518,344,-4.17731,-0.764343,-0.00478093,0.00317888,-0.00300171,0.00418394,-0.00578599,-1.2477,0.00578086,0.0214101,706,680,-4.17733,0.764341
-511,344,-4.19275,-0.942688,-0.00333057,0.00227455,-0.00164038,0.00271933,-0.00377535,-1.30602,0.00376619,0.0170873,713,680,-4.19274,0.942713
-504,344,-4.1698,-1.10919,-0.00217532,0.00124119,-0.000503021,0.00131371,-0.00224784,-1.42761,0.00207971,0.015676,720,680,-4.16979,1.10921
-497,344,-4.16412,-1.27759,-0.000831133,-0.000704383,5.70402e-05,-0.000682493,-0.000853022,1.20438,0.000521221,0.0137897,727,680,-4.16414,1.27761
-490,344,-4.18433,-1.44446,0.000113648,-0.00251565,0.000342658,0.000157571,-0.00255957,0.127486,0.00176126,0.0129242,734,680,-4.18431,1.44448
-483,344,-4.14874,-1.61932,0.000960607,-0.00444988,0.000708608,0.00105187,-0.00454115,0.128092,0.00343221,0.0131888,741,680,-4.14872,1.61932
-476,344,-4.13306,-1.79456,0.00146052,-0.00659134,0.0010988,0.00160777,-0.00673859,0.13322,0.00511328,0.0136989,748,680,-4.13305,1.79455
-469,344,-4.14227,-1.98145,0.00165933,-0.0089327,0.0016118,0.00189916,-0.00917254,0.147718,0.00683658,0.0118555,755,680,-4.14229,1.98147
-462,344,-4.15015,-2.19635,0.00155479,-0.0112086,0.00224437,0.00193795,-0.0115918,0.169089,0.00844825,0.0173746,762,680,-4.15014,2.19634
-455,344,-4.2074,-2.14392,0.000857514,-0.0134745,0.00321025,0.00154373,-0.0141607,0.210588,0.00999485,0.037484,769,680,-4.20741,2.14393
-448,344,-4.09967,-1.85895,-0.000381482,-0.0160086,0.00453418,0.000838811,-0.0172289,0.262902,0.0117755,0.0467366,776,680,-4.09969,1.85895
-441,344,-4.00037,-1.71344,0,0,0,0,0,0,0,-1,783,680,-4.00034,1.71347
-434,344,-3.80713,-1.53107,0,0,0,0,0,0,0,-1,790,680,-3.80712,1.5311
-427,344,-3.06506,-1.45404,0,0,0,0,0,0,0,-1,797,680,-3.06505,1.45402
-420,344,-1.96582,-1.57574,0,0,0,0,0,0,0,-1,804,680,-1.96579,1.57574
-413,344,-0.817993,-1.4751,0,0,0,0,0,0,0,-1,811,680,-0.818017,1.47511
-406,344,-0.00714111,-1.25189,0,0,0,0,0,0,0,-1,818,680,-0.00714956,1.25191
-399,344,0.240051,-1.75769,0,0,0,0,0,0,0,-1,825,680,0.240079,1.75767
-392,344,1.11353,-2.05615,0,0,0,0,0,0,0,-1,832,680,1.11351,2.05616
-385,344,0,0,0,0,0,0,0,0,0,-1,839,680,0,0
-378,344,0,0,0,0,0,0,0,0,0,-1,846,680,0,0
-371,344,0,0,0,0,0,0,0,0,0,-1,853,680,0,0
-364,344,0,0,0,0,0,0,0,0,0,-1,860,680,0,0
-357,344,0,0,0,0,0,0,0,0,0,-1,867,680,0,0
-350,344,0,0,0,0,0,0,0,0,0,-1,874,680,0,0
-343,344,0,0,0,0,0,0,0,0,0,-1,881,680,0,0
-336,344,0,0,0,0,0,0,0,0,0,-1,888,680,0,0
-329,344,0,0,0,0,0,0,0,0,0,-1,895,680,0,0
-322,344,0,0,0,0,0,0,0,0,0,-1,902,680,0,0
-315,344,0,0,0,0,0,0,0,0,0,-1,909,680,0,0
-308,344,0,0,0,0,0,0,0,0,0,-1,916,680,0,0
-301,344,0,0,0,0,0,0,0,0,0,-1,923,680,0,0
-294,344,0,0,0,0,0,0,0,0,0,-1,930,680,0,0
-287,344,0,0,0,0,0,0,0,0,0,-1,937,680,0,0
-280,344,0,0,0,0,0,0,0,0,0,-1,944,680,0,0
-273,344,0,0,0,0,0,0,0,0,0,-1,951,680,0,0
-266,344,0,0,0,0,0,0,0,0,0,-1,958,680,0,0
-259,344,0,0,0,0,0,0,0,0,0,-1,965,680,0,0
-252,344,0,0,0,0,0,0,0,0,0,-1,972,680,0,0
-245,344,0,0,0,0,0,0,0,0,0,-1,979,680,0,0
-238,344,0,0,0,0,0,0,0,0,0,-1,986,680,0,0
-231,344,0,0,0,0,0,0,0,0,0,-1,993,680,0,0
-224,344,0,0,0,0,0,0,0,0,0,-1,1000,680,0,0
-217,344,0,0,0,0,0,0,0,0,0,-1,1007,680,0,0
-210,344,0,0,0,0,0,0,0,0,0,-1,1014,680,0,0
-203,344,0,0,0,0,0,0,0,0,0,-1,1021,680,0,0
-196,344,0,0,0,0,0,0,0,0,0,-1,1028,680,0,0
-189,344,0,0,0,0,0,0,0,0,0,-1,1035,680,0,0
-182,344,0,0,0,0,0,0,0,0,0,-1,1042,680,0,0
-175,344,0,0,0,0,0,0,0,0,0,-1,1049,680,0,0
-168,344,0,0,0,0,0,0,0,0,0,-1,1056,680,0,0
-161,344,0,0,0,0,0,0,0,0,0,-1,1063,680,0,0
-154,344,0,0,0,0,0,0,0,0,0,-1,1070,680,0,0
-147,344,0,0,0,0,0,0,0,0,0,-1,1077,680,0,0
-140,344,0,0,0,0,0,0,0,0,0,-1,1084,680,0,0
-133,344,0,0,0,0,0,0,0,0,0,-1,1091,680,0,0
-126,344,0,0,0,0,0,0,0,0,0,-1,1098,680,0,0
-119,344,0,0,0,0,0,0,0,0,0,-1,1105,680,0,0
-112,344,0,0,0,0,0,0,0,0,0,-1,1112,680,0,0
-105,344,0,0,0,0,0,0,0,0,0,-1,1119,680,0,0
-98,344,0,0,0,0,0,0,0,0,0,-1,1126,680,0,0
-91,344,0,0,0,0,0,0,0,0,0,-1,1133,680,0,0
-84,344,0,0,0,0,0,0,0,0,0,-1,1140,680,0,0
-77,344,0,0,0,0,0,0,0,0,0,-1,1147,680,0,0
-70,344,0,0,0,0,0,0,0,0,0,-1,1154,680,0,0
-63,344,0,0,0,0,0,0,0,0,0,-1,1161,680,0,0
-56,344,0,0,0,0,0,0,0,0,0,-1,1168,680,0,0
-49,344,0,0,0,0,0,0,0,0,0,-1,1175,680,0,0
-42,344,0,0,0,0,0,0,0,0,0,-1,1182,680,0,0
-35,344,0,0,0,0,0,0,0,0,0,-1,1189,680,0,0
-28,344,0,0,0,0,0,0,0,0,0,-1,1196,680,0,0
-21,344,0,0,0,0,0,0,0,0,0,-1,1203,680,0,0
-14,344,0,0,0,0,0,0,0,0,0,-1,1210,680,0,0
-7,344,0,0,0,0,0,0,0,0,0,-1,1217,680,0,0
0,344,0,0,0,0,0,0,0,0,0,-1,1224,680,0,0
7,344,0,0,0,0,0,0,0,0,0,-1,1231,680,0,0
14,344,0,0,0,0,0,0,0,0,0,-1,1238,680,0,0
21,344,0,0,0,0,0,0,0,0,0,-1,1245,680,0,0
28,344,0,0,0,0,0,0,0,0,0,-1,1252,680,0,0
35,344,0,0,0,0,0,0,0,0,0,-1,1259,680,0,0
42,344,0,0,0,0,0,0,0,0,0,-1,1266,680,0,0
49,344,0,0,0,0,0,0,0,0,0,-1,1273,680,0,0
56,344,0,0,0,0,0,0,0,0,0,-1,1280,680,0,0
63,344,0,0,0,0,0,0,0,0,0,-1,1287,680,0,0
70,344,0,0,0,0,0,0,0,0,0,-1,1294,680,0,0
77,344,0,0,0,0,0,0,0,0,0,-1,1301,680,0,0
84,344,0,0,0,0,0,0,0,0,0,-1,1308,680,0,0
91,344,0,0,0,0,0,0,0,0,0,-1,1315,680,0,0
98,344,0,0,0,0,0,0,0,0,0,-1,1322,680,0,0
105,344,0,0,0,0,0,0,0,0,0,-1,1329,680,0,0
112,344,0,0,0,0,0,0,0,0,0,-1,1336,680,0,0
119,344,0,0,0,0,0,0,0,0,0,-1,1343,680,0,0
126,344,0,0,0,0,0,0,0,0,0,-1,1350,680,0,0
133,344,0,0,0,0,0,0,0,0,0,-1,1357,680,0,0
140,344,0,0,0,0,0,0,0,0,0,-1,1364,680,0,0
147,344,0,0,0,0,0,0,0,0,0,-1,1371,680,0,0
154,344,0,0,0,0,0,0,0,0,0,-1,1378,680,0,0
161,344,0,0,0,0,0,0,0,0,0,-1,1385,680,0,0
168,344,0,0,0,0,0,0,0,0,0,-1,1392,680,0,0
175,344,0,0,0,0,0,0,0,0,0,-1,1399,680,0,0
182,344,0,0,0,0,0,0,0,0,0,-1,1406,680,0,0
189,344,0,0,0,0,0,0,0,0,0,-1,1413,680,0,0
196,344,0,0,0,0,0,0,0,0,0,-1,1420,680,0,0
203,344,0,0,0,0,0,0,0,0,0,-1,1427,680,0,0
210,344,0,0,0,0,0,0,0,0,0,-1,1434,680,0,0
217,344,0,0,0,0,0,0,0,0,0,-1,1441,680,0,0
224,344,0,0,0,0,0,0,0,0,0,-1,1448,680,0,0
231,344,0,0,0,0,0,0,0,0,0,-1,1455,680,0,0
238,344,0,0,0,0,0,0,0,0,0,-1,1462,680,0,0
245,344,0,0,0,0,0,0,0,0,0,-1,1469,680,0,0
252,344,0,0,0,0,0,0,0,0,0,-1,1476,680,0,0
259,344,0,0,0,0,0,0,0,0,0,-1,1483,680,0,0
266,344,0,0,0,0,0,0,0,0,0,-1,1490,680,0,0
273,344,0,0,0,0,0,0,0,0,0,-1,1497,680,0,0
280,344,0,0,0,0,0,0,0,0,0,-1,1504,680,0,0
287,344,0,0,0,0,0,0,0,0,0,-1,1511,680,0,0
294,344,0,0,0,0,0,0,0,0,0,-1,1518,680,0,0
301,344,0,0,0,0,0,0,0,0,0,-1,1525,680,0,0
308,344,0,0,0,0,0,0,0,0,0,-1,1532,680,0,0
315,344,0,0,0,0,0,0,0,0,0,-1,1539,680,0,0
322,344,0,0,0,0,0,0,0,0,0,-1,1546,680,0,0
329,344,0,0,0,0,0,0,0,0,0,-1,1553,680,0,0
336,344,0,0,0,0,0,0,0,0,0,-1,1560,680,0,0
343,344,0,0,0,0,0,0,0,0,0,-1,1567,680,0,0
350,344,0,0,0,0,0,0,0,0,0,-1,1574,680,0,0
357,344,0,0,0,0,0,0,0,0,0,-1,1581,680,0,0
364,344,0,0,0,0,0,0,0,0,0,-1,1588,680,0,0
371,344,0,0,0,0,0,0,0,0,0,-1,1595,680,0,0
378,344,0,0,0,0,0,0,0,0,0,-1,1602,680,0,0
385,344,0,0,0,0,0,0,0,0,0,-1,1609,680,0,0
392,344,0,0,0,0,0,0,0,0,0,-1,1616,680,0,0
399,344,0,0,0,0,0,0,0,0,0,-1,1623,680,0,0
406,344,0,0,0,0,0,0,0,0,0,-1,1630,680,0,0
413,344,0,0,0,0,0,0,0,0,0,-1,1637,680,0,0
420,344,0,0,0,0,0,0,0,0,0,-1,1644,680,0,0
427,344,0,0,0,0,0,0,0,0,0,-1,1651,680,0,0
434,344,0,0,0,0,0,0,0,0,0,-1,1658,680,0,0
441,344,0,0,0,0,0,0,0,0,0,-1,1665,680,0,0
448,344,0,0,0,0,0,0,0,0,0,-1,1672,680,0,0
455,344,0,0,0,0,0,0,0,0,0,-1,1679,680,0,0
462,344,0,0,0,0,0,0,0,0,0,-1,1686,680,0,0
469,344,0,0,0,0,0,0,0,0,0,-1,1693,680,0,0
476,344,0,0,0,0,0,0,0,0,0,-1,1700,680,0,0
483,344,0,0,0,0,0,0,0,0,0,-1,1707,680,0,0
490,344,0,0,0,0,0,0,0,0,0,-1,1714,680,0,0
497,344,0,0,0,0,0,0,0,0,0,-1,1721,680,0,0
504,344,0,0,0,0,0,0,0,0,0,-1,1728,680,0,0
511,344,15.4819,0.452637,0,0,0,0,0,0,0,-1,1735,680,15.4819,-0.452656
518,344,15.4491,0.723633,0,0,0,0,0,0,0,-1,1742,680,15.4491,-0.723644
525,344,15.4259,1.00104,0,0,0,0,0,0,0,-1,1749,680,15.4259,-1.00101
532,344,15.295,1.44165,0,0,0,0,0,0,0,-1,1756,680,15.2951,-1.44162
539,344,14.3729,1.48114,0,0,0,0,0,0,0,-1,1763,680,14.373,-1.48117
546,344,13.3718,1.66003,0,0,0,0,0,0,0,-1,1770,680,13.3718,-1.66001
553,344,12.5339,2.20245,0,0,0,0,0,0,0,-1,1777,680,12.5339,-2.20245
560,344,11.9363,2.14185,0,0,0,0,0,0,0,-1,1784,680,11.9362,-2.14182
567,344,11.397,0.925842,0,0,0,0,0,0,0,-1,1791,680,11.397,-0.92583
574,344,10.0004,0.504639,0,0,0,0,0,0,0,-1,1798,680,10.0004,-0.504645
581,344,9.28979,0.163513,0,0,0,0,0,0,0,-1,1805,680,9.28981,-0.163519
588,344,8.91577,-0.570251,0,0,0,0,0,0,0,-1,1812,680,8.91582,0.570253
595,344,9.04541,-0.402832,-0.00126426,-0.00104963,0.00493459,0.00377881,-0.0060927,0.79627,0.00575127,0.0347755,1819,680,9.04542,0.402857
602,344,9.09363,-0.171021,-0.000969169,-0.000501902,0.00301642,0.00228992,-0.00376099,0.824048,0.00352774,0.0249434,1826,680,9.09357,0.171024
609,344,9.00488,-0.0357666,-0.000401045,-0.000529119,0.00139379,0.000930179,-0.00186034,0.762442,0.00164067,0.014723,1833,680,9.00493,0.0357418
616,344,8.99243,0.178345,5.00863e-05,-0.000929765,0.000194793,8.73907e-05,-0.000967069,0.189217,0.000675729,0.0206238,1840,680,8.9924,-0.178373
623,344,8.96655,0.35083,0.000749336,-0.00156909,-0.000243128,0.000774558,-0.00159431,-0.103369,0.0013947,0.0185459,1847,680,8.96657,-0.350807
630,344,8.93335,0.494995,0.0018113,-0.00123759,-0.000401158,0.0018632,-0.00128949,-0.128658,0.00183022,0.0249155,1854,680,8.93341,-0.49502
637,344,8.93103,0.66571,0.00386022,-0.000234649,-0.000491832,0.00391846,-0.000292894,-0.117876,0.00271521,0.0242357,1861,680,8.93104,-0.665716
644,344,8.94885,0.890198,0.00582564,0.000511919,-0.000683977,0.00591227,0.000425291,-0.125983,0.00380767,0.0158638,1868,680,8.94886,-0.890198
651,344,8.94885,1.11804,0.00881159,0.0015492,-0.000817757,0.00890254,0.00145826,-0.110754,0.0055136,0.0114063,1875,680,8.94883,-1.11805
658,344,8.95007,1.35223,0.012891,0.00313764,-0.00094129,0.012981,0.00304763,-0.0953366,0.0078382,0.0163517,1882,680,8.95007,-1.35222
665,344,8.9082,1.52661,0.0186697,0.00609921,-0.00105343,0.0187573,0.00601155,-0.08303,0.0110598,0.0226539,1889,680,8.90826,-1.52664
672,344,8.94812,1.64746,0.0266675,0.0110083,-0.00111859,0.026747,0.0109288,-0.0709533,0.0155282,0.0169662,1896,680,8.94816,-1.64744
679,344,9.07861,1.54712,0.0371002,0.01788,-0.00112805,0.0371662,0.017814,-0.0584233,0.021464,0.0340818,1903,680,9.07864,-1.54713
686,344,9.25781,1.42517,0,0,0,0,0,0,0,-1,1910,680,9.25785,-1.42516
693,344,10.2205,1.52527,0,0,0,0,0,0,0,-1,1917,680,10.2205,-1.5253
700,344,11.443,-0.242126,0,0,0,0,0,0,0,-1,1924,680,11.4431,0.242126
707,344,12.6698,-0.227661,0,0,0,0,0,0,0,-1,1931,680,12.6699,0.227646
714,344,0,0,0,0,0,0,0,0,0,-1,1938,680,0,0
721,344,0,0,0,0,0,0,0,0,0,-1,1945,680,0,0
728,344,0,0,0,0,0,0,0,0,0,-1,1952,680,0,0
735,344,0,0,0,0,0,0,0,0,0,-1,1959,680,0,0
742,344,0,0,0,0,0,0,0,0,0,-1,1966,680,0,0
749,344,0,0,0,0,0,0,0,0,0,-1,1973,680,0,0
756,344,0,0,0,0,0,0,0,0,0,-1,1980,680,0,0
763,344,0,0,0,0,0,0,0,0,0,-1,1987,680,0,0
770,344,0,0,0,0,0,0,0,0,0,-1,1994,680,0,0
777,344,0,0,0,0,0,0,0,0,0,-1,2001,680,0,0
784,344,0,0,0,0,0,0,0,0,0,-1,2008,680,0,0
791,344,0,0,0,0,0,0,0,0,0,-1,2015,680,0,0
798,344,0,0,0,0,0,0,0,0,0,-1,2022,680,0,0
805,344,0,0,0,0,0,0,0,0,0,-1,2029,680,0,0
812,344,0,0,0,0,0,0,0,0,0,-1,2036,680,0,0
-700,337,0,0,0,0,0,0,0,0,0,-1,524,687,0,0
-693,337,0,0,0,0,0,0,0,0,0,-1,531,687,0,0
-686,337,0,0,0,0,0,0,0,0,0,-1,538,687,0,0
-679,337,0,0,0,0,0,0,0,0,0,-1,545,687,0,0
-672,337,0,0,0,0,0,0,0,0,0,-1,552,687,0,0
-665,337,0,0,0,0,0,0,0,0,0,-1,559,687,0,0
-658,337,0,0,0,0,0,0,0,0,0,-1,566,687,0,0
-651,337,0,0,0,0,0,0,0,0,0,-1,573,687,0,0
-644,337,0,0,0,0,0,0,0,0,0,-1,580,687,0,0
-637,337,0,0,0,0,0,0,0,0,0,-1,587,687,0,0
-630,337,0,0,0,0,0,0,0,0,0,-1,594,687,0,0
-623,337,0,0,0,0,0,0,0,0,0,-1,601,687,0,0
-616,337,0,0,0,0,0,0,0,0,0,-1,608,687,0,0
-609,337,0,0,0,0,0,0,0,0,0,-1,615,687,0,0
-602,337,0,0,0,0,0,0,0,0,0,-1,622,687,0,0
-595,337,0,0,0,0,0,0,0,0,0,-1,629,687,0,0
-588,337,-5.27246,1.07727,-0.0222198,0.0366825,0.00849623,0.0378835,-0.0234208,1.43037,0.0357209,0.0434496,636,687,-5.27243,-1.07726
-581,337,-5.05463,0.709045,-0.0135768,0.0324371,0.00401195,0.0327843,-0.013924,1.48447,0.0276901,0.0448944,643,687,-5.05465,-0.709067
-574,337,-4.65662,0.702637,-0.00872936,0.0273969,0.00048034,0.0274033,-0.00873575,1.5575,0.021773,0.0498077,650,687,-4.65661,-0.702635
-567,337,-4.44672,0.639771,0,0,0,0,0,0,0,-1,657,687,-4.44672,-0.639749
-560,337,-4.35553,0.415955,-0.00534847,0.018168,-0.003245,0.0186076,-0.00578802,-1.43616,0.0147188,0.0468176,664,687,-4.3555,-0.415955
-553,337,-4.20685,0.254639,-0.00506253,0.0144241,-0.00381781,0.0151454,-0.00578381,-1.38407,0.0124799,0.0494104,671,687,-4.20683,-0.254639
-546,337,-4.18311,0.0744629,-0.00420034,0.0109196,-0.00441988,0.0121168,-0.00539757,-1.30627,0.010357,0.041356,678,687,-4.18307,-0.0744331
-539,337,-4.25433,-0.217041,-0.00368726,0.00900483,-0.00376731,0.0100388,-0.00472125,-1.30293,0.00870412,0.0234645,685,687,-4.2543,0.217025
-532,337,-4.32306,-0.416992,-0.00372026,0.00714864,-0.00261782,0.00774629,-0.00431791,-1.34634,0.00705839,0.0130771,692,687,-4.32307,0.416998
-525,337,-4.34967,-0.587646,-0.00404278,0.00443399,-0.00219936,0.00497065,-0.00457944,-1.33146,0.00551529,0.0150045,699,687,-4.34969,0.587628
-518,337,-4.38202,-0.784119,-0.00346419,0.00221171,-0.00182087,0.00274563,-0.00399811,-1.28557,0.00391582,0.0240839,706,687,-4.38202,0.784137
-511,337,-4.39258,-0.973633,-0.00210864,0.00118824,-0.000924715,0.00142989,-0.0023503,-1.31519,0.00220395,0.0232395,713,687,-4.39257,0.973644
-504,337,-4.362,-1.12433,-0.00102337,8.08275e-05,-0.000101831,9.014e-05,-0.00103268,-1.4796,0.000720384,0.021336,720,687,-4.362,1.12432
-497,337,-4.34534,-1.27753,0.000136017,-0.00180073,0.000376029,0.000206463,-0.00187117,0.185194,0.00132165,0.0151012,727,687,-4.34536,1.27752
-490,337,-4.36395,-1.44922,0.000958204,-0.003672,0.000669085,0.00105295,-0.00376674,0.140672,0.002926,0.0131727,734,687,-4.36392,1.44923
-483,337,-4.33905,-1.64301,0.00164274,-0.00578757,0.000985058,0.00177111,-0.00591594,0.129591,0.0046482,0.0133323,741,687,-4.33907,1.64302
-476,337,-4.31177,-1.81409,0.00198519,-0.00819168,0.00130719,0.00215042,-0.0083569,0.125729,0.00640947,0.0123874,748,687,-4.31178,1.81406
-469,337,-4.31378,-2.02472,0.00206412,-0.010862,0.00170587,0.00228545,-0.0110834,0.129028,0.00825684,0.0168273,755,687,-4.31379,2.0247
-462,337,-4.30322,-2.13531,0.00192002,-0.0135176,0.00217995,0.00222195,-0.0138195,0.137626,0.010036,0.0334252,762,687,-4.30323,2.1353
-455,337,-4.41132,-2.03833,0.00140102,-0.0164579,0.00287867,0.00185357,-0.0169105,0.15593,0.0119396,0.0466624,769,687,-4.41131,2.03835
-448,337,-4.31854,-1.62061,0.000548874,-0.0195939,0.00377855,0.00123436,-0.0202794,0.179463,0.0139493,0.0492448,776,687,-4.31852,1.62059
-441,337,-4.33765,-1.35303,0,0,0,0,0,0,0,-1,783,687,-4.33766,1.35305
-434,337,-5.17072,-2.59528,0,0,0,0,0,0,0,-1,790,687,-5.17071,2.59529
-427,337,-2.94312,-1.42773,0,0,0,0,0,0,0,-1,797,687,-2.94314,1.42773
-420,337,-2.95996,-1.76697,0,0,0,0,0,0,0,-1,804,687,-2.95998,1.76696
-413,337,-1.29169,-1.99487,0,0,0,0,0,0,0,-1,811,687,-1.29171,1.9949
-406,337,-1.02356,-1.89563,0,0,0,0,0,0,0,-1,818,687,-1.02357,1.89564
-399,337,-0.472839,-2.21338,0,0,0,0,0,0,0,-1,825,687,-0.472837,2.2134
-392,337,0,0,0,0,0,0,0,0,0,-1,832,687,0,0
-385,337,0,0,0,0,0,0,0,0,0,-1,839,687,0,0
-378,337,0,0,0,0,0,0,0,0,0,-1,846,687,0,0
-371,337,0,0,0,0,0,0,0,0,0,-1,853,687,0,0
-364,337,0,0,0,0,0,0,0,0,0,-1,860,687,0,0
-357,337,0,0,0,0,0,0,0,0,0,-1,867,687,0,0
-350,337,0,0,0,0,0,0,0,0,0,-1,874,687,0,0
-343,337,0,0,0,0,0,0,0,0,0,-1,881,687,0,0
-336,337,0,0,0,0,0,0,0,0,0,-1,888,687,0,0
-329,337,0,0,0,0,0,0,0,0,0,-1,895,687,0,0
-322,337,0,0,0,0,0,0,0,0,0,-1,902,687,0,0
-315,337,0,0,0,0,0,0,0,0,0,-1,909,687,0,0
-308,337,0,0,0,0,0,0,0,0,0,-1,916,687,0,0
-301,337,0,0,0,0,0,0,0,0,0,-1,923,687,0,0
-294,337,0,0,0,0,0,0,0,0,0,-1,930,687,0,0
-287,337,0,0,0,0,0,0,0,0,0,-1,937,687,0,0
-280,337,0,0,0,0,0,0,0,0,0,-1,944,687,0,0
-273,337,0,0,0,0,0,0,0,0,0,-1,951,687,0,0
-266,337,0,0,0,0,0,0,0,0,0,-1,958,687,0,0
-259,337,0,0,0,0,0,0,0,0,0,-1,965,687,0,0
-252,337,0,0,0,0,0,0,0,0,0,-1,972,687,0,0
-245,337,0,0,0,0,0,0,0,0,0,-1,979,687,0,0
-238,337,0,0,0,0,0,0,0,0,0,-1,986,687,0,0
-231,337,0,0,0,0,0,0,0,0,0,-1,993,687,0,0
-224,337,0,0,0,0,0,0,0,0,0,-1,1000,687,0,0
-217,337,0,0,0,0,0,0,0,0,0,-1,1007,687,0,0
-210,337,0,0,0,0,0,0,0,0,0,-1,1014,687,0,0
-203,337,0,0,0,0,0,0,0,0,0,-1,1021,687,0,0
-196,337,0,0,0,0,0,0,0,0,0,-1,1028,687,0,0
-189,337,0,0,0,0,0,0,0,0,0,-1,1035,687,0,0
-182,337,0,0,0,0,0,0,0,0,0,-1,1042,687,0,0
-175,337,0,0,0,0,0,0,0,0,0,-1,1049,687,0,0
-168,337,0,0,0,0,0,0,0,0,0,-1,1056,687,0,0
-161,337,0,0,0,0,0,0,0,0,0,-1,1063,687,0,0
-154,337,0,0,0,0,0,0,0,0,0,-1,1070,687,0,0
-147,337,0,0,0,0,0,0,0,0,0,-1,1077,687,0,0
-140,337,0,0,0,0,0,0,0,0,0,-1,1084,687,0,0
-133,337,0,0,0,0,0,0,0,0,0,-1,1091,687,0,0
-126,337,0,0,0,0,0,0,0,0,0,-1,1098,687,0,0
-119,337,0,0,0,0,0,0,0,0,0,-1,1105,687,0,0
-112,337,0,0,0,0,0,0,0,0,0,-1,1112,687,0,0
-105,337,0,0,0,0,0,0,0,0,0,-1,1119,687,0,0
-98,337,0,0,0,0,0,0,0,0,0,-1,1126,687,0,0
-91,337,0,0,0,0,0,0,0,0,0,-1,1133,687,0,0
-84,337,0,0,0,0,0,0,0,0,0,-1,1140,687,0,0
-77,337,0,0,0,0,0,0,0,0,0,-1,1147,687,0,0
-70,337,0,0,0,0,0,0,0,0,0,-1,1154,687,0,0
-63,337,0,0,0,0,0,0,0,0,0,-1,1161,687,0,0
-56,337,0,0,0,0,0,0,0,0,0,-1,1168,687,0,0
-49,337,0,0,0,0,0,0,0,0,0,-1,1175,687,0,0
-42,337,0,0,0,0,0,0,0,0,0,-1,1182,687,0,0
-35,337,0,0,0,0,0,0,0,0,0,-1,1189,687,0,0
-28,337,0,0,0,0,0,0,0,0,0,-1,1196,687,0,0
-21,337,0,0,0,0,0,0,0,0,0,-1,1203,687,0,0
-14,337,0,0,0,0,0,0,0,0,0,-1,1210,687,0,0
-7,337,0,0,0,0,0,0,0,0,0,-1,1217,687,0,0
0,337,0,0,0,0,0,0,0,0,0,-1,1224,687,0,0
7,337,0,0,0,0,0,0,0,0,0,-1,1231,687,0,0
14,337,0,0,0,0,0,0,0,0,0,-1,1238,687,0,0
21,337,0,0,0,0,0,0,0,0,0,-1,1245,687,0,0
28,337,0,0,0,0,0,0,0,0,0,-1,1252,687,0,0
35,337,0,0,0,0,0,0,0,0,0,-1,1259,687,0,0
42,337,0,0,0,0,0,0,0,0,0,-1,1266,687,0,0
49,337,0,0,0,0,0,0,0,0,0,-1,1273,687,0,0
56,337,0,0,0,0,0,0,0,0,0,-1,1280,687,0,0
63,337,0,0,0,0,0,0,0,0,0,-1,1287,687,0,0
70,337,0,0,0,0,0,0,0,0,0,-1,1294,687,0,0
77,337,0,0,0,0,0,0,0,0,0,-1,1301,687,0,0
84,337,0,0,0,0,0,0,0,0,0,-1,1308,687,0,0
91,337,0,0,0,0,0,0,0,0,0,-1,1315,687,0,0
98,337,0,0,0,0,0,0,0,0,0,-1,1322,687,0,0
105,337,0,0,0,0,0,0,0,0,0,-1,1329,687,0,0
112,337,0,0,0,0,0,0,0,0,0,-1,1336,687,0,0
119,337,0,0,0,0,0,0,0,0,0,-1,1343,687,0,0
126,337,0,0,0,0,0,0,0,0,0,-1,1350,687,0,0
133,337,0,0,0,0,0,0,0,0,0,-1,1357,687,0,0
140,337,0,0,0,0,0,0,0,0,0,-1,1364,687,0,0
147,337,0,0,0,0,0,0,0,0,0,-1,1371,687,0,0
154,337,0,0,0,0,0,0,0,0,0,-1,1378,687,0,0
161,337,0,0,0,0,0,0,0,0,0,-1,1385,687,0,0
168,337,0,0,0,0,0,0,0,0,0,-1,1392,687,0,0
175,337,0,0,0,0,0,0,0,0,0,-1,1399,687,0,0
182,337,0,0,0,0,0,0,0,0,0,-1,1406,687,0,0
189,337,0,0,0,0,0,0,0,0,0,-1,1413,687,0,0
196,337,0,0,0,0,0,0,0,0,0,-1,1420,687,0,0
203,337,0,0,0,0,0,0,0,0,0,-1,1427,687,0,0
210,337,0,0,0,0,0,0,0,0,0,-1,1434,687,0,0
217,337,0,0,0,0,0,0,0,0,0,-1,1441,687,0,0
224,337,0,0,0,0,0,0,0,0,0,-1,1448,687,0,0
231,337,0,0,0,0,0,0,0,0,0,-1,1455,687,0,0
238,337,0,0,0,0,0,0,0,0,0,-1,1462,687,0,0
245,337,0,0,0,0,0,0,0,0,0,-1,1469,687,0,0
252,337,0,0,0,0,0,0,0,0,0,-1,1476,687,0,0
259,337,0,0,0,0,0,0,0,0,0,-1,1483,687,0,0
266,337,0,0,0,0,0,0,0,0,0,-1,1490,687,0,0
273,337,0,0,0,0,0,0,0,0,0,-1,1497,687,0,0
280,337,0,0,0,0,0,0,0,0,0,-1,1504,687,0,0
287,337,0,0,0,0,0,0,0,0,0,-1,1511,687,0,0
294,337,0,0,0,0,0,0,0,0,0,-1,1518,687,0,0
301,337,0,0,0,0,0,0,0,0,0,-1,1525,687,0,0
308,337,0,0,0,0,0,0,0,0,0,-1,1532,687,0,0
315,337,0,0,0,0,0,0,0,0,0,-1,1539,687,0,0
322,337,0,0,0,0,0,0,0,0,0,-1,1546,687,0,0
329,337,0,0,0,0,0,0,0,0,0,-1,1553,687,0,0
336,337,0,0,0,0,0,0,0,0,0,-1,1560,687,0,0
343,337,0,0,0,0,0,0,0,0,0,-1,1567,687,0,0
350,337,0,0,0,0,0,0,0,0,0,-1,1574,687,0,0
357,337,0,0,0,0,0,0,0,0,0,-1,1581,687,0,0
364,337,0,0,0,0,0,0,0,0,0,-1,1588,687,0,0
371,337,0,0,0,0,0,0,0,0,0,-1,1595,687,0,0
378,337,0,0,0,0,0,0,0,0,0,-1,1602,687,0,0
385,337,0,0,0,0,0,0,0,0,0,-1,1609,687,0,0
392,337,0,0,0,0,0,0,0,0,0,-1,1616,687,0,0
399,337,0,0,0,0,0,0,0,0,0,-1,1623,687,0,0
406,337,0,0,0,0,0,0,0,0,0,-1,1630,687,0,0
413,337,0,0,0,0,0,0,0,0,0,-1,1637,687,0,0
420,337,0,0,0,0,0,0,0,0,0,-1,1644,687,0,0
427,337,0,0,0,0,0,0,0,0,0,-1,1651,687,0,0
434,337,0,0,0,0,0,0,0,0,0,-1,1658,687,0,0
441,337,0,0,0,0,0,0,0,0,0,-1,1665,687,0,0
448,337,0,0,0,0,0,0,0,0,0,-1,1672,687,0,0
455,337,0,0,0,0,0,0,0,0,0,-1,1679,687,0,0
462,337,0,0,0,0,0,0,0,0,0,-1,1686,687,0,0
469,337,0,0,0,0,0,0,0,0,0,-1,1693,687,0,0
476,337,0,0,0,0,0,0,0,0,0,-1,1700,687,0,0
483,337,0,0,0,0,0,0,0,0,0,-1,1707,687,0,0
490,337,0,0,0,0,0,0,0,0,0,-1,1714,687,0,0
497,337,0,0,0,0,0,0,0,0,0,-1,1721,687,0,0
504,337,0,0,0,0,0,0,0,0,0,-1,1728,687,0,0
511,337,0,0,0,0,0,0,0,0,0,-1,1735,687,0,0
518,337,15.9426,1.1582,0,0,0,0,0,0,0,-1,1742,687,15.9426,-1.15822
525,337,15.8589,-0.270874,0,0,0,0,0,0,0,-1,1749,687,15.8589,0.270882
532,337,16.3881,-0.09021,0,0,0,0,0,0,0,-1,1756,687,16.3881,0.0901834
539,337,16.9097,0.0394287,0,0,0,0,0,0,0,-1,1763,687,16.9096,-0.0394486
546,337,17.3765,0.241821,0,0,0,0,0,0,0,-1,1770,687,17.3764,-0.241813
553,337,17.7928,0.383362,0,0,0,0,0,0,0,-1,1777,687,17.7929,-0.38339
560,337,12.347,2.23297,0,0,0,0,0,0,0,-1,1784,687,12.3471,-2.23299
567,337,11.9288,1.38776,0,0,0,0,0,0,0,-1,1791,687,11.9288,-1.38777
574,337,10.704,1.19476,0,0,0,0,0,0,0,-1,1798,687,10.704,-1.19478
581,337,8.50427,0.561768,0,0,0,0,0,0,0,-1,1805,687,8.5043,-0.561754
588,337,8.5885,-0.0536499,0,0,0,0,0,0,0,-1,1812,687,8.58844,0.0536788
595,337,9.0105,-0.382996,0,0,0,0,0,0,0,-1,1819,687,9.01046,0.383009
602,337,9.16162,-0.229736,0.00204945,-0.00215154,0.0054149,0.00575698,-0.00585907,0.600377,0.00670662,0.0332792,1826,687,9.16168,0.229706
609,337,9.17273,-0.00689697,0.00158246,-0.00168436,0.0028968,0.00327463,-0.00337653,0.528684,0.0038402,0.0180189,1833,687,9.17276,0.00690992
616,337,9.15491,0.177185,0.00118503,-0.00181903,0.00106626,0.00152501,-0.00215901,0.308664,0.00213744,0.0166696,1840,687,9.15487,-0.177174
623,337,9.15442,0.356079,0.00115357,-0.0022726,0.000127311,0.00115829,-0.00227733,0.0370902,0.00201832,0.0146814,1847,687,9.15446,-0.356108
630,337,9.13013,0.517273,0.00156951,-0.00169655,-0.000156996,0.00157704,-0.00170408,-0.0479217,0.00189483,0.0184623,1854,687,9.13009,-0.517271
637,337,9.14148,0.709961,0.00294361,-0.000705764,-0.000258674,0.00296185,-0.000724007,-0.0704126,0.00225499,0.016098,1861,687,9.14148,-0.709946
644,337,9.16199,0.930237,0.00432509,5.4415e-05,-0.0003872,0.00435991,1.95932e-05,-0.0896904,0.0029001,0.0106143,1868,687,9.16202,-0.930237
651,337,9.15039,1.11481,0.00665895,0.000996473,-0.000412214,0.0066888,0.000966622,-0.0722895,0.00417447,0.00998515,1875,687,9.15033,-1.11479
658,337,9.14648,1.30334,0.0099636,0.00231771,-0.000421435,0.00998676,0.00229455,-0.0548974,0.00604006,0.0115686,1882,687,9.14652,-1.30331
665,337,9.16003,1.48108,0.0147449,0.00493683,-0.00044834,0.0147653,0.00491638,-0.0455847,0.00868188,0.0137821,1889,687,9.16006,-1.48109
672,337,9.16101,1.64923,0.0213793,0.00926813,-0.000428127,0.0213944,0.00925301,-0.0352911,0.0123895,0.0146253,1896,687,9.16101,-1.64921
679,337,9.0918,1.74127,0.0299713,0.0150513,-0.000413746,0.0299827,0.0150398,-0.0277026,0.0173106,0.0311027,1903,687,9.0918,-1.74128
686,337,9.82886,1.43073,0.0413902,0.0240615,-0.000397284,0.0413993,0.0240524,-0.0229103,0.0240062,0.0434797,1910,687,9.82885,-1.43074
693,337,10.549,1.37445,0,0,0,0,0,0,0,-1,1917,687,10.549,-1.37444
700,337,11.7327,-0.938293,0,0,0,0,0,0,0,-1,1924,687,11.7326,0.938306
707,337,13.0155,-0.905396,0,0,0,0,0,0,0,-1,1931,687,13.0154,0.905383
714,337,0,0,0,0,0,0,0,0,0,-1,1938,687,0,0
721,337,0,0,0,0,0,0,0,0,0,-1,1945,687,0,0
728,337,0,0,0,0,0,0,0,0,0,-1,1952,687,0,0
735,337,0,0,0,0,0,0,0,0,0,-1,1959,687,0,0
742,337,0,0,0,0,0,0,0,0,0,-1,1966,687,0,0
749,337,0,0,0,0,0,0,0,0,0,-1,1973,687,0,0
756,337,0,0,0,0,0,0,0,0,0,-1,1980,687,0,0
763,337,0,0,0,0,0,0,0,0,0,-1,1987,687,0,0
770,337,0,0,0,0,0,0,0,0,0,-1,1994,687,0,0
777,337,0,0,0,0,0,0,0,0,0,-1,2001,687,0,0
784,337,0,0,0,0,0,0,0,0,0,-1,2008,687,0,0
791,337,0,0,0,0,0,0,0,0,0,-1,2015,687,0,0
798,337,0,0,0,0,0,0,0,0,0,-1,2022,687,0,0
805,337,0,0,0,0,0,0,0,0,0,-1,2029,687,0,0
812,337,0,0,0,0,0,0,0,0,0,-1,2036,687,0,0
-700,330,0,0,0,0,0,0,0,0,0,-1,524,694,0,0
-693,330,0,0,0,0,0,0,0,0,0,-1,531,694,0,0
-686,330,0,0,0,0,0,0,0,0,0,-1,538,694,0,0
-679,330,0,0,0,0,0,0,0,0,0,-1,545,694,0,0
-672,330,0,0,0,0,0,0,0,0,0,-1,552,694,0,0
-665,330,0,0,0,0,0,0,0,0,0,-1,559,694,0,0
-658,330,0,0,0,0,0,0,0,0,0,-1,566,694,0,0
-651,330,0,0,0,0,0,0,0,0,0,-1,573,694,0,0
-644,330,0,0,0,0,0,0,0,0,0,-1,580,694,0,0
-637,330,0,0,0,0,0,0,0,0,0,-1,587,694,0,0
-630,330,0,0,0,0,0,0,0,0,0,-1,594,694,0,0
-623,330,0,0,0,0,0,0,0,0,0,-1,601,694,0,0
-616,330,0,0,0,0,0,0,0,0,0,-1,608,694,0,0
-609,330,0,0,0,0,0,0,0,0,0,-1,615,694,0,0
-602,330,0,0,0,0,0,0,0,0,0,-1,622,694,0,0
-595,330,-4.67883,1.65515,-0.0484417,0.0417694,0.0207836,0.0463274,-0.0529997,1.35491,0.0573897,0.0454613,629,694,-4.67881,-1.65515
-588,330,-4.70923,1.38007,-0.0309051,0.0379576,0.013985,0.0406894,-0.0336369,1.37789,0.0429766,0.0447572,636,694,-4.70922,-1.38007
-581,330,-5.1795,0.640747,0,0,0,0,0,0,0,-1,643,694,-5.17952,-0.640773
-574,330,-5.0498,0.792236,0,0,0,0,0,0,0,-1,650,694,-5.04982,-0.792257
-567,330,-4.73798,0.552063,0,0,0,0,0,0,0,-1,657,694,-4.73801,-0.552033
-560,330,-4.58978,0.363892,-0.00719505,0.0178474,0.000550705,0.0178595,-0.00720715,1.54882,0.0149015,0.0449332,664,694,-4.58976,-0.363888
-553,330,-4.50012,0.0187378,-0.00601746,0.0137704,-0.000513282,0.0137837,-0.00603077,-1.54488,0.0117281,0.0399896,671,694,-4.50013,-0.0187354
-546,330,-4.45087,-0.120117,-0.00440154,0.00993128,-0.00172563,0.0101361,-0.00460637,-1.45265,0.00870888,0.0253353,678,694,-4.45086,0.120088
-539,330,-4.47058,-0.252747,-0.00340354,0.00789835,-0.0015617,0.00811017,-0.00361537,-1.43598,0.00693356,0.0108899,685,694,-4.47058,0.252761
-532,330,-4.52832,-0.420898,-0.00312843,0.00583858,-0.000882915,0.00592469,-0.00321453,-1.47358,0.00535331,0.00962418,692,694,-4.52831,0.420897
-525,330,-4.53497,-0.618225,-0.00316006,0.00326923,-0.000822008,0.00337266,-0.00326349,-1.44562,0.00383156,0.0113154,699,694,-4.53495,0.618199
-518,330,-4.53571,-0.769653,-0.00239997,0.00111277,-0.000748105,0.00126545,-0.00255266,-1.36946,0.00224576,0.0148045,706,694,-4.53569,0.76963
-511,330,-4.53668,-0.942322,-0.00107923,0.000114511,-0.000263378,0.000170038,-0.00113476,-1.36301,0.000819091,0.0191029,713,694,-4.5367,0.942307
-504,330,-4.52167,-1.1106,-1.21319e-05,-0.000916025,0.000247288,5.10982e-05,-0.000979255,0.250331,0.000670519,0.0172173,720,694,-4.52165,1.11059
-497,330,-4.52814,-1.27118,0.000983404,-0.00259778,0.000580604,0.00107518,-0.00268956,0.156778,0.0022392,0.0124816,727,694,-4.52817,1.27118
-490,330,-4.5141,-1.47076,0.0016941,-0.00437533,0.000810058,0.00180035,-0.00448158,0.130425,0.00373537,0.0128161,734,694,-4.51407,1.47079
-483,330,-4.51318,-1.64722,0.00221133,-0.00651702,0.00100142,0.00232476,-0.00663044,0.11278,0.00536579,0.0129276,741,694,-4.5132,1.64722
-476,330,-4.51062,-1.79401,0.00238968,-0.00905557,0.00114947,0.00250398,-0.00916988,0.0991135,0.00709672,0.0181659,748,694,-4.51065,1.79399
-469,330,-4.39233,-1.89099,0.00232582,-0.0119765,0.00129357,0.00244188,-0.0120926,0.089477,0.00898694,0.0303603,755,694,-4.39232,1.89101
-462,330,-4.32556,-1.7663,0.00202825,-0.0151455,0.00145771,0.0021511,-0.0152684,0.0840783,0.0109665,0.0446297,762,694,-4.32553,1.76632
-455,330,-4.47247,-1.90308,0.00140428,-0.0187286,0.00167652,0.00154294,-0.0188672,0.0825157,0.0131227,0.0415541,769,694,-4.47245,1.9031
-448,330,-4.48859,-1.49036,0,0,0,0,0,0,0,-1,776,694,-4.48859,1.49033
-441,330,-6.36792,-3.27985,0,0,0,0,0,0,0,-1,783,694,-6.36791,3.27983
-434,330,-6.79187,-4.20587,0,0,0,0,0,0,0,-1,790,694,-6.79187,4.20589
-427,330,-2.84381,-2.25128,0,0,0,0,0,0,0,-1,797,694,-2.84381,2.25129
-420,330,-1.97321,-2.073,0,0,0,0,0,0,0,-1,804,694,-1.97319,2.07303
-413,330,-1.32983,-3.20068,0,0,0,0,0,0,0,-1,811,694,-1.32981,3.2007
-406,330,-1.65375,-1.74371,0,0,0,0,0,0,0,-1,818,694,-1.65375,1.74371
-399,330,0,0,0,0,0,0,0,0,0,-1,825,694,0,0
-392,330,0,0,0,0,0,0,0,0,0,-1,832,694,0,0
-385,330,0,0,0,0,0,0,0,0,0,-1,839,694,0,0
-378,330,0,0,0,0,0,0,0,0,0,-1,846,694,0,0
-371,330,0,0,0,0,0,0,0,0,0,-1,853,694,0,0
-364,330,0,0,0,0,0,0,0,0,0,-1,860,694,0,0
-357,330,0,0,0,0,0,0,0,0,0,-1,867,694,0,0
-350,330,0,0,0,0,0,0,0,0,0,-1,874,694,0,0
-343,330,0,0,0,0,0,0,0,0,0,-1,881,694,0,0
-336,330,0,0,0,0,0,0,0,0,0,-1,888,694,0,0
-329,330,0,0,0,0,0,0,0,0,0,-1,895,694,0,0
-322,330,0,0,0,0,0,0,0,0,0,-1,902,694,0,0
-315,330,0,0,0,0,0,0,0,0,0,-1,909,694,0,0
-308,330,0,0,0,0,0,0,0,0,0,-1,916,694,0,0
-301,330,0,0,0,0,0,0,0,0,0,-1,923,694,0,0
-294,330,0,0,0,0,0,0,0,0,0,-1,930,694,0,0
-287,330,0,0,0,0,0,0,0,0,0,-1,937,694,0,0
-280,330,0,0,0,0,0,0,0,0,0,-1,944,694,0,0
-273,330,0,0,0,0,0,0,0,0,0,-1,951,694,0,0
-266,330,0,0,0,0,0,0,0,0,0,-1,958,694,0,0
-259,330,0,0,0,0,0,0,0,0,0,-1,965,694,0,0
-252,330,0,0,0,0,0,0,0,0,0,-1,972,694,0,0
-245,330,0,0,0,0,0,0,0,0,0,-1,979,694,0,0
-238,330,0,0,0,0,0,0,0,0,0,-1,986,694,0,0
-231,330,0,0,0,0,0,0,0,0,0,-1,993,694,0,0
-224,330,0,0,0,0,0,0,0,0,0,-1,1000,694,0,0
-217,330,0,0,0,0,0,0,0,0,0,-1,1007,694,0,0
-210,330,0,0,0,0,0,0,0,0,0,-1,1014,694,0,0
-203,330,0,0,0,0,0,0,0,0,0,-1,1021,694,0,0
-196,330,0,0,0,0,0,0,0,0,0,-1,1028,694,0,0
-189,330,0,0,0,0,0,0,0,0,0,-1,1035,694,0,0
-182,330,0,0,0,0,0,0,0,0,0,-1,1042,694,0,0
-175,330,0,0,0,0,0,0,0,0,0,-1,1049,694,0,0
-168,330,0,0,0,0,0,0,0,0,0,-1,1056,694,0,0
-161,330,0,0,0,0,0,0,0,0,0,-1,1063,694,0,0
-154,330,0,0,0,0,0,0,0,0,0,-1,1070,694,0,0
-147,330,0,0,0,0,0,0,0,0,0,-1,1077,694,0,0
-140,330,0,0,0,0,0,0,0,0,0,-1,1084,694,0,0
-133,330,0,0,0,0,0,0,0,0,0,-1,1091,694,0,0
-126,330,0,0,0,0,0,0,0,0,0,-1,1098,694,0,0
-119,330,0,0,0,0,0,0,0,0,0,-1,1105,694,0,0
-112,330,0,0,0,0,0,0,0,0,0,-1,1112,694,0,0
-105,330,0,0,0,0,0,0,0,0,0,-1,1119,694,0,0
-98,330,0,0,0,0,0,0,0,0,0,-1,1126,694,0,0
-91,330,0,0,0,0,0,0,0,0,0,-1,1133,694,0,0
-84,330,0,0,0,0,0,0,0,0,0,-1,1140,694,0,0
-77,330,0,0,0,0,0,0,0,0,0,-1,1147,694,0,0
-70,330,0,0,0,0,0,0,0,0,0,-1,1154,694,0,0
-63,330,0,0,0,0,0,0,0,0,0,-1,1161,694,0,0
-56,330,0,0,0,0,0,0,0,0,0,-1,1168,694,0,0
-49,330,0,0,0,0,0,0,0,0,0,-1,1175,694,0,0
-42,330,0,0,0,0,0,0,0,0,0,-1,1182,694,0,0
-35,330,0,0,0,0,0,0,0,0,0,-1,1189,694,0,0
-28,330,0,0,0,0,0,0,0,0,0,-1,1196,694,0,0
-21,330,0,0,0,0,0,0,0,0,0,-1,1203,694,0,0
-14,330,0,0,0,0,0,0,0,0,0,-1,1210,694,0,0
-7,330,0,0,0,0,0,0,0,0,0,-1,1217,694,0,0
0,330,0,0,0,0,0,0,0,0,0,-1,1224,694,0,0
7,330,0,0,0,0,0,0,0,0,0,-1,1231,694,0,0
14,330,0,0,0,0,0,0,0,0,0,-1,1238,694,0,0
21,330,0,0,0,0,0,0,0,0,0,-1,1245,694,0,0
28,330,0,0,0,0,0,0,0,0,0,-1,1252,694,0,0
35,330,0,0,0,0,0,0,0,0,0,-1,1259,694,0,0
42,330,0,0,0,0,0,0,0,0,0,-1,1266,694,0,0
49,330,0,0,0,0,0,0,0,0,0,-1,1273,694,0,0
56,330,0,0,0,0,0,0,0,0,0,-1,1280,694,0,0
63,330,0,0,0,0,0,0,0,0,0,-1,1287,694,0,0
70,330,0,0,0,0,0,0,0,0,0,-1,1294,694,0,0
77,330,0,0,0,0,0,0,0,0,0,-1,1301,694,0,0
84,330,0,0,0,0,0,0,0,0,0,-1,1308,694,0,0
91,330,0,0,0,0,0,0,0,0,0,-1,1315,694,0,0
98,330,0,0,0,0,0,0,0,0,0,-1,1322,694,0,0
105,330,0,0,0,0,0,0,0,0,0,-1,1329,694,0,0
112,330,0,0,0,0,0,0,0,0,0,-1,1336,694,0,0
119,330,0,0,0,0,0,0,0,0,0,-1,1343,694,0,0
126,330,0,0,0,0,0,0,0,0,0,-1,1350,694,0,0
133,330,0,0,0,0,0,0,0,0,0,-1,1357,694,0,0
140,330,0,0,0,0,0,0,0,0,0,-1,1364,694,0,0
147,330,0,0,0,0,0,0,0,0,0,-1,1371,694,0,0
154,330,0,0,0,0,0,0,0,0,0,-1,1378,694,0,0
161,330,0,0,0,0,0,0,0,0,0,-1,1385,694,0,0
168,330,0,0,0,0,0,0,0,0,0,-1,1392,694,0,0
175,330,0,0,0,0,0,0,0,0,0,-1,1399,694,0,0
182,330,0,0,0,0,0,0,0,0,0,-1,1406,694,0,0
189,330,0,0,0,0,0,0,0,0,0,-1,1413,694,0,0
196,330,0,0,0,0,0,0,0,0,0,-1,1420,694,0,0
203,330,0,0,0,0,0,0,0,0,0,-1,1427,694,0,0
210,330,0,0,0,0,0,0,0,0,0,-1,1434,694,0,0
217,330,0,0,0,0,0,0,0,0,0,-1,1441,694,0,0
224,330,0,0,0,0,0,0,0,0,0,-1,1448,694,0,0
231,330,0,0,0,0,0,0,0,0,0,-1,1455,694,0,0
238,330,0,0,0,0,0,0,0,0,0,-1,1462,694,0,0
245,330,0,0,0,0,0,0,0,0,0,-1,1469,694,0,0
252,330,0,0,0,0,0,0,0,0,0,-1,1476,694,0,0
259,330,0,0,0,0,0,0,0,0,0,-1,1483,694,0,0
266,330,0,0,0,0,0,0,0,0,0,-1,1490,694,0,0
273,330,0,0,0,0,0,0,0,0,0,-1,1497,694,0,0
280,330,0,0,0,0,0,0,0,0,0,-1,1504,694,0,0
287,330,0,0,0,0,0,0,0,0,0,-1,1511,694,0,0
294,330,0,0,0,0,0,0,0,0,0,-1,1518,694,0,0
301,330,0,0,0,0,0,0,0,0,0,-1,1525,694,0,0
308,330,0,0,0,0,0,0,0,0,0,-1,1532,694,0,0
315,330,0,0,0,0,0,0,0,0,0,-1,1539,694,0,0
322,330,0,0,0,0,0,0,0,0,0,-1,1546,694,0,0
329,330,0,0,0,0,0,0,0,0,0,-1,1553,694,0,0
336,330,0,0,0,0,0,0,0,0,0,-1,1560,694,0,0
343,330,0,0,0,0,0,0,0,0,0,-1,1567,694,0,0
350,330,0,0,0,0,0,0,0,0,0,-1,1574,694,0,0
357,330,0,0,0,0,0,0,0,0,0,-1,1581,694,0,0
364,330,0,0,0,0,0,0,0,0,0,-1,1588,694,0,0
371,330,0,0,0,0,0,0,0,0,0,-1,1595,694,0,0
378,330,0,0,0,0,0,0,0,0,0,-1,1602,694,0,0
385,330,0,0,0,0,0,0,0,0,0,-1,1609,694,0,0
392,330,0,0,0,0,0,0,0,0,0,-1,1616,694,0,0
399,330,0,0,0,0,0,0,0,0,0,-1,1623,694,0,0
406,330,0,0,0,0,0,0,0,0,0,-1,1630,694,0,0
413,330,0,0,0,0,0,0,0,0,0,-1,1637,694,0,0
420,330,0,0,0,0,0,0,0,0,0,-1,1644,694,0,0
427,330,0,0,0,0,0,0,0,0,0,-1,1651,694,0,0
434,330,0,0,0,0,0,0,0,0,0,-1,1658,694,0,0
441,330,0,0,0,0,0,0,0,0,0,-1,1665,694,0,0
448,330,0,0,0,0,0,0,0,0,0,-1,1672,694,0,0
455,330,0,0,0,0,0,0,0,0,0,-1,1679,694,0,0
462,330,0,0,0,0,0,0,0,0,0,-1,1686,694,0,0
469,330,0,0,0,0,0,0,0,0,0,-1,1693,694,0,0
476,330,0,0,0,0,0,0,0,0,0,-1,1700,694,0,0
483,330,0,0,0,0,0,0,0,0,0,-1,1707,694,0,0
490,330,0,0,0,0,0,0,0,0,0,-1,1714,694,0,0
497,330,0,0,0,0,0,0,0,0,0,-1,1721,694,0,0
504,330,0,0,0,0,0,0,0,0,0,-1,1728,694,0,0
511,330,0,0,0,0,0,0,0,0,0,-1,1735,694,0,0
518,330,0,0,0,0,0,0,0,0,0,-1,1742,694,0,0
525,330,15.708,-0.528625,0,0,0,0,0,0,0,-1,1749,694,15.708,0.528656
532,330,15.96,-0.338989,0,0,0,0,0,0,0,-1,1756,694,15.9599,0.339013
539,330,16.4696,-0.0952759,0,0,0,0,0,0,0,-1,1763,694,16.4696,0.0952908
546,330,16.9929,0.15564,0,0,0,0,0,0,0,-1,1770,694,16.9929,-0.155624
553,330,17.512,0.393494,0,0,0,0,0,0,0,-1,1777,694,17.5119,-0.393486
560,330,17.9788,0.673767,0,0,0,0,0,0,0,-1,1784,694,17.9788,-0.67375
567,330,12.5887,1.99567,0,0,0,0,0,0,0,-1,1791,694,12.5887,-1.99565
574,330,12.0454,2.1662,0,0,0,0,0,0,0,-1,1798,694,12.0455,-2.16618
581,330,12.7212,1.9704,0,0,0,0,0,0,0,-1,1805,694,12.7212,-1.97041
588,330,6.45667,-0.0630493,0,0,0,0,0,0,0,-1,1812,694,6.45661,0.0630695
595,330,8.23193,-0.258484,0,0,0,0,0,0,0,-1,1819,694,8.23188,0.258459
602,330,9.12939,-0.377808,0,0,0,0,0,0,0,-1,1826,694,9.12939,0.377808
609,330,9.27612,-0.0628662,0.00376646,-0.00218852,0.00570748,0.00722642,-0.00564848,0.544977,0.00745191,0.0246757,1833,694,9.27612,0.0628818
616,330,9.32788,0.157166,0.00282482,-0.00197511,0.00313378,0.00437206,-0.00352234,0.458618,0.00456663,0.0108729,1840,694,9.32789,-0.157137
623,330,9.33228,0.350769,0.00213228,-0.00229756,0.0013753,0.00252453,-0.00268981,0.277833,0.003011,0.0125118,1847,694,9.33223,-0.350792
630,330,9.36108,0.553955,0.00187374,-0.00165592,0.000591703,0.00197029,-0.00175247,0.161749,0.00215056,0.0126353,1854,694,9.36104,-0.553958
637,330,9.37549,0.75061,0.00253348,-0.000808444,0.000158324,0.00254096,-0.000815928,0.0472342,0.0020216,0.011513,1861,694,9.37549,-0.7506
644,330,9.35522,0.939209,0.00330841,-0.000177741,-0.000144071,0.00331435,-0.000183685,-0.0412329,0.00227327,0.00748273,1868,694,9.35525,-0.93919
651,330,9.33276,1.09894,0.00497906,0.000528619,-0.000286506,0.00499743,0.000510251,-0.0640247,0.00317523,0.0108866,1875,694,9.33279,-1.09893
658,330,9.31873,1.27332,0.00755403,0.0015991,-0.000233873,0.0075632,0.00158993,-0.0391933,0.00460459,0.0120388,1882,694,9.31878,-1.27332
665,330,9.33789,1.48016,0.0114378,0.00393595,-0.000218895,0.0114442,0.00392957,-0.0291457,0.00671452,0.0103477,1889,694,9.33792,-1.48019
672,330,9.3573,1.6864,0.0168851,0.00781666,-0.000155419,0.0168877,0.007814,-0.0171318,0.00975917,0.0124423,1896,694,9.35733,-1.68638
679,330,9.27185,1.84949,0.0238221,0.0127881,-0.000103039,0.0238231,0.0127871,-0.00933716,0.0137666,0.0241866,1903,694,9.27179,-1.84949
686,330,9.59009,2.1593,0.0332388,0.0206382,-8.32511e-05,0.0332393,0.0206376,-0.00660654,0.0193768,0.0406818,1910,694,9.59006,-2.15927
693,330,9.93359,2.25519,0,0,0,0,0,0,0,-1,1917,694,9.93358,-2.25516
700,330,12.6141,-1.77289,0,0,0,0,0,0,0,-1,1924,694,12.6141,1.77291
707,330,13.6041,-1.52026,0,0,0,0,0,0,0,-1,1931,694,13.6041,1.52028
714,330,10.045,7.15454,0,0,0,0,0,0,0,-1,1938,694,10.045,-7.15454
721,330,0,0,0,0,0,0,0,0,0,-1,1945,694,0,0
728,330,0,0,0,0,0,0,0,0,0,-1,1952,694,0,0
735,330,0,0,0,0,0,0,0,0,0,-1,1959,694,0,0
742,330,0,0,0,0,0,0,0,0,0,-1,1966,694,0,0
749,330,0,0,0,0,0,0,0,0,0,-1,1973,694,0,0
756,330,0,0,0,0,0,0,0,0,0,-1,1980,694,0,0
763,330,0,0,0,0,0,0,0,0,0,-1,1987,694,0,0
770,330,0,0,0,0,0,0,0,0,0,-1,1994,694,0,0
777,330,0,0,0,0,0,0,0,0,0,-1,2001,694,0,0
784,330,0,0,0,0,0,0,0,0,0,-1,2008,694,0,0
791,330,0,0,0,0,0,0,0,0,0,-1,2015,694,0,0
798,330,0,0,0,0,0,0,0,0,0,-1,2022,694,0,0
805,330,0,0,0,0,0,0,0,0,0,-1,2029,694,0,0
812,330,0,0,0,0,0,0,0,0,0,-1,2036,694,0,0
-700,323,0,0,0,0,0,0,0,0,0,-1,524,701,0,0
-693,323,0,0,0,0,0,0,0,0,0,-1,531,701,0,0
-686,323,0,0,0,0,0,0,0,0,0,-1,538,701,0,0
-679,323,0,0,0,0,0,0,0,0,0,-1,545,701,0,0
-672,323,0,0,0,0,0,0,0,0,0,-1,552,701,0,0
-665,323,0,0,0,0,0,0,0,0,0,-1,559,701,0,0
-658,323,0,0,0,0,0,0,0,0,0,-1,566,701,0,0
-651,323,0,0,0,0,0,0,0,0,0,-1,573,701,0,0
-644,323,0,0,0,0,0,0,0,0,0,-1,580,701,0,0
-637,323,0,0,0,0,0,0,0,0,0,-1,587,701,0,0
-630,323,0,0,0,0,0,0,0,0,0,-1,594,701,0,0
-623,323,0,0,0,0,0,0,0,0,0,-1,601,701,0,0
-616,323,0,0,0,0,0,0,0,0,0,-1,608,701,0,0
-609,323,0,0,0,0,0,0,0,0,0,-1,615,701,0,0
-602,323,-4.15833,2.12256,0,0,0,0,0,0,0,-1,622,701,-4.1583,-2.12257
-595,323,-4.052,1.79156,-0.0584638,0.0431757,0.02595,0.0494177,-0.0647058,1.33474,0.066086,0.0468056,629,701,-4.05198,-1.79158
-588,323,-4.07019,1.94543,-0.0382057,0.0383631,0.018295,0.0425099,-0.0423525,1.3479,0.0489953,0.0480427,636,701,-4.07019,-1.94542
-581,323,-4.21313,2.39545,0,0,0,0,0,0,0,-1,643,701,-4.21314,-2.39544
-574,323,-3.75958,0.742126,0,0,0,0,0,0,0,-1,650,701,-3.75957,-0.742118
-567,323,-4.70288,0.800598,0,0,0,0,0,0,0,-1,657,701,-4.70287,-0.800579
-560,323,-4.70667,0.364075,-0.00868811,0.0172045,0.00363152,0.0177042,-0.0091878,1.43406,0.0157835,0.0487062,664,701,-4.70665,-0.364067
-553,323,-4.68024,-0.00604248,-0.00675736,0.0129886,0.00216066,0.0132223,-0.00699102,1.46307,0.0118536,0.0294754,671,701,-4.68027,0.00601437
-546,323,-4.68109,-0.11908,-0.00454661,0.00901354,0.000459989,0.00902912,-0.0045622,1.53693,0.00798697,0.0111272,678,701,-4.6811,0.119071
-539,323,-4.68628,-0.247009,-0.00318346,0.00696046,0.000206674,0.00696467,-0.00318766,1.55043,0.00599514,0.0103954,685,701,-4.68625,0.246997
-532,323,-4.69952,-0.426514,-0.00266974,0.00477239,0.000458974,0.00480059,-0.00269794,1.50943,0.00438565,0.0097799,692,701,-4.69951,0.426508
-525,323,-4.7063,-0.612915,-0.00248348,0.00242384,0.000221262,0.0024338,-0.00249344,1.52583,0.00284481,0.00809351,699,701,-4.7063,0.612919
-518,323,-4.69965,-0.745605,-0.00160716,0.00038151,4.71179e-05,0.000382626,-0.00160827,1.54712,0.00121989,0.0101388,706,701,-4.69965,0.745618
-511,323,-4.70685,-0.921387,-0.000305225,-0.000584727,0.00017161,-0.000223661,-0.000666291,0.443683,0.000391547,0.0134274,713,701,-4.70682,0.92137
-504,323,-4.70233,-1.09473,0.000750918,-0.00157873,0.000458369,0.00083786,-0.00166568,0.187449,0.00147152,0.0143643,720,701,-4.70232,1.09472
-497,323,-4.69116,-1.27399,0.00177137,-0.00307153,0.000626364,0.00185107,-0.00315123,0.126562,0.00292042,0.0116204,727,701,-4.69119,1.27402
-490,323,-4.71582,-1.45313,0.00260736,-0.00475143,0.000739154,0.00268087,-0.00482494,0.0991256,0.00439202,0.0132971,734,701,-4.71579,1.45313
-483,323,-4.70966,-1.6355,0.00332785,-0.00680332,0.00070817,0.00337711,-0.00685258,0.06945,0.00601866,0.0157676,741,701,-4.70966,1.63547
-476,323,-4.60077,-1.83655,0.00387796,-0.0092556,0.000522732,0.00389874,-0.00927638,0.0397175,0.00781501,0.0280269,748,701,-4.60076,1.83654
-469,323,-4.27014,-1.80621,0,0,0,0,0,0,0,-1,755,701,-4.27016,1.80623
-462,323,-4.27521,-1.29828,0.0048282,-0.015223,-0.000272391,0.0048319,-0.0152267,-0.0135814,0.0120881,0.0485585,762,701,-4.27519,1.29828
-455,323,-4.44189,-1.59674,0.00527903,-0.0185129,-0.000911262,0.00531388,-0.0185478,-0.0382266,0.0144656,0.0434197,769,701,-4.44189,1.59677
-448,323,-4.33423,-1.69281,0.00573449,-0.0215879,-0.00171528,0.00584176,-0.0216952,-0.0624523,0.0167537,0.0452744,776,701,-4.33424,1.69282
-441,323,-4.20874,-1.92755,0,0,0,0,0,0,0,-1,783,701,-4.20875,1.92755
-434,323,-4.8299,-2.69525,0,0,0,0,0,0,0,-1,790,701,-4.82992,2.69526
-427,323,-4.67896,-3.3103,0,0,0,0,0,0,0,-1,797,701,-4.67899,3.3103
-420,323,-2.38629,-2.42578,0,0,0,0,0,0,0,-1,804,701,-2.38628,2.4258
-413,323,-1.97827,-2.94897,0,0,0,0,0,0,0,-1,811,701,-1.97826,2.94897
-406,323,0,0,0,0,0,0,0,0,0,-1,818,701,0,0
-399,323,0,0,0,0,0,0,0,0,0,-1,825,701,0,0
-392,323,0,0,0,0,0,0,0,0,0,-1,832,701,0,0
-385,323,0,0,0,0,0,0,0,0,0,-1,839,701,0,0
-378,323,0,0,0,0,0,0,0,0,0,-1,846,701,0,0
-371,323,0,0,0,0,0,0,0,0,0,-1,853,701,0,0
-364,323,0,0,0,0,0,0,0,0,0,-1,860,701,0,0
-357,323,0,0,0,0,0,0,0,0,0,-1,867,701,0,0
-350,323,0,0,0,0,0,0,0,0,0,-1,874,701,0,0
-343,323,0,0,0,0,0,0,0,0,0,-1,881,701,0,0
-336,323,0,0,0,0,0,0,0,0,0,-1,888,701,0,0
-329,323,0,0,0,0,0,0,0,0,0,-1,895,701,0,0
-322,323,0,0,0,0,0,0,0,0,0,-1,902,701,0,0
-315,323,0,0,0,0,0,0,0,0,0,-1,909,701,0,0
-308,323,0,0,0,0,0,0,0,0,0,-1,916,701,0,0
-301,323,0,0,0,0,0,0,0,0,0,-1,923,701,0,0
-294,323,0,0,0,0,0,0,0,0,0,-1,930,701,0,0
-287,323,0,0,0,0,0,0,0,0,0,-1,937,701,0,0
-280,323,0,0,0,0,0,0,0,0,0,-1,944,701,0,0
-273,323,0,0,0,0,0,0,0,0,0,-1,951,701,0,0
-266,323,0,0,0,0,0,0,0,0,0,-1,958,701,0,0
-259,323,0,0,0,0,0,0,0,0,0,-1,965,701,0,0
-252,323,0,0,0,0,0,0,0,0,0,-1,972,701,0,0
-245,323,0,0,0,0,0,0,0,0,0,-1,979,701,0,0
-238,323,0,0,0,0,0,0,0,0,0,-1,986,701,0,0
-231,323,0,0,0,0,0,0,0,0,0,-1,993,701,0,0
-224,323,0,0,0,0,0,0,0,0,0,-1,1000,701,0,0
-217,323,0,0,0,0,0,0,0,0,0,-1,1007,701,0,0
-210,323,0,0,0,0,0,0,0,0,0,-1,1014,701,0,0
-203,323,0,0,0,0,0,0,0,0,0,-1,1021,701,0,0
-196,323,0,0,0,0,0,0,0,0,0,-1,1028,701,0,0
-189,323,0,0,0,0,0,0,0,0,0,-1,1035,701,0,0
-182,323,0,0,0,0,0,0,0,0,0,-1,1042,701,0,0
-175,323,0,0,0,0,0,0,0,0,0,-1,1049,701,0,0
-168,323,0,0,0,0,0,0,0,0,0,-1,1056,701,0,0
-161,323,0,0,0,0,0,0,0,0,0,-1,1063,701,0,0
-154,323,0,0,0,0,0,0,0,0,0,-1,1070,701,0,0
-147,323,0,0,0,0,0,0,0,0,0,-1,1077,701,0,0
-140,323,0,0,0,0,0,0,0,0,0,-1,1084,701,0,0
-133,323,0,0,0,0,0,0,0,0,0,-1,1091,701,0,0
-126,323,0,0,0,0,0,0,0,0,0,-1,1098,701,0,0
-119,323,0,0,0,0,0,0,0,0,0,-1,1105,701,0,0
-112,323,0,0,0,0,0,0,0,0,0,-1,1112,701,0,0
-105,323,0,0,0,0,0,0,0,0,0,-1,1119,701,0,0
-98,323,0,0,0,0,0,0,0,0,0,-1,1126,701,0,0
-91,323,0,0,0,0,0,0,0,0,0,-1,1133,701,0,0
-84,323,0,0,0,0,0,0,0,0,0,-1,1140,701,0,0
-77,323,0,0,0,0,0,0,0,0,0,-1,1147,701,0,0
-70,323,0,0,0,0,0,0,0,0,0,-1,1154,701,0,0
-63,323,0,0,0,0,0,0,0,0,0,-1,1161,701,0,0
-56,323,0,0,0,0,0,0,0,0,0,-1,1168,701,0,0
-49,323,0,0,0,0,0,0,0,0,0,-1,1175,701,0,0
-42,323,0,0,0,0,0,0,0,0,0,-1,1182,701,0,0
-35,323,0,0,0,0,0,0,0,0,0,-1,1189,701,0,0
-28,323,0,0,0,0,0,0,0,0,0,-1,1196,701,0,0
-21,323,0,0,0,0,0,0,0,0,0,-1,1203,701,0,0
-14,323,0,0,0,0,0,0,0,0,0,-1,1210,701,0,0
-7,323,0,0,0,0,0,0,0,0,0,-1,1217,701,0,0
0,323,0,0,0,0,0,0,0,0,0,-1,1224,701,0,0
7,323,0,0,0,0,0,0,0,0,0,-1,1231,701,0,0
14,323,0,0,0,0,0,0,0,0,0,-1,1238,701,0,0
21,323,0,0,0,0,0,0,0,0,0,-1,1245,701,0,0
28,323,0,0,0,0,0,0,0,0,0,-1,1252,701,0,0
35,323,0,0,0,0,0,0,0,0,0,-1,1259,701,0,0
42,323,0,0,0,0,0,0,0,0,0,-1,1266,701,0,0
49,323,0,0,0,0,0,0,0,0,0,-1,1273,701,0,0
56,323,0,0,0,0,0,0,0,0,0,-1,1280,701,0,0
63,323,0,0,0,0,0,0,0,0,0,-1,1287,701,0,0
70,323,0,0,0,0,0,0,0,0,0,-1,1294,701,0,0
77,323,0,0,0,0,0,0,0,0,0,-1,1301,701,0,0
84,323,0,0,0,0,0,0,0,0,0,-1,1308,701,0,0
91,323,0,0,0,0,0,0,0,0,0,-1,1315,701,0,0
98,323,0,0,0,0,0,0,0,0,0,-1,1322,701,0,0
105,323,0,0,0,0,0,0,0,0,0,-1,1329,701,0,0
112,323,0,0,0,0,0,0,0,0,0,-1,1336,701,0,0
119,323,0,0,0,0,0,0,0,0,0,-1,1343,701,0,0
126,323,0,0,0,0,0,0,0,0,0,-1,1350,701,0,0
133,323,0,0,0,0,0,0,0,0,0,-1,1357,701,0,0
140,323,0,0,0,0,0,0,0,0,0,-1,1364,701,0,0
147,323,0,0,0,0,0,0,0,0,0,-1,1371,701,0,0
154,323,0,0,0,0,0,0,0,0,0,-1,1378,701,0,0
161,323,0,0,0,0,0,0,0,0,0,-1,1385,701,0,0
168,323,0,0,0,0,0,0,0,0,0,-1,1392,701,0,0
175,323,0,0,0,0,0,0,0,0,0,-1,1399,701,0,0
182,323,0,0,0,0,0,0,0,0,0,-1,1406,701,0,0
189,323,0,0,0,0,0,0,0,0,0,-1,1413,701,0,0
196,323,0,0,0,0,0,0,0,0,0,-1,1420,701,0,0
203,323,0,0,0,0,0,0,0,0,0,-1,1427,701,0,0
210,323,0,0,0,0,0,0,0,0,0,-1,1434,701,0,0
217,323,0,0,0,0,0,0,0,0,0,-1,1441,701,0,0
224,323,0,0,0,0,0,0,0,0,0,-1,1448,701,0,0
231,323,0,0,0,0,0,0,0,0,0,-1,1455,701,0,0
238,323,0,0,0,0,0,0,0,0,0,-1,1462,701,0,0
245,323,0,0,0,0,0,0,0,0,0,-1,1469,701,0,0
252,323,0,0,0,0,0,0,0,0,0,-1,1476,701,0,0
259,323,0,0,0,0,0,0,0,0,0,-1,1483,701,0,0
266,323,0,0,0,0,0,0,0,0,0,-1,1490,701,0,0
273,323,0,0,0,0,0,0,0,0,0,-1,1497,701,0,0
280,323,0,0,0,0,0,0,0,0,0,-1,1504,701,0,0
287,323,0,0,0,0,0,0,0,0,0,-1,1511,701,0,0
294,323,0,0,0,0,0,0,0,0,0,-1,1518,701,0,0
301,323,0,0,0,0,0,0,0,0,0,-1,1525,701,0,0
308,323,0,0,0,0,0,0,0,0,0,-1,1532,701,0,0
315,323,0,0,0,0,0,0,0,0,0,-1,1539,701,0,0
322,323,0,0,0,0,0,0,0,0,0,-1,1546,701,0,0
329,323,0,0,0,0,0,0,0,0,0,-1,1553,701,0,0
336,323,0,0,0,0,0,0,0,0,0,-1,1560,701,0,0
343,323,0,0,0,0,0,0,0,0,0,-1,1567,701,0,0
350,323,0,0,0,0,0,0,0,0,0,-1,1574,701,0,0
357,323,0,0,0,0,0,0,0,0,0,-1,1581,701,0,0
364,323,0,0,0,0,0,0,0,0,0,-1,1588,701,0,0
371,323,0,0,0,0,0,0,0,0,0,-1,1595,701,0,0
378,323,0,0,0,0,0,0,0,0,0,-1,1602,701,0,0
385,323,0,0,0,0,0,0,0,0,0,-1,1609,701,0,0
392,323,0,0,0,0,0,0,0,0,0,-1,1616,701,0,0
399,323,0,0,0,0,0,0,0,0,0,-1,1623,701,0,0
406,323,0,0,0,0,0,0,0,0,0,-1,1630,701,0,0
413,323,0,0,0,0,0,0,0,0,0,-1,1637,701,0,0
420,323,0,0,0,0,0,0,0,0,0,-1,1644,701,0,0
427,323,0,0,0,0,0,0,0,0,0,-1,1651,701,0,0
434,323,0,0,0,0,0,0,0,0,0,-1,1658,701,0,0
441,323,0,0,0,0,0,0,0,0,0,-1,1665,701,0,0
448,323,0,0,0,0,0,0,0,0,0,-1,1672,701,0,0
455,323,0,0,0,0,0,0,0,0,0,-1,1679,701,0,0
462,323,0,0,0,0,0,0,0,0,0,-1,1686,701,0,0
469,323,0,0,0,0,0,0,0,0,0,-1,1693,701,0,0
476,323,0,0,0,0,0,0,0,0,0,-1,1700,701,0,0
483,323,0,0,0,0,0,0,0,0,0,-1,1707,701,0,0
490,323,0,0,0,0,0,0,0,0,0,-1,1714,701,0,0
497,323,0,0,0,0,0,0,0,0,0,-1,1721,701,0,0
504,323,0,0,0,0,0,0,0,0,0,-1,1728,701,0,0
511,323,0,0,0,0,0,0,0,0,0,-1,1735,701,0,0
518,323,0,0,0,0,0,0,0,0,0,-1,1742,701,0,0
525,323,0,0,0,0,0,0,0,0,0,-1,1749,701,0,0
532,323,16.2736,-0.905212,0,0,0,0,0,0,0,-1,1756,701,16.2736,0.905193
539,323,16.5522,-0.611023,0,0,0,0,0,0,0,-1,1763,701,16.5522,0.611012
546,323,17.0182,-0.187866,0,0,0,0,0,0,0,-1,1770,701,17.0182,0.18787
553,323,17.2208,0.388916,0,0,0,0,0,0,0,-1,1777,701,17.2209,-0.388892
560,323,18.3231,0.271545,0,0,0,0,0,0,0,-1,1784,701,18.3231,-0.271574
567,323,18.9622,0.036499,0,0,0,0,0,0,0,-1,1791,701,18.9622,-0.0365009
574,323,19.6163,-0.393677,0,0,0,0,0,0,0,-1,1798,701,19.6164,0.393661
581,323,12.8182,1.75861,0,0,0,0,0,0,0,-1,1805,701,12.8182,-1.75861
588,323,13.5166,1.58954,0,0,0,0,0,0,0,-1,1812,701,13.5166,-1.58954
595,323,6.67847,0.06604,0,0,0,0,0,0,0,-1,1819,701,6.67841,-0.0660418
602,323,9.13831,0.0263672,0,0,0,0,0,0,0,-1,1826,701,9.13826,-0.0263478
609,323,9.38562,0.0645142,0.00338088,-0.00266846,0.00622754,0.00727942,-0.006567,0.55933,0.00799776,0.0413329,1833,701,9.3856,-0.0645234
616,323,9.50293,0.158997,0.00265262,-0.00215431,0.00352304,0.00451395,-0.00401564,0.486054,0.00492736,0.0130664,1840,701,9.50288,-0.159008
623,323,9.53076,0.369812,0.00205717,-0.00246894,0.00150543,0.00251216,-0.00292393,0.293499,0.00314152,0.0125603,1847,701,9.53071,-0.369829
630,323,9.55774,0.585022,0.00177488,-0.00180441,0.000618726,0.00187882,-0.00190835,0.166431,0.00218654,0.0134026,1854,701,9.55779,-0.58505
637,323,9.56494,0.775146,0.00214103,-0.0010573,4.79282e-05,0.00214175,-0.00105802,0.0149809,0.00188237,0.00992393,1861,701,9.56495,-0.775119
644,323,9.56677,0.931335,0.00270505,-0.000548372,-0.000272728,0.00272775,-0.000571076,-0.0830558,0.00203574,0.00734091,1868,701,9.56678,-0.931341
651,323,9.53491,1.11346,0.0038574,-0.000134926,-0.000454757,0.00390855,-0.000186071,-0.111996,0.00266988,0.00900633,1875,701,9.53494,-1.11349
658,323,9.5,1.30255,0.00572318,0.000839567,-0.000307569,0.00574247,0.000820273,-0.0626498,0.0035863,0.0112697,1882,701,9.49999,-1.30252
665,323,9.51074,1.49384,0.0088048,0.00301444,-0.000228111,0.00881377,0.00300547,-0.0393137,0.00517369,0.0102682,1889,701,9.51074,-1.49381
672,323,9.52942,1.6922,0.0133126,0.0064436,-0.000120472,0.0133147,0.00644149,-0.0175313,0.00768859,0.00968037,1896,701,9.52941,-1.69219
679,323,9.50659,1.87872,0.0189139,0.0106875,-2.91105e-05,0.018914,0.0106874,-0.00353865,0.0109508,0.0177181,1903,701,9.50659,-1.87873
686,323,9.5011,2.10291,0.026605,0.0173593,-3.50682e-05,0.0266051,0.0173592,-0.00379287,0.0155967,0.0381355,1910,701,9.50111,-2.10288
693,323,9.14294,2.77325,0,0,0,0,0,0,0,-1,1917,701,9.14297,-2.77326
700,323,13.0956,-2.76294,0,0,0,0,0,0,0,-1,1924,701,13.0956,2.76296
707,323,10.2098,6.94135,0,0,0,0,0,0,0,-1,1931,701,10.2098,-6.94132
714,323,10.3798,6.47998,0,0,0,0,0,0,0,-1,1938,701,10.3797,-6.48001
721,323,0,0,0,0,0,0,0,0,0,-1,1945,701,0,0
728,323,0,0,0,0,0,0,0,0,0,-1,1952,701,0,0
735,323,0,0,0,0,0,0,0,0,0,-1,1959,701,0,0
742,323,0,0,0,0,0,0,0,0,0,-1,1966,701,0,0
749,323,0,0,0,0,0,0,0,0,0,-1,1973,701,0,0
756,323,0,0,0,0,0,0,0,0,0,-1,1980,701,0,0
763,323,0,0,0,0,0,0,0,0,0,-1,1987,701,0,0
770,323,0,0,0,0,0,0,0,0,0,-1,1994,701,0,0
777,323,0,0,0,0,0,0,0,0,0,-1,2001,701,0,0
784,323,0,0,0,0,0,0,0,0,0,-1,2008,701,0,0
791,323,0,0,0,0,0,0,0,0,0,-1,2015,701,0,0
798,323,0,0,0,0,0,0,0,0,0,-1,2022,701,0,0
805,323,0,0,0,0,0,0,0,0,0,-1,2029,701,0,0
812,323,0,0,0,0,0,0,0,0,0,-1,2036,701,0,0
-700,316,0,0,0,0,0,0,0,0,0,-1,524,708,0,0
-693,316,0,0,0,0,0,0,0,0,0,-1,531,708,0,0
-686,316,0,0,0,0,0,0,0,0,0,-1,538,708,0,0
-679,316,0,0,0,0,0,0,0,0,0,-1,545,708,0,0
-672,316,0,0,0,0,0,0,0,0,0,-1,552,708,0,0
-665,316,0,0,0,0,0,0,0,0,0,-1,559,708,0,0
-658,316,0,0,0,0,0,0,0,0,0,-1,566,708,0,0
-651,316,0,0,0,0,0,0,0,0,0,-1,573,708,0,0
-644,316,0,0,0,0,0,0,0,0,0,-1,580,708,0,0
-637,316,0,0,0,0,0,0,0,0,0,-1,587,708,0,0
-630,316,0,0,0,0,0,0,0,0,0,-1,594,708,0,0
-623,316,0,0,0,0,0,0,0,0,0,-1,601,708,0,0
-616,316,0,0,0,0,0,0,0,0,0,-1,608,708,0,0
-609,316,0,0,0,0,0,0,0,0,0,-1,615,708,0,0
-602,316,-0.451782,-0.0494995,-0.0983754,0.0480972,0.0408601,0.0587245,-0.109003,1.31634,0.0982769,0.0498204,622,708,-0.451768,0.0495022
-595,316,-3.3761,2.17188,-0.0665777,0.0437655,0.0284794,0.0506824,-0.0734947,1.33254,0.0720958,0.0473766,629,708,-3.37609,-2.17189
-588,316,-3.16071,2.33478,0,0,0,0,0,0,0,-1,636,708,-3.1607,-2.33481
-581,316,-3.94653,0.393433,0,0,0,0,0,0,0,-1,643,708,-3.94655,-0.39342
-574,316,-4.10046,0.112244,-0.0197786,0.0267992,0.0107281,0.0291514,-0.0221308,1.35496,0.0297001,0.0495282,650,708,-4.10046,-0.112217
-567,316,-4.21704,-0.342896,-0.0135564,0.0213801,0.00771791,0.0230091,-0.0151854,1.36278,0.0222053,0.0465509,657,708,-4.21704,0.342904
-560,316,-4.79657,0.367249,0,0,0,0,0,0,0,-1,664,708,-4.79658,-0.367223
-553,316,-4.79395,-0.0130005,-0.00698875,0.0122899,0.00381388,0.013017,-0.00771583,1.38242,0.0120998,0.0287962,671,708,-4.79397,0.0129981
-546,316,-4.87183,-0.0721436,-0.00436399,0.00835549,0.00187879,0.0086272,-0.0046357,1.42717,0.00777207,0.0167001,678,708,-4.8718,0.0721236
-539,316,-4.85992,-0.257263,-0.00276882,0.00635778,0.00138192,0.00656244,-0.00297348,1.42377,0.00563404,0.0122143,685,708,-4.8599,0.257279
-532,316,-4.88043,-0.424622,-0.00206701,0.00411233,0.00134665,0.00439305,-0.00234773,1.36528,0.00395106,0.0104656,692,708,-4.88046,0.424651
-525,316,-4.85858,-0.562256,-0.00178488,0.00205144,0.000959632,0.00227809,-0.00201153,1.33886,0.00247821,0.00936026,699,708,-4.85855,0.562273
-518,316,-4.8468,-0.738831,-0.000948637,0.000184396,0.000663698,0.000490483,-0.00125472,1.13868,0.0010393,0.00949544,706,708,-4.8468,0.738802
-511,316,-4.85614,-0.920349,0.000175425,-0.000790678,0.000577178,0.000445018,-0.00106027,0.436973,0.000892949,0.0102376,713,708,-4.85615,0.920337
-504,316,-4.85455,-1.11401,0.00115598,-0.00182436,0.000689515,0.00130777,-0.00197615,0.216686,0.00190902,0.013175,720,708,-4.85454,1.11401
-497,316,-4.85028,-1.27631,0.00219198,-0.00320714,0.000674045,0.00227486,-0.00329002,0.122342,0.00323065,0.0120651,727,708,-4.85027,1.2763
-490,316,-4.8902,-1.45013,0.00315027,-0.0048623,0.000619013,0.00319781,-0.00490984,0.0766492,0.00471561,0.013876,734,708,-4.89022,1.45012
-483,316,-4.80731,-1.69684,0.00410887,-0.00685542,0.000306899,0.00411745,-0.006864,0.0279616,0.0064059,0.028571,741,708,-4.8073,1.69685
-476,316,-4.65875,-1.94916,0,0,0,0,0,0,0,-1,748,708,-4.65874,1.94915
-469,316,-4.4389,-1.61902,0,0,0,0,0,0,0,-1,755,708,-4.43889,1.619
-462,316,-4.27344,-0.787476,0,0,0,0,0,0,0,-1,762,708,-4.27345,0.787505
-455,316,-4.4397,-1.13269,0,0,0,0,0,0,0,-1,769,708,-4.43971,1.13267
-448,316,-4.39099,-1.73376,0.0097863,-0.0201492,-0.00497128,0.0105903,-0.0209532,-0.160335,0.0185363,0.0466149,776,708,-4.39097,1.73374
-441,316,-4.56396,-2.57007,0,0,0,0,0,0,0,-1,783,708,-4.56395,2.57004
-434,316,-4.64746,-3.56024,0,0,0,0,0,0,0,-1,790,708,-4.64747,3.56025
-427,316,-4.7749,-4.72852,0,0,0,0,0,0,0,-1,797,708,-4.77488,4.72854
-420,316,-4.79297,-5.93024,0,0,0,0,0,0,0,-1,804,708,-4.79298,5.93023
-413,316,0,0,0,0,0,0,0,0,0,-1,811,708,0,0
-406,316,0,0,0,0,0,0,0,0,0,-1,818,708,0,0
-399,316,0,0,0,0,0,0,0,0,0,-1,825,708,0,0
-392,316,0,0,0,0,0,0,0,0,0,-1,832,708,0,0
-385,316,0,0,0,0,0,0,0,0,0,-1,839,708,0,0
-378,316,0,0,0,0,0,0,0,0,0,-1,846,708,0,0
-371,316,0,0,0,0,0,0,0,0,0,-1,853,708,0,0
-364,316,0,0,0,0,0,0,0,0,0,-1,860,708,0,0
-357,316,0,0,0,0,0,0,0,0,0,-1,867,708,0,0
-350,316,0,0,0,0,0,0,0,0,0,-1,874,708,0,0
-343,316,0,0,0,0,0,0,0,0,0,-1,881,708,0,0
-336,316,0,0,0,0,0,0,0,0,0,-1,888,708,0,0
-329,316,0,0,0,0,0,0,0,0,0,-1,895,708,0,0
-322,316,0,0,0,0,0,0,0,0,0,-1,902,708,0,0
-315,316,0,0,0,0,0,0,0,0,0,-1,909,708,0,0
-308,316,0,0,0,0,0,0,0,0,0,-1,916,708,0,0
-301,316,0,0,0,0,0,0,0,0,0,-1,923,708,0,0
-294,316,0,0,0,0,0,0,0,0,0,-1,930,708,0,0
-287,316,0,0,0,0,0,0,0,0,0,-1,937,708,0,0
-280,316,0,0,0,0,0,0,0,0,0,-1,944,708,0,0
-273,316,0,0,0,0,0,0,0,0,0,-1,951,708,0,0
-266,316,0,0,0,0,0,0,0,0,0,-1,958,708,0,0
-259,316,0,0,0,0,0,0,0,0,0,-1,965,708,0,0
-252,316,0,0,0,0,0,0,0,0,0,-1,972,708,0,0
-245,316,0,0,0,0,0,0,0,0,0,-1,979,708,0,0
-238,316,0,0,0,0,0,0,0,0,0,-1,986,708,0,0
-231,316,0,0,0,0,0,0,0,0,0,-1,993,708,0,0
-224,316,0,0,0,0,0,0,0,0,0,-1,1000,708,0,0
-217,316,0,0,0,0,0,0,0,0,0,-1,1007,708,0,0
-210,316,0,0,0,0,0,0,0,0,0,-1,1014,708,0,0
-203,316,0,0,0,0,0,0,0,0,0,-1,1021,708,0,0
-196,316,0,0,0,0,0,0,0,0,0,-1,1028,708,0,0
-189,316,0,0,0,0,0,0,0,0,0,-1,1035,708,0,0
-182,316,0,0,0,0,0,0,0,0,0,-1,1042,708,0,0
-175,316,0,0,0,0,0,0,0,0,0,-1,1049,708,0,0
-168,316,0,0,0,0,0,0,0,0,0,-1,1056,708,0,0
-161,316,0,0,0,0,0,0,0,0,0,-1,1063,708,0,0
-154,316,0,0,0,0,0,0,0,0,0,-1,1070,708,0,0
-147,316,0,0,0,0,0,0,0,0,0,-1,1077,708,0,0
-140,316,0,0,0,0,0,0,0,0,0,-1,1084,708,0,0
-133,316,0,0,0,0,0,0,0,0,0,-1,1091,708,0,0
-126,316,0,0,0,0,0,0,0,0,0,-1,1098,708,0,0
-119,316,0,0,0,0,0,0,0,0,0,-1,1105,708,0,0
-112,316,0,0,0,0,0,0,0,0,0,-1,1112,708,0,0
-105,316,0,0,0,0,0,0,0,0,0,-1,1119,708,0,0
-98,316,0,0,0,0,0,0,0,0,0,-1,1126,708,0,0
-91,316,0,0,0,0,0,0,0,0,0,-1,1133,708,0,0
-84,316,0,0,0,0,0,0,0,0,0,-1,1140,708,0,0
-77,316,0,0,0,0,0,0,0,0,0,-1,1147,708,0,0
-70,316,0,0,0,0,0,0,0,0,0,-1,1154,708,0,0
-63,316,0,0,0,0,0,0,0,0,0,-1,1161,708,0,0
-56,316,0,0,0,0,0,0,0,0,0,-1,1168,708,0,0
-49,316,0,0,0,0,0,0,0,0,0,-1,1175,708,0,0
-42,316,0,0,0,0,0,0,0,0,0,-1,1182,708,0,0
-35,316,0,0,0,0,0,0,0,0,0,-1,1189,708,0,0
-28,316,0,0,0,0,0,0,0,0,0,-1,1196,708,0,0
-21,316,0,0,0,0,0,0,0,0,0,-1,1203,708,0,0
-14,316,0,0,0,0,0,0,0,0,0,-1,1210,708,0,0
-7,316,0,0,0,0,0,0,0,0,0,-1,1217,708,0,0
0,316,0,0,0,0,0,0,0,0,0,-1,1224,708,0,0
7,316,0,0,0,0,0,0,0,0,0,-1,1231,708,0,0
14,316,0,0,0,0,0,0,0,0,0,-1,1238,708,0,0
21,316,0,0,0,0,0,0,0,0,0,-1,1245,708,0,0
28,316,0,0,0,0,0,0,0,0,0,-1,1252,708,0,0
35,316,0,0,0,0,0,0,0,0,0,-1,1259,708,0,0
42,316,0,0,0,0,0,0,0,0,0,-1,1266,708,0,0
49,316,0,0,0,0,0,0,0,0,0,-1,1273,708,0,0
56,316,0,0,0,0,0,0,0,0,0,-1,1280,708,0,0
63,316,0,0,0,0,0,0,0,0,0,-1,1287,708,0,0
70,316,0,0,0,0,0,0,0,0,0,-1,1294,708,0,0
77,316,0,0,0,0,0,0,0,0,0,-1,1301,708,0,0
84,316,0,0,0,0,0,0,0,0,0,-1,1308,708,0,0
91,316,0,0,0,0,0,0,0,0,0,-1,1315,708,0,0
98,316,0,0,0,0,0,0,0,0,0,-1,1322,708,0,0
105,316,0,0,0,0,0,0,0,0,0,-1,1329,708,0,0
112,316,0,0,0,0,0,0,0,0,0,-1,1336,708,0,0
119,316,0,0,0,0,0,0,0,0,0,-1,1343,708,0,0
126,316,0,0,0,0,0,0,0,0,0,-1,1350,708,0,0
133,316,0,0,0,0,0,0,0,0,0,-1,1357,708,0,0
140,316,0,0,0,0,0,0,0,0,0,-1,1364,708,0,0
147,316,0,0,0,0,0,0,0,0,0,-1,1371,708,0,0
154,316,0,0,0,0,0,0,0,0,0,-1,1378,708,0,0
161,316,0,0,0,0,0,0,0,0,0,-1,1385,708,0,0
168,316,0,0,0,0,0,0,0,0,0,-1,1392,708,0,0
175,316,0,0,0,0,0,0,0,0,0,-1,1399,708,0,0
182,316,0,0,0,0,0,0,0,0,0,-1,1406,708,0,0
189,316,0,0,0,0,0,0,0,0,0,-1,1413,708,0,0
196,316,0,0,0,0,0,0,0,0,0,-1,1420,708,0,0
203,316,0,0,0,0,0,0,0,0,0,-1,1427,708,0,0
210,316,0,0,0,0,0,0,0,0,0,-1,1434,708,0,0
217,316,0,0,0,0,0,0,0,0,0,-1,1441,708,0,0
224,316,0,0,0,0,0,0,0,0,0,-1,1448,708,0,0
231,316,0,0,0,0,0,0,0,0,0,-1,1455,708,0,0
238,316,0,0,0,0,0,0,0,0,0,-1,1462,708,0,0
245,316,0,0,0,0,0,0,0,0,0,-1,1469,708,0,0
252,316,0,0,0,0,0,0,0,0,0,-1,1476,708,0,0
259,316,0,0,0,0,0,0,0,0,0,-1,1483,708,0,0
266,316,0,0,0,0,0,0,0,0,0,-1,1490,708,0,0
273,316,0,0,0,0,0,0,0,0,0,-1,1497,708,0,0
280,316,0,0,0,0,0,0,0,0,0,-1,1504,708,0,0
287,316,0,0,0,0,0,0,0,0,0,-1,1511,708,0,0
294,316,0,0,0,0,0,0,0,0,0,-1,1518,708,0,0
301,316,0,0,0,0,0,0,0,0,0,-1,1525,708,0,0
308,316,0,0,0,0,0,0,0,0,0,-1,1532,708,0,0
315,316,0,0,0,0,0,0,0,0,0,-1,1539,708,0,0
322,316,0,0,0,0,0,0,0,0,0,-1,1546,708,0,0
329,316,0,0,0,0,0,0,0,0,0,-1,1553,708,0,0
336,316,0,0,0,0,0,0,0,0,0,-1,1560,708,0,0
343,316,0,0,0,0,0,0,0,0,0,-1,1567,708,0,0
350,316,0,0,0,0,0,0,0,0,0,-1,1574,708,0,0
357,316,0,0,0,0,0,0,0,0,0,-1,1581,708,0,0
364,316,0,0,0,0,0,0,0,0,0,-1,1588,708,0,0
371,316,0,0,0,0,0,0,0,0,0,-1,1595,708,0,0
378,316,0,0,0,0,0,0,0,0,0,-1,1602,708,0,0
385,316,0,0,0,0,0,0,0,0,0,-1,1609,708,0,0
392,316,0,0,0,0,0,0,0,0,0,-1,1616,708,0,0
399,316,0,0,0,0,0,0,0,0,0,-1,1623,708,0,0
406,316,0,0,0,0,0,0,0,0,0,-1,1630,708,0,0
413,316,0,0,0,0,0,0,0,0,0,-1,1637,708,0,0
420,316,0,0,0,0,0,0,0,0,0,-1,1644,708,0,0
427,316,0,0,0,0,0,0,0,0,0,-1,1651,708,0,0
434,316,0,0,0,0,0,0,0,0,0,-1,1658,708,0,0
441,316,0,0,0,0,0,0,0,0,0,-1,1665,708,0,0
448,316,0,0,0,0,0,0,0,0,0,-1,1672,708,0,0
455,316,0,0,0,0,0,0,0,0,0,-1,1679,708,0,0
462,316,0,0,0,0,0,0,0,0,0,-1,1686,708,0,0
469,316,0,0,0,0,0,0,0,0,0,-1,1693,708,0,0
476,316,0,0,0,0,0,0,0,0,0,-1,1700,708,0,0
483,316,0,0,0,0,0,0,0,0,0,-1,1707,708,0,0
490,316,0,0,0,0,0,0,0,0,0,-1,1714,708,0,0
497,316,0,0,0,0,0,0,0,0,0,-1,1721,708,0,0
504,316,0,0,0,0,0,0,0,0,0,-1,1728,708,0,0
511,316,0,0,0,0,0,0,0,0,0,-1,1735,708,0,0
518,316,0,0,0,0,0,0,0,0,0,-1,1742,708,0,0
525,316,0,0,0,0,0,0,0,0,0,-1,1749,708,0,0
532,316,15.9724,-0.933899,0,0,0,0,0,0,0,-1,1756,708,15.9725,0.93387
539,316,16.2589,-0.605042,0,0,0,0,0,0,0,-1,1763,708,16.2589,0.605025
546,316,16.5508,0.050354,0,0,0,0,0,0,0,-1,1770,708,16.5508,-0.0503387
553,316,18.7069,-0.00286865,0,0,0,0,0,0,0,-1,1777,708,18.7069,0.00289625
560,316,17.9144,0.336975,0,0,0,0,0,0,0,-1,1784,708,17.9145,-0.33695
567,316,18.556,0.104065,0,0,0,0,0,0,0,-1,1791,708,18.5561,-0.104055
574,316,18.429,1.56982,0,0,0,0,0,0,0,-1,1798,708,18.4289,-1.56983
581,316,19.3909,-0.446838,0,0,0,0,0,0,0,-1,1805,708,19.3909,0.446856
588,316,14.1801,1.7594,0,0,0,0,0,0,0,-1,1812,708,14.1801,-1.75939
595,316,12.5363,1.50702,0,0,0,0,0,0,0,-1,1819,708,12.5363,-1.50701
602,316,7.79919,0.0422363,0,0,0,0,0,0,0,-1,1826,708,7.79923,-0.0422066
609,316,9.50378,0.223694,0,0,0,0,0,0,0,-1,1833,708,9.50381,-0.223677
616,316,9.70068,0.180786,0.00233283,-0.0022331,0.00185495,0.00299143,-0.0028917,0.341164,0.00339679,0.0162123,1840,708,9.70073,-0.180799
623,316,9.73413,0.373535,0.00146482,-0.00262383,-0.000106969,0.00146762,-0.00262662,-0.0261386,0.00239518,0.0106647,1847,708,9.73411,-0.373514
630,316,9.7345,0.570068,0.00103547,-0.00202341,-0.000702516,0.00118909,-0.00217703,-0.215293,0.00197114,0.0127259,1854,708,9.73447,-0.570045
637,316,9.73889,0.766724,0.00116595,-0.00138497,-0.00104658,0.00154038,-0.0017594,-0.343574,0.00190653,0.0114967,1861,708,9.73894,-0.766698
644,316,9.75305,0.943848,0.00159025,-0.000979914,-0.00107264,0.00197908,-0.00136875,-0.347768,0.00194355,0.011253,1868,708,9.75311,-0.943855
651,316,9.73682,1.13373,0.00247747,-0.000875399,-0.000906381,0.0027068,-0.00110473,-0.247822,0.00226446,0.0118659,1875,708,9.73679,-1.13371
658,316,9.72546,1.34442,0.00397137,0.000111222,-0.00058069,0.00405683,2.57595e-05,-0.146125,0.00269601,0.018089,1882,708,9.72551,-1.3444
665,316,9.70044,1.52502,0.00653894,0.00222984,-0.000343617,0.00656617,0.00220261,-0.0790761,0.00385881,0.0149932,1889,708,9.70045,-1.52502
672,316,9.72241,1.69464,0.0103528,0.00535187,-0.000114943,0.0103555,0.00534923,-0.0229682,0.00597982,0.0124969,1896,708,9.72239,-1.69467
679,316,9.73584,1.90234,0.0149571,0.00907545,7.86176e-05,0.0149582,0.0090744,0.0133634,0.00870134,0.0176205,1903,708,9.73581,-1.90237
686,316,9.63147,2.08234,0.021222,0.0147992,0.000104993,0.0212237,0.0147975,0.0163412,0.0125672,0.0302401,1910,708,9.63151,-2.08236
693,316,9.37573,2.56866,0.0299007,0.0235141,7.01856e-05,0.0299015,0.0235134,0.0109878,0.0181829,0.0467217,1917,708,9.37577,-2.56867
700,316,9.09204,3.04333,0,0,0,0,0,0,0,-1,1924,708,9.09208,-3.04335
707,316,10.5203,6.3385,0,0,0,0,0,0,0,-1,1931,708,10.5203,-6.33852
714,316,10.7048,5.8642,0,0,0,0,0,0,0,-1,1938,708,10.7048,-5.86419
721,316,11.0784,5.54919,0,0,0,0,0,0,0,-1,1945,708,11.0783,-5.54917
728,316,0,0,0,0,0,0,0,0,0,-1,1952,708,0,0
735,316,0,0,0,0,0,0,0,0,0,-1,1959,708,0,0
742,316,0,0,0,0,0,0,0,0,0,-1,1966,708,0,0
749,316,0,0,0,0,0,0,0,0,0,-1,1973,708,0,0
756,316,0,0,0,0,0,0,0,0,0,-1,1980,708,0,0
763,316,0,0,0,0,0,0,0,0,0,-1,1987,708,0,0
770,316,0,0,0,0,0,0,0,0,0,-1,1994,708,0,0
777,316,0,0,0,0,0,0,0,0,0,-1,2001,708,0,0
784,316,0,0,0,0,0,0,0,0,0,-1,2008,708,0,0
791,316,0,0,0,0,0,0,0,0,0,-1,2015,708,0,0
798,316,0,0,0,0,0,0,0,0,0,-1,2022,708,0,0
805,316,0,0,0,0,0,0,0,0,0,-1,2029,708,0,0
812,316,0,0,0,0,0,0,0,0,0,-1,2036,708,0,0
-700,309,0,0,0,0,0,0,0,0,0,-1,524,715,0,0
-693,309,0,0,0,0,0,0,0,0,0,-1,531,715,0,0
-686,309,0,0,0,0,0,0,0,0,0,-1,538,715,0,0
-679,309,0,0,0,0,0,0,0,0,0,-1,545,715,0,0
-672,309,0,0,0,0,0,0,0,0,0,-1,552,715,0,0
-665,309,0,0,0,0,0,0,0,0,0,-1,559,715,0,0
-658,309,0,0,0,0,0,0,0,0,0,-1,566,715,0,0
-651,309,0,0,0,0,0,0,0,0,0,-1,573,715,0,0
-644,309,0,0,0,0,0,0,0,0,0,-1,580,715,0,0
-637,309,0,0,0,0,0,0,0,0,0,-1,587,715,0,0
-630,309,0,0,0,0,0,0,0,0,0,-1,594,715,0,0
-623,309,0,0,0,0,0,0,0,0,0,-1,601,715,0,0
-616,309,0,0,0,0,0,0,0,0,0,-1,608,715,0,0
-609,309,-0.667847,-1.23444,0,0,0,0,0,0,0,-1,615,715,-0.667826,1.23447
-602,309,-1.32562,-1.13629,0,0,0,0,0,0,0,-1,622,715,-1.32561,1.13629
-595,309,-2.08661,-1.021,0,0,0,0,0,0,0,-1,629,715,-2.08659,1.021
-588,309,-2.88904,-0.864502,0,0,0,0,0,0,0,-1,636,715,-2.88902,0.864499
-581,309,-3.91559,-1.22198,0,0,0,0,0,0,0,-1,643,715,-3.9156,1.22199
-574,309,-4.3576,-1.0849,-0.0215295,0.0260486,0.0116371,0.0287424,-0.0242233,1.34332,0.0306168,0.0493316,650,715,-4.35761,1.08488
-567,309,-4.64893,-0.651917,-0.0146596,0.0205476,0.00862318,0.0225461,-0.0166582,1.34305,0.0227196,0.0431742,657,715,-4.64896,0.651933
-560,309,-4.75513,-0.272705,-0.0101157,0.0156354,0.00634877,0.0171156,-0.0115959,1.34175,0.0166784,0.0398087,664,715,-4.75515,0.27269
-553,309,-4.99219,0.017395,-0.00711962,0.0114623,0.0046006,0.0125389,-0.00819627,1.34091,0.0120587,0.0276767,671,715,-4.99219,-0.0174232
-546,309,-5.03369,-0.0623169,-0.00429026,0.00762243,0.00261588,0.00817154,-0.00483937,1.36389,0.00759352,0.015223,678,715,-5.03368,0.0623008
-539,309,-5.03296,-0.245117,-0.0025761,0.0056711,0.00200497,0.00613269,-0.00303769,1.34452,0.0053941,0.0138172,685,715,-5.03294,0.245145
-532,309,-5.05182,-0.418701,-0.0017368,0.00341198,0.00179397,0.0039754,-0.00230021,1.26649,0.003666,0.0117757,692,715,-5.0518,0.418674
-525,309,-5.03284,-0.573303,-0.0014201,0.00162392,0.00136423,0.00214584,-0.00194202,1.2054,0.0023611,0.0150692,699,715,-5.03284,0.573279
-518,309,-5.02991,-0.750549,-0.000677049,-5.96578e-05,0.00103329,0.000710066,-0.00144677,0.930552,0.00126923,0.0144367,706,715,-5.02993,0.75058
-511,309,-5.04205,-0.902466,0.00031841,-0.00101441,0.000826159,0.000713434,-0.00140943,0.446011,0.0012474,0.0109938,713,715,-5.04207,0.90244
-504,309,-5.02698,-1.08398,0.00128891,-0.00204349,0.000810269,0.00147548,-0.00223006,0.226313,0.00215413,0.00952812,720,715,-5.02698,1.08398
-497,309,-5.03674,-1.26172,0.00241571,-0.00333046,0.000640668,0.00248627,-0.00340102,0.1097,0.00341268,0.0136639,727,715,-5.03676,1.26173
-490,309,-5.03314,-1.43488,0.00359275,-0.00494225,0.00041694,0.00361307,-0.00496257,0.0486961,0.00497154,0.020766,734,715,-5.03314,1.4349
-483,309,-4.88727,-1.38593,0.00491115,-0.00688541,-0.000105766,0.0049121,-0.00688636,-0.00896487,0.00684356,0.0473211,741,715,-4.88728,1.38595
-476,309,-4.81665,-1.30164,0,0,0,0,0,0,0,-1,748,715,-4.81667,1.30164
-469,309,-4.22717,-0.592896,0,0,0,0,0,0,0,-1,755,715,-4.2272,0.592905
-462,309,-8.03296,0.179443,0,0,0,0,0,0,0,-1,762,715,-8.03297,-0.17946
-455,309,-8.75903,0.439575,0,0,0,0,0,0,0,-1,769,715,-8.75902,-0.439584
-448,309,-4.27319,-2.10785,0,0,0,0,0,0,0,-1,776,715,-4.2732,2.10786
-441,309,-4.40973,-3.24542,0,0,0,0,0,0,0,-1,783,715,-4.40974,3.24541
-434,309,-4.46503,-4.42523,0,0,0,0,0,0,0,-1,790,715,-4.46502,4.42524
-427,309,-4.87079,-6.14679,0,0,0,0,0,0,0,-1,797,715,-4.87077,6.14678
-420,309,-3.81921,-3.49042,0,0,0,0,0,0,0,-1,804,715,-3.81922,3.4904
-413,309,0,0,0,0,0,0,0,0,0,-1,811,715,0,0
-406,309,0,0,0,0,0,0,0,0,0,-1,818,715,0,0
-399,309,0,0,0,0,0,0,0,0,0,-1,825,715,0,0
-392,309,0,0,0,0,0,0,0,0,0,-1,832,715,0,0
-385,309,0,0,0,0,0,0,0,0,0,-1,839,715,0,0
-378,309,0,0,0,0,0,0,0,0,0,-1,846,715,0,0
-371,309,0,0,0,0,0,0,0,0,0,-1,853,715,0,0
-364,309,0,0,0,0,0,0,0,0,0,-1,860,715,0,0
-357,309,0,0,0,0,0,0,0,0,0,-1,867,715,0,0
-350,309,0,0,0,0,0,0,0,0,0,-1,874,715,0,0
-343,309,0,0,0,0,0,0,0,0,0,-1,881,715,0,0
-336,309,0,0,0,0,0,0,0,0,0,-1,888,715,0,0
-329,309,0,0,0,0,0,0,0,0,0,-1,895,715,0,0
-322,309,0,0,0,0,0,0,0,0,0,-1,902,715,0,0
-315,309,0,0,0,0,0,0,0,0,0,-1,909,715,0,0
-308,309,0,0,0,0,0,0,0,0,0,-1,916,715,0,0
-301,309,0,0,0,0,0,0,0,0,0,-1,923,715,0,0
-294,309,0,0,0,0,0,0,0,0,0,-1,930,715,0,0
-287,309,0,0,0,0,0,0,0,0,0,-1,937,715,0,0
-280,309,0,0,0,0,0,0,0,0,0,-1,944,715,0,0
-273,309,0,0,0,0,0,0,0,0,0,-1,951,715,0,0
-266,309,0,0,0,0,0,0,0,0,0,-1,958,715,0,0
-259,309,0,0,0,0,0,0,0,0,0,-1,965,715,0,0
-252,309,0,0,0,0,0,0,0,0,0,-1,972,715,0,0
-245,309,0,0,0,0,0,0,0,0,0,-1,979,715,0,0
-238,309,0,0,0,0,0,0,0,0,0,-1,986,715,0,0
-231,309,0,0,0,0,0,0,0,0,0,-1,993,715,0,0
-224,309,0,0,0,0,0,0,0,0,0,-1,1000,715,0,0
-217,309,0,0,0,0,0,0,0,0,0,-1,1007,715,0,0
-210,309,0,0,0,0,0,0,0,0,0,-1,1014,715,0,0
-203,309,0,0,0,0,0,0,0,0,0,-1,1021,715,0,0
-196,309,0,0,0,0,0,0,0,0,0,-1,1028,715,0,0
-189,309,0,0,0,0,0,0,0,0,0,-1,1035,715,0,0
-182,309,0,0,0,0,0,0,0,0,0,-1,1042,715,0,0
-175,309,0,0,0,0,0,0,0,0,0,-1,1049,715,0,0
-168,309,0,0,0,0,0,0,0,0,0,-1,1056,715,0,0
-161,309,0,0,0,0,0,0,0,0,0,-1,1063,715,0,0
-154,309,0,0,0,0,0,0,0,0,0,-1,1070,715,0,0
-147,309,0,0,0,0,0,0,0,0,0,-1,1077,715,0,0
-140,309,0,0,0,0,0,0,0,0,0,-1,1084,715,0,0
-133,309,0,0,0,0,0,0,0,0,0,-1,1091,715,0,0
-126,309,0,0,0,0,0,0,0,0,0,-1,1098,715,0,0
-119,309,0,0,0,0,0,0,0,0,0,-1,1105,715,0,0
-112,309,0,0,0,0,0,0,0,0,0,-1,1112,715,0,0
-105,309,0,0,0,0,0,0,0,0,0,-1,1119,715,0,0
-98,309,0,0,0,0,0,0,0,0,0,-1,1126,715,0,0
-91,309,0,0,0,0,0,0,0,0,0,-1,1133,715,0,0
-84,309,0,0,0,0,0,0,0,0,0,-1,1140,715,0,0
-77,309,0,0,0,0,0,0,0,0,0,-1,1147,715,0,0
-70,309,0,0,0,0,0,0,0,0,0,-1,1154,715,0,0
-63,309,0,0,0,0,0,0,0,0,0,-1,1161,715,0,0
-56,309,0,0,0,0,0,0,0,0,0,-1,1168,715,0,0
-49,309,0,0,0,0,0,0,0,0,0,-1,1175,715,0,0
-42,309,0,0,0,0,0,0,0,0,0,-1,1182,715,0,0
-35,309,0,0,0,0,0,0,0,0,0,-1,1189,715,0,0
-28,309,0,0,0,0,0,0,0,0,0,-1,1196,715,0,0
-21,309,0,0,0,0,0,0,0,0,0,-1,1203,715,0,0
-14,309,0,0,0,0,0,0,0,0,0,-1,1210,715,0,0
-7,309,0,0,0,0,0,0,0,0,0,-1,1217,715,0,0
0,309,0,0,0,0,0,0,0,0,0,-1,1224,715,0,0
7,309,0,0,0,0,0,0,0,0,0,-1,1231,715,0,0
14,309,0,0,0,0,0,0,0,0,0,-1,1238,715,0,0
21,309,0,0,0,0,0,0,0,0,0,-1,1245,715,0,0
28,309,0,0,0,0,0,0,0,0,0,-1,1252,715,0,0
35,309,0,0,0,0,0,0,0,0,0,-1,1259,715,0,0
42,309,0,0,0,0,0,0,0,0,0,-1,1266,715,0,0
49,309,0,0,0,0,0,0,0,0,0,-1,1273,715,0,0
56,309,0,0,0,0,0,0,0,0,0,-1,1280,715,0,0
63,309,0,0,0,0,0,0,0,0,0,-1,1287,715,0,0
70,309,0,0,0,0,0,0,0,0,0,-1,1294,715,0,0
77,309,0,0,0,0,0,0,0,0,0,-1,1301,715,0,0
84,309,0,0,0,0,0,0,0,0,0,-1,1308,715,0,0
91,309,0,0,0,0,0,0,0,0,0,-1,1315,715,0,0
98,309,0,0,0,0,0,0,0,0,0,-1,1322,715,0,0
105,309,0,0,0,0,0,0,0,0,0,-1,1329,715,0,0
112,309,0,0,0,0,0,0,0,0,0,-1,1336,715,0,0
119,309,0,0,0,0,0,0,0,0,0,-1,1343,715,0,0
126,309,0,0,0,0,0,0,0,0,0,-1,1350,715,0,0
133,309,0,0,0,0,0,0,0,0,0,-1,1357,715,0,0
140,309,0,0,0,0,0,0,0,0,0,-1,1364,715,0,0
147,309,0,0,0,0,0,0,0,0,0,-1,1371,715,0,0
154,309,0,0,0,0,0,0,0,0,0,-1,1378,715,0,0
161,309,0,0,0,0,0,0,0,0,0,-1,1385,715,0,0
168,309,0,0,0,0,0,0,0,0,0,-1,1392,715,0,0
175,309,0,0,0,0,0,0,0,0,0,-1,1399,715,0,0
182,309,0,0,0,0,0,0,0,0,0,-1,1406,715,0,0
189,309,0,0,0,0,0,0,0,0,0,-1,1413,715,0,0
196,309,0,0,0,0,0,0,0,0,0,-1,1420,715,0,0
203,309,0,0,0,0,0,0,0,0,0,-1,1427,715,0,0
210,309,0,0,0,0,0,0,0,0,0,-1,1434,715,0,0
217,309,0,0,0,0,0,0,0,0,0,-1,1441,715,0,0
224,309,0,0,0,0,0,0,0,0,0,-1,1448,715,0,0
231,309,0,0,0,0,0,0,0,0,0,-1,1455,715,0,0
238,309,0,0,0,0,0,0,0,0,0,-1,1462,715,0,0
245,309,0,0,0,0,0,0,0,0,0,-1,1469,715,0,0
252,309,0,0,0,0,0,0,0,0,0,-1,1476,715,0,0
259,309,0,0,0,0,0,0,0,0,0,-1,1483,715,0,0
266,309,0,0,0,0,0,0,0,0,0,-1,1490,715,0,0
273,309,0,0,0,0,0,0,0,0,0,-1,1497,715,0,0
280,309,0,0,0,0,0,0,0,0,0,-1,1504,715,0,0
287,309,0,0,0,0,0,0,0,0,0,-1,1511,715,0,0
294,309,0,0,0,0,0,0,0,0,0,-1,1518,715,0,0
301,309,0,0,0,0,0,0,0,0,0,-1,1525,715,0,0
308,309,0,0,0,0,0,0,0,0,0,-1,1532,715,0,0
315,309,0,0,0,0,0,0,0,0,0,-1,1539,715,0,0
322,309,0,0,0,0,0,0,0,0,0,-1,1546,715,0,0
329,309,0,0,0,0,0,0,0,0,0,-1,1553,715,0,0
336,309,0,0,0,0,0,0,0,0,0,-1,1560,715,0,0
343,309,0,0,0,0,0,0,0,0,0,-1,1567,715,0,0
350,309,0,0,0,0,0,0,0,0,0,-1,1574,715,0,0
357,309,0,0,0,0,0,0,0,0,0,-1,1581,715,0,0
364,309,0,0,0,0,0,0,0,0,0,-1,1588,715,0,0
371,309,0,0,0,0,0,0,0,0,0,-1,1595,715,0,0
378,309,0,0,0,0,0,0,0,0,0,-1,1602,715,0,0
385,309,0,0,0,0,0,0,0,0,0,-1,1609,715,0,0
392,309,0,0,0,0,0,0,0,0,0,-1,1616,715,0,0
399,309,0,0,0,0,0,0,0,0,0,-1,1623,715,0,0
406,309,0,0,0,0,0,0,0,0,0,-1,1630,715,0,0
413,309,0,0,0,0,0,0,0,0,0,-1,1637,715,0,0
420,309,0,0,0,0,0,0,0,0,0,-1,1644,715,0,0
427,309,0,0,0,0,0,0,0,0,0,-1,1651,715,0,0
434,309,0,0,0,0,0,0,0,0,0,-1,1658,715,0,0
441,309,0,0,0,0,0,0,0,0,0,-1,1665,715,0,0
448,309,0,0,0,0,0,0,0,0,0,-1,1672,715,0,0
455,309,0,0,0,0,0,0,0,0,0,-1,1679,715,0,0
462,309,0,0,0,0,0,0,0,0,0,-1,1686,715,0,0
469,309,0,0,0,0,0,0,0,0,0,-1,1693,715,0,0
476,309,0,0,0,0,0,0,0,0,0,-1,1700,715,0,0
483,309,0,0,0,0,0,0,0,0,0,-1,1707,715,0,0
490,309,0,0,0,0,0,0,0,0,0,-1,1714,715,0,0
497,309,0,0,0,0,0,0,0,0,0,-1,1721,715,0,0
504,309,0,0,0,0,0,0,0,0,0,-1,1728,715,0,0
511,309,0,0,0,0,0,0,0,0,0,-1,1735,715,0,0
518,309,0,0,0,0,0,0,0,0,0,-1,1742,715,0,0
525,309,0,0,0,0,0,0,0,0,0,-1,1749,715,0,0
532,309,0,0,0,0,0,0,0,0,0,-1,1756,715,0,0
539,309,15.9861,-0.584656,0,0,0,0,0,0,0,-1,1763,715,15.9861,0.584626
546,309,17.4579,1.02875,0,0,0,0,0,0,0,-1,1770,715,17.4579,-1.02877
553,309,17.7799,0.581116,0,0,0,0,0,0,0,-1,1777,715,17.7799,-0.58109
560,309,18.1018,0.133423,0,0,0,0,0,0,0,-1,1784,715,18.1018,-0.133405
567,309,18.5533,2.41266,0,0,0,0,0,0,0,-1,1791,715,18.5534,-2.41267
574,309,17.7037,2.1557,0,0,0,0,0,0,0,-1,1798,715,17.7037,-2.15571
581,309,17.3782,2.15906,0,0,0,0,0,0,0,-1,1805,715,17.3782,-2.15905
588,309,17.2549,2.64154,0,0,0,0,0,0,0,-1,1812,715,17.2549,-2.64154
595,309,16.0269,1.74188,0,0,0,0,0,0,0,-1,1819,715,16.0269,-1.74191
602,309,9.59094,1.75812,0,0,0,0,0,0,0,-1,1826,715,9.59096,-1.75812
609,309,9.92371,-0.022583,0,0,0,0,0,0,0,-1,1833,715,9.92367,0.0226021
616,309,9.93311,0.184204,0.00139169,-0.00267711,0.00080478,0.00154509,-0.00283051,0.188348,0.00256233,0.0237694,1840,715,9.93315,-0.184217
623,309,9.9314,0.377686,4.06061e-05,-0.00298905,-0.00139916,0.0005879,-0.00353635,-0.372862,0.00257599,0.0106611,1847,715,9.9314,-0.377685
630,309,9.91382,0.580444,-0.000515066,-0.00241961,-0.00198912,0.000737976,-0.00367265,-0.56215,0.00272791,0.0105131,1854,715,9.91383,-0.580442
637,309,9.88977,0.765503,-0.00044459,-0.00184716,-0.00226195,0.00122229,-0.00351404,-0.635079,0.00283922,0.0125123,1861,715,9.88976,-0.765493
644,309,9.89526,0.950439,7.23431e-05,-0.00146377,-0.00206829,0.00151058,-0.00290201,-0.607615,0.00258949,0.0135123,1868,715,9.89522,-0.95043
651,309,9.91821,1.14069,0.000985906,-0.00156256,-0.00163775,0.00178674,-0.0023634,-0.454796,0.00240378,0.0127982,1875,715,9.91827,-1.14071
658,309,9.91711,1.33307,0.00242312,-0.000493489,-0.0010123,0.00274003,-0.000810407,-0.3034,0.00214839,0.0182912,1882,715,9.91712,-1.33305
665,309,9.92761,1.50464,0.00468987,0.00163951,-0.000555366,0.00478784,0.00154154,-0.174604,0.00282206,0.016789,1889,715,9.92757,-1.50466
672,309,9.9364,1.68585,0.00801326,0.00453977,-0.000193247,0.00802398,0.00452905,-0.0554069,0.00464546,0.0142471,1896,715,9.93645,-1.68586
679,309,9.93677,1.90088,0.011966,0.00785713,0.000121239,0.0119696,0.00785355,0.0294722,0.00702206,0.0149917,1903,715,9.93681,-1.90089
686,309,9.93091,2.05469,0.0172246,0.0127419,0.000201381,0.0172336,0.0127329,0.0448039,0.0103213,0.0204952,1910,715,9.9309,-2.05468
693,309,9.62708,2.27002,0.0244389,0.0201045,0.00015758,0.0244446,0.0200987,0.0362918,0.0150583,0.0334169,1917,715,9.6271,-2.27
700,309,9.32825,2.59174,0,0,0,0,0,0,0,-1,1924,715,9.32829,-2.59172
707,309,10.1073,2.60327,0,0,0,0,0,0,0,-1,1931,715,10.1073,-2.60329
714,309,10.1488,4.38708,0,0,0,0,0,0,0,-1,1938,715,10.1488,-4.3871
721,309,11.0671,4.27893,0,0,0,0,0,0,0,-1,1945,715,11.0671,-4.27892
728,309,0,0,0,0,0,0,0,0,0,-1,1952,715,0,0
735,309,0,0,0,0,0,0,0,0,0,-1,1959,715,0,0
742,309,0,0,0,0,0,0,0,0,0,-1,1966,715,0,0
749,309,0,0,0,0,0,0,0,0,0,-1,1973,715,0,0
756,309,0,0,0,0,0,0,0,0,0,-1,1980,715,0,0
763,309,0,0,0,0,0,0,0,0,0,-1,1987,715,0,0
770,309,0,0,0,0,0,0,0,0,0,-1,1994,715,0,0
777,309,0,0,0,0,0,0,0,0,0,-1,2001,715,0,0
784,309,0,0,0,0,0,0,0,0,0,-1,2008,715,0,0
791,309,0,0,0,0,0,0,0,0,0,-1,2015,715,0,0
798,309,0,0,0,0,0,0,0,0,0,-1,2022,715,0,0
805,309,0,0,0,0,0,0,0,0,0,-1,2029,715,0,0
812,309,0,0,0,0,0,0,0,0,0,-1,2036,715,0,0
-700,302,0,0,0,0,0,0,0,0,0,-1,524,722,0,0
-693,302,0,0,0,0,0,0,0,0,0,-1,531,722,0,0
-686,302,0,0,0,0,0,0,0,0,0,-1,538,722,0,0
-679,302,0,0,0,0,0,0,0,0,0,-1,545,722,0,0
-672,302,0,0,0,0,0,0,0,0,0,-1,552,722,0,0
-665,302,0,0,0,0,0,0,0,0,0,-1,559,722,0,0
-658,302,0,0,0,0,0,0,0,0,0,-1,566,722,0,0
-651,302,0,0,0,0,0,0,0,0,0,-1,573,722,0,0
-644,302,0,0,0,0,0,0,0,0,0,-1,580,722,0,0
-637,302,0,0,0,0,0,0,0,0,0,-1,587,722,0,0
-630,302,0,0,0,0,0,0,0,0,0,-1,594,722,0,0
-623,302,0,0,0,0,0,0,0,0,0,-1,601,722,0,0
-616,302,0,0,0,0,0,0,0,0,0,-1,608,722,0,0
-609,302,-1.39709,-2.28119,0,0,0,0,0,0,0,-1,615,722,-1.39707,2.28118
-602,302,-2.14374,-2.12939,0,0,0,0,0,0,0,-1,622,722,-2.14375,2.12936
-595,302,-2.84198,-2.09131,0,0,0,0,0,0,0,-1,629,722,-2.842,2.09129
-588,302,-3.72046,-2.17572,-0.0474287,0.0372935,0.0206951,0.0420785,-0.0522136,1.34358,0.0545443,0.0451238,636,722,-3.72043,2.17575
-581,302,-4.59003,-2.27087,0,0,0,0,0,0,0,-1,643,722,-4.59002,2.27087
-574,302,-5.29028,-2.20026,0,0,0,0,0,0,0,-1,650,722,-5.29029,2.20024
-567,302,-5.14093,-0.773499,0,0,0,0,0,0,0,-1,657,722,-5.14092,0.773524
-560,302,-5.01093,0.00848389,-0.0102269,0.0147523,0.00668196,0.0164274,-0.011902,1.32517,0.0164254,0.0352505,664,722,-5.01092,-0.00847479
-553,302,-5.20453,0.107422,-0.00699036,0.0106772,0.00498899,0.0119887,-0.00830181,1.31374,0.011779,0.0162739,671,722,-5.20455,-0.107405
-546,302,-5.21216,-0.0653076,-0.00410581,0.00701454,0.00309548,0.00781813,-0.0049094,1.3168,0.00741194,0.0140072,678,722,-5.21216,0.0653236
-539,302,-5.21136,-0.213013,-0.0023697,0.00513602,0.0024524,0.00586627,-0.00309994,1.28139,0.00525813,0.0138433,685,722,-5.21134,0.212991
-532,302,-5.24695,-0.386169,-0.00145348,0.00291223,0.00212965,0.00377901,-0.00232026,1.18427,0.00355483,0.0136282,692,722,-5.24696,0.38618
-525,302,-5.22089,-0.601074,-0.0011456,0.00132191,0.00170695,0.00219429,-0.00201798,1.09832,0.00243267,0.0186528,699,722,-5.2209,0.601081
-518,302,-5.23254,-0.756287,-0.000516423,-0.000200481,0.00134747,0.000998245,-0.00171515,0.84375,0.0015847,0.0195244,706,722,-5.23254,0.756304
-511,302,-5.22186,-0.898193,0.000364453,-0.00115538,0.00104231,0.000894456,-0.00168538,0.470414,0.00151262,0.00974648,713,722,-5.22189,0.898208
-504,302,-5.2088,-1.06915,0.00134329,-0.00220146,0.000901269,0.00155928,-0.00241746,0.235216,0.00231372,0.00939279,720,722,-5.2088,1.06916
-497,302,-5.22516,-1.23834,0.00259905,-0.00342889,0.000560255,0.00265068,-0.00348052,0.0918942,0.00355064,0.0135573,727,722,-5.22518,1.23835
-490,302,-5.14313,-1.38141,0.00401609,-0.0050104,0.000138461,0.00401821,-0.00501252,0.0153346,0.00522442,0.0272352,734,722,-5.14312,1.38138
-483,302,-4.79614,-1.39154,0,0,0,0,0,0,0,-1,741,722,-4.79613,1.39154
-476,302,-4.29749,-0.203491,0,0,0,0,0,0,0,-1,748,722,-4.29751,0.203464
-469,302,-6.328,1.84778,0,0,0,0,0,0,0,-1,755,722,-6.32803,-1.84777
-462,302,-8.64081,-0.368835,0,0,0,0,0,0,0,-1,762,722,-8.64079,0.368829
-455,302,-9.33875,-0.479675,0,0,0,0,0,0,0,-1,769,722,-9.33876,0.479658
-448,302,-9.91321,-0.486145,0,0,0,0,0,0,0,-1,776,722,-9.91322,0.486163
-441,302,-10.6113,-0.475098,0,0,0,0,0,0,0,-1,783,722,-10.6113,0.475116
-434,302,-3.84656,2.89349,0,0,0,0,0,0,0,-1,790,722,-3.84654,-2.8935
-427,302,-9.85724,0.342041,0,0,0,0,0,0,0,-1,797,722,-9.85723,-0.342042
-420,302,0,0,0,0,0,0,0,0,0,-1,804,722,0,0
-413,302,0,0,0,0,0,0,0,0,0,-1,811,722,0,0
-406,302,0,0,0,0,0,0,0,0,0,-1,818,722,0,0
-399,302,0,0,0,0,0,0,0,0,0,-1,825,722,0,0
-392,302,0,0,0,0,0,0,0,0,0,-1,832,722,0,0
-385,302,0,0,0,0,0,0,0,0,0,-1,839,722,0,0
-378,302,0,0,0,0,0,0,0,0,0,-1,846,722,0,0
-371,302,0,0,0,0,0,0,0,0,0,-1,853,722,0,0
-364,302,0,0,0,0,0,0,0,0,0,-1,860,722,0,0
-357,302,0,0,0,0,0,0,0,0,0,-1,867,722,0,0
-350,302,0,0,0,0,0,0,0,0,0,-1,874,722,0,0
-343,302,0,0,0,0,0,0,0,0,0,-1,881,722,0,0
-336,302,0,0,0,0,0,0,0,0,0,-1,888,722,0,0
-329,302,0,0,0,0,0,0,0,0,0,-1,895,722,0,0
-322,302,0,0,0,0,0,0,0,0,0,-1,902,722,0,0
-315,302,0,0,0,0,0,0,0,0,0,-1,909,722,0,0
-308,302,0,0,0,0,0,0,0,0,0,-1,916,722,0,0
-301,302,0,0,0,0,0,0,0,0,0,-1,923,722,0,0
-294,302,0,0,0,0,0,0,0,0,0,-1,930,722,0,0
-287,302,0,0,0,0,0,0,0,0,0,-1,937,722,0,0
-280,302,0,0,0,0,0,0,0,0,0,-1,944,722,0,0
-273,302,0,0,0,0,0,0,0,0,0,-1,951,722,0,0
-266,302,0,0,0,0,0,0,0,0,0,-1,958,722,0,0
-259,302,0,0,0,0,0,0,0,0,0,-1,965,722,0,0
-252,302,0,0,0,0,0,0,0,0,0,-1,972,722,0,0
-245,302,0,0,0,0,0,0,0,0,0,-1,979,722,0,0
-238,302,0,0,0,0,0,0,0,0,0,-1,986,722,0,0
-231,302,0,0,0,0,0,0,0,0,0,-1,993,722,0,0
-224,302,0,0,0,0,0,0,0,0,0,-1,1000,722,0,0
-217,302,0,0,0,0,0,0,0,0,0,-1,1007,722,0,0
-210,302,0,0,0,0,0,0,0,0,0,-1,1014,722,0,0
-203,302,0,0,0,0,0,0,0,0,0,-1,1021,722,0,0
-196,302,0,0,0,0,0,0,0,0,0,-1,1028,722,0,0
-189,302,0,0,0,0,0,0,0,0,0,-1,1035,722,0,0
-182,302,0,0,0,0,0,0,0,0,0,-1,1042,722,0,0
-175,302,0,0,0,0,0,0,0,0,0,-1,1049,722,0,0
-168,302,0,0,0,0,0,0,0,0,0,-1,1056,722,0,0
-161,302,0,0,0,0,0,0,0,0,0,-1,1063,722,0,0
-154,302,0,0,0,0,0,0,0,0,0,-1,1070,722,0,0
-147,302,0,0,0,0,0,0,0,0,0,-1,1077,722,0,0
-140,302,0,0,0,0,0,0,0,0,0,-1,1084,722,0,0
-133,302,0,0,0,0,0,0,0,0,0,-1,1091,722,0,0
-126,302,0,0,0,0,0,0,0,0,0,-1,1098,722,0,0
-119,302,0,0,0,0,0,0,0,0,0,-1,1105,722,0,0
-112,302,0,0,0,0,0,0,0,0,0,-1,1112,722,0,0
-105,302,0,0,0,0,0,0,0,0,0,-1,1119,722,0,0
-98,302,0,0,0,0,0,0,0,0,0,-1,1126,722,0,0
-91,302,0,0,0,0,0,0,0,0,0,-1,1133,722,0,0
-84,302,0,0,0,0,0,0,0,0,0,-1,1140,722,0,0
-77,302,0,0,0,0,0,0,0,0,0,-1,1147,722,0,0
-70,302,0,0,0,0,0,0,0,0,0,-1,1154,722,0,0
-63,302,0,0,0,0,0,0,0,0,0,-1,1161,722,0,0
-56,302,0,0,0,0,0,0,0,0,0,-1,1168,722,0,0
-49,302,0,0,0,0,0,0,0,0,0,-1,1175,722,0,0
-42,302,0,0,0,0,0,0,0,0,0,-1,1182,722,0,0
-35,302,0,0,0,0,0,0,0,0,0,-1,1189,722,0,0
-28,302,0,0,0,0,0,0,0,0,0,-1,1196,722,0,0
-21,302,0,0,0,0,0,0,0,0,0,-1,1203,722,0,0
-14,302,0,0,0,0,0,0,0,0,0,-1,1210,722,0,0
-7,302,0,0,0,0,0,0,0,0,0,-1,1217,722,0,0
0,302,0,0,0,0,0,0,0,0,0,-1,1224,722,0,0
7,302,0,0,0,0,0,0,0,0,0,-1,1231,722,0,0
14,302,0,0,0,0,0,0,0,0,0,-1,1238,722,0,0
21,302,0,0,0,0,0,0,0,0,0,-1,1245,722,0,0
28,302,0,0,0,0,0,0,0,0,0,-1,1252,722,0,0
35,302,0,0,0,0,0,0,0,0,0,-1,1259,722,0,0
42,302,0,0,0,0,0,0,0,0,0,-1,1266,722,0,0
49,302,0,0,0,0,0,0,0,0,0,-1,1273,722,0,0
56,302,0,0,0,0,0,0,0,0,0,-1,1280,722,0,0
63,302,0,0,0,0,0,0,0,0,0,-1,1287,722,0,0
70,302,0,0,0,0,0,0,0,0,0,-1,1294,722,0,0
77,302,0,0,0,0,0,0,0,0,0,-1,1301,722,0,0
84,302,0,0,0,0,0,0,0,0,0,-1,1308,722,0,0
91,302,0,0,0,0,0,0,0,0,0,-1,1315,722,0,0
98,302,0,0,0,0,0,0,0,0,0,-1,1322,722,0,0
105,302,0,0,0,0,0,0,0,0,0,-1,1329,722,0,0
112,302,0,0,0,0,0,0,0,0,0,-1,1336,722,0,0
119,302,0,0,0,0,0,0,0,0,0,-1,1343,722,0,0
126,302,0,0,0,0,0,0,0,0,0,-1,1350,722,0,0
133,302,0,0,0,0,0,0,0,0,0,-1,1357,722,0,0
140,302,0,0,0,0,0,0,0,0,0,-1,1364,722,0,0
147,302,0,0,0,0,0,0,0,0,0,-1,1371,722,0,0
154,302,0,0,0,0,0,0,0,0,0,-1,1378,722,0,0
161,302,0,0,0,0,0,0,0,0,0,-1,1385,722,0,0
168,302,0,0,0,0,0,0,0,0,0,-1,1392,722,0,0
175,302,0,0,0,0,0,0,0,0,0,-1,1399,722,0,0
182,302,0,0,0,0,0,0,0,0,0,-1,1406,722,0,0
189,302,0,0,0,0,0,0,0,0,0,-1,1413,722,0,0
196,302,0,0,0,0,0,0,0,0,0,-1,1420,722,0,0
203,302,0,0,0,0,0,0,0,0,0,-1,1427,722,0,0
210,302,0,0,0,0,0,0,0,0,0,-1,1434,722,0,0
217,302,0,0,0,0,0,0,0,0,0,-1,1441,722,0,0
224,302,0,0,0,0,0,0,0,0,0,-1,1448,722,0,0
231,302,0,0,0,0,0,0,0,0,0,-1,1455,722,0,0
238,302,0,0,0,0,0,0,0,0,0,-1,1462,722,0,0
245,302,0,0,0,0,0,0,0,0,0,-1,1469,722,0,0
252,302,0,0,0,0,0,0,0,0,0,-1,1476,722,0,0
259,302,0,0,0,0,0,0,0,0,0,-1,1483,722,0,0
266,302,0,0,0,0,0,0,0,0,0,-1,1490,722,0,0
273,302,0,0,0,0,0,0,0,0,0,-1,1497,722,0,0
280,302,0,0,0,0,0,0,0,0,0,-1,1504,722,0,0
287,302,0,0,0,0,0,0,0,0,0,-1,1511,722,0,0
294,302,0,0,0,0,0,0,0,0,0,-1,1518,722,0,0
301,302,0,0,0,0,0,0,0,0,0,-1,1525,722,0,0
308,302,0,0,0,0,0,0,0,0,0,-1,1532,722,0,0
315,302,0,0,0,0,0,0,0,0,0,-1,1539,722,0,0
322,302,0,0,0,0,0,0,0,0,0,-1,1546,722,0,0
329,302,0,0,0,0,0,0,0,0,0,-1,1553,722,0,0
336,302,0,0,0,0,0,0,0,0,0,-1,1560,722,0,0
343,302,0,0,0,0,0,0,0,0,0,-1,1567,722,0,0
350,302,0,0,0,0,0,0,0,0,0,-1,1574,722,0,0
357,302,0,0,0,0,0,0,0,0,0,-1,1581,722,0,0
364,302,0,0,0,0,0,0,0,0,0,-1,1588,722,0,0
371,302,0,0,0,0,0,0,0,0,0,-1,1595,722,0,0
378,302,0,0,0,0,0,0,0,0,0,-1,1602,722,0,0
385,302,0,0,0,0,0,0,0,0,0,-1,1609,722,0,0
392,302,0,0,0,0,0,0,0,0,0,-1,1616,722,0,0
399,302,0,0,0,0,0,0,0,0,0,-1,1623,722,0,0
406,302,0,0,0,0,0,0,0,0,0,-1,1630,722,0,0
413,302,0,0,0,0,0,0,0,0,0,-1,1637,722,0,0
420,302,0,0,0,0,0,0,0,0,0,-1,1644,722,0,0
427,302,0,0,0,0,0,0,0,0,0,-1,1651,722,0,0
434,302,0,0,0,0,0,0,0,0,0,-1,1658,722,0,0
441,302,0,0,0,0,0,0,0,0,0,-1,1665,722,0,0
448,302,0,0,0,0,0,0,0,0,0,-1,1672,722,0,0
455,302,0,0,0,0,0,0,0,0,0,-1,1679,722,0,0
462,302,0,0,0,0,0,0,0,0,0,-1,1686,722,0,0
469,302,0,0,0,0,0,0,0,0,0,-1,1693,722,0,0
476,302,0,0,0,0,0,0,0,0,0,-1,1700,722,0,0
483,302,0,0,0,0,0,0,0,0,0,-1,1707,722,0,0
490,302,0,0,0,0,0,0,0,0,0,-1,1714,722,0,0
497,302,0,0,0,0,0,0,0,0,0,-1,1721,722,0,0
504,302,0,0,0,0,0,0,0,0,0,-1,1728,722,0,0
511,302,0,0,0,0,0,0,0,0,0,-1,1735,722,0,0
518,302,0,0,0,0,0,0,0,0,0,-1,1742,722,0,0
525,302,0,0,0,0,0,0,0,0,0,-1,1749,722,0,0
532,302,0,0,0,0,0,0,0,0,0,-1,1756,722,0,0
539,302,0,0,0,0,0,0,0,0,0,-1,1763,722,0,0
546,302,16.7094,1.58856,0.0346371,-0.0554235,0.0621509,0.0663562,-0.0871426,0.471897,0.088893,0.0424324,1770,722,16.7094,-1.58856
553,302,17.0873,1.24792,0.0326573,-0.0446597,0.0571401,0.0629877,-0.0749901,0.487989,0.0797619,0.0426537,1777,722,17.0873,-1.24792
560,302,17.1541,1.66272,0.0284342,-0.0331281,0.0498698,0.0562575,-0.0609514,0.508902,0.0676887,0.0459046,1784,722,17.1541,-1.66272
567,302,17.368,2.15222,0.0238793,-0.0245388,0.0407121,0.0470364,-0.0476959,0.517164,0.0546941,0.0477823,1791,722,17.368,-2.15223
574,302,17.3093,2.68506,0,0,0,0,0,0,0,-1,1798,722,17.3093,-2.68504
581,302,16.7684,1.44183,0,0,0,0,0,0,0,-1,1805,722,16.7684,-1.44181
588,302,16.8214,2.21588,0,0,0,0,0,0,0,-1,1812,722,16.8214,-2.21587
595,302,16.9962,1.91083,0,0,0,0,0,0,0,-1,1819,722,16.9962,-1.91082
602,302,13.8851,2.21979,0,0,0,0,0,0,0,-1,1826,722,13.8851,-2.21981
609,302,10.1517,-0.0249634,0,0,0,0,0,0,0,-1,1833,722,10.1517,0.024984
616,302,10.1307,0.173035,-0.000762239,-0.0027737,-0.000229411,-0.000736406,-0.00279953,-0.112133,0.00167572,0.0442275,1840,722,10.1308,-0.173056
623,302,10.1099,0.375183,-0.00238569,-0.00318066,-0.00254546,-0.00020687,-0.00535948,-0.707947,0.00350606,0.0136428,1847,722,10.1099,-0.375155
630,302,10.0881,0.589111,-0.00297649,-0.00270683,-0.00317632,0.000337518,-0.00602083,-0.80661,0.00413099,0.0103717,1854,722,10.0881,-0.589098
637,302,10.0652,0.776428,-0.00287483,-0.00226684,-0.00341114,0.00085382,-0.0059955,-0.82984,0.00430989,0.0131225,1861,722,10.0652,-0.776426
644,302,10.0829,0.954224,-0.00209191,-0.0019538,-0.00305128,0.00102921,-0.00507492,-0.796712,0.00377343,0.0139329,1868,722,10.0829,-0.954227
651,302,10.1053,1.15045,-0.000960217,-0.00234314,-0.00238343,0.000830032,-0.00413338,-0.644218,0.0030699,0.0130322,1875,722,10.1053,-1.15043
658,302,10.1115,1.33069,0.000597545,-0.00125779,-0.00153845,0.00146637,-0.00212662,-0.51409,0.00208605,0.0138847,1882,722,10.1115,-1.33071
665,302,10.1129,1.49323,0.00265514,0.000800387,-0.000944228,0.00305124,0.000404285,-0.397202,0.00191369,0.0138118,1889,722,10.1129,-1.49321
672,302,10.1143,1.66284,0.0055323,0.00337026,-0.000552369,0.00566525,0.00323731,-0.236192,0.00328194,0.010486,1896,722,10.1142,-1.66285
679,302,10.1035,1.88104,0.00885757,0.0061654,-0.000210118,0.00887387,0.0061491,-0.0774228,0.00524895,0.00864347,1903,722,10.1035,-1.88104
686,302,10.1331,2.04309,0.0132013,0.0101568,-0.000116233,0.0132057,0.0101523,-0.0381037,0.0079831,0.0119467,1910,722,10.1331,-2.04306
693,302,10.0452,2.15503,0.0191344,0.0161253,-0.000170916,0.0191441,0.0161157,-0.0565582,0.0118826,0.0245471,1917,722,10.0452,-2.155
700,302,10.5646,2.354,0.027435,0.0249328,-0.000227763,0.0274555,0.0249123,-0.0900423,0.0175176,0.045592,1924,722,10.5645,-2.35401
707,302,11.0687,2.54285,0,0,0,0,0,0,0,-1,1931,722,11.0688,-2.54285
714,302,10.514,3.38837,0.0534545,0.0545375,-0.000724262,0.0549003,0.0530917,-1.10638,0.0360125,0.0458079,1938,722,10.5141,-3.38837
721,302,11.2332,3.47424,0.0723622,0.0773607,-0.0012741,0.0776667,0.0720562,-1.33507,0.0500126,0.0454053,1945,722,11.2331,-3.47423
728,302,11.9974,3.26697,0,0,0,0,0,0,0,-1,1952,722,11.9975,-3.26698
735,302,0,0,0,0,0,0,0,0,0,-1,1959,722,0,0
742,302,0,0,0,0,0,0,0,0,0,-1,1966,722,0,0
749,302,0,0,0,0,0,0,0,0,0,-1,1973,722,0,0
756,302,0,0,0,0,0,0,0,0,0,-1,1980,722,0,0
763,302,0,0,0,0,0,0,0,0,0,-1,1987,722,0,0
770,302,0,0,0,0,0,0,0,0,0,-1,1994,722,0,0
777,302,0,0,0,0,0,0,0,0,0,-1,2001,722,0,0
784,302,0,0,0,0,0,0,0,0,0,-1,2008,722,0,0
791,302,0,0,0,0,0,0,0,0,0,-1,2015,722,0,0
798,302,0,0,0,0,0,0,0,0,0,-1,2022,722,0,0
805,302,0,0,0,0,0,0,0,0,0,-1,2029,722,0,0
812,302,0,0,0,0,0,0,0,0,0,-1,2036,722,0,0
-700,295,0,0,0,0,0,0,0,0,0,-1,524,729,0,0
-693,295,0,0,0,0,0,0,0,0,0,-1,531,729,0,0
-686,295,0,0,0,0,0,0,0,0,0,-1,538,729,0,0
-679,295,0,0,0,0,0,0,0,0,0,-1,545,729,0,0
-672,295,0,0,0,0,0,0,0,0,0,-1,552,729,0,0
-665,295,0,0,0,0,0,0,0,0,0,-1,559,729,0,0
-658,295,0,0,0,0,0,0,0,0,0,-1,566,729,0,0
-651,295,0,0,0,0,0,0,0,0,0,-1,573,729,0,0
-644,295,0,0,0,0,0,0,0,0,0,-1,580,729,0,0
-637,295,0,0,0,0,0,0,0,0,0,-1,587,729,0,0
-630,295,0,0,0,0,0,0,0,0,0,-1,594,729,0,0
-623,295,0,0,0,0,0,0,0,0,0,-1,601,729,0,0
-616,295,-4.55151,2.53369,0,0,0,0,0,0,0,-1,608,729,-4.55153,-2.53366
-609,295,-4.34985,1.65686,0,0,0,0,0,0,0,-1,615,729,-4.34987,-1.65683
-602,295,-2.90662,-3.08502,0,0,0,0,0,0,0,-1,622,729,-2.90659,3.08502
-595,295,-3.59741,-3.16162,0,0,0,0,0,0,0,-1,629,729,-3.59741,3.16159
-588,295,-4.39209,-3.52582,0,0,0,0,0,0,0,-1,636,729,-4.3921,3.52582
-581,295,-5.4541,-3.40576,0,0,0,0,0,0,0,-1,643,729,-5.45413,3.40578
-574,295,-6.229,-3.1366,0,0,0,0,0,0,0,-1,650,729,-6.22899,3.13659
-567,295,-5.10815,0.250488,-0.0152034,0.0147366,0.00933109,0.0174066,-0.0178734,1.2921,0.0203695,0.0378131,657,729,-5.10815,-0.250512
-560,295,-5.30902,0.220154,-0.0104552,0.0111246,0.007144,0.0132753,-0.0126059,1.27838,0.0149441,0.0209347,664,729,-5.30902,-0.220176
-553,295,-5.36267,0.0743408,-0.00709719,0.00798513,0.00543108,0.00973729,-0.00884935,1.25872,0.0107351,0.0160756,671,729,-5.36268,-0.074369
-546,295,-5.38855,-0.0653687,-0.00418927,0.00508609,0.00361383,0.00632785,-0.00543103,1.23982,0.00679557,0.0186485,678,729,-5.38856,0.0653865
-539,295,-5.38196,-0.204773,-0.00238444,0.00362453,0.00290408,0.00479863,-0.00355855,1.18659,0.00484269,0.0167073,685,729,-5.38198,0.20475
-532,295,-5.41412,-0.377502,-0.00129452,0.00177061,0.00245577,0.0031328,-0.0026567,1.06436,0.00334633,0.0147819,692,729,-5.41412,0.377484
-525,295,-5.40302,-0.575134,-0.000876652,0.000692204,0.00202494,0.00207935,-0.0022638,0.970189,0.00250827,0.0141945,699,729,-5.40303,0.575131
-518,295,-5.38458,-0.741455,-0.000290992,-0.00049071,0.00163648,0.00124867,-0.00203037,0.754925,0.00191101,0.0107786,706,729,-5.3846,0.741475
-511,295,-5.36859,-0.907471,0.000520594,-0.00133494,0.00122865,0.00113241,-0.00194676,0.462016,0.00179837,0.00836273,713,729,-5.36861,0.907471
-504,295,-5.37091,-1.07758,0.00154232,-0.00227697,0.000932489,0.00175783,-0.00249248,0.227124,0.00246611,0.00949438,720,729,-5.37093,1.07755
-497,295,-5.39966,-1.23096,0.00289796,-0.00331493,0.000355554,0.00291824,-0.00333522,0.0569805,0.00361311,0.0140152,727,729,-5.39967,1.23095
-490,295,-5.26117,-1.15436,0.00444384,-0.00471848,-0.000358538,0.00445785,-0.00473249,-0.0390521,0.00530683,0.042158,734,729,-5.2612,1.15437
-483,295,-5.00342,-0.788879,0,0,0,0,0,0,0,-1,741,729,-5.00341,0.788894
-476,295,-6.51385,1.5943,0,0,0,0,0,0,0,-1,748,729,-6.51386,-1.59427
-469,295,-6.47876,1.93091,0,0,0,0,0,0,0,-1,755,729,-6.47876,-1.93092
-462,295,-12.1482,-1.06091,0,0,0,0,0,0,0,-1,762,729,-12.1482,1.06094
-455,295,-5.97644,2.75354,0,0,0,0,0,0,0,-1,769,729,-5.97645,-2.75355
-448,295,-6.4715,3.06488,0,0,0,0,0,0,0,-1,776,729,-6.47149,-3.06488
-441,295,-6.94537,3.29065,0,0,0,0,0,0,0,-1,783,729,-6.9454,-3.29062
-434,295,-0.990417,3.5564,0,0,0,0,0,0,0,-1,790,729,-0.990417,-3.55639
-427,295,0,0,0,0,0,0,0,0,0,-1,797,729,0,0
-420,295,0,0,0,0,0,0,0,0,0,-1,804,729,0,0
-413,295,0,0,0,0,0,0,0,0,0,-1,811,729,0,0
-406,295,0,0,0,0,0,0,0,0,0,-1,818,729,0,0
-399,295,0,0,0,0,0,0,0,0,0,-1,825,729,0,0
-392,295,0,0,0,0,0,0,0,0,0,-1,832,729,0,0
-385,295,0,0,0,0,0,0,0,0,0,-1,839,729,0,0
-378,295,0,0,0,0,0,0,0,0,0,-1,846,729,0,0
-371,295,0,0,0,0,0,0,0,0,0,-1,853,729,0,0
-364,295,0,0,0,0,0,0,0,0,0,-1,860,729,0,0
-357,295,0,0,0,0,0,0,0,0,0,-1,867,729,0,0
-350,295,0,0,0,0,0,0,0,0,0,-1,874,729,0,0
-343,295,0,0,0,0,0,0,0,0,0,-1,881,729,0,0
-336,295,0,0,0,0,0,0,0,0,0,-1,888,729,0,0
-329,295,0,0,0,0,0,0,0,0,0,-1,895,729,0,0
-322,295,0,0,0,0,0,0,0,0,0,-1,902,729,0,0
-315,295,0,0,0,0,0,0,0,0,0,-1,909,729,0,0
-308,295,0,0,0,0,0,0,0,0,0,-1,916,729,0,0
-301,295,0,0,0,0,0,0,0,0,0,-1,923,729,0,0
-294,295,0,0,0,0,0,0,0,0,0,-1,930,729,0,0
-287,295,0,0,0,0,0,0,0,0,0,-1,937,729,0,0
-280,295,0,0,0,0,0,0,0,0,0,-1,944,729,0,0
-273,295,0,0,0,0,0,0,0,0,0,-1,951,729,0,0
-266,295,0,0,0,0,0,0,0,0,0,-1,958,729,0,0
-259,295,0,0,0,0,0,0,0,0,0,-1,965,729,0,0
-252,295,0,0,0,0,0,0,0,0,0,-1,972,729,0,0
-245,295,0,0,0,0,0,0,0,0,0,-1,979,729,0,0
-238,295,0,0,0,0,0,0,0,0,0,-1,986,729,0,0
-231,295,0,0,0,0,0,0,0,0,0,-1,993,729,0,0
-224,295,0,0,0,0,0,0,0,0,0,-1,1000,729,0,0
-217,295,0,0,0,0,0,0,0,0,0,-1,1007,729,0,0
-210,295,0,0,0,0,0,0,0,0,0,-1,1014,729,0,0
-203,295,0,0,0,0,0,0,0,0,0,-1,1021,729,0,0
-196,295,0,0,0,0,0,0,0,0,0,-1,1028,729,0,0
-189,295,0,0,0,0,0,0,0,0,0,-1,1035,729,0,0
-182,295,0,0,0,0,0,0,0,0,0,-1,1042,729,0,0
-175,295,0,0,0,0,0,0,0,0,0,-1,1049,729,0,0
-168,295,0,0,0,0,0,0,0,0,0,-1,1056,729,0,0
-161,295,0,0,0,0,0,0,0,0,0,-1,1063,729,0,0
-154,295,0,0,0,0,0,0,0,0,0,-1,1070,729,0,0
-147,295,0,0,0,0,0,0,0,0,0,-1,1077,729,0,0
-140,295,0,0,0,0,0,0,0,0,0,-1,1084,729,0,0
-133,295,0,0,0,0,0,0,0,0,0,-1,1091,729,0,0
-126,295,0,0,0,0,0,0,0,0,0,-1,1098,729,0,0
-119,295,0,0,0,0,0,0,0,0,0,-1,1105,729,0,0
-112,295,0,0,0,0,0,0,0,0,0,-1,1112,729,0,0
-105,295,0,0,0,0,0,0,0,0,0,-1,1119,729,0,0
-98,295,0,0,0,0,0,0,0,0,0,-1,1126,729,0,0
-91,295,0,0,0,0,0,0,0,0,0,-1,1133,729,0,0
-84,295,0,0,0,0,0,0,0,0,0,-1,1140,729,0,0
-77,295,0,0,0,0,0,0,0,0,0,-1,1147,729,0,0
-70,295,0,0,0,0,0,0,0,0,0,-1,1154,729,0,0
-63,295,0,0,0,0,0,0,0,0,0,-1,1161,729,0,0
-56,295,0,0,0,0,0,0,0,0,0,-1,1168,729,0,0
-49,295,0,0,0,0,0,0,0,0,0,-1,1175,729,0,0
-42,295,0,0,0,0,0,0,0,0,0,-1,1182,729,0,0
-35,295,0,0,0,0,0,0,0,0,0,-1,1189,729,0,0
-28,295,0,0,0,0,0,0,0,0,0,-1,1196,729,0,0
-21,295,0,0,0,0,0,0,0,0,0,-1,1203,729,0,0
-14,295,0,0,0,0,0,0,0,0,0,-1,1210,729,0,0
-7,295,0,0,0,0,0,0,0,0,0,-1,1217,729,0,0
0,295,0,0,0,0,0,0,0,0,0,-1,1224,729,0,0
7,295,0,0,0,0,0,0,0,0,0,-1,1231,729,0,0
14,295,0,0,0,0,0,0,0,0,0,-1,1238,729,0,0
21,295,0,0,0,0,0,0,0,0,0,-1,1245,729,0,0
28,295,0,0,0,0,0,0,0,0,0,-1,1252,729,0,0
35,295,0,0,0,0,0,0,0,0,0,-1,1259,729,0,0
42,295,0,0,0,0,0,0,0,0,0,-1,1266,729,0,0
49,295,0,0,0,0,0,0,0,0,0,-1,1273,729,0,0
56,295,0,0,0,0,0,0,0,0,0,-1,1280,729,0,0
63,295,0,0,0,0,0,0,0,0,0,-1,1287,729,0,0
70,295,0,0,0,0,0,0,0,0,0,-1,1294,729,0,0
77,295,0,0,0,0,0,0,0,0,0,-1,1301,729,0,0
84,295,0,0,0,0,0,0,0,0,0,-1,1308,729,0,0
91,295,0,0,0,0,0,0,0,0,0,-1,1315,729,0,0
98,295,0,0,0,0,0,0,0,0,0,-1,1322,729,0,0
105,295,0,0,0,0,0,0,0,0,0,-1,1329,729,0,0
112,295,0,0,0,0,0,0,0,0,0,-1,1336,729,0,0
119,295,0,0,0,0,0,0,0,0,0,-1,1343,729,0,0
126,295,0,0,0,0,0,0,0,0,0,-1,1350,729,0,0
133,295,0,0,0,0,0,0,0,0,0,-1,1357,729,0,0
140,295,0,0,0,0,0,0,0,0,0,-1,1364,729,0,0
147,295,0,0,0,0,0,0,0,0,0,-1,1371,729,0,0
154,295,0,0,0,0,0,0,0,0,0,-1,1378,729,0,0
161,295,0,0,0,0,0,0,0,0,0,-1,1385,729,0,0
168,295,0,0,0,0,0,0,0,0,0,-1,1392,729,0,0
175,295,0,0,0,0,0,0,0,0,0,-1,1399,729,0,0
182,295,0,0,0,0,0,0,0,0,0,-1,1406,729,0,0
189,295,0,0,0,0,0,0,0,0,0,-1,1413,729,0,0
196,295,0,0,0,0,0,0,0,0,0,-1,1420,729,0,0
203,295,0,0,0,0,0,0,0,0,0,-1,1427,729,0,0
210,295,0,0,0,0,0,0,0,0,0,-1,1434,729,0,0
217,295,0,0,0,0,0,0,0,0,0,-1,1441,729,0,0
224,295,0,0,0,0,0,0,0,0,0,-1,1448,729,0,0
231,295,0,0,0,0,0,0,0,0,0,-1,1455,729,0,0
238,295,0,0,0,0,0,0,0,0,0,-1,1462,729,0,0
245,295,0,0,0,0,0,0,0,0,0,-1,1469,729,0,0
252,295,0,0,0,0,0,0,0,0,0,-1,1476,729,0,0
259,295,0,0,0,0,0,0,0,0,0,-1,1483,729,0,0
266,295,0,0,0,0,0,0,0,0,0,-1,1490,729,0,0
273,295,0,0,0,0,0,0,0,0,0,-1,1497,729,0,0
280,295,0,0,0,0,0,0,0,0,0,-1,1504,729,0,0
287,295,0,0,0,0,0,0,0,0,0,-1,1511,729,0,0
294,295,0,0,0,0,0,0,0,0,0,-1,1518,729,0,0
301,295,0,0,0,0,0,0,0,0,0,-1,1525,729,0,0
308,295,0,0,0,0,0,0,0,0,0,-1,1532,729,0,0
315,295,0,0,0,0,0,0,0,0,0,-1,1539,729,0,0
322,295,0,0,0,0,0,0,0,0,0,-1,1546,729,0,0
329,295,0,0,0,0,0,0,0,0,0,-1,1553,729,0,0
336,295,0,0,0,0,0,0,0,0,0,-1,1560,729,0,0
343,295,0,0,0,0,0,0,0,0,0,-1,1567,729,0,0
350,295,0,0,0,0,0,0,0,0,0,-1,1574,729,0,0
357,295,0,0,0,0,0,0,0,0,0,-1,1581,729,0,0
364,295,0,0,0,0,0,0,0,0,0,-1,1588,729,0,0
371,295,0,0,0,0,0,0,0,0,0,-1,1595,729,0,0
378,295,0,0,0,0,0,0,0,0,0,-1,1602,729,0,0
385,295,0,0,0,0,0,0,0,0,0,-1,1609,729,0,0
392,295,0,0,0,0,0,0,0,0,0,-1,1616,729,0,0
399,295,0,0,0,0,0,0,0,0,0,-1,1623,729,0,0
406,295,0,0,0,0,0,0,0,0,0,-1,1630,729,0,0
413,295,0,0,0,0,0,0,0,0,0,-1,1637,729,0,0
420,295,0,0,0,0,0,0,0,0,0,-1,1644,729,0,0
427,295,0,0,0,0,0,0,0,0,0,-1,1651,729,0,0
434,295,0,0,0,0,0,0,0,0,0,-1,1658,729,0,0
441,295,0,0,0,0,0,0,0,0,0,-1,1665,729,0,0
448,295,0,0,0,0,0,0,0,0,0,-1,1672,729,0,0
455,295,0,0,0,0,0,0,0,0,0,-1,1679,729,0,0
462,295,0,0,0,0,0,0,0,0,0,-1,1686,729,0,0
469,295,0,0,0,0,0,0,0,0,0,-1,1693,729,0,0
476,295,0,0,0,0,0,0,0,0,0,-1,1700,729,0,0
483,295,0,0,0,0,0,0,0,0,0,-1,1707,729,0,0
490,295,0,0,0,0,0,0,0,0,0,-1,1714,729,0,0
497,295,0,0,0,0,0,0,0,0,0,-1,1721,729,0,0
504,295,0,0,0,0,0,0,0,0,0,-1,1728,729,0,0
511,295,0,0,0,0,0,0,0,0,0,-1,1735,729,0,0
518,295,0,0,0,0,0,0,0,0,0,-1,1742,729,0,0
525,295,0,0,0,0,0,0,0,0,0,-1,1749,729,0,0
532,295,0,0,0,0,0,0,0,0,0,-1,1756,729,0,0
539,295,0,0,0,0,0,0,0,0,0,-1,1763,729,0,0
546,295,15.9093,2.12421,0.0312771,-0.0597274,0.0488313,0.0525203,-0.0809705,0.410337,0.0776522,0.0385831,1770,729,15.9093,-2.1242
553,295,16.0067,1.63196,0.031071,-0.0453536,0.0499976,0.0557868,-0.0700693,0.459108,0.0728188,0.0413809,1777,729,16.0067,-1.63195
560,295,16.0426,1.89343,0.0279359,-0.0316585,0.0466838,0.0535215,-0.057244,0.501353,0.0639626,0.0404727,1784,729,16.0425,-1.89343
567,295,16.3573,1.78735,0.0239367,-0.0227762,0.0392822,0.0462816,-0.0451211,0.517186,0.0527728,0.0459452,1791,729,16.3573,-1.78733
574,295,16.1506,1.59796,0,0,0,0,0,0,0,-1,1798,729,16.1507,-1.59799
581,295,16.3529,1.58569,0.0151102,-0.012467,0.0240382,0.0290337,-0.0263904,0.525002,0.0320113,0.0494548,1805,729,16.3529,-1.58568
588,295,16.2577,1.94324,0.0108844,-0.00922889,0.0172261,0.0207745,-0.019119,0.521186,0.0230391,0.0445171,1812,729,16.2577,-1.94324
595,295,16.736,1.99719,0.00690837,-0.00691812,0.0112493,0.0131989,-0.0132087,0.509874,0.0152464,0.0467007,1819,729,16.7359,-1.99718
602,295,17.0894,2.23926,0,0,0,0,0,0,0,-1,1826,729,17.0893,-2.23925
609,295,11.7737,2.19989,0,0,0,0,0,0,0,-1,1833,729,11.7736,-2.19988
616,295,10.2793,0.150696,0,0,0,0,0,0,0,-1,1840,729,10.2793,-0.150718
623,295,10.2842,0.405762,-0.00369816,-0.00352078,-0.00364,3.16121e-05,-0.00725055,-0.797579,0.00484427,0.0260961,1847,729,10.2842,-0.405764
630,295,10.274,0.602966,-0.00442139,-0.00321714,-0.00429468,0.000517427,-0.00815595,-0.855045,0.00561772,0.0115738,1854,729,10.274,-0.602942
637,295,10.2651,0.789246,-0.0044775,-0.00295788,-0.00449656,0.000842618,-0.008278,-0.869096,0.00581991,0.0130412,1861,729,10.2651,-0.789223
644,295,10.2753,0.976196,-0.00361495,-0.00271423,-0.00398499,0.000845768,-0.00717495,-0.841666,0.00508871,0.0122162,1868,729,10.2753,-0.976167
651,295,10.2888,1.17102,-0.00241714,-0.00337479,-0.00304373,0.000185204,-0.00597713,-0.70738,0.0040479,0.0119753,1875,729,10.2888,-1.17104
658,295,10.2725,1.33661,-0.000825613,-0.00217954,-0.00192032,0.000533579,-0.00353873,-0.615937,0.00255565,0.0118218,1882,729,10.2725,-1.33663
665,295,10.266,1.49713,0.000998697,-0.000110778,-0.00109316,0.00166982,-0.000781901,-0.550599,0.00144611,0.0110635,1889,729,10.2659,-1.49715
672,295,10.2672,1.68042,0.00345542,0.00222753,-0.00056606,0.00367655,0.0020064,-0.37242,0.00212561,0.0113938,1896,729,10.2673,-1.68042
679,295,10.264,1.88873,0.00619459,0.00466186,-7.8805e-05,0.00619863,0.00465782,-0.0512349,0.00372655,0.00878842,1903,729,10.264,-1.88871
686,295,10.2877,2.04706,0.00963142,0.00798546,0.00012512,0.00964088,0.00797601,0.0754389,0.00595044,0.00842227,1910,729,10.2877,-2.04703
693,295,10.3098,2.16937,0.0143114,0.0128181,0.000150753,0.0143265,0.012803,0.0996115,0.00908585,0.0183095,1917,729,10.3098,-2.16937
700,295,10.3853,2.28491,0.0208486,0.0197905,0.000139993,0.0208668,0.0197723,0.129344,0.0135611,0.032844,1924,729,10.3853,-2.28489
707,295,10.556,2.43024,0,0,0,0,0,0,0,-1,1931,729,10.556,-2.43024
714,295,10.8082,2.36633,0.0415161,0.0432881,-0.000255632,0.0433243,0.04148,-1.43035,0.0282881,0.0432929,1938,729,10.8082,-2.36631
721,295,11.4103,2.54919,0.0565141,0.0613287,-0.000779467,0.0614517,0.0563911,-1.41422,0.0393895,0.0491543,1945,729,11.4103,-2.54918
728,295,11.8691,2.6546,0,0,0,0,0,0,0,-1,1952,729,11.8692,-2.65458
735,295,0,0,0,0,0,0,0,0,0,-1,1959,729,0,0
742,295,0,0,0,0,0,0,0,0,0,-1,1966,729,0,0
749,295,0,0,0,0,0,0,0,0,0,-1,1973,729,0,0
756,295,0,0,0,0,0,0,0,0,0,-1,1980,729,0,0
763,295,0,0,0,0,0,0,0,0,0,-1,1987,729,0,0
770,295,0,0,0,0,0,0,0,0,0,-1,1994,729,0,0
777,295,0,0,0,0,0,0,0,0,0,-1,2001,729,0,0
784,295,0,0,0,0,0,0,0,0,0,-1,2008,729,0,0
791,295,0,0,0,0,0,0,0,0,0,-1,2015,729,0,0
798,295,0,0,0,0,0,0,0,0,0,-1,2022,729,0,0
805,295,0,0,0,0,0,0,0,0,0,-1,2029,729,0,0
812,295,0,0,0,0,0,0,0,0,0,-1,2036,729,0,0
-700,288,0,0,0,0,0,0,0,0,0,-1,524,736,0,0
-693,288,0,0,0,0,0,0,0,0,0,-1,531,736,0,0
-686,288,0,0,0,0,0,0,0,0,0,-1,538,736,0,0
-679,288,0,0,0,0,0,0,0,0,0,-1,545,736,0,0
-672,288,0,0,0,0,0,0,0,0,0,-1,552,736,0,0
-665,288,0,0,0,0,0,0,0,0,0,-1,559,736,0,0
-658,288,0,0,0,0,0,0,0,0,0,-1,566,736,0,0
-651,288,0,0,0,0,0,0,0,0,0,-1,573,736,0,0
-644,288,0,0,0,0,0,0,0,0,0,-1,580,736,0,0
-637,288,0,0,0,0,0,0,0,0,0,-1,587,736,0,0
-630,288,0,0,0,0,0,0,0,0,0,-1,594,736,0,0
-623,288,0,0,0,0,0,0,0,0,0,-1,601,736,0,0
-616,288,-4.48444,2.45593,0,0,0,0,0,0,0,-1,608,736,-4.48443,-2.45591
-609,288,-3.82788,3.69659,0,0,0,0,0,0,0,-1,615,736,-3.82789,-3.6966
-602,288,-4.77832,3.04047,0,0,0,0,0,0,0,-1,622,736,-4.7783,-3.04046
-595,288,-5.7287,2.38434,0,0,0,0,0,0,0,-1,629,736,-5.72871,-2.38432
-588,288,-5.80566,0.657715,0,0,0,0,0,0,0,-1,636,736,-5.80564,-0.657744
-581,288,-5.60876,0.621704,-0.0298132,0.0146787,0.0137067,0.0185623,-0.0336969,1.29469,0.0305907,0.0459477,643,736,-5.60876,-0.621716
-574,288,-5.41412,0.557312,-0.0216142,0.0121786,0.0105231,0.0151875,-0.0246232,1.29229,0.0231989,0.0355835,650,736,-5.41414,-0.557328
-567,288,-5.42041,0.365967,-0.0153396,0.0095307,0.00805888,0.0119137,-0.0177227,1.28329,0.0172198,0.022044,657,736,-5.42042,-0.36595
-560,288,-5.53375,0.211121,-0.0107808,0.0073305,0.00607697,0.00918056,-0.0126309,1.27527,0.0126452,0.0122476,664,736,-5.53375,-0.211113
-553,288,-5.54041,0.0790405,-0.00738128,0.00519617,0.00459139,0.0066939,-0.00887901,1.25548,0.00902048,0.0173897,671,736,-5.54044,-0.0790485
-546,288,-5.55621,-0.0599365,-0.00453785,0.00311465,0.00310821,0.00421802,-0.00564122,1.22969,0.00571197,0.018473,678,736,-5.55619,0.0599553
-539,288,-5.55396,-0.228638,-0.00270339,0.00208057,0.00253634,0.00317494,-0.00379775,1.16346,0.00403103,0.0159021,685,736,-5.55397,0.22866
-532,288,-5.5434,-0.406067,-0.00145713,0.000618741,0.00216913,0.00198547,-0.00282386,1.00855,0.0027907,0.0124959,692,736,-5.54337,0.406076
-525,288,-5.53705,-0.580017,-0.000905274,-4.41891e-05,0.00193462,0.00150721,-0.00245668,0.894887,0.00231033,0.0118686,699,736,-5.53704,0.580046
-518,288,-5.54578,-0.748047,-0.000322868,-0.000921079,0.00170204,0.00110615,-0.00235009,0.698419,0.00203809,0.0114494,706,736,-5.54577,0.748066
-511,288,-5.53253,-0.911438,0.000515812,-0.00163334,0.00133067,0.00115162,-0.00226914,0.445737,0.0020098,0.00826063,713,736,-5.53256,0.911455
-504,288,-5.53644,-1.07849,0.0016782,-0.00240332,0.000979985,0.0019013,-0.00262642,0.223844,0.00262523,0.00931267,720,736,-5.53641,1.07846
-497,288,-5.55096,-1.21216,0.00323942,-0.00319459,0.000260199,0.00324992,-0.00320509,0.0403534,0.00372683,0.0183936,727,736,-5.55099,1.21217
-490,288,-5.51611,-0.742554,0.00504952,-0.00431052,-0.000641084,0.00509323,-0.00435423,-0.0680679,0.00546005,0.0474046,734,736,-5.51611,0.742563
-483,288,-5.58624,-0.2005,0,0,0,0,0,0,0,-1,741,736,-5.58626,0.200499
-476,288,-10.3301,-1.9516,0,0,0,0,0,0,0,-1,748,736,-10.3301,1.95158
-469,288,-11.4283,-1.16522,0,0,0,0,0,0,0,-1,755,736,-11.4283,1.16522
-462,288,-11.8644,-0.677063,0,0,0,0,0,0,0,-1,762,736,-11.8645,0.677077
-455,288,-12.3007,-0.188904,0,0,0,0,0,0,0,-1,769,736,-12.3007,0.188929
-448,288,-7.1665,2.63208,0,0,0,0,0,0,0,-1,776,736,-7.1665,-2.63207
-441,288,-7.62317,2.90613,0,0,0,0,0,0,0,-1,783,736,-7.62318,-2.90612
-434,288,-8.06256,3.15631,0,0,0,0,0,0,0,-1,790,736,-8.06255,-3.1563
-427,288,0,0,0,0,0,0,0,0,0,-1,797,736,0,0
-420,288,0,0,0,0,0,0,0,0,0,-1,804,736,0,0
-413,288,0,0,0,0,0,0,0,0,0,-1,811,736,0,0
-406,288,0,0,0,0,0,0,0,0,0,-1,818,736,0,0
-399,288,0,0,0,0,0,0,0,0,0,-1,825,736,0,0
-392,288,0,0,0,0,0,0,0,0,0,-1,832,736,0,0
-385,288,0,0,0,0,0,0,0,0,0,-1,839,736,0,0
-378,288,0,0,0,0,0,0,0,0,0,-1,846,736,0,0
-371,288,0,0,0,0,0,0,0,0,0,-1,853,736,0,0
-364,288,0,0,0,0,0,0,0,0,0,-1,860,736,0,0
-357,288,0,0,0,0,0,0,0,0,0,-1,867,736,0,0
-350,288,0,0,0,0,0,0,0,0,0,-1,874,736,0,0
-343,288,0,0,0,0,0,0,0,0,0,-1,881,736,0,0
-336,288,0,0,0,0,0,0,0,0,0,-1,888,736,0,0
-329,288,0,0,0,0,0,0,0,0,0,-1,895,736,0,0
-322,288,0,0,0,0,0,0,0,0,0,-1,902,736,0,0
-315,288,0,0,0,0,0,0,0,0,0,-1,909,736,0,0
-308,288,0,0,0,0,0,0,0,0,0,-1,916,736,0,0
-301,288,0,0,0,0,0,0,0,0,0,-1,923,736,0,0
-294,288,0,0,0,0,0,0,0,0,0,-1,930,736,0,0
-287,288,0,0,0,0,0,0,0,0,0,-1,937,736,0,0
-280,288,0,0,0,0,0,0,0,0,0,-1,944,736,0,0
-273,288,0,0,0,0,0,0,0,0,0,-1,951,736,0,0
-266,288,0,0,0,0,0,0,0,0,0,-1,958,736,0,0
-259,288,0,0,0,0,0,0,0,0,0,-1,965,736,0,0
-252,288,0,0,0,0,0,0,0,0,0,-1,972,736,0,0
-245,288,0,0,0,0,0,0,0,0,0,-1,979,736,0,0
-238,288,0,0,0,0,0,0,0,0,0,-1,986,736,0,0
-231,288,0,0,0,0,0,0,0,0,0,-1,993,736,0,0
-224,288,0,0,0,0,0,0,0,0,0,-1,1000,736,0,0
-217,288,0,0,0,0,0,0,0,0,0,-1,1007,736,0,0
-210,288,0,0,0,0,0,0,0,0,0,-1,1014,736,0,0
-203,288,0,0,0,0,0,0,0,0,0,-1,1021,736,0,0
-196,288,0,0,0,0,0,0,0,0,0,-1,1028,736,0,0
-189,288,0,0,0,0,0,0,0,0,0,-1,1035,736,0,0
-182,288,0,0,0,0,0,0,0,0,0,-1,1042,736,0,0
-175,288,0,0,0,0,0,0,0,0,0,-1,1049,736,0,0
-168,288,0,0,0,0,0,0,0,0,0,-1,1056,736,0,0
-161,288,0,0,0,0,0,0,0,0,0,-1,1063,736,0,0
-154,288,0,0,0,0,0,0,0,0,0,-1,1070,736,0,0
-147,288,0,0,0,0,0,0,0,0,0,-1,1077,736,0,0
-140,288,0,0,0,0,0,0,0,0,0,-1,1084,736,0,0
-133,288,0,0,0,0,0,0,0,0,0,-1,1091,736,0,0
-126,288,0,0,0,0,0,0,0,0,0,-1,1098,736,0,0
-119,288,0,0,0,0,0,0,0,0,0,-1,1105,736,0,0
-112,288,0,0,0,0,0,0,0,0,0,-1,1112,736,0,0
-105,288,0,0,0,0,0,0,0,0,0,-1,1119,736,0,0
-98,288,0,0,0,0,0,0,0,0,0,-1,1126,736,0,0
-91,288,0,0,0,0,0,0,0,0,0,-1,1133,736,0,0
-84,288,0,0,0,0,0,0,0,0,0,-1,1140,736,0,0
-77,288,0,0,0,0,0,0,0,0,0,-1,1147,736,0,0
-70,288,0,0,0,0,0,0,0,0,0,-1,1154,736,0,0
-63,288,0,0,0,0,0,0,0,0,0,-1,1161,736,0,0
-56,288,0,0,0,0,0,0,0,0,0,-1,1168,736,0,0
-49,288,0,0,0,0,0,0,0,0,0,-1,1175,736,0,0
-42,288,0,0,0,0,0,0,0,0,0,-1,1182,736,0,0
-35,288,0,0,0,0,0,0,0,0,0,-1,1189,736,0,0
-28,288,0,0,0,0,0,0,0,0,0,-1,1196,736,0,0
-21,288,0,0,0,0,0,0,0,0,0,-1,1203,736,0,0
-14,288,0,0,0,0,0,0,0,0,0,-1,1210,736,0,0
-7,288,0,0,0,0,0,0,0,0,0,-1,1217,736,0,0
0,288,0,0,0,0,0,0,0,0,0,-1,1224,736,0,0
7,288,0,0,0,0,0,0,0,0,0,-1,1231,736,0,0
14,288,0,0,0,0,0,0,0,0,0,-1,1238,736,0,0
21,288,0,0,0,0,0,0,0,0,0,-1,1245,736,0,0
28,288,0,0,0,0,0,0,0,0,0,-1,1252,736,0,0
35,288,0,0,0,0,0,0,0,0,0,-1,1259,736,0,0
42,288,0,0,0,0,0,0,0,0,0,-1,1266,736,0,0
49,288,0,0,0,0,0,0,0,0,0,-1,1273,736,0,0
56,288,0,0,0,0,0,0,0,0,0,-1,1280,736,0,0
63,288,0,0,0,0,0,0,0,0,0,-1,1287,736,0,0
70,288,0,0,0,0,0,0,0,0,0,-1,1294,736,0,0
77,288,0,0,0,0,0,0,0,0,0,-1,1301,736,0,0
84,288,0,0,0,0,0,0,0,0,0,-1,1308,736,0,0
91,288,0,0,0,0,0,0,0,0,0,-1,1315,736,0,0
98,288,0,0,0,0,0,0,0,0,0,-1,1322,736,0,0
105,288,0,0,0,0,0,0,0,0,0,-1,1329,736,0,0
112,288,0,0,0,0,0,0,0,0,0,-1,1336,736,0,0
119,288,0,0,0,0,0,0,0,0,0,-1,1343,736,0,0
126,288,0,0,0,0,0,0,0,0,0,-1,1350,736,0,0
133,288,0,0,0,0,0,0,0,0,0,-1,1357,736,0,0
140,288,0,0,0,0,0,0,0,0,0,-1,1364,736,0,0
147,288,0,0,0,0,0,0,0,0,0,-1,1371,736,0,0
154,288,0,0,0,0,0,0,0,0,0,-1,1378,736,0,0
161,288,0,0,0,0,0,0,0,0,0,-1,1385,736,0,0
168,288,0,0,0,0,0,0,0,0,0,-1,1392,736,0,0
175,288,0,0,0,0,0,0,0,0,0,-1,1399,736,0,0
182,288,0,0,0,0,0,0,0,0,0,-1,1406,736,0,0
189,288,0,0,0,0,0,0,0,0,0,-1,1413,736,0,0
196,288,0,0,0,0,0,0,0,0,0,-1,1420,736,0,0
203,288,0,0,0,0,0,0,0,0,0,-1,1427,736,0,0
210,288,0,0,0,0,0,0,0,0,0,-1,1434,736,0,0
217,288,0,0,0,0,0,0,0,0,0,-1,1441,736,0,0
224,288,0,0,0,0,0,0,0,0,0,-1,1448,736,0,0
231,288,0,0,0,0,0,0,0,0,0,-1,1455,736,0,0
238,288,0,0,0,0,0,0,0,0,0,-1,1462,736,0,0
245,288,0,0,0,0,0,0,0,0,0,-1,1469,736,0,0
252,288,0,0,0,0,0,0,0,0,0,-1,1476,736,0,0
259,288,0,0,0,0,0,0,0,0,0,-1,1483,736,0,0
266,288,0,0,0,0,0,0,0,0,0,-1,1490,736,0,0
273,288,0,0,0,0,0,0,0,0,0,-1,1497,736,0,0
280,288,0,0,0,0,0,0,0,0,0,-1,1504,736,0,0
287,288,0,0,0,0,0,0,0,0,0,-1,1511,736,0,0
294,288,0,0,0,0,0,0,0,0,0,-1,1518,736,0,0
301,288,0,0,0,0,0,0,0,0,0,-1,1525,736,0,0
308,288,0,0,0,0,0,0,0,0,0,-1,1532,736,0,0
315,288,0,0,0,0,0,0,0,0,0,-1,1539,736,0,0
322,288,0,0,0,0,0,0,0,0,0,-1,1546,736,0,0
329,288,0,0,0,0,0,0,0,0,0,-1,1553,736,0,0
336,288,0,0,0,0,0,0,0,0,0,-1,1560,736,0,0
343,288,0,0,0,0,0,0,0,0,0,-1,1567,736,0,0
350,288,0,0,0,0,0,0,0,0,0,-1,1574,736,0,0
357,288,0,0,0,0,0,0,0,0,0,-1,1581,736,0,0
364,288,0,0,0,0,0,0,0,0,0,-1,1588,736,0,0
371,288,0,0,0,0,0,0,0,0,0,-1,1595,736,0,0
378,288,0,0,0,0,0,0,0,0,0,-1,1602,736,0,0
385,288,0,0,0,0,0,0,0,0,0,-1,1609,736,0,0
392,288,0,0,0,0,0,0,0,0,0,-1,1616,736,0,0
399,288,0,0,0,0,0,0,0,0,0,-1,1623,736,0,0
406,288,0,0,0,0,0,0,0,0,0,-1,1630,736,0,0
413,288,0,0,0,0,0,0,0,0,0,-1,1637,736,0,0
420,288,0,0,0,0,0,0,0,0,0,-1,1644,736,0,0
427,288,0,0,0,0,0,0,0,0,0,-1,1651,736,0,0
434,288,0,0,0,0,0,0,0,0,0,-1,1658,736,0,0
441,288,0,0,0,0,0,0,0,0,0,-1,1665,736,0,0
448,288,0,0,0,0,0,0,0,0,0,-1,1672,736,0,0
455,288,0,0,0,0,0,0,0,0,0,-1,1679,736,0,0
462,288,0,0,0,0,0,0,0,0,0,-1,1686,736,0,0
469,288,0,0,0,0,0,0,0,0,0,-1,1693,736,0,0
476,288,0,0,0,0,0,0,0,0,0,-1,1700,736,0,0
483,288,0,0,0,0,0,0,0,0,0,-1,1707,736,0,0
490,288,0,0,0,0,0,0,0,0,0,-1,1714,736,0,0
497,288,0,0,0,0,0,0,0,0,0,-1,1721,736,0,0
504,288,0,0,0,0,0,0,0,0,0,-1,1728,736,0,0
511,288,0,0,0,0,0,0,0,0,0,-1,1735,736,0,0
518,288,0,0,0,0,0,0,0,0,0,-1,1742,736,0,0
525,288,0,0,0,0,0,0,0,0,0,-1,1749,736,0,0
532,288,0,0,0,0,0,0,0,0,0,-1,1756,736,0,0
539,288,0,0,0,0,0,0,0,0,0,-1,1763,736,0,0
546,288,0,0,0,0,0,0,0,0,0,-1,1770,736,0,0
553,288,15.132,2.09979,0.0271623,-0.0507627,0.0351928,0.0407032,-0.0643036,0.367304,0.061134,0.0404566,1777,736,15.1319,-2.09978
560,288,15.4464,1.65552,0.0239092,-0.0333146,0.0356727,0.0410267,-0.0504321,0.447398,0.0528968,0.0421847,1784,736,15.4464,-1.6555
567,288,15.6144,1.41058,0.0200217,-0.0225347,0.031146,0.036464,-0.038977,0.485725,0.0435639,0.04626,1791,736,15.6144,-1.41058
574,288,15.7882,1.65234,0.0158445,-0.0162353,0.0250898,0.0295834,-0.0299742,0.50099,0.0343859,0.0493434,1798,736,15.7882,-1.65237
581,288,15.9525,1.76593,0.0117302,-0.0120086,0.0188278,0.0221176,-0.022396,0.504155,0.0257002,0.0464597,1805,736,15.9525,-1.76595
588,288,16.1803,1.83911,0.00788319,-0.00908483,0.0129847,0.0149098,-0.0161115,0.496022,0.0179146,0.044215,1812,736,16.1802,-1.83909
595,288,16.4919,2.07495,0.00435136,-0.00709251,0.00783146,0.00832851,-0.0110697,0.469902,0.0112368,0.0482031,1819,736,16.4919,-2.07494
602,288,17.0573,2.29193,0,0,0,0,0,0,0,-1,1826,736,17.0573,-2.29194
609,288,17.6804,2.49548,0,0,0,0,0,0,0,-1,1833,736,17.6805,-2.49546
616,288,10.7118,0.900085,0,0,0,0,0,0,0,-1,1840,736,10.7118,-0.900066
623,288,10.5497,0.834229,-0.00508028,-0.00442708,-0.00525368,0.000510148,-0.0100175,-0.816441,0.00685472,0.0465075,1847,736,10.5497,-0.834247
630,288,10.4276,0.657837,-0.0057438,-0.00424968,-0.00580902,0.000860116,-0.0108536,-0.849349,0.00753881,0.0192879,1854,736,10.4276,-0.657832
637,288,10.4485,0.802795,-0.0058114,-0.00402401,-0.00591314,0.00106259,-0.010898,-0.860399,0.00764419,0.0103742,1861,736,10.4485,-0.80279
644,288,10.4683,0.975525,-0.00485095,-0.00376118,-0.00527157,0.000993592,-0.00960572,-0.836897,0.0067594,0.00997982,1868,736,10.4682,-0.975545
651,288,10.4799,1.15436,-0.00350986,-0.00452161,-0.00406584,8.14577e-05,-0.00811292,-0.723506,0.00543597,0.0109103,1875,736,10.4799,-1.15438
658,288,10.4624,1.32379,-0.0017325,-0.00306051,-0.0026906,0.000374819,-0.00516784,-0.664422,0.00357672,0.0160855,1882,736,10.4624,-1.32376
665,288,10.4768,1.52142,7.55483e-05,-0.000805029,-0.00161941,0.00131345,-0.00204293,-0.652665,0.00195301,0.0160901,1889,736,10.4768,-1.52143
672,288,10.4651,1.68994,0.00235788,0.00148994,-0.000955165,0.00297304,0.000874783,-0.572171,0.00176427,0.0131689,1896,736,10.465,-1.68996
679,288,10.4617,1.88434,0.00482319,0.00379067,-0.000339854,0.00492501,0.00368884,-0.291093,0.00295866,0.0108874,1903,736,10.4616,-1.88432
686,288,10.4673,2.03094,0.00773728,0.00668536,-3.8815e-05,0.00773871,0.00668393,-0.0368325,0.00484596,0.00873871,1910,736,10.4673,-2.03094
693,288,10.4812,2.19965,0.0115084,0.010514,-3.62978e-05,0.0115098,0.0105127,-0.0364382,0.00736336,0.0115509,1917,736,10.4812,-2.19965
700,288,10.4772,2.32117,0.0165984,0.0158569,-0.000201306,0.0166495,0.0158057,-0.248697,0.0108294,0.0218846,1924,736,10.4772,-2.32119
707,288,10.5619,1.99182,0,0,0,0,0,0,0,-1,1931,736,10.5619,-1.99182
714,288,11.1926,1.85724,0,0,0,0,0,0,0,-1,1938,736,11.1927,-1.85725
721,288,11.6527,1.91602,0,0,0,0,0,0,0,-1,1945,736,11.6527,-1.91599
728,288,13.4325,2.74835,0,0,0,0,0,0,0,-1,1952,736,13.4325,-2.74833
735,288,14.1078,2.97913,0,0,0,0,0,0,0,-1,1959,736,14.1078,-2.97914
742,288,0,0,0,0,0,0,0,0,0,-1,1966,736,0,0
749,288,0,0,0,0,0,0,0,0,0,-1,1973,736,0,0
756,288,0,0,0,0,0,0,0,0,0,-1,1980,736,0,0
763,288,0,0,0,0,0,0,0,0,0,-1,1987,736,0,0
770,288,0,0,0,0,0,0,0,0,0,-1,1994,736,0,0
777,288,0,0,0,0,0,0,0,0,0,-1,2001,736,0,0
784,288,0,0,0,0,0,0,0,0,0,-1,2008,736,0,0
791,288,0,0,0,0,0,0,0,0,0,-1,2015,736,0,0
798,288,0,0,0,0,0,0,0,0,0,-1,2022,736,0,0
805,288,0,0,0,0,0,0,0,0,0,-1,2029,736,0,0
812,288,0,0,0,0,0,0,0,0,0,-1,2036,736,0,0
-700,281,0,0,0,0,0,0,0,0,0,-1,524,743,0,0
-693,281,0,0,0,0,0,0,0,0,0,-1,531,743,0,0
-686,281,0,0,0,0,0,0,0,0,0,-1,538,743,0,0
-679,281,0,0,0,0,0,0,0,0,0,-1,545,743,0,0
-672,281,0,0,0,0,0,0,0,0,0,-1,552,743,0,0
-665,281,0,0,0,0,0,0,0,0,0,-1,559,743,0,0
-658,281,0,0,0,0,0,0,0,0,0,-1,566,743,0,0
-651,281,0,0,0,0,0,0,0,0,0,-1,573,743,0,0
-644,281,0,0,0,0,0,0,0,0,0,-1,580,743,0,0
-637,281,0,0,0,0,0,0,0,0,0,-1,587,743,0,0
-630,281,0,0,0,0,0,0,0,0,0,-1,594,743,0,0
-623,281,-4.61847,3.21552,0,0,0,0,0,0,0,-1,601,743,-4.61847,-3.2155
-616,281,-4.62433,2.7666,0,0,0,0,0,0,0,-1,608,743,-4.62433,-2.76663
-609,281,-3.60101,3.0896,0,0,0,0,0,0,0,-1,615,743,-3.60104,-3.08957
-602,281,-4.45801,2.70404,0,0,0,0,0,0,0,-1,622,743,-4.45801,-2.70403
-595,281,-5.39661,1.9082,0,0,0,0,0,0,0,-1,629,743,-5.3966,-1.9082
-588,281,-5.69818,0.741699,0,0,0,0,0,0,0,-1,636,743,-5.69818,-0.741672
-581,281,-5.67249,0.611267,-0.0276355,0.0117365,0.0129242,0.0155999,-0.0314988,1.28033,0.0277041,0.0451278,643,743,-5.6725,-0.61127
-574,281,-5.63763,0.506775,-0.0201542,0.00970525,0.00974064,0.0126018,-0.0230508,1.28175,0.0208766,0.025633,650,743,-5.63765,-0.506768
-567,281,-5.70538,0.373657,-0.0143767,0.00753206,0.00731252,0.00974853,-0.0165932,1.27649,0.0153786,0.0115561,657,743,-5.70539,-0.373642
-560,281,-5.72345,0.21167,-0.0102133,0.00581705,0.00540374,0.00746849,-0.0118647,1.2742,0.0112578,0.00797555,664,743,-5.72343,-0.211689
-553,281,-5.70837,0.072937,-0.00706729,0.00402735,0.0040471,0.00534675,-0.00838669,1.25565,0.00799349,0.0130208,671,743,-5.70836,-0.0729227
-546,281,-5.70978,-0.0552368,-0.00455098,0.00227538,0.00282522,0.00329297,-0.00556856,1.22508,0.00517213,0.0148395,678,743,-5.70977,0.0552077
-539,281,-5.70215,-0.233032,-0.00290277,0.00132788,0.00236348,0.0023844,-0.00395929,1.15042,0.00369996,0.0133185,685,743,-5.70212,0.233016
-532,281,-5.69458,-0.392456,-0.00169606,-8.43159e-06,0.00205501,0.00136926,-0.00307376,0.980209,0.00262735,0.0122636,692,743,-5.6946,0.392428
-525,281,-5.70984,-0.569153,-0.00118607,-0.000560949,0.00198912,0.00114001,-0.00288704,0.863329,0.00239684,0.0137385,699,743,-5.70981,0.569159
-518,281,-5.71497,-0.767944,-0.000649651,-0.00126903,0.00186603,0.000932218,-0.0028509,0.703167,0.00227589,0.0115065,706,743,-5.71494,0.767965
-511,281,-5.7066,-0.931763,0.000262579,-0.00186482,0.00148163,0.0010228,-0.00262504,0.474071,0.00217275,0.0102859,713,743,-5.70658,0.931755
-504,281,-5.70959,-1.08527,0.00162712,-0.00245891,0.0010379,0.00187564,-0.00270743,0.235022,0.00266053,0.0119175,720,743,-5.7096,1.08528
-497,281,-5.6521,-1.33881,0.00345289,-0.00301534,0.000153937,0.00345655,-0.003019,0.0237809,0.0037415,0.0313005,727,743,-5.65208,1.33883
-490,281,-5.63892,-1.57959,0.00558698,-0.00383054,-0.000950464,0.00568194,-0.00392551,-0.099587,0.00557768,0.0445073,734,743,-5.63893,1.57956
-483,281,-5.6947,-1.73639,0,0,0,0,0,0,0,-1,741,743,-5.69472,1.73638
-476,281,-10.4892,-1.04352,0,0,0,0,0,0,0,-1,748,743,-10.4892,1.04354
-469,281,-11.29,-0.279236,0,0,0,0,0,0,0,-1,755,743,-11.29,0.279228
-462,281,-11.3031,-0.23175,0,0,0,0,0,0,0,-1,762,743,-11.3031,0.23178
-455,281,-10.8685,0.485229,0,0,0,0,0,0,0,-1,769,743,-10.8686,-0.4852
-448,281,-10.5355,0.613098,0,0,0,0,0,0,0,-1,776,743,-10.5355,-0.613079
-441,281,-8.638,1.8432,0,0,0,0,0,0,0,-1,783,743,-8.63798,-1.84317
-434,281,0,0,0,0,0,0,0,0,0,-1,790,743,0,0
-427,281,0,0,0,0,0,0,0,0,0,-1,797,743,0,0
-420,281,0,0,0,0,0,0,0,0,0,-1,804,743,0,0
-413,281,0,0,0,0,0,0,0,0,0,-1,811,743,0,0
-406,281,0,0,0,0,0,0,0,0,0,-1,818,743,0,0
-399,281,0,0,0,0,0,0,0,0,0,-1,825,743,0,0
-392,281,0,0,0,0,0,0,0,0,0,-1,832,743,0,0
-385,281,0,0,0,0,0,0,0,0,0,-1,839,743,0,0
-378,281,0,0,0,0,0,0,0,0,0,-1,846,743,0,0
-371,281,0,0,0,0,0,0,0,0,0,-1,853,743,0,0
-364,281,0,0,0,0,0,0,0,0,0,-1,860,743,0,0
-357,281,0,0,0,0,0,0,0,0,0,-1,867,743,0,0
-350,281,0,0,0,0,0,0,0,0,0,-1,874,743,0,0
-343,281,0,0,0,0,0,0,0,0,0,-1,881,743,0,0
-336,281,0,0,0,0,0,0,0,0,0,-1,888,743,0,0
-329,281,0,0,0,0,0,0,0,0,0,-1,895,743,0,0
-322,281,0,0,0,0,0,0,0,0,0,-1,902,743,0,0
-315,281,0,0,0,0,0,0,0,0,0,-1,909,743,0,0
-308,281,0,0,0,0,0,0,0,0,0,-1,916,743,0,0
-301,281,0,0,0,0,0,0,0,0,0,-1,923,743,0,0
-294,281,0,0,0,0,0,0,0,0,0,-1,930,743,0,0
-287,281,0,0,0,0,0,0,0,0,0,-1,937,743,0,0
-280,281,0,0,0,0,0,0,0,0,0,-1,944,743,0,0
-273,281,0,0,0,0,0,0,0,0,0,-1,951,743,0,0
-266,281,0,0,0,0,0,0,0,0,0,-1,958,743,0,0
-259,281,0,0,0,0,0,0,0,0,0,-1,965,743,0,0
-252,281,0,0,0,0,0,0,0,0,0,-1,972,743,0,0
-245,281,0,0,0,0,0,0,0,0,0,-1,979,743,0,0
-238,281,0,0,0,0,0,0,0,0,0,-1,986,743,0,0
-231,281,0,0,0,0,0,0,0,0,0,-1,993,743,0,0
-224,281,0,0,0,0,0,0,0,0,0,-1,1000,743,0,0
-217,281,0,0,0,0,0,0,0,0,0,-1,1007,743,0,0
-210,281,0,0,0,0,0,0,0,0,0,-1,1014,743,0,0
-203,281,0,0,0,0,0,0,0,0,0,-1,1021,743,0,0
-196,281,0,0,0,0,0,0,0,0,0,-1,1028,743,0,0
-189,281,0,0,0,0,0,0,0,0,0,-1,1035,743,0,0
-182,281,0,0,0,0,0,0,0,0,0,-1,1042,743,0,0
-175,281,0,0,0,0,0,0,0,0,0,-1,1049,743,0,0
-168,281,0,0,0,0,0,0,0,0,0,-1,1056,743,0,0
-161,281,0,0,0,0,0,0,0,0,0,-1,1063,743,0,0
-154,281,0,0,0,0,0,0,0,0,0,-1,1070,743,0,0
-147,281,0,0,0,0,0,0,0,0,0,-1,1077,743,0,0
-140,281,0,0,0,0,0,0,0,0,0,-1,1084,743,0,0
-133,281,0,0,0,0,0,0,0,0,0,-1,1091,743,0,0
-126,281,0,0,0,0,0,0,0,0,0,-1,1098,743,0,0
-119,281,0,0,0,0,0,0,0,0,0,-1,1105,743,0,0
-112,281,0,0,0,0,0,0,0,0,0,-1,1112,743,0,0
-105,281,0,0,0,0,0,0,0,0,0,-1,1119,743,0,0
-98,281,0,0,0,0,0,0,0,0,0,-1,1126,743,0,0
-91,281,0,0,0,0,0,0,0,0,0,-1,1133,743,0,0
-84,281,0,0,0,0,0,0,0,0,0,-1,1140,743,0,0
-77,281,0,0,0,0,0,0,0,0,0,-1,1147,743,0,0
-70,281,0,0,0,0,0,0,0,0,0,-1,1154,743,0,0
-63,281,0,0,0,0,0,0,0,0,0,-1,1161,743,0,0
-56,281,0,0,0,0,0,0,0,0,0,-1,1168,743,0,0
-49,281,0,0,0,0,0,0,0,0,0,-1,1175,743,0,0
-42,281,0,0,0,0,0,0,0,0,0,-1,1182,743,0,0
-35,281,0,0,0,0,0,0,0,0,0,-1,1189,743,0,0
-28,281,0,0,0,0,0,0,0,0,0,-1,1196,743,0,0
-21,281,0,0,0,0,0,0,0,0,0,-1,1203,743,0,0
-14,281,0,0,0,0,0,0,0,0,0,-1,1210,743,0,0
-7,281,0,0,0,0,0,0,0,0,0,-1,1217,743,0,0
0,281,0,0,0,0,0,0,0,0,0,-1,1224,743,0,0
7,281,0,0,0,0,0,0,0,0,0,-1,1231,743,0,0
14,281,0,0,0,0,0,0,0,0,0,-1,1238,743,0,0
21,281,0,0,0,0,0,0,0,0,0,-1,1245,743,0,0
28,281,0,0,0,0,0,0,0,0,0,-1,1252,743,0,0
35,281,0,0,0,0,0,0,0,0,0,-1,1259,743,0,0
42,281,0,0,0,0,0,0,0,0,0,-1,1266,743,0,0
49,281,0,0,0,0,0,0,0,0,0,-1,1273,743,0,0
56,281,0,0,0,0,0,0,0,0,0,-1,1280,743,0,0
63,281,0,0,0,0,0,0,0,0,0,-1,1287,743,0,0
70,281,0,0,0,0,0,0,0,0,0,-1,1294,743,0,0
77,281,0,0,0,0,0,0,0,0,0,-1,1301,743,0,0
84,281,0,0,0,0,0,0,0,0,0,-1,1308,743,0,0
91,281,0,0,0,0,0,0,0,0,0,-1,1315,743,0,0
98,281,0,0,0,0,0,0,0,0,0,-1,1322,743,0,0
105,281,0,0,0,0,0,0,0,0,0,-1,1329,743,0,0
112,281,0,0,0,0,0,0,0,0,0,-1,1336,743,0,0
119,281,0,0,0,0,0,0,0,0,0,-1,1343,743,0,0
126,281,0,0,0,0,0,0,0,0,0,-1,1350,743,0,0
133,281,0,0,0,0,0,0,0,0,0,-1,1357,743,0,0
140,281,0,0,0,0,0,0,0,0,0,-1,1364,743,0,0
147,281,0,0,0,0,0,0,0,0,0,-1,1371,743,0,0
154,281,0,0,0,0,0,0,0,0,0,-1,1378,743,0,0
161,281,0,0,0,0,0,0,0,0,0,-1,1385,743,0,0
168,281,0,0,0,0,0,0,0,0,0,-1,1392,743,0,0
175,281,0,0,0,0,0,0,0,0,0,-1,1399,743,0,0
182,281,0,0,0,0,0,0,0,0,0,-1,1406,743,0,0
189,281,0,0,0,0,0,0,0,0,0,-1,1413,743,0,0
196,281,0,0,0,0,0,0,0,0,0,-1,1420,743,0,0
203,281,0,0,0,0,0,0,0,0,0,-1,1427,743,0,0
210,281,0,0,0,0,0,0,0,0,0,-1,1434,743,0,0
217,281,0,0,0,0,0,0,0,0,0,-1,1441,743,0,0
224,281,0,0,0,0,0,0,0,0,0,-1,1448,743,0,0
231,281,0,0,0,0,0,0,0,0,0,-1,1455,743,0,0
238,281,0,0,0,0,0,0,0,0,0,-1,1462,743,0,0
245,281,0,0,0,0,0,0,0,0,0,-1,1469,743,0,0
252,281,0,0,0,0,0,0,0,0,0,-1,1476,743,0,0
259,281,0,0,0,0,0,0,0,0,0,-1,1483,743,0,0
266,281,0,0,0,0,0,0,0,0,0,-1,1490,743,0,0
273,281,0,0,0,0,0,0,0,0,0,-1,1497,743,0,0
280,281,0,0,0,0,0,0,0,0,0,-1,1504,743,0,0
287,281,0,0,0,0,0,0,0,0,0,-1,1511,743,0,0
294,281,0,0,0,0,0,0,0,0,0,-1,1518,743,0,0
301,281,0,0,0,0,0,0,0,0,0,-1,1525,743,0,0
308,281,0,0,0,0,0,0,0,0,0,-1,1532,743,0,0
315,281,0,0,0,0,0,0,0,0,0,-1,1539,743,0,0
322,281,0,0,0,0,0,0,0,0,0,-1,1546,743,0,0
329,281,0,0,0,0,0,0,0,0,0,-1,1553,743,0,0
336,281,0,0,0,0,0,0,0,0,0,-1,1560,743,0,0
343,281,0,0,0,0,0,0,0,0,0,-1,1567,743,0,0
350,281,0,0,0,0,0,0,0,0,0,-1,1574,743,0,0
357,281,0,0,0,0,0,0,0,0,0,-1,1581,743,0,0
364,281,0,0,0,0,0,0,0,0,0,-1,1588,743,0,0
371,281,0,0,0,0,0,0,0,0,0,-1,1595,743,0,0
378,281,0,0,0,0,0,0,0,0,0,-1,1602,743,0,0
385,281,0,0,0,0,0,0,0,0,0,-1,1609,743,0,0
392,281,0,0,0,0,0,0,0,0,0,-1,1616,743,0,0
399,281,0,0,0,0,0,0,0,0,0,-1,1623,743,0,0
406,281,0,0,0,0,0,0,0,0,0,-1,1630,743,0,0
413,281,0,0,0,0,0,0,0,0,0,-1,1637,743,0,0
420,281,0,0,0,0,0,0,0,0,0,-1,1644,743,0,0
427,281,0,0,0,0,0,0,0,0,0,-1,1651,743,0,0
434,281,0,0,0,0,0,0,0,0,0,-1,1658,743,0,0
441,281,0,0,0,0,0,0,0,0,0,-1,1665,743,0,0
448,281,0,0,0,0,0,0,0,0,0,-1,1672,743,0,0
455,281,0,0,0,0,0,0,0,0,0,-1,1679,743,0,0
462,281,0,0,0,0,0,0,0,0,0,-1,1686,743,0,0
469,281,0,0,0,0,0,0,0,0,0,-1,1693,743,0,0
476,281,0,0,0,0,0,0,0,0,0,-1,1700,743,0,0
483,281,0,0,0,0,0,0,0,0,0,-1,1707,743,0,0
490,281,0,0,0,0,0,0,0,0,0,-1,1714,743,0,0
497,281,0,0,0,0,0,0,0,0,0,-1,1721,743,0,0
504,281,0,0,0,0,0,0,0,0,0,-1,1728,743,0,0
511,281,0,0,0,0,0,0,0,0,0,-1,1735,743,0,0
518,281,0,0,0,0,0,0,0,0,0,-1,1742,743,0,0
525,281,0,0,0,0,0,0,0,0,0,-1,1749,743,0,0
532,281,0,0,0,0,0,0,0,0,0,-1,1756,743,0,0
539,281,0,0,0,0,0,0,0,0,0,-1,1763,743,0,0
546,281,0,0,0,0,0,0,0,0,0,-1,1770,743,0,0
553,281,0,0,0,0,0,0,0,0,0,-1,1777,743,0,0
560,281,15.4872,2.0921,0.0210787,-0.0363138,0.0246415,0.0302068,-0.0454419,0.354762,0.04397,0.0462062,1784,743,15.4872,-2.09213
567,281,15.3754,1.93683,0.016401,-0.0232226,0.0219079,0.0261267,-0.0329483,0.417799,0.0341826,0.0404063,1791,743,15.3754,-1.93686
574,281,15.5056,2.03516,0.0120392,-0.0159626,0.0174782,0.0204328,-0.0243561,0.447708,0.0258919,0.0446858,1798,743,15.5056,-2.03515
581,281,15.7528,2.04913,0.00796265,-0.0117099,0.0124327,0.0139796,-0.0177268,0.450733,0.0183483,0.046313,1805,743,15.7528,-2.04914
588,281,16.004,2.16718,0.0042693,-0.00902523,0.00759087,0.007712,-0.0124679,0.425787,0.0117582,0.0423602,1812,743,16.004,-2.16719
595,281,16.2849,2.16815,0.0010944,-0.0074043,0.00341278,0.00229519,-0.00860509,0.338323,0.00663545,0.0463838,1819,743,16.285,-2.16817
602,281,11.3591,0.644775,0,0,0,0,0,0,0,-1,1826,743,11.3592,-0.644782
609,281,12.0999,0.309814,0,0,0,0,0,0,0,-1,1833,743,12.0999,-0.309813
616,281,12.7539,0.661926,0,0,0,0,0,0,0,-1,1840,743,12.7539,-0.661949
623,281,10.6183,1.15582,0,0,0,0,0,0,0,-1,1847,743,10.6183,-1.15584
630,281,10.5718,0.693604,-0.00723301,-0.0054081,-0.00726214,0.000998683,-0.0136398,-0.847893,0.00944371,0.0340959,1854,743,10.5717,-0.693607
637,281,10.6281,0.790283,-0.00725256,-0.00516492,-0.00718347,0.00105017,-0.0134677,-0.857547,0.00934818,0.0129513,1861,743,10.628,-0.7903
644,281,10.6591,0.962402,-0.00622104,-0.00486441,-0.0064315,0.000924441,-0.0120099,-0.837938,0.00833185,0.0104893,1868,743,10.659,-0.962383
651,281,10.6627,1.1319,-0.00476634,-0.00562385,-0.00501292,-0.000163872,-0.0102263,-0.742737,0.00676358,0.0108583,1875,743,10.6627,-1.13188
658,281,10.6567,1.2948,-0.00283551,-0.00390229,-0.00347024,0.000142097,-0.0068799,-0.709143,0.00463469,0.018786,1882,743,10.6567,-1.2948
665,281,10.6688,1.47479,-0.00106184,-0.00145305,-0.00221137,0.000962566,-0.00347745,-0.741286,0.00269703,0.0204937,1889,743,10.6688,-1.47481
672,281,10.6565,1.69141,0.00103242,0.000844212,-0.00143938,0.00238077,-0.000504132,-0.752755,0.00177919,0.0120543,1896,743,10.6565,-1.69138
679,281,10.6605,1.86084,0.00318919,0.00305284,-0.000714611,0.00383888,0.00240316,-0.737841,0.00223971,0.0169129,1903,743,10.6605,-1.86082
686,281,10.6554,2.01416,0.00557085,0.00556456,-0.000304342,0.00587206,0.00526335,-0.780232,0.0037284,0.012691,1910,743,10.6554,-2.01419
693,281,10.6437,2.18933,0.00851131,0.00847884,-0.000308936,0.00880444,0.00818571,-0.759145,0.00567464,0.0104608,1917,743,10.6437,-2.18934
700,281,10.6194,2.35724,0.0123073,0.0124402,-0.000559636,0.0129373,0.0118101,-0.844497,0.00827477,0.0172402,1924,743,10.6193,-2.35723
707,281,10.6229,2.50171,0.0173127,0.0176605,-0.00107538,0.018576,0.0163973,-0.86555,0.0117254,0.0338413,1931,743,10.623,-2.50171
714,281,10.9154,2.61633,0,0,0,0,0,0,0,-1,1938,743,10.9154,-2.61631
721,281,11.0032,2.58258,0,0,0,0,0,0,0,-1,1945,743,11.0032,-2.58256
728,281,11.5485,2.55444,0,0,0,0,0,0,0,-1,1952,743,11.5484,-2.55445
735,281,14.3514,2.78046,0,0,0,0,0,0,0,-1,1959,743,14.3514,-2.78045
742,281,0,0,0,0,0,0,0,0,0,-1,1966,743,0,0
749,281,0,0,0,0,0,0,0,0,0,-1,1973,743,0,0
756,281,0,0,0,0,0,0,0,0,0,-1,1980,743,0,0
763,281,0,0,0,0,0,0,0,0,0,-1,1987,743,0,0
770,281,0,0,0,0,0,0,0,0,0,-1,1994,743,0,0
777,281,0,0,0,0,0,0,0,0,0,-1,2001,743,0,0
784,281,0,0,0,0,0,0,0,0,0,-1,2008,743,0,0
791,281,0,0,0,0,0,0,0,0,0,-1,2015,743,0,0
798,281,0,0,0,0,0,0,0,0,0,-1,2022,743,0,0
805,281,0,0,0,0,0,0,0,0,0,-1,2029,743,0,0
812,281,0,0,0,0,0,0,0,0,0,-1,2036,743,0,0
-700,274,0,0,0,0,0,0,0,0,0,-1,524,750,0,0
-693,274,0,0,0,0,0,0,0,0,0,-1,531,750,0,0
-686,274,0,0,0,0,0,0,0,0,0,-1,538,750,0,0
-679,274,0,0,0,0,0,0,0,0,0,-1,545,750,0,0
-672,274,0,0,0,0,0,0,0,0,0,-1,552,750,0,0
-665,274,0,0,0,0,0,0,0,0,0,-1,559,750,0,0
-658,274,0,0,0,0,0,0,0,0,0,-1,566,750,0,0
-651,274,0,0,0,0,0,0,0,0,0,-1,573,750,0,0
-644,274,0,0,0,0,0,0,0,0,0,-1,580,750,0,0
-637,274,0,0,0,0,0,0,0,0,0,-1,587,750,0,0
-630,274,0,0,0,0,0,0,0,0,0,-1,594,750,0,0
-623,274,-4.73297,3.43164,0,0,0,0,0,0,0,-1,601,750,-4.73296,-3.43163
-616,274,-3.19873,1.93188,0,0,0,0,0,0,0,-1,608,750,-3.19874,-1.93187
-609,274,-3.62555,2.20398,0,0,0,0,0,0,0,-1,615,750,-3.62557,-2.20398
-602,274,-4.08777,2.19226,0,0,0,0,0,0,0,-1,622,750,-4.08779,-2.19225
-595,274,-4.42059,1.68805,0,0,0,0,0,0,0,-1,629,750,-4.4206,-1.68806
-588,274,-5.68591,0.960938,0,0,0,0,0,0,0,-1,636,750,-5.68594,-0.960918
-581,274,-5.74084,0.741577,-0.0236504,0.00901002,0.0124735,0.0132289,-0.0278692,1.24465,0.0242246,0.0384044,643,750,-5.74083,-0.741599
-574,274,-5.80286,0.528381,-0.0171878,0.00738623,0.00912901,0.0104064,-0.0202079,1.2513,0.0179746,0.0179729,650,750,-5.80285,-0.528405
-567,274,-5.88904,0.374817,-0.0122817,0.00567422,0.00668625,0.00789045,-0.0144979,1.25073,0.0131122,0.0155529,657,750,-5.88903,-0.374807
-560,274,-5.88855,0.233276,-0.00878286,0.00439356,0.00479426,0.00595332,-0.0103426,1.25626,0.00952155,0.0137364,664,750,-5.88854,-0.233295
-553,274,-5.86572,0.0668945,-0.00618355,0.00293306,0.00359718,0.00418146,-0.00743195,1.23675,0.00679199,0.00902852,671,750,-5.86575,-0.0668768
-546,274,-5.86102,-0.0905762,-0.00423629,0.00147242,0.00265515,0.00251641,-0.00528028,1.19617,0.00459474,0.0103342,678,750,-5.86105,0.0905969
-539,274,-5.86798,-0.244019,-0.00296003,0.000564121,0.00230289,0.00170174,-0.00409765,1.11196,0.00344221,0.0114401,685,750,-5.86797,0.244011
-532,274,-5.85852,-0.38916,-0.00198203,-0.000666744,0.00211477,0.000890275,-0.00353905,0.936147,0.0027054,0.0120931,692,750,-5.8585,0.389165
-525,274,-5.86768,-0.556885,-0.00162007,-0.00118442,0.00220918,0.000817651,-0.00362214,0.83454,0.00272846,0.0119813,699,750,-5.86768,0.556906
-518,274,-5.87762,-0.755432,-0.00115926,-0.00175296,0.00212824,0.00069273,-0.00360495,0.716104,0.0026644,0.0115787,706,750,-5.87761,0.755448
-511,274,-5.87097,-0.932556,-0.000200305,-0.00220792,0.00169115,0.000762511,-0.00317074,0.51756,0.00240857,0.0109699,713,750,-5.87094,0.932565
-504,274,-5.85834,-1.08899,0.00133619,-0.00255779,0.00116016,0.00165564,-0.00287724,0.26869,0.00264855,0.0184907,720,750,-5.85833,1.08902
-497,274,-5.82751,-1.35547,0.00337162,-0.00283808,0.000197577,0.0033779,-0.00284436,0.0317746,0.00359683,0.0403647,727,750,-5.82753,1.35546
-490,274,-5.91052,-1.61841,0.00576588,-0.00324345,-0.00102598,0.00588124,-0.00335881,-0.11197,0.0054006,0.0483778,734,750,-5.91053,1.61841
-483,274,-5.82587,-1.909,0,0,0,0,0,0,0,-1,741,750,-5.82586,1.90899
-476,274,-10.7966,-0.072998,0,0,0,0,0,0,0,-1,748,750,-10.7966,0.0729705
-469,274,-11.0142,0.179138,0,0,0,0,0,0,0,-1,755,750,-11.0142,-0.179126
-462,274,-10.9125,0.409851,0.0199256,-0.0058387,-0.0104551,0.0236344,-0.0095475,-0.340886,0.0197247,0.0442148,762,750,-10.9125,-0.40984
-455,274,-10.5793,0.594116,0.0242351,-0.00662298,-0.0137621,0.0294809,-0.0118688,-0.364177,0.0245845,0.0447052,769,750,-10.5793,-0.594093
-448,274,-10.2581,0.727844,0.0289464,-0.00773509,-0.0173761,0.0358705,-0.0146592,-0.379199,0.0300179,0.0429676,776,750,-10.2581,-0.727859
-441,274,0,0,0,0,0,0,0,0,0,-1,783,750,0,0
-434,274,0,0,0,0,0,0,0,0,0,-1,790,750,0,0
-427,274,0,0,0,0,0,0,0,0,0,-1,797,750,0,0
-420,274,0,0,0,0,0,0,0,0,0,-1,804,750,0,0
-413,274,0,0,0,0,0,0,0,0,0,-1,811,750,0,0
-406,274,0,0,0,0,0,0,0,0,0,-1,818,750,0,0
-399,274,0,0,0,0,0,0,0,0,0,-1,825,750,0,0
-392,274,0,0,0,0,0,0,0,0,0,-1,832,750,0,0
-385,274,0,0,0,0,0,0,0,0,0,-1,839,750,0,0
-378,274,0,0,0,0,0,0,0,0,0,-1,846,750,0,0
-371,274,0,0,0,0,0,0,0,0,0,-1,853,750,0,0
-364,274,0,0,0,0,0,0,0,0,0,-1,860,750,0,0
-357,274,0,0,0,0,0,0,0,0,0,-1,867,750,0,0
-350,274,0,0,0,0,0,0,0,0,0,-1,874,750,0,0
-343,274,0,0,0,0,0,0,0,0,0,-1,881,750,0,0
-336,274,0,0,0,0,0,0,0,0,0,-1,888,750,0,0
-329,274,0,0,0,0,0,0,0,0,0,-1,895,750,0,0
-322,274,0,0,0,0,0,0,0,0,0,-1,902,750,0,0
-315,274,0,0,0,0,0,0,0,0,0,-1,909,750,0,0
-308,274,0,0,0,0,0,0,0,0,0,-1,916,750,0,0
-301,274,0,0,0,0,0,0,0,0,0,-1,923,750,0,0
-294,274,0,0,0,0,0,0,0,0,0,-1,930,750,0,0
-287,274,0,0,0,0,0,0,0,0,0,-1,937,750,0,0
-280,274,0,0,0,0,0,0,0,0,0,-1,944,750,0,0
-273,274,0,0,0,0,0,0,0,0,0,-1,951,750,0,0
-266,274,0,0,0,0,0,0,0,0,0,-1,958,750,0,0
-259,274,0,0,0,0,0,0,0,0,0,-1,965,750,0,0
-252,274,0,0,0,0,0,0,0,0,0,-1,972,750,0,0
-245,274,0,0,0,0,0,0,0,0,0,-1,979,750,0,0
-238,274,0,0,0,0,0,0,0,0,0,-1,986,750,0,0
-231,274,0,0,0,0,0,0,0,0,0,-1,993,750,0,0
-224,274,0,0,0,0,0,0,0,0,0,-1,1000,750,0,0
-217,274,0,0,0,0,0,0,0,0,0,-1,1007,750,0,0
-210,274,0,0,0,0,0,0,0,0,0,-1,1014,750,0,0
-203,274,0,0,0,0,0,0,0,0,0,-1,1021,750,0,0
-196,274,0,0,0,0,0,0,0,0,0,-1,1028,750,0,0
-189,274,0,0,0,0,0,0,0,0,0,-1,1035,750,0,0
-182,274,0,0,0,0,0,0,0,0,0,-1,1042,750,0,0
-175,274,0,0,0,0,0,0,0,0,0,-1,1049,750,0,0
-168,274,0,0,0,0,0,0,0,0,0,-1,1056,750,0,0
-161,274,0,0,0,0,0,0,0,0,0,-1,1063,750,0,0
-154,274,0,0,0,0,0,0,0,0,0,-1,1070,750,0,0
-147,274,0,0,0,0,0,0,0,0,0,-1,1077,750,0,0
-140,274,0,0,0,0,0,0,0,0,0,-1,1084,750,0,0
-133,274,0,0,0,0,0,0,0,0,0,-1,1091,750,0,0
-126,274,0,0,0,0,0,0,0,0,0,-1,1098,750,0,0
-119,274,0,0,0,0,0,0,0,0,0,-1,1105,750,0,0
-112,274,0,0,0,0,0,0,0,0,0,-1,1112,750,0,0
-105,274,0,0,0,0,0,0,0,0,0,-1,1119,750,0,0
-98,274,0,0,0,0,0,0,0,0,0,-1,1126,750,0,0
-91,274,0,0,0,0,0,0,0,0,0,-1,1133,750,0,0
-84,274,0,0,0,0,0,0,0,0,0,-1,1140,750,0,0
-77,274,0,0,0,0,0,0,0,0,0,-1,1147,750,0,0
-70,274,0,0,0,0,0,0,0,0,0,-1,1154,750,0,0
-63,274,0,0,0,0,0,0,0,0,0,-1,1161,750,0,0
-56,274,0,0,0,0,0,0,0,0,0,-1,1168,750,0,0
-49,274,0,0,0,0,0,0,0,0,0,-1,1175,750,0,0
-42,274,0,0,0,0,0,0,0,0,0,-1,1182,750,0,0
-35,274,0,0,0,0,0,0,0,0,0,-1,1189,750,0,0
-28,274,0,0,0,0,0,0,0,0,0,-1,1196,750,0,0
-21,274,0,0,0,0,0,0,0,0,0,-1,1203,750,0,0
-14,274,0,0,0,0,0,0,0,0,0,-1,1210,750,0,0
-7,274,0,0,0,0,0,0,0,0,0,-1,1217,750,0,0
0,274,0,0,0,0,0,0,0,0,0,-1,1224,750,0,0
7,274,0,0,0,0,0,0,0,0,0,-1,1231,750,0,0
14,274,0,0,0,0,0,0,0,0,0,-1,1238,750,0,0
21,274,0,0,0,0,0,0,0,0,0,-1,1245,750,0,0
28,274,0,0,0,0,0,0,0,0,0,-1,1252,750,0,0
35,274,0,0,0,0,0,0,0,0,0,-1,1259,750,0,0
42,274,0,0,0,0,0,0,0,0,0,-1,1266,750,0,0
49,274,0,0,0,0,0,0,0,0,0,-1,1273,750,0,0
56,274,0,0,0,0,0,0,0,0,0,-1,1280,750,0,0
63,274,0,0,0,0,0,0,0,0,0,-1,1287,750,0,0
70,274,0,0,0,0,0,0,0,0,0,-1,1294,750,0,0
77,274,0,0,0,0,0,0,0,0,0,-1,1301,750,0,0
84,274,0,0,0,0,0,0,0,0,0,-1,1308,750,0,0
91,274,0,0,0,0,0,0,0,0,0,-1,1315,750,0,0
98,274,0,0,0,0,0,0,0,0,0,-1,1322,750,0,0
105,274,0,0,0,0,0,0,0,0,0,-1,1329,750,0,0
112,274,0,0,0,0,0,0,0,0,0,-1,1336,750,0,0
119,274,0,0,0,0,0,0,0,0,0,-1,1343,750,0,0
126,274,0,0,0,0,0,0,0,0,0,-1,1350,750,0,0
133,274,0,0,0,0,0,0,0,0,0,-1,1357,750,0,0
140,274,0,0,0,0,0,0,0,0,0,-1,1364,750,0,0
147,274,0,0,0,0,0,0,0,0,0,-1,1371,750,0,0
154,274,0,0,0,0,0,0,0,0,0,-1,1378,750,0,0
161,274,0,0,0,0,0,0,0,0,0,-1,1385,750,0,0
168,274,0,0,0,0,0,0,0,0,0,-1,1392,750,0,0
175,274,0,0,0,0,0,0,0,0,0,-1,1399,750,0,0
182,274,0,0,0,0,0,0,0,0,0,-1,1406,750,0,0
189,274,0,0,0,0,0,0,0,0,0,-1,1413,750,0,0
196,274,0,0,0,0,0,0,0,0,0,-1,1420,750,0,0
203,274,0,0,0,0,0,0,0,0,0,-1,1427,750,0,0
210,274,0,0,0,0,0,0,0,0,0,-1,1434,750,0,0
217,274,0,0,0,0,0,0,0,0,0,-1,1441,750,0,0
224,274,0,0,0,0,0,0,0,0,0,-1,1448,750,0,0
231,274,0,0,0,0,0,0,0,0,0,-1,1455,750,0,0
238,274,0,0,0,0,0,0,0,0,0,-1,1462,750,0,0
245,274,0,0,0,0,0,0,0,0,0,-1,1469,750,0,0
252,274,0,0,0,0,0,0,0,0,0,-1,1476,750,0,0
259,274,0,0,0,0,0,0,0,0,0,-1,1483,750,0,0
266,274,0,0,0,0,0,0,0,0,0,-1,1490,750,0,0
273,274,0,0,0,0,0,0,0,0,0,-1,1497,750,0,0
280,274,0,0,0,0,0,0,0,0,0,-1,1504,750,0,0
287,274,0,0,0,0,0,0,0,0,0,-1,1511,750,0,0
294,274,0,0,0,0,0,0,0,0,0,-1,1518,750,0,0
301,274,0,0,0,0,0,0,0,0,0,-1,1525,750,0,0
308,274,0,0,0,0,0,0,0,0,0,-1,1532,750,0,0
315,274,0,0,0,0,0,0,0,0,0,-1,1539,750,0,0
322,274,0,0,0,0,0,0,0,0,0,-1,1546,750,0,0
329,274,0,0,0,0,0,0,0,0,0,-1,1553,750,0,0
336,274,0,0,0,0,0,0,0,0,0,-1,1560,750,0,0
343,274,0,0,0,0,0,0,0,0,0,-1,1567,750,0,0
350,274,0,0,0,0,0,0,0,0,0,-1,1574,750,0,0
357,274,0,0,0,0,0,0,0,0,0,-1,1581,750,0,0
364,274,0,0,0,0,0,0,0,0,0,-1,1588,750,0,0
371,274,0,0,0,0,0,0,0,0,0,-1,1595,750,0,0
378,274,0,0,0,0,0,0,0,0,0,-1,1602,750,0,0
385,274,0,0,0,0,0,0,0,0,0,-1,1609,750,0,0
392,274,0,0,0,0,0,0,0,0,0,-1,1616,750,0,0
399,274,0,0,0,0,0,0,0,0,0,-1,1623,750,0,0
406,274,0,0,0,0,0,0,0,0,0,-1,1630,750,0,0
413,274,0,0,0,0,0,0,0,0,0,-1,1637,750,0,0
420,274,0,0,0,0,0,0,0,0,0,-1,1644,750,0,0
427,274,0,0,0,0,0,0,0,0,0,-1,1651,750,0,0
434,274,0,0,0,0,0,0,0,0,0,-1,1658,750,0,0
441,274,0,0,0,0,0,0,0,0,0,-1,1665,750,0,0
448,274,0,0,0,0,0,0,0,0,0,-1,1672,750,0,0
455,274,0,0,0,0,0,0,0,0,0,-1,1679,750,0,0
462,274,0,0,0,0,0,0,0,0,0,-1,1686,750,0,0
469,274,0,0,0,0,0,0,0,0,0,-1,1693,750,0,0
476,274,0,0,0,0,0,0,0,0,0,-1,1700,750,0,0
483,274,0,0,0,0,0,0,0,0,0,-1,1707,750,0,0
490,274,0,0,0,0,0,0,0,0,0,-1,1714,750,0,0
497,274,0,0,0,0,0,0,0,0,0,-1,1721,750,0,0
504,274,0,0,0,0,0,0,0,0,0,-1,1728,750,0,0
511,274,0,0,0,0,0,0,0,0,0,-1,1735,750,0,0
518,274,0,0,0,0,0,0,0,0,0,-1,1742,750,0,0
525,274,0,0,0,0,0,0,0,0,0,-1,1749,750,0,0
532,274,0,0,0,0,0,0,0,0,0,-1,1756,750,0,0
539,274,0,0,0,0,0,0,0,0,0,-1,1763,750,0,0
546,274,0,0,0,0,0,0,0,0,0,-1,1770,750,0,0
553,274,0,0,0,0,0,0,0,0,0,-1,1777,750,0,0
560,274,15.5377,2.67523,0.0207289,-0.0389998,0.01698,0.0252186,-0.0434895,0.258495,0.0401335,0.0431178,1784,750,15.5378,-2.67521
567,274,15.4598,2.74457,0.0146711,-0.0240339,0.014306,0.0193847,-0.0287476,0.318286,0.0279639,0.0383945,1791,750,15.4599,-2.74455
574,274,15.6049,2.46844,0.00949453,-0.0157822,0.0107761,0.013465,-0.0197527,0.353015,0.0192924,0.0457528,1798,750,15.6048,-2.46845
581,274,15.7311,2.39996,0.00500652,-0.0113625,0.00667995,0.00738647,-0.0137425,0.342262,0.0123814,0.0456937,1805,750,15.7311,-2.39994
588,274,15.8705,2.29053,0.00109928,-0.00886615,0.00262561,0.00174873,-0.00951559,0.242484,0.00699984,0.0428814,1812,750,15.8704,-2.29055
595,274,11.0228,1.81085,-0.00204375,-0.00761959,-0.000769344,-0.00193954,-0.00772379,-0.134628,0.00463983,0.047796,1819,750,11.0228,-1.81085
602,274,11.3424,1.52069,0,0,0,0,0,0,0,-1,1826,750,11.3424,-1.52068
609,274,12.0651,1.237,-0.00640557,-0.00623757,-0.00590864,-0.000412329,-0.0122308,-0.792506,0.00801996,0.048962,1833,750,12.065,-1.237
616,274,12.6271,1.15271,-0.00760135,-0.00600686,-0.00746605,0.000704389,-0.0143126,-0.838588,0.00978498,0.0476328,1840,750,12.6271,-1.15273
623,274,12.6936,1.26978,0,0,0,0,0,0,0,-1,1847,750,12.6936,-1.26977
630,274,10.9603,0.725525,-0.0087046,-0.00645702,-0.0084836,0.0009769,-0.0161385,-0.851248,0.011099,0.0404223,1854,750,10.9603,-0.725536
637,274,10.8181,0.789429,-0.00854734,-0.00619828,-0.00821244,0.000923198,-0.0156688,-0.856426,0.0107668,0.0130112,1861,750,10.8182,-0.789438
644,274,10.8339,0.95575,-0.00739838,-0.00588877,-0.00738854,0.000783411,-0.0140706,-0.836301,0.00965212,0.0119727,1868,750,10.8338,-0.955757
651,274,10.8223,1.13733,-0.00578153,-0.00663481,-0.0058522,-0.000340431,-0.0120759,-0.749011,0.00793956,0.0129727,1875,750,10.8222,-1.13731
658,274,10.8231,1.28894,-0.00365123,-0.00483045,-0.00427167,7.13239e-05,-0.00855301,-0.716817,0.00572593,0.0155432,1882,750,10.8231,-1.28893
665,274,10.839,1.47937,-0.00183384,-0.00233317,-0.0029154,0.00084256,-0.00500957,-0.742684,0.0036531,0.0168541,1889,750,10.8389,-1.47938
672,274,10.8469,1.67517,0.000152353,-0.00012605,-0.00209351,0.00211128,-0.00208498,-0.752201,0.00242273,0.0145291,1896,750,10.8469,-1.67516
679,274,10.8582,1.85718,0.00207739,0.00190272,-0.00130207,0.00329505,0.000685062,-0.751912,0.00200769,0.0147699,1903,750,10.8582,-1.85717
686,274,10.8583,2.02515,0.00405632,0.00400867,-0.000798358,0.00483121,0.00323378,-0.770482,0.00284213,0.0139738,1910,750,10.8583,-2.02512
693,274,10.8397,2.20477,0.00637473,0.00609508,-0.000768336,0.00701586,0.00545395,-0.695393,0.0042533,0.0116098,1917,750,10.8397,-2.20476
700,274,10.8192,2.39105,0.00918128,0.00886844,-0.0010115,0.0100484,0.00800133,-0.708685,0.00613155,0.0137552,1924,750,10.8192,-2.39103
707,274,10.827,2.54193,0.0127453,0.0123158,-0.0016161,0.0141609,0.0109003,-0.719344,0.00856321,0.0206226,1931,750,10.827,-2.54192
714,274,10.9684,2.58435,0.0172633,0.0166614,-0.00259702,0.0195767,0.0143479,-0.727711,0.0117042,0.0381381,1938,750,10.9684,-2.58437
721,274,10.996,2.61432,0.0226238,0.0220146,-0.00398392,0.0263148,0.0183237,-0.747244,0.0155783,0.0451332,1945,750,10.996,-2.61429
728,274,11.2913,2.66998,0,0,0,0,0,0,0,-1,1952,750,11.2912,-2.66998
735,274,11.4948,2.76038,0,0,0,0,0,0,0,-1,1959,750,11.4948,-2.76039
742,274,11.7815,-0.740234,0,0,0,0,0,0,0,-1,1966,750,11.7815,0.740253
749,274,0,0,0,0,0,0,0,0,0,-1,1973,750,0,0
756,274,0,0,0,0,0,0,0,0,0,-1,1980,750,0,0
763,274,0,0,0,0,0,0,0,0,0,-1,1987,750,0,0
770,274,0,0,0,0,0,0,0,0,0,-1,1994,750,0,0
777,274,0,0,0,0,0,0,0,0,0,-1,2001,750,0,0
784,274,0,0,0,0,0,0,0,0,0,-1,2008,750,0,0
791,274,0,0,0,0,0,0,0,0,0,-1,2015,750,0,0
798,274,0,0,0,0,0,0,0,0,0,-1,2022,750,0,0
805,274,0,0,0,0,0,0,0,0,0,-1,2029,750,0,0
812,274,0,0,0,0,0,0,0,0,0,-1,2036,750,0,0
-700,267,0,0,0,0,0,0,0,0,0,-1,524,757,0,0
-693,267,0,0,0,0,0,0,0,0,0,-1,531,757,0,0
-686,267,0,0,0,0,0,0,0,0,0,-1,538,757,0,0
-679,267,0,0,0,0,0,0,0,0,0,-1,545,757,0,0
-672,267,0,0,0,0,0,0,0,0,0,-1,552,757,0,0
-665,267,0,0,0,0,0,0,0,0,0,-1,559,757,0,0
-658,267,0,0,0,0,0,0,0,0,0,-1,566,757,0,0
-651,267,0,0,0,0,0,0,0,0,0,-1,573,757,0,0
-644,267,0,0,0,0,0,0,0,0,0,-1,580,757,0,0
-637,267,0,0,0,0,0,0,0,0,0,-1,587,757,0,0
-630,267,-5.67786,2.58307,0,0,0,0,0,0,0,-1,594,757,-5.67783,-2.58304
-623,267,-5.90967,1.59277,0,0,0,0,0,0,0,-1,601,757,-5.90965,-1.59277
-616,267,-6.10858,0.628296,0,0,0,0,0,0,0,-1,608,757,-6.10858,-0.628325
-609,267,-3.54639,2.13812,0,0,0,0,0,0,0,-1,615,757,-3.54639,-2.13811
-602,267,-4.03052,1.84241,0,0,0,0,0,0,0,-1,622,757,-4.03051,-1.8424
-595,267,-4.54791,1.4837,0,0,0,0,0,0,0,-1,629,757,-4.54788,-1.4837
-588,267,-5.27997,1.08075,-0.0256987,0.00678757,0.0151879,0.012782,-0.0316932,1.19488,0.0264402,0.042923,636,757,-5.27996,-1.08074
-581,267,-5.90784,0.754517,-0.019161,0.00619032,0.0109402,0.0102586,-0.0232293,1.21478,0.0198118,0.0264987,643,757,-5.90785,-0.754505
-574,267,-5.99829,0.53009,-0.013974,0.00519734,0.00786731,0.00801246,-0.0167892,1.22717,0.014615,0.0135067,650,757,-5.99832,-0.530116
-567,267,-6.0412,0.405457,-0.0100957,0.00402159,0.00570178,0.0060368,-0.0121109,1.23106,0.0106714,0.0200952,657,757,-6.04117,-0.405476
-560,267,-6.03821,0.261658,-0.00739881,0.00317284,0.00402263,0.00452942,-0.00875538,1.24554,0.00779827,0.0207112,664,757,-6.0382,-0.261628
-553,267,-6.034,0.0998535,-0.00543717,0.00197513,0.00312878,0.00311921,-0.00658126,1.22023,0.00571823,0.016417,671,757,-6.03399,-0.0998796
-546,267,-6.0368,-0.0922852,-0.00410265,0.00072273,0.00254833,0.00181932,-0.00519924,1.16443,0.00420587,0.01073,678,757,-6.03683,0.0922895
-539,267,-6.03912,-0.250427,-0.00327952,-0.000206355,0.00240586,0.00111175,-0.00459763,1.06959,0.00349512,0.0103601,685,757,-6.03913,0.250409
-532,267,-6.02258,-0.399109,-0.00265027,-0.00139398,0.00240678,0.000465272,-0.00450953,0.913045,0.00317283,0.0105407,692,757,-6.02258,0.399126
-525,267,-6.03479,-0.555115,-0.00253264,-0.0019523,0.00266929,0.000442547,-0.00492749,0.839539,0.00344201,0.0101692,699,757,-6.03481,0.555093
-518,267,-6.03949,-0.736938,-0.00217532,-0.00247815,0.00262198,0.000299615,-0.00495308,0.756557,0.00340632,0.0099652,706,757,-6.03952,0.736928
-511,267,-6.01996,-0.916992,-0.00118968,-0.00284168,0.00214918,0.000286768,-0.00431813,0.601934,0.00297895,0.0130958,713,757,-6.01996,0.916991
-504,267,-6.03802,-1.04602,0.000453459,-0.00299595,0.00154839,0.00104654,-0.00358903,0.365791,0.00280733,0.02486,720,757,-6.03805,1.04605
-497,267,-6.36127,-1.23755,0.00264961,-0.00305575,0.000525149,0.00269755,-0.00310368,0.0910258,0.00335207,0.0419744,727,757,-6.36124,1.23757
-490,267,-6.0412,-1.53625,0,0,0,0,0,0,0,-1,734,757,-6.04119,1.53625
-483,267,-6.26117,-0.833679,0,0,0,0,0,0,0,-1,741,757,-6.26117,0.833684
-476,267,-10.7279,0.261169,0,0,0,0,0,0,0,-1,748,757,-10.7279,-0.261185
-469,267,-10.4335,0.431641,0,0,0,0,0,0,0,-1,755,757,-10.4335,-0.431667
-462,267,-10.3925,0.503662,0.0213402,-0.00371794,-0.0101275,0.0249215,-0.00729926,-0.339898,0.019508,0.045339,762,757,-10.3924,-0.503668
-455,267,-10.233,0.658569,0.0261927,-0.00423281,-0.0130928,0.0310511,-0.00909116,-0.355321,0.0243046,0.0452755,769,757,-10.233,-0.658571
-448,267,-10.0237,0.725891,0.0319089,-0.00510928,-0.0163056,0.0380668,-0.0112672,-0.361095,0.029851,0.0457334,776,757,-10.0237,-0.725862
-441,267,0,0,0,0,0,0,0,0,0,-1,783,757,0,0
-434,267,0,0,0,0,0,0,0,0,0,-1,790,757,0,0
-427,267,0,0,0,0,0,0,0,0,0,-1,797,757,0,0
-420,267,0,0,0,0,0,0,0,0,0,-1,804,757,0,0
-413,267,0,0,0,0,0,0,0,0,0,-1,811,757,0,0
-406,267,0,0,0,0,0,0,0,0,0,-1,818,757,0,0
-399,267,0,0,0,0,0,0,0,0,0,-1,825,757,0,0
-392,267,0,0,0,0,0,0,0,0,0,-1,832,757,0,0
-385,267,0,0,0,0,0,0,0,0,0,-1,839,757,0,0
-378,267,0,0,0,0,0,0,0,0,0,-1,846,757,0,0
-371,267,0,0,0,0,0,0,0,0,0,-1,853,757,0,0
-364,267,0,0,0,0,0,0,0,0,0,-1,860,757,0,0
-357,267,0,0,0,0,0,0,0,0,0,-1,867,757,0,0
-350,267,0,0,0,0,0,0,0,0,0,-1,874,757,0,0
-343,267,0,0,0,0,0,0,0,0,0,-1,881,757,0,0
-336,267,0,0,0,0,0,0,0,0,0,-1,888,757,0,0
-329,267,0,0,0,0,0,0,0,0,0,-1,895,757,0,0
-322,267,0,0,0,0,0,0,0,0,0,-1,902,757,0,0
-315,267,0,0,0,0,0,0,0,0,0,-1,909,757,0,0
-308,267,0,0,0,0,0,0,0,0,0,-1,916,757,0,0
-301,267,0,0,0,0,0,0,0,0,0,-1,923,757,0,0
-294,267,0,0,0,0,0,0,0,0,0,-1,930,757,0,0
-287,267,0,0,0,0,0,0,0,0,0,-1,937,757,0,0
-280,267,0,0,0,0,0,0,0,0,0,-1,944,757,0,0
-273,267,0,0,0,0,0,0,0,0,0,-1,951,757,0,0
-266,267,0,0,0,0,0,0,0,0,0,-1,958,757,0,0
-259,267,0,0,0,0,0,0,0,0,0,-1,965,757,0,0
-252,267,0,0,0,0,0,0,0,0,0,-1,972,757,0,0
-245,267,0,0,0,0,0,0,0,0,0,-1,979,757,0,0
-238,267,0,0,0,0,0,0,0,0,0,-1,986,757,0,0
-231,267,0,0,0,0,0,0,0,0,0,-1,993,757,0,0
-224,267,0,0,0,0,0,0,0,0,0,-1,1000,757,0,0
-217,267,0,0,0,0,0,0,0,0,0,-1,1007,757,0,0
-210,267,0,0,0,0,0,0,0,0,0,-1,1014,757,0,0
-203,267,0,0,0,0,0,0,0,0,0,-1,1021,757,0,0
-196,267,0,0,0,0,0,0,0,0,0,-1,1028,757,0,0
-189,267,0,0,0,0,0,0,0,0,0,-1,1035,757,0,0
-182,267,0,0,0,0,0,0,0,0,0,-1,1042,757,0,0
-175,267,0,0,0,0,0,0,0,0,0,-1,1049,757,0,0
-168,267,0,0,0,0,0,0,0,0,0,-1,1056,757,0,0
-161,267,0,0,0,0,0,0,0,0,0,-1,1063,757,0,0
-154,267,0,0,0,0,0,0,0,0,0,-1,1070,757,0,0
-147,267,0,0,0,0,0,0,0,0,0,-1,1077,757,0,0
-140,267,0,0,0,0,0,0,0,0,0,-1,1084,757,0,0
-133,267,0,0,0,0,0,0,0,0,0,-1,1091,757,0,0
-126,267,0,0,0,0,0,0,0,0,0,-1,1098,757,0,0
-119,267,0,0,0,0,0,0,0,0,0,-1,1105,757,0,0
-112,267,0,0,0,0,0,0,0,0,0,-1,1112,757,0,0
-105,267,0,0,0,0,0,0,0,0,0,-1,1119,757,0,0
-98,267,0,0,0,0,0,0,0,0,0,-1,1126,757,0,0
-91,267,0,0,0,0,0,0,0,0,0,-1,1133,757,0,0
-84,267,0,0,0,0,0,0,0,0,0,-1,1140,757,0,0
-77,267,0,0,0,0,0,0,0,0,0,-1,1147,757,0,0
-70,267,0,0,0,0,0,0,0,0,0,-1,1154,757,0,0
-63,267,0,0,0,0,0,0,0,0,0,-1,1161,757,0,0
-56,267,0,0,0,0,0,0,0,0,0,-1,1168,757,0,0
-49,267,0,0,0,0,0,0,0,0,0,-1,1175,757,0,0
-42,267,0,0,0,0,0,0,0,0,0,-1,1182,757,0,0
-35,267,0,0,0,0,0,0,0,0,0,-1,1189,757,0,0
-28,267,0,0,0,0,0,0,0,0,0,-1,1196,757,0,0
-21,267,0,0,0,0,0,0,0,0,0,-1,1203,757,0,0
-14,267,0,0,0,0,0,0,0,0,0,-1,1210,757,0,0
-7,267,0,0,0,0,0,0,0,0,0,-1,1217,757,0,0
0,267,0,0,0,0,0,0,0,0,0,-1,1224,757,0,0
7,267,0,0,0,0,0,0,0,0,0,-1,1231,757,0,0
14,267,0,0,0,0,0,0,0,0,0,-1,1238,757,0,0
21,267,0,0,0,0,0,0,0,0,0,-1,1245,757,0,0
28,267,0,0,0,0,0,0,0,0,0,-1,1252,757,0,0
35,267,0,0,0,0,0,0,0,0,0,-1,1259,757,0,0
42,267,0,0,0,0,0,0,0,0,0,-1,1266,757,0,0
49,267,0,0,0,0,0,0,0,0,0,-1,1273,757,0,0
56,267,0,0,0,0,0,0,0,0,0,-1,1280,757,0,0
63,267,0,0,0,0,0,0,0,0,0,-1,1287,757,0,0
70,267,0,0,0,0,0,0,0,0,0,-1,1294,757,0,0
77,267,0,0,0,0,0,0,0,0,0,-1,1301,757,0,0
84,267,0,0,0,0,0,0,0,0,0,-1,1308,757,0,0
91,267,0,0,0,0,0,0,0,0,0,-1,1315,757,0,0
98,267,0,0,0,0,0,0,0,0,0,-1,1322,757,0,0
105,267,0,0,0,0,0,0,0,0,0,-1,1329,757,0,0
112,267,0,0,0,0,0,0,0,0,0,-1,1336,757,0,0
119,267,0,0,0,0,0,0,0,0,0,-1,1343,757,0,0
126,267,0,0,0,0,0,0,0,0,0,-1,1350,757,0,0
133,267,0,0,0,0,0,0,0,0,0,-1,1357,757,0,0
140,267,0,0,0,0,0,0,0,0,0,-1,1364,757,0,0
147,267,0,0,0,0,0,0,0,0,0,-1,1371,757,0,0
154,267,0,0,0,0,0,0,0,0,0,-1,1378,757,0,0
161,267,0,0,0,0,0,0,0,0,0,-1,1385,757,0,0
168,267,0,0,0,0,0,0,0,0,0,-1,1392,757,0,0
175,267,0,0,0,0,0,0,0,0,0,-1,1399,757,0,0
182,267,0,0,0,0,0,0,0,0,0,-1,1406,757,0,0
189,267,0,0,0,0,0,0,0,0,0,-1,1413,757,0,0
196,267,0,0,0,0,0,0,0,0,0,-1,1420,757,0,0
203,267,0,0,0,0,0,0,0,0,0,-1,1427,757,0,0
210,267,0,0,0,0,0,0,0,0,0,-1,1434,757,0,0
217,267,0,0,0,0,0,0,0,0,0,-1,1441,757,0,0
224,267,0,0,0,0,0,0,0,0,0,-1,1448,757,0,0
231,267,0,0,0,0,0,0,0,0,0,-1,1455,757,0,0
238,267,0,0,0,0,0,0,0,0,0,-1,1462,757,0,0
245,267,0,0,0,0,0,0,0,0,0,-1,1469,757,0,0
252,267,0,0,0,0,0,0,0,0,0,-1,1476,757,0,0
259,267,0,0,0,0,0,0,0,0,0,-1,1483,757,0,0
266,267,0,0,0,0,0,0,0,0,0,-1,1490,757,0,0
273,267,0,0,0,0,0,0,0,0,0,-1,1497,757,0,0
280,267,0,0,0,0,0,0,0,0,0,-1,1504,757,0,0
287,267,0,0,0,0,0,0,0,0,0,-1,1511,757,0,0
294,267,0,0,0,0,0,0,0,0,0,-1,1518,757,0,0
301,267,0,0,0,0,0,0,0,0,0,-1,1525,757,0,0
308,267,0,0,0,0,0,0,0,0,0,-1,1532,757,0,0
315,267,0,0,0,0,0,0,0,0,0,-1,1539,757,0,0
322,267,0,0,0,0,0,0,0,0,0,-1,1546,757,0,0
329,267,0,0,0,0,0,0,0,0,0,-1,1553,757,0,0
336,267,0,0,0,0,0,0,0,0,0,-1,1560,757,0,0
343,267,0,0,0,0,0,0,0,0,0,-1,1567,757,0,0
350,267,0,0,0,0,0,0,0,0,0,-1,1574,757,0,0
357,267,0,0,0,0,0,0,0,0,0,-1,1581,757,0,0
364,267,0,0,0,0,0,0,0,0,0,-1,1588,757,0,0
371,267,0,0,0,0,0,0,0,0,0,-1,1595,757,0,0
378,267,0,0,0,0,0,0,0,0,0,-1,1602,757,0,0
385,267,0,0,0,0,0,0,0,0,0,-1,1609,757,0,0
392,267,0,0,0,0,0,0,0,0,0,-1,1616,757,0,0
399,267,0,0,0,0,0,0,0,0,0,-1,1623,757,0,0
406,267,0,0,0,0,0,0,0,0,0,-1,1630,757,0,0
413,267,0,0,0,0,0,0,0,0,0,-1,1637,757,0,0
420,267,0,0,0,0,0,0,0,0,0,-1,1644,757,0,0
427,267,0,0,0,0,0,0,0,0,0,-1,1651,757,0,0
434,267,0,0,0,0,0,0,0,0,0,-1,1658,757,0,0
441,267,0,0,0,0,0,0,0,0,0,-1,1665,757,0,0
448,267,0,0,0,0,0,0,0,0,0,-1,1672,757,0,0
455,267,0,0,0,0,0,0,0,0,0,-1,1679,757,0,0
462,267,0,0,0,0,0,0,0,0,0,-1,1686,757,0,0
469,267,0,0,0,0,0,0,0,0,0,-1,1693,757,0,0
476,267,0,0,0,0,0,0,0,0,0,-1,1700,757,0,0
483,267,0,0,0,0,0,0,0,0,0,-1,1707,757,0,0
490,267,0,0,0,0,0,0,0,0,0,-1,1714,757,0,0
497,267,0,0,0,0,0,0,0,0,0,-1,1721,757,0,0
504,267,0,0,0,0,0,0,0,0,0,-1,1728,757,0,0
511,267,0,0,0,0,0,0,0,0,0,-1,1735,757,0,0
518,267,0,0,0,0,0,0,0,0,0,-1,1742,757,0,0
525,267,0,0,0,0,0,0,0,0,0,-1,1749,757,0,0
532,267,0,0,0,0,0,0,0,0,0,-1,1756,757,0,0
539,267,0,0,0,0,0,0,0,0,0,-1,1763,757,0,0
546,267,0,0,0,0,0,0,0,0,0,-1,1770,757,0,0
553,267,0,0,0,0,0,0,0,0,0,-1,1777,757,0,0
560,267,0,0,0,0,0,0,0,0,0,-1,1784,757,0,0
567,267,15.663,2.60754,0.0152484,-0.024627,0.00920397,0.0172704,-0.026649,0.216244,0.0255488,0.0362032,1791,757,15.6629,-2.60754
574,267,15.8251,2.58423,0.00882552,-0.015574,0.00594537,0.0101971,-0.0169456,0.226732,0.0158315,0.0424291,1798,757,15.825,-2.58421
581,267,15.614,2.69098,0.00356306,-0.0109497,0.00248999,0.00397839,-0.0113651,0.165277,0.00919438,0.0422178,1805,757,15.614,-2.69099
588,267,15.8508,2.34766,-0.00081484,-0.00863614,-0.00103082,-0.000681262,-0.00876972,-0.128866,0.00563314,0.0440053,1812,757,15.8508,-2.34768
595,267,15.7765,2.40375,-0.00421395,-0.0077417,-0.00394313,-0.00165816,-0.0102975,-0.575083,0.00638446,0.0431881,1819,757,15.7765,-2.40377
602,267,12.6898,1.96222,0,0,0,0,0,0,0,-1,1826,757,12.6898,-1.96221
609,267,12.5907,1.8269,-0.00835273,-0.00705207,-0.00803046,0.000354355,-0.0157592,-0.825802,0.0106262,0.0472946,1833,757,12.5907,-1.8269
616,267,12.5265,1.72156,-0.00928711,-0.00695358,-0.00908589,0.00104015,-0.0172808,-0.849256,0.0118825,0.0433241,1840,757,12.5265,-1.72156
623,267,12.405,1.42609,-0.00985967,-0.00738593,-0.00961644,0.00107286,-0.0183185,-0.849357,0.0125852,0.0421067,1847,757,12.405,-1.42606
630,267,11.5298,0.718445,-0.00980208,-0.00734634,-0.00944697,0.000952219,-0.0181006,-0.850024,0.0123967,0.0366425,1854,757,11.5297,-0.71847
637,267,11.1057,0.801208,-0.00945548,-0.00705455,-0.00901069,0.000835293,-0.0173453,-0.851621,0.0118518,0.0239275,1861,757,11.1057,-0.801216
644,267,11.0179,0.956787,-0.00822691,-0.00670395,-0.00813514,0.000705268,-0.0156361,-0.832064,0.0106669,0.0122681,1868,757,11.018,-0.956789
651,267,10.9923,1.16016,-0.00653149,-0.00739482,-0.00655274,-0.000396215,-0.0135301,-0.752508,0.00889094,0.0146895,1875,757,10.9923,-1.16013
658,267,10.9976,1.31421,-0.0042915,-0.00562473,-0.00497711,6.3437e-05,-0.00997966,-0.718826,0.00667436,0.0146775,1882,757,10.9976,-1.31419
665,267,11.0198,1.48712,-0.0024477,-0.00318976,-0.0035544,0.00075498,-0.00639244,-0.733394,0.00453429,0.0156094,1889,757,11.0197,-1.48711
672,267,11.0214,1.67053,-0.000546326,-0.00112843,-0.00267525,0.00185366,-0.00352841,-0.731214,0.00315709,0.014126,1896,757,11.0213,-1.67052
679,267,11.0144,1.84772,0.00117421,0.000685424,-0.00180954,0.00275578,-0.000896146,-0.718275,0.00219768,0.0132374,1903,757,11.0145,-1.84774
686,267,11.0317,2.03827,0.00283285,0.00244191,-0.00120366,0.00385681,0.00141795,-0.704902,0.00225259,0.0120661,1910,757,11.0317,-2.03826
693,267,11.0219,2.20459,0.00469089,0.00387347,-0.00110512,0.00546046,0.0031039,-0.608281,0.00316242,0.0117421,1917,757,11.0219,-2.20462
700,267,11.0031,2.3761,0.00674952,0.00580076,-0.00129152,0.00765103,0.00489926,-0.609394,0.00447495,0.0143408,1924,757,11.003,-2.37609
707,267,10.9926,2.53357,0.00913954,0.00798884,-0.00191479,0.0105636,0.00656483,-0.639451,0.00615856,0.0154258,1931,757,10.9926,-2.53358
714,267,11.0194,2.63025,0.0120587,0.0105843,-0.00295708,0.0143691,0.0082739,-0.663242,0.00832772,0.028387,1938,757,11.0194,-2.63026
721,267,11.0748,2.99268,0.0153953,0.0136454,-0.004447,0.0190526,0.00998808,-0.688261,0.0110043,0.0426261,1945,757,11.0749,-2.99266
728,267,11.0833,3.38623,0,0,0,0,0,0,0,-1,1952,757,11.0832,-3.38621
735,267,11.9773,3.48328,0,0,0,0,0,0,0,-1,1959,757,11.9773,-3.48326
742,267,12.3191,3.23969,0,0,0,0,0,0,0,-1,1966,757,12.319,-3.23968
749,267,0,0,0,0,0,0,0,0,0,-1,1973,757,0,0
756,267,0,0,0,0,0,0,0,0,0,-1,1980,757,0,0
763,267,0,0,0,0,0,0,0,0,0,-1,1987,757,0,0
770,267,0,0,0,0,0,0,0,0,0,-1,1994,757,0,0
777,267,0,0,0,0,0,0,0,0,0,-1,2001,757,0,0
784,267,0,0,0,0,0,0,0,0,0,-1,2008,757,0,0
791,267,0,0,0,0,0,0,0,0,0,-1,2015,757,0,0
798,267,0,0,0,0,0,0,0,0,0,-1,2022,757,0,0
805,267,0,0,0,0,0,0,0,0,0,-1,2029,757,0,0
812,267,0,0,0,0,0,0,0,0,0,-1,2036,757,0,0
-700,260,0,0,0,0,0,0,0,0,0,-1,524,764,0,0
-693,260,0,0,0,0,0,0,0,0,0,-1,531,764,0,0
-686,260,0,0,0,0,0,0,0,0,0,-1,538,764,0,0
-679,260,0,0,0,0,0,0,0,0,0,-1,545,764,0,0
-672,260,0,0,0,0,0,0,0,0,0,-1,552,764,0,0
-665,260,0,0,0,0,0,0,0,0,0,-1,559,764,0,0
-658,260,0,0,0,0,0,0,0,0,0,-1,566,764,0,0
-651,260,0,0,0,0,0,0,0,0,0,-1,573,764,0,0
-644,260,0,0,0,0,0,0,0,0,0,-1,580,764,0,0
-637,260,0,0,0,0,0,0,0,0,0,-1,587,764,0,0
-630,260,-5.9278,2.60077,0,0,0,0,0,0,0,-1,594,764,-5.92782,-2.60075
-623,260,-6.14716,1.61786,0,0,0,0,0,0,0,-1,601,764,-6.14717,-1.61787
-616,260,-6.43286,0.610352,0,0,0,0,0,0,0,-1,608,764,-6.43284,-0.610369
-609,260,-5.43762,2.13959,0,0,0,0,0,0,0,-1,615,764,-5.43764,-2.13961
-602,260,-4.14282,1.6272,0,0,0,0,0,0,0,-1,622,764,-4.14284,-1.62721
-595,260,-6.09821,0.979614,0,0,0,0,0,0,0,-1,629,764,-6.0982,-0.979607
-588,260,-5.76617,0.878418,-0.0143314,-0.000143256,0.00896782,0.00419717,-0.0186718,1.12003,0.0140573,0.0434121,636,764,-5.7662,-0.878448
-581,260,-6.13159,0.668823,-0.0113642,0.000719896,0.00660949,0.00363283,-0.0142772,1.15569,0.0109321,0.0221542,643,764,-6.13157,-0.668835
-574,260,-6.18433,0.523071,-0.0087497,0.00121199,0.00492063,0.00323267,-0.0107704,1.18114,0.0084661,0.014843,650,764,-6.18433,-0.523087
-567,260,-6.18958,0.385925,-0.00671953,0.0011286,0.00375356,0.00263478,-0.0082257,1.1892,0.00654139,0.0163213,657,764,-6.18957,-0.385949
-560,260,-6.17493,0.234253,-0.00531525,0.00108201,0.00274043,0.00209541,-0.00632865,1.2166,0.00506419,0.0183359,664,764,-6.17493,-0.234269
-553,260,-6.1759,0.0858765,-0.00424433,0.000399313,0.00240158,0.00141792,-0.00526293,1.16965,0.00406456,0.0157487,671,764,-6.17589,-0.0859008
-546,260,-6.18451,-0.0673828,-0.00374198,-0.000402391,0.00236125,0.000819821,-0.00496419,1.09316,0.00361387,0.0106345,678,764,-6.18453,0.0673666
-539,260,-6.17664,-0.227478,-0.0034741,-0.00121555,0.00248867,0.000388072,-0.00507773,0.998388,0.00352164,0.0105591,685,764,-6.17664,0.227485
-532,260,-6.17834,-0.366882,-0.00317439,-0.00221335,0.00264678,-3.82704e-06,-0.00538392,0.875195,0.003588,0.0122957,692,764,-6.17835,0.366862
-525,260,-6.1839,-0.533997,-0.00326675,-0.00271479,0.00298425,6.21751e-06,-0.00598776,0.831506,0.00399391,0.0122404,699,764,-6.18387,0.534021
-518,260,-6.1911,-0.705505,-0.00300923,-0.00309657,0.00289892,-0.000153656,-0.00595215,0.777867,0.00391788,0.0124483,706,764,-6.1911,0.705527
-511,260,-6.17456,-0.887878,-0.00211642,-0.00339075,0.00235025,-0.0003185,-0.00518867,0.653028,0.00335798,0.0184632,713,764,-6.17458,0.887876
-504,260,-6.20233,-1.06488,-0.000568902,-0.00344453,0.00166988,0.000196877,-0.00421031,0.429968,0.00287474,0.0340333,720,764,-6.20233,1.06487
-497,260,-6.66516,-1.25732,0.00157572,-0.00338068,0.000673278,0.00166555,-0.00347051,0.132639,0.00302573,0.0448908,727,764,-6.66519,1.2573
-490,260,-6.76678,-1.03088,0,0,0,0,0,0,0,-1,734,764,-6.76677,1.03088
-483,260,-10.7178,0.0841064,0,0,0,0,0,0,0,-1,741,764,-10.7177,-0.0841355
-476,260,-10.5593,0.266724,0,0,0,0,0,0,0,-1,748,764,-10.5593,-0.266752
-469,260,-10.347,0.461121,0.0157229,-0.00297961,-0.00661655,0.017827,-0.00508369,-0.30789,0.0138928,0.0487833,755,764,-10.347,-0.461139
-462,260,-10.1024,0.604492,0.0205012,-0.00318417,-0.00908882,0.0235868,-0.00626984,-0.327292,0.0181786,0.0427992,762,764,-10.1023,-0.604512
-455,260,-9.91864,0.720825,0.0254969,-0.00359169,-0.0115172,0.0295048,-0.00759954,-0.334882,0.0226324,0.0444387,769,764,-9.91866,-0.720841
-448,260,0,0,0,0,0,0,0,0,0,-1,776,764,0,0
-441,260,0,0,0,0,0,0,0,0,0,-1,783,764,0,0
-434,260,0,0,0,0,0,0,0,0,0,-1,790,764,0,0
-427,260,0,0,0,0,0,0,0,0,0,-1,797,764,0,0
-420,260,0,0,0,0,0,0,0,0,0,-1,804,764,0,0
-413,260,0,0,0,0,0,0,0,0,0,-1,811,764,0,0
-406,260,0,0,0,0,0,0,0,0,0,-1,818,764,0,0
-399,260,0,0,0,0,0,0,0,0,0,-1,825,764,0,0
-392,260,0,0,0,0,0,0,0,0,0,-1,832,764,0,0
-385,260,0,0,0,0,0,0,0,0,0,-1,839,764,0,0
-378,260,0,0,0,0,0,0,0,0,0,-1,846,764,0,0
-371,260,0,0,0,0,0,0,0,0,0,-1,853,764,0,0
-364,260,0,0,0,0,0,0,0,0,0,-1,860,764,0,0
-357,260,0,0,0,0,0,0,0,0,0,-1,867,764,0,0
-350,260,0,0,0,0,0,0,0,0,0,-1,874,764,0,0
-343,260,0,0,0,0,0,0,0,0,0,-1,881,764,0,0
-336,260,0,0,0,0,0,0,0,0,0,-1,888,764,0,0
-329,260,0,0,0,0,0,0,0,0,0,-1,895,764,0,0
-322,260,0,0,0,0,0,0,0,0,0,-1,902,764,0,0
-315,260,0,0,0,0,0,0,0,0,0,-1,909,764,0,0
-308,260,0,0,0,0,0,0,0,0,0,-1,916,764,0,0
-301,260,0,0,0,0,0,0,0,0,0,-1,923,764,0,0
-294,260,0,0,0,0,0,0,0,0,0,-1,930,764,0,0
-287,260,0,0,0,0,0,0,0,0,0,-1,937,764,0,0
-280,260,0,0,0,0,0,0,0,0,0,-1,944,764,0,0
-273,260,0,0,0,0,0,0,0,0,0,-1,951,764,0,0
-266,260,0,0,0,0,0,0,0,0,0,-1,958,764,0,0
-259,260,0,0,0,0,0,0,0,0,0,-1,965,764,0,0
-252,260,0,0,0,0,0,0,0,0,0,-1,972,764,0,0
-245,260,0,0,0,0,0,0,0,0,0,-1,979,764,0,0
-238,260,0,0,0,0,0,0,0,0,0,-1,986,764,0,0
-231,260,0,0,0,0,0,0,0,0,0,-1,993,764,0,0
-224,260,0,0,0,0,0,0,0,0,0,-1,1000,764,0,0
-217,260,0,0,0,0,0,0,0,0,0,-1,1007,764,0,0
-210,260,0,0,0,0,0,0,0,0,0,-1,1014,764,0,0
-203,260,0,0,0,0,0,0,0,0,0,-1,1021,764,0,0
-196,260,0,0,0,0,0,0,0,0,0,-1,1028,764,0,0
-189,260,0,0,0,0,0,0,0,0,0,-1,1035,764,0,0
-182,260,0,0,0,0,0,0,0,0,0,-1,1042,764,0,0
-175,260,0,0,0,0,0,0,0,0,0,-1,1049,764,0,0
-168,260,0,0,0,0,0,0,0,0,0,-1,1056,764,0,0
-161,260,0,0,0,0,0,0,0,0,0,-1,1063,764,0,0
-154,260,0,0,0,0,0,0,0,0,0,-1,1070,764,0,0
-147,260,0,0,0,0,0,0,0,0,0,-1,1077,764,0,0
-140,260,0,0,0,0,0,0,0,0,0,-1,1084,764,0,0
-133,260,0,0,0,0,0,0,0,0,0,-1,1091,764,0,0
-126,260,0,0,0,0,0,0,0,0,0,-1,1098,764,0,0
-119,260,0,0,0,0,0,0,0,0,0,-1,1105,764,0,0
-112,260,0,0,0,0,0,0,0,0,0,-1,1112,764,0,0
-105,260,0,0,0,0,0,0,0,0,0,-1,1119,764,0,0
-98,260,0,0,0,0,0,0,0,0,0,-1,1126,764,0,0
-91,260,0,0,0,0,0,0,0,0,0,-1,1133,764,0,0
-84,260,0,0,0,0,0,0,0,0,0,-1,1140,764,0,0
-77,260,0,0,0,0,0,0,0,0,0,-1,1147,764,0,0
-70,260,0,0,0,0,0,0,0,0,0,-1,1154,764,0,0
-63,260,0,0,0,0,0,0,0,0,0,-1,1161,764,0,0
-56,260,0,0,0,0,0,0,0,0,0,-1,1168,764,0,0
-49,260,0,0,0,0,0,0,0,0,0,-1,1175,764,0,0
-42,260,0,0,0,0,0,0,0,0,0,-1,1182,764,0,0
-35,260,0,0,0,0,0,0,0,0,0,-1,1189,764,0,0
-28,260,0,0,0,0,0,0,0,0,0,-1,1196,764,0,0
-21,260,0,0,0,0,0,0,0,0,0,-1,1203,764,0,0
-14,260,0,0,0,0,0,0,0,0,0,-1,1210,764,0,0
-7,260,0,0,0,0,0,0,0,0,0,-1,1217,764,0,0
0,260,0,0,0,0,0,0,0,0,0,-1,1224,764,0,0
7,260,0,0,0,0,0,0,0,0,0,-1,1231,764,0,0
14,260,0,0,0,0,0,0,0,0,0,-1,1238,764,0,0
21,260,0,0,0,0,0,0,0,0,0,-1,1245,764,0,0
28,260,0,0,0,0,0,0,0,0,0,-1,1252,764,0,0
35,260,0,0,0,0,0,0,0,0,0,-1,1259,764,0,0
42,260,0,0,0,0,0,0,0,0,0,-1,1266,764,0,0
49,260,0,0,0,0,0,0,0,0,0,-1,1273,764,0,0
56,260,0,0,0,0,0,0,0,0,0,-1,1280,764,0,0
63,260,0,0,0,0,0,0,0,0,0,-1,1287,764,0,0
70,260,0,0,0,0,0,0,0,0,0,-1,1294,764,0,0
77,260,0,0,0,0,0,0,0,0,0,-1,1301,764,0,0
84,260,0,0,0,0,0,0,0,0,0,-1,1308,764,0,0
91,260,0,0,0,0,0,0,0,0,0,-1,1315,764,0,0
98,260,0,0,0,0,0,0,0,0,0,-1,1322,764,0,0
105,260,0,0,0,0,0,0,0,0,0,-1,1329,764,0,0
112,260,0,0,0,0,0,0,0,0,0,-1,1336,764,0,0
119,260,0,0,0,0,0,0,0,0,0,-1,1343,764,0,0
126,260,0,0,0,0,0,0,0,0,0,-1,1350,764,0,0
133,260,0,0,0,0,0,0,0,0,0,-1,1357,764,0,0
140,260,0,0,0,0,0,0,0,0,0,-1,1364,764,0,0
147,260,0,0,0,0,0,0,0,0,0,-1,1371,764,0,0
154,260,0,0,0,0,0,0,0,0,0,-1,1378,764,0,0
161,260,0,0,0,0,0,0,0,0,0,-1,1385,764,0,0
168,260,0,0,0,0,0,0,0,0,0,-1,1392,764,0,0
175,260,0,0,0,0,0,0,0,0,0,-1,1399,764,0,0
182,260,0,0,0,0,0,0,0,0,0,-1,1406,764,0,0
189,260,0,0,0,0,0,0,0,0,0,-1,1413,764,0,0
196,260,0,0,0,0,0,0,0,0,0,-1,1420,764,0,0
203,260,0,0,0,0,0,0,0,0,0,-1,1427,764,0,0
210,260,0,0,0,0,0,0,0,0,0,-1,1434,764,0,0
217,260,0,0,0,0,0,0,0,0,0,-1,1441,764,0,0
224,260,0,0,0,0,0,0,0,0,0,-1,1448,764,0,0
231,260,0,0,0,0,0,0,0,0,0,-1,1455,764,0,0
238,260,0,0,0,0,0,0,0,0,0,-1,1462,764,0,0
245,260,0,0,0,0,0,0,0,0,0,-1,1469,764,0,0
252,260,0,0,0,0,0,0,0,0,0,-1,1476,764,0,0
259,260,0,0,0,0,0,0,0,0,0,-1,1483,764,0,0
266,260,0,0,0,0,0,0,0,0,0,-1,1490,764,0,0
273,260,0,0,0,0,0,0,0,0,0,-1,1497,764,0,0
280,260,0,0,0,0,0,0,0,0,0,-1,1504,764,0,0
287,260,0,0,0,0,0,0,0,0,0,-1,1511,764,0,0
294,260,0,0,0,0,0,0,0,0,0,-1,1518,764,0,0
301,260,0,0,0,0,0,0,0,0,0,-1,1525,764,0,0
308,260,0,0,0,0,0,0,0,0,0,-1,1532,764,0,0
315,260,0,0,0,0,0,0,0,0,0,-1,1539,764,0,0
322,260,0,0,0,0,0,0,0,0,0,-1,1546,764,0,0
329,260,0,0,0,0,0,0,0,0,0,-1,1553,764,0,0
336,260,0,0,0,0,0,0,0,0,0,-1,1560,764,0,0
343,260,0,0,0,0,0,0,0,0,0,-1,1567,764,0,0
350,260,0,0,0,0,0,0,0,0,0,-1,1574,764,0,0
357,260,0,0,0,0,0,0,0,0,0,-1,1581,764,0,0
364,260,0,0,0,0,0,0,0,0,0,-1,1588,764,0,0
371,260,0,0,0,0,0,0,0,0,0,-1,1595,764,0,0
378,260,0,0,0,0,0,0,0,0,0,-1,1602,764,0,0
385,260,0,0,0,0,0,0,0,0,0,-1,1609,764,0,0
392,260,0,0,0,0,0,0,0,0,0,-1,1616,764,0,0
399,260,0,0,0,0,0,0,0,0,0,-1,1623,764,0,0
406,260,0,0,0,0,0,0,0,0,0,-1,1630,764,0,0
413,260,0,0,0,0,0,0,0,0,0,-1,1637,764,0,0
420,260,0,0,0,0,0,0,0,0,0,-1,1644,764,0,0
427,260,0,0,0,0,0,0,0,0,0,-1,1651,764,0,0
434,260,0,0,0,0,0,0,0,0,0,-1,1658,764,0,0
441,260,0,0,0,0,0,0,0,0,0,-1,1665,764,0,0
448,260,0,0,0,0,0,0,0,0,0,-1,1672,764,0,0
455,260,0,0,0,0,0,0,0,0,0,-1,1679,764,0,0
462,260,0,0,0,0,0,0,0,0,0,-1,1686,764,0,0
469,260,0,0,0,0,0,0,0,0,0,-1,1693,764,0,0
476,260,0,0,0,0,0,0,0,0,0,-1,1700,764,0,0
483,260,0,0,0,0,0,0,0,0,0,-1,1707,764,0,0
490,260,0,0,0,0,0,0,0,0,0,-1,1714,764,0,0
497,260,0,0,0,0,0,0,0,0,0,-1,1721,764,0,0
504,260,0,0,0,0,0,0,0,0,0,-1,1728,764,0,0
511,260,0,0,0,0,0,0,0,0,0,-1,1735,764,0,0
518,260,0,0,0,0,0,0,0,0,0,-1,1742,764,0,0
525,260,0,0,0,0,0,0,0,0,0,-1,1749,764,0,0
532,260,0,0,0,0,0,0,0,0,0,-1,1756,764,0,0
539,260,0,0,0,0,0,0,0,0,0,-1,1763,764,0,0
546,260,0,0,0,0,0,0,0,0,0,-1,1770,764,0,0
553,260,0,0,0,0,0,0,0,0,0,-1,1777,764,0,0
560,260,0,0,0,0,0,0,0,0,0,-1,1784,764,0,0
567,260,0,0,0,0,0,0,0,0,0,-1,1791,764,0,0
574,260,15.7296,2.47632,0.00988286,-0.0146419,0.00363982,0.0104117,-0.0151707,0.144272,0.0148549,0.0389296,1798,764,15.7296,-2.47635
581,260,15.7604,2.51257,0.00374751,-0.0100247,0.000342667,0.00375603,-0.0100332,0.0248605,0.00823162,0.0401988,1805,764,15.7604,-2.51255
588,260,16.0503,2.39429,-0.00114206,-0.00805234,-0.00297351,-3.87141e-05,-0.00915568,-0.355309,0.00609092,0.0435294,1812,764,16.0503,-2.39426
595,260,14.8234,3.37756,0,0,0,0,0,0,0,-1,1819,764,14.8234,-3.37756
602,260,13.9403,2.84064,-0.00752651,-0.0074775,-0.00773374,0.000231767,-0.0152358,-0.786982,0.0102353,0.0466541,1826,764,13.9403,-2.84067
609,260,12.8916,2.1665,-0.00914497,-0.00766214,-0.00923213,0.000858302,-0.0176654,-0.825466,0.0120732,0.0421383,1833,764,12.8916,-2.1665
616,260,12.2684,1.77905,-0.00992908,-0.00776706,-0.00996845,0.00117883,-0.018875,-0.839409,0.0129941,0.0399684,1840,764,12.2685,-1.77905
623,260,12.225,1.45319,-0.0102642,-0.00818111,-0.0101999,0.00103031,-0.0194757,-0.836279,0.0133405,0.0422121,1847,764,12.225,-1.4532
630,260,12.1948,1.0946,-0.00999209,-0.00814439,-0.00989588,0.000870671,-0.0190071,-0.831942,0.0129714,0.0447568,1854,764,12.1948,-1.09462
637,260,11.684,0.927612,-0.00947594,-0.0078086,-0.00934715,0.000741982,-0.0180265,-0.829875,0.0122725,0.0397493,1861,764,11.684,-0.92761
644,260,11.2361,0.938354,-0.00821896,-0.00741112,-0.0084672,0.000661786,-0.0162919,-0.809232,0.0110884,0.0239171,1868,764,11.2361,-0.938369
651,260,11.2148,1.16406,-0.00655153,-0.00797197,-0.00694937,-0.000276187,-0.0142473,-0.734475,0.0094075,0.0138997,1875,764,11.2148,-1.16407
658,260,11.1952,1.35229,-0.0043546,-0.00629685,-0.00546451,0.000224408,-0.0108759,-0.697459,0.00732652,0.0160894,1882,764,11.1952,-1.35227
665,260,11.1919,1.5108,-0.00259732,-0.00397047,-0.00405631,0.00083011,-0.0073979,-0.701562,0.00523064,0.0155104,1889,764,11.1919,-1.51081
672,260,11.1815,1.67426,-0.000848938,-0.00204363,-0.00316133,0.00177099,-0.00466355,-0.692022,0.00383807,0.0132002,1896,764,11.1816,-1.67423
679,260,11.1714,1.85315,0.000609098,-0.00040734,-0.00227375,0.00243073,-0.00222898,-0.675448,0.00269113,0.0122999,1903,764,11.1714,-1.85314
686,260,11.1924,2.03638,0.00193911,0.00108294,-0.00162091,0.00318751,-0.000165455,-0.656295,0.00218225,0.0128868,1910,764,11.1923,-2.03637
693,260,11.1874,2.19373,0.00340215,0.00200426,-0.00147242,0.0043331,0.00107331,-0.563799,0.00260572,0.0131003,1917,764,11.1874,-2.19374
700,260,11.1637,2.36847,0.00479107,0.00335171,-0.00159494,0.00582118,0.0023216,-0.57346,0.00338372,0.0134633,1924,764,11.1637,-2.36846
707,260,11.1429,2.5318,0.00606648,0.00460269,-0.00220549,0.00765834,0.00301083,-0.625189,0.00445508,0.0149496,1931,764,11.1429,-2.53179
714,260,11.1423,2.70227,0.00751279,0.00590314,-0.00322543,0.0100323,0.00338364,-0.663132,0.00589351,0.0242609,1938,764,11.1424,-2.70228
721,260,11.2422,2.93567,0.00891122,0.00727499,-0.00470668,0.0128704,0.00331585,-0.699348,0.00771621,0.0401472,1945,764,11.2421,-2.93569
728,260,11.4935,3.25372,0.0101096,0.00864542,-0.00673277,0.01615,0.00260505,-0.731244,0.0100119,0.0449216,1952,764,11.4936,-3.25371
735,260,11.916,3.26056,0,0,0,0,0,0,0,-1,1959,764,11.916,-3.26055
742,260,12.2872,3.09082,0,0,0,0,0,0,0,-1,1966,764,12.2872,-3.09082
749,260,12.6324,2.9726,0,0,0,0,0,0,0,-1,1973,764,12.6325,-2.97259
756,260,0,0,0,0,0,0,0,0,0,-1,1980,764,0,0
763,260,0,0,0,0,0,0,0,0,0,-1,1987,764,0,0
770,260,0,0,0,0,0,0,0,0,0,-1,1994,764,0,0
777,260,0,0,0,0,0,0,0,0,0,-1,2001,764,0,0
784,260,0,0,0,0,0,0,0,0,0,-1,2008,764,0,0
791,260,0,0,0,0,0,0,0,0,0,-1,2015,764,0,0
798,260,0,0,0,0,0,0,0,0,0,-1,2022,764,0,0
805,260,0,0,0,0,0,0,0,0,0,-1,2029,764,0,0
812,260,0,0,0,0,0,0,0,0,0,-1,2036,764,0,0
-700,253,0,0,0,0,0,0,0,0,0,-1,524,771,0,0
-693,253,0,0,0,0,0,0,0,0,0,-1,531,771,0,0
-686,253,0,0,0,0,0,0,0,0,0,-1,538,771,0,0
-679,253,0,0,0,0,0,0,0,0,0,-1,545,771,0,0
-672,253,0,0,0,0,0,0,0,0,0,-1,552,771,0,0
-665,253,0,0,0,0,0,0,0,0,0,-1,559,771,0,0
-658,253,0,0,0,0,0,0,0,0,0,-1,566,771,0,0
-651,253,0,0,0,0,0,0,0,0,0,-1,573,771,0,0
-644,253,0,0,0,0,0,0,0,0,0,-1,580,771,0,0
-637,253,-8.18439,2.23047,0,0,0,0,0,0,0,-1,587,771,-8.18438,-2.23048
-630,253,-6.15472,2.68933,0,0,0,0,0,0,0,-1,594,771,-6.15472,-2.6893
-623,253,-6.37006,1.6792,0,0,0,0,0,0,0,-1,601,771,-6.37006,-1.67919
-616,253,-5.47693,0.226929,0,0,0,0,0,0,0,-1,608,771,-5.47693,-0.226949
-609,253,-5.90576,0.911255,0,0,0,0,0,0,0,-1,615,771,-5.90578,-0.911263
-602,253,-6.26221,0.975525,0,0,0,0,0,0,0,-1,622,771,-6.26221,-0.975511
-595,253,-6.23743,0.947083,-0.0141725,-0.00360106,0.0098573,0.00229826,-0.0200718,1.0315,0.0142094,0.0461421,629,771,-6.23743,-0.947101
-588,253,-6.17767,0.853271,-0.0117197,-0.00264934,0.00696387,0.00112591,-0.015495,1.07402,0.010725,0.0374035,636,771,-6.1777,-0.853291
-581,253,-6.31982,0.646912,-0.00930769,-0.00164707,0.00485915,0.000709913,-0.0116647,1.11917,0.00802357,0.0212042,643,771,-6.31983,-0.646894
-574,253,-6.35925,0.507629,-0.00717031,-0.000652489,0.0034578,0.000840117,-0.00866292,1.1633,0.00607471,0.0186684,650,771,-6.35926,-0.507637
-567,253,-6.35541,0.34967,-0.00560221,-0.000307926,0.00259629,0.000752769,-0.0066629,1.18295,0.00471294,0.0156544,657,771,-6.35542,-0.349645
-560,253,-6.33295,0.222961,-0.00460449,1.08066e-05,0.00188732,0.000684304,-0.00527799,1.22803,0.00376753,0.01221,664,771,-6.33296,-0.222954
-553,253,-6.3385,0.0918579,-0.0038788,-0.00034514,0.00189816,0.000481232,-0.00470517,1.16019,0.00330888,0.0111188,671,771,-6.33848,-0.0918632
-546,253,-6.3371,-0.050293,-0.00373859,-0.000844685,0.00218295,0.000327323,-0.00491059,1.07807,0.00338811,0.00972002,678,771,-6.33709,0.0502965
-539,253,-6.33789,-0.205017,-0.00381438,-0.00142434,0.00256162,0.000207291,-0.00544602,1.00365,0.00370171,0.0106596,685,771,-6.33788,0.20503
-532,253,-6.3454,-0.358398,-0.00384877,-0.00211836,0.00291548,5.75865e-05,-0.00602472,0.92964,0.00403582,0.0138012,692,771,-6.34539,0.358405
-525,253,-6.33325,-0.541138,-0.00413598,-0.00243145,0.00335818,0.000180923,-0.00674836,0.909668,0.00456041,0.0120622,699,771,-6.33324,0.541161
-518,253,-6.33929,-0.693726,-0.00396921,-0.00260793,0.00326641,4.80018e-05,-0.00662514,0.888116,0.00443285,0.0153289,706,771,-6.33926,0.693702
-511,253,-6.40479,-0.889038,-0.00318492,-0.00280945,0.00267563,-0.000314975,-0.0056794,0.820423,0.00368576,0.0321076,713,771,-6.4048,0.889066
-504,253,-6.44641,-0.981934,-0.00175449,-0.00281224,0.00192343,-0.000288553,-0.00427818,0.651232,0.00276097,0.043877,720,771,-6.4464,0.981919
-497,253,-6.49939,-0.952515,0.000253125,-0.00271318,0.000829031,0.0004691,-0.00292915,0.25485,0.00212645,0.0450215,727,771,-6.4994,0.952503
-490,253,-6.74817,-1.01544,0,0,0,0,0,0,0,-1,734,771,-6.74818,1.01546
-483,253,-6.91748,-1.08582,0,0,0,0,0,0,0,-1,741,771,-6.91749,1.08581
-476,253,-10.3282,0.512573,0,0,0,0,0,0,0,-1,748,771,-10.3283,-0.512583
-469,253,-10.1833,0.62793,0.0135781,-0.00218628,-0.00683054,0.0161259,-0.0047341,-0.35702,0.012628,0.0451479,755,771,-10.1834,-0.627956
-462,253,-10.016,0.691223,0.0179356,-0.00210564,-0.00930942,0.0215927,-0.00576267,-0.374311,0.0166518,0.0437782,762,771,-10.016,-0.691197
-455,253,-9.96814,0.677002,0.0223164,-0.00214083,-0.0116774,0.0269964,-0.00682081,-0.381172,0.0206502,0.0349468,769,771,-9.96815,-0.677015
-448,253,0,0,0,0,0,0,0,0,0,-1,776,771,0,0
-441,253,0,0,0,0,0,0,0,0,0,-1,783,771,0,0
-434,253,0,0,0,0,0,0,0,0,0,-1,790,771,0,0
-427,253,0,0,0,0,0,0,0,0,0,-1,797,771,0,0
-420,253,0,0,0,0,0,0,0,0,0,-1,804,771,0,0
-413,253,0,0,0,0,0,0,0,0,0,-1,811,771,0,0
-406,253,0,0,0,0,0,0,0,0,0,-1,818,771,0,0
-399,253,0,0,0,0,0,0,0,0,0,-1,825,771,0,0
-392,253,0,0,0,0,0,0,0,0,0,-1,832,771,0,0
-385,253,0,0,0,0,0,0,0,0,0,-1,839,771,0,0
-378,253,0,0,0,0,0,0,0,0,0,-1,846,771,0,0
-371,253,0,0,0,0,0,0,0,0,0,-1,853,771,0,0
-364,253,0,0,0,0,0,0,0,0,0,-1,860,771,0,0
-357,253,0,0,0,0,0,0,0,0,0,-1,867,771,0,0
-350,253,0,0,0,0,0,0,0,0,0,-1,874,771,0,0
-343,253,0,0,0,0,0,0,0,0,0,-1,881,771,0,0
-336,253,0,0,0,0,0,0,0,0,0,-1,888,771,0,0
-329,253,0,0,0,0,0,0,0,0,0,-1,895,771,0,0
-322,253,0,0,0,0,0,0,0,0,0,-1,902,771,0,0
-315,253,0,0,0,0,0,0,0,0,0,-1,909,771,0,0
-308,253,0,0,0,0,0,0,0,0,0,-1,916,771,0,0
-301,253,0,0,0,0,0,0,0,0,0,-1,923,771,0,0
-294,253,0,0,0,0,0,0,0,0,0,-1,930,771,0,0
-287,253,0,0,0,0,0,0,0,0,0,-1,937,771,0,0
-280,253,0,0,0,0,0,0,0,0,0,-1,944,771,0,0
-273,253,0,0,0,0,0,0,0,0,0,-1,951,771,0,0
-266,253,0,0,0,0,0,0,0,0,0,-1,958,771,0,0
-259,253,0,0,0,0,0,0,0,0,0,-1,965,771,0,0
-252,253,0,0,0,0,0,0,0,0,0,-1,972,771,0,0
-245,253,0,0,0,0,0,0,0,0,0,-1,979,771,0,0
-238,253,0,0,0,0,0,0,0,0,0,-1,986,771,0,0
-231,253,0,0,0,0,0,0,0,0,0,-1,993,771,0,0
-224,253,0,0,0,0,0,0,0,0,0,-1,1000,771,0,0
-217,253,0,0,0,0,0,0,0,0,0,-1,1007,771,0,0
-210,253,0,0,0,0,0,0,0,0,0,-1,1014,771,0,0
-203,253,0,0,0,0,0,0,0,0,0,-1,1021,771,0,0
-196,253,0,0,0,0,0,0,0,0,0,-1,1028,771,0,0
-189,253,0,0,0,0,0,0,0,0,0,-1,1035,771,0,0
-182,253,0,0,0,0,0,0,0,0,0,-1,1042,771,0,0
-175,253,0,0,0,0,0,0,0,0,0,-1,1049,771,0,0
-168,253,0,0,0,0,0,0,0,0,0,-1,1056,771,0,0
-161,253,0,0,0,0,0,0,0,0,0,-1,1063,771,0,0
-154,253,0,0,0,0,0,0,0,0,0,-1,1070,771,0,0
-147,253,0,0,0,0,0,0,0,0,0,-1,1077,771,0,0
-140,253,0,0,0,0,0,0,0,0,0,-1,1084,771,0,0
-133,253,0,0,0,0,0,0,0,0,0,-1,1091,771,0,0
-126,253,0,0,0,0,0,0,0,0,0,-1,1098,771,0,0
-119,253,0,0,0,0,0,0,0,0,0,-1,1105,771,0,0
-112,253,0,0,0,0,0,0,0,0,0,-1,1112,771,0,0
-105,253,0,0,0,0,0,0,0,0,0,-1,1119,771,0,0
-98,253,0,0,0,0,0,0,0,0,0,-1,1126,771,0,0
-91,253,0,0,0,0,0,0,0,0,0,-1,1133,771,0,0
-84,253,0,0,0,0,0,0,0,0,0,-1,1140,771,0,0
-77,253,0,0,0,0,0,0,0,0,0,-1,1147,771,0,0
-70,253,0,0,0,0,0,0,0,0,0,-1,1154,771,0,0
-63,253,0,0,0,0,0,0,0,0,0,-1,1161,771,0,0
-56,253,0,0,0,0,0,0,0,0,0,-1,1168,771,0,0
-49,253,0,0,0,0,0,0,0,0,0,-1,1175,771,0,0
-42,253,0,0,0,0,0,0,0,0,0,-1,1182,771,0,0
-35,253,0,0,0,0,0,0,0,0,0,-1,1189,771,0,0
-28,253,0,0,0,0,0,0,0,0,0,-1,1196,771,0,0
-21,253,0,0,0,0,0,0,0,0,0,-1,1203,771,0,0
-14,253,0,0,0,0,0,0,0,0,0,-1,1210,771,0,0
-7,253,0,0,0,0,0,0,0,0,0,-1,1217,771,0,0
0,253,0,0,0,0,0,0,0,0,0,-1,1224,771,0,0
7,253,0,0,0,0,0,0,0,0,0,-1,1231,771,0,0
14,253,0,0,0,0,0,0,0,0,0,-1,1238,771,0,0
21,253,0,0,0,0,0,0,0,0,0,-1,1245,771,0,0
28,253,0,0,0,0,0,0,0,0,0,-1,1252,771,0,0
35,253,0,0,0,0,0,0,0,0,0,-1,1259,771,0,0
42,253,0,0,0,0,0,0,0,0,0,-1,1266,771,0,0
49,253,0,0,0,0,0,0,0,0,0,-1,1273,771,0,0
56,253,0,0,0,0,0,0,0,0,0,-1,1280,771,0,0
63,253,0,0,0,0,0,0,0,0,0,-1,1287,771,0,0
70,253,0,0,0,0,0,0,0,0,0,-1,1294,771,0,0
77,253,0,0,0,0,0,0,0,0,0,-1,1301,771,0,0
84,253,0,0,0,0,0,0,0,0,0,-1,1308,771,0,0
91,253,0,0,0,0,0,0,0,0,0,-1,1315,771,0,0
98,253,0,0,0,0,0,0,0,0,0,-1,1322,771,0,0
105,253,0,0,0,0,0,0,0,0,0,-1,1329,771,0,0
112,253,0,0,0,0,0,0,0,0,0,-1,1336,771,0,0
119,253,0,0,0,0,0,0,0,0,0,-1,1343,771,0,0
126,253,0,0,0,0,0,0,0,0,0,-1,1350,771,0,0
133,253,0,0,0,0,0,0,0,0,0,-1,1357,771,0,0
140,253,0,0,0,0,0,0,0,0,0,-1,1364,771,0,0
147,253,0,0,0,0,0,0,0,0,0,-1,1371,771,0,0
154,253,0,0,0,0,0,0,0,0,0,-1,1378,771,0,0
161,253,0,0,0,0,0,0,0,0,0,-1,1385,771,0,0
168,253,0,0,0,0,0,0,0,0,0,-1,1392,771,0,0
175,253,0,0,0,0,0,0,0,0,0,-1,1399,771,0,0
182,253,0,0,0,0,0,0,0,0,0,-1,1406,771,0,0
189,253,0,0,0,0,0,0,0,0,0,-1,1413,771,0,0
196,253,0,0,0,0,0,0,0,0,0,-1,1420,771,0,0
203,253,0,0,0,0,0,0,0,0,0,-1,1427,771,0,0
210,253,0,0,0,0,0,0,0,0,0,-1,1434,771,0,0
217,253,0,0,0,0,0,0,0,0,0,-1,1441,771,0,0
224,253,0,0,0,0,0,0,0,0,0,-1,1448,771,0,0
231,253,0,0,0,0,0,0,0,0,0,-1,1455,771,0,0
238,253,0,0,0,0,0,0,0,0,0,-1,1462,771,0,0
245,253,0,0,0,0,0,0,0,0,0,-1,1469,771,0,0
252,253,0,0,0,0,0,0,0,0,0,-1,1476,771,0,0
259,253,0,0,0,0,0,0,0,0,0,-1,1483,771,0,0
266,253,0,0,0,0,0,0,0,0,0,-1,1490,771,0,0
273,253,0,0,0,0,0,0,0,0,0,-1,1497,771,0,0
280,253,0,0,0,0,0,0,0,0,0,-1,1504,771,0,0
287,253,0,0,0,0,0,0,0,0,0,-1,1511,771,0,0
294,253,0,0,0,0,0,0,0,0,0,-1,1518,771,0,0
301,253,0,0,0,0,0,0,0,0,0,-1,1525,771,0,0
308,253,0,0,0,0,0,0,0,0,0,-1,1532,771,0,0
315,253,0,0,0,0,0,0,0,0,0,-1,1539,771,0,0
322,253,0,0,0,0,0,0,0,0,0,-1,1546,771,0,0
329,253,0,0,0,0,0,0,0,0,0,-1,1553,771,0,0
336,253,0,0,0,0,0,0,0,0,0,-1,1560,771,0,0
343,253,0,0,0,0,0,0,0,0,0,-1,1567,771,0,0
350,253,0,0,0,0,0,0,0,0,0,-1,1574,771,0,0
357,253,0,0,0,0,0,0,0,0,0,-1,1581,771,0,0
364,253,0,0,0,0,0,0,0,0,0,-1,1588,771,0,0
371,253,0,0,0,0,0,0,0,0,0,-1,1595,771,0,0
378,253,0,0,0,0,0,0,0,0,0,-1,1602,771,0,0
385,253,0,0,0,0,0,0,0,0,0,-1,1609,771,0,0
392,253,0,0,0,0,0,0,0,0,0,-1,1616,771,0,0
399,253,0,0,0,0,0,0,0,0,0,-1,1623,771,0,0
406,253,0,0,0,0,0,0,0,0,0,-1,1630,771,0,0
413,253,0,0,0,0,0,0,0,0,0,-1,1637,771,0,0
420,253,0,0,0,0,0,0,0,0,0,-1,1644,771,0,0
427,253,0,0,0,0,0,0,0,0,0,-1,1651,771,0,0
434,253,0,0,0,0,0,0,0,0,0,-1,1658,771,0,0
441,253,0,0,0,0,0,0,0,0,0,-1,1665,771,0,0
448,253,0,0,0,0,0,0,0,0,0,-1,1672,771,0,0
455,253,0,0,0,0,0,0,0,0,0,-1,1679,771,0,0
462,253,0,0,0,0,0,0,0,0,0,-1,1686,771,0,0
469,253,0,0,0,0,0,0,0,0,0,-1,1693,771,0,0
476,253,0,0,0,0,0,0,0,0,0,-1,1700,771,0,0
483,253,0,0,0,0,0,0,0,0,0,-1,1707,771,0,0
490,253,0,0,0,0,0,0,0,0,0,-1,1714,771,0,0
497,253,0,0,0,0,0,0,0,0,0,-1,1721,771,0,0
504,253,0,0,0,0,0,0,0,0,0,-1,1728,771,0,0
511,253,0,0,0,0,0,0,0,0,0,-1,1735,771,0,0
518,253,0,0,0,0,0,0,0,0,0,-1,1742,771,0,0
525,253,0,0,0,0,0,0,0,0,0,-1,1749,771,0,0
532,253,0,0,0,0,0,0,0,0,0,-1,1756,771,0,0
539,253,0,0,0,0,0,0,0,0,0,-1,1763,771,0,0
546,253,0,0,0,0,0,0,0,0,0,-1,1770,771,0,0
553,253,0,0,0,0,0,0,0,0,0,-1,1777,771,0,0
560,253,0,0,0,0,0,0,0,0,0,-1,1784,771,0,0
567,253,0,0,0,0,0,0,0,0,0,-1,1791,771,0,0
574,253,15.6003,2.48096,0.0121505,-0.0129337,0.00301629,0.0125081,-0.0132913,0.118006,0.0148976,0.0375169,1798,771,15.6003,-2.48098
581,253,15.7275,2.45776,0.00510706,-0.00847682,-0.000299883,0.00511368,-0.00848344,-0.022062,0.00793025,0.0384585,1805,771,15.7275,-2.45779
588,253,15.9114,2.39117,-0.000232659,-0.00700276,-0.00353721,0.00127825,-0.00851367,-0.403688,0.00614633,0.0416496,1812,771,15.9114,-2.39115
595,253,14.8628,2.93835,0,0,0,0,0,0,0,-1,1819,771,14.8628,-2.93833
602,253,14.2721,2.73181,-0.00720671,-0.00742123,-0.00821041,0.000897138,-0.0155251,-0.778866,0.0106617,0.0475132,1826,771,14.2721,-2.73184
609,253,13.1757,2.36462,-0.00886774,-0.00803296,-0.00956727,0.00112602,-0.0180267,-0.807198,0.0124102,0.0460986,1833,771,13.1757,-2.36461
616,253,11.9037,1.97516,-0.00960861,-0.00844005,-0.0101717,0.0011641,-0.0192128,-0.814088,0.0132136,0.0435596,1840,771,11.9037,-1.97518
623,253,12.0907,1.49371,0,0,0,0,0,0,0,-1,1847,771,12.0907,-1.49373
630,253,12.4286,1.18011,0,0,0,0,0,0,0,-1,1854,771,12.4285,-1.18014
637,253,11.4308,0.709595,0,0,0,0,0,0,0,-1,1861,771,11.4308,-0.709595
644,253,11.4106,0.945313,-0.00758114,-0.00825658,-0.00851283,0.000600663,-0.0164384,-0.765572,0.0111645,0.0404884,1868,771,11.4107,-0.945324
651,253,11.3966,1.16437,-0.00602088,-0.00863986,-0.00711093,-9.98755e-05,-0.0145609,-0.694342,0.00967413,0.0222999,1875,771,11.3966,-1.16434
658,253,11.38,1.3512,-0.00399351,-0.0071039,-0.00577223,0.000429358,-0.0115268,-0.653809,0.00783155,0.0181108,1882,771,11.38,-1.35121
665,253,11.3197,1.51172,-0.0024207,-0.0049096,-0.00443692,0.000942988,-0.00827329,-0.648673,0.00585522,0.0194423,1889,771,11.3197,-1.5117
672,253,11.3164,1.67188,-0.000909177,-0.00305271,-0.00354662,0.00172408,-0.00568596,-0.638664,0.00447738,0.0152785,1896,771,11.3164,-1.67185
679,253,11.3611,1.85193,0.000215248,-0.00147448,-0.00265308,0.00215474,-0.00341397,-0.631251,0.00324238,0.0125323,1903,771,11.361,-1.85193
686,253,11.3898,2.02612,0.00118391,-9.1393e-05,-0.00196561,0.00261271,-0.00152019,-0.628551,0.00241376,0.0168617,1910,771,11.3898,-2.02609
693,253,11.3696,2.20648,0.00227523,0.000535748,-0.00174684,0.00335687,-0.000545892,-0.554417,0.00244032,0.0170475,1917,771,11.3696,-2.20651
700,253,11.34,2.36401,0.00313064,0.00155787,-0.00176021,0.00427214,0.000416371,-0.575321,0.00271995,0.0162955,1924,771,11.3399,-2.36404
707,253,11.3292,2.53687,0.00357539,0.00222186,-0.00230235,0.00529838,0.000498868,-0.642452,0.00337827,0.0159126,1931,771,11.3292,-2.53687
714,253,11.3176,2.71277,0.00391107,0.00265518,-0.00324654,0.00658984,-2.35899e-05,-0.689868,0.00440111,0.0193157,1938,771,11.3177,-2.71279
721,253,11.4221,2.87903,0.00390401,0.00292522,-0.00465431,0.00809459,-0.00126536,-0.733016,0.00586387,0.0303476,1945,771,11.4221,-2.87904
728,253,11.629,3.07477,0.00331457,0.00294303,-0.00654298,0.00967441,-0.00341682,-0.771206,0.00784076,0.0417418,1952,771,11.629,-3.07475
735,253,11.8127,3.29034,0,0,0,0,0,0,0,-1,1959,771,11.8128,-3.29036
742,253,12.298,2.93506,0,0,0,0,0,0,0,-1,1966,771,12.298,-2.93503
749,253,12.6565,2.84747,0,0,0,0,0,0,0,-1,1973,771,12.6564,-2.84747
756,253,0,0,0,0,0,0,0,0,0,-1,1980,771,0,0
763,253,0,0,0,0,0,0,0,0,0,-1,1987,771,0,0
770,253,0,0,0,0,0,0,0,0,0,-1,1994,771,0,0
777,253,0,0,0,0,0,0,0,0,0,-1,2001,771,0,0
784,253,0,0,0,0,0,0,0,0,0,-1,2008,771,0,0
791,253,0,0,0,0,0,0,0,0,0,-1,2015,771,0,0
798,253,0,0,0,0,0,0,0,0,0,-1,2022,771,0,0
805,253,0,0,0,0,0,0,0,0,0,-1,2029,771,0,0
812,253,0,0,0,0,0,0,0,0,0,-1,2036,771,0,0
-700,246,0,0,0,0,0,0,0,0,0,-1,524,778,0,0
-693,246,0,0,0,0,0,0,0,0,0,-1,531,778,0,0
-686,246,0,0,0,0,0,0,0,0,0,-1,538,778,0,0
-679,246,0,0,0,0,0,0,0,0,0,-1,545,778,0,0
-672,246,0,0,0,0,0,0,0,0,0,-1,552,778,0,0
-665,246,0,0,0,0,0,0,0,0,0,-1,559,778,0,0
-658,246,0,0,0,0,0,0,0,0,0,-1,566,778,0,0
-651,246,0,0,0,0,0,0,0,0,0,-1,573,778,0,0
-644,246,0,0,0,0,0,0,0,0,0,-1,580,778,0,0
-637,246,-7.776,3.44843,0,0,0,0,0,0,0,-1,587,778,-7.77601,-3.44844
-630,246,-5.02533,2.0708,0,0,0,0,0,0,0,-1,594,778,-5.02533,-2.07081
-623,246,-6.2981,0.549194,0,0,0,0,0,0,0,-1,601,778,-6.29811,-0.549196
-616,246,-6.1087,0.597107,-0.0140363,0.00323827,0.0220497,0.018282,-0.02908,0.972072,0.0275804,0.0458331,608,778,-6.10868,-0.597095
-609,246,-6.12024,0.866638,-0.0132526,-0.00159918,0.0170043,0.010549,-0.0254008,0.950459,0.0213379,0.0481712,615,778,-6.12025,-0.866623
-602,246,-6.25903,0.80658,-0.0118845,-0.00382473,0.0126785,0.00544889,-0.0211582,0.939276,0.0162296,0.0464579,622,778,-6.25904,-0.8066
-595,246,-6.40637,0.921448,-0.0104801,-0.00494309,0.00914068,0.00183915,-0.0172623,0.932445,0.0121677,0.0408042,629,778,-6.40634,-0.921453
-588,246,-6.41327,0.787415,-0.00878655,-0.0043078,0.00634046,0.000177125,-0.0132715,0.955154,0.00890728,0.0280985,636,778,-6.41327,-0.787411
-581,246,-6.49707,0.648193,-0.00707024,-0.00305578,0.00435894,-0.000264121,-0.0098619,1.00117,0.00648835,0.0157046,643,778,-6.49705,-0.648201
-574,246,-6.49139,0.480286,-0.00560237,-0.00166472,0.00307029,1.37803e-05,-0.00728086,1.0705,0.00485851,0.0174693,650,778,-6.49137,-0.480314
-567,246,-6.48303,0.337158,-0.00462979,-0.000982105,0.00238117,0.000193451,-0.00580534,1.11221,0.0039363,0.0152536,657,778,-6.48303,-0.337169
-560,246,-6.49585,0.201599,-0.00409671,-0.000453615,0.00186924,0.000334832,-0.00488516,1.17164,0.00337393,0.0125416,664,778,-6.49586,-0.201601
-553,246,-6.5036,0.0789795,-0.00372041,-0.000608799,0.00211928,0.000464439,-0.00479365,1.10203,0.00336129,0.0119166,671,778,-6.50361,-0.0789949
-546,246,-6.48718,-0.057251,-0.00390824,-0.000901699,0.0026339,0.000627731,-0.00543767,1.04471,0.00385144,0.00988962,678,778,-6.48716,0.0572422
-539,246,-6.47272,-0.203613,-0.00423658,-0.00133345,0.00316473,0.000696732,-0.00626676,1.00042,0.00442839,0.0104256,685,778,-6.47271,0.203609
-532,246,-6.47583,-0.369324,-0.00445875,-0.00178735,0.00362943,0.000744357,-0.00699046,0.961717,0.0049272,0.0112277,692,778,-6.47582,0.369293
-525,246,-6.47864,-0.541748,-0.00479157,-0.0020114,0.00410127,0.000928958,-0.00773193,0.948792,0.00549053,0.012192,699,778,-6.47865,0.541743
-518,246,-6.49237,-0.683594,-0.00461763,-0.00208671,0.00397079,0.000815392,-0.00751973,0.939657,0.00530588,0.0195888,706,778,-6.49239,0.683574
-511,246,-7.15497,-0.833374,0,0,0,0,0,0,0,-1,713,778,-7.15499,0.833393
-504,246,-6.81262,-0.895508,-0.00258549,-0.00220974,0.0025345,0.000143844,-0.00493907,0.822393,0.00334169,0.0450842,720,778,-6.81261,0.895496
-497,246,-6.52448,-0.962341,-0.00071946,-0.00209125,0.0013386,9.87411e-05,-0.00290945,0.54864,0.00197337,0.0476007,727,778,-6.52445,0.962325
-490,246,-6.72961,-1.00006,0,0,0,0,0,0,0,-1,734,778,-6.72959,1.00003
-483,246,-10.3471,1.14807,0,0,0,0,0,0,0,-1,741,778,-10.3471,-1.14809
-476,246,-9.24817,1.41284,0,0,0,0,0,0,0,-1,748,778,-9.24817,-1.41286
-469,246,-9.66705,1.06934,0.0117345,-0.00116919,-0.00695976,0.0147729,-0.00420757,-0.411625,0.0115104,0.0413156,755,778,-9.66707,-1.06931
-462,246,-9.89899,0.761536,0.0156619,-0.000721651,-0.00956312,0.0200621,-0.00512188,-0.431242,0.0153692,0.0468453,762,778,-9.899,-0.761555
-455,246,0,0,0,0,0,0,0,0,0,-1,769,778,0,0
-448,246,0,0,0,0,0,0,0,0,0,-1,776,778,0,0
-441,246,0,0,0,0,0,0,0,0,0,-1,783,778,0,0
-434,246,0,0,0,0,0,0,0,0,0,-1,790,778,0,0
-427,246,0,0,0,0,0,0,0,0,0,-1,797,778,0,0
-420,246,0,0,0,0,0,0,0,0,0,-1,804,778,0,0
-413,246,0,0,0,0,0,0,0,0,0,-1,811,778,0,0
-406,246,0,0,0,0,0,0,0,0,0,-1,818,778,0,0
-399,246,0,0,0,0,0,0,0,0,0,-1,825,778,0,0
-392,246,0,0,0,0,0,0,0,0,0,-1,832,778,0,0
-385,246,0,0,0,0,0,0,0,0,0,-1,839,778,0,0
-378,246,0,0,0,0,0,0,0,0,0,-1,846,778,0,0
-371,246,0,0,0,0,0,0,0,0,0,-1,853,778,0,0
-364,246,0,0,0,0,0,0,0,0,0,-1,860,778,0,0
-357,246,0,0,0,0,0,0,0,0,0,-1,867,778,0,0
-350,246,0,0,0,0,0,0,0,0,0,-1,874,778,0,0
-343,246,0,0,0,0,0,0,0,0,0,-1,881,778,0,0
-336,246,0,0,0,0,0,0,0,0,0,-1,888,778,0,0
-329,246,0,0,0,0,0,0,0,0,0,-1,895,778,0,0
-322,246,0,0,0,0,0,0,0,0,0,-1,902,778,0,0
-315,246,0,0,0,0,0,0,0,0,0,-1,909,778,0,0
-308,246,0,0,0,0,0,0,0,0,0,-1,916,778,0,0
-301,246,0,0,0,0,0,0,0,0,0,-1,923,778,0,0
-294,246,0,0,0,0,0,0,0,0,0,-1,930,778,0,0
-287,246,0,0,0,0,0,0,0,0,0,-1,937,778,0,0
-280,246,0,0,0,0,0,0,0,0,0,-1,944,778,0,0
-273,246,0,0,0,0,0,0,0,0,0,-1,951,778,0,0
-266,246,0,0,0,0,0,0,0,0,0,-1,958,778,0,0
-259,246,0,0,0,0,0,0,0,0,0,-1,965,778,0,0
-252,246,0,0,0,0,0,0,0,0,0,-1,972,778,0,0
-245,246,0,0,0,0,0,0,0,0,0,-1,979,778,0,0
-238,246,0,0,0,0,0,0,0,0,0,-1,986,778,0,0
-231,246,0,0,0,0,0,0,0,0,0,-1,993,778,0,0
-224,246,0,0,0,0,0,0,0,0,0,-1,1000,778,0,0
-217,246,0,0,0,0,0,0,0,0,0,-1,1007,778,0,0
-210,246,0,0,0,0,0,0,0,0,0,-1,1014,778,0,0
-203,246,0,0,0,0,0,0,0,0,0,-1,1021,778,0,0
-196,246,0,0,0,0,0,0,0,0,0,-1,1028,778,0,0
-189,246,0,0,0,0,0,0,0,0,0,-1,1035,778,0,0
-182,246,0,0,0,0,0,0,0,0,0,-1,1042,778,0,0
-175,246,0,0,0,0,0,0,0,0,0,-1,1049,778,0,0
-168,246,0,0,0,0,0,0,0,0,0,-1,1056,778,0,0
-161,246,0,0,0,0,0,0,0,0,0,-1,1063,778,0,0
-154,246,0,0,0,0,0,0,0,0,0,-1,1070,778,0,0
-147,246,0,0,0,0,0,0,0,0,0,-1,1077,778,0,0
-140,246,0,0,0,0,0,0,0,0,0,-1,1084,778,0,0
-133,246,0,0,0,0,0,0,0,0,0,-1,1091,778,0,0
-126,246,0,0,0,0,0,0,0,0,0,-1,1098,778,0,0
-119,246,0,0,0,0,0,0,0,0,0,-1,1105,778,0,0
-112,246,0,0,0,0,0,0,0,0,0,-1,1112,778,0,0
-105,246,0,0,0,0,0,0,0,0,0,-1,1119,778,0,0
-98,246,0,0,0,0,0,0,0,0,0,-1,1126,778,0,0
-91,246,0,0,0,0,0,0,0,0,0,-1,1133,778,0,0
-84,246,0,0,0,0,0,0,0,0,0,-1,1140,778,0,0
-77,246,0,0,0,0,0,0,0,0,0,-1,1147,778,0,0
-70,246,0,0,0,0,0,0,0,0,0,-1,1154,778,0,0
-63,246,0,0,0,0,0,0,0,0,0,-1,1161,778,0,0
-56,246,0,0,0,0,0,0,0,0,0,-1,1168,778,0,0
-49,246,0,0,0,0,0,0,0,0,0,-1,1175,778,0,0
-42,246,0,0,0,0,0,0,0,0,0,-1,1182,778,0,0
-35,246,0,0,0,0,0,0,0,0,0,-1,1189,778,0,0
-28,246,0,0,0,0,0,0,0,0,0,-1,1196,778,0,0
-21,246,0,0,0,0,0,0,0,0,0,-1,1203,778,0,0
-14,246,0,0,0,0,0,0,0,0,0,-1,1210,778,0,0
-7,246,0,0,0,0,0,0,0,0,0,-1,1217,778,0,0
0,246,0,0,0,0,0,0,0,0,0,-1,1224,778,0,0
7,246,0,0,0,0,0,0,0,0,0,-1,1231,778,0,0
14,246,0,0,0,0,0,0,0,0,0,-1,1238,778,0,0
21,246,0,0,0,0,0,0,0,0,0,-1,1245,778,0,0
28,246,0,0,0,0,0,0,0,0,0,-1,1252,778,0,0
35,246,0,0,0,0,0,0,0,0,0,-1,1259,778,0,0
42,246,0,0,0,0,0,0,0,0,0,-1,1266,778,0,0
49,246,0,0,0,0,0,0,0,0,0,-1,1273,778,0,0
56,246,0,0,0,0,0,0,0,0,0,-1,1280,778,0,0
63,246,0,0,0,0,0,0,0,0,0,-1,1287,778,0,0
70,246,0,0,0,0,0,0,0,0,0,-1,1294,778,0,0
77,246,0,0,0,0,0,0,0,0,0,-1,1301,778,0,0
84,246,0,0,0,0,0,0,0,0,0,-1,1308,778,0,0
91,246,0,0,0,0,0,0,0,0,0,-1,1315,778,0,0
98,246,0,0,0,0,0,0,0,0,0,-1,1322,778,0,0
105,246,0,0,0,0,0,0,0,0,0,-1,1329,778,0,0
112,246,0,0,0,0,0,0,0,0,0,-1,1336,778,0,0
119,246,0,0,0,0,0,0,0,0,0,-1,1343,778,0,0
126,246,0,0,0,0,0,0,0,0,0,-1,1350,778,0,0
133,246,0,0,0,0,0,0,0,0,0,-1,1357,778,0,0
140,246,0,0,0,0,0,0,0,0,0,-1,1364,778,0,0
147,246,0,0,0,0,0,0,0,0,0,-1,1371,778,0,0
154,246,0,0,0,0,0,0,0,0,0,-1,1378,778,0,0
161,246,0,0,0,0,0,0,0,0,0,-1,1385,778,0,0
168,246,0,0,0,0,0,0,0,0,0,-1,1392,778,0,0
175,246,0,0,0,0,0,0,0,0,0,-1,1399,778,0,0
182,246,0,0,0,0,0,0,0,0,0,-1,1406,778,0,0
189,246,0,0,0,0,0,0,0,0,0,-1,1413,778,0,0
196,246,0,0,0,0,0,0,0,0,0,-1,1420,778,0,0
203,246,0,0,0,0,0,0,0,0,0,-1,1427,778,0,0
210,246,0,0,0,0,0,0,0,0,0,-1,1434,778,0,0
217,246,0,0,0,0,0,0,0,0,0,-1,1441,778,0,0
224,246,0,0,0,0,0,0,0,0,0,-1,1448,778,0,0
231,246,0,0,0,0,0,0,0,0,0,-1,1455,778,0,0
238,246,0,0,0,0,0,0,0,0,0,-1,1462,778,0,0
245,246,0,0,0,0,0,0,0,0,0,-1,1469,778,0,0
252,246,0,0,0,0,0,0,0,0,0,-1,1476,778,0,0
259,246,0,0,0,0,0,0,0,0,0,-1,1483,778,0,0
266,246,0,0,0,0,0,0,0,0,0,-1,1490,778,0,0
273,246,0,0,0,0,0,0,0,0,0,-1,1497,778,0,0
280,246,0,0,0,0,0,0,0,0,0,-1,1504,778,0,0
287,246,0,0,0,0,0,0,0,0,0,-1,1511,778,0,0
294,246,0,0,0,0,0,0,0,0,0,-1,1518,778,0,0
301,246,0,0,0,0,0,0,0,0,0,-1,1525,778,0,0
308,246,0,0,0,0,0,0,0,0,0,-1,1532,778,0,0
315,246,0,0,0,0,0,0,0,0,0,-1,1539,778,0,0
322,246,0,0,0,0,0,0,0,0,0,-1,1546,778,0,0
329,246,0,0,0,0,0,0,0,0,0,-1,1553,778,0,0
336,246,0,0,0,0,0,0,0,0,0,-1,1560,778,0,0
343,246,0,0,0,0,0,0,0,0,0,-1,1567,778,0,0
350,246,0,0,0,0,0,0,0,0,0,-1,1574,778,0,0
357,246,0,0,0,0,0,0,0,0,0,-1,1581,778,0,0
364,246,0,0,0,0,0,0,0,0,0,-1,1588,778,0,0
371,246,0,0,0,0,0,0,0,0,0,-1,1595,778,0,0
378,246,0,0,0,0,0,0,0,0,0,-1,1602,778,0,0
385,246,0,0,0,0,0,0,0,0,0,-1,1609,778,0,0
392,246,0,0,0,0,0,0,0,0,0,-1,1616,778,0,0
399,246,0,0,0,0,0,0,0,0,0,-1,1623,778,0,0
406,246,0,0,0,0,0,0,0,0,0,-1,1630,778,0,0
413,246,0,0,0,0,0,0,0,0,0,-1,1637,778,0,0
420,246,0,0,0,0,0,0,0,0,0,-1,1644,778,0,0
427,246,0,0,0,0,0,0,0,0,0,-1,1651,778,0,0
434,246,0,0,0,0,0,0,0,0,0,-1,1658,778,0,0
441,246,0,0,0,0,0,0,0,0,0,-1,1665,778,0,0
448,246,0,0,0,0,0,0,0,0,0,-1,1672,778,0,0
455,246,0,0,0,0,0,0,0,0,0,-1,1679,778,0,0
462,246,0,0,0,0,0,0,0,0,0,-1,1686,778,0,0
469,246,0,0,0,0,0,0,0,0,0,-1,1693,778,0,0
476,246,0,0,0,0,0,0,0,0,0,-1,1700,778,0,0
483,246,0,0,0,0,0,0,0,0,0,-1,1707,778,0,0
490,246,0,0,0,0,0,0,0,0,0,-1,1714,778,0,0
497,246,0,0,0,0,0,0,0,0,0,-1,1721,778,0,0
504,246,0,0,0,0,0,0,0,0,0,-1,1728,778,0,0
511,246,0,0,0,0,0,0,0,0,0,-1,1735,778,0,0
518,246,0,0,0,0,0,0,0,0,0,-1,1742,778,0,0
525,246,0,0,0,0,0,0,0,0,0,-1,1749,778,0,0
532,246,0,0,0,0,0,0,0,0,0,-1,1756,778,0,0
539,246,0,0,0,0,0,0,0,0,0,-1,1763,778,0,0
546,246,0,0,0,0,0,0,0,0,0,-1,1770,778,0,0
553,246,0,0,0,0,0,0,0,0,0,-1,1777,778,0,0
560,246,0,0,0,0,0,0,0,0,0,-1,1784,778,0,0
567,246,0,0,0,0,0,0,0,0,0,-1,1791,778,0,0
574,246,0,0,0,0,0,0,0,0,0,-1,1798,778,0,0
581,246,15.7517,2.58624,0.00656915,-0.00620676,-0.000935375,0.00663727,-0.00627488,-0.0726973,0.00745581,0.0380997,1805,778,15.7517,-2.58626
588,246,15.7961,2.38922,0.00106719,-0.00546515,-0.00388995,0.00288035,-0.0072783,-0.436173,0.00604554,0.0421855,1812,778,15.7961,-2.38919
595,246,15.9329,2.37354,-0.00330579,-0.00589203,-0.00635157,0.00188295,-0.0110808,-0.684975,0.00808823,0.0414398,1819,778,15.9328,-2.37354
602,246,14.7567,2.93182,0,0,0,0,0,0,0,-1,1826,778,14.7567,-2.93184
609,246,13.5626,2.74298,0,0,0,0,0,0,0,-1,1833,778,13.5626,-2.74297
616,246,11.714,2.34424,0,0,0,0,0,0,0,-1,1840,778,11.714,-2.34425
623,246,16.4456,1.62848,-0.00882703,-0.00940388,-0.00974538,0.000634194,-0.0188651,-0.770604,0.0127934,0.0444357,1847,778,16.4456,-1.6285
630,246,16.6252,1.55432,-0.0084358,-0.00954116,-0.00947082,0.00049846,-0.0184754,-0.756253,0.0124864,0.0457387,1854,778,16.6253,-1.55429
637,246,16.8156,1.49329,0,0,0,0,0,0,0,-1,1861,778,16.8156,-1.49327
644,246,11.5994,1.00873,-0.00679414,-0.00884536,-0.0081645,0.000408915,-0.0160484,-0.722916,0.0108378,0.0498009,1868,778,11.5994,-1.00871
651,246,11.4998,1.25085,-0.00548764,-0.0090372,-0.00695506,-8.44882e-05,-0.0144404,-0.660475,0.00959887,0.0282542,1875,778,11.4998,-1.25087
658,246,11.5343,1.34833,-0.00375674,-0.00764898,-0.00580963,0.000424066,-0.0118298,-0.623781,0.00803161,0.0186383,1882,778,11.5343,-1.34833
665,246,11.4889,1.5155,-0.00250237,-0.00568474,-0.00461218,0.000785388,-0.0089725,-0.619293,0.00625991,0.0194021,1889,778,11.4888,-1.51547
672,246,11.4886,1.71674,-0.00134981,-0.00399571,-0.00377832,0.00133048,-0.006676,-0.616998,0.00495407,0.0196617,1896,778,11.4887,-1.71673
679,246,11.5483,1.85803,-0.000628932,-0.00253072,-0.0029394,0.00150956,-0.00466921,-0.628962,0.00371954,0.0200477,1903,778,11.5483,-1.85806
686,246,11.5881,2.01514,-8.50997e-05,-0.00130743,-0.00227765,0.00166196,-0.00305449,-0.65432,0.00276232,0.0213237,1910,778,11.5881,-2.01514
693,246,11.5718,2.20844,0.000572547,-0.00100113,-0.00201983,0.00195339,-0.00238197,-0.599663,0.00250709,0.0166259,1917,778,11.5717,-2.20846
700,246,11.5331,2.3551,0.000884325,-0.000351913,-0.00193195,0.00229463,-0.00176222,-0.630571,0.00234893,0.0147491,1924,778,11.533,-2.35513
707,246,11.5319,2.52753,0.000587235,-0.000236797,-0.00238173,0.00259232,-0.00224188,-0.69975,0.00279347,0.0142581,1931,778,11.5319,-2.52756
714,246,11.5052,2.7038,3.88896e-05,-0.000596316,-0.00323143,0.00296829,-0.00352571,-0.736413,0.00375392,0.0125959,1938,778,11.5052,-2.70381
721,246,11.515,2.8587,-0.00101523,-0.00128859,-0.00453633,0.00338648,-0.0056903,-0.770338,0.00529645,0.0164987,1945,778,11.515,-2.85869
728,246,11.6329,3.1084,-0.00293162,-0.00243137,-0.00629587,0.00361934,-0.00898233,-0.805252,0.00749198,0.0348298,1952,778,11.633,-3.10843
735,246,11.2223,2.83929,-0.00588675,-0.00430474,-0.00843709,0.00337834,-0.0135698,-0.832138,0.010358,0.0457675,1959,778,11.2223,-2.83928
742,246,12.2833,2.76324,0,0,0,0,0,0,0,-1,1966,778,12.2833,-2.76324
749,246,11.5505,1.93866,0,0,0,0,0,0,0,-1,1973,778,11.5506,-1.93865
756,246,11.7373,2.52289,0,0,0,0,0,0,0,-1,1980,778,11.7373,-2.52288
763,246,0,0,0,0,0,0,0,0,0,-1,1987,778,0,0
770,246,0,0,0,0,0,0,0,0,0,-1,1994,778,0,0
777,246,0,0,0,0,0,0,0,0,0,-1,2001,778,0,0
784,246,0,0,0,0,0,0,0,0,0,-1,2008,778,0,0
791,246,0,0,0,0,0,0,0,0,0,-1,2015,778,0,0
798,246,0,0,0,0,0,0,0,0,0,-1,2022,778,0,0
805,246,0,0,0,0,0,0,0,0,0,-1,2029,778,0,0
812,246,0,0,0,0,0,0,0,0,0,-1,2036,778,0,0
-700,239,0,0,0,0,0,0,0,0,0,-1,524,785,0,0
-693,239,0,0,0,0,0,0,0,0,0,-1,531,785,0,0
-686,239,0,0,0,0,0,0,0,0,0,-1,538,785,0,0
-679,239,0,0,0,0,0,0,0,0,0,-1,545,785,0,0
-672,239,0,0,0,0,0,0,0,0,0,-1,552,785,0,0
-665,239,0,0,0,0,0,0,0,0,0,-1,559,785,0,0
-658,239,0,0,0,0,0,0,0,0,0,-1,566,785,0,0
-651,239,0,0,0,0,0,0,0,0,0,-1,573,785,0,0
-644,239,0,0,0,0,0,0,0,0,0,-1,580,785,0,0
-637,239,-5.4765,0.928284,0,0,0,0,0,0,0,-1,587,785,-5.4765,-0.928302
-630,239,-5.11487,1.63599,0,0,0,0,0,0,0,-1,594,785,-5.11489,-1.636
-623,239,-6.58685,1.14301,0,0,0,0,0,0,0,-1,601,785,-6.58688,-1.14299
-616,239,-6.41516,1.2713,-0.0110432,0.0120338,0.0207232,0.0242142,-0.0232236,1.03942,0.0273902,0.0456401,608,785,-6.41514,-1.27129
-609,239,-6.24951,1.4176,-0.010247,0.00451582,0.0161065,0.0148518,-0.020583,1.00026,0.0205473,0.0477817,615,785,-6.24951,-1.41763
-602,239,-6.4892,1.24622,-0.00911785,-0.000168782,0.0121034,0.00826073,-0.0175474,0.962453,0.0152185,0.0484851,622,785,-6.48918,-1.24621
-595,239,-6.54498,1.01398,-0.00811319,-0.00293963,0.00874862,0.00359662,-0.0146494,0.929142,0.0111601,0.0377413,629,785,-6.54499,-1.01396
-588,239,-6.57819,0.79541,-0.00686482,-0.00347672,0.00599766,0.00106154,-0.0114031,0.923039,0.00797947,0.0178613,636,785,-6.57816,-0.795418
-581,239,-6.6319,0.643311,-0.00564319,-0.00267566,0.00411296,0.000212989,-0.00853184,0.95851,0.0057602,0.0110037,643,785,-6.63191,-0.643327
-574,239,-6.6366,0.50116,-0.00470541,-0.00147653,0.00290772,0.000234877,-0.00641682,1.03882,0.00435828,0.0116857,650,785,-6.63658,-0.501171
-567,239,-6.64282,0.341187,-0.00421176,-0.000845485,0.00235411,0.000365302,-0.00542255,1.09575,0.00374275,0.0124322,657,785,-6.64285,-0.341164
-560,239,-6.6535,0.197449,-0.0040723,-0.000383562,0.00200028,0.000492882,-0.00494874,1.15783,0.00347513,0.0126335,664,785,-6.65349,-0.197423
-553,239,-6.65399,0.0560913,-0.00400625,-0.000508365,0.00241734,0.000726368,-0.00524098,1.09856,0.00375957,0.0132116,671,785,-6.65397,-0.0561158
-546,239,-6.64642,-0.0857544,-0.00446159,-0.000722144,0.00307931,0.00101064,-0.00619437,1.05824,0.00450441,0.0137496,678,785,-6.64641,0.0857626
-539,239,-6.62317,-0.226135,-0.0049537,-0.00107849,0.00365419,0.00112002,-0.00715221,1.02917,0.00518198,0.015251,685,785,-6.62315,0.226153
-532,239,-6.60938,-0.381714,-0.00528236,-0.00141286,0.00415734,0.00123788,-0.0079331,1.00318,0.00574598,0.0120831,692,785,-6.60936,0.381744
-525,239,-6.61536,-0.525085,-0.00563124,-0.00156012,0.00462534,0.00145776,-0.00864912,0.992689,0.0063084,0.0139925,699,785,-6.61538,0.5251
-518,239,-6.65869,-0.692871,-0.00543648,-0.00153931,0.0044815,0.00139891,-0.0083747,0.990472,0.00610311,0.0353674,706,785,-6.6587,0.692897
-511,239,-7.57715,0.0186157,0,0,0,0,0,0,0,-1,713,785,-7.57718,-0.0186276
-504,239,-7.24164,-0.61084,-0.00351857,-0.00153413,0.00302533,0.000657536,-0.00571023,0.943857,0.00404386,0.0410922,720,785,-7.24166,0.610818
-497,239,-7.10583,-0.96637,-0.00173605,-0.00135749,0.00176059,0.000223969,-0.0033175,0.838947,0.00228998,0.0467026,727,785,-7.10582,0.966345
-490,239,-7.10638,-1.1297,0,0,0,0,0,0,0,-1,734,785,-7.10637,1.12972
-483,239,-10.1927,0.833069,0,0,0,0,0,0,0,-1,741,785,-10.1927,-0.833059
-476,239,-10.1942,0.959656,0,0,0,0,0,0,0,-1,748,785,-10.1942,-0.959652
-469,239,-9.96149,0.717468,0.0101897,0.000208004,-0.00714655,0.0139156,-0.0035179,-0.480587,0.0106452,0.0445316,755,785,-9.96148,-0.717473
-462,239,-9.89447,0.722778,0.0136606,0.00104039,-0.00986292,0.0190592,-0.00435825,-0.50082,0.0143807,0.0467819,762,785,-9.89445,-0.722773
-455,239,0,0,0,0,0,0,0,0,0,-1,769,785,0,0
-448,239,0,0,0,0,0,0,0,0,0,-1,776,785,0,0
-441,239,0,0,0,0,0,0,0,0,0,-1,783,785,0,0
-434,239,0,0,0,0,0,0,0,0,0,-1,790,785,0,0
-427,239,0,0,0,0,0,0,0,0,0,-1,797,785,0,0
-420,239,0,0,0,0,0,0,0,0,0,-1,804,785,0,0
-413,239,0,0,0,0,0,0,0,0,0,-1,811,785,0,0
-406,239,0,0,0,0,0,0,0,0,0,-1,818,785,0,0
-399,239,0,0,0,0,0,0,0,0,0,-1,825,785,0,0
-392,239,0,0,0,0,0,0,0,0,0,-1,832,785,0,0
-385,239,0,0,0,0,0,0,0,0,0,-1,839,785,0,0
-378,239,0,0,0,0,0,0,0,0,0,-1,846,785,0,0
-371,239,0,0,0,0,0,0,0,0,0,-1,853,785,0,0
-364,239,0,0,0,0,0,0,0,0,0,-1,860,785,0,0
-357,239,0,0,0,0,0,0,0,0,0,-1,867,785,0,0
-350,239,0,0,0,0,0,0,0,0,0,-1,874,785,0,0
-343,239,0,0,0,0,0,0,0,0,0,-1,881,785,0,0
-336,239,0,0,0,0,0,0,0,0,0,-1,888,785,0,0
-329,239,0,0,0,0,0,0,0,0,0,-1,895,785,0,0
-322,239,0,0,0,0,0,0,0,0,0,-1,902,785,0,0
-315,239,0,0,0,0,0,0,0,0,0,-1,909,785,0,0
-308,239,0,0,0,0,0,0,0,0,0,-1,916,785,0,0
-301,239,0,0,0,0,0,0,0,0,0,-1,923,785,0,0
-294,239,0,0,0,0,0,0,0,0,0,-1,930,785,0,0
-287,239,0,0,0,0,0,0,0,0,0,-1,937,785,0,0
-280,239,0,0,0,0,0,0,0,0,0,-1,944,785,0,0
-273,239,0,0,0,0,0,0,0,0,0,-1,951,785,0,0
-266,239,0,0,0,0,0,0,0,0,0,-1,958,785,0,0
-259,239,0,0,0,0,0,0,0,0,0,-1,965,785,0,0
-252,239,0,0,0,0,0,0,0,0,0,-1,972,785,0,0
-245,239,0,0,0,0,0,0,0,0,0,-1,979,785,0,0
-238,239,0,0,0,0,0,0,0,0,0,-1,986,785,0,0
-231,239,0,0,0,0,0,0,0,0,0,-1,993,785,0,0
-224,239,0,0,0,0,0,0,0,0,0,-1,1000,785,0,0
-217,239,0,0,0,0,0,0,0,0,0,-1,1007,785,0,0
-210,239,0,0,0,0,0,0,0,0,0,-1,1014,785,0,0
-203,239,0,0,0,0,0,0,0,0,0,-1,1021,785,0,0
-196,239,0,0,0,0,0,0,0,0,0,-1,1028,785,0,0
-189,239,0,0,0,0,0,0,0,0,0,-1,1035,785,0,0
-182,239,0,0,0,0,0,0,0,0,0,-1,1042,785,0,0
-175,239,0,0,0,0,0,0,0,0,0,-1,1049,785,0,0
-168,239,0,0,0,0,0,0,0,0,0,-1,1056,785,0,0
-161,239,0,0,0,0,0,0,0,0,0,-1,1063,785,0,0
-154,239,0,0,0,0,0,0,0,0,0,-1,1070,785,0,0
-147,239,0,0,0,0,0,0,0,0,0,-1,1077,785,0,0
-140,239,0,0,0,0,0,0,0,0,0,-1,1084,785,0,0
-133,239,0,0,0,0,0,0,0,0,0,-1,1091,785,0,0
-126,239,0,0,0,0,0,0,0,0,0,-1,1098,785,0,0
-119,239,0,0,0,0,0,0,0,0,0,-1,1105,785,0,0
-112,239,0,0,0,0,0,0,0,0,0,-1,1112,785,0,0
-105,239,0,0,0,0,0,0,0,0,0,-1,1119,785,0,0
-98,239,0,0,0,0,0,0,0,0,0,-1,1126,785,0,0
-91,239,0,0,0,0,0,0,0,0,0,-1,1133,785,0,0
-84,239,0,0,0,0,0,0,0,0,0,-1,1140,785,0,0
-77,239,0,0,0,0,0,0,0,0,0,-1,1147,785,0,0
-70,239,0,0,0,0,0,0,0,0,0,-1,1154,785,0,0
-63,239,0,0,0,0,0,0,0,0,0,-1,1161,785,0,0
-56,239,0,0,0,0,0,0,0,0,0,-1,1168,785,0,0
-49,239,0,0,0,0,0,0,0,0,0,-1,1175,785,0,0
-42,239,0,0,0,0,0,0,0,0,0,-1,1182,785,0,0
-35,239,0,0,0,0,0,0,0,0,0,-1,1189,785,0,0
-28,239,0,0,0,0,0,0,0,0,0,-1,1196,785,0,0
-21,239,0,0,0,0,0,0,0,0,0,-1,1203,785,0,0
-14,239,0,0,0,0,0,0,0,0,0,-1,1210,785,0,0
-7,239,0,0,0,0,0,0,0,0,0,-1,1217,785,0,0
0,239,0,0,0,0,0,0,0,0,0,-1,1224,785,0,0
7,239,0,0,0,0,0,0,0,0,0,-1,1231,785,0,0
14,239,0,0,0,0,0,0,0,0,0,-1,1238,785,0,0
21,239,0,0,0,0,0,0,0,0,0,-1,1245,785,0,0
28,239,0,0,0,0,0,0,0,0,0,-1,1252,785,0,0
35,239,0,0,0,0,0,0,0,0,0,-1,1259,785,0,0
42,239,0,0,0,0,0,0,0,0,0,-1,1266,785,0,0
49,239,0,0,0,0,0,0,0,0,0,-1,1273,785,0,0
56,239,0,0,0,0,0,0,0,0,0,-1,1280,785,0,0
63,239,0,0,0,0,0,0,0,0,0,-1,1287,785,0,0
70,239,0,0,0,0,0,0,0,0,0,-1,1294,785,0,0
77,239,0,0,0,0,0,0,0,0,0,-1,1301,785,0,0
84,239,0,0,0,0,0,0,0,0,0,-1,1308,785,0,0
91,239,0,0,0,0,0,0,0,0,0,-1,1315,785,0,0
98,239,0,0,0,0,0,0,0,0,0,-1,1322,785,0,0
105,239,0,0,0,0,0,0,0,0,0,-1,1329,785,0,0
112,239,0,0,0,0,0,0,0,0,0,-1,1336,785,0,0
119,239,0,0,0,0,0,0,0,0,0,-1,1343,785,0,0
126,239,0,0,0,0,0,0,0,0,0,-1,1350,785,0,0
133,239,0,0,0,0,0,0,0,0,0,-1,1357,785,0,0
140,239,0,0,0,0,0,0,0,0,0,-1,1364,785,0,0
147,239,0,0,0,0,0,0,0,0,0,-1,1371,785,0,0
154,239,0,0,0,0,0,0,0,0,0,-1,1378,785,0,0
161,239,0,0,0,0,0,0,0,0,0,-1,1385,785,0,0
168,239,0,0,0,0,0,0,0,0,0,-1,1392,785,0,0
175,239,0,0,0,0,0,0,0,0,0,-1,1399,785,0,0
182,239,0,0,0,0,0,0,0,0,0,-1,1406,785,0,0
189,239,0,0,0,0,0,0,0,0,0,-1,1413,785,0,0
196,239,0,0,0,0,0,0,0,0,0,-1,1420,785,0,0
203,239,0,0,0,0,0,0,0,0,0,-1,1427,785,0,0
210,239,0,0,0,0,0,0,0,0,0,-1,1434,785,0,0
217,239,0,0,0,0,0,0,0,0,0,-1,1441,785,0,0
224,239,0,0,0,0,0,0,0,0,0,-1,1448,785,0,0
231,239,0,0,0,0,0,0,0,0,0,-1,1455,785,0,0
238,239,0,0,0,0,0,0,0,0,0,-1,1462,785,0,0
245,239,0,0,0,0,0,0,0,0,0,-1,1469,785,0,0
252,239,0,0,0,0,0,0,0,0,0,-1,1476,785,0,0
259,239,0,0,0,0,0,0,0,0,0,-1,1483,785,0,0
266,239,0,0,0,0,0,0,0,0,0,-1,1490,785,0,0
273,239,0,0,0,0,0,0,0,0,0,-1,1497,785,0,0
280,239,0,0,0,0,0,0,0,0,0,-1,1504,785,0,0
287,239,0,0,0,0,0,0,0,0,0,-1,1511,785,0,0
294,239,0,0,0,0,0,0,0,0,0,-1,1518,785,0,0
301,239,0,0,0,0,0,0,0,0,0,-1,1525,785,0,0
308,239,0,0,0,0,0,0,0,0,0,-1,1532,785,0,0
315,239,0,0,0,0,0,0,0,0,0,-1,1539,785,0,0
322,239,0,0,0,0,0,0,0,0,0,-1,1546,785,0,0
329,239,0,0,0,0,0,0,0,0,0,-1,1553,785,0,0
336,239,0,0,0,0,0,0,0,0,0,-1,1560,785,0,0
343,239,0,0,0,0,0,0,0,0,0,-1,1567,785,0,0
350,239,0,0,0,0,0,0,0,0,0,-1,1574,785,0,0
357,239,0,0,0,0,0,0,0,0,0,-1,1581,785,0,0
364,239,0,0,0,0,0,0,0,0,0,-1,1588,785,0,0
371,239,0,0,0,0,0,0,0,0,0,-1,1595,785,0,0
378,239,0,0,0,0,0,0,0,0,0,-1,1602,785,0,0
385,239,0,0,0,0,0,0,0,0,0,-1,1609,785,0,0
392,239,0,0,0,0,0,0,0,0,0,-1,1616,785,0,0
399,239,0,0,0,0,0,0,0,0,0,-1,1623,785,0,0
406,239,0,0,0,0,0,0,0,0,0,-1,1630,785,0,0
413,239,0,0,0,0,0,0,0,0,0,-1,1637,785,0,0
420,239,0,0,0,0,0,0,0,0,0,-1,1644,785,0,0
427,239,0,0,0,0,0,0,0,0,0,-1,1651,785,0,0
434,239,0,0,0,0,0,0,0,0,0,-1,1658,785,0,0
441,239,0,0,0,0,0,0,0,0,0,-1,1665,785,0,0
448,239,0,0,0,0,0,0,0,0,0,-1,1672,785,0,0
455,239,0,0,0,0,0,0,0,0,0,-1,1679,785,0,0
462,239,0,0,0,0,0,0,0,0,0,-1,1686,785,0,0
469,239,0,0,0,0,0,0,0,0,0,-1,1693,785,0,0
476,239,0,0,0,0,0,0,0,0,0,-1,1700,785,0,0
483,239,0,0,0,0,0,0,0,0,0,-1,1707,785,0,0
490,239,0,0,0,0,0,0,0,0,0,-1,1714,785,0,0
497,239,0,0,0,0,0,0,0,0,0,-1,1721,785,0,0
504,239,0,0,0,0,0,0,0,0,0,-1,1728,785,0,0
511,239,0,0,0,0,0,0,0,0,0,-1,1735,785,0,0
518,239,0,0,0,0,0,0,0,0,0,-1,1742,785,0,0
525,239,0,0,0,0,0,0,0,0,0,-1,1749,785,0,0
532,239,0,0,0,0,0,0,0,0,0,-1,1756,785,0,0
539,239,0,0,0,0,0,0,0,0,0,-1,1763,785,0,0
546,239,0,0,0,0,0,0,0,0,0,-1,1770,785,0,0
553,239,0,0,0,0,0,0,0,0,0,-1,1777,785,0,0
560,239,0,0,0,0,0,0,0,0,0,-1,1784,785,0,0
567,239,0,0,0,0,0,0,0,0,0,-1,1791,785,0,0
574,239,0,0,0,0,0,0,0,0,0,-1,1798,785,0,0
581,239,15.7201,2.73615,0.00798253,-0.00373922,-0.000821573,0.00803983,-0.00379652,-0.0696359,0.00697857,0.0372565,1805,785,15.7201,-2.73615
588,239,15.6921,2.61133,0.00229476,-0.00379643,-0.00359042,0.00395732,-0.005459,-0.433658,0.00545951,0.0385707,1812,785,15.6921,-2.6113
595,239,15.767,2.46674,-0.00219841,-0.00463235,-0.00587394,0.00258331,-0.00941407,-0.683253,0.00729132,0.0333974,1819,785,15.767,-2.46672
602,239,15.8711,2.3819,-0.00520927,-0.00625712,-0.00749911,0.00178419,-0.0132506,-0.750522,0.00948456,0.0374293,1826,785,15.8711,-2.38191
609,239,16.0679,2.11462,-0.00688923,-0.00773414,-0.0085395,0.00123826,-0.0158616,-0.760683,0.0110104,0.0468576,1833,785,16.0679,-2.11461
616,239,16.2015,1.88574,-0.00752247,-0.00874291,-0.00896023,0.000848291,-0.0171137,-0.751399,0.0117021,0.0490192,1840,785,16.2015,-1.88577
623,239,16.4109,1.72034,-0.00755845,-0.00941527,-0.00897531,0.000536343,-0.0175101,-0.733861,0.0118562,0.0435875,1847,785,16.4109,-1.72034
630,239,16.6047,1.58282,-0.00714489,-0.00964921,-0.00877424,0.000466088,-0.0172602,-0.714522,0.0116653,0.0429995,1854,785,16.6047,-1.58283
637,239,12.1979,2.47937,0,0,0,0,0,0,0,-1,1861,785,12.1979,-2.47935
644,239,11.9824,2.06891,-0.00562428,-0.00898221,-0.0076042,0.000484105,-0.0150906,-0.676744,0.0102256,0.0481533,1868,785,11.9825,-2.0689
651,239,11.6001,1.36847,-0.00451307,-0.00898546,-0.00660899,0.000227784,-0.0137263,-0.622266,0.00922775,0.0374305,1875,785,11.6002,-1.36847
658,239,11.7023,1.35486,-0.00309929,-0.00775791,-0.00567439,0.000705267,-0.0115625,-0.590637,0.00795383,0.0170568,1882,785,11.7023,-1.35484
665,239,11.6976,1.54999,-0.00214063,-0.00604417,-0.00465109,0.000951615,-0.00913642,-0.586738,0.00643166,0.0128072,1889,785,11.6977,-1.54999
672,239,11.6895,1.73126,-0.00129833,-0.00453455,-0.00390994,0.00131509,-0.00714798,-0.589206,0.00525879,0.0196418,1896,785,11.6894,-1.73124
679,239,11.7371,1.87103,-0.000892078,-0.00317633,-0.00315765,0.00132365,-0.00539206,-0.611867,0.00410764,0.0201885,1903,785,11.7371,-1.87102
686,239,11.7634,2.03613,-0.000647923,-0.00203437,-0.00254423,0.00129584,-0.00397813,-0.652393,0.00317348,0.0201337,1910,785,11.7634,-2.03612
693,239,11.744,2.21552,-0.000263831,-0.00186283,-0.00224574,0.00132048,-0.00344714,-0.614389,0.0028424,0.0132502,1917,785,11.7441,-2.21553
700,239,11.7285,2.36981,-0.000291727,-0.00134986,-0.00206333,0.00130929,-0.00295088,-0.659895,0.00251974,0.0109876,1924,785,11.7285,-2.3698
707,239,11.7025,2.53253,-0.00102179,-0.00141575,-0.00241346,0.00120271,-0.00364026,-0.74468,0.00291175,0.0110087,1931,785,11.7025,-2.5325
714,239,11.6863,2.68872,-0.00206015,-0.00210763,-0.00315594,0.00107214,-0.00523992,-0.781637,0.0039001,0.0104349,1938,785,11.6863,-2.68874
721,239,11.6772,2.86493,-0.0036668,-0.00316492,-0.0043411,0.000932488,-0.00776421,-0.814269,0.00551332,0.0188515,1945,785,11.6773,-2.86494
728,239,11.6781,2.8678,-0.00622693,-0.00471684,-0.00591258,0.000488712,-0.0114325,-0.848905,0.00778967,0.0353025,1952,785,11.6781,-2.86781
735,239,11.4756,2.62769,-0.00995014,-0.00701448,-0.00778984,-0.000555385,-0.0164092,-0.878521,0.0107591,0.0423301,1959,785,11.4756,-2.62768
742,239,11.2745,2.19037,-0.0152547,-0.0102193,-0.00997063,-0.00245344,-0.0230206,-0.909069,0.0145982,0.0419262,1966,785,11.2746,-2.1904
749,239,11.4865,1.83881,0,0,0,0,0,0,0,-1,1973,785,11.4864,-1.83878
756,239,11.665,2.38666,0,0,0,0,0,0,0,-1,1980,785,11.665,-2.38666
763,239,0,0,0,0,0,0,0,0,0,-1,1987,785,0,0
770,239,0,0,0,0,0,0,0,0,0,-1,1994,785,0,0
777,239,0,0,0,0,0,0,0,0,0,-1,2001,785,0,0
784,239,0,0,0,0,0,0,0,0,0,-1,2008,785,0,0
791,239,0,0,0,0,0,0,0,0,0,-1,2015,785,0,0
798,239,0,0,0,0,0,0,0,0,0,-1,2022,785,0,0
805,239,0,0,0,0,0,0,0,0,0,-1,2029,785,0,0
812,239,0,0,0,0,0,0,0,0,0,-1,2036,785,0,0
-700,232,0,0,0,0,0,0,0,0,0,-1,524,792,0,0
-693,232,0,0,0,0,0,0,0,0,0,-1,531,792,0,0
-686,232,0,0,0,0,0,0,0,0,0,-1,538,792,0,0
-679,232,0,0,0,0,0,0,0,0,0,-1,545,792,0,0
-672,232,0,0,0,0,0,0,0,0,0,-1,552,792,0,0
-665,232,0,0,0,0,0,0,0,0,0,-1,559,792,0,0
-658,232,0,0,0,0,0,0,0,0,0,-1,566,792,0,0
-651,232,0,0,0,0,0,0,0,0,0,-1,573,792,0,0
-644,232,-9.08954,-0.645813,0,0,0,0,0,0,0,-1,580,792,-9.08954,0.645798
-637,232,-5.00586,1.13824,0,0,0,0,0,0,0,-1,587,792,-5.00584,-1.13826
-630,232,-5.35138,1.2049,0,0,0,0,0,0,0,-1,594,792,-5.35136,-1.20492
-623,232,-5.76813,1.29169,0,0,0,0,0,0,0,-1,601,792,-5.76812,-1.29169
-616,232,-6.48859,1.8714,0,0,0,0,0,0,0,-1,608,792,-6.48857,-1.87137
-609,232,-6.43085,1.45325,-0.00753465,0.00847484,0.015182,0.0176331,-0.016693,1.028,0.0198207,0.0484133,615,792,-6.43088,-1.45323
-602,232,-6.59448,1.34088,-0.00667329,0.00248947,0.0114991,0.0102862,-0.01447,0.974967,0.0143609,0.0478451,622,792,-6.5945,-1.34085
-595,232,-6.72766,1.0791,-0.00605481,-0.00133143,0.00836268,0.00499664,-0.0123829,0.923018,0.0103317,0.0333175,629,792,-6.72768,-1.07911
-588,232,-6.76349,0.81665,-0.00529984,-0.0026948,0.00572465,0.00187364,-0.00986828,0.897258,0.00728417,0.012147,636,792,-6.76346,-0.816632
-581,232,-6.77588,0.660278,-0.00451373,-0.00232168,0.00391931,0.000651971,-0.00748738,0.921739,0.00522249,0.0086095,643,792,-6.77588,-0.660261
-574,232,-6.77759,0.512512,-0.00401393,-0.00133911,0.00276316,0.000393288,-0.00574632,1.01079,0.00396848,0.00854032,650,792,-6.77756,-0.512501
-567,232,-6.80756,0.36676,-0.00388209,-0.000736749,0.00229367,0.000471629,-0.00509046,1.08591,0.00356128,0.00984311,657,792,-6.80754,-0.366758
-560,232,-6.81073,0.219177,-0.00402922,-0.00030597,0.00205421,0.000604661,-0.00493986,1.15353,0.00351218,0.0113181,664,792,-6.81074,-0.219192
-553,232,-6.79974,0.0579224,-0.00417407,-0.000327281,0.00257695,0.000964926,-0.00546628,1.10599,0.00400476,0.0123285,671,792,-6.79975,-0.0578988
-546,232,-6.79773,-0.0951538,-0.00479874,-0.000402661,0.00331736,0.00137878,-0.00658018,1.07798,0.00491132,0.0202114,678,792,-6.79775,0.0951747
-539,232,-6.76801,-0.236572,-0.00540708,-0.000674382,0.00389511,0.00151685,-0.00759831,1.05836,0.00563956,0.0241951,685,792,-6.76801,0.236591
-532,232,-6.76599,-0.37793,-0.0058367,-0.000866591,0.00441426,0.00171404,-0.00841734,1.04177,0.0062616,0.0147449,692,792,-6.76599,0.377905
-525,232,-6.80768,-0.462219,-0.00624946,-0.000930588,0.00488068,0.00196818,-0.00914823,1.03485,0.00684979,0.0233977,699,792,-6.80769,0.462223
-518,232,-7.24951,-0.401917,-0.00611593,-0.000809634,0.00475485,0.0019822,-0.00890777,1.03988,0.00669774,0.0457885,706,792,-7.24952,0.401946
-511,232,-7.66077,-0.405579,0,0,0,0,0,0,0,-1,713,792,-7.66078,0.405571
-504,232,-7.69745,-0.445129,0,0,0,0,0,0,0,-1,720,792,-7.69745,0.445142
-497,232,-7.72107,-0.822449,0,0,0,0,0,0,0,-1,727,792,-7.72108,0.822421
-490,232,-10.2628,0.475586,-0.000645612,-9.11347e-05,0.0002524,6.54947e-06,-0.000743296,1.20153,0.000497728,0.0454682,734,792,-10.2628,-0.475614
-483,232,-10.0648,0.578125,0.00209293,0.000409689,-0.00196024,0.00338459,-0.000881969,-0.582626,0.00260072,0.0428116,741,792,-10.0648,-0.578109
-476,232,-9.93616,0.677551,0.00528123,0.00116387,-0.00455822,0.0082241,-0.001779,-0.573289,0.00616194,0.0355149,748,792,-9.93618,-0.677523
-469,232,-9.86395,0.687317,0.00868317,0.00208466,-0.00741087,0.013496,-0.00272817,-0.575974,0.0100312,0.0349277,755,792,-9.86392,-0.687319
-462,232,0,0,0,0,0,0,0,0,0,-1,762,792,0,0
-455,232,0,0,0,0,0,0,0,0,0,-1,769,792,0,0
-448,232,0,0,0,0,0,0,0,0,0,-1,776,792,0,0
-441,232,0,0,0,0,0,0,0,0,0,-1,783,792,0,0
-434,232,0,0,0,0,0,0,0,0,0,-1,790,792,0,0
-427,232,0,0,0,0,0,0,0,0,0,-1,797,792,0,0
-420,232,0,0,0,0,0,0,0,0,0,-1,804,792,0,0
-413,232,0,0,0,0,0,0,0,0,0,-1,811,792,0,0
-406,232,0,0,0,0,0,0,0,0,0,-1,818,792,0,0
-399,232,0,0,0,0,0,0,0,0,0,-1,825,792,0,0
-392,232,0,0,0,0,0,0,0,0,0,-1,832,792,0,0
-385,232,0,0,0,0,0,0,0,0,0,-1,839,792,0,0
-378,232,0,0,0,0,0,0,0,0,0,-1,846,792,0,0
-371,232,0,0,0,0,0,0,0,0,0,-1,853,792,0,0
-364,232,0,0,0,0,0,0,0,0,0,-1,860,792,0,0
-357,232,0,0,0,0,0,0,0,0,0,-1,867,792,0,0
-350,232,0,0,0,0,0,0,0,0,0,-1,874,792,0,0
-343,232,0,0,0,0,0,0,0,0,0,-1,881,792,0,0
-336,232,0,0,0,0,0,0,0,0,0,-1,888,792,0,0
-329,232,0,0,0,0,0,0,0,0,0,-1,895,792,0,0
-322,232,0,0,0,0,0,0,0,0,0,-1,902,792,0,0
-315,232,0,0,0,0,0,0,0,0,0,-1,909,792,0,0
-308,232,0,0,0,0,0,0,0,0,0,-1,916,792,0,0
-301,232,0,0,0,0,0,0,0,0,0,-1,923,792,0,0
-294,232,0,0,0,0,0,0,0,0,0,-1,930,792,0,0
-287,232,0,0,0,0,0,0,0,0,0,-1,937,792,0,0
-280,232,0,0,0,0,0,0,0,0,0,-1,944,792,0,0
-273,232,0,0,0,0,0,0,0,0,0,-1,951,792,0,0
-266,232,0,0,0,0,0,0,0,0,0,-1,958,792,0,0
-259,232,0,0,0,0,0,0,0,0,0,-1,965,792,0,0
-252,232,0,0,0,0,0,0,0,0,0,-1,972,792,0,0
-245,232,0,0,0,0,0,0,0,0,0,-1,979,792,0,0
-238,232,0,0,0,0,0,0,0,0,0,-1,986,792,0,0
-231,232,0,0,0,0,0,0,0,0,0,-1,993,792,0,0
-224,232,0,0,0,0,0,0,0,0,0,-1,1000,792,0,0
-217,232,0,0,0,0,0,0,0,0,0,-1,1007,792,0,0
-210,232,0,0,0,0,0,0,0,0,0,-1,1014,792,0,0
-203,232,0,0,0,0,0,0,0,0,0,-1,1021,792,0,0
-196,232,0,0,0,0,0,0,0,0,0,-1,1028,792,0,0
-189,232,0,0,0,0,0,0,0,0,0,-1,1035,792,0,0
-182,232,0,0,0,0,0,0,0,0,0,-1,1042,792,0,0
-175,232,0,0,0,0,0,0,0,0,0,-1,1049,792,0,0
-168,232,0,0,0,0,0,0,0,0,0,-1,1056,792,0,0
-161,232,0,0,0,0,0,0,0,0,0,-1,1063,792,0,0
-154,232,0,0,0,0,0,0,0,0,0,-1,1070,792,0,0
-147,232,0,0,0,0,0,0,0,0,0,-1,1077,792,0,0
-140,232,0,0,0,0,0,0,0,0,0,-1,1084,792,0,0
-133,232,0,0,0,0,0,0,0,0,0,-1,1091,792,0,0
-126,232,0,0,0,0,0,0,0,0,0,-1,1098,792,0,0
-119,232,0,0,0,0,0,0,0,0,0,-1,1105,792,0,0
-112,232,0,0,0,0,0,0,0,0,0,-1,1112,792,0,0
-105,232,0,0,0,0,0,0,0,0,0,-1,1119,792,0,0
-98,232,0,0,0,0,0,0,0,0,0,-1,1126,792,0,0
-91,232,0,0,0,0,0,0,0,0,0,-1,1133,792,0,0
-84,232,0,0,0,0,0,0,0,0,0,-1,1140,792,0,0
-77,232,0,0,0,0,0,0,0,0,0,-1,1147,792,0,0
-70,232,0,0,0,0,0,0,0,0,0,-1,1154,792,0,0
-63,232,0,0,0,0,0,0,0,0,0,-1,1161,792,0,0
-56,232,0,0,0,0,0,0,0,0,0,-1,1168,792,0,0
-49,232,0,0,0,0,0,0,0,0,0,-1,1175,792,0,0
-42,232,0,0,0,0,0,0,0,0,0,-1,1182,792,0,0
-35,232,0,0,0,0,0,0,0,0,0,-1,1189,792,0,0
-28,232,0,0,0,0,0,0,0,0,0,-1,1196,792,0,0
-21,232,0,0,0,0,0,0,0,0,0,-1,1203,792,0,0
-14,232,0,0,0,0,0,0,0,0,0,-1,1210,792,0,0
-7,232,0,0,0,0,0,0,0,0,0,-1,1217,792,0,0
0,232,0,0,0,0,0,0,0,0,0,-1,1224,792,0,0
7,232,0,0,0,0,0,0,0,0,0,-1,1231,792,0,0
14,232,0,0,0,0,0,0,0,0,0,-1,1238,792,0,0
21,232,0,0,0,0,0,0,0,0,0,-1,1245,792,0,0
28,232,0,0,0,0,0,0,0,0,0,-1,1252,792,0,0
35,232,0,0,0,0,0,0,0,0,0,-1,1259,792,0,0
42,232,0,0,0,0,0,0,0,0,0,-1,1266,792,0,0
49,232,0,0,0,0,0,0,0,0,0,-1,1273,792,0,0
56,232,0,0,0,0,0,0,0,0,0,-1,1280,792,0,0
63,232,0,0,0,0,0,0,0,0,0,-1,1287,792,0,0
70,232,0,0,0,0,0,0,0,0,0,-1,1294,792,0,0
77,232,0,0,0,0,0,0,0,0,0,-1,1301,792,0,0
84,232,0,0,0,0,0,0,0,0,0,-1,1308,792,0,0
91,232,0,0,0,0,0,0,0,0,0,-1,1315,792,0,0
98,232,0,0,0,0,0,0,0,0,0,-1,1322,792,0,0
105,232,0,0,0,0,0,0,0,0,0,-1,1329,792,0,0
112,232,0,0,0,0,0,0,0,0,0,-1,1336,792,0,0
119,232,0,0,0,0,0,0,0,0,0,-1,1343,792,0,0
126,232,0,0,0,0,0,0,0,0,0,-1,1350,792,0,0
133,232,0,0,0,0,0,0,0,0,0,-1,1357,792,0,0
140,232,0,0,0,0,0,0,0,0,0,-1,1364,792,0,0
147,232,0,0,0,0,0,0,0,0,0,-1,1371,792,0,0
154,232,0,0,0,0,0,0,0,0,0,-1,1378,792,0,0
161,232,0,0,0,0,0,0,0,0,0,-1,1385,792,0,0
168,232,0,0,0,0,0,0,0,0,0,-1,1392,792,0,0
175,232,0,0,0,0,0,0,0,0,0,-1,1399,792,0,0
182,232,0,0,0,0,0,0,0,0,0,-1,1406,792,0,0
189,232,0,0,0,0,0,0,0,0,0,-1,1413,792,0,0
196,232,0,0,0,0,0,0,0,0,0,-1,1420,792,0,0
203,232,0,0,0,0,0,0,0,0,0,-1,1427,792,0,0
210,232,0,0,0,0,0,0,0,0,0,-1,1434,792,0,0
217,232,0,0,0,0,0,0,0,0,0,-1,1441,792,0,0
224,232,0,0,0,0,0,0,0,0,0,-1,1448,792,0,0
231,232,0,0,0,0,0,0,0,0,0,-1,1455,792,0,0
238,232,0,0,0,0,0,0,0,0,0,-1,1462,792,0,0
245,232,0,0,0,0,0,0,0,0,0,-1,1469,792,0,0
252,232,0,0,0,0,0,0,0,0,0,-1,1476,792,0,0
259,232,0,0,0,0,0,0,0,0,0,-1,1483,792,0,0
266,232,0,0,0,0,0,0,0,0,0,-1,1490,792,0,0
273,232,0,0,0,0,0,0,0,0,0,-1,1497,792,0,0
280,232,0,0,0,0,0,0,0,0,0,-1,1504,792,0,0
287,232,0,0,0,0,0,0,0,0,0,-1,1511,792,0,0
294,232,0,0,0,0,0,0,0,0,0,-1,1518,792,0,0
301,232,0,0,0,0,0,0,0,0,0,-1,1525,792,0,0
308,232,0,0,0,0,0,0,0,0,0,-1,1532,792,0,0
315,232,0,0,0,0,0,0,0,0,0,-1,1539,792,0,0
322,232,0,0,0,0,0,0,0,0,0,-1,1546,792,0,0
329,232,0,0,0,0,0,0,0,0,0,-1,1553,792,0,0
336,232,0,0,0,0,0,0,0,0,0,-1,1560,792,0,0
343,232,0,0,0,0,0,0,0,0,0,-1,1567,792,0,0
350,232,0,0,0,0,0,0,0,0,0,-1,1574,792,0,0
357,232,0,0,0,0,0,0,0,0,0,-1,1581,792,0,0
364,232,0,0,0,0,0,0,0,0,0,-1,1588,792,0,0
371,232,0,0,0,0,0,0,0,0,0,-1,1595,792,0,0
378,232,0,0,0,0,0,0,0,0,0,-1,1602,792,0,0
385,232,0,0,0,0,0,0,0,0,0,-1,1609,792,0,0
392,232,0,0,0,0,0,0,0,0,0,-1,1616,792,0,0
399,232,0,0,0,0,0,0,0,0,0,-1,1623,792,0,0
406,232,0,0,0,0,0,0,0,0,0,-1,1630,792,0,0
413,232,0,0,0,0,0,0,0,0,0,-1,1637,792,0,0
420,232,0,0,0,0,0,0,0,0,0,-1,1644,792,0,0
427,232,0,0,0,0,0,0,0,0,0,-1,1651,792,0,0
434,232,0,0,0,0,0,0,0,0,0,-1,1658,792,0,0
441,232,0,0,0,0,0,0,0,0,0,-1,1665,792,0,0
448,232,0,0,0,0,0,0,0,0,0,-1,1672,792,0,0
455,232,0,0,0,0,0,0,0,0,0,-1,1679,792,0,0
462,232,0,0,0,0,0,0,0,0,0,-1,1686,792,0,0
469,232,0,0,0,0,0,0,0,0,0,-1,1693,792,0,0
476,232,0,0,0,0,0,0,0,0,0,-1,1700,792,0,0
483,232,0,0,0,0,0,0,0,0,0,-1,1707,792,0,0
490,232,0,0,0,0,0,0,0,0,0,-1,1714,792,0,0
497,232,0,0,0,0,0,0,0,0,0,-1,1721,792,0,0
504,232,0,0,0,0,0,0,0,0,0,-1,1728,792,0,0
511,232,0,0,0,0,0,0,0,0,0,-1,1735,792,0,0
518,232,0,0,0,0,0,0,0,0,0,-1,1742,792,0,0
525,232,0,0,0,0,0,0,0,0,0,-1,1749,792,0,0
532,232,0,0,0,0,0,0,0,0,0,-1,1756,792,0,0
539,232,0,0,0,0,0,0,0,0,0,-1,1763,792,0,0
546,232,0,0,0,0,0,0,0,0,0,-1,1770,792,0,0
553,232,0,0,0,0,0,0,0,0,0,-1,1777,792,0,0
560,232,0,0,0,0,0,0,0,0,0,-1,1784,792,0,0
567,232,0,0,0,0,0,0,0,0,0,-1,1791,792,0,0
574,232,0,0,0,0,0,0,0,0,0,-1,1798,792,0,0
581,232,0,0,0,0,0,0,0,0,0,-1,1805,792,0,0
588,232,15.6875,2.57452,0.00293895,-0.00115556,-0.00266568,0.00425281,-0.00246942,-0.457936,0.00392635,0.0366757,1812,792,15.6875,-2.57451
595,232,15.714,2.5014,-0.00122728,-0.00247362,-0.00471736,0.0029079,-0.00660879,-0.719728,0.00563125,0.0333874,1819,792,15.714,-2.50139
602,232,15.7517,2.43915,-0.00405553,-0.00460808,-0.00620256,0.00187691,-0.0105405,-0.763142,0.00772899,0.0336415,1826,792,15.7517,-2.43917
609,232,15.9443,2.33777,-0.0055152,-0.00661801,-0.00717799,0.00113253,-0.0132657,-0.747064,0.00924449,0.0389288,1833,792,15.9443,-2.33776
616,232,16.1428,2.16541,-0.00598716,-0.00801732,-0.00766182,0.000726528,-0.014731,-0.719539,0.0100716,0.04358,1840,792,16.1428,-2.16541
623,232,16.205,2.01172,-0.00596652,-0.00893327,-0.00781822,0.000507807,-0.0154076,-0.691646,0.0104451,0.0434362,1847,792,16.205,-2.0117
630,232,16.3043,1.87195,-0.00557377,-0.0093403,-0.00775818,0.000526448,-0.0154405,-0.666328,0.0104736,0.0461616,1854,792,16.3043,-1.87197
637,232,12.4551,2.32208,0,0,0,0,0,0,0,-1,1861,792,12.4551,-2.32211
644,232,12.2433,2.07355,-0.00433551,-0.00882997,-0.00695681,0.000728026,-0.0138935,-0.629176,0.0095143,0.0455725,1868,792,12.2433,-2.07352
651,232,11.8405,1.7475,-0.00350423,-0.00871777,-0.00624899,0.000659903,-0.0128819,-0.587796,0.00881613,0.0388256,1875,792,11.8405,-1.7475
658,232,11.8696,1.38666,-0.00245269,-0.00766165,-0.00557453,0.00109576,-0.0112101,-0.566861,0.00786415,0.0209244,1882,792,11.8696,-1.38667
665,232,11.8678,1.54474,-0.00177446,-0.00617883,-0.00477971,0.00128598,-0.00923927,-0.569525,0.00662988,0.0106473,1889,792,11.8678,-1.54476
672,232,11.8345,1.71808,-0.00118367,-0.0047825,-0.00418146,0.00156911,-0.00753528,-0.582209,0.00562006,0.0166177,1896,792,11.8344,-1.71808
679,232,11.8693,1.88037,-0.000996742,-0.00349345,-0.00355118,0.00151912,-0.0060093,-0.616379,0.00459702,0.018045,1903,792,11.8693,-1.88035
686,232,11.9033,2.05597,-0.000899602,-0.00233679,-0.00298331,0.00145044,-0.00468683,-0.667214,0.00370394,0.0173812,1910,792,11.9033,-2.05594
693,232,11.8998,2.21509,-0.000589309,-0.00208035,-0.0025989,0.00136889,-0.00403855,-0.645719,0.00324634,0.00993285,1917,792,11.8998,-2.21508
700,232,11.8904,2.36169,-0.000710707,-0.0014353,-0.00227013,0.00122585,-0.00337186,-0.706269,0.00274918,0.0123664,1924,792,11.8904,-2.36168
707,232,11.8691,2.53595,-0.00156206,-0.00129793,-0.00243992,0.0010135,-0.00387349,-0.812434,0.00297821,0.0127018,1931,792,11.8691,-2.53597
714,232,11.8635,2.71069,-0.00270056,-0.00185747,-0.00296976,0.000720517,-0.00527855,-0.8559,0.00378215,0.0131117,1938,792,11.8635,-2.71071
721,232,11.8768,2.83826,-0.00441632,-0.00272326,-0.00391622,0.000436876,-0.00757645,-0.89184,0.00520271,0.0168168,1945,792,11.8769,-2.83827
728,232,11.8556,2.8631,-0.0071184,-0.00405141,-0.00523939,-0.000125712,-0.0110441,-0.927765,0.00732119,0.0313285,1952,792,11.8556,-2.86308
735,232,11.6301,2.72546,-0.0110293,-0.00599942,-0.00678123,-0.0012818,-0.0157469,-0.96297,0.0100978,0.0446868,1959,792,11.6301,-2.72546
742,232,11.4017,2.65588,-0.0164377,-0.00870422,-0.00849067,-0.00324126,-0.0219006,-0.99907,0.0136489,0.0467721,1966,792,11.4017,-2.65586
749,232,11.2467,2.17017,0,0,0,0,0,0,0,-1,1973,792,11.2468,-2.17017
756,232,10.7382,1.70251,0,0,0,0,0,0,0,-1,1980,792,10.7382,-1.7025
763,232,12.0197,2.27405,0,0,0,0,0,0,0,-1,1987,792,12.0197,-2.27405
770,232,0,0,0,0,0,0,0,0,0,-1,1994,792,0,0
777,232,0,0,0,0,0,0,0,0,0,-1,2001,792,0,0
784,232,0,0,0,0,0,0,0,0,0,-1,2008,792,0,0
791,232,0,0,0,0,0,0,0,0,0,-1,2015,792,0,0
798,232,0,0,0,0,0,0,0,0,0,-1,2022,792,0,0
805,232,0,0,0,0,0,0,0,0,0,-1,2029,792,0,0
812,232,0,0,0,0,0,0,0,0,0,-1,2036,792,0,0
-700,225,0,0,0,0,0,0,0,0,0,-1,524,799,0,0
-693,225,0,0,0,0,0,0,0,0,0,-1,531,799,0,0
-686,225,0,0,0,0,0,0,0,0,0,-1,538,799,0,0
-679,225,0,0,0,0,0,0,0,0,0,-1,545,799,0,0
-672,225,0,0,0,0,0,0,0,0,0,-1,552,799,0,0
-665,225,0,0,0,0,0,0,0,0,0,-1,559,799,0,0
-658,225,0,0,0,0,0,0,0,0,0,-1,566,799,0,0
-651,225,0,0,0,0,0,0,0,0,0,-1,573,799,0,0
-644,225,-6.02063,5.85779,0,0,0,0,0,0,0,-1,580,799,-6.02066,-5.8578
-637,225,-9.80463,-0.585144,0,0,0,0,0,0,0,-1,587,799,-9.80462,0.585115
-630,225,-5.34351,1.37915,0,0,0,0,0,0,0,-1,594,799,-5.34348,-1.37918
-623,225,-5.68036,1.41565,0,0,0,0,0,0,0,-1,601,799,-5.68033,-1.41564
-616,225,-6.13263,1.37048,-0.00484631,0.0205282,0.0179107,0.02979,-0.0141081,1.09356,0.025878,0.0448026,608,799,-6.13262,-1.37047
-609,225,-6.7486,1.26831,-0.00448811,0.0112423,0.0140514,0.01948,-0.0127258,1.04055,0.0187298,0.0478553,615,799,-6.7486,-1.2683
-602,225,-6.94104,1.14008,-0.00402351,0.00457184,0.010706,0.0118106,-0.0112622,0.976266,0.0133223,0.0475906,622,799,-6.94102,-1.1401
-595,225,-6.95691,0.988892,-0.00382808,8.00658e-05,0.00781221,0.00617888,-0.00992689,0.907949,0.00938223,0.0272622,629,799,-6.95688,-0.988917
-588,225,-6.93591,0.810852,-0.00358696,-0.00190828,0.00533977,0.00265771,-0.00815295,0.863354,0.00650478,0.0122104,636,799,-6.93589,-0.810881
-581,225,-6.91614,0.644165,-0.00325725,-0.00191363,0.0036763,0.00115174,-0.00632261,0.875772,0.00464681,0.0109719,643,799,-6.91613,-0.644156
-574,225,-6.91608,0.485779,-0.00320512,-0.00113559,0.00259822,0.000626339,-0.00496705,0.9749,0.00353867,0.00852606,650,799,-6.91607,-0.485788
-567,225,-6.94995,0.336121,-0.00344427,-0.000537528,0.00222431,0.000666137,-0.00464793,1.07478,0.00334287,0.0101752,657,799,-6.94995,-0.336102
-560,225,-6.96381,0.216675,-0.00388528,-0.000127386,0.00210245,0.000813373,-0.00482604,1.15006,0.00351995,0.0102405,664,799,-6.96379,-0.216702
-553,225,-6.9516,0.0799561,-0.00425007,-7.09896e-06,0.00271006,0.00131309,-0.00557026,1.11749,0.00421986,0.0104228,671,799,-6.95159,-0.0799682
-546,225,-6.95728,-0.0853271,-0.00500953,7.85988e-05,0.00350628,0.00186654,-0.00679747,1.09924,0.00526529,0.0191184,678,799,-6.95728,0.0853139
-539,225,-6.91351,-0.226501,-0.00569663,-8.53594e-05,0.00410843,0.00208402,-0.00786601,1.08498,0.00605935,0.0225765,685,799,-6.91352,0.226489
-532,225,-6.94641,-0.357544,-0.00619141,-0.00010955,0.00465477,0.00240957,-0.00871053,1.07474,0.00675501,0.0155249,692,799,-6.9464,0.357525
-525,225,-7.0589,-0.386292,-0.00665168,-5.93369e-05,0.00515323,0.00276172,-0.00947274,1.06992,0.00740934,0.0350678,699,799,-7.05892,0.386317
-518,225,-7.35297,-0.335449,-0.00657604,0.000184538,0.00509797,0.00292109,-0.00931259,1.07815,0.00737744,0.0433018,706,799,-7.35295,0.33545
-511,225,-7.58704,-0.41864,-0.00610197,0.000299816,0.00460779,0.0027094,-0.00851155,1.08897,0.00676096,0.0413558,713,799,-7.58706,0.418618
-504,225,-7.51257,-0.593445,0,0,0,0,0,0,0,-1,720,799,-7.51257,0.593461
-497,225,-10.2134,0.432556,0,0,0,0,0,0,0,-1,727,799,-10.2134,-0.432558
-490,225,-10.0699,0.616211,-0.00140495,0.00128599,0.000562972,0.00139902,-0.00151798,1.37265,0.0016846,0.0387445,734,799,-10.0699,-0.616238
-483,225,-9.97882,0.63147,0.00133623,0.00197199,-0.00188055,0.00356133,-0.000253116,-0.869124,0.00246293,0.0328559,741,799,-9.97882,-0.631463
-476,225,-9.95313,0.570007,0.00449918,0.00306478,-0.0048014,0.00863665,-0.00107269,-0.71126,0.00614661,0.0315239,748,799,-9.95312,-0.569998
-469,225,-9.86816,0.471436,0.00776546,0.00442175,-0.00810246,0.0143668,-0.00217954,-0.683656,0.0103809,0.0350538,755,799,-9.86818,-0.47144
-462,225,0,0,0,0,0,0,0,0,0,-1,762,799,0,0
-455,225,0,0,0,0,0,0,0,0,0,-1,769,799,0,0
-448,225,0,0,0,0,0,0,0,0,0,-1,776,799,0,0
-441,225,0,0,0,0,0,0,0,0,0,-1,783,799,0,0
-434,225,0,0,0,0,0,0,0,0,0,-1,790,799,0,0
-427,225,0,0,0,0,0,0,0,0,0,-1,797,799,0,0
-420,225,0,0,0,0,0,0,0,0,0,-1,804,799,0,0
-413,225,0,0,0,0,0,0,0,0,0,-1,811,799,0,0
-406,225,0,0,0,0,0,0,0,0,0,-1,818,799,0,0
-399,225,0,0,0,0,0,0,0,0,0,-1,825,799,0,0
-392,225,0,0,0,0,0,0,0,0,0,-1,832,799,0,0
-385,225,0,0,0,0,0,0,0,0,0,-1,839,799,0,0
-378,225,0,0,0,0,0,0,0,0,0,-1,846,799,0,0
-371,225,0,0,0,0,0,0,0,0,0,-1,853,799,0,0
-364,225,0,0,0,0,0,0,0,0,0,-1,860,799,0,0
-357,225,0,0,0,0,0,0,0,0,0,-1,867,799,0,0
-350,225,0,0,0,0,0,0,0,0,0,-1,874,799,0,0
-343,225,0,0,0,0,0,0,0,0,0,-1,881,799,0,0
-336,225,0,0,0,0,0,0,0,0,0,-1,888,799,0,0
-329,225,0,0,0,0,0,0,0,0,0,-1,895,799,0,0
-322,225,0,0,0,0,0,0,0,0,0,-1,902,799,0,0
-315,225,0,0,0,0,0,0,0,0,0,-1,909,799,0,0
-308,225,0,0,0,0,0,0,0,0,0,-1,916,799,0,0
-301,225,0,0,0,0,0,0,0,0,0,-1,923,799,0,0
-294,225,0,0,0,0,0,0,0,0,0,-1,930,799,0,0
-287,225,0,0,0,0,0,0,0,0,0,-1,937,799,0,0
-280,225,0,0,0,0,0,0,0,0,0,-1,944,799,0,0
-273,225,0,0,0,0,0,0,0,0,0,-1,951,799,0,0
-266,225,0,0,0,0,0,0,0,0,0,-1,958,799,0,0
-259,225,0,0,0,0,0,0,0,0,0,-1,965,799,0,0
-252,225,0,0,0,0,0,0,0,0,0,-1,972,799,0,0
-245,225,0,0,0,0,0,0,0,0,0,-1,979,799,0,0
-238,225,0,0,0,0,0,0,0,0,0,-1,986,799,0,0
-231,225,0,0,0,0,0,0,0,0,0,-1,993,799,0,0
-224,225,0,0,0,0,0,0,0,0,0,-1,1000,799,0,0
-217,225,0,0,0,0,0,0,0,0,0,-1,1007,799,0,0
-210,225,0,0,0,0,0,0,0,0,0,-1,1014,799,0,0
-203,225,0,0,0,0,0,0,0,0,0,-1,1021,799,0,0
-196,225,0,0,0,0,0,0,0,0,0,-1,1028,799,0,0
-189,225,0,0,0,0,0,0,0,0,0,-1,1035,799,0,0
-182,225,0,0,0,0,0,0,0,0,0,-1,1042,799,0,0
-175,225,0,0,0,0,0,0,0,0,0,-1,1049,799,0,0
-168,225,0,0,0,0,0,0,0,0,0,-1,1056,799,0,0
-161,225,0,0,0,0,0,0,0,0,0,-1,1063,799,0,0
-154,225,0,0,0,0,0,0,0,0,0,-1,1070,799,0,0
-147,225,0,0,0,0,0,0,0,0,0,-1,1077,799,0,0
-140,225,0,0,0,0,0,0,0,0,0,-1,1084,799,0,0
-133,225,0,0,0,0,0,0,0,0,0,-1,1091,799,0,0
-126,225,0,0,0,0,0,0,0,0,0,-1,1098,799,0,0
-119,225,0,0,0,0,0,0,0,0,0,-1,1105,799,0,0
-112,225,0,0,0,0,0,0,0,0,0,-1,1112,799,0,0
-105,225,0,0,0,0,0,0,0,0,0,-1,1119,799,0,0
-98,225,0,0,0,0,0,0,0,0,0,-1,1126,799,0,0
-91,225,0,0,0,0,0,0,0,0,0,-1,1133,799,0,0
-84,225,0,0,0,0,0,0,0,0,0,-1,1140,799,0,0
-77,225,0,0,0,0,0,0,0,0,0,-1,1147,799,0,0
-70,225,0,0,0,0,0,0,0,0,0,-1,1154,799,0,0
-63,225,0,0,0,0,0,0,0,0,0,-1,1161,799,0,0
-56,225,0,0,0,0,0,0,0,0,0,-1,1168,799,0,0
-49,225,0,0,0,0,0,0,0,0,0,-1,1175,799,0,0
-42,225,0,0,0,0,0,0,0,0,0,-1,1182,799,0,0
-35,225,0,0,0,0,0,0,0,0,0,-1,1189,799,0,0
-28,225,0,0,0,0,0,0,0,0,0,-1,1196,799,0,0
-21,225,0,0,0,0,0,0,0,0,0,-1,1203,799,0,0
-14,225,0,0,0,0,0,0,0,0,0,-1,1210,799,0,0
-7,225,0,0,0,0,0,0,0,0,0,-1,1217,799,0,0
0,225,0,0,0,0,0,0,0,0,0,-1,1224,799,0,0
7,225,0,0,0,0,0,0,0,0,0,-1,1231,799,0,0
14,225,0,0,0,0,0,0,0,0,0,-1,1238,799,0,0
21,225,0,0,0,0,0,0,0,0,0,-1,1245,799,0,0
28,225,0,0,0,0,0,0,0,0,0,-1,1252,799,0,0
35,225,0,0,0,0,0,0,0,0,0,-1,1259,799,0,0
42,225,0,0,0,0,0,0,0,0,0,-1,1266,799,0,0
49,225,0,0,0,0,0,0,0,0,0,-1,1273,799,0,0
56,225,0,0,0,0,0,0,0,0,0,-1,1280,799,0,0
63,225,0,0,0,0,0,0,0,0,0,-1,1287,799,0,0
70,225,0,0,0,0,0,0,0,0,0,-1,1294,799,0,0
77,225,0,0,0,0,0,0,0,0,0,-1,1301,799,0,0
84,225,0,0,0,0,0,0,0,0,0,-1,1308,799,0,0
91,225,0,0,0,0,0,0,0,0,0,-1,1315,799,0,0
98,225,0,0,0,0,0,0,0,0,0,-1,1322,799,0,0
105,225,0,0,0,0,0,0,0,0,0,-1,1329,799,0,0
112,225,0,0,0,0,0,0,0,0,0,-1,1336,799,0,0
119,225,0,0,0,0,0,0,0,0,0,-1,1343,799,0,0
126,225,0,0,0,0,0,0,0,0,0,-1,1350,799,0,0
133,225,0,0,0,0,0,0,0,0,0,-1,1357,799,0,0
140,225,0,0,0,0,0,0,0,0,0,-1,1364,799,0,0
147,225,0,0,0,0,0,0,0,0,0,-1,1371,799,0,0
154,225,0,0,0,0,0,0,0,0,0,-1,1378,799,0,0
161,225,0,0,0,0,0,0,0,0,0,-1,1385,799,0,0
168,225,0,0,0,0,0,0,0,0,0,-1,1392,799,0,0
175,225,0,0,0,0,0,0,0,0,0,-1,1399,799,0,0
182,225,0,0,0,0,0,0,0,0,0,-1,1406,799,0,0
189,225,0,0,0,0,0,0,0,0,0,-1,1413,799,0,0
196,225,0,0,0,0,0,0,0,0,0,-1,1420,799,0,0
203,225,0,0,0,0,0,0,0,0,0,-1,1427,799,0,0
210,225,0,0,0,0,0,0,0,0,0,-1,1434,799,0,0
217,225,0,0,0,0,0,0,0,0,0,-1,1441,799,0,0
224,225,0,0,0,0,0,0,0,0,0,-1,1448,799,0,0
231,225,0,0,0,0,0,0,0,0,0,-1,1455,799,0,0
238,225,0,0,0,0,0,0,0,0,0,-1,1462,799,0,0
245,225,0,0,0,0,0,0,0,0,0,-1,1469,799,0,0
252,225,0,0,0,0,0,0,0,0,0,-1,1476,799,0,0
259,225,0,0,0,0,0,0,0,0,0,-1,1483,799,0,0
266,225,0,0,0,0,0,0,0,0,0,-1,1490,799,0,0
273,225,0,0,0,0,0,0,0,0,0,-1,1497,799,0,0
280,225,0,0,0,0,0,0,0,0,0,-1,1504,799,0,0
287,225,0,0,0,0,0,0,0,0,0,-1,1511,799,0,0
294,225,0,0,0,0,0,0,0,0,0,-1,1518,799,0,0
301,225,0,0,0,0,0,0,0,0,0,-1,1525,799,0,0
308,225,0,0,0,0,0,0,0,0,0,-1,1532,799,0,0
315,225,0,0,0,0,0,0,0,0,0,-1,1539,799,0,0
322,225,0,0,0,0,0,0,0,0,0,-1,1546,799,0,0
329,225,0,0,0,0,0,0,0,0,0,-1,1553,799,0,0
336,225,0,0,0,0,0,0,0,0,0,-1,1560,799,0,0
343,225,0,0,0,0,0,0,0,0,0,-1,1567,799,0,0
350,225,0,0,0,0,0,0,0,0,0,-1,1574,799,0,0
357,225,0,0,0,0,0,0,0,0,0,-1,1581,799,0,0
364,225,0,0,0,0,0,0,0,0,0,-1,1588,799,0,0
371,225,0,0,0,0,0,0,0,0,0,-1,1595,799,0,0
378,225,0,0,0,0,0,0,0,0,0,-1,1602,799,0,0
385,225,0,0,0,0,0,0,0,0,0,-1,1609,799,0,0
392,225,0,0,0,0,0,0,0,0,0,-1,1616,799,0,0
399,225,0,0,0,0,0,0,0,0,0,-1,1623,799,0,0
406,225,0,0,0,0,0,0,0,0,0,-1,1630,799,0,0
413,225,0,0,0,0,0,0,0,0,0,-1,1637,799,0,0
420,225,0,0,0,0,0,0,0,0,0,-1,1644,799,0,0
427,225,0,0,0,0,0,0,0,0,0,-1,1651,799,0,0
434,225,0,0,0,0,0,0,0,0,0,-1,1658,799,0,0
441,225,0,0,0,0,0,0,0,0,0,-1,1665,799,0,0
448,225,0,0,0,0,0,0,0,0,0,-1,1672,799,0,0
455,225,0,0,0,0,0,0,0,0,0,-1,1679,799,0,0
462,225,0,0,0,0,0,0,0,0,0,-1,1686,799,0,0
469,225,0,0,0,0,0,0,0,0,0,-1,1693,799,0,0
476,225,0,0,0,0,0,0,0,0,0,-1,1700,799,0,0
483,225,0,0,0,0,0,0,0,0,0,-1,1707,799,0,0
490,225,0,0,0,0,0,0,0,0,0,-1,1714,799,0,0
497,225,0,0,0,0,0,0,0,0,0,-1,1721,799,0,0
504,225,0,0,0,0,0,0,0,0,0,-1,1728,799,0,0
511,225,0,0,0,0,0,0,0,0,0,-1,1735,799,0,0
518,225,0,0,0,0,0,0,0,0,0,-1,1742,799,0,0
525,225,0,0,0,0,0,0,0,0,0,-1,1749,799,0,0
532,225,0,0,0,0,0,0,0,0,0,-1,1756,799,0,0
539,225,0,0,0,0,0,0,0,0,0,-1,1763,799,0,0
546,225,0,0,0,0,0,0,0,0,0,-1,1770,799,0,0
553,225,0,0,0,0,0,0,0,0,0,-1,1777,799,0,0
560,225,0,0,0,0,0,0,0,0,0,-1,1784,799,0,0
567,225,0,0,0,0,0,0,0,0,0,-1,1791,799,0,0
574,225,0,0,0,0,0,0,0,0,0,-1,1798,799,0,0
581,225,0,0,0,0,0,0,0,0,0,-1,1805,799,0,0
588,225,15.8254,2.51294,0.00306243,0.00258043,-0.00106256,0.00391098,0.00173188,-0.67388,0.00226292,0.0351442,1812,799,15.8254,-2.51295
595,225,15.8025,2.448,-0.000484284,8.52163e-05,-0.0031866,0.00299976,-0.00339883,-0.829959,0.00369662,0.0338677,1819,799,15.8024,-2.44802
602,225,15.7404,2.43292,-0.00294586,-0.00287073,-0.00468594,0.0017778,-0.00759439,-0.789406,0.00574791,0.034539,1826,799,15.7404,-2.43289
609,225,15.7963,2.38678,-0.00414313,-0.00550463,-0.00573078,0.000947188,-0.010595,-0.726281,0.00739927,0.0337632,1833,799,15.7963,-2.38677
616,225,15.8428,2.36237,-0.00442785,-0.00738264,-0.00630304,0.00056862,-0.0123791,-0.670279,0.00844866,0.0375979,1840,799,15.8428,-2.36235
623,225,15.839,2.38043,-0.00442081,-0.00856991,-0.00666279,0.000482931,-0.0134736,-0.634474,0.00914766,0.0380331,1847,799,15.839,-2.38043
630,225,15.8208,2.28253,-0.00415344,-0.00909521,-0.00679406,0.000605094,-0.0138537,-0.610992,0.00944399,0.0397636,1854,799,15.8208,-2.2825
637,225,15.5782,2.41913,-0.00378182,-0.00902575,-0.00666563,0.000758989,-0.0135666,-0.598015,0.00930769,0.0412499,1861,799,15.5782,-2.41912
644,225,12.2329,2.29517,0,0,0,0,0,0,0,-1,1868,799,12.2329,-2.29519
651,225,12.0062,1.828,-0.00288899,-0.00841294,-0.00591975,0.000881406,-0.0121833,-0.567124,0.0084314,0.0384672,1875,799,12.0062,-1.82803
658,225,12.0931,1.53064,-0.00223245,-0.0074956,-0.00550443,0.00123712,-0.0109652,-0.562418,0.00775545,0.0337569,1882,799,12.0932,-1.53062
665,225,12.0494,1.52057,-0.00183476,-0.00623704,-0.00495037,0.00138177,-0.00945357,-0.576204,0.00680986,0.0122228,1889,799,12.0495,-1.52056
672,225,12.0034,1.73291,-0.00151822,-0.00496196,-0.00450976,0.0015872,-0.00806739,-0.603034,0.00597798,0.0148802,1896,799,12.0034,-1.73293
679,225,12.0067,1.90796,-0.00153274,-0.00374411,-0.00400295,0.00151442,-0.00679127,-0.650649,0.00510771,0.0170437,1903,799,12.0068,-1.90793
686,225,12.0433,2.06482,-0.00151351,-0.00261435,-0.00348154,0.00146086,-0.00558871,-0.706999,0.00429636,0.0111138,1910,799,12.0433,-2.06485
693,225,12.042,2.21576,-0.00119416,-0.00227599,-0.00301109,0.00132421,-0.00479436,-0.696526,0.00371712,0.0103577,1917,799,12.042,-2.21574
700,225,12.0378,2.36713,-0.00130747,-0.00152756,-0.0025333,0.00111817,-0.0039532,-0.763692,0.00307669,0.0115271,1924,799,12.0378,-2.36712
707,225,12.0264,2.53143,-0.00213819,-0.00117936,-0.002507,0.000893652,-0.0042112,-0.879872,0.00314792,0.0113415,1931,799,12.0263,-2.53142
714,225,12.0288,2.6911,-0.00320585,-0.00159161,-0.0027885,0.000504231,-0.00530169,-0.926272,0.00371396,0.0118778,1938,799,12.0288,-2.6911
721,225,12.0508,2.82489,-0.00484813,-0.00224145,-0.00345728,0.000149999,-0.00723958,-0.965653,0.00487715,0.0128863,1945,799,12.0508,-2.82489
728,225,12.0294,2.94647,-0.00750546,-0.00330011,-0.00447075,-0.00046225,-0.0103433,-1.00521,0.00674674,0.0225306,1952,799,12.0294,-2.94645
735,225,11.9922,3.12634,-0.0114232,-0.00485458,-0.0056811,-0.00157674,-0.014701,-1.04748,0.00931965,0.0428868,1959,799,11.9922,-3.12632
742,225,11.9919,3.40771,-0.0167306,-0.00701644,-0.00694428,-0.0033992,-0.0203479,-1.09057,0.0125861,0.0479967,1966,799,11.9919,-3.40769
749,225,12.0785,3.70569,0,0,0,0,0,0,0,-1,1973,799,12.0785,-3.70572
756,225,12.972,4.29706,0,0,0,0,0,0,0,-1,1980,799,12.9721,-4.29706
763,225,11.9244,3.03638,0,0,0,0,0,0,0,-1,1987,799,11.9244,-3.03636
770,225,0,0,0,0,0,0,0,0,0,-1,1994,799,0,0
777,225,0,0,0,0,0,0,0,0,0,-1,2001,799,0,0
784,225,0,0,0,0,0,0,0,0,0,-1,2008,799,0,0
791,225,0,0,0,0,0,0,0,0,0,-1,2015,799,0,0
798,225,0,0,0,0,0,0,0,0,0,-1,2022,799,0,0
805,225,0,0,0,0,0,0,0,0,0,-1,2029,799,0,0
812,225,0,0,0,0,0,0,0,0,0,-1,2036,799,0,0
-700,218,0,0,0,0,0,0,0,0,0,-1,524,806,0,0
-693,218,0,0,0,0,0,0,0,0,0,-1,531,806,0,0
-686,218,0,0,0,0,0,0,0,0,0,-1,538,806,0,0
-679,218,0,0,0,0,0,0,0,0,0,-1,545,806,0,0
-672,218,0,0,0,0,0,0,0,0,0,-1,552,806,0,0
-665,218,0,0,0,0,0,0,0,0,0,-1,559,806,0,0
-658,218,0,0,0,0,0,0,0,0,0,-1,566,806,0,0
-651,218,-6.59644,4.81598,0,0,0,0,0,0,0,-1,573,806,-6.59644,-4.81597
-644,218,-6.5672,4.86182,0,0,0,0,0,0,0,-1,580,806,-6.56719,-4.86184
-637,218,-6.53796,4.90771,0,0,0,0,0,0,0,-1,587,806,-6.53794,-4.90771
-630,218,-9.76514,0.0923462,0,0,0,0,0,0,0,-1,594,806,-9.76511,-0.0923235
-623,218,-6.94293,0.669189,0,0,0,0,0,0,0,-1,601,806,-6.94294,-0.669209
-616,218,-7.04962,1.00104,-0.00170608,0.0221881,0.0167566,0.0308205,-0.0103385,1.09509,0.0247245,0.0476488,608,806,-7.04965,-1.00104
-609,218,-7.10956,1.11292,-0.00174737,0.0129882,0.0130943,0.0206452,-0.0094044,1.04166,0.0177492,0.047588,615,806,-7.10955,-1.11291
-602,218,-7.11414,0.996582,-0.00161161,0.00599508,0.00997657,0.0128687,-0.00848522,0.967508,0.012415,0.0402139,622,806,-7.11414,-0.99657
-595,218,-7.11243,0.914917,-0.00174636,0.00109455,0.00727876,0.00709016,-0.00774197,0.881763,0.00856609,0.0166931,629,806,-7.11241,-0.914929
-588,218,-7.08795,0.799377,-0.0019899,-0.00129393,0.00496702,0.00333727,-0.00662111,0.82037,0.00585275,0.0113687,636,806,-7.08797,-0.799366
-581,218,-7.07709,0.64447,-0.00208189,-0.00152626,0.00343534,0.00164247,-0.00525063,0.825745,0.0041575,0.0110849,643,806,-7.0771,-0.644477
-574,218,-7.07233,0.499573,-0.00242968,-0.000881433,0.00242253,0.000887654,-0.00419877,0.940046,0.00313721,0.00985806,650,806,-7.07232,-0.499588
-567,218,-7.07019,0.345825,-0.00297563,-0.000238293,0.00212966,0.000924581,-0.00413851,1.071,0.0031133,0.0156527,657,806,-7.0702,-0.345855
-560,218,-7.07489,0.216675,-0.00365013,0.00018474,0.00210906,0.00111769,-0.00458308,1.15432,0.00348816,0.0161363,664,806,-7.07488,-0.216687
-553,218,-7.08966,0.0938721,-0.00420795,0.000461875,0.00276737,0.00174776,-0.00549383,1.13582,0.00436342,0.01671,671,806,-7.08967,-0.0938697
-546,218,-7.07886,-0.0679321,-0.00507424,0.000713534,0.00357894,0.00242219,-0.0067829,1.12538,0.00550976,0.0133391,678,806,-7.07884,0.0679479
-539,218,-7.08002,-0.233521,-0.00580001,0.000715655,0.00417096,0.0027503,-0.00783466,1.11695,0.00634188,0.0160946,685,806,-7.08,0.233516
-532,218,-7.15405,-0.334595,-0.00633557,0.0008961,0.00471814,0.0032246,-0.00866407,1.11235,0.00709937,0.0189728,692,806,-7.15407,0.334583
-525,218,-7.40363,-0.296753,-0.00683272,0.001119,0.00522643,0.00370996,-0.00942368,1.11056,0.00781824,0.0463753,699,806,-7.4036,0.296758
-518,218,-7.61121,-0.255859,-0.00680944,0.0015408,0.00523086,0.00405847,-0.00932711,1.12221,0.00792521,0.0454524,706,806,-7.61123,0.25588
-511,218,-8.18408,-0.0551147,-0.00644611,0.00182501,0.00483821,0.00405428,-0.00867538,1.13903,0.00750916,0.0405427,713,806,-8.18407,0.0551045
-504,218,-8.81268,-0.185425,0,0,0,0,0,0,0,-1,720,806,-8.81269,0.185395
-497,218,-9.51105,1.0614,0,0,0,0,0,0,0,-1,727,806,-9.51107,-1.06141
-490,218,-9.91388,0.679932,-0.00210263,0.00309481,0.000649666,0.00317479,-0.00218261,1.44831,0.00311073,0.0366457,734,806,-9.91391,-0.67991
-483,218,-9.93585,0.618164,0.000546717,0.00385976,-0.00208537,0.00486647,-0.000459998,-1.12104,0.00340801,0.0311781,741,806,-9.93586,-0.618182
-476,218,-10.02,0.541382,0.00357052,0.00506423,-0.00537926,0.00974823,-0.00111348,-0.854377,0.00689999,0.0355185,748,806,-10.02,-0.541382
-469,218,0,0,0,0,0,0,0,0,0,-1,755,806,0,0
-462,218,0,0,0,0,0,0,0,0,0,-1,762,806,0,0
-455,218,0,0,0,0,0,0,0,0,0,-1,769,806,0,0
-448,218,0,0,0,0,0,0,0,0,0,-1,776,806,0,0
-441,218,0,0,0,0,0,0,0,0,0,-1,783,806,0,0
-434,218,0,0,0,0,0,0,0,0,0,-1,790,806,0,0
-427,218,0,0,0,0,0,0,0,0,0,-1,797,806,0,0
-420,218,0,0,0,0,0,0,0,0,0,-1,804,806,0,0
-413,218,0,0,0,0,0,0,0,0,0,-1,811,806,0,0
-406,218,0,0,0,0,0,0,0,0,0,-1,818,806,0,0
-399,218,0,0,0,0,0,0,0,0,0,-1,825,806,0,0
-392,218,0,0,0,0,0,0,0,0,0,-1,832,806,0,0
-385,218,0,0,0,0,0,0,0,0,0,-1,839,806,0,0
-378,218,0,0,0,0,0,0,0,0,0,-1,846,806,0,0
-371,218,0,0,0,0,0,0,0,0,0,-1,853,806,0,0
-364,218,0,0,0,0,0,0,0,0,0,-1,860,806,0,0
-357,218,0,0,0,0,0,0,0,0,0,-1,867,806,0,0
-350,218,0,0,0,0,0,0,0,0,0,-1,874,806,0,0
-343,218,0,0,0,0,0,0,0,0,0,-1,881,806,0,0
-336,218,0,0,0,0,0,0,0,0,0,-1,888,806,0,0
-329,218,0,0,0,0,0,0,0,0,0,-1,895,806,0,0
-322,218,0,0,0,0,0,0,0,0,0,-1,902,806,0,0
-315,218,0,0,0,0,0,0,0,0,0,-1,909,806,0,0
-308,218,0,0,0,0,0,0,0,0,0,-1,916,806,0,0
-301,218,0,0,0,0,0,0,0,0,0,-1,923,806,0,0
-294,218,0,0,0,0,0,0,0,0,0,-1,930,806,0,0
-287,218,0,0,0,0,0,0,0,0,0,-1,937,806,0,0
-280,218,0,0,0,0,0,0,0,0,0,-1,944,806,0,0
-273,218,0,0,0,0,0,0,0,0,0,-1,951,806,0,0
-266,218,0,0,0,0,0,0,0,0,0,-1,958,806,0,0
-259,218,0,0,0,0,0,0,0,0,0,-1,965,806,0,0
-252,218,0,0,0,0,0,0,0,0,0,-1,972,806,0,0
-245,218,0,0,0,0,0,0,0,0,0,-1,979,806,0,0
-238,218,0,0,0,0,0,0,0,0,0,-1,986,806,0,0
-231,218,0,0,0,0,0,0,0,0,0,-1,993,806,0,0
-224,218,0,0,0,0,0,0,0,0,0,-1,1000,806,0,0
-217,218,0,0,0,0,0,0,0,0,0,-1,1007,806,0,0
-210,218,0,0,0,0,0,0,0,0,0,-1,1014,806,0,0
-203,218,0,0,0,0,0,0,0,0,0,-1,1021,806,0,0
-196,218,0,0,0,0,0,0,0,0,0,-1,1028,806,0,0
-189,218,0,0,0,0,0,0,0,0,0,-1,1035,806,0,0
-182,218,0,0,0,0,0,0,0,0,0,-1,1042,806,0,0
-175,218,0,0,0,0,0,0,0,0,0,-1,1049,806,0,0
-168,218,0,0,0,0,0,0,0,0,0,-1,1056,806,0,0
-161,218,0,0,0,0,0,0,0,0,0,-1,1063,806,0,0
-154,218,0,0,0,0,0,0,0,0,0,-1,1070,806,0,0
-147,218,0,0,0,0,0,0,0,0,0,-1,1077,806,0,0
-140,218,0,0,0,0,0,0,0,0,0,-1,1084,806,0,0
-133,218,0,0,0,0,0,0,0,0,0,-1,1091,806,0,0
-126,218,0,0,0,0,0,0,0,0,0,-1,1098,806,0,0
-119,218,0,0,0,0,0,0,0,0,0,-1,1105,806,0,0
-112,218,0,0,0,0,0,0,0,0,0,-1,1112,806,0,0
-105,218,0,0,0,0,0,0,0,0,0,-1,1119,806,0,0
-98,218,0,0,0,0,0,0,0,0,0,-1,1126,806,0,0
-91,218,0,0,0,0,0,0,0,0,0,-1,1133,806,0,0
-84,218,0,0,0,0,0,0,0,0,0,-1,1140,806,0,0
-77,218,0,0,0,0,0,0,0,0,0,-1,1147,806,0,0
-70,218,0,0,0,0,0,0,0,0,0,-1,1154,806,0,0
-63,218,0,0,0,0,0,0,0,0,0,-1,1161,806,0,0
-56,218,0,0,0,0,0,0,0,0,0,-1,1168,806,0,0
-49,218,0,0,0,0,0,0,0,0,0,-1,1175,806,0,0
-42,218,0,0,0,0,0,0,0,0,0,-1,1182,806,0,0
-35,218,0,0,0,0,0,0,0,0,0,-1,1189,806,0,0
-28,218,0,0,0,0,0,0,0,0,0,-1,1196,806,0,0
-21,218,0,0,0,0,0,0,0,0,0,-1,1203,806,0,0
-14,218,0,0,0,0,0,0,0,0,0,-1,1210,806,0,0
-7,218,0,0,0,0,0,0,0,0,0,-1,1217,806,0,0
0,218,0,0,0,0,0,0,0,0,0,-1,1224,806,0,0
7,218,0,0,0,0,0,0,0,0,0,-1,1231,806,0,0
14,218,0,0,0,0,0,0,0,0,0,-1,1238,806,0,0
21,218,0,0,0,0,0,0,0,0,0,-1,1245,806,0,0
28,218,0,0,0,0,0,0,0,0,0,-1,1252,806,0,0
35,218,0,0,0,0,0,0,0,0,0,-1,1259,806,0,0
42,218,0,0,0,0,0,0,0,0,0,-1,1266,806,0,0
49,218,0,0,0,0,0,0,0,0,0,-1,1273,806,0,0
56,218,0,0,0,0,0,0,0,0,0,-1,1280,806,0,0
63,218,0,0,0,0,0,0,0,0,0,-1,1287,806,0,0
70,218,0,0,0,0,0,0,0,0,0,-1,1294,806,0,0
77,218,0,0,0,0,0,0,0,0,0,-1,1301,806,0,0
84,218,0,0,0,0,0,0,0,0,0,-1,1308,806,0,0
91,218,0,0,0,0,0,0,0,0,0,-1,1315,806,0,0
98,218,0,0,0,0,0,0,0,0,0,-1,1322,806,0,0
105,218,0,0,0,0,0,0,0,0,0,-1,1329,806,0,0
112,218,0,0,0,0,0,0,0,0,0,-1,1336,806,0,0
119,218,0,0,0,0,0,0,0,0,0,-1,1343,806,0,0
126,218,0,0,0,0,0,0,0,0,0,-1,1350,806,0,0
133,218,0,0,0,0,0,0,0,0,0,-1,1357,806,0,0
140,218,0,0,0,0,0,0,0,0,0,-1,1364,806,0,0
147,218,0,0,0,0,0,0,0,0,0,-1,1371,806,0,0
154,218,0,0,0,0,0,0,0,0,0,-1,1378,806,0,0
161,218,0,0,0,0,0,0,0,0,0,-1,1385,806,0,0
168,218,0,0,0,0,0,0,0,0,0,-1,1392,806,0,0
175,218,0,0,0,0,0,0,0,0,0,-1,1399,806,0,0
182,218,0,0,0,0,0,0,0,0,0,-1,1406,806,0,0
189,218,0,0,0,0,0,0,0,0,0,-1,1413,806,0,0
196,218,0,0,0,0,0,0,0,0,0,-1,1420,806,0,0
203,218,0,0,0,0,0,0,0,0,0,-1,1427,806,0,0
210,218,0,0,0,0,0,0,0,0,0,-1,1434,806,0,0
217,218,0,0,0,0,0,0,0,0,0,-1,1441,806,0,0
224,218,0,0,0,0,0,0,0,0,0,-1,1448,806,0,0
231,218,0,0,0,0,0,0,0,0,0,-1,1455,806,0,0
238,218,0,0,0,0,0,0,0,0,0,-1,1462,806,0,0
245,218,0,0,0,0,0,0,0,0,0,-1,1469,806,0,0
252,218,0,0,0,0,0,0,0,0,0,-1,1476,806,0,0
259,218,0,0,0,0,0,0,0,0,0,-1,1483,806,0,0
266,218,0,0,0,0,0,0,0,0,0,-1,1490,806,0,0
273,218,0,0,0,0,0,0,0,0,0,-1,1497,806,0,0
280,218,0,0,0,0,0,0,0,0,0,-1,1504,806,0,0
287,218,0,0,0,0,0,0,0,0,0,-1,1511,806,0,0
294,218,0,0,0,0,0,0,0,0,0,-1,1518,806,0,0
301,218,0,0,0,0,0,0,0,0,0,-1,1525,806,0,0
308,218,0,0,0,0,0,0,0,0,0,-1,1532,806,0,0
315,218,0,0,0,0,0,0,0,0,0,-1,1539,806,0,0
322,218,0,0,0,0,0,0,0,0,0,-1,1546,806,0,0
329,218,0,0,0,0,0,0,0,0,0,-1,1553,806,0,0
336,218,0,0,0,0,0,0,0,0,0,-1,1560,806,0,0
343,218,0,0,0,0,0,0,0,0,0,-1,1567,806,0,0
350,218,0,0,0,0,0,0,0,0,0,-1,1574,806,0,0
357,218,0,0,0,0,0,0,0,0,0,-1,1581,806,0,0
364,218,0,0,0,0,0,0,0,0,0,-1,1588,806,0,0
371,218,0,0,0,0,0,0,0,0,0,-1,1595,806,0,0
378,218,0,0,0,0,0,0,0,0,0,-1,1602,806,0,0
385,218,0,0,0,0,0,0,0,0,0,-1,1609,806,0,0
392,218,0,0,0,0,0,0,0,0,0,-1,1616,806,0,0
399,218,0,0,0,0,0,0,0,0,0,-1,1623,806,0,0
406,218,0,0,0,0,0,0,0,0,0,-1,1630,806,0,0
413,218,0,0,0,0,0,0,0,0,0,-1,1637,806,0,0
420,218,0,0,0,0,0,0,0,0,0,-1,1644,806,0,0
427,218,0,0,0,0,0,0,0,0,0,-1,1651,806,0,0
434,218,0,0,0,0,0,0,0,0,0,-1,1658,806,0,0
441,218,0,0,0,0,0,0,0,0,0,-1,1665,806,0,0
448,218,0,0,0,0,0,0,0,0,0,-1,1672,806,0,0
455,218,0,0,0,0,0,0,0,0,0,-1,1679,806,0,0
462,218,0,0,0,0,0,0,0,0,0,-1,1686,806,0,0
469,218,0,0,0,0,0,0,0,0,0,-1,1693,806,0,0
476,218,0,0,0,0,0,0,0,0,0,-1,1700,806,0,0
483,218,0,0,0,0,0,0,0,0,0,-1,1707,806,0,0
490,218,0,0,0,0,0,0,0,0,0,-1,1714,806,0,0
497,218,0,0,0,0,0,0,0,0,0,-1,1721,806,0,0
504,218,0,0,0,0,0,0,0,0,0,-1,1728,806,0,0
511,218,0,0,0,0,0,0,0,0,0,-1,1735,806,0,0
518,218,0,0,0,0,0,0,0,0,0,-1,1742,806,0,0
525,218,0,0,0,0,0,0,0,0,0,-1,1749,806,0,0
532,218,0,0,0,0,0,0,0,0,0,-1,1756,806,0,0
539,218,0,0,0,0,0,0,0,0,0,-1,1763,806,0,0
546,218,0,0,0,0,0,0,0,0,0,-1,1770,806,0,0
553,218,0,0,0,0,0,0,0,0,0,-1,1777,806,0,0
560,218,0,0,0,0,0,0,0,0,0,-1,1784,806,0,0
567,218,0,0,0,0,0,0,0,0,0,-1,1791,806,0,0
574,218,0,0,0,0,0,0,0,0,0,-1,1798,806,0,0
581,218,0,0,0,0,0,0,0,0,0,-1,1805,806,0,0
588,218,0,0,0,0,0,0,0,0,0,-1,1812,806,0,0
595,218,15.8574,2.34937,0.00142547,0.0023258,-0.00101672,0.00298755,0.000763718,-0.993808,0.00179221,0.0369915,1819,806,15.8574,-2.34936
602,218,15.7974,2.48236,-0.000729348,-0.00108044,-0.00233018,0.00143189,-0.00324168,-0.747801,0.0027649,0.0356622,1826,806,15.7973,-2.48234
609,218,15.8099,2.435,-0.0018652,-0.00409149,-0.0034662,0.000662212,-0.0066189,-0.630029,0.00464909,0.0328918,1833,806,15.81,-2.43498
616,218,15.7598,2.42175,-0.00222517,-0.00626153,-0.00425725,0.000468048,-0.00895475,-0.564058,0.0061318,0.0320249,1840,806,15.7598,-2.42177
623,218,15.7648,2.42285,-0.00240075,-0.00761114,-0.00494899,0.000586862,-0.0105988,-0.543122,0.00726936,0.0342265,1847,806,15.7648,-2.42288
630,218,15.8685,2.36267,-0.0023901,-0.00825231,-0.00539912,0.000822234,-0.0114646,-0.536716,0.0079314,0.0375059,1854,806,15.8685,-2.3627
637,218,15.8494,2.35413,-0.00227384,-0.008297,-0.00555945,0.00103732,-0.0116082,-0.537172,0.00810671,0.0401676,1861,806,15.8493,-2.35415
644,218,12.6678,1.638,0,0,0,0,0,0,0,-1,1868,806,12.6679,-1.63801
651,218,12.4012,1.67938,-0.00210988,-0.00770923,-0.0053877,0.00116214,-0.0109812,-0.545779,0.00773736,0.0442055,1875,806,12.4013,-1.6794
658,218,12.1624,1.68835,-0.00173644,-0.00695663,-0.0051737,0.00144827,-0.0101413,-0.55178,0.00729175,0.0416649,1882,806,12.1624,-1.68836
665,218,12.2241,1.60016,-0.00153392,-0.00595139,-0.00481998,0.00155929,-0.0090446,-0.570553,0.00661108,0.0270153,1889,806,12.2242,-1.60013
672,218,12.1931,1.70972,-0.00143445,-0.00486634,-0.00450072,0.00166634,-0.00796713,-0.603274,0.00594522,0.010806,1896,806,12.1931,-1.70973
679,218,12.1943,1.90662,-0.00165467,-0.00376866,-0.00412098,0.00154271,-0.00696604,-0.659859,0.0052346,0.0107054,1903,806,12.1943,-1.90661
686,218,12.2019,2.06256,-0.00177926,-0.00270784,-0.00369027,0.00147581,-0.00596291,-0.722819,0.00454775,0.0104898,1910,806,12.2019,-2.06257
693,218,12.2007,2.22235,-0.00152773,-0.00230315,-0.00319472,0.00130271,-0.0051336,-0.725013,0.00392929,0.0108929,1917,806,12.2007,-2.22236
700,218,12.1891,2.37451,-0.00170816,-0.00148776,-0.00264593,0.00105027,-0.00424618,-0.806211,0.00323816,0.00938616,1924,806,12.1891,-2.3745
707,218,12.1724,2.52112,-0.00257112,-0.000945181,-0.00250887,0.00087915,-0.00439545,-0.942079,0.00326307,0.00736033,1931,806,12.1724,-2.52109
714,218,12.1824,2.66736,-0.00360576,-0.00120261,-0.00261362,0.000472405,-0.00528078,-1.00086,0.00368809,0.00938083,1938,806,12.1824,-2.66734
721,218,12.215,2.83087,-0.0051884,-0.0016279,-0.00307764,0.000147292,-0.00696359,-1.04761,0.00469226,0.012227,1945,806,12.215,-2.83089
728,218,12.2438,2.979,-0.00769321,-0.00239179,-0.00380923,-0.000401763,-0.00968324,-1.08937,0.00632583,0.0182823,1952,806,12.2438,-2.979
735,218,12.2469,3.14923,-0.0114329,-0.00354167,-0.0047427,-0.00131792,-0.0136567,-1.13235,0.00869848,0.0335531,1959,806,12.2469,-3.14924
742,218,12.2717,3.34497,-0.0164691,-0.00517671,-0.00567328,-0.0028188,-0.018827,-1.1769,0.0117252,0.0460543,1966,806,12.2717,-3.34498
749,218,12.3018,3.45288,-0.0232134,-0.00742873,-0.00649651,-0.00509885,-0.0255433,-1.22645,0.0156093,0.0487327,1973,806,12.3017,-3.45287
756,218,12.2981,3.44598,0,0,0,0,0,0,0,-1,1980,806,12.2981,-3.44598
763,218,10.4514,4.23767,0,0,0,0,0,0,0,-1,1987,806,10.4514,-4.23768
770,218,0,0,0,0,0,0,0,0,0,-1,1994,806,0,0
777,218,0,0,0,0,0,0,0,0,0,-1,2001,806,0,0
784,218,0,0,0,0,0,0,0,0,0,-1,2008,806,0,0
791,218,0,0,0,0,0,0,0,0,0,-1,2015,806,0,0
798,218,0,0,0,0,0,0,0,0,0,-1,2022,806,0,0
805,218,0,0,0,0,0,0,0,0,0,-1,2029,806,0,0
812,218,0,0,0,0,0,0,0,0,0,-1,2036,806,0,0
-700,211,0,0,0,0,0,0,0,0,0,-1,524,813,0,0
-693,211,0,0,0,0,0,0,0,0,0,-1,531,813,0,0
-686,211,0,0,0,0,0,0,0,0,0,-1,538,813,0,0
-679,211,0,0,0,0,0,0,0,0,0,-1,545,813,0,0
-672,211,0,0,0,0,0,0,0,0,0,-1,552,813,0,0
-665,211,0,0,0,0,0,0,0,0,0,-1,559,813,0,0
-658,211,0,0,0,0,0,0,0,0,0,-1,566,813,0,0
-651,211,-7.17657,3.89716,-0.00528443,0.124669,0.0347848,0.133394,-0.0140095,1.32504,0.0939482,0.0488547,573,813,-7.17659,-3.89715
-644,211,-7.11108,3.87146,-0.00205227,0.0949414,0.0312447,0.104135,-0.0112458,1.28463,0.0734593,0.0469992,580,813,-7.11107,-3.87148
-637,211,-7.11554,3.83069,-0.000169688,0.0704874,0.0273966,0.0798655,-0.00954773,1.24099,0.0566948,0.0472026,587,813,-7.11551,-3.83068
-630,211,-7.38678,1.0741,0,0,0,0,0,0,0,-1,594,813,-7.38677,-1.07409
-623,211,-7.4986,1.10522,0,0,0,0,0,0,0,-1,601,813,-7.49861,-1.1052
-616,211,-7.5155,1.27094,0.00129495,0.0221068,0.0155557,0.0304162,-0.00701447,1.08019,0.0229754,0.0474457,608,813,-7.51549,-1.27096
-609,211,-7.24414,1.04376,0.000911557,0.013424,0.0120328,0.0207298,-0.00639422,1.02513,0.0163729,0.0383884,615,813,-7.24413,-1.04377
-602,211,-7.21283,0.992798,0.000743713,0.00652401,0.00906284,0.0131464,-0.00587865,0.939751,0.0112481,0.0192826,622,813,-7.2128,-0.992824
-595,211,-7.22723,0.909729,0.000262818,0.00155223,0.00659737,0.00753633,-0.00572127,0.834104,0.00767815,0.0101481,629,813,-7.22724,-0.90973
-588,211,-7.22882,0.792114,-0.000470253,-0.00100313,0.00450187,0.00377305,-0.00524643,0.755841,0.00523051,0.0107966,636,813,-7.22882,-0.792111
-581,211,-7.22656,0.649963,-0.00104454,-0.00134527,0.00315068,0.00195936,-0.00434917,0.761554,0.00372833,0.0110986,643,813,-7.22655,-0.64999
-574,211,-7.2326,0.510498,-0.00185193,-0.00079047,0.00224662,0.000987255,-0.00362966,0.90139,0.00280733,0.0124324,650,813,-7.23258,-0.510494
-567,211,-7.22217,0.379272,-0.00274684,-9.68132e-05,0.00203578,0.00100718,-0.00385083,1.07389,0.00296062,0.0186135,657,813,-7.22219,-0.379246
-560,211,-7.20923,0.235352,-0.00367902,0.000359156,0.0021096,0.00126019,-0.00458005,1.16714,0.00354882,0.0194762,664,813,-7.2092,-0.235334
-553,211,-7.20593,0.102783,-0.0044278,0.000777285,0.00279568,0.0019943,-0.00564482,1.16022,0.00457524,0.0175223,671,813,-7.20595,-0.102767
-546,211,-7.22711,0.00720215,-0.00535474,0.00116345,0.00359361,0.00275571,-0.00694701,1.15371,0.00577346,0.018759,678,813,-7.22708,-0.00722731
-539,211,-7.24127,-0.16571,-0.00606162,0.00131952,0.00415305,0.00318486,-0.00792696,1.14865,0.00660728,0.0134658,685,813,-7.24126,0.165738
-532,211,-7.39276,-0.264771,-0.00657219,0.0016934,0.00468367,0.00380694,-0.00868573,1.1469,0.00739371,0.0400635,692,813,-7.39276,0.264795
-525,211,-7.34619,-0.0873413,-0.00700251,0.00208493,0.00517907,0.00443093,-0.0093485,1.14547,0.00812267,0.0496338,699,813,-7.34617,0.0873375
-518,211,-7.91547,-0.122009,0,0,0,0,0,0,0,-1,706,813,-7.91547,0.121983
-511,211,-9.00604,0.537537,0,0,0,0,0,0,0,-1,713,813,-9.00607,-0.537549
-504,211,-9.25763,1.43591,0,0,0,0,0,0,0,-1,720,813,-9.25766,-1.43589
-497,211,-9.5827,1.06335,-0.00414918,0.00404648,0.00271774,0.0048658,-0.00496849,1.27799,0.00567793,0.0486763,727,813,-9.58271,-1.06333
-490,211,-9.86224,0.710083,-0.00199971,0.00458207,0.000515416,0.00462219,-0.00203983,1.49312,0.00394146,0.0345581,734,813,-9.86225,-0.710102
-483,211,-9.92169,0.645935,0.000612529,0.00531879,-0.00256213,0.00644442,-0.000513097,-1.15685,0.00447712,0.0300261,741,813,-9.92167,-0.645918
-476,211,-10.0573,0.609802,0.00355357,0.00641019,-0.00625453,0.0113974,-0.00143367,-0.897655,0.00811847,0.0358516,748,813,-10.0572,-0.609786
-469,211,0,0,0,0,0,0,0,0,0,-1,755,813,0,0
-462,211,0,0,0,0,0,0,0,0,0,-1,762,813,0,0
-455,211,0,0,0,0,0,0,0,0,0,-1,769,813,0,0
-448,211,0,0,0,0,0,0,0,0,0,-1,776,813,0,0
-441,211,0,0,0,0,0,0,0,0,0,-1,783,813,0,0
-434,211,0,0,0,0,0,0,0,0,0,-1,790,813,0,0
-427,211,0,0,0,0,0,0,0,0,0,-1,797,813,0,0
-420,211,0,0,0,0,0,0,0,0,0,-1,804,813,0,0
-413,211,0,0,0,0,0,0,0,0,0,-1,811,813,0,0
-406,211,0,0,0,0,0,0,0,0,0,-1,818,813,0,0
-399,211,0,0,0,0,0,0,0,0,0,-1,825,813,0,0
-392,211,0,0,0,0,0,0,0,0,0,-1,832,813,0,0
-385,211,0,0,0,0,0,0,0,0,0,-1,839,813,0,0
-378,211,0,0,0,0,0,0,0,0,0,-1,846,813,0,0
-371,211,0,0,0,0,0,0,0,0,0,-1,853,813,0,0
-364,211,0,0,0,0,0,0,0,0,0,-1,860,813,0,0
-357,211,0,0,0,0,0,0,0,0,0,-1,867,813,0,0
-350,211,0,0,0,0,0,0,0,0,0,-1,874,813,0,0
-343,211,0,0,0,0,0,0,0,0,0,-1,881,813,0,0
-336,211,0,0,0,0,0,0,0,0,0,-1,888,813,0,0
-329,211,0,0,0,0,0,0,0,0,0,-1,895,813,0,0
-322,211,0,0,0,0,0,0,0,0,0,-1,902,813,0,0
-315,211,0,0,0,0,0,0,0,0,0,-1,909,813,0,0
-308,211,0,0,0,0,0,0,0,0,0,-1,916,813,0,0
-301,211,0,0,0,0,0,0,0,0,0,-1,923,813,0,0
-294,211,0,0,0,0,0,0,0,0,0,-1,930,813,0,0
-287,211,0,0,0,0,0,0,0,0,0,-1,937,813,0,0
-280,211,0,0,0,0,0,0,0,0,0,-1,944,813,0,0
-273,211,0,0,0,0,0,0,0,0,0,-1,951,813,0,0
-266,211,0,0,0,0,0,0,0,0,0,-1,958,813,0,0
-259,211,0,0,0,0,0,0,0,0,0,-1,965,813,0,0
-252,211,0,0,0,0,0,0,0,0,0,-1,972,813,0,0
-245,211,0,0,0,0,0,0,0,0,0,-1,979,813,0,0
-238,211,0,0,0,0,0,0,0,0,0,-1,986,813,0,0
-231,211,0,0,0,0,0,0,0,0,0,-1,993,813,0,0
-224,211,0,0,0,0,0,0,0,0,0,-1,1000,813,0,0
-217,211,0,0,0,0,0,0,0,0,0,-1,1007,813,0,0
-210,211,0,0,0,0,0,0,0,0,0,-1,1014,813,0,0
-203,211,0,0,0,0,0,0,0,0,0,-1,1021,813,0,0
-196,211,0,0,0,0,0,0,0,0,0,-1,1028,813,0,0
-189,211,0,0,0,0,0,0,0,0,0,-1,1035,813,0,0
-182,211,0,0,0,0,0,0,0,0,0,-1,1042,813,0,0
-175,211,0,0,0,0,0,0,0,0,0,-1,1049,813,0,0
-168,211,0,0,0,0,0,0,0,0,0,-1,1056,813,0,0
-161,211,0,0,0,0,0,0,0,0,0,-1,1063,813,0,0
-154,211,0,0,0,0,0,0,0,0,0,-1,1070,813,0,0
-147,211,0,0,0,0,0,0,0,0,0,-1,1077,813,0,0
-140,211,0,0,0,0,0,0,0,0,0,-1,1084,813,0,0
-133,211,0,0,0,0,0,0,0,0,0,-1,1091,813,0,0
-126,211,0,0,0,0,0,0,0,0,0,-1,1098,813,0,0
-119,211,0,0,0,0,0,0,0,0,0,-1,1105,813,0,0
-112,211,0,0,0,0,0,0,0,0,0,-1,1112,813,0,0
-105,211,0,0,0,0,0,0,0,0,0,-1,1119,813,0,0
-98,211,0,0,0,0,0,0,0,0,0,-1,1126,813,0,0
-91,211,0,0,0,0,0,0,0,0,0,-1,1133,813,0,0
-84,211,0,0,0,0,0,0,0,0,0,-1,1140,813,0,0
-77,211,0,0,0,0,0,0,0,0,0,-1,1147,813,0,0
-70,211,0,0,0,0,0,0,0,0,0,-1,1154,813,0,0
-63,211,0,0,0,0,0,0,0,0,0,-1,1161,813,0,0
-56,211,0,0,0,0,0,0,0,0,0,-1,1168,813,0,0
-49,211,0,0,0,0,0,0,0,0,0,-1,1175,813,0,0
-42,211,0,0,0,0,0,0,0,0,0,-1,1182,813,0,0
-35,211,0,0,0,0,0,0,0,0,0,-1,1189,813,0,0
-28,211,0,0,0,0,0,0,0,0,0,-1,1196,813,0,0
-21,211,0,0,0,0,0,0,0,0,0,-1,1203,813,0,0
-14,211,0,0,0,0,0,0,0,0,0,-1,1210,813,0,0
-7,211,0,0,0,0,0,0,0,0,0,-1,1217,813,0,0
0,211,0,0,0,0,0,0,0,0,0,-1,1224,813,0,0
7,211,0,0,0,0,0,0,0,0,0,-1,1231,813,0,0
14,211,0,0,0,0,0,0,0,0,0,-1,1238,813,0,0
21,211,0,0,0,0,0,0,0,0,0,-1,1245,813,0,0
28,211,0,0,0,0,0,0,0,0,0,-1,1252,813,0,0
35,211,0,0,0,0,0,0,0,0,0,-1,1259,813,0,0
42,211,0,0,0,0,0,0,0,0,0,-1,1266,813,0,0
49,211,0,0,0,0,0,0,0,0,0,-1,1273,813,0,0
56,211,0,0,0,0,0,0,0,0,0,-1,1280,813,0,0
63,211,0,0,0,0,0,0,0,0,0,-1,1287,813,0,0
70,211,0,0,0,0,0,0,0,0,0,-1,1294,813,0,0
77,211,0,0,0,0,0,0,0,0,0,-1,1301,813,0,0
84,211,0,0,0,0,0,0,0,0,0,-1,1308,813,0,0
91,211,0,0,0,0,0,0,0,0,0,-1,1315,813,0,0
98,211,0,0,0,0,0,0,0,0,0,-1,1322,813,0,0
105,211,0,0,0,0,0,0,0,0,0,-1,1329,813,0,0
112,211,0,0,0,0,0,0,0,0,0,-1,1336,813,0,0
119,211,0,0,0,0,0,0,0,0,0,-1,1343,813,0,0
126,211,0,0,0,0,0,0,0,0,0,-1,1350,813,0,0
133,211,0,0,0,0,0,0,0,0,0,-1,1357,813,0,0
140,211,0,0,0,0,0,0,0,0,0,-1,1364,813,0,0
147,211,0,0,0,0,0,0,0,0,0,-1,1371,813,0,0
154,211,0,0,0,0,0,0,0,0,0,-1,1378,813,0,0
161,211,0,0,0,0,0,0,0,0,0,-1,1385,813,0,0
168,211,0,0,0,0,0,0,0,0,0,-1,1392,813,0,0
175,211,0,0,0,0,0,0,0,0,0,-1,1399,813,0,0
182,211,0,0,0,0,0,0,0,0,0,-1,1406,813,0,0
189,211,0,0,0,0,0,0,0,0,0,-1,1413,813,0,0
196,211,0,0,0,0,0,0,0,0,0,-1,1420,813,0,0
203,211,0,0,0,0,0,0,0,0,0,-1,1427,813,0,0
210,211,0,0,0,0,0,0,0,0,0,-1,1434,813,0,0
217,211,0,0,0,0,0,0,0,0,0,-1,1441,813,0,0
224,211,0,0,0,0,0,0,0,0,0,-1,1448,813,0,0
231,211,0,0,0,0,0,0,0,0,0,-1,1455,813,0,0
238,211,0,0,0,0,0,0,0,0,0,-1,1462,813,0,0
245,211,0,0,0,0,0,0,0,0,0,-1,1469,813,0,0
252,211,0,0,0,0,0,0,0,0,0,-1,1476,813,0,0
259,211,0,0,0,0,0,0,0,0,0,-1,1483,813,0,0
266,211,0,0,0,0,0,0,0,0,0,-1,1490,813,0,0
273,211,0,0,0,0,0,0,0,0,0,-1,1497,813,0,0
280,211,0,0,0,0,0,0,0,0,0,-1,1504,813,0,0
287,211,0,0,0,0,0,0,0,0,0,-1,1511,813,0,0
294,211,0,0,0,0,0,0,0,0,0,-1,1518,813,0,0
301,211,0,0,0,0,0,0,0,0,0,-1,1525,813,0,0
308,211,0,0,0,0,0,0,0,0,0,-1,1532,813,0,0
315,211,0,0,0,0,0,0,0,0,0,-1,1539,813,0,0
322,211,0,0,0,0,0,0,0,0,0,-1,1546,813,0,0
329,211,0,0,0,0,0,0,0,0,0,-1,1553,813,0,0
336,211,0,0,0,0,0,0,0,0,0,-1,1560,813,0,0
343,211,0,0,0,0,0,0,0,0,0,-1,1567,813,0,0
350,211,0,0,0,0,0,0,0,0,0,-1,1574,813,0,0
357,211,0,0,0,0,0,0,0,0,0,-1,1581,813,0,0
364,211,0,0,0,0,0,0,0,0,0,-1,1588,813,0,0
371,211,0,0,0,0,0,0,0,0,0,-1,1595,813,0,0
378,211,0,0,0,0,0,0,0,0,0,-1,1602,813,0,0
385,211,0,0,0,0,0,0,0,0,0,-1,1609,813,0,0
392,211,0,0,0,0,0,0,0,0,0,-1,1616,813,0,0
399,211,0,0,0,0,0,0,0,0,0,-1,1623,813,0,0
406,211,0,0,0,0,0,0,0,0,0,-1,1630,813,0,0
413,211,0,0,0,0,0,0,0,0,0,-1,1637,813,0,0
420,211,0,0,0,0,0,0,0,0,0,-1,1644,813,0,0
427,211,0,0,0,0,0,0,0,0,0,-1,1651,813,0,0
434,211,0,0,0,0,0,0,0,0,0,-1,1658,813,0,0
441,211,0,0,0,0,0,0,0,0,0,-1,1665,813,0,0
448,211,0,0,0,0,0,0,0,0,0,-1,1672,813,0,0
455,211,0,0,0,0,0,0,0,0,0,-1,1679,813,0,0
462,211,0,0,0,0,0,0,0,0,0,-1,1686,813,0,0
469,211,0,0,0,0,0,0,0,0,0,-1,1693,813,0,0
476,211,0,0,0,0,0,0,0,0,0,-1,1700,813,0,0
483,211,0,0,0,0,0,0,0,0,0,-1,1707,813,0,0
490,211,0,0,0,0,0,0,0,0,0,-1,1714,813,0,0
497,211,0,0,0,0,0,0,0,0,0,-1,1721,813,0,0
504,211,0,0,0,0,0,0,0,0,0,-1,1728,813,0,0
511,211,0,0,0,0,0,0,0,0,0,-1,1735,813,0,0
518,211,0,0,0,0,0,0,0,0,0,-1,1742,813,0,0
525,211,0,0,0,0,0,0,0,0,0,-1,1749,813,0,0
532,211,0,0,0,0,0,0,0,0,0,-1,1756,813,0,0
539,211,0,0,0,0,0,0,0,0,0,-1,1763,813,0,0
546,211,0,0,0,0,0,0,0,0,0,-1,1770,813,0,0
553,211,0,0,0,0,0,0,0,0,0,-1,1777,813,0,0
560,211,0,0,0,0,0,0,0,0,0,-1,1784,813,0,0
567,211,0,0,0,0,0,0,0,0,0,-1,1791,813,0,0
574,211,0,0,0,0,0,0,0,0,0,-1,1798,813,0,0
581,211,0,0,0,0,0,0,0,0,0,-1,1805,813,0,0
588,211,0,0,0,0,0,0,0,0,0,-1,1812,813,0,0
595,211,15.8779,2.13837,0.000348657,0.00357911,0.00119373,0.00397235,-4.45824e-05,1.25257,0.00266322,0.0393236,1819,813,15.8779,-2.13839
602,211,15.7904,2.49072,-0.000542841,0.000416455,0.000418269,0.000573212,-0.000699598,1.21222,0.000736064,0.0370172,1826,813,15.7904,-2.49072
609,211,15.7277,2.6131,-0.000773369,-0.00263303,-0.000680045,-0.000551225,-0.00285517,-0.315734,0.00174891,0.0384583,1833,813,15.7277,-2.61313
616,211,15.7179,2.4834,-0.000584162,-0.00484824,-0.00172794,2.81315e-05,-0.00546054,-0.340544,0.00364977,0.0309132,1840,813,15.7179,-2.48337
623,211,15.7567,2.43103,-0.000515139,-0.0062871,-0.00281949,0.00063353,-0.00743577,-0.386872,0.00518128,0.0314085,1847,813,15.7568,-2.43102
630,211,15.9038,2.31342,-0.000577105,-0.00704652,-0.00368152,0.00108889,-0.00871251,-0.424956,0.00620325,0.0376056,1854,813,15.9038,-2.31341
637,211,16.0774,2.17035,-0.000658348,-0.00723347,-0.00424537,0.00142357,-0.00931538,-0.455935,0.00673511,0.0423588,1861,813,16.0774,-2.17036
644,211,16.1813,2.08618,-0.000862744,-0.00711726,-0.00458055,0.00155627,-0.00953628,-0.485879,0.00693473,0.0419283,1868,813,16.1813,-2.08618
651,211,12.4374,1.90674,0,0,0,0,0,0,0,-1,1875,813,12.4374,-1.90675
658,211,12.2634,1.6189,-0.00103265,-0.00625343,-0.00483401,0.00185076,-0.00913684,-0.53783,0.00679272,0.0480604,1882,813,12.2634,-1.61887
665,211,12.3441,1.71851,-0.00112718,-0.00548467,-0.00468034,0.00185668,-0.00846854,-0.56756,0.00635564,0.0435345,1889,813,12.3442,-1.71851
672,211,12.353,1.73163,-0.00133527,-0.00462425,-0.00451726,0.00182753,-0.00778705,-0.610832,0.00589573,0.0166043,1896,813,12.353,-1.73161
679,211,12.3525,1.89935,-0.00177628,-0.00369744,-0.00428589,0.00165536,-0.00712908,-0.675157,0.00538991,0.0116928,1903,813,12.3525,-1.89936
686,211,12.3564,2.07019,-0.00203669,-0.00277363,-0.00397778,0.00158965,-0.00639997,-0.739214,0.00488355,0.00999959,1910,813,12.3564,-2.07018
693,211,12.3466,2.21295,-0.00183899,-0.00235799,-0.00349141,0.00140255,-0.00559953,-0.748303,0.00427788,0.010494,1917,813,12.3466,-2.21296
700,211,12.2913,2.34436,-0.00202941,-0.00154693,-0.00289736,0.00111921,-0.00469555,-0.826934,0.00356253,0.0131828,1924,813,12.2913,-2.34437
707,211,12.2891,2.52527,-0.00282705,-0.000881174,-0.00265928,0.000977566,-0.00468579,-0.960767,0.00349558,0.0205478,1931,813,12.289,-2.52527
714,211,12.3435,2.71289,-0.00371892,-0.00101854,-0.0025802,0.000543388,-0.00528085,-1.02645,0.00371497,0.0220504,1938,813,12.3435,-2.7129
721,211,12.366,2.82056,-0.0051224,-0.00126164,-0.00282358,0.000228355,-0.0066124,-1.08524,0.00448632,0.0163485,1945,813,12.366,-2.82054
728,211,12.3872,2.95807,-0.00732846,-0.00177428,-0.003254,-0.000273435,-0.00882931,-1.13864,0.00579721,0.0151772,1952,813,12.3872,-2.95805
735,211,12.3688,3.07849,-0.0107282,-0.00258034,-0.00392283,-0.000998704,-0.0123099,-1.18754,0.00789475,0.0258364,1959,813,12.3688,-3.07849
742,211,12.3765,3.20306,-0.0153422,-0.00376015,-0.00459722,-0.00215723,-0.0169451,-1.23531,0.0106507,0.0476229,1966,813,12.3765,-3.20304
749,211,12.3881,3.31018,-0.0214775,-0.00539326,-0.00511602,-0.00390389,-0.0229669,-1.28751,0.0141901,0.0489313,1973,813,12.3881,-3.31016
756,211,10.9041,3.6142,-0.029534,-0.00759003,-0.00533658,-0.00636105,-0.030763,-1.34445,0.0187515,0.0443764,1980,813,10.9041,-3.61418
763,211,10.8024,4.2204,-0.0397261,-0.0104704,-0.00496975,-0.00964918,-0.0405473,-1.40704,0.0244581,0.0475143,1987,813,10.8023,-4.22041
770,211,10.7578,4.8905,0,0,0,0,0,0,0,-1,1994,813,10.7578,-4.89049
777,211,0,0,0,0,0,0,0,0,0,-1,2001,813,0,0
784,211,0,0,0,0,0,0,0,0,0,-1,2008,813,0,0
791,211,0,0,0,0,0,0,0,0,0,-1,2015,813,0,0
798,211,0,0,0,0,0,0,0,0,0,-1,2022,813,0,0
805,211,0,0,0,0,0,0,0,0,0,-1,2029,813,0,0
812,211,0,0,0,0,0,0,0,0,0,-1,2036,813,0,0
-700,204,0,0,0,0,0,0,0,0,0,-1,524,820,0,0
-693,204,0,0,0,0,0,0,0,0,0,-1,531,820,0,0
-686,204,0,0,0,0,0,0,0,0,0,-1,538,820,0,0
-679,204,0,0,0,0,0,0,0,0,0,-1,545,820,0,0
-672,204,0,0,0,0,0,0,0,0,0,-1,552,820,0,0
-665,204,0,0,0,0,0,0,0,0,0,-1,559,820,0,0
-658,204,0,0,0,0,0,0,0,0,0,-1,566,820,0,0
-651,204,-7.57727,2.9129,-0.000297033,0.110829,0.0337684,0.120286,-0.00975365,1.29775,0.0836316,0.0469797,573,820,-7.57725,-2.9129
-644,204,-7.55951,2.94849,0.00191694,0.0858264,0.0295086,0.0951645,-0.00742117,1.26431,0.0660558,0.0443828,580,820,-7.5595,-2.94849
-637,204,-7.50757,2.96533,0.00316473,0.0646139,0.0252998,0.0736898,-0.00591122,1.22636,0.0512108,0.0469628,587,820,-7.5076,-2.96532
-630,204,-7.94635,0.124695,0,0,0,0,0,0,0,-1,594,820,-7.94632,-0.124674
-623,204,-8.409,1.10016,0,0,0,0,0,0,0,-1,601,820,-8.40898,-1.10015
-616,204,-7.17944,1.15308,0,0,0,0,0,0,0,-1,608,820,-7.17946,-1.15306
-609,204,-7.26263,1.10046,0.00265777,0.013197,0.0105687,0.0197369,-0.00388223,1.01666,0.0146248,0.033046,615,820,-7.26262,-1.10046
-602,204,-7.336,1.03485,0.00223089,0.00660575,0.00787222,0.0125888,-0.00375215,0.920913,0.00988358,0.0137993,622,820,-7.33602,-1.03484
-595,204,-7.36163,0.919434,0.00146276,0.00179228,0.00570996,0.00733985,-0.00408482,0.799822,0.00668468,0.0133442,629,820,-7.36163,-0.919413
-588,204,-7.37103,0.775085,0.000377355,-0.000787667,0.00395413,0.00379165,-0.00420196,0.712266,0.00461714,0.0122563,636,820,-7.37103,-0.775074
-581,204,-7.36176,0.633789,-0.000609074,-0.0011977,0.00280676,0.00191876,-0.00372554,0.73316,0.00331393,0.0121792,643,820,-7.36178,-0.633789
-574,204,-7.36682,0.503784,-0.00177482,-0.000763073,0.00203308,0.000826127,-0.00336402,0.907332,0.00256283,0.013127,650,820,-7.36679,-0.503754
-567,204,-7.35461,0.38678,-0.00291455,-6.82302e-05,0.00190416,0.000885837,-0.00386862,1.10631,0.0029195,0.0128856,657,820,-7.3546,-0.386765
-560,204,-7.35187,0.236206,-0.00401041,0.000412663,0.00205462,0.00121979,-0.00481754,1.19648,0.00368619,0.0119841,664,820,-7.35189,-0.236235
-553,204,-7.33392,0.0992432,-0.00487542,0.000958937,0.00275407,0.00205359,-0.00597008,1.19247,0.00481291,0.009504,671,820,-7.3339,-0.0992239
-546,204,-7.34973,0.00170898,-0.00578124,0.0014722,0.00354181,0.00291475,-0.00722379,1.18402,0.00602714,0.0131192,678,820,-7.34972,-0.00169474
-539,204,-7.40442,-0.139771,-0.00640765,0.00178649,0.00407171,0.00346565,-0.0080868,1.17965,0.00684538,0.0225066,685,820,-7.40441,0.139792
-532,204,-7.40875,-0.297424,0,0,0,0,0,0,0,-1,692,820,-7.40873,0.29742
-525,204,-9.29492,1.23785,0,0,0,0,0,0,0,-1,699,820,-9.29493,-1.23786
-518,204,-9.38794,1.27411,-0.00695887,0.00370317,0.00516092,0.00579204,-0.00904775,1.1862,0.00863621,0.0457234,706,820,-9.38791,-1.27409
-511,204,-9.51501,1.16516,-0.00646055,0.00433042,0.00488289,0.00621188,-0.00834201,1.20301,0.00843264,0.0476287,713,820,-9.51504,-1.16519
-504,204,-9.52173,1.15143,-0.00545913,0.00492099,0.0040983,0.00634401,-0.00688215,1.2366,0.00763823,0.0463387,720,820,-9.52171,-1.15145
-497,204,-9.70044,0.962769,-0.00383952,0.00544418,0.0025636,0.00610504,-0.00450039,1.3185,0.00614637,0.0393559,727,820,-9.70047,-0.962786
-490,204,-9.89508,0.654785,-0.00152977,0.00590523,6.77776e-05,0.00590585,-0.00153039,1.56168,0.00453428,0.0339507,734,820,-9.89509,-0.654805
-483,204,-9.94299,0.544983,0.000963971,0.006444,-0.00353431,0.00817602,-0.000768045,-1.11513,0.0057239,0.0372262,741,820,-9.94296,-0.544959
-476,204,0,0,0,0,0,0,0,0,0,-1,748,820,0,0
-469,204,0,0,0,0,0,0,0,0,0,-1,755,820,0,0
-462,204,0,0,0,0,0,0,0,0,0,-1,762,820,0,0
-455,204,0,0,0,0,0,0,0,0,0,-1,769,820,0,0
-448,204,0,0,0,0,0,0,0,0,0,-1,776,820,0,0
-441,204,0,0,0,0,0,0,0,0,0,-1,783,820,0,0
-434,204,0,0,0,0,0,0,0,0,0,-1,790,820,0,0
-427,204,0,0,0,0,0,0,0,0,0,-1,797,820,0,0
-420,204,0,0,0,0,0,0,0,0,0,-1,804,820,0,0
-413,204,0,0,0,0,0,0,0,0,0,-1,811,820,0,0
-406,204,0,0,0,0,0,0,0,0,0,-1,818,820,0,0
-399,204,0,0,0,0,0,0,0,0,0,-1,825,820,0,0
-392,204,0,0,0,0,0,0,0,0,0,-1,832,820,0,0
-385,204,0,0,0,0,0,0,0,0,0,-1,839,820,0,0
-378,204,0,0,0,0,0,0,0,0,0,-1,846,820,0,0
-371,204,0,0,0,0,0,0,0,0,0,-1,853,820,0,0
-364,204,0,0,0,0,0,0,0,0,0,-1,860,820,0,0
-357,204,0,0,0,0,0,0,0,0,0,-1,867,820,0,0
-350,204,0,0,0,0,0,0,0,0,0,-1,874,820,0,0
-343,204,0,0,0,0,0,0,0,0,0,-1,881,820,0,0
-336,204,0,0,0,0,0,0,0,0,0,-1,888,820,0,0
-329,204,0,0,0,0,0,0,0,0,0,-1,895,820,0,0
-322,204,0,0,0,0,0,0,0,0,0,-1,902,820,0,0
-315,204,0,0,0,0,0,0,0,0,0,-1,909,820,0,0
-308,204,0,0,0,0,0,0,0,0,0,-1,916,820,0,0
-301,204,0,0,0,0,0,0,0,0,0,-1,923,820,0,0
-294,204,0,0,0,0,0,0,0,0,0,-1,930,820,0,0
-287,204,0,0,0,0,0,0,0,0,0,-1,937,820,0,0
-280,204,0,0,0,0,0,0,0,0,0,-1,944,820,0,0
-273,204,0,0,0,0,0,0,0,0,0,-1,951,820,0,0
-266,204,0,0,0,0,0,0,0,0,0,-1,958,820,0,0
-259,204,0,0,0,0,0,0,0,0,0,-1,965,820,0,0
-252,204,0,0,0,0,0,0,0,0,0,-1,972,820,0,0
-245,204,0,0,0,0,0,0,0,0,0,-1,979,820,0,0
-238,204,0,0,0,0,0,0,0,0,0,-1,986,820,0,0
-231,204,0,0,0,0,0,0,0,0,0,-1,993,820,0,0
-224,204,0,0,0,0,0,0,0,0,0,-1,1000,820,0,0
-217,204,0,0,0,0,0,0,0,0,0,-1,1007,820,0,0
-210,204,0,0,0,0,0,0,0,0,0,-1,1014,820,0,0
-203,204,0,0,0,0,0,0,0,0,0,-1,1021,820,0,0
-196,204,0,0,0,0,0,0,0,0,0,-1,1028,820,0,0
-189,204,0,0,0,0,0,0,0,0,0,-1,1035,820,0,0
-182,204,0,0,0,0,0,0,0,0,0,-1,1042,820,0,0
-175,204,0,0,0,0,0,0,0,0,0,-1,1049,820,0,0
-168,204,0,0,0,0,0,0,0,0,0,-1,1056,820,0,0
-161,204,0,0,0,0,0,0,0,0,0,-1,1063,820,0,0
-154,204,0,0,0,0,0,0,0,0,0,-1,1070,820,0,0
-147,204,0,0,0,0,0,0,0,0,0,-1,1077,820,0,0
-140,204,0,0,0,0,0,0,0,0,0,-1,1084,820,0,0
-133,204,0,0,0,0,0,0,0,0,0,-1,1091,820,0,0
-126,204,0,0,0,0,0,0,0,0,0,-1,1098,820,0,0
-119,204,0,0,0,0,0,0,0,0,0,-1,1105,820,0,0
-112,204,0,0,0,0,0,0,0,0,0,-1,1112,820,0,0
-105,204,0,0,0,0,0,0,0,0,0,-1,1119,820,0,0
-98,204,0,0,0,0,0,0,0,0,0,-1,1126,820,0,0
-91,204,0,0,0,0,0,0,0,0,0,-1,1133,820,0,0
-84,204,0,0,0,0,0,0,0,0,0,-1,1140,820,0,0
-77,204,0,0,0,0,0,0,0,0,0,-1,1147,820,0,0
-70,204,0,0,0,0,0,0,0,0,0,-1,1154,820,0,0
-63,204,0,0,0,0,0,0,0,0,0,-1,1161,820,0,0
-56,204,0,0,0,0,0,0,0,0,0,-1,1168,820,0,0
-49,204,0,0,0,0,0,0,0,0,0,-1,1175,820,0,0
-42,204,0,0,0,0,0,0,0,0,0,-1,1182,820,0,0
-35,204,0,0,0,0,0,0,0,0,0,-1,1189,820,0,0
-28,204,0,0,0,0,0,0,0,0,0,-1,1196,820,0,0
-21,204,0,0,0,0,0,0,0,0,0,-1,1203,820,0,0
-14,204,0,0,0,0,0,0,0,0,0,-1,1210,820,0,0
-7,204,0,0,0,0,0,0,0,0,0,-1,1217,820,0,0
0,204,0,0,0,0,0,0,0,0,0,-1,1224,820,0,0
7,204,0,0,0,0,0,0,0,0,0,-1,1231,820,0,0
14,204,0,0,0,0,0,0,0,0,0,-1,1238,820,0,0
21,204,0,0,0,0,0,0,0,0,0,-1,1245,820,0,0
28,204,0,0,0,0,0,0,0,0,0,-1,1252,820,0,0
35,204,0,0,0,0,0,0,0,0,0,-1,1259,820,0,0
42,204,0,0,0,0,0,0,0,0,0,-1,1266,820,0,0
49,204,0,0,0,0,0,0,0,0,0,-1,1273,820,0,0
56,204,0,0,0,0,0,0,0,0,0,-1,1280,820,0,0
63,204,0,0,0,0,0,0,0,0,0,-1,1287,820,0,0
70,204,0,0,0,0,0,0,0,0,0,-1,1294,820,0,0
77,204,0,0,0,0,0,0,0,0,0,-1,1301,820,0,0
84,204,0,0,0,0,0,0,0,0,0,-1,1308,820,0,0
91,204,0,0,0,0,0,0,0,0,0,-1,1315,820,0,0
98,204,0,0,0,0,0,0,0,0,0,-1,1322,820,0,0
105,204,0,0,0,0,0,0,0,0,0,-1,1329,820,0,0
112,204,0,0,0,0,0,0,0,0,0,-1,1336,820,0,0
119,204,0,0,0,0,0,0,0,0,0,-1,1343,820,0,0
126,204,0,0,0,0,0,0,0,0,0,-1,1350,820,0,0
133,204,0,0,0,0,0,0,0,0,0,-1,1357,820,0,0
140,204,0,0,0,0,0,0,0,0,0,-1,1364,820,0,0
147,204,0,0,0,0,0,0,0,0,0,-1,1371,820,0,0
154,204,0,0,0,0,0,0,0,0,0,-1,1378,820,0,0
161,204,0,0,0,0,0,0,0,0,0,-1,1385,820,0,0
168,204,0,0,0,0,0,0,0,0,0,-1,1392,820,0,0
175,204,0,0,0,0,0,0,0,0,0,-1,1399,820,0,0
182,204,0,0,0,0,0,0,0,0,0,-1,1406,820,0,0
189,204,0,0,0,0,0,0,0,0,0,-1,1413,820,0,0
196,204,0,0,0,0,0,0,0,0,0,-1,1420,820,0,0
203,204,0,0,0,0,0,0,0,0,0,-1,1427,820,0,0
210,204,0,0,0,0,0,0,0,0,0,-1,1434,820,0,0
217,204,0,0,0,0,0,0,0,0,0,-1,1441,820,0,0
224,204,0,0,0,0,0,0,0,0,0,-1,1448,820,0,0
231,204,0,0,0,0,0,0,0,0,0,-1,1455,820,0,0
238,204,0,0,0,0,0,0,0,0,0,-1,1462,820,0,0
245,204,0,0,0,0,0,0,0,0,0,-1,1469,820,0,0
252,204,0,0,0,0,0,0,0,0,0,-1,1476,820,0,0
259,204,0,0,0,0,0,0,0,0,0,-1,1483,820,0,0
266,204,0,0,0,0,0,0,0,0,0,-1,1490,820,0,0
273,204,0,0,0,0,0,0,0,0,0,-1,1497,820,0,0
280,204,0,0,0,0,0,0,0,0,0,-1,1504,820,0,0
287,204,0,0,0,0,0,0,0,0,0,-1,1511,820,0,0
294,204,0,0,0,0,0,0,0,0,0,-1,1518,820,0,0
301,204,0,0,0,0,0,0,0,0,0,-1,1525,820,0,0
308,204,0,0,0,0,0,0,0,0,0,-1,1532,820,0,0
315,204,0,0,0,0,0,0,0,0,0,-1,1539,820,0,0
322,204,0,0,0,0,0,0,0,0,0,-1,1546,820,0,0
329,204,0,0,0,0,0,0,0,0,0,-1,1553,820,0,0
336,204,0,0,0,0,0,0,0,0,0,-1,1560,820,0,0
343,204,0,0,0,0,0,0,0,0,0,-1,1567,820,0,0
350,204,0,0,0,0,0,0,0,0,0,-1,1574,820,0,0
357,204,0,0,0,0,0,0,0,0,0,-1,1581,820,0,0
364,204,0,0,0,0,0,0,0,0,0,-1,1588,820,0,0
371,204,0,0,0,0,0,0,0,0,0,-1,1595,820,0,0
378,204,0,0,0,0,0,0,0,0,0,-1,1602,820,0,0
385,204,0,0,0,0,0,0,0,0,0,-1,1609,820,0,0
392,204,0,0,0,0,0,0,0,0,0,-1,1616,820,0,0
399,204,0,0,0,0,0,0,0,0,0,-1,1623,820,0,0
406,204,0,0,0,0,0,0,0,0,0,-1,1630,820,0,0
413,204,0,0,0,0,0,0,0,0,0,-1,1637,820,0,0
420,204,0,0,0,0,0,0,0,0,0,-1,1644,820,0,0
427,204,0,0,0,0,0,0,0,0,0,-1,1651,820,0,0
434,204,0,0,0,0,0,0,0,0,0,-1,1658,820,0,0
441,204,0,0,0,0,0,0,0,0,0,-1,1665,820,0,0
448,204,0,0,0,0,0,0,0,0,0,-1,1672,820,0,0
455,204,0,0,0,0,0,0,0,0,0,-1,1679,820,0,0
462,204,0,0,0,0,0,0,0,0,0,-1,1686,820,0,0
469,204,0,0,0,0,0,0,0,0,0,-1,1693,820,0,0
476,204,0,0,0,0,0,0,0,0,0,-1,1700,820,0,0
483,204,0,0,0,0,0,0,0,0,0,-1,1707,820,0,0
490,204,0,0,0,0,0,0,0,0,0,-1,1714,820,0,0
497,204,0,0,0,0,0,0,0,0,0,-1,1721,820,0,0
504,204,0,0,0,0,0,0,0,0,0,-1,1728,820,0,0
511,204,0,0,0,0,0,0,0,0,0,-1,1735,820,0,0
518,204,0,0,0,0,0,0,0,0,0,-1,1742,820,0,0
525,204,0,0,0,0,0,0,0,0,0,-1,1749,820,0,0
532,204,0,0,0,0,0,0,0,0,0,-1,1756,820,0,0
539,204,0,0,0,0,0,0,0,0,0,-1,1763,820,0,0
546,204,0,0,0,0,0,0,0,0,0,-1,1770,820,0,0
553,204,0,0,0,0,0,0,0,0,0,-1,1777,820,0,0
560,204,0,0,0,0,0,0,0,0,0,-1,1784,820,0,0
567,204,0,0,0,0,0,0,0,0,0,-1,1791,820,0,0
574,204,0,0,0,0,0,0,0,0,0,-1,1798,820,0,0
581,204,0,0,0,0,0,0,0,0,0,-1,1805,820,0,0
588,204,0,0,0,0,0,0,0,0,0,-1,1812,820,0,0
595,204,0,0,0,0,0,0,0,0,0,-1,1819,820,0,0
602,204,15.8596,2.31903,-0.000886874,0.00216369,0.00110645,0.00252274,-0.00124593,1.25701,0.00221708,0.0380008,1826,820,15.8596,-2.319
609,204,15.7548,2.52319,1.98948e-05,-0.000867009,0.000434482,0.000197268,-0.00104438,0.387591,0.000770475,0.0410053,1833,820,15.7548,-2.52319
616,204,15.7404,2.48853,0.000842083,-0.00313543,-0.000432475,0.000888563,-0.00318191,-0.107063,0.0024713,0.0376047,1840,820,15.7403,-2.48855
623,204,15.7402,2.44836,0.00116778,-0.00472826,-0.00150541,0.00152991,-0.00509039,-0.236067,0.00400225,0.0293312,1847,820,15.7402,-2.44839
630,204,15.7854,2.3999,0.00101729,-0.00564754,-0.00250652,0.00185473,-0.00648497,-0.322442,0.00505625,0.0284647,1854,820,15.7854,-2.3999
637,204,15.8798,2.29578,0.000635581,-0.00601105,-0.00329316,0.00199087,-0.00736634,-0.39042,0.00569178,0.0348812,1861,820,15.8798,-2.29575
644,204,16.0452,2.01898,9.76752e-05,-0.00606297,-0.00383172,0.0019337,-0.00789899,-0.44684,0.00601507,0.0412241,1868,820,16.0452,-2.01896
651,204,16.4122,1.62299,-0.000442877,-0.00595305,-0.00427366,0.00188679,-0.00828271,-0.49909,0.00624646,0.0423985,1875,820,16.4122,-1.623
658,204,12.2122,1.76709,0,0,0,0,0,0,0,-1,1882,820,12.2122,-1.76706
665,204,12.5747,1.60138,0,0,0,0,0,0,0,-1,1889,820,12.5747,-1.60137
672,204,12.5211,1.70081,-0.00172515,-0.00428295,-0.00447139,0.00164664,-0.00765474,-0.646108,0.00573144,0.0291465,1896,820,12.5211,-1.70078
679,204,12.5035,1.85687,-0.00234868,-0.00354604,-0.00437448,0.0014679,-0.00736262,-0.717392,0.00546384,0.0166778,1903,820,12.5036,-1.85684
686,204,12.5099,2.05945,-0.00270899,-0.00279326,-0.00418538,0.00143447,-0.00693672,-0.780364,0.00516941,0.0106582,1910,820,12.5098,-2.05944
693,204,12.4777,2.1889,-0.00258397,-0.00240869,-0.00375073,0.00125542,-0.00624808,-0.797079,0.00464081,0.0157995,1917,820,12.4777,-2.18887
700,204,12.5099,2.34216,-0.00276321,-0.0016567,-0.00315213,0.000990356,-0.00541027,-0.872272,0.00397827,0.0167678,1924,820,12.5099,-2.34215
707,204,12.4496,2.55444,-0.00341792,-0.000931409,-0.00283397,0.00092002,-0.00526935,-0.992106,0.00385633,0.0153852,1931,820,12.4496,-2.55447
714,204,12.502,2.74677,-0.00404919,-0.000970662,-0.00257445,0.000489595,-0.00550944,-1.05484,0.00384656,0.0245184,1938,820,12.502,-2.74674
721,204,12.511,2.82288,-0.00514488,-0.00105839,-0.00259631,0.00020225,-0.00640552,-1.11877,0.00433933,0.0216097,1945,820,12.511,-2.82287
728,204,12.5028,2.94214,-0.00690777,-0.00134471,-0.00273075,-0.000228302,-0.00802418,-1.1827,0.005275,0.0128087,1952,820,12.5028,-2.94211
735,204,12.4819,3.08966,-0.00979756,-0.00184063,-0.00316332,-0.0007363,-0.0109019,-1.23492,0.00703535,0.0147318,1959,820,12.4819,-3.08965
742,204,12.484,3.21368,-0.0138494,-0.00259814,-0.00363492,-0.00152598,-0.0149216,-1.28397,0.00948008,0.0306325,1966,820,12.484,-3.21368
749,204,12.5985,3.2608,-0.0192236,-0.00366132,-0.00395463,-0.00271404,-0.0201709,-1.33569,0.0126401,0.0451921,1973,820,12.5985,-3.26082
756,204,11.5792,3.8454,-0.0261403,-0.0051078,-0.00401642,-0.00436691,-0.0268812,-1.38838,0.0166571,0.0486694,1980,820,11.5793,-3.84538
763,204,11.2651,4.43268,-0.0348374,-0.00702893,-0.00362287,-0.0065647,-0.0353016,-1.44335,0.0216801,0.0450748,1987,820,11.2652,-4.43268
770,204,11.252,5.14709,0,0,0,0,0,0,0,-1,1994,820,11.2519,-5.1471
777,204,0,0,0,0,0,0,0,0,0,-1,2001,820,0,0
784,204,0,0,0,0,0,0,0,0,0,-1,2008,820,0,0
791,204,0,0,0,0,0,0,0,0,0,-1,2015,820,0,0
798,204,0,0,0,0,0,0,0,0,0,-1,2022,820,0,0
805,204,0,0,0,0,0,0,0,0,0,-1,2029,820,0,0
812,204,0,0,0,0,0,0,0,0,0,-1,2036,820,0,0
-700,197,0,0,0,0,0,0,0,0,0,-1,524,827,0,0
-693,197,0,0,0,0,0,0,0,0,0,-1,531,827,0,0
-686,197,0,0,0,0,0,0,0,0,0,-1,538,827,0,0
-679,197,0,0,0,0,0,0,0,0,0,-1,545,827,0,0
-672,197,0,0,0,0,0,0,0,0,0,-1,552,827,0,0
-665,197,0,0,0,0,0,0,0,0,0,-1,559,827,0,0
-658,197,-7.54883,2.44061,-0.00121795,0.116608,0.0355316,0.126493,-0.0111035,1.29944,0.0882632,0.0463635,566,827,-7.54885,-2.44062
-651,197,-7.96448,1.95087,0.00206464,0.0941939,0.0311041,0.103712,-0.00745322,1.27384,0.0717547,0.0464217,573,827,-7.9645,-1.95087
-644,197,-7.85034,2.00854,0.0038854,0.0742254,0.0268161,0.0832825,-0.00517165,1.24508,0.0573233,0.0439757,580,827,-7.85037,-2.00853
-637,197,-8.10913,0.57959,0,0,0,0,0,0,0,-1,587,827,-8.10914,-0.579592
-630,197,-7.95123,0.635193,0.00517572,0.0417772,0.018861,0.0497568,-0.00280388,1.17056,0.0341442,0.0442733,594,827,-7.95126,-0.635212
-623,197,-7.7384,0.764648,0.00498051,0.0293546,0.0153173,0.0367416,-0.00240652,1.12144,0.0253347,0.0431382,601,827,-7.73837,-0.764658
-616,197,-7.48212,0.889526,0.00447054,0.0196129,0.0121704,0.0263749,-0.00229155,1.06365,0.0183948,0.0416219,608,827,-7.48214,-0.889549
-609,197,-7.3952,1.0575,0.00366195,0.0124799,0.00924698,0.0183152,-0.00217339,1.00786,0.0129953,0.029442,615,827,-7.3952,-1.05749
-602,197,-7.49622,1.00037,0.00302804,0.00635277,0.00678981,0.0116807,-0.00229994,0.905453,0.00865627,0.015253,622,827,-7.49623,-1.00036
-595,197,-7.51318,0.904114,0.00205361,0.00184306,0.00489827,0.00684773,-0.00295107,0.774654,0.00580453,0.0163678,629,827,-7.51319,-0.904115
-588,197,-7.51892,0.764465,0.000745985,-0.000616008,0.00341283,0.00354509,-0.00341512,0.686921,0.00401871,0.018327,636,827,-7.51889,-0.764444
-581,197,-7.49121,0.630005,-0.000464674,-0.00104118,0.00244744,0.00171143,-0.00321728,0.72678,0.00288953,0.011549,643,827,-7.49122,-0.630031
-574,197,-7.48163,0.507263,-0.00177632,-0.000719184,0.00177436,0.00060366,-0.00309917,0.93016,0.00229396,0.0129284,650,827,-7.48164,-0.507277
-567,197,-7.49341,0.364502,-0.00297724,-3.64379e-05,0.0016813,0.000726734,-0.00374042,1.14469,0.00276784,0.0137671,657,827,-7.49343,-0.36453
-560,197,-7.51141,0.242798,-0.0040854,0.000471181,0.00186724,0.0011386,-0.00475281,1.22751,0.00360846,0.0124588,664,827,-7.51141,-0.242806
-553,197,-7.49188,0.125366,-0.00495504,0.00115931,0.0025368,0.00207475,-0.00587048,1.22448,0.00475847,0.0118931,671,827,-7.4919,-0.125355
-546,197,-7.47723,-0.0159302,-0.0057879,0.00178334,0.00327401,0.00300272,-0.00700728,1.21427,0.00593143,0.0203354,678,827,-7.47721,0.0159206
-539,197,-7.7124,0.00219727,-0.0063173,0.00224718,0.00377261,0.00367197,-0.00774209,1.20969,0.00672811,0.0418054,685,827,-7.71239,-0.00219717
-532,197,-8.14832,-0.00756836,0,0,0,0,0,0,0,-1,692,827,-8.1483,0.00756817
-525,197,-10.0756,0.653442,0,0,0,0,0,0,0,-1,699,827,-10.0755,-0.653463
-518,197,-9.99738,0.478088,-0.00657786,0.00465692,0.00494253,0.00652176,-0.00844269,1.21001,0.00866342,0.046932,706,827,-9.99739,-0.478058
-511,197,-9.72015,0.853821,-0.0059522,0.00544043,0.00476485,0.00717054,-0.00768231,1.2225,0.008577,0.040606,713,827,-9.72014,-0.85385
-504,197,-9.81763,0.833862,-0.00477634,0.00610704,0.00404265,0.00744437,-0.00611366,1.25132,0.00784029,0.0355878,720,827,-9.8176,-0.833832
-497,197,-10.0189,0.821533,-0.00286776,0.00659245,0.00248196,0.00720407,-0.00347938,1.32918,0.00629181,0.0380438,727,827,-10.0189,-0.821545
-490,197,-10.1017,0.585815,-0.000210333,0.0068386,-0.000202478,0.00684441,-0.000216144,-1.5421,0.00463667,0.0387055,734,827,-10.1017,-0.585791
-483,197,-9.90326,0.478577,0.00243934,0.00700649,-0.00421461,0.00951642,-7.05877e-05,-1.03367,0.00636794,0.0405409,741,827,-9.90325,-0.478606
-476,197,0,0,0,0,0,0,0,0,0,-1,748,827,0,0
-469,197,0,0,0,0,0,0,0,0,0,-1,755,827,0,0
-462,197,0,0,0,0,0,0,0,0,0,-1,762,827,0,0
-455,197,0,0,0,0,0,0,0,0,0,-1,769,827,0,0
-448,197,0,0,0,0,0,0,0,0,0,-1,776,827,0,0
-441,197,0,0,0,0,0,0,0,0,0,-1,783,827,0,0
-434,197,0,0,0,0,0,0,0,0,0,-1,790,827,0,0
-427,197,0,0,0,0,0,0,0,0,0,-1,797,827,0,0
-420,197,0,0,0,0,0,0,0,0,0,-1,804,827,0,0
-413,197,0,0,0,0,0,0,0,0,0,-1,811,827,0,0
-406,197,0,0,0,0,0,0,0,0,0,-1,818,827,0,0
-399,197,0,0,0,0,0,0,0,0,0,-1,825,827,0,0
-392,197,0,0,0,0,0,0,0,0,0,-1,832,827,0,0
-385,197,0,0,0,0,0,0,0,0,0,-1,839,827,0,0
-378,197,0,0,0,0,0,0,0,0,0,-1,846,827,0,0
-371,197,0,0,0,0,0,0,0,0,0,-1,853,827,0,0
-364,197,0,0,0,0,0,0,0,0,0,-1,860,827,0,0
-357,197,0,0,0,0,0,0,0,0,0,-1,867,827,0,0
-350,197,0,0,0,0,0,0,0,0,0,-1,874,827,0,0
-343,197,0,0,0,0,0,0,0,0,0,-1,881,827,0,0
-336,197,0,0,0,0,0,0,0,0,0,-1,888,827,0,0
-329,197,0,0,0,0,0,0,0,0,0,-1,895,827,0,0
-322,197,0,0,0,0,0,0,0,0,0,-1,902,827,0,0
-315,197,0,0,0,0,0,0,0,0,0,-1,909,827,0,0
-308,197,0,0,0,0,0,0,0,0,0,-1,916,827,0,0
-301,197,0,0,0,0,0,0,0,0,0,-1,923,827,0,0
-294,197,0,0,0,0,0,0,0,0,0,-1,930,827,0,0
-287,197,0,0,0,0,0,0,0,0,0,-1,937,827,0,0
-280,197,0,0,0,0,0,0,0,0,0,-1,944,827,0,0
-273,197,0,0,0,0,0,0,0,0,0,-1,951,827,0,0
-266,197,0,0,0,0,0,0,0,0,0,-1,958,827,0,0
-259,197,0,0,0,0,0,0,0,0,0,-1,965,827,0,0
-252,197,0,0,0,0,0,0,0,0,0,-1,972,827,0,0
-245,197,0,0,0,0,0,0,0,0,0,-1,979,827,0,0
-238,197,0,0,0,0,0,0,0,0,0,-1,986,827,0,0
-231,197,0,0,0,0,0,0,0,0,0,-1,993,827,0,0
-224,197,0,0,0,0,0,0,0,0,0,-1,1000,827,0,0
-217,197,0,0,0,0,0,0,0,0,0,-1,1007,827,0,0
-210,197,0,0,0,0,0,0,0,0,0,-1,1014,827,0,0
-203,197,0,0,0,0,0,0,0,0,0,-1,1021,827,0,0
-196,197,0,0,0,0,0,0,0,0,0,-1,1028,827,0,0
-189,197,0,0,0,0,0,0,0,0,0,-1,1035,827,0,0
-182,197,0,0,0,0,0,0,0,0,0,-1,1042,827,0,0
-175,197,0,0,0,0,0,0,0,0,0,-1,1049,827,0,0
-168,197,0,0,0,0,0,0,0,0,0,-1,1056,827,0,0
-161,197,0,0,0,0,0,0,0,0,0,-1,1063,827,0,0
-154,197,0,0,0,0,0,0,0,0,0,-1,1070,827,0,0
-147,197,0,0,0,0,0,0,0,0,0,-1,1077,827,0,0
-140,197,0,0,0,0,0,0,0,0,0,-1,1084,827,0,0
-133,197,0,0,0,0,0,0,0,0,0,-1,1091,827,0,0
-126,197,0,0,0,0,0,0,0,0,0,-1,1098,827,0,0
-119,197,0,0,0,0,0,0,0,0,0,-1,1105,827,0,0
-112,197,0,0,0,0,0,0,0,0,0,-1,1112,827,0,0
-105,197,0,0,0,0,0,0,0,0,0,-1,1119,827,0,0
-98,197,0,0,0,0,0,0,0,0,0,-1,1126,827,0,0
-91,197,0,0,0,0,0,0,0,0,0,-1,1133,827,0,0
-84,197,0,0,0,0,0,0,0,0,0,-1,1140,827,0,0
-77,197,0,0,0,0,0,0,0,0,0,-1,1147,827,0,0
-70,197,0,0,0,0,0,0,0,0,0,-1,1154,827,0,0
-63,197,0,0,0,0,0,0,0,0,0,-1,1161,827,0,0
-56,197,0,0,0,0,0,0,0,0,0,-1,1168,827,0,0
-49,197,0,0,0,0,0,0,0,0,0,-1,1175,827,0,0
-42,197,0,0,0,0,0,0,0,0,0,-1,1182,827,0,0
-35,197,0,0,0,0,0,0,0,0,0,-1,1189,827,0,0
-28,197,0,0,0,0,0,0,0,0,0,-1,1196,827,0,0
-21,197,0,0,0,0,0,0,0,0,0,-1,1203,827,0,0
-14,197,0,0,0,0,0,0,0,0,0,-1,1210,827,0,0
-7,197,0,0,0,0,0,0,0,0,0,-1,1217,827,0,0
0,197,0,0,0,0,0,0,0,0,0,-1,1224,827,0,0
7,197,0,0,0,0,0,0,0,0,0,-1,1231,827,0,0
14,197,0,0,0,0,0,0,0,0,0,-1,1238,827,0,0
21,197,0,0,0,0,0,0,0,0,0,-1,1245,827,0,0
28,197,0,0,0,0,0,0,0,0,0,-1,1252,827,0,0
35,197,0,0,0,0,0,0,0,0,0,-1,1259,827,0,0
42,197,0,0,0,0,0,0,0,0,0,-1,1266,827,0,0
49,197,0,0,0,0,0,0,0,0,0,-1,1273,827,0,0
56,197,0,0,0,0,0,0,0,0,0,-1,1280,827,0,0
63,197,0,0,0,0,0,0,0,0,0,-1,1287,827,0,0
70,197,0,0,0,0,0,0,0,0,0,-1,1294,827,0,0
77,197,0,0,0,0,0,0,0,0,0,-1,1301,827,0,0
84,197,0,0,0,0,0,0,0,0,0,-1,1308,827,0,0
91,197,0,0,0,0,0,0,0,0,0,-1,1315,827,0,0
98,197,0,0,0,0,0,0,0,0,0,-1,1322,827,0,0
105,197,0,0,0,0,0,0,0,0,0,-1,1329,827,0,0
112,197,0,0,0,0,0,0,0,0,0,-1,1336,827,0,0
119,197,0,0,0,0,0,0,0,0,0,-1,1343,827,0,0
126,197,0,0,0,0,0,0,0,0,0,-1,1350,827,0,0
133,197,0,0,0,0,0,0,0,0,0,-1,1357,827,0,0
140,197,0,0,0,0,0,0,0,0,0,-1,1364,827,0,0
147,197,0,0,0,0,0,0,0,0,0,-1,1371,827,0,0
154,197,0,0,0,0,0,0,0,0,0,-1,1378,827,0,0
161,197,0,0,0,0,0,0,0,0,0,-1,1385,827,0,0
168,197,0,0,0,0,0,0,0,0,0,-1,1392,827,0,0
175,197,0,0,0,0,0,0,0,0,0,-1,1399,827,0,0
182,197,0,0,0,0,0,0,0,0,0,-1,1406,827,0,0
189,197,0,0,0,0,0,0,0,0,0,-1,1413,827,0,0
196,197,0,0,0,0,0,0,0,0,0,-1,1420,827,0,0
203,197,0,0,0,0,0,0,0,0,0,-1,1427,827,0,0
210,197,0,0,0,0,0,0,0,0,0,-1,1434,827,0,0
217,197,0,0,0,0,0,0,0,0,0,-1,1441,827,0,0
224,197,0,0,0,0,0,0,0,0,0,-1,1448,827,0,0
231,197,0,0,0,0,0,0,0,0,0,-1,1455,827,0,0
238,197,0,0,0,0,0,0,0,0,0,-1,1462,827,0,0
245,197,0,0,0,0,0,0,0,0,0,-1,1469,827,0,0
252,197,0,0,0,0,0,0,0,0,0,-1,1476,827,0,0
259,197,0,0,0,0,0,0,0,0,0,-1,1483,827,0,0
266,197,0,0,0,0,0,0,0,0,0,-1,1490,827,0,0
273,197,0,0,0,0,0,0,0,0,0,-1,1497,827,0,0
280,197,0,0,0,0,0,0,0,0,0,-1,1504,827,0,0
287,197,0,0,0,0,0,0,0,0,0,-1,1511,827,0,0
294,197,0,0,0,0,0,0,0,0,0,-1,1518,827,0,0
301,197,0,0,0,0,0,0,0,0,0,-1,1525,827,0,0
308,197,0,0,0,0,0,0,0,0,0,-1,1532,827,0,0
315,197,0,0,0,0,0,0,0,0,0,-1,1539,827,0,0
322,197,0,0,0,0,0,0,0,0,0,-1,1546,827,0,0
329,197,0,0,0,0,0,0,0,0,0,-1,1553,827,0,0
336,197,0,0,0,0,0,0,0,0,0,-1,1560,827,0,0
343,197,0,0,0,0,0,0,0,0,0,-1,1567,827,0,0
350,197,0,0,0,0,0,0,0,0,0,-1,1574,827,0,0
357,197,0,0,0,0,0,0,0,0,0,-1,1581,827,0,0
364,197,0,0,0,0,0,0,0,0,0,-1,1588,827,0,0
371,197,0,0,0,0,0,0,0,0,0,-1,1595,827,0,0
378,197,0,0,0,0,0,0,0,0,0,-1,1602,827,0,0
385,197,0,0,0,0,0,0,0,0,0,-1,1609,827,0,0
392,197,0,0,0,0,0,0,0,0,0,-1,1616,827,0,0
399,197,0,0,0,0,0,0,0,0,0,-1,1623,827,0,0
406,197,0,0,0,0,0,0,0,0,0,-1,1630,827,0,0
413,197,0,0,0,0,0,0,0,0,0,-1,1637,827,0,0
420,197,0,0,0,0,0,0,0,0,0,-1,1644,827,0,0
427,197,0,0,0,0,0,0,0,0,0,-1,1651,827,0,0
434,197,0,0,0,0,0,0,0,0,0,-1,1658,827,0,0
441,197,0,0,0,0,0,0,0,0,0,-1,1665,827,0,0
448,197,0,0,0,0,0,0,0,0,0,-1,1672,827,0,0
455,197,0,0,0,0,0,0,0,0,0,-1,1679,827,0,0
462,197,0,0,0,0,0,0,0,0,0,-1,1686,827,0,0
469,197,0,0,0,0,0,0,0,0,0,-1,1693,827,0,0
476,197,0,0,0,0,0,0,0,0,0,-1,1700,827,0,0
483,197,0,0,0,0,0,0,0,0,0,-1,1707,827,0,0
490,197,0,0,0,0,0,0,0,0,0,-1,1714,827,0,0
497,197,0,0,0,0,0,0,0,0,0,-1,1721,827,0,0
504,197,0,0,0,0,0,0,0,0,0,-1,1728,827,0,0
511,197,0,0,0,0,0,0,0,0,0,-1,1735,827,0,0
518,197,0,0,0,0,0,0,0,0,0,-1,1742,827,0,0
525,197,0,0,0,0,0,0,0,0,0,-1,1749,827,0,0
532,197,0,0,0,0,0,0,0,0,0,-1,1756,827,0,0
539,197,0,0,0,0,0,0,0,0,0,-1,1763,827,0,0
546,197,0,0,0,0,0,0,0,0,0,-1,1770,827,0,0
553,197,0,0,0,0,0,0,0,0,0,-1,1777,827,0,0
560,197,0,0,0,0,0,0,0,0,0,-1,1784,827,0,0
567,197,0,0,0,0,0,0,0,0,0,-1,1791,827,0,0
574,197,0,0,0,0,0,0,0,0,0,-1,1798,827,0,0
581,197,0,0,0,0,0,0,0,0,0,-1,1805,827,0,0
588,197,0,0,0,0,0,0,0,0,0,-1,1812,827,0,0
595,197,0,0,0,0,0,0,0,0,0,-1,1819,827,0,0
602,197,15.9613,2.31073,-0.00162381,0.00378694,0.00147617,0.00416347,-0.00200034,1.32105,0.00363099,0.0398565,1826,827,15.9613,-2.31073
609,197,15.8022,2.35986,0.000413757,0.000864612,0.00103373,0.00169721,-0.000418836,0.892754,0.00129388,0.0411507,1833,827,15.8022,-2.35987
616,197,15.8079,2.33447,0.0018213,-0.00140641,0.000270586,0.00184383,-0.00142894,0.0830596,0.00189459,0.0413675,1840,827,15.8078,-2.33448
623,197,15.7867,2.3927,0.0024188,-0.00314692,-0.000737984,0.00251499,-0.00324311,-0.129611,0.00333329,0.0365301,1847,827,15.7868,-2.39271
630,197,15.8104,2.39282,0.00213948,-0.00424902,-0.00186028,0.0026417,-0.00475124,-0.263683,0.00432585,0.0307613,1854,827,15.8104,-2.39285
637,197,15.8129,2.35492,0.00136349,-0.00481291,-0.00282735,0.00246228,-0.0059117,-0.370665,0.00496956,0.0274571,1861,827,15.8128,-2.35491
644,197,15.8585,2.27362,0.000424138,-0.0050443,-0.00351556,0.00214358,-0.00676375,-0.454886,0.0053683,0.0324492,1868,827,15.8585,-2.27362
651,197,15.9825,2.39301,-0.000449211,-0.00509154,-0.00407195,0.00191669,-0.00745744,-0.52635,0.00571862,0.042723,1875,827,15.9825,-2.39301
658,197,16.1278,2.52032,0,0,0,0,0,0,0,-1,1882,827,16.1278,-2.52032
665,197,13.394,1.58881,0,0,0,0,0,0,0,-1,1889,827,13.394,-1.58879
672,197,12.9911,1.72333,-0.00261454,-0.00391896,-0.00456099,0.00134064,-0.00787413,-0.714381,0.00574865,0.0459999,1896,827,12.9911,-1.72332
679,197,12.7081,1.91821,-0.00332979,-0.00335565,-0.00453137,0.00118867,-0.00787411,-0.783972,0.00568719,0.0200056,1903,827,12.7082,-1.91819
686,197,12.6647,2.06598,-0.00371295,-0.00273828,-0.00438413,0.00118551,-0.00763674,-0.84075,0.00552887,0.0124728,1910,827,12.6647,-2.06598
693,197,12.6473,2.24005,-0.00358599,-0.00237714,-0.00397024,0.00103442,-0.00699755,-0.860938,0.00504532,0.0149415,1917,827,12.6474,-2.24008
700,197,12.6685,2.41101,-0.00368968,-0.00169235,-0.00337518,0.000828807,-0.00621084,-0.929237,0.00444268,0.0211438,1924,827,12.6685,-2.411
707,197,12.658,2.54144,-0.00412615,-0.000925919,-0.00299966,0.000873716,-0.00592578,-1.03042,0.00427165,0.00929836,1931,827,12.6579,-2.54142
714,197,12.6573,2.68787,-0.00438767,-0.000840186,-0.00259394,0.000528472,-0.00575633,-1.08528,0.00402529,0.0115431,1938,827,12.6573,-2.68785
721,197,12.6523,2.80475,-0.00504632,-0.000757753,-0.00243142,0.000339838,-0.00614391,-1.14676,0.00421379,0.0116958,1945,827,12.6524,-2.80473
728,197,12.6532,2.9483,-0.00624209,-0.000808604,-0.00232049,4.75198e-05,-0.00709821,-1.21735,0.00474806,0.00991398,1952,827,12.6531,-2.94831
735,197,12.6445,3.1001,-0.00849892,-0.00100433,-0.00258453,-0.000199477,-0.00930376,-1.2689,0.0061371,0.0105715,1959,827,12.6446,-3.10007
742,197,12.6353,3.23962,-0.0118574,-0.00136848,-0.00292893,-0.000606025,-0.0126198,-1.31613,0.00821867,0.0200537,1966,827,12.6353,-3.23963
749,197,12.6185,3.37659,-0.0163821,-0.00194048,-0.0031699,-0.00127533,-0.0170473,-1.36396,0.0109645,0.0416148,1973,827,12.6186,-3.37661
756,197,12.3961,3.81567,-0.0220903,-0.00275744,-0.00321276,-0.00223752,-0.0226102,-1.41036,0.0143858,0.0471479,1980,827,12.3961,-3.81564
763,197,12.4845,4.04553,0,0,0,0,0,0,0,-1,1987,827,12.4845,-4.04554
770,197,12.6147,5.35767,0,0,0,0,0,0,0,-1,1994,827,12.6147,-5.35768
777,197,0,0,0,0,0,0,0,0,0,-1,2001,827,0,0
784,197,0,0,0,0,0,0,0,0,0,-1,2008,827,0,0
791,197,0,0,0,0,0,0,0,0,0,-1,2015,827,0,0
798,197,0,0,0,0,0,0,0,0,0,-1,2022,827,0,0
805,197,0,0,0,0,0,0,0,0,0,-1,2029,827,0,0
812,197,0,0,0,0,0,0,0,0,0,-1,2036,827,0,0
-700,190,0,0,0,0,0,0,0,0,0,-1,524,834,0,0
-693,190,0,0,0,0,0,0,0,0,0,-1,531,834,0,0
-686,190,0,0,0,0,0,0,0,0,0,-1,538,834,0,0
-679,190,0,0,0,0,0,0,0,0,0,-1,545,834,0,0
-672,190,0,0,0,0,0,0,0,0,0,-1,552,834,0,0
-665,190,0,0,0,0,0,0,0,0,0,-1,559,834,0,0
-658,190,-8.45947,1.29773,0.000339508,0.0951443,0.0308011,0.104272,-0.00878859,1.28269,0.072622,0.049193,566,834,-8.4595,-1.29771
-651,190,-8.52545,1.03253,0.00303771,0.0784691,0.0267082,0.0869681,-0.00546135,1.26271,0.0598823,0.0474013,573,834,-8.52544,-1.03253
-644,190,-8.422,1.02374,0.00457699,0.0630152,0.0228559,0.0708925,-0.00330039,1.23889,0.0483993,0.0473176,580,834,-8.42202,-1.02373
-637,190,-8.42902,1.14136,0,0,0,0,0,0,0,-1,587,834,-8.42904,-1.14136
-630,190,-8.26056,1.21307,0.00562373,0.0368234,0.0159066,0.043503,-0.00105587,1.17323,0.0293603,0.0463039,594,834,-8.26054,-1.21307
-623,190,-7.93134,1.22974,0.00539483,0.0264279,0.012879,0.0325387,-0.000715934,1.12778,0.021935,0.0459607,601,834,-7.93134,-1.22975
-616,190,-7.74799,1.13879,0.00490594,0.0181681,0.0102935,0.0237815,-0.000707437,1.07154,0.0160953,0.0402436,608,834,-7.74799,-1.13877
-609,190,-7.60095,1.03662,0.00410084,0.0119508,0.00779197,0.0167505,-0.000698876,1.01871,0.0114071,0.021554,615,834,-7.60096,-1.03663
-602,190,-7.63684,0.97406,0.00340941,0.00637791,0.00564069,0.0107264,-0.000939046,0.914048,0.00748359,0.0146438,622,834,-7.63682,-0.974086
-595,190,-7.65063,0.875488,0.00235971,0.00223492,0.00407018,0.00636798,-0.00177334,0.777734,0.00494361,0.0174959,629,834,-7.65065,-0.875472
-588,190,-7.64679,0.762817,0.000928611,-0.000136566,0.00287885,0.00332372,-0.00253168,0.693932,0.00339091,0.0143197,636,834,-7.64681,-0.762846
-581,190,-7.63184,0.640015,-0.000422199,-0.000640353,0.00210995,0.00158149,-0.00264404,0.759573,0.00246519,0.0106215,643,834,-7.63186,-0.639993
-574,190,-7.61658,0.513184,-0.00178986,-0.000482163,0.00154612,0.000542683,-0.0028147,0.985441,0.00208108,0.0109061,650,834,-7.61659,-0.513157
-567,190,-7.61987,0.370239,-0.00300231,0.000106866,0.00147874,0.000697836,-0.00359328,1.1906,0.00265884,0.0124525,657,834,-7.61987,-0.37026
-560,190,-7.6496,0.244751,-0.00409441,0.000560035,0.00167308,0.00109902,-0.0046334,1.25914,0.00351305,0.0153639,664,834,-7.64959,-0.244781
-553,190,-7.64075,0.122925,-0.00497663,0.00132312,0.00227034,0.00205605,-0.00570955,1.25853,0.00464593,0.0137452,671,834,-7.64075,-0.122949
-546,190,-7.63507,-0.0321655,-0.0057821,0.0019808,0.00290262,0.00294609,-0.00674739,1.24974,0.00573818,0.0277455,678,834,-7.63508,0.0321753
-539,190,-7.67566,-0.143066,-0.00625558,0.00255182,0.00333563,0.00367252,-0.00737628,1.24667,0.0064974,0.0443902,685,834,-7.67564,0.143044
-532,190,-9.15137,0.481262,0,0,0,0,0,0,0,-1,692,834,-9.15137,-0.481259
-525,190,-10.017,0.61084,-0.00661405,0.00426068,0.0042299,0.00571222,-0.00806559,1.24023,0.00799321,0.0461497,699,834,-10.0169,-0.610842
-518,190,-10.0409,0.468811,-0.006265,0.00527798,0.00447783,0.00681136,-0.00779837,1.24088,0.00844134,0.0478154,706,834,-10.0409,-0.4688
-511,190,-9.95898,0.405518,-0.00542249,0.0061459,0.00440885,0.0076346,-0.00691118,1.24516,0.00840147,0.0420759,713,834,-9.95901,-0.405522
-504,190,-10.0587,0.726868,-0.00390726,0.00681039,0.00378228,0.00801073,-0.0051076,1.26349,0.00763544,0.0422664,720,834,-10.0587,-0.726878
-497,190,-10.2136,0.950989,-0.00144569,0.00714185,0.00230183,0.00771993,-0.00202376,1.32475,0.00593731,0.0434281,727,834,-10.2136,-0.951011
-490,190,-9.98895,0.93457,0.00191865,0.00700816,-0.000349354,0.00703203,0.00189478,-1.50258,0.00420135,0.0419218,734,834,-9.98895,-0.934546
-483,190,0,0,0,0,0,0,0,0,0,-1,741,834,0,0
-476,190,0,0,0,0,0,0,0,0,0,-1,748,834,0,0
-469,190,0,0,0,0,0,0,0,0,0,-1,755,834,0,0
-462,190,0,0,0,0,0,0,0,0,0,-1,762,834,0,0
-455,190,0,0,0,0,0,0,0,0,0,-1,769,834,0,0
-448,190,0,0,0,0,0,0,0,0,0,-1,776,834,0,0
-441,190,0,0,0,0,0,0,0,0,0,-1,783,834,0,0
-434,190,0,0,0,0,0,0,0,0,0,-1,790,834,0,0
-427,190,0,0,0,0,0,0,0,0,0,-1,797,834,0,0
-420,190,0,0,0,0,0,0,0,0,0,-1,804,834,0,0
-413,190,0,0,0,0,0,0,0,0,0,-1,811,834,0,0
-406,190,0,0,0,0,0,0,0,0,0,-1,818,834,0,0
-399,190,0,0,0,0,0,0,0,0,0,-1,825,834,0,0
-392,190,0,0,0,0,0,0,0,0,0,-1,832,834,0,0
-385,190,0,0,0,0,0,0,0,0,0,-1,839,834,0,0
-378,190,0,0,0,0,0,0,0,0,0,-1,846,834,0,0
-371,190,0,0,0,0,0,0,0,0,0,-1,853,834,0,0
-364,190,0,0,0,0,0,0,0,0,0,-1,860,834,0,0
-357,190,0,0,0,0,0,0,0,0,0,-1,867,834,0,0
-350,190,0,0,0,0,0,0,0,0,0,-1,874,834,0,0
-343,190,0,0,0,0,0,0,0,0,0,-1,881,834,0,0
-336,190,0,0,0,0,0,0,0,0,0,-1,888,834,0,0
-329,190,0,0,0,0,0,0,0,0,0,-1,895,834,0,0
-322,190,0,0,0,0,0,0,0,0,0,-1,902,834,0,0
-315,190,0,0,0,0,0,0,0,0,0,-1,909,834,0,0
-308,190,0,0,0,0,0,0,0,0,0,-1,916,834,0,0
-301,190,0,0,0,0,0,0,0,0,0,-1,923,834,0,0
-294,190,0,0,0,0,0,0,0,0,0,-1,930,834,0,0
-287,190,0,0,0,0,0,0,0,0,0,-1,937,834,0,0
-280,190,0,0,0,0,0,0,0,0,0,-1,944,834,0,0
-273,190,0,0,0,0,0,0,0,0,0,-1,951,834,0,0
-266,190,0,0,0,0,0,0,0,0,0,-1,958,834,0,0
-259,190,0,0,0,0,0,0,0,0,0,-1,965,834,0,0
-252,190,0,0,0,0,0,0,0,0,0,-1,972,834,0,0
-245,190,0,0,0,0,0,0,0,0,0,-1,979,834,0,0
-238,190,0,0,0,0,0,0,0,0,0,-1,986,834,0,0
-231,190,0,0,0,0,0,0,0,0,0,-1,993,834,0,0
-224,190,0,0,0,0,0,0,0,0,0,-1,1000,834,0,0
-217,190,0,0,0,0,0,0,0,0,0,-1,1007,834,0,0
-210,190,0,0,0,0,0,0,0,0,0,-1,1014,834,0,0
-203,190,0,0,0,0,0,0,0,0,0,-1,1021,834,0,0
-196,190,0,0,0,0,0,0,0,0,0,-1,1028,834,0,0
-189,190,0,0,0,0,0,0,0,0,0,-1,1035,834,0,0
-182,190,0,0,0,0,0,0,0,0,0,-1,1042,834,0,0
-175,190,0,0,0,0,0,0,0,0,0,-1,1049,834,0,0
-168,190,0,0,0,0,0,0,0,0,0,-1,1056,834,0,0
-161,190,0,0,0,0,0,0,0,0,0,-1,1063,834,0,0
-154,190,0,0,0,0,0,0,0,0,0,-1,1070,834,0,0
-147,190,0,0,0,0,0,0,0,0,0,-1,1077,834,0,0
-140,190,0,0,0,0,0,0,0,0,0,-1,1084,834,0,0
-133,190,0,0,0,0,0,0,0,0,0,-1,1091,834,0,0
-126,190,0,0,0,0,0,0,0,0,0,-1,1098,834,0,0
-119,190,0,0,0,0,0,0,0,0,0,-1,1105,834,0,0
-112,190,0,0,0,0,0,0,0,0,0,-1,1112,834,0,0
-105,190,0,0,0,0,0,0,0,0,0,-1,1119,834,0,0
-98,190,0,0,0,0,0,0,0,0,0,-1,1126,834,0,0
-91,190,0,0,0,0,0,0,0,0,0,-1,1133,834,0,0
-84,190,0,0,0,0,0,0,0,0,0,-1,1140,834,0,0
-77,190,0,0,0,0,0,0,0,0,0,-1,1147,834,0,0
-70,190,0,0,0,0,0,0,0,0,0,-1,1154,834,0,0
-63,190,0,0,0,0,0,0,0,0,0,-1,1161,834,0,0
-56,190,0,0,0,0,0,0,0,0,0,-1,1168,834,0,0
-49,190,0,0,0,0,0,0,0,0,0,-1,1175,834,0,0
-42,190,0,0,0,0,0,0,0,0,0,-1,1182,834,0,0
-35,190,0,0,0,0,0,0,0,0,0,-1,1189,834,0,0
-28,190,0,0,0,0,0,0,0,0,0,-1,1196,834,0,0
-21,190,0,0,0,0,0,0,0,0,0,-1,1203,834,0,0
-14,190,0,0,0,0,0,0,0,0,0,-1,1210,834,0,0
-7,190,0,0,0,0,0,0,0,0,0,-1,1217,834,0,0
0,190,0,0,0,0,0,0,0,0,0,-1,1224,834,0,0
7,190,0,0,0,0,0,0,0,0,0,-1,1231,834,0,0
14,190,0,0,0,0,0,0,0,0,0,-1,1238,834,0,0
21,190,0,0,0,0,0,0,0,0,0,-1,1245,834,0,0
28,190,0,0,0,0,0,0,0,0,0,-1,1252,834,0,0
35,190,0,0,0,0,0,0,0,0,0,-1,1259,834,0,0
42,190,0,0,0,0,0,0,0,0,0,-1,1266,834,0,0
49,190,0,0,0,0,0,0,0,0,0,-1,1273,834,0,0
56,190,0,0,0,0,0,0,0,0,0,-1,1280,834,0,0
63,190,0,0,0,0,0,0,0,0,0,-1,1287,834,0,0
70,190,0,0,0,0,0,0,0,0,0,-1,1294,834,0,0
77,190,0,0,0,0,0,0,0,0,0,-1,1301,834,0,0
84,190,0,0,0,0,0,0,0,0,0,-1,1308,834,0,0
91,190,0,0,0,0,0,0,0,0,0,-1,1315,834,0,0
98,190,0,0,0,0,0,0,0,0,0,-1,1322,834,0,0
105,190,0,0,0,0,0,0,0,0,0,-1,1329,834,0,0
112,190,0,0,0,0,0,0,0,0,0,-1,1336,834,0,0
119,190,0,0,0,0,0,0,0,0,0,-1,1343,834,0,0
126,190,0,0,0,0,0,0,0,0,0,-1,1350,834,0,0
133,190,0,0,0,0,0,0,0,0,0,-1,1357,834,0,0
140,190,0,0,0,0,0,0,0,0,0,-1,1364,834,0,0
147,190,0,0,0,0,0,0,0,0,0,-1,1371,834,0,0
154,190,0,0,0,0,0,0,0,0,0,-1,1378,834,0,0
161,190,0,0,0,0,0,0,0,0,0,-1,1385,834,0,0
168,190,0,0,0,0,0,0,0,0,0,-1,1392,834,0,0
175,190,0,0,0,0,0,0,0,0,0,-1,1399,834,0,0
182,190,0,0,0,0,0,0,0,0,0,-1,1406,834,0,0
189,190,0,0,0,0,0,0,0,0,0,-1,1413,834,0,0
196,190,0,0,0,0,0,0,0,0,0,-1,1420,834,0,0
203,190,0,0,0,0,0,0,0,0,0,-1,1427,834,0,0
210,190,0,0,0,0,0,0,0,0,0,-1,1434,834,0,0
217,190,0,0,0,0,0,0,0,0,0,-1,1441,834,0,0
224,190,0,0,0,0,0,0,0,0,0,-1,1448,834,0,0
231,190,0,0,0,0,0,0,0,0,0,-1,1455,834,0,0
238,190,0,0,0,0,0,0,0,0,0,-1,1462,834,0,0
245,190,0,0,0,0,0,0,0,0,0,-1,1469,834,0,0
252,190,0,0,0,0,0,0,0,0,0,-1,1476,834,0,0
259,190,0,0,0,0,0,0,0,0,0,-1,1483,834,0,0
266,190,0,0,0,0,0,0,0,0,0,-1,1490,834,0,0
273,190,0,0,0,0,0,0,0,0,0,-1,1497,834,0,0
280,190,0,0,0,0,0,0,0,0,0,-1,1504,834,0,0
287,190,0,0,0,0,0,0,0,0,0,-1,1511,834,0,0
294,190,0,0,0,0,0,0,0,0,0,-1,1518,834,0,0
301,190,0,0,0,0,0,0,0,0,0,-1,1525,834,0,0
308,190,0,0,0,0,0,0,0,0,0,-1,1532,834,0,0
315,190,0,0,0,0,0,0,0,0,0,-1,1539,834,0,0
322,190,0,0,0,0,0,0,0,0,0,-1,1546,834,0,0
329,190,0,0,0,0,0,0,0,0,0,-1,1553,834,0,0
336,190,0,0,0,0,0,0,0,0,0,-1,1560,834,0,0
343,190,0,0,0,0,0,0,0,0,0,-1,1567,834,0,0
350,190,0,0,0,0,0,0,0,0,0,-1,1574,834,0,0
357,190,0,0,0,0,0,0,0,0,0,-1,1581,834,0,0
364,190,0,0,0,0,0,0,0,0,0,-1,1588,834,0,0
371,190,0,0,0,0,0,0,0,0,0,-1,1595,834,0,0
378,190,0,0,0,0,0,0,0,0,0,-1,1602,834,0,0
385,190,0,0,0,0,0,0,0,0,0,-1,1609,834,0,0
392,190,0,0,0,0,0,0,0,0,0,-1,1616,834,0,0
399,190,0,0,0,0,0,0,0,0,0,-1,1623,834,0,0
406,190,0,0,0,0,0,0,0,0,0,-1,1630,834,0,0
413,190,0,0,0,0,0,0,0,0,0,-1,1637,834,0,0
420,190,0,0,0,0,0,0,0,0,0,-1,1644,834,0,0
427,190,0,0,0,0,0,0,0,0,0,-1,1651,834,0,0
434,190,0,0,0,0,0,0,0,0,0,-1,1658,834,0,0
441,190,0,0,0,0,0,0,0,0,0,-1,1665,834,0,0
448,190,0,0,0,0,0,0,0,0,0,-1,1672,834,0,0
455,190,0,0,0,0,0,0,0,0,0,-1,1679,834,0,0
462,190,0,0,0,0,0,0,0,0,0,-1,1686,834,0,0
469,190,0,0,0,0,0,0,0,0,0,-1,1693,834,0,0
476,190,0,0,0,0,0,0,0,0,0,-1,1700,834,0,0
483,190,0,0,0,0,0,0,0,0,0,-1,1707,834,0,0
490,190,0,0,0,0,0,0,0,0,0,-1,1714,834,0,0
497,190,0,0,0,0,0,0,0,0,0,-1,1721,834,0,0
504,190,0,0,0,0,0,0,0,0,0,-1,1728,834,0,0
511,190,0,0,0,0,0,0,0,0,0,-1,1735,834,0,0
518,190,0,0,0,0,0,0,0,0,0,-1,1742,834,0,0
525,190,0,0,0,0,0,0,0,0,0,-1,1749,834,0,0
532,190,0,0,0,0,0,0,0,0,0,-1,1756,834,0,0
539,190,0,0,0,0,0,0,0,0,0,-1,1763,834,0,0
546,190,0,0,0,0,0,0,0,0,0,-1,1770,834,0,0
553,190,0,0,0,0,0,0,0,0,0,-1,1777,834,0,0
560,190,0,0,0,0,0,0,0,0,0,-1,1784,834,0,0
567,190,0,0,0,0,0,0,0,0,0,-1,1791,834,0,0
574,190,0,0,0,0,0,0,0,0,0,-1,1798,834,0,0
581,190,0,0,0,0,0,0,0,0,0,-1,1805,834,0,0
588,190,0,0,0,0,0,0,0,0,0,-1,1812,834,0,0
595,190,0,0,0,0,0,0,0,0,0,-1,1819,834,0,0
602,190,15.9847,2.53912,-0.00258641,0.00530209,0.00164355,0.00563082,-0.00291514,1.37339,0.00501636,0.0420738,1826,834,15.9848,-2.53912
609,190,15.8708,2.4436,-0.000350162,0.00247672,0.00129181,0.00297811,-0.000851552,1.20056,0.0023219,0.0397946,1833,834,15.8708,-2.44362
616,190,15.9026,2.25415,0.00125616,0.000235602,0.000633411,0.00155926,-6.75041e-05,0.446324,0.00106272,0.0389638,1840,834,15.9026,-2.25414
623,190,15.8549,2.37671,0.00218635,-0.00159726,-0.000174349,0.00219437,-0.00160528,-0.0459502,0.0022025,0.0370229,1847,834,15.8549,-2.37673
630,190,15.8379,2.44714,0.00199692,-0.00285818,-0.0013305,0.00233763,-0.00319889,-0.250685,0.00320937,0.0399696,1854,834,15.8379,-2.44716
637,190,15.7902,2.43054,0.00112637,-0.00360424,-0.00241086,0.00213848,-0.00461635,-0.397468,0.0039864,0.0341241,1861,834,15.7902,-2.43056
644,190,15.7551,2.41663,6.11329e-05,-0.00400169,-0.00323141,0.00184661,-0.00578717,-0.50479,0.00459893,0.0262034,1868,834,15.7551,-2.4166
651,190,15.8544,2.41687,-0.000906478,-0.00418483,-0.00388212,0.00166834,-0.00675965,-0.585634,0.00515337,0.0351316,1875,834,15.8543,-2.41687
658,190,16.125,2.30243,0,0,0,0,0,0,0,-1,1882,834,16.1249,-2.30242
665,190,13.3514,3.06921,0,0,0,0,0,0,0,-1,1889,834,13.3514,-3.06923
672,190,13.3035,2.06299,0,0,0,0,0,0,0,-1,1896,834,13.3035,-2.06298
679,190,12.8495,2.04388,-0.00396708,-0.00303786,-0.00465148,0.00117216,-0.0081771,-0.835175,0.00588118,0.0254922,1903,834,12.8495,-2.04386
686,190,12.7803,2.11523,-0.0043011,-0.00255323,-0.00453703,0.00119327,-0.0080476,-0.880544,0.00580386,0.0113035,1910,834,12.7803,-2.11521
693,190,12.7911,2.24219,-0.00416021,-0.00221353,-0.00415493,0.00108055,-0.00745428,-0.900454,0.00536609,0.0114433,1917,834,12.7912,-2.24221
700,190,12.7965,2.39563,-0.00419848,-0.00163934,-0.00357282,0.000876133,-0.00671395,-0.957353,0.00479477,0.0111042,1924,834,12.7965,-2.39561
707,190,12.8038,2.52905,-0.00442426,-0.000878425,-0.0031546,0.000967325,-0.00627,-1.04141,0.00453695,0.0125998,1931,834,12.8038,-2.52903
714,190,12.8188,2.65924,-0.00432893,-0.000700584,-0.00262101,0.000672858,-0.00570238,-1.08812,0.00404457,0.0110671,1938,834,12.8189,-2.65922
721,190,12.8165,2.80139,-0.00455882,-0.000509708,-0.00228383,0.000517741,-0.00558626,-1.14804,0.0039082,0.0105585,1945,834,12.8165,-2.80138
728,190,12.8042,2.94397,-0.00521013,-0.000399749,-0.00195478,0.000294435,-0.00590431,-1.22957,0.00403793,0.0118679,1952,834,12.8043,-2.94396
735,190,12.8099,3.08026,-0.00685852,-0.000391382,-0.00208314,0.000221536,-0.00747143,-1.28464,0.00505642,0.0109293,1959,834,12.81,-3.08029
742,190,12.7971,3.23132,-0.00949267,-0.000481956,-0.0023463,9.23872e-05,-0.010067,-1.33073,0.00674235,0.0159412,1966,834,12.7972,-3.2313
749,190,12.7704,3.42108,-0.0131622,-0.000699677,-0.00261842,-0.000171889,-0.01369,-1.37189,0.00906991,0.0370128,1973,834,12.7703,-3.42107
756,190,12.682,3.58661,-0.0177723,-0.00104879,-0.00277809,-0.000599378,-0.0182217,-1.41041,0.011953,0.0432199,1980,834,12.682,-3.58662
763,190,12.833,3.70978,0,0,0,0,0,0,0,-1,1987,834,12.833,-3.7098
770,190,13.1433,3.74622,0,0,0,0,0,0,0,-1,1994,834,13.1433,-3.74619
777,190,13.5406,3.59888,0,0,0,0,0,0,0,-1,2001,834,13.5407,-3.5989
784,190,0,0,0,0,0,0,0,0,0,-1,2008,834,0,0
791,190,0,0,0,0,0,0,0,0,0,-1,2015,834,0,0
798,190,0,0,0,0,0,0,0,0,0,-1,2022,834,0,0
805,190,0,0,0,0,0,0,0,0,0,-1,2029,834,0,0
812,190,0,0,0,0,0,0,0,0,0,-1,2036,834,0,0
-700,183,0,0,0,0,0,0,0,0,0,-1,524,841,0,0
-693,183,0,0,0,0,0,0,0,0,0,-1,531,841,0,0
-686,183,0,0,0,0,0,0,0,0,0,-1,538,841,0,0
-679,183,0,0,0,0,0,0,0,0,0,-1,545,841,0,0
-672,183,0,0,0,0,0,0,0,0,0,-1,552,841,0,0
-665,183,0,0,0,0,0,0,0,0,0,-1,559,841,0,0
-658,183,-8.90094,0.561279,-0.000598076,0.0755814,0.0259023,0.0835542,-0.00857085,1.2722,0.0587684,0.0497667,566,841,-8.90096,-0.56127
-651,183,-8.84821,0.640808,0.00189041,0.063128,0.02244,0.0704705,-0.00545214,1.25457,0.0488991,0.0476454,573,841,-8.84821,-0.640794
-644,183,-8.77869,1.00061,0,0,0,0,0,0,0,-1,580,841,-8.77868,-1.00063
-637,183,-8.64673,0.988098,0,0,0,0,0,0,0,-1,587,841,-8.6467,-0.988095
-630,183,-8.60059,1.09521,0.00479844,0.0307788,0.0133465,0.0364132,-0.000835938,1.17133,0.0245588,0.0446721,594,841,-8.6006,-1.0952
-623,183,-8.31854,1.19897,0.00476097,0.0224006,0.0108142,0.0275355,-0.000373972,1.12748,0.0184829,0.0458746,601,841,-8.31853,-1.199
-616,183,-7.97406,1.20905,0.00451423,0.0156819,0.00873839,0.0204681,-0.000272026,1.0697,0.013737,0.0369055,608,841,-7.97408,-1.20906
-609,183,-7.74341,1.0899,0.00386365,0.0105286,0.00662662,0.0146135,-0.000221251,1.01838,0.00981691,0.0158381,615,841,-7.74338,-1.08992
-602,183,-7.75525,1.00293,0.00320593,0.00574491,0.00475174,0.00939382,-0.000442971,0.915931,0.0064153,0.0112658,622,841,-7.75522,-1.00291
-595,183,-7.77271,0.896301,0.00213607,0.00219443,0.00348741,0.00565278,-0.00132228,0.789582,0.00427795,0.0105982,629,841,-7.7727,-0.896279
-588,183,-7.76123,0.771973,0.000667462,0.000117828,0.00257967,0.00298691,-0.00220162,0.732332,0.00300701,0.00984282,636,841,-7.76121,-0.771944
-581,183,-7.76312,0.640625,-0.000731488,-0.000351192,0.00199483,0.00146254,-0.00254522,0.832915,0.00234185,0.0111002,643,841,-7.76311,-0.640616
-574,183,-7.75592,0.529724,-0.00206189,-0.000280924,0.00152944,0.000598384,-0.00294119,1.04902,0.00218771,0.0119747,650,841,-7.75591,-0.529697
-567,183,-7.73212,0.404297,-0.00322243,0.000236569,0.00146392,0.00077295,-0.00375881,1.21959,0.00279933,0.01478,657,841,-7.73212,-0.404295
-560,183,-7.79382,0.297058,-0.00425343,0.000623324,0.00163323,0.00111976,-0.00474986,1.27571,0.00359838,0.015531,664,841,-7.79382,-0.297049
-553,183,-7.74731,0.114624,-0.00508814,0.00141148,0.00214159,0.00205367,-0.00573033,1.27946,0.00465821,0.0124703,671,841,-7.74729,-0.114596
-546,183,-7.68079,-0.0408325,-0.00579684,0.0020554,0.00264531,0.00286343,-0.00660486,1.27434,0.00560698,0.0317977,678,841,-7.68076,0.0408178
-539,183,-7.58289,-0.349426,-0.00615835,0.00266446,0.00299364,0.00358432,-0.00707821,1.27268,0.00626521,0.0493431,685,841,-7.58286,0.349436
-532,183,-7.43542,-0.622131,0,0,0,0,0,0,0,-1,692,841,-7.43545,0.622128
-525,183,-9.94012,0.610168,-0.00623126,0.00444269,0.0037715,0.00564081,-0.00742939,1.2632,0.0075696,0.0458092,699,841,-9.9401,-0.610152
-518,183,-9.92407,0.524353,-0.00573057,0.00543449,0.00401707,0.00672957,-0.00702565,1.25892,0.00794219,0.0446491,706,841,-9.92406,-0.524334
-511,183,-9.90271,0.336365,-0.00467731,0.00626566,0.00398814,0.00756488,-0.00597653,1.25587,0.00783604,0.0410889,713,841,-9.9027,-0.336343
-504,183,-10.0599,0.635925,-0.00285001,0.00678146,0.00341272,0.00786809,-0.00393664,1.26254,0.00694031,0.0440799,720,841,-10.0599,-0.635898
-497,183,-10.1423,0.854614,0,0,0,0,0,0,0,-1,727,841,-10.1423,-0.854629
-490,183,-9.76184,0.795227,0,0,0,0,0,0,0,-1,734,841,-9.76185,-0.795209
-483,183,0,0,0,0,0,0,0,0,0,-1,741,841,0,0
-476,183,0,0,0,0,0,0,0,0,0,-1,748,841,0,0
-469,183,0,0,0,0,0,0,0,0,0,-1,755,841,0,0
-462,183,0,0,0,0,0,0,0,0,0,-1,762,841,0,0
-455,183,0,0,0,0,0,0,0,0,0,-1,769,841,0,0
-448,183,0,0,0,0,0,0,0,0,0,-1,776,841,0,0
-441,183,0,0,0,0,0,0,0,0,0,-1,783,841,0,0
-434,183,0,0,0,0,0,0,0,0,0,-1,790,841,0,0
-427,183,0,0,0,0,0,0,0,0,0,-1,797,841,0,0
-420,183,0,0,0,0,0,0,0,0,0,-1,804,841,0,0
-413,183,0,0,0,0,0,0,0,0,0,-1,811,841,0,0
-406,183,0,0,0,0,0,0,0,0,0,-1,818,841,0,0
-399,183,0,0,0,0,0,0,0,0,0,-1,825,841,0,0
-392,183,0,0,0,0,0,0,0,0,0,-1,832,841,0,0
-385,183,0,0,0,0,0,0,0,0,0,-1,839,841,0,0
-378,183,0,0,0,0,0,0,0,0,0,-1,846,841,0,0
-371,183,0,0,0,0,0,0,0,0,0,-1,853,841,0,0
-364,183,0,0,0,0,0,0,0,0,0,-1,860,841,0,0
-357,183,0,0,0,0,0,0,0,0,0,-1,867,841,0,0
-350,183,0,0,0,0,0,0,0,0,0,-1,874,841,0,0
-343,183,0,0,0,0,0,0,0,0,0,-1,881,841,0,0
-336,183,0,0,0,0,0,0,0,0,0,-1,888,841,0,0
-329,183,0,0,0,0,0,0,0,0,0,-1,895,841,0,0
-322,183,0,0,0,0,0,0,0,0,0,-1,902,841,0,0
-315,183,0,0,0,0,0,0,0,0,0,-1,909,841,0,0
-308,183,0,0,0,0,0,0,0,0,0,-1,916,841,0,0
-301,183,0,0,0,0,0,0,0,0,0,-1,923,841,0,0
-294,183,0,0,0,0,0,0,0,0,0,-1,930,841,0,0
-287,183,0,0,0,0,0,0,0,0,0,-1,937,841,0,0
-280,183,0,0,0,0,0,0,0,0,0,-1,944,841,0,0
-273,183,0,0,0,0,0,0,0,0,0,-1,951,841,0,0
-266,183,0,0,0,0,0,0,0,0,0,-1,958,841,0,0
-259,183,0,0,0,0,0,0,0,0,0,-1,965,841,0,0
-252,183,0,0,0,0,0,0,0,0,0,-1,972,841,0,0
-245,183,0,0,0,0,0,0,0,0,0,-1,979,841,0,0
-238,183,0,0,0,0,0,0,0,0,0,-1,986,841,0,0
-231,183,0,0,0,0,0,0,0,0,0,-1,993,841,0,0
-224,183,0,0,0,0,0,0,0,0,0,-1,1000,841,0,0
-217,183,0,0,0,0,0,0,0,0,0,-1,1007,841,0,0
-210,183,0,0,0,0,0,0,0,0,0,-1,1014,841,0,0
-203,183,0,0,0,0,0,0,0,0,0,-1,1021,841,0,0
-196,183,0,0,0,0,0,0,0,0,0,-1,1028,841,0,0
-189,183,0,0,0,0,0,0,0,0,0,-1,1035,841,0,0
-182,183,0,0,0,0,0,0,0,0,0,-1,1042,841,0,0
-175,183,0,0,0,0,0,0,0,0,0,-1,1049,841,0,0
-168,183,0,0,0,0,0,0,0,0,0,-1,1056,841,0,0
-161,183,0,0,0,0,0,0,0,0,0,-1,1063,841,0,0
-154,183,0,0,0,0,0,0,0,0,0,-1,1070,841,0,0
-147,183,0,0,0,0,0,0,0,0,0,-1,1077,841,0,0
-140,183,0,0,0,0,0,0,0,0,0,-1,1084,841,0,0
-133,183,0,0,0,0,0,0,0,0,0,-1,1091,841,0,0
-126,183,0,0,0,0,0,0,0,0,0,-1,1098,841,0,0
-119,183,0,0,0,0,0,0,0,0,0,-1,1105,841,0,0
-112,183,0,0,0,0,0,0,0,0,0,-1,1112,841,0,0
-105,183,0,0,0,0,0,0,0,0,0,-1,1119,841,0,0
-98,183,0,0,0,0,0,0,0,0,0,-1,1126,841,0,0
-91,183,0,0,0,0,0,0,0,0,0,-1,1133,841,0,0
-84,183,0,0,0,0,0,0,0,0,0,-1,1140,841,0,0
-77,183,0,0,0,0,0,0,0,0,0,-1,1147,841,0,0
-70,183,0,0,0,0,0,0,0,0,0,-1,1154,841,0,0
-63,183,0,0,0,0,0,0,0,0,0,-1,1161,841,0,0
-56,183,0,0,0,0,0,0,0,0,0,-1,1168,841,0,0
-49,183,0,0,0,0,0,0,0,0,0,-1,1175,841,0,0
-42,183,0,0,0,0,0,0,0,0,0,-1,1182,841,0,0
-35,183,0,0,0,0,0,0,0,0,0,-1,1189,841,0,0
-28,183,0,0,0,0,0,0,0,0,0,-1,1196,841,0,0
-21,183,0,0,0,0,0,0,0,0,0,-1,1203,841,0,0
-14,183,0,0,0,0,0,0,0,0,0,-1,1210,841,0,0
-7,183,0,0,0,0,0,0,0,0,0,-1,1217,841,0,0
0,183,0,0,0,0,0,0,0,0,0,-1,1224,841,0,0
7,183,0,0,0,0,0,0,0,0,0,-1,1231,841,0,0
14,183,0,0,0,0,0,0,0,0,0,-1,1238,841,0,0
21,183,0,0,0,0,0,0,0,0,0,-1,1245,841,0,0
28,183,0,0,0,0,0,0,0,0,0,-1,1252,841,0,0
35,183,0,0,0,0,0,0,0,0,0,-1,1259,841,0,0
42,183,0,0,0,0,0,0,0,0,0,-1,1266,841,0,0
49,183,0,0,0,0,0,0,0,0,0,-1,1273,841,0,0
56,183,0,0,0,0,0,0,0,0,0,-1,1280,841,0,0
63,183,0,0,0,0,0,0,0,0,0,-1,1287,841,0,0
70,183,0,0,0,0,0,0,0,0,0,-1,1294,841,0,0
77,183,0,0,0,0,0,0,0,0,0,-1,1301,841,0,0
84,183,0,0,0,0,0,0,0,0,0,-1,1308,841,0,0
91,183,0,0,0,0,0,0,0,0,0,-1,1315,841,0,0
98,183,0,0,0,0,0,0,0,0,0,-1,1322,841,0,0
105,183,0,0,0,0,0,0,0,0,0,-1,1329,841,0,0
112,183,0,0,0,0,0,0,0,0,0,-1,1336,841,0,0
119,183,0,0,0,0,0,0,0,0,0,-1,1343,841,0,0
126,183,0,0,0,0,0,0,0,0,0,-1,1350,841,0,0
133,183,0,0,0,0,0,0,0,0,0,-1,1357,841,0,0
140,183,0,0,0,0,0,0,0,0,0,-1,1364,841,0,0
147,183,0,0,0,0,0,0,0,0,0,-1,1371,841,0,0
154,183,0,0,0,0,0,0,0,0,0,-1,1378,841,0,0
161,183,0,0,0,0,0,0,0,0,0,-1,1385,841,0,0
168,183,0,0,0,0,0,0,0,0,0,-1,1392,841,0,0
175,183,0,0,0,0,0,0,0,0,0,-1,1399,841,0,0
182,183,0,0,0,0,0,0,0,0,0,-1,1406,841,0,0
189,183,0,0,0,0,0,0,0,0,0,-1,1413,841,0,0
196,183,0,0,0,0,0,0,0,0,0,-1,1420,841,0,0
203,183,0,0,0,0,0,0,0,0,0,-1,1427,841,0,0
210,183,0,0,0,0,0,0,0,0,0,-1,1434,841,0,0
217,183,0,0,0,0,0,0,0,0,0,-1,1441,841,0,0
224,183,0,0,0,0,0,0,0,0,0,-1,1448,841,0,0
231,183,0,0,0,0,0,0,0,0,0,-1,1455,841,0,0
238,183,0,0,0,0,0,0,0,0,0,-1,1462,841,0,0
245,183,0,0,0,0,0,0,0,0,0,-1,1469,841,0,0
252,183,0,0,0,0,0,0,0,0,0,-1,1476,841,0,0
259,183,0,0,0,0,0,0,0,0,0,-1,1483,841,0,0
266,183,0,0,0,0,0,0,0,0,0,-1,1490,841,0,0
273,183,0,0,0,0,0,0,0,0,0,-1,1497,841,0,0
280,183,0,0,0,0,0,0,0,0,0,-1,1504,841,0,0
287,183,0,0,0,0,0,0,0,0,0,-1,1511,841,0,0
294,183,0,0,0,0,0,0,0,0,0,-1,1518,841,0,0
301,183,0,0,0,0,0,0,0,0,0,-1,1525,841,0,0
308,183,0,0,0,0,0,0,0,0,0,-1,1532,841,0,0
315,183,0,0,0,0,0,0,0,0,0,-1,1539,841,0,0
322,183,0,0,0,0,0,0,0,0,0,-1,1546,841,0,0
329,183,0,0,0,0,0,0,0,0,0,-1,1553,841,0,0
336,183,0,0,0,0,0,0,0,0,0,-1,1560,841,0,0
343,183,0,0,0,0,0,0,0,0,0,-1,1567,841,0,0
350,183,0,0,0,0,0,0,0,0,0,-1,1574,841,0,0
357,183,0,0,0,0,0,0,0,0,0,-1,1581,841,0,0
364,183,0,0,0,0,0,0,0,0,0,-1,1588,841,0,0
371,183,0,0,0,0,0,0,0,0,0,-1,1595,841,0,0
378,183,0,0,0,0,0,0,0,0,0,-1,1602,841,0,0
385,183,0,0,0,0,0,0,0,0,0,-1,1609,841,0,0
392,183,0,0,0,0,0,0,0,0,0,-1,1616,841,0,0
399,183,0,0,0,0,0,0,0,0,0,-1,1623,841,0,0
406,183,0,0,0,0,0,0,0,0,0,-1,1630,841,0,0
413,183,0,0,0,0,0,0,0,0,0,-1,1637,841,0,0
420,183,0,0,0,0,0,0,0,0,0,-1,1644,841,0,0
427,183,0,0,0,0,0,0,0,0,0,-1,1651,841,0,0
434,183,0,0,0,0,0,0,0,0,0,-1,1658,841,0,0
441,183,0,0,0,0,0,0,0,0,0,-1,1665,841,0,0
448,183,0,0,0,0,0,0,0,0,0,-1,1672,841,0,0
455,183,0,0,0,0,0,0,0,0,0,-1,1679,841,0,0
462,183,0,0,0,0,0,0,0,0,0,-1,1686,841,0,0
469,183,0,0,0,0,0,0,0,0,0,-1,1693,841,0,0
476,183,0,0,0,0,0,0,0,0,0,-1,1700,841,0,0
483,183,0,0,0,0,0,0,0,0,0,-1,1707,841,0,0
490,183,0,0,0,0,0,0,0,0,0,-1,1714,841,0,0
497,183,0,0,0,0,0,0,0,0,0,-1,1721,841,0,0
504,183,0,0,0,0,0,0,0,0,0,-1,1728,841,0,0
511,183,0,0,0,0,0,0,0,0,0,-1,1735,841,0,0
518,183,0,0,0,0,0,0,0,0,0,-1,1742,841,0,0
525,183,0,0,0,0,0,0,0,0,0,-1,1749,841,0,0
532,183,0,0,0,0,0,0,0,0,0,-1,1756,841,0,0
539,183,0,0,0,0,0,0,0,0,0,-1,1763,841,0,0
546,183,0,0,0,0,0,0,0,0,0,-1,1770,841,0,0
553,183,0,0,0,0,0,0,0,0,0,-1,1777,841,0,0
560,183,0,0,0,0,0,0,0,0,0,-1,1784,841,0,0
567,183,0,0,0,0,0,0,0,0,0,-1,1791,841,0,0
574,183,0,0,0,0,0,0,0,0,0,-1,1798,841,0,0
581,183,0,0,0,0,0,0,0,0,0,-1,1805,841,0,0
588,183,0,0,0,0,0,0,0,0,0,-1,1812,841,0,0
595,183,0,0,0,0,0,0,0,0,0,-1,1819,841,0,0
602,183,0,0,0,0,0,0,0,0,0,-1,1826,841,0,0
609,183,15.8231,2.49493,-0.000535345,0.00374372,0.00105672,0.00399045,-0.000782074,1.34142,0.00295568,0.0401498,1833,841,15.8231,-2.49494
616,183,15.8964,2.27466,0.00111157,0.00169214,0.000678653,0.00213998,0.000663725,0.98749,0.00126486,0.0399932,1840,841,15.8963,-2.27463
623,183,15.9155,2.26141,0.00233922,-9.08794e-05,0.000337939,0.00238534,-0.000136999,0.135636,0.0016378,0.0417688,1847,841,15.9155,-2.26144
630,183,15.8927,2.42126,0.00221675,-0.0014381,-0.000696354,0.00234493,-0.00156628,-0.182035,0.00227301,0.0423008,1854,841,15.8927,-2.42124
637,183,15.8735,2.43994,0.00122353,-0.00233999,-0.00180089,0.00197513,-0.00309158,-0.395369,0.00294884,0.0372783,1861,841,15.8736,-2.43994
644,183,15.7087,2.39105,-9.16094e-05,-0.00288287,-0.00272925,0.00157815,-0.00455263,-0.549051,0.00367585,0.0280254,1868,841,15.7087,-2.39103
651,183,15.7733,2.38239,-0.00127887,-0.00319629,-0.00348052,0.00137257,-0.00584773,-0.651007,0.0044275,0.0236991,1875,841,15.7733,-2.38239
658,183,15.0521,2.63641,0,0,0,0,0,0,0,-1,1882,841,15.0521,-2.6364
665,183,14.1929,2.64392,0,0,0,0,0,0,0,-1,1889,841,14.1929,-2.6439
672,183,13.2397,2.36426,-0.00403227,-0.00287593,-0.00448703,0.00107003,-0.00797822,-0.849472,0.00570901,0.0432453,1896,841,13.2397,-2.36426
679,183,12.9487,2.04034,-0.00481041,-0.00261611,-0.00459385,0.00100979,-0.00843631,-0.902618,0.00598924,0.0319379,1903,841,12.9487,-2.04034
686,183,12.9376,2.1142,-0.00516601,-0.00224821,-0.00452486,0.00104712,-0.00846135,-0.941346,0.00602037,0.0138982,1910,841,12.9376,-2.1142
693,183,12.9525,2.25281,-0.00508237,-0.00191501,-0.0041812,0.000972382,-0.00796976,-0.96643,0.00566519,0.0110084,1917,841,12.9525,-2.25283
700,183,12.9447,2.40002,-0.0050855,-0.00143624,-0.00366844,0.000836291,-0.00735804,-1.01618,0.00520656,0.0139318,1924,841,12.9446,-2.40001
707,183,12.959,2.54181,-0.00508441,-0.000717361,-0.00325316,0.00101713,-0.0068189,-1.08097,0.00492015,0.0118714,1931,841,12.959,-2.54181
714,183,12.9796,2.66168,-0.00461336,-0.000451727,-0.00262316,0.000815701,-0.00588079,-1.1207,0.0042188,0.0153044,1938,841,12.9796,-2.66168
721,183,12.9546,2.79608,-0.00437293,-0.000154664,-0.00213141,0.000734763,-0.00526235,-1.17547,0.00377706,0.0138585,1945,841,12.9546,-2.79606
728,183,12.9385,2.93793,-0.00444029,0.000112163,-0.00161417,0.000626412,-0.00495454,-1.26238,0.0035304,0.0117702,1952,841,12.9385,-2.93792
735,183,12.9502,3.05249,-0.00542644,0.000313861,-0.00161803,0.00073852,-0.0058511,-1.31413,0.00416877,0.0116305,1959,841,12.9502,-3.0525
742,183,12.9635,3.20093,-0.00729633,0.000460062,-0.00181784,0.000864966,-0.00770123,-1.35163,0.00544542,0.0118201,1966,841,12.9636,-3.20092
749,183,12.9221,3.38525,-0.0101723,0.000538023,-0.00214056,0.00094999,-0.0105843,-1.38066,0.00739321,0.0323669,1973,841,12.9222,-3.38523
756,183,12.8529,3.44464,-0.0138234,0.000542494,-0.00244162,0.000946132,-0.014227,-1.40696,0.00981525,0.0447572,1980,841,12.8529,-3.44463
763,183,12.8654,3.51514,0,0,0,0,0,0,0,-1,1987,841,12.8654,-3.51511
770,183,13.3224,2.43439,0,0,0,0,0,0,0,-1,1994,841,13.3224,-2.43436
777,183,13.5894,2.07959,0,0,0,0,0,0,0,-1,2001,841,13.5894,-2.0796
784,183,0,0,0,0,0,0,0,0,0,-1,2008,841,0,0
791,183,0,0,0,0,0,0,0,0,0,-1,2015,841,0,0
798,183,0,0,0,0,0,0,0,0,0,-1,2022,841,0,0
805,183,0,0,0,0,0,0,0,0,0,-1,2029,841,0,0
812,183,0,0,0,0,0,0,0,0,0,-1,2036,841,0,0
-700,176,0,0,0,0,0,0,0,0,0,-1,524,848,0,0
-693,176,0,0,0,0,0,0,0,0,0,-1,531,848,0,0
-686,176,0,0,0,0,0,0,0,0,0,-1,538,848,0,0
-679,176,0,0,0,0,0,0,0,0,0,-1,545,848,0,0
-672,176,0,0,0,0,0,0,0,0,0,-1,552,848,0,0
-665,176,-9.3551,0.260498,0,0,0,0,0,0,0,-1,559,848,-9.35512,-0.260479
-658,176,-8.9447,0.522888,-0.00225047,0.0574605,0.0212973,0.0642782,-0.00906819,1.26098,0.0461726,0.049282,566,848,-8.94472,-0.522911
-651,176,-8.68488,0.745178,5.99322e-05,0.0482948,0.0186067,0.0546381,-0.00628341,1.24224,0.0386903,0.048006,573,848,-8.68489,-0.745205
-644,176,-8.59967,0.872559,0,0,0,0,0,0,0,-1,580,848,-8.59966,-0.872545
-637,176,-8.51599,0.938354,0.00278628,0.0312021,0.0135,0.036593,-0.00260463,1.19087,0.0253083,0.0452875,587,848,-8.51602,-0.938336
-630,176,-8.47626,1.03168,0.00339716,0.0237383,0.0111781,0.0286803,-0.00154484,1.15452,0.0196554,0.0426444,594,848,-8.47628,-1.03165
-623,176,-8.3009,1.13873,0.00361764,0.0172576,0.00907189,0.0217871,-0.000911884,1.10771,0.014838,0.0403776,601,848,-8.30093,-1.13875
-616,176,-8.00702,1.1795,0.00363748,0.0120777,0.00742585,0.0163988,-0.000683635,1.04379,0.0111674,0.0268993,608,848,-8.007,-1.17949
-609,176,-7.87439,1.09399,0.00317836,0.00807136,0.00566334,0.011794,-0.000544313,0.989286,0.00805027,0.0114134,615,848,-7.87436,-1.09396
-602,176,-7.88263,0.983032,0.00260645,0.00425794,0.00404084,0.00755654,-0.000692153,0.886185,0.00528355,0.0120562,622,848,-7.88264,-0.983045
-595,176,-7.89478,0.868591,0.00156154,0.00148716,0.00305847,0.00458304,-0.00153434,0.779318,0.00367517,0.010655,629,848,-7.89477,-0.86861
-588,176,-7.87708,0.741089,0.000124164,-0.000105295,0.00241091,0.00242307,-0.0024042,0.761622,0.00278704,0.0105898,636,848,-7.87706,-0.741111
-581,176,-7.88556,0.635376,-0.0012692,-0.00038532,0.00197563,0.0011972,-0.00285172,0.895435,0.00240182,0.0108647,643,848,-7.88559,-0.635406
-574,176,-7.88507,0.538452,-0.00250177,-0.000338364,0.00159512,0.000507238,-0.00334737,1.08335,0.00241846,0.0127324,650,848,-7.88504,-0.538442
-567,176,-7.84558,0.442078,-0.0035305,0.000123067,0.00153036,0.000679379,-0.00408681,1.22213,0.00297696,0.0171938,657,848,-7.84559,-0.442065
-560,176,-7.92377,0.308228,-0.00444572,0.00047557,0.00167473,0.000991417,-0.00496156,1.272,0.00368293,0.0140578,664,848,-7.92375,-0.308251
-553,176,-7.85431,0.13855,-0.00515103,0.00124502,0.00209665,0.00187103,-0.00577705,1.28064,0.00460358,0.0231398,671,848,-7.85433,-0.138557
-546,176,-7.79468,-0.0606079,-0.00566044,0.00184376,0.00248589,0.00259254,-0.00640921,1.27823,0.00535061,0.0408615,678,848,-7.79467,0.0606233
-539,176,-7.62128,-0.346924,0,0,0,0,0,0,0,-1,685,848,-7.6213,0.346899
-532,176,-9.91376,0.643616,-0.0057768,0.00333655,0.00310657,0.00429477,-0.00673502,1.27161,0.00641979,0.0395791,692,848,-9.91376,-0.643608
-525,176,-9.93622,0.538147,-0.00551197,0.0042425,0.00348863,0.00536176,-0.00663124,1.26034,0.00693708,0.0475351,699,848,-9.93623,-0.538172
-518,176,-9.97363,0.437256,-0.004813,0.0052261,0.00379971,0.00650208,-0.00608898,1.24682,0.00727075,0.0429998,706,848,-9.97365,-0.437227
-511,176,-10.0044,0.313538,-0.00354176,0.00604853,0.00390309,0.00743622,-0.00492945,1.2292,0.00718806,0.0410036,713,848,-10.0044,-0.313557
-504,176,-10.0031,0.443176,-0.00154464,0.00650234,0.00355959,0.00785093,-0.00289323,1.20865,0.00641949,0.0430773,720,848,-10.0031,-0.443178
-497,176,-10.038,0.736816,0.0012299,0.00620412,0.00246953,0.00722191,0.000212112,1.17987,0.00474548,0.0427782,727,848,-10.0379,-0.736795
-490,176,-9.83038,0.688965,0,0,0,0,0,0,0,-1,734,848,-9.83036,-0.68898
-483,176,0,0,0,0,0,0,0,0,0,-1,741,848,0,0
-476,176,0,0,0,0,0,0,0,0,0,-1,748,848,0,0
-469,176,0,0,0,0,0,0,0,0,0,-1,755,848,0,0
-462,176,0,0,0,0,0,0,0,0,0,-1,762,848,0,0
-455,176,0,0,0,0,0,0,0,0,0,-1,769,848,0,0
-448,176,0,0,0,0,0,0,0,0,0,-1,776,848,0,0
-441,176,0,0,0,0,0,0,0,0,0,-1,783,848,0,0
-434,176,0,0,0,0,0,0,0,0,0,-1,790,848,0,0
-427,176,0,0,0,0,0,0,0,0,0,-1,797,848,0,0
-420,176,0,0,0,0,0,0,0,0,0,-1,804,848,0,0
-413,176,0,0,0,0,0,0,0,0,0,-1,811,848,0,0
-406,176,0,0,0,0,0,0,0,0,0,-1,818,848,0,0
-399,176,0,0,0,0,0,0,0,0,0,-1,825,848,0,0
-392,176,0,0,0,0,0,0,0,0,0,-1,832,848,0,0
-385,176,0,0,0,0,0,0,0,0,0,-1,839,848,0,0
-378,176,0,0,0,0,0,0,0,0,0,-1,846,848,0,0
-371,176,0,0,0,0,0,0,0,0,0,-1,853,848,0,0
-364,176,0,0,0,0,0,0,0,0,0,-1,860,848,0,0
-357,176,0,0,0,0,0,0,0,0,0,-1,867,848,0,0
-350,176,0,0,0,0,0,0,0,0,0,-1,874,848,0,0
-343,176,0,0,0,0,0,0,0,0,0,-1,881,848,0,0
-336,176,0,0,0,0,0,0,0,0,0,-1,888,848,0,0
-329,176,0,0,0,0,0,0,0,0,0,-1,895,848,0,0
-322,176,0,0,0,0,0,0,0,0,0,-1,902,848,0,0
-315,176,0,0,0,0,0,0,0,0,0,-1,909,848,0,0
-308,176,0,0,0,0,0,0,0,0,0,-1,916,848,0,0
-301,176,0,0,0,0,0,0,0,0,0,-1,923,848,0,0
-294,176,0,0,0,0,0,0,0,0,0,-1,930,848,0,0
-287,176,0,0,0,0,0,0,0,0,0,-1,937,848,0,0
-280,176,0,0,0,0,0,0,0,0,0,-1,944,848,0,0
-273,176,0,0,0,0,0,0,0,0,0,-1,951,848,0,0
-266,176,0,0,0,0,0,0,0,0,0,-1,958,848,0,0
-259,176,0,0,0,0,0,0,0,0,0,-1,965,848,0,0
-252,176,0,0,0,0,0,0,0,0,0,-1,972,848,0,0
-245,176,0,0,0,0,0,0,0,0,0,-1,979,848,0,0
-238,176,0,0,0,0,0,0,0,0,0,-1,986,848,0,0
-231,176,0,0,0,0,0,0,0,0,0,-1,993,848,0,0
-224,176,0,0,0,0,0,0,0,0,0,-1,1000,848,0,0
-217,176,0,0,0,0,0,0,0,0,0,-1,1007,848,0,0
-210,176,0,0,0,0,0,0,0,0,0,-1,1014,848,0,0
-203,176,0,0,0,0,0,0,0,0,0,-1,1021,848,0,0
-196,176,0,0,0,0,0,0,0,0,0,-1,1028,848,0,0
-189,176,0,0,0,0,0,0,0,0,0,-1,1035,848,0,0
-182,176,0,0,0,0,0,0,0,0,0,-1,1042,848,0,0
-175,176,0,0,0,0,0,0,0,0,0,-1,1049,848,0,0
-168,176,0,0,0,0,0,0,0,0,0,-1,1056,848,0,0
-161,176,0,0,0,0,0,0,0,0,0,-1,1063,848,0,0
-154,176,0,0,0,0,0,0,0,0,0,-1,1070,848,0,0
-147,176,0,0,0,0,0,0,0,0,0,-1,1077,848,0,0
-140,176,0,0,0,0,0,0,0,0,0,-1,1084,848,0,0
-133,176,0,0,0,0,0,0,0,0,0,-1,1091,848,0,0
-126,176,0,0,0,0,0,0,0,0,0,-1,1098,848,0,0
-119,176,0,0,0,0,0,0,0,0,0,-1,1105,848,0,0
-112,176,0,0,0,0,0,0,0,0,0,-1,1112,848,0,0
-105,176,0,0,0,0,0,0,0,0,0,-1,1119,848,0,0
-98,176,0,0,0,0,0,0,0,0,0,-1,1126,848,0,0
-91,176,0,0,0,0,0,0,0,0,0,-1,1133,848,0,0
-84,176,0,0,0,0,0,0,0,0,0,-1,1140,848,0,0
-77,176,0,0,0,0,0,0,0,0,0,-1,1147,848,0,0
-70,176,0,0,0,0,0,0,0,0,0,-1,1154,848,0,0
-63,176,0,0,0,0,0,0,0,0,0,-1,1161,848,0,0
-56,176,0,0,0,0,0,0,0,0,0,-1,1168,848,0,0
-49,176,0,0,0,0,0,0,0,0,0,-1,1175,848,0,0
-42,176,0,0,0,0,0,0,0,0,0,-1,1182,848,0,0
-35,176,0,0,0,0,0,0,0,0,0,-1,1189,848,0,0
-28,176,0,0,0,0,0,0,0,0,0,-1,1196,848,0,0
-21,176,0,0,0,0,0,0,0,0,0,-1,1203,848,0,0
-14,176,0,0,0,0,0,0,0,0,0,-1,1210,848,0,0
-7,176,0,0,0,0,0,0,0,0,0,-1,1217,848,0,0
0,176,0,0,0,0,0,0,0,0,0,-1,1224,848,0,0
7,176,0,0,0,0,0,0,0,0,0,-1,1231,848,0,0
14,176,0,0,0,0,0,0,0,0,0,-1,1238,848,0,0
21,176,0,0,0,0,0,0,0,0,0,-1,1245,848,0,0
28,176,0,0,0,0,0,0,0,0,0,-1,1252,848,0,0
35,176,0,0,0,0,0,0,0,0,0,-1,1259,848,0,0
42,176,0,0,0,0,0,0,0,0,0,-1,1266,848,0,0
49,176,0,0,0,0,0,0,0,0,0,-1,1273,848,0,0
56,176,0,0,0,0,0,0,0,0,0,-1,1280,848,0,0
63,176,0,0,0,0,0,0,0,0,0,-1,1287,848,0,0
70,176,0,0,0,0,0,0,0,0,0,-1,1294,848,0,0
77,176,0,0,0,0,0,0,0,0,0,-1,1301,848,0,0
84,176,0,0,0,0,0,0,0,0,0,-1,1308,848,0,0
91,176,0,0,0,0,0,0,0,0,0,-1,1315,848,0,0
98,176,0,0,0,0,0,0,0,0,0,-1,1322,848,0,0
105,176,0,0,0,0,0,0,0,0,0,-1,1329,848,0,0
112,176,0,0,0,0,0,0,0,0,0,-1,1336,848,0,0
119,176,0,0,0,0,0,0,0,0,0,-1,1343,848,0,0
126,176,0,0,0,0,0,0,0,0,0,-1,1350,848,0,0
133,176,0,0,0,0,0,0,0,0,0,-1,1357,848,0,0
140,176,0,0,0,0,0,0,0,0,0,-1,1364,848,0,0
147,176,0,0,0,0,0,0,0,0,0,-1,1371,848,0,0
154,176,0,0,0,0,0,0,0,0,0,-1,1378,848,0,0
161,176,0,0,0,0,0,0,0,0,0,-1,1385,848,0,0
168,176,0,0,0,0,0,0,0,0,0,-1,1392,848,0,0
175,176,0,0,0,0,0,0,0,0,0,-1,1399,848,0,0
182,176,0,0,0,0,0,0,0,0,0,-1,1406,848,0,0
189,176,0,0,0,0,0,0,0,0,0,-1,1413,848,0,0
196,176,0,0,0,0,0,0,0,0,0,-1,1420,848,0,0
203,176,0,0,0,0,0,0,0,0,0,-1,1427,848,0,0
210,176,0,0,0,0,0,0,0,0,0,-1,1434,848,0,0
217,176,0,0,0,0,0,0,0,0,0,-1,1441,848,0,0
224,176,0,0,0,0,0,0,0,0,0,-1,1448,848,0,0
231,176,0,0,0,0,0,0,0,0,0,-1,1455,848,0,0
238,176,0,0,0,0,0,0,0,0,0,-1,1462,848,0,0
245,176,0,0,0,0,0,0,0,0,0,-1,1469,848,0,0
252,176,0,0,0,0,0,0,0,0,0,-1,1476,848,0,0
259,176,0,0,0,0,0,0,0,0,0,-1,1483,848,0,0
266,176,0,0,0,0,0,0,0,0,0,-1,1490,848,0,0
273,176,0,0,0,0,0,0,0,0,0,-1,1497,848,0,0
280,176,0,0,0,0,0,0,0,0,0,-1,1504,848,0,0
287,176,0,0,0,0,0,0,0,0,0,-1,1511,848,0,0
294,176,0,0,0,0,0,0,0,0,0,-1,1518,848,0,0
301,176,0,0,0,0,0,0,0,0,0,-1,1525,848,0,0
308,176,0,0,0,0,0,0,0,0,0,-1,1532,848,0,0
315,176,0,0,0,0,0,0,0,0,0,-1,1539,848,0,0
322,176,0,0,0,0,0,0,0,0,0,-1,1546,848,0,0
329,176,0,0,0,0,0,0,0,0,0,-1,1553,848,0,0
336,176,0,0,0,0,0,0,0,0,0,-1,1560,848,0,0
343,176,0,0,0,0,0,0,0,0,0,-1,1567,848,0,0
350,176,0,0,0,0,0,0,0,0,0,-1,1574,848,0,0
357,176,0,0,0,0,0,0,0,0,0,-1,1581,848,0,0
364,176,0,0,0,0,0,0,0,0,0,-1,1588,848,0,0
371,176,0,0,0,0,0,0,0,0,0,-1,1595,848,0,0
378,176,0,0,0,0,0,0,0,0,0,-1,1602,848,0,0
385,176,0,0,0,0,0,0,0,0,0,-1,1609,848,0,0
392,176,0,0,0,0,0,0,0,0,0,-1,1616,848,0,0
399,176,0,0,0,0,0,0,0,0,0,-1,1623,848,0,0
406,176,0,0,0,0,0,0,0,0,0,-1,1630,848,0,0
413,176,0,0,0,0,0,0,0,0,0,-1,1637,848,0,0
420,176,0,0,0,0,0,0,0,0,0,-1,1644,848,0,0
427,176,0,0,0,0,0,0,0,0,0,-1,1651,848,0,0
434,176,0,0,0,0,0,0,0,0,0,-1,1658,848,0,0
441,176,0,0,0,0,0,0,0,0,0,-1,1665,848,0,0
448,176,0,0,0,0,0,0,0,0,0,-1,1672,848,0,0
455,176,0,0,0,0,0,0,0,0,0,-1,1679,848,0,0
462,176,0,0,0,0,0,0,0,0,0,-1,1686,848,0,0
469,176,0,0,0,0,0,0,0,0,0,-1,1693,848,0,0
476,176,0,0,0,0,0,0,0,0,0,-1,1700,848,0,0
483,176,0,0,0,0,0,0,0,0,0,-1,1707,848,0,0
490,176,0,0,0,0,0,0,0,0,0,-1,1714,848,0,0
497,176,0,0,0,0,0,0,0,0,0,-1,1721,848,0,0
504,176,0,0,0,0,0,0,0,0,0,-1,1728,848,0,0
511,176,0,0,0,0,0,0,0,0,0,-1,1735,848,0,0
518,176,0,0,0,0,0,0,0,0,0,-1,1742,848,0,0
525,176,0,0,0,0,0,0,0,0,0,-1,1749,848,0,0
532,176,0,0,0,0,0,0,0,0,0,-1,1756,848,0,0
539,176,0,0,0,0,0,0,0,0,0,-1,1763,848,0,0
546,176,0,0,0,0,0,0,0,0,0,-1,1770,848,0,0
553,176,0,0,0,0,0,0,0,0,0,-1,1777,848,0,0
560,176,0,0,0,0,0,0,0,0,0,-1,1784,848,0,0
567,176,0,0,0,0,0,0,0,0,0,-1,1791,848,0,0
574,176,0,0,0,0,0,0,0,0,0,-1,1798,848,0,0
581,176,0,0,0,0,0,0,0,0,0,-1,1805,848,0,0
588,176,0,0,0,0,0,0,0,0,0,-1,1812,848,0,0
595,176,0,0,0,0,0,0,0,0,0,-1,1819,848,0,0
602,176,0,0,0,0,0,0,0,0,0,-1,1826,848,0,0
609,176,15.7852,2.427,-0.000303913,0.004969,0.000579998,0.00503204,-0.000366957,1.46253,0.00348346,0.0395246,1833,848,15.7852,-2.42699
616,176,15.5574,2.47742,0.00131226,0.00314328,0.000376812,0.00321779,0.00123775,1.37557,0.0018742,0.0407563,1840,848,15.5573,-2.47743
623,176,15.9099,2.40088,0.00279289,0.00143468,0.000537542,0.00297989,0.00124768,0.334781,0.001728,0.045366,1847,848,15.9099,-2.40089
630,176,16.0341,2.45282,0.00270964,1.93358e-06,-0.000325054,0.00274812,-3.65417e-05,-0.117818,0.00184438,0.0430038,1854,848,16.034,-2.45283
637,176,15.8734,2.40753,0.00160195,-0.00106147,-0.00139129,0.00219616,-0.00165567,-0.403638,0.00223114,0.0336023,1861,848,15.8734,-2.40754
644,176,15.6771,2.37695,-2.91209e-05,-0.00177046,-0.00238904,0.00164296,-0.00344254,-0.610656,0.00299677,0.0300847,1868,848,15.6771,-2.37695
651,176,15.7057,2.39648,-0.00152128,-0.00223153,-0.00321959,0.00136271,-0.00511552,-0.730469,0.00394385,0.0305553,1875,848,15.7057,-2.39647
658,176,15.8151,2.35986,-0.0027207,-0.00233659,-0.00381807,0.00129425,-0.00635154,-0.810527,0.00472524,0.0369576,1882,848,15.815,-2.35988
665,176,15.0343,2.21857,0,0,0,0,0,0,0,-1,1889,848,15.0343,-2.21858
672,176,14.1011,2.55902,-0.00483664,-0.00235888,-0.0044331,0.0010052,-0.00820072,-0.921653,0.00583116,0.0454263,1896,848,14.101,-2.55902
679,176,13.1526,2.04797,-0.0057048,-0.00223237,-0.00458273,0.000932015,-0.00886919,-0.966474,0.00624668,0.0425726,1903,848,13.1526,-2.04796
686,176,13.1404,2.1037,-0.00612858,-0.00199414,-0.00454516,0.000931826,-0.00905454,-0.998825,0.00636973,0.0193517,1910,848,13.1404,-2.10368
693,176,13.1161,2.27997,-0.00612528,-0.00168248,-0.00424551,0.000887666,-0.00869543,-1.02643,0.00611436,0.0111707,1917,848,13.116,-2.27997
700,176,13.1068,2.40704,-0.00611558,-0.00122453,-0.00380382,0.000852076,-0.00819219,-1.07109,0.00576651,0.0156755,1924,848,13.1068,-2.40703
707,176,13.1173,2.55743,-0.00591591,-0.00056878,-0.00341899,0.00109787,-0.00758255,-1.11722,0.00545792,0.0139804,1931,848,13.1174,-2.55744
714,176,13.1168,2.67236,-0.00511572,-0.000227717,-0.00274795,0.00100583,-0.00634927,-1.14886,0.00460488,0.0116999,1938,848,13.1168,-2.67236
721,176,13.1099,2.8009,-0.00442151,0.000220664,-0.00216476,0.00107348,-0.00527433,-1.19551,0.00392331,0.0105178,1945,848,13.1099,-2.80093
728,176,13.0977,2.9574,-0.00390379,0.000676283,-0.00151898,0.00113426,-0.00436176,-1.27796,0.00335055,0.0125608,1952,848,13.0977,-2.95742
735,176,13.0911,3.07367,-0.00419814,0.00112317,-0.00143355,0.00148479,-0.00455976,-1.3237,0.00363724,0.0139391,1959,848,13.0911,-3.0737
742,176,13.1039,3.18384,-0.00528284,0.00157574,-0.00159903,0.00193022,-0.00563732,-1.35264,0.00454051,0.017747,1966,848,13.1039,-3.18387
749,176,13.0685,3.34753,-0.00739506,0.00205186,-0.00199688,0.00245662,-0.00779981,-1.37081,0.00618361,0.0281997,1973,848,13.0685,-3.34755
756,176,13.0229,3.43719,-0.0101952,0.00259369,-0.00248733,0.00306043,-0.0106619,-1.38531,0.00831791,0.0444441,1980,848,13.023,-3.4372
763,176,13.001,3.56458,0,0,0,0,0,0,0,-1,1987,848,13.001,-3.56456
770,176,13.0372,3.91492,0,0,0,0,0,0,0,-1,1994,848,13.0373,-3.9149
777,176,13.4132,0.773743,0,0,0,0,0,0,0,-1,2001,848,13.4132,-0.77372
784,176,0,0,0,0,0,0,0,0,0,-1,2008,848,0,0
791,176,0,0,0,0,0,0,0,0,0,-1,2015,848,0,0
798,176,0,0,0,0,0,0,0,0,0,-1,2022,848,0,0
805,176,0,0,0,0,0,0,0,0,0,-1,2029,848,0,0
812,176,0,0,0,0,0,0,0,0,0,-1,2036,848,0,0
-700,169,0,0,0,0,0,0,0,0,0,-1,524,855,0,0
-693,169,0,0,0,0,0,0,0,0,0,-1,531,855,0,0
-686,169,0,0,0,0,0,0,0,0,0,-1,538,855,0,0
-679,169,0,0,0,0,0,0,0,0,0,-1,545,855,0,0
-672,169,0,0,0,0,0,0,0,0,0,-1,552,855,0,0
-665,169,-9.06177,-0.361023,-0.00730342,0.0483979,0.0186384,0.0540592,-0.0129647,1.27591,0.0410492,0.0435676,559,855,-9.0618,0.361048
-658,169,-8.78613,0.253235,-0.00462682,0.0421952,0.0168871,0.0476503,-0.0100819,1.25835,0.0356065,0.0488149,566,855,-8.78614,-0.253213
-651,169,-9.03687,0.460327,-0.00232441,0.0356424,0.0149115,0.0407986,-0.00748062,1.23788,0.0300051,0.0495684,573,855,-9.03687,-0.460346
-644,169,-8.35712,0.765442,0,0,0,0,0,0,0,-1,580,855,-8.35711,-0.765412
-637,169,-8.35181,0.818054,0,0,0,0,0,0,0,-1,587,855,-8.35183,-0.818058
-630,169,-8.18292,1.25934,0,0,0,0,0,0,0,-1,594,855,-8.18291,-1.25933
-623,169,-8.11981,1.19415,0.00222297,0.0126577,0.00726561,0.0163851,-0.0015045,1.09678,0.0114579,0.0381964,601,855,-8.11981,-1.19417
-616,169,-8.03125,1.16589,0.0025456,0.00877974,0.00602059,0.0124423,-0.00111697,1.02427,0.00869116,0.021637,608,855,-8.03126,-1.16589
-609,169,-8.00537,1.09076,0.00232015,0.00573308,0.00459114,0.00892463,-0.000871403,0.963329,0.00626047,0.0133673,615,855,-8.00537,-1.09078
-602,169,-7.99768,0.970886,0.00188774,0.00280136,0.00321473,0.00559157,-0.000902475,0.855976,0.0040621,0.0125484,622,855,-7.99771,-0.970912
-595,169,-8.01215,0.849792,0.00092033,0.000744705,0.00250141,0.00333547,-0.00167043,0.767853,0.00294297,0.0107987,629,855,-8.01215,-0.849809
-588,169,-8.00403,0.730103,-0.000428205,-0.000418149,0.0021165,0.00169333,-0.00253969,0.786586,0.00246016,0.00884366,636,855,-8.00405,-0.730101
-581,169,-8.01862,0.625488,-0.00173477,-0.000535947,0.00183152,0.00079175,-0.00306247,0.943543,0.00235044,0.00937388,643,855,-8.0186,-0.625495
-574,169,-8.04932,0.529907,-0.00281199,-0.000499817,0.00153855,0.000268591,-0.00358039,1.1076,0.00248131,0.0116297,650,855,-8.04929,-0.529877
-567,169,-7.98145,0.439453,-0.00370152,-0.000108151,0.0014938,0.000431722,-0.00424139,1.22399,0.00298194,0.0158921,657,855,-7.98146,-0.439438
-560,169,-8.0202,0.326477,-0.0045061,0.000257021,0.00162661,0.000759499,-0.00500858,1.27118,0.00361888,0.0153687,664,855,-8.02017,-0.326451
-553,169,-7.99182,0.18811,-0.00509386,0.00101212,0.00197429,0.00159487,-0.00567661,1.28378,0.00441316,0.0241503,671,855,-7.99183,-0.188119
-546,169,-7.80347,0.0479126,0,0,0,0,0,0,0,-1,678,855,-7.80348,-0.0479153
-539,169,-9.46637,0.527283,0,0,0,0,0,0,0,-1,685,855,-9.46634,-0.527264
-532,169,-9.93365,0.622314,-0.00516049,0.00311083,0.00280417,0.00397187,-0.00602154,1.27288,0.00581001,0.036726,692,855,-9.93367,-0.622289
-525,169,-9.96692,0.470764,-0.00466548,0.00405978,0.00319568,0.005105,-0.00571071,1.25469,0.00624772,0.0430786,699,855,-9.96692,-0.470742
-518,169,-9.97437,0.366455,-0.00372669,0.00507579,0.00361637,0.00637096,-0.00502185,1.22689,0.006593,0.0409268,706,855,-9.97437,-0.366445
-511,169,-9.90369,0.429932,-0.00219794,0.00595802,0.00395766,0.00756273,-0.00380266,1.18558,0.00668044,0.0421787,713,855,-9.90371,-0.429906
-504,169,-9.85901,0.569458,0,0,0,0,0,0,0,-1,720,855,-9.859,-0.569461
-497,169,-9.93091,0.713074,0,0,0,0,0,0,0,-1,727,855,-9.93094,-0.713103
-490,169,0,0,0,0,0,0,0,0,0,-1,734,855,0,0
-483,169,0,0,0,0,0,0,0,0,0,-1,741,855,0,0
-476,169,0,0,0,0,0,0,0,0,0,-1,748,855,0,0
-469,169,0,0,0,0,0,0,0,0,0,-1,755,855,0,0
-462,169,0,0,0,0,0,0,0,0,0,-1,762,855,0,0
-455,169,0,0,0,0,0,0,0,0,0,-1,769,855,0,0
-448,169,0,0,0,0,0,0,0,0,0,-1,776,855,0,0
-441,169,0,0,0,0,0,0,0,0,0,-1,783,855,0,0
-434,169,0,0,0,0,0,0,0,0,0,-1,790,855,0,0
-427,169,0,0,0,0,0,0,0,0,0,-1,797,855,0,0
-420,169,0,0,0,0,0,0,0,0,0,-1,804,855,0,0
-413,169,0,0,0,0,0,0,0,0,0,-1,811,855,0,0
-406,169,0,0,0,0,0,0,0,0,0,-1,818,855,0,0
-399,169,0,0,0,0,0,0,0,0,0,-1,825,855,0,0
-392,169,0,0,0,0,0,0,0,0,0,-1,832,855,0,0
-385,169,0,0,0,0,0,0,0,0,0,-1,839,855,0,0
-378,169,0,0,0,0,0,0,0,0,0,-1,846,855,0,0
-371,169,0,0,0,0,0,0,0,0,0,-1,853,855,0,0
-364,169,0,0,0,0,0,0,0,0,0,-1,860,855,0,0
-357,169,0,0,0,0,0,0,0,0,0,-1,867,855,0,0
-350,169,0,0,0,0,0,0,0,0,0,-1,874,855,0,0
-343,169,0,0,0,0,0,0,0,0,0,-1,881,855,0,0
-336,169,0,0,0,0,0,0,0,0,0,-1,888,855,0,0
-329,169,0,0,0,0,0,0,0,0,0,-1,895,855,0,0
-322,169,0,0,0,0,0,0,0,0,0,-1,902,855,0,0
-315,169,0,0,0,0,0,0,0,0,0,-1,909,855,0,0
-308,169,0,0,0,0,0,0,0,0,0,-1,916,855,0,0
-301,169,0,0,0,0,0,0,0,0,0,-1,923,855,0,0
-294,169,0,0,0,0,0,0,0,0,0,-1,930,855,0,0
-287,169,0,0,0,0,0,0,0,0,0,-1,937,855,0,0
-280,169,0,0,0,0,0,0,0,0,0,-1,944,855,0,0
-273,169,0,0,0,0,0,0,0,0,0,-1,951,855,0,0
-266,169,0,0,0,0,0,0,0,0,0,-1,958,855,0,0
-259,169,0,0,0,0,0,0,0,0,0,-1,965,855,0,0
-252,169,0,0,0,0,0,0,0,0,0,-1,972,855,0,0
-245,169,0,0,0,0,0,0,0,0,0,-1,979,855,0,0
-238,169,0,0,0,0,0,0,0,0,0,-1,986,855,0,0
-231,169,0,0,0,0,0,0,0,0,0,-1,993,855,0,0
-224,169,0,0,0,0,0,0,0,0,0,-1,1000,855,0,0
-217,169,0,0,0,0,0,0,0,0,0,-1,1007,855,0,0
-210,169,0,0,0,0,0,0,0,0,0,-1,1014,855,0,0
-203,169,0,0,0,0,0,0,0,0,0,-1,1021,855,0,0
-196,169,0,0,0,0,0,0,0,0,0,-1,1028,855,0,0
-189,169,0,0,0,0,0,0,0,0,0,-1,1035,855,0,0
-182,169,0,0,0,0,0,0,0,0,0,-1,1042,855,0,0
-175,169,0,0,0,0,0,0,0,0,0,-1,1049,855,0,0
-168,169,0,0,0,0,0,0,0,0,0,-1,1056,855,0,0
-161,169,0,0,0,0,0,0,0,0,0,-1,1063,855,0,0
-154,169,0,0,0,0,0,0,0,0,0,-1,1070,855,0,0
-147,169,0,0,0,0,0,0,0,0,0,-1,1077,855,0,0
-140,169,0,0,0,0,0,0,0,0,0,-1,1084,855,0,0
-133,169,0,0,0,0,0,0,0,0,0,-1,1091,855,0,0
-126,169,0,0,0,0,0,0,0,0,0,-1,1098,855,0,0
-119,169,0,0,0,0,0,0,0,0,0,-1,1105,855,0,0
-112,169,0,0,0,0,0,0,0,0,0,-1,1112,855,0,0
-105,169,0,0,0,0,0,0,0,0,0,-1,1119,855,0,0
-98,169,0,0,0,0,0,0,0,0,0,-1,1126,855,0,0
-91,169,0,0,0,0,0,0,0,0,0,-1,1133,855,0,0
-84,169,0,0,0,0,0,0,0,0,0,-1,1140,855,0,0
-77,169,0,0,0,0,0,0,0,0,0,-1,1147,855,0,0
-70,169,0,0,0,0,0,0,0,0,0,-1,1154,855,0,0
-63,169,0,0,0,0,0,0,0,0,0,-1,1161,855,0,0
-56,169,0,0,0,0,0,0,0,0,0,-1,1168,855,0,0
-49,169,0,0,0,0,0,0,0,0,0,-1,1175,855,0,0
-42,169,0,0,0,0,0,0,0,0,0,-1,1182,855,0,0
-35,169,0,0,0,0,0,0,0,0,0,-1,1189,855,0,0
-28,169,0,0,0,0,0,0,0,0,0,-1,1196,855,0,0
-21,169,0,0,0,0,0,0,0,0,0,-1,1203,855,0,0
-14,169,0,0,0,0,0,0,0,0,0,-1,1210,855,0,0
-7,169,0,0,0,0,0,0,0,0,0,-1,1217,855,0,0
0,169,0,0,0,0,0,0,0,0,0,-1,1224,855,0,0
7,169,0,0,0,0,0,0,0,0,0,-1,1231,855,0,0
14,169,0,0,0,0,0,0,0,0,0,-1,1238,855,0,0
21,169,0,0,0,0,0,0,0,0,0,-1,1245,855,0,0
28,169,0,0,0,0,0,0,0,0,0,-1,1252,855,0,0
35,169,0,0,0,0,0,0,0,0,0,-1,1259,855,0,0
42,169,0,0,0,0,0,0,0,0,0,-1,1266,855,0,0
49,169,0,0,0,0,0,0,0,0,0,-1,1273,855,0,0
56,169,0,0,0,0,0,0,0,0,0,-1,1280,855,0,0
63,169,0,0,0,0,0,0,0,0,0,-1,1287,855,0,0
70,169,0,0,0,0,0,0,0,0,0,-1,1294,855,0,0
77,169,0,0,0,0,0,0,0,0,0,-1,1301,855,0,0
84,169,0,0,0,0,0,0,0,0,0,-1,1308,855,0,0
91,169,0,0,0,0,0,0,0,0,0,-1,1315,855,0,0
98,169,0,0,0,0,0,0,0,0,0,-1,1322,855,0,0
105,169,0,0,0,0,0,0,0,0,0,-1,1329,855,0,0
112,169,0,0,0,0,0,0,0,0,0,-1,1336,855,0,0
119,169,0,0,0,0,0,0,0,0,0,-1,1343,855,0,0
126,169,0,0,0,0,0,0,0,0,0,-1,1350,855,0,0
133,169,0,0,0,0,0,0,0,0,0,-1,1357,855,0,0
140,169,0,0,0,0,0,0,0,0,0,-1,1364,855,0,0
147,169,0,0,0,0,0,0,0,0,0,-1,1371,855,0,0
154,169,0,0,0,0,0,0,0,0,0,-1,1378,855,0,0
161,169,0,0,0,0,0,0,0,0,0,-1,1385,855,0,0
168,169,0,0,0,0,0,0,0,0,0,-1,1392,855,0,0
175,169,0,0,0,0,0,0,0,0,0,-1,1399,855,0,0
182,169,0,0,0,0,0,0,0,0,0,-1,1406,855,0,0
189,169,0,0,0,0,0,0,0,0,0,-1,1413,855,0,0
196,169,0,0,0,0,0,0,0,0,0,-1,1420,855,0,0
203,169,0,0,0,0,0,0,0,0,0,-1,1427,855,0,0
210,169,0,0,0,0,0,0,0,0,0,-1,1434,855,0,0
217,169,0,0,0,0,0,0,0,0,0,-1,1441,855,0,0
224,169,0,0,0,0,0,0,0,0,0,-1,1448,855,0,0
231,169,0,0,0,0,0,0,0,0,0,-1,1455,855,0,0
238,169,0,0,0,0,0,0,0,0,0,-1,1462,855,0,0
245,169,0,0,0,0,0,0,0,0,0,-1,1469,855,0,0
252,169,0,0,0,0,0,0,0,0,0,-1,1476,855,0,0
259,169,0,0,0,0,0,0,0,0,0,-1,1483,855,0,0
266,169,0,0,0,0,0,0,0,0,0,-1,1490,855,0,0
273,169,0,0,0,0,0,0,0,0,0,-1,1497,855,0,0
280,169,0,0,0,0,0,0,0,0,0,-1,1504,855,0,0
287,169,0,0,0,0,0,0,0,0,0,-1,1511,855,0,0
294,169,0,0,0,0,0,0,0,0,0,-1,1518,855,0,0
301,169,0,0,0,0,0,0,0,0,0,-1,1525,855,0,0
308,169,0,0,0,0,0,0,0,0,0,-1,1532,855,0,0
315,169,0,0,0,0,0,0,0,0,0,-1,1539,855,0,0
322,169,0,0,0,0,0,0,0,0,0,-1,1546,855,0,0
329,169,0,0,0,0,0,0,0,0,0,-1,1553,855,0,0
336,169,0,0,0,0,0,0,0,0,0,-1,1560,855,0,0
343,169,0,0,0,0,0,0,0,0,0,-1,1567,855,0,0
350,169,0,0,0,0,0,0,0,0,0,-1,1574,855,0,0
357,169,0,0,0,0,0,0,0,0,0,-1,1581,855,0,0
364,169,0,0,0,0,0,0,0,0,0,-1,1588,855,0,0
371,169,0,0,0,0,0,0,0,0,0,-1,1595,855,0,0
378,169,0,0,0,0,0,0,0,0,0,-1,1602,855,0,0
385,169,0,0,0,0,0,0,0,0,0,-1,1609,855,0,0
392,169,0,0,0,0,0,0,0,0,0,-1,1616,855,0,0
399,169,0,0,0,0,0,0,0,0,0,-1,1623,855,0,0
406,169,0,0,0,0,0,0,0,0,0,-1,1630,855,0,0
413,169,0,0,0,0,0,0,0,0,0,-1,1637,855,0,0
420,169,0,0,0,0,0,0,0,0,0,-1,1644,855,0,0
427,169,0,0,0,0,0,0,0,0,0,-1,1651,855,0,0
434,169,0,0,0,0,0,0,0,0,0,-1,1658,855,0,0
441,169,0,0,0,0,0,0,0,0,0,-1,1665,855,0,0
448,169,0,0,0,0,0,0,0,0,0,-1,1672,855,0,0
455,169,0,0,0,0,0,0,0,0,0,-1,1679,855,0,0
462,169,0,0,0,0,0,0,0,0,0,-1,1686,855,0,0
469,169,0,0,0,0,0,0,0,0,0,-1,1693,855,0,0
476,169,0,0,0,0,0,0,0,0,0,-1,1700,855,0,0
483,169,0,0,0,0,0,0,0,0,0,-1,1707,855,0,0
490,169,0,0,0,0,0,0,0,0,0,-1,1714,855,0,0
497,169,0,0,0,0,0,0,0,0,0,-1,1721,855,0,0
504,169,0,0,0,0,0,0,0,0,0,-1,1728,855,0,0
511,169,0,0,0,0,0,0,0,0,0,-1,1735,855,0,0
518,169,0,0,0,0,0,0,0,0,0,-1,1742,855,0,0
525,169,0,0,0,0,0,0,0,0,0,-1,1749,855,0,0
532,169,0,0,0,0,0,0,0,0,0,-1,1756,855,0,0
539,169,0,0,0,0,0,0,0,0,0,-1,1763,855,0,0
546,169,0,0,0,0,0,0,0,0,0,-1,1770,855,0,0
553,169,0,0,0,0,0,0,0,0,0,-1,1777,855,0,0
560,169,0,0,0,0,0,0,0,0,0,-1,1784,855,0,0
567,169,0,0,0,0,0,0,0,0,0,-1,1791,855,0,0
574,169,0,0,0,0,0,0,0,0,0,-1,1798,855,0,0
581,169,0,0,0,0,0,0,0,0,0,-1,1805,855,0,0
588,169,0,0,0,0,0,0,0,0,0,-1,1812,855,0,0
595,169,0,0,0,0,0,0,0,0,0,-1,1819,855,0,0
602,169,0,0,0,0,0,0,0,0,0,-1,1826,855,0,0
609,169,0,0,0,0,0,0,0,0,0,-1,1833,855,0,0
616,169,15.4802,2.61707,0.00203246,0.00411566,-7.85765e-05,0.00411862,0.0020295,-1.53315,0.00237797,0.0427525,1840,855,15.4802,-2.61709
623,169,15.5034,2.40253,0.00361211,0.00239914,0.000553088,0.00382644,0.00218481,0.36969,0.0022166,0.0445458,1847,855,15.5034,-2.40253
630,169,15.8956,2.40851,0.00345454,0.000887286,-0.000124554,0.00346057,0.000881257,-0.048365,0.00207659,0.0421257,1854,855,15.8956,-2.40852
637,169,15.8533,2.47943,0.00219498,-0.000291557,-0.00111057,0.00261876,-0.000715345,-0.364541,0.00202682,0.035215,1861,855,15.8533,-2.47941
644,169,15.7576,2.46283,0.00017364,-0.00109464,-0.00215973,0.00179041,-0.00271141,-0.642602,0.00261719,0.032218,1868,855,15.7576,-2.46282
651,169,15.7275,2.44434,-0.0017327,-0.00162533,-0.00306097,0.00138243,-0.00474045,-0.794166,0.00370803,0.0340381,1875,855,15.7276,-2.44431
658,169,15.799,2.3551,-0.0032717,-0.00182252,-0.00372752,0.00125018,-0.0063444,-0.881395,0.00470205,0.0348868,1882,855,15.799,-2.35508
665,169,15.8264,2.38989,-0.00456192,-0.00194534,-0.0041617,0.00110886,-0.00761612,-0.937689,0.00548453,0.0451354,1889,855,15.8264,-2.38987
672,169,14.6733,2.74805,0,0,0,0,0,0,0,-1,1896,855,14.6733,-2.74802
679,169,13.3146,2.08063,0,0,0,0,0,0,0,-1,1903,855,13.3146,-2.08063
686,169,13.1943,2.12183,-0.00732981,-0.0017792,-0.00461907,0.0008342,-0.00994321,-1.05592,0.00692365,0.0231687,1910,855,13.1944,-2.12182
693,169,13.2474,2.29309,-0.0074487,-0.00146338,-0.00438543,0.000853197,-0.00976527,-1.08481,0.00681241,0.0128647,1917,855,13.2474,-2.29306
700,169,13.2662,2.43512,-0.00742539,-0.00103361,-0.0040082,0.000896848,-0.00935584,-1.12196,0.00655666,0.0133251,1924,855,13.2662,-2.4351
707,169,13.2472,2.54315,-0.00706812,-0.000452502,-0.00366531,0.00117691,-0.00869753,-1.15249,0.00622783,0.0143009,1931,855,13.2472,-2.54312
714,169,13.2367,2.65662,-0.00600404,-0.000113329,-0.00301551,0.00115658,-0.00727395,-1.17221,0.00527724,0.0131833,1938,855,13.2366,-2.6566
721,169,13.2439,2.80249,-0.00485983,0.000371178,-0.00242012,0.00131908,-0.00580773,-1.19749,0.00437825,0.0135781,1945,855,13.2438,-2.80248
728,169,13.2534,2.95038,-0.0037457,0.000901598,-0.00172938,0.00147452,-0.00431862,-1.25089,0.00347643,0.01129,1952,855,13.2534,-2.95039
735,169,13.239,3.0824,-0.00327437,0.0014625,-0.00160876,0.00195721,-0.00376908,-1.27246,0.00336079,0.0188342,1959,855,13.239,-3.08241
742,169,13.2332,3.19757,-0.00345449,0.00206495,-0.00178001,0.00258921,-0.00397875,-1.28437,0.00382019,0.0149541,1966,855,13.2332,-3.19756
749,169,13.2283,3.22888,-0.00463343,0.00274926,-0.00229292,0.00340343,-0.0052876,-1.29288,0.00505692,0.0235462,1973,855,13.2283,-3.22886
756,169,13.229,3.14392,-0.00638838,0.00358061,-0.0030167,0.00442241,-0.00723018,-1.29867,0.00679241,0.0455656,1980,855,13.2291,-3.14393
763,169,13.2577,3.08319,0,0,0,0,0,0,0,-1,1987,855,13.2576,-3.08318
770,169,13.1356,3.67084,0,0,0,0,0,0,0,-1,1994,855,13.1356,-3.67081
777,169,13.2737,3.79608,0,0,0,0,0,0,0,-1,2001,855,13.2736,-3.7961
784,169,13.4945,3.2132,0,0,0,0,0,0,0,-1,2008,855,13.4945,-3.21319
791,169,0,0,0,0,0,0,0,0,0,-1,2015,855,0,0
798,169,0,0,0,0,0,0,0,0,0,-1,2022,855,0,0
805,169,0,0,0,0,0,0,0,0,0,-1,2029,855,0,0
812,169,0,0,0,0,0,0,0,0,0,-1,2036,855,0,0
-700,162,0,0,0,0,0,0,0,0,0,-1,524,862,0,0
-693,162,0,0,0,0,0,0,0,0,0,-1,531,862,0,0
-686,162,0,0,0,0,0,0,0,0,0,-1,538,862,0,0
-679,162,0,0,0,0,0,0,0,0,0,-1,545,862,0,0
-672,162,0,0,0,0,0,0,0,0,0,-1,552,862,0,0
-665,162,-9.41693,-0.27887,-0.00635739,0.0339648,0.0150203,0.0389448,-0.0113375,1.25065,0.0304541,0.042399,559,862,-9.41694,0.278846
-658,162,-9.46796,0.413696,-0.00511581,0.0297317,0.0139526,0.0346297,-0.0100138,1.23319,0.0270495,0.0452448,566,862,-9.46796,-0.413712
-651,162,-7.75391,3.15161,0,0,0,0,0,0,0,-1,573,862,-7.75391,-3.15164
-644,162,-8.17889,2.4693,0,0,0,0,0,0,0,-1,580,862,-8.1789,-2.46929
-637,162,-8.23352,0.706726,0,0,0,0,0,0,0,-1,587,862,-8.23349,-0.706721
-630,162,-8.09442,1.58875,-0.000316125,0.012463,0.00752688,0.0159466,-0.00379979,1.13732,0.0120982,0.0454013,594,862,-8.0944,-1.58873
-623,162,-8.11768,1.31305,0.000262168,0.00903395,0.00602397,0.0120995,-0.0028034,1.10006,0.00914518,0.0329635,601,862,-8.11766,-1.31307
-616,162,-8.13312,1.17657,0.000753237,0.00626104,0.00504757,0.00925709,-0.00224281,1.03512,0.00703912,0.0185827,608,862,-8.13312,-1.17656
-609,162,-8.12506,1.06128,0.000794344,0.00400442,0.00386185,0.00658149,-0.00178272,0.982345,0.00508711,0.0131707,615,862,-8.12504,-1.0613
-602,162,-8.11548,0.954041,0.000571154,0.00185519,0.00262494,0.00391548,-0.00148914,0.905335,0.00322348,0.0109264,622,862,-8.11547,-0.954064
-595,162,-8.13251,0.868225,-0.000229536,0.000389703,0.00209386,0.00219671,-0.00203654,0.858802,0.00244465,0.0101444,629,862,-8.13253,-0.868201
-588,162,-8.13904,0.753235,-0.00137756,-0.000433139,0.00191096,0.00106309,-0.00287379,0.906524,0.00235173,0.0107485,636,862,-8.13905,-0.753232
-581,162,-8.16138,0.613586,-0.00249448,-0.00046121,0.00172783,0.000526885,-0.00348257,1.05132,0.0025158,0.0117868,643,862,-8.16137,-0.613559
-574,162,-8.22388,0.488525,-0.00334468,-0.000438696,0.00151621,0.000208334,-0.00399171,1.16745,0.00273323,0.0156561,650,862,-8.22385,-0.488508
-567,162,-8.17126,0.403442,-0.00403887,-0.000111957,0.00149001,0.000389397,-0.00454023,1.24622,0.00316461,0.0214828,657,862,-8.17127,-0.403446
-560,162,-8.14386,0.247986,-0.0046519,0.000242246,0.00161385,0.000726501,-0.00513616,1.27928,0.00369019,0.017734,664,862,-8.14384,-0.247966
-553,162,-8.10956,0.128235,-0.00507262,0.000980052,0.00189724,0.00152558,-0.00561815,1.29081,0.00434419,0.0277527,671,862,-8.10953,-0.128245
-546,162,-8.88458,0.299377,-0.00521123,0.0015441,0.00210538,0.00214654,-0.00581367,1.2921,0.00475561,0.0401397,678,862,-8.88459,-0.299348
-539,162,-9.57092,0.47583,0,0,0,0,0,0,0,-1,685,862,-9.57091,-0.475837
-532,162,-9.89636,0.533325,-0.00449297,0.00309918,0.00254054,0.00387088,-0.00526467,1.2759,0.00529483,0.0371394,692,862,-9.89636,-0.533339
-525,162,-9.96283,0.450378,-0.00371383,0.00410674,0.00292429,0.00507926,-0.00468635,1.24974,0.0056397,0.0377168,699,862,-9.96281,-0.450393
-518,162,-9.97229,0.468933,-0.00246048,0.00520843,0.00341659,0.00650974,-0.0037618,1.20688,0.0060006,0.0381181,706,862,-9.97226,-0.46895
-511,162,-9.98126,0.542542,-0.000658009,0.00625203,0.00401234,0.00809192,-0.00249789,1.14085,0.00639205,0.0434583,713,862,-9.98128,-0.542566
-504,162,-10.0168,0.729858,0.00159184,0.00701831,0.00470681,0.00973791,-0.00112776,1.04686,0.00689866,0.0456766,720,862,-10.0168,-0.729874
-497,162,-9.89429,0.797424,0,0,0,0,0,0,0,-1,727,862,-9.89432,-0.797431
-490,162,0,0,0,0,0,0,0,0,0,-1,734,862,0,0
-483,162,0,0,0,0,0,0,0,0,0,-1,741,862,0,0
-476,162,0,0,0,0,0,0,0,0,0,-1,748,862,0,0
-469,162,0,0,0,0,0,0,0,0,0,-1,755,862,0,0
-462,162,0,0,0,0,0,0,0,0,0,-1,762,862,0,0
-455,162,0,0,0,0,0,0,0,0,0,-1,769,862,0,0
-448,162,0,0,0,0,0,0,0,0,0,-1,776,862,0,0
-441,162,0,0,0,0,0,0,0,0,0,-1,783,862,0,0
-434,162,0,0,0,0,0,0,0,0,0,-1,790,862,0,0
-427,162,0,0,0,0,0,0,0,0,0,-1,797,862,0,0
-420,162,0,0,0,0,0,0,0,0,0,-1,804,862,0,0
-413,162,0,0,0,0,0,0,0,0,0,-1,811,862,0,0
-406,162,0,0,0,0,0,0,0,0,0,-1,818,862,0,0
-399,162,0,0,0,0,0,0,0,0,0,-1,825,862,0,0
-392,162,0,0,0,0,0,0,0,0,0,-1,832,862,0,0
-385,162,0,0,0,0,0,0,0,0,0,-1,839,862,0,0
-378,162,0,0,0,0,0,0,0,0,0,-1,846,862,0,0
-371,162,0,0,0,0,0,0,0,0,0,-1,853,862,0,0
-364,162,0,0,0,0,0,0,0,0,0,-1,860,862,0,0
-357,162,0,0,0,0,0,0,0,0,0,-1,867,862,0,0
-350,162,0,0,0,0,0,0,0,0,0,-1,874,862,0,0
-343,162,0,0,0,0,0,0,0,0,0,-1,881,862,0,0
-336,162,0,0,0,0,0,0,0,0,0,-1,888,862,0,0
-329,162,0,0,0,0,0,0,0,0,0,-1,895,862,0,0
-322,162,0,0,0,0,0,0,0,0,0,-1,902,862,0,0
-315,162,0,0,0,0,0,0,0,0,0,-1,909,862,0,0
-308,162,0,0,0,0,0,0,0,0,0,-1,916,862,0,0
-301,162,0,0,0,0,0,0,0,0,0,-1,923,862,0,0
-294,162,0,0,0,0,0,0,0,0,0,-1,930,862,0,0
-287,162,0,0,0,0,0,0,0,0,0,-1,937,862,0,0
-280,162,0,0,0,0,0,0,0,0,0,-1,944,862,0,0
-273,162,0,0,0,0,0,0,0,0,0,-1,951,862,0,0
-266,162,0,0,0,0,0,0,0,0,0,-1,958,862,0,0
-259,162,0,0,0,0,0,0,0,0,0,-1,965,862,0,0
-252,162,0,0,0,0,0,0,0,0,0,-1,972,862,0,0
-245,162,0,0,0,0,0,0,0,0,0,-1,979,862,0,0
-238,162,0,0,0,0,0,0,0,0,0,-1,986,862,0,0
-231,162,0,0,0,0,0,0,0,0,0,-1,993,862,0,0
-224,162,0,0,0,0,0,0,0,0,0,-1,1000,862,0,0
-217,162,0,0,0,0,0,0,0,0,0,-1,1007,862,0,0
-210,162,0,0,0,0,0,0,0,0,0,-1,1014,862,0,0
-203,162,0,0,0,0,0,0,0,0,0,-1,1021,862,0,0
-196,162,0,0,0,0,0,0,0,0,0,-1,1028,862,0,0
-189,162,0,0,0,0,0,0,0,0,0,-1,1035,862,0,0
-182,162,0,0,0,0,0,0,0,0,0,-1,1042,862,0,0
-175,162,0,0,0,0,0,0,0,0,0,-1,1049,862,0,0
-168,162,0,0,0,0,0,0,0,0,0,-1,1056,862,0,0
-161,162,0,0,0,0,0,0,0,0,0,-1,1063,862,0,0
-154,162,0,0,0,0,0,0,0,0,0,-1,1070,862,0,0
-147,162,0,0,0,0,0,0,0,0,0,-1,1077,862,0,0
-140,162,0,0,0,0,0,0,0,0,0,-1,1084,862,0,0
-133,162,0,0,0,0,0,0,0,0,0,-1,1091,862,0,0
-126,162,0,0,0,0,0,0,0,0,0,-1,1098,862,0,0
-119,162,0,0,0,0,0,0,0,0,0,-1,1105,862,0,0
-112,162,0,0,0,0,0,0,0,0,0,-1,1112,862,0,0
-105,162,0,0,0,0,0,0,0,0,0,-1,1119,862,0,0
-98,162,0,0,0,0,0,0,0,0,0,-1,1126,862,0,0
-91,162,0,0,0,0,0,0,0,0,0,-1,1133,862,0,0
-84,162,0,0,0,0,0,0,0,0,0,-1,1140,862,0,0
-77,162,0,0,0,0,0,0,0,0,0,-1,1147,862,0,0
-70,162,0,0,0,0,0,0,0,0,0,-1,1154,862,0,0
-63,162,0,0,0,0,0,0,0,0,0,-1,1161,862,0,0
-56,162,0,0,0,0,0,0,0,0,0,-1,1168,862,0,0
-49,162,0,0,0,0,0,0,0,0,0,-1,1175,862,0,0
-42,162,0,0,0,0,0,0,0,0,0,-1,1182,862,0,0
-35,162,0,0,0,0,0,0,0,0,0,-1,1189,862,0,0
-28,162,0,0,0,0,0,0,0,0,0,-1,1196,862,0,0
-21,162,0,0,0,0,0,0,0,0,0,-1,1203,862,0,0
-14,162,0,0,0,0,0,0,0,0,0,-1,1210,862,0,0
-7,162,0,0,0,0,0,0,0,0,0,-1,1217,862,0,0
0,162,0,0,0,0,0,0,0,0,0,-1,1224,862,0,0
7,162,0,0,0,0,0,0,0,0,0,-1,1231,862,0,0
14,162,0,0,0,0,0,0,0,0,0,-1,1238,862,0,0
21,162,0,0,0,0,0,0,0,0,0,-1,1245,862,0,0
28,162,0,0,0,0,0,0,0,0,0,-1,1252,862,0,0
35,162,0,0,0,0,0,0,0,0,0,-1,1259,862,0,0
42,162,0,0,0,0,0,0,0,0,0,-1,1266,862,0,0
49,162,0,0,0,0,0,0,0,0,0,-1,1273,862,0,0
56,162,0,0,0,0,0,0,0,0,0,-1,1280,862,0,0
63,162,0,0,0,0,0,0,0,0,0,-1,1287,862,0,0
70,162,0,0,0,0,0,0,0,0,0,-1,1294,862,0,0
77,162,0,0,0,0,0,0,0,0,0,-1,1301,862,0,0
84,162,0,0,0,0,0,0,0,0,0,-1,1308,862,0,0
91,162,0,0,0,0,0,0,0,0,0,-1,1315,862,0,0
98,162,0,0,0,0,0,0,0,0,0,-1,1322,862,0,0
105,162,0,0,0,0,0,0,0,0,0,-1,1329,862,0,0
112,162,0,0,0,0,0,0,0,0,0,-1,1336,862,0,0
119,162,0,0,0,0,0,0,0,0,0,-1,1343,862,0,0
126,162,0,0,0,0,0,0,0,0,0,-1,1350,862,0,0
133,162,0,0,0,0,0,0,0,0,0,-1,1357,862,0,0
140,162,0,0,0,0,0,0,0,0,0,-1,1364,862,0,0
147,162,0,0,0,0,0,0,0,0,0,-1,1371,862,0,0
154,162,0,0,0,0,0,0,0,0,0,-1,1378,862,0,0
161,162,0,0,0,0,0,0,0,0,0,-1,1385,862,0,0
168,162,0,0,0,0,0,0,0,0,0,-1,1392,862,0,0
175,162,0,0,0,0,0,0,0,0,0,-1,1399,862,0,0
182,162,0,0,0,0,0,0,0,0,0,-1,1406,862,0,0
189,162,0,0,0,0,0,0,0,0,0,-1,1413,862,0,0
196,162,0,0,0,0,0,0,0,0,0,-1,1420,862,0,0
203,162,0,0,0,0,0,0,0,0,0,-1,1427,862,0,0
210,162,0,0,0,0,0,0,0,0,0,-1,1434,862,0,0
217,162,0,0,0,0,0,0,0,0,0,-1,1441,862,0,0
224,162,0,0,0,0,0,0,0,0,0,-1,1448,862,0,0
231,162,0,0,0,0,0,0,0,0,0,-1,1455,862,0,0
238,162,0,0,0,0,0,0,0,0,0,-1,1462,862,0,0
245,162,0,0,0,0,0,0,0,0,0,-1,1469,862,0,0
252,162,0,0,0,0,0,0,0,0,0,-1,1476,862,0,0
259,162,0,0,0,0,0,0,0,0,0,-1,1483,862,0,0
266,162,0,0,0,0,0,0,0,0,0,-1,1490,862,0,0
273,162,0,0,0,0,0,0,0,0,0,-1,1497,862,0,0
280,162,0,0,0,0,0,0,0,0,0,-1,1504,862,0,0
287,162,0,0,0,0,0,0,0,0,0,-1,1511,862,0,0
294,162,0,0,0,0,0,0,0,0,0,-1,1518,862,0,0
301,162,0,0,0,0,0,0,0,0,0,-1,1525,862,0,0
308,162,0,0,0,0,0,0,0,0,0,-1,1532,862,0,0
315,162,0,0,0,0,0,0,0,0,0,-1,1539,862,0,0
322,162,0,0,0,0,0,0,0,0,0,-1,1546,862,0,0
329,162,0,0,0,0,0,0,0,0,0,-1,1553,862,0,0
336,162,0,0,0,0,0,0,0,0,0,-1,1560,862,0,0
343,162,0,0,0,0,0,0,0,0,0,-1,1567,862,0,0
350,162,0,0,0,0,0,0,0,0,0,-1,1574,862,0,0
357,162,0,0,0,0,0,0,0,0,0,-1,1581,862,0,0
364,162,0,0,0,0,0,0,0,0,0,-1,1588,862,0,0
371,162,0,0,0,0,0,0,0,0,0,-1,1595,862,0,0
378,162,0,0,0,0,0,0,0,0,0,-1,1602,862,0,0
385,162,0,0,0,0,0,0,0,0,0,-1,1609,862,0,0
392,162,0,0,0,0,0,0,0,0,0,-1,1616,862,0,0
399,162,0,0,0,0,0,0,0,0,0,-1,1623,862,0,0
406,162,0,0,0,0,0,0,0,0,0,-1,1630,862,0,0
413,162,0,0,0,0,0,0,0,0,0,-1,1637,862,0,0
420,162,0,0,0,0,0,0,0,0,0,-1,1644,862,0,0
427,162,0,0,0,0,0,0,0,0,0,-1,1651,862,0,0
434,162,0,0,0,0,0,0,0,0,0,-1,1658,862,0,0
441,162,0,0,0,0,0,0,0,0,0,-1,1665,862,0,0
448,162,0,0,0,0,0,0,0,0,0,-1,1672,862,0,0
455,162,0,0,0,0,0,0,0,0,0,-1,1679,862,0,0
462,162,0,0,0,0,0,0,0,0,0,-1,1686,862,0,0
469,162,0,0,0,0,0,0,0,0,0,-1,1693,862,0,0
476,162,0,0,0,0,0,0,0,0,0,-1,1700,862,0,0
483,162,0,0,0,0,0,0,0,0,0,-1,1707,862,0,0
490,162,0,0,0,0,0,0,0,0,0,-1,1714,862,0,0
497,162,0,0,0,0,0,0,0,0,0,-1,1721,862,0,0
504,162,0,0,0,0,0,0,0,0,0,-1,1728,862,0,0
511,162,0,0,0,0,0,0,0,0,0,-1,1735,862,0,0
518,162,0,0,0,0,0,0,0,0,0,-1,1742,862,0,0
525,162,0,0,0,0,0,0,0,0,0,-1,1749,862,0,0
532,162,0,0,0,0,0,0,0,0,0,-1,1756,862,0,0
539,162,0,0,0,0,0,0,0,0,0,-1,1763,862,0,0
546,162,0,0,0,0,0,0,0,0,0,-1,1770,862,0,0
553,162,0,0,0,0,0,0,0,0,0,-1,1777,862,0,0
560,162,0,0,0,0,0,0,0,0,0,-1,1784,862,0,0
567,162,0,0,0,0,0,0,0,0,0,-1,1791,862,0,0
574,162,0,0,0,0,0,0,0,0,0,-1,1798,862,0,0
581,162,0,0,0,0,0,0,0,0,0,-1,1805,862,0,0
588,162,0,0,0,0,0,0,0,0,0,-1,1812,862,0,0
595,162,0,0,0,0,0,0,0,0,0,-1,1819,862,0,0
602,162,0,0,0,0,0,0,0,0,0,-1,1826,862,0,0
609,162,0,0,0,0,0,0,0,0,0,-1,1833,862,0,0
616,162,15.3629,2.3515,0.00262642,0.00516884,-0.000487386,0.00525907,0.00253619,-1.38774,0.00303696,0.0432674,1840,862,15.3629,-2.35151
623,162,15.6042,2.39935,0.00417185,0.00328304,0.0005722,0.00445195,0.00300294,0.455223,0.00262201,0.0455796,1847,862,15.6042,-2.39934
630,162,15.7462,2.4082,0.00395954,0.00163374,8.05327e-05,0.00396232,0.00163096,0.0345707,0.00229953,0.0417347,1854,862,15.7462,-2.40818
637,162,15.8129,2.48865,0.0026928,0.00033374,-0.000809152,0.00294366,8.28793e-05,-0.300633,0.0019354,0.0375838,1861,862,15.8129,-2.48867
644,162,15.8359,2.4137,0.000431763,-0.00054602,-0.00189329,0.00189826,-0.00201252,-0.659046,0.00225821,0.0345997,1868,862,15.8359,-2.41369
651,162,15.8099,2.35724,-0.00187464,-0.00110486,-0.00287485,0.00141075,-0.00439025,-0.851943,0.00349336,0.0343043,1875,862,15.8099,-2.35724
658,162,15.8137,2.30304,-0.00375133,-0.00135354,-0.00362475,0.00126543,-0.00637031,-0.945112,0.0047255,0.0349614,1882,862,15.8137,-2.30306
665,162,15.816,2.30225,-0.00530031,-0.0015111,-0.0041291,0.00113731,-0.00794872,-1.00049,0.00571609,0.0411651,1889,862,15.8161,-2.30227
672,162,15.5457,2.04663,0,0,0,0,0,0,0,-1,1896,862,15.5456,-2.0466
679,162,14.5105,2.08887,0,0,0,0,0,0,0,-1,1903,862,14.5104,-2.08888
686,162,13.3815,2.19159,-0.00844363,-0.00144647,-0.00470986,0.000922052,-0.0108121,-1.10484,0.00753428,0.0290847,1910,862,13.3815,-2.19158
693,162,13.3582,2.30554,-0.00867438,-0.00114895,-0.00452042,0.000969844,-0.0107932,-1.13249,0.00753956,0.0166335,1917,862,13.3581,-2.30552
700,162,13.377,2.41339,-0.00865782,-0.000790087,-0.00417208,0.00101029,-0.0104582,-1.16341,0.00733213,0.015807,1924,862,13.377,-2.41337
707,162,13.3708,2.52905,-0.0082125,-0.000311301,-0.00384686,0.00125222,-0.00977602,-1.18475,0.00697234,0.0116437,1931,862,13.3708,-2.52906
714,162,13.3676,2.65295,-0.00697702,-4.03e-05,-0.00322673,0.00122857,-0.00824589,-1.19613,0.00594922,0.0152563,1938,862,13.3675,-2.65298
721,162,13.328,2.85773,-0.00548752,0.000358168,-0.002624,0.00136322,-0.00649258,-1.20501,0.00484712,0.0262867,1945,862,13.3279,-2.85774
728,162,13.3213,2.94769,-0.00388686,0.000834367,-0.00183062,0.00146101,-0.0045135,-1.24099,0.00359632,0.0211544,1952,862,13.3213,-2.9477
735,162,13.3729,3.06329,-0.00276518,0.00138254,-0.00141705,0.00182044,-0.00320308,-1.27108,0.00293672,0.0117665,1959,862,13.3729,-3.0633
742,162,13.3761,3.19061,-0.00218948,0.00200038,-0.00125674,0.00234842,-0.00253752,-1.30062,0.00282161,0.0126721,1966,862,13.3761,-3.19061
749,162,13.3704,3.26599,-0.00264666,0.00276491,-0.00127591,0.00305065,-0.00293241,-1.35048,0.00345454,0.0162563,1973,862,13.3704,-3.26597
756,162,13.4336,3.29401,-0.00380579,0.00376592,-0.00118521,0.00394711,-0.00398698,-1.4191,0.00458076,0.0385209,1980,862,13.4336,-3.29403
763,162,13.4799,3.36438,0,0,0,0,0,0,0,-1,1987,862,13.4798,-3.36438
770,162,13.265,3.42688,0,0,0,0,0,0,0,-1,1994,862,13.265,-3.42688
777,162,13.4165,3.5235,0,0,0,0,0,0,0,-1,2001,862,13.4165,-3.52349
784,162,13.3594,3.51001,0,0,0,0,0,0,0,-1,2008,862,13.3593,-3.51003
791,162,0,0,0,0,0,0,0,0,0,-1,2015,862,0,0
798,162,0,0,0,0,0,0,0,0,0,-1,2022,862,0,0
805,162,0,0,0,0,0,0,0,0,0,-1,2029,862,0,0
812,162,0,0,0,0,0,0,0,0,0,-1,2036,862,0,0
-700,155,0,0,0,0,0,0,0,0,0,-1,524,869,0,0
-693,155,0,0,0,0,0,0,0,0,0,-1,531,869,0,0
-686,155,0,0,0,0,0,0,0,0,0,-1,538,869,0,0
-679,155,0,0,0,0,0,0,0,0,0,-1,545,869,0,0
-672,155,0,0,0,0,0,0,0,0,0,-1,552,869,0,0
-665,155,-9.51917,-0.0960693,0,0,0,0,0,0,0,-1,559,869,-9.51914,0.096091
-658,155,-9.95575,0.410156,0,0,0,0,0,0,0,-1,566,869,-9.95573,-0.410176
-651,155,-7.41553,2.83887,0,0,0,0,0,0,0,-1,573,869,-7.41555,-2.83884
-644,155,-7.66089,2.35382,-0.00234855,0.0122042,0.00901368,0.0165119,-0.00665631,1.12497,0.0137737,0.0467826,580,869,-7.66089,-2.35384
-637,155,-8.01251,1.76746,0,0,0,0,0,0,0,-1,587,869,-8.0125,-1.76747
-630,155,-8.10974,1.54932,-0.00134805,0.00719616,0.0063379,0.0105673,-0.00471923,1.08195,0.00903843,0.0428451,594,869,-8.10976,-1.54934
-623,155,-8.18005,1.35034,-0.0011025,0.00522185,0.00504676,0.00801527,-0.00389593,1.06526,0.00701268,0.0248558,601,869,-8.18005,-1.35037
-616,155,-8.23639,1.18408,-0.000723258,0.00358637,0.00434705,0.00628337,-0.00342026,1.0155,0.0056831,0.0139291,608,869,-8.23638,-1.18411
-609,155,-8.23993,1.06104,-0.000652193,0.00222384,0.00343207,0.00450698,-0.00293533,0.983784,0.00432864,0.0121932,615,869,-8.2399,-1.06103
-602,155,-8.23932,0.963806,-0.000803562,0.000923749,0.00230562,0.00252216,-0.00240197,0.964603,0.00284323,0.0101126,622,869,-8.23929,-0.963807
-595,155,-8.25806,0.861938,-0.0015052,0.000110271,0.00191632,0.00138213,-0.00277706,0.984851,0.00244591,0.00978618,629,869,-8.25808,-0.861951
-588,155,-8.25537,0.754456,-0.00244703,-0.000317565,0.00185907,0.00076008,-0.00352468,1.04546,0.00263987,0.0120317,636,869,-8.25536,-0.754438
-581,155,-8.30347,0.631592,-0.00339508,-0.00021483,0.00172535,0.000541385,-0.0041513,1.15772,0.00296452,0.0153344,643,869,-8.30347,-0.631617
-574,155,-8.33478,0.543884,-0.00405104,-0.000200489,0.00156521,0.000355478,-0.00460701,1.22949,0.00319643,0.0198231,650,869,-8.33477,-0.54391
-567,155,-8.29486,0.42041,-0.00459341,6.27867e-05,0.00156836,0.000541787,-0.00507241,1.27438,0.00357591,0.0218345,657,869,-8.29487,-0.420432
-560,155,-8.2583,0.308838,-0.00507967,0.000343804,0.0017077,0.000836714,-0.00557258,1.28979,0.00402307,0.0221587,664,869,-8.25832,-0.30885
-553,155,-8.28058,0.240723,-0.0053764,0.00102968,0.00195434,0.00157882,-0.00592555,1.29687,0.0045685,0.0372464,671,869,-8.28061,-0.240746
-546,155,-9.1333,0.360596,-0.00536455,0.00154479,0.00214092,0.00215439,-0.00597415,1.2934,0.00486267,0.0441012,678,869,-9.13328,-0.360568
-539,155,-9.70123,0.658081,0,0,0,0,0,0,0,-1,685,869,-9.70123,-0.658074
-532,155,-9.89294,0.526367,-0.0042476,0.00300478,0.00259642,0.00383849,-0.00508131,1.2601,0.00516648,0.0354535,692,869,-9.89295,-0.526371
-525,155,-9.86841,0.650818,-0.003152,0.0039978,0.00303318,0.00511119,-0.00426539,1.219,0.00542091,0.0371931,699,869,-9.86842,-0.650805
-518,155,-9.87823,0.804504,-0.00147129,0.00512971,0.00365609,0.00675468,-0.00309627,1.15256,0.00581671,0.0423145,706,869,-9.87824,-0.804534
-511,155,-9.72211,0.818054,0,0,0,0,0,0,0,-1,713,869,-9.72209,-0.818059
-504,155,-9.97021,0.773926,0,0,0,0,0,0,0,-1,720,869,-9.97021,-0.773939
-497,155,0,0,0,0,0,0,0,0,0,-1,727,869,0,0
-490,155,0,0,0,0,0,0,0,0,0,-1,734,869,0,0
-483,155,0,0,0,0,0,0,0,0,0,-1,741,869,0,0
-476,155,0,0,0,0,0,0,0,0,0,-1,748,869,0,0
-469,155,0,0,0,0,0,0,0,0,0,-1,755,869,0,0
-462,155,0,0,0,0,0,0,0,0,0,-1,762,869,0,0
-455,155,0,0,0,0,0,0,0,0,0,-1,769,869,0,0
-448,155,0,0,0,0,0,0,0,0,0,-1,776,869,0,0
-441,155,0,0,0,0,0,0,0,0,0,-1,783,869,0,0
-434,155,0,0,0,0,0,0,0,0,0,-1,790,869,0,0
-427,155,0,0,0,0,0,0,0,0,0,-1,797,869,0,0
-420,155,0,0,0,0,0,0,0,0,0,-1,804,869,0,0
-413,155,0,0,0,0,0,0,0,0,0,-1,811,869,0,0
-406,155,0,0,0,0,0,0,0,0,0,-1,818,869,0,0
-399,155,0,0,0,0,0,0,0,0,0,-1,825,869,0,0
-392,155,0,0,0,0,0,0,0,0,0,-1,832,869,0,0
-385,155,0,0,0,0,0,0,0,0,0,-1,839,869,0,0
-378,155,0,0,0,0,0,0,0,0,0,-1,846,869,0,0
-371,155,0,0,0,0,0,0,0,0,0,-1,853,869,0,0
-364,155,0,0,0,0,0,0,0,0,0,-1,860,869,0,0
-357,155,0,0,0,0,0,0,0,0,0,-1,867,869,0,0
-350,155,0,0,0,0,0,0,0,0,0,-1,874,869,0,0
-343,155,0,0,0,0,0,0,0,0,0,-1,881,869,0,0
-336,155,0,0,0,0,0,0,0,0,0,-1,888,869,0,0
-329,155,0,0,0,0,0,0,0,0,0,-1,895,869,0,0
-322,155,0,0,0,0,0,0,0,0,0,-1,902,869,0,0
-315,155,0,0,0,0,0,0,0,0,0,-1,909,869,0,0
-308,155,0,0,0,0,0,0,0,0,0,-1,916,869,0,0
-301,155,0,0,0,0,0,0,0,0,0,-1,923,869,0,0
-294,155,0,0,0,0,0,0,0,0,0,-1,930,869,0,0
-287,155,0,0,0,0,0,0,0,0,0,-1,937,869,0,0
-280,155,0,0,0,0,0,0,0,0,0,-1,944,869,0,0
-273,155,0,0,0,0,0,0,0,0,0,-1,951,869,0,0
-266,155,0,0,0,0,0,0,0,0,0,-1,958,869,0,0
-259,155,0,0,0,0,0,0,0,0,0,-1,965,869,0,0
-252,155,0,0,0,0,0,0,0,0,0,-1,972,869,0,0
-245,155,0,0,0,0,0,0,0,0,0,-1,979,869,0,0
-238,155,0,0,0,0,0,0,0,0,0,-1,986,869,0,0
-231,155,0,0,0,0,0,0,0,0,0,-1,993,869,0,0
-224,155,0,0,0,0,0,0,0,0,0,-1,1000,869,0,0
-217,155,0,0,0,0,0,0,0,0,0,-1,1007,869,0,0
-210,155,0,0,0,0,0,0,0,0,0,-1,1014,869,0,0
-203,155,0,0,0,0,0,0,0,0,0,-1,1021,869,0,0
-196,155,0,0,0,0,0,0,0,0,0,-1,1028,869,0,0
-189,155,0,0,0,0,0,0,0,0,0,-1,1035,869,0,0
-182,155,0,0,0,0,0,0,0,0,0,-1,1042,869,0,0
-175,155,0,0,0,0,0,0,0,0,0,-1,1049,869,0,0
-168,155,0,0,0,0,0,0,0,0,0,-1,1056,869,0,0
-161,155,0,0,0,0,0,0,0,0,0,-1,1063,869,0,0
-154,155,0,0,0,0,0,0,0,0,0,-1,1070,869,0,0
-147,155,0,0,0,0,0,0,0,0,0,-1,1077,869,0,0
-140,155,0,0,0,0,0,0,0,0,0,-1,1084,869,0,0
-133,155,0,0,0,0,0,0,0,0,0,-1,1091,869,0,0
-126,155,0,0,0,0,0,0,0,0,0,-1,1098,869,0,0
-119,155,0,0,0,0,0,0,0,0,0,-1,1105,869,0,0
-112,155,0,0,0,0,0,0,0,0,0,-1,1112,869,0,0
-105,155,0,0,0,0,0,0,0,0,0,-1,1119,869,0,0
-98,155,0,0,0,0,0,0,0,0,0,-1,1126,869,0,0
-91,155,0,0,0,0,0,0,0,0,0,-1,1133,869,0,0
-84,155,0,0,0,0,0,0,0,0,0,-1,1140,869,0,0
-77,155,0,0,0,0,0,0,0,0,0,-1,1147,869,0,0
-70,155,0,0,0,0,0,0,0,0,0,-1,1154,869,0,0
-63,155,0,0,0,0,0,0,0,0,0,-1,1161,869,0,0
-56,155,0,0,0,0,0,0,0,0,0,-1,1168,869,0,0
-49,155,0,0,0,0,0,0,0,0,0,-1,1175,869,0,0
-42,155,0,0,0,0,0,0,0,0,0,-1,1182,869,0,0
-35,155,0,0,0,0,0,0,0,0,0,-1,1189,869,0,0
-28,155,0,0,0,0,0,0,0,0,0,-1,1196,869,0,0
-21,155,0,0,0,0,0,0,0,0,0,-1,1203,869,0,0
-14,155,0,0,0,0,0,0,0,0,0,-1,1210,869,0,0
-7,155,0,0,0,0,0,0,0,0,0,-1,1217,869,0,0
0,155,0,0,0,0,0,0,0,0,0,-1,1224,869,0,0
7,155,0,0,0,0,0,0,0,0,0,-1,1231,869,0,0
14,155,0,0,0,0,0,0,0,0,0,-1,1238,869,0,0
21,155,0,0,0,0,0,0,0,0,0,-1,1245,869,0,0
28,155,0,0,0,0,0,0,0,0,0,-1,1252,869,0,0
35,155,0,0,0,0,0,0,0,0,0,-1,1259,869,0,0
42,155,0,0,0,0,0,0,0,0,0,-1,1266,869,0,0
49,155,0,0,0,0,0,0,0,0,0,-1,1273,869,0,0
56,155,0,0,0,0,0,0,0,0,0,-1,1280,869,0,0
63,155,0,0,0,0,0,0,0,0,0,-1,1287,869,0,0
70,155,0,0,0,0,0,0,0,0,0,-1,1294,869,0,0
77,155,0,0,0,0,0,0,0,0,0,-1,1301,869,0,0
84,155,0,0,0,0,0,0,0,0,0,-1,1308,869,0,0
91,155,0,0,0,0,0,0,0,0,0,-1,1315,869,0,0
98,155,0,0,0,0,0,0,0,0,0,-1,1322,869,0,0
105,155,0,0,0,0,0,0,0,0,0,-1,1329,869,0,0
112,155,0,0,0,0,0,0,0,0,0,-1,1336,869,0,0
119,155,0,0,0,0,0,0,0,0,0,-1,1343,869,0,0
126,155,0,0,0,0,0,0,0,0,0,-1,1350,869,0,0
133,155,0,0,0,0,0,0,0,0,0,-1,1357,869,0,0
140,155,0,0,0,0,0,0,0,0,0,-1,1364,869,0,0
147,155,0,0,0,0,0,0,0,0,0,-1,1371,869,0,0
154,155,0,0,0,0,0,0,0,0,0,-1,1378,869,0,0
161,155,0,0,0,0,0,0,0,0,0,-1,1385,869,0,0
168,155,0,0,0,0,0,0,0,0,0,-1,1392,869,0,0
175,155,0,0,0,0,0,0,0,0,0,-1,1399,869,0,0
182,155,0,0,0,0,0,0,0,0,0,-1,1406,869,0,0
189,155,0,0,0,0,0,0,0,0,0,-1,1413,869,0,0
196,155,0,0,0,0,0,0,0,0,0,-1,1420,869,0,0
203,155,0,0,0,0,0,0,0,0,0,-1,1427,869,0,0
210,155,0,0,0,0,0,0,0,0,0,-1,1434,869,0,0
217,155,0,0,0,0,0,0,0,0,0,-1,1441,869,0,0
224,155,0,0,0,0,0,0,0,0,0,-1,1448,869,0,0
231,155,0,0,0,0,0,0,0,0,0,-1,1455,869,0,0
238,155,0,0,0,0,0,0,0,0,0,-1,1462,869,0,0
245,155,0,0,0,0,0,0,0,0,0,-1,1469,869,0,0
252,155,0,0,0,0,0,0,0,0,0,-1,1476,869,0,0
259,155,0,0,0,0,0,0,0,0,0,-1,1483,869,0,0
266,155,0,0,0,0,0,0,0,0,0,-1,1490,869,0,0
273,155,0,0,0,0,0,0,0,0,0,-1,1497,869,0,0
280,155,0,0,0,0,0,0,0,0,0,-1,1504,869,0,0
287,155,0,0,0,0,0,0,0,0,0,-1,1511,869,0,0
294,155,0,0,0,0,0,0,0,0,0,-1,1518,869,0,0
301,155,0,0,0,0,0,0,0,0,0,-1,1525,869,0,0
308,155,0,0,0,0,0,0,0,0,0,-1,1532,869,0,0
315,155,0,0,0,0,0,0,0,0,0,-1,1539,869,0,0
322,155,0,0,0,0,0,0,0,0,0,-1,1546,869,0,0
329,155,0,0,0,0,0,0,0,0,0,-1,1553,869,0,0
336,155,0,0,0,0,0,0,0,0,0,-1,1560,869,0,0
343,155,0,0,0,0,0,0,0,0,0,-1,1567,869,0,0
350,155,0,0,0,0,0,0,0,0,0,-1,1574,869,0,0
357,155,0,0,0,0,0,0,0,0,0,-1,1581,869,0,0
364,155,0,0,0,0,0,0,0,0,0,-1,1588,869,0,0
371,155,0,0,0,0,0,0,0,0,0,-1,1595,869,0,0
378,155,0,0,0,0,0,0,0,0,0,-1,1602,869,0,0
385,155,0,0,0,0,0,0,0,0,0,-1,1609,869,0,0
392,155,0,0,0,0,0,0,0,0,0,-1,1616,869,0,0
399,155,0,0,0,0,0,0,0,0,0,-1,1623,869,0,0
406,155,0,0,0,0,0,0,0,0,0,-1,1630,869,0,0
413,155,0,0,0,0,0,0,0,0,0,-1,1637,869,0,0
420,155,0,0,0,0,0,0,0,0,0,-1,1644,869,0,0
427,155,0,0,0,0,0,0,0,0,0,-1,1651,869,0,0
434,155,0,0,0,0,0,0,0,0,0,-1,1658,869,0,0
441,155,0,0,0,0,0,0,0,0,0,-1,1665,869,0,0
448,155,0,0,0,0,0,0,0,0,0,-1,1672,869,0,0
455,155,0,0,0,0,0,0,0,0,0,-1,1679,869,0,0
462,155,0,0,0,0,0,0,0,0,0,-1,1686,869,0,0
469,155,0,0,0,0,0,0,0,0,0,-1,1693,869,0,0
476,155,0,0,0,0,0,0,0,0,0,-1,1700,869,0,0
483,155,0,0,0,0,0,0,0,0,0,-1,1707,869,0,0
490,155,0,0,0,0,0,0,0,0,0,-1,1714,869,0,0
497,155,0,0,0,0,0,0,0,0,0,-1,1721,869,0,0
504,155,0,0,0,0,0,0,0,0,0,-1,1728,869,0,0
511,155,0,0,0,0,0,0,0,0,0,-1,1735,869,0,0
518,155,0,0,0,0,0,0,0,0,0,-1,1742,869,0,0
525,155,0,0,0,0,0,0,0,0,0,-1,1749,869,0,0
532,155,0,0,0,0,0,0,0,0,0,-1,1756,869,0,0
539,155,0,0,0,0,0,0,0,0,0,-1,1763,869,0,0
546,155,0,0,0,0,0,0,0,0,0,-1,1770,869,0,0
553,155,0,0,0,0,0,0,0,0,0,-1,1777,869,0,0
560,155,0,0,0,0,0,0,0,0,0,-1,1784,869,0,0
567,155,0,0,0,0,0,0,0,0,0,-1,1791,869,0,0
574,155,0,0,0,0,0,0,0,0,0,-1,1798,869,0,0
581,155,0,0,0,0,0,0,0,0,0,-1,1805,869,0,0
588,155,0,0,0,0,0,0,0,0,0,-1,1812,869,0,0
595,155,0,0,0,0,0,0,0,0,0,-1,1819,869,0,0
602,155,0,0,0,0,0,0,0,0,0,-1,1826,869,0,0
609,155,0,0,0,0,0,0,0,0,0,-1,1833,869,0,0
616,155,15.5515,2.24323,0.00388438,0.00630014,-0.000661823,0.00646957,0.00371495,-1.32017,0.0037489,0.0447307,1840,869,15.5515,-2.24325
623,155,15.6818,2.37427,0.00492948,0.00424245,0.000634491,0.00530748,0.00386445,0.537288,0.00316879,0.0448146,1847,869,15.6817,-2.37428
630,155,15.6696,2.39752,0.00440429,0.00245256,0.000258377,0.00443791,0.00241894,0.129415,0.0025657,0.0432692,1854,869,15.6695,-2.39753
637,155,15.6708,2.32574,0.00308756,0.000998129,-0.000545461,0.00322138,0.000864303,-0.240592,0.00192528,0.0397022,1861,869,15.6708,-2.32572
644,155,15.786,2.3302,0.000632037,-1.29169e-05,-0.00164981,0.00199059,-0.00137147,-0.688883,0.00195202,0.0352584,1868,869,15.786,-2.33023
651,155,15.8464,2.32654,-0.00204875,-0.000641788,-0.00270133,0.00144616,-0.0041367,-0.912779,0.00334571,0.0336506,1875,869,15.8465,-2.32651
658,155,15.7672,2.30817,-0.00426907,-0.000969807,-0.00352905,0.00127613,-0.006515,-1.00403,0.00482529,0.0289263,1882,869,15.7672,-2.30816
665,155,15.7301,2.36816,-0.00606136,-0.00117977,-0.00409859,0.00114975,-0.00839088,-1.05396,0.00601392,0.0328965,1889,869,15.7301,-2.36815
672,155,15.7725,2.41193,-0.00763789,-0.00129982,-0.00447013,0.00101064,-0.00994835,-1.09375,0.0069935,0.0407932,1896,869,15.7725,-2.41196
679,155,14.7257,2.52307,0,0,0,0,0,0,0,-1,1903,869,14.7257,-2.52305
686,155,14.2034,2.30597,-0.00945093,-0.00124647,-0.00475943,0.000934653,-0.0116321,-1.14108,0.00808428,0.0377087,1910,869,14.2034,-2.30597
693,155,13.4901,2.33533,-0.00974173,-0.000988893,-0.0046002,0.000984092,-0.0117147,-1.16563,0.00815765,0.0195928,1917,869,13.4901,-2.33532
700,155,13.5173,2.43115,-0.00965002,-0.000662036,-0.0042738,0.00104569,-0.0113578,-1.19065,0.00794338,0.0165009,1924,869,13.5174,-2.43118
707,155,13.5665,2.57617,-0.00904236,-0.000253896,-0.00394424,0.00125664,-0.0105529,-1.20505,0.00748937,0.0121059,1931,869,13.5665,-2.57619
714,155,13.5404,2.672,-0.00763391,2.99859e-05,-0.00336142,0.00129539,-0.00889931,-1.21076,0.00640846,0.0204346,1938,869,13.5403,-2.67198
721,155,13.4805,2.82953,-0.00584304,0.000425908,-0.00277654,0.00147881,-0.00689594,-1.20834,0.00516134,0.0252006,1945,869,13.4804,-2.82955
728,155,13.4777,2.95343,-0.00385001,0.000907224,-0.00190973,0.001579,-0.00452178,-1.23255,0.00365633,0.0198461,1952,869,13.4776,-2.95341
735,155,13.4961,3.06342,-0.00219754,0.00148302,-0.00120949,0.0018449,-0.00255942,-1.28008,0.00255396,0.0157847,1959,869,13.4961,-3.06341
742,155,13.5148,3.19269,-0.00105363,0.00201134,-0.000613796,0.00212969,-0.00117198,-1.38032,0.00193277,0.0162668,1966,869,13.5148,-3.19267
749,155,13.5193,3.3161,-0.00104258,0.00273919,-6.91658e-05,0.00274046,-0.00104385,-1.55252,0.00225688,0.0131707,1973,869,13.5192,-3.31611
756,155,13.5417,3.41351,-0.00207536,0.00363271,0.000889188,0.00376802,-0.00221067,1.41978,0.00349062,0.0242479,1980,869,13.5418,-3.4135
763,155,13.5975,3.55634,-0.00326986,0.00457194,0.00299524,0.0055851,-0.00428301,1.24462,0.00571387,0.0447097,1987,869,13.5975,-3.55632
770,155,13.6743,3.72394,0,0,0,0,0,0,0,-1,1994,869,13.6743,-3.72393
777,155,13.5972,3.38342,0,0,0,0,0,0,0,-1,2001,869,13.5972,-3.3834
784,155,13.8107,3.45276,0,0,0,0,0,0,0,-1,2008,869,13.8107,-3.45273
791,155,0,0,0,0,0,0,0,0,0,-1,2015,869,0,0
798,155,0,0,0,0,0,0,0,0,0,-1,2022,869,0,0
805,155,0,0,0,0,0,0,0,0,0,-1,2029,869,0,0
812,155,0,0,0,0,0,0,0,0,0,-1,2036,869,0,0
-700,148,0,0,0,0,0,0,0,0,0,-1,524,876,0,0
-693,148,0,0,0,0,0,0,0,0,0,-1,531,876,0,0
-686,148,0,0,0,0,0,0,0,0,0,-1,538,876,0,0
-679,148,0,0,0,0,0,0,0,0,0,-1,545,876,0,0
-672,148,-8.90826,-0.2099,0.0110297,0.0091491,0.00699994,0.0171522,0.00302659,0.718633,0.0105714,0.0420984,552,876,-8.90825,0.209877
-665,148,-9.22717,-0.00292969,0.0054188,0.00823289,0.00808525,0.0150326,-0.00138093,0.871549,0.0105123,0.0425082,559,876,-9.22718,0.00290192
-658,148,-8.87231,-0.413391,0,0,0,0,0,0,0,-1,566,876,-8.8723,0.413366
-651,148,-6.95337,2.82739,0,0,0,0,0,0,0,-1,573,876,-6.95339,-2.8274
-644,148,-7.104,2.2088,0,0,0,0,0,0,0,-1,580,876,-7.104,-2.20881
-637,148,-7.84528,1.36353,0,0,0,0,0,0,0,-1,587,876,-7.84525,-1.36352
-630,148,-8.03174,1.32214,-0.00148213,0.00254636,0.00516369,0.00607475,-0.00501053,0.971361,0.00640991,0.0415252,594,876,-8.03174,-1.32214
-623,148,-8.23499,1.27063,-0.0019847,0.00189216,0.00415223,0.00453615,-0.00462869,1.00378,0.00529141,0.0206266,601,876,-8.23497,-1.27064
-616,148,-8.33075,1.16705,-0.001939,0.00126244,0.00374484,0.00373433,-0.00441089,0.987369,0.00470804,0.0118732,608,876,-8.33075,-1.16708
-609,148,-8.34735,1.06848,-0.00192821,0.000698372,0.00312404,0.00277394,-0.00400378,0.984374,0.00393453,0.0104533,615,876,-8.34735,-1.06847
-602,148,-8.34381,0.952393,-0.00196848,0.000138668,0.00211247,0.00144572,-0.00327553,1.01672,0.00279322,0.00974314,622,876,-8.3438,-0.952413
-595,148,-8.3584,0.853821,-0.00256027,-0.000116571,0.00181347,0.000848263,-0.0035251,1.08185,0.00267799,0.00875786,629,876,-8.35837,-0.853819
-588,148,-8.39331,0.743347,-0.00333843,-0.000222317,0.00181239,0.000609669,-0.00417041,1.14044,0.00300419,0.0128785,636,876,-8.3933,-0.743347
-581,148,-8.44714,0.637695,-0.00415448,-2.27673e-05,0.00171327,0.00059523,-0.00477248,1.22461,0.00339749,0.0183422,643,876,-8.44713,-0.637715
-574,148,-8.34174,0.575439,-0.00466339,-3.81286e-05,0.00159341,0.000457659,-0.00515917,1.26914,0.00360171,0.0225624,650,876,-8.34174,-0.575461
-567,148,-8.36713,0.458862,-0.00507888,7.58044e-05,0.00159706,0.000530509,-0.00553359,1.29342,0.00387801,0.0285096,657,876,-8.36715,-0.458867
-560,148,-8.34229,0.329651,-0.00547242,0.000230762,0.00173122,0.000715141,-0.0059568,1.29798,0.00422978,0.0282478,664,876,-8.34229,-0.329659
-553,148,-8.42297,0.394043,0,0,0,0,0,0,0,-1,671,876,-8.42295,-0.394053
-546,148,-9.44385,0.16748,0,0,0,0,0,0,0,-1,678,876,-9.44382,-0.167498
-539,148,-9.84186,0.592163,-0.00498208,0.00154901,0.00221309,0.00222827,-0.00566135,1.27299,0.00469663,0.0382366,685,876,-9.84183,-0.592181
-532,148,-9.8244,0.643127,-0.0040483,0.00217343,0.00247068,0.00303519,-0.00491006,1.2352,0.00462957,0.036164,692,876,-9.82443,-0.643118
-525,148,-9.79492,0.692261,-0.00270622,0.00296482,0.0028991,0.00418453,-0.00392594,1.17255,0.00468338,0.0381047,699,876,-9.79494,-0.692237
-518,148,-9.78503,0.732178,-0.000712882,0.00397672,0.00357907,0.00591068,-0.00264684,1.07539,0.00505906,0.0435702,706,876,-9.78501,-0.73216
-511,148,-9.7774,0.798828,0.00178068,0.00526917,0.00477493,0.00860846,-0.00155861,0.960514,0.00632287,0.0421498,713,876,-9.77739,-0.798837
-504,148,-9.7431,0.898254,0.00439591,0.00710035,0.00680002,0.0126813,-0.00118503,0.883545,0.00887562,0.0430533,720,876,-9.74309,-0.898276
-497,148,0,0,0,0,0,0,0,0,0,-1,727,876,0,0
-490,148,0,0,0,0,0,0,0,0,0,-1,734,876,0,0
-483,148,0,0,0,0,0,0,0,0,0,-1,741,876,0,0
-476,148,0,0,0,0,0,0,0,0,0,-1,748,876,0,0
-469,148,0,0,0,0,0,0,0,0,0,-1,755,876,0,0
-462,148,0,0,0,0,0,0,0,0,0,-1,762,876,0,0
-455,148,0,0,0,0,0,0,0,0,0,-1,769,876,0,0
-448,148,0,0,0,0,0,0,0,0,0,-1,776,876,0,0
-441,148,0,0,0,0,0,0,0,0,0,-1,783,876,0,0
-434,148,0,0,0,0,0,0,0,0,0,-1,790,876,0,0
-427,148,0,0,0,0,0,0,0,0,0,-1,797,876,0,0
-420,148,0,0,0,0,0,0,0,0,0,-1,804,876,0,0
-413,148,0,0,0,0,0,0,0,0,0,-1,811,876,0,0
-406,148,0,0,0,0,0,0,0,0,0,-1,818,876,0,0
-399,148,0,0,0,0,0,0,0,0,0,-1,825,876,0,0
-392,148,0,0,0,0,0,0,0,0,0,-1,832,876,0,0
-385,148,0,0,0,0,0,0,0,0,0,-1,839,876,0,0
-378,148,0,0,0,0,0,0,0,0,0,-1,846,876,0,0
-371,148,0,0,0,0,0,0,0,0,0,-1,853,876,0,0
-364,148,0,0,0,0,0,0,0,0,0,-1,860,876,0,0
-357,148,0,0,0,0,0,0,0,0,0,-1,867,876,0,0
-350,148,0,0,0,0,0,0,0,0,0,-1,874,876,0,0
-343,148,0,0,0,0,0,0,0,0,0,-1,881,876,0,0
-336,148,0,0,0,0,0,0,0,0,0,-1,888,876,0,0
-329,148,0,0,0,0,0,0,0,0,0,-1,895,876,0,0
-322,148,0,0,0,0,0,0,0,0,0,-1,902,876,0,0
-315,148,0,0,0,0,0,0,0,0,0,-1,909,876,0,0
-308,148,0,0,0,0,0,0,0,0,0,-1,916,876,0,0
-301,148,0,0,0,0,0,0,0,0,0,-1,923,876,0,0
-294,148,0,0,0,0,0,0,0,0,0,-1,930,876,0,0
-287,148,0,0,0,0,0,0,0,0,0,-1,937,876,0,0
-280,148,0,0,0,0,0,0,0,0,0,-1,944,876,0,0
-273,148,0,0,0,0,0,0,0,0,0,-1,951,876,0,0
-266,148,0,0,0,0,0,0,0,0,0,-1,958,876,0,0
-259,148,0,0,0,0,0,0,0,0,0,-1,965,876,0,0
-252,148,0,0,0,0,0,0,0,0,0,-1,972,876,0,0
-245,148,0,0,0,0,0,0,0,0,0,-1,979,876,0,0
-238,148,0,0,0,0,0,0,0,0,0,-1,986,876,0,0
-231,148,0,0,0,0,0,0,0,0,0,-1,993,876,0,0
-224,148,0,0,0,0,0,0,0,0,0,-1,1000,876,0,0
-217,148,0,0,0,0,0,0,0,0,0,-1,1007,876,0,0
-210,148,0,0,0,0,0,0,0,0,0,-1,1014,876,0,0
-203,148,0,0,0,0,0,0,0,0,0,-1,1021,876,0,0
-196,148,0,0,0,0,0,0,0,0,0,-1,1028,876,0,0
-189,148,0,0,0,0,0,0,0,0,0,-1,1035,876,0,0
-182,148,0,0,0,0,0,0,0,0,0,-1,1042,876,0,0
-175,148,0,0,0,0,0,0,0,0,0,-1,1049,876,0,0
-168,148,0,0,0,0,0,0,0,0,0,-1,1056,876,0,0
-161,148,0,0,0,0,0,0,0,0,0,-1,1063,876,0,0
-154,148,0,0,0,0,0,0,0,0,0,-1,1070,876,0,0
-147,148,0,0,0,0,0,0,0,0,0,-1,1077,876,0,0
-140,148,0,0,0,0,0,0,0,0,0,-1,1084,876,0,0
-133,148,0,0,0,0,0,0,0,0,0,-1,1091,876,0,0
-126,148,0,0,0,0,0,0,0,0,0,-1,1098,876,0,0
-119,148,0,0,0,0,0,0,0,0,0,-1,1105,876,0,0
-112,148,0,0,0,0,0,0,0,0,0,-1,1112,876,0,0
-105,148,0,0,0,0,0,0,0,0,0,-1,1119,876,0,0
-98,148,0,0,0,0,0,0,0,0,0,-1,1126,876,0,0
-91,148,0,0,0,0,0,0,0,0,0,-1,1133,876,0,0
-84,148,0,0,0,0,0,0,0,0,0,-1,1140,876,0,0
-77,148,0,0,0,0,0,0,0,0,0,-1,1147,876,0,0
-70,148,0,0,0,0,0,0,0,0,0,-1,1154,876,0,0
-63,148,0,0,0,0,0,0,0,0,0,-1,1161,876,0,0
-56,148,0,0,0,0,0,0,0,0,0,-1,1168,876,0,0
-49,148,0,0,0,0,0,0,0,0,0,-1,1175,876,0,0
-42,148,0,0,0,0,0,0,0,0,0,-1,1182,876,0,0
-35,148,0,0,0,0,0,0,0,0,0,-1,1189,876,0,0
-28,148,0,0,0,0,0,0,0,0,0,-1,1196,876,0,0
-21,148,0,0,0,0,0,0,0,0,0,-1,1203,876,0,0
-14,148,0,0,0,0,0,0,0,0,0,-1,1210,876,0,0
-7,148,0,0,0,0,0,0,0,0,0,-1,1217,876,0,0
0,148,0,0,0,0,0,0,0,0,0,-1,1224,876,0,0
7,148,0,0,0,0,0,0,0,0,0,-1,1231,876,0,0
14,148,0,0,0,0,0,0,0,0,0,-1,1238,876,0,0
21,148,0,0,0,0,0,0,0,0,0,-1,1245,876,0,0
28,148,0,0,0,0,0,0,0,0,0,-1,1252,876,0,0
35,148,0,0,0,0,0,0,0,0,0,-1,1259,876,0,0
42,148,0,0,0,0,0,0,0,0,0,-1,1266,876,0,0
49,148,0,0,0,0,0,0,0,0,0,-1,1273,876,0,0
56,148,0,0,0,0,0,0,0,0,0,-1,1280,876,0,0
63,148,0,0,0,0,0,0,0,0,0,-1,1287,876,0,0
70,148,0,0,0,0,0,0,0,0,0,-1,1294,876,0,0
77,148,0,0,0,0,0,0,0,0,0,-1,1301,876,0,0
84,148,0,0,0,0,0,0,0,0,0,-1,1308,876,0,0
91,148,0,0,0,0,0,0,0,0,0,-1,1315,876,0,0
98,148,0,0,0,0,0,0,0,0,0,-1,1322,876,0,0
105,148,0,0,0,0,0,0,0,0,0,-1,1329,876,0,0
112,148,0,0,0,0,0,0,0,0,0,-1,1336,876,0,0
119,148,0,0,0,0,0,0,0,0,0,-1,1343,876,0,0
126,148,0,0,0,0,0,0,0,0,0,-1,1350,876,0,0
133,148,0,0,0,0,0,0,0,0,0,-1,1357,876,0,0
140,148,0,0,0,0,0,0,0,0,0,-1,1364,876,0,0
147,148,0,0,0,0,0,0,0,0,0,-1,1371,876,0,0
154,148,0,0,0,0,0,0,0,0,0,-1,1378,876,0,0
161,148,0,0,0,0,0,0,0,0,0,-1,1385,876,0,0
168,148,0,0,0,0,0,0,0,0,0,-1,1392,876,0,0
175,148,0,0,0,0,0,0,0,0,0,-1,1399,876,0,0
182,148,0,0,0,0,0,0,0,0,0,-1,1406,876,0,0
189,148,0,0,0,0,0,0,0,0,0,-1,1413,876,0,0
196,148,0,0,0,0,0,0,0,0,0,-1,1420,876,0,0
203,148,0,0,0,0,0,0,0,0,0,-1,1427,876,0,0
210,148,0,0,0,0,0,0,0,0,0,-1,1434,876,0,0
217,148,0,0,0,0,0,0,0,0,0,-1,1441,876,0,0
224,148,0,0,0,0,0,0,0,0,0,-1,1448,876,0,0
231,148,0,0,0,0,0,0,0,0,0,-1,1455,876,0,0
238,148,0,0,0,0,0,0,0,0,0,-1,1462,876,0,0
245,148,0,0,0,0,0,0,0,0,0,-1,1469,876,0,0
252,148,0,0,0,0,0,0,0,0,0,-1,1476,876,0,0
259,148,0,0,0,0,0,0,0,0,0,-1,1483,876,0,0
266,148,0,0,0,0,0,0,0,0,0,-1,1490,876,0,0
273,148,0,0,0,0,0,0,0,0,0,-1,1497,876,0,0
280,148,0,0,0,0,0,0,0,0,0,-1,1504,876,0,0
287,148,0,0,0,0,0,0,0,0,0,-1,1511,876,0,0
294,148,0,0,0,0,0,0,0,0,0,-1,1518,876,0,0
301,148,0,0,0,0,0,0,0,0,0,-1,1525,876,0,0
308,148,0,0,0,0,0,0,0,0,0,-1,1532,876,0,0
315,148,0,0,0,0,0,0,0,0,0,-1,1539,876,0,0
322,148,0,0,0,0,0,0,0,0,0,-1,1546,876,0,0
329,148,0,0,0,0,0,0,0,0,0,-1,1553,876,0,0
336,148,0,0,0,0,0,0,0,0,0,-1,1560,876,0,0
343,148,0,0,0,0,0,0,0,0,0,-1,1567,876,0,0
350,148,0,0,0,0,0,0,0,0,0,-1,1574,876,0,0
357,148,0,0,0,0,0,0,0,0,0,-1,1581,876,0,0
364,148,0,0,0,0,0,0,0,0,0,-1,1588,876,0,0
371,148,0,0,0,0,0,0,0,0,0,-1,1595,876,0,0
378,148,0,0,0,0,0,0,0,0,0,-1,1602,876,0,0
385,148,0,0,0,0,0,0,0,0,0,-1,1609,876,0,0
392,148,0,0,0,0,0,0,0,0,0,-1,1616,876,0,0
399,148,0,0,0,0,0,0,0,0,0,-1,1623,876,0,0
406,148,0,0,0,0,0,0,0,0,0,-1,1630,876,0,0
413,148,0,0,0,0,0,0,0,0,0,-1,1637,876,0,0
420,148,0,0,0,0,0,0,0,0,0,-1,1644,876,0,0
427,148,0,0,0,0,0,0,0,0,0,-1,1651,876,0,0
434,148,0,0,0,0,0,0,0,0,0,-1,1658,876,0,0
441,148,0,0,0,0,0,0,0,0,0,-1,1665,876,0,0
448,148,0,0,0,0,0,0,0,0,0,-1,1672,876,0,0
455,148,0,0,0,0,0,0,0,0,0,-1,1679,876,0,0
462,148,0,0,0,0,0,0,0,0,0,-1,1686,876,0,0
469,148,0,0,0,0,0,0,0,0,0,-1,1693,876,0,0
476,148,0,0,0,0,0,0,0,0,0,-1,1700,876,0,0
483,148,0,0,0,0,0,0,0,0,0,-1,1707,876,0,0
490,148,0,0,0,0,0,0,0,0,0,-1,1714,876,0,0
497,148,0,0,0,0,0,0,0,0,0,-1,1721,876,0,0
504,148,0,0,0,0,0,0,0,0,0,-1,1728,876,0,0
511,148,0,0,0,0,0,0,0,0,0,-1,1735,876,0,0
518,148,0,0,0,0,0,0,0,0,0,-1,1742,876,0,0
525,148,0,0,0,0,0,0,0,0,0,-1,1749,876,0,0
532,148,0,0,0,0,0,0,0,0,0,-1,1756,876,0,0
539,148,0,0,0,0,0,0,0,0,0,-1,1763,876,0,0
546,148,0,0,0,0,0,0,0,0,0,-1,1770,876,0,0
553,148,0,0,0,0,0,0,0,0,0,-1,1777,876,0,0
560,148,0,0,0,0,0,0,0,0,0,-1,1784,876,0,0
567,148,0,0,0,0,0,0,0,0,0,-1,1791,876,0,0
574,148,0,0,0,0,0,0,0,0,0,-1,1798,876,0,0
581,148,0,0,0,0,0,0,0,0,0,-1,1805,876,0,0
588,148,0,0,0,0,0,0,0,0,0,-1,1812,876,0,0
595,148,0,0,0,0,0,0,0,0,0,-1,1819,876,0,0
602,148,0,0,0,0,0,0,0,0,0,-1,1826,876,0,0
609,148,0,0,0,0,0,0,0,0,0,-1,1833,876,0,0
616,148,0,0,0,0,0,0,0,0,0,-1,1840,876,0,0
623,148,15.7999,2.37994,0.0056898,0.0047238,0.000908512,0.00623572,0.00417787,0.541078,0.0036689,0.0413294,1847,876,15.7999,-2.37997
630,148,15.7142,2.41608,0.00480241,0.00302022,0.000564431,0.00496613,0.0028565,0.282313,0.00287798,0.0405659,1854,876,15.7142,-2.41607
637,148,15.67,2.354,0.00350957,0.00160386,-0.00015299,0.00352178,0.00159166,-0.0796005,0.00203643,0.0372568,1861,876,15.67,-2.35403
644,148,15.738,2.30389,0.0010018,0.000560582,-0.00124248,0.0020431,-0.000480719,-0.697536,0.0015474,0.0353986,1868,876,15.7381,-2.30392
651,148,15.8356,2.25757,-0.00196276,-0.000112482,-0.00235426,0.00149189,-0.00356713,-0.972611,0.00300162,0.0380659,1875,876,15.8355,-2.25759
658,148,15.7874,2.28625,-0.00452319,-0.000509118,-0.00325345,0.00130656,-0.00633887,-1.06177,0.00472208,0.0339534,1882,876,15.7874,-2.28623
665,148,15.6754,2.41498,-0.00656782,-0.000776846,-0.00388503,0.00117301,-0.00851767,-1.10564,0.00610712,0.0246971,1889,876,15.6754,-2.41496
672,148,15.731,2.37286,-0.00829177,-0.000955059,-0.00430045,0.00102908,-0.0102759,-1.13852,0.00721813,0.0299645,1896,876,15.731,-2.37285
679,148,15.8461,2.26178,0,0,0,0,0,0,0,-1,1903,876,15.846,-2.26175
686,148,14.5275,2.32135,-0.0102007,-0.00105451,-0.00462584,0.000877124,-0.0121324,-1.17523,0.0083959,0.043322,1910,876,14.5275,-2.32133
693,148,13.6317,2.32922,-0.0105323,-0.000860813,-0.00450605,0.000913202,-0.0123063,-1.19574,0.00852492,0.0267269,1917,876,13.6317,-2.3292
700,148,13.6716,2.47394,-0.0103824,-0.000586369,-0.00422853,0.000986403,-0.0119551,-1.21471,0.00831842,0.0154075,1924,876,13.6716,-2.47396
707,148,13.739,2.63062,-0.00965043,-0.000292515,-0.00390253,0.00112134,-0.0110643,-1.22321,0.00777697,0.0129295,1931,876,13.739,-2.6306
714,148,13.7057,2.69623,-0.00817847,1.52394e-05,-0.00338986,0.00123584,-0.00939908,-1.22517,0.00671601,0.0126972,1938,876,13.7057,-2.69622
721,148,13.6311,2.79834,-0.0062295,0.00044096,-0.00285822,0.00149813,-0.00728667,-1.21653,0.00542653,0.0173356,1945,876,13.6311,-2.79831
728,148,13.6328,2.93665,-0.00407676,0.000919738,-0.00192351,0.00157445,-0.00473147,-1.24272,0.00378976,0.0201055,1952,876,13.6329,-2.93662
735,148,13.6311,3.06836,-0.00215572,0.00150071,-0.000940119,0.00172827,-0.00238327,-1.33331,0.00238382,0.017513,1959,876,13.6311,-3.06837
742,148,13.6364,3.20868,-0.000675858,0.00192407,0.00011485,0.00192914,-0.000680922,1.52674,0.0015633,0.0187527,1966,876,13.6364,-3.20867
749,148,13.6433,3.31732,-0.000438161,0.00389669,0.00129402,0.00425359,-0.000795062,1.30168,0.00313454,0.0150819,1973,876,13.6433,-3.31735
756,148,13.6454,3.39856,-0.00150043,0.00599166,0.00310709,0.00711253,-0.0026213,1.22458,0.00581582,0.0196054,1980,876,13.6454,-3.39854
763,148,13.6814,3.50336,-0.00295632,0.00916642,0.00643118,0.0119425,-0.00573239,1.1633,0.0104124,0.0436864,1987,876,13.6813,-3.50335
770,148,13.7379,3.62787,0,0,0,0,0,0,0,-1,1994,876,13.738,-3.62788
777,148,13.8243,3.22302,0,0,0,0,0,0,0,-1,2001,876,13.8244,-3.22304
784,148,14.0729,3.80847,0,0,0,0,0,0,0,-1,2008,876,14.0729,-3.8085
791,148,14.2441,4.23364,0,0,0,0,0,0,0,-1,2015,876,14.2441,-4.23361
798,148,0,0,0,0,0,0,0,0,0,-1,2022,876,0,0
805,148,0,0,0,0,0,0,0,0,0,-1,2029,876,0,0
812,148,0,0,0,0,0,0,0,0,0,-1,2036,876,0,0
-700,141,0,0,0,0,0,0,0,0,0,-1,524,883,0,0
-693,141,0,0,0,0,0,0,0,0,0,-1,531,883,0,0
-686,141,0,0,0,0,0,0,0,0,0,-1,538,883,0,0
-679,141,0,0,0,0,0,0,0,0,0,-1,545,883,0,0
-672,141,-8.57751,0.126892,0.0247957,-0.00403568,0.00233393,0.0249834,-0.00422339,0.0802546,0.0182272,0.0452945,552,883,-8.57754,-0.126886
-665,141,-8.58441,-0.0913696,0.016066,-0.00324504,0.00421912,0.0169475,-0.0041266,0.205981,0.0128959,0.046025,559,883,-8.58444,0.0913995
-658,141,-8.58307,-0.263977,0.0101867,-0.00259232,0.00502874,0.0119282,-0.00433387,0.333392,0.0097242,0.0476331,566,883,-8.58308,0.263974
-651,141,-8.78516,-0.410889,0.00608215,-0.00202542,0.00521414,0.00863294,-0.00457622,0.454976,0.00774527,0.0436217,573,883,-8.78516,0.410883
-644,141,-6.9104,2.0968,0,0,0,0,0,0,0,-1,580,883,-6.91039,-2.0968
-637,141,-7.78052,1.0354,0,0,0,0,0,0,0,-1,587,883,-7.78053,-1.03541
-630,141,-8.05951,1.12152,-0.000219919,-0.000754703,0.00398163,0.00350328,-0.00447791,0.75187,0.00461938,0.0378728,594,883,-8.05949,-1.12153
-623,141,-8.33502,1.21417,-0.00180351,-0.000272577,0.00329755,0.00234719,-0.00442327,0.899444,0.00396971,0.0197342,601,883,-8.335,-1.21419
-616,141,-8.43256,1.14978,-0.00246252,-8.81893e-05,0.00312748,0.00206987,-0.00462057,0.966793,0.0039552,0.011036,608,883,-8.43255,-1.14977
-609,141,-8.44672,1.06476,-0.00286399,-3.4002e-05,0.00277596,0.00166679,-0.00456479,1.0211,0.00372523,0.0118435,615,883,-8.4467,-1.06478
-602,141,-8.45264,0.960083,-0.00310183,3.93108e-05,0.00188189,0.000919903,-0.00398242,1.13313,0.00300882,0.0108883,622,883,-8.45261,-0.960079
-595,141,-8.45599,0.853943,-0.00358433,3.50518e-05,0.00162551,0.000657906,-0.00420719,1.20488,0.00304786,0.00986304,629,883,-8.45602,-0.85394
-588,141,-8.54559,0.760193,-0.0041912,2.13951e-05,0.00166187,0.000598066,-0.00476787,1.2368,0.00339553,0.0151138,636,883,-8.54557,-0.760166
-581,141,-8.58624,0.680725,-0.0048691,0.000165071,0.00158865,0.000624479,-0.00532851,1.28929,0.00377774,0.020692,643,883,-8.58625,-0.680755
-574,141,-8.45178,0.604614,-0.00521924,7.68173e-05,0.00151216,0.000478162,-0.00562059,1.31137,0.00391619,0.0230445,650,883,-8.45176,-0.60459
-567,141,-8.43512,0.555054,-0.00550931,9.14382e-05,0.00151756,0.000476201,-0.00589407,1.32249,0.00409735,0.0273426,657,883,-8.43511,-0.555064
-560,141,-8.40546,0.516907,0,0,0,0,0,0,0,-1,664,883,-8.40546,-0.516914
-553,141,-9.34399,0.443481,0,0,0,0,0,0,0,-1,671,883,-9.34397,-0.443495
-546,141,-9.89349,0.56488,-0.00562811,0.000847941,0.00186553,0.0013469,-0.00612706,1.30945,0.00459988,0.035613,678,883,-9.89349,-0.564869
-539,141,-9.8075,0.608032,-0.00497528,0.00121353,0.00195427,0.00177898,-0.00554073,1.28915,0.00440814,0.0304644,685,883,-9.80747,-0.608004
-532,141,-9.79657,0.62384,-0.00394127,0.00172896,0.00215859,0.00245718,-0.00466949,1.24543,0.00418015,0.0300106,692,883,-9.79655,-0.623825
-525,141,-9.76324,0.643616,-0.00247593,0.00243699,0.00253641,0.00351148,-0.00355041,1.17009,0.00407721,0.0385314,699,883,-9.76327,-0.643617
-518,141,-9.79333,0.747925,-0.000387863,0.0034403,0.00321879,0.00527113,-0.00221869,1.05364,0.00444234,0.0408874,706,883,-9.79335,-0.7479
-511,141,-9.9054,0.733337,0.00190556,0.00489395,0.00465321,0.00828699,-0.00148747,0.940753,0.00608142,0.0389717,713,883,-9.9054,-0.733338
-504,141,-9.92181,0.61261,0.00387648,0.00738995,0.0073232,0.0131642,-0.00189774,0.903117,0.00947228,0.0431359,720,883,-9.92184,-0.612617
-497,141,0,0,0,0,0,0,0,0,0,-1,727,883,0,0
-490,141,0,0,0,0,0,0,0,0,0,-1,734,883,0,0
-483,141,0,0,0,0,0,0,0,0,0,-1,741,883,0,0
-476,141,0,0,0,0,0,0,0,0,0,-1,748,883,0,0
-469,141,0,0,0,0,0,0,0,0,0,-1,755,883,0,0
-462,141,0,0,0,0,0,0,0,0,0,-1,762,883,0,0
-455,141,0,0,0,0,0,0,0,0,0,-1,769,883,0,0
-448,141,0,0,0,0,0,0,0,0,0,-1,776,883,0,0
-441,141,0,0,0,0,0,0,0,0,0,-1,783,883,0,0
-434,141,0,0,0,0,0,0,0,0,0,-1,790,883,0,0
-427,141,0,0,0,0,0,0,0,0,0,-1,797,883,0,0
-420,141,0,0,0,0,0,0,0,0,0,-1,804,883,0,0
-413,141,0,0,0,0,0,0,0,0,0,-1,811,883,0,0
-406,141,0,0,0,0,0,0,0,0,0,-1,818,883,0,0
-399,141,0,0,0,0,0,0,0,0,0,-1,825,883,0,0
-392,141,0,0,0,0,0,0,0,0,0,-1,832,883,0,0
-385,141,0,0,0,0,0,0,0,0,0,-1,839,883,0,0
-378,141,0,0,0,0,0,0,0,0,0,-1,846,883,0,0
-371,141,0,0,0,0,0,0,0,0,0,-1,853,883,0,0
-364,141,0,0,0,0,0,0,0,0,0,-1,860,883,0,0
-357,141,0,0,0,0,0,0,0,0,0,-1,867,883,0,0
-350,141,0,0,0,0,0,0,0,0,0,-1,874,883,0,0
-343,141,0,0,0,0,0,0,0,0,0,-1,881,883,0,0
-336,141,0,0,0,0,0,0,0,0,0,-1,888,883,0,0
-329,141,0,0,0,0,0,0,0,0,0,-1,895,883,0,0
-322,141,0,0,0,0,0,0,0,0,0,-1,902,883,0,0
-315,141,0,0,0,0,0,0,0,0,0,-1,909,883,0,0
-308,141,0,0,0,0,0,0,0,0,0,-1,916,883,0,0
-301,141,0,0,0,0,0,0,0,0,0,-1,923,883,0,0
-294,141,0,0,0,0,0,0,0,0,0,-1,930,883,0,0
-287,141,0,0,0,0,0,0,0,0,0,-1,937,883,0,0
-280,141,0,0,0,0,0,0,0,0,0,-1,944,883,0,0
-273,141,0,0,0,0,0,0,0,0,0,-1,951,883,0,0
-266,141,0,0,0,0,0,0,0,0,0,-1,958,883,0,0
-259,141,0,0,0,0,0,0,0,0,0,-1,965,883,0,0
-252,141,0,0,0,0,0,0,0,0,0,-1,972,883,0,0
-245,141,0,0,0,0,0,0,0,0,0,-1,979,883,0,0
-238,141,0,0,0,0,0,0,0,0,0,-1,986,883,0,0
-231,141,0,0,0,0,0,0,0,0,0,-1,993,883,0,0
-224,141,0,0,0,0,0,0,0,0,0,-1,1000,883,0,0
-217,141,0,0,0,0,0,0,0,0,0,-1,1007,883,0,0
-210,141,0,0,0,0,0,0,0,0,0,-1,1014,883,0,0
-203,141,0,0,0,0,0,0,0,0,0,-1,1021,883,0,0
-196,141,0,0,0,0,0,0,0,0,0,-1,1028,883,0,0
-189,141,0,0,0,0,0,0,0,0,0,-1,1035,883,0,0
-182,141,0,0,0,0,0,0,0,0,0,-1,1042,883,0,0
-175,141,0,0,0,0,0,0,0,0,0,-1,1049,883,0,0
-168,141,0,0,0,0,0,0,0,0,0,-1,1056,883,0,0
-161,141,0,0,0,0,0,0,0,0,0,-1,1063,883,0,0
-154,141,0,0,0,0,0,0,0,0,0,-1,1070,883,0,0
-147,141,0,0,0,0,0,0,0,0,0,-1,1077,883,0,0
-140,141,0,0,0,0,0,0,0,0,0,-1,1084,883,0,0
-133,141,0,0,0,0,0,0,0,0,0,-1,1091,883,0,0
-126,141,0,0,0,0,0,0,0,0,0,-1,1098,883,0,0
-119,141,0,0,0,0,0,0,0,0,0,-1,1105,883,0,0
-112,141,0,0,0,0,0,0,0,0,0,-1,1112,883,0,0
-105,141,0,0,0,0,0,0,0,0,0,-1,1119,883,0,0
-98,141,0,0,0,0,0,0,0,0,0,-1,1126,883,0,0
-91,141,0,0,0,0,0,0,0,0,0,-1,1133,883,0,0
-84,141,0,0,0,0,0,0,0,0,0,-1,1140,883,0,0
-77,141,0,0,0,0,0,0,0,0,0,-1,1147,883,0,0
-70,141,0,0,0,0,0,0,0,0,0,-1,1154,883,0,0
-63,141,0,0,0,0,0,0,0,0,0,-1,1161,883,0,0
-56,141,0,0,0,0,0,0,0,0,0,-1,1168,883,0,0
-49,141,0,0,0,0,0,0,0,0,0,-1,1175,883,0,0
-42,141,0,0,0,0,0,0,0,0,0,-1,1182,883,0,0
-35,141,0,0,0,0,0,0,0,0,0,-1,1189,883,0,0
-28,141,0,0,0,0,0,0,0,0,0,-1,1196,883,0,0
-21,141,0,0,0,0,0,0,0,0,0,-1,1203,883,0,0
-14,141,0,0,0,0,0,0,0,0,0,-1,1210,883,0,0
-7,141,0,0,0,0,0,0,0,0,0,-1,1217,883,0,0
0,141,0,0,0,0,0,0,0,0,0,-1,1224,883,0,0
7,141,0,0,0,0,0,0,0,0,0,-1,1231,883,0,0
14,141,0,0,0,0,0,0,0,0,0,-1,1238,883,0,0
21,141,0,0,0,0,0,0,0,0,0,-1,1245,883,0,0
28,141,0,0,0,0,0,0,0,0,0,-1,1252,883,0,0
35,141,0,0,0,0,0,0,0,0,0,-1,1259,883,0,0
42,141,0,0,0,0,0,0,0,0,0,-1,1266,883,0,0
49,141,0,0,0,0,0,0,0,0,0,-1,1273,883,0,0
56,141,0,0,0,0,0,0,0,0,0,-1,1280,883,0,0
63,141,0,0,0,0,0,0,0,0,0,-1,1287,883,0,0
70,141,0,0,0,0,0,0,0,0,0,-1,1294,883,0,0
77,141,0,0,0,0,0,0,0,0,0,-1,1301,883,0,0
84,141,0,0,0,0,0,0,0,0,0,-1,1308,883,0,0
91,141,0,0,0,0,0,0,0,0,0,-1,1315,883,0,0
98,141,0,0,0,0,0,0,0,0,0,-1,1322,883,0,0
105,141,0,0,0,0,0,0,0,0,0,-1,1329,883,0,0
112,141,0,0,0,0,0,0,0,0,0,-1,1336,883,0,0
119,141,0,0,0,0,0,0,0,0,0,-1,1343,883,0,0
126,141,0,0,0,0,0,0,0,0,0,-1,1350,883,0,0
133,141,0,0,0,0,0,0,0,0,0,-1,1357,883,0,0
140,141,0,0,0,0,0,0,0,0,0,-1,1364,883,0,0
147,141,0,0,0,0,0,0,0,0,0,-1,1371,883,0,0
154,141,0,0,0,0,0,0,0,0,0,-1,1378,883,0,0
161,141,0,0,0,0,0,0,0,0,0,-1,1385,883,0,0
168,141,0,0,0,0,0,0,0,0,0,-1,1392,883,0,0
175,141,0,0,0,0,0,0,0,0,0,-1,1399,883,0,0
182,141,0,0,0,0,0,0,0,0,0,-1,1406,883,0,0
189,141,0,0,0,0,0,0,0,0,0,-1,1413,883,0,0
196,141,0,0,0,0,0,0,0,0,0,-1,1420,883,0,0
203,141,0,0,0,0,0,0,0,0,0,-1,1427,883,0,0
210,141,0,0,0,0,0,0,0,0,0,-1,1434,883,0,0
217,141,0,0,0,0,0,0,0,0,0,-1,1441,883,0,0
224,141,0,0,0,0,0,0,0,0,0,-1,1448,883,0,0
231,141,0,0,0,0,0,0,0,0,0,-1,1455,883,0,0
238,141,0,0,0,0,0,0,0,0,0,-1,1462,883,0,0
245,141,0,0,0,0,0,0,0,0,0,-1,1469,883,0,0
252,141,0,0,0,0,0,0,0,0,0,-1,1476,883,0,0
259,141,0,0,0,0,0,0,0,0,0,-1,1483,883,0,0
266,141,0,0,0,0,0,0,0,0,0,-1,1490,883,0,0
273,141,0,0,0,0,0,0,0,0,0,-1,1497,883,0,0
280,141,0,0,0,0,0,0,0,0,0,-1,1504,883,0,0
287,141,0,0,0,0,0,0,0,0,0,-1,1511,883,0,0
294,141,0,0,0,0,0,0,0,0,0,-1,1518,883,0,0
301,141,0,0,0,0,0,0,0,0,0,-1,1525,883,0,0
308,141,0,0,0,0,0,0,0,0,0,-1,1532,883,0,0
315,141,0,0,0,0,0,0,0,0,0,-1,1539,883,0,0
322,141,0,0,0,0,0,0,0,0,0,-1,1546,883,0,0
329,141,0,0,0,0,0,0,0,0,0,-1,1553,883,0,0
336,141,0,0,0,0,0,0,0,0,0,-1,1560,883,0,0
343,141,0,0,0,0,0,0,0,0,0,-1,1567,883,0,0
350,141,0,0,0,0,0,0,0,0,0,-1,1574,883,0,0
357,141,0,0,0,0,0,0,0,0,0,-1,1581,883,0,0
364,141,0,0,0,0,0,0,0,0,0,-1,1588,883,0,0
371,141,0,0,0,0,0,0,0,0,0,-1,1595,883,0,0
378,141,0,0,0,0,0,0,0,0,0,-1,1602,883,0,0
385,141,0,0,0,0,0,0,0,0,0,-1,1609,883,0,0
392,141,0,0,0,0,0,0,0,0,0,-1,1616,883,0,0
399,141,0,0,0,0,0,0,0,0,0,-1,1623,883,0,0
406,141,0,0,0,0,0,0,0,0,0,-1,1630,883,0,0
413,141,0,0,0,0,0,0,0,0,0,-1,1637,883,0,0
420,141,0,0,0,0,0,0,0,0,0,-1,1644,883,0,0
427,141,0,0,0,0,0,0,0,0,0,-1,1651,883,0,0
434,141,0,0,0,0,0,0,0,0,0,-1,1658,883,0,0
441,141,0,0,0,0,0,0,0,0,0,-1,1665,883,0,0
448,141,0,0,0,0,0,0,0,0,0,-1,1672,883,0,0
455,141,0,0,0,0,0,0,0,0,0,-1,1679,883,0,0
462,141,0,0,0,0,0,0,0,0,0,-1,1686,883,0,0
469,141,0,0,0,0,0,0,0,0,0,-1,1693,883,0,0
476,141,0,0,0,0,0,0,0,0,0,-1,1700,883,0,0
483,141,0,0,0,0,0,0,0,0,0,-1,1707,883,0,0
490,141,0,0,0,0,0,0,0,0,0,-1,1714,883,0,0
497,141,0,0,0,0,0,0,0,0,0,-1,1721,883,0,0
504,141,0,0,0,0,0,0,0,0,0,-1,1728,883,0,0
511,141,0,0,0,0,0,0,0,0,0,-1,1735,883,0,0
518,141,0,0,0,0,0,0,0,0,0,-1,1742,883,0,0
525,141,0,0,0,0,0,0,0,0,0,-1,1749,883,0,0
532,141,0,0,0,0,0,0,0,0,0,-1,1756,883,0,0
539,141,0,0,0,0,0,0,0,0,0,-1,1763,883,0,0
546,141,0,0,0,0,0,0,0,0,0,-1,1770,883,0,0
553,141,0,0,0,0,0,0,0,0,0,-1,1777,883,0,0
560,141,0,0,0,0,0,0,0,0,0,-1,1784,883,0,0
567,141,0,0,0,0,0,0,0,0,0,-1,1791,883,0,0
574,141,0,0,0,0,0,0,0,0,0,-1,1798,883,0,0
581,141,0,0,0,0,0,0,0,0,0,-1,1805,883,0,0
588,141,0,0,0,0,0,0,0,0,0,-1,1812,883,0,0
595,141,0,0,0,0,0,0,0,0,0,-1,1819,883,0,0
602,141,0,0,0,0,0,0,0,0,0,-1,1826,883,0,0
609,141,0,0,0,0,0,0,0,0,0,-1,1833,883,0,0
616,141,0,0,0,0,0,0,0,0,0,-1,1840,883,0,0
623,141,15.911,2.21234,0.0062998,0.00608726,0.00138391,0.00758152,0.00480555,0.747078,0.00442916,0.0415025,1847,883,15.9111,-2.21234
630,141,15.786,2.36914,0.0051221,0.00419561,0.000911014,0.00568088,0.00363683,0.550188,0.00332255,0.0440547,1854,883,15.786,-2.36914
637,141,15.7174,2.35669,0.00405821,0.00264511,0.000192691,0.00408401,0.0026193,0.133123,0.00238911,0.0426149,1861,883,15.7174,-2.35669
644,141,15.8363,2.24921,0.00176529,0.00146156,-0.000888488,0.0025148,0.000712054,-0.700754,0.00149675,0.0374309,1868,883,15.8364,-2.24918
651,141,15.941,2.32941,-0.00133234,0.000686939,-0.00204986,0.00196231,-0.00260772,-1.01423,0.00264726,0.037871,1875,883,15.941,-2.32942
658,141,15.8378,2.39966,-0.00418305,0.000181242,-0.00301061,0.00171737,-0.00571917,-1.09899,0.00449594,0.0354709,1882,883,15.8378,-2.39968
665,141,15.7025,2.42676,-0.00645782,-0.000166473,-0.00368639,0.00153396,-0.00815825,-1.13861,0.0060157,0.0260273,1889,883,15.7025,-2.42677
672,141,15.7521,2.36322,-0.00833839,-0.000406184,-0.0041293,0.00135319,-0.0100978,-1.16802,0.00722527,0.0220112,1896,883,15.7521,-2.36322
679,141,15.8086,2.24005,-0.0096435,-0.000544378,-0.00439811,0.00123393,-0.0114218,-1.18656,0.0080574,0.0258137,1903,883,15.8086,-2.24007
686,141,15.8795,2.10883,0,0,0,0,0,0,0,-1,1910,883,15.8795,-2.1088
693,141,13.8547,2.50317,-0.0108337,-0.000538994,-0.00437515,0.00106919,-0.0124419,-1.21855,0.00867296,0.0413025,1917,883,13.8548,-2.5032
700,141,13.8015,2.47906,-0.0107102,-0.000358514,-0.00412081,0.00108156,-0.0121503,-1.2346,0.00848373,0.015487,1924,883,13.8016,-2.47905
707,141,13.8118,2.56818,-0.00996407,-0.000195833,-0.00379502,0.00110525,-0.0112652,-1.24051,0.00790432,0.0130452,1931,883,13.8118,-2.56819
714,141,13.7502,2.64911,-0.00853471,5.19597e-05,-0.00335472,0.00120719,-0.00968994,-1.23915,0.00689766,0.0136274,1938,883,13.7503,-2.64912
721,141,13.7587,2.77496,-0.00660543,0.00042805,-0.00287472,0.0014535,-0.00763088,-1.22815,0.00563459,0.0128293,1945,883,13.7586,-2.77497
728,141,13.7634,2.90247,-0.00452615,0.000824371,-0.00191276,0.00143783,-0.0051396,-1.26044,0.00399293,0.0147186,1952,883,13.7634,-2.90244
735,141,13.7378,3.06689,-0.00266299,0.00143397,-0.000671806,0.00154131,-0.00277033,-1.41235,0.00252282,0.0139484,1959,883,13.7378,-3.06689
742,141,13.739,3.20105,-0.00106266,0.00177738,0.00063879,0.00191445,-0.00119973,1.35943,0.00181368,0.0147754,1966,883,13.7391,-3.20105
749,141,13.7617,3.28986,-0.000422788,0.00461449,0.00168296,0.00512502,-0.000933323,1.27626,0.00376653,0.012913,1973,883,13.7617,-3.28983
756,141,13.7544,3.34918,-0.00125438,0.00745878,0.00341852,0.00863989,-0.0024355,1.23813,0.00672051,0.0196829,1980,883,13.7544,-3.34916
763,141,13.746,3.38843,-0.00241239,0.011838,0.00621033,0.0141646,-0.004739,1.21235,0.0113572,0.0435224,1987,883,13.746,-3.38845
770,141,13.7393,3.43713,0,0,0,0,0,0,0,-1,1994,883,13.7393,-3.43713
777,141,13.1458,4.30017,0,0,0,0,0,0,0,-1,2001,883,13.1457,-4.30018
784,141,14.5864,3.02979,0,0,0,0,0,0,0,-1,2008,883,14.5865,-3.0298
791,141,14.75,3.30322,0,0,0,0,0,0,0,-1,2015,883,14.75,-3.30322
798,141,0,0,0,0,0,0,0,0,0,-1,2022,883,0,0
805,141,0,0,0,0,0,0,0,0,0,-1,2029,883,0,0
812,141,0,0,0,0,0,0,0,0,0,-1,2036,883,0,0
-700,134,0,0,0,0,0,0,0,0,0,-1,524,890,0,0
-693,134,0,0,0,0,0,0,0,0,0,-1,531,890,0,0
-686,134,0,0,0,0,0,0,0,0,0,-1,538,890,0,0
-679,134,0,0,0,0,0,0,0,0,0,-1,545,890,0,0
-672,134,-7.76239,-0.414856,0.0374418,-0.0144264,-0.00126272,0.0374725,-0.0144571,-0.0243255,0.0309475,0.0484394,552,890,-7.76237,0.414865
-665,134,-8.12305,-0.367981,0.0263416,-0.0123231,0.00118626,0.0263779,-0.0123595,0.0306422,0.022848,0.0483311,559,890,-8.12306,0.367961
-658,134,-8.26154,-0.156372,0.0182164,-0.0102659,0.00256668,0.0184459,-0.0104954,0.0891576,0.0169181,0.0459326,566,890,-8.26153,0.15635
-651,134,-8.50952,-0.0458374,0.0121245,-0.00832219,0.00327502,0.0126363,-0.00883395,0.155008,0.0124605,0.0436838,573,890,-8.50952,0.0458306
-644,134,-8.39117,0.323547,0.00751757,-0.00653061,0.00353695,0.00835782,-0.00737086,0.23324,0.00908692,0.0447632,580,890,-8.39118,-0.323519
-637,134,-8.03534,1.00421,0,0,0,0,0,0,0,-1,587,890,-8.03533,-1.00421
-630,134,-8.2644,1.13214,0.00157299,-0.00353948,0.00319631,0.00310952,-0.00507601,0.448105,0.00477116,0.0387721,594,890,-8.26441,-1.13212
-623,134,-8.48047,1.26538,-0.00107527,-0.0021412,0.00279063,0.00123283,-0.00444931,0.691043,0.00345134,0.0198869,601,890,-8.48045,-1.26539
-616,134,-8.55756,1.16089,-0.00257804,-0.00128763,0.00278627,0.000927168,-0.00479283,0.899176,0.00354493,0.0111582,608,890,-8.55758,-1.16092
-609,134,-8.56903,1.06104,-0.0035518,-0.000713531,0.00266149,0.00088354,-0.00514887,1.03033,0.00376184,0.011029,615,890,-8.56906,-1.06105
-602,134,-8.56787,0.956177,-0.00404484,-0.000137003,0.00183002,0.000586163,-0.00476801,1.19446,0.00339099,0.0114066,622,890,-8.5679,-0.956191
-595,134,-8.5564,0.875549,-0.00445677,3.03589e-05,0.00156663,0.000523199,-0.00494961,1.26601,0.00348725,0.0111542,629,890,-8.55641,-0.875567
-588,134,-8.65247,0.826233,-0.00492735,0.00010161,0.00159262,0.000563545,-0.00538929,1.2885,0.00379468,0.0191032,636,890,-8.65247,-0.826205
-581,134,-8.63202,0.668518,-0.00547987,0.000217469,0.00151278,0.000594235,-0.00585663,1.32671,0.00411682,0.0237401,643,890,-8.63202,-0.668542
-574,134,-8.60968,0.541199,-0.005681,9.91309e-05,0.00145457,0.000444531,-0.0060264,1.33765,0.00417368,0.0235243,650,890,-8.60967,-0.541172
-567,134,-8.51093,0.475891,-0.00581424,9.31705e-05,0.00149041,0.000447894,-0.00616897,1.33714,0.00426978,0.0203821,657,890,-8.51091,-0.475884
-560,134,-8.80023,0.664307,-0.0059753,0.000122185,0.00162697,0.000529142,-0.00638226,1.32569,0.00444174,0.0380869,664,890,-8.80023,-0.664337
-553,134,-9.30475,0.96051,0,0,0,0,0,0,0,-1,671,890,-9.30474,-0.960492
-546,134,-9.83453,0.5578,-0.00548757,0.000748451,0.00178582,0.00122365,-0.00596276,1.31073,0.00443963,0.0265685,678,890,-9.83455,-0.557804
-539,134,-9.83197,0.588928,-0.00470119,0.00111267,0.00186097,0.00165732,-0.00524585,1.28607,0.00416118,0.0181157,685,890,-9.83199,-0.5889
-532,134,-9.79773,0.591614,-0.00353445,0.00163015,0.00203099,0.00233314,-0.00423745,1.23757,0.00384628,0.0221347,692,890,-9.79771,-0.591614
-525,134,-9.69904,0.562744,-0.00197728,0.00237422,0.00235749,0.00340653,-0.0030096,1.15806,0.00370671,0.0342048,699,890,-9.69903,-0.562729
-518,134,-9.66986,0.668579,5.29818e-05,0.00348431,0.00298044,0.00520762,-0.00167033,1.04656,0.00414234,0.0403106,706,890,-9.66986,-0.668587
-511,134,-9.78076,0.712036,0.00177765,0.00518571,0.00447047,0.00826591,-0.00130255,0.967485,0.00599216,0.041916,713,890,-9.78079,-0.712031
-504,134,0,0,0,0,0,0,0,0,0,-1,720,890,0,0
-497,134,0,0,0,0,0,0,0,0,0,-1,727,890,0,0
-490,134,0,0,0,0,0,0,0,0,0,-1,734,890,0,0
-483,134,0,0,0,0,0,0,0,0,0,-1,741,890,0,0
-476,134,0,0,0,0,0,0,0,0,0,-1,748,890,0,0
-469,134,0,0,0,0,0,0,0,0,0,-1,755,890,0,0
-462,134,0,0,0,0,0,0,0,0,0,-1,762,890,0,0
-455,134,0,0,0,0,0,0,0,0,0,-1,769,890,0,0
-448,134,0,0,0,0,0,0,0,0,0,-1,776,890,0,0
-441,134,0,0,0,0,0,0,0,0,0,-1,783,890,0,0
-434,134,0,0,0,0,0,0,0,0,0,-1,790,890,0,0
-427,134,0,0,0,0,0,0,0,0,0,-1,797,890,0,0
-420,134,0,0,0,0,0,0,0,0,0,-1,804,890,0,0
-413,134,0,0,0,0,0,0,0,0,0,-1,811,890,0,0
-406,134,0,0,0,0,0,0,0,0,0,-1,818,890,0,0
-399,134,0,0,0,0,0,0,0,0,0,-1,825,890,0,0
-392,134,0,0,0,0,0,0,0,0,0,-1,832,890,0,0
-385,134,0,0,0,0,0,0,0,0,0,-1,839,890,0,0
-378,134,0,0,0,0,0,0,0,0,0,-1,846,890,0,0
-371,134,0,0,0,0,0,0,0,0,0,-1,853,890,0,0
-364,134,0,0,0,0,0,0,0,0,0,-1,860,890,0,0
-357,134,0,0,0,0,0,0,0,0,0,-1,867,890,0,0
-350,134,0,0,0,0,0,0,0,0,0,-1,874,890,0,0
-343,134,0,0,0,0,0,0,0,0,0,-1,881,890,0,0
-336,134,0,0,0,0,0,0,0,0,0,-1,888,890,0,0
-329,134,0,0,0,0,0,0,0,0,0,-1,895,890,0,0
-322,134,0,0,0,0,0,0,0,0,0,-1,902,890,0,0
-315,134,0,0,0,0,0,0,0,0,0,-1,909,890,0,0
-308,134,0,0,0,0,0,0,0,0,0,-1,916,890,0,0
-301,134,0,0,0,0,0,0,0,0,0,-1,923,890,0,0
-294,134,0,0,0,0,0,0,0,0,0,-1,930,890,0,0
-287,134,0,0,0,0,0,0,0,0,0,-1,937,890,0,0
-280,134,0,0,0,0,0,0,0,0,0,-1,944,890,0,0
-273,134,0,0,0,0,0,0,0,0,0,-1,951,890,0,0
-266,134,0,0,0,0,0,0,0,0,0,-1,958,890,0,0
-259,134,0,0,0,0,0,0,0,0,0,-1,965,890,0,0
-252,134,0,0,0,0,0,0,0,0,0,-1,972,890,0,0
-245,134,0,0,0,0,0,0,0,0,0,-1,979,890,0,0
-238,134,0,0,0,0,0,0,0,0,0,-1,986,890,0,0
-231,134,0,0,0,0,0,0,0,0,0,-1,993,890,0,0
-224,134,0,0,0,0,0,0,0,0,0,-1,1000,890,0,0
-217,134,0,0,0,0,0,0,0,0,0,-1,1007,890,0,0
-210,134,0,0,0,0,0,0,0,0,0,-1,1014,890,0,0
-203,134,0,0,0,0,0,0,0,0,0,-1,1021,890,0,0
-196,134,0,0,0,0,0,0,0,0,0,-1,1028,890,0,0
-189,134,0,0,0,0,0,0,0,0,0,-1,1035,890,0,0
-182,134,0,0,0,0,0,0,0,0,0,-1,1042,890,0,0
-175,134,0,0,0,0,0,0,0,0,0,-1,1049,890,0,0
-168,134,0,0,0,0,0,0,0,0,0,-1,1056,890,0,0
-161,134,0,0,0,0,0,0,0,0,0,-1,1063,890,0,0
-154,134,0,0,0,0,0,0,0,0,0,-1,1070,890,0,0
-147,134,0,0,0,0,0,0,0,0,0,-1,1077,890,0,0
-140,134,0,0,0,0,0,0,0,0,0,-1,1084,890,0,0
-133,134,0,0,0,0,0,0,0,0,0,-1,1091,890,0,0
-126,134,0,0,0,0,0,0,0,0,0,-1,1098,890,0,0
-119,134,0,0,0,0,0,0,0,0,0,-1,1105,890,0,0
-112,134,0,0,0,0,0,0,0,0,0,-1,1112,890,0,0
-105,134,0,0,0,0,0,0,0,0,0,-1,1119,890,0,0
-98,134,0,0,0,0,0,0,0,0,0,-1,1126,890,0,0
-91,134,0,0,0,0,0,0,0,0,0,-1,1133,890,0,0
-84,134,0,0,0,0,0,0,0,0,0,-1,1140,890,0,0
-77,134,0,0,0,0,0,0,0,0,0,-1,1147,890,0,0
-70,134,0,0,0,0,0,0,0,0,0,-1,1154,890,0,0
-63,134,0,0,0,0,0,0,0,0,0,-1,1161,890,0,0
-56,134,0,0,0,0,0,0,0,0,0,-1,1168,890,0,0
-49,134,0,0,0,0,0,0,0,0,0,-1,1175,890,0,0
-42,134,0,0,0,0,0,0,0,0,0,-1,1182,890,0,0
-35,134,0,0,0,0,0,0,0,0,0,-1,1189,890,0,0
-28,134,0,0,0,0,0,0,0,0,0,-1,1196,890,0,0
-21,134,0,0,0,0,0,0,0,0,0,-1,1203,890,0,0
-14,134,0,0,0,0,0,0,0,0,0,-1,1210,890,0,0
-7,134,0,0,0,0,0,0,0,0,0,-1,1217,890,0,0
0,134,0,0,0,0,0,0,0,0,0,-1,1224,890,0,0
7,134,0,0,0,0,0,0,0,0,0,-1,1231,890,0,0
14,134,0,0,0,0,0,0,0,0,0,-1,1238,890,0,0
21,134,0,0,0,0,0,0,0,0,0,-1,1245,890,0,0
28,134,0,0,0,0,0,0,0,0,0,-1,1252,890,0,0
35,134,0,0,0,0,0,0,0,0,0,-1,1259,890,0,0
42,134,0,0,0,0,0,0,0,0,0,-1,1266,890,0,0
49,134,0,0,0,0,0,0,0,0,0,-1,1273,890,0,0
56,134,0,0,0,0,0,0,0,0,0,-1,1280,890,0,0
63,134,0,0,0,0,0,0,0,0,0,-1,1287,890,0,0
70,134,0,0,0,0,0,0,0,0,0,-1,1294,890,0,0
77,134,0,0,0,0,0,0,0,0,0,-1,1301,890,0,0
84,134,0,0,0,0,0,0,0,0,0,-1,1308,890,0,0
91,134,0,0,0,0,0,0,0,0,0,-1,1315,890,0,0
98,134,0,0,0,0,0,0,0,0,0,-1,1322,890,0,0
105,134,0,0,0,0,0,0,0,0,0,-1,1329,890,0,0
112,134,0,0,0,0,0,0,0,0,0,-1,1336,890,0,0
119,134,0,0,0,0,0,0,0,0,0,-1,1343,890,0,0
126,134,0,0,0,0,0,0,0,0,0,-1,1350,890,0,0
133,134,0,0,0,0,0,0,0,0,0,-1,1357,890,0,0
140,134,0,0,0,0,0,0,0,0,0,-1,1364,890,0,0
147,134,0,0,0,0,0,0,0,0,0,-1,1371,890,0,0
154,134,0,0,0,0,0,0,0,0,0,-1,1378,890,0,0
161,134,0,0,0,0,0,0,0,0,0,-1,1385,890,0,0
168,134,0,0,0,0,0,0,0,0,0,-1,1392,890,0,0
175,134,0,0,0,0,0,0,0,0,0,-1,1399,890,0,0
182,134,0,0,0,0,0,0,0,0,0,-1,1406,890,0,0
189,134,0,0,0,0,0,0,0,0,0,-1,1413,890,0,0
196,134,0,0,0,0,0,0,0,0,0,-1,1420,890,0,0
203,134,0,0,0,0,0,0,0,0,0,-1,1427,890,0,0
210,134,0,0,0,0,0,0,0,0,0,-1,1434,890,0,0
217,134,0,0,0,0,0,0,0,0,0,-1,1441,890,0,0
224,134,0,0,0,0,0,0,0,0,0,-1,1448,890,0,0
231,134,0,0,0,0,0,0,0,0,0,-1,1455,890,0,0
238,134,0,0,0,0,0,0,0,0,0,-1,1462,890,0,0
245,134,0,0,0,0,0,0,0,0,0,-1,1469,890,0,0
252,134,0,0,0,0,0,0,0,0,0,-1,1476,890,0,0
259,134,0,0,0,0,0,0,0,0,0,-1,1483,890,0,0
266,134,0,0,0,0,0,0,0,0,0,-1,1490,890,0,0
273,134,0,0,0,0,0,0,0,0,0,-1,1497,890,0,0
280,134,0,0,0,0,0,0,0,0,0,-1,1504,890,0,0
287,134,0,0,0,0,0,0,0,0,0,-1,1511,890,0,0
294,134,0,0,0,0,0,0,0,0,0,-1,1518,890,0,0
301,134,0,0,0,0,0,0,0,0,0,-1,1525,890,0,0
308,134,0,0,0,0,0,0,0,0,0,-1,1532,890,0,0
315,134,0,0,0,0,0,0,0,0,0,-1,1539,890,0,0
322,134,0,0,0,0,0,0,0,0,0,-1,1546,890,0,0
329,134,0,0,0,0,0,0,0,0,0,-1,1553,890,0,0
336,134,0,0,0,0,0,0,0,0,0,-1,1560,890,0,0
343,134,0,0,0,0,0,0,0,0,0,-1,1567,890,0,0
350,134,0,0,0,0,0,0,0,0,0,-1,1574,890,0,0
357,134,0,0,0,0,0,0,0,0,0,-1,1581,890,0,0
364,134,0,0,0,0,0,0,0,0,0,-1,1588,890,0,0
371,134,0,0,0,0,0,0,0,0,0,-1,1595,890,0,0
378,134,0,0,0,0,0,0,0,0,0,-1,1602,890,0,0
385,134,0,0,0,0,0,0,0,0,0,-1,1609,890,0,0
392,134,0,0,0,0,0,0,0,0,0,-1,1616,890,0,0
399,134,0,0,0,0,0,0,0,0,0,-1,1623,890,0,0
406,134,0,0,0,0,0,0,0,0,0,-1,1630,890,0,0
413,134,0,0,0,0,0,0,0,0,0,-1,1637,890,0,0
420,134,0,0,0,0,0,0,0,0,0,-1,1644,890,0,0
427,134,0,0,0,0,0,0,0,0,0,-1,1651,890,0,0
434,134,0,0,0,0,0,0,0,0,0,-1,1658,890,0,0
441,134,0,0,0,0,0,0,0,0,0,-1,1665,890,0,0
448,134,0,0,0,0,0,0,0,0,0,-1,1672,890,0,0
455,134,0,0,0,0,0,0,0,0,0,-1,1679,890,0,0
462,134,0,0,0,0,0,0,0,0,0,-1,1686,890,0,0
469,134,0,0,0,0,0,0,0,0,0,-1,1693,890,0,0
476,134,0,0,0,0,0,0,0,0,0,-1,1700,890,0,0
483,134,0,0,0,0,0,0,0,0,0,-1,1707,890,0,0
490,134,0,0,0,0,0,0,0,0,0,-1,1714,890,0,0
497,134,0,0,0,0,0,0,0,0,0,-1,1721,890,0,0
504,134,0,0,0,0,0,0,0,0,0,-1,1728,890,0,0
511,134,0,0,0,0,0,0,0,0,0,-1,1735,890,0,0
518,134,0,0,0,0,0,0,0,0,0,-1,1742,890,0,0
525,134,0,0,0,0,0,0,0,0,0,-1,1749,890,0,0
532,134,0,0,0,0,0,0,0,0,0,-1,1756,890,0,0
539,134,0,0,0,0,0,0,0,0,0,-1,1763,890,0,0
546,134,0,0,0,0,0,0,0,0,0,-1,1770,890,0,0
553,134,0,0,0,0,0,0,0,0,0,-1,1777,890,0,0
560,134,0,0,0,0,0,0,0,0,0,-1,1784,890,0,0
567,134,0,0,0,0,0,0,0,0,0,-1,1791,890,0,0
574,134,0,0,0,0,0,0,0,0,0,-1,1798,890,0,0
581,134,0,0,0,0,0,0,0,0,0,-1,1805,890,0,0
588,134,0,0,0,0,0,0,0,0,0,-1,1812,890,0,0
595,134,0,0,0,0,0,0,0,0,0,-1,1819,890,0,0
602,134,0,0,0,0,0,0,0,0,0,-1,1826,890,0,0
609,134,0,0,0,0,0,0,0,0,0,-1,1833,890,0,0
616,134,0,0,0,0,0,0,0,0,0,-1,1840,890,0,0
623,134,15.8385,2.08881,0,0,0,0,0,0,0,-1,1847,890,15.8385,-2.08882
630,134,15.4624,2.86078,0,0,0,0,0,0,0,-1,1854,890,15.4624,-2.86079
637,134,15.6414,2.63812,0.00447022,0.00404541,0.000359862,0.00467568,0.00383994,0.518793,0.00287926,0.0421036,1861,890,15.6414,-2.63814
644,134,15.9379,2.36932,0.00249752,0.00255054,-0.00062945,0.00315404,0.00189402,-0.806445,0.00183321,0.0378745,1868,890,15.9379,-2.36931
651,134,15.8279,2.44135,-0.000650053,0.00156729,-0.00176726,0.00254486,-0.00162761,-1.06554,0.0024283,0.0385593,1875,890,15.8279,-2.44134
658,134,15.7064,2.53766,-0.003785,0.000894562,-0.00275267,0.0021675,-0.00505794,-1.13765,0.00428143,0.037483,1882,890,15.7064,-2.53766
665,134,15.6803,2.43378,-0.00632313,0.000440437,-0.00345723,0.00189486,-0.00777755,-1.17258,0.00591864,0.030881,1889,890,15.6802,-2.43377
672,134,15.7485,2.33289,-0.00839043,0.000129357,-0.00391472,0.00165494,-0.00991602,-1.1992,0.00722577,0.0227169,1896,890,15.7485,-2.33286
679,134,15.785,2.26056,-0.00983229,-6.7436e-05,-0.0041855,0.00148104,-0.0113808,-1.21645,0.00812597,0.0187802,1903,890,15.785,-2.26054
686,134,15.5226,2.32245,0,0,0,0,0,0,0,-1,1910,890,15.5226,-2.32248
693,134,14.5543,2.37817,-0.0112035,-0.000191903,-0.00418495,0.00121804,-0.0126135,-1.24583,0.00884302,0.0317185,1917,890,14.5544,-2.37814
700,134,13.8513,2.43146,-0.0111202,-9.92297e-05,-0.00394404,0.00116678,-0.0123862,-1.26019,0.00867261,0.0193314,1924,890,13.8513,-2.43146
707,134,13.7483,2.4646,-0.0103899,-4.15806e-05,-0.00363647,0.00110849,-0.01154,-1.26449,0.00808817,0.0187264,1931,890,13.7483,-2.46462
714,134,13.7881,2.63226,-0.00901407,0.00012717,-0.00326016,0.00117075,-0.0100576,-1.261,0.00712747,0.0173483,1938,890,13.7881,-2.63229
721,134,13.8844,2.79474,-0.00714581,0.000447819,-0.00281781,0.0013792,-0.00807719,-1.25157,0.00589853,0.0143979,1945,890,13.8844,-2.79474
728,134,13.8888,2.92578,-0.00520647,0.00075135,-0.00183311,0.00127018,-0.0057253,-1.29498,0.0043032,0.0145799,1952,890,13.8888,-2.92578
735,134,13.8802,3.03772,-0.00344029,0.00138803,-0.00045247,0.00143007,-0.00348233,-1.47816,0.00291751,0.0191048,1959,890,13.8803,-3.03773
742,134,13.8534,3.17346,-0.00179782,0.00165263,0.00106938,0.00195718,-0.00210237,1.29335,0.00234428,0.0130365,1966,890,13.8534,-3.17344
749,134,13.8744,3.26782,-0.000923522,0.00493458,0.00227343,0.00571333,-0.00170228,1.24078,0.00448531,0.0117304,1973,890,13.8744,-3.26784
756,134,13.8713,3.35529,-0.00166459,0.00810693,0.00424128,0.00969104,-0.00324869,1.21334,0.00777327,0.016373,1980,890,13.8714,-3.3553
763,134,13.8573,3.4397,-0.00299729,0.0129713,0.00714493,0.0157015,-0.00572742,1.20581,0.0128109,0.0362217,1987,890,13.8573,-3.43971
770,134,13.838,3.5238,0,0,0,0,0,0,0,-1,1994,890,13.8381,-3.52378
777,134,13.5367,4.07233,0,0,0,0,0,0,0,-1,2001,890,13.5368,-4.07235
784,134,16.7799,5.68854,0,0,0,0,0,0,0,-1,2008,890,16.7799,-5.68852
791,134,15.2771,2.47546,0,0,0,0,0,0,0,-1,2015,890,15.277,-2.47545
798,134,0,0,0,0,0,0,0,0,0,-1,2022,890,0,0
805,134,0,0,0,0,0,0,0,0,0,-1,2029,890,0,0
812,134,0,0,0,0,0,0,0,0,0,-1,2036,890,0,0
-700,127,0,0,0,0,0,0,0,0,0,-1,524,897,0,0
-693,127,0,0,0,0,0,0,0,0,0,-1,531,897,0,0
-686,127,0,0,0,0,0,0,0,0,0,-1,538,897,0,0
-679,127,-7.15411,-0.699646,0,0,0,0,0,0,0,-1,545,897,-7.15411,0.699665
-672,127,-7.74506,-0.513489,0,0,0,0,0,0,0,-1,552,897,-7.74504,0.513459
-665,127,-8.07843,-0.296326,0,0,0,0,0,0,0,-1,559,897,-8.0784,0.296331
-658,127,-8.19391,-0.0435791,0.0286731,-0.0153409,0.000364219,0.0286761,-0.0153439,0.00827433,0.0258006,0.0493186,566,897,-8.19394,0.0435837
-651,127,-8.31567,0.179321,0.0201452,-0.0123391,0.00161613,0.0202254,-0.0124193,0.0495881,0.0190262,0.0458005,573,897,-8.31567,-0.179332
-644,127,-8.40668,0.488037,0.0134113,-0.00962733,0.00233779,0.0136462,-0.00986215,0.100113,0.013631,0.0448628,580,897,-8.40665,-0.488044
-637,127,-8.5368,0.820068,0.00816247,-0.00723973,0.00265099,0.00860598,-0.00768324,0.165765,0.00940961,0.043086,587,897,-8.5368,-0.820086
-630,127,-8.50488,1.17786,0.00416468,-0.00517873,0.00268922,0.0048834,-0.00589745,0.261157,0.0062335,0.0295361,594,897,-8.5049,-1.17783
-623,127,-8.62451,1.21094,0.00029319,-0.00320953,0.00252247,0.00161268,-0.00452901,0.481952,0.00367674,0.0132958,601,897,-8.62452,-1.21091
-616,127,-8.6629,1.14185,-0.00226365,-0.00194919,0.00261501,0.000513316,-0.00472616,0.815425,0.00333507,0.00993633,608,897,-8.66289,-1.14186
-609,127,-8.66309,1.0401,-0.00408365,-0.00105215,0.00270496,0.000532789,-0.00566859,1.04078,0.0039686,0.0128285,615,897,-8.66311,-1.04007
-602,127,-8.6601,0.943115,-0.00479146,-0.000261963,0.00188628,0.000420682,-0.00547411,1.22356,0.00379741,0.0137755,622,897,-8.66007,-0.943134
-595,127,-8.64319,0.874695,-0.00519566,-3.36866e-05,0.00158284,0.000413011,-0.00564236,1.29574,0.00390653,0.0127617,629,897,-8.64321,-0.874719
-588,127,-8.70593,0.822083,-0.00565405,5.4632e-05,0.00158457,0.000464969,-0.00606439,1.3174,0.00420649,0.0180675,636,897,-8.7059,-0.822092
-581,127,-8.76837,0.655945,-0.00614751,0.000190898,0.00150428,0.000529785,-0.00648639,1.34921,0.00451124,0.0244553,643,897,-8.76838,-0.655933
-574,127,-8.73688,0.508301,-0.0062831,0.000104148,0.00146178,0.000422793,-0.00660174,1.35617,0.00454865,0.0233869,650,897,-8.73685,-0.508315
-567,127,-8.66541,0.373474,-0.00632434,0.000103449,0.00152855,0.000448429,-0.00666932,1.34882,0.00460298,0.034733,657,897,-8.66539,-0.373496
-560,127,-9.09796,0.601135,-0.00638679,0.000146738,0.00168215,0.000554398,-0.00679445,1.33304,0.00472529,0.0378401,664,897,-9.09797,-0.601161
-553,127,-9.68091,0.779907,0,0,0,0,0,0,0,-1,671,897,-9.68094,-0.779882
-546,127,-9.78564,0.597412,-0.00563996,0.00072355,0.00183389,0.00121422,-0.00613064,1.30936,0.00454621,0.0230795,678,897,-9.78564,-0.597436
-539,127,-9.80707,0.595825,-0.00468593,0.00107699,0.00189704,0.00164539,-0.00525433,1.27968,0.00416124,0.0195896,685,897,-9.80705,-0.595806
-532,127,-9.81836,0.600708,-0.00333012,0.00158009,0.00203435,0.00231342,-0.00406345,1.22482,0.00372762,0.0160506,692,897,-9.81834,-0.600679
-525,127,-9.77863,0.613159,-0.00156123,0.00230402,0.00229191,0.00336938,-0.00262659,1.13568,0.00347061,0.0317779,699,897,-9.77861,-0.613188
-518,127,-9.63037,0.619263,0.000587396,0.00338989,0.00280539,0.00512452,-0.00114723,1.01702,0.00385606,0.0406189,706,897,-9.63038,-0.619269
-511,127,-9.60883,0.852905,0.00205827,0.00507192,0.00421723,0.00804344,-0.000913252,0.95698,0.00569119,0.0411532,713,897,-9.60884,-0.852894
-504,127,0,0,0,0,0,0,0,0,0,-1,720,897,0,0
-497,127,0,0,0,0,0,0,0,0,0,-1,727,897,0,0
-490,127,0,0,0,0,0,0,0,0,0,-1,734,897,0,0
-483,127,0,0,0,0,0,0,0,0,0,-1,741,897,0,0
-476,127,0,0,0,0,0,0,0,0,0,-1,748,897,0,0
-469,127,0,0,0,0,0,0,0,0,0,-1,755,897,0,0
-462,127,0,0,0,0,0,0,0,0,0,-1,762,897,0,0
-455,127,0,0,0,0,0,0,0,0,0,-1,769,897,0,0
-448,127,0,0,0,0,0,0,0,0,0,-1,776,897,0,0
-441,127,0,0,0,0,0,0,0,0,0,-1,783,897,0,0
-434,127,0,0,0,0,0,0,0,0,0,-1,790,897,0,0
-427,127,0,0,0,0,0,0,0,0,0,-1,797,897,0,0
-420,127,0,0,0,0,0,0,0,0,0,-1,804,897,0,0
-413,127,0,0,0,0,0,0,0,0,0,-1,811,897,0,0
-406,127,0,0,0,0,0,0,0,0,0,-1,818,897,0,0
-399,127,0,0,0,0,0,0,0,0,0,-1,825,897,0,0
-392,127,0,0,0,0,0,0,0,0,0,-1,832,897,0,0
-385,127,0,0,0,0,0,0,0,0,0,-1,839,897,0,0
-378,127,0,0,0,0,0,0,0,0,0,-1,846,897,0,0
-371,127,0,0,0,0,0,0,0,0,0,-1,853,897,0,0
-364,127,0,0,0,0,0,0,0,0,0,-1,860,897,0,0
-357,127,0,0,0,0,0,0,0,0,0,-1,867,897,0,0
-350,127,0,0,0,0,0,0,0,0,0,-1,874,897,0,0
-343,127,0,0,0,0,0,0,0,0,0,-1,881,897,0,0
-336,127,0,0,0,0,0,0,0,0,0,-1,888,897,0,0
-329,127,0,0,0,0,0,0,0,0,0,-1,895,897,0,0
-322,127,0,0,0,0,0,0,0,0,0,-1,902,897,0,0
-315,127,0,0,0,0,0,0,0,0,0,-1,909,897,0,0
-308,127,0,0,0,0,0,0,0,0,0,-1,916,897,0,0
-301,127,0,0,0,0,0,0,0,0,0,-1,923,897,0,0
-294,127,0,0,0,0,0,0,0,0,0,-1,930,897,0,0
-287,127,0,0,0,0,0,0,0,0,0,-1,937,897,0,0
-280,127,0,0,0,0,0,0,0,0,0,-1,944,897,0,0
-273,127,0,0,0,0,0,0,0,0,0,-1,951,897,0,0
-266,127,0,0,0,0,0,0,0,0,0,-1,958,897,0,0
-259,127,0,0,0,0,0,0,0,0,0,-1,965,897,0,0
-252,127,0,0,0,0,0,0,0,0,0,-1,972,897,0,0
-245,127,0,0,0,0,0,0,0,0,0,-1,979,897,0,0
-238,127,0,0,0,0,0,0,0,0,0,-1,986,897,0,0
-231,127,0,0,0,0,0,0,0,0,0,-1,993,897,0,0
-224,127,0,0,0,0,0,0,0,0,0,-1,1000,897,0,0
-217,127,0,0,0,0,0,0,0,0,0,-1,1007,897,0,0
-210,127,0,0,0,0,0,0,0,0,0,-1,1014,897,0,0
-203,127,0,0,0,0,0,0,0,0,0,-1,1021,897,0,0
-196,127,0,0,0,0,0,0,0,0,0,-1,1028,897,0,0
-189,127,0,0,0,0,0,0,0,0,0,-1,1035,897,0,0
-182,127,0,0,0,0,0,0,0,0,0,-1,1042,897,0,0
-175,127,0,0,0,0,0,0,0,0,0,-1,1049,897,0,0
-168,127,0,0,0,0,0,0,0,0,0,-1,1056,897,0,0
-161,127,0,0,0,0,0,0,0,0,0,-1,1063,897,0,0
-154,127,0,0,0,0,0,0,0,0,0,-1,1070,897,0,0
-147,127,0,0,0,0,0,0,0,0,0,-1,1077,897,0,0
-140,127,0,0,0,0,0,0,0,0,0,-1,1084,897,0,0
-133,127,0,0,0,0,0,0,0,0,0,-1,1091,897,0,0
-126,127,0,0,0,0,0,0,0,0,0,-1,1098,897,0,0
-119,127,0,0,0,0,0,0,0,0,0,-1,1105,897,0,0
-112,127,0,0,0,0,0,0,0,0,0,-1,1112,897,0,0
-105,127,0,0,0,0,0,0,0,0,0,-1,1119,897,0,0
-98,127,0,0,0,0,0,0,0,0,0,-1,1126,897,0,0
-91,127,0,0,0,0,0,0,0,0,0,-1,1133,897,0,0
-84,127,0,0,0,0,0,0,0,0,0,-1,1140,897,0,0
-77,127,0,0,0,0,0,0,0,0,0,-1,1147,897,0,0
-70,127,0,0,0,0,0,0,0,0,0,-1,1154,897,0,0
-63,127,0,0,0,0,0,0,0,0,0,-1,1161,897,0,0
-56,127,0,0,0,0,0,0,0,0,0,-1,1168,897,0,0
-49,127,0,0,0,0,0,0,0,0,0,-1,1175,897,0,0
-42,127,0,0,0,0,0,0,0,0,0,-1,1182,897,0,0
-35,127,0,0,0,0,0,0,0,0,0,-1,1189,897,0,0
-28,127,0,0,0,0,0,0,0,0,0,-1,1196,897,0,0
-21,127,0,0,0,0,0,0,0,0,0,-1,1203,897,0,0
-14,127,0,0,0,0,0,0,0,0,0,-1,1210,897,0,0
-7,127,0,0,0,0,0,0,0,0,0,-1,1217,897,0,0
0,127,0,0,0,0,0,0,0,0,0,-1,1224,897,0,0
7,127,0,0,0,0,0,0,0,0,0,-1,1231,897,0,0
14,127,0,0,0,0,0,0,0,0,0,-1,1238,897,0,0
21,127,0,0,0,0,0,0,0,0,0,-1,1245,897,0,0
28,127,0,0,0,0,0,0,0,0,0,-1,1252,897,0,0
35,127,0,0,0,0,0,0,0,0,0,-1,1259,897,0,0
42,127,0,0,0,0,0,0,0,0,0,-1,1266,897,0,0
49,127,0,0,0,0,0,0,0,0,0,-1,1273,897,0,0
56,127,0,0,0,0,0,0,0,0,0,-1,1280,897,0,0
63,127,0,0,0,0,0,0,0,0,0,-1,1287,897,0,0
70,127,0,0,0,0,0,0,0,0,0,-1,1294,897,0,0
77,127,0,0,0,0,0,0,0,0,0,-1,1301,897,0,0
84,127,0,0,0,0,0,0,0,0,0,-1,1308,897,0,0
91,127,0,0,0,0,0,0,0,0,0,-1,1315,897,0,0
98,127,0,0,0,0,0,0,0,0,0,-1,1322,897,0,0
105,127,0,0,0,0,0,0,0,0,0,-1,1329,897,0,0
112,127,0,0,0,0,0,0,0,0,0,-1,1336,897,0,0
119,127,0,0,0,0,0,0,0,0,0,-1,1343,897,0,0
126,127,0,0,0,0,0,0,0,0,0,-1,1350,897,0,0
133,127,0,0,0,0,0,0,0,0,0,-1,1357,897,0,0
140,127,0,0,0,0,0,0,0,0,0,-1,1364,897,0,0
147,127,0,0,0,0,0,0,0,0,0,-1,1371,897,0,0
154,127,0,0,0,0,0,0,0,0,0,-1,1378,897,0,0
161,127,0,0,0,0,0,0,0,0,0,-1,1385,897,0,0
168,127,0,0,0,0,0,0,0,0,0,-1,1392,897,0,0
175,127,0,0,0,0,0,0,0,0,0,-1,1399,897,0,0
182,127,0,0,0,0,0,0,0,0,0,-1,1406,897,0,0
189,127,0,0,0,0,0,0,0,0,0,-1,1413,897,0,0
196,127,0,0,0,0,0,0,0,0,0,-1,1420,897,0,0
203,127,0,0,0,0,0,0,0,0,0,-1,1427,897,0,0
210,127,0,0,0,0,0,0,0,0,0,-1,1434,897,0,0
217,127,0,0,0,0,0,0,0,0,0,-1,1441,897,0,0
224,127,0,0,0,0,0,0,0,0,0,-1,1448,897,0,0
231,127,0,0,0,0,0,0,0,0,0,-1,1455,897,0,0
238,127,0,0,0,0,0,0,0,0,0,-1,1462,897,0,0
245,127,0,0,0,0,0,0,0,0,0,-1,1469,897,0,0
252,127,0,0,0,0,0,0,0,0,0,-1,1476,897,0,0
259,127,0,0,0,0,0,0,0,0,0,-1,1483,897,0,0
266,127,0,0,0,0,0,0,0,0,0,-1,1490,897,0,0
273,127,0,0,0,0,0,0,0,0,0,-1,1497,897,0,0
280,127,0,0,0,0,0,0,0,0,0,-1,1504,897,0,0
287,127,0,0,0,0,0,0,0,0,0,-1,1511,897,0,0
294,127,0,0,0,0,0,0,0,0,0,-1,1518,897,0,0
301,127,0,0,0,0,0,0,0,0,0,-1,1525,897,0,0
308,127,0,0,0,0,0,0,0,0,0,-1,1532,897,0,0
315,127,0,0,0,0,0,0,0,0,0,-1,1539,897,0,0
322,127,0,0,0,0,0,0,0,0,0,-1,1546,897,0,0
329,127,0,0,0,0,0,0,0,0,0,-1,1553,897,0,0
336,127,0,0,0,0,0,0,0,0,0,-1,1560,897,0,0
343,127,0,0,0,0,0,0,0,0,0,-1,1567,897,0,0
350,127,0,0,0,0,0,0,0,0,0,-1,1574,897,0,0
357,127,0,0,0,0,0,0,0,0,0,-1,1581,897,0,0
364,127,0,0,0,0,0,0,0,0,0,-1,1588,897,0,0
371,127,0,0,0,0,0,0,0,0,0,-1,1595,897,0,0
378,127,0,0,0,0,0,0,0,0,0,-1,1602,897,0,0
385,127,0,0,0,0,0,0,0,0,0,-1,1609,897,0,0
392,127,0,0,0,0,0,0,0,0,0,-1,1616,897,0,0
399,127,0,0,0,0,0,0,0,0,0,-1,1623,897,0,0
406,127,0,0,0,0,0,0,0,0,0,-1,1630,897,0,0
413,127,0,0,0,0,0,0,0,0,0,-1,1637,897,0,0
420,127,0,0,0,0,0,0,0,0,0,-1,1644,897,0,0
427,127,0,0,0,0,0,0,0,0,0,-1,1651,897,0,0
434,127,0,0,0,0,0,0,0,0,0,-1,1658,897,0,0
441,127,0,0,0,0,0,0,0,0,0,-1,1665,897,0,0
448,127,0,0,0,0,0,0,0,0,0,-1,1672,897,0,0
455,127,0,0,0,0,0,0,0,0,0,-1,1679,897,0,0
462,127,0,0,0,0,0,0,0,0,0,-1,1686,897,0,0
469,127,0,0,0,0,0,0,0,0,0,-1,1693,897,0,0
476,127,0,0,0,0,0,0,0,0,0,-1,1700,897,0,0
483,127,0,0,0,0,0,0,0,0,0,-1,1707,897,0,0
490,127,0,0,0,0,0,0,0,0,0,-1,1714,897,0,0
497,127,0,0,0,0,0,0,0,0,0,-1,1721,897,0,0
504,127,0,0,0,0,0,0,0,0,0,-1,1728,897,0,0
511,127,0,0,0,0,0,0,0,0,0,-1,1735,897,0,0
518,127,0,0,0,0,0,0,0,0,0,-1,1742,897,0,0
525,127,0,0,0,0,0,0,0,0,0,-1,1749,897,0,0
532,127,0,0,0,0,0,0,0,0,0,-1,1756,897,0,0
539,127,0,0,0,0,0,0,0,0,0,-1,1763,897,0,0
546,127,0,0,0,0,0,0,0,0,0,-1,1770,897,0,0
553,127,0,0,0,0,0,0,0,0,0,-1,1777,897,0,0
560,127,0,0,0,0,0,0,0,0,0,-1,1784,897,0,0
567,127,0,0,0,0,0,0,0,0,0,-1,1791,897,0,0
574,127,0,0,0,0,0,0,0,0,0,-1,1798,897,0,0
581,127,0,0,0,0,0,0,0,0,0,-1,1805,897,0,0
588,127,0,0,0,0,0,0,0,0,0,-1,1812,897,0,0
595,127,0,0,0,0,0,0,0,0,0,-1,1819,897,0,0
602,127,0,0,0,0,0,0,0,0,0,-1,1826,897,0,0
609,127,0,0,0,0,0,0,0,0,0,-1,1833,897,0,0
616,127,0,0,0,0,0,0,0,0,0,-1,1840,897,0,0
623,127,0,0,0,0,0,0,0,0,0,-1,1847,897,0,0
630,127,15.5509,2.61029,0.00498944,0.00712519,0.000631147,0.00729776,0.00481687,1.3039,0.00428471,0.0403635,1854,897,15.5509,-2.6103
637,127,15.6504,2.51721,0.00442094,0.00498016,0.000165849,0.00502565,0.00437545,1.30312,0.00315611,0.0390843,1861,897,15.6504,-2.51724
644,127,15.8044,2.36353,0.00300258,0.00328634,-0.000545785,0.00370839,0.00258054,-0.91256,0.00219511,0.039859,1868,897,15.8044,-2.36354
651,127,15.7012,2.43774,4.48019e-05,0.00217762,-0.00149688,0.00294911,-0.000726689,-1.09491,0.0022478,0.0420093,1875,897,15.7012,-2.43774
658,127,15.6086,2.55341,-0.00316243,0.00142727,-0.00237533,0.00243522,-0.00417038,-1.16948,0.00385736,0.0405555,1882,897,15.6087,-2.55338
665,127,15.6664,2.4032,-0.00585065,0.000917575,-0.00303303,0.00207785,-0.00701093,-1.20543,0.00549902,0.036228,1889,897,15.6664,-2.40323
672,127,15.7393,2.25073,-0.00802726,0.000562088,-0.00346009,0.00178253,-0.0092477,-1.2317,0.0068372,0.0317295,1896,897,15.7392,-2.25072
679,127,15.7976,2.24084,-0.0095643,0.000331573,-0.00371642,0.00157184,-0.0108046,-1.24869,0.0077801,0.0249215,1903,897,15.7976,-2.24084
686,127,15.7897,2.22772,0,0,0,0,0,0,0,-1,1910,897,15.7896,-2.22773
693,127,14.8538,2.36383,-0.0110711,0.000128699,-0.00374684,0.00126658,-0.012209,-1.27596,0.00859269,0.0327887,1917,897,14.8537,-2.36381
700,127,14.0165,2.4292,-0.0110379,0.000166446,-0.00353513,0.00118858,-0.0120601,-1.28934,0.00846411,0.0233693,1924,897,14.0165,-2.42922
707,127,13.8667,2.50812,-0.0103566,0.000160189,-0.00327107,0.00109458,-0.011291,-1.29255,0.00791746,0.0233987,1931,897,13.8667,-2.50812
714,127,13.8848,2.65417,-0.00905914,0.000262991,-0.002987,0.00113796,-0.00993411,-1.28584,0.00703282,0.0191842,1938,897,13.8847,-2.6542
721,127,14.0236,2.84534,-0.00730129,0.000533864,-0.00261025,0.00132381,-0.00809124,-1.27693,0.00588527,0.0130379,1945,897,14.0235,-2.84535
728,127,14.0166,2.93903,-0.00558999,0.000763833,-0.00166411,0.00117329,-0.00599945,-1.32954,0.00444267,0.0121424,1952,897,14.0165,-2.93901
735,127,14.0205,3.04584,-0.00404621,0.00138164,-0.000203112,0.00138923,-0.0040538,-1.53345,0.00326564,0.0178471,1959,897,14.0205,-3.04585
742,127,13.9984,3.14154,-0.00255553,0.00156575,0.00142631,0.00201122,-0.003001,1.26807,0.00291255,0.0162217,1966,897,13.9984,-3.14151
749,127,13.9945,3.24872,-0.00169352,0.00525485,0.00266604,0.00615991,-0.00259857,1.24353,0.00519419,0.012066,1973,897,13.9945,-3.24873
756,127,13.9886,3.34247,-0.00245903,0.00865512,0.00473097,0.0103962,-0.00420012,1.21816,0.0086766,0.0143901,1980,897,13.9887,-3.34249
763,127,13.9708,3.44598,-0.00412489,0.0138601,0.00757006,0.0166222,-0.00688701,1.22093,0.0139556,0.0219996,1987,897,13.9708,-3.44599
770,127,13.9564,3.61047,-0.00612889,0.0219068,0.011455,0.025992,-0.010214,1.22823,0.021555,0.0397911,1994,897,13.9564,-3.6105
777,127,13.9658,3.77972,0,0,0,0,0,0,0,-1,2001,897,13.9658,-3.77975
784,127,15.8932,5.31494,0,0,0,0,0,0,0,-1,2008,897,15.8931,-5.31491
791,127,15.7739,6.10938,0,0,0,0,0,0,0,-1,2015,897,15.7739,-6.10937
798,127,0,0,0,0,0,0,0,0,0,-1,2022,897,0,0
805,127,0,0,0,0,0,0,0,0,0,-1,2029,897,0,0
812,127,0,0,0,0,0,0,0,0,0,-1,2036,897,0,0
-700,120,0,0,0,0,0,0,0,0,0,-1,524,904,0,0
-693,120,0,0,0,0,0,0,0,0,0,-1,531,904,0,0
-686,120,0,0,0,0,0,0,0,0,0,-1,538,904,0,0
-679,120,-9.38904,1.50311,0,0,0,0,0,0,0,-1,545,904,-9.38904,-1.50312
-672,120,-7.72784,-0.596191,0,0,0,0,0,0,0,-1,552,904,-7.72786,0.596164
-665,120,-7.98651,-0.124268,0,0,0,0,0,0,0,-1,559,904,-7.98651,0.124251
-658,120,-8.11304,0.0964355,0.0397001,-0.0198702,-0.00130218,0.0397285,-0.0198987,-0.0218456,0.0350546,0.0475748,566,904,-8.11304,-0.0964055
-651,120,-8.28192,0.329102,0.0285842,-0.0158313,0.000379909,0.0285874,-0.0158346,0.00855268,0.025997,0.0471667,573,904,-8.28191,-0.329116
-644,120,-8.40643,0.572021,0,0,0,0,0,0,0,-1,580,904,-8.40645,-0.572045
-637,120,-8.6156,1.43567,0.0125808,-0.00915455,0.00206763,0.0127758,-0.00934948,0.0940038,0.012825,0.0395235,587,904,-8.61558,-1.43565
-630,120,-8.70941,1.24414,0.00702718,-0.00649662,0.00236533,0.00742894,-0.00689838,0.168249,0.00827378,0.0211578,594,904,-8.7094,-1.24413
-623,120,-8.75568,1.19556,0.00184179,-0.00402729,0.00239882,0.00269748,-0.00488298,0.342644,0.0044368,0.0106733,601,904,-8.75568,-1.19553
-616,120,-8.76825,1.12469,-0.0016825,-0.00244956,0.00253044,0.000493312,-0.00462537,0.710187,0.00326048,0.0101071,608,904,-8.76828,-1.12467
-609,120,-8.76685,1.04004,-0.00422333,-0.00130992,0.00274736,0.000343033,-0.00587628,1.02916,0.00403673,0.0127643,615,904,-8.76687,-1.04003
-602,120,-8.77106,0.956177,-0.00522453,-0.000387793,0.0019303,0.000288116,-0.00590044,1.23398,0.00403309,0.0126149,622,904,-8.77106,-0.956187
-595,120,-8.74048,0.875244,-0.00567022,-0.000129226,0.00158001,0.000289647,-0.00608909,1.31165,0.00415931,0.0152171,629,904,-8.74049,-0.875234
-588,120,-8.79565,0.779663,-0.00614904,-1.14352e-05,0.00151327,0.000341392,-0.00650187,1.34173,0.00445274,0.0197475,636,904,-8.79564,-0.779673
-581,120,-8.89136,0.693359,-0.00662121,0.000161639,0.00139979,0.000439162,-0.00689873,1.37507,0.00475231,0.0231483,643,904,-8.89134,-0.693348
-574,120,-8.81757,0.55011,-0.00672764,0.000135359,0.00132753,0.000383198,-0.00697548,1.38623,0.00478317,0.0202868,650,904,-8.81756,-0.550127
-567,120,-8.90247,0.43988,-0.00669586,0.00016219,0.00137451,0.000427415,-0.00696109,1.38018,0.00478956,0.0387136,657,904,-8.90248,-0.43986
-560,120,-9.47809,0.329224,0,0,0,0,0,0,0,-1,664,904,-9.47811,-0.329193
-553,120,-9.76563,0.709412,-0.00633444,0.000572482,0.00158104,0.000917188,-0.00667914,1.35613,0.00478787,0.0394172,671,904,-9.7656,-0.709392
-546,120,-9.72589,0.749207,-0.00564204,0.000843044,0.00160634,0.00121912,-0.00601812,1.34082,0.00447416,0.0315251,678,904,-9.72588,-0.749226
-539,120,-9.74854,0.671448,-0.00451796,0.00120835,0.00164711,0.00164832,-0.00495793,1.30977,0.00397046,0.0243638,685,904,-9.74852,-0.671444
-532,120,-9.78589,0.589661,-0.00299355,0.00170801,0.0017611,0.00229452,-0.00358005,1.24932,0.00341865,0.0257672,692,904,-9.78588,-0.589634
-525,120,-9.79688,0.579346,-0.00107432,0.00240528,0.00198737,0.0033068,-0.00197583,1.14493,0.00308202,0.0332972,699,904,-9.79689,-0.579369
-518,120,-9.70636,0.622803,0.00101693,0.00343106,0.00247878,0.00498105,-0.000533059,1.01198,0.0035119,0.0375861,706,904,-9.70635,-0.622786
-511,120,-9.66907,0.766052,0.00190612,0.00500933,0.00398225,0.00773158,-0.000816126,0.971165,0.00544685,0.0383248,713,904,-9.66904,-0.766052
-504,120,0,0,0,0,0,0,0,0,0,-1,720,904,0,0
-497,120,0,0,0,0,0,0,0,0,0,-1,727,904,0,0
-490,120,0,0,0,0,0,0,0,0,0,-1,734,904,0,0
-483,120,0,0,0,0,0,0,0,0,0,-1,741,904,0,0
-476,120,0,0,0,0,0,0,0,0,0,-1,748,904,0,0
-469,120,0,0,0,0,0,0,0,0,0,-1,755,904,0,0
-462,120,0,0,0,0,0,0,0,0,0,-1,762,904,0,0
-455,120,0,0,0,0,0,0,0,0,0,-1,769,904,0,0
-448,120,0,0,0,0,0,0,0,0,0,-1,776,904,0,0
-441,120,0,0,0,0,0,0,0,0,0,-1,783,904,0,0
-434,120,0,0,0,0,0,0,0,0,0,-1,790,904,0,0
-427,120,0,0,0,0,0,0,0,0,0,-1,797,904,0,0
-420,120,0,0,0,0,0,0,0,0,0,-1,804,904,0,0
-413,120,0,0,0,0,0,0,0,0,0,-1,811,904,0,0
-406,120,0,0,0,0,0,0,0,0,0,-1,818,904,0,0
-399,120,0,0,0,0,0,0,0,0,0,-1,825,904,0,0
-392,120,0,0,0,0,0,0,0,0,0,-1,832,904,0,0
-385,120,0,0,0,0,0,0,0,0,0,-1,839,904,0,0
-378,120,0,0,0,0,0,0,0,0,0,-1,846,904,0,0
-371,120,0,0,0,0,0,0,0,0,0,-1,853,904,0,0
-364,120,0,0,0,0,0,0,0,0,0,-1,860,904,0,0
-357,120,0,0,0,0,0,0,0,0,0,-1,867,904,0,0
-350,120,0,0,0,0,0,0,0,0,0,-1,874,904,0,0
-343,120,0,0,0,0,0,0,0,0,0,-1,881,904,0,0
-336,120,0,0,0,0,0,0,0,0,0,-1,888,904,0,0
-329,120,0,0,0,0,0,0,0,0,0,-1,895,904,0,0
-322,120,0,0,0,0,0,0,0,0,0,-1,902,904,0,0
-315,120,0,0,0,0,0,0,0,0,0,-1,909,904,0,0
-308,120,0,0,0,0,0,0,0,0,0,-1,916,904,0,0
-301,120,0,0,0,0,0,0,0,0,0,-1,923,904,0,0
-294,120,0,0,0,0,0,0,0,0,0,-1,930,904,0,0
-287,120,0,0,0,0,0,0,0,0,0,-1,937,904,0,0
-280,120,0,0,0,0,0,0,0,0,0,-1,944,904,0,0
-273,120,0,0,0,0,0,0,0,0,0,-1,951,904,0,0
-266,120,0,0,0,0,0,0,0,0,0,-1,958,904,0,0
-259,120,0,0,0,0,0,0,0,0,0,-1,965,904,0,0
-252,120,0,0,0,0,0,0,0,0,0,-1,972,904,0,0
-245,120,0,0,0,0,0,0,0,0,0,-1,979,904,0,0
-238,120,0,0,0,0,0,0,0,0,0,-1,986,904,0,0
-231,120,0,0,0,0,0,0,0,0,0,-1,993,904,0,0
-224,120,0,0,0,0,0,0,0,0,0,-1,1000,904,0,0
-217,120,0,0,0,0,0,0,0,0,0,-1,1007,904,0,0
-210,120,0,0,0,0,0,0,0,0,0,-1,1014,904,0,0
-203,120,0,0,0,0,0,0,0,0,0,-1,1021,904,0,0
-196,120,0,0,0,0,0,0,0,0,0,-1,1028,904,0,0
-189,120,0,0,0,0,0,0,0,0,0,-1,1035,904,0,0
-182,120,0,0,0,0,0,0,0,0,0,-1,1042,904,0,0
-175,120,0,0,0,0,0,0,0,0,0,-1,1049,904,0,0
-168,120,0,0,0,0,0,0,0,0,0,-1,1056,904,0,0
-161,120,0,0,0,0,0,0,0,0,0,-1,1063,904,0,0
-154,120,0,0,0,0,0,0,0,0,0,-1,1070,904,0,0
-147,120,0,0,0,0,0,0,0,0,0,-1,1077,904,0,0
-140,120,0,0,0,0,0,0,0,0,0,-1,1084,904,0,0
-133,120,0,0,0,0,0,0,0,0,0,-1,1091,904,0,0
-126,120,0,0,0,0,0,0,0,0,0,-1,1098,904,0,0
-119,120,0,0,0,0,0,0,0,0,0,-1,1105,904,0,0
-112,120,0,0,0,0,0,0,0,0,0,-1,1112,904,0,0
-105,120,0,0,0,0,0,0,0,0,0,-1,1119,904,0,0
-98,120,0,0,0,0,0,0,0,0,0,-1,1126,904,0,0
-91,120,0,0,0,0,0,0,0,0,0,-1,1133,904,0,0
-84,120,0,0,0,0,0,0,0,0,0,-1,1140,904,0,0
-77,120,0,0,0,0,0,0,0,0,0,-1,1147,904,0,0
-70,120,0,0,0,0,0,0,0,0,0,-1,1154,904,0,0
-63,120,0,0,0,0,0,0,0,0,0,-1,1161,904,0,0
-56,120,0,0,0,0,0,0,0,0,0,-1,1168,904,0,0
-49,120,0,0,0,0,0,0,0,0,0,-1,1175,904,0,0
-42,120,0,0,0,0,0,0,0,0,0,-1,1182,904,0,0
-35,120,0,0,0,0,0,0,0,0,0,-1,1189,904,0,0
-28,120,0,0,0,0,0,0,0,0,0,-1,1196,904,0,0
-21,120,0,0,0,0,0,0,0,0,0,-1,1203,904,0,0
-14,120,0,0,0,0,0,0,0,0,0,-1,1210,904,0,0
-7,120,0,0,0,0,0,0,0,0,0,-1,1217,904,0,0
0,120,0,0,0,0,0,0,0,0,0,-1,1224,904,0,0
7,120,0,0,0,0,0,0,0,0,0,-1,1231,904,0,0
14,120,0,0,0,0,0,0,0,0,0,-1,1238,904,0,0
21,120,0,0,0,0,0,0,0,0,0,-1,1245,904,0,0
28,120,0,0,0,0,0,0,0,0,0,-1,1252,904,0,0
35,120,0,0,0,0,0,0,0,0,0,-1,1259,904,0,0
42,120,0,0,0,0,0,0,0,0,0,-1,1266,904,0,0
49,120,0,0,0,0,0,0,0,0,0,-1,1273,904,0,0
56,120,0,0,0,0,0,0,0,0,0,-1,1280,904,0,0
63,120,0,0,0,0,0,0,0,0,0,-1,1287,904,0,0
70,120,0,0,0,0,0,0,0,0,0,-1,1294,904,0,0
77,120,0,0,0,0,0,0,0,0,0,-1,1301,904,0,0
84,120,0,0,0,0,0,0,0,0,0,-1,1308,904,0,0
91,120,0,0,0,0,0,0,0,0,0,-1,1315,904,0,0
98,120,0,0,0,0,0,0,0,0,0,-1,1322,904,0,0
105,120,0,0,0,0,0,0,0,0,0,-1,1329,904,0,0
112,120,0,0,0,0,0,0,0,0,0,-1,1336,904,0,0
119,120,0,0,0,0,0,0,0,0,0,-1,1343,904,0,0
126,120,0,0,0,0,0,0,0,0,0,-1,1350,904,0,0
133,120,0,0,0,0,0,0,0,0,0,-1,1357,904,0,0
140,120,0,0,0,0,0,0,0,0,0,-1,1364,904,0,0
147,120,0,0,0,0,0,0,0,0,0,-1,1371,904,0,0
154,120,0,0,0,0,0,0,0,0,0,-1,1378,904,0,0
161,120,0,0,0,0,0,0,0,0,0,-1,1385,904,0,0
168,120,0,0,0,0,0,0,0,0,0,-1,1392,904,0,0
175,120,0,0,0,0,0,0,0,0,0,-1,1399,904,0,0
182,120,0,0,0,0,0,0,0,0,0,-1,1406,904,0,0
189,120,0,0,0,0,0,0,0,0,0,-1,1413,904,0,0
196,120,0,0,0,0,0,0,0,0,0,-1,1420,904,0,0
203,120,0,0,0,0,0,0,0,0,0,-1,1427,904,0,0
210,120,0,0,0,0,0,0,0,0,0,-1,1434,904,0,0
217,120,0,0,0,0,0,0,0,0,0,-1,1441,904,0,0
224,120,0,0,0,0,0,0,0,0,0,-1,1448,904,0,0
231,120,0,0,0,0,0,0,0,0,0,-1,1455,904,0,0
238,120,0,0,0,0,0,0,0,0,0,-1,1462,904,0,0
245,120,0,0,0,0,0,0,0,0,0,-1,1469,904,0,0
252,120,0,0,0,0,0,0,0,0,0,-1,1476,904,0,0
259,120,0,0,0,0,0,0,0,0,0,-1,1483,904,0,0
266,120,0,0,0,0,0,0,0,0,0,-1,1490,904,0,0
273,120,0,0,0,0,0,0,0,0,0,-1,1497,904,0,0
280,120,0,0,0,0,0,0,0,0,0,-1,1504,904,0,0
287,120,0,0,0,0,0,0,0,0,0,-1,1511,904,0,0
294,120,0,0,0,0,0,0,0,0,0,-1,1518,904,0,0
301,120,0,0,0,0,0,0,0,0,0,-1,1525,904,0,0
308,120,0,0,0,0,0,0,0,0,0,-1,1532,904,0,0
315,120,0,0,0,0,0,0,0,0,0,-1,1539,904,0,0
322,120,0,0,0,0,0,0,0,0,0,-1,1546,904,0,0
329,120,0,0,0,0,0,0,0,0,0,-1,1553,904,0,0
336,120,0,0,0,0,0,0,0,0,0,-1,1560,904,0,0
343,120,0,0,0,0,0,0,0,0,0,-1,1567,904,0,0
350,120,0,0,0,0,0,0,0,0,0,-1,1574,904,0,0
357,120,0,0,0,0,0,0,0,0,0,-1,1581,904,0,0
364,120,0,0,0,0,0,0,0,0,0,-1,1588,904,0,0
371,120,0,0,0,0,0,0,0,0,0,-1,1595,904,0,0
378,120,0,0,0,0,0,0,0,0,0,-1,1602,904,0,0
385,120,0,0,0,0,0,0,0,0,0,-1,1609,904,0,0
392,120,0,0,0,0,0,0,0,0,0,-1,1616,904,0,0
399,120,0,0,0,0,0,0,0,0,0,-1,1623,904,0,0
406,120,0,0,0,0,0,0,0,0,0,-1,1630,904,0,0
413,120,0,0,0,0,0,0,0,0,0,-1,1637,904,0,0
420,120,0,0,0,0,0,0,0,0,0,-1,1644,904,0,0
427,120,0,0,0,0,0,0,0,0,0,-1,1651,904,0,0
434,120,0,0,0,0,0,0,0,0,0,-1,1658,904,0,0
441,120,0,0,0,0,0,0,0,0,0,-1,1665,904,0,0
448,120,0,0,0,0,0,0,0,0,0,-1,1672,904,0,0
455,120,0,0,0,0,0,0,0,0,0,-1,1679,904,0,0
462,120,0,0,0,0,0,0,0,0,0,-1,1686,904,0,0
469,120,0,0,0,0,0,0,0,0,0,-1,1693,904,0,0
476,120,0,0,0,0,0,0,0,0,0,-1,1700,904,0,0
483,120,0,0,0,0,0,0,0,0,0,-1,1707,904,0,0
490,120,0,0,0,0,0,0,0,0,0,-1,1714,904,0,0
497,120,0,0,0,0,0,0,0,0,0,-1,1721,904,0,0
504,120,0,0,0,0,0,0,0,0,0,-1,1728,904,0,0
511,120,0,0,0,0,0,0,0,0,0,-1,1735,904,0,0
518,120,0,0,0,0,0,0,0,0,0,-1,1742,904,0,0
525,120,0,0,0,0,0,0,0,0,0,-1,1749,904,0,0
532,120,0,0,0,0,0,0,0,0,0,-1,1756,904,0,0
539,120,0,0,0,0,0,0,0,0,0,-1,1763,904,0,0
546,120,0,0,0,0,0,0,0,0,0,-1,1770,904,0,0
553,120,0,0,0,0,0,0,0,0,0,-1,1777,904,0,0
560,120,0,0,0,0,0,0,0,0,0,-1,1784,904,0,0
567,120,0,0,0,0,0,0,0,0,0,-1,1791,904,0,0
574,120,0,0,0,0,0,0,0,0,0,-1,1798,904,0,0
581,120,0,0,0,0,0,0,0,0,0,-1,1805,904,0,0
588,120,0,0,0,0,0,0,0,0,0,-1,1812,904,0,0
595,120,0,0,0,0,0,0,0,0,0,-1,1819,904,0,0
602,120,0,0,0,0,0,0,0,0,0,-1,1826,904,0,0
609,120,0,0,0,0,0,0,0,0,0,-1,1833,904,0,0
616,120,0,0,0,0,0,0,0,0,0,-1,1840,904,0,0
623,120,0,0,0,0,0,0,0,0,0,-1,1847,904,0,0
630,120,15.6388,2.35107,0.00424504,0.00783822,0.000242866,0.00785456,0.0042287,1.50361,0.00453928,0.0398066,1854,904,15.6388,-2.3511
637,120,15.6331,2.20654,0.00396735,0.00553861,-1.35233e-05,0.00553872,0.00396724,-1.56219,0.00329599,0.0426647,1861,904,15.6331,-2.20652
644,120,15.5717,2.84851,0.00321643,0.00372377,-0.000446059,0.00398325,0.00295696,-1.04394,0.00238808,0.043855,1868,904,15.5716,-2.84853
651,120,15.6154,2.42053,0.000666165,0.00255125,-0.00119378,0.00312972,8.76889e-05,-1.11956,0.00205788,0.0450168,1875,904,15.6153,-2.4205
658,120,15.6655,2.52423,-0.00239987,0.00177646,-0.00194346,0.00254092,-0.00316433,-1.19604,0.00330048,0.0416445,1882,904,15.6656,-2.52424
665,120,15.7375,2.33569,-0.00510392,0.0012531,-0.00253137,0.00213793,-0.00598876,-1.23452,0.00486436,0.0361644,1889,904,15.7376,-2.33569
672,120,15.769,2.29132,-0.00728868,0.000882356,-0.0029216,0.00181951,-0.00822583,-1.2604,0.00618032,0.034307,1896,904,15.7691,-2.29134
679,120,15.7654,2.28876,-0.00885668,0.000638439,-0.0031574,0.0015925,-0.00981074,-1.27735,0.00713085,0.0307685,1903,904,15.7654,-2.28878
686,120,15.9613,2.32159,0,0,0,0,0,0,0,-1,1910,904,15.9614,-2.32159
693,120,15.2755,2.41187,-0.0104657,0.000386287,-0.00321496,0.00126722,-0.0113467,-1.30335,0.00802028,0.0387044,1917,904,15.2756,-2.41187
700,120,14.4769,2.43463,-0.0105031,0.000386005,-0.00303301,0.00117381,-0.0112909,-1.31667,0.00794748,0.0262941,1924,904,14.477,-2.43462
707,120,14.0684,2.59802,-0.00992555,0.000337031,-0.00281227,0.00105715,-0.0106457,-1.32012,0.00747446,0.0179354,1931,904,14.0684,-2.59803
714,120,14.0984,2.75153,-0.00874206,0.000394358,-0.00261184,0.0010883,-0.009436,-1.3111,0.00668304,0.0154535,1938,904,14.0984,-2.75152
721,120,14.1135,2.84631,-0.00715219,0.000615417,-0.00230835,0.00124962,-0.0077864,-1.30267,0.00565369,0.0126958,1945,904,14.1135,-2.84633
728,120,14.124,2.94745,-0.00576256,0.000776142,-0.00141203,0.00106804,-0.00605446,-1.36695,0.00443539,0.00910977,1952,904,14.1241,-2.94744
735,120,14.1161,3.05078,-0.00452167,0.00136671,7.08006e-05,0.00136756,-0.00452252,1.55877,0.00355954,0.0114848,1959,904,14.1161,-3.05078
742,120,14.1112,3.15015,-0.00332529,0.0014753,0.00169528,0.00201361,-0.0038636,1.26333,0.00344879,0.0126461,1966,904,14.1112,-3.15015
749,120,14.115,3.25232,-0.00258857,0.00551202,0.00282683,0.00640094,-0.00347749,1.26613,0.00578597,0.0103798,1973,904,14.115,-3.25235
756,120,14.1082,3.34296,-0.0035225,0.00915354,0.00474011,0.01073,-0.00509897,1.24972,0.00932963,0.0121709,1980,904,14.1081,-3.34296
763,120,14.0597,3.41382,-0.00560214,0.0146991,0.00729136,0.0170464,-0.00794948,1.25934,0.0147465,0.0213677,1987,904,14.0597,-3.4138
770,120,14.4408,3.17297,-0.00822814,0.0229853,0.0105378,0.0262098,-0.0114527,1.27385,0.0222939,0.0401571,1994,904,14.4408,-3.17294
777,120,14.876,2.90521,0,0,0,0,0,0,0,-1,2001,904,14.876,-2.90521
784,120,14.9205,4.79987,0,0,0,0,0,0,0,-1,2008,904,14.9205,-4.79988
791,120,14.7878,5.4657,0,0,0,0,0,0,0,-1,2015,904,14.7879,-5.46572
798,120,16.7379,-1.19226,0,0,0,0,0,0,0,-1,2022,904,16.7379,1.19227
805,120,0,0,0,0,0,0,0,0,0,-1,2029,904,0,0
812,120,0,0,0,0,0,0,0,0,0,-1,2036,904,0,0
-700,113,0,0,0,0,0,0,0,0,0,-1,524,911,0,0
-693,113,0,0,0,0,0,0,0,0,0,-1,531,911,0,0
-686,113,0,0,0,0,0,0,0,0,0,-1,538,911,0,0
-679,113,-10.3519,1.58405,0.110983,-0.0424691,-0.0157165,0.112576,-0.0440622,-0.101022,0.0932741,0.0415648,545,911,-10.3519,-1.58403
-672,113,-9.80719,1.21777,0.0883313,-0.0359987,-0.0106388,0.0892351,-0.0369025,-0.0847483,0.0748857,0.0451692,552,911,-9.80719,-1.21776
-665,113,-8.18311,-0.171875,0,0,0,0,0,0,0,-1,559,911,-8.18311,0.171865
-658,113,-8.30786,-0.0362549,0.0520276,-0.0240456,-0.00378154,0.0522151,-0.0242331,-0.0495464,0.0451122,0.0469297,566,911,-8.30788,0.036245
-651,113,-8.60883,0.391052,0.0381604,-0.0189225,-0.00160656,0.0382056,-0.0189677,-0.0281146,0.0336261,0.0481854,573,911,-8.6088,-0.391078
-644,113,-8.4187,0.47522,0,0,0,0,0,0,0,-1,580,911,-8.41868,-0.475207
-637,113,-8.84509,1.28662,0.0177614,-0.0106338,0.000926307,0.0177916,-0.010664,0.0325757,0.0165998,0.0352663,587,911,-8.84509,-1.28664
-630,113,-8.83655,1.23712,0.0105435,-0.00742213,0.00156903,0.0106795,-0.00755814,0.086463,0.0105808,0.0154263,594,911,-8.83652,-1.23713
-623,113,-8.84174,1.18634,0.00400242,-0.00452849,0.00188528,0.00440048,-0.00492655,0.208086,0.00538782,0.010414,601,911,-8.84175,-1.18633
-616,113,-8.84277,1.11304,-0.000595681,-0.00266982,0.0021243,0.000731183,-0.00399668,0.55832,0.00293866,0.00949419,608,911,-8.84274,-1.11304
-609,113,-8.85095,1.03485,-0.00393149,-0.00134524,0.00254523,0.000216516,-0.00549325,1.02043,0.00373643,0.0107825,615,911,-8.85096,-1.03483
-602,113,-8.8714,0.953064,-0.00531771,-0.000358319,0.00180065,0.000226499,-0.00590253,1.25676,0.00401265,0.0135435,622,911,-8.87138,-0.953085
-595,113,-8.8678,0.895569,-0.0058647,-8.73168e-05,0.00144416,0.000253563,-0.00620558,1.339,0.00422411,0.0155109,629,911,-8.86783,-0.895556
-588,113,-8.86523,0.799622,-0.00639403,2.63336e-05,0.00131505,0.000285246,-0.00665294,1.3764,0.00453337,0.0164226,636,911,-8.86526,-0.79965
-581,113,-8.88019,0.711792,-0.00687564,0.000197536,0.00115784,0.000382243,-0.00706035,1.4126,0.00483935,0.0177837,643,911,-8.88021,-0.711793
-574,113,-8.7981,0.575317,-0.00698827,0.000209103,0.00103527,0.000355055,-0.00713423,1.43074,0.00487881,0.0175527,650,911,-8.7981,-0.575341
-567,113,-9.16278,0.496826,-0.00692691,0.000257787,0.00102953,0.000402402,-0.00707153,1.43124,0.00485405,0.0349187,657,911,-9.16278,-0.49685
-560,113,-9.73993,0.663147,0,0,0,0,0,0,0,-1,664,911,-9.73993,-0.663151
-553,113,-9.75555,0.686584,-0.00637988,0.000715655,0.00112078,0.000888478,-0.0065527,1.4178,0.00469275,0.0389193,671,911,-9.75556,-0.686564
-546,113,-9.74658,0.647644,-0.00554158,0.00100556,0.00109483,0.00118379,-0.00571981,1.40942,0.00426294,0.0358172,678,911,-9.74656,-0.647657
-539,113,-9.69073,0.664978,-0.00426659,0.00137746,0.00108684,0.00157952,-0.00446864,1.38699,0.00362227,0.0357548,685,911,-9.69072,-0.66498
-532,113,-9.69061,0.542664,-0.00260152,0.0018644,0.00115213,0.00214411,-0.00288123,1.33263,0.00291177,0.0355447,692,911,-9.69064,-0.54268
-525,113,-9.75427,0.571289,-0.000580112,0.00251574,0.00132173,0.00300326,-0.00106763,1.21743,0.00243728,0.0360011,699,911,-9.75429,-0.571305
-518,113,-9.737,0.631836,0.00136463,0.00343856,0.00176022,0.00444456,0.000358641,1.05158,0.00285102,0.0376811,706,911,-9.73699,-0.63181
-511,113,-9.81036,0.676575,0.00163411,0.00481695,0.00325982,0.00685307,-0.000402012,1.01248,0.00470844,0.0397834,713,911,-9.81035,-0.676594
-504,113,0,0,0,0,0,0,0,0,0,-1,720,911,0,0
-497,113,0,0,0,0,0,0,0,0,0,-1,727,911,0,0
-490,113,0,0,0,0,0,0,0,0,0,-1,734,911,0,0
-483,113,0,0,0,0,0,0,0,0,0,-1,741,911,0,0
-476,113,0,0,0,0,0,0,0,0,0,-1,748,911,0,0
-469,113,0,0,0,0,0,0,0,0,0,-1,755,911,0,0
-462,113,0,0,0,0,0,0,0,0,0,-1,762,911,0,0
-455,113,0,0,0,0,0,0,0,0,0,-1,769,911,0,0
-448,113,0,0,0,0,0,0,0,0,0,-1,776,911,0,0
-441,113,0,0,0,0,0,0,0,0,0,-1,783,911,0,0
-434,113,0,0,0,0,0,0,0,0,0,-1,790,911,0,0
-427,113,0,0,0,0,0,0,0,0,0,-1,797,911,0,0
-420,113,0,0,0,0,0,0,0,0,0,-1,804,911,0,0
-413,113,0,0,0,0,0,0,0,0,0,-1,811,911,0,0
-406,113,0,0,0,0,0,0,0,0,0,-1,818,911,0,0
-399,113,0,0,0,0,0,0,0,0,0,-1,825,911,0,0
-392,113,0,0,0,0,0,0,0,0,0,-1,832,911,0,0
-385,113,0,0,0,0,0,0,0,0,0,-1,839,911,0,0
-378,113,0,0,0,0,0,0,0,0,0,-1,846,911,0,0
-371,113,0,0,0,0,0,0,0,0,0,-1,853,911,0,0
-364,113,0,0,0,0,0,0,0,0,0,-1,860,911,0,0
-357,113,0,0,0,0,0,0,0,0,0,-1,867,911,0,0
-350,113,0,0,0,0,0,0,0,0,0,-1,874,911,0,0
-343,113,0,0,0,0,0,0,0,0,0,-1,881,911,0,0
-336,113,0,0,0,0,0,0,0,0,0,-1,888,911,0,0
-329,113,0,0,0,0,0,0,0,0,0,-1,895,911,0,0
-322,113,0,0,0,0,0,0,0,0,0,-1,902,911,0,0
-315,113,0,0,0,0,0,0,0,0,0,-1,909,911,0,0
-308,113,0,0,0,0,0,0,0,0,0,-1,916,911,0,0
-301,113,0,0,0,0,0,0,0,0,0,-1,923,911,0,0
-294,113,0,0,0,0,0,0,0,0,0,-1,930,911,0,0
-287,113,0,0,0,0,0,0,0,0,0,-1,937,911,0,0
-280,113,0,0,0,0,0,0,0,0,0,-1,944,911,0,0
-273,113,0,0,0,0,0,0,0,0,0,-1,951,911,0,0
-266,113,0,0,0,0,0,0,0,0,0,-1,958,911,0,0
-259,113,0,0,0,0,0,0,0,0,0,-1,965,911,0,0
-252,113,0,0,0,0,0,0,0,0,0,-1,972,911,0,0
-245,113,0,0,0,0,0,0,0,0,0,-1,979,911,0,0
-238,113,0,0,0,0,0,0,0,0,0,-1,986,911,0,0
-231,113,0,0,0,0,0,0,0,0,0,-1,993,911,0,0
-224,113,0,0,0,0,0,0,0,0,0,-1,1000,911,0,0
-217,113,0,0,0,0,0,0,0,0,0,-1,1007,911,0,0
-210,113,0,0,0,0,0,0,0,0,0,-1,1014,911,0,0
-203,113,0,0,0,0,0,0,0,0,0,-1,1021,911,0,0
-196,113,0,0,0,0,0,0,0,0,0,-1,1028,911,0,0
-189,113,0,0,0,0,0,0,0,0,0,-1,1035,911,0,0
-182,113,0,0,0,0,0,0,0,0,0,-1,1042,911,0,0
-175,113,0,0,0,0,0,0,0,0,0,-1,1049,911,0,0
-168,113,0,0,0,0,0,0,0,0,0,-1,1056,911,0,0
-161,113,0,0,0,0,0,0,0,0,0,-1,1063,911,0,0
-154,113,0,0,0,0,0,0,0,0,0,-1,1070,911,0,0
-147,113,0,0,0,0,0,0,0,0,0,-1,1077,911,0,0
-140,113,0,0,0,0,0,0,0,0,0,-1,1084,911,0,0
-133,113,0,0,0,0,0,0,0,0,0,-1,1091,911,0,0
-126,113,0,0,0,0,0,0,0,0,0,-1,1098,911,0,0
-119,113,0,0,0,0,0,0,0,0,0,-1,1105,911,0,0
-112,113,0,0,0,0,0,0,0,0,0,-1,1112,911,0,0
-105,113,0,0,0,0,0,0,0,0,0,-1,1119,911,0,0
-98,113,0,0,0,0,0,0,0,0,0,-1,1126,911,0,0
-91,113,0,0,0,0,0,0,0,0,0,-1,1133,911,0,0
-84,113,0,0,0,0,0,0,0,0,0,-1,1140,911,0,0
-77,113,0,0,0,0,0,0,0,0,0,-1,1147,911,0,0
-70,113,0,0,0,0,0,0,0,0,0,-1,1154,911,0,0
-63,113,0,0,0,0,0,0,0,0,0,-1,1161,911,0,0
-56,113,0,0,0,0,0,0,0,0,0,-1,1168,911,0,0
-49,113,0,0,0,0,0,0,0,0,0,-1,1175,911,0,0
-42,113,0,0,0,0,0,0,0,0,0,-1,1182,911,0,0
-35,113,0,0,0,0,0,0,0,0,0,-1,1189,911,0,0
-28,113,0,0,0,0,0,0,0,0,0,-1,1196,911,0,0
-21,113,0,0,0,0,0,0,0,0,0,-1,1203,911,0,0
-14,113,0,0,0,0,0,0,0,0,0,-1,1210,911,0,0
-7,113,0,0,0,0,0,0,0,0,0,-1,1217,911,0,0
0,113,0,0,0,0,0,0,0,0,0,-1,1224,911,0,0
7,113,0,0,0,0,0,0,0,0,0,-1,1231,911,0,0
14,113,0,0,0,0,0,0,0,0,0,-1,1238,911,0,0
21,113,0,0,0,0,0,0,0,0,0,-1,1245,911,0,0
28,113,0,0,0,0,0,0,0,0,0,-1,1252,911,0,0
35,113,0,0,0,0,0,0,0,0,0,-1,1259,911,0,0
42,113,0,0,0,0,0,0,0,0,0,-1,1266,911,0,0
49,113,0,0,0,0,0,0,0,0,0,-1,1273,911,0,0
56,113,0,0,0,0,0,0,0,0,0,-1,1280,911,0,0
63,113,0,0,0,0,0,0,0,0,0,-1,1287,911,0,0
70,113,0,0,0,0,0,0,0,0,0,-1,1294,911,0,0
77,113,0,0,0,0,0,0,0,0,0,-1,1301,911,0,0
84,113,0,0,0,0,0,0,0,0,0,-1,1308,911,0,0
91,113,0,0,0,0,0,0,0,0,0,-1,1315,911,0,0
98,113,0,0,0,0,0,0,0,0,0,-1,1322,911,0,0
105,113,0,0,0,0,0,0,0,0,0,-1,1329,911,0,0
112,113,0,0,0,0,0,0,0,0,0,-1,1336,911,0,0
119,113,0,0,0,0,0,0,0,0,0,-1,1343,911,0,0
126,113,0,0,0,0,0,0,0,0,0,-1,1350,911,0,0
133,113,0,0,0,0,0,0,0,0,0,-1,1357,911,0,0
140,113,0,0,0,0,0,0,0,0,0,-1,1364,911,0,0
147,113,0,0,0,0,0,0,0,0,0,-1,1371,911,0,0
154,113,0,0,0,0,0,0,0,0,0,-1,1378,911,0,0
161,113,0,0,0,0,0,0,0,0,0,-1,1385,911,0,0
168,113,0,0,0,0,0,0,0,0,0,-1,1392,911,0,0
175,113,0,0,0,0,0,0,0,0,0,-1,1399,911,0,0
182,113,0,0,0,0,0,0,0,0,0,-1,1406,911,0,0
189,113,0,0,0,0,0,0,0,0,0,-1,1413,911,0,0
196,113,0,0,0,0,0,0,0,0,0,-1,1420,911,0,0
203,113,0,0,0,0,0,0,0,0,0,-1,1427,911,0,0
210,113,0,0,0,0,0,0,0,0,0,-1,1434,911,0,0
217,113,0,0,0,0,0,0,0,0,0,-1,1441,911,0,0
224,113,0,0,0,0,0,0,0,0,0,-1,1448,911,0,0
231,113,0,0,0,0,0,0,0,0,0,-1,1455,911,0,0
238,113,0,0,0,0,0,0,0,0,0,-1,1462,911,0,0
245,113,0,0,0,0,0,0,0,0,0,-1,1469,911,0,0
252,113,0,0,0,0,0,0,0,0,0,-1,1476,911,0,0
259,113,0,0,0,0,0,0,0,0,0,-1,1483,911,0,0
266,113,0,0,0,0,0,0,0,0,0,-1,1490,911,0,0
273,113,0,0,0,0,0,0,0,0,0,-1,1497,911,0,0
280,113,0,0,0,0,0,0,0,0,0,-1,1504,911,0,0
287,113,0,0,0,0,0,0,0,0,0,-1,1511,911,0,0
294,113,0,0,0,0,0,0,0,0,0,-1,1518,911,0,0
301,113,0,0,0,0,0,0,0,0,0,-1,1525,911,0,0
308,113,0,0,0,0,0,0,0,0,0,-1,1532,911,0,0
315,113,0,0,0,0,0,0,0,0,0,-1,1539,911,0,0
322,113,0,0,0,0,0,0,0,0,0,-1,1546,911,0,0
329,113,0,0,0,0,0,0,0,0,0,-1,1553,911,0,0
336,113,0,0,0,0,0,0,0,0,0,-1,1560,911,0,0
343,113,0,0,0,0,0,0,0,0,0,-1,1567,911,0,0
350,113,0,0,0,0,0,0,0,0,0,-1,1574,911,0,0
357,113,0,0,0,0,0,0,0,0,0,-1,1581,911,0,0
364,113,0,0,0,0,0,0,0,0,0,-1,1588,911,0,0
371,113,0,0,0,0,0,0,0,0,0,-1,1595,911,0,0
378,113,0,0,0,0,0,0,0,0,0,-1,1602,911,0,0
385,113,0,0,0,0,0,0,0,0,0,-1,1609,911,0,0
392,113,0,0,0,0,0,0,0,0,0,-1,1616,911,0,0
399,113,0,0,0,0,0,0,0,0,0,-1,1623,911,0,0
406,113,0,0,0,0,0,0,0,0,0,-1,1630,911,0,0
413,113,0,0,0,0,0,0,0,0,0,-1,1637,911,0,0
420,113,0,0,0,0,0,0,0,0,0,-1,1644,911,0,0
427,113,0,0,0,0,0,0,0,0,0,-1,1651,911,0,0
434,113,0,0,0,0,0,0,0,0,0,-1,1658,911,0,0
441,113,0,0,0,0,0,0,0,0,0,-1,1665,911,0,0
448,113,0,0,0,0,0,0,0,0,0,-1,1672,911,0,0
455,113,0,0,0,0,0,0,0,0,0,-1,1679,911,0,0
462,113,0,0,0,0,0,0,0,0,0,-1,1686,911,0,0
469,113,0,0,0,0,0,0,0,0,0,-1,1693,911,0,0
476,113,0,0,0,0,0,0,0,0,0,-1,1700,911,0,0
483,113,0,0,0,0,0,0,0,0,0,-1,1707,911,0,0
490,113,0,0,0,0,0,0,0,0,0,-1,1714,911,0,0
497,113,0,0,0,0,0,0,0,0,0,-1,1721,911,0,0
504,113,0,0,0,0,0,0,0,0,0,-1,1728,911,0,0
511,113,0,0,0,0,0,0,0,0,0,-1,1735,911,0,0
518,113,0,0,0,0,0,0,0,0,0,-1,1742,911,0,0
525,113,0,0,0,0,0,0,0,0,0,-1,1749,911,0,0
532,113,0,0,0,0,0,0,0,0,0,-1,1756,911,0,0
539,113,0,0,0,0,0,0,0,0,0,-1,1763,911,0,0
546,113,0,0,0,0,0,0,0,0,0,-1,1770,911,0,0
553,113,0,0,0,0,0,0,0,0,0,-1,1777,911,0,0
560,113,0,0,0,0,0,0,0,0,0,-1,1784,911,0,0
567,113,0,0,0,0,0,0,0,0,0,-1,1791,911,0,0
574,113,0,0,0,0,0,0,0,0,0,-1,1798,911,0,0
581,113,0,0,0,0,0,0,0,0,0,-1,1805,911,0,0
588,113,0,0,0,0,0,0,0,0,0,-1,1812,911,0,0
595,113,0,0,0,0,0,0,0,0,0,-1,1819,911,0,0
602,113,0,0,0,0,0,0,0,0,0,-1,1826,911,0,0
609,113,0,0,0,0,0,0,0,0,0,-1,1833,911,0,0
616,113,0,0,0,0,0,0,0,0,0,-1,1840,911,0,0
623,113,0,0,0,0,0,0,0,0,0,-1,1847,911,0,0
630,113,15.8522,2.32593,0.00417064,0.00827452,0.000423355,0.00831774,0.00412743,1.46906,0.0048023,0.0396193,1854,911,15.8521,-2.32592
637,113,15.8196,2.80121,0.00388778,0.00587855,0.0001134,0.00588499,0.00388134,1.51408,0.00345487,0.040756,1861,911,15.8195,-2.80123
644,113,15.6573,2.83051,0.00347826,0.00398772,-0.00027944,0.00411111,0.00335487,-1.15498,0.00252667,0.0411052,1868,911,15.6573,-2.83054
651,113,15.6481,2.59833,0.00119414,0.00275891,-0.000972449,0.00322464,0.000728415,-1.12415,0.00195278,0.0442024,1875,911,15.6481,-2.59831
658,113,15.7461,2.38318,-0.00178645,0.00195824,-0.00169091,0.00260876,-0.00243697,-1.20353,0.00291371,0.0441923,1882,911,15.7461,-2.38319
665,113,15.6984,2.26306,-0.00450005,0.00141146,-0.00226524,0.00217966,-0.00526825,-1.24384,0.00442158,0.0377637,1889,911,15.6983,-2.26304
672,113,15.6741,2.30597,-0.00670581,0.00104173,-0.0026458,0.00185905,-0.00752313,-1.27118,0.00573641,0.0348357,1896,911,15.6741,-2.30598
679,113,15.7609,2.22607,-0.00829222,0.000787762,-0.00285659,0.00161169,-0.00911614,-1.28999,0.00667979,0.03068,1903,911,15.7609,-2.2261
686,113,15.733,2.25903,-0.00929982,0.000548248,-0.00293731,0.00135779,-0.0101094,-1.30187,0.00723477,0.0273335,1910,911,15.7331,-2.25903
693,113,15.7126,2.27795,-0.00989541,0.00048985,-0.00287403,0.00123215,-0.0106377,-1.31804,0.00753618,0.034535,1917,911,15.7127,-2.27793
700,113,14.9028,2.4541,-0.0099678,0.000453811,-0.00267135,0.00109866,-0.0106126,-1.33394,0.0074683,0.0385838,1924,911,14.9028,-2.4541
707,113,14.177,2.64484,0,0,0,0,0,0,0,-1,1931,911,14.177,-2.64483
714,113,14.1754,2.73438,-0.00836283,0.000424831,-0.00229851,0.000989718,-0.00892772,-1.32981,0.00630765,0.0153326,1938,911,14.1754,-2.73438
721,113,14.1901,2.83759,-0.00690496,0.000630052,-0.00202439,0.00113949,-0.0074144,-1.32427,0.00536326,0.0141683,1945,911,14.1901,-2.83761
728,113,14.2354,2.94611,-0.00575198,0.000759443,-0.00112414,0.000948051,-0.00594059,-1.40456,0.0043113,0.0148311,1952,911,14.2354,-2.94611
735,113,14.2118,3.03577,-0.00474025,0.00129884,0.000341397,0.00131808,-0.00475949,1.5145,0.00369164,0.0148147,1959,911,14.2117,-3.03577
742,113,14.2104,3.14899,-0.00376168,0.00133705,0.00189236,0.00196264,-0.00438727,1.25152,0.00375415,0.0119783,1966,911,14.2105,-3.14898
749,113,14.2224,3.25555,-0.00314311,0.00560131,0.00281975,0.00643172,-0.00397351,1.2844,0.00606309,0.00912497,1973,911,14.2224,-3.25554
756,113,14.2252,3.33594,-0.00413219,0.00938618,0.00446511,0.0107278,-0.00547386,1.2789,0.0095166,0.0107179,1980,911,14.2252,-3.33594
763,113,14.1842,3.41583,-0.00642442,0.0151508,0.00662779,0.0170241,-0.00829778,1.29533,0.0149062,0.0198399,1987,911,14.1843,-3.41585
770,113,14.157,3.47021,-0.00944478,0.0235367,0.00918012,0.0259197,-0.0118278,1.31682,0.022294,0.042403,1994,911,14.157,-3.4702
777,113,14.2856,3.90277,-0.0133608,0.0360354,0.0121419,0.0388586,-0.016184,1.34234,0.0326653,0.0477126,2001,911,14.2856,-3.90274
784,113,14.2472,4.65594,-0.0182229,0.0542051,0.0152357,0.0572795,-0.0212973,1.37168,0.0469251,0.0451573,2008,911,14.2472,-4.65595
791,113,14.1985,5.29065,0,0,0,0,0,0,0,-1,2015,911,14.1985,-5.29067
798,113,12.9689,3.02753,0,0,0,0,0,0,0,-1,2022,911,12.9689,-3.02752
805,113,0,0,0,0,0,0,0,0,0,-1,2029,911,0,0
812,113,0,0,0,0,0,0,0,0,0,-1,2036,911,0,0
-700,106,0,0,0,0,0,0,0,0,0,-1,524,918,0,0
-693,106,0,0,0,0,0,0,0,0,0,-1,531,918,0,0
-686,106,0,0,0,0,0,0,0,0,0,-1,538,918,0,0
-679,106,-10.9683,1.83875,0.133081,-0.0505244,-0.0194914,0.135128,-0.0525708,-0.104606,0.111807,0.0454308,545,918,-10.9683,-1.83877
-672,106,-10.3422,1.30884,0.107012,-0.042045,-0.014195,0.108351,-0.0433848,-0.0941052,0.0902418,0.0483009,552,918,-10.3422,-1.30883
-665,106,-9.87097,0.809265,0.0838862,-0.0341608,-0.00985971,0.084704,-0.0349787,-0.0827595,0.071059,0.0455478,559,918,-9.87096,-0.809241
-658,106,-9.47137,0.304382,0.0639904,-0.0270952,-0.00641739,0.0644403,-0.0275452,-0.0699936,0.0545132,0.0414928,566,918,-9.4714,-0.304366
-651,106,-9.13641,0.0270386,0.0472369,-0.0209174,-0.00374283,0.0474418,-0.0211223,-0.0546978,0.0405461,0.0462428,573,918,-9.13639,-0.0270238
-644,106,-8.97357,-0.108154,0,0,0,0,0,0,0,-1,580,918,-8.97356,0.108159
-637,106,-8.94354,1.23633,0.0224893,-0.0112776,-0.000342474,0.0224928,-0.0112811,-0.0101409,0.0198543,0.0285366,587,918,-8.94354,-1.2363
-630,106,-8.90894,1.24451,0.0136881,-0.00767079,0.00066167,0.0137086,-0.00769127,0.0309391,0.012517,0.0112892,594,918,-8.90895,-1.2445
-623,106,-8.91541,1.18945,0.00594833,-0.00449681,0.00128022,0.00610296,-0.00465143,0.120196,0.00622787,0.00949946,601,918,-8.91539,-1.18948
-616,106,-8.9162,1.10352,0.000422629,-0.00248393,0.00163405,0.00115616,-0.00321746,0.421943,0.00261693,0.0100403,608,918,-8.91621,-1.10352
-609,106,-8.92358,1.01337,-0.00362089,-0.00110068,0.00223331,0.000203499,-0.00492506,1.04225,0.00335327,0.0100563,615,918,-8.9236,-1.01334
-602,106,-8.94818,0.94574,-0.00528387,-0.00014871,0.00159947,0.000308736,-0.00574131,1.29223,0.00393449,0.0110346,622,918,-8.94821,-0.945755
-595,106,-8.97534,0.876953,-0.00580282,3.82701e-05,0.00123847,0.00029001,-0.00605456,1.37026,0.00413643,0.0144559,629,918,-8.97532,-0.876959
-588,106,-8.94794,0.790222,-0.00633027,0.000142917,0.00106875,0.000314808,-0.00650216,1.41133,0.00444343,0.015694,636,918,-8.94796,-0.79025
-581,106,-8.90155,0.708252,-0.00678071,0.000322485,0.000869838,0.000427452,-0.00688567,1.4507,0.00473936,0.0134332,643,918,-8.90158,-0.708223
-574,106,-8.91907,0.624268,-0.00686351,0.000388214,0.000684425,0.000452246,-0.00692754,1.47751,0.00477625,0.017827,650,918,-8.91908,-0.624286
-567,106,-9.3291,0.664734,-0.00674759,0.000483199,0.000615517,0.000535221,-0.00679962,1.48648,0.00472161,0.031522,657,918,-9.32912,-0.664743
-560,106,-9.73511,0.716858,-0.00653645,0.000679773,0.000622038,0.000733,-0.00658968,1.48544,0.00465672,0.0362812,664,918,-9.73511,-0.716843
-553,106,-9.76813,0.636902,-0.00596666,0.0010261,0.000566442,0.00107168,-0.00601225,1.49049,0.00440903,0.0341695,671,918,-9.76811,-0.636921
-546,106,-9.78705,0.475769,-0.00500144,0.00136014,0.000484053,0.00139676,-0.00503806,1.49529,0.00390839,0.0379584,678,918,-9.78703,-0.475768
-539,106,-9.73053,0.388306,-0.00363967,0.00176606,0.000425659,0.00179937,-0.00367298,1.4927,0.0032206,0.0419732,685,918,-9.73056,-0.388322
-532,106,-9.50677,0.28125,0,0,0,0,0,0,0,-1,692,918,-9.50675,-0.281223
-525,106,-9.82599,0.419678,-3.41879e-05,0.00289249,0.000564121,0.00299746,-0.000139158,1.38682,0.00204627,0.0381999,699,918,-9.826,-0.41967
-518,106,-9.85846,0.504456,0.00142821,0.0037323,0.000970272,0.00408645,0.00107406,1.22082,0.00244619,0.0384462,706,918,-9.85844,-0.504453
-511,106,0,0,0,0,0,0,0,0,0,-1,713,918,0,0
-504,106,0,0,0,0,0,0,0,0,0,-1,720,918,0,0
-497,106,0,0,0,0,0,0,0,0,0,-1,727,918,0,0
-490,106,0,0,0,0,0,0,0,0,0,-1,734,918,0,0
-483,106,0,0,0,0,0,0,0,0,0,-1,741,918,0,0
-476,106,0,0,0,0,0,0,0,0,0,-1,748,918,0,0
-469,106,0,0,0,0,0,0,0,0,0,-1,755,918,0,0
-462,106,0,0,0,0,0,0,0,0,0,-1,762,918,0,0
-455,106,0,0,0,0,0,0,0,0,0,-1,769,918,0,0
-448,106,0,0,0,0,0,0,0,0,0,-1,776,918,0,0
-441,106,0,0,0,0,0,0,0,0,0,-1,783,918,0,0
-434,106,0,0,0,0,0,0,0,0,0,-1,790,918,0,0
-427,106,0,0,0,0,0,0,0,0,0,-1,797,918,0,0
-420,106,0,0,0,0,0,0,0,0,0,-1,804,918,0,0
-413,106,0,0,0,0,0,0,0,0,0,-1,811,918,0,0
-406,106,0,0,0,0,0,0,0,0,0,-1,818,918,0,0
-399,106,0,0,0,0,0,0,0,0,0,-1,825,918,0,0
-392,106,0,0,0,0,0,0,0,0,0,-1,832,918,0,0
-385,106,0,0,0,0,0,0,0,0,0,-1,839,918,0,0
-378,106,0,0,0,0,0,0,0,0,0,-1,846,918,0,0
-371,106,0,0,0,0,0,0,0,0,0,-1,853,918,0,0
-364,106,0,0,0,0,0,0,0,0,0,-1,860,918,0,0
-357,106,0,0,0,0,0,0,0,0,0,-1,867,918,0,0
-350,106,0,0,0,0,0,0,0,0,0,-1,874,918,0,0
-343,106,0,0,0,0,0,0,0,0,0,-1,881,918,0,0
-336,106,0,0,0,0,0,0,0,0,0,-1,888,918,0,0
-329,106,0,0,0,0,0,0,0,0,0,-1,895,918,0,0
-322,106,0,0,0,0,0,0,0,0,0,-1,902,918,0,0
-315,106,0,0,0,0,0,0,0,0,0,-1,909,918,0,0
-308,106,0,0,0,0,0,0,0,0,0,-1,916,918,0,0
-301,106,0,0,0,0,0,0,0,0,0,-1,923,918,0,0
-294,106,0,0,0,0,0,0,0,0,0,-1,930,918,0,0
-287,106,0,0,0,0,0,0,0,0,0,-1,937,918,0,0
-280,106,0,0,0,0,0,0,0,0,0,-1,944,918,0,0
-273,106,0,0,0,0,0,0,0,0,0,-1,951,918,0,0
-266,106,0,0,0,0,0,0,0,0,0,-1,958,918,0,0
-259,106,0,0,0,0,0,0,0,0,0,-1,965,918,0,0
-252,106,0,0,0,0,0,0,0,0,0,-1,972,918,0,0
-245,106,0,0,0,0,0,0,0,0,0,-1,979,918,0,0
-238,106,0,0,0,0,0,0,0,0,0,-1,986,918,0,0
-231,106,0,0,0,0,0,0,0,0,0,-1,993,918,0,0
-224,106,0,0,0,0,0,0,0,0,0,-1,1000,918,0,0
-217,106,0,0,0,0,0,0,0,0,0,-1,1007,918,0,0
-210,106,0,0,0,0,0,0,0,0,0,-1,1014,918,0,0
-203,106,0,0,0,0,0,0,0,0,0,-1,1021,918,0,0
-196,106,0,0,0,0,0,0,0,0,0,-1,1028,918,0,0
-189,106,0,0,0,0,0,0,0,0,0,-1,1035,918,0,0
-182,106,0,0,0,0,0,0,0,0,0,-1,1042,918,0,0
-175,106,0,0,0,0,0,0,0,0,0,-1,1049,918,0,0
-168,106,0,0,0,0,0,0,0,0,0,-1,1056,918,0,0
-161,106,0,0,0,0,0,0,0,0,0,-1,1063,918,0,0
-154,106,0,0,0,0,0,0,0,0,0,-1,1070,918,0,0
-147,106,0,0,0,0,0,0,0,0,0,-1,1077,918,0,0
-140,106,0,0,0,0,0,0,0,0,0,-1,1084,918,0,0
-133,106,0,0,0,0,0,0,0,0,0,-1,1091,918,0,0
-126,106,0,0,0,0,0,0,0,0,0,-1,1098,918,0,0
-119,106,0,0,0,0,0,0,0,0,0,-1,1105,918,0,0
-112,106,0,0,0,0,0,0,0,0,0,-1,1112,918,0,0
-105,106,0,0,0,0,0,0,0,0,0,-1,1119,918,0,0
-98,106,0,0,0,0,0,0,0,0,0,-1,1126,918,0,0
-91,106,0,0,0,0,0,0,0,0,0,-1,1133,918,0,0
-84,106,0,0,0,0,0,0,0,0,0,-1,1140,918,0,0
-77,106,0,0,0,0,0,0,0,0,0,-1,1147,918,0,0
-70,106,0,0,0,0,0,0,0,0,0,-1,1154,918,0,0
-63,106,0,0,0,0,0,0,0,0,0,-1,1161,918,0,0
-56,106,0,0,0,0,0,0,0,0,0,-1,1168,918,0,0
-49,106,0,0,0,0,0,0,0,0,0,-1,1175,918,0,0
-42,106,0,0,0,0,0,0,0,0,0,-1,1182,918,0,0
-35,106,0,0,0,0,0,0,0,0,0,-1,1189,918,0,0
-28,106,0,0,0,0,0,0,0,0,0,-1,1196,918,0,0
-21,106,0,0,0,0,0,0,0,0,0,-1,1203,918,0,0
-14,106,0,0,0,0,0,0,0,0,0,-1,1210,918,0,0
-7,106,0,0,0,0,0,0,0,0,0,-1,1217,918,0,0
0,106,0,0,0,0,0,0,0,0,0,-1,1224,918,0,0
7,106,0,0,0,0,0,0,0,0,0,-1,1231,918,0,0
14,106,0,0,0,0,0,0,0,0,0,-1,1238,918,0,0
21,106,0,0,0,0,0,0,0,0,0,-1,1245,918,0,0
28,106,0,0,0,0,0,0,0,0,0,-1,1252,918,0,0
35,106,0,0,0,0,0,0,0,0,0,-1,1259,918,0,0
42,106,0,0,0,0,0,0,0,0,0,-1,1266,918,0,0
49,106,0,0,0,0,0,0,0,0,0,-1,1273,918,0,0
56,106,0,0,0,0,0,0,0,0,0,-1,1280,918,0,0
63,106,0,0,0,0,0,0,0,0,0,-1,1287,918,0,0
70,106,0,0,0,0,0,0,0,0,0,-1,1294,918,0,0
77,106,0,0,0,0,0,0,0,0,0,-1,1301,918,0,0
84,106,0,0,0,0,0,0,0,0,0,-1,1308,918,0,0
91,106,0,0,0,0,0,0,0,0,0,-1,1315,918,0,0
98,106,0,0,0,0,0,0,0,0,0,-1,1322,918,0,0
105,106,0,0,0,0,0,0,0,0,0,-1,1329,918,0,0
112,106,0,0,0,0,0,0,0,0,0,-1,1336,918,0,0
119,106,0,0,0,0,0,0,0,0,0,-1,1343,918,0,0
126,106,0,0,0,0,0,0,0,0,0,-1,1350,918,0,0
133,106,0,0,0,0,0,0,0,0,0,-1,1357,918,0,0
140,106,0,0,0,0,0,0,0,0,0,-1,1364,918,0,0
147,106,0,0,0,0,0,0,0,0,0,-1,1371,918,0,0
154,106,0,0,0,0,0,0,0,0,0,-1,1378,918,0,0
161,106,0,0,0,0,0,0,0,0,0,-1,1385,918,0,0
168,106,0,0,0,0,0,0,0,0,0,-1,1392,918,0,0
175,106,0,0,0,0,0,0,0,0,0,-1,1399,918,0,0
182,106,0,0,0,0,0,0,0,0,0,-1,1406,918,0,0
189,106,0,0,0,0,0,0,0,0,0,-1,1413,918,0,0
196,106,0,0,0,0,0,0,0,0,0,-1,1420,918,0,0
203,106,0,0,0,0,0,0,0,0,0,-1,1427,918,0,0
210,106,0,0,0,0,0,0,0,0,0,-1,1434,918,0,0
217,106,0,0,0,0,0,0,0,0,0,-1,1441,918,0,0
224,106,0,0,0,0,0,0,0,0,0,-1,1448,918,0,0
231,106,0,0,0,0,0,0,0,0,0,-1,1455,918,0,0
238,106,0,0,0,0,0,0,0,0,0,-1,1462,918,0,0
245,106,0,0,0,0,0,0,0,0,0,-1,1469,918,0,0
252,106,0,0,0,0,0,0,0,0,0,-1,1476,918,0,0
259,106,0,0,0,0,0,0,0,0,0,-1,1483,918,0,0
266,106,0,0,0,0,0,0,0,0,0,-1,1490,918,0,0
273,106,0,0,0,0,0,0,0,0,0,-1,1497,918,0,0
280,106,0,0,0,0,0,0,0,0,0,-1,1504,918,0,0
287,106,0,0,0,0,0,0,0,0,0,-1,1511,918,0,0
294,106,0,0,0,0,0,0,0,0,0,-1,1518,918,0,0
301,106,0,0,0,0,0,0,0,0,0,-1,1525,918,0,0
308,106,0,0,0,0,0,0,0,0,0,-1,1532,918,0,0
315,106,0,0,0,0,0,0,0,0,0,-1,1539,918,0,0
322,106,0,0,0,0,0,0,0,0,0,-1,1546,918,0,0
329,106,0,0,0,0,0,0,0,0,0,-1,1553,918,0,0
336,106,0,0,0,0,0,0,0,0,0,-1,1560,918,0,0
343,106,0,0,0,0,0,0,0,0,0,-1,1567,918,0,0
350,106,0,0,0,0,0,0,0,0,0,-1,1574,918,0,0
357,106,0,0,0,0,0,0,0,0,0,-1,1581,918,0,0
364,106,0,0,0,0,0,0,0,0,0,-1,1588,918,0,0
371,106,0,0,0,0,0,0,0,0,0,-1,1595,918,0,0
378,106,0,0,0,0,0,0,0,0,0,-1,1602,918,0,0
385,106,0,0,0,0,0,0,0,0,0,-1,1609,918,0,0
392,106,0,0,0,0,0,0,0,0,0,-1,1616,918,0,0
399,106,0,0,0,0,0,0,0,0,0,-1,1623,918,0,0
406,106,0,0,0,0,0,0,0,0,0,-1,1630,918,0,0
413,106,0,0,0,0,0,0,0,0,0,-1,1637,918,0,0
420,106,0,0,0,0,0,0,0,0,0,-1,1644,918,0,0
427,106,0,0,0,0,0,0,0,0,0,-1,1651,918,0,0
434,106,0,0,0,0,0,0,0,0,0,-1,1658,918,0,0
441,106,0,0,0,0,0,0,0,0,0,-1,1665,918,0,0
448,106,0,0,0,0,0,0,0,0,0,-1,1672,918,0,0
455,106,0,0,0,0,0,0,0,0,0,-1,1679,918,0,0
462,106,0,0,0,0,0,0,0,0,0,-1,1686,918,0,0
469,106,0,0,0,0,0,0,0,0,0,-1,1693,918,0,0
476,106,0,0,0,0,0,0,0,0,0,-1,1700,918,0,0
483,106,0,0,0,0,0,0,0,0,0,-1,1707,918,0,0
490,106,0,0,0,0,0,0,0,0,0,-1,1714,918,0,0
497,106,0,0,0,0,0,0,0,0,0,-1,1721,918,0,0
504,106,0,0,0,0,0,0,0,0,0,-1,1728,918,0,0
511,106,0,0,0,0,0,0,0,0,0,-1,1735,918,0,0
518,106,0,0,0,0,0,0,0,0,0,-1,1742,918,0,0
525,106,0,0,0,0,0,0,0,0,0,-1,1749,918,0,0
532,106,0,0,0,0,0,0,0,0,0,-1,1756,918,0,0
539,106,0,0,0,0,0,0,0,0,0,-1,1763,918,0,0
546,106,0,0,0,0,0,0,0,0,0,-1,1770,918,0,0
553,106,0,0,0,0,0,0,0,0,0,-1,1777,918,0,0
560,106,0,0,0,0,0,0,0,0,0,-1,1784,918,0,0
567,106,0,0,0,0,0,0,0,0,0,-1,1791,918,0,0
574,106,0,0,0,0,0,0,0,0,0,-1,1798,918,0,0
581,106,0,0,0,0,0,0,0,0,0,-1,1805,918,0,0
588,106,0,0,0,0,0,0,0,0,0,-1,1812,918,0,0
595,106,0,0,0,0,0,0,0,0,0,-1,1819,918,0,0
602,106,0,0,0,0,0,0,0,0,0,-1,1826,918,0,0
609,106,0,0,0,0,0,0,0,0,0,-1,1833,918,0,0
616,106,0,0,0,0,0,0,0,0,0,-1,1840,918,0,0
623,106,0,0,0,0,0,0,0,0,0,-1,1847,918,0,0
630,106,15.838,2.29926,0.00364768,0.0087332,0.000420647,0.00876776,0.00361312,1.48882,0.00508808,0.0368209,1854,918,15.838,-2.29928
637,106,15.8798,2.51172,0.00345735,0.0063369,7.0868e-05,0.00633865,0.00345561,1.54621,0.00366459,0.0366682,1861,918,15.8798,-2.5117
644,106,15.8645,2.65393,0.00343538,0.00444988,-0.000232238,0.00450051,0.00338475,-1.35612,0.00270621,0.0392472,1868,918,15.8645,-2.65394
651,106,15.7604,2.48346,0.00156041,0.00320196,-0.000802656,0.0035292,0.00123317,-1.18368,0.00206815,0.0422646,1875,918,15.7604,-2.48348
658,106,15.8225,2.28369,-0.00116428,0.00238697,-0.00142049,0.00288525,-0.00166256,-1.23343,0.00265712,0.0422981,1882,918,15.8226,-2.28372
665,106,15.8495,2.28918,-0.00375086,0.00181454,-0.00192278,0.00241422,-0.00435054,-1.26847,0.0039586,0.0406951,1889,918,15.8495,-2.28917
672,106,15.631,2.39014,-0.00586774,0.00143025,-0.00224746,0.00206684,-0.00650433,-1.29478,0.0051649,0.0391889,1896,918,15.631,-2.39014
679,106,15.7628,2.25879,-0.00741149,0.00114163,-0.00240831,0.00177312,-0.00804297,-1.31436,0.0060404,0.0356636,1903,918,15.7629,-2.25878
686,106,15.7992,2.19397,-0.00839583,0.000870817,-0.00246022,0.00148348,-0.0090085,-1.32673,0.00655634,0.0334871,1910,918,15.7992,-2.19395
693,106,15.7599,2.17285,-0.00896434,0.000758655,-0.00237161,0.00130629,-0.00951198,-1.34386,0.00681858,0.0254529,1917,918,15.7599,-2.17285
700,106,15.4318,2.32922,-0.0090713,0.000659231,-0.00215827,0.00111646,-0.00952853,-1.36203,0.00675533,0.0491199,1924,918,15.4317,-2.32922
707,106,14.2281,2.65955,0,0,0,0,0,0,0,-1,1931,918,14.2281,-2.65956
714,106,14.2834,2.73602,-0.00768353,0.000569142,-0.0018912,0.000981889,-0.00809628,-1.35592,0.00575281,0.0167782,1938,918,14.2834,-2.73599
721,106,14.321,2.8324,-0.00640345,0.000735151,-0.00167363,0.00110805,-0.00677635,-1.35157,0.00492861,0.0155137,1945,918,14.3211,-2.83239
728,106,14.3499,2.94775,-0.00552623,0.000838356,-0.000814077,0.000940832,-0.0056287,-1.44557,0.0041022,0.0152713,1952,918,14.3498,-2.94778
735,106,14.3374,3.03345,-0.00478884,0.00134008,0.000562726,0.00139132,-0.00484008,1.47999,0.0037769,0.0147319,1959,918,14.3374,-3.03343
742,106,14.3295,3.1424,-0.00407286,0.00134841,0.00192192,0.00196062,-0.00468507,1.26242,0.0039429,0.0114383,1966,918,14.3295,-3.14238
749,106,14.3304,3.24518,-0.00362572,0.00567125,0.00259555,0.0063468,-0.00430126,1.31618,0.00618536,0.0091564,1973,918,14.3304,-3.24519
756,106,14.318,3.3161,-0.00466396,0.00948513,0.00394003,0.0105083,-0.00568714,1.31672,0.00948754,0.00968975,1980,918,14.318,-3.31612
763,106,14.2969,3.40118,-0.00709621,0.0153325,0.00568041,0.0166891,-0.0084528,1.33637,0.0147731,0.0163544,1987,918,14.2969,-3.40119
770,106,14.2662,3.47076,-0.0103848,0.0236948,0.00757829,0.025304,-0.011994,1.36156,0.0219863,0.0357236,1994,918,14.2662,-3.47078
777,106,13.8203,3.81189,-0.0146486,0.0358859,0.0095172,0.0376188,-0.0163816,1.39068,0.0319708,0.0420051,2001,918,13.8203,-3.81192
784,106,13.345,4.55731,-0.0199885,0.05339,0.0111753,0.0550542,-0.0216527,1.42296,0.0456649,0.0433805,2008,918,13.345,-4.55733
791,106,13.0011,5.35181,-0.0264067,0.0781837,0.0118613,0.0795119,-0.027735,1.45928,0.0642794,0.0474523,2015,918,13.0011,-5.35184
798,106,12.4805,6.03375,0,0,0,0,0,0,0,-1,2022,918,12.4804,-6.03374
805,106,0,0,0,0,0,0,0,0,0,-1,2029,918,0,0
812,106,0,0,0,0,0,0,0,0,0,-1,2036,918,0,0
-700,99,0,0,0,0,0,0,0,0,0,-1,524,925,0,0
-693,99,0,0,0,0,0,0,0,0,0,-1,531,925,0,0
-686,99,0,0,0,0,0,0,0,0,0,-1,538,925,0,0
-679,99,-12.4987,2.48376,0.151212,-0.0549391,-0.0246545,0.15412,-0.0578466,-0.117389,0.126517,0.0493066,545,925,-12.4987,-2.48379
-672,99,-10.7338,1.83856,0.12238,-0.0452392,-0.0183236,0.124359,-0.0472189,-0.107624,0.102344,0.0446835,552,925,-10.7338,-1.83857
-665,99,-9.87897,1.16937,0.0964702,-0.0363875,-0.013051,0.0977401,-0.0376574,-0.0969974,0.0806965,0.0433707,559,925,-9.87896,-1.16937
-658,99,-9.95734,-0.0740967,0,0,0,0,0,0,0,-1,566,925,-9.95734,0.074105
-651,99,-9.80115,-0.221008,0,0,0,0,0,0,0,-1,573,925,-9.80112,0.221005
-644,99,-9.6449,-0.36792,0,0,0,0,0,0,0,-1,580,925,-9.64491,0.367906
-637,99,-8.93756,1.32642,0.0265625,-0.0114453,-0.00116341,0.026598,-0.0114809,-0.0305716,0.022555,0.0279742,587,925,-8.93754,-1.32643
-630,99,-8.97754,1.2384,0.0164304,-0.00763497,0.00013317,0.0164311,-0.00763571,0.00553345,0.0142009,0.011741,594,925,-8.97756,-1.23842
-623,99,-9.01416,1.17255,0.00768819,-0.0044021,0.00108026,0.00778395,-0.00449786,0.0884159,0.00717501,0.006682,601,925,-9.01419,-1.17257
-616,99,-9.02533,1.10663,0.0014366,-0.00230355,0.00142859,0.00191983,-0.00278678,0.326176,0.00273269,0.00813611,608,925,-9.02533,-1.10661
-609,99,-9.02051,1.01801,-0.0031775,-0.000910529,0.00204415,0.000293364,-0.00438139,1.03854,0.00302347,0.00888989,615,925,-9.02053,-1.01801
-602,99,-9.02454,0.955322,-0.00508222,-1.1554e-05,0.0014327,0.00036525,-0.00545902,1.31362,0.003767,0.00898984,622,925,-9.02452,-0.955326
-595,99,-9.04865,0.882324,-0.00562354,7.2644e-05,0.00105542,0.000261908,-0.00581281,1.39336,0.00396539,0.0126759,629,925,-9.04866,-0.882334
-588,99,-9.03009,0.801758,-0.00618898,0.00017176,0.000822224,0.000276326,-0.00629355,1.4443,0.00429077,0.0125849,636,925,-9.03006,-0.801744
-581,99,-8.98828,0.709595,-0.00661149,0.000353814,0.000604684,0.000405919,-0.00666359,1.48484,0.0045837,0.0101894,643,925,-8.98827,-0.709594
-574,99,-9.07196,0.62085,-0.00665762,0.000469,0.00038794,0.000490055,-0.00667867,1.51657,0.00462446,0.0143268,650,925,-9.07197,-0.620845
-567,99,-9.41223,0.529663,-0.00649757,0.000596558,0.000270343,0.000606846,-0.00650786,1.53276,0.00455435,0.0312517,657,925,-9.41222,-0.529688
-560,99,-9.73895,0.620667,-0.00617939,0.000821386,0.000225311,0.00082863,-0.00618664,1.53866,0.00442656,0.031431,664,925,-9.73897,-0.620651
-553,99,-9.755,0.559814,-0.00547379,0.00116769,0.000122248,0.00116994,-0.00547604,1.5524,0.00409674,0.0349582,671,925,-9.75501,-0.55984
-546,99,-9.72864,0.401855,-0.00437023,0.00151506,1.80881e-06,0.00151506,-0.00437023,1.57049,0.00352864,0.039058,678,925,-9.72865,-0.401837
-539,99,-9.68945,0.360718,-0.00288854,0.00191541,-8.97347e-05,0.00191708,-0.00289022,-1.55213,0.00279439,0.0403128,685,925,-9.68942,-0.360688
-532,99,-9.63708,0.40863,-0.00111357,0.00237333,-0.000102948,0.00237637,-0.00111661,-1.54131,0.00205993,0.0410717,692,925,-9.6371,-0.408628
-525,99,-9.96619,0.474731,0.000799839,0.00290503,-2.14565e-05,0.00290525,0.000799621,-1.56061,0.00173292,0.0395062,699,925,-9.96618,-0.474715
-518,99,-10.0125,0.480225,0.00195181,0.00356564,0.00036756,0.00364542,0.00187203,1.35708,0.00210494,0.0383709,706,925,-10.0124,-0.480236
-511,99,0,0,0,0,0,0,0,0,0,-1,713,925,0,0
-504,99,0,0,0,0,0,0,0,0,0,-1,720,925,0,0
-497,99,0,0,0,0,0,0,0,0,0,-1,727,925,0,0
-490,99,0,0,0,0,0,0,0,0,0,-1,734,925,0,0
-483,99,0,0,0,0,0,0,0,0,0,-1,741,925,0,0
-476,99,0,0,0,0,0,0,0,0,0,-1,748,925,0,0
-469,99,0,0,0,0,0,0,0,0,0,-1,755,925,0,0
-462,99,0,0,0,0,0,0,0,0,0,-1,762,925,0,0
-455,99,0,0,0,0,0,0,0,0,0,-1,769,925,0,0
-448,99,0,0,0,0,0,0,0,0,0,-1,776,925,0,0
-441,99,0,0,0,0,0,0,0,0,0,-1,783,925,0,0
-434,99,0,0,0,0,0,0,0,0,0,-1,790,925,0,0
-427,99,0,0,0,0,0,0,0,0,0,-1,797,925,0,0
-420,99,0,0,0,0,0,0,0,0,0,-1,804,925,0,0
-413,99,0,0,0,0,0,0,0,0,0,-1,811,925,0,0
-406,99,0,0,0,0,0,0,0,0,0,-1,818,925,0,0
-399,99,0,0,0,0,0,0,0,0,0,-1,825,925,0,0
-392,99,0,0,0,0,0,0,0,0,0,-1,832,925,0,0
-385,99,0,0,0,0,0,0,0,0,0,-1,839,925,0,0
-378,99,0,0,0,0,0,0,0,0,0,-1,846,925,0,0
-371,99,0,0,0,0,0,0,0,0,0,-1,853,925,0,0
-364,99,0,0,0,0,0,0,0,0,0,-1,860,925,0,0
-357,99,0,0,0,0,0,0,0,0,0,-1,867,925,0,0
-350,99,0,0,0,0,0,0,0,0,0,-1,874,925,0,0
-343,99,0,0,0,0,0,0,0,0,0,-1,881,925,0,0
-336,99,0,0,0,0,0,0,0,0,0,-1,888,925,0,0
-329,99,0,0,0,0,0,0,0,0,0,-1,895,925,0,0
-322,99,0,0,0,0,0,0,0,0,0,-1,902,925,0,0
-315,99,0,0,0,0,0,0,0,0,0,-1,909,925,0,0
-308,99,0,0,0,0,0,0,0,0,0,-1,916,925,0,0
-301,99,0,0,0,0,0,0,0,0,0,-1,923,925,0,0
-294,99,0,0,0,0,0,0,0,0,0,-1,930,925,0,0
-287,99,0,0,0,0,0,0,0,0,0,-1,937,925,0,0
-280,99,0,0,0,0,0,0,0,0,0,-1,944,925,0,0
-273,99,0,0,0,0,0,0,0,0,0,-1,951,925,0,0
-266,99,0,0,0,0,0,0,0,0,0,-1,958,925,0,0
-259,99,0,0,0,0,0,0,0,0,0,-1,965,925,0,0
-252,99,0,0,0,0,0,0,0,0,0,-1,972,925,0,0
-245,99,0,0,0,0,0,0,0,0,0,-1,979,925,0,0
-238,99,0,0,0,0,0,0,0,0,0,-1,986,925,0,0
-231,99,0,0,0,0,0,0,0,0,0,-1,993,925,0,0
-224,99,0,0,0,0,0,0,0,0,0,-1,1000,925,0,0
-217,99,0,0,0,0,0,0,0,0,0,-1,1007,925,0,0
-210,99,0,0,0,0,0,0,0,0,0,-1,1014,925,0,0
-203,99,0,0,0,0,0,0,0,0,0,-1,1021,925,0,0
-196,99,0,0,0,0,0,0,0,0,0,-1,1028,925,0,0
-189,99,0,0,0,0,0,0,0,0,0,-1,1035,925,0,0
-182,99,0,0,0,0,0,0,0,0,0,-1,1042,925,0,0
-175,99,0,0,0,0,0,0,0,0,0,-1,1049,925,0,0
-168,99,0,0,0,0,0,0,0,0,0,-1,1056,925,0,0
-161,99,0,0,0,0,0,0,0,0,0,-1,1063,925,0,0
-154,99,0,0,0,0,0,0,0,0,0,-1,1070,925,0,0
-147,99,0,0,0,0,0,0,0,0,0,-1,1077,925,0,0
-140,99,0,0,0,0,0,0,0,0,0,-1,1084,925,0,0
-133,99,0,0,0,0,0,0,0,0,0,-1,1091,925,0,0
-126,99,0,0,0,0,0,0,0,0,0,-1,1098,925,0,0
-119,99,0,0,0,0,0,0,0,0,0,-1,1105,925,0,0
-112,99,0,0,0,0,0,0,0,0,0,-1,1112,925,0,0
-105,99,0,0,0,0,0,0,0,0,0,-1,1119,925,0,0
-98,99,0,0,0,0,0,0,0,0,0,-1,1126,925,0,0
-91,99,0,0,0,0,0,0,0,0,0,-1,1133,925,0,0
-84,99,0,0,0,0,0,0,0,0,0,-1,1140,925,0,0
-77,99,0,0,0,0,0,0,0,0,0,-1,1147,925,0,0
-70,99,0,0,0,0,0,0,0,0,0,-1,1154,925,0,0
-63,99,0,0,0,0,0,0,0,0,0,-1,1161,925,0,0
-56,99,0,0,0,0,0,0,0,0,0,-1,1168,925,0,0
-49,99,0,0,0,0,0,0,0,0,0,-1,1175,925,0,0
-42,99,0,0,0,0,0,0,0,0,0,-1,1182,925,0,0
-35,99,0,0,0,0,0,0,0,0,0,-1,1189,925,0,0
-28,99,0,0,0,0,0,0,0,0,0,-1,1196,925,0,0
-21,99,0,0,0,0,0,0,0,0,0,-1,1203,925,0,0
-14,99,0,0,0,0,0,0,0,0,0,-1,1210,925,0,0
-7,99,0,0,0,0,0,0,0,0,0,-1,1217,925,0,0
0,99,0,0,0,0,0,0,0,0,0,-1,1224,925,0,0
7,99,0,0,0,0,0,0,0,0,0,-1,1231,925,0,0
14,99,0,0,0,0,0,0,0,0,0,-1,1238,925,0,0
21,99,0,0,0,0,0,0,0,0,0,-1,1245,925,0,0
28,99,0,0,0,0,0,0,0,0,0,-1,1252,925,0,0
35,99,0,0,0,0,0,0,0,0,0,-1,1259,925,0,0
42,99,0,0,0,0,0,0,0,0,0,-1,1266,925,0,0
49,99,0,0,0,0,0,0,0,0,0,-1,1273,925,0,0
56,99,0,0,0,0,0,0,0,0,0,-1,1280,925,0,0
63,99,0,0,0,0,0,0,0,0,0,-1,1287,925,0,0
70,99,0,0,0,0,0,0,0,0,0,-1,1294,925,0,0
77,99,0,0,0,0,0,0,0,0,0,-1,1301,925,0,0
84,99,0,0,0,0,0,0,0,0,0,-1,1308,925,0,0
91,99,0,0,0,0,0,0,0,0,0,-1,1315,925,0,0
98,99,0,0,0,0,0,0,0,0,0,-1,1322,925,0,0
105,99,0,0,0,0,0,0,0,0,0,-1,1329,925,0,0
112,99,0,0,0,0,0,0,0,0,0,-1,1336,925,0,0
119,99,0,0,0,0,0,0,0,0,0,-1,1343,925,0,0
126,99,0,0,0,0,0,0,0,0,0,-1,1350,925,0,0
133,99,0,0,0,0,0,0,0,0,0,-1,1357,925,0,0
140,99,0,0,0,0,0,0,0,0,0,-1,1364,925,0,0
147,99,0,0,0,0,0,0,0,0,0,-1,1371,925,0,0
154,99,0,0,0,0,0,0,0,0,0,-1,1378,925,0,0
161,99,0,0,0,0,0,0,0,0,0,-1,1385,925,0,0
168,99,0,0,0,0,0,0,0,0,0,-1,1392,925,0,0
175,99,0,0,0,0,0,0,0,0,0,-1,1399,925,0,0
182,99,0,0,0,0,0,0,0,0,0,-1,1406,925,0,0
189,99,0,0,0,0,0,0,0,0,0,-1,1413,925,0,0
196,99,0,0,0,0,0,0,0,0,0,-1,1420,925,0,0
203,99,0,0,0,0,0,0,0,0,0,-1,1427,925,0,0
210,99,0,0,0,0,0,0,0,0,0,-1,1434,925,0,0
217,99,0,0,0,0,0,0,0,0,0,-1,1441,925,0,0
224,99,0,0,0,0,0,0,0,0,0,-1,1448,925,0,0
231,99,0,0,0,0,0,0,0,0,0,-1,1455,925,0,0
238,99,0,0,0,0,0,0,0,0,0,-1,1462,925,0,0
245,99,0,0,0,0,0,0,0,0,0,-1,1469,925,0,0
252,99,0,0,0,0,0,0,0,0,0,-1,1476,925,0,0
259,99,0,0,0,0,0,0,0,0,0,-1,1483,925,0,0
266,99,0,0,0,0,0,0,0,0,0,-1,1490,925,0,0
273,99,0,0,0,0,0,0,0,0,0,-1,1497,925,0,0
280,99,0,0,0,0,0,0,0,0,0,-1,1504,925,0,0
287,99,0,0,0,0,0,0,0,0,0,-1,1511,925,0,0
294,99,0,0,0,0,0,0,0,0,0,-1,1518,925,0,0
301,99,0,0,0,0,0,0,0,0,0,-1,1525,925,0,0
308,99,0,0,0,0,0,0,0,0,0,-1,1532,925,0,0
315,99,0,0,0,0,0,0,0,0,0,-1,1539,925,0,0
322,99,0,0,0,0,0,0,0,0,0,-1,1546,925,0,0
329,99,0,0,0,0,0,0,0,0,0,-1,1553,925,0,0
336,99,0,0,0,0,0,0,0,0,0,-1,1560,925,0,0
343,99,0,0,0,0,0,0,0,0,0,-1,1567,925,0,0
350,99,0,0,0,0,0,0,0,0,0,-1,1574,925,0,0
357,99,0,0,0,0,0,0,0,0,0,-1,1581,925,0,0
364,99,0,0,0,0,0,0,0,0,0,-1,1588,925,0,0
371,99,0,0,0,0,0,0,0,0,0,-1,1595,925,0,0
378,99,0,0,0,0,0,0,0,0,0,-1,1602,925,0,0
385,99,0,0,0,0,0,0,0,0,0,-1,1609,925,0,0
392,99,0,0,0,0,0,0,0,0,0,-1,1616,925,0,0
399,99,0,0,0,0,0,0,0,0,0,-1,1623,925,0,0
406,99,0,0,0,0,0,0,0,0,0,-1,1630,925,0,0
413,99,0,0,0,0,0,0,0,0,0,-1,1637,925,0,0
420,99,0,0,0,0,0,0,0,0,0,-1,1644,925,0,0
427,99,0,0,0,0,0,0,0,0,0,-1,1651,925,0,0
434,99,0,0,0,0,0,0,0,0,0,-1,1658,925,0,0
441,99,0,0,0,0,0,0,0,0,0,-1,1665,925,0,0
448,99,0,0,0,0,0,0,0,0,0,-1,1672,925,0,0
455,99,0,0,0,0,0,0,0,0,0,-1,1679,925,0,0
462,99,0,0,0,0,0,0,0,0,0,-1,1686,925,0,0
469,99,0,0,0,0,0,0,0,0,0,-1,1693,925,0,0
476,99,0,0,0,0,0,0,0,0,0,-1,1700,925,0,0
483,99,0,0,0,0,0,0,0,0,0,-1,1707,925,0,0
490,99,0,0,0,0,0,0,0,0,0,-1,1714,925,0,0
497,99,0,0,0,0,0,0,0,0,0,-1,1721,925,0,0
504,99,0,0,0,0,0,0,0,0,0,-1,1728,925,0,0
511,99,0,0,0,0,0,0,0,0,0,-1,1735,925,0,0
518,99,0,0,0,0,0,0,0,0,0,-1,1742,925,0,0
525,99,0,0,0,0,0,0,0,0,0,-1,1749,925,0,0
532,99,0,0,0,0,0,0,0,0,0,-1,1756,925,0,0
539,99,0,0,0,0,0,0,0,0,0,-1,1763,925,0,0
546,99,0,0,0,0,0,0,0,0,0,-1,1770,925,0,0
553,99,0,0,0,0,0,0,0,0,0,-1,1777,925,0,0
560,99,0,0,0,0,0,0,0,0,0,-1,1784,925,0,0
567,99,0,0,0,0,0,0,0,0,0,-1,1791,925,0,0
574,99,0,0,0,0,0,0,0,0,0,-1,1798,925,0,0
581,99,0,0,0,0,0,0,0,0,0,-1,1805,925,0,0
588,99,0,0,0,0,0,0,0,0,0,-1,1812,925,0,0
595,99,0,0,0,0,0,0,0,0,0,-1,1819,925,0,0
602,99,0,0,0,0,0,0,0,0,0,-1,1826,925,0,0
609,99,0,0,0,0,0,0,0,0,0,-1,1833,925,0,0
616,99,0,0,0,0,0,0,0,0,0,-1,1840,925,0,0
623,99,0,0,0,0,0,0,0,0,0,-1,1847,925,0,0
630,99,0,0,0,0,0,0,0,0,0,-1,1854,925,0,0
637,99,15.7202,2.45935,0.00314342,0.00695482,0.000163428,0.00696182,0.00313643,1.52802,0.00402596,0.0384571,1861,925,15.7202,-2.45934
644,99,15.7142,2.57251,0.00332456,0.00507633,-0.000145299,0.0050883,0.00331259,-1.4886,0.00298206,0.0368871,1868,925,15.7142,-2.57251
651,99,15.7693,2.51685,0.0018804,0.00379781,-0.000632193,0.00398749,0.00169073,-1.27931,0.00231103,0.0372916,1875,925,15.7693,-2.51687
658,99,15.9137,2.45776,-0.000474265,0.00294601,-0.00115178,0.00329771,-0.000825964,-1.27444,0.00251934,0.0403894,1882,925,15.9137,-2.45775
665,99,15.744,2.56567,-0.00280335,0.00234503,-0.00155523,0.00277837,-0.00323669,-1.29906,0.00347615,0.0416463,1889,925,15.7441,-2.56569
672,99,15.5892,2.61652,-0.00473886,0.00192542,-0.00179522,0.00237824,-0.00519168,-1.32371,0.00446998,0.0404091,1896,925,15.5892,-2.6165
679,99,15.7238,2.36023,-0.00617227,0.00159878,-0.00187957,0.00202952,-0.006603,-1.34552,0.00521193,0.0368405,1903,925,15.7238,-2.36022
686,99,15.7578,2.28448,-0.00710107,0.00130026,-0.00188557,0.00170405,-0.00750485,-1.35984,0.00565745,0.032435,1910,925,15.7578,-2.28447
693,99,15.6984,2.28369,-0.00764698,0.00114069,-0.00175874,0.00147961,-0.0079859,-1.38042,0.00587952,0.0281703,1917,925,15.6984,-2.2837
700,99,15.7039,2.33569,-0.00780339,0.0009874,-0.00153344,0.00124721,-0.0080632,-1.40296,0.0058358,0.0451066,1924,925,15.7039,-2.33568
707,99,14.4093,2.63641,0,0,0,0,0,0,0,-1,1931,925,14.4093,-2.63639
714,99,14.4281,2.73248,-0.00669444,0.000831555,-0.00137924,0.00107636,-0.00693925,-1.39514,0.00502354,0.0168594,1938,925,14.4281,-2.73248
721,99,14.3962,2.81061,-0.00561977,0.000941789,-0.00122514,0.00116308,-0.00584106,-1.3921,0.00433407,0.0178476,1945,925,14.3962,-2.81062
728,99,14.4286,2.93274,-0.00499859,0.00100203,-0.000440692,0.00103422,-0.00503078,-1.49788,0.00374649,0.0147579,1952,925,14.4286,-2.93271
735,99,14.443,3.03369,-0.00452845,0.0014511,0.000765796,0.00154761,-0.00462497,1.44542,0.00370844,0.0129964,1959,925,14.443,-3.03367
742,99,14.4377,3.12744,-0.00412379,0.00145374,0.00180795,0.00198852,-0.00465856,1.28321,0.00393954,0.0111637,1966,925,14.4377,-3.12747
749,99,14.4197,3.22351,-0.00390831,0.0056648,0.00213415,0.00611902,-0.00436253,1.36109,0.00607978,0.00976188,1973,925,14.4196,-3.22354
756,99,14.4033,3.29065,-0.00501734,0.00938532,0.00304408,0.0100023,-0.00563429,1.37083,0.00914443,0.0106973,1980,925,14.4033,-3.29066
763,99,14.4166,3.34955,-0.00752565,0.0151193,0.00421929,0.0158799,-0.00828626,1.39244,0.0141801,0.0128478,1987,925,14.4166,-3.34952
770,99,14.3224,3.41022,0,0,0,0,0,0,0,-1,1994,925,14.3224,-3.41019
777,99,13.6721,3.94379,-0.0155391,0.0349692,0.00626242,0.0357341,-0.016304,1.44926,0.0307344,0.039289,2001,925,13.6721,-3.9438
784,99,13.0537,4.8219,-0.0212639,0.0515326,0.00650371,0.0521091,-0.0218403,1.48239,0.0438707,0.0408826,2008,925,13.0537,-4.82193
791,99,12.6301,5.9895,-0.0282814,0.0746631,0.00536902,0.0749424,-0.0285607,1.51883,0.0617251,0.0466301,2015,925,12.6301,-5.98948
798,99,12.2131,7.10724,-0.0369249,0.106795,0.00183955,0.106818,-0.0369485,1.558,0.0862093,0.0499005,2022,925,12.2132,-7.10725
805,99,0,0,0,0,0,0,0,0,0,-1,2029,925,0,0
812,99,0,0,0,0,0,0,0,0,0,-1,2036,925,0,0
-700,92,0,0,0,0,0,0,0,0,0,-1,524,932,0,0
-693,92,0,0,0,0,0,0,0,0,0,-1,531,932,0,0
-686,92,-13.3599,3.50909,0,0,0,0,0,0,0,-1,538,932,-13.3598,-3.50909
-679,92,-12.1569,2.95032,0.156025,-0.0469153,-0.0312303,0.160723,-0.0516126,-0.149289,0.127873,0.0468557,545,932,-12.1569,-2.95029
-672,92,-10.9595,2.37256,0.128455,-0.0399392,-0.023885,0.131777,-0.0432615,-0.138209,0.105278,0.044204,552,932,-10.9595,-2.37253
-665,92,-9.71613,1.82373,0.10268,-0.0329463,-0.0175851,0.104923,-0.0351893,-0.126865,0.084167,0.0427774,559,932,-9.71615,-1.82374
-658,92,-8.25299,1.03424,0.0795626,-0.0263294,-0.0123739,0.0809893,-0.0277561,-0.114794,0.0652435,0.0448699,566,932,-8.25297,-1.03427
-651,92,-10.3907,-0.4422,0,0,0,0,0,0,0,-1,573,932,-10.3907,0.442212
-644,92,-9.02026,1.40991,0.042721,-0.0151035,-0.00499045,0.0431486,-0.015531,-0.0854613,0.0351071,0.0425277,580,932,-9.02025,-1.40989
-637,92,-9.01422,1.31598,0.0292829,-0.0108836,-0.0026296,0.0294543,-0.0110551,-0.0650971,0.0241789,0.0234842,587,932,-9.01425,-1.31595
-630,92,-9.0603,1.22595,0.018221,-0.00734601,-0.000850738,0.0182492,-0.00737429,-0.0332259,0.0152314,0.0110659,594,932,-9.06032,-1.22596
-623,92,-9.08093,1.15814,0.00882022,-0.00422938,0.000498144,0.00883921,-0.00424836,0.0380992,0.00770951,0.00726877,601,932,-9.08095,-1.15816
-616,92,-9.10065,1.08148,0.00210055,-0.002121,0.000898327,0.00228376,-0.00230421,0.201186,0.00264887,0.00699826,608,932,-9.10062,-1.08148
-609,92,-9.10895,1.01721,-0.00285586,-0.000753983,0.00156671,8.16253e-05,-0.00369147,1.08082,0.00248863,0.00742199,615,932,-9.10894,-1.0172
-602,92,-9.09839,0.943298,-0.0049068,6.68905e-05,0.00107159,0.000287941,-0.00512785,1.36737,0.00351848,0.00776205,622,932,-9.09842,-0.943319
-595,92,-9.07806,0.854675,-0.00550674,8.62877e-05,0.000782128,0.000193601,-0.00561405,1.43444,0.00380887,0.0133343,629,932,-9.07803,-0.854705
-588,92,-9.0741,0.79895,-0.00612615,0.00015182,0.000586086,0.000206067,-0.00618039,1.4785,0.00419064,0.0152096,636,932,-9.07412,-0.798972
-581,92,-9.07007,0.728149,-0.00655955,0.000297111,0.000397987,0.000320134,-0.00658257,1.51301,0.00449889,0.0124597,643,932,-9.07009,-0.728149
-574,92,-9.23376,0.662964,-0.00661811,0.000400716,0.000206337,0.000406776,-0.00662418,1.54143,0.00455776,0.0178463,650,932,-9.23376,-0.662952
-567,92,-9.58246,0.52417,-0.00646092,0.000504656,8.55634e-05,0.000505707,-0.00646197,1.55852,0.00448606,0.0326886,657,932,-9.58247,-0.524189
-560,92,-9.73206,0.484253,-0.00606599,0.000693154,2.47994e-05,0.000693245,-0.00606608,1.56713,0.00429383,0.0328394,664,932,-9.73207,-0.484249
-553,92,-9.75122,0.373901,-0.00523482,0.000942464,-9.41985e-05,0.000943901,-0.00523626,-1.55555,0.00384429,0.0357167,671,932,-9.75125,-0.373926
-546,92,-9.6228,0.411255,-0.00395723,0.00119585,-0.000221534,0.00120536,-0.00396674,-1.52791,0.00312476,0.0376655,678,932,-9.62283,-0.411281
-539,92,-9.60126,0.545471,-0.00225341,0.0014597,-0.000328063,0.00148846,-0.00228217,-1.48335,0.002193,0.0361555,685,932,-9.60128,-0.54548
-532,92,-9.66125,0.571533,-0.00020452,0.00171686,-0.000378252,0.00178865,-0.000276303,-1.38325,0.0012944,0.0389967,692,932,-9.66123,-0.571533
-525,92,-9.87653,0.581848,0.00196101,0.00196568,-0.000375148,0.0023385,0.00158819,-0.788507,0.00137872,0.0366715,699,932,-9.87654,-0.581869
-518,92,-9.80328,0.61084,0.00319925,0.0022112,-9.63056e-05,0.00320855,0.0022019,-0.0962629,0.00189482,0.0352685,706,932,-9.80326,-0.610866
-511,92,0,0,0,0,0,0,0,0,0,-1,713,932,0,0
-504,92,0,0,0,0,0,0,0,0,0,-1,720,932,0,0
-497,92,0,0,0,0,0,0,0,0,0,-1,727,932,0,0
-490,92,0,0,0,0,0,0,0,0,0,-1,734,932,0,0
-483,92,0,0,0,0,0,0,0,0,0,-1,741,932,0,0
-476,92,0,0,0,0,0,0,0,0,0,-1,748,932,0,0
-469,92,0,0,0,0,0,0,0,0,0,-1,755,932,0,0
-462,92,0,0,0,0,0,0,0,0,0,-1,762,932,0,0
-455,92,0,0,0,0,0,0,0,0,0,-1,769,932,0,0
-448,92,0,0,0,0,0,0,0,0,0,-1,776,932,0,0
-441,92,0,0,0,0,0,0,0,0,0,-1,783,932,0,0
-434,92,0,0,0,0,0,0,0,0,0,-1,790,932,0,0
-427,92,0,0,0,0,0,0,0,0,0,-1,797,932,0,0
-420,92,0,0,0,0,0,0,0,0,0,-1,804,932,0,0
-413,92,0,0,0,0,0,0,0,0,0,-1,811,932,0,0
-406,92,0,0,0,0,0,0,0,0,0,-1,818,932,0,0
-399,92,0,0,0,0,0,0,0,0,0,-1,825,932,0,0
-392,92,0,0,0,0,0,0,0,0,0,-1,832,932,0,0
-385,92,0,0,0,0,0,0,0,0,0,-1,839,932,0,0
-378,92,0,0,0,0,0,0,0,0,0,-1,846,932,0,0
-371,92,0,0,0,0,0,0,0,0,0,-1,853,932,0,0
-364,92,0,0,0,0,0,0,0,0,0,-1,860,932,0,0
-357,92,0,0,0,0,0,0,0,0,0,-1,867,932,0,0
-350,92,0,0,0,0,0,0,0,0,0,-1,874,932,0,0
-343,92,0,0,0,0,0,0,0,0,0,-1,881,932,0,0
-336,92,0,0,0,0,0,0,0,0,0,-1,888,932,0,0
-329,92,0,0,0,0,0,0,0,0,0,-1,895,932,0,0
-322,92,0,0,0,0,0,0,0,0,0,-1,902,932,0,0
-315,92,0,0,0,0,0,0,0,0,0,-1,909,932,0,0
-308,92,0,0,0,0,0,0,0,0,0,-1,916,932,0,0
-301,92,0,0,0,0,0,0,0,0,0,-1,923,932,0,0
-294,92,0,0,0,0,0,0,0,0,0,-1,930,932,0,0
-287,92,0,0,0,0,0,0,0,0,0,-1,937,932,0,0
-280,92,0,0,0,0,0,0,0,0,0,-1,944,932,0,0
-273,92,0,0,0,0,0,0,0,0,0,-1,951,932,0,0
-266,92,0,0,0,0,0,0,0,0,0,-1,958,932,0,0
-259,92,0,0,0,0,0,0,0,0,0,-1,965,932,0,0
-252,92,0,0,0,0,0,0,0,0,0,-1,972,932,0,0
-245,92,0,0,0,0,0,0,0,0,0,-1,979,932,0,0
-238,92,0,0,0,0,0,0,0,0,0,-1,986,932,0,0
-231,92,0,0,0,0,0,0,0,0,0,-1,993,932,0,0
-224,92,0,0,0,0,0,0,0,0,0,-1,1000,932,0,0
-217,92,0,0,0,0,0,0,0,0,0,-1,1007,932,0,0
-210,92,0,0,0,0,0,0,0,0,0,-1,1014,932,0,0
-203,92,0,0,0,0,0,0,0,0,0,-1,1021,932,0,0
-196,92,0,0,0,0,0,0,0,0,0,-1,1028,932,0,0
-189,92,0,0,0,0,0,0,0,0,0,-1,1035,932,0,0
-182,92,0,0,0,0,0,0,0,0,0,-1,1042,932,0,0
-175,92,0,0,0,0,0,0,0,0,0,-1,1049,932,0,0
-168,92,0,0,0,0,0,0,0,0,0,-1,1056,932,0,0
-161,92,0,0,0,0,0,0,0,0,0,-1,1063,932,0,0
-154,92,0,0,0,0,0,0,0,0,0,-1,1070,932,0,0
-147,92,0,0,0,0,0,0,0,0,0,-1,1077,932,0,0
-140,92,0,0,0,0,0,0,0,0,0,-1,1084,932,0,0
-133,92,0,0,0,0,0,0,0,0,0,-1,1091,932,0,0
-126,92,0,0,0,0,0,0,0,0,0,-1,1098,932,0,0
-119,92,0,0,0,0,0,0,0,0,0,-1,1105,932,0,0
-112,92,0,0,0,0,0,0,0,0,0,-1,1112,932,0,0
-105,92,0,0,0,0,0,0,0,0,0,-1,1119,932,0,0
-98,92,0,0,0,0,0,0,0,0,0,-1,1126,932,0,0
-91,92,0,0,0,0,0,0,0,0,0,-1,1133,932,0,0
-84,92,0,0,0,0,0,0,0,0,0,-1,1140,932,0,0
-77,92,0,0,0,0,0,0,0,0,0,-1,1147,932,0,0
-70,92,0,0,0,0,0,0,0,0,0,-1,1154,932,0,0
-63,92,0,0,0,0,0,0,0,0,0,-1,1161,932,0,0
-56,92,0,0,0,0,0,0,0,0,0,-1,1168,932,0,0
-49,92,0,0,0,0,0,0,0,0,0,-1,1175,932,0,0
-42,92,0,0,0,0,0,0,0,0,0,-1,1182,932,0,0
-35,92,0,0,0,0,0,0,0,0,0,-1,1189,932,0,0
-28,92,0,0,0,0,0,0,0,0,0,-1,1196,932,0,0
-21,92,0,0,0,0,0,0,0,0,0,-1,1203,932,0,0
-14,92,0,0,0,0,0,0,0,0,0,-1,1210,932,0,0
-7,92,0,0,0,0,0,0,0,0,0,-1,1217,932,0,0
0,92,0,0,0,0,0,0,0,0,0,-1,1224,932,0,0
7,92,0,0,0,0,0,0,0,0,0,-1,1231,932,0,0
14,92,0,0,0,0,0,0,0,0,0,-1,1238,932,0,0
21,92,0,0,0,0,0,0,0,0,0,-1,1245,932,0,0
28,92,0,0,0,0,0,0,0,0,0,-1,1252,932,0,0
35,92,0,0,0,0,0,0,0,0,0,-1,1259,932,0,0
42,92,0,0,0,0,0,0,0,0,0,-1,1266,932,0,0
49,92,0,0,0,0,0,0,0,0,0,-1,1273,932,0,0
56,92,0,0,0,0,0,0,0,0,0,-1,1280,932,0,0
63,92,0,0,0,0,0,0,0,0,0,-1,1287,932,0,0
70,92,0,0,0,0,0,0,0,0,0,-1,1294,932,0,0
77,92,0,0,0,0,0,0,0,0,0,-1,1301,932,0,0
84,92,0,0,0,0,0,0,0,0,0,-1,1308,932,0,0
91,92,0,0,0,0,0,0,0,0,0,-1,1315,932,0,0
98,92,0,0,0,0,0,0,0,0,0,-1,1322,932,0,0
105,92,0,0,0,0,0,0,0,0,0,-1,1329,932,0,0
112,92,0,0,0,0,0,0,0,0,0,-1,1336,932,0,0
119,92,0,0,0,0,0,0,0,0,0,-1,1343,932,0,0
126,92,0,0,0,0,0,0,0,0,0,-1,1350,932,0,0
133,92,0,0,0,0,0,0,0,0,0,-1,1357,932,0,0
140,92,0,0,0,0,0,0,0,0,0,-1,1364,932,0,0
147,92,0,0,0,0,0,0,0,0,0,-1,1371,932,0,0
154,92,0,0,0,0,0,0,0,0,0,-1,1378,932,0,0
161,92,0,0,0,0,0,0,0,0,0,-1,1385,932,0,0
168,92,0,0,0,0,0,0,0,0,0,-1,1392,932,0,0
175,92,0,0,0,0,0,0,0,0,0,-1,1399,932,0,0
182,92,0,0,0,0,0,0,0,0,0,-1,1406,932,0,0
189,92,0,0,0,0,0,0,0,0,0,-1,1413,932,0,0
196,92,0,0,0,0,0,0,0,0,0,-1,1420,932,0,0
203,92,0,0,0,0,0,0,0,0,0,-1,1427,932,0,0
210,92,0,0,0,0,0,0,0,0,0,-1,1434,932,0,0
217,92,0,0,0,0,0,0,0,0,0,-1,1441,932,0,0
224,92,0,0,0,0,0,0,0,0,0,-1,1448,932,0,0
231,92,0,0,0,0,0,0,0,0,0,-1,1455,932,0,0
238,92,0,0,0,0,0,0,0,0,0,-1,1462,932,0,0
245,92,0,0,0,0,0,0,0,0,0,-1,1469,932,0,0
252,92,0,0,0,0,0,0,0,0,0,-1,1476,932,0,0
259,92,0,0,0,0,0,0,0,0,0,-1,1483,932,0,0
266,92,0,0,0,0,0,0,0,0,0,-1,1490,932,0,0
273,92,0,0,0,0,0,0,0,0,0,-1,1497,932,0,0
280,92,0,0,0,0,0,0,0,0,0,-1,1504,932,0,0
287,92,0,0,0,0,0,0,0,0,0,-1,1511,932,0,0
294,92,0,0,0,0,0,0,0,0,0,-1,1518,932,0,0
301,92,0,0,0,0,0,0,0,0,0,-1,1525,932,0,0
308,92,0,0,0,0,0,0,0,0,0,-1,1532,932,0,0
315,92,0,0,0,0,0,0,0,0,0,-1,1539,932,0,0
322,92,0,0,0,0,0,0,0,0,0,-1,1546,932,0,0
329,92,0,0,0,0,0,0,0,0,0,-1,1553,932,0,0
336,92,0,0,0,0,0,0,0,0,0,-1,1560,932,0,0
343,92,0,0,0,0,0,0,0,0,0,-1,1567,932,0,0
350,92,0,0,0,0,0,0,0,0,0,-1,1574,932,0,0
357,92,0,0,0,0,0,0,0,0,0,-1,1581,932,0,0
364,92,0,0,0,0,0,0,0,0,0,-1,1588,932,0,0
371,92,0,0,0,0,0,0,0,0,0,-1,1595,932,0,0
378,92,0,0,0,0,0,0,0,0,0,-1,1602,932,0,0
385,92,0,0,0,0,0,0,0,0,0,-1,1609,932,0,0
392,92,0,0,0,0,0,0,0,0,0,-1,1616,932,0,0
399,92,0,0,0,0,0,0,0,0,0,-1,1623,932,0,0
406,92,0,0,0,0,0,0,0,0,0,-1,1630,932,0,0
413,92,0,0,0,0,0,0,0,0,0,-1,1637,932,0,0
420,92,0,0,0,0,0,0,0,0,0,-1,1644,932,0,0
427,92,0,0,0,0,0,0,0,0,0,-1,1651,932,0,0
434,92,0,0,0,0,0,0,0,0,0,-1,1658,932,0,0
441,92,0,0,0,0,0,0,0,0,0,-1,1665,932,0,0
448,92,0,0,0,0,0,0,0,0,0,-1,1672,932,0,0
455,92,0,0,0,0,0,0,0,0,0,-1,1679,932,0,0
462,92,0,0,0,0,0,0,0,0,0,-1,1686,932,0,0
469,92,0,0,0,0,0,0,0,0,0,-1,1693,932,0,0
476,92,0,0,0,0,0,0,0,0,0,-1,1700,932,0,0
483,92,0,0,0,0,0,0,0,0,0,-1,1707,932,0,0
490,92,0,0,0,0,0,0,0,0,0,-1,1714,932,0,0
497,92,0,0,0,0,0,0,0,0,0,-1,1721,932,0,0
504,92,0,0,0,0,0,0,0,0,0,-1,1728,932,0,0
511,92,0,0,0,0,0,0,0,0,0,-1,1735,932,0,0
518,92,0,0,0,0,0,0,0,0,0,-1,1742,932,0,0
525,92,0,0,0,0,0,0,0,0,0,-1,1749,932,0,0
532,92,0,0,0,0,0,0,0,0,0,-1,1756,932,0,0
539,92,0,0,0,0,0,0,0,0,0,-1,1763,932,0,0
546,92,0,0,0,0,0,0,0,0,0,-1,1770,932,0,0
553,92,0,0,0,0,0,0,0,0,0,-1,1777,932,0,0
560,92,0,0,0,0,0,0,0,0,0,-1,1784,932,0,0
567,92,0,0,0,0,0,0,0,0,0,-1,1791,932,0,0
574,92,0,0,0,0,0,0,0,0,0,-1,1798,932,0,0
581,92,0,0,0,0,0,0,0,0,0,-1,1805,932,0,0
588,92,0,0,0,0,0,0,0,0,0,-1,1812,932,0,0
595,92,0,0,0,0,0,0,0,0,0,-1,1819,932,0,0
602,92,0,0,0,0,0,0,0,0,0,-1,1826,932,0,0
609,92,0,0,0,0,0,0,0,0,0,-1,1833,932,0,0
616,92,0,0,0,0,0,0,0,0,0,-1,1840,932,0,0
623,92,0,0,0,0,0,0,0,0,0,-1,1847,932,0,0
630,92,0,0,0,0,0,0,0,0,0,-1,1854,932,0,0
637,92,15.627,2.44293,0.00331865,0.00696125,0.000420494,0.00700916,0.00327074,1.45735,0.00404974,0.0430291,1861,932,15.6269,-2.44295
644,92,15.7787,2.43475,0.00340637,0.00515316,7.44738e-05,0.00515633,0.0034032,1.52826,0.00302739,0.0376606,1868,932,15.7787,-2.43475
651,92,15.9103,2.38428,0.00224919,0.00390106,-0.000358316,0.00397544,0.00217482,-1.36613,0.00229861,0.0372521,1875,932,15.9103,-2.3843
658,92,15.765,2.54352,0.000231895,0.00305526,-0.00080549,0.00326889,1.82581e-05,-1.31154,0.0021732,0.0412649,1882,932,15.765,-2.54349
665,92,15.4814,2.65906,-0.00183566,0.00245531,-0.00113431,0.00273671,-0.00211706,-1.32763,0.00280993,0.0422152,1889,932,15.4815,-2.65905
672,92,15.472,2.59839,-0.0036083,0.00201962,-0.00129807,0.00230459,-0.00389327,-1.35469,0.00361731,0.0396474,1896,932,15.4721,-2.59837
679,92,15.6656,2.45605,-0.00496356,0.00168758,-0.00131979,0.0019399,-0.00521587,-1.3819,0.00427327,0.0350032,1903,932,15.6657,-2.45604
686,92,15.7244,2.28577,-0.00586222,0.00138964,-0.00128584,0.00161088,-0.00608347,-1.4004,0.00468583,0.0296868,1910,932,15.7243,-2.28579
693,92,15.6996,2.38684,-0.00642188,0.00120059,-0.00112855,0.00136417,-0.00658545,-1.42685,0.00490862,0.0265657,1917,932,15.6996,-2.38684
700,92,15.702,2.35742,-0.00666272,0.00102421,-0.00090116,0.00112844,-0.00676695,-1.45564,0.00493068,0.0396966,1924,932,15.702,-2.35744
707,92,14.6573,2.68951,0,0,0,0,0,0,0,-1,1931,932,14.6573,-2.68954
714,92,14.4723,2.77869,-0.00587013,0.000863248,-0.00084245,0.000967051,-0.00597393,-1.4482,0.00434102,0.0305932,1938,932,14.4722,-2.77869
721,92,14.5468,2.86255,-0.00500633,0.000947651,-0.000733361,0.00103665,-0.00509533,-1.45003,0.00378999,0.0215041,1945,932,14.5467,-2.86255
728,92,14.5161,2.97955,-0.00458275,0.000988536,-3.57728e-05,0.000988766,-0.00458298,-1.56438,0.00343271,0.0164569,1952,932,14.5162,-2.97958
735,92,14.5333,3.05603,-0.00427374,0.00139585,0.000975998,0.00155916,-0.00443705,1.40501,0.00359237,0.0148413,1959,932,14.5334,-3.05604
742,92,14.5597,3.11273,-0.0040839,0.00145021,0.0016774,0.00191893,-0.00455262,1.29831,0.0038381,0.0149398,1966,932,14.5597,-3.11275
749,92,14.5145,3.20923,-0.00405626,0.00546437,0.00161426,0.00573063,-0.00432252,1.40733,0.00582314,0.0134059,1973,932,14.5145,-3.20922
756,92,14.4874,3.30408,-0.00516129,0.00903079,0.00202049,0.00931284,-0.00544334,1.4321,0.00861657,0.0137804,1980,932,14.4875,-3.30407
763,92,14.5291,3.36182,-0.00757393,0.0145077,0.00254254,0.0147967,-0.00786291,1.45763,0.0132851,0.0161654,1987,932,14.529,-3.36179
770,92,14.5331,3.46118,-0.011097,0.0223459,0.00290584,0.0225965,-0.0113476,1.48477,0.0199531,0.024249,1994,932,14.5331,-3.4612
777,92,13.7103,4.06396,0,0,0,0,0,0,0,-1,2001,932,13.7103,-4.06398
784,92,13.4977,4.76099,-0.0216814,0.0487237,0.00167713,0.0487636,-0.0217213,1.54699,0.0416809,0.0447093,2008,932,13.4977,-4.761
791,92,12.8824,6.07684,-0.0291535,0.0699762,-0.0010658,0.0699876,-0.0291649,-1.56005,0.0588408,0.0448567,2015,932,12.8824,-6.07685
798,92,13.3978,3.74127,-0.0385748,0.0990927,-0.00648945,0.0993979,-0.03888,-1.5238,0.082344,0.0420238,2022,932,13.3978,-3.74127
805,92,0,0,0,0,0,0,0,0,0,-1,2029,932,0,0
812,92,0,0,0,0,0,0,0,0,0,-1,2036,932,0,0
-700,85,0,0,0,0,0,0,0,0,0,-1,524,939,0,0
-693,85,0,0,0,0,0,0,0,0,0,-1,531,939,0,0
-686,85,-12.9429,3.85596,0,0,0,0,0,0,0,-1,538,939,-12.9429,-3.85595
-679,85,-11.7903,3.38934,0.154156,-0.0328718,-0.0401571,0.162414,-0.0411294,-0.202806,0.124275,0.0477854,545,939,-11.7903,-3.38937
-672,85,-11.2365,2.98743,0.128267,-0.0289443,-0.0314221,0.134315,-0.034992,-0.190142,0.103204,0.043652,552,939,-11.2365,-2.98745
-665,85,-9.82306,2.17896,0.10362,-0.024588,-0.0237849,0.107891,-0.0288583,-0.177645,0.0832313,0.0424063,559,939,-9.82307,-2.17895
-658,85,-8.48718,1.75574,0.0810832,-0.0201277,-0.0173308,0.0839686,-0.0230131,-0.164975,0.0650221,0.0476361,566,939,-8.4872,-1.75573
-651,85,-7.25,1.18365,0,0,0,0,0,0,0,-1,573,939,-7.25,-1.18363
-644,85,-9.16876,1.28052,0.044255,-0.0118773,-0.00791387,0.0453494,-0.0129717,-0.137418,0.0353591,0.0341343,580,939,-9.16874,-1.28055
-637,85,-9.12512,1.25751,0.0306026,-0.00878897,-0.00468864,0.031153,-0.00933935,-0.116852,0.024483,0.0175049,587,939,-9.12514,-1.25748
-630,85,-9.15228,1.19446,0.0191366,-0.00599943,-0.00227535,0.0193409,-0.00620373,-0.0895515,0.0153846,0.0107297,594,939,-9.15226,-1.19449
-623,85,-9.15735,1.13202,0.00947176,-0.00339318,-0.00042048,0.00948549,-0.0034069,-0.0326378,0.00771428,0.00894975,601,939,-9.15736,-1.13204
-616,85,-9.15253,1.06445,0.00255805,-0.00155513,0.000169413,0.00256501,-0.0015621,0.041095,0.00240613,0.00879123,608,939,-9.15254,-1.06447
-609,85,-9.16791,1.01184,-0.00252474,-0.000377712,0.000934601,-2.78808e-05,-0.00287457,1.21263,0.00190715,0.0104035,615,939,-9.16793,-1.01184
-602,85,-9.17584,0.947388,-0.00465301,0.000273239,0.00060392,0.000346194,-0.00472596,1.45058,0.00327215,0.0137974,622,939,-9.17586,-0.947375
-595,85,-9.15936,0.880615,-0.00530424,0.000218853,0.00041052,0.000249199,-0.00533459,1.49701,0.0036423,0.0146665,629,939,-9.15935,-0.880622
-588,85,-9.16602,0.809875,-0.00592134,0.00024211,0.000247581,0.000252039,-0.00593127,1.53071,0.00404082,0.0141464,636,939,-9.16601,-0.809854
-581,85,-9.16077,0.730225,-0.00634265,0.000359394,7.70034e-05,0.000360279,-0.00634353,1.55931,0.00435408,0.0143477,643,939,-9.1608,-0.730254
-574,85,-9.32941,0.672119,-0.00638909,0.000447855,-9.40876e-05,0.000449149,-0.00639038,-1.55704,0.00441759,0.0227943,650,939,-9.32939,-0.672125
-567,85,-9.67712,0.62915,-0.00620287,0.00053516,-0.000220778,0.000542386,-0.0062101,-1.53808,0.00433219,0.0323096,657,939,-9.67714,-0.629159
-560,85,-9.73315,0.493713,-0.00570483,0.000700464,-0.000292301,0.000713776,-0.00571814,-1.52529,0.00407093,0.0334888,664,939,-9.73315,-0.493698
-553,85,-9.62781,0.426697,-0.00472918,0.000878298,-0.000412442,0.000908472,-0.00475936,-1.49777,0.00351508,0.0396673,671,939,-9.6278,-0.426687
-546,85,-9.6261,0.544128,-0.00326517,0.00105698,-0.000535998,0.00112246,-0.00333064,-1.44924,0.00267429,0.0412971,678,939,-9.6261,-0.544114
-539,85,-9.6792,0.589661,-0.00132653,0.00121107,-0.000639147,0.00136296,-0.00147842,-1.33748,0.00164093,0.0376869,685,939,-9.67918,-0.589675
-532,85,-9.66766,0.689941,0.00100606,0.00131056,-0.000700768,0.00187543,0.000441197,-0.892367,0.00113225,0.0367298,692,939,-9.66768,-0.689929
-525,85,-9.67902,0.557373,0.00341863,0.00134212,-0.000734517,0.00365218,0.00110857,-0.307855,0.00216216,0.0352668,699,939,-9.679,-0.557349
-518,85,-9.65625,0.510315,0.00477377,0.00126554,-0.000515842,0.00484804,0.00119127,-0.143007,0.00291718,0.0359686,706,939,-9.65624,-0.510339
-511,85,0,0,0,0,0,0,0,0,0,-1,713,939,0,0
-504,85,0,0,0,0,0,0,0,0,0,-1,720,939,0,0
-497,85,0,0,0,0,0,0,0,0,0,-1,727,939,0,0
-490,85,0,0,0,0,0,0,0,0,0,-1,734,939,0,0
-483,85,0,0,0,0,0,0,0,0,0,-1,741,939,0,0
-476,85,0,0,0,0,0,0,0,0,0,-1,748,939,0,0
-469,85,0,0,0,0,0,0,0,0,0,-1,755,939,0,0
-462,85,0,0,0,0,0,0,0,0,0,-1,762,939,0,0
-455,85,0,0,0,0,0,0,0,0,0,-1,769,939,0,0
-448,85,0,0,0,0,0,0,0,0,0,-1,776,939,0,0
-441,85,0,0,0,0,0,0,0,0,0,-1,783,939,0,0
-434,85,0,0,0,0,0,0,0,0,0,-1,790,939,0,0
-427,85,0,0,0,0,0,0,0,0,0,-1,797,939,0,0
-420,85,0,0,0,0,0,0,0,0,0,-1,804,939,0,0
-413,85,0,0,0,0,0,0,0,0,0,-1,811,939,0,0
-406,85,0,0,0,0,0,0,0,0,0,-1,818,939,0,0
-399,85,0,0,0,0,0,0,0,0,0,-1,825,939,0,0
-392,85,0,0,0,0,0,0,0,0,0,-1,832,939,0,0
-385,85,0,0,0,0,0,0,0,0,0,-1,839,939,0,0
-378,85,0,0,0,0,0,0,0,0,0,-1,846,939,0,0
-371,85,0,0,0,0,0,0,0,0,0,-1,853,939,0,0
-364,85,0,0,0,0,0,0,0,0,0,-1,860,939,0,0
-357,85,0,0,0,0,0,0,0,0,0,-1,867,939,0,0
-350,85,0,0,0,0,0,0,0,0,0,-1,874,939,0,0
-343,85,0,0,0,0,0,0,0,0,0,-1,881,939,0,0
-336,85,0,0,0,0,0,0,0,0,0,-1,888,939,0,0
-329,85,0,0,0,0,0,0,0,0,0,-1,895,939,0,0
-322,85,0,0,0,0,0,0,0,0,0,-1,902,939,0,0
-315,85,0,0,0,0,0,0,0,0,0,-1,909,939,0,0
-308,85,0,0,0,0,0,0,0,0,0,-1,916,939,0,0
-301,85,0,0,0,0,0,0,0,0,0,-1,923,939,0,0
-294,85,0,0,0,0,0,0,0,0,0,-1,930,939,0,0
-287,85,0,0,0,0,0,0,0,0,0,-1,937,939,0,0
-280,85,0,0,0,0,0,0,0,0,0,-1,944,939,0,0
-273,85,0,0,0,0,0,0,0,0,0,-1,951,939,0,0
-266,85,0,0,0,0,0,0,0,0,0,-1,958,939,0,0
-259,85,0,0,0,0,0,0,0,0,0,-1,965,939,0,0
-252,85,0,0,0,0,0,0,0,0,0,-1,972,939,0,0
-245,85,0,0,0,0,0,0,0,0,0,-1,979,939,0,0
-238,85,0,0,0,0,0,0,0,0,0,-1,986,939,0,0
-231,85,0,0,0,0,0,0,0,0,0,-1,993,939,0,0
-224,85,0,0,0,0,0,0,0,0,0,-1,1000,939,0,0
-217,85,0,0,0,0,0,0,0,0,0,-1,1007,939,0,0
-210,85,0,0,0,0,0,0,0,0,0,-1,1014,939,0,0
-203,85,0,0,0,0,0,0,0,0,0,-1,1021,939,0,0
-196,85,0,0,0,0,0,0,0,0,0,-1,1028,939,0,0
-189,85,0,0,0,0,0,0,0,0,0,-1,1035,939,0,0
-182,85,0,0,0,0,0,0,0,0,0,-1,1042,939,0,0
-175,85,0,0,0,0,0,0,0,0,0,-1,1049,939,0,0
-168,85,0,0,0,0,0,0,0,0,0,-1,1056,939,0,0
-161,85,0,0,0,0,0,0,0,0,0,-1,1063,939,0,0
-154,85,0,0,0,0,0,0,0,0,0,-1,1070,939,0,0
-147,85,0,0,0,0,0,0,0,0,0,-1,1077,939,0,0
-140,85,0,0,0,0,0,0,0,0,0,-1,1084,939,0,0
-133,85,0,0,0,0,0,0,0,0,0,-1,1091,939,0,0
-126,85,0,0,0,0,0,0,0,0,0,-1,1098,939,0,0
-119,85,0,0,0,0,0,0,0,0,0,-1,1105,939,0,0
-112,85,0,0,0,0,0,0,0,0,0,-1,1112,939,0,0
-105,85,0,0,0,0,0,0,0,0,0,-1,1119,939,0,0
-98,85,0,0,0,0,0,0,0,0,0,-1,1126,939,0,0
-91,85,0,0,0,0,0,0,0,0,0,-1,1133,939,0,0
-84,85,0,0,0,0,0,0,0,0,0,-1,1140,939,0,0
-77,85,0,0,0,0,0,0,0,0,0,-1,1147,939,0,0
-70,85,0,0,0,0,0,0,0,0,0,-1,1154,939,0,0
-63,85,0,0,0,0,0,0,0,0,0,-1,1161,939,0,0
-56,85,0,0,0,0,0,0,0,0,0,-1,1168,939,0,0
-49,85,0,0,0,0,0,0,0,0,0,-1,1175,939,0,0
-42,85,0,0,0,0,0,0,0,0,0,-1,1182,939,0,0
-35,85,0,0,0,0,0,0,0,0,0,-1,1189,939,0,0
-28,85,0,0,0,0,0,0,0,0,0,-1,1196,939,0,0
-21,85,0,0,0,0,0,0,0,0,0,-1,1203,939,0,0
-14,85,0,0,0,0,0,0,0,0,0,-1,1210,939,0,0
-7,85,0,0,0,0,0,0,0,0,0,-1,1217,939,0,0
0,85,0,0,0,0,0,0,0,0,0,-1,1224,939,0,0
7,85,0,0,0,0,0,0,0,0,0,-1,1231,939,0,0
14,85,0,0,0,0,0,0,0,0,0,-1,1238,939,0,0
21,85,0,0,0,0,0,0,0,0,0,-1,1245,939,0,0
28,85,0,0,0,0,0,0,0,0,0,-1,1252,939,0,0
35,85,0,0,0,0,0,0,0,0,0,-1,1259,939,0,0
42,85,0,0,0,0,0,0,0,0,0,-1,1266,939,0,0
49,85,0,0,0,0,0,0,0,0,0,-1,1273,939,0,0
56,85,0,0,0,0,0,0,0,0,0,-1,1280,939,0,0
63,85,0,0,0,0,0,0,0,0,0,-1,1287,939,0,0
70,85,0,0,0,0,0,0,0,0,0,-1,1294,939,0,0
77,85,0,0,0,0,0,0,0,0,0,-1,1301,939,0,0
84,85,0,0,0,0,0,0,0,0,0,-1,1308,939,0,0
91,85,0,0,0,0,0,0,0,0,0,-1,1315,939,0,0
98,85,0,0,0,0,0,0,0,0,0,-1,1322,939,0,0
105,85,0,0,0,0,0,0,0,0,0,-1,1329,939,0,0
112,85,0,0,0,0,0,0,0,0,0,-1,1336,939,0,0
119,85,0,0,0,0,0,0,0,0,0,-1,1343,939,0,0
126,85,0,0,0,0,0,0,0,0,0,-1,1350,939,0,0
133,85,0,0,0,0,0,0,0,0,0,-1,1357,939,0,0
140,85,0,0,0,0,0,0,0,0,0,-1,1364,939,0,0
147,85,0,0,0,0,0,0,0,0,0,-1,1371,939,0,0
154,85,0,0,0,0,0,0,0,0,0,-1,1378,939,0,0
161,85,0,0,0,0,0,0,0,0,0,-1,1385,939,0,0
168,85,0,0,0,0,0,0,0,0,0,-1,1392,939,0,0
175,85,0,0,0,0,0,0,0,0,0,-1,1399,939,0,0
182,85,0,0,0,0,0,0,0,0,0,-1,1406,939,0,0
189,85,0,0,0,0,0,0,0,0,0,-1,1413,939,0,0
196,85,0,0,0,0,0,0,0,0,0,-1,1420,939,0,0
203,85,0,0,0,0,0,0,0,0,0,-1,1427,939,0,0
210,85,0,0,0,0,0,0,0,0,0,-1,1434,939,0,0
217,85,0,0,0,0,0,0,0,0,0,-1,1441,939,0,0
224,85,0,0,0,0,0,0,0,0,0,-1,1448,939,0,0
231,85,0,0,0,0,0,0,0,0,0,-1,1455,939,0,0
238,85,0,0,0,0,0,0,0,0,0,-1,1462,939,0,0
245,85,0,0,0,0,0,0,0,0,0,-1,1469,939,0,0
252,85,0,0,0,0,0,0,0,0,0,-1,1476,939,0,0
259,85,0,0,0,0,0,0,0,0,0,-1,1483,939,0,0
266,85,0,0,0,0,0,0,0,0,0,-1,1490,939,0,0
273,85,0,0,0,0,0,0,0,0,0,-1,1497,939,0,0
280,85,0,0,0,0,0,0,0,0,0,-1,1504,939,0,0
287,85,0,0,0,0,0,0,0,0,0,-1,1511,939,0,0
294,85,0,0,0,0,0,0,0,0,0,-1,1518,939,0,0
301,85,0,0,0,0,0,0,0,0,0,-1,1525,939,0,0
308,85,0,0,0,0,0,0,0,0,0,-1,1532,939,0,0
315,85,0,0,0,0,0,0,0,0,0,-1,1539,939,0,0
322,85,0,0,0,0,0,0,0,0,0,-1,1546,939,0,0
329,85,0,0,0,0,0,0,0,0,0,-1,1553,939,0,0
336,85,0,0,0,0,0,0,0,0,0,-1,1560,939,0,0
343,85,0,0,0,0,0,0,0,0,0,-1,1567,939,0,0
350,85,0,0,0,0,0,0,0,0,0,-1,1574,939,0,0
357,85,0,0,0,0,0,0,0,0,0,-1,1581,939,0,0
364,85,0,0,0,0,0,0,0,0,0,-1,1588,939,0,0
371,85,0,0,0,0,0,0,0,0,0,-1,1595,939,0,0
378,85,0,0,0,0,0,0,0,0,0,-1,1602,939,0,0
385,85,0,0,0,0,0,0,0,0,0,-1,1609,939,0,0
392,85,0,0,0,0,0,0,0,0,0,-1,1616,939,0,0
399,85,0,0,0,0,0,0,0,0,0,-1,1623,939,0,0
406,85,0,0,0,0,0,0,0,0,0,-1,1630,939,0,0
413,85,0,0,0,0,0,0,0,0,0,-1,1637,939,0,0
420,85,0,0,0,0,0,0,0,0,0,-1,1644,939,0,0
427,85,0,0,0,0,0,0,0,0,0,-1,1651,939,0,0
434,85,0,0,0,0,0,0,0,0,0,-1,1658,939,0,0
441,85,0,0,0,0,0,0,0,0,0,-1,1665,939,0,0
448,85,0,0,0,0,0,0,0,0,0,-1,1672,939,0,0
455,85,0,0,0,0,0,0,0,0,0,-1,1679,939,0,0
462,85,0,0,0,0,0,0,0,0,0,-1,1686,939,0,0
469,85,0,0,0,0,0,0,0,0,0,-1,1693,939,0,0
476,85,0,0,0,0,0,0,0,0,0,-1,1700,939,0,0
483,85,0,0,0,0,0,0,0,0,0,-1,1707,939,0,0
490,85,0,0,0,0,0,0,0,0,0,-1,1714,939,0,0
497,85,0,0,0,0,0,0,0,0,0,-1,1721,939,0,0
504,85,0,0,0,0,0,0,0,0,0,-1,1728,939,0,0
511,85,0,0,0,0,0,0,0,0,0,-1,1735,939,0,0
518,85,0,0,0,0,0,0,0,0,0,-1,1742,939,0,0
525,85,0,0,0,0,0,0,0,0,0,-1,1749,939,0,0
532,85,0,0,0,0,0,0,0,0,0,-1,1756,939,0,0
539,85,0,0,0,0,0,0,0,0,0,-1,1763,939,0,0
546,85,0,0,0,0,0,0,0,0,0,-1,1770,939,0,0
553,85,0,0,0,0,0,0,0,0,0,-1,1777,939,0,0
560,85,0,0,0,0,0,0,0,0,0,-1,1784,939,0,0
567,85,0,0,0,0,0,0,0,0,0,-1,1791,939,0,0
574,85,0,0,0,0,0,0,0,0,0,-1,1798,939,0,0
581,85,0,0,0,0,0,0,0,0,0,-1,1805,939,0,0
588,85,0,0,0,0,0,0,0,0,0,-1,1812,939,0,0
595,85,0,0,0,0,0,0,0,0,0,-1,1819,939,0,0
602,85,0,0,0,0,0,0,0,0,0,-1,1826,939,0,0
609,85,0,0,0,0,0,0,0,0,0,-1,1833,939,0,0
616,85,0,0,0,0,0,0,0,0,0,-1,1840,939,0,0
623,85,0,0,0,0,0,0,0,0,0,-1,1847,939,0,0
630,85,0,0,0,0,0,0,0,0,0,-1,1854,939,0,0
637,85,15.6329,2.35913,0.0039329,0.00672522,0.000859071,0.00696835,0.00368978,1.295,0.00402551,0.0452994,1861,939,15.633,-2.35914
644,85,15.766,2.0722,0.0037405,0.00501575,0.000420332,0.00514183,0.00361442,1.27938,0.00304906,0.039995,1868,939,15.766,-2.07221
651,85,15.8728,1.95361,0.002631,0.00379993,1.16712e-05,0.00380004,0.00263088,1.56081,0.00224741,0.0412683,1875,939,15.8729,-1.95361
658,85,15.6637,2.41876,0.00079774,0.00295954,-0.000381823,0.003025,0.000732284,-1.40101,0.00182229,0.0418807,1882,939,15.6637,-2.41878
665,85,15.432,2.55927,-0.00111908,0.00235858,-0.000648619,0.00247562,-0.00123611,-1.39228,0.00218244,0.0418661,1889,939,15.432,-2.55927
672,85,15.5785,2.31067,-0.00281294,0.0019116,-0.000743389,0.00202581,-0.00292715,-1.41836,0.00287533,0.0400805,1896,939,15.5785,-2.3107
679,85,15.7228,2.1842,-0.00414757,0.00158435,-0.000702265,0.00166914,-0.00423236,-1.45065,0.00351272,0.0366086,1903,939,15.7227,-2.18421
686,85,15.7356,2.27289,-0.00504926,0.0012971,-0.000628654,0.00135877,-0.00511094,-1.47301,0.00393912,0.0335682,1910,939,15.7356,-2.27287
693,85,15.6971,2.36121,-0.00562893,0.00108698,-0.000445101,0.00111636,-0.0056583,-1.5049,0.00419414,0.0289899,1917,939,15.6971,-2.3612
700,85,15.7272,2.25726,-0.00593798,0.000895856,-0.000233479,0.000903823,-0.00594595,-1.53668,0.00429704,0.0307153,1924,939,15.7272,-2.25724
707,85,15.2224,2.49762,-0.0059092,0.00079294,-0.000161741,0.000796841,-0.0059131,-1.54668,0.00423276,0.0438371,1931,939,15.2225,-2.49761
714,85,14.6278,2.77057,0,0,0,0,0,0,0,-1,1938,939,14.6278,-2.77056
721,85,14.6207,2.85834,-0.00468513,0.00085663,-0.000190317,0.000863158,-0.00469165,-1.53651,0.00345165,0.0214795,1945,939,14.6207,-2.85835
728,85,14.6122,2.97113,-0.00436775,0.000903091,0.000405951,0.000934174,-0.00439883,1.49438,0.00328848,0.018015,1952,939,14.6121,-2.97111
735,85,14.6368,3.05548,-0.00410485,0.00127597,0.00122186,0.00154043,-0.0043693,1.35765,0.00353989,0.016836,1959,939,14.6368,-3.05546
742,85,14.6534,3.11884,-0.00397863,0.00142169,0.00160678,0.0018636,-0.00442054,1.3024,0.00372692,0.0135981,1966,939,14.6534,-3.11883
749,85,14.6062,3.21429,-0.00407693,0.00517136,0.00118775,0.00532147,-0.00422704,1.44508,0.00552489,0.0129365,1973,939,14.6062,-3.21427
756,85,14.5817,3.30719,-0.00515924,0.0085329,0.00112294,0.00862439,-0.00525073,1.48951,0.00808935,0.0132007,1980,939,14.5817,-3.30716
763,85,14.5952,3.3819,-0.00737514,0.0136276,0.00105164,0.0136802,-0.00742766,1.52089,0.0123635,0.0132978,1987,939,14.5952,-3.3819
770,85,14.5924,3.44757,-0.0107718,0.020935,0.00070973,0.0209509,-0.0107876,1.54843,0.0186348,0.0183946,1994,939,14.5924,-3.44757
777,85,14.5602,3.51929,-0.0152901,0.0310021,-0.000262457,0.0310035,-0.0152916,-1.56513,0.0272368,0.039702,2001,939,14.5602,-3.51926
784,85,14.5782,3.60175,-0.0212713,0.0449304,-0.00230503,0.0450106,-0.0213514,-1.53603,0.0391174,0.0468604,2008,939,14.5783,-3.60176
791,85,14.5455,3.67712,0,0,0,0,0,0,0,-1,2015,939,14.5456,-3.67713
798,85,13.6722,3.73389,0,0,0,0,0,0,0,-1,2022,939,13.6722,-3.73389
805,85,12.8514,3.83533,0,0,0,0,0,0,0,-1,2029,939,12.8515,-3.83534
812,85,0,0,0,0,0,0,0,0,0,-1,2036,939,0,0
-700,78,0,0,0,0,0,0,0,0,0,-1,524,946,0,0
-693,78,0,0,0,0,0,0,0,0,0,-1,531,946,0,0
-686,78,-12.6686,4.42029,0.169651,-0.015878,-0.0600769,0.187406,-0.0336327,-0.287353,0.137526,0.0454969,538,946,-12.6686,-4.42027
-679,78,-11.4264,3.94379,0.146677,-0.0163261,-0.0492364,0.160395,-0.0300439,-0.27172,0.118224,0.0499593,545,946,-11.4264,-3.94379
-672,78,-11.8826,3.41559,0.122913,-0.0155705,-0.0392464,0.133262,-0.0259196,-0.257826,0.0986231,0.0491171,552,946,-11.8826,-3.4156
-665,78,-9.65692,2.41888,0.100007,-0.0140408,-0.0303926,0.1076,-0.0216345,-0.244842,0.0799272,0.0461954,559,946,-9.6569,-2.41889
-658,78,-8.62714,2.44916,0,0,0,0,0,0,0,-1,566,946,-8.62716,-2.44917
-651,78,-9.19165,1.3526,0.0597601,-0.00974363,-0.0164031,0.0634368,-0.0134203,-0.220502,0.0474022,0.0452101,573,946,-9.19165,-1.35259
-644,78,-9.19305,1.26648,0.0434123,-0.00744615,-0.0112841,0.0458035,-0.00983736,-0.20882,0.0342885,0.0281489,580,946,-9.19307,-1.2665
-637,78,-9.19666,1.24023,0.0301811,-0.00586797,-0.00711479,0.0315345,-0.00722136,-0.187977,0.0237982,0.0146324,587,946,-9.19666,-1.24023
-630,78,-9.23065,1.16888,0.018838,-0.00408207,-0.00397733,0.0195086,-0.00475264,-0.167027,0.0148457,0.0129939,594,946,-9.23066,-1.1689
-623,78,-9.24353,1.10724,0.00932012,-0.00224691,-0.00153101,0.00951934,-0.00244612,-0.129392,0.00729952,0.0120725,601,946,-9.24351,-1.10722
-616,78,-9.2337,1.06091,0.00256387,-0.000837984,-0.000674066,0.00269257,-0.000966679,-0.188654,0.00218959,0.0105155,608,946,-9.23367,-1.06092
-609,78,-9.21826,1.01031,-0.0023649,4.33499e-05,0.000214116,6.22385e-05,-0.00238379,1.48281,0.00161034,0.0107307,615,946,-9.21827,-1.01031
-602,78,-9.23486,0.94635,-0.00441789,0.000465897,8.02448e-05,0.000467215,-0.0044192,1.55437,0.00311358,0.0140588,622,946,-9.23489,-0.946381
-595,78,-9.22955,0.869995,-0.00502984,0.000334582,-9.53326e-06,0.000334599,-0.00502985,-1.56902,0.00347015,0.0131108,629,946,-9.22953,-0.869987
-588,78,-9.23749,0.827759,-0.00559524,0.000300707,-0.00014394,0.000304219,-0.00559875,-1.5464,0.00383793,0.0112605,636,946,-9.23747,-0.827739
-581,78,-9.27338,0.752502,-0.00596466,0.00039762,-0.000304319,0.000412143,-0.00597918,-1.52311,0.00413036,0.0160549,643,946,-9.27335,-0.752522
-574,78,-9.4646,0.658875,-0.00596011,0.000463855,-0.000452964,0.000495638,-0.0059919,-1.50075,0.00416964,0.0208799,650,946,-9.46461,-0.658851
-567,78,-9.75104,0.593994,-0.00573364,0.00054299,-0.000574703,0.000595178,-0.00578583,-1.48024,0.00407014,0.0295235,657,946,-9.75106,-0.59402
-560,78,-9.70319,0.591248,-0.00514886,0.000703265,-0.000633641,0.000771087,-0.00521668,-1.46417,0.00376126,0.0330782,664,946,-9.7032,-0.591224
-553,78,-9.6156,0.537048,-0.00407231,0.000869527,-0.000714952,0.000970882,-0.00417366,-1.42997,0.00315624,0.0417632,671,946,-9.61562,-0.537055
-546,78,-9.71039,0.639343,-0.00249285,0.00103106,-0.000779756,0.00119589,-0.00265768,-1.36247,0.00227759,0.0426327,678,946,-9.71038,-0.639333
-539,78,-9.73663,0.667297,-0.000412441,0.00115976,-0.000807388,0.00150053,-0.000753207,-1.17142,0.00132483,0.0383541,685,946,-9.73663,-0.667325
-532,78,-9.65295,0.682617,0.00208557,0.00122519,-0.000790731,0.00255556,0.000755202,-0.536269,0.00151602,0.0381305,692,946,-9.65295,-0.682603
-525,78,-9.58282,0.588745,0.00461477,0.00121546,-0.000753976,0.0047745,0.00105573,-0.208761,0.00289596,0.0382895,699,946,-9.58285,-0.588717
-518,78,-9.61359,0.576721,0.00603878,0.00107278,-0.000487385,0.00608616,0.0010254,-0.0969122,0.00376251,0.041429,706,946,-9.6136,-0.576748
-511,78,0,0,0,0,0,0,0,0,0,-1,713,946,0,0
-504,78,0,0,0,0,0,0,0,0,0,-1,720,946,0,0
-497,78,0,0,0,0,0,0,0,0,0,-1,727,946,0,0
-490,78,0,0,0,0,0,0,0,0,0,-1,734,946,0,0
-483,78,0,0,0,0,0,0,0,0,0,-1,741,946,0,0
-476,78,0,0,0,0,0,0,0,0,0,-1,748,946,0,0
-469,78,0,0,0,0,0,0,0,0,0,-1,755,946,0,0
-462,78,0,0,0,0,0,0,0,0,0,-1,762,946,0,0
-455,78,0,0,0,0,0,0,0,0,0,-1,769,946,0,0
-448,78,0,0,0,0,0,0,0,0,0,-1,776,946,0,0
-441,78,0,0,0,0,0,0,0,0,0,-1,783,946,0,0
-434,78,0,0,0,0,0,0,0,0,0,-1,790,946,0,0
-427,78,0,0,0,0,0,0,0,0,0,-1,797,946,0,0
-420,78,0,0,0,0,0,0,0,0,0,-1,804,946,0,0
-413,78,0,0,0,0,0,0,0,0,0,-1,811,946,0,0
-406,78,0,0,0,0,0,0,0,0,0,-1,818,946,0,0
-399,78,0,0,0,0,0,0,0,0,0,-1,825,946,0,0
-392,78,0,0,0,0,0,0,0,0,0,-1,832,946,0,0
-385,78,0,0,0,0,0,0,0,0,0,-1,839,946,0,0
-378,78,0,0,0,0,0,0,0,0,0,-1,846,946,0,0
-371,78,0,0,0,0,0,0,0,0,0,-1,853,946,0,0
-364,78,0,0,0,0,0,0,0,0,0,-1,860,946,0,0
-357,78,0,0,0,0,0,0,0,0,0,-1,867,946,0,0
-350,78,0,0,0,0,0,0,0,0,0,-1,874,946,0,0
-343,78,0,0,0,0,0,0,0,0,0,-1,881,946,0,0
-336,78,0,0,0,0,0,0,0,0,0,-1,888,946,0,0
-329,78,0,0,0,0,0,0,0,0,0,-1,895,946,0,0
-322,78,0,0,0,0,0,0,0,0,0,-1,902,946,0,0
-315,78,0,0,0,0,0,0,0,0,0,-1,909,946,0,0
-308,78,0,0,0,0,0,0,0,0,0,-1,916,946,0,0
-301,78,0,0,0,0,0,0,0,0,0,-1,923,946,0,0
-294,78,0,0,0,0,0,0,0,0,0,-1,930,946,0,0
-287,78,0,0,0,0,0,0,0,0,0,-1,937,946,0,0
-280,78,0,0,0,0,0,0,0,0,0,-1,944,946,0,0
-273,78,0,0,0,0,0,0,0,0,0,-1,951,946,0,0
-266,78,0,0,0,0,0,0,0,0,0,-1,958,946,0,0
-259,78,0,0,0,0,0,0,0,0,0,-1,965,946,0,0
-252,78,0,0,0,0,0,0,0,0,0,-1,972,946,0,0
-245,78,0,0,0,0,0,0,0,0,0,-1,979,946,0,0
-238,78,0,0,0,0,0,0,0,0,0,-1,986,946,0,0
-231,78,0,0,0,0,0,0,0,0,0,-1,993,946,0,0
-224,78,0,0,0,0,0,0,0,0,0,-1,1000,946,0,0
-217,78,0,0,0,0,0,0,0,0,0,-1,1007,946,0,0
-210,78,0,0,0,0,0,0,0,0,0,-1,1014,946,0,0
-203,78,0,0,0,0,0,0,0,0,0,-1,1021,946,0,0
-196,78,0,0,0,0,0,0,0,0,0,-1,1028,946,0,0
-189,78,0,0,0,0,0,0,0,0,0,-1,1035,946,0,0
-182,78,0,0,0,0,0,0,0,0,0,-1,1042,946,0,0
-175,78,0,0,0,0,0,0,0,0,0,-1,1049,946,0,0
-168,78,0,0,0,0,0,0,0,0,0,-1,1056,946,0,0
-161,78,0,0,0,0,0,0,0,0,0,-1,1063,946,0,0
-154,78,0,0,0,0,0,0,0,0,0,-1,1070,946,0,0
-147,78,0,0,0,0,0,0,0,0,0,-1,1077,946,0,0
-140,78,0,0,0,0,0,0,0,0,0,-1,1084,946,0,0
-133,78,0,0,0,0,0,0,0,0,0,-1,1091,946,0,0
-126,78,0,0,0,0,0,0,0,0,0,-1,1098,946,0,0
-119,78,0,0,0,0,0,0,0,0,0,-1,1105,946,0,0
-112,78,0,0,0,0,0,0,0,0,0,-1,1112,946,0,0
-105,78,0,0,0,0,0,0,0,0,0,-1,1119,946,0,0
-98,78,0,0,0,0,0,0,0,0,0,-1,1126,946,0,0
-91,78,0,0,0,0,0,0,0,0,0,-1,1133,946,0,0
-84,78,0,0,0,0,0,0,0,0,0,-1,1140,946,0,0
-77,78,0,0,0,0,0,0,0,0,0,-1,1147,946,0,0
-70,78,0,0,0,0,0,0,0,0,0,-1,1154,946,0,0
-63,78,0,0,0,0,0,0,0,0,0,-1,1161,946,0,0
-56,78,0,0,0,0,0,0,0,0,0,-1,1168,946,0,0
-49,78,0,0,0,0,0,0,0,0,0,-1,1175,946,0,0
-42,78,0,0,0,0,0,0,0,0,0,-1,1182,946,0,0
-35,78,0,0,0,0,0,0,0,0,0,-1,1189,946,0,0
-28,78,0,0,0,0,0,0,0,0,0,-1,1196,946,0,0
-21,78,0,0,0,0,0,0,0,0,0,-1,1203,946,0,0
-14,78,0,0,0,0,0,0,0,0,0,-1,1210,946,0,0
-7,78,0,0,0,0,0,0,0,0,0,-1,1217,946,0,0
0,78,0,0,0,0,0,0,0,0,0,-1,1224,946,0,0
7,78,0,0,0,0,0,0,0,0,0,-1,1231,946,0,0
14,78,0,0,0,0,0,0,0,0,0,-1,1238,946,0,0
21,78,0,0,0,0,0,0,0,0,0,-1,1245,946,0,0
28,78,0,0,0,0,0,0,0,0,0,-1,1252,946,0,0
35,78,0,0,0,0,0,0,0,0,0,-1,1259,946,0,0
42,78,0,0,0,0,0,0,0,0,0,-1,1266,946,0,0
49,78,0,0,0,0,0,0,0,0,0,-1,1273,946,0,0
56,78,0,0,0,0,0,0,0,0,0,-1,1280,946,0,0
63,78,0,0,0,0,0,0,0,0,0,-1,1287,946,0,0
70,78,0,0,0,0,0,0,0,0,0,-1,1294,946,0,0
77,78,0,0,0,0,0,0,0,0,0,-1,1301,946,0,0
84,78,0,0,0,0,0,0,0,0,0,-1,1308,946,0,0
91,78,0,0,0,0,0,0,0,0,0,-1,1315,946,0,0
98,78,0,0,0,0,0,0,0,0,0,-1,1322,946,0,0
105,78,0,0,0,0,0,0,0,0,0,-1,1329,946,0,0
112,78,0,0,0,0,0,0,0,0,0,-1,1336,946,0,0
119,78,0,0,0,0,0,0,0,0,0,-1,1343,946,0,0
126,78,0,0,0,0,0,0,0,0,0,-1,1350,946,0,0
133,78,0,0,0,0,0,0,0,0,0,-1,1357,946,0,0
140,78,0,0,0,0,0,0,0,0,0,-1,1364,946,0,0
147,78,0,0,0,0,0,0,0,0,0,-1,1371,946,0,0
154,78,0,0,0,0,0,0,0,0,0,-1,1378,946,0,0
161,78,0,0,0,0,0,0,0,0,0,-1,1385,946,0,0
168,78,0,0,0,0,0,0,0,0,0,-1,1392,946,0,0
175,78,0,0,0,0,0,0,0,0,0,-1,1399,946,0,0
182,78,0,0,0,0,0,0,0,0,0,-1,1406,946,0,0
189,78,0,0,0,0,0,0,0,0,0,-1,1413,946,0,0
196,78,0,0,0,0,0,0,0,0,0,-1,1420,946,0,0
203,78,0,0,0,0,0,0,0,0,0,-1,1427,946,0,0
210,78,0,0,0,0,0,0,0,0,0,-1,1434,946,0,0
217,78,0,0,0,0,0,0,0,0,0,-1,1441,946,0,0
224,78,0,0,0,0,0,0,0,0,0,-1,1448,946,0,0
231,78,0,0,0,0,0,0,0,0,0,-1,1455,946,0,0
238,78,0,0,0,0,0,0,0,0,0,-1,1462,946,0,0
245,78,0,0,0,0,0,0,0,0,0,-1,1469,946,0,0
252,78,0,0,0,0,0,0,0,0,0,-1,1476,946,0,0
259,78,0,0,0,0,0,0,0,0,0,-1,1483,946,0,0
266,78,0,0,0,0,0,0,0,0,0,-1,1490,946,0,0
273,78,0,0,0,0,0,0,0,0,0,-1,1497,946,0,0
280,78,0,0,0,0,0,0,0,0,0,-1,1504,946,0,0
287,78,0,0,0,0,0,0,0,0,0,-1,1511,946,0,0
294,78,0,0,0,0,0,0,0,0,0,-1,1518,946,0,0
301,78,0,0,0,0,0,0,0,0,0,-1,1525,946,0,0
308,78,0,0,0,0,0,0,0,0,0,-1,1532,946,0,0
315,78,0,0,0,0,0,0,0,0,0,-1,1539,946,0,0
322,78,0,0,0,0,0,0,0,0,0,-1,1546,946,0,0
329,78,0,0,0,0,0,0,0,0,0,-1,1553,946,0,0
336,78,0,0,0,0,0,0,0,0,0,-1,1560,946,0,0
343,78,0,0,0,0,0,0,0,0,0,-1,1567,946,0,0
350,78,0,0,0,0,0,0,0,0,0,-1,1574,946,0,0
357,78,0,0,0,0,0,0,0,0,0,-1,1581,946,0,0
364,78,0,0,0,0,0,0,0,0,0,-1,1588,946,0,0
371,78,0,0,0,0,0,0,0,0,0,-1,1595,946,0,0
378,78,0,0,0,0,0,0,0,0,0,-1,1602,946,0,0
385,78,0,0,0,0,0,0,0,0,0,-1,1609,946,0,0
392,78,0,0,0,0,0,0,0,0,0,-1,1616,946,0,0
399,78,0,0,0,0,0,0,0,0,0,-1,1623,946,0,0
406,78,0,0,0,0,0,0,0,0,0,-1,1630,946,0,0
413,78,0,0,0,0,0,0,0,0,0,-1,1637,946,0,0
420,78,0,0,0,0,0,0,0,0,0,-1,1644,946,0,0
427,78,0,0,0,0,0,0,0,0,0,-1,1651,946,0,0
434,78,0,0,0,0,0,0,0,0,0,-1,1658,946,0,0
441,78,0,0,0,0,0,0,0,0,0,-1,1665,946,0,0
448,78,0,0,0,0,0,0,0,0,0,-1,1672,946,0,0
455,78,0,0,0,0,0,0,0,0,0,-1,1679,946,0,0
462,78,0,0,0,0,0,0,0,0,0,-1,1686,946,0,0
469,78,0,0,0,0,0,0,0,0,0,-1,1693,946,0,0
476,78,0,0,0,0,0,0,0,0,0,-1,1700,946,0,0
483,78,0,0,0,0,0,0,0,0,0,-1,1707,946,0,0
490,78,0,0,0,0,0,0,0,0,0,-1,1714,946,0,0
497,78,0,0,0,0,0,0,0,0,0,-1,1721,946,0,0
504,78,0,0,0,0,0,0,0,0,0,-1,1728,946,0,0
511,78,0,0,0,0,0,0,0,0,0,-1,1735,946,0,0
518,78,0,0,0,0,0,0,0,0,0,-1,1742,946,0,0
525,78,0,0,0,0,0,0,0,0,0,-1,1749,946,0,0
532,78,0,0,0,0,0,0,0,0,0,-1,1756,946,0,0
539,78,0,0,0,0,0,0,0,0,0,-1,1763,946,0,0
546,78,0,0,0,0,0,0,0,0,0,-1,1770,946,0,0
553,78,0,0,0,0,0,0,0,0,0,-1,1777,946,0,0
560,78,0,0,0,0,0,0,0,0,0,-1,1784,946,0,0
567,78,0,0,0,0,0,0,0,0,0,-1,1791,946,0,0
574,78,0,0,0,0,0,0,0,0,0,-1,1798,946,0,0
581,78,0,0,0,0,0,0,0,0,0,-1,1805,946,0,0
588,78,0,0,0,0,0,0,0,0,0,-1,1812,946,0,0
595,78,0,0,0,0,0,0,0,0,0,-1,1819,946,0,0
602,78,0,0,0,0,0,0,0,0,0,-1,1826,946,0,0
609,78,0,0,0,0,0,0,0,0,0,-1,1833,946,0,0
616,78,0,0,0,0,0,0,0,0,0,-1,1840,946,0,0
623,78,0,0,0,0,0,0,0,0,0,-1,1847,946,0,0
630,78,0,0,0,0,0,0,0,0,0,-1,1854,946,0,0
637,78,15.7565,2.32898,0.00383502,0.00674912,0.001934,0.0077135,0.00287064,1.10823,0.00450166,0.0440406,1861,946,15.7564,-2.329
644,78,15.7662,1.98029,0.00346794,0.00506736,0.00122543,0.00573094,0.00280436,1.0745,0.00330901,0.0415708,1868,946,15.7663,-1.98031
651,78,15.9171,1.76001,0.00256436,0.00382789,0.000681315,0.00412527,0.00226698,1.15924,0.00238562,0.0427775,1875,946,15.9171,-1.76001
658,78,15.8073,2.18683,0.00110359,0.00294698,0.000227424,0.00297462,0.00107595,1.44984,0.00173916,0.0399762,1882,946,15.8073,-2.18685
665,78,15.6472,2.57623,-0.000489595,0.00232941,-5.40369e-05,0.00233044,-0.000490631,-1.55164,0.00174038,0.0404756,1889,946,15.6472,-2.57623
672,78,15.6082,2.39862,-0.00198288,0.00188152,-0.000126443,0.00188565,-0.00198701,-1.53812,0.00223614,0.0395055,1896,946,15.6082,-2.39863
679,78,15.8076,2.18372,-0.00322207,0.00157046,-4.77193e-05,0.00157093,-0.00322254,-1.56084,0.00282174,0.0394224,1903,946,15.8076,-2.18374
686,78,15.766,2.27893,-0.00409305,0.00131157,6.51501e-05,0.00131236,-0.00409384,1.55874,0.00325606,0.0372036,1910,946,15.766,-2.2789
693,78,15.702,2.28363,-0.00467762,0.00110852,0.000275519,0.00112161,-0.0046907,1.52332,0.00356039,0.0303974,1917,946,15.7021,-2.28364
700,78,15.6915,2.25116,-0.00507584,0.000921091,0.000473605,0.000958264,-0.00511301,1.49247,0.00376892,0.0258961,1924,946,15.6915,-2.25115
707,78,15.5692,2.53339,-0.00519358,0.000843489,0.000515239,0.000887147,-0.00523724,1.48627,0.00382168,0.0379539,1931,946,15.5692,-2.53336
714,78,14.637,2.79407,0,0,0,0,0,0,0,-1,1938,946,14.637,-2.79408
721,78,14.6857,2.84521,-0.00432969,0.000929628,0.00041466,0.00096212,-0.00436218,1.4926,0.00327626,0.0188426,1945,946,14.6856,-2.84524
728,78,14.7217,2.94824,-0.00412961,0.000973199,0.000907851,0.0011299,-0.00428632,1.39987,0.00329931,0.0195689,1952,946,14.7217,-2.94824
735,78,14.7317,3.06024,-0.00391356,0.00128311,0.00151889,0.00169449,-0.00432493,1.3063,0.00358422,0.0128272,1959,946,14.7316,-3.06027
742,78,14.723,3.12659,-0.00384852,0.00151252,0.00160921,0.00195845,-0.00429446,1.30046,0.00369314,0.0113577,1966,946,14.7231,-3.12656
749,78,14.6868,3.20502,-0.00408156,0.00483715,0.000896412,0.00492635,-0.00417077,1.47161,0.00525826,0.0128931,1973,946,14.6867,-3.20501
756,78,14.6835,3.28503,-0.00510973,0.00783573,0.000418389,0.00784924,-0.00512324,1.53852,0.00754458,0.0142243,1980,946,14.6835,-3.28502
763,78,14.7062,3.35956,-0.00705088,0.0123357,-0.000140796,0.0123368,-0.0070519,-1.56353,0.0113318,0.0127198,1987,946,14.7061,-3.35956
770,78,14.6885,3.43915,-0.010183,0.0188155,-0.00104366,0.018853,-0.0102206,-1.53487,0.0170305,0.0162355,1994,946,14.6885,-3.43916
777,78,14.7306,3.49481,-0.0144535,0.0276482,-0.00258954,0.0278068,-0.0146122,-1.5096,0.0248824,0.0373709,2001,946,14.7306,-3.49484
784,78,14.8431,3.56586,-0.0202351,0.0397059,-0.00520148,0.0401539,-0.0206831,-1.48488,0.0357189,0.0458613,2008,946,14.8431,-3.56588
791,78,14.7068,3.53076,-0.0277014,0.0559184,-0.00945674,0.0569745,-0.0287576,-1.45958,0.0503832,0.0430592,2015,946,14.7068,-3.53073
798,78,13.8804,3.72766,-0.0373091,0.0775229,-0.0160968,0.0797367,-0.0395228,-1.43413,0.0701472,0.0421609,2022,946,13.8804,-3.72765
805,78,13.147,3.58624,0,0,0,0,0,0,0,-1,2029,946,13.1469,-3.58625
812,78,0,0,0,0,0,0,0,0,0,-1,2036,946,0,0
-700,71,0,0,0,0,0,0,0,0,0,-1,524,953,0,0
-693,71,0,0,0,0,0,0,0,0,0,-1,531,953,0,0
-686,71,-12.3762,4.96008,0.151072,0.00871531,-0.0692653,0.179212,-0.0194242,-0.385888,0.126448,0.0465281,538,953,-12.3761,-4.96011
-679,71,-11.058,4.63702,0.131501,0.00426731,-0.0572911,0.153496,-0.0177276,-0.366563,0.108723,0.0493561,545,953,-11.058,-4.63703
-672,71,-11.0815,3.43903,0,0,0,0,0,0,0,-1,552,953,-11.0815,-3.43904
-665,71,-9.23102,2.95471,0,0,0,0,0,0,0,-1,559,953,-9.23103,-2.95471
-658,71,-7.38055,2.4704,0,0,0,0,0,0,0,-1,566,953,-7.38054,-2.47038
-651,71,-9.25244,1.56458,0.0548282,-0.00170526,-0.020374,0.0614056,-0.00828258,-0.312267,0.0439588,0.045689,573,953,-9.25247,-1.56459
-644,71,-9.27216,1.38702,0.0399761,-0.0015511,-0.0143769,0.0444677,-0.00604266,-0.302807,0.031851,0.0320982,580,953,-9.27215,-1.387
-637,71,-9.26385,1.25262,0.0279724,-0.00191879,-0.00935858,0.0306607,-0.00460707,-0.279723,0.0221365,0.014435,587,953,-9.26387,-1.25263
-630,71,-9.29803,1.17908,0.0173687,-0.00151644,-0.00553683,0.0188723,-0.00302004,-0.265169,0.0136996,0.013436,594,953,-9.29804,-1.17909
-623,71,-9.32343,1.11182,0.00846451,-0.00073293,-0.0025286,0.00911384,-0.00138226,-0.251363,0.00658518,0.0129223,601,953,-9.32341,-1.1118
-616,71,-9.32007,1.05481,0.00228131,5.48284e-05,-0.00142592,0.00297709,-0.000640951,-0.453962,0.00222931,0.012532,608,953,-9.32008,-1.05479
-609,71,-9.29059,1.01617,-0.00226256,0.000540815,-0.000443808,0.000609398,-0.00233114,-1.41748,0.0017921,0.0136556,615,953,-9.29059,-1.01618
-602,71,-9.28052,0.942566,-0.00414026,0.000737968,-0.000417194,0.00077339,-0.00417568,-1.48609,0.00307419,0.0140897,622,953,-9.28051,-0.942584
-595,71,-9.29413,0.890137,-0.00467952,0.00054046,-0.000419728,0.000573994,-0.00471305,-1.49107,0.0033498,0.0140279,629,953,-9.29415,-0.890159
-588,71,-9.29651,0.860962,-0.00516936,0.000455902,-0.000544781,0.000508176,-0.00522163,-1.47514,0.00366225,0.0142071,636,953,-9.29649,-0.860939
-581,71,-9.38623,0.764587,-0.00544356,0.00049831,-0.000700414,0.000579757,-0.00552501,-1.45503,0.00389101,0.0210205,643,953,-9.38625,-0.764565
-574,71,-9.62683,0.643066,-0.0053477,0.000536481,-0.000830001,0.000651317,-0.00546253,-1.43331,0.00387707,0.0266819,650,953,-9.62686,-0.643086
-567,71,-9.75232,0.557495,-0.00506883,0.000601383,-0.000954687,0.000757807,-0.00522525,-1.40839,0.00376163,0.0213683,657,953,-9.75234,-0.557511
-560,71,-9.72815,0.642273,-0.00441153,0.000731335,-0.00101902,0.000925885,-0.00460608,-1.38215,0.00342137,0.0299846,664,953,-9.72818,-0.642256
-553,71,-9.73889,0.730957,-0.00325959,0.000855072,-0.00107978,0.00112122,-0.00352573,-1.32913,0.00280008,0.0423982,671,953,-9.73892,-0.730972
-546,71,-9.80682,0.747559,-0.00160962,0.000957071,-0.00111556,0.00137415,-0.0020267,-1.21301,0.0019755,0.0422372,678,953,-9.80684,-0.747553
-539,71,-9.76031,0.585876,0.000547888,0.00100389,-0.00111395,0.00191294,-0.000361161,-0.886342,0.00141117,0.0404988,685,953,-9.76033,-0.585855
-532,71,-9.6629,0.434814,0.0031204,0.000962758,-0.00109013,0.00357528,0.000507879,-0.395306,0.00223356,0.0446643,692,953,-9.66289,-0.434831
-525,71,-9.63538,0.325195,0.00565418,0.000829021,-0.00109113,0.00588945,0.000593753,-0.212368,0.00374411,0.0449942,699,953,-9.63536,-0.325199
-518,71,0,0,0,0,0,0,0,0,0,-1,706,953,0,0
-511,71,0,0,0,0,0,0,0,0,0,-1,713,953,0,0
-504,71,0,0,0,0,0,0,0,0,0,-1,720,953,0,0
-497,71,0,0,0,0,0,0,0,0,0,-1,727,953,0,0
-490,71,0,0,0,0,0,0,0,0,0,-1,734,953,0,0
-483,71,0,0,0,0,0,0,0,0,0,-1,741,953,0,0
-476,71,0,0,0,0,0,0,0,0,0,-1,748,953,0,0
-469,71,0,0,0,0,0,0,0,0,0,-1,755,953,0,0
-462,71,0,0,0,0,0,0,0,0,0,-1,762,953,0,0
-455,71,0,0,0,0,0,0,0,0,0,-1,769,953,0,0
-448,71,0,0,0,0,0,0,0,0,0,-1,776,953,0,0
-441,71,0,0,0,0,0,0,0,0,0,-1,783,953,0,0
-434,71,0,0,0,0,0,0,0,0,0,-1,790,953,0,0
-427,71,0,0,0,0,0,0,0,0,0,-1,797,953,0,0
-420,71,0,0,0,0,0,0,0,0,0,-1,804,953,0,0
-413,71,0,0,0,0,0,0,0,0,0,-1,811,953,0,0
-406,71,0,0,0,0,0,0,0,0,0,-1,818,953,0,0
-399,71,0,0,0,0,0,0,0,0,0,-1,825,953,0,0
-392,71,0,0,0,0,0,0,0,0,0,-1,832,953,0,0
-385,71,0,0,0,0,0,0,0,0,0,-1,839,953,0,0
-378,71,0,0,0,0,0,0,0,0,0,-1,846,953,0,0
-371,71,0,0,0,0,0,0,0,0,0,-1,853,953,0,0
-364,71,0,0,0,0,0,0,0,0,0,-1,860,953,0,0
-357,71,0,0,0,0,0,0,0,0,0,-1,867,953,0,0
-350,71,0,0,0,0,0,0,0,0,0,-1,874,953,0,0
-343,71,0,0,0,0,0,0,0,0,0,-1,881,953,0,0
-336,71,0,0,0,0,0,0,0,0,0,-1,888,953,0,0
-329,71,0,0,0,0,0,0,0,0,0,-1,895,953,0,0
-322,71,0,0,0,0,0,0,0,0,0,-1,902,953,0,0
-315,71,0,0,0,0,0,0,0,0,0,-1,909,953,0,0
-308,71,0,0,0,0,0,0,0,0,0,-1,916,953,0,0
-301,71,0,0,0,0,0,0,0,0,0,-1,923,953,0,0
-294,71,0,0,0,0,0,0,0,0,0,-1,930,953,0,0
-287,71,0,0,0,0,0,0,0,0,0,-1,937,953,0,0
-280,71,0,0,0,0,0,0,0,0,0,-1,944,953,0,0
-273,71,0,0,0,0,0,0,0,0,0,-1,951,953,0,0
-266,71,0,0,0,0,0,0,0,0,0,-1,958,953,0,0
-259,71,0,0,0,0,0,0,0,0,0,-1,965,953,0,0
-252,71,0,0,0,0,0,0,0,0,0,-1,972,953,0,0
-245,71,0,0,0,0,0,0,0,0,0,-1,979,953,0,0
-238,71,0,0,0,0,0,0,0,0,0,-1,986,953,0,0
-231,71,0,0,0,0,0,0,0,0,0,-1,993,953,0,0
-224,71,0,0,0,0,0,0,0,0,0,-1,1000,953,0,0
-217,71,0,0,0,0,0,0,0,0,0,-1,1007,953,0,0
-210,71,0,0,0,0,0,0,0,0,0,-1,1014,953,0,0
-203,71,0,0,0,0,0,0,0,0,0,-1,1021,953,0,0
-196,71,0,0,0,0,0,0,0,0,0,-1,1028,953,0,0
-189,71,0,0,0,0,0,0,0,0,0,-1,1035,953,0,0
-182,71,0,0,0,0,0,0,0,0,0,-1,1042,953,0,0
-175,71,0,0,0,0,0,0,0,0,0,-1,1049,953,0,0
-168,71,0,0,0,0,0,0,0,0,0,-1,1056,953,0,0
-161,71,0,0,0,0,0,0,0,0,0,-1,1063,953,0,0
-154,71,0,0,0,0,0,0,0,0,0,-1,1070,953,0,0
-147,71,0,0,0,0,0,0,0,0,0,-1,1077,953,0,0
-140,71,0,0,0,0,0,0,0,0,0,-1,1084,953,0,0
-133,71,0,0,0,0,0,0,0,0,0,-1,1091,953,0,0
-126,71,0,0,0,0,0,0,0,0,0,-1,1098,953,0,0
-119,71,0,0,0,0,0,0,0,0,0,-1,1105,953,0,0
-112,71,0,0,0,0,0,0,0,0,0,-1,1112,953,0,0
-105,71,0,0,0,0,0,0,0,0,0,-1,1119,953,0,0
-98,71,0,0,0,0,0,0,0,0,0,-1,1126,953,0,0
-91,71,0,0,0,0,0,0,0,0,0,-1,1133,953,0,0
-84,71,0,0,0,0,0,0,0,0,0,-1,1140,953,0,0
-77,71,0,0,0,0,0,0,0,0,0,-1,1147,953,0,0
-70,71,0,0,0,0,0,0,0,0,0,-1,1154,953,0,0
-63,71,0,0,0,0,0,0,0,0,0,-1,1161,953,0,0
-56,71,0,0,0,0,0,0,0,0,0,-1,1168,953,0,0
-49,71,0,0,0,0,0,0,0,0,0,-1,1175,953,0,0
-42,71,0,0,0,0,0,0,0,0,0,-1,1182,953,0,0
-35,71,0,0,0,0,0,0,0,0,0,-1,1189,953,0,0
-28,71,0,0,0,0,0,0,0,0,0,-1,1196,953,0,0
-21,71,0,0,0,0,0,0,0,0,0,-1,1203,953,0,0
-14,71,0,0,0,0,0,0,0,0,0,-1,1210,953,0,0
-7,71,0,0,0,0,0,0,0,0,0,-1,1217,953,0,0
0,71,0,0,0,0,0,0,0,0,0,-1,1224,953,0,0
7,71,0,0,0,0,0,0,0,0,0,-1,1231,953,0,0
14,71,0,0,0,0,0,0,0,0,0,-1,1238,953,0,0
21,71,0,0,0,0,0,0,0,0,0,-1,1245,953,0,0
28,71,0,0,0,0,0,0,0,0,0,-1,1252,953,0,0
35,71,0,0,0,0,0,0,0,0,0,-1,1259,953,0,0
42,71,0,0,0,0,0,0,0,0,0,-1,1266,953,0,0
49,71,0,0,0,0,0,0,0,0,0,-1,1273,953,0,0
56,71,0,0,0,0,0,0,0,0,0,-1,1280,953,0,0
63,71,0,0,0,0,0,0,0,0,0,-1,1287,953,0,0
70,71,0,0,0,0,0,0,0,0,0,-1,1294,953,0,0
77,71,0,0,0,0,0,0,0,0,0,-1,1301,953,0,0
84,71,0,0,0,0,0,0,0,0,0,-1,1308,953,0,0
91,71,0,0,0,0,0,0,0,0,0,-1,1315,953,0,0
98,71,0,0,0,0,0,0,0,0,0,-1,1322,953,0,0
105,71,0,0,0,0,0,0,0,0,0,-1,1329,953,0,0
112,71,0,0,0,0,0,0,0,0,0,-1,1336,953,0,0
119,71,0,0,0,0,0,0,0,0,0,-1,1343,953,0,0
126,71,0,0,0,0,0,0,0,0,0,-1,1350,953,0,0
133,71,0,0,0,0,0,0,0,0,0,-1,1357,953,0,0
140,71,0,0,0,0,0,0,0,0,0,-1,1364,953,0,0
147,71,0,0,0,0,0,0,0,0,0,-1,1371,953,0,0
154,71,0,0,0,0,0,0,0,0,0,-1,1378,953,0,0
161,71,0,0,0,0,0,0,0,0,0,-1,1385,953,0,0
168,71,0,0,0,0,0,0,0,0,0,-1,1392,953,0,0
175,71,0,0,0,0,0,0,0,0,0,-1,1399,953,0,0
182,71,0,0,0,0,0,0,0,0,0,-1,1406,953,0,0
189,71,0,0,0,0,0,0,0,0,0,-1,1413,953,0,0
196,71,0,0,0,0,0,0,0,0,0,-1,1420,953,0,0
203,71,0,0,0,0,0,0,0,0,0,-1,1427,953,0,0
210,71,0,0,0,0,0,0,0,0,0,-1,1434,953,0,0
217,71,0,0,0,0,0,0,0,0,0,-1,1441,953,0,0
224,71,0,0,0,0,0,0,0,0,0,-1,1448,953,0,0
231,71,0,0,0,0,0,0,0,0,0,-1,1455,953,0,0
238,71,0,0,0,0,0,0,0,0,0,-1,1462,953,0,0
245,71,0,0,0,0,0,0,0,0,0,-1,1469,953,0,0
252,71,0,0,0,0,0,0,0,0,0,-1,1476,953,0,0
259,71,0,0,0,0,0,0,0,0,0,-1,1483,953,0,0
266,71,0,0,0,0,0,0,0,0,0,-1,1490,953,0,0
273,71,0,0,0,0,0,0,0,0,0,-1,1497,953,0,0
280,71,0,0,0,0,0,0,0,0,0,-1,1504,953,0,0
287,71,0,0,0,0,0,0,0,0,0,-1,1511,953,0,0
294,71,0,0,0,0,0,0,0,0,0,-1,1518,953,0,0
301,71,0,0,0,0,0,0,0,0,0,-1,1525,953,0,0
308,71,0,0,0,0,0,0,0,0,0,-1,1532,953,0,0
315,71,0,0,0,0,0,0,0,0,0,-1,1539,953,0,0
322,71,0,0,0,0,0,0,0,0,0,-1,1546,953,0,0
329,71,0,0,0,0,0,0,0,0,0,-1,1553,953,0,0
336,71,0,0,0,0,0,0,0,0,0,-1,1560,953,0,0
343,71,0,0,0,0,0,0,0,0,0,-1,1567,953,0,0
350,71,0,0,0,0,0,0,0,0,0,-1,1574,953,0,0
357,71,0,0,0,0,0,0,0,0,0,-1,1581,953,0,0
364,71,0,0,0,0,0,0,0,0,0,-1,1588,953,0,0
371,71,0,0,0,0,0,0,0,0,0,-1,1595,953,0,0
378,71,0,0,0,0,0,0,0,0,0,-1,1602,953,0,0
385,71,0,0,0,0,0,0,0,0,0,-1,1609,953,0,0
392,71,0,0,0,0,0,0,0,0,0,-1,1616,953,0,0
399,71,0,0,0,0,0,0,0,0,0,-1,1623,953,0,0
406,71,0,0,0,0,0,0,0,0,0,-1,1630,953,0,0
413,71,0,0,0,0,0,0,0,0,0,-1,1637,953,0,0
420,71,0,0,0,0,0,0,0,0,0,-1,1644,953,0,0
427,71,0,0,0,0,0,0,0,0,0,-1,1651,953,0,0
434,71,0,0,0,0,0,0,0,0,0,-1,1658,953,0,0
441,71,0,0,0,0,0,0,0,0,0,-1,1665,953,0,0
448,71,0,0,0,0,0,0,0,0,0,-1,1672,953,0,0
455,71,0,0,0,0,0,0,0,0,0,-1,1679,953,0,0
462,71,0,0,0,0,0,0,0,0,0,-1,1686,953,0,0
469,71,0,0,0,0,0,0,0,0,0,-1,1693,953,0,0
476,71,0,0,0,0,0,0,0,0,0,-1,1700,953,0,0
483,71,0,0,0,0,0,0,0,0,0,-1,1707,953,0,0
490,71,0,0,0,0,0,0,0,0,0,-1,1714,953,0,0
497,71,0,0,0,0,0,0,0,0,0,-1,1721,953,0,0
504,71,0,0,0,0,0,0,0,0,0,-1,1728,953,0,0
511,71,0,0,0,0,0,0,0,0,0,-1,1735,953,0,0
518,71,0,0,0,0,0,0,0,0,0,-1,1742,953,0,0
525,71,0,0,0,0,0,0,0,0,0,-1,1749,953,0,0
532,71,0,0,0,0,0,0,0,0,0,-1,1756,953,0,0
539,71,0,0,0,0,0,0,0,0,0,-1,1763,953,0,0
546,71,0,0,0,0,0,0,0,0,0,-1,1770,953,0,0
553,71,0,0,0,0,0,0,0,0,0,-1,1777,953,0,0
560,71,0,0,0,0,0,0,0,0,0,-1,1784,953,0,0
567,71,0,0,0,0,0,0,0,0,0,-1,1791,953,0,0
574,71,0,0,0,0,0,0,0,0,0,-1,1798,953,0,0
581,71,0,0,0,0,0,0,0,0,0,-1,1805,953,0,0
588,71,0,0,0,0,0,0,0,0,0,-1,1812,953,0,0
595,71,0,0,0,0,0,0,0,0,0,-1,1819,953,0,0
602,71,0,0,0,0,0,0,0,0,0,-1,1826,953,0,0
609,71,0,0,0,0,0,0,0,0,0,-1,1833,953,0,0
616,71,0,0,0,0,0,0,0,0,0,-1,1840,953,0,0
623,71,0,0,0,0,0,0,0,0,0,-1,1847,953,0,0
630,71,0,0,0,0,0,0,0,0,0,-1,1854,953,0,0
637,71,15.8229,2.25452,0.00403055,0.00585559,0.00321216,0.00828233,0.00160381,0.923793,0.00507219,0.0405781,1861,953,15.8229,-2.2545
644,71,15.6735,2.21741,0.0033776,0.00446412,0.00216832,0.0061562,0.00168552,0.908144,0.00367353,0.0410968,1868,953,15.6735,-2.21739
651,71,15.7743,2.06085,0.00255416,0.00342302,0.00140674,0.00446088,0.0015163,0.935162,0.00261913,0.0380474,1875,953,15.7743,-2.06084
658,71,15.9059,2.25122,0.00137529,0.00265633,0.000838941,0.00307131,0.000960309,1.11143,0.00181423,0.0377928,1882,953,15.9059,-2.25123
665,71,15.8594,2.43042,6.50509e-05,0.00214471,0.000502688,0.00225985,-5.00828e-05,1.34564,0.00152353,0.0401094,1889,953,15.8594,-2.43042
672,71,15.6556,2.48346,-0.00125119,0.00179541,0.000428832,0.00185462,-0.0013104,1.43359,0.00183631,0.0408513,1896,953,15.6556,-2.48347
679,71,15.7612,2.03839,-0.00242129,0.00156329,0.000542157,0.00163574,-0.00249374,1.43795,0.00240125,0.0386233,1903,953,15.7612,-2.03839
686,71,15.7485,2.06287,-0.0032731,0.00138206,0.000698821,0.0014847,-0.00337574,1.42496,0.00287611,0.0373619,1910,953,15.7486,-2.06286
693,71,15.687,2.14423,-0.00388306,0.00122382,0.000946281,0.00139352,-0.00405276,1.39335,0.00326696,0.0333349,1917,953,15.687,-2.14421
700,71,15.671,2.22101,-0.00436895,0.00105479,0.00114376,0.00128612,-0.00460028,1.37123,0.00357356,0.0338724,1924,953,15.671,-2.221
707,71,15.6467,2.48438,-0.00461579,0.00100745,0.00116875,0.00124069,-0.00484903,1.37382,0.00371594,0.0306114,1931,953,15.6467,-2.48437
714,71,14.9562,2.81018,0,0,0,0,0,0,0,-1,1938,953,14.9561,-2.8102
721,71,14.8578,2.85504,-0.00407516,0.00105675,0.00103026,0.00125585,-0.00427427,1.37989,0.00334759,0.0252667,1945,953,14.8578,-2.85504
728,71,14.7754,2.966,-0.00398108,0.00106415,0.00143951,0.00144597,-0.0043629,1.31152,0.00349186,0.0160382,1952,953,14.7754,-2.966
735,71,14.7899,3.0564,-0.00382419,0.00129412,0.00186239,0.00190005,-0.00443012,1.25625,0.00375077,0.0104862,1959,953,14.7899,-3.0564
742,71,14.8101,3.11053,-0.00381315,0.00157126,0.0016991,0.00206259,-0.00430448,1.2893,0.00375122,0.0112404,1966,953,14.8101,-3.11053
749,71,14.7914,3.18896,-0.00416646,0.00443753,0.000747913,0.00450206,-0.00423099,1.48473,0.00504284,0.0148044,1973,953,14.7914,-3.18896
756,71,14.7965,3.27899,-0.00514467,0.00702627,-8.3017e-05,0.00702684,-0.00514524,-1.56398,0.00705548,0.0156207,1980,953,14.7965,-3.27901
763,71,14.8093,3.35736,-0.00682295,0.0108674,-0.00104148,0.0109285,-0.00688405,-1.51219,0.0103721,0.0135278,1987,953,14.8094,-3.35739
770,71,14.7826,3.41522,-0.00963987,0.0164336,-0.0023945,0.0166517,-0.00985795,-1.47997,0.015472,0.0145753,1994,953,14.7826,-3.41523
777,71,14.8181,3.44049,-0.0135772,0.023994,-0.00435268,0.0244916,-0.0140749,-1.45695,0.0225355,0.0329239,2001,953,14.8181,-3.4405
784,71,14.85,3.45496,0,0,0,0,0,0,0,-1,2008,953,14.85,-3.45496
791,71,14.9973,3.36487,-0.0260813,0.0477218,-0.0117487,0.0495469,-0.0279064,-1.41668,0.0452958,0.0442673,2015,953,14.9974,-3.36486
798,71,14.2499,3.28595,-0.0351704,0.0655141,-0.0182965,0.0687358,-0.0383921,-1.3965,0.0626719,0.0446853,2022,953,14.2499,-3.28594
805,71,13.5897,2.93085,-0.0469704,0.0888321,-0.0277502,0.0942838,-0.0524221,-1.37681,0.0858424,0.0478362,2029,953,13.5897,-2.93088
812,71,0,0,0,0,0,0,0,0,0,-1,2036,953,0,0
-700,64,0,0,0,0,0,0,0,0,0,-1,524,960,0,0
-693,64,0,0,0,0,0,0,0,0,0,-1,531,960,0,0
-686,64,-12.0043,5.48865,0,0,0,0,0,0,0,-1,538,960,-12.0043,-5.48864
-679,64,-10.7545,5.23053,0,0,0,0,0,0,0,-1,545,960,-10.7545,-5.23052
-672,64,-8.41882,0.859131,0,0,0,0,0,0,0,-1,552,960,-8.41883,-0.859113
-665,64,-8.84436,3.37268,0,0,0,0,0,0,0,-1,559,960,-8.84439,-3.37265
-658,64,-9.05743,1.85645,0,0,0,0,0,0,0,-1,566,960,-9.05744,-1.85644
-651,64,-9.18402,1.69366,0.0483064,0.00612288,-0.0234869,0.058782,-0.00435271,-0.419538,0.0407165,0.0437048,573,960,-9.18399,-1.69365
-644,64,-9.3205,1.40314,0.0352014,0.00409028,-0.0167082,0.0424743,-0.00318267,-0.410555,0.0294345,0.0291844,580,960,-9.32048,-1.40316
-637,64,-9.32709,1.22583,0.0247338,0.0017418,-0.0109519,0.0291156,-0.00263993,-0.380582,0.0203475,0.0147,587,960,-9.32707,-1.22582
-630,64,-9.36462,1.1803,0.0152266,0.000707942,-0.0065826,0.0177667,-0.00183214,-0.368274,0.0125,0.0125964,594,960,-9.3646,-1.18032
-623,64,-9.3703,1.13013,0.00714961,0.000510092,-0.00317171,0.0084212,-0.000761504,-0.381298,0.00588442,0.0128164,601,960,-9.3703,-1.13012
-616,64,-9.37329,1.06537,0.00173823,0.000743074,-0.00190834,0.00321279,-0.000731487,-0.657868,0.00242278,0.0156307,608,960,-9.37331,-1.06537
-609,64,-9.36542,1.02338,-0.00224872,0.000916766,-0.000918282,0.00116386,-0.00249582,-1.30794,0.00215906,0.0153287,615,960,-9.3654,-1.02337
-602,64,-9.34717,0.953064,-0.00389248,0.000954145,-0.000779682,0.00107649,-0.00401482,-1.41516,0.00309835,0.014674,622,960,-9.34717,-0.953043
-595,64,-9.34637,0.905273,-0.00436161,0.000754177,-0.000723113,0.000854424,-0.00446186,-1.43304,0.0032965,0.0147517,629,960,-9.3464,-0.905279
-588,64,-9.36633,0.904053,-0.00477319,0.000661336,-0.000851476,0.000791621,-0.00490347,-1.41896,0.0035623,0.0191153,636,960,-9.36633,-0.904065
-581,64,-9.49579,0.789551,-0.00497354,0.00067486,-0.000996923,0.000845649,-0.00514433,-1.40113,0.00374341,0.0260751,643,960,-9.49582,-0.789573
-574,64,-9.68347,0.700073,-0.00480289,0.000668607,-0.00108962,0.000877616,-0.00501189,-1.38128,0.00366896,0.0316345,650,960,-9.68345,-0.700093
-567,64,-9.72626,0.582397,-0.00447381,0.000689316,-0.00117966,0.000946073,-0.00473057,-1.35649,0.00351181,0.0260737,657,960,-9.72628,-0.582423
-560,64,-9.69421,0.546021,-0.00375129,0.000731653,-0.00120693,0.00103594,-0.00405558,-1.32383,0.00310714,0.0346826,664,960,-9.69424,-0.546049
-553,64,-9.63007,0.625366,-0.00252172,0.000740459,-0.00120992,0.00114022,-0.00292148,-1.25168,0.00241902,0.0396283,671,960,-9.63004,-0.625336
-546,64,-9.65094,0.643433,-0.000774047,0.00068717,-0.00118894,0.00135204,-0.00143892,-1.06091,0.00161163,0.0406112,678,960,-9.65096,-0.643444
-539,64,-9.78284,0.731323,0.00151932,0.000529863,-0.00114695,0.00227369,-0.000224512,-0.581784,0.0015959,0.0417171,685,960,-9.78281,-0.731332
-532,64,-9.77179,0.376587,0.00425999,0.000239349,-0.00113288,0.00455723,-5.78852e-05,-0.256587,0.00305763,0.0429831,692,960,-9.7718,-0.376609
-525,64,-9.6908,0.223389,0.00695271,-0.000189459,-0.00121953,0.00715521,-0.000391954,-0.164542,0.00490601,0.0420225,699,960,-9.69082,-0.223372
-518,64,0,0,0,0,0,0,0,0,0,-1,706,960,0,0
-511,64,0,0,0,0,0,0,0,0,0,-1,713,960,0,0
-504,64,0,0,0,0,0,0,0,0,0,-1,720,960,0,0
-497,64,0,0,0,0,0,0,0,0,0,-1,727,960,0,0
-490,64,0,0,0,0,0,0,0,0,0,-1,734,960,0,0
-483,64,0,0,0,0,0,0,0,0,0,-1,741,960,0,0
-476,64,0,0,0,0,0,0,0,0,0,-1,748,960,0,0
-469,64,0,0,0,0,0,0,0,0,0,-1,755,960,0,0
-462,64,0,0,0,0,0,0,0,0,0,-1,762,960,0,0
-455,64,0,0,0,0,0,0,0,0,0,-1,769,960,0,0
-448,64,0,0,0,0,0,0,0,0,0,-1,776,960,0,0
-441,64,0,0,0,0,0,0,0,0,0,-1,783,960,0,0
-434,64,0,0,0,0,0,0,0,0,0,-1,790,960,0,0
-427,64,0,0,0,0,0,0,0,0,0,-1,797,960,0,0
-420,64,0,0,0,0,0,0,0,0,0,-1,804,960,0,0
-413,64,0,0,0,0,0,0,0,0,0,-1,811,960,0,0
-406,64,0,0,0,0,0,0,0,0,0,-1,818,960,0,0
-399,64,0,0,0,0,0,0,0,0,0,-1,825,960,0,0
-392,64,0,0,0,0,0,0,0,0,0,-1,832,960,0,0
-385,64,0,0,0,0,0,0,0,0,0,-1,839,960,0,0
-378,64,0,0,0,0,0,0,0,0,0,-1,846,960,0,0
-371,64,0,0,0,0,0,0,0,0,0,-1,853,960,0,0
-364,64,0,0,0,0,0,0,0,0,0,-1,860,960,0,0
-357,64,0,0,0,0,0,0,0,0,0,-1,867,960,0,0
-350,64,0,0,0,0,0,0,0,0,0,-1,874,960,0,0
-343,64,0,0,0,0,0,0,0,0,0,-1,881,960,0,0
-336,64,0,0,0,0,0,0,0,0,0,-1,888,960,0,0
-329,64,0,0,0,0,0,0,0,0,0,-1,895,960,0,0
-322,64,0,0,0,0,0,0,0,0,0,-1,902,960,0,0
-315,64,0,0,0,0,0,0,0,0,0,-1,909,960,0,0
-308,64,0,0,0,0,0,0,0,0,0,-1,916,960,0,0
-301,64,0,0,0,0,0,0,0,0,0,-1,923,960,0,0
-294,64,0,0,0,0,0,0,0,0,0,-1,930,960,0,0
-287,64,0,0,0,0,0,0,0,0,0,-1,937,960,0,0
-280,64,0,0,0,0,0,0,0,0,0,-1,944,960,0,0
-273,64,0,0,0,0,0,0,0,0,0,-1,951,960,0,0
-266,64,0,0,0,0,0,0,0,0,0,-1,958,960,0,0
-259,64,0,0,0,0,0,0,0,0,0,-1,965,960,0,0
-252,64,0,0,0,0,0,0,0,0,0,-1,972,960,0,0
-245,64,0,0,0,0,0,0,0,0,0,-1,979,960,0,0
-238,64,0,0,0,0,0,0,0,0,0,-1,986,960,0,0
-231,64,0,0,0,0,0,0,0,0,0,-1,993,960,0,0
-224,64,0,0,0,0,0,0,0,0,0,-1,1000,960,0,0
-217,64,0,0,0,0,0,0,0,0,0,-1,1007,960,0,0
-210,64,0,0,0,0,0,0,0,0,0,-1,1014,960,0,0
-203,64,0,0,0,0,0,0,0,0,0,-1,1021,960,0,0
-196,64,0,0,0,0,0,0,0,0,0,-1,1028,960,0,0
-189,64,0,0,0,0,0,0,0,0,0,-1,1035,960,0,0
-182,64,0,0,0,0,0,0,0,0,0,-1,1042,960,0,0
-175,64,0,0,0,0,0,0,0,0,0,-1,1049,960,0,0
-168,64,0,0,0,0,0,0,0,0,0,-1,1056,960,0,0
-161,64,0,0,0,0,0,0,0,0,0,-1,1063,960,0,0
-154,64,0,0,0,0,0,0,0,0,0,-1,1070,960,0,0
-147,64,0,0,0,0,0,0,0,0,0,-1,1077,960,0,0
-140,64,0,0,0,0,0,0,0,0,0,-1,1084,960,0,0
-133,64,0,0,0,0,0,0,0,0,0,-1,1091,960,0,0
-126,64,0,0,0,0,0,0,0,0,0,-1,1098,960,0,0
-119,64,0,0,0,0,0,0,0,0,0,-1,1105,960,0,0
-112,64,0,0,0,0,0,0,0,0,0,-1,1112,960,0,0
-105,64,0,0,0,0,0,0,0,0,0,-1,1119,960,0,0
-98,64,0,0,0,0,0,0,0,0,0,-1,1126,960,0,0
-91,64,0,0,0,0,0,0,0,0,0,-1,1133,960,0,0
-84,64,0,0,0,0,0,0,0,0,0,-1,1140,960,0,0
-77,64,0,0,0,0,0,0,0,0,0,-1,1147,960,0,0
-70,64,0,0,0,0,0,0,0,0,0,-1,1154,960,0,0
-63,64,0,0,0,0,0,0,0,0,0,-1,1161,960,0,0
-56,64,0,0,0,0,0,0,0,0,0,-1,1168,960,0,0
-49,64,0,0,0,0,0,0,0,0,0,-1,1175,960,0,0
-42,64,0,0,0,0,0,0,0,0,0,-1,1182,960,0,0
-35,64,0,0,0,0,0,0,0,0,0,-1,1189,960,0,0
-28,64,0,0,0,0,0,0,0,0,0,-1,1196,960,0,0
-21,64,0,0,0,0,0,0,0,0,0,-1,1203,960,0,0
-14,64,0,0,0,0,0,0,0,0,0,-1,1210,960,0,0
-7,64,0,0,0,0,0,0,0,0,0,-1,1217,960,0,0
0,64,0,0,0,0,0,0,0,0,0,-1,1224,960,0,0
7,64,0,0,0,0,0,0,0,0,0,-1,1231,960,0,0
14,64,0,0,0,0,0,0,0,0,0,-1,1238,960,0,0
21,64,0,0,0,0,0,0,0,0,0,-1,1245,960,0,0
28,64,0,0,0,0,0,0,0,0,0,-1,1252,960,0,0
35,64,0,0,0,0,0,0,0,0,0,-1,1259,960,0,0
42,64,0,0,0,0,0,0,0,0,0,-1,1266,960,0,0
49,64,0,0,0,0,0,0,0,0,0,-1,1273,960,0,0
56,64,0,0,0,0,0,0,0,0,0,-1,1280,960,0,0
63,64,0,0,0,0,0,0,0,0,0,-1,1287,960,0,0
70,64,0,0,0,0,0,0,0,0,0,-1,1294,960,0,0
77,64,0,0,0,0,0,0,0,0,0,-1,1301,960,0,0
84,64,0,0,0,0,0,0,0,0,0,-1,1308,960,0,0
91,64,0,0,0,0,0,0,0,0,0,-1,1315,960,0,0
98,64,0,0,0,0,0,0,0,0,0,-1,1322,960,0,0
105,64,0,0,0,0,0,0,0,0,0,-1,1329,960,0,0
112,64,0,0,0,0,0,0,0,0,0,-1,1336,960,0,0
119,64,0,0,0,0,0,0,0,0,0,-1,1343,960,0,0
126,64,0,0,0,0,0,0,0,0,0,-1,1350,960,0,0
133,64,0,0,0,0,0,0,0,0,0,-1,1357,960,0,0
140,64,0,0,0,0,0,0,0,0,0,-1,1364,960,0,0
147,64,0,0,0,0,0,0,0,0,0,-1,1371,960,0,0
154,64,0,0,0,0,0,0,0,0,0,-1,1378,960,0,0
161,64,0,0,0,0,0,0,0,0,0,-1,1385,960,0,0
168,64,0,0,0,0,0,0,0,0,0,-1,1392,960,0,0
175,64,0,0,0,0,0,0,0,0,0,-1,1399,960,0,0
182,64,0,0,0,0,0,0,0,0,0,-1,1406,960,0,0
189,64,0,0,0,0,0,0,0,0,0,-1,1413,960,0,0
196,64,0,0,0,0,0,0,0,0,0,-1,1420,960,0,0
203,64,0,0,0,0,0,0,0,0,0,-1,1427,960,0,0
210,64,0,0,0,0,0,0,0,0,0,-1,1434,960,0,0
217,64,0,0,0,0,0,0,0,0,0,-1,1441,960,0,0
224,64,0,0,0,0,0,0,0,0,0,-1,1448,960,0,0
231,64,0,0,0,0,0,0,0,0,0,-1,1455,960,0,0
238,64,0,0,0,0,0,0,0,0,0,-1,1462,960,0,0
245,64,0,0,0,0,0,0,0,0,0,-1,1469,960,0,0
252,64,0,0,0,0,0,0,0,0,0,-1,1476,960,0,0
259,64,0,0,0,0,0,0,0,0,0,-1,1483,960,0,0
266,64,0,0,0,0,0,0,0,0,0,-1,1490,960,0,0
273,64,0,0,0,0,0,0,0,0,0,-1,1497,960,0,0
280,64,0,0,0,0,0,0,0,0,0,-1,1504,960,0,0
287,64,0,0,0,0,0,0,0,0,0,-1,1511,960,0,0
294,64,0,0,0,0,0,0,0,0,0,-1,1518,960,0,0
301,64,0,0,0,0,0,0,0,0,0,-1,1525,960,0,0
308,64,0,0,0,0,0,0,0,0,0,-1,1532,960,0,0
315,64,0,0,0,0,0,0,0,0,0,-1,1539,960,0,0
322,64,0,0,0,0,0,0,0,0,0,-1,1546,960,0,0
329,64,0,0,0,0,0,0,0,0,0,-1,1553,960,0,0
336,64,0,0,0,0,0,0,0,0,0,-1,1560,960,0,0
343,64,0,0,0,0,0,0,0,0,0,-1,1567,960,0,0
350,64,0,0,0,0,0,0,0,0,0,-1,1574,960,0,0
357,64,0,0,0,0,0,0,0,0,0,-1,1581,960,0,0
364,64,0,0,0,0,0,0,0,0,0,-1,1588,960,0,0
371,64,0,0,0,0,0,0,0,0,0,-1,1595,960,0,0
378,64,0,0,0,0,0,0,0,0,0,-1,1602,960,0,0
385,64,0,0,0,0,0,0,0,0,0,-1,1609,960,0,0
392,64,0,0,0,0,0,0,0,0,0,-1,1616,960,0,0
399,64,0,0,0,0,0,0,0,0,0,-1,1623,960,0,0
406,64,0,0,0,0,0,0,0,0,0,-1,1630,960,0,0
413,64,0,0,0,0,0,0,0,0,0,-1,1637,960,0,0
420,64,0,0,0,0,0,0,0,0,0,-1,1644,960,0,0
427,64,0,0,0,0,0,0,0,0,0,-1,1651,960,0,0
434,64,0,0,0,0,0,0,0,0,0,-1,1658,960,0,0
441,64,0,0,0,0,0,0,0,0,0,-1,1665,960,0,0
448,64,0,0,0,0,0,0,0,0,0,-1,1672,960,0,0
455,64,0,0,0,0,0,0,0,0,0,-1,1679,960,0,0
462,64,0,0,0,0,0,0,0,0,0,-1,1686,960,0,0
469,64,0,0,0,0,0,0,0,0,0,-1,1693,960,0,0
476,64,0,0,0,0,0,0,0,0,0,-1,1700,960,0,0
483,64,0,0,0,0,0,0,0,0,0,-1,1707,960,0,0
490,64,0,0,0,0,0,0,0,0,0,-1,1714,960,0,0
497,64,0,0,0,0,0,0,0,0,0,-1,1721,960,0,0
504,64,0,0,0,0,0,0,0,0,0,-1,1728,960,0,0
511,64,0,0,0,0,0,0,0,0,0,-1,1735,960,0,0
518,64,0,0,0,0,0,0,0,0,0,-1,1742,960,0,0
525,64,0,0,0,0,0,0,0,0,0,-1,1749,960,0,0
532,64,0,0,0,0,0,0,0,0,0,-1,1756,960,0,0
539,64,0,0,0,0,0,0,0,0,0,-1,1763,960,0,0
546,64,0,0,0,0,0,0,0,0,0,-1,1770,960,0,0
553,64,0,0,0,0,0,0,0,0,0,-1,1777,960,0,0
560,64,0,0,0,0,0,0,0,0,0,-1,1784,960,0,0
567,64,0,0,0,0,0,0,0,0,0,-1,1791,960,0,0
574,64,0,0,0,0,0,0,0,0,0,-1,1798,960,0,0
581,64,0,0,0,0,0,0,0,0,0,-1,1805,960,0,0
588,64,0,0,0,0,0,0,0,0,0,-1,1812,960,0,0
595,64,0,0,0,0,0,0,0,0,0,-1,1819,960,0,0
602,64,0,0,0,0,0,0,0,0,0,-1,1826,960,0,0
609,64,0,0,0,0,0,0,0,0,0,-1,1833,960,0,0
616,64,0,0,0,0,0,0,0,0,0,-1,1840,960,0,0
623,64,0,0,0,0,0,0,0,0,0,-1,1847,960,0,0
630,64,0,0,0,0,0,0,0,0,0,-1,1854,960,0,0
637,64,0,0,0,0,0,0,0,0,0,-1,1861,960,0,0
644,64,15.465,2.41937,0.003678,0.00413253,0.00316787,0.00708128,0.000729255,0.821207,0.00449752,0.0409197,1868,960,15.4649,-2.41939
651,64,15.6311,2.25562,0.00274625,0.00322738,0.00215751,0.0051577,0.000815938,0.840919,0.00320133,0.0371565,1875,960,15.6311,-2.25559
658,64,15.823,2.40546,0.00170776,0.00252737,0.00144896,0.00362336,0.000611762,0.923212,0.00223968,0.0343952,1882,960,15.823,-2.40544
665,64,15.712,2.57642,0.000597804,0.00207534,0.00103128,0.00260516,6.79863e-05,1.09621,0.00171456,0.0394205,1889,960,15.712,-2.57643
672,64,15.6765,2.59491,-0.000586232,0.00178829,0.000942445,0.00211687,-0.000914818,1.23532,0.00179562,0.0443171,1896,960,15.6765,-2.59492
679,64,15.7247,2.13373,-0.00172281,0.00160051,0.00108502,0.00192339,-0.00204569,1.28156,0.00229191,0.0403178,1903,960,15.7247,-2.13375
686,64,15.6373,2.021,-0.00257956,0.00145859,0.00128614,0.00183342,-0.00295439,1.28721,0.00278939,0.0365102,1910,960,15.6374,-2.02101
693,64,15.6694,2.12329,-0.003229,0.00131475,0.00158082,0.00181062,-0.00372487,1.26684,0.00325899,0.0331223,1917,960,15.6694,-2.12331
700,64,15.7081,2.25348,-0.00380323,0.00116883,0.0017815,0.00174124,-0.00437565,1.2599,0.00363913,0.0313499,1924,960,15.7081,-2.2535
707,64,15.6887,2.40759,-0.00415824,0.0011474,0.00179591,0.00169813,-0.00470898,1.27324,0.00383287,0.0355719,1931,960,15.6887,-2.40756
714,64,15.3337,2.9129,0,0,0,0,0,0,0,-1,1938,960,15.3337,-2.91291
721,64,14.9497,2.86426,-0.00396389,0.00118769,0.00166147,0.00167706,-0.00445325,1.28436,0.00365831,0.0271843,1945,960,14.9497,-2.86427
728,64,14.8461,2.99194,-0.00397856,0.00117265,0.0019946,0.00185468,-0.00466058,1.24132,0.00387612,0.0131627,1952,960,14.8461,-2.99193
735,64,14.8438,3.07538,-0.00388082,0.0013477,0.00224001,0.00217611,-0.00470923,1.21657,0.00406394,0.0150362,1959,960,14.8437,-3.07538
742,64,14.8785,3.11469,-0.00391266,0.00170505,0.00186571,0.00226822,-0.00447583,1.27764,0.0039626,0.0140036,1966,960,14.8785,-3.11466
749,64,14.855,3.18762,-0.00433667,0.00421325,0.00076599,0.00428134,-0.00440475,1.48215,0.00501509,0.0124015,1973,960,14.855,-3.18762
756,64,14.8711,3.26489,-0.0052308,0.00653468,-0.000289729,0.00654181,-0.00523793,-1.54619,0.00681491,0.0138244,1980,960,14.8711,-3.2649
763,64,14.8918,3.34845,-0.00658236,0.00998608,-0.00147478,0.0101163,-0.00671261,-1.48271,0.00978221,0.0130195,1987,960,14.8919,-3.34843
770,64,14.8542,3.39813,-0.0089463,0.0149081,-0.00305137,0.0152923,-0.00933043,-1.44557,0.0143542,0.0132475,1994,960,14.8543,-3.39815
777,64,14.8699,3.42645,-0.0123337,0.0215914,-0.00511662,0.0223463,-0.0130886,-1.42432,0.0206898,0.0307595,2001,960,14.8699,-3.42642
784,64,15.3293,3.03308,-0.017102,0.030503,-0.00798034,0.0318052,-0.0184042,-1.40905,0.0293306,0.0439496,2008,960,15.3293,-3.0331
791,64,15.4668,2.65106,0,0,0,0,0,0,0,-1,2015,960,15.4667,-2.65108
798,64,14.6361,2.7243,-0.0311566,0.0574867,-0.017775,0.0609181,-0.034588,-1.38009,0.0558346,0.0463784,2022,960,14.6361,-2.72432
805,64,14.0032,2.43866,-0.0412727,0.0773048,-0.0256803,0.0826275,-0.0465954,-1.36642,0.0755674,0.0481793,2029,960,14.0032,-2.43869
812,64,0,0,0,0,0,0,0,0,0,-1,2036,960,0,0
-700,57,0,0,0,0,0,0,0,0,0,-1,524,967,0,0
-693,57,0,0,0,0,0,0,0,0,0,-1,531,967,0,0
-686,57,-14.4641,7.30774,0,0,0,0,0,0,0,-1,538,967,-14.4641,-7.30772
-679,57,-13.3799,6.75415,0,0,0,0,0,0,0,-1,545,967,-13.3799,-6.75412
-672,57,-12.2957,6.2005,0,0,0,0,0,0,0,-1,552,967,-12.2957,-6.20052
-665,57,-8.48999,0.336975,0,0,0,0,0,0,0,-1,559,967,-8.48999,-0.336949
-658,57,-8.67163,2.44373,0,0,0,0,0,0,0,-1,566,967,-8.67165,-2.44374
-651,57,-9.03925,1.90814,0.0420903,0.0129523,-0.0264631,0.0577297,-0.00268719,-0.533769,0.0394128,0.0425147,573,967,-9.03927,-1.90815
-644,57,-9.39227,1.30469,0.0304497,0.00903289,-0.0189342,0.0414938,-0.00201124,-0.528043,0.0283568,0.0262265,580,967,-9.39224,-1.30469
-637,57,-9.38776,1.16321,0.0212903,0.00500534,-0.0124988,0.0280649,-0.00176931,-0.496698,0.0193267,0.0143115,587,967,-9.38774,-1.16318
-630,57,-9.41571,1.1488,0.0128659,0.00268757,-0.00764023,0.0169568,-0.00140328,-0.491592,0.0118001,0.0126095,594,967,-9.41574,-1.14879
-623,57,-9.40808,1.13104,0.00574388,0.00150762,-0.00387159,0.00803887,-0.000787371,-0.535093,0.00564005,0.0120555,601,967,-9.40808,-1.13105
-616,57,-9.40399,1.0694,0.00120243,0.00121073,-0.00243863,0.00364521,-0.00123205,-0.78625,0.00292853,0.01367,608,967,-9.40399,-1.06938
-609,57,-9.41931,1.00671,-0.0021907,0.00106913,-0.00142593,0.00160483,-0.00272641,-1.21142,0.00252843,0.0140308,615,967,-9.41929,-1.00673
-602,57,-9.4198,0.952515,-0.00359752,0.000959706,-0.00116161,0.00123871,-0.00387652,-1.33507,0.00308139,0.0107236,622,967,-9.41979,-0.95254
-595,57,-9.40778,0.914246,-0.00399319,0.000769218,-0.00105822,0.000993769,-0.00421774,-1.3617,0.00319502,0.0112299,629,967,-9.40778,-0.914236
-588,57,-9.44049,0.901855,-0.00431301,0.000676223,-0.00119016,0.000945588,-0.00458238,-1.34822,0.00341405,0.0151139,636,967,-9.44047,-0.901838
-581,57,-9.58606,0.747498,-0.00442114,0.000699666,-0.0013118,0.00101615,-0.00473762,-1.33406,0.003546,0.0252244,643,967,-9.58605,-0.747525
-574,57,-9.72754,0.612549,-0.0041737,0.000656052,-0.00136087,0.00101311,-0.00453075,-1.31421,0.00340876,0.0298744,650,967,-9.72751,-0.612556
-567,57,-9.73663,0.535461,-0.00379346,0.000644993,-0.00139816,0.00104871,-0.00419717,-1.2897,0.00320539,0.0318827,657,967,-9.73661,-0.535449
-560,57,-9.60797,0.48999,-0.00300713,0.000632178,-0.00135937,0.00108387,-0.00345882,-1.24999,0.0027396,0.0383107,664,967,-9.60798,-0.489985
-553,57,-9.4798,0.469116,-0.00170986,0.000574396,-0.0012735,0.0011429,-0.00227837,-1.15093,0.0020112,0.0400898,671,967,-9.47979,-0.469106
-546,57,-9.39703,0.506531,0.000130581,0.000434073,-0.00115432,0.00144658,-0.000881926,-0.850753,0.00135748,0.0423956,678,967,-9.397,-0.506524
-539,57,-9.60895,0.529846,0.00256733,0.000166851,-0.00102107,0.00294289,-0.000208717,-0.352458,0.00203507,0.0440781,685,967,-9.60892,-0.529817
-532,57,-9.73059,0.404297,0.00550073,-0.000242577,-0.000955403,0.00565549,-0.000397339,-0.160591,0.00390951,0.0427414,692,967,-9.7306,-0.404277
-525,57,-9.68542,0.397522,0.0084401,-0.000795897,-0.00104304,0.00855643,-0.000912225,-0.111068,0.0060314,0.0394993,699,967,-9.68543,-0.397531
-518,57,0,0,0,0,0,0,0,0,0,-1,706,967,0,0
-511,57,0,0,0,0,0,0,0,0,0,-1,713,967,0,0
-504,57,0,0,0,0,0,0,0,0,0,-1,720,967,0,0
-497,57,0,0,0,0,0,0,0,0,0,-1,727,967,0,0
-490,57,0,0,0,0,0,0,0,0,0,-1,734,967,0,0
-483,57,0,0,0,0,0,0,0,0,0,-1,741,967,0,0
-476,57,0,0,0,0,0,0,0,0,0,-1,748,967,0,0
-469,57,0,0,0,0,0,0,0,0,0,-1,755,967,0,0
-462,57,0,0,0,0,0,0,0,0,0,-1,762,967,0,0
-455,57,0,0,0,0,0,0,0,0,0,-1,769,967,0,0
-448,57,0,0,0,0,0,0,0,0,0,-1,776,967,0,0
-441,57,0,0,0,0,0,0,0,0,0,-1,783,967,0,0
-434,57,0,0,0,0,0,0,0,0,0,-1,790,967,0,0
-427,57,0,0,0,0,0,0,0,0,0,-1,797,967,0,0
-420,57,0,0,0,0,0,0,0,0,0,-1,804,967,0,0
-413,57,0,0,0,0,0,0,0,0,0,-1,811,967,0,0
-406,57,0,0,0,0,0,0,0,0,0,-1,818,967,0,0
-399,57,0,0,0,0,0,0,0,0,0,-1,825,967,0,0
-392,57,0,0,0,0,0,0,0,0,0,-1,832,967,0,0
-385,57,0,0,0,0,0,0,0,0,0,-1,839,967,0,0
-378,57,0,0,0,0,0,0,0,0,0,-1,846,967,0,0
-371,57,0,0,0,0,0,0,0,0,0,-1,853,967,0,0
-364,57,0,0,0,0,0,0,0,0,0,-1,860,967,0,0
-357,57,0,0,0,0,0,0,0,0,0,-1,867,967,0,0
-350,57,0,0,0,0,0,0,0,0,0,-1,874,967,0,0
-343,57,0,0,0,0,0,0,0,0,0,-1,881,967,0,0
-336,57,0,0,0,0,0,0,0,0,0,-1,888,967,0,0
-329,57,0,0,0,0,0,0,0,0,0,-1,895,967,0,0
-322,57,0,0,0,0,0,0,0,0,0,-1,902,967,0,0
-315,57,0,0,0,0,0,0,0,0,0,-1,909,967,0,0
-308,57,0,0,0,0,0,0,0,0,0,-1,916,967,0,0
-301,57,0,0,0,0,0,0,0,0,0,-1,923,967,0,0
-294,57,0,0,0,0,0,0,0,0,0,-1,930,967,0,0
-287,57,0,0,0,0,0,0,0,0,0,-1,937,967,0,0
-280,57,0,0,0,0,0,0,0,0,0,-1,944,967,0,0
-273,57,0,0,0,0,0,0,0,0,0,-1,951,967,0,0
-266,57,0,0,0,0,0,0,0,0,0,-1,958,967,0,0
-259,57,0,0,0,0,0,0,0,0,0,-1,965,967,0,0
-252,57,0,0,0,0,0,0,0,0,0,-1,972,967,0,0
-245,57,0,0,0,0,0,0,0,0,0,-1,979,967,0,0
-238,57,0,0,0,0,0,0,0,0,0,-1,986,967,0,0
-231,57,0,0,0,0,0,0,0,0,0,-1,993,967,0,0
-224,57,0,0,0,0,0,0,0,0,0,-1,1000,967,0,0
-217,57,0,0,0,0,0,0,0,0,0,-1,1007,967,0,0
-210,57,0,0,0,0,0,0,0,0,0,-1,1014,967,0,0
-203,57,0,0,0,0,0,0,0,0,0,-1,1021,967,0,0
-196,57,0,0,0,0,0,0,0,0,0,-1,1028,967,0,0
-189,57,0,0,0,0,0,0,0,0,0,-1,1035,967,0,0
-182,57,0,0,0,0,0,0,0,0,0,-1,1042,967,0,0
-175,57,0,0,0,0,0,0,0,0,0,-1,1049,967,0,0
-168,57,0,0,0,0,0,0,0,0,0,-1,1056,967,0,0
-161,57,0,0,0,0,0,0,0,0,0,-1,1063,967,0,0
-154,57,0,0,0,0,0,0,0,0,0,-1,1070,967,0,0
-147,57,0,0,0,0,0,0,0,0,0,-1,1077,967,0,0
-140,57,0,0,0,0,0,0,0,0,0,-1,1084,967,0,0
-133,57,0,0,0,0,0,0,0,0,0,-1,1091,967,0,0
-126,57,0,0,0,0,0,0,0,0,0,-1,1098,967,0,0
-119,57,0,0,0,0,0,0,0,0,0,-1,1105,967,0,0
-112,57,0,0,0,0,0,0,0,0,0,-1,1112,967,0,0
-105,57,0,0,0,0,0,0,0,0,0,-1,1119,967,0,0
-98,57,0,0,0,0,0,0,0,0,0,-1,1126,967,0,0
-91,57,0,0,0,0,0,0,0,0,0,-1,1133,967,0,0
-84,57,0,0,0,0,0,0,0,0,0,-1,1140,967,0,0
-77,57,0,0,0,0,0,0,0,0,0,-1,1147,967,0,0
-70,57,0,0,0,0,0,0,0,0,0,-1,1154,967,0,0
-63,57,0,0,0,0,0,0,0,0,0,-1,1161,967,0,0
-56,57,0,0,0,0,0,0,0,0,0,-1,1168,967,0,0
-49,57,0,0,0,0,0,0,0,0,0,-1,1175,967,0,0
-42,57,0,0,0,0,0,0,0,0,0,-1,1182,967,0,0
-35,57,0,0,0,0,0,0,0,0,0,-1,1189,967,0,0
-28,57,0,0,0,0,0,0,0,0,0,-1,1196,967,0,0
-21,57,0,0,0,0,0,0,0,0,0,-1,1203,967,0,0
-14,57,0,0,0,0,0,0,0,0,0,-1,1210,967,0,0
-7,57,0,0,0,0,0,0,0,0,0,-1,1217,967,0,0
0,57,0,0,0,0,0,0,0,0,0,-1,1224,967,0,0
7,57,0,0,0,0,0,0,0,0,0,-1,1231,967,0,0
14,57,0,0,0,0,0,0,0,0,0,-1,1238,967,0,0
21,57,0,0,0,0,0,0,0,0,0,-1,1245,967,0,0
28,57,0,0,0,0,0,0,0,0,0,-1,1252,967,0,0
35,57,0,0,0,0,0,0,0,0,0,-1,1259,967,0,0
42,57,0,0,0,0,0,0,0,0,0,-1,1266,967,0,0
49,57,0,0,0,0,0,0,0,0,0,-1,1273,967,0,0
56,57,0,0,0,0,0,0,0,0,0,-1,1280,967,0,0
63,57,0,0,0,0,0,0,0,0,0,-1,1287,967,0,0
70,57,0,0,0,0,0,0,0,0,0,-1,1294,967,0,0
77,57,0,0,0,0,0,0,0,0,0,-1,1301,967,0,0
84,57,0,0,0,0,0,0,0,0,0,-1,1308,967,0,0
91,57,0,0,0,0,0,0,0,0,0,-1,1315,967,0,0
98,57,0,0,0,0,0,0,0,0,0,-1,1322,967,0,0
105,57,0,0,0,0,0,0,0,0,0,-1,1329,967,0,0
112,57,0,0,0,0,0,0,0,0,0,-1,1336,967,0,0
119,57,0,0,0,0,0,0,0,0,0,-1,1343,967,0,0
126,57,0,0,0,0,0,0,0,0,0,-1,1350,967,0,0
133,57,0,0,0,0,0,0,0,0,0,-1,1357,967,0,0
140,57,0,0,0,0,0,0,0,0,0,-1,1364,967,0,0
147,57,0,0,0,0,0,0,0,0,0,-1,1371,967,0,0
154,57,0,0,0,0,0,0,0,0,0,-1,1378,967,0,0
161,57,0,0,0,0,0,0,0,0,0,-1,1385,967,0,0
168,57,0,0,0,0,0,0,0,0,0,-1,1392,967,0,0
175,57,0,0,0,0,0,0,0,0,0,-1,1399,967,0,0
182,57,0,0,0,0,0,0,0,0,0,-1,1406,967,0,0
189,57,0,0,0,0,0,0,0,0,0,-1,1413,967,0,0
196,57,0,0,0,0,0,0,0,0,0,-1,1420,967,0,0
203,57,0,0,0,0,0,0,0,0,0,-1,1427,967,0,0
210,57,0,0,0,0,0,0,0,0,0,-1,1434,967,0,0
217,57,0,0,0,0,0,0,0,0,0,-1,1441,967,0,0
224,57,0,0,0,0,0,0,0,0,0,-1,1448,967,0,0
231,57,0,0,0,0,0,0,0,0,0,-1,1455,967,0,0
238,57,0,0,0,0,0,0,0,0,0,-1,1462,967,0,0
245,57,0,0,0,0,0,0,0,0,0,-1,1469,967,0,0
252,57,0,0,0,0,0,0,0,0,0,-1,1476,967,0,0
259,57,0,0,0,0,0,0,0,0,0,-1,1483,967,0,0
266,57,0,0,0,0,0,0,0,0,0,-1,1490,967,0,0
273,57,0,0,0,0,0,0,0,0,0,-1,1497,967,0,0
280,57,0,0,0,0,0,0,0,0,0,-1,1504,967,0,0
287,57,0,0,0,0,0,0,0,0,0,-1,1511,967,0,0
294,57,0,0,0,0,0,0,0,0,0,-1,1518,967,0,0
301,57,0,0,0,0,0,0,0,0,0,-1,1525,967,0,0
308,57,0,0,0,0,0,0,0,0,0,-1,1532,967,0,0
315,57,0,0,0,0,0,0,0,0,0,-1,1539,967,0,0
322,57,0,0,0,0,0,0,0,0,0,-1,1546,967,0,0
329,57,0,0,0,0,0,0,0,0,0,-1,1553,967,0,0
336,57,0,0,0,0,0,0,0,0,0,-1,1560,967,0,0
343,57,0,0,0,0,0,0,0,0,0,-1,1567,967,0,0
350,57,0,0,0,0,0,0,0,0,0,-1,1574,967,0,0
357,57,0,0,0,0,0,0,0,0,0,-1,1581,967,0,0
364,57,0,0,0,0,0,0,0,0,0,-1,1588,967,0,0
371,57,0,0,0,0,0,0,0,0,0,-1,1595,967,0,0
378,57,0,0,0,0,0,0,0,0,0,-1,1602,967,0,0
385,57,0,0,0,0,0,0,0,0,0,-1,1609,967,0,0
392,57,0,0,0,0,0,0,0,0,0,-1,1616,967,0,0
399,57,0,0,0,0,0,0,0,0,0,-1,1623,967,0,0
406,57,0,0,0,0,0,0,0,0,0,-1,1630,967,0,0
413,57,0,0,0,0,0,0,0,0,0,-1,1637,967,0,0
420,57,0,0,0,0,0,0,0,0,0,-1,1644,967,0,0
427,57,0,0,0,0,0,0,0,0,0,-1,1651,967,0,0
434,57,0,0,0,0,0,0,0,0,0,-1,1658,967,0,0
441,57,0,0,0,0,0,0,0,0,0,-1,1665,967,0,0
448,57,0,0,0,0,0,0,0,0,0,-1,1672,967,0,0
455,57,0,0,0,0,0,0,0,0,0,-1,1679,967,0,0
462,57,0,0,0,0,0,0,0,0,0,-1,1686,967,0,0
469,57,0,0,0,0,0,0,0,0,0,-1,1693,967,0,0
476,57,0,0,0,0,0,0,0,0,0,-1,1700,967,0,0
483,57,0,0,0,0,0,0,0,0,0,-1,1707,967,0,0
490,57,0,0,0,0,0,0,0,0,0,-1,1714,967,0,0
497,57,0,0,0,0,0,0,0,0,0,-1,1721,967,0,0
504,57,0,0,0,0,0,0,0,0,0,-1,1728,967,0,0
511,57,0,0,0,0,0,0,0,0,0,-1,1735,967,0,0
518,57,0,0,0,0,0,0,0,0,0,-1,1742,967,0,0
525,57,0,0,0,0,0,0,0,0,0,-1,1749,967,0,0
532,57,0,0,0,0,0,0,0,0,0,-1,1756,967,0,0
539,57,0,0,0,0,0,0,0,0,0,-1,1763,967,0,0
546,57,0,0,0,0,0,0,0,0,0,-1,1770,967,0,0
553,57,0,0,0,0,0,0,0,0,0,-1,1777,967,0,0
560,57,0,0,0,0,0,0,0,0,0,-1,1784,967,0,0
567,57,0,0,0,0,0,0,0,0,0,-1,1791,967,0,0
574,57,0,0,0,0,0,0,0,0,0,-1,1798,967,0,0
581,57,0,0,0,0,0,0,0,0,0,-1,1805,967,0,0
588,57,0,0,0,0,0,0,0,0,0,-1,1812,967,0,0
595,57,0,0,0,0,0,0,0,0,0,-1,1819,967,0,0
602,57,0,0,0,0,0,0,0,0,0,-1,1826,967,0,0
609,57,0,0,0,0,0,0,0,0,0,-1,1833,967,0,0
616,57,0,0,0,0,0,0,0,0,0,-1,1840,967,0,0
623,57,0,0,0,0,0,0,0,0,0,-1,1847,967,0,0
630,57,0,0,0,0,0,0,0,0,0,-1,1854,967,0,0
637,57,0,0,0,0,0,0,0,0,0,-1,1861,967,0,0
644,57,15.6184,2.32605,0.00439946,0.00352764,0.00422694,0.0082129,-0.000285806,0.734017,0.00557298,0.0426374,1868,967,15.6184,-2.32606
651,57,15.6156,2.29242,0.00319781,0.00265463,0.00297688,0.00591546,-6.30172e-05,0.739908,0.00396481,0.0354141,1875,967,15.6156,-2.29243
658,57,15.7191,2.44061,0.0021607,0.00196646,0.00209747,0.0041633,-3.61435e-05,0.762263,0.00278766,0.03327,1882,967,15.7191,-2.4406
665,57,15.5903,2.56891,0.00112198,0.0015355,0.00155456,0.00289699,-0.000239512,0.851512,0.00201591,0.0402102,1889,967,15.5903,-2.56893
672,57,15.6532,2.59186,-1.94951e-05,0.00129711,0.00140281,0.00218841,-0.000910789,1.00478,0.0018393,0.0447036,1896,967,15.6532,-2.59185
679,57,15.7478,2.1828,-0.00118616,0.00116461,0.00153345,0.00192132,-0.00194287,1.11239,0.002231,0.0426288,1903,967,15.7478,-2.18279
686,57,15.7665,2.01605,-0.00210126,0.00108265,0.00176708,0.00186912,-0.00288773,1.15205,0.00276727,0.0389924,1910,967,15.7665,-2.01606
693,57,15.7338,2.16217,-0.00281943,0.000998325,0.00208139,0.00191363,-0.00373474,1.15649,0.0033171,0.0328399,1917,967,15.7338,-2.16216
700,57,15.7124,2.26166,-0.00348977,0.000927269,0.00226203,0.00188013,-0.00444263,1.17211,0.00374905,0.0257795,1924,967,15.7125,-2.26169
707,57,15.6884,2.38794,-0.00393854,0.000971941,0.00227118,0.00186132,-0.00482792,1.19756,0.00398662,0.0384,1931,967,15.6883,-2.38793
714,57,15.5502,3.00336,0,0,0,0,0,0,0,-1,1938,967,15.5502,-3.00337
721,57,14.9716,2.92413,0,0,0,0,0,0,0,-1,1945,967,14.9716,-2.92412
728,57,14.9252,3.02332,-0.00406363,0.00113731,0.0023663,0.00205278,-0.0049791,1.20165,0.00417539,0.0198983,1952,967,14.9252,-3.02333
735,57,14.9324,3.11017,-0.00396968,0.00131289,0.00237487,0.00222356,-0.00488035,1.20463,0.00419597,0.0183908,1959,967,14.9324,-3.11018
742,57,14.9528,3.15521,-0.00398068,0.00178858,0.00177471,0.00229079,-0.00448289,1.29502,0.00397846,0.0148925,1966,967,14.9527,-3.15522
749,57,14.9199,3.21313,-0.00438311,0.00395839,0.000525489,0.00399136,-0.00441609,1.50813,0.00485611,0.0123268,1973,967,14.9199,-3.21311
756,57,14.9187,3.25867,-0.00514286,0.00608866,-0.000757296,0.00613949,-0.00519369,-1.50377,0.00655081,0.00978238,1980,967,14.9186,-3.25867
763,57,14.9313,3.30341,-0.00613292,0.00928139,-0.00218209,0.00958434,-0.00643587,-1.43284,0.00930862,0.0105545,1987,967,14.9313,-3.30341
770,57,14.923,3.3421,-0.00801009,0.0137028,-0.00399062,0.014413,-0.00872029,-1.39467,0.0134902,0.0112172,1994,967,14.923,-3.34211
777,57,14.9216,3.40851,-0.010797,0.0197247,-0.00618193,0.0209292,-0.0120016,-1.37836,0.0192441,0.0278768,2001,967,14.9216,-3.4085
784,57,14.9366,3.49146,-0.0148064,0.0276772,-0.00897699,0.0294962,-0.0166254,-1.37087,0.0269718,0.0481709,2008,967,14.9366,-3.49144
791,57,14.9012,3.57471,0,0,0,0,0,0,0,-1,2015,967,14.9012,-3.57469
798,57,15.0575,2.18427,0,0,0,0,0,0,0,-1,2022,967,15.0575,-2.18424
805,57,14.5447,1.9527,0,0,0,0,0,0,0,-1,2029,967,14.5447,-1.9527
812,57,0,0,0,0,0,0,0,0,0,-1,2036,967,0,0
-700,50,0,0,0,0,0,0,0,0,0,-1,524,974,0,0
-693,50,-13.4944,6.74017,0,0,0,0,0,0,0,-1,531,974,-13.4944,-6.7402
-686,50,-13.4476,6.43182,0,0,0,0,0,0,0,-1,538,974,-13.4477,-6.43184
-679,50,-12.9783,5.95111,0.0841451,0.0578616,-0.0745154,0.146669,-0.00466204,-0.698114,0.0993696,0.0476235,545,974,-12.9783,-5.95112
-672,50,-12.0897,4.86652,0,0,0,0,0,0,0,-1,552,974,-12.0897,-4.8665
-665,50,-11.1372,4.18073,0,0,0,0,0,0,0,-1,559,974,-11.1372,-4.18075
-658,50,-9.54218,0.780212,0,0,0,0,0,0,0,-1,566,974,-9.54219,-0.780189
-651,50,-9.49731,0.917847,0.0345536,0.019409,-0.027959,0.0559476,-0.0019849,-0.653153,0.0379773,0.041039,573,974,-9.49731,-0.917862
-644,50,-9.42377,1.12579,0.0247121,0.0137796,-0.0200553,0.0400328,-0.00154104,-0.652351,0.0272168,0.0236079,580,974,-9.42378,-1.12577
-637,50,-9.44635,1.12048,0.0171644,0.00821144,-0.0132976,0.0267188,-0.00134292,-0.623036,0.0182766,0.0129121,587,974,-9.44633,-1.12047
-630,50,-9.45074,1.12579,0.0101117,0.00466065,-0.00820875,0.0160356,-0.00126323,-0.625111,0.0111354,0.00988672,594,974,-9.45076,-1.1258
-623,50,-9.4566,1.11115,0.00414294,0.00249936,-0.0042693,0.00766883,-0.00102653,-0.690317,0.00548683,0.010996,601,974,-9.45661,-1.11114
-616,50,-9.46008,1.07074,0.000524452,0.0016571,-0.00276815,0.00391626,-0.00173471,-0.886298,0.00334265,0.0114148,608,974,-9.46008,-1.07077
-609,50,-9.46899,1.01398,-0.00219206,0.00115743,-0.00181467,0.00195206,-0.00298669,-1.15806,0.00287217,0.010505,615,974,-9.46902,-1.01395
-602,50,-9.479,0.963989,-0.00327667,0.000876801,-0.00151667,0.00137166,-0.00377154,-1.2554,0.0030753,0.0104198,622,974,-9.479,-0.963995
-595,50,-9.45258,0.927979,-0.00355219,0.000703155,-0.00143571,0.00114224,-0.00399128,-1.274,0.00311227,0.0107113,629,974,-9.45261,-0.927995
-588,50,-9.48199,0.875671,-0.00377789,0.000643819,-0.00159221,0.00115749,-0.00429156,-1.25873,0.00331493,0.0117717,636,974,-9.48198,-0.875689
-581,50,-9.6452,0.698914,-0.00379863,0.000695503,-0.00170982,0.00127205,-0.00437518,-1.24557,0.00342057,0.0228196,643,974,-9.64521,-0.698897
-574,50,-9.72626,0.522156,-0.00349631,0.000660985,-0.0017375,0.00129152,-0.00412684,-1.22268,0.00326794,0.029572,650,974,-9.72626,-0.522156
-567,50,-9.64911,0.504456,-0.00308953,0.000684222,-0.00174287,0.00136598,-0.00377129,-1.19792,0.00307246,0.0369861,657,974,-9.64909,-0.504477
-560,50,-9.61475,0.542786,-0.00229021,0.000719308,-0.00165078,0.00144824,-0.00301915,-1.15498,0.00263186,0.041779,664,974,-9.61475,-0.542761
-553,50,-9.62463,0.538147,-0.000998458,0.000724248,-0.00149285,0.00158642,-0.00186063,-1.04706,0.00199225,0.0408027,671,974,-9.62461,-0.538129
-546,50,-9.55597,0.600037,0.000832617,0.000659332,-0.0012858,0.00203469,-0.000542743,-0.751757,0.00156898,0.0416223,678,974,-9.55594,-0.600048
-539,50,-9.80286,0.332886,0.0032762,0.000479108,-0.00106095,0.00363309,0.000122218,-0.324495,0.00238236,0.0438071,685,974,-9.80285,-0.332893
-532,50,-9.86646,0.0661621,0.00622684,0.000184675,-0.000930099,0.00636677,4.4741e-05,-0.14933,0.00422968,0.0460572,692,974,-9.86644,-0.06615
-525,50,-9.57916,0.305603,0.00924489,-0.000227207,-0.000981279,0.00934548,-0.000327797,-0.102151,0.00634241,0.0447409,699,974,-9.57914,-0.305631
-518,50,0,0,0,0,0,0,0,0,0,-1,706,974,0,0
-511,50,0,0,0,0,0,0,0,0,0,-1,713,974,0,0
-504,50,0,0,0,0,0,0,0,0,0,-1,720,974,0,0
-497,50,0,0,0,0,0,0,0,0,0,-1,727,974,0,0
-490,50,0,0,0,0,0,0,0,0,0,-1,734,974,0,0
-483,50,0,0,0,0,0,0,0,0,0,-1,741,974,0,0
-476,50,0,0,0,0,0,0,0,0,0,-1,748,974,0,0
-469,50,0,0,0,0,0,0,0,0,0,-1,755,974,0,0
-462,50,0,0,0,0,0,0,0,0,0,-1,762,974,0,0
-455,50,0,0,0,0,0,0,0,0,0,-1,769,974,0,0
-448,50,0,0,0,0,0,0,0,0,0,-1,776,974,0,0
-441,50,0,0,0,0,0,0,0,0,0,-1,783,974,0,0
-434,50,0,0,0,0,0,0,0,0,0,-1,790,974,0,0
-427,50,0,0,0,0,0,0,0,0,0,-1,797,974,0,0
-420,50,0,0,0,0,0,0,0,0,0,-1,804,974,0,0
-413,50,0,0,0,0,0,0,0,0,0,-1,811,974,0,0
-406,50,0,0,0,0,0,0,0,0,0,-1,818,974,0,0
-399,50,0,0,0,0,0,0,0,0,0,-1,825,974,0,0
-392,50,0,0,0,0,0,0,0,0,0,-1,832,974,0,0
-385,50,0,0,0,0,0,0,0,0,0,-1,839,974,0,0
-378,50,0,0,0,0,0,0,0,0,0,-1,846,974,0,0
-371,50,0,0,0,0,0,0,0,0,0,-1,853,974,0,0
-364,50,0,0,0,0,0,0,0,0,0,-1,860,974,0,0
-357,50,0,0,0,0,0,0,0,0,0,-1,867,974,0,0
-350,50,0,0,0,0,0,0,0,0,0,-1,874,974,0,0
-343,50,0,0,0,0,0,0,0,0,0,-1,881,974,0,0
-336,50,0,0,0,0,0,0,0,0,0,-1,888,974,0,0
-329,50,0,0,0,0,0,0,0,0,0,-1,895,974,0,0
-322,50,0,0,0,0,0,0,0,0,0,-1,902,974,0,0
-315,50,0,0,0,0,0,0,0,0,0,-1,909,974,0,0
-308,50,0,0,0,0,0,0,0,0,0,-1,916,974,0,0
-301,50,0,0,0,0,0,0,0,0,0,-1,923,974,0,0
-294,50,0,0,0,0,0,0,0,0,0,-1,930,974,0,0
-287,50,0,0,0,0,0,0,0,0,0,-1,937,974,0,0
-280,50,0,0,0,0,0,0,0,0,0,-1,944,974,0,0
-273,50,0,0,0,0,0,0,0,0,0,-1,951,974,0,0
-266,50,0,0,0,0,0,0,0,0,0,-1,958,974,0,0
-259,50,0,0,0,0,0,0,0,0,0,-1,965,974,0,0
-252,50,0,0,0,0,0,0,0,0,0,-1,972,974,0,0
-245,50,0,0,0,0,0,0,0,0,0,-1,979,974,0,0
-238,50,0,0,0,0,0,0,0,0,0,-1,986,974,0,0
-231,50,0,0,0,0,0,0,0,0,0,-1,993,974,0,0
-224,50,0,0,0,0,0,0,0,0,0,-1,1000,974,0,0
-217,50,0,0,0,0,0,0,0,0,0,-1,1007,974,0,0
-210,50,0,0,0,0,0,0,0,0,0,-1,1014,974,0,0
-203,50,0,0,0,0,0,0,0,0,0,-1,1021,974,0,0
-196,50,0,0,0,0,0,0,0,0,0,-1,1028,974,0,0
-189,50,0,0,0,0,0,0,0,0,0,-1,1035,974,0,0
-182,50,0,0,0,0,0,0,0,0,0,-1,1042,974,0,0
-175,50,0,0,0,0,0,0,0,0,0,-1,1049,974,0,0
-168,50,0,0,0,0,0,0,0,0,0,-1,1056,974,0,0
-161,50,0,0,0,0,0,0,0,0,0,-1,1063,974,0,0
-154,50,0,0,0,0,0,0,0,0,0,-1,1070,974,0,0
-147,50,0,0,0,0,0,0,0,0,0,-1,1077,974,0,0
-140,50,0,0,0,0,0,0,0,0,0,-1,1084,974,0,0
-133,50,0,0,0,0,0,0,0,0,0,-1,1091,974,0,0
-126,50,0,0,0,0,0,0,0,0,0,-1,1098,974,0,0
-119,50,0,0,0,0,0,0,0,0,0,-1,1105,974,0,0
-112,50,0,0,0,0,0,0,0,0,0,-1,1112,974,0,0
-105,50,0,0,0,0,0,0,0,0,0,-1,1119,974,0,0
-98,50,0,0,0,0,0,0,0,0,0,-1,1126,974,0,0
-91,50,0,0,0,0,0,0,0,0,0,-1,1133,974,0,0
-84,50,0,0,0,0,0,0,0,0,0,-1,1140,974,0,0
-77,50,0,0,0,0,0,0,0,0,0,-1,1147,974,0,0
-70,50,0,0,0,0,0,0,0,0,0,-1,1154,974,0,0
-63,50,0,0,0,0,0,0,0,0,0,-1,1161,974,0,0
-56,50,0,0,0,0,0,0,0,0,0,-1,1168,974,0,0
-49,50,0,0,0,0,0,0,0,0,0,-1,1175,974,0,0
-42,50,0,0,0,0,0,0,0,0,0,-1,1182,974,0,0
-35,50,0,0,0,0,0,0,0,0,0,-1,1189,974,0,0
-28,50,0,0,0,0,0,0,0,0,0,-1,1196,974,0,0
-21,50,0,0,0,0,0,0,0,0,0,-1,1203,974,0,0
-14,50,0,0,0,0,0,0,0,0,0,-1,1210,974,0,0
-7,50,0,0,0,0,0,0,0,0,0,-1,1217,974,0,0
0,50,0,0,0,0,0,0,0,0,0,-1,1224,974,0,0
7,50,0,0,0,0,0,0,0,0,0,-1,1231,974,0,0
14,50,0,0,0,0,0,0,0,0,0,-1,1238,974,0,0
21,50,0,0,0,0,0,0,0,0,0,-1,1245,974,0,0
28,50,0,0,0,0,0,0,0,0,0,-1,1252,974,0,0
35,50,0,0,0,0,0,0,0,0,0,-1,1259,974,0,0
42,50,0,0,0,0,0,0,0,0,0,-1,1266,974,0,0
49,50,0,0,0,0,0,0,0,0,0,-1,1273,974,0,0
56,50,0,0,0,0,0,0,0,0,0,-1,1280,974,0,0
63,50,0,0,0,0,0,0,0,0,0,-1,1287,974,0,0
70,50,0,0,0,0,0,0,0,0,0,-1,1294,974,0,0
77,50,0,0,0,0,0,0,0,0,0,-1,1301,974,0,0
84,50,0,0,0,0,0,0,0,0,0,-1,1308,974,0,0
91,50,0,0,0,0,0,0,0,0,0,-1,1315,974,0,0
98,50,0,0,0,0,0,0,0,0,0,-1,1322,974,0,0
105,50,0,0,0,0,0,0,0,0,0,-1,1329,974,0,0
112,50,0,0,0,0,0,0,0,0,0,-1,1336,974,0,0
119,50,0,0,0,0,0,0,0,0,0,-1,1343,974,0,0
126,50,0,0,0,0,0,0,0,0,0,-1,1350,974,0,0
133,50,0,0,0,0,0,0,0,0,0,-1,1357,974,0,0
140,50,0,0,0,0,0,0,0,0,0,-1,1364,974,0,0
147,50,0,0,0,0,0,0,0,0,0,-1,1371,974,0,0
154,50,0,0,0,0,0,0,0,0,0,-1,1378,974,0,0
161,50,0,0,0,0,0,0,0,0,0,-1,1385,974,0,0
168,50,0,0,0,0,0,0,0,0,0,-1,1392,974,0,0
175,50,0,0,0,0,0,0,0,0,0,-1,1399,974,0,0
182,50,0,0,0,0,0,0,0,0,0,-1,1406,974,0,0
189,50,0,0,0,0,0,0,0,0,0,-1,1413,974,0,0
196,50,0,0,0,0,0,0,0,0,0,-1,1420,974,0,0
203,50,0,0,0,0,0,0,0,0,0,-1,1427,974,0,0
210,50,0,0,0,0,0,0,0,0,0,-1,1434,974,0,0
217,50,0,0,0,0,0,0,0,0,0,-1,1441,974,0,0
224,50,0,0,0,0,0,0,0,0,0,-1,1448,974,0,0
231,50,0,0,0,0,0,0,0,0,0,-1,1455,974,0,0
238,50,0,0,0,0,0,0,0,0,0,-1,1462,974,0,0
245,50,0,0,0,0,0,0,0,0,0,-1,1469,974,0,0
252,50,0,0,0,0,0,0,0,0,0,-1,1476,974,0,0
259,50,0,0,0,0,0,0,0,0,0,-1,1483,974,0,0
266,50,0,0,0,0,0,0,0,0,0,-1,1490,974,0,0
273,50,0,0,0,0,0,0,0,0,0,-1,1497,974,0,0
280,50,0,0,0,0,0,0,0,0,0,-1,1504,974,0,0
287,50,0,0,0,0,0,0,0,0,0,-1,1511,974,0,0
294,50,0,0,0,0,0,0,0,0,0,-1,1518,974,0,0
301,50,0,0,0,0,0,0,0,0,0,-1,1525,974,0,0
308,50,0,0,0,0,0,0,0,0,0,-1,1532,974,0,0
315,50,0,0,0,0,0,0,0,0,0,-1,1539,974,0,0
322,50,0,0,0,0,0,0,0,0,0,-1,1546,974,0,0
329,50,0,0,0,0,0,0,0,0,0,-1,1553,974,0,0
336,50,0,0,0,0,0,0,0,0,0,-1,1560,974,0,0
343,50,0,0,0,0,0,0,0,0,0,-1,1567,974,0,0
350,50,0,0,0,0,0,0,0,0,0,-1,1574,974,0,0
357,50,0,0,0,0,0,0,0,0,0,-1,1581,974,0,0
364,50,0,0,0,0,0,0,0,0,0,-1,1588,974,0,0
371,50,0,0,0,0,0,0,0,0,0,-1,1595,974,0,0
378,50,0,0,0,0,0,0,0,0,0,-1,1602,974,0,0
385,50,0,0,0,0,0,0,0,0,0,-1,1609,974,0,0
392,50,0,0,0,0,0,0,0,0,0,-1,1616,974,0,0
399,50,0,0,0,0,0,0,0,0,0,-1,1623,974,0,0
406,50,0,0,0,0,0,0,0,0,0,-1,1630,974,0,0
413,50,0,0,0,0,0,0,0,0,0,-1,1637,974,0,0
420,50,0,0,0,0,0,0,0,0,0,-1,1644,974,0,0
427,50,0,0,0,0,0,0,0,0,0,-1,1651,974,0,0
434,50,0,0,0,0,0,0,0,0,0,-1,1658,974,0,0
441,50,0,0,0,0,0,0,0,0,0,-1,1665,974,0,0
448,50,0,0,0,0,0,0,0,0,0,-1,1672,974,0,0
455,50,0,0,0,0,0,0,0,0,0,-1,1679,974,0,0
462,50,0,0,0,0,0,0,0,0,0,-1,1686,974,0,0
469,50,0,0,0,0,0,0,0,0,0,-1,1693,974,0,0
476,50,0,0,0,0,0,0,0,0,0,-1,1700,974,0,0
483,50,0,0,0,0,0,0,0,0,0,-1,1707,974,0,0
490,50,0,0,0,0,0,0,0,0,0,-1,1714,974,0,0
497,50,0,0,0,0,0,0,0,0,0,-1,1721,974,0,0
504,50,0,0,0,0,0,0,0,0,0,-1,1728,974,0,0
511,50,0,0,0,0,0,0,0,0,0,-1,1735,974,0,0
518,50,0,0,0,0,0,0,0,0,0,-1,1742,974,0,0
525,50,0,0,0,0,0,0,0,0,0,-1,1749,974,0,0
532,50,0,0,0,0,0,0,0,0,0,-1,1756,974,0,0
539,50,0,0,0,0,0,0,0,0,0,-1,1763,974,0,0
546,50,0,0,0,0,0,0,0,0,0,-1,1770,974,0,0
553,50,0,0,0,0,0,0,0,0,0,-1,1777,974,0,0
560,50,0,0,0,0,0,0,0,0,0,-1,1784,974,0,0
567,50,0,0,0,0,0,0,0,0,0,-1,1791,974,0,0
574,50,0,0,0,0,0,0,0,0,0,-1,1798,974,0,0
581,50,0,0,0,0,0,0,0,0,0,-1,1805,974,0,0
588,50,0,0,0,0,0,0,0,0,0,-1,1812,974,0,0
595,50,0,0,0,0,0,0,0,0,0,-1,1819,974,0,0
602,50,0,0,0,0,0,0,0,0,0,-1,1826,974,0,0
609,50,0,0,0,0,0,0,0,0,0,-1,1833,974,0,0
616,50,0,0,0,0,0,0,0,0,0,-1,1840,974,0,0
623,50,0,0,0,0,0,0,0,0,0,-1,1847,974,0,0
630,50,0,0,0,0,0,0,0,0,0,-1,1854,974,0,0
637,50,0,0,0,0,0,0,0,0,0,-1,1861,974,0,0
644,50,15.7338,2.0708,0.00478572,0.00238598,0.00547456,0.00919036,-0.00201866,0.677518,0.00689895,0.0420386,1868,974,15.7338,-2.0708
651,50,15.694,2.18842,0.0034585,0.00179559,0.00386531,0.00658077,-0.00132668,0.679459,0.00488977,0.0334933,1875,974,15.694,-2.1884
658,50,15.6808,2.32959,0.00241324,0.00128725,0.00272594,0.00463371,-0.000933222,0.683564,0.00344264,0.0370301,1882,974,15.6808,-2.3296
665,50,15.6068,2.39178,0.00141101,0.000983275,0.00199208,0.00320067,-0.000806383,0.731923,0.00244727,0.0409581,1889,974,15.6069,-2.3918
672,50,15.6028,2.45337,0.00027118,0.000871729,0.00174805,0.00234511,-0.0012022,0.870456,0.00208317,0.0422002,1896,974,15.6028,-2.45337
679,50,15.6754,2.15649,-0.00097422,0.000836285,0.00186335,0.00200264,-0.00214058,1.01152,0.00239253,0.0417171,1903,974,15.6754,-2.1565
686,50,15.7645,1.99438,-0.00198408,0.000835453,0.00212788,0.0019782,-0.00312683,1.07796,0.00297215,0.0419213,1910,974,15.7645,-1.9944
693,50,15.7291,2.12048,-0.00279234,0.00083259,0.00247883,0.0020909,-0.00405065,1.10107,0.00360549,0.0386161,1917,974,15.7292,-2.12051
700,50,15.6708,2.30731,-0.0035522,0.000823817,0.0026697,0.00208757,-0.00481595,1.12868,0.0040882,0.0217545,1924,974,15.6708,-2.30734
707,50,15.7058,2.36481,-0.00408756,0.000922789,0.0027001,0.00210088,-0.00526565,1.15938,0.00438195,0.0318496,1931,974,15.7058,-2.36478
714,50,15.6445,2.59717,-0.00425726,0.00102837,0.00261059,0.00210034,-0.00532923,1.18116,0.00442244,0.0452114,1938,974,15.6446,-2.59718
721,50,15.0381,2.86694,0,0,0,0,0,0,0,-1,1945,974,15.0381,-2.86696
728,50,14.9946,2.99286,-0.00437098,0.00114311,0.00280429,0.00231867,-0.00554654,1.17385,0.00466671,0.0218087,1952,974,14.9947,-2.99289
735,50,15.0128,3.05774,-0.00421775,0.00132099,0.00264179,0.00237895,-0.00527571,1.18988,0.00452368,0.0175886,1959,974,15.0128,-3.05776
742,50,15.0304,3.11603,-0.00411259,0.00190678,0.00183194,0.00242048,-0.00462629,1.29741,0.00413436,0.0150027,1966,974,15.0304,-3.11603
749,50,15.0153,3.19092,-0.00433648,0.00373573,0.00051057,0.00376789,-0.00436864,1.50788,0.0047019,0.015442,1973,974,15.0152,-3.19089
756,50,14.9971,3.24078,-0.00482294,0.0056511,-0.000917334,0.00573084,-0.00490267,-1.48409,0.00614546,0.0108804,1980,974,14.9971,-3.24078
763,50,15,3.284,-0.00537841,0.00855578,-0.00250966,0.00899401,-0.00581664,-1.39792,0.00861627,0.010067,1987,974,15,-3.28403
770,50,14.9911,3.31311,-0.00666127,0.012455,-0.00446514,0.0134466,-0.0076528,-1.35228,0.0123339,0.0106614,1994,974,14.9911,-3.31309
777,50,14.9905,3.36218,-0.00872763,0.0178109,-0.006706,0.0194091,-0.0103259,-1.33683,0.0174325,0.0231945,2001,974,14.9905,-3.36218
784,50,14.9921,3.42072,-0.0118828,0.0248421,-0.00937291,0.027096,-0.0141366,-1.33481,0.0241944,0.0419945,2008,974,14.992,-3.42072
791,50,14.8579,3.26086,-0.0159909,0.0339465,-0.0127335,0.037006,-0.0190503,-1.335,0.0329129,0.0458704,2015,974,14.8579,-3.26087
798,50,14.833,2.77515,0,0,0,0,0,0,0,-1,2022,974,14.833,-2.77516
805,50,15.218,1.48901,0,0,0,0,0,0,0,-1,2029,974,15.218,-1.48904
812,50,0,0,0,0,0,0,0,0,0,-1,2036,974,0,0
-700,43,0,0,0,0,0,0,0,0,0,-1,524,981,0,0
-693,43,-12.8766,5.88037,0.0759592,0.110239,-0.104841,0.199332,-0.0131338,-0.866423,0.137475,0.0476253,531,981,-12.8766,-5.88039
-686,43,-12.6867,5.73376,0.0715059,0.0898974,-0.0895542,0.170727,-0.00932343,-0.836561,0.117049,0.047303,538,981,-12.6867,-5.73375
-679,43,-12.1949,5.34595,0.0633602,0.0726373,-0.0747042,0.142847,-0.00684936,-0.816405,0.0975944,0.0474907,545,981,-12.1949,-5.34594
-672,43,-11.4042,4.50031,0,0,0,0,0,0,0,-1,552,981,-11.4042,-4.50033
-665,43,-9.8186,3.14435,0,0,0,0,0,0,0,-1,559,981,-9.81861,-3.14434
-658,43,-9.38104,1.02838,0,0,0,0,0,0,0,-1,566,981,-9.38104,-1.02837
-651,43,-9.41705,1.08374,0.0257808,0.0253563,-0.0276161,0.0531855,-0.00204841,-0.781555,0.0361591,0.03867,573,981,-9.41706,-1.08376
-644,43,-9.47516,1.1402,0.0183301,0.0180634,-0.0197485,0.0379457,-0.00155221,-0.782023,0.0258301,0.0177389,580,981,-9.47519,-1.14018
-637,43,-9.49231,1.14709,0.0127592,0.0111423,-0.0130794,0.0250552,-0.00115366,-0.754531,0.017101,0.0115378,587,981,-9.49233,-1.14708
-630,43,-9.48883,1.12439,0.00736435,0.00647346,-0.00810628,0.0150374,-0.0011996,-0.757951,0.0104478,0.0111033,594,981,-9.48882,-1.12439
-623,43,-9.50421,1.08472,0.00280562,0.00342493,-0.00431148,0.00743786,-0.00120732,-0.821247,0.00540614,0.0109539,601,981,-9.50418,-1.08473
-616,43,-9.50092,1.05206,0.00011057,0.00207419,-0.00289165,0.00414616,-0.0019614,-0.949058,0.00360062,0.0100219,608,981,-9.50093,-1.05209
-609,43,-9.51044,1.0152,-0.00200118,0.00124882,-0.0020786,0.00226223,-0.00301459,-1.11716,0.00305688,0.0117272,615,981,-9.51045,-1.01517
-602,43,-9.5199,0.971313,-0.00287582,0.000828684,-0.00183911,0.00158663,-0.00363377,-1.17988,0.00309028,0.0144991,622,981,-9.51987,-0.971344
-595,43,-9.50189,0.932312,-0.00308432,0.000642049,-0.00182302,0.00138556,-0.00382783,-1.18354,0.0031181,0.0130453,629,981,-9.5019,-0.932328
-588,43,-9.51581,0.846924,-0.00322784,0.000602143,-0.00201632,0.00146793,-0.00409363,-1.16521,0.00332811,0.0122688,636,981,-9.5158,-0.846893
-581,43,-9.64276,0.710022,-0.00317798,0.000672333,-0.0021484,0.00163193,-0.00413758,-1.15072,0.00343415,0.0205988,643,981,-9.64274,-0.710051
-574,43,-9.70831,0.61554,-0.00282302,0.000649598,-0.0021631,0.00168705,-0.00386047,-1.12359,0.00328378,0.0304731,650,981,-9.70834,-0.615529
-567,43,-9.61566,0.646973,-0.00237509,0.000707782,-0.00213909,0.00180296,-0.00347027,-1.09761,0.00309481,0.0401417,657,981,-9.61565,-0.646967
-560,43,-9.7002,0.71051,-0.00153903,0.000784822,-0.00200689,0.00194188,-0.00269609,-1.0478,0.00268951,0.0432304,664,981,-9.70018,-0.710493
-553,43,-9.83142,0.5802,-0.000214168,0.000846583,-0.0017914,0.00218447,-0.00155205,-0.929321,0.00216756,0.0410941,671,981,-9.83143,-0.580172
-546,43,-9.83441,0.629639,0.00166289,0.000852127,-0.00150987,0.00282085,-0.000305831,-0.654247,0.00199036,0.0424035,678,981,-9.83442,-0.629665
-539,43,-10.1007,-0.194153,0,0,0,0,0,0,0,-1,685,981,-10.1007,0.194153
-532,43,-9.89307,0.302429,0.00724943,0.000581528,-0.00101837,0.0074015,0.000429464,-0.148226,0.00479759,0.0470744,692,981,-9.89308,-0.302452
-525,43,-9.6687,0.517273,0.0104928,0.000316652,-0.00101991,0.010594,0.000215439,-0.0989143,0.00699196,0.0471649,699,981,-9.66867,-0.517271
-518,43,0,0,0,0,0,0,0,0,0,-1,706,981,0,0
-511,43,0,0,0,0,0,0,0,0,0,-1,713,981,0,0
-504,43,0,0,0,0,0,0,0,0,0,-1,720,981,0,0
-497,43,0,0,0,0,0,0,0,0,0,-1,727,981,0,0
-490,43,0,0,0,0,0,0,0,0,0,-1,734,981,0,0
-483,43,0,0,0,0,0,0,0,0,0,-1,741,981,0,0
-476,43,0,0,0,0,0,0,0,0,0,-1,748,981,0,0
-469,43,0,0,0,0,0,0,0,0,0,-1,755,981,0,0
-462,43,0,0,0,0,0,0,0,0,0,-1,762,981,0,0
-455,43,0,0,0,0,0,0,0,0,0,-1,769,981,0,0
-448,43,0,0,0,0,0,0,0,0,0,-1,776,981,0,0
-441,43,0,0,0,0,0,0,0,0,0,-1,783,981,0,0
-434,43,0,0,0,0,0,0,0,0,0,-1,790,981,0,0
-427,43,0,0,0,0,0,0,0,0,0,-1,797,981,0,0
-420,43,0,0,0,0,0,0,0,0,0,-1,804,981,0,0
-413,43,0,0,0,0,0,0,0,0,0,-1,811,981,0,0
-406,43,0,0,0,0,0,0,0,0,0,-1,818,981,0,0
-399,43,0,0,0,0,0,0,0,0,0,-1,825,981,0,0
-392,43,0,0,0,0,0,0,0,0,0,-1,832,981,0,0
-385,43,0,0,0,0,0,0,0,0,0,-1,839,981,0,0
-378,43,0,0,0,0,0,0,0,0,0,-1,846,981,0,0
-371,43,0,0,0,0,0,0,0,0,0,-1,853,981,0,0
-364,43,0,0,0,0,0,0,0,0,0,-1,860,981,0,0
-357,43,0,0,0,0,0,0,0,0,0,-1,867,981,0,0
-350,43,0,0,0,0,0,0,0,0,0,-1,874,981,0,0
-343,43,0,0,0,0,0,0,0,0,0,-1,881,981,0,0
-336,43,0,0,0,0,0,0,0,0,0,-1,888,981,0,0
-329,43,0,0,0,0,0,0,0,0,0,-1,895,981,0,0
-322,43,0,0,0,0,0,0,0,0,0,-1,902,981,0,0
-315,43,0,0,0,0,0,0,0,0,0,-1,909,981,0,0
-308,43,0,0,0,0,0,0,0,0,0,-1,916,981,0,0
-301,43,0,0,0,0,0,0,0,0,0,-1,923,981,0,0
-294,43,0,0,0,0,0,0,0,0,0,-1,930,981,0,0
-287,43,0,0,0,0,0,0,0,0,0,-1,937,981,0,0
-280,43,0,0,0,0,0,0,0,0,0,-1,944,981,0,0
-273,43,0,0,0,0,0,0,0,0,0,-1,951,981,0,0
-266,43,0,0,0,0,0,0,0,0,0,-1,958,981,0,0
-259,43,0,0,0,0,0,0,0,0,0,-1,965,981,0,0
-252,43,0,0,0,0,0,0,0,0,0,-1,972,981,0,0
-245,43,0,0,0,0,0,0,0,0,0,-1,979,981,0,0
-238,43,0,0,0,0,0,0,0,0,0,-1,986,981,0,0
-231,43,0,0,0,0,0,0,0,0,0,-1,993,981,0,0
-224,43,0,0,0,0,0,0,0,0,0,-1,1000,981,0,0
-217,43,0,0,0,0,0,0,0,0,0,-1,1007,981,0,0
-210,43,0,0,0,0,0,0,0,0,0,-1,1014,981,0,0
-203,43,0,0,0,0,0,0,0,0,0,-1,1021,981,0,0
-196,43,0,0,0,0,0,0,0,0,0,-1,1028,981,0,0
-189,43,0,0,0,0,0,0,0,0,0,-1,1035,981,0,0
-182,43,0,0,0,0,0,0,0,0,0,-1,1042,981,0,0
-175,43,0,0,0,0,0,0,0,0,0,-1,1049,981,0,0
-168,43,0,0,0,0,0,0,0,0,0,-1,1056,981,0,0
-161,43,0,0,0,0,0,0,0,0,0,-1,1063,981,0,0
-154,43,0,0,0,0,0,0,0,0,0,-1,1070,981,0,0
-147,43,0,0,0,0,0,0,0,0,0,-1,1077,981,0,0
-140,43,0,0,0,0,0,0,0,0,0,-1,1084,981,0,0
-133,43,0,0,0,0,0,0,0,0,0,-1,1091,981,0,0
-126,43,0,0,0,0,0,0,0,0,0,-1,1098,981,0,0
-119,43,0,0,0,0,0,0,0,0,0,-1,1105,981,0,0
-112,43,0,0,0,0,0,0,0,0,0,-1,1112,981,0,0
-105,43,0,0,0,0,0,0,0,0,0,-1,1119,981,0,0
-98,43,0,0,0,0,0,0,0,0,0,-1,1126,981,0,0
-91,43,0,0,0,0,0,0,0,0,0,-1,1133,981,0,0
-84,43,0,0,0,0,0,0,0,0,0,-1,1140,981,0,0
-77,43,0,0,0,0,0,0,0,0,0,-1,1147,981,0,0
-70,43,0,0,0,0,0,0,0,0,0,-1,1154,981,0,0
-63,43,0,0,0,0,0,0,0,0,0,-1,1161,981,0,0
-56,43,0,0,0,0,0,0,0,0,0,-1,1168,981,0,0
-49,43,0,0,0,0,0,0,0,0,0,-1,1175,981,0,0
-42,43,0,0,0,0,0,0,0,0,0,-1,1182,981,0,0
-35,43,0,0,0,0,0,0,0,0,0,-1,1189,981,0,0
-28,43,0,0,0,0,0,0,0,0,0,-1,1196,981,0,0
-21,43,0,0,0,0,0,0,0,0,0,-1,1203,981,0,0
-14,43,0,0,0,0,0,0,0,0,0,-1,1210,981,0,0
-7,43,0,0,0,0,0,0,0,0,0,-1,1217,981,0,0
0,43,0,0,0,0,0,0,0,0,0,-1,1224,981,0,0
7,43,0,0,0,0,0,0,0,0,0,-1,1231,981,0,0
14,43,0,0,0,0,0,0,0,0,0,-1,1238,981,0,0
21,43,0,0,0,0,0,0,0,0,0,-1,1245,981,0,0
28,43,0,0,0,0,0,0,0,0,0,-1,1252,981,0,0
35,43,0,0,0,0,0,0,0,0,0,-1,1259,981,0,0
42,43,0,0,0,0,0,0,0,0,0,-1,1266,981,0,0
49,43,0,0,0,0,0,0,0,0,0,-1,1273,981,0,0
56,43,0,0,0,0,0,0,0,0,0,-1,1280,981,0,0
63,43,0,0,0,0,0,0,0,0,0,-1,1287,981,0,0
70,43,0,0,0,0,0,0,0,0,0,-1,1294,981,0,0
77,43,0,0,0,0,0,0,0,0,0,-1,1301,981,0,0
84,43,0,0,0,0,0,0,0,0,0,-1,1308,981,0,0
91,43,0,0,0,0,0,0,0,0,0,-1,1315,981,0,0
98,43,0,0,0,0,0,0,0,0,0,-1,1322,981,0,0
105,43,0,0,0,0,0,0,0,0,0,-1,1329,981,0,0
112,43,0,0,0,0,0,0,0,0,0,-1,1336,981,0,0
119,43,0,0,0,0,0,0,0,0,0,-1,1343,981,0,0
126,43,0,0,0,0,0,0,0,0,0,-1,1350,981,0,0
133,43,0,0,0,0,0,0,0,0,0,-1,1357,981,0,0
140,43,0,0,0,0,0,0,0,0,0,-1,1364,981,0,0
147,43,0,0,0,0,0,0,0,0,0,-1,1371,981,0,0
154,43,0,0,0,0,0,0,0,0,0,-1,1378,981,0,0
161,43,0,0,0,0,0,0,0,0,0,-1,1385,981,0,0
168,43,0,0,0,0,0,0,0,0,0,-1,1392,981,0,0
175,43,0,0,0,0,0,0,0,0,0,-1,1399,981,0,0
182,43,0,0,0,0,0,0,0,0,0,-1,1406,981,0,0
189,43,0,0,0,0,0,0,0,0,0,-1,1413,981,0,0
196,43,0,0,0,0,0,0,0,0,0,-1,1420,981,0,0
203,43,0,0,0,0,0,0,0,0,0,-1,1427,981,0,0
210,43,0,0,0,0,0,0,0,0,0,-1,1434,981,0,0
217,43,0,0,0,0,0,0,0,0,0,-1,1441,981,0,0
224,43,0,0,0,0,0,0,0,0,0,-1,1448,981,0,0
231,43,0,0,0,0,0,0,0,0,0,-1,1455,981,0,0
238,43,0,0,0,0,0,0,0,0,0,-1,1462,981,0,0
245,43,0,0,0,0,0,0,0,0,0,-1,1469,981,0,0
252,43,0,0,0,0,0,0,0,0,0,-1,1476,981,0,0
259,43,0,0,0,0,0,0,0,0,0,-1,1483,981,0,0
266,43,0,0,0,0,0,0,0,0,0,-1,1490,981,0,0
273,43,0,0,0,0,0,0,0,0,0,-1,1497,981,0,0
280,43,0,0,0,0,0,0,0,0,0,-1,1504,981,0,0
287,43,0,0,0,0,0,0,0,0,0,-1,1511,981,0,0
294,43,0,0,0,0,0,0,0,0,0,-1,1518,981,0,0
301,43,0,0,0,0,0,0,0,0,0,-1,1525,981,0,0
308,43,0,0,0,0,0,0,0,0,0,-1,1532,981,0,0
315,43,0,0,0,0,0,0,0,0,0,-1,1539,981,0,0
322,43,0,0,0,0,0,0,0,0,0,-1,1546,981,0,0
329,43,0,0,0,0,0,0,0,0,0,-1,1553,981,0,0
336,43,0,0,0,0,0,0,0,0,0,-1,1560,981,0,0
343,43,0,0,0,0,0,0,0,0,0,-1,1567,981,0,0
350,43,0,0,0,0,0,0,0,0,0,-1,1574,981,0,0
357,43,0,0,0,0,0,0,0,0,0,-1,1581,981,0,0
364,43,0,0,0,0,0,0,0,0,0,-1,1588,981,0,0
371,43,0,0,0,0,0,0,0,0,0,-1,1595,981,0,0
378,43,0,0,0,0,0,0,0,0,0,-1,1602,981,0,0
385,43,0,0,0,0,0,0,0,0,0,-1,1609,981,0,0
392,43,0,0,0,0,0,0,0,0,0,-1,1616,981,0,0
399,43,0,0,0,0,0,0,0,0,0,-1,1623,981,0,0
406,43,0,0,0,0,0,0,0,0,0,-1,1630,981,0,0
413,43,0,0,0,0,0,0,0,0,0,-1,1637,981,0,0
420,43,0,0,0,0,0,0,0,0,0,-1,1644,981,0,0
427,43,0,0,0,0,0,0,0,0,0,-1,1651,981,0,0
434,43,0,0,0,0,0,0,0,0,0,-1,1658,981,0,0
441,43,0,0,0,0,0,0,0,0,0,-1,1665,981,0,0
448,43,0,0,0,0,0,0,0,0,0,-1,1672,981,0,0
455,43,0,0,0,0,0,0,0,0,0,-1,1679,981,0,0
462,43,0,0,0,0,0,0,0,0,0,-1,1686,981,0,0
469,43,0,0,0,0,0,0,0,0,0,-1,1693,981,0,0
476,43,0,0,0,0,0,0,0,0,0,-1,1700,981,0,0
483,43,0,0,0,0,0,0,0,0,0,-1,1707,981,0,0
490,43,0,0,0,0,0,0,0,0,0,-1,1714,981,0,0
497,43,0,0,0,0,0,0,0,0,0,-1,1721,981,0,0
504,43,0,0,0,0,0,0,0,0,0,-1,1728,981,0,0
511,43,0,0,0,0,0,0,0,0,0,-1,1735,981,0,0
518,43,0,0,0,0,0,0,0,0,0,-1,1742,981,0,0
525,43,0,0,0,0,0,0,0,0,0,-1,1749,981,0,0
532,43,0,0,0,0,0,0,0,0,0,-1,1756,981,0,0
539,43,0,0,0,0,0,0,0,0,0,-1,1763,981,0,0
546,43,0,0,0,0,0,0,0,0,0,-1,1770,981,0,0
553,43,0,0,0,0,0,0,0,0,0,-1,1777,981,0,0
560,43,0,0,0,0,0,0,0,0,0,-1,1784,981,0,0
567,43,0,0,0,0,0,0,0,0,0,-1,1791,981,0,0
574,43,0,0,0,0,0,0,0,0,0,-1,1798,981,0,0
581,43,0,0,0,0,0,0,0,0,0,-1,1805,981,0,0
588,43,0,0,0,0,0,0,0,0,0,-1,1812,981,0,0
595,43,0,0,0,0,0,0,0,0,0,-1,1819,981,0,0
602,43,0,0,0,0,0,0,0,0,0,-1,1826,981,0,0
609,43,0,0,0,0,0,0,0,0,0,-1,1833,981,0,0
616,43,0,0,0,0,0,0,0,0,0,-1,1840,981,0,0
623,43,0,0,0,0,0,0,0,0,0,-1,1847,981,0,0
630,43,0,0,0,0,0,0,0,0,0,-1,1854,981,0,0
637,43,0,0,0,0,0,0,0,0,0,-1,1861,981,0,0
644,43,15.7173,2.03925,0.00529324,0.00136085,0.00644427,0.0100646,-0.00341049,0.63733,0.00808985,0.0403114,1868,981,15.7173,-2.03923
651,43,15.7092,2.11163,0.00380387,0.00115524,0.00446209,0.00713402,-0.0021749,0.641142,0.00562298,0.0372379,1875,981,15.7092,-2.11164
658,43,15.7488,2.29803,0.00265701,0.000918274,0.00307331,0.00498155,-0.00140627,0.647561,0.00387578,0.0372612,1882,981,15.7488,-2.29805
665,43,15.7018,2.33026,0.00161618,0.000786362,0.00216635,0.003407,-0.00100446,0.690782,0.00266989,0.0362539,1889,981,15.7018,-2.33024
672,43,15.874,2.25342,0.000435394,0.000811217,0.00185712,0.00248991,-0.0012433,0.835819,0.00219506,0.0390049,1896,981,15.874,-2.25339
679,43,15.6541,2.21442,-0.000908243,0.000859122,0.00198745,0.0021505,-0.00219962,0.994588,0.00251159,0.0406982,1903,981,15.6541,-2.21439
686,43,15.6224,2.12634,-0.00202145,0.000907066,0.0022984,0.002168,-0.00328239,1.06902,0.00316864,0.0407632,1910,981,15.6225,-2.12636
693,43,15.6025,2.20496,-0.00292263,0.000933468,0.0027092,0.00233065,-0.00431981,1.09465,0.00389647,0.0371104,1917,981,15.6025,-2.20498
700,43,15.6389,2.38641,-0.00375721,0.000950412,0.00293658,0.0023601,-0.00516689,1.12324,0.00444529,0.0310385,1924,981,15.6389,-2.38643
707,43,15.7,2.33032,-0.0043573,0.00106664,0.00302398,0.00241659,-0.00570725,1.15093,0.00481686,0.0275738,1931,981,15.6999,-2.3303
714,43,15.7415,2.31989,-0.00460428,0.00114816,0.00301182,0.00243652,-0.00589264,1.16658,0.00494491,0.0335682,1938,981,15.7414,-2.31989
721,43,15.498,2.70734,-0.0047315,0.00118178,0.00310961,0.00251599,-0.00606571,1.16549,0.00509398,0.0312129,1945,981,15.4981,-2.70733
728,43,15.1646,2.96851,-0.00478118,0.00122401,0.00321275,0.00261884,-0.00617601,1.1612,0.00521431,0.020243,1952,981,15.1645,-2.96848
735,43,15.0715,3.04718,-0.00457526,0.00136828,0.00293406,0.00257264,-0.00577963,1.18129,0.00493925,0.0138573,1959,981,15.0715,-3.04716
742,43,15.0663,3.09534,-0.00436701,0.0019612,0.00198822,0.00253402,-0.00493983,1.29029,0.00438892,0.0165854,1966,981,15.0663,-3.09532
749,43,15.0707,3.17041,-0.004397,0.00310911,0.000642363,0.00316368,-0.00445158,1.48604,0.00441758,0.0179247,1973,981,15.0707,-3.17044
756,43,15.0754,3.2298,-0.00461894,0.00460995,-0.000840792,0.00468592,-0.00469491,-1.48068,0.00541603,0.0152236,1980,981,15.0754,-3.2298
763,43,15.0778,3.27356,-0.00484177,0.00692957,-0.00255198,0.00745901,-0.00537122,-1.36623,0.00744016,0.0162968,1987,981,15.0778,-3.27355
770,43,15.0725,3.29639,-0.00562075,0.00986795,-0.00459867,0.0111304,-0.00688321,-1.30287,0.0104961,0.0148072,1994,981,15.0725,-3.29637
777,43,15.0397,3.33856,-0.00704845,0.013953,-0.00687583,0.0160039,-0.00909931,-1.28093,0.0146749,0.02052,2001,981,15.0397,-3.33858
784,43,15.0138,3.40247,-0.00945392,0.019302,-0.00945964,0.0221348,-0.0122867,-1.27983,0.0201426,0.0412751,2008,981,15.0138,-3.40244
791,43,15.0791,2.98322,-0.0126613,0.0262055,-0.0126133,0.02994,-0.0163958,-1.28294,0.0271303,0.0443342,2015,981,15.0791,-2.98322
798,43,14.9824,3.00616,-0.0166054,0.0350246,-0.0165249,0.0398607,-0.0214414,-1.2861,0.0359213,0.0455689,2022,981,14.9824,-3.00616
805,43,14.8856,3.08215,0,0,0,0,0,0,0,-1,2029,981,14.8857,-3.08218
812,43,12.7241,3.61603,0,0,0,0,0,0,0,-1,2036,981,12.7241,-3.61605
-700,36,0,0,0,0,0,0,0,0,0,-1,524,988,0,0
-693,36,-12.0376,5.19342,0.0514959,0.124177,-0.101588,0.195729,-0.0200559,-0.957168,0.137659,0.0455149,531,988,-12.0376,-5.19343
-686,36,-11.4902,4.39819,0.0495079,0.102709,-0.0868037,0.166897,-0.0146796,-0.934078,0.116466,0.0455825,538,988,-11.4902,-4.39821
-679,36,-11.1258,4.38391,0.0442403,0.0838157,-0.0723186,0.139005,-0.0109489,-0.918939,0.0965267,0.04421,545,988,-11.1258,-4.38389
-672,36,-10.5841,3.68439,0.0376433,0.0672383,-0.0587958,0.11307,-0.00818853,-0.908676,0.0782525,0.0451169,552,988,-10.5841,-3.68436
-665,36,-9.76398,2.97754,0.0306953,0.0527719,-0.0465195,0.0895447,-0.00607752,-0.901885,0.061822,0.0469823,559,988,-9.76397,-2.97753
-658,36,-9.66913,2.44696,0.0239613,0.040315,-0.0356704,0.0687338,-0.00445743,-0.898069,0.0473783,0.044726,566,988,-9.66912,-2.44693
-651,36,-9.43311,1.17059,0.0178365,0.0298243,-0.0264038,0.050906,-0.00324525,-0.897011,0.0350692,0.0342922,573,988,-9.43308,-1.17059
-644,36,-9.51093,1.15088,0.0125849,0.0212787,-0.0188529,0.0362794,-0.00241575,-0.898702,0.0250304,0.0178311,580,988,-9.51092,-1.15085
-637,36,-9.54626,1.14709,0.008801,0.0133872,-0.0124832,0.0237862,-0.00159797,-0.876233,0.0164161,0.0126116,587,988,-9.54628,-1.14707
-630,36,-9.54938,1.12921,0.00493491,0.00787351,-0.00778207,0.0143238,-0.00151535,-0.878703,0.0100923,0.0110369,594,988,-9.54935,-1.12922
-623,36,-9.5531,1.07294,0.00159864,0.00413256,-0.00428528,0.00733425,-0.00160305,-0.92913,0.00550225,0.011668,601,988,-9.5531,-1.07294
-616,36,-9.53345,1.04553,-0.000283596,0.00235314,-0.00297245,0.00428648,-0.00221693,-0.994128,0.00381759,0.00989925,608,988,-9.53343,-1.04555
-609,36,-9.53632,1.03046,-0.0018506,0.00124,-0.00228231,0.00245094,-0.00306154,-1.08299,0.00318914,0.0140592,615,988,-9.53632,-1.03043
-602,36,-9.54358,0.987793,-0.00248908,0.000658755,-0.00212999,0.00173325,-0.00356358,-1.10359,0.00311839,0.018148,622,988,-9.5436,-0.987786
-595,36,-9.53387,0.942932,-0.00266621,0.000453785,-0.00217606,0.00157126,-0.00378368,-1.09638,0.00317842,0.0188099,629,988,-9.53387,-0.942962
-588,36,-9.56787,0.812378,-0.00274062,0.000404542,-0.00238824,0.00169145,-0.00402753,-1.07655,0.00339244,0.0176213,636,988,-9.5679,-0.812402
-581,36,-9.63037,0.633667,-0.00264965,0.000462286,-0.00251913,0.00186724,-0.0040546,-1.06205,0.00349586,0.023238,643,988,-9.63038,-0.633643
-574,36,-9.67334,0.603149,-0.00229441,0.000417322,-0.00250454,0.00190945,-0.00378654,-1.03349,0.00334757,0.0300189,650,988,-9.67333,-0.603164
-567,36,-9.69141,0.640869,-0.00186018,0.000469632,-0.00242751,0.00199727,-0.00338782,-1.00911,0.00314345,0.0384644,657,988,-9.69144,-0.640863
-560,36,-9.74359,0.676575,-0.00104993,0.000551626,-0.00222908,0.0021194,-0.0026177,-0.95784,0.00274001,0.0416878,664,988,-9.74362,-0.676554
-553,36,-9.86377,0.57373,0.000233984,0.000633356,-0.00192204,0.00236605,-0.00149871,-0.837159,0.00224997,0.0425695,671,988,-9.86379,-0.573728
-546,36,-9.90497,0.456238,0.00206635,0.000672798,-0.00152165,0.00304317,-0.000304016,-0.570692,0.00213734,0.0438677,678,988,-9.90494,-0.456222
-539,36,-9.69897,0.249329,0.0045618,0.000624136,-0.00108718,0.00484203,0.000343911,-0.252263,0.00311971,0.0437297,685,988,-9.69896,-0.249313
-532,36,-9.81787,0.652283,0,0,0,0,0,0,0,-1,692,988,-9.81788,-0.652267
-525,36,-9.78644,0.850403,0,0,0,0,0,0,0,-1,699,988,-9.78642,-0.850377
-518,36,0,0,0,0,0,0,0,0,0,-1,706,988,0,0
-511,36,0,0,0,0,0,0,0,0,0,-1,713,988,0,0
-504,36,0,0,0,0,0,0,0,0,0,-1,720,988,0,0
-497,36,0,0,0,0,0,0,0,0,0,-1,727,988,0,0
-490,36,0,0,0,0,0,0,0,0,0,-1,734,988,0,0
-483,36,0,0,0,0,0,0,0,0,0,-1,741,988,0,0
-476,36,0,0,0,0,0,0,0,0,0,-1,748,988,0,0
-469,36,0,0,0,0,0,0,0,0,0,-1,755,988,0,0
-462,36,0,0,0,0,0,0,0,0,0,-1,762,988,0,0
-455,36,0,0,0,0,0,0,0,0,0,-1,769,988,0,0
-448,36,0,0,0,0,0,0,0,0,0,-1,776,988,0,0
-441,36,0,0,0,0,0,0,0,0,0,-1,783,988,0,0
-434,36,0,0,0,0,0,0,0,0,0,-1,790,988,0,0
-427,36,0,0,0,0,0,0,0,0,0,-1,797,988,0,0
-420,36,0,0,0,0,0,0,0,0,0,-1,804,988,0,0
-413,36,0,0,0,0,0,0,0,0,0,-1,811,988,0,0
-406,36,0,0,0,0,0,0,0,0,0,-1,818,988,0,0
-399,36,0,0,0,0,0,0,0,0,0,-1,825,988,0,0
-392,36,0,0,0,0,0,0,0,0,0,-1,832,988,0,0
-385,36,0,0,0,0,0,0,0,0,0,-1,839,988,0,0
-378,36,0,0,0,0,0,0,0,0,0,-1,846,988,0,0
-371,36,0,0,0,0,0,0,0,0,0,-1,853,988,0,0
-364,36,0,0,0,0,0,0,0,0,0,-1,860,988,0,0
-357,36,0,0,0,0,0,0,0,0,0,-1,867,988,0,0
-350,36,0,0,0,0,0,0,0,0,0,-1,874,988,0,0
-343,36,0,0,0,0,0,0,0,0,0,-1,881,988,0,0
-336,36,0,0,0,0,0,0,0,0,0,-1,888,988,0,0
-329,36,0,0,0,0,0,0,0,0,0,-1,895,988,0,0
-322,36,0,0,0,0,0,0,0,0,0,-1,902,988,0,0
-315,36,0,0,0,0,0,0,0,0,0,-1,909,988,0,0
-308,36,0,0,0,0,0,0,0,0,0,-1,916,988,0,0
-301,36,0,0,0,0,0,0,0,0,0,-1,923,988,0,0
-294,36,0,0,0,0,0,0,0,0,0,-1,930,988,0,0
-287,36,0,0,0,0,0,0,0,0,0,-1,937,988,0,0
-280,36,0,0,0,0,0,0,0,0,0,-1,944,988,0,0
-273,36,0,0,0,0,0,0,0,0,0,-1,951,988,0,0
-266,36,0,0,0,0,0,0,0,0,0,-1,958,988,0,0
-259,36,0,0,0,0,0,0,0,0,0,-1,965,988,0,0
-252,36,0,0,0,0,0,0,0,0,0,-1,972,988,0,0
-245,36,0,0,0,0,0,0,0,0,0,-1,979,988,0,0
-238,36,0,0,0,0,0,0,0,0,0,-1,986,988,0,0
-231,36,0,0,0,0,0,0,0,0,0,-1,993,988,0,0
-224,36,0,0,0,0,0,0,0,0,0,-1,1000,988,0,0
-217,36,0,0,0,0,0,0,0,0,0,-1,1007,988,0,0
-210,36,0,0,0,0,0,0,0,0,0,-1,1014,988,0,0
-203,36,0,0,0,0,0,0,0,0,0,-1,1021,988,0,0
-196,36,0,0,0,0,0,0,0,0,0,-1,1028,988,0,0
-189,36,0,0,0,0,0,0,0,0,0,-1,1035,988,0,0
-182,36,0,0,0,0,0,0,0,0,0,-1,1042,988,0,0
-175,36,0,0,0,0,0,0,0,0,0,-1,1049,988,0,0
-168,36,0,0,0,0,0,0,0,0,0,-1,1056,988,0,0
-161,36,0,0,0,0,0,0,0,0,0,-1,1063,988,0,0
-154,36,0,0,0,0,0,0,0,0,0,-1,1070,988,0,0
-147,36,0,0,0,0,0,0,0,0,0,-1,1077,988,0,0
-140,36,0,0,0,0,0,0,0,0,0,-1,1084,988,0,0
-133,36,0,0,0,0,0,0,0,0,0,-1,1091,988,0,0
-126,36,0,0,0,0,0,0,0,0,0,-1,1098,988,0,0
-119,36,0,0,0,0,0,0,0,0,0,-1,1105,988,0,0
-112,36,0,0,0,0,0,0,0,0,0,-1,1112,988,0,0
-105,36,0,0,0,0,0,0,0,0,0,-1,1119,988,0,0
-98,36,0,0,0,0,0,0,0,0,0,-1,1126,988,0,0
-91,36,0,0,0,0,0,0,0,0,0,-1,1133,988,0,0
-84,36,0,0,0,0,0,0,0,0,0,-1,1140,988,0,0
-77,36,0,0,0,0,0,0,0,0,0,-1,1147,988,0,0
-70,36,0,0,0,0,0,0,0,0,0,-1,1154,988,0,0
-63,36,0,0,0,0,0,0,0,0,0,-1,1161,988,0,0
-56,36,0,0,0,0,0,0,0,0,0,-1,1168,988,0,0
-49,36,0,0,0,0,0,0,0,0,0,-1,1175,988,0,0
-42,36,0,0,0,0,0,0,0,0,0,-1,1182,988,0,0
-35,36,0,0,0,0,0,0,0,0,0,-1,1189,988,0,0
-28,36,0,0,0,0,0,0,0,0,0,-1,1196,988,0,0
-21,36,0,0,0,0,0,0,0,0,0,-1,1203,988,0,0
-14,36,0,0,0,0,0,0,0,0,0,-1,1210,988,0,0
-7,36,0,0,0,0,0,0,0,0,0,-1,1217,988,0,0
0,36,0,0,0,0,0,0,0,0,0,-1,1224,988,0,0
7,36,0,0,0,0,0,0,0,0,0,-1,1231,988,0,0
14,36,0,0,0,0,0,0,0,0,0,-1,1238,988,0,0
21,36,0,0,0,0,0,0,0,0,0,-1,1245,988,0,0
28,36,0,0,0,0,0,0,0,0,0,-1,1252,988,0,0
35,36,0,0,0,0,0,0,0,0,0,-1,1259,988,0,0
42,36,0,0,0,0,0,0,0,0,0,-1,1266,988,0,0
49,36,0,0,0,0,0,0,0,0,0,-1,1273,988,0,0
56,36,0,0,0,0,0,0,0,0,0,-1,1280,988,0,0
63,36,0,0,0,0,0,0,0,0,0,-1,1287,988,0,0
70,36,0,0,0,0,0,0,0,0,0,-1,1294,988,0,0
77,36,0,0,0,0,0,0,0,0,0,-1,1301,988,0,0
84,36,0,0,0,0,0,0,0,0,0,-1,1308,988,0,0
91,36,0,0,0,0,0,0,0,0,0,-1,1315,988,0,0
98,36,0,0,0,0,0,0,0,0,0,-1,1322,988,0,0
105,36,0,0,0,0,0,0,0,0,0,-1,1329,988,0,0
112,36,0,0,0,0,0,0,0,0,0,-1,1336,988,0,0
119,36,0,0,0,0,0,0,0,0,0,-1,1343,988,0,0
126,36,0,0,0,0,0,0,0,0,0,-1,1350,988,0,0
133,36,0,0,0,0,0,0,0,0,0,-1,1357,988,0,0
140,36,0,0,0,0,0,0,0,0,0,-1,1364,988,0,0
147,36,0,0,0,0,0,0,0,0,0,-1,1371,988,0,0
154,36,0,0,0,0,0,0,0,0,0,-1,1378,988,0,0
161,36,0,0,0,0,0,0,0,0,0,-1,1385,988,0,0
168,36,0,0,0,0,0,0,0,0,0,-1,1392,988,0,0
175,36,0,0,0,0,0,0,0,0,0,-1,1399,988,0,0
182,36,0,0,0,0,0,0,0,0,0,-1,1406,988,0,0
189,36,0,0,0,0,0,0,0,0,0,-1,1413,988,0,0
196,36,0,0,0,0,0,0,0,0,0,-1,1420,988,0,0
203,36,0,0,0,0,0,0,0,0,0,-1,1427,988,0,0
210,36,0,0,0,0,0,0,0,0,0,-1,1434,988,0,0
217,36,0,0,0,0,0,0,0,0,0,-1,1441,988,0,0
224,36,0,0,0,0,0,0,0,0,0,-1,1448,988,0,0
231,36,0,0,0,0,0,0,0,0,0,-1,1455,988,0,0
238,36,0,0,0,0,0,0,0,0,0,-1,1462,988,0,0
245,36,0,0,0,0,0,0,0,0,0,-1,1469,988,0,0
252,36,0,0,0,0,0,0,0,0,0,-1,1476,988,0,0
259,36,0,0,0,0,0,0,0,0,0,-1,1483,988,0,0
266,36,0,0,0,0,0,0,0,0,0,-1,1490,988,0,0
273,36,0,0,0,0,0,0,0,0,0,-1,1497,988,0,0
280,36,0,0,0,0,0,0,0,0,0,-1,1504,988,0,0
287,36,0,0,0,0,0,0,0,0,0,-1,1511,988,0,0
294,36,0,0,0,0,0,0,0,0,0,-1,1518,988,0,0
301,36,0,0,0,0,0,0,0,0,0,-1,1525,988,0,0
308,36,0,0,0,0,0,0,0,0,0,-1,1532,988,0,0
315,36,0,0,0,0,0,0,0,0,0,-1,1539,988,0,0
322,36,0,0,0,0,0,0,0,0,0,-1,1546,988,0,0
329,36,0,0,0,0,0,0,0,0,0,-1,1553,988,0,0
336,36,0,0,0,0,0,0,0,0,0,-1,1560,988,0,0
343,36,0,0,0,0,0,0,0,0,0,-1,1567,988,0,0
350,36,0,0,0,0,0,0,0,0,0,-1,1574,988,0,0
357,36,0,0,0,0,0,0,0,0,0,-1,1581,988,0,0
364,36,0,0,0,0,0,0,0,0,0,-1,1588,988,0,0
371,36,0,0,0,0,0,0,0,0,0,-1,1595,988,0,0
378,36,0,0,0,0,0,0,0,0,0,-1,1602,988,0,0
385,36,0,0,0,0,0,0,0,0,0,-1,1609,988,0,0
392,36,0,0,0,0,0,0,0,0,0,-1,1616,988,0,0
399,36,0,0,0,0,0,0,0,0,0,-1,1623,988,0,0
406,36,0,0,0,0,0,0,0,0,0,-1,1630,988,0,0
413,36,0,0,0,0,0,0,0,0,0,-1,1637,988,0,0
420,36,0,0,0,0,0,0,0,0,0,-1,1644,988,0,0
427,36,0,0,0,0,0,0,0,0,0,-1,1651,988,0,0
434,36,0,0,0,0,0,0,0,0,0,-1,1658,988,0,0
441,36,0,0,0,0,0,0,0,0,0,-1,1665,988,0,0
448,36,0,0,0,0,0,0,0,0,0,-1,1672,988,0,0
455,36,0,0,0,0,0,0,0,0,0,-1,1679,988,0,0
462,36,0,0,0,0,0,0,0,0,0,-1,1686,988,0,0
469,36,0,0,0,0,0,0,0,0,0,-1,1693,988,0,0
476,36,0,0,0,0,0,0,0,0,0,-1,1700,988,0,0
483,36,0,0,0,0,0,0,0,0,0,-1,1707,988,0,0
490,36,0,0,0,0,0,0,0,0,0,-1,1714,988,0,0
497,36,0,0,0,0,0,0,0,0,0,-1,1721,988,0,0
504,36,0,0,0,0,0,0,0,0,0,-1,1728,988,0,0
511,36,0,0,0,0,0,0,0,0,0,-1,1735,988,0,0
518,36,0,0,0,0,0,0,0,0,0,-1,1742,988,0,0
525,36,0,0,0,0,0,0,0,0,0,-1,1749,988,0,0
532,36,0,0,0,0,0,0,0,0,0,-1,1756,988,0,0
539,36,0,0,0,0,0,0,0,0,0,-1,1763,988,0,0
546,36,0,0,0,0,0,0,0,0,0,-1,1770,988,0,0
553,36,0,0,0,0,0,0,0,0,0,-1,1777,988,0,0
560,36,0,0,0,0,0,0,0,0,0,-1,1784,988,0,0
567,36,0,0,0,0,0,0,0,0,0,-1,1791,988,0,0
574,36,0,0,0,0,0,0,0,0,0,-1,1798,988,0,0
581,36,0,0,0,0,0,0,0,0,0,-1,1805,988,0,0
588,36,0,0,0,0,0,0,0,0,0,-1,1812,988,0,0
595,36,0,0,0,0,0,0,0,0,0,-1,1819,988,0,0
602,36,0,0,0,0,0,0,0,0,0,-1,1826,988,0,0
609,36,0,0,0,0,0,0,0,0,0,-1,1833,988,0,0
616,36,0,0,0,0,0,0,0,0,0,-1,1840,988,0,0
623,36,0,0,0,0,0,0,0,0,0,-1,1847,988,0,0
630,36,0,0,0,0,0,0,0,0,0,-1,1854,988,0,0
637,36,0,0,0,0,0,0,0,0,0,-1,1861,988,0,0
644,36,15.6202,2.0697,0.00562397,9.43342e-06,0.00729603,0.0106342,-0.00500076,0.601745,0.00922008,0.0417697,1868,988,15.6202,-2.06972
651,36,15.6093,2.39752,0.00401402,8.87678e-05,0.00496522,0.00739043,-0.00328764,0.597185,0.00631486,0.0396652,1875,988,15.6092,-2.39754
658,36,15.7178,2.53058,0.00279033,9.02255e-05,0.00335019,0.00505226,-0.0021717,0.593862,0.00427985,0.0394715,1882,988,15.7177,-2.53057
665,36,15.8584,2.47357,0.00172376,0.000133293,0.00228556,0.00334848,-0.00149143,0.61798,0.00286207,0.0375595,1889,988,15.8584,-2.47357
672,36,15.8167,2.38416,0.000520249,0.000309387,0.00191941,0.00233712,-0.00150748,0.757961,0.00223684,0.0382961,1896,988,15.8167,-2.38416
679,36,15.7826,2.34509,-0.000898216,0.00048249,0.00206914,0.0019734,-0.00238913,0.946413,0.00252251,0.038586,1903,988,15.7826,-2.34508
686,36,15.6383,2.3515,-0.00210048,0.000629283,0.00243017,0.00205163,-0.00352282,1.04127,0.00325556,0.036255,1910,988,15.6383,-2.35151
693,36,15.6193,2.35876,-0.00307919,0.000736756,0.00289515,0.00229609,-0.00463853,1.07674,0.00407913,0.0377346,1917,988,15.6192,-2.35878
700,36,15.6649,2.43274,-0.00397765,0.000830388,0.00316252,0.00239888,-0.00554614,1.11038,0.0047055,0.0346138,1924,988,15.6649,-2.43272
707,36,15.683,2.33539,-0.00463333,0.00101078,0.00332003,0.00254608,-0.00616863,1.13765,0.00517432,0.0244851,1931,988,15.683,-2.3354
714,36,15.7479,2.32672,-0.00495647,0.00112333,0.00338976,0.00263661,-0.00646975,1.15092,0.00541059,0.0281013,1938,988,15.7479,-2.32674
721,36,15.5348,2.73724,-0.00515038,0.00117627,0.0035312,0.00275383,-0.00672795,1.15065,0.00563231,0.0324163,1945,988,15.5348,-2.73727
728,36,15.3,2.98993,-0.00521951,0.00124115,0.00363176,0.00287134,-0.0068497,1.14888,0.00576699,0.0205342,1952,988,15.3,-2.9899
735,36,15.1201,3.07306,-0.00499638,0.00134112,0.00329121,0.00274107,-0.00639633,1.16862,0.00541435,0.0177221,1959,988,15.1201,-3.07304
742,36,15.1187,3.12708,-0.00475751,0.0018647,0.00235976,0.00261954,-0.00551235,1.2612,0.00479295,0.0146024,1966,988,15.1186,-3.12707
749,36,15.1351,3.18127,-0.00473949,0.00261371,0.00125499,0.002822,-0.00494778,1.40632,0.00454151,0.0151535,1973,988,15.1351,-3.18129
756,36,15.1011,3.22974,-0.0048165,0.00385064,-5.34601e-05,0.00385097,-0.00481683,-1.56463,0.0050147,0.0127662,1980,988,15.101,-3.22976
763,36,15.1129,3.26556,-0.00487515,0.0058315,-0.00156586,0.00605581,-0.00509946,-1.42851,0.00644838,0.0155092,1987,988,15.1129,-3.26556
770,36,15.1189,3.28156,-0.00537187,0.00819291,-0.00328214,0.00894532,-0.00612428,-1.34545,0.00875111,0.0135848,1994,988,15.119,-3.28158
777,36,15.0763,3.36084,-0.00641368,0.0115376,-0.00507403,0.0128725,-0.00774862,-1.31353,0.0120275,0.0216331,2001,988,15.0763,-3.36083
784,36,15.3599,2.4541,0,0,0,0,0,0,0,-1,2008,988,15.3598,-2.45412
791,36,15.2227,2.59729,-0.0109726,0.0217132,-0.00915707,0.0241038,-0.0133631,-1.31543,0.0219258,0.0438057,2015,988,15.2226,-2.59732
798,36,15.3395,2.62061,-0.0141482,0.0291269,-0.0118585,0.0321634,-0.0171847,-1.32012,0.0289253,0.0435743,2022,988,15.3394,-2.62063
805,36,15.1888,2.84161,-0.0180044,0.038708,-0.0151332,0.0424935,-0.0217899,-1.32568,0.0377502,0.0493021,2029,988,15.1889,-2.84159
812,36,15.0259,2.98523,0,0,0,0,0,0,0,-1,2036,988,15.026,-2.98521
-700,29,0,0,0,0,0,0,0,0,0,-1,524,995,0,0
-693,29,-10.4017,4.19238,0.0310244,0.131165,-0.0949162,0.188408,-0.0262185,-1.02811,0.135195,0.0434482,531,995,-10.4017,-4.19237
-686,29,-10.1825,3.95715,0.0312476,0.109553,-0.0815356,0.160849,-0.0200486,-1.00924,0.114502,0.0442666,538,995,-10.1825,-3.95718
-679,29,-9.97583,3.45093,0.0285143,0.089919,-0.06808,0.133899,-0.0154661,-0.99723,0.0948429,0.0427352,545,995,-9.97584,-3.45092
-672,29,-9.75983,2.87305,0.0244945,0.0723618,-0.0553606,0.108741,-0.0118845,-0.989427,0.0767626,0.0417275,552,995,-9.75983,-2.87304
-665,29,-9.61804,2.56049,0.0200457,0.056871,-0.0437519,0.0859268,-0.00901008,-0.98457,0.0605119,0.043982,559,995,-9.61807,-2.56051
-658,29,-9.51147,1.93951,0.0156453,0.0434562,-0.033488,0.065811,-0.00670951,-0.982185,0.0462729,0.0425653,566,995,-9.51145,-1.93949
-651,29,-9.50104,1.22437,0.0116109,0.0321355,-0.0247506,0.048667,-0.00492056,-0.981924,0.034203,0.0332699,573,995,-9.50104,-1.22439
-644,29,-9.53949,1.12634,0.00814249,0.0229116,-0.0176869,0.0346936,-0.00363954,-0.983155,0.0244328,0.0167441,580,995,-9.53948,-1.12635
-637,29,-9.58331,1.12744,0.00577658,0.0145363,-0.0117843,0.0227283,-0.00241544,-0.963322,0.0160182,0.0118661,587,995,-9.58331,-1.12747
-630,29,-9.58258,1.11676,0.00316582,0.0086054,-0.00744847,0.0138151,-0.00204389,-0.960451,0.00996151,0.00973147,594,995,-9.58258,-1.11674
-623,29,-9.578,1.0863,0.00078914,0.00446752,-0.00428105,0.00728773,-0.00203107,-0.988283,0.00565836,0.00988456,601,995,-9.578,-1.08629
-616,29,-9.55743,1.04919,-0.000493162,0.00241484,-0.00300047,0.00429505,-0.00237337,-1.01102,0.00390294,0.0122889,608,995,-9.55744,-1.04918
-609,29,-9.5495,1.02692,-0.00165443,0.00111193,-0.00243486,0.00252906,-0.00307156,-1.0437,0.00323857,0.0185048,615,995,-9.54948,-1.02693
-602,29,-9.57892,1.00031,-0.00213017,0.00043027,-0.0023947,0.00186547,-0.00356538,-1.03087,0.00318629,0.0197457,622,995,-9.5789,-1.00033
-595,29,-9.57483,0.943726,-0.0022749,0.00021515,-0.00251834,0.00177942,-0.00383916,-1.01497,0.00331575,0.0185327,629,995,-9.57481,-0.94371
-588,29,-9.60529,0.78363,-0.00228789,0.000154891,-0.00275479,0.00194691,-0.00407991,-0.994062,0.00355149,0.0213302,636,995,-9.60527,-0.783608
-581,29,-9.6391,0.653137,-0.00217869,0.000190754,-0.00289876,0.00213754,-0.00412548,-0.97939,0.00367617,0.0342362,643,995,-9.63909,-0.653126
-574,29,-9.66125,0.549133,-0.00185523,0.000134975,-0.00288122,0.0021881,-0.00390836,-0.951673,0.00356619,0.0336941,650,995,-9.66128,-0.549111
-567,29,-9.67786,0.45813,-0.00146293,0.000195403,-0.00278868,0.00227558,-0.0035431,-0.929902,0.00338588,0.0340269,657,995,-9.67788,-0.458101
-560,29,-9.75024,0.497314,-0.000728485,0.000301893,-0.00256842,0.00240629,-0.00283288,-0.884378,0.00302817,0.0375004,664,995,-9.75024,-0.497296
-553,29,-9.90399,0.400085,0.00044252,0.000426922,-0.00222001,0.00265474,-0.0017853,-0.783642,0.00257979,0.0412649,671,995,-9.90397,-0.400087
-546,29,-9.86407,0.451782,0.00212947,0.00052499,-0.00175454,0.00325648,-0.000602019,-0.57097,0.00239699,0.0425817,678,995,-9.86406,-0.451807
-539,29,-9.86725,0.483765,0.00446062,0.000545349,-0.00125403,0.00482783,0.000178131,-0.284865,0.00316085,0.0424216,685,995,-9.86724,-0.483771
-532,29,-9.85669,0.512939,0.00736712,0.000558228,-0.000903696,0.00748502,0.000440329,-0.129731,0.0048499,0.0458746,692,995,-9.85672,-0.512968
-525,29,-9.98853,0.771179,0,0,0,0,0,0,0,-1,699,995,-9.98855,-0.771189
-518,29,0,0,0,0,0,0,0,0,0,-1,706,995,0,0
-511,29,0,0,0,0,0,0,0,0,0,-1,713,995,0,0
-504,29,0,0,0,0,0,0,0,0,0,-1,720,995,0,0
-497,29,0,0,0,0,0,0,0,0,0,-1,727,995,0,0
-490,29,0,0,0,0,0,0,0,0,0,-1,734,995,0,0
-483,29,0,0,0,0,0,0,0,0,0,-1,741,995,0,0
-476,29,0,0,0,0,0,0,0,0,0,-1,748,995,0,0
-469,29,0,0,0,0,0,0,0,0,0,-1,755,995,0,0
-462,29,0,0,0,0,0,0,0,0,0,-1,762,995,0,0
-455,29,0,0,0,0,0,0,0,0,0,-1,769,995,0,0
-448,29,0,0,0,0,0,0,0,0,0,-1,776,995,0,0
-441,29,0,0,0,0,0,0,0,0,0,-1,783,995,0,0
-434,29,0,0,0,0,0,0,0,0,0,-1,790,995,0,0
-427,29,0,0,0,0,0,0,0,0,0,-1,797,995,0,0
-420,29,0,0,0,0,0,0,0,0,0,-1,804,995,0,0
-413,29,0,0,0,0,0,0,0,0,0,-1,811,995,0,0
-406,29,0,0,0,0,0,0,0,0,0,-1,818,995,0,0
-399,29,0,0,0,0,0,0,0,0,0,-1,825,995,0,0
-392,29,0,0,0,0,0,0,0,0,0,-1,832,995,0,0
-385,29,0,0,0,0,0,0,0,0,0,-1,839,995,0,0
-378,29,0,0,0,0,0,0,0,0,0,-1,846,995,0,0
-371,29,0,0,0,0,0,0,0,0,0,-1,853,995,0,0
-364,29,0,0,0,0,0,0,0,0,0,-1,860,995,0,0
-357,29,0,0,0,0,0,0,0,0,0,-1,867,995,0,0
-350,29,0,0,0,0,0,0,0,0,0,-1,874,995,0,0
-343,29,0,0,0,0,0,0,0,0,0,-1,881,995,0,0
-336,29,0,0,0,0,0,0,0,0,0,-1,888,995,0,0
-329,29,0,0,0,0,0,0,0,0,0,-1,895,995,0,0
-322,29,0,0,0,0,0,0,0,0,0,-1,902,995,0,0
-315,29,0,0,0,0,0,0,0,0,0,-1,909,995,0,0
-308,29,0,0,0,0,0,0,0,0,0,-1,916,995,0,0
-301,29,0,0,0,0,0,0,0,0,0,-1,923,995,0,0
-294,29,0,0,0,0,0,0,0,0,0,-1,930,995,0,0
-287,29,0,0,0,0,0,0,0,0,0,-1,937,995,0,0
-280,29,0,0,0,0,0,0,0,0,0,-1,944,995,0,0
-273,29,0,0,0,0,0,0,0,0,0,-1,951,995,0,0
-266,29,0,0,0,0,0,0,0,0,0,-1,958,995,0,0
-259,29,0,0,0,0,0,0,0,0,0,-1,965,995,0,0
-252,29,0,0,0,0,0,0,0,0,0,-1,972,995,0,0
-245,29,0,0,0,0,0,0,0,0,0,-1,979,995,0,0
-238,29,0,0,0,0,0,0,0,0,0,-1,986,995,0,0
-231,29,0,0,0,0,0,0,0,0,0,-1,993,995,0,0
-224,29,0,0,0,0,0,0,0,0,0,-1,1000,995,0,0
-217,29,0,0,0,0,0,0,0,0,0,-1,1007,995,0,0
-210,29,0,0,0,0,0,0,0,0,0,-1,1014,995,0,0
-203,29,0,0,0,0,0,0,0,0,0,-1,1021,995,0,0
-196,29,0,0,0,0,0,0,0,0,0,-1,1028,995,0,0
-189,29,0,0,0,0,0,0,0,0,0,-1,1035,995,0,0
-182,29,0,0,0,0,0,0,0,0,0,-1,1042,995,0,0
-175,29,0,0,0,0,0,0,0,0,0,-1,1049,995,0,0
-168,29,0,0,0,0,0,0,0,0,0,-1,1056,995,0,0
-161,29,0,0,0,0,0,0,0,0,0,-1,1063,995,0,0
-154,29,0,0,0,0,0,0,0,0,0,-1,1070,995,0,0
-147,29,0,0,0,0,0,0,0,0,0,-1,1077,995,0,0
-140,29,0,0,0,0,0,0,0,0,0,-1,1084,995,0,0
-133,29,0,0,0,0,0,0,0,0,0,-1,1091,995,0,0
-126,29,0,0,0,0,0,0,0,0,0,-1,1098,995,0,0
-119,29,0,0,0,0,0,0,0,0,0,-1,1105,995,0,0
-112,29,0,0,0,0,0,0,0,0,0,-1,1112,995,0,0
-105,29,0,0,0,0,0,0,0,0,0,-1,1119,995,0,0
-98,29,0,0,0,0,0,0,0,0,0,-1,1126,995,0,0
-91,29,0,0,0,0,0,0,0,0,0,-1,1133,995,0,0
-84,29,0,0,0,0,0,0,0,0,0,-1,1140,995,0,0
-77,29,0,0,0,0,0,0,0,0,0,-1,1147,995,0,0
-70,29,0,0,0,0,0,0,0,0,0,-1,1154,995,0,0
-63,29,0,0,0,0,0,0,0,0,0,-1,1161,995,0,0
-56,29,0,0,0,0,0,0,0,0,0,-1,1168,995,0,0
-49,29,0,0,0,0,0,0,0,0,0,-1,1175,995,0,0
-42,29,0,0,0,0,0,0,0,0,0,-1,1182,995,0,0
-35,29,0,0,0,0,0,0,0,0,0,-1,1189,995,0,0
-28,29,0,0,0,0,0,0,0,0,0,-1,1196,995,0,0
-21,29,0,0,0,0,0,0,0,0,0,-1,1203,995,0,0
-14,29,0,0,0,0,0,0,0,0,0,-1,1210,995,0,0
-7,29,0,0,0,0,0,0,0,0,0,-1,1217,995,0,0
0,29,0,0,0,0,0,0,0,0,0,-1,1224,995,0,0
7,29,0,0,0,0,0,0,0,0,0,-1,1231,995,0,0
14,29,0,0,0,0,0,0,0,0,0,-1,1238,995,0,0
21,29,0,0,0,0,0,0,0,0,0,-1,1245,995,0,0
28,29,0,0,0,0,0,0,0,0,0,-1,1252,995,0,0
35,29,0,0,0,0,0,0,0,0,0,-1,1259,995,0,0
42,29,0,0,0,0,0,0,0,0,0,-1,1266,995,0,0
49,29,0,0,0,0,0,0,0,0,0,-1,1273,995,0,0
56,29,0,0,0,0,0,0,0,0,0,-1,1280,995,0,0
63,29,0,0,0,0,0,0,0,0,0,-1,1287,995,0,0
70,29,0,0,0,0,0,0,0,0,0,-1,1294,995,0,0
77,29,0,0,0,0,0,0,0,0,0,-1,1301,995,0,0
84,29,0,0,0,0,0,0,0,0,0,-1,1308,995,0,0
91,29,0,0,0,0,0,0,0,0,0,-1,1315,995,0,0
98,29,0,0,0,0,0,0,0,0,0,-1,1322,995,0,0
105,29,0,0,0,0,0,0,0,0,0,-1,1329,995,0,0
112,29,0,0,0,0,0,0,0,0,0,-1,1336,995,0,0
119,29,0,0,0,0,0,0,0,0,0,-1,1343,995,0,0
126,29,0,0,0,0,0,0,0,0,0,-1,1350,995,0,0
133,29,0,0,0,0,0,0,0,0,0,-1,1357,995,0,0
140,29,0,0,0,0,0,0,0,0,0,-1,1364,995,0,0
147,29,0,0,0,0,0,0,0,0,0,-1,1371,995,0,0
154,29,0,0,0,0,0,0,0,0,0,-1,1378,995,0,0
161,29,0,0,0,0,0,0,0,0,0,-1,1385,995,0,0
168,29,0,0,0,0,0,0,0,0,0,-1,1392,995,0,0
175,29,0,0,0,0,0,0,0,0,0,-1,1399,995,0,0
182,29,0,0,0,0,0,0,0,0,0,-1,1406,995,0,0
189,29,0,0,0,0,0,0,0,0,0,-1,1413,995,0,0
196,29,0,0,0,0,0,0,0,0,0,-1,1420,995,0,0
203,29,0,0,0,0,0,0,0,0,0,-1,1427,995,0,0
210,29,0,0,0,0,0,0,0,0,0,-1,1434,995,0,0
217,29,0,0,0,0,0,0,0,0,0,-1,1441,995,0,0
224,29,0,0,0,0,0,0,0,0,0,-1,1448,995,0,0
231,29,0,0,0,0,0,0,0,0,0,-1,1455,995,0,0
238,29,0,0,0,0,0,0,0,0,0,-1,1462,995,0,0
245,29,0,0,0,0,0,0,0,0,0,-1,1469,995,0,0
252,29,0,0,0,0,0,0,0,0,0,-1,1476,995,0,0
259,29,0,0,0,0,0,0,0,0,0,-1,1483,995,0,0
266,29,0,0,0,0,0,0,0,0,0,-1,1490,995,0,0
273,29,0,0,0,0,0,0,0,0,0,-1,1497,995,0,0
280,29,0,0,0,0,0,0,0,0,0,-1,1504,995,0,0
287,29,0,0,0,0,0,0,0,0,0,-1,1511,995,0,0
294,29,0,0,0,0,0,0,0,0,0,-1,1518,995,0,0
301,29,0,0,0,0,0,0,0,0,0,-1,1525,995,0,0
308,29,0,0,0,0,0,0,0,0,0,-1,1532,995,0,0
315,29,0,0,0,0,0,0,0,0,0,-1,1539,995,0,0
322,29,0,0,0,0,0,0,0,0,0,-1,1546,995,0,0
329,29,0,0,0,0,0,0,0,0,0,-1,1553,995,0,0
336,29,0,0,0,0,0,0,0,0,0,-1,1560,995,0,0
343,29,0,0,0,0,0,0,0,0,0,-1,1567,995,0,0
350,29,0,0,0,0,0,0,0,0,0,-1,1574,995,0,0
357,29,0,0,0,0,0,0,0,0,0,-1,1581,995,0,0
364,29,0,0,0,0,0,0,0,0,0,-1,1588,995,0,0
371,29,0,0,0,0,0,0,0,0,0,-1,1595,995,0,0
378,29,0,0,0,0,0,0,0,0,0,-1,1602,995,0,0
385,29,0,0,0,0,0,0,0,0,0,-1,1609,995,0,0
392,29,0,0,0,0,0,0,0,0,0,-1,1616,995,0,0
399,29,0,0,0,0,0,0,0,0,0,-1,1623,995,0,0
406,29,0,0,0,0,0,0,0,0,0,-1,1630,995,0,0
413,29,0,0,0,0,0,0,0,0,0,-1,1637,995,0,0
420,29,0,0,0,0,0,0,0,0,0,-1,1644,995,0,0
427,29,0,0,0,0,0,0,0,0,0,-1,1651,995,0,0
434,29,0,0,0,0,0,0,0,0,0,-1,1658,995,0,0
441,29,0,0,0,0,0,0,0,0,0,-1,1665,995,0,0
448,29,0,0,0,0,0,0,0,0,0,-1,1672,995,0,0
455,29,0,0,0,0,0,0,0,0,0,-1,1679,995,0,0
462,29,0,0,0,0,0,0,0,0,0,-1,1686,995,0,0
469,29,0,0,0,0,0,0,0,0,0,-1,1693,995,0,0
476,29,0,0,0,0,0,0,0,0,0,-1,1700,995,0,0
483,29,0,0,0,0,0,0,0,0,0,-1,1707,995,0,0
490,29,0,0,0,0,0,0,0,0,0,-1,1714,995,0,0
497,29,0,0,0,0,0,0,0,0,0,-1,1721,995,0,0
504,29,0,0,0,0,0,0,0,0,0,-1,1728,995,0,0
511,29,0,0,0,0,0,0,0,0,0,-1,1735,995,0,0
518,29,0,0,0,0,0,0,0,0,0,-1,1742,995,0,0
525,29,0,0,0,0,0,0,0,0,0,-1,1749,995,0,0
532,29,0,0,0,0,0,0,0,0,0,-1,1756,995,0,0
539,29,0,0,0,0,0,0,0,0,0,-1,1763,995,0,0
546,29,0,0,0,0,0,0,0,0,0,-1,1770,995,0,0
553,29,0,0,0,0,0,0,0,0,0,-1,1777,995,0,0
560,29,0,0,0,0,0,0,0,0,0,-1,1784,995,0,0
567,29,0,0,0,0,0,0,0,0,0,-1,1791,995,0,0
574,29,0,0,0,0,0,0,0,0,0,-1,1798,995,0,0
581,29,0,0,0,0,0,0,0,0,0,-1,1805,995,0,0
588,29,0,0,0,0,0,0,0,0,0,-1,1812,995,0,0
595,29,0,0,0,0,0,0,0,0,0,-1,1819,995,0,0
602,29,0,0,0,0,0,0,0,0,0,-1,1826,995,0,0
609,29,0,0,0,0,0,0,0,0,0,-1,1833,995,0,0
616,29,0,0,0,0,0,0,0,0,0,-1,1840,995,0,0
623,29,0,0,0,0,0,0,0,0,0,-1,1847,995,0,0
630,29,0,0,0,0,0,0,0,0,0,-1,1854,995,0,0
637,29,0,0,0,0,0,0,0,0,0,-1,1861,995,0,0
644,29,15.637,1.89655,0.00601043,-0.00130605,0.00812292,0.0112609,-0.00655649,0.573821,0.0104057,0.0388051,1868,995,15.637,-1.89655
651,29,15.618,2.29974,0.0042024,-0.000964147,0.00548483,0.00768186,-0.00444361,0.565315,0.00708337,0.0398147,1875,995,15.618,-2.29975
658,29,15.6799,2.53156,0.00286832,-0.000739432,0.00366762,0.00515166,-0.00302278,0.55685,0.00477257,0.0428944,1882,995,15.6799,-2.53153
665,29,15.7559,2.60345,0.00180501,-0.000526515,0.00245674,0.00335854,-0.00208005,0.563872,0.00316876,0.042269,1889,995,15.7558,-2.60345
672,29,15.7271,2.44922,0.00064593,-0.000209902,0.00203518,0.00229769,-0.00186166,0.681778,0.0024058,0.0389034,1896,995,15.727,-2.44923
679,29,15.7106,2.40277,-0.00077589,8.06333e-05,0.00219739,0.00189111,-0.00258637,0.881639,0.00259544,0.0360802,1903,995,15.7106,-2.4028
686,29,15.6472,2.30658,-0.00200323,0.000320292,0.00259831,0.00200474,-0.00368767,0.995628,0.00333405,0.0348016,1910,995,15.6472,-2.30657
693,29,15.64,2.31702,-0.00300697,0.000507855,0.0030948,0.00230942,-0.00480853,1.04362,0.00419313,0.0364532,1917,995,15.64,-2.31703
700,29,15.6838,2.33636,-0.00393817,0.000669614,0.00339875,0.00247174,-0.0057403,1.08326,0.0048648,0.0331365,1924,995,15.6838,-2.33638
707,29,15.6761,2.1994,0,0,0,0,0,0,0,-1,1931,995,15.6761,-2.1994
714,29,15.7155,2.38879,-0.00500916,0.00105344,0.0037722,0.00286139,-0.0068171,1.12386,0.00574134,0.0251892,1938,995,15.7155,-2.38881
721,29,15.5482,2.75671,-0.00527136,0.00112682,0.00394622,0.00300778,-0.00715231,1.12601,0.00602642,0.0287626,1945,995,15.5482,-2.75672
728,29,15.2808,2.97382,-0.00538626,0.00121483,0.00403944,0.00313067,-0.00730209,1.12793,0.00618177,0.0211369,1952,995,15.2807,-2.9738
735,29,15.1487,3.10022,-0.00522874,0.00130605,0.00369887,0.00297399,-0.00689668,1.14717,0.00584692,0.0143063,1959,995,15.1486,-3.10021
742,29,15.1683,3.13837,-0.00498999,0.00175827,0.00278162,0.00275702,-0.00598875,1.22608,0.00516301,0.0116747,1966,995,15.1683,-3.13836
749,29,15.1884,3.17871,-0.00486438,0.00237392,0.00175327,0.00277624,-0.00526669,1.34523,0.00471721,0.0117553,1973,995,15.1883,-3.17871
756,29,15.1593,3.21741,-0.0047931,0.00353133,0.000536968,0.00356583,-0.00482759,1.50665,0.00486416,0.010671,1980,995,15.1593,-3.21741
763,29,15.1726,3.24426,-0.00467521,0.00543443,-0.000911814,0.00551601,-0.00475679,-1.48156,0.0059364,0.0115703,1987,995,15.1726,-3.24429
770,29,15.1586,3.26935,-0.00481675,0.00759461,-0.0025199,0.00808672,-0.00530885,-1.37794,0.00778917,0.0123429,1994,995,15.1585,-3.26936
777,29,15.1184,3.37347,-0.00531448,0.0106869,-0.0041632,0.0117053,-0.00633284,-1.3309,0.0105672,0.0201891,2001,995,15.1184,-3.37349
784,29,15.5571,2.13837,0,0,0,0,0,0,0,-1,2008,995,15.5571,-2.13836
791,29,15.3867,2.33533,-0.00823125,0.0202192,-0.00767868,0.0221593,-0.0101714,-1.32331,0.0190891,0.0436719,2015,995,15.3867,-2.33535
798,29,15.3385,2.63226,-0.0101697,0.0272277,-0.00997926,0.0297239,-0.0126659,-1.32568,0.0251256,0.041651,2022,995,15.3385,-2.63227
805,29,15.355,2.73187,-0.0123562,0.0363463,-0.0127915,0.0395015,-0.0155114,-1.32896,0.0327529,0.0463043,2029,995,15.355,-2.73188
812,29,15.248,2.80664,0,0,0,0,0,0,0,-1,2036,995,15.2481,-2.80667
-700,22,0,0,0,0,0,0,0,0,0,-1,524,1002,0,0
-693,22,-8.93152,3.07306,0.0131137,0.133352,-0.0864106,0.1785,-0.0320338,-1.08933,0.13099,0.0461554,531,1002,-8.9315,-3.07308
-686,22,-9.25043,3.27539,0.0161522,0.111948,-0.0746723,0.152764,-0.0246638,-1.07057,0.110981,0.0461426,538,1002,-9.2504,-3.27538
-679,22,-8.88641,2.46979,0.0161951,0.0920426,-0.0625207,0.127242,-0.0190047,-1.05802,0.0918211,0.048475,545,1002,-8.88644,-2.46979
-672,22,-9.55316,2.2973,0.0147489,0.0740348,-0.0508808,0.103278,-0.0144942,-1.04916,0.074157,0.0485962,552,1002,-9.55314,-2.29728
-665,22,-9.39093,2.05096,0.0125995,0.0580817,-0.0401991,0.0815264,-0.0108452,-1.04281,0.0583032,0.046741,559,1002,-9.39094,-2.05098
-658,22,-9.5899,1.13104,0,0,0,0,0,0,0,-1,566,1002,-9.58993,-1.13102
-651,22,-9.55573,1.13977,0.00776603,0.0326691,-0.0227158,0.0461221,-0.005687,-1.03611,0.0328085,0.0351436,573,1002,-9.55572,-1.13979
-644,22,-9.54846,1.12244,0.00557201,0.0232492,-0.0162729,0.0329289,-0.0041077,-1.03418,0.0234421,0.016581,580,1002,-9.54843,-1.12246
-637,22,-9.59875,1.11383,0.00417596,0.0148182,-0.010944,0.0216661,-0.00267197,-1.01168,0.0154121,0.0124314,587,1002,-9.59879,-1.1138
-630,22,-9.60156,1.0968,0.00251665,0.00877877,-0.00705813,0.0133692,-0.00207373,-0.994162,0.00967835,0.0103381,594,1002,-9.60158,-1.09682
-623,22,-9.60004,1.07391,0.000591922,0.00451738,-0.00427226,0.00725619,-0.00214689,-1.00073,0.00568975,0.00946679,601,1002,-9.60003,-1.07394
-616,22,-9.57239,1.04712,-0.000488872,0.00235025,-0.00294355,0.00419865,-0.00233728,-1.01008,0.00382419,0.0147756,608,1002,-9.57238,-1.04711
-609,22,-9.59058,1.02118,-0.00131146,0.000988886,-0.0025552,0.00264084,-0.00296342,-0.996879,0.00323741,0.0246118,615,1002,-9.59055,-1.02119
-602,22,-9.63727,0.976074,-0.00171875,0.000314516,-0.00267425,0.00215885,-0.00356308,-0.96704,0.00333656,0.0252674,622,1002,-9.63724,-0.976049
-595,22,-9.65601,0.928894,-0.00179681,8.9632e-05,-0.00291551,0.0022107,-0.00391787,-0.941844,0.0035838,0.0212694,629,1002,-9.65599,-0.928894
-588,22,-9.65601,0.743652,-0.00174074,4.12851e-05,-0.0032074,0.00247914,-0.00417859,-0.920881,0.00388536,0.0254872,636,1002,-9.65602,-0.743656
-581,22,-9.67316,0.642883,-0.00160266,8.39883e-05,-0.00339725,0.00274102,-0.00425969,-0.907058,0.00407344,0.0384415,643,1002,-9.67313,-0.64291
-574,22,-9.64246,0.590698,-0.00128624,5.90728e-05,-0.00343635,0.00288798,-0.00411514,-0.88205,0.00406389,0.0350122,650,1002,-9.64243,-0.590698
-567,22,-9.61768,0.498535,-0.000907793,0.000176895,-0.00339486,0.00307246,-0.00380336,-0.864606,0.00397722,0.0309814,657,1002,-9.61769,-0.498545
-560,22,-9.67389,0.499634,-0.000236187,0.00035058,-0.00322355,0.00329407,-0.00317968,-0.830779,0.00373781,0.0347404,664,1002,-9.67391,-0.49963
-553,22,-9.78394,0.504028,0.000808622,0.000557483,-0.002911,0.00359676,-0.00223066,-0.763843,0.00339514,0.039457,671,1002,-9.78396,-0.50401
-546,22,-9.80341,0.561768,0.00229602,0.000750622,-0.00245991,0.00410173,-0.00105509,-0.633219,0.00314573,0.0421732,678,1002,-9.80344,-0.561744
-539,22,-9.75555,0.549072,0.00434834,0.000871885,-0.00197676,0.00524241,-2.21902e-05,-0.424759,0.00350236,0.0415156,685,1002,-9.75555,-0.549097
-532,22,-9.74091,0.386963,0.00691741,0.00101395,-0.0016624,0.00735335,0.000578011,-0.256458,0.00472137,0.0427751,692,1002,-9.7409,-0.386974
-525,22,0,0,0,0,0,0,0,0,0,-1,699,1002,0,0
-518,22,0,0,0,0,0,0,0,0,0,-1,706,1002,0,0
-511,22,0,0,0,0,0,0,0,0,0,-1,713,1002,0,0
-504,22,0,0,0,0,0,0,0,0,0,-1,720,1002,0,0
-497,22,0,0,0,0,0,0,0,0,0,-1,727,1002,0,0
-490,22,0,0,0,0,0,0,0,0,0,-1,734,1002,0,0
-483,22,0,0,0,0,0,0,0,0,0,-1,741,1002,0,0
-476,22,0,0,0,0,0,0,0,0,0,-1,748,1002,0,0
-469,22,0,0,0,0,0,0,0,0,0,-1,755,1002,0,0
-462,22,0,0,0,0,0,0,0,0,0,-1,762,1002,0,0
-455,22,0,0,0,0,0,0,0,0,0,-1,769,1002,0,0
-448,22,0,0,0,0,0,0,0,0,0,-1,776,1002,0,0
-441,22,0,0,0,0,0,0,0,0,0,-1,783,1002,0,0
-434,22,0,0,0,0,0,0,0,0,0,-1,790,1002,0,0
-427,22,0,0,0,0,0,0,0,0,0,-1,797,1002,0,0
-420,22,0,0,0,0,0,0,0,0,0,-1,804,1002,0,0
-413,22,0,0,0,0,0,0,0,0,0,-1,811,1002,0,0
-406,22,0,0,0,0,0,0,0,0,0,-1,818,1002,0,0
-399,22,0,0,0,0,0,0,0,0,0,-1,825,1002,0,0
-392,22,0,0,0,0,0,0,0,0,0,-1,832,1002,0,0
-385,22,0,0,0,0,0,0,0,0,0,-1,839,1002,0,0
-378,22,0,0,0,0,0,0,0,0,0,-1,846,1002,0,0
-371,22,0,0,0,0,0,0,0,0,0,-1,853,1002,0,0
-364,22,0,0,0,0,0,0,0,0,0,-1,860,1002,0,0
-357,22,0,0,0,0,0,0,0,0,0,-1,867,1002,0,0
-350,22,0,0,0,0,0,0,0,0,0,-1,874,1002,0,0
-343,22,0,0,0,0,0,0,0,0,0,-1,881,1002,0,0
-336,22,0,0,0,0,0,0,0,0,0,-1,888,1002,0,0
-329,22,0,0,0,0,0,0,0,0,0,-1,895,1002,0,0
-322,22,0,0,0,0,0,0,0,0,0,-1,902,1002,0,0
-315,22,0,0,0,0,0,0,0,0,0,-1,909,1002,0,0
-308,22,0,0,0,0,0,0,0,0,0,-1,916,1002,0,0
-301,22,0,0,0,0,0,0,0,0,0,-1,923,1002,0,0
-294,22,0,0,0,0,0,0,0,0,0,-1,930,1002,0,0
-287,22,0,0,0,0,0,0,0,0,0,-1,937,1002,0,0
-280,22,0,0,0,0,0,0,0,0,0,-1,944,1002,0,0
-273,22,0,0,0,0,0,0,0,0,0,-1,951,1002,0,0
-266,22,0,0,0,0,0,0,0,0,0,-1,958,1002,0,0
-259,22,0,0,0,0,0,0,0,0,0,-1,965,1002,0,0
-252,22,0,0,0,0,0,0,0,0,0,-1,972,1002,0,0
-245,22,0,0,0,0,0,0,0,0,0,-1,979,1002,0,0
-238,22,0,0,0,0,0,0,0,0,0,-1,986,1002,0,0
-231,22,0,0,0,0,0,0,0,0,0,-1,993,1002,0,0
-224,22,0,0,0,0,0,0,0,0,0,-1,1000,1002,0,0
-217,22,0,0,0,0,0,0,0,0,0,-1,1007,1002,0,0
-210,22,0,0,0,0,0,0,0,0,0,-1,1014,1002,0,0
-203,22,0,0,0,0,0,0,0,0,0,-1,1021,1002,0,0
-196,22,0,0,0,0,0,0,0,0,0,-1,1028,1002,0,0
-189,22,0,0,0,0,0,0,0,0,0,-1,1035,1002,0,0
-182,22,0,0,0,0,0,0,0,0,0,-1,1042,1002,0,0
-175,22,0,0,0,0,0,0,0,0,0,-1,1049,1002,0,0
-168,22,0,0,0,0,0,0,0,0,0,-1,1056,1002,0,0
-161,22,0,0,0,0,0,0,0,0,0,-1,1063,1002,0,0
-154,22,0,0,0,0,0,0,0,0,0,-1,1070,1002,0,0
-147,22,0,0,0,0,0,0,0,0,0,-1,1077,1002,0,0
-140,22,0,0,0,0,0,0,0,0,0,-1,1084,1002,0,0
-133,22,0,0,0,0,0,0,0,0,0,-1,1091,1002,0,0
-126,22,0,0,0,0,0,0,0,0,0,-1,1098,1002,0,0
-119,22,0,0,0,0,0,0,0,0,0,-1,1105,1002,0,0
-112,22,0,0,0,0,0,0,0,0,0,-1,1112,1002,0,0
-105,22,0,0,0,0,0,0,0,0,0,-1,1119,1002,0,0
-98,22,0,0,0,0,0,0,0,0,0,-1,1126,1002,0,0
-91,22,0,0,0,0,0,0,0,0,0,-1,1133,1002,0,0
-84,22,0,0,0,0,0,0,0,0,0,-1,1140,1002,0,0
-77,22,0,0,0,0,0,0,0,0,0,-1,1147,1002,0,0
-70,22,0,0,0,0,0,0,0,0,0,-1,1154,1002,0,0
-63,22,0,0,0,0,0,0,0,0,0,-1,1161,1002,0,0
-56,22,0,0,0,0,0,0,0,0,0,-1,1168,1002,0,0
-49,22,0,0,0,0,0,0,0,0,0,-1,1175,1002,0,0
-42,22,0,0,0,0,0,0,0,0,0,-1,1182,1002,0,0
-35,22,0,0,0,0,0,0,0,0,0,-1,1189,1002,0,0
-28,22,0,0,0,0,0,0,0,0,0,-1,1196,1002,0,0
-21,22,0,0,0,0,0,0,0,0,0,-1,1203,1002,0,0
-14,22,0,0,0,0,0,0,0,0,0,-1,1210,1002,0,0
-7,22,0,0,0,0,0,0,0,0,0,-1,1217,1002,0,0
0,22,0,0,0,0,0,0,0,0,0,-1,1224,1002,0,0
7,22,0,0,0,0,0,0,0,0,0,-1,1231,1002,0,0
14,22,0,0,0,0,0,0,0,0,0,-1,1238,1002,0,0
21,22,0,0,0,0,0,0,0,0,0,-1,1245,1002,0,0
28,22,0,0,0,0,0,0,0,0,0,-1,1252,1002,0,0
35,22,0,0,0,0,0,0,0,0,0,-1,1259,1002,0,0
42,22,0,0,0,0,0,0,0,0,0,-1,1266,1002,0,0
49,22,0,0,0,0,0,0,0,0,0,-1,1273,1002,0,0
56,22,0,0,0,0,0,0,0,0,0,-1,1280,1002,0,0
63,22,0,0,0,0,0,0,0,0,0,-1,1287,1002,0,0
70,22,0,0,0,0,0,0,0,0,0,-1,1294,1002,0,0
77,22,0,0,0,0,0,0,0,0,0,-1,1301,1002,0,0
84,22,0,0,0,0,0,0,0,0,0,-1,1308,1002,0,0
91,22,0,0,0,0,0,0,0,0,0,-1,1315,1002,0,0
98,22,0,0,0,0,0,0,0,0,0,-1,1322,1002,0,0
105,22,0,0,0,0,0,0,0,0,0,-1,1329,1002,0,0
112,22,0,0,0,0,0,0,0,0,0,-1,1336,1002,0,0
119,22,0,0,0,0,0,0,0,0,0,-1,1343,1002,0,0
126,22,0,0,0,0,0,0,0,0,0,-1,1350,1002,0,0
133,22,0,0,0,0,0,0,0,0,0,-1,1357,1002,0,0
140,22,0,0,0,0,0,0,0,0,0,-1,1364,1002,0,0
147,22,0,0,0,0,0,0,0,0,0,-1,1371,1002,0,0
154,22,0,0,0,0,0,0,0,0,0,-1,1378,1002,0,0
161,22,0,0,0,0,0,0,0,0,0,-1,1385,1002,0,0
168,22,0,0,0,0,0,0,0,0,0,-1,1392,1002,0,0
175,22,0,0,0,0,0,0,0,0,0,-1,1399,1002,0,0
182,22,0,0,0,0,0,0,0,0,0,-1,1406,1002,0,0
189,22,0,0,0,0,0,0,0,0,0,-1,1413,1002,0,0
196,22,0,0,0,0,0,0,0,0,0,-1,1420,1002,0,0
203,22,0,0,0,0,0,0,0,0,0,-1,1427,1002,0,0
210,22,0,0,0,0,0,0,0,0,0,-1,1434,1002,0,0
217,22,0,0,0,0,0,0,0,0,0,-1,1441,1002,0,0
224,22,0,0,0,0,0,0,0,0,0,-1,1448,1002,0,0
231,22,0,0,0,0,0,0,0,0,0,-1,1455,1002,0,0
238,22,0,0,0,0,0,0,0,0,0,-1,1462,1002,0,0
245,22,0,0,0,0,0,0,0,0,0,-1,1469,1002,0,0
252,22,0,0,0,0,0,0,0,0,0,-1,1476,1002,0,0
259,22,0,0,0,0,0,0,0,0,0,-1,1483,1002,0,0
266,22,0,0,0,0,0,0,0,0,0,-1,1490,1002,0,0
273,22,0,0,0,0,0,0,0,0,0,-1,1497,1002,0,0
280,22,0,0,0,0,0,0,0,0,0,-1,1504,1002,0,0
287,22,0,0,0,0,0,0,0,0,0,-1,1511,1002,0,0
294,22,0,0,0,0,0,0,0,0,0,-1,1518,1002,0,0
301,22,0,0,0,0,0,0,0,0,0,-1,1525,1002,0,0
308,22,0,0,0,0,0,0,0,0,0,-1,1532,1002,0,0
315,22,0,0,0,0,0,0,0,0,0,-1,1539,1002,0,0
322,22,0,0,0,0,0,0,0,0,0,-1,1546,1002,0,0
329,22,0,0,0,0,0,0,0,0,0,-1,1553,1002,0,0
336,22,0,0,0,0,0,0,0,0,0,-1,1560,1002,0,0
343,22,0,0,0,0,0,0,0,0,0,-1,1567,1002,0,0
350,22,0,0,0,0,0,0,0,0,0,-1,1574,1002,0,0
357,22,0,0,0,0,0,0,0,0,0,-1,1581,1002,0,0
364,22,0,0,0,0,0,0,0,0,0,-1,1588,1002,0,0
371,22,0,0,0,0,0,0,0,0,0,-1,1595,1002,0,0
378,22,0,0,0,0,0,0,0,0,0,-1,1602,1002,0,0
385,22,0,0,0,0,0,0,0,0,0,-1,1609,1002,0,0
392,22,0,0,0,0,0,0,0,0,0,-1,1616,1002,0,0
399,22,0,0,0,0,0,0,0,0,0,-1,1623,1002,0,0
406,22,0,0,0,0,0,0,0,0,0,-1,1630,1002,0,0
413,22,0,0,0,0,0,0,0,0,0,-1,1637,1002,0,0
420,22,0,0,0,0,0,0,0,0,0,-1,1644,1002,0,0
427,22,0,0,0,0,0,0,0,0,0,-1,1651,1002,0,0
434,22,0,0,0,0,0,0,0,0,0,-1,1658,1002,0,0
441,22,0,0,0,0,0,0,0,0,0,-1,1665,1002,0,0
448,22,0,0,0,0,0,0,0,0,0,-1,1672,1002,0,0
455,22,0,0,0,0,0,0,0,0,0,-1,1679,1002,0,0
462,22,0,0,0,0,0,0,0,0,0,-1,1686,1002,0,0
469,22,0,0,0,0,0,0,0,0,0,-1,1693,1002,0,0
476,22,0,0,0,0,0,0,0,0,0,-1,1700,1002,0,0
483,22,0,0,0,0,0,0,0,0,0,-1,1707,1002,0,0
490,22,0,0,0,0,0,0,0,0,0,-1,1714,1002,0,0
497,22,0,0,0,0,0,0,0,0,0,-1,1721,1002,0,0
504,22,0,0,0,0,0,0,0,0,0,-1,1728,1002,0,0
511,22,0,0,0,0,0,0,0,0,0,-1,1735,1002,0,0
518,22,0,0,0,0,0,0,0,0,0,-1,1742,1002,0,0
525,22,0,0,0,0,0,0,0,0,0,-1,1749,1002,0,0
532,22,0,0,0,0,0,0,0,0,0,-1,1756,1002,0,0
539,22,0,0,0,0,0,0,0,0,0,-1,1763,1002,0,0
546,22,0,0,0,0,0,0,0,0,0,-1,1770,1002,0,0
553,22,0,0,0,0,0,0,0,0,0,-1,1777,1002,0,0
560,22,0,0,0,0,0,0,0,0,0,-1,1784,1002,0,0
567,22,0,0,0,0,0,0,0,0,0,-1,1791,1002,0,0
574,22,0,0,0,0,0,0,0,0,0,-1,1798,1002,0,0
581,22,0,0,0,0,0,0,0,0,0,-1,1805,1002,0,0
588,22,0,0,0,0,0,0,0,0,0,-1,1812,1002,0,0
595,22,0,0,0,0,0,0,0,0,0,-1,1819,1002,0,0
602,22,0,0,0,0,0,0,0,0,0,-1,1826,1002,0,0
609,22,0,0,0,0,0,0,0,0,0,-1,1833,1002,0,0
616,22,0,0,0,0,0,0,0,0,0,-1,1840,1002,0,0
623,22,0,0,0,0,0,0,0,0,0,-1,1847,1002,0,0
630,22,0,0,0,0,0,0,0,0,0,-1,1854,1002,0,0
637,22,0,0,0,0,0,0,0,0,0,-1,1861,1002,0,0
644,22,15.6417,1.90698,0.00593447,-0.00172233,0.00837934,0.0113186,-0.00710642,0.571116,0.0107299,0.0376097,1868,1002,15.6418,-1.90696
651,22,15.735,2.07452,0.00407865,-0.00128647,0.00554951,0.00755995,-0.00476778,0.560264,0.00717801,0.0390454,1875,1002,15.735,-2.07451
658,22,15.6837,2.42932,0.00273486,-0.000991725,0.00363463,0.00495598,-0.00321284,0.54854,0.00475192,0.0394964,1882,1002,15.6838,-2.42931
665,22,15.6333,2.67395,0.00169952,-0.000764869,0.00235246,0.00312296,-0.00218831,0.54415,0.00308225,0.0390574,1889,1002,15.6333,-2.67393
672,22,15.7029,2.38867,0.000611536,-0.000452665,0.001929,0.00208048,-0.00192161,0.650824,0.00231122,0.0379577,1896,1002,15.7029,-2.38865
679,22,15.7179,2.2464,-0.000792027,-0.000169069,0.0021454,0.00168734,-0.00264844,0.857487,0.00252368,0.0372198,1903,1002,15.7178,-2.2464
686,22,15.6526,2.28229,-0.00203816,6.50536e-05,0.00261587,0.00183278,-0.00380589,0.976517,0.00332126,0.0361018,1910,1002,15.6526,-2.2823
693,22,15.6587,2.34137,-0.00307163,0.000259941,0.00317035,0.00217549,-0.00498718,1.02729,0.00424025,0.0360696,1917,1002,15.6587,-2.34137
700,22,15.6718,2.2854,-0.0040355,0.000428794,0.0035383,0.00238019,-0.00598689,1.0668,0.00497809,0.0312684,1924,1002,15.6717,-2.28538
707,22,15.605,2.28082,-0.00473061,0.000662986,0.00384828,0.00266533,-0.00673296,1.09102,0.00559294,0.0298636,1931,1002,15.605,-2.28079
714,22,15.6609,2.35443,-0.00514692,0.000823186,0.00407974,0.00289331,-0.00721705,1.10123,0.00601251,0.028721,1938,1002,15.6609,-2.3544
721,22,15.6543,2.58929,-0.00546306,0.000916552,0.004298,0.0030791,-0.00762561,1.10463,0.00636346,0.0325952,1945,1002,15.6543,-2.58929
728,22,15.2488,2.89081,-0.00561273,0.00102465,0.00438996,0.00320918,-0.00779726,1.10905,0.00653602,0.0238425,1952,1002,15.2488,-2.89079
735,22,15.214,3.10785,-0.00550386,0.00118369,0.00403947,0.00308378,-0.00740395,1.13112,0.00622398,0.0140669,1959,1002,15.214,-3.10787
742,22,15.2156,3.15021,-0.00522717,0.00161445,0.00314337,0.00283936,-0.00645208,1.19922,0.00549792,0.0140763,1966,1002,15.2156,-3.15023
749,22,15.2332,3.17847,-0.00491034,0.00215157,0.0021873,0.00277416,-0.00553293,1.29349,0.00488346,0.0105414,1973,1002,15.2331,-3.17846
756,22,15.2229,3.19818,-0.00463515,0.00328285,0.00104403,0.0034182,-0.00477049,1.44188,0.00474918,0.0140623,1980,1002,15.2228,-3.19816
763,22,15.1807,3.27386,-0.00428872,0.0051779,-0.000367461,0.00519214,-0.00430296,-1.53206,0.00549001,0.0164831,1987,1002,15.1806,-3.27384
770,22,15.1957,3.29248,-0.00407252,0.00723129,-0.00190484,0.00754365,-0.00438488,-1.40826,0.00696696,0.0109158,1994,1002,15.1957,-3.29247
777,22,15.1632,3.34052,-0.00403184,0.0101679,-0.0034567,0.0109646,-0.00482861,-1.34425,0.00934482,0.0185652,2001,1002,15.1632,-3.3405
784,22,14.8378,3.46295,-0.00454308,0.0141044,-0.00494097,0.0153327,-0.00577137,-1.32714,0.0125944,0.0394038,2008,1002,14.8378,-3.46292
791,22,15.6146,2.11444,0,0,0,0,0,0,0,-1,2015,1002,15.6146,-2.11447
798,22,15.4246,3.73737,-0.00623638,0.0259683,-0.00865518,0.028147,-0.00841511,-1.32419,0.0221101,0.0471292,2022,1002,15.4246,-3.73737
805,22,15.4156,3.34137,-0.00701299,0.0347018,-0.011199,0.0375182,-0.00982941,-1.32442,0.0288522,0.046493,2029,1002,15.4157,-3.34138
812,22,14.9304,3.755,0,0,0,0,0,0,0,-1,2036,1002,14.9304,-3.75502
-700,15,0,0,0,0,0,0,0,0,0,-1,524,1009,0,0
-693,15,-7.46118,2.07806,0.00552497,0.12156,-0.0714186,0.155557,-0.0284719,-1.12651,0.114383,0.0494657,531,1009,-7.46117,-2.07806
-686,15,-8.12891,2.36267,0.00871067,0.102887,-0.0623794,0.133955,-0.022358,-1.1087,0.0976134,0.0469111,538,1009,-8.1289,-2.36268
-679,15,-8.0517,1.71375,0,0,0,0,0,0,0,-1,545,1009,-8.0517,-1.71377
-672,15,-9.38489,1.67944,0,0,0,0,0,0,0,-1,552,1009,-9.38491,-1.67946
-665,15,-9.36658,0.898804,0,0,0,0,0,0,0,-1,559,1009,-9.3666,-0.89879
-658,15,-9.40826,0.972656,0.00740757,0.0413519,-0.0263347,0.0557097,-0.00695029,-1.07164,0.0396601,0.045758,566,1009,-9.40827,-0.972628
-651,15,-9.49738,1.07166,0.00589124,0.0306258,-0.0195561,0.041397,-0.00487997,-1.06735,0.0293602,0.0354229,573,1009,-9.49738,-1.07166
-644,15,-9.59442,1.13885,0.00425922,0.0220117,-0.0141992,0.0298807,-0.00360984,-1.06474,0.0212263,0.0174169,580,1009,-9.59444,-1.13888
-637,15,-9.60681,1.13501,0.00334564,0.0141539,-0.00974282,0.019891,-0.00239146,-1.03861,0.0141255,0.0139791,587,1009,-9.6068,-1.135
-630,15,-9.60352,1.08545,0.0023268,0.00839798,-0.0064352,0.0124776,-0.00175284,-1.00578,0.00896004,0.0104941,594,1009,-9.60353,-1.08543
-623,15,-9.61127,1.06439,0.000800605,0.00430288,-0.00411271,0.00702174,-0.00191826,-0.986666,0.00543462,0.00843177,601,1009,-9.61129,-1.0644
-616,15,-9.63336,1.04346,-0.000253528,0.00221605,-0.00286941,0.00410507,-0.00214255,-0.988586,0.00366591,0.0129519,608,1009,-9.63339,-1.04344
-609,15,-9.63446,1.01929,-0.00101096,0.000885303,-0.00262092,0.00272431,-0.00284997,-0.958953,0.00321859,0.0201062,615,1009,-9.63446,-1.01927
-602,15,-9.64636,0.97229,-0.00134998,0.000203811,-0.00288513,0.00241482,-0.00356098,-0.916916,0.00347122,0.0202413,622,1009,-9.64639,-0.972311
-595,15,-9.67596,0.82782,-0.00136763,-3.79762e-05,-0.00322304,0.00258809,-0.00399369,-0.887108,0.00382877,0.0210731,629,1009,-9.67595,-0.827835
-588,15,-9.67804,0.659546,-0.00125879,-8.88934e-05,-0.00354217,0.0029163,-0.00426398,-0.867229,0.00416981,0.0276625,636,1009,-9.67802,-0.659543
-581,15,-9.65204,0.583923,-0.00111277,-4.32106e-05,-0.00375501,0.00321491,-0.00437089,-0.856131,0.00439658,0.0382327,643,1009,-9.65205,-0.583952
-574,15,-9.61993,0.548218,-0.000829898,-4.46796e-05,-0.00381864,0.00340149,-0.00427606,-0.836625,0.00444221,0.0324823,650,1009,-9.61996,-0.548221
-567,15,-9.56677,0.480286,-0.000498856,0.000111176,-0.00379187,0.00361028,-0.00399796,-0.825531,0.00439452,0.0311062,657,1009,-9.56677,-0.480275
-560,15,-9.59143,0.553711,7.14661e-05,0.00034682,-0.00363124,0.003843,-0.00342471,-0.804346,0.00419833,0.0359045,664,1009,-9.59143,-0.553692
-553,15,-9.7254,0.521851,0.000943099,0.000641062,-0.00332478,0.00412029,-0.00253613,-0.762703,0.0038792,0.0403037,671,1009,-9.72542,-0.521862
-546,15,-9.84106,0.508911,0.00216893,0.000950551,-0.00287895,0.00450244,-0.00138295,-0.681135,0.00355348,0.0421916,678,1009,-9.84106,-0.508909
-539,15,-9.67603,0.616028,0.00385566,0.00121367,-0.00244237,0.00531139,-0.000242064,-0.537496,0.00362431,0.0419152,685,1009,-9.67601,-0.616033
-532,15,-9.64197,0.538513,0.00597473,0.00154589,-0.00225979,0.00692422,0.000596398,-0.397769,0.00443075,0.0429651,692,1009,-9.64196,-0.538514
-525,15,0,0,0,0,0,0,0,0,0,-1,699,1009,0,0
-518,15,0,0,0,0,0,0,0,0,0,-1,706,1009,0,0
-511,15,0,0,0,0,0,0,0,0,0,-1,713,1009,0,0
-504,15,0,0,0,0,0,0,0,0,0,-1,720,1009,0,0
-497,15,0,0,0,0,0,0,0,0,0,-1,727,1009,0,0
-490,15,0,0,0,0,0,0,0,0,0,-1,734,1009,0,0
-483,15,0,0,0,0,0,0,0,0,0,-1,741,1009,0,0
-476,15,0,0,0,0,0,0,0,0,0,-1,748,1009,0,0
-469,15,0,0,0,0,0,0,0,0,0,-1,755,1009,0,0
-462,15,0,0,0,0,0,0,0,0,0,-1,762,1009,0,0
-455,15,0,0,0,0,0,0,0,0,0,-1,769,1009,0,0
-448,15,0,0,0,0,0,0,0,0,0,-1,776,1009,0,0
-441,15,0,0,0,0,0,0,0,0,0,-1,783,1009,0,0
-434,15,0,0,0,0,0,0,0,0,0,-1,790,1009,0,0
-427,15,0,0,0,0,0,0,0,0,0,-1,797,1009,0,0
-420,15,0,0,0,0,0,0,0,0,0,-1,804,1009,0,0
-413,15,0,0,0,0,0,0,0,0,0,-1,811,1009,0,0
-406,15,0,0,0,0,0,0,0,0,0,-1,818,1009,0,0
-399,15,0,0,0,0,0,0,0,0,0,-1,825,1009,0,0
-392,15,0,0,0,0,0,0,0,0,0,-1,832,1009,0,0
-385,15,0,0,0,0,0,0,0,0,0,-1,839,1009,0,0
-378,15,0,0,0,0,0,0,0,0,0,-1,846,1009,0,0
-371,15,0,0,0,0,0,0,0,0,0,-1,853,1009,0,0
-364,15,0,0,0,0,0,0,0,0,0,-1,860,1009,0,0
-357,15,0,0,0,0,0,0,0,0,0,-1,867,1009,0,0
-350,15,0,0,0,0,0,0,0,0,0,-1,874,1009,0,0
-343,15,0,0,0,0,0,0,0,0,0,-1,881,1009,0,0
-336,15,0,0,0,0,0,0,0,0,0,-1,888,1009,0,0
-329,15,0,0,0,0,0,0,0,0,0,-1,895,1009,0,0
-322,15,0,0,0,0,0,0,0,0,0,-1,902,1009,0,0
-315,15,0,0,0,0,0,0,0,0,0,-1,909,1009,0,0
-308,15,0,0,0,0,0,0,0,0,0,-1,916,1009,0,0
-301,15,0,0,0,0,0,0,0,0,0,-1,923,1009,0,0
-294,15,0,0,0,0,0,0,0,0,0,-1,930,1009,0,0
-287,15,0,0,0,0,0,0,0,0,0,-1,937,1009,0,0
-280,15,0,0,0,0,0,0,0,0,0,-1,944,1009,0,0
-273,15,0,0,0,0,0,0,0,0,0,-1,951,1009,0,0
-266,15,0,0,0,0,0,0,0,0,0,-1,958,1009,0,0
-259,15,0,0,0,0,0,0,0,0,0,-1,965,1009,0,0
-252,15,0,0,0,0,0,0,0,0,0,-1,972,1009,0,0
-245,15,0,0,0,0,0,0,0,0,0,-1,979,1009,0,0
-238,15,0,0,0,0,0,0,0,0,0,-1,986,1009,0,0
-231,15,0,0,0,0,0,0,0,0,0,-1,993,1009,0,0
-224,15,0,0,0,0,0,0,0,0,0,-1,1000,1009,0,0
-217,15,0,0,0,0,0,0,0,0,0,-1,1007,1009,0,0
-210,15,0,0,0,0,0,0,0,0,0,-1,1014,1009,0,0
-203,15,0,0,0,0,0,0,0,0,0,-1,1021,1009,0,0
-196,15,0,0,0,0,0,0,0,0,0,-1,1028,1009,0,0
-189,15,0,0,0,0,0,0,0,0,0,-1,1035,1009,0,0
-182,15,0,0,0,0,0,0,0,0,0,-1,1042,1009,0,0
-175,15,0,0,0,0,0,0,0,0,0,-1,1049,1009,0,0
-168,15,0,0,0,0,0,0,0,0,0,-1,1056,1009,0,0
-161,15,0,0,0,0,0,0,0,0,0,-1,1063,1009,0,0
-154,15,0,0,0,0,0,0,0,0,0,-1,1070,1009,0,0
-147,15,0,0,0,0,0,0,0,0,0,-1,1077,1009,0,0
-140,15,0,0,0,0,0,0,0,0,0,-1,1084,1009,0,0
-133,15,0,0,0,0,0,0,0,0,0,-1,1091,1009,0,0
-126,15,0,0,0,0,0,0,0,0,0,-1,1098,1009,0,0
-119,15,0,0,0,0,0,0,0,0,0,-1,1105,1009,0,0
-112,15,0,0,0,0,0,0,0,0,0,-1,1112,1009,0,0
-105,15,0,0,0,0,0,0,0,0,0,-1,1119,1009,0,0
-98,15,0,0,0,0,0,0,0,0,0,-1,1126,1009,0,0
-91,15,0,0,0,0,0,0,0,0,0,-1,1133,1009,0,0
-84,15,0,0,0,0,0,0,0,0,0,-1,1140,1009,0,0
-77,15,0,0,0,0,0,0,0,0,0,-1,1147,1009,0,0
-70,15,0,0,0,0,0,0,0,0,0,-1,1154,1009,0,0
-63,15,0,0,0,0,0,0,0,0,0,-1,1161,1009,0,0
-56,15,0,0,0,0,0,0,0,0,0,-1,1168,1009,0,0
-49,15,0,0,0,0,0,0,0,0,0,-1,1175,1009,0,0
-42,15,0,0,0,0,0,0,0,0,0,-1,1182,1009,0,0
-35,15,0,0,0,0,0,0,0,0,0,-1,1189,1009,0,0
-28,15,0,0,0,0,0,0,0,0,0,-1,1196,1009,0,0
-21,15,0,0,0,0,0,0,0,0,0,-1,1203,1009,0,0
-14,15,0,0,0,0,0,0,0,0,0,-1,1210,1009,0,0
-7,15,0,0,0,0,0,0,0,0,0,-1,1217,1009,0,0
0,15,0,0,0,0,0,0,0,0,0,-1,1224,1009,0,0
7,15,0,0,0,0,0,0,0,0,0,-1,1231,1009,0,0
14,15,0,0,0,0,0,0,0,0,0,-1,1238,1009,0,0
21,15,0,0,0,0,0,0,0,0,0,-1,1245,1009,0,0
28,15,0,0,0,0,0,0,0,0,0,-1,1252,1009,0,0
35,15,0,0,0,0,0,0,0,0,0,-1,1259,1009,0,0
42,15,0,0,0,0,0,0,0,0,0,-1,1266,1009,0,0
49,15,0,0,0,0,0,0,0,0,0,-1,1273,1009,0,0
56,15,0,0,0,0,0,0,0,0,0,-1,1280,1009,0,0
63,15,0,0,0,0,0,0,0,0,0,-1,1287,1009,0,0
70,15,0,0,0,0,0,0,0,0,0,-1,1294,1009,0,0
77,15,0,0,0,0,0,0,0,0,0,-1,1301,1009,0,0
84,15,0,0,0,0,0,0,0,0,0,-1,1308,1009,0,0
91,15,0,0,0,0,0,0,0,0,0,-1,1315,1009,0,0
98,15,0,0,0,0,0,0,0,0,0,-1,1322,1009,0,0
105,15,0,0,0,0,0,0,0,0,0,-1,1329,1009,0,0
112,15,0,0,0,0,0,0,0,0,0,-1,1336,1009,0,0
119,15,0,0,0,0,0,0,0,0,0,-1,1343,1009,0,0
126,15,0,0,0,0,0,0,0,0,0,-1,1350,1009,0,0
133,15,0,0,0,0,0,0,0,0,0,-1,1357,1009,0,0
140,15,0,0,0,0,0,0,0,0,0,-1,1364,1009,0,0
147,15,0,0,0,0,0,0,0,0,0,-1,1371,1009,0,0
154,15,0,0,0,0,0,0,0,0,0,-1,1378,1009,0,0
161,15,0,0,0,0,0,0,0,0,0,-1,1385,1009,0,0
168,15,0,0,0,0,0,0,0,0,0,-1,1392,1009,0,0
175,15,0,0,0,0,0,0,0,0,0,-1,1399,1009,0,0
182,15,0,0,0,0,0,0,0,0,0,-1,1406,1009,0,0
189,15,0,0,0,0,0,0,0,0,0,-1,1413,1009,0,0
196,15,0,0,0,0,0,0,0,0,0,-1,1420,1009,0,0
203,15,0,0,0,0,0,0,0,0,0,-1,1427,1009,0,0
210,15,0,0,0,0,0,0,0,0,0,-1,1434,1009,0,0
217,15,0,0,0,0,0,0,0,0,0,-1,1441,1009,0,0
224,15,0,0,0,0,0,0,0,0,0,-1,1448,1009,0,0
231,15,0,0,0,0,0,0,0,0,0,-1,1455,1009,0,0
238,15,0,0,0,0,0,0,0,0,0,-1,1462,1009,0,0
245,15,0,0,0,0,0,0,0,0,0,-1,1469,1009,0,0
252,15,0,0,0,0,0,0,0,0,0,-1,1476,1009,0,0
259,15,0,0,0,0,0,0,0,0,0,-1,1483,1009,0,0
266,15,0,0,0,0,0,0,0,0,0,-1,1490,1009,0,0
273,15,0,0,0,0,0,0,0,0,0,-1,1497,1009,0,0
280,15,0,0,0,0,0,0,0,0,0,-1,1504,1009,0,0
287,15,0,0,0,0,0,0,0,0,0,-1,1511,1009,0,0
294,15,0,0,0,0,0,0,0,0,0,-1,1518,1009,0,0
301,15,0,0,0,0,0,0,0,0,0,-1,1525,1009,0,0
308,15,0,0,0,0,0,0,0,0,0,-1,1532,1009,0,0
315,15,0,0,0,0,0,0,0,0,0,-1,1539,1009,0,0
322,15,0,0,0,0,0,0,0,0,0,-1,1546,1009,0,0
329,15,0,0,0,0,0,0,0,0,0,-1,1553,1009,0,0
336,15,0,0,0,0,0,0,0,0,0,-1,1560,1009,0,0
343,15,0,0,0,0,0,0,0,0,0,-1,1567,1009,0,0
350,15,0,0,0,0,0,0,0,0,0,-1,1574,1009,0,0
357,15,0,0,0,0,0,0,0,0,0,-1,1581,1009,0,0
364,15,0,0,0,0,0,0,0,0,0,-1,1588,1009,0,0
371,15,0,0,0,0,0,0,0,0,0,-1,1595,1009,0,0
378,15,0,0,0,0,0,0,0,0,0,-1,1602,1009,0,0
385,15,0,0,0,0,0,0,0,0,0,-1,1609,1009,0,0
392,15,0,0,0,0,0,0,0,0,0,-1,1616,1009,0,0
399,15,0,0,0,0,0,0,0,0,0,-1,1623,1009,0,0
406,15,0,0,0,0,0,0,0,0,0,-1,1630,1009,0,0
413,15,0,0,0,0,0,0,0,0,0,-1,1637,1009,0,0
420,15,0,0,0,0,0,0,0,0,0,-1,1644,1009,0,0
427,15,0,0,0,0,0,0,0,0,0,-1,1651,1009,0,0
434,15,0,0,0,0,0,0,0,0,0,-1,1658,1009,0,0
441,15,0,0,0,0,0,0,0,0,0,-1,1665,1009,0,0
448,15,0,0,0,0,0,0,0,0,0,-1,1672,1009,0,0
455,15,0,0,0,0,0,0,0,0,0,-1,1679,1009,0,0
462,15,0,0,0,0,0,0,0,0,0,-1,1686,1009,0,0
469,15,0,0,0,0,0,0,0,0,0,-1,1693,1009,0,0
476,15,0,0,0,0,0,0,0,0,0,-1,1700,1009,0,0
483,15,0,0,0,0,0,0,0,0,0,-1,1707,1009,0,0
490,15,0,0,0,0,0,0,0,0,0,-1,1714,1009,0,0
497,15,0,0,0,0,0,0,0,0,0,-1,1721,1009,0,0
504,15,0,0,0,0,0,0,0,0,0,-1,1728,1009,0,0
511,15,0,0,0,0,0,0,0,0,0,-1,1735,1009,0,0
518,15,0,0,0,0,0,0,0,0,0,-1,1742,1009,0,0
525,15,0,0,0,0,0,0,0,0,0,-1,1749,1009,0,0
532,15,0,0,0,0,0,0,0,0,0,-1,1756,1009,0,0
539,15,0,0,0,0,0,0,0,0,0,-1,1763,1009,0,0
546,15,0,0,0,0,0,0,0,0,0,-1,1770,1009,0,0
553,15,0,0,0,0,0,0,0,0,0,-1,1777,1009,0,0
560,15,0,0,0,0,0,0,0,0,0,-1,1784,1009,0,0
567,15,0,0,0,0,0,0,0,0,0,-1,1791,1009,0,0
574,15,0,0,0,0,0,0,0,0,0,-1,1798,1009,0,0
581,15,0,0,0,0,0,0,0,0,0,-1,1805,1009,0,0
588,15,0,0,0,0,0,0,0,0,0,-1,1812,1009,0,0
595,15,0,0,0,0,0,0,0,0,0,-1,1819,1009,0,0
602,15,0,0,0,0,0,0,0,0,0,-1,1826,1009,0,0
609,15,0,0,0,0,0,0,0,0,0,-1,1833,1009,0,0
616,15,0,0,0,0,0,0,0,0,0,-1,1840,1009,0,0
623,15,0,0,0,0,0,0,0,0,0,-1,1847,1009,0,0
630,15,0,0,0,0,0,0,0,0,0,-1,1854,1009,0,0
637,15,0,0,0,0,0,0,0,0,0,-1,1861,1009,0,0
644,15,15.5994,2.14783,0.00588263,-0.00148557,0.00777821,0.0108051,-0.00640805,0.564228,0.0100455,0.0392482,1868,1009,15.5993,-2.14786
651,15,15.8198,2.1723,0.00394159,-0.00101636,0.00500102,0.00704433,-0.0041191,0.5553,0.00651855,0.0369795,1875,1009,15.8198,-2.17231
658,15,15.7169,2.36945,0.00256763,-0.000733135,0.00317287,0.00449368,-0.00265918,0.545577,0.00417473,0.0362398,1882,1009,15.7169,-2.36942
665,15,15.5919,2.4975,0.0015376,-0.000581019,0.00194386,0.00269205,-0.00173547,0.535918,0.00257604,0.0369667,1889,1009,15.592,-2.49751
672,15,15.7051,2.17615,0.000526047,-0.00036776,0.0015949,0.00173548,-0.00157719,0.648798,0.0019133,0.0381661,1896,1009,15.705,-2.17618
679,15,15.7451,2.21283,-0.00083018,-0.0001788,0.00191755,0.00144052,-0.0024495,0.869519,0.00227095,0.0381368,1903,1009,15.7451,-2.21283
686,15,15.6938,2.20947,-0.0020697,-2.55399e-05,0.00249202,0.00164586,-0.0037411,0.980007,0.00318761,0.0411179,1910,1009,15.6938,-2.20945
693,15,15.6678,2.26672,-0.0031134,0.000112071,0.00313957,0.0020289,-0.00503023,1.02266,0.00419659,0.0413091,1917,1009,15.6679,-2.26672
700,15,15.6967,2.28009,-0.00408727,0.000240784,0.0035981,0.00227549,-0.00612198,1.05614,0.00501495,0.030984,1924,1009,15.6967,-2.28011
707,15,15.6421,2.34113,-0.00476139,0.000430626,0.00399206,0.00259653,-0.0069273,1.07369,0.00568492,0.0276742,1931,1009,15.6421,-2.34113
714,15,15.657,2.35126,-0.00518531,0.000559101,0.00430542,0.00286243,-0.00748864,1.07955,0.00617194,0.0318129,1938,1009,15.6569,-2.35127
721,15,15.7145,2.54401,-0.0055408,0.000647857,0.00457782,0.00307904,-0.00797199,1.0826,0.00658548,0.0336025,1945,1009,15.7145,-2.54401
728,15,15.1976,2.93457,-0.00571108,0.000772621,0.00467038,0.00321602,-0.00815448,1.08879,0.006768,0.0283251,1952,1009,15.1976,-2.93458
735,15,15.264,3.09186,-0.00564134,0.000995722,0.00430156,0.00311006,-0.00775568,1.11395,0.00646164,0.0155815,1959,1009,15.2641,-3.09186
742,15,15.27,3.15479,-0.00533292,0.00140171,0.00342417,0.00283687,-0.00676808,1.17391,0.00569814,0.0164591,1966,1009,15.2701,-3.15481
749,15,15.2407,3.17139,-0.0048715,0.00187962,0.0025359,0.00272605,-0.00571793,1.24865,0.00497609,0.0102798,1973,1009,15.2407,-3.17141
756,15,15.2488,3.20117,-0.00438605,0.00294288,0.00146066,0.00322327,-0.00466644,1.38115,0.00458045,0.0113128,1980,1009,15.2488,-3.20115
763,15,15.2231,3.24341,-0.00386907,0.00473782,5.51423e-05,0.00473817,-0.00386943,1.56439,0.00497803,0.0105396,1987,1009,15.2232,-3.24339
770,15,15.2152,3.25348,-0.00336944,0.00660142,-0.00143805,0.00680468,-0.0035727,-1.43038,0.00608747,0.00995527,1994,1009,15.2152,-3.25348
777,15,15.2063,3.28821,-0.00288674,0.00924956,-0.00293826,0.0099235,-0.00356069,-1.34533,0.00806884,0.0193253,2001,1009,15.2063,-3.28819
784,15,15.1298,3.33215,-0.00281984,0.0128046,-0.00431205,0.0139157,-0.00393088,-1.31862,0.0108279,0.0399457,2008,1009,15.1298,-3.33212
791,15,15.0021,3.3501,0,0,0,0,0,0,0,-1,2015,1009,15.0021,-3.35007
798,15,15.0455,3.1261,-0.00303621,0.0235331,-0.00768327,0.025595,-0.00509804,-1.30862,0.0189921,0.0480893,2022,1009,15.0455,-3.12611
805,15,15.1183,3.06677,-0.00283859,0.0314516,-0.0100452,0.0341776,-0.00556459,-1.3058,0.0248485,0.0456577,2029,1009,15.1183,-3.06674
812,15,15.21,2.888,-0.00241163,0.0418671,-0.0130564,0.0454303,-0.00597484,-1.30438,0.0324623,0.0441196,2036,1009,15.21,-2.888
-700,8,0,0,0,0,0,0,0,0,0,-1,524,1016,0,0
-693,8,-9.21545,3.35864,0,0,0,0,0,0,0,-1,531,1016,-9.21546,-3.35866
-686,8,-9.43512,2.92523,0,0,0,0,0,0,0,-1,538,1016,-9.43512,-2.92526
-679,8,-9.73376,2.41052,0,0,0,0,0,0,0,-1,545,1016,-9.73374,-2.41054
-672,8,-10.0078,1.57074,0.00998566,0.0580066,-0.0347204,0.07621,-0.00821773,-1.08791,0.0537557,0.0425699,552,1016,-10.0078,-1.57077
-665,8,-9.84857,1.36139,0.00890754,0.0459691,-0.0277898,0.0608398,-0.00596322,-1.07945,0.0426867,0.0431936,559,1016,-9.84855,-1.36141
-658,8,-9.45691,1.0108,0.00751811,0.0354064,-0.0214839,0.0470747,-0.00415022,-1.07325,0.032854,0.0345934,566,1016,-9.45692,-1.01083
-651,8,-9.53723,1.05121,0.0059851,0.0264127,-0.0160333,0.0352091,-0.0028113,-1.069,0.0244637,0.0194444,573,1016,-9.53725,-1.0512
-644,8,-9.5705,1.07703,0.00418244,0.0192621,-0.0118048,0.0257294,-0.00228493,-1.0696,0.0179631,0.0162503,580,1016,-9.57052,-1.07705
-637,8,-9.58826,1.10242,0.00326726,0.0124625,-0.00829378,0.0173478,-0.00161799,-1.03849,0.0121405,0.0141194,587,1016,-9.58828,-1.10241
-630,8,-9.61572,1.06512,0.00247455,0.00742833,-0.00562182,0.0110947,-0.00119184,-0.992897,0.00782408,0.0116336,594,1016,-9.61574,-1.06515
-623,8,-9.61902,1.05109,0.00105893,0.00380903,-0.00377681,0.00645332,-0.00158536,-0.959978,0.00491662,0.0117943,601,1016,-9.61901,-1.0511
-616,8,-9.63031,1.04242,-2.45899e-05,0.00192985,-0.00265074,0.00377777,-0.00187251,-0.961998,0.00332343,0.0118038,608,1016,-9.63029,-1.04242
-609,8,-9.61597,1.02295,-0.00073676,0.000654335,-0.00259026,0.0026408,-0.00272323,-0.916566,0.00309705,0.0149461,615,1016,-9.61597,-1.02297
-602,8,-9.63513,0.993958,-0.00102038,-5.48191e-05,-0.00301684,0.00251763,-0.00359283,-0.864739,0.00354603,0.0198552,622,1016,-9.63511,-0.993965
-595,8,-9.64752,0.811462,-0.000982476,-0.000337536,-0.00345072,0.00280575,-0.00412576,-0.831988,0.00402603,0.0214685,629,1016,-9.6475,-0.811484
-588,8,-9.63757,0.615601,-0.000825218,-0.000416657,-0.00378625,0.00317082,-0.00441269,-0.812349,0.00439787,0.0238703,636,1016,-9.63759,-0.615592
-581,8,-9.60754,0.532593,-0.000669583,-0.000398111,-0.00401151,0.00347996,-0.00454765,-0.80231,0.00464839,0.0286979,643,1016,-9.60752,-0.532575
-574,8,-9.62158,0.460388,-0.000413068,-0.000386784,-0.00409425,0.00369434,-0.00449419,-0.787003,0.00473517,0.0343336,650,1016,-9.6216,-0.460392
-567,8,-9.61945,0.562683,-0.000118425,-0.00020529,-0.00408156,0.00391993,-0.00424364,-0.780078,0.00471448,0.0377776,657,1016,-9.61944,-0.562713
-560,8,-9.59753,0.615173,0.000363648,0.000101208,-0.00393545,0.00417007,-0.00370521,-0.768733,0.00454944,0.039733,664,1016,-9.59755,-0.615171
-553,8,-9.76172,0.551025,0.00107705,0.00052452,-0.00364242,0.00445367,-0.0028521,-0.747548,0.00425164,0.0417874,671,1016,-9.76174,-0.551022
-546,8,-9.91516,0.291199,0,0,0,0,0,0,0,-1,678,1016,-9.91518,-0.291211
-539,8,-9.67688,0.700256,0.00336324,0.00158374,-0.00283683,0.00544658,-0.0004996,-0.633436,0.00380853,0.0421828,685,1016,-9.67686,-0.700235
-532,8,-9.57758,0.752136,0.0050012,0.00231399,-0.00281339,0.00677535,0.00053984,-0.562625,0.00434814,0.0425696,692,1016,-9.57759,-0.752151
-525,8,0,0,0,0,0,0,0,0,0,-1,699,1016,0,0
-518,8,0,0,0,0,0,0,0,0,0,-1,706,1016,0,0
-511,8,0,0,0,0,0,0,0,0,0,-1,713,1016,0,0
-504,8,0,0,0,0,0,0,0,0,0,-1,720,1016,0,0
-497,8,0,0,0,0,0,0,0,0,0,-1,727,1016,0,0
-490,8,0,0,0,0,0,0,0,0,0,-1,734,1016,0,0
-483,8,0,0,0,0,0,0,0,0,0,-1,741,1016,0,0
-476,8,0,0,0,0,0,0,0,0,0,-1,748,1016,0,0
-469,8,0,0,0,0,0,0,0,0,0,-1,755,1016,0,0
-462,8,0,0,0,0,0,0,0,0,0,-1,762,1016,0,0
-455,8,0,0,0,0,0,0,0,0,0,-1,769,1016,0,0
-448,8,0,0,0,0,0,0,0,0,0,-1,776,1016,0,0
-441,8,0,0,0,0,0,0,0,0,0,-1,783,1016,0,0
-434,8,0,0,0,0,0,0,0,0,0,-1,790,1016,0,0
-427,8,0,0,0,0,0,0,0,0,0,-1,797,1016,0,0
-420,8,0,0,0,0,0,0,0,0,0,-1,804,1016,0,0
-413,8,0,0,0,0,0,0,0,0,0,-1,811,1016,0,0
-406,8,0,0,0,0,0,0,0,0,0,-1,818,1016,0,0
-399,8,0,0,0,0,0,0,0,0,0,-1,825,1016,0,0
-392,8,0,0,0,0,0,0,0,0,0,-1,832,1016,0,0
-385,8,0,0,0,0,0,0,0,0,0,-1,839,1016,0,0
-378,8,0,0,0,0,0,0,0,0,0,-1,846,1016,0,0
-371,8,0,0,0,0,0,0,0,0,0,-1,853,1016,0,0
-364,8,0,0,0,0,0,0,0,0,0,-1,860,1016,0,0
-357,8,0,0,0,0,0,0,0,0,0,-1,867,1016,0,0
-350,8,0,0,0,0,0,0,0,0,0,-1,874,1016,0,0
-343,8,0,0,0,0,0,0,0,0,0,-1,881,1016,0,0
-336,8,0,0,0,0,0,0,0,0,0,-1,888,1016,0,0
-329,8,0,0,0,0,0,0,0,0,0,-1,895,1016,0,0
-322,8,0,0,0,0,0,0,0,0,0,-1,902,1016,0,0
-315,8,0,0,0,0,0,0,0,0,0,-1,909,1016,0,0
-308,8,0,0,0,0,0,0,0,0,0,-1,916,1016,0,0
-301,8,0,0,0,0,0,0,0,0,0,-1,923,1016,0,0
-294,8,0,0,0,0,0,0,0,0,0,-1,930,1016,0,0
-287,8,0,0,0,0,0,0,0,0,0,-1,937,1016,0,0
-280,8,0,0,0,0,0,0,0,0,0,-1,944,1016,0,0
-273,8,0,0,0,0,0,0,0,0,0,-1,951,1016,0,0
-266,8,0,0,0,0,0,0,0,0,0,-1,958,1016,0,0
-259,8,0,0,0,0,0,0,0,0,0,-1,965,1016,0,0
-252,8,0,0,0,0,0,0,0,0,0,-1,972,1016,0,0
-245,8,0,0,0,0,0,0,0,0,0,-1,979,1016,0,0
-238,8,0,0,0,0,0,0,0,0,0,-1,986,1016,0,0
-231,8,0,0,0,0,0,0,0,0,0,-1,993,1016,0,0
-224,8,0,0,0,0,0,0,0,0,0,-1,1000,1016,0,0
-217,8,0,0,0,0,0,0,0,0,0,-1,1007,1016,0,0
-210,8,0,0,0,0,0,0,0,0,0,-1,1014,1016,0,0
-203,8,0,0,0,0,0,0,0,0,0,-1,1021,1016,0,0
-196,8,0,0,0,0,0,0,0,0,0,-1,1028,1016,0,0
-189,8,0,0,0,0,0,0,0,0,0,-1,1035,1016,0,0
-182,8,0,0,0,0,0,0,0,0,0,-1,1042,1016,0,0
-175,8,0,0,0,0,0,0,0,0,0,-1,1049,1016,0,0
-168,8,0,0,0,0,0,0,0,0,0,-1,1056,1016,0,0
-161,8,0,0,0,0,0,0,0,0,0,-1,1063,1016,0,0
-154,8,0,0,0,0,0,0,0,0,0,-1,1070,1016,0,0
-147,8,0,0,0,0,0,0,0,0,0,-1,1077,1016,0,0
-140,8,0,0,0,0,0,0,0,0,0,-1,1084,1016,0,0
-133,8,0,0,0,0,0,0,0,0,0,-1,1091,1016,0,0
-126,8,0,0,0,0,0,0,0,0,0,-1,1098,1016,0,0
-119,8,0,0,0,0,0,0,0,0,0,-1,1105,1016,0,0
-112,8,0,0,0,0,0,0,0,0,0,-1,1112,1016,0,0
-105,8,0,0,0,0,0,0,0,0,0,-1,1119,1016,0,0
-98,8,0,0,0,0,0,0,0,0,0,-1,1126,1016,0,0
-91,8,0,0,0,0,0,0,0,0,0,-1,1133,1016,0,0
-84,8,0,0,0,0,0,0,0,0,0,-1,1140,1016,0,0
-77,8,0,0,0,0,0,0,0,0,0,-1,1147,1016,0,0
-70,8,0,0,0,0,0,0,0,0,0,-1,1154,1016,0,0
-63,8,0,0,0,0,0,0,0,0,0,-1,1161,1016,0,0
-56,8,0,0,0,0,0,0,0,0,0,-1,1168,1016,0,0
-49,8,0,0,0,0,0,0,0,0,0,-1,1175,1016,0,0
-42,8,0,0,0,0,0,0,0,0,0,-1,1182,1016,0,0
-35,8,0,0,0,0,0,0,0,0,0,-1,1189,1016,0,0
-28,8,0,0,0,0,0,0,0,0,0,-1,1196,1016,0,0
-21,8,0,0,0,0,0,0,0,0,0,-1,1203,1016,0,0
-14,8,0,0,0,0,0,0,0,0,0,-1,1210,1016,0,0
-7,8,0,0,0,0,0,0,0,0,0,-1,1217,1016,0,0
0,8,0,0,0,0,0,0,0,0,0,-1,1224,1016,0,0
7,8,0,0,0,0,0,0,0,0,0,-1,1231,1016,0,0
14,8,0,0,0,0,0,0,0,0,0,-1,1238,1016,0,0
21,8,0,0,0,0,0,0,0,0,0,-1,1245,1016,0,0
28,8,0,0,0,0,0,0,0,0,0,-1,1252,1016,0,0
35,8,0,0,0,0,0,0,0,0,0,-1,1259,1016,0,0
42,8,0,0,0,0,0,0,0,0,0,-1,1266,1016,0,0
49,8,0,0,0,0,0,0,0,0,0,-1,1273,1016,0,0
56,8,0,0,0,0,0,0,0,0,0,-1,1280,1016,0,0
63,8,0,0,0,0,0,0,0,0,0,-1,1287,1016,0,0
70,8,0,0,0,0,0,0,0,0,0,-1,1294,1016,0,0
77,8,0,0,0,0,0,0,0,0,0,-1,1301,1016,0,0
84,8,0,0,0,0,0,0,0,0,0,-1,1308,1016,0,0
91,8,0,0,0,0,0,0,0,0,0,-1,1315,1016,0,0
98,8,0,0,0,0,0,0,0,0,0,-1,1322,1016,0,0
105,8,0,0,0,0,0,0,0,0,0,-1,1329,1016,0,0
112,8,0,0,0,0,0,0,0,0,0,-1,1336,1016,0,0
119,8,0,0,0,0,0,0,0,0,0,-1,1343,1016,0,0
126,8,0,0,0,0,0,0,0,0,0,-1,1350,1016,0,0
133,8,0,0,0,0,0,0,0,0,0,-1,1357,1016,0,0
140,8,0,0,0,0,0,0,0,0,0,-1,1364,1016,0,0
147,8,0,0,0,0,0,0,0,0,0,-1,1371,1016,0,0
154,8,0,0,0,0,0,0,0,0,0,-1,1378,1016,0,0
161,8,0,0,0,0,0,0,0,0,0,-1,1385,1016,0,0
168,8,0,0,0,0,0,0,0,0,0,-1,1392,1016,0,0
175,8,0,0,0,0,0,0,0,0,0,-1,1399,1016,0,0
182,8,0,0,0,0,0,0,0,0,0,-1,1406,1016,0,0
189,8,0,0,0,0,0,0,0,0,0,-1,1413,1016,0,0
196,8,0,0,0,0,0,0,0,0,0,-1,1420,1016,0,0
203,8,0,0,0,0,0,0,0,0,0,-1,1427,1016,0,0
210,8,0,0,0,0,0,0,0,0,0,-1,1434,1016,0,0
217,8,0,0,0,0,0,0,0,0,0,-1,1441,1016,0,0
224,8,0,0,0,0,0,0,0,0,0,-1,1448,1016,0,0
231,8,0,0,0,0,0,0,0,0,0,-1,1455,1016,0,0
238,8,0,0,0,0,0,0,0,0,0,-1,1462,1016,0,0
245,8,0,0,0,0,0,0,0,0,0,-1,1469,1016,0,0
252,8,0,0,0,0,0,0,0,0,0,-1,1476,1016,0,0
259,8,0,0,0,0,0,0,0,0,0,-1,1483,1016,0,0
266,8,0,0,0,0,0,0,0,0,0,-1,1490,1016,0,0
273,8,0,0,0,0,0,0,0,0,0,-1,1497,1016,0,0
280,8,0,0,0,0,0,0,0,0,0,-1,1504,1016,0,0
287,8,0,0,0,0,0,0,0,0,0,-1,1511,1016,0,0
294,8,0,0,0,0,0,0,0,0,0,-1,1518,1016,0,0
301,8,0,0,0,0,0,0,0,0,0,-1,1525,1016,0,0
308,8,0,0,0,0,0,0,0,0,0,-1,1532,1016,0,0
315,8,0,0,0,0,0,0,0,0,0,-1,1539,1016,0,0
322,8,0,0,0,0,0,0,0,0,0,-1,1546,1016,0,0
329,8,0,0,0,0,0,0,0,0,0,-1,1553,1016,0,0
336,8,0,0,0,0,0,0,0,0,0,-1,1560,1016,0,0
343,8,0,0,0,0,0,0,0,0,0,-1,1567,1016,0,0
350,8,0,0,0,0,0,0,0,0,0,-1,1574,1016,0,0
357,8,0,0,0,0,0,0,0,0,0,-1,1581,1016,0,0
364,8,0,0,0,0,0,0,0,0,0,-1,1588,1016,0,0
371,8,0,0,0,0,0,0,0,0,0,-1,1595,1016,0,0
378,8,0,0,0,0,0,0,0,0,0,-1,1602,1016,0,0
385,8,0,0,0,0,0,0,0,0,0,-1,1609,1016,0,0
392,8,0,0,0,0,0,0,0,0,0,-1,1616,1016,0,0
399,8,0,0,0,0,0,0,0,0,0,-1,1623,1016,0,0
406,8,0,0,0,0,0,0,0,0,0,-1,1630,1016,0,0
413,8,0,0,0,0,0,0,0,0,0,-1,1637,1016,0,0
420,8,0,0,0,0,0,0,0,0,0,-1,1644,1016,0,0
427,8,0,0,0,0,0,0,0,0,0,-1,1651,1016,0,0
434,8,0,0,0,0,0,0,0,0,0,-1,1658,1016,0,0
441,8,0,0,0,0,0,0,0,0,0,-1,1665,1016,0,0
448,8,0,0,0,0,0,0,0,0,0,-1,1672,1016,0,0
455,8,0,0,0,0,0,0,0,0,0,-1,1679,1016,0,0
462,8,0,0,0,0,0,0,0,0,0,-1,1686,1016,0,0
469,8,0,0,0,0,0,0,0,0,0,-1,1693,1016,0,0
476,8,0,0,0,0,0,0,0,0,0,-1,1700,1016,0,0
483,8,0,0,0,0,0,0,0,0,0,-1,1707,1016,0,0
490,8,0,0,0,0,0,0,0,0,0,-1,1714,1016,0,0
497,8,0,0,0,0,0,0,0,0,0,-1,1721,1016,0,0
504,8,0,0,0,0,0,0,0,0,0,-1,1728,1016,0,0
511,8,0,0,0,0,0,0,0,0,0,-1,1735,1016,0,0
518,8,0,0,0,0,0,0,0,0,0,-1,1742,1016,0,0
525,8,0,0,0,0,0,0,0,0,0,-1,1749,1016,0,0
532,8,0,0,0,0,0,0,0,0,0,-1,1756,1016,0,0
539,8,0,0,0,0,0,0,0,0,0,-1,1763,1016,0,0
546,8,0,0,0,0,0,0,0,0,0,-1,1770,1016,0,0
553,8,0,0,0,0,0,0,0,0,0,-1,1777,1016,0,0
560,8,0,0,0,0,0,0,0,0,0,-1,1784,1016,0,0
567,8,0,0,0,0,0,0,0,0,0,-1,1791,1016,0,0
574,8,0,0,0,0,0,0,0,0,0,-1,1798,1016,0,0
581,8,0,0,0,0,0,0,0,0,0,-1,1805,1016,0,0
588,8,0,0,0,0,0,0,0,0,0,-1,1812,1016,0,0
595,8,0,0,0,0,0,0,0,0,0,-1,1819,1016,0,0
602,8,0,0,0,0,0,0,0,0,0,-1,1826,1016,0,0
609,8,0,0,0,0,0,0,0,0,0,-1,1833,1016,0,0
616,8,0,0,0,0,0,0,0,0,0,-1,1840,1016,0,0
623,8,0,0,0,0,0,0,0,0,0,-1,1847,1016,0,0
630,8,0,0,0,0,0,0,0,0,0,-1,1854,1016,0,0
637,8,0,0,0,0,0,0,0,0,0,-1,1861,1016,0,0
644,8,15.5845,2.16254,0.00528141,-0.00166944,0.00659893,0.00926417,-0.00565219,0.543023,0.00869572,0.0406132,1868,1016,15.5844,-2.16256
651,8,15.8427,2.25677,0.0034961,-0.00106009,0.00407928,0.00589029,-0.00345427,0.530742,0.00545585,0.0384065,1875,1016,15.8427,-2.2568
658,8,15.6465,2.36469,0.00222168,-0.000681411,0.00249577,0.00365732,-0.00211705,0.522007,0.00337314,0.0375213,1882,1016,15.6465,-2.36471
665,8,15.5662,2.26843,0.00126343,-0.000489342,0.00143703,0.00207022,-0.00129614,0.511579,0.00196062,0.0398514,1889,1016,15.5662,-2.26841
672,8,15.7126,2.10699,0.000363162,-0.000292717,0.00123603,0.00131401,-0.00124357,0.655727,0.00147681,0.0410916,1896,1016,15.7126,-2.107
679,8,15.7284,2.00537,-0.000915165,-0.000144099,0.00171017,0.00122346,-0.00228272,0.896262,0.00205486,0.0397009,1903,1016,15.7284,-2.00534
686,8,15.6949,2.13562,-0.00212408,-3.93011e-05,0.00241364,0.00154742,-0.00371081,0.989238,0.00312031,0.0417473,1910,1016,15.695,-2.13559
693,8,15.6862,2.23444,-0.00314406,4.78494e-05,0.00316765,0.00199888,-0.00509509,1.01875,0.00422374,0.0410445,1917,1016,15.6861,-2.23445
700,8,15.7357,2.25598,-0.00410185,0.000146265,0.00372156,0.00230725,-0.00626284,1.04471,0.00512061,0.030763,1924,1016,15.7357,-2.25598
707,8,15.6669,2.3197,-0.00475026,0.000288686,0.00419635,0.00266381,-0.00712538,1.05575,0.00584418,0.0240802,1931,1016,15.6668,-2.3197
714,8,15.6715,2.32465,-0.00518589,0.000373396,0.00458212,0.00295306,-0.00776556,1.05804,0.00639294,0.0280664,1938,1016,15.6715,-2.32466
721,8,15.7054,2.63239,0,0,0,0,0,0,0,-1,1945,1016,15.7055,-2.63241
728,8,15.3563,2.96411,-0.00574162,0.000554967,0.00496446,0.00328525,-0.0084719,1.06798,0.00700471,0.0239695,1952,1016,15.3563,-2.96409
735,8,15.2715,3.10144,-0.00572862,0.000835327,0.00456378,0.00317469,-0.00806799,1.09712,0.00669276,0.0170187,1959,1016,15.2714,-3.10146
742,8,15.2573,3.11578,-0.0054674,0.00120602,0.00367702,0.0028346,-0.00709598,1.15386,0.00590676,0.0146211,1966,1016,15.2573,-3.11576
749,8,15.2465,3.14484,-0.00495119,0.00161472,0.0028191,0.00265902,-0.00599549,1.21603,0.00511896,0.0100191,1973,1016,15.2465,-3.14482
756,8,15.2799,3.17346,-0.00437734,0.00260108,0.00176152,0.00302052,-0.00479678,1.33704,0.00455199,0.0121876,1980,1016,15.28,-3.17349
763,8,15.2604,3.2027,-0.00382727,0.00423067,0.000323023,0.0042436,-0.0038402,1.53079,0.00466912,0.0125971,1987,1016,15.2604,-3.20273
770,8,15.2484,3.21899,-0.00324727,0.00587846,-0.00117575,0.00602751,-0.00339632,-1.4447,0.00551109,0.0130932,1994,1016,15.2484,-3.21898
777,8,15.2495,3.27216,-0.00257988,0.00818106,-0.0026982,0.0088197,-0.00321853,-1.33838,0.00719668,0.0176975,2001,1016,15.2496,-3.27213
784,8,15.1735,3.32062,-0.00223385,0.0112595,-0.00405904,0.0123864,-0.00336077,-1.29999,0.00957647,0.0370453,2008,1016,15.1735,-3.3206
791,8,15.0515,3.30316,0,0,0,0,0,0,0,-1,2015,1016,15.0515,-3.30315
798,8,14.6947,2.50421,0,0,0,0,0,0,0,-1,2022,1016,14.6947,-2.50418
805,8,14.9169,2.29675,-0.000994552,0.0273519,-0.00971872,0.030364,-0.0040066,-1.27026,0.0217018,0.0460233,2029,1016,14.9169,-2.29676
812,8,15.0847,2.0426,4.63537e-05,0.0363375,-0.0127978,0.0403966,-0.0040127,-1.26366,0.0283634,0.044714,2036,1016,15.0846,-2.04262
-700,1,0,0,0,0,0,0,0,0,0,-1,524,1023,0,0
-693,1,-9.69012,3.19165,0.0155089,0.0811123,-0.041836,0.101473,-0.00485142,-1.11787,0.0693222,0.0454436,531,1023,-9.69013,-3.19164
-686,1,-9.91632,2.74683,0.0149764,0.0693559,-0.0376028,0.0885694,-0.00423703,-1.09842,0.0605081,0.0477722,538,1023,-9.91632,-2.74685
-679,1,-10.2038,2.3092,0.0138128,0.0579229,-0.0324649,0.0751157,-0.00338005,-1.08376,0.051241,0.0466009,545,1023,-10.2038,-2.30918
-672,1,-10.1935,1.72833,0.0122768,0.0472641,-0.0270787,0.0620083,-0.00246747,-1.07219,0.0421854,0.0464121,552,1023,-10.1935,-1.72833
-665,1,-9.72394,1.19,0.0105332,0.0376106,-0.0218152,0.0497467,-0.00160298,-1.06312,0.0337115,0.0444431,559,1023,-9.72392,-1.18998
-658,1,-9.60571,1.1283,0.00867467,0.0290997,-0.0169391,0.0386667,-0.000892263,-1.05667,0.0260803,0.0298827,566,1023,-9.60568,-1.12831
-651,1,-9.59674,1.0686,0.00681107,0.0218111,-0.0126799,0.029043,-0.000420884,-1.05247,0.0195038,0.0144225,573,1023,-9.59672,-1.06862
-644,1,-9.5592,1.0921,0.00461473,0.0160887,-0.00947,0.0214239,-0.000720496,-1.05774,0.0145287,0.0150431,580,1023,-9.55922,-1.09208
-637,1,-9.58301,1.05963,0.00351122,0.0104009,-0.0068546,0.0146276,-0.000715463,-1.01825,0.00999877,0.0129756,587,1023,-9.58303,-1.05966
-630,1,-9.64185,1.02985,0.00276065,0.00617399,-0.00479284,0.00955496,-0.000620315,-0.956442,0.00658649,0.0139747,594,1023,-9.64185,-1.02982
-623,1,-9.63275,1.04547,0.0013461,0.00308903,-0.00340907,0.00573626,-0.00130113,-0.910535,0.00432364,0.0120233,601,1023,-9.63273,-1.04548
-616,1,-9.63678,1.03448,0.000190492,0.00146885,-0.00238822,0.00330195,-0.0016426,-0.916153,0.00290783,0.0148685,608,1023,-9.63678,-1.03451
-609,1,-9.61786,1.04712,-0.000484113,0.000320454,-0.00251511,0.00246525,-0.0026289,-0.8647,0.00294161,0.0159945,615,1023,-9.61788,-1.04711
-602,1,-9.62512,1.03461,-0.000723355,-0.00034552,-0.00311323,0.00258452,-0.0036534,-0.815702,0.00361904,0.0120421,622,1023,-9.6251,-1.0346
-595,1,-9.63776,1.00323,-0.000650322,-0.000583303,-0.00365105,0.00303439,-0.00426801,-0.789987,0.00423605,0.0130768,629,1023,-9.63774,-1.00324
-588,1,-9.64008,0.803589,-0.000459593,-0.000651997,-0.00401081,0.00345617,-0.00456776,-0.773408,0.00464741,0.0202976,636,1023,-9.64005,-0.803599
-581,1,-9.6377,0.606689,-0.000300011,-0.00062792,-0.00425242,0.00379161,-0.00471954,-0.76613,0.00492364,0.0251222,643,1023,-9.63767,-0.60666
-574,1,-9.6228,0.566956,-6.2219e-05,-0.000554247,-0.00437031,0.00406899,-0.00468546,-0.757282,0.00505856,0.0359206,650,1023,-9.62282,-0.566974
-567,1,-9.64423,0.595642,0.000198536,-0.000295913,-0.00438805,0.00434632,-0.00444369,-0.757258,0.00507502,0.0434506,657,1023,-9.64425,-0.595641
-560,1,-9.65045,0.689392,0.000594969,0.000120474,-0.00427318,0.00463748,-0.00392204,-0.757667,0.00494759,0.0415761,664,1023,-9.65043,-0.68938
-553,1,-9.63928,0.659607,0.001153,0.00068973,-0.0040062,0.00493426,-0.00309153,-0.756521,0.00467423,0.0405748,671,1023,-9.63929,-0.659635
-546,1,-9.66083,0.397522,0.00187608,0.0013851,-0.00358861,0.00522759,-0.00196641,-0.751247,0.00429336,0.0420521,678,1023,-9.66085,-0.397552
-539,1,-9.66718,0.19165,0.00281039,0.00213604,-0.00325217,0.00574282,-0.000796387,-0.733745,0.00411975,0.0429682,685,1023,-9.66715,-0.191645
-532,1,-9.65454,0.286804,0.00393941,0.00307548,-0.00333934,0.00687461,0.00014028,-0.721077,0.00453704,0.043003,692,1023,-9.65456,-0.286825
-525,1,0,0,0,0,0,0,0,0,0,-1,699,1023,0,0
-518,1,0,0,0,0,0,0,0,0,0,-1,706,1023,0,0
-511,1,0,0,0,0,0,0,0,0,0,-1,713,1023,0,0
-504,1,0,0,0,0,0,0,0,0,0,-1,720,1023,0,0
-497,1,0,0,0,0,0,0,0,0,0,-1,727,1023,0,0
-490,1,0,0,0,0,0,0,0,0,0,-1,734,1023,0,0
-483,1,0,0,0,0,0,0,0,0,0,-1,741,1023,0,0
-476,1,0,0,0,0,0,0,0,0,0,-1,748,1023,0,0
-469,1,0,0,0,0,0,0,0,0,0,-1,755,1023,0,0
-462,1,0,0,0,0,0,0,0,0,0,-1,762,1023,0,0
-455,1,0,0,0,0,0,0,0,0,0,-1,769,1023,0,0
-448,1,0,0,0,0,0,0,0,0,0,-1,776,1023,0,0
-441,1,0,0,0,0,0,0,0,0,0,-1,783,1023,0,0
-434,1,0,0,0,0,0,0,0,0,0,-1,790,1023,0,0
-427,1,0,0,0,0,0,0,0,0,0,-1,797,1023,0,0
-420,1,0,0,0,0,0,0,0,0,0,-1,804,1023,0,0
-413,1,0,0,0,0,0,0,0,0,0,-1,811,1023,0,0
-406,1,0,0,0,0,0,0,0,0,0,-1,818,1023,0,0
-399,1,0,0,0,0,0,0,0,0,0,-1,825,1023,0,0
-392,1,0,0,0,0,0,0,0,0,0,-1,832,1023,0,0
-385,1,0,0,0,0,0,0,0,0,0,-1,839,1023,0,0
-378,1,0,0,0,0,0,0,0,0,0,-1,846,1023,0,0
-371,1,0,0,0,0,0,0,0,0,0,-1,853,1023,0,0
-364,1,0,0,0,0,0,0,0,0,0,-1,860,1023,0,0
-357,1,0,0,0,0,0,0,0,0,0,-1,867,1023,0,0
-350,1,0,0,0,0,0,0,0,0,0,-1,874,1023,0,0
-343,1,0,0,0,0,0,0,0,0,0,-1,881,1023,0,0
-336,1,0,0,0,0,0,0,0,0,0,-1,888,1023,0,0
-329,1,0,0,0,0,0,0,0,0,0,-1,895,1023,0,0
-322,1,0,0,0,0,0,0,0,0,0,-1,902,1023,0,0
-315,1,0,0,0,0,0,0,0,0,0,-1,909,1023,0,0
-308,1,0,0,0,0,0,0,0,0,0,-1,916,1023,0,0
-301,1,0,0,0,0,0,0,0,0,0,-1,923,1023,0,0
-294,1,0,0,0,0,0,0,0,0,0,-1,930,1023,0,0
-287,1,0,0,0,0,0,0,0,0,0,-1,937,1023,0,0
-280,1,0,0,0,0,0,0,0,0,0,-1,944,1023,0,0
-273,1,0,0,0,0,0,0,0,0,0,-1,951,1023,0,0
-266,1,0,0,0,0,0,0,0,0,0,-1,958,1023,0,0
-259,1,0,0,0,0,0,0,0,0,0,-1,965,1023,0,0
-252,1,0,0,0,0,0,0,0,0,0,-1,972,1023,0,0
-245,1,0,0,0,0,0,0,0,0,0,-1,979,1023,0,0
-238,1,0,0,0,0,0,0,0,0,0,-1,986,1023,0,0
-231,1,0,0,0,0,0,0,0,0,0,-1,993,1023,0,0
-224,1,0,0,0,0,0,0,0,0,0,-1,1000,1023,0,0
-217,1,0,0,0,0,0,0,0,0,0,-1,1007,1023,0,0
-210,1,0,0,0,0,0,0,0,0,0,-1,1014,1023,0,0
-203,1,0,0,0,0,0,0,0,0,0,-1,1021,1023,0,0
-196,1,0,0,0,0,0,0,0,0,0,-1,1028,1023,0,0
-189,1,0,0,0,0,0,0,0,0,0,-1,1035,1023,0,0
-182,1,0,0,0,0,0,0,0,0,0,-1,1042,1023,0,0
-175,1,0,0,0,0,0,0,0,0,0,-1,1049,1023,0,0
-168,1,0,0,0,0,0,0,0,0,0,-1,1056,1023,0,0
-161,1,0,0,0,0,0,0,0,0,0,-1,1063,1023,0,0
-154,1,0,0,0,0,0,0,0,0,0,-1,1070,1023,0,0
-147,1,0,0,0,0,0,0,0,0,0,-1,1077,1023,0,0
-140,1,0,0,0,0,0,0,0,0,0,-1,1084,1023,0,0
-133,1,0,0,0,0,0,0,0,0,0,-1,1091,1023,0,0
-126,1,0,0,0,0,0,0,0,0,0,-1,1098,1023,0,0
-119,1,0,0,0,0,0,0,0,0,0,-1,1105,1023,0,0
-112,1,0,0,0,0,0,0,0,0,0,-1,1112,1023,0,0
-105,1,0,0,0,0,0,0,0,0,0,-1,1119,1023,0,0
-98,1,0,0,0,0,0,0,0,0,0,-1,1126,1023,0,0
-91,1,0,0,0,0,0,0,0,0,0,-1,1133,1023,0,0
-84,1,0,0,0,0,0,0,0,0,0,-1,1140,1023,0,0
-77,1,0,0,0,0,0,0,0,0,0,-1,1147,1023,0,0
-70,1,0,0,0,0,0,0,0,0,0,-1,1154,1023,0,0
-63,1,0,0,0,0,0,0,0,0,0,-1,1161,1023,0,0
-56,1,0,0,0,0,0,0,0,0,0,-1,1168,1023,0,0
-49,1,0,0,0,0,0,0,0,0,0,-1,1175,1023,0,0
-42,1,0,0,0,0,0,0,0,0,0,-1,1182,1023,0,0
-35,1,0,0,0,0,0,0,0,0,0,-1,1189,1023,0,0
-28,1,0,0,0,0,0,0,0,0,0,-1,1196,1023,0,0
-21,1,0,0,0,0,0,0,0,0,0,-1,1203,1023,0,0
-14,1,0,0,0,0,0,0,0,0,0,-1,1210,1023,0,0
-7,1,0,0,0,0,0,0,0,0,0,-1,1217,1023,0,0
0,1,0,0,0,0,0,0,0,0,0,-1,1224,1023,0,0
7,1,0,0,0,0,0,0,0,0,0,-1,1231,1023,0,0
14,1,0,0,0,0,0,0,0,0,0,-1,1238,1023,0,0
21,1,0,0,0,0,0,0,0,0,0,-1,1245,1023,0,0
28,1,0,0,0,0,0,0,0,0,0,-1,1252,1023,0,0
35,1,0,0,0,0,0,0,0,0,0,-1,1259,1023,0,0
42,1,0,0,0,0,0,0,0,0,0,-1,1266,1023,0,0
49,1,0,0,0,0,0,0,0,0,0,-1,1273,1023,0,0
56,1,0,0,0,0,0,0,0,0,0,-1,1280,1023,0,0
63,1,0,0,0,0,0,0,0,0,0,-1,1287,1023,0,0
70,1,0,0,0,0,0,0,0,0,0,-1,1294,1023,0,0
77,1,0,0,0,0,0,0,0,0,0,-1,1301,1023,0,0
84,1,0,0,0,0,0,0,0,0,0,-1,1308,1023,0,0
91,1,0,0,0,0,0,0,0,0,0,-1,1315,1023,0,0
98,1,0,0,0,0,0,0,0,0,0,-1,1322,1023,0,0
105,1,0,0,0,0,0,0,0,0,0,-1,1329,1023,0,0
112,1,0,0,0,0,0,0,0,0,0,-1,1336,1023,0,0
119,1,0,0,0,0,0,0,0,0,0,-1,1343,1023,0,0
126,1,0,0,0,0,0,0,0,0,0,-1,1350,1023,0,0
133,1,0,0,0,0,0,0,0,0,0,-1,1357,1023,0,0
140,1,0,0,0,0,0,0,0,0,0,-1,1364,1023,0,0
147,1,0,0,0,0,0,0,0,0,0,-1,1371,1023,0,0
154,1,0,0,0,0,0,0,0,0,0,-1,1378,1023,0,0
161,1,0,0,0,0,0,0,0,0,0,-1,1385,1023,0,0
168,1,0,0,0,0,0,0,0,0,0,-1,1392,1023,0,0
175,1,0,0,0,0,0,0,0,0,0,-1,1399,1023,0,0
182,1,0,0,0,0,0,0,0,0,0,-1,1406,1023,0,0
189,1,0,0,0,0,0,0,0,0,0,-1,1413,1023,0,0
196,1,0,0,0,0,0,0,0,0,0,-1,1420,1023,0,0
203,1,0,0,0,0,0,0,0,0,0,-1,1427,1023,0,0
210,1,0,0,0,0,0,0,0,0,0,-1,1434,1023,0,0
217,1,0,0,0,0,0,0,0,0,0,-1,1441,1023,0,0
224,1,0,0,0,0,0,0,0,0,0,-1,1448,1023,0,0
231,1,0,0,0,0,0,0,0,0,0,-1,1455,1023,0,0
238,1,0,0,0,0,0,0,0,0,0,-1,1462,1023,0,0
245,1,0,0,0,0,0,0,0,0,0,-1,1469,1023,0,0
252,1,0,0,0,0,0,0,0,0,0,-1,1476,1023,0,0
259,1,0,0,0,0,0,0,0,0,0,-1,1483,1023,0,0
266,1,0,0,0,0,0,0,0,0,0,-1,1490,1023,0,0
273,1,0,0,0,0,0,0,0,0,0,-1,1497,1023,0,0
280,1,0,0,0,0,0,0,0,0,0,-1,1504,1023,0,0
287,1,0,0,0,0,0,0,0,0,0,-1,1511,1023,0,0
294,1,0,0,0,0,0,0,0,0,0,-1,1518,1023,0,0
301,1,0,0,0,0,0,0,0,0,0,-1,1525,1023,0,0
308,1,0,0,0,0,0,0,0,0,0,-1,1532,1023,0,0
315,1,0,0,0,0,0,0,0,0,0,-1,1539,1023,0,0
322,1,0,0,0,0,0,0,0,0,0,-1,1546,1023,0,0
329,1,0,0,0,0,0,0,0,0,0,-1,1553,1023,0,0
336,1,0,0,0,0,0,0,0,0,0,-1,1560,1023,0,0
343,1,0,0,0,0,0,0,0,0,0,-1,1567,1023,0,0
350,1,0,0,0,0,0,0,0,0,0,-1,1574,1023,0,0
357,1,0,0,0,0,0,0,0,0,0,-1,1581,1023,0,0
364,1,0,0,0,0,0,0,0,0,0,-1,1588,1023,0,0
371,1,0,0,0,0,0,0,0,0,0,-1,1595,1023,0,0
378,1,0,0,0,0,0,0,0,0,0,-1,1602,1023,0,0
385,1,0,0,0,0,0,0,0,0,0,-1,1609,1023,0,0
392,1,0,0,0,0,0,0,0,0,0,-1,1616,1023,0,0
399,1,0,0,0,0,0,0,0,0,0,-1,1623,1023,0,0
406,1,0,0,0,0,0,0,0,0,0,-1,1630,1023,0,0
413,1,0,0,0,0,0,0,0,0,0,-1,1637,1023,0,0
420,1,0,0,0,0,0,0,0,0,0,-1,1644,1023,0,0
427,1,0,0,0,0,0,0,0,0,0,-1,1651,1023,0,0
434,1,0,0,0,0,0,0,0,0,0,-1,1658,1023,0,0
441,1,0,0,0,0,0,0,0,0,0,-1,1665,1023,0,0
448,1,0,0,0,0,0,0,0,0,0,-1,1672,1023,0,0
455,1,0,0,0,0,0,0,0,0,0,-1,1679,1023,0,0
462,1,0,0,0,0,0,0,0,0,0,-1,1686,1023,0,0
469,1,0,0,0,0,0,0,0,0,0,-1,1693,1023,0,0
476,1,0,0,0,0,0,0,0,0,0,-1,1700,1023,0,0
483,1,0,0,0,0,0,0,0,0,0,-1,1707,1023,0,0
490,1,0,0,0,0,0,0,0,0,0,-1,1714,1023,0,0
497,1,0,0,0,0,0,0,0,0,0,-1,1721,1023,0,0
504,1,0,0,0,0,0,0,0,0,0,-1,1728,1023,0,0
511,1,0,0,0,0,0,0,0,0,0,-1,1735,1023,0,0
518,1,0,0,0,0,0,0,0,0,0,-1,1742,1023,0,0
525,1,0,0,0,0,0,0,0,0,0,-1,1749,1023,0,0
532,1,0,0,0,0,0,0,0,0,0,-1,1756,1023,0,0
539,1,0,0,0,0,0,0,0,0,0,-1,1763,1023,0,0
546,1,0,0,0,0,0,0,0,0,0,-1,1770,1023,0,0
553,1,0,0,0,0,0,0,0,0,0,-1,1777,1023,0,0
560,1,0,0,0,0,0,0,0,0,0,-1,1784,1023,0,0
567,1,0,0,0,0,0,0,0,0,0,-1,1791,1023,0,0
574,1,0,0,0,0,0,0,0,0,0,-1,1798,1023,0,0
581,1,0,0,0,0,0,0,0,0,0,-1,1805,1023,0,0
588,1,0,0,0,0,0,0,0,0,0,-1,1812,1023,0,0
595,1,0,0,0,0,0,0,0,0,0,-1,1819,1023,0,0
602,1,0,0,0,0,0,0,0,0,0,-1,1826,1023,0,0
609,1,0,0,0,0,0,0,0,0,0,-1,1833,1023,0,0
616,1,0,0,0,0,0,0,0,0,0,-1,1840,1023,0,0
623,1,0,0,0,0,0,0,0,0,0,-1,1847,1023,0,0
630,1,0,0,0,0,0,0,0,0,0,-1,1854,1023,0,0
637,1,0,0,0,0,0,0,0,0,0,-1,1861,1023,0,0
644,1,0,0,0,0,0,0,0,0,0,-1,1868,1023,0,0
651,1,15.7322,2.2951,0.00326302,-0.001571,0.00304504,0.00473371,-0.00304169,0.449938,0.00452442,0.0378124,1875,1023,15.7322,-2.29508
658,1,15.7317,2.53021,0.00200609,-0.0011044,0.00175817,0.00279817,-0.00189648,0.423283,0.00272707,0.0396475,1882,1023,15.7317,-2.53024
665,1,15.6141,2.33636,0.0010605,-0.000832983,0.000915426,0.0014307,-0.00120318,0.384291,0.00152256,0.0415029,1889,1023,15.6142,-2.33637
672,1,15.7557,2.56958,0.000234886,-0.000602295,0.000891672,0.000801332,-0.00116874,0.565945,0.001144,0.0416836,1896,1023,15.7558,-2.56958
679,1,15.7457,2.50256,-0.00096993,-0.000436835,0.00152913,0.000848807,-0.00225557,0.871688,0.00185264,0.0387955,1903,1023,15.7458,-2.50258
686,1,15.6321,2.37079,-0.00214044,-0.000327617,0.00236889,0.00130235,-0.00377041,0.96812,0.00304211,0.0372984,1910,1023,15.6321,-2.37081
693,1,15.6965,2.45001,-0.00312211,-0.000244443,0.00323102,0.00185363,-0.00522019,0.994875,0.00423544,0.0349705,1917,1023,15.6966,-2.45
700,1,15.744,2.34845,-0.0040477,-0.000137628,0.00388635,0.00225772,-0.00644306,1.01844,0.00521353,0.0298933,1924,1023,15.744,-2.34844
707,1,15.6666,2.29932,-0.00465804,-1.25342e-05,0.00443589,0.00267194,-0.00734251,1.02658,0.00598778,0.0267328,1931,1023,15.6667,-2.2993
714,1,15.6313,2.23987,-0.00509394,6.08653e-05,0.00488623,0.0030078,-0.00804088,1.02809,0.00659589,0.0290621,1938,1023,15.6314,-2.23984
721,1,15.6932,2.57233,-0.00547079,0.00011931,0.00520855,0.00323538,-0.00858685,1.03166,0.00705481,0.0321849,1945,1023,15.6933,-2.57236
728,1,15.3646,3.00256,-0.00560887,0.000264225,0.00524212,0.00333626,-0.00868091,1.04071,0.0071632,0.0227859,1952,1023,15.3646,-3.00258
735,1,15.261,3.10779,-0.00557798,0.000576257,0.00480188,0.00320236,-0.00820409,1.07034,0.00679328,0.0155113,1959,1023,15.2609,-3.10778
742,1,15.2662,3.11481,-0.00531811,0.000915687,0.00391096,0.00279986,-0.00720228,1.12184,0.00595827,0.0135048,1966,1023,15.2663,-3.1148
749,1,15.2559,3.14337,-0.00477384,0.00128675,0.00304414,0.00255174,-0.00603883,1.17696,0.00509415,0.0110865,1973,1023,15.2559,-3.14335
756,1,15.2666,3.15686,-0.00417099,0.00219681,0.00194182,0.00274223,-0.00471641,1.29697,0.00435624,0.0115969,1980,1023,15.2666,-3.15684
763,1,15.2813,3.19238,-0.00361602,0.00358653,0.000429423,0.00361204,-0.00364154,1.51146,0.00418787,0.0135493,1987,1023,15.2813,-3.1924
770,1,15.2743,3.21466,-0.00302551,0.00500058,-0.00114206,0.00515993,-0.00318486,-1.43217,0.00486264,0.0129966,1994,1023,15.2742,-3.21465
777,1,15.2677,3.24518,-0.00230732,0.00692479,-0.00278633,0.00770054,-0.00308308,-1.29926,0.00641336,0.0153331,2001,1023,15.2677,-3.24516
784,1,15.137,3.10809,-0.00188072,0.00946714,-0.00427798,0.0108992,-0.00331275,-1.24778,0.00858609,0.0364142,2008,1023,15.1369,-3.10809
791,1,14.636,2.79437,-0.00173111,0.0127456,-0.00589141,0.0148401,-0.00382562,-1.22921,0.0113849,0.0447604,2015,1023,14.636,-2.79436
798,1,14.9889,3.21906,-0.00139938,0.0169792,-0.00793962,0.019934,-0.00435426,-1.21451,0.0149536,0.0464705,2022,1023,14.9889,-3.21905
805,1,14.743,1.6698,0,0,0,0,0,0,0,-1,2029,1023,14.7431,-1.66978
812,1,14.8145,1.45056,0,0,0,0,0,0,0,-1,2036,1023,14.8144,-1.45059
-700,-6,0,0,0,0,0,0,0,0,0,-1,524,1030,0,0
-693,-6,-10.0877,2.71765,0.0237675,0.063768,-0.0282161,0.0783533,0.00918217,-1.09371,0.0494598,0.044584,531,1030,-10.0877,-2.71763
-686,-6,-10.4338,2.48328,0.0210387,0.0546316,-0.0263211,0.0690588,0.00661146,-1.06939,0.0440013,0.0454268,538,1030,-10.4338,-2.48326
-679,-6,-10.7028,2.07788,0.0182098,0.0457666,-0.0233464,0.0590972,0.00487914,-1.05198,0.0378767,0.0454697,545,1030,-10.7028,-2.07789
-672,-6,-9.85577,1.05859,0,0,0,0,0,0,0,-1,552,1030,-9.85577,-1.05865
-665,-6,-9.77478,1.01392,0.0126951,0.0299546,-0.0162764,0.0397475,0.00290219,-1.02915,0.0255858,0.0485039,559,1030,-9.77479,-1.01394
-658,-6,-9.68976,0.989624,0.0101261,0.0232868,-0.0127981,0.0310972,0.00231569,-1.02286,0.0200043,0.037184,566,1030,-9.68975,-0.989676
-651,-6,-9.64935,0.97229,0.00775655,0.017542,-0.00967953,0.0234951,0.00180345,-1.01941,0.0150982,0.0321627,573,1030,-9.64933,-0.972238
-644,-6,-9.591,1.0282,0.00505299,0.0131048,-0.0074441,0.0175419,0.000615892,-1.03328,0.0114948,0.029361,580,1030,-9.59099,-1.02815
-637,-6,-9.61127,1.08118,0.00363559,0.00845474,-0.00566158,0.0121982,-0.000107848,-0.986588,0.00816831,0.0167363,587,1030,-9.61127,-1.08124
-630,-6,-9.64044,1.04138,0.00285199,0.00499214,-0.00415392,0.0082116,-0.000367476,-0.91146,0.00560091,0.0133152,594,1030,-9.64046,-1.04132
-623,-6,-9.63678,1.04883,0.00149902,0.00244353,-0.00320587,0.00521174,-0.0012692,-0.858527,0.00396585,0.0134186,601,1030,-9.6368,-1.04886
-616,-6,-9.62964,1.04712,0.000280194,0.00109882,-0.00225025,0.00297668,-0.00159766,-0.875363,0.0026807,0.014593,608,1030,-9.62962,-1.04712
-609,-6,-9.61108,1.08594,-0.000329839,0.000150532,-0.00253206,0.00245377,-0.00263308,-0.832686,0.0029375,0.0160844,615,1030,-9.61106,-1.08597
-602,-6,-9.60583,1.06201,-0.00049524,-0.000414212,-0.00327831,0.00282384,-0.00373329,-0.791577,0.00379788,0.0121116,622,1030,-9.60583,-1.06197
-595,-6,-9.5976,1.03149,-0.000350975,-0.000561279,-0.00388076,0.00342606,-0.00433831,-0.771854,0.00449306,0.0131927,629,1030,-9.59759,-1.03155
-588,-6,-9.62311,0.782104,-0.000124199,-0.000567831,-0.00425263,0.00391239,-0.00460442,-0.759342,0.00492259,0.0156104,636,1030,-9.62313,-0.782132
-581,-6,-9.6543,0.590088,2.07032e-05,-0.000460757,-0.00451771,0.0043041,-0.00474415,-0.75878,0.00522607,0.0221963,643,1030,-9.65429,-0.590102
-574,-6,-9.64435,0.546387,0.000217119,-0.0002531,-0.00469118,0.00467908,-0.00471506,-0.76036,0.00542372,0.0317341,650,1030,-9.64437,-0.546388
-567,-6,-9.62073,0.541748,0.000415972,0.000145976,-0.00474923,0.00503212,-0.00447017,-0.771189,0.00548935,0.0417459,657,1030,-9.62073,-0.541783
-560,-6,-9.64331,0.717041,0.000678684,0.000712749,-0.00467205,0.0053678,-0.00397636,-0.787221,0.00541475,0.0426144,664,1030,-9.6433,-0.717066
-553,-6,-9.54602,0.708496,0.000999272,0.00143487,-0.00443499,0.0056574,-0.00322326,-0.809933,0.00519106,0.0420374,671,1030,-9.54602,-0.708449
-546,-6,-9.47455,0.220337,0.00134212,0.00227573,-0.00402885,0.00586473,-0.00224688,-0.843074,0.00483601,0.0415562,678,1030,-9.47453,-0.220317
-539,-6,-9.53351,-0.0649414,0,0,0,0,0,0,0,-1,685,1030,-9.53352,0.0649669
-532,-6,-9.6532,0.447388,0,0,0,0,0,0,0,-1,692,1030,-9.65322,-0.447404
-525,-6,0,0,0,0,0,0,0,0,0,-1,699,1030,0,0
-518,-6,0,0,0,0,0,0,0,0,0,-1,706,1030,0,0
-511,-6,0,0,0,0,0,0,0,0,0,-1,713,1030,0,0
-504,-6,0,0,0,0,0,0,0,0,0,-1,720,1030,0,0
-497,-6,0,0,0,0,0,0,0,0,0,-1,727,1030,0,0
-490,-6,0,0,0,0,0,0,0,0,0,-1,734,1030,0,0
-483,-6,0,0,0,0,0,0,0,0,0,-1,741,1030,0,0
-476,-6,0,0,0,0,0,0,0,0,0,-1,748,1030,0,0
-469,-6,0,0,0,0,0,0,0,0,0,-1,755,1030,0,0
-462,-6,0,0,0,0,0,0,0,0,0,-1,762,1030,0,0
-455,-6,0,0,0,0,0,0,0,0,0,-1,769,1030,0,0
-448,-6,0,0,0,0,0,0,0,0,0,-1,776,1030,0,0
-441,-6,0,0,0,0,0,0,0,0,0,-1,783,1030,0,0
-434,-6,0,0,0,0,0,0,0,0,0,-1,790,1030,0,0
-427,-6,0,0,0,0,0,0,0,0,0,-1,797,1030,0,0
-420,-6,0,0,0,0,0,0,0,0,0,-1,804,1030,0,0
-413,-6,0,0,0,0,0,0,0,0,0,-1,811,1030,0,0
-406,-6,0,0,0,0,0,0,0,0,0,-1,818,1030,0,0
-399,-6,0,0,0,0,0,0,0,0,0,-1,825,1030,0,0
-392,-6,0,0,0,0,0,0,0,0,0,-1,832,1030,0,0
-385,-6,0,0,0,0,0,0,0,0,0,-1,839,1030,0,0
-378,-6,0,0,0,0,0,0,0,0,0,-1,846,1030,0,0
-371,-6,0,0,0,0,0,0,0,0,0,-1,853,1030,0,0
-364,-6,0,0,0,0,0,0,0,0,0,-1,860,1030,0,0
-357,-6,0,0,0,0,0,0,0,0,0,-1,867,1030,0,0
-350,-6,0,0,0,0,0,0,0,0,0,-1,874,1030,0,0
-343,-6,0,0,0,0,0,0,0,0,0,-1,881,1030,0,0
-336,-6,0,0,0,0,0,0,0,0,0,-1,888,1030,0,0
-329,-6,0,0,0,0,0,0,0,0,0,-1,895,1030,0,0
-322,-6,0,0,0,0,0,0,0,0,0,-1,902,1030,0,0
-315,-6,0,0,0,0,0,0,0,0,0,-1,909,1030,0,0
-308,-6,0,0,0,0,0,0,0,0,0,-1,916,1030,0,0
-301,-6,0,0,0,0,0,0,0,0,0,-1,923,1030,0,0
-294,-6,0,0,0,0,0,0,0,0,0,-1,930,1030,0,0
-287,-6,0,0,0,0,0,0,0,0,0,-1,937,1030,0,0
-280,-6,0,0,0,0,0,0,0,0,0,-1,944,1030,0,0
-273,-6,0,0,0,0,0,0,0,0,0,-1,951,1030,0,0
-266,-6,0,0,0,0,0,0,0,0,0,-1,958,1030,0,0
-259,-6,0,0,0,0,0,0,0,0,0,-1,965,1030,0,0
-252,-6,0,0,0,0,0,0,0,0,0,-1,972,1030,0,0
-245,-6,0,0,0,0,0,0,0,0,0,-1,979,1030,0,0
-238,-6,0,0,0,0,0,0,0,0,0,-1,986,1030,0,0
-231,-6,0,0,0,0,0,0,0,0,0,-1,993,1030,0,0
-224,-6,0,0,0,0,0,0,0,0,0,-1,1000,1030,0,0
-217,-6,0,0,0,0,0,0,0,0,0,-1,1007,1030,0,0
-210,-6,0,0,0,0,0,0,0,0,0,-1,1014,1030,0,0
-203,-6,0,0,0,0,0,0,0,0,0,-1,1021,1030,0,0
-196,-6,0,0,0,0,0,0,0,0,0,-1,1028,1030,0,0
-189,-6,0,0,0,0,0,0,0,0,0,-1,1035,1030,0,0
-182,-6,0,0,0,0,0,0,0,0,0,-1,1042,1030,0,0
-175,-6,0,0,0,0,0,0,0,0,0,-1,1049,1030,0,0
-168,-6,0,0,0,0,0,0,0,0,0,-1,1056,1030,0,0
-161,-6,0,0,0,0,0,0,0,0,0,-1,1063,1030,0,0
-154,-6,0,0,0,0,0,0,0,0,0,-1,1070,1030,0,0
-147,-6,0,0,0,0,0,0,0,0,0,-1,1077,1030,0,0
-140,-6,0,0,0,0,0,0,0,0,0,-1,1084,1030,0,0
-133,-6,0,0,0,0,0,0,0,0,0,-1,1091,1030,0,0
-126,-6,0,0,0,0,0,0,0,0,0,-1,1098,1030,0,0
-119,-6,0,0,0,0,0,0,0,0,0,-1,1105,1030,0,0
-112,-6,0,0,0,0,0,0,0,0,0,-1,1112,1030,0,0
-105,-6,0,0,0,0,0,0,0,0,0,-1,1119,1030,0,0
-98,-6,0,0,0,0,0,0,0,0,0,-1,1126,1030,0,0
-91,-6,0,0,0,0,0,0,0,0,0,-1,1133,1030,0,0
-84,-6,0,0,0,0,0,0,0,0,0,-1,1140,1030,0,0
-77,-6,0,0,0,0,0,0,0,0,0,-1,1147,1030,0,0
-70,-6,0,0,0,0,0,0,0,0,0,-1,1154,1030,0,0
-63,-6,0,0,0,0,0,0,0,0,0,-1,1161,1030,0,0
-56,-6,0,0,0,0,0,0,0,0,0,-1,1168,1030,0,0
-49,-6,0,0,0,0,0,0,0,0,0,-1,1175,1030,0,0
-42,-6,0,0,0,0,0,0,0,0,0,-1,1182,1030,0,0
-35,-6,0,0,0,0,0,0,0,0,0,-1,1189,1030,0,0
-28,-6,0,0,0,0,0,0,0,0,0,-1,1196,1030,0,0
-21,-6,0,0,0,0,0,0,0,0,0,-1,1203,1030,0,0
-14,-6,0,0,0,0,0,0,0,0,0,-1,1210,1030,0,0
-7,-6,0,0,0,0,0,0,0,0,0,-1,1217,1030,0,0
0,-6,0,0,0,0,0,0,0,0,0,-1,1224,1030,0,0
7,-6,0,0,0,0,0,0,0,0,0,-1,1231,1030,0,0
14,-6,0,0,0,0,0,0,0,0,0,-1,1238,1030,0,0
21,-6,0,0,0,0,0,0,0,0,0,-1,1245,1030,0,0
28,-6,0,0,0,0,0,0,0,0,0,-1,1252,1030,0,0
35,-6,0,0,0,0,0,0,0,0,0,-1,1259,1030,0,0
42,-6,0,0,0,0,0,0,0,0,0,-1,1266,1030,0,0
49,-6,0,0,0,0,0,0,0,0,0,-1,1273,1030,0,0
56,-6,0,0,0,0,0,0,0,0,0,-1,1280,1030,0,0
63,-6,0,0,0,0,0,0,0,0,0,-1,1287,1030,0,0
70,-6,0,0,0,0,0,0,0,0,0,-1,1294,1030,0,0
77,-6,0,0,0,0,0,0,0,0,0,-1,1301,1030,0,0
84,-6,0,0,0,0,0,0,0,0,0,-1,1308,1030,0,0
91,-6,0,0,0,0,0,0,0,0,0,-1,1315,1030,0,0
98,-6,0,0,0,0,0,0,0,0,0,-1,1322,1030,0,0
105,-6,0,0,0,0,0,0,0,0,0,-1,1329,1030,0,0
112,-6,0,0,0,0,0,0,0,0,0,-1,1336,1030,0,0
119,-6,0,0,0,0,0,0,0,0,0,-1,1343,1030,0,0
126,-6,0,0,0,0,0,0,0,0,0,-1,1350,1030,0,0
133,-6,0,0,0,0,0,0,0,0,0,-1,1357,1030,0,0
140,-6,0,0,0,0,0,0,0,0,0,-1,1364,1030,0,0
147,-6,0,0,0,0,0,0,0,0,0,-1,1371,1030,0,0
154,-6,0,0,0,0,0,0,0,0,0,-1,1378,1030,0,0
161,-6,0,0,0,0,0,0,0,0,0,-1,1385,1030,0,0
168,-6,0,0,0,0,0,0,0,0,0,-1,1392,1030,0,0
175,-6,0,0,0,0,0,0,0,0,0,-1,1399,1030,0,0
182,-6,0,0,0,0,0,0,0,0,0,-1,1406,1030,0,0
189,-6,0,0,0,0,0,0,0,0,0,-1,1413,1030,0,0
196,-6,0,0,0,0,0,0,0,0,0,-1,1420,1030,0,0
203,-6,0,0,0,0,0,0,0,0,0,-1,1427,1030,0,0
210,-6,0,0,0,0,0,0,0,0,0,-1,1434,1030,0,0
217,-6,0,0,0,0,0,0,0,0,0,-1,1441,1030,0,0
224,-6,0,0,0,0,0,0,0,0,0,-1,1448,1030,0,0
231,-6,0,0,0,0,0,0,0,0,0,-1,1455,1030,0,0
238,-6,0,0,0,0,0,0,0,0,0,-1,1462,1030,0,0
245,-6,0,0,0,0,0,0,0,0,0,-1,1469,1030,0,0
252,-6,0,0,0,0,0,0,0,0,0,-1,1476,1030,0,0
259,-6,0,0,0,0,0,0,0,0,0,-1,1483,1030,0,0
266,-6,0,0,0,0,0,0,0,0,0,-1,1490,1030,0,0
273,-6,0,0,0,0,0,0,0,0,0,-1,1497,1030,0,0
280,-6,0,0,0,0,0,0,0,0,0,-1,1504,1030,0,0
287,-6,0,0,0,0,0,0,0,0,0,-1,1511,1030,0,0
294,-6,0,0,0,0,0,0,0,0,0,-1,1518,1030,0,0
301,-6,0,0,0,0,0,0,0,0,0,-1,1525,1030,0,0
308,-6,0,0,0,0,0,0,0,0,0,-1,1532,1030,0,0
315,-6,0,0,0,0,0,0,0,0,0,-1,1539,1030,0,0
322,-6,0,0,0,0,0,0,0,0,0,-1,1546,1030,0,0
329,-6,0,0,0,0,0,0,0,0,0,-1,1553,1030,0,0
336,-6,0,0,0,0,0,0,0,0,0,-1,1560,1030,0,0
343,-6,0,0,0,0,0,0,0,0,0,-1,1567,1030,0,0
350,-6,0,0,0,0,0,0,0,0,0,-1,1574,1030,0,0
357,-6,0,0,0,0,0,0,0,0,0,-1,1581,1030,0,0
364,-6,0,0,0,0,0,0,0,0,0,-1,1588,1030,0,0
371,-6,0,0,0,0,0,0,0,0,0,-1,1595,1030,0,0
378,-6,0,0,0,0,0,0,0,0,0,-1,1602,1030,0,0
385,-6,0,0,0,0,0,0,0,0,0,-1,1609,1030,0,0
392,-6,0,0,0,0,0,0,0,0,0,-1,1616,1030,0,0
399,-6,0,0,0,0,0,0,0,0,0,-1,1623,1030,0,0
406,-6,0,0,0,0,0,0,0,0,0,-1,1630,1030,0,0
413,-6,0,0,0,0,0,0,0,0,0,-1,1637,1030,0,0
420,-6,0,0,0,0,0,0,0,0,0,-1,1644,1030,0,0
427,-6,0,0,0,0,0,0,0,0,0,-1,1651,1030,0,0
434,-6,0,0,0,0,0,0,0,0,0,-1,1658,1030,0,0
441,-6,0,0,0,0,0,0,0,0,0,-1,1665,1030,0,0
448,-6,0,0,0,0,0,0,0,0,0,-1,1672,1030,0,0
455,-6,0,0,0,0,0,0,0,0,0,-1,1679,1030,0,0
462,-6,0,0,0,0,0,0,0,0,0,-1,1686,1030,0,0
469,-6,0,0,0,0,0,0,0,0,0,-1,1693,1030,0,0
476,-6,0,0,0,0,0,0,0,0,0,-1,1700,1030,0,0
483,-6,0,0,0,0,0,0,0,0,0,-1,1707,1030,0,0
490,-6,0,0,0,0,0,0,0,0,0,-1,1714,1030,0,0
497,-6,0,0,0,0,0,0,0,0,0,-1,1721,1030,0,0
504,-6,0,0,0,0,0,0,0,0,0,-1,1728,1030,0,0
511,-6,0,0,0,0,0,0,0,0,0,-1,1735,1030,0,0
518,-6,0,0,0,0,0,0,0,0,0,-1,1742,1030,0,0
525,-6,0,0,0,0,0,0,0,0,0,-1,1749,1030,0,0
532,-6,0,0,0,0,0,0,0,0,0,-1,1756,1030,0,0
539,-6,0,0,0,0,0,0,0,0,0,-1,1763,1030,0,0
546,-6,0,0,0,0,0,0,0,0,0,-1,1770,1030,0,0
553,-6,0,0,0,0,0,0,0,0,0,-1,1777,1030,0,0
560,-6,0,0,0,0,0,0,0,0,0,-1,1784,1030,0,0
567,-6,0,0,0,0,0,0,0,0,0,-1,1791,1030,0,0
574,-6,0,0,0,0,0,0,0,0,0,-1,1798,1030,0,0
581,-6,0,0,0,0,0,0,0,0,0,-1,1805,1030,0,0
588,-6,0,0,0,0,0,0,0,0,0,-1,1812,1030,0,0
595,-6,0,0,0,0,0,0,0,0,0,-1,1819,1030,0,0
602,-6,0,0,0,0,0,0,0,0,0,-1,1826,1030,0,0
609,-6,0,0,0,0,0,0,0,0,0,-1,1833,1030,0,0
616,-6,0,0,0,0,0,0,0,0,0,-1,1840,1030,0,0
623,-6,0,0,0,0,0,0,0,0,0,-1,1847,1030,0,0
630,-6,0,0,0,0,0,0,0,0,0,-1,1854,1030,0,0
637,-6,0,0,0,0,0,0,0,0,0,-1,1861,1030,0,0
644,-6,0,0,0,0,0,0,0,0,0,-1,1868,1030,0,0
651,-6,15.7241,2.50806,0.00314608,-0.00148951,0.00184704,0.00379202,-0.00213545,0.336422,0.00346649,0.0372144,1875,1030,15.7241,-2.50806
658,-6,15.7814,2.44861,0.00188325,-0.00111587,0.000900597,0.00213291,-0.00136553,0.27042,0.00203596,0.0409975,1882,1030,15.7814,-2.44862
665,-6,15.7874,2.27734,0.000927951,-0.000895627,0.000300643,0.000976237,-0.000943914,0.159252,0.00110865,0.0450961,1889,1030,15.7874,-2.2774
672,-6,15.8495,2.4436,0.00015329,-0.00073882,0.000459164,0.000347388,-0.000932919,0.399939,0.000764519,0.0416451,1896,1030,15.8495,-2.44357
679,-6,15.7522,2.22546,-0.000997404,-0.0006381,0.00125812,0.000453129,-0.00208863,0.856316,0.00156548,0.0413663,1903,1030,15.7522,-2.22547
686,-6,15.5637,2.19006,-0.00213881,-0.000582775,0.00222842,0.000999539,-0.00372112,0.95335,0.00287249,0.0363654,1910,1030,15.5637,-2.19004
693,-6,15.6766,2.36902,-0.00309045,-0.000545943,0.00319157,0.00161761,-0.005254,0.97506,0.00414836,0.0348364,1917,1030,15.6766,-2.36899
700,-6,15.7295,2.41382,-0.0039815,-0.000469803,0.00395027,0.00209727,-0.00654857,0.994529,0.00520753,0.0311608,1924,1030,15.7294,-2.41386
707,-6,15.6453,2.33508,-0.00456946,-0.000383056,0.00456765,0.00254817,-0.00750069,1.00025,0.00603201,0.0288327,1931,1030,15.6452,-2.33506
714,-6,15.6497,2.11987,-0.00500957,-0.000334032,0.00507415,0.00291498,-0.00825858,1.00127,0.00669245,0.0361805,1938,1030,15.6497,-2.11982
721,-6,15.6404,2.48206,-0.00537282,-0.000266851,0.00540713,0.0031597,-0.00879937,1.00596,0.00715591,0.0384974,1945,1030,15.6403,-2.48211
728,-6,15.3892,3.02954,-0.00546453,-9.59297e-05,0.00540923,0.00325841,-0.00881888,1.01572,0.00721496,0.0302719,1952,1030,15.3892,-3.02956
735,-6,15.2981,3.09827,-0.00540522,0.000234897,0.00496396,0.00312392,-0.00829425,1.04372,0.00681384,0.016031,1959,1030,15.2981,-3.09822
742,-6,15.2943,3.11584,-0.00513622,0.000561243,0.00410762,0.00271129,-0.00728627,1.08858,0.00597015,0.0123247,1966,1030,15.2943,-3.1159
749,-6,15.281,3.14014,-0.00455841,0.000929803,0.00324933,0.00243872,-0.00606733,1.13605,0.00505773,0.0111588,1973,1030,15.281,-3.14014
756,-6,15.296,3.15527,-0.00392198,0.00177646,0.00212824,0.00248356,-0.00462909,1.25002,0.0041683,0.0125942,1980,1030,15.296,-3.15522
763,-6,15.2991,3.16431,-0.0033575,0.00296018,0.000574326,0.00301197,-0.00340929,1.48087,0.00370968,0.0119414,1987,1030,15.2991,-3.1643
770,-6,15.287,3.18042,-0.00275204,0.0041924,-0.00103358,0.00434297,-0.00290261,-1.42614,0.0042107,0.0106897,1994,1030,15.287,-3.18046
777,-6,15.2649,3.22339,-0.00200501,0.00579436,-0.00274971,0.0066663,-0.00287696,-1.26372,0.00565273,0.0141198,2001,1030,15.2649,-3.2234
784,-6,15.2789,3.2196,-0.00154078,0.00785997,-0.00432859,0.00954944,-0.00323026,-1.19867,0.00767314,0.035235,2008,1030,15.2789,-3.21959
791,-6,15.1172,2.94885,-0.00140356,0.0104581,-0.00606529,0.0130103,-0.00395581,-1.17249,0.0102498,0.0450832,2015,1030,15.1171,-2.9489
798,-6,15.1211,3.4447,-0.00114688,0.0137411,-0.00831147,0.0174548,-0.00486056,-1.1506,0.0135505,0.0460287,2022,1030,15.1211,-3.44467
805,-6,15.1091,3.77612,-0.000674485,0.0179154,-0.0112863,0.0232415,-0.00600066,-1.12987,0.0178343,0.044485,2029,1030,15.1092,-3.77614
812,-6,14.6885,3.61096,-0.000150166,0.0232423,-0.015266,0.0307776,-0.00768549,-1.11228,0.0235029,0.04411,2036,1030,14.6885,-3.61099
-700,-13,0,0,0,0,0,0,0,0,0,-1,524,1037,0,0
-693,-13,-10.5638,2.69568,0.0337287,0.0472029,-0.01489,0.0568091,0.0241226,-0.997846,0.0329227,0.0463559,531,1037,-10.5638,-2.69567
-686,-13,-11.027,2.00598,0.0288822,0.0404453,-0.0153089,0.0510281,0.0182995,-0.965948,0.0298511,0.0436237,538,1037,-11.027,-2.00599
-679,-13,-11.3434,1.62549,0.0242286,0.0339894,-0.0144637,0.0443739,0.0138441,-0.948112,0.0262161,0.0459176,545,1037,-11.3434,-1.62545
-672,-13,-11.6484,1.24878,0.0198807,0.0279914,-0.0128808,0.0374401,0.010432,-0.937904,0.0223111,0.0478845,552,1037,-11.6485,-1.24881
-665,-13,-9.8316,0.849976,0,0,0,0,0,0,0,-1,559,1037,-9.83162,-0.85003
-658,-13,-9.92249,0.833862,0.0123543,0.0176882,-0.00878023,0.0241976,0.00584493,-0.932843,0.0145793,0.0463811,566,1037,-9.9225,-0.833908
-651,-13,-9.5473,0.897461,0.0092408,0.0134714,-0.00675992,0.0184393,0.00427296,-0.937032,0.011145,0.0418979,573,1037,-9.54732,-0.897422
-644,-13,-9.60907,0.985962,0.00583695,0.0102879,-0.00547607,0.0139734,0.00215141,-0.978402,0.00868772,0.0295988,580,1037,-9.60907,-0.985958
-637,-13,-9.60712,1.0437,0.00392754,0.00667172,-0.00451155,0.0100152,0.000584052,-0.933018,0.00649089,0.0191918,587,1037,-9.60712,-1.04376
-630,-13,-9.62738,1.04272,0.00298804,0.00402772,-0.00355935,0.00710499,-8.92309e-05,-0.85791,0.00476668,0.0132064,594,1037,-9.6274,-1.0427
-623,-13,-9.62335,1.06189,0.00159699,0.00197685,-0.00296125,0.00475425,-0.00118041,-0.817423,0.00362756,0.0122054,601,1037,-9.62335,-1.06192
-616,-13,-9.60364,1.05566,0.000341486,0.000877136,-0.00210741,0.00273367,-0.00151505,-0.848603,0.00248641,0.0113857,608,1037,-9.60364,-1.05567
-609,-13,-9.5954,1.08875,-0.000184071,0.000109741,-0.00254536,0.00251243,-0.00258676,-0.814224,0.00294412,0.0158918,615,1037,-9.5954,-1.0888
-602,-13,-9.59576,1.0769,-0.000274761,-0.000388157,-0.00341235,0.00308136,-0.00374428,-0.777091,0.00394697,0.0110601,622,1037,-9.59578,-1.07692
-595,-13,-9.60388,1.03845,-8.86297e-05,-0.000515616,-0.00408392,0.00378737,-0.00439161,-0.759284,0.00472643,0.0137024,629,1037,-9.60386,-1.0384
-588,-13,-9.54053,0.753418,0.00015681,-0.000482644,-0.00447111,0.00431961,-0.00464544,-0.749704,0.00517711,0.02367,636,1037,-9.54052,-0.753429
-581,-13,-9.62103,0.574097,0.000292993,-0.000307733,-0.00476773,0.00476981,-0.00478455,-0.75394,0.00551621,0.0231956,643,1037,-9.62102,-0.574136
-574,-13,-9.63324,0.625366,0.000467751,9.67133e-06,-0.00499005,0.00523401,-0.00475659,-0.762465,0.00577027,0.0326243,650,1037,-9.63325,-0.625366
-567,-13,-9.68457,0.699585,0.000618721,0.000516514,-0.0050823,0.00565018,-0.00451494,-0.780371,0.00588102,0.0409002,657,1037,-9.68458,-0.69963
-560,-13,-9.76331,0.755615,0.000770606,0.00120391,-0.00504221,0.00603412,-0.00405961,-0.806869,0.00586467,0.0448177,664,1037,-9.76332,-0.755671
-553,-13,-9.58344,0.503418,0.000887593,0.0020621,-0.00484975,0.00636002,-0.00341033,-0.845649,0.00572596,0.0431644,671,1037,-9.58342,-0.503414
-546,-13,-9.57483,0.400024,0.000900789,0.00306182,-0.00449536,0.0066047,-0.00264209,-0.903342,0.00549961,0.0397235,678,1037,-9.57485,-0.399975
-539,-13,-9.61475,0.506836,0.000739017,0.00410427,-0.00429002,0.00702984,-0.00218655,-0.972289,0.00556061,0.0405556,685,1037,-9.61472,-0.506864
-532,-13,-9.63373,0.795044,0,0,0,0,0,0,0,-1,692,1037,-9.63373,-0.795097
-525,-13,0,0,0,0,0,0,0,0,0,-1,699,1037,0,0
-518,-13,0,0,0,0,0,0,0,0,0,-1,706,1037,0,0
-511,-13,0,0,0,0,0,0,0,0,0,-1,713,1037,0,0
-504,-13,0,0,0,0,0,0,0,0,0,-1,720,1037,0,0
-497,-13,0,0,0,0,0,0,0,0,0,-1,727,1037,0,0
-490,-13,0,0,0,0,0,0,0,0,0,-1,734,1037,0,0
-483,-13,0,0,0,0,0,0,0,0,0,-1,741,1037,0,0
-476,-13,0,0,0,0,0,0,0,0,0,-1,748,1037,0,0
-469,-13,0,0,0,0,0,0,0,0,0,-1,755,1037,0,0
-462,-13,0,0,0,0,0,0,0,0,0,-1,762,1037,0,0
-455,-13,0,0,0,0,0,0,0,0,0,-1,769,1037,0,0
-448,-13,0,0,0,0,0,0,0,0,0,-1,776,1037,0,0
-441,-13,0,0,0,0,0,0,0,0,0,-1,783,1037,0,0
-434,-13,0,0,0,0,0,0,0,0,0,-1,790,1037,0,0
-427,-13,0,0,0,0,0,0,0,0,0,-1,797,1037,0,0
-420,-13,0,0,0,0,0,0,0,0,0,-1,804,1037,0,0
-413,-13,0,0,0,0,0,0,0,0,0,-1,811,1037,0,0
-406,-13,0,0,0,0,0,0,0,0,0,-1,818,1037,0,0
-399,-13,0,0,0,0,0,0,0,0,0,-1,825,1037,0,0
-392,-13,0,0,0,0,0,0,0,0,0,-1,832,1037,0,0
-385,-13,0,0,0,0,0,0,0,0,0,-1,839,1037,0,0
-378,-13,0,0,0,0,0,0,0,0,0,-1,846,1037,0,0
-371,-13,0,0,0,0,0,0,0,0,0,-1,853,1037,0,0
-364,-13,0,0,0,0,0,0,0,0,0,-1,860,1037,0,0
-357,-13,0,0,0,0,0,0,0,0,0,-1,867,1037,0,0
-350,-13,0,0,0,0,0,0,0,0,0,-1,874,1037,0,0
-343,-13,0,0,0,0,0,0,0,0,0,-1,881,1037,0,0
-336,-13,0,0,0,0,0,0,0,0,0,-1,888,1037,0,0
-329,-13,0,0,0,0,0,0,0,0,0,-1,895,1037,0,0
-322,-13,0,0,0,0,0,0,0,0,0,-1,902,1037,0,0
-315,-13,0,0,0,0,0,0,0,0,0,-1,909,1037,0,0
-308,-13,0,0,0,0,0,0,0,0,0,-1,916,1037,0,0
-301,-13,0,0,0,0,0,0,0,0,0,-1,923,1037,0,0
-294,-13,0,0,0,0,0,0,0,0,0,-1,930,1037,0,0
-287,-13,0,0,0,0,0,0,0,0,0,-1,937,1037,0,0
-280,-13,0,0,0,0,0,0,0,0,0,-1,944,1037,0,0
-273,-13,0,0,0,0,0,0,0,0,0,-1,951,1037,0,0
-266,-13,0,0,0,0,0,0,0,0,0,-1,958,1037,0,0
-259,-13,0,0,0,0,0,0,0,0,0,-1,965,1037,0,0
-252,-13,0,0,0,0,0,0,0,0,0,-1,972,1037,0,0
-245,-13,0,0,0,0,0,0,0,0,0,-1,979,1037,0,0
-238,-13,0,0,0,0,0,0,0,0,0,-1,986,1037,0,0
-231,-13,0,0,0,0,0,0,0,0,0,-1,993,1037,0,0
-224,-13,0,0,0,0,0,0,0,0,0,-1,1000,1037,0,0
-217,-13,0,0,0,0,0,0,0,0,0,-1,1007,1037,0,0
-210,-13,0,0,0,0,0,0,0,0,0,-1,1014,1037,0,0
-203,-13,0,0,0,0,0,0,0,0,0,-1,1021,1037,0,0
-196,-13,0,0,0,0,0,0,0,0,0,-1,1028,1037,0,0
-189,-13,0,0,0,0,0,0,0,0,0,-1,1035,1037,0,0
-182,-13,0,0,0,0,0,0,0,0,0,-1,1042,1037,0,0
-175,-13,0,0,0,0,0,0,0,0,0,-1,1049,1037,0,0
-168,-13,0,0,0,0,0,0,0,0,0,-1,1056,1037,0,0
-161,-13,0,0,0,0,0,0,0,0,0,-1,1063,1037,0,0
-154,-13,0,0,0,0,0,0,0,0,0,-1,1070,1037,0,0
-147,-13,0,0,0,0,0,0,0,0,0,-1,1077,1037,0,0
-140,-13,0,0,0,0,0,0,0,0,0,-1,1084,1037,0,0
-133,-13,0,0,0,0,0,0,0,0,0,-1,1091,1037,0,0
-126,-13,0,0,0,0,0,0,0,0,0,-1,1098,1037,0,0
-119,-13,0,0,0,0,0,0,0,0,0,-1,1105,1037,0,0
-112,-13,0,0,0,0,0,0,0,0,0,-1,1112,1037,0,0
-105,-13,0,0,0,0,0,0,0,0,0,-1,1119,1037,0,0
-98,-13,0,0,0,0,0,0,0,0,0,-1,1126,1037,0,0
-91,-13,0,0,0,0,0,0,0,0,0,-1,1133,1037,0,0
-84,-13,0,0,0,0,0,0,0,0,0,-1,1140,1037,0,0
-77,-13,0,0,0,0,0,0,0,0,0,-1,1147,1037,0,0
-70,-13,0,0,0,0,0,0,0,0,0,-1,1154,1037,0,0
-63,-13,0,0,0,0,0,0,0,0,0,-1,1161,1037,0,0
-56,-13,0,0,0,0,0,0,0,0,0,-1,1168,1037,0,0
-49,-13,0,0,0,0,0,0,0,0,0,-1,1175,1037,0,0
-42,-13,0,0,0,0,0,0,0,0,0,-1,1182,1037,0,0
-35,-13,0,0,0,0,0,0,0,0,0,-1,1189,1037,0,0
-28,-13,0,0,0,0,0,0,0,0,0,-1,1196,1037,0,0
-21,-13,0,0,0,0,0,0,0,0,0,-1,1203,1037,0,0
-14,-13,0,0,0,0,0,0,0,0,0,-1,1210,1037,0,0
-7,-13,0,0,0,0,0,0,0,0,0,-1,1217,1037,0,0
0,-13,0,0,0,0,0,0,0,0,0,-1,1224,1037,0,0
7,-13,0,0,0,0,0,0,0,0,0,-1,1231,1037,0,0
14,-13,0,0,0,0,0,0,0,0,0,-1,1238,1037,0,0
21,-13,0,0,0,0,0,0,0,0,0,-1,1245,1037,0,0
28,-13,0,0,0,0,0,0,0,0,0,-1,1252,1037,0,0
35,-13,0,0,0,0,0,0,0,0,0,-1,1259,1037,0,0
42,-13,0,0,0,0,0,0,0,0,0,-1,1266,1037,0,0
49,-13,0,0,0,0,0,0,0,0,0,-1,1273,1037,0,0
56,-13,0,0,0,0,0,0,0,0,0,-1,1280,1037,0,0
63,-13,0,0,0,0,0,0,0,0,0,-1,1287,1037,0,0
70,-13,0,0,0,0,0,0,0,0,0,-1,1294,1037,0,0
77,-13,0,0,0,0,0,0,0,0,0,-1,1301,1037,0,0
84,-13,0,0,0,0,0,0,0,0,0,-1,1308,1037,0,0
91,-13,0,0,0,0,0,0,0,0,0,-1,1315,1037,0,0
98,-13,0,0,0,0,0,0,0,0,0,-1,1322,1037,0,0
105,-13,0,0,0,0,0,0,0,0,0,-1,1329,1037,0,0
112,-13,0,0,0,0,0,0,0,0,0,-1,1336,1037,0,0
119,-13,0,0,0,0,0,0,0,0,0,-1,1343,1037,0,0
126,-13,0,0,0,0,0,0,0,0,0,-1,1350,1037,0,0
133,-13,0,0,0,0,0,0,0,0,0,-1,1357,1037,0,0
140,-13,0,0,0,0,0,0,0,0,0,-1,1364,1037,0,0
147,-13,0,0,0,0,0,0,0,0,0,-1,1371,1037,0,0
154,-13,0,0,0,0,0,0,0,0,0,-1,1378,1037,0,0
161,-13,0,0,0,0,0,0,0,0,0,-1,1385,1037,0,0
168,-13,0,0,0,0,0,0,0,0,0,-1,1392,1037,0,0
175,-13,0,0,0,0,0,0,0,0,0,-1,1399,1037,0,0
182,-13,0,0,0,0,0,0,0,0,0,-1,1406,1037,0,0
189,-13,0,0,0,0,0,0,0,0,0,-1,1413,1037,0,0
196,-13,0,0,0,0,0,0,0,0,0,-1,1420,1037,0,0
203,-13,0,0,0,0,0,0,0,0,0,-1,1427,1037,0,0
210,-13,0,0,0,0,0,0,0,0,0,-1,1434,1037,0,0
217,-13,0,0,0,0,0,0,0,0,0,-1,1441,1037,0,0
224,-13,0,0,0,0,0,0,0,0,0,-1,1448,1037,0,0
231,-13,0,0,0,0,0,0,0,0,0,-1,1455,1037,0,0
238,-13,0,0,0,0,0,0,0,0,0,-1,1462,1037,0,0
245,-13,0,0,0,0,0,0,0,0,0,-1,1469,1037,0,0
252,-13,0,0,0,0,0,0,0,0,0,-1,1476,1037,0,0
259,-13,0,0,0,0,0,0,0,0,0,-1,1483,1037,0,0
266,-13,0,0,0,0,0,0,0,0,0,-1,1490,1037,0,0
273,-13,0,0,0,0,0,0,0,0,0,-1,1497,1037,0,0
280,-13,0,0,0,0,0,0,0,0,0,-1,1504,1037,0,0
287,-13,0,0,0,0,0,0,0,0,0,-1,1511,1037,0,0
294,-13,0,0,0,0,0,0,0,0,0,-1,1518,1037,0,0
301,-13,0,0,0,0,0,0,0,0,0,-1,1525,1037,0,0
308,-13,0,0,0,0,0,0,0,0,0,-1,1532,1037,0,0
315,-13,0,0,0,0,0,0,0,0,0,-1,1539,1037,0,0
322,-13,0,0,0,0,0,0,0,0,0,-1,1546,1037,0,0
329,-13,0,0,0,0,0,0,0,0,0,-1,1553,1037,0,0
336,-13,0,0,0,0,0,0,0,0,0,-1,1560,1037,0,0
343,-13,0,0,0,0,0,0,0,0,0,-1,1567,1037,0,0
350,-13,0,0,0,0,0,0,0,0,0,-1,1574,1037,0,0
357,-13,0,0,0,0,0,0,0,0,0,-1,1581,1037,0,0
364,-13,0,0,0,0,0,0,0,0,0,-1,1588,1037,0,0
371,-13,0,0,0,0,0,0,0,0,0,-1,1595,1037,0,0
378,-13,0,0,0,0,0,0,0,0,0,-1,1602,1037,0,0
385,-13,0,0,0,0,0,0,0,0,0,-1,1609,1037,0,0
392,-13,0,0,0,0,0,0,0,0,0,-1,1616,1037,0,0
399,-13,0,0,0,0,0,0,0,0,0,-1,1623,1037,0,0
406,-13,0,0,0,0,0,0,0,0,0,-1,1630,1037,0,0
413,-13,0,0,0,0,0,0,0,0,0,-1,1637,1037,0,0
420,-13,0,0,0,0,0,0,0,0,0,-1,1644,1037,0,0
427,-13,0,0,0,0,0,0,0,0,0,-1,1651,1037,0,0
434,-13,0,0,0,0,0,0,0,0,0,-1,1658,1037,0,0
441,-13,0,0,0,0,0,0,0,0,0,-1,1665,1037,0,0
448,-13,0,0,0,0,0,0,0,0,0,-1,1672,1037,0,0
455,-13,0,0,0,0,0,0,0,0,0,-1,1679,1037,0,0
462,-13,0,0,0,0,0,0,0,0,0,-1,1686,1037,0,0
469,-13,0,0,0,0,0,0,0,0,0,-1,1693,1037,0,0
476,-13,0,0,0,0,0,0,0,0,0,-1,1700,1037,0,0
483,-13,0,0,0,0,0,0,0,0,0,-1,1707,1037,0,0
490,-13,0,0,0,0,0,0,0,0,0,-1,1714,1037,0,0
497,-13,0,0,0,0,0,0,0,0,0,-1,1721,1037,0,0
504,-13,0,0,0,0,0,0,0,0,0,-1,1728,1037,0,0
511,-13,0,0,0,0,0,0,0,0,0,-1,1735,1037,0,0
518,-13,0,0,0,0,0,0,0,0,0,-1,1742,1037,0,0
525,-13,0,0,0,0,0,0,0,0,0,-1,1749,1037,0,0
532,-13,0,0,0,0,0,0,0,0,0,-1,1756,1037,0,0
539,-13,0,0,0,0,0,0,0,0,0,-1,1763,1037,0,0
546,-13,0,0,0,0,0,0,0,0,0,-1,1770,1037,0,0
553,-13,0,0,0,0,0,0,0,0,0,-1,1777,1037,0,0
560,-13,0,0,0,0,0,0,0,0,0,-1,1784,1037,0,0
567,-13,0,0,0,0,0,0,0,0,0,-1,1791,1037,0,0
574,-13,0,0,0,0,0,0,0,0,0,-1,1798,1037,0,0
581,-13,0,0,0,0,0,0,0,0,0,-1,1805,1037,0,0
588,-13,0,0,0,0,0,0,0,0,0,-1,1812,1037,0,0
595,-13,0,0,0,0,0,0,0,0,0,-1,1819,1037,0,0
602,-13,0,0,0,0,0,0,0,0,0,-1,1826,1037,0,0
609,-13,0,0,0,0,0,0,0,0,0,-1,1833,1037,0,0
616,-13,0,0,0,0,0,0,0,0,0,-1,1840,1037,0,0
623,-13,0,0,0,0,0,0,0,0,0,-1,1847,1037,0,0
630,-13,0,0,0,0,0,0,0,0,0,-1,1854,1037,0,0
637,-13,0,0,0,0,0,0,0,0,0,-1,1861,1037,0,0
644,-13,0,0,0,0,0,0,0,0,0,-1,1868,1037,0,0
651,-13,15.7584,2.63635,0.0030497,-0.000630407,0.000725627,0.00318761,-0.000768314,0.187814,0.00242214,0.0402604,1875,1037,15.7584,-2.63632
658,-13,15.7047,2.46265,0.00178592,-0.000386711,0.000131573,0.00179386,-0.00039465,0.0602658,0.00134687,0.0452532,1882,1037,15.7048,-2.46268
665,-13,15.8694,2.37195,0.000818336,-0.000273436,-0.000213129,0.000858467,-0.000313566,-0.186114,0.000700627,0.0464978,1889,1037,15.8694,-2.37193
672,-13,15.8536,2.32874,9.70059e-05,-0.000238364,0.000130057,0.000141531,-0.000282888,0.329843,0.000249528,0.0400128,1896,1037,15.8536,-2.32872
679,-13,15.7046,2.16589,-0.000981011,-0.000258377,0.00108132,0.000520393,-0.00175978,0.946639,0.00137976,0.040213,1903,1037,15.7046,-2.1659
686,-13,15.6276,2.10083,-0.00207174,-0.000315761,0.00216561,0.00114307,-0.00353057,0.977984,0.00281324,0.0398934,1910,1037,15.6275,-2.10084
693,-13,15.6771,2.27234,-0.00297436,-0.000382582,0.00320933,0.00178262,-0.00513957,0.977282,0.00415022,0.0375237,1917,1037,15.6771,-2.27237
700,-13,15.7189,2.32971,-0.00380648,-0.000400015,0.00405007,0.00229039,-0.00649689,0.984444,0.00526354,0.0360251,1924,1037,15.7188,-2.32971
707,-13,15.6838,2.30688,-0.00437393,-0.000401053,0.00471644,0.0027302,-0.00750518,0.984711,0.00612,0.032311,1931,1037,15.6839,-2.30691
714,-13,15.6617,2.32031,-0.00480823,-0.000421523,0.00524767,0.00307272,-0.00830248,0.983348,0.0067949,0.0308223,1938,1037,15.6617,-2.32033
721,-13,15.6469,2.60767,-0.00513553,-0.000399734,0.0055634,0.00327872,-0.00881399,0.986596,0.00722142,0.0369444,1945,1037,15.6469,-2.60768
728,-13,15.4271,3.06653,-0.00518572,-0.000251016,0.00552314,0.00333084,-0.00876758,0.995464,0.00721629,0.0292301,1952,1037,15.4271,-3.06657
735,-13,15.3391,3.11121,-0.00512994,5.62191e-05,0.00506747,0.00315553,-0.00822925,1.02188,0.0067871,0.0177125,1959,1037,15.3392,-3.11122
742,-13,15.2971,3.13281,-0.00488112,0.000323359,0.00423088,0.00268821,-0.00724597,1.06111,0.0059333,0.0105498,1966,1037,15.2971,-3.13276
749,-13,15.3082,3.12988,-0.00428856,0.000625031,0.00337387,0.00234183,-0.00600535,1.10009,0.00497156,0.0151681,1973,1037,15.3083,-3.12987
756,-13,15.3313,3.14917,-0.0036452,0.00134057,0.00222449,0.00218877,-0.0044934,1.20651,0.00393369,0.0124983,1980,1037,15.3313,-3.14922
763,-13,15.3242,3.16748,-0.0030949,0.00223877,0.000628442,0.00231182,-0.00316794,1.45508,0.00317658,0.0114979,1987,1037,15.3242,-3.16753
770,-13,15.3118,3.16797,-0.00250936,0.00319373,-0.00101473,0.0033689,-0.00268452,-1.39986,0.00350238,0.0107304,1994,1037,15.3117,-3.16791
777,-13,15.2849,3.18823,-0.0017751,0.00437748,-0.00278921,0.00545368,-0.00285131,-1.20255,0.00487273,0.0111363,2001,1037,15.2849,-3.18821
784,-13,15.3066,3.22888,-0.00131161,0.0058405,-0.00444009,0.00796554,-0.00343666,-1.12441,0.00675394,0.025168,2008,1037,15.3067,-3.22883
791,-13,15.3557,3.35425,-0.00119991,0.00760461,-0.0062921,0.0108816,-0.00447687,-1.09064,0.00912058,0.0437715,2015,1037,15.3557,-3.3542
798,-13,15.422,3.56067,-0.00100787,0.00975103,-0.00872451,0.0146212,-0.00587808,-1.06166,0.0121888,0.0451062,2022,1037,15.422,-3.56066
805,-13,15.3711,3.66211,-0.000642279,0.0123812,-0.0119804,0.0195052,-0.00776626,-1.03433,0.0162241,0.040272,2029,1037,15.3711,-3.66214
812,-13,15.3162,3.59485,-0.000312262,0.0155996,-0.0163687,0.0258434,-0.0105561,-1.01161,0.0216243,0.0438042,2036,1037,15.3163,-3.5948
-700,-20,-11.0013,2.55347,0,0,0,0,0,0,0,-1,524,1044,-11.0013,-2.55343
-693,-20,-11.2616,2.18188,0.0432888,0.032659,-0.00140224,0.0434707,0.0324772,-0.128977,0.0260995,0.0471493,531,1044,-11.2616,-2.18186
-686,-20,-11.5504,1.72424,0.0363773,0.0278745,-0.00415391,0.0380697,0.026182,-0.3869,0.0224901,0.0459656,538,1044,-11.5504,-1.7242
-679,-20,-11.8469,1.30505,0.0299153,0.0234194,-0.00542867,0.0329935,0.0203412,-0.515815,0.0192204,0.0452262,545,1044,-11.847,-1.30504
-672,-20,-12.143,0.944702,0.0240281,0.0193363,-0.00571493,0.0278598,0.0155045,-0.590641,0.0161191,0.0478143,552,1044,-12.143,-0.944678
-665,-20,-9.07599,0.122803,0,0,0,0,0,0,0,-1,559,1044,-9.07599,-0.122843
-658,-20,-9.65802,0.636719,0.0142477,0.0123621,-0.00457755,0.0179785,0.00863126,-0.683841,0.0103826,0.0490254,566,1044,-9.658,-0.636729
-651,-20,-9.54498,0.942749,0.0104049,0.00948922,-0.00365408,0.0136297,0.00626441,-0.723074,0.00787767,0.0416999,573,1044,-9.54496,-0.942775
-644,-20,-9.57843,0.9823,0.00632266,0.00740741,-0.0033366,0.0102454,0.00348464,-0.86597,0.00601516,0.0254873,580,1044,-9.57844,-0.982276
-637,-20,-9.58301,1.00378,0.00392804,0.0047385,-0.00320766,0.00756642,0.00110012,-0.848232,0.0047205,0.0152986,587,1044,-9.58302,-1.00381
-630,-20,-9.60718,1.02405,0.00286253,0.0028396,-0.00276253,0.00561361,8.85143e-05,-0.783324,0.00371326,0.0131823,594,1044,-9.60715,-1.02408
-623,-20,-9.60547,1.03455,0.00145627,0.00132733,-0.00252418,0.0039168,-0.00113321,-0.77263,0.0030597,0.012926,601,1044,-9.60549,-1.0346
-616,-20,-9.59644,1.03979,0.000247898,0.000556146,-0.00187386,0.00228221,-0.00147816,-0.826431,0.00218753,0.012402,608,1044,-9.59646,-1.03985
-609,-20,-9.60333,1.08533,-0.000160827,-1.84208e-05,-0.00249943,0.00241082,-0.00259007,-0.799638,0.00288788,0.0142244,615,1044,-9.60334,-1.08535
-602,-20,-9.6037,1.08057,-0.000158938,-0.000440533,-0.00348237,0.00318548,-0.00378495,-0.765193,0.00402934,0.0106118,622,1044,-9.60368,-1.08057
-595,-20,-9.60931,1.05054,7.77199e-05,-0.00056516,-0.0042018,0.00397036,-0.0044578,-0.747222,0.00486871,0.0112363,629,1044,-9.60932,-1.05057
-588,-20,-9.60199,0.782715,0.000335001,-0.000520736,-0.00458696,0.00451401,-0.00469974,-0.738893,0.00531992,0.0203361,636,1044,-9.60202,-0.782656
-581,-20,-9.62592,0.578491,0.000500578,-0.000353701,-0.00487228,0.00496441,-0.00481753,-0.741676,0.00564782,0.0300686,643,1044,-9.62589,-0.57847
-574,-20,-9.63623,0.770264,0.000709712,-3.54768e-05,-0.0050753,0.00542608,-0.00475184,-0.748757,0.00588052,0.0375027,650,1044,-9.63626,-0.770296
-567,-20,-9.71283,1.09253,0.000884043,0.000468418,-0.00513143,0.00581187,-0.00445941,-0.76516,0.00594724,0.0436743,657,1044,-9.71285,-1.09252
-560,-20,-9.70941,1.24329,0.00103989,0.00114481,-0.0050389,0.00613152,-0.00394682,-0.790604,0.00586413,0.0444992,664,1044,-9.70941,-1.24323
-553,-20,-9.48987,0.402588,0.00113119,0.0019785,-0.00478135,0.00635493,-0.00324524,-0.829585,0.00563875,0.0411656,671,1044,-9.48984,-0.402597
-546,-20,-9.65552,0.375366,0.00108196,0.00293492,-0.00434205,0.00644823,-0.00243135,-0.890509,0.0052986,0.0397709,678,1044,-9.6555,-0.375393
-539,-20,-9.72198,0.736572,0.000796187,0.00390433,-0.00404593,0.00668439,-0.00198388,-0.968764,0.00524417,0.0422717,685,1044,-9.72196,-0.736514
-532,-20,-9.75549,0.682739,7.6972e-05,0.00487574,-0.00446592,0.00754602,-0.00259331,-1.03191,0.00608228,0.0415213,692,1044,-9.75551,-0.682723
-525,-20,0,0,0,0,0,0,0,0,0,-1,699,1044,0,0
-518,-20,0,0,0,0,0,0,0,0,0,-1,706,1044,0,0
-511,-20,0,0,0,0,0,0,0,0,0,-1,713,1044,0,0
-504,-20,0,0,0,0,0,0,0,0,0,-1,720,1044,0,0
-497,-20,0,0,0,0,0,0,0,0,0,-1,727,1044,0,0
-490,-20,0,0,0,0,0,0,0,0,0,-1,734,1044,0,0
-483,-20,0,0,0,0,0,0,0,0,0,-1,741,1044,0,0
-476,-20,0,0,0,0,0,0,0,0,0,-1,748,1044,0,0
-469,-20,0,0,0,0,0,0,0,0,0,-1,755,1044,0,0
-462,-20,0,0,0,0,0,0,0,0,0,-1,762,1044,0,0
-455,-20,0,0,0,0,0,0,0,0,0,-1,769,1044,0,0
-448,-20,0,0,0,0,0,0,0,0,0,-1,776,1044,0,0
-441,-20,0,0,0,0,0,0,0,0,0,-1,783,1044,0,0
-434,-20,0,0,0,0,0,0,0,0,0,-1,790,1044,0,0
-427,-20,0,0,0,0,0,0,0,0,0,-1,797,1044,0,0
-420,-20,0,0,0,0,0,0,0,0,0,-1,804,1044,0,0
-413,-20,0,0,0,0,0,0,0,0,0,-1,811,1044,0,0
-406,-20,0,0,0,0,0,0,0,0,0,-1,818,1044,0,0
-399,-20,0,0,0,0,0,0,0,0,0,-1,825,1044,0,0
-392,-20,0,0,0,0,0,0,0,0,0,-1,832,1044,0,0
-385,-20,0,0,0,0,0,0,0,0,0,-1,839,1044,0,0
-378,-20,0,0,0,0,0,0,0,0,0,-1,846,1044,0,0
-371,-20,0,0,0,0,0,0,0,0,0,-1,853,1044,0,0
-364,-20,0,0,0,0,0,0,0,0,0,-1,860,1044,0,0
-357,-20,0,0,0,0,0,0,0,0,0,-1,867,1044,0,0
-350,-20,0,0,0,0,0,0,0,0,0,-1,874,1044,0,0
-343,-20,0,0,0,0,0,0,0,0,0,-1,881,1044,0,0
-336,-20,0,0,0,0,0,0,0,0,0,-1,888,1044,0,0
-329,-20,0,0,0,0,0,0,0,0,0,-1,895,1044,0,0
-322,-20,0,0,0,0,0,0,0,0,0,-1,902,1044,0,0
-315,-20,0,0,0,0,0,0,0,0,0,-1,909,1044,0,0
-308,-20,0,0,0,0,0,0,0,0,0,-1,916,1044,0,0
-301,-20,0,0,0,0,0,0,0,0,0,-1,923,1044,0,0
-294,-20,0,0,0,0,0,0,0,0,0,-1,930,1044,0,0
-287,-20,0,0,0,0,0,0,0,0,0,-1,937,1044,0,0
-280,-20,0,0,0,0,0,0,0,0,0,-1,944,1044,0,0
-273,-20,0,0,0,0,0,0,0,0,0,-1,951,1044,0,0
-266,-20,0,0,0,0,0,0,0,0,0,-1,958,1044,0,0
-259,-20,0,0,0,0,0,0,0,0,0,-1,965,1044,0,0
-252,-20,0,0,0,0,0,0,0,0,0,-1,972,1044,0,0
-245,-20,0,0,0,0,0,0,0,0,0,-1,979,1044,0,0
-238,-20,0,0,0,0,0,0,0,0,0,-1,986,1044,0,0
-231,-20,0,0,0,0,0,0,0,0,0,-1,993,1044,0,0
-224,-20,0,0,0,0,0,0,0,0,0,-1,1000,1044,0,0
-217,-20,0,0,0,0,0,0,0,0,0,-1,1007,1044,0,0
-210,-20,0,0,0,0,0,0,0,0,0,-1,1014,1044,0,0
-203,-20,0,0,0,0,0,0,0,0,0,-1,1021,1044,0,0
-196,-20,0,0,0,0,0,0,0,0,0,-1,1028,1044,0,0
-189,-20,0,0,0,0,0,0,0,0,0,-1,1035,1044,0,0
-182,-20,0,0,0,0,0,0,0,0,0,-1,1042,1044,0,0
-175,-20,0,0,0,0,0,0,0,0,0,-1,1049,1044,0,0
-168,-20,0,0,0,0,0,0,0,0,0,-1,1056,1044,0,0
-161,-20,0,0,0,0,0,0,0,0,0,-1,1063,1044,0,0
-154,-20,0,0,0,0,0,0,0,0,0,-1,1070,1044,0,0
-147,-20,0,0,0,0,0,0,0,0,0,-1,1077,1044,0,0
-140,-20,0,0,0,0,0,0,0,0,0,-1,1084,1044,0,0
-133,-20,0,0,0,0,0,0,0,0,0,-1,1091,1044,0,0
-126,-20,0,0,0,0,0,0,0,0,0,-1,1098,1044,0,0
-119,-20,0,0,0,0,0,0,0,0,0,-1,1105,1044,0,0
-112,-20,0,0,0,0,0,0,0,0,0,-1,1112,1044,0,0
-105,-20,0,0,0,0,0,0,0,0,0,-1,1119,1044,0,0
-98,-20,0,0,0,0,0,0,0,0,0,-1,1126,1044,0,0
-91,-20,0,0,0,0,0,0,0,0,0,-1,1133,1044,0,0
-84,-20,0,0,0,0,0,0,0,0,0,-1,1140,1044,0,0
-77,-20,0,0,0,0,0,0,0,0,0,-1,1147,1044,0,0
-70,-20,0,0,0,0,0,0,0,0,0,-1,1154,1044,0,0
-63,-20,0,0,0,0,0,0,0,0,0,-1,1161,1044,0,0
-56,-20,0,0,0,0,0,0,0,0,0,-1,1168,1044,0,0
-49,-20,0,0,0,0,0,0,0,0,0,-1,1175,1044,0,0
-42,-20,0,0,0,0,0,0,0,0,0,-1,1182,1044,0,0
-35,-20,0,0,0,0,0,0,0,0,0,-1,1189,1044,0,0
-28,-20,0,0,0,0,0,0,0,0,0,-1,1196,1044,0,0
-21,-20,0,0,0,0,0,0,0,0,0,-1,1203,1044,0,0
-14,-20,0,0,0,0,0,0,0,0,0,-1,1210,1044,0,0
-7,-20,0,0,0,0,0,0,0,0,0,-1,1217,1044,0,0
0,-20,0,0,0,0,0,0,0,0,0,-1,1224,1044,0,0
7,-20,0,0,0,0,0,0,0,0,0,-1,1231,1044,0,0
14,-20,0,0,0,0,0,0,0,0,0,-1,1238,1044,0,0
21,-20,0,0,0,0,0,0,0,0,0,-1,1245,1044,0,0
28,-20,0,0,0,0,0,0,0,0,0,-1,1252,1044,0,0
35,-20,0,0,0,0,0,0,0,0,0,-1,1259,1044,0,0
42,-20,0,0,0,0,0,0,0,0,0,-1,1266,1044,0,0
49,-20,0,0,0,0,0,0,0,0,0,-1,1273,1044,0,0
56,-20,0,0,0,0,0,0,0,0,0,-1,1280,1044,0,0
63,-20,0,0,0,0,0,0,0,0,0,-1,1287,1044,0,0
70,-20,0,0,0,0,0,0,0,0,0,-1,1294,1044,0,0
77,-20,0,0,0,0,0,0,0,0,0,-1,1301,1044,0,0
84,-20,0,0,0,0,0,0,0,0,0,-1,1308,1044,0,0
91,-20,0,0,0,0,0,0,0,0,0,-1,1315,1044,0,0
98,-20,0,0,0,0,0,0,0,0,0,-1,1322,1044,0,0
105,-20,0,0,0,0,0,0,0,0,0,-1,1329,1044,0,0
112,-20,0,0,0,0,0,0,0,0,0,-1,1336,1044,0,0
119,-20,0,0,0,0,0,0,0,0,0,-1,1343,1044,0,0
126,-20,0,0,0,0,0,0,0,0,0,-1,1350,1044,0,0
133,-20,0,0,0,0,0,0,0,0,0,-1,1357,1044,0,0
140,-20,0,0,0,0,0,0,0,0,0,-1,1364,1044,0,0
147,-20,0,0,0,0,0,0,0,0,0,-1,1371,1044,0,0
154,-20,0,0,0,0,0,0,0,0,0,-1,1378,1044,0,0
161,-20,0,0,0,0,0,0,0,0,0,-1,1385,1044,0,0
168,-20,0,0,0,0,0,0,0,0,0,-1,1392,1044,0,0
175,-20,0,0,0,0,0,0,0,0,0,-1,1399,1044,0,0
182,-20,0,0,0,0,0,0,0,0,0,-1,1406,1044,0,0
189,-20,0,0,0,0,0,0,0,0,0,-1,1413,1044,0,0
196,-20,0,0,0,0,0,0,0,0,0,-1,1420,1044,0,0
203,-20,0,0,0,0,0,0,0,0,0,-1,1427,1044,0,0
210,-20,0,0,0,0,0,0,0,0,0,-1,1434,1044,0,0
217,-20,0,0,0,0,0,0,0,0,0,-1,1441,1044,0,0
224,-20,0,0,0,0,0,0,0,0,0,-1,1448,1044,0,0
231,-20,0,0,0,0,0,0,0,0,0,-1,1455,1044,0,0
238,-20,0,0,0,0,0,0,0,0,0,-1,1462,1044,0,0
245,-20,0,0,0,0,0,0,0,0,0,-1,1469,1044,0,0
252,-20,0,0,0,0,0,0,0,0,0,-1,1476,1044,0,0
259,-20,0,0,0,0,0,0,0,0,0,-1,1483,1044,0,0
266,-20,0,0,0,0,0,0,0,0,0,-1,1490,1044,0,0
273,-20,0,0,0,0,0,0,0,0,0,-1,1497,1044,0,0
280,-20,0,0,0,0,0,0,0,0,0,-1,1504,1044,0,0
287,-20,0,0,0,0,0,0,0,0,0,-1,1511,1044,0,0
294,-20,0,0,0,0,0,0,0,0,0,-1,1518,1044,0,0
301,-20,0,0,0,0,0,0,0,0,0,-1,1525,1044,0,0
308,-20,0,0,0,0,0,0,0,0,0,-1,1532,1044,0,0
315,-20,0,0,0,0,0,0,0,0,0,-1,1539,1044,0,0
322,-20,0,0,0,0,0,0,0,0,0,-1,1546,1044,0,0
329,-20,0,0,0,0,0,0,0,0,0,-1,1553,1044,0,0
336,-20,0,0,0,0,0,0,0,0,0,-1,1560,1044,0,0
343,-20,0,0,0,0,0,0,0,0,0,-1,1567,1044,0,0
350,-20,0,0,0,0,0,0,0,0,0,-1,1574,1044,0,0
357,-20,0,0,0,0,0,0,0,0,0,-1,1581,1044,0,0
364,-20,0,0,0,0,0,0,0,0,0,-1,1588,1044,0,0
371,-20,0,0,0,0,0,0,0,0,0,-1,1595,1044,0,0
378,-20,0,0,0,0,0,0,0,0,0,-1,1602,1044,0,0
385,-20,0,0,0,0,0,0,0,0,0,-1,1609,1044,0,0
392,-20,0,0,0,0,0,0,0,0,0,-1,1616,1044,0,0
399,-20,0,0,0,0,0,0,0,0,0,-1,1623,1044,0,0
406,-20,0,0,0,0,0,0,0,0,0,-1,1630,1044,0,0
413,-20,0,0,0,0,0,0,0,0,0,-1,1637,1044,0,0
420,-20,0,0,0,0,0,0,0,0,0,-1,1644,1044,0,0
427,-20,0,0,0,0,0,0,0,0,0,-1,1651,1044,0,0
434,-20,0,0,0,0,0,0,0,0,0,-1,1658,1044,0,0
441,-20,0,0,0,0,0,0,0,0,0,-1,1665,1044,0,0
448,-20,0,0,0,0,0,0,0,0,0,-1,1672,1044,0,0
455,-20,0,0,0,0,0,0,0,0,0,-1,1679,1044,0,0
462,-20,0,0,0,0,0,0,0,0,0,-1,1686,1044,0,0
469,-20,0,0,0,0,0,0,0,0,0,-1,1693,1044,0,0
476,-20,0,0,0,0,0,0,0,0,0,-1,1700,1044,0,0
483,-20,0,0,0,0,0,0,0,0,0,-1,1707,1044,0,0
490,-20,0,0,0,0,0,0,0,0,0,-1,1714,1044,0,0
497,-20,0,0,0,0,0,0,0,0,0,-1,1721,1044,0,0
504,-20,0,0,0,0,0,0,0,0,0,-1,1728,1044,0,0
511,-20,0,0,0,0,0,0,0,0,0,-1,1735,1044,0,0
518,-20,0,0,0,0,0,0,0,0,0,-1,1742,1044,0,0
525,-20,0,0,0,0,0,0,0,0,0,-1,1749,1044,0,0
532,-20,0,0,0,0,0,0,0,0,0,-1,1756,1044,0,0
539,-20,0,0,0,0,0,0,0,0,0,-1,1763,1044,0,0
546,-20,0,0,0,0,0,0,0,0,0,-1,1770,1044,0,0
553,-20,0,0,0,0,0,0,0,0,0,-1,1777,1044,0,0
560,-20,0,0,0,0,0,0,0,0,0,-1,1784,1044,0,0
567,-20,0,0,0,0,0,0,0,0,0,-1,1791,1044,0,0
574,-20,0,0,0,0,0,0,0,0,0,-1,1798,1044,0,0
581,-20,0,0,0,0,0,0,0,0,0,-1,1805,1044,0,0
588,-20,0,0,0,0,0,0,0,0,0,-1,1812,1044,0,0
595,-20,0,0,0,0,0,0,0,0,0,-1,1819,1044,0,0
602,-20,0,0,0,0,0,0,0,0,0,-1,1826,1044,0,0
609,-20,0,0,0,0,0,0,0,0,0,-1,1833,1044,0,0
616,-20,0,0,0,0,0,0,0,0,0,-1,1840,1044,0,0
623,-20,0,0,0,0,0,0,0,0,0,-1,1847,1044,0,0
630,-20,0,0,0,0,0,0,0,0,0,-1,1854,1044,0,0
637,-20,0,0,0,0,0,0,0,0,0,-1,1861,1044,0,0
644,-20,0,0,0,0,0,0,0,0,0,-1,1868,1044,0,0
651,-20,15.6602,2.55078,0.0023365,-0.000100466,-0.000488734,0.00243086,-0.000194828,-0.190727,0.00168927,0.0436286,1875,1044,15.6602,-2.55076
658,-20,15.6296,2.50867,0.00124507,0.000152896,-0.000700087,0.00158687,-0.000188898,-0.454176,0.00112617,0.0462604,1882,1044,15.6296,-2.50863
665,-20,15.6576,2.43372,0.000411996,0.0002493,-0.000767156,0.0011021,-0.000440809,-0.732576,0.00091767,0.0399809,1889,1044,15.6576,-2.43367
672,-20,15.7482,2.34741,-0.000155935,0.000229935,-0.000216316,0.000326856,-0.000252856,-1.14956,0.000335605,0.0264149,1896,1044,15.7482,-2.34744
679,-20,15.6722,2.28137,-0.00109573,0.000124487,0.000907565,0.000607953,-0.0015792,1.08133,0.00130359,0.0288736,1903,1044,15.6722,-2.28133
686,-20,15.7236,1.86279,0,0,0,0,0,0,0,-1,1910,1044,15.7236,-1.86276
693,-20,15.7231,2.16382,-0.00292122,-0.000190328,0.0032575,0.00197633,-0.00508788,0.983859,0.00420833,0.0388616,1917,1044,15.7232,-2.16387
700,-20,15.6868,2.31506,-0.00368175,-0.000301331,0.00418935,0.00252592,-0.006509,0.977139,0.00538263,0.036711,1924,1044,15.6868,-2.31501
707,-20,15.6625,2.25037,-0.00421467,-0.000383834,0.00490499,0.00296646,-0.00756496,0.971545,0.00627056,0.0318935,1931,1044,15.6624,-2.25034
714,-20,15.6663,2.35535,-0.00463985,-0.000467358,0.00545647,0.0032881,-0.0083953,0.967995,0.00695693,0.0267648,1938,1044,15.6662,-2.3553
721,-20,15.6968,2.57019,-0.00493858,-0.000499935,0.0057514,0.00344548,-0.008884,0.969534,0.00734564,0.0231095,1945,1044,15.6967,-2.57021
728,-20,15.4821,2.9093,-0.00495258,-0.000390279,0.00566717,0.00343762,-0.00878047,0.976737,0.00727546,0.0204579,1952,1044,15.4821,-2.90927
735,-20,15.2567,3.09644,-0.00488948,-0.000117437,0.00519481,0.00321311,-0.00822003,1.00068,0.00680865,0.0159699,1959,1044,15.2568,-3.09642
742,-20,15.3022,3.13831,-0.00460187,0.000107393,0.00438714,0.00273185,-0.00722633,1.03169,0.00594134,0.014445,1966,1044,15.3023,-3.13826
749,-20,15.3406,3.12695,-0.00391618,0.000473016,0.0035814,0.00247874,-0.0059219,1.06028,0.00498406,0.0162472,1973,1044,15.3405,-3.12696
756,-20,15.3572,3.14526,-0.00318563,0.00118815,0.00249477,0.00231884,-0.00431632,1.14526,0.00388825,0.011893,1980,1044,15.3572,-3.1452
763,-20,15.3271,3.14258,-0.00254702,0.00191478,0.000953528,0.00211002,-0.00274226,1.36884,0.00280938,0.0127387,1987,1044,15.3272,-3.14263
770,-20,15.3093,3.17419,-0.00184081,0.00276828,-0.000592786,0.0028433,-0.00191583,-1.44491,0.00276502,0.0126648,1994,1044,15.3094,-3.17422
777,-20,15.2887,3.18445,-0.00095297,0.00378269,-0.00223858,0.00467336,-0.00184365,-1.19212,0.00387903,0.0122532,2001,1044,15.2887,-3.1845
784,-20,15.323,3.20679,-0.000316835,0.00495223,-0.00371138,0.00686908,-0.00223368,-1.09405,0.00547791,0.0167159,2008,1044,15.323,-3.20678
791,-20,15.3644,3.28235,-4.03358e-05,0.00627767,-0.00536311,0.009343,-0.00310566,-1.05155,0.00748192,0.0355239,2015,1044,15.3644,-3.28231
798,-20,15.429,3.37903,0.000291195,0.00778263,-0.0075865,0.0124977,-0.0044239,-1.01471,0.0101336,0.0440874,2022,1044,15.429,-3.37908
805,-20,15.4797,3.36194,0.000753929,0.00947757,-0.010633,0.0166086,-0.0063771,-0.98004,0.013702,0.0453606,2029,1044,15.4798,-3.36194
812,-20,15.488,3.35364,0,0,0,0,0,0,0,-1,2036,1044,15.4881,-3.35361
-700,-27,-10.8632,0.103027,0,0,0,0,0,0,0,-1,524,1051,-10.8632,-0.103084
-693,-27,-11.7429,1.79944,0,0,0,0,0,0,0,-1,531,1051,-11.7429,-1.79945
-686,-27,-11.9622,1.86011,0.0462523,0.0170276,0.00486807,0.0470419,0.0162381,0.160792,0.0275902,0.0458639,538,1051,-11.9622,-1.86014
-679,-27,-12.3101,1.0387,0.0377073,0.0142966,0.00189101,0.0378591,0.0141449,0.0800835,0.0220895,0.0485945,545,1051,-12.3101,-1.03872
-672,-27,-9.43329,0.928345,0.0299796,0.0118513,6.92009e-05,0.0299798,0.011851,0.00381723,0.0174349,0.0459072,552,1051,-9.43332,-0.928303
-665,-27,-9.35028,0.852417,0,0,0,0,0,0,0,-1,559,1051,-9.3503,-0.852408
-658,-27,-9.43042,0.760132,0.0173253,0.00773535,-0.00126738,0.0174899,0.00757068,-0.129203,0.0101281,0.0440203,566,1051,-9.43043,-0.760184
-651,-27,-9.51489,0.933105,0.0124715,0.00602323,-0.00125391,0.0127067,0.00578798,-0.185457,0.00734591,0.0347607,573,1051,-9.51491,-0.933162
-644,-27,-9.57776,0.984375,0.00748988,0.00487368,-0.00170376,0.00832979,0.00403378,-0.458009,0.00481,0.0148519,580,1051,-9.57773,-0.984383
-637,-27,-9.58606,0.964111,0.00439411,0.00303102,-0.00229562,0.00610722,0.00131791,-0.641097,0.00371102,0.0110558,587,1051,-9.58604,-0.964158
-630,-27,-9.61426,1.01978,0.00298923,0.00178605,-0.00224579,0.0047126,6.26734e-05,-0.654533,0.00312105,0.0155391,594,1051,-9.61426,-1.01981
-623,-27,-9.5965,1.03467,0.00144756,0.000769519,-0.00227643,0.00341008,-0.001193,-0.711478,0.00275843,0.0142731,601,1051,-9.59651,-1.03461
-616,-27,-9.57709,1.04456,0.000189098,0.000300103,-0.00177035,0.00201582,-0.00152662,-0.801069,0.00205171,0.0125192,608,1051,-9.57707,-1.04451
-609,-27,-9.59601,1.08191,-0.000178159,-7.65284e-05,-0.00251969,0.00239286,-0.00264755,-0.79548,0.00291132,0.0136334,615,1051,-9.59603,-1.08195
-602,-27,-9.57666,1.1145,-0.00012759,-0.000412222,-0.00356846,0.00330139,-0.0038412,-0.765468,0.0041277,0.0111249,622,1051,-9.57669,-1.11456
-595,-27,-9.57776,1.13208,0.000137758,-0.000493727,-0.00431029,0.00414386,-0.00449983,-0.748837,0.00499184,0.00945815,629,1051,-9.57774,-1.13206
-588,-27,-9.62097,0.84729,0.000429695,-0.000422151,-0.00468231,0.00470542,-0.00469787,-0.740041,0.00542899,0.0180337,636,1051,-9.62094,-0.847239
-581,-27,-9.59009,0.568115,0.000653965,-0.000245971,-0.00493188,0.00515637,-0.00474837,-0.739906,0.00572012,0.0243408,643,1051,-9.59007,-0.568078
-574,-27,-9.64453,0.744507,0.000934317,8.90667e-05,-0.00509482,0.00562401,-0.00460062,-0.744017,0.00591304,0.0368003,650,1051,-9.64456,-0.744455
-567,-27,-9.65839,0.997681,0.00119408,0.000591406,-0.00508953,0.00599118,-0.0042057,-0.755829,0.00591718,0.043966,657,1051,-9.65837,-0.997656
-560,-27,-9.58179,1.19434,0.00144687,0.00124198,-0.00491504,0.00626053,-0.00357168,-0.774978,0.00574695,0.0467706,664,1051,-9.58181,-1.19437
-553,-27,-9.26611,0.320679,0.00164128,0.00201543,-0.0045576,0.00638979,-0.00273308,-0.80591,0.00540629,0.0421559,671,1051,-9.26612,-0.320668
-546,-27,-9.62195,0.734375,0,0,0,0,0,0,0,-1,678,1051,-9.62194,-0.734355
-539,-27,-9.54645,0.697632,0.00151366,0.003671,-0.00355916,0.00631135,-0.0011267,-0.932533,0.00462906,0.0421183,685,1051,-9.54643,-0.697615
-532,-27,-9.65228,0.756226,0.000830585,0.00436101,-0.00391083,0.00688655,-0.00169495,-0.997392,0.00524806,0.041841,692,1051,-9.65231,-0.756173
-525,-27,0,0,0,0,0,0,0,0,0,-1,699,1051,0,0
-518,-27,0,0,0,0,0,0,0,0,0,-1,706,1051,0,0
-511,-27,0,0,0,0,0,0,0,0,0,-1,713,1051,0,0
-504,-27,0,0,0,0,0,0,0,0,0,-1,720,1051,0,0
-497,-27,0,0,0,0,0,0,0,0,0,-1,727,1051,0,0
-490,-27,0,0,0,0,0,0,0,0,0,-1,734,1051,0,0
-483,-27,0,0,0,0,0,0,0,0,0,-1,741,1051,0,0
-476,-27,0,0,0,0,0,0,0,0,0,-1,748,1051,0,0
-469,-27,0,0,0,0,0,0,0,0,0,-1,755,1051,0,0
-462,-27,0,0,0,0,0,0,0,0,0,-1,762,1051,0,0
-455,-27,0,0,0,0,0,0,0,0,0,-1,769,1051,0,0
-448,-27,0,0,0,0,0,0,0,0,0,-1,776,1051,0,0
-441,-27,0,0,0,0,0,0,0,0,0,-1,783,1051,0,0
-434,-27,0,0,0,0,0,0,0,0,0,-1,790,1051,0,0
-427,-27,0,0,0,0,0,0,0,0,0,-1,797,1051,0,0
-420,-27,0,0,0,0,0,0,0,0,0,-1,804,1051,0,0
-413,-27,0,0,0,0,0,0,0,0,0,-1,811,1051,0,0
-406,-27,0,0,0,0,0,0,0,0,0,-1,818,1051,0,0
-399,-27,0,0,0,0,0,0,0,0,0,-1,825,1051,0,0
-392,-27,0,0,0,0,0,0,0,0,0,-1,832,1051,0,0
-385,-27,0,0,0,0,0,0,0,0,0,-1,839,1051,0,0
-378,-27,0,0,0,0,0,0,0,0,0,-1,846,1051,0,0
-371,-27,0,0,0,0,0,0,0,0,0,-1,853,1051,0,0
-364,-27,0,0,0,0,0,0,0,0,0,-1,860,1051,0,0
-357,-27,0,0,0,0,0,0,0,0,0,-1,867,1051,0,0
-350,-27,0,0,0,0,0,0,0,0,0,-1,874,1051,0,0
-343,-27,0,0,0,0,0,0,0,0,0,-1,881,1051,0,0
-336,-27,0,0,0,0,0,0,0,0,0,-1,888,1051,0,0
-329,-27,0,0,0,0,0,0,0,0,0,-1,895,1051,0,0
-322,-27,0,0,0,0,0,0,0,0,0,-1,902,1051,0,0
-315,-27,0,0,0,0,0,0,0,0,0,-1,909,1051,0,0
-308,-27,0,0,0,0,0,0,0,0,0,-1,916,1051,0,0
-301,-27,0,0,0,0,0,0,0,0,0,-1,923,1051,0,0
-294,-27,0,0,0,0,0,0,0,0,0,-1,930,1051,0,0
-287,-27,0,0,0,0,0,0,0,0,0,-1,937,1051,0,0
-280,-27,0,0,0,0,0,0,0,0,0,-1,944,1051,0,0
-273,-27,0,0,0,0,0,0,0,0,0,-1,951,1051,0,0
-266,-27,0,0,0,0,0,0,0,0,0,-1,958,1051,0,0
-259,-27,0,0,0,0,0,0,0,0,0,-1,965,1051,0,0
-252,-27,0,0,0,0,0,0,0,0,0,-1,972,1051,0,0
-245,-27,0,0,0,0,0,0,0,0,0,-1,979,1051,0,0
-238,-27,0,0,0,0,0,0,0,0,0,-1,986,1051,0,0
-231,-27,0,0,0,0,0,0,0,0,0,-1,993,1051,0,0
-224,-27,0,0,0,0,0,0,0,0,0,-1,1000,1051,0,0
-217,-27,0,0,0,0,0,0,0,0,0,-1,1007,1051,0,0
-210,-27,0,0,0,0,0,0,0,0,0,-1,1014,1051,0,0
-203,-27,0,0,0,0,0,0,0,0,0,-1,1021,1051,0,0
-196,-27,0,0,0,0,0,0,0,0,0,-1,1028,1051,0,0
-189,-27,0,0,0,0,0,0,0,0,0,-1,1035,1051,0,0
-182,-27,0,0,0,0,0,0,0,0,0,-1,1042,1051,0,0
-175,-27,0,0,0,0,0,0,0,0,0,-1,1049,1051,0,0
-168,-27,0,0,0,0,0,0,0,0,0,-1,1056,1051,0,0
-161,-27,0,0,0,0,0,0,0,0,0,-1,1063,1051,0,0
-154,-27,0,0,0,0,0,0,0,0,0,-1,1070,1051,0,0
-147,-27,0,0,0,0,0,0,0,0,0,-1,1077,1051,0,0
-140,-27,0,0,0,0,0,0,0,0,0,-1,1084,1051,0,0
-133,-27,0,0,0,0,0,0,0,0,0,-1,1091,1051,0,0
-126,-27,0,0,0,0,0,0,0,0,0,-1,1098,1051,0,0
-119,-27,0,0,0,0,0,0,0,0,0,-1,1105,1051,0,0
-112,-27,0,0,0,0,0,0,0,0,0,-1,1112,1051,0,0
-105,-27,0,0,0,0,0,0,0,0,0,-1,1119,1051,0,0
-98,-27,0,0,0,0,0,0,0,0,0,-1,1126,1051,0,0
-91,-27,0,0,0,0,0,0,0,0,0,-1,1133,1051,0,0
-84,-27,0,0,0,0,0,0,0,0,0,-1,1140,1051,0,0
-77,-27,0,0,0,0,0,0,0,0,0,-1,1147,1051,0,0
-70,-27,0,0,0,0,0,0,0,0,0,-1,1154,1051,0,0
-63,-27,0,0,0,0,0,0,0,0,0,-1,1161,1051,0,0
-56,-27,0,0,0,0,0,0,0,0,0,-1,1168,1051,0,0
-49,-27,0,0,0,0,0,0,0,0,0,-1,1175,1051,0,0
-42,-27,0,0,0,0,0,0,0,0,0,-1,1182,1051,0,0
-35,-27,0,0,0,0,0,0,0,0,0,-1,1189,1051,0,0
-28,-27,0,0,0,0,0,0,0,0,0,-1,1196,1051,0,0
-21,-27,0,0,0,0,0,0,0,0,0,-1,1203,1051,0,0
-14,-27,0,0,0,0,0,0,0,0,0,-1,1210,1051,0,0
-7,-27,0,0,0,0,0,0,0,0,0,-1,1217,1051,0,0
0,-27,0,0,0,0,0,0,0,0,0,-1,1224,1051,0,0
7,-27,0,0,0,0,0,0,0,0,0,-1,1231,1051,0,0
14,-27,0,0,0,0,0,0,0,0,0,-1,1238,1051,0,0
21,-27,0,0,0,0,0,0,0,0,0,-1,1245,1051,0,0
28,-27,0,0,0,0,0,0,0,0,0,-1,1252,1051,0,0
35,-27,0,0,0,0,0,0,0,0,0,-1,1259,1051,0,0
42,-27,0,0,0,0,0,0,0,0,0,-1,1266,1051,0,0
49,-27,0,0,0,0,0,0,0,0,0,-1,1273,1051,0,0
56,-27,0,0,0,0,0,0,0,0,0,-1,1280,1051,0,0
63,-27,0,0,0,0,0,0,0,0,0,-1,1287,1051,0,0
70,-27,0,0,0,0,0,0,0,0,0,-1,1294,1051,0,0
77,-27,0,0,0,0,0,0,0,0,0,-1,1301,1051,0,0
84,-27,0,0,0,0,0,0,0,0,0,-1,1308,1051,0,0
91,-27,0,0,0,0,0,0,0,0,0,-1,1315,1051,0,0
98,-27,0,0,0,0,0,0,0,0,0,-1,1322,1051,0,0
105,-27,0,0,0,0,0,0,0,0,0,-1,1329,1051,0,0
112,-27,0,0,0,0,0,0,0,0,0,-1,1336,1051,0,0
119,-27,0,0,0,0,0,0,0,0,0,-1,1343,1051,0,0
126,-27,0,0,0,0,0,0,0,0,0,-1,1350,1051,0,0
133,-27,0,0,0,0,0,0,0,0,0,-1,1357,1051,0,0
140,-27,0,0,0,0,0,0,0,0,0,-1,1364,1051,0,0
147,-27,0,0,0,0,0,0,0,0,0,-1,1371,1051,0,0
154,-27,0,0,0,0,0,0,0,0,0,-1,1378,1051,0,0
161,-27,0,0,0,0,0,0,0,0,0,-1,1385,1051,0,0
168,-27,0,0,0,0,0,0,0,0,0,-1,1392,1051,0,0
175,-27,0,0,0,0,0,0,0,0,0,-1,1399,1051,0,0
182,-27,0,0,0,0,0,0,0,0,0,-1,1406,1051,0,0
189,-27,0,0,0,0,0,0,0,0,0,-1,1413,1051,0,0
196,-27,0,0,0,0,0,0,0,0,0,-1,1420,1051,0,0
203,-27,0,0,0,0,0,0,0,0,0,-1,1427,1051,0,0
210,-27,0,0,0,0,0,0,0,0,0,-1,1434,1051,0,0
217,-27,0,0,0,0,0,0,0,0,0,-1,1441,1051,0,0
224,-27,0,0,0,0,0,0,0,0,0,-1,1448,1051,0,0
231,-27,0,0,0,0,0,0,0,0,0,-1,1455,1051,0,0
238,-27,0,0,0,0,0,0,0,0,0,-1,1462,1051,0,0
245,-27,0,0,0,0,0,0,0,0,0,-1,1469,1051,0,0
252,-27,0,0,0,0,0,0,0,0,0,-1,1476,1051,0,0
259,-27,0,0,0,0,0,0,0,0,0,-1,1483,1051,0,0
266,-27,0,0,0,0,0,0,0,0,0,-1,1490,1051,0,0
273,-27,0,0,0,0,0,0,0,0,0,-1,1497,1051,0,0
280,-27,0,0,0,0,0,0,0,0,0,-1,1504,1051,0,0
287,-27,0,0,0,0,0,0,0,0,0,-1,1511,1051,0,0
294,-27,0,0,0,0,0,0,0,0,0,-1,1518,1051,0,0
301,-27,0,0,0,0,0,0,0,0,0,-1,1525,1051,0,0
308,-27,0,0,0,0,0,0,0,0,0,-1,1532,1051,0,0
315,-27,0,0,0,0,0,0,0,0,0,-1,1539,1051,0,0
322,-27,0,0,0,0,0,0,0,0,0,-1,1546,1051,0,0
329,-27,0,0,0,0,0,0,0,0,0,-1,1553,1051,0,0
336,-27,0,0,0,0,0,0,0,0,0,-1,1560,1051,0,0
343,-27,0,0,0,0,0,0,0,0,0,-1,1567,1051,0,0
350,-27,0,0,0,0,0,0,0,0,0,-1,1574,1051,0,0
357,-27,0,0,0,0,0,0,0,0,0,-1,1581,1051,0,0
364,-27,0,0,0,0,0,0,0,0,0,-1,1588,1051,0,0
371,-27,0,0,0,0,0,0,0,0,0,-1,1595,1051,0,0
378,-27,0,0,0,0,0,0,0,0,0,-1,1602,1051,0,0
385,-27,0,0,0,0,0,0,0,0,0,-1,1609,1051,0,0
392,-27,0,0,0,0,0,0,0,0,0,-1,1616,1051,0,0
399,-27,0,0,0,0,0,0,0,0,0,-1,1623,1051,0,0
406,-27,0,0,0,0,0,0,0,0,0,-1,1630,1051,0,0
413,-27,0,0,0,0,0,0,0,0,0,-1,1637,1051,0,0
420,-27,0,0,0,0,0,0,0,0,0,-1,1644,1051,0,0
427,-27,0,0,0,0,0,0,0,0,0,-1,1651,1051,0,0
434,-27,0,0,0,0,0,0,0,0,0,-1,1658,1051,0,0
441,-27,0,0,0,0,0,0,0,0,0,-1,1665,1051,0,0
448,-27,0,0,0,0,0,0,0,0,0,-1,1672,1051,0,0
455,-27,0,0,0,0,0,0,0,0,0,-1,1679,1051,0,0
462,-27,0,0,0,0,0,0,0,0,0,-1,1686,1051,0,0
469,-27,0,0,0,0,0,0,0,0,0,-1,1693,1051,0,0
476,-27,0,0,0,0,0,0,0,0,0,-1,1700,1051,0,0
483,-27,0,0,0,0,0,0,0,0,0,-1,1707,1051,0,0
490,-27,0,0,0,0,0,0,0,0,0,-1,1714,1051,0,0
497,-27,0,0,0,0,0,0,0,0,0,-1,1721,1051,0,0
504,-27,0,0,0,0,0,0,0,0,0,-1,1728,1051,0,0
511,-27,0,0,0,0,0,0,0,0,0,-1,1735,1051,0,0
518,-27,0,0,0,0,0,0,0,0,0,-1,1742,1051,0,0
525,-27,0,0,0,0,0,0,0,0,0,-1,1749,1051,0,0
532,-27,0,0,0,0,0,0,0,0,0,-1,1756,1051,0,0
539,-27,0,0,0,0,0,0,0,0,0,-1,1763,1051,0,0
546,-27,0,0,0,0,0,0,0,0,0,-1,1770,1051,0,0
553,-27,0,0,0,0,0,0,0,0,0,-1,1777,1051,0,0
560,-27,0,0,0,0,0,0,0,0,0,-1,1784,1051,0,0
567,-27,0,0,0,0,0,0,0,0,0,-1,1791,1051,0,0
574,-27,0,0,0,0,0,0,0,0,0,-1,1798,1051,0,0
581,-27,0,0,0,0,0,0,0,0,0,-1,1805,1051,0,0
588,-27,0,0,0,0,0,0,0,0,0,-1,1812,1051,0,0
595,-27,0,0,0,0,0,0,0,0,0,-1,1819,1051,0,0
602,-27,0,0,0,0,0,0,0,0,0,-1,1826,1051,0,0
609,-27,0,0,0,0,0,0,0,0,0,-1,1833,1051,0,0
616,-27,0,0,0,0,0,0,0,0,0,-1,1840,1051,0,0
623,-27,0,0,0,0,0,0,0,0,0,-1,1847,1051,0,0
630,-27,0,0,0,0,0,0,0,0,0,-1,1854,1051,0,0
637,-27,0,0,0,0,0,0,0,0,0,-1,1861,1051,0,0
644,-27,0,0,0,0,0,0,0,0,0,-1,1868,1051,0,0
651,-27,15.8197,2.5697,0.00194988,0.000120582,-0.00158598,0.00286605,-0.000795594,-0.52384,0.00222386,0.0429344,1875,1051,15.8196,-2.56966
658,-27,15.6492,2.54602,0.000932442,0.000303035,-0.00147435,0.0021253,-0.000889823,-0.68025,0.00178883,0.0421012,1882,1051,15.6492,-2.54606
665,-27,15.594,2.48328,0.000174363,0.000347566,-0.00130191,0.00156575,-0.00104382,-0.818609,0.00151665,0.0360534,1889,1051,15.594,-2.48331
672,-27,15.5942,2.4259,-0.000299405,0.000263635,-0.000564806,0.000613193,-0.000648963,-1.0166,0.000728803,0.0269838,1896,1051,15.5943,-2.42588
679,-27,15.5588,2.32434,-0.00115296,7.28348e-05,0.000722277,0.000407211,-0.00148734,1.13723,0.00115155,0.0266079,1903,1051,15.5588,-2.32431
686,-27,15.7083,2.13599,-0.00209061,-0.000156293,0.00206345,0.00115542,-0.00340231,1.00455,0.00273592,0.0389252,1910,1051,15.7083,-2.13595
693,-27,15.7953,2.1217,-0.00287849,-0.000387037,0.00329378,0.00188872,-0.00515424,0.966187,0.00420943,0.0420222,1917,1051,15.7952,-2.12171
700,-27,15.6865,2.28186,-0.0035909,-0.00055945,0.00431516,0.00249845,-0.0066488,0.954295,0.00545936,0.0379516,1924,1051,15.6865,-2.28187
707,-27,15.615,2.28455,-0.00411369,-0.000682789,0.0050758,0.0029596,-0.00775608,0.948355,0.00638996,0.0249873,1931,1051,15.615,-2.28452
714,-27,15.6569,2.38733,-0.00454087,-0.000779103,0.00565676,0.00330127,-0.00862125,0.945899,0.00710823,0.0221874,1938,1051,15.6569,-2.38732
721,-27,15.7153,2.5448,-0.00480861,-0.000828114,0.00593639,0.00344278,-0.0090795,0.947141,0.0074699,0.0247868,1945,1051,15.7153,-2.54481
728,-27,15.5115,2.93164,-0.00478175,-0.000711137,0.00580756,0.00340743,-0.00890032,0.95394,0.00733799,0.0251533,1952,1051,15.5115,-2.93162
735,-27,15.2673,3.11487,-0.00469245,-0.000428462,0.00531653,0.00316762,-0.00828854,0.976088,0.00683093,0.0172147,1959,1051,15.2673,-3.11491
742,-27,15.2869,3.13794,-0.00433442,-0.000161423,0.00452484,0.00273481,-0.00723066,1.00143,0.00594554,0.0171685,1966,1051,15.2868,-3.13799
749,-27,15.3335,3.14661,-0.00355052,0.000391132,0.00377069,0.00267498,-0.00583436,1.02621,0.00502448,0.0123717,1973,1051,15.3335,-3.14663
756,-27,15.3422,3.15125,-0.00273898,0.00125989,0.00279804,0.00269947,-0.00417855,1.09562,0.00400152,0.01147,1980,1051,15.3421,-3.15119
763,-27,15.3218,3.13062,-0.00201563,0.00206994,0.0014561,0.00253578,-0.00248147,1.26116,0.00289677,0.0126515,1987,1051,15.3218,-3.13063
770,-27,15.3015,3.13257,-0.00118315,0.00309844,0.000134939,0.00310269,-0.0011874,1.53932,0.00255784,0.0149492,1994,1051,15.3015,-3.13259
777,-27,15.3102,3.17004,-0.000147701,0.00432664,-0.00117961,0.00461858,-0.000439642,-1.32818,0.00323557,0.0161193,2001,1051,15.3102,-3.17008
784,-27,15.3125,3.1665,0.000631583,0.00570868,-0.00216416,0.00650597,-0.000165709,-1.21782,0.00439359,0.0233089,2008,1051,15.3125,-3.16652
791,-27,15.334,3.16711,0.0010246,0.00727121,-0.00316686,0.00859582,-0.000300022,-1.17464,0.00583313,0.0410625,2015,1051,15.334,-3.16706
798,-27,15.3638,3.17065,0.00142527,0.0090304,-0.00453424,0.0111455,-0.000689829,-1.13433,0.00767063,0.046294,2022,1051,15.3638,-3.17064
805,-27,15.422,3.11914,0,0,0,0,0,0,0,-1,2029,1051,15.422,-3.11912
812,-27,14.646,2.21252,0,0,0,0,0,0,0,-1,2036,1051,14.6459,-2.21252
-700,-34,-11.4561,0.649414,0.0816307,0.0115231,0.0268105,0.0907082,0.00244562,0.326465,0.0596736,0.0484565,524,1058,-11.4561,-0.649461
-693,-34,-10.1803,0.839111,0.0694286,0.00955265,0.0176589,0.0742486,0.00473263,0.266461,0.0479994,0.0466893,531,1058,-10.1803,-0.839144
-686,-34,-12.463,1.14343,0,0,0,0,0,0,0,-1,538,1058,-12.463,-1.14345
-679,-34,-12.772,0.772827,0,0,0,0,0,0,0,-1,545,1058,-12.772,-0.772777
-672,-34,-13.081,0.4021,0,0,0,0,0,0,0,-1,552,1058,-13.081,-0.402101
-665,-34,-9.01758,0.506592,0,0,0,0,0,0,0,-1,559,1058,-9.01756,-0.506539
-658,-34,-9.27069,0.768311,0.0210349,0.00379433,0.000374859,0.0210431,0.00378618,0.0217291,0.0129524,0.0413671,566,1058,-9.27069,-0.768262
-651,-34,-9.48059,0.8927,0.0150213,0.0030699,-0.000210829,0.015025,0.00306618,-0.0176332,0.00916716,0.0275406,573,1058,-9.48061,-0.89273
-644,-34,-9.57886,0.942993,0.00907477,0.00266473,-0.00114776,0.00927409,0.00246541,-0.171942,0.00554667,0.0110068,580,1058,-9.57888,-0.942952
-637,-34,-9.57446,0.948364,0.00514193,0.00154837,-0.00215957,0.00615445,0.000535848,-0.43842,0.00393653,0.0110796,587,1058,-9.57446,-0.94838
-630,-34,-9.58881,1.00061,0.00326779,0.000900613,-0.00229635,0.00466763,-0.000499228,-0.547444,0.00329081,0.0135221,594,1058,-9.58883,-1.00055
-623,-34,-9.57104,1.01807,0.00152907,0.000305944,-0.00241612,0.00340983,-0.00157481,-0.661443,0.00294217,0.0119582,601,1058,-9.57105,-1.01801
-616,-34,-9.55853,1.05212,0.000172736,8.98771e-05,-0.00196095,0.0020927,-0.00183008,-0.774836,0.00226651,0.0189289,608,1058,-9.55856,-1.05216
-609,-34,-9.56342,1.06616,-0.000241342,-8.3714e-05,-0.00264813,0.00248677,-0.00281183,-0.800275,0.00306107,0.0189715,615,1058,-9.56344,-1.06621
-602,-34,-9.56055,1.09229,-0.000175705,-0.00035672,-0.0037017,0.0034366,-0.00396902,-0.773175,0.00427932,0.0140112,622,1058,-9.56056,-1.09225
-595,-34,-9.55859,1.15613,8.22203e-05,-0.000391542,-0.00445024,0.00430188,-0.0046112,-0.758809,0.00514701,0.0116779,629,1058,-9.55862,-1.15613
-588,-34,-9.60168,0.861328,0.000375479,-0.000287952,-0.00480253,0.00485774,-0.00477021,-0.750917,0.00555878,0.0223671,636,1058,-9.60171,-0.861362
-581,-34,-9.57434,0.597046,0.000622892,-7.34377e-05,-0.00499401,0.00528086,-0.0047314,-0.750596,0.00578348,0.0252175,643,1058,-9.57432,-0.59709
-574,-34,-9.51953,0.633057,0.000942587,0.000303706,-0.00509352,0.00572667,-0.00448038,-0.754082,0.00590767,0.0368951,650,1058,-9.51955,-0.633103
-567,-34,-9.47235,0.602783,0.00125627,0.000829426,-0.00498982,0.00603723,-0.00395154,-0.764026,0.00580877,0.041111,657,1058,-9.47234,-0.602786
-560,-34,-9.47876,0.581299,0.00157225,0.0014739,-0.00468009,0.00620342,-0.00315727,-0.780145,0.00549896,0.0404736,664,1058,-9.47875,-0.581291
-553,-34,-9.57452,0.625366,0.00183385,0.00219937,-0.0041503,0.00617093,-0.00213772,-0.807402,0.00498183,0.0430895,671,1058,-9.57454,-0.625332
-546,-34,-9.61603,0.79541,0.00196578,0.00294805,-0.00336617,0.00585872,-0.000944895,-0.857838,0.00425589,0.0453004,678,1058,-9.61605,-0.795378
-539,-34,-9.42004,0.673706,0.00183159,0.00358298,-0.00266385,0.00551137,-9.68077e-05,-0.9442,0.00370694,0.0426967,685,1058,-9.42004,-0.673656
-532,-34,-9.48718,0.576538,0.00111328,0.00396088,-0.00278101,0.00566138,-0.000587217,-1.02199,0.00398444,0.040728,692,1058,-9.48719,-0.576576
-525,-34,0,0,0,0,0,0,0,0,0,-1,699,1058,0,0
-518,-34,0,0,0,0,0,0,0,0,0,-1,706,1058,0,0
-511,-34,0,0,0,0,0,0,0,0,0,-1,713,1058,0,0
-504,-34,0,0,0,0,0,0,0,0,0,-1,720,1058,0,0
-497,-34,0,0,0,0,0,0,0,0,0,-1,727,1058,0,0
-490,-34,0,0,0,0,0,0,0,0,0,-1,734,1058,0,0
-483,-34,0,0,0,0,0,0,0,0,0,-1,741,1058,0,0
-476,-34,0,0,0,0,0,0,0,0,0,-1,748,1058,0,0
-469,-34,0,0,0,0,0,0,0,0,0,-1,755,1058,0,0
-462,-34,0,0,0,0,0,0,0,0,0,-1,762,1058,0,0
-455,-34,0,0,0,0,0,0,0,0,0,-1,769,1058,0,0
-448,-34,0,0,0,0,0,0,0,0,0,-1,776,1058,0,0
-441,-34,0,0,0,0,0,0,0,0,0,-1,783,1058,0,0
-434,-34,0,0,0,0,0,0,0,0,0,-1,790,1058,0,0
-427,-34,0,0,0,0,0,0,0,0,0,-1,797,1058,0,0
-420,-34,0,0,0,0,0,0,0,0,0,-1,804,1058,0,0
-413,-34,0,0,0,0,0,0,0,0,0,-1,811,1058,0,0
-406,-34,0,0,0,0,0,0,0,0,0,-1,818,1058,0,0
-399,-34,0,0,0,0,0,0,0,0,0,-1,825,1058,0,0
-392,-34,0,0,0,0,0,0,0,0,0,-1,832,1058,0,0
-385,-34,0,0,0,0,0,0,0,0,0,-1,839,1058,0,0
-378,-34,0,0,0,0,0,0,0,0,0,-1,846,1058,0,0
-371,-34,0,0,0,0,0,0,0,0,0,-1,853,1058,0,0
-364,-34,0,0,0,0,0,0,0,0,0,-1,860,1058,0,0
-357,-34,0,0,0,0,0,0,0,0,0,-1,867,1058,0,0
-350,-34,0,0,0,0,0,0,0,0,0,-1,874,1058,0,0
-343,-34,0,0,0,0,0,0,0,0,0,-1,881,1058,0,0
-336,-34,0,0,0,0,0,0,0,0,0,-1,888,1058,0,0
-329,-34,0,0,0,0,0,0,0,0,0,-1,895,1058,0,0
-322,-34,0,0,0,0,0,0,0,0,0,-1,902,1058,0,0
-315,-34,0,0,0,0,0,0,0,0,0,-1,909,1058,0,0
-308,-34,0,0,0,0,0,0,0,0,0,-1,916,1058,0,0
-301,-34,0,0,0,0,0,0,0,0,0,-1,923,1058,0,0
-294,-34,0,0,0,0,0,0,0,0,0,-1,930,1058,0,0
-287,-34,0,0,0,0,0,0,0,0,0,-1,937,1058,0,0
-280,-34,0,0,0,0,0,0,0,0,0,-1,944,1058,0,0
-273,-34,0,0,0,0,0,0,0,0,0,-1,951,1058,0,0
-266,-34,0,0,0,0,0,0,0,0,0,-1,958,1058,0,0
-259,-34,0,0,0,0,0,0,0,0,0,-1,965,1058,0,0
-252,-34,0,0,0,0,0,0,0,0,0,-1,972,1058,0,0
-245,-34,0,0,0,0,0,0,0,0,0,-1,979,1058,0,0
-238,-34,0,0,0,0,0,0,0,0,0,-1,986,1058,0,0
-231,-34,0,0,0,0,0,0,0,0,0,-1,993,1058,0,0
-224,-34,0,0,0,0,0,0,0,0,0,-1,1000,1058,0,0
-217,-34,0,0,0,0,0,0,0,0,0,-1,1007,1058,0,0
-210,-34,0,0,0,0,0,0,0,0,0,-1,1014,1058,0,0
-203,-34,0,0,0,0,0,0,0,0,0,-1,1021,1058,0,0
-196,-34,0,0,0,0,0,0,0,0,0,-1,1028,1058,0,0
-189,-34,0,0,0,0,0,0,0,0,0,-1,1035,1058,0,0
-182,-34,0,0,0,0,0,0,0,0,0,-1,1042,1058,0,0
-175,-34,0,0,0,0,0,0,0,0,0,-1,1049,1058,0,0
-168,-34,0,0,0,0,0,0,0,0,0,-1,1056,1058,0,0
-161,-34,0,0,0,0,0,0,0,0,0,-1,1063,1058,0,0
-154,-34,0,0,0,0,0,0,0,0,0,-1,1070,1058,0,0
-147,-34,0,0,0,0,0,0,0,0,0,-1,1077,1058,0,0
-140,-34,0,0,0,0,0,0,0,0,0,-1,1084,1058,0,0
-133,-34,0,0,0,0,0,0,0,0,0,-1,1091,1058,0,0
-126,-34,0,0,0,0,0,0,0,0,0,-1,1098,1058,0,0
-119,-34,0,0,0,0,0,0,0,0,0,-1,1105,1058,0,0
-112,-34,0,0,0,0,0,0,0,0,0,-1,1112,1058,0,0
-105,-34,0,0,0,0,0,0,0,0,0,-1,1119,1058,0,0
-98,-34,0,0,0,0,0,0,0,0,0,-1,1126,1058,0,0
-91,-34,0,0,0,0,0,0,0,0,0,-1,1133,1058,0,0
-84,-34,0,0,0,0,0,0,0,0,0,-1,1140,1058,0,0
-77,-34,0,0,0,0,0,0,0,0,0,-1,1147,1058,0,0
-70,-34,0,0,0,0,0,0,0,0,0,-1,1154,1058,0,0
-63,-34,0,0,0,0,0,0,0,0,0,-1,1161,1058,0,0
-56,-34,0,0,0,0,0,0,0,0,0,-1,1168,1058,0,0
-49,-34,0,0,0,0,0,0,0,0,0,-1,1175,1058,0,0
-42,-34,0,0,0,0,0,0,0,0,0,-1,1182,1058,0,0
-35,-34,0,0,0,0,0,0,0,0,0,-1,1189,1058,0,0
-28,-34,0,0,0,0,0,0,0,0,0,-1,1196,1058,0,0
-21,-34,0,0,0,0,0,0,0,0,0,-1,1203,1058,0,0
-14,-34,0,0,0,0,0,0,0,0,0,-1,1210,1058,0,0
-7,-34,0,0,0,0,0,0,0,0,0,-1,1217,1058,0,0
0,-34,0,0,0,0,0,0,0,0,0,-1,1224,1058,0,0
7,-34,0,0,0,0,0,0,0,0,0,-1,1231,1058,0,0
14,-34,0,0,0,0,0,0,0,0,0,-1,1238,1058,0,0
21,-34,0,0,0,0,0,0,0,0,0,-1,1245,1058,0,0
28,-34,0,0,0,0,0,0,0,0,0,-1,1252,1058,0,0
35,-34,0,0,0,0,0,0,0,0,0,-1,1259,1058,0,0
42,-34,0,0,0,0,0,0,0,0,0,-1,1266,1058,0,0
49,-34,0,0,0,0,0,0,0,0,0,-1,1273,1058,0,0
56,-34,0,0,0,0,0,0,0,0,0,-1,1280,1058,0,0
63,-34,0,0,0,0,0,0,0,0,0,-1,1287,1058,0,0
70,-34,0,0,0,0,0,0,0,0,0,-1,1294,1058,0,0
77,-34,0,0,0,0,0,0,0,0,0,-1,1301,1058,0,0
84,-34,0,0,0,0,0,0,0,0,0,-1,1308,1058,0,0
91,-34,0,0,0,0,0,0,0,0,0,-1,1315,1058,0,0
98,-34,0,0,0,0,0,0,0,0,0,-1,1322,1058,0,0
105,-34,0,0,0,0,0,0,0,0,0,-1,1329,1058,0,0
112,-34,0,0,0,0,0,0,0,0,0,-1,1336,1058,0,0
119,-34,0,0,0,0,0,0,0,0,0,-1,1343,1058,0,0
126,-34,0,0,0,0,0,0,0,0,0,-1,1350,1058,0,0
133,-34,0,0,0,0,0,0,0,0,0,-1,1357,1058,0,0
140,-34,0,0,0,0,0,0,0,0,0,-1,1364,1058,0,0
147,-34,0,0,0,0,0,0,0,0,0,-1,1371,1058,0,0
154,-34,0,0,0,0,0,0,0,0,0,-1,1378,1058,0,0
161,-34,0,0,0,0,0,0,0,0,0,-1,1385,1058,0,0
168,-34,0,0,0,0,0,0,0,0,0,-1,1392,1058,0,0
175,-34,0,0,0,0,0,0,0,0,0,-1,1399,1058,0,0
182,-34,0,0,0,0,0,0,0,0,0,-1,1406,1058,0,0
189,-34,0,0,0,0,0,0,0,0,0,-1,1413,1058,0,0
196,-34,0,0,0,0,0,0,0,0,0,-1,1420,1058,0,0
203,-34,0,0,0,0,0,0,0,0,0,-1,1427,1058,0,0
210,-34,0,0,0,0,0,0,0,0,0,-1,1434,1058,0,0
217,-34,0,0,0,0,0,0,0,0,0,-1,1441,1058,0,0
224,-34,0,0,0,0,0,0,0,0,0,-1,1448,1058,0,0
231,-34,0,0,0,0,0,0,0,0,0,-1,1455,1058,0,0
238,-34,0,0,0,0,0,0,0,0,0,-1,1462,1058,0,0
245,-34,0,0,0,0,0,0,0,0,0,-1,1469,1058,0,0
252,-34,0,0,0,0,0,0,0,0,0,-1,1476,1058,0,0
259,-34,0,0,0,0,0,0,0,0,0,-1,1483,1058,0,0
266,-34,0,0,0,0,0,0,0,0,0,-1,1490,1058,0,0
273,-34,0,0,0,0,0,0,0,0,0,-1,1497,1058,0,0
280,-34,0,0,0,0,0,0,0,0,0,-1,1504,1058,0,0
287,-34,0,0,0,0,0,0,0,0,0,-1,1511,1058,0,0
294,-34,0,0,0,0,0,0,0,0,0,-1,1518,1058,0,0
301,-34,0,0,0,0,0,0,0,0,0,-1,1525,1058,0,0
308,-34,0,0,0,0,0,0,0,0,0,-1,1532,1058,0,0
315,-34,0,0,0,0,0,0,0,0,0,-1,1539,1058,0,0
322,-34,0,0,0,0,0,0,0,0,0,-1,1546,1058,0,0
329,-34,0,0,0,0,0,0,0,0,0,-1,1553,1058,0,0
336,-34,0,0,0,0,0,0,0,0,0,-1,1560,1058,0,0
343,-34,0,0,0,0,0,0,0,0,0,-1,1567,1058,0,0
350,-34,0,0,0,0,0,0,0,0,0,-1,1574,1058,0,0
357,-34,0,0,0,0,0,0,0,0,0,-1,1581,1058,0,0
364,-34,0,0,0,0,0,0,0,0,0,-1,1588,1058,0,0
371,-34,0,0,0,0,0,0,0,0,0,-1,1595,1058,0,0
378,-34,0,0,0,0,0,0,0,0,0,-1,1602,1058,0,0
385,-34,0,0,0,0,0,0,0,0,0,-1,1609,1058,0,0
392,-34,0,0,0,0,0,0,0,0,0,-1,1616,1058,0,0
399,-34,0,0,0,0,0,0,0,0,0,-1,1623,1058,0,0
406,-34,0,0,0,0,0,0,0,0,0,-1,1630,1058,0,0
413,-34,0,0,0,0,0,0,0,0,0,-1,1637,1058,0,0
420,-34,0,0,0,0,0,0,0,0,0,-1,1644,1058,0,0
427,-34,0,0,0,0,0,0,0,0,0,-1,1651,1058,0,0
434,-34,0,0,0,0,0,0,0,0,0,-1,1658,1058,0,0
441,-34,0,0,0,0,0,0,0,0,0,-1,1665,1058,0,0
448,-34,0,0,0,0,0,0,0,0,0,-1,1672,1058,0,0
455,-34,0,0,0,0,0,0,0,0,0,-1,1679,1058,0,0
462,-34,0,0,0,0,0,0,0,0,0,-1,1686,1058,0,0
469,-34,0,0,0,0,0,0,0,0,0,-1,1693,1058,0,0
476,-34,0,0,0,0,0,0,0,0,0,-1,1700,1058,0,0
483,-34,0,0,0,0,0,0,0,0,0,-1,1707,1058,0,0
490,-34,0,0,0,0,0,0,0,0,0,-1,1714,1058,0,0
497,-34,0,0,0,0,0,0,0,0,0,-1,1721,1058,0,0
504,-34,0,0,0,0,0,0,0,0,0,-1,1728,1058,0,0
511,-34,0,0,0,0,0,0,0,0,0,-1,1735,1058,0,0
518,-34,0,0,0,0,0,0,0,0,0,-1,1742,1058,0,0
525,-34,0,0,0,0,0,0,0,0,0,-1,1749,1058,0,0
532,-34,0,0,0,0,0,0,0,0,0,-1,1756,1058,0,0
539,-34,0,0,0,0,0,0,0,0,0,-1,1763,1058,0,0
546,-34,0,0,0,0,0,0,0,0,0,-1,1770,1058,0,0
553,-34,0,0,0,0,0,0,0,0,0,-1,1777,1058,0,0
560,-34,0,0,0,0,0,0,0,0,0,-1,1784,1058,0,0
567,-34,0,0,0,0,0,0,0,0,0,-1,1791,1058,0,0
574,-34,0,0,0,0,0,0,0,0,0,-1,1798,1058,0,0
581,-34,0,0,0,0,0,0,0,0,0,-1,1805,1058,0,0
588,-34,0,0,0,0,0,0,0,0,0,-1,1812,1058,0,0
595,-34,0,0,0,0,0,0,0,0,0,-1,1819,1058,0,0
602,-34,0,0,0,0,0,0,0,0,0,-1,1826,1058,0,0
609,-34,0,0,0,0,0,0,0,0,0,-1,1833,1058,0,0
616,-34,0,0,0,0,0,0,0,0,0,-1,1840,1058,0,0
623,-34,0,0,0,0,0,0,0,0,0,-1,1847,1058,0,0
630,-34,0,0,0,0,0,0,0,0,0,-1,1854,1058,0,0
637,-34,0,0,0,0,0,0,0,0,0,-1,1861,1058,0,0
644,-34,0,0,0,0,0,0,0,0,0,-1,1868,1058,0,0
651,-34,15.7797,2.50439,0.00183328,0.000979592,-0.00191816,0.00337152,-0.000558646,-0.675918,0.00245517,0.0425245,1875,1058,15.7797,-2.50444
658,-34,15.7167,2.42651,0.00083155,0.000764171,-0.00170325,0.00250144,-0.000905721,-0.77551,0.00203777,0.0436934,1882,1058,15.7166,-2.42646
665,-34,15.6906,2.44885,0.000119093,0.000574121,-0.00145054,0.00181488,-0.00112166,-0.863188,0.00171109,0.0401151,1889,1058,15.6906,-2.44889
672,-34,15.6781,2.37061,-0.000331759,0.000323249,-0.000610019,0.000688119,-0.000696629,-1.03175,0.00079949,0.0359369,1896,1058,15.6781,-2.37066
679,-34,15.516,2.42834,-0.00117007,-4.32304e-06,0.00077633,0.000383592,-0.00155798,1.10741,0.00118736,0.0348708,1903,1058,15.5159,-2.42832
686,-34,15.6008,2.37561,-0.00210057,-0.000330552,0.00219081,0.00114725,-0.00357837,0.977358,0.00284614,0.0402397,1910,1058,15.6009,-2.37556
693,-34,15.74,2.25659,-0.00288455,-0.000627623,0.00347616,0.00189865,-0.00541082,0.942346,0.00437951,0.042117,1917,1058,15.74,-2.25655
700,-34,15.6709,2.32947,-0.00357841,-0.000863114,0.0045354,0.00251348,-0.006955,0.930826,0.00566356,0.0396832,1924,1058,15.6709,-2.3295
707,-34,15.5894,2.40503,-0.00412255,-0.00101664,0.0053113,0.00296408,-0.00810328,0.927627,0.00661539,0.0261891,1931,1058,15.5893,-2.40499
714,-34,15.6406,2.40881,-0.00455788,-0.00110609,0.00590943,0.00332432,-0.00898829,0.927475,0.00735513,0.0219187,1938,1058,15.6406,-2.40878
721,-34,15.728,2.59973,-0.00478593,-0.0011442,0.00616097,0.00345935,-0.00938948,0.929082,0.00767712,0.0300218,1945,1058,15.7281,-2.59977
728,-34,15.5129,3.02087,-0.00471468,-0.00101207,0.0059711,0.00338813,-0.00911489,0.935721,0.00746676,0.0254545,1952,1058,15.513,-3.02088
735,-34,15.2781,3.16565,-0.00457798,-0.000719517,0.00545706,0.00313929,-0.00843679,0.955306,0.00691279,0.0142393,1959,1058,15.2781,-3.1657
742,-34,15.2699,3.13965,-0.00413269,-0.000394683,0.0046876,0.00278277,-0.00731015,0.975096,0.00601939,0.0146864,1966,1058,15.2699,-3.1397
749,-34,15.3124,3.1416,-0.00325176,0.00031482,0.0040062,0.00291671,-0.00585364,0.994797,0.00515733,0.0125136,1973,1058,15.3124,-3.14157
756,-34,15.3401,3.14795,-0.00237491,0.00139524,0.00320416,0.00322771,-0.00420738,1.05129,0.00430505,0.0101081,1980,1058,15.3401,-3.14796
763,-34,15.3287,3.13599,-0.00157729,0.00251284,0.00214871,0.00343413,-0.00249857,1.16574,0.00343941,0.0105062,1987,1058,15.3287,-3.13603
770,-34,15.3118,3.12708,-0.000638014,0.00390954,0.00115007,0.00418384,-0.000912321,1.33666,0.00313786,0.0159134,1994,1058,15.3118,-3.12706
777,-34,15.3083,3.14893,0.000479442,0.00565882,0.000326684,0.00567934,0.000458919,1.50805,0.00364291,0.0174052,2001,1058,15.3084,-3.14898
784,-34,15.2626,3.09729,0.00129769,0.00771635,4.36743e-05,0.00771665,0.0012974,1.56399,0.00477113,0.0323516,2008,1058,15.2625,-3.09729
791,-34,15.1472,2.953,0.00167219,0.0101984,-4.88823e-05,0.0101987,0.00167191,-1.56506,0.00631603,0.04421,2015,1058,15.1472,-2.95305
798,-34,15.2714,2.65613,0.00196374,0.0131959,-0.000234901,0.0132008,0.00195883,-1.5499,0.00822568,0.046674,2022,1058,15.2713,-2.65609
805,-34,15.3314,2.56335,0.00216884,0.0167887,-0.000642718,0.0168169,0.00214064,-1.52695,0.0105702,0.0457276,2029,1058,15.3315,-2.56334
812,-34,15.1235,2.2489,0.00188558,0.0210387,-0.00143144,0.0211451,0.00177919,-1.49661,0.0135427,0.0476473,2036,1058,15.1236,-2.24891
-700,-41,-12.3214,1.77258,0.105421,0.00561972,0.0287611,0.113116,-0.00207543,0.261431,0.076112,0.0456242,524,1065,-12.3214,-1.77256
-693,-41,-10.9204,1.36145,0.0893454,0.00378807,0.0186306,0.0932263,-9.28193e-05,0.20537,0.0621818,0.0424956,531,1065,-10.9204,-1.36151
-686,-41,-10.4568,1.14551,0,0,0,0,0,0,0,-1,538,1065,-10.4568,-1.14551
-679,-41,-10.0829,0.794922,0.0593618,0.00173108,0.0068956,0.0601753,0.000917494,0.117443,0.0398146,0.0444136,545,1065,-10.0829,-0.794887
-672,-41,-9.83398,0.0217285,0.046476,0.00123804,0.00358083,0.0467577,0.000956353,0.0785038,0.030858,0.0435059,552,1065,-9.834,-0.0217454
-665,-41,-9.45087,0.264771,0.0352678,0.000974189,0.00143369,0.0353277,0.000914358,0.0417093,0.023253,0.039304,559,1065,-9.45088,-0.26471
-658,-41,-9.26141,0.51062,0.0258119,0.000857369,0.000188449,0.0258133,0.000855945,0.00755113,0.0169308,0.0373233,566,1065,-9.26141,-0.510664
-651,-41,-9.41113,0.838867,0.0181581,0.000793891,-0.000402464,0.0181674,0.000784568,-0.0231612,0.0118587,0.0251155,573,1065,-9.41111,-0.838896
-644,-41,-9.54596,0.927979,0.0110728,0.00085481,-0.00140597,0.0112627,0.000664882,-0.134274,0.00729693,0.0112556,580,1065,-9.54597,-0.928026
-637,-41,-9.54205,0.933472,0.00578503,0.000244944,-0.0022864,0.00660675,-0.000576774,-0.345019,0.00460881,0.0117226,587,1065,-9.54208,-0.933522
-630,-41,-9.54706,0.968506,0.00305605,0.000138771,-0.00247229,0.00446792,-0.0012731,-0.518883,0.00348145,0.0113701,594,1065,-9.54703,-0.968515
-623,-41,-9.55072,0.997681,0.00132047,-0.00016805,-0.00257894,0.0032604,-0.00210798,-0.64492,0.00312315,0.010855,601,1065,-9.55074,-0.997643
-616,-41,-9.53644,1.04004,4.4895e-05,-0.000149099,-0.00219361,0.00214365,-0.00224785,-0.763304,0.00253567,0.0147397,608,1065,-9.53647,-1.04002
-609,-41,-9.51935,1.07703,-0.000351859,-0.000165702,-0.00278508,0.00252785,-0.00304542,-0.802102,0.00322235,0.0191689,615,1065,-9.51933,-1.07703
-602,-41,-9.54462,1.10132,-0.000294588,-0.000386927,-0.00382903,0.00348855,-0.00417007,-0.77937,0.00442754,0.0111246,622,1065,-9.54461,-1.10129
-595,-41,-9.54333,1.13647,-6.91603e-05,-0.000395436,-0.00458578,0.00435638,-0.00482098,-0.767618,0.00530082,0.013184,629,1065,-9.54334,-1.13647
-588,-41,-9.58466,0.806763,0.000201777,-0.000280103,-0.00493306,0.00489978,-0.0049781,-0.760997,0.00570306,0.0217323,636,1065,-9.58464,-0.806708
-581,-41,-9.57294,0.570313,0.000454952,-4.5087e-05,-0.005081,0.00529208,-0.00488222,-0.760815,0.00587573,0.0335454,643,1065,-9.57294,-0.570292
-574,-41,-9.51123,0.660034,0.000792958,0.000353872,-0.00512962,0.00570773,-0.0045609,-0.764012,0.00594091,0.0388364,650,1065,-9.51123,-0.660014
-567,-41,-9.4491,0.71167,0.00113919,0.000891158,-0.00493971,0.00595643,-0.00392609,-0.772848,0.00574568,0.0425717,657,1065,-9.44908,-0.711729
-560,-41,-9.5119,0.685791,0.00149851,0.00152674,-0.00450752,0.00602017,-0.00299492,-0.786963,0.00530165,0.0415303,664,1065,-9.5119,-0.685732
-553,-41,-9.61298,0.672607,0.00181015,0.00221381,-0.00382143,0.00583874,-0.00181477,-0.811781,0.00461785,0.0430255,671,1065,-9.61296,-0.672594
-546,-41,-9.56696,0.749512,0.00199622,0.00288805,-0.00283939,0.00531633,-0.00043206,-0.863286,0.00369667,0.0421464,678,1065,-9.56695,-0.749539
-539,-41,-9.48322,0.660522,0.00191345,0.00340611,-0.00188703,0.00468904,0.00063052,-0.973712,0.00293849,0.0419884,685,1065,-9.48321,-0.660576
-532,-41,-9.49481,0.512695,0.00114669,0.00353786,-0.00179251,0.00449692,0.000187632,-1.07951,0.0029374,0.0388056,692,1065,-9.49482,-0.512637
-525,-41,0,0,0,0,0,0,0,0,0,-1,699,1065,0,0
-518,-41,0,0,0,0,0,0,0,0,0,-1,706,1065,0,0
-511,-41,0,0,0,0,0,0,0,0,0,-1,713,1065,0,0
-504,-41,0,0,0,0,0,0,0,0,0,-1,720,1065,0,0
-497,-41,0,0,0,0,0,0,0,0,0,-1,727,1065,0,0
-490,-41,0,0,0,0,0,0,0,0,0,-1,734,1065,0,0
-483,-41,0,0,0,0,0,0,0,0,0,-1,741,1065,0,0
-476,-41,0,0,0,0,0,0,0,0,0,-1,748,1065,0,0
-469,-41,0,0,0,0,0,0,0,0,0,-1,755,1065,0,0
-462,-41,0,0,0,0,0,0,0,0,0,-1,762,1065,0,0
-455,-41,0,0,0,0,0,0,0,0,0,-1,769,1065,0,0
-448,-41,0,0,0,0,0,0,0,0,0,-1,776,1065,0,0
-441,-41,0,0,0,0,0,0,0,0,0,-1,783,1065,0,0
-434,-41,0,0,0,0,0,0,0,0,0,-1,790,1065,0,0
-427,-41,0,0,0,0,0,0,0,0,0,-1,797,1065,0,0
-420,-41,0,0,0,0,0,0,0,0,0,-1,804,1065,0,0
-413,-41,0,0,0,0,0,0,0,0,0,-1,811,1065,0,0
-406,-41,0,0,0,0,0,0,0,0,0,-1,818,1065,0,0
-399,-41,0,0,0,0,0,0,0,0,0,-1,825,1065,0,0
-392,-41,0,0,0,0,0,0,0,0,0,-1,832,1065,0,0
-385,-41,0,0,0,0,0,0,0,0,0,-1,839,1065,0,0
-378,-41,0,0,0,0,0,0,0,0,0,-1,846,1065,0,0
-371,-41,0,0,0,0,0,0,0,0,0,-1,853,1065,0,0
-364,-41,0,0,0,0,0,0,0,0,0,-1,860,1065,0,0
-357,-41,0,0,0,0,0,0,0,0,0,-1,867,1065,0,0
-350,-41,0,0,0,0,0,0,0,0,0,-1,874,1065,0,0
-343,-41,0,0,0,0,0,0,0,0,0,-1,881,1065,0,0
-336,-41,0,0,0,0,0,0,0,0,0,-1,888,1065,0,0
-329,-41,0,0,0,0,0,0,0,0,0,-1,895,1065,0,0
-322,-41,0,0,0,0,0,0,0,0,0,-1,902,1065,0,0
-315,-41,0,0,0,0,0,0,0,0,0,-1,909,1065,0,0
-308,-41,0,0,0,0,0,0,0,0,0,-1,916,1065,0,0
-301,-41,0,0,0,0,0,0,0,0,0,-1,923,1065,0,0
-294,-41,0,0,0,0,0,0,0,0,0,-1,930,1065,0,0
-287,-41,0,0,0,0,0,0,0,0,0,-1,937,1065,0,0
-280,-41,0,0,0,0,0,0,0,0,0,-1,944,1065,0,0
-273,-41,0,0,0,0,0,0,0,0,0,-1,951,1065,0,0
-266,-41,0,0,0,0,0,0,0,0,0,-1,958,1065,0,0
-259,-41,0,0,0,0,0,0,0,0,0,-1,965,1065,0,0
-252,-41,0,0,0,0,0,0,0,0,0,-1,972,1065,0,0
-245,-41,0,0,0,0,0,0,0,0,0,-1,979,1065,0,0
-238,-41,0,0,0,0,0,0,0,0,0,-1,986,1065,0,0
-231,-41,0,0,0,0,0,0,0,0,0,-1,993,1065,0,0
-224,-41,0,0,0,0,0,0,0,0,0,-1,1000,1065,0,0
-217,-41,0,0,0,0,0,0,0,0,0,-1,1007,1065,0,0
-210,-41,0,0,0,0,0,0,0,0,0,-1,1014,1065,0,0
-203,-41,0,0,0,0,0,0,0,0,0,-1,1021,1065,0,0
-196,-41,0,0,0,0,0,0,0,0,0,-1,1028,1065,0,0
-189,-41,0,0,0,0,0,0,0,0,0,-1,1035,1065,0,0
-182,-41,0,0,0,0,0,0,0,0,0,-1,1042,1065,0,0
-175,-41,0,0,0,0,0,0,0,0,0,-1,1049,1065,0,0
-168,-41,0,0,0,0,0,0,0,0,0,-1,1056,1065,0,0
-161,-41,0,0,0,0,0,0,0,0,0,-1,1063,1065,0,0
-154,-41,0,0,0,0,0,0,0,0,0,-1,1070,1065,0,0
-147,-41,0,0,0,0,0,0,0,0,0,-1,1077,1065,0,0
-140,-41,0,0,0,0,0,0,0,0,0,-1,1084,1065,0,0
-133,-41,0,0,0,0,0,0,0,0,0,-1,1091,1065,0,0
-126,-41,0,0,0,0,0,0,0,0,0,-1,1098,1065,0,0
-119,-41,0,0,0,0,0,0,0,0,0,-1,1105,1065,0,0
-112,-41,0,0,0,0,0,0,0,0,0,-1,1112,1065,0,0
-105,-41,0,0,0,0,0,0,0,0,0,-1,1119,1065,0,0
-98,-41,0,0,0,0,0,0,0,0,0,-1,1126,1065,0,0
-91,-41,0,0,0,0,0,0,0,0,0,-1,1133,1065,0,0
-84,-41,0,0,0,0,0,0,0,0,0,-1,1140,1065,0,0
-77,-41,0,0,0,0,0,0,0,0,0,-1,1147,1065,0,0
-70,-41,0,0,0,0,0,0,0,0,0,-1,1154,1065,0,0
-63,-41,0,0,0,0,0,0,0,0,0,-1,1161,1065,0,0
-56,-41,0,0,0,0,0,0,0,0,0,-1,1168,1065,0,0
-49,-41,0,0,0,0,0,0,0,0,0,-1,1175,1065,0,0
-42,-41,0,0,0,0,0,0,0,0,0,-1,1182,1065,0,0
-35,-41,0,0,0,0,0,0,0,0,0,-1,1189,1065,0,0
-28,-41,0,0,0,0,0,0,0,0,0,-1,1196,1065,0,0
-21,-41,0,0,0,0,0,0,0,0,0,-1,1203,1065,0,0
-14,-41,0,0,0,0,0,0,0,0,0,-1,1210,1065,0,0
-7,-41,0,0,0,0,0,0,0,0,0,-1,1217,1065,0,0
0,-41,0,0,0,0,0,0,0,0,0,-1,1224,1065,0,0
7,-41,0,0,0,0,0,0,0,0,0,-1,1231,1065,0,0
14,-41,0,0,0,0,0,0,0,0,0,-1,1238,1065,0,0
21,-41,0,0,0,0,0,0,0,0,0,-1,1245,1065,0,0
28,-41,0,0,0,0,0,0,0,0,0,-1,1252,1065,0,0
35,-41,0,0,0,0,0,0,0,0,0,-1,1259,1065,0,0
42,-41,0,0,0,0,0,0,0,0,0,-1,1266,1065,0,0
49,-41,0,0,0,0,0,0,0,0,0,-1,1273,1065,0,0
56,-41,0,0,0,0,0,0,0,0,0,-1,1280,1065,0,0
63,-41,0,0,0,0,0,0,0,0,0,-1,1287,1065,0,0
70,-41,0,0,0,0,0,0,0,0,0,-1,1294,1065,0,0
77,-41,0,0,0,0,0,0,0,0,0,-1,1301,1065,0,0
84,-41,0,0,0,0,0,0,0,0,0,-1,1308,1065,0,0
91,-41,0,0,0,0,0,0,0,0,0,-1,1315,1065,0,0
98,-41,0,0,0,0,0,0,0,0,0,-1,1322,1065,0,0
105,-41,0,0,0,0,0,0,0,0,0,-1,1329,1065,0,0
112,-41,0,0,0,0,0,0,0,0,0,-1,1336,1065,0,0
119,-41,0,0,0,0,0,0,0,0,0,-1,1343,1065,0,0
126,-41,0,0,0,0,0,0,0,0,0,-1,1350,1065,0,0
133,-41,0,0,0,0,0,0,0,0,0,-1,1357,1065,0,0
140,-41,0,0,0,0,0,0,0,0,0,-1,1364,1065,0,0
147,-41,0,0,0,0,0,0,0,0,0,-1,1371,1065,0,0
154,-41,0,0,0,0,0,0,0,0,0,-1,1378,1065,0,0
161,-41,0,0,0,0,0,0,0,0,0,-1,1385,1065,0,0
168,-41,0,0,0,0,0,0,0,0,0,-1,1392,1065,0,0
175,-41,0,0,0,0,0,0,0,0,0,-1,1399,1065,0,0
182,-41,0,0,0,0,0,0,0,0,0,-1,1406,1065,0,0
189,-41,0,0,0,0,0,0,0,0,0,-1,1413,1065,0,0
196,-41,0,0,0,0,0,0,0,0,0,-1,1420,1065,0,0
203,-41,0,0,0,0,0,0,0,0,0,-1,1427,1065,0,0
210,-41,0,0,0,0,0,0,0,0,0,-1,1434,1065,0,0
217,-41,0,0,0,0,0,0,0,0,0,-1,1441,1065,0,0
224,-41,0,0,0,0,0,0,0,0,0,-1,1448,1065,0,0
231,-41,0,0,0,0,0,0,0,0,0,-1,1455,1065,0,0
238,-41,0,0,0,0,0,0,0,0,0,-1,1462,1065,0,0
245,-41,0,0,0,0,0,0,0,0,0,-1,1469,1065,0,0
252,-41,0,0,0,0,0,0,0,0,0,-1,1476,1065,0,0
259,-41,0,0,0,0,0,0,0,0,0,-1,1483,1065,0,0
266,-41,0,0,0,0,0,0,0,0,0,-1,1490,1065,0,0
273,-41,0,0,0,0,0,0,0,0,0,-1,1497,1065,0,0
280,-41,0,0,0,0,0,0,0,0,0,-1,1504,1065,0,0
287,-41,0,0,0,0,0,0,0,0,0,-1,1511,1065,0,0
294,-41,0,0,0,0,0,0,0,0,0,-1,1518,1065,0,0
301,-41,0,0,0,0,0,0,0,0,0,-1,1525,1065,0,0
308,-41,0,0,0,0,0,0,0,0,0,-1,1532,1065,0,0
315,-41,0,0,0,0,0,0,0,0,0,-1,1539,1065,0,0
322,-41,0,0,0,0,0,0,0,0,0,-1,1546,1065,0,0
329,-41,0,0,0,0,0,0,0,0,0,-1,1553,1065,0,0
336,-41,0,0,0,0,0,0,0,0,0,-1,1560,1065,0,0
343,-41,0,0,0,0,0,0,0,0,0,-1,1567,1065,0,0
350,-41,0,0,0,0,0,0,0,0,0,-1,1574,1065,0,0
357,-41,0,0,0,0,0,0,0,0,0,-1,1581,1065,0,0
364,-41,0,0,0,0,0,0,0,0,0,-1,1588,1065,0,0
371,-41,0,0,0,0,0,0,0,0,0,-1,1595,1065,0,0
378,-41,0,0,0,0,0,0,0,0,0,-1,1602,1065,0,0
385,-41,0,0,0,0,0,0,0,0,0,-1,1609,1065,0,0
392,-41,0,0,0,0,0,0,0,0,0,-1,1616,1065,0,0
399,-41,0,0,0,0,0,0,0,0,0,-1,1623,1065,0,0
406,-41,0,0,0,0,0,0,0,0,0,-1,1630,1065,0,0
413,-41,0,0,0,0,0,0,0,0,0,-1,1637,1065,0,0
420,-41,0,0,0,0,0,0,0,0,0,-1,1644,1065,0,0
427,-41,0,0,0,0,0,0,0,0,0,-1,1651,1065,0,0
434,-41,0,0,0,0,0,0,0,0,0,-1,1658,1065,0,0
441,-41,0,0,0,0,0,0,0,0,0,-1,1665,1065,0,0
448,-41,0,0,0,0,0,0,0,0,0,-1,1672,1065,0,0
455,-41,0,0,0,0,0,0,0,0,0,-1,1679,1065,0,0
462,-41,0,0,0,0,0,0,0,0,0,-1,1686,1065,0,0
469,-41,0,0,0,0,0,0,0,0,0,-1,1693,1065,0,0
476,-41,0,0,0,0,0,0,0,0,0,-1,1700,1065,0,0
483,-41,0,0,0,0,0,0,0,0,0,-1,1707,1065,0,0
490,-41,0,0,0,0,0,0,0,0,0,-1,1714,1065,0,0
497,-41,0,0,0,0,0,0,0,0,0,-1,1721,1065,0,0
504,-41,0,0,0,0,0,0,0,0,0,-1,1728,1065,0,0
511,-41,0,0,0,0,0,0,0,0,0,-1,1735,1065,0,0
518,-41,0,0,0,0,0,0,0,0,0,-1,1742,1065,0,0
525,-41,0,0,0,0,0,0,0,0,0,-1,1749,1065,0,0
532,-41,0,0,0,0,0,0,0,0,0,-1,1756,1065,0,0
539,-41,0,0,0,0,0,0,0,0,0,-1,1763,1065,0,0
546,-41,0,0,0,0,0,0,0,0,0,-1,1770,1065,0,0
553,-41,0,0,0,0,0,0,0,0,0,-1,1777,1065,0,0
560,-41,0,0,0,0,0,0,0,0,0,-1,1784,1065,0,0
567,-41,0,0,0,0,0,0,0,0,0,-1,1791,1065,0,0
574,-41,0,0,0,0,0,0,0,0,0,-1,1798,1065,0,0
581,-41,0,0,0,0,0,0,0,0,0,-1,1805,1065,0,0
588,-41,0,0,0,0,0,0,0,0,0,-1,1812,1065,0,0
595,-41,0,0,0,0,0,0,0,0,0,-1,1819,1065,0,0
602,-41,0,0,0,0,0,0,0,0,0,-1,1826,1065,0,0
609,-41,0,0,0,0,0,0,0,0,0,-1,1833,1065,0,0
616,-41,0,0,0,0,0,0,0,0,0,-1,1840,1065,0,0
623,-41,0,0,0,0,0,0,0,0,0,-1,1847,1065,0,0
630,-41,0,0,0,0,0,0,0,0,0,-1,1854,1065,0,0
637,-41,0,0,0,0,0,0,0,0,0,-1,1861,1065,0,0
644,-41,0,0,0,0,0,0,0,0,0,-1,1868,1065,0,0
651,-41,15.5436,2.42725,0.00191099,0.00185233,-0.00153105,0.00341299,0.000350322,-0.775821,0.00216801,0.0376066,1875,1065,15.5436,-2.42722
658,-41,15.5826,2.29236,0.000883938,0.00131488,-0.00143874,0.0025542,-0.000355381,-0.859727,0.00183278,0.0422531,1882,1065,15.5827,-2.29238
665,-41,15.7925,2.24658,0.000183235,0.000926807,-0.00127368,0.00188185,-0.000771813,-0.927402,0.00157614,0.039754,1889,1065,15.7924,-2.24658
672,-41,15.7562,2.30225,-0.000294258,0.000518513,-0.000434617,0.00070714,-0.000482886,-1.16132,0.000691116,0.0381438,1896,1065,15.7562,-2.30229
679,-41,15.6254,2.54382,-0.00116366,6.11085e-05,0.000970403,0.000596199,-0.00169875,1.06687,0.00137501,0.037539,1903,1065,15.6254,-2.54384
686,-41,15.6813,2.40808,-0.00211897,-0.00036305,0.0024002,0.00131472,-0.00379675,0.960733,0.00306489,0.0404053,1910,1065,15.6813,-2.40807
693,-41,15.7003,2.13062,-0.00292177,-0.000733341,0.0037001,0.00203094,-0.00568606,0.929164,0.004619,0.0438492,1917,1065,15.7004,-2.13055
700,-41,15.6707,2.44373,-0.00361347,-0.00103187,0.00476099,0.0026102,-0.00725554,0.917776,0.00590271,0.0396388,1924,1065,15.6707,-2.44377
707,-41,15.608,2.4386,-0.00419207,-0.00123155,0.00553377,0.00301651,-0.00844014,0.916086,0.00685712,0.0290924,1931,1065,15.608,-2.43865
714,-41,15.6307,2.38269,-0.004639,-0.00133394,0.00613346,0.00336571,-0.00933865,0.916988,0.00760028,0.0177843,1938,1065,15.6308,-2.38272
721,-41,15.707,2.69214,-0.00482379,-0.00137016,0.00636191,0.00349512,-0.00968907,0.91792,0.00788694,0.0310251,1945,1065,15.7071,-2.69212
728,-41,15.442,3.11682,-0.0047228,-0.00123416,0.00612315,0.00338828,-0.00934524,0.924159,0.00761514,0.0258207,1952,1065,15.442,-3.11678
735,-41,15.2892,3.16479,-0.00456744,-0.000924887,0.00558363,0.00312699,-0.00861932,0.943048,0.0070245,0.0146286,1959,1065,15.2892,-3.16478
742,-41,15.2782,3.13635,-0.00404892,-0.000552639,0.0048275,0.00283349,-0.00743504,0.959114,0.00612375,0.0126017,1966,1065,15.2782,-3.13634
749,-41,15.3254,3.14343,-0.00309598,0.000270631,0.00418283,0.00309616,-0.00592151,0.976699,0.00529085,0.0126421,1973,1065,15.3255,-3.14343
756,-41,15.3197,3.15576,-0.00218683,0.00152319,0.00346669,0.00359998,-0.00426361,1.03106,0.00454543,0.012862,1980,1065,15.3197,-3.15577
763,-41,15.3019,3.15271,-0.00135318,0.00296218,0.00256821,0.0041588,-0.00254979,1.13477,0.00391016,0.0106907,1987,1065,15.3019,-3.15273
770,-41,15.2946,3.14893,-0.000350982,0.00471222,0.00173763,0.00525118,-0.000889945,1.27003,0.00383204,0.0127885,1994,1065,15.2945,-3.14887
777,-41,15.3041,3.13513,0.000794304,0.00695074,0.00119747,0.00717545,0.000569591,1.3853,0.00460552,0.0142287,2001,1065,15.3041,-3.13516
784,-41,15.2969,3.08801,0.00159289,0.00965599,0.00131391,0.00986469,0.00138419,1.41327,0.00616706,0.024665,2008,1065,15.2969,-3.08805
791,-41,15.3137,2.83569,0.00190684,0.0130152,0.00170085,0.0132698,0.00165225,1.42222,0.00835042,0.0425588,2015,1065,15.3137,-2.83574
798,-41,15.3469,2.67114,0.00206591,0.0171797,0.00209732,0.0174654,0.00178027,1.43543,0.0110978,0.044363,2022,1065,15.3469,-2.67111
805,-41,15.3492,2.73169,0.00202478,0.0223036,0.00238098,0.0225794,0.00174897,1.45547,0.0145051,0.0425115,2029,1065,15.3492,-2.73167
812,-41,15.4055,2.47156,0.00132116,0.0285465,0.00238746,0.0287543,0.00111338,1.48399,0.0188094,0.048171,2036,1065,15.4055,-2.47157
-700,-48,-12.3851,1.8916,0.118711,0.0065124,0.0258093,0.124364,0.000860192,0.215595,0.0826238,0.0484307,524,1072,-12.3851,-1.89164
-693,-48,-11.6011,1.62915,0.101242,0.00367602,0.0165355,0.103968,0.000949759,0.163403,0.0689978,0.0434972,531,1072,-11.6011,-1.62916
-686,-48,-10.8944,1.38611,0.0840486,0.00180767,0.0103596,0.0853335,0.000522777,0.123399,0.0567156,0.0443123,538,1072,-10.8944,-1.38605
-679,-48,-10.4832,1.08386,0.0680031,0.000617975,0.00609325,0.0685496,7.14287e-05,0.0894574,0.045676,0.0454381,545,1072,-10.4832,-1.08381
-672,-48,-10.0172,0.83252,0.053473,-6.77947e-05,0.00319605,0.0536631,-0.000257902,0.0594125,0.0358617,0.047345,552,1072,-10.0171,-0.832577
-665,-48,-9.63043,0.521851,0.0407028,-0.000378827,0.00131952,0.0407451,-0.000421166,0.0320755,0.0273049,0.0436255,559,1072,-9.63045,-0.521887
-658,-48,-9.45337,0.486084,0.0298308,-0.000427973,0.000223631,0.0298324,-0.000429625,0.00739007,0.020033,0.0427587,566,1072,-9.45335,-0.486104
-651,-48,-9.40479,0.738403,0.0209701,-0.000339033,-0.000302102,0.0209744,-0.000343314,-0.0141733,0.0140987,0.0288504,573,1072,-9.40476,-0.738458
-644,-48,-9.49133,0.932861,0.0130536,-0.000177689,-0.00133041,0.013186,-0.000310137,-0.0992273,0.00889586,0.0131021,580,1072,-9.49134,-0.932858
-637,-48,-9.48315,0.932617,0.0068539,-0.000656061,-0.00200255,0.00735451,-0.00115668,-0.244968,0.00533056,0.0127804,587,1072,-9.48318,-0.932656
-630,-48,-9.48486,0.963257,0.00335481,-0.000454786,-0.0023309,0.00446022,-0.00156019,-0.442829,0.0036078,0.0144965,594,1072,-9.48484,-0.963199
-623,-48,-9.50702,1.00635,0.00114134,-0.000530811,-0.00251957,0.00295993,-0.0023494,-0.625199,0.00307209,0.00941225,601,1072,-9.507,-1.00629
-616,-48,-9.50793,1.04553,-0.000300537,-0.000351581,-0.00241812,0.0020922,-0.00274431,-0.780121,0.00280081,0.00864608,608,1072,-9.50795,-1.04558
-609,-48,-9.50452,1.07117,-0.000589463,-0.000208971,-0.00295407,0.00256098,-0.00335941,-0.817554,0.00342848,0.00993609,615,1072,-9.50452,-1.07122
-602,-48,-9.51227,1.10376,-0.000484896,-0.000393432,-0.00398123,0.00354233,-0.00442066,-0.791141,0.00460675,0.0104294,622,1072,-9.51228,-1.10375
-595,-48,-9.49847,1.15002,-0.00029237,-0.00037931,-0.00472152,0.00438588,-0.00505756,-0.780795,0.00545676,0.014285,629,1072,-9.49845,-1.15006
-588,-48,-9.56036,0.828247,-5.54351e-05,-0.000287834,-0.00505798,0.00488768,-0.00523095,-0.773913,0.00584311,0.0259794,636,1072,-9.56038,-0.828306
-581,-48,-9.57434,0.585693,0.000191772,-8.72744e-05,-0.00516208,0.00521621,-0.00511171,-0.771887,0.00596293,0.0391801,643,1072,-9.57433,-0.58565
-574,-48,-9.56641,0.716431,0.000538701,0.000274346,-0.00515377,0.00556198,-0.00474894,-0.772578,0.00595918,0.041924,650,1072,-9.56638,-0.71647
-567,-48,-9.48291,0.808594,0.00091051,0.000751071,-0.00486928,0.00570072,-0.00403914,-0.777213,0.00565052,0.0428649,657,1072,-9.48291,-0.808636
-560,-48,-9.41046,0.918457,0.00130582,0.00129419,-0.00430363,0.00560364,-0.00300362,-0.784723,0.00504441,0.0442616,664,1072,-9.41046,-0.918424
-553,-48,-9.55261,0.714844,0.00165809,0.00184532,-0.00344795,0.00520093,-0.00169752,-0.79897,0.0041505,0.0435538,671,1072,-9.5526,-0.714867
-546,-48,-9.46637,0.489136,0.00188568,0.00233019,-0.00225824,0.00437709,-0.000161221,-0.834449,0.00297325,0.0392725,678,1072,-9.46635,-0.489168
-539,-48,-9.47089,0.601929,0.00184463,0.00260413,-0.0010421,0.00333352,0.00111524,-0.960125,0.00195941,0.0403101,685,1072,-9.47086,-0.601899
-532,-48,-9.53619,0.723755,0.0010075,0.002359,-0.000707507,0.00266162,0.000704883,-1.16662,0.00159233,0.0396543,692,1072,-9.53616,-0.723702
-525,-48,0,0,0,0,0,0,0,0,0,-1,699,1072,0,0
-518,-48,0,0,0,0,0,0,0,0,0,-1,706,1072,0,0
-511,-48,0,0,0,0,0,0,0,0,0,-1,713,1072,0,0
-504,-48,0,0,0,0,0,0,0,0,0,-1,720,1072,0,0
-497,-48,0,0,0,0,0,0,0,0,0,-1,727,1072,0,0
-490,-48,0,0,0,0,0,0,0,0,0,-1,734,1072,0,0
-483,-48,0,0,0,0,0,0,0,0,0,-1,741,1072,0,0
-476,-48,0,0,0,0,0,0,0,0,0,-1,748,1072,0,0
-469,-48,0,0,0,0,0,0,0,0,0,-1,755,1072,0,0
-462,-48,0,0,0,0,0,0,0,0,0,-1,762,1072,0,0
-455,-48,0,0,0,0,0,0,0,0,0,-1,769,1072,0,0
-448,-48,0,0,0,0,0,0,0,0,0,-1,776,1072,0,0
-441,-48,0,0,0,0,0,0,0,0,0,-1,783,1072,0,0
-434,-48,0,0,0,0,0,0,0,0,0,-1,790,1072,0,0
-427,-48,0,0,0,0,0,0,0,0,0,-1,797,1072,0,0
-420,-48,0,0,0,0,0,0,0,0,0,-1,804,1072,0,0
-413,-48,0,0,0,0,0,0,0,0,0,-1,811,1072,0,0
-406,-48,0,0,0,0,0,0,0,0,0,-1,818,1072,0,0
-399,-48,0,0,0,0,0,0,0,0,0,-1,825,1072,0,0
-392,-48,0,0,0,0,0,0,0,0,0,-1,832,1072,0,0
-385,-48,0,0,0,0,0,0,0,0,0,-1,839,1072,0,0
-378,-48,0,0,0,0,0,0,0,0,0,-1,846,1072,0,0
-371,-48,0,0,0,0,0,0,0,0,0,-1,853,1072,0,0
-364,-48,0,0,0,0,0,0,0,0,0,-1,860,1072,0,0
-357,-48,0,0,0,0,0,0,0,0,0,-1,867,1072,0,0
-350,-48,0,0,0,0,0,0,0,0,0,-1,874,1072,0,0
-343,-48,0,0,0,0,0,0,0,0,0,-1,881,1072,0,0
-336,-48,0,0,0,0,0,0,0,0,0,-1,888,1072,0,0
-329,-48,0,0,0,0,0,0,0,0,0,-1,895,1072,0,0
-322,-48,0,0,0,0,0,0,0,0,0,-1,902,1072,0,0
-315,-48,0,0,0,0,0,0,0,0,0,-1,909,1072,0,0
-308,-48,0,0,0,0,0,0,0,0,0,-1,916,1072,0,0
-301,-48,0,0,0,0,0,0,0,0,0,-1,923,1072,0,0
-294,-48,0,0,0,0,0,0,0,0,0,-1,930,1072,0,0
-287,-48,0,0,0,0,0,0,0,0,0,-1,937,1072,0,0
-280,-48,0,0,0,0,0,0,0,0,0,-1,944,1072,0,0
-273,-48,0,0,0,0,0,0,0,0,0,-1,951,1072,0,0
-266,-48,0,0,0,0,0,0,0,0,0,-1,958,1072,0,0
-259,-48,0,0,0,0,0,0,0,0,0,-1,965,1072,0,0
-252,-48,0,0,0,0,0,0,0,0,0,-1,972,1072,0,0
-245,-48,0,0,0,0,0,0,0,0,0,-1,979,1072,0,0
-238,-48,0,0,0,0,0,0,0,0,0,-1,986,1072,0,0
-231,-48,0,0,0,0,0,0,0,0,0,-1,993,1072,0,0
-224,-48,0,0,0,0,0,0,0,0,0,-1,1000,1072,0,0
-217,-48,0,0,0,0,0,0,0,0,0,-1,1007,1072,0,0
-210,-48,0,0,0,0,0,0,0,0,0,-1,1014,1072,0,0
-203,-48,0,0,0,0,0,0,0,0,0,-1,1021,1072,0,0
-196,-48,0,0,0,0,0,0,0,0,0,-1,1028,1072,0,0
-189,-48,0,0,0,0,0,0,0,0,0,-1,1035,1072,0,0
-182,-48,0,0,0,0,0,0,0,0,0,-1,1042,1072,0,0
-175,-48,0,0,0,0,0,0,0,0,0,-1,1049,1072,0,0
-168,-48,0,0,0,0,0,0,0,0,0,-1,1056,1072,0,0
-161,-48,0,0,0,0,0,0,0,0,0,-1,1063,1072,0,0
-154,-48,0,0,0,0,0,0,0,0,0,-1,1070,1072,0,0
-147,-48,0,0,0,0,0,0,0,0,0,-1,1077,1072,0,0
-140,-48,0,0,0,0,0,0,0,0,0,-1,1084,1072,0,0
-133,-48,0,0,0,0,0,0,0,0,0,-1,1091,1072,0,0
-126,-48,0,0,0,0,0,0,0,0,0,-1,1098,1072,0,0
-119,-48,0,0,0,0,0,0,0,0,0,-1,1105,1072,0,0
-112,-48,0,0,0,0,0,0,0,0,0,-1,1112,1072,0,0
-105,-48,0,0,0,0,0,0,0,0,0,-1,1119,1072,0,0
-98,-48,0,0,0,0,0,0,0,0,0,-1,1126,1072,0,0
-91,-48,0,0,0,0,0,0,0,0,0,-1,1133,1072,0,0
-84,-48,0,0,0,0,0,0,0,0,0,-1,1140,1072,0,0
-77,-48,0,0,0,0,0,0,0,0,0,-1,1147,1072,0,0
-70,-48,0,0,0,0,0,0,0,0,0,-1,1154,1072,0,0
-63,-48,0,0,0,0,0,0,0,0,0,-1,1161,1072,0,0
-56,-48,0,0,0,0,0,0,0,0,0,-1,1168,1072,0,0
-49,-48,0,0,0,0,0,0,0,0,0,-1,1175,1072,0,0
-42,-48,0,0,0,0,0,0,0,0,0,-1,1182,1072,0,0
-35,-48,0,0,0,0,0,0,0,0,0,-1,1189,1072,0,0
-28,-48,0,0,0,0,0,0,0,0,0,-1,1196,1072,0,0
-21,-48,0,0,0,0,0,0,0,0,0,-1,1203,1072,0,0
-14,-48,0,0,0,0,0,0,0,0,0,-1,1210,1072,0,0
-7,-48,0,0,0,0,0,0,0,0,0,-1,1217,1072,0,0
0,-48,0,0,0,0,0,0,0,0,0,-1,1224,1072,0,0
7,-48,0,0,0,0,0,0,0,0,0,-1,1231,1072,0,0
14,-48,0,0,0,0,0,0,0,0,0,-1,1238,1072,0,0
21,-48,0,0,0,0,0,0,0,0,0,-1,1245,1072,0,0
28,-48,0,0,0,0,0,0,0,0,0,-1,1252,1072,0,0
35,-48,0,0,0,0,0,0,0,0,0,-1,1259,1072,0,0
42,-48,0,0,0,0,0,0,0,0,0,-1,1266,1072,0,0
49,-48,0,0,0,0,0,0,0,0,0,-1,1273,1072,0,0
56,-48,0,0,0,0,0,0,0,0,0,-1,1280,1072,0,0
63,-48,0,0,0,0,0,0,0,0,0,-1,1287,1072,0,0
70,-48,0,0,0,0,0,0,0,0,0,-1,1294,1072,0,0
77,-48,0,0,0,0,0,0,0,0,0,-1,1301,1072,0,0
84,-48,0,0,0,0,0,0,0,0,0,-1,1308,1072,0,0
91,-48,0,0,0,0,0,0,0,0,0,-1,1315,1072,0,0
98,-48,0,0,0,0,0,0,0,0,0,-1,1322,1072,0,0
105,-48,0,0,0,0,0,0,0,0,0,-1,1329,1072,0,0
112,-48,0,0,0,0,0,0,0,0,0,-1,1336,1072,0,0
119,-48,0,0,0,0,0,0,0,0,0,-1,1343,1072,0,0
126,-48,0,0,0,0,0,0,0,0,0,-1,1350,1072,0,0
133,-48,0,0,0,0,0,0,0,0,0,-1,1357,1072,0,0
140,-48,0,0,0,0,0,0,0,0,0,-1,1364,1072,0,0
147,-48,0,0,0,0,0,0,0,0,0,-1,1371,1072,0,0
154,-48,0,0,0,0,0,0,0,0,0,-1,1378,1072,0,0
161,-48,0,0,0,0,0,0,0,0,0,-1,1385,1072,0,0
168,-48,0,0,0,0,0,0,0,0,0,-1,1392,1072,0,0
175,-48,0,0,0,0,0,0,0,0,0,-1,1399,1072,0,0
182,-48,0,0,0,0,0,0,0,0,0,-1,1406,1072,0,0
189,-48,0,0,0,0,0,0,0,0,0,-1,1413,1072,0,0
196,-48,0,0,0,0,0,0,0,0,0,-1,1420,1072,0,0
203,-48,0,0,0,0,0,0,0,0,0,-1,1427,1072,0,0
210,-48,0,0,0,0,0,0,0,0,0,-1,1434,1072,0,0
217,-48,0,0,0,0,0,0,0,0,0,-1,1441,1072,0,0
224,-48,0,0,0,0,0,0,0,0,0,-1,1448,1072,0,0
231,-48,0,0,0,0,0,0,0,0,0,-1,1455,1072,0,0
238,-48,0,0,0,0,0,0,0,0,0,-1,1462,1072,0,0
245,-48,0,0,0,0,0,0,0,0,0,-1,1469,1072,0,0
252,-48,0,0,0,0,0,0,0,0,0,-1,1476,1072,0,0
259,-48,0,0,0,0,0,0,0,0,0,-1,1483,1072,0,0
266,-48,0,0,0,0,0,0,0,0,0,-1,1490,1072,0,0
273,-48,0,0,0,0,0,0,0,0,0,-1,1497,1072,0,0
280,-48,0,0,0,0,0,0,0,0,0,-1,1504,1072,0,0
287,-48,0,0,0,0,0,0,0,0,0,-1,1511,1072,0,0
294,-48,0,0,0,0,0,0,0,0,0,-1,1518,1072,0,0
301,-48,0,0,0,0,0,0,0,0,0,-1,1525,1072,0,0
308,-48,0,0,0,0,0,0,0,0,0,-1,1532,1072,0,0
315,-48,0,0,0,0,0,0,0,0,0,-1,1539,1072,0,0
322,-48,0,0,0,0,0,0,0,0,0,-1,1546,1072,0,0
329,-48,0,0,0,0,0,0,0,0,0,-1,1553,1072,0,0
336,-48,0,0,0,0,0,0,0,0,0,-1,1560,1072,0,0
343,-48,0,0,0,0,0,0,0,0,0,-1,1567,1072,0,0
350,-48,0,0,0,0,0,0,0,0,0,-1,1574,1072,0,0
357,-48,0,0,0,0,0,0,0,0,0,-1,1581,1072,0,0
364,-48,0,0,0,0,0,0,0,0,0,-1,1588,1072,0,0
371,-48,0,0,0,0,0,0,0,0,0,-1,1595,1072,0,0
378,-48,0,0,0,0,0,0,0,0,0,-1,1602,1072,0,0
385,-48,0,0,0,0,0,0,0,0,0,-1,1609,1072,0,0
392,-48,0,0,0,0,0,0,0,0,0,-1,1616,1072,0,0
399,-48,0,0,0,0,0,0,0,0,0,-1,1623,1072,0,0
406,-48,0,0,0,0,0,0,0,0,0,-1,1630,1072,0,0
413,-48,0,0,0,0,0,0,0,0,0,-1,1637,1072,0,0
420,-48,0,0,0,0,0,0,0,0,0,-1,1644,1072,0,0
427,-48,0,0,0,0,0,0,0,0,0,-1,1651,1072,0,0
434,-48,0,0,0,0,0,0,0,0,0,-1,1658,1072,0,0
441,-48,0,0,0,0,0,0,0,0,0,-1,1665,1072,0,0
448,-48,0,0,0,0,0,0,0,0,0,-1,1672,1072,0,0
455,-48,0,0,0,0,0,0,0,0,0,-1,1679,1072,0,0
462,-48,0,0,0,0,0,0,0,0,0,-1,1686,1072,0,0
469,-48,0,0,0,0,0,0,0,0,0,-1,1693,1072,0,0
476,-48,0,0,0,0,0,0,0,0,0,-1,1700,1072,0,0
483,-48,0,0,0,0,0,0,0,0,0,-1,1707,1072,0,0
490,-48,0,0,0,0,0,0,0,0,0,-1,1714,1072,0,0
497,-48,0,0,0,0,0,0,0,0,0,-1,1721,1072,0,0
504,-48,0,0,0,0,0,0,0,0,0,-1,1728,1072,0,0
511,-48,0,0,0,0,0,0,0,0,0,-1,1735,1072,0,0
518,-48,0,0,0,0,0,0,0,0,0,-1,1742,1072,0,0
525,-48,0,0,0,0,0,0,0,0,0,-1,1749,1072,0,0
532,-48,0,0,0,0,0,0,0,0,0,-1,1756,1072,0,0
539,-48,0,0,0,0,0,0,0,0,0,-1,1763,1072,0,0
546,-48,0,0,0,0,0,0,0,0,0,-1,1770,1072,0,0
553,-48,0,0,0,0,0,0,0,0,0,-1,1777,1072,0,0
560,-48,0,0,0,0,0,0,0,0,0,-1,1784,1072,0,0
567,-48,0,0,0,0,0,0,0,0,0,-1,1791,1072,0,0
574,-48,0,0,0,0,0,0,0,0,0,-1,1798,1072,0,0
581,-48,0,0,0,0,0,0,0,0,0,-1,1805,1072,0,0
588,-48,0,0,0,0,0,0,0,0,0,-1,1812,1072,0,0
595,-48,0,0,0,0,0,0,0,0,0,-1,1819,1072,0,0
602,-48,0,0,0,0,0,0,0,0,0,-1,1826,1072,0,0
609,-48,0,0,0,0,0,0,0,0,0,-1,1833,1072,0,0
616,-48,0,0,0,0,0,0,0,0,0,-1,1840,1072,0,0
623,-48,0,0,0,0,0,0,0,0,0,-1,1847,1072,0,0
630,-48,0,0,0,0,0,0,0,0,0,-1,1854,1072,0,0
637,-48,0,0,0,0,0,0,0,0,0,-1,1861,1072,0,0
644,-48,0,0,0,0,0,0,0,0,0,-1,1868,1072,0,0
651,-48,15.588,2.39722,0.00225745,0.0023299,-0.00126067,0.00355486,0.00103249,-0.799761,0.00211163,0.0322078,1875,1072,15.588,-2.39724
658,-48,15.6354,2.47668,0.00114609,0.00188771,-0.0012299,0.00280148,0.000232312,-0.931812,0.00179523,0.0370883,1882,1072,15.6353,-2.47674
665,-48,15.7988,2.25769,0.000409789,0.00152953,-0.00111148,0.00221419,-0.000274864,-1.01871,0.00157576,0.0386631,1889,1072,15.7988,-2.25772
672,-48,15.7117,2.31177,-0.000156211,0.00106863,-0.000239692,0.00111387,-0.000201446,-1.38427,0.000818038,0.0369799,1896,1072,15.7117,-2.31174
679,-48,15.6367,2.42419,-0.00112223,0.000521571,0.00119872,0.0011531,-0.00175376,1.08591,0.00169018,0.0361262,1903,1072,15.6368,-2.42423
686,-48,15.6492,2.39417,-0.00214645,-4.6265e-06,0.0026501,0.00178277,-0.00393384,0.977417,0.00337747,0.0391123,1910,1072,15.6491,-2.39417
693,-48,15.5809,2.28564,-0.00300894,-0.000481138,0.00396922,0.00242055,-0.00591063,0.939535,0.0049487,0.0400169,1917,1072,15.5809,-2.28562
700,-48,15.5885,2.3042,-0.00374003,-0.000870419,0.005037,0.00293214,-0.0075426,0.92415,0.00623981,0.034944,1924,1072,15.5885,-2.3042
707,-48,15.6285,2.29822,-0.0043769,-0.00115319,0.00581234,0.00326666,-0.00879674,0.920657,0.00720462,0.0278146,1931,1072,15.6286,-2.29827
714,-48,15.6182,2.41736,-0.00484045,-0.00133108,0.00641403,0.00356395,-0.00973548,0.918916,0.00794923,0.0250933,1938,1072,15.6182,-2.41734
721,-48,15.5642,2.88525,-0.00498417,-0.00142221,0.00661408,0.00364648,-0.0100529,0.916914,0.00819253,0.0356248,1945,1072,15.5642,-2.8853
728,-48,15.3175,3.21045,0,0,0,0,0,0,0,-1,1952,1072,15.3175,-3.21046
735,-48,15.3038,3.19531,-0.00467877,-0.00103845,0.00573414,0.00315748,-0.0088747,0.939081,0.00720345,0.0152063,1959,1072,15.3038,-3.19528
742,-48,15.28,3.1626,-0.00406221,-0.00067252,0.00498135,0.00289442,-0.00762915,0.949374,0.00627742,0.0124349,1966,1072,15.2801,-3.16261
749,-48,15.3199,3.12939,-0.0030071,0.000285843,0.00439276,0.00333055,-0.00605181,0.964702,0.00549233,0.0129913,1973,1072,15.32,-3.12935
756,-48,15.3209,3.1377,-0.00207904,0.00171396,0.00376587,0.00403392,-0.00439899,1.01866,0.00487026,0.0122721,1980,1072,15.3209,-3.13773
763,-48,15.3033,3.13928,-0.00124261,0.00348777,0.00303968,0.00497404,-0.00272888,1.11602,0.00450982,0.0117942,1987,1072,15.3034,-3.13931
770,-48,15.3027,3.1322,-0.00020307,0.00560446,0.00239918,0.00646738,-0.00106599,1.22553,0.00470732,0.0133542,1994,1072,15.3027,-3.13215
777,-48,15.3041,3.10876,0.00091858,0.00833333,0.00218537,0.00892949,0.000322414,1.30448,0.00584849,0.0115295,2001,1072,15.3041,-3.10876
784,-48,15.2877,3.03979,0.00160264,0.0117084,0.00277107,0.0124183,0.000892666,1.31998,0.00799795,0.0234559,2008,1072,15.2877,-3.0398
791,-48,15.3328,3.08191,0.00172261,0.0159511,0.0037327,0.0168709,0.000802839,1.3292,0.0109894,0.0412209,2015,1072,15.3328,-3.08192
798,-48,15.4082,3.20105,0.00155823,0.0212437,0.00483638,0.0223678,0.000434203,1.34244,0.0147692,0.0454919,2022,1072,15.4082,-3.20102
805,-48,15.4396,3.13086,0.000998089,0.0277518,0.00596558,0.0290217,-0.000271843,1.36105,0.0194391,0.0455058,2029,1072,15.4396,-3.13091
812,-48,15.5503,2.98706,-0.000486275,0.0356254,0.00694347,0.0369145,-0.00177534,1.38724,0.0252223,0.0471373,2036,1072,15.5504,-2.98712
-700,-55,-12.3784,1.30432,0.129751,0.00902292,0.0236434,0.134217,0.00455774,0.186657,0.0879978,0.0481824,524,1079,-12.3784,-1.3043
-693,-55,-11.8478,1.48218,0.110272,0.00512574,0.0155618,0.112527,0.00287092,0.143893,0.0740796,0.0477936,531,1079,-11.8478,-1.48224
-686,-55,-11.1805,1.57458,0.0913953,0.00254214,0.0101309,0.0925358,0.00140167,0.112101,0.0612286,0.0449563,538,1079,-11.1805,-1.5746
-679,-55,-10.7988,0.929443,0,0,0,0,0,0,0,-1,545,1079,-10.7987,-0.92939
-672,-55,-10.1068,0.909546,0.058103,-0.000182757,0.00365086,0.0583308,-0.000410549,0.0623127,0.0390248,0.0470265,552,1079,-10.1067,-0.909516
-665,-55,-9.67871,0.735718,0.0442165,-0.000715274,0.0018507,0.0442926,-0.000791375,0.0410963,0.0297957,0.0453103,559,1079,-9.67872,-0.735697
-658,-55,-9.58728,0.485352,0.0323798,-0.000880517,0.000724827,0.0323955,-0.000896307,0.0217788,0.0219019,0.0468345,566,1079,-9.58726,-0.48533
-651,-55,-9.49982,0.696777,0.0227203,-0.000817497,0.000111837,0.0227208,-0.000818028,0.00475122,0.0154271,0.0348167,573,1079,-9.49982,-0.696757
-644,-55,-9.45331,0.890991,0.0142953,-0.000704154,-0.00102445,0.014365,-0.0007738,-0.0678788,0.00984473,0.0148693,580,1079,-9.45331,-0.891019
-637,-55,-9.45428,0.918579,0.00739385,-0.00112948,-0.00161432,0.00768936,-0.00142499,-0.181049,0.00566133,0.0120217,587,1079,-9.45426,-0.918556
-630,-55,-9.44232,0.971802,0.00331803,-0.000765643,-0.00213976,0.00423384,-0.00168145,-0.404406,0.00351958,0.0141757,594,1079,-9.44231,-0.971755
-623,-55,-9.45691,1.02673,0.000921468,-0.00069779,-0.00246731,0.00270859,-0.00248491,-0.626862,0.0029994,0.013391,601,1079,-9.4569,-1.02674
-616,-55,-9.44476,1.05054,-0.00052869,-0.000467179,-0.00271629,0.00221853,-0.00321439,-0.791059,0.00315421,0.012218,608,1079,-9.44476,-1.05048
-609,-55,-9.46649,1.08289,-0.000784033,-0.000231299,-0.0031737,0.00267805,-0.00369338,-0.828829,0.00369408,0.0124704,615,1079,-9.4665,-1.08292
-602,-55,-9.48505,1.12183,-0.000708426,-0.000384922,-0.00419116,0.00364761,-0.00474096,-0.804685,0.00485683,0.0123395,622,1079,-9.48504,-1.12177
-595,-55,-9.4469,1.18176,-0.000581802,-0.000367465,-0.00489869,0.00442523,-0.0053745,-0.796335,0.00566671,0.0147225,629,1079,-9.44693,-1.18182
-588,-55,-9.4754,0.891724,-0.000394231,-0.000318774,-0.00520509,0.00484872,-0.00556172,-0.789022,0.00601517,0.0257026,636,1079,-9.47542,-0.891762
-581,-55,-9.54614,0.705078,-0.00015126,-0.000168382,-0.00525556,0.00509575,-0.00541539,-0.784584,0.00606955,0.0357708,643,1079,-9.54613,-0.705116
-574,-55,-9.55402,0.664917,0.000205036,0.000107328,-0.00518265,0.00533906,-0.00502669,-0.780685,0.00598558,0.0385387,650,1079,-9.55401,-0.66491
-567,-55,-9.35968,0.640259,0.000609222,0.000480022,-0.00479057,0.00533563,-0.00424639,-0.778656,0.00554408,0.0411242,657,1079,-9.35966,-0.640212
-560,-55,-9.35706,0.894043,0.00105639,0.000880586,-0.0040815,0.00505094,-0.00311396,-0.774631,0.00475802,0.0458493,664,1079,-9.35703,-0.894038
-553,-55,-9.58228,0.294556,0.00147915,0.00123717,-0.00305573,0.00441628,-0.00169997,-0.765612,0.00364545,0.045141,671,1079,-9.5823,-0.294583
-546,-55,-9.5072,0.331421,0.00180096,0.00146167,-0.00167943,0.0033193,-5.66669e-05,-0.735062,0.00223199,0.0383566,678,1079,-9.50718,-0.33148
-539,-55,-9.50897,0.450439,0.0018857,0.00140161,-0.000248256,0.00199038,0.00129694,-0.399032,0.00116662,0.0367649,685,1079,-9.50897,-0.450381
-532,-55,-9.61163,0.642944,0.00111304,0.000675966,0.000242572,0.001221,0.000568008,0.418736,0.000705515,0.0393368,692,1079,-9.61163,-0.642905
-525,-55,0,0,0,0,0,0,0,0,0,-1,699,1079,0,0
-518,-55,0,0,0,0,0,0,0,0,0,-1,706,1079,0,0
-511,-55,0,0,0,0,0,0,0,0,0,-1,713,1079,0,0
-504,-55,0,0,0,0,0,0,0,0,0,-1,720,1079,0,0
-497,-55,0,0,0,0,0,0,0,0,0,-1,727,1079,0,0
-490,-55,0,0,0,0,0,0,0,0,0,-1,734,1079,0,0
-483,-55,0,0,0,0,0,0,0,0,0,-1,741,1079,0,0
-476,-55,0,0,0,0,0,0,0,0,0,-1,748,1079,0,0
-469,-55,0,0,0,0,0,0,0,0,0,-1,755,1079,0,0
-462,-55,0,0,0,0,0,0,0,0,0,-1,762,1079,0,0
-455,-55,0,0,0,0,0,0,0,0,0,-1,769,1079,0,0
-448,-55,0,0,0,0,0,0,0,0,0,-1,776,1079,0,0
-441,-55,0,0,0,0,0,0,0,0,0,-1,783,1079,0,0
-434,-55,0,0,0,0,0,0,0,0,0,-1,790,1079,0,0
-427,-55,0,0,0,0,0,0,0,0,0,-1,797,1079,0,0
-420,-55,0,0,0,0,0,0,0,0,0,-1,804,1079,0,0
-413,-55,0,0,0,0,0,0,0,0,0,-1,811,1079,0,0
-406,-55,0,0,0,0,0,0,0,0,0,-1,818,1079,0,0
-399,-55,0,0,0,0,0,0,0,0,0,-1,825,1079,0,0
-392,-55,0,0,0,0,0,0,0,0,0,-1,832,1079,0,0
-385,-55,0,0,0,0,0,0,0,0,0,-1,839,1079,0,0
-378,-55,0,0,0,0,0,0,0,0,0,-1,846,1079,0,0
-371,-55,0,0,0,0,0,0,0,0,0,-1,853,1079,0,0
-364,-55,0,0,0,0,0,0,0,0,0,-1,860,1079,0,0
-357,-55,0,0,0,0,0,0,0,0,0,-1,867,1079,0,0
-350,-55,0,0,0,0,0,0,0,0,0,-1,874,1079,0,0
-343,-55,0,0,0,0,0,0,0,0,0,-1,881,1079,0,0
-336,-55,0,0,0,0,0,0,0,0,0,-1,888,1079,0,0
-329,-55,0,0,0,0,0,0,0,0,0,-1,895,1079,0,0
-322,-55,0,0,0,0,0,0,0,0,0,-1,902,1079,0,0
-315,-55,0,0,0,0,0,0,0,0,0,-1,909,1079,0,0
-308,-55,0,0,0,0,0,0,0,0,0,-1,916,1079,0,0
-301,-55,0,0,0,0,0,0,0,0,0,-1,923,1079,0,0
-294,-55,0,0,0,0,0,0,0,0,0,-1,930,1079,0,0
-287,-55,0,0,0,0,0,0,0,0,0,-1,937,1079,0,0
-280,-55,0,0,0,0,0,0,0,0,0,-1,944,1079,0,0
-273,-55,0,0,0,0,0,0,0,0,0,-1,951,1079,0,0
-266,-55,0,0,0,0,0,0,0,0,0,-1,958,1079,0,0
-259,-55,0,0,0,0,0,0,0,0,0,-1,965,1079,0,0
-252,-55,0,0,0,0,0,0,0,0,0,-1,972,1079,0,0
-245,-55,0,0,0,0,0,0,0,0,0,-1,979,1079,0,0
-238,-55,0,0,0,0,0,0,0,0,0,-1,986,1079,0,0
-231,-55,0,0,0,0,0,0,0,0,0,-1,993,1079,0,0
-224,-55,0,0,0,0,0,0,0,0,0,-1,1000,1079,0,0
-217,-55,0,0,0,0,0,0,0,0,0,-1,1007,1079,0,0
-210,-55,0,0,0,0,0,0,0,0,0,-1,1014,1079,0,0
-203,-55,0,0,0,0,0,0,0,0,0,-1,1021,1079,0,0
-196,-55,0,0,0,0,0,0,0,0,0,-1,1028,1079,0,0
-189,-55,0,0,0,0,0,0,0,0,0,-1,1035,1079,0,0
-182,-55,0,0,0,0,0,0,0,0,0,-1,1042,1079,0,0
-175,-55,0,0,0,0,0,0,0,0,0,-1,1049,1079,0,0
-168,-55,0,0,0,0,0,0,0,0,0,-1,1056,1079,0,0
-161,-55,0,0,0,0,0,0,0,0,0,-1,1063,1079,0,0
-154,-55,0,0,0,0,0,0,0,0,0,-1,1070,1079,0,0
-147,-55,0,0,0,0,0,0,0,0,0,-1,1077,1079,0,0
-140,-55,0,0,0,0,0,0,0,0,0,-1,1084,1079,0,0
-133,-55,0,0,0,0,0,0,0,0,0,-1,1091,1079,0,0
-126,-55,0,0,0,0,0,0,0,0,0,-1,1098,1079,0,0
-119,-55,0,0,0,0,0,0,0,0,0,-1,1105,1079,0,0
-112,-55,0,0,0,0,0,0,0,0,0,-1,1112,1079,0,0
-105,-55,0,0,0,0,0,0,0,0,0,-1,1119,1079,0,0
-98,-55,0,0,0,0,0,0,0,0,0,-1,1126,1079,0,0
-91,-55,0,0,0,0,0,0,0,0,0,-1,1133,1079,0,0
-84,-55,0,0,0,0,0,0,0,0,0,-1,1140,1079,0,0
-77,-55,0,0,0,0,0,0,0,0,0,-1,1147,1079,0,0
-70,-55,0,0,0,0,0,0,0,0,0,-1,1154,1079,0,0
-63,-55,0,0,0,0,0,0,0,0,0,-1,1161,1079,0,0
-56,-55,0,0,0,0,0,0,0,0,0,-1,1168,1079,0,0
-49,-55,0,0,0,0,0,0,0,0,0,-1,1175,1079,0,0
-42,-55,0,0,0,0,0,0,0,0,0,-1,1182,1079,0,0
-35,-55,0,0,0,0,0,0,0,0,0,-1,1189,1079,0,0
-28,-55,0,0,0,0,0,0,0,0,0,-1,1196,1079,0,0
-21,-55,0,0,0,0,0,0,0,0,0,-1,1203,1079,0,0
-14,-55,0,0,0,0,0,0,0,0,0,-1,1210,1079,0,0
-7,-55,0,0,0,0,0,0,0,0,0,-1,1217,1079,0,0
0,-55,0,0,0,0,0,0,0,0,0,-1,1224,1079,0,0
7,-55,0,0,0,0,0,0,0,0,0,-1,1231,1079,0,0
14,-55,0,0,0,0,0,0,0,0,0,-1,1238,1079,0,0
21,-55,0,0,0,0,0,0,0,0,0,-1,1245,1079,0,0
28,-55,0,0,0,0,0,0,0,0,0,-1,1252,1079,0,0
35,-55,0,0,0,0,0,0,0,0,0,-1,1259,1079,0,0
42,-55,0,0,0,0,0,0,0,0,0,-1,1266,1079,0,0
49,-55,0,0,0,0,0,0,0,0,0,-1,1273,1079,0,0
56,-55,0,0,0,0,0,0,0,0,0,-1,1280,1079,0,0
63,-55,0,0,0,0,0,0,0,0,0,-1,1287,1079,0,0
70,-55,0,0,0,0,0,0,0,0,0,-1,1294,1079,0,0
77,-55,0,0,0,0,0,0,0,0,0,-1,1301,1079,0,0
84,-55,0,0,0,0,0,0,0,0,0,-1,1308,1079,0,0
91,-55,0,0,0,0,0,0,0,0,0,-1,1315,1079,0,0
98,-55,0,0,0,0,0,0,0,0,0,-1,1322,1079,0,0
105,-55,0,0,0,0,0,0,0,0,0,-1,1329,1079,0,0
112,-55,0,0,0,0,0,0,0,0,0,-1,1336,1079,0,0
119,-55,0,0,0,0,0,0,0,0,0,-1,1343,1079,0,0
126,-55,0,0,0,0,0,0,0,0,0,-1,1350,1079,0,0
133,-55,0,0,0,0,0,0,0,0,0,-1,1357,1079,0,0
140,-55,0,0,0,0,0,0,0,0,0,-1,1364,1079,0,0
147,-55,0,0,0,0,0,0,0,0,0,-1,1371,1079,0,0
154,-55,0,0,0,0,0,0,0,0,0,-1,1378,1079,0,0
161,-55,0,0,0,0,0,0,0,0,0,-1,1385,1079,0,0
168,-55,0,0,0,0,0,0,0,0,0,-1,1392,1079,0,0
175,-55,0,0,0,0,0,0,0,0,0,-1,1399,1079,0,0
182,-55,0,0,0,0,0,0,0,0,0,-1,1406,1079,0,0
189,-55,0,0,0,0,0,0,0,0,0,-1,1413,1079,0,0
196,-55,0,0,0,0,0,0,0,0,0,-1,1420,1079,0,0
203,-55,0,0,0,0,0,0,0,0,0,-1,1427,1079,0,0
210,-55,0,0,0,0,0,0,0,0,0,-1,1434,1079,0,0
217,-55,0,0,0,0,0,0,0,0,0,-1,1441,1079,0,0
224,-55,0,0,0,0,0,0,0,0,0,-1,1448,1079,0,0
231,-55,0,0,0,0,0,0,0,0,0,-1,1455,1079,0,0
238,-55,0,0,0,0,0,0,0,0,0,-1,1462,1079,0,0
245,-55,0,0,0,0,0,0,0,0,0,-1,1469,1079,0,0
252,-55,0,0,0,0,0,0,0,0,0,-1,1476,1079,0,0
259,-55,0,0,0,0,0,0,0,0,0,-1,1483,1079,0,0
266,-55,0,0,0,0,0,0,0,0,0,-1,1490,1079,0,0
273,-55,0,0,0,0,0,0,0,0,0,-1,1497,1079,0,0
280,-55,0,0,0,0,0,0,0,0,0,-1,1504,1079,0,0
287,-55,0,0,0,0,0,0,0,0,0,-1,1511,1079,0,0
294,-55,0,0,0,0,0,0,0,0,0,-1,1518,1079,0,0
301,-55,0,0,0,0,0,0,0,0,0,-1,1525,1079,0,0
308,-55,0,0,0,0,0,0,0,0,0,-1,1532,1079,0,0
315,-55,0,0,0,0,0,0,0,0,0,-1,1539,1079,0,0
322,-55,0,0,0,0,0,0,0,0,0,-1,1546,1079,0,0
329,-55,0,0,0,0,0,0,0,0,0,-1,1553,1079,0,0
336,-55,0,0,0,0,0,0,0,0,0,-1,1560,1079,0,0
343,-55,0,0,0,0,0,0,0,0,0,-1,1567,1079,0,0
350,-55,0,0,0,0,0,0,0,0,0,-1,1574,1079,0,0
357,-55,0,0,0,0,0,0,0,0,0,-1,1581,1079,0,0
364,-55,0,0,0,0,0,0,0,0,0,-1,1588,1079,0,0
371,-55,0,0,0,0,0,0,0,0,0,-1,1595,1079,0,0
378,-55,0,0,0,0,0,0,0,0,0,-1,1602,1079,0,0
385,-55,0,0,0,0,0,0,0,0,0,-1,1609,1079,0,0
392,-55,0,0,0,0,0,0,0,0,0,-1,1616,1079,0,0
399,-55,0,0,0,0,0,0,0,0,0,-1,1623,1079,0,0
406,-55,0,0,0,0,0,0,0,0,0,-1,1630,1079,0,0
413,-55,0,0,0,0,0,0,0,0,0,-1,1637,1079,0,0
420,-55,0,0,0,0,0,0,0,0,0,-1,1644,1079,0,0
427,-55,0,0,0,0,0,0,0,0,0,-1,1651,1079,0,0
434,-55,0,0,0,0,0,0,0,0,0,-1,1658,1079,0,0
441,-55,0,0,0,0,0,0,0,0,0,-1,1665,1079,0,0
448,-55,0,0,0,0,0,0,0,0,0,-1,1672,1079,0,0
455,-55,0,0,0,0,0,0,0,0,0,-1,1679,1079,0,0
462,-55,0,0,0,0,0,0,0,0,0,-1,1686,1079,0,0
469,-55,0,0,0,0,0,0,0,0,0,-1,1693,1079,0,0
476,-55,0,0,0,0,0,0,0,0,0,-1,1700,1079,0,0
483,-55,0,0,0,0,0,0,0,0,0,-1,1707,1079,0,0
490,-55,0,0,0,0,0,0,0,0,0,-1,1714,1079,0,0
497,-55,0,0,0,0,0,0,0,0,0,-1,1721,1079,0,0
504,-55,0,0,0,0,0,0,0,0,0,-1,1728,1079,0,0
511,-55,0,0,0,0,0,0,0,0,0,-1,1735,1079,0,0
518,-55,0,0,0,0,0,0,0,0,0,-1,1742,1079,0,0
525,-55,0,0,0,0,0,0,0,0,0,-1,1749,1079,0,0
532,-55,0,0,0,0,0,0,0,0,0,-1,1756,1079,0,0
539,-55,0,0,0,0,0,0,0,0,0,-1,1763,1079,0,0
546,-55,0,0,0,0,0,0,0,0,0,-1,1770,1079,0,0
553,-55,0,0,0,0,0,0,0,0,0,-1,1777,1079,0,0
560,-55,0,0,0,0,0,0,0,0,0,-1,1784,1079,0,0
567,-55,0,0,0,0,0,0,0,0,0,-1,1791,1079,0,0
574,-55,0,0,0,0,0,0,0,0,0,-1,1798,1079,0,0
581,-55,0,0,0,0,0,0,0,0,0,-1,1805,1079,0,0
588,-55,0,0,0,0,0,0,0,0,0,-1,1812,1079,0,0
595,-55,0,0,0,0,0,0,0,0,0,-1,1819,1079,0,0
602,-55,0,0,0,0,0,0,0,0,0,-1,1826,1079,0,0
609,-55,0,0,0,0,0,0,0,0,0,-1,1833,1079,0,0
616,-55,0,0,0,0,0,0,0,0,0,-1,1840,1079,0,0
623,-55,0,0,0,0,0,0,0,0,0,-1,1847,1079,0,0
630,-55,0,0,0,0,0,0,0,0,0,-1,1854,1079,0,0
637,-55,0,0,0,0,0,0,0,0,0,-1,1861,1079,0,0
644,-55,0,0,0,0,0,0,0,0,0,-1,1868,1079,0,0
651,-55,15.6101,2.35608,0.00329774,0.00224416,-0.00130844,0.00418145,0.00136045,-0.594021,0.00246276,0.0346783,1875,1079,15.6101,-2.35607
658,-55,15.7461,2.41797,0.00188126,0.00194832,-0.00125531,0.00317055,0.000659031,-0.798751,0.00193186,0.0342896,1882,1079,15.7461,-2.41802
665,-55,15.7709,2.35632,0.000948504,0.00167538,-0.00108938,0.00246035,0.000163535,-0.946402,0.00158853,0.0377115,1889,1079,15.7709,-2.35636
672,-55,15.6604,2.37671,0.000154323,0.00121864,-0.000113773,0.00123066,0.000142296,-1.46548,0.000777363,0.0368054,1896,1079,15.6604,-2.37675
679,-55,15.5516,2.39014,-0.000991468,0.0006444,0.00138442,0.00143445,-0.00178152,1.05222,0.00186034,0.0341007,1903,1079,15.5517,-2.39014
686,-55,15.6674,2.46472,-0.00213308,7.5735e-05,0.00286899,0.00204555,-0.00410289,0.969129,0.00361544,0.0378722,1910,1079,15.6673,-2.46467
693,-55,15.5531,2.41345,-0.00308501,-0.000450406,0.00420886,0.00264249,-0.0061779,0.93706,0.00522703,0.0396204,1917,1079,15.5531,-2.41339
700,-55,15.6042,2.31384,-0.00389135,-0.000878517,0.00527608,0.00310199,-0.00787186,0.924457,0.00653221,0.0334528,1924,1079,15.6043,-2.31384
707,-55,15.6482,2.29944,-0.00458577,-0.00120017,0.00605471,0.00339393,-0.00917987,0.921709,0.00751131,0.0278851,1931,1079,15.6481,-2.29949
714,-55,15.6317,2.38257,-0.00504835,-0.00140898,0.00664669,0.00366262,-0.0101199,0.919011,0.00824334,0.0305307,1938,1079,15.6318,-2.38252
721,-55,15.5746,2.90283,-0.0051475,-0.0015209,0.00681073,0.00371379,-0.0103822,0.915501,0.00843641,0.0350304,1945,1079,15.5746,-2.9028
728,-55,15.1843,3.2384,-0.00500319,-0.00143047,0.0064618,0.00348735,-0.009921,0.920255,0.00803287,0.025484,1952,1079,15.1843,-3.23836
735,-55,15.2511,3.19519,-0.00476346,-0.0011606,0.00586161,0.00317015,-0.00909421,0.93448,0.00735103,0.0153278,1959,1079,15.2511,-3.19523
742,-55,15.2505,3.18005,-0.00401363,-0.000824683,0.0051284,0.0029514,-0.00778971,0.936116,0.00640766,0.0148787,1966,1079,15.2505,-3.18009
749,-55,15.2987,3.14648,-0.00285821,0.000274379,0.0045735,0.00354236,-0.00612619,0.950374,0.00564819,0.0117828,1973,1079,15.2987,-3.14643
756,-55,15.3064,3.13086,-0.00191023,0.00196389,0.00400682,0.00447731,-0.00442365,1.01055,0.00513901,0.0106266,1980,1079,15.3064,-3.13091
763,-55,15.2899,3.13342,-0.00109491,0.00421695,0.00340136,0.00587648,-0.00275444,1.11687,0.00509058,0.013119,1987,1079,15.2899,-3.13338
770,-55,15.2831,3.10925,-3.25605e-05,0.00682061,0.00288073,0.00787064,-0.00108259,1.22126,0.00564268,0.0141005,1994,1079,15.2831,-3.10931
777,-55,15.2985,3.06494,0.00101869,0.0102253,0.00287746,0.0110506,0.000193343,1.29147,0.00730349,0.0119252,2001,1079,15.2984,-3.06496
784,-55,15.2567,2.9502,0.00152543,0.0145319,0.00373032,0.0155258,0.000531512,1.3104,0.010178,0.028535,2008,1079,15.2567,-2.9502
791,-55,15.1887,2.87085,0.00136604,0.0200444,0.00498926,0.0212936,0.000116881,1.32547,0.0141569,0.0447173,2015,1079,15.1887,-2.87079
798,-55,15.672,3.49915,0,0,0,0,0,0,0,-1,2022,1079,15.672,-3.49919
805,-55,15.6813,3.4646,0,0,0,0,0,0,0,-1,2029,1079,15.6813,-3.46465
812,-55,15.7124,3.35974,0,0,0,0,0,0,0,-1,2036,1079,15.7123,-3.3598
-700,-62,-12.8391,1.06262,0.141326,0.0135672,0.0181105,0.143844,0.0110496,0.13813,0.0924333,0.0476842,524,1086,-12.8391,-1.06259
-693,-62,-12.3704,1.36975,0.120613,0.00771298,0.011673,0.121807,0.00651871,0.101956,0.0791214,0.0475177,531,1086,-12.3704,-1.36976
-686,-62,-11.6429,1.70862,0.100241,0.00384438,0.0074359,0.100811,0.00327417,0.0765353,0.066143,0.0454192,538,1086,-11.6429,-1.70861
-679,-62,-10.6534,2.09509,0,0,0,0,0,0,0,-1,545,1086,-10.6534,-2.09508
-672,-62,-9.45331,0.6604,0,0,0,0,0,0,0,-1,552,1086,-9.45329,-0.660361
-665,-62,-9.49493,0.672485,0.0485807,-0.00116817,0.00101224,0.0486013,-0.00118875,0.0203357,0.0328043,0.0459073,559,1086,-9.49495,-0.672451
-658,-62,-9.54559,0.704468,0.0354967,-0.001489,0.000147737,0.0354973,-0.00148959,0.00399436,0.0241767,0.0465776,566,1086,-9.54558,-0.704417
-651,-62,-9.45605,0.785522,0.0248057,-0.00144857,-0.00029744,0.0248091,-0.00145194,-0.0113273,0.017044,0.0366317,573,1086,-9.45605,-0.785472
-644,-62,-9.42102,0.860352,0.0157575,-0.00138092,-0.00133555,0.015861,-0.00148437,-0.0773051,0.0111019,0.0116673,580,1086,-9.42101,-0.860352
-637,-62,-9.4256,0.910034,0.0080599,-0.00177174,-0.00159273,0.00831149,-0.00202332,-0.156664,0.00632426,0.00973789,587,1086,-9.4256,-0.910078
-630,-62,-9.43414,0.9729,0.00332831,-0.00118096,-0.0022051,0.00422738,-0.00208003,-0.387146,0.00371126,0.01161,594,1086,-9.43414,-0.972929
-623,-62,-9.42285,1.02942,0.000692513,-0.000951803,-0.00259681,0.0025942,-0.00285349,-0.632089,0.00314642,0.0129632,601,1086,-9.42287,-1.02938
-616,-62,-9.39655,1.04395,-0.000785453,-0.00064551,-0.00310837,0.00239368,-0.00382464,-0.796652,0.0036217,0.0128668,608,1086,-9.39655,-1.0439
-609,-62,-9.40222,1.07996,-0.000994275,-0.000332485,-0.0034719,0.00282425,-0.00415101,-0.832908,0.00405138,0.0129292,615,1086,-9.40223,-1.07996
-602,-62,-9.41705,1.1344,-0.000933602,-0.00048144,-0.0044791,0.00377728,-0.00519233,-0.810614,0.00520004,0.0129379,622,1086,-9.41704,-1.13444
-595,-62,-9.39069,1.20728,-0.000879058,-0.000482885,-0.00516213,0.00448496,-0.0058469,-0.804575,0.00598235,0.0154941,629,1086,-9.39068,-1.20733
-588,-62,-9.43872,0.998779,-0.000752955,-0.000460151,-0.0054435,0.00483892,-0.00605203,-0.798842,0.00630088,0.0235642,636,1086,-9.43872,-0.99872
-581,-62,-9.54016,0.734009,-0.000529863,-0.000357771,-0.00543556,0.00499243,-0.00588006,-0.793313,0.0062842,0.0308533,643,1086,-9.54018,-0.733953
-574,-62,-9.51398,0.526855,-0.000190587,-0.000165944,-0.00529336,0.00511511,-0.00547164,-0.786562,0.00611342,0.0335436,650,1086,-9.51395,-0.52689
-567,-62,-9.38586,0.35083,0.000210965,0.000126159,-0.00478504,0.00495379,-0.00461666,-0.780967,0.00552664,0.0382627,657,1086,-9.38585,-0.350816
-560,-62,-9.39117,0.321533,0.000663878,0.000433241,-0.00390804,0.0044583,-0.00336118,-0.770648,0.00452937,0.0427257,664,1086,-9.39116,-0.321528
-553,-62,-9.38763,0.444824,0.0010979,0.00068061,-0.00266471,0.00356211,-0.00178361,-0.746329,0.00314278,0.0402464,671,1086,-9.38761,-0.444869
-546,-62,-9.51538,0.421997,0.00144094,0.000773333,-0.00102454,0.00218468,2.95853e-05,-0.627918,0.0014467,0.0336516,678,1086,-9.51537,-0.421993
-539,-62,-9.54993,0.436523,0.00157514,0.000558224,0.000754633,0.00197663,0.000156737,0.488941,0.00126874,0.0378576,685,1086,-9.54992,-0.436548
-532,-62,-9.4679,0.495605,0.000819278,-0.000395284,0.00161889,0.00194104,-0.00151705,0.60596,0.00200153,0.0428771,692,1086,-9.46792,-0.495631
-525,-62,0,0,0,0,0,0,0,0,0,-1,699,1086,0,0
-518,-62,0,0,0,0,0,0,0,0,0,-1,706,1086,0,0
-511,-62,0,0,0,0,0,0,0,0,0,-1,713,1086,0,0
-504,-62,0,0,0,0,0,0,0,0,0,-1,720,1086,0,0
-497,-62,0,0,0,0,0,0,0,0,0,-1,727,1086,0,0
-490,-62,0,0,0,0,0,0,0,0,0,-1,734,1086,0,0
-483,-62,0,0,0,0,0,0,0,0,0,-1,741,1086,0,0
-476,-62,0,0,0,0,0,0,0,0,0,-1,748,1086,0,0
-469,-62,0,0,0,0,0,0,0,0,0,-1,755,1086,0,0
-462,-62,0,0,0,0,0,0,0,0,0,-1,762,1086,0,0
-455,-62,0,0,0,0,0,0,0,0,0,-1,769,1086,0,0
-448,-62,0,0,0,0,0,0,0,0,0,-1,776,1086,0,0
-441,-62,0,0,0,0,0,0,0,0,0,-1,783,1086,0,0
-434,-62,0,0,0,0,0,0,0,0,0,-1,790,1086,0,0
-427,-62,0,0,0,0,0,0,0,0,0,-1,797,1086,0,0
-420,-62,0,0,0,0,0,0,0,0,0,-1,804,1086,0,0
-413,-62,0,0,0,0,0,0,0,0,0,-1,811,1086,0,0
-406,-62,0,0,0,0,0,0,0,0,0,-1,818,1086,0,0
-399,-62,0,0,0,0,0,0,0,0,0,-1,825,1086,0,0
-392,-62,0,0,0,0,0,0,0,0,0,-1,832,1086,0,0
-385,-62,0,0,0,0,0,0,0,0,0,-1,839,1086,0,0
-378,-62,0,0,0,0,0,0,0,0,0,-1,846,1086,0,0
-371,-62,0,0,0,0,0,0,0,0,0,-1,853,1086,0,0
-364,-62,0,0,0,0,0,0,0,0,0,-1,860,1086,0,0
-357,-62,0,0,0,0,0,0,0,0,0,-1,867,1086,0,0
-350,-62,0,0,0,0,0,0,0,0,0,-1,874,1086,0,0
-343,-62,0,0,0,0,0,0,0,0,0,-1,881,1086,0,0
-336,-62,0,0,0,0,0,0,0,0,0,-1,888,1086,0,0
-329,-62,0,0,0,0,0,0,0,0,0,-1,895,1086,0,0
-322,-62,0,0,0,0,0,0,0,0,0,-1,902,1086,0,0
-315,-62,0,0,0,0,0,0,0,0,0,-1,909,1086,0,0
-308,-62,0,0,0,0,0,0,0,0,0,-1,916,1086,0,0
-301,-62,0,0,0,0,0,0,0,0,0,-1,923,1086,0,0
-294,-62,0,0,0,0,0,0,0,0,0,-1,930,1086,0,0
-287,-62,0,0,0,0,0,0,0,0,0,-1,937,1086,0,0
-280,-62,0,0,0,0,0,0,0,0,0,-1,944,1086,0,0
-273,-62,0,0,0,0,0,0,0,0,0,-1,951,1086,0,0
-266,-62,0,0,0,0,0,0,0,0,0,-1,958,1086,0,0
-259,-62,0,0,0,0,0,0,0,0,0,-1,965,1086,0,0
-252,-62,0,0,0,0,0,0,0,0,0,-1,972,1086,0,0
-245,-62,0,0,0,0,0,0,0,0,0,-1,979,1086,0,0
-238,-62,0,0,0,0,0,0,0,0,0,-1,986,1086,0,0
-231,-62,0,0,0,0,0,0,0,0,0,-1,993,1086,0,0
-224,-62,0,0,0,0,0,0,0,0,0,-1,1000,1086,0,0
-217,-62,0,0,0,0,0,0,0,0,0,-1,1007,1086,0,0
-210,-62,0,0,0,0,0,0,0,0,0,-1,1014,1086,0,0
-203,-62,0,0,0,0,0,0,0,0,0,-1,1021,1086,0,0
-196,-62,0,0,0,0,0,0,0,0,0,-1,1028,1086,0,0
-189,-62,0,0,0,0,0,0,0,0,0,-1,1035,1086,0,0
-182,-62,0,0,0,0,0,0,0,0,0,-1,1042,1086,0,0
-175,-62,0,0,0,0,0,0,0,0,0,-1,1049,1086,0,0
-168,-62,0,0,0,0,0,0,0,0,0,-1,1056,1086,0,0
-161,-62,0,0,0,0,0,0,0,0,0,-1,1063,1086,0,0
-154,-62,0,0,0,0,0,0,0,0,0,-1,1070,1086,0,0
-147,-62,0,0,0,0,0,0,0,0,0,-1,1077,1086,0,0
-140,-62,0,0,0,0,0,0,0,0,0,-1,1084,1086,0,0
-133,-62,0,0,0,0,0,0,0,0,0,-1,1091,1086,0,0
-126,-62,0,0,0,0,0,0,0,0,0,-1,1098,1086,0,0
-119,-62,0,0,0,0,0,0,0,0,0,-1,1105,1086,0,0
-112,-62,0,0,0,0,0,0,0,0,0,-1,1112,1086,0,0
-105,-62,0,0,0,0,0,0,0,0,0,-1,1119,1086,0,0
-98,-62,0,0,0,0,0,0,0,0,0,-1,1126,1086,0,0
-91,-62,0,0,0,0,0,0,0,0,0,-1,1133,1086,0,0
-84,-62,0,0,0,0,0,0,0,0,0,-1,1140,1086,0,0
-77,-62,0,0,0,0,0,0,0,0,0,-1,1147,1086,0,0
-70,-62,0,0,0,0,0,0,0,0,0,-1,1154,1086,0,0
-63,-62,0,0,0,0,0,0,0,0,0,-1,1161,1086,0,0
-56,-62,0,0,0,0,0,0,0,0,0,-1,1168,1086,0,0
-49,-62,0,0,0,0,0,0,0,0,0,-1,1175,1086,0,0
-42,-62,0,0,0,0,0,0,0,0,0,-1,1182,1086,0,0
-35,-62,0,0,0,0,0,0,0,0,0,-1,1189,1086,0,0
-28,-62,0,0,0,0,0,0,0,0,0,-1,1196,1086,0,0
-21,-62,0,0,0,0,0,0,0,0,0,-1,1203,1086,0,0
-14,-62,0,0,0,0,0,0,0,0,0,-1,1210,1086,0,0
-7,-62,0,0,0,0,0,0,0,0,0,-1,1217,1086,0,0
0,-62,0,0,0,0,0,0,0,0,0,-1,1224,1086,0,0
7,-62,0,0,0,0,0,0,0,0,0,-1,1231,1086,0,0
14,-62,0,0,0,0,0,0,0,0,0,-1,1238,1086,0,0
21,-62,0,0,0,0,0,0,0,0,0,-1,1245,1086,0,0
28,-62,0,0,0,0,0,0,0,0,0,-1,1252,1086,0,0
35,-62,0,0,0,0,0,0,0,0,0,-1,1259,1086,0,0
42,-62,0,0,0,0,0,0,0,0,0,-1,1266,1086,0,0
49,-62,0,0,0,0,0,0,0,0,0,-1,1273,1086,0,0
56,-62,0,0,0,0,0,0,0,0,0,-1,1280,1086,0,0
63,-62,0,0,0,0,0,0,0,0,0,-1,1287,1086,0,0
70,-62,0,0,0,0,0,0,0,0,0,-1,1294,1086,0,0
77,-62,0,0,0,0,0,0,0,0,0,-1,1301,1086,0,0
84,-62,0,0,0,0,0,0,0,0,0,-1,1308,1086,0,0
91,-62,0,0,0,0,0,0,0,0,0,-1,1315,1086,0,0
98,-62,0,0,0,0,0,0,0,0,0,-1,1322,1086,0,0
105,-62,0,0,0,0,0,0,0,0,0,-1,1329,1086,0,0
112,-62,0,0,0,0,0,0,0,0,0,-1,1336,1086,0,0
119,-62,0,0,0,0,0,0,0,0,0,-1,1343,1086,0,0
126,-62,0,0,0,0,0,0,0,0,0,-1,1350,1086,0,0
133,-62,0,0,0,0,0,0,0,0,0,-1,1357,1086,0,0
140,-62,0,0,0,0,0,0,0,0,0,-1,1364,1086,0,0
147,-62,0,0,0,0,0,0,0,0,0,-1,1371,1086,0,0
154,-62,0,0,0,0,0,0,0,0,0,-1,1378,1086,0,0
161,-62,0,0,0,0,0,0,0,0,0,-1,1385,1086,0,0
168,-62,0,0,0,0,0,0,0,0,0,-1,1392,1086,0,0
175,-62,0,0,0,0,0,0,0,0,0,-1,1399,1086,0,0
182,-62,0,0,0,0,0,0,0,0,0,-1,1406,1086,0,0
189,-62,0,0,0,0,0,0,0,0,0,-1,1413,1086,0,0
196,-62,0,0,0,0,0,0,0,0,0,-1,1420,1086,0,0
203,-62,0,0,0,0,0,0,0,0,0,-1,1427,1086,0,0
210,-62,0,0,0,0,0,0,0,0,0,-1,1434,1086,0,0
217,-62,0,0,0,0,0,0,0,0,0,-1,1441,1086,0,0
224,-62,0,0,0,0,0,0,0,0,0,-1,1448,1086,0,0
231,-62,0,0,0,0,0,0,0,0,0,-1,1455,1086,0,0
238,-62,0,0,0,0,0,0,0,0,0,-1,1462,1086,0,0
245,-62,0,0,0,0,0,0,0,0,0,-1,1469,1086,0,0
252,-62,0,0,0,0,0,0,0,0,0,-1,1476,1086,0,0
259,-62,0,0,0,0,0,0,0,0,0,-1,1483,1086,0,0
266,-62,0,0,0,0,0,0,0,0,0,-1,1490,1086,0,0
273,-62,0,0,0,0,0,0,0,0,0,-1,1497,1086,0,0
280,-62,0,0,0,0,0,0,0,0,0,-1,1504,1086,0,0
287,-62,0,0,0,0,0,0,0,0,0,-1,1511,1086,0,0
294,-62,0,0,0,0,0,0,0,0,0,-1,1518,1086,0,0
301,-62,0,0,0,0,0,0,0,0,0,-1,1525,1086,0,0
308,-62,0,0,0,0,0,0,0,0,0,-1,1532,1086,0,0
315,-62,0,0,0,0,0,0,0,0,0,-1,1539,1086,0,0
322,-62,0,0,0,0,0,0,0,0,0,-1,1546,1086,0,0
329,-62,0,0,0,0,0,0,0,0,0,-1,1553,1086,0,0
336,-62,0,0,0,0,0,0,0,0,0,-1,1560,1086,0,0
343,-62,0,0,0,0,0,0,0,0,0,-1,1567,1086,0,0
350,-62,0,0,0,0,0,0,0,0,0,-1,1574,1086,0,0
357,-62,0,0,0,0,0,0,0,0,0,-1,1581,1086,0,0
364,-62,0,0,0,0,0,0,0,0,0,-1,1588,1086,0,0
371,-62,0,0,0,0,0,0,0,0,0,-1,1595,1086,0,0
378,-62,0,0,0,0,0,0,0,0,0,-1,1602,1086,0,0
385,-62,0,0,0,0,0,0,0,0,0,-1,1609,1086,0,0
392,-62,0,0,0,0,0,0,0,0,0,-1,1616,1086,0,0
399,-62,0,0,0,0,0,0,0,0,0,-1,1623,1086,0,0
406,-62,0,0,0,0,0,0,0,0,0,-1,1630,1086,0,0
413,-62,0,0,0,0,0,0,0,0,0,-1,1637,1086,0,0
420,-62,0,0,0,0,0,0,0,0,0,-1,1644,1086,0,0
427,-62,0,0,0,0,0,0,0,0,0,-1,1651,1086,0,0
434,-62,0,0,0,0,0,0,0,0,0,-1,1658,1086,0,0
441,-62,0,0,0,0,0,0,0,0,0,-1,1665,1086,0,0
448,-62,0,0,0,0,0,0,0,0,0,-1,1672,1086,0,0
455,-62,0,0,0,0,0,0,0,0,0,-1,1679,1086,0,0
462,-62,0,0,0,0,0,0,0,0,0,-1,1686,1086,0,0
469,-62,0,0,0,0,0,0,0,0,0,-1,1693,1086,0,0
476,-62,0,0,0,0,0,0,0,0,0,-1,1700,1086,0,0
483,-62,0,0,0,0,0,0,0,0,0,-1,1707,1086,0,0
490,-62,0,0,0,0,0,0,0,0,0,-1,1714,1086,0,0
497,-62,0,0,0,0,0,0,0,0,0,-1,1721,1086,0,0
504,-62,0,0,0,0,0,0,0,0,0,-1,1728,1086,0,0
511,-62,0,0,0,0,0,0,0,0,0,-1,1735,1086,0,0
518,-62,0,0,0,0,0,0,0,0,0,-1,1742,1086,0,0
525,-62,0,0,0,0,0,0,0,0,0,-1,1749,1086,0,0
532,-62,0,0,0,0,0,0,0,0,0,-1,1756,1086,0,0
539,-62,0,0,0,0,0,0,0,0,0,-1,1763,1086,0,0
546,-62,0,0,0,0,0,0,0,0,0,-1,1770,1086,0,0
553,-62,0,0,0,0,0,0,0,0,0,-1,1777,1086,0,0
560,-62,0,0,0,0,0,0,0,0,0,-1,1784,1086,0,0
567,-62,0,0,0,0,0,0,0,0,0,-1,1791,1086,0,0
574,-62,0,0,0,0,0,0,0,0,0,-1,1798,1086,0,0
581,-62,0,0,0,0,0,0,0,0,0,-1,1805,1086,0,0
588,-62,0,0,0,0,0,0,0,0,0,-1,1812,1086,0,0
595,-62,0,0,0,0,0,0,0,0,0,-1,1819,1086,0,0
602,-62,0,0,0,0,0,0,0,0,0,-1,1826,1086,0,0
609,-62,0,0,0,0,0,0,0,0,0,-1,1833,1086,0,0
616,-62,0,0,0,0,0,0,0,0,0,-1,1840,1086,0,0
623,-62,0,0,0,0,0,0,0,0,0,-1,1847,1086,0,0
630,-62,0,0,0,0,0,0,0,0,0,-1,1854,1086,0,0
637,-62,0,0,0,0,0,0,0,0,0,-1,1861,1086,0,0
644,-62,0,0,0,0,0,0,0,0,0,-1,1868,1086,0,0
651,-62,15.6903,2.21558,0.00407561,0.00186825,-0.000957668,0.00443318,0.00151069,-0.357341,0.0026024,0.0407549,1875,1086,15.6903,-2.21555
658,-62,15.9413,2.22827,0.00249293,0.0015391,-0.000989242,0.00311422,0.00091781,-0.560784,0.00184782,0.0394218,1882,1086,15.9413,-2.22828
665,-62,15.8042,2.32263,0.00141668,0.00125018,-0.000840173,0.00217772,0.00048914,-0.736015,0.00131934,0.0380421,1889,1086,15.8042,-2.32266
672,-62,15.6422,2.33264,0.000399937,0.00077592,0.000190137,0.00085531,0.000320547,1.17526,0.000498949,0.0362295,1896,1086,15.6422,-2.33263
679,-62,15.605,2.36243,-0.000927809,0.000209687,0.00170178,0.00143525,-0.00215337,0.946666,0.00208567,0.0354877,1903,1086,15.605,-2.36241
686,-62,15.7513,2.49573,-0.0021948,-0.000336498,0.00318614,0.00205321,-0.00458451,0.927275,0.00392408,0.038645,1910,1086,15.7514,-2.49569
693,-62,15.6161,2.4364,-0.00324811,-0.000830064,0.00452061,0.00264041,-0.00671858,0.916064,0.00557179,0.0402975,1917,1086,15.6161,-2.43636
700,-62,15.6611,2.28223,-0.00414164,-0.00121767,0.00556664,0.00307576,-0.00843507,0.913815,0.0068817,0.0342402,1924,1086,15.6611,-2.28221
707,-62,15.6223,2.32996,-0.00489348,-0.00150552,0.0063218,0.00334533,-0.00974433,0.916302,0.00785256,0.0264716,1931,1086,15.6223,-2.33
714,-62,15.6565,2.3186,-0.00535018,-0.00166316,0.00689365,0.00362922,-0.0106426,0.916052,0.00856503,0.0257981,1938,1086,15.6565,-2.31857
721,-62,15.6967,2.83716,-0.00540553,-0.0017298,0.00701702,0.00368605,-0.0108214,0.913479,0.00870702,0.0311625,1945,1086,15.6967,-2.83719
728,-62,15.2992,3.22339,-0.00524704,-0.0015836,0.00660905,0.00344286,-0.0102735,0.920582,0.00823997,0.0237875,1952,1086,15.2992,-3.22342
735,-62,15.2499,3.1886,-0.00497102,-0.00126906,0.00597901,0.00313893,-0.009379,0.935509,0.0075206,0.0152055,1959,1086,15.2499,-3.18858
742,-62,15.2317,3.21167,-0.00410816,-0.000914725,0.00524035,0.00296677,-0.00798966,0.933278,0.00654352,0.0132323,1966,1086,15.2317,-3.2117
749,-62,15.2509,3.16541,-0.00284304,0.000345015,0.00472066,0.00373351,-0.00623154,0.948222,0.00581327,0.0113652,1973,1086,15.2509,-3.16544
756,-62,15.2626,3.14917,-0.00185009,0.00233698,0.00423411,0.00496685,-0.00447996,1.015,0.00545653,0.0117271,1980,1086,15.2626,-3.14913
763,-62,15.2468,3.12927,-0.00097974,0.00516493,0.00380809,0.00698553,-0.00280034,1.12483,0.00581956,0.0123427,1987,1086,15.2468,-3.12927
770,-62,15.2555,3.09351,0.000162654,0.00835475,0.00348285,0.00963531,-0.0011179,1.21846,0.00682675,0.00963546,1994,1086,15.2555,-3.09353
777,-62,15.2555,3.0155,0.00121256,0.0125917,0.00382975,0.0137606,4.36879e-05,1.27457,0.00915919,0.0119189,2001,1086,15.2555,-3.01548
784,-62,15.2006,2.89209,0.00166052,0.0180746,0.00514101,0.0195519,0.00018327,1.29099,0.0129739,0.0272976,2008,1086,15.2006,-2.89212
791,-62,15.0874,2.75085,0.00143196,0.0251991,0.00696547,0.0270901,-0.000458975,1.30571,0.018215,0.0460325,2015,1086,15.0874,-2.7509
798,-62,16.4929,5.29749,0,0,0,0,0,0,0,-1,2022,1086,16.4929,-5.29749
805,-62,15.895,3.77588,0,0,0,0,0,0,0,-1,2029,1086,15.895,-3.77585
812,-62,15.7952,3.84399,0,0,0,0,0,0,0,-1,2036,1086,15.7953,-3.84397
-700,-69,-13.7037,0.815674,0.14816,0.018455,0.0096847,0.148879,0.0177359,0.0741195,0.0939007,0.0461682,524,1093,-13.7037,-0.815681
-693,-69,-13.3287,1.0426,0.126788,0.0106276,0.00567085,0.127064,0.0103515,0.0486648,0.0814785,0.046289,531,1093,-13.3287,-1.04262
-686,-69,-11.8856,1.70801,0,0,0,0,0,0,0,-1,538,1093,-11.8856,-1.70802
-679,-69,-7.91736,1.28198,0,0,0,0,0,0,0,-1,545,1093,-7.91736,-1.28195
-672,-69,-11.9016,0.160645,0,0,0,0,0,0,0,-1,552,1093,-11.9015,-0.160697
-665,-69,-9.3028,0.616089,0,0,0,0,0,0,0,-1,559,1093,-9.30277,-0.616084
-658,-69,-9.28912,0.820679,0.0375565,-0.0016838,-0.00079645,0.0375726,-0.00169996,-0.0202856,0.0256339,0.0478604,566,1093,-9.2891,-0.820671
-651,-69,-9.36011,0.852539,0.026181,-0.00173439,-0.000937417,0.0262124,-0.00176583,-0.0335303,0.0180923,0.0341924,573,1093,-9.36012,-0.852544
-644,-69,-9.37451,0.863892,0.0167682,-0.00176302,-0.00175565,0.016933,-0.00192788,-0.0936306,0.0119831,0.0094737,580,1093,-9.37453,-0.863849
-637,-69,-9.37238,0.909668,0.00849928,-0.00217247,-0.00159647,0.00873299,-0.00240618,-0.145359,0.00676816,0.0108447,587,1093,-9.37241,-0.909687
-630,-69,-9.37988,0.937256,0.00326864,-0.00144161,-0.00227194,0.00418587,-0.00235884,-0.383711,0.00382735,0.0140017,594,1093,-9.37988,-0.93725
-623,-69,-9.3811,1.01843,0.000420362,-0.0011397,-0.00273098,0.00248052,-0.00319986,-0.64629,0.00328832,0.0130619,601,1093,-9.38109,-1.01841
-616,-69,-9.35828,1.04431,-0.00108767,-0.000790491,-0.00353026,0.0025943,-0.00447246,-0.806431,0.00412775,0.0126149,608,1093,-9.3583,-1.04434
-609,-69,-9.35168,1.05872,-0.00121487,-0.000430639,-0.00380828,0.00300566,-0.00465117,-0.836699,0.00445457,0.0118694,615,1093,-9.35169,-1.05874
-602,-69,-9.34454,1.15576,-0.00112905,-0.000595597,-0.00480556,0.00395063,-0.00567528,-0.813122,0.00558717,0.0149472,622,1093,-9.34453,-1.15578
-595,-69,-9.33295,1.22534,-0.00112334,-0.000630163,-0.00546427,0.00459308,-0.00634659,-0.807947,0.00634301,0.0174659,629,1093,-9.33297,-1.22528
-588,-69,-9.41901,1.06592,-0.00105759,-0.000630761,-0.00572105,0.00488085,-0.00656921,-0.804041,0.00663461,0.0211775,636,1093,-9.41898,-1.06593
-581,-69,-9.52881,0.758667,-0.000852681,-0.000577492,-0.00565156,0.00493815,-0.00636832,-0.797569,0.00654518,0.0280525,643,1093,-9.52882,-0.758632
-574,-69,-9.54596,0.512451,-0.000521548,-0.000461865,-0.00543776,0.00494614,-0.00592955,-0.788142,0.00628763,0.0322379,650,1093,-9.54596,-0.512496
-567,-69,-9.46472,0.438843,-0.000121124,-0.000241264,-0.00481763,0.00463681,-0.0049992,-0.779164,0.00556467,0.0369455,657,1093,-9.46472,-0.438877
-560,-69,-9.47314,0.488647,0.000330327,-1.28457e-05,-0.00378402,0.00394665,-0.00362917,-0.762741,0.00437518,0.0399845,664,1093,-9.47317,-0.488675
-553,-69,-9.44812,0.580078,0.00075467,0.000149952,-0.00234322,0.00281495,-0.00191033,-0.721235,0.00274476,0.0405826,671,1093,-9.4481,-0.580025
-546,-69,-9.52148,0.536255,0.00107926,0.000150909,-0.000472341,0.00127732,-4.71592e-05,-0.39706,0.000867696,0.037061,678,1093,-9.52149,-0.536255
-539,-69,-9.42169,0.524292,0.00120098,-0.000159329,0.00160325,0.00226238,-0.00122073,0.584787,0.00204073,0.0395846,685,1093,-9.42171,-0.524311
-532,-69,-9.16364,0.588257,0.000381719,-0.00123635,0.00276398,0.00245263,-0.00330727,0.643022,0.00333766,0.0441815,692,1093,-9.16366,-0.588232
-525,-69,0,0,0,0,0,0,0,0,0,-1,699,1093,0,0
-518,-69,0,0,0,0,0,0,0,0,0,-1,706,1093,0,0
-511,-69,0,0,0,0,0,0,0,0,0,-1,713,1093,0,0
-504,-69,0,0,0,0,0,0,0,0,0,-1,720,1093,0,0
-497,-69,0,0,0,0,0,0,0,0,0,-1,727,1093,0,0
-490,-69,0,0,0,0,0,0,0,0,0,-1,734,1093,0,0
-483,-69,0,0,0,0,0,0,0,0,0,-1,741,1093,0,0
-476,-69,0,0,0,0,0,0,0,0,0,-1,748,1093,0,0
-469,-69,0,0,0,0,0,0,0,0,0,-1,755,1093,0,0
-462,-69,0,0,0,0,0,0,0,0,0,-1,762,1093,0,0
-455,-69,0,0,0,0,0,0,0,0,0,-1,769,1093,0,0
-448,-69,0,0,0,0,0,0,0,0,0,-1,776,1093,0,0
-441,-69,0,0,0,0,0,0,0,0,0,-1,783,1093,0,0
-434,-69,0,0,0,0,0,0,0,0,0,-1,790,1093,0,0
-427,-69,0,0,0,0,0,0,0,0,0,-1,797,1093,0,0
-420,-69,0,0,0,0,0,0,0,0,0,-1,804,1093,0,0
-413,-69,0,0,0,0,0,0,0,0,0,-1,811,1093,0,0
-406,-69,0,0,0,0,0,0,0,0,0,-1,818,1093,0,0
-399,-69,0,0,0,0,0,0,0,0,0,-1,825,1093,0,0
-392,-69,0,0,0,0,0,0,0,0,0,-1,832,1093,0,0
-385,-69,0,0,0,0,0,0,0,0,0,-1,839,1093,0,0
-378,-69,0,0,0,0,0,0,0,0,0,-1,846,1093,0,0
-371,-69,0,0,0,0,0,0,0,0,0,-1,853,1093,0,0
-364,-69,0,0,0,0,0,0,0,0,0,-1,860,1093,0,0
-357,-69,0,0,0,0,0,0,0,0,0,-1,867,1093,0,0
-350,-69,0,0,0,0,0,0,0,0,0,-1,874,1093,0,0
-343,-69,0,0,0,0,0,0,0,0,0,-1,881,1093,0,0
-336,-69,0,0,0,0,0,0,0,0,0,-1,888,1093,0,0
-329,-69,0,0,0,0,0,0,0,0,0,-1,895,1093,0,0
-322,-69,0,0,0,0,0,0,0,0,0,-1,902,1093,0,0
-315,-69,0,0,0,0,0,0,0,0,0,-1,909,1093,0,0
-308,-69,0,0,0,0,0,0,0,0,0,-1,916,1093,0,0
-301,-69,0,0,0,0,0,0,0,0,0,-1,923,1093,0,0
-294,-69,0,0,0,0,0,0,0,0,0,-1,930,1093,0,0
-287,-69,0,0,0,0,0,0,0,0,0,-1,937,1093,0,0
-280,-69,0,0,0,0,0,0,0,0,0,-1,944,1093,0,0
-273,-69,0,0,0,0,0,0,0,0,0,-1,951,1093,0,0
-266,-69,0,0,0,0,0,0,0,0,0,-1,958,1093,0,0
-259,-69,0,0,0,0,0,0,0,0,0,-1,965,1093,0,0
-252,-69,0,0,0,0,0,0,0,0,0,-1,972,1093,0,0
-245,-69,0,0,0,0,0,0,0,0,0,-1,979,1093,0,0
-238,-69,0,0,0,0,0,0,0,0,0,-1,986,1093,0,0
-231,-69,0,0,0,0,0,0,0,0,0,-1,993,1093,0,0
-224,-69,0,0,0,0,0,0,0,0,0,-1,1000,1093,0,0
-217,-69,0,0,0,0,0,0,0,0,0,-1,1007,1093,0,0
-210,-69,0,0,0,0,0,0,0,0,0,-1,1014,1093,0,0
-203,-69,0,0,0,0,0,0,0,0,0,-1,1021,1093,0,0
-196,-69,0,0,0,0,0,0,0,0,0,-1,1028,1093,0,0
-189,-69,0,0,0,0,0,0,0,0,0,-1,1035,1093,0,0
-182,-69,0,0,0,0,0,0,0,0,0,-1,1042,1093,0,0
-175,-69,0,0,0,0,0,0,0,0,0,-1,1049,1093,0,0
-168,-69,0,0,0,0,0,0,0,0,0,-1,1056,1093,0,0
-161,-69,0,0,0,0,0,0,0,0,0,-1,1063,1093,0,0
-154,-69,0,0,0,0,0,0,0,0,0,-1,1070,1093,0,0
-147,-69,0,0,0,0,0,0,0,0,0,-1,1077,1093,0,0
-140,-69,0,0,0,0,0,0,0,0,0,-1,1084,1093,0,0
-133,-69,0,0,0,0,0,0,0,0,0,-1,1091,1093,0,0
-126,-69,0,0,0,0,0,0,0,0,0,-1,1098,1093,0,0
-119,-69,0,0,0,0,0,0,0,0,0,-1,1105,1093,0,0
-112,-69,0,0,0,0,0,0,0,0,0,-1,1112,1093,0,0
-105,-69,0,0,0,0,0,0,0,0,0,-1,1119,1093,0,0
-98,-69,0,0,0,0,0,0,0,0,0,-1,1126,1093,0,0
-91,-69,0,0,0,0,0,0,0,0,0,-1,1133,1093,0,0
-84,-69,0,0,0,0,0,0,0,0,0,-1,1140,1093,0,0
-77,-69,0,0,0,0,0,0,0,0,0,-1,1147,1093,0,0
-70,-69,0,0,0,0,0,0,0,0,0,-1,1154,1093,0,0
-63,-69,0,0,0,0,0,0,0,0,0,-1,1161,1093,0,0
-56,-69,0,0,0,0,0,0,0,0,0,-1,1168,1093,0,0
-49,-69,0,0,0,0,0,0,0,0,0,-1,1175,1093,0,0
-42,-69,0,0,0,0,0,0,0,0,0,-1,1182,1093,0,0
-35,-69,0,0,0,0,0,0,0,0,0,-1,1189,1093,0,0
-28,-69,0,0,0,0,0,0,0,0,0,-1,1196,1093,0,0
-21,-69,0,0,0,0,0,0,0,0,0,-1,1203,1093,0,0
-14,-69,0,0,0,0,0,0,0,0,0,-1,1210,1093,0,0
-7,-69,0,0,0,0,0,0,0,0,0,-1,1217,1093,0,0
0,-69,0,0,0,0,0,0,0,0,0,-1,1224,1093,0,0
7,-69,0,0,0,0,0,0,0,0,0,-1,1231,1093,0,0
14,-69,0,0,0,0,0,0,0,0,0,-1,1238,1093,0,0
21,-69,0,0,0,0,0,0,0,0,0,-1,1245,1093,0,0
28,-69,0,0,0,0,0,0,0,0,0,-1,1252,1093,0,0
35,-69,0,0,0,0,0,0,0,0,0,-1,1259,1093,0,0
42,-69,0,0,0,0,0,0,0,0,0,-1,1266,1093,0,0
49,-69,0,0,0,0,0,0,0,0,0,-1,1273,1093,0,0
56,-69,0,0,0,0,0,0,0,0,0,-1,1280,1093,0,0
63,-69,0,0,0,0,0,0,0,0,0,-1,1287,1093,0,0
70,-69,0,0,0,0,0,0,0,0,0,-1,1294,1093,0,0
77,-69,0,0,0,0,0,0,0,0,0,-1,1301,1093,0,0
84,-69,0,0,0,0,0,0,0,0,0,-1,1308,1093,0,0
91,-69,0,0,0,0,0,0,0,0,0,-1,1315,1093,0,0
98,-69,0,0,0,0,0,0,0,0,0,-1,1322,1093,0,0
105,-69,0,0,0,0,0,0,0,0,0,-1,1329,1093,0,0
112,-69,0,0,0,0,0,0,0,0,0,-1,1336,1093,0,0
119,-69,0,0,0,0,0,0,0,0,0,-1,1343,1093,0,0
126,-69,0,0,0,0,0,0,0,0,0,-1,1350,1093,0,0
133,-69,0,0,0,0,0,0,0,0,0,-1,1357,1093,0,0
140,-69,0,0,0,0,0,0,0,0,0,-1,1364,1093,0,0
147,-69,0,0,0,0,0,0,0,0,0,-1,1371,1093,0,0
154,-69,0,0,0,0,0,0,0,0,0,-1,1378,1093,0,0
161,-69,0,0,0,0,0,0,0,0,0,-1,1385,1093,0,0
168,-69,0,0,0,0,0,0,0,0,0,-1,1392,1093,0,0
175,-69,0,0,0,0,0,0,0,0,0,-1,1399,1093,0,0
182,-69,0,0,0,0,0,0,0,0,0,-1,1406,1093,0,0
189,-69,0,0,0,0,0,0,0,0,0,-1,1413,1093,0,0
196,-69,0,0,0,0,0,0,0,0,0,-1,1420,1093,0,0
203,-69,0,0,0,0,0,0,0,0,0,-1,1427,1093,0,0
210,-69,0,0,0,0,0,0,0,0,0,-1,1434,1093,0,0
217,-69,0,0,0,0,0,0,0,0,0,-1,1441,1093,0,0
224,-69,0,0,0,0,0,0,0,0,0,-1,1448,1093,0,0
231,-69,0,0,0,0,0,0,0,0,0,-1,1455,1093,0,0
238,-69,0,0,0,0,0,0,0,0,0,-1,1462,1093,0,0
245,-69,0,0,0,0,0,0,0,0,0,-1,1469,1093,0,0
252,-69,0,0,0,0,0,0,0,0,0,-1,1476,1093,0,0
259,-69,0,0,0,0,0,0,0,0,0,-1,1483,1093,0,0
266,-69,0,0,0,0,0,0,0,0,0,-1,1490,1093,0,0
273,-69,0,0,0,0,0,0,0,0,0,-1,1497,1093,0,0
280,-69,0,0,0,0,0,0,0,0,0,-1,1504,1093,0,0
287,-69,0,0,0,0,0,0,0,0,0,-1,1511,1093,0,0
294,-69,0,0,0,0,0,0,0,0,0,-1,1518,1093,0,0
301,-69,0,0,0,0,0,0,0,0,0,-1,1525,1093,0,0
308,-69,0,0,0,0,0,0,0,0,0,-1,1532,1093,0,0
315,-69,0,0,0,0,0,0,0,0,0,-1,1539,1093,0,0
322,-69,0,0,0,0,0,0,0,0,0,-1,1546,1093,0,0
329,-69,0,0,0,0,0,0,0,0,0,-1,1553,1093,0,0
336,-69,0,0,0,0,0,0,0,0,0,-1,1560,1093,0,0
343,-69,0,0,0,0,0,0,0,0,0,-1,1567,1093,0,0
350,-69,0,0,0,0,0,0,0,0,0,-1,1574,1093,0,0
357,-69,0,0,0,0,0,0,0,0,0,-1,1581,1093,0,0
364,-69,0,0,0,0,0,0,0,0,0,-1,1588,1093,0,0
371,-69,0,0,0,0,0,0,0,0,0,-1,1595,1093,0,0
378,-69,0,0,0,0,0,0,0,0,0,-1,1602,1093,0,0
385,-69,0,0,0,0,0,0,0,0,0,-1,1609,1093,0,0
392,-69,0,0,0,0,0,0,0,0,0,-1,1616,1093,0,0
399,-69,0,0,0,0,0,0,0,0,0,-1,1623,1093,0,0
406,-69,0,0,0,0,0,0,0,0,0,-1,1630,1093,0,0
413,-69,0,0,0,0,0,0,0,0,0,-1,1637,1093,0,0
420,-69,0,0,0,0,0,0,0,0,0,-1,1644,1093,0,0
427,-69,0,0,0,0,0,0,0,0,0,-1,1651,1093,0,0
434,-69,0,0,0,0,0,0,0,0,0,-1,1658,1093,0,0
441,-69,0,0,0,0,0,0,0,0,0,-1,1665,1093,0,0
448,-69,0,0,0,0,0,0,0,0,0,-1,1672,1093,0,0
455,-69,0,0,0,0,0,0,0,0,0,-1,1679,1093,0,0
462,-69,0,0,0,0,0,0,0,0,0,-1,1686,1093,0,0
469,-69,0,0,0,0,0,0,0,0,0,-1,1693,1093,0,0
476,-69,0,0,0,0,0,0,0,0,0,-1,1700,1093,0,0
483,-69,0,0,0,0,0,0,0,0,0,-1,1707,1093,0,0
490,-69,0,0,0,0,0,0,0,0,0,-1,1714,1093,0,0
497,-69,0,0,0,0,0,0,0,0,0,-1,1721,1093,0,0
504,-69,0,0,0,0,0,0,0,0,0,-1,1728,1093,0,0
511,-69,0,0,0,0,0,0,0,0,0,-1,1735,1093,0,0
518,-69,0,0,0,0,0,0,0,0,0,-1,1742,1093,0,0
525,-69,0,0,0,0,0,0,0,0,0,-1,1749,1093,0,0
532,-69,0,0,0,0,0,0,0,0,0,-1,1756,1093,0,0
539,-69,0,0,0,0,0,0,0,0,0,-1,1763,1093,0,0
546,-69,0,0,0,0,0,0,0,0,0,-1,1770,1093,0,0
553,-69,0,0,0,0,0,0,0,0,0,-1,1777,1093,0,0
560,-69,0,0,0,0,0,0,0,0,0,-1,1784,1093,0,0
567,-69,0,0,0,0,0,0,0,0,0,-1,1791,1093,0,0
574,-69,0,0,0,0,0,0,0,0,0,-1,1798,1093,0,0
581,-69,0,0,0,0,0,0,0,0,0,-1,1805,1093,0,0
588,-69,0,0,0,0,0,0,0,0,0,-1,1812,1093,0,0
595,-69,0,0,0,0,0,0,0,0,0,-1,1819,1093,0,0
602,-69,0,0,0,0,0,0,0,0,0,-1,1826,1093,0,0
609,-69,0,0,0,0,0,0,0,0,0,-1,1833,1093,0,0
616,-69,0,0,0,0,0,0,0,0,0,-1,1840,1093,0,0
623,-69,0,0,0,0,0,0,0,0,0,-1,1847,1093,0,0
630,-69,0,0,0,0,0,0,0,0,0,-1,1854,1093,0,0
637,-69,0,0,0,0,0,0,0,0,0,-1,1861,1093,0,0
644,-69,0,0,0,0,0,0,0,0,0,-1,1868,1093,0,0
651,-69,15.8293,2.3418,0.00452301,0.00146085,-0.000589571,0.0046326,0.00135126,-0.183784,0.00275092,0.0423459,1875,1093,15.8294,-2.34177
658,-69,15.7521,2.32153,0.00287997,0.00122663,-0.000683297,0.00312581,0.00098079,-0.345365,0.00184594,0.0421844,1882,1093,15.752,-2.32159
665,-69,15.6826,2.17676,0.00174329,0.000987406,-0.000548772,0.00203167,0.000699021,-0.483846,0.00119185,0.0409539,1889,1093,15.6826,-2.17671
672,-69,15.5314,2.25854,0.000553246,0.000509917,0.000525712,0.00105774,5.42321e-06,0.764805,0.000703359,0.0373853,1896,1093,15.5314,-2.25849
679,-69,15.5721,2.25244,-0.000916526,-5.91545e-05,0.00203447,0.0015913,-0.00256698,0.889235,0.00242271,0.0361702,1903,1093,15.5721,-2.25245
686,-69,15.649,2.22058,-0.00228039,-0.000607952,0.00350303,0.00215728,-0.00504563,0.902562,0.0042686,0.0364403,1910,1093,15.6491,-2.22062
693,-69,15.6486,2.24817,-0.00341714,-0.00109948,0.00481953,0.00269858,-0.00721519,0.903381,0.00591841,0.0359919,1917,1093,15.6486,-2.24821
700,-69,15.632,2.23547,-0.00438182,-0.00146791,0.00583265,0.003087,-0.00893673,0.90779,0.00721056,0.030393,1924,1093,15.6319,-2.23546
707,-69,15.6086,2.27563,-0.00518483,-0.00174085,0.00655725,0.00331674,-0.0102424,0.913803,0.00816169,0.0243089,1931,1093,15.6087,-2.27566
714,-69,15.6791,2.30908,-0.005636,-0.00188896,0.00710392,0.00358435,-0.0111093,0.914328,0.00884643,0.025356,1938,1093,15.679,-2.30904
721,-69,15.7046,2.86755,-0.00565947,-0.00192694,0.00719153,0.00363653,-0.0112229,0.912352,0.00894406,0.0412503,1945,1093,15.7046,-2.86753
728,-69,15.381,3.17603,-0.00549445,-0.0017437,0.00673127,0.00336856,-0.0106067,0.921256,0.00842163,0.0234446,1952,1093,15.381,-3.17602
735,-69,15.2537,3.22229,-0.00518816,-0.00140435,0.00606794,0.00305978,-0.00965228,0.936516,0.00766124,0.015066,1959,1093,15.2537,-3.22232
742,-69,15.2408,3.21191,-0.00424386,-0.00104856,0.0052986,0.00288801,-0.00818043,0.931825,0.00662941,0.0122466,1966,1093,15.2408,-3.21188
749,-69,15.1978,3.16687,-0.00290899,0.000317946,0.00477874,0.00374825,-0.00633929,0.948207,0.00588774,0.0136527,1973,1093,15.1978,-3.16693
756,-69,15.2211,3.14673,-0.00192264,0.0025574,0.00431589,0.00517995,-0.00454518,1.02477,0.00561879,0.0128472,1980,1093,15.2211,-3.14674
763,-69,15.2098,3.12195,-0.00109335,0.00591345,0.00399183,0.00772122,-0.00290112,1.14556,0.00633978,0.0127401,1987,1093,15.2098,-3.1219
770,-69,15.2053,3.08435,3.0818e-05,0.009622,0.00377047,0.0109267,-0.00127393,1.23765,0.00774415,0.0112674,1994,1093,15.2054,-3.0843
777,-69,15.2087,2.99646,0.000932588,0.0145978,0.00433828,0.0158587,-0.000328336,1.28794,0.0106836,0.0163738,2001,1093,15.2087,-2.99641
784,-69,15.2131,2.9906,0.00112956,0.0211564,0.00593545,0.0227833,-0.000497395,1.30326,0.0153574,0.0316753,2008,1093,15.2131,-2.99064
791,-69,15.2489,3.20264,0.000591857,0.0297951,0.00811655,0.0318993,-0.00151238,1.31713,0.0217878,0.0450423,2015,1093,15.2489,-3.20262
798,-69,16.1935,4.49182,-0.000595606,0.0410042,0.0107816,0.0436325,-0.00322388,1.33169,0.0302203,0.047668,2022,1093,16.1934,-4.49182
805,-69,16.2111,5.16504,-0.00270023,0.0552923,0.013903,0.0584531,-0.00586102,1.34725,0.0410621,0.0474876,2029,1093,16.2111,-5.16508
812,-69,16.2493,5.72815,0,0,0,0,0,0,0,-1,2036,1093,16.2493,-5.72813
-700,-76,0,0,0,0,0,0,0,0,0,-1,524,1100,0,0
-693,-76,-14.1833,0.650635,0.129377,0.0144858,-0.00190734,0.129409,0.0144542,-0.0165951,0.0818811,0.0446644,531,1100,-14.1834,-0.650574
-686,-76,-14.1649,0.851318,0,0,0,0,0,0,0,-1,538,1100,-14.1649,-0.851297
-679,-76,-12.1124,-0.233765,0,0,0,0,0,0,0,-1,545,1100,-12.1124,0.233811
-672,-76,-11.4303,-0.199829,0,0,0,0,0,0,0,-1,552,1100,-11.4303,0.199867
-665,-76,-10.5728,0.0578613,0,0,0,0,0,0,0,-1,559,1100,-10.5728,-0.0578319
-658,-76,-9.05768,1.02942,0,0,0,0,0,0,0,-1,566,1100,-9.05765,-1.02939
-651,-76,-9.29462,0.905151,0.0269754,-0.000996954,-0.00157916,0.0270643,-0.00108582,-0.0562163,0.0184155,0.0295918,573,1100,-9.29464,-0.905131
-644,-76,-9.29694,0.870483,0.0174769,-0.00128093,-0.00209562,0.0177081,-0.0015122,-0.109914,0.0123404,0.0105467,580,1100,-9.29692,-0.870447
-637,-76,-9.30627,0.893799,0.00892757,-0.00184925,-0.00149634,0.00913148,-0.00205316,-0.135435,0.006875,0.0129773,587,1100,-9.30626,-0.893746
-630,-76,-9.31952,0.929932,0.00337939,-0.00125551,-0.00222309,0.00427328,-0.0021494,-0.38231,0.00377511,0.014369,594,1100,-9.31951,-0.929925
-623,-76,-9.31702,0.993042,0.000295695,-0.00107987,-0.00277352,0.00246544,-0.00324962,-0.66386,0.00330993,0.0132838,601,1100,-9.31701,-0.992982
-616,-76,-9.29974,1.04285,-0.00131674,-0.000836189,-0.00390573,0.00283665,-0.00498958,-0.816119,0.00457511,0.0112503,608,1100,-9.29977,-1.04287
-609,-76,-9.31525,1.08923,-0.00142565,-0.000540111,-0.00412507,0.00316588,-0.00513164,-0.838861,0.00483518,0.0120296,615,1100,-9.31524,-1.08918
-602,-76,-9.30933,1.19299,-0.00136643,-0.000745541,-0.00509605,0.00404951,-0.00616148,-0.81582,0.00593721,0.0165219,622,1100,-9.3093,-1.19304
-595,-76,-9.2973,1.25427,-0.00143675,-0.000813911,-0.00570509,0.00458825,-0.00683892,-0.812664,0.00664,0.0203223,629,1100,-9.29728,-1.25425
-588,-76,-9.37512,1.05896,-0.00144551,-0.000846237,-0.00591502,0.00477673,-0.00706847,-0.810705,0.00688136,0.0223165,636,1100,-9.37512,-1.05891
-581,-76,-9.46143,0.670288,-0.00126882,-0.0008209,-0.0057688,0.00472828,-0.006818,-0.8048,0.00670254,0.0287641,643,1100,-9.46144,-0.67025
-574,-76,-9.62335,0.454712,-0.000944219,-0.000748163,-0.005462,0.00461669,-0.00630907,-0.794371,0.00633316,0.0364434,650,1100,-9.62334,-0.454696
-567,-76,-9.5885,0.533447,-0.000542071,-0.000557217,-0.00470961,0.00415997,-0.00525926,-0.784594,0.00545053,0.0393241,657,1100,-9.5885,-0.533455
-560,-76,-9.57281,0.731689,-7.21888e-05,-0.00034588,-0.00350024,0.00329388,-0.00371195,-0.76586,0.00404722,0.0421172,664,1100,-9.57279,-0.731689
-553,-76,-9.4577,0.680298,0.000387397,-0.000183682,-0.00184623,0.00197004,-0.00176632,-0.708676,0.00215826,0.0448755,671,1100,-9.45771,-0.680353
-546,-76,-9.4613,0.535767,0.00077215,-0.000159782,0.000263504,0.000841496,-0.000229128,0.257333,0.000650957,0.0409914,678,1100,-9.46131,-0.535792
-539,-76,-9.37628,0.563354,0.00101308,-0.00041152,0.00262904,0.0030246,-0.00242304,0.653106,0.00315159,0.0384225,685,1100,-9.3763,-0.563337
-532,-76,-9.12958,0.720093,0.00032799,-0.00139913,0.00406204,0.00361725,-0.00468839,0.680661,0.00480854,0.0416857,692,1100,-9.1296,-0.720136
-525,-76,0,0,0,0,0,0,0,0,0,-1,699,1100,0,0
-518,-76,0,0,0,0,0,0,0,0,0,-1,706,1100,0,0
-511,-76,0,0,0,0,0,0,0,0,0,-1,713,1100,0,0
-504,-76,0,0,0,0,0,0,0,0,0,-1,720,1100,0,0
-497,-76,0,0,0,0,0,0,0,0,0,-1,727,1100,0,0
-490,-76,0,0,0,0,0,0,0,0,0,-1,734,1100,0,0
-483,-76,0,0,0,0,0,0,0,0,0,-1,741,1100,0,0
-476,-76,0,0,0,0,0,0,0,0,0,-1,748,1100,0,0
-469,-76,0,0,0,0,0,0,0,0,0,-1,755,1100,0,0
-462,-76,0,0,0,0,0,0,0,0,0,-1,762,1100,0,0
-455,-76,0,0,0,0,0,0,0,0,0,-1,769,1100,0,0
-448,-76,0,0,0,0,0,0,0,0,0,-1,776,1100,0,0
-441,-76,0,0,0,0,0,0,0,0,0,-1,783,1100,0,0
-434,-76,0,0,0,0,0,0,0,0,0,-1,790,1100,0,0
-427,-76,0,0,0,0,0,0,0,0,0,-1,797,1100,0,0
-420,-76,0,0,0,0,0,0,0,0,0,-1,804,1100,0,0
-413,-76,0,0,0,0,0,0,0,0,0,-1,811,1100,0,0
-406,-76,0,0,0,0,0,0,0,0,0,-1,818,1100,0,0
-399,-76,0,0,0,0,0,0,0,0,0,-1,825,1100,0,0
-392,-76,0,0,0,0,0,0,0,0,0,-1,832,1100,0,0
-385,-76,0,0,0,0,0,0,0,0,0,-1,839,1100,0,0
-378,-76,0,0,0,0,0,0,0,0,0,-1,846,1100,0,0
-371,-76,0,0,0,0,0,0,0,0,0,-1,853,1100,0,0
-364,-76,0,0,0,0,0,0,0,0,0,-1,860,1100,0,0
-357,-76,0,0,0,0,0,0,0,0,0,-1,867,1100,0,0
-350,-76,0,0,0,0,0,0,0,0,0,-1,874,1100,0,0
-343,-76,0,0,0,0,0,0,0,0,0,-1,881,1100,0,0
-336,-76,0,0,0,0,0,0,0,0,0,-1,888,1100,0,0
-329,-76,0,0,0,0,0,0,0,0,0,-1,895,1100,0,0
-322,-76,0,0,0,0,0,0,0,0,0,-1,902,1100,0,0
-315,-76,0,0,0,0,0,0,0,0,0,-1,909,1100,0,0
-308,-76,0,0,0,0,0,0,0,0,0,-1,916,1100,0,0
-301,-76,0,0,0,0,0,0,0,0,0,-1,923,1100,0,0
-294,-76,0,0,0,0,0,0,0,0,0,-1,930,1100,0,0
-287,-76,0,0,0,0,0,0,0,0,0,-1,937,1100,0,0
-280,-76,0,0,0,0,0,0,0,0,0,-1,944,1100,0,0
-273,-76,0,0,0,0,0,0,0,0,0,-1,951,1100,0,0
-266,-76,0,0,0,0,0,0,0,0,0,-1,958,1100,0,0
-259,-76,0,0,0,0,0,0,0,0,0,-1,965,1100,0,0
-252,-76,0,0,0,0,0,0,0,0,0,-1,972,1100,0,0
-245,-76,0,0,0,0,0,0,0,0,0,-1,979,1100,0,0
-238,-76,0,0,0,0,0,0,0,0,0,-1,986,1100,0,0
-231,-76,0,0,0,0,0,0,0,0,0,-1,993,1100,0,0
-224,-76,0,0,0,0,0,0,0,0,0,-1,1000,1100,0,0
-217,-76,0,0,0,0,0,0,0,0,0,-1,1007,1100,0,0
-210,-76,0,0,0,0,0,0,0,0,0,-1,1014,1100,0,0
-203,-76,0,0,0,0,0,0,0,0,0,-1,1021,1100,0,0
-196,-76,0,0,0,0,0,0,0,0,0,-1,1028,1100,0,0
-189,-76,0,0,0,0,0,0,0,0,0,-1,1035,1100,0,0
-182,-76,0,0,0,0,0,0,0,0,0,-1,1042,1100,0,0
-175,-76,0,0,0,0,0,0,0,0,0,-1,1049,1100,0,0
-168,-76,0,0,0,0,0,0,0,0,0,-1,1056,1100,0,0
-161,-76,0,0,0,0,0,0,0,0,0,-1,1063,1100,0,0
-154,-76,0,0,0,0,0,0,0,0,0,-1,1070,1100,0,0
-147,-76,0,0,0,0,0,0,0,0,0,-1,1077,1100,0,0
-140,-76,0,0,0,0,0,0,0,0,0,-1,1084,1100,0,0
-133,-76,0,0,0,0,0,0,0,0,0,-1,1091,1100,0,0
-126,-76,0,0,0,0,0,0,0,0,0,-1,1098,1100,0,0
-119,-76,0,0,0,0,0,0,0,0,0,-1,1105,1100,0,0
-112,-76,0,0,0,0,0,0,0,0,0,-1,1112,1100,0,0
-105,-76,0,0,0,0,0,0,0,0,0,-1,1119,1100,0,0
-98,-76,0,0,0,0,0,0,0,0,0,-1,1126,1100,0,0
-91,-76,0,0,0,0,0,0,0,0,0,-1,1133,1100,0,0
-84,-76,0,0,0,0,0,0,0,0,0,-1,1140,1100,0,0
-77,-76,0,0,0,0,0,0,0,0,0,-1,1147,1100,0,0
-70,-76,0,0,0,0,0,0,0,0,0,-1,1154,1100,0,0
-63,-76,0,0,0,0,0,0,0,0,0,-1,1161,1100,0,0
-56,-76,0,0,0,0,0,0,0,0,0,-1,1168,1100,0,0
-49,-76,0,0,0,0,0,0,0,0,0,-1,1175,1100,0,0
-42,-76,0,0,0,0,0,0,0,0,0,-1,1182,1100,0,0
-35,-76,0,0,0,0,0,0,0,0,0,-1,1189,1100,0,0
-28,-76,0,0,0,0,0,0,0,0,0,-1,1196,1100,0,0
-21,-76,0,0,0,0,0,0,0,0,0,-1,1203,1100,0,0
-14,-76,0,0,0,0,0,0,0,0,0,-1,1210,1100,0,0
-7,-76,0,0,0,0,0,0,0,0,0,-1,1217,1100,0,0
0,-76,0,0,0,0,0,0,0,0,0,-1,1224,1100,0,0
7,-76,0,0,0,0,0,0,0,0,0,-1,1231,1100,0,0
14,-76,0,0,0,0,0,0,0,0,0,-1,1238,1100,0,0
21,-76,0,0,0,0,0,0,0,0,0,-1,1245,1100,0,0
28,-76,0,0,0,0,0,0,0,0,0,-1,1252,1100,0,0
35,-76,0,0,0,0,0,0,0,0,0,-1,1259,1100,0,0
42,-76,0,0,0,0,0,0,0,0,0,-1,1266,1100,0,0
49,-76,0,0,0,0,0,0,0,0,0,-1,1273,1100,0,0
56,-76,0,0,0,0,0,0,0,0,0,-1,1280,1100,0,0
63,-76,0,0,0,0,0,0,0,0,0,-1,1287,1100,0,0
70,-76,0,0,0,0,0,0,0,0,0,-1,1294,1100,0,0
77,-76,0,0,0,0,0,0,0,0,0,-1,1301,1100,0,0
84,-76,0,0,0,0,0,0,0,0,0,-1,1308,1100,0,0
91,-76,0,0,0,0,0,0,0,0,0,-1,1315,1100,0,0
98,-76,0,0,0,0,0,0,0,0,0,-1,1322,1100,0,0
105,-76,0,0,0,0,0,0,0,0,0,-1,1329,1100,0,0
112,-76,0,0,0,0,0,0,0,0,0,-1,1336,1100,0,0
119,-76,0,0,0,0,0,0,0,0,0,-1,1343,1100,0,0
126,-76,0,0,0,0,0,0,0,0,0,-1,1350,1100,0,0
133,-76,0,0,0,0,0,0,0,0,0,-1,1357,1100,0,0
140,-76,0,0,0,0,0,0,0,0,0,-1,1364,1100,0,0
147,-76,0,0,0,0,0,0,0,0,0,-1,1371,1100,0,0
154,-76,0,0,0,0,0,0,0,0,0,-1,1378,1100,0,0
161,-76,0,0,0,0,0,0,0,0,0,-1,1385,1100,0,0
168,-76,0,0,0,0,0,0,0,0,0,-1,1392,1100,0,0
175,-76,0,0,0,0,0,0,0,0,0,-1,1399,1100,0,0
182,-76,0,0,0,0,0,0,0,0,0,-1,1406,1100,0,0
189,-76,0,0,0,0,0,0,0,0,0,-1,1413,1100,0,0
196,-76,0,0,0,0,0,0,0,0,0,-1,1420,1100,0,0
203,-76,0,0,0,0,0,0,0,0,0,-1,1427,1100,0,0
210,-76,0,0,0,0,0,0,0,0,0,-1,1434,1100,0,0
217,-76,0,0,0,0,0,0,0,0,0,-1,1441,1100,0,0
224,-76,0,0,0,0,0,0,0,0,0,-1,1448,1100,0,0
231,-76,0,0,0,0,0,0,0,0,0,-1,1455,1100,0,0
238,-76,0,0,0,0,0,0,0,0,0,-1,1462,1100,0,0
245,-76,0,0,0,0,0,0,0,0,0,-1,1469,1100,0,0
252,-76,0,0,0,0,0,0,0,0,0,-1,1476,1100,0,0
259,-76,0,0,0,0,0,0,0,0,0,-1,1483,1100,0,0
266,-76,0,0,0,0,0,0,0,0,0,-1,1490,1100,0,0
273,-76,0,0,0,0,0,0,0,0,0,-1,1497,1100,0,0
280,-76,0,0,0,0,0,0,0,0,0,-1,1504,1100,0,0
287,-76,0,0,0,0,0,0,0,0,0,-1,1511,1100,0,0
294,-76,0,0,0,0,0,0,0,0,0,-1,1518,1100,0,0
301,-76,0,0,0,0,0,0,0,0,0,-1,1525,1100,0,0
308,-76,0,0,0,0,0,0,0,0,0,-1,1532,1100,0,0
315,-76,0,0,0,0,0,0,0,0,0,-1,1539,1100,0,0
322,-76,0,0,0,0,0,0,0,0,0,-1,1546,1100,0,0
329,-76,0,0,0,0,0,0,0,0,0,-1,1553,1100,0,0
336,-76,0,0,0,0,0,0,0,0,0,-1,1560,1100,0,0
343,-76,0,0,0,0,0,0,0,0,0,-1,1567,1100,0,0
350,-76,0,0,0,0,0,0,0,0,0,-1,1574,1100,0,0
357,-76,0,0,0,0,0,0,0,0,0,-1,1581,1100,0,0
364,-76,0,0,0,0,0,0,0,0,0,-1,1588,1100,0,0
371,-76,0,0,0,0,0,0,0,0,0,-1,1595,1100,0,0
378,-76,0,0,0,0,0,0,0,0,0,-1,1602,1100,0,0
385,-76,0,0,0,0,0,0,0,0,0,-1,1609,1100,0,0
392,-76,0,0,0,0,0,0,0,0,0,-1,1616,1100,0,0
399,-76,0,0,0,0,0,0,0,0,0,-1,1623,1100,0,0
406,-76,0,0,0,0,0,0,0,0,0,-1,1630,1100,0,0
413,-76,0,0,0,0,0,0,0,0,0,-1,1637,1100,0,0
420,-76,0,0,0,0,0,0,0,0,0,-1,1644,1100,0,0
427,-76,0,0,0,0,0,0,0,0,0,-1,1651,1100,0,0
434,-76,0,0,0,0,0,0,0,0,0,-1,1658,1100,0,0
441,-76,0,0,0,0,0,0,0,0,0,-1,1665,1100,0,0
448,-76,0,0,0,0,0,0,0,0,0,-1,1672,1100,0,0
455,-76,0,0,0,0,0,0,0,0,0,-1,1679,1100,0,0
462,-76,0,0,0,0,0,0,0,0,0,-1,1686,1100,0,0
469,-76,0,0,0,0,0,0,0,0,0,-1,1693,1100,0,0
476,-76,0,0,0,0,0,0,0,0,0,-1,1700,1100,0,0
483,-76,0,0,0,0,0,0,0,0,0,-1,1707,1100,0,0
490,-76,0,0,0,0,0,0,0,0,0,-1,1714,1100,0,0
497,-76,0,0,0,0,0,0,0,0,0,-1,1721,1100,0,0
504,-76,0,0,0,0,0,0,0,0,0,-1,1728,1100,0,0
511,-76,0,0,0,0,0,0,0,0,0,-1,1735,1100,0,0
518,-76,0,0,0,0,0,0,0,0,0,-1,1742,1100,0,0
525,-76,0,0,0,0,0,0,0,0,0,-1,1749,1100,0,0
532,-76,0,0,0,0,0,0,0,0,0,-1,1756,1100,0,0
539,-76,0,0,0,0,0,0,0,0,0,-1,1763,1100,0,0
546,-76,0,0,0,0,0,0,0,0,0,-1,1770,1100,0,0
553,-76,0,0,0,0,0,0,0,0,0,-1,1777,1100,0,0
560,-76,0,0,0,0,0,0,0,0,0,-1,1784,1100,0,0
567,-76,0,0,0,0,0,0,0,0,0,-1,1791,1100,0,0
574,-76,0,0,0,0,0,0,0,0,0,-1,1798,1100,0,0
581,-76,0,0,0,0,0,0,0,0,0,-1,1805,1100,0,0
588,-76,0,0,0,0,0,0,0,0,0,-1,1812,1100,0,0
595,-76,0,0,0,0,0,0,0,0,0,-1,1819,1100,0,0
602,-76,0,0,0,0,0,0,0,0,0,-1,1826,1100,0,0
609,-76,0,0,0,0,0,0,0,0,0,-1,1833,1100,0,0
616,-76,0,0,0,0,0,0,0,0,0,-1,1840,1100,0,0
623,-76,0,0,0,0,0,0,0,0,0,-1,1847,1100,0,0
630,-76,0,0,0,0,0,0,0,0,0,-1,1854,1100,0,0
637,-76,0,0,0,0,0,0,0,0,0,-1,1861,1100,0,0
644,-76,0,0,0,0,0,0,0,0,0,-1,1868,1100,0,0
651,-76,15.7366,2.4657,0.00516365,0.000927637,-0.000458693,0.00521275,0.000878537,-0.106637,0.00322249,0.0402888,1875,1100,15.7365,-2.46567
658,-76,15.7076,2.49255,0.00342333,0.000866352,-0.000551445,0.00353718,0.000752496,-0.203608,0.00215161,0.0426513,1882,1100,15.7077,-2.49251
665,-76,15.6619,2.276,0.00217452,0.00072789,-0.000385161,0.00227068,0.000631734,-0.244651,0.00135329,0.0390542,1889,1100,15.6619,-2.27597
672,-76,15.6294,2.20947,0.000771286,0.000262563,0.000742131,0.00130144,-0.000267587,0.6203,0.000969212,0.0365425,1896,1100,15.6294,-2.20951
679,-76,15.6614,2.11414,-0.000857141,-0.000311129,0.00225138,0.00168374,-0.00285201,0.845734,0.00264751,0.0363262,1903,1100,15.6614,-2.11408
686,-76,15.7351,1.98376,-0.00234028,-0.00087454,0.00370656,0.00217091,-0.00538573,0.883,0.00449251,0.0364651,1910,1100,15.7352,-1.98378
693,-76,15.7004,2.17444,-0.00358268,-0.00137908,0.005005,0.00264396,-0.00760572,0.89374,0.00614444,0.037088,1917,1100,15.7004,-2.17441
700,-76,15.6714,2.26379,-0.00462852,-0.00174342,0.00598577,0.00297117,-0.00934312,0.903642,0.00742014,0.0316052,1924,1100,15.6714,-2.26377
707,-76,15.6417,2.33118,-0.00547844,-0.00200616,0.00668082,0.00316042,-0.010645,0.912521,0.00835191,0.0241938,1931,1100,15.6417,-2.33123
714,-76,15.7335,2.46069,-0.00593534,-0.0021532,0.00719817,0.00339817,-0.0114867,0.913853,0.0090068,0.0341359,1938,1100,15.7335,-2.46064
721,-76,15.5258,2.94116,-0.0059328,-0.00216419,0.00724943,0.00344182,-0.0115388,0.912547,0.00906041,0.036679,1945,1100,15.5257,-2.94114
728,-76,15.2947,3.22986,-0.00574902,-0.00195246,0.00674884,0.00315999,-0.0108615,0.922494,0.00849259,0.0209093,1952,1100,15.2947,-3.22984
735,-76,15.1383,3.20874,-0.00538093,-0.00158139,0.00606996,0.00287915,-0.00984147,0.937059,0.00770221,0.017039,1959,1100,15.1383,-3.20876
742,-76,15.204,3.20837,-0.00432479,-0.00120557,0.00528996,0.0027499,-0.00828025,0.928749,0.00662971,0.0124134,1966,1100,15.2039,-3.20831
749,-76,15.1676,3.172,-0.00286112,0.000256818,0.00476067,0.00370727,-0.00631158,0.94363,0.00584917,0.0130227,1973,1100,15.1676,-3.17195
756,-76,15.1757,3.13928,-0.00175107,0.00270193,0.00431329,0.00532948,-0.00437862,1.02366,0.00561393,0.0128542,1980,1100,15.1756,-3.13925
763,-76,15.1771,3.09485,-0.000857244,0.00646859,0.00400993,0.00823674,-0.0026254,1.1555,0.00654425,0.0127427,1987,1100,15.1771,-3.0948
770,-76,15.1832,3.05957,0.000410278,0.0105704,0.00381341,0.0118424,-0.000861756,1.24883,0.00819732,0.01206,1994,1100,15.1832,-3.05957
777,-76,15.1945,3.00745,0.00136522,0.0160551,0.00445593,0.017301,0.000119269,1.29814,0.0114945,0.0155506,2001,1100,15.1945,-3.00742
784,-76,15.2679,2.95801,0.00157584,0.0233435,0.00611584,0.0249441,-2.47704e-05,1.31482,0.0166377,0.0299604,2008,1100,15.2679,-2.95795
791,-76,15.4937,2.99048,0.00103983,0.0330134,0.00834522,0.0350605,-0.00100725,1.33025,0.0237165,0.041692,2015,1100,15.4936,-2.9905
798,-76,15.8269,3.53882,-0.00024992,0.0456448,0.0110666,0.0481739,-0.00277902,1.34612,0.0330812,0.0444961,2022,1100,15.8269,-3.53882
805,-76,15.8069,4.37024,-0.00263386,0.0618705,0.0142584,0.0648817,-0.00564506,1.36267,0.0452537,0.0458842,2029,1100,15.8069,-4.3702
812,-76,15.741,4.9552,-0.00677931,0.0824543,0.0178834,0.0859049,-0.0102299,1.38019,0.0609666,0.0471315,2036,1100,15.7409,-4.95521
-700,-83,0,0,0,0,0,0,0,0,0,-1,524,1107,0,0
-693,-83,-15.0953,0.195923,0,0,0,0,0,0,0,-1,531,1107,-15.0953,-0.195939
-686,-83,-14.7799,0.398071,0,0,0,0,0,0,0,-1,538,1107,-14.7799,-0.39807
-679,-83,-10.2457,-0.150513,0,0,0,0,0,0,0,-1,545,1107,-10.2457,0.150459
-672,-83,-10.8168,-0.460327,0,0,0,0,0,0,0,-1,552,1107,-10.8168,0.460374
-665,-83,-10.3875,-0.072876,0.0509831,0.00267261,-0.00335785,0.0512154,0.00244034,-0.0690631,0.0333599,0.0424718,559,1107,-10.3875,0.0729126
-658,-83,-9.8927,0.409546,0,0,0,0,0,0,0,-1,566,1107,-9.89269,-0.40951
-651,-83,-9.3255,0.77356,0.0259199,0.000535323,-0.0020343,0.0260819,0.00037333,-0.0794631,0.0172649,0.0297583,573,1107,-9.32551,-0.773609
-644,-83,-9.2243,0.815063,0.0168467,-0.000125788,-0.00224572,0.0171388,-0.000417902,-0.12935,0.0115677,0.0143988,580,1107,-9.22429,-0.815101
-637,-83,-9.2243,0.892334,0.00856054,-0.00101371,-0.00127998,0.0087287,-0.00118187,-0.130634,0.00625045,0.011072,587,1107,-9.22432,-0.892326
-630,-83,-9.23163,0.948242,0.00309474,-0.000723744,-0.0020871,0.00401413,-0.00164314,-0.414937,0.00336048,0.015571,594,1107,-9.23162,-0.948242
-623,-83,-9.23438,0.988159,5.83455e-05,-0.000807833,-0.00275191,0.00241104,-0.00316053,-0.70735,0.00322643,0.0159261,601,1107,-9.23435,-0.988168
-616,-83,-9.24237,1.04565,-0.00154855,-0.000775936,-0.00423011,0.00308547,-0.00540996,-0.830933,0.00496566,0.0124193,608,1107,-9.24239,-1.04564
-609,-83,-9.25989,1.1189,-0.00171187,-0.000661451,-0.00443281,0.00327715,-0.00565047,-0.844365,0.00521472,0.0115689,615,1107,-9.25986,-1.11893
-602,-83,-9.25885,1.19812,-0.0017739,-0.00095467,-0.00539603,0.00404727,-0.00677584,-0.823281,0.00631457,0.013431,622,1107,-9.25886,-1.19817
-595,-83,-9.23828,1.26257,-0.00198721,-0.00108522,-0.00595725,0.00443808,-0.00751051,-0.823178,0.00697413,0.0169461,629,1107,-9.23829,-1.2626
-588,-83,-9.29761,1.05933,-0.00211303,-0.00117523,-0.00613314,0.0045069,-0.00779517,-0.823551,0.00718668,0.0260649,636,1107,-9.29762,-1.05928
-581,-83,-9.45679,0.60791,-0.00200951,-0.00118671,-0.00594949,0.00436559,-0.0075618,-0.819918,0.00696821,0.0325589,643,1107,-9.4568,-0.607869
-574,-83,-9.56403,0.387817,-0.00173737,-0.00115829,-0.00558671,0.00414638,-0.00704204,-0.811288,0.00653135,0.0372285,650,1107,-9.564,-0.387788
-567,-83,-9.57605,0.569214,-0.00136507,-0.000993874,-0.00474553,0.00356969,-0.00592863,-0.804943,0.00553995,0.0413603,657,1107,-9.57604,-0.569224
-560,-83,-9.58826,0.761353,-0.000887133,-0.000779374,-0.00340492,0.00257209,-0.0042386,-0.79331,0.0039712,0.0442583,664,1107,-9.58825,-0.761371
-553,-83,-9.41742,0.689819,-0.00037165,-0.000574135,-0.00157989,0.00111023,-0.00205602,-0.753401,0.00185502,0.0441422,671,1107,-9.41739,-0.689805
-546,-83,-9.35278,0.585083,0.000130567,-0.000460751,0.000729765,0.00062229,-0.000952474,0.592932,0.000915828,0.0398416,678,1107,-9.35281,-0.585133
-539,-83,-9.40649,0.539063,0.000586618,-0.000561599,0.00335302,0.00341433,-0.00338931,0.70061,0.00392809,0.0391913,685,1107,-9.40649,-0.53907
-532,-83,-9.43762,0.589111,0.000218155,-0.0013215,0.00507067,0.0045771,-0.00568045,0.710063,0.0059336,0.0423056,692,1107,-9.4376,-0.589167
-525,-83,0,0,0,0,0,0,0,0,0,-1,699,1107,0,0
-518,-83,0,0,0,0,0,0,0,0,0,-1,706,1107,0,0
-511,-83,0,0,0,0,0,0,0,0,0,-1,713,1107,0,0
-504,-83,0,0,0,0,0,0,0,0,0,-1,720,1107,0,0
-497,-83,0,0,0,0,0,0,0,0,0,-1,727,1107,0,0
-490,-83,0,0,0,0,0,0,0,0,0,-1,734,1107,0,0
-483,-83,0,0,0,0,0,0,0,0,0,-1,741,1107,0,0
-476,-83,0,0,0,0,0,0,0,0,0,-1,748,1107,0,0
-469,-83,0,0,0,0,0,0,0,0,0,-1,755,1107,0,0
-462,-83,0,0,0,0,0,0,0,0,0,-1,762,1107,0,0
-455,-83,0,0,0,0,0,0,0,0,0,-1,769,1107,0,0
-448,-83,0,0,0,0,0,0,0,0,0,-1,776,1107,0,0
-441,-83,0,0,0,0,0,0,0,0,0,-1,783,1107,0,0
-434,-83,0,0,0,0,0,0,0,0,0,-1,790,1107,0,0
-427,-83,0,0,0,0,0,0,0,0,0,-1,797,1107,0,0
-420,-83,0,0,0,0,0,0,0,0,0,-1,804,1107,0,0
-413,-83,0,0,0,0,0,0,0,0,0,-1,811,1107,0,0
-406,-83,0,0,0,0,0,0,0,0,0,-1,818,1107,0,0
-399,-83,0,0,0,0,0,0,0,0,0,-1,825,1107,0,0
-392,-83,0,0,0,0,0,0,0,0,0,-1,832,1107,0,0
-385,-83,0,0,0,0,0,0,0,0,0,-1,839,1107,0,0
-378,-83,0,0,0,0,0,0,0,0,0,-1,846,1107,0,0
-371,-83,0,0,0,0,0,0,0,0,0,-1,853,1107,0,0
-364,-83,0,0,0,0,0,0,0,0,0,-1,860,1107,0,0
-357,-83,0,0,0,0,0,0,0,0,0,-1,867,1107,0,0
-350,-83,0,0,0,0,0,0,0,0,0,-1,874,1107,0,0
-343,-83,0,0,0,0,0,0,0,0,0,-1,881,1107,0,0
-336,-83,0,0,0,0,0,0,0,0,0,-1,888,1107,0,0
-329,-83,0,0,0,0,0,0,0,0,0,-1,895,1107,0,0
-322,-83,0,0,0,0,0,0,0,0,0,-1,902,1107,0,0
-315,-83,0,0,0,0,0,0,0,0,0,-1,909,1107,0,0
-308,-83,0,0,0,0,0,0,0,0,0,-1,916,1107,0,0
-301,-83,0,0,0,0,0,0,0,0,0,-1,923,1107,0,0
-294,-83,0,0,0,0,0,0,0,0,0,-1,930,1107,0,0
-287,-83,0,0,0,0,0,0,0,0,0,-1,937,1107,0,0
-280,-83,0,0,0,0,0,0,0,0,0,-1,944,1107,0,0
-273,-83,0,0,0,0,0,0,0,0,0,-1,951,1107,0,0
-266,-83,0,0,0,0,0,0,0,0,0,-1,958,1107,0,0
-259,-83,0,0,0,0,0,0,0,0,0,-1,965,1107,0,0
-252,-83,0,0,0,0,0,0,0,0,0,-1,972,1107,0,0
-245,-83,0,0,0,0,0,0,0,0,0,-1,979,1107,0,0
-238,-83,0,0,0,0,0,0,0,0,0,-1,986,1107,0,0
-231,-83,0,0,0,0,0,0,0,0,0,-1,993,1107,0,0
-224,-83,0,0,0,0,0,0,0,0,0,-1,1000,1107,0,0
-217,-83,0,0,0,0,0,0,0,0,0,-1,1007,1107,0,0
-210,-83,0,0,0,0,0,0,0,0,0,-1,1014,1107,0,0
-203,-83,0,0,0,0,0,0,0,0,0,-1,1021,1107,0,0
-196,-83,0,0,0,0,0,0,0,0,0,-1,1028,1107,0,0
-189,-83,0,0,0,0,0,0,0,0,0,-1,1035,1107,0,0
-182,-83,0,0,0,0,0,0,0,0,0,-1,1042,1107,0,0
-175,-83,0,0,0,0,0,0,0,0,0,-1,1049,1107,0,0
-168,-83,0,0,0,0,0,0,0,0,0,-1,1056,1107,0,0
-161,-83,0,0,0,0,0,0,0,0,0,-1,1063,1107,0,0
-154,-83,0,0,0,0,0,0,0,0,0,-1,1070,1107,0,0
-147,-83,0,0,0,0,0,0,0,0,0,-1,1077,1107,0,0
-140,-83,0,0,0,0,0,0,0,0,0,-1,1084,1107,0,0
-133,-83,0,0,0,0,0,0,0,0,0,-1,1091,1107,0,0
-126,-83,0,0,0,0,0,0,0,0,0,-1,1098,1107,0,0
-119,-83,0,0,0,0,0,0,0,0,0,-1,1105,1107,0,0
-112,-83,0,0,0,0,0,0,0,0,0,-1,1112,1107,0,0
-105,-83,0,0,0,0,0,0,0,0,0,-1,1119,1107,0,0
-98,-83,0,0,0,0,0,0,0,0,0,-1,1126,1107,0,0
-91,-83,0,0,0,0,0,0,0,0,0,-1,1133,1107,0,0
-84,-83,0,0,0,0,0,0,0,0,0,-1,1140,1107,0,0
-77,-83,0,0,0,0,0,0,0,0,0,-1,1147,1107,0,0
-70,-83,0,0,0,0,0,0,0,0,0,-1,1154,1107,0,0
-63,-83,0,0,0,0,0,0,0,0,0,-1,1161,1107,0,0
-56,-83,0,0,0,0,0,0,0,0,0,-1,1168,1107,0,0
-49,-83,0,0,0,0,0,0,0,0,0,-1,1175,1107,0,0
-42,-83,0,0,0,0,0,0,0,0,0,-1,1182,1107,0,0
-35,-83,0,0,0,0,0,0,0,0,0,-1,1189,1107,0,0
-28,-83,0,0,0,0,0,0,0,0,0,-1,1196,1107,0,0
-21,-83,0,0,0,0,0,0,0,0,0,-1,1203,1107,0,0
-14,-83,0,0,0,0,0,0,0,0,0,-1,1210,1107,0,0
-7,-83,0,0,0,0,0,0,0,0,0,-1,1217,1107,0,0
0,-83,0,0,0,0,0,0,0,0,0,-1,1224,1107,0,0
7,-83,0,0,0,0,0,0,0,0,0,-1,1231,1107,0,0
14,-83,0,0,0,0,0,0,0,0,0,-1,1238,1107,0,0
21,-83,0,0,0,0,0,0,0,0,0,-1,1245,1107,0,0
28,-83,0,0,0,0,0,0,0,0,0,-1,1252,1107,0,0
35,-83,0,0,0,0,0,0,0,0,0,-1,1259,1107,0,0
42,-83,0,0,0,0,0,0,0,0,0,-1,1266,1107,0,0
49,-83,0,0,0,0,0,0,0,0,0,-1,1273,1107,0,0
56,-83,0,0,0,0,0,0,0,0,0,-1,1280,1107,0,0
63,-83,0,0,0,0,0,0,0,0,0,-1,1287,1107,0,0
70,-83,0,0,0,0,0,0,0,0,0,-1,1294,1107,0,0
77,-83,0,0,0,0,0,0,0,0,0,-1,1301,1107,0,0
84,-83,0,0,0,0,0,0,0,0,0,-1,1308,1107,0,0
91,-83,0,0,0,0,0,0,0,0,0,-1,1315,1107,0,0
98,-83,0,0,0,0,0,0,0,0,0,-1,1322,1107,0,0
105,-83,0,0,0,0,0,0,0,0,0,-1,1329,1107,0,0
112,-83,0,0,0,0,0,0,0,0,0,-1,1336,1107,0,0
119,-83,0,0,0,0,0,0,0,0,0,-1,1343,1107,0,0
126,-83,0,0,0,0,0,0,0,0,0,-1,1350,1107,0,0
133,-83,0,0,0,0,0,0,0,0,0,-1,1357,1107,0,0
140,-83,0,0,0,0,0,0,0,0,0,-1,1364,1107,0,0
147,-83,0,0,0,0,0,0,0,0,0,-1,1371,1107,0,0
154,-83,0,0,0,0,0,0,0,0,0,-1,1378,1107,0,0
161,-83,0,0,0,0,0,0,0,0,0,-1,1385,1107,0,0
168,-83,0,0,0,0,0,0,0,0,0,-1,1392,1107,0,0
175,-83,0,0,0,0,0,0,0,0,0,-1,1399,1107,0,0
182,-83,0,0,0,0,0,0,0,0,0,-1,1406,1107,0,0
189,-83,0,0,0,0,0,0,0,0,0,-1,1413,1107,0,0
196,-83,0,0,0,0,0,0,0,0,0,-1,1420,1107,0,0
203,-83,0,0,0,0,0,0,0,0,0,-1,1427,1107,0,0
210,-83,0,0,0,0,0,0,0,0,0,-1,1434,1107,0,0
217,-83,0,0,0,0,0,0,0,0,0,-1,1441,1107,0,0
224,-83,0,0,0,0,0,0,0,0,0,-1,1448,1107,0,0
231,-83,0,0,0,0,0,0,0,0,0,-1,1455,1107,0,0
238,-83,0,0,0,0,0,0,0,0,0,-1,1462,1107,0,0
245,-83,0,0,0,0,0,0,0,0,0,-1,1469,1107,0,0
252,-83,0,0,0,0,0,0,0,0,0,-1,1476,1107,0,0
259,-83,0,0,0,0,0,0,0,0,0,-1,1483,1107,0,0
266,-83,0,0,0,0,0,0,0,0,0,-1,1490,1107,0,0
273,-83,0,0,0,0,0,0,0,0,0,-1,1497,1107,0,0
280,-83,0,0,0,0,0,0,0,0,0,-1,1504,1107,0,0
287,-83,0,0,0,0,0,0,0,0,0,-1,1511,1107,0,0
294,-83,0,0,0,0,0,0,0,0,0,-1,1518,1107,0,0
301,-83,0,0,0,0,0,0,0,0,0,-1,1525,1107,0,0
308,-83,0,0,0,0,0,0,0,0,0,-1,1532,1107,0,0
315,-83,0,0,0,0,0,0,0,0,0,-1,1539,1107,0,0
322,-83,0,0,0,0,0,0,0,0,0,-1,1546,1107,0,0
329,-83,0,0,0,0,0,0,0,0,0,-1,1553,1107,0,0
336,-83,0,0,0,0,0,0,0,0,0,-1,1560,1107,0,0
343,-83,0,0,0,0,0,0,0,0,0,-1,1567,1107,0,0
350,-83,0,0,0,0,0,0,0,0,0,-1,1574,1107,0,0
357,-83,0,0,0,0,0,0,0,0,0,-1,1581,1107,0,0
364,-83,0,0,0,0,0,0,0,0,0,-1,1588,1107,0,0
371,-83,0,0,0,0,0,0,0,0,0,-1,1595,1107,0,0
378,-83,0,0,0,0,0,0,0,0,0,-1,1602,1107,0,0
385,-83,0,0,0,0,0,0,0,0,0,-1,1609,1107,0,0
392,-83,0,0,0,0,0,0,0,0,0,-1,1616,1107,0,0
399,-83,0,0,0,0,0,0,0,0,0,-1,1623,1107,0,0
406,-83,0,0,0,0,0,0,0,0,0,-1,1630,1107,0,0
413,-83,0,0,0,0,0,0,0,0,0,-1,1637,1107,0,0
420,-83,0,0,0,0,0,0,0,0,0,-1,1644,1107,0,0
427,-83,0,0,0,0,0,0,0,0,0,-1,1651,1107,0,0
434,-83,0,0,0,0,0,0,0,0,0,-1,1658,1107,0,0
441,-83,0,0,0,0,0,0,0,0,0,-1,1665,1107,0,0
448,-83,0,0,0,0,0,0,0,0,0,-1,1672,1107,0,0
455,-83,0,0,0,0,0,0,0,0,0,-1,1679,1107,0,0
462,-83,0,0,0,0,0,0,0,0,0,-1,1686,1107,0,0
469,-83,0,0,0,0,0,0,0,0,0,-1,1693,1107,0,0
476,-83,0,0,0,0,0,0,0,0,0,-1,1700,1107,0,0
483,-83,0,0,0,0,0,0,0,0,0,-1,1707,1107,0,0
490,-83,0,0,0,0,0,0,0,0,0,-1,1714,1107,0,0
497,-83,0,0,0,0,0,0,0,0,0,-1,1721,1107,0,0
504,-83,0,0,0,0,0,0,0,0,0,-1,1728,1107,0,0
511,-83,0,0,0,0,0,0,0,0,0,-1,1735,1107,0,0
518,-83,0,0,0,0,0,0,0,0,0,-1,1742,1107,0,0
525,-83,0,0,0,0,0,0,0,0,0,-1,1749,1107,0,0
532,-83,0,0,0,0,0,0,0,0,0,-1,1756,1107,0,0
539,-83,0,0,0,0,0,0,0,0,0,-1,1763,1107,0,0
546,-83,0,0,0,0,0,0,0,0,0,-1,1770,1107,0,0
553,-83,0,0,0,0,0,0,0,0,0,-1,1777,1107,0,0
560,-83,0,0,0,0,0,0,0,0,0,-1,1784,1107,0,0
567,-83,0,0,0,0,0,0,0,0,0,-1,1791,1107,0,0
574,-83,0,0,0,0,0,0,0,0,0,-1,1798,1107,0,0
581,-83,0,0,0,0,0,0,0,0,0,-1,1805,1107,0,0
588,-83,0,0,0,0,0,0,0,0,0,-1,1812,1107,0,0
595,-83,0,0,0,0,0,0,0,0,0,-1,1819,1107,0,0
602,-83,0,0,0,0,0,0,0,0,0,-1,1826,1107,0,0
609,-83,0,0,0,0,0,0,0,0,0,-1,1833,1107,0,0
616,-83,0,0,0,0,0,0,0,0,0,-1,1840,1107,0,0
623,-83,0,0,0,0,0,0,0,0,0,-1,1847,1107,0,0
630,-83,0,0,0,0,0,0,0,0,0,-1,1854,1107,0,0
637,-83,0,0,0,0,0,0,0,0,0,-1,1861,1107,0,0
644,-83,15.599,2.30591,0.00832634,0.0010898,-0.000550978,0.00836805,0.00104809,-0.0755579,0.00526423,0.0347602,1868,1107,15.599,-2.30593
651,-83,15.641,2.43066,0.00572724,0.0010149,-0.000541299,0.00578862,0.000953523,-0.112909,0.00358377,0.039538,1875,1107,15.641,-2.43071
658,-83,15.8461,2.58423,0.00390153,0.000913522,-0.000600553,0.00401771,0.000797336,-0.191104,0.00245622,0.0448809,1882,1107,15.8461,-2.58427
665,-83,15.5079,2.01599,0.00252129,0.000693314,-0.000306435,0.00257129,0.000643312,-0.161748,0.00154506,0.0403716,1889,1107,15.5079,-2.01594
672,-83,15.5933,2.31311,0.00092201,0.000141803,0.000929527,0.00153997,-0.000476161,0.58672,0.00121683,0.0356367,1896,1107,15.5933,-2.31317
679,-83,15.6405,2.17126,-0.000827589,-0.000483233,0.00246715,0.00181774,-0.00312856,0.820236,0.00288898,0.0361579,1903,1107,15.6405,-2.17126
686,-83,15.6965,2.22815,-0.00238951,-0.00107929,0.00392474,0.00224464,-0.00571344,0.868095,0.00473786,0.0347213,1910,1107,15.6966,-2.22813
693,-83,15.7147,2.35217,-0.00369489,-0.00159629,0.00520717,0.00266625,-0.00795743,0.884822,0.00638213,0.0354231,1917,1107,15.7147,-2.35222
700,-83,15.6759,2.41028,-0.00477778,-0.00197106,0.00615263,0.00293623,-0.00968507,0.897525,0.00762626,0.030985,1924,1107,15.6759,-2.41028
707,-83,15.6481,2.31287,-0.00564824,-0.00222459,0.00681723,0.00309245,-0.0109653,0.908406,0.00852996,0.0233717,1931,1107,15.6481,-2.31293
714,-83,15.6727,2.48853,-0.00609333,-0.00233723,0.00729915,0.00332161,-0.0117522,0.911315,0.00914531,0.0342841,1938,1107,15.6728,-2.48856
721,-83,15.325,3.11707,-0.00606478,-0.00229426,0.00730181,0.00336174,-0.0117208,0.911735,0.00914282,0.0242933,1945,1107,15.3249,-3.11704
728,-83,15.1549,3.24561,-0.00586408,-0.00204347,0.00675324,0.00306446,-0.010972,0.923234,0.00852184,0.0189508,1952,1107,15.1549,-3.24555
735,-83,15.1122,3.18921,-0.00543017,-0.00163839,0.0060456,0.00280163,-0.00987018,0.937341,0.00768613,0.0187068,1959,1107,15.1122,-3.18915
742,-83,15.1582,3.19714,-0.00426277,-0.00124083,0.00523397,0.00269591,-0.00819951,0.92592,0.00655252,0.0112216,1966,1107,15.1582,-3.19718
749,-83,15.1556,3.17163,-0.00267677,0.000267876,0.00466071,0.00368329,-0.00609219,0.938388,0.00570071,0.0100218,1973,1107,15.1556,-3.17166
756,-83,15.1564,3.12939,-0.00142951,0.00297535,0.00420597,0.00552065,-0.00397481,1.02659,0.00550637,0.0119476,1980,1107,15.1564,-3.1294
763,-83,15.1505,3.07837,-0.000445093,0.00707904,0.00384764,0.00869819,-0.00206424,1.17247,0.00659544,0.0102042,1987,1107,15.1505,-3.07837
770,-83,15.155,3.04285,0.00099368,0.0115322,0.00363319,0.0126633,-0.000137465,1.26897,0.00848841,0.0127924,1994,1107,15.1551,-3.04285
777,-83,15.1676,3.01794,0.00206204,0.0174671,0.00427316,0.018573,0.000956114,1.31755,0.0120759,0.013671,2001,1107,15.1676,-3.018
784,-83,15.1532,2.98572,0.00239578,0.0254045,0.00587123,0.0268161,0.000984198,1.33485,0.0175585,0.0231928,2008,1107,15.1532,-2.98572
791,-83,15.2352,2.92529,0.00201081,0.0359868,0.00798582,0.0377702,0.000227414,1.35108,0.0251047,0.0389335,2015,1107,15.2352,-2.92535
798,-83,15.3601,2.93872,0.000814023,0.0498578,0.0105502,0.052031,-0.00135922,1.36765,0.0351492,0.0438095,2022,1107,15.36,-2.93877
805,-83,14.9896,3.32349,-0.00159885,0.0677457,0.0135322,0.0702928,-0.00414602,1.38474,0.0483032,0.0443902,2029,1107,14.9896,-3.32351
812,-83,14.7734,4.06848,-0.0059746,0.0905536,0.0168885,0.0934231,-0.0088441,1.4025,0.0654296,0.0466506,2036,1107,14.7733,-4.06842
-700,-90,0,0,0,0,0,0,0,0,0,-1,524,1114,0,0
-693,-90,-16.1199,-0.144775,0.123497,0.0259982,-0.0204597,0.127617,0.0218789,-0.198682,0.0788038,0.046929,531,1114,-16.1199,0.144788
-686,-90,-13.1239,0.85022,0.102364,0.0183351,-0.0149532,0.104945,0.0157534,-0.170964,0.0653484,0.0443358,538,1114,-13.1239,-0.850275
-679,-90,-6.47827,1.00171,0,0,0,0,0,0,0,-1,545,1114,-6.47825,-1.00176
-672,-90,-7.16443,0.879639,0.0649645,0.00892899,-0.00813283,0.066121,0.00777248,-0.141255,0.0417318,0.0422769,552,1114,-7.16441,-0.879619
-665,-90,-7.77777,0.690063,0.049328,0.00607525,-0.00598528,0.050141,0.00526229,-0.135,0.0318186,0.0424661,559,1114,-7.77776,-0.69004
-658,-90,-8.60992,0.643188,0,0,0,0,0,0,0,-1,566,1114,-8.60989,-0.643134
-651,-90,-9.17645,0.655151,0.0251,0.0026629,-0.00318721,0.025544,0.00221894,-0.138404,0.01634,0.0287282,573,1114,-9.17645,-0.655185
-644,-90,-9.17627,0.787842,0.0165158,0.00143956,-0.00284332,0.0170342,0.000921151,-0.180346,0.0110619,0.0123356,580,1114,-9.17629,-0.787893
-637,-90,-9.17413,0.880127,0.00860075,0.000154417,-0.0014043,0.00882811,-7.29444e-05,-0.160511,0.00590987,0.0108361,587,1114,-9.17415,-0.880113
-630,-90,-9.18457,0.95166,0.00321243,6.82872e-05,-0.00215144,0.00430496,-0.00102425,-0.46988,0.00326538,0.010887,594,1114,-9.18457,-0.951708
-623,-90,-9.19244,1.00378,-1.55276e-05,-0.000373521,-0.00284471,0.00265581,-0.00304486,-0.753978,0.00329384,0.00926884,601,1114,-9.19244,-1.00377
-616,-90,-9.19855,1.06653,-0.00175739,-0.000635365,-0.0044603,0.00329907,-0.00569182,-0.847959,0.00525181,0.00801929,608,1114,-9.19857,-1.0665
-609,-90,-9.1875,1.12085,-0.00195048,-0.000749361,-0.00471882,0.00340696,-0.0061068,-0.848693,0.00556601,0.0106014,615,1114,-9.18753,-1.1209
-602,-90,-9.20709,1.18457,-0.0020702,-0.00115617,-0.00574361,0.00414858,-0.00737495,-0.825099,0.00673948,0.0108348,622,1114,-9.20706,-1.18454
-595,-90,-9.17139,1.27246,-0.00236589,-0.00137611,-0.00631835,0.0044667,-0.0082087,-0.824481,0.00742368,0.0135311,629,1114,-9.17138,-1.2725
-588,-90,-9.16364,1.16089,-0.00256858,-0.00152394,-0.00650724,0.00448192,-0.00857443,-0.825446,0.00766053,0.0227766,636,1114,-9.16361,-1.16087
-581,-90,-9.45398,0.714478,-0.0025121,-0.0015716,-0.00632901,0.0043046,-0.0083883,-0.822481,0.00745361,0.0310408,643,1114,-9.45401,-0.714429
-574,-90,-9.55719,0.516724,-0.00226318,-0.00158925,-0.00596058,0.00404388,-0.00789631,-0.813634,0.00701225,0.0328803,650,1114,-9.5572,-0.516715
-567,-90,-9.5069,0.436157,-0.00190159,-0.00145674,-0.00509541,0.0034211,-0.00677943,-0.80721,0.00599473,0.0346162,657,1114,-9.50689,-0.436217
-560,-90,-9.42059,0.534912,-0.00141691,-0.00124847,-0.00368917,0.00235744,-0.00502281,-0.796811,0.00435263,0.0404461,664,1114,-9.42059,-0.53496
-553,-90,-9.31921,0.683716,-0.000880175,-0.00101366,-0.00174788,0.000802236,-0.00269607,-0.766315,0.00211611,0.0399469,671,1114,-9.3192,-0.683693
-546,-90,-9.31934,0.64978,-0.000343006,-0.000830298,0.000734377,0.000187088,-0.00136039,0.625226,0.00097529,0.0391099,678,1114,-9.31932,-0.649813
-539,-90,-9.44183,0.600342,0.000177089,-0.00081184,0.00363528,0.00335138,-0.00398613,0.717804,0.00424159,0.0390167,685,1114,-9.44181,-0.600398
-532,-90,-9.59906,0.660278,-7.73671e-05,-0.00137281,0.00576754,0.00507871,-0.00652889,0.72948,0.00671906,0.0400754,692,1114,-9.59907,-0.660236
-525,-90,0,0,0,0,0,0,0,0,0,-1,699,1114,0,0
-518,-90,0,0,0,0,0,0,0,0,0,-1,706,1114,0,0
-511,-90,0,0,0,0,0,0,0,0,0,-1,713,1114,0,0
-504,-90,0,0,0,0,0,0,0,0,0,-1,720,1114,0,0
-497,-90,0,0,0,0,0,0,0,0,0,-1,727,1114,0,0
-490,-90,0,0,0,0,0,0,0,0,0,-1,734,1114,0,0
-483,-90,0,0,0,0,0,0,0,0,0,-1,741,1114,0,0
-476,-90,0,0,0,0,0,0,0,0,0,-1,748,1114,0,0
-469,-90,0,0,0,0,0,0,0,0,0,-1,755,1114,0,0
-462,-90,0,0,0,0,0,0,0,0,0,-1,762,1114,0,0
-455,-90,0,0,0,0,0,0,0,0,0,-1,769,1114,0,0
-448,-90,0,0,0,0,0,0,0,0,0,-1,776,1114,0,0
-441,-90,0,0,0,0,0,0,0,0,0,-1,783,1114,0,0
-434,-90,0,0,0,0,0,0,0,0,0,-1,790,1114,0,0
-427,-90,0,0,0,0,0,0,0,0,0,-1,797,1114,0,0
-420,-90,0,0,0,0,0,0,0,0,0,-1,804,1114,0,0
-413,-90,0,0,0,0,0,0,0,0,0,-1,811,1114,0,0
-406,-90,0,0,0,0,0,0,0,0,0,-1,818,1114,0,0
-399,-90,0,0,0,0,0,0,0,0,0,-1,825,1114,0,0
-392,-90,0,0,0,0,0,0,0,0,0,-1,832,1114,0,0
-385,-90,0,0,0,0,0,0,0,0,0,-1,839,1114,0,0
-378,-90,0,0,0,0,0,0,0,0,0,-1,846,1114,0,0
-371,-90,0,0,0,0,0,0,0,0,0,-1,853,1114,0,0
-364,-90,0,0,0,0,0,0,0,0,0,-1,860,1114,0,0
-357,-90,0,0,0,0,0,0,0,0,0,-1,867,1114,0,0
-350,-90,0,0,0,0,0,0,0,0,0,-1,874,1114,0,0
-343,-90,0,0,0,0,0,0,0,0,0,-1,881,1114,0,0
-336,-90,0,0,0,0,0,0,0,0,0,-1,888,1114,0,0
-329,-90,0,0,0,0,0,0,0,0,0,-1,895,1114,0,0
-322,-90,0,0,0,0,0,0,0,0,0,-1,902,1114,0,0
-315,-90,0,0,0,0,0,0,0,0,0,-1,909,1114,0,0
-308,-90,0,0,0,0,0,0,0,0,0,-1,916,1114,0,0
-301,-90,0,0,0,0,0,0,0,0,0,-1,923,1114,0,0
-294,-90,0,0,0,0,0,0,0,0,0,-1,930,1114,0,0
-287,-90,0,0,0,0,0,0,0,0,0,-1,937,1114,0,0
-280,-90,0,0,0,0,0,0,0,0,0,-1,944,1114,0,0
-273,-90,0,0,0,0,0,0,0,0,0,-1,951,1114,0,0
-266,-90,0,0,0,0,0,0,0,0,0,-1,958,1114,0,0
-259,-90,0,0,0,0,0,0,0,0,0,-1,965,1114,0,0
-252,-90,0,0,0,0,0,0,0,0,0,-1,972,1114,0,0
-245,-90,0,0,0,0,0,0,0,0,0,-1,979,1114,0,0
-238,-90,0,0,0,0,0,0,0,0,0,-1,986,1114,0,0
-231,-90,0,0,0,0,0,0,0,0,0,-1,993,1114,0,0
-224,-90,0,0,0,0,0,0,0,0,0,-1,1000,1114,0,0
-217,-90,0,0,0,0,0,0,0,0,0,-1,1007,1114,0,0
-210,-90,0,0,0,0,0,0,0,0,0,-1,1014,1114,0,0
-203,-90,0,0,0,0,0,0,0,0,0,-1,1021,1114,0,0
-196,-90,0,0,0,0,0,0,0,0,0,-1,1028,1114,0,0
-189,-90,0,0,0,0,0,0,0,0,0,-1,1035,1114,0,0
-182,-90,0,0,0,0,0,0,0,0,0,-1,1042,1114,0,0
-175,-90,0,0,0,0,0,0,0,0,0,-1,1049,1114,0,0
-168,-90,0,0,0,0,0,0,0,0,0,-1,1056,1114,0,0
-161,-90,0,0,0,0,0,0,0,0,0,-1,1063,1114,0,0
-154,-90,0,0,0,0,0,0,0,0,0,-1,1070,1114,0,0
-147,-90,0,0,0,0,0,0,0,0,0,-1,1077,1114,0,0
-140,-90,0,0,0,0,0,0,0,0,0,-1,1084,1114,0,0
-133,-90,0,0,0,0,0,0,0,0,0,-1,1091,1114,0,0
-126,-90,0,0,0,0,0,0,0,0,0,-1,1098,1114,0,0
-119,-90,0,0,0,0,0,0,0,0,0,-1,1105,1114,0,0
-112,-90,0,0,0,0,0,0,0,0,0,-1,1112,1114,0,0
-105,-90,0,0,0,0,0,0,0,0,0,-1,1119,1114,0,0
-98,-90,0,0,0,0,0,0,0,0,0,-1,1126,1114,0,0
-91,-90,0,0,0,0,0,0,0,0,0,-1,1133,1114,0,0
-84,-90,0,0,0,0,0,0,0,0,0,-1,1140,1114,0,0
-77,-90,0,0,0,0,0,0,0,0,0,-1,1147,1114,0,0
-70,-90,0,0,0,0,0,0,0,0,0,-1,1154,1114,0,0
-63,-90,0,0,0,0,0,0,0,0,0,-1,1161,1114,0,0
-56,-90,0,0,0,0,0,0,0,0,0,-1,1168,1114,0,0
-49,-90,0,0,0,0,0,0,0,0,0,-1,1175,1114,0,0
-42,-90,0,0,0,0,0,0,0,0,0,-1,1182,1114,0,0
-35,-90,0,0,0,0,0,0,0,0,0,-1,1189,1114,0,0
-28,-90,0,0,0,0,0,0,0,0,0,-1,1196,1114,0,0
-21,-90,0,0,0,0,0,0,0,0,0,-1,1203,1114,0,0
-14,-90,0,0,0,0,0,0,0,0,0,-1,1210,1114,0,0
-7,-90,0,0,0,0,0,0,0,0,0,-1,1217,1114,0,0
0,-90,0,0,0,0,0,0,0,0,0,-1,1224,1114,0,0
7,-90,0,0,0,0,0,0,0,0,0,-1,1231,1114,0,0
14,-90,0,0,0,0,0,0,0,0,0,-1,1238,1114,0,0
21,-90,0,0,0,0,0,0,0,0,0,-1,1245,1114,0,0
28,-90,0,0,0,0,0,0,0,0,0,-1,1252,1114,0,0
35,-90,0,0,0,0,0,0,0,0,0,-1,1259,1114,0,0
42,-90,0,0,0,0,0,0,0,0,0,-1,1266,1114,0,0
49,-90,0,0,0,0,0,0,0,0,0,-1,1273,1114,0,0
56,-90,0,0,0,0,0,0,0,0,0,-1,1280,1114,0,0
63,-90,0,0,0,0,0,0,0,0,0,-1,1287,1114,0,0
70,-90,0,0,0,0,0,0,0,0,0,-1,1294,1114,0,0
77,-90,0,0,0,0,0,0,0,0,0,-1,1301,1114,0,0
84,-90,0,0,0,0,0,0,0,0,0,-1,1308,1114,0,0
91,-90,0,0,0,0,0,0,0,0,0,-1,1315,1114,0,0
98,-90,0,0,0,0,0,0,0,0,0,-1,1322,1114,0,0
105,-90,0,0,0,0,0,0,0,0,0,-1,1329,1114,0,0
112,-90,0,0,0,0,0,0,0,0,0,-1,1336,1114,0,0
119,-90,0,0,0,0,0,0,0,0,0,-1,1343,1114,0,0
126,-90,0,0,0,0,0,0,0,0,0,-1,1350,1114,0,0
133,-90,0,0,0,0,0,0,0,0,0,-1,1357,1114,0,0
140,-90,0,0,0,0,0,0,0,0,0,-1,1364,1114,0,0
147,-90,0,0,0,0,0,0,0,0,0,-1,1371,1114,0,0
154,-90,0,0,0,0,0,0,0,0,0,-1,1378,1114,0,0
161,-90,0,0,0,0,0,0,0,0,0,-1,1385,1114,0,0
168,-90,0,0,0,0,0,0,0,0,0,-1,1392,1114,0,0
175,-90,0,0,0,0,0,0,0,0,0,-1,1399,1114,0,0
182,-90,0,0,0,0,0,0,0,0,0,-1,1406,1114,0,0
189,-90,0,0,0,0,0,0,0,0,0,-1,1413,1114,0,0
196,-90,0,0,0,0,0,0,0,0,0,-1,1420,1114,0,0
203,-90,0,0,0,0,0,0,0,0,0,-1,1427,1114,0,0
210,-90,0,0,0,0,0,0,0,0,0,-1,1434,1114,0,0
217,-90,0,0,0,0,0,0,0,0,0,-1,1441,1114,0,0
224,-90,0,0,0,0,0,0,0,0,0,-1,1448,1114,0,0
231,-90,0,0,0,0,0,0,0,0,0,-1,1455,1114,0,0
238,-90,0,0,0,0,0,0,0,0,0,-1,1462,1114,0,0
245,-90,0,0,0,0,0,0,0,0,0,-1,1469,1114,0,0
252,-90,0,0,0,0,0,0,0,0,0,-1,1476,1114,0,0
259,-90,0,0,0,0,0,0,0,0,0,-1,1483,1114,0,0
266,-90,0,0,0,0,0,0,0,0,0,-1,1490,1114,0,0
273,-90,0,0,0,0,0,0,0,0,0,-1,1497,1114,0,0
280,-90,0,0,0,0,0,0,0,0,0,-1,1504,1114,0,0
287,-90,0,0,0,0,0,0,0,0,0,-1,1511,1114,0,0
294,-90,0,0,0,0,0,0,0,0,0,-1,1518,1114,0,0
301,-90,0,0,0,0,0,0,0,0,0,-1,1525,1114,0,0
308,-90,0,0,0,0,0,0,0,0,0,-1,1532,1114,0,0
315,-90,0,0,0,0,0,0,0,0,0,-1,1539,1114,0,0
322,-90,0,0,0,0,0,0,0,0,0,-1,1546,1114,0,0
329,-90,0,0,0,0,0,0,0,0,0,-1,1553,1114,0,0
336,-90,0,0,0,0,0,0,0,0,0,-1,1560,1114,0,0
343,-90,0,0,0,0,0,0,0,0,0,-1,1567,1114,0,0
350,-90,0,0,0,0,0,0,0,0,0,-1,1574,1114,0,0
357,-90,0,0,0,0,0,0,0,0,0,-1,1581,1114,0,0
364,-90,0,0,0,0,0,0,0,0,0,-1,1588,1114,0,0
371,-90,0,0,0,0,0,0,0,0,0,-1,1595,1114,0,0
378,-90,0,0,0,0,0,0,0,0,0,-1,1602,1114,0,0
385,-90,0,0,0,0,0,0,0,0,0,-1,1609,1114,0,0
392,-90,0,0,0,0,0,0,0,0,0,-1,1616,1114,0,0
399,-90,0,0,0,0,0,0,0,0,0,-1,1623,1114,0,0
406,-90,0,0,0,0,0,0,0,0,0,-1,1630,1114,0,0
413,-90,0,0,0,0,0,0,0,0,0,-1,1637,1114,0,0
420,-90,0,0,0,0,0,0,0,0,0,-1,1644,1114,0,0
427,-90,0,0,0,0,0,0,0,0,0,-1,1651,1114,0,0
434,-90,0,0,0,0,0,0,0,0,0,-1,1658,1114,0,0
441,-90,0,0,0,0,0,0,0,0,0,-1,1665,1114,0,0
448,-90,0,0,0,0,0,0,0,0,0,-1,1672,1114,0,0
455,-90,0,0,0,0,0,0,0,0,0,-1,1679,1114,0,0
462,-90,0,0,0,0,0,0,0,0,0,-1,1686,1114,0,0
469,-90,0,0,0,0,0,0,0,0,0,-1,1693,1114,0,0
476,-90,0,0,0,0,0,0,0,0,0,-1,1700,1114,0,0
483,-90,0,0,0,0,0,0,0,0,0,-1,1707,1114,0,0
490,-90,0,0,0,0,0,0,0,0,0,-1,1714,1114,0,0
497,-90,0,0,0,0,0,0,0,0,0,-1,1721,1114,0,0
504,-90,0,0,0,0,0,0,0,0,0,-1,1728,1114,0,0
511,-90,0,0,0,0,0,0,0,0,0,-1,1735,1114,0,0
518,-90,0,0,0,0,0,0,0,0,0,-1,1742,1114,0,0
525,-90,0,0,0,0,0,0,0,0,0,-1,1749,1114,0,0
532,-90,0,0,0,0,0,0,0,0,0,-1,1756,1114,0,0
539,-90,0,0,0,0,0,0,0,0,0,-1,1763,1114,0,0
546,-90,0,0,0,0,0,0,0,0,0,-1,1770,1114,0,0
553,-90,0,0,0,0,0,0,0,0,0,-1,1777,1114,0,0
560,-90,0,0,0,0,0,0,0,0,0,-1,1784,1114,0,0
567,-90,0,0,0,0,0,0,0,0,0,-1,1791,1114,0,0
574,-90,0,0,0,0,0,0,0,0,0,-1,1798,1114,0,0
581,-90,0,0,0,0,0,0,0,0,0,-1,1805,1114,0,0
588,-90,0,0,0,0,0,0,0,0,0,-1,1812,1114,0,0
595,-90,0,0,0,0,0,0,0,0,0,-1,1819,1114,0,0
602,-90,0,0,0,0,0,0,0,0,0,-1,1826,1114,0,0
609,-90,0,0,0,0,0,0,0,0,0,-1,1833,1114,0,0
616,-90,0,0,0,0,0,0,0,0,0,-1,1840,1114,0,0
623,-90,0,0,0,0,0,0,0,0,0,-1,1847,1114,0,0
630,-90,0,0,0,0,0,0,0,0,0,-1,1854,1114,0,0
637,-90,0,0,0,0,0,0,0,0,0,-1,1861,1114,0,0
644,-90,15.5049,2.18335,0.00827954,0.00131765,-0.000739462,0.00835721,0.00123998,-0.10466,0.00520759,0.034054,1868,1114,15.5048,-2.18333
651,-90,15.587,2.35706,0.00581697,0.0011045,-0.000626252,0.00589877,0.00102269,-0.12989,0.00363983,0.0391637,1875,1114,15.587,-2.35701
658,-90,15.7637,2.52625,0.00409493,0.000938267,-0.000634706,0.00421777,0.000815427,-0.191174,0.0025833,0.0452792,1882,1114,15.7636,-2.52623
665,-90,15.6436,2.30859,0.00263384,0.000616361,-0.000185689,0.00265078,0.000599412,-0.0910214,0.00160514,0.0446116,1889,1114,15.6436,-2.3086
672,-90,15.6224,2.1554,0.000863086,-2.30946e-05,0.00115842,0.00166027,-0.000820275,0.602736,0.00145926,0.039172,1896,1114,15.6225,-2.15541
679,-90,15.6945,2.36157,-0.000997363,-0.000697769,0.00271817,0.00187473,-0.00356986,0.812925,0.00319381,0.0365928,1903,1114,15.6945,-2.3616
686,-90,15.6986,2.38232,-0.00264427,-0.0013247,0.00417186,0.00223922,-0.00620819,0.863824,0.00505337,0.033228,1910,1114,15.6986,-2.38236
693,-90,15.6954,2.40125,-0.00401675,-0.00185111,0.0054284,0.00260142,-0.00846927,0.883843,0.00668425,0.0330564,1917,1114,15.6955,-2.40122
700,-90,15.6692,2.36145,-0.00513401,-0.0022319,0.00633125,0.00281244,-0.0101784,0.898047,0.00789191,0.029432,1924,1114,15.6691,-2.36141
707,-90,15.613,2.21619,-0.00600831,-0.00248003,0.00695868,0.00293465,-0.011423,0.909541,0.00875898,0.0230922,1931,1114,15.6131,-2.21622
714,-90,15.588,2.52783,-0.00643146,-0.00255943,0.00738877,0.00314275,-0.0121336,0.913528,0.00931511,0.037537,1938,1114,15.588,-2.52788
721,-90,15.2349,3.25488,-0.00636881,-0.00245316,0.00733534,0.00318114,-0.0120031,0.91581,0.00924669,0.0217156,1945,1114,15.2348,-3.25491
728,-90,15.1179,3.30005,-0.00612313,-0.00215454,0.00674078,0.00288793,-0.0111656,0.928541,0.00857014,0.0172613,1952,1114,15.118,-3.3
735,-90,15.1116,3.25317,-0.00558704,-0.00170608,0.00600042,0.00265982,-0.00995295,0.941786,0.00767706,0.0176254,1959,1114,15.1116,-3.25316
742,-90,15.1112,3.20349,-0.00430234,-0.00127551,0.00515106,0.00257986,-0.00815771,0.928281,0.00647215,0.014277,1966,1114,15.1112,-3.2035
749,-90,15.1458,3.14246,-0.00260171,0.000245116,0.00451086,0.00355181,-0.00590841,0.93823,0.00551806,0.0109825,1973,1114,15.1458,-3.14243
756,-90,15.1503,3.10168,-0.00119195,0.00307859,0.00399141,0.00546998,-0.00358334,1.03101,0.00526464,0.0119005,1980,1114,15.1503,-3.1017
763,-90,15.1342,3.05945,-7.01922e-05,0.00741223,0.00354266,0.0088234,-0.00148137,1.19172,0.00643316,0.0110184,1987,1114,15.1341,-3.05941
770,-90,15.1178,3.03699,0.00151327,0.012085,0.00328993,0.0130252,0.000573065,1.29243,0.00849891,0.0134023,1994,1114,15.1179,-3.03695
777,-90,15.1039,3.00879,0.00264631,0.0183062,0.00389467,0.0192213,0.00173117,1.34001,0.0122779,0.0125931,2001,1114,15.1039,-3.00884
784,-90,15.0745,2.95764,0.00306698,0.0267,0.00535029,0.0278548,0.00191216,1.35821,0.0179665,0.0255293,2008,1114,15.0744,-2.95765
791,-90,15.0411,2.89502,0.00281586,0.0379605,0.00723903,0.0393932,0.00138318,1.37541,0.0258134,0.0393688,2015,1114,15.0412,-2.89503
798,-90,15.0807,2.54822,0.0017199,0.052776,0.00950342,0.0544876,8.34092e-06,1.39261,0.0363223,0.0398331,2022,1114,15.0807,-2.54819
805,-90,14.8519,1.93799,-0.000678228,0.0719457,0.0120948,0.073907,-0.00263951,1.41004,0.0501743,0.0407833,2029,1114,14.852,-1.93795
812,-90,14.7053,1.39417,-0.00517799,0.0964671,0.0149604,0.0986233,-0.00733418,1.42766,0.0683249,0.043491,2036,1114,14.7052,-1.39411
-700,-97,0,0,0,0,0,0,0,0,0,-1,524,1121,0,0
-693,-97,-12.1287,0.665894,0.115618,0.0356936,-0.0288242,0.124929,0.0263829,-0.312435,0.0760329,0.0479012,531,1121,-12.1287,-0.66589
-686,-97,-12.211,1.15283,0.0959833,0.026946,-0.0208349,0.101784,0.0211455,-0.271525,0.0620208,0.0458626,538,1121,-12.211,-1.15282
-679,-97,-12.2878,1.71155,0.077574,0.0203871,-0.0152182,0.0813716,0.0165895,-0.244547,0.0496505,0.0437199,545,1121,-12.2878,-1.71161
-672,-97,-7.46454,1.54565,0.0608864,0.0153276,-0.0111112,0.0634518,0.0127622,-0.22691,0.0387541,0.0419033,552,1121,-7.46456,-1.54563
-665,-97,-8.27417,1.33118,0.0461805,0.0113908,-0.00807041,0.0479615,0.00960982,-0.217199,0.0293011,0.0419788,559,1121,-8.27419,-1.33114
-658,-97,-8.85132,1.08264,0.0336467,0.00833358,-0.0058167,0.0349193,0.00706094,-0.215396,0.0213193,0.0411531,566,1121,-8.85132,-1.08261
-651,-97,-9.1189,0.739014,0.0234276,0.0059781,-0.00414656,0.0243628,0.00504287,-0.221832,0.0148492,0.028981,573,1121,-9.11889,-0.738965
-644,-97,-9.12213,0.790894,0.0155098,0.00394586,-0.00338148,0.016426,0.00302965,-0.264597,0.0100935,0.0103601,580,1121,-9.12213,-0.790846
-637,-97,-9.12305,0.851685,0.00816161,0.00203478,-0.00161193,0.00855982,0.00163658,-0.242188,0.0052468,0.0113482,587,1121,-9.12303,-0.85169
-630,-97,-9.12543,0.932373,0.00306839,0.00118925,-0.00221692,0.00453663,-0.000278989,-0.584964,0.00312157,0.00922378,594,1121,-9.12544,-0.932389
-623,-97,-9.12207,1.02637,-0.000207586,0.00026328,-0.00293959,0.00297685,-0.00292116,-0.825358,0.00340527,0.0105838,601,1121,-9.12206,-1.02639
-616,-97,-9.12103,1.07898,-0.00202564,-0.000427347,-0.00463927,0.0034811,-0.00593409,-0.87069,0.00549702,0.011198,608,1121,-9.12105,-1.07895
-609,-97,-9.12769,1.13135,-0.00225428,-0.000753022,-0.00498073,0.00353332,-0.00654062,-0.860189,0.00590195,0.0131567,615,1121,-9.12771,-1.13135
-602,-97,-9.14514,1.17493,-0.00242196,-0.00124794,-0.00605138,0.00424484,-0.00791473,-0.833749,0.00712611,0.0125461,622,1121,-9.14514,-1.17497
-595,-97,-9.10687,1.25293,-0.00279001,-0.00151788,-0.00664342,0.00451986,-0.00882775,-0.833124,0.00783889,0.0174492,629,1121,-9.10685,-1.25291
-588,-97,-9.05884,1.27979,-0.00307303,-0.00170849,-0.00684199,0.00448516,-0.00926668,-0.835093,0.00809803,0.0221308,636,1121,-9.05883,-1.27979
-581,-97,-9.40027,0.871826,-0.00307919,-0.00177925,-0.00665436,0.00425681,-0.00911525,-0.834081,0.00788839,0.0312656,643,1121,-9.40029,-0.871797
-574,-97,-9.58832,0.641846,-0.00286403,-0.00183251,-0.00625263,0.0039256,-0.00862213,-0.826549,0.00741166,0.0344736,650,1121,-9.58831,-0.641847
-567,-97,-9.50671,0.619995,-0.00252653,-0.00173465,-0.00534527,0.00322933,-0.00749051,-0.822367,0.00635,0.0343734,657,1121,-9.50671,-0.619986
-560,-97,-9.39404,0.509399,-0.00204238,-0.00155259,-0.00385337,0.00206365,-0.00565863,-0.817132,0.00461669,0.039945,664,1121,-9.39403,-0.50945
-553,-97,-9.25262,0.584595,-0.00148116,-0.00133184,-0.00177458,0.000369646,-0.00318264,-0.806421,0.0022551,0.0423967,671,1121,-9.25265,-0.584545
-546,-97,-9.22827,0.546631,-0.000892195,-0.00114266,0.000901626,-0.000107147,-0.00192771,0.716391,0.00125095,0.041144,678,1121,-9.2283,-0.54667
-539,-97,-9.45758,0.678345,-0.000285,-0.0010888,0.00409596,0.00342873,-0.00480253,0.736494,0.00477433,0.0391677,685,1121,-9.45755,-0.678301
-532,-97,-9.64923,0.756104,-0.000341688,-0.001542,0.00669052,0.00577553,-0.00765922,0.740667,0.00778193,0.0371075,692,1121,-9.64924,-0.756123
-525,-97,0,0,0,0,0,0,0,0,0,-1,699,1121,0,0
-518,-97,0,0,0,0,0,0,0,0,0,-1,706,1121,0,0
-511,-97,0,0,0,0,0,0,0,0,0,-1,713,1121,0,0
-504,-97,0,0,0,0,0,0,0,0,0,-1,720,1121,0,0
-497,-97,0,0,0,0,0,0,0,0,0,-1,727,1121,0,0
-490,-97,0,0,0,0,0,0,0,0,0,-1,734,1121,0,0
-483,-97,0,0,0,0,0,0,0,0,0,-1,741,1121,0,0
-476,-97,0,0,0,0,0,0,0,0,0,-1,748,1121,0,0
-469,-97,0,0,0,0,0,0,0,0,0,-1,755,1121,0,0
-462,-97,0,0,0,0,0,0,0,0,0,-1,762,1121,0,0
-455,-97,0,0,0,0,0,0,0,0,0,-1,769,1121,0,0
-448,-97,0,0,0,0,0,0,0,0,0,-1,776,1121,0,0
-441,-97,0,0,0,0,0,0,0,0,0,-1,783,1121,0,0
-434,-97,0,0,0,0,0,0,0,0,0,-1,790,1121,0,0
-427,-97,0,0,0,0,0,0,0,0,0,-1,797,1121,0,0
-420,-97,0,0,0,0,0,0,0,0,0,-1,804,1121,0,0
-413,-97,0,0,0,0,0,0,0,0,0,-1,811,1121,0,0
-406,-97,0,0,0,0,0,0,0,0,0,-1,818,1121,0,0
-399,-97,0,0,0,0,0,0,0,0,0,-1,825,1121,0,0
-392,-97,0,0,0,0,0,0,0,0,0,-1,832,1121,0,0
-385,-97,0,0,0,0,0,0,0,0,0,-1,839,1121,0,0
-378,-97,0,0,0,0,0,0,0,0,0,-1,846,1121,0,0
-371,-97,0,0,0,0,0,0,0,0,0,-1,853,1121,0,0
-364,-97,0,0,0,0,0,0,0,0,0,-1,860,1121,0,0
-357,-97,0,0,0,0,0,0,0,0,0,-1,867,1121,0,0
-350,-97,0,0,0,0,0,0,0,0,0,-1,874,1121,0,0
-343,-97,0,0,0,0,0,0,0,0,0,-1,881,1121,0,0
-336,-97,0,0,0,0,0,0,0,0,0,-1,888,1121,0,0
-329,-97,0,0,0,0,0,0,0,0,0,-1,895,1121,0,0
-322,-97,0,0,0,0,0,0,0,0,0,-1,902,1121,0,0
-315,-97,0,0,0,0,0,0,0,0,0,-1,909,1121,0,0
-308,-97,0,0,0,0,0,0,0,0,0,-1,916,1121,0,0
-301,-97,0,0,0,0,0,0,0,0,0,-1,923,1121,0,0
-294,-97,0,0,0,0,0,0,0,0,0,-1,930,1121,0,0
-287,-97,0,0,0,0,0,0,0,0,0,-1,937,1121,0,0
-280,-97,0,0,0,0,0,0,0,0,0,-1,944,1121,0,0
-273,-97,0,0,0,0,0,0,0,0,0,-1,951,1121,0,0
-266,-97,0,0,0,0,0,0,0,0,0,-1,958,1121,0,0
-259,-97,0,0,0,0,0,0,0,0,0,-1,965,1121,0,0
-252,-97,0,0,0,0,0,0,0,0,0,-1,972,1121,0,0
-245,-97,0,0,0,0,0,0,0,0,0,-1,979,1121,0,0
-238,-97,0,0,0,0,0,0,0,0,0,-1,986,1121,0,0
-231,-97,0,0,0,0,0,0,0,0,0,-1,993,1121,0,0
-224,-97,0,0,0,0,0,0,0,0,0,-1,1000,1121,0,0
-217,-97,0,0,0,0,0,0,0,0,0,-1,1007,1121,0,0
-210,-97,0,0,0,0,0,0,0,0,0,-1,1014,1121,0,0
-203,-97,0,0,0,0,0,0,0,0,0,-1,1021,1121,0,0
-196,-97,0,0,0,0,0,0,0,0,0,-1,1028,1121,0,0
-189,-97,0,0,0,0,0,0,0,0,0,-1,1035,1121,0,0
-182,-97,0,0,0,0,0,0,0,0,0,-1,1042,1121,0,0
-175,-97,0,0,0,0,0,0,0,0,0,-1,1049,1121,0,0
-168,-97,0,0,0,0,0,0,0,0,0,-1,1056,1121,0,0
-161,-97,0,0,0,0,0,0,0,0,0,-1,1063,1121,0,0
-154,-97,0,0,0,0,0,0,0,0,0,-1,1070,1121,0,0
-147,-97,0,0,0,0,0,0,0,0,0,-1,1077,1121,0,0
-140,-97,0,0,0,0,0,0,0,0,0,-1,1084,1121,0,0
-133,-97,0,0,0,0,0,0,0,0,0,-1,1091,1121,0,0
-126,-97,0,0,0,0,0,0,0,0,0,-1,1098,1121,0,0
-119,-97,0,0,0,0,0,0,0,0,0,-1,1105,1121,0,0
-112,-97,0,0,0,0,0,0,0,0,0,-1,1112,1121,0,0
-105,-97,0,0,0,0,0,0,0,0,0,-1,1119,1121,0,0
-98,-97,0,0,0,0,0,0,0,0,0,-1,1126,1121,0,0
-91,-97,0,0,0,0,0,0,0,0,0,-1,1133,1121,0,0
-84,-97,0,0,0,0,0,0,0,0,0,-1,1140,1121,0,0
-77,-97,0,0,0,0,0,0,0,0,0,-1,1147,1121,0,0
-70,-97,0,0,0,0,0,0,0,0,0,-1,1154,1121,0,0
-63,-97,0,0,0,0,0,0,0,0,0,-1,1161,1121,0,0
-56,-97,0,0,0,0,0,0,0,0,0,-1,1168,1121,0,0
-49,-97,0,0,0,0,0,0,0,0,0,-1,1175,1121,0,0
-42,-97,0,0,0,0,0,0,0,0,0,-1,1182,1121,0,0
-35,-97,0,0,0,0,0,0,0,0,0,-1,1189,1121,0,0
-28,-97,0,0,0,0,0,0,0,0,0,-1,1196,1121,0,0
-21,-97,0,0,0,0,0,0,0,0,0,-1,1203,1121,0,0
-14,-97,0,0,0,0,0,0,0,0,0,-1,1210,1121,0,0
-7,-97,0,0,0,0,0,0,0,0,0,-1,1217,1121,0,0
0,-97,0,0,0,0,0,0,0,0,0,-1,1224,1121,0,0
7,-97,0,0,0,0,0,0,0,0,0,-1,1231,1121,0,0
14,-97,0,0,0,0,0,0,0,0,0,-1,1238,1121,0,0
21,-97,0,0,0,0,0,0,0,0,0,-1,1245,1121,0,0
28,-97,0,0,0,0,0,0,0,0,0,-1,1252,1121,0,0
35,-97,0,0,0,0,0,0,0,0,0,-1,1259,1121,0,0
42,-97,0,0,0,0,0,0,0,0,0,-1,1266,1121,0,0
49,-97,0,0,0,0,0,0,0,0,0,-1,1273,1121,0,0
56,-97,0,0,0,0,0,0,0,0,0,-1,1280,1121,0,0
63,-97,0,0,0,0,0,0,0,0,0,-1,1287,1121,0,0
70,-97,0,0,0,0,0,0,0,0,0,-1,1294,1121,0,0
77,-97,0,0,0,0,0,0,0,0,0,-1,1301,1121,0,0
84,-97,0,0,0,0,0,0,0,0,0,-1,1308,1121,0,0
91,-97,0,0,0,0,0,0,0,0,0,-1,1315,1121,0,0
98,-97,0,0,0,0,0,0,0,0,0,-1,1322,1121,0,0
105,-97,0,0,0,0,0,0,0,0,0,-1,1329,1121,0,0
112,-97,0,0,0,0,0,0,0,0,0,-1,1336,1121,0,0
119,-97,0,0,0,0,0,0,0,0,0,-1,1343,1121,0,0
126,-97,0,0,0,0,0,0,0,0,0,-1,1350,1121,0,0
133,-97,0,0,0,0,0,0,0,0,0,-1,1357,1121,0,0
140,-97,0,0,0,0,0,0,0,0,0,-1,1364,1121,0,0
147,-97,0,0,0,0,0,0,0,0,0,-1,1371,1121,0,0
154,-97,0,0,0,0,0,0,0,0,0,-1,1378,1121,0,0
161,-97,0,0,0,0,0,0,0,0,0,-1,1385,1121,0,0
168,-97,0,0,0,0,0,0,0,0,0,-1,1392,1121,0,0
175,-97,0,0,0,0,0,0,0,0,0,-1,1399,1121,0,0
182,-97,0,0,0,0,0,0,0,0,0,-1,1406,1121,0,0
189,-97,0,0,0,0,0,0,0,0,0,-1,1413,1121,0,0
196,-97,0,0,0,0,0,0,0,0,0,-1,1420,1121,0,0
203,-97,0,0,0,0,0,0,0,0,0,-1,1427,1121,0,0
210,-97,0,0,0,0,0,0,0,0,0,-1,1434,1121,0,0
217,-97,0,0,0,0,0,0,0,0,0,-1,1441,1121,0,0
224,-97,0,0,0,0,0,0,0,0,0,-1,1448,1121,0,0
231,-97,0,0,0,0,0,0,0,0,0,-1,1455,1121,0,0
238,-97,0,0,0,0,0,0,0,0,0,-1,1462,1121,0,0
245,-97,0,0,0,0,0,0,0,0,0,-1,1469,1121,0,0
252,-97,0,0,0,0,0,0,0,0,0,-1,1476,1121,0,0
259,-97,0,0,0,0,0,0,0,0,0,-1,1483,1121,0,0
266,-97,0,0,0,0,0,0,0,0,0,-1,1490,1121,0,0
273,-97,0,0,0,0,0,0,0,0,0,-1,1497,1121,0,0
280,-97,0,0,0,0,0,0,0,0,0,-1,1504,1121,0,0
287,-97,0,0,0,0,0,0,0,0,0,-1,1511,1121,0,0
294,-97,0,0,0,0,0,0,0,0,0,-1,1518,1121,0,0
301,-97,0,0,0,0,0,0,0,0,0,-1,1525,1121,0,0
308,-97,0,0,0,0,0,0,0,0,0,-1,1532,1121,0,0
315,-97,0,0,0,0,0,0,0,0,0,-1,1539,1121,0,0
322,-97,0,0,0,0,0,0,0,0,0,-1,1546,1121,0,0
329,-97,0,0,0,0,0,0,0,0,0,-1,1553,1121,0,0
336,-97,0,0,0,0,0,0,0,0,0,-1,1560,1121,0,0
343,-97,0,0,0,0,0,0,0,0,0,-1,1567,1121,0,0
350,-97,0,0,0,0,0,0,0,0,0,-1,1574,1121,0,0
357,-97,0,0,0,0,0,0,0,0,0,-1,1581,1121,0,0
364,-97,0,0,0,0,0,0,0,0,0,-1,1588,1121,0,0
371,-97,0,0,0,0,0,0,0,0,0,-1,1595,1121,0,0
378,-97,0,0,0,0,0,0,0,0,0,-1,1602,1121,0,0
385,-97,0,0,0,0,0,0,0,0,0,-1,1609,1121,0,0
392,-97,0,0,0,0,0,0,0,0,0,-1,1616,1121,0,0
399,-97,0,0,0,0,0,0,0,0,0,-1,1623,1121,0,0
406,-97,0,0,0,0,0,0,0,0,0,-1,1630,1121,0,0
413,-97,0,0,0,0,0,0,0,0,0,-1,1637,1121,0,0
420,-97,0,0,0,0,0,0,0,0,0,-1,1644,1121,0,0
427,-97,0,0,0,0,0,0,0,0,0,-1,1651,1121,0,0
434,-97,0,0,0,0,0,0,0,0,0,-1,1658,1121,0,0
441,-97,0,0,0,0,0,0,0,0,0,-1,1665,1121,0,0
448,-97,0,0,0,0,0,0,0,0,0,-1,1672,1121,0,0
455,-97,0,0,0,0,0,0,0,0,0,-1,1679,1121,0,0
462,-97,0,0,0,0,0,0,0,0,0,-1,1686,1121,0,0
469,-97,0,0,0,0,0,0,0,0,0,-1,1693,1121,0,0
476,-97,0,0,0,0,0,0,0,0,0,-1,1700,1121,0,0
483,-97,0,0,0,0,0,0,0,0,0,-1,1707,1121,0,0
490,-97,0,0,0,0,0,0,0,0,0,-1,1714,1121,0,0
497,-97,0,0,0,0,0,0,0,0,0,-1,1721,1121,0,0
504,-97,0,0,0,0,0,0,0,0,0,-1,1728,1121,0,0
511,-97,0,0,0,0,0,0,0,0,0,-1,1735,1121,0,0
518,-97,0,0,0,0,0,0,0,0,0,-1,1742,1121,0,0
525,-97,0,0,0,0,0,0,0,0,0,-1,1749,1121,0,0
532,-97,0,0,0,0,0,0,0,0,0,-1,1756,1121,0,0
539,-97,0,0,0,0,0,0,0,0,0,-1,1763,1121,0,0
546,-97,0,0,0,0,0,0,0,0,0,-1,1770,1121,0,0
553,-97,0,0,0,0,0,0,0,0,0,-1,1777,1121,0,0
560,-97,0,0,0,0,0,0,0,0,0,-1,1784,1121,0,0
567,-97,0,0,0,0,0,0,0,0,0,-1,1791,1121,0,0
574,-97,0,0,0,0,0,0,0,0,0,-1,1798,1121,0,0
581,-97,0,0,0,0,0,0,0,0,0,-1,1805,1121,0,0
588,-97,0,0,0,0,0,0,0,0,0,-1,1812,1121,0,0
595,-97,0,0,0,0,0,0,0,0,0,-1,1819,1121,0,0
602,-97,0,0,0,0,0,0,0,0,0,-1,1826,1121,0,0
609,-97,0,0,0,0,0,0,0,0,0,-1,1833,1121,0,0
616,-97,0,0,0,0,0,0,0,0,0,-1,1840,1121,0,0
623,-97,0,0,0,0,0,0,0,0,0,-1,1847,1121,0,0
630,-97,0,0,0,0,0,0,0,0,0,-1,1854,1121,0,0
637,-97,0,0,0,0,0,0,0,0,0,-1,1861,1121,0,0
644,-97,15.4456,2.3031,0.00704697,0.00166659,-0.000730149,0.00714429,0.00156926,-0.132513,0.0043355,0.0358456,1868,1121,15.4456,-2.30316
651,-97,15.547,2.30115,0.00505203,0.00140166,-0.000585786,0.00514373,0.00130996,-0.15528,0.00308659,0.0388542,1875,1121,15.547,-2.30112
658,-97,15.6879,2.35205,0.00368265,0.00118813,-0.00059232,0.00381615,0.00105463,-0.221682,0.00227553,0.0424663,1882,1121,15.6878,-2.35209
665,-97,15.6182,1.8927,0.00231997,0.000719501,-2.37727e-05,0.00232033,0.000719148,-0.0148492,0.00137152,0.0424507,1889,1121,15.6182,-1.89275
672,-97,15.6167,2.23315,0.000531453,-5.0568e-05,0.00137913,0.00164994,-0.00116906,0.681418,0.00163542,0.0384254,1896,1121,15.6167,-2.23318
679,-97,15.6936,2.51135,-0.00131943,-0.000820554,0.00291751,0.00185816,-0.00399814,0.828043,0.00345556,0.0395925,1903,1121,15.6936,-2.51133
686,-97,15.6848,2.4668,-0.00296773,-0.0015198,0.00433423,0.00215051,-0.00663804,0.868152,0.00528996,0.0370965,1910,1121,15.6848,-2.46675
693,-97,15.6742,2.30457,-0.00433268,-0.00208163,0.00553044,0.00243666,-0.00885096,0.885784,0.00685869,0.0334328,1917,1121,15.6742,-2.30455
700,-97,15.623,2.27832,-0.00543843,-0.00249626,0.00638132,0.00258134,-0.010516,0.898684,0.00801098,0.0273185,1924,1121,15.6231,-2.27829
707,-97,15.606,2.24109,-0.00628539,-0.00276439,0.00696098,0.00265526,-0.011705,0.909256,0.00882265,0.0214652,1931,1121,15.6059,-2.24105
714,-97,15.5391,2.73364,-0.00667705,-0.00283688,0.00733512,0.0028253,-0.0123392,0.913409,0.00931191,0.0382604,1938,1121,15.5391,-2.7336
721,-97,15.2059,3.28564,-0.00658729,-0.00268419,0.00723593,0.00285874,-0.0121302,0.917116,0.00918916,0.022579,1945,1121,15.2059,-3.28566
728,-97,15.1002,3.32654,-0.00630194,-0.00234641,0.00661104,0.00257636,-0.0112247,0.930741,0.00847351,0.0183624,1952,1121,15.1002,-3.32651
735,-97,15.0704,3.26343,-0.00567523,-0.00184198,0.00584497,0.00239258,-0.00990979,0.943829,0.00753181,0.0174429,1959,1121,15.0704,-3.26341
742,-97,15.0609,3.20911,-0.00430254,-0.00133329,0.00496251,0.00236191,-0.00799774,0.930745,0.00626923,0.0142912,1966,1121,15.0609,-3.2091
749,-97,15.0702,3.14771,-0.00247442,0.000169032,0.00422101,0.00327042,-0.0055758,0.937127,0.00516486,0.0158071,1973,1121,15.0702,-3.14769
756,-97,15.0879,3.08215,-0.000864006,0.00307292,0.00360595,0.00521271,-0.0030038,1.03524,0.00480061,0.0134155,1980,1121,15.0879,-3.08211
763,-97,15.0873,3.03003,0.000439358,0.00748107,0.00299383,0.00858184,-0.000661415,1.21846,0.00595396,0.0109782,1987,1121,15.0873,-3.03006
770,-97,15.0692,2.98999,0.00221832,0.0121999,0.00262638,0.0128488,0.00156944,1.32859,0.0080936,0.00868248,1994,1121,15.0692,-2.99004
777,-97,15.0614,2.97095,0.00351319,0.0184569,0.00306916,0.0190626,0.0029074,1.37592,0.0118587,0.0118764,2001,1121,15.0614,-2.97092
784,-97,15.0222,2.8302,0.00418384,0.0269442,0.00420391,0.0276959,0.00343219,1.39387,0.0174328,0.0313238,2008,1121,15.0222,-2.8302
791,-97,15.0695,2.77283,0.00427972,0.0383537,0.00564809,0.0392655,0.00336789,1.41074,0.0251297,0.0439448,2015,1121,15.0694,-2.77285
798,-97,15.1139,2.7417,0,0,0,0,0,0,0,-1,2022,1121,15.1139,-2.74176
805,-97,15.0039,1.89368,0.00155003,0.0728257,0.00920404,0.073995,0.000380665,1.44442,0.0492036,0.0392748,2029,1121,15.004,-1.89371
812,-97,14.6094,1.27234,-0.00261647,0.0977222,0.0111448,0.0989451,-0.00383944,1.4615,0.0672798,0.0423932,2036,1121,14.6095,-1.27238
-700,-104,0,0,0,0,0,0,0,0,0,-1,524,1128,0,0
-693,-104,-11.4321,0.457764,0,0,0,0,0,0,0,-1,531,1128,-11.432,-0.457747
-686,-104,-11.526,0.905396,0.0898674,0.0320988,-0.0257351,0.099669,0.0222972,-0.363902,0.0604014,0.0469398,538,1128,-11.526,-0.905446
-679,-104,-11.6008,1.57275,0.0723634,0.0251749,-0.0184135,0.0786982,0.0188401,-0.331345,0.047449,0.0450175,545,1128,-11.6008,-1.57277
-672,-104,-11.614,1.94592,0.0564845,0.019605,-0.0131162,0.0606735,0.0154161,-0.309135,0.0364148,0.0471352,552,1128,-11.614,-1.94586
-665,-104,-9.41968,0.95105,0,0,0,0,0,0,0,-1,559,1128,-9.41968,-0.951103
-658,-104,-9.2851,0.882568,0.0307222,0.0113773,-0.00642987,0.0326644,0.00943508,-0.293341,0.0194112,0.0435104,566,1128,-9.28508,-0.88251
-651,-104,-9.16302,0.800171,0.0211703,0.00838737,-0.00441038,0.0225443,0.00701339,-0.302005,0.013322,0.0356827,573,1128,-9.163,-0.800161
-644,-104,-9.04761,0.780518,0.0138787,0.00586204,-0.00336459,0.0151036,0.00463709,-0.349155,0.00893396,0.0152498,580,1128,-9.04762,-0.780479
-637,-104,-9.03992,0.832275,0.00717111,0.00352041,-0.00144271,0.00767241,0.00301911,-0.334421,0.00446304,0.0112617,587,1128,-9.03994,-0.832239
-630,-104,-9.04126,0.910645,0.00258325,0.00212596,-0.00199234,0.00436002,0.000349184,-0.728268,0.00279756,0.0122481,594,1128,-9.04128,-0.91066
-623,-104,-9.04095,0.996704,-0.000579692,0.00078846,-0.00280419,0.0029908,-0.00278204,-0.905036,0.00333368,0.0143629,601,1128,-9.04093,-0.996658
-616,-104,-9.06403,1.07642,-0.00241373,-0.000205117,-0.00464318,0.00346327,-0.00608212,-0.902146,0.00557974,0.0143704,608,1128,-9.064,-1.07638
-609,-104,-9.08807,1.11658,-0.0027099,-0.000722315,-0.00516098,0.00353968,-0.00697189,-0.880513,0.00617576,0.016352,615,1128,-9.08807,-1.11656
-602,-104,-9.052,1.18628,-0.00292479,-0.00131383,-0.00632834,0.00426009,-0.0084987,-0.848698,0.00750056,0.0138488,622,1128,-9.05203,-1.18626
-595,-104,-9.02551,1.29175,-0.00339047,-0.00159194,-0.00696235,0.00452898,-0.00951139,-0.849623,0.00827459,0.0146494,629,1128,-9.02549,-1.2917
-588,-104,-9.03955,1.31885,-0.00380473,-0.00180489,-0.00718178,0.00444624,-0.0100559,-0.854569,0.00857905,0.023494,636,1128,-9.03955,-1.31883
-581,-104,-9.28223,0.893311,-0.00390541,-0.00190119,-0.00699833,0.00416641,-0.00997302,-0.856511,0.00838972,0.0349684,643,1128,-9.28222,-0.893336
-574,-104,-9.54926,0.48291,0,0,0,0,0,0,0,-1,650,1128,-9.54928,-0.48285
-567,-104,-9.48206,0.757813,-0.0034296,-0.00187114,-0.00566591,0.00306887,-0.00836961,-0.853734,0.00683629,0.0356694,657,1128,-9.48208,-0.757806
-560,-104,-9.41766,0.801514,-0.00292865,-0.00169698,-0.00412049,0.00185345,-0.00647908,-0.859578,0.00505183,0.0404852,664,1128,-9.41769,-0.801572
-553,-104,-9.24329,0.390869,-0.00227479,-0.00147051,-0.00194663,0.000115081,-0.00386038,-0.887257,0.00261279,0.0464034,671,1128,-9.24326,-0.390834
-546,-104,-9.27905,0.458252,-0.00149909,-0.00125436,0.00086378,-0.000504322,-0.00224913,0.855758,0.00136278,0.0449719,678,1128,-9.27906,-0.458277
-539,-104,-9.42017,0.641479,-0.000587643,-0.00113635,0.00425399,0.00340083,-0.00512482,0.753196,0.00495572,0.03943,685,1128,-9.42014,-0.641436
-532,-104,-9.63684,0.78125,-9.61995e-05,-0.00141979,0.00719402,0.0064664,-0.0079824,0.739531,0.00835731,0.0389658,692,1128,-9.63686,-0.781292
-525,-104,-9.61176,0.608032,-0.00191425,-0.00266901,0.00757993,0.00529769,-0.00988095,0.760525,0.00889557,0.0365602,699,1128,-9.61178,-0.60807
-518,-104,0,0,0,0,0,0,0,0,0,-1,706,1128,0,0
-511,-104,0,0,0,0,0,0,0,0,0,-1,713,1128,0,0
-504,-104,0,0,0,0,0,0,0,0,0,-1,720,1128,0,0
-497,-104,0,0,0,0,0,0,0,0,0,-1,727,1128,0,0
-490,-104,0,0,0,0,0,0,0,0,0,-1,734,1128,0,0
-483,-104,0,0,0,0,0,0,0,0,0,-1,741,1128,0,0
-476,-104,0,0,0,0,0,0,0,0,0,-1,748,1128,0,0
-469,-104,0,0,0,0,0,0,0,0,0,-1,755,1128,0,0
-462,-104,0,0,0,0,0,0,0,0,0,-1,762,1128,0,0
-455,-104,0,0,0,0,0,0,0,0,0,-1,769,1128,0,0
-448,-104,0,0,0,0,0,0,0,0,0,-1,776,1128,0,0
-441,-104,0,0,0,0,0,0,0,0,0,-1,783,1128,0,0
-434,-104,0,0,0,0,0,0,0,0,0,-1,790,1128,0,0
-427,-104,0,0,0,0,0,0,0,0,0,-1,797,1128,0,0
-420,-104,0,0,0,0,0,0,0,0,0,-1,804,1128,0,0
-413,-104,0,0,0,0,0,0,0,0,0,-1,811,1128,0,0
-406,-104,0,0,0,0,0,0,0,0,0,-1,818,1128,0,0
-399,-104,0,0,0,0,0,0,0,0,0,-1,825,1128,0,0
-392,-104,0,0,0,0,0,0,0,0,0,-1,832,1128,0,0
-385,-104,0,0,0,0,0,0,0,0,0,-1,839,1128,0,0
-378,-104,0,0,0,0,0,0,0,0,0,-1,846,1128,0,0
-371,-104,0,0,0,0,0,0,0,0,0,-1,853,1128,0,0
-364,-104,0,0,0,0,0,0,0,0,0,-1,860,1128,0,0
-357,-104,0,0,0,0,0,0,0,0,0,-1,867,1128,0,0
-350,-104,0,0,0,0,0,0,0,0,0,-1,874,1128,0,0
-343,-104,0,0,0,0,0,0,0,0,0,-1,881,1128,0,0
-336,-104,0,0,0,0,0,0,0,0,0,-1,888,1128,0,0
-329,-104,0,0,0,0,0,0,0,0,0,-1,895,1128,0,0
-322,-104,0,0,0,0,0,0,0,0,0,-1,902,1128,0,0
-315,-104,0,0,0,0,0,0,0,0,0,-1,909,1128,0,0
-308,-104,0,0,0,0,0,0,0,0,0,-1,916,1128,0,0
-301,-104,0,0,0,0,0,0,0,0,0,-1,923,1128,0,0
-294,-104,0,0,0,0,0,0,0,0,0,-1,930,1128,0,0
-287,-104,0,0,0,0,0,0,0,0,0,-1,937,1128,0,0
-280,-104,0,0,0,0,0,0,0,0,0,-1,944,1128,0,0
-273,-104,0,0,0,0,0,0,0,0,0,-1,951,1128,0,0
-266,-104,0,0,0,0,0,0,0,0,0,-1,958,1128,0,0
-259,-104,0,0,0,0,0,0,0,0,0,-1,965,1128,0,0
-252,-104,0,0,0,0,0,0,0,0,0,-1,972,1128,0,0
-245,-104,0,0,0,0,0,0,0,0,0,-1,979,1128,0,0
-238,-104,0,0,0,0,0,0,0,0,0,-1,986,1128,0,0
-231,-104,0,0,0,0,0,0,0,0,0,-1,993,1128,0,0
-224,-104,0,0,0,0,0,0,0,0,0,-1,1000,1128,0,0
-217,-104,0,0,0,0,0,0,0,0,0,-1,1007,1128,0,0
-210,-104,0,0,0,0,0,0,0,0,0,-1,1014,1128,0,0
-203,-104,0,0,0,0,0,0,0,0,0,-1,1021,1128,0,0
-196,-104,0,0,0,0,0,0,0,0,0,-1,1028,1128,0,0
-189,-104,0,0,0,0,0,0,0,0,0,-1,1035,1128,0,0
-182,-104,0,0,0,0,0,0,0,0,0,-1,1042,1128,0,0
-175,-104,0,0,0,0,0,0,0,0,0,-1,1049,1128,0,0
-168,-104,0,0,0,0,0,0,0,0,0,-1,1056,1128,0,0
-161,-104,0,0,0,0,0,0,0,0,0,-1,1063,1128,0,0
-154,-104,0,0,0,0,0,0,0,0,0,-1,1070,1128,0,0
-147,-104,0,0,0,0,0,0,0,0,0,-1,1077,1128,0,0
-140,-104,0,0,0,0,0,0,0,0,0,-1,1084,1128,0,0
-133,-104,0,0,0,0,0,0,0,0,0,-1,1091,1128,0,0
-126,-104,0,0,0,0,0,0,0,0,0,-1,1098,1128,0,0
-119,-104,0,0,0,0,0,0,0,0,0,-1,1105,1128,0,0
-112,-104,0,0,0,0,0,0,0,0,0,-1,1112,1128,0,0
-105,-104,0,0,0,0,0,0,0,0,0,-1,1119,1128,0,0
-98,-104,0,0,0,0,0,0,0,0,0,-1,1126,1128,0,0
-91,-104,0,0,0,0,0,0,0,0,0,-1,1133,1128,0,0
-84,-104,0,0,0,0,0,0,0,0,0,-1,1140,1128,0,0
-77,-104,0,0,0,0,0,0,0,0,0,-1,1147,1128,0,0
-70,-104,0,0,0,0,0,0,0,0,0,-1,1154,1128,0,0
-63,-104,0,0,0,0,0,0,0,0,0,-1,1161,1128,0,0
-56,-104,0,0,0,0,0,0,0,0,0,-1,1168,1128,0,0
-49,-104,0,0,0,0,0,0,0,0,0,-1,1175,1128,0,0
-42,-104,0,0,0,0,0,0,0,0,0,-1,1182,1128,0,0
-35,-104,0,0,0,0,0,0,0,0,0,-1,1189,1128,0,0
-28,-104,0,0,0,0,0,0,0,0,0,-1,1196,1128,0,0
-21,-104,0,0,0,0,0,0,0,0,0,-1,1203,1128,0,0
-14,-104,0,0,0,0,0,0,0,0,0,-1,1210,1128,0,0
-7,-104,0,0,0,0,0,0,0,0,0,-1,1217,1128,0,0
0,-104,0,0,0,0,0,0,0,0,0,-1,1224,1128,0,0
7,-104,0,0,0,0,0,0,0,0,0,-1,1231,1128,0,0
14,-104,0,0,0,0,0,0,0,0,0,-1,1238,1128,0,0
21,-104,0,0,0,0,0,0,0,0,0,-1,1245,1128,0,0
28,-104,0,0,0,0,0,0,0,0,0,-1,1252,1128,0,0
35,-104,0,0,0,0,0,0,0,0,0,-1,1259,1128,0,0
42,-104,0,0,0,0,0,0,0,0,0,-1,1266,1128,0,0
49,-104,0,0,0,0,0,0,0,0,0,-1,1273,1128,0,0
56,-104,0,0,0,0,0,0,0,0,0,-1,1280,1128,0,0
63,-104,0,0,0,0,0,0,0,0,0,-1,1287,1128,0,0
70,-104,0,0,0,0,0,0,0,0,0,-1,1294,1128,0,0
77,-104,0,0,0,0,0,0,0,0,0,-1,1301,1128,0,0
84,-104,0,0,0,0,0,0,0,0,0,-1,1308,1128,0,0
91,-104,0,0,0,0,0,0,0,0,0,-1,1315,1128,0,0
98,-104,0,0,0,0,0,0,0,0,0,-1,1322,1128,0,0
105,-104,0,0,0,0,0,0,0,0,0,-1,1329,1128,0,0
112,-104,0,0,0,0,0,0,0,0,0,-1,1336,1128,0,0
119,-104,0,0,0,0,0,0,0,0,0,-1,1343,1128,0,0
126,-104,0,0,0,0,0,0,0,0,0,-1,1350,1128,0,0
133,-104,0,0,0,0,0,0,0,0,0,-1,1357,1128,0,0
140,-104,0,0,0,0,0,0,0,0,0,-1,1364,1128,0,0
147,-104,0,0,0,0,0,0,0,0,0,-1,1371,1128,0,0
154,-104,0,0,0,0,0,0,0,0,0,-1,1378,1128,0,0
161,-104,0,0,0,0,0,0,0,0,0,-1,1385,1128,0,0
168,-104,0,0,0,0,0,0,0,0,0,-1,1392,1128,0,0
175,-104,0,0,0,0,0,0,0,0,0,-1,1399,1128,0,0
182,-104,0,0,0,0,0,0,0,0,0,-1,1406,1128,0,0
189,-104,0,0,0,0,0,0,0,0,0,-1,1413,1128,0,0
196,-104,0,0,0,0,0,0,0,0,0,-1,1420,1128,0,0
203,-104,0,0,0,0,0,0,0,0,0,-1,1427,1128,0,0
210,-104,0,0,0,0,0,0,0,0,0,-1,1434,1128,0,0
217,-104,0,0,0,0,0,0,0,0,0,-1,1441,1128,0,0
224,-104,0,0,0,0,0,0,0,0,0,-1,1448,1128,0,0
231,-104,0,0,0,0,0,0,0,0,0,-1,1455,1128,0,0
238,-104,0,0,0,0,0,0,0,0,0,-1,1462,1128,0,0
245,-104,0,0,0,0,0,0,0,0,0,-1,1469,1128,0,0
252,-104,0,0,0,0,0,0,0,0,0,-1,1476,1128,0,0
259,-104,0,0,0,0,0,0,0,0,0,-1,1483,1128,0,0
266,-104,0,0,0,0,0,0,0,0,0,-1,1490,1128,0,0
273,-104,0,0,0,0,0,0,0,0,0,-1,1497,1128,0,0
280,-104,0,0,0,0,0,0,0,0,0,-1,1504,1128,0,0
287,-104,0,0,0,0,0,0,0,0,0,-1,1511,1128,0,0
294,-104,0,0,0,0,0,0,0,0,0,-1,1518,1128,0,0
301,-104,0,0,0,0,0,0,0,0,0,-1,1525,1128,0,0
308,-104,0,0,0,0,0,0,0,0,0,-1,1532,1128,0,0
315,-104,0,0,0,0,0,0,0,0,0,-1,1539,1128,0,0
322,-104,0,0,0,0,0,0,0,0,0,-1,1546,1128,0,0
329,-104,0,0,0,0,0,0,0,0,0,-1,1553,1128,0,0
336,-104,0,0,0,0,0,0,0,0,0,-1,1560,1128,0,0
343,-104,0,0,0,0,0,0,0,0,0,-1,1567,1128,0,0
350,-104,0,0,0,0,0,0,0,0,0,-1,1574,1128,0,0
357,-104,0,0,0,0,0,0,0,0,0,-1,1581,1128,0,0
364,-104,0,0,0,0,0,0,0,0,0,-1,1588,1128,0,0
371,-104,0,0,0,0,0,0,0,0,0,-1,1595,1128,0,0
378,-104,0,0,0,0,0,0,0,0,0,-1,1602,1128,0,0
385,-104,0,0,0,0,0,0,0,0,0,-1,1609,1128,0,0
392,-104,0,0,0,0,0,0,0,0,0,-1,1616,1128,0,0
399,-104,0,0,0,0,0,0,0,0,0,-1,1623,1128,0,0
406,-104,0,0,0,0,0,0,0,0,0,-1,1630,1128,0,0
413,-104,0,0,0,0,0,0,0,0,0,-1,1637,1128,0,0
420,-104,0,0,0,0,0,0,0,0,0,-1,1644,1128,0,0
427,-104,0,0,0,0,0,0,0,0,0,-1,1651,1128,0,0
434,-104,0,0,0,0,0,0,0,0,0,-1,1658,1128,0,0
441,-104,0,0,0,0,0,0,0,0,0,-1,1665,1128,0,0
448,-104,0,0,0,0,0,0,0,0,0,-1,1672,1128,0,0
455,-104,0,0,0,0,0,0,0,0,0,-1,1679,1128,0,0
462,-104,0,0,0,0,0,0,0,0,0,-1,1686,1128,0,0
469,-104,0,0,0,0,0,0,0,0,0,-1,1693,1128,0,0
476,-104,0,0,0,0,0,0,0,0,0,-1,1700,1128,0,0
483,-104,0,0,0,0,0,0,0,0,0,-1,1707,1128,0,0
490,-104,0,0,0,0,0,0,0,0,0,-1,1714,1128,0,0
497,-104,0,0,0,0,0,0,0,0,0,-1,1721,1128,0,0
504,-104,0,0,0,0,0,0,0,0,0,-1,1728,1128,0,0
511,-104,0,0,0,0,0,0,0,0,0,-1,1735,1128,0,0
518,-104,0,0,0,0,0,0,0,0,0,-1,1742,1128,0,0
525,-104,0,0,0,0,0,0,0,0,0,-1,1749,1128,0,0
532,-104,0,0,0,0,0,0,0,0,0,-1,1756,1128,0,0
539,-104,0,0,0,0,0,0,0,0,0,-1,1763,1128,0,0
546,-104,0,0,0,0,0,0,0,0,0,-1,1770,1128,0,0
553,-104,0,0,0,0,0,0,0,0,0,-1,1777,1128,0,0
560,-104,0,0,0,0,0,0,0,0,0,-1,1784,1128,0,0
567,-104,0,0,0,0,0,0,0,0,0,-1,1791,1128,0,0
574,-104,0,0,0,0,0,0,0,0,0,-1,1798,1128,0,0
581,-104,0,0,0,0,0,0,0,0,0,-1,1805,1128,0,0
588,-104,0,0,0,0,0,0,0,0,0,-1,1812,1128,0,0
595,-104,0,0,0,0,0,0,0,0,0,-1,1819,1128,0,0
602,-104,0,0,0,0,0,0,0,0,0,-1,1826,1128,0,0
609,-104,0,0,0,0,0,0,0,0,0,-1,1833,1128,0,0
616,-104,0,0,0,0,0,0,0,0,0,-1,1840,1128,0,0
623,-104,0,0,0,0,0,0,0,0,0,-1,1847,1128,0,0
630,-104,0,0,0,0,0,0,0,0,0,-1,1854,1128,0,0
637,-104,0,0,0,0,0,0,0,0,0,-1,1861,1128,0,0
644,-104,15.4478,2.54187,0.00585557,0.00234302,-0.00115797,0.00620296,0.00199563,-0.291455,0.00365637,0.036314,1868,1128,15.4477,-2.5419
651,-104,15.6083,2.38367,0.00430906,0.00196263,-0.000853246,0.00458652,0.00168517,-0.314398,0.00267888,0.040585,1875,1128,15.6083,-2.38373
658,-104,15.7413,2.10486,0.00328317,0.00166576,-0.000745363,0.00357427,0.00137466,-0.37233,0.00208185,0.044993,1882,1128,15.7414,-2.10484
665,-104,15.6857,1.97217,0.00199047,0.00098655,9.84619e-06,0.00199057,0.000986453,0.00980645,0.00114927,0.0441245,1889,1128,15.6857,-1.97222
672,-104,15.6913,2.23389,0.000185411,4.01299e-05,0.00148435,0.0015989,-0.00137336,0.760949,0.00171768,0.0411171,1896,1128,15.6913,-2.23383
679,-104,15.7156,2.45557,-0.0016604,-0.000865095,0.0030069,0.00177033,-0.00429582,0.85114,0.00360205,0.0405474,1903,1128,15.7156,-2.45558
686,-104,15.6613,2.40979,-0.00332072,-0.00166726,0.00438345,0.00196675,-0.00695472,0.878605,0.00541251,0.0398683,1910,1128,15.6612,-2.4098
693,-104,15.6112,2.26282,-0.00468769,-0.00228669,0.00552137,0.00216319,-0.00913757,0.892446,0.0069263,0.0354907,1917,1128,15.6113,-2.26287
700,-104,15.606,2.21667,-0.00577841,-0.00275545,0.00632091,0.00223218,-0.010766,0.902756,0.00802558,0.0287575,1924,1128,15.606,-2.21673
707,-104,15.6228,2.30493,-0.00659786,-0.00305544,0.00685077,0.00224938,-0.0119027,0.911899,0.00878147,0.0287601,1931,1128,15.6227,-2.30496
714,-104,15.4225,2.82068,-0.00697347,-0.00312502,0.00716574,0.00237035,-0.0124688,0.916569,0.00920498,0.037287,1938,1128,15.4225,-2.82074
721,-104,15.0773,3.33459,-0.00686345,-0.0029342,0.00702684,0.0023975,-0.0121951,0.921712,0.00903591,0.0191359,1945,1128,15.0773,-3.33462
728,-104,15.0907,3.31042,-0.00652205,-0.00256029,0.00638187,0.00214105,-0.0112234,0.93588,0.00828864,0.0215601,1952,1128,15.0907,-3.31043
735,-104,15.0505,3.2262,-0.00579353,-0.00200406,0.0055856,0.00199943,-0.00979702,0.948917,0.0072898,0.0207005,1959,1128,15.0505,-3.22623
742,-104,15.0077,3.2063,-0.00432675,-0.00141503,0.00465261,0.00200418,-0.00774596,0.937028,0.00594571,0.0143002,1966,1128,15.0077,-3.20624
749,-104,14.9994,3.1394,-0.00236235,6.7568e-05,0.00379582,0.00283812,-0.00513291,0.940285,0.00466522,0.0167236,1973,1128,14.9994,-3.13941
756,-104,15.0035,3.08105,-0.000490792,0.00298916,0.00306619,0.00477467,-0.0022763,1.04348,0.00415519,0.0148295,1980,1128,15.0036,-3.08104
763,-104,15.0085,3.03967,0.00108367,0.00733892,0.00225013,0.00806423,0.000358352,1.25897,0.00526077,0.013457,1987,1128,15.0085,-3.03969
770,-104,15.0094,2.98523,0.00311518,0.011962,0.00173655,0.0122907,0.00278652,1.38375,0.00744094,0.010904,1994,1128,15.0094,-2.98519
777,-104,15.0166,2.95825,0.00467888,0.0180705,0.0019547,0.0183499,0.0043994,1.42878,0.0110624,0.0176287,2001,1128,15.0166,-2.95823
784,-104,15.0282,2.95276,0.00576484,0.0264044,0.00271073,0.0267545,0.00541476,1.44236,0.0163334,0.0374906,2008,1128,15.0282,-2.95279
791,-104,15.1768,3.24927,0.00642227,0.0376317,0.00367726,0.0380592,0.00599485,1.45508,0.0236294,0.0461272,2015,1128,15.1767,-3.24922
798,-104,15.4584,2.78674,0.00639512,0.0524339,0.0047971,0.0529285,0.00590059,1.46807,0.0334925,0.0470201,2022,1128,15.4583,-2.78673
805,-104,15.2554,1.85547,0.0051987,0.0715958,0.00596666,0.0721277,0.00466678,1.48188,0.0466075,0.0454813,2029,1128,15.2553,-1.85547
812,-104,14.6133,1.16138,0.00197057,0.096094,0.00706325,0.0966211,0.00144348,1.49631,0.0639383,0.0449378,2036,1128,14.6132,-1.16143
-700,-111,0,0,0,0,0,0,0,0,0,-1,524,1135,0,0
-693,-111,-10.6981,0.262451,0,0,0,0,0,0,0,-1,531,1135,-10.6981,-0.262483
-686,-111,-10.9138,0.518555,0,0,0,0,0,0,0,-1,538,1135,-10.9138,-0.51854
-679,-111,-10.9019,0.775879,0,0,0,0,0,0,0,-1,545,1135,-10.9019,-0.775886
-672,-111,-11.285,1.62439,0,0,0,0,0,0,0,-1,552,1135,-11.285,-1.62434
-665,-111,-8.60828,-1.22253,0,0,0,0,0,0,0,-1,559,1135,-8.60828,1.22259
-658,-111,-9.0708,0.75354,0,0,0,0,0,0,0,-1,566,1135,-9.07082,-0.753499
-651,-111,-9.00574,0.761719,0.0186537,0.0107338,-0.00481451,0.0209276,0.00845993,-0.441244,0.0121562,0.0407191,573,1135,-9.00574,-0.761693
-644,-111,-8.95795,0.793457,0.0121344,0.00770008,-0.00344582,0.0140148,0.00581975,-0.499523,0.00813008,0.0255074,580,1135,-8.95795,-0.79344
-637,-111,-8.97321,0.856812,0.00620404,0.00494668,-0.00144494,0.00715113,0.00399958,-0.580204,0.00413837,0.00967469,587,1135,-8.97321,-0.856847
-630,-111,-8.96783,0.896484,0.00219233,0.0029974,-0.00187534,0.00451292,0.000676804,-0.891117,0.00281031,0.0135721,594,1135,-8.96786,-0.896532
-623,-111,-8.96057,0.968384,-0.000852237,0.00128212,-0.00274814,0.00316301,-0.00273313,-0.9706,0.00340715,0.0125255,601,1135,-8.96059,-0.968337
-616,-111,-8.99554,1.0498,-0.00272819,-1.58269e-05,-0.00466549,0.0034866,-0.00623061,-0.926842,0.00568431,0.0125045,608,1135,-8.99556,-1.04975
-609,-111,-9.02899,1.14026,-0.00316274,-0.000772981,-0.00534634,0.00351038,-0.00744609,-0.895339,0.00646033,0.0146556,615,1135,-9.02898,-1.14029
-602,-111,-9.00153,1.2002,-0.00348539,-0.00147447,-0.00657894,0.00417539,-0.00913526,-0.861227,0.00786074,0.0148636,622,1135,-9.00151,-1.20019
-595,-111,-8.97375,1.30261,-0.00406313,-0.00178545,-0.00726266,0.00442712,-0.0102757,-0.863169,0.00870966,0.0122552,629,1135,-8.97375,-1.30257
-588,-111,-8.93384,1.34204,-0.00460874,-0.00200822,-0.0075222,0.00432527,-0.0109422,-0.870981,0.00908646,0.0237123,636,1135,-8.93382,-1.34209
-581,-111,-9.11255,0.743652,-0.00482026,-0.00212757,-0.00738017,0.00402805,-0.0109759,-0.87562,0.00896677,0.0373094,643,1135,-9.11256,-0.743685
-574,-111,-9.34851,0.146606,0,0,0,0,0,0,0,-1,650,1135,-9.34849,-0.146589
-567,-111,-9.46509,0.786865,-0.00441442,-0.00204191,-0.00606975,0.00295642,-0.00941275,-0.8819,0.00745858,0.037531,657,1135,-9.4651,-0.786896
-560,-111,-9.37549,0.684692,-0.00388566,-0.0018081,-0.0045106,0.00178179,-0.00747555,-0.898573,0.00567171,0.0373318,664,1135,-9.3755,-0.684702
-553,-111,-9.25854,0.2771,-0.00309866,-0.00147622,-0.00228306,0.000135459,-0.00471034,-0.956102,0.00318634,0.0442126,671,1135,-9.25854,-0.277058
-546,-111,-9.24646,0.310547,-0.00204947,-0.00109828,0.000622571,-0.000790432,-0.00235732,1.11157,0.00138539,0.0408255,678,1135,-9.24644,-0.31058
-539,-111,-9.40692,0.541504,-0.000692892,-0.000742015,0.00416776,0.00345038,-0.00488529,0.782452,0.00483631,0.0381097,685,1135,-9.40692,-0.541529
-532,-111,-9.52161,0.776001,0.000571348,-0.000647356,0.007445,0.00743189,-0.0075079,0.744566,0.00862553,0.0387851,692,1135,-9.52159,-0.776013
-525,-111,-9.53674,0.810303,-5.85809e-05,-0.00145312,0.00830705,0.00758041,-0.00909211,0.743528,0.00963906,0.0369581,699,1135,-9.53677,-0.810342
-518,-111,0,0,0,0,0,0,0,0,0,-1,706,1135,0,0
-511,-111,0,0,0,0,0,0,0,0,0,-1,713,1135,0,0
-504,-111,0,0,0,0,0,0,0,0,0,-1,720,1135,0,0
-497,-111,0,0,0,0,0,0,0,0,0,-1,727,1135,0,0
-490,-111,0,0,0,0,0,0,0,0,0,-1,734,1135,0,0
-483,-111,0,0,0,0,0,0,0,0,0,-1,741,1135,0,0
-476,-111,0,0,0,0,0,0,0,0,0,-1,748,1135,0,0
-469,-111,0,0,0,0,0,0,0,0,0,-1,755,1135,0,0
-462,-111,0,0,0,0,0,0,0,0,0,-1,762,1135,0,0
-455,-111,0,0,0,0,0,0,0,0,0,-1,769,1135,0,0
-448,-111,0,0,0,0,0,0,0,0,0,-1,776,1135,0,0
-441,-111,0,0,0,0,0,0,0,0,0,-1,783,1135,0,0
-434,-111,0,0,0,0,0,0,0,0,0,-1,790,1135,0,0
-427,-111,0,0,0,0,0,0,0,0,0,-1,797,1135,0,0
-420,-111,0,0,0,0,0,0,0,0,0,-1,804,1135,0,0
-413,-111,0,0,0,0,0,0,0,0,0,-1,811,1135,0,0
-406,-111,0,0,0,0,0,0,0,0,0,-1,818,1135,0,0
-399,-111,0,0,0,0,0,0,0,0,0,-1,825,1135,0,0
-392,-111,0,0,0,0,0,0,0,0,0,-1,832,1135,0,0
-385,-111,0,0,0,0,0,0,0,0,0,-1,839,1135,0,0
-378,-111,0,0,0,0,0,0,0,0,0,-1,846,1135,0,0
-371,-111,0,0,0,0,0,0,0,0,0,-1,853,1135,0,0
-364,-111,0,0,0,0,0,0,0,0,0,-1,860,1135,0,0
-357,-111,0,0,0,0,0,0,0,0,0,-1,867,1135,0,0
-350,-111,0,0,0,0,0,0,0,0,0,-1,874,1135,0,0
-343,-111,0,0,0,0,0,0,0,0,0,-1,881,1135,0,0
-336,-111,0,0,0,0,0,0,0,0,0,-1,888,1135,0,0
-329,-111,0,0,0,0,0,0,0,0,0,-1,895,1135,0,0
-322,-111,0,0,0,0,0,0,0,0,0,-1,902,1135,0,0
-315,-111,0,0,0,0,0,0,0,0,0,-1,909,1135,0,0
-308,-111,0,0,0,0,0,0,0,0,0,-1,916,1135,0,0
-301,-111,0,0,0,0,0,0,0,0,0,-1,923,1135,0,0
-294,-111,0,0,0,0,0,0,0,0,0,-1,930,1135,0,0
-287,-111,0,0,0,0,0,0,0,0,0,-1,937,1135,0,0
-280,-111,0,0,0,0,0,0,0,0,0,-1,944,1135,0,0
-273,-111,0,0,0,0,0,0,0,0,0,-1,951,1135,0,0
-266,-111,0,0,0,0,0,0,0,0,0,-1,958,1135,0,0
-259,-111,0,0,0,0,0,0,0,0,0,-1,965,1135,0,0
-252,-111,0,0,0,0,0,0,0,0,0,-1,972,1135,0,0
-245,-111,0,0,0,0,0,0,0,0,0,-1,979,1135,0,0
-238,-111,0,0,0,0,0,0,0,0,0,-1,986,1135,0,0
-231,-111,0,0,0,0,0,0,0,0,0,-1,993,1135,0,0
-224,-111,0,0,0,0,0,0,0,0,0,-1,1000,1135,0,0
-217,-111,0,0,0,0,0,0,0,0,0,-1,1007,1135,0,0
-210,-111,0,0,0,0,0,0,0,0,0,-1,1014,1135,0,0
-203,-111,0,0,0,0,0,0,0,0,0,-1,1021,1135,0,0
-196,-111,0,0,0,0,0,0,0,0,0,-1,1028,1135,0,0
-189,-111,0,0,0,0,0,0,0,0,0,-1,1035,1135,0,0
-182,-111,0,0,0,0,0,0,0,0,0,-1,1042,1135,0,0
-175,-111,0,0,0,0,0,0,0,0,0,-1,1049,1135,0,0
-168,-111,0,0,0,0,0,0,0,0,0,-1,1056,1135,0,0
-161,-111,0,0,0,0,0,0,0,0,0,-1,1063,1135,0,0
-154,-111,0,0,0,0,0,0,0,0,0,-1,1070,1135,0,0
-147,-111,0,0,0,0,0,0,0,0,0,-1,1077,1135,0,0
-140,-111,0,0,0,0,0,0,0,0,0,-1,1084,1135,0,0
-133,-111,0,0,0,0,0,0,0,0,0,-1,1091,1135,0,0
-126,-111,0,0,0,0,0,0,0,0,0,-1,1098,1135,0,0
-119,-111,0,0,0,0,0,0,0,0,0,-1,1105,1135,0,0
-112,-111,0,0,0,0,0,0,0,0,0,-1,1112,1135,0,0
-105,-111,0,0,0,0,0,0,0,0,0,-1,1119,1135,0,0
-98,-111,0,0,0,0,0,0,0,0,0,-1,1126,1135,0,0
-91,-111,0,0,0,0,0,0,0,0,0,-1,1133,1135,0,0
-84,-111,0,0,0,0,0,0,0,0,0,-1,1140,1135,0,0
-77,-111,0,0,0,0,0,0,0,0,0,-1,1147,1135,0,0
-70,-111,0,0,0,0,0,0,0,0,0,-1,1154,1135,0,0
-63,-111,0,0,0,0,0,0,0,0,0,-1,1161,1135,0,0
-56,-111,0,0,0,0,0,0,0,0,0,-1,1168,1135,0,0
-49,-111,0,0,0,0,0,0,0,0,0,-1,1175,1135,0,0
-42,-111,0,0,0,0,0,0,0,0,0,-1,1182,1135,0,0
-35,-111,0,0,0,0,0,0,0,0,0,-1,1189,1135,0,0
-28,-111,0,0,0,0,0,0,0,0,0,-1,1196,1135,0,0
-21,-111,0,0,0,0,0,0,0,0,0,-1,1203,1135,0,0
-14,-111,0,0,0,0,0,0,0,0,0,-1,1210,1135,0,0
-7,-111,0,0,0,0,0,0,0,0,0,-1,1217,1135,0,0
0,-111,0,0,0,0,0,0,0,0,0,-1,1224,1135,0,0
7,-111,0,0,0,0,0,0,0,0,0,-1,1231,1135,0,0
14,-111,0,0,0,0,0,0,0,0,0,-1,1238,1135,0,0
21,-111,0,0,0,0,0,0,0,0,0,-1,1245,1135,0,0
28,-111,0,0,0,0,0,0,0,0,0,-1,1252,1135,0,0
35,-111,0,0,0,0,0,0,0,0,0,-1,1259,1135,0,0
42,-111,0,0,0,0,0,0,0,0,0,-1,1266,1135,0,0
49,-111,0,0,0,0,0,0,0,0,0,-1,1273,1135,0,0
56,-111,0,0,0,0,0,0,0,0,0,-1,1280,1135,0,0
63,-111,0,0,0,0,0,0,0,0,0,-1,1287,1135,0,0
70,-111,0,0,0,0,0,0,0,0,0,-1,1294,1135,0,0
77,-111,0,0,0,0,0,0,0,0,0,-1,1301,1135,0,0
84,-111,0,0,0,0,0,0,0,0,0,-1,1308,1135,0,0
91,-111,0,0,0,0,0,0,0,0,0,-1,1315,1135,0,0
98,-111,0,0,0,0,0,0,0,0,0,-1,1322,1135,0,0
105,-111,0,0,0,0,0,0,0,0,0,-1,1329,1135,0,0
112,-111,0,0,0,0,0,0,0,0,0,-1,1336,1135,0,0
119,-111,0,0,0,0,0,0,0,0,0,-1,1343,1135,0,0
126,-111,0,0,0,0,0,0,0,0,0,-1,1350,1135,0,0
133,-111,0,0,0,0,0,0,0,0,0,-1,1357,1135,0,0
140,-111,0,0,0,0,0,0,0,0,0,-1,1364,1135,0,0
147,-111,0,0,0,0,0,0,0,0,0,-1,1371,1135,0,0
154,-111,0,0,0,0,0,0,0,0,0,-1,1378,1135,0,0
161,-111,0,0,0,0,0,0,0,0,0,-1,1385,1135,0,0
168,-111,0,0,0,0,0,0,0,0,0,-1,1392,1135,0,0
175,-111,0,0,0,0,0,0,0,0,0,-1,1399,1135,0,0
182,-111,0,0,0,0,0,0,0,0,0,-1,1406,1135,0,0
189,-111,0,0,0,0,0,0,0,0,0,-1,1413,1135,0,0
196,-111,0,0,0,0,0,0,0,0,0,-1,1420,1135,0,0
203,-111,0,0,0,0,0,0,0,0,0,-1,1427,1135,0,0
210,-111,0,0,0,0,0,0,0,0,0,-1,1434,1135,0,0
217,-111,0,0,0,0,0,0,0,0,0,-1,1441,1135,0,0
224,-111,0,0,0,0,0,0,0,0,0,-1,1448,1135,0,0
231,-111,0,0,0,0,0,0,0,0,0,-1,1455,1135,0,0
238,-111,0,0,0,0,0,0,0,0,0,-1,1462,1135,0,0
245,-111,0,0,0,0,0,0,0,0,0,-1,1469,1135,0,0
252,-111,0,0,0,0,0,0,0,0,0,-1,1476,1135,0,0
259,-111,0,0,0,0,0,0,0,0,0,-1,1483,1135,0,0
266,-111,0,0,0,0,0,0,0,0,0,-1,1490,1135,0,0
273,-111,0,0,0,0,0,0,0,0,0,-1,1497,1135,0,0
280,-111,0,0,0,0,0,0,0,0,0,-1,1504,1135,0,0
287,-111,0,0,0,0,0,0,0,0,0,-1,1511,1135,0,0
294,-111,0,0,0,0,0,0,0,0,0,-1,1518,1135,0,0
301,-111,0,0,0,0,0,0,0,0,0,-1,1525,1135,0,0
308,-111,0,0,0,0,0,0,0,0,0,-1,1532,1135,0,0
315,-111,0,0,0,0,0,0,0,0,0,-1,1539,1135,0,0
322,-111,0,0,0,0,0,0,0,0,0,-1,1546,1135,0,0
329,-111,0,0,0,0,0,0,0,0,0,-1,1553,1135,0,0
336,-111,0,0,0,0,0,0,0,0,0,-1,1560,1135,0,0
343,-111,0,0,0,0,0,0,0,0,0,-1,1567,1135,0,0
350,-111,0,0,0,0,0,0,0,0,0,-1,1574,1135,0,0
357,-111,0,0,0,0,0,0,0,0,0,-1,1581,1135,0,0
364,-111,0,0,0,0,0,0,0,0,0,-1,1588,1135,0,0
371,-111,0,0,0,0,0,0,0,0,0,-1,1595,1135,0,0
378,-111,0,0,0,0,0,0,0,0,0,-1,1602,1135,0,0
385,-111,0,0,0,0,0,0,0,0,0,-1,1609,1135,0,0
392,-111,0,0,0,0,0,0,0,0,0,-1,1616,1135,0,0
399,-111,0,0,0,0,0,0,0,0,0,-1,1623,1135,0,0
406,-111,0,0,0,0,0,0,0,0,0,-1,1630,1135,0,0
413,-111,0,0,0,0,0,0,0,0,0,-1,1637,1135,0,0
420,-111,0,0,0,0,0,0,0,0,0,-1,1644,1135,0,0
427,-111,0,0,0,0,0,0,0,0,0,-1,1651,1135,0,0
434,-111,0,0,0,0,0,0,0,0,0,-1,1658,1135,0,0
441,-111,0,0,0,0,0,0,0,0,0,-1,1665,1135,0,0
448,-111,0,0,0,0,0,0,0,0,0,-1,1672,1135,0,0
455,-111,0,0,0,0,0,0,0,0,0,-1,1679,1135,0,0
462,-111,0,0,0,0,0,0,0,0,0,-1,1686,1135,0,0
469,-111,0,0,0,0,0,0,0,0,0,-1,1693,1135,0,0
476,-111,0,0,0,0,0,0,0,0,0,-1,1700,1135,0,0
483,-111,0,0,0,0,0,0,0,0,0,-1,1707,1135,0,0
490,-111,0,0,0,0,0,0,0,0,0,-1,1714,1135,0,0
497,-111,0,0,0,0,0,0,0,0,0,-1,1721,1135,0,0
504,-111,0,0,0,0,0,0,0,0,0,-1,1728,1135,0,0
511,-111,0,0,0,0,0,0,0,0,0,-1,1735,1135,0,0
518,-111,0,0,0,0,0,0,0,0,0,-1,1742,1135,0,0
525,-111,0,0,0,0,0,0,0,0,0,-1,1749,1135,0,0
532,-111,0,0,0,0,0,0,0,0,0,-1,1756,1135,0,0
539,-111,0,0,0,0,0,0,0,0,0,-1,1763,1135,0,0
546,-111,0,0,0,0,0,0,0,0,0,-1,1770,1135,0,0
553,-111,0,0,0,0,0,0,0,0,0,-1,1777,1135,0,0
560,-111,0,0,0,0,0,0,0,0,0,-1,1784,1135,0,0
567,-111,0,0,0,0,0,0,0,0,0,-1,1791,1135,0,0
574,-111,0,0,0,0,0,0,0,0,0,-1,1798,1135,0,0
581,-111,0,0,0,0,0,0,0,0,0,-1,1805,1135,0,0
588,-111,0,0,0,0,0,0,0,0,0,-1,1812,1135,0,0
595,-111,0,0,0,0,0,0,0,0,0,-1,1819,1135,0,0
602,-111,0,0,0,0,0,0,0,0,0,-1,1826,1135,0,0
609,-111,0,0,0,0,0,0,0,0,0,-1,1833,1135,0,0
616,-111,0,0,0,0,0,0,0,0,0,-1,1840,1135,0,0
623,-111,0,0,0,0,0,0,0,0,0,-1,1847,1135,0,0
630,-111,0,0,0,0,0,0,0,0,0,-1,1854,1135,0,0
637,-111,0,0,0,0,0,0,0,0,0,-1,1861,1135,0,0
644,-111,15.5682,2.53235,0.0040889,0.00263175,-0.00147708,0.00500732,0.00171334,-0.55628,0.0029386,0.0393647,1868,1135,15.5682,-2.53236
651,-111,15.6685,2.50732,0.00312268,0.00216317,-0.00103806,0.00378649,0.00149936,-0.568937,0.00220184,0.043788,1875,1135,15.6685,-2.50737
658,-111,15.756,2.38745,0.00250123,0.00182767,-0.000810297,0.00304194,0.00128695,-0.588446,0.00176318,0.0467898,1882,1135,15.756,-2.38749
665,-111,15.7421,2.16516,0.00138571,0.00100902,0.000111231,0.0014161,0.000978632,0.266731,0.000837251,0.0446615,1889,1135,15.7421,-2.16515
672,-111,15.705,2.34692,-0.000293772,-3.98949e-05,0.00161133,0.00144949,-0.00178316,0.824706,0.00186968,0.0437246,1896,1135,15.7049,-2.34696
679,-111,15.6829,2.37708,-0.00200601,-0.00102013,0.00308086,0.00160697,-0.00463311,0.864726,0.00374126,0.0400952,1903,1135,15.6829,-2.37709
686,-111,15.6777,2.29663,-0.0035714,-0.00187644,0.00437875,0.00173609,-0.00718393,0.880988,0.00546076,0.0381058,1910,1135,15.6777,-2.29659
693,-111,15.6532,2.32935,-0.0048431,-0.0025174,0.00542284,0.00186587,-0.00922636,0.891016,0.006858,0.0360565,1917,1135,15.6532,-2.32931
700,-111,15.6494,2.36243,-0.00584451,-0.00301468,0.00614946,0.00188054,-0.0107397,0.898474,0.007862,0.0287225,1924,1135,15.6494,-2.36241
707,-111,15.6754,2.43018,-0.00658807,-0.00332505,0.00661526,0.00185692,-0.01177,0.9063,0.00853328,0.0447624,1931,1135,15.6754,-2.43015
714,-111,15.2568,2.91138,-0.00694186,-0.00337247,0.00686477,0.00193581,-0.0122501,0.912572,0.00888262,0.0245205,1938,1135,15.2568,-2.9114
721,-111,15.0101,3.34497,-0.00682792,-0.00314611,0.00669334,0.00195487,-0.0119289,0.919598,0.00867793,0.0130908,1945,1135,15.0101,-3.34497
728,-111,15.0162,3.28992,-0.00644517,-0.0027303,0.00604241,0.00173371,-0.0109092,0.934514,0.00791425,0.0157061,1952,1135,15.0163,-3.28996
735,-111,14.9957,3.21301,-0.005639,-0.00214253,0.00522974,0.00162345,-0.00940498,0.946703,0.00687532,0.0161362,1959,1135,14.9957,-3.21297
742,-111,14.978,3.19946,-0.0041154,-0.00147964,0.00425306,0.00165504,-0.00725008,0.93564,0.00546919,0.0108457,1966,1135,14.978,-3.19944
749,-111,14.9523,3.15759,-0.00205504,-6.01166e-05,0.00325981,0.00235143,-0.00446658,0.933868,0.00399902,0.0132972,1973,1135,14.9523,-3.15765
756,-111,14.9514,3.08875,6.64396e-05,0.00276026,0.00239788,0.00416362,-0.00133692,1.04129,0.00331257,0.0141506,1980,1135,14.9514,-3.08868
763,-111,14.9569,3.03784,0.00193549,0.00679199,0.00133824,0.00713633,0.00159115,1.31895,0.00432584,0.0124217,1987,1135,14.9569,-3.03782
770,-111,14.9537,3.00452,0.00426437,0.0110537,0.000609827,0.011108,0.00421003,1.48192,0.0064755,0.0104813,1994,1135,14.9537,-3.00457
777,-111,14.9536,2.92615,0.00621643,0.0166357,0.000481537,0.0166579,0.00619423,1.52471,0.00972219,0.0235012,2001,1135,14.9536,-2.92616
784,-111,14.9061,2.89514,0.00790666,0.0242664,0.000708507,0.024297,0.00787604,1.5276,0.0143141,0.04109,2008,1135,14.9061,-2.89511
791,-111,14.8325,2.91138,0,0,0,0,0,0,0,-1,2015,1135,14.8326,-2.91142
798,-111,15.4731,2.83044,0,0,0,0,0,0,0,-1,2022,1135,15.4732,-2.83042
805,-111,15.5048,1.82141,0,0,0,0,0,0,0,-1,2029,1135,15.5047,-1.82135
812,-111,14.8,1.22961,0,0,0,0,0,0,0,-1,2036,1135,14.8001,-1.22966
-700,-118,0,0,0,0,0,0,0,0,0,-1,524,1142,0,0
-693,-118,-10.0818,-0.027832,0,0,0,0,0,0,0,-1,531,1142,-10.0819,0.0277924
-686,-118,-10.2403,0.250122,0.0681848,0.0443138,-0.0354292,0.0936349,0.0188637,-0.622927,0.0571821,0.0482228,538,1142,-10.2403,-0.250119
-679,-118,-10.2988,0.664307,0.0548971,0.0358151,-0.0248079,0.0719355,0.0187767,-0.60182,0.0430842,0.0430682,545,1142,-10.2988,-0.664247
-672,-118,-9.92358,1.01343,0,0,0,0,0,0,0,-1,552,1142,-9.92357,-1.0134
-665,-118,-8.87781,-0.0922852,0,0,0,0,0,0,0,-1,559,1142,-8.87783,0.0922919
-658,-118,-8.92303,0.786255,0,0,0,0,0,0,0,-1,566,1142,-8.92306,-0.786233
-651,-118,-8.87848,0.785767,0.0155171,0.0127565,-0.00531281,0.019626,0.00864763,-0.658304,0.0113577,0.0415318,573,1142,-8.87849,-0.78571
-644,-118,-8.8418,0.782104,0.0099483,0.00914048,-0.00363347,0.0132002,0.00588854,-0.730044,0.00763591,0.0268395,580,1142,-8.84181,-0.782062
-637,-118,-8.87872,0.855591,0.00495705,0.00601192,-0.00161853,0.00718679,0.00378218,-0.942909,0.00415121,0.0147664,587,1142,-8.87872,-0.855569
-630,-118,-8.88788,0.92041,0.0015929,0.0035569,-0.00188244,0.00469808,0.000451715,-1.02581,0.00299287,0.0171127,594,1142,-8.88791,-0.920403
-623,-118,-8.8645,0.959595,-0.00122807,0.00156486,-0.00277053,0.00327096,-0.00293418,-1.01884,0.0035843,0.0148501,601,1142,-8.8645,-0.959603
-616,-118,-8.89655,1.01868,-0.00312572,4.72706e-05,-0.00468265,0.00340488,-0.00648332,-0.948731,0.00580044,0.0129047,608,1142,-8.89654,-1.01866
-609,-118,-8.90796,1.09839,-0.00373131,-0.000869251,-0.00550511,0.00338778,-0.00798834,-0.912557,0.00674466,0.0129253,615,1142,-8.90794,-1.09845
-602,-118,-8.90784,1.21655,-0.00415865,-0.00160444,-0.00679912,0.00403648,-0.00979957,-0.878233,0.00821599,0.0131429,622,1142,-8.90786,-1.2166
-595,-118,-8.93396,1.27893,-0.00481308,-0.00187311,-0.00753251,0.00433151,-0.0110177,-0.881763,0.00913783,0.0109737,629,1142,-8.93396,-1.27891
-588,-118,-8.82458,1.35291,-0.00546963,-0.00205264,-0.00783657,0.00425951,-0.0117818,-0.892727,0.00959487,0.016712,636,1142,-8.82461,-1.35286
-581,-118,-8.98901,0.748901,-0.00579286,-0.0021561,-0.00775264,0.00398856,-0.0119375,-0.900591,0.00956908,0.0402513,643,1142,-8.98903,-0.748902
-574,-118,-9.2326,0.107178,0,0,0,0,0,0,0,-1,650,1142,-9.23261,-0.107165
-567,-118,-9.50934,0.813232,-0.00545278,-0.00194978,-0.0065395,0.00306872,-0.0104713,-0.916244,0.0081975,0.041846,657,1142,-9.50935,-0.813213
-560,-118,-9.45081,0.697998,-0.00489118,-0.00162486,-0.00501879,0.0020198,-0.00853585,-0.9427,0.00646979,0.0358102,664,1142,-9.45081,-0.69795
-553,-118,-9.31335,0.534546,-0.00395313,-0.00116719,-0.00279547,0.000563142,-0.00568347,-1.01654,0.00398996,0.0394762,671,1142,-9.31334,-0.534494
-546,-118,-9.22028,0.616455,-0.00259613,-0.000623804,0.000147033,-0.000612903,-0.00260703,1.49679,0.00157401,0.040609,678,1142,-9.22026,-0.616449
-539,-118,-9.39288,0.735229,-0.00074295,-5.11156e-05,0.00379309,0.0034118,-0.00420587,0.830871,0.00440602,0.0405869,685,1142,-9.39286,-0.735192
-532,-118,-9.58008,0.957886,0.00136534,0.000350999,0.00738131,0.00825688,-0.00654054,0.751097,0.00856243,0.0411806,692,1142,-9.58006,-0.957901
-525,-118,-9.56097,0.999512,0.00207362,-0.000108544,0.00887021,0.0099196,-0.00795452,0.724203,0.0103404,0.0432528,699,1142,-9.56099,-0.999453
-518,-118,0,0,0,0,0,0,0,0,0,-1,706,1142,0,0
-511,-118,0,0,0,0,0,0,0,0,0,-1,713,1142,0,0
-504,-118,0,0,0,0,0,0,0,0,0,-1,720,1142,0,0
-497,-118,0,0,0,0,0,0,0,0,0,-1,727,1142,0,0
-490,-118,0,0,0,0,0,0,0,0,0,-1,734,1142,0,0
-483,-118,0,0,0,0,0,0,0,0,0,-1,741,1142,0,0
-476,-118,0,0,0,0,0,0,0,0,0,-1,748,1142,0,0
-469,-118,0,0,0,0,0,0,0,0,0,-1,755,1142,0,0
-462,-118,0,0,0,0,0,0,0,0,0,-1,762,1142,0,0
-455,-118,0,0,0,0,0,0,0,0,0,-1,769,1142,0,0
-448,-118,0,0,0,0,0,0,0,0,0,-1,776,1142,0,0
-441,-118,0,0,0,0,0,0,0,0,0,-1,783,1142,0,0
-434,-118,0,0,0,0,0,0,0,0,0,-1,790,1142,0,0
-427,-118,0,0,0,0,0,0,0,0,0,-1,797,1142,0,0
-420,-118,0,0,0,0,0,0,0,0,0,-1,804,1142,0,0
-413,-118,0,0,0,0,0,0,0,0,0,-1,811,1142,0,0
-406,-118,0,0,0,0,0,0,0,0,0,-1,818,1142,0,0
-399,-118,0,0,0,0,0,0,0,0,0,-1,825,1142,0,0
-392,-118,0,0,0,0,0,0,0,0,0,-1,832,1142,0,0
-385,-118,0,0,0,0,0,0,0,0,0,-1,839,1142,0,0
-378,-118,0,0,0,0,0,0,0,0,0,-1,846,1142,0,0
-371,-118,0,0,0,0,0,0,0,0,0,-1,853,1142,0,0
-364,-118,0,0,0,0,0,0,0,0,0,-1,860,1142,0,0
-357,-118,0,0,0,0,0,0,0,0,0,-1,867,1142,0,0
-350,-118,0,0,0,0,0,0,0,0,0,-1,874,1142,0,0
-343,-118,0,0,0,0,0,0,0,0,0,-1,881,1142,0,0
-336,-118,0,0,0,0,0,0,0,0,0,-1,888,1142,0,0
-329,-118,0,0,0,0,0,0,0,0,0,-1,895,1142,0,0
-322,-118,0,0,0,0,0,0,0,0,0,-1,902,1142,0,0
-315,-118,0,0,0,0,0,0,0,0,0,-1,909,1142,0,0
-308,-118,0,0,0,0,0,0,0,0,0,-1,916,1142,0,0
-301,-118,0,0,0,0,0,0,0,0,0,-1,923,1142,0,0
-294,-118,0,0,0,0,0,0,0,0,0,-1,930,1142,0,0
-287,-118,0,0,0,0,0,0,0,0,0,-1,937,1142,0,0
-280,-118,0,0,0,0,0,0,0,0,0,-1,944,1142,0,0
-273,-118,0,0,0,0,0,0,0,0,0,-1,951,1142,0,0
-266,-118,0,0,0,0,0,0,0,0,0,-1,958,1142,0,0
-259,-118,0,0,0,0,0,0,0,0,0,-1,965,1142,0,0
-252,-118,0,0,0,0,0,0,0,0,0,-1,972,1142,0,0
-245,-118,0,0,0,0,0,0,0,0,0,-1,979,1142,0,0
-238,-118,0,0,0,0,0,0,0,0,0,-1,986,1142,0,0
-231,-118,0,0,0,0,0,0,0,0,0,-1,993,1142,0,0
-224,-118,0,0,0,0,0,0,0,0,0,-1,1000,1142,0,0
-217,-118,0,0,0,0,0,0,0,0,0,-1,1007,1142,0,0
-210,-118,0,0,0,0,0,0,0,0,0,-1,1014,1142,0,0
-203,-118,0,0,0,0,0,0,0,0,0,-1,1021,1142,0,0
-196,-118,0,0,0,0,0,0,0,0,0,-1,1028,1142,0,0
-189,-118,0,0,0,0,0,0,0,0,0,-1,1035,1142,0,0
-182,-118,0,0,0,0,0,0,0,0,0,-1,1042,1142,0,0
-175,-118,0,0,0,0,0,0,0,0,0,-1,1049,1142,0,0
-168,-118,0,0,0,0,0,0,0,0,0,-1,1056,1142,0,0
-161,-118,0,0,0,0,0,0,0,0,0,-1,1063,1142,0,0
-154,-118,0,0,0,0,0,0,0,0,0,-1,1070,1142,0,0
-147,-118,0,0,0,0,0,0,0,0,0,-1,1077,1142,0,0
-140,-118,0,0,0,0,0,0,0,0,0,-1,1084,1142,0,0
-133,-118,0,0,0,0,0,0,0,0,0,-1,1091,1142,0,0
-126,-118,0,0,0,0,0,0,0,0,0,-1,1098,1142,0,0
-119,-118,0,0,0,0,0,0,0,0,0,-1,1105,1142,0,0
-112,-118,0,0,0,0,0,0,0,0,0,-1,1112,1142,0,0
-105,-118,0,0,0,0,0,0,0,0,0,-1,1119,1142,0,0
-98,-118,0,0,0,0,0,0,0,0,0,-1,1126,1142,0,0
-91,-118,0,0,0,0,0,0,0,0,0,-1,1133,1142,0,0
-84,-118,0,0,0,0,0,0,0,0,0,-1,1140,1142,0,0
-77,-118,0,0,0,0,0,0,0,0,0,-1,1147,1142,0,0
-70,-118,0,0,0,0,0,0,0,0,0,-1,1154,1142,0,0
-63,-118,0,0,0,0,0,0,0,0,0,-1,1161,1142,0,0
-56,-118,0,0,0,0,0,0,0,0,0,-1,1168,1142,0,0
-49,-118,0,0,0,0,0,0,0,0,0,-1,1175,1142,0,0
-42,-118,0,0,0,0,0,0,0,0,0,-1,1182,1142,0,0
-35,-118,0,0,0,0,0,0,0,0,0,-1,1189,1142,0,0
-28,-118,0,0,0,0,0,0,0,0,0,-1,1196,1142,0,0
-21,-118,0,0,0,0,0,0,0,0,0,-1,1203,1142,0,0
-14,-118,0,0,0,0,0,0,0,0,0,-1,1210,1142,0,0
-7,-118,0,0,0,0,0,0,0,0,0,-1,1217,1142,0,0
0,-118,0,0,0,0,0,0,0,0,0,-1,1224,1142,0,0
7,-118,0,0,0,0,0,0,0,0,0,-1,1231,1142,0,0
14,-118,0,0,0,0,0,0,0,0,0,-1,1238,1142,0,0
21,-118,0,0,0,0,0,0,0,0,0,-1,1245,1142,0,0
28,-118,0,0,0,0,0,0,0,0,0,-1,1252,1142,0,0
35,-118,0,0,0,0,0,0,0,0,0,-1,1259,1142,0,0
42,-118,0,0,0,0,0,0,0,0,0,-1,1266,1142,0,0
49,-118,0,0,0,0,0,0,0,0,0,-1,1273,1142,0,0
56,-118,0,0,0,0,0,0,0,0,0,-1,1280,1142,0,0
63,-118,0,0,0,0,0,0,0,0,0,-1,1287,1142,0,0
70,-118,0,0,0,0,0,0,0,0,0,-1,1294,1142,0,0
77,-118,0,0,0,0,0,0,0,0,0,-1,1301,1142,0,0
84,-118,0,0,0,0,0,0,0,0,0,-1,1308,1142,0,0
91,-118,0,0,0,0,0,0,0,0,0,-1,1315,1142,0,0
98,-118,0,0,0,0,0,0,0,0,0,-1,1322,1142,0,0
105,-118,0,0,0,0,0,0,0,0,0,-1,1329,1142,0,0
112,-118,0,0,0,0,0,0,0,0,0,-1,1336,1142,0,0
119,-118,0,0,0,0,0,0,0,0,0,-1,1343,1142,0,0
126,-118,0,0,0,0,0,0,0,0,0,-1,1350,1142,0,0
133,-118,0,0,0,0,0,0,0,0,0,-1,1357,1142,0,0
140,-118,0,0,0,0,0,0,0,0,0,-1,1364,1142,0,0
147,-118,0,0,0,0,0,0,0,0,0,-1,1371,1142,0,0
154,-118,0,0,0,0,0,0,0,0,0,-1,1378,1142,0,0
161,-118,0,0,0,0,0,0,0,0,0,-1,1385,1142,0,0
168,-118,0,0,0,0,0,0,0,0,0,-1,1392,1142,0,0
175,-118,0,0,0,0,0,0,0,0,0,-1,1399,1142,0,0
182,-118,0,0,0,0,0,0,0,0,0,-1,1406,1142,0,0
189,-118,0,0,0,0,0,0,0,0,0,-1,1413,1142,0,0
196,-118,0,0,0,0,0,0,0,0,0,-1,1420,1142,0,0
203,-118,0,0,0,0,0,0,0,0,0,-1,1427,1142,0,0
210,-118,0,0,0,0,0,0,0,0,0,-1,1434,1142,0,0
217,-118,0,0,0,0,0,0,0,0,0,-1,1441,1142,0,0
224,-118,0,0,0,0,0,0,0,0,0,-1,1448,1142,0,0
231,-118,0,0,0,0,0,0,0,0,0,-1,1455,1142,0,0
238,-118,0,0,0,0,0,0,0,0,0,-1,1462,1142,0,0
245,-118,0,0,0,0,0,0,0,0,0,-1,1469,1142,0,0
252,-118,0,0,0,0,0,0,0,0,0,-1,1476,1142,0,0
259,-118,0,0,0,0,0,0,0,0,0,-1,1483,1142,0,0
266,-118,0,0,0,0,0,0,0,0,0,-1,1490,1142,0,0
273,-118,0,0,0,0,0,0,0,0,0,-1,1497,1142,0,0
280,-118,0,0,0,0,0,0,0,0,0,-1,1504,1142,0,0
287,-118,0,0,0,0,0,0,0,0,0,-1,1511,1142,0,0
294,-118,0,0,0,0,0,0,0,0,0,-1,1518,1142,0,0
301,-118,0,0,0,0,0,0,0,0,0,-1,1525,1142,0,0
308,-118,0,0,0,0,0,0,0,0,0,-1,1532,1142,0,0
315,-118,0,0,0,0,0,0,0,0,0,-1,1539,1142,0,0
322,-118,0,0,0,0,0,0,0,0,0,-1,1546,1142,0,0
329,-118,0,0,0,0,0,0,0,0,0,-1,1553,1142,0,0
336,-118,0,0,0,0,0,0,0,0,0,-1,1560,1142,0,0
343,-118,0,0,0,0,0,0,0,0,0,-1,1567,1142,0,0
350,-118,0,0,0,0,0,0,0,0,0,-1,1574,1142,0,0
357,-118,0,0,0,0,0,0,0,0,0,-1,1581,1142,0,0
364,-118,0,0,0,0,0,0,0,0,0,-1,1588,1142,0,0
371,-118,0,0,0,0,0,0,0,0,0,-1,1595,1142,0,0
378,-118,0,0,0,0,0,0,0,0,0,-1,1602,1142,0,0
385,-118,0,0,0,0,0,0,0,0,0,-1,1609,1142,0,0
392,-118,0,0,0,0,0,0,0,0,0,-1,1616,1142,0,0
399,-118,0,0,0,0,0,0,0,0,0,-1,1623,1142,0,0
406,-118,0,0,0,0,0,0,0,0,0,-1,1630,1142,0,0
413,-118,0,0,0,0,0,0,0,0,0,-1,1637,1142,0,0
420,-118,0,0,0,0,0,0,0,0,0,-1,1644,1142,0,0
427,-118,0,0,0,0,0,0,0,0,0,-1,1651,1142,0,0
434,-118,0,0,0,0,0,0,0,0,0,-1,1658,1142,0,0
441,-118,0,0,0,0,0,0,0,0,0,-1,1665,1142,0,0
448,-118,0,0,0,0,0,0,0,0,0,-1,1672,1142,0,0
455,-118,0,0,0,0,0,0,0,0,0,-1,1679,1142,0,0
462,-118,0,0,0,0,0,0,0,0,0,-1,1686,1142,0,0
469,-118,0,0,0,0,0,0,0,0,0,-1,1693,1142,0,0
476,-118,0,0,0,0,0,0,0,0,0,-1,1700,1142,0,0
483,-118,0,0,0,0,0,0,0,0,0,-1,1707,1142,0,0
490,-118,0,0,0,0,0,0,0,0,0,-1,1714,1142,0,0
497,-118,0,0,0,0,0,0,0,0,0,-1,1721,1142,0,0
504,-118,0,0,0,0,0,0,0,0,0,-1,1728,1142,0,0
511,-118,0,0,0,0,0,0,0,0,0,-1,1735,1142,0,0
518,-118,0,0,0,0,0,0,0,0,0,-1,1742,1142,0,0
525,-118,0,0,0,0,0,0,0,0,0,-1,1749,1142,0,0
532,-118,0,0,0,0,0,0,0,0,0,-1,1756,1142,0,0
539,-118,0,0,0,0,0,0,0,0,0,-1,1763,1142,0,0
546,-118,0,0,0,0,0,0,0,0,0,-1,1770,1142,0,0
553,-118,0,0,0,0,0,0,0,0,0,-1,1777,1142,0,0
560,-118,0,0,0,0,0,0,0,0,0,-1,1784,1142,0,0
567,-118,0,0,0,0,0,0,0,0,0,-1,1791,1142,0,0
574,-118,0,0,0,0,0,0,0,0,0,-1,1798,1142,0,0
581,-118,0,0,0,0,0,0,0,0,0,-1,1805,1142,0,0
588,-118,0,0,0,0,0,0,0,0,0,-1,1812,1142,0,0
595,-118,0,0,0,0,0,0,0,0,0,-1,1819,1142,0,0
602,-118,0,0,0,0,0,0,0,0,0,-1,1826,1142,0,0
609,-118,0,0,0,0,0,0,0,0,0,-1,1833,1142,0,0
616,-118,0,0,0,0,0,0,0,0,0,-1,1840,1142,0,0
623,-118,0,0,0,0,0,0,0,0,0,-1,1847,1142,0,0
630,-118,0,0,0,0,0,0,0,0,0,-1,1854,1142,0,0
637,-118,0,0,0,0,0,0,0,0,0,-1,1861,1142,0,0
644,-118,15.6931,2.4823,0.00220148,0.00261585,-0.00113692,0.00356431,0.00125302,-0.875526,0.00208787,0.041376,1868,1142,15.6931,-2.48236
651,-118,15.6445,2.47302,0.00178362,0.00213304,-0.000798282,0.00277551,0.00114116,-0.893128,0.00161085,0.0431597,1875,1142,15.6446,-2.47297
658,-118,15.5725,2.42627,0.00155209,0.00178413,-0.000596703,0.00227599,0.00106023,-0.881419,0.00131506,0.0422333,1882,1142,15.5725,-2.42627
665,-118,15.6586,2.37097,0.000639686,0.000884441,0.00034891,0.00113181,0.000392314,0.954067,0.000663622,0.0404612,1889,1142,15.6586,-2.37103
672,-118,15.6348,2.4856,-0.000855847,-0.000200951,0.00175713,0.00125898,-0.00231578,0.877519,0.00209373,0.0448472,1896,1142,15.6348,-2.48563
679,-118,15.5043,2.46326,-0.00238311,-0.00120244,0.00309313,0.00135619,-0.00494173,0.879691,0.0038275,0.0403167,1903,1142,15.5043,-2.46322
686,-118,15.5709,2.30554,-0.00380318,-0.0020672,0.00425648,0.00140889,-0.00727927,0.88598,0.00538428,0.0347576,1910,1142,15.5709,-2.30551
693,-118,15.5919,2.37866,-0.00493933,-0.00268981,0.00515848,0.00146511,-0.00909424,0.892739,0.00660558,0.0367049,1917,1142,15.5919,-2.37871
700,-118,15.6434,2.38538,-0.00581719,-0.0031959,0.00579045,0.00143038,-0.0104435,0.896696,0.00748481,0.0247175,1924,1142,15.6434,-2.38533
707,-118,15.7346,2.49768,0,0,0,0,0,0,0,-1,1931,1142,15.7346,-2.49762
714,-118,15.2587,2.9917,-0.00678755,-0.00354405,0.00639043,0.0014272,-0.0117588,0.909664,0.00835567,0.0340014,1938,1142,15.2586,-2.99166
721,-118,14.9456,3.34241,-0.00667285,-0.00328838,0.00619987,0.00144606,-0.0114073,0.918626,0.00812985,0.0109446,1945,1142,14.9456,-3.3424
728,-118,14.9366,3.2749,-0.00623624,-0.00283528,0.00555503,0.00127371,-0.0103452,0.933927,0.00735824,0.0130493,1952,1142,14.9367,-3.27491
735,-118,14.9464,3.23926,-0.00536227,-0.00221701,0.00474463,0.00120883,-0.00878811,0.945427,0.00630046,0.0131888,1959,1142,14.9464,-3.23925
742,-118,14.9658,3.22375,-0.00382313,-0.00143893,0.00374188,0.00129615,-0.00655822,0.939607,0.00486213,0.0186215,1966,1142,14.9658,-3.22371
749,-118,14.938,3.14905,-0.00172125,-7.50451e-05,0.00264213,0.00186922,-0.00366552,0.936399,0.0032511,0.0179207,1973,1142,14.938,-3.14904
756,-118,14.9312,3.10364,0.000611167,0.00265789,0.00167963,0.00360136,-0.000332305,1.059,0.00251899,0.0168172,1980,1142,14.9312,-3.10369
763,-118,14.9081,3.04541,0.00273023,0.00635906,0.000430492,0.00640943,0.00267986,1.45432,0.00371699,0.00984748,1987,1142,14.9081,-3.04542
770,-118,14.8973,3.00195,0.00527926,0.0102612,-0.000465618,0.0103043,0.00523612,-1.4784,0.00594947,0.011438,1994,1142,14.8973,-3.002
777,-118,14.8854,2.92139,0.00754764,0.0153239,-0.000887339,0.0154239,0.00744768,-1.45861,0.00890672,0.0238888,2001,1142,14.8854,-2.92139
784,-118,14.8253,2.85266,0.00975363,0.0222269,-0.00110201,0.0223235,0.00965702,-1.48335,0.0129275,0.0409691,2008,1142,14.8253,-2.85265
791,-118,14.7666,2.83948,0,0,0,0,0,0,0,-1,2015,1142,14.7665,-2.83952
798,-118,15.3667,3.01331,0,0,0,0,0,0,0,-1,2022,1142,15.3667,-3.01333
805,-118,16.4629,3.58777,0,0,0,0,0,0,0,-1,2029,1142,16.4629,-3.58774
812,-118,15.1721,1.26135,0,0,0,0,0,0,0,-1,2036,1142,15.1722,-1.26139
-700,-125,0,0,0,0,0,0,0,0,0,-1,524,1149,0,0
-693,-125,-9.23553,0.527222,0,0,0,0,0,0,0,-1,531,1149,-9.23553,-0.527239
-686,-125,-9.48651,0.531372,0.0533348,0.0523583,-0.0377237,0.0905734,0.0151197,-0.778927,0.0560266,0.0449834,538,1149,-9.48649,-0.531432
-679,-125,-9.65192,0.604004,0.0433118,0.0421619,-0.0262968,0.06904,0.0164338,-0.774468,0.041644,0.0422099,545,1149,-9.65195,-0.604026
-672,-125,-9.5415,0.751343,0.0338831,0.0334505,-0.0182347,0.0519028,0.0154308,-0.779468,0.030776,0.0446121,552,1149,-9.54149,-0.751381
-665,-125,-9.05469,1.11145,0.0253954,0.0260226,-0.0125024,0.0382153,0.0132027,-0.797936,0.0224121,0.0419294,559,1149,-9.05469,-1.11141
-658,-125,-8.99219,0.897217,0,0,0,0,0,0,0,-1,566,1149,-8.99221,-0.897158
-651,-125,-8.7804,0.812256,0.0121522,0.0145419,-0.00571528,0.0191859,0.00750825,-0.888445,0.0111639,0.0393661,573,1149,-8.78042,-0.812316
-644,-125,-8.73669,0.797607,0.00763031,0.0103441,-0.003867,0.0130854,0.00488906,-0.954135,0.00763486,0.024835,580,1149,-8.73668,-0.797549
-637,-125,-8.77014,0.83252,0.00363716,0.00687888,-0.00193396,0.00778138,0.00273465,-1.13417,0.00455821,0.0133862,587,1149,-8.77015,-0.832553
-630,-125,-8.78119,0.909546,0.000900137,0.00398323,-0.00204519,0.00500277,-0.000119403,-1.10834,0.00337568,0.0141141,594,1149,-8.78121,-0.909516
-623,-125,-8.78198,0.974731,-0.00162518,0.00178585,-0.00289133,0.0034372,-0.00327653,-1.05187,0.00387655,0.0129387,601,1149,-8.78201,-0.974738
-616,-125,-8.79828,1.02649,-0.00349279,0.000107928,-0.00470699,0.00334712,-0.00673198,-0.968057,0.00592754,0.0123801,608,1149,-8.79825,-1.02649
-609,-125,-8.80682,1.08508,-0.0042623,-0.000893319,-0.00559716,0.00326733,-0.00842295,-0.931565,0.00696474,0.0126914,615,1149,-8.80683,-1.0851
-602,-125,-8.82941,1.20325,-0.00481057,-0.00162001,-0.0068961,0.00386293,-0.0102935,-0.899064,0.00844963,0.0120741,622,1149,-8.82938,-1.20325
-595,-125,-8.82977,1.30249,-0.00555222,-0.00181053,-0.00763975,0.00418411,-0.0115469,-0.905477,0.00940804,0.0107214,629,1149,-8.82976,-1.30245
-588,-125,-8.73657,1.38989,-0.0063221,-0.00194901,-0.00795073,0.00411036,-0.0123815,-0.919587,0.00991269,0.0153862,636,1149,-8.73655,-1.38984
-581,-125,-8.95746,1.00793,-0.00675816,-0.00201179,-0.00790229,0.00386597,-0.0126359,-0.931271,0.00996578,0.0382543,643,1149,-8.95748,-1.00798
-574,-125,-9.24597,0.515259,0,0,0,0,0,0,0,-1,650,1149,-9.24599,-0.51527
-567,-125,-9.53534,0.705444,-0.00648967,-0.00165315,-0.0067944,0.00314051,-0.0112833,-0.956368,0.00875879,0.0392712,657,1149,-9.53537,-0.705414
-560,-125,-9.54675,0.632324,-0.00591102,-0.00124575,-0.0053483,0.00225646,-0.00941323,-0.991035,0.00714738,0.037367,664,1149,-9.54674,-0.632298
-553,-125,-9.53723,0.543457,-0.00484798,-0.000695726,-0.0031989,0.00104171,-0.00658542,-1.07324,0.00477554,0.0397023,671,1149,-9.53722,-0.543503
-546,-125,-9.66492,0.70874,-0.00322637,-4.96054e-05,-0.000331873,-1.53055e-05,-0.00326067,-1.46781,0.0021687,0.041621,678,1149,-9.66495,-0.708735
-539,-125,-9.65765,0.687134,-0.000949319,0.000640444,0.00324675,0.0031882,-0.00349708,0.905449,0.00386112,0.0422777,685,1149,-9.65765,-0.687157
-532,-125,-9.68622,0.900757,0.00187397,0.00120668,0.00692163,0.00846999,-0.00538935,0.761315,0.00806731,0.0397385,692,1149,-9.6862,-0.900718
-525,-125,-9.56262,0.986694,0.00371192,0.000927147,0.00878506,0.0112142,-0.00657518,0.706805,0.0103865,0.043018,699,1149,-9.56263,-0.986727
-518,-125,0,0,0,0,0,0,0,0,0,-1,706,1149,0,0
-511,-125,0,0,0,0,0,0,0,0,0,-1,713,1149,0,0
-504,-125,0,0,0,0,0,0,0,0,0,-1,720,1149,0,0
-497,-125,0,0,0,0,0,0,0,0,0,-1,727,1149,0,0
-490,-125,0,0,0,0,0,0,0,0,0,-1,734,1149,0,0
-483,-125,0,0,0,0,0,0,0,0,0,-1,741,1149,0,0
-476,-125,0,0,0,0,0,0,0,0,0,-1,748,1149,0,0
-469,-125,0,0,0,0,0,0,0,0,0,-1,755,1149,0,0
-462,-125,0,0,0,0,0,0,0,0,0,-1,762,1149,0,0
-455,-125,0,0,0,0,0,0,0,0,0,-1,769,1149,0,0
-448,-125,0,0,0,0,0,0,0,0,0,-1,776,1149,0,0
-441,-125,0,0,0,0,0,0,0,0,0,-1,783,1149,0,0
-434,-125,0,0,0,0,0,0,0,0,0,-1,790,1149,0,0
-427,-125,0,0,0,0,0,0,0,0,0,-1,797,1149,0,0
-420,-125,0,0,0,0,0,0,0,0,0,-1,804,1149,0,0
-413,-125,0,0,0,0,0,0,0,0,0,-1,811,1149,0,0
-406,-125,0,0,0,0,0,0,0,0,0,-1,818,1149,0,0
-399,-125,0,0,0,0,0,0,0,0,0,-1,825,1149,0,0
-392,-125,0,0,0,0,0,0,0,0,0,-1,832,1149,0,0
-385,-125,0,0,0,0,0,0,0,0,0,-1,839,1149,0,0
-378,-125,0,0,0,0,0,0,0,0,0,-1,846,1149,0,0
-371,-125,0,0,0,0,0,0,0,0,0,-1,853,1149,0,0
-364,-125,0,0,0,0,0,0,0,0,0,-1,860,1149,0,0
-357,-125,0,0,0,0,0,0,0,0,0,-1,867,1149,0,0
-350,-125,0,0,0,0,0,0,0,0,0,-1,874,1149,0,0
-343,-125,0,0,0,0,0,0,0,0,0,-1,881,1149,0,0
-336,-125,0,0,0,0,0,0,0,0,0,-1,888,1149,0,0
-329,-125,0,0,0,0,0,0,0,0,0,-1,895,1149,0,0
-322,-125,0,0,0,0,0,0,0,0,0,-1,902,1149,0,0
-315,-125,0,0,0,0,0,0,0,0,0,-1,909,1149,0,0
-308,-125,0,0,0,0,0,0,0,0,0,-1,916,1149,0,0
-301,-125,0,0,0,0,0,0,0,0,0,-1,923,1149,0,0
-294,-125,0,0,0,0,0,0,0,0,0,-1,930,1149,0,0
-287,-125,0,0,0,0,0,0,0,0,0,-1,937,1149,0,0
-280,-125,0,0,0,0,0,0,0,0,0,-1,944,1149,0,0
-273,-125,0,0,0,0,0,0,0,0,0,-1,951,1149,0,0
-266,-125,0,0,0,0,0,0,0,0,0,-1,958,1149,0,0
-259,-125,0,0,0,0,0,0,0,0,0,-1,965,1149,0,0
-252,-125,0,0,0,0,0,0,0,0,0,-1,972,1149,0,0
-245,-125,0,0,0,0,0,0,0,0,0,-1,979,1149,0,0
-238,-125,0,0,0,0,0,0,0,0,0,-1,986,1149,0,0
-231,-125,0,0,0,0,0,0,0,0,0,-1,993,1149,0,0
-224,-125,0,0,0,0,0,0,0,0,0,-1,1000,1149,0,0
-217,-125,0,0,0,0,0,0,0,0,0,-1,1007,1149,0,0
-210,-125,0,0,0,0,0,0,0,0,0,-1,1014,1149,0,0
-203,-125,0,0,0,0,0,0,0,0,0,-1,1021,1149,0,0
-196,-125,0,0,0,0,0,0,0,0,0,-1,1028,1149,0,0
-189,-125,0,0,0,0,0,0,0,0,0,-1,1035,1149,0,0
-182,-125,0,0,0,0,0,0,0,0,0,-1,1042,1149,0,0
-175,-125,0,0,0,0,0,0,0,0,0,-1,1049,1149,0,0
-168,-125,0,0,0,0,0,0,0,0,0,-1,1056,1149,0,0
-161,-125,0,0,0,0,0,0,0,0,0,-1,1063,1149,0,0
-154,-125,0,0,0,0,0,0,0,0,0,-1,1070,1149,0,0
-147,-125,0,0,0,0,0,0,0,0,0,-1,1077,1149,0,0
-140,-125,0,0,0,0,0,0,0,0,0,-1,1084,1149,0,0
-133,-125,0,0,0,0,0,0,0,0,0,-1,1091,1149,0,0
-126,-125,0,0,0,0,0,0,0,0,0,-1,1098,1149,0,0
-119,-125,0,0,0,0,0,0,0,0,0,-1,1105,1149,0,0
-112,-125,0,0,0,0,0,0,0,0,0,-1,1112,1149,0,0
-105,-125,0,0,0,0,0,0,0,0,0,-1,1119,1149,0,0
-98,-125,0,0,0,0,0,0,0,0,0,-1,1126,1149,0,0
-91,-125,0,0,0,0,0,0,0,0,0,-1,1133,1149,0,0
-84,-125,0,0,0,0,0,0,0,0,0,-1,1140,1149,0,0
-77,-125,0,0,0,0,0,0,0,0,0,-1,1147,1149,0,0
-70,-125,0,0,0,0,0,0,0,0,0,-1,1154,1149,0,0
-63,-125,0,0,0,0,0,0,0,0,0,-1,1161,1149,0,0
-56,-125,0,0,0,0,0,0,0,0,0,-1,1168,1149,0,0
-49,-125,0,0,0,0,0,0,0,0,0,-1,1175,1149,0,0
-42,-125,0,0,0,0,0,0,0,0,0,-1,1182,1149,0,0
-35,-125,0,0,0,0,0,0,0,0,0,-1,1189,1149,0,0
-28,-125,0,0,0,0,0,0,0,0,0,-1,1196,1149,0,0
-21,-125,0,0,0,0,0,0,0,0,0,-1,1203,1149,0,0
-14,-125,0,0,0,0,0,0,0,0,0,-1,1210,1149,0,0
-7,-125,0,0,0,0,0,0,0,0,0,-1,1217,1149,0,0
0,-125,0,0,0,0,0,0,0,0,0,-1,1224,1149,0,0
7,-125,0,0,0,0,0,0,0,0,0,-1,1231,1149,0,0
14,-125,0,0,0,0,0,0,0,0,0,-1,1238,1149,0,0
21,-125,0,0,0,0,0,0,0,0,0,-1,1245,1149,0,0
28,-125,0,0,0,0,0,0,0,0,0,-1,1252,1149,0,0
35,-125,0,0,0,0,0,0,0,0,0,-1,1259,1149,0,0
42,-125,0,0,0,0,0,0,0,0,0,-1,1266,1149,0,0
49,-125,0,0,0,0,0,0,0,0,0,-1,1273,1149,0,0
56,-125,0,0,0,0,0,0,0,0,0,-1,1280,1149,0,0
63,-125,0,0,0,0,0,0,0,0,0,-1,1287,1149,0,0
70,-125,0,0,0,0,0,0,0,0,0,-1,1294,1149,0,0
77,-125,0,0,0,0,0,0,0,0,0,-1,1301,1149,0,0
84,-125,0,0,0,0,0,0,0,0,0,-1,1308,1149,0,0
91,-125,0,0,0,0,0,0,0,0,0,-1,1315,1149,0,0
98,-125,0,0,0,0,0,0,0,0,0,-1,1322,1149,0,0
105,-125,0,0,0,0,0,0,0,0,0,-1,1329,1149,0,0
112,-125,0,0,0,0,0,0,0,0,0,-1,1336,1149,0,0
119,-125,0,0,0,0,0,0,0,0,0,-1,1343,1149,0,0
126,-125,0,0,0,0,0,0,0,0,0,-1,1350,1149,0,0
133,-125,0,0,0,0,0,0,0,0,0,-1,1357,1149,0,0
140,-125,0,0,0,0,0,0,0,0,0,-1,1364,1149,0,0
147,-125,0,0,0,0,0,0,0,0,0,-1,1371,1149,0,0
154,-125,0,0,0,0,0,0,0,0,0,-1,1378,1149,0,0
161,-125,0,0,0,0,0,0,0,0,0,-1,1385,1149,0,0
168,-125,0,0,0,0,0,0,0,0,0,-1,1392,1149,0,0
175,-125,0,0,0,0,0,0,0,0,0,-1,1399,1149,0,0
182,-125,0,0,0,0,0,0,0,0,0,-1,1406,1149,0,0
189,-125,0,0,0,0,0,0,0,0,0,-1,1413,1149,0,0
196,-125,0,0,0,0,0,0,0,0,0,-1,1420,1149,0,0
203,-125,0,0,0,0,0,0,0,0,0,-1,1427,1149,0,0
210,-125,0,0,0,0,0,0,0,0,0,-1,1434,1149,0,0
217,-125,0,0,0,0,0,0,0,0,0,-1,1441,1149,0,0
224,-125,0,0,0,0,0,0,0,0,0,-1,1448,1149,0,0
231,-125,0,0,0,0,0,0,0,0,0,-1,1455,1149,0,0
238,-125,0,0,0,0,0,0,0,0,0,-1,1462,1149,0,0
245,-125,0,0,0,0,0,0,0,0,0,-1,1469,1149,0,0
252,-125,0,0,0,0,0,0,0,0,0,-1,1476,1149,0,0
259,-125,0,0,0,0,0,0,0,0,0,-1,1483,1149,0,0
266,-125,0,0,0,0,0,0,0,0,0,-1,1490,1149,0,0
273,-125,0,0,0,0,0,0,0,0,0,-1,1497,1149,0,0
280,-125,0,0,0,0,0,0,0,0,0,-1,1504,1149,0,0
287,-125,0,0,0,0,0,0,0,0,0,-1,1511,1149,0,0
294,-125,0,0,0,0,0,0,0,0,0,-1,1518,1149,0,0
301,-125,0,0,0,0,0,0,0,0,0,-1,1525,1149,0,0
308,-125,0,0,0,0,0,0,0,0,0,-1,1532,1149,0,0
315,-125,0,0,0,0,0,0,0,0,0,-1,1539,1149,0,0
322,-125,0,0,0,0,0,0,0,0,0,-1,1546,1149,0,0
329,-125,0,0,0,0,0,0,0,0,0,-1,1553,1149,0,0
336,-125,0,0,0,0,0,0,0,0,0,-1,1560,1149,0,0
343,-125,0,0,0,0,0,0,0,0,0,-1,1567,1149,0,0
350,-125,0,0,0,0,0,0,0,0,0,-1,1574,1149,0,0
357,-125,0,0,0,0,0,0,0,0,0,-1,1581,1149,0,0
364,-125,0,0,0,0,0,0,0,0,0,-1,1588,1149,0,0
371,-125,0,0,0,0,0,0,0,0,0,-1,1595,1149,0,0
378,-125,0,0,0,0,0,0,0,0,0,-1,1602,1149,0,0
385,-125,0,0,0,0,0,0,0,0,0,-1,1609,1149,0,0
392,-125,0,0,0,0,0,0,0,0,0,-1,1616,1149,0,0
399,-125,0,0,0,0,0,0,0,0,0,-1,1623,1149,0,0
406,-125,0,0,0,0,0,0,0,0,0,-1,1630,1149,0,0
413,-125,0,0,0,0,0,0,0,0,0,-1,1637,1149,0,0
420,-125,0,0,0,0,0,0,0,0,0,-1,1644,1149,0,0
427,-125,0,0,0,0,0,0,0,0,0,-1,1651,1149,0,0
434,-125,0,0,0,0,0,0,0,0,0,-1,1658,1149,0,0
441,-125,0,0,0,0,0,0,0,0,0,-1,1665,1149,0,0
448,-125,0,0,0,0,0,0,0,0,0,-1,1672,1149,0,0
455,-125,0,0,0,0,0,0,0,0,0,-1,1679,1149,0,0
462,-125,0,0,0,0,0,0,0,0,0,-1,1686,1149,0,0
469,-125,0,0,0,0,0,0,0,0,0,-1,1693,1149,0,0
476,-125,0,0,0,0,0,0,0,0,0,-1,1700,1149,0,0
483,-125,0,0,0,0,0,0,0,0,0,-1,1707,1149,0,0
490,-125,0,0,0,0,0,0,0,0,0,-1,1714,1149,0,0
497,-125,0,0,0,0,0,0,0,0,0,-1,1721,1149,0,0
504,-125,0,0,0,0,0,0,0,0,0,-1,1728,1149,0,0
511,-125,0,0,0,0,0,0,0,0,0,-1,1735,1149,0,0
518,-125,0,0,0,0,0,0,0,0,0,-1,1742,1149,0,0
525,-125,0,0,0,0,0,0,0,0,0,-1,1749,1149,0,0
532,-125,0,0,0,0,0,0,0,0,0,-1,1756,1149,0,0
539,-125,0,0,0,0,0,0,0,0,0,-1,1763,1149,0,0
546,-125,0,0,0,0,0,0,0,0,0,-1,1770,1149,0,0
553,-125,0,0,0,0,0,0,0,0,0,-1,1777,1149,0,0
560,-125,0,0,0,0,0,0,0,0,0,-1,1784,1149,0,0
567,-125,0,0,0,0,0,0,0,0,0,-1,1791,1149,0,0
574,-125,0,0,0,0,0,0,0,0,0,-1,1798,1149,0,0
581,-125,0,0,0,0,0,0,0,0,0,-1,1805,1149,0,0
588,-125,0,0,0,0,0,0,0,0,0,-1,1812,1149,0,0
595,-125,0,0,0,0,0,0,0,0,0,-1,1819,1149,0,0
602,-125,0,0,0,0,0,0,0,0,0,-1,1826,1149,0,0
609,-125,0,0,0,0,0,0,0,0,0,-1,1833,1149,0,0
616,-125,0,0,0,0,0,0,0,0,0,-1,1840,1149,0,0
623,-125,0,0,0,0,0,0,0,0,0,-1,1847,1149,0,0
630,-125,0,0,0,0,0,0,0,0,0,-1,1854,1149,0,0
637,-125,0,0,0,0,0,0,0,0,0,-1,1861,1149,0,0
644,-125,15.5483,2.68896,0,0,0,0,0,0,0,-1,1868,1149,15.5483,-2.689
651,-125,15.4524,2.28979,0,0,0,0,0,0,0,-1,1875,1149,15.4524,-2.28979
658,-125,15.4948,2.25757,0.000885529,0.00181401,-0.000198603,0.00185471,0.000844832,-1.36868,0.00107223,0.0417766,1882,1149,15.4948,-2.25757
665,-125,15.6005,2.27734,7.37306e-05,0.000836542,0.000689098,0.00124274,-0.000332472,1.03816,0.000958733,0.0420374,1889,1149,15.6004,-2.27732
672,-125,15.5566,2.34729,-0.0012843,-0.000265426,0.00192776,0.00121907,-0.0027688,0.914577,0.00235964,0.043868,1896,1149,15.5567,-2.34729
679,-125,15.5018,2.36536,-0.00265634,-0.00126559,0.00307156,0.00118833,-0.00511026,0.896717,0.00386434,0.0382181,1903,1149,15.5018,-2.3654
686,-125,15.5808,2.3772,-0.00393961,-0.0021167,0.0040524,0.00112549,-0.00718179,0.896016,0.00520376,0.0350651,1910,1149,15.5809,-2.37714
693,-125,15.5507,2.35474,-0.00493683,-0.00269802,0.00477238,0.00108448,-0.00871933,0.900595,0.00620605,0.0355373,1917,1149,15.5507,-2.35476
700,-125,15.6215,2.37573,-0.00569038,-0.00320814,0.00528844,0.000982867,-0.00988138,0.900655,0.00693845,0.0187141,1924,1149,15.6214,-2.37573
707,-125,15.8433,2.56116,0,0,0,0,0,0,0,-1,1931,1149,15.8433,-2.5612
714,-125,15.171,3.26819,-0.00656846,-0.00356554,0.00577725,0.000902175,-0.0110362,0.912532,0.00767587,0.0361535,1938,1149,15.171,-3.26819
721,-125,14.8278,3.37427,-0.00645331,-0.00329998,0.00557217,0.000914289,-0.0106676,0.923271,0.00743524,0.0176769,1945,1149,14.8278,-3.37431
728,-125,14.8556,3.29041,-0.00596055,-0.0028399,0.00494268,0.000782884,-0.00958334,0.93829,0.0066652,0.0121413,1952,1149,14.8556,-3.29043
735,-125,14.8582,3.26001,-0.00503131,-0.00221191,0.00413462,0.000746724,-0.00798994,0.949693,0.00559218,0.015331,1959,1149,14.8582,-3.26
742,-125,14.8396,3.21436,-0.00350573,-0.00135338,0.00309141,0.000843818,-0.00570293,0.952896,0.00411219,0.0220424,1966,1149,14.8396,-3.2144
749,-125,14.8389,3.1228,-0.00140369,-0.000119769,0.00184708,0.00119373,-0.00271719,0.952645,0.00231437,0.0248463,1973,1149,14.8389,-3.12284
756,-125,14.8774,3.10889,0.00109644,0.00241071,0.00071984,0.00272825,0.000778896,1.15534,0.00162276,0.0209857,1980,1149,14.8774,-3.10889
763,-125,14.8556,3.04333,0.00341653,0.00569266,-0.000745761,0.00591524,0.00319395,-1.28075,0.0034188,0.0114233,1987,1149,14.8556,-3.04332
770,-125,14.8457,2.97412,0.00612517,0.00912779,-0.00188176,0.0100338,0.00521921,-1.1221,0.00579456,0.0130933,1994,1149,14.8457,-2.97408
777,-125,14.8373,2.89917,0.00868978,0.0135905,-0.00269388,0.0147818,0.00749854,-1.15445,0.00853455,0.023464,2001,1149,14.8373,-2.89922
784,-125,14.8368,2.84668,0.0114224,0.0197062,-0.00344534,0.0209519,0.0101767,-1.22387,0.0120982,0.0413514,2008,1149,14.8367,-2.84667
791,-125,15.1798,2.87451,0.014354,0.0279813,-0.00423999,0.0291928,0.0131425,-1.29248,0.0168823,0.0445716,2015,1149,15.1798,-2.87449
798,-125,15.5131,2.9458,0.0173491,0.0390192,-0.00505053,0.0401385,0.0162298,-1.3527,0.0233149,0.0437641,2022,1149,15.513,-2.94574
805,-125,16.3159,3.31323,0.020139,0.0535325,-0.0058505,0.0545279,0.0191437,-1.40228,0.0319437,0.0489582,2029,1149,16.3159,-3.31324
812,-125,16.9417,3.61816,0,0,0,0,0,0,0,-1,2036,1149,16.9417,-3.61812
-700,-132,0,0,0,0,0,0,0,0,0,-1,524,1156,0,0
-693,-132,-9.40613,0.279175,0,0,0,0,0,0,0,-1,531,1156,-9.40615,-0.27918
-686,-132,-9.14392,0.322632,0.037454,0.0623985,-0.0371725,0.0891353,0.0107171,-0.947259,0.0561929,0.0480819,538,1156,-9.14393,-0.322596
-679,-132,-9.21881,0.320068,0.0311991,0.0496388,-0.026118,0.0681166,0.0127214,-0.955074,0.0418206,0.046789,545,1156,-9.21878,-0.320116
-672,-132,-9.16046,0.454346,0.0247677,0.0388639,-0.0182415,0.0513716,0.01226,-0.969752,0.0309805,0.0429089,552,1156,-9.16045,-0.45433
-665,-132,-8.98853,0.547974,0.0186395,0.0298166,-0.012596,0.0380081,0.010448,-0.99419,0.0226732,0.0450014,559,1156,-8.98855,-0.547931
-658,-132,-8.90161,0.915283,0,0,0,0,0,0,0,-1,566,1156,-8.90159,-0.91525
-651,-132,-8.79749,0.846436,0.00866088,0.0162075,-0.00587516,0.0194167,0.00545169,-1.07085,0.0115639,0.0384051,573,1156,-8.79751,-0.846376
-644,-132,-8.69269,0.768921,0.0052018,0.0113818,-0.00402605,0.0133669,0.00321664,-1.1127,0.00805605,0.0205843,580,1156,-8.69271,-0.768938
-637,-132,-8.69165,0.810669,0.00218739,0.00757757,-0.00218862,0.0083543,0.00141065,-1.22977,0.00516395,0.0114674,587,1156,-8.69167,-0.81061
-630,-132,-8.70215,0.887207,0.000113949,0.00428698,-0.00210884,0.00516707,-0.000766142,-1.17544,0.00372644,0.00975305,594,1156,-8.70215,-0.887218
-623,-132,-8.72028,0.990356,-0.0020403,0.00194176,-0.00290847,0.00347541,-0.00357396,-1.08554,0.00407009,0.0147384,601,1156,-8.72026,-0.990355
-616,-132,-8.7486,1.08167,-0.00383864,0.000195514,-0.00466432,0.00326022,-0.00690334,-0.989479,0.00599227,0.019317,608,1156,-8.74859,-1.08165
-609,-132,-8.71387,1.11523,-0.00476424,-0.000858643,-0.005656,0.00317219,-0.00879507,-0.951622,0.00715901,0.0121456,615,1156,-8.71388,-1.11527
-602,-132,-8.7312,1.19629,-0.00541981,-0.00154669,-0.00698883,0.00376892,-0.0107354,-0.920554,0.0086901,0.0102566,622,1156,-8.73118,-1.1963
-595,-132,-8.73602,1.30994,-0.00625031,-0.00165561,-0.00779521,0.00417373,-0.0120797,-0.928698,0.00974691,0.0109725,629,1156,-8.736,-1.30996
-588,-132,-8.61731,1.49146,0,0,0,0,0,0,0,-1,636,1156,-8.61731,-1.49141
-581,-132,-8.84784,1.11768,-0.00765789,-0.00178205,-0.00821577,0.00400529,-0.0134452,-0.957111,0.010555,0.0360674,643,1156,-8.84785,-1.11766
-574,-132,-9.16187,0.698853,-0.00766188,-0.00159208,-0.00796859,0.00389998,-0.0131539,-0.967346,0.010318,0.0425956,650,1156,-9.16184,-0.698885
-567,-132,-9.47119,0.537231,-0.00743837,-0.00130946,-0.00725748,0.00350402,-0.0122519,-0.985167,0.00955259,0.0378972,657,1156,-9.47116,-0.537284
-560,-132,-9.60706,0.55957,-0.00683054,-0.000862498,-0.00590449,0.00276918,-0.0104622,-1.01937,0.00805806,0.0351348,664,1156,-9.60705,-0.559598
-553,-132,-9.69965,0.571411,-0.00562568,-0.000290662,-0.00383632,0.0017144,-0.00763074,-1.08919,0.00574455,0.0379661,671,1156,-9.69966,-0.571387
-546,-132,-9.81537,0.528809,-0.00372271,0.000354575,-0.00103822,0.000603721,-0.00397185,-1.33528,0.00287038,0.0417428,678,1156,-9.81537,-0.528775
-539,-132,-9.61346,0.616943,-0.00101775,0.00101548,0.00249308,0.00269125,-0.00269353,0.978994,0.00310891,0.0434561,685,1156,-9.61349,-0.61691
-532,-132,-9.52405,0.718506,0.00248479,0.0015484,0.00629002,0.00832402,-0.00429083,0.748249,0.00740623,0.0406161,692,1156,-9.52404,-0.718542
-525,-132,-9.51935,0.753784,0.00542394,0.00122822,0.00864338,0.0122204,-0.00556824,0.666344,0.0105069,0.0406462,699,1156,-9.51932,-0.753759
-518,-132,0,0,0,0,0,0,0,0,0,-1,706,1156,0,0
-511,-132,0,0,0,0,0,0,0,0,0,-1,713,1156,0,0
-504,-132,0,0,0,0,0,0,0,0,0,-1,720,1156,0,0
-497,-132,0,0,0,0,0,0,0,0,0,-1,727,1156,0,0
-490,-132,0,0,0,0,0,0,0,0,0,-1,734,1156,0,0
-483,-132,0,0,0,0,0,0,0,0,0,-1,741,1156,0,0
-476,-132,0,0,0,0,0,0,0,0,0,-1,748,1156,0,0
-469,-132,0,0,0,0,0,0,0,0,0,-1,755,1156,0,0
-462,-132,0,0,0,0,0,0,0,0,0,-1,762,1156,0,0
-455,-132,0,0,0,0,0,0,0,0,0,-1,769,1156,0,0
-448,-132,0,0,0,0,0,0,0,0,0,-1,776,1156,0,0
-441,-132,0,0,0,0,0,0,0,0,0,-1,783,1156,0,0
-434,-132,0,0,0,0,0,0,0,0,0,-1,790,1156,0,0
-427,-132,0,0,0,0,0,0,0,0,0,-1,797,1156,0,0
-420,-132,0,0,0,0,0,0,0,0,0,-1,804,1156,0,0
-413,-132,0,0,0,0,0,0,0,0,0,-1,811,1156,0,0
-406,-132,0,0,0,0,0,0,0,0,0,-1,818,1156,0,0
-399,-132,0,0,0,0,0,0,0,0,0,-1,825,1156,0,0
-392,-132,0,0,0,0,0,0,0,0,0,-1,832,1156,0,0
-385,-132,0,0,0,0,0,0,0,0,0,-1,839,1156,0,0
-378,-132,0,0,0,0,0,0,0,0,0,-1,846,1156,0,0
-371,-132,0,0,0,0,0,0,0,0,0,-1,853,1156,0,0
-364,-132,0,0,0,0,0,0,0,0,0,-1,860,1156,0,0
-357,-132,0,0,0,0,0,0,0,0,0,-1,867,1156,0,0
-350,-132,0,0,0,0,0,0,0,0,0,-1,874,1156,0,0
-343,-132,0,0,0,0,0,0,0,0,0,-1,881,1156,0,0
-336,-132,0,0,0,0,0,0,0,0,0,-1,888,1156,0,0
-329,-132,0,0,0,0,0,0,0,0,0,-1,895,1156,0,0
-322,-132,0,0,0,0,0,0,0,0,0,-1,902,1156,0,0
-315,-132,0,0,0,0,0,0,0,0,0,-1,909,1156,0,0
-308,-132,0,0,0,0,0,0,0,0,0,-1,916,1156,0,0
-301,-132,0,0,0,0,0,0,0,0,0,-1,923,1156,0,0
-294,-132,0,0,0,0,0,0,0,0,0,-1,930,1156,0,0
-287,-132,0,0,0,0,0,0,0,0,0,-1,937,1156,0,0
-280,-132,0,0,0,0,0,0,0,0,0,-1,944,1156,0,0
-273,-132,0,0,0,0,0,0,0,0,0,-1,951,1156,0,0
-266,-132,0,0,0,0,0,0,0,0,0,-1,958,1156,0,0
-259,-132,0,0,0,0,0,0,0,0,0,-1,965,1156,0,0
-252,-132,0,0,0,0,0,0,0,0,0,-1,972,1156,0,0
-245,-132,0,0,0,0,0,0,0,0,0,-1,979,1156,0,0
-238,-132,0,0,0,0,0,0,0,0,0,-1,986,1156,0,0
-231,-132,0,0,0,0,0,0,0,0,0,-1,993,1156,0,0
-224,-132,0,0,0,0,0,0,0,0,0,-1,1000,1156,0,0
-217,-132,0,0,0,0,0,0,0,0,0,-1,1007,1156,0,0
-210,-132,0,0,0,0,0,0,0,0,0,-1,1014,1156,0,0
-203,-132,0,0,0,0,0,0,0,0,0,-1,1021,1156,0,0
-196,-132,0,0,0,0,0,0,0,0,0,-1,1028,1156,0,0
-189,-132,0,0,0,0,0,0,0,0,0,-1,1035,1156,0,0
-182,-132,0,0,0,0,0,0,0,0,0,-1,1042,1156,0,0
-175,-132,0,0,0,0,0,0,0,0,0,-1,1049,1156,0,0
-168,-132,0,0,0,0,0,0,0,0,0,-1,1056,1156,0,0
-161,-132,0,0,0,0,0,0,0,0,0,-1,1063,1156,0,0
-154,-132,0,0,0,0,0,0,0,0,0,-1,1070,1156,0,0
-147,-132,0,0,0,0,0,0,0,0,0,-1,1077,1156,0,0
-140,-132,0,0,0,0,0,0,0,0,0,-1,1084,1156,0,0
-133,-132,0,0,0,0,0,0,0,0,0,-1,1091,1156,0,0
-126,-132,0,0,0,0,0,0,0,0,0,-1,1098,1156,0,0
-119,-132,0,0,0,0,0,0,0,0,0,-1,1105,1156,0,0
-112,-132,0,0,0,0,0,0,0,0,0,-1,1112,1156,0,0
-105,-132,0,0,0,0,0,0,0,0,0,-1,1119,1156,0,0
-98,-132,0,0,0,0,0,0,0,0,0,-1,1126,1156,0,0
-91,-132,0,0,0,0,0,0,0,0,0,-1,1133,1156,0,0
-84,-132,0,0,0,0,0,0,0,0,0,-1,1140,1156,0,0
-77,-132,0,0,0,0,0,0,0,0,0,-1,1147,1156,0,0
-70,-132,0,0,0,0,0,0,0,0,0,-1,1154,1156,0,0
-63,-132,0,0,0,0,0,0,0,0,0,-1,1161,1156,0,0
-56,-132,0,0,0,0,0,0,0,0,0,-1,1168,1156,0,0
-49,-132,0,0,0,0,0,0,0,0,0,-1,1175,1156,0,0
-42,-132,0,0,0,0,0,0,0,0,0,-1,1182,1156,0,0
-35,-132,0,0,0,0,0,0,0,0,0,-1,1189,1156,0,0
-28,-132,0,0,0,0,0,0,0,0,0,-1,1196,1156,0,0
-21,-132,0,0,0,0,0,0,0,0,0,-1,1203,1156,0,0
-14,-132,0,0,0,0,0,0,0,0,0,-1,1210,1156,0,0
-7,-132,0,0,0,0,0,0,0,0,0,-1,1217,1156,0,0
0,-132,0,0,0,0,0,0,0,0,0,-1,1224,1156,0,0
7,-132,0,0,0,0,0,0,0,0,0,-1,1231,1156,0,0
14,-132,0,0,0,0,0,0,0,0,0,-1,1238,1156,0,0
21,-132,0,0,0,0,0,0,0,0,0,-1,1245,1156,0,0
28,-132,0,0,0,0,0,0,0,0,0,-1,1252,1156,0,0
35,-132,0,0,0,0,0,0,0,0,0,-1,1259,1156,0,0
42,-132,0,0,0,0,0,0,0,0,0,-1,1266,1156,0,0
49,-132,0,0,0,0,0,0,0,0,0,-1,1273,1156,0,0
56,-132,0,0,0,0,0,0,0,0,0,-1,1280,1156,0,0
63,-132,0,0,0,0,0,0,0,0,0,-1,1287,1156,0,0
70,-132,0,0,0,0,0,0,0,0,0,-1,1294,1156,0,0
77,-132,0,0,0,0,0,0,0,0,0,-1,1301,1156,0,0
84,-132,0,0,0,0,0,0,0,0,0,-1,1308,1156,0,0
91,-132,0,0,0,0,0,0,0,0,0,-1,1315,1156,0,0
98,-132,0,0,0,0,0,0,0,0,0,-1,1322,1156,0,0
105,-132,0,0,0,0,0,0,0,0,0,-1,1329,1156,0,0
112,-132,0,0,0,0,0,0,0,0,0,-1,1336,1156,0,0
119,-132,0,0,0,0,0,0,0,0,0,-1,1343,1156,0,0
126,-132,0,0,0,0,0,0,0,0,0,-1,1350,1156,0,0
133,-132,0,0,0,0,0,0,0,0,0,-1,1357,1156,0,0
140,-132,0,0,0,0,0,0,0,0,0,-1,1364,1156,0,0
147,-132,0,0,0,0,0,0,0,0,0,-1,1371,1156,0,0
154,-132,0,0,0,0,0,0,0,0,0,-1,1378,1156,0,0
161,-132,0,0,0,0,0,0,0,0,0,-1,1385,1156,0,0
168,-132,0,0,0,0,0,0,0,0,0,-1,1392,1156,0,0
175,-132,0,0,0,0,0,0,0,0,0,-1,1399,1156,0,0
182,-132,0,0,0,0,0,0,0,0,0,-1,1406,1156,0,0
189,-132,0,0,0,0,0,0,0,0,0,-1,1413,1156,0,0
196,-132,0,0,0,0,0,0,0,0,0,-1,1420,1156,0,0
203,-132,0,0,0,0,0,0,0,0,0,-1,1427,1156,0,0
210,-132,0,0,0,0,0,0,0,0,0,-1,1434,1156,0,0
217,-132,0,0,0,0,0,0,0,0,0,-1,1441,1156,0,0
224,-132,0,0,0,0,0,0,0,0,0,-1,1448,1156,0,0
231,-132,0,0,0,0,0,0,0,0,0,-1,1455,1156,0,0
238,-132,0,0,0,0,0,0,0,0,0,-1,1462,1156,0,0
245,-132,0,0,0,0,0,0,0,0,0,-1,1469,1156,0,0
252,-132,0,0,0,0,0,0,0,0,0,-1,1476,1156,0,0
259,-132,0,0,0,0,0,0,0,0,0,-1,1483,1156,0,0
266,-132,0,0,0,0,0,0,0,0,0,-1,1490,1156,0,0
273,-132,0,0,0,0,0,0,0,0,0,-1,1497,1156,0,0
280,-132,0,0,0,0,0,0,0,0,0,-1,1504,1156,0,0
287,-132,0,0,0,0,0,0,0,0,0,-1,1511,1156,0,0
294,-132,0,0,0,0,0,0,0,0,0,-1,1518,1156,0,0
301,-132,0,0,0,0,0,0,0,0,0,-1,1525,1156,0,0
308,-132,0,0,0,0,0,0,0,0,0,-1,1532,1156,0,0
315,-132,0,0,0,0,0,0,0,0,0,-1,1539,1156,0,0
322,-132,0,0,0,0,0,0,0,0,0,-1,1546,1156,0,0
329,-132,0,0,0,0,0,0,0,0,0,-1,1553,1156,0,0
336,-132,0,0,0,0,0,0,0,0,0,-1,1560,1156,0,0
343,-132,0,0,0,0,0,0,0,0,0,-1,1567,1156,0,0
350,-132,0,0,0,0,0,0,0,0,0,-1,1574,1156,0,0
357,-132,0,0,0,0,0,0,0,0,0,-1,1581,1156,0,0
364,-132,0,0,0,0,0,0,0,0,0,-1,1588,1156,0,0
371,-132,0,0,0,0,0,0,0,0,0,-1,1595,1156,0,0
378,-132,0,0,0,0,0,0,0,0,0,-1,1602,1156,0,0
385,-132,0,0,0,0,0,0,0,0,0,-1,1609,1156,0,0
392,-132,0,0,0,0,0,0,0,0,0,-1,1616,1156,0,0
399,-132,0,0,0,0,0,0,0,0,0,-1,1623,1156,0,0
406,-132,0,0,0,0,0,0,0,0,0,-1,1630,1156,0,0
413,-132,0,0,0,0,0,0,0,0,0,-1,1637,1156,0,0
420,-132,0,0,0,0,0,0,0,0,0,-1,1644,1156,0,0
427,-132,0,0,0,0,0,0,0,0,0,-1,1651,1156,0,0
434,-132,0,0,0,0,0,0,0,0,0,-1,1658,1156,0,0
441,-132,0,0,0,0,0,0,0,0,0,-1,1665,1156,0,0
448,-132,0,0,0,0,0,0,0,0,0,-1,1672,1156,0,0
455,-132,0,0,0,0,0,0,0,0,0,-1,1679,1156,0,0
462,-132,0,0,0,0,0,0,0,0,0,-1,1686,1156,0,0
469,-132,0,0,0,0,0,0,0,0,0,-1,1693,1156,0,0
476,-132,0,0,0,0,0,0,0,0,0,-1,1700,1156,0,0
483,-132,0,0,0,0,0,0,0,0,0,-1,1707,1156,0,0
490,-132,0,0,0,0,0,0,0,0,0,-1,1714,1156,0,0
497,-132,0,0,0,0,0,0,0,0,0,-1,1721,1156,0,0
504,-132,0,0,0,0,0,0,0,0,0,-1,1728,1156,0,0
511,-132,0,0,0,0,0,0,0,0,0,-1,1735,1156,0,0
518,-132,0,0,0,0,0,0,0,0,0,-1,1742,1156,0,0
525,-132,0,0,0,0,0,0,0,0,0,-1,1749,1156,0,0
532,-132,0,0,0,0,0,0,0,0,0,-1,1756,1156,0,0
539,-132,0,0,0,0,0,0,0,0,0,-1,1763,1156,0,0
546,-132,0,0,0,0,0,0,0,0,0,-1,1770,1156,0,0
553,-132,0,0,0,0,0,0,0,0,0,-1,1777,1156,0,0
560,-132,0,0,0,0,0,0,0,0,0,-1,1784,1156,0,0
567,-132,0,0,0,0,0,0,0,0,0,-1,1791,1156,0,0
574,-132,0,0,0,0,0,0,0,0,0,-1,1798,1156,0,0
581,-132,0,0,0,0,0,0,0,0,0,-1,1805,1156,0,0
588,-132,0,0,0,0,0,0,0,0,0,-1,1812,1156,0,0
595,-132,0,0,0,0,0,0,0,0,0,-1,1819,1156,0,0
602,-132,0,0,0,0,0,0,0,0,0,-1,1826,1156,0,0
609,-132,0,0,0,0,0,0,0,0,0,-1,1833,1156,0,0
616,-132,0,0,0,0,0,0,0,0,0,-1,1840,1156,0,0
623,-132,0,0,0,0,0,0,0,0,0,-1,1847,1156,0,0
630,-132,0,0,0,0,0,0,0,0,0,-1,1854,1156,0,0
637,-132,0,0,0,0,0,0,0,0,0,-1,1861,1156,0,0
644,-132,15.5995,2.58154,-0.000590261,0.00252521,9.53447e-05,0.00252813,-0.000593176,1.54023,0.00191403,0.043442,1868,1156,15.5995,-2.58153
651,-132,15.6187,2.61816,-0.000205523,0.00213765,0.000113584,0.00214315,-0.000211016,1.52247,0.00150405,0.0413538,1875,1156,15.6186,-2.6182
658,-132,15.6194,2.38708,6.17117e-05,0.00179409,0.000190114,0.0018147,4.10936e-05,1.46277,0.00119634,0.0415068,1882,1156,15.6194,-2.38712
665,-132,15.5358,2.35303,-0.000600669,0.000848804,0.00100613,0.00136404,-0.00111591,1.09752,0.00143419,0.0404299,1889,1156,15.5357,-2.35302
672,-132,15.4945,2.31323,-0.00175887,-0.000175093,0.0020534,0.00123382,-0.00316779,0.969435,0.00262176,0.0378752,1896,1156,15.4946,-2.31329
679,-132,15.5276,2.32178,-0.00293952,-0.00110587,0.00299541,0.00110988,-0.00515527,0.93391,0.00386036,0.0365882,1903,1156,15.5276,-2.32179
686,-132,15.6184,2.39648,-0.0040507,-0.00189704,0.00378982,0.000965963,-0.0069137,0.923818,0.00496256,0.0352262,1910,1156,15.6184,-2.39647
693,-132,15.5621,2.3783,-0.00489801,-0.00242189,0.00434414,0.000857167,-0.00817707,0.924215,0.00575841,0.0297968,1917,1156,15.5621,-2.37828
700,-132,15.6401,2.37622,-0.00553291,-0.0029302,0.0047525,0.000695888,-0.00915901,0.919035,0.00635069,0.0323908,1924,1156,15.6402,-2.37619
707,-132,15.5719,2.6947,-0.00601383,-0.00327019,0.00502185,0.000563839,-0.00984786,0.918731,0.00676103,0.0495472,1931,1156,15.5719,-2.69473
714,-132,15.6123,3.11487,0,0,0,0,0,0,0,-1,1938,1156,15.6123,-3.11487
721,-132,14.7495,3.39758,-0.00620997,-0.00307836,0.00492656,0.000525233,-0.00981357,0.939265,0.0067243,0.0226865,1945,1156,14.7495,-3.39755
728,-132,14.7759,3.3158,-0.00567813,-0.00266344,0.00432401,0.000408429,-0.00875,0.953111,0.00597413,0.0132418,1952,1156,14.7759,-3.31581
735,-132,14.7791,3.25745,-0.00472138,-0.00207532,0.00353227,0.000373562,-0.00717026,0.964588,0.00490943,0.0156342,1959,1156,14.7791,-3.25742
742,-132,14.7524,3.18811,-0.00319963,-0.00122566,0.00247096,0.000448143,-0.00487343,0.975408,0.00340817,0.0195266,1966,1156,14.7524,-3.18815
749,-132,14.7643,3.13281,-0.00107921,-0.000133413,0.00113949,0.00062741,-0.00184004,0.982088,0.00148082,0.0244595,1973,1156,14.7643,-3.13276
756,-132,14.8248,3.07947,0.00157334,0.00214659,-0.000109181,0.00216668,0.00155325,-1.38882,0.00128956,0.0236558,1980,1156,14.8249,-3.07941
763,-132,14.8008,3.02441,0.00410293,0.00490767,-0.00179629,0.00634611,0.00266449,-0.895579,0.00367958,0.0132389,1987,1156,14.8008,-3.02437
770,-132,14.7975,2.97852,0.00698702,0.00780525,-0.00317654,0.0105989,0.00419336,-0.849442,0.00616356,0.0123857,1994,1156,14.7975,-2.97854
777,-132,14.7883,2.87683,0.00990501,0.011582,-0.0044248,0.0152471,0.00623997,-0.87904,0.0088511,0.0212275,2001,1156,14.7883,-2.87685
784,-132,14.8082,2.71704,0.0132235,0.0167911,-0.00579635,0.0210719,0.0089427,-0.934669,0.0122122,0.0432184,2008,1156,14.8082,-2.71705
791,-132,15.0892,2.55847,0.0169654,0.0238905,-0.00733113,0.0285356,0.0123202,-1.00602,0.0165261,0.0493293,2015,1156,15.0893,-2.55849
798,-132,15.5176,2.65515,0.0210604,0.0334782,-0.00898287,0.0381891,0.0163495,-1.0878,0.0221243,0.0476289,2022,1156,15.5175,-2.65518
805,-132,16.1167,2.99268,0.0253335,0.046276,-0.0106537,0.0507429,0.0208666,-1.17378,0.0294499,0.0450278,2029,1156,16.1167,-2.99268
812,-132,16.7078,3.22644,0,0,0,0,0,0,0,-1,2036,1156,16.7079,-3.22647
-700,-139,0,0,0,0,0,0,0,0,0,-1,524,1163,0,0
-693,-139,-8.46832,-2.05823,0,0,0,0,0,0,0,-1,531,1163,-8.46829,2.05824
-686,-139,-8.38965,-0.407471,0,0,0,0,0,0,0,-1,538,1163,-8.38963,0.407459
-679,-139,-8.87781,0.0979004,0,0,0,0,0,0,0,-1,545,1163,-8.87778,-0.0979496
-672,-139,-8.65759,-0.0358887,0,0,0,0,0,0,0,-1,552,1163,-8.65758,0.0358541
-665,-139,-8.57281,0.0601807,0.0163406,0.0315635,-0.0120565,0.0382102,0.00969397,-1.06696,0.0229355,0.0456647,559,1163,-8.57283,-0.0601599
-658,-139,-8.47675,0.174316,0.011239,0.0233852,-0.00824801,0.0275548,0.00706942,-1.10274,0.0165253,0.0451436,566,1163,-8.47674,-0.174346
-651,-139,-8.55414,0.502441,0.00708253,0.0168055,-0.00566253,0.0194071,0.00448088,-1.14011,0.0117332,0.038733,573,1163,-8.55417,-0.502492
-644,-139,-8.62042,0.734741,0.00395672,0.0116622,-0.00393748,0.0133183,0.00230063,-1.17266,0.00822004,0.0207075,580,1163,-8.62042,-0.734764
-637,-139,-8.60504,0.796387,0.00141255,0.00770252,-0.00233925,0.0084771,0.000637965,-1.25103,0.0054512,0.0120853,587,1163,-8.60506,-0.796395
-630,-139,-8.61615,0.869385,-0.000320565,0.00423377,-0.00212591,0.00507188,-0.00115868,-1.19527,0.00382641,0.010729,594,1163,-8.61615,-0.869332
-623,-139,-8.62537,0.962769,-0.00222357,0.00189974,-0.00289426,0.00339156,-0.00371539,-1.09487,0.00410462,0.0167378,601,1163,-8.62534,-0.962709
-616,-139,-8.65027,1.01123,-0.00393871,0.000175309,-0.00459406,0.00315186,-0.00691526,-0.99589,0.00594609,0.0178538,608,1163,-8.65026,-1.0112
-609,-139,-8.64655,1.11304,-0.00499411,-0.000901926,-0.00569893,0.00310709,-0.00900312,-0.957747,0.0072628,0.0204114,615,1163,-8.64655,-1.11298
-602,-139,-8.65649,1.21863,-0.0056897,-0.00153495,-0.0070295,0.0037177,-0.0109424,-0.92907,0.00879992,0.0118192,622,1163,-8.65649,-1.21861
-595,-139,-8.66571,1.32336,-0.00647479,-0.00156588,-0.00788555,0.00423837,-0.012279,-0.936275,0.00990582,0.0102792,629,1163,-8.66573,-1.32338
-588,-139,-8.60284,1.43225,-0.00733556,-0.00163882,-0.00831405,0.00430124,-0.0132756,-0.95043,0.0105797,0.0138146,636,1163,-8.60283,-1.43231
-581,-139,-8.5899,1.26184,-0.00786825,-0.00166691,-0.00845138,0.00423464,-0.0137698,-0.961216,0.0108699,0.0326421,643,1163,-8.58992,-1.26182
-574,-139,-8.94574,0.731445,-0.00786213,-0.00145141,-0.00827061,0.00421326,-0.0135268,-0.970267,0.0107024,0.0416911,650,1163,-8.94576,-0.731468
-567,-139,-9.42053,0.281372,0,0,0,0,0,0,0,-1,657,1163,-9.42053,-0.28138
-560,-139,-9.58191,0.626343,-0.00699142,-0.000761596,-0.006348,0.00319454,-0.0109476,-1.01348,0.00856418,0.0338588,664,1163,-9.58193,-0.626336
-553,-139,-9.54498,0.562134,-0.00571419,-0.000223987,-0.00435395,0.00217799,-0.00811617,-1.06667,0.00626428,0.036125,671,1163,-9.54498,-0.562174
-546,-139,-9.51727,0.391357,-0.00368424,0.000366794,-0.00161157,0.000929691,-0.00424713,-1.23476,0.00318685,0.0409135,678,1163,-9.51726,-0.391366
-539,-139,-9.43884,0.510254,-0.000820633,0.000952746,0.00189298,0.00215642,-0.0020243,1.00443,0.00241414,0.0413978,685,1163,-9.43883,-0.510201
-532,-139,-9.34821,0.417236,0.00293964,0.0014237,0.00584565,0.00807625,-0.00371291,0.720926,0.00696014,0.0392001,692,1163,-9.34818,-0.417214
-525,-139,-9.39691,0.526611,0.00642139,0.00113605,0.00882238,0.0129884,-0.00543095,0.63988,0.0109287,0.0412267,699,1163,-9.39691,-0.526567
-518,-139,0,0,0,0,0,0,0,0,0,-1,706,1163,0,0
-511,-139,0,0,0,0,0,0,0,0,0,-1,713,1163,0,0
-504,-139,0,0,0,0,0,0,0,0,0,-1,720,1163,0,0
-497,-139,0,0,0,0,0,0,0,0,0,-1,727,1163,0,0
-490,-139,0,0,0,0,0,0,0,0,0,-1,734,1163,0,0
-483,-139,0,0,0,0,0,0,0,0,0,-1,741,1163,0,0
-476,-139,0,0,0,0,0,0,0,0,0,-1,748,1163,0,0
-469,-139,0,0,0,0,0,0,0,0,0,-1,755,1163,0,0
-462,-139,0,0,0,0,0,0,0,0,0,-1,762,1163,0,0
-455,-139,0,0,0,0,0,0,0,0,0,-1,769,1163,0,0
-448,-139,0,0,0,0,0,0,0,0,0,-1,776,1163,0,0
-441,-139,0,0,0,0,0,0,0,0,0,-1,783,1163,0,0
-434,-139,0,0,0,0,0,0,0,0,0,-1,790,1163,0,0
-427,-139,0,0,0,0,0,0,0,0,0,-1,797,1163,0,0
-420,-139,0,0,0,0,0,0,0,0,0,-1,804,1163,0,0
-413,-139,0,0,0,0,0,0,0,0,0,-1,811,1163,0,0
-406,-139,0,0,0,0,0,0,0,0,0,-1,818,1163,0,0
-399,-139,0,0,0,0,0,0,0,0,0,-1,825,1163,0,0
-392,-139,0,0,0,0,0,0,0,0,0,-1,832,1163,0,0
-385,-139,0,0,0,0,0,0,0,0,0,-1,839,1163,0,0
-378,-139,0,0,0,0,0,0,0,0,0,-1,846,1163,0,0
-371,-139,0,0,0,0,0,0,0,0,0,-1,853,1163,0,0
-364,-139,0,0,0,0,0,0,0,0,0,-1,860,1163,0,0
-357,-139,0,0,0,0,0,0,0,0,0,-1,867,1163,0,0
-350,-139,0,0,0,0,0,0,0,0,0,-1,874,1163,0,0
-343,-139,0,0,0,0,0,0,0,0,0,-1,881,1163,0,0
-336,-139,0,0,0,0,0,0,0,0,0,-1,888,1163,0,0
-329,-139,0,0,0,0,0,0,0,0,0,-1,895,1163,0,0
-322,-139,0,0,0,0,0,0,0,0,0,-1,902,1163,0,0
-315,-139,0,0,0,0,0,0,0,0,0,-1,909,1163,0,0
-308,-139,0,0,0,0,0,0,0,0,0,-1,916,1163,0,0
-301,-139,0,0,0,0,0,0,0,0,0,-1,923,1163,0,0
-294,-139,0,0,0,0,0,0,0,0,0,-1,930,1163,0,0
-287,-139,0,0,0,0,0,0,0,0,0,-1,937,1163,0,0
-280,-139,0,0,0,0,0,0,0,0,0,-1,944,1163,0,0
-273,-139,0,0,0,0,0,0,0,0,0,-1,951,1163,0,0
-266,-139,0,0,0,0,0,0,0,0,0,-1,958,1163,0,0
-259,-139,0,0,0,0,0,0,0,0,0,-1,965,1163,0,0
-252,-139,0,0,0,0,0,0,0,0,0,-1,972,1163,0,0
-245,-139,0,0,0,0,0,0,0,0,0,-1,979,1163,0,0
-238,-139,0,0,0,0,0,0,0,0,0,-1,986,1163,0,0
-231,-139,0,0,0,0,0,0,0,0,0,-1,993,1163,0,0
-224,-139,0,0,0,0,0,0,0,0,0,-1,1000,1163,0,0
-217,-139,0,0,0,0,0,0,0,0,0,-1,1007,1163,0,0
-210,-139,0,0,0,0,0,0,0,0,0,-1,1014,1163,0,0
-203,-139,0,0,0,0,0,0,0,0,0,-1,1021,1163,0,0
-196,-139,0,0,0,0,0,0,0,0,0,-1,1028,1163,0,0
-189,-139,0,0,0,0,0,0,0,0,0,-1,1035,1163,0,0
-182,-139,0,0,0,0,0,0,0,0,0,-1,1042,1163,0,0
-175,-139,0,0,0,0,0,0,0,0,0,-1,1049,1163,0,0
-168,-139,0,0,0,0,0,0,0,0,0,-1,1056,1163,0,0
-161,-139,0,0,0,0,0,0,0,0,0,-1,1063,1163,0,0
-154,-139,0,0,0,0,0,0,0,0,0,-1,1070,1163,0,0
-147,-139,0,0,0,0,0,0,0,0,0,-1,1077,1163,0,0
-140,-139,0,0,0,0,0,0,0,0,0,-1,1084,1163,0,0
-133,-139,0,0,0,0,0,0,0,0,0,-1,1091,1163,0,0
-126,-139,0,0,0,0,0,0,0,0,0,-1,1098,1163,0,0
-119,-139,0,0,0,0,0,0,0,0,0,-1,1105,1163,0,0
-112,-139,0,0,0,0,0,0,0,0,0,-1,1112,1163,0,0
-105,-139,0,0,0,0,0,0,0,0,0,-1,1119,1163,0,0
-98,-139,0,0,0,0,0,0,0,0,0,-1,1126,1163,0,0
-91,-139,0,0,0,0,0,0,0,0,0,-1,1133,1163,0,0
-84,-139,0,0,0,0,0,0,0,0,0,-1,1140,1163,0,0
-77,-139,0,0,0,0,0,0,0,0,0,-1,1147,1163,0,0
-70,-139,0,0,0,0,0,0,0,0,0,-1,1154,1163,0,0
-63,-139,0,0,0,0,0,0,0,0,0,-1,1161,1163,0,0
-56,-139,0,0,0,0,0,0,0,0,0,-1,1168,1163,0,0
-49,-139,0,0,0,0,0,0,0,0,0,-1,1175,1163,0,0
-42,-139,0,0,0,0,0,0,0,0,0,-1,1182,1163,0,0
-35,-139,0,0,0,0,0,0,0,0,0,-1,1189,1163,0,0
-28,-139,0,0,0,0,0,0,0,0,0,-1,1196,1163,0,0
-21,-139,0,0,0,0,0,0,0,0,0,-1,1203,1163,0,0
-14,-139,0,0,0,0,0,0,0,0,0,-1,1210,1163,0,0
-7,-139,0,0,0,0,0,0,0,0,0,-1,1217,1163,0,0
0,-139,0,0,0,0,0,0,0,0,0,-1,1224,1163,0,0
7,-139,0,0,0,0,0,0,0,0,0,-1,1231,1163,0,0
14,-139,0,0,0,0,0,0,0,0,0,-1,1238,1163,0,0
21,-139,0,0,0,0,0,0,0,0,0,-1,1245,1163,0,0
28,-139,0,0,0,0,0,0,0,0,0,-1,1252,1163,0,0
35,-139,0,0,0,0,0,0,0,0,0,-1,1259,1163,0,0
42,-139,0,0,0,0,0,0,0,0,0,-1,1266,1163,0,0
49,-139,0,0,0,0,0,0,0,0,0,-1,1273,1163,0,0
56,-139,0,0,0,0,0,0,0,0,0,-1,1280,1163,0,0
63,-139,0,0,0,0,0,0,0,0,0,-1,1287,1163,0,0
70,-139,0,0,0,0,0,0,0,0,0,-1,1294,1163,0,0
77,-139,0,0,0,0,0,0,0,0,0,-1,1301,1163,0,0
84,-139,0,0,0,0,0,0,0,0,0,-1,1308,1163,0,0
91,-139,0,0,0,0,0,0,0,0,0,-1,1315,1163,0,0
98,-139,0,0,0,0,0,0,0,0,0,-1,1322,1163,0,0
105,-139,0,0,0,0,0,0,0,0,0,-1,1329,1163,0,0
112,-139,0,0,0,0,0,0,0,0,0,-1,1336,1163,0,0
119,-139,0,0,0,0,0,0,0,0,0,-1,1343,1163,0,0
126,-139,0,0,0,0,0,0,0,0,0,-1,1350,1163,0,0
133,-139,0,0,0,0,0,0,0,0,0,-1,1357,1163,0,0
140,-139,0,0,0,0,0,0,0,0,0,-1,1364,1163,0,0
147,-139,0,0,0,0,0,0,0,0,0,-1,1371,1163,0,0
154,-139,0,0,0,0,0,0,0,0,0,-1,1378,1163,0,0
161,-139,0,0,0,0,0,0,0,0,0,-1,1385,1163,0,0
168,-139,0,0,0,0,0,0,0,0,0,-1,1392,1163,0,0
175,-139,0,0,0,0,0,0,0,0,0,-1,1399,1163,0,0
182,-139,0,0,0,0,0,0,0,0,0,-1,1406,1163,0,0
189,-139,0,0,0,0,0,0,0,0,0,-1,1413,1163,0,0
196,-139,0,0,0,0,0,0,0,0,0,-1,1420,1163,0,0
203,-139,0,0,0,0,0,0,0,0,0,-1,1427,1163,0,0
210,-139,0,0,0,0,0,0,0,0,0,-1,1434,1163,0,0
217,-139,0,0,0,0,0,0,0,0,0,-1,1441,1163,0,0
224,-139,0,0,0,0,0,0,0,0,0,-1,1448,1163,0,0
231,-139,0,0,0,0,0,0,0,0,0,-1,1455,1163,0,0
238,-139,0,0,0,0,0,0,0,0,0,-1,1462,1163,0,0
245,-139,0,0,0,0,0,0,0,0,0,-1,1469,1163,0,0
252,-139,0,0,0,0,0,0,0,0,0,-1,1476,1163,0,0
259,-139,0,0,0,0,0,0,0,0,0,-1,1483,1163,0,0
266,-139,0,0,0,0,0,0,0,0,0,-1,1490,1163,0,0
273,-139,0,0,0,0,0,0,0,0,0,-1,1497,1163,0,0
280,-139,0,0,0,0,0,0,0,0,0,-1,1504,1163,0,0
287,-139,0,0,0,0,0,0,0,0,0,-1,1511,1163,0,0
294,-139,0,0,0,0,0,0,0,0,0,-1,1518,1163,0,0
301,-139,0,0,0,0,0,0,0,0,0,-1,1525,1163,0,0
308,-139,0,0,0,0,0,0,0,0,0,-1,1532,1163,0,0
315,-139,0,0,0,0,0,0,0,0,0,-1,1539,1163,0,0
322,-139,0,0,0,0,0,0,0,0,0,-1,1546,1163,0,0
329,-139,0,0,0,0,0,0,0,0,0,-1,1553,1163,0,0
336,-139,0,0,0,0,0,0,0,0,0,-1,1560,1163,0,0
343,-139,0,0,0,0,0,0,0,0,0,-1,1567,1163,0,0
350,-139,0,0,0,0,0,0,0,0,0,-1,1574,1163,0,0
357,-139,0,0,0,0,0,0,0,0,0,-1,1581,1163,0,0
364,-139,0,0,0,0,0,0,0,0,0,-1,1588,1163,0,0
371,-139,0,0,0,0,0,0,0,0,0,-1,1595,1163,0,0
378,-139,0,0,0,0,0,0,0,0,0,-1,1602,1163,0,0
385,-139,0,0,0,0,0,0,0,0,0,-1,1609,1163,0,0
392,-139,0,0,0,0,0,0,0,0,0,-1,1616,1163,0,0
399,-139,0,0,0,0,0,0,0,0,0,-1,1623,1163,0,0
406,-139,0,0,0,0,0,0,0,0,0,-1,1630,1163,0,0
413,-139,0,0,0,0,0,0,0,0,0,-1,1637,1163,0,0
420,-139,0,0,0,0,0,0,0,0,0,-1,1644,1163,0,0
427,-139,0,0,0,0,0,0,0,0,0,-1,1651,1163,0,0
434,-139,0,0,0,0,0,0,0,0,0,-1,1658,1163,0,0
441,-139,0,0,0,0,0,0,0,0,0,-1,1665,1163,0,0
448,-139,0,0,0,0,0,0,0,0,0,-1,1672,1163,0,0
455,-139,0,0,0,0,0,0,0,0,0,-1,1679,1163,0,0
462,-139,0,0,0,0,0,0,0,0,0,-1,1686,1163,0,0
469,-139,0,0,0,0,0,0,0,0,0,-1,1693,1163,0,0
476,-139,0,0,0,0,0,0,0,0,0,-1,1700,1163,0,0
483,-139,0,0,0,0,0,0,0,0,0,-1,1707,1163,0,0
490,-139,0,0,0,0,0,0,0,0,0,-1,1714,1163,0,0
497,-139,0,0,0,0,0,0,0,0,0,-1,1721,1163,0,0
504,-139,0,0,0,0,0,0,0,0,0,-1,1728,1163,0,0
511,-139,0,0,0,0,0,0,0,0,0,-1,1735,1163,0,0
518,-139,0,0,0,0,0,0,0,0,0,-1,1742,1163,0,0
525,-139,0,0,0,0,0,0,0,0,0,-1,1749,1163,0,0
532,-139,0,0,0,0,0,0,0,0,0,-1,1756,1163,0,0
539,-139,0,0,0,0,0,0,0,0,0,-1,1763,1163,0,0
546,-139,0,0,0,0,0,0,0,0,0,-1,1770,1163,0,0
553,-139,0,0,0,0,0,0,0,0,0,-1,1777,1163,0,0
560,-139,0,0,0,0,0,0,0,0,0,-1,1784,1163,0,0
567,-139,0,0,0,0,0,0,0,0,0,-1,1791,1163,0,0
574,-139,0,0,0,0,0,0,0,0,0,-1,1798,1163,0,0
581,-139,0,0,0,0,0,0,0,0,0,-1,1805,1163,0,0
588,-139,0,0,0,0,0,0,0,0,0,-1,1812,1163,0,0
595,-139,0,0,0,0,0,0,0,0,0,-1,1819,1163,0,0
602,-139,0,0,0,0,0,0,0,0,0,-1,1826,1163,0,0
609,-139,0,0,0,0,0,0,0,0,0,-1,1833,1163,0,0
616,-139,0,0,0,0,0,0,0,0,0,-1,1840,1163,0,0
623,-139,0,0,0,0,0,0,0,0,0,-1,1847,1163,0,0
630,-139,0,0,0,0,0,0,0,0,0,-1,1854,1163,0,0
637,-139,0,0,0,0,0,0,0,0,0,-1,1861,1163,0,0
644,-139,15.6646,2.23523,-0.00207898,0.00228034,0.000214952,0.00229092,-0.00208956,1.52165,0.00252996,0.0386747,1868,1163,15.6645,-2.23524
651,-139,15.6249,2.3302,-0.00125201,0.00201376,0.000203549,0.0020264,-0.00126465,1.50879,0.00191698,0.0407675,1875,1163,15.6249,-2.33023
658,-139,15.6356,2.35547,-0.00073546,0.00173256,0.000343228,0.00177941,-0.000782303,1.43515,0.00151589,0.0416965,1882,1163,15.6356,-2.35548
665,-139,15.5472,2.44678,-0.00122552,0.000859674,0.00113732,0.00135996,-0.00172581,1.15639,0.00178574,0.0393308,1889,1163,15.5472,-2.44681
672,-139,15.5839,2.38855,-0.00216675,-6.4245e-05,0.00204898,0.00118742,-0.00341842,1.02242,0.00276121,0.0359245,1896,1163,15.5839,-2.38855
679,-139,15.6292,2.27686,-0.00316517,-0.00091859,0.00285196,0.00102332,-0.00510708,0.973002,0.00379213,0.0331076,1903,1163,15.6292,-2.27691
686,-139,15.6508,2.38684,-0.00411477,-0.00165326,0.00351715,0.000842256,-0.00661029,0.953705,0.00471277,0.0328355,1910,1163,15.6508,-2.38679
693,-139,15.608,2.3728,-0.0048266,-0.00212529,0.0039557,0.000703983,-0.00765587,0.949915,0.00535402,0.0238673,1917,1163,15.608,-2.37275
700,-139,15.7505,2.4054,-0.00535325,-0.00261793,0.00429058,0.000517692,-0.00848887,0.939687,0.00583947,0.0465464,1924,1163,15.7505,-2.40537
707,-139,15.1587,2.97522,-0.00575625,-0.00296373,0.00451452,0.000365517,-0.00908549,0.935374,0.00618244,0.0256405,1931,1163,15.1587,-2.97526
714,-139,14.7296,3.45166,-0.00605714,-0.00302694,0.00459434,0.000295671,-0.00937975,0.94467,0.00635402,0.0248876,1938,1163,14.7296,-3.4517
721,-139,14.7263,3.38452,-0.00595177,-0.00282564,0.00436592,0.000248584,-0.009026,0.957296,0.00610188,0.0195492,1945,1163,14.7263,-3.38447
728,-139,14.7445,3.3197,-0.00538432,-0.00245395,0.0037908,0.000144969,-0.00798324,0.96981,0.00537113,0.0201132,1952,1163,14.7445,-3.31973
735,-139,14.7251,3.25964,-0.00440376,-0.00191628,0.00301072,9.74822e-05,-0.00641752,0.981274,0.00431121,0.016165,1959,1163,14.725,-3.2597
742,-139,14.7198,3.15076,-0.00286574,-0.00108311,0.00192553,0.000147392,-0.00409624,1.00216,0.00278126,0.0210859,1966,1163,14.7199,-3.15072
749,-139,14.7189,3.09595,-0.000707412,-8.61177e-05,0.000528225,0.000216034,-0.00100956,1.05121,0.000755422,0.0185968,1973,1163,14.7189,-3.09589
756,-139,14.7146,3.05786,0.00208062,0.00194922,-0.000809789,0.00282737,0.00120247,-0.744919,0.00163844,0.01131,1980,1163,14.7147,-3.05786
763,-139,14.7151,2.99939,0.00479789,0.00413091,-0.00263118,0.00711663,0.00181217,-0.722362,0.00427051,0.0105664,1987,1163,14.7151,-2.99942
770,-139,14.7181,2.94385,0.00785505,0.00644472,-0.0041939,0.0114026,0.00289712,-0.702107,0.00684362,0.0111245,1994,1163,14.7181,-2.94383
777,-139,14.7096,2.86902,0.0111449,0.00943211,-0.00580098,0.0161523,0.00442463,-0.712115,0.00963805,0.0209813,2001,1163,14.7096,-2.869
784,-139,14.8241,2.64429,0.015045,0.0135249,-0.00767554,0.021998,0.00657185,-0.736047,0.013039,0.0403595,2008,1163,14.8241,-2.64427
791,-139,14.9236,2.44226,0,0,0,0,0,0,0,-1,2015,1163,14.9236,-2.44228
798,-139,14.8303,1.12708,0,0,0,0,0,0,0,-1,2022,1163,14.8303,-1.12706
805,-139,15.0145,0.785889,0,0,0,0,0,0,0,-1,2029,1163,15.0145,-0.785839
812,-139,0,0,0,0,0,0,0,0,0,-1,2036,1163,0,0
-700,-146,0,0,0,0,0,0,0,0,0,-1,524,1170,0,0
-693,-146,-8.53217,0.361938,0,0,0,0,0,0,0,-1,531,1170,-8.53219,-0.361999
-686,-146,-8.64374,0.164917,0.0260397,0.0702763,-0.0299565,0.0853952,0.0109208,-1.1034,0.0536616,0.0484945,538,1170,-8.64376,-0.164972
-679,-146,-8.6109,-0.111938,0,0,0,0,0,0,0,-1,545,1170,-8.6109,0.111965
-672,-146,-8.48956,-0.17627,0.0175529,0.0434528,-0.0149629,0.0502915,0.0107143,-1.1421,0.0305882,0.0431952,552,1170,-8.48956,0.176233
-665,-146,-8.2699,-0.239014,0.0129635,0.0330866,-0.0105698,0.0376181,0.008432,-1.16578,0.022794,0.0463517,559,1170,-8.26991,0.239008
-658,-146,-8.18195,-0.101807,0.00884261,0.0244999,-0.00752068,0.0275271,0.00581547,-1.18813,0.0167528,0.0447845,566,1170,-8.18196,0.101789
-651,-146,-8.39844,0.42334,0.00544728,0.0175608,-0.00543812,0.0196439,0.00336417,-1.20498,0.0121311,0.0364564,573,1170,-8.39846,-0.423383
-644,-146,-8.505,0.718506,0.00285774,0.0121391,-0.00401228,0.0136331,0.00136374,-1.21435,0.00866999,0.0188949,580,1170,-8.50499,-0.718565
-637,-146,-8.49146,0.774902,0.0010993,0.00802658,-0.00287761,0.00906599,5.98896e-05,-1.22417,0.00602413,0.0104317,587,1170,-8.49146,-0.774862
-630,-146,-8.51184,0.864746,-0.00019158,0.00437917,-0.00248313,0.00546854,-0.00128094,-1.15737,0.00413927,0.010457,594,1170,-8.51187,-0.864743
-623,-146,-8.52948,0.956909,-0.00205355,0.00205581,-0.00309799,0.00371856,-0.0037163,-1.07821,0.00429251,0.0126465,601,1170,-8.5295,-0.956942
-616,-146,-8.55365,1.03723,-0.00387007,0.000318942,-0.00459371,0.00327312,-0.00682424,-0.999294,0.00594867,0.0193099,608,1170,-8.55364,-1.03719
-609,-146,-8.51672,1.12488,-0.00514122,-0.000794329,-0.0056527,0.00308837,-0.00902391,-0.968933,0.00726753,0.0182421,615,1170,-8.5167,-1.12483
-602,-146,-8.5199,1.25598,-0.00584594,-0.00142245,-0.0069318,0.00364191,-0.0109103,-0.939829,0.00874407,0.0197364,622,1170,-8.5199,-1.25595
-595,-146,-8.58917,1.3241,-0.00656659,-0.00143127,-0.00779617,0.00420919,-0.012207,-0.944478,0.00984572,0.0114883,629,1170,-8.58915,-1.32408
-588,-146,-8.53516,1.42798,-0.00739041,-0.00151221,-0.00825608,0.00431232,-0.0132149,-0.9564,0.0105455,0.0123597,636,1170,-8.53515,-1.428
-581,-146,-8.4339,1.44446,-0.00788288,-0.00156249,-0.00846777,0.00431557,-0.0137609,-0.963995,0.010901,0.0247846,643,1170,-8.43393,-1.44449
-574,-146,-8.90869,0.842163,-0.00784007,-0.00135559,-0.00835313,0.00436247,-0.0135581,-0.970521,0.010791,0.0413061,650,1170,-8.90869,-0.842134
-567,-146,-9.47382,0.393433,0,0,0,0,0,0,0,-1,657,1170,-9.47383,-0.393414
-560,-146,-9.55249,0.678223,-0.00692672,-0.000792625,-0.00662068,0.00343692,-0.0111563,-1.00231,0.00880953,0.0362887,664,1170,-9.55251,-0.67826
-553,-146,-9.50311,0.703491,-0.00560571,-0.000337119,-0.00476092,0.00246971,-0.00841255,-1.03809,0.00658777,0.0341698,671,1170,-9.50313,-0.70347
-546,-146,-9.4588,0.71814,-0.00352433,0.000147479,-0.0021574,0.0011444,-0.00452125,-1.13793,0.00345932,0.0387895,678,1170,-9.45881,-0.718155
-539,-146,-9.51141,0.624512,-0.000638862,0.000607249,0.00121208,0.00134704,-0.00137865,1.02281,0.00157371,0.0395294,685,1170,-9.51139,-0.624522
-532,-146,-9.48645,0.453247,0.00314137,0.00096301,0.00516266,0.0073285,-0.00322412,0.681436,0.00624428,0.0372548,692,1170,-9.48647,-0.453204
-525,-146,-9.50793,0.649414,0.0068257,0.000693237,0.0085683,0.0128599,-0.00534094,0.613569,0.010803,0.0405233,699,1170,-9.50795,-0.649421
-518,-146,0,0,0,0,0,0,0,0,0,-1,706,1170,0,0
-511,-146,0,0,0,0,0,0,0,0,0,-1,713,1170,0,0
-504,-146,0,0,0,0,0,0,0,0,0,-1,720,1170,0,0
-497,-146,0,0,0,0,0,0,0,0,0,-1,727,1170,0,0
-490,-146,0,0,0,0,0,0,0,0,0,-1,734,1170,0,0
-483,-146,0,0,0,0,0,0,0,0,0,-1,741,1170,0,0
-476,-146,0,0,0,0,0,0,0,0,0,-1,748,1170,0,0
-469,-146,0,0,0,0,0,0,0,0,0,-1,755,1170,0,0
-462,-146,0,0,0,0,0,0,0,0,0,-1,762,1170,0,0
-455,-146,0,0,0,0,0,0,0,0,0,-1,769,1170,0,0
-448,-146,0,0,0,0,0,0,0,0,0,-1,776,1170,0,0
-441,-146,0,0,0,0,0,0,0,0,0,-1,783,1170,0,0
-434,-146,0,0,0,0,0,0,0,0,0,-1,790,1170,0,0
-427,-146,0,0,0,0,0,0,0,0,0,-1,797,1170,0,0
-420,-146,0,0,0,0,0,0,0,0,0,-1,804,1170,0,0
-413,-146,0,0,0,0,0,0,0,0,0,-1,811,1170,0,0
-406,-146,0,0,0,0,0,0,0,0,0,-1,818,1170,0,0
-399,-146,0,0,0,0,0,0,0,0,0,-1,825,1170,0,0
-392,-146,0,0,0,0,0,0,0,0,0,-1,832,1170,0,0
-385,-146,0,0,0,0,0,0,0,0,0,-1,839,1170,0,0
-378,-146,0,0,0,0,0,0,0,0,0,-1,846,1170,0,0
-371,-146,0,0,0,0,0,0,0,0,0,-1,853,1170,0,0
-364,-146,0,0,0,0,0,0,0,0,0,-1,860,1170,0,0
-357,-146,0,0,0,0,0,0,0,0,0,-1,867,1170,0,0
-350,-146,0,0,0,0,0,0,0,0,0,-1,874,1170,0,0
-343,-146,0,0,0,0,0,0,0,0,0,-1,881,1170,0,0
-336,-146,0,0,0,0,0,0,0,0,0,-1,888,1170,0,0
-329,-146,0,0,0,0,0,0,0,0,0,-1,895,1170,0,0
-322,-146,0,0,0,0,0,0,0,0,0,-1,902,1170,0,0
-315,-146,0,0,0,0,0,0,0,0,0,-1,909,1170,0,0
-308,-146,0,0,0,0,0,0,0,0,0,-1,916,1170,0,0
-301,-146,0,0,0,0,0,0,0,0,0,-1,923,1170,0,0
-294,-146,0,0,0,0,0,0,0,0,0,-1,930,1170,0,0
-287,-146,0,0,0,0,0,0,0,0,0,-1,937,1170,0,0
-280,-146,0,0,0,0,0,0,0,0,0,-1,944,1170,0,0
-273,-146,0,0,0,0,0,0,0,0,0,-1,951,1170,0,0
-266,-146,0,0,0,0,0,0,0,0,0,-1,958,1170,0,0
-259,-146,0,0,0,0,0,0,0,0,0,-1,965,1170,0,0
-252,-146,0,0,0,0,0,0,0,0,0,-1,972,1170,0,0
-245,-146,0,0,0,0,0,0,0,0,0,-1,979,1170,0,0
-238,-146,0,0,0,0,0,0,0,0,0,-1,986,1170,0,0
-231,-146,0,0,0,0,0,0,0,0,0,-1,993,1170,0,0
-224,-146,0,0,0,0,0,0,0,0,0,-1,1000,1170,0,0
-217,-146,0,0,0,0,0,0,0,0,0,-1,1007,1170,0,0
-210,-146,0,0,0,0,0,0,0,0,0,-1,1014,1170,0,0
-203,-146,0,0,0,0,0,0,0,0,0,-1,1021,1170,0,0
-196,-146,0,0,0,0,0,0,0,0,0,-1,1028,1170,0,0
-189,-146,0,0,0,0,0,0,0,0,0,-1,1035,1170,0,0
-182,-146,0,0,0,0,0,0,0,0,0,-1,1042,1170,0,0
-175,-146,0,0,0,0,0,0,0,0,0,-1,1049,1170,0,0
-168,-146,0,0,0,0,0,0,0,0,0,-1,1056,1170,0,0
-161,-146,0,0,0,0,0,0,0,0,0,-1,1063,1170,0,0
-154,-146,0,0,0,0,0,0,0,0,0,-1,1070,1170,0,0
-147,-146,0,0,0,0,0,0,0,0,0,-1,1077,1170,0,0
-140,-146,0,0,0,0,0,0,0,0,0,-1,1084,1170,0,0
-133,-146,0,0,0,0,0,0,0,0,0,-1,1091,1170,0,0
-126,-146,0,0,0,0,0,0,0,0,0,-1,1098,1170,0,0
-119,-146,0,0,0,0,0,0,0,0,0,-1,1105,1170,0,0
-112,-146,0,0,0,0,0,0,0,0,0,-1,1112,1170,0,0
-105,-146,0,0,0,0,0,0,0,0,0,-1,1119,1170,0,0
-98,-146,0,0,0,0,0,0,0,0,0,-1,1126,1170,0,0
-91,-146,0,0,0,0,0,0,0,0,0,-1,1133,1170,0,0
-84,-146,0,0,0,0,0,0,0,0,0,-1,1140,1170,0,0
-77,-146,0,0,0,0,0,0,0,0,0,-1,1147,1170,0,0
-70,-146,0,0,0,0,0,0,0,0,0,-1,1154,1170,0,0
-63,-146,0,0,0,0,0,0,0,0,0,-1,1161,1170,0,0
-56,-146,0,0,0,0,0,0,0,0,0,-1,1168,1170,0,0
-49,-146,0,0,0,0,0,0,0,0,0,-1,1175,1170,0,0
-42,-146,0,0,0,0,0,0,0,0,0,-1,1182,1170,0,0
-35,-146,0,0,0,0,0,0,0,0,0,-1,1189,1170,0,0
-28,-146,0,0,0,0,0,0,0,0,0,-1,1196,1170,0,0
-21,-146,0,0,0,0,0,0,0,0,0,-1,1203,1170,0,0
-14,-146,0,0,0,0,0,0,0,0,0,-1,1210,1170,0,0
-7,-146,0,0,0,0,0,0,0,0,0,-1,1217,1170,0,0
0,-146,0,0,0,0,0,0,0,0,0,-1,1224,1170,0,0
7,-146,0,0,0,0,0,0,0,0,0,-1,1231,1170,0,0
14,-146,0,0,0,0,0,0,0,0,0,-1,1238,1170,0,0
21,-146,0,0,0,0,0,0,0,0,0,-1,1245,1170,0,0
28,-146,0,0,0,0,0,0,0,0,0,-1,1252,1170,0,0
35,-146,0,0,0,0,0,0,0,0,0,-1,1259,1170,0,0
42,-146,0,0,0,0,0,0,0,0,0,-1,1266,1170,0,0
49,-146,0,0,0,0,0,0,0,0,0,-1,1273,1170,0,0
56,-146,0,0,0,0,0,0,0,0,0,-1,1280,1170,0,0
63,-146,0,0,0,0,0,0,0,0,0,-1,1287,1170,0,0
70,-146,0,0,0,0,0,0,0,0,0,-1,1294,1170,0,0
77,-146,0,0,0,0,0,0,0,0,0,-1,1301,1170,0,0
84,-146,0,0,0,0,0,0,0,0,0,-1,1308,1170,0,0
91,-146,0,0,0,0,0,0,0,0,0,-1,1315,1170,0,0
98,-146,0,0,0,0,0,0,0,0,0,-1,1322,1170,0,0
105,-146,0,0,0,0,0,0,0,0,0,-1,1329,1170,0,0
112,-146,0,0,0,0,0,0,0,0,0,-1,1336,1170,0,0
119,-146,0,0,0,0,0,0,0,0,0,-1,1343,1170,0,0
126,-146,0,0,0,0,0,0,0,0,0,-1,1350,1170,0,0
133,-146,0,0,0,0,0,0,0,0,0,-1,1357,1170,0,0
140,-146,0,0,0,0,0,0,0,0,0,-1,1364,1170,0,0
147,-146,0,0,0,0,0,0,0,0,0,-1,1371,1170,0,0
154,-146,0,0,0,0,0,0,0,0,0,-1,1378,1170,0,0
161,-146,0,0,0,0,0,0,0,0,0,-1,1385,1170,0,0
168,-146,0,0,0,0,0,0,0,0,0,-1,1392,1170,0,0
175,-146,0,0,0,0,0,0,0,0,0,-1,1399,1170,0,0
182,-146,0,0,0,0,0,0,0,0,0,-1,1406,1170,0,0
189,-146,0,0,0,0,0,0,0,0,0,-1,1413,1170,0,0
196,-146,0,0,0,0,0,0,0,0,0,-1,1420,1170,0,0
203,-146,0,0,0,0,0,0,0,0,0,-1,1427,1170,0,0
210,-146,0,0,0,0,0,0,0,0,0,-1,1434,1170,0,0
217,-146,0,0,0,0,0,0,0,0,0,-1,1441,1170,0,0
224,-146,0,0,0,0,0,0,0,0,0,-1,1448,1170,0,0
231,-146,0,0,0,0,0,0,0,0,0,-1,1455,1170,0,0
238,-146,0,0,0,0,0,0,0,0,0,-1,1462,1170,0,0
245,-146,0,0,0,0,0,0,0,0,0,-1,1469,1170,0,0
252,-146,0,0,0,0,0,0,0,0,0,-1,1476,1170,0,0
259,-146,0,0,0,0,0,0,0,0,0,-1,1483,1170,0,0
266,-146,0,0,0,0,0,0,0,0,0,-1,1490,1170,0,0
273,-146,0,0,0,0,0,0,0,0,0,-1,1497,1170,0,0
280,-146,0,0,0,0,0,0,0,0,0,-1,1504,1170,0,0
287,-146,0,0,0,0,0,0,0,0,0,-1,1511,1170,0,0
294,-146,0,0,0,0,0,0,0,0,0,-1,1518,1170,0,0
301,-146,0,0,0,0,0,0,0,0,0,-1,1525,1170,0,0
308,-146,0,0,0,0,0,0,0,0,0,-1,1532,1170,0,0
315,-146,0,0,0,0,0,0,0,0,0,-1,1539,1170,0,0
322,-146,0,0,0,0,0,0,0,0,0,-1,1546,1170,0,0
329,-146,0,0,0,0,0,0,0,0,0,-1,1553,1170,0,0
336,-146,0,0,0,0,0,0,0,0,0,-1,1560,1170,0,0
343,-146,0,0,0,0,0,0,0,0,0,-1,1567,1170,0,0
350,-146,0,0,0,0,0,0,0,0,0,-1,1574,1170,0,0
357,-146,0,0,0,0,0,0,0,0,0,-1,1581,1170,0,0
364,-146,0,0,0,0,0,0,0,0,0,-1,1588,1170,0,0
371,-146,0,0,0,0,0,0,0,0,0,-1,1595,1170,0,0
378,-146,0,0,0,0,0,0,0,0,0,-1,1602,1170,0,0
385,-146,0,0,0,0,0,0,0,0,0,-1,1609,1170,0,0
392,-146,0,0,0,0,0,0,0,0,0,-1,1616,1170,0,0
399,-146,0,0,0,0,0,0,0,0,0,-1,1623,1170,0,0
406,-146,0,0,0,0,0,0,0,0,0,-1,1630,1170,0,0
413,-146,0,0,0,0,0,0,0,0,0,-1,1637,1170,0,0
420,-146,0,0,0,0,0,0,0,0,0,-1,1644,1170,0,0
427,-146,0,0,0,0,0,0,0,0,0,-1,1651,1170,0,0
434,-146,0,0,0,0,0,0,0,0,0,-1,1658,1170,0,0
441,-146,0,0,0,0,0,0,0,0,0,-1,1665,1170,0,0
448,-146,0,0,0,0,0,0,0,0,0,-1,1672,1170,0,0
455,-146,0,0,0,0,0,0,0,0,0,-1,1679,1170,0,0
462,-146,0,0,0,0,0,0,0,0,0,-1,1686,1170,0,0
469,-146,0,0,0,0,0,0,0,0,0,-1,1693,1170,0,0
476,-146,0,0,0,0,0,0,0,0,0,-1,1700,1170,0,0
483,-146,0,0,0,0,0,0,0,0,0,-1,1707,1170,0,0
490,-146,0,0,0,0,0,0,0,0,0,-1,1714,1170,0,0
497,-146,0,0,0,0,0,0,0,0,0,-1,1721,1170,0,0
504,-146,0,0,0,0,0,0,0,0,0,-1,1728,1170,0,0
511,-146,0,0,0,0,0,0,0,0,0,-1,1735,1170,0,0
518,-146,0,0,0,0,0,0,0,0,0,-1,1742,1170,0,0
525,-146,0,0,0,0,0,0,0,0,0,-1,1749,1170,0,0
532,-146,0,0,0,0,0,0,0,0,0,-1,1756,1170,0,0
539,-146,0,0,0,0,0,0,0,0,0,-1,1763,1170,0,0
546,-146,0,0,0,0,0,0,0,0,0,-1,1770,1170,0,0
553,-146,0,0,0,0,0,0,0,0,0,-1,1777,1170,0,0
560,-146,0,0,0,0,0,0,0,0,0,-1,1784,1170,0,0
567,-146,0,0,0,0,0,0,0,0,0,-1,1791,1170,0,0
574,-146,0,0,0,0,0,0,0,0,0,-1,1798,1170,0,0
581,-146,0,0,0,0,0,0,0,0,0,-1,1805,1170,0,0
588,-146,0,0,0,0,0,0,0,0,0,-1,1812,1170,0,0
595,-146,0,0,0,0,0,0,0,0,0,-1,1819,1170,0,0
602,-146,0,0,0,0,0,0,0,0,0,-1,1826,1170,0,0
609,-146,0,0,0,0,0,0,0,0,0,-1,1833,1170,0,0
616,-146,0,0,0,0,0,0,0,0,0,-1,1840,1170,0,0
623,-146,0,0,0,0,0,0,0,0,0,-1,1847,1170,0,0
630,-146,0,0,0,0,0,0,0,0,0,-1,1854,1170,0,0
637,-146,15.762,2.09924,-0.00473033,0.00217935,0.000286879,0.00219124,-0.00474223,1.52937,0.00409236,0.0383407,1861,1170,15.762,-2.09926
644,-146,15.6355,2.19055,-0.00333549,0.00201277,0.000269395,0.00202631,-0.00334902,1.5206,0.00313461,0.0340739,1868,1170,15.6354,-2.1905
651,-146,15.6007,2.21484,-0.00213875,0.00179432,0.000195108,0.00180397,-0.0021484,1.52135,0.00228479,0.0346989,1875,1170,15.6007,-2.21487
658,-146,15.585,2.23926,-0.00146281,0.00147965,0.000407344,0.001535,-0.00151816,1.43574,0.00176275,0.0388206,1882,1170,15.585,-2.23924
665,-146,15.5626,2.26709,-0.00180082,0.000655738,0.00116476,0.00112019,-0.00226527,1.19137,0.00199152,0.039613,1889,1170,15.5627,-2.26713
672,-146,15.6085,2.32654,-0.00254182,-0.00018349,0.00196021,0.000924886,-0.0036502,1.05618,0.00279328,0.036398,1896,1170,15.6085,-2.32648
679,-146,15.6638,2.32007,-0.00337646,-0.000960461,0.00265862,0.000751729,-0.00508865,0.99864,0.00366877,0.0292508,1903,1170,15.6638,-2.32008
686,-146,15.5942,2.2998,-0.00417243,-0.00162848,0.00322148,0.000563056,-0.00636396,0.973424,0.00444223,0.0236388,1910,1170,15.5942,-2.29975
693,-146,15.6229,2.30591,-0.00475838,-0.0020318,0.00357731,0.000433189,-0.00722337,0.96745,0.00496628,0.0175049,1917,1170,15.6229,-2.30595
700,-146,15.7661,2.29773,0,0,0,0,0,0,0,-1,1924,1170,15.7662,-2.29773
707,-146,15.0947,3.0741,-0.00549676,-0.0028019,0.00405098,0.000119865,-0.00841852,0.945952,0.00565273,0.0316949,1931,1170,15.0947,-3.07404
714,-146,14.7233,3.48474,-0.00577158,-0.00284576,0.00410417,4.84344e-05,-0.00866577,0.9566,0.00579339,0.0226592,1938,1170,14.7232,-3.48471
721,-146,14.6888,3.43799,-0.00566244,-0.00264716,0.0038574,-1.32448e-05,-0.00829636,0.971692,0.0055265,0.0278687,1945,1170,14.6888,-3.43796
728,-146,14.7087,3.33301,-0.00506158,-0.00228899,0.00330002,-9.59095e-05,-0.00725466,0.98425,0.00480479,0.0214703,1952,1170,14.7087,-3.33303
735,-146,14.6414,3.29688,-0.00405169,-0.00177963,0.0025323,-0.00014021,-0.00569111,0.996249,0.00374821,0.0173164,1959,1170,14.6414,-3.29683
742,-146,14.6464,3.19507,-0.00248988,-0.000942746,0.00142171,-9.77746e-05,-0.00333485,1.03455,0.00219137,0.0170947,1966,1170,14.6464,-3.19507
749,-146,14.6467,3.12939,-0.000312189,4.48274e-07,-1.19301e-05,9.02874e-07,-0.000312644,-1.53271,0.000208731,0.0151905,1973,1170,14.6467,-3.12938
756,-146,14.652,3.06873,0.00252081,0.00185466,-0.00134078,0.00356926,0.000806202,-0.663654,0.00216149,0.0120003,1980,1170,14.652,-3.06874
763,-146,14.6345,2.98389,0.00530554,0.00360336,-0.00307195,0.00764212,0.00126678,-0.650261,0.00472938,0.0110041,1987,1170,14.6346,-2.98386
770,-146,14.6353,2.91846,0.00840933,0.00548136,-0.00461747,0.0117893,0.00210135,-0.631884,0.00726118,0.0108716,1994,1170,14.6353,-2.91849
777,-146,14.6458,2.8291,0.011905,0.00789345,-0.00628643,0.0164979,0.00330057,-0.63097,0.0100802,0.0183433,2001,1170,14.6457,-2.82915
784,-146,14.7681,2.55371,0.0161351,0.0111589,-0.00821965,0.022235,0.005059,-0.638431,0.0134578,0.0360624,2008,1170,14.7681,-2.5537
791,-146,14.8818,2.29541,0,0,0,0,0,0,0,-1,2015,1170,14.8819,-2.29539
798,-146,15.0684,1.55945,0.026937,0.0215324,-0.012589,0.0371104,0.0113589,-0.679675,0.0219563,0.0442989,2022,1170,15.0684,-1.55945
805,-146,15.3038,0.928833,0,0,0,0,0,0,0,-1,2029,1170,15.3039,-0.928773
812,-146,0,0,0,0,0,0,0,0,0,-1,2036,1170,0,0
-700,-153,0,0,0,0,0,0,0,0,0,-1,524,1177,0,0
-693,-153,0,0,0,0,0,0,0,0,0,-1,531,1177,0,0
-686,-153,-8.31207,-1.38123,0,0,0,0,0,0,0,-1,538,1177,-8.31209,1.38127
-679,-153,-8.43591,-1.40198,0,0,0,0,0,0,0,-1,545,1177,-8.43591,1.402
-672,-153,-8.24146,-0.90918,0,0,0,0,0,0,0,-1,552,1177,-8.24148,0.909185
-665,-153,-7.98596,-0.537109,0,0,0,0,0,0,0,-1,559,1177,-7.98598,0.537053
-658,-153,-7.83154,-0.429932,0.00823389,0.0256099,-0.00916421,0.0295498,0.00429398,-1.16476,0.018436,0.0488565,566,1177,-7.83156,0.429976
-651,-153,-8.45483,0.733276,0.00473517,0.0182907,-0.00698978,0.0212492,0.00177666,-1.1704,0.0136126,0.0462535,573,1177,-8.45483,-0.733315
-644,-153,-8.39581,0.70752,0.00218989,0.012616,-0.00534206,0.0148671,-6.12014e-05,-1.17199,0.00993189,0.0269281,580,1177,-8.39579,-0.707478
-637,-153,-8.38782,0.765015,0.000522984,0.00837141,-0.00412856,0.0101432,-0.00124881,-1.16541,0.00721452,0.0112262,587,1177,-8.38784,-0.765025
-630,-153,-8.4032,0.862549,-0.000648416,0.00462463,-0.00333826,0.00624195,-0.00226574,-1.11964,0.0050876,0.0100302,594,1177,-8.40322,-0.862492
-623,-153,-8.42126,0.958496,-0.00204222,0.00230259,-0.00362141,0.00435322,-0.00409285,-1.05556,0.00487711,0.00905933,601,1177,-8.42129,-0.958444
-616,-153,-8.42108,1.04749,-0.00370387,0.000578621,-0.00466743,0.00357253,-0.00669778,-1.00046,0.00602038,0.0118569,608,1177,-8.42108,-1.04743
-609,-153,-8.37592,1.1228,-0.00516534,-0.000564953,-0.00555471,0.00314698,-0.00887727,-0.981698,0.00720019,0.0169361,615,1177,-8.37591,-1.12286
-602,-153,-8.40491,1.22412,-0.00588449,-0.00118663,-0.00674749,0.00360909,-0.0106802,-0.952897,0.00858004,0.0214118,622,1177,-8.4049,-1.22412
-595,-153,-8.47791,1.33447,-0.00652288,-0.00119418,-0.00760594,0.00420057,-0.0119176,-0.953869,0.00965483,0.0171373,629,1177,-8.47787,-1.33447
-588,-153,-8.45587,1.43909,-0.00728171,-0.00128035,-0.00809787,0.00435492,-0.012917,-0.962831,0.0103723,0.0107184,636,1177,-8.45589,-1.43909
-581,-153,-8.43994,1.47925,-0.00772138,-0.0013358,-0.00838532,0.004444,-0.0135012,-0.967303,0.0107916,0.0195978,643,1177,-8.43994,-1.47927
-574,-153,-8.83167,0.953613,-0.00763898,-0.00112637,-0.00833121,0.0045623,-0.0133276,-0.971698,0.0107341,0.0421718,650,1177,-8.83165,-0.953628
-567,-153,-9.32166,0.479492,-0.00735501,-0.000946991,-0.00784595,0.00432394,-0.0126259,-0.979247,0.0101698,0.0452637,657,1177,-9.32163,-0.479519
-560,-153,-9.4632,0.553833,-0.0067475,-0.00061977,-0.00679836,0.00377324,-0.0111405,-0.997107,0.00895381,0.0384709,664,1177,-9.46322,-0.553861
-553,-153,-9.4823,0.639893,-0.00545793,-0.000219168,-0.00509476,0.00289013,-0.00856723,-1.02284,0.00688026,0.0349755,671,1177,-9.48232,-0.639923
-546,-153,-9.52435,0.745483,-0.00344221,0.000187367,-0.00266657,0.00159811,-0.00485295,-1.08418,0.00387933,0.0383397,678,1177,-9.52435,-0.745447
-539,-153,-9.755,0.759521,-0.000692703,0.000549992,0.000513463,0.000734695,-0.000877406,1.22549,0.000931961,0.0408675,685,1177,-9.755,-0.759467
-532,-153,-9.94354,0.724243,0.00288884,0.000808188,0.00435282,0.00632393,-0.0026269,0.668099,0.00531267,0.0406085,692,1177,-9.94353,-0.724278
-525,-153,-9.71747,0.714111,0.00649953,0.000557526,0.00800649,0.0120685,-0.00501142,0.607736,0.0101378,0.0374542,699,1177,-9.71749,-0.714154
-518,-153,0,0,0,0,0,0,0,0,0,-1,706,1177,0,0
-511,-153,0,0,0,0,0,0,0,0,0,-1,713,1177,0,0
-504,-153,0,0,0,0,0,0,0,0,0,-1,720,1177,0,0
-497,-153,0,0,0,0,0,0,0,0,0,-1,727,1177,0,0
-490,-153,0,0,0,0,0,0,0,0,0,-1,734,1177,0,0
-483,-153,0,0,0,0,0,0,0,0,0,-1,741,1177,0,0
-476,-153,0,0,0,0,0,0,0,0,0,-1,748,1177,0,0
-469,-153,0,0,0,0,0,0,0,0,0,-1,755,1177,0,0
-462,-153,0,0,0,0,0,0,0,0,0,-1,762,1177,0,0
-455,-153,0,0,0,0,0,0,0,0,0,-1,769,1177,0,0
-448,-153,0,0,0,0,0,0,0,0,0,-1,776,1177,0,0
-441,-153,0,0,0,0,0,0,0,0,0,-1,783,1177,0,0
-434,-153,0,0,0,0,0,0,0,0,0,-1,790,1177,0,0
-427,-153,0,0,0,0,0,0,0,0,0,-1,797,1177,0,0
-420,-153,0,0,0,0,0,0,0,0,0,-1,804,1177,0,0
-413,-153,0,0,0,0,0,0,0,0,0,-1,811,1177,0,0
-406,-153,0,0,0,0,0,0,0,0,0,-1,818,1177,0,0
-399,-153,0,0,0,0,0,0,0,0,0,-1,825,1177,0,0
-392,-153,0,0,0,0,0,0,0,0,0,-1,832,1177,0,0
-385,-153,0,0,0,0,0,0,0,0,0,-1,839,1177,0,0
-378,-153,0,0,0,0,0,0,0,0,0,-1,846,1177,0,0
-371,-153,0,0,0,0,0,0,0,0,0,-1,853,1177,0,0
-364,-153,0,0,0,0,0,0,0,0,0,-1,860,1177,0,0
-357,-153,0,0,0,0,0,0,0,0,0,-1,867,1177,0,0
-350,-153,0,0,0,0,0,0,0,0,0,-1,874,1177,0,0
-343,-153,0,0,0,0,0,0,0,0,0,-1,881,1177,0,0
-336,-153,0,0,0,0,0,0,0,0,0,-1,888,1177,0,0
-329,-153,0,0,0,0,0,0,0,0,0,-1,895,1177,0,0
-322,-153,0,0,0,0,0,0,0,0,0,-1,902,1177,0,0
-315,-153,0,0,0,0,0,0,0,0,0,-1,909,1177,0,0
-308,-153,0,0,0,0,0,0,0,0,0,-1,916,1177,0,0
-301,-153,0,0,0,0,0,0,0,0,0,-1,923,1177,0,0
-294,-153,0,0,0,0,0,0,0,0,0,-1,930,1177,0,0
-287,-153,0,0,0,0,0,0,0,0,0,-1,937,1177,0,0
-280,-153,0,0,0,0,0,0,0,0,0,-1,944,1177,0,0
-273,-153,0,0,0,0,0,0,0,0,0,-1,951,1177,0,0
-266,-153,0,0,0,0,0,0,0,0,0,-1,958,1177,0,0
-259,-153,0,0,0,0,0,0,0,0,0,-1,965,1177,0,0
-252,-153,0,0,0,0,0,0,0,0,0,-1,972,1177,0,0
-245,-153,0,0,0,0,0,0,0,0,0,-1,979,1177,0,0
-238,-153,0,0,0,0,0,0,0,0,0,-1,986,1177,0,0
-231,-153,0,0,0,0,0,0,0,0,0,-1,993,1177,0,0
-224,-153,0,0,0,0,0,0,0,0,0,-1,1000,1177,0,0
-217,-153,0,0,0,0,0,0,0,0,0,-1,1007,1177,0,0
-210,-153,0,0,0,0,0,0,0,0,0,-1,1014,1177,0,0
-203,-153,0,0,0,0,0,0,0,0,0,-1,1021,1177,0,0
-196,-153,0,0,0,0,0,0,0,0,0,-1,1028,1177,0,0
-189,-153,0,0,0,0,0,0,0,0,0,-1,1035,1177,0,0
-182,-153,0,0,0,0,0,0,0,0,0,-1,1042,1177,0,0
-175,-153,0,0,0,0,0,0,0,0,0,-1,1049,1177,0,0
-168,-153,0,0,0,0,0,0,0,0,0,-1,1056,1177,0,0
-161,-153,0,0,0,0,0,0,0,0,0,-1,1063,1177,0,0
-154,-153,0,0,0,0,0,0,0,0,0,-1,1070,1177,0,0
-147,-153,0,0,0,0,0,0,0,0,0,-1,1077,1177,0,0
-140,-153,0,0,0,0,0,0,0,0,0,-1,1084,1177,0,0
-133,-153,0,0,0,0,0,0,0,0,0,-1,1091,1177,0,0
-126,-153,0,0,0,0,0,0,0,0,0,-1,1098,1177,0,0
-119,-153,0,0,0,0,0,0,0,0,0,-1,1105,1177,0,0
-112,-153,0,0,0,0,0,0,0,0,0,-1,1112,1177,0,0
-105,-153,0,0,0,0,0,0,0,0,0,-1,1119,1177,0,0
-98,-153,0,0,0,0,0,0,0,0,0,-1,1126,1177,0,0
-91,-153,0,0,0,0,0,0,0,0,0,-1,1133,1177,0,0
-84,-153,0,0,0,0,0,0,0,0,0,-1,1140,1177,0,0
-77,-153,0,0,0,0,0,0,0,0,0,-1,1147,1177,0,0
-70,-153,0,0,0,0,0,0,0,0,0,-1,1154,1177,0,0
-63,-153,0,0,0,0,0,0,0,0,0,-1,1161,1177,0,0
-56,-153,0,0,0,0,0,0,0,0,0,-1,1168,1177,0,0
-49,-153,0,0,0,0,0,0,0,0,0,-1,1175,1177,0,0
-42,-153,0,0,0,0,0,0,0,0,0,-1,1182,1177,0,0
-35,-153,0,0,0,0,0,0,0,0,0,-1,1189,1177,0,0
-28,-153,0,0,0,0,0,0,0,0,0,-1,1196,1177,0,0
-21,-153,0,0,0,0,0,0,0,0,0,-1,1203,1177,0,0
-14,-153,0,0,0,0,0,0,0,0,0,-1,1210,1177,0,0
-7,-153,0,0,0,0,0,0,0,0,0,-1,1217,1177,0,0
0,-153,0,0,0,0,0,0,0,0,0,-1,1224,1177,0,0
7,-153,0,0,0,0,0,0,0,0,0,-1,1231,1177,0,0
14,-153,0,0,0,0,0,0,0,0,0,-1,1238,1177,0,0
21,-153,0,0,0,0,0,0,0,0,0,-1,1245,1177,0,0
28,-153,0,0,0,0,0,0,0,0,0,-1,1252,1177,0,0
35,-153,0,0,0,0,0,0,0,0,0,-1,1259,1177,0,0
42,-153,0,0,0,0,0,0,0,0,0,-1,1266,1177,0,0
49,-153,0,0,0,0,0,0,0,0,0,-1,1273,1177,0,0
56,-153,0,0,0,0,0,0,0,0,0,-1,1280,1177,0,0
63,-153,0,0,0,0,0,0,0,0,0,-1,1287,1177,0,0
70,-153,0,0,0,0,0,0,0,0,0,-1,1294,1177,0,0
77,-153,0,0,0,0,0,0,0,0,0,-1,1301,1177,0,0
84,-153,0,0,0,0,0,0,0,0,0,-1,1308,1177,0,0
91,-153,0,0,0,0,0,0,0,0,0,-1,1315,1177,0,0
98,-153,0,0,0,0,0,0,0,0,0,-1,1322,1177,0,0
105,-153,0,0,0,0,0,0,0,0,0,-1,1329,1177,0,0
112,-153,0,0,0,0,0,0,0,0,0,-1,1336,1177,0,0
119,-153,0,0,0,0,0,0,0,0,0,-1,1343,1177,0,0
126,-153,0,0,0,0,0,0,0,0,0,-1,1350,1177,0,0
133,-153,0,0,0,0,0,0,0,0,0,-1,1357,1177,0,0
140,-153,0,0,0,0,0,0,0,0,0,-1,1364,1177,0,0
147,-153,0,0,0,0,0,0,0,0,0,-1,1371,1177,0,0
154,-153,0,0,0,0,0,0,0,0,0,-1,1378,1177,0,0
161,-153,0,0,0,0,0,0,0,0,0,-1,1385,1177,0,0
168,-153,0,0,0,0,0,0,0,0,0,-1,1392,1177,0,0
175,-153,0,0,0,0,0,0,0,0,0,-1,1399,1177,0,0
182,-153,0,0,0,0,0,0,0,0,0,-1,1406,1177,0,0
189,-153,0,0,0,0,0,0,0,0,0,-1,1413,1177,0,0
196,-153,0,0,0,0,0,0,0,0,0,-1,1420,1177,0,0
203,-153,0,0,0,0,0,0,0,0,0,-1,1427,1177,0,0
210,-153,0,0,0,0,0,0,0,0,0,-1,1434,1177,0,0
217,-153,0,0,0,0,0,0,0,0,0,-1,1441,1177,0,0
224,-153,0,0,0,0,0,0,0,0,0,-1,1448,1177,0,0
231,-153,0,0,0,0,0,0,0,0,0,-1,1455,1177,0,0
238,-153,0,0,0,0,0,0,0,0,0,-1,1462,1177,0,0
245,-153,0,0,0,0,0,0,0,0,0,-1,1469,1177,0,0
252,-153,0,0,0,0,0,0,0,0,0,-1,1476,1177,0,0
259,-153,0,0,0,0,0,0,0,0,0,-1,1483,1177,0,0
266,-153,0,0,0,0,0,0,0,0,0,-1,1490,1177,0,0
273,-153,0,0,0,0,0,0,0,0,0,-1,1497,1177,0,0
280,-153,0,0,0,0,0,0,0,0,0,-1,1504,1177,0,0
287,-153,0,0,0,0,0,0,0,0,0,-1,1511,1177,0,0
294,-153,0,0,0,0,0,0,0,0,0,-1,1518,1177,0,0
301,-153,0,0,0,0,0,0,0,0,0,-1,1525,1177,0,0
308,-153,0,0,0,0,0,0,0,0,0,-1,1532,1177,0,0
315,-153,0,0,0,0,0,0,0,0,0,-1,1539,1177,0,0
322,-153,0,0,0,0,0,0,0,0,0,-1,1546,1177,0,0
329,-153,0,0,0,0,0,0,0,0,0,-1,1553,1177,0,0
336,-153,0,0,0,0,0,0,0,0,0,-1,1560,1177,0,0
343,-153,0,0,0,0,0,0,0,0,0,-1,1567,1177,0,0
350,-153,0,0,0,0,0,0,0,0,0,-1,1574,1177,0,0
357,-153,0,0,0,0,0,0,0,0,0,-1,1581,1177,0,0
364,-153,0,0,0,0,0,0,0,0,0,-1,1588,1177,0,0
371,-153,0,0,0,0,0,0,0,0,0,-1,1595,1177,0,0
378,-153,0,0,0,0,0,0,0,0,0,-1,1602,1177,0,0
385,-153,0,0,0,0,0,0,0,0,0,-1,1609,1177,0,0
392,-153,0,0,0,0,0,0,0,0,0,-1,1616,1177,0,0
399,-153,0,0,0,0,0,0,0,0,0,-1,1623,1177,0,0
406,-153,0,0,0,0,0,0,0,0,0,-1,1630,1177,0,0
413,-153,0,0,0,0,0,0,0,0,0,-1,1637,1177,0,0
420,-153,0,0,0,0,0,0,0,0,0,-1,1644,1177,0,0
427,-153,0,0,0,0,0,0,0,0,0,-1,1651,1177,0,0
434,-153,0,0,0,0,0,0,0,0,0,-1,1658,1177,0,0
441,-153,0,0,0,0,0,0,0,0,0,-1,1665,1177,0,0
448,-153,0,0,0,0,0,0,0,0,0,-1,1672,1177,0,0
455,-153,0,0,0,0,0,0,0,0,0,-1,1679,1177,0,0
462,-153,0,0,0,0,0,0,0,0,0,-1,1686,1177,0,0
469,-153,0,0,0,0,0,0,0,0,0,-1,1693,1177,0,0
476,-153,0,0,0,0,0,0,0,0,0,-1,1700,1177,0,0
483,-153,0,0,0,0,0,0,0,0,0,-1,1707,1177,0,0
490,-153,0,0,0,0,0,0,0,0,0,-1,1714,1177,0,0
497,-153,0,0,0,0,0,0,0,0,0,-1,1721,1177,0,0
504,-153,0,0,0,0,0,0,0,0,0,-1,1728,1177,0,0
511,-153,0,0,0,0,0,0,0,0,0,-1,1735,1177,0,0
518,-153,0,0,0,0,0,0,0,0,0,-1,1742,1177,0,0
525,-153,0,0,0,0,0,0,0,0,0,-1,1749,1177,0,0
532,-153,0,0,0,0,0,0,0,0,0,-1,1756,1177,0,0
539,-153,0,0,0,0,0,0,0,0,0,-1,1763,1177,0,0
546,-153,0,0,0,0,0,0,0,0,0,-1,1770,1177,0,0
553,-153,0,0,0,0,0,0,0,0,0,-1,1777,1177,0,0
560,-153,0,0,0,0,0,0,0,0,0,-1,1784,1177,0,0
567,-153,0,0,0,0,0,0,0,0,0,-1,1791,1177,0,0
574,-153,0,0,0,0,0,0,0,0,0,-1,1798,1177,0,0
581,-153,0,0,0,0,0,0,0,0,0,-1,1805,1177,0,0
588,-153,0,0,0,0,0,0,0,0,0,-1,1812,1177,0,0
595,-153,0,0,0,0,0,0,0,0,0,-1,1819,1177,0,0
602,-153,0,0,0,0,0,0,0,0,0,-1,1826,1177,0,0
609,-153,0,0,0,0,0,0,0,0,0,-1,1833,1177,0,0
616,-153,0,0,0,0,0,0,0,0,0,-1,1840,1177,0,0
623,-153,0,0,0,0,0,0,0,0,0,-1,1847,1177,0,0
630,-153,0,0,0,0,0,0,0,0,0,-1,1854,1177,0,0
637,-153,15.6987,2.21179,-0.00569617,0.00181963,0.00109436,0.00197573,-0.00585227,1.42911,0.0047006,0.039108,1861,1177,15.6987,-2.21183
644,-153,15.7136,2.10474,-0.00388688,0.00171184,0.000744538,0.00180916,-0.0039842,1.44082,0.00342248,0.0349611,1868,1177,15.7136,-2.10476
651,-153,15.5793,2.17493,-0.00254625,0.00146338,0.000477414,0.00151944,-0.00260231,1.45391,0.00240692,0.0296625,1875,1177,15.5794,-2.17497
658,-153,15.6172,2.16467,-0.0019361,0.00105655,0.000634026,0.00118533,-0.00206489,1.3704,0.00189928,0.0352791,1882,1177,15.6172,-2.16473
665,-153,15.6486,2.14453,-0.00225037,0.000278274,0.0012412,0.000785702,-0.0027578,1.18271,0.00214886,0.0399359,1889,1177,15.6486,-2.14449
672,-153,15.592,2.19824,-0.00289026,-0.000474996,0.00186515,0.000539344,-0.0039046,1.0727,0.00280022,0.0388164,1896,1177,15.5921,-2.19819
679,-153,15.6017,2.28772,-0.00362642,-0.00116112,0.00243102,0.0003319,-0.00511944,1.02003,0.0035288,0.029353,1903,1177,15.6016,-2.28766
686,-153,15.6133,2.29468,-0.00431263,-0.00174137,0.00287584,0.000123127,-0.00617713,0.995595,0.00415974,0.0192065,1910,1177,15.6133,-2.29463
693,-153,15.6675,2.29248,-0.0047971,-0.00206539,0.00314781,1.19675e-07,-0.00686261,0.990093,0.00457512,0.031808,1917,1177,15.6675,-2.29243
700,-153,15.6256,3.12683,0,0,0,0,0,0,0,-1,1924,1177,15.6256,-3.12689
707,-153,15.1169,3.34778,-0.00534113,-0.00272759,0.00353612,-0.0002645,-0.00780421,0.96239,0.00511692,0.038009,1931,1177,15.1169,-3.34774
714,-153,14.6785,3.47632,-0.00556602,-0.00272716,0.00356484,-0.000309547,-0.00798363,0.974864,0.0052223,0.0226369,1938,1177,14.6785,-3.47631
721,-153,14.6343,3.39856,-0.00542981,-0.00250165,0.00331799,-0.000339079,-0.00759238,0.993177,0.00495243,0.0188205,1945,1177,14.6343,-3.39855
728,-153,14.6318,3.35266,-0.00478515,-0.00214601,0.0027988,-0.0003713,-0.00655986,1.00568,0.00425488,0.0235056,1952,1177,14.6318,-3.35266
735,-153,14.5383,3.29272,-0.00372914,-0.00162497,0.00205405,-0.000369241,-0.00498488,1.02208,0.00320726,0.0161503,1959,1177,14.5383,-3.29275
742,-153,14.5498,3.21704,-0.00214402,-0.000755596,0.000928022,-0.000290862,-0.00260875,1.10653,0.00165078,0.0141594,1966,1177,14.5498,-3.2171
749,-153,14.576,3.15051,1.93471e-05,0.000191862,-0.000532776,0.000645318,-0.000434109,-0.865653,0.000627172,0.0152494,1973,1177,14.576,-3.15048
756,-153,14.5865,3.07092,0.00279801,0.00194603,-0.00185664,0.0042769,0.000467136,-0.672628,0.00270902,0.0112722,1980,1177,14.5865,-3.07089
763,-153,14.5691,2.9834,0.00553502,0.00355955,-0.00351641,0.00819979,0.000894782,-0.64848,0.00519402,0.0111321,1987,1177,14.569,-2.98336
770,-153,14.5739,2.90918,0.00855716,0.00530102,-0.00511035,0.0122925,0.00156568,-0.63119,0.00772618,0.00972932,1994,1177,14.5739,-2.90922
777,-153,14.6029,2.82776,0.0120933,0.00756419,-0.00693354,0.0171227,0.00253475,-0.627556,0.010671,0.0193416,2001,1177,14.6029,-2.82774
784,-153,14.7299,2.5575,0.0164247,0.0106048,-0.0090548,0.0230256,0.00400385,-0.629927,0.0142052,0.0396791,2008,1177,14.7299,-2.55745
791,-153,14.8401,2.24866,0.0215863,0.0146985,-0.0113837,0.0300356,0.00624923,-0.63851,0.0182999,0.0466009,2015,1177,14.8401,-2.24862
798,-153,14.9823,1.96838,0.0277584,0.0202631,-0.0137916,0.0383024,0.00971904,-0.652735,0.0229906,0.0496013,2022,1177,14.9823,-1.9684
805,-153,15.1229,1.69922,0,0,0,0,0,0,0,-1,2029,1177,15.1229,-1.6992
812,-153,0,0,0,0,0,0,0,0,0,-1,2036,1177,0,0
-700,-160,0,0,0,0,0,0,0,0,0,-1,524,1184,0,0
-693,-160,0,0,0,0,0,0,0,0,0,-1,531,1184,0,0
-686,-160,-8.00562,-2.90552,0,0,0,0,0,0,0,-1,538,1184,-8.00561,2.90557
-679,-160,-6.86865,1.00085,0,0,0,0,0,0,0,-1,545,1184,-6.86867,-1.00091
-672,-160,-7.91357,-1.46375,0,0,0,0,0,0,0,-1,552,1184,-7.91357,1.46372
-665,-160,-7.86475,-0.0743408,0,0,0,0,0,0,0,-1,559,1184,-7.86478,0.074332
-658,-160,-7.28784,-0.820923,0,0,0,0,0,0,0,-1,566,1184,-7.28787,0.820944
-651,-160,-8.25311,0.806885,0,0,0,0,0,0,0,-1,573,1184,-8.25311,-0.806903
-644,-160,-8.24847,0.79248,0.00378611,0.0123569,-0.00642967,0.0157985,0.000344595,-1.07934,0.0104193,0.0378415,580,1184,-8.24844,-0.792518
-637,-160,-8.26923,0.77832,0.00137026,0.00819313,-0.00490606,0.0107573,-0.00119387,-1.0892,0.00760078,0.0143453,587,1184,-8.26924,-0.778377
-630,-160,-8.30853,0.838135,-0.000241376,0.00457413,-0.00383589,0.00669532,-0.00236257,-1.06566,0.00542534,0.00898798,594,1184,-8.30853,-0.838116
-623,-160,-8.33734,0.922607,-0.00183147,0.0023547,-0.00385574,0.00464884,-0.00412561,-1.03407,0.00506893,0.0101952,601,1184,-8.33734,-0.922649
-616,-160,-8.32831,1.02905,-0.00363236,0.000660791,-0.00459712,0.0035878,-0.00655938,-1.00382,0.00594162,0.00863993,608,1184,-8.32828,-1.02902
-609,-160,-8.30383,1.15857,-0.00514971,-0.000418939,-0.00531685,0.00303495,-0.0086036,-0.994694,0.00697119,0.0113132,615,1184,-8.30381,-1.15853
-602,-160,-8.31281,1.26208,-0.00580722,-0.00101783,-0.00639422,0.0034154,-0.0102405,-0.964569,0.00820588,0.0173416,622,1184,-8.31281,-1.26205
-595,-160,-8.30408,1.37695,-0.00628935,-0.00102004,-0.00722798,0.00403849,-0.0113479,-0.960168,0.0092114,0.0191968,629,1184,-8.30405,-1.37699
-588,-160,-8.35638,1.46545,-0.00691935,-0.0011383,-0.00774497,0.00423796,-0.0122956,-0.964,0.00991633,0.0182055,636,1184,-8.35636,-1.46549
-581,-160,-8.35541,1.55432,-0.00727394,-0.00120804,-0.00809394,0.00440255,-0.0128845,-0.96466,0.0103734,0.0161851,643,1184,-8.35542,-1.5543
-574,-160,-8.52216,1.23474,-0.0071445,-0.000989001,-0.00808713,0.00458624,-0.0127197,-0.967222,0.0103529,0.0408122,650,1184,-8.52213,-1.23479
-567,-160,-8.96942,0.306885,-0.00684463,-0.000809622,-0.00766408,0.00440959,-0.0120638,-0.972939,0.00984721,0.0452393,657,1184,-8.96941,-0.306927
-560,-160,-9.39478,0.426636,-0.00629965,-0.000445759,-0.00674987,0.00398446,-0.0107299,-0.989977,0.00878784,0.038375,664,1184,-9.39481,-0.426604
-553,-160,-9.4411,0.60144,-0.00509946,-2.98294e-05,-0.00522241,0.00324043,-0.00836971,-1.01134,0.00691774,0.0375004,671,1184,-9.44113,-0.601439
-546,-160,-9.49603,0.648438,-0.00324718,0.00040441,-0.00301294,0.00210159,-0.00494436,-1.0578,0.00417689,0.0378773,678,1184,-9.496,-0.648456
-539,-160,-9.66278,0.684448,-0.000762634,0.000819854,-9.48749e-05,0.000825522,-0.000768302,-1.51113,0.000920392,0.0409255,685,1184,-9.66276,-0.68441
-532,-160,-9.83496,0.754028,0,0,0,0,0,0,0,-1,692,1184,-9.83498,-0.754058
-525,-160,-9.40875,0.259399,0.0057635,0.00118063,0.0071945,0.0110227,-0.00407853,0.631228,0.00902071,0.0418863,699,1184,-9.40877,-0.259419
-518,-160,-9.23358,0.449097,0.00768646,5.8933e-05,0.00920806,0.0138393,-0.00609391,0.589064,0.0117945,0.0390222,706,1184,-9.23355,-0.449095
-511,-160,0,0,0,0,0,0,0,0,0,-1,713,1184,0,0
-504,-160,0,0,0,0,0,0,0,0,0,-1,720,1184,0,0
-497,-160,0,0,0,0,0,0,0,0,0,-1,727,1184,0,0
-490,-160,0,0,0,0,0,0,0,0,0,-1,734,1184,0,0
-483,-160,0,0,0,0,0,0,0,0,0,-1,741,1184,0,0
-476,-160,0,0,0,0,0,0,0,0,0,-1,748,1184,0,0
-469,-160,0,0,0,0,0,0,0,0,0,-1,755,1184,0,0
-462,-160,0,0,0,0,0,0,0,0,0,-1,762,1184,0,0
-455,-160,0,0,0,0,0,0,0,0,0,-1,769,1184,0,0
-448,-160,0,0,0,0,0,0,0,0,0,-1,776,1184,0,0
-441,-160,0,0,0,0,0,0,0,0,0,-1,783,1184,0,0
-434,-160,0,0,0,0,0,0,0,0,0,-1,790,1184,0,0
-427,-160,0,0,0,0,0,0,0,0,0,-1,797,1184,0,0
-420,-160,0,0,0,0,0,0,0,0,0,-1,804,1184,0,0
-413,-160,0,0,0,0,0,0,0,0,0,-1,811,1184,0,0
-406,-160,0,0,0,0,0,0,0,0,0,-1,818,1184,0,0
-399,-160,0,0,0,0,0,0,0,0,0,-1,825,1184,0,0
-392,-160,0,0,0,0,0,0,0,0,0,-1,832,1184,0,0
-385,-160,0,0,0,0,0,0,0,0,0,-1,839,1184,0,0
-378,-160,0,0,0,0,0,0,0,0,0,-1,846,1184,0,0
-371,-160,0,0,0,0,0,0,0,0,0,-1,853,1184,0,0
-364,-160,0,0,0,0,0,0,0,0,0,-1,860,1184,0,0
-357,-160,0,0,0,0,0,0,0,0,0,-1,867,1184,0,0
-350,-160,0,0,0,0,0,0,0,0,0,-1,874,1184,0,0
-343,-160,0,0,0,0,0,0,0,0,0,-1,881,1184,0,0
-336,-160,0,0,0,0,0,0,0,0,0,-1,888,1184,0,0
-329,-160,0,0,0,0,0,0,0,0,0,-1,895,1184,0,0
-322,-160,0,0,0,0,0,0,0,0,0,-1,902,1184,0,0
-315,-160,0,0,0,0,0,0,0,0,0,-1,909,1184,0,0
-308,-160,0,0,0,0,0,0,0,0,0,-1,916,1184,0,0
-301,-160,0,0,0,0,0,0,0,0,0,-1,923,1184,0,0
-294,-160,0,0,0,0,0,0,0,0,0,-1,930,1184,0,0
-287,-160,0,0,0,0,0,0,0,0,0,-1,937,1184,0,0
-280,-160,0,0,0,0,0,0,0,0,0,-1,944,1184,0,0
-273,-160,0,0,0,0,0,0,0,0,0,-1,951,1184,0,0
-266,-160,0,0,0,0,0,0,0,0,0,-1,958,1184,0,0
-259,-160,0,0,0,0,0,0,0,0,0,-1,965,1184,0,0
-252,-160,0,0,0,0,0,0,0,0,0,-1,972,1184,0,0
-245,-160,0,0,0,0,0,0,0,0,0,-1,979,1184,0,0
-238,-160,0,0,0,0,0,0,0,0,0,-1,986,1184,0,0
-231,-160,0,0,0,0,0,0,0,0,0,-1,993,1184,0,0
-224,-160,0,0,0,0,0,0,0,0,0,-1,1000,1184,0,0
-217,-160,0,0,0,0,0,0,0,0,0,-1,1007,1184,0,0
-210,-160,0,0,0,0,0,0,0,0,0,-1,1014,1184,0,0
-203,-160,0,0,0,0,0,0,0,0,0,-1,1021,1184,0,0
-196,-160,0,0,0,0,0,0,0,0,0,-1,1028,1184,0,0
-189,-160,0,0,0,0,0,0,0,0,0,-1,1035,1184,0,0
-182,-160,0,0,0,0,0,0,0,0,0,-1,1042,1184,0,0
-175,-160,0,0,0,0,0,0,0,0,0,-1,1049,1184,0,0
-168,-160,0,0,0,0,0,0,0,0,0,-1,1056,1184,0,0
-161,-160,0,0,0,0,0,0,0,0,0,-1,1063,1184,0,0
-154,-160,0,0,0,0,0,0,0,0,0,-1,1070,1184,0,0
-147,-160,0,0,0,0,0,0,0,0,0,-1,1077,1184,0,0
-140,-160,0,0,0,0,0,0,0,0,0,-1,1084,1184,0,0
-133,-160,0,0,0,0,0,0,0,0,0,-1,1091,1184,0,0
-126,-160,0,0,0,0,0,0,0,0,0,-1,1098,1184,0,0
-119,-160,0,0,0,0,0,0,0,0,0,-1,1105,1184,0,0
-112,-160,0,0,0,0,0,0,0,0,0,-1,1112,1184,0,0
-105,-160,0,0,0,0,0,0,0,0,0,-1,1119,1184,0,0
-98,-160,0,0,0,0,0,0,0,0,0,-1,1126,1184,0,0
-91,-160,0,0,0,0,0,0,0,0,0,-1,1133,1184,0,0
-84,-160,0,0,0,0,0,0,0,0,0,-1,1140,1184,0,0
-77,-160,0,0,0,0,0,0,0,0,0,-1,1147,1184,0,0
-70,-160,0,0,0,0,0,0,0,0,0,-1,1154,1184,0,0
-63,-160,0,0,0,0,0,0,0,0,0,-1,1161,1184,0,0
-56,-160,0,0,0,0,0,0,0,0,0,-1,1168,1184,0,0
-49,-160,0,0,0,0,0,0,0,0,0,-1,1175,1184,0,0
-42,-160,0,0,0,0,0,0,0,0,0,-1,1182,1184,0,0
-35,-160,0,0,0,0,0,0,0,0,0,-1,1189,1184,0,0
-28,-160,0,0,0,0,0,0,0,0,0,-1,1196,1184,0,0
-21,-160,0,0,0,0,0,0,0,0,0,-1,1203,1184,0,0
-14,-160,0,0,0,0,0,0,0,0,0,-1,1210,1184,0,0
-7,-160,0,0,0,0,0,0,0,0,0,-1,1217,1184,0,0
0,-160,0,0,0,0,0,0,0,0,0,-1,1224,1184,0,0
7,-160,0,0,0,0,0,0,0,0,0,-1,1231,1184,0,0
14,-160,0,0,0,0,0,0,0,0,0,-1,1238,1184,0,0
21,-160,0,0,0,0,0,0,0,0,0,-1,1245,1184,0,0
28,-160,0,0,0,0,0,0,0,0,0,-1,1252,1184,0,0
35,-160,0,0,0,0,0,0,0,0,0,-1,1259,1184,0,0
42,-160,0,0,0,0,0,0,0,0,0,-1,1266,1184,0,0
49,-160,0,0,0,0,0,0,0,0,0,-1,1273,1184,0,0
56,-160,0,0,0,0,0,0,0,0,0,-1,1280,1184,0,0
63,-160,0,0,0,0,0,0,0,0,0,-1,1287,1184,0,0
70,-160,0,0,0,0,0,0,0,0,0,-1,1294,1184,0,0
77,-160,0,0,0,0,0,0,0,0,0,-1,1301,1184,0,0
84,-160,0,0,0,0,0,0,0,0,0,-1,1308,1184,0,0
91,-160,0,0,0,0,0,0,0,0,0,-1,1315,1184,0,0
98,-160,0,0,0,0,0,0,0,0,0,-1,1322,1184,0,0
105,-160,0,0,0,0,0,0,0,0,0,-1,1329,1184,0,0
112,-160,0,0,0,0,0,0,0,0,0,-1,1336,1184,0,0
119,-160,0,0,0,0,0,0,0,0,0,-1,1343,1184,0,0
126,-160,0,0,0,0,0,0,0,0,0,-1,1350,1184,0,0
133,-160,0,0,0,0,0,0,0,0,0,-1,1357,1184,0,0
140,-160,0,0,0,0,0,0,0,0,0,-1,1364,1184,0,0
147,-160,0,0,0,0,0,0,0,0,0,-1,1371,1184,0,0
154,-160,0,0,0,0,0,0,0,0,0,-1,1378,1184,0,0
161,-160,0,0,0,0,0,0,0,0,0,-1,1385,1184,0,0
168,-160,0,0,0,0,0,0,0,0,0,-1,1392,1184,0,0
175,-160,0,0,0,0,0,0,0,0,0,-1,1399,1184,0,0
182,-160,0,0,0,0,0,0,0,0,0,-1,1406,1184,0,0
189,-160,0,0,0,0,0,0,0,0,0,-1,1413,1184,0,0
196,-160,0,0,0,0,0,0,0,0,0,-1,1420,1184,0,0
203,-160,0,0,0,0,0,0,0,0,0,-1,1427,1184,0,0
210,-160,0,0,0,0,0,0,0,0,0,-1,1434,1184,0,0
217,-160,0,0,0,0,0,0,0,0,0,-1,1441,1184,0,0
224,-160,0,0,0,0,0,0,0,0,0,-1,1448,1184,0,0
231,-160,0,0,0,0,0,0,0,0,0,-1,1455,1184,0,0
238,-160,0,0,0,0,0,0,0,0,0,-1,1462,1184,0,0
245,-160,0,0,0,0,0,0,0,0,0,-1,1469,1184,0,0
252,-160,0,0,0,0,0,0,0,0,0,-1,1476,1184,0,0
259,-160,0,0,0,0,0,0,0,0,0,-1,1483,1184,0,0
266,-160,0,0,0,0,0,0,0,0,0,-1,1490,1184,0,0
273,-160,0,0,0,0,0,0,0,0,0,-1,1497,1184,0,0
280,-160,0,0,0,0,0,0,0,0,0,-1,1504,1184,0,0
287,-160,0,0,0,0,0,0,0,0,0,-1,1511,1184,0,0
294,-160,0,0,0,0,0,0,0,0,0,-1,1518,1184,0,0
301,-160,0,0,0,0,0,0,0,0,0,-1,1525,1184,0,0
308,-160,0,0,0,0,0,0,0,0,0,-1,1532,1184,0,0
315,-160,0,0,0,0,0,0,0,0,0,-1,1539,1184,0,0
322,-160,0,0,0,0,0,0,0,0,0,-1,1546,1184,0,0
329,-160,0,0,0,0,0,0,0,0,0,-1,1553,1184,0,0
336,-160,0,0,0,0,0,0,0,0,0,-1,1560,1184,0,0
343,-160,0,0,0,0,0,0,0,0,0,-1,1567,1184,0,0
350,-160,0,0,0,0,0,0,0,0,0,-1,1574,1184,0,0
357,-160,0,0,0,0,0,0,0,0,0,-1,1581,1184,0,0
364,-160,0,0,0,0,0,0,0,0,0,-1,1588,1184,0,0
371,-160,0,0,0,0,0,0,0,0,0,-1,1595,1184,0,0
378,-160,0,0,0,0,0,0,0,0,0,-1,1602,1184,0,0
385,-160,0,0,0,0,0,0,0,0,0,-1,1609,1184,0,0
392,-160,0,0,0,0,0,0,0,0,0,-1,1616,1184,0,0
399,-160,0,0,0,0,0,0,0,0,0,-1,1623,1184,0,0
406,-160,0,0,0,0,0,0,0,0,0,-1,1630,1184,0,0
413,-160,0,0,0,0,0,0,0,0,0,-1,1637,1184,0,0
420,-160,0,0,0,0,0,0,0,0,0,-1,1644,1184,0,0
427,-160,0,0,0,0,0,0,0,0,0,-1,1651,1184,0,0
434,-160,0,0,0,0,0,0,0,0,0,-1,1658,1184,0,0
441,-160,0,0,0,0,0,0,0,0,0,-1,1665,1184,0,0
448,-160,0,0,0,0,0,0,0,0,0,-1,1672,1184,0,0
455,-160,0,0,0,0,0,0,0,0,0,-1,1679,1184,0,0
462,-160,0,0,0,0,0,0,0,0,0,-1,1686,1184,0,0
469,-160,0,0,0,0,0,0,0,0,0,-1,1693,1184,0,0
476,-160,0,0,0,0,0,0,0,0,0,-1,1700,1184,0,0
483,-160,0,0,0,0,0,0,0,0,0,-1,1707,1184,0,0
490,-160,0,0,0,0,0,0,0,0,0,-1,1714,1184,0,0
497,-160,0,0,0,0,0,0,0,0,0,-1,1721,1184,0,0
504,-160,0,0,0,0,0,0,0,0,0,-1,1728,1184,0,0
511,-160,0,0,0,0,0,0,0,0,0,-1,1735,1184,0,0
518,-160,0,0,0,0,0,0,0,0,0,-1,1742,1184,0,0
525,-160,0,0,0,0,0,0,0,0,0,-1,1749,1184,0,0
532,-160,0,0,0,0,0,0,0,0,0,-1,1756,1184,0,0
539,-160,0,0,0,0,0,0,0,0,0,-1,1763,1184,0,0
546,-160,0,0,0,0,0,0,0,0,0,-1,1770,1184,0,0
553,-160,0,0,0,0,0,0,0,0,0,-1,1777,1184,0,0
560,-160,0,0,0,0,0,0,0,0,0,-1,1784,1184,0,0
567,-160,0,0,0,0,0,0,0,0,0,-1,1791,1184,0,0
574,-160,0,0,0,0,0,0,0,0,0,-1,1798,1184,0,0
581,-160,0,0,0,0,0,0,0,0,0,-1,1805,1184,0,0
588,-160,0,0,0,0,0,0,0,0,0,-1,1812,1184,0,0
595,-160,0,0,0,0,0,0,0,0,0,-1,1819,1184,0,0
602,-160,0,0,0,0,0,0,0,0,0,-1,1826,1184,0,0
609,-160,0,0,0,0,0,0,0,0,0,-1,1833,1184,0,0
616,-160,0,0,0,0,0,0,0,0,0,-1,1840,1184,0,0
623,-160,0,0,0,0,0,0,0,0,0,-1,1847,1184,0,0
630,-160,0,0,0,0,0,0,0,0,0,-1,1854,1184,0,0
637,-160,15.9193,2.17749,-0.00603707,0.00176338,0.00198275,0.00223843,-0.00651212,1.33564,0.00524914,0.0416502,1861,1184,15.9193,-2.1775
644,-160,15.8574,2.11072,-0.00395266,0.00161353,0.00131511,0.0019086,-0.00424773,1.35008,0.00363888,0.0390074,1868,1184,15.8574,-2.11068
651,-160,15.627,2.16907,-0.0026089,0.00128942,0.000880337,0.001479,-0.00279848,1.35868,0.00250847,0.0356405,1875,1184,15.627,-2.16906
658,-160,15.5977,2.14685,-0.00215808,0.00078535,0.000963689,0.00107279,-0.00244553,1.28092,0.0020822,0.0377558,1882,1184,15.5976,-2.14688
665,-160,15.674,2.20984,-0.00248634,6.11908e-05,0.00139169,0.000674032,-0.00309918,1.15599,0.00232362,0.0392588,1889,1184,15.6739,-2.20984
672,-160,15.6022,2.27783,-0.0030679,-0.000606335,0.00183883,0.000375598,-0.00404983,1.08032,0.0028334,0.0360423,1896,1184,15.6022,-2.27788
679,-160,15.5966,2.36658,-0.00374095,-0.00120084,0.00227019,0.000130411,-0.0050722,1.04043,0.00342577,0.0281197,1903,1184,15.5966,-2.36663
686,-160,15.6199,2.2804,-0.00433586,-0.00170066,0.00259627,-0.000106789,-0.00592973,1.02021,0.00391804,0.0191977,1910,1184,15.6198,-2.28041
693,-160,15.6095,2.22009,0,0,0,0,0,0,0,-1,1917,1184,15.6095,-2.22012
700,-160,14.3595,3.99683,0,0,0,0,0,0,0,-1,1924,1184,14.3595,-3.99683
707,-160,14.5504,3.81494,-0.00512971,-0.00251938,0.00306585,-0.000492446,-0.00715665,0.986634,0.00461572,0.0399508,1931,1184,14.5505,-3.815
714,-160,14.6151,3.57178,-0.00531996,-0.00249908,0.0030681,-0.000532745,-0.00728629,1.00085,0.00469004,0.0287083,1938,1184,14.6151,-3.5718
721,-160,14.6075,3.33728,-0.00517245,-0.00228436,0.00281196,-0.000567332,-0.00688947,1.02261,0.00441603,0.0142202,1945,1184,14.6075,-3.33727
728,-160,14.5753,3.30762,-0.00449571,-0.00199876,0.00229451,-0.000635059,-0.00585941,1.03455,0.00371273,0.0121081,1952,1184,14.5753,-3.30764
735,-160,14.4944,3.2627,-0.00342499,-0.00158743,0.00153826,-0.000714447,-0.00429797,1.05461,0.00265935,0.0123184,1959,1184,14.4943,-3.26264
742,-160,14.486,3.18164,-0.00186252,-0.000845238,0.000377983,-0.000720169,-0.00198758,1.25125,0.00116194,0.0146401,1966,1184,14.486,-3.18169
749,-160,14.498,3.10925,0.000217138,-9.36271e-05,-0.00110771,0.00118032,-0.0010568,-0.715716,0.00129226,0.0165262,1973,1184,14.4981,-3.10922
756,-160,14.4976,3.05139,0.00281786,0.00125231,-0.00245327,0.00461021,-0.000540041,-0.630966,0.00326839,0.0114643,1980,1184,14.4975,-3.05145
763,-160,14.4863,2.98108,0.00541423,0.00238528,-0.00408088,0.00825259,-0.000453081,-0.607718,0.00565881,0.0117477,1987,1184,14.4863,-2.98103
770,-160,14.4852,2.9115,0.00828179,0.0035493,-0.00576649,0.0121486,-0.000317551,-0.590702,0.008207,0.0171353,1994,1184,14.4853,-2.91155
777,-160,14.5122,2.83313,0.0117475,0.00507918,-0.00774132,0.0168421,-1.54646e-05,-0.582055,0.0112333,0.0303397,2001,1184,14.5122,-2.83311
784,-160,14.7311,2.66309,0.0160423,0.00716962,-0.00998671,0.0225337,0.000678211,-0.576379,0.0148016,0.0433084,2008,1184,14.7311,-2.66313
791,-160,14.8629,2.27148,0.0212889,0.0100904,-0.0123939,0.0292897,0.00208969,-0.573233,0.0188685,0.0476852,2015,1184,14.863,-2.27148
798,-160,14.8667,1.45703,0.0277985,0.0142642,-0.0147535,0.0372628,0.00479994,-0.570373,0.0234065,0.0455666,2022,1184,14.8667,-1.45709
805,-160,14.8484,0.651978,0,0,0,0,0,0,0,-1,2029,1184,14.8484,-0.651917
812,-160,0,0,0,0,0,0,0,0,0,-1,2036,1184,0,0
-700,-167,0,0,0,0,0,0,0,0,0,-1,524,1191,0,0
-693,-167,0,0,0,0,0,0,0,0,0,-1,531,1191,0,0
-686,-167,-8.27576,1.56177,0,0,0,0,0,0,0,-1,538,1191,-8.27577,-1.56172
-679,-167,-8.44342,1.34363,0,0,0,0,0,0,0,-1,545,1191,-8.44344,-1.34358
-672,-167,-8.09863,1.53638,0,0,0,0,0,0,0,-1,552,1191,-8.09865,-1.53639
-665,-167,-8.01251,1.6283,0,0,0,0,0,0,0,-1,559,1191,-8.01254,-1.62824
-658,-167,-7.60309,2.06226,0,0,0,0,0,0,0,-1,566,1191,-7.60309,-2.06231
-651,-167,-7.68872,1.47131,0.00998012,0.0169497,-0.00850853,0.0226594,0.00427042,-0.979761,0.0139032,0.0484658,573,1191,-7.68872,-1.47134
-644,-167,-7.97083,0.971802,0.00540504,0.0116735,-0.00646961,0.0157281,0.00135044,-1.01096,0.0100655,0.0383232,580,1191,-7.9708,-0.971754
-637,-167,-8.172,0.760986,0.00234697,0.00782212,-0.0048828,0.0106824,-0.000513313,-1.04089,0.00729873,0.0158001,587,1191,-8.17198,-0.760966
-630,-167,-8.21173,0.821167,0.000331203,0.00447843,-0.00373829,0.0066797,-0.00187007,-1.03862,0.00519004,0.00861596,594,1191,-8.21173,-0.821147
-623,-167,-8.2204,0.916382,-0.00143035,0.00241128,-0.00363377,0.00460067,-0.00361974,-1.02853,0.00475731,0.0099092,601,1191,-8.22042,-0.916344
-616,-167,-8.20917,1.0321,-0.00332907,0.000783905,-0.00424372,0.00344317,-0.00598834,-1.01102,0.00551098,0.0125234,608,1191,-8.20914,-1.03208
-609,-167,-8.21521,1.1532,-0.0048665,-0.000231233,-0.00480895,0.00278943,-0.00788716,-1.00995,0.00639406,0.013077,615,1191,-8.21519,-1.1532
-602,-167,-8.23071,1.2157,-0.0054469,-0.000789241,-0.00579552,0.00312785,-0.00936399,-0.976441,0.00750575,0.0143257,622,1191,-8.23073,-1.21565
-595,-167,-8.2467,1.32727,-0.00576199,-0.000803989,-0.00660864,0.00377531,-0.0103413,-0.964834,0.00843898,0.0188488,629,1191,-8.24669,-1.32725
-588,-167,-8.23938,1.49329,-0.0062307,-0.000964555,-0.00716967,0.00404025,-0.0112355,-0.961378,0.00913977,0.0183792,636,1191,-8.23938,-1.49334
-581,-167,-8.24945,1.56946,-0.00647497,-0.00102718,-0.00759444,0.00431708,-0.0118192,-0.957587,0.00964609,0.017486,643,1191,-8.24947,-1.56942
-574,-167,-8.33661,1.66748,-0.00629919,-0.000795846,-0.00764483,0.00457745,-0.0116725,-0.958149,0.0096754,0.0400413,650,1191,-8.33659,-1.66752
-567,-167,-8.74542,0.4646,-0.00598597,-0.000626397,-0.00728234,0.00445357,-0.0110659,-0.961701,0.0092273,0.0405614,657,1191,-8.74542,-0.464542
-560,-167,-9.35571,0.338989,-0.00553058,-0.000256777,-0.00649666,0.00411773,-0.00990508,-0.978183,0.00832274,0.0390145,664,1191,-9.35574,-0.339021
-553,-167,-9.38123,0.490234,-0.00449287,0.000109788,-0.00515257,0.00345161,-0.00783469,-0.995425,0.00667793,0.0352697,671,1191,-9.3812,-0.49024
-546,-167,-9.43524,0.543823,-0.00291394,0.000497585,-0.00319184,0.00241086,-0.00482721,-1.0308,0.00425582,0.0309331,678,1191,-9.43525,-0.543792
-539,-167,-9.45135,0.567749,-0.000844338,0.000850494,-0.000577104,0.00102834,-0.00102218,-1.27186,0.00118387,0.0363522,685,1191,-9.45136,-0.567689
-532,-167,-9.53888,0.451782,0.00179084,0.00112416,0.00271245,0.00419036,-0.00127536,0.724259,0.00330184,0.0440863,692,1191,-9.53885,-0.451813
-525,-167,-9.40894,0.328491,0.0045296,0.00109607,0.00631842,0.00936033,-0.00373466,0.652747,0.00778949,0.0458191,699,1191,-9.40892,-0.328508
-518,-167,-9.21686,0.408691,0.00617794,1.85953e-05,0.00869656,0.012324,-0.00612749,0.615226,0.0108514,0.0426942,706,1191,-9.21684,-0.408631
-511,-167,0,0,0,0,0,0,0,0,0,-1,713,1191,0,0
-504,-167,0,0,0,0,0,0,0,0,0,-1,720,1191,0,0
-497,-167,0,0,0,0,0,0,0,0,0,-1,727,1191,0,0
-490,-167,0,0,0,0,0,0,0,0,0,-1,734,1191,0,0
-483,-167,0,0,0,0,0,0,0,0,0,-1,741,1191,0,0
-476,-167,0,0,0,0,0,0,0,0,0,-1,748,1191,0,0
-469,-167,0,0,0,0,0,0,0,0,0,-1,755,1191,0,0
-462,-167,0,0,0,0,0,0,0,0,0,-1,762,1191,0,0
-455,-167,0,0,0,0,0,0,0,0,0,-1,769,1191,0,0
-448,-167,0,0,0,0,0,0,0,0,0,-1,776,1191,0,0
-441,-167,0,0,0,0,0,0,0,0,0,-1,783,1191,0,0
-434,-167,0,0,0,0,0,0,0,0,0,-1,790,1191,0,0
-427,-167,0,0,0,0,0,0,0,0,0,-1,797,1191,0,0
-420,-167,0,0,0,0,0,0,0,0,0,-1,804,1191,0,0
-413,-167,0,0,0,0,0,0,0,0,0,-1,811,1191,0,0
-406,-167,0,0,0,0,0,0,0,0,0,-1,818,1191,0,0
-399,-167,0,0,0,0,0,0,0,0,0,-1,825,1191,0,0
-392,-167,0,0,0,0,0,0,0,0,0,-1,832,1191,0,0
-385,-167,0,0,0,0,0,0,0,0,0,-1,839,1191,0,0
-378,-167,0,0,0,0,0,0,0,0,0,-1,846,1191,0,0
-371,-167,0,0,0,0,0,0,0,0,0,-1,853,1191,0,0
-364,-167,0,0,0,0,0,0,0,0,0,-1,860,1191,0,0
-357,-167,0,0,0,0,0,0,0,0,0,-1,867,1191,0,0
-350,-167,0,0,0,0,0,0,0,0,0,-1,874,1191,0,0
-343,-167,0,0,0,0,0,0,0,0,0,-1,881,1191,0,0
-336,-167,0,0,0,0,0,0,0,0,0,-1,888,1191,0,0
-329,-167,0,0,0,0,0,0,0,0,0,-1,895,1191,0,0
-322,-167,0,0,0,0,0,0,0,0,0,-1,902,1191,0,0
-315,-167,0,0,0,0,0,0,0,0,0,-1,909,1191,0,0
-308,-167,0,0,0,0,0,0,0,0,0,-1,916,1191,0,0
-301,-167,0,0,0,0,0,0,0,0,0,-1,923,1191,0,0
-294,-167,0,0,0,0,0,0,0,0,0,-1,930,1191,0,0
-287,-167,0,0,0,0,0,0,0,0,0,-1,937,1191,0,0
-280,-167,0,0,0,0,0,0,0,0,0,-1,944,1191,0,0
-273,-167,0,0,0,0,0,0,0,0,0,-1,951,1191,0,0
-266,-167,0,0,0,0,0,0,0,0,0,-1,958,1191,0,0
-259,-167,0,0,0,0,0,0,0,0,0,-1,965,1191,0,0
-252,-167,0,0,0,0,0,0,0,0,0,-1,972,1191,0,0
-245,-167,0,0,0,0,0,0,0,0,0,-1,979,1191,0,0
-238,-167,0,0,0,0,0,0,0,0,0,-1,986,1191,0,0
-231,-167,0,0,0,0,0,0,0,0,0,-1,993,1191,0,0
-224,-167,0,0,0,0,0,0,0,0,0,-1,1000,1191,0,0
-217,-167,0,0,0,0,0,0,0,0,0,-1,1007,1191,0,0
-210,-167,0,0,0,0,0,0,0,0,0,-1,1014,1191,0,0
-203,-167,0,0,0,0,0,0,0,0,0,-1,1021,1191,0,0
-196,-167,0,0,0,0,0,0,0,0,0,-1,1028,1191,0,0
-189,-167,0,0,0,0,0,0,0,0,0,-1,1035,1191,0,0
-182,-167,0,0,0,0,0,0,0,0,0,-1,1042,1191,0,0
-175,-167,0,0,0,0,0,0,0,0,0,-1,1049,1191,0,0
-168,-167,0,0,0,0,0,0,0,0,0,-1,1056,1191,0,0
-161,-167,0,0,0,0,0,0,0,0,0,-1,1063,1191,0,0
-154,-167,0,0,0,0,0,0,0,0,0,-1,1070,1191,0,0
-147,-167,0,0,0,0,0,0,0,0,0,-1,1077,1191,0,0
-140,-167,0,0,0,0,0,0,0,0,0,-1,1084,1191,0,0
-133,-167,0,0,0,0,0,0,0,0,0,-1,1091,1191,0,0
-126,-167,0,0,0,0,0,0,0,0,0,-1,1098,1191,0,0
-119,-167,0,0,0,0,0,0,0,0,0,-1,1105,1191,0,0
-112,-167,0,0,0,0,0,0,0,0,0,-1,1112,1191,0,0
-105,-167,0,0,0,0,0,0,0,0,0,-1,1119,1191,0,0
-98,-167,0,0,0,0,0,0,0,0,0,-1,1126,1191,0,0
-91,-167,0,0,0,0,0,0,0,0,0,-1,1133,1191,0,0
-84,-167,0,0,0,0,0,0,0,0,0,-1,1140,1191,0,0
-77,-167,0,0,0,0,0,0,0,0,0,-1,1147,1191,0,0
-70,-167,0,0,0,0,0,0,0,0,0,-1,1154,1191,0,0
-63,-167,0,0,0,0,0,0,0,0,0,-1,1161,1191,0,0
-56,-167,0,0,0,0,0,0,0,0,0,-1,1168,1191,0,0
-49,-167,0,0,0,0,0,0,0,0,0,-1,1175,1191,0,0
-42,-167,0,0,0,0,0,0,0,0,0,-1,1182,1191,0,0
-35,-167,0,0,0,0,0,0,0,0,0,-1,1189,1191,0,0
-28,-167,0,0,0,0,0,0,0,0,0,-1,1196,1191,0,0
-21,-167,0,0,0,0,0,0,0,0,0,-1,1203,1191,0,0
-14,-167,0,0,0,0,0,0,0,0,0,-1,1210,1191,0,0
-7,-167,0,0,0,0,0,0,0,0,0,-1,1217,1191,0,0
0,-167,0,0,0,0,0,0,0,0,0,-1,1224,1191,0,0
7,-167,0,0,0,0,0,0,0,0,0,-1,1231,1191,0,0
14,-167,0,0,0,0,0,0,0,0,0,-1,1238,1191,0,0
21,-167,0,0,0,0,0,0,0,0,0,-1,1245,1191,0,0
28,-167,0,0,0,0,0,0,0,0,0,-1,1252,1191,0,0
35,-167,0,0,0,0,0,0,0,0,0,-1,1259,1191,0,0
42,-167,0,0,0,0,0,0,0,0,0,-1,1266,1191,0,0
49,-167,0,0,0,0,0,0,0,0,0,-1,1273,1191,0,0
56,-167,0,0,0,0,0,0,0,0,0,-1,1280,1191,0,0
63,-167,0,0,0,0,0,0,0,0,0,-1,1287,1191,0,0
70,-167,0,0,0,0,0,0,0,0,0,-1,1294,1191,0,0
77,-167,0,0,0,0,0,0,0,0,0,-1,1301,1191,0,0
84,-167,0,0,0,0,0,0,0,0,0,-1,1308,1191,0,0
91,-167,0,0,0,0,0,0,0,0,0,-1,1315,1191,0,0
98,-167,0,0,0,0,0,0,0,0,0,-1,1322,1191,0,0
105,-167,0,0,0,0,0,0,0,0,0,-1,1329,1191,0,0
112,-167,0,0,0,0,0,0,0,0,0,-1,1336,1191,0,0
119,-167,0,0,0,0,0,0,0,0,0,-1,1343,1191,0,0
126,-167,0,0,0,0,0,0,0,0,0,-1,1350,1191,0,0
133,-167,0,0,0,0,0,0,0,0,0,-1,1357,1191,0,0
140,-167,0,0,0,0,0,0,0,0,0,-1,1364,1191,0,0
147,-167,0,0,0,0,0,0,0,0,0,-1,1371,1191,0,0
154,-167,0,0,0,0,0,0,0,0,0,-1,1378,1191,0,0
161,-167,0,0,0,0,0,0,0,0,0,-1,1385,1191,0,0
168,-167,0,0,0,0,0,0,0,0,0,-1,1392,1191,0,0
175,-167,0,0,0,0,0,0,0,0,0,-1,1399,1191,0,0
182,-167,0,0,0,0,0,0,0,0,0,-1,1406,1191,0,0
189,-167,0,0,0,0,0,0,0,0,0,-1,1413,1191,0,0
196,-167,0,0,0,0,0,0,0,0,0,-1,1420,1191,0,0
203,-167,0,0,0,0,0,0,0,0,0,-1,1427,1191,0,0
210,-167,0,0,0,0,0,0,0,0,0,-1,1434,1191,0,0
217,-167,0,0,0,0,0,0,0,0,0,-1,1441,1191,0,0
224,-167,0,0,0,0,0,0,0,0,0,-1,1448,1191,0,0
231,-167,0,0,0,0,0,0,0,0,0,-1,1455,1191,0,0
238,-167,0,0,0,0,0,0,0,0,0,-1,1462,1191,0,0
245,-167,0,0,0,0,0,0,0,0,0,-1,1469,1191,0,0
252,-167,0,0,0,0,0,0,0,0,0,-1,1476,1191,0,0
259,-167,0,0,0,0,0,0,0,0,0,-1,1483,1191,0,0
266,-167,0,0,0,0,0,0,0,0,0,-1,1490,1191,0,0
273,-167,0,0,0,0,0,0,0,0,0,-1,1497,1191,0,0
280,-167,0,0,0,0,0,0,0,0,0,-1,1504,1191,0,0
287,-167,0,0,0,0,0,0,0,0,0,-1,1511,1191,0,0
294,-167,0,0,0,0,0,0,0,0,0,-1,1518,1191,0,0
301,-167,0,0,0,0,0,0,0,0,0,-1,1525,1191,0,0
308,-167,0,0,0,0,0,0,0,0,0,-1,1532,1191,0,0
315,-167,0,0,0,0,0,0,0,0,0,-1,1539,1191,0,0
322,-167,0,0,0,0,0,0,0,0,0,-1,1546,1191,0,0
329,-167,0,0,0,0,0,0,0,0,0,-1,1553,1191,0,0
336,-167,0,0,0,0,0,0,0,0,0,-1,1560,1191,0,0
343,-167,0,0,0,0,0,0,0,0,0,-1,1567,1191,0,0
350,-167,0,0,0,0,0,0,0,0,0,-1,1574,1191,0,0
357,-167,0,0,0,0,0,0,0,0,0,-1,1581,1191,0,0
364,-167,0,0,0,0,0,0,0,0,0,-1,1588,1191,0,0
371,-167,0,0,0,0,0,0,0,0,0,-1,1595,1191,0,0
378,-167,0,0,0,0,0,0,0,0,0,-1,1602,1191,0,0
385,-167,0,0,0,0,0,0,0,0,0,-1,1609,1191,0,0
392,-167,0,0,0,0,0,0,0,0,0,-1,1616,1191,0,0
399,-167,0,0,0,0,0,0,0,0,0,-1,1623,1191,0,0
406,-167,0,0,0,0,0,0,0,0,0,-1,1630,1191,0,0
413,-167,0,0,0,0,0,0,0,0,0,-1,1637,1191,0,0
420,-167,0,0,0,0,0,0,0,0,0,-1,1644,1191,0,0
427,-167,0,0,0,0,0,0,0,0,0,-1,1651,1191,0,0
434,-167,0,0,0,0,0,0,0,0,0,-1,1658,1191,0,0
441,-167,0,0,0,0,0,0,0,0,0,-1,1665,1191,0,0
448,-167,0,0,0,0,0,0,0,0,0,-1,1672,1191,0,0
455,-167,0,0,0,0,0,0,0,0,0,-1,1679,1191,0,0
462,-167,0,0,0,0,0,0,0,0,0,-1,1686,1191,0,0
469,-167,0,0,0,0,0,0,0,0,0,-1,1693,1191,0,0
476,-167,0,0,0,0,0,0,0,0,0,-1,1700,1191,0,0
483,-167,0,0,0,0,0,0,0,0,0,-1,1707,1191,0,0
490,-167,0,0,0,0,0,0,0,0,0,-1,1714,1191,0,0
497,-167,0,0,0,0,0,0,0,0,0,-1,1721,1191,0,0
504,-167,0,0,0,0,0,0,0,0,0,-1,1728,1191,0,0
511,-167,0,0,0,0,0,0,0,0,0,-1,1735,1191,0,0
518,-167,0,0,0,0,0,0,0,0,0,-1,1742,1191,0,0
525,-167,0,0,0,0,0,0,0,0,0,-1,1749,1191,0,0
532,-167,0,0,0,0,0,0,0,0,0,-1,1756,1191,0,0
539,-167,0,0,0,0,0,0,0,0,0,-1,1763,1191,0,0
546,-167,0,0,0,0,0,0,0,0,0,-1,1770,1191,0,0
553,-167,0,0,0,0,0,0,0,0,0,-1,1777,1191,0,0
560,-167,0,0,0,0,0,0,0,0,0,-1,1784,1191,0,0
567,-167,0,0,0,0,0,0,0,0,0,-1,1791,1191,0,0
574,-167,0,0,0,0,0,0,0,0,0,-1,1798,1191,0,0
581,-167,0,0,0,0,0,0,0,0,0,-1,1805,1191,0,0
588,-167,0,0,0,0,0,0,0,0,0,-1,1812,1191,0,0
595,-167,0,0,0,0,0,0,0,0,0,-1,1819,1191,0,0
602,-167,0,0,0,0,0,0,0,0,0,-1,1826,1191,0,0
609,-167,0,0,0,0,0,0,0,0,0,-1,1833,1191,0,0
616,-167,0,0,0,0,0,0,0,0,0,-1,1840,1191,0,0
623,-167,0,0,0,0,0,0,0,0,0,-1,1847,1191,0,0
630,-167,0,0,0,0,0,0,0,0,0,-1,1854,1191,0,0
637,-167,15.8779,2.15344,-0.00602354,0.00131232,0.00231915,0.00198399,-0.00669521,1.28889,0.00525126,0.0412995,1861,1191,15.8779,-2.15343
644,-167,15.8763,2.23779,-0.00369824,0.00120745,0.00146336,0.00161081,-0.0041016,1.30184,0.00340096,0.0408019,1868,1191,15.8763,-2.23781
651,-167,15.6606,2.33875,-0.0024105,0.000897317,0.00098439,0.0011681,-0.00268128,1.30236,0.00227896,0.0376799,1875,1191,15.6607,-2.33874
658,-167,15.5446,2.23462,-0.00211913,0.000398773,0.00106582,0.000789348,-0.0025097,1.21954,0.00198916,0.0387076,1882,1191,15.5446,-2.23458
665,-167,15.6511,2.28503,-0.00246212,-0.000205342,0.00138674,0.000454089,-0.00312155,1.12692,0.00224774,0.03506,1889,1191,15.6511,-2.28503
672,-167,15.6083,2.35571,-0.0030147,-0.000749007,0.00172995,0.00018601,-0.00394972,1.07528,0.00269729,0.027224,1896,1191,15.6083,-2.35573
679,-167,15.5786,2.34094,-0.00363471,-0.00121954,0.00208249,-1.98372e-05,-0.0048344,1.04814,0.00321634,0.0231349,1903,1191,15.5786,-2.34094
686,-167,15.5773,2.2312,-0.00416077,-0.00161736,0.00233421,-0.000230914,-0.00554721,1.03482,0.00362362,0.0346166,1910,1191,15.5772,-2.23114
693,-167,15.5197,2.11072,0,0,0,0,0,0,0,-1,1917,1191,15.5197,-2.11071
700,-167,15.2056,3.76611,0,0,0,0,0,0,0,-1,1924,1191,15.2056,-3.76614
707,-167,14.4458,3.7627,-0.00482443,-0.0022318,0.0026892,-0.000542774,-0.00651345,1.00999,0.00417316,0.0357618,1931,1191,14.4457,-3.76264
714,-167,14.5432,3.54822,-0.00499206,-0.00218991,0.00268434,-0.000563001,-0.00661897,1.02592,0.00423747,0.0229615,1938,1191,14.5432,-3.54821
721,-167,14.5525,3.37976,-0.00484392,-0.00197736,0.00243136,-0.000588262,-0.00623302,1.05173,0.0039738,0.0186223,1945,1191,14.5524,-3.3797
728,-167,14.47,3.35352,-0.00414861,-0.00176579,0.00191633,-0.000700703,-0.00521369,1.06351,0.00326737,0.0131812,1952,1191,14.4699,-3.35357
735,-167,14.425,3.29395,-0.00306891,-0.00147102,0.00113567,-0.000881414,-0.00365851,1.09193,0.00220473,0.0129504,1959,1191,14.4251,-3.29396
742,-167,14.4066,3.20581,-0.00153722,-0.000941933,-8.94505e-05,-0.000928782,-0.00155037,-1.42482,0.000900943,0.014819,1966,1191,14.4066,-3.20581
749,-167,14.4004,3.11316,0.000424511,-0.000458584,-0.00164839,0.00168946,-0.00172354,-0.654537,0.00197053,0.0140728,1973,1191,14.4004,-3.11322
756,-167,14.4071,3.04858,0.00274703,0.000377937,-0.00314853,0.00492647,-0.0018015,-0.605477,0.00402164,0.0107596,1980,1191,14.4071,-3.04853
763,-167,14.3888,2.9613,0.00501938,0.000915092,-0.00496162,0.0083365,-0.00240203,-0.589309,0.00650782,0.0115417,1987,1191,14.3888,-2.96131
770,-167,14.371,2.92395,0.00753889,0.00133781,-0.00701834,0.0121111,-0.00323436,-0.577401,0.00934072,0.0215234,1994,1191,14.371,-2.92397
777,-167,14.5599,2.59656,0.0105624,0.00187698,-0.0095433,0.0167046,-0.00426525,-0.571874,0.0127973,0.0378458,2001,1191,14.5599,-2.59661
784,-167,14.7135,2.75732,0,0,0,0,0,0,0,-1,2008,1191,14.7136,-2.75732
791,-167,14.8684,2.13257,0.0185473,0.00388013,-0.0158771,0.0287027,-0.0062752,-0.569045,0.0215338,0.0456439,2015,1191,14.8684,-2.13252
798,-167,14.6306,1.61609,0.0238195,0.00590044,-0.0194596,0.0362831,-0.00656313,-0.569657,0.0266472,0.0484305,2022,1191,14.6306,-1.61603
805,-167,15.0997,0.384399,0,0,0,0,0,0,0,-1,2029,1191,15.0998,-0.384427
812,-167,0,0,0,0,0,0,0,0,0,-1,2036,1191,0,0
-700,-174,0,0,0,0,0,0,0,0,0,-1,524,1198,0,0
-693,-174,0,0,0,0,0,0,0,0,0,-1,531,1198,0,0
-686,-174,-8.216,1.10999,0,0,0,0,0,0,0,-1,538,1198,-8.216,-1.11
-679,-174,-8.02747,1.14795,0,0,0,0,0,0,0,-1,545,1198,-8.02746,-1.14795
-672,-174,-7.93121,1.13208,0,0,0,0,0,0,0,-1,552,1198,-7.93122,-1.13203
-665,-174,-7.75867,2.87378,0,0,0,0,0,0,0,-1,559,1198,-7.75867,-2.87379
-658,-174,-7.77881,2.35889,0,0,0,0,0,0,0,-1,566,1198,-7.77883,-2.35887
-651,-174,-7.80054,1.83008,0.0150978,0.0154814,-0.0124134,0.0277045,0.00287476,-0.793124,0.0175899,0.0450059,573,1198,-7.80053,-1.83014
-644,-174,-8.0025,1.22168,0.00890607,0.0105466,-0.00897683,0.0187406,0.000712116,-0.83096,0.0122632,0.0392131,580,1198,-8.00253,-1.22164
-637,-174,-8.06317,0.733887,0.00468706,0.00703985,-0.00639097,0.0123618,-0.000634877,-0.876415,0.00846076,0.0205366,587,1198,-8.06317,-0.733903
-630,-174,-8.08844,0.813477,0.00187617,0.0040489,-0.00457737,0.00766706,-0.00174198,-0.901909,0.0057802,0.0115744,594,1198,-8.08846,-0.813511
-623,-174,-8.11469,0.918091,-0.0003237,0.00223289,-0.00394084,0.00509757,-0.00318838,-0.94223,0.00482604,0.0130478,601,1198,-8.11467,-0.9181
-616,-174,-8.10712,1.04504,-0.00262262,0.00063003,-0.00387774,0.00320868,-0.00520127,-0.983957,0.0049007,0.0192444,608,1198,-8.10711,-1.04508
-609,-174,-8.12524,1.15198,-0.0042557,-0.000103387,-0.00419176,0.0024982,-0.00685729,-1.01534,0.00559342,0.0218346,615,1198,-8.12527,-1.15192
-602,-174,-8.13293,1.22449,-0.00472029,-0.000566906,-0.00511898,0.00288059,-0.00816779,-0.978097,0.00661777,0.0145775,622,1198,-8.13292,-1.22444
-595,-174,-8.11835,1.35193,-0.00482133,-0.000546019,-0.00592957,0.00361945,-0.0089868,-0.958401,0.0074949,0.0126523,629,1198,-8.11833,-1.3519
-588,-174,-8.14105,1.48877,-0.0051299,-0.000752304,-0.00654574,0.0039609,-0.0098431,-0.946746,0.00820739,0.0139414,636,1198,-8.14108,-1.48877
-581,-174,-8.15607,1.5708,-0.00528513,-0.000803713,-0.00707023,0.00437238,-0.0104612,-0.938852,0.0088014,0.0159181,643,1198,-8.15606,-1.57079
-574,-174,-8.49121,1.57837,-0.00508308,-0.0005826,-0.00718107,0.00469254,-0.0103582,-0.937231,0.00889242,0.0393374,650,1198,-8.49119,-1.57839
-567,-174,-9.17517,0.00476074,0,0,0,0,0,0,0,-1,657,1198,-9.17516,-0.00472383
-560,-174,-9.27173,0.247925,-0.00445214,-9.9753e-05,-0.00623875,0.00433146,-0.00888336,-0.953209,0.00777899,0.0440947,664,1198,-9.27176,-0.247964
-553,-174,-9.37592,0.504883,-0.00364514,0.000184117,-0.00511058,0.00372695,-0.00718797,-0.964625,0.00640646,0.0354826,671,1198,-9.37589,-0.504857
-546,-174,-9.39197,0.521729,-0.00243876,0.000491303,-0.00343576,0.00276134,-0.00470881,-0.986929,0.00436147,0.0284236,678,1198,-9.39197,-0.521745
-539,-174,-9.40839,0.52478,-0.000898623,0.00074526,-0.00116537,0.00134939,-0.00150275,-1.09254,0.00164748,0.0345319,685,1198,-9.40836,-0.524743
-532,-174,-9.36145,0.453247,0.00103068,0.000897053,0.00175705,0.00272218,-0.000794455,0.766395,0.00212959,0.045354,692,1198,-9.36144,-0.45328
-525,-174,-9.27576,0.425659,0.003044,0.000790924,0.00516063,0.00719962,-0.00336469,0.677936,0.00623183,0.0454454,699,1198,-9.27575,-0.425635
-518,-174,-9.20343,0.417847,0.00427116,-0.00024337,0.00782315,0.0101562,-0.0061284,0.644945,0.00949729,0.0419957,706,1198,-9.20345,-0.417808
-511,-174,0,0,0,0,0,0,0,0,0,-1,713,1198,0,0
-504,-174,0,0,0,0,0,0,0,0,0,-1,720,1198,0,0
-497,-174,0,0,0,0,0,0,0,0,0,-1,727,1198,0,0
-490,-174,0,0,0,0,0,0,0,0,0,-1,734,1198,0,0
-483,-174,0,0,0,0,0,0,0,0,0,-1,741,1198,0,0
-476,-174,0,0,0,0,0,0,0,0,0,-1,748,1198,0,0
-469,-174,0,0,0,0,0,0,0,0,0,-1,755,1198,0,0
-462,-174,0,0,0,0,0,0,0,0,0,-1,762,1198,0,0
-455,-174,0,0,0,0,0,0,0,0,0,-1,769,1198,0,0
-448,-174,0,0,0,0,0,0,0,0,0,-1,776,1198,0,0
-441,-174,0,0,0,0,0,0,0,0,0,-1,783,1198,0,0
-434,-174,0,0,0,0,0,0,0,0,0,-1,790,1198,0,0
-427,-174,0,0,0,0,0,0,0,0,0,-1,797,1198,0,0
-420,-174,0,0,0,0,0,0,0,0,0,-1,804,1198,0,0
-413,-174,0,0,0,0,0,0,0,0,0,-1,811,1198,0,0
-406,-174,0,0,0,0,0,0,0,0,0,-1,818,1198,0,0
-399,-174,0,0,0,0,0,0,0,0,0,-1,825,1198,0,0
-392,-174,0,0,0,0,0,0,0,0,0,-1,832,1198,0,0
-385,-174,0,0,0,0,0,0,0,0,0,-1,839,1198,0,0
-378,-174,0,0,0,0,0,0,0,0,0,-1,846,1198,0,0
-371,-174,0,0,0,0,0,0,0,0,0,-1,853,1198,0,0
-364,-174,0,0,0,0,0,0,0,0,0,-1,860,1198,0,0
-357,-174,0,0,0,0,0,0,0,0,0,-1,867,1198,0,0
-350,-174,0,0,0,0,0,0,0,0,0,-1,874,1198,0,0
-343,-174,0,0,0,0,0,0,0,0,0,-1,881,1198,0,0
-336,-174,0,0,0,0,0,0,0,0,0,-1,888,1198,0,0
-329,-174,0,0,0,0,0,0,0,0,0,-1,895,1198,0,0
-322,-174,0,0,0,0,0,0,0,0,0,-1,902,1198,0,0
-315,-174,0,0,0,0,0,0,0,0,0,-1,909,1198,0,0
-308,-174,0,0,0,0,0,0,0,0,0,-1,916,1198,0,0
-301,-174,0,0,0,0,0,0,0,0,0,-1,923,1198,0,0
-294,-174,0,0,0,0,0,0,0,0,0,-1,930,1198,0,0
-287,-174,0,0,0,0,0,0,0,0,0,-1,937,1198,0,0
-280,-174,0,0,0,0,0,0,0,0,0,-1,944,1198,0,0
-273,-174,0,0,0,0,0,0,0,0,0,-1,951,1198,0,0
-266,-174,0,0,0,0,0,0,0,0,0,-1,958,1198,0,0
-259,-174,0,0,0,0,0,0,0,0,0,-1,965,1198,0,0
-252,-174,0,0,0,0,0,0,0,0,0,-1,972,1198,0,0
-245,-174,0,0,0,0,0,0,0,0,0,-1,979,1198,0,0
-238,-174,0,0,0,0,0,0,0,0,0,-1,986,1198,0,0
-231,-174,0,0,0,0,0,0,0,0,0,-1,993,1198,0,0
-224,-174,0,0,0,0,0,0,0,0,0,-1,1000,1198,0,0
-217,-174,0,0,0,0,0,0,0,0,0,-1,1007,1198,0,0
-210,-174,0,0,0,0,0,0,0,0,0,-1,1014,1198,0,0
-203,-174,0,0,0,0,0,0,0,0,0,-1,1021,1198,0,0
-196,-174,0,0,0,0,0,0,0,0,0,-1,1028,1198,0,0
-189,-174,0,0,0,0,0,0,0,0,0,-1,1035,1198,0,0
-182,-174,0,0,0,0,0,0,0,0,0,-1,1042,1198,0,0
-175,-174,0,0,0,0,0,0,0,0,0,-1,1049,1198,0,0
-168,-174,0,0,0,0,0,0,0,0,0,-1,1056,1198,0,0
-161,-174,0,0,0,0,0,0,0,0,0,-1,1063,1198,0,0
-154,-174,0,0,0,0,0,0,0,0,0,-1,1070,1198,0,0
-147,-174,0,0,0,0,0,0,0,0,0,-1,1077,1198,0,0
-140,-174,0,0,0,0,0,0,0,0,0,-1,1084,1198,0,0
-133,-174,0,0,0,0,0,0,0,0,0,-1,1091,1198,0,0
-126,-174,0,0,0,0,0,0,0,0,0,-1,1098,1198,0,0
-119,-174,0,0,0,0,0,0,0,0,0,-1,1105,1198,0,0
-112,-174,0,0,0,0,0,0,0,0,0,-1,1112,1198,0,0
-105,-174,0,0,0,0,0,0,0,0,0,-1,1119,1198,0,0
-98,-174,0,0,0,0,0,0,0,0,0,-1,1126,1198,0,0
-91,-174,0,0,0,0,0,0,0,0,0,-1,1133,1198,0,0
-84,-174,0,0,0,0,0,0,0,0,0,-1,1140,1198,0,0
-77,-174,0,0,0,0,0,0,0,0,0,-1,1147,1198,0,0
-70,-174,0,0,0,0,0,0,0,0,0,-1,1154,1198,0,0
-63,-174,0,0,0,0,0,0,0,0,0,-1,1161,1198,0,0
-56,-174,0,0,0,0,0,0,0,0,0,-1,1168,1198,0,0
-49,-174,0,0,0,0,0,0,0,0,0,-1,1175,1198,0,0
-42,-174,0,0,0,0,0,0,0,0,0,-1,1182,1198,0,0
-35,-174,0,0,0,0,0,0,0,0,0,-1,1189,1198,0,0
-28,-174,0,0,0,0,0,0,0,0,0,-1,1196,1198,0,0
-21,-174,0,0,0,0,0,0,0,0,0,-1,1203,1198,0,0
-14,-174,0,0,0,0,0,0,0,0,0,-1,1210,1198,0,0
-7,-174,0,0,0,0,0,0,0,0,0,-1,1217,1198,0,0
0,-174,0,0,0,0,0,0,0,0,0,-1,1224,1198,0,0
7,-174,0,0,0,0,0,0,0,0,0,-1,1231,1198,0,0
14,-174,0,0,0,0,0,0,0,0,0,-1,1238,1198,0,0
21,-174,0,0,0,0,0,0,0,0,0,-1,1245,1198,0,0
28,-174,0,0,0,0,0,0,0,0,0,-1,1252,1198,0,0
35,-174,0,0,0,0,0,0,0,0,0,-1,1259,1198,0,0
42,-174,0,0,0,0,0,0,0,0,0,-1,1266,1198,0,0
49,-174,0,0,0,0,0,0,0,0,0,-1,1273,1198,0,0
56,-174,0,0,0,0,0,0,0,0,0,-1,1280,1198,0,0
63,-174,0,0,0,0,0,0,0,0,0,-1,1287,1198,0,0
70,-174,0,0,0,0,0,0,0,0,0,-1,1294,1198,0,0
77,-174,0,0,0,0,0,0,0,0,0,-1,1301,1198,0,0
84,-174,0,0,0,0,0,0,0,0,0,-1,1308,1198,0,0
91,-174,0,0,0,0,0,0,0,0,0,-1,1315,1198,0,0
98,-174,0,0,0,0,0,0,0,0,0,-1,1322,1198,0,0
105,-174,0,0,0,0,0,0,0,0,0,-1,1329,1198,0,0
112,-174,0,0,0,0,0,0,0,0,0,-1,1336,1198,0,0
119,-174,0,0,0,0,0,0,0,0,0,-1,1343,1198,0,0
126,-174,0,0,0,0,0,0,0,0,0,-1,1350,1198,0,0
133,-174,0,0,0,0,0,0,0,0,0,-1,1357,1198,0,0
140,-174,0,0,0,0,0,0,0,0,0,-1,1364,1198,0,0
147,-174,0,0,0,0,0,0,0,0,0,-1,1371,1198,0,0
154,-174,0,0,0,0,0,0,0,0,0,-1,1378,1198,0,0
161,-174,0,0,0,0,0,0,0,0,0,-1,1385,1198,0,0
168,-174,0,0,0,0,0,0,0,0,0,-1,1392,1198,0,0
175,-174,0,0,0,0,0,0,0,0,0,-1,1399,1198,0,0
182,-174,0,0,0,0,0,0,0,0,0,-1,1406,1198,0,0
189,-174,0,0,0,0,0,0,0,0,0,-1,1413,1198,0,0
196,-174,0,0,0,0,0,0,0,0,0,-1,1420,1198,0,0
203,-174,0,0,0,0,0,0,0,0,0,-1,1427,1198,0,0
210,-174,0,0,0,0,0,0,0,0,0,-1,1434,1198,0,0
217,-174,0,0,0,0,0,0,0,0,0,-1,1441,1198,0,0
224,-174,0,0,0,0,0,0,0,0,0,-1,1448,1198,0,0
231,-174,0,0,0,0,0,0,0,0,0,-1,1455,1198,0,0
238,-174,0,0,0,0,0,0,0,0,0,-1,1462,1198,0,0
245,-174,0,0,0,0,0,0,0,0,0,-1,1469,1198,0,0
252,-174,0,0,0,0,0,0,0,0,0,-1,1476,1198,0,0
259,-174,0,0,0,0,0,0,0,0,0,-1,1483,1198,0,0
266,-174,0,0,0,0,0,0,0,0,0,-1,1490,1198,0,0
273,-174,0,0,0,0,0,0,0,0,0,-1,1497,1198,0,0
280,-174,0,0,0,0,0,0,0,0,0,-1,1504,1198,0,0
287,-174,0,0,0,0,0,0,0,0,0,-1,1511,1198,0,0
294,-174,0,0,0,0,0,0,0,0,0,-1,1518,1198,0,0
301,-174,0,0,0,0,0,0,0,0,0,-1,1525,1198,0,0
308,-174,0,0,0,0,0,0,0,0,0,-1,1532,1198,0,0
315,-174,0,0,0,0,0,0,0,0,0,-1,1539,1198,0,0
322,-174,0,0,0,0,0,0,0,0,0,-1,1546,1198,0,0
329,-174,0,0,0,0,0,0,0,0,0,-1,1553,1198,0,0
336,-174,0,0,0,0,0,0,0,0,0,-1,1560,1198,0,0
343,-174,0,0,0,0,0,0,0,0,0,-1,1567,1198,0,0
350,-174,0,0,0,0,0,0,0,0,0,-1,1574,1198,0,0
357,-174,0,0,0,0,0,0,0,0,0,-1,1581,1198,0,0
364,-174,0,0,0,0,0,0,0,0,0,-1,1588,1198,0,0
371,-174,0,0,0,0,0,0,0,0,0,-1,1595,1198,0,0
378,-174,0,0,0,0,0,0,0,0,0,-1,1602,1198,0,0
385,-174,0,0,0,0,0,0,0,0,0,-1,1609,1198,0,0
392,-174,0,0,0,0,0,0,0,0,0,-1,1616,1198,0,0
399,-174,0,0,0,0,0,0,0,0,0,-1,1623,1198,0,0
406,-174,0,0,0,0,0,0,0,0,0,-1,1630,1198,0,0
413,-174,0,0,0,0,0,0,0,0,0,-1,1637,1198,0,0
420,-174,0,0,0,0,0,0,0,0,0,-1,1644,1198,0,0
427,-174,0,0,0,0,0,0,0,0,0,-1,1651,1198,0,0
434,-174,0,0,0,0,0,0,0,0,0,-1,1658,1198,0,0
441,-174,0,0,0,0,0,0,0,0,0,-1,1665,1198,0,0
448,-174,0,0,0,0,0,0,0,0,0,-1,1672,1198,0,0
455,-174,0,0,0,0,0,0,0,0,0,-1,1679,1198,0,0
462,-174,0,0,0,0,0,0,0,0,0,-1,1686,1198,0,0
469,-174,0,0,0,0,0,0,0,0,0,-1,1693,1198,0,0
476,-174,0,0,0,0,0,0,0,0,0,-1,1700,1198,0,0
483,-174,0,0,0,0,0,0,0,0,0,-1,1707,1198,0,0
490,-174,0,0,0,0,0,0,0,0,0,-1,1714,1198,0,0
497,-174,0,0,0,0,0,0,0,0,0,-1,1721,1198,0,0
504,-174,0,0,0,0,0,0,0,0,0,-1,1728,1198,0,0
511,-174,0,0,0,0,0,0,0,0,0,-1,1735,1198,0,0
518,-174,0,0,0,0,0,0,0,0,0,-1,1742,1198,0,0
525,-174,0,0,0,0,0,0,0,0,0,-1,1749,1198,0,0
532,-174,0,0,0,0,0,0,0,0,0,-1,1756,1198,0,0
539,-174,0,0,0,0,0,0,0,0,0,-1,1763,1198,0,0
546,-174,0,0,0,0,0,0,0,0,0,-1,1770,1198,0,0
553,-174,0,0,0,0,0,0,0,0,0,-1,1777,1198,0,0
560,-174,0,0,0,0,0,0,0,0,0,-1,1784,1198,0,0
567,-174,0,0,0,0,0,0,0,0,0,-1,1791,1198,0,0
574,-174,0,0,0,0,0,0,0,0,0,-1,1798,1198,0,0
581,-174,0,0,0,0,0,0,0,0,0,-1,1805,1198,0,0
588,-174,0,0,0,0,0,0,0,0,0,-1,1812,1198,0,0
595,-174,0,0,0,0,0,0,0,0,0,-1,1819,1198,0,0
602,-174,0,0,0,0,0,0,0,0,0,-1,1826,1198,0,0
609,-174,0,0,0,0,0,0,0,0,0,-1,1833,1198,0,0
616,-174,0,0,0,0,0,0,0,0,0,-1,1840,1198,0,0
623,-174,0,0,0,0,0,0,0,0,0,-1,1847,1198,0,0
630,-174,0,0,0,0,0,0,0,0,0,-1,1854,1198,0,0
637,-174,15.5906,2.27747,-0.00537488,0.00059917,0.00202006,0.00121811,-0.00599382,1.27348,0.00445774,0.0409348,1861,1198,15.5906,-2.2775
644,-174,15.5792,2.47925,-0.0029549,0.000672915,0.00128792,0.00108364,-0.00336563,1.26208,0.00267905,0.0407396,1868,1198,15.5792,-2.47931
651,-174,15.5276,2.43347,-0.00187222,0.000450535,0.000980631,0.000809169,-0.00223085,1.22019,0.00181801,0.0398734,1875,1198,15.5276,-2.43345
658,-174,15.465,2.30701,-0.00180892,-9.46646e-07,0.00116215,0.00056741,-0.00237727,1.11594,0.00180398,0.0371939,1882,1198,15.465,-2.30696
665,-174,15.5811,2.31531,-0.00223843,-0.000492299,0.00145393,0.000330557,-0.00306128,1.05579,0.00215949,0.0322034,1889,1198,15.581,-2.31527
672,-174,15.5947,2.33118,-0.00283738,-0.000938451,0.0017431,9.69986e-05,-0.00387283,1.03478,0.00261482,0.0251645,1896,1198,15.5947,-2.33112
679,-174,15.5676,2.27991,-0.00345974,-0.00130622,0.00203927,-7.68956e-05,-0.00468907,1.0283,0.00310073,0.0228311,1903,1198,15.5676,-2.27992
686,-174,15.6127,2.20325,0,0,0,0,0,0,0,-1,1910,1198,15.6127,-2.2033
693,-174,14.8154,1.85168,0,0,0,0,0,0,0,-1,1917,1198,14.8154,-1.85172
700,-174,14.7745,3.53101,0,0,0,0,0,0,0,-1,1924,1198,14.7745,-3.53105
707,-174,14.3999,3.69238,-0.00464408,-0.00208918,0.00245403,-0.000600022,-0.00613325,1.02538,0.00390422,0.0343981,1931,1198,14.3999,-3.69239
714,-174,14.4573,3.54395,-0.00479014,-0.00198361,0.00242099,-0.000588608,-0.00618515,1.04805,0.00394191,0.0220549,1938,1198,14.4573,-3.54396
721,-174,14.4237,3.45593,-0.00460841,-0.00172933,0.00215061,-0.000580938,-0.00575681,1.08033,0.00365963,0.0168681,1945,1198,14.4237,-3.45598
728,-174,14.3453,3.39172,-0.00384318,-0.00151354,0.00161951,-0.000683464,-0.00467326,1.09716,0.00291452,0.0125569,1952,1198,14.3454,-3.39172
735,-174,14.3531,3.30444,-0.0026886,-0.00124124,0.000791242,-0.000892642,-0.00303719,1.15581,0.0018025,0.0118558,1959,1198,14.3532,-3.3044
742,-174,14.3494,3.20496,-0.00112254,-0.000825747,-0.000482416,-0.000469419,-0.00147887,-0.93461,0.000872594,0.019321,1966,1198,14.3493,-3.20495
749,-174,14.3395,3.13525,0.000793546,-0.000474037,-0.00208926,0.00234303,-0.00202353,-0.638132,0.00252328,0.0172073,1973,1198,14.3395,-3.1353
756,-174,14.3118,3.03271,0.0029426,5.23816e-05,-0.00370853,0.00547763,-0.00248265,-0.599612,0.00470305,0.0101484,1980,1198,14.3117,-3.03273
763,-174,14.2899,2.93542,0.0050456,0.000249058,-0.00567003,0.0088037,-0.00350904,-0.585321,0.00732457,0.0115436,1987,1198,14.2899,-2.93547
770,-174,14.3015,2.84839,0.0074148,0.000256824,-0.00802933,0.0126267,-0.00495506,-0.575746,0.010468,0.0218858,1994,1198,14.3016,-2.84843
777,-174,14.4623,2.50159,0.0102398,0.000215201,-0.0109973,0.0173132,-0.00685814,-0.571574,0.0143839,0.0402374,2001,1198,14.4623,-2.50159
784,-174,14.6642,2.04749,0,0,0,0,0,0,0,-1,2008,1198,14.6642,-2.04749
791,-174,14.8833,1.88123,0,0,0,0,0,0,0,-1,2015,1198,14.8834,-1.88117
798,-174,19.6023,1.55505,0,0,0,0,0,0,0,-1,2022,1198,19.6022,-1.55501
805,-174,16.8207,-0.181519,0,0,0,0,0,0,0,-1,2029,1198,16.8207,0.181527
812,-174,0,0,0,0,0,0,0,0,0,-1,2036,1198,0,0
-700,-181,0,0,0,0,0,0,0,0,0,-1,524,1205,0,0
-693,-181,0,0,0,0,0,0,0,0,0,-1,531,1205,0,0
-686,-181,-8.01337,0.872559,0,0,0,0,0,0,0,-1,538,1205,-8.01336,-0.872589
-679,-181,-7.89886,0.760742,0,0,0,0,0,0,0,-1,545,1205,-7.89887,-0.760718
-672,-181,-9.39453,0.913086,0,0,0,0,0,0,0,-1,552,1205,-9.39451,-0.913107
-665,-181,-9.43994,1.297,0,0,0,0,0,0,0,-1,559,1205,-9.43993,-1.297
-658,-181,-7.95459,2.6554,0,0,0,0,0,0,0,-1,566,1205,-7.95457,-2.65543
-651,-181,-7.88837,0.676392,0,0,0,0,0,0,0,-1,573,1205,-7.88836,-0.676373
-644,-181,-7.91699,0.698486,0.0105407,0.00903473,-0.0106371,0.0204514,-0.000875959,-0.750062,0.0139355,0.0415098,580,1205,-7.917,-0.698512
-637,-181,-7.94653,0.728394,0.00576731,0.00603252,-0.00743609,0.0133372,-0.00153735,-0.794314,0.00944571,0.0233523,587,1205,-7.94652,-0.728432
-630,-181,-7.98615,0.814453,0.00256588,0.0035414,-0.00518751,0.00826403,-0.00215675,-0.832273,0.00635152,0.0119395,594,1205,-7.98617,-0.814504
-623,-181,-8.02258,0.914307,0.000237132,0.00203673,-0.00416567,0.00539868,-0.00312481,-0.891766,0.00497907,0.0137641,601,1205,-8.02258,-0.914334
-616,-181,-8.00439,1.03467,-0.00211036,0.000430575,-0.00360998,0.00298712,-0.00466691,-0.954596,0.00445439,0.0141429,608,1205,-8.0044,-1.03462
-609,-181,-7.99188,1.14441,-0.00368471,4.58129e-05,-0.00362559,0.00225782,-0.00589672,-1.02298,0.00486177,0.0142768,615,1205,-7.9919,-1.14444
-602,-181,-7.99634,1.245,-0.0039659,-0.000301418,-0.00444095,0.00267042,-0.00693774,-0.981049,0.00572674,0.0125486,622,1205,-7.99634,-1.24502
-595,-181,-8.00366,1.36755,-0.00375967,-0.000329282,-0.00525393,0.00348234,-0.00757129,-0.943174,0.00652574,0.0118287,629,1205,-8.00364,-1.36752
-588,-181,-8.00873,1.51038,-0.00385212,-0.000614609,-0.00589347,0.00387838,-0.00834511,-0.919428,0.00721258,0.0113142,636,1205,-8.00875,-1.51034
-581,-181,-8.0011,1.64624,-0.00385399,-0.000697606,-0.00645263,0.00436703,-0.00891863,-0.905334,0.00781909,0.0127995,643,1205,-8.00112,-1.64619
-574,-181,-8.22064,1.65601,-0.00359302,-0.000549689,-0.0065598,0.00466262,-0.00880533,-0.899367,0.0078974,0.0321534,650,1205,-8.22064,-1.65606
-567,-181,-8.49469,1.651,-0.00329237,-0.000473298,-0.00627015,0.0045438,-0.00830946,-0.895961,0.00752624,0.0497727,657,1205,-8.49468,-1.65098
-560,-181,-9.21893,0.192017,0,0,0,0,0,0,0,-1,664,1205,-9.21891,-0.191962
-553,-181,-9.44128,0.48291,-0.00259201,-2.84696e-05,-0.00476168,0.00362094,-0.00624142,-0.916874,0.00576065,0.0434985,671,1205,-9.44127,-0.482906
-546,-181,-9.3656,0.507446,-0.00182886,0.000168229,-0.00333495,0.00265092,-0.00431155,-0.93086,0.00405772,0.0356429,678,1205,-9.36558,-0.507455
-539,-181,-9.38184,0.636475,-0.000921036,0.000299084,-0.00138604,0.00120338,-0.00182533,-0.992713,0.00176088,0.037393,685,1205,-9.38186,-0.636417
-532,-181,-9.27716,0.562866,0.000159252,0.00031296,0.0011608,0.00139945,-0.000927239,0.818454,0.00135251,0.0427923,692,1205,-9.27716,-0.562808
-525,-181,-9.23871,0.409912,0.00121655,9.6688e-05,0.00426426,0.00495748,-0.00364424,0.720118,0.00498546,0.0424346,699,1205,-9.23868,-0.409883
-518,-181,-9.21606,0.479736,0.0016214,-0.000911835,0.00704449,0.00751224,-0.00680267,0.696447,0.0082681,0.0397626,706,1205,-9.21609,-0.479764
-511,-181,0,0,0,0,0,0,0,0,0,-1,713,1205,0,0
-504,-181,0,0,0,0,0,0,0,0,0,-1,720,1205,0,0
-497,-181,0,0,0,0,0,0,0,0,0,-1,727,1205,0,0
-490,-181,0,0,0,0,0,0,0,0,0,-1,734,1205,0,0
-483,-181,0,0,0,0,0,0,0,0,0,-1,741,1205,0,0
-476,-181,0,0,0,0,0,0,0,0,0,-1,748,1205,0,0
-469,-181,0,0,0,0,0,0,0,0,0,-1,755,1205,0,0
-462,-181,0,0,0,0,0,0,0,0,0,-1,762,1205,0,0
-455,-181,0,0,0,0,0,0,0,0,0,-1,769,1205,0,0
-448,-181,0,0,0,0,0,0,0,0,0,-1,776,1205,0,0
-441,-181,0,0,0,0,0,0,0,0,0,-1,783,1205,0,0
-434,-181,0,0,0,0,0,0,0,0,0,-1,790,1205,0,0
-427,-181,0,0,0,0,0,0,0,0,0,-1,797,1205,0,0
-420,-181,0,0,0,0,0,0,0,0,0,-1,804,1205,0,0
-413,-181,0,0,0,0,0,0,0,0,0,-1,811,1205,0,0
-406,-181,0,0,0,0,0,0,0,0,0,-1,818,1205,0,0
-399,-181,0,0,0,0,0,0,0,0,0,-1,825,1205,0,0
-392,-181,0,0,0,0,0,0,0,0,0,-1,832,1205,0,0
-385,-181,0,0,0,0,0,0,0,0,0,-1,839,1205,0,0
-378,-181,0,0,0,0,0,0,0,0,0,-1,846,1205,0,0
-371,-181,0,0,0,0,0,0,0,0,0,-1,853,1205,0,0
-364,-181,0,0,0,0,0,0,0,0,0,-1,860,1205,0,0
-357,-181,0,0,0,0,0,0,0,0,0,-1,867,1205,0,0
-350,-181,0,0,0,0,0,0,0,0,0,-1,874,1205,0,0
-343,-181,0,0,0,0,0,0,0,0,0,-1,881,1205,0,0
-336,-181,0,0,0,0,0,0,0,0,0,-1,888,1205,0,0
-329,-181,0,0,0,0,0,0,0,0,0,-1,895,1205,0,0
-322,-181,0,0,0,0,0,0,0,0,0,-1,902,1205,0,0
-315,-181,0,0,0,0,0,0,0,0,0,-1,909,1205,0,0
-308,-181,0,0,0,0,0,0,0,0,0,-1,916,1205,0,0
-301,-181,0,0,0,0,0,0,0,0,0,-1,923,1205,0,0
-294,-181,0,0,0,0,0,0,0,0,0,-1,930,1205,0,0
-287,-181,0,0,0,0,0,0,0,0,0,-1,937,1205,0,0
-280,-181,0,0,0,0,0,0,0,0,0,-1,944,1205,0,0
-273,-181,0,0,0,0,0,0,0,0,0,-1,951,1205,0,0
-266,-181,0,0,0,0,0,0,0,0,0,-1,958,1205,0,0
-259,-181,0,0,0,0,0,0,0,0,0,-1,965,1205,0,0
-252,-181,0,0,0,0,0,0,0,0,0,-1,972,1205,0,0
-245,-181,0,0,0,0,0,0,0,0,0,-1,979,1205,0,0
-238,-181,0,0,0,0,0,0,0,0,0,-1,986,1205,0,0
-231,-181,0,0,0,0,0,0,0,0,0,-1,993,1205,0,0
-224,-181,0,0,0,0,0,0,0,0,0,-1,1000,1205,0,0
-217,-181,0,0,0,0,0,0,0,0,0,-1,1007,1205,0,0
-210,-181,0,0,0,0,0,0,0,0,0,-1,1014,1205,0,0
-203,-181,0,0,0,0,0,0,0,0,0,-1,1021,1205,0,0
-196,-181,0,0,0,0,0,0,0,0,0,-1,1028,1205,0,0
-189,-181,0,0,0,0,0,0,0,0,0,-1,1035,1205,0,0
-182,-181,0,0,0,0,0,0,0,0,0,-1,1042,1205,0,0
-175,-181,0,0,0,0,0,0,0,0,0,-1,1049,1205,0,0
-168,-181,0,0,0,0,0,0,0,0,0,-1,1056,1205,0,0
-161,-181,0,0,0,0,0,0,0,0,0,-1,1063,1205,0,0
-154,-181,0,0,0,0,0,0,0,0,0,-1,1070,1205,0,0
-147,-181,0,0,0,0,0,0,0,0,0,-1,1077,1205,0,0
-140,-181,0,0,0,0,0,0,0,0,0,-1,1084,1205,0,0
-133,-181,0,0,0,0,0,0,0,0,0,-1,1091,1205,0,0
-126,-181,0,0,0,0,0,0,0,0,0,-1,1098,1205,0,0
-119,-181,0,0,0,0,0,0,0,0,0,-1,1105,1205,0,0
-112,-181,0,0,0,0,0,0,0,0,0,-1,1112,1205,0,0
-105,-181,0,0,0,0,0,0,0,0,0,-1,1119,1205,0,0
-98,-181,0,0,0,0,0,0,0,0,0,-1,1126,1205,0,0
-91,-181,0,0,0,0,0,0,0,0,0,-1,1133,1205,0,0
-84,-181,0,0,0,0,0,0,0,0,0,-1,1140,1205,0,0
-77,-181,0,0,0,0,0,0,0,0,0,-1,1147,1205,0,0
-70,-181,0,0,0,0,0,0,0,0,0,-1,1154,1205,0,0
-63,-181,0,0,0,0,0,0,0,0,0,-1,1161,1205,0,0
-56,-181,0,0,0,0,0,0,0,0,0,-1,1168,1205,0,0
-49,-181,0,0,0,0,0,0,0,0,0,-1,1175,1205,0,0
-42,-181,0,0,0,0,0,0,0,0,0,-1,1182,1205,0,0
-35,-181,0,0,0,0,0,0,0,0,0,-1,1189,1205,0,0
-28,-181,0,0,0,0,0,0,0,0,0,-1,1196,1205,0,0
-21,-181,0,0,0,0,0,0,0,0,0,-1,1203,1205,0,0
-14,-181,0,0,0,0,0,0,0,0,0,-1,1210,1205,0,0
-7,-181,0,0,0,0,0,0,0,0,0,-1,1217,1205,0,0
0,-181,0,0,0,0,0,0,0,0,0,-1,1224,1205,0,0
7,-181,0,0,0,0,0,0,0,0,0,-1,1231,1205,0,0
14,-181,0,0,0,0,0,0,0,0,0,-1,1238,1205,0,0
21,-181,0,0,0,0,0,0,0,0,0,-1,1245,1205,0,0
28,-181,0,0,0,0,0,0,0,0,0,-1,1252,1205,0,0
35,-181,0,0,0,0,0,0,0,0,0,-1,1259,1205,0,0
42,-181,0,0,0,0,0,0,0,0,0,-1,1266,1205,0,0
49,-181,0,0,0,0,0,0,0,0,0,-1,1273,1205,0,0
56,-181,0,0,0,0,0,0,0,0,0,-1,1280,1205,0,0
63,-181,0,0,0,0,0,0,0,0,0,-1,1287,1205,0,0
70,-181,0,0,0,0,0,0,0,0,0,-1,1294,1205,0,0
77,-181,0,0,0,0,0,0,0,0,0,-1,1301,1205,0,0
84,-181,0,0,0,0,0,0,0,0,0,-1,1308,1205,0,0
91,-181,0,0,0,0,0,0,0,0,0,-1,1315,1205,0,0
98,-181,0,0,0,0,0,0,0,0,0,-1,1322,1205,0,0
105,-181,0,0,0,0,0,0,0,0,0,-1,1329,1205,0,0
112,-181,0,0,0,0,0,0,0,0,0,-1,1336,1205,0,0
119,-181,0,0,0,0,0,0,0,0,0,-1,1343,1205,0,0
126,-181,0,0,0,0,0,0,0,0,0,-1,1350,1205,0,0
133,-181,0,0,0,0,0,0,0,0,0,-1,1357,1205,0,0
140,-181,0,0,0,0,0,0,0,0,0,-1,1364,1205,0,0
147,-181,0,0,0,0,0,0,0,0,0,-1,1371,1205,0,0
154,-181,0,0,0,0,0,0,0,0,0,-1,1378,1205,0,0
161,-181,0,0,0,0,0,0,0,0,0,-1,1385,1205,0,0
168,-181,0,0,0,0,0,0,0,0,0,-1,1392,1205,0,0
175,-181,0,0,0,0,0,0,0,0,0,-1,1399,1205,0,0
182,-181,0,0,0,0,0,0,0,0,0,-1,1406,1205,0,0
189,-181,0,0,0,0,0,0,0,0,0,-1,1413,1205,0,0
196,-181,0,0,0,0,0,0,0,0,0,-1,1420,1205,0,0
203,-181,0,0,0,0,0,0,0,0,0,-1,1427,1205,0,0
210,-181,0,0,0,0,0,0,0,0,0,-1,1434,1205,0,0
217,-181,0,0,0,0,0,0,0,0,0,-1,1441,1205,0,0
224,-181,0,0,0,0,0,0,0,0,0,-1,1448,1205,0,0
231,-181,0,0,0,0,0,0,0,0,0,-1,1455,1205,0,0
238,-181,0,0,0,0,0,0,0,0,0,-1,1462,1205,0,0
245,-181,0,0,0,0,0,0,0,0,0,-1,1469,1205,0,0
252,-181,0,0,0,0,0,0,0,0,0,-1,1476,1205,0,0
259,-181,0,0,0,0,0,0,0,0,0,-1,1483,1205,0,0
266,-181,0,0,0,0,0,0,0,0,0,-1,1490,1205,0,0
273,-181,0,0,0,0,0,0,0,0,0,-1,1497,1205,0,0
280,-181,0,0,0,0,0,0,0,0,0,-1,1504,1205,0,0
287,-181,0,0,0,0,0,0,0,0,0,-1,1511,1205,0,0
294,-181,0,0,0,0,0,0,0,0,0,-1,1518,1205,0,0
301,-181,0,0,0,0,0,0,0,0,0,-1,1525,1205,0,0
308,-181,0,0,0,0,0,0,0,0,0,-1,1532,1205,0,0
315,-181,0,0,0,0,0,0,0,0,0,-1,1539,1205,0,0
322,-181,0,0,0,0,0,0,0,0,0,-1,1546,1205,0,0
329,-181,0,0,0,0,0,0,0,0,0,-1,1553,1205,0,0
336,-181,0,0,0,0,0,0,0,0,0,-1,1560,1205,0,0
343,-181,0,0,0,0,0,0,0,0,0,-1,1567,1205,0,0
350,-181,0,0,0,0,0,0,0,0,0,-1,1574,1205,0,0
357,-181,0,0,0,0,0,0,0,0,0,-1,1581,1205,0,0
364,-181,0,0,0,0,0,0,0,0,0,-1,1588,1205,0,0
371,-181,0,0,0,0,0,0,0,0,0,-1,1595,1205,0,0
378,-181,0,0,0,0,0,0,0,0,0,-1,1602,1205,0,0
385,-181,0,0,0,0,0,0,0,0,0,-1,1609,1205,0,0
392,-181,0,0,0,0,0,0,0,0,0,-1,1616,1205,0,0
399,-181,0,0,0,0,0,0,0,0,0,-1,1623,1205,0,0
406,-181,0,0,0,0,0,0,0,0,0,-1,1630,1205,0,0
413,-181,0,0,0,0,0,0,0,0,0,-1,1637,1205,0,0
420,-181,0,0,0,0,0,0,0,0,0,-1,1644,1205,0,0
427,-181,0,0,0,0,0,0,0,0,0,-1,1651,1205,0,0
434,-181,0,0,0,0,0,0,0,0,0,-1,1658,1205,0,0
441,-181,0,0,0,0,0,0,0,0,0,-1,1665,1205,0,0
448,-181,0,0,0,0,0,0,0,0,0,-1,1672,1205,0,0
455,-181,0,0,0,0,0,0,0,0,0,-1,1679,1205,0,0
462,-181,0,0,0,0,0,0,0,0,0,-1,1686,1205,0,0
469,-181,0,0,0,0,0,0,0,0,0,-1,1693,1205,0,0
476,-181,0,0,0,0,0,0,0,0,0,-1,1700,1205,0,0
483,-181,0,0,0,0,0,0,0,0,0,-1,1707,1205,0,0
490,-181,0,0,0,0,0,0,0,0,0,-1,1714,1205,0,0
497,-181,0,0,0,0,0,0,0,0,0,-1,1721,1205,0,0
504,-181,0,0,0,0,0,0,0,0,0,-1,1728,1205,0,0
511,-181,0,0,0,0,0,0,0,0,0,-1,1735,1205,0,0
518,-181,0,0,0,0,0,0,0,0,0,-1,1742,1205,0,0
525,-181,0,0,0,0,0,0,0,0,0,-1,1749,1205,0,0
532,-181,0,0,0,0,0,0,0,0,0,-1,1756,1205,0,0
539,-181,0,0,0,0,0,0,0,0,0,-1,1763,1205,0,0
546,-181,0,0,0,0,0,0,0,0,0,-1,1770,1205,0,0
553,-181,0,0,0,0,0,0,0,0,0,-1,1777,1205,0,0
560,-181,0,0,0,0,0,0,0,0,0,-1,1784,1205,0,0
567,-181,0,0,0,0,0,0,0,0,0,-1,1791,1205,0,0
574,-181,0,0,0,0,0,0,0,0,0,-1,1798,1205,0,0
581,-181,0,0,0,0,0,0,0,0,0,-1,1805,1205,0,0
588,-181,0,0,0,0,0,0,0,0,0,-1,1812,1205,0,0
595,-181,0,0,0,0,0,0,0,0,0,-1,1819,1205,0,0
602,-181,0,0,0,0,0,0,0,0,0,-1,1826,1205,0,0
609,-181,0,0,0,0,0,0,0,0,0,-1,1833,1205,0,0
616,-181,0,0,0,0,0,0,0,0,0,-1,1840,1205,0,0
623,-181,0,0,0,0,0,0,0,0,0,-1,1847,1205,0,0
630,-181,15.5833,2.44812,-0.00673458,-0.000310084,0.00148133,1.50222e-05,-0.00705968,1.35475,0.00471147,0.0376223,1854,1205,15.5833,-2.44817
637,-181,15.4868,2.40198,-0.00460164,0.000284392,0.00144633,0.000680426,-0.00499768,1.30353,0.00358021,0.037862,1861,1205,15.4868,-2.40199
644,-181,15.4098,2.44861,-0.00234448,0.000904559,0.00119555,0.00129707,-0.00273699,1.25358,0.00237801,0.0391985,1868,1205,15.4098,-2.44863
651,-181,15.5293,2.49866,-0.00157321,0.000953526,0.00127127,0.00148243,-0.00210211,1.17654,0.00207982,0.0376674,1875,1205,15.5293,-2.49868
658,-181,15.5166,2.39722,-0.00171768,0.000592252,0.00162706,0.0014326,-0.00255803,1.09405,0.00233433,0.0343825,1882,1205,15.5166,-2.3972
665,-181,15.5762,2.36365,-0.00221526,0.000130384,0.00193429,0.00121964,-0.00330451,1.05793,0.00270289,0.0314314,1889,1205,15.5762,-2.36366
672,-181,15.5793,2.32971,-0.00284156,-0.000363364,0.00217665,0.000902171,-0.0041071,1.04416,0.00308311,0.023051,1896,1205,15.5793,-2.3297
679,-181,15.6226,2.29919,-0.00344819,-0.000770377,0.00240529,0.00064355,-0.00486212,1.03937,0.00347585,0.0285076,1903,1205,15.6225,-2.29917
686,-181,15.7048,2.26404,0,0,0,0,0,0,0,-1,1910,1205,15.7048,-2.26404
693,-181,14.4944,3.68225,0,0,0,0,0,0,0,-1,1917,1205,14.4944,-3.68224
700,-181,14.5287,3.62061,-0.0044541,-0.00159441,0.00253181,-0.00011659,-0.00593191,1.04245,0.00391632,0.0482745,1924,1205,14.5287,-3.62059
707,-181,14.3949,3.64294,-0.00455875,-0.00181577,0.0024891,-0.000345325,-0.00602919,1.0372,0.00390944,0.0243731,1931,1205,14.3949,-3.64299
714,-181,14.3628,3.53491,-0.00467236,-0.00180032,0.00232614,-0.000502652,-0.00597003,1.06193,0.0038235,0.0187147,1938,1205,14.3628,-3.53494
721,-181,14.2827,3.46777,-0.00443445,-0.00152174,0.00201289,-0.000493606,-0.00546258,1.09856,0.00348884,0.0135031,1945,1205,14.2827,-3.46772
728,-181,14.2323,3.39648,-0.00356775,-0.00127137,0.00143248,-0.000583712,-0.00425541,1.12324,0.00266377,0.011588,1952,1205,14.2322,-3.3965
735,-181,14.2609,3.29553,-0.00230687,-0.00100153,0.000516059,-0.000822158,-0.00248624,1.23628,0.00146261,0.0117164,1959,1205,14.2609,-3.29558
742,-181,14.2609,3.22839,-0.000724666,-0.000708041,-0.000831819,0.000115507,-0.00154821,-0.790395,0.00107272,0.0162933,1966,1205,14.2608,-3.22845
749,-181,14.2581,3.13977,0.00110147,-0.000496756,-0.00250283,0.00292966,-0.00232494,-0.630871,0.00304044,0.0149794,1973,1205,14.258,-3.13978
756,-181,14.2418,3.03491,0.00299216,-0.000291564,-0.00429218,0.00594579,-0.00324519,-0.602723,0.00538223,0.0108363,1980,1205,14.2418,-3.03495
763,-181,14.2253,2.93323,0.00488171,-0.00044025,-0.00646567,0.00921256,-0.0047711,-0.590184,0.0082081,0.0105312,1987,1205,14.2253,-2.93317
770,-181,14.2117,2.82153,0.00702873,-0.000867918,-0.00920101,0.0130928,-0.00693197,-0.582721,0.0117423,0.0217818,1994,1205,14.2117,-2.82147
777,-181,14.2594,2.67358,0.00953177,-0.00152325,-0.0127097,0.0178639,-0.00985539,-0.580283,0.0162249,0.0415707,2001,1205,14.2595,-2.67363
784,-181,14.3099,2.55371,0,0,0,0,0,0,0,-1,2008,1205,14.3099,-2.55373
791,-181,18.2773,2.00562,0,0,0,0,0,0,0,-1,2015,1205,18.2773,-2.00557
798,-181,18.3433,1.60461,0,0,0,0,0,0,0,-1,2022,1205,18.3432,-1.60458
805,-181,0,0,0,0,0,0,0,0,0,-1,2029,1205,0,0
812,-181,0,0,0,0,0,0,0,0,0,-1,2036,1205,0,0
-700,-188,0,0,0,0,0,0,0,0,0,-1,524,1212,0,0
-693,-188,0,0,0,0,0,0,0,0,0,-1,531,1212,0,0
-686,-188,0,0,0,0,0,0,0,0,0,-1,538,1212,0,0
-679,-188,-9.70825,0.622314,0,0,0,0,0,0,0,-1,545,1212,-9.70826,-0.622375
-672,-188,-9.11621,0.782104,0.0633586,0.0403763,-0.0432153,0.0965845,0.00715044,-0.655453,0.0621434,0.0460592,552,1212,-9.11619,-0.782098
-665,-188,-8.57574,1.16125,0.0440204,0.0269708,-0.0324018,0.0690001,0.00199121,-0.656765,0.0453509,0.046195,559,1212,-8.57576,-1.16126
-658,-188,-7.09076,0.828125,0.029516,0.0180265,-0.0238377,0.0482914,-0.000748908,-0.667155,0.0324468,0.0448082,566,1212,-7.09078,-0.828107
-651,-188,-7.46399,0.667603,0.0188742,0.0120519,-0.0171425,0.0329416,-0.00201553,-0.687187,0.0226628,0.0438747,573,1212,-7.46399,-0.667663
-644,-188,-7.77252,0.776855,0.0112869,0.0080612,-0.0120125,0.0217943,-0.00244629,-0.718666,0.0154099,0.0421747,580,1212,-7.77253,-0.776871
-637,-188,-7.86639,0.737061,0.00614583,0.00538895,-0.00819232,0.0139684,-0.00243367,-0.762317,0.0102206,0.0217636,587,1212,-7.86639,-0.737073
-630,-188,-7.88361,0.827026,0.00273185,0.00327281,-0.00551313,0.00852209,-0.00251743,-0.809909,0.00668056,0.00987915,594,1212,-7.88359,-0.826989
-623,-188,-7.89532,0.926758,0.000411931,0.00195765,-0.00412353,0.00538012,-0.00301054,-0.878037,0.00490832,0.0101475,601,1212,-7.89533,-0.926784
-616,-188,-7.88025,1.02441,-0.00187278,0.000228236,-0.00308195,0.0024338,-0.00407834,-0.949652,0.00379954,0.00971232,608,1212,-7.88027,-1.02436
-609,-188,-7.8493,1.13904,-0.00323989,6.571e-05,-0.00283577,0.00169519,-0.00486937,-1.04925,0.00393497,0.0128069,615,1212,-7.84933,-1.13908
-602,-188,-7.86157,1.27441,-0.00322699,-8.12723e-05,-0.00355389,0.00223225,-0.00554051,-0.993729,0.00462112,0.0164203,622,1212,-7.86156,-1.27447
-595,-188,-7.89075,1.3855,-0.00266946,-0.000190088,-0.00432268,0.00306715,-0.0059267,-0.925043,0.00527936,0.0125346,629,1212,-7.89074,-1.38553
-588,-188,-7.88525,1.51233,-0.0025072,-0.000551975,-0.00497998,0.00354544,-0.00660462,-0.88232,0.0059482,0.00955193,636,1212,-7.88526,-1.51237
-581,-188,-7.87946,1.64917,-0.00229429,-0.000675855,-0.00555188,0.00412547,-0.00709562,-0.857766,0.00655371,0.00921066,643,1212,-7.87945,-1.64917
-574,-188,-7.86804,1.70813,-0.00195019,-0.000621282,-0.00563363,0.00438694,-0.00695841,-0.844099,0.00660609,0.0246168,650,1212,-7.86802,-1.70815
-567,-188,-7.2655,1.16504,-0.00165336,-0.00061877,-0.00532752,0.00421651,-0.00648864,-0.833796,0.00622686,0.0494298,657,1212,-7.26548,-1.16501
-560,-188,-6.76013,0.457397,0,0,0,0,0,0,0,-1,664,1212,-6.76015,-0.457396
-553,-188,-9.45477,0.406372,-0.00135444,-0.000387712,-0.003972,0.00313023,-0.00487238,-0.845947,0.00465666,0.0484209,671,1212,-9.45474,-0.406385
-546,-188,-9.40979,0.512085,-0.00100954,-0.000304121,-0.00276765,0.00213321,-0.00344687,-0.848776,0.00325128,0.0397784,678,1212,-9.4098,-0.51213
-539,-188,-9.41693,0.61438,-0.000680941,-0.000291496,-0.00111714,0.000647767,-0.0016202,-0.871683,0.00134894,0.0334587,685,1212,-9.41691,-0.614435
-532,-188,-9.35834,0.499023,-0.000374347,-0.00038981,0.0010375,0.000655452,-0.00141961,0.781672,0.00122482,0.0404081,692,1212,-9.35831,-0.499043
-525,-188,-9.35107,0.429932,-0.000210384,-0.000675736,0.00373069,0.00329488,-0.004181,0.754254,0.00432629,0.0430908,699,1212,-9.35109,-0.429942
-518,-188,-9.34888,0.588501,-0.00061484,-0.00155633,0.00638605,0.00531779,-0.00748896,0.748607,0.00742932,0.0432263,706,1212,-9.34886,-0.588463
-511,-188,-9.42419,0.852051,-0.000774754,-0.00249757,0.00783724,0.00624827,-0.0095206,0.730662,0.00916927,0.0374178,713,1212,-9.42418,-0.852029
-504,-188,0,0,0,0,0,0,0,0,0,-1,720,1212,0,0
-497,-188,0,0,0,0,0,0,0,0,0,-1,727,1212,0,0
-490,-188,0,0,0,0,0,0,0,0,0,-1,734,1212,0,0
-483,-188,0,0,0,0,0,0,0,0,0,-1,741,1212,0,0
-476,-188,0,0,0,0,0,0,0,0,0,-1,748,1212,0,0
-469,-188,0,0,0,0,0,0,0,0,0,-1,755,1212,0,0
-462,-188,0,0,0,0,0,0,0,0,0,-1,762,1212,0,0
-455,-188,0,0,0,0,0,0,0,0,0,-1,769,1212,0,0
-448,-188,0,0,0,0,0,0,0,0,0,-1,776,1212,0,0
-441,-188,0,0,0,0,0,0,0,0,0,-1,783,1212,0,0
-434,-188,0,0,0,0,0,0,0,0,0,-1,790,1212,0,0
-427,-188,0,0,0,0,0,0,0,0,0,-1,797,1212,0,0
-420,-188,0,0,0,0,0,0,0,0,0,-1,804,1212,0,0
-413,-188,0,0,0,0,0,0,0,0,0,-1,811,1212,0,0
-406,-188,0,0,0,0,0,0,0,0,0,-1,818,1212,0,0
-399,-188,0,0,0,0,0,0,0,0,0,-1,825,1212,0,0
-392,-188,0,0,0,0,0,0,0,0,0,-1,832,1212,0,0
-385,-188,0,0,0,0,0,0,0,0,0,-1,839,1212,0,0
-378,-188,0,0,0,0,0,0,0,0,0,-1,846,1212,0,0
-371,-188,0,0,0,0,0,0,0,0,0,-1,853,1212,0,0
-364,-188,0,0,0,0,0,0,0,0,0,-1,860,1212,0,0
-357,-188,0,0,0,0,0,0,0,0,0,-1,867,1212,0,0
-350,-188,0,0,0,0,0,0,0,0,0,-1,874,1212,0,0
-343,-188,0,0,0,0,0,0,0,0,0,-1,881,1212,0,0
-336,-188,0,0,0,0,0,0,0,0,0,-1,888,1212,0,0
-329,-188,0,0,0,0,0,0,0,0,0,-1,895,1212,0,0
-322,-188,0,0,0,0,0,0,0,0,0,-1,902,1212,0,0
-315,-188,0,0,0,0,0,0,0,0,0,-1,909,1212,0,0
-308,-188,0,0,0,0,0,0,0,0,0,-1,916,1212,0,0
-301,-188,0,0,0,0,0,0,0,0,0,-1,923,1212,0,0
-294,-188,0,0,0,0,0,0,0,0,0,-1,930,1212,0,0
-287,-188,0,0,0,0,0,0,0,0,0,-1,937,1212,0,0
-280,-188,0,0,0,0,0,0,0,0,0,-1,944,1212,0,0
-273,-188,0,0,0,0,0,0,0,0,0,-1,951,1212,0,0
-266,-188,0,0,0,0,0,0,0,0,0,-1,958,1212,0,0
-259,-188,0,0,0,0,0,0,0,0,0,-1,965,1212,0,0
-252,-188,0,0,0,0,0,0,0,0,0,-1,972,1212,0,0
-245,-188,0,0,0,0,0,0,0,0,0,-1,979,1212,0,0
-238,-188,0,0,0,0,0,0,0,0,0,-1,986,1212,0,0
-231,-188,0,0,0,0,0,0,0,0,0,-1,993,1212,0,0
-224,-188,0,0,0,0,0,0,0,0,0,-1,1000,1212,0,0
-217,-188,0,0,0,0,0,0,0,0,0,-1,1007,1212,0,0
-210,-188,0,0,0,0,0,0,0,0,0,-1,1014,1212,0,0
-203,-188,0,0,0,0,0,0,0,0,0,-1,1021,1212,0,0
-196,-188,0,0,0,0,0,0,0,0,0,-1,1028,1212,0,0
-189,-188,0,0,0,0,0,0,0,0,0,-1,1035,1212,0,0
-182,-188,0,0,0,0,0,0,0,0,0,-1,1042,1212,0,0
-175,-188,0,0,0,0,0,0,0,0,0,-1,1049,1212,0,0
-168,-188,0,0,0,0,0,0,0,0,0,-1,1056,1212,0,0
-161,-188,0,0,0,0,0,0,0,0,0,-1,1063,1212,0,0
-154,-188,0,0,0,0,0,0,0,0,0,-1,1070,1212,0,0
-147,-188,0,0,0,0,0,0,0,0,0,-1,1077,1212,0,0
-140,-188,0,0,0,0,0,0,0,0,0,-1,1084,1212,0,0
-133,-188,0,0,0,0,0,0,0,0,0,-1,1091,1212,0,0
-126,-188,0,0,0,0,0,0,0,0,0,-1,1098,1212,0,0
-119,-188,0,0,0,0,0,0,0,0,0,-1,1105,1212,0,0
-112,-188,0,0,0,0,0,0,0,0,0,-1,1112,1212,0,0
-105,-188,0,0,0,0,0,0,0,0,0,-1,1119,1212,0,0
-98,-188,0,0,0,0,0,0,0,0,0,-1,1126,1212,0,0
-91,-188,0,0,0,0,0,0,0,0,0,-1,1133,1212,0,0
-84,-188,0,0,0,0,0,0,0,0,0,-1,1140,1212,0,0
-77,-188,0,0,0,0,0,0,0,0,0,-1,1147,1212,0,0
-70,-188,0,0,0,0,0,0,0,0,0,-1,1154,1212,0,0
-63,-188,0,0,0,0,0,0,0,0,0,-1,1161,1212,0,0
-56,-188,0,0,0,0,0,0,0,0,0,-1,1168,1212,0,0
-49,-188,0,0,0,0,0,0,0,0,0,-1,1175,1212,0,0
-42,-188,0,0,0,0,0,0,0,0,0,-1,1182,1212,0,0
-35,-188,0,0,0,0,0,0,0,0,0,-1,1189,1212,0,0
-28,-188,0,0,0,0,0,0,0,0,0,-1,1196,1212,0,0
-21,-188,0,0,0,0,0,0,0,0,0,-1,1203,1212,0,0
-14,-188,0,0,0,0,0,0,0,0,0,-1,1210,1212,0,0
-7,-188,0,0,0,0,0,0,0,0,0,-1,1217,1212,0,0
0,-188,0,0,0,0,0,0,0,0,0,-1,1224,1212,0,0
7,-188,0,0,0,0,0,0,0,0,0,-1,1231,1212,0,0
14,-188,0,0,0,0,0,0,0,0,0,-1,1238,1212,0,0
21,-188,0,0,0,0,0,0,0,0,0,-1,1245,1212,0,0
28,-188,0,0,0,0,0,0,0,0,0,-1,1252,1212,0,0
35,-188,0,0,0,0,0,0,0,0,0,-1,1259,1212,0,0
42,-188,0,0,0,0,0,0,0,0,0,-1,1266,1212,0,0
49,-188,0,0,0,0,0,0,0,0,0,-1,1273,1212,0,0
56,-188,0,0,0,0,0,0,0,0,0,-1,1280,1212,0,0
63,-188,0,0,0,0,0,0,0,0,0,-1,1287,1212,0,0
70,-188,0,0,0,0,0,0,0,0,0,-1,1294,1212,0,0
77,-188,0,0,0,0,0,0,0,0,0,-1,1301,1212,0,0
84,-188,0,0,0,0,0,0,0,0,0,-1,1308,1212,0,0
91,-188,0,0,0,0,0,0,0,0,0,-1,1315,1212,0,0
98,-188,0,0,0,0,0,0,0,0,0,-1,1322,1212,0,0
105,-188,0,0,0,0,0,0,0,0,0,-1,1329,1212,0,0
112,-188,0,0,0,0,0,0,0,0,0,-1,1336,1212,0,0
119,-188,0,0,0,0,0,0,0,0,0,-1,1343,1212,0,0
126,-188,0,0,0,0,0,0,0,0,0,-1,1350,1212,0,0
133,-188,0,0,0,0,0,0,0,0,0,-1,1357,1212,0,0
140,-188,0,0,0,0,0,0,0,0,0,-1,1364,1212,0,0
147,-188,0,0,0,0,0,0,0,0,0,-1,1371,1212,0,0
154,-188,0,0,0,0,0,0,0,0,0,-1,1378,1212,0,0
161,-188,0,0,0,0,0,0,0,0,0,-1,1385,1212,0,0
168,-188,0,0,0,0,0,0,0,0,0,-1,1392,1212,0,0
175,-188,0,0,0,0,0,0,0,0,0,-1,1399,1212,0,0
182,-188,0,0,0,0,0,0,0,0,0,-1,1406,1212,0,0
189,-188,0,0,0,0,0,0,0,0,0,-1,1413,1212,0,0
196,-188,0,0,0,0,0,0,0,0,0,-1,1420,1212,0,0
203,-188,0,0,0,0,0,0,0,0,0,-1,1427,1212,0,0
210,-188,0,0,0,0,0,0,0,0,0,-1,1434,1212,0,0
217,-188,0,0,0,0,0,0,0,0,0,-1,1441,1212,0,0
224,-188,0,0,0,0,0,0,0,0,0,-1,1448,1212,0,0
231,-188,0,0,0,0,0,0,0,0,0,-1,1455,1212,0,0
238,-188,0,0,0,0,0,0,0,0,0,-1,1462,1212,0,0
245,-188,0,0,0,0,0,0,0,0,0,-1,1469,1212,0,0
252,-188,0,0,0,0,0,0,0,0,0,-1,1476,1212,0,0
259,-188,0,0,0,0,0,0,0,0,0,-1,1483,1212,0,0
266,-188,0,0,0,0,0,0,0,0,0,-1,1490,1212,0,0
273,-188,0,0,0,0,0,0,0,0,0,-1,1497,1212,0,0
280,-188,0,0,0,0,0,0,0,0,0,-1,1504,1212,0,0
287,-188,0,0,0,0,0,0,0,0,0,-1,1511,1212,0,0
294,-188,0,0,0,0,0,0,0,0,0,-1,1518,1212,0,0
301,-188,0,0,0,0,0,0,0,0,0,-1,1525,1212,0,0
308,-188,0,0,0,0,0,0,0,0,0,-1,1532,1212,0,0
315,-188,0,0,0,0,0,0,0,0,0,-1,1539,1212,0,0
322,-188,0,0,0,0,0,0,0,0,0,-1,1546,1212,0,0
329,-188,0,0,0,0,0,0,0,0,0,-1,1553,1212,0,0
336,-188,0,0,0,0,0,0,0,0,0,-1,1560,1212,0,0
343,-188,0,0,0,0,0,0,0,0,0,-1,1567,1212,0,0
350,-188,0,0,0,0,0,0,0,0,0,-1,1574,1212,0,0
357,-188,0,0,0,0,0,0,0,0,0,-1,1581,1212,0,0
364,-188,0,0,0,0,0,0,0,0,0,-1,1588,1212,0,0
371,-188,0,0,0,0,0,0,0,0,0,-1,1595,1212,0,0
378,-188,0,0,0,0,0,0,0,0,0,-1,1602,1212,0,0
385,-188,0,0,0,0,0,0,0,0,0,-1,1609,1212,0,0
392,-188,0,0,0,0,0,0,0,0,0,-1,1616,1212,0,0
399,-188,0,0,0,0,0,0,0,0,0,-1,1623,1212,0,0
406,-188,0,0,0,0,0,0,0,0,0,-1,1630,1212,0,0
413,-188,0,0,0,0,0,0,0,0,0,-1,1637,1212,0,0
420,-188,0,0,0,0,0,0,0,0,0,-1,1644,1212,0,0
427,-188,0,0,0,0,0,0,0,0,0,-1,1651,1212,0,0
434,-188,0,0,0,0,0,0,0,0,0,-1,1658,1212,0,0
441,-188,0,0,0,0,0,0,0,0,0,-1,1665,1212,0,0
448,-188,0,0,0,0,0,0,0,0,0,-1,1672,1212,0,0
455,-188,0,0,0,0,0,0,0,0,0,-1,1679,1212,0,0
462,-188,0,0,0,0,0,0,0,0,0,-1,1686,1212,0,0
469,-188,0,0,0,0,0,0,0,0,0,-1,1693,1212,0,0
476,-188,0,0,0,0,0,0,0,0,0,-1,1700,1212,0,0
483,-188,0,0,0,0,0,0,0,0,0,-1,1707,1212,0,0
490,-188,0,0,0,0,0,0,0,0,0,-1,1714,1212,0,0
497,-188,0,0,0,0,0,0,0,0,0,-1,1721,1212,0,0
504,-188,0,0,0,0,0,0,0,0,0,-1,1728,1212,0,0
511,-188,0,0,0,0,0,0,0,0,0,-1,1735,1212,0,0
518,-188,0,0,0,0,0,0,0,0,0,-1,1742,1212,0,0
525,-188,0,0,0,0,0,0,0,0,0,-1,1749,1212,0,0
532,-188,0,0,0,0,0,0,0,0,0,-1,1756,1212,0,0
539,-188,0,0,0,0,0,0,0,0,0,-1,1763,1212,0,0
546,-188,0,0,0,0,0,0,0,0,0,-1,1770,1212,0,0
553,-188,0,0,0,0,0,0,0,0,0,-1,1777,1212,0,0
560,-188,0,0,0,0,0,0,0,0,0,-1,1784,1212,0,0
567,-188,0,0,0,0,0,0,0,0,0,-1,1791,1212,0,0
574,-188,0,0,0,0,0,0,0,0,0,-1,1798,1212,0,0
581,-188,0,0,0,0,0,0,0,0,0,-1,1805,1212,0,0
588,-188,0,0,0,0,0,0,0,0,0,-1,1812,1212,0,0
595,-188,0,0,0,0,0,0,0,0,0,-1,1819,1212,0,0
602,-188,0,0,0,0,0,0,0,0,0,-1,1826,1212,0,0
609,-188,0,0,0,0,0,0,0,0,0,-1,1833,1212,0,0
616,-188,0,0,0,0,0,0,0,0,0,-1,1840,1212,0,0
623,-188,0,0,0,0,0,0,0,0,0,-1,1847,1212,0,0
630,-188,15.5264,2.45837,-0.00545911,-0.00142279,0.000961466,-0.00120546,-0.00567643,1.3485,0.00345332,0.0403984,1854,1212,15.5264,-2.45838
637,-188,15.4512,2.40112,-0.00387892,0.000254232,0.00112289,0.000539595,-0.00416428,1.32193,0.00297242,0.0400183,1861,1212,15.4512,-2.40112
644,-188,15.429,2.4104,-0.00241308,0.00161189,0.00123398,0.00196008,-0.00276127,1.29578,0.00273893,0.0352077,1868,1212,15.429,-2.41042
651,-188,15.458,2.39099,-0.00222321,0.00197025,0.00160888,0.00251639,-0.00276935,1.24355,0.00305289,0.0312058,1875,1212,15.458,-2.39102
658,-188,15.5031,2.35339,-0.00260671,0.00168979,0.00207253,0.00252657,-0.00344348,1.18707,0.00346033,0.0326789,1882,1212,15.503,-2.35336
665,-188,15.5096,2.34473,-0.0031338,0.00116931,0.00239477,0.00223709,-0.00420158,1.15137,0.0037746,0.0293288,1889,1212,15.5096,-2.34471
672,-188,15.5624,2.32031,-0.00370069,0.000542644,0.00260361,0.00177959,-0.00493763,1.12728,0.00401852,0.0231383,1896,1212,15.5624,-2.32037
679,-188,15.6881,2.35535,-0.00418367,1.97297e-05,0.00277893,0.00140223,-0.00556616,1.10916,0.00425589,0.0433519,1903,1212,15.6881,-2.3553
686,-188,14.8562,3.43042,0,0,0,0,0,0,0,-1,1910,1212,14.8563,-3.43042
693,-188,14.5842,3.48877,-0.00477713,-0.000803578,0.00280728,0.000648845,-0.00622955,1.09334,0.00438535,0.0449697,1917,1212,14.5843,-3.48875
700,-188,14.3755,3.55139,-0.00483831,-0.00115287,0.00273829,0.00030499,-0.00629617,1.08157,0.00430272,0.0368598,1924,1212,14.3755,-3.55136
707,-188,14.231,3.64636,-0.00480488,-0.0015291,0.0025906,-0.000102041,-0.00623194,1.06729,0.00412103,0.0127927,1931,1212,14.231,-3.64642
714,-188,14.2089,3.57129,-0.00476823,-0.00170631,0.00228982,-0.000482794,-0.00599174,1.08007,0.00384368,0.0100468,1938,1212,14.2089,-3.57134
721,-188,14.1558,3.50122,-0.00445348,-0.0013841,0.00191873,-0.000461797,-0.00537578,1.12272,0.00344027,0.0100821,1945,1212,14.1558,-3.50125
728,-188,14.1335,3.401,-0.00345615,-0.00109923,0.00127281,-0.000543093,-0.00401228,1.15886,0.00251346,0.00931557,1952,1212,14.1335,-3.40097
735,-188,14.1304,3.29468,-0.00205287,-0.000811482,0.00026052,-0.000759025,-0.00210533,1.3721,0.00123118,0.0130369,1959,1212,14.1304,-3.29466
742,-188,14.1359,3.2002,-0.000423553,-0.000622465,-0.0011328,0.00061415,-0.00166017,-0.741612,0.00135858,0.014045,1966,1212,14.1359,-3.20017
749,-188,14.1571,3.12878,0.00136845,-0.000527217,-0.00282898,0.00340416,-0.00256293,-0.623754,0.00345649,0.0135404,1973,1212,14.1571,-3.12883
756,-188,14.1672,3.0415,0.0031227,-0.000744032,-0.00476744,0.00633389,-0.00395522,-0.592763,0.0059931,0.0130128,1980,1212,14.1672,-3.04153
763,-188,14.1458,2.93726,0.00493009,-0.0013273,-0.00714066,0.00959741,-0.00599462,-0.57892,0.00908181,0.0143344,1987,1212,14.1458,-2.93729
770,-188,14.1105,2.81641,0.00700249,-0.00240154,-0.0102372,0.0135659,-0.00896494,-0.570115,0.0130983,0.0215208,1994,1212,14.1105,-2.81637
777,-188,14.1378,2.72327,0.00935346,-0.00405964,-0.0142833,0.0184263,-0.0131325,-0.565907,0.0183058,0.0437092,2001,1212,14.1378,-2.72332
784,-188,14.1528,2.64075,0,0,0,0,0,0,0,-1,2008,1212,14.1528,-2.64079
791,-188,17.0121,1.99805,0,0,0,0,0,0,0,-1,2015,1212,17.012,-1.99807
798,-188,17.0626,1.61731,0,0,0,0,0,0,0,-1,2022,1212,17.0626,-1.61726
805,-188,0,0,0,0,0,0,0,0,0,-1,2029,1212,0,0
812,-188,0,0,0,0,0,0,0,0,0,-1,2036,1212,0,0
-700,-195,0,0,0,0,0,0,0,0,0,-1,524,1219,0,0
-693,-195,0,0,0,0,0,0,0,0,0,-1,531,1219,0,0
-686,-195,0,0,0,0,0,0,0,0,0,-1,538,1219,0,0
-679,-195,-9.51715,0.337402,0,0,0,0,0,0,0,-1,545,1219,-9.51717,-0.337444
-672,-195,-8.81012,0.672119,0.0655611,0.0406407,-0.0508442,0.10545,0.000752192,-0.665233,0.0700504,0.0439264,552,1219,-8.8101,-0.672163
-665,-195,-8.05518,0.918335,0.0454239,0.0261473,-0.037608,0.074609,-0.0030378,-0.659956,0.0507822,0.0444835,559,1219,-8.05517,-0.918308
-658,-195,-7.24878,0.960083,0.0304194,0.0164889,-0.0272213,0.0515524,-0.00464417,-0.660148,0.0360163,0.0447415,566,1219,-7.24877,-0.960033
-651,-195,-7.59637,0.772827,0.019439,0.0100934,-0.0191668,0.0344944,-0.00496198,-0.665832,0.0248162,0.0422927,573,1219,-7.59639,-0.772781
-644,-195,-7.65668,0.741333,0.0116132,0.00593148,-0.0130552,0.0221331,-0.00458838,-0.678266,0.0164989,0.0405854,580,1219,-7.65665,-0.741281
-637,-195,-7.70367,0.68335,0.00629257,0.00329943,-0.00856752,0.0134932,-0.00390124,-0.698931,0.0105394,0.0208577,587,1219,-7.70368,-0.683323
-630,-195,-7.74127,0.810791,0.00277436,0.00148748,-0.00545777,0.00762648,-0.00336465,-0.726722,0.0065028,0.00757767,594,1219,-7.7413,-0.810734
-623,-195,-7.76422,0.914185,0.000493038,0.000471977,-0.0037374,0.00421993,-0.00325491,-0.783989,0.00432757,0.00741354,601,1219,-7.76421,-0.914127
-616,-195,-7.76068,1.03162,-0.00173686,-0.0012441,-0.00223058,0.000753669,-0.00373462,-0.840403,0.00277529,0.00956932,608,1219,-7.76066,-1.03166
-609,-195,-7.74408,1.17395,-0.00292716,-0.000921185,-0.00179208,0.000129492,-0.00397784,-1.04052,0.00269609,0.0168791,615,1219,-7.74407,-1.17392
-602,-195,-7.77881,1.29065,-0.00267893,-0.000591476,-0.00248401,0.00105918,-0.00432958,-0.984288,0.00329666,0.0199485,622,1219,-7.77883,-1.29069
-595,-195,-7.7951,1.40356,-0.00183388,-0.000479889,-0.00326178,0.00217441,-0.00448818,-0.887723,0.00392321,0.0149131,629,1219,-7.7951,-1.40362
-588,-195,-7.77258,1.5061,-0.00143442,-0.00056133,-0.00396545,0.00299153,-0.00498728,-0.840221,0.00465436,0.00775238,636,1219,-7.77259,-1.50606
-581,-195,-7.76935,1.6051,-0.00103323,-0.00054196,-0.00457235,0.00379135,-0.00536654,-0.812233,0.00531332,0.00811855,643,1219,-7.76933,-1.60512
-574,-195,-7.7486,1.64856,-0.000626966,-0.000489923,-0.00464086,0.00408292,-0.00519981,-0.79278,0.00537231,0.020196,650,1219,-7.74859,-1.64857
-567,-195,-7.44403,1.49097,-0.0003624,-0.000567271,-0.00431883,0.0038552,-0.00478488,-0.773541,0.00499797,0.0448569,657,1219,-7.44405,-1.49099
-560,-195,-7.1554,1.30444,0,0,0,0,0,0,0,-1,664,1219,-7.1554,-1.3045
-553,-195,-9.50555,0.828247,-0.000417165,-0.000488636,-0.0031182,0.00266551,-0.00357131,-0.779668,0.00361346,0.0447219,671,1219,-9.50557,-0.828262
-546,-195,-9.43884,0.716675,-0.00041088,-0.000461794,-0.00215481,0.00171862,-0.0025913,-0.779491,0.00250528,0.0432856,678,1219,-9.43884,-0.716628
-539,-195,-9.41443,0.609009,-0.000534301,-0.000511931,-0.000825102,0.000302062,-0.00134829,-0.792176,0.00101465,0.0356394,685,1219,-9.41441,-0.609003
-532,-195,-9.367,0.526489,-0.000806891,-0.000640044,0.000895361,0.000175772,-0.00162271,0.831851,0.0011449,0.0359828,692,1219,-9.36703,-0.526511
-525,-195,-9.24786,0.593994,-0.00129607,-0.00087844,0.00307275,0.00199258,-0.00416709,0.819325,0.0036294,0.0423612,699,1219,-9.24786,-0.593956
-518,-195,-9.41254,0.758057,-0.0022678,-0.00146567,0.00538275,0.00353094,-0.0072644,0.822584,0.00635572,0.0441961,706,1219,-9.41254,-0.758055
-511,-195,-9.52832,0.861572,-0.00303468,-0.00216837,0.00696183,0.00437377,-0.00957682,0.816468,0.00823899,0.0406043,713,1219,-9.52834,-0.861537
-504,-195,0,0,0,0,0,0,0,0,0,-1,720,1219,0,0
-497,-195,0,0,0,0,0,0,0,0,0,-1,727,1219,0,0
-490,-195,0,0,0,0,0,0,0,0,0,-1,734,1219,0,0
-483,-195,0,0,0,0,0,0,0,0,0,-1,741,1219,0,0
-476,-195,0,0,0,0,0,0,0,0,0,-1,748,1219,0,0
-469,-195,0,0,0,0,0,0,0,0,0,-1,755,1219,0,0
-462,-195,0,0,0,0,0,0,0,0,0,-1,762,1219,0,0
-455,-195,0,0,0,0,0,0,0,0,0,-1,769,1219,0,0
-448,-195,0,0,0,0,0,0,0,0,0,-1,776,1219,0,0
-441,-195,0,0,0,0,0,0,0,0,0,-1,783,1219,0,0
-434,-195,0,0,0,0,0,0,0,0,0,-1,790,1219,0,0
-427,-195,0,0,0,0,0,0,0,0,0,-1,797,1219,0,0
-420,-195,0,0,0,0,0,0,0,0,0,-1,804,1219,0,0
-413,-195,0,0,0,0,0,0,0,0,0,-1,811,1219,0,0
-406,-195,0,0,0,0,0,0,0,0,0,-1,818,1219,0,0
-399,-195,0,0,0,0,0,0,0,0,0,-1,825,1219,0,0
-392,-195,0,0,0,0,0,0,0,0,0,-1,832,1219,0,0
-385,-195,0,0,0,0,0,0,0,0,0,-1,839,1219,0,0
-378,-195,0,0,0,0,0,0,0,0,0,-1,846,1219,0,0
-371,-195,0,0,0,0,0,0,0,0,0,-1,853,1219,0,0
-364,-195,0,0,0,0,0,0,0,0,0,-1,860,1219,0,0
-357,-195,0,0,0,0,0,0,0,0,0,-1,867,1219,0,0
-350,-195,0,0,0,0,0,0,0,0,0,-1,874,1219,0,0
-343,-195,0,0,0,0,0,0,0,0,0,-1,881,1219,0,0
-336,-195,0,0,0,0,0,0,0,0,0,-1,888,1219,0,0
-329,-195,0,0,0,0,0,0,0,0,0,-1,895,1219,0,0
-322,-195,0,0,0,0,0,0,0,0,0,-1,902,1219,0,0
-315,-195,0,0,0,0,0,0,0,0,0,-1,909,1219,0,0
-308,-195,0,0,0,0,0,0,0,0,0,-1,916,1219,0,0
-301,-195,0,0,0,0,0,0,0,0,0,-1,923,1219,0,0
-294,-195,0,0,0,0,0,0,0,0,0,-1,930,1219,0,0
-287,-195,0,0,0,0,0,0,0,0,0,-1,937,1219,0,0
-280,-195,0,0,0,0,0,0,0,0,0,-1,944,1219,0,0
-273,-195,0,0,0,0,0,0,0,0,0,-1,951,1219,0,0
-266,-195,0,0,0,0,0,0,0,0,0,-1,958,1219,0,0
-259,-195,0,0,0,0,0,0,0,0,0,-1,965,1219,0,0
-252,-195,0,0,0,0,0,0,0,0,0,-1,972,1219,0,0
-245,-195,0,0,0,0,0,0,0,0,0,-1,979,1219,0,0
-238,-195,0,0,0,0,0,0,0,0,0,-1,986,1219,0,0
-231,-195,0,0,0,0,0,0,0,0,0,-1,993,1219,0,0
-224,-195,0,0,0,0,0,0,0,0,0,-1,1000,1219,0,0
-217,-195,0,0,0,0,0,0,0,0,0,-1,1007,1219,0,0
-210,-195,0,0,0,0,0,0,0,0,0,-1,1014,1219,0,0
-203,-195,0,0,0,0,0,0,0,0,0,-1,1021,1219,0,0
-196,-195,0,0,0,0,0,0,0,0,0,-1,1028,1219,0,0
-189,-195,0,0,0,0,0,0,0,0,0,-1,1035,1219,0,0
-182,-195,0,0,0,0,0,0,0,0,0,-1,1042,1219,0,0
-175,-195,0,0,0,0,0,0,0,0,0,-1,1049,1219,0,0
-168,-195,0,0,0,0,0,0,0,0,0,-1,1056,1219,0,0
-161,-195,0,0,0,0,0,0,0,0,0,-1,1063,1219,0,0
-154,-195,0,0,0,0,0,0,0,0,0,-1,1070,1219,0,0
-147,-195,0,0,0,0,0,0,0,0,0,-1,1077,1219,0,0
-140,-195,0,0,0,0,0,0,0,0,0,-1,1084,1219,0,0
-133,-195,0,0,0,0,0,0,0,0,0,-1,1091,1219,0,0
-126,-195,0,0,0,0,0,0,0,0,0,-1,1098,1219,0,0
-119,-195,0,0,0,0,0,0,0,0,0,-1,1105,1219,0,0
-112,-195,0,0,0,0,0,0,0,0,0,-1,1112,1219,0,0
-105,-195,0,0,0,0,0,0,0,0,0,-1,1119,1219,0,0
-98,-195,0,0,0,0,0,0,0,0,0,-1,1126,1219,0,0
-91,-195,0,0,0,0,0,0,0,0,0,-1,1133,1219,0,0
-84,-195,0,0,0,0,0,0,0,0,0,-1,1140,1219,0,0
-77,-195,0,0,0,0,0,0,0,0,0,-1,1147,1219,0,0
-70,-195,0,0,0,0,0,0,0,0,0,-1,1154,1219,0,0
-63,-195,0,0,0,0,0,0,0,0,0,-1,1161,1219,0,0
-56,-195,0,0,0,0,0,0,0,0,0,-1,1168,1219,0,0
-49,-195,0,0,0,0,0,0,0,0,0,-1,1175,1219,0,0
-42,-195,0,0,0,0,0,0,0,0,0,-1,1182,1219,0,0
-35,-195,0,0,0,0,0,0,0,0,0,-1,1189,1219,0,0
-28,-195,0,0,0,0,0,0,0,0,0,-1,1196,1219,0,0
-21,-195,0,0,0,0,0,0,0,0,0,-1,1203,1219,0,0
-14,-195,0,0,0,0,0,0,0,0,0,-1,1210,1219,0,0
-7,-195,0,0,0,0,0,0,0,0,0,-1,1217,1219,0,0
0,-195,0,0,0,0,0,0,0,0,0,-1,1224,1219,0,0
7,-195,0,0,0,0,0,0,0,0,0,-1,1231,1219,0,0
14,-195,0,0,0,0,0,0,0,0,0,-1,1238,1219,0,0
21,-195,0,0,0,0,0,0,0,0,0,-1,1245,1219,0,0
28,-195,0,0,0,0,0,0,0,0,0,-1,1252,1219,0,0
35,-195,0,0,0,0,0,0,0,0,0,-1,1259,1219,0,0
42,-195,0,0,0,0,0,0,0,0,0,-1,1266,1219,0,0
49,-195,0,0,0,0,0,0,0,0,0,-1,1273,1219,0,0
56,-195,0,0,0,0,0,0,0,0,0,-1,1280,1219,0,0
63,-195,0,0,0,0,0,0,0,0,0,-1,1287,1219,0,0
70,-195,0,0,0,0,0,0,0,0,0,-1,1294,1219,0,0
77,-195,0,0,0,0,0,0,0,0,0,-1,1301,1219,0,0
84,-195,0,0,0,0,0,0,0,0,0,-1,1308,1219,0,0
91,-195,0,0,0,0,0,0,0,0,0,-1,1315,1219,0,0
98,-195,0,0,0,0,0,0,0,0,0,-1,1322,1219,0,0
105,-195,0,0,0,0,0,0,0,0,0,-1,1329,1219,0,0
112,-195,0,0,0,0,0,0,0,0,0,-1,1336,1219,0,0
119,-195,0,0,0,0,0,0,0,0,0,-1,1343,1219,0,0
126,-195,0,0,0,0,0,0,0,0,0,-1,1350,1219,0,0
133,-195,0,0,0,0,0,0,0,0,0,-1,1357,1219,0,0
140,-195,0,0,0,0,0,0,0,0,0,-1,1364,1219,0,0
147,-195,0,0,0,0,0,0,0,0,0,-1,1371,1219,0,0
154,-195,0,0,0,0,0,0,0,0,0,-1,1378,1219,0,0
161,-195,0,0,0,0,0,0,0,0,0,-1,1385,1219,0,0
168,-195,0,0,0,0,0,0,0,0,0,-1,1392,1219,0,0
175,-195,0,0,0,0,0,0,0,0,0,-1,1399,1219,0,0
182,-195,0,0,0,0,0,0,0,0,0,-1,1406,1219,0,0
189,-195,0,0,0,0,0,0,0,0,0,-1,1413,1219,0,0
196,-195,0,0,0,0,0,0,0,0,0,-1,1420,1219,0,0
203,-195,0,0,0,0,0,0,0,0,0,-1,1427,1219,0,0
210,-195,0,0,0,0,0,0,0,0,0,-1,1434,1219,0,0
217,-195,0,0,0,0,0,0,0,0,0,-1,1441,1219,0,0
224,-195,0,0,0,0,0,0,0,0,0,-1,1448,1219,0,0
231,-195,0,0,0,0,0,0,0,0,0,-1,1455,1219,0,0
238,-195,0,0,0,0,0,0,0,0,0,-1,1462,1219,0,0
245,-195,0,0,0,0,0,0,0,0,0,-1,1469,1219,0,0
252,-195,0,0,0,0,0,0,0,0,0,-1,1476,1219,0,0
259,-195,0,0,0,0,0,0,0,0,0,-1,1483,1219,0,0
266,-195,0,0,0,0,0,0,0,0,0,-1,1490,1219,0,0
273,-195,0,0,0,0,0,0,0,0,0,-1,1497,1219,0,0
280,-195,0,0,0,0,0,0,0,0,0,-1,1504,1219,0,0
287,-195,0,0,0,0,0,0,0,0,0,-1,1511,1219,0,0
294,-195,0,0,0,0,0,0,0,0,0,-1,1518,1219,0,0
301,-195,0,0,0,0,0,0,0,0,0,-1,1525,1219,0,0
308,-195,0,0,0,0,0,0,0,0,0,-1,1532,1219,0,0
315,-195,0,0,0,0,0,0,0,0,0,-1,1539,1219,0,0
322,-195,0,0,0,0,0,0,0,0,0,-1,1546,1219,0,0
329,-195,0,0,0,0,0,0,0,0,0,-1,1553,1219,0,0
336,-195,0,0,0,0,0,0,0,0,0,-1,1560,1219,0,0
343,-195,0,0,0,0,0,0,0,0,0,-1,1567,1219,0,0
350,-195,0,0,0,0,0,0,0,0,0,-1,1574,1219,0,0
357,-195,0,0,0,0,0,0,0,0,0,-1,1581,1219,0,0
364,-195,0,0,0,0,0,0,0,0,0,-1,1588,1219,0,0
371,-195,0,0,0,0,0,0,0,0,0,-1,1595,1219,0,0
378,-195,0,0,0,0,0,0,0,0,0,-1,1602,1219,0,0
385,-195,0,0,0,0,0,0,0,0,0,-1,1609,1219,0,0
392,-195,0,0,0,0,0,0,0,0,0,-1,1616,1219,0,0
399,-195,0,0,0,0,0,0,0,0,0,-1,1623,1219,0,0
406,-195,0,0,0,0,0,0,0,0,0,-1,1630,1219,0,0
413,-195,0,0,0,0,0,0,0,0,0,-1,1637,1219,0,0
420,-195,0,0,0,0,0,0,0,0,0,-1,1644,1219,0,0
427,-195,0,0,0,0,0,0,0,0,0,-1,1651,1219,0,0
434,-195,0,0,0,0,0,0,0,0,0,-1,1658,1219,0,0
441,-195,0,0,0,0,0,0,0,0,0,-1,1665,1219,0,0
448,-195,0,0,0,0,0,0,0,0,0,-1,1672,1219,0,0
455,-195,0,0,0,0,0,0,0,0,0,-1,1679,1219,0,0
462,-195,0,0,0,0,0,0,0,0,0,-1,1686,1219,0,0
469,-195,0,0,0,0,0,0,0,0,0,-1,1693,1219,0,0
476,-195,0,0,0,0,0,0,0,0,0,-1,1700,1219,0,0
483,-195,0,0,0,0,0,0,0,0,0,-1,1707,1219,0,0
490,-195,0,0,0,0,0,0,0,0,0,-1,1714,1219,0,0
497,-195,0,0,0,0,0,0,0,0,0,-1,1721,1219,0,0
504,-195,0,0,0,0,0,0,0,0,0,-1,1728,1219,0,0
511,-195,0,0,0,0,0,0,0,0,0,-1,1735,1219,0,0
518,-195,0,0,0,0,0,0,0,0,0,-1,1742,1219,0,0
525,-195,0,0,0,0,0,0,0,0,0,-1,1749,1219,0,0
532,-195,0,0,0,0,0,0,0,0,0,-1,1756,1219,0,0
539,-195,0,0,0,0,0,0,0,0,0,-1,1763,1219,0,0
546,-195,0,0,0,0,0,0,0,0,0,-1,1770,1219,0,0
553,-195,0,0,0,0,0,0,0,0,0,-1,1777,1219,0,0
560,-195,0,0,0,0,0,0,0,0,0,-1,1784,1219,0,0
567,-195,0,0,0,0,0,0,0,0,0,-1,1791,1219,0,0
574,-195,0,0,0,0,0,0,0,0,0,-1,1798,1219,0,0
581,-195,0,0,0,0,0,0,0,0,0,-1,1805,1219,0,0
588,-195,0,0,0,0,0,0,0,0,0,-1,1812,1219,0,0
595,-195,0,0,0,0,0,0,0,0,0,-1,1819,1219,0,0
602,-195,0,0,0,0,0,0,0,0,0,-1,1826,1219,0,0
609,-195,0,0,0,0,0,0,0,0,0,-1,1833,1219,0,0
616,-195,0,0,0,0,0,0,0,0,0,-1,1840,1219,0,0
623,-195,0,0,0,0,0,0,0,0,0,-1,1847,1219,0,0
630,-195,15.6287,2.26331,-0.0042734,-0.00163405,0.000491088,-0.00154564,-0.00436181,1.39267,0.00255366,0.0387709,1854,1219,15.6287,-2.26329
637,-195,15.5989,2.33313,-0.00332405,0.0010694,0.000942469,0.00126304,-0.00351769,1.36816,0.00286064,0.0397305,1861,1219,15.5988,-2.33318
644,-195,15.626,2.3186,-0.00264278,0.00293936,0.00144041,0.00328912,-0.00299255,1.33258,0.00362807,0.0357993,1868,1219,15.626,-2.31858
651,-195,15.5685,2.31409,-0.00290962,0.00342367,0.00206198,0.00403583,-0.00352178,1.2822,0.00436676,0.0279591,1875,1219,15.5685,-2.31407
658,-195,15.5563,2.30713,-0.00339044,0.00309508,0.0025766,0.00399411,-0.00428946,1.23509,0.00478353,0.0250554,1882,1219,15.5563,-2.30717
665,-195,15.5645,2.34412,-0.00385433,0.00241174,0.00287405,0.0035303,-0.0049729,1.19964,0.00493282,0.0225772,1889,1219,15.5644,-2.34417
672,-195,15.6344,2.29346,-0.00430289,0.00159649,0.00301875,0.0028674,-0.0055738,1.17231,0.00495632,0.0343692,1896,1219,15.6343,-2.29346
679,-195,15.679,2.32629,-0.00462673,0.000913643,0.00312707,0.00232108,-0.00603416,1.14788,0.00498015,0.0471825,1903,1219,15.6789,-2.32634
686,-195,15.8326,2.43518,0,0,0,0,0,0,0,-1,1910,1219,15.8327,-2.43518
693,-195,14.4229,3.50671,-0.00495619,-0.000222226,0.00304675,0.00126894,-0.00644736,1.11564,0.00477773,0.0440626,1917,1219,14.4229,-3.50676
700,-195,14.1404,3.64771,-0.00489834,-0.00070841,0.00290237,0.000776099,-0.00638285,1.09801,0.00453612,0.0255323,1924,1219,14.1404,-3.64767
707,-195,14.0507,3.70361,-0.00470758,-0.00129996,0.00262683,0.000127237,-0.00613478,1.0731,0.00413292,0.0133669,1931,1219,14.0507,-3.7036
714,-195,14.0576,3.6123,-0.00452881,-0.00165103,0.00220515,-0.000456842,-0.005723,1.07447,0.00367253,0.0138182,1938,1219,14.0576,-3.61236
721,-195,14.0524,3.51428,-0.00415863,-0.00126155,0.00177763,-0.000417002,-0.00500318,1.12727,0.0032055,0.0108946,1945,1219,14.0523,-3.51427
728,-195,14.0328,3.41248,-0.00307458,-0.0009156,0.00106322,-0.000479924,-0.00351026,1.18189,0.00219774,0.00951809,1952,1219,14.0329,-3.41246
735,-195,14.0355,3.27991,-0.00159063,-0.000571218,-4.19284e-05,-0.000569496,-0.00159235,-1.52976,0.00093168,0.0119909,1959,1219,14.0355,-3.27989
742,-195,14.0291,3.17041,5.31432e-05,-0.00041492,-0.00146506,0.00130274,-0.00166452,-0.706196,0.00171739,0.0135966,1966,1219,14.0291,-3.17035
749,-195,14.0566,3.11182,0.00186329,-0.000335576,-0.00315701,0.00410683,-0.00257912,-0.617841,0.00389358,0.0133694,1973,1219,14.0566,-3.11176
756,-195,14.0714,3.0304,0.00366377,-0.000603581,-0.00511419,0.00707153,-0.00401134,-0.587773,0.0064795,0.0138706,1980,1219,14.0714,-3.03044
763,-195,14.0521,2.90466,0.00563863,-0.0012561,-0.00754554,0.010487,-0.00610449,-0.57112,0.00968986,0.015563,1987,1219,14.0521,-2.90472
770,-195,14.0721,2.80518,0.00803703,-0.00240593,-0.010735,0.0147531,-0.00912197,-0.559045,0.0139115,0.0285162,1994,1219,14.0721,-2.8052
777,-195,14.0969,2.7002,0,0,0,0,0,0,0,-1,2001,1219,14.0969,-2.70023
784,-195,13.7637,2.22668,0,0,0,0,0,0,0,-1,2008,1219,13.7637,-2.22668
791,-195,15.8263,1.67749,0,0,0,0,0,0,0,-1,2015,1219,15.8262,-1.67748
798,-195,15.8015,1.29736,0,0,0,0,0,0,0,-1,2022,1219,15.8015,-1.29734
805,-195,0,0,0,0,0,0,0,0,0,-1,2029,1219,0,0
812,-195,0,0,0,0,0,0,0,0,0,-1,2036,1219,0,0
-700,-202,0,0,0,0,0,0,0,0,0,-1,524,1226,0,0
-693,-202,0,0,0,0,0,0,0,0,0,-1,531,1226,0,0
-686,-202,0,0,0,0,0,0,0,0,0,-1,538,1226,0,0
-679,-202,-8.74994,1.67908,0,0,0,0,0,0,0,-1,545,1226,-8.74995,-1.67909
-672,-202,-8.31677,1.30945,0.0687996,0.038439,-0.0587065,0.114257,-0.00701812,-0.658879,0.078615,0.0429266,552,1226,-8.3168,-1.30939
-665,-202,-7.59674,0.796143,0.0465536,0.0234128,-0.0426424,0.0791674,-0.00920108,-0.65292,0.0560974,0.0433748,559,1226,-7.59673,-0.796201
-658,-202,-7.38843,0.583618,0.0306368,0.0133916,-0.0303652,0.0535799,-0.00955151,-0.647058,0.0392927,0.0417387,566,1226,-7.38845,-0.583618
-651,-202,-7.40594,0.327026,0.0192959,0.00679099,-0.0210341,0.0349872,-0.00890024,-0.64093,0.026789,0.0441187,573,1226,-7.40593,-0.327063
-644,-202,-7.41364,0.395752,0.0113655,0.00260902,-0.0140771,0.0217296,-0.00775502,-0.634631,0.0176488,0.0418546,580,1226,-7.41364,-0.395775
-637,-202,-7.49634,0.591675,0.00603898,0.000148533,-0.00905486,0.0126156,-0.00642805,-0.628163,0.0111866,0.0291038,587,1226,-7.49637,-0.591661
-630,-202,-7.57965,0.772949,0.00256846,-0.00113694,-0.00562622,0.00663918,-0.00520766,-0.626341,0.0068564,0.0119906,594,1226,-7.57963,-0.772923
-623,-202,-7.62024,0.889526,0.000449419,-0.00175816,-0.00364035,0.00314964,-0.00445838,-0.638199,0.00441411,0.00723857,601,1226,-7.62023,-0.88957
-616,-202,-7.6402,1.02185,-0.00164378,-0.00331981,-0.00171003,-0.000577466,-0.00438613,-0.557567,0.00275187,0.00811667,608,1226,-7.64018,-1.02188
-609,-202,-7.64087,1.17932,-0.00260226,-0.0024711,-0.00108837,-0.00144634,-0.00362703,-0.815489,0.00210832,0.0204372,615,1226,-7.64086,-1.17937
-602,-202,-7.67871,1.28882,-0.00212139,-0.0015298,-0.0017402,-6.04431e-05,-0.00359076,-0.869583,0.00237395,0.0205156,622,1226,-7.67872,-1.28876
-595,-202,-7.68469,1.41467,-0.00101038,-0.00110141,-0.00248011,0.00142463,-0.00353642,-0.776224,0.00294949,0.0160916,629,1226,-7.68469,-1.41465
-588,-202,-7.63666,1.51379,-0.000356588,-0.000847051,-0.00319632,0.00260389,-0.00380753,-0.747112,0.00372332,0.00838022,636,1226,-7.63666,-1.51381
-581,-202,-7.6225,1.5968,0.000191624,-0.000512839,-0.00379958,0.00365527,-0.00397648,-0.739179,0.00440749,0.00995407,643,1226,-7.62249,-1.59674
-574,-202,-7.64673,1.63782,0.000619262,-0.000422328,-0.00378321,0.00391735,-0.00372042,-0.716998,0.00441016,0.015005,650,1226,-7.64675,-1.63777
-567,-202,-7.65186,1.68628,0.000884334,-0.000623842,-0.00344337,0.00365522,-0.00339473,-0.677601,0.00407121,0.039163,657,1226,-7.65185,-1.68633
-560,-202,-7.68066,1.74255,0,0,0,0,0,0,0,-1,664,1226,-7.68069,-1.74254
-553,-202,-9.42078,0.798096,0.000632207,-0.00069789,-0.00247953,0.00253432,-0.00260001,-0.654374,0.00296439,0.046069,671,1226,-9.4208,-0.798078
-546,-202,-9.36462,0.700684,0.000430579,-0.000682974,-0.00179745,0.00175551,-0.0020079,-0.635205,0.00217443,0.0448808,678,1226,-9.3646,-0.700677
-539,-202,-9.3634,0.568481,2.26982e-05,-0.000761927,-0.000834206,0.000552236,-0.00129147,-0.565602,0.00109261,0.0390505,685,1226,-9.36341,-0.56851
-532,-202,-9.4054,0.579224,-0.000620917,-0.000856792,0.000388681,-0.000332675,-0.00114503,0.638098,0.000680147,0.0281021,692,1226,-9.40541,-0.579225
-525,-202,-9.41412,0.677246,-0.00155823,-0.000947279,0.00193705,0.000708238,-0.00321375,0.863605,0.00241347,0.0358261,699,1226,-9.41414,-0.677198
-518,-202,-9.50385,0.935913,-0.00298304,-0.00110508,0.0036627,0.00173709,-0.00582521,0.910877,0.00457381,0.0431004,706,1226,-9.50387,-0.935884
-511,-202,-9.64319,1.02502,-0.00438783,-0.00118595,0.0050118,0.00247439,-0.00804817,0.939993,0.00635295,0.042533,713,1226,-9.64321,-1.02504
-504,-202,0,0,0,0,0,0,0,0,0,-1,720,1226,0,0
-497,-202,0,0,0,0,0,0,0,0,0,-1,727,1226,0,0
-490,-202,0,0,0,0,0,0,0,0,0,-1,734,1226,0,0
-483,-202,0,0,0,0,0,0,0,0,0,-1,741,1226,0,0
-476,-202,0,0,0,0,0,0,0,0,0,-1,748,1226,0,0
-469,-202,0,0,0,0,0,0,0,0,0,-1,755,1226,0,0
-462,-202,0,0,0,0,0,0,0,0,0,-1,762,1226,0,0
-455,-202,0,0,0,0,0,0,0,0,0,-1,769,1226,0,0
-448,-202,0,0,0,0,0,0,0,0,0,-1,776,1226,0,0
-441,-202,0,0,0,0,0,0,0,0,0,-1,783,1226,0,0
-434,-202,0,0,0,0,0,0,0,0,0,-1,790,1226,0,0
-427,-202,0,0,0,0,0,0,0,0,0,-1,797,1226,0,0
-420,-202,0,0,0,0,0,0,0,0,0,-1,804,1226,0,0
-413,-202,0,0,0,0,0,0,0,0,0,-1,811,1226,0,0
-406,-202,0,0,0,0,0,0,0,0,0,-1,818,1226,0,0
-399,-202,0,0,0,0,0,0,0,0,0,-1,825,1226,0,0
-392,-202,0,0,0,0,0,0,0,0,0,-1,832,1226,0,0
-385,-202,0,0,0,0,0,0,0,0,0,-1,839,1226,0,0
-378,-202,0,0,0,0,0,0,0,0,0,-1,846,1226,0,0
-371,-202,0,0,0,0,0,0,0,0,0,-1,853,1226,0,0
-364,-202,0,0,0,0,0,0,0,0,0,-1,860,1226,0,0
-357,-202,0,0,0,0,0,0,0,0,0,-1,867,1226,0,0
-350,-202,0,0,0,0,0,0,0,0,0,-1,874,1226,0,0
-343,-202,0,0,0,0,0,0,0,0,0,-1,881,1226,0,0
-336,-202,0,0,0,0,0,0,0,0,0,-1,888,1226,0,0
-329,-202,0,0,0,0,0,0,0,0,0,-1,895,1226,0,0
-322,-202,0,0,0,0,0,0,0,0,0,-1,902,1226,0,0
-315,-202,0,0,0,0,0,0,0,0,0,-1,909,1226,0,0
-308,-202,0,0,0,0,0,0,0,0,0,-1,916,1226,0,0
-301,-202,0,0,0,0,0,0,0,0,0,-1,923,1226,0,0
-294,-202,0,0,0,0,0,0,0,0,0,-1,930,1226,0,0
-287,-202,0,0,0,0,0,0,0,0,0,-1,937,1226,0,0
-280,-202,0,0,0,0,0,0,0,0,0,-1,944,1226,0,0
-273,-202,0,0,0,0,0,0,0,0,0,-1,951,1226,0,0
-266,-202,0,0,0,0,0,0,0,0,0,-1,958,1226,0,0
-259,-202,0,0,0,0,0,0,0,0,0,-1,965,1226,0,0
-252,-202,0,0,0,0,0,0,0,0,0,-1,972,1226,0,0
-245,-202,0,0,0,0,0,0,0,0,0,-1,979,1226,0,0
-238,-202,0,0,0,0,0,0,0,0,0,-1,986,1226,0,0
-231,-202,0,0,0,0,0,0,0,0,0,-1,993,1226,0,0
-224,-202,0,0,0,0,0,0,0,0,0,-1,1000,1226,0,0
-217,-202,0,0,0,0,0,0,0,0,0,-1,1007,1226,0,0
-210,-202,0,0,0,0,0,0,0,0,0,-1,1014,1226,0,0
-203,-202,0,0,0,0,0,0,0,0,0,-1,1021,1226,0,0
-196,-202,0,0,0,0,0,0,0,0,0,-1,1028,1226,0,0
-189,-202,0,0,0,0,0,0,0,0,0,-1,1035,1226,0,0
-182,-202,0,0,0,0,0,0,0,0,0,-1,1042,1226,0,0
-175,-202,0,0,0,0,0,0,0,0,0,-1,1049,1226,0,0
-168,-202,0,0,0,0,0,0,0,0,0,-1,1056,1226,0,0
-161,-202,0,0,0,0,0,0,0,0,0,-1,1063,1226,0,0
-154,-202,0,0,0,0,0,0,0,0,0,-1,1070,1226,0,0
-147,-202,0,0,0,0,0,0,0,0,0,-1,1077,1226,0,0
-140,-202,0,0,0,0,0,0,0,0,0,-1,1084,1226,0,0
-133,-202,0,0,0,0,0,0,0,0,0,-1,1091,1226,0,0
-126,-202,0,0,0,0,0,0,0,0,0,-1,1098,1226,0,0
-119,-202,0,0,0,0,0,0,0,0,0,-1,1105,1226,0,0
-112,-202,0,0,0,0,0,0,0,0,0,-1,1112,1226,0,0
-105,-202,0,0,0,0,0,0,0,0,0,-1,1119,1226,0,0
-98,-202,0,0,0,0,0,0,0,0,0,-1,1126,1226,0,0
-91,-202,0,0,0,0,0,0,0,0,0,-1,1133,1226,0,0
-84,-202,0,0,0,0,0,0,0,0,0,-1,1140,1226,0,0
-77,-202,0,0,0,0,0,0,0,0,0,-1,1147,1226,0,0
-70,-202,0,0,0,0,0,0,0,0,0,-1,1154,1226,0,0
-63,-202,0,0,0,0,0,0,0,0,0,-1,1161,1226,0,0
-56,-202,0,0,0,0,0,0,0,0,0,-1,1168,1226,0,0
-49,-202,0,0,0,0,0,0,0,0,0,-1,1175,1226,0,0
-42,-202,0,0,0,0,0,0,0,0,0,-1,1182,1226,0,0
-35,-202,0,0,0,0,0,0,0,0,0,-1,1189,1226,0,0
-28,-202,0,0,0,0,0,0,0,0,0,-1,1196,1226,0,0
-21,-202,0,0,0,0,0,0,0,0,0,-1,1203,1226,0,0
-14,-202,0,0,0,0,0,0,0,0,0,-1,1210,1226,0,0
-7,-202,0,0,0,0,0,0,0,0,0,-1,1217,1226,0,0
0,-202,0,0,0,0,0,0,0,0,0,-1,1224,1226,0,0
7,-202,0,0,0,0,0,0,0,0,0,-1,1231,1226,0,0
14,-202,0,0,0,0,0,0,0,0,0,-1,1238,1226,0,0
21,-202,0,0,0,0,0,0,0,0,0,-1,1245,1226,0,0
28,-202,0,0,0,0,0,0,0,0,0,-1,1252,1226,0,0
35,-202,0,0,0,0,0,0,0,0,0,-1,1259,1226,0,0
42,-202,0,0,0,0,0,0,0,0,0,-1,1266,1226,0,0
49,-202,0,0,0,0,0,0,0,0,0,-1,1273,1226,0,0
56,-202,0,0,0,0,0,0,0,0,0,-1,1280,1226,0,0
63,-202,0,0,0,0,0,0,0,0,0,-1,1287,1226,0,0
70,-202,0,0,0,0,0,0,0,0,0,-1,1294,1226,0,0
77,-202,0,0,0,0,0,0,0,0,0,-1,1301,1226,0,0
84,-202,0,0,0,0,0,0,0,0,0,-1,1308,1226,0,0
91,-202,0,0,0,0,0,0,0,0,0,-1,1315,1226,0,0
98,-202,0,0,0,0,0,0,0,0,0,-1,1322,1226,0,0
105,-202,0,0,0,0,0,0,0,0,0,-1,1329,1226,0,0
112,-202,0,0,0,0,0,0,0,0,0,-1,1336,1226,0,0
119,-202,0,0,0,0,0,0,0,0,0,-1,1343,1226,0,0
126,-202,0,0,0,0,0,0,0,0,0,-1,1350,1226,0,0
133,-202,0,0,0,0,0,0,0,0,0,-1,1357,1226,0,0
140,-202,0,0,0,0,0,0,0,0,0,-1,1364,1226,0,0
147,-202,0,0,0,0,0,0,0,0,0,-1,1371,1226,0,0
154,-202,0,0,0,0,0,0,0,0,0,-1,1378,1226,0,0
161,-202,0,0,0,0,0,0,0,0,0,-1,1385,1226,0,0
168,-202,0,0,0,0,0,0,0,0,0,-1,1392,1226,0,0
175,-202,0,0,0,0,0,0,0,0,0,-1,1399,1226,0,0
182,-202,0,0,0,0,0,0,0,0,0,-1,1406,1226,0,0
189,-202,0,0,0,0,0,0,0,0,0,-1,1413,1226,0,0
196,-202,0,0,0,0,0,0,0,0,0,-1,1420,1226,0,0
203,-202,0,0,0,0,0,0,0,0,0,-1,1427,1226,0,0
210,-202,0,0,0,0,0,0,0,0,0,-1,1434,1226,0,0
217,-202,0,0,0,0,0,0,0,0,0,-1,1441,1226,0,0
224,-202,0,0,0,0,0,0,0,0,0,-1,1448,1226,0,0
231,-202,0,0,0,0,0,0,0,0,0,-1,1455,1226,0,0
238,-202,0,0,0,0,0,0,0,0,0,-1,1462,1226,0,0
245,-202,0,0,0,0,0,0,0,0,0,-1,1469,1226,0,0
252,-202,0,0,0,0,0,0,0,0,0,-1,1476,1226,0,0
259,-202,0,0,0,0,0,0,0,0,0,-1,1483,1226,0,0
266,-202,0,0,0,0,0,0,0,0,0,-1,1490,1226,0,0
273,-202,0,0,0,0,0,0,0,0,0,-1,1497,1226,0,0
280,-202,0,0,0,0,0,0,0,0,0,-1,1504,1226,0,0
287,-202,0,0,0,0,0,0,0,0,0,-1,1511,1226,0,0
294,-202,0,0,0,0,0,0,0,0,0,-1,1518,1226,0,0
301,-202,0,0,0,0,0,0,0,0,0,-1,1525,1226,0,0
308,-202,0,0,0,0,0,0,0,0,0,-1,1532,1226,0,0
315,-202,0,0,0,0,0,0,0,0,0,-1,1539,1226,0,0
322,-202,0,0,0,0,0,0,0,0,0,-1,1546,1226,0,0
329,-202,0,0,0,0,0,0,0,0,0,-1,1553,1226,0,0
336,-202,0,0,0,0,0,0,0,0,0,-1,1560,1226,0,0
343,-202,0,0,0,0,0,0,0,0,0,-1,1567,1226,0,0
350,-202,0,0,0,0,0,0,0,0,0,-1,1574,1226,0,0
357,-202,0,0,0,0,0,0,0,0,0,-1,1581,1226,0,0
364,-202,0,0,0,0,0,0,0,0,0,-1,1588,1226,0,0
371,-202,0,0,0,0,0,0,0,0,0,-1,1595,1226,0,0
378,-202,0,0,0,0,0,0,0,0,0,-1,1602,1226,0,0
385,-202,0,0,0,0,0,0,0,0,0,-1,1609,1226,0,0
392,-202,0,0,0,0,0,0,0,0,0,-1,1616,1226,0,0
399,-202,0,0,0,0,0,0,0,0,0,-1,1623,1226,0,0
406,-202,0,0,0,0,0,0,0,0,0,-1,1630,1226,0,0
413,-202,0,0,0,0,0,0,0,0,0,-1,1637,1226,0,0
420,-202,0,0,0,0,0,0,0,0,0,-1,1644,1226,0,0
427,-202,0,0,0,0,0,0,0,0,0,-1,1651,1226,0,0
434,-202,0,0,0,0,0,0,0,0,0,-1,1658,1226,0,0
441,-202,0,0,0,0,0,0,0,0,0,-1,1665,1226,0,0
448,-202,0,0,0,0,0,0,0,0,0,-1,1672,1226,0,0
455,-202,0,0,0,0,0,0,0,0,0,-1,1679,1226,0,0
462,-202,0,0,0,0,0,0,0,0,0,-1,1686,1226,0,0
469,-202,0,0,0,0,0,0,0,0,0,-1,1693,1226,0,0
476,-202,0,0,0,0,0,0,0,0,0,-1,1700,1226,0,0
483,-202,0,0,0,0,0,0,0,0,0,-1,1707,1226,0,0
490,-202,0,0,0,0,0,0,0,0,0,-1,1714,1226,0,0
497,-202,0,0,0,0,0,0,0,0,0,-1,1721,1226,0,0
504,-202,0,0,0,0,0,0,0,0,0,-1,1728,1226,0,0
511,-202,0,0,0,0,0,0,0,0,0,-1,1735,1226,0,0
518,-202,0,0,0,0,0,0,0,0,0,-1,1742,1226,0,0
525,-202,0,0,0,0,0,0,0,0,0,-1,1749,1226,0,0
532,-202,0,0,0,0,0,0,0,0,0,-1,1756,1226,0,0
539,-202,0,0,0,0,0,0,0,0,0,-1,1763,1226,0,0
546,-202,0,0,0,0,0,0,0,0,0,-1,1770,1226,0,0
553,-202,0,0,0,0,0,0,0,0,0,-1,1777,1226,0,0
560,-202,0,0,0,0,0,0,0,0,0,-1,1784,1226,0,0
567,-202,0,0,0,0,0,0,0,0,0,-1,1791,1226,0,0
574,-202,0,0,0,0,0,0,0,0,0,-1,1798,1226,0,0
581,-202,0,0,0,0,0,0,0,0,0,-1,1805,1226,0,0
588,-202,0,0,0,0,0,0,0,0,0,-1,1812,1226,0,0
595,-202,0,0,0,0,0,0,0,0,0,-1,1819,1226,0,0
602,-202,0,0,0,0,0,0,0,0,0,-1,1826,1226,0,0
609,-202,0,0,0,0,0,0,0,0,0,-1,1833,1226,0,0
616,-202,0,0,0,0,0,0,0,0,0,-1,1840,1226,0,0
623,-202,0,0,0,0,0,0,0,0,0,-1,1847,1226,0,0
630,-202,15.6057,2.26819,-0.00304999,-0.00146084,-3.86521e-05,-0.0014599,-0.00305093,-1.54649,0.001762,0.0348068,1854,1226,15.6057,-2.26813
637,-202,15.7279,2.37524,-0.00292255,0.00245796,0.000762734,0.00256399,-0.00302859,1.43266,0.00323259,0.0350259,1861,1226,15.7279,-2.37525
644,-202,15.7815,2.33289,-0.00312291,0.00490017,0.00163866,0.00522195,-0.00344469,1.3769,0.00503863,0.0338922,1868,1226,15.7815,-2.33287
651,-202,15.7181,2.27185,-0.00384679,0.00557195,0.00247795,0.00618409,-0.00445892,1.32861,0.00617159,0.0284904,1875,1226,15.7181,-2.27185
658,-202,15.6436,2.28027,-0.00444345,0.00522181,0.00305348,0.00610565,-0.00532729,1.28904,0.00660591,0.0233271,1882,1226,15.6436,-2.28024
665,-202,15.629,2.31299,-0.00486605,0.00437654,0.00335346,0.00546507,-0.00595458,1.25693,0.00659516,0.02121,1889,1226,15.629,-2.31295
672,-202,15.6967,2.27808,-0.00521028,0.00334178,0.00346184,0.00456745,-0.00643595,1.23052,0.00638328,0.0441401,1896,1226,15.6967,-2.27806
679,-202,15.7711,2.25208,0,0,0,0,0,0,0,-1,1903,1226,15.7712,-2.25212
686,-202,14.8163,3.82886,0,0,0,0,0,0,0,-1,1910,1226,14.8163,-3.82887
693,-202,14.3879,3.80334,-0.00544143,0.000801926,0.00337467,0.00227734,-0.00691685,1.15864,0.00552896,0.0467823,1917,1226,14.3879,-3.80339
700,-202,13.9141,3.79871,-0.00523681,5.79105e-05,0.00315971,0.00153272,-0.00671162,1.1341,0.00506325,0.0195024,1924,1226,13.9141,-3.79867
707,-202,13.913,3.71619,-0.00486136,-0.000815659,0.00274754,0.000573362,-0.00625039,1.10272,0.0043706,0.0179807,1931,1226,13.913,-3.71613
714,-202,13.948,3.62256,-0.00446587,-0.00146737,0.00217748,-0.000322915,-0.00561032,1.08689,0.00363736,0.014444,1938,1226,13.948,-3.62261
721,-202,13.9635,3.50208,-0.00395836,-0.00112451,0.00167682,-0.000346119,-0.00473675,1.13619,0.00304902,0.0117361,1945,1226,13.9635,-3.50212
728,-202,13.949,3.39624,-0.0027847,-0.000714817,0.000894038,-0.00038213,-0.00311739,1.21456,0.00196332,0.0102609,1952,1226,13.949,-3.39619
735,-202,13.949,3.28137,-0.00121905,-0.000323668,-0.000307762,-0.000228086,-0.00131463,-1.26967,0.00081115,0.0105655,1959,1226,13.949,-3.28136
742,-202,13.9541,3.18384,0.000423725,-0.000189314,-0.00176482,0.00190845,-0.00167403,-0.699414,0.00206982,0.0097735,1966,1226,13.9541,-3.18383
749,-202,13.9473,3.09326,0.0022056,-7.90645e-05,-0.0034373,0.00468542,-0.00255888,-0.624973,0.00424214,0.00906946,1973,1226,13.9473,-3.09322
756,-202,13.9462,2.99878,0.00403122,-0.000341201,-0.00540741,0.00767764,-0.00398763,-0.593295,0.00684634,0.010136,1980,1226,13.9461,-2.99881
763,-202,13.9474,2.90332,0.00614579,-0.000983694,-0.00788841,0.0112375,-0.00607542,-0.573183,0.0101426,0.0150314,1987,1226,13.9474,-2.9033
770,-202,13.9672,2.69421,0.00881921,-0.00210737,-0.0111538,0.0157759,-0.00906405,-0.557666,0.0145148,0.0384271,1994,1226,13.9671,-2.6942
777,-202,13.999,2.46313,0,0,0,0,0,0,0,-1,2001,1226,13.9991,-2.46318
784,-202,14.0081,1.09705,0,0,0,0,0,0,0,-1,2008,1226,14.008,-1.09705
791,-202,14.1949,0.961182,0,0,0,0,0,0,0,-1,2015,1226,14.195,-0.961127
798,-202,14.9139,1.25854,0,0,0,0,0,0,0,-1,2022,1226,14.9139,-1.2585
805,-202,0,0,0,0,0,0,0,0,0,-1,2029,1226,0,0
812,-202,0,0,0,0,0,0,0,0,0,-1,2036,1226,0,0
-700,-209,0,0,0,0,0,0,0,0,0,-1,524,1233,0,0
-693,-209,0,0,0,0,0,0,0,0,0,-1,531,1233,0,0
-686,-209,0,0,0,0,0,0,0,0,0,-1,538,1233,0,0
-679,-209,-8.37909,0.495972,0,0,0,0,0,0,0,-1,545,1233,-8.3791,-0.495969
-672,-209,-8.03143,0.152466,0.0633726,0.0402748,-0.0651937,0.118032,-0.014385,-0.697734,0.0838953,0.0466632,552,1233,-8.03141,-0.152522
-665,-209,-7.46271,0.61145,0.0428173,0.0231671,-0.047037,0.0810444,-0.01506,-0.682438,0.0596863,0.0420156,559,1233,-7.46269,-0.611497
-658,-209,-7.18353,0.617188,0.0281387,0.011953,-0.0333539,0.0543676,-0.0142758,-0.666381,0.0418238,0.0436134,566,1233,-7.18355,-0.617194
-651,-209,-7.10712,0.109375,0,0,0,0,0,0,0,-1,573,1233,-7.1071,-0.109405
-644,-209,-7.16333,0.250732,0.0102857,0.000304772,-0.0153798,0.0214644,-0.0108739,-0.628516,0.0190014,0.0456819,580,1233,-7.16336,-0.250774
-637,-209,-7.32184,0.483154,0.00531438,-0.00211541,-0.00987408,0.0121493,-0.0089503,-0.605475,0.0122284,0.0371259,587,1233,-7.32185,-0.483148
-630,-209,-7.44189,0.721924,0.00209384,-0.00317157,-0.0061055,0.00611007,-0.00718779,-0.581842,0.00768593,0.019359,594,1233,-7.4419,-0.721921
-623,-209,-7.49237,0.894287,0.000205882,-0.00342592,-0.00382766,0.00262655,-0.00584658,-0.563913,0.00500833,0.0103096,601,1233,-7.49234,-0.894268
-616,-209,-7.50928,1.02368,-0.00170048,-0.00497031,-0.00141113,-0.00117571,-0.00549508,-0.35603,0.00334116,0.0113282,608,1233,-7.50929,-1.02374
-609,-209,-7.51447,1.14539,-0.00240835,-0.00366764,-0.00057287,-0.00218674,-0.00388925,-0.369109,0.00225125,0.0132749,615,1233,-7.51449,-1.14536
-602,-209,-7.52051,1.27783,-0.0017032,-0.00220172,-0.00112649,-0.000798728,-0.0031062,-0.676516,0.00186255,0.0153712,622,1233,-7.52052,-1.27779
-595,-209,-7.50519,1.39722,-0.000341272,-0.00157566,-0.00179403,0.000938765,-0.0028557,-0.619726,0.00228202,0.0123542,629,1233,-7.50517,-1.39725
-588,-209,-7.48804,1.50134,0.000513887,-0.00108474,-0.00248802,0.00232784,-0.00289869,-0.629973,0.00302353,0.0137875,636,1233,-7.48803,-1.50131
-581,-209,-7.47211,1.62366,0.00118393,-0.000601123,-0.00305598,0.00347506,-0.00289225,-0.64332,0.00368129,0.0121191,643,1233,-7.47214,-1.6237
-574,-209,-7.54382,1.71228,0.00152874,-0.000634486,-0.00296195,0.00360039,-0.00270613,-0.610336,0.00365325,0.0133782,650,1233,-7.54383,-1.71232
-567,-209,-7.63568,1.88257,0.00163159,-0.00106159,-0.0026081,0.00322022,-0.00265022,-0.547093,0.00339462,0.0285114,657,1233,-7.63568,-1.88259
-560,-209,-7.72864,2.14819,0,0,0,0,0,0,0,-1,664,1233,-7.72867,-2.14821
-553,-209,-9.5152,0.449707,0,0,0,0,0,0,0,-1,671,1233,-9.51519,-0.44968
-546,-209,-9.43005,0.445923,0.000491017,-0.00150708,-0.00137681,0.00119305,-0.00220912,-0.471539,0.00199323,0.0444874,678,1233,-9.43003,-0.445968
-539,-209,-9.34589,0.449951,-0.000288864,-0.00167301,-0.000696741,1.10851e-06,-0.00196298,-0.39438,0.00130902,0.0382815,685,1233,-9.34586,-0.44993
-532,-209,-9.29358,0.476929,-0.0013164,-0.00181032,0.000149678,-0.00127459,-0.00185214,0.272443,0.00109428,0.0293559,692,1233,-9.29359,-0.476872
-525,-209,-9.38226,0.594482,-0.0026367,-0.00179997,0.00122171,-0.000926982,-0.00350969,0.950362,0.00210014,0.0329155,699,1233,-9.38228,-0.59443
-518,-209,-9.34015,0.702271,-0.004366,-0.00153482,0.00248089,-9.40715e-05,-0.00580675,1.04466,0.00384019,0.043513,706,1233,-9.34017,-0.702326
-511,-209,-9.37476,0.641968,-0.00603788,-0.00076568,0.00364394,0.0010957,-0.00789926,1.09853,0.00566683,0.0439339,713,1233,-9.37474,-0.641933
-504,-209,0,0,0,0,0,0,0,0,0,-1,720,1233,0,0
-497,-209,0,0,0,0,0,0,0,0,0,-1,727,1233,0,0
-490,-209,0,0,0,0,0,0,0,0,0,-1,734,1233,0,0
-483,-209,0,0,0,0,0,0,0,0,0,-1,741,1233,0,0
-476,-209,0,0,0,0,0,0,0,0,0,-1,748,1233,0,0
-469,-209,0,0,0,0,0,0,0,0,0,-1,755,1233,0,0
-462,-209,0,0,0,0,0,0,0,0,0,-1,762,1233,0,0
-455,-209,0,0,0,0,0,0,0,0,0,-1,769,1233,0,0
-448,-209,0,0,0,0,0,0,0,0,0,-1,776,1233,0,0
-441,-209,0,0,0,0,0,0,0,0,0,-1,783,1233,0,0
-434,-209,0,0,0,0,0,0,0,0,0,-1,790,1233,0,0
-427,-209,0,0,0,0,0,0,0,0,0,-1,797,1233,0,0
-420,-209,0,0,0,0,0,0,0,0,0,-1,804,1233,0,0
-413,-209,0,0,0,0,0,0,0,0,0,-1,811,1233,0,0
-406,-209,0,0,0,0,0,0,0,0,0,-1,818,1233,0,0
-399,-209,0,0,0,0,0,0,0,0,0,-1,825,1233,0,0
-392,-209,0,0,0,0,0,0,0,0,0,-1,832,1233,0,0
-385,-209,0,0,0,0,0,0,0,0,0,-1,839,1233,0,0
-378,-209,0,0,0,0,0,0,0,0,0,-1,846,1233,0,0
-371,-209,0,0,0,0,0,0,0,0,0,-1,853,1233,0,0
-364,-209,0,0,0,0,0,0,0,0,0,-1,860,1233,0,0
-357,-209,0,0,0,0,0,0,0,0,0,-1,867,1233,0,0
-350,-209,0,0,0,0,0,0,0,0,0,-1,874,1233,0,0
-343,-209,0,0,0,0,0,0,0,0,0,-1,881,1233,0,0
-336,-209,0,0,0,0,0,0,0,0,0,-1,888,1233,0,0
-329,-209,0,0,0,0,0,0,0,0,0,-1,895,1233,0,0
-322,-209,0,0,0,0,0,0,0,0,0,-1,902,1233,0,0
-315,-209,0,0,0,0,0,0,0,0,0,-1,909,1233,0,0
-308,-209,0,0,0,0,0,0,0,0,0,-1,916,1233,0,0
-301,-209,0,0,0,0,0,0,0,0,0,-1,923,1233,0,0
-294,-209,0,0,0,0,0,0,0,0,0,-1,930,1233,0,0
-287,-209,0,0,0,0,0,0,0,0,0,-1,937,1233,0,0
-280,-209,0,0,0,0,0,0,0,0,0,-1,944,1233,0,0
-273,-209,0,0,0,0,0,0,0,0,0,-1,951,1233,0,0
-266,-209,0,0,0,0,0,0,0,0,0,-1,958,1233,0,0
-259,-209,0,0,0,0,0,0,0,0,0,-1,965,1233,0,0
-252,-209,0,0,0,0,0,0,0,0,0,-1,972,1233,0,0
-245,-209,0,0,0,0,0,0,0,0,0,-1,979,1233,0,0
-238,-209,0,0,0,0,0,0,0,0,0,-1,986,1233,0,0
-231,-209,0,0,0,0,0,0,0,0,0,-1,993,1233,0,0
-224,-209,0,0,0,0,0,0,0,0,0,-1,1000,1233,0,0
-217,-209,0,0,0,0,0,0,0,0,0,-1,1007,1233,0,0
-210,-209,0,0,0,0,0,0,0,0,0,-1,1014,1233,0,0
-203,-209,0,0,0,0,0,0,0,0,0,-1,1021,1233,0,0
-196,-209,0,0,0,0,0,0,0,0,0,-1,1028,1233,0,0
-189,-209,0,0,0,0,0,0,0,0,0,-1,1035,1233,0,0
-182,-209,0,0,0,0,0,0,0,0,0,-1,1042,1233,0,0
-175,-209,0,0,0,0,0,0,0,0,0,-1,1049,1233,0,0
-168,-209,0,0,0,0,0,0,0,0,0,-1,1056,1233,0,0
-161,-209,0,0,0,0,0,0,0,0,0,-1,1063,1233,0,0
-154,-209,0,0,0,0,0,0,0,0,0,-1,1070,1233,0,0
-147,-209,0,0,0,0,0,0,0,0,0,-1,1077,1233,0,0
-140,-209,0,0,0,0,0,0,0,0,0,-1,1084,1233,0,0
-133,-209,0,0,0,0,0,0,0,0,0,-1,1091,1233,0,0
-126,-209,0,0,0,0,0,0,0,0,0,-1,1098,1233,0,0
-119,-209,0,0,0,0,0,0,0,0,0,-1,1105,1233,0,0
-112,-209,0,0,0,0,0,0,0,0,0,-1,1112,1233,0,0
-105,-209,0,0,0,0,0,0,0,0,0,-1,1119,1233,0,0
-98,-209,0,0,0,0,0,0,0,0,0,-1,1126,1233,0,0
-91,-209,0,0,0,0,0,0,0,0,0,-1,1133,1233,0,0
-84,-209,0,0,0,0,0,0,0,0,0,-1,1140,1233,0,0
-77,-209,0,0,0,0,0,0,0,0,0,-1,1147,1233,0,0
-70,-209,0,0,0,0,0,0,0,0,0,-1,1154,1233,0,0
-63,-209,0,0,0,0,0,0,0,0,0,-1,1161,1233,0,0
-56,-209,0,0,0,0,0,0,0,0,0,-1,1168,1233,0,0
-49,-209,0,0,0,0,0,0,0,0,0,-1,1175,1233,0,0
-42,-209,0,0,0,0,0,0,0,0,0,-1,1182,1233,0,0
-35,-209,0,0,0,0,0,0,0,0,0,-1,1189,1233,0,0
-28,-209,0,0,0,0,0,0,0,0,0,-1,1196,1233,0,0
-21,-209,0,0,0,0,0,0,0,0,0,-1,1203,1233,0,0
-14,-209,0,0,0,0,0,0,0,0,0,-1,1210,1233,0,0
-7,-209,0,0,0,0,0,0,0,0,0,-1,1217,1233,0,0
0,-209,0,0,0,0,0,0,0,0,0,-1,1224,1233,0,0
7,-209,0,0,0,0,0,0,0,0,0,-1,1231,1233,0,0
14,-209,0,0,0,0,0,0,0,0,0,-1,1238,1233,0,0
21,-209,0,0,0,0,0,0,0,0,0,-1,1245,1233,0,0
28,-209,0,0,0,0,0,0,0,0,0,-1,1252,1233,0,0
35,-209,0,0,0,0,0,0,0,0,0,-1,1259,1233,0,0
42,-209,0,0,0,0,0,0,0,0,0,-1,1266,1233,0,0
49,-209,0,0,0,0,0,0,0,0,0,-1,1273,1233,0,0
56,-209,0,0,0,0,0,0,0,0,0,-1,1280,1233,0,0
63,-209,0,0,0,0,0,0,0,0,0,-1,1287,1233,0,0
70,-209,0,0,0,0,0,0,0,0,0,-1,1294,1233,0,0
77,-209,0,0,0,0,0,0,0,0,0,-1,1301,1233,0,0
84,-209,0,0,0,0,0,0,0,0,0,-1,1308,1233,0,0
91,-209,0,0,0,0,0,0,0,0,0,-1,1315,1233,0,0
98,-209,0,0,0,0,0,0,0,0,0,-1,1322,1233,0,0
105,-209,0,0,0,0,0,0,0,0,0,-1,1329,1233,0,0
112,-209,0,0,0,0,0,0,0,0,0,-1,1336,1233,0,0
119,-209,0,0,0,0,0,0,0,0,0,-1,1343,1233,0,0
126,-209,0,0,0,0,0,0,0,0,0,-1,1350,1233,0,0
133,-209,0,0,0,0,0,0,0,0,0,-1,1357,1233,0,0
140,-209,0,0,0,0,0,0,0,0,0,-1,1364,1233,0,0
147,-209,0,0,0,0,0,0,0,0,0,-1,1371,1233,0,0
154,-209,0,0,0,0,0,0,0,0,0,-1,1378,1233,0,0
161,-209,0,0,0,0,0,0,0,0,0,-1,1385,1233,0,0
168,-209,0,0,0,0,0,0,0,0,0,-1,1392,1233,0,0
175,-209,0,0,0,0,0,0,0,0,0,-1,1399,1233,0,0
182,-209,0,0,0,0,0,0,0,0,0,-1,1406,1233,0,0
189,-209,0,0,0,0,0,0,0,0,0,-1,1413,1233,0,0
196,-209,0,0,0,0,0,0,0,0,0,-1,1420,1233,0,0
203,-209,0,0,0,0,0,0,0,0,0,-1,1427,1233,0,0
210,-209,0,0,0,0,0,0,0,0,0,-1,1434,1233,0,0
217,-209,0,0,0,0,0,0,0,0,0,-1,1441,1233,0,0
224,-209,0,0,0,0,0,0,0,0,0,-1,1448,1233,0,0
231,-209,0,0,0,0,0,0,0,0,0,-1,1455,1233,0,0
238,-209,0,0,0,0,0,0,0,0,0,-1,1462,1233,0,0
245,-209,0,0,0,0,0,0,0,0,0,-1,1469,1233,0,0
252,-209,0,0,0,0,0,0,0,0,0,-1,1476,1233,0,0
259,-209,0,0,0,0,0,0,0,0,0,-1,1483,1233,0,0
266,-209,0,0,0,0,0,0,0,0,0,-1,1490,1233,0,0
273,-209,0,0,0,0,0,0,0,0,0,-1,1497,1233,0,0
280,-209,0,0,0,0,0,0,0,0,0,-1,1504,1233,0,0
287,-209,0,0,0,0,0,0,0,0,0,-1,1511,1233,0,0
294,-209,0,0,0,0,0,0,0,0,0,-1,1518,1233,0,0
301,-209,0,0,0,0,0,0,0,0,0,-1,1525,1233,0,0
308,-209,0,0,0,0,0,0,0,0,0,-1,1532,1233,0,0
315,-209,0,0,0,0,0,0,0,0,0,-1,1539,1233,0,0
322,-209,0,0,0,0,0,0,0,0,0,-1,1546,1233,0,0
329,-209,0,0,0,0,0,0,0,0,0,-1,1553,1233,0,0
336,-209,0,0,0,0,0,0,0,0,0,-1,1560,1233,0,0
343,-209,0,0,0,0,0,0,0,0,0,-1,1567,1233,0,0
350,-209,0,0,0,0,0,0,0,0,0,-1,1574,1233,0,0
357,-209,0,0,0,0,0,0,0,0,0,-1,1581,1233,0,0
364,-209,0,0,0,0,0,0,0,0,0,-1,1588,1233,0,0
371,-209,0,0,0,0,0,0,0,0,0,-1,1595,1233,0,0
378,-209,0,0,0,0,0,0,0,0,0,-1,1602,1233,0,0
385,-209,0,0,0,0,0,0,0,0,0,-1,1609,1233,0,0
392,-209,0,0,0,0,0,0,0,0,0,-1,1616,1233,0,0
399,-209,0,0,0,0,0,0,0,0,0,-1,1623,1233,0,0
406,-209,0,0,0,0,0,0,0,0,0,-1,1630,1233,0,0
413,-209,0,0,0,0,0,0,0,0,0,-1,1637,1233,0,0
420,-209,0,0,0,0,0,0,0,0,0,-1,1644,1233,0,0
427,-209,0,0,0,0,0,0,0,0,0,-1,1651,1233,0,0
434,-209,0,0,0,0,0,0,0,0,0,-1,1658,1233,0,0
441,-209,0,0,0,0,0,0,0,0,0,-1,1665,1233,0,0
448,-209,0,0,0,0,0,0,0,0,0,-1,1672,1233,0,0
455,-209,0,0,0,0,0,0,0,0,0,-1,1679,1233,0,0
462,-209,0,0,0,0,0,0,0,0,0,-1,1686,1233,0,0
469,-209,0,0,0,0,0,0,0,0,0,-1,1693,1233,0,0
476,-209,0,0,0,0,0,0,0,0,0,-1,1700,1233,0,0
483,-209,0,0,0,0,0,0,0,0,0,-1,1707,1233,0,0
490,-209,0,0,0,0,0,0,0,0,0,-1,1714,1233,0,0
497,-209,0,0,0,0,0,0,0,0,0,-1,1721,1233,0,0
504,-209,0,0,0,0,0,0,0,0,0,-1,1728,1233,0,0
511,-209,0,0,0,0,0,0,0,0,0,-1,1735,1233,0,0
518,-209,0,0,0,0,0,0,0,0,0,-1,1742,1233,0,0
525,-209,0,0,0,0,0,0,0,0,0,-1,1749,1233,0,0
532,-209,0,0,0,0,0,0,0,0,0,-1,1756,1233,0,0
539,-209,0,0,0,0,0,0,0,0,0,-1,1763,1233,0,0
546,-209,0,0,0,0,0,0,0,0,0,-1,1770,1233,0,0
553,-209,0,0,0,0,0,0,0,0,0,-1,1777,1233,0,0
560,-209,0,0,0,0,0,0,0,0,0,-1,1784,1233,0,0
567,-209,0,0,0,0,0,0,0,0,0,-1,1791,1233,0,0
574,-209,0,0,0,0,0,0,0,0,0,-1,1798,1233,0,0
581,-209,0,0,0,0,0,0,0,0,0,-1,1805,1233,0,0
588,-209,0,0,0,0,0,0,0,0,0,-1,1812,1233,0,0
595,-209,0,0,0,0,0,0,0,0,0,-1,1819,1233,0,0
602,-209,0,0,0,0,0,0,0,0,0,-1,1826,1233,0,0
609,-209,0,0,0,0,0,0,0,0,0,-1,1833,1233,0,0
616,-209,0,0,0,0,0,0,0,0,0,-1,1840,1233,0,0
623,-209,15.5106,2.28687,-0.00273757,-0.00714967,-0.00060313,-0.00265661,-0.00723063,-0.133438,0.00422325,0.0343819,1847,1233,15.5106,-2.28681
630,-209,15.5874,2.31213,-0.00283072,-5.03584e-05,-8.37803e-05,-4.7836e-05,-0.00283324,-1.5407,0.00187309,0.0373106,1854,1233,15.5874,-2.31215
637,-209,15.6577,2.30762,-0.00325,0.0046962,0.000968922,0.00481264,-0.00336644,1.4512,0.00474674,0.0364797,1861,1233,15.6577,-2.30765
644,-209,15.683,2.29199,-0.00400321,0.00732711,0.00209833,0.00770323,-0.00437933,1.39343,0.00706331,0.0308956,1868,1233,15.683,-2.29203
651,-209,15.6776,2.31091,-0.00492991,0.00796776,0.00305484,0.00865471,-0.00561687,1.3496,0.00830169,0.0271111,1875,1233,15.6776,-2.31093
658,-209,15.6393,2.33948,-0.00549786,0.00749007,0.00364085,0.00844106,-0.00644885,1.3153,0.0086223,0.0230314,1882,1233,15.6393,-2.33951
665,-209,15.6859,2.30554,-0.00581034,0.00644856,0.00392572,0.00759795,-0.00695973,1.28597,0.00840757,0.0364174,1889,1233,15.686,-2.30551
672,-209,15.7019,2.22156,0,0,0,0,0,0,0,-1,1896,1233,15.7019,-2.22159
679,-209,14.427,4.23633,0,0,0,0,0,0,0,-1,1903,1233,14.427,-4.23636
686,-209,14.365,4.20935,0,0,0,0,0,0,0,-1,1910,1233,14.365,-4.20936
693,-209,14.0892,3.96741,-0.0058105,0.00187454,0.00377167,0.00341629,-0.00735225,1.18275,0.00635415,0.0440372,1917,1233,14.0893,-3.96745
700,-209,13.826,3.8501,-0.00546491,0.000838496,0.00347291,0.0023766,-0.00700302,1.15387,0.00563063,0.0174504,1924,1233,13.8261,-3.85006
707,-209,13.8318,3.72034,-0.00489488,-0.000362242,0.00290152,0.00105315,-0.00631027,1.11695,0.00459828,0.0151877,1931,1233,13.8318,-3.7203
714,-209,13.8422,3.60571,-0.00429708,-0.00130205,0.00217295,-0.000160577,-0.00543855,1.08711,0.00357338,0.0118011,1938,1233,13.8422,-3.60571
721,-209,13.8527,3.49512,-0.00368745,-0.000993062,0.00159651,-0.000251294,-0.00442922,1.13585,0.00287272,0.012615,1945,1233,13.8527,-3.49506
728,-209,13.8754,3.39319,-0.00249752,-0.000582727,0.000752115,-0.000322632,-0.00275762,1.23785,0.00174086,0.0126691,1952,1233,13.8754,-3.39314
735,-209,13.8759,3.29089,-0.0008929,-0.000159974,-0.000535597,0.000122531,-0.0011754,-1.08542,0.000827476,0.0130099,1959,1233,13.8759,-3.29093
742,-209,13.8633,3.19287,0.00067855,-6.11823e-05,-0.0019978,0.00234044,-0.00172307,-0.693866,0.00235507,0.0110067,1966,1233,13.8633,-3.19283
749,-209,13.8506,3.09644,0.00237308,1.14089e-05,-0.00364991,0.00502842,-0.00264393,-0.62895,0.00450037,0.00877334,1973,1233,13.8506,-3.09642
756,-209,13.8378,3.00293,0.00416538,-0.000270858,-0.00562723,0.00799588,-0.00410135,-0.59766,0.00710396,0.00947243,1980,1233,13.8377,-3.00287
763,-209,13.8163,2.89307,0.00636138,-0.000933929,-0.00815511,0.0116474,-0.00621999,-0.575101,0.0104732,0.0180267,1987,1233,13.8163,-2.89301
770,-209,13.7516,2.51172,0.00924041,-0.00209225,-0.0114894,0.0163847,-0.00923659,-0.55631,0.0149832,0.0445965,1994,1233,13.7516,-2.51175
777,-209,13.7506,1.99182,0.0127923,-0.00394074,-0.0157862,0.022292,-0.0134405,-0.541723,0.0208401,0.0485124,2001,1233,13.7507,-1.9918
784,-209,13.7988,1.58276,0.0170334,-0.00668538,-0.0212251,0.0294876,-0.0191395,-0.530632,0.028286,0.0445846,2008,1233,13.7988,-1.58277
791,-209,13.8699,1.25354,0.0220032,-0.0106143,-0.0280245,0.038119,-0.02673,-0.521879,0.0376326,0.0415779,2015,1233,13.8699,-1.25354
798,-209,14.0892,1.20044,0,0,0,0,0,0,0,-1,2022,1233,14.0892,-1.20045
805,-209,0,0,0,0,0,0,0,0,0,-1,2029,1233,0,0
812,-209,0,0,0,0,0,0,0,0,0,-1,2036,1233,0,0
-700,-216,0,0,0,0,0,0,0,0,0,-1,524,1240,0,0
-693,-216,0,0,0,0,0,0,0,0,0,-1,531,1240,0,0
-686,-216,0,0,0,0,0,0,0,0,0,-1,538,1240,0,0
-679,-216,-11.6165,-0.866943,0,0,0,0,0,0,0,-1,545,1240,-11.6165,0.866884
-672,-216,-7.24359,0.10791,0,0,0,0,0,0,0,-1,552,1240,-7.24358,-0.10797
-665,-216,-6.82867,0.719482,0.0351182,0.021661,-0.0498195,0.0786614,-0.0218822,-0.718275,0.0610564,0.0460459,559,1240,-6.82868,-0.719496
-658,-216,-6.77686,1.09448,0.0227293,0.00963892,-0.0351452,0.0519335,-0.0195653,-0.693336,0.0426666,0.0441755,566,1240,-6.77687,-1.09454
-651,-216,-7.03571,1.11279,0,0,0,0,0,0,0,-1,573,1240,-7.03569,-1.11281
-644,-216,-7.34479,-0.0496826,0.00771299,-0.00227884,-0.0160812,0.0195564,-0.0141223,-0.634791,0.0195286,0.0444484,580,1240,-7.3448,0.0497138
-637,-216,-7.43079,0.385498,0.00356178,-0.00446175,-0.0103009,0.0106046,-0.0115045,-0.599706,0.0127682,0.0389461,587,1240,-7.43081,-0.38551
-630,-216,-7.37646,0.73584,0.000928482,-0.00516107,-0.00635653,0.00493184,-0.00916443,-0.562045,0.00825987,0.0252221,594,1240,-7.37644,-0.735785
-623,-216,-7.36426,0.893799,-0.000520828,-0.00498242,-0.00391311,0.0017527,-0.00725594,-0.526333,0.00551516,0.0119616,601,1240,-7.36425,-0.893779
-616,-216,-7.38629,1.03162,-0.00207074,-0.0064123,-0.00114473,-0.0017874,-0.00669564,-0.242639,0.00400325,0.0129373,608,1240,-7.3863,-1.03161
-609,-216,-7.37946,1.1488,-0.0024359,-0.00469689,-0.000154846,-0.00242535,-0.00470745,-0.0680623,0.00271827,0.0131714,615,1240,-7.37943,-1.14883
-602,-216,-7.354,1.25745,-0.00147467,-0.002727,-0.00064204,-0.00120401,-0.00299766,-0.398958,0.00174182,0.012806,622,1240,-7.35399,-1.2575
-595,-216,-7.3421,1.36572,0.000104616,-0.00186366,-0.00122694,0.000693346,-0.00245239,-0.447386,0.00190849,0.0184136,629,1240,-7.34208,-1.36571
-588,-216,-7.34467,1.48975,0.00114617,-0.00113168,-0.00186705,0.00219426,-0.00217976,-0.511523,0.00252535,0.0203996,636,1240,-7.3447,-1.48972
-581,-216,-7.34613,1.62915,0.00193601,-0.000583533,-0.00233975,0.00333358,-0.00198111,-0.538444,0.00310138,0.0163055,643,1240,-7.34615,-1.62913
-574,-216,-7.36969,1.79395,0.00226653,-0.000718798,-0.00216928,0.00340708,-0.00185935,-0.484054,0.00308403,0.013822,650,1240,-7.36968,-1.79398
-567,-216,-7.39325,1.95593,0.00228451,-0.00134352,-0.00181664,0.00303776,-0.00209676,-0.393061,0.00298097,0.0230712,657,1240,-7.39324,-1.95599
-560,-216,-7.36072,2.3042,0.00198904,-0.00152122,-0.0016044,0.00261185,-0.00214402,-0.370281,0.00275023,0.0442497,664,1240,-7.36074,-2.30415
-553,-216,-7.39282,2.61572,0,0,0,0,0,0,0,-1,671,1240,-7.3928,-2.61571
-546,-216,-9.41516,0.272217,0,0,0,0,0,0,0,-1,678,1240,-9.41514,-0.272235
-539,-216,-9.32288,0.327881,7.50196e-05,-0.0022928,-0.000809423,0.000325268,-0.00254305,-0.299847,0.00181354,0.0403252,685,1240,-9.32289,-0.327922
-532,-216,-9.24811,0.43335,-0.00107175,-0.00249785,-0.000388991,-0.000972551,-0.00259705,-0.249703,0.00151508,0.0388587,692,1240,-9.24812,-0.43332
-525,-216,-9.34827,0.563721,-0.00250929,-0.0024966,0.000155884,-0.00234693,-0.00265896,0.80573,0.00167833,0.0386683,699,1240,-9.34827,-0.563773
-518,-216,-9.10864,0.295166,0,0,0,0,0,0,0,-1,706,1240,-9.10866,-0.295144
-511,-216,-9.12158,0.275513,-0.00626096,-0.00102218,0.00162363,-0.000559787,-0.00672335,1.29335,0.00430778,0.0446543,713,1240,-9.12158,-0.275479
-504,-216,-9.11914,0.405518,-0.0078624,0.00201305,0.00331517,0.00302272,-0.00887207,1.27516,0.00713888,0.041945,720,1240,-9.11914,-0.405566
-497,-216,0,0,0,0,0,0,0,0,0,-1,727,1240,0,0
-490,-216,0,0,0,0,0,0,0,0,0,-1,734,1240,0,0
-483,-216,0,0,0,0,0,0,0,0,0,-1,741,1240,0,0
-476,-216,0,0,0,0,0,0,0,0,0,-1,748,1240,0,0
-469,-216,0,0,0,0,0,0,0,0,0,-1,755,1240,0,0
-462,-216,0,0,0,0,0,0,0,0,0,-1,762,1240,0,0
-455,-216,0,0,0,0,0,0,0,0,0,-1,769,1240,0,0
-448,-216,0,0,0,0,0,0,0,0,0,-1,776,1240,0,0
-441,-216,0,0,0,0,0,0,0,0,0,-1,783,1240,0,0
-434,-216,0,0,0,0,0,0,0,0,0,-1,790,1240,0,0
-427,-216,0,0,0,0,0,0,0,0,0,-1,797,1240,0,0
-420,-216,0,0,0,0,0,0,0,0,0,-1,804,1240,0,0
-413,-216,0,0,0,0,0,0,0,0,0,-1,811,1240,0,0
-406,-216,0,0,0,0,0,0,0,0,0,-1,818,1240,0,0
-399,-216,0,0,0,0,0,0,0,0,0,-1,825,1240,0,0
-392,-216,0,0,0,0,0,0,0,0,0,-1,832,1240,0,0
-385,-216,0,0,0,0,0,0,0,0,0,-1,839,1240,0,0
-378,-216,0,0,0,0,0,0,0,0,0,-1,846,1240,0,0
-371,-216,0,0,0,0,0,0,0,0,0,-1,853,1240,0,0
-364,-216,0,0,0,0,0,0,0,0,0,-1,860,1240,0,0
-357,-216,0,0,0,0,0,0,0,0,0,-1,867,1240,0,0
-350,-216,0,0,0,0,0,0,0,0,0,-1,874,1240,0,0
-343,-216,0,0,0,0,0,0,0,0,0,-1,881,1240,0,0
-336,-216,0,0,0,0,0,0,0,0,0,-1,888,1240,0,0
-329,-216,0,0,0,0,0,0,0,0,0,-1,895,1240,0,0
-322,-216,0,0,0,0,0,0,0,0,0,-1,902,1240,0,0
-315,-216,0,0,0,0,0,0,0,0,0,-1,909,1240,0,0
-308,-216,0,0,0,0,0,0,0,0,0,-1,916,1240,0,0
-301,-216,0,0,0,0,0,0,0,0,0,-1,923,1240,0,0
-294,-216,0,0,0,0,0,0,0,0,0,-1,930,1240,0,0
-287,-216,0,0,0,0,0,0,0,0,0,-1,937,1240,0,0
-280,-216,0,0,0,0,0,0,0,0,0,-1,944,1240,0,0
-273,-216,0,0,0,0,0,0,0,0,0,-1,951,1240,0,0
-266,-216,0,0,0,0,0,0,0,0,0,-1,958,1240,0,0
-259,-216,0,0,0,0,0,0,0,0,0,-1,965,1240,0,0
-252,-216,0,0,0,0,0,0,0,0,0,-1,972,1240,0,0
-245,-216,0,0,0,0,0,0,0,0,0,-1,979,1240,0,0
-238,-216,0,0,0,0,0,0,0,0,0,-1,986,1240,0,0
-231,-216,0,0,0,0,0,0,0,0,0,-1,993,1240,0,0
-224,-216,0,0,0,0,0,0,0,0,0,-1,1000,1240,0,0
-217,-216,0,0,0,0,0,0,0,0,0,-1,1007,1240,0,0
-210,-216,0,0,0,0,0,0,0,0,0,-1,1014,1240,0,0
-203,-216,0,0,0,0,0,0,0,0,0,-1,1021,1240,0,0
-196,-216,0,0,0,0,0,0,0,0,0,-1,1028,1240,0,0
-189,-216,0,0,0,0,0,0,0,0,0,-1,1035,1240,0,0
-182,-216,0,0,0,0,0,0,0,0,0,-1,1042,1240,0,0
-175,-216,0,0,0,0,0,0,0,0,0,-1,1049,1240,0,0
-168,-216,0,0,0,0,0,0,0,0,0,-1,1056,1240,0,0
-161,-216,0,0,0,0,0,0,0,0,0,-1,1063,1240,0,0
-154,-216,0,0,0,0,0,0,0,0,0,-1,1070,1240,0,0
-147,-216,0,0,0,0,0,0,0,0,0,-1,1077,1240,0,0
-140,-216,0,0,0,0,0,0,0,0,0,-1,1084,1240,0,0
-133,-216,0,0,0,0,0,0,0,0,0,-1,1091,1240,0,0
-126,-216,0,0,0,0,0,0,0,0,0,-1,1098,1240,0,0
-119,-216,0,0,0,0,0,0,0,0,0,-1,1105,1240,0,0
-112,-216,0,0,0,0,0,0,0,0,0,-1,1112,1240,0,0
-105,-216,0,0,0,0,0,0,0,0,0,-1,1119,1240,0,0
-98,-216,0,0,0,0,0,0,0,0,0,-1,1126,1240,0,0
-91,-216,0,0,0,0,0,0,0,0,0,-1,1133,1240,0,0
-84,-216,0,0,0,0,0,0,0,0,0,-1,1140,1240,0,0
-77,-216,0,0,0,0,0,0,0,0,0,-1,1147,1240,0,0
-70,-216,0,0,0,0,0,0,0,0,0,-1,1154,1240,0,0
-63,-216,0,0,0,0,0,0,0,0,0,-1,1161,1240,0,0
-56,-216,0,0,0,0,0,0,0,0,0,-1,1168,1240,0,0
-49,-216,0,0,0,0,0,0,0,0,0,-1,1175,1240,0,0
-42,-216,0,0,0,0,0,0,0,0,0,-1,1182,1240,0,0
-35,-216,0,0,0,0,0,0,0,0,0,-1,1189,1240,0,0
-28,-216,0,0,0,0,0,0,0,0,0,-1,1196,1240,0,0
-21,-216,0,0,0,0,0,0,0,0,0,-1,1203,1240,0,0
-14,-216,0,0,0,0,0,0,0,0,0,-1,1210,1240,0,0
-7,-216,0,0,0,0,0,0,0,0,0,-1,1217,1240,0,0
0,-216,0,0,0,0,0,0,0,0,0,-1,1224,1240,0,0
7,-216,0,0,0,0,0,0,0,0,0,-1,1231,1240,0,0
14,-216,0,0,0,0,0,0,0,0,0,-1,1238,1240,0,0
21,-216,0,0,0,0,0,0,0,0,0,-1,1245,1240,0,0
28,-216,0,0,0,0,0,0,0,0,0,-1,1252,1240,0,0
35,-216,0,0,0,0,0,0,0,0,0,-1,1259,1240,0,0
42,-216,0,0,0,0,0,0,0,0,0,-1,1266,1240,0,0
49,-216,0,0,0,0,0,0,0,0,0,-1,1273,1240,0,0
56,-216,0,0,0,0,0,0,0,0,0,-1,1280,1240,0,0
63,-216,0,0,0,0,0,0,0,0,0,-1,1287,1240,0,0
70,-216,0,0,0,0,0,0,0,0,0,-1,1294,1240,0,0
77,-216,0,0,0,0,0,0,0,0,0,-1,1301,1240,0,0
84,-216,0,0,0,0,0,0,0,0,0,-1,1308,1240,0,0
91,-216,0,0,0,0,0,0,0,0,0,-1,1315,1240,0,0
98,-216,0,0,0,0,0,0,0,0,0,-1,1322,1240,0,0
105,-216,0,0,0,0,0,0,0,0,0,-1,1329,1240,0,0
112,-216,0,0,0,0,0,0,0,0,0,-1,1336,1240,0,0
119,-216,0,0,0,0,0,0,0,0,0,-1,1343,1240,0,0
126,-216,0,0,0,0,0,0,0,0,0,-1,1350,1240,0,0
133,-216,0,0,0,0,0,0,0,0,0,-1,1357,1240,0,0
140,-216,0,0,0,0,0,0,0,0,0,-1,1364,1240,0,0
147,-216,0,0,0,0,0,0,0,0,0,-1,1371,1240,0,0
154,-216,0,0,0,0,0,0,0,0,0,-1,1378,1240,0,0
161,-216,0,0,0,0,0,0,0,0,0,-1,1385,1240,0,0
168,-216,0,0,0,0,0,0,0,0,0,-1,1392,1240,0,0
175,-216,0,0,0,0,0,0,0,0,0,-1,1399,1240,0,0
182,-216,0,0,0,0,0,0,0,0,0,-1,1406,1240,0,0
189,-216,0,0,0,0,0,0,0,0,0,-1,1413,1240,0,0
196,-216,0,0,0,0,0,0,0,0,0,-1,1420,1240,0,0
203,-216,0,0,0,0,0,0,0,0,0,-1,1427,1240,0,0
210,-216,0,0,0,0,0,0,0,0,0,-1,1434,1240,0,0
217,-216,0,0,0,0,0,0,0,0,0,-1,1441,1240,0,0
224,-216,0,0,0,0,0,0,0,0,0,-1,1448,1240,0,0
231,-216,0,0,0,0,0,0,0,0,0,-1,1455,1240,0,0
238,-216,0,0,0,0,0,0,0,0,0,-1,1462,1240,0,0
245,-216,0,0,0,0,0,0,0,0,0,-1,1469,1240,0,0
252,-216,0,0,0,0,0,0,0,0,0,-1,1476,1240,0,0
259,-216,0,0,0,0,0,0,0,0,0,-1,1483,1240,0,0
266,-216,0,0,0,0,0,0,0,0,0,-1,1490,1240,0,0
273,-216,0,0,0,0,0,0,0,0,0,-1,1497,1240,0,0
280,-216,0,0,0,0,0,0,0,0,0,-1,1504,1240,0,0
287,-216,0,0,0,0,0,0,0,0,0,-1,1511,1240,0,0
294,-216,0,0,0,0,0,0,0,0,0,-1,1518,1240,0,0
301,-216,0,0,0,0,0,0,0,0,0,-1,1525,1240,0,0
308,-216,0,0,0,0,0,0,0,0,0,-1,1532,1240,0,0
315,-216,0,0,0,0,0,0,0,0,0,-1,1539,1240,0,0
322,-216,0,0,0,0,0,0,0,0,0,-1,1546,1240,0,0
329,-216,0,0,0,0,0,0,0,0,0,-1,1553,1240,0,0
336,-216,0,0,0,0,0,0,0,0,0,-1,1560,1240,0,0
343,-216,0,0,0,0,0,0,0,0,0,-1,1567,1240,0,0
350,-216,0,0,0,0,0,0,0,0,0,-1,1574,1240,0,0
357,-216,0,0,0,0,0,0,0,0,0,-1,1581,1240,0,0
364,-216,0,0,0,0,0,0,0,0,0,-1,1588,1240,0,0
371,-216,0,0,0,0,0,0,0,0,0,-1,1595,1240,0,0
378,-216,0,0,0,0,0,0,0,0,0,-1,1602,1240,0,0
385,-216,0,0,0,0,0,0,0,0,0,-1,1609,1240,0,0
392,-216,0,0,0,0,0,0,0,0,0,-1,1616,1240,0,0
399,-216,0,0,0,0,0,0,0,0,0,-1,1623,1240,0,0
406,-216,0,0,0,0,0,0,0,0,0,-1,1630,1240,0,0
413,-216,0,0,0,0,0,0,0,0,0,-1,1637,1240,0,0
420,-216,0,0,0,0,0,0,0,0,0,-1,1644,1240,0,0
427,-216,0,0,0,0,0,0,0,0,0,-1,1651,1240,0,0
434,-216,0,0,0,0,0,0,0,0,0,-1,1658,1240,0,0
441,-216,0,0,0,0,0,0,0,0,0,-1,1665,1240,0,0
448,-216,0,0,0,0,0,0,0,0,0,-1,1672,1240,0,0
455,-216,0,0,0,0,0,0,0,0,0,-1,1679,1240,0,0
462,-216,0,0,0,0,0,0,0,0,0,-1,1686,1240,0,0
469,-216,0,0,0,0,0,0,0,0,0,-1,1693,1240,0,0
476,-216,0,0,0,0,0,0,0,0,0,-1,1700,1240,0,0
483,-216,0,0,0,0,0,0,0,0,0,-1,1707,1240,0,0
490,-216,0,0,0,0,0,0,0,0,0,-1,1714,1240,0,0
497,-216,0,0,0,0,0,0,0,0,0,-1,1721,1240,0,0
504,-216,0,0,0,0,0,0,0,0,0,-1,1728,1240,0,0
511,-216,0,0,0,0,0,0,0,0,0,-1,1735,1240,0,0
518,-216,0,0,0,0,0,0,0,0,0,-1,1742,1240,0,0
525,-216,0,0,0,0,0,0,0,0,0,-1,1749,1240,0,0
532,-216,0,0,0,0,0,0,0,0,0,-1,1756,1240,0,0
539,-216,0,0,0,0,0,0,0,0,0,-1,1763,1240,0,0
546,-216,0,0,0,0,0,0,0,0,0,-1,1770,1240,0,0
553,-216,0,0,0,0,0,0,0,0,0,-1,1777,1240,0,0
560,-216,0,0,0,0,0,0,0,0,0,-1,1784,1240,0,0
567,-216,0,0,0,0,0,0,0,0,0,-1,1791,1240,0,0
574,-216,0,0,0,0,0,0,0,0,0,-1,1798,1240,0,0
581,-216,0,0,0,0,0,0,0,0,0,-1,1805,1240,0,0
588,-216,0,0,0,0,0,0,0,0,0,-1,1812,1240,0,0
595,-216,0,0,0,0,0,0,0,0,0,-1,1819,1240,0,0
602,-216,0,0,0,0,0,0,0,0,0,-1,1826,1240,0,0
609,-216,0,0,0,0,0,0,0,0,0,-1,1833,1240,0,0
616,-216,0,0,0,0,0,0,0,0,0,-1,1840,1240,0,0
623,-216,15.6223,2.2843,-0.00203082,-0.00617963,-0.00067515,-0.00192372,-0.00628674,-0.157327,0.00371961,0.0418655,1847,1240,15.6224,-2.28427
630,-216,15.5175,2.25415,-0.00279495,0.00208776,-4.55404e-05,0.00208819,-0.00279538,-1.56147,0.00282937,0.0402247,1854,1240,15.5174,-2.25417
637,-216,15.5547,2.22852,-0.0038771,0.00740186,0.00124198,0.007537,-0.00401224,1.46241,0.00677068,0.035061,1861,1240,15.5547,-2.22851
644,-216,15.5869,2.30127,-0.00511349,0.0100708,0.00254886,0.0104872,-0.00552993,1.40885,0.00939399,0.026524,1868,1240,15.587,-2.30131
651,-216,15.632,2.35925,-0.00614742,0.0106395,0.00356648,0.0113658,-0.00687372,1.3699,0.0106365,0.0238686,1875,1240,15.632,-2.35921
658,-216,15.6603,2.39783,-0.00668113,0.0100276,0.00416439,0.0110079,-0.00766151,1.33958,0.0108364,0.0333248,1882,1240,15.6603,-2.39788
665,-216,15.7312,2.37488,-0.00689164,0.00878977,0.00445453,0.0099668,-0.00806866,1.31247,0.010432,0.0438001,1889,1240,15.7312,-2.37486
672,-216,15.8468,2.33191,0,0,0,0,0,0,0,-1,1896,1240,15.8469,-2.33196
679,-216,15.3308,1.7655,0,0,0,0,0,0,0,-1,1903,1240,15.3308,-1.7655
686,-216,13.9037,3.83118,0,0,0,0,0,0,0,-1,1910,1240,13.9037,-3.8312
693,-216,13.775,3.87524,-0.00635086,0.00311107,0.00423023,0.00472652,-0.0079663,1.20601,0.00740734,0.0351253,1917,1240,13.7751,-3.8753
700,-216,13.7372,3.84045,-0.00584454,0.00168745,0.00384403,0.00330284,-0.00745993,1.17297,0.00636652,0.0150656,1924,1240,13.7371,-3.8404
707,-216,13.7357,3.71057,-0.00504487,9.35233e-05,0.00311705,0.00156373,-0.00651508,1.13007,0.0049477,0.01439,1931,1240,13.7357,-3.71063
714,-216,13.7478,3.59058,-0.00422351,-0.00105888,0.00225095,0.000110257,-0.00539264,1.09175,0.00363241,0.0125974,1938,1240,13.7477,-3.59053
721,-216,13.7423,3.48975,-0.00348419,-0.000740274,0.0016143,6.31087e-06,-0.00423078,1.13761,0.00282262,0.0131434,1945,1240,13.7424,-3.4897
728,-216,13.7574,3.3877,-0.0022261,-0.000209662,0.000725593,2.42903e-05,-0.00246006,1.25889,0.00164819,0.0114568,1952,1240,13.7575,-3.38766
735,-216,13.7734,3.28467,-0.00052572,0.000415087,-0.000615964,0.000719726,-0.000830359,-1.1115,0.000895701,0.0102397,1959,1240,13.7735,-3.28471
742,-216,13.771,3.20911,0.00107086,0.000699656,-0.00204119,0.00293487,-0.00116435,-0.740058,0.00243916,0.0109622,1966,1240,13.7709,-3.20916
749,-216,13.7631,3.09937,0.00279571,0.000978645,-0.00361708,0.00561661,-0.00184226,-0.662355,0.0044864,0.00881484,1973,1240,13.7631,-3.09934
756,-216,13.7289,2.98828,0.0046981,0.000957756,-0.00556068,0.00869468,-0.00303882,-0.62318,0.00703178,0.00951806,1980,1240,13.7289,-2.98833
763,-216,13.7078,2.8844,0.00712661,0.000567475,-0.00807845,0.0125658,-0.00487173,-0.592579,0.0103891,0.0164947,1987,1240,13.7078,-2.88436
770,-216,13.7097,2.75891,0.0103504,-0.000354994,-0.0113901,0.0175828,-0.00758741,-0.565741,0.0149091,0.0407119,1994,1240,13.7097,-2.75893
777,-216,13.7556,2.66479,0.0144141,-0.00208739,-0.0156403,0.0238465,-0.0115198,-0.542684,0.0208281,0.0477888,2001,1240,13.7556,-2.66481
784,-216,13.8094,2.42773,0.0194033,-0.0049729,-0.0210134,0.0315074,-0.017077,-0.5226,0.0284597,0.0458347,2008,1240,13.8095,-2.42772
791,-216,13.8223,1.56287,0.02544,-0.00954545,-0.0276994,0.0407078,-0.0248132,-0.503761,0.0381978,0.0406183,2015,1240,13.8222,-1.56286
798,-216,0,0,0,0,0,0,0,0,0,-1,2022,1240,0,0
805,-216,0,0,0,0,0,0,0,0,0,-1,2029,1240,0,0
812,-216,0,0,0,0,0,0,0,0,0,-1,2036,1240,0,0
-700,-223,0,0,0,0,0,0,0,0,0,-1,524,1247,0,0
-693,-223,0,0,0,0,0,0,0,0,0,-1,531,1247,0,0
-686,-223,0,0,0,0,0,0,0,0,0,-1,538,1247,0,0
-679,-223,0,0,0,0,0,0,0,0,0,-1,545,1247,0,0
-672,-223,-5.87836,6.6156,0.0408589,0.039332,-0.0724713,0.112571,-0.0323799,-0.780131,0.0878526,0.0465194,552,1247,-5.87835,-6.61555
-665,-223,-6.3714,0.627441,0.0267355,0.0192138,-0.0514746,0.0745865,-0.0286372,-0.748932,0.0615329,0.0458668,559,1247,-6.37142,-0.627419
-658,-223,-6.33405,1.427,0.0167945,0.0066904,-0.0360292,0.0481241,-0.0246392,-0.715742,0.042733,0.0437404,566,1247,-6.33405,-1.42697
-651,-223,-6.87732,2.22961,0.00974982,-0.000842812,-0.0245776,0.0295953,-0.0206883,-0.679274,0.0291827,0.0496414,573,1247,-6.87729,-2.22964
-644,-223,-7.75104,-0.00427246,0,0,0,0,0,0,0,-1,580,1247,-7.75105,0.00428081
-637,-223,-7.7356,0.449585,0.00161985,-0.00670848,-0.0102764,0.00854376,-0.0136324,-0.592901,0.0129153,0.0464507,587,1247,-7.73562,-0.449605
-630,-223,-7.29987,0.838135,-0.000354544,-0.00692723,-0.00626043,0.00342969,-0.0107115,-0.543699,0.00851757,0.0357717,594,1247,-7.29984,-0.838089
-623,-223,-7.26044,0.883301,-0.00133641,-0.00626604,-0.0037603,0.000694897,-0.00829735,-0.495288,0.00577715,0.0197968,601,1247,-7.26045,-0.883257
-616,-223,-7.26715,1.04626,-0.00248377,-0.00747445,-0.000798638,-0.00235909,-0.00759914,-0.154875,0.00449123,0.0148156,608,1247,-7.26713,-1.04622
-609,-223,-7.25732,1.16675,-0.00251243,-0.00543104,0.000264282,-0.00248869,-0.00545478,0.0895795,0.00315334,0.0117547,615,1247,-7.25731,-1.16671
-602,-223,-7.24115,1.26294,-0.00135483,-0.00299424,-0.000186347,-0.00133391,-0.00301515,-0.111768,0.00174464,0.0140532,622,1247,-7.24113,-1.26297
-595,-223,-7.21246,1.38855,0.000350374,-0.00192641,-0.000723241,0.00056069,-0.00213673,-0.282993,0.00164357,0.0200113,629,1247,-7.21248,-1.38849
-588,-223,-7.21527,1.50452,0.00151719,-0.00100454,-0.00132484,0.00208525,-0.0015726,-0.405068,0.00211876,0.0215336,636,1247,-7.21529,-1.50452
-581,-223,-7.22687,1.65088,0.00239666,-0.00043701,-0.00171142,0.00320162,-0.00124197,-0.439645,0.00264736,0.0190468,643,1247,-7.22688,-1.65087
-574,-223,-7.22089,1.77771,0.00270808,-0.000689277,-0.00146925,0.00325533,-0.00123653,-0.35655,0.00267926,0.0166981,650,1247,-7.22087,-1.77773
-567,-223,-7.11621,1.93933,0.00264586,-0.00159079,-0.00113248,0.00292958,-0.00187451,-0.245476,0.00279585,0.0224127,657,1247,-7.11619,-1.93931
-560,-223,-7.00311,2.21045,0.00238175,-0.00186367,-0.0010642,0.00263357,-0.0021155,-0.232359,0.00274731,0.0345397,664,1247,-7.00311,-2.21048
-553,-223,-6.68591,2.57556,0,0,0,0,0,0,0,-1,671,1247,-6.68589,-2.57562
-546,-223,-9.10907,0.603516,0,0,0,0,0,0,0,-1,678,1247,-9.1091,-0.603553
-539,-223,-9.11877,0.559448,0.00077388,-0.00272221,-0.00115911,0.00112326,-0.00307158,-0.29276,0.00250746,0.0442802,685,1247,-9.11876,-0.559452
-532,-223,-9.17383,0.451172,-0.00018018,-0.00293721,-0.00120469,0.000272035,-0.00338943,-0.359104,0.00235554,0.0434235,692,1247,-9.17385,-0.451154
-525,-223,-9.19348,0.388306,-0.00132521,-0.00288416,-0.001244,-0.000636654,-0.00357272,-0.505527,0.00220051,0.0444076,699,1247,-9.19347,-0.388272
-518,-223,-9.27808,0.48645,-0.00276258,-0.00233599,-0.00123058,-0.00130036,-0.00379821,-0.871209,0.00222893,0.0431248,706,1247,-9.27805,-0.486479
-511,-223,-9.36804,0.685547,-0.0042676,-0.000910574,-0.00111921,-0.000571654,-0.00460652,-1.27675,0.00289931,0.0420116,713,1247,-9.36802,-0.685503
-504,-223,-9.31012,0.625122,-0.00560009,0.00254667,-0.000145203,0.00254926,-0.00560268,-1.55298,0.00481532,0.041223,720,1247,-9.3101,-0.625102
-497,-223,0,0,0,0,0,0,0,0,0,-1,727,1247,0,0
-490,-223,0,0,0,0,0,0,0,0,0,-1,734,1247,0,0
-483,-223,0,0,0,0,0,0,0,0,0,-1,741,1247,0,0
-476,-223,0,0,0,0,0,0,0,0,0,-1,748,1247,0,0
-469,-223,0,0,0,0,0,0,0,0,0,-1,755,1247,0,0
-462,-223,0,0,0,0,0,0,0,0,0,-1,762,1247,0,0
-455,-223,0,0,0,0,0,0,0,0,0,-1,769,1247,0,0
-448,-223,0,0,0,0,0,0,0,0,0,-1,776,1247,0,0
-441,-223,0,0,0,0,0,0,0,0,0,-1,783,1247,0,0
-434,-223,0,0,0,0,0,0,0,0,0,-1,790,1247,0,0
-427,-223,0,0,0,0,0,0,0,0,0,-1,797,1247,0,0
-420,-223,0,0,0,0,0,0,0,0,0,-1,804,1247,0,0
-413,-223,0,0,0,0,0,0,0,0,0,-1,811,1247,0,0
-406,-223,0,0,0,0,0,0,0,0,0,-1,818,1247,0,0
-399,-223,0,0,0,0,0,0,0,0,0,-1,825,1247,0,0
-392,-223,0,0,0,0,0,0,0,0,0,-1,832,1247,0,0
-385,-223,0,0,0,0,0,0,0,0,0,-1,839,1247,0,0
-378,-223,0,0,0,0,0,0,0,0,0,-1,846,1247,0,0
-371,-223,0,0,0,0,0,0,0,0,0,-1,853,1247,0,0
-364,-223,0,0,0,0,0,0,0,0,0,-1,860,1247,0,0
-357,-223,0,0,0,0,0,0,0,0,0,-1,867,1247,0,0
-350,-223,0,0,0,0,0,0,0,0,0,-1,874,1247,0,0
-343,-223,0,0,0,0,0,0,0,0,0,-1,881,1247,0,0
-336,-223,0,0,0,0,0,0,0,0,0,-1,888,1247,0,0
-329,-223,0,0,0,0,0,0,0,0,0,-1,895,1247,0,0
-322,-223,0,0,0,0,0,0,0,0,0,-1,902,1247,0,0
-315,-223,0,0,0,0,0,0,0,0,0,-1,909,1247,0,0
-308,-223,0,0,0,0,0,0,0,0,0,-1,916,1247,0,0
-301,-223,0,0,0,0,0,0,0,0,0,-1,923,1247,0,0
-294,-223,0,0,0,0,0,0,0,0,0,-1,930,1247,0,0
-287,-223,0,0,0,0,0,0,0,0,0,-1,937,1247,0,0
-280,-223,0,0,0,0,0,0,0,0,0,-1,944,1247,0,0
-273,-223,0,0,0,0,0,0,0,0,0,-1,951,1247,0,0
-266,-223,0,0,0,0,0,0,0,0,0,-1,958,1247,0,0
-259,-223,0,0,0,0,0,0,0,0,0,-1,965,1247,0,0
-252,-223,0,0,0,0,0,0,0,0,0,-1,972,1247,0,0
-245,-223,0,0,0,0,0,0,0,0,0,-1,979,1247,0,0
-238,-223,0,0,0,0,0,0,0,0,0,-1,986,1247,0,0
-231,-223,0,0,0,0,0,0,0,0,0,-1,993,1247,0,0
-224,-223,0,0,0,0,0,0,0,0,0,-1,1000,1247,0,0
-217,-223,0,0,0,0,0,0,0,0,0,-1,1007,1247,0,0
-210,-223,0,0,0,0,0,0,0,0,0,-1,1014,1247,0,0
-203,-223,0,0,0,0,0,0,0,0,0,-1,1021,1247,0,0
-196,-223,0,0,0,0,0,0,0,0,0,-1,1028,1247,0,0
-189,-223,0,0,0,0,0,0,0,0,0,-1,1035,1247,0,0
-182,-223,0,0,0,0,0,0,0,0,0,-1,1042,1247,0,0
-175,-223,0,0,0,0,0,0,0,0,0,-1,1049,1247,0,0
-168,-223,0,0,0,0,0,0,0,0,0,-1,1056,1247,0,0
-161,-223,0,0,0,0,0,0,0,0,0,-1,1063,1247,0,0
-154,-223,0,0,0,0,0,0,0,0,0,-1,1070,1247,0,0
-147,-223,0,0,0,0,0,0,0,0,0,-1,1077,1247,0,0
-140,-223,0,0,0,0,0,0,0,0,0,-1,1084,1247,0,0
-133,-223,0,0,0,0,0,0,0,0,0,-1,1091,1247,0,0
-126,-223,0,0,0,0,0,0,0,0,0,-1,1098,1247,0,0
-119,-223,0,0,0,0,0,0,0,0,0,-1,1105,1247,0,0
-112,-223,0,0,0,0,0,0,0,0,0,-1,1112,1247,0,0
-105,-223,0,0,0,0,0,0,0,0,0,-1,1119,1247,0,0
-98,-223,0,0,0,0,0,0,0,0,0,-1,1126,1247,0,0
-91,-223,0,0,0,0,0,0,0,0,0,-1,1133,1247,0,0
-84,-223,0,0,0,0,0,0,0,0,0,-1,1140,1247,0,0
-77,-223,0,0,0,0,0,0,0,0,0,-1,1147,1247,0,0
-70,-223,0,0,0,0,0,0,0,0,0,-1,1154,1247,0,0
-63,-223,0,0,0,0,0,0,0,0,0,-1,1161,1247,0,0
-56,-223,0,0,0,0,0,0,0,0,0,-1,1168,1247,0,0
-49,-223,0,0,0,0,0,0,0,0,0,-1,1175,1247,0,0
-42,-223,0,0,0,0,0,0,0,0,0,-1,1182,1247,0,0
-35,-223,0,0,0,0,0,0,0,0,0,-1,1189,1247,0,0
-28,-223,0,0,0,0,0,0,0,0,0,-1,1196,1247,0,0
-21,-223,0,0,0,0,0,0,0,0,0,-1,1203,1247,0,0
-14,-223,0,0,0,0,0,0,0,0,0,-1,1210,1247,0,0
-7,-223,0,0,0,0,0,0,0,0,0,-1,1217,1247,0,0
0,-223,0,0,0,0,0,0,0,0,0,-1,1224,1247,0,0
7,-223,0,0,0,0,0,0,0,0,0,-1,1231,1247,0,0
14,-223,0,0,0,0,0,0,0,0,0,-1,1238,1247,0,0
21,-223,0,0,0,0,0,0,0,0,0,-1,1245,1247,0,0
28,-223,0,0,0,0,0,0,0,0,0,-1,1252,1247,0,0
35,-223,0,0,0,0,0,0,0,0,0,-1,1259,1247,0,0
42,-223,0,0,0,0,0,0,0,0,0,-1,1266,1247,0,0
49,-223,0,0,0,0,0,0,0,0,0,-1,1273,1247,0,0
56,-223,0,0,0,0,0,0,0,0,0,-1,1280,1247,0,0
63,-223,0,0,0,0,0,0,0,0,0,-1,1287,1247,0,0
70,-223,0,0,0,0,0,0,0,0,0,-1,1294,1247,0,0
77,-223,0,0,0,0,0,0,0,0,0,-1,1301,1247,0,0
84,-223,0,0,0,0,0,0,0,0,0,-1,1308,1247,0,0
91,-223,0,0,0,0,0,0,0,0,0,-1,1315,1247,0,0
98,-223,0,0,0,0,0,0,0,0,0,-1,1322,1247,0,0
105,-223,0,0,0,0,0,0,0,0,0,-1,1329,1247,0,0
112,-223,0,0,0,0,0,0,0,0,0,-1,1336,1247,0,0
119,-223,0,0,0,0,0,0,0,0,0,-1,1343,1247,0,0
126,-223,0,0,0,0,0,0,0,0,0,-1,1350,1247,0,0
133,-223,0,0,0,0,0,0,0,0,0,-1,1357,1247,0,0
140,-223,0,0,0,0,0,0,0,0,0,-1,1364,1247,0,0
147,-223,0,0,0,0,0,0,0,0,0,-1,1371,1247,0,0
154,-223,0,0,0,0,0,0,0,0,0,-1,1378,1247,0,0
161,-223,0,0,0,0,0,0,0,0,0,-1,1385,1247,0,0
168,-223,0,0,0,0,0,0,0,0,0,-1,1392,1247,0,0
175,-223,0,0,0,0,0,0,0,0,0,-1,1399,1247,0,0
182,-223,0,0,0,0,0,0,0,0,0,-1,1406,1247,0,0
189,-223,0,0,0,0,0,0,0,0,0,-1,1413,1247,0,0
196,-223,0,0,0,0,0,0,0,0,0,-1,1420,1247,0,0
203,-223,0,0,0,0,0,0,0,0,0,-1,1427,1247,0,0
210,-223,0,0,0,0,0,0,0,0,0,-1,1434,1247,0,0
217,-223,0,0,0,0,0,0,0,0,0,-1,1441,1247,0,0
224,-223,0,0,0,0,0,0,0,0,0,-1,1448,1247,0,0
231,-223,0,0,0,0,0,0,0,0,0,-1,1455,1247,0,0
238,-223,0,0,0,0,0,0,0,0,0,-1,1462,1247,0,0
245,-223,0,0,0,0,0,0,0,0,0,-1,1469,1247,0,0
252,-223,0,0,0,0,0,0,0,0,0,-1,1476,1247,0,0
259,-223,0,0,0,0,0,0,0,0,0,-1,1483,1247,0,0
266,-223,0,0,0,0,0,0,0,0,0,-1,1490,1247,0,0
273,-223,0,0,0,0,0,0,0,0,0,-1,1497,1247,0,0
280,-223,0,0,0,0,0,0,0,0,0,-1,1504,1247,0,0
287,-223,0,0,0,0,0,0,0,0,0,-1,1511,1247,0,0
294,-223,0,0,0,0,0,0,0,0,0,-1,1518,1247,0,0
301,-223,0,0,0,0,0,0,0,0,0,-1,1525,1247,0,0
308,-223,0,0,0,0,0,0,0,0,0,-1,1532,1247,0,0
315,-223,0,0,0,0,0,0,0,0,0,-1,1539,1247,0,0
322,-223,0,0,0,0,0,0,0,0,0,-1,1546,1247,0,0
329,-223,0,0,0,0,0,0,0,0,0,-1,1553,1247,0,0
336,-223,0,0,0,0,0,0,0,0,0,-1,1560,1247,0,0
343,-223,0,0,0,0,0,0,0,0,0,-1,1567,1247,0,0
350,-223,0,0,0,0,0,0,0,0,0,-1,1574,1247,0,0
357,-223,0,0,0,0,0,0,0,0,0,-1,1581,1247,0,0
364,-223,0,0,0,0,0,0,0,0,0,-1,1588,1247,0,0
371,-223,0,0,0,0,0,0,0,0,0,-1,1595,1247,0,0
378,-223,0,0,0,0,0,0,0,0,0,-1,1602,1247,0,0
385,-223,0,0,0,0,0,0,0,0,0,-1,1609,1247,0,0
392,-223,0,0,0,0,0,0,0,0,0,-1,1616,1247,0,0
399,-223,0,0,0,0,0,0,0,0,0,-1,1623,1247,0,0
406,-223,0,0,0,0,0,0,0,0,0,-1,1630,1247,0,0
413,-223,0,0,0,0,0,0,0,0,0,-1,1637,1247,0,0
420,-223,0,0,0,0,0,0,0,0,0,-1,1644,1247,0,0
427,-223,0,0,0,0,0,0,0,0,0,-1,1651,1247,0,0
434,-223,0,0,0,0,0,0,0,0,0,-1,1658,1247,0,0
441,-223,0,0,0,0,0,0,0,0,0,-1,1665,1247,0,0
448,-223,0,0,0,0,0,0,0,0,0,-1,1672,1247,0,0
455,-223,0,0,0,0,0,0,0,0,0,-1,1679,1247,0,0
462,-223,0,0,0,0,0,0,0,0,0,-1,1686,1247,0,0
469,-223,0,0,0,0,0,0,0,0,0,-1,1693,1247,0,0
476,-223,0,0,0,0,0,0,0,0,0,-1,1700,1247,0,0
483,-223,0,0,0,0,0,0,0,0,0,-1,1707,1247,0,0
490,-223,0,0,0,0,0,0,0,0,0,-1,1714,1247,0,0
497,-223,0,0,0,0,0,0,0,0,0,-1,1721,1247,0,0
504,-223,0,0,0,0,0,0,0,0,0,-1,1728,1247,0,0
511,-223,0,0,0,0,0,0,0,0,0,-1,1735,1247,0,0
518,-223,0,0,0,0,0,0,0,0,0,-1,1742,1247,0,0
525,-223,0,0,0,0,0,0,0,0,0,-1,1749,1247,0,0
532,-223,0,0,0,0,0,0,0,0,0,-1,1756,1247,0,0
539,-223,0,0,0,0,0,0,0,0,0,-1,1763,1247,0,0
546,-223,0,0,0,0,0,0,0,0,0,-1,1770,1247,0,0
553,-223,0,0,0,0,0,0,0,0,0,-1,1777,1247,0,0
560,-223,0,0,0,0,0,0,0,0,0,-1,1784,1247,0,0
567,-223,0,0,0,0,0,0,0,0,0,-1,1791,1247,0,0
574,-223,0,0,0,0,0,0,0,0,0,-1,1798,1247,0,0
581,-223,0,0,0,0,0,0,0,0,0,-1,1805,1247,0,0
588,-223,0,0,0,0,0,0,0,0,0,-1,1812,1247,0,0
595,-223,0,0,0,0,0,0,0,0,0,-1,1819,1247,0,0
602,-223,0,0,0,0,0,0,0,0,0,-1,1826,1247,0,0
609,-223,0,0,0,0,0,0,0,0,0,-1,1833,1247,0,0
616,-223,0,0,0,0,0,0,0,0,0,-1,1840,1247,0,0
623,-223,15.6465,2.41467,-0.00227065,-0.00318309,-0.00111928,-0.00151818,-0.00393556,-0.591877,0.00229188,0.0417111,1847,1247,15.6465,-2.41466
630,-223,15.4838,2.44214,-0.00329635,0.00520529,-1.03943e-05,0.0052053,-0.00329636,-1.56957,0.00494951,0.0358192,1854,1247,15.4838,-2.44208
637,-223,15.4553,2.17114,-0.00470964,0.0102959,0.00163274,0.0104715,-0.00488524,1.46366,0.00905965,0.0301087,1861,1247,15.4554,-2.17117
644,-223,15.5099,2.29468,-0.00614886,0.0125808,0.00309561,0.0130791,-0.00664723,1.41117,0.0115891,0.0229648,1868,1247,15.5098,-2.29463
651,-223,15.5522,2.30347,-0.00716748,0.0128876,0.00413506,0.0137067,-0.00798661,1.37523,0.0126689,0.0284134,1875,1247,15.5522,-2.30351
658,-223,15.7129,2.51331,-0.00764688,0.0120746,0.00472667,0.0131489,-0.0087212,1.3473,0.0127127,0.0472819,1882,1247,15.7129,-2.5133
665,-223,15.8279,2.64795,-0.00777158,0.0106659,0.0050006,0.0119348,-0.0090405,1.32229,0.0121485,0.042791,1889,1247,15.8279,-2.64792
672,-223,15.9503,2.75549,0,0,0,0,0,0,0,-1,1896,1247,15.9504,-2.75544
679,-223,13.8463,4.0061,0,0,0,0,0,0,0,-1,1903,1247,13.8463,-4.00609
686,-223,13.7397,3.94922,-0.00719613,0.00582242,0.00489466,0.00745737,-0.00883108,1.24842,0.00941528,0.0493271,1910,1247,13.7398,-3.94922
693,-223,13.6071,3.901,-0.00681392,0.00408047,0.00468992,0.00582127,-0.00855472,1.21538,0.00834984,0.0237067,1917,1247,13.6071,-3.90104
700,-223,13.6406,3.82056,-0.00617022,0.00239093,0.00417843,0.00409221,-0.0078715,1.18413,0.00702119,0.0107311,1924,1247,13.6406,-3.82054
707,-223,13.6478,3.70605,-0.00513019,0.000458907,0.00330835,0.00199503,-0.00666631,1.1361,0.00523744,0.0123243,1931,1247,13.6478,-3.70609
714,-223,13.6552,3.58752,-0.00409871,-0.000888019,0.00232629,0.000333072,-0.0053198,1.08742,0.00366261,0.0106864,1938,1247,13.6551,-3.5875
721,-223,13.6631,3.47815,-0.00325826,-0.000534212,0.00165069,0.000243827,-0.0040363,1.13034,0.00277571,0.0138348,1945,1247,13.6631,-3.47812
728,-223,13.6246,3.38855,-0.00199726,0.000132002,0.000755781,0.000372991,-0.00223825,1.26213,0.00163078,0.0153187,1952,1247,13.6247,-3.38851
735,-223,13.6234,3.29041,-0.000257039,0.000942131,-0.000598942,0.00119003,-0.00050494,-1.17837,0.00100489,0.0132081,1959,1247,13.6234,-3.29041
742,-223,13.631,3.19482,0.00132122,0.00138335,-0.00195914,0.00331167,-0.000607097,-0.793325,0.0024355,0.0114055,1966,1247,13.631,-3.19478
749,-223,13.6394,3.07617,0.00306064,0.0018784,-0.00346824,0.00598778,-0.00104873,-0.70099,0.00438345,0.0102652,1973,1247,13.6393,-3.07612
756,-223,13.6195,2.96716,0.00508712,0.0021435,-0.00538292,0.00919581,-0.00196519,-0.651949,0.00687981,0.0112717,1980,1247,13.6195,-2.96714
763,-223,13.6201,2.87427,0.00781175,0.00211886,-0.00790817,0.0133702,-0.00343954,-0.612648,0.0102541,0.0141493,1987,1247,13.6201,-2.8743
770,-223,13.6707,2.71973,0.0115131,0.00163442,-0.0112407,0.0188518,-0.00570428,-0.578389,0.0148394,0.0348443,1994,1247,13.6707,-2.71971
777,-223,13.9877,2.58911,0.01633,0.000417464,-0.0155329,0.0258258,-0.00907832,-0.54871,0.0209109,0.0462924,2001,1247,13.9877,-2.58916
784,-223,14.2506,2.17566,0.0224928,-0.0019298,-0.0209915,0.0345665,-0.0140035,-0.521961,0.0288674,0.0451404,2008,1247,14.2507,-2.17563
791,-223,14.2981,1.74524,0,0,0,0,0,0,0,-1,2015,1247,14.2982,-1.74522
798,-223,0,0,0,0,0,0,0,0,0,-1,2022,1247,0,0
805,-223,0,0,0,0,0,0,0,0,0,-1,2029,1247,0,0
812,-223,0,0,0,0,0,0,0,0,0,-1,2036,1247,0,0
-700,-230,0,0,0,0,0,0,0,0,0,-1,524,1254,0,0
-693,-230,0,0,0,0,0,0,0,0,0,-1,531,1254,0,0
-686,-230,0,0,0,0,0,0,0,0,0,-1,538,1254,0,0
-679,-230,0,0,0,0,0,0,0,0,0,-1,545,1254,0,0
-672,-230,-5.6637,5.19519,0.0286258,0.0381716,-0.0734974,0.107051,-0.0402535,-0.817823,0.0879126,0.0455598,552,1254,-5.6637,-5.19517
-665,-230,-6.18976,4.54932,0.0176703,0.017519,-0.0516739,0.0692686,-0.0340794,-0.784666,0.06081,0.0452537,559,1254,-6.18977,-4.54928
-658,-230,-6.02747,1.70874,0.0101625,0.0051073,-0.0357592,0.0434834,-0.0282135,-0.750115,0.041706,0.0440816,566,1254,-6.02749,-1.70871
-651,-230,-6.55518,2.79834,0.00496694,-0.0020551,-0.0240613,0.025772,-0.0228601,-0.712949,0.0280945,0.0464033,573,1254,-6.55516,-2.79839
-644,-230,-7.00519,3.8457,0,0,0,0,0,0,0,-1,580,1254,-7.00517,-3.84575
-637,-230,-7.91162,0.573486,0,0,0,0,0,0,0,-1,587,1254,-7.91163,-0.573436
-630,-230,-6.90063,0.831909,-0.00188685,-0.0068533,-0.0056607,0.00181134,-0.0105515,-0.578699,0.00770937,0.042828,594,1254,-6.90061,-0.831947
-623,-230,-7.08081,0.875366,-0.00227755,-0.00590076,-0.00321834,-0.000395968,-0.00778234,-0.529052,0.0050614,0.0250125,601,1254,-7.08084,-0.875388
-616,-230,-7.12775,1.03345,-0.00293017,-0.00701498,-0.000259429,-0.00291376,-0.00703139,-0.0631723,0.00407936,0.0153005,608,1254,-7.12776,-1.03348
-609,-230,-7.12732,1.16199,-0.00259353,-0.00496678,0.000756005,-0.00237317,-0.00518715,0.283628,0.0029984,0.0113005,615,1254,-7.1273,-1.16197
-602,-230,-7.11224,1.27771,-0.00126459,-0.00239035,0.000266828,-0.00120455,-0.00245039,0.221334,0.0014148,0.0108126,622,1254,-7.11224,-1.27775
-595,-230,-7.10547,1.42615,0.000497609,-0.00139066,-0.000310468,0.000547346,-0.0014404,-0.15885,0.0011856,0.0173825,629,1254,-7.10545,-1.42614
-588,-230,-7.08368,1.52759,0.0017241,-0.000491841,-0.000959296,0.00208168,-0.000849424,-0.356802,0.00174141,0.0231539,636,1254,-7.08371,-1.52763
-581,-230,-7.09546,1.67261,0.00263537,-0.000121039,-0.00135554,0.00319028,-0.000675953,-0.388555,0.00238433,0.0212818,643,1254,-7.09548,-1.67262
-574,-230,-7.09888,1.79285,0.00293038,-0.000627463,-0.00107802,0.00323153,-0.00092861,-0.272408,0.00252155,0.0156509,650,1254,-7.09888,-1.79284
-567,-230,-7.01453,1.93262,0.00279181,-0.00185488,-0.000776406,0.00291811,-0.00198117,-0.161254,0.00284579,0.0184446,657,1254,-7.01455,-1.93264
-560,-230,-6.90778,2.13574,0.00250373,-0.00229778,-0.000859898,0.00265308,-0.00244713,-0.171971,0.00294541,0.0311763,664,1254,-6.90775,-2.13572
-553,-230,-6.66711,2.29785,0,0,0,0,0,0,0,-1,671,1254,-6.66712,-2.29788
-546,-230,-7.58514,0.644775,0,0,0,0,0,0,0,-1,678,1254,-7.58517,-0.644797
-539,-230,-8.99548,0.532959,0,0,0,0,0,0,0,-1,685,1254,-8.99547,-0.532993
-532,-230,-9.18146,0.417847,0.00111993,-0.00336386,-0.00245837,0.00220515,-0.00444908,-0.41571,0.00391396,0.0453407,692,1254,-9.18143,-0.417899
-525,-230,-9.10858,0.356201,0.000577557,-0.00321591,-0.0031164,0.00232905,-0.0049674,-0.512028,0.00430342,0.045909,699,1254,-9.10859,-0.356144
-518,-230,-9.28497,0.483154,-3.86521e-05,-0.00246955,-0.00386707,0.00279948,-0.00530768,-0.633133,0.00475476,0.0400092,706,1254,-9.28499,-0.483111
-511,-230,-9.28302,0.542603,-0.000582361,-0.000702836,-0.0046615,0.00401929,-0.00530449,-0.778937,0.0054001,0.0372746,713,1254,-9.28302,-0.542611
-504,-230,-9.4826,0.670654,-0.00096308,0.0031567,-0.00483431,0.00635168,-0.00415806,-0.986799,0.0061117,0.0367046,720,1254,-9.48261,-0.670637
-497,-230,0,0,0,0,0,0,0,0,0,-1,727,1254,0,0
-490,-230,0,0,0,0,0,0,0,0,0,-1,734,1254,0,0
-483,-230,0,0,0,0,0,0,0,0,0,-1,741,1254,0,0
-476,-230,0,0,0,0,0,0,0,0,0,-1,748,1254,0,0
-469,-230,0,0,0,0,0,0,0,0,0,-1,755,1254,0,0
-462,-230,0,0,0,0,0,0,0,0,0,-1,762,1254,0,0
-455,-230,0,0,0,0,0,0,0,0,0,-1,769,1254,0,0
-448,-230,0,0,0,0,0,0,0,0,0,-1,776,1254,0,0
-441,-230,0,0,0,0,0,0,0,0,0,-1,783,1254,0,0
-434,-230,0,0,0,0,0,0,0,0,0,-1,790,1254,0,0
-427,-230,0,0,0,0,0,0,0,0,0,-1,797,1254,0,0
-420,-230,0,0,0,0,0,0,0,0,0,-1,804,1254,0,0
-413,-230,0,0,0,0,0,0,0,0,0,-1,811,1254,0,0
-406,-230,0,0,0,0,0,0,0,0,0,-1,818,1254,0,0
-399,-230,0,0,0,0,0,0,0,0,0,-1,825,1254,0,0
-392,-230,0,0,0,0,0,0,0,0,0,-1,832,1254,0,0
-385,-230,0,0,0,0,0,0,0,0,0,-1,839,1254,0,0
-378,-230,0,0,0,0,0,0,0,0,0,-1,846,1254,0,0
-371,-230,0,0,0,0,0,0,0,0,0,-1,853,1254,0,0
-364,-230,0,0,0,0,0,0,0,0,0,-1,860,1254,0,0
-357,-230,0,0,0,0,0,0,0,0,0,-1,867,1254,0,0
-350,-230,0,0,0,0,0,0,0,0,0,-1,874,1254,0,0
-343,-230,0,0,0,0,0,0,0,0,0,-1,881,1254,0,0
-336,-230,0,0,0,0,0,0,0,0,0,-1,888,1254,0,0
-329,-230,0,0,0,0,0,0,0,0,0,-1,895,1254,0,0
-322,-230,0,0,0,0,0,0,0,0,0,-1,902,1254,0,0
-315,-230,0,0,0,0,0,0,0,0,0,-1,909,1254,0,0
-308,-230,0,0,0,0,0,0,0,0,0,-1,916,1254,0,0
-301,-230,0,0,0,0,0,0,0,0,0,-1,923,1254,0,0
-294,-230,0,0,0,0,0,0,0,0,0,-1,930,1254,0,0
-287,-230,0,0,0,0,0,0,0,0,0,-1,937,1254,0,0
-280,-230,0,0,0,0,0,0,0,0,0,-1,944,1254,0,0
-273,-230,0,0,0,0,0,0,0,0,0,-1,951,1254,0,0
-266,-230,0,0,0,0,0,0,0,0,0,-1,958,1254,0,0
-259,-230,0,0,0,0,0,0,0,0,0,-1,965,1254,0,0
-252,-230,0,0,0,0,0,0,0,0,0,-1,972,1254,0,0
-245,-230,0,0,0,0,0,0,0,0,0,-1,979,1254,0,0
-238,-230,0,0,0,0,0,0,0,0,0,-1,986,1254,0,0
-231,-230,0,0,0,0,0,0,0,0,0,-1,993,1254,0,0
-224,-230,0,0,0,0,0,0,0,0,0,-1,1000,1254,0,0
-217,-230,0,0,0,0,0,0,0,0,0,-1,1007,1254,0,0
-210,-230,0,0,0,0,0,0,0,0,0,-1,1014,1254,0,0
-203,-230,0,0,0,0,0,0,0,0,0,-1,1021,1254,0,0
-196,-230,0,0,0,0,0,0,0,0,0,-1,1028,1254,0,0
-189,-230,0,0,0,0,0,0,0,0,0,-1,1035,1254,0,0
-182,-230,0,0,0,0,0,0,0,0,0,-1,1042,1254,0,0
-175,-230,0,0,0,0,0,0,0,0,0,-1,1049,1254,0,0
-168,-230,0,0,0,0,0,0,0,0,0,-1,1056,1254,0,0
-161,-230,0,0,0,0,0,0,0,0,0,-1,1063,1254,0,0
-154,-230,0,0,0,0,0,0,0,0,0,-1,1070,1254,0,0
-147,-230,0,0,0,0,0,0,0,0,0,-1,1077,1254,0,0
-140,-230,0,0,0,0,0,0,0,0,0,-1,1084,1254,0,0
-133,-230,0,0,0,0,0,0,0,0,0,-1,1091,1254,0,0
-126,-230,0,0,0,0,0,0,0,0,0,-1,1098,1254,0,0
-119,-230,0,0,0,0,0,0,0,0,0,-1,1105,1254,0,0
-112,-230,0,0,0,0,0,0,0,0,0,-1,1112,1254,0,0
-105,-230,0,0,0,0,0,0,0,0,0,-1,1119,1254,0,0
-98,-230,0,0,0,0,0,0,0,0,0,-1,1126,1254,0,0
-91,-230,0,0,0,0,0,0,0,0,0,-1,1133,1254,0,0
-84,-230,0,0,0,0,0,0,0,0,0,-1,1140,1254,0,0
-77,-230,0,0,0,0,0,0,0,0,0,-1,1147,1254,0,0
-70,-230,0,0,0,0,0,0,0,0,0,-1,1154,1254,0,0
-63,-230,0,0,0,0,0,0,0,0,0,-1,1161,1254,0,0
-56,-230,0,0,0,0,0,0,0,0,0,-1,1168,1254,0,0
-49,-230,0,0,0,0,0,0,0,0,0,-1,1175,1254,0,0
-42,-230,0,0,0,0,0,0,0,0,0,-1,1182,1254,0,0
-35,-230,0,0,0,0,0,0,0,0,0,-1,1189,1254,0,0
-28,-230,0,0,0,0,0,0,0,0,0,-1,1196,1254,0,0
-21,-230,0,0,0,0,0,0,0,0,0,-1,1203,1254,0,0
-14,-230,0,0,0,0,0,0,0,0,0,-1,1210,1254,0,0
-7,-230,0,0,0,0,0,0,0,0,0,-1,1217,1254,0,0
0,-230,0,0,0,0,0,0,0,0,0,-1,1224,1254,0,0
7,-230,0,0,0,0,0,0,0,0,0,-1,1231,1254,0,0
14,-230,0,0,0,0,0,0,0,0,0,-1,1238,1254,0,0
21,-230,0,0,0,0,0,0,0,0,0,-1,1245,1254,0,0
28,-230,0,0,0,0,0,0,0,0,0,-1,1252,1254,0,0
35,-230,0,0,0,0,0,0,0,0,0,-1,1259,1254,0,0
42,-230,0,0,0,0,0,0,0,0,0,-1,1266,1254,0,0
49,-230,0,0,0,0,0,0,0,0,0,-1,1273,1254,0,0
56,-230,0,0,0,0,0,0,0,0,0,-1,1280,1254,0,0
63,-230,0,0,0,0,0,0,0,0,0,-1,1287,1254,0,0
70,-230,0,0,0,0,0,0,0,0,0,-1,1294,1254,0,0
77,-230,0,0,0,0,0,0,0,0,0,-1,1301,1254,0,0
84,-230,0,0,0,0,0,0,0,0,0,-1,1308,1254,0,0
91,-230,0,0,0,0,0,0,0,0,0,-1,1315,1254,0,0
98,-230,0,0,0,0,0,0,0,0,0,-1,1322,1254,0,0
105,-230,0,0,0,0,0,0,0,0,0,-1,1329,1254,0,0
112,-230,0,0,0,0,0,0,0,0,0,-1,1336,1254,0,0
119,-230,0,0,0,0,0,0,0,0,0,-1,1343,1254,0,0
126,-230,0,0,0,0,0,0,0,0,0,-1,1350,1254,0,0
133,-230,0,0,0,0,0,0,0,0,0,-1,1357,1254,0,0
140,-230,0,0,0,0,0,0,0,0,0,-1,1364,1254,0,0
147,-230,0,0,0,0,0,0,0,0,0,-1,1371,1254,0,0
154,-230,0,0,0,0,0,0,0,0,0,-1,1378,1254,0,0
161,-230,0,0,0,0,0,0,0,0,0,-1,1385,1254,0,0
168,-230,0,0,0,0,0,0,0,0,0,-1,1392,1254,0,0
175,-230,0,0,0,0,0,0,0,0,0,-1,1399,1254,0,0
182,-230,0,0,0,0,0,0,0,0,0,-1,1406,1254,0,0
189,-230,0,0,0,0,0,0,0,0,0,-1,1413,1254,0,0
196,-230,0,0,0,0,0,0,0,0,0,-1,1420,1254,0,0
203,-230,0,0,0,0,0,0,0,0,0,-1,1427,1254,0,0
210,-230,0,0,0,0,0,0,0,0,0,-1,1434,1254,0,0
217,-230,0,0,0,0,0,0,0,0,0,-1,1441,1254,0,0
224,-230,0,0,0,0,0,0,0,0,0,-1,1448,1254,0,0
231,-230,0,0,0,0,0,0,0,0,0,-1,1455,1254,0,0
238,-230,0,0,0,0,0,0,0,0,0,-1,1462,1254,0,0
245,-230,0,0,0,0,0,0,0,0,0,-1,1469,1254,0,0
252,-230,0,0,0,0,0,0,0,0,0,-1,1476,1254,0,0
259,-230,0,0,0,0,0,0,0,0,0,-1,1483,1254,0,0
266,-230,0,0,0,0,0,0,0,0,0,-1,1490,1254,0,0
273,-230,0,0,0,0,0,0,0,0,0,-1,1497,1254,0,0
280,-230,0,0,0,0,0,0,0,0,0,-1,1504,1254,0,0
287,-230,0,0,0,0,0,0,0,0,0,-1,1511,1254,0,0
294,-230,0,0,0,0,0,0,0,0,0,-1,1518,1254,0,0
301,-230,0,0,0,0,0,0,0,0,0,-1,1525,1254,0,0
308,-230,0,0,0,0,0,0,0,0,0,-1,1532,1254,0,0
315,-230,0,0,0,0,0,0,0,0,0,-1,1539,1254,0,0
322,-230,0,0,0,0,0,0,0,0,0,-1,1546,1254,0,0
329,-230,0,0,0,0,0,0,0,0,0,-1,1553,1254,0,0
336,-230,0,0,0,0,0,0,0,0,0,-1,1560,1254,0,0
343,-230,0,0,0,0,0,0,0,0,0,-1,1567,1254,0,0
350,-230,0,0,0,0,0,0,0,0,0,-1,1574,1254,0,0
357,-230,0,0,0,0,0,0,0,0,0,-1,1581,1254,0,0
364,-230,0,0,0,0,0,0,0,0,0,-1,1588,1254,0,0
371,-230,0,0,0,0,0,0,0,0,0,-1,1595,1254,0,0
378,-230,0,0,0,0,0,0,0,0,0,-1,1602,1254,0,0
385,-230,0,0,0,0,0,0,0,0,0,-1,1609,1254,0,0
392,-230,0,0,0,0,0,0,0,0,0,-1,1616,1254,0,0
399,-230,0,0,0,0,0,0,0,0,0,-1,1623,1254,0,0
406,-230,0,0,0,0,0,0,0,0,0,-1,1630,1254,0,0
413,-230,0,0,0,0,0,0,0,0,0,-1,1637,1254,0,0
420,-230,0,0,0,0,0,0,0,0,0,-1,1644,1254,0,0
427,-230,0,0,0,0,0,0,0,0,0,-1,1651,1254,0,0
434,-230,0,0,0,0,0,0,0,0,0,-1,1658,1254,0,0
441,-230,0,0,0,0,0,0,0,0,0,-1,1665,1254,0,0
448,-230,0,0,0,0,0,0,0,0,0,-1,1672,1254,0,0
455,-230,0,0,0,0,0,0,0,0,0,-1,1679,1254,0,0
462,-230,0,0,0,0,0,0,0,0,0,-1,1686,1254,0,0
469,-230,0,0,0,0,0,0,0,0,0,-1,1693,1254,0,0
476,-230,0,0,0,0,0,0,0,0,0,-1,1700,1254,0,0
483,-230,0,0,0,0,0,0,0,0,0,-1,1707,1254,0,0
490,-230,0,0,0,0,0,0,0,0,0,-1,1714,1254,0,0
497,-230,0,0,0,0,0,0,0,0,0,-1,1721,1254,0,0
504,-230,0,0,0,0,0,0,0,0,0,-1,1728,1254,0,0
511,-230,0,0,0,0,0,0,0,0,0,-1,1735,1254,0,0
518,-230,0,0,0,0,0,0,0,0,0,-1,1742,1254,0,0
525,-230,0,0,0,0,0,0,0,0,0,-1,1749,1254,0,0
532,-230,0,0,0,0,0,0,0,0,0,-1,1756,1254,0,0
539,-230,0,0,0,0,0,0,0,0,0,-1,1763,1254,0,0
546,-230,0,0,0,0,0,0,0,0,0,-1,1770,1254,0,0
553,-230,0,0,0,0,0,0,0,0,0,-1,1777,1254,0,0
560,-230,0,0,0,0,0,0,0,0,0,-1,1784,1254,0,0
567,-230,0,0,0,0,0,0,0,0,0,-1,1791,1254,0,0
574,-230,0,0,0,0,0,0,0,0,0,-1,1798,1254,0,0
581,-230,0,0,0,0,0,0,0,0,0,-1,1805,1254,0,0
588,-230,0,0,0,0,0,0,0,0,0,-1,1812,1254,0,0
595,-230,0,0,0,0,0,0,0,0,0,-1,1819,1254,0,0
602,-230,0,0,0,0,0,0,0,0,0,-1,1826,1254,0,0
609,-230,0,0,0,0,0,0,0,0,0,-1,1833,1254,0,0
616,-230,15.7455,2.45764,-0.00171816,-0.00713563,-0.00287786,-0.000474769,-0.00837902,-0.407831,0.00543468,0.038785,1840,1254,15.7455,-2.45767
623,-230,15.7188,2.50366,-0.00279451,0.000514783,-0.00123666,0.000925851,-0.00320558,-1.24988,0.0025034,0.0373325,1847,1254,15.7187,-2.50371
630,-230,15.5383,2.3938,-0.004137,0.00863136,0.000398543,0.00864379,-0.00414943,1.53962,0.00753657,0.0316508,1854,1254,15.5383,-2.3938
637,-230,15.48,2.28857,-0.00582388,0.0133066,0.00224172,0.0135658,-0.00608305,1.45569,0.0116152,0.0278717,1861,1254,15.48,-2.28856
644,-230,15.4441,2.2323,-0.00735791,0.0151934,0.00368291,0.0157796,-0.00794413,1.41295,0.0139437,0.0221862,1868,1254,15.4441,-2.23231
651,-230,15.1064,1.83472,-0.00832032,0.0152448,0.00462101,0.0161186,-0.00919408,1.38392,0.0147954,0.0432109,1875,1254,15.1064,-1.83474
658,-230,15.5083,2.42078,-0.00873612,0.0142522,0.00512764,0.0153441,-0.009828,1.36099,0.014649,0.0464741,1882,1254,15.5083,-2.42072
665,-230,15.5966,2.33972,-0.00877269,0.0126979,0.00533608,0.0139509,-0.0100257,1.34015,0.0139046,0.0412996,1889,1254,15.5966,-2.33975
672,-230,15.6876,2.22705,0,0,0,0,0,0,0,-1,1896,1254,15.6876,-2.22706
679,-230,13.889,3.67017,-0.00830513,0.0090076,0.00515652,0.0104271,-0.0097246,1.30217,0.0116369,0.049196,1903,1254,13.889,-3.67015
686,-230,13.6279,4.03406,-0.00789725,0.00727025,0.00510776,0.00882994,-0.00945694,1.27443,0.01056,0.0415559,1910,1254,13.6279,-4.03406
693,-230,13.4768,3.94507,-0.00732904,0.00512991,0.004866,0.00680514,-0.00900427,1.23923,0.00915695,0.0178806,1917,1254,13.4768,-3.94509
700,-230,13.535,3.8407,-0.00644285,0.00322313,0.00413921,0.00475338,-0.0079731,1.21668,0.00742561,0.0103434,1924,1254,13.5351,-3.84073
707,-230,13.5485,3.72034,-0.00506592,0.000972499,0.00316657,0.00232854,-0.00642196,1.16619,0.00523312,0.00918415,1931,1254,13.5485,-3.72033
714,-230,13.55,3.59338,-0.00378159,-0.000609097,0.00214435,0.000471942,-0.00486263,1.10385,0.00340997,0.0120688,1938,1254,13.5501,-3.59344
721,-230,13.5616,3.47253,-0.00277284,-0.000227888,0.00144917,0.000428184,-0.00342891,1.14568,0.00244122,0.0126932,1945,1254,13.5616,-3.47258
728,-230,13.5361,3.38843,-0.00146662,0.000606288,0.00054591,0.000741267,-0.0016016,1.3284,0.00138272,0.0136073,1952,1254,13.5361,-3.38838
735,-230,13.52,3.29663,0.000333534,0.00162232,-0.000816363,0.00201797,-6.21169e-05,-1.1195,0.00136649,0.0138008,1959,1254,13.5201,-3.29661
742,-230,13.5051,3.18958,0.00189616,0.00228839,-0.0021418,0.00424304,-5.84878e-05,-0.831054,0.00284839,0.0113224,1966,1254,13.5052,-3.18961
749,-230,13.5144,3.06348,0.00361387,0.00306878,-0.00361159,0.00696318,-0.000280535,-0.747737,0.0047384,0.0107318,1973,1254,13.5145,-3.06347
756,-230,13.5107,2.95142,0.00569658,0.00373961,-0.0054993,0.0103038,-0.000867571,-0.697355,0.00717587,0.0123142,1980,1254,13.5108,-2.9514
763,-230,13.5189,2.7959,0.00854475,0.00425341,-0.0079948,0.0146768,-0.00187864,-0.654296,0.0104671,0.0227499,1987,1254,13.5189,-2.79585
770,-230,13.5551,2.50903,0.0123973,0.00446703,-0.0112659,0.0203755,-0.00351118,-0.616188,0.0148927,0.0367308,1994,1254,13.5551,-2.50905
777,-230,13.733,2.1261,0.0174006,0.00416618,-0.0154451,0.0275863,-0.00601952,-0.58301,0.0206913,0.0443433,2001,1254,13.733,-2.12613
784,-230,14.1504,1.63843,0.0237866,0.00300981,-0.0207015,0.03656,-0.00976367,-0.552848,0.0281971,0.0486048,2008,1254,14.1503,-1.63842
791,-230,14.3678,1.38416,0,0,0,0,0,0,0,-1,2015,1254,14.3678,-1.38412
798,-230,0,0,0,0,0,0,0,0,0,-1,2022,1254,0,0
805,-230,0,0,0,0,0,0,0,0,0,-1,2029,1254,0,0
812,-230,0,0,0,0,0,0,0,0,0,-1,2036,1254,0,0
-700,-237,0,0,0,0,0,0,0,0,0,-1,524,1261,0,0
-693,-237,0,0,0,0,0,0,0,0,0,-1,531,1261,0,0
-686,-237,0,0,0,0,0,0,0,0,0,-1,538,1261,0,0
-679,-237,0,0,0,0,0,0,0,0,0,-1,545,1261,0,0
-672,-237,-5.56268,4.01526,0.0149296,0.0356646,-0.0721407,0.098179,-0.0475847,-0.856765,0.0858299,0.0458419,552,1261,-5.5627,-4.01526
-665,-237,-5.96167,3.71326,0.00693729,0.014669,-0.0501637,0.0611156,-0.0395092,-0.823855,0.0585405,0.049542,559,1261,-5.9617,-3.71321
-658,-237,-6.45441,3.14868,0.00191594,0.00261841,-0.0342943,0.0365633,-0.032029,-0.790519,0.0396306,0.0465265,566,1261,-6.45438,-3.14872
-651,-237,-6.60626,2.52734,-0.0012153,-0.00392684,-0.0227293,0.0201986,-0.0253407,-0.755609,0.026348,0.045101,573,1261,-6.60628,-2.52733
-644,-237,-6.01459,-0.618896,0,0,0,0,0,0,0,-1,580,1261,-6.01458,0.618902
-637,-237,-6.19415,0.0322266,-0.00380803,-0.0075758,-0.00865979,0.00317042,-0.0145543,-0.678295,0.0109142,0.04866,587,1261,-6.19413,-0.0322542
-630,-237,-6.58191,0.779541,-0.00389147,-0.00688356,-0.00486009,-0.000302379,-0.0104726,-0.636089,0.00688319,0.0434651,594,1261,-6.58188,-0.779509
-623,-237,-6.85791,0.926392,-0.00346203,-0.00553434,-0.0025544,-0.00174163,-0.00725474,-0.592721,0.00437312,0.0264654,601,1261,-6.8579,-0.926419
-616,-237,-6.97412,1.02356,-0.00342557,-0.00639067,0.000273141,-0.00340062,-0.00641563,0.0910971,0.00370629,0.0136449,608,1261,-6.97409,-1.02352
-609,-237,-6.99268,1.14258,-0.00263537,-0.00437157,0.00122752,-0.002,-0.00500693,0.477628,0.00291018,0.0156293,615,1261,-6.99269,-1.14258
-602,-237,-6.97424,1.26282,-0.00110217,-0.00172605,0.00078884,-0.000565831,-0.00226239,0.597114,0.00135948,0.0118876,622,1261,-6.97422,-1.26282
-595,-237,-6.97766,1.40198,0.000669385,-0.000796583,0.000263748,0.000715393,-0.000842591,0.172701,0.000900501,0.0146703,629,1261,-6.97768,-1.40195
-588,-237,-6.96533,1.53601,0.00194456,3.9734e-05,-0.000382497,0.0020185,-3.42031e-05,-0.190946,0.00135721,0.0248151,636,1261,-6.96532,-1.53604
-581,-237,-6.9599,1.69336,0.0028937,8.655e-05,-0.000779728,0.00309574,-0.00011549,-0.25354,0.00210338,0.0232679,643,1261,-6.9599,-1.69341
-574,-237,-6.95148,1.82043,0.00313491,-0.000726232,-0.000512736,0.00320184,-0.000793159,-0.129797,0.00244226,0.0137138,650,1261,-6.9515,-1.82046
-567,-237,-6.92133,1.95435,0.00295579,-0.00224815,-0.000293543,0.0029723,-0.00226465,-0.0561703,0.00303274,0.0131602,657,1261,-6.92135,-1.95438
-560,-237,-6.81415,2.12268,0.00274431,-0.00286179,-0.000591848,0.00280611,-0.00292359,-0.104044,0.00330828,0.0233906,664,1261,-6.81416,-2.12268
-553,-237,-6.7547,2.19055,0.00286366,-0.00338261,-0.00122168,0.0030941,-0.00361305,-0.186436,0.00387623,0.046416,671,1261,-6.75468,-2.19054
-546,-237,-6.67316,2.29224,0,0,0,0,0,0,0,-1,678,1261,-6.67315,-2.29221
-539,-237,-9.43011,0.457275,0,0,0,0,0,0,0,-1,685,1261,-9.43011,-0.457295
-532,-237,-9.30701,0.486572,0.00337891,-0.00380929,-0.00416639,0.00528721,-0.00571758,-0.429505,0.00635524,0.0470944,692,1261,-9.30698,-0.486537
-525,-237,-9.13715,0.555176,0.00371669,-0.00353328,-0.00558348,0.00674872,-0.0065653,-0.49748,0.0076871,0.0469687,699,1261,-9.13716,-0.555119
-518,-237,-9.24237,0.567627,0.00421091,-0.00257952,-0.00725009,0.00882139,-0.00719001,-0.566414,0.00926017,0.0409423,706,1261,-9.24239,-0.567575
-511,-237,-9.28705,0.548096,0.0049521,-0.000531032,-0.00910075,0.0117153,-0.00729419,-0.639098,0.0110736,0.0385187,713,1261,-9.28704,-0.548155
-504,-237,-9.57806,0.801514,0.00590493,0.00359063,-0.0105978,0.0154086,-0.00591302,-0.73102,0.0127104,0.0395204,720,1261,-9.57806,-0.801478
-497,-237,-9.58099,0.84668,0.00639882,0.0103479,-0.010833,0.0193849,-0.00263817,-0.875543,0.0138864,0.0459925,727,1261,-9.58102,-0.846739
-490,-237,0,0,0,0,0,0,0,0,0,-1,734,1261,0,0
-483,-237,0,0,0,0,0,0,0,0,0,-1,741,1261,0,0
-476,-237,0,0,0,0,0,0,0,0,0,-1,748,1261,0,0
-469,-237,0,0,0,0,0,0,0,0,0,-1,755,1261,0,0
-462,-237,0,0,0,0,0,0,0,0,0,-1,762,1261,0,0
-455,-237,0,0,0,0,0,0,0,0,0,-1,769,1261,0,0
-448,-237,0,0,0,0,0,0,0,0,0,-1,776,1261,0,0
-441,-237,0,0,0,0,0,0,0,0,0,-1,783,1261,0,0
-434,-237,0,0,0,0,0,0,0,0,0,-1,790,1261,0,0
-427,-237,0,0,0,0,0,0,0,0,0,-1,797,1261,0,0
-420,-237,0,0,0,0,0,0,0,0,0,-1,804,1261,0,0
-413,-237,0,0,0,0,0,0,0,0,0,-1,811,1261,0,0
-406,-237,0,0,0,0,0,0,0,0,0,-1,818,1261,0,0
-399,-237,0,0,0,0,0,0,0,0,0,-1,825,1261,0,0
-392,-237,0,0,0,0,0,0,0,0,0,-1,832,1261,0,0
-385,-237,0,0,0,0,0,0,0,0,0,-1,839,1261,0,0
-378,-237,0,0,0,0,0,0,0,0,0,-1,846,1261,0,0
-371,-237,0,0,0,0,0,0,0,0,0,-1,853,1261,0,0
-364,-237,0,0,0,0,0,0,0,0,0,-1,860,1261,0,0
-357,-237,0,0,0,0,0,0,0,0,0,-1,867,1261,0,0
-350,-237,0,0,0,0,0,0,0,0,0,-1,874,1261,0,0
-343,-237,0,0,0,0,0,0,0,0,0,-1,881,1261,0,0
-336,-237,0,0,0,0,0,0,0,0,0,-1,888,1261,0,0
-329,-237,0,0,0,0,0,0,0,0,0,-1,895,1261,0,0
-322,-237,0,0,0,0,0,0,0,0,0,-1,902,1261,0,0
-315,-237,0,0,0,0,0,0,0,0,0,-1,909,1261,0,0
-308,-237,0,0,0,0,0,0,0,0,0,-1,916,1261,0,0
-301,-237,0,0,0,0,0,0,0,0,0,-1,923,1261,0,0
-294,-237,0,0,0,0,0,0,0,0,0,-1,930,1261,0,0
-287,-237,0,0,0,0,0,0,0,0,0,-1,937,1261,0,0
-280,-237,0,0,0,0,0,0,0,0,0,-1,944,1261,0,0
-273,-237,0,0,0,0,0,0,0,0,0,-1,951,1261,0,0
-266,-237,0,0,0,0,0,0,0,0,0,-1,958,1261,0,0
-259,-237,0,0,0,0,0,0,0,0,0,-1,965,1261,0,0
-252,-237,0,0,0,0,0,0,0,0,0,-1,972,1261,0,0
-245,-237,0,0,0,0,0,0,0,0,0,-1,979,1261,0,0
-238,-237,0,0,0,0,0,0,0,0,0,-1,986,1261,0,0
-231,-237,0,0,0,0,0,0,0,0,0,-1,993,1261,0,0
-224,-237,0,0,0,0,0,0,0,0,0,-1,1000,1261,0,0
-217,-237,0,0,0,0,0,0,0,0,0,-1,1007,1261,0,0
-210,-237,0,0,0,0,0,0,0,0,0,-1,1014,1261,0,0
-203,-237,0,0,0,0,0,0,0,0,0,-1,1021,1261,0,0
-196,-237,0,0,0,0,0,0,0,0,0,-1,1028,1261,0,0
-189,-237,0,0,0,0,0,0,0,0,0,-1,1035,1261,0,0
-182,-237,0,0,0,0,0,0,0,0,0,-1,1042,1261,0,0
-175,-237,0,0,0,0,0,0,0,0,0,-1,1049,1261,0,0
-168,-237,0,0,0,0,0,0,0,0,0,-1,1056,1261,0,0
-161,-237,0,0,0,0,0,0,0,0,0,-1,1063,1261,0,0
-154,-237,0,0,0,0,0,0,0,0,0,-1,1070,1261,0,0
-147,-237,0,0,0,0,0,0,0,0,0,-1,1077,1261,0,0
-140,-237,0,0,0,0,0,0,0,0,0,-1,1084,1261,0,0
-133,-237,0,0,0,0,0,0,0,0,0,-1,1091,1261,0,0
-126,-237,0,0,0,0,0,0,0,0,0,-1,1098,1261,0,0
-119,-237,0,0,0,0,0,0,0,0,0,-1,1105,1261,0,0
-112,-237,0,0,0,0,0,0,0,0,0,-1,1112,1261,0,0
-105,-237,0,0,0,0,0,0,0,0,0,-1,1119,1261,0,0
-98,-237,0,0,0,0,0,0,0,0,0,-1,1126,1261,0,0
-91,-237,0,0,0,0,0,0,0,0,0,-1,1133,1261,0,0
-84,-237,0,0,0,0,0,0,0,0,0,-1,1140,1261,0,0
-77,-237,0,0,0,0,0,0,0,0,0,-1,1147,1261,0,0
-70,-237,0,0,0,0,0,0,0,0,0,-1,1154,1261,0,0
-63,-237,0,0,0,0,0,0,0,0,0,-1,1161,1261,0,0
-56,-237,0,0,0,0,0,0,0,0,0,-1,1168,1261,0,0
-49,-237,0,0,0,0,0,0,0,0,0,-1,1175,1261,0,0
-42,-237,0,0,0,0,0,0,0,0,0,-1,1182,1261,0,0
-35,-237,0,0,0,0,0,0,0,0,0,-1,1189,1261,0,0
-28,-237,0,0,0,0,0,0,0,0,0,-1,1196,1261,0,0
-21,-237,0,0,0,0,0,0,0,0,0,-1,1203,1261,0,0
-14,-237,0,0,0,0,0,0,0,0,0,-1,1210,1261,0,0
-7,-237,0,0,0,0,0,0,0,0,0,-1,1217,1261,0,0
0,-237,0,0,0,0,0,0,0,0,0,-1,1224,1261,0,0
7,-237,0,0,0,0,0,0,0,0,0,-1,1231,1261,0,0
14,-237,0,0,0,0,0,0,0,0,0,-1,1238,1261,0,0
21,-237,0,0,0,0,0,0,0,0,0,-1,1245,1261,0,0
28,-237,0,0,0,0,0,0,0,0,0,-1,1252,1261,0,0
35,-237,0,0,0,0,0,0,0,0,0,-1,1259,1261,0,0
42,-237,0,0,0,0,0,0,0,0,0,-1,1266,1261,0,0
49,-237,0,0,0,0,0,0,0,0,0,-1,1273,1261,0,0
56,-237,0,0,0,0,0,0,0,0,0,-1,1280,1261,0,0
63,-237,0,0,0,0,0,0,0,0,0,-1,1287,1261,0,0
70,-237,0,0,0,0,0,0,0,0,0,-1,1294,1261,0,0
77,-237,0,0,0,0,0,0,0,0,0,-1,1301,1261,0,0
84,-237,0,0,0,0,0,0,0,0,0,-1,1308,1261,0,0
91,-237,0,0,0,0,0,0,0,0,0,-1,1315,1261,0,0
98,-237,0,0,0,0,0,0,0,0,0,-1,1322,1261,0,0
105,-237,0,0,0,0,0,0,0,0,0,-1,1329,1261,0,0
112,-237,0,0,0,0,0,0,0,0,0,-1,1336,1261,0,0
119,-237,0,0,0,0,0,0,0,0,0,-1,1343,1261,0,0
126,-237,0,0,0,0,0,0,0,0,0,-1,1350,1261,0,0
133,-237,0,0,0,0,0,0,0,0,0,-1,1357,1261,0,0
140,-237,0,0,0,0,0,0,0,0,0,-1,1364,1261,0,0
147,-237,0,0,0,0,0,0,0,0,0,-1,1371,1261,0,0
154,-237,0,0,0,0,0,0,0,0,0,-1,1378,1261,0,0
161,-237,0,0,0,0,0,0,0,0,0,-1,1385,1261,0,0
168,-237,0,0,0,0,0,0,0,0,0,-1,1392,1261,0,0
175,-237,0,0,0,0,0,0,0,0,0,-1,1399,1261,0,0
182,-237,0,0,0,0,0,0,0,0,0,-1,1406,1261,0,0
189,-237,0,0,0,0,0,0,0,0,0,-1,1413,1261,0,0
196,-237,0,0,0,0,0,0,0,0,0,-1,1420,1261,0,0
203,-237,0,0,0,0,0,0,0,0,0,-1,1427,1261,0,0
210,-237,0,0,0,0,0,0,0,0,0,-1,1434,1261,0,0
217,-237,0,0,0,0,0,0,0,0,0,-1,1441,1261,0,0
224,-237,0,0,0,0,0,0,0,0,0,-1,1448,1261,0,0
231,-237,0,0,0,0,0,0,0,0,0,-1,1455,1261,0,0
238,-237,0,0,0,0,0,0,0,0,0,-1,1462,1261,0,0
245,-237,0,0,0,0,0,0,0,0,0,-1,1469,1261,0,0
252,-237,0,0,0,0,0,0,0,0,0,-1,1476,1261,0,0
259,-237,0,0,0,0,0,0,0,0,0,-1,1483,1261,0,0
266,-237,0,0,0,0,0,0,0,0,0,-1,1490,1261,0,0
273,-237,0,0,0,0,0,0,0,0,0,-1,1497,1261,0,0
280,-237,0,0,0,0,0,0,0,0,0,-1,1504,1261,0,0
287,-237,0,0,0,0,0,0,0,0,0,-1,1511,1261,0,0
294,-237,0,0,0,0,0,0,0,0,0,-1,1518,1261,0,0
301,-237,0,0,0,0,0,0,0,0,0,-1,1525,1261,0,0
308,-237,0,0,0,0,0,0,0,0,0,-1,1532,1261,0,0
315,-237,0,0,0,0,0,0,0,0,0,-1,1539,1261,0,0
322,-237,0,0,0,0,0,0,0,0,0,-1,1546,1261,0,0
329,-237,0,0,0,0,0,0,0,0,0,-1,1553,1261,0,0
336,-237,0,0,0,0,0,0,0,0,0,-1,1560,1261,0,0
343,-237,0,0,0,0,0,0,0,0,0,-1,1567,1261,0,0
350,-237,0,0,0,0,0,0,0,0,0,-1,1574,1261,0,0
357,-237,0,0,0,0,0,0,0,0,0,-1,1581,1261,0,0
364,-237,0,0,0,0,0,0,0,0,0,-1,1588,1261,0,0
371,-237,0,0,0,0,0,0,0,0,0,-1,1595,1261,0,0
378,-237,0,0,0,0,0,0,0,0,0,-1,1602,1261,0,0
385,-237,0,0,0,0,0,0,0,0,0,-1,1609,1261,0,0
392,-237,0,0,0,0,0,0,0,0,0,-1,1616,1261,0,0
399,-237,0,0,0,0,0,0,0,0,0,-1,1623,1261,0,0
406,-237,0,0,0,0,0,0,0,0,0,-1,1630,1261,0,0
413,-237,0,0,0,0,0,0,0,0,0,-1,1637,1261,0,0
420,-237,0,0,0,0,0,0,0,0,0,-1,1644,1261,0,0
427,-237,0,0,0,0,0,0,0,0,0,-1,1651,1261,0,0
434,-237,0,0,0,0,0,0,0,0,0,-1,1658,1261,0,0
441,-237,0,0,0,0,0,0,0,0,0,-1,1665,1261,0,0
448,-237,0,0,0,0,0,0,0,0,0,-1,1672,1261,0,0
455,-237,0,0,0,0,0,0,0,0,0,-1,1679,1261,0,0
462,-237,0,0,0,0,0,0,0,0,0,-1,1686,1261,0,0
469,-237,0,0,0,0,0,0,0,0,0,-1,1693,1261,0,0
476,-237,0,0,0,0,0,0,0,0,0,-1,1700,1261,0,0
483,-237,0,0,0,0,0,0,0,0,0,-1,1707,1261,0,0
490,-237,0,0,0,0,0,0,0,0,0,-1,1714,1261,0,0
497,-237,0,0,0,0,0,0,0,0,0,-1,1721,1261,0,0
504,-237,0,0,0,0,0,0,0,0,0,-1,1728,1261,0,0
511,-237,0,0,0,0,0,0,0,0,0,-1,1735,1261,0,0
518,-237,0,0,0,0,0,0,0,0,0,-1,1742,1261,0,0
525,-237,0,0,0,0,0,0,0,0,0,-1,1749,1261,0,0
532,-237,0,0,0,0,0,0,0,0,0,-1,1756,1261,0,0
539,-237,0,0,0,0,0,0,0,0,0,-1,1763,1261,0,0
546,-237,0,0,0,0,0,0,0,0,0,-1,1770,1261,0,0
553,-237,0,0,0,0,0,0,0,0,0,-1,1777,1261,0,0
560,-237,0,0,0,0,0,0,0,0,0,-1,1784,1261,0,0
567,-237,0,0,0,0,0,0,0,0,0,-1,1791,1261,0,0
574,-237,0,0,0,0,0,0,0,0,0,-1,1798,1261,0,0
581,-237,0,0,0,0,0,0,0,0,0,-1,1805,1261,0,0
588,-237,0,0,0,0,0,0,0,0,0,-1,1812,1261,0,0
595,-237,0,0,0,0,0,0,0,0,0,-1,1819,1261,0,0
602,-237,0,0,0,0,0,0,0,0,0,-1,1826,1261,0,0
609,-237,0,0,0,0,0,0,0,0,0,-1,1833,1261,0,0
616,-237,15.6749,2.32275,-0.00241326,-0.00404471,-0.00293735,-0.000180473,-0.0062775,-0.649957,0.00412616,0.0365372,1840,1261,15.6749,-2.32275
623,-237,15.6677,2.40125,-0.00349155,0.00403588,-0.000966777,0.00415806,-0.00361373,-1.44508,0.00449071,0.0309605,1847,1261,15.6677,-2.40124
630,-237,15.5817,2.38916,-0.00510397,0.0115696,0.000961967,0.0116249,-0.00515928,1.51336,0.00992715,0.0252436,1854,1261,15.5817,-2.38916
637,-237,15.4928,2.26807,-0.00693192,0.0156845,0.00282872,0.0160329,-0.00728035,1.44824,0.0137725,0.0234329,1861,1261,15.4928,-2.26805
644,-237,15.2313,2.01538,-0.00842776,0.0171889,0.0041688,0.0178502,-0.00908911,1.41347,0.0158252,0.0451413,1868,1261,15.2313,-2.01536
651,-237,14.7478,1.2804,-0.00927036,0.0170596,0.00500776,0.0179799,-0.0101906,1.38905,0.0164702,0.0473517,1875,1261,14.7478,-1.28037
658,-237,13.8961,0.825073,-0.00959589,0.0159618,0.00544068,0.0170718,-0.0107059,1.36954,0.0161772,0.0455734,1882,1261,13.8961,-0.825128
665,-237,15.1188,2.19934,0,0,0,0,0,0,0,-1,1889,1261,15.1188,-2.19939
672,-237,14.0145,3.3866,0,0,0,0,0,0,0,-1,1896,1261,14.0145,-3.38659
679,-237,13.8729,3.71118,-0.00892046,0.0103498,0.00531637,0.0117192,-0.0102899,1.3187,0.0127158,0.0467656,1903,1261,13.8729,-3.71123
686,-237,13.5576,4.10315,-0.00840326,0.00843653,0.00524637,0.00993727,-0.009904,1.29218,0.0114554,0.0292944,1910,1261,13.5576,-4.10309
693,-237,13.3827,3.96985,-0.00764092,0.00596035,0.00493012,0.0075594,-0.00923997,1.25716,0.00971528,0.0145535,1917,1261,13.3826,-3.96979
700,-237,13.4053,3.85645,-0.00649435,0.00385407,0.00401402,0.00522851,-0.00786879,1.2409,0.00761277,0.00969334,1924,1261,13.4053,-3.85648
707,-237,13.4202,3.73901,-0.00477692,0.00137827,0.00293976,0.0025567,-0.00595536,1.18955,0.00504333,0.00900895,1931,1261,13.4201,-3.73905
714,-237,13.4144,3.60852,-0.00326537,-0.000342413,0.0018705,0.000569861,-0.00417764,1.11702,0.00299319,0.0127469,1938,1261,13.4144,-3.60854
721,-237,13.4233,3.48352,-0.00208495,5.23849e-05,0.00114343,0.000548802,-0.00258136,1.1612,0.00193003,0.0147603,1945,1261,13.4233,-3.48351
728,-237,13.4471,3.38599,-0.000724664,0.00101842,0.000242138,0.00105143,-0.000757675,1.4353,0.00104907,0.0138168,1952,1261,13.4471,-3.38593
735,-237,13.4076,3.29004,0.00113011,0.00220453,-0.00109007,0.00288257,0.000452068,-1.01434,0.00179016,0.0178265,1959,1261,13.4076,-3.29009
742,-237,13.4049,3.20471,0.00270523,0.00309329,-0.00236548,0.00527269,0.000525836,-0.82632,0.00335362,0.0142939,1966,1261,13.4049,-3.20473
749,-237,13.4061,3.08313,0.00444802,0.00417507,-0.00379284,0.00810684,0.00051625,-0.767414,0.00524096,0.00982749,1973,1261,13.4061,-3.08315
756,-237,13.3677,2.9458,0.00664022,0.0052807,-0.00565198,0.0116532,0.000267745,-0.725551,0.00768109,0.0128399,1980,1261,13.3677,-2.94585
763,-237,13.3008,2.72241,0.00965835,0.00638109,-0.00810969,0.0162933,-0.000253863,-0.685711,0.0109478,0.0268968,1987,1261,13.3008,-2.72246
770,-237,13.2493,2.43982,0.013689,0.00736658,-0.0113008,0.0222624,-0.00120681,-0.649017,0.0152598,0.0399777,1994,1261,13.2493,-2.43981
777,-237,13.4805,1.9397,0.0188656,0.00807217,-0.0153246,0.029716,-0.00277819,-0.616099,0.0207986,0.0423814,2001,1261,13.4805,-1.93975
784,-237,13.7742,1.51807,0.0253915,0.00821752,-0.0202944,0.0388408,-0.00523178,-0.585259,0.0278024,0.0485987,2008,1261,13.7742,-1.51809
791,-237,14.0693,1.12061,0,0,0,0,0,0,0,-1,2015,1261,14.0693,-1.12066
798,-237,0,0,0,0,0,0,0,0,0,-1,2022,1261,0,0
805,-237,0,0,0,0,0,0,0,0,0,-1,2029,1261,0,0
812,-237,0,0,0,0,0,0,0,0,0,-1,2036,1261,0,0
-700,-244,0,0,0,0,0,0,0,0,0,-1,524,1268,0,0
-693,-244,0,0,0,0,0,0,0,0,0,-1,531,1268,0,0
-686,-244,0,0,0,0,0,0,0,0,0,-1,538,1268,0,0
-679,-244,0,0,0,0,0,0,0,0,0,-1,545,1268,0,0
-672,-244,-5.25873,3.24719,0.00198762,0.0306807,-0.0699367,0.0877272,-0.0550589,-0.886563,0.0831537,0.0455095,552,1268,-5.25874,-3.24719
-665,-244,-5.61261,2.97485,-0.00324934,0.00951487,-0.0484238,0.0519753,-0.0457098,-0.850919,0.0564371,0.0488363,559,1268,-5.61263,-2.97489
-658,-244,-5.71515,2.77588,0,0,0,0,0,0,0,-1,566,1268,-5.71513,-2.77585
-651,-244,-6.01062,3.07739,0,0,0,0,0,0,0,-1,573,1268,-6.01064,-3.07744
-644,-244,-5.99719,-0.7771,-0.00744046,-0.00966348,-0.0136074,0.00510079,-0.0222047,-0.744647,0.0167641,0.0443879,580,1268,-5.9972,0.777065
-637,-244,-6.15143,0.0330811,-0.00693535,-0.00942658,-0.00802961,-5.53168e-05,-0.0163066,-0.708448,0.0108527,0.0455491,587,1268,-6.15141,-0.0330696
-630,-244,-6.70264,0.848999,-0.00596831,-0.00792812,-0.00437406,-0.00246573,-0.0114307,-0.675204,0.006946,0.0431478,594,1268,-6.70264,-0.849028
-623,-244,-6.81256,0.970215,-0.00475505,-0.00593118,-0.00216017,-0.00310434,-0.0075819,-0.652503,0.00440128,0.0307828,601,1268,-6.81256,-0.97017
-616,-244,-6.85626,1.02087,-0.00406287,-0.00622721,0.000522578,-0.0039433,-0.00634678,0.224936,0.00370009,0.0160737,608,1268,-6.85627,-1.02091
-609,-244,-6.82507,1.11877,-0.00283498,-0.00404161,0.00141437,-0.00190062,-0.00497597,0.583803,0.00289944,0.0140696,615,1268,-6.82509,-1.11877
-602,-244,-6.86304,1.25989,-0.00119762,-0.00123834,0.00106962,-0.000148165,-0.00228779,0.775883,0.00147828,0.014473,622,1268,-6.86305,-1.25992
-595,-244,-6.83649,1.39514,0.000435424,-0.00018731,0.000644726,0.000840033,-0.000591919,0.560443,0.000830864,0.0160289,629,1268,-6.83649,-1.39519
-588,-244,-6.83344,1.53101,0.00161339,0.000670644,3.5367e-05,0.00161471,0.000669319,0.0374449,0.000936785,0.0210768,636,1268,-6.83342,-1.53096
-581,-244,-6.82458,1.68677,0.00252404,0.000461131,-0.000333239,0.00257653,0.000408636,-0.156246,0.00159898,0.0180828,643,1268,-6.82457,-1.68677
-574,-244,-6.81293,1.83301,0.00279942,-0.000629743,-5.50541e-05,0.00280031,-0.000630626,-0.0160492,0.00210875,0.0119178,650,1268,-6.81295,-1.83305
-567,-244,-6.80859,1.96924,0.00268048,-0.00241662,7.05156e-05,0.00268145,-0.0024176,0.0138309,0.00294525,0.0092438,657,1268,-6.80858,-1.9692
-560,-244,-6.78705,2.0968,0.00274297,-0.00320722,-0.000551117,0.00279359,-0.00325784,-0.0915835,0.00349722,0.0131761,664,1268,-6.78703,-2.09678
-553,-244,-6.69287,2.24609,0.00333836,-0.0037743,-0.0016552,0.00370468,-0.00414062,-0.217804,0.00453181,0.0358869,671,1268,-6.69285,-2.24611
-546,-244,-6.52545,2.37598,0,0,0,0,0,0,0,-1,678,1268,-6.52546,-2.37601
-539,-244,-7.14038,-0.97168,0,0,0,0,0,0,0,-1,685,1268,-7.1404,0.971713
-532,-244,-9.04211,0.716187,0,0,0,0,0,0,0,-1,692,1268,-9.04209,-0.716233
-525,-244,-9.11884,0.754028,0.00727109,-0.00386797,-0.00854166,0.0118986,-0.00849548,-0.496493,0.011829,0.0473846,699,1268,-9.11884,-0.753993
-518,-244,-9.18011,0.715332,0.00891475,-0.00280312,-0.0111734,0.0156721,-0.0095605,-0.543923,0.0147098,0.0431737,706,1268,-9.18013,-0.715341
-511,-244,-9.33215,0.691284,0.0109021,-0.000572214,-0.0141603,0.0204434,-0.0101135,-0.592926,0.0179749,0.0447635,713,1268,-9.33216,-0.691303
-504,-244,-9.44226,0.737427,0.0132026,0.00374078,-0.0171055,0.0262194,-0.00927598,-0.650484,0.0212573,0.0445867,720,1268,-9.44228,-0.737423
-497,-244,-9.45081,0.78479,0.0149683,0.0109798,-0.0190207,0.032099,-0.00615097,-0.733165,0.0237171,0.0438067,727,1268,-9.45082,-0.784766
-490,-244,0,0,0,0,0,0,0,0,0,-1,734,1268,0,0
-483,-244,0,0,0,0,0,0,0,0,0,-1,741,1268,0,0
-476,-244,0,0,0,0,0,0,0,0,0,-1,748,1268,0,0
-469,-244,0,0,0,0,0,0,0,0,0,-1,755,1268,0,0
-462,-244,0,0,0,0,0,0,0,0,0,-1,762,1268,0,0
-455,-244,0,0,0,0,0,0,0,0,0,-1,769,1268,0,0
-448,-244,0,0,0,0,0,0,0,0,0,-1,776,1268,0,0
-441,-244,0,0,0,0,0,0,0,0,0,-1,783,1268,0,0
-434,-244,0,0,0,0,0,0,0,0,0,-1,790,1268,0,0
-427,-244,0,0,0,0,0,0,0,0,0,-1,797,1268,0,0
-420,-244,0,0,0,0,0,0,0,0,0,-1,804,1268,0,0
-413,-244,0,0,0,0,0,0,0,0,0,-1,811,1268,0,0
-406,-244,0,0,0,0,0,0,0,0,0,-1,818,1268,0,0
-399,-244,0,0,0,0,0,0,0,0,0,-1,825,1268,0,0
-392,-244,0,0,0,0,0,0,0,0,0,-1,832,1268,0,0
-385,-244,0,0,0,0,0,0,0,0,0,-1,839,1268,0,0
-378,-244,0,0,0,0,0,0,0,0,0,-1,846,1268,0,0
-371,-244,0,0,0,0,0,0,0,0,0,-1,853,1268,0,0
-364,-244,0,0,0,0,0,0,0,0,0,-1,860,1268,0,0
-357,-244,0,0,0,0,0,0,0,0,0,-1,867,1268,0,0
-350,-244,0,0,0,0,0,0,0,0,0,-1,874,1268,0,0
-343,-244,0,0,0,0,0,0,0,0,0,-1,881,1268,0,0
-336,-244,0,0,0,0,0,0,0,0,0,-1,888,1268,0,0
-329,-244,0,0,0,0,0,0,0,0,0,-1,895,1268,0,0
-322,-244,0,0,0,0,0,0,0,0,0,-1,902,1268,0,0
-315,-244,0,0,0,0,0,0,0,0,0,-1,909,1268,0,0
-308,-244,0,0,0,0,0,0,0,0,0,-1,916,1268,0,0
-301,-244,0,0,0,0,0,0,0,0,0,-1,923,1268,0,0
-294,-244,0,0,0,0,0,0,0,0,0,-1,930,1268,0,0
-287,-244,0,0,0,0,0,0,0,0,0,-1,937,1268,0,0
-280,-244,0,0,0,0,0,0,0,0,0,-1,944,1268,0,0
-273,-244,0,0,0,0,0,0,0,0,0,-1,951,1268,0,0
-266,-244,0,0,0,0,0,0,0,0,0,-1,958,1268,0,0
-259,-244,0,0,0,0,0,0,0,0,0,-1,965,1268,0,0
-252,-244,0,0,0,0,0,0,0,0,0,-1,972,1268,0,0
-245,-244,0,0,0,0,0,0,0,0,0,-1,979,1268,0,0
-238,-244,0,0,0,0,0,0,0,0,0,-1,986,1268,0,0
-231,-244,0,0,0,0,0,0,0,0,0,-1,993,1268,0,0
-224,-244,0,0,0,0,0,0,0,0,0,-1,1000,1268,0,0
-217,-244,0,0,0,0,0,0,0,0,0,-1,1007,1268,0,0
-210,-244,0,0,0,0,0,0,0,0,0,-1,1014,1268,0,0
-203,-244,0,0,0,0,0,0,0,0,0,-1,1021,1268,0,0
-196,-244,0,0,0,0,0,0,0,0,0,-1,1028,1268,0,0
-189,-244,0,0,0,0,0,0,0,0,0,-1,1035,1268,0,0
-182,-244,0,0,0,0,0,0,0,0,0,-1,1042,1268,0,0
-175,-244,0,0,0,0,0,0,0,0,0,-1,1049,1268,0,0
-168,-244,0,0,0,0,0,0,0,0,0,-1,1056,1268,0,0
-161,-244,0,0,0,0,0,0,0,0,0,-1,1063,1268,0,0
-154,-244,0,0,0,0,0,0,0,0,0,-1,1070,1268,0,0
-147,-244,0,0,0,0,0,0,0,0,0,-1,1077,1268,0,0
-140,-244,0,0,0,0,0,0,0,0,0,-1,1084,1268,0,0
-133,-244,0,0,0,0,0,0,0,0,0,-1,1091,1268,0,0
-126,-244,0,0,0,0,0,0,0,0,0,-1,1098,1268,0,0
-119,-244,0,0,0,0,0,0,0,0,0,-1,1105,1268,0,0
-112,-244,0,0,0,0,0,0,0,0,0,-1,1112,1268,0,0
-105,-244,0,0,0,0,0,0,0,0,0,-1,1119,1268,0,0
-98,-244,0,0,0,0,0,0,0,0,0,-1,1126,1268,0,0
-91,-244,0,0,0,0,0,0,0,0,0,-1,1133,1268,0,0
-84,-244,0,0,0,0,0,0,0,0,0,-1,1140,1268,0,0
-77,-244,0,0,0,0,0,0,0,0,0,-1,1147,1268,0,0
-70,-244,0,0,0,0,0,0,0,0,0,-1,1154,1268,0,0
-63,-244,0,0,0,0,0,0,0,0,0,-1,1161,1268,0,0
-56,-244,0,0,0,0,0,0,0,0,0,-1,1168,1268,0,0
-49,-244,0,0,0,0,0,0,0,0,0,-1,1175,1268,0,0
-42,-244,0,0,0,0,0,0,0,0,0,-1,1182,1268,0,0
-35,-244,0,0,0,0,0,0,0,0,0,-1,1189,1268,0,0
-28,-244,0,0,0,0,0,0,0,0,0,-1,1196,1268,0,0
-21,-244,0,0,0,0,0,0,0,0,0,-1,1203,1268,0,0
-14,-244,0,0,0,0,0,0,0,0,0,-1,1210,1268,0,0
-7,-244,0,0,0,0,0,0,0,0,0,-1,1217,1268,0,0
0,-244,0,0,0,0,0,0,0,0,0,-1,1224,1268,0,0
7,-244,0,0,0,0,0,0,0,0,0,-1,1231,1268,0,0
14,-244,0,0,0,0,0,0,0,0,0,-1,1238,1268,0,0
21,-244,0,0,0,0,0,0,0,0,0,-1,1245,1268,0,0
28,-244,0,0,0,0,0,0,0,0,0,-1,1252,1268,0,0
35,-244,0,0,0,0,0,0,0,0,0,-1,1259,1268,0,0
42,-244,0,0,0,0,0,0,0,0,0,-1,1266,1268,0,0
49,-244,0,0,0,0,0,0,0,0,0,-1,1273,1268,0,0
56,-244,0,0,0,0,0,0,0,0,0,-1,1280,1268,0,0
63,-244,0,0,0,0,0,0,0,0,0,-1,1287,1268,0,0
70,-244,0,0,0,0,0,0,0,0,0,-1,1294,1268,0,0
77,-244,0,0,0,0,0,0,0,0,0,-1,1301,1268,0,0
84,-244,0,0,0,0,0,0,0,0,0,-1,1308,1268,0,0
91,-244,0,0,0,0,0,0,0,0,0,-1,1315,1268,0,0
98,-244,0,0,0,0,0,0,0,0,0,-1,1322,1268,0,0
105,-244,0,0,0,0,0,0,0,0,0,-1,1329,1268,0,0
112,-244,0,0,0,0,0,0,0,0,0,-1,1336,1268,0,0
119,-244,0,0,0,0,0,0,0,0,0,-1,1343,1268,0,0
126,-244,0,0,0,0,0,0,0,0,0,-1,1350,1268,0,0
133,-244,0,0,0,0,0,0,0,0,0,-1,1357,1268,0,0
140,-244,0,0,0,0,0,0,0,0,0,-1,1364,1268,0,0
147,-244,0,0,0,0,0,0,0,0,0,-1,1371,1268,0,0
154,-244,0,0,0,0,0,0,0,0,0,-1,1378,1268,0,0
161,-244,0,0,0,0,0,0,0,0,0,-1,1385,1268,0,0
168,-244,0,0,0,0,0,0,0,0,0,-1,1392,1268,0,0
175,-244,0,0,0,0,0,0,0,0,0,-1,1399,1268,0,0
182,-244,0,0,0,0,0,0,0,0,0,-1,1406,1268,0,0
189,-244,0,0,0,0,0,0,0,0,0,-1,1413,1268,0,0
196,-244,0,0,0,0,0,0,0,0,0,-1,1420,1268,0,0
203,-244,0,0,0,0,0,0,0,0,0,-1,1427,1268,0,0
210,-244,0,0,0,0,0,0,0,0,0,-1,1434,1268,0,0
217,-244,0,0,0,0,0,0,0,0,0,-1,1441,1268,0,0
224,-244,0,0,0,0,0,0,0,0,0,-1,1448,1268,0,0
231,-244,0,0,0,0,0,0,0,0,0,-1,1455,1268,0,0
238,-244,0,0,0,0,0,0,0,0,0,-1,1462,1268,0,0
245,-244,0,0,0,0,0,0,0,0,0,-1,1469,1268,0,0
252,-244,0,0,0,0,0,0,0,0,0,-1,1476,1268,0,0
259,-244,0,0,0,0,0,0,0,0,0,-1,1483,1268,0,0
266,-244,0,0,0,0,0,0,0,0,0,-1,1490,1268,0,0
273,-244,0,0,0,0,0,0,0,0,0,-1,1497,1268,0,0
280,-244,0,0,0,0,0,0,0,0,0,-1,1504,1268,0,0
287,-244,0,0,0,0,0,0,0,0,0,-1,1511,1268,0,0
294,-244,0,0,0,0,0,0,0,0,0,-1,1518,1268,0,0
301,-244,0,0,0,0,0,0,0,0,0,-1,1525,1268,0,0
308,-244,0,0,0,0,0,0,0,0,0,-1,1532,1268,0,0
315,-244,0,0,0,0,0,0,0,0,0,-1,1539,1268,0,0
322,-244,0,0,0,0,0,0,0,0,0,-1,1546,1268,0,0
329,-244,0,0,0,0,0,0,0,0,0,-1,1553,1268,0,0
336,-244,0,0,0,0,0,0,0,0,0,-1,1560,1268,0,0
343,-244,0,0,0,0,0,0,0,0,0,-1,1567,1268,0,0
350,-244,0,0,0,0,0,0,0,0,0,-1,1574,1268,0,0
357,-244,0,0,0,0,0,0,0,0,0,-1,1581,1268,0,0
364,-244,0,0,0,0,0,0,0,0,0,-1,1588,1268,0,0
371,-244,0,0,0,0,0,0,0,0,0,-1,1595,1268,0,0
378,-244,0,0,0,0,0,0,0,0,0,-1,1602,1268,0,0
385,-244,0,0,0,0,0,0,0,0,0,-1,1609,1268,0,0
392,-244,0,0,0,0,0,0,0,0,0,-1,1616,1268,0,0
399,-244,0,0,0,0,0,0,0,0,0,-1,1623,1268,0,0
406,-244,0,0,0,0,0,0,0,0,0,-1,1630,1268,0,0
413,-244,0,0,0,0,0,0,0,0,0,-1,1637,1268,0,0
420,-244,0,0,0,0,0,0,0,0,0,-1,1644,1268,0,0
427,-244,0,0,0,0,0,0,0,0,0,-1,1651,1268,0,0
434,-244,0,0,0,0,0,0,0,0,0,-1,1658,1268,0,0
441,-244,0,0,0,0,0,0,0,0,0,-1,1665,1268,0,0
448,-244,0,0,0,0,0,0,0,0,0,-1,1672,1268,0,0
455,-244,0,0,0,0,0,0,0,0,0,-1,1679,1268,0,0
462,-244,0,0,0,0,0,0,0,0,0,-1,1686,1268,0,0
469,-244,0,0,0,0,0,0,0,0,0,-1,1693,1268,0,0
476,-244,0,0,0,0,0,0,0,0,0,-1,1700,1268,0,0
483,-244,0,0,0,0,0,0,0,0,0,-1,1707,1268,0,0
490,-244,0,0,0,0,0,0,0,0,0,-1,1714,1268,0,0
497,-244,0,0,0,0,0,0,0,0,0,-1,1721,1268,0,0
504,-244,0,0,0,0,0,0,0,0,0,-1,1728,1268,0,0
511,-244,0,0,0,0,0,0,0,0,0,-1,1735,1268,0,0
518,-244,0,0,0,0,0,0,0,0,0,-1,1742,1268,0,0
525,-244,0,0,0,0,0,0,0,0,0,-1,1749,1268,0,0
532,-244,0,0,0,0,0,0,0,0,0,-1,1756,1268,0,0
539,-244,0,0,0,0,0,0,0,0,0,-1,1763,1268,0,0
546,-244,0,0,0,0,0,0,0,0,0,-1,1770,1268,0,0
553,-244,0,0,0,0,0,0,0,0,0,-1,1777,1268,0,0
560,-244,0,0,0,0,0,0,0,0,0,-1,1784,1268,0,0
567,-244,0,0,0,0,0,0,0,0,0,-1,1791,1268,0,0
574,-244,0,0,0,0,0,0,0,0,0,-1,1798,1268,0,0
581,-244,0,0,0,0,0,0,0,0,0,-1,1805,1268,0,0
588,-244,0,0,0,0,0,0,0,0,0,-1,1812,1268,0,0
595,-244,0,0,0,0,0,0,0,0,0,-1,1819,1268,0,0
602,-244,0,0,0,0,0,0,0,0,0,-1,1826,1268,0,0
609,-244,0,0,0,0,0,0,0,0,0,-1,1833,1268,0,0
616,-244,15.5502,2.19531,-0.00322632,-0.000617674,-0.0025644,0.00095505,-0.00479905,-1.02066,0.00356067,0.0334625,1840,1268,15.5501,-2.19535
623,-244,15.5223,2.38416,-0.0041763,0.00707601,-0.000321415,0.00708519,-0.00418548,-1.54226,0.00657852,0.02656,1847,1268,15.5223,-2.38418
630,-244,15.5353,2.37964,-0.00586041,0.0133927,0.00174156,0.013549,-0.00601668,1.48131,0.0115719,0.023919,1854,1268,15.5353,-2.37969
637,-244,15.4819,2.23669,-0.00767254,0.0167281,0.00348966,0.0172174,-0.0081618,1.4315,0.0149604,0.0424906,1861,1268,15.482,-2.2367
644,-244,14.9967,1.77686,0,0,0,0,0,0,0,-1,1868,1268,14.9967,-1.77686
651,-244,13.8083,0.675781,-0.00979242,0.0176434,0.00534624,0.0186484,-0.0107974,1.38499,0.0172008,0.0461219,1875,1268,13.8083,-0.675824
658,-244,13.3157,0.258667,-0.0100627,0.0165779,0.00567231,0.0177354,-0.0112202,1.36951,0.016858,0.0485844,1882,1268,13.3157,-0.258675
665,-244,12.8208,-0.0766602,0,0,0,0,0,0,0,-1,1889,1268,12.8208,0.0766366
672,-244,13.6165,4.13269,0,0,0,0,0,0,0,-1,1896,1268,13.6165,-4.13267
679,-244,13.4379,4.14709,-0.00936849,0.0111031,0.0053432,0.0124138,-0.0106792,1.33025,0.0133453,0.0418918,1903,1268,13.4378,-4.14706
686,-244,13.3135,4.11084,-0.00875135,0.00911884,0.00522594,0.0105349,-0.0101674,1.30618,0.0119531,0.0218735,1910,1268,13.3135,-4.11089
693,-244,13.2655,4.00525,-0.00779139,0.00640443,0.00480842,0.00787981,-0.00926676,1.27308,0.00991037,0.00979069,1917,1268,13.2655,-4.00527
700,-244,13.2639,3.87366,-0.00640625,0.00422651,0.00368814,0.00538055,-0.00756028,1.26754,0.00750664,0.00827218,1924,1268,13.2639,-3.8736
707,-244,13.2937,3.75159,-0.00439643,0.00166524,0.00256193,0.00260297,-0.00533415,1.21992,0.00467205,0.00965579,1931,1268,13.2937,-3.75163
714,-244,13.2982,3.6322,-0.00264029,-5.82545e-05,0.00148721,0.000620124,-0.00331867,1.14285,0.00244551,0.0116835,1938,1268,13.2982,-3.63217
721,-244,13.2891,3.50989,-0.00121104,0.000326004,0.000725713,0.0006145,-0.00149953,1.19242,0.00125568,0.0147652,1945,1268,13.289,-3.50994
728,-244,13.2874,3.38721,0.000276632,0.00134599,-0.000175603,0.00137409,0.000248534,-1.41213,0.000845481,0.0178977,1952,1268,13.2873,-3.38715
735,-244,13.2794,3.2749,0.0022689,0.00261803,-0.00147755,0.00393129,0.000955641,-0.844198,0.0023675,0.0216658,1959,1268,13.2794,-3.27495
742,-244,13.3044,3.17322,0.00402374,0.00364762,-0.00273781,0.00657994,0.00109142,-0.751107,0.00407187,0.0147727,1966,1268,13.3044,-3.17318
749,-244,13.2847,3.05615,0.00603635,0.00492386,-0.00418311,0.00970004,0.00126017,-0.719299,0.00609025,0.0184401,1973,1268,13.2847,-3.05616
756,-244,13.1989,2.93115,0.00864194,0.0063115,-0.00608921,0.0136764,0.00127702,-0.690862,0.00872315,0.0237733,1980,1268,13.1988,-2.93117
763,-244,13.0618,2.62134,0.0121703,0.00778549,-0.00859693,0.01885,0.00110581,-0.660549,0.0122147,0.0378978,1987,1268,13.0618,-2.62132
770,-244,12.8724,2.40454,0,0,0,0,0,0,0,-1,1994,1268,12.8724,-2.40453
777,-244,13.2371,1.77368,0.0225033,0.0105498,-0.0157701,0.0333912,-0.00033807,-0.604265,0.0223743,0.0469836,2001,1268,13.237,-1.77369
784,-244,13.567,1.349,0.0295815,0.0114335,-0.0205521,0.0429736,-0.00195868,-0.577512,0.0293238,0.0455239,2008,1268,13.567,-1.34896
791,-244,0,0,0,0,0,0,0,0,0,-1,2015,1268,0,0
798,-244,0,0,0,0,0,0,0,0,0,-1,2022,1268,0,0
805,-244,0,0,0,0,0,0,0,0,0,-1,2029,1268,0,0
812,-244,0,0,0,0,0,0,0,0,0,-1,2036,1268,0,0
-700,-251,0,0,0,0,0,0,0,0,0,-1,524,1275,0,0
-693,-251,0,0,0,0,0,0,0,0,0,-1,531,1275,0,0
-686,-251,0,0,0,0,0,0,0,0,0,-1,538,1275,0,0
-679,-251,0,0,0,0,0,0,0,0,0,-1,545,1275,0,0
-672,-251,0,0,0,0,0,0,0,0,0,-1,552,1275,0,0
-665,-251,-5.46295,2.29431,-0.0130875,0.00513626,-0.045109,0.0420445,-0.0499957,-0.885056,0.0532055,0.0466701,559,1275,-5.46297,-2.29426
-658,-251,-5.63464,2.22473,0,0,0,0,0,0,0,-1,566,1275,-5.63462,-2.22474
-651,-251,-5.992,2.4696,0,0,0,0,0,0,0,-1,573,1275,-5.992,-2.46964
-644,-251,-6.27673,2.50586,-0.0114572,-0.0106623,-0.0118015,0.000748437,-0.0228679,-0.80223,0.0155008,0.0427091,580,1275,-6.27672,-2.50584
-637,-251,-7.04895,3.38416,-0.00964309,-0.00952125,-0.00653716,-0.00304472,-0.0161196,-0.790057,0.009889,0.0425227,587,1275,-7.04897,-3.38421
-630,-251,-6.63654,1.94287,-0.00763808,-0.00732921,-0.0031433,-0.00433655,-0.0106307,-0.809945,0.00617225,0.0424765,594,1275,-6.63656,-1.94289
-623,-251,-6.72644,0.984741,-0.00566197,-0.00487563,-0.00114253,-0.00406051,-0.00647709,-0.951113,0.00377949,0.0344046,601,1275,-6.72643,-0.984748
-616,-251,-6.68665,0.980835,-0.00430768,-0.00475562,0.00119403,-0.0033168,-0.0057465,0.692689,0.0033309,0.020246,608,1275,-6.68667,-0.980841
-609,-251,-6.69647,1.08667,-0.00272066,-0.00263577,0.00189479,-0.000782953,-0.00457348,0.796596,0.00282441,0.0196914,615,1275,-6.69649,-1.08671
-602,-251,-6.70306,1.23254,-0.00102487,6.72997e-05,0.0015336,0.00114914,-0.00210672,0.956439,0.00190668,0.0143155,622,1275,-6.70304,-1.23252
-595,-251,-6.66962,1.38037,0.000483269,0.00100955,0.00107512,0.00185326,-0.000360445,0.905415,0.00137153,0.0134052,629,1275,-6.66963,-1.38039
-588,-251,-6.65771,1.52698,0.00157499,0.00168089,0.000389041,0.00202057,0.00123531,0.853034,0.00117618,0.0159361,636,1275,-6.65771,-1.52699
-581,-251,-6.66541,1.68921,0.00240689,0.00107989,-6.12248e-05,0.00240971,0.00107707,-0.0460074,0.00139385,0.0145227,643,1275,-6.6654,-1.68926
-574,-251,-6.66235,1.84497,0.00265971,-0.000328766,0.000160888,0.00266835,-0.000337402,0.0536295,0.00190137,0.0123747,650,1275,-6.66234,-1.84493
-567,-251,-6.67212,1.98108,0.00256825,-0.00234912,0.000189478,0.00257554,-0.00235641,0.0384564,0.0028484,0.0108421,657,1275,-6.67211,-1.98104
-560,-251,-6.65143,2.12903,0.00291583,-0.00327114,-0.000755243,0.00300669,-0.003362,-0.119728,0.00367887,0.0124627,664,1275,-6.65145,-2.12898
-553,-251,-6.52905,2.15527,0.00404013,-0.00387511,-0.00235999,0.00469036,-0.00452534,-0.268854,0.00532097,0.0285508,671,1275,-6.52907,-2.15532
-546,-251,-6.43213,2.43555,0.00557026,-0.00397528,-0.00424384,0.00718416,-0.00558917,-0.363402,0.00739383,0.0488467,678,1275,-6.43214,-2.43556
-539,-251,-6.42029,2.7312,0,0,0,0,0,0,0,-1,685,1275,-6.42028,-2.73119
-532,-251,-6.2771,-0.49707,0,0,0,0,0,0,0,-1,692,1275,-6.27712,0.497065
-525,-251,-9.0011,0.882324,0,0,0,0,0,0,0,-1,699,1275,-9.00107,-0.88236
-518,-251,-9.38251,1.3844,0.0142588,-0.00273198,-0.0155266,0.0234622,-0.0119354,-0.535072,0.0207949,0.0436246,706,1275,-9.38253,-1.38437
-511,-251,-9.17792,0.780273,0.0177863,-0.000418634,-0.0197401,0.0304215,-0.0130538,-0.569368,0.0257595,0.0437942,713,1275,-9.17793,-0.780286
-504,-251,-9.19873,0.480713,0.0219485,0.00389997,-0.0242648,0.0388129,-0.0129644,-0.60737,0.0311105,0.044114,720,1275,-9.19875,-0.480741
-497,-251,-9.17645,0.506836,0.0259434,0.0111677,-0.0281243,0.047634,-0.0105229,-0.656958,0.0357832,0.0445758,727,1275,-9.17644,-0.506891
-490,-251,0,0,0,0,0,0,0,0,0,-1,734,1275,0,0
-483,-251,0,0,0,0,0,0,0,0,0,-1,741,1275,0,0
-476,-251,0,0,0,0,0,0,0,0,0,-1,748,1275,0,0
-469,-251,0,0,0,0,0,0,0,0,0,-1,755,1275,0,0
-462,-251,0,0,0,0,0,0,0,0,0,-1,762,1275,0,0
-455,-251,0,0,0,0,0,0,0,0,0,-1,769,1275,0,0
-448,-251,0,0,0,0,0,0,0,0,0,-1,776,1275,0,0
-441,-251,0,0,0,0,0,0,0,0,0,-1,783,1275,0,0
-434,-251,0,0,0,0,0,0,0,0,0,-1,790,1275,0,0
-427,-251,0,0,0,0,0,0,0,0,0,-1,797,1275,0,0
-420,-251,0,0,0,0,0,0,0,0,0,-1,804,1275,0,0
-413,-251,0,0,0,0,0,0,0,0,0,-1,811,1275,0,0
-406,-251,0,0,0,0,0,0,0,0,0,-1,818,1275,0,0
-399,-251,0,0,0,0,0,0,0,0,0,-1,825,1275,0,0
-392,-251,0,0,0,0,0,0,0,0,0,-1,832,1275,0,0
-385,-251,0,0,0,0,0,0,0,0,0,-1,839,1275,0,0
-378,-251,0,0,0,0,0,0,0,0,0,-1,846,1275,0,0
-371,-251,0,0,0,0,0,0,0,0,0,-1,853,1275,0,0
-364,-251,0,0,0,0,0,0,0,0,0,-1,860,1275,0,0
-357,-251,0,0,0,0,0,0,0,0,0,-1,867,1275,0,0
-350,-251,0,0,0,0,0,0,0,0,0,-1,874,1275,0,0
-343,-251,0,0,0,0,0,0,0,0,0,-1,881,1275,0,0
-336,-251,0,0,0,0,0,0,0,0,0,-1,888,1275,0,0
-329,-251,0,0,0,0,0,0,0,0,0,-1,895,1275,0,0
-322,-251,0,0,0,0,0,0,0,0,0,-1,902,1275,0,0
-315,-251,0,0,0,0,0,0,0,0,0,-1,909,1275,0,0
-308,-251,0,0,0,0,0,0,0,0,0,-1,916,1275,0,0
-301,-251,0,0,0,0,0,0,0,0,0,-1,923,1275,0,0
-294,-251,0,0,0,0,0,0,0,0,0,-1,930,1275,0,0
-287,-251,0,0,0,0,0,0,0,0,0,-1,937,1275,0,0
-280,-251,0,0,0,0,0,0,0,0,0,-1,944,1275,0,0
-273,-251,0,0,0,0,0,0,0,0,0,-1,951,1275,0,0
-266,-251,0,0,0,0,0,0,0,0,0,-1,958,1275,0,0
-259,-251,0,0,0,0,0,0,0,0,0,-1,965,1275,0,0
-252,-251,0,0,0,0,0,0,0,0,0,-1,972,1275,0,0
-245,-251,0,0,0,0,0,0,0,0,0,-1,979,1275,0,0
-238,-251,0,0,0,0,0,0,0,0,0,-1,986,1275,0,0
-231,-251,0,0,0,0,0,0,0,0,0,-1,993,1275,0,0
-224,-251,0,0,0,0,0,0,0,0,0,-1,1000,1275,0,0
-217,-251,0,0,0,0,0,0,0,0,0,-1,1007,1275,0,0
-210,-251,0,0,0,0,0,0,0,0,0,-1,1014,1275,0,0
-203,-251,0,0,0,0,0,0,0,0,0,-1,1021,1275,0,0
-196,-251,0,0,0,0,0,0,0,0,0,-1,1028,1275,0,0
-189,-251,0,0,0,0,0,0,0,0,0,-1,1035,1275,0,0
-182,-251,0,0,0,0,0,0,0,0,0,-1,1042,1275,0,0
-175,-251,0,0,0,0,0,0,0,0,0,-1,1049,1275,0,0
-168,-251,0,0,0,0,0,0,0,0,0,-1,1056,1275,0,0
-161,-251,0,0,0,0,0,0,0,0,0,-1,1063,1275,0,0
-154,-251,0,0,0,0,0,0,0,0,0,-1,1070,1275,0,0
-147,-251,0,0,0,0,0,0,0,0,0,-1,1077,1275,0,0
-140,-251,0,0,0,0,0,0,0,0,0,-1,1084,1275,0,0
-133,-251,0,0,0,0,0,0,0,0,0,-1,1091,1275,0,0
-126,-251,0,0,0,0,0,0,0,0,0,-1,1098,1275,0,0
-119,-251,0,0,0,0,0,0,0,0,0,-1,1105,1275,0,0
-112,-251,0,0,0,0,0,0,0,0,0,-1,1112,1275,0,0
-105,-251,0,0,0,0,0,0,0,0,0,-1,1119,1275,0,0
-98,-251,0,0,0,0,0,0,0,0,0,-1,1126,1275,0,0
-91,-251,0,0,0,0,0,0,0,0,0,-1,1133,1275,0,0
-84,-251,0,0,0,0,0,0,0,0,0,-1,1140,1275,0,0
-77,-251,0,0,0,0,0,0,0,0,0,-1,1147,1275,0,0
-70,-251,0,0,0,0,0,0,0,0,0,-1,1154,1275,0,0
-63,-251,0,0,0,0,0,0,0,0,0,-1,1161,1275,0,0
-56,-251,0,0,0,0,0,0,0,0,0,-1,1168,1275,0,0
-49,-251,0,0,0,0,0,0,0,0,0,-1,1175,1275,0,0
-42,-251,0,0,0,0,0,0,0,0,0,-1,1182,1275,0,0
-35,-251,0,0,0,0,0,0,0,0,0,-1,1189,1275,0,0
-28,-251,0,0,0,0,0,0,0,0,0,-1,1196,1275,0,0
-21,-251,0,0,0,0,0,0,0,0,0,-1,1203,1275,0,0
-14,-251,0,0,0,0,0,0,0,0,0,-1,1210,1275,0,0
-7,-251,0,0,0,0,0,0,0,0,0,-1,1217,1275,0,0
0,-251,0,0,0,0,0,0,0,0,0,-1,1224,1275,0,0
7,-251,0,0,0,0,0,0,0,0,0,-1,1231,1275,0,0
14,-251,0,0,0,0,0,0,0,0,0,-1,1238,1275,0,0
21,-251,0,0,0,0,0,0,0,0,0,-1,1245,1275,0,0
28,-251,0,0,0,0,0,0,0,0,0,-1,1252,1275,0,0
35,-251,0,0,0,0,0,0,0,0,0,-1,1259,1275,0,0
42,-251,0,0,0,0,0,0,0,0,0,-1,1266,1275,0,0
49,-251,0,0,0,0,0,0,0,0,0,-1,1273,1275,0,0
56,-251,0,0,0,0,0,0,0,0,0,-1,1280,1275,0,0
63,-251,0,0,0,0,0,0,0,0,0,-1,1287,1275,0,0
70,-251,0,0,0,0,0,0,0,0,0,-1,1294,1275,0,0
77,-251,0,0,0,0,0,0,0,0,0,-1,1301,1275,0,0
84,-251,0,0,0,0,0,0,0,0,0,-1,1308,1275,0,0
91,-251,0,0,0,0,0,0,0,0,0,-1,1315,1275,0,0
98,-251,0,0,0,0,0,0,0,0,0,-1,1322,1275,0,0
105,-251,0,0,0,0,0,0,0,0,0,-1,1329,1275,0,0
112,-251,0,0,0,0,0,0,0,0,0,-1,1336,1275,0,0
119,-251,0,0,0,0,0,0,0,0,0,-1,1343,1275,0,0
126,-251,0,0,0,0,0,0,0,0,0,-1,1350,1275,0,0
133,-251,0,0,0,0,0,0,0,0,0,-1,1357,1275,0,0
140,-251,0,0,0,0,0,0,0,0,0,-1,1364,1275,0,0
147,-251,0,0,0,0,0,0,0,0,0,-1,1371,1275,0,0
154,-251,0,0,0,0,0,0,0,0,0,-1,1378,1275,0,0
161,-251,0,0,0,0,0,0,0,0,0,-1,1385,1275,0,0
168,-251,0,0,0,0,0,0,0,0,0,-1,1392,1275,0,0
175,-251,0,0,0,0,0,0,0,0,0,-1,1399,1275,0,0
182,-251,0,0,0,0,0,0,0,0,0,-1,1406,1275,0,0
189,-251,0,0,0,0,0,0,0,0,0,-1,1413,1275,0,0
196,-251,0,0,0,0,0,0,0,0,0,-1,1420,1275,0,0
203,-251,0,0,0,0,0,0,0,0,0,-1,1427,1275,0,0
210,-251,0,0,0,0,0,0,0,0,0,-1,1434,1275,0,0
217,-251,0,0,0,0,0,0,0,0,0,-1,1441,1275,0,0
224,-251,0,0,0,0,0,0,0,0,0,-1,1448,1275,0,0
231,-251,0,0,0,0,0,0,0,0,0,-1,1455,1275,0,0
238,-251,0,0,0,0,0,0,0,0,0,-1,1462,1275,0,0
245,-251,0,0,0,0,0,0,0,0,0,-1,1469,1275,0,0
252,-251,0,0,0,0,0,0,0,0,0,-1,1476,1275,0,0
259,-251,0,0,0,0,0,0,0,0,0,-1,1483,1275,0,0
266,-251,0,0,0,0,0,0,0,0,0,-1,1490,1275,0,0
273,-251,0,0,0,0,0,0,0,0,0,-1,1497,1275,0,0
280,-251,0,0,0,0,0,0,0,0,0,-1,1504,1275,0,0
287,-251,0,0,0,0,0,0,0,0,0,-1,1511,1275,0,0
294,-251,0,0,0,0,0,0,0,0,0,-1,1518,1275,0,0
301,-251,0,0,0,0,0,0,0,0,0,-1,1525,1275,0,0
308,-251,0,0,0,0,0,0,0,0,0,-1,1532,1275,0,0
315,-251,0,0,0,0,0,0,0,0,0,-1,1539,1275,0,0
322,-251,0,0,0,0,0,0,0,0,0,-1,1546,1275,0,0
329,-251,0,0,0,0,0,0,0,0,0,-1,1553,1275,0,0
336,-251,0,0,0,0,0,0,0,0,0,-1,1560,1275,0,0
343,-251,0,0,0,0,0,0,0,0,0,-1,1567,1275,0,0
350,-251,0,0,0,0,0,0,0,0,0,-1,1574,1275,0,0
357,-251,0,0,0,0,0,0,0,0,0,-1,1581,1275,0,0
364,-251,0,0,0,0,0,0,0,0,0,-1,1588,1275,0,0
371,-251,0,0,0,0,0,0,0,0,0,-1,1595,1275,0,0
378,-251,0,0,0,0,0,0,0,0,0,-1,1602,1275,0,0
385,-251,0,0,0,0,0,0,0,0,0,-1,1609,1275,0,0
392,-251,0,0,0,0,0,0,0,0,0,-1,1616,1275,0,0
399,-251,0,0,0,0,0,0,0,0,0,-1,1623,1275,0,0
406,-251,0,0,0,0,0,0,0,0,0,-1,1630,1275,0,0
413,-251,0,0,0,0,0,0,0,0,0,-1,1637,1275,0,0
420,-251,0,0,0,0,0,0,0,0,0,-1,1644,1275,0,0
427,-251,0,0,0,0,0,0,0,0,0,-1,1651,1275,0,0
434,-251,0,0,0,0,0,0,0,0,0,-1,1658,1275,0,0
441,-251,0,0,0,0,0,0,0,0,0,-1,1665,1275,0,0
448,-251,0,0,0,0,0,0,0,0,0,-1,1672,1275,0,0
455,-251,0,0,0,0,0,0,0,0,0,-1,1679,1275,0,0
462,-251,0,0,0,0,0,0,0,0,0,-1,1686,1275,0,0
469,-251,0,0,0,0,0,0,0,0,0,-1,1693,1275,0,0
476,-251,0,0,0,0,0,0,0,0,0,-1,1700,1275,0,0
483,-251,0,0,0,0,0,0,0,0,0,-1,1707,1275,0,0
490,-251,0,0,0,0,0,0,0,0,0,-1,1714,1275,0,0
497,-251,0,0,0,0,0,0,0,0,0,-1,1721,1275,0,0
504,-251,0,0,0,0,0,0,0,0,0,-1,1728,1275,0,0
511,-251,0,0,0,0,0,0,0,0,0,-1,1735,1275,0,0
518,-251,0,0,0,0,0,0,0,0,0,-1,1742,1275,0,0
525,-251,0,0,0,0,0,0,0,0,0,-1,1749,1275,0,0
532,-251,0,0,0,0,0,0,0,0,0,-1,1756,1275,0,0
539,-251,0,0,0,0,0,0,0,0,0,-1,1763,1275,0,0
546,-251,0,0,0,0,0,0,0,0,0,-1,1770,1275,0,0
553,-251,0,0,0,0,0,0,0,0,0,-1,1777,1275,0,0
560,-251,0,0,0,0,0,0,0,0,0,-1,1784,1275,0,0
567,-251,0,0,0,0,0,0,0,0,0,-1,1791,1275,0,0
574,-251,0,0,0,0,0,0,0,0,0,-1,1798,1275,0,0
581,-251,0,0,0,0,0,0,0,0,0,-1,1805,1275,0,0
588,-251,0,0,0,0,0,0,0,0,0,-1,1812,1275,0,0
595,-251,0,0,0,0,0,0,0,0,0,-1,1819,1275,0,0
602,-251,0,0,0,0,0,0,0,0,0,-1,1826,1275,0,0
609,-251,15.6273,2.34021,-0.00467957,-0.00413846,-0.00547862,0.00107628,-0.00989431,-0.81007,0.00698267,0.0303439,1833,1275,15.6274,-2.34017
616,-251,15.5447,2.29761,-0.00410933,0.0025865,-0.00255309,0.0034489,-0.00497173,-1.24504,0.00488809,0.0267497,1840,1275,15.5447,-2.29763
623,-251,15.5156,2.34558,-0.0049343,0.00958491,6.28991e-06,0.00958491,-0.0049343,1.57036,0.00852481,0.0241799,1847,1275,15.5156,-2.34553
630,-251,15.5784,2.35596,-0.00652397,0.0145931,0.00218166,0.0148161,-0.006747,1.46892,0.0127367,0.0357996,1854,1275,15.5783,-2.35595
637,-251,15.5585,2.15747,-0.00815588,0.017152,0.00382993,0.0177189,-0.00872278,1.42385,0.0155578,0.0417088,1861,1275,15.5585,-2.15748
644,-251,15.6034,2.04895,-0.00935476,0.0179629,0.00484876,0.018798,-0.0101899,1.40024,0.0169803,0.0473207,1868,1275,15.6033,-2.04891
651,-251,15.6682,1.96094,0,0,0,0,0,0,0,-1,1875,1275,15.6682,-1.96088
658,-251,12.7601,-0.429199,-0.0101699,0.016771,0.0057692,0.0179544,-0.0113533,1.36847,0.0170633,0.0482675,1882,1275,12.7602,0.429153
665,-251,12.2852,-0.744995,-0.0101171,0.0154159,0.00578117,0.0166639,-0.0113651,1.35819,0.0162786,0.0453183,1889,1275,12.2852,0.744943
672,-251,13.625,4.17114,0,0,0,0,0,0,0,-1,1896,1275,13.6251,-4.17115
679,-251,13.3358,4.17273,-0.00954347,0.0114616,0.00529392,0.0127203,-0.0108023,1.33735,0.0135958,0.0381848,1903,1275,13.3358,-4.17272
686,-251,13.1422,4.11133,-0.00883589,0.00945832,0.00512519,0.0107963,-0.0101739,1.31544,0.0121089,0.0186821,1910,1275,13.1422,-4.11131
693,-251,13.1543,4.01147,-0.00768512,0.00656832,0.0045977,0.00792269,-0.0090395,1.28432,0.00980019,0.00885414,1917,1275,13.1544,-4.01147
700,-251,13.153,3.87695,-0.00609457,0.00441725,0.00328755,0.00536074,-0.00703806,1.29132,0.00718025,0.00831814,1924,1275,13.153,-3.87695
707,-251,13.192,3.74475,-0.00384506,0.00188086,0.00215259,0.00259982,-0.00456403,1.24845,0.00418755,0.0105084,1931,1275,13.192,-3.74472
714,-251,13.1844,3.62317,-0.00185225,0.00025587,0.0010972,0.000723288,-0.00231967,1.16807,0.00183567,0.0123037,1938,1275,13.1844,-3.62321
721,-251,13.1558,3.49353,-0.000121591,0.000618383,0.000294407,0.000721224,-0.000224432,1.23473,0.000570535,0.0148271,1945,1275,13.1558,-3.49348
728,-251,13.135,3.37256,0.00156303,0.00163539,-0.000622673,0.00222293,0.000975487,-0.814415,0.00128661,0.0154676,1952,1275,13.135,-3.37251
735,-251,13.1665,3.25317,0.00376687,0.00292992,-0.00191455,0.00530814,0.00138865,-0.677803,0.00317865,0.0139871,1959,1275,13.1665,-3.25319
742,-251,13.2012,3.15393,0.00584377,0.00404148,-0.00320711,0.00827394,0.00161131,-0.648438,0.00506502,0.0144457,1966,1275,13.2012,-3.15387
749,-251,13.1826,3.04517,0.00831685,0.00542733,-0.0047381,0.0118256,0.00191862,-0.637414,0.00732837,0.0223767,1973,1275,13.1826,-3.04519
756,-251,13.0864,2.88489,0.0115397,0.00697521,-0.0067664,0.0163984,0.00211654,-0.622744,0.0102995,0.0391009,1980,1275,13.0865,-2.88491
763,-251,13.0031,2.6582,0.0157794,0.00863567,-0.00940528,0.0222682,0.00214683,-0.603925,0.0141841,0.0466908,1987,1275,13.0031,-2.65816
770,-251,12.7489,2.51428,0,0,0,0,0,0,0,-1,1994,1275,12.7489,-2.51429
777,-251,13.0624,1.68262,0,0,0,0,0,0,0,-1,2001,1275,13.0623,-1.68265
784,-251,13.3383,1.26099,0,0,0,0,0,0,0,-1,2008,1275,13.3383,-1.26099
791,-251,0,0,0,0,0,0,0,0,0,-1,2015,1275,0,0
798,-251,0,0,0,0,0,0,0,0,0,-1,2022,1275,0,0
805,-251,0,0,0,0,0,0,0,0,0,-1,2029,1275,0,0
812,-251,0,0,0,0,0,0,0,0,0,-1,2036,1275,0,0
-700,-258,0,0,0,0,0,0,0,0,0,-1,524,1282,0,0
-693,-258,0,0,0,0,0,0,0,0,0,-1,531,1282,0,0
-686,-258,0,0,0,0,0,0,0,0,0,-1,538,1282,0,0
-679,-258,0,0,0,0,0,0,0,0,0,-1,545,1282,0,0
-672,-258,0,0,0,0,0,0,0,0,0,-1,552,1282,0,0
-665,-258,-5.41602,1.68115,0,0,0,0,0,0,0,-1,559,1282,-5.41601,-1.68115
-658,-258,-5.55414,1.67358,0,0,0,0,0,0,0,-1,566,1282,-5.55411,-1.67363
-651,-258,-6.10657,1.86829,0,0,0,0,0,0,0,-1,573,1282,-6.10658,-1.86825
-644,-258,-6.34027,1.94324,0,0,0,0,0,0,0,-1,580,1282,-6.34026,-1.94318
-637,-258,-6.28949,2.53589,0,0,0,0,0,0,0,-1,587,1282,-6.28946,-2.53592
-630,-258,-6.37561,1.78735,-0.0091263,-0.00605487,-0.00130903,-0.00557267,-0.0096085,-1.21786,0.00557107,0.0450571,594,1282,-6.37562,-1.78735
-623,-258,-6.55609,1.28894,-0.00634317,-0.00307958,0.000378737,-0.00303621,-0.00638654,1.45677,0.00368876,0.0424588,601,1282,-6.55608,-1.28889
-616,-258,-6.51978,0.972534,-0.00430565,-0.00247392,0.00223034,-0.000978729,-0.00580085,0.980221,0.00358579,0.0323412,608,1282,-6.5198,-0.972475
-609,-258,-6.50323,1.08862,-0.00239248,-0.000549997,0.00267928,0.001362,-0.00430448,0.950986,0.00341541,0.0170559,615,1282,-6.50326,-1.08856
-602,-258,-6.51605,1.22681,-0.00063368,0.00183967,0.0022641,0.00318282,-0.00197683,1.03536,0.00300593,0.0135677,622,1282,-6.51603,-1.22686
-595,-258,-6.50824,1.37903,0.000786753,0.00253263,0.00172247,0.00359073,-0.000271348,1.01993,0.00248921,0.0113691,629,1282,-6.50824,-1.37901
-588,-258,-6.5,1.54895,0.00181584,0.0028363,0.000910325,0.00336964,0.00128251,1.04083,0.00196386,0.0120978,636,1282,-6.5,-1.54891
-581,-258,-6.50507,1.70923,0.00260081,0.00167433,0.000310416,0.0026952,0.00157994,0.295188,0.00156376,0.0145553,643,1282,-6.50508,-1.70923
-574,-258,-6.50183,1.85559,0.00281208,-0.000133535,0.000374747,0.002859,-0.000180463,0.124579,0.00196892,0.0146424,650,1282,-6.50182,-1.85562
-567,-258,-6.52106,2.00732,0.00272468,-0.0024109,0.000239172,0.00273579,-0.00242202,0.0464375,0.0029797,0.0139752,657,1282,-6.52104,-2.00734
-560,-258,-6.51636,2.1626,0.00338301,-0.00347265,-0.00105364,0.00354129,-0.00363093,-0.149106,0.00414099,0.0202539,664,1282,-6.51636,-2.16254
-553,-258,-6.46271,2.24829,0.00510375,-0.0041422,-0.00319446,0.00610007,-0.00513852,-0.302329,0.00649651,0.0263943,671,1282,-6.46269,-2.24832
-546,-258,-6.47345,2.51135,0.00738651,-0.00428025,-0.00566937,0.00968763,-0.00658137,-0.38557,0.0094498,0.0443068,678,1282,-6.47344,-2.51135
-539,-258,-6.69543,2.64307,0.00969076,-0.00441995,-0.00834699,0.0135647,-0.00829393,-0.434531,0.0127418,0.049768,685,1282,-6.69543,-2.64302
-532,-258,-6.79553,2.76404,0,0,0,0,0,0,0,-1,692,1282,-6.79556,-2.76401
-525,-258,-9.30853,2.56482,0.0159576,-0.00405342,-0.0154562,0.0243641,-0.0124599,-0.498144,0.0216275,0.0480012,699,1282,-9.30851,-2.56479
-518,-258,-9.7804,2.23621,0.0202554,-0.00284161,-0.0201026,0.0318906,-0.0144768,-0.524678,0.0273923,0.0449649,706,1282,-9.78039,-2.23617
-511,-258,-9.03949,0.770264,0,0,0,0,0,0,0,-1,713,1282,-9.03952,-0.770305
-504,-258,-8.82727,0.362183,0.0316028,0.00376426,-0.0316129,0.0522252,-0.0168581,-0.578018,0.041591,0.0425404,720,1282,-8.8273,-0.362168
-497,-258,-8.96271,0.220703,0.0381905,0.0107847,-0.0375151,0.064427,-0.0154517,-0.610295,0.0489222,0.0470837,727,1282,-8.96271,-0.220677
-490,-258,-9.17651,0.544067,0.0429332,0.0222338,-0.0410851,0.0749522,-0.00978516,-0.662011,0.0535288,0.0450486,734,1282,-9.17653,-0.544116
-483,-258,0,0,0,0,0,0,0,0,0,-1,741,1282,0,0
-476,-258,0,0,0,0,0,0,0,0,0,-1,748,1282,0,0
-469,-258,0,0,0,0,0,0,0,0,0,-1,755,1282,0,0
-462,-258,0,0,0,0,0,0,0,0,0,-1,762,1282,0,0
-455,-258,0,0,0,0,0,0,0,0,0,-1,769,1282,0,0
-448,-258,0,0,0,0,0,0,0,0,0,-1,776,1282,0,0
-441,-258,0,0,0,0,0,0,0,0,0,-1,783,1282,0,0
-434,-258,0,0,0,0,0,0,0,0,0,-1,790,1282,0,0
-427,-258,0,0,0,0,0,0,0,0,0,-1,797,1282,0,0
-420,-258,0,0,0,0,0,0,0,0,0,-1,804,1282,0,0
-413,-258,0,0,0,0,0,0,0,0,0,-1,811,1282,0,0
-406,-258,0,0,0,0,0,0,0,0,0,-1,818,1282,0,0
-399,-258,0,0,0,0,0,0,0,0,0,-1,825,1282,0,0
-392,-258,0,0,0,0,0,0,0,0,0,-1,832,1282,0,0
-385,-258,0,0,0,0,0,0,0,0,0,-1,839,1282,0,0
-378,-258,0,0,0,0,0,0,0,0,0,-1,846,1282,0,0
-371,-258,0,0,0,0,0,0,0,0,0,-1,853,1282,0,0
-364,-258,0,0,0,0,0,0,0,0,0,-1,860,1282,0,0
-357,-258,0,0,0,0,0,0,0,0,0,-1,867,1282,0,0
-350,-258,0,0,0,0,0,0,0,0,0,-1,874,1282,0,0
-343,-258,0,0,0,0,0,0,0,0,0,-1,881,1282,0,0
-336,-258,0,0,0,0,0,0,0,0,0,-1,888,1282,0,0
-329,-258,0,0,0,0,0,0,0,0,0,-1,895,1282,0,0
-322,-258,0,0,0,0,0,0,0,0,0,-1,902,1282,0,0
-315,-258,0,0,0,0,0,0,0,0,0,-1,909,1282,0,0
-308,-258,0,0,0,0,0,0,0,0,0,-1,916,1282,0,0
-301,-258,0,0,0,0,0,0,0,0,0,-1,923,1282,0,0
-294,-258,0,0,0,0,0,0,0,0,0,-1,930,1282,0,0
-287,-258,0,0,0,0,0,0,0,0,0,-1,937,1282,0,0
-280,-258,0,0,0,0,0,0,0,0,0,-1,944,1282,0,0
-273,-258,0,0,0,0,0,0,0,0,0,-1,951,1282,0,0
-266,-258,0,0,0,0,0,0,0,0,0,-1,958,1282,0,0
-259,-258,0,0,0,0,0,0,0,0,0,-1,965,1282,0,0
-252,-258,0,0,0,0,0,0,0,0,0,-1,972,1282,0,0
-245,-258,0,0,0,0,0,0,0,0,0,-1,979,1282,0,0
-238,-258,0,0,0,0,0,0,0,0,0,-1,986,1282,0,0
-231,-258,0,0,0,0,0,0,0,0,0,-1,993,1282,0,0
-224,-258,0,0,0,0,0,0,0,0,0,-1,1000,1282,0,0
-217,-258,0,0,0,0,0,0,0,0,0,-1,1007,1282,0,0
-210,-258,0,0,0,0,0,0,0,0,0,-1,1014,1282,0,0
-203,-258,0,0,0,0,0,0,0,0,0,-1,1021,1282,0,0
-196,-258,0,0,0,0,0,0,0,0,0,-1,1028,1282,0,0
-189,-258,0,0,0,0,0,0,0,0,0,-1,1035,1282,0,0
-182,-258,0,0,0,0,0,0,0,0,0,-1,1042,1282,0,0
-175,-258,0,0,0,0,0,0,0,0,0,-1,1049,1282,0,0
-168,-258,0,0,0,0,0,0,0,0,0,-1,1056,1282,0,0
-161,-258,0,0,0,0,0,0,0,0,0,-1,1063,1282,0,0
-154,-258,0,0,0,0,0,0,0,0,0,-1,1070,1282,0,0
-147,-258,0,0,0,0,0,0,0,0,0,-1,1077,1282,0,0
-140,-258,0,0,0,0,0,0,0,0,0,-1,1084,1282,0,0
-133,-258,0,0,0,0,0,0,0,0,0,-1,1091,1282,0,0
-126,-258,0,0,0,0,0,0,0,0,0,-1,1098,1282,0,0
-119,-258,0,0,0,0,0,0,0,0,0,-1,1105,1282,0,0
-112,-258,0,0,0,0,0,0,0,0,0,-1,1112,1282,0,0
-105,-258,0,0,0,0,0,0,0,0,0,-1,1119,1282,0,0
-98,-258,0,0,0,0,0,0,0,0,0,-1,1126,1282,0,0
-91,-258,0,0,0,0,0,0,0,0,0,-1,1133,1282,0,0
-84,-258,0,0,0,0,0,0,0,0,0,-1,1140,1282,0,0
-77,-258,0,0,0,0,0,0,0,0,0,-1,1147,1282,0,0
-70,-258,0,0,0,0,0,0,0,0,0,-1,1154,1282,0,0
-63,-258,0,0,0,0,0,0,0,0,0,-1,1161,1282,0,0
-56,-258,0,0,0,0,0,0,0,0,0,-1,1168,1282,0,0
-49,-258,0,0,0,0,0,0,0,0,0,-1,1175,1282,0,0
-42,-258,0,0,0,0,0,0,0,0,0,-1,1182,1282,0,0
-35,-258,0,0,0,0,0,0,0,0,0,-1,1189,1282,0,0
-28,-258,0,0,0,0,0,0,0,0,0,-1,1196,1282,0,0
-21,-258,0,0,0,0,0,0,0,0,0,-1,1203,1282,0,0
-14,-258,0,0,0,0,0,0,0,0,0,-1,1210,1282,0,0
-7,-258,0,0,0,0,0,0,0,0,0,-1,1217,1282,0,0
0,-258,0,0,0,0,0,0,0,0,0,-1,1224,1282,0,0
7,-258,0,0,0,0,0,0,0,0,0,-1,1231,1282,0,0
14,-258,0,0,0,0,0,0,0,0,0,-1,1238,1282,0,0
21,-258,0,0,0,0,0,0,0,0,0,-1,1245,1282,0,0
28,-258,0,0,0,0,0,0,0,0,0,-1,1252,1282,0,0
35,-258,0,0,0,0,0,0,0,0,0,-1,1259,1282,0,0
42,-258,0,0,0,0,0,0,0,0,0,-1,1266,1282,0,0
49,-258,0,0,0,0,0,0,0,0,0,-1,1273,1282,0,0
56,-258,0,0,0,0,0,0,0,0,0,-1,1280,1282,0,0
63,-258,0,0,0,0,0,0,0,0,0,-1,1287,1282,0,0
70,-258,0,0,0,0,0,0,0,0,0,-1,1294,1282,0,0
77,-258,0,0,0,0,0,0,0,0,0,-1,1301,1282,0,0
84,-258,0,0,0,0,0,0,0,0,0,-1,1308,1282,0,0
91,-258,0,0,0,0,0,0,0,0,0,-1,1315,1282,0,0
98,-258,0,0,0,0,0,0,0,0,0,-1,1322,1282,0,0
105,-258,0,0,0,0,0,0,0,0,0,-1,1329,1282,0,0
112,-258,0,0,0,0,0,0,0,0,0,-1,1336,1282,0,0
119,-258,0,0,0,0,0,0,0,0,0,-1,1343,1282,0,0
126,-258,0,0,0,0,0,0,0,0,0,-1,1350,1282,0,0
133,-258,0,0,0,0,0,0,0,0,0,-1,1357,1282,0,0
140,-258,0,0,0,0,0,0,0,0,0,-1,1364,1282,0,0
147,-258,0,0,0,0,0,0,0,0,0,-1,1371,1282,0,0
154,-258,0,0,0,0,0,0,0,0,0,-1,1378,1282,0,0
161,-258,0,0,0,0,0,0,0,0,0,-1,1385,1282,0,0
168,-258,0,0,0,0,0,0,0,0,0,-1,1392,1282,0,0
175,-258,0,0,0,0,0,0,0,0,0,-1,1399,1282,0,0
182,-258,0,0,0,0,0,0,0,0,0,-1,1406,1282,0,0
189,-258,0,0,0,0,0,0,0,0,0,-1,1413,1282,0,0
196,-258,0,0,0,0,0,0,0,0,0,-1,1420,1282,0,0
203,-258,0,0,0,0,0,0,0,0,0,-1,1427,1282,0,0
210,-258,0,0,0,0,0,0,0,0,0,-1,1434,1282,0,0
217,-258,0,0,0,0,0,0,0,0,0,-1,1441,1282,0,0
224,-258,0,0,0,0,0,0,0,0,0,-1,1448,1282,0,0
231,-258,0,0,0,0,0,0,0,0,0,-1,1455,1282,0,0
238,-258,0,0,0,0,0,0,0,0,0,-1,1462,1282,0,0
245,-258,0,0,0,0,0,0,0,0,0,-1,1469,1282,0,0
252,-258,0,0,0,0,0,0,0,0,0,-1,1476,1282,0,0
259,-258,0,0,0,0,0,0,0,0,0,-1,1483,1282,0,0
266,-258,0,0,0,0,0,0,0,0,0,-1,1490,1282,0,0
273,-258,0,0,0,0,0,0,0,0,0,-1,1497,1282,0,0
280,-258,0,0,0,0,0,0,0,0,0,-1,1504,1282,0,0
287,-258,0,0,0,0,0,0,0,0,0,-1,1511,1282,0,0
294,-258,0,0,0,0,0,0,0,0,0,-1,1518,1282,0,0
301,-258,0,0,0,0,0,0,0,0,0,-1,1525,1282,0,0
308,-258,0,0,0,0,0,0,0,0,0,-1,1532,1282,0,0
315,-258,0,0,0,0,0,0,0,0,0,-1,1539,1282,0,0
322,-258,0,0,0,0,0,0,0,0,0,-1,1546,1282,0,0
329,-258,0,0,0,0,0,0,0,0,0,-1,1553,1282,0,0
336,-258,0,0,0,0,0,0,0,0,0,-1,1560,1282,0,0
343,-258,0,0,0,0,0,0,0,0,0,-1,1567,1282,0,0
350,-258,0,0,0,0,0,0,0,0,0,-1,1574,1282,0,0
357,-258,0,0,0,0,0,0,0,0,0,-1,1581,1282,0,0
364,-258,0,0,0,0,0,0,0,0,0,-1,1588,1282,0,0
371,-258,0,0,0,0,0,0,0,0,0,-1,1595,1282,0,0
378,-258,0,0,0,0,0,0,0,0,0,-1,1602,1282,0,0
385,-258,0,0,0,0,0,0,0,0,0,-1,1609,1282,0,0
392,-258,0,0,0,0,0,0,0,0,0,-1,1616,1282,0,0
399,-258,0,0,0,0,0,0,0,0,0,-1,1623,1282,0,0
406,-258,0,0,0,0,0,0,0,0,0,-1,1630,1282,0,0
413,-258,0,0,0,0,0,0,0,0,0,-1,1637,1282,0,0
420,-258,0,0,0,0,0,0,0,0,0,-1,1644,1282,0,0
427,-258,0,0,0,0,0,0,0,0,0,-1,1651,1282,0,0
434,-258,0,0,0,0,0,0,0,0,0,-1,1658,1282,0,0
441,-258,0,0,0,0,0,0,0,0,0,-1,1665,1282,0,0
448,-258,0,0,0,0,0,0,0,0,0,-1,1672,1282,0,0
455,-258,0,0,0,0,0,0,0,0,0,-1,1679,1282,0,0
462,-258,0,0,0,0,0,0,0,0,0,-1,1686,1282,0,0
469,-258,0,0,0,0,0,0,0,0,0,-1,1693,1282,0,0
476,-258,0,0,0,0,0,0,0,0,0,-1,1700,1282,0,0
483,-258,0,0,0,0,0,0,0,0,0,-1,1707,1282,0,0
490,-258,0,0,0,0,0,0,0,0,0,-1,1714,1282,0,0
497,-258,0,0,0,0,0,0,0,0,0,-1,1721,1282,0,0
504,-258,0,0,0,0,0,0,0,0,0,-1,1728,1282,0,0
511,-258,0,0,0,0,0,0,0,0,0,-1,1735,1282,0,0
518,-258,0,0,0,0,0,0,0,0,0,-1,1742,1282,0,0
525,-258,0,0,0,0,0,0,0,0,0,-1,1749,1282,0,0
532,-258,0,0,0,0,0,0,0,0,0,-1,1756,1282,0,0
539,-258,0,0,0,0,0,0,0,0,0,-1,1763,1282,0,0
546,-258,0,0,0,0,0,0,0,0,0,-1,1770,1282,0,0
553,-258,0,0,0,0,0,0,0,0,0,-1,1777,1282,0,0
560,-258,0,0,0,0,0,0,0,0,0,-1,1784,1282,0,0
567,-258,0,0,0,0,0,0,0,0,0,-1,1791,1282,0,0
574,-258,0,0,0,0,0,0,0,0,0,-1,1798,1282,0,0
581,-258,0,0,0,0,0,0,0,0,0,-1,1805,1282,0,0
588,-258,0,0,0,0,0,0,0,0,0,-1,1812,1282,0,0
595,-258,0,0,0,0,0,0,0,0,0,-1,1819,1282,0,0
602,-258,0,0,0,0,0,0,0,0,0,-1,1826,1282,0,0
609,-258,15.6021,2.36121,-0.00764737,-0.00151435,-0.00644964,0.00256067,-0.0117224,-1.00731,0.00879365,0.0251892,1833,1282,15.602,-2.36125
616,-258,15.5237,2.33215,-0.00667713,0.00487496,-0.00312234,0.00566486,-0.00746703,-1.32301,0.00760546,0.0242748,1840,1282,15.5236,-2.33216
623,-258,15.4542,2.27271,-0.00707198,0.0109332,-0.000292954,0.010938,-0.00707675,-1.55453,0.0104801,0.0341742,1847,1282,15.4543,-2.27271
630,-258,15.5154,2.09009,-0.00810274,0.0147511,0.00199453,0.0149238,-0.0082755,1.48439,0.0135762,0.0441887,1854,1282,15.5154,-2.09003
637,-258,15.5045,2.00562,-0.00915677,0.0166816,0.003623,0.01718,-0.00965516,1.43409,0.015695,0.0456788,1861,1282,15.5045,-2.00565
644,-258,15.5837,1.90784,-0.00982225,0.0173274,0.00463181,0.0180958,-0.0105907,1.40639,0.0167501,0.0467008,1868,1282,15.5837,-1.90789
651,-258,15.7545,1.78687,0,0,0,0,0,0,0,-1,1875,1282,15.7546,-1.78681
658,-258,15.7013,1.62512,0,0,0,0,0,0,0,-1,1882,1282,15.7012,-1.62517
665,-258,11.7101,-1.46118,0,0,0,0,0,0,0,-1,1889,1282,11.7101,1.46117
672,-258,13.4155,3.99719,0,0,0,0,0,0,0,-1,1896,1282,13.4155,-3.99719
679,-258,13.1434,4.13416,-0.00943078,0.0114316,0.00518068,0.0126472,-0.0106464,1.34031,0.0134651,0.034125,1903,1282,13.1434,-4.13413
686,-258,13.0127,4.1521,-0.00860353,0.00941845,0.00495261,0.0106898,-0.00987487,1.31952,0.0118761,0.0191938,1910,1282,13.0127,-4.15206
693,-258,13.0475,4.00049,-0.00725203,0.00642414,0.00432221,0.00767561,-0.0085035,1.28896,0.00934509,0.00997235,1917,1282,13.0475,-4.00045
700,-258,13.0426,3.85291,-0.00547993,0.0044138,0.00285812,0.00518011,-0.00624623,1.30884,0.00660657,0.00881086,1924,1282,13.0426,-3.85294
707,-258,13.0713,3.72424,-0.00303916,0.00203396,0.00174445,0.00257591,-0.00358112,1.26958,0.00357052,0.0101866,1931,1282,13.0713,-3.72429
714,-258,13.0662,3.60864,-0.000838006,0.00062637,0.000710054,0.000914121,-0.00112576,1.18577,0.00117984,0.0100989,1938,1282,13.0662,-3.60869
721,-258,13.0564,3.49463,0.00120357,0.00101941,-0.000157746,0.00129414,0.000928833,-0.521217,0.000770423,0.0121709,1945,1282,13.0564,-3.49469
728,-258,13.0509,3.38428,0.00312187,0.00206378,-0.00113035,0.00384086,0.00134479,-0.566523,0.00225048,0.0109608,1952,1282,13.0509,-3.38427
735,-258,13.0593,3.27344,0.00557226,0.0034071,-0.00245237,0.00717037,0.00180899,-0.577541,0.00430584,0.0124528,1959,1282,13.0593,-3.27339
742,-258,13.0862,3.1803,0.00804541,0.00464975,-0.00383729,0.0105437,0.00215147,-0.577117,0.00643304,0.0150479,1966,1282,13.0862,-3.18025
749,-258,13.0659,3.08679,0.0110756,0.00619335,-0.00552336,0.0146733,0.00259572,-0.577322,0.00904199,0.0268226,1973,1282,13.0659,-3.08676
756,-258,12.9916,2.94067,0.0150013,0.00793181,-0.00773531,0.0199712,0.00296188,-0.571084,0.0124449,0.0419276,1980,1282,12.9916,-2.9407
763,-258,12.9049,2.724,0,0,0,0,0,0,0,-1,1987,1282,12.9049,-2.724
770,-258,12.3683,2.93335,0,0,0,0,0,0,0,-1,1994,1282,12.3683,-2.93337
777,-258,12.8383,2.15015,0.0334269,0.0131721,-0.0181904,0.0441191,0.00247995,-0.531395,0.0286219,0.0456781,2001,1282,12.8383,-2.1501
784,-258,12.2183,1.92419,0,0,0,0,0,0,0,-1,2008,1282,12.2183,-1.92418
791,-258,0,0,0,0,0,0,0,0,0,-1,2015,1282,0,0
798,-258,0,0,0,0,0,0,0,0,0,-1,2022,1282,0,0
805,-258,0,0,0,0,0,0,0,0,0,-1,2029,1282,0,0
812,-258,0,0,0,0,0,0,0,0,0,-1,2036,1282,0,0
-700,-265,0,0,0,0,0,0,0,0,0,-1,524,1289,0,0
-693,-265,0,0,0,0,0,0,0,0,0,-1,531,1289,0,0
-686,-265,0,0,0,0,0,0,0,0,0,-1,538,1289,0,0
-679,-265,0,0,0,0,0,0,0,0,0,-1,545,1289,0,0
-672,-265,0,0,0,0,0,0,0,0,0,-1,552,1289,0,0
-665,-265,-4.72253,-2.84668,0,0,0,0,0,0,0,-1,559,1289,-4.72256,2.84674
-658,-265,-4.0318,-3.50439,0,0,0,0,0,0,0,-1,566,1289,-4.03179,3.50435
-651,-265,-6.26971,1.61011,0,0,0,0,0,0,0,-1,573,1289,-6.26972,-1.61011
-644,-265,-6.31305,1.61707,0,0,0,0,0,0,0,-1,580,1289,-6.31303,-1.61708
-637,-265,-6.2948,1.63037,-0.0141157,-0.00883023,-0.00206125,-0.00812143,-0.0148245,-1.23959,0.00857199,0.044337,587,1289,-6.29478,-1.63033
-630,-265,-6.31519,1.42615,-0.00994453,-0.00470731,0.000584343,-0.00464291,-0.0100089,1.46102,0.00578369,0.0464357,594,1289,-6.31518,-1.42619
-623,-265,-6.37378,1.23315,-0.00643338,-0.0012973,0.0019988,-0.000611107,-0.00711957,1.2401,0.00455636,0.0447747,601,1289,-6.37376,-1.23312
-616,-265,-6.36212,0.94458,-0.00383546,-0.000223843,0.00341612,0.00183439,-0.00589369,1.02854,0.00466247,0.03649,608,1289,-6.36214,-0.944539
-609,-265,-6.34241,1.09253,-0.00170927,0.0013432,0.00362189,0.00374729,-0.00411336,0.984804,0.00453999,0.016573,615,1289,-6.3424,-1.09256
-602,-265,-6.37378,1.24219,4.17594e-05,0.00325077,0.00313863,0.00517123,-0.0018787,1.02169,0.00421565,0.0136346,622,1289,-6.37379,-1.24222
-595,-265,-6.37732,1.40088,0.0013098,0.00366774,0.00249073,0.00524443,-0.000266902,1.00645,0.00358857,0.0112921,629,1289,-6.37732,-1.40086
-588,-265,-6.36639,1.55481,0.00221559,0.00364833,0.00153267,0.00462379,0.00124014,1.00401,0.00276351,0.0104337,636,1289,-6.36642,-1.55479
-581,-265,-6.36279,1.71741,0.0028921,0.00199505,0.000743971,0.00331229,0.00157486,0.514131,0.00191312,0.0126119,643,1289,-6.3628,-1.71743
-574,-265,-6.37488,1.87732,0.00302092,-0.000108235,0.000602586,0.00313295,-0.000220265,0.183817,0.00216579,0.0140631,650,1289,-6.37488,-1.87737
-567,-265,-6.40344,2.01697,0.00288737,-0.00253852,0.000265711,0.00290035,-0.0025515,0.0488153,0.00314978,0.01949,657,1289,-6.40347,-2.01691
-560,-265,-6.40674,2.17737,0.00373824,-0.00376374,-0.00130689,0.00395939,-0.00398489,-0.16763,0.00458664,0.0214346,664,1289,-6.40672,-2.17735
-553,-265,-6.37421,2.34473,0.00594715,-0.00450677,-0.0038798,0.00722972,-0.00578934,-0.319267,0.00753188,0.0220351,671,1289,-6.37419,-2.34476
-546,-265,-6.34412,2.50879,0.00888022,-0.00471333,-0.0068493,0.0117327,-0.00756585,-0.394624,0.0112283,0.0317447,678,1289,-6.34413,-2.50881
-539,-265,-6.31061,2.44739,0.0119046,-0.0048699,-0.0100523,0.0166091,-0.00957441,-0.437725,0.0152979,0.0480861,685,1289,-6.31062,-2.44744
-532,-265,-6.21301,2.30627,0,0,0,0,0,0,0,-1,692,1289,-6.213,-2.3063
-525,-265,-9.51727,3.1521,0,0,0,0,0,0,0,-1,699,1289,-9.51727,-3.15215
-518,-265,-9.53021,1.53052,0,0,0,0,0,0,0,-1,706,1289,-9.5302,-1.53046
-511,-265,-9.12891,0.973022,0.0323525,-0.000815339,-0.0306508,0.0506182,-0.019081,-0.537421,0.0415913,0.0432914,713,1289,-9.12891,-0.972993
-504,-265,-8.71698,0.316895,0.0406219,0.003433,-0.0382657,0.0645718,-0.0205169,-0.559234,0.0512738,0.0450128,720,1289,-8.71699,-0.316866
-497,-265,-8.25317,-0.254028,0,0,0,0,0,0,0,-1,727,1289,-8.2532,0.254075
-490,-265,-9.01227,0.3479,0,0,0,0,0,0,0,-1,734,1289,-9.01224,-0.347911
-483,-265,0,0,0,0,0,0,0,0,0,-1,741,1289,0,0
-476,-265,0,0,0,0,0,0,0,0,0,-1,748,1289,0,0
-469,-265,0,0,0,0,0,0,0,0,0,-1,755,1289,0,0
-462,-265,0,0,0,0,0,0,0,0,0,-1,762,1289,0,0
-455,-265,0,0,0,0,0,0,0,0,0,-1,769,1289,0,0
-448,-265,0,0,0,0,0,0,0,0,0,-1,776,1289,0,0
-441,-265,0,0,0,0,0,0,0,0,0,-1,783,1289,0,0
-434,-265,0,0,0,0,0,0,0,0,0,-1,790,1289,0,0
-427,-265,0,0,0,0,0,0,0,0,0,-1,797,1289,0,0
-420,-265,0,0,0,0,0,0,0,0,0,-1,804,1289,0,0
-413,-265,0,0,0,0,0,0,0,0,0,-1,811,1289,0,0
-406,-265,0,0,0,0,0,0,0,0,0,-1,818,1289,0,0
-399,-265,0,0,0,0,0,0,0,0,0,-1,825,1289,0,0
-392,-265,0,0,0,0,0,0,0,0,0,-1,832,1289,0,0
-385,-265,0,0,0,0,0,0,0,0,0,-1,839,1289,0,0
-378,-265,0,0,0,0,0,0,0,0,0,-1,846,1289,0,0
-371,-265,0,0,0,0,0,0,0,0,0,-1,853,1289,0,0
-364,-265,0,0,0,0,0,0,0,0,0,-1,860,1289,0,0
-357,-265,0,0,0,0,0,0,0,0,0,-1,867,1289,0,0
-350,-265,0,0,0,0,0,0,0,0,0,-1,874,1289,0,0
-343,-265,0,0,0,0,0,0,0,0,0,-1,881,1289,0,0
-336,-265,0,0,0,0,0,0,0,0,0,-1,888,1289,0,0
-329,-265,0,0,0,0,0,0,0,0,0,-1,895,1289,0,0
-322,-265,0,0,0,0,0,0,0,0,0,-1,902,1289,0,0
-315,-265,0,0,0,0,0,0,0,0,0,-1,909,1289,0,0
-308,-265,0,0,0,0,0,0,0,0,0,-1,916,1289,0,0
-301,-265,0,0,0,0,0,0,0,0,0,-1,923,1289,0,0
-294,-265,0,0,0,0,0,0,0,0,0,-1,930,1289,0,0
-287,-265,0,0,0,0,0,0,0,0,0,-1,937,1289,0,0
-280,-265,0,0,0,0,0,0,0,0,0,-1,944,1289,0,0
-273,-265,0,0,0,0,0,0,0,0,0,-1,951,1289,0,0
-266,-265,0,0,0,0,0,0,0,0,0,-1,958,1289,0,0
-259,-265,0,0,0,0,0,0,0,0,0,-1,965,1289,0,0
-252,-265,0,0,0,0,0,0,0,0,0,-1,972,1289,0,0
-245,-265,0,0,0,0,0,0,0,0,0,-1,979,1289,0,0
-238,-265,0,0,0,0,0,0,0,0,0,-1,986,1289,0,0
-231,-265,0,0,0,0,0,0,0,0,0,-1,993,1289,0,0
-224,-265,0,0,0,0,0,0,0,0,0,-1,1000,1289,0,0
-217,-265,0,0,0,0,0,0,0,0,0,-1,1007,1289,0,0
-210,-265,0,0,0,0,0,0,0,0,0,-1,1014,1289,0,0
-203,-265,0,0,0,0,0,0,0,0,0,-1,1021,1289,0,0
-196,-265,0,0,0,0,0,0,0,0,0,-1,1028,1289,0,0
-189,-265,0,0,0,0,0,0,0,0,0,-1,1035,1289,0,0
-182,-265,0,0,0,0,0,0,0,0,0,-1,1042,1289,0,0
-175,-265,0,0,0,0,0,0,0,0,0,-1,1049,1289,0,0
-168,-265,0,0,0,0,0,0,0,0,0,-1,1056,1289,0,0
-161,-265,0,0,0,0,0,0,0,0,0,-1,1063,1289,0,0
-154,-265,0,0,0,0,0,0,0,0,0,-1,1070,1289,0,0
-147,-265,0,0,0,0,0,0,0,0,0,-1,1077,1289,0,0
-140,-265,0,0,0,0,0,0,0,0,0,-1,1084,1289,0,0
-133,-265,0,0,0,0,0,0,0,0,0,-1,1091,1289,0,0
-126,-265,0,0,0,0,0,0,0,0,0,-1,1098,1289,0,0
-119,-265,0,0,0,0,0,0,0,0,0,-1,1105,1289,0,0
-112,-265,0,0,0,0,0,0,0,0,0,-1,1112,1289,0,0
-105,-265,0,0,0,0,0,0,0,0,0,-1,1119,1289,0,0
-98,-265,0,0,0,0,0,0,0,0,0,-1,1126,1289,0,0
-91,-265,0,0,0,0,0,0,0,0,0,-1,1133,1289,0,0
-84,-265,0,0,0,0,0,0,0,0,0,-1,1140,1289,0,0
-77,-265,0,0,0,0,0,0,0,0,0,-1,1147,1289,0,0
-70,-265,0,0,0,0,0,0,0,0,0,-1,1154,1289,0,0
-63,-265,0,0,0,0,0,0,0,0,0,-1,1161,1289,0,0
-56,-265,0,0,0,0,0,0,0,0,0,-1,1168,1289,0,0
-49,-265,0,0,0,0,0,0,0,0,0,-1,1175,1289,0,0
-42,-265,0,0,0,0,0,0,0,0,0,-1,1182,1289,0,0
-35,-265,0,0,0,0,0,0,0,0,0,-1,1189,1289,0,0
-28,-265,0,0,0,0,0,0,0,0,0,-1,1196,1289,0,0
-21,-265,0,0,0,0,0,0,0,0,0,-1,1203,1289,0,0
-14,-265,0,0,0,0,0,0,0,0,0,-1,1210,1289,0,0
-7,-265,0,0,0,0,0,0,0,0,0,-1,1217,1289,0,0
0,-265,0,0,0,0,0,0,0,0,0,-1,1224,1289,0,0
7,-265,0,0,0,0,0,0,0,0,0,-1,1231,1289,0,0
14,-265,0,0,0,0,0,0,0,0,0,-1,1238,1289,0,0
21,-265,0,0,0,0,0,0,0,0,0,-1,1245,1289,0,0
28,-265,0,0,0,0,0,0,0,0,0,-1,1252,1289,0,0
35,-265,0,0,0,0,0,0,0,0,0,-1,1259,1289,0,0
42,-265,0,0,0,0,0,0,0,0,0,-1,1266,1289,0,0
49,-265,0,0,0,0,0,0,0,0,0,-1,1273,1289,0,0
56,-265,0,0,0,0,0,0,0,0,0,-1,1280,1289,0,0
63,-265,0,0,0,0,0,0,0,0,0,-1,1287,1289,0,0
70,-265,0,0,0,0,0,0,0,0,0,-1,1294,1289,0,0
77,-265,0,0,0,0,0,0,0,0,0,-1,1301,1289,0,0
84,-265,0,0,0,0,0,0,0,0,0,-1,1308,1289,0,0
91,-265,0,0,0,0,0,0,0,0,0,-1,1315,1289,0,0
98,-265,0,0,0,0,0,0,0,0,0,-1,1322,1289,0,0
105,-265,0,0,0,0,0,0,0,0,0,-1,1329,1289,0,0
112,-265,0,0,0,0,0,0,0,0,0,-1,1336,1289,0,0
119,-265,0,0,0,0,0,0,0,0,0,-1,1343,1289,0,0
126,-265,0,0,0,0,0,0,0,0,0,-1,1350,1289,0,0
133,-265,0,0,0,0,0,0,0,0,0,-1,1357,1289,0,0
140,-265,0,0,0,0,0,0,0,0,0,-1,1364,1289,0,0
147,-265,0,0,0,0,0,0,0,0,0,-1,1371,1289,0,0
154,-265,0,0,0,0,0,0,0,0,0,-1,1378,1289,0,0
161,-265,0,0,0,0,0,0,0,0,0,-1,1385,1289,0,0
168,-265,0,0,0,0,0,0,0,0,0,-1,1392,1289,0,0
175,-265,0,0,0,0,0,0,0,0,0,-1,1399,1289,0,0
182,-265,0,0,0,0,0,0,0,0,0,-1,1406,1289,0,0
189,-265,0,0,0,0,0,0,0,0,0,-1,1413,1289,0,0
196,-265,0,0,0,0,0,0,0,0,0,-1,1420,1289,0,0
203,-265,0,0,0,0,0,0,0,0,0,-1,1427,1289,0,0
210,-265,0,0,0,0,0,0,0,0,0,-1,1434,1289,0,0
217,-265,0,0,0,0,0,0,0,0,0,-1,1441,1289,0,0
224,-265,0,0,0,0,0,0,0,0,0,-1,1448,1289,0,0
231,-265,0,0,0,0,0,0,0,0,0,-1,1455,1289,0,0
238,-265,0,0,0,0,0,0,0,0,0,-1,1462,1289,0,0
245,-265,0,0,0,0,0,0,0,0,0,-1,1469,1289,0,0
252,-265,0,0,0,0,0,0,0,0,0,-1,1476,1289,0,0
259,-265,0,0,0,0,0,0,0,0,0,-1,1483,1289,0,0
266,-265,0,0,0,0,0,0,0,0,0,-1,1490,1289,0,0
273,-265,0,0,0,0,0,0,0,0,0,-1,1497,1289,0,0
280,-265,0,0,0,0,0,0,0,0,0,-1,1504,1289,0,0
287,-265,0,0,0,0,0,0,0,0,0,-1,1511,1289,0,0
294,-265,0,0,0,0,0,0,0,0,0,-1,1518,1289,0,0
301,-265,0,0,0,0,0,0,0,0,0,-1,1525,1289,0,0
308,-265,0,0,0,0,0,0,0,0,0,-1,1532,1289,0,0
315,-265,0,0,0,0,0,0,0,0,0,-1,1539,1289,0,0
322,-265,0,0,0,0,0,0,0,0,0,-1,1546,1289,0,0
329,-265,0,0,0,0,0,0,0,0,0,-1,1553,1289,0,0
336,-265,0,0,0,0,0,0,0,0,0,-1,1560,1289,0,0
343,-265,0,0,0,0,0,0,0,0,0,-1,1567,1289,0,0
350,-265,0,0,0,0,0,0,0,0,0,-1,1574,1289,0,0
357,-265,0,0,0,0,0,0,0,0,0,-1,1581,1289,0,0
364,-265,0,0,0,0,0,0,0,0,0,-1,1588,1289,0,0
371,-265,0,0,0,0,0,0,0,0,0,-1,1595,1289,0,0
378,-265,0,0,0,0,0,0,0,0,0,-1,1602,1289,0,0
385,-265,0,0,0,0,0,0,0,0,0,-1,1609,1289,0,0
392,-265,0,0,0,0,0,0,0,0,0,-1,1616,1289,0,0
399,-265,0,0,0,0,0,0,0,0,0,-1,1623,1289,0,0
406,-265,0,0,0,0,0,0,0,0,0,-1,1630,1289,0,0
413,-265,0,0,0,0,0,0,0,0,0,-1,1637,1289,0,0
420,-265,0,0,0,0,0,0,0,0,0,-1,1644,1289,0,0
427,-265,0,0,0,0,0,0,0,0,0,-1,1651,1289,0,0
434,-265,0,0,0,0,0,0,0,0,0,-1,1658,1289,0,0
441,-265,0,0,0,0,0,0,0,0,0,-1,1665,1289,0,0
448,-265,0,0,0,0,0,0,0,0,0,-1,1672,1289,0,0
455,-265,0,0,0,0,0,0,0,0,0,-1,1679,1289,0,0
462,-265,0,0,0,0,0,0,0,0,0,-1,1686,1289,0,0
469,-265,0,0,0,0,0,0,0,0,0,-1,1693,1289,0,0
476,-265,0,0,0,0,0,0,0,0,0,-1,1700,1289,0,0
483,-265,0,0,0,0,0,0,0,0,0,-1,1707,1289,0,0
490,-265,0,0,0,0,0,0,0,0,0,-1,1714,1289,0,0
497,-265,0,0,0,0,0,0,0,0,0,-1,1721,1289,0,0
504,-265,0,0,0,0,0,0,0,0,0,-1,1728,1289,0,0
511,-265,0,0,0,0,0,0,0,0,0,-1,1735,1289,0,0
518,-265,0,0,0,0,0,0,0,0,0,-1,1742,1289,0,0
525,-265,0,0,0,0,0,0,0,0,0,-1,1749,1289,0,0
532,-265,0,0,0,0,0,0,0,0,0,-1,1756,1289,0,0
539,-265,0,0,0,0,0,0,0,0,0,-1,1763,1289,0,0
546,-265,0,0,0,0,0,0,0,0,0,-1,1770,1289,0,0
553,-265,0,0,0,0,0,0,0,0,0,-1,1777,1289,0,0
560,-265,0,0,0,0,0,0,0,0,0,-1,1784,1289,0,0
567,-265,0,0,0,0,0,0,0,0,0,-1,1791,1289,0,0
574,-265,0,0,0,0,0,0,0,0,0,-1,1798,1289,0,0
581,-265,0,0,0,0,0,0,0,0,0,-1,1805,1289,0,0
588,-265,0,0,0,0,0,0,0,0,0,-1,1812,1289,0,0
595,-265,0,0,0,0,0,0,0,0,0,-1,1819,1289,0,0
602,-265,15.5663,2.36047,-0.0149359,-0.00603252,-0.0100781,0.000533328,-0.0215018,-0.993371,0.0145156,0.0264681,1826,1289,15.5663,-2.3605
609,-265,15.5548,2.30273,-0.0107755,-0.00209192,-0.00678961,0.00162544,-0.0144929,-1.06987,0.0102468,0.0265574,1833,1289,15.5548,-2.30279
616,-265,15.4558,2.25488,-0.00951052,0.00490405,-0.00347885,0.00569973,-0.0103062,-1.34595,0.00936772,0.0332186,1840,1289,15.4558,-2.25493
623,-265,15.475,2.12939,-0.00934264,0.0105352,-0.000644267,0.010556,-0.0093635,-1.53843,0.0115074,0.0452398,1847,1289,15.475,-2.12935
630,-265,15.5662,1.94763,-0.0096799,0.0137097,0.00160895,0.0138198,-0.00979006,1.50244,0.0136972,0.0449468,1854,1289,15.5662,-1.94761
637,-265,15.5464,1.79016,-0.0100219,0.0156375,0.00314345,0.016017,-0.0104013,1.45066,0.0153671,0.0445134,1861,1289,15.5464,-1.79013
644,-265,15.5614,1.77136,0,0,0,0,0,0,0,-1,1868,1289,15.5614,-1.77142
651,-265,15.8085,1.72485,0,0,0,0,0,0,0,-1,1875,1289,15.8085,-1.72491
658,-265,13.6171,1.64063,0,0,0,0,0,0,0,-1,1882,1289,13.6171,-1.64068
665,-265,11.1312,-2.16956,0,0,0,0,0,0,0,-1,1889,1289,11.1312,2.16959
672,-265,12.9387,4.12549,0,0,0,0,0,0,0,-1,1896,1289,12.9387,-4.12553
679,-265,12.9249,4.18213,-0.0091098,0.0108436,0.00494968,0.0120039,-0.0102701,1.34053,0.0128729,0.028979,1903,1289,12.9249,-4.18209
686,-265,12.9202,4.13928,-0.0081914,0.00886078,0.00463414,0.0100388,-0.0093694,1.32187,0.0112075,0.0128674,1910,1289,12.9201,-4.13923
693,-265,12.9282,3.98572,-0.00665918,0.00588914,0.00390529,0.00700527,-0.00777531,1.29242,0.00853743,0.00961081,1917,1289,12.9282,-3.98575
700,-265,12.9329,3.85742,-0.0047355,0.00415648,0.00233379,0.00473179,-0.0053108,1.3291,0.0058013,0.00999385,1924,1289,12.9328,-3.85737
707,-265,12.9596,3.74597,-0.00208734,0.00213441,0.00121574,0.00245948,-0.00241241,1.30953,0.00281283,0.00971564,1931,1289,12.9596,-3.74593
714,-265,12.9471,3.62463,0.000391724,0.00111502,0.000115651,0.00113306,0.000373682,1.41604,0.000666687,0.00927396,1938,1289,12.9472,-3.62461
721,-265,12.944,3.50977,0.00286097,0.001677,-0.000918191,0.00336147,0.0011765,-0.499068,0.00196964,0.00924053,1945,1289,12.944,-3.50973
728,-265,12.9417,3.40039,0.00515735,0.00294798,-0.00206734,0.00639664,0.00170868,-0.540024,0.0038243,0.0107112,1952,1289,12.9417,-3.40043
735,-265,12.9294,3.29431,0.0080026,0.00460293,-0.00357316,0.0102596,0.00234588,-0.563379,0.00620737,0.0138037,1959,1289,12.9294,-3.29431
742,-265,12.9572,3.18701,0.0110197,0.00630689,-0.00524794,0.014416,0.00291061,-0.57438,0.00880237,0.0180776,1966,1289,12.9571,-3.18707
749,-265,12.9352,3.11743,0.0147079,0.00838063,-0.00731233,0.0195116,0.0035769,-0.581236,0.0119945,0.0363518,1973,1289,12.9352,-3.11737
756,-265,12.9209,3.03516,0.0193352,0.0107571,-0.00994118,0.0258731,0.00421916,-0.581741,0.0160285,0.0438514,1980,1289,12.9209,-3.03515
763,-265,13.6481,3.41052,0.0249884,0.013331,-0.0132102,0.0335986,0.00472079,-0.577631,0.0210031,0.0443252,1987,1289,13.648,-3.41047
770,-265,13.009,3.07153,0,0,0,0,0,0,0,-1,1994,1289,13.009,-3.07157
777,-265,12.5261,2.61401,0,0,0,0,0,0,0,-1,2001,1289,12.5261,-2.61396
784,-265,0,0,0,0,0,0,0,0,0,-1,2008,1289,0,0
791,-265,0,0,0,0,0,0,0,0,0,-1,2015,1289,0,0
798,-265,0,0,0,0,0,0,0,0,0,-1,2022,1289,0,0
805,-265,0,0,0,0,0,0,0,0,0,-1,2029,1289,0,0
812,-265,0,0,0,0,0,0,0,0,0,-1,2036,1289,0,0
-700,-272,0,0,0,0,0,0,0,0,0,-1,524,1296,0,0
-693,-272,0,0,0,0,0,0,0,0,0,-1,531,1296,0,0
-686,-272,0,0,0,0,0,0,0,0,0,-1,538,1296,0,0
-679,-272,0,0,0,0,0,0,0,0,0,-1,545,1296,0,0
-672,-272,0,0,0,0,0,0,0,0,0,-1,552,1296,0,0
-665,-272,0,0,0,0,0,0,0,0,0,-1,559,1296,0,0
-658,-272,-4.48907,-2.91467,-0.033807,-0.0241402,-0.0171926,-0.0111145,-0.0468327,-0.922427,0.0282553,0.0422448,566,1296,-4.48909,2.91471
-651,-272,-4.57751,-3.30481,-0.0274137,-0.0194804,-0.00908147,-0.0135371,-0.033357,-0.991302,0.0193722,0.0450818,573,1296,-4.57749,3.30485
-644,-272,-6.25134,1.14209,0,0,0,0,0,0,0,-1,580,1296,-6.25135,-1.14207
-637,-272,-6.19891,0.871216,-0.0155452,-0.00803055,0.000248074,-0.00802237,-0.0155534,1.53783,0.00898127,0.0468439,587,1296,-6.19888,-0.871175
-630,-272,-6.18695,1.05225,-0.0106041,-0.00320209,0.00240651,-0.0024885,-0.0113177,1.28253,0.00686762,0.0470659,594,1296,-6.18693,-1.05224
-623,-272,-6.15131,0.951538,-0.00659349,0.000345398,0.0034489,0.00176799,-0.00801608,1.17958,0.00602054,0.044789,601,1296,-6.15129,-0.951493
-616,-272,-6.19794,1.02014,-0.00367295,0.00153102,0.00435826,0.00400493,-0.00614686,1.05451,0.00590447,0.037098,608,1296,-6.19792,-1.02014
-609,-272,-6.19745,1.13013,-0.00143832,0.00267068,0.00428604,0.00536919,-0.00413683,1.00889,0.00550365,0.019705,615,1296,-6.19746,-1.13008
-602,-272,-6.22632,1.22961,0.00027608,0.00404065,0.00371404,0.00632215,-0.00200542,1.01994,0.00501863,0.0132803,622,1296,-6.22632,-1.22963
-595,-272,-6.2276,1.40027,0.00144195,0.00425172,0.00296243,0.00612551,-0.000431838,1.00681,0.00423496,0.0112835,629,1296,-6.22761,-1.40029
-588,-272,-6.22083,1.56409,0.00228525,0.0039994,0.00191939,0.00524438,0.00104027,0.995382,0.00320625,0.0103342,636,1296,-6.22086,-1.56408
-581,-272,-6.21753,1.71399,0.00292331,0.00200697,0.0010121,0.00357612,0.00135416,0.572853,0.00208484,0.00956875,643,1296,-6.21756,-1.71401
-574,-272,-6.24146,1.85693,0.00303423,-0.000211695,0.000707232,0.00318163,-0.000359096,0.205477,0.00225035,0.0143818,650,1296,-6.24144,-1.85695
-567,-272,-6.26685,1.98926,0.0028727,-0.00252476,0.000210995,0.00288094,-0.00253299,0.0390122,0.00312789,0.0203633,657,1296,-6.26682,-1.98927
-560,-272,-6.26324,2.15674,0.00382192,-0.00367793,-0.00159471,0.00414692,-0.00400294,-0.201047,0.00470557,0.019899,664,1296,-6.26324,-2.15671
-553,-272,-6.22198,2.31555,0.00644661,-0.00435462,-0.00451958,0.00808824,-0.00599625,-0.348409,0.00816153,0.0139607,671,1296,-6.22199,-2.31557
-546,-272,-6.22339,2.46118,0.00995661,-0.00456122,-0.00793251,0.0134502,-0.00805482,-0.414855,0.0125455,0.0188088,678,1296,-6.22336,-2.46118
-539,-272,-6.15063,2.47021,0.0136096,-0.00466117,-0.0116327,0.0192652,-0.0103169,-0.452537,0.0173377,0.0435928,685,1296,-6.15064,-2.47025
-532,-272,-6.07416,2.45569,0,0,0,0,0,0,0,-1,692,1296,-6.07417,-2.45564
-525,-272,-9.19196,3.58203,0,0,0,0,0,0,0,-1,699,1296,-9.19197,-3.58204
-518,-272,-9.4129,1.11597,0,0,0,0,0,0,0,-1,706,1296,-9.41288,-1.116
-511,-272,-9.00488,0.752197,0.0379012,-0.00046768,-0.0355608,0.0591224,-0.0216889,-0.538032,0.0482961,0.0475348,713,1296,-9.00488,-0.752255
-504,-272,-8.47217,0.210693,0.0478463,0.0036205,-0.0445846,0.0755006,-0.0240337,-0.555186,0.0599723,0.0486213,720,1296,-8.47216,-0.210677
-497,-272,-7.71277,-0.532959,0.059947,0.0101865,-0.0547974,0.095248,-0.0251145,-0.572294,0.0733183,0.047581,727,1296,-7.71279,0.5329
-490,-272,-7.28296,-1.26038,0,0,0,0,0,0,0,-1,734,1296,-7.28294,1.26036
-483,-272,-8.69073,0.547607,0,0,0,0,0,0,0,-1,741,1296,-8.69072,-0.547663
-476,-272,0,0,0,0,0,0,0,0,0,-1,748,1296,0,0
-469,-272,0,0,0,0,0,0,0,0,0,-1,755,1296,0,0
-462,-272,0,0,0,0,0,0,0,0,0,-1,762,1296,0,0
-455,-272,0,0,0,0,0,0,0,0,0,-1,769,1296,0,0
-448,-272,0,0,0,0,0,0,0,0,0,-1,776,1296,0,0
-441,-272,0,0,0,0,0,0,0,0,0,-1,783,1296,0,0
-434,-272,0,0,0,0,0,0,0,0,0,-1,790,1296,0,0
-427,-272,0,0,0,0,0,0,0,0,0,-1,797,1296,0,0
-420,-272,0,0,0,0,0,0,0,0,0,-1,804,1296,0,0
-413,-272,0,0,0,0,0,0,0,0,0,-1,811,1296,0,0
-406,-272,0,0,0,0,0,0,0,0,0,-1,818,1296,0,0
-399,-272,0,0,0,0,0,0,0,0,0,-1,825,1296,0,0
-392,-272,0,0,0,0,0,0,0,0,0,-1,832,1296,0,0
-385,-272,0,0,0,0,0,0,0,0,0,-1,839,1296,0,0
-378,-272,0,0,0,0,0,0,0,0,0,-1,846,1296,0,0
-371,-272,0,0,0,0,0,0,0,0,0,-1,853,1296,0,0
-364,-272,0,0,0,0,0,0,0,0,0,-1,860,1296,0,0
-357,-272,0,0,0,0,0,0,0,0,0,-1,867,1296,0,0
-350,-272,0,0,0,0,0,0,0,0,0,-1,874,1296,0,0
-343,-272,0,0,0,0,0,0,0,0,0,-1,881,1296,0,0
-336,-272,0,0,0,0,0,0,0,0,0,-1,888,1296,0,0
-329,-272,0,0,0,0,0,0,0,0,0,-1,895,1296,0,0
-322,-272,0,0,0,0,0,0,0,0,0,-1,902,1296,0,0
-315,-272,0,0,0,0,0,0,0,0,0,-1,909,1296,0,0
-308,-272,0,0,0,0,0,0,0,0,0,-1,916,1296,0,0
-301,-272,0,0,0,0,0,0,0,0,0,-1,923,1296,0,0
-294,-272,0,0,0,0,0,0,0,0,0,-1,930,1296,0,0
-287,-272,0,0,0,0,0,0,0,0,0,-1,937,1296,0,0
-280,-272,0,0,0,0,0,0,0,0,0,-1,944,1296,0,0
-273,-272,0,0,0,0,0,0,0,0,0,-1,951,1296,0,0
-266,-272,0,0,0,0,0,0,0,0,0,-1,958,1296,0,0
-259,-272,0,0,0,0,0,0,0,0,0,-1,965,1296,0,0
-252,-272,0,0,0,0,0,0,0,0,0,-1,972,1296,0,0
-245,-272,0,0,0,0,0,0,0,0,0,-1,979,1296,0,0
-238,-272,0,0,0,0,0,0,0,0,0,-1,986,1296,0,0
-231,-272,0,0,0,0,0,0,0,0,0,-1,993,1296,0,0
-224,-272,0,0,0,0,0,0,0,0,0,-1,1000,1296,0,0
-217,-272,0,0,0,0,0,0,0,0,0,-1,1007,1296,0,0
-210,-272,0,0,0,0,0,0,0,0,0,-1,1014,1296,0,0
-203,-272,0,0,0,0,0,0,0,0,0,-1,1021,1296,0,0
-196,-272,0,0,0,0,0,0,0,0,0,-1,1028,1296,0,0
-189,-272,0,0,0,0,0,0,0,0,0,-1,1035,1296,0,0
-182,-272,0,0,0,0,0,0,0,0,0,-1,1042,1296,0,0
-175,-272,0,0,0,0,0,0,0,0,0,-1,1049,1296,0,0
-168,-272,0,0,0,0,0,0,0,0,0,-1,1056,1296,0,0
-161,-272,0,0,0,0,0,0,0,0,0,-1,1063,1296,0,0
-154,-272,0,0,0,0,0,0,0,0,0,-1,1070,1296,0,0
-147,-272,0,0,0,0,0,0,0,0,0,-1,1077,1296,0,0
-140,-272,0,0,0,0,0,0,0,0,0,-1,1084,1296,0,0
-133,-272,0,0,0,0,0,0,0,0,0,-1,1091,1296,0,0
-126,-272,0,0,0,0,0,0,0,0,0,-1,1098,1296,0,0
-119,-272,0,0,0,0,0,0,0,0,0,-1,1105,1296,0,0
-112,-272,0,0,0,0,0,0,0,0,0,-1,1112,1296,0,0
-105,-272,0,0,0,0,0,0,0,0,0,-1,1119,1296,0,0
-98,-272,0,0,0,0,0,0,0,0,0,-1,1126,1296,0,0
-91,-272,0,0,0,0,0,0,0,0,0,-1,1133,1296,0,0
-84,-272,0,0,0,0,0,0,0,0,0,-1,1140,1296,0,0
-77,-272,0,0,0,0,0,0,0,0,0,-1,1147,1296,0,0
-70,-272,0,0,0,0,0,0,0,0,0,-1,1154,1296,0,0
-63,-272,0,0,0,0,0,0,0,0,0,-1,1161,1296,0,0
-56,-272,0,0,0,0,0,0,0,0,0,-1,1168,1296,0,0
-49,-272,0,0,0,0,0,0,0,0,0,-1,1175,1296,0,0
-42,-272,0,0,0,0,0,0,0,0,0,-1,1182,1296,0,0
-35,-272,0,0,0,0,0,0,0,0,0,-1,1189,1296,0,0
-28,-272,0,0,0,0,0,0,0,0,0,-1,1196,1296,0,0
-21,-272,0,0,0,0,0,0,0,0,0,-1,1203,1296,0,0
-14,-272,0,0,0,0,0,0,0,0,0,-1,1210,1296,0,0
-7,-272,0,0,0,0,0,0,0,0,0,-1,1217,1296,0,0
0,-272,0,0,0,0,0,0,0,0,0,-1,1224,1296,0,0
7,-272,0,0,0,0,0,0,0,0,0,-1,1231,1296,0,0
14,-272,0,0,0,0,0,0,0,0,0,-1,1238,1296,0,0
21,-272,0,0,0,0,0,0,0,0,0,-1,1245,1296,0,0
28,-272,0,0,0,0,0,0,0,0,0,-1,1252,1296,0,0
35,-272,0,0,0,0,0,0,0,0,0,-1,1259,1296,0,0
42,-272,0,0,0,0,0,0,0,0,0,-1,1266,1296,0,0
49,-272,0,0,0,0,0,0,0,0,0,-1,1273,1296,0,0
56,-272,0,0,0,0,0,0,0,0,0,-1,1280,1296,0,0
63,-272,0,0,0,0,0,0,0,0,0,-1,1287,1296,0,0
70,-272,0,0,0,0,0,0,0,0,0,-1,1294,1296,0,0
77,-272,0,0,0,0,0,0,0,0,0,-1,1301,1296,0,0
84,-272,0,0,0,0,0,0,0,0,0,-1,1308,1296,0,0
91,-272,0,0,0,0,0,0,0,0,0,-1,1315,1296,0,0
98,-272,0,0,0,0,0,0,0,0,0,-1,1322,1296,0,0
105,-272,0,0,0,0,0,0,0,0,0,-1,1329,1296,0,0
112,-272,0,0,0,0,0,0,0,0,0,-1,1336,1296,0,0
119,-272,0,0,0,0,0,0,0,0,0,-1,1343,1296,0,0
126,-272,0,0,0,0,0,0,0,0,0,-1,1350,1296,0,0
133,-272,0,0,0,0,0,0,0,0,0,-1,1357,1296,0,0
140,-272,0,0,0,0,0,0,0,0,0,-1,1364,1296,0,0
147,-272,0,0,0,0,0,0,0,0,0,-1,1371,1296,0,0
154,-272,0,0,0,0,0,0,0,0,0,-1,1378,1296,0,0
161,-272,0,0,0,0,0,0,0,0,0,-1,1385,1296,0,0
168,-272,0,0,0,0,0,0,0,0,0,-1,1392,1296,0,0
175,-272,0,0,0,0,0,0,0,0,0,-1,1399,1296,0,0
182,-272,0,0,0,0,0,0,0,0,0,-1,1406,1296,0,0
189,-272,0,0,0,0,0,0,0,0,0,-1,1413,1296,0,0
196,-272,0,0,0,0,0,0,0,0,0,-1,1420,1296,0,0
203,-272,0,0,0,0,0,0,0,0,0,-1,1427,1296,0,0
210,-272,0,0,0,0,0,0,0,0,0,-1,1434,1296,0,0
217,-272,0,0,0,0,0,0,0,0,0,-1,1441,1296,0,0
224,-272,0,0,0,0,0,0,0,0,0,-1,1448,1296,0,0
231,-272,0,0,0,0,0,0,0,0,0,-1,1455,1296,0,0
238,-272,0,0,0,0,0,0,0,0,0,-1,1462,1296,0,0
245,-272,0,0,0,0,0,0,0,0,0,-1,1469,1296,0,0
252,-272,0,0,0,0,0,0,0,0,0,-1,1476,1296,0,0
259,-272,0,0,0,0,0,0,0,0,0,-1,1483,1296,0,0
266,-272,0,0,0,0,0,0,0,0,0,-1,1490,1296,0,0
273,-272,0,0,0,0,0,0,0,0,0,-1,1497,1296,0,0
280,-272,0,0,0,0,0,0,0,0,0,-1,1504,1296,0,0
287,-272,0,0,0,0,0,0,0,0,0,-1,1511,1296,0,0
294,-272,0,0,0,0,0,0,0,0,0,-1,1518,1296,0,0
301,-272,0,0,0,0,0,0,0,0,0,-1,1525,1296,0,0
308,-272,0,0,0,0,0,0,0,0,0,-1,1532,1296,0,0
315,-272,0,0,0,0,0,0,0,0,0,-1,1539,1296,0,0
322,-272,0,0,0,0,0,0,0,0,0,-1,1546,1296,0,0
329,-272,0,0,0,0,0,0,0,0,0,-1,1553,1296,0,0
336,-272,0,0,0,0,0,0,0,0,0,-1,1560,1296,0,0
343,-272,0,0,0,0,0,0,0,0,0,-1,1567,1296,0,0
350,-272,0,0,0,0,0,0,0,0,0,-1,1574,1296,0,0
357,-272,0,0,0,0,0,0,0,0,0,-1,1581,1296,0,0
364,-272,0,0,0,0,0,0,0,0,0,-1,1588,1296,0,0
371,-272,0,0,0,0,0,0,0,0,0,-1,1595,1296,0,0
378,-272,0,0,0,0,0,0,0,0,0,-1,1602,1296,0,0
385,-272,0,0,0,0,0,0,0,0,0,-1,1609,1296,0,0
392,-272,0,0,0,0,0,0,0,0,0,-1,1616,1296,0,0
399,-272,0,0,0,0,0,0,0,0,0,-1,1623,1296,0,0
406,-272,0,0,0,0,0,0,0,0,0,-1,1630,1296,0,0
413,-272,0,0,0,0,0,0,0,0,0,-1,1637,1296,0,0
420,-272,0,0,0,0,0,0,0,0,0,-1,1644,1296,0,0
427,-272,0,0,0,0,0,0,0,0,0,-1,1651,1296,0,0
434,-272,0,0,0,0,0,0,0,0,0,-1,1658,1296,0,0
441,-272,0,0,0,0,0,0,0,0,0,-1,1665,1296,0,0
448,-272,0,0,0,0,0,0,0,0,0,-1,1672,1296,0,0
455,-272,0,0,0,0,0,0,0,0,0,-1,1679,1296,0,0
462,-272,0,0,0,0,0,0,0,0,0,-1,1686,1296,0,0
469,-272,0,0,0,0,0,0,0,0,0,-1,1693,1296,0,0
476,-272,0,0,0,0,0,0,0,0,0,-1,1700,1296,0,0
483,-272,0,0,0,0,0,0,0,0,0,-1,1707,1296,0,0
490,-272,0,0,0,0,0,0,0,0,0,-1,1714,1296,0,0
497,-272,0,0,0,0,0,0,0,0,0,-1,1721,1296,0,0
504,-272,0,0,0,0,0,0,0,0,0,-1,1728,1296,0,0
511,-272,0,0,0,0,0,0,0,0,0,-1,1735,1296,0,0
518,-272,0,0,0,0,0,0,0,0,0,-1,1742,1296,0,0
525,-272,0,0,0,0,0,0,0,0,0,-1,1749,1296,0,0
532,-272,0,0,0,0,0,0,0,0,0,-1,1756,1296,0,0
539,-272,0,0,0,0,0,0,0,0,0,-1,1763,1296,0,0
546,-272,0,0,0,0,0,0,0,0,0,-1,1770,1296,0,0
553,-272,0,0,0,0,0,0,0,0,0,-1,1777,1296,0,0
560,-272,0,0,0,0,0,0,0,0,0,-1,1784,1296,0,0
567,-272,0,0,0,0,0,0,0,0,0,-1,1791,1296,0,0
574,-272,0,0,0,0,0,0,0,0,0,-1,1798,1296,0,0
581,-272,0,0,0,0,0,0,0,0,0,-1,1805,1296,0,0
588,-272,0,0,0,0,0,0,0,0,0,-1,1812,1296,0,0
595,-272,0,0,0,0,0,0,0,0,0,-1,1819,1296,0,0
602,-272,15.5183,2.31299,-0.0168712,-0.00745889,-0.010973,-0.00022545,-0.0241046,-0.987977,0.0159951,0.0300823,1826,1296,15.5183,-2.31303
609,-272,15.5082,2.23694,-0.0131959,-0.0019893,-0.0073487,0.00164862,-0.0168339,-1.11112,0.0118105,0.0348827,1833,1296,15.5082,-2.23696
616,-272,15.38,2.09656,-0.0117539,0.0045913,-0.0039177,0.0054818,-0.0126444,-1.34729,0.010734,0.0428109,1840,1296,15.38,-2.09661
623,-272,15.3362,2.11682,-0.0110902,0.0093215,-0.00108194,0.00937869,-0.0111474,-1.51799,0.0118654,0.0432386,1847,1296,15.3362,-2.11687
630,-272,15.4669,2.29492,-0.0107925,0.0118961,0.0011235,0.0119516,-0.010848,1.52144,0.0131685,0.0457319,1854,1296,15.4669,-2.29494
637,-272,15.4104,1.56482,-0.0105173,0.0137952,0.00261175,0.0140726,-0.0107947,1.46498,0.0143987,0.0459615,1861,1296,15.4104,-1.5648
644,-272,15.6807,1.91418,-0.0101424,0.0143754,0.0037361,0.0149321,-0.0106991,1.42288,0.0148653,0.0456659,1868,1296,15.6807,-1.91422
651,-272,16.1973,2.35425,0,0,0,0,0,0,0,-1,1875,1296,16.1973,-2.35423
658,-272,13.3683,5.90381,0,0,0,0,0,0,0,-1,1882,1296,13.3683,-5.90381
665,-272,13.0817,4.15613,0,0,0,0,0,0,0,-1,1889,1296,13.0817,-4.15617
672,-272,12.9236,4.16614,-0.00887219,0.0120778,0.00535125,0.0133655,-0.0101599,1.33465,0.0136244,0.0487083,1896,1296,12.9235,-4.16618
679,-272,12.7903,4.1897,-0.00875284,0.00994018,0.00468113,0.0110469,-0.00985957,1.33864,0.0120768,0.0218824,1903,1296,12.7902,-4.18971
686,-272,12.7982,4.12256,-0.00777426,0.00803959,0.00423432,0.009102,-0.00883667,1.32497,0.0103573,0.0130111,1910,1296,12.7982,-4.12255
693,-272,12.7987,3.99805,-0.00611069,0.00520413,0.00339753,0.00614593,-0.00705249,1.30039,0.0076261,0.010727,1917,1296,12.7987,-3.99801
700,-272,12.8099,3.88794,-0.00406448,0.00380968,0.00174567,0.00417934,-0.00443414,1.36212,0.00497372,0.0104562,1924,1296,12.8099,-3.88789
707,-272,12.8329,3.76672,-0.0012849,0.00225683,0.000616793,0.00236117,-0.00138924,1.40322,0.00218941,0.0101445,1931,1296,12.8329,-3.76676
714,-272,12.8281,3.62219,0.00140942,0.00168866,-0.000574892,0.00214064,0.000957438,-0.904522,0.00123819,0.0103821,1938,1296,12.8281,-3.62219
721,-272,12.8141,3.49756,0.00424279,0.00244697,-0.00178521,0.00534318,0.00134657,-0.552387,0.00320887,0.0120625,1945,1296,12.8141,-3.49756
728,-272,12.806,3.38879,0.00688959,0.00392147,-0.0031208,0.00886123,0.00194984,-0.563454,0.00537671,0.0137529,1952,1296,12.806,-3.38874
735,-272,12.8167,3.271,0.0101276,0.0058071,-0.00479581,0.0132273,0.00270746,-0.573785,0.00806855,0.01296,1959,1296,12.8166,-3.27101
742,-272,12.8085,3.14172,0.0137238,0.00789645,-0.00669251,0.0181094,0.00351087,-0.580089,0.0110895,0.022625,1966,1296,12.8085,-3.1417
749,-272,12.7212,3.49146,0.0180826,0.01038,-0.00903353,0.0240516,0.00441108,-0.583897,0.014785,0.0390824,1973,1296,12.7212,-3.49141
756,-272,12.6678,3.87976,0,0,0,0,0,0,0,-1,1980,1296,12.6679,-3.87981
763,-272,13.458,1.82117,0,0,0,0,0,0,0,-1,1987,1296,13.458,-1.82114
770,-272,12.918,3.026,0,0,0,0,0,0,0,-1,1994,1296,12.9179,-3.02596
777,-272,12.3306,2.81079,0,0,0,0,0,0,0,-1,2001,1296,12.3306,-2.81074
784,-272,0,0,0,0,0,0,0,0,0,-1,2008,1296,0,0
791,-272,0,0,0,0,0,0,0,0,0,-1,2015,1296,0,0
798,-272,0,0,0,0,0,0,0,0,0,-1,2022,1296,0,0
805,-272,0,0,0,0,0,0,0,0,0,-1,2029,1296,0,0
812,-272,0,0,0,0,0,0,0,0,0,-1,2036,1296,0,0
-700,-279,0,0,0,0,0,0,0,0,0,-1,524,1303,0,0
-693,-279,0,0,0,0,0,0,0,0,0,-1,531,1303,0,0
-686,-279,0,0,0,0,0,0,0,0,0,-1,538,1303,0,0
-679,-279,0,0,0,0,0,0,0,0,0,-1,545,1303,0,0
-672,-279,0,0,0,0,0,0,0,0,0,-1,552,1303,0,0
-665,-279,0,0,0,0,0,0,0,0,0,-1,559,1303,0,0
-658,-279,-4.83478,-2.28906,-0.044365,-0.0336135,-0.00566343,-0.0311807,-0.0467978,-1.16507,0.0275123,0.0434167,566,1303,-4.83479,2.28901
-651,-279,-4.99683,-2.56177,-0.0345889,-0.0235407,-0.000574627,-0.0235109,-0.0346187,-1.51897,0.0204102,0.043274,573,1303,-4.99683,2.56176
-644,-279,-6.0061,0.450317,0,0,0,0,0,0,0,-1,580,1303,-6.00608,-0.450331
-637,-279,-5.97321,0.44873,-0.0181776,-0.00676612,0.00477393,-0.00503238,-0.0199114,1.22244,0.0119552,0.0459331,587,1303,-5.97318,-0.448755
-630,-279,-5.99683,0.708252,-0.0119631,-0.00115263,0.005685,0.00128661,-0.0144023,1.16549,0.0100579,0.0443278,594,1303,-5.99683,-0.70826
-623,-279,-7.00159,-0.488525,-0.00717802,0.00246107,0.00582886,0.00520484,-0.00992178,1.13085,0.00887376,0.0424106,601,1303,-7.00157,0.488501
-616,-279,-6.33948,0.784058,-0.00364798,0.00375741,0.00563393,0.00679646,-0.00668704,1.07611,0.00778479,0.0409474,608,1303,-6.33946,-0.784007
-609,-279,-6.15924,1.09509,-0.00128834,0.0042349,0.0051149,0.00728609,-0.00433953,1.03293,0.00678353,0.0283958,615,1303,-6.15924,-1.0951
-602,-279,-6.05286,1.22961,0.000327325,0.00502851,0.00438733,0.00765526,-0.00229943,1.03132,0.00601824,0.0121289,622,1303,-6.05289,-1.22961
-595,-279,-6.0661,1.39563,0.00136379,0.00495921,0.00346991,0.00706945,-0.000746447,1.0244,0.00498046,0.0103563,629,1303,-6.06611,-1.39569
-588,-279,-6.06024,1.56921,0.00215365,0.00442114,0.00230076,0.00585233,0.000722461,1.01432,0.00368442,0.0101673,636,1303,-6.06026,-1.56922
-581,-279,-6.06219,1.70642,0.00277755,0.00209342,0.00128522,0.00376545,0.00110552,0.655338,0.00223488,0.0110669,643,1303,-6.06223,-1.70648
-574,-279,-6.08148,1.83313,0.00288257,-0.000203316,0.000822128,0.00308793,-0.000408677,0.244783,0.00220749,0.0109108,650,1303,-6.0815,-1.83318
-567,-279,-6.09857,1.9812,0.00271734,-0.00236071,0.000180366,0.00272374,-0.00236711,0.0354592,0.00294161,0.0144793,657,1303,-6.09857,-1.98117
-560,-279,-6.09949,2.16858,0.00374877,-0.00341408,-0.00177768,0.00416569,-0.00383099,-0.230366,0.00461824,0.0149497,664,1303,-6.09947,-2.16859
-553,-279,-6.08417,2.34509,0.00666366,-0.0040558,-0.00490197,0.00856726,-0.0059594,-0.37041,0.0084319,0.0113928,671,1303,-6.08415,-2.34504
-546,-279,-6.08057,2.48901,0.0106499,-0.00429088,-0.00863288,0.0145958,-0.00823685,-0.428732,0.0133518,0.0130044,678,1303,-6.08055,-2.48898
-539,-279,-5.92926,2.57971,0.0148243,-0.0043662,-0.0126962,0.0211433,-0.0106852,-0.461811,0.0187039,0.0408333,685,1303,-5.92924,-2.57973
-532,-279,-5.74768,2.651,0,0,0,0,0,0,0,-1,692,1303,-5.74768,-2.65099
-525,-279,-8.55353,4.01953,0,0,0,0,0,0,0,-1,699,1303,-8.55354,-4.01951
-518,-279,-6.6792,-2.38904,0,0,0,0,0,0,0,-1,706,1303,-6.67923,2.38903
-511,-279,-8.95135,0.518433,0,0,0,0,0,0,0,-1,713,1303,-8.95133,-0.518486
-504,-279,-8.3985,0.00842285,0.0525605,0.00345477,-0.0490936,0.0828987,-0.0268834,-0.553525,0.0660757,0.0491941,720,1303,-8.39852,-0.0084287
-497,-279,-7.53723,-0.545654,0.0662038,0.00945559,-0.0608893,0.105006,-0.0293462,-0.56736,0.0815649,0.0422776,727,1303,-7.53721,0.545601
-490,-279,-7.03723,-1.09998,0.0826096,0.019139,-0.0738521,0.131256,-0.0295077,-0.58247,0.0988197,0.0432492,734,1303,-7.03722,1.09997
-483,-279,-6.59045,-1.57678,0,0,0,0,0,0,0,-1,741,1303,-6.59043,1.57684
-476,-279,0,0,0,0,0,0,0,0,0,-1,748,1303,0,0
-469,-279,0,0,0,0,0,0,0,0,0,-1,755,1303,0,0
-462,-279,0,0,0,0,0,0,0,0,0,-1,762,1303,0,0
-455,-279,0,0,0,0,0,0,0,0,0,-1,769,1303,0,0
-448,-279,0,0,0,0,0,0,0,0,0,-1,776,1303,0,0
-441,-279,0,0,0,0,0,0,0,0,0,-1,783,1303,0,0
-434,-279,0,0,0,0,0,0,0,0,0,-1,790,1303,0,0
-427,-279,0,0,0,0,0,0,0,0,0,-1,797,1303,0,0
-420,-279,0,0,0,0,0,0,0,0,0,-1,804,1303,0,0
-413,-279,0,0,0,0,0,0,0,0,0,-1,811,1303,0,0
-406,-279,0,0,0,0,0,0,0,0,0,-1,818,1303,0,0
-399,-279,0,0,0,0,0,0,0,0,0,-1,825,1303,0,0
-392,-279,0,0,0,0,0,0,0,0,0,-1,832,1303,0,0
-385,-279,0,0,0,0,0,0,0,0,0,-1,839,1303,0,0
-378,-279,0,0,0,0,0,0,0,0,0,-1,846,1303,0,0
-371,-279,0,0,0,0,0,0,0,0,0,-1,853,1303,0,0
-364,-279,0,0,0,0,0,0,0,0,0,-1,860,1303,0,0
-357,-279,0,0,0,0,0,0,0,0,0,-1,867,1303,0,0
-350,-279,0,0,0,0,0,0,0,0,0,-1,874,1303,0,0
-343,-279,0,0,0,0,0,0,0,0,0,-1,881,1303,0,0
-336,-279,0,0,0,0,0,0,0,0,0,-1,888,1303,0,0
-329,-279,0,0,0,0,0,0,0,0,0,-1,895,1303,0,0
-322,-279,0,0,0,0,0,0,0,0,0,-1,902,1303,0,0
-315,-279,0,0,0,0,0,0,0,0,0,-1,909,1303,0,0
-308,-279,0,0,0,0,0,0,0,0,0,-1,916,1303,0,0
-301,-279,0,0,0,0,0,0,0,0,0,-1,923,1303,0,0
-294,-279,0,0,0,0,0,0,0,0,0,-1,930,1303,0,0
-287,-279,0,0,0,0,0,0,0,0,0,-1,937,1303,0,0
-280,-279,0,0,0,0,0,0,0,0,0,-1,944,1303,0,0
-273,-279,0,0,0,0,0,0,0,0,0,-1,951,1303,0,0
-266,-279,0,0,0,0,0,0,0,0,0,-1,958,1303,0,0
-259,-279,0,0,0,0,0,0,0,0,0,-1,965,1303,0,0
-252,-279,0,0,0,0,0,0,0,0,0,-1,972,1303,0,0
-245,-279,0,0,0,0,0,0,0,0,0,-1,979,1303,0,0
-238,-279,0,0,0,0,0,0,0,0,0,-1,986,1303,0,0
-231,-279,0,0,0,0,0,0,0,0,0,-1,993,1303,0,0
-224,-279,0,0,0,0,0,0,0,0,0,-1,1000,1303,0,0
-217,-279,0,0,0,0,0,0,0,0,0,-1,1007,1303,0,0
-210,-279,0,0,0,0,0,0,0,0,0,-1,1014,1303,0,0
-203,-279,0,0,0,0,0,0,0,0,0,-1,1021,1303,0,0
-196,-279,0,0,0,0,0,0,0,0,0,-1,1028,1303,0,0
-189,-279,0,0,0,0,0,0,0,0,0,-1,1035,1303,0,0
-182,-279,0,0,0,0,0,0,0,0,0,-1,1042,1303,0,0
-175,-279,0,0,0,0,0,0,0,0,0,-1,1049,1303,0,0
-168,-279,0,0,0,0,0,0,0,0,0,-1,1056,1303,0,0
-161,-279,0,0,0,0,0,0,0,0,0,-1,1063,1303,0,0
-154,-279,0,0,0,0,0,0,0,0,0,-1,1070,1303,0,0
-147,-279,0,0,0,0,0,0,0,0,0,-1,1077,1303,0,0
-140,-279,0,0,0,0,0,0,0,0,0,-1,1084,1303,0,0
-133,-279,0,0,0,0,0,0,0,0,0,-1,1091,1303,0,0
-126,-279,0,0,0,0,0,0,0,0,0,-1,1098,1303,0,0
-119,-279,0,0,0,0,0,0,0,0,0,-1,1105,1303,0,0
-112,-279,0,0,0,0,0,0,0,0,0,-1,1112,1303,0,0
-105,-279,0,0,0,0,0,0,0,0,0,-1,1119,1303,0,0
-98,-279,0,0,0,0,0,0,0,0,0,-1,1126,1303,0,0
-91,-279,0,0,0,0,0,0,0,0,0,-1,1133,1303,0,0
-84,-279,0,0,0,0,0,0,0,0,0,-1,1140,1303,0,0
-77,-279,0,0,0,0,0,0,0,0,0,-1,1147,1303,0,0
-70,-279,0,0,0,0,0,0,0,0,0,-1,1154,1303,0,0
-63,-279,0,0,0,0,0,0,0,0,0,-1,1161,1303,0,0
-56,-279,0,0,0,0,0,0,0,0,0,-1,1168,1303,0,0
-49,-279,0,0,0,0,0,0,0,0,0,-1,1175,1303,0,0
-42,-279,0,0,0,0,0,0,0,0,0,-1,1182,1303,0,0
-35,-279,0,0,0,0,0,0,0,0,0,-1,1189,1303,0,0
-28,-279,0,0,0,0,0,0,0,0,0,-1,1196,1303,0,0
-21,-279,0,0,0,0,0,0,0,0,0,-1,1203,1303,0,0
-14,-279,0,0,0,0,0,0,0,0,0,-1,1210,1303,0,0
-7,-279,0,0,0,0,0,0,0,0,0,-1,1217,1303,0,0
0,-279,0,0,0,0,0,0,0,0,0,-1,1224,1303,0,0
7,-279,0,0,0,0,0,0,0,0,0,-1,1231,1303,0,0
14,-279,0,0,0,0,0,0,0,0,0,-1,1238,1303,0,0
21,-279,0,0,0,0,0,0,0,0,0,-1,1245,1303,0,0
28,-279,0,0,0,0,0,0,0,0,0,-1,1252,1303,0,0
35,-279,0,0,0,0,0,0,0,0,0,-1,1259,1303,0,0
42,-279,0,0,0,0,0,0,0,0,0,-1,1266,1303,0,0
49,-279,0,0,0,0,0,0,0,0,0,-1,1273,1303,0,0
56,-279,0,0,0,0,0,0,0,0,0,-1,1280,1303,0,0
63,-279,0,0,0,0,0,0,0,0,0,-1,1287,1303,0,0
70,-279,0,0,0,0,0,0,0,0,0,-1,1294,1303,0,0
77,-279,0,0,0,0,0,0,0,0,0,-1,1301,1303,0,0
84,-279,0,0,0,0,0,0,0,0,0,-1,1308,1303,0,0
91,-279,0,0,0,0,0,0,0,0,0,-1,1315,1303,0,0
98,-279,0,0,0,0,0,0,0,0,0,-1,1322,1303,0,0
105,-279,0,0,0,0,0,0,0,0,0,-1,1329,1303,0,0
112,-279,0,0,0,0,0,0,0,0,0,-1,1336,1303,0,0
119,-279,0,0,0,0,0,0,0,0,0,-1,1343,1303,0,0
126,-279,0,0,0,0,0,0,0,0,0,-1,1350,1303,0,0
133,-279,0,0,0,0,0,0,0,0,0,-1,1357,1303,0,0
140,-279,0,0,0,0,0,0,0,0,0,-1,1364,1303,0,0
147,-279,0,0,0,0,0,0,0,0,0,-1,1371,1303,0,0
154,-279,0,0,0,0,0,0,0,0,0,-1,1378,1303,0,0
161,-279,0,0,0,0,0,0,0,0,0,-1,1385,1303,0,0
168,-279,0,0,0,0,0,0,0,0,0,-1,1392,1303,0,0
175,-279,0,0,0,0,0,0,0,0,0,-1,1399,1303,0,0
182,-279,0,0,0,0,0,0,0,0,0,-1,1406,1303,0,0
189,-279,0,0,0,0,0,0,0,0,0,-1,1413,1303,0,0
196,-279,0,0,0,0,0,0,0,0,0,-1,1420,1303,0,0
203,-279,0,0,0,0,0,0,0,0,0,-1,1427,1303,0,0
210,-279,0,0,0,0,0,0,0,0,0,-1,1434,1303,0,0
217,-279,0,0,0,0,0,0,0,0,0,-1,1441,1303,0,0
224,-279,0,0,0,0,0,0,0,0,0,-1,1448,1303,0,0
231,-279,0,0,0,0,0,0,0,0,0,-1,1455,1303,0,0
238,-279,0,0,0,0,0,0,0,0,0,-1,1462,1303,0,0
245,-279,0,0,0,0,0,0,0,0,0,-1,1469,1303,0,0
252,-279,0,0,0,0,0,0,0,0,0,-1,1476,1303,0,0
259,-279,0,0,0,0,0,0,0,0,0,-1,1483,1303,0,0
266,-279,0,0,0,0,0,0,0,0,0,-1,1490,1303,0,0
273,-279,0,0,0,0,0,0,0,0,0,-1,1497,1303,0,0
280,-279,0,0,0,0,0,0,0,0,0,-1,1504,1303,0,0
287,-279,0,0,0,0,0,0,0,0,0,-1,1511,1303,0,0
294,-279,0,0,0,0,0,0,0,0,0,-1,1518,1303,0,0
301,-279,0,0,0,0,0,0,0,0,0,-1,1525,1303,0,0
308,-279,0,0,0,0,0,0,0,0,0,-1,1532,1303,0,0
315,-279,0,0,0,0,0,0,0,0,0,-1,1539,1303,0,0
322,-279,0,0,0,0,0,0,0,0,0,-1,1546,1303,0,0
329,-279,0,0,0,0,0,0,0,0,0,-1,1553,1303,0,0
336,-279,0,0,0,0,0,0,0,0,0,-1,1560,1303,0,0
343,-279,0,0,0,0,0,0,0,0,0,-1,1567,1303,0,0
350,-279,0,0,0,0,0,0,0,0,0,-1,1574,1303,0,0
357,-279,0,0,0,0,0,0,0,0,0,-1,1581,1303,0,0
364,-279,0,0,0,0,0,0,0,0,0,-1,1588,1303,0,0
371,-279,0,0,0,0,0,0,0,0,0,-1,1595,1303,0,0
378,-279,0,0,0,0,0,0,0,0,0,-1,1602,1303,0,0
385,-279,0,0,0,0,0,0,0,0,0,-1,1609,1303,0,0
392,-279,0,0,0,0,0,0,0,0,0,-1,1616,1303,0,0
399,-279,0,0,0,0,0,0,0,0,0,-1,1623,1303,0,0
406,-279,0,0,0,0,0,0,0,0,0,-1,1630,1303,0,0
413,-279,0,0,0,0,0,0,0,0,0,-1,1637,1303,0,0
420,-279,0,0,0,0,0,0,0,0,0,-1,1644,1303,0,0
427,-279,0,0,0,0,0,0,0,0,0,-1,1651,1303,0,0
434,-279,0,0,0,0,0,0,0,0,0,-1,1658,1303,0,0
441,-279,0,0,0,0,0,0,0,0,0,-1,1665,1303,0,0
448,-279,0,0,0,0,0,0,0,0,0,-1,1672,1303,0,0
455,-279,0,0,0,0,0,0,0,0,0,-1,1679,1303,0,0
462,-279,0,0,0,0,0,0,0,0,0,-1,1686,1303,0,0
469,-279,0,0,0,0,0,0,0,0,0,-1,1693,1303,0,0
476,-279,0,0,0,0,0,0,0,0,0,-1,1700,1303,0,0
483,-279,0,0,0,0,0,0,0,0,0,-1,1707,1303,0,0
490,-279,0,0,0,0,0,0,0,0,0,-1,1714,1303,0,0
497,-279,0,0,0,0,0,0,0,0,0,-1,1721,1303,0,0
504,-279,0,0,0,0,0,0,0,0,0,-1,1728,1303,0,0
511,-279,0,0,0,0,0,0,0,0,0,-1,1735,1303,0,0
518,-279,0,0,0,0,0,0,0,0,0,-1,1742,1303,0,0
525,-279,0,0,0,0,0,0,0,0,0,-1,1749,1303,0,0
532,-279,0,0,0,0,0,0,0,0,0,-1,1756,1303,0,0
539,-279,0,0,0,0,0,0,0,0,0,-1,1763,1303,0,0
546,-279,0,0,0,0,0,0,0,0,0,-1,1770,1303,0,0
553,-279,0,0,0,0,0,0,0,0,0,-1,1777,1303,0,0
560,-279,0,0,0,0,0,0,0,0,0,-1,1784,1303,0,0
567,-279,0,0,0,0,0,0,0,0,0,-1,1791,1303,0,0
574,-279,0,0,0,0,0,0,0,0,0,-1,1798,1303,0,0
581,-279,0,0,0,0,0,0,0,0,0,-1,1805,1303,0,0
588,-279,0,0,0,0,0,0,0,0,0,-1,1812,1303,0,0
595,-279,0,0,0,0,0,0,0,0,0,-1,1819,1303,0,0
602,-279,15.5044,2.25183,-0.0188973,-0.00666995,-0.0137151,0.00223238,-0.0277996,-0.995061,0.0193203,0.0411838,1826,1303,15.5044,-2.25185
609,-279,15.4919,2.15564,-0.0158084,-0.00167206,-0.00913789,0.00281228,-0.0202927,-1.11458,0.0145567,0.0463158,1833,1303,15.492,-2.1556
616,-279,15.4127,1.91528,-0.0141488,0.00342262,-0.00512327,0.00480728,-0.0155335,-1.30683,0.012276,0.0460712,1840,1303,15.4127,-1.91534
623,-279,15.2007,1.44128,-0.0129589,0.00692087,-0.00191972,0.00710455,-0.0131426,-1.4754,0.0118617,0.0486639,1847,1303,15.2007,-1.4413
630,-279,15.3911,2.51453,-0.0120548,0.00893775,0.000522555,0.00895075,-0.0120678,1.54592,0.0121795,0.049151,1854,1303,15.3911,-2.51457
637,-279,15.1333,1.01929,-0.0112458,0.0108013,0.0022472,0.011028,-0.0114726,1.47025,0.0129915,0.0465323,1861,1303,15.1333,-1.01932
644,-279,15.001,2.38782,-0.010393,0.0114326,0.0036582,0.0120295,-0.0109898,1.40907,0.0132947,0.0480227,1868,1303,15.001,-2.38777
651,-279,13.15,6.42493,0,0,0,0,0,0,0,-1,1875,1303,13.15,-6.42494
658,-279,13.3871,5.65649,-0.00926042,0.0120454,0.00543166,0.0133502,-0.0105652,1.33504,0.0138387,0.0496732,1882,1303,13.3871,-5.65649
665,-279,13.2515,4.86877,-0.00895969,0.0116212,0.00557793,0.0130357,-0.0103742,1.32244,0.0135448,0.048624,1889,1303,13.2515,-4.8688
672,-279,12.8762,4.26868,-0.00844621,0.0102959,0.00538598,0.0117334,-0.00988373,1.30997,0.0124959,0.0387067,1896,1303,12.8762,-4.26865
679,-279,12.6908,4.26819,-0.00830788,0.00834959,0.0045068,0.00949076,-0.00944905,1.3228,0.0109349,0.0233956,1903,1303,12.6908,-4.26816
686,-279,12.6666,4.13843,-0.0072223,0.00671336,0.00387344,0.00771762,-0.00822656,1.31711,0.00920694,0.0199331,1910,1303,12.6666,-4.13837
693,-279,12.646,4.01428,-0.00542821,0.0043246,0.00290209,0.00512282,-0.00622643,1.30238,0.00656282,0.0159745,1917,1303,12.646,-4.01429
700,-279,12.6719,3.9043,-0.00325184,0.00340101,0.00119247,0.00360829,-0.00345913,1.39869,0.00408068,0.0112633,1924,1303,12.6719,-3.90425
707,-279,12.686,3.7699,-0.00034849,0.00237573,3.71828e-05,0.00237624,-0.000348997,1.55715,0.00171239,0.00895832,1931,1303,12.6861,-3.76995
714,-279,12.6759,3.61584,0.00257095,0.00222775,-0.00125647,0.00366748,0.00113121,-0.717532,0.0021686,0.0103398,1938,1303,12.6759,-3.61581
721,-279,12.6785,3.47937,0.00577044,0.00312591,-0.00265352,0.00741289,0.00148346,-0.554252,0.00452916,0.01289,1945,1303,12.6785,-3.4794
728,-279,12.6831,3.35535,0.0088105,0.00466635,-0.0042201,0.0114398,0.00203708,-0.557187,0.00704634,0.0134794,1952,1303,12.6832,-3.35539
735,-279,12.6946,3.24792,0.0125136,0.00656823,-0.00615416,0.0163754,0.0027064,-0.560406,0.010136,0.0124568,1959,1303,12.6946,-3.24787
742,-279,12.6835,3.07581,0.0167778,0.00870857,-0.00844177,0.0220995,0.00338681,-0.562479,0.0137439,0.0231589,1966,1303,12.6835,-3.07578
749,-279,12.8142,2.70911,0.0218859,0.0111665,-0.0112278,0.0289677,0.00408478,-0.562711,0.0181045,0.0411285,1973,1303,12.8142,-2.70906
756,-279,13.1876,2.21619,0.0279288,0.0138531,-0.0145235,0.0370299,0.00475202,-0.559779,0.0232649,0.0472711,1980,1303,13.1876,-2.21624
763,-279,13.6942,1.65588,0,0,0,0,0,0,0,-1,1987,1303,13.6942,-1.65588
770,-279,14.0641,1.19788,0,0,0,0,0,0,0,-1,1994,1303,14.0641,-1.19785
777,-279,12.1376,3.03748,0,0,0,0,0,0,0,-1,2001,1303,12.1376,-3.03744
784,-279,0,0,0,0,0,0,0,0,0,-1,2008,1303,0,0
791,-279,0,0,0,0,0,0,0,0,0,-1,2015,1303,0,0
798,-279,0,0,0,0,0,0,0,0,0,-1,2022,1303,0,0
805,-279,0,0,0,0,0,0,0,0,0,-1,2029,1303,0,0
812,-279,0,0,0,0,0,0,0,0,0,-1,2036,1303,0,0
-700,-286,0,0,0,0,0,0,0,0,0,-1,524,1310,0,0
-693,-286,0,0,0,0,0,0,0,0,0,-1,531,1310,0,0
-686,-286,0,0,0,0,0,0,0,0,0,-1,538,1310,0,0
-679,-286,0,0,0,0,0,0,0,0,0,-1,545,1310,0,0
-672,-286,0,0,0,0,0,0,0,0,0,-1,552,1310,0,0
-665,-286,0,0,0,0,0,0,0,0,0,-1,559,1310,0,0
-658,-286,-4.63171,-1.70349,-0.0486814,-0.0444393,-0.00149398,-0.043966,-0.0491548,-1.26397,0.0311845,0.0426706,566,1310,-4.63172,1.70344
-651,-286,-5.15637,-1.87231,-0.0369765,-0.0283842,0.00326646,-0.0272834,-0.0380772,1.24576,0.0226606,0.0452014,573,1310,-5.15636,1.87234
-644,-286,-5.56494,-2.1377,-0.0266944,-0.0156491,0.00629412,-0.0127983,-0.0295453,1.1455,0.0171087,0.0439157,580,1310,-5.56493,2.13767
-637,-286,-7.65277,-1.90479,-0.0183016,-0.0062865,0.00783129,-0.00242391,-0.0221642,1.11258,0.0140381,0.0449022,587,1310,-7.65275,1.90481
-630,-286,-7.07837,-1.17737,-0.0116721,-3.06276e-05,0.00828963,0.00427775,-0.0159805,1.09149,0.0123294,0.0431895,594,1310,-7.07836,1.17732
-623,-286,-6.47894,-0.571777,-0.00675232,0.00359024,0.00798812,0.00793485,-0.0110969,1.07266,0.0110384,0.0429367,601,1310,-6.47896,0.571801
-616,-286,-6.13696,0.102295,-0.00331025,0.00492747,0.00728884,0.00918072,-0.0075635,1.04258,0.00968229,0.0436606,608,1310,-6.13696,-0.102293
-609,-286,-5.99878,0.702515,-0.00107652,0.00498297,0.00629844,0.00894248,-0.00503604,1.00958,0.00817487,0.0322084,615,1310,-5.99879,-0.702489
-602,-286,-5.92407,1.22656,0.000399482,0.00533779,0.00527333,0.00869141,-0.00295414,1.00435,0.00699026,0.013238,622,1310,-5.92405,-1.22657
-595,-286,-5.92676,1.39624,0.00127675,0.00516548,0.00413228,0.00778799,-0.00134575,1.0053,0.00569384,0.0101979,629,1310,-5.92679,-1.3963
-588,-286,-5.90753,1.55261,0.00196221,0.00446027,0.00278802,0.00626626,0.000156218,0.995993,0.00412642,0.0114183,636,1310,-5.90755,-1.55261
-581,-286,-5.8927,1.70044,0.00251783,0.00196611,0.00161002,0.00387545,0.000608483,0.700552,0.00240659,0.0131271,643,1310,-5.89267,-1.70042
-574,-286,-5.90967,1.83826,0.00258333,-0.000274804,0.00093072,0.00285969,-0.000551161,0.288637,0.00211426,0.0124279,650,1310,-5.90968,-1.83822
-567,-286,-5.92548,1.99805,0.00239692,-0.00218132,0.000114877,0.0023998,-0.0021842,0.0250709,0.00264755,0.0116799,657,1310,-5.92547,-1.99803
-560,-286,-5.93097,2.1665,0.00341226,-0.00312619,-0.0019463,0.00394776,-0.00366169,-0.268493,0.00439435,0.012001,664,1310,-5.93094,-2.16652
-553,-286,-5.91681,2.34729,0.00642187,-0.00371947,-0.00513974,0.00857121,-0.00586882,-0.396081,0.00838548,0.00942532,671,1310,-5.91683,-2.3473
-546,-286,-5.90851,2.5155,0.0106888,-0.00401563,-0.00907186,0.0150137,-0.00834047,-0.44486,0.0136658,0.0117112,678,1310,-5.9085,-2.51546
-539,-286,-5.90149,2.68152,0.0152177,-0.00412735,-0.0133896,0.022063,-0.0109726,-0.472599,0.0194281,0.0291946,685,1310,-5.90147,-2.68152
-532,-286,-5.42334,2.33093,0.0204698,-0.00419541,-0.0186202,0.0304712,-0.0141967,-0.492903,0.0263534,0.0493067,692,1310,-5.42334,-2.33089
-525,-286,-5.185,1.95007,0,0,0,0,0,0,0,-1,699,1310,-5.18502,-1.95007
-518,-286,-6.14209,-2.49402,0,0,0,0,0,0,0,-1,706,1310,-6.1421,2.49399
-511,-286,-8.82385,0.70166,0,0,0,0,0,0,0,-1,713,1310,-8.82387,-0.701613
-504,-286,-8.08636,0.0113525,0.0547729,0.00290023,-0.0521347,0.0870665,-0.0293934,-0.554581,0.0699324,0.0446396,720,1310,-8.08637,-0.0114065
-497,-286,-7.34106,-0.682983,0.0687724,0.00824769,-0.064773,0.110004,-0.0329837,-0.566863,0.0864538,0.0429283,727,1310,-7.34107,0.682955
-490,-286,-6.5401,-1.28662,0.0863294,0.0169294,-0.0794005,0.138281,-0.0350224,-0.579392,0.105812,0.0451122,734,1310,-6.54013,1.2866
-483,-286,-5.82605,-1.88818,0,0,0,0,0,0,0,-1,741,1310,-5.82605,1.88821
-476,-286,-8.37573,0.521851,0,0,0,0,0,0,0,-1,748,1310,-8.37572,-0.52186
-469,-286,0,0,0,0,0,0,0,0,0,-1,755,1310,0,0
-462,-286,0,0,0,0,0,0,0,0,0,-1,762,1310,0,0
-455,-286,0,0,0,0,0,0,0,0,0,-1,769,1310,0,0
-448,-286,0,0,0,0,0,0,0,0,0,-1,776,1310,0,0
-441,-286,0,0,0,0,0,0,0,0,0,-1,783,1310,0,0
-434,-286,0,0,0,0,0,0,0,0,0,-1,790,1310,0,0
-427,-286,0,0,0,0,0,0,0,0,0,-1,797,1310,0,0
-420,-286,0,0,0,0,0,0,0,0,0,-1,804,1310,0,0
-413,-286,0,0,0,0,0,0,0,0,0,-1,811,1310,0,0
-406,-286,0,0,0,0,0,0,0,0,0,-1,818,1310,0,0
-399,-286,0,0,0,0,0,0,0,0,0,-1,825,1310,0,0
-392,-286,0,0,0,0,0,0,0,0,0,-1,832,1310,0,0
-385,-286,0,0,0,0,0,0,0,0,0,-1,839,1310,0,0
-378,-286,0,0,0,0,0,0,0,0,0,-1,846,1310,0,0
-371,-286,0,0,0,0,0,0,0,0,0,-1,853,1310,0,0
-364,-286,0,0,0,0,0,0,0,0,0,-1,860,1310,0,0
-357,-286,0,0,0,0,0,0,0,0,0,-1,867,1310,0,0
-350,-286,0,0,0,0,0,0,0,0,0,-1,874,1310,0,0
-343,-286,0,0,0,0,0,0,0,0,0,-1,881,1310,0,0
-336,-286,0,0,0,0,0,0,0,0,0,-1,888,1310,0,0
-329,-286,0,0,0,0,0,0,0,0,0,-1,895,1310,0,0
-322,-286,0,0,0,0,0,0,0,0,0,-1,902,1310,0,0
-315,-286,0,0,0,0,0,0,0,0,0,-1,909,1310,0,0
-308,-286,0,0,0,0,0,0,0,0,0,-1,916,1310,0,0
-301,-286,0,0,0,0,0,0,0,0,0,-1,923,1310,0,0
-294,-286,0,0,0,0,0,0,0,0,0,-1,930,1310,0,0
-287,-286,0,0,0,0,0,0,0,0,0,-1,937,1310,0,0
-280,-286,0,0,0,0,0,0,0,0,0,-1,944,1310,0,0
-273,-286,0,0,0,0,0,0,0,0,0,-1,951,1310,0,0
-266,-286,0,0,0,0,0,0,0,0,0,-1,958,1310,0,0
-259,-286,0,0,0,0,0,0,0,0,0,-1,965,1310,0,0
-252,-286,0,0,0,0,0,0,0,0,0,-1,972,1310,0,0
-245,-286,0,0,0,0,0,0,0,0,0,-1,979,1310,0,0
-238,-286,0,0,0,0,0,0,0,0,0,-1,986,1310,0,0
-231,-286,0,0,0,0,0,0,0,0,0,-1,993,1310,0,0
-224,-286,0,0,0,0,0,0,0,0,0,-1,1000,1310,0,0
-217,-286,0,0,0,0,0,0,0,0,0,-1,1007,1310,0,0
-210,-286,0,0,0,0,0,0,0,0,0,-1,1014,1310,0,0
-203,-286,0,0,0,0,0,0,0,0,0,-1,1021,1310,0,0
-196,-286,0,0,0,0,0,0,0,0,0,-1,1028,1310,0,0
-189,-286,0,0,0,0,0,0,0,0,0,-1,1035,1310,0,0
-182,-286,0,0,0,0,0,0,0,0,0,-1,1042,1310,0,0
-175,-286,0,0,0,0,0,0,0,0,0,-1,1049,1310,0,0
-168,-286,0,0,0,0,0,0,0,0,0,-1,1056,1310,0,0
-161,-286,0,0,0,0,0,0,0,0,0,-1,1063,1310,0,0
-154,-286,0,0,0,0,0,0,0,0,0,-1,1070,1310,0,0
-147,-286,0,0,0,0,0,0,0,0,0,-1,1077,1310,0,0
-140,-286,0,0,0,0,0,0,0,0,0,-1,1084,1310,0,0
-133,-286,0,0,0,0,0,0,0,0,0,-1,1091,1310,0,0
-126,-286,0,0,0,0,0,0,0,0,0,-1,1098,1310,0,0
-119,-286,0,0,0,0,0,0,0,0,0,-1,1105,1310,0,0
-112,-286,0,0,0,0,0,0,0,0,0,-1,1112,1310,0,0
-105,-286,0,0,0,0,0,0,0,0,0,-1,1119,1310,0,0
-98,-286,0,0,0,0,0,0,0,0,0,-1,1126,1310,0,0
-91,-286,0,0,0,0,0,0,0,0,0,-1,1133,1310,0,0
-84,-286,0,0,0,0,0,0,0,0,0,-1,1140,1310,0,0
-77,-286,0,0,0,0,0,0,0,0,0,-1,1147,1310,0,0
-70,-286,0,0,0,0,0,0,0,0,0,-1,1154,1310,0,0
-63,-286,0,0,0,0,0,0,0,0,0,-1,1161,1310,0,0
-56,-286,0,0,0,0,0,0,0,0,0,-1,1168,1310,0,0
-49,-286,0,0,0,0,0,0,0,0,0,-1,1175,1310,0,0
-42,-286,0,0,0,0,0,0,0,0,0,-1,1182,1310,0,0
-35,-286,0,0,0,0,0,0,0,0,0,-1,1189,1310,0,0
-28,-286,0,0,0,0,0,0,0,0,0,-1,1196,1310,0,0
-21,-286,0,0,0,0,0,0,0,0,0,-1,1203,1310,0,0
-14,-286,0,0,0,0,0,0,0,0,0,-1,1210,1310,0,0
-7,-286,0,0,0,0,0,0,0,0,0,-1,1217,1310,0,0
0,-286,0,0,0,0,0,0,0,0,0,-1,1224,1310,0,0
7,-286,0,0,0,0,0,0,0,0,0,-1,1231,1310,0,0
14,-286,0,0,0,0,0,0,0,0,0,-1,1238,1310,0,0
21,-286,0,0,0,0,0,0,0,0,0,-1,1245,1310,0,0
28,-286,0,0,0,0,0,0,0,0,0,-1,1252,1310,0,0
35,-286,0,0,0,0,0,0,0,0,0,-1,1259,1310,0,0
42,-286,0,0,0,0,0,0,0,0,0,-1,1266,1310,0,0
49,-286,0,0,0,0,0,0,0,0,0,-1,1273,1310,0,0
56,-286,0,0,0,0,0,0,0,0,0,-1,1280,1310,0,0
63,-286,0,0,0,0,0,0,0,0,0,-1,1287,1310,0,0
70,-286,0,0,0,0,0,0,0,0,0,-1,1294,1310,0,0
77,-286,0,0,0,0,0,0,0,0,0,-1,1301,1310,0,0
84,-286,0,0,0,0,0,0,0,0,0,-1,1308,1310,0,0
91,-286,0,0,0,0,0,0,0,0,0,-1,1315,1310,0,0
98,-286,0,0,0,0,0,0,0,0,0,-1,1322,1310,0,0
105,-286,0,0,0,0,0,0,0,0,0,-1,1329,1310,0,0
112,-286,0,0,0,0,0,0,0,0,0,-1,1336,1310,0,0
119,-286,0,0,0,0,0,0,0,0,0,-1,1343,1310,0,0
126,-286,0,0,0,0,0,0,0,0,0,-1,1350,1310,0,0
133,-286,0,0,0,0,0,0,0,0,0,-1,1357,1310,0,0
140,-286,0,0,0,0,0,0,0,0,0,-1,1364,1310,0,0
147,-286,0,0,0,0,0,0,0,0,0,-1,1371,1310,0,0
154,-286,0,0,0,0,0,0,0,0,0,-1,1378,1310,0,0
161,-286,0,0,0,0,0,0,0,0,0,-1,1385,1310,0,0
168,-286,0,0,0,0,0,0,0,0,0,-1,1392,1310,0,0
175,-286,0,0,0,0,0,0,0,0,0,-1,1399,1310,0,0
182,-286,0,0,0,0,0,0,0,0,0,-1,1406,1310,0,0
189,-286,0,0,0,0,0,0,0,0,0,-1,1413,1310,0,0
196,-286,0,0,0,0,0,0,0,0,0,-1,1420,1310,0,0
203,-286,0,0,0,0,0,0,0,0,0,-1,1427,1310,0,0
210,-286,0,0,0,0,0,0,0,0,0,-1,1434,1310,0,0
217,-286,0,0,0,0,0,0,0,0,0,-1,1441,1310,0,0
224,-286,0,0,0,0,0,0,0,0,0,-1,1448,1310,0,0
231,-286,0,0,0,0,0,0,0,0,0,-1,1455,1310,0,0
238,-286,0,0,0,0,0,0,0,0,0,-1,1462,1310,0,0
245,-286,0,0,0,0,0,0,0,0,0,-1,1469,1310,0,0
252,-286,0,0,0,0,0,0,0,0,0,-1,1476,1310,0,0
259,-286,0,0,0,0,0,0,0,0,0,-1,1483,1310,0,0
266,-286,0,0,0,0,0,0,0,0,0,-1,1490,1310,0,0
273,-286,0,0,0,0,0,0,0,0,0,-1,1497,1310,0,0
280,-286,0,0,0,0,0,0,0,0,0,-1,1504,1310,0,0
287,-286,0,0,0,0,0,0,0,0,0,-1,1511,1310,0,0
294,-286,0,0,0,0,0,0,0,0,0,-1,1518,1310,0,0
301,-286,0,0,0,0,0,0,0,0,0,-1,1525,1310,0,0
308,-286,0,0,0,0,0,0,0,0,0,-1,1532,1310,0,0
315,-286,0,0,0,0,0,0,0,0,0,-1,1539,1310,0,0
322,-286,0,0,0,0,0,0,0,0,0,-1,1546,1310,0,0
329,-286,0,0,0,0,0,0,0,0,0,-1,1553,1310,0,0
336,-286,0,0,0,0,0,0,0,0,0,-1,1560,1310,0,0
343,-286,0,0,0,0,0,0,0,0,0,-1,1567,1310,0,0
350,-286,0,0,0,0,0,0,0,0,0,-1,1574,1310,0,0
357,-286,0,0,0,0,0,0,0,0,0,-1,1581,1310,0,0
364,-286,0,0,0,0,0,0,0,0,0,-1,1588,1310,0,0
371,-286,0,0,0,0,0,0,0,0,0,-1,1595,1310,0,0
378,-286,0,0,0,0,0,0,0,0,0,-1,1602,1310,0,0
385,-286,0,0,0,0,0,0,0,0,0,-1,1609,1310,0,0
392,-286,0,0,0,0,0,0,0,0,0,-1,1616,1310,0,0
399,-286,0,0,0,0,0,0,0,0,0,-1,1623,1310,0,0
406,-286,0,0,0,0,0,0,0,0,0,-1,1630,1310,0,0
413,-286,0,0,0,0,0,0,0,0,0,-1,1637,1310,0,0
420,-286,0,0,0,0,0,0,0,0,0,-1,1644,1310,0,0
427,-286,0,0,0,0,0,0,0,0,0,-1,1651,1310,0,0
434,-286,0,0,0,0,0,0,0,0,0,-1,1658,1310,0,0
441,-286,0,0,0,0,0,0,0,0,0,-1,1665,1310,0,0
448,-286,0,0,0,0,0,0,0,0,0,-1,1672,1310,0,0
455,-286,0,0,0,0,0,0,0,0,0,-1,1679,1310,0,0
462,-286,0,0,0,0,0,0,0,0,0,-1,1686,1310,0,0
469,-286,0,0,0,0,0,0,0,0,0,-1,1693,1310,0,0
476,-286,0,0,0,0,0,0,0,0,0,-1,1700,1310,0,0
483,-286,0,0,0,0,0,0,0,0,0,-1,1707,1310,0,0
490,-286,0,0,0,0,0,0,0,0,0,-1,1714,1310,0,0
497,-286,0,0,0,0,0,0,0,0,0,-1,1721,1310,0,0
504,-286,0,0,0,0,0,0,0,0,0,-1,1728,1310,0,0
511,-286,0,0,0,0,0,0,0,0,0,-1,1735,1310,0,0
518,-286,0,0,0,0,0,0,0,0,0,-1,1742,1310,0,0
525,-286,0,0,0,0,0,0,0,0,0,-1,1749,1310,0,0
532,-286,0,0,0,0,0,0,0,0,0,-1,1756,1310,0,0
539,-286,0,0,0,0,0,0,0,0,0,-1,1763,1310,0,0
546,-286,0,0,0,0,0,0,0,0,0,-1,1770,1310,0,0
553,-286,0,0,0,0,0,0,0,0,0,-1,1777,1310,0,0
560,-286,0,0,0,0,0,0,0,0,0,-1,1784,1310,0,0
567,-286,0,0,0,0,0,0,0,0,0,-1,1791,1310,0,0
574,-286,0,0,0,0,0,0,0,0,0,-1,1798,1310,0,0
581,-286,0,0,0,0,0,0,0,0,0,-1,1805,1310,0,0
588,-286,0,0,0,0,0,0,0,0,0,-1,1812,1310,0,0
595,-286,15.6327,2.38391,-0.0216484,-0.0135016,-0.0206747,0.0034971,-0.0386471,-0.882665,0.027006,0.0389204,1819,1310,15.6326,-2.38391
602,-286,15.5474,2.17603,-0.0197055,-0.00647924,-0.016483,0.00466782,-0.0308526,-0.976172,0.0222878,0.0445866,1826,1310,15.5474,-2.17599
609,-286,15.5139,2.09973,-0.0174487,-0.00189223,-0.0112831,0.00403388,-0.0233748,-1.08718,0.0170873,0.0450776,1833,1310,15.5139,-2.09969
616,-286,15.4875,1.87195,0,0,0,0,0,0,0,-1,1840,1310,15.4875,-1.872
623,-286,15.2836,1.3717,0,0,0,0,0,0,0,-1,1847,1310,15.2836,-1.37173
630,-286,15.251,2.36682,0,0,0,0,0,0,0,-1,1854,1310,15.2509,-2.36682
637,-286,14.8483,0.573486,0,0,0,0,0,0,0,-1,1861,1310,14.8483,-0.573487
644,-286,14.3165,2.73877,0,0,0,0,0,0,0,-1,1868,1310,14.3165,-2.73879
651,-286,13.1616,4.52905,0,0,0,0,0,0,0,-1,1875,1310,13.1616,-4.52904
658,-286,12.9681,4.68823,-0.00921191,0.009155,0.00528032,0.0105648,-0.0106217,1.30989,0.0122321,0.0440435,1882,1310,12.9681,-4.68824
665,-286,12.9193,4.64099,-0.00869697,0.00884911,0.00539952,0.0103776,-0.0102254,1.29494,0.0118953,0.0422764,1889,1310,12.9194,-4.64098
672,-286,12.6399,4.45251,-0.00792992,0.00767665,0.00509296,0.00919161,-0.00944487,1.28167,0.0107601,0.0261325,1896,1310,12.6399,-4.4525
679,-286,12.5494,4.29724,-0.00764114,0.00602944,0.00407803,0.00715352,-0.00876522,1.30183,0.00920637,0.0206519,1903,1310,12.5494,-4.29722
686,-286,12.5331,4.15112,-0.00644958,0.00488442,0.00330349,0.00577699,-0.00734215,1.30691,0.00759229,0.0198157,1910,1310,12.5331,-4.1511
693,-286,12.5083,4.01294,-0.00455613,0.00320365,0.00226469,0.00381624,-0.00516872,1.30662,0.00520702,0.015796,1917,1310,12.5083,-4.01298
700,-286,12.5337,3.89111,-0.00229606,0.00288866,0.000561002,0.00294866,-0.00235607,1.46424,0.00306905,0.0112594,1924,1310,12.5337,-3.89117
707,-286,12.5582,3.78064,0.000665756,0.00251276,-0.000602888,0.00269213,0.000486385,-1.28162,0.0016566,0.00925597,1931,1310,12.5583,-3.78067
714,-286,12.5424,3.63013,0.0037716,0.00287846,-0.00199266,0.00536712,0.00128294,-0.675165,0.00323633,0.00923319,1938,1310,12.5424,-3.63007
721,-286,12.5444,3.48364,0.00730403,0.00397587,-0.00358952,0.00959644,0.00168346,-0.568348,0.00591685,0.0110289,1945,1310,12.5444,-3.4836
728,-286,12.5333,3.35303,0.010769,0.00564313,-0.00542716,0.0142079,0.00220417,-0.564802,0.00882942,0.0131142,1952,1310,12.5334,-3.353
735,-286,12.5286,3.22571,0.0149974,0.00764394,-0.00772042,0.0198719,0.00276945,-0.563172,0.012428,0.0143049,1959,1310,12.5286,-3.22572
742,-286,12.5844,3.03369,0.0200028,0.00989511,-0.0105042,0.0266058,0.00329219,-0.561181,0.016748,0.0248471,1966,1310,12.5844,-3.03364
749,-286,12.7213,2.74719,0.0259276,0.0123693,-0.0138623,0.0345796,0.0037173,-0.557979,0.0219193,0.0404958,1973,1310,12.7213,-2.74722
756,-286,13.1589,2.29529,0.0327382,0.0149086,-0.0177544,0.0436903,0.00395657,-0.552727,0.0279017,0.0473732,1980,1310,13.1589,-2.29532
763,-286,13.623,1.84338,0,0,0,0,0,0,0,-1,1987,1310,13.6231,-1.84334
770,-286,12.332,2.95691,0,0,0,0,0,0,0,-1,1994,1310,12.332,-2.95695
777,-286,0,0,0,0,0,0,0,0,0,-1,2001,1310,0,0
784,-286,0,0,0,0,0,0,0,0,0,-1,2008,1310,0,0
791,-286,0,0,0,0,0,0,0,0,0,-1,2015,1310,0,0
798,-286,0,0,0,0,0,0,0,0,0,-1,2022,1310,0,0
805,-286,0,0,0,0,0,0,0,0,0,-1,2029,1310,0,0
812,-286,0,0,0,0,0,0,0,0,0,-1,2036,1310,0,0
-700,-293,0,0,0,0,0,0,0,0,0,-1,524,1317,0,0
-693,-293,0,0,0,0,0,0,0,0,0,-1,531,1317,0,0
-686,-293,0,0,0,0,0,0,0,0,0,-1,538,1317,0,0
-679,-293,0,0,0,0,0,0,0,0,0,-1,545,1317,0,0
-672,-293,0,0,0,0,0,0,0,0,0,-1,552,1317,0,0
-665,-293,0,0,0,0,0,0,0,0,0,-1,559,1317,0,0
-658,-293,0,0,0,0,0,0,0,0,0,-1,566,1317,0,0
-651,-293,-5.34607,-0.857178,-0.0386483,-0.0353151,0.00669248,-0.0300848,-0.0438786,0.90743,0.0259088,0.0467047,573,1317,-5.34607,0.857224
-644,-293,-5.70496,-1.04675,-0.0271019,-0.0187665,0.00951457,-0.0125468,-0.0333215,0.991828,0.0194327,0.0420002,580,1317,-5.70495,1.04671
-637,-293,-5.73096,-1.19263,-0.0181219,-0.00756693,0.0106917,-0.000921137,-0.0247677,1.01466,0.0162135,0.0410276,587,1317,-5.73093,1.19262
-630,-293,-5.87982,-0.950684,-0.011275,-0.000584919,0.0107229,0.00605126,-0.0179111,1.01661,0.0143885,0.0425095,594,1317,-5.87985,0.950702
-623,-293,-5.97162,-0.496094,-0.00633269,0.00323046,0.00999061,0.00952479,-0.012627,1.00859,0.0128311,0.0451853,601,1317,-5.97162,0.496072
-616,-293,-5.90723,0.0491943,-0.00299588,0.00473778,0.00883375,0.010514,-0.00877205,0.991702,0.0111499,0.044155,608,1317,-5.90726,-0.0491658
-609,-293,-5.75195,0.698486,-0.000921665,0.00482079,0.00743688,0.00992145,-0.00602233,0.969623,0.00929645,0.0384183,615,1317,-5.75196,-0.698455
-602,-293,-5.74786,1.20154,0.000433437,0.00496567,0.00612616,0.00923141,-0.0038323,0.962548,0.00775408,0.0248119,622,1317,-5.74789,-1.20153
-595,-293,-5.78217,1.3783,0.00122688,0.00487133,0.00471771,0.0081065,-0.00200829,0.969698,0.00618345,0.0131491,629,1317,-5.78219,-1.37831
-588,-293,-5.76715,1.51563,0.00181395,0.00414917,0.00323975,0.00642529,-0.000462174,0.958354,0.0044456,0.0147757,636,1317,-5.76717,-1.51557
-581,-293,-5.73444,1.68884,0.00228334,0.00166907,0.00195158,0.00395181,6.06291e-07,0.70735,0.00263434,0.0178615,643,1317,-5.73442,-1.68884
-574,-293,-5.73248,1.86475,0.00229167,-0.000386133,0.00108999,0.00267925,-0.000773711,0.341637,0.00209231,0.0155359,650,1317,-5.73251,-1.8648
-567,-293,-5.76495,2.01855,0.00205449,-0.00197303,0.000124769,0.00205835,-0.00197689,0.0309394,0.00232991,0.014109,657,1317,-5.76493,-2.01858
-560,-293,-5.77594,2.17749,0.00296357,-0.00275744,-0.00198062,0.00358234,-0.00337621,-0.302805,0.00401811,0.0140983,664,1317,-5.77597,-2.17749
-553,-293,-5.75946,2.32605,0.00588415,-0.00325888,-0.00512082,0.00817715,-0.00555188,-0.421006,0.00797462,0.0097313,671,1317,-5.75944,-2.32605
-546,-293,-5.76074,2.5094,0.0102425,-0.00361581,-0.0091424,0.0147849,-0.00815821,-0.461125,0.0134291,0.00909655,678,1317,-5.76074,-2.50945
-539,-293,-5.76447,2.66846,0.0149225,-0.00378443,-0.0136096,0.022083,-0.0109449,-0.484333,0.0194267,0.0204612,685,1317,-5.76449,-2.66846
-532,-293,-5.58142,2.49866,0.0203959,-0.00390345,-0.0190942,0.0308781,-0.0143857,-0.502056,0.026705,0.0409256,692,1317,-5.58142,-2.49869
-525,-293,-5.09387,2.34009,0.0270323,-0.00354277,-0.025804,0.0417374,-0.0182478,-0.517974,0.0355066,0.0484001,699,1317,-5.09387,-2.34007
-518,-293,-4.85175,2.29407,0,0,0,0,0,0,0,-1,706,1317,-4.85173,-2.29408
-511,-293,-7.85608,1.22974,0.0443294,-0.000728541,-0.0432096,0.0705305,-0.0269297,-0.545092,0.0581153,0.0424488,713,1317,-7.8561,-1.22968
-504,-293,-7.63531,0.126221,0.0555681,0.00220427,-0.0542926,0.0893809,-0.0316086,-0.557008,0.0724592,0.0433103,720,1317,-7.63529,-0.126236
-497,-293,-7.10046,-0.746216,0.0693643,0.00679375,-0.0674057,0.112391,-0.0362331,-0.568125,0.0894847,0.0424353,727,1317,-7.10046,0.746206
-490,-293,-6.25793,-1.34863,0,0,0,0,0,0,0,-1,734,1317,-6.25796,1.34861
-483,-293,-7.7403,-0.0718994,0,0,0,0,0,0,0,-1,741,1317,-7.74029,0.0719396
-476,-293,-8.08569,0.357056,0,0,0,0,0,0,0,-1,748,1317,-8.08572,-0.356999
-469,-293,0,0,0,0,0,0,0,0,0,-1,755,1317,0,0
-462,-293,0,0,0,0,0,0,0,0,0,-1,762,1317,0,0
-455,-293,0,0,0,0,0,0,0,0,0,-1,769,1317,0,0
-448,-293,0,0,0,0,0,0,0,0,0,-1,776,1317,0,0
-441,-293,0,0,0,0,0,0,0,0,0,-1,783,1317,0,0
-434,-293,0,0,0,0,0,0,0,0,0,-1,790,1317,0,0
-427,-293,0,0,0,0,0,0,0,0,0,-1,797,1317,0,0
-420,-293,0,0,0,0,0,0,0,0,0,-1,804,1317,0,0
-413,-293,0,0,0,0,0,0,0,0,0,-1,811,1317,0,0
-406,-293,0,0,0,0,0,0,0,0,0,-1,818,1317,0,0
-399,-293,0,0,0,0,0,0,0,0,0,-1,825,1317,0,0
-392,-293,0,0,0,0,0,0,0,0,0,-1,832,1317,0,0
-385,-293,0,0,0,0,0,0,0,0,0,-1,839,1317,0,0
-378,-293,0,0,0,0,0,0,0,0,0,-1,846,1317,0,0
-371,-293,0,0,0,0,0,0,0,0,0,-1,853,1317,0,0
-364,-293,0,0,0,0,0,0,0,0,0,-1,860,1317,0,0
-357,-293,0,0,0,0,0,0,0,0,0,-1,867,1317,0,0
-350,-293,0,0,0,0,0,0,0,0,0,-1,874,1317,0,0
-343,-293,0,0,0,0,0,0,0,0,0,-1,881,1317,0,0
-336,-293,0,0,0,0,0,0,0,0,0,-1,888,1317,0,0
-329,-293,0,0,0,0,0,0,0,0,0,-1,895,1317,0,0
-322,-293,0,0,0,0,0,0,0,0,0,-1,902,1317,0,0
-315,-293,0,0,0,0,0,0,0,0,0,-1,909,1317,0,0
-308,-293,0,0,0,0,0,0,0,0,0,-1,916,1317,0,0
-301,-293,0,0,0,0,0,0,0,0,0,-1,923,1317,0,0
-294,-293,0,0,0,0,0,0,0,0,0,-1,930,1317,0,0
-287,-293,0,0,0,0,0,0,0,0,0,-1,937,1317,0,0
-280,-293,0,0,0,0,0,0,0,0,0,-1,944,1317,0,0
-273,-293,0,0,0,0,0,0,0,0,0,-1,951,1317,0,0
-266,-293,0,0,0,0,0,0,0,0,0,-1,958,1317,0,0
-259,-293,0,0,0,0,0,0,0,0,0,-1,965,1317,0,0
-252,-293,0,0,0,0,0,0,0,0,0,-1,972,1317,0,0
-245,-293,0,0,0,0,0,0,0,0,0,-1,979,1317,0,0
-238,-293,0,0,0,0,0,0,0,0,0,-1,986,1317,0,0
-231,-293,0,0,0,0,0,0,0,0,0,-1,993,1317,0,0
-224,-293,0,0,0,0,0,0,0,0,0,-1,1000,1317,0,0
-217,-293,0,0,0,0,0,0,0,0,0,-1,1007,1317,0,0
-210,-293,0,0,0,0,0,0,0,0,0,-1,1014,1317,0,0
-203,-293,0,0,0,0,0,0,0,0,0,-1,1021,1317,0,0
-196,-293,0,0,0,0,0,0,0,0,0,-1,1028,1317,0,0
-189,-293,0,0,0,0,0,0,0,0,0,-1,1035,1317,0,0
-182,-293,0,0,0,0,0,0,0,0,0,-1,1042,1317,0,0
-175,-293,0,0,0,0,0,0,0,0,0,-1,1049,1317,0,0
-168,-293,0,0,0,0,0,0,0,0,0,-1,1056,1317,0,0
-161,-293,0,0,0,0,0,0,0,0,0,-1,1063,1317,0,0
-154,-293,0,0,0,0,0,0,0,0,0,-1,1070,1317,0,0
-147,-293,0,0,0,0,0,0,0,0,0,-1,1077,1317,0,0
-140,-293,0,0,0,0,0,0,0,0,0,-1,1084,1317,0,0
-133,-293,0,0,0,0,0,0,0,0,0,-1,1091,1317,0,0
-126,-293,0,0,0,0,0,0,0,0,0,-1,1098,1317,0,0
-119,-293,0,0,0,0,0,0,0,0,0,-1,1105,1317,0,0
-112,-293,0,0,0,0,0,0,0,0,0,-1,1112,1317,0,0
-105,-293,0,0,0,0,0,0,0,0,0,-1,1119,1317,0,0
-98,-293,0,0,0,0,0,0,0,0,0,-1,1126,1317,0,0
-91,-293,0,0,0,0,0,0,0,0,0,-1,1133,1317,0,0
-84,-293,0,0,0,0,0,0,0,0,0,-1,1140,1317,0,0
-77,-293,0,0,0,0,0,0,0,0,0,-1,1147,1317,0,0
-70,-293,0,0,0,0,0,0,0,0,0,-1,1154,1317,0,0
-63,-293,0,0,0,0,0,0,0,0,0,-1,1161,1317,0,0
-56,-293,0,0,0,0,0,0,0,0,0,-1,1168,1317,0,0
-49,-293,0,0,0,0,0,0,0,0,0,-1,1175,1317,0,0
-42,-293,0,0,0,0,0,0,0,0,0,-1,1182,1317,0,0
-35,-293,0,0,0,0,0,0,0,0,0,-1,1189,1317,0,0
-28,-293,0,0,0,0,0,0,0,0,0,-1,1196,1317,0,0
-21,-293,0,0,0,0,0,0,0,0,0,-1,1203,1317,0,0
-14,-293,0,0,0,0,0,0,0,0,0,-1,1210,1317,0,0
-7,-293,0,0,0,0,0,0,0,0,0,-1,1217,1317,0,0
0,-293,0,0,0,0,0,0,0,0,0,-1,1224,1317,0,0
7,-293,0,0,0,0,0,0,0,0,0,-1,1231,1317,0,0
14,-293,0,0,0,0,0,0,0,0,0,-1,1238,1317,0,0
21,-293,0,0,0,0,0,0,0,0,0,-1,1245,1317,0,0
28,-293,0,0,0,0,0,0,0,0,0,-1,1252,1317,0,0
35,-293,0,0,0,0,0,0,0,0,0,-1,1259,1317,0,0
42,-293,0,0,0,0,0,0,0,0,0,-1,1266,1317,0,0
49,-293,0,0,0,0,0,0,0,0,0,-1,1273,1317,0,0
56,-293,0,0,0,0,0,0,0,0,0,-1,1280,1317,0,0
63,-293,0,0,0,0,0,0,0,0,0,-1,1287,1317,0,0
70,-293,0,0,0,0,0,0,0,0,0,-1,1294,1317,0,0
77,-293,0,0,0,0,0,0,0,0,0,-1,1301,1317,0,0
84,-293,0,0,0,0,0,0,0,0,0,-1,1308,1317,0,0
91,-293,0,0,0,0,0,0,0,0,0,-1,1315,1317,0,0
98,-293,0,0,0,0,0,0,0,0,0,-1,1322,1317,0,0
105,-293,0,0,0,0,0,0,0,0,0,-1,1329,1317,0,0
112,-293,0,0,0,0,0,0,0,0,0,-1,1336,1317,0,0
119,-293,0,0,0,0,0,0,0,0,0,-1,1343,1317,0,0
126,-293,0,0,0,0,0,0,0,0,0,-1,1350,1317,0,0
133,-293,0,0,0,0,0,0,0,0,0,-1,1357,1317,0,0
140,-293,0,0,0,0,0,0,0,0,0,-1,1364,1317,0,0
147,-293,0,0,0,0,0,0,0,0,0,-1,1371,1317,0,0
154,-293,0,0,0,0,0,0,0,0,0,-1,1378,1317,0,0
161,-293,0,0,0,0,0,0,0,0,0,-1,1385,1317,0,0
168,-293,0,0,0,0,0,0,0,0,0,-1,1392,1317,0,0
175,-293,0,0,0,0,0,0,0,0,0,-1,1399,1317,0,0
182,-293,0,0,0,0,0,0,0,0,0,-1,1406,1317,0,0
189,-293,0,0,0,0,0,0,0,0,0,-1,1413,1317,0,0
196,-293,0,0,0,0,0,0,0,0,0,-1,1420,1317,0,0
203,-293,0,0,0,0,0,0,0,0,0,-1,1427,1317,0,0
210,-293,0,0,0,0,0,0,0,0,0,-1,1434,1317,0,0
217,-293,0,0,0,0,0,0,0,0,0,-1,1441,1317,0,0
224,-293,0,0,0,0,0,0,0,0,0,-1,1448,1317,0,0
231,-293,0,0,0,0,0,0,0,0,0,-1,1455,1317,0,0
238,-293,0,0,0,0,0,0,0,0,0,-1,1462,1317,0,0
245,-293,0,0,0,0,0,0,0,0,0,-1,1469,1317,0,0
252,-293,0,0,0,0,0,0,0,0,0,-1,1476,1317,0,0
259,-293,0,0,0,0,0,0,0,0,0,-1,1483,1317,0,0
266,-293,0,0,0,0,0,0,0,0,0,-1,1490,1317,0,0
273,-293,0,0,0,0,0,0,0,0,0,-1,1497,1317,0,0
280,-293,0,0,0,0,0,0,0,0,0,-1,1504,1317,0,0
287,-293,0,0,0,0,0,0,0,0,0,-1,1511,1317,0,0
294,-293,0,0,0,0,0,0,0,0,0,-1,1518,1317,0,0
301,-293,0,0,0,0,0,0,0,0,0,-1,1525,1317,0,0
308,-293,0,0,0,0,0,0,0,0,0,-1,1532,1317,0,0
315,-293,0,0,0,0,0,0,0,0,0,-1,1539,1317,0,0
322,-293,0,0,0,0,0,0,0,0,0,-1,1546,1317,0,0
329,-293,0,0,0,0,0,0,0,0,0,-1,1553,1317,0,0
336,-293,0,0,0,0,0,0,0,0,0,-1,1560,1317,0,0
343,-293,0,0,0,0,0,0,0,0,0,-1,1567,1317,0,0
350,-293,0,0,0,0,0,0,0,0,0,-1,1574,1317,0,0
357,-293,0,0,0,0,0,0,0,0,0,-1,1581,1317,0,0
364,-293,0,0,0,0,0,0,0,0,0,-1,1588,1317,0,0
371,-293,0,0,0,0,0,0,0,0,0,-1,1595,1317,0,0
378,-293,0,0,0,0,0,0,0,0,0,-1,1602,1317,0,0
385,-293,0,0,0,0,0,0,0,0,0,-1,1609,1317,0,0
392,-293,0,0,0,0,0,0,0,0,0,-1,1616,1317,0,0
399,-293,0,0,0,0,0,0,0,0,0,-1,1623,1317,0,0
406,-293,0,0,0,0,0,0,0,0,0,-1,1630,1317,0,0
413,-293,0,0,0,0,0,0,0,0,0,-1,1637,1317,0,0
420,-293,0,0,0,0,0,0,0,0,0,-1,1644,1317,0,0
427,-293,0,0,0,0,0,0,0,0,0,-1,1651,1317,0,0
434,-293,0,0,0,0,0,0,0,0,0,-1,1658,1317,0,0
441,-293,0,0,0,0,0,0,0,0,0,-1,1665,1317,0,0
448,-293,0,0,0,0,0,0,0,0,0,-1,1672,1317,0,0
455,-293,0,0,0,0,0,0,0,0,0,-1,1679,1317,0,0
462,-293,0,0,0,0,0,0,0,0,0,-1,1686,1317,0,0
469,-293,0,0,0,0,0,0,0,0,0,-1,1693,1317,0,0
476,-293,0,0,0,0,0,0,0,0,0,-1,1700,1317,0,0
483,-293,0,0,0,0,0,0,0,0,0,-1,1707,1317,0,0
490,-293,0,0,0,0,0,0,0,0,0,-1,1714,1317,0,0
497,-293,0,0,0,0,0,0,0,0,0,-1,1721,1317,0,0
504,-293,0,0,0,0,0,0,0,0,0,-1,1728,1317,0,0
511,-293,0,0,0,0,0,0,0,0,0,-1,1735,1317,0,0
518,-293,0,0,0,0,0,0,0,0,0,-1,1742,1317,0,0
525,-293,0,0,0,0,0,0,0,0,0,-1,1749,1317,0,0
532,-293,0,0,0,0,0,0,0,0,0,-1,1756,1317,0,0
539,-293,0,0,0,0,0,0,0,0,0,-1,1763,1317,0,0
546,-293,0,0,0,0,0,0,0,0,0,-1,1770,1317,0,0
553,-293,0,0,0,0,0,0,0,0,0,-1,1777,1317,0,0
560,-293,0,0,0,0,0,0,0,0,0,-1,1784,1317,0,0
567,-293,0,0,0,0,0,0,0,0,0,-1,1791,1317,0,0
574,-293,0,0,0,0,0,0,0,0,0,-1,1798,1317,0,0
581,-293,0,0,0,0,0,0,0,0,0,-1,1805,1317,0,0
588,-293,0,0,0,0,0,0,0,0,0,-1,1812,1317,0,0
595,-293,15.6799,2.44324,-0.0221009,-0.0113811,-0.0217967,0.00570497,-0.039187,-0.905958,0.0282192,0.044491,1819,1317,15.6799,-2.44324
602,-293,15.5796,2.11694,-0.0208647,-0.00552433,-0.0177498,0.00614165,-0.0325307,-0.989345,0.0239978,0.0475236,1826,1317,15.5796,-2.11693
609,-293,15.36,2.25305,-0.0190502,-0.00203467,-0.0127094,0.00475173,-0.0258366,-1.08035,0.0190073,0.0490258,1833,1317,15.3599,-2.25311
616,-293,15.5,2.62939,0,0,0,0,0,0,0,-1,1840,1317,15.4999,-2.62939
623,-293,15.7528,2.75012,-0.0156636,0.00199448,-0.00470182,0.00316839,-0.0168375,-1.32613,0.0124166,0.0494342,1847,1317,15.7528,-2.75017
630,-293,15.9863,2.8894,0,0,0,0,0,0,0,-1,1854,1317,15.9863,-2.88944
637,-293,16.2206,3.04639,0,0,0,0,0,0,0,-1,1861,1317,16.2206,-3.04636
644,-293,13.1678,4.69568,0,0,0,0,0,0,0,-1,1868,1317,13.1678,-4.69565
651,-293,13.0586,4.56018,0,0,0,0,0,0,0,-1,1875,1317,13.0585,-4.56023
658,-293,12.7968,4.55078,-0.00823866,0.00632567,0.00536036,0.00808581,-0.00999881,1.25353,0.0104606,0.0383505,1882,1317,12.7968,-4.55074
665,-293,12.5959,4.50464,-0.00740749,0.00610386,0.00548834,0.00805227,-0.0093559,1.22967,0.01006,0.0300767,1889,1317,12.5959,-4.50462
672,-293,12.4128,4.43652,-0.00640563,0.00514058,0.00505366,0.00704004,-0.00830509,1.21127,0.00886954,0.0157778,1896,1317,12.4128,-4.43653
679,-293,12.4209,4.28064,-0.00608841,0.00393365,0.003872,0.0052553,-0.00741006,1.24186,0.00734754,0.012336,1903,1317,12.4209,-4.28059
686,-293,12.4242,4.13403,-0.00499139,0.00332701,0.0029115,0.0042448,-0.00590917,1.26543,0.00588859,0.0143423,1910,1317,12.4242,-4.13404
693,-293,12.4137,4.01843,-0.00321633,0.00236506,0.00174726,0.00286691,-0.00371818,1.2911,0.00381248,0.0114934,1917,1317,12.4137,-4.01838
700,-293,12.4071,3.88928,-0.0010476,0.0025976,9.4494e-07,0.0025976,-0.0010476,1.57054,0.00216705,0.0101542,1924,1317,12.4072,-3.88931
707,-293,12.426,3.77393,0.00178821,0.00282182,-0.00127385,0.00367971,0.000930323,-0.978105,0.00220932,0.0110723,1931,1317,12.426,-3.77392
714,-293,12.4109,3.63672,0.00496632,0.0036624,-0.0028537,0.00724159,0.00138713,-0.673095,0.0044382,0.00791594,1938,1317,12.4109,-3.63669
721,-293,12.413,3.49927,0.00877186,0.00497979,-0.00468574,0.0119306,0.00182101,-0.593148,0.0074216,0.00897972,1945,1317,12.413,-3.49933
728,-293,12.4056,3.35193,0.0126716,0.00687011,-0.00684731,0.0172073,0.00233447,-0.585041,0.010778,0.0108391,1952,1317,12.4057,-3.35193
735,-293,12.4072,3.20862,0.0174959,0.0091202,-0.00958155,0.0237648,0.00285127,-0.579372,0.0149835,0.0145327,1959,1317,12.4072,-3.20867
742,-293,12.4979,3.00281,0.0233054,0.0116417,-0.0129356,0.031663,0.00328408,-0.573623,0.0201036,0.0259471,1966,1317,12.4979,-3.00277
749,-293,12.7146,2.74524,0.0301418,0.014327,-0.0169412,0.0409301,0.00353862,-0.567047,0.026187,0.0401578,1973,1317,12.7146,-2.74525
756,-293,13.0114,2.40784,0,0,0,0,0,0,0,-1,1980,1317,13.0114,-2.4078
763,-293,12.3534,2.34326,0.04611,0.0191647,-0.0264742,0.0623425,0.00293219,-0.550028,0.0406196,0.0493002,1987,1317,12.3534,-2.34332
770,-293,12.9532,2.21765,0.0540481,0.0203372,-0.0314472,0.0728723,0.00151306,-0.539386,0.0480851,0.04955,1994,1317,12.9532,-2.2176
777,-293,0,0,0,0,0,0,0,0,0,-1,2001,1317,0,0
784,-293,0,0,0,0,0,0,0,0,0,-1,2008,1317,0,0
791,-293,0,0,0,0,0,0,0,0,0,-1,2015,1317,0,0
798,-293,0,0,0,0,0,0,0,0,0,-1,2022,1317,0,0
805,-293,0,0,0,0,0,0,0,0,0,-1,2029,1317,0,0
812,-293,0,0,0,0,0,0,0,0,0,-1,2036,1317,0,0
-700,-300,0,0,0,0,0,0,0,0,0,-1,524,1324,0,0
-693,-300,0,0,0,0,0,0,0,0,0,-1,531,1324,0,0
-686,-300,0,0,0,0,0,0,0,0,0,-1,538,1324,0,0
-679,-300,0,0,0,0,0,0,0,0,0,-1,545,1324,0,0
-672,-300,0,0,0,0,0,0,0,0,0,-1,552,1324,0,0
-665,-300,0,0,0,0,0,0,0,0,0,-1,559,1324,0,0
-658,-300,0,0,0,0,0,0,0,0,0,-1,566,1324,0,0
-651,-300,-5.84747,0.374756,0,0,0,0,0,0,0,-1,573,1324,-5.84746,-0.374762
-644,-300,-5.64648,-1.1925,0,0,0,0,0,0,0,-1,580,1324,-5.64648,1.19249
-637,-300,-5.66888,-0.984253,-0.0184717,-0.00909434,0.0135031,0.000510951,-0.0280769,0.9525,0.0188906,0.0436248,587,1324,-5.66887,0.984276
-630,-300,-5.72314,-0.749023,-0.0114307,-0.001432,0.013041,0.0075351,-0.0203978,0.968436,0.0166873,0.0448929,594,1324,-5.72314,0.749035
-623,-300,-5.784,-0.501953,-0.00641477,0.00263811,0.0118612,0.0108072,-0.0145838,0.967678,0.0147135,0.0440738,601,1324,-5.78401,0.501951
-616,-300,-5.76752,0.00402832,-0.0030786,0.00433957,0.0102755,0.0115549,-0.0102939,0.958603,0.0126214,0.0449019,608,1324,-5.76752,-0.00399892
-609,-300,-5.55505,0.779663,-0.00103581,0.00452917,0.00852396,0.0107133,-0.00721993,0.943161,0.010419,0.0437768,615,1324,-5.55503,-0.779651
-602,-300,-5.51172,1.17798,0.000312348,0.00465615,0.00695053,0.00976621,-0.00479772,0.936831,0.00857004,0.0306052,622,1324,-5.51173,-1.17794
-595,-300,-5.63208,1.36121,0.00109026,0.00458651,0.00532322,0.0084413,-0.00276453,0.944048,0.00674073,0.0158025,629,1324,-5.63209,-1.36123
-588,-300,-5.60663,1.51196,0.00160031,0.00371537,0.00373217,0.00653694,-0.00122126,0.923457,0.00481694,0.0192038,636,1324,-5.6066,-1.51194
-581,-300,-5.57947,1.7019,0.00201966,0.00129621,0.00235913,0.00404463,-0.000728764,0.709326,0.0029693,0.0202186,643,1324,-5.57945,-1.70196
-574,-300,-5.5777,1.88025,0.00199618,-0.000537724,0.00133338,0.00256854,-0.00111008,0.405468,0.00217878,0.0159587,650,1324,-5.57768,-1.88026
-567,-300,-5.59711,2.03259,0.0017328,-0.00178085,0.000241646,0.00174934,-0.00179739,0.0683447,0.00204777,0.0150218,657,1324,-5.59711,-2.03265
-560,-300,-5.61249,2.18823,0.00247732,-0.00240133,-0.00181388,0.00307781,-0.00300182,-0.319696,0.00351017,0.0130319,664,1324,-5.61249,-2.18818
-553,-300,-5.60138,2.33301,0.0051021,-0.00278711,-0.00472475,0.00731242,-0.00499743,-0.437573,0.00714887,0.00882655,671,1324,-5.6014,-2.33297
-546,-300,-5.59857,2.49133,0.00925785,-0.00320472,-0.00861373,0.0136579,-0.00760477,-0.472265,0.0124407,0.00770073,678,1324,-5.59859,-2.4913
-539,-300,-5.58069,2.66309,0.0137862,-0.00346178,-0.0129955,0.0207589,-0.0104345,-0.492455,0.0183354,0.0125413,685,1324,-5.58072,-2.66306
-532,-300,-5.68158,2.71362,0.0191485,-0.00365423,-0.0184784,0.0294599,-0.0139656,-0.508982,0.0255982,0.0292764,692,1324,-5.68155,-2.71357
-525,-300,-5.55865,2.72314,0.0257215,-0.00343692,-0.0252882,0.0403321,-0.0180475,-0.523909,0.0345143,0.0431467,699,1324,-5.55868,-2.7231
-518,-300,-8.138,2.49915,0,0,0,0,0,0,0,-1,706,1324,-8.13798,-2.49915
-511,-300,-7.7774,1.3031,0.0427854,-0.00119881,-0.0430829,0.0691646,-0.027578,-0.549408,0.0575489,0.0433039,713,1324,-7.77741,-1.30307
-504,-300,-7.32892,0.222534,0.0535892,0.00120316,-0.0543257,0.0877067,-0.0329143,-0.560766,0.0719958,0.0474959,720,1324,-7.32894,-0.222514
-497,-300,-6.81354,-0.813599,0.0663855,0.00495019,-0.0674567,0.109789,-0.0384535,-0.571743,0.0888298,0.0469773,727,1324,-6.81353,0.813549
-490,-300,-5.94427,-1.42615,0,0,0,0,0,0,0,-1,734,1324,-5.94425,1.42616
-483,-300,-7.70935,0.0582275,0,0,0,0,0,0,0,-1,741,1324,-7.70936,-0.0582406
-476,-300,-7.76941,0.227173,0,0,0,0,0,0,0,-1,748,1324,-7.76943,-0.227148
-469,-300,0,0,0,0,0,0,0,0,0,-1,755,1324,0,0
-462,-300,0,0,0,0,0,0,0,0,0,-1,762,1324,0,0
-455,-300,0,0,0,0,0,0,0,0,0,-1,769,1324,0,0
-448,-300,0,0,0,0,0,0,0,0,0,-1,776,1324,0,0
-441,-300,0,0,0,0,0,0,0,0,0,-1,783,1324,0,0
-434,-300,0,0,0,0,0,0,0,0,0,-1,790,1324,0,0
-427,-300,0,0,0,0,0,0,0,0,0,-1,797,1324,0,0
-420,-300,0,0,0,0,0,0,0,0,0,-1,804,1324,0,0
-413,-300,0,0,0,0,0,0,0,0,0,-1,811,1324,0,0
-406,-300,0,0,0,0,0,0,0,0,0,-1,818,1324,0,0
-399,-300,0,0,0,0,0,0,0,0,0,-1,825,1324,0,0
-392,-300,0,0,0,0,0,0,0,0,0,-1,832,1324,0,0
-385,-300,0,0,0,0,0,0,0,0,0,-1,839,1324,0,0
-378,-300,0,0,0,0,0,0,0,0,0,-1,846,1324,0,0
-371,-300,0,0,0,0,0,0,0,0,0,-1,853,1324,0,0
-364,-300,0,0,0,0,0,0,0,0,0,-1,860,1324,0,0
-357,-300,0,0,0,0,0,0,0,0,0,-1,867,1324,0,0
-350,-300,0,0,0,0,0,0,0,0,0,-1,874,1324,0,0
-343,-300,0,0,0,0,0,0,0,0,0,-1,881,1324,0,0
-336,-300,0,0,0,0,0,0,0,0,0,-1,888,1324,0,0
-329,-300,0,0,0,0,0,0,0,0,0,-1,895,1324,0,0
-322,-300,0,0,0,0,0,0,0,0,0,-1,902,1324,0,0
-315,-300,0,0,0,0,0,0,0,0,0,-1,909,1324,0,0
-308,-300,0,0,0,0,0,0,0,0,0,-1,916,1324,0,0
-301,-300,0,0,0,0,0,0,0,0,0,-1,923,1324,0,0
-294,-300,0,0,0,0,0,0,0,0,0,-1,930,1324,0,0
-287,-300,0,0,0,0,0,0,0,0,0,-1,937,1324,0,0
-280,-300,0,0,0,0,0,0,0,0,0,-1,944,1324,0,0
-273,-300,0,0,0,0,0,0,0,0,0,-1,951,1324,0,0
-266,-300,0,0,0,0,0,0,0,0,0,-1,958,1324,0,0
-259,-300,0,0,0,0,0,0,0,0,0,-1,965,1324,0,0
-252,-300,0,0,0,0,0,0,0,0,0,-1,972,1324,0,0
-245,-300,0,0,0,0,0,0,0,0,0,-1,979,1324,0,0
-238,-300,0,0,0,0,0,0,0,0,0,-1,986,1324,0,0
-231,-300,0,0,0,0,0,0,0,0,0,-1,993,1324,0,0
-224,-300,0,0,0,0,0,0,0,0,0,-1,1000,1324,0,0
-217,-300,0,0,0,0,0,0,0,0,0,-1,1007,1324,0,0
-210,-300,0,0,0,0,0,0,0,0,0,-1,1014,1324,0,0
-203,-300,0,0,0,0,0,0,0,0,0,-1,1021,1324,0,0
-196,-300,0,0,0,0,0,0,0,0,0,-1,1028,1324,0,0
-189,-300,0,0,0,0,0,0,0,0,0,-1,1035,1324,0,0
-182,-300,0,0,0,0,0,0,0,0,0,-1,1042,1324,0,0
-175,-300,0,0,0,0,0,0,0,0,0,-1,1049,1324,0,0
-168,-300,0,0,0,0,0,0,0,0,0,-1,1056,1324,0,0
-161,-300,0,0,0,0,0,0,0,0,0,-1,1063,1324,0,0
-154,-300,0,0,0,0,0,0,0,0,0,-1,1070,1324,0,0
-147,-300,0,0,0,0,0,0,0,0,0,-1,1077,1324,0,0
-140,-300,0,0,0,0,0,0,0,0,0,-1,1084,1324,0,0
-133,-300,0,0,0,0,0,0,0,0,0,-1,1091,1324,0,0
-126,-300,0,0,0,0,0,0,0,0,0,-1,1098,1324,0,0
-119,-300,0,0,0,0,0,0,0,0,0,-1,1105,1324,0,0
-112,-300,0,0,0,0,0,0,0,0,0,-1,1112,1324,0,0
-105,-300,0,0,0,0,0,0,0,0,0,-1,1119,1324,0,0
-98,-300,0,0,0,0,0,0,0,0,0,-1,1126,1324,0,0
-91,-300,0,0,0,0,0,0,0,0,0,-1,1133,1324,0,0
-84,-300,0,0,0,0,0,0,0,0,0,-1,1140,1324,0,0
-77,-300,0,0,0,0,0,0,0,0,0,-1,1147,1324,0,0
-70,-300,0,0,0,0,0,0,0,0,0,-1,1154,1324,0,0
-63,-300,0,0,0,0,0,0,0,0,0,-1,1161,1324,0,0
-56,-300,0,0,0,0,0,0,0,0,0,-1,1168,1324,0,0
-49,-300,0,0,0,0,0,0,0,0,0,-1,1175,1324,0,0
-42,-300,0,0,0,0,0,0,0,0,0,-1,1182,1324,0,0
-35,-300,0,0,0,0,0,0,0,0,0,-1,1189,1324,0,0
-28,-300,0,0,0,0,0,0,0,0,0,-1,1196,1324,0,0
-21,-300,0,0,0,0,0,0,0,0,0,-1,1203,1324,0,0
-14,-300,0,0,0,0,0,0,0,0,0,-1,1210,1324,0,0
-7,-300,0,0,0,0,0,0,0,0,0,-1,1217,1324,0,0
0,-300,0,0,0,0,0,0,0,0,0,-1,1224,1324,0,0
7,-300,0,0,0,0,0,0,0,0,0,-1,1231,1324,0,0
14,-300,0,0,0,0,0,0,0,0,0,-1,1238,1324,0,0
21,-300,0,0,0,0,0,0,0,0,0,-1,1245,1324,0,0
28,-300,0,0,0,0,0,0,0,0,0,-1,1252,1324,0,0
35,-300,0,0,0,0,0,0,0,0,0,-1,1259,1324,0,0
42,-300,0,0,0,0,0,0,0,0,0,-1,1266,1324,0,0
49,-300,0,0,0,0,0,0,0,0,0,-1,1273,1324,0,0
56,-300,0,0,0,0,0,0,0,0,0,-1,1280,1324,0,0
63,-300,0,0,0,0,0,0,0,0,0,-1,1287,1324,0,0
70,-300,0,0,0,0,0,0,0,0,0,-1,1294,1324,0,0
77,-300,0,0,0,0,0,0,0,0,0,-1,1301,1324,0,0
84,-300,0,0,0,0,0,0,0,0,0,-1,1308,1324,0,0
91,-300,0,0,0,0,0,0,0,0,0,-1,1315,1324,0,0
98,-300,0,0,0,0,0,0,0,0,0,-1,1322,1324,0,0
105,-300,0,0,0,0,0,0,0,0,0,-1,1329,1324,0,0
112,-300,0,0,0,0,0,0,0,0,0,-1,1336,1324,0,0
119,-300,0,0,0,0,0,0,0,0,0,-1,1343,1324,0,0
126,-300,0,0,0,0,0,0,0,0,0,-1,1350,1324,0,0
133,-300,0,0,0,0,0,0,0,0,0,-1,1357,1324,0,0
140,-300,0,0,0,0,0,0,0,0,0,-1,1364,1324,0,0
147,-300,0,0,0,0,0,0,0,0,0,-1,1371,1324,0,0
154,-300,0,0,0,0,0,0,0,0,0,-1,1378,1324,0,0
161,-300,0,0,0,0,0,0,0,0,0,-1,1385,1324,0,0
168,-300,0,0,0,0,0,0,0,0,0,-1,1392,1324,0,0
175,-300,0,0,0,0,0,0,0,0,0,-1,1399,1324,0,0
182,-300,0,0,0,0,0,0,0,0,0,-1,1406,1324,0,0
189,-300,0,0,0,0,0,0,0,0,0,-1,1413,1324,0,0
196,-300,0,0,0,0,0,0,0,0,0,-1,1420,1324,0,0
203,-300,0,0,0,0,0,0,0,0,0,-1,1427,1324,0,0
210,-300,0,0,0,0,0,0,0,0,0,-1,1434,1324,0,0
217,-300,0,0,0,0,0,0,0,0,0,-1,1441,1324,0,0
224,-300,0,0,0,0,0,0,0,0,0,-1,1448,1324,0,0
231,-300,0,0,0,0,0,0,0,0,0,-1,1455,1324,0,0
238,-300,0,0,0,0,0,0,0,0,0,-1,1462,1324,0,0
245,-300,0,0,0,0,0,0,0,0,0,-1,1469,1324,0,0
252,-300,0,0,0,0,0,0,0,0,0,-1,1476,1324,0,0
259,-300,0,0,0,0,0,0,0,0,0,-1,1483,1324,0,0
266,-300,0,0,0,0,0,0,0,0,0,-1,1490,1324,0,0
273,-300,0,0,0,0,0,0,0,0,0,-1,1497,1324,0,0
280,-300,0,0,0,0,0,0,0,0,0,-1,1504,1324,0,0
287,-300,0,0,0,0,0,0,0,0,0,-1,1511,1324,0,0
294,-300,0,0,0,0,0,0,0,0,0,-1,1518,1324,0,0
301,-300,0,0,0,0,0,0,0,0,0,-1,1525,1324,0,0
308,-300,0,0,0,0,0,0,0,0,0,-1,1532,1324,0,0
315,-300,0,0,0,0,0,0,0,0,0,-1,1539,1324,0,0
322,-300,0,0,0,0,0,0,0,0,0,-1,1546,1324,0,0
329,-300,0,0,0,0,0,0,0,0,0,-1,1553,1324,0,0
336,-300,0,0,0,0,0,0,0,0,0,-1,1560,1324,0,0
343,-300,0,0,0,0,0,0,0,0,0,-1,1567,1324,0,0
350,-300,0,0,0,0,0,0,0,0,0,-1,1574,1324,0,0
357,-300,0,0,0,0,0,0,0,0,0,-1,1581,1324,0,0
364,-300,0,0,0,0,0,0,0,0,0,-1,1588,1324,0,0
371,-300,0,0,0,0,0,0,0,0,0,-1,1595,1324,0,0
378,-300,0,0,0,0,0,0,0,0,0,-1,1602,1324,0,0
385,-300,0,0,0,0,0,0,0,0,0,-1,1609,1324,0,0
392,-300,0,0,0,0,0,0,0,0,0,-1,1616,1324,0,0
399,-300,0,0,0,0,0,0,0,0,0,-1,1623,1324,0,0
406,-300,0,0,0,0,0,0,0,0,0,-1,1630,1324,0,0
413,-300,0,0,0,0,0,0,0,0,0,-1,1637,1324,0,0
420,-300,0,0,0,0,0,0,0,0,0,-1,1644,1324,0,0
427,-300,0,0,0,0,0,0,0,0,0,-1,1651,1324,0,0
434,-300,0,0,0,0,0,0,0,0,0,-1,1658,1324,0,0
441,-300,0,0,0,0,0,0,0,0,0,-1,1665,1324,0,0
448,-300,0,0,0,0,0,0,0,0,0,-1,1672,1324,0,0
455,-300,0,0,0,0,0,0,0,0,0,-1,1679,1324,0,0
462,-300,0,0,0,0,0,0,0,0,0,-1,1686,1324,0,0
469,-300,0,0,0,0,0,0,0,0,0,-1,1693,1324,0,0
476,-300,0,0,0,0,0,0,0,0,0,-1,1700,1324,0,0
483,-300,0,0,0,0,0,0,0,0,0,-1,1707,1324,0,0
490,-300,0,0,0,0,0,0,0,0,0,-1,1714,1324,0,0
497,-300,0,0,0,0,0,0,0,0,0,-1,1721,1324,0,0
504,-300,0,0,0,0,0,0,0,0,0,-1,1728,1324,0,0
511,-300,0,0,0,0,0,0,0,0,0,-1,1735,1324,0,0
518,-300,0,0,0,0,0,0,0,0,0,-1,1742,1324,0,0
525,-300,0,0,0,0,0,0,0,0,0,-1,1749,1324,0,0
532,-300,0,0,0,0,0,0,0,0,0,-1,1756,1324,0,0
539,-300,0,0,0,0,0,0,0,0,0,-1,1763,1324,0,0
546,-300,0,0,0,0,0,0,0,0,0,-1,1770,1324,0,0
553,-300,0,0,0,0,0,0,0,0,0,-1,1777,1324,0,0
560,-300,0,0,0,0,0,0,0,0,0,-1,1784,1324,0,0
567,-300,0,0,0,0,0,0,0,0,0,-1,1791,1324,0,0
574,-300,0,0,0,0,0,0,0,0,0,-1,1798,1324,0,0
581,-300,0,0,0,0,0,0,0,0,0,-1,1805,1324,0,0
588,-300,16.6388,3.12561,0,0,0,0,0,0,0,-1,1812,1324,16.6388,-3.12559
595,-300,15.7382,2.52747,-0.0215194,-0.00773731,-0.0222923,0.00870471,-0.0379615,-0.935301,0.0286534,0.0416117,1819,1324,15.7381,-2.52748
602,-300,15.5275,2.17297,-0.0210386,-0.00351421,-0.0179382,0.00768749,-0.0322403,-1.01259,0.024462,0.0478291,1826,1324,15.5275,-2.17296
609,-300,15.2523,1.96521,0,0,0,0,0,0,0,-1,1833,1324,15.2523,-1.96527
616,-300,15.5225,3.11536,0,0,0,0,0,0,0,-1,1840,1324,15.5225,-3.11541
623,-300,15.765,3.27979,0,0,0,0,0,0,0,-1,1847,1324,15.765,-3.27982
630,-300,15.9218,3.34753,0,0,0,0,0,0,0,-1,1854,1324,15.9217,-3.34751
637,-300,12.72,2.88879,0,0,0,0,0,0,0,-1,1861,1324,12.7199,-2.88876
644,-300,13.0061,2.4519,0,0,0,0,0,0,0,-1,1868,1324,13.0061,-2.45189
651,-300,12.9147,4.52112,0,0,0,0,0,0,0,-1,1875,1324,12.9146,-4.52109
658,-300,12.5695,4.59778,-0.00818176,0.00398059,0.0055803,0.00615293,-0.0103541,1.19956,0.00963267,0.0407371,1882,1324,12.5695,-4.59784
665,-300,12.3188,4.55151,-0.00700814,0.00378075,0.00565567,0.0062021,-0.00942949,1.16628,0.0090888,0.0255816,1889,1324,12.3189,-4.55147
672,-300,12.2516,4.45728,-0.00570509,0.00301343,0.005057,0.00533073,-0.00802238,1.14112,0.00776146,0.0107776,1896,1324,12.2515,-4.45726
679,-300,12.2708,4.2926,-0.00523945,0.00226959,0.00376261,0.00383049,-0.00680035,1.17756,0.00621704,0.011302,1903,1324,12.2707,-4.29257
686,-300,12.3021,4.15381,-0.00412466,0.00216533,0.00265451,0.00313585,-0.00509517,1.22028,0.00479685,0.0119256,1910,1324,12.3021,-4.15381
693,-300,12.2866,4.04138,-0.00233756,0.00185944,0.00137816,0.00227153,-0.00274964,1.28025,0.00290335,0.0106946,1917,1324,12.2866,-4.04137
700,-300,12.2714,3.90906,-0.000155653,0.00248522,-0.000375928,0.00253769,-0.000208124,-1.43212,0.00176526,0.0112429,1924,1324,12.2713,-3.90904
707,-300,12.2838,3.73877,0.00260846,0.00320847,-0.00176326,0.00469706,0.00111987,-0.869662,0.00283285,0.00824286,1931,1324,12.2838,-3.73876
714,-300,12.2877,3.62219,0.00587982,0.00445079,-0.0035557,0.00879208,0.00153853,-0.686244,0.0054218,0.00980833,1938,1324,12.2877,-3.62213
721,-300,12.2949,3.50122,0.00990412,0.00603551,-0.00563082,0.0139236,0.00201602,-0.619953,0.00868872,0.0113327,1945,1324,12.295,-3.50122
728,-300,12.2966,3.35205,0.0142015,0.00822405,-0.00814698,0.0198907,0.00253488,-0.609595,0.0125014,0.00952716,1952,1324,12.2966,-3.352
735,-300,12.2667,3.25012,0.0195864,0.0108324,-0.011357,0.0273806,0.00303812,-0.601469,0.0173301,0.014475,1959,1324,12.2668,-3.25006
742,-300,12.4583,3.12561,0.0261243,0.0137555,-0.0153118,0.0364535,0.0034263,-0.593468,0.0232446,0.0296564,1966,1324,12.4582,-3.12564
749,-300,12.7844,2.9491,0.0337836,0.0168227,-0.0200068,0.0470331,0.00357316,-0.584938,0.0302348,0.0451086,1973,1324,12.7845,-2.94905
756,-300,13.1008,2.72351,0,0,0,0,0,0,0,-1,1980,1324,13.1008,-2.72353
763,-300,12.6863,2.41016,0.0514078,0.0220393,-0.0310041,0.0710292,0.00241783,-0.564236,0.0465678,0.0473165,1987,1324,12.6863,-2.41015
770,-300,13.2096,2.35168,0.0598802,0.0228595,-0.0365045,0.0822991,0.000440545,-0.550754,0.0547198,0.0483078,1994,1324,13.2095,-2.35172
777,-300,0,0,0,0,0,0,0,0,0,-1,2001,1324,0,0
784,-300,0,0,0,0,0,0,0,0,0,-1,2008,1324,0,0
791,-300,0,0,0,0,0,0,0,0,0,-1,2015,1324,0,0
798,-300,0,0,0,0,0,0,0,0,0,-1,2022,1324,0,0
805,-300,0,0,0,0,0,0,0,0,0,-1,2029,1324,0,0
812,-300,0,0,0,0,0,0,0,0,0,-1,2036,1324,0,0
-700,-307,0,0,0,0,0,0,0,0,0,-1,524,1331,0,0
-693,-307,0,0,0,0,0,0,0,0,0,-1,531,1331,0,0
-686,-307,0,0,0,0,0,0,0,0,0,-1,538,1331,0,0
-679,-307,0,0,0,0,0,0,0,0,0,-1,545,1331,0,0
-672,-307,0,0,0,0,0,0,0,0,0,-1,552,1331,0,0
-665,-307,0,0,0,0,0,0,0,0,0,-1,559,1331,0,0
-658,-307,0,0,0,0,0,0,0,0,0,-1,566,1331,0,0
-651,-307,-6.10376,1.64148,0,0,0,0,0,0,0,-1,573,1331,-6.10375,-1.64147
-644,-307,-5.32855,-1.56934,0,0,0,0,0,0,0,-1,580,1331,-5.32854,1.56929
-637,-307,-5.51569,-1.3927,-0.0189034,-0.0125088,0.01645,0.00105172,-0.0324639,0.881384,0.0220016,0.045929,587,1331,-5.51566,1.39274
-630,-307,-6.04315,-1.38391,-0.0117068,-0.00365682,0.0157012,0.00852704,-0.0238907,0.910871,0.0194044,0.0442059,594,1331,-6.04313,1.38389
-623,-307,-5.87494,-0.701416,-0.00659604,0.00125361,0.0141968,0.0120581,-0.0174005,0.920259,0.0171009,0.0445894,601,1331,-5.87493,0.701432
-616,-307,-5.65778,-0.0697021,-0.00318121,0.00356082,0.0122872,0.012931,-0.0125514,0.91928,0.0147129,0.0441499,608,1331,-5.6578,0.0697119
-609,-307,-5.39569,0.621582,-0.00109651,0.00422081,0.0101881,0.0120914,-0.0089671,0.913031,0.0122027,0.044103,615,1331,-5.39572,-0.621626
-602,-307,-5.32733,1.00549,0.000271984,0.00455151,0.00830199,0.0109851,-0.00616156,0.911524,0.0100293,0.0310174,622,1331,-5.32735,-1.00544
-595,-307,-5.46478,1.35449,0.00104116,0.00459635,0.00638319,0.00944484,-0.00380733,0.921198,0.00787853,0.0147811,629,1331,-5.46477,-1.35454
-588,-307,-5.44604,1.53186,0.00144376,0.0037437,0.00458427,0.00732004,-0.00213258,0.908288,0.00572485,0.0172547,636,1331,-5.44604,-1.53186
-581,-307,-5.42981,1.70142,0.00181385,0.00136573,0.00303721,0.00463525,-0.00145567,0.748579,0.00367284,0.0159999,643,1331,-5.42978,-1.70136
-574,-307,-5.42584,1.85925,0.00175882,-0.000274223,0.00174469,0.00276152,-0.00127692,0.52162,0.00238353,0.0131316,650,1331,-5.42582,-1.8593
-567,-307,-5.4386,2.02454,0.00140771,-0.00128564,0.000487538,0.00149324,-0.00137117,0.173676,0.00165427,0.012363,657,1331,-5.43861,-2.02448
-560,-307,-5.42761,2.19543,0.00186785,-0.00184163,-0.00148597,0.00238969,-0.00236348,-0.337728,0.00274426,0.0131243,664,1331,-5.42762,-2.19549
-553,-307,-5.42841,2.33728,0.00400529,-0.00216268,-0.00409584,0.00604837,-0.00420577,-0.462703,0.00595201,0.0099732,671,1331,-5.42841,-2.33733
-546,-307,-5.4256,2.4928,0.00766538,-0.00272216,-0.00768251,0.011745,-0.00680181,-0.488163,0.0108341,0.00935419,678,1331,-5.42563,-2.49286
-539,-307,-5.40924,2.66797,0.0117045,-0.00319751,-0.0117249,0.0181456,-0.00963865,-0.502347,0.01629,0.0115225,685,1331,-5.40923,-2.66795
-532,-307,-5.38708,2.78796,0.0165589,-0.00359416,-0.0168603,0.0261243,-0.0131596,-0.516054,0.0230886,0.023454,692,1331,-5.38711,-2.78792
-525,-307,-5.50732,2.74719,0.0226801,-0.003681,-0.023343,0.0363067,-0.0173076,-0.528388,0.0315954,0.0423543,699,1331,-5.50732,-2.74715
-518,-307,-7.98688,2.17261,0,0,0,0,0,0,0,-1,706,1331,-7.98686,-2.17255
-511,-307,-7.47516,1.00024,0.0390398,-0.00265163,-0.0405316,0.0637721,-0.0273839,-0.547884,0.0540086,0.0420307,713,1331,-7.47517,-1.0002
-504,-307,-6.87189,0.372925,0.0494828,-0.001348,-0.0512851,0.0813047,-0.0331699,-0.555349,0.0680116,0.0442528,720,1331,-6.87189,-0.37297
-497,-307,-6.19574,-0.587402,0.0616964,0.000664502,-0.0635187,0.101649,-0.0392883,-0.561466,0.0839835,0.0486982,727,1331,-6.19576,0.587384
-490,-307,-5.34576,-1.2478,0,0,0,0,0,0,0,-1,734,1331,-5.34574,1.24781
-483,-307,-7.38391,0.0494385,0,0,0,0,0,0,0,-1,741,1331,-7.38389,-0.0494562
-476,-307,-7.43933,0.178101,0,0,0,0,0,0,0,-1,748,1331,-7.43935,-0.178073
-469,-307,-7.56348,0.297974,0,0,0,0,0,0,0,-1,755,1331,-7.56346,-0.298004
-462,-307,0,0,0,0,0,0,0,0,0,-1,762,1331,0,0
-455,-307,0,0,0,0,0,0,0,0,0,-1,769,1331,0,0
-448,-307,0,0,0,0,0,0,0,0,0,-1,776,1331,0,0
-441,-307,0,0,0,0,0,0,0,0,0,-1,783,1331,0,0
-434,-307,0,0,0,0,0,0,0,0,0,-1,790,1331,0,0
-427,-307,0,0,0,0,0,0,0,0,0,-1,797,1331,0,0
-420,-307,0,0,0,0,0,0,0,0,0,-1,804,1331,0,0
-413,-307,0,0,0,0,0,0,0,0,0,-1,811,1331,0,0
-406,-307,0,0,0,0,0,0,0,0,0,-1,818,1331,0,0
-399,-307,0,0,0,0,0,0,0,0,0,-1,825,1331,0,0
-392,-307,0,0,0,0,0,0,0,0,0,-1,832,1331,0,0
-385,-307,0,0,0,0,0,0,0,0,0,-1,839,1331,0,0
-378,-307,0,0,0,0,0,0,0,0,0,-1,846,1331,0,0
-371,-307,0,0,0,0,0,0,0,0,0,-1,853,1331,0,0
-364,-307,0,0,0,0,0,0,0,0,0,-1,860,1331,0,0
-357,-307,0,0,0,0,0,0,0,0,0,-1,867,1331,0,0
-350,-307,0,0,0,0,0,0,0,0,0,-1,874,1331,0,0
-343,-307,0,0,0,0,0,0,0,0,0,-1,881,1331,0,0
-336,-307,0,0,0,0,0,0,0,0,0,-1,888,1331,0,0
-329,-307,0,0,0,0,0,0,0,0,0,-1,895,1331,0,0
-322,-307,0,0,0,0,0,0,0,0,0,-1,902,1331,0,0
-315,-307,0,0,0,0,0,0,0,0,0,-1,909,1331,0,0
-308,-307,0,0,0,0,0,0,0,0,0,-1,916,1331,0,0
-301,-307,0,0,0,0,0,0,0,0,0,-1,923,1331,0,0
-294,-307,0,0,0,0,0,0,0,0,0,-1,930,1331,0,0
-287,-307,0,0,0,0,0,0,0,0,0,-1,937,1331,0,0
-280,-307,0,0,0,0,0,0,0,0,0,-1,944,1331,0,0
-273,-307,0,0,0,0,0,0,0,0,0,-1,951,1331,0,0
-266,-307,0,0,0,0,0,0,0,0,0,-1,958,1331,0,0
-259,-307,0,0,0,0,0,0,0,0,0,-1,965,1331,0,0
-252,-307,0,0,0,0,0,0,0,0,0,-1,972,1331,0,0
-245,-307,0,0,0,0,0,0,0,0,0,-1,979,1331,0,0
-238,-307,0,0,0,0,0,0,0,0,0,-1,986,1331,0,0
-231,-307,0,0,0,0,0,0,0,0,0,-1,993,1331,0,0
-224,-307,0,0,0,0,0,0,0,0,0,-1,1000,1331,0,0
-217,-307,0,0,0,0,0,0,0,0,0,-1,1007,1331,0,0
-210,-307,0,0,0,0,0,0,0,0,0,-1,1014,1331,0,0
-203,-307,0,0,0,0,0,0,0,0,0,-1,1021,1331,0,0
-196,-307,0,0,0,0,0,0,0,0,0,-1,1028,1331,0,0
-189,-307,0,0,0,0,0,0,0,0,0,-1,1035,1331,0,0
-182,-307,0,0,0,0,0,0,0,0,0,-1,1042,1331,0,0
-175,-307,0,0,0,0,0,0,0,0,0,-1,1049,1331,0,0
-168,-307,0,0,0,0,0,0,0,0,0,-1,1056,1331,0,0
-161,-307,0,0,0,0,0,0,0,0,0,-1,1063,1331,0,0
-154,-307,0,0,0,0,0,0,0,0,0,-1,1070,1331,0,0
-147,-307,0,0,0,0,0,0,0,0,0,-1,1077,1331,0,0
-140,-307,0,0,0,0,0,0,0,0,0,-1,1084,1331,0,0
-133,-307,0,0,0,0,0,0,0,0,0,-1,1091,1331,0,0
-126,-307,0,0,0,0,0,0,0,0,0,-1,1098,1331,0,0
-119,-307,0,0,0,0,0,0,0,0,0,-1,1105,1331,0,0
-112,-307,0,0,0,0,0,0,0,0,0,-1,1112,1331,0,0
-105,-307,0,0,0,0,0,0,0,0,0,-1,1119,1331,0,0
-98,-307,0,0,0,0,0,0,0,0,0,-1,1126,1331,0,0
-91,-307,0,0,0,0,0,0,0,0,0,-1,1133,1331,0,0
-84,-307,0,0,0,0,0,0,0,0,0,-1,1140,1331,0,0
-77,-307,0,0,0,0,0,0,0,0,0,-1,1147,1331,0,0
-70,-307,0,0,0,0,0,0,0,0,0,-1,1154,1331,0,0
-63,-307,0,0,0,0,0,0,0,0,0,-1,1161,1331,0,0
-56,-307,0,0,0,0,0,0,0,0,0,-1,1168,1331,0,0
-49,-307,0,0,0,0,0,0,0,0,0,-1,1175,1331,0,0
-42,-307,0,0,0,0,0,0,0,0,0,-1,1182,1331,0,0
-35,-307,0,0,0,0,0,0,0,0,0,-1,1189,1331,0,0
-28,-307,0,0,0,0,0,0,0,0,0,-1,1196,1331,0,0
-21,-307,0,0,0,0,0,0,0,0,0,-1,1203,1331,0,0
-14,-307,0,0,0,0,0,0,0,0,0,-1,1210,1331,0,0
-7,-307,0,0,0,0,0,0,0,0,0,-1,1217,1331,0,0
0,-307,0,0,0,0,0,0,0,0,0,-1,1224,1331,0,0
7,-307,0,0,0,0,0,0,0,0,0,-1,1231,1331,0,0
14,-307,0,0,0,0,0,0,0,0,0,-1,1238,1331,0,0
21,-307,0,0,0,0,0,0,0,0,0,-1,1245,1331,0,0
28,-307,0,0,0,0,0,0,0,0,0,-1,1252,1331,0,0
35,-307,0,0,0,0,0,0,0,0,0,-1,1259,1331,0,0
42,-307,0,0,0,0,0,0,0,0,0,-1,1266,1331,0,0
49,-307,0,0,0,0,0,0,0,0,0,-1,1273,1331,0,0
56,-307,0,0,0,0,0,0,0,0,0,-1,1280,1331,0,0
63,-307,0,0,0,0,0,0,0,0,0,-1,1287,1331,0,0
70,-307,0,0,0,0,0,0,0,0,0,-1,1294,1331,0,0
77,-307,0,0,0,0,0,0,0,0,0,-1,1301,1331,0,0
84,-307,0,0,0,0,0,0,0,0,0,-1,1308,1331,0,0
91,-307,0,0,0,0,0,0,0,0,0,-1,1315,1331,0,0
98,-307,0,0,0,0,0,0,0,0,0,-1,1322,1331,0,0
105,-307,0,0,0,0,0,0,0,0,0,-1,1329,1331,0,0
112,-307,0,0,0,0,0,0,0,0,0,-1,1336,1331,0,0
119,-307,0,0,0,0,0,0,0,0,0,-1,1343,1331,0,0
126,-307,0,0,0,0,0,0,0,0,0,-1,1350,1331,0,0
133,-307,0,0,0,0,0,0,0,0,0,-1,1357,1331,0,0
140,-307,0,0,0,0,0,0,0,0,0,-1,1364,1331,0,0
147,-307,0,0,0,0,0,0,0,0,0,-1,1371,1331,0,0
154,-307,0,0,0,0,0,0,0,0,0,-1,1378,1331,0,0
161,-307,0,0,0,0,0,0,0,0,0,-1,1385,1331,0,0
168,-307,0,0,0,0,0,0,0,0,0,-1,1392,1331,0,0
175,-307,0,0,0,0,0,0,0,0,0,-1,1399,1331,0,0
182,-307,0,0,0,0,0,0,0,0,0,-1,1406,1331,0,0
189,-307,0,0,0,0,0,0,0,0,0,-1,1413,1331,0,0
196,-307,0,0,0,0,0,0,0,0,0,-1,1420,1331,0,0
203,-307,0,0,0,0,0,0,0,0,0,-1,1427,1331,0,0
210,-307,0,0,0,0,0,0,0,0,0,-1,1434,1331,0,0
217,-307,0,0,0,0,0,0,0,0,0,-1,1441,1331,0,0
224,-307,0,0,0,0,0,0,0,0,0,-1,1448,1331,0,0
231,-307,0,0,0,0,0,0,0,0,0,-1,1455,1331,0,0
238,-307,0,0,0,0,0,0,0,0,0,-1,1462,1331,0,0
245,-307,0,0,0,0,0,0,0,0,0,-1,1469,1331,0,0
252,-307,0,0,0,0,0,0,0,0,0,-1,1476,1331,0,0
259,-307,0,0,0,0,0,0,0,0,0,-1,1483,1331,0,0
266,-307,0,0,0,0,0,0,0,0,0,-1,1490,1331,0,0
273,-307,0,0,0,0,0,0,0,0,0,-1,1497,1331,0,0
280,-307,0,0,0,0,0,0,0,0,0,-1,1504,1331,0,0
287,-307,0,0,0,0,0,0,0,0,0,-1,1511,1331,0,0
294,-307,0,0,0,0,0,0,0,0,0,-1,1518,1331,0,0
301,-307,0,0,0,0,0,0,0,0,0,-1,1525,1331,0,0
308,-307,0,0,0,0,0,0,0,0,0,-1,1532,1331,0,0
315,-307,0,0,0,0,0,0,0,0,0,-1,1539,1331,0,0
322,-307,0,0,0,0,0,0,0,0,0,-1,1546,1331,0,0
329,-307,0,0,0,0,0,0,0,0,0,-1,1553,1331,0,0
336,-307,0,0,0,0,0,0,0,0,0,-1,1560,1331,0,0
343,-307,0,0,0,0,0,0,0,0,0,-1,1567,1331,0,0
350,-307,0,0,0,0,0,0,0,0,0,-1,1574,1331,0,0
357,-307,0,0,0,0,0,0,0,0,0,-1,1581,1331,0,0
364,-307,0,0,0,0,0,0,0,0,0,-1,1588,1331,0,0
371,-307,0,0,0,0,0,0,0,0,0,-1,1595,1331,0,0
378,-307,0,0,0,0,0,0,0,0,0,-1,1602,1331,0,0
385,-307,0,0,0,0,0,0,0,0,0,-1,1609,1331,0,0
392,-307,0,0,0,0,0,0,0,0,0,-1,1616,1331,0,0
399,-307,0,0,0,0,0,0,0,0,0,-1,1623,1331,0,0
406,-307,0,0,0,0,0,0,0,0,0,-1,1630,1331,0,0
413,-307,0,0,0,0,0,0,0,0,0,-1,1637,1331,0,0
420,-307,0,0,0,0,0,0,0,0,0,-1,1644,1331,0,0
427,-307,0,0,0,0,0,0,0,0,0,-1,1651,1331,0,0
434,-307,0,0,0,0,0,0,0,0,0,-1,1658,1331,0,0
441,-307,0,0,0,0,0,0,0,0,0,-1,1665,1331,0,0
448,-307,0,0,0,0,0,0,0,0,0,-1,1672,1331,0,0
455,-307,0,0,0,0,0,0,0,0,0,-1,1679,1331,0,0
462,-307,0,0,0,0,0,0,0,0,0,-1,1686,1331,0,0
469,-307,0,0,0,0,0,0,0,0,0,-1,1693,1331,0,0
476,-307,0,0,0,0,0,0,0,0,0,-1,1700,1331,0,0
483,-307,0,0,0,0,0,0,0,0,0,-1,1707,1331,0,0
490,-307,0,0,0,0,0,0,0,0,0,-1,1714,1331,0,0
497,-307,0,0,0,0,0,0,0,0,0,-1,1721,1331,0,0
504,-307,0,0,0,0,0,0,0,0,0,-1,1728,1331,0,0
511,-307,0,0,0,0,0,0,0,0,0,-1,1735,1331,0,0
518,-307,0,0,0,0,0,0,0,0,0,-1,1742,1331,0,0
525,-307,0,0,0,0,0,0,0,0,0,-1,1749,1331,0,0
532,-307,0,0,0,0,0,0,0,0,0,-1,1756,1331,0,0
539,-307,0,0,0,0,0,0,0,0,0,-1,1763,1331,0,0
546,-307,0,0,0,0,0,0,0,0,0,-1,1770,1331,0,0
553,-307,0,0,0,0,0,0,0,0,0,-1,1777,1331,0,0
560,-307,0,0,0,0,0,0,0,0,0,-1,1784,1331,0,0
567,-307,0,0,0,0,0,0,0,0,0,-1,1791,1331,0,0
574,-307,0,0,0,0,0,0,0,0,0,-1,1798,1331,0,0
581,-307,0,0,0,0,0,0,0,0,0,-1,1805,1331,0,0
588,-307,16.5323,3.36279,-0.0192356,-0.0121753,-0.0246635,0.00920948,-0.0406203,-0.856481,0.0306153,0.042412,1812,1331,16.5324,-3.36283
595,-307,16.0099,2.88916,-0.0211274,-0.00449685,-0.0224687,0.0111459,-0.0367702,-0.962624,0.0289529,0.0430647,1819,1331,16.0099,-2.88922
602,-307,15.5432,2.43909,-0.0210385,-0.00219578,-0.0175225,0.00827762,-0.0315119,-1.03206,0.0242429,0.0476547,1826,1331,15.5432,-2.43913
609,-307,15.002,2.16455,-0.0202703,-0.00110736,-0.0126563,0.00518529,-0.0265629,-1.1094,0.0196663,0.0475014,1833,1331,15.0019,-2.1646
616,-307,14.4497,2.01685,-0.0190342,-0.000572231,-0.00842382,0.00269365,-0.0223001,-1.20094,0.0158412,0.0471567,1840,1331,14.4497,-2.01679
623,-307,13.9386,1.84229,0,0,0,0,0,0,0,-1,1847,1331,13.9387,-1.84228
630,-307,13.0768,2.50403,0,0,0,0,0,0,0,-1,1854,1331,13.0768,-2.504
637,-307,12.832,3.13599,0,0,0,0,0,0,0,-1,1861,1331,12.832,-3.13602
644,-307,11.4896,4.48376,0,0,0,0,0,0,0,-1,1868,1331,11.4896,-4.48374
651,-307,12.5785,4.50366,0,0,0,0,0,0,0,-1,1875,1331,12.5785,-4.50362
658,-307,12.3481,4.53076,-0.00841828,0.00140613,0.00605174,0.00428836,-0.0113005,1.12632,0.0092988,0.0446759,1882,1331,12.3482,-4.5307
665,-307,12.1493,4.56104,-0.00688174,0.0011994,0.00596277,0.00436167,-0.010044,1.08318,0.00853008,0.0163099,1889,1331,12.1492,-4.56098
672,-307,12.1346,4.43726,-0.00526374,0.00069918,0.00511005,0.00363395,-0.00819851,1.04948,0.00699886,0.00927412,1896,1331,12.1346,-4.43723
679,-307,12.1311,4.29944,-0.00457096,0.00051608,0.00369537,0.00245868,-0.00651356,1.08681,0.00535356,0.00976588,1903,1331,12.1311,-4.29945
686,-307,12.1488,4.16492,-0.00339489,0.00101466,0.00242784,0.00208943,-0.00446967,1.15404,0.00386912,0.0101341,1910,1331,12.1488,-4.16488
693,-307,12.1583,4.03931,-0.0016074,0.00139686,0.00104815,0.0017264,-0.00193694,1.26618,0.00211619,0.012238,1917,1331,12.1584,-4.03933
700,-307,12.1543,3.88379,0.000552411,0.002445,-0.000715815,0.00268524,0.000312171,-1.24699,0.00169571,0.011531,1924,1331,12.1543,-3.8838
707,-307,12.153,3.71753,0.00319103,0.00367224,-0.00221968,0.00566431,0.00119895,-0.839386,0.00344678,0.0126166,1931,1331,12.1529,-3.71751
714,-307,12.1486,3.62878,0.00646939,0.00538714,-0.00421469,0.0101776,0.00167898,-0.721552,0.0063004,0.0120062,1938,1331,12.1486,-3.62877
721,-307,12.1696,3.50708,0.0106032,0.00735491,-0.00653378,0.0157117,0.00224644,-0.663579,0.00981173,0.0138003,1945,1331,12.1696,-3.50702
728,-307,12.1559,3.40015,0.0152112,0.00996062,-0.00941919,0.0223641,0.0028077,-0.649489,0.0140672,0.0166612,1952,1331,12.1559,-3.4002
735,-307,12.0908,3.22217,0.0210519,0.0130721,-0.0131093,0.0307651,0.00335897,-0.637675,0.0194871,0.0267288,1959,1331,12.0908,-3.22223
742,-307,12.501,3.03247,0.0281484,0.0165653,-0.0176581,0.0409404,0.00377325,-0.626936,0.0261269,0.0386777,1966,1331,12.5009,-3.03249
749,-307,12.9141,2.85999,0.0363978,0.0202264,-0.023027,0.0527175,0.00390671,-0.616553,0.0339178,0.044699,1973,1331,12.914,-2.86
756,-307,13.2063,2.59949,0,0,0,0,0,0,0,-1,1980,1331,13.2064,-2.59951
763,-307,13.2042,2.30054,0,0,0,0,0,0,0,-1,1987,1331,13.2042,-2.30051
770,-307,0,0,0,0,0,0,0,0,0,-1,1994,1331,0,0
777,-307,0,0,0,0,0,0,0,0,0,-1,2001,1331,0,0
784,-307,0,0,0,0,0,0,0,0,0,-1,2008,1331,0,0
791,-307,0,0,0,0,0,0,0,0,0,-1,2015,1331,0,0
798,-307,0,0,0,0,0,0,0,0,0,-1,2022,1331,0,0
805,-307,0,0,0,0,0,0,0,0,0,-1,2029,1331,0,0
812,-307,0,0,0,0,0,0,0,0,0,-1,2036,1331,0,0
-700,-314,0,0,0,0,0,0,0,0,0,-1,524,1338,0,0
-693,-314,0,0,0,0,0,0,0,0,0,-1,531,1338,0,0
-686,-314,0,0,0,0,0,0,0,0,0,-1,538,1338,0,0
-679,-314,0,0,0,0,0,0,0,0,0,-1,545,1338,0,0
-672,-314,0,0,0,0,0,0,0,0,0,-1,552,1338,0,0
-665,-314,0,0,0,0,0,0,0,0,0,-1,559,1338,0,0
-658,-314,0,0,0,0,0,0,0,0,0,-1,566,1338,0,0
-651,-314,0,0,0,0,0,0,0,0,0,-1,573,1338,0,0
-644,-314,-5.57776,-2.38147,0,0,0,0,0,0,0,-1,580,1338,-5.57777,2.3815
-637,-314,-5.71814,-1.86951,-0.0183147,-0.014895,0.0194577,0.00292782,-0.0361376,0.829223,0.0251246,0.0463532,587,1338,-5.71816,1.86946
-630,-314,-5.72644,-1.28198,-0.0107758,-0.00531733,0.0184956,0.0106493,-0.0267424,0.858651,0.0222446,0.0459491,594,1338,-5.72645,1.28197
-623,-314,-5.72113,-0.678711,-0.00552383,0.000287183,0.0166659,0.0142989,-0.0195356,0.8717,0.0196122,0.0489163,601,1338,-5.72112,0.678663
-616,-314,-5.61865,-0.0960693,-0.0020597,0.00319936,0.0144063,0.0152141,-0.0140745,0.875668,0.016914,0.0487357,608,1338,-5.61868,0.0961195
-609,-314,-5.54138,0.41272,-9.93442e-06,0.00433737,0.0119478,0.0143077,-0.00998023,0.875378,0.0140966,0.0463255,615,1338,-5.54135,-0.412736
-602,-314,-5.16248,0.891479,0.00123322,0.00490356,0.00969656,0.0129371,-0.00680031,0.878922,0.0115775,0.040118,622,1338,-5.16247,-0.891463
-595,-314,-5.21625,1.41675,0.00182966,0.00507676,0.00744559,0.0110738,-0.00416734,0.892745,0.00909561,0.0272437,629,1338,-5.21622,-1.41676
-588,-314,-5.27997,1.53784,0.00202096,0.00434491,0.0053847,0.00869157,-0.00232571,0.891665,0.00670544,0.0147222,636,1338,-5.27997,-1.53784
-581,-314,-5.26904,1.70581,0.00220425,0.00216459,0.00364254,0.00582702,-0.00145818,0.782676,0.00445108,0.0135322,643,1338,-5.26904,-1.70584
-574,-314,-5.29022,1.83972,0.00199935,0.000659382,0.0021362,0.00356817,-0.000909434,0.633439,0.00273284,0.01245,650,1338,-5.29021,-1.83972
-567,-314,-5.26776,2.01807,0.00156067,-0.00030774,0.000743579,0.00182047,-0.00056754,0.336133,0.00144059,0.0138157,657,1338,-5.26779,-2.01801
-560,-314,-5.2464,2.19312,0.0017713,-0.000947686,-0.00113722,0.00218423,-0.00136062,-0.348303,0.00206495,0.015808,664,1338,-5.24639,-2.1931
-553,-314,-5.27063,2.33118,0.00344901,-0.0012894,-0.00343394,0.00525174,-0.00309213,-0.483428,0.00487083,0.017348,671,1338,-5.27066,-2.3312
-546,-314,-5.25983,2.49573,0.00655543,-0.00204133,-0.00667648,0.0101975,-0.00568344,-0.499393,0.00929154,0.0164936,678,1338,-5.25985,-2.49574
-539,-314,-5.23267,2.67114,0.0100754,-0.00282545,-0.0103521,0.0158223,-0.0085723,-0.50678,0.01429,0.0151604,685,1338,-5.23268,-2.67114
-532,-314,-5.17157,2.85046,0.0142735,-0.00354422,-0.0150546,0.0228577,-0.0121285,-0.518225,0.0205134,0.0206333,692,1338,-5.17159,-2.85046
-525,-314,-5.34949,2.9491,0.0197512,-0.00401497,-0.0211022,0.0320861,-0.0163499,-0.528968,0.0284522,0.0367074,699,1338,-5.34952,-2.94911
-518,-314,-5.4129,2.91577,0.0265183,-0.00438644,-0.0285977,0.0435714,-0.0214395,-0.537702,0.0382522,0.0456721,706,1338,-5.41292,-2.91576
-511,-314,-6.08606,3.27783,0,0,0,0,0,0,0,-1,713,1338,-6.08605,-3.27784
-504,-314,-6.55859,0.286255,0,0,0,0,0,0,0,-1,720,1338,-6.55857,-0.286298
-497,-314,-5.54926,-0.472168,0,0,0,0,0,0,0,-1,727,1338,-5.54928,0.472229
-490,-314,-4.53998,-1.23071,0,0,0,0,0,0,0,-1,734,1338,-4.53998,1.23075
-483,-314,-6.63385,-0.366943,0,0,0,0,0,0,0,-1,741,1338,-6.63388,0.366941
-476,-314,-7.33563,0.339233,0,0,0,0,0,0,0,-1,748,1338,-7.33562,-0.339252
-469,-314,-8.005,0.434082,0,0,0,0,0,0,0,-1,755,1338,-8.00501,-0.434049
-462,-314,0,0,0,0,0,0,0,0,0,-1,762,1338,0,0
-455,-314,0,0,0,0,0,0,0,0,0,-1,769,1338,0,0
-448,-314,0,0,0,0,0,0,0,0,0,-1,776,1338,0,0
-441,-314,0,0,0,0,0,0,0,0,0,-1,783,1338,0,0
-434,-314,0,0,0,0,0,0,0,0,0,-1,790,1338,0,0
-427,-314,0,0,0,0,0,0,0,0,0,-1,797,1338,0,0
-420,-314,0,0,0,0,0,0,0,0,0,-1,804,1338,0,0
-413,-314,0,0,0,0,0,0,0,0,0,-1,811,1338,0,0
-406,-314,0,0,0,0,0,0,0,0,0,-1,818,1338,0,0
-399,-314,0,0,0,0,0,0,0,0,0,-1,825,1338,0,0
-392,-314,0,0,0,0,0,0,0,0,0,-1,832,1338,0,0
-385,-314,0,0,0,0,0,0,0,0,0,-1,839,1338,0,0
-378,-314,0,0,0,0,0,0,0,0,0,-1,846,1338,0,0
-371,-314,0,0,0,0,0,0,0,0,0,-1,853,1338,0,0
-364,-314,0,0,0,0,0,0,0,0,0,-1,860,1338,0,0
-357,-314,0,0,0,0,0,0,0,0,0,-1,867,1338,0,0
-350,-314,0,0,0,0,0,0,0,0,0,-1,874,1338,0,0
-343,-314,0,0,0,0,0,0,0,0,0,-1,881,1338,0,0
-336,-314,0,0,0,0,0,0,0,0,0,-1,888,1338,0,0
-329,-314,0,0,0,0,0,0,0,0,0,-1,895,1338,0,0
-322,-314,0,0,0,0,0,0,0,0,0,-1,902,1338,0,0
-315,-314,0,0,0,0,0,0,0,0,0,-1,909,1338,0,0
-308,-314,0,0,0,0,0,0,0,0,0,-1,916,1338,0,0
-301,-314,0,0,0,0,0,0,0,0,0,-1,923,1338,0,0
-294,-314,0,0,0,0,0,0,0,0,0,-1,930,1338,0,0
-287,-314,0,0,0,0,0,0,0,0,0,-1,937,1338,0,0
-280,-314,0,0,0,0,0,0,0,0,0,-1,944,1338,0,0
-273,-314,0,0,0,0,0,0,0,0,0,-1,951,1338,0,0
-266,-314,0,0,0,0,0,0,0,0,0,-1,958,1338,0,0
-259,-314,0,0,0,0,0,0,0,0,0,-1,965,1338,0,0
-252,-314,0,0,0,0,0,0,0,0,0,-1,972,1338,0,0
-245,-314,0,0,0,0,0,0,0,0,0,-1,979,1338,0,0
-238,-314,0,0,0,0,0,0,0,0,0,-1,986,1338,0,0
-231,-314,0,0,0,0,0,0,0,0,0,-1,993,1338,0,0
-224,-314,0,0,0,0,0,0,0,0,0,-1,1000,1338,0,0
-217,-314,0,0,0,0,0,0,0,0,0,-1,1007,1338,0,0
-210,-314,0,0,0,0,0,0,0,0,0,-1,1014,1338,0,0
-203,-314,0,0,0,0,0,0,0,0,0,-1,1021,1338,0,0
-196,-314,0,0,0,0,0,0,0,0,0,-1,1028,1338,0,0
-189,-314,0,0,0,0,0,0,0,0,0,-1,1035,1338,0,0
-182,-314,0,0,0,0,0,0,0,0,0,-1,1042,1338,0,0
-175,-314,0,0,0,0,0,0,0,0,0,-1,1049,1338,0,0
-168,-314,0,0,0,0,0,0,0,0,0,-1,1056,1338,0,0
-161,-314,0,0,0,0,0,0,0,0,0,-1,1063,1338,0,0
-154,-314,0,0,0,0,0,0,0,0,0,-1,1070,1338,0,0
-147,-314,0,0,0,0,0,0,0,0,0,-1,1077,1338,0,0
-140,-314,0,0,0,0,0,0,0,0,0,-1,1084,1338,0,0
-133,-314,0,0,0,0,0,0,0,0,0,-1,1091,1338,0,0
-126,-314,0,0,0,0,0,0,0,0,0,-1,1098,1338,0,0
-119,-314,0,0,0,0,0,0,0,0,0,-1,1105,1338,0,0
-112,-314,0,0,0,0,0,0,0,0,0,-1,1112,1338,0,0
-105,-314,0,0,0,0,0,0,0,0,0,-1,1119,1338,0,0
-98,-314,0,0,0,0,0,0,0,0,0,-1,1126,1338,0,0
-91,-314,0,0,0,0,0,0,0,0,0,-1,1133,1338,0,0
-84,-314,0,0,0,0,0,0,0,0,0,-1,1140,1338,0,0
-77,-314,0,0,0,0,0,0,0,0,0,-1,1147,1338,0,0
-70,-314,0,0,0,0,0,0,0,0,0,-1,1154,1338,0,0
-63,-314,0,0,0,0,0,0,0,0,0,-1,1161,1338,0,0
-56,-314,0,0,0,0,0,0,0,0,0,-1,1168,1338,0,0
-49,-314,0,0,0,0,0,0,0,0,0,-1,1175,1338,0,0
-42,-314,0,0,0,0,0,0,0,0,0,-1,1182,1338,0,0
-35,-314,0,0,0,0,0,0,0,0,0,-1,1189,1338,0,0
-28,-314,0,0,0,0,0,0,0,0,0,-1,1196,1338,0,0
-21,-314,0,0,0,0,0,0,0,0,0,-1,1203,1338,0,0
-14,-314,0,0,0,0,0,0,0,0,0,-1,1210,1338,0,0
-7,-314,0,0,0,0,0,0,0,0,0,-1,1217,1338,0,0
0,-314,0,0,0,0,0,0,0,0,0,-1,1224,1338,0,0
7,-314,0,0,0,0,0,0,0,0,0,-1,1231,1338,0,0
14,-314,0,0,0,0,0,0,0,0,0,-1,1238,1338,0,0
21,-314,0,0,0,0,0,0,0,0,0,-1,1245,1338,0,0
28,-314,0,0,0,0,0,0,0,0,0,-1,1252,1338,0,0
35,-314,0,0,0,0,0,0,0,0,0,-1,1259,1338,0,0
42,-314,0,0,0,0,0,0,0,0,0,-1,1266,1338,0,0
49,-314,0,0,0,0,0,0,0,0,0,-1,1273,1338,0,0
56,-314,0,0,0,0,0,0,0,0,0,-1,1280,1338,0,0
63,-314,0,0,0,0,0,0,0,0,0,-1,1287,1338,0,0
70,-314,0,0,0,0,0,0,0,0,0,-1,1294,1338,0,0
77,-314,0,0,0,0,0,0,0,0,0,-1,1301,1338,0,0
84,-314,0,0,0,0,0,0,0,0,0,-1,1308,1338,0,0
91,-314,0,0,0,0,0,0,0,0,0,-1,1315,1338,0,0
98,-314,0,0,0,0,0,0,0,0,0,-1,1322,1338,0,0
105,-314,0,0,0,0,0,0,0,0,0,-1,1329,1338,0,0
112,-314,0,0,0,0,0,0,0,0,0,-1,1336,1338,0,0
119,-314,0,0,0,0,0,0,0,0,0,-1,1343,1338,0,0
126,-314,0,0,0,0,0,0,0,0,0,-1,1350,1338,0,0
133,-314,0,0,0,0,0,0,0,0,0,-1,1357,1338,0,0
140,-314,0,0,0,0,0,0,0,0,0,-1,1364,1338,0,0
147,-314,0,0,0,0,0,0,0,0,0,-1,1371,1338,0,0
154,-314,0,0,0,0,0,0,0,0,0,-1,1378,1338,0,0
161,-314,0,0,0,0,0,0,0,0,0,-1,1385,1338,0,0
168,-314,0,0,0,0,0,0,0,0,0,-1,1392,1338,0,0
175,-314,0,0,0,0,0,0,0,0,0,-1,1399,1338,0,0
182,-314,0,0,0,0,0,0,0,0,0,-1,1406,1338,0,0
189,-314,0,0,0,0,0,0,0,0,0,-1,1413,1338,0,0
196,-314,0,0,0,0,0,0,0,0,0,-1,1420,1338,0,0
203,-314,0,0,0,0,0,0,0,0,0,-1,1427,1338,0,0
210,-314,0,0,0,0,0,0,0,0,0,-1,1434,1338,0,0
217,-314,0,0,0,0,0,0,0,0,0,-1,1441,1338,0,0
224,-314,0,0,0,0,0,0,0,0,0,-1,1448,1338,0,0
231,-314,0,0,0,0,0,0,0,0,0,-1,1455,1338,0,0
238,-314,0,0,0,0,0,0,0,0,0,-1,1462,1338,0,0
245,-314,0,0,0,0,0,0,0,0,0,-1,1469,1338,0,0
252,-314,0,0,0,0,0,0,0,0,0,-1,1476,1338,0,0
259,-314,0,0,0,0,0,0,0,0,0,-1,1483,1338,0,0
266,-314,0,0,0,0,0,0,0,0,0,-1,1490,1338,0,0
273,-314,0,0,0,0,0,0,0,0,0,-1,1497,1338,0,0
280,-314,0,0,0,0,0,0,0,0,0,-1,1504,1338,0,0
287,-314,0,0,0,0,0,0,0,0,0,-1,1511,1338,0,0
294,-314,0,0,0,0,0,0,0,0,0,-1,1518,1338,0,0
301,-314,0,0,0,0,0,0,0,0,0,-1,1525,1338,0,0
308,-314,0,0,0,0,0,0,0,0,0,-1,1532,1338,0,0
315,-314,0,0,0,0,0,0,0,0,0,-1,1539,1338,0,0
322,-314,0,0,0,0,0,0,0,0,0,-1,1546,1338,0,0
329,-314,0,0,0,0,0,0,0,0,0,-1,1553,1338,0,0
336,-314,0,0,0,0,0,0,0,0,0,-1,1560,1338,0,0
343,-314,0,0,0,0,0,0,0,0,0,-1,1567,1338,0,0
350,-314,0,0,0,0,0,0,0,0,0,-1,1574,1338,0,0
357,-314,0,0,0,0,0,0,0,0,0,-1,1581,1338,0,0
364,-314,0,0,0,0,0,0,0,0,0,-1,1588,1338,0,0
371,-314,0,0,0,0,0,0,0,0,0,-1,1595,1338,0,0
378,-314,0,0,0,0,0,0,0,0,0,-1,1602,1338,0,0
385,-314,0,0,0,0,0,0,0,0,0,-1,1609,1338,0,0
392,-314,0,0,0,0,0,0,0,0,0,-1,1616,1338,0,0
399,-314,0,0,0,0,0,0,0,0,0,-1,1623,1338,0,0
406,-314,0,0,0,0,0,0,0,0,0,-1,1630,1338,0,0
413,-314,0,0,0,0,0,0,0,0,0,-1,1637,1338,0,0
420,-314,0,0,0,0,0,0,0,0,0,-1,1644,1338,0,0
427,-314,0,0,0,0,0,0,0,0,0,-1,1651,1338,0,0
434,-314,0,0,0,0,0,0,0,0,0,-1,1658,1338,0,0
441,-314,0,0,0,0,0,0,0,0,0,-1,1665,1338,0,0
448,-314,0,0,0,0,0,0,0,0,0,-1,1672,1338,0,0
455,-314,0,0,0,0,0,0,0,0,0,-1,1679,1338,0,0
462,-314,0,0,0,0,0,0,0,0,0,-1,1686,1338,0,0
469,-314,0,0,0,0,0,0,0,0,0,-1,1693,1338,0,0
476,-314,0,0,0,0,0,0,0,0,0,-1,1700,1338,0,0
483,-314,0,0,0,0,0,0,0,0,0,-1,1707,1338,0,0
490,-314,0,0,0,0,0,0,0,0,0,-1,1714,1338,0,0
497,-314,0,0,0,0,0,0,0,0,0,-1,1721,1338,0,0
504,-314,0,0,0,0,0,0,0,0,0,-1,1728,1338,0,0
511,-314,0,0,0,0,0,0,0,0,0,-1,1735,1338,0,0
518,-314,0,0,0,0,0,0,0,0,0,-1,1742,1338,0,0
525,-314,0,0,0,0,0,0,0,0,0,-1,1749,1338,0,0
532,-314,0,0,0,0,0,0,0,0,0,-1,1756,1338,0,0
539,-314,0,0,0,0,0,0,0,0,0,-1,1763,1338,0,0
546,-314,0,0,0,0,0,0,0,0,0,-1,1770,1338,0,0
553,-314,0,0,0,0,0,0,0,0,0,-1,1777,1338,0,0
560,-314,0,0,0,0,0,0,0,0,0,-1,1784,1338,0,0
567,-314,0,0,0,0,0,0,0,0,0,-1,1791,1338,0,0
574,-314,0,0,0,0,0,0,0,0,0,-1,1798,1338,0,0
581,-314,16.7589,3.96362,-0.0152587,-0.0152343,-0.0219727,0.00672623,-0.0372192,-0.785676,0.0273322,0.0469835,1805,1338,16.7589,-3.96357
588,-314,16.391,3.60388,-0.018472,-0.00423076,-0.0233961,0.0131044,-0.0358071,-0.93312,0.0292355,0.0444956,1812,1338,16.391,-3.60382
595,-314,15.9225,3.04895,-0.0205021,-0.000952414,-0.0203819,0.0118773,-0.0333319,-1.00899,0.0270635,0.0461751,1819,1338,15.9225,-3.04899
602,-314,15.5848,2.49292,-0.0209218,-0.000761307,-0.0157512,0.00785907,-0.0295421,-1.07004,0.0227711,0.045103,1826,1338,15.5849,-2.49289
609,-314,15.2942,1.99707,-0.0205164,-0.000707826,-0.011395,0.00448559,-0.0257098,-1.14316,0.0188142,0.042742,1833,1338,15.2942,-1.99711
616,-314,14.7333,1.95398,-0.0195443,-0.00101575,-0.00768452,0.00175653,-0.0223166,-1.22457,0.0154965,0.0444303,1840,1338,14.7333,-1.95395
623,-314,14.6473,1.79651,0,0,0,0,0,0,0,-1,1847,1338,14.6473,-1.79647
630,-314,13.1016,2.36304,0,0,0,0,0,0,0,-1,1854,1338,13.1015,-2.36301
637,-314,11.5044,4.45105,0,0,0,0,0,0,0,-1,1861,1338,11.5045,-4.45102
644,-314,11.8184,4.31238,-0.0136459,-0.00182268,0.00406716,-0.000558711,-0.0149098,1.26948,0.00975898,0.0451214,1868,1338,11.8184,-4.31232
651,-314,11.9496,4.46997,0,0,0,0,0,0,0,-1,1875,1338,11.9496,-4.46996
658,-314,12.1376,4.5387,-0.00900534,-0.00050649,0.0064499,0.002968,-0.0124798,1.07668,0.00946562,0.0344779,1882,1338,12.1375,-4.5387
665,-314,12.0005,4.58496,-0.00707771,-0.000544062,0.00613852,0.00314279,-0.0107646,1.02993,0.00842176,0.0145976,1889,1338,12.0004,-4.585
672,-314,12.0209,4.44592,-0.00514868,-0.000704038,0.00501811,0.00256182,-0.00841454,0.993849,0.0066307,0.0119874,1896,1338,12.0209,-4.44592
679,-314,12.0031,4.29785,-0.00419039,-0.000389181,0.00350672,0.00169888,-0.00627845,1.03373,0.0048521,0.00973782,1903,1338,12.003,-4.29781
686,-314,12.0114,4.14233,-0.00289931,0.000541882,0.00211052,0.00154429,-0.00390172,1.12738,0.00324097,0.0120657,1910,1338,12.0113,-4.14237
693,-314,12.0275,4.02258,-0.00107523,0.00139597,0.000663537,0.00156286,-0.00124213,1.32439,0.00162299,0.0119516,1917,1338,12.0274,-4.02259
700,-314,12.0137,3.88794,0.00108489,0.00267789,-0.00108987,0.00323129,0.000531489,-1.10095,0.0020007,0.0111944,1924,1338,12.0137,-3.88797
707,-314,12.0146,3.73193,0.00361727,0.00426455,-0.00269276,0.00665305,0.00122877,-0.845206,0.00408781,0.0115332,1931,1338,12.0147,-3.73195
714,-314,12.0023,3.62537,0.00684268,0.00635632,-0.00486604,0.0114716,0.00172739,-0.760432,0.00714192,0.0105829,1938,1338,12.0023,-3.6254
721,-314,12.0131,3.51392,0.0109878,0.00870412,-0.00741042,0.0173438,0.00234808,-0.708957,0.0108648,0.0145807,1945,1338,12.013,-3.51395
728,-314,11.9442,3.39734,0.0158685,0.011865,-0.0106791,0.0247318,0.00300161,-0.692752,0.015584,0.0245961,1952,1338,11.9443,-3.3973
735,-314,11.947,3.20752,0.0220254,0.0156236,-0.0148512,0.0340168,0.00363229,-0.679256,0.0215693,0.0395097,1959,1338,11.9471,-3.20747
742,-314,12.5507,2.89197,0.029489,0.0198972,-0.019984,0.0452445,0.00414165,-0.667631,0.0288816,0.0479893,1966,1338,12.5507,-2.892
749,-314,13.5221,2.3468,0.0380842,0.0244458,-0.0260147,0.0581586,0.00437145,-0.657217,0.0374005,0.0456294,1973,1338,13.5221,-2.34681
756,-314,13.5822,2.00476,0.0475782,0.0289354,-0.0327851,0.0723413,0.00417231,-0.646894,0.0468987,0.0418474,1980,1338,13.5821,-2.00471
763,-314,13.6377,1.96655,0.057544,0.032862,-0.0399951,0.0870588,0.00334713,-0.635751,0.0569563,0.0458912,1987,1338,13.6377,-1.9665
770,-314,0,0,0,0,0,0,0,0,0,-1,1994,1338,0,0
777,-314,0,0,0,0,0,0,0,0,0,-1,2001,1338,0,0
784,-314,0,0,0,0,0,0,0,0,0,-1,2008,1338,0,0
791,-314,0,0,0,0,0,0,0,0,0,-1,2015,1338,0,0
798,-314,0,0,0,0,0,0,0,0,0,-1,2022,1338,0,0
805,-314,0,0,0,0,0,0,0,0,0,-1,2029,1338,0,0
812,-314,0,0,0,0,0,0,0,0,0,-1,2036,1338,0,0
-700,-321,0,0,0,0,0,0,0,0,0,-1,524,1345,0,0
-693,-321,0,0,0,0,0,0,0,0,0,-1,531,1345,0,0
-686,-321,0,0,0,0,0,0,0,0,0,-1,538,1345,0,0
-679,-321,0,0,0,0,0,0,0,0,0,-1,545,1345,0,0
-672,-321,0,0,0,0,0,0,0,0,0,-1,552,1345,0,0
-665,-321,0,0,0,0,0,0,0,0,0,-1,559,1345,0,0
-658,-321,0,0,0,0,0,0,0,0,0,-1,566,1345,0,0
-651,-321,0,0,0,0,0,0,0,0,0,-1,573,1345,0,0
-644,-321,-5.42346,-2.52625,0,0,0,0,0,0,0,-1,580,1345,-5.42349,2.52627
-637,-321,-5.44897,-1.90857,-0.0174526,-0.0150345,0.022714,0.00650263,-0.0389897,0.811989,0.0284099,0.047279,587,1345,-5.449,1.90861
-630,-321,-5.54993,-1.30066,-0.00983834,-0.00557448,0.02148,0.0138791,-0.0292919,0.834862,0.0254488,0.0477229,594,1345,-5.54995,1.30061
-623,-321,-5.63721,-0.54248,-0.00462992,7.49854e-05,0.0192835,0.017149,-0.021704,0.846095,0.0224831,0.0474266,601,1345,-5.63724,0.542501
-616,-321,-5.51227,-0.198364,0,0,0,0,0,0,0,-1,608,1345,-5.51225,0.198414
-609,-321,-4.71429,1.90381,0.000713963,0.00447995,0.0137491,0.0164744,-0.0112805,0.853452,0.0161176,0.0488824,615,1345,-4.71426,-1.90382
-602,-321,-4.8692,1.76794,0.00181287,0.00510752,0.0110854,0.0146673,-0.00774693,0.85916,0.0131449,0.0448533,622,1345,-4.86917,-1.76789
-595,-321,-5.01764,1.578,0.00223654,0.00530481,0.00846602,0.0123746,-0.00483322,0.875031,0.010248,0.0433321,629,1345,-5.01761,-1.57796
-588,-321,-5.13739,1.50842,0.00222523,0.00464959,0.00612407,0.0096803,-0.00280548,0.883104,0.00756415,0.0162654,636,1345,-5.13741,-1.50839
-581,-321,-5.12238,1.69006,0.00223527,0.00271158,0.00416904,0.00664927,-0.00170241,0.81393,0.005096,0.0131154,643,1345,-5.12239,-1.69012
-574,-321,-5.13037,1.83582,0.0018916,0.00133725,0.00249287,0.00412266,-0.000893811,0.730032,0.00308978,0.0149778,650,1345,-5.13036,-1.83583
-567,-321,-5.11078,2.02881,0.00134474,0.000379082,0.00102248,0.00199266,-0.000268838,0.564812,0.00142652,0.0199677,657,1345,-5.11079,-2.02882
-560,-321,-5.11029,2.20483,0.00124783,-0.000400673,-0.000675821,0.00148947,-0.000642313,-0.343385,0.00126277,0.0253408,664,1345,-5.11031,-2.20478
-553,-321,-5.13739,2.31226,0.00231602,-0.000828483,-0.00256478,0.0037521,-0.00226456,-0.51043,0.00350893,0.027038,671,1345,-5.13737,-2.3123
-546,-321,-5.11743,2.44727,0.00461378,-0.00178668,-0.00530931,0.00761276,-0.00478566,-0.514175,0.00721999,0.0242822,678,1345,-5.11746,-2.44725
-539,-321,-5.06378,2.64478,0.00719746,-0.00290996,-0.00838569,0.0119345,-0.00764705,-0.514212,0.0113954,0.0214865,685,1345,-5.06378,-2.64483
-532,-321,-5.04431,2.84009,0.0102452,-0.00401619,-0.0123485,0.017374,-0.011145,-0.52356,0.0165958,0.0155688,692,1345,-5.04431,-2.84004
-525,-321,-5.05829,3.05884,0.0143766,-0.00501335,-0.0175119,0.0246981,-0.0153348,-0.532587,0.0233228,0.0266807,699,1345,-5.05829,-3.05878
-518,-321,-5.21936,3.14502,0.0196582,-0.0060994,-0.0240607,0.0340701,-0.0205112,-0.539668,0.031835,0.0430147,706,1345,-5.21933,-3.14506
-511,-321,-5.68335,3.23608,0.0261647,-0.00739524,-0.0320474,0.0455594,-0.0267899,-0.544224,0.0422368,0.0441693,713,1345,-5.68336,-3.23613
-504,-321,-6.12885,3.41187,0,0,0,0,0,0,0,-1,720,1345,-6.12887,-3.41181
-497,-321,-5.02814,-0.774536,0,0,0,0,0,0,0,-1,727,1345,-5.02815,0.774507
-490,-321,-3.84106,-2.24878,0,0,0,0,0,0,0,-1,734,1345,-3.84105,2.24884
-483,-321,-2.88306,-3.52649,0,0,0,0,0,0,0,-1,741,1345,-2.88303,3.52647
-476,-321,-7.10638,0.586792,0,0,0,0,0,0,0,-1,748,1345,-7.10635,-0.586751
-469,-321,-8.08673,0.241943,0,0,0,0,0,0,0,-1,755,1345,-8.08676,-0.241898
-462,-321,-9.01111,0.00646973,0,0,0,0,0,0,0,-1,762,1345,-9.0111,-0.00641196
-455,-321,0,0,0,0,0,0,0,0,0,-1,769,1345,0,0
-448,-321,0,0,0,0,0,0,0,0,0,-1,776,1345,0,0
-441,-321,0,0,0,0,0,0,0,0,0,-1,783,1345,0,0
-434,-321,0,0,0,0,0,0,0,0,0,-1,790,1345,0,0
-427,-321,0,0,0,0,0,0,0,0,0,-1,797,1345,0,0
-420,-321,0,0,0,0,0,0,0,0,0,-1,804,1345,0,0
-413,-321,0,0,0,0,0,0,0,0,0,-1,811,1345,0,0
-406,-321,0,0,0,0,0,0,0,0,0,-1,818,1345,0,0
-399,-321,0,0,0,0,0,0,0,0,0,-1,825,1345,0,0
-392,-321,0,0,0,0,0,0,0,0,0,-1,832,1345,0,0
-385,-321,0,0,0,0,0,0,0,0,0,-1,839,1345,0,0
-378,-321,0,0,0,0,0,0,0,0,0,-1,846,1345,0,0
-371,-321,0,0,0,0,0,0,0,0,0,-1,853,1345,0,0
-364,-321,0,0,0,0,0,0,0,0,0,-1,860,1345,0,0
-357,-321,0,0,0,0,0,0,0,0,0,-1,867,1345,0,0
-350,-321,0,0,0,0,0,0,0,0,0,-1,874,1345,0,0
-343,-321,0,0,0,0,0,0,0,0,0,-1,881,1345,0,0
-336,-321,0,0,0,0,0,0,0,0,0,-1,888,1345,0,0
-329,-321,0,0,0,0,0,0,0,0,0,-1,895,1345,0,0
-322,-321,0,0,0,0,0,0,0,0,0,-1,902,1345,0,0
-315,-321,0,0,0,0,0,0,0,0,0,-1,909,1345,0,0
-308,-321,0,0,0,0,0,0,0,0,0,-1,916,1345,0,0
-301,-321,0,0,0,0,0,0,0,0,0,-1,923,1345,0,0
-294,-321,0,0,0,0,0,0,0,0,0,-1,930,1345,0,0
-287,-321,0,0,0,0,0,0,0,0,0,-1,937,1345,0,0
-280,-321,0,0,0,0,0,0,0,0,0,-1,944,1345,0,0
-273,-321,0,0,0,0,0,0,0,0,0,-1,951,1345,0,0
-266,-321,0,0,0,0,0,0,0,0,0,-1,958,1345,0,0
-259,-321,0,0,0,0,0,0,0,0,0,-1,965,1345,0,0
-252,-321,0,0,0,0,0,0,0,0,0,-1,972,1345,0,0
-245,-321,0,0,0,0,0,0,0,0,0,-1,979,1345,0,0
-238,-321,0,0,0,0,0,0,0,0,0,-1,986,1345,0,0
-231,-321,0,0,0,0,0,0,0,0,0,-1,993,1345,0,0
-224,-321,0,0,0,0,0,0,0,0,0,-1,1000,1345,0,0
-217,-321,0,0,0,0,0,0,0,0,0,-1,1007,1345,0,0
-210,-321,0,0,0,0,0,0,0,0,0,-1,1014,1345,0,0
-203,-321,0,0,0,0,0,0,0,0,0,-1,1021,1345,0,0
-196,-321,0,0,0,0,0,0,0,0,0,-1,1028,1345,0,0
-189,-321,0,0,0,0,0,0,0,0,0,-1,1035,1345,0,0
-182,-321,0,0,0,0,0,0,0,0,0,-1,1042,1345,0,0
-175,-321,0,0,0,0,0,0,0,0,0,-1,1049,1345,0,0
-168,-321,0,0,0,0,0,0,0,0,0,-1,1056,1345,0,0
-161,-321,0,0,0,0,0,0,0,0,0,-1,1063,1345,0,0
-154,-321,0,0,0,0,0,0,0,0,0,-1,1070,1345,0,0
-147,-321,0,0,0,0,0,0,0,0,0,-1,1077,1345,0,0
-140,-321,0,0,0,0,0,0,0,0,0,-1,1084,1345,0,0
-133,-321,0,0,0,0,0,0,0,0,0,-1,1091,1345,0,0
-126,-321,0,0,0,0,0,0,0,0,0,-1,1098,1345,0,0
-119,-321,0,0,0,0,0,0,0,0,0,-1,1105,1345,0,0
-112,-321,0,0,0,0,0,0,0,0,0,-1,1112,1345,0,0
-105,-321,0,0,0,0,0,0,0,0,0,-1,1119,1345,0,0
-98,-321,0,0,0,0,0,0,0,0,0,-1,1126,1345,0,0
-91,-321,0,0,0,0,0,0,0,0,0,-1,1133,1345,0,0
-84,-321,0,0,0,0,0,0,0,0,0,-1,1140,1345,0,0
-77,-321,0,0,0,0,0,0,0,0,0,-1,1147,1345,0,0
-70,-321,0,0,0,0,0,0,0,0,0,-1,1154,1345,0,0
-63,-321,0,0,0,0,0,0,0,0,0,-1,1161,1345,0,0
-56,-321,0,0,0,0,0,0,0,0,0,-1,1168,1345,0,0
-49,-321,0,0,0,0,0,0,0,0,0,-1,1175,1345,0,0
-42,-321,0,0,0,0,0,0,0,0,0,-1,1182,1345,0,0
-35,-321,0,0,0,0,0,0,0,0,0,-1,1189,1345,0,0
-28,-321,0,0,0,0,0,0,0,0,0,-1,1196,1345,0,0
-21,-321,0,0,0,0,0,0,0,0,0,-1,1203,1345,0,0
-14,-321,0,0,0,0,0,0,0,0,0,-1,1210,1345,0,0
-7,-321,0,0,0,0,0,0,0,0,0,-1,1217,1345,0,0
0,-321,0,0,0,0,0,0,0,0,0,-1,1224,1345,0,0
7,-321,0,0,0,0,0,0,0,0,0,-1,1231,1345,0,0
14,-321,0,0,0,0,0,0,0,0,0,-1,1238,1345,0,0
21,-321,0,0,0,0,0,0,0,0,0,-1,1245,1345,0,0
28,-321,0,0,0,0,0,0,0,0,0,-1,1252,1345,0,0
35,-321,0,0,0,0,0,0,0,0,0,-1,1259,1345,0,0
42,-321,0,0,0,0,0,0,0,0,0,-1,1266,1345,0,0
49,-321,0,0,0,0,0,0,0,0,0,-1,1273,1345,0,0
56,-321,0,0,0,0,0,0,0,0,0,-1,1280,1345,0,0
63,-321,0,0,0,0,0,0,0,0,0,-1,1287,1345,0,0
70,-321,0,0,0,0,0,0,0,0,0,-1,1294,1345,0,0
77,-321,0,0,0,0,0,0,0,0,0,-1,1301,1345,0,0
84,-321,0,0,0,0,0,0,0,0,0,-1,1308,1345,0,0
91,-321,0,0,0,0,0,0,0,0,0,-1,1315,1345,0,0
98,-321,0,0,0,0,0,0,0,0,0,-1,1322,1345,0,0
105,-321,0,0,0,0,0,0,0,0,0,-1,1329,1345,0,0
112,-321,0,0,0,0,0,0,0,0,0,-1,1336,1345,0,0
119,-321,0,0,0,0,0,0,0,0,0,-1,1343,1345,0,0
126,-321,0,0,0,0,0,0,0,0,0,-1,1350,1345,0,0
133,-321,0,0,0,0,0,0,0,0,0,-1,1357,1345,0,0
140,-321,0,0,0,0,0,0,0,0,0,-1,1364,1345,0,0
147,-321,0,0,0,0,0,0,0,0,0,-1,1371,1345,0,0
154,-321,0,0,0,0,0,0,0,0,0,-1,1378,1345,0,0
161,-321,0,0,0,0,0,0,0,0,0,-1,1385,1345,0,0
168,-321,0,0,0,0,0,0,0,0,0,-1,1392,1345,0,0
175,-321,0,0,0,0,0,0,0,0,0,-1,1399,1345,0,0
182,-321,0,0,0,0,0,0,0,0,0,-1,1406,1345,0,0
189,-321,0,0,0,0,0,0,0,0,0,-1,1413,1345,0,0
196,-321,0,0,0,0,0,0,0,0,0,-1,1420,1345,0,0
203,-321,0,0,0,0,0,0,0,0,0,-1,1427,1345,0,0
210,-321,0,0,0,0,0,0,0,0,0,-1,1434,1345,0,0
217,-321,0,0,0,0,0,0,0,0,0,-1,1441,1345,0,0
224,-321,0,0,0,0,0,0,0,0,0,-1,1448,1345,0,0
231,-321,0,0,0,0,0,0,0,0,0,-1,1455,1345,0,0
238,-321,0,0,0,0,0,0,0,0,0,-1,1462,1345,0,0
245,-321,0,0,0,0,0,0,0,0,0,-1,1469,1345,0,0
252,-321,0,0,0,0,0,0,0,0,0,-1,1476,1345,0,0
259,-321,0,0,0,0,0,0,0,0,0,-1,1483,1345,0,0
266,-321,0,0,0,0,0,0,0,0,0,-1,1490,1345,0,0
273,-321,0,0,0,0,0,0,0,0,0,-1,1497,1345,0,0
280,-321,0,0,0,0,0,0,0,0,0,-1,1504,1345,0,0
287,-321,0,0,0,0,0,0,0,0,0,-1,1511,1345,0,0
294,-321,0,0,0,0,0,0,0,0,0,-1,1518,1345,0,0
301,-321,0,0,0,0,0,0,0,0,0,-1,1525,1345,0,0
308,-321,0,0,0,0,0,0,0,0,0,-1,1532,1345,0,0
315,-321,0,0,0,0,0,0,0,0,0,-1,1539,1345,0,0
322,-321,0,0,0,0,0,0,0,0,0,-1,1546,1345,0,0
329,-321,0,0,0,0,0,0,0,0,0,-1,1553,1345,0,0
336,-321,0,0,0,0,0,0,0,0,0,-1,1560,1345,0,0
343,-321,0,0,0,0,0,0,0,0,0,-1,1567,1345,0,0
350,-321,0,0,0,0,0,0,0,0,0,-1,1574,1345,0,0
357,-321,0,0,0,0,0,0,0,0,0,-1,1581,1345,0,0
364,-321,0,0,0,0,0,0,0,0,0,-1,1588,1345,0,0
371,-321,0,0,0,0,0,0,0,0,0,-1,1595,1345,0,0
378,-321,0,0,0,0,0,0,0,0,0,-1,1602,1345,0,0
385,-321,0,0,0,0,0,0,0,0,0,-1,1609,1345,0,0
392,-321,0,0,0,0,0,0,0,0,0,-1,1616,1345,0,0
399,-321,0,0,0,0,0,0,0,0,0,-1,1623,1345,0,0
406,-321,0,0,0,0,0,0,0,0,0,-1,1630,1345,0,0
413,-321,0,0,0,0,0,0,0,0,0,-1,1637,1345,0,0
420,-321,0,0,0,0,0,0,0,0,0,-1,1644,1345,0,0
427,-321,0,0,0,0,0,0,0,0,0,-1,1651,1345,0,0
434,-321,0,0,0,0,0,0,0,0,0,-1,1658,1345,0,0
441,-321,0,0,0,0,0,0,0,0,0,-1,1665,1345,0,0
448,-321,0,0,0,0,0,0,0,0,0,-1,1672,1345,0,0
455,-321,0,0,0,0,0,0,0,0,0,-1,1679,1345,0,0
462,-321,0,0,0,0,0,0,0,0,0,-1,1686,1345,0,0
469,-321,0,0,0,0,0,0,0,0,0,-1,1693,1345,0,0
476,-321,0,0,0,0,0,0,0,0,0,-1,1700,1345,0,0
483,-321,0,0,0,0,0,0,0,0,0,-1,1707,1345,0,0
490,-321,0,0,0,0,0,0,0,0,0,-1,1714,1345,0,0
497,-321,0,0,0,0,0,0,0,0,0,-1,1721,1345,0,0
504,-321,0,0,0,0,0,0,0,0,0,-1,1728,1345,0,0
511,-321,0,0,0,0,0,0,0,0,0,-1,1735,1345,0,0
518,-321,0,0,0,0,0,0,0,0,0,-1,1742,1345,0,0
525,-321,0,0,0,0,0,0,0,0,0,-1,1749,1345,0,0
532,-321,0,0,0,0,0,0,0,0,0,-1,1756,1345,0,0
539,-321,0,0,0,0,0,0,0,0,0,-1,1763,1345,0,0
546,-321,0,0,0,0,0,0,0,0,0,-1,1770,1345,0,0
553,-321,0,0,0,0,0,0,0,0,0,-1,1777,1345,0,0
560,-321,0,0,0,0,0,0,0,0,0,-1,1784,1345,0,0
567,-321,0,0,0,0,0,0,0,0,0,-1,1791,1345,0,0
574,-321,0,0,0,0,0,0,0,0,0,-1,1798,1345,0,0
581,-321,15.9602,6.74133,0,0,0,0,0,0,0,-1,1805,1345,15.9602,-6.74136
588,-321,16.2174,3.81177,0,0,0,0,0,0,0,-1,1812,1345,16.2174,-3.81179
595,-321,15.6963,2.9679,0,0,0,0,0,0,0,-1,1819,1345,15.6963,-2.96792
602,-321,15.2289,2.44263,0,0,0,0,0,0,0,-1,1826,1345,15.2289,-2.44263
609,-321,14.5404,1.46887,0,0,0,0,0,0,0,-1,1833,1345,14.5404,-1.46888
616,-321,14.548,1.61865,0,0,0,0,0,0,0,-1,1840,1345,14.548,-1.61868
623,-321,14.5557,1.76843,0,0,0,0,0,0,0,-1,1847,1345,14.5556,-1.76847
630,-321,12.9152,2.15674,0,0,0,0,0,0,0,-1,1854,1345,12.9152,-2.15673
637,-321,12.063,3.91992,0,0,0,0,0,0,0,-1,1861,1345,12.0629,-3.91994
644,-321,12.0461,4.11914,0,0,0,0,0,0,0,-1,1868,1345,12.0462,-4.11912
651,-321,12.0461,4.72583,0,0,0,0,0,0,0,-1,1875,1345,12.0461,-4.72588
658,-321,11.9063,4.67944,-0.00911422,-0.00214961,0.006652,0.00187645,-0.0131403,1.02653,0.00944799,0.0259781,1882,1345,11.9062,-4.6794
665,-321,11.844,4.61218,-0.00688413,-0.00192422,0.0060585,0.00214224,-0.0109506,0.979662,0.00810935,0.0149379,1889,1345,11.844,-4.6122
672,-321,11.8732,4.45142,-0.00478782,-0.00171936,0.00472751,0.00171664,-0.00822383,0.942302,0.00613534,0.0126521,1896,1345,11.8732,-4.45147
679,-321,11.8551,4.3009,-0.00363172,-0.001006,0.00319915,0.00113919,-0.00577692,0.980108,0.00428183,0.0115042,1903,1345,11.855,-4.30088
686,-321,11.8568,4.16248,-0.00228211,0.000230654,0.00175103,0.0011294,-0.00318086,1.09659,0.00258077,0.0112296,1910,1345,11.8568,-4.16249
693,-321,11.8798,4.0387,-0.000469777,0.0014127,0.000300753,0.00145958,-0.000516659,1.41616,0.00118348,0.0108829,1917,1345,11.8798,-4.03868
700,-321,11.8719,3.89734,0.00164347,0.00284769,-0.00139548,0.00376541,0.000725742,-0.989067,0.00230674,0.0100584,1924,1345,11.872,-3.89731
707,-321,11.8715,3.74573,0.00403632,0.00470134,-0.00305317,0.00744005,0.0012976,-0.839638,0.00458906,0.0112778,1931,1345,11.8715,-3.7457
714,-321,11.8684,3.60767,0.00717181,0.00694416,-0.00536535,0.0124245,0.00169144,-0.774792,0.00778074,0.0111521,1938,1345,11.8684,-3.60763
721,-321,11.8513,3.46387,0.0112736,0.00956212,-0.00810019,0.0185631,0.00227262,-0.73277,0.0116917,0.0169221,1945,1345,11.8514,-3.46383
728,-321,11.7865,3.33618,0.0161821,0.01305,-0.0116913,0.0264117,0.00282032,-0.718819,0.016747,0.0275401,1952,1345,11.7865,-3.33622
735,-321,11.7483,2.70984,0.022375,0.0172519,-0.0162778,0.0362916,0.00333527,-0.707355,0.0231628,0.0448848,1959,1345,11.7483,-2.7099
742,-321,11.6891,2.12354,0,0,0,0,0,0,0,-1,1966,1345,11.6891,-2.12349
749,-321,14.0748,1.78137,0,0,0,0,0,0,0,-1,1973,1345,14.0748,-1.78143
756,-321,14.1115,1.62158,0.0468023,0.0328108,-0.0356177,0.0761048,0.00350828,-0.688426,0.0496085,0.0451018,1980,1345,14.1114,-1.62159
763,-321,14.2512,1.73608,0.0554451,0.0380963,-0.0432055,0.0908384,0.00270307,-0.68633,0.0596783,0.0489456,1987,1345,14.2513,-1.73607
770,-321,0,0,0,0,0,0,0,0,0,-1,1994,1345,0,0
777,-321,0,0,0,0,0,0,0,0,0,-1,2001,1345,0,0
784,-321,0,0,0,0,0,0,0,0,0,-1,2008,1345,0,0
791,-321,0,0,0,0,0,0,0,0,0,-1,2015,1345,0,0
798,-321,0,0,0,0,0,0,0,0,0,-1,2022,1345,0,0
805,-321,0,0,0,0,0,0,0,0,0,-1,2029,1345,0,0
812,-321,0,0,0,0,0,0,0,0,0,-1,2036,1345,0,0
-700,-328,0,0,0,0,0,0,0,0,0,-1,524,1352,0,0
-693,-328,0,0,0,0,0,0,0,0,0,-1,531,1352,0,0
-686,-328,0,0,0,0,0,0,0,0,0,-1,538,1352,0,0
-679,-328,0,0,0,0,0,0,0,0,0,-1,545,1352,0,0
-672,-328,0,0,0,0,0,0,0,0,0,-1,552,1352,0,0
-665,-328,0,0,0,0,0,0,0,0,0,-1,559,1352,0,0
-658,-328,0,0,0,0,0,0,0,0,0,-1,566,1352,0,0
-651,-328,0,0,0,0,0,0,0,0,0,-1,573,1352,0,0
-644,-328,0,0,0,0,0,0,0,0,0,-1,580,1352,0,0
-637,-328,-5.18195,-2.03491,0,0,0,0,0,0,0,-1,587,1352,-5.18195,2.03489
-630,-328,-5.323,-1.3833,0,0,0,0,0,0,0,-1,594,1352,-5.32302,1.38326
-623,-328,-5.47949,-0.468872,0,0,0,0,0,0,0,-1,601,1352,-5.47947,0.468887
-616,-328,-4.45599,-1.7926,0,0,0,0,0,0,0,-1,608,1352,-4.45602,1.79258
-609,-328,-4.36816,1.69629,0,0,0,0,0,0,0,-1,615,1352,-4.36818,-1.6963
-602,-328,-4.50317,1.77002,0.00303865,0.00652689,0.012746,0.0176476,-0.00808202,0.853394,0.0151933,0.0491184,622,1352,-4.5032,-1.77004
-595,-328,-4.66547,1.62927,0.00312605,0.00634042,0.00964412,0.0145104,-0.00504389,0.867964,0.0117223,0.0468446,629,1352,-4.66547,-1.62925
-588,-328,-4.94873,1.47107,0.00279717,0.00554082,0.00695608,0.0112591,-0.00292107,0.882755,0.00864581,0.0309685,636,1352,-4.94871,-1.47106
-581,-328,-4.96875,1.68079,0.00254765,0.00369013,0.00475531,0.00790839,-0.00167061,0.845175,0.00590839,0.0140617,643,1352,-4.96873,-1.68074
-574,-328,-4.94727,1.84302,0.00200925,0.00235074,0.00289812,0.00508314,-0.000723151,0.814822,0.00365374,0.0138861,650,1352,-4.94729,-1.84304
-567,-328,-4.96344,2.02771,0.00132857,0.00137374,0.00136243,0.00271377,-1.14677e-05,0.793687,0.00181302,0.0176467,657,1352,-4.96346,-2.02765
-560,-328,-4.97675,2.24927,0.000946052,0.000422348,-0.000189626,0.0010075,0.000360897,-0.313382,0.000589426,0.0266917,664,1352,-4.97672,-2.24923
-553,-328,-5.00513,2.35339,0.00145806,-0.000141654,-0.001755,0.00258688,-0.00127048,-0.571582,0.00226987,0.0298836,671,1352,-5.00513,-2.35335
-546,-328,-4.96918,2.45276,0.00294595,-0.00131392,-0.00403644,0.00537995,-0.00374791,-0.542627,0.00529798,0.0264637,678,1352,-4.96917,-2.45277
-539,-328,-4.94409,2.6311,0.00463074,-0.00275077,-0.0065692,0.00847497,-0.006595,-0.529459,0.00872319,0.0215289,685,1352,-4.9441,-2.63105
-532,-328,-4.94257,2.83423,0.00654154,-0.00425618,-0.00981978,0.0123487,-0.0100634,-0.534055,0.012962,0.0153928,692,1352,-4.94255,-2.83424
-525,-328,-4.91858,3.02844,0.00929643,-0.0057944,-0.0140784,0.0177239,-0.0142219,-0.539399,0.0184808,0.0114165,699,1352,-4.9186,-3.02848
-518,-328,-4.87732,3.20142,0.0129766,-0.007612,-0.0196221,0.0248408,-0.0194762,-0.543821,0.0256488,0.0288048,706,1352,-4.87732,-3.20142
-511,-328,-5.27856,3.27539,0.0176499,-0.00994528,-0.0265899,0.0338089,-0.0261043,-0.546071,0.0346861,0.0384884,713,1352,-5.27855,-3.27544
-504,-328,-5.43951,3.55444,0.0234177,-0.0129935,-0.0350442,0.0447031,-0.0342789,-0.545834,0.0457324,0.0468895,720,1352,-5.43951,-3.55441
-497,-328,-5.58105,3.85229,0,0,0,0,0,0,0,-1,727,1352,-5.58108,-3.85236
-490,-328,-3.62909,-2.71887,0,0,0,0,0,0,0,-1,734,1352,-3.62906,2.71886
-483,-328,-2.73615,-3.99951,0,0,0,0,0,0,0,-1,741,1352,-2.73615,3.99956
-476,-328,-6.7511,0.656494,0,0,0,0,0,0,0,-1,748,1352,-6.75108,-0.656508
-469,-328,-7.75024,0.314209,0,0,0,0,0,0,0,-1,755,1352,-7.75023,-0.314192
-462,-328,-9.59009,1.03406,0,0,0,0,0,0,0,-1,762,1352,-9.59011,-1.03406
-455,-328,0,0,0,0,0,0,0,0,0,-1,769,1352,0,0
-448,-328,0,0,0,0,0,0,0,0,0,-1,776,1352,0,0
-441,-328,0,0,0,0,0,0,0,0,0,-1,783,1352,0,0
-434,-328,0,0,0,0,0,0,0,0,0,-1,790,1352,0,0
-427,-328,0,0,0,0,0,0,0,0,0,-1,797,1352,0,0
-420,-328,0,0,0,0,0,0,0,0,0,-1,804,1352,0,0
-413,-328,0,0,0,0,0,0,0,0,0,-1,811,1352,0,0
-406,-328,0,0,0,0,0,0,0,0,0,-1,818,1352,0,0
-399,-328,0,0,0,0,0,0,0,0,0,-1,825,1352,0,0
-392,-328,0,0,0,0,0,0,0,0,0,-1,832,1352,0,0
-385,-328,0,0,0,0,0,0,0,0,0,-1,839,1352,0,0
-378,-328,0,0,0,0,0,0,0,0,0,-1,846,1352,0,0
-371,-328,0,0,0,0,0,0,0,0,0,-1,853,1352,0,0
-364,-328,0,0,0,0,0,0,0,0,0,-1,860,1352,0,0
-357,-328,0,0,0,0,0,0,0,0,0,-1,867,1352,0,0
-350,-328,0,0,0,0,0,0,0,0,0,-1,874,1352,0,0
-343,-328,0,0,0,0,0,0,0,0,0,-1,881,1352,0,0
-336,-328,0,0,0,0,0,0,0,0,0,-1,888,1352,0,0
-329,-328,0,0,0,0,0,0,0,0,0,-1,895,1352,0,0
-322,-328,0,0,0,0,0,0,0,0,0,-1,902,1352,0,0
-315,-328,0,0,0,0,0,0,0,0,0,-1,909,1352,0,0
-308,-328,0,0,0,0,0,0,0,0,0,-1,916,1352,0,0
-301,-328,0,0,0,0,0,0,0,0,0,-1,923,1352,0,0
-294,-328,0,0,0,0,0,0,0,0,0,-1,930,1352,0,0
-287,-328,0,0,0,0,0,0,0,0,0,-1,937,1352,0,0
-280,-328,0,0,0,0,0,0,0,0,0,-1,944,1352,0,0
-273,-328,0,0,0,0,0,0,0,0,0,-1,951,1352,0,0
-266,-328,0,0,0,0,0,0,0,0,0,-1,958,1352,0,0
-259,-328,0,0,0,0,0,0,0,0,0,-1,965,1352,0,0
-252,-328,0,0,0,0,0,0,0,0,0,-1,972,1352,0,0
-245,-328,0,0,0,0,0,0,0,0,0,-1,979,1352,0,0
-238,-328,0,0,0,0,0,0,0,0,0,-1,986,1352,0,0
-231,-328,0,0,0,0,0,0,0,0,0,-1,993,1352,0,0
-224,-328,0,0,0,0,0,0,0,0,0,-1,1000,1352,0,0
-217,-328,0,0,0,0,0,0,0,0,0,-1,1007,1352,0,0
-210,-328,0,0,0,0,0,0,0,0,0,-1,1014,1352,0,0
-203,-328,0,0,0,0,0,0,0,0,0,-1,1021,1352,0,0
-196,-328,0,0,0,0,0,0,0,0,0,-1,1028,1352,0,0
-189,-328,0,0,0,0,0,0,0,0,0,-1,1035,1352,0,0
-182,-328,0,0,0,0,0,0,0,0,0,-1,1042,1352,0,0
-175,-328,0,0,0,0,0,0,0,0,0,-1,1049,1352,0,0
-168,-328,0,0,0,0,0,0,0,0,0,-1,1056,1352,0,0
-161,-328,0,0,0,0,0,0,0,0,0,-1,1063,1352,0,0
-154,-328,0,0,0,0,0,0,0,0,0,-1,1070,1352,0,0
-147,-328,0,0,0,0,0,0,0,0,0,-1,1077,1352,0,0
-140,-328,0,0,0,0,0,0,0,0,0,-1,1084,1352,0,0
-133,-328,0,0,0,0,0,0,0,0,0,-1,1091,1352,0,0
-126,-328,0,0,0,0,0,0,0,0,0,-1,1098,1352,0,0
-119,-328,0,0,0,0,0,0,0,0,0,-1,1105,1352,0,0
-112,-328,0,0,0,0,0,0,0,0,0,-1,1112,1352,0,0
-105,-328,0,0,0,0,0,0,0,0,0,-1,1119,1352,0,0
-98,-328,0,0,0,0,0,0,0,0,0,-1,1126,1352,0,0
-91,-328,0,0,0,0,0,0,0,0,0,-1,1133,1352,0,0
-84,-328,0,0,0,0,0,0,0,0,0,-1,1140,1352,0,0
-77,-328,0,0,0,0,0,0,0,0,0,-1,1147,1352,0,0
-70,-328,0,0,0,0,0,0,0,0,0,-1,1154,1352,0,0
-63,-328,0,0,0,0,0,0,0,0,0,-1,1161,1352,0,0
-56,-328,0,0,0,0,0,0,0,0,0,-1,1168,1352,0,0
-49,-328,0,0,0,0,0,0,0,0,0,-1,1175,1352,0,0
-42,-328,0,0,0,0,0,0,0,0,0,-1,1182,1352,0,0
-35,-328,0,0,0,0,0,0,0,0,0,-1,1189,1352,0,0
-28,-328,0,0,0,0,0,0,0,0,0,-1,1196,1352,0,0
-21,-328,0,0,0,0,0,0,0,0,0,-1,1203,1352,0,0
-14,-328,0,0,0,0,0,0,0,0,0,-1,1210,1352,0,0
-7,-328,0,0,0,0,0,0,0,0,0,-1,1217,1352,0,0
0,-328,0,0,0,0,0,0,0,0,0,-1,1224,1352,0,0
7,-328,0,0,0,0,0,0,0,0,0,-1,1231,1352,0,0
14,-328,0,0,0,0,0,0,0,0,0,-1,1238,1352,0,0
21,-328,0,0,0,0,0,0,0,0,0,-1,1245,1352,0,0
28,-328,0,0,0,0,0,0,0,0,0,-1,1252,1352,0,0
35,-328,0,0,0,0,0,0,0,0,0,-1,1259,1352,0,0
42,-328,0,0,0,0,0,0,0,0,0,-1,1266,1352,0,0
49,-328,0,0,0,0,0,0,0,0,0,-1,1273,1352,0,0
56,-328,0,0,0,0,0,0,0,0,0,-1,1280,1352,0,0
63,-328,0,0,0,0,0,0,0,0,0,-1,1287,1352,0,0
70,-328,0,0,0,0,0,0,0,0,0,-1,1294,1352,0,0
77,-328,0,0,0,0,0,0,0,0,0,-1,1301,1352,0,0
84,-328,0,0,0,0,0,0,0,0,0,-1,1308,1352,0,0
91,-328,0,0,0,0,0,0,0,0,0,-1,1315,1352,0,0
98,-328,0,0,0,0,0,0,0,0,0,-1,1322,1352,0,0
105,-328,0,0,0,0,0,0,0,0,0,-1,1329,1352,0,0
112,-328,0,0,0,0,0,0,0,0,0,-1,1336,1352,0,0
119,-328,0,0,0,0,0,0,0,0,0,-1,1343,1352,0,0
126,-328,0,0,0,0,0,0,0,0,0,-1,1350,1352,0,0
133,-328,0,0,0,0,0,0,0,0,0,-1,1357,1352,0,0
140,-328,0,0,0,0,0,0,0,0,0,-1,1364,1352,0,0
147,-328,0,0,0,0,0,0,0,0,0,-1,1371,1352,0,0
154,-328,0,0,0,0,0,0,0,0,0,-1,1378,1352,0,0
161,-328,0,0,0,0,0,0,0,0,0,-1,1385,1352,0,0
168,-328,0,0,0,0,0,0,0,0,0,-1,1392,1352,0,0
175,-328,0,0,0,0,0,0,0,0,0,-1,1399,1352,0,0
182,-328,0,0,0,0,0,0,0,0,0,-1,1406,1352,0,0
189,-328,0,0,0,0,0,0,0,0,0,-1,1413,1352,0,0
196,-328,0,0,0,0,0,0,0,0,0,-1,1420,1352,0,0
203,-328,0,0,0,0,0,0,0,0,0,-1,1427,1352,0,0
210,-328,0,0,0,0,0,0,0,0,0,-1,1434,1352,0,0
217,-328,0,0,0,0,0,0,0,0,0,-1,1441,1352,0,0
224,-328,0,0,0,0,0,0,0,0,0,-1,1448,1352,0,0
231,-328,0,0,0,0,0,0,0,0,0,-1,1455,1352,0,0
238,-328,0,0,0,0,0,0,0,0,0,-1,1462,1352,0,0
245,-328,0,0,0,0,0,0,0,0,0,-1,1469,1352,0,0
252,-328,0,0,0,0,0,0,0,0,0,-1,1476,1352,0,0
259,-328,0,0,0,0,0,0,0,0,0,-1,1483,1352,0,0
266,-328,0,0,0,0,0,0,0,0,0,-1,1490,1352,0,0
273,-328,0,0,0,0,0,0,0,0,0,-1,1497,1352,0,0
280,-328,0,0,0,0,0,0,0,0,0,-1,1504,1352,0,0
287,-328,0,0,0,0,0,0,0,0,0,-1,1511,1352,0,0
294,-328,0,0,0,0,0,0,0,0,0,-1,1518,1352,0,0
301,-328,0,0,0,0,0,0,0,0,0,-1,1525,1352,0,0
308,-328,0,0,0,0,0,0,0,0,0,-1,1532,1352,0,0
315,-328,0,0,0,0,0,0,0,0,0,-1,1539,1352,0,0
322,-328,0,0,0,0,0,0,0,0,0,-1,1546,1352,0,0
329,-328,0,0,0,0,0,0,0,0,0,-1,1553,1352,0,0
336,-328,0,0,0,0,0,0,0,0,0,-1,1560,1352,0,0
343,-328,0,0,0,0,0,0,0,0,0,-1,1567,1352,0,0
350,-328,0,0,0,0,0,0,0,0,0,-1,1574,1352,0,0
357,-328,0,0,0,0,0,0,0,0,0,-1,1581,1352,0,0
364,-328,0,0,0,0,0,0,0,0,0,-1,1588,1352,0,0
371,-328,0,0,0,0,0,0,0,0,0,-1,1595,1352,0,0
378,-328,0,0,0,0,0,0,0,0,0,-1,1602,1352,0,0
385,-328,0,0,0,0,0,0,0,0,0,-1,1609,1352,0,0
392,-328,0,0,0,0,0,0,0,0,0,-1,1616,1352,0,0
399,-328,0,0,0,0,0,0,0,0,0,-1,1623,1352,0,0
406,-328,0,0,0,0,0,0,0,0,0,-1,1630,1352,0,0
413,-328,0,0,0,0,0,0,0,0,0,-1,1637,1352,0,0
420,-328,0,0,0,0,0,0,0,0,0,-1,1644,1352,0,0
427,-328,0,0,0,0,0,0,0,0,0,-1,1651,1352,0,0
434,-328,0,0,0,0,0,0,0,0,0,-1,1658,1352,0,0
441,-328,0,0,0,0,0,0,0,0,0,-1,1665,1352,0,0
448,-328,0,0,0,0,0,0,0,0,0,-1,1672,1352,0,0
455,-328,0,0,0,0,0,0,0,0,0,-1,1679,1352,0,0
462,-328,0,0,0,0,0,0,0,0,0,-1,1686,1352,0,0
469,-328,0,0,0,0,0,0,0,0,0,-1,1693,1352,0,0
476,-328,0,0,0,0,0,0,0,0,0,-1,1700,1352,0,0
483,-328,0,0,0,0,0,0,0,0,0,-1,1707,1352,0,0
490,-328,0,0,0,0,0,0,0,0,0,-1,1714,1352,0,0
497,-328,0,0,0,0,0,0,0,0,0,-1,1721,1352,0,0
504,-328,0,0,0,0,0,0,0,0,0,-1,1728,1352,0,0
511,-328,0,0,0,0,0,0,0,0,0,-1,1735,1352,0,0
518,-328,0,0,0,0,0,0,0,0,0,-1,1742,1352,0,0
525,-328,0,0,0,0,0,0,0,0,0,-1,1749,1352,0,0
532,-328,0,0,0,0,0,0,0,0,0,-1,1756,1352,0,0
539,-328,0,0,0,0,0,0,0,0,0,-1,1763,1352,0,0
546,-328,0,0,0,0,0,0,0,0,0,-1,1770,1352,0,0
553,-328,0,0,0,0,0,0,0,0,0,-1,1777,1352,0,0
560,-328,0,0,0,0,0,0,0,0,0,-1,1784,1352,0,0
567,-328,0,0,0,0,0,0,0,0,0,-1,1791,1352,0,0
574,-328,16.2283,7.0769,0,0,0,0,0,0,0,-1,1798,1352,16.2283,-7.07689
581,-328,16.0385,6.2887,-0.0156011,0.00526353,-0.0184913,0.0160623,-0.0263999,-1.04223,0.0247565,0.0423708,1805,1352,16.0385,-6.2887
588,-328,15.9983,4.93335,-0.0185017,0.00649464,-0.0182659,0.0161289,-0.028136,-1.08543,0.0258679,0.0448539,1812,1352,15.9983,-4.93336
595,-328,15.5923,3.59753,0,0,0,0,0,0,0,-1,1819,1352,15.5923,-3.59759
602,-328,15.1473,2.41199,0,0,0,0,0,0,0,-1,1826,1352,15.1473,-2.41194
609,-328,14.7261,1.24927,0,0,0,0,0,0,0,-1,1833,1352,14.7261,-1.24929
616,-328,14.0358,1.24377,0,0,0,0,0,0,0,-1,1840,1352,14.0358,-1.24373
623,-328,12.6962,4.9762,0,0,0,0,0,0,0,-1,1847,1352,12.6961,-4.97623
630,-328,12.062,4.01086,0,0,0,0,0,0,0,-1,1854,1352,12.062,-4.0109
637,-328,12.0283,4.12012,-0.0163443,-0.00288012,0.00129123,-0.0027574,-0.016467,1.47605,0.010184,0.0457522,1861,1352,12.0283,-4.12012
644,-328,11.9913,4.42261,-0.0150158,-0.00495424,0.00518463,-0.00276081,-0.0172092,1.17057,0.0106722,0.040514,1868,1352,11.9913,-4.4226
651,-328,11.8726,4.6969,-0.0119312,-0.00400179,0.00639578,-0.000441539,-0.0154914,1.06286,0.0101836,0.0383643,1875,1352,11.8725,-4.6969
658,-328,11.7051,4.72253,-0.00911873,-0.00337675,0.00645242,0.000814576,-0.0133101,0.99472,0.00915698,0.0182955,1882,1352,11.7051,-4.72253
665,-328,11.6833,4.59631,-0.00663549,-0.00283941,0.00562226,0.00119655,-0.0106715,0.948188,0.00754485,0.0127599,1889,1352,11.6833,-4.59629
672,-328,11.704,4.45361,-0.00443954,-0.00234814,0.00420333,0.000937618,-0.00772529,0.907313,0.00548949,0.0113651,1896,1352,11.704,-4.45359
679,-328,11.7025,4.3103,-0.00313258,-0.00134243,0.0027574,0.000661537,-0.00513654,0.942336,0.00366483,0.0135771,1903,1352,11.7025,-4.31025
686,-328,11.7119,4.16846,-0.0017771,2.22926e-05,0.00135428,0.000748489,-0.0025033,1.07859,0.00196643,0.0122703,1910,1352,11.7119,-4.16846
693,-328,11.7355,4.03125,-5.68307e-05,0.00133905,-1.667e-05,0.00133925,-5.70298e-05,-1.55886,0.000912438,0.00813407,1917,1352,11.7355,-4.03123
700,-328,11.7273,3.89417,0.00191834,0.00275246,-0.00160087,0.00398971,0.000681097,-0.912826,0.00246435,0.011033,1924,1352,11.7273,-3.89422
707,-328,11.7375,3.7439,0.00411946,0.00469181,-0.00322983,0.00764812,0.00116315,-0.829585,0.00475865,0.0131439,1931,1352,11.7375,-3.74384
714,-328,11.7521,3.60449,0.00707089,0.0071405,-0.00556402,0.0126698,0.00154156,-0.788526,0.00798247,0.0123908,1938,1352,11.752,-3.60455
721,-328,11.6938,3.47302,0.0110323,0.0100282,-0.00837832,0.0189236,0.0021369,-0.755474,0.0119672,0.0230062,1945,1352,11.6938,-3.47304
728,-328,11.741,3.27966,0.0158719,0.0139147,-0.0121378,0.0270705,0.0027161,-0.745173,0.0172132,0.0390298,1952,1352,11.741,-3.27963
735,-328,11.8904,2.97693,0,0,0,0,0,0,0,-1,1959,1352,11.8904,-2.97693
742,-328,11.4972,2.66711,0,0,0,0,0,0,0,-1,1966,1352,11.4972,-2.66708
749,-328,13.5459,0.929932,0,0,0,0,0,0,0,-1,1973,1352,13.5459,-0.929902
756,-328,14.1412,0.9375,0,0,0,0,0,0,0,-1,1980,1352,14.1412,-0.937511
763,-328,0,0,0,0,0,0,0,0,0,-1,1987,1352,0,0
770,-328,0,0,0,0,0,0,0,0,0,-1,1994,1352,0,0
777,-328,0,0,0,0,0,0,0,0,0,-1,2001,1352,0,0
784,-328,0,0,0,0,0,0,0,0,0,-1,2008,1352,0,0
791,-328,0,0,0,0,0,0,0,0,0,-1,2015,1352,0,0
798,-328,0,0,0,0,0,0,0,0,0,-1,2022,1352,0,0
805,-328,0,0,0,0,0,0,0,0,0,-1,2029,1352,0,0
812,-328,0,0,0,0,0,0,0,0,0,-1,2036,1352,0,0
-700,-335,0,0,0,0,0,0,0,0,0,-1,524,1359,0,0
-693,-335,0,0,0,0,0,0,0,0,0,-1,531,1359,0,0
-686,-335,0,0,0,0,0,0,0,0,0,-1,538,1359,0,0
-679,-335,0,0,0,0,0,0,0,0,0,-1,545,1359,0,0
-672,-335,0,0,0,0,0,0,0,0,0,-1,552,1359,0,0
-665,-335,0,0,0,0,0,0,0,0,0,-1,559,1359,0,0
-658,-335,0,0,0,0,0,0,0,0,0,-1,566,1359,0,0
-651,-335,0,0,0,0,0,0,0,0,0,-1,573,1359,0,0
-644,-335,0,0,0,0,0,0,0,0,0,-1,580,1359,0,0
-637,-335,-2.55847,0.431274,0,0,0,0,0,0,0,-1,587,1359,-2.55847,-0.431232
-630,-335,-3.19763,-0.250854,0,0,0,0,0,0,0,-1,594,1359,-3.1976,0.250913
-623,-335,-3.93933,-0.494385,0,0,0,0,0,0,0,-1,601,1359,-3.93935,0.494411
-616,-335,-4.7522,-0.590576,0,0,0,0,0,0,0,-1,608,1359,-4.75217,0.590527
-609,-335,-5.63379,-0.849243,0,0,0,0,0,0,0,-1,615,1359,-5.63381,0.849298
-602,-335,-4.17603,1.64587,0,0,0,0,0,0,0,-1,622,1359,-4.17602,-1.64591
-595,-335,-4.36841,1.47852,0.00452737,0.00794297,0.0111387,0.017504,-0.00503365,0.861467,0.0136599,0.0440062,629,1359,-4.36838,-1.4785
-588,-335,-4.67139,1.625,0.00368428,0.00685782,0.00800184,0.0134287,-0.0028866,0.883279,0.0100538,0.0351004,636,1359,-4.67136,-1.62506
-581,-335,-4.79224,1.71057,0.00303115,0.00505939,0.0055104,0.00964821,-0.00155768,0.876398,0.0070093,0.0179922,643,1359,-4.79221,-1.71058
-574,-335,-4.78387,1.84033,0.0021868,0.00367992,0.00341556,0.00642956,-0.000562839,0.892994,0.00448577,0.0115044,650,1359,-4.78387,-1.84031
-567,-335,-4.784,2.03394,0.00135706,0.00254766,0.00177349,0.0038231,8.16274e-05,0.947322,0.00252196,0.0154386,657,1359,-4.78403,-2.03397
-560,-335,-4.74945,2.21887,0.000796797,0.0014046,0.00032455,0.00154532,0.000656076,1.16167,0.000895569,0.0241864,664,1359,-4.74942,-2.21887
-553,-335,-4.77887,2.37488,0.000870481,0.00067655,-0.00101358,0.00179172,-0.000244692,-0.73771,0.00128384,0.0279944,671,1359,-4.77884,-2.37485
-546,-335,-4.77997,2.50696,0.00171321,-0.000699838,-0.002934,0.00367908,-0.0026657,-0.590327,0.0036787,0.0245833,678,1359,-4.77998,-2.50701
-539,-335,-4.76965,2.66711,0.00264771,-0.0024237,-0.00498044,0.00570079,-0.00547679,-0.549935,0.00645381,0.0194908,685,1359,-4.76962,-2.66712
-532,-335,-4.789,2.85889,0.00360471,-0.00428001,-0.0075918,0.00821675,-0.00889204,-0.545917,0.00988033,0.0152756,692,1359,-4.78901,-2.85887
-525,-335,-4.74701,3.04553,0.00512953,-0.00625341,-0.0109976,0.0118211,-0.012945,-0.546616,0.0143036,0.0100603,699,1359,-4.74701,-3.04554
-518,-335,-4.74237,3.20483,0.00725968,-0.00867954,-0.0154981,0.0167172,-0.0181371,-0.547914,0.0201287,0.0155282,706,1359,-4.74239,-3.20477
-511,-335,-4.90515,3.33337,0.00996557,-0.0119278,-0.0213449,0.0230071,-0.0249693,-0.548462,0.0277069,0.0362089,713,1359,-4.90513,-3.3334
-504,-335,-5.25726,3.56104,0.0133519,-0.0162237,-0.0286748,0.0308274,-0.0336992,-0.547331,0.0372668,0.0467633,720,1359,-5.25728,-3.56108
-497,-335,-5.625,3.75439,0,0,0,0,0,0,0,-1,727,1359,-5.62503,-3.75444
-490,-335,-3.41833,-3.1582,0,0,0,0,0,0,0,-1,734,1359,-3.41831,3.15825
-483,-335,-2.55273,-4.46985,0,0,0,0,0,0,0,-1,741,1359,-2.55275,4.46984
-476,-335,-6.43317,0.717896,0,0,0,0,0,0,0,-1,748,1359,-6.43315,-0.71789
-469,-335,-8.2002,1.20618,0,0,0,0,0,0,0,-1,755,1359,-8.20019,-1.20623
-462,-335,-8.87335,0.621826,0,0,0,0,0,0,0,-1,762,1359,-8.87335,-0.6218
-455,-335,-9.83044,0.584961,0,0,0,0,0,0,0,-1,769,1359,-9.83042,-0.584914
-448,-335,0,0,0,0,0,0,0,0,0,-1,776,1359,0,0
-441,-335,0,0,0,0,0,0,0,0,0,-1,783,1359,0,0
-434,-335,0,0,0,0,0,0,0,0,0,-1,790,1359,0,0
-427,-335,0,0,0,0,0,0,0,0,0,-1,797,1359,0,0
-420,-335,0,0,0,0,0,0,0,0,0,-1,804,1359,0,0
-413,-335,0,0,0,0,0,0,0,0,0,-1,811,1359,0,0
-406,-335,0,0,0,0,0,0,0,0,0,-1,818,1359,0,0
-399,-335,0,0,0,0,0,0,0,0,0,-1,825,1359,0,0
-392,-335,0,0,0,0,0,0,0,0,0,-1,832,1359,0,0
-385,-335,0,0,0,0,0,0,0,0,0,-1,839,1359,0,0
-378,-335,0,0,0,0,0,0,0,0,0,-1,846,1359,0,0
-371,-335,0,0,0,0,0,0,0,0,0,-1,853,1359,0,0
-364,-335,0,0,0,0,0,0,0,0,0,-1,860,1359,0,0
-357,-335,0,0,0,0,0,0,0,0,0,-1,867,1359,0,0
-350,-335,0,0,0,0,0,0,0,0,0,-1,874,1359,0,0
-343,-335,0,0,0,0,0,0,0,0,0,-1,881,1359,0,0
-336,-335,0,0,0,0,0,0,0,0,0,-1,888,1359,0,0
-329,-335,0,0,0,0,0,0,0,0,0,-1,895,1359,0,0
-322,-335,0,0,0,0,0,0,0,0,0,-1,902,1359,0,0
-315,-335,0,0,0,0,0,0,0,0,0,-1,909,1359,0,0
-308,-335,0,0,0,0,0,0,0,0,0,-1,916,1359,0,0
-301,-335,0,0,0,0,0,0,0,0,0,-1,923,1359,0,0
-294,-335,0,0,0,0,0,0,0,0,0,-1,930,1359,0,0
-287,-335,0,0,0,0,0,0,0,0,0,-1,937,1359,0,0
-280,-335,0,0,0,0,0,0,0,0,0,-1,944,1359,0,0
-273,-335,0,0,0,0,0,0,0,0,0,-1,951,1359,0,0
-266,-335,0,0,0,0,0,0,0,0,0,-1,958,1359,0,0
-259,-335,0,0,0,0,0,0,0,0,0,-1,965,1359,0,0
-252,-335,0,0,0,0,0,0,0,0,0,-1,972,1359,0,0
-245,-335,0,0,0,0,0,0,0,0,0,-1,979,1359,0,0
-238,-335,0,0,0,0,0,0,0,0,0,-1,986,1359,0,0
-231,-335,0,0,0,0,0,0,0,0,0,-1,993,1359,0,0
-224,-335,0,0,0,0,0,0,0,0,0,-1,1000,1359,0,0
-217,-335,0,0,0,0,0,0,0,0,0,-1,1007,1359,0,0
-210,-335,0,0,0,0,0,0,0,0,0,-1,1014,1359,0,0
-203,-335,0,0,0,0,0,0,0,0,0,-1,1021,1359,0,0
-196,-335,0,0,0,0,0,0,0,0,0,-1,1028,1359,0,0
-189,-335,0,0,0,0,0,0,0,0,0,-1,1035,1359,0,0
-182,-335,0,0,0,0,0,0,0,0,0,-1,1042,1359,0,0
-175,-335,0,0,0,0,0,0,0,0,0,-1,1049,1359,0,0
-168,-335,0,0,0,0,0,0,0,0,0,-1,1056,1359,0,0
-161,-335,0,0,0,0,0,0,0,0,0,-1,1063,1359,0,0
-154,-335,0,0,0,0,0,0,0,0,0,-1,1070,1359,0,0
-147,-335,0,0,0,0,0,0,0,0,0,-1,1077,1359,0,0
-140,-335,0,0,0,0,0,0,0,0,0,-1,1084,1359,0,0
-133,-335,0,0,0,0,0,0,0,0,0,-1,1091,1359,0,0
-126,-335,0,0,0,0,0,0,0,0,0,-1,1098,1359,0,0
-119,-335,0,0,0,0,0,0,0,0,0,-1,1105,1359,0,0
-112,-335,0,0,0,0,0,0,0,0,0,-1,1112,1359,0,0
-105,-335,0,0,0,0,0,0,0,0,0,-1,1119,1359,0,0
-98,-335,0,0,0,0,0,0,0,0,0,-1,1126,1359,0,0
-91,-335,0,0,0,0,0,0,0,0,0,-1,1133,1359,0,0
-84,-335,0,0,0,0,0,0,0,0,0,-1,1140,1359,0,0
-77,-335,0,0,0,0,0,0,0,0,0,-1,1147,1359,0,0
-70,-335,0,0,0,0,0,0,0,0,0,-1,1154,1359,0,0
-63,-335,0,0,0,0,0,0,0,0,0,-1,1161,1359,0,0
-56,-335,0,0,0,0,0,0,0,0,0,-1,1168,1359,0,0
-49,-335,0,0,0,0,0,0,0,0,0,-1,1175,1359,0,0
-42,-335,0,0,0,0,0,0,0,0,0,-1,1182,1359,0,0
-35,-335,0,0,0,0,0,0,0,0,0,-1,1189,1359,0,0
-28,-335,0,0,0,0,0,0,0,0,0,-1,1196,1359,0,0
-21,-335,0,0,0,0,0,0,0,0,0,-1,1203,1359,0,0
-14,-335,0,0,0,0,0,0,0,0,0,-1,1210,1359,0,0
-7,-335,0,0,0,0,0,0,0,0,0,-1,1217,1359,0,0
0,-335,0,0,0,0,0,0,0,0,0,-1,1224,1359,0,0
7,-335,0,0,0,0,0,0,0,0,0,-1,1231,1359,0,0
14,-335,0,0,0,0,0,0,0,0,0,-1,1238,1359,0,0
21,-335,0,0,0,0,0,0,0,0,0,-1,1245,1359,0,0
28,-335,0,0,0,0,0,0,0,0,0,-1,1252,1359,0,0
35,-335,0,0,0,0,0,0,0,0,0,-1,1259,1359,0,0
42,-335,0,0,0,0,0,0,0,0,0,-1,1266,1359,0,0
49,-335,0,0,0,0,0,0,0,0,0,-1,1273,1359,0,0
56,-335,0,0,0,0,0,0,0,0,0,-1,1280,1359,0,0
63,-335,0,0,0,0,0,0,0,0,0,-1,1287,1359,0,0
70,-335,0,0,0,0,0,0,0,0,0,-1,1294,1359,0,0
77,-335,0,0,0,0,0,0,0,0,0,-1,1301,1359,0,0
84,-335,0,0,0,0,0,0,0,0,0,-1,1308,1359,0,0
91,-335,0,0,0,0,0,0,0,0,0,-1,1315,1359,0,0
98,-335,0,0,0,0,0,0,0,0,0,-1,1322,1359,0,0
105,-335,0,0,0,0,0,0,0,0,0,-1,1329,1359,0,0
112,-335,0,0,0,0,0,0,0,0,0,-1,1336,1359,0,0
119,-335,0,0,0,0,0,0,0,0,0,-1,1343,1359,0,0
126,-335,0,0,0,0,0,0,0,0,0,-1,1350,1359,0,0
133,-335,0,0,0,0,0,0,0,0,0,-1,1357,1359,0,0
140,-335,0,0,0,0,0,0,0,0,0,-1,1364,1359,0,0
147,-335,0,0,0,0,0,0,0,0,0,-1,1371,1359,0,0
154,-335,0,0,0,0,0,0,0,0,0,-1,1378,1359,0,0
161,-335,0,0,0,0,0,0,0,0,0,-1,1385,1359,0,0
168,-335,0,0,0,0,0,0,0,0,0,-1,1392,1359,0,0
175,-335,0,0,0,0,0,0,0,0,0,-1,1399,1359,0,0
182,-335,0,0,0,0,0,0,0,0,0,-1,1406,1359,0,0
189,-335,0,0,0,0,0,0,0,0,0,-1,1413,1359,0,0
196,-335,0,0,0,0,0,0,0,0,0,-1,1420,1359,0,0
203,-335,0,0,0,0,0,0,0,0,0,-1,1427,1359,0,0
210,-335,0,0,0,0,0,0,0,0,0,-1,1434,1359,0,0
217,-335,0,0,0,0,0,0,0,0,0,-1,1441,1359,0,0
224,-335,0,0,0,0,0,0,0,0,0,-1,1448,1359,0,0
231,-335,0,0,0,0,0,0,0,0,0,-1,1455,1359,0,0
238,-335,0,0,0,0,0,0,0,0,0,-1,1462,1359,0,0
245,-335,0,0,0,0,0,0,0,0,0,-1,1469,1359,0,0
252,-335,0,0,0,0,0,0,0,0,0,-1,1476,1359,0,0
259,-335,0,0,0,0,0,0,0,0,0,-1,1483,1359,0,0
266,-335,0,0,0,0,0,0,0,0,0,-1,1490,1359,0,0
273,-335,0,0,0,0,0,0,0,0,0,-1,1497,1359,0,0
280,-335,0,0,0,0,0,0,0,0,0,-1,1504,1359,0,0
287,-335,0,0,0,0,0,0,0,0,0,-1,1511,1359,0,0
294,-335,0,0,0,0,0,0,0,0,0,-1,1518,1359,0,0
301,-335,0,0,0,0,0,0,0,0,0,-1,1525,1359,0,0
308,-335,0,0,0,0,0,0,0,0,0,-1,1532,1359,0,0
315,-335,0,0,0,0,0,0,0,0,0,-1,1539,1359,0,0
322,-335,0,0,0,0,0,0,0,0,0,-1,1546,1359,0,0
329,-335,0,0,0,0,0,0,0,0,0,-1,1553,1359,0,0
336,-335,0,0,0,0,0,0,0,0,0,-1,1560,1359,0,0
343,-335,0,0,0,0,0,0,0,0,0,-1,1567,1359,0,0
350,-335,0,0,0,0,0,0,0,0,0,-1,1574,1359,0,0
357,-335,0,0,0,0,0,0,0,0,0,-1,1581,1359,0,0
364,-335,0,0,0,0,0,0,0,0,0,-1,1588,1359,0,0
371,-335,0,0,0,0,0,0,0,0,0,-1,1595,1359,0,0
378,-335,0,0,0,0,0,0,0,0,0,-1,1602,1359,0,0
385,-335,0,0,0,0,0,0,0,0,0,-1,1609,1359,0,0
392,-335,0,0,0,0,0,0,0,0,0,-1,1616,1359,0,0
399,-335,0,0,0,0,0,0,0,0,0,-1,1623,1359,0,0
406,-335,0,0,0,0,0,0,0,0,0,-1,1630,1359,0,0
413,-335,0,0,0,0,0,0,0,0,0,-1,1637,1359,0,0
420,-335,0,0,0,0,0,0,0,0,0,-1,1644,1359,0,0
427,-335,0,0,0,0,0,0,0,0,0,-1,1651,1359,0,0
434,-335,0,0,0,0,0,0,0,0,0,-1,1658,1359,0,0
441,-335,0,0,0,0,0,0,0,0,0,-1,1665,1359,0,0
448,-335,0,0,0,0,0,0,0,0,0,-1,1672,1359,0,0
455,-335,0,0,0,0,0,0,0,0,0,-1,1679,1359,0,0
462,-335,0,0,0,0,0,0,0,0,0,-1,1686,1359,0,0
469,-335,0,0,0,0,0,0,0,0,0,-1,1693,1359,0,0
476,-335,0,0,0,0,0,0,0,0,0,-1,1700,1359,0,0
483,-335,0,0,0,0,0,0,0,0,0,-1,1707,1359,0,0
490,-335,0,0,0,0,0,0,0,0,0,-1,1714,1359,0,0
497,-335,0,0,0,0,0,0,0,0,0,-1,1721,1359,0,0
504,-335,0,0,0,0,0,0,0,0,0,-1,1728,1359,0,0
511,-335,0,0,0,0,0,0,0,0,0,-1,1735,1359,0,0
518,-335,0,0,0,0,0,0,0,0,0,-1,1742,1359,0,0
525,-335,0,0,0,0,0,0,0,0,0,-1,1749,1359,0,0
532,-335,0,0,0,0,0,0,0,0,0,-1,1756,1359,0,0
539,-335,0,0,0,0,0,0,0,0,0,-1,1763,1359,0,0
546,-335,0,0,0,0,0,0,0,0,0,-1,1770,1359,0,0
553,-335,0,0,0,0,0,0,0,0,0,-1,1777,1359,0,0
560,-335,0,0,0,0,0,0,0,0,0,-1,1784,1359,0,0
567,-335,0,0,0,0,0,0,0,0,0,-1,1791,1359,0,0
574,-335,16.2312,6.69165,0,0,0,0,0,0,0,-1,1798,1359,16.2312,-6.69163
581,-335,15.6997,5.83118,-0.0179799,0.0105942,-0.0142413,0.0164797,-0.0238655,-1.1789,0.023423,0.0425336,1805,1359,15.6997,-5.83116
588,-335,16.0995,4.49353,-0.0198823,0.00849778,-0.0135225,0.0139092,-0.0252936,-1.19014,0.0229497,0.045776,1812,1359,16.0995,-4.49354
595,-335,15.8348,3.34949,0,0,0,0,0,0,0,-1,1819,1359,15.8349,-3.34947
602,-335,15.3491,2.1925,0,0,0,0,0,0,0,-1,1826,1359,15.3491,-2.19252
609,-335,11.3099,1.57788,0,0,0,0,0,0,0,-1,1833,1359,11.3099,-1.57786
616,-335,12.8505,5.3949,0,0,0,0,0,0,0,-1,1840,1359,12.8504,-5.39492
623,-335,12.682,5.01831,-0.0187623,-0.00378078,-0.00259149,-0.00334517,-0.0191979,-1.40426,0.0118421,0.0497364,1847,1359,12.6821,-5.01836
630,-335,12.3633,4.78772,0,0,0,0,0,0,0,-1,1854,1359,12.3633,-4.78767
637,-335,11.8717,4.70691,-0.0165545,-0.00509784,0.00227465,-0.00466275,-0.0169896,1.3818,0.0101362,0.0490657,1861,1359,11.8717,-4.7069
644,-335,11.7286,4.797,-0.0152406,-0.0075242,0.00613211,-0.00413752,-0.0186273,1.0662,0.0112945,0.0388759,1868,1359,11.7286,-4.797
651,-335,11.5751,4.87012,-0.0117439,-0.00640731,0.00682263,-0.00174976,-0.0164015,0.971803,0.0104002,0.0171089,1875,1359,11.5751,-4.87014
658,-335,11.556,4.755,-0.00857136,-0.00534715,0.00641262,-0.000347101,-0.0135714,0.908544,0.00893416,0.0128991,1882,1359,11.556,-4.75495
665,-335,11.5591,4.59436,-0.00590569,-0.0042669,0.00531755,0.000294009,-0.0104666,0.861843,0.00707777,0.0143695,1889,1359,11.5591,-4.59437
672,-335,11.571,4.43994,-0.00372328,-0.00336768,0.00380661,0.000265283,-0.00735624,0.808735,0.00499494,0.0166855,1896,1359,11.571,-4.43994
679,-335,11.5771,4.32751,-0.00239636,-0.00202155,0.00246893,0.000267077,-0.00468499,0.823278,0.00321605,0.0139799,1903,1359,11.5771,-4.32753
686,-335,11.5972,4.18616,-0.00114339,-0.000519565,0.00114002,0.000350445,-0.0020134,0.918931,0.00147304,0.010871,1910,1359,11.5971,-4.18618
693,-335,11.6016,4.02283,0.000367908,0.000872141,-0.000115494,0.000897335,0.000342713,-1.35601,0.00052287,0.00922857,1917,1359,11.6015,-4.02288
700,-335,11.5785,3.88123,0.00207658,0.0022253,-0.00153593,0.00368867,0.000613215,-0.809586,0.00228233,0.009947,1924,1359,11.5785,-3.88128
707,-335,11.5854,3.73035,0.00398084,0.00419312,-0.00306899,0.0071578,0.00101616,-0.802683,0.0044718,0.013285,1931,1359,11.5854,-3.7304
714,-335,11.6046,3.56091,0.00665528,0.00668623,-0.00533502,0.0120058,0.00133572,-0.786849,0.00759786,0.0178438,1938,1359,11.6046,-3.56087
721,-335,11.5114,3.38232,0.0104032,0.00970012,-0.00811741,0.0181767,0.00192665,-0.763758,0.0115294,0.0319324,1945,1359,11.5114,-3.38235
728,-335,11.6104,3.19031,0.0151383,0.0138844,-0.0119309,0.0264588,0.00256394,-0.759149,0.0168497,0.0477065,1952,1359,11.6104,-3.19035
735,-335,11.6992,2.974,0,0,0,0,0,0,0,-1,1959,1359,11.6993,-2.97401
742,-335,12.6945,0.897095,0,0,0,0,0,0,0,-1,1966,1359,12.6945,-0.897094
749,-335,13.5551,0.429932,0,0,0,0,0,0,0,-1,1973,1359,13.555,-0.429871
756,-335,14.3458,0.0512695,0,0,0,0,0,0,0,-1,1980,1359,14.3458,-0.0513253
763,-335,0,0,0,0,0,0,0,0,0,-1,1987,1359,0,0
770,-335,0,0,0,0,0,0,0,0,0,-1,1994,1359,0,0
777,-335,0,0,0,0,0,0,0,0,0,-1,2001,1359,0,0
784,-335,0,0,0,0,0,0,0,0,0,-1,2008,1359,0,0
791,-335,0,0,0,0,0,0,0,0,0,-1,2015,1359,0,0
798,-335,0,0,0,0,0,0,0,0,0,-1,2022,1359,0,0
805,-335,0,0,0,0,0,0,0,0,0,-1,2029,1359,0,0
812,-335,0,0,0,0,0,0,0,0,0,-1,2036,1359,0,0
-700,-342,0,0,0,0,0,0,0,0,0,-1,524,1366,0,0
-693,-342,0,0,0,0,0,0,0,0,0,-1,531,1366,0,0
-686,-342,0,0,0,0,0,0,0,0,0,-1,538,1366,0,0
-679,-342,0,0,0,0,0,0,0,0,0,-1,545,1366,0,0
-672,-342,0,0,0,0,0,0,0,0,0,-1,552,1366,0,0
-665,-342,0,0,0,0,0,0,0,0,0,-1,559,1366,0,0
-658,-342,0,0,0,0,0,0,0,0,0,-1,566,1366,0,0
-651,-342,0,0,0,0,0,0,0,0,0,-1,573,1366,0,0
-644,-342,0,0,0,0,0,0,0,0,0,-1,580,1366,0,0
-637,-342,-3.75891,-0.756104,0,0,0,0,0,0,0,-1,587,1366,-3.7589,0.756129
-630,-342,-4.21991,-1.54736,0,0,0,0,0,0,0,-1,594,1366,-4.21989,1.54735
-623,-342,-4.5575,-1.60461,0,0,0,0,0,0,0,-1,601,1366,-4.5575,1.60457
-616,-342,-5.0556,-1.66772,0,0,0,0,0,0,0,-1,608,1366,-5.05563,1.66771
-609,-342,-4.51874,0.254028,0,0,0,0,0,0,0,-1,615,1366,-4.51875,-0.254025
-602,-342,-4.51495,0.775024,0,0,0,0,0,0,0,-1,622,1366,-4.51493,-0.775058
-595,-342,-4.61505,1.16602,0.00888506,0.011299,0.0123097,0.0224607,-0.00227667,0.834267,0.0157875,0.0403218,629,1366,-4.61503,-1.16601
-588,-342,-4.55762,1.56897,0.00674803,0.00931746,0.00870606,0.0168331,-0.000767593,0.858652,0.0114865,0.0404185,636,1366,-4.5576,-1.56901
-581,-342,-4.62738,1.69238,0.00516756,0.00714556,0.00591911,0.0121577,0.000155395,0.868177,0.00805385,0.0279159,643,1366,-4.62741,-1.69244
-574,-342,-4.64801,1.86047,0.00367294,0.00536947,0.00367921,0.00829693,0.000745469,0.898696,0.0053003,0.0100243,650,1366,-4.64801,-1.86045
-567,-342,-4.60956,2.0282,0.00233758,0.00379849,0.00197626,0.00517496,0.000961105,0.962418,0.00317842,0.0160642,657,1366,-4.60954,-2.02825
-560,-342,-4.58838,2.1991,0.00129573,0.00234141,0.000638009,0.00264345,0.000993698,1.12865,0.00154178,0.0238384,664,1366,-4.58836,-2.19906
-553,-342,-4.6026,2.36084,0.000820474,0.00137955,-0.000480969,0.00165632,0.000543711,-1.04864,0.000974896,0.0250029,671,1366,-4.60259,-2.36084
-546,-342,-4.5741,2.53723,0.00100071,-0.000180082,-0.00207302,0.00256577,-0.00174513,-0.64667,0.00250389,0.0233077,678,1366,-4.5741,-2.53718
-539,-342,-4.54895,2.72144,0.00122266,-0.00209219,-0.00368354,0.00360449,-0.00447402,-0.57399,0.00467312,0.0208984,685,1366,-4.54894,-2.7215
-532,-342,-4.58746,2.88354,0.00131107,-0.00419078,-0.00570216,0.00489119,-0.0077709,-0.560649,0.00737322,0.0171936,692,1366,-4.58749,-2.88357
-525,-342,-4.58234,3.05542,0.00183326,-0.00636598,-0.00831729,0.0070064,-0.0115391,-0.556421,0.0108133,0.0109561,699,1366,-4.58235,-3.05537
-518,-342,-4.57037,3.21912,0.00253302,-0.00912396,-0.0117481,0.009819,-0.0164099,-0.555128,0.0153018,0.0121083,706,1366,-4.57038,-3.21916
-511,-342,-4.60474,3.3595,0.00332477,-0.0129126,-0.0163357,0.013448,-0.0230358,-0.55478,0.021305,0.029939,713,1366,-4.60471,-3.35953
-504,-342,-5.12952,3.61438,0,0,0,0,0,0,0,-1,720,1366,-5.12951,-3.61436
-497,-342,-3.75842,2.6925,0,0,0,0,0,0,0,-1,727,1366,-3.7584,-2.69246
-490,-342,-3.17493,-3.4458,0,0,0,0,0,0,0,-1,734,1366,-3.17495,3.44576
-483,-342,-6.38617,2.56531,0,0,0,0,0,0,0,-1,741,1366,-6.38616,-2.56535
-476,-342,-6.6441,1.36523,0,0,0,0,0,0,0,-1,748,1366,-6.64413,-1.36526
-469,-342,-7.43567,0.94458,0,0,0,0,0,0,0,-1,755,1366,-7.43567,-0.944596
-462,-342,-8.15204,0.258057,0,0,0,0,0,0,0,-1,762,1366,-8.15207,-0.258112
-455,-342,-9.60529,0.157837,0,0,0,0,0,0,0,-1,769,1366,-9.60531,-0.157848
-448,-342,-10.4358,-0.313721,0,0,0,0,0,0,0,-1,776,1366,-10.4358,0.313683
-441,-342,0,0,0,0,0,0,0,0,0,-1,783,1366,0,0
-434,-342,0,0,0,0,0,0,0,0,0,-1,790,1366,0,0
-427,-342,0,0,0,0,0,0,0,0,0,-1,797,1366,0,0
-420,-342,0,0,0,0,0,0,0,0,0,-1,804,1366,0,0
-413,-342,0,0,0,0,0,0,0,0,0,-1,811,1366,0,0
-406,-342,0,0,0,0,0,0,0,0,0,-1,818,1366,0,0
-399,-342,0,0,0,0,0,0,0,0,0,-1,825,1366,0,0
-392,-342,0,0,0,0,0,0,0,0,0,-1,832,1366,0,0
-385,-342,0,0,0,0,0,0,0,0,0,-1,839,1366,0,0
-378,-342,0,0,0,0,0,0,0,0,0,-1,846,1366,0,0
-371,-342,0,0,0,0,0,0,0,0,0,-1,853,1366,0,0
-364,-342,0,0,0,0,0,0,0,0,0,-1,860,1366,0,0
-357,-342,0,0,0,0,0,0,0,0,0,-1,867,1366,0,0
-350,-342,0,0,0,0,0,0,0,0,0,-1,874,1366,0,0
-343,-342,0,0,0,0,0,0,0,0,0,-1,881,1366,0,0
-336,-342,0,0,0,0,0,0,0,0,0,-1,888,1366,0,0
-329,-342,0,0,0,0,0,0,0,0,0,-1,895,1366,0,0
-322,-342,0,0,0,0,0,0,0,0,0,-1,902,1366,0,0
-315,-342,0,0,0,0,0,0,0,0,0,-1,909,1366,0,0
-308,-342,0,0,0,0,0,0,0,0,0,-1,916,1366,0,0
-301,-342,0,0,0,0,0,0,0,0,0,-1,923,1366,0,0
-294,-342,0,0,0,0,0,0,0,0,0,-1,930,1366,0,0
-287,-342,0,0,0,0,0,0,0,0,0,-1,937,1366,0,0
-280,-342,0,0,0,0,0,0,0,0,0,-1,944,1366,0,0
-273,-342,0,0,0,0,0,0,0,0,0,-1,951,1366,0,0
-266,-342,0,0,0,0,0,0,0,0,0,-1,958,1366,0,0
-259,-342,0,0,0,0,0,0,0,0,0,-1,965,1366,0,0
-252,-342,0,0,0,0,0,0,0,0,0,-1,972,1366,0,0
-245,-342,0,0,0,0,0,0,0,0,0,-1,979,1366,0,0
-238,-342,0,0,0,0,0,0,0,0,0,-1,986,1366,0,0
-231,-342,0,0,0,0,0,0,0,0,0,-1,993,1366,0,0
-224,-342,0,0,0,0,0,0,0,0,0,-1,1000,1366,0,0
-217,-342,0,0,0,0,0,0,0,0,0,-1,1007,1366,0,0
-210,-342,0,0,0,0,0,0,0,0,0,-1,1014,1366,0,0
-203,-342,0,0,0,0,0,0,0,0,0,-1,1021,1366,0,0
-196,-342,0,0,0,0,0,0,0,0,0,-1,1028,1366,0,0
-189,-342,0,0,0,0,0,0,0,0,0,-1,1035,1366,0,0
-182,-342,0,0,0,0,0,0,0,0,0,-1,1042,1366,0,0
-175,-342,0,0,0,0,0,0,0,0,0,-1,1049,1366,0,0
-168,-342,0,0,0,0,0,0,0,0,0,-1,1056,1366,0,0
-161,-342,0,0,0,0,0,0,0,0,0,-1,1063,1366,0,0
-154,-342,0,0,0,0,0,0,0,0,0,-1,1070,1366,0,0
-147,-342,0,0,0,0,0,0,0,0,0,-1,1077,1366,0,0
-140,-342,0,0,0,0,0,0,0,0,0,-1,1084,1366,0,0
-133,-342,0,0,0,0,0,0,0,0,0,-1,1091,1366,0,0
-126,-342,0,0,0,0,0,0,0,0,0,-1,1098,1366,0,0
-119,-342,0,0,0,0,0,0,0,0,0,-1,1105,1366,0,0
-112,-342,0,0,0,0,0,0,0,0,0,-1,1112,1366,0,0
-105,-342,0,0,0,0,0,0,0,0,0,-1,1119,1366,0,0
-98,-342,0,0,0,0,0,0,0,0,0,-1,1126,1366,0,0
-91,-342,0,0,0,0,0,0,0,0,0,-1,1133,1366,0,0
-84,-342,0,0,0,0,0,0,0,0,0,-1,1140,1366,0,0
-77,-342,0,0,0,0,0,0,0,0,0,-1,1147,1366,0,0
-70,-342,0,0,0,0,0,0,0,0,0,-1,1154,1366,0,0
-63,-342,0,0,0,0,0,0,0,0,0,-1,1161,1366,0,0
-56,-342,0,0,0,0,0,0,0,0,0,-1,1168,1366,0,0
-49,-342,0,0,0,0,0,0,0,0,0,-1,1175,1366,0,0
-42,-342,0,0,0,0,0,0,0,0,0,-1,1182,1366,0,0
-35,-342,0,0,0,0,0,0,0,0,0,-1,1189,1366,0,0
-28,-342,0,0,0,0,0,0,0,0,0,-1,1196,1366,0,0
-21,-342,0,0,0,0,0,0,0,0,0,-1,1203,1366,0,0
-14,-342,0,0,0,0,0,0,0,0,0,-1,1210,1366,0,0
-7,-342,0,0,0,0,0,0,0,0,0,-1,1217,1366,0,0
0,-342,0,0,0,0,0,0,0,0,0,-1,1224,1366,0,0
7,-342,0,0,0,0,0,0,0,0,0,-1,1231,1366,0,0
14,-342,0,0,0,0,0,0,0,0,0,-1,1238,1366,0,0
21,-342,0,0,0,0,0,0,0,0,0,-1,1245,1366,0,0
28,-342,0,0,0,0,0,0,0,0,0,-1,1252,1366,0,0
35,-342,0,0,0,0,0,0,0,0,0,-1,1259,1366,0,0
42,-342,0,0,0,0,0,0,0,0,0,-1,1266,1366,0,0
49,-342,0,0,0,0,0,0,0,0,0,-1,1273,1366,0,0
56,-342,0,0,0,0,0,0,0,0,0,-1,1280,1366,0,0
63,-342,0,0,0,0,0,0,0,0,0,-1,1287,1366,0,0
70,-342,0,0,0,0,0,0,0,0,0,-1,1294,1366,0,0
77,-342,0,0,0,0,0,0,0,0,0,-1,1301,1366,0,0
84,-342,0,0,0,0,0,0,0,0,0,-1,1308,1366,0,0
91,-342,0,0,0,0,0,0,0,0,0,-1,1315,1366,0,0
98,-342,0,0,0,0,0,0,0,0,0,-1,1322,1366,0,0
105,-342,0,0,0,0,0,0,0,0,0,-1,1329,1366,0,0
112,-342,0,0,0,0,0,0,0,0,0,-1,1336,1366,0,0
119,-342,0,0,0,0,0,0,0,0,0,-1,1343,1366,0,0
126,-342,0,0,0,0,0,0,0,0,0,-1,1350,1366,0,0
133,-342,0,0,0,0,0,0,0,0,0,-1,1357,1366,0,0
140,-342,0,0,0,0,0,0,0,0,0,-1,1364,1366,0,0
147,-342,0,0,0,0,0,0,0,0,0,-1,1371,1366,0,0
154,-342,0,0,0,0,0,0,0,0,0,-1,1378,1366,0,0
161,-342,0,0,0,0,0,0,0,0,0,-1,1385,1366,0,0
168,-342,0,0,0,0,0,0,0,0,0,-1,1392,1366,0,0
175,-342,0,0,0,0,0,0,0,0,0,-1,1399,1366,0,0
182,-342,0,0,0,0,0,0,0,0,0,-1,1406,1366,0,0
189,-342,0,0,0,0,0,0,0,0,0,-1,1413,1366,0,0
196,-342,0,0,0,0,0,0,0,0,0,-1,1420,1366,0,0
203,-342,0,0,0,0,0,0,0,0,0,-1,1427,1366,0,0
210,-342,0,0,0,0,0,0,0,0,0,-1,1434,1366,0,0
217,-342,0,0,0,0,0,0,0,0,0,-1,1441,1366,0,0
224,-342,0,0,0,0,0,0,0,0,0,-1,1448,1366,0,0
231,-342,0,0,0,0,0,0,0,0,0,-1,1455,1366,0,0
238,-342,0,0,0,0,0,0,0,0,0,-1,1462,1366,0,0
245,-342,0,0,0,0,0,0,0,0,0,-1,1469,1366,0,0
252,-342,0,0,0,0,0,0,0,0,0,-1,1476,1366,0,0
259,-342,0,0,0,0,0,0,0,0,0,-1,1483,1366,0,0
266,-342,0,0,0,0,0,0,0,0,0,-1,1490,1366,0,0
273,-342,0,0,0,0,0,0,0,0,0,-1,1497,1366,0,0
280,-342,0,0,0,0,0,0,0,0,0,-1,1504,1366,0,0
287,-342,0,0,0,0,0,0,0,0,0,-1,1511,1366,0,0
294,-342,0,0,0,0,0,0,0,0,0,-1,1518,1366,0,0
301,-342,0,0,0,0,0,0,0,0,0,-1,1525,1366,0,0
308,-342,0,0,0,0,0,0,0,0,0,-1,1532,1366,0,0
315,-342,0,0,0,0,0,0,0,0,0,-1,1539,1366,0,0
322,-342,0,0,0,0,0,0,0,0,0,-1,1546,1366,0,0
329,-342,0,0,0,0,0,0,0,0,0,-1,1553,1366,0,0
336,-342,0,0,0,0,0,0,0,0,0,-1,1560,1366,0,0
343,-342,0,0,0,0,0,0,0,0,0,-1,1567,1366,0,0
350,-342,0,0,0,0,0,0,0,0,0,-1,1574,1366,0,0
357,-342,0,0,0,0,0,0,0,0,0,-1,1581,1366,0,0
364,-342,0,0,0,0,0,0,0,0,0,-1,1588,1366,0,0
371,-342,0,0,0,0,0,0,0,0,0,-1,1595,1366,0,0
378,-342,0,0,0,0,0,0,0,0,0,-1,1602,1366,0,0
385,-342,0,0,0,0,0,0,0,0,0,-1,1609,1366,0,0
392,-342,0,0,0,0,0,0,0,0,0,-1,1616,1366,0,0
399,-342,0,0,0,0,0,0,0,0,0,-1,1623,1366,0,0
406,-342,0,0,0,0,0,0,0,0,0,-1,1630,1366,0,0
413,-342,0,0,0,0,0,0,0,0,0,-1,1637,1366,0,0
420,-342,0,0,0,0,0,0,0,0,0,-1,1644,1366,0,0
427,-342,0,0,0,0,0,0,0,0,0,-1,1651,1366,0,0
434,-342,0,0,0,0,0,0,0,0,0,-1,1658,1366,0,0
441,-342,0,0,0,0,0,0,0,0,0,-1,1665,1366,0,0
448,-342,0,0,0,0,0,0,0,0,0,-1,1672,1366,0,0
455,-342,0,0,0,0,0,0,0,0,0,-1,1679,1366,0,0
462,-342,0,0,0,0,0,0,0,0,0,-1,1686,1366,0,0
469,-342,0,0,0,0,0,0,0,0,0,-1,1693,1366,0,0
476,-342,0,0,0,0,0,0,0,0,0,-1,1700,1366,0,0
483,-342,0,0,0,0,0,0,0,0,0,-1,1707,1366,0,0
490,-342,0,0,0,0,0,0,0,0,0,-1,1714,1366,0,0
497,-342,0,0,0,0,0,0,0,0,0,-1,1721,1366,0,0
504,-342,0,0,0,0,0,0,0,0,0,-1,1728,1366,0,0
511,-342,0,0,0,0,0,0,0,0,0,-1,1735,1366,0,0
518,-342,0,0,0,0,0,0,0,0,0,-1,1742,1366,0,0
525,-342,0,0,0,0,0,0,0,0,0,-1,1749,1366,0,0
532,-342,0,0,0,0,0,0,0,0,0,-1,1756,1366,0,0
539,-342,0,0,0,0,0,0,0,0,0,-1,1763,1366,0,0
546,-342,0,0,0,0,0,0,0,0,0,-1,1770,1366,0,0
553,-342,0,0,0,0,0,0,0,0,0,-1,1777,1366,0,0
560,-342,0,0,0,0,0,0,0,0,0,-1,1784,1366,0,0
567,-342,16.6254,4.47644,-0.0221369,0.012811,-0.00855839,0.0147943,-0.0241202,-1.34308,0.0226814,0.045047,1791,1366,16.6254,-4.47646
574,-342,16.4913,4.17249,-0.0204789,0.0142006,-0.00944884,0.016608,-0.0228863,-1.32133,0.0228978,0.0454142,1798,1366,16.4914,-4.17247
581,-342,15.3892,5.51172,0,0,0,0,0,0,0,-1,1805,1366,15.3891,-5.51175
588,-342,15.9556,3.75049,-0.0210524,0.0103032,-0.00852083,0.0124691,-0.0232183,-1.32188,0.0209133,0.0467297,1812,1366,15.9556,-3.75051
595,-342,16.199,2.66394,0,0,0,0,0,0,0,-1,1819,1366,16.199,-2.6639
602,-342,12.451,3.43945,0,0,0,0,0,0,0,-1,1826,1366,12.4511,-3.43944
609,-342,10.0757,4.06775,0,0,0,0,0,0,0,-1,1833,1366,10.0757,-4.06771
616,-342,13.0969,4.75574,0,0,0,0,0,0,0,-1,1840,1366,13.0969,-4.75579
623,-342,12.75,4.56506,0,0,0,0,0,0,0,-1,1847,1366,12.75,-4.56505
630,-342,12.2906,4.99084,0,0,0,0,0,0,0,-1,1854,1366,12.2907,-4.99089
637,-342,11.6521,5.00696,0,0,0,0,0,0,0,-1,1861,1366,11.6521,-5.00696
644,-342,11.4241,5.10352,-0.0143935,-0.00849811,0.00745087,-0.00343305,-0.0194586,0.97376,0.011993,0.035767,1868,1366,11.4241,-5.10347
651,-342,11.4182,4.93933,-0.0107027,-0.00721666,0.00725148,-0.00150166,-0.0164177,0.903344,0.0104805,0.0182226,1875,1366,11.4182,-4.93937
658,-342,11.4205,4.75269,-0.00756421,-0.00592136,0.0062504,-0.000438641,-0.0130469,0.850734,0.00855549,0.0193834,1882,1366,11.4205,-4.75269
665,-342,11.4414,4.57422,-0.00496428,-0.00462523,0.00491118,0.000119347,-0.00970886,0.80265,0.00651272,0.0167908,1889,1366,11.4414,-4.57418
672,-342,11.4521,4.45911,-0.00289824,-0.00368846,0.00338319,0.000112833,-0.00669953,0.727268,0.00450443,0.0126824,1896,1366,11.4522,-4.4591
679,-342,11.427,4.34863,-0.0015434,-0.0023919,0.00214702,0.000220884,-0.00415619,0.687855,0.00284728,0.0127284,1903,1366,11.427,-4.34864
686,-342,11.4424,4.20557,-0.000290802,-0.000998689,0.000964104,0.000382275,-0.00167177,0.609475,0.00126139,0.0106683,1910,1366,11.4424,-4.20562
693,-342,11.4401,4.02783,0.00115119,0.000192418,-9.72913e-05,0.00116096,0.000182645,-0.100115,0.000720847,0.0114102,1917,1366,11.4401,-4.02783
700,-342,11.4347,3.87219,0.00275715,0.001344,-0.00127579,0.00350896,0.000592196,-0.532507,0.00216903,0.0135132,1924,1366,11.4347,-3.87224
707,-342,11.4366,3.73596,0.00455206,0.00315257,-0.00258872,0.00653394,0.00117069,-0.6534,0.00402292,0.0131283,1931,1366,11.4366,-3.73601
714,-342,11.4355,3.58923,0.00712689,0.00548954,-0.00467583,0.0110552,0.00156126,-0.698733,0.00690875,0.0233805,1938,1366,11.4355,-3.58918
721,-342,11.3655,3.36462,0.0108571,0.00843798,-0.0073402,0.0170867,0.00220833,-0.703741,0.010731,0.0356577,1945,1366,11.3654,-3.36465
728,-342,11.5164,2.85815,0.0156928,0.0126974,-0.0111037,0.0253994,0.00299084,-0.718361,0.0160292,0.0491329,1952,1366,11.5163,-2.85812
735,-342,11.6215,2.57654,0,0,0,0,0,0,0,-1,1959,1366,11.6215,-2.57658
742,-342,11.6681,2.74048,0,0,0,0,0,0,0,-1,1966,1366,11.6681,-2.74049
749,-342,14.1036,-0.286133,0,0,0,0,0,0,0,-1,1973,1366,14.1037,0.286164
756,-342,0,0,0,0,0,0,0,0,0,-1,1980,1366,0,0
763,-342,0,0,0,0,0,0,0,0,0,-1,1987,1366,0,0
770,-342,0,0,0,0,0,0,0,0,0,-1,1994,1366,0,0
777,-342,0,0,0,0,0,0,0,0,0,-1,2001,1366,0,0
784,-342,0,0,0,0,0,0,0,0,0,-1,2008,1366,0,0
791,-342,0,0,0,0,0,0,0,0,0,-1,2015,1366,0,0
798,-342,0,0,0,0,0,0,0,0,0,-1,2022,1366,0,0
805,-342,0,0,0,0,0,0,0,0,0,-1,2029,1366,0,0
812,-342,0,0,0,0,0,0,0,0,0,-1,2036,1366,0,0
-700,-349,0,0,0,0,0,0,0,0,0,-1,524,1373,0,0
-693,-349,0,0,0,0,0,0,0,0,0,-1,531,1373,0,0
-686,-349,0,0,0,0,0,0,0,0,0,-1,538,1373,0,0
-679,-349,0,0,0,0,0,0,0,0,0,-1,545,1373,0,0
-672,-349,0,0,0,0,0,0,0,0,0,-1,552,1373,0,0
-665,-349,0,0,0,0,0,0,0,0,0,-1,559,1373,0,0
-658,-349,0,0,0,0,0,0,0,0,0,-1,566,1373,0,0
-651,-349,0,0,0,0,0,0,0,0,0,-1,573,1373,0,0
-644,-349,0,0,0,0,0,0,0,0,0,-1,580,1373,0,0
-637,-349,0,0,0,0,0,0,0,0,0,-1,587,1373,0,0
-630,-349,-5.16406,-3.00012,0,0,0,0,0,0,0,-1,594,1373,-5.16406,3.00016
-623,-349,-4.38342,-3.62842,0,0,0,0,0,0,0,-1,601,1373,-4.3834,3.62839
-616,-349,-4.78833,-0.219849,0,0,0,0,0,0,0,-1,608,1373,-4.7883,0.219836
-609,-349,-4.69763,0.0413818,0,0,0,0,0,0,0,-1,615,1373,-4.69761,-0.0414264
-602,-349,-4.71429,0.5354,0.0172471,0.0201712,0.0200508,0.0388132,-0.00139484,0.821793,0.0263527,0.0454674,622,1373,-4.71431,-0.53537
-595,-349,-4.6947,0.943359,0.0133618,0.0162521,0.014497,0.0293757,0.000238079,0.835077,0.019505,0.0437038,629,1373,-4.69472,-0.943393
-588,-349,-4.48364,1.50916,0.00991579,0.0127518,0.0100571,0.0214904,0.00117724,0.855435,0.0139511,0.0419789,636,1373,-4.48363,-1.50921
-581,-349,-4.35059,1.80493,0.00734133,0.00959723,0.00667383,0.0152378,0.00170081,0.869112,0.0096417,0.034233,643,1373,-4.35057,-1.80497
-574,-349,-4.43707,1.81555,0.00505999,0.00705112,0.00411531,0.0102896,0.00182154,0.904077,0.00634037,0.0168746,650,1373,-4.43706,-1.81554
-567,-349,-4.44867,2.0249,0.00319013,0.00494491,0.0022624,0.00649409,0.00164095,0.970377,0.00389926,0.0164877,657,1373,-4.44865,-2.02485
-560,-349,-4.43335,2.2063,0.00173652,0.00312348,0.000953074,0.00360867,0.00125133,1.09991,0.00211583,0.0200034,664,1373,-4.43335,-2.20625
-553,-349,-4.4068,2.32983,0.000871759,0.00192896,-3.42277e-05,0.00193007,0.000870652,-1.53847,0.0011161,0.0243138,671,1373,-4.40678,-2.32982
-546,-349,-4.40265,2.53406,0.00058555,0.00027039,-0.00137443,0.00181141,-0.000955466,-0.728322,0.00162273,0.0255101,678,1373,-4.40266,-2.53405
-539,-349,-4.42706,2.71899,0.00039835,-0.0016839,-0.00267093,0.0022239,-0.00350945,-0.599558,0.00333777,0.0205086,685,1373,-4.42705,-2.71899
-532,-349,-4.43768,2.87585,-3.8757e-05,-0.00389826,-0.00421671,0.00266879,-0.00660581,-0.570802,0.00551316,0.0160132,692,1373,-4.43769,-2.87582
-525,-349,-4.43298,3.06299,-0.000109518,-0.00610516,-0.00615842,0.00374197,-0.00995666,-0.558889,0.00817571,0.0122139,699,1373,-4.43296,-3.06301
-518,-349,-4.4295,3.23254,-0.000255705,-0.0088696,-0.00863076,0.00508306,-0.0142084,-0.553965,0.0115458,0.0118134,706,1373,-4.42951,-3.23255
-511,-349,-4.36169,3.41467,-0.000591597,-0.0127691,-0.0120341,0.00680644,-0.0201671,-0.551197,0.0161975,0.0248698,713,1373,-4.36168,-3.41473
-504,-349,-4.08057,3.255,0,0,0,0,0,0,0,-1,720,1373,-4.08054,-3.25501
-497,-349,-3.83173,2.75159,0,0,0,0,0,0,0,-1,727,1373,-3.83175,-2.75163
-490,-349,-3.58295,2.24829,0,0,0,0,0,0,0,-1,734,1373,-3.58296,-2.24825
-483,-349,-3.14178,1.62,0,0,0,0,0,0,0,-1,741,1373,-3.14179,-1.61998
-476,-349,-6.00275,0.943237,0,0,0,0,0,0,0,-1,748,1373,-6.00275,-0.943188
-469,-349,-6.43036,0.574707,0,0,0,0,0,0,0,-1,755,1373,-6.43036,-0.574743
-462,-349,-8.49884,0.358276,0,0,0,0,0,0,0,-1,762,1373,-8.49881,-0.358227
-455,-349,-9.43335,-0.465576,0,0,0,0,0,0,0,-1,769,1373,-9.43337,0.465541
-448,-349,-10.1943,-0.954468,0,0,0,0,0,0,0,-1,776,1373,-10.1943,0.954509
-441,-349,0,0,0,0,0,0,0,0,0,-1,783,1373,0,0
-434,-349,0,0,0,0,0,0,0,0,0,-1,790,1373,0,0
-427,-349,0,0,0,0,0,0,0,0,0,-1,797,1373,0,0
-420,-349,0,0,0,0,0,0,0,0,0,-1,804,1373,0,0
-413,-349,0,0,0,0,0,0,0,0,0,-1,811,1373,0,0
-406,-349,0,0,0,0,0,0,0,0,0,-1,818,1373,0,0
-399,-349,0,0,0,0,0,0,0,0,0,-1,825,1373,0,0
-392,-349,0,0,0,0,0,0,0,0,0,-1,832,1373,0,0
-385,-349,0,0,0,0,0,0,0,0,0,-1,839,1373,0,0
-378,-349,0,0,0,0,0,0,0,0,0,-1,846,1373,0,0
-371,-349,0,0,0,0,0,0,0,0,0,-1,853,1373,0,0
-364,-349,0,0,0,0,0,0,0,0,0,-1,860,1373,0,0
-357,-349,0,0,0,0,0,0,0,0,0,-1,867,1373,0,0
-350,-349,0,0,0,0,0,0,0,0,0,-1,874,1373,0,0
-343,-349,0,0,0,0,0,0,0,0,0,-1,881,1373,0,0
-336,-349,0,0,0,0,0,0,0,0,0,-1,888,1373,0,0
-329,-349,0,0,0,0,0,0,0,0,0,-1,895,1373,0,0
-322,-349,0,0,0,0,0,0,0,0,0,-1,902,1373,0,0
-315,-349,0,0,0,0,0,0,0,0,0,-1,909,1373,0,0
-308,-349,0,0,0,0,0,0,0,0,0,-1,916,1373,0,0
-301,-349,0,0,0,0,0,0,0,0,0,-1,923,1373,0,0
-294,-349,0,0,0,0,0,0,0,0,0,-1,930,1373,0,0
-287,-349,0,0,0,0,0,0,0,0,0,-1,937,1373,0,0
-280,-349,0,0,0,0,0,0,0,0,0,-1,944,1373,0,0
-273,-349,0,0,0,0,0,0,0,0,0,-1,951,1373,0,0
-266,-349,0,0,0,0,0,0,0,0,0,-1,958,1373,0,0
-259,-349,0,0,0,0,0,0,0,0,0,-1,965,1373,0,0
-252,-349,0,0,0,0,0,0,0,0,0,-1,972,1373,0,0
-245,-349,0,0,0,0,0,0,0,0,0,-1,979,1373,0,0
-238,-349,0,0,0,0,0,0,0,0,0,-1,986,1373,0,0
-231,-349,0,0,0,0,0,0,0,0,0,-1,993,1373,0,0
-224,-349,0,0,0,0,0,0,0,0,0,-1,1000,1373,0,0
-217,-349,0,0,0,0,0,0,0,0,0,-1,1007,1373,0,0
-210,-349,0,0,0,0,0,0,0,0,0,-1,1014,1373,0,0
-203,-349,0,0,0,0,0,0,0,0,0,-1,1021,1373,0,0
-196,-349,0,0,0,0,0,0,0,0,0,-1,1028,1373,0,0
-189,-349,0,0,0,0,0,0,0,0,0,-1,1035,1373,0,0
-182,-349,0,0,0,0,0,0,0,0,0,-1,1042,1373,0,0
-175,-349,0,0,0,0,0,0,0,0,0,-1,1049,1373,0,0
-168,-349,0,0,0,0,0,0,0,0,0,-1,1056,1373,0,0
-161,-349,0,0,0,0,0,0,0,0,0,-1,1063,1373,0,0
-154,-349,0,0,0,0,0,0,0,0,0,-1,1070,1373,0,0
-147,-349,0,0,0,0,0,0,0,0,0,-1,1077,1373,0,0
-140,-349,0,0,0,0,0,0,0,0,0,-1,1084,1373,0,0
-133,-349,0,0,0,0,0,0,0,0,0,-1,1091,1373,0,0
-126,-349,0,0,0,0,0,0,0,0,0,-1,1098,1373,0,0
-119,-349,0,0,0,0,0,0,0,0,0,-1,1105,1373,0,0
-112,-349,0,0,0,0,0,0,0,0,0,-1,1112,1373,0,0
-105,-349,0,0,0,0,0,0,0,0,0,-1,1119,1373,0,0
-98,-349,0,0,0,0,0,0,0,0,0,-1,1126,1373,0,0
-91,-349,0,0,0,0,0,0,0,0,0,-1,1133,1373,0,0
-84,-349,0,0,0,0,0,0,0,0,0,-1,1140,1373,0,0
-77,-349,0,0,0,0,0,0,0,0,0,-1,1147,1373,0,0
-70,-349,0,0,0,0,0,0,0,0,0,-1,1154,1373,0,0
-63,-349,0,0,0,0,0,0,0,0,0,-1,1161,1373,0,0
-56,-349,0,0,0,0,0,0,0,0,0,-1,1168,1373,0,0
-49,-349,0,0,0,0,0,0,0,0,0,-1,1175,1373,0,0
-42,-349,0,0,0,0,0,0,0,0,0,-1,1182,1373,0,0
-35,-349,0,0,0,0,0,0,0,0,0,-1,1189,1373,0,0
-28,-349,0,0,0,0,0,0,0,0,0,-1,1196,1373,0,0
-21,-349,0,0,0,0,0,0,0,0,0,-1,1203,1373,0,0
-14,-349,0,0,0,0,0,0,0,0,0,-1,1210,1373,0,0
-7,-349,0,0,0,0,0,0,0,0,0,-1,1217,1373,0,0
0,-349,0,0,0,0,0,0,0,0,0,-1,1224,1373,0,0
7,-349,0,0,0,0,0,0,0,0,0,-1,1231,1373,0,0
14,-349,0,0,0,0,0,0,0,0,0,-1,1238,1373,0,0
21,-349,0,0,0,0,0,0,0,0,0,-1,1245,1373,0,0
28,-349,0,0,0,0,0,0,0,0,0,-1,1252,1373,0,0
35,-349,0,0,0,0,0,0,0,0,0,-1,1259,1373,0,0
42,-349,0,0,0,0,0,0,0,0,0,-1,1266,1373,0,0
49,-349,0,0,0,0,0,0,0,0,0,-1,1273,1373,0,0
56,-349,0,0,0,0,0,0,0,0,0,-1,1280,1373,0,0
63,-349,0,0,0,0,0,0,0,0,0,-1,1287,1373,0,0
70,-349,0,0,0,0,0,0,0,0,0,-1,1294,1373,0,0
77,-349,0,0,0,0,0,0,0,0,0,-1,1301,1373,0,0
84,-349,0,0,0,0,0,0,0,0,0,-1,1308,1373,0,0
91,-349,0,0,0,0,0,0,0,0,0,-1,1315,1373,0,0
98,-349,0,0,0,0,0,0,0,0,0,-1,1322,1373,0,0
105,-349,0,0,0,0,0,0,0,0,0,-1,1329,1373,0,0
112,-349,0,0,0,0,0,0,0,0,0,-1,1336,1373,0,0
119,-349,0,0,0,0,0,0,0,0,0,-1,1343,1373,0,0
126,-349,0,0,0,0,0,0,0,0,0,-1,1350,1373,0,0
133,-349,0,0,0,0,0,0,0,0,0,-1,1357,1373,0,0
140,-349,0,0,0,0,0,0,0,0,0,-1,1364,1373,0,0
147,-349,0,0,0,0,0,0,0,0,0,-1,1371,1373,0,0
154,-349,0,0,0,0,0,0,0,0,0,-1,1378,1373,0,0
161,-349,0,0,0,0,0,0,0,0,0,-1,1385,1373,0,0
168,-349,0,0,0,0,0,0,0,0,0,-1,1392,1373,0,0
175,-349,0,0,0,0,0,0,0,0,0,-1,1399,1373,0,0
182,-349,0,0,0,0,0,0,0,0,0,-1,1406,1373,0,0
189,-349,0,0,0,0,0,0,0,0,0,-1,1413,1373,0,0
196,-349,0,0,0,0,0,0,0,0,0,-1,1420,1373,0,0
203,-349,0,0,0,0,0,0,0,0,0,-1,1427,1373,0,0
210,-349,0,0,0,0,0,0,0,0,0,-1,1434,1373,0,0
217,-349,0,0,0,0,0,0,0,0,0,-1,1441,1373,0,0
224,-349,0,0,0,0,0,0,0,0,0,-1,1448,1373,0,0
231,-349,0,0,0,0,0,0,0,0,0,-1,1455,1373,0,0
238,-349,0,0,0,0,0,0,0,0,0,-1,1462,1373,0,0
245,-349,0,0,0,0,0,0,0,0,0,-1,1469,1373,0,0
252,-349,0,0,0,0,0,0,0,0,0,-1,1476,1373,0,0
259,-349,0,0,0,0,0,0,0,0,0,-1,1483,1373,0,0
266,-349,0,0,0,0,0,0,0,0,0,-1,1490,1373,0,0
273,-349,0,0,0,0,0,0,0,0,0,-1,1497,1373,0,0
280,-349,0,0,0,0,0,0,0,0,0,-1,1504,1373,0,0
287,-349,0,0,0,0,0,0,0,0,0,-1,1511,1373,0,0
294,-349,0,0,0,0,0,0,0,0,0,-1,1518,1373,0,0
301,-349,0,0,0,0,0,0,0,0,0,-1,1525,1373,0,0
308,-349,0,0,0,0,0,0,0,0,0,-1,1532,1373,0,0
315,-349,0,0,0,0,0,0,0,0,0,-1,1539,1373,0,0
322,-349,0,0,0,0,0,0,0,0,0,-1,1546,1373,0,0
329,-349,0,0,0,0,0,0,0,0,0,-1,1553,1373,0,0
336,-349,0,0,0,0,0,0,0,0,0,-1,1560,1373,0,0
343,-349,0,0,0,0,0,0,0,0,0,-1,1567,1373,0,0
350,-349,0,0,0,0,0,0,0,0,0,-1,1574,1373,0,0
357,-349,0,0,0,0,0,0,0,0,0,-1,1581,1373,0,0
364,-349,0,0,0,0,0,0,0,0,0,-1,1588,1373,0,0
371,-349,0,0,0,0,0,0,0,0,0,-1,1595,1373,0,0
378,-349,0,0,0,0,0,0,0,0,0,-1,1602,1373,0,0
385,-349,0,0,0,0,0,0,0,0,0,-1,1609,1373,0,0
392,-349,0,0,0,0,0,0,0,0,0,-1,1616,1373,0,0
399,-349,0,0,0,0,0,0,0,0,0,-1,1623,1373,0,0
406,-349,0,0,0,0,0,0,0,0,0,-1,1630,1373,0,0
413,-349,0,0,0,0,0,0,0,0,0,-1,1637,1373,0,0
420,-349,0,0,0,0,0,0,0,0,0,-1,1644,1373,0,0
427,-349,0,0,0,0,0,0,0,0,0,-1,1651,1373,0,0
434,-349,0,0,0,0,0,0,0,0,0,-1,1658,1373,0,0
441,-349,0,0,0,0,0,0,0,0,0,-1,1665,1373,0,0
448,-349,0,0,0,0,0,0,0,0,0,-1,1672,1373,0,0
455,-349,0,0,0,0,0,0,0,0,0,-1,1679,1373,0,0
462,-349,0,0,0,0,0,0,0,0,0,-1,1686,1373,0,0
469,-349,0,0,0,0,0,0,0,0,0,-1,1693,1373,0,0
476,-349,0,0,0,0,0,0,0,0,0,-1,1700,1373,0,0
483,-349,0,0,0,0,0,0,0,0,0,-1,1707,1373,0,0
490,-349,0,0,0,0,0,0,0,0,0,-1,1714,1373,0,0
497,-349,0,0,0,0,0,0,0,0,0,-1,1721,1373,0,0
504,-349,0,0,0,0,0,0,0,0,0,-1,1728,1373,0,0
511,-349,0,0,0,0,0,0,0,0,0,-1,1735,1373,0,0
518,-349,0,0,0,0,0,0,0,0,0,-1,1742,1373,0,0
525,-349,0,0,0,0,0,0,0,0,0,-1,1749,1373,0,0
532,-349,0,0,0,0,0,0,0,0,0,-1,1756,1373,0,0
539,-349,0,0,0,0,0,0,0,0,0,-1,1763,1373,0,0
546,-349,0,0,0,0,0,0,0,0,0,-1,1770,1373,0,0
553,-349,0,0,0,0,0,0,0,0,0,-1,1777,1373,0,0
560,-349,15.4827,4.43884,0,0,0,0,0,0,0,-1,1784,1373,15.4827,-4.4389
567,-349,15.8235,4.21985,-0.0243317,0.0162507,-0.00428147,0.0166975,-0.0247784,-1.46682,0.0240972,0.0457347,1791,1373,15.8235,-4.2199
574,-349,15.8964,4.01733,-0.0225764,0.0170262,-0.00412086,0.0174505,-0.0230007,-1.46821,0.0234277,0.0446533,1798,1373,15.8964,-4.01731
581,-349,15.7334,3.66711,-0.0218987,0.0153027,-0.00405539,0.0157397,-0.0223357,-1.46346,0.0220925,0.0424155,1805,1373,15.7334,-3.66715
588,-349,15.7129,3.23071,-0.021733,0.0118097,-0.00324659,0.012121,-0.0220444,-1.47519,0.0200008,0.0427162,1812,1373,15.7129,-3.2307
595,-349,12.4231,3.32495,0,0,0,0,0,0,0,-1,1819,1373,12.4231,-3.32493
602,-349,12.5826,3.36072,0,0,0,0,0,0,0,-1,1826,1373,12.5826,-3.36073
609,-349,12.9309,3.979,0,0,0,0,0,0,0,-1,1833,1373,12.9309,-3.97896
616,-349,12.7122,4.08093,-0.0182854,-0.000507206,0.0016369,-0.000357748,-0.0184349,1.47974,0.0121724,0.0393319,1840,1373,12.7121,-4.08092
623,-349,12.5038,4.28955,0,0,0,0,0,0,0,-1,1847,1373,12.5037,-4.28955
630,-349,12.12,3.89624,0,0,0,0,0,0,0,-1,1854,1373,12.12,-3.89627
637,-349,11.4651,4.81396,-0.0151057,-0.00619322,0.00574088,-0.00338201,-0.0179169,1.11544,0.0109921,0.0446739,1861,1373,11.4651,-4.81392
644,-349,11.2173,5.12,-0.0134509,-0.00840638,0.00832172,-0.00223306,-0.0196242,0.932543,0.0124056,0.034797,1868,1373,11.2173,-5.12004
651,-349,11.3278,4.90491,-0.00968035,-0.0069926,0.0073509,-0.000863743,-0.0158092,0.875809,0.0102637,0.0203677,1875,1373,11.3278,-4.90492
658,-349,11.281,4.7356,-0.00662158,-0.00565843,0.00595898,-0.000161598,-0.0121184,0.825718,0.00802562,0.0245987,1882,1373,11.281,-4.7356
665,-349,11.2992,4.58508,-0.0041072,-0.00434256,0.00451147,0.000288122,-0.00873788,0.772359,0.00592363,0.0195796,1889,1373,11.2992,-4.58514
672,-349,11.2852,4.45947,-0.00216137,-0.00352159,0.00302267,0.000256762,-0.00593972,0.67474,0.00404812,0.0137843,1896,1373,11.2852,-4.4595
679,-349,11.2585,4.35095,-0.000809389,-0.00245071,0.001914,0.000452469,-0.00371257,0.58287,0.00263883,0.0134947,1903,1373,11.2586,-4.35093
686,-349,11.2908,4.20569,0.000379338,-0.00132959,0.000914777,0.000776644,-0.00172689,0.409738,0.00147972,0.0116211,1910,1373,11.2908,-4.20573
693,-349,11.2922,4.02856,0.00167775,-0.000489258,9.24083e-05,0.00168168,-0.000493191,0.0425404,0.00131667,0.0140929,1917,1373,11.2923,-4.02859
700,-349,11.2938,3.87268,0.00313143,0.000321314,-0.000797264,0.00334187,0.000110879,-0.258061,0.00219189,0.0166491,1924,1373,11.2938,-3.87267
707,-349,11.3173,3.73401,0.00483216,0.00179066,-0.00186514,0.00571795,0.000904867,-0.443382,0.00354901,0.0186855,1931,1373,11.3173,-3.73403
714,-349,11.2986,3.62085,0.00720076,0.00388794,-0.00367622,0.00957651,0.0015122,-0.573732,0.00594473,0.0236888,1938,1373,11.2986,-3.62081
721,-349,11.2139,3.41016,0.010704,0.00679546,-0.00612948,0.0151832,0.00231623,-0.631078,0.00944519,0.0391512,1945,1373,11.2138,-3.4102
728,-349,11.2247,3.15833,0,0,0,0,0,0,0,-1,1952,1373,11.2247,-3.15831
735,-349,11.678,3.04114,0,0,0,0,0,0,0,-1,1959,1373,11.6779,-3.04113
742,-349,11.7262,2.67896,0,0,0,0,0,0,0,-1,1966,1373,11.7262,-2.679
749,-349,11.9012,2.57483,0,0,0,0,0,0,0,-1,1973,1373,11.9013,-2.57481
756,-349,0,0,0,0,0,0,0,0,0,-1,1980,1373,0,0
763,-349,0,0,0,0,0,0,0,0,0,-1,1987,1373,0,0
770,-349,0,0,0,0,0,0,0,0,0,-1,1994,1373,0,0
777,-349,0,0,0,0,0,0,0,0,0,-1,2001,1373,0,0
784,-349,0,0,0,0,0,0,0,0,0,-1,2008,1373,0,0
791,-349,0,0,0,0,0,0,0,0,0,-1,2015,1373,0,0
798,-349,0,0,0,0,0,0,0,0,0,-1,2022,1373,0,0
805,-349,0,0,0,0,0,0,0,0,0,-1,2029,1373,0,0
812,-349,0,0,0,0,0,0,0,0,0,-1,2036,1373,0,0
-700,-356,0,0,0,0,0,0,0,0,0,-1,524,1380,0,0
-693,-356,0,0,0,0,0,0,0,0,0,-1,531,1380,0,0
-686,-356,0,0,0,0,0,0,0,0,0,-1,538,1380,0,0
-679,-356,0,0,0,0,0,0,0,0,0,-1,545,1380,0,0
-672,-356,0,0,0,0,0,0,0,0,0,-1,552,1380,0,0
-665,-356,0,0,0,0,0,0,0,0,0,-1,559,1380,0,0
-658,-356,0,0,0,0,0,0,0,0,0,-1,566,1380,0,0
-651,-356,0,0,0,0,0,0,0,0,0,-1,573,1380,0,0
-644,-356,0,0,0,0,0,0,0,0,0,-1,580,1380,0,0
-637,-356,0,0,0,0,0,0,0,0,0,-1,587,1380,0,0
-630,-356,-5.27063,-5.19885,0,0,0,0,0,0,0,-1,594,1380,-5.2706,5.19882
-623,-356,-5.27997,-4.25562,0,0,0,0,0,0,0,-1,601,1380,-5.27998,4.25563
-616,-356,-4.31866,-2.54053,0,0,0,0,0,0,0,-1,608,1380,-4.31864,2.54052
-609,-356,-4.87646,-0.171143,0,0,0,0,0,0,0,-1,615,1380,-4.87647,0.171172
-602,-356,-4.82983,0.352783,0.0259291,0.0263169,0.0225084,0.0486322,0.0036138,0.789705,0.0312865,0.0480629,622,1380,-4.82986,-0.352751
-595,-356,-4.82703,0.552856,0.0199653,0.0210223,0.0160642,0.0365667,0.00442094,0.801842,0.0230459,0.045222,629,1380,-4.82704,-0.552917
-588,-356,-4.37469,1.59302,0.0148075,0.0162452,0.0109655,0.0265154,0.00453725,0.818129,0.0163754,0.0431412,636,1380,-4.37469,-1.59303
-581,-356,-4.11133,1.85828,0.0108539,0.0120568,0.00713095,0.0186116,0.00429907,0.82747,0.0112519,0.0360285,643,1380,-4.11133,-1.85826
-574,-356,-4.15973,1.86438,0.00753954,0.00867784,0.00432836,0.0124743,0.00374307,0.85077,0.0073915,0.0236901,650,1380,-4.15975,-1.86436
-567,-356,-4.27551,1.98755,0.00496755,0.00597096,0.00234994,0.00787215,0.00306636,0.890568,0.00458182,0.0156745,657,1380,-4.27551,-1.98757
-560,-356,-4.26294,2.20618,0.00302491,0.0037564,0.00105616,0.00450835,0.00227296,0.952082,0.00260293,0.01699,664,1380,-4.26295,-2.20616
-553,-356,-4.25269,2.34485,0.00174349,0.00231244,0.000179897,0.00236455,0.00169138,1.28885,0.00140673,0.019908,671,1380,-4.25266,-2.3448
-546,-356,-4.26605,2.50244,0.0010057,0.000582243,-0.000932095,0.00174981,-0.000161869,-0.673717,0.00122407,0.0225241,678,1380,-4.26602,-2.50245
-539,-356,-4.28394,2.70117,0.000425289,-0.00138884,-0.00193545,0.00165568,-0.00261924,-0.566268,0.00248894,0.0155052,685,1380,-4.28394,-2.70111
-532,-356,-4.2887,2.87317,-0.000493104,-0.00370764,-0.00305868,0.00135489,-0.00555564,-0.543488,0.00422838,0.014465,692,1380,-4.28867,-2.87312
-525,-356,-4.28021,3.04285,-0.00103108,-0.00591051,-0.00444149,0.00159665,-0.00853825,-0.534245,0.00629227,0.0120612,699,1380,-4.28023,-3.04284
-518,-356,-4.24951,3.23706,-0.0018084,-0.00858661,-0.00614964,0.00182419,-0.0122192,-0.533552,0.00881732,0.0116815,706,1380,-4.24951,-3.23707
-511,-356,-4.17517,3.42371,-0.00296656,-0.0123873,-0.00856293,0.00209606,-0.0174499,-0.533943,0.0123912,0.0188817,713,1380,-4.17517,-3.42372
-504,-356,-4.18066,3.44556,-0.0046756,-0.0175368,-0.0116834,0.00222997,-0.0244424,-0.53382,0.0170868,0.0392236,720,1380,-4.18068,-3.44553
-497,-356,-3.86011,2.98816,-0.00710396,-0.0241539,-0.0157284,0.00226119,-0.033519,-0.537053,0.0231366,0.0451426,727,1380,-3.86013,-2.98813
-490,-356,-3.57172,2.64722,-0.0106106,-0.032564,-0.0205887,0.00174472,-0.0449193,-0.540494,0.0305444,0.0464763,734,1380,-3.57174,-2.64722
-483,-356,-3.40875,2.20886,0,0,0,0,0,0,0,-1,741,1380,-3.40874,-2.20891
-476,-356,-4.53961,2.73584,0,0,0,0,0,0,0,-1,748,1380,-4.53958,-2.73584
-469,-356,-7.52393,1.63672,0,0,0,0,0,0,0,-1,755,1380,-7.52395,-1.63668
-462,-356,-8.11835,0.0981445,0,0,0,0,0,0,0,-1,762,1380,-8.11838,-0.098133
-455,-356,-9.09387,-1.05994,0,0,0,0,0,0,0,-1,769,1380,-9.09389,1.05992
-448,-356,-9.80743,-1.75134,0,0,0,0,0,0,0,-1,776,1380,-9.80743,1.7514
-441,-356,-10.6353,-2.24585,0,0,0,0,0,0,0,-1,783,1380,-10.6353,2.24582
-434,-356,0,0,0,0,0,0,0,0,0,-1,790,1380,0,0
-427,-356,0,0,0,0,0,0,0,0,0,-1,797,1380,0,0
-420,-356,0,0,0,0,0,0,0,0,0,-1,804,1380,0,0
-413,-356,0,0,0,0,0,0,0,0,0,-1,811,1380,0,0
-406,-356,0,0,0,0,0,0,0,0,0,-1,818,1380,0,0
-399,-356,0,0,0,0,0,0,0,0,0,-1,825,1380,0,0
-392,-356,0,0,0,0,0,0,0,0,0,-1,832,1380,0,0
-385,-356,0,0,0,0,0,0,0,0,0,-1,839,1380,0,0
-378,-356,0,0,0,0,0,0,0,0,0,-1,846,1380,0,0
-371,-356,0,0,0,0,0,0,0,0,0,-1,853,1380,0,0
-364,-356,0,0,0,0,0,0,0,0,0,-1,860,1380,0,0
-357,-356,0,0,0,0,0,0,0,0,0,-1,867,1380,0,0
-350,-356,0,0,0,0,0,0,0,0,0,-1,874,1380,0,0
-343,-356,0,0,0,0,0,0,0,0,0,-1,881,1380,0,0
-336,-356,0,0,0,0,0,0,0,0,0,-1,888,1380,0,0
-329,-356,0,0,0,0,0,0,0,0,0,-1,895,1380,0,0
-322,-356,0,0,0,0,0,0,0,0,0,-1,902,1380,0,0
-315,-356,0,0,0,0,0,0,0,0,0,-1,909,1380,0,0
-308,-356,0,0,0,0,0,0,0,0,0,-1,916,1380,0,0
-301,-356,0,0,0,0,0,0,0,0,0,-1,923,1380,0,0
-294,-356,0,0,0,0,0,0,0,0,0,-1,930,1380,0,0
-287,-356,0,0,0,0,0,0,0,0,0,-1,937,1380,0,0
-280,-356,0,0,0,0,0,0,0,0,0,-1,944,1380,0,0
-273,-356,0,0,0,0,0,0,0,0,0,-1,951,1380,0,0
-266,-356,0,0,0,0,0,0,0,0,0,-1,958,1380,0,0
-259,-356,0,0,0,0,0,0,0,0,0,-1,965,1380,0,0
-252,-356,0,0,0,0,0,0,0,0,0,-1,972,1380,0,0
-245,-356,0,0,0,0,0,0,0,0,0,-1,979,1380,0,0
-238,-356,0,0,0,0,0,0,0,0,0,-1,986,1380,0,0
-231,-356,0,0,0,0,0,0,0,0,0,-1,993,1380,0,0
-224,-356,0,0,0,0,0,0,0,0,0,-1,1000,1380,0,0
-217,-356,0,0,0,0,0,0,0,0,0,-1,1007,1380,0,0
-210,-356,0,0,0,0,0,0,0,0,0,-1,1014,1380,0,0
-203,-356,0,0,0,0,0,0,0,0,0,-1,1021,1380,0,0
-196,-356,0,0,0,0,0,0,0,0,0,-1,1028,1380,0,0
-189,-356,0,0,0,0,0,0,0,0,0,-1,1035,1380,0,0
-182,-356,0,0,0,0,0,0,0,0,0,-1,1042,1380,0,0
-175,-356,0,0,0,0,0,0,0,0,0,-1,1049,1380,0,0
-168,-356,0,0,0,0,0,0,0,0,0,-1,1056,1380,0,0
-161,-356,0,0,0,0,0,0,0,0,0,-1,1063,1380,0,0
-154,-356,0,0,0,0,0,0,0,0,0,-1,1070,1380,0,0
-147,-356,0,0,0,0,0,0,0,0,0,-1,1077,1380,0,0
-140,-356,0,0,0,0,0,0,0,0,0,-1,1084,1380,0,0
-133,-356,0,0,0,0,0,0,0,0,0,-1,1091,1380,0,0
-126,-356,0,0,0,0,0,0,0,0,0,-1,1098,1380,0,0
-119,-356,0,0,0,0,0,0,0,0,0,-1,1105,1380,0,0
-112,-356,0,0,0,0,0,0,0,0,0,-1,1112,1380,0,0
-105,-356,0,0,0,0,0,0,0,0,0,-1,1119,1380,0,0
-98,-356,0,0,0,0,0,0,0,0,0,-1,1126,1380,0,0
-91,-356,0,0,0,0,0,0,0,0,0,-1,1133,1380,0,0
-84,-356,0,0,0,0,0,0,0,0,0,-1,1140,1380,0,0
-77,-356,0,0,0,0,0,0,0,0,0,-1,1147,1380,0,0
-70,-356,0,0,0,0,0,0,0,0,0,-1,1154,1380,0,0
-63,-356,0,0,0,0,0,0,0,0,0,-1,1161,1380,0,0
-56,-356,0,0,0,0,0,0,0,0,0,-1,1168,1380,0,0
-49,-356,0,0,0,0,0,0,0,0,0,-1,1175,1380,0,0
-42,-356,0,0,0,0,0,0,0,0,0,-1,1182,1380,0,0
-35,-356,0,0,0,0,0,0,0,0,0,-1,1189,1380,0,0
-28,-356,0,0,0,0,0,0,0,0,0,-1,1196,1380,0,0
-21,-356,0,0,0,0,0,0,0,0,0,-1,1203,1380,0,0
-14,-356,0,0,0,0,0,0,0,0,0,-1,1210,1380,0,0
-7,-356,0,0,0,0,0,0,0,0,0,-1,1217,1380,0,0
0,-356,0,0,0,0,0,0,0,0,0,-1,1224,1380,0,0
7,-356,0,0,0,0,0,0,0,0,0,-1,1231,1380,0,0
14,-356,0,0,0,0,0,0,0,0,0,-1,1238,1380,0,0
21,-356,0,0,0,0,0,0,0,0,0,-1,1245,1380,0,0
28,-356,0,0,0,0,0,0,0,0,0,-1,1252,1380,0,0
35,-356,0,0,0,0,0,0,0,0,0,-1,1259,1380,0,0
42,-356,0,0,0,0,0,0,0,0,0,-1,1266,1380,0,0
49,-356,0,0,0,0,0,0,0,0,0,-1,1273,1380,0,0
56,-356,0,0,0,0,0,0,0,0,0,-1,1280,1380,0,0
63,-356,0,0,0,0,0,0,0,0,0,-1,1287,1380,0,0
70,-356,0,0,0,0,0,0,0,0,0,-1,1294,1380,0,0
77,-356,0,0,0,0,0,0,0,0,0,-1,1301,1380,0,0
84,-356,0,0,0,0,0,0,0,0,0,-1,1308,1380,0,0
91,-356,0,0,0,0,0,0,0,0,0,-1,1315,1380,0,0
98,-356,0,0,0,0,0,0,0,0,0,-1,1322,1380,0,0
105,-356,0,0,0,0,0,0,0,0,0,-1,1329,1380,0,0
112,-356,0,0,0,0,0,0,0,0,0,-1,1336,1380,0,0
119,-356,0,0,0,0,0,0,0,0,0,-1,1343,1380,0,0
126,-356,0,0,0,0,0,0,0,0,0,-1,1350,1380,0,0
133,-356,0,0,0,0,0,0,0,0,0,-1,1357,1380,0,0
140,-356,0,0,0,0,0,0,0,0,0,-1,1364,1380,0,0
147,-356,0,0,0,0,0,0,0,0,0,-1,1371,1380,0,0
154,-356,0,0,0,0,0,0,0,0,0,-1,1378,1380,0,0
161,-356,0,0,0,0,0,0,0,0,0,-1,1385,1380,0,0
168,-356,0,0,0,0,0,0,0,0,0,-1,1392,1380,0,0
175,-356,0,0,0,0,0,0,0,0,0,-1,1399,1380,0,0
182,-356,0,0,0,0,0,0,0,0,0,-1,1406,1380,0,0
189,-356,0,0,0,0,0,0,0,0,0,-1,1413,1380,0,0
196,-356,0,0,0,0,0,0,0,0,0,-1,1420,1380,0,0
203,-356,0,0,0,0,0,0,0,0,0,-1,1427,1380,0,0
210,-356,0,0,0,0,0,0,0,0,0,-1,1434,1380,0,0
217,-356,0,0,0,0,0,0,0,0,0,-1,1441,1380,0,0
224,-356,0,0,0,0,0,0,0,0,0,-1,1448,1380,0,0
231,-356,0,0,0,0,0,0,0,0,0,-1,1455,1380,0,0
238,-356,0,0,0,0,0,0,0,0,0,-1,1462,1380,0,0
245,-356,0,0,0,0,0,0,0,0,0,-1,1469,1380,0,0
252,-356,0,0,0,0,0,0,0,0,0,-1,1476,1380,0,0
259,-356,0,0,0,0,0,0,0,0,0,-1,1483,1380,0,0
266,-356,0,0,0,0,0,0,0,0,0,-1,1490,1380,0,0
273,-356,0,0,0,0,0,0,0,0,0,-1,1497,1380,0,0
280,-356,0,0,0,0,0,0,0,0,0,-1,1504,1380,0,0
287,-356,0,0,0,0,0,0,0,0,0,-1,1511,1380,0,0
294,-356,0,0,0,0,0,0,0,0,0,-1,1518,1380,0,0
301,-356,0,0,0,0,0,0,0,0,0,-1,1525,1380,0,0
308,-356,0,0,0,0,0,0,0,0,0,-1,1532,1380,0,0
315,-356,0,0,0,0,0,0,0,0,0,-1,1539,1380,0,0
322,-356,0,0,0,0,0,0,0,0,0,-1,1546,1380,0,0
329,-356,0,0,0,0,0,0,0,0,0,-1,1553,1380,0,0
336,-356,0,0,0,0,0,0,0,0,0,-1,1560,1380,0,0
343,-356,0,0,0,0,0,0,0,0,0,-1,1567,1380,0,0
350,-356,0,0,0,0,0,0,0,0,0,-1,1574,1380,0,0
357,-356,0,0,0,0,0,0,0,0,0,-1,1581,1380,0,0
364,-356,0,0,0,0,0,0,0,0,0,-1,1588,1380,0,0
371,-356,0,0,0,0,0,0,0,0,0,-1,1595,1380,0,0
378,-356,0,0,0,0,0,0,0,0,0,-1,1602,1380,0,0
385,-356,0,0,0,0,0,0,0,0,0,-1,1609,1380,0,0
392,-356,0,0,0,0,0,0,0,0,0,-1,1616,1380,0,0
399,-356,0,0,0,0,0,0,0,0,0,-1,1623,1380,0,0
406,-356,0,0,0,0,0,0,0,0,0,-1,1630,1380,0,0
413,-356,0,0,0,0,0,0,0,0,0,-1,1637,1380,0,0
420,-356,0,0,0,0,0,0,0,0,0,-1,1644,1380,0,0
427,-356,0,0,0,0,0,0,0,0,0,-1,1651,1380,0,0
434,-356,0,0,0,0,0,0,0,0,0,-1,1658,1380,0,0
441,-356,0,0,0,0,0,0,0,0,0,-1,1665,1380,0,0
448,-356,0,0,0,0,0,0,0,0,0,-1,1672,1380,0,0
455,-356,0,0,0,0,0,0,0,0,0,-1,1679,1380,0,0
462,-356,0,0,0,0,0,0,0,0,0,-1,1686,1380,0,0
469,-356,0,0,0,0,0,0,0,0,0,-1,1693,1380,0,0
476,-356,0,0,0,0,0,0,0,0,0,-1,1700,1380,0,0
483,-356,0,0,0,0,0,0,0,0,0,-1,1707,1380,0,0
490,-356,0,0,0,0,0,0,0,0,0,-1,1714,1380,0,0
497,-356,0,0,0,0,0,0,0,0,0,-1,1721,1380,0,0
504,-356,0,0,0,0,0,0,0,0,0,-1,1728,1380,0,0
511,-356,0,0,0,0,0,0,0,0,0,-1,1735,1380,0,0
518,-356,0,0,0,0,0,0,0,0,0,-1,1742,1380,0,0
525,-356,0,0,0,0,0,0,0,0,0,-1,1749,1380,0,0
532,-356,0,0,0,0,0,0,0,0,0,-1,1756,1380,0,0
539,-356,0,0,0,0,0,0,0,0,0,-1,1763,1380,0,0
546,-356,0,0,0,0,0,0,0,0,0,-1,1770,1380,0,0
553,-356,0,0,0,0,0,0,0,0,0,-1,1777,1380,0,0
560,-356,15.886,4.05273,0,0,0,0,0,0,0,-1,1784,1380,15.886,-4.05275
567,-356,15.1847,3.85901,0,0,0,0,0,0,0,-1,1791,1380,15.1846,-3.85903
574,-356,15.849,3.85278,-0.0252342,0.0172054,0.00279523,0.0173887,-0.0254175,1.50531,0.0248587,0.0413973,1798,1380,15.849,-3.85275
581,-356,15.6476,3.69604,-0.0238015,0.0150643,0.00285166,0.0152724,-0.0240096,1.49794,0.0228657,0.0385267,1805,1380,15.6476,-3.69602
588,-356,12.5889,3.15149,0,0,0,0,0,0,0,-1,1812,1380,12.5889,-3.15147
595,-356,12.6295,3.25171,0,0,0,0,0,0,0,-1,1819,1380,12.6295,-3.25168
602,-356,12.5455,3.4353,0,0,0,0,0,0,0,-1,1826,1380,12.5455,-3.43532
609,-356,12.4546,3.69373,-0.0187842,0.00278124,0.00508537,0.00392026,-0.0199232,1.35045,0.0147634,0.040211,1833,1380,12.4546,-3.6937
616,-356,12.5046,3.92322,-0.0174869,-0.000674263,0.00545535,0.000940744,-0.0191019,1.28298,0.0130595,0.0388023,1840,1380,12.5047,-3.92326
623,-356,12.3997,4.03479,0,0,0,0,0,0,0,-1,1847,1380,12.3997,-4.03483
630,-356,11.502,4.76355,-0.0151407,-0.00594043,0.00611998,-0.00288449,-0.0181966,1.10768,0.011293,0.0419398,1854,1380,11.502,-4.76353
637,-356,11.1892,4.9082,-0.01388,-0.00675834,0.00745879,-0.002054,-0.0185844,1.0081,0.0117648,0.0328677,1861,1380,11.1892,-4.90822
644,-356,10.989,5.06763,0,0,0,0,0,0,0,-1,1868,1380,10.9891,-5.06757
651,-356,11.1675,4.90686,-0.00841539,-0.00672079,0.00725881,-0.000260001,-0.0148762,0.843499,0.00983193,0.0146535,1875,1380,11.1675,-4.90688
658,-356,11.14,4.71191,-0.00554628,-0.00536189,0.00557608,0.000122758,-0.0110309,0.793664,0.00739522,0.0135703,1882,1380,11.14,-4.71194
665,-356,11.1337,4.60376,-0.00318857,-0.0040379,0.00408783,0.000496595,-0.00772307,0.733641,0.00532197,0.0134934,1889,1380,11.1336,-4.6037
672,-356,11.116,4.49622,-0.00137912,-0.00333784,0.0026953,0.000509238,-0.00522619,0.611135,0.00366568,0.0149407,1896,1380,11.116,-4.49616
679,-356,11.1058,4.34705,-6.32665e-05,-0.00250714,0.00174478,0.000844907,-0.00341531,0.479921,0.0026046,0.0169707,1903,1380,11.1059,-4.34701
686,-356,11.1304,4.18872,0.0010929,-0.00177832,0.000963271,0.00138613,-0.00207154,0.295493,0.00200932,0.0150652,1910,1380,11.1303,-4.18875
693,-356,11.1666,4.03015,0.00228394,-0.00143541,0.000423297,0.00233151,-0.00148297,0.111903,0.00222038,0.0133091,1917,1380,11.1666,-4.03011
700,-356,11.1685,3.86877,0.00363382,-0.0011521,-0.000125546,0.00363711,-0.00115539,-0.0262082,0.00288797,0.0180548,1924,1380,11.1685,-3.86878
707,-356,11.2072,3.63074,0.00529231,-0.000250342,-0.000881002,0.00542897,-0.000387007,-0.153898,0.00375497,0.030978,1931,1380,11.2072,-3.63068
714,-356,10.936,3.42786,0.00752763,0.00131257,-0.00230433,0.00828878,0.000551417,-0.31903,0.00535152,0.0427216,1938,1380,10.936,-3.42792
721,-356,11.1174,3.19934,0,0,0,0,0,0,0,-1,1945,1380,11.1174,-3.19933
728,-356,11.9027,3.47852,0,0,0,0,0,0,0,-1,1952,1380,11.9028,-3.47853
735,-356,11.754,3.39221,0,0,0,0,0,0,0,-1,1959,1380,11.754,-3.39224
742,-356,12.2675,3.42578,0,0,0,0,0,0,0,-1,1966,1380,12.2674,-3.42582
749,-356,12.8143,3.45264,0,0,0,0,0,0,0,-1,1973,1380,12.8144,-3.45269
756,-356,0,0,0,0,0,0,0,0,0,-1,1980,1380,0,0
763,-356,0,0,0,0,0,0,0,0,0,-1,1987,1380,0,0
770,-356,0,0,0,0,0,0,0,0,0,-1,1994,1380,0,0
777,-356,0,0,0,0,0,0,0,0,0,-1,2001,1380,0,0
784,-356,0,0,0,0,0,0,0,0,0,-1,2008,1380,0,0
791,-356,0,0,0,0,0,0,0,0,0,-1,2015,1380,0,0
798,-356,0,0,0,0,0,0,0,0,0,-1,2022,1380,0,0
805,-356,0,0,0,0,0,0,0,0,0,-1,2029,1380,0,0
812,-356,0,0,0,0,0,0,0,0,0,-1,2036,1380,0,0
-700,-363,0,0,0,0,0,0,0,0,0,-1,524,1387,0,0
-693,-363,0,0,0,0,0,0,0,0,0,-1,531,1387,0,0
-686,-363,0,0,0,0,0,0,0,0,0,-1,538,1387,0,0
-679,-363,0,0,0,0,0,0,0,0,0,-1,545,1387,0,0
-672,-363,0,0,0,0,0,0,0,0,0,-1,552,1387,0,0
-665,-363,0,0,0,0,0,0,0,0,0,-1,559,1387,0,0
-658,-363,0,0,0,0,0,0,0,0,0,-1,566,1387,0,0
-651,-363,0,0,0,0,0,0,0,0,0,-1,573,1387,0,0
-644,-363,0,0,0,0,0,0,0,0,0,-1,580,1387,0,0
-637,-363,0,0,0,0,0,0,0,0,0,-1,587,1387,0,0
-630,-363,0,0,0,0,0,0,0,0,0,-1,594,1387,0,0
-623,-363,-6.14862,-4.95691,0,0,0,0,0,0,0,-1,601,1387,-6.14861,4.95691
-616,-363,-5.12665,-3.2052,0,0,0,0,0,0,0,-1,608,1387,-5.12663,3.20514
-609,-363,-6.08331,0.101196,0,0,0,0,0,0,0,-1,615,1387,-6.08331,-0.101175
-602,-363,-5.59387,0.164551,0.0376388,0.0328273,0.0245699,0.0599205,0.0105456,0.736596,0.0369371,0.0491338,622,1387,-5.59389,-0.164576
-595,-363,-5.11194,0.246216,0.0284716,0.0259779,0.0172038,0.0444737,0.00997578,0.749223,0.0269466,0.0439404,629,1387,-5.11195,-0.246179
-588,-363,-4.56879,0.137085,0.0208173,0.0197434,0.0114886,0.0317814,0.00877924,0.762047,0.0189516,0.0436449,636,1387,-4.5688,-0.13705
-581,-363,-3.88898,1.88696,0,0,0,0,0,0,0,-1,643,1387,-3.88898,-1.887
-574,-363,-3.96368,1.91467,0.0101233,0.0101021,0.00425743,0.0143702,0.00585527,0.784158,0.00834384,0.030337,650,1387,-3.96368,-1.91469
-567,-363,-4.08569,2.00293,0.00667347,0.00674258,0.00223573,0.00894403,0.00447202,0.793125,0.00516384,0.0188358,657,1387,-4.08572,-2.00287
-560,-363,-4.10486,2.17297,0.00418113,0.00414893,0.000974689,0.00513986,0.00319021,0.77714,0.00299617,0.012565,664,1387,-4.10483,-2.17293
-553,-363,-4.10663,2.35815,0.00249371,0.00247491,0.000200802,0.00268533,0.00228329,0.762013,0.00167239,0.0128689,671,1387,-4.10662,-2.35815
-546,-363,-4.08948,2.51099,0.0013742,0.00071455,-0.000720368,0.00183666,0.000252089,-0.570716,0.00114966,0.0134795,678,1387,-4.0895,-2.51096
-539,-363,-4.07538,2.67712,0.000504958,-0.00121721,-0.00147395,0.00135091,-0.00206317,-0.521037,0.00198537,0.0157156,685,1387,-4.0754,-2.67713
-532,-363,-4.0896,2.87573,-0.000747469,-0.0035846,-0.00226138,0.000503453,-0.00483553,-0.505272,0.00340394,0.0130456,692,1387,-4.08961,-2.87578
-525,-363,-4.08655,3.04761,-0.00151884,-0.00570511,-0.00324549,0.000249942,-0.00747389,-0.498994,0.00506797,0.0104934,699,1387,-4.08654,-3.04763
-518,-363,-4.07892,3.2207,-0.00264333,-0.00823131,-0.00441412,-0.000213256,-0.0106614,-0.503244,0.00703758,0.00939353,706,1387,-4.07893,-3.2207
-511,-363,-4.05658,3.40222,-0.00425834,-0.0118008,-0.00614522,-0.00081944,-0.0152397,-0.510188,0.00989796,0.0142694,713,1387,-4.05659,-3.4022
-504,-363,-3.95599,3.56274,-0.00666683,-0.0165941,-0.00842112,-0.00185535,-0.0214056,-0.519094,0.0136939,0.0286084,720,1387,-3.95602,-3.56271
-497,-363,-3.87189,3.36658,-0.00993587,-0.0227324,-0.0114138,-0.00324927,-0.029419,-0.529937,0.0186243,0.0397159,727,1387,-3.87188,-3.36658
-490,-363,-3.77563,2.97852,-0.0145567,-0.0304904,-0.0150708,-0.00547652,-0.0395705,-0.542255,0.0247576,0.0432285,734,1387,-3.77566,-2.97847
-483,-363,-4.20416,2.63098,-0.0207168,-0.0399178,-0.0194406,-0.00863533,-0.0519993,-0.556046,0.0321763,0.0424603,741,1387,-4.20415,-2.63096
-476,-363,-4.35089,2.1687,0,0,0,0,0,0,0,-1,748,1387,-4.3509,-2.16871
-469,-363,-4.48944,2.59448,0,0,0,0,0,0,0,-1,755,1387,-4.48945,-2.59453
-462,-363,-7.466,-0.0045166,0,0,0,0,0,0,0,-1,762,1387,-7.46602,0.00457337
-455,-363,-8.79797,-1.67444,0,0,0,0,0,0,0,-1,769,1387,-8.79797,1.67438
-448,-363,-9.2793,-2.43274,0,0,0,0,0,0,0,-1,776,1387,-9.27928,2.43271
-441,-363,-10.1223,-2.94299,0,0,0,0,0,0,0,-1,783,1387,-10.1223,2.94298
-434,-363,-4.94177,-0.313965,0,0,0,0,0,0,0,-1,790,1387,-4.94176,0.313987
-427,-363,0,0,0,0,0,0,0,0,0,-1,797,1387,0,0
-420,-363,0,0,0,0,0,0,0,0,0,-1,804,1387,0,0
-413,-363,0,0,0,0,0,0,0,0,0,-1,811,1387,0,0
-406,-363,0,0,0,0,0,0,0,0,0,-1,818,1387,0,0
-399,-363,0,0,0,0,0,0,0,0,0,-1,825,1387,0,0
-392,-363,0,0,0,0,0,0,0,0,0,-1,832,1387,0,0
-385,-363,0,0,0,0,0,0,0,0,0,-1,839,1387,0,0
-378,-363,0,0,0,0,0,0,0,0,0,-1,846,1387,0,0
-371,-363,0,0,0,0,0,0,0,0,0,-1,853,1387,0,0
-364,-363,0,0,0,0,0,0,0,0,0,-1,860,1387,0,0
-357,-363,0,0,0,0,0,0,0,0,0,-1,867,1387,0,0
-350,-363,0,0,0,0,0,0,0,0,0,-1,874,1387,0,0
-343,-363,0,0,0,0,0,0,0,0,0,-1,881,1387,0,0
-336,-363,0,0,0,0,0,0,0,0,0,-1,888,1387,0,0
-329,-363,0,0,0,0,0,0,0,0,0,-1,895,1387,0,0
-322,-363,0,0,0,0,0,0,0,0,0,-1,902,1387,0,0
-315,-363,0,0,0,0,0,0,0,0,0,-1,909,1387,0,0
-308,-363,0,0,0,0,0,0,0,0,0,-1,916,1387,0,0
-301,-363,0,0,0,0,0,0,0,0,0,-1,923,1387,0,0
-294,-363,0,0,0,0,0,0,0,0,0,-1,930,1387,0,0
-287,-363,0,0,0,0,0,0,0,0,0,-1,937,1387,0,0
-280,-363,0,0,0,0,0,0,0,0,0,-1,944,1387,0,0
-273,-363,0,0,0,0,0,0,0,0,0,-1,951,1387,0,0
-266,-363,0,0,0,0,0,0,0,0,0,-1,958,1387,0,0
-259,-363,0,0,0,0,0,0,0,0,0,-1,965,1387,0,0
-252,-363,0,0,0,0,0,0,0,0,0,-1,972,1387,0,0
-245,-363,0,0,0,0,0,0,0,0,0,-1,979,1387,0,0
-238,-363,0,0,0,0,0,0,0,0,0,-1,986,1387,0,0
-231,-363,0,0,0,0,0,0,0,0,0,-1,993,1387,0,0
-224,-363,0,0,0,0,0,0,0,0,0,-1,1000,1387,0,0
-217,-363,0,0,0,0,0,0,0,0,0,-1,1007,1387,0,0
-210,-363,0,0,0,0,0,0,0,0,0,-1,1014,1387,0,0
-203,-363,0,0,0,0,0,0,0,0,0,-1,1021,1387,0,0
-196,-363,0,0,0,0,0,0,0,0,0,-1,1028,1387,0,0
-189,-363,0,0,0,0,0,0,0,0,0,-1,1035,1387,0,0
-182,-363,0,0,0,0,0,0,0,0,0,-1,1042,1387,0,0
-175,-363,0,0,0,0,0,0,0,0,0,-1,1049,1387,0,0
-168,-363,0,0,0,0,0,0,0,0,0,-1,1056,1387,0,0
-161,-363,0,0,0,0,0,0,0,0,0,-1,1063,1387,0,0
-154,-363,0,0,0,0,0,0,0,0,0,-1,1070,1387,0,0
-147,-363,0,0,0,0,0,0,0,0,0,-1,1077,1387,0,0
-140,-363,0,0,0,0,0,0,0,0,0,-1,1084,1387,0,0
-133,-363,0,0,0,0,0,0,0,0,0,-1,1091,1387,0,0
-126,-363,0,0,0,0,0,0,0,0,0,-1,1098,1387,0,0
-119,-363,0,0,0,0,0,0,0,0,0,-1,1105,1387,0,0
-112,-363,0,0,0,0,0,0,0,0,0,-1,1112,1387,0,0
-105,-363,0,0,0,0,0,0,0,0,0,-1,1119,1387,0,0
-98,-363,0,0,0,0,0,0,0,0,0,-1,1126,1387,0,0
-91,-363,0,0,0,0,0,0,0,0,0,-1,1133,1387,0,0
-84,-363,0,0,0,0,0,0,0,0,0,-1,1140,1387,0,0
-77,-363,0,0,0,0,0,0,0,0,0,-1,1147,1387,0,0
-70,-363,0,0,0,0,0,0,0,0,0,-1,1154,1387,0,0
-63,-363,0,0,0,0,0,0,0,0,0,-1,1161,1387,0,0
-56,-363,0,0,0,0,0,0,0,0,0,-1,1168,1387,0,0
-49,-363,0,0,0,0,0,0,0,0,0,-1,1175,1387,0,0
-42,-363,0,0,0,0,0,0,0,0,0,-1,1182,1387,0,0
-35,-363,0,0,0,0,0,0,0,0,0,-1,1189,1387,0,0
-28,-363,0,0,0,0,0,0,0,0,0,-1,1196,1387,0,0
-21,-363,0,0,0,0,0,0,0,0,0,-1,1203,1387,0,0
-14,-363,0,0,0,0,0,0,0,0,0,-1,1210,1387,0,0
-7,-363,0,0,0,0,0,0,0,0,0,-1,1217,1387,0,0
0,-363,0,0,0,0,0,0,0,0,0,-1,1224,1387,0,0
7,-363,0,0,0,0,0,0,0,0,0,-1,1231,1387,0,0
14,-363,0,0,0,0,0,0,0,0,0,-1,1238,1387,0,0
21,-363,0,0,0,0,0,0,0,0,0,-1,1245,1387,0,0
28,-363,0,0,0,0,0,0,0,0,0,-1,1252,1387,0,0
35,-363,0,0,0,0,0,0,0,0,0,-1,1259,1387,0,0
42,-363,0,0,0,0,0,0,0,0,0,-1,1266,1387,0,0
49,-363,0,0,0,0,0,0,0,0,0,-1,1273,1387,0,0
56,-363,0,0,0,0,0,0,0,0,0,-1,1280,1387,0,0
63,-363,0,0,0,0,0,0,0,0,0,-1,1287,1387,0,0
70,-363,0,0,0,0,0,0,0,0,0,-1,1294,1387,0,0
77,-363,0,0,0,0,0,0,0,0,0,-1,1301,1387,0,0
84,-363,0,0,0,0,0,0,0,0,0,-1,1308,1387,0,0
91,-363,0,0,0,0,0,0,0,0,0,-1,1315,1387,0,0
98,-363,0,0,0,0,0,0,0,0,0,-1,1322,1387,0,0
105,-363,0,0,0,0,0,0,0,0,0,-1,1329,1387,0,0
112,-363,0,0,0,0,0,0,0,0,0,-1,1336,1387,0,0
119,-363,0,0,0,0,0,0,0,0,0,-1,1343,1387,0,0
126,-363,0,0,0,0,0,0,0,0,0,-1,1350,1387,0,0
133,-363,0,0,0,0,0,0,0,0,0,-1,1357,1387,0,0
140,-363,0,0,0,0,0,0,0,0,0,-1,1364,1387,0,0
147,-363,0,0,0,0,0,0,0,0,0,-1,1371,1387,0,0
154,-363,0,0,0,0,0,0,0,0,0,-1,1378,1387,0,0
161,-363,0,0,0,0,0,0,0,0,0,-1,1385,1387,0,0
168,-363,0,0,0,0,0,0,0,0,0,-1,1392,1387,0,0
175,-363,0,0,0,0,0,0,0,0,0,-1,1399,1387,0,0
182,-363,0,0,0,0,0,0,0,0,0,-1,1406,1387,0,0
189,-363,0,0,0,0,0,0,0,0,0,-1,1413,1387,0,0
196,-363,0,0,0,0,0,0,0,0,0,-1,1420,1387,0,0
203,-363,0,0,0,0,0,0,0,0,0,-1,1427,1387,0,0
210,-363,0,0,0,0,0,0,0,0,0,-1,1434,1387,0,0
217,-363,0,0,0,0,0,0,0,0,0,-1,1441,1387,0,0
224,-363,0,0,0,0,0,0,0,0,0,-1,1448,1387,0,0
231,-363,0,0,0,0,0,0,0,0,0,-1,1455,1387,0,0
238,-363,0,0,0,0,0,0,0,0,0,-1,1462,1387,0,0
245,-363,0,0,0,0,0,0,0,0,0,-1,1469,1387,0,0
252,-363,0,0,0,0,0,0,0,0,0,-1,1476,1387,0,0
259,-363,0,0,0,0,0,0,0,0,0,-1,1483,1387,0,0
266,-363,0,0,0,0,0,0,0,0,0,-1,1490,1387,0,0
273,-363,0,0,0,0,0,0,0,0,0,-1,1497,1387,0,0
280,-363,0,0,0,0,0,0,0,0,0,-1,1504,1387,0,0
287,-363,0,0,0,0,0,0,0,0,0,-1,1511,1387,0,0
294,-363,0,0,0,0,0,0,0,0,0,-1,1518,1387,0,0
301,-363,0,0,0,0,0,0,0,0,0,-1,1525,1387,0,0
308,-363,0,0,0,0,0,0,0,0,0,-1,1532,1387,0,0
315,-363,0,0,0,0,0,0,0,0,0,-1,1539,1387,0,0
322,-363,0,0,0,0,0,0,0,0,0,-1,1546,1387,0,0
329,-363,0,0,0,0,0,0,0,0,0,-1,1553,1387,0,0
336,-363,0,0,0,0,0,0,0,0,0,-1,1560,1387,0,0
343,-363,0,0,0,0,0,0,0,0,0,-1,1567,1387,0,0
350,-363,0,0,0,0,0,0,0,0,0,-1,1574,1387,0,0
357,-363,0,0,0,0,0,0,0,0,0,-1,1581,1387,0,0
364,-363,0,0,0,0,0,0,0,0,0,-1,1588,1387,0,0
371,-363,0,0,0,0,0,0,0,0,0,-1,1595,1387,0,0
378,-363,0,0,0,0,0,0,0,0,0,-1,1602,1387,0,0
385,-363,0,0,0,0,0,0,0,0,0,-1,1609,1387,0,0
392,-363,0,0,0,0,0,0,0,0,0,-1,1616,1387,0,0
399,-363,0,0,0,0,0,0,0,0,0,-1,1623,1387,0,0
406,-363,0,0,0,0,0,0,0,0,0,-1,1630,1387,0,0
413,-363,0,0,0,0,0,0,0,0,0,-1,1637,1387,0,0
420,-363,0,0,0,0,0,0,0,0,0,-1,1644,1387,0,0
427,-363,0,0,0,0,0,0,0,0,0,-1,1651,1387,0,0
434,-363,0,0,0,0,0,0,0,0,0,-1,1658,1387,0,0
441,-363,0,0,0,0,0,0,0,0,0,-1,1665,1387,0,0
448,-363,0,0,0,0,0,0,0,0,0,-1,1672,1387,0,0
455,-363,0,0,0,0,0,0,0,0,0,-1,1679,1387,0,0
462,-363,0,0,0,0,0,0,0,0,0,-1,1686,1387,0,0
469,-363,0,0,0,0,0,0,0,0,0,-1,1693,1387,0,0
476,-363,0,0,0,0,0,0,0,0,0,-1,1700,1387,0,0
483,-363,0,0,0,0,0,0,0,0,0,-1,1707,1387,0,0
490,-363,0,0,0,0,0,0,0,0,0,-1,1714,1387,0,0
497,-363,0,0,0,0,0,0,0,0,0,-1,1721,1387,0,0
504,-363,0,0,0,0,0,0,0,0,0,-1,1728,1387,0,0
511,-363,0,0,0,0,0,0,0,0,0,-1,1735,1387,0,0
518,-363,0,0,0,0,0,0,0,0,0,-1,1742,1387,0,0
525,-363,0,0,0,0,0,0,0,0,0,-1,1749,1387,0,0
532,-363,0,0,0,0,0,0,0,0,0,-1,1756,1387,0,0
539,-363,0,0,0,0,0,0,0,0,0,-1,1763,1387,0,0
546,-363,0,0,0,0,0,0,0,0,0,-1,1770,1387,0,0
553,-363,16.1505,3.51672,0,0,0,0,0,0,0,-1,1777,1387,16.1505,-3.51668
560,-363,15.922,3.50122,-0.0332082,0.0136086,0.00790619,0.0149077,-0.0345073,1.40794,0.0292683,0.0440079,1784,1387,15.922,-3.50119
567,-363,15.799,3.61975,0,0,0,0,0,0,0,-1,1791,1387,15.799,-3.61981
574,-363,15.6318,3.7052,-0.0268776,0.0159428,0.00965538,0.0180192,-0.028954,1.35897,0.0273639,0.0407655,1798,1387,15.6318,-3.70519
581,-363,15.4091,3.88391,-0.0246035,0.0137772,0.00940643,0.0159585,-0.0267849,1.34292,0.0249404,0.040707,1805,1387,15.409,-3.88389
588,-363,15.3052,3.71179,-0.0229412,0.0107822,0.00947834,0.0132636,-0.0254226,1.31474,0.0227002,0.0423798,1812,1387,15.3052,-3.71174
595,-363,12.9333,3.24097,0,0,0,0,0,0,0,-1,1819,1387,12.9334,-3.24102
602,-363,12.6265,3.49487,0,0,0,0,0,0,0,-1,1826,1387,12.6264,-3.49486
609,-363,12.4453,3.79749,-0.0175164,0.00230572,0.00956646,0.0061695,-0.0213802,1.18694,0.0166944,0.0455526,1833,1387,12.4453,-3.79744
616,-363,12.2054,3.76086,-0.0160639,-0.00142273,0.00929459,0.00308801,-0.0205747,1.11897,0.0148532,0.0479205,1840,1387,12.2055,-3.76085
623,-363,12.2019,3.79749,0,0,0,0,0,0,0,-1,1847,1387,12.2019,-3.79745
630,-363,11.1733,4.99109,-0.0136323,-0.00679766,0.0086932,-0.000874213,-0.0195557,0.972671,0.0127557,0.0353264,1854,1387,11.1733,-4.99111
637,-363,10.8893,5.13989,-0.0121944,-0.00749955,0.00911434,-0.000435179,-0.0192587,0.911435,0.0126966,0.0246325,1861,1387,10.8893,-5.13995
644,-363,10.9952,5.08655,-0.0102056,-0.00828444,0.00933616,0.000140424,-0.0186305,0.836662,0.0124674,0.0114974,1868,1387,10.9952,-5.08655
651,-363,11.0084,4.90198,-0.00706375,-0.00643069,0.00706558,0.000325444,-0.0138199,0.807783,0.00932364,0.011032,1875,1387,11.0085,-4.90202
658,-363,10.9926,4.73474,-0.00446414,-0.00506148,0.00516303,0.000408849,-0.00993447,0.756506,0.00676338,0.0114246,1882,1387,10.9925,-4.73471
665,-363,10.9697,4.61658,-0.00228078,-0.00375544,0.00363703,0.000692913,-0.00672913,0.685389,0.00473399,0.0117958,1889,1387,10.9697,-4.61658
672,-363,10.9774,4.49573,-0.000596483,-0.00320557,0.00236701,0.000801675,-0.00460373,0.533541,0.00336833,0.0136453,1896,1387,10.9774,-4.49572
679,-363,10.9771,4.35132,0.00071657,-0.0026921,0.00161261,0.00135857,-0.00333409,0.378876,0.00278819,0.0151684,1903,1387,10.977,-4.35136
686,-363,10.9944,4.18958,0.00187514,-0.00246396,0.00110697,0.00214123,-0.00273005,0.235899,0.00281928,0.0152051,1910,1387,10.9944,-4.1896
693,-363,11.0166,4.02673,0.00301117,-0.00277608,0.000921723,0.00315442,-0.00291933,0.154187,0.00350756,0.0137088,1917,1387,11.0165,-4.02669
700,-363,11.0625,3.86096,0.00433319,-0.00329255,0.000824151,0.00442124,-0.0033806,0.106437,0.00451773,0.016539,1924,1387,11.0624,-3.86096
707,-363,11.0166,3.64197,0.00601969,-0.0033056,0.000524383,0.00604908,-0.003335,0.055997,0.00549292,0.0317289,1931,1387,11.0166,-3.642
714,-363,10.5826,3.20532,0,0,0,0,0,0,0,-1,1938,1387,10.5827,-3.20528
721,-363,10.9458,3.00549,0,0,0,0,0,0,0,-1,1945,1387,10.9458,-3.0055
728,-363,11.6582,3.69055,0,0,0,0,0,0,0,-1,1952,1387,11.6582,-3.69055
735,-363,12.0818,3.7196,0,0,0,0,0,0,0,-1,1959,1387,12.0818,-3.71964
742,-363,12.5081,3.75195,0,0,0,0,0,0,0,-1,1966,1387,12.508,-3.7519
749,-363,0,0,0,0,0,0,0,0,0,-1,1973,1387,0,0
756,-363,0,0,0,0,0,0,0,0,0,-1,1980,1387,0,0
763,-363,0,0,0,0,0,0,0,0,0,-1,1987,1387,0,0
770,-363,0,0,0,0,0,0,0,0,0,-1,1994,1387,0,0
777,-363,0,0,0,0,0,0,0,0,0,-1,2001,1387,0,0
784,-363,0,0,0,0,0,0,0,0,0,-1,2008,1387,0,0
791,-363,0,0,0,0,0,0,0,0,0,-1,2015,1387,0,0
798,-363,0,0,0,0,0,0,0,0,0,-1,2022,1387,0,0
805,-363,0,0,0,0,0,0,0,0,0,-1,2029,1387,0,0
812,-363,0,0,0,0,0,0,0,0,0,-1,2036,1387,0,0
-700,-370,0,0,0,0,0,0,0,0,0,-1,524,1394,0,0
-693,-370,0,0,0,0,0,0,0,0,0,-1,531,1394,0,0
-686,-370,0,0,0,0,0,0,0,0,0,-1,538,1394,0,0
-679,-370,0,0,0,0,0,0,0,0,0,-1,545,1394,0,0
-672,-370,0,0,0,0,0,0,0,0,0,-1,552,1394,0,0
-665,-370,0,0,0,0,0,0,0,0,0,-1,559,1394,0,0
-658,-370,0,0,0,0,0,0,0,0,0,-1,566,1394,0,0
-651,-370,0,0,0,0,0,0,0,0,0,-1,573,1394,0,0
-644,-370,0,0,0,0,0,0,0,0,0,-1,580,1394,0,0
-637,-370,0,0,0,0,0,0,0,0,0,-1,587,1394,0,0
-630,-370,0,0,0,0,0,0,0,0,0,-1,594,1394,0,0
-623,-370,-7.05371,-5.65344,0,0,0,0,0,0,0,-1,601,1394,-7.0537,5.65347
-616,-370,-6.74524,-0.641968,0,0,0,0,0,0,0,-1,608,1394,-6.74526,0.642007
-609,-370,-5.63794,-0.293945,0,0,0,0,0,0,0,-1,615,1394,-5.63794,0.293989
-602,-370,-5.98938,0.179199,0,0,0,0,0,0,0,-1,622,1394,-5.9894,-0.179233
-595,-370,-5.37115,0.170654,0,0,0,0,0,0,0,-1,629,1394,-5.37114,-0.170618
-588,-370,-3.73676,1.64587,0,0,0,0,0,0,0,-1,636,1394,-3.73678,-1.6459
-581,-370,-3.77167,1.80225,0.0197617,0.0170106,0.00695967,0.0254804,0.0112919,0.687835,0.0147428,0.0459382,643,1394,-3.77168,-1.80231
-574,-370,-3.80707,1.94531,0.0132789,0.0114325,0.00383735,0.0163026,0.00840889,0.66735,0.00941386,0.0371957,650,1394,-3.80706,-1.94526
-567,-370,-3.86597,2.04797,0.00865405,0.00729565,0.00179497,0.00989402,0.00605568,0.604528,0.00575993,0.0229745,657,1394,-3.86594,-2.04791
-560,-370,-3.94421,2.1543,0.00543334,0.00431506,0.000590234,0.00568722,0.00406117,0.406223,0.00338236,0.0137535,664,1394,-3.94422,-2.1543
-553,-370,-3.94946,2.3429,0.00332473,0.00241476,-0.000113469,0.00333867,0.00240082,-0.122202,0.00198831,0.0104437,671,1394,-3.94944,-2.34286
-546,-370,-3.91895,2.52112,0.00194359,0.00069687,-0.000928553,0.00243862,0.000201844,-0.489788,0.00156282,0.0139117,678,1394,-3.91895,-2.52112
-539,-370,-3.89789,2.70703,0.00095551,-0.0010604,-0.0015401,0.00178818,-0.00189306,-0.495642,0.00212565,0.0180256,685,1394,-3.89788,-2.707
-532,-370,-3.91766,2.89966,-0.000389357,-0.00331859,-0.00215324,0.000750164,-0.00445811,-0.486744,0.0032511,0.0195103,692,1394,-3.91768,-2.89972
-525,-370,-3.90558,3.05615,-0.00103289,-0.00519994,-0.00298387,0.000522899,-0.00675573,-0.480619,0.00468785,0.0133257,699,1394,-3.90555,-3.05616
-518,-370,-3.92224,3.19519,-0.00201231,-0.00740483,-0.0039456,7.02981e-05,-0.00948744,-0.485664,0.00634852,0.0103135,706,1394,-3.92226,-3.1952
-511,-370,-3.90765,3.37769,-0.00340904,-0.010491,-0.00540863,-0.000485357,-0.0134147,-0.495565,0.00878581,0.0138519,713,1394,-3.90767,-3.37769
-504,-370,-3.86029,3.58704,-0.00563671,-0.0145926,-0.00737537,-0.00148634,-0.018743,-0.512568,0.0120305,0.0212786,720,1394,-3.86027,-3.58704
-497,-370,-3.69757,3.75757,-0.00863335,-0.0198525,-0.00993545,-0.00283327,-0.0256526,-0.528405,0.0162399,0.0390755,727,1394,-3.69755,-3.75754
-490,-370,-3.8877,3.5415,-0.0129456,-0.0265447,-0.0129945,-0.00507914,-0.0344111,-0.544354,0.0214491,0.0403714,734,1394,-3.88767,-3.54155
-483,-370,-4.09955,3.02478,-0.018713,-0.0346842,-0.016525,-0.00834526,-0.0450519,-0.560321,0.0276755,0.0401313,741,1394,-4.09954,-3.02484
-476,-370,-4.26239,2.58301,-0.0261573,-0.0442304,-0.0204461,-0.0128398,-0.0575479,-0.57732,0.0348821,0.0406622,748,1394,-4.2624,-2.58299
-469,-370,-4.29388,2.29565,0,0,0,0,0,0,0,-1,755,1394,-4.29387,-2.29559
-462,-370,-3.99823,2.43494,0,0,0,0,0,0,0,-1,762,1394,-3.9982,-2.43498
-455,-370,-3.50055,1.57727,0,0,0,0,0,0,0,-1,769,1394,-3.50052,-1.57726
-448,-370,-8.86993,-2.77124,0,0,0,0,0,0,0,-1,776,1394,-8.86995,2.77127
-441,-370,-3.77136,-0.700073,0,0,0,0,0,0,0,-1,783,1394,-3.77136,0.700131
-434,-370,-7.71454,1.03479,0,0,0,0,0,0,0,-1,790,1394,-7.71456,-1.03475
-427,-370,0,0,0,0,0,0,0,0,0,-1,797,1394,0,0
-420,-370,0,0,0,0,0,0,0,0,0,-1,804,1394,0,0
-413,-370,0,0,0,0,0,0,0,0,0,-1,811,1394,0,0
-406,-370,0,0,0,0,0,0,0,0,0,-1,818,1394,0,0
-399,-370,0,0,0,0,0,0,0,0,0,-1,825,1394,0,0
-392,-370,0,0,0,0,0,0,0,0,0,-1,832,1394,0,0
-385,-370,0,0,0,0,0,0,0,0,0,-1,839,1394,0,0
-378,-370,0,0,0,0,0,0,0,0,0,-1,846,1394,0,0
-371,-370,0,0,0,0,0,0,0,0,0,-1,853,1394,0,0
-364,-370,0,0,0,0,0,0,0,0,0,-1,860,1394,0,0
-357,-370,0,0,0,0,0,0,0,0,0,-1,867,1394,0,0
-350,-370,0,0,0,0,0,0,0,0,0,-1,874,1394,0,0
-343,-370,0,0,0,0,0,0,0,0,0,-1,881,1394,0,0
-336,-370,0,0,0,0,0,0,0,0,0,-1,888,1394,0,0
-329,-370,0,0,0,0,0,0,0,0,0,-1,895,1394,0,0
-322,-370,0,0,0,0,0,0,0,0,0,-1,902,1394,0,0
-315,-370,0,0,0,0,0,0,0,0,0,-1,909,1394,0,0
-308,-370,0,0,0,0,0,0,0,0,0,-1,916,1394,0,0
-301,-370,0,0,0,0,0,0,0,0,0,-1,923,1394,0,0
-294,-370,0,0,0,0,0,0,0,0,0,-1,930,1394,0,0
-287,-370,0,0,0,0,0,0,0,0,0,-1,937,1394,0,0
-280,-370,0,0,0,0,0,0,0,0,0,-1,944,1394,0,0
-273,-370,0,0,0,0,0,0,0,0,0,-1,951,1394,0,0
-266,-370,0,0,0,0,0,0,0,0,0,-1,958,1394,0,0
-259,-370,0,0,0,0,0,0,0,0,0,-1,965,1394,0,0
-252,-370,0,0,0,0,0,0,0,0,0,-1,972,1394,0,0
-245,-370,0,0,0,0,0,0,0,0,0,-1,979,1394,0,0
-238,-370,0,0,0,0,0,0,0,0,0,-1,986,1394,0,0
-231,-370,0,0,0,0,0,0,0,0,0,-1,993,1394,0,0
-224,-370,0,0,0,0,0,0,0,0,0,-1,1000,1394,0,0
-217,-370,0,0,0,0,0,0,0,0,0,-1,1007,1394,0,0
-210,-370,0,0,0,0,0,0,0,0,0,-1,1014,1394,0,0
-203,-370,0,0,0,0,0,0,0,0,0,-1,1021,1394,0,0
-196,-370,0,0,0,0,0,0,0,0,0,-1,1028,1394,0,0
-189,-370,0,0,0,0,0,0,0,0,0,-1,1035,1394,0,0
-182,-370,0,0,0,0,0,0,0,0,0,-1,1042,1394,0,0
-175,-370,0,0,0,0,0,0,0,0,0,-1,1049,1394,0,0
-168,-370,0,0,0,0,0,0,0,0,0,-1,1056,1394,0,0
-161,-370,0,0,0,0,0,0,0,0,0,-1,1063,1394,0,0
-154,-370,0,0,0,0,0,0,0,0,0,-1,1070,1394,0,0
-147,-370,0,0,0,0,0,0,0,0,0,-1,1077,1394,0,0
-140,-370,0,0,0,0,0,0,0,0,0,-1,1084,1394,0,0
-133,-370,0,0,0,0,0,0,0,0,0,-1,1091,1394,0,0
-126,-370,0,0,0,0,0,0,0,0,0,-1,1098,1394,0,0
-119,-370,0,0,0,0,0,0,0,0,0,-1,1105,1394,0,0
-112,-370,0,0,0,0,0,0,0,0,0,-1,1112,1394,0,0
-105,-370,0,0,0,0,0,0,0,0,0,-1,1119,1394,0,0
-98,-370,0,0,0,0,0,0,0,0,0,-1,1126,1394,0,0
-91,-370,0,0,0,0,0,0,0,0,0,-1,1133,1394,0,0
-84,-370,0,0,0,0,0,0,0,0,0,-1,1140,1394,0,0
-77,-370,0,0,0,0,0,0,0,0,0,-1,1147,1394,0,0
-70,-370,0,0,0,0,0,0,0,0,0,-1,1154,1394,0,0
-63,-370,0,0,0,0,0,0,0,0,0,-1,1161,1394,0,0
-56,-370,0,0,0,0,0,0,0,0,0,-1,1168,1394,0,0
-49,-370,0,0,0,0,0,0,0,0,0,-1,1175,1394,0,0
-42,-370,0,0,0,0,0,0,0,0,0,-1,1182,1394,0,0
-35,-370,0,0,0,0,0,0,0,0,0,-1,1189,1394,0,0
-28,-370,0,0,0,0,0,0,0,0,0,-1,1196,1394,0,0
-21,-370,0,0,0,0,0,0,0,0,0,-1,1203,1394,0,0
-14,-370,0,0,0,0,0,0,0,0,0,-1,1210,1394,0,0
-7,-370,0,0,0,0,0,0,0,0,0,-1,1217,1394,0,0
0,-370,0,0,0,0,0,0,0,0,0,-1,1224,1394,0,0
7,-370,0,0,0,0,0,0,0,0,0,-1,1231,1394,0,0
14,-370,0,0,0,0,0,0,0,0,0,-1,1238,1394,0,0
21,-370,0,0,0,0,0,0,0,0,0,-1,1245,1394,0,0
28,-370,0,0,0,0,0,0,0,0,0,-1,1252,1394,0,0
35,-370,0,0,0,0,0,0,0,0,0,-1,1259,1394,0,0
42,-370,0,0,0,0,0,0,0,0,0,-1,1266,1394,0,0
49,-370,0,0,0,0,0,0,0,0,0,-1,1273,1394,0,0
56,-370,0,0,0,0,0,0,0,0,0,-1,1280,1394,0,0
63,-370,0,0,0,0,0,0,0,0,0,-1,1287,1394,0,0
70,-370,0,0,0,0,0,0,0,0,0,-1,1294,1394,0,0
77,-370,0,0,0,0,0,0,0,0,0,-1,1301,1394,0,0
84,-370,0,0,0,0,0,0,0,0,0,-1,1308,1394,0,0
91,-370,0,0,0,0,0,0,0,0,0,-1,1315,1394,0,0
98,-370,0,0,0,0,0,0,0,0,0,-1,1322,1394,0,0
105,-370,0,0,0,0,0,0,0,0,0,-1,1329,1394,0,0
112,-370,0,0,0,0,0,0,0,0,0,-1,1336,1394,0,0
119,-370,0,0,0,0,0,0,0,0,0,-1,1343,1394,0,0
126,-370,0,0,0,0,0,0,0,0,0,-1,1350,1394,0,0
133,-370,0,0,0,0,0,0,0,0,0,-1,1357,1394,0,0
140,-370,0,0,0,0,0,0,0,0,0,-1,1364,1394,0,0
147,-370,0,0,0,0,0,0,0,0,0,-1,1371,1394,0,0
154,-370,0,0,0,0,0,0,0,0,0,-1,1378,1394,0,0
161,-370,0,0,0,0,0,0,0,0,0,-1,1385,1394,0,0
168,-370,0,0,0,0,0,0,0,0,0,-1,1392,1394,0,0
175,-370,0,0,0,0,0,0,0,0,0,-1,1399,1394,0,0
182,-370,0,0,0,0,0,0,0,0,0,-1,1406,1394,0,0
189,-370,0,0,0,0,0,0,0,0,0,-1,1413,1394,0,0
196,-370,0,0,0,0,0,0,0,0,0,-1,1420,1394,0,0
203,-370,0,0,0,0,0,0,0,0,0,-1,1427,1394,0,0
210,-370,0,0,0,0,0,0,0,0,0,-1,1434,1394,0,0
217,-370,0,0,0,0,0,0,0,0,0,-1,1441,1394,0,0
224,-370,0,0,0,0,0,0,0,0,0,-1,1448,1394,0,0
231,-370,0,0,0,0,0,0,0,0,0,-1,1455,1394,0,0
238,-370,0,0,0,0,0,0,0,0,0,-1,1462,1394,0,0
245,-370,0,0,0,0,0,0,0,0,0,-1,1469,1394,0,0
252,-370,0,0,0,0,0,0,0,0,0,-1,1476,1394,0,0
259,-370,0,0,0,0,0,0,0,0,0,-1,1483,1394,0,0
266,-370,0,0,0,0,0,0,0,0,0,-1,1490,1394,0,0
273,-370,0,0,0,0,0,0,0,0,0,-1,1497,1394,0,0
280,-370,0,0,0,0,0,0,0,0,0,-1,1504,1394,0,0
287,-370,0,0,0,0,0,0,0,0,0,-1,1511,1394,0,0
294,-370,0,0,0,0,0,0,0,0,0,-1,1518,1394,0,0
301,-370,0,0,0,0,0,0,0,0,0,-1,1525,1394,0,0
308,-370,0,0,0,0,0,0,0,0,0,-1,1532,1394,0,0
315,-370,0,0,0,0,0,0,0,0,0,-1,1539,1394,0,0
322,-370,0,0,0,0,0,0,0,0,0,-1,1546,1394,0,0
329,-370,0,0,0,0,0,0,0,0,0,-1,1553,1394,0,0
336,-370,0,0,0,0,0,0,0,0,0,-1,1560,1394,0,0
343,-370,0,0,0,0,0,0,0,0,0,-1,1567,1394,0,0
350,-370,0,0,0,0,0,0,0,0,0,-1,1574,1394,0,0
357,-370,0,0,0,0,0,0,0,0,0,-1,1581,1394,0,0
364,-370,0,0,0,0,0,0,0,0,0,-1,1588,1394,0,0
371,-370,0,0,0,0,0,0,0,0,0,-1,1595,1394,0,0
378,-370,0,0,0,0,0,0,0,0,0,-1,1602,1394,0,0
385,-370,0,0,0,0,0,0,0,0,0,-1,1609,1394,0,0
392,-370,0,0,0,0,0,0,0,0,0,-1,1616,1394,0,0
399,-370,0,0,0,0,0,0,0,0,0,-1,1623,1394,0,0
406,-370,0,0,0,0,0,0,0,0,0,-1,1630,1394,0,0
413,-370,0,0,0,0,0,0,0,0,0,-1,1637,1394,0,0
420,-370,0,0,0,0,0,0,0,0,0,-1,1644,1394,0,0
427,-370,0,0,0,0,0,0,0,0,0,-1,1651,1394,0,0
434,-370,0,0,0,0,0,0,0,0,0,-1,1658,1394,0,0
441,-370,0,0,0,0,0,0,0,0,0,-1,1665,1394,0,0
448,-370,0,0,0,0,0,0,0,0,0,-1,1672,1394,0,0
455,-370,0,0,0,0,0,0,0,0,0,-1,1679,1394,0,0
462,-370,0,0,0,0,0,0,0,0,0,-1,1686,1394,0,0
469,-370,0,0,0,0,0,0,0,0,0,-1,1693,1394,0,0
476,-370,0,0,0,0,0,0,0,0,0,-1,1700,1394,0,0
483,-370,0,0,0,0,0,0,0,0,0,-1,1707,1394,0,0
490,-370,0,0,0,0,0,0,0,0,0,-1,1714,1394,0,0
497,-370,0,0,0,0,0,0,0,0,0,-1,1721,1394,0,0
504,-370,0,0,0,0,0,0,0,0,0,-1,1728,1394,0,0
511,-370,0,0,0,0,0,0,0,0,0,-1,1735,1394,0,0
518,-370,0,0,0,0,0,0,0,0,0,-1,1742,1394,0,0
525,-370,0,0,0,0,0,0,0,0,0,-1,1749,1394,0,0
532,-370,0,0,0,0,0,0,0,0,0,-1,1756,1394,0,0
539,-370,0,0,0,0,0,0,0,0,0,-1,1763,1394,0,0
546,-370,14.1436,1.36523,0,0,0,0,0,0,0,-1,1770,1394,14.1436,-1.36529
553,-370,15.9083,2.89819,0,0,0,0,0,0,0,-1,1777,1394,15.9083,-2.89823
560,-370,15.4474,2.85999,0,0,0,0,0,0,0,-1,1784,1394,15.4474,-2.85995
567,-370,15.5746,3.52197,0,0,0,0,0,0,0,-1,1791,1394,15.5746,-3.52193
574,-370,15.4227,3.54504,-0.0286388,0.0153756,0.0152978,0.0201703,-0.0334334,1.26707,0.0312623,0.045388,1798,1394,15.4227,-3.54498
581,-370,15.1979,3.79834,-0.0258901,0.0133691,0.0147929,0.018319,-0.03084,1.2479,0.0286872,0.0465096,1805,1394,15.1979,-3.79832
588,-370,14.9626,3.86938,-0.0237352,0.0106906,0.0145037,0.0159864,-0.029031,1.2207,0.026352,0.0462829,1812,1394,14.9627,-3.86939
595,-370,14.3458,3.79248,0,0,0,0,0,0,0,-1,1819,1394,14.3459,-3.79251
602,-370,13.9249,3.84509,0,0,0,0,0,0,0,-1,1826,1394,13.9249,-3.84511
609,-370,12.38,3.8916,0,0,0,0,0,0,0,-1,1833,1394,12.3801,-3.89158
616,-370,11.7595,3.51306,0,0,0,0,0,0,0,-1,1840,1394,11.7595,-3.51304
623,-370,11.0264,5.03259,0,0,0,0,0,0,0,-1,1847,1394,11.0264,-5.03253
630,-370,10.8949,5.21924,-0.0127803,-0.00742499,0.0104901,0.000723804,-0.0209291,0.910357,0.0142001,0.0304852,1854,1394,10.8949,-5.21922
637,-370,10.7633,5.26489,-0.0110802,-0.0082715,0.00998453,0.000406974,-0.0197586,0.855265,0.0133102,0.0192369,1861,1394,10.7634,-5.26488
644,-370,10.8436,5.07471,-0.00892386,-0.00818051,0.00914847,0.000603837,-0.0177082,0.805701,0.0120118,0.0105207,1868,1394,10.8437,-5.07472
651,-370,10.8646,4.89929,-0.00605101,-0.0060887,0.00658638,0.000516551,-0.0126563,0.783967,0.00861486,0.0108297,1875,1394,10.8647,-4.89933
658,-370,10.8599,4.76636,-0.00357056,-0.00476531,0.00466001,0.000530215,-0.00886608,0.72165,0.00609515,0.0114591,1882,1394,10.8598,-4.76637
665,-370,10.823,4.62939,-0.00145735,-0.00356014,0.00320705,0.000866251,-0.00588375,0.627,0.00424084,0.0124245,1889,1394,10.823,-4.62939
672,-370,10.8241,4.48547,0.00018289,-0.00320222,0.00214271,0.0012209,-0.00424022,0.451119,0.00330971,0.0136337,1896,1394,10.8241,-4.48546
679,-370,10.8615,4.33936,0.00153976,-0.00307851,0.00162343,0.00205333,-0.00359207,0.306383,0.00329948,0.013633,1903,1394,10.8615,-4.33935
686,-370,10.851,4.19519,0.00274728,-0.00346475,0.0014443,0.00306666,-0.00378413,0.217629,0.00396253,0.0141147,1910,1394,10.8509,-4.19523
693,-370,10.8507,4.005,0.00386452,-0.00457874,0.00168843,0.00418965,-0.00490386,0.190231,0.00525554,0.012405,1917,1394,10.8507,-4.00504
700,-370,10.9154,3.82825,0.0051829,-0.00618513,0.00218825,0.00558957,-0.0065918,0.183747,0.00704085,0.0150812,1924,1394,10.9154,-3.82827
707,-370,10.8324,3.72034,0.00689535,-0.00767321,0.00267534,0.00737111,-0.00814897,0.175991,0.00896427,0.0262061,1931,1394,10.8324,-3.72028
714,-370,11.1394,3.31763,0.00916084,-0.00902929,0.0029268,0.00962017,-0.00948861,0.155668,0.0110325,0.0414681,1938,1394,11.1394,-3.31764
721,-370,11.5072,2.93286,0,0,0,0,0,0,0,-1,1945,1394,11.5072,-2.93285
728,-370,12.1058,4.15918,0,0,0,0,0,0,0,-1,1952,1394,12.1058,-4.15922
735,-370,12.486,4.15796,0,0,0,0,0,0,0,-1,1959,1394,12.486,-4.15796
742,-370,12.6914,4.10376,0,0,0,0,0,0,0,-1,1966,1394,12.6914,-4.10374
749,-370,0,0,0,0,0,0,0,0,0,-1,1973,1394,0,0
756,-370,0,0,0,0,0,0,0,0,0,-1,1980,1394,0,0
763,-370,0,0,0,0,0,0,0,0,0,-1,1987,1394,0,0
770,-370,0,0,0,0,0,0,0,0,0,-1,1994,1394,0,0
777,-370,0,0,0,0,0,0,0,0,0,-1,2001,1394,0,0
784,-370,0,0,0,0,0,0,0,0,0,-1,2008,1394,0,0
791,-370,0,0,0,0,0,0,0,0,0,-1,2015,1394,0,0
798,-370,0,0,0,0,0,0,0,0,0,-1,2022,1394,0,0
805,-370,0,0,0,0,0,0,0,0,0,-1,2029,1394,0,0
812,-370,0,0,0,0,0,0,0,0,0,-1,2036,1394,0,0
-700,-377,0,0,0,0,0,0,0,0,0,-1,524,1401,0,0
-693,-377,0,0,0,0,0,0,0,0,0,-1,531,1401,0,0
-686,-377,0,0,0,0,0,0,0,0,0,-1,538,1401,0,0
-679,-377,0,0,0,0,0,0,0,0,0,-1,545,1401,0,0
-672,-377,0,0,0,0,0,0,0,0,0,-1,552,1401,0,0
-665,-377,0,0,0,0,0,0,0,0,0,-1,559,1401,0,0
-658,-377,0,0,0,0,0,0,0,0,0,-1,566,1401,0,0
-651,-377,0,0,0,0,0,0,0,0,0,-1,573,1401,0,0
-644,-377,0,0,0,0,0,0,0,0,0,-1,580,1401,0,0
-637,-377,0,0,0,0,0,0,0,0,0,-1,587,1401,0,0
-630,-377,0,0,0,0,0,0,0,0,0,-1,594,1401,0,0
-623,-377,0,0,0,0,0,0,0,0,0,-1,601,1401,0,0
-616,-377,-7.22272,-0.672729,0,0,0,0,0,0,0,-1,608,1401,-7.22273,0.672721
-609,-377,-6.1059,-0.339233,0,0,0,0,0,0,0,-1,615,1401,-6.10591,0.339233
-602,-377,-6.02283,0.0800781,0,0,0,0,0,0,0,-1,622,1401,-6.02282,-0.0800747
-595,-377,-5.38544,-0.137451,0,0,0,0,0,0,0,-1,629,1401,-5.38541,0.137449
-588,-377,-3.29443,1.21448,0,0,0,0,0,0,0,-1,636,1401,-3.29441,-1.21449
-581,-377,-3.66345,1.7666,0.0263749,0.0192614,0.00657083,0.0302898,0.0153464,0.537331,0.0174883,0.0485681,643,1401,-3.66343,-1.76657
-574,-377,-3.66187,2.01807,0.0174491,0.0124193,0.00337313,0.0191416,0.0107267,0.465069,0.0110783,0.0461262,650,1401,-3.66185,-2.01803
-567,-377,-3.64172,2.05396,0.0111914,0.00754404,0.0013231,0.0116208,0.00711463,0.313825,0.00676536,0.0284681,657,1401,-3.64175,-2.05397
-560,-377,-3.77014,2.18518,0.00695584,0.00425485,0.000128354,0.00696193,0.00424876,0.0473788,0.00405193,0.0176699,664,1401,-3.77012,-2.18518
-553,-377,-3.76453,2.33374,0.0042361,0.00213618,-0.000534178,0.00436417,0.0020081,-0.235316,0.00252232,0.011635,671,1401,-3.76451,-2.33373
-546,-377,-3.77094,2.54053,0.00250439,0.000535404,-0.00122832,0.00309406,-5.42699e-05,-0.447573,0.00208103,0.0158492,678,1401,-3.77091,-2.54049
-539,-377,-3.7475,2.69128,0.00139226,-0.00097927,-0.00166969,0.0022544,-0.00184141,-0.476638,0.00236872,0.0212838,685,1401,-3.7475,-2.69125
-532,-377,-3.74847,2.86768,-2.86002e-05,-0.00304758,-0.00206945,0.00102339,-0.00409957,-0.470299,0.00313044,0.0194894,692,1401,-3.74848,-2.86772
-525,-377,-3.69238,3.05713,-0.000536437,-0.00467129,-0.00273069,0.000821178,-0.0060289,-0.461381,0.00431909,0.0173751,699,1401,-3.69239,-3.05712
-518,-377,-3.7359,3.20886,-0.00137558,-0.00656364,-0.00348772,0.000377019,-0.00831624,-0.46565,0.00567401,0.0118846,706,1401,-3.73588,-3.2089
-511,-377,-3.7348,3.39282,-0.00255365,-0.00917246,-0.00467774,-0.000133005,-0.0115931,-0.477535,0.00768478,0.0117982,713,1401,-3.73483,-3.39276
-504,-377,-3.74133,3.58691,-0.00458052,-0.0126249,-0.006331,-0.00110208,-0.0161034,-0.502406,0.0103877,0.0116129,720,1401,-3.74132,-3.58691
-497,-377,-3.58582,3.75354,-0.00728226,-0.0170603,-0.00845514,-0.00240441,-0.0219382,-0.523268,0.0138935,0.0183953,727,1401,-3.58581,-3.75358
-490,-377,-3.6499,3.74316,-0.0111613,-0.0227615,-0.0109457,-0.00457399,-0.0293488,-0.541759,0.0182335,0.0378124,734,1401,-3.64989,-3.74316
-483,-377,-3.8996,3.44714,-0.0163475,-0.0296594,-0.0137583,-0.00771973,-0.0382871,-0.560106,0.0233802,0.0427667,741,1401,-3.89958,-3.44715
-476,-377,-4.09589,3.16797,-0.023024,-0.0376998,-0.0168476,-0.0119857,-0.0487382,-0.580013,0.029325,0.0432613,748,1401,-4.09591,-3.16802
-469,-377,-4.25946,2.896,0,0,0,0,0,0,0,-1,755,1401,-4.25947,-2.89602
-462,-377,-4.25885,2.74878,0,0,0,0,0,0,0,-1,762,1401,-4.25883,-2.7488
-455,-377,-1.83484,1.34021,0,0,0,0,0,0,0,-1,769,1401,-1.83483,-1.34018
-448,-377,-2.71375,-1.16174,0,0,0,0,0,0,0,-1,776,1401,-2.71377,1.16169
-441,-377,-7.06641,0.654663,0,0,0,0,0,0,0,-1,783,1401,-7.06641,-0.654675
-434,-377,-6.90076,0.886108,0,0,0,0,0,0,0,-1,790,1401,-6.90078,-0.886068
-427,-377,-6.73157,1.24084,0,0,0,0,0,0,0,-1,797,1401,-6.73154,-1.2408
-420,-377,0,0,0,0,0,0,0,0,0,-1,804,1401,0,0
-413,-377,0,0,0,0,0,0,0,0,0,-1,811,1401,0,0
-406,-377,0,0,0,0,0,0,0,0,0,-1,818,1401,0,0
-399,-377,0,0,0,0,0,0,0,0,0,-1,825,1401,0,0
-392,-377,0,0,0,0,0,0,0,0,0,-1,832,1401,0,0
-385,-377,0,0,0,0,0,0,0,0,0,-1,839,1401,0,0
-378,-377,0,0,0,0,0,0,0,0,0,-1,846,1401,0,0
-371,-377,0,0,0,0,0,0,0,0,0,-1,853,1401,0,0
-364,-377,0,0,0,0,0,0,0,0,0,-1,860,1401,0,0
-357,-377,0,0,0,0,0,0,0,0,0,-1,867,1401,0,0
-350,-377,0,0,0,0,0,0,0,0,0,-1,874,1401,0,0
-343,-377,0,0,0,0,0,0,0,0,0,-1,881,1401,0,0
-336,-377,0,0,0,0,0,0,0,0,0,-1,888,1401,0,0
-329,-377,0,0,0,0,0,0,0,0,0,-1,895,1401,0,0
-322,-377,0,0,0,0,0,0,0,0,0,-1,902,1401,0,0
-315,-377,0,0,0,0,0,0,0,0,0,-1,909,1401,0,0
-308,-377,0,0,0,0,0,0,0,0,0,-1,916,1401,0,0
-301,-377,0,0,0,0,0,0,0,0,0,-1,923,1401,0,0
-294,-377,0,0,0,0,0,0,0,0,0,-1,930,1401,0,0
-287,-377,0,0,0,0,0,0,0,0,0,-1,937,1401,0,0
-280,-377,0,0,0,0,0,0,0,0,0,-1,944,1401,0,0
-273,-377,0,0,0,0,0,0,0,0,0,-1,951,1401,0,0
-266,-377,0,0,0,0,0,0,0,0,0,-1,958,1401,0,0
-259,-377,0,0,0,0,0,0,0,0,0,-1,965,1401,0,0
-252,-377,0,0,0,0,0,0,0,0,0,-1,972,1401,0,0
-245,-377,0,0,0,0,0,0,0,0,0,-1,979,1401,0,0
-238,-377,0,0,0,0,0,0,0,0,0,-1,986,1401,0,0
-231,-377,0,0,0,0,0,0,0,0,0,-1,993,1401,0,0
-224,-377,0,0,0,0,0,0,0,0,0,-1,1000,1401,0,0
-217,-377,0,0,0,0,0,0,0,0,0,-1,1007,1401,0,0
-210,-377,0,0,0,0,0,0,0,0,0,-1,1014,1401,0,0
-203,-377,0,0,0,0,0,0,0,0,0,-1,1021,1401,0,0
-196,-377,0,0,0,0,0,0,0,0,0,-1,1028,1401,0,0
-189,-377,0,0,0,0,0,0,0,0,0,-1,1035,1401,0,0
-182,-377,0,0,0,0,0,0,0,0,0,-1,1042,1401,0,0
-175,-377,0,0,0,0,0,0,0,0,0,-1,1049,1401,0,0
-168,-377,0,0,0,0,0,0,0,0,0,-1,1056,1401,0,0
-161,-377,0,0,0,0,0,0,0,0,0,-1,1063,1401,0,0
-154,-377,0,0,0,0,0,0,0,0,0,-1,1070,1401,0,0
-147,-377,0,0,0,0,0,0,0,0,0,-1,1077,1401,0,0
-140,-377,0,0,0,0,0,0,0,0,0,-1,1084,1401,0,0
-133,-377,0,0,0,0,0,0,0,0,0,-1,1091,1401,0,0
-126,-377,0,0,0,0,0,0,0,0,0,-1,1098,1401,0,0
-119,-377,0,0,0,0,0,0,0,0,0,-1,1105,1401,0,0
-112,-377,0,0,0,0,0,0,0,0,0,-1,1112,1401,0,0
-105,-377,0,0,0,0,0,0,0,0,0,-1,1119,1401,0,0
-98,-377,0,0,0,0,0,0,0,0,0,-1,1126,1401,0,0
-91,-377,0,0,0,0,0,0,0,0,0,-1,1133,1401,0,0
-84,-377,0,0,0,0,0,0,0,0,0,-1,1140,1401,0,0
-77,-377,0,0,0,0,0,0,0,0,0,-1,1147,1401,0,0
-70,-377,0,0,0,0,0,0,0,0,0,-1,1154,1401,0,0
-63,-377,0,0,0,0,0,0,0,0,0,-1,1161,1401,0,0
-56,-377,0,0,0,0,0,0,0,0,0,-1,1168,1401,0,0
-49,-377,0,0,0,0,0,0,0,0,0,-1,1175,1401,0,0
-42,-377,0,0,0,0,0,0,0,0,0,-1,1182,1401,0,0
-35,-377,0,0,0,0,0,0,0,0,0,-1,1189,1401,0,0
-28,-377,0,0,0,0,0,0,0,0,0,-1,1196,1401,0,0
-21,-377,0,0,0,0,0,0,0,0,0,-1,1203,1401,0,0
-14,-377,0,0,0,0,0,0,0,0,0,-1,1210,1401,0,0
-7,-377,0,0,0,0,0,0,0,0,0,-1,1217,1401,0,0
0,-377,0,0,0,0,0,0,0,0,0,-1,1224,1401,0,0
7,-377,0,0,0,0,0,0,0,0,0,-1,1231,1401,0,0
14,-377,0,0,0,0,0,0,0,0,0,-1,1238,1401,0,0
21,-377,0,0,0,0,0,0,0,0,0,-1,1245,1401,0,0
28,-377,0,0,0,0,0,0,0,0,0,-1,1252,1401,0,0
35,-377,0,0,0,0,0,0,0,0,0,-1,1259,1401,0,0
42,-377,0,0,0,0,0,0,0,0,0,-1,1266,1401,0,0
49,-377,0,0,0,0,0,0,0,0,0,-1,1273,1401,0,0
56,-377,0,0,0,0,0,0,0,0,0,-1,1280,1401,0,0
63,-377,0,0,0,0,0,0,0,0,0,-1,1287,1401,0,0
70,-377,0,0,0,0,0,0,0,0,0,-1,1294,1401,0,0
77,-377,0,0,0,0,0,0,0,0,0,-1,1301,1401,0,0
84,-377,0,0,0,0,0,0,0,0,0,-1,1308,1401,0,0
91,-377,0,0,0,0,0,0,0,0,0,-1,1315,1401,0,0
98,-377,0,0,0,0,0,0,0,0,0,-1,1322,1401,0,0
105,-377,0,0,0,0,0,0,0,0,0,-1,1329,1401,0,0
112,-377,0,0,0,0,0,0,0,0,0,-1,1336,1401,0,0
119,-377,0,0,0,0,0,0,0,0,0,-1,1343,1401,0,0
126,-377,0,0,0,0,0,0,0,0,0,-1,1350,1401,0,0
133,-377,0,0,0,0,0,0,0,0,0,-1,1357,1401,0,0
140,-377,0,0,0,0,0,0,0,0,0,-1,1364,1401,0,0
147,-377,0,0,0,0,0,0,0,0,0,-1,1371,1401,0,0
154,-377,0,0,0,0,0,0,0,0,0,-1,1378,1401,0,0
161,-377,0,0,0,0,0,0,0,0,0,-1,1385,1401,0,0
168,-377,0,0,0,0,0,0,0,0,0,-1,1392,1401,0,0
175,-377,0,0,0,0,0,0,0,0,0,-1,1399,1401,0,0
182,-377,0,0,0,0,0,0,0,0,0,-1,1406,1401,0,0
189,-377,0,0,0,0,0,0,0,0,0,-1,1413,1401,0,0
196,-377,0,0,0,0,0,0,0,0,0,-1,1420,1401,0,0
203,-377,0,0,0,0,0,0,0,0,0,-1,1427,1401,0,0
210,-377,0,0,0,0,0,0,0,0,0,-1,1434,1401,0,0
217,-377,0,0,0,0,0,0,0,0,0,-1,1441,1401,0,0
224,-377,0,0,0,0,0,0,0,0,0,-1,1448,1401,0,0
231,-377,0,0,0,0,0,0,0,0,0,-1,1455,1401,0,0
238,-377,0,0,0,0,0,0,0,0,0,-1,1462,1401,0,0
245,-377,0,0,0,0,0,0,0,0,0,-1,1469,1401,0,0
252,-377,0,0,0,0,0,0,0,0,0,-1,1476,1401,0,0
259,-377,0,0,0,0,0,0,0,0,0,-1,1483,1401,0,0
266,-377,0,0,0,0,0,0,0,0,0,-1,1490,1401,0,0
273,-377,0,0,0,0,0,0,0,0,0,-1,1497,1401,0,0
280,-377,0,0,0,0,0,0,0,0,0,-1,1504,1401,0,0
287,-377,0,0,0,0,0,0,0,0,0,-1,1511,1401,0,0
294,-377,0,0,0,0,0,0,0,0,0,-1,1518,1401,0,0
301,-377,0,0,0,0,0,0,0,0,0,-1,1525,1401,0,0
308,-377,0,0,0,0,0,0,0,0,0,-1,1532,1401,0,0
315,-377,0,0,0,0,0,0,0,0,0,-1,1539,1401,0,0
322,-377,0,0,0,0,0,0,0,0,0,-1,1546,1401,0,0
329,-377,0,0,0,0,0,0,0,0,0,-1,1553,1401,0,0
336,-377,0,0,0,0,0,0,0,0,0,-1,1560,1401,0,0
343,-377,0,0,0,0,0,0,0,0,0,-1,1567,1401,0,0
350,-377,0,0,0,0,0,0,0,0,0,-1,1574,1401,0,0
357,-377,0,0,0,0,0,0,0,0,0,-1,1581,1401,0,0
364,-377,0,0,0,0,0,0,0,0,0,-1,1588,1401,0,0
371,-377,0,0,0,0,0,0,0,0,0,-1,1595,1401,0,0
378,-377,0,0,0,0,0,0,0,0,0,-1,1602,1401,0,0
385,-377,0,0,0,0,0,0,0,0,0,-1,1609,1401,0,0
392,-377,0,0,0,0,0,0,0,0,0,-1,1616,1401,0,0
399,-377,0,0,0,0,0,0,0,0,0,-1,1623,1401,0,0
406,-377,0,0,0,0,0,0,0,0,0,-1,1630,1401,0,0
413,-377,0,0,0,0,0,0,0,0,0,-1,1637,1401,0,0
420,-377,0,0,0,0,0,0,0,0,0,-1,1644,1401,0,0
427,-377,0,0,0,0,0,0,0,0,0,-1,1651,1401,0,0
434,-377,0,0,0,0,0,0,0,0,0,-1,1658,1401,0,0
441,-377,0,0,0,0,0,0,0,0,0,-1,1665,1401,0,0
448,-377,0,0,0,0,0,0,0,0,0,-1,1672,1401,0,0
455,-377,0,0,0,0,0,0,0,0,0,-1,1679,1401,0,0
462,-377,0,0,0,0,0,0,0,0,0,-1,1686,1401,0,0
469,-377,0,0,0,0,0,0,0,0,0,-1,1693,1401,0,0
476,-377,0,0,0,0,0,0,0,0,0,-1,1700,1401,0,0
483,-377,0,0,0,0,0,0,0,0,0,-1,1707,1401,0,0
490,-377,0,0,0,0,0,0,0,0,0,-1,1714,1401,0,0
497,-377,0,0,0,0,0,0,0,0,0,-1,1721,1401,0,0
504,-377,0,0,0,0,0,0,0,0,0,-1,1728,1401,0,0
511,-377,0,0,0,0,0,0,0,0,0,-1,1735,1401,0,0
518,-377,0,0,0,0,0,0,0,0,0,-1,1742,1401,0,0
525,-377,0,0,0,0,0,0,0,0,0,-1,1749,1401,0,0
532,-377,0,0,0,0,0,0,0,0,0,-1,1756,1401,0,0
539,-377,0,0,0,0,0,0,0,0,0,-1,1763,1401,0,0
546,-377,14.7473,1.73767,0,0,0,0,0,0,0,-1,1770,1401,14.7473,-1.73761
553,-377,15.2067,2.43982,0,0,0,0,0,0,0,-1,1777,1401,15.2066,-2.43982
560,-377,14.7927,2.2428,-0.0391982,0.0073834,0.0196536,0.0145676,-0.0463824,1.22034,0.0367527,0.0449675,1784,1401,14.7927,-2.24278
567,-377,14.3683,2.0188,-0.0353004,0.00886033,0.0204098,0.0168483,-0.0432883,1.19775,0.035821,0.0424267,1791,1401,14.3683,-2.01885
574,-377,15.2869,3.34058,0,0,0,0,0,0,0,-1,1798,1401,15.2868,-3.34056
581,-377,15.049,3.5929,0,0,0,0,0,0,0,-1,1805,1401,15.0489,-3.59284
588,-377,15.1028,3.70435,0,0,0,0,0,0,0,-1,1812,1401,15.1027,-3.70435
595,-377,14.5502,3.97974,0,0,0,0,0,0,0,-1,1819,1401,14.5501,-3.97971
602,-377,12.8256,4.0741,0,0,0,0,0,0,0,-1,1826,1401,12.8256,-4.07412
609,-377,12.2711,4.00598,0,0,0,0,0,0,0,-1,1833,1401,12.2712,-4.00597
616,-377,11.5236,4.78064,0,0,0,0,0,0,0,-1,1840,1401,11.5236,-4.78059
623,-377,10.7916,5.17102,-0.0144002,-0.0067488,0.012386,0.00238888,-0.0235378,0.935186,0.0165458,0.0462669,1847,1401,10.7916,-5.17105
630,-377,10.6898,5.41028,-0.0124125,-0.00808583,0.0107933,0.000758793,-0.0212571,0.884304,0.014431,0.0263806,1854,1401,10.6898,-5.4103
637,-377,10.6622,5.25732,-0.0102333,-0.008071,0.00948234,0.00039161,-0.018696,0.842163,0.0125965,0.0127148,1861,1401,10.6622,-5.25735
644,-377,10.6901,5.07666,-0.00782163,-0.00726357,0.00807218,0.000534401,-0.0156196,0.802675,0.0105957,0.0106922,1868,1401,10.6901,-5.07661
651,-377,10.7045,4.8999,-0.00514736,-0.00527589,0.00572032,0.000509061,-0.0109323,0.779781,0.00746368,0.0122816,1875,1401,10.7045,-4.89985
658,-377,10.7032,4.76379,-0.00274201,-0.00423908,0.004036,0.000614284,-0.00759537,0.693707,0.00528027,0.0131747,1882,1401,10.7033,-4.76384
665,-377,10.6938,4.62659,-0.000692125,-0.00331142,0.00280868,0.00109724,-0.00510079,0.567241,0.00381918,0.0145276,1889,1401,10.6938,-4.62663
672,-377,10.7072,4.46838,0.00090265,-0.00325511,0.00203051,0.00172975,-0.00408221,0.386814,0.00344594,0.0152527,1896,1401,10.7072,-4.4684
679,-377,10.7151,4.31506,0.00227741,-0.00360762,0.00180865,0.00278882,-0.00411903,0.275565,0.00401282,0.0170195,1903,1401,10.715,-4.31504
686,-377,10.7047,4.17065,0.00358329,-0.00471873,0.00203581,0.00405563,-0.00519107,0.227984,0.00535198,0.0150462,1910,1401,10.7047,-4.1707
693,-377,10.7136,3.99158,0.00493712,-0.0067293,0.0027441,0.00555034,-0.00734252,0.219855,0.00746763,0.012379,1917,1401,10.7136,-3.99152
700,-377,10.7151,3.81042,0.00674754,-0.00943772,0.00376314,0.0075797,-0.0102699,0.217632,0.0103444,0.0208185,1924,1401,10.7151,-3.81037
707,-377,10.6035,3.73694,0.00913549,-0.012747,0.00494146,0.0101996,-0.0138111,0.212107,0.0139148,0.0381781,1931,1401,10.6035,-3.73694
714,-377,10.6343,3.51025,0.0122915,-0.0166228,0.0062717,0.0135933,-0.0179246,0.204656,0.018254,0.0457991,1938,1401,10.6342,-3.51031
721,-377,10.7917,3.28333,0,0,0,0,0,0,0,-1,1945,1401,10.7918,-3.28333
728,-377,12.5571,5.13257,0,0,0,0,0,0,0,-1,1952,1401,12.5571,-5.13256
735,-377,12.7489,5.08521,0,0,0,0,0,0,0,-1,1959,1401,12.7489,-5.08523
742,-377,0,0,0,0,0,0,0,0,0,-1,1966,1401,0,0
749,-377,0,0,0,0,0,0,0,0,0,-1,1973,1401,0,0
756,-377,0,0,0,0,0,0,0,0,0,-1,1980,1401,0,0
763,-377,0,0,0,0,0,0,0,0,0,-1,1987,1401,0,0
770,-377,0,0,0,0,0,0,0,0,0,-1,1994,1401,0,0
777,-377,0,0,0,0,0,0,0,0,0,-1,2001,1401,0,0
784,-377,0,0,0,0,0,0,0,0,0,-1,2008,1401,0,0
791,-377,0,0,0,0,0,0,0,0,0,-1,2015,1401,0,0
798,-377,0,0,0,0,0,0,0,0,0,-1,2022,1401,0,0
805,-377,0,0,0,0,0,0,0,0,0,-1,2029,1401,0,0
812,-377,0,0,0,0,0,0,0,0,0,-1,2036,1401,0,0
-700,-384,0,0,0,0,0,0,0,0,0,-1,524,1408,0,0
-693,-384,0,0,0,0,0,0,0,0,0,-1,531,1408,0,0
-686,-384,0,0,0,0,0,0,0,0,0,-1,538,1408,0,0
-679,-384,0,0,0,0,0,0,0,0,0,-1,545,1408,0,0
-672,-384,0,0,0,0,0,0,0,0,0,-1,552,1408,0,0
-665,-384,0,0,0,0,0,0,0,0,0,-1,559,1408,0,0
-658,-384,0,0,0,0,0,0,0,0,0,-1,566,1408,0,0
-651,-384,0,0,0,0,0,0,0,0,0,-1,573,1408,0,0
-644,-384,0,0,0,0,0,0,0,0,0,-1,580,1408,0,0
-637,-384,0,0,0,0,0,0,0,0,0,-1,587,1408,0,0
-630,-384,0,0,0,0,0,0,0,0,0,-1,594,1408,0,0
-623,-384,0,0,0,0,0,0,0,0,0,-1,601,1408,0,0
-616,-384,-7.79321,-0.791626,0,0,0,0,0,0,0,-1,608,1408,-7.7932,0.791616
-609,-384,-6.60339,-1.39514,0,0,0,0,0,0,0,-1,615,1408,-6.60338,1.39511
-602,-384,-5.52179,-0.933228,0,0,0,0,0,0,0,-1,622,1408,-5.5218,0.933223
-595,-384,-4.73016,-0.719971,0,0,0,0,0,0,0,-1,629,1408,-4.73018,0.719983
-588,-384,-3.87634,-0.517212,0,0,0,0,0,0,0,-1,636,1408,-3.87633,0.517183
-581,-384,-3.55292,1.64417,0,0,0,0,0,0,0,-1,643,1408,-3.55291,-1.64422
-574,-384,-3.51221,2.08801,0,0,0,0,0,0,0,-1,650,1408,-3.51218,-2.08799
-567,-384,-3.38257,1.8938,0.0171399,0.00754569,0.00471833,0.0190715,0.00561414,0.388559,0.011317,0.0405361,657,1408,-3.38256,-1.89386
-560,-384,-3.50952,2.1416,0.0110356,0.00419421,0.00255425,0.011884,0.00334579,0.320696,0.00707616,0.0243907,664,1408,-3.50955,-2.14162
-553,-384,-3.57336,2.32495,0.00696864,0.00210582,0.00119006,0.00724426,0.00183021,0.227588,0.00434974,0.0166887,671,1408,-3.57339,-2.32493
-546,-384,-3.57886,2.53442,0.00428616,0.000638622,2.83206e-06,0.00428616,0.00063862,0.00077643,0.00267015,0.0144438,678,1408,-3.57887,-2.53437
-539,-384,-3.60376,2.68164,0.0025717,-0.00065173,-0.00074893,0.00273721,-0.000817238,-0.217497,0.00214964,0.0162633,685,1408,-3.60378,-2.68168
-532,-384,-3.58087,2.82544,0.000727187,-0.00251962,-0.00129049,0.00117762,-0.00297005,-0.335821,0.00246807,0.0225025,692,1408,-3.58084,-2.8254
-525,-384,-3.55658,3.03174,6.86898e-05,-0.00391311,-0.00205125,0.00093634,-0.00478076,-0.400164,0.0035408,0.0211982,699,1408,-3.5566,-3.03169
-518,-384,-3.56573,3.22473,-0.000903814,-0.00553487,-0.00286804,0.000466757,-0.00690544,-0.445793,0.00476683,0.0121139,706,1408,-3.56572,-3.22476
-511,-384,-3.56482,3.41711,-0.00203116,-0.00770941,-0.0039414,-1.27833e-05,-0.00972778,-0.473277,0.00648093,0.0102242,713,1408,-3.56482,-3.41706
-504,-384,-3.56995,3.60938,-0.00394389,-0.0105721,-0.00535542,-0.000960081,-0.0135559,-0.508322,0.00873487,0.0112519,720,1408,-3.56996,-3.60943
-497,-384,-3.54126,3.79248,-0.00639673,-0.0142821,-0.00713574,-0.00218688,-0.0184919,-0.533009,0.0116675,0.0131352,727,1408,-3.54125,-3.79251
-490,-384,-3.45154,3.98254,-0.0098177,-0.0190602,-0.00917619,-0.00416479,-0.0247131,-0.552131,0.0152776,0.0263286,734,1408,-3.45151,-3.98251
-483,-384,-3.72687,4.01025,-0.0142795,-0.0248082,-0.0114413,-0.00694955,-0.0321382,-0.569781,0.0195256,0.0442896,741,1408,-3.72687,-4.0102
-476,-384,-4.08661,3.83948,-0.0197415,-0.0315771,-0.0138968,-0.010555,-0.0407636,-0.584108,0.0244297,0.0442091,748,1408,-4.08663,-3.83945
-469,-384,-4.2251,3.49646,0,0,0,0,0,0,0,-1,755,1408,-4.22508,-3.49644
-462,-384,-2.23645,1.61475,0,0,0,0,0,0,0,-1,762,1408,-2.23647,-1.61471
-455,-384,-3.7196,2.30798,0,0,0,0,0,0,0,-1,769,1408,-3.71961,-2.30802
-448,-384,-1.89233,1.6134,0,0,0,0,0,0,0,-1,776,1408,-1.89231,-1.61337
-441,-384,-2.54742,0.868164,0,0,0,0,0,0,0,-1,783,1408,-2.54745,-0.868223
-434,-384,-5.99164,0.274902,0,0,0,0,0,0,0,-1,790,1408,-5.99164,-0.274901
-427,-384,-5.77826,1.16138,0,0,0,0,0,0,0,-1,797,1408,-5.77824,-1.16133
-420,-384,-5.56482,2.04773,0,0,0,0,0,0,0,-1,804,1408,-5.56483,-2.04776
-413,-384,0,0,0,0,0,0,0,0,0,-1,811,1408,0,0
-406,-384,0,0,0,0,0,0,0,0,0,-1,818,1408,0,0
-399,-384,0,0,0,0,0,0,0,0,0,-1,825,1408,0,0
-392,-384,0,0,0,0,0,0,0,0,0,-1,832,1408,0,0
-385,-384,0,0,0,0,0,0,0,0,0,-1,839,1408,0,0
-378,-384,0,0,0,0,0,0,0,0,0,-1,846,1408,0,0
-371,-384,0,0,0,0,0,0,0,0,0,-1,853,1408,0,0
-364,-384,0,0,0,0,0,0,0,0,0,-1,860,1408,0,0
-357,-384,0,0,0,0,0,0,0,0,0,-1,867,1408,0,0
-350,-384,0,0,0,0,0,0,0,0,0,-1,874,1408,0,0
-343,-384,0,0,0,0,0,0,0,0,0,-1,881,1408,0,0
-336,-384,0,0,0,0,0,0,0,0,0,-1,888,1408,0,0
-329,-384,0,0,0,0,0,0,0,0,0,-1,895,1408,0,0
-322,-384,0,0,0,0,0,0,0,0,0,-1,902,1408,0,0
-315,-384,0,0,0,0,0,0,0,0,0,-1,909,1408,0,0
-308,-384,0,0,0,0,0,0,0,0,0,-1,916,1408,0,0
-301,-384,0,0,0,0,0,0,0,0,0,-1,923,1408,0,0
-294,-384,0,0,0,0,0,0,0,0,0,-1,930,1408,0,0
-287,-384,0,0,0,0,0,0,0,0,0,-1,937,1408,0,0
-280,-384,0,0,0,0,0,0,0,0,0,-1,944,1408,0,0
-273,-384,0,0,0,0,0,0,0,0,0,-1,951,1408,0,0
-266,-384,0,0,0,0,0,0,0,0,0,-1,958,1408,0,0
-259,-384,0,0,0,0,0,0,0,0,0,-1,965,1408,0,0
-252,-384,0,0,0,0,0,0,0,0,0,-1,972,1408,0,0
-245,-384,0,0,0,0,0,0,0,0,0,-1,979,1408,0,0
-238,-384,0,0,0,0,0,0,0,0,0,-1,986,1408,0,0
-231,-384,0,0,0,0,0,0,0,0,0,-1,993,1408,0,0
-224,-384,0,0,0,0,0,0,0,0,0,-1,1000,1408,0,0
-217,-384,0,0,0,0,0,0,0,0,0,-1,1007,1408,0,0
-210,-384,0,0,0,0,0,0,0,0,0,-1,1014,1408,0,0
-203,-384,0,0,0,0,0,0,0,0,0,-1,1021,1408,0,0
-196,-384,0,0,0,0,0,0,0,0,0,-1,1028,1408,0,0
-189,-384,0,0,0,0,0,0,0,0,0,-1,1035,1408,0,0
-182,-384,0,0,0,0,0,0,0,0,0,-1,1042,1408,0,0
-175,-384,0,0,0,0,0,0,0,0,0,-1,1049,1408,0,0
-168,-384,0,0,0,0,0,0,0,0,0,-1,1056,1408,0,0
-161,-384,0,0,0,0,0,0,0,0,0,-1,1063,1408,0,0
-154,-384,0,0,0,0,0,0,0,0,0,-1,1070,1408,0,0
-147,-384,0,0,0,0,0,0,0,0,0,-1,1077,1408,0,0
-140,-384,0,0,0,0,0,0,0,0,0,-1,1084,1408,0,0
-133,-384,0,0,0,0,0,0,0,0,0,-1,1091,1408,0,0
-126,-384,0,0,0,0,0,0,0,0,0,-1,1098,1408,0,0
-119,-384,0,0,0,0,0,0,0,0,0,-1,1105,1408,0,0
-112,-384,0,0,0,0,0,0,0,0,0,-1,1112,1408,0,0
-105,-384,0,0,0,0,0,0,0,0,0,-1,1119,1408,0,0
-98,-384,0,0,0,0,0,0,0,0,0,-1,1126,1408,0,0
-91,-384,0,0,0,0,0,0,0,0,0,-1,1133,1408,0,0
-84,-384,0,0,0,0,0,0,0,0,0,-1,1140,1408,0,0
-77,-384,0,0,0,0,0,0,0,0,0,-1,1147,1408,0,0
-70,-384,0,0,0,0,0,0,0,0,0,-1,1154,1408,0,0
-63,-384,0,0,0,0,0,0,0,0,0,-1,1161,1408,0,0
-56,-384,0,0,0,0,0,0,0,0,0,-1,1168,1408,0,0
-49,-384,0,0,0,0,0,0,0,0,0,-1,1175,1408,0,0
-42,-384,0,0,0,0,0,0,0,0,0,-1,1182,1408,0,0
-35,-384,0,0,0,0,0,0,0,0,0,-1,1189,1408,0,0
-28,-384,0,0,0,0,0,0,0,0,0,-1,1196,1408,0,0
-21,-384,0,0,0,0,0,0,0,0,0,-1,1203,1408,0,0
-14,-384,0,0,0,0,0,0,0,0,0,-1,1210,1408,0,0
-7,-384,0,0,0,0,0,0,0,0,0,-1,1217,1408,0,0
0,-384,0,0,0,0,0,0,0,0,0,-1,1224,1408,0,0
7,-384,0,0,0,0,0,0,0,0,0,-1,1231,1408,0,0
14,-384,0,0,0,0,0,0,0,0,0,-1,1238,1408,0,0
21,-384,0,0,0,0,0,0,0,0,0,-1,1245,1408,0,0
28,-384,0,0,0,0,0,0,0,0,0,-1,1252,1408,0,0
35,-384,0,0,0,0,0,0,0,0,0,-1,1259,1408,0,0
42,-384,0,0,0,0,0,0,0,0,0,-1,1266,1408,0,0
49,-384,0,0,0,0,0,0,0,0,0,-1,1273,1408,0,0
56,-384,0,0,0,0,0,0,0,0,0,-1,1280,1408,0,0
63,-384,0,0,0,0,0,0,0,0,0,-1,1287,1408,0,0
70,-384,0,0,0,0,0,0,0,0,0,-1,1294,1408,0,0
77,-384,0,0,0,0,0,0,0,0,0,-1,1301,1408,0,0
84,-384,0,0,0,0,0,0,0,0,0,-1,1308,1408,0,0
91,-384,0,0,0,0,0,0,0,0,0,-1,1315,1408,0,0
98,-384,0,0,0,0,0,0,0,0,0,-1,1322,1408,0,0
105,-384,0,0,0,0,0,0,0,0,0,-1,1329,1408,0,0
112,-384,0,0,0,0,0,0,0,0,0,-1,1336,1408,0,0
119,-384,0,0,0,0,0,0,0,0,0,-1,1343,1408,0,0
126,-384,0,0,0,0,0,0,0,0,0,-1,1350,1408,0,0
133,-384,0,0,0,0,0,0,0,0,0,-1,1357,1408,0,0
140,-384,0,0,0,0,0,0,0,0,0,-1,1364,1408,0,0
147,-384,0,0,0,0,0,0,0,0,0,-1,1371,1408,0,0
154,-384,0,0,0,0,0,0,0,0,0,-1,1378,1408,0,0
161,-384,0,0,0,0,0,0,0,0,0,-1,1385,1408,0,0
168,-384,0,0,0,0,0,0,0,0,0,-1,1392,1408,0,0
175,-384,0,0,0,0,0,0,0,0,0,-1,1399,1408,0,0
182,-384,0,0,0,0,0,0,0,0,0,-1,1406,1408,0,0
189,-384,0,0,0,0,0,0,0,0,0,-1,1413,1408,0,0
196,-384,0,0,0,0,0,0,0,0,0,-1,1420,1408,0,0
203,-384,0,0,0,0,0,0,0,0,0,-1,1427,1408,0,0
210,-384,0,0,0,0,0,0,0,0,0,-1,1434,1408,0,0
217,-384,0,0,0,0,0,0,0,0,0,-1,1441,1408,0,0
224,-384,0,0,0,0,0,0,0,0,0,-1,1448,1408,0,0
231,-384,0,0,0,0,0,0,0,0,0,-1,1455,1408,0,0
238,-384,0,0,0,0,0,0,0,0,0,-1,1462,1408,0,0
245,-384,0,0,0,0,0,0,0,0,0,-1,1469,1408,0,0
252,-384,0,0,0,0,0,0,0,0,0,-1,1476,1408,0,0
259,-384,0,0,0,0,0,0,0,0,0,-1,1483,1408,0,0
266,-384,0,0,0,0,0,0,0,0,0,-1,1490,1408,0,0
273,-384,0,0,0,0,0,0,0,0,0,-1,1497,1408,0,0
280,-384,0,0,0,0,0,0,0,0,0,-1,1504,1408,0,0
287,-384,0,0,0,0,0,0,0,0,0,-1,1511,1408,0,0
294,-384,0,0,0,0,0,0,0,0,0,-1,1518,1408,0,0
301,-384,0,0,0,0,0,0,0,0,0,-1,1525,1408,0,0
308,-384,0,0,0,0,0,0,0,0,0,-1,1532,1408,0,0
315,-384,0,0,0,0,0,0,0,0,0,-1,1539,1408,0,0
322,-384,0,0,0,0,0,0,0,0,0,-1,1546,1408,0,0
329,-384,0,0,0,0,0,0,0,0,0,-1,1553,1408,0,0
336,-384,0,0,0,0,0,0,0,0,0,-1,1560,1408,0,0
343,-384,0,0,0,0,0,0,0,0,0,-1,1567,1408,0,0
350,-384,0,0,0,0,0,0,0,0,0,-1,1574,1408,0,0
357,-384,0,0,0,0,0,0,0,0,0,-1,1581,1408,0,0
364,-384,0,0,0,0,0,0,0,0,0,-1,1588,1408,0,0
371,-384,0,0,0,0,0,0,0,0,0,-1,1595,1408,0,0
378,-384,0,0,0,0,0,0,0,0,0,-1,1602,1408,0,0
385,-384,0,0,0,0,0,0,0,0,0,-1,1609,1408,0,0
392,-384,0,0,0,0,0,0,0,0,0,-1,1616,1408,0,0
399,-384,0,0,0,0,0,0,0,0,0,-1,1623,1408,0,0
406,-384,0,0,0,0,0,0,0,0,0,-1,1630,1408,0,0
413,-384,0,0,0,0,0,0,0,0,0,-1,1637,1408,0,0
420,-384,0,0,0,0,0,0,0,0,0,-1,1644,1408,0,0
427,-384,0,0,0,0,0,0,0,0,0,-1,1651,1408,0,0
434,-384,0,0,0,0,0,0,0,0,0,-1,1658,1408,0,0
441,-384,0,0,0,0,0,0,0,0,0,-1,1665,1408,0,0
448,-384,0,0,0,0,0,0,0,0,0,-1,1672,1408,0,0
455,-384,0,0,0,0,0,0,0,0,0,-1,1679,1408,0,0
462,-384,0,0,0,0,0,0,0,0,0,-1,1686,1408,0,0
469,-384,0,0,0,0,0,0,0,0,0,-1,1693,1408,0,0
476,-384,0,0,0,0,0,0,0,0,0,-1,1700,1408,0,0
483,-384,0,0,0,0,0,0,0,0,0,-1,1707,1408,0,0
490,-384,0,0,0,0,0,0,0,0,0,-1,1714,1408,0,0
497,-384,0,0,0,0,0,0,0,0,0,-1,1721,1408,0,0
504,-384,0,0,0,0,0,0,0,0,0,-1,1728,1408,0,0
511,-384,0,0,0,0,0,0,0,0,0,-1,1735,1408,0,0
518,-384,0,0,0,0,0,0,0,0,0,-1,1742,1408,0,0
525,-384,0,0,0,0,0,0,0,0,0,-1,1749,1408,0,0
532,-384,0,0,0,0,0,0,0,0,0,-1,1756,1408,0,0
539,-384,15.7521,1.85681,-0.0617005,-0.0257649,0.0178249,-0.0184232,-0.0690422,1.18009,0.0412809,0.039558,1763,1408,15.752,-1.8568
546,-384,15.1946,2.19165,-0.0517639,-0.0119436,0.0206294,-0.00318345,-0.060524,1.16923,0.0393312,0.0411485,1770,1408,15.1946,-2.19161
553,-384,14.6158,2.23523,-0.044621,-0.00311127,0.0229103,0.00704742,-0.0547797,1.15344,0.0390813,0.0431022,1777,1408,14.6158,-2.23527
560,-384,13.9946,1.86926,-0.0396843,0.00150586,0.0240816,0.012598,-0.0507764,1.13916,0.0387392,0.0414957,1784,1408,13.9946,-1.86929
567,-384,13.6509,1.64807,-0.0361147,0.0030619,0.0245008,0.0148422,-0.047895,1.12262,0.0378599,0.0418903,1791,1408,13.6509,-1.64812
574,-384,13.4828,1.85669,-0.0328646,0.00325771,0.0239992,0.0152327,-0.0448396,1.10797,0.0360595,0.0428214,1798,1408,13.4828,-1.85665
581,-384,13.2936,2.07983,-0.029943,0.00232719,0.0230413,0.0143211,-0.0419369,1.09085,0.0337598,0.0416812,1805,1408,13.2936,-2.07986
588,-384,12.7878,3.86804,0,0,0,0,0,0,0,-1,1812,1408,12.7879,-3.86806
595,-384,12.3048,4.10779,0,0,0,0,0,0,0,-1,1819,1408,12.3048,-4.10779
602,-384,11.9192,4.38208,0,0,0,0,0,0,0,-1,1826,1408,11.9192,-4.38205
609,-384,11.5511,4.57654,-0.018842,-0.00304305,0.017596,0.00834533,-0.0302304,0.996382,0.023436,0.0456059,1833,1408,11.5512,-4.5765
616,-384,11.0109,4.98254,-0.0162738,-0.00594806,0.0154425,0.00517179,-0.0273936,0.94672,0.0202082,0.0450921,1840,1408,11.0108,-4.9826
623,-384,10.5925,5.45215,-0.0141396,-0.00773434,0.0131184,0.00256674,-0.0244407,0.905122,0.0172133,0.0367539,1847,1408,10.5926,-5.4521
630,-384,10.5538,5.40051,-0.0117838,-0.00819994,0.0108017,0.000957493,-0.0209413,0.867596,0.0142907,0.0181604,1854,1408,10.5538,-5.40056
637,-384,10.5258,5.26953,-0.00923103,-0.00735674,0.00870707,0.000463475,-0.0170512,0.839007,0.0115251,0.0149182,1861,1408,10.5257,-5.26952
644,-384,10.5166,5.10181,-0.00668996,-0.00604599,0.00682979,0.000469398,-0.0132054,0.808953,0.00896413,0.0159412,1868,1408,10.5167,-5.10186
651,-384,10.5161,4.91113,-0.0042025,-0.00427065,0.00471901,0.000482552,-0.0089557,0.781788,0.00613765,0.0150503,1875,1408,10.5161,-4.91119
658,-384,10.5266,4.76062,-0.0018688,-0.00357551,0.00329661,0.000683107,-0.00612742,0.658749,0.00433065,0.0139256,1882,1408,10.5266,-4.76065
665,-384,10.5562,4.64844,0.000100999,-0.00300903,0.00232994,0.00134718,-0.00425521,0.491141,0.00337667,0.014132,1889,1408,10.5562,-4.64843
672,-384,10.5863,4.47961,0.00163785,-0.00334821,0.00188312,0.00226913,-0.0039795,0.323459,0.00365242,0.0133372,1896,1408,10.5863,-4.47966
679,-384,10.5806,4.28796,0.00302715,-0.00427132,0.00199882,0.00353871,-0.00478288,0.250552,0.00482234,0.0149702,1903,1408,10.5805,-4.28798
686,-384,10.5549,4.13489,0.00443214,-0.00611624,0.00263866,0.00505537,-0.00673947,0.231943,0.00683286,0.0119556,1910,1408,10.5549,-4.13483
693,-384,10.5742,3.99561,0.00604174,-0.0089793,0.0037916,0.00694455,-0.00988211,0.233755,0.0097641,0.0158637,1917,1408,10.5742,-3.99565
700,-384,10.5072,3.96777,0.00839589,-0.0127013,0.00525244,0.00963122,-0.0139366,0.230995,0.0136824,0.0357235,1924,1408,10.5072,-3.96779
707,-384,10.5563,4.16724,0.0116436,-0.0174219,0.00696559,0.0132267,-0.019005,0.223476,0.0187084,0.0473119,1931,1408,10.5562,-4.16722
714,-384,10.6376,4.22424,0,0,0,0,0,0,0,-1,1938,1408,10.6375,-4.22421
721,-384,12.5815,6.69556,0,0,0,0,0,0,0,-1,1945,1408,12.5816,-6.69556
728,-384,12.9172,6.28796,0,0,0,0,0,0,0,-1,1952,1408,12.9173,-6.28802
735,-384,13.028,6.02173,0,0,0,0,0,0,0,-1,1959,1408,13.028,-6.02172
742,-384,0,0,0,0,0,0,0,0,0,-1,1966,1408,0,0
749,-384,0,0,0,0,0,0,0,0,0,-1,1973,1408,0,0
756,-384,0,0,0,0,0,0,0,0,0,-1,1980,1408,0,0
763,-384,0,0,0,0,0,0,0,0,0,-1,1987,1408,0,0
770,-384,0,0,0,0,0,0,0,0,0,-1,1994,1408,0,0
777,-384,0,0,0,0,0,0,0,0,0,-1,2001,1408,0,0
784,-384,0,0,0,0,0,0,0,0,0,-1,2008,1408,0,0
791,-384,0,0,0,0,0,0,0,0,0,-1,2015,1408,0,0
798,-384,0,0,0,0,0,0,0,0,0,-1,2022,1408,0,0
805,-384,0,0,0,0,0,0,0,0,0,-1,2029,1408,0,0
812,-384,0,0,0,0,0,0,0,0,0,-1,2036,1408,0,0
-700,-391,0,0,0,0,0,0,0,0,0,-1,524,1415,0,0
-693,-391,0,0,0,0,0,0,0,0,0,-1,531,1415,0,0
-686,-391,0,0,0,0,0,0,0,0,0,-1,538,1415,0,0
-679,-391,0,0,0,0,0,0,0,0,0,-1,545,1415,0,0
-672,-391,0,0,0,0,0,0,0,0,0,-1,552,1415,0,0
-665,-391,0,0,0,0,0,0,0,0,0,-1,559,1415,0,0
-658,-391,0,0,0,0,0,0,0,0,0,-1,566,1415,0,0
-651,-391,0,0,0,0,0,0,0,0,0,-1,573,1415,0,0
-644,-391,0,0,0,0,0,0,0,0,0,-1,580,1415,0,0
-637,-391,0,0,0,0,0,0,0,0,0,-1,587,1415,0,0
-630,-391,0,0,0,0,0,0,0,0,0,-1,594,1415,0,0
-623,-391,0,0,0,0,0,0,0,0,0,-1,601,1415,0,0
-616,-391,0,0,0,0,0,0,0,0,0,-1,608,1415,0,0
-609,-391,-7.1886,-0.487305,0,0,0,0,0,0,0,-1,615,1415,-7.18858,0.487269
-602,-391,-5.33246,-1.46155,0,0,0,0,0,0,0,-1,622,1415,-5.33246,1.46149
-595,-391,-4.22205,-1.19385,0,0,0,0,0,0,0,-1,629,1415,-4.22204,1.19386
-588,-391,-2.88898,-1.10095,0.0704829,0.0302432,0.0316221,0.0878433,0.0128828,0.50207,0.0547753,0.0453392,636,1415,-2.88899,1.10101
-581,-391,-1.3952,-1.63245,0,0,0,0,0,0,0,-1,643,1415,-1.39523,1.63248
-574,-391,-2.96936,2.08826,0,0,0,0,0,0,0,-1,650,1415,-2.96935,-2.08831
-567,-391,-3.17499,2.23999,0.02524,0.00793296,0.0111485,0.0306993,0.00247362,0.455368,0.0196935,0.0486469,657,1415,-3.17496,-2.23998
-560,-391,-3.30054,2.2915,0.0169945,0.00452539,0.0073134,0.0203701,0.00114976,0.432431,0.0132135,0.0345134,664,1415,-3.30054,-2.29152
-553,-391,-3.34631,2.30566,0.0112379,0.00243555,0.00466274,0.0132486,0.000424908,0.407123,0.00869422,0.0217344,671,1415,-3.3463,-2.30571
-546,-391,-3.38867,2.5304,0.00731135,0.00105158,0.00254296,0.00821418,0.000148747,0.341151,0.00542722,0.0119515,678,1415,-3.38865,-2.53038
-539,-391,-3.37134,2.70581,0.00470442,-5.26328e-05,0.00113306,0.00496051,-0.000308724,0.222283,0.00341457,0.0138922,685,1415,-3.37134,-2.70577
-532,-391,-3.36804,2.86548,0.00222865,-0.00171386,0.000184621,0.00223728,-0.00172249,0.046692,0.0022926,0.0257287,692,1415,-3.36805,-2.86548
-525,-391,-3.36462,3.05786,0.00121511,-0.00289399,-0.000869686,0.0013916,-0.00307048,-0.200214,0.00263627,0.0238859,699,1415,-3.3646,-3.05787
-518,-391,-3.38953,3.23181,-8.497e-05,-0.00427443,-0.00194202,0.000676758,-0.00503616,-0.373794,0.00360427,0.0135674,706,1415,-3.38953,-3.23186
-511,-391,-3.38019,3.41479,-0.0013295,-0.00605149,-0.00304475,0.000162402,-0.00754339,-0.455608,0.00508393,0.0123931,713,1415,-3.3802,-3.41476
-504,-391,-3.37885,3.60193,-0.0032155,-0.00835669,-0.00427502,-0.000797732,-0.0107745,-0.514708,0.00693238,0.0112236,720,1415,-3.37886,-3.60196
-497,-391,-3.37073,3.7782,-0.00549274,-0.0113875,-0.00576687,-0.00196372,-0.0149165,-0.549159,0.00935871,0.00919326,727,1415,-3.37071,-3.77821
-490,-391,-3.34723,3.98535,-0.00855729,-0.0153238,-0.00742455,-0.00378149,-0.0200996,-0.571612,0.012334,0.0135807,734,1415,-3.3472,-3.98536
-483,-391,-3.29083,4.08105,-0.0123896,-0.0200812,-0.00920008,-0.00626388,-0.026207,-0.587428,0.0158027,0.0315723,741,1415,-3.29084,-4.08102
-476,-391,-3.4621,4.05737,-0.0168782,-0.0256353,-0.0111149,-0.00931058,-0.033203,-0.597764,0.0197764,0.0419797,748,1415,-3.4621,-4.05741
-469,-391,-3.98944,4.4856,-0.0225287,-0.0324073,-0.0130804,-0.0134861,-0.0414499,-0.604868,0.0244128,0.0440915,755,1415,-3.98946,-4.48564
-462,-391,-4.44165,5.1886,0,0,0,0,0,0,0,-1,762,1415,-4.44162,-5.18861
-455,-391,-3.52698,3.15051,0,0,0,0,0,0,0,-1,769,1415,-3.527,-3.1505
-448,-391,-4.15601,2.72815,0,0,0,0,0,0,0,-1,776,1415,-4.156,-2.72814
-441,-391,-2.80511,1.66772,0,0,0,0,0,0,0,-1,783,1415,-2.80509,-1.66773
-434,-391,-4.99182,0.0065918,0,0,0,0,0,0,0,-1,790,1415,-4.99185,-0.00653608
-427,-391,-4.73364,0.990479,0,0,0,0,0,0,0,-1,797,1415,-4.73362,-0.990476
-420,-391,-4.47412,1.97998,0,0,0,0,0,0,0,-1,804,1415,-4.47412,-1.97998
-413,-391,0,0,0,0,0,0,0,0,0,-1,811,1415,0,0
-406,-391,0,0,0,0,0,0,0,0,0,-1,818,1415,0,0
-399,-391,0,0,0,0,0,0,0,0,0,-1,825,1415,0,0
-392,-391,0,0,0,0,0,0,0,0,0,-1,832,1415,0,0
-385,-391,0,0,0,0,0,0,0,0,0,-1,839,1415,0,0
-378,-391,0,0,0,0,0,0,0,0,0,-1,846,1415,0,0
-371,-391,0,0,0,0,0,0,0,0,0,-1,853,1415,0,0
-364,-391,0,0,0,0,0,0,0,0,0,-1,860,1415,0,0
-357,-391,0,0,0,0,0,0,0,0,0,-1,867,1415,0,0
-350,-391,0,0,0,0,0,0,0,0,0,-1,874,1415,0,0
-343,-391,0,0,0,0,0,0,0,0,0,-1,881,1415,0,0
-336,-391,0,0,0,0,0,0,0,0,0,-1,888,1415,0,0
-329,-391,0,0,0,0,0,0,0,0,0,-1,895,1415,0,0
-322,-391,0,0,0,0,0,0,0,0,0,-1,902,1415,0,0
-315,-391,0,0,0,0,0,0,0,0,0,-1,909,1415,0,0
-308,-391,0,0,0,0,0,0,0,0,0,-1,916,1415,0,0
-301,-391,0,0,0,0,0,0,0,0,0,-1,923,1415,0,0
-294,-391,0,0,0,0,0,0,0,0,0,-1,930,1415,0,0
-287,-391,0,0,0,0,0,0,0,0,0,-1,937,1415,0,0
-280,-391,0,0,0,0,0,0,0,0,0,-1,944,1415,0,0
-273,-391,0,0,0,0,0,0,0,0,0,-1,951,1415,0,0
-266,-391,0,0,0,0,0,0,0,0,0,-1,958,1415,0,0
-259,-391,0,0,0,0,0,0,0,0,0,-1,965,1415,0,0
-252,-391,0,0,0,0,0,0,0,0,0,-1,972,1415,0,0
-245,-391,0,0,0,0,0,0,0,0,0,-1,979,1415,0,0
-238,-391,0,0,0,0,0,0,0,0,0,-1,986,1415,0,0
-231,-391,0,0,0,0,0,0,0,0,0,-1,993,1415,0,0
-224,-391,0,0,0,0,0,0,0,0,0,-1,1000,1415,0,0
-217,-391,0,0,0,0,0,0,0,0,0,-1,1007,1415,0,0
-210,-391,0,0,0,0,0,0,0,0,0,-1,1014,1415,0,0
-203,-391,0,0,0,0,0,0,0,0,0,-1,1021,1415,0,0
-196,-391,0,0,0,0,0,0,0,0,0,-1,1028,1415,0,0
-189,-391,0,0,0,0,0,0,0,0,0,-1,1035,1415,0,0
-182,-391,0,0,0,0,0,0,0,0,0,-1,1042,1415,0,0
-175,-391,0,0,0,0,0,0,0,0,0,-1,1049,1415,0,0
-168,-391,0,0,0,0,0,0,0,0,0,-1,1056,1415,0,0
-161,-391,0,0,0,0,0,0,0,0,0,-1,1063,1415,0,0
-154,-391,0,0,0,0,0,0,0,0,0,-1,1070,1415,0,0
-147,-391,0,0,0,0,0,0,0,0,0,-1,1077,1415,0,0
-140,-391,0,0,0,0,0,0,0,0,0,-1,1084,1415,0,0
-133,-391,0,0,0,0,0,0,0,0,0,-1,1091,1415,0,0
-126,-391,0,0,0,0,0,0,0,0,0,-1,1098,1415,0,0
-119,-391,0,0,0,0,0,0,0,0,0,-1,1105,1415,0,0
-112,-391,0,0,0,0,0,0,0,0,0,-1,1112,1415,0,0
-105,-391,0,0,0,0,0,0,0,0,0,-1,1119,1415,0,0
-98,-391,0,0,0,0,0,0,0,0,0,-1,1126,1415,0,0
-91,-391,0,0,0,0,0,0,0,0,0,-1,1133,1415,0,0
-84,-391,0,0,0,0,0,0,0,0,0,-1,1140,1415,0,0
-77,-391,0,0,0,0,0,0,0,0,0,-1,1147,1415,0,0
-70,-391,0,0,0,0,0,0,0,0,0,-1,1154,1415,0,0
-63,-391,0,0,0,0,0,0,0,0,0,-1,1161,1415,0,0
-56,-391,0,0,0,0,0,0,0,0,0,-1,1168,1415,0,0
-49,-391,0,0,0,0,0,0,0,0,0,-1,1175,1415,0,0
-42,-391,0,0,0,0,0,0,0,0,0,-1,1182,1415,0,0
-35,-391,0,0,0,0,0,0,0,0,0,-1,1189,1415,0,0
-28,-391,0,0,0,0,0,0,0,0,0,-1,1196,1415,0,0
-21,-391,0,0,0,0,0,0,0,0,0,-1,1203,1415,0,0
-14,-391,0,0,0,0,0,0,0,0,0,-1,1210,1415,0,0
-7,-391,0,0,0,0,0,0,0,0,0,-1,1217,1415,0,0
0,-391,0,0,0,0,0,0,0,0,0,-1,1224,1415,0,0
7,-391,0,0,0,0,0,0,0,0,0,-1,1231,1415,0,0
14,-391,0,0,0,0,0,0,0,0,0,-1,1238,1415,0,0
21,-391,0,0,0,0,0,0,0,0,0,-1,1245,1415,0,0
28,-391,0,0,0,0,0,0,0,0,0,-1,1252,1415,0,0
35,-391,0,0,0,0,0,0,0,0,0,-1,1259,1415,0,0
42,-391,0,0,0,0,0,0,0,0,0,-1,1266,1415,0,0
49,-391,0,0,0,0,0,0,0,0,0,-1,1273,1415,0,0
56,-391,0,0,0,0,0,0,0,0,0,-1,1280,1415,0,0
63,-391,0,0,0,0,0,0,0,0,0,-1,1287,1415,0,0
70,-391,0,0,0,0,0,0,0,0,0,-1,1294,1415,0,0
77,-391,0,0,0,0,0,0,0,0,0,-1,1301,1415,0,0
84,-391,0,0,0,0,0,0,0,0,0,-1,1308,1415,0,0
91,-391,0,0,0,0,0,0,0,0,0,-1,1315,1415,0,0
98,-391,0,0,0,0,0,0,0,0,0,-1,1322,1415,0,0
105,-391,0,0,0,0,0,0,0,0,0,-1,1329,1415,0,0
112,-391,0,0,0,0,0,0,0,0,0,-1,1336,1415,0,0
119,-391,0,0,0,0,0,0,0,0,0,-1,1343,1415,0,0
126,-391,0,0,0,0,0,0,0,0,0,-1,1350,1415,0,0
133,-391,0,0,0,0,0,0,0,0,0,-1,1357,1415,0,0
140,-391,0,0,0,0,0,0,0,0,0,-1,1364,1415,0,0
147,-391,0,0,0,0,0,0,0,0,0,-1,1371,1415,0,0
154,-391,0,0,0,0,0,0,0,0,0,-1,1378,1415,0,0
161,-391,0,0,0,0,0,0,0,0,0,-1,1385,1415,0,0
168,-391,0,0,0,0,0,0,0,0,0,-1,1392,1415,0,0
175,-391,0,0,0,0,0,0,0,0,0,-1,1399,1415,0,0
182,-391,0,0,0,0,0,0,0,0,0,-1,1406,1415,0,0
189,-391,0,0,0,0,0,0,0,0,0,-1,1413,1415,0,0
196,-391,0,0,0,0,0,0,0,0,0,-1,1420,1415,0,0
203,-391,0,0,0,0,0,0,0,0,0,-1,1427,1415,0,0
210,-391,0,0,0,0,0,0,0,0,0,-1,1434,1415,0,0
217,-391,0,0,0,0,0,0,0,0,0,-1,1441,1415,0,0
224,-391,0,0,0,0,0,0,0,0,0,-1,1448,1415,0,0
231,-391,0,0,0,0,0,0,0,0,0,-1,1455,1415,0,0
238,-391,0,0,0,0,0,0,0,0,0,-1,1462,1415,0,0
245,-391,0,0,0,0,0,0,0,0,0,-1,1469,1415,0,0
252,-391,0,0,0,0,0,0,0,0,0,-1,1476,1415,0,0
259,-391,0,0,0,0,0,0,0,0,0,-1,1483,1415,0,0
266,-391,0,0,0,0,0,0,0,0,0,-1,1490,1415,0,0
273,-391,0,0,0,0,0,0,0,0,0,-1,1497,1415,0,0
280,-391,0,0,0,0,0,0,0,0,0,-1,1504,1415,0,0
287,-391,0,0,0,0,0,0,0,0,0,-1,1511,1415,0,0
294,-391,0,0,0,0,0,0,0,0,0,-1,1518,1415,0,0
301,-391,0,0,0,0,0,0,0,0,0,-1,1525,1415,0,0
308,-391,0,0,0,0,0,0,0,0,0,-1,1532,1415,0,0
315,-391,0,0,0,0,0,0,0,0,0,-1,1539,1415,0,0
322,-391,0,0,0,0,0,0,0,0,0,-1,1546,1415,0,0
329,-391,0,0,0,0,0,0,0,0,0,-1,1553,1415,0,0
336,-391,0,0,0,0,0,0,0,0,0,-1,1560,1415,0,0
343,-391,0,0,0,0,0,0,0,0,0,-1,1567,1415,0,0
350,-391,0,0,0,0,0,0,0,0,0,-1,1574,1415,0,0
357,-391,0,0,0,0,0,0,0,0,0,-1,1581,1415,0,0
364,-391,0,0,0,0,0,0,0,0,0,-1,1588,1415,0,0
371,-391,0,0,0,0,0,0,0,0,0,-1,1595,1415,0,0
378,-391,0,0,0,0,0,0,0,0,0,-1,1602,1415,0,0
385,-391,0,0,0,0,0,0,0,0,0,-1,1609,1415,0,0
392,-391,0,0,0,0,0,0,0,0,0,-1,1616,1415,0,0
399,-391,0,0,0,0,0,0,0,0,0,-1,1623,1415,0,0
406,-391,0,0,0,0,0,0,0,0,0,-1,1630,1415,0,0
413,-391,0,0,0,0,0,0,0,0,0,-1,1637,1415,0,0
420,-391,0,0,0,0,0,0,0,0,0,-1,1644,1415,0,0
427,-391,0,0,0,0,0,0,0,0,0,-1,1651,1415,0,0
434,-391,0,0,0,0,0,0,0,0,0,-1,1658,1415,0,0
441,-391,0,0,0,0,0,0,0,0,0,-1,1665,1415,0,0
448,-391,0,0,0,0,0,0,0,0,0,-1,1672,1415,0,0
455,-391,0,0,0,0,0,0,0,0,0,-1,1679,1415,0,0
462,-391,0,0,0,0,0,0,0,0,0,-1,1686,1415,0,0
469,-391,0,0,0,0,0,0,0,0,0,-1,1693,1415,0,0
476,-391,0,0,0,0,0,0,0,0,0,-1,1700,1415,0,0
483,-391,0,0,0,0,0,0,0,0,0,-1,1707,1415,0,0
490,-391,0,0,0,0,0,0,0,0,0,-1,1714,1415,0,0
497,-391,0,0,0,0,0,0,0,0,0,-1,1721,1415,0,0
504,-391,0,0,0,0,0,0,0,0,0,-1,1728,1415,0,0
511,-391,0,0,0,0,0,0,0,0,0,-1,1735,1415,0,0
518,-391,0,0,0,0,0,0,0,0,0,-1,1742,1415,0,0
525,-391,0,0,0,0,0,0,0,0,0,-1,1749,1415,0,0
532,-391,16.2429,2.18445,-0.0636982,-0.0412152,0.0165353,-0.032462,-0.0724514,1.08393,0.041905,0.0425847,1756,1415,16.2429,-2.18441
539,-391,15.8363,2.29675,-0.0542002,-0.0256044,0.0203297,-0.0150481,-0.0647564,1.09187,0.0391316,0.0440461,1763,1415,15.8363,-2.29669
546,-391,15.4119,2.53186,-0.0468278,-0.0145194,0.0232674,-0.00234813,-0.0589991,1.08884,0.0385738,0.0427991,1770,1415,15.4119,-2.53191
553,-391,14.0535,2.36926,-0.0418431,-0.00742266,0.025404,0.00605189,-0.0553177,1.08312,0.0390524,0.0420457,1777,1415,14.0534,-2.36921
560,-391,13.0684,1.86011,-0.0384388,-0.0037369,0.0264921,0.0105805,-0.0527562,1.07532,0.0391768,0.0406604,1784,1415,13.0683,-1.86006
567,-391,13.0221,1.43848,-0.0356629,-0.00216074,0.0267891,0.0126833,-0.050507,1.0648,0.0386001,0.0452838,1791,1415,13.022,-1.43848
574,-391,12.896,1.73462,-0.0329271,-0.00170801,0.0262899,0.0132572,-0.0478923,1.0533,0.0371444,0.0467373,1798,1415,12.896,-1.73468
581,-391,12.73,1.96741,-0.0302405,-0.00218262,0.0252537,0.0126771,-0.0451003,1.03893,0.035065,0.0441516,1805,1415,12.73,-1.96737
588,-391,12.4626,1.82104,0,0,0,0,0,0,0,-1,1812,1415,12.4626,-1.82105
595,-391,11.4788,4.17932,0,0,0,0,0,0,0,-1,1819,1415,11.4788,-4.17934
602,-391,11.4139,4.85376,0,0,0,0,0,0,0,-1,1826,1415,11.414,-4.85378
609,-391,11.0223,5.12231,-0.018992,-0.00555439,0.0188844,0.00777081,-0.0323172,0.956308,0.0245485,0.0492041,1833,1415,11.0223,-5.12237
616,-391,10.5442,5.4292,-0.0160559,-0.00773267,0.0162291,0.00485991,-0.0286485,0.910908,0.0209081,0.0341137,1840,1415,10.5442,-5.42915
623,-391,10.4042,5.51355,-0.0135029,-0.00866928,0.0133637,0.00249432,-0.0246665,0.874857,0.0173357,0.017706,1847,1415,10.4042,-5.51351
630,-391,10.4017,5.38062,-0.0108389,-0.008305,0.0105146,0.00101868,-0.0201625,0.845356,0.0137938,0.0152013,1854,1415,10.4017,-5.38056
637,-391,10.3876,5.24426,-0.00800475,-0.00681825,0.00793591,0.000546552,-0.0153696,0.822706,0.0104333,0.0147155,1861,1415,10.3876,-5.24424
644,-391,10.3651,5.07971,-0.00541611,-0.00515946,0.00582482,0.000538446,-0.011114,0.796412,0.00759519,0.0158383,1868,1415,10.3652,-5.0797
651,-391,10.3658,4.91724,-0.00316603,-0.00350792,0.00389196,0.000558738,-0.00723269,0.763451,0.00501842,0.0158107,1875,1415,10.3658,-4.91724
658,-391,10.3763,4.77039,-0.000952284,-0.00305611,0.00266965,0.000865217,-0.00487361,0.597725,0.00357257,0.0144886,1882,1415,10.3764,-4.77036
665,-391,10.4022,4.66431,0.000877535,-0.0028135,0.00193244,0.00170414,-0.00364011,0.4042,0.00315226,0.0116146,1889,1415,10.4022,-4.66426
672,-391,10.4142,4.49512,0.00231935,-0.00352222,0.00178883,0.0028236,-0.00402648,0.274761,0.00397517,0.0112117,1896,1415,10.4141,-4.49511
679,-391,10.4073,4.31836,0.00373173,-0.0050432,0.00222594,0.00426409,-0.00557556,0.234752,0.00569772,0.0111809,1903,1415,10.4073,-4.31837
686,-391,10.4067,4.14905,0.00526899,-0.00766777,0.00327111,0.00604907,-0.00844784,0.234102,0.0084079,0.0119826,1910,1415,10.4067,-4.14901
693,-391,10.4214,4.08508,0.007217,-0.0114336,0.00487292,0.00841341,-0.0126301,0.240761,0.0122305,0.0239567,1917,1415,10.4213,-4.08512
700,-391,10.2909,4.12378,0,0,0,0,0,0,0,-1,1924,1415,10.291,-4.12374
707,-391,10.7306,4.77454,0.0145122,-0.0227877,0.00919786,0.016657,-0.0249325,0.22909,0.0241696,0.0475687,1931,1415,10.7306,-4.77454
714,-391,11.5524,5.5033,0,0,0,0,0,0,0,-1,1938,1415,11.5523,-5.50331
721,-391,12.3358,6.09009,0,0,0,0,0,0,0,-1,1945,1415,12.3358,-6.09009
728,-391,13.4933,6.71106,0,0,0,0,0,0,0,-1,1952,1415,13.4933,-6.71106
735,-391,0,0,0,0,0,0,0,0,0,-1,1959,1415,0,0
742,-391,0,0,0,0,0,0,0,0,0,-1,1966,1415,0,0
749,-391,0,0,0,0,0,0,0,0,0,-1,1973,1415,0,0
756,-391,0,0,0,0,0,0,0,0,0,-1,1980,1415,0,0
763,-391,0,0,0,0,0,0,0,0,0,-1,1987,1415,0,0
770,-391,0,0,0,0,0,0,0,0,0,-1,1994,1415,0,0
777,-391,0,0,0,0,0,0,0,0,0,-1,2001,1415,0,0
784,-391,0,0,0,0,0,0,0,0,0,-1,2008,1415,0,0
791,-391,0,0,0,0,0,0,0,0,0,-1,2015,1415,0,0
798,-391,0,0,0,0,0,0,0,0,0,-1,2022,1415,0,0
805,-391,0,0,0,0,0,0,0,0,0,-1,2029,1415,0,0
812,-391,0,0,0,0,0,0,0,0,0,-1,2036,1415,0,0
-700,-398,0,0,0,0,0,0,0,0,0,-1,524,1422,0,0
-693,-398,0,0,0,0,0,0,0,0,0,-1,531,1422,0,0
-686,-398,0,0,0,0,0,0,0,0,0,-1,538,1422,0,0
-679,-398,0,0,0,0,0,0,0,0,0,-1,545,1422,0,0
-672,-398,0,0,0,0,0,0,0,0,0,-1,552,1422,0,0
-665,-398,0,0,0,0,0,0,0,0,0,-1,559,1422,0,0
-658,-398,0,0,0,0,0,0,0,0,0,-1,566,1422,0,0
-651,-398,0,0,0,0,0,0,0,0,0,-1,573,1422,0,0
-644,-398,0,0,0,0,0,0,0,0,0,-1,580,1422,0,0
-637,-398,0,0,0,0,0,0,0,0,0,-1,587,1422,0,0
-630,-398,0,0,0,0,0,0,0,0,0,-1,594,1422,0,0
-623,-398,0,0,0,0,0,0,0,0,0,-1,601,1422,0,0
-616,-398,0,0,0,0,0,0,0,0,0,-1,608,1422,0,0
-609,-398,-3.33698,-1.53345,0,0,0,0,0,0,0,-1,615,1422,-3.33696,1.5334
-602,-398,-2.7345,-0.670044,0,0,0,0,0,0,0,-1,622,1422,-2.73449,0.670013
-595,-398,-3.87555,-1.70715,0,0,0,0,0,0,0,-1,629,1422,-3.87554,1.70718
-588,-398,-2.76038,-1.52222,0,0,0,0,0,0,0,-1,636,1422,-2.76039,1.52219
-581,-398,-1.49078,-1.90063,0,0,0,0,0,0,0,-1,643,1422,-1.49076,1.90069
-574,-398,-2.97186,2.37097,0,0,0,0,0,0,0,-1,650,1422,-2.97189,-2.37098
-567,-398,-3.14996,2.474,0.0352621,0.00900626,0.0218577,0.0476313,-0.00336295,0.514965,0.0329325,0.0468768,657,1422,-3.14994,-2.47395
-560,-398,-3.27075,2.42822,0.0248779,0.00550203,0.0155207,0.0334861,-0.0031062,0.506389,0.0234282,0.0389198,664,1422,-3.27074,-2.42822
-553,-398,-3.17657,2.38794,0.0171732,0.00332329,0.0107246,0.0230144,-0.00251783,0.498722,0.0162473,0.0275755,671,1422,-3.17656,-2.38788
-546,-398,-3.20575,2.53479,0.0116419,0.00190448,0.00694094,0.0152515,-0.00170507,0.479549,0.010781,0.0131262,678,1422,-3.20573,-2.53482
-539,-398,-3.17462,2.74377,0.00778758,0.000871761,0.00429043,0.00984011,-0.00118077,0.446216,0.006987,0.0121773,685,1422,-3.17462,-2.74373
-532,-398,-3.18872,2.90833,0.00438685,-0.00063027,0.00249439,0.00541592,-0.00165934,0.391283,0.00427252,0.0205982,692,1422,-3.18875,-2.90832
-525,-398,-3.1825,3.07495,0.00273277,-0.00165968,0.000849007,0.00289116,-0.00181807,0.18444,0.0027423,0.0197427,699,1422,-3.18248,-3.07491
-518,-398,-3.1734,3.25012,0.000874009,-0.00285184,-0.000736212,0.00101421,-0.00299204,-0.188177,0.00240513,0.0160679,706,1422,-3.17339,-3.25018
-511,-398,-3.19806,3.40137,-0.000658925,-0.00429702,-0.00204199,0.00025674,-0.00521268,-0.421538,0.00356378,0.0126661,713,1422,-3.19807,-3.40134
-504,-398,-3.19202,3.5863,-0.00259049,-0.00612358,-0.00316487,-0.000732521,-0.00798155,-0.53085,0.00509444,0.0130035,720,1422,-3.19202,-3.58631
-497,-398,-3.19257,3.7749,-0.00468687,-0.00856113,-0.00438757,-0.00182783,-0.0114202,-0.577515,0.00708322,0.00957737,727,1422,-3.19255,-3.77486
-490,-398,-3.19812,3.96118,-0.00737478,-0.0117956,-0.0057107,-0.00346164,-0.0157088,-0.600745,0.00953054,0.009256,734,1422,-3.1981,-3.9612
-483,-398,-3.12799,4.14136,-0.0106499,-0.0157549,-0.0071937,-0.00556924,-0.0208355,-0.614915,0.0124561,0.0178741,741,1422,-3.128,-4.14141
-476,-398,-3.14453,4.15417,-0.0142211,-0.0202918,-0.00883453,-0.00791499,-0.0265978,-0.619927,0.0157702,0.0380069,748,1422,-3.14454,-4.15416
-469,-398,-3.54492,4.83362,-0.0187572,-0.0259059,-0.0105361,-0.0112057,-0.0334574,-0.621867,0.0196644,0.0430832,755,1422,-3.54491,-4.83362
-462,-398,-4.02148,5.74866,0,0,0,0,0,0,0,-1,762,1422,-4.02149,-5.74865
-455,-398,-3.35797,4.06787,0,0,0,0,0,0,0,-1,769,1422,-3.35797,-4.06785
-448,-398,-3.96271,3.68347,0,0,0,0,0,0,0,-1,776,1422,-3.96271,-3.68351
-441,-398,-2.95306,2.51233,0,0,0,0,0,0,0,-1,783,1422,-2.95305,-2.51227
-434,-398,-3.71259,0.368286,0,0,0,0,0,0,0,-1,790,1422,-3.7126,-0.368295
-427,-398,-3.55646,1.08508,0,0,0,0,0,0,0,-1,797,1422,-3.55649,-1.0851
-420,-398,-2.02679,3.55188,0,0,0,0,0,0,0,-1,804,1422,-2.02678,-3.5519
-413,-398,-1.77942,2.48938,0,0,0,0,0,0,0,-1,811,1422,-1.77943,-2.48934
-406,-398,0,0,0,0,0,0,0,0,0,-1,818,1422,0,0
-399,-398,0,0,0,0,0,0,0,0,0,-1,825,1422,0,0
-392,-398,0,0,0,0,0,0,0,0,0,-1,832,1422,0,0
-385,-398,0,0,0,0,0,0,0,0,0,-1,839,1422,0,0
-378,-398,0,0,0,0,0,0,0,0,0,-1,846,1422,0,0
-371,-398,0,0,0,0,0,0,0,0,0,-1,853,1422,0,0
-364,-398,0,0,0,0,0,0,0,0,0,-1,860,1422,0,0
-357,-398,0,0,0,0,0,0,0,0,0,-1,867,1422,0,0
-350,-398,0,0,0,0,0,0,0,0,0,-1,874,1422,0,0
-343,-398,0,0,0,0,0,0,0,0,0,-1,881,1422,0,0
-336,-398,0,0,0,0,0,0,0,0,0,-1,888,1422,0,0
-329,-398,0,0,0,0,0,0,0,0,0,-1,895,1422,0,0
-322,-398,0,0,0,0,0,0,0,0,0,-1,902,1422,0,0
-315,-398,0,0,0,0,0,0,0,0,0,-1,909,1422,0,0
-308,-398,0,0,0,0,0,0,0,0,0,-1,916,1422,0,0
-301,-398,0,0,0,0,0,0,0,0,0,-1,923,1422,0,0
-294,-398,0,0,0,0,0,0,0,0,0,-1,930,1422,0,0
-287,-398,0,0,0,0,0,0,0,0,0,-1,937,1422,0,0
-280,-398,0,0,0,0,0,0,0,0,0,-1,944,1422,0,0
-273,-398,0,0,0,0,0,0,0,0,0,-1,951,1422,0,0
-266,-398,0,0,0,0,0,0,0,0,0,-1,958,1422,0,0
-259,-398,0,0,0,0,0,0,0,0,0,-1,965,1422,0,0
-252,-398,0,0,0,0,0,0,0,0,0,-1,972,1422,0,0
-245,-398,0,0,0,0,0,0,0,0,0,-1,979,1422,0,0
-238,-398,0,0,0,0,0,0,0,0,0,-1,986,1422,0,0
-231,-398,0,0,0,0,0,0,0,0,0,-1,993,1422,0,0
-224,-398,0,0,0,0,0,0,0,0,0,-1,1000,1422,0,0
-217,-398,0,0,0,0,0,0,0,0,0,-1,1007,1422,0,0
-210,-398,0,0,0,0,0,0,0,0,0,-1,1014,1422,0,0
-203,-398,0,0,0,0,0,0,0,0,0,-1,1021,1422,0,0
-196,-398,0,0,0,0,0,0,0,0,0,-1,1028,1422,0,0
-189,-398,0,0,0,0,0,0,0,0,0,-1,1035,1422,0,0
-182,-398,0,0,0,0,0,0,0,0,0,-1,1042,1422,0,0
-175,-398,0,0,0,0,0,0,0,0,0,-1,1049,1422,0,0
-168,-398,0,0,0,0,0,0,0,0,0,-1,1056,1422,0,0
-161,-398,0,0,0,0,0,0,0,0,0,-1,1063,1422,0,0
-154,-398,0,0,0,0,0,0,0,0,0,-1,1070,1422,0,0
-147,-398,0,0,0,0,0,0,0,0,0,-1,1077,1422,0,0
-140,-398,0,0,0,0,0,0,0,0,0,-1,1084,1422,0,0
-133,-398,0,0,0,0,0,0,0,0,0,-1,1091,1422,0,0
-126,-398,0,0,0,0,0,0,0,0,0,-1,1098,1422,0,0
-119,-398,0,0,0,0,0,0,0,0,0,-1,1105,1422,0,0
-112,-398,0,0,0,0,0,0,0,0,0,-1,1112,1422,0,0
-105,-398,0,0,0,0,0,0,0,0,0,-1,1119,1422,0,0
-98,-398,0,0,0,0,0,0,0,0,0,-1,1126,1422,0,0
-91,-398,0,0,0,0,0,0,0,0,0,-1,1133,1422,0,0
-84,-398,0,0,0,0,0,0,0,0,0,-1,1140,1422,0,0
-77,-398,0,0,0,0,0,0,0,0,0,-1,1147,1422,0,0
-70,-398,0,0,0,0,0,0,0,0,0,-1,1154,1422,0,0
-63,-398,0,0,0,0,0,0,0,0,0,-1,1161,1422,0,0
-56,-398,0,0,0,0,0,0,0,0,0,-1,1168,1422,0,0
-49,-398,0,0,0,0,0,0,0,0,0,-1,1175,1422,0,0
-42,-398,0,0,0,0,0,0,0,0,0,-1,1182,1422,0,0
-35,-398,0,0,0,0,0,0,0,0,0,-1,1189,1422,0,0
-28,-398,0,0,0,0,0,0,0,0,0,-1,1196,1422,0,0
-21,-398,0,0,0,0,0,0,0,0,0,-1,1203,1422,0,0
-14,-398,0,0,0,0,0,0,0,0,0,-1,1210,1422,0,0
-7,-398,0,0,0,0,0,0,0,0,0,-1,1217,1422,0,0
0,-398,0,0,0,0,0,0,0,0,0,-1,1224,1422,0,0
7,-398,0,0,0,0,0,0,0,0,0,-1,1231,1422,0,0
14,-398,0,0,0,0,0,0,0,0,0,-1,1238,1422,0,0
21,-398,0,0,0,0,0,0,0,0,0,-1,1245,1422,0,0
28,-398,0,0,0,0,0,0,0,0,0,-1,1252,1422,0,0
35,-398,0,0,0,0,0,0,0,0,0,-1,1259,1422,0,0
42,-398,0,0,0,0,0,0,0,0,0,-1,1266,1422,0,0
49,-398,0,0,0,0,0,0,0,0,0,-1,1273,1422,0,0
56,-398,0,0,0,0,0,0,0,0,0,-1,1280,1422,0,0
63,-398,0,0,0,0,0,0,0,0,0,-1,1287,1422,0,0
70,-398,0,0,0,0,0,0,0,0,0,-1,1294,1422,0,0
77,-398,0,0,0,0,0,0,0,0,0,-1,1301,1422,0,0
84,-398,0,0,0,0,0,0,0,0,0,-1,1308,1422,0,0
91,-398,0,0,0,0,0,0,0,0,0,-1,1315,1422,0,0
98,-398,0,0,0,0,0,0,0,0,0,-1,1322,1422,0,0
105,-398,0,0,0,0,0,0,0,0,0,-1,1329,1422,0,0
112,-398,0,0,0,0,0,0,0,0,0,-1,1336,1422,0,0
119,-398,0,0,0,0,0,0,0,0,0,-1,1343,1422,0,0
126,-398,0,0,0,0,0,0,0,0,0,-1,1350,1422,0,0
133,-398,0,0,0,0,0,0,0,0,0,-1,1357,1422,0,0
140,-398,0,0,0,0,0,0,0,0,0,-1,1364,1422,0,0
147,-398,0,0,0,0,0,0,0,0,0,-1,1371,1422,0,0
154,-398,0,0,0,0,0,0,0,0,0,-1,1378,1422,0,0
161,-398,0,0,0,0,0,0,0,0,0,-1,1385,1422,0,0
168,-398,0,0,0,0,0,0,0,0,0,-1,1392,1422,0,0
175,-398,0,0,0,0,0,0,0,0,0,-1,1399,1422,0,0
182,-398,0,0,0,0,0,0,0,0,0,-1,1406,1422,0,0
189,-398,0,0,0,0,0,0,0,0,0,-1,1413,1422,0,0
196,-398,0,0,0,0,0,0,0,0,0,-1,1420,1422,0,0
203,-398,0,0,0,0,0,0,0,0,0,-1,1427,1422,0,0
210,-398,0,0,0,0,0,0,0,0,0,-1,1434,1422,0,0
217,-398,0,0,0,0,0,0,0,0,0,-1,1441,1422,0,0
224,-398,0,0,0,0,0,0,0,0,0,-1,1448,1422,0,0
231,-398,0,0,0,0,0,0,0,0,0,-1,1455,1422,0,0
238,-398,0,0,0,0,0,0,0,0,0,-1,1462,1422,0,0
245,-398,0,0,0,0,0,0,0,0,0,-1,1469,1422,0,0
252,-398,0,0,0,0,0,0,0,0,0,-1,1476,1422,0,0
259,-398,0,0,0,0,0,0,0,0,0,-1,1483,1422,0,0
266,-398,0,0,0,0,0,0,0,0,0,-1,1490,1422,0,0
273,-398,0,0,0,0,0,0,0,0,0,-1,1497,1422,0,0
280,-398,0,0,0,0,0,0,0,0,0,-1,1504,1422,0,0
287,-398,0,0,0,0,0,0,0,0,0,-1,1511,1422,0,0
294,-398,0,0,0,0,0,0,0,0,0,-1,1518,1422,0,0
301,-398,0,0,0,0,0,0,0,0,0,-1,1525,1422,0,0
308,-398,0,0,0,0,0,0,0,0,0,-1,1532,1422,0,0
315,-398,0,0,0,0,0,0,0,0,0,-1,1539,1422,0,0
322,-398,0,0,0,0,0,0,0,0,0,-1,1546,1422,0,0
329,-398,0,0,0,0,0,0,0,0,0,-1,1553,1422,0,0
336,-398,0,0,0,0,0,0,0,0,0,-1,1560,1422,0,0
343,-398,0,0,0,0,0,0,0,0,0,-1,1567,1422,0,0
350,-398,0,0,0,0,0,0,0,0,0,-1,1574,1422,0,0
357,-398,0,0,0,0,0,0,0,0,0,-1,1581,1422,0,0
364,-398,0,0,0,0,0,0,0,0,0,-1,1588,1422,0,0
371,-398,0,0,0,0,0,0,0,0,0,-1,1595,1422,0,0
378,-398,0,0,0,0,0,0,0,0,0,-1,1602,1422,0,0
385,-398,0,0,0,0,0,0,0,0,0,-1,1609,1422,0,0
392,-398,0,0,0,0,0,0,0,0,0,-1,1616,1422,0,0
399,-398,0,0,0,0,0,0,0,0,0,-1,1623,1422,0,0
406,-398,0,0,0,0,0,0,0,0,0,-1,1630,1422,0,0
413,-398,0,0,0,0,0,0,0,0,0,-1,1637,1422,0,0
420,-398,0,0,0,0,0,0,0,0,0,-1,1644,1422,0,0
427,-398,0,0,0,0,0,0,0,0,0,-1,1651,1422,0,0
434,-398,0,0,0,0,0,0,0,0,0,-1,1658,1422,0,0
441,-398,0,0,0,0,0,0,0,0,0,-1,1665,1422,0,0
448,-398,0,0,0,0,0,0,0,0,0,-1,1672,1422,0,0
455,-398,0,0,0,0,0,0,0,0,0,-1,1679,1422,0,0
462,-398,0,0,0,0,0,0,0,0,0,-1,1686,1422,0,0
469,-398,0,0,0,0,0,0,0,0,0,-1,1693,1422,0,0
476,-398,0,0,0,0,0,0,0,0,0,-1,1700,1422,0,0
483,-398,0,0,0,0,0,0,0,0,0,-1,1707,1422,0,0
490,-398,0,0,0,0,0,0,0,0,0,-1,1714,1422,0,0
497,-398,0,0,0,0,0,0,0,0,0,-1,1721,1422,0,0
504,-398,0,0,0,0,0,0,0,0,0,-1,1728,1422,0,0
511,-398,0,0,0,0,0,0,0,0,0,-1,1735,1422,0,0
518,-398,0,0,0,0,0,0,0,0,0,-1,1742,1422,0,0
525,-398,0,0,0,0,0,0,0,0,0,-1,1749,1422,0,0
532,-398,15.9614,2.52649,-0.0492639,-0.0374702,0.0178586,-0.0245601,-0.062174,0.944862,0.0361589,0.0449685,1756,1422,15.9615,-2.52645
539,-398,15.5646,2.57422,-0.0444697,-0.0250042,0.0211883,-0.0114201,-0.0580537,1.0007,0.0355132,0.0483367,1763,1422,15.5646,-2.57422
546,-398,15.3092,2.76746,-0.0406066,-0.0161954,0.0236924,-0.00174943,-0.0550525,1.02325,0.0361327,0.044905,1770,1422,15.3093,-2.76746
553,-398,13.4799,2.57446,0,0,0,0,0,0,0,-1,1777,1422,13.4798,-2.57446
560,-398,12.3186,1.66516,0,0,0,0,0,0,0,-1,1784,1422,12.3186,-1.66521
567,-398,12.379,1.18945,0,0,0,0,0,0,0,-1,1791,1422,12.379,-1.18951
574,-398,12.2225,1.54187,0,0,0,0,0,0,0,-1,1798,1422,12.2226,-1.54187
581,-398,11.924,1.83386,0,0,0,0,0,0,0,-1,1805,1422,11.9239,-1.83387
588,-398,11.2499,1.5741,0,0,0,0,0,0,0,-1,1812,1422,11.2499,-1.57404
595,-398,11.6898,4.37903,0,0,0,0,0,0,0,-1,1819,1422,11.6898,-4.37906
602,-398,10.7247,5.47534,0,0,0,0,0,0,0,-1,1826,1422,10.7247,-5.47531
609,-398,10.4877,5.61475,-0.018139,-0.00754113,0.018508,0.00641154,-0.0320917,0.924821,0.023821,0.041742,1833,1422,10.4876,-5.61474
616,-398,10.2722,5.65466,-0.0150148,-0.00887537,0.0155394,0.00389463,-0.0277848,0.882915,0.0199486,0.0174297,1840,1422,10.2722,-5.65467
623,-398,10.2379,5.53064,-0.0122174,-0.00886788,0.0124182,0.00198802,-0.0230733,0.852425,0.0160858,0.0109165,1847,1422,10.2379,-5.53067
630,-398,10.2455,5.38293,-0.00946794,-0.00780488,0.00937445,0.000774844,-0.0180477,0.829633,0.0122982,0.0111934,1854,1422,10.2455,-5.38299
637,-398,10.2355,5.22424,-0.00673967,-0.0060677,0.00678593,0.000390561,-0.0131979,0.810134,0.00893165,0.0127937,1861,1422,10.2355,-5.2243
644,-398,10.1952,5.05896,-0.00427821,-0.00433747,0.004713,0.000405257,-0.00902094,0.782255,0.0061535,0.0185199,1868,1422,10.1951,-5.05893
651,-398,10.2164,4.92249,-0.00223823,-0.00287369,0.00300666,0.000467442,-0.00557936,0.732756,0.00388477,0.0238326,1875,1422,10.2164,-4.9225
658,-398,10.2262,4.7821,-0.000129232,-0.00264215,0.00199542,0.000972354,-0.00374373,0.504422,0.00287528,0.0188154,1882,1422,10.2261,-4.78216
665,-398,10.2323,4.62634,0.00156621,-0.00270177,0.00149223,0.00203619,-0.00317175,0.305117,0.00303054,0.0133555,1889,1422,10.2322,-4.62629
672,-398,10.2362,4.47742,0.00293983,-0.00371643,0.00163034,0.00331771,-0.0040943,0.227754,0.00428715,0.0133992,1896,1422,10.2362,-4.47744
679,-398,10.2384,4.31482,0.00439736,-0.00573683,0.0023754,0.00492651,-0.00626599,0.219184,0.0064774,0.0122594,1903,1422,10.2384,-4.31479
686,-398,10.2756,4.15601,0.00610132,-0.00903413,0.00380465,0.00700389,-0.00993669,0.232921,0.00982938,0.0173794,1910,1422,10.2757,-4.15597
693,-398,10.2877,4.31555,0.00840578,-0.0137795,0.0059074,0.00988071,-0.0152545,0.244674,0.0146219,0.0408483,1917,1422,10.2878,-4.3156
700,-398,10.3384,4.50647,0,0,0,0,0,0,0,-1,1924,1422,10.3383,-4.50644
707,-398,10.9731,5.479,0,0,0,0,0,0,0,-1,1931,1422,10.9732,-5.47896
714,-398,11.7313,6.17346,0,0,0,0,0,0,0,-1,1938,1422,11.7313,-6.17348
721,-398,13.778,7.50818,0,0,0,0,0,0,0,-1,1945,1422,13.7779,-7.50821
728,-398,14.2487,6.92688,0,0,0,0,0,0,0,-1,1952,1422,14.2487,-6.92687
735,-398,0,0,0,0,0,0,0,0,0,-1,1959,1422,0,0
742,-398,0,0,0,0,0,0,0,0,0,-1,1966,1422,0,0
749,-398,0,0,0,0,0,0,0,0,0,-1,1973,1422,0,0
756,-398,0,0,0,0,0,0,0,0,0,-1,1980,1422,0,0
763,-398,0,0,0,0,0,0,0,0,0,-1,1987,1422,0,0
770,-398,0,0,0,0,0,0,0,0,0,-1,1994,1422,0,0
777,-398,0,0,0,0,0,0,0,0,0,-1,2001,1422,0,0
784,-398,0,0,0,0,0,0,0,0,0,-1,2008,1422,0,0
791,-398,0,0,0,0,0,0,0,0,0,-1,2015,1422,0,0
798,-398,0,0,0,0,0,0,0,0,0,-1,2022,1422,0,0
805,-398,0,0,0,0,0,0,0,0,0,-1,2029,1422,0,0
812,-398,0,0,0,0,0,0,0,0,0,-1,2036,1422,0,0
-700,-405,0,0,0,0,0,0,0,0,0,-1,524,1429,0,0
-693,-405,0,0,0,0,0,0,0,0,0,-1,531,1429,0,0
-686,-405,0,0,0,0,0,0,0,0,0,-1,538,1429,0,0
-679,-405,0,0,0,0,0,0,0,0,0,-1,545,1429,0,0
-672,-405,0,0,0,0,0,0,0,0,0,-1,552,1429,0,0
-665,-405,0,0,0,0,0,0,0,0,0,-1,559,1429,0,0
-658,-405,0,0,0,0,0,0,0,0,0,-1,566,1429,0,0
-651,-405,0,0,0,0,0,0,0,0,0,-1,573,1429,0,0
-644,-405,0,0,0,0,0,0,0,0,0,-1,580,1429,0,0
-637,-405,0,0,0,0,0,0,0,0,0,-1,587,1429,0,0
-630,-405,0,0,0,0,0,0,0,0,0,-1,594,1429,0,0
-623,-405,0,0,0,0,0,0,0,0,0,-1,601,1429,0,0
-616,-405,0,0,0,0,0,0,0,0,0,-1,608,1429,0,0
-609,-405,0,0,0,0,0,0,0,0,0,-1,615,1429,0,0
-602,-405,-3.38171,-0.652466,0,0,0,0,0,0,0,-1,622,1429,-3.3817,0.65242
-595,-405,-4.0321,-1.73267,0,0,0,0,0,0,0,-1,629,1429,-4.03211,1.73264
-588,-405,-2.73761,-2.10852,0,0,0,0,0,0,0,-1,636,1429,-2.7376,2.10858
-581,-405,-1.42639,-2.521,0,0,0,0,0,0,0,-1,643,1429,-1.42642,2.52094
-574,-405,-0.231323,-2.85376,0,0,0,0,0,0,0,-1,650,1429,-0.231352,2.85376
-567,-405,-3.03448,2.44897,0,0,0,0,0,0,0,-1,657,1429,-3.0345,-2.44902
-560,-405,-3.53662,2.61963,0.0355245,0.00699816,0.0256638,0.0506223,-0.00809966,0.531767,0.0367468,0.0447112,664,1429,-3.53659,-2.61966
-553,-405,-2.87952,2.31543,0.0255148,0.00479611,0.0185766,0.0364253,-0.00611436,0.531047,0.0265573,0.0402711,671,1429,-2.87954,-2.31539
-546,-405,-3.01495,2.5105,0.017935,0.0033394,0.0128757,0.0254373,-0.00416285,0.527577,0.0185026,0.0182294,678,1429,-3.01495,-2.51044
-539,-405,-3.026,2.70483,0.0123927,0.00228932,0.00864509,0.0173539,-0.00267184,0.520984,0.012555,0.0109486,685,1429,-3.026,-2.7048
-532,-405,-3.02454,2.87073,0.00771584,0.00084566,0.00568253,0.0109209,-0.00235936,0.513537,0.00818122,0.01478,692,1429,-3.02452,-2.87077
-525,-405,-3.01636,3.07959,0.00508376,-0.000148173,0.003186,0.00659016,-0.00165457,0.441666,0.00503639,0.014421,699,1429,-3.01636,-3.07957
-518,-405,-3.00208,3.25854,0.00244798,-0.0012714,0.000891769,0.00265073,-0.00147416,0.223567,0.00241359,0.0151742,706,1429,-3.00205,-3.25853
-511,-405,-3.02789,3.41211,0.000365111,-0.00252866,-0.000874845,0.000609033,-0.00277259,-0.271912,0.00208132,0.0156472,713,1429,-3.02787,-3.41214
-504,-405,-3.02997,3.59058,-0.00173685,-0.00404189,-0.00205765,-0.00053093,-0.00524781,-0.53011,0.00333568,0.0174388,720,1429,-3.02997,-3.59055
-497,-405,-3.00525,3.78479,-0.0036773,-0.00605774,-0.00312786,-0.00152086,-0.00821418,-0.603596,0.00504615,0.0136324,727,1429,-3.00526,-3.78475
-490,-405,-3.02203,3.96936,-0.00601244,-0.00878061,-0.00423349,-0.00294253,-0.0118505,-0.627407,0.00712501,0.0111644,734,1429,-3.02203,-3.96931
-483,-405,-3.00745,4.13477,-0.00876978,-0.0121571,-0.00553776,-0.00467246,-0.0162544,-0.636998,0.00966296,0.0102036,741,1429,-3.00743,-4.13476
-476,-405,-2.97565,4.31152,-0.0115255,-0.0159589,-0.00694603,-0.00645099,-0.0210333,-0.63094,0.0124424,0.0237081,748,1429,-2.97567,-4.31158
-469,-405,-3.07843,4.43701,-0.015034,-0.0206511,-0.00837097,-0.00901298,-0.0266721,-0.623543,0.0156665,0.0380163,755,1429,-3.07843,-4.43701
-462,-405,-3.17102,4.61267,-0.0191352,-0.0266871,-0.00990131,-0.0123143,-0.033508,-0.603231,0.019571,0.0424187,762,1429,-3.17104,-4.6127
-455,-405,-3.32233,4.67664,-0.024644,-0.0244099,-0.0084899,-0.0160363,-0.0330177,-0.79229,0.0190654,0.0438073,769,1429,-3.32231,-4.67665
-448,-405,-3.59406,4.6532,0,0,0,0,0,0,0,-1,776,1429,-3.59403,-4.65323
-441,-405,-2.1825,2.10681,0,0,0,0,0,0,0,-1,783,1429,-2.18248,-2.10677
-434,-405,-1.48053,1.55676,0,0,0,0,0,0,0,-1,790,1429,-1.48053,-1.55682
-427,-405,-2.31445,4.56921,0,0,0,0,0,0,0,-1,797,1429,-2.31443,-4.56921
-420,-405,-2.51123,1.51331,0,0,0,0,0,0,0,-1,804,1429,-2.51123,-1.51333
-413,-405,-2.64545,2.01294,0,0,0,0,0,0,0,-1,811,1429,-2.64547,-2.01294
-406,-405,-4.59845,2.82263,0,0,0,0,0,0,0,-1,818,1429,-4.59847,-2.82264
-399,-405,0,0,0,0,0,0,0,0,0,-1,825,1429,0,0
-392,-405,0,0,0,0,0,0,0,0,0,-1,832,1429,0,0
-385,-405,0,0,0,0,0,0,0,0,0,-1,839,1429,0,0
-378,-405,0,0,0,0,0,0,0,0,0,-1,846,1429,0,0
-371,-405,0,0,0,0,0,0,0,0,0,-1,853,1429,0,0
-364,-405,0,0,0,0,0,0,0,0,0,-1,860,1429,0,0
-357,-405,0,0,0,0,0,0,0,0,0,-1,867,1429,0,0
-350,-405,0,0,0,0,0,0,0,0,0,-1,874,1429,0,0
-343,-405,0,0,0,0,0,0,0,0,0,-1,881,1429,0,0
-336,-405,0,0,0,0,0,0,0,0,0,-1,888,1429,0,0
-329,-405,0,0,0,0,0,0,0,0,0,-1,895,1429,0,0
-322,-405,0,0,0,0,0,0,0,0,0,-1,902,1429,0,0
-315,-405,0,0,0,0,0,0,0,0,0,-1,909,1429,0,0
-308,-405,0,0,0,0,0,0,0,0,0,-1,916,1429,0,0
-301,-405,0,0,0,0,0,0,0,0,0,-1,923,1429,0,0
-294,-405,0,0,0,0,0,0,0,0,0,-1,930,1429,0,0
-287,-405,0,0,0,0,0,0,0,0,0,-1,937,1429,0,0
-280,-405,0,0,0,0,0,0,0,0,0,-1,944,1429,0,0
-273,-405,0,0,0,0,0,0,0,0,0,-1,951,1429,0,0
-266,-405,0,0,0,0,0,0,0,0,0,-1,958,1429,0,0
-259,-405,0,0,0,0,0,0,0,0,0,-1,965,1429,0,0
-252,-405,0,0,0,0,0,0,0,0,0,-1,972,1429,0,0
-245,-405,0,0,0,0,0,0,0,0,0,-1,979,1429,0,0
-238,-405,0,0,0,0,0,0,0,0,0,-1,986,1429,0,0
-231,-405,0,0,0,0,0,0,0,0,0,-1,993,1429,0,0
-224,-405,0,0,0,0,0,0,0,0,0,-1,1000,1429,0,0
-217,-405,0,0,0,0,0,0,0,0,0,-1,1007,1429,0,0
-210,-405,0,0,0,0,0,0,0,0,0,-1,1014,1429,0,0
-203,-405,0,0,0,0,0,0,0,0,0,-1,1021,1429,0,0
-196,-405,0,0,0,0,0,0,0,0,0,-1,1028,1429,0,0
-189,-405,0,0,0,0,0,0,0,0,0,-1,1035,1429,0,0
-182,-405,0,0,0,0,0,0,0,0,0,-1,1042,1429,0,0
-175,-405,0,0,0,0,0,0,0,0,0,-1,1049,1429,0,0
-168,-405,0,0,0,0,0,0,0,0,0,-1,1056,1429,0,0
-161,-405,0,0,0,0,0,0,0,0,0,-1,1063,1429,0,0
-154,-405,0,0,0,0,0,0,0,0,0,-1,1070,1429,0,0
-147,-405,0,0,0,0,0,0,0,0,0,-1,1077,1429,0,0
-140,-405,0,0,0,0,0,0,0,0,0,-1,1084,1429,0,0
-133,-405,0,0,0,0,0,0,0,0,0,-1,1091,1429,0,0
-126,-405,0,0,0,0,0,0,0,0,0,-1,1098,1429,0,0
-119,-405,0,0,0,0,0,0,0,0,0,-1,1105,1429,0,0
-112,-405,0,0,0,0,0,0,0,0,0,-1,1112,1429,0,0
-105,-405,0,0,0,0,0,0,0,0,0,-1,1119,1429,0,0
-98,-405,0,0,0,0,0,0,0,0,0,-1,1126,1429,0,0
-91,-405,0,0,0,0,0,0,0,0,0,-1,1133,1429,0,0
-84,-405,0,0,0,0,0,0,0,0,0,-1,1140,1429,0,0
-77,-405,0,0,0,0,0,0,0,0,0,-1,1147,1429,0,0
-70,-405,0,0,0,0,0,0,0,0,0,-1,1154,1429,0,0
-63,-405,0,0,0,0,0,0,0,0,0,-1,1161,1429,0,0
-56,-405,0,0,0,0,0,0,0,0,0,-1,1168,1429,0,0
-49,-405,0,0,0,0,0,0,0,0,0,-1,1175,1429,0,0
-42,-405,0,0,0,0,0,0,0,0,0,-1,1182,1429,0,0
-35,-405,0,0,0,0,0,0,0,0,0,-1,1189,1429,0,0
-28,-405,0,0,0,0,0,0,0,0,0,-1,1196,1429,0,0
-21,-405,0,0,0,0,0,0,0,0,0,-1,1203,1429,0,0
-14,-405,0,0,0,0,0,0,0,0,0,-1,1210,1429,0,0
-7,-405,0,0,0,0,0,0,0,0,0,-1,1217,1429,0,0
0,-405,0,0,0,0,0,0,0,0,0,-1,1224,1429,0,0
7,-405,0,0,0,0,0,0,0,0,0,-1,1231,1429,0,0
14,-405,0,0,0,0,0,0,0,0,0,-1,1238,1429,0,0
21,-405,0,0,0,0,0,0,0,0,0,-1,1245,1429,0,0
28,-405,0,0,0,0,0,0,0,0,0,-1,1252,1429,0,0
35,-405,0,0,0,0,0,0,0,0,0,-1,1259,1429,0,0
42,-405,0,0,0,0,0,0,0,0,0,-1,1266,1429,0,0
49,-405,0,0,0,0,0,0,0,0,0,-1,1273,1429,0,0
56,-405,0,0,0,0,0,0,0,0,0,-1,1280,1429,0,0
63,-405,0,0,0,0,0,0,0,0,0,-1,1287,1429,0,0
70,-405,0,0,0,0,0,0,0,0,0,-1,1294,1429,0,0
77,-405,0,0,0,0,0,0,0,0,0,-1,1301,1429,0,0
84,-405,0,0,0,0,0,0,0,0,0,-1,1308,1429,0,0
91,-405,0,0,0,0,0,0,0,0,0,-1,1315,1429,0,0
98,-405,0,0,0,0,0,0,0,0,0,-1,1322,1429,0,0
105,-405,0,0,0,0,0,0,0,0,0,-1,1329,1429,0,0
112,-405,0,0,0,0,0,0,0,0,0,-1,1336,1429,0,0
119,-405,0,0,0,0,0,0,0,0,0,-1,1343,1429,0,0
126,-405,0,0,0,0,0,0,0,0,0,-1,1350,1429,0,0
133,-405,0,0,0,0,0,0,0,0,0,-1,1357,1429,0,0
140,-405,0,0,0,0,0,0,0,0,0,-1,1364,1429,0,0
147,-405,0,0,0,0,0,0,0,0,0,-1,1371,1429,0,0
154,-405,0,0,0,0,0,0,0,0,0,-1,1378,1429,0,0
161,-405,0,0,0,0,0,0,0,0,0,-1,1385,1429,0,0
168,-405,0,0,0,0,0,0,0,0,0,-1,1392,1429,0,0
175,-405,0,0,0,0,0,0,0,0,0,-1,1399,1429,0,0
182,-405,0,0,0,0,0,0,0,0,0,-1,1406,1429,0,0
189,-405,0,0,0,0,0,0,0,0,0,-1,1413,1429,0,0
196,-405,0,0,0,0,0,0,0,0,0,-1,1420,1429,0,0
203,-405,0,0,0,0,0,0,0,0,0,-1,1427,1429,0,0
210,-405,0,0,0,0,0,0,0,0,0,-1,1434,1429,0,0
217,-405,0,0,0,0,0,0,0,0,0,-1,1441,1429,0,0
224,-405,0,0,0,0,0,0,0,0,0,-1,1448,1429,0,0
231,-405,0,0,0,0,0,0,0,0,0,-1,1455,1429,0,0
238,-405,0,0,0,0,0,0,0,0,0,-1,1462,1429,0,0
245,-405,0,0,0,0,0,0,0,0,0,-1,1469,1429,0,0
252,-405,0,0,0,0,0,0,0,0,0,-1,1476,1429,0,0
259,-405,0,0,0,0,0,0,0,0,0,-1,1483,1429,0,0
266,-405,0,0,0,0,0,0,0,0,0,-1,1490,1429,0,0
273,-405,0,0,0,0,0,0,0,0,0,-1,1497,1429,0,0
280,-405,0,0,0,0,0,0,0,0,0,-1,1504,1429,0,0
287,-405,0,0,0,0,0,0,0,0,0,-1,1511,1429,0,0
294,-405,0,0,0,0,0,0,0,0,0,-1,1518,1429,0,0
301,-405,0,0,0,0,0,0,0,0,0,-1,1525,1429,0,0
308,-405,0,0,0,0,0,0,0,0,0,-1,1532,1429,0,0
315,-405,0,0,0,0,0,0,0,0,0,-1,1539,1429,0,0
322,-405,0,0,0,0,0,0,0,0,0,-1,1546,1429,0,0
329,-405,0,0,0,0,0,0,0,0,0,-1,1553,1429,0,0
336,-405,0,0,0,0,0,0,0,0,0,-1,1560,1429,0,0
343,-405,0,0,0,0,0,0,0,0,0,-1,1567,1429,0,0
350,-405,0,0,0,0,0,0,0,0,0,-1,1574,1429,0,0
357,-405,0,0,0,0,0,0,0,0,0,-1,1581,1429,0,0
364,-405,0,0,0,0,0,0,0,0,0,-1,1588,1429,0,0
371,-405,0,0,0,0,0,0,0,0,0,-1,1595,1429,0,0
378,-405,0,0,0,0,0,0,0,0,0,-1,1602,1429,0,0
385,-405,0,0,0,0,0,0,0,0,0,-1,1609,1429,0,0
392,-405,0,0,0,0,0,0,0,0,0,-1,1616,1429,0,0
399,-405,0,0,0,0,0,0,0,0,0,-1,1623,1429,0,0
406,-405,0,0,0,0,0,0,0,0,0,-1,1630,1429,0,0
413,-405,0,0,0,0,0,0,0,0,0,-1,1637,1429,0,0
420,-405,0,0,0,0,0,0,0,0,0,-1,1644,1429,0,0
427,-405,0,0,0,0,0,0,0,0,0,-1,1651,1429,0,0
434,-405,0,0,0,0,0,0,0,0,0,-1,1658,1429,0,0
441,-405,0,0,0,0,0,0,0,0,0,-1,1665,1429,0,0
448,-405,0,0,0,0,0,0,0,0,0,-1,1672,1429,0,0
455,-405,0,0,0,0,0,0,0,0,0,-1,1679,1429,0,0
462,-405,0,0,0,0,0,0,0,0,0,-1,1686,1429,0,0
469,-405,0,0,0,0,0,0,0,0,0,-1,1693,1429,0,0
476,-405,0,0,0,0,0,0,0,0,0,-1,1700,1429,0,0
483,-405,0,0,0,0,0,0,0,0,0,-1,1707,1429,0,0
490,-405,0,0,0,0,0,0,0,0,0,-1,1714,1429,0,0
497,-405,0,0,0,0,0,0,0,0,0,-1,1721,1429,0,0
504,-405,0,0,0,0,0,0,0,0,0,-1,1728,1429,0,0
511,-405,0,0,0,0,0,0,0,0,0,-1,1735,1429,0,0
518,-405,0,0,0,0,0,0,0,0,0,-1,1742,1429,0,0
525,-405,15.9895,2.72974,0,0,0,0,0,0,0,-1,1749,1429,15.9895,-2.72976
532,-405,15.6501,2.88135,-0.0374117,-0.0333858,0.0173282,-0.0179541,-0.0528434,0.843221,0.031027,0.0493032,1756,1429,15.6502,-2.88135
539,-405,15.1755,2.9397,-0.0362135,-0.0231982,0.0206425,-0.00806188,-0.0513498,0.938096,0.0318874,0.0474412,1763,1429,15.1755,-2.93968
546,-405,14.856,2.96948,-0.0350666,-0.0161662,0.023173,-0.000590535,-0.0506423,0.979009,0.0335664,0.0436513,1770,1429,14.8559,-2.96944
553,-405,14.6388,3.06799,0,0,0,0,0,0,0,-1,1777,1429,14.6388,-3.06801
560,-405,13.168,0.3396,0,0,0,0,0,0,0,-1,1784,1429,13.168,-0.339564
567,-405,13.1034,1.51868,0,0,0,0,0,0,0,-1,1791,1429,13.1034,-1.51874
574,-405,12.1493,4.67712,0,0,0,0,0,0,0,-1,1798,1429,12.1494,-4.67708
581,-405,11.3865,5.0741,0,0,0,0,0,0,0,-1,1805,1429,11.3864,-5.07414
588,-405,11.5938,4.63123,0,0,0,0,0,0,0,-1,1812,1429,11.5937,-4.63126
595,-405,10.951,5.59607,0,0,0,0,0,0,0,-1,1819,1429,10.951,-5.59613
602,-405,10.5183,5.67688,-0.0201843,-0.00808895,0.0202821,0.00702789,-0.0353011,0.93029,0.0261929,0.0411143,1826,1429,10.5183,-5.67687
609,-405,10.0863,5.78406,-0.0166346,-0.00893721,0.0174447,0.00507833,-0.0306502,0.89397,0.0223196,0.0186616,1833,1429,10.0863,-5.7841
616,-405,10.073,5.71057,-0.0133738,-0.00944375,0.0142001,0.0029266,-0.0257442,0.854153,0.0182169,0.0100203,1840,1429,10.073,-5.71058
623,-405,10.0687,5.55286,-0.0104663,-0.00864109,0.0109524,0.00143672,-0.0205441,0.826963,0.0141992,0.00998636,1847,1429,10.0687,-5.55292
630,-405,10.0856,5.38232,-0.00777937,-0.00709728,0.00786906,0.000438121,-0.0153148,0.807054,0.010359,0.0102445,1854,1429,10.0855,-5.38231
637,-405,10.0845,5.20715,-0.00525013,-0.00520468,0.00536318,0.000135817,-0.0105906,0.787517,0.00710613,0.0109565,1861,1429,10.0845,-5.20717
644,-405,10.0369,5.08105,-0.00305109,-0.00351612,0.00347931,0.00020347,-0.00677068,0.752034,0.00458311,0.0284393,1868,1429,10.0369,-5.08107
651,-405,9.98792,4.93433,-0.00125389,-0.00220984,0.00201917,0.000343113,-0.00380684,0.669178,0.00265965,0.0298254,1875,1429,9.98794,-4.93433
658,-405,10.0239,4.77454,0.0006805,-0.00213763,0.00123983,0.00114831,-0.00260543,0.360798,0.00222098,0.0217889,1882,1429,10.024,-4.77458
665,-405,10.056,4.60986,0.00217189,-0.00248325,0.00100264,0.00237866,-0.00269002,0.203373,0.00292824,0.0184443,1889,1429,10.056,-4.60991
672,-405,10.0736,4.44983,0.00344729,-0.00380068,0.00142723,0.00371821,-0.0040716,0.187588,0.00449899,0.0229307,1896,1429,10.0736,-4.4498
679,-405,10.1115,4.26501,0.00494366,-0.00621518,0.00244553,0.00545608,-0.0067276,0.206546,0.00704701,0.0210836,1903,1429,10.1115,-4.26502
686,-405,10.1288,4.14758,0.00683109,-0.010099,0.00422131,0.00782524,-0.0110931,0.231294,0.0109767,0.0325639,1910,1429,10.1288,-4.14756
693,-405,10.1602,4.49597,0,0,0,0,0,0,0,-1,1917,1429,10.1601,-4.49601
700,-405,7.92126,3.46375,0,0,0,0,0,0,0,-1,1924,1429,7.92128,-3.4637
707,-405,7.40308,3.83191,0,0,0,0,0,0,0,-1,1931,1429,7.40311,-3.83194
714,-405,7.33252,3.47388,0,0,0,0,0,0,0,-1,1938,1429,7.33255,-3.47383
721,-405,9.23523,0.993896,0,0,0,0,0,0,0,-1,1945,1429,9.23523,-0.993884
728,-405,0,0,0,0,0,0,0,0,0,-1,1952,1429,0,0
735,-405,0,0,0,0,0,0,0,0,0,-1,1959,1429,0,0
742,-405,0,0,0,0,0,0,0,0,0,-1,1966,1429,0,0
749,-405,0,0,0,0,0,0,0,0,0,-1,1973,1429,0,0
756,-405,0,0,0,0,0,0,0,0,0,-1,1980,1429,0,0
763,-405,0,0,0,0,0,0,0,0,0,-1,1987,1429,0,0
770,-405,0,0,0,0,0,0,0,0,0,-1,1994,1429,0,0
777,-405,0,0,0,0,0,0,0,0,0,-1,2001,1429,0,0
784,-405,0,0,0,0,0,0,0,0,0,-1,2008,1429,0,0
791,-405,0,0,0,0,0,0,0,0,0,-1,2015,1429,0,0
798,-405,0,0,0,0,0,0,0,0,0,-1,2022,1429,0,0
805,-405,0,0,0,0,0,0,0,0,0,-1,2029,1429,0,0
812,-405,0,0,0,0,0,0,0,0,0,-1,2036,1429,0,0
-700,-412,0,0,0,0,0,0,0,0,0,-1,524,1436,0,0
-693,-412,0,0,0,0,0,0,0,0,0,-1,531,1436,0,0
-686,-412,0,0,0,0,0,0,0,0,0,-1,538,1436,0,0
-679,-412,0,0,0,0,0,0,0,0,0,-1,545,1436,0,0
-672,-412,0,0,0,0,0,0,0,0,0,-1,552,1436,0,0
-665,-412,0,0,0,0,0,0,0,0,0,-1,559,1436,0,0
-658,-412,0,0,0,0,0,0,0,0,0,-1,566,1436,0,0
-651,-412,0,0,0,0,0,0,0,0,0,-1,573,1436,0,0
-644,-412,0,0,0,0,0,0,0,0,0,-1,580,1436,0,0
-637,-412,0,0,0,0,0,0,0,0,0,-1,587,1436,0,0
-630,-412,0,0,0,0,0,0,0,0,0,-1,594,1436,0,0
-623,-412,0,0,0,0,0,0,0,0,0,-1,601,1436,0,0
-616,-412,0,0,0,0,0,0,0,0,0,-1,608,1436,0,0
-609,-412,0,0,0,0,0,0,0,0,0,-1,615,1436,0,0
-602,-412,-4.03265,-0.604004,0,0,0,0,0,0,0,-1,622,1436,-4.03268,0.604001
-595,-412,-3.60278,0.165527,0,0,0,0,0,0,0,-1,629,1436,-3.60278,-0.165555
-588,-412,-2.78424,-2.69116,0,0,0,0,0,0,0,-1,636,1436,-2.78425,2.69115
-581,-412,-1.48706,-3.17322,0,0,0,0,0,0,0,-1,643,1436,-1.48704,3.17322
-574,-412,-3.23303,1.08374,0,0,0,0,0,0,0,-1,650,1436,-3.23301,-1.08377
-567,-412,-3.78949,2.35632,0,0,0,0,0,0,0,-1,657,1436,-3.78951,-2.35629
-560,-412,-3.59692,2.88953,0,0,0,0,0,0,0,-1,664,1436,-3.59692,-2.88955
-553,-412,-2.67682,2.27686,0,0,0,0,0,0,0,-1,671,1436,-2.6768,-2.27684
-546,-412,-2.75684,2.57288,0.0246311,0.00504881,0.0196368,0.0367824,-0.00710243,0.554129,0.0271999,0.027634,678,1436,-2.75682,-2.57293
-539,-412,-2.85101,2.66638,0.0174815,0.0039781,0.0137325,0.0260323,-0.00457275,0.556923,0.0190628,0.0132771,685,1436,-2.851,-2.66641
-532,-412,-2.85455,2.85352,0.0114931,0.00260989,0.00944498,0.0174887,-0.00338571,0.56561,0.0129363,0.0131699,692,1436,-2.85453,-2.85346
-525,-412,-2.85254,3.06213,0.00774499,0.00155507,0.00594492,0.0113523,-0.00205227,0.5454,0.00833694,0.0153269,699,1436,-2.85252,-3.06212
-518,-412,-2.84576,3.25781,0.004203,0.000406033,0.00279538,0.00568362,-0.00107459,0.4871,0.00419343,0.0168849,706,1436,-2.84576,-3.25784
-511,-412,-2.86493,3.40967,0.00146577,-0.000771892,0.000467512,0.00155952,-0.000865641,0.197903,0.00141914,0.0194275,713,1436,-2.86493,-3.40962
-504,-412,-2.86639,3.59119,-0.000894901,-0.00208264,-0.000860591,-0.000443162,-0.00253438,-0.483382,0.00156295,0.0188724,720,1436,-2.86641,-3.59118
-497,-412,-2.8363,3.80164,-0.00280587,-0.00379418,-0.0018819,-0.00135433,-0.00524573,-0.657005,0.00314448,0.0145653,727,1436,-2.83628,-3.80165
-490,-412,-2.8421,3.98608,-0.00491656,-0.00614153,-0.00287707,-0.0025875,-0.00847059,-0.680521,0.00501236,0.0119539,734,1436,-2.84212,-3.98607
-483,-412,-2.83887,4.12939,-0.00728702,-0.00909447,-0.00408992,-0.00400217,-0.0123793,-0.676663,0.00729446,0.00834549,741,1436,-2.83889,-4.1294
-476,-412,-2.7785,4.35425,-0.00946331,-0.012367,-0.00536409,-0.00535807,-0.0164723,-0.653233,0.0097019,0.0142034,748,1436,-2.77848,-4.35425
-469,-412,-2.78461,4.49109,-0.0122327,-0.0163594,-0.00662425,-0.00735784,-0.0212342,-0.634418,0.0124506,0.0250846,755,1436,-2.78463,-4.49103
-462,-412,-2.95892,4.69055,-0.0155228,-0.0214624,-0.00809766,-0.0098675,-0.0271177,-0.609639,0.0158486,0.0362423,762,1436,-2.95894,-4.69049
-455,-412,-3.36951,4.80457,-0.0200716,-0.020278,-0.0072778,-0.0128963,-0.0274534,-0.778307,0.0158599,0.0426037,769,1436,-3.3695,-4.80456
-448,-412,-3.97083,4.63428,0,0,0,0,0,0,0,-1,776,1436,-3.97085,-4.63423
-441,-412,-2.17664,2.98218,0,0,0,0,0,0,0,-1,783,1436,-2.17664,-2.98218
-434,-412,-2.7981,3.17542,0,0,0,0,0,0,0,-1,790,1436,-2.7981,-3.17537
-427,-412,-2.35968,5.25598,0,0,0,0,0,0,0,-1,797,1436,-2.35965,-5.25596
-420,-412,-1.73126,7.07434,0,0,0,0,0,0,0,-1,804,1436,-1.73129,-7.07429
-413,-412,-5.19861,3.34583,0,0,0,0,0,0,0,-1,811,1436,-5.19861,-3.3458
-406,-412,-5.79456,2.44617,-0.0622246,0.0580109,0.032161,0.0660728,-0.0702866,1.32518,0.0787397,0.0471252,818,1436,-5.79456,-2.44615
-399,-412,-6.48059,1.39575,-0.0685544,0.0813536,0.0391487,0.0909616,-0.0781624,1.33013,0.097737,0.0443307,825,1436,-6.48062,-1.39579
-392,-412,0,0,0,0,0,0,0,0,0,-1,832,1436,0,0
-385,-412,0,0,0,0,0,0,0,0,0,-1,839,1436,0,0
-378,-412,0,0,0,0,0,0,0,0,0,-1,846,1436,0,0
-371,-412,0,0,0,0,0,0,0,0,0,-1,853,1436,0,0
-364,-412,0,0,0,0,0,0,0,0,0,-1,860,1436,0,0
-357,-412,0,0,0,0,0,0,0,0,0,-1,867,1436,0,0
-350,-412,0,0,0,0,0,0,0,0,0,-1,874,1436,0,0
-343,-412,0,0,0,0,0,0,0,0,0,-1,881,1436,0,0
-336,-412,0,0,0,0,0,0,0,0,0,-1,888,1436,0,0
-329,-412,0,0,0,0,0,0,0,0,0,-1,895,1436,0,0
-322,-412,0,0,0,0,0,0,0,0,0,-1,902,1436,0,0
-315,-412,0,0,0,0,0,0,0,0,0,-1,909,1436,0,0
-308,-412,0,0,0,0,0,0,0,0,0,-1,916,1436,0,0
-301,-412,0,0,0,0,0,0,0,0,0,-1,923,1436,0,0
-294,-412,0,0,0,0,0,0,0,0,0,-1,930,1436,0,0
-287,-412,0,0,0,0,0,0,0,0,0,-1,937,1436,0,0
-280,-412,0,0,0,0,0,0,0,0,0,-1,944,1436,0,0
-273,-412,0,0,0,0,0,0,0,0,0,-1,951,1436,0,0
-266,-412,0,0,0,0,0,0,0,0,0,-1,958,1436,0,0
-259,-412,0,0,0,0,0,0,0,0,0,-1,965,1436,0,0
-252,-412,0,0,0,0,0,0,0,0,0,-1,972,1436,0,0
-245,-412,0,0,0,0,0,0,0,0,0,-1,979,1436,0,0
-238,-412,0,0,0,0,0,0,0,0,0,-1,986,1436,0,0
-231,-412,0,0,0,0,0,0,0,0,0,-1,993,1436,0,0
-224,-412,0,0,0,0,0,0,0,0,0,-1,1000,1436,0,0
-217,-412,0,0,0,0,0,0,0,0,0,-1,1007,1436,0,0
-210,-412,0,0,0,0,0,0,0,0,0,-1,1014,1436,0,0
-203,-412,0,0,0,0,0,0,0,0,0,-1,1021,1436,0,0
-196,-412,0,0,0,0,0,0,0,0,0,-1,1028,1436,0,0
-189,-412,0,0,0,0,0,0,0,0,0,-1,1035,1436,0,0
-182,-412,0,0,0,0,0,0,0,0,0,-1,1042,1436,0,0
-175,-412,0,0,0,0,0,0,0,0,0,-1,1049,1436,0,0
-168,-412,0,0,0,0,0,0,0,0,0,-1,1056,1436,0,0
-161,-412,0,0,0,0,0,0,0,0,0,-1,1063,1436,0,0
-154,-412,0,0,0,0,0,0,0,0,0,-1,1070,1436,0,0
-147,-412,0,0,0,0,0,0,0,0,0,-1,1077,1436,0,0
-140,-412,0,0,0,0,0,0,0,0,0,-1,1084,1436,0,0
-133,-412,0,0,0,0,0,0,0,0,0,-1,1091,1436,0,0
-126,-412,0,0,0,0,0,0,0,0,0,-1,1098,1436,0,0
-119,-412,0,0,0,0,0,0,0,0,0,-1,1105,1436,0,0
-112,-412,0,0,0,0,0,0,0,0,0,-1,1112,1436,0,0
-105,-412,0,0,0,0,0,0,0,0,0,-1,1119,1436,0,0
-98,-412,0,0,0,0,0,0,0,0,0,-1,1126,1436,0,0
-91,-412,0,0,0,0,0,0,0,0,0,-1,1133,1436,0,0
-84,-412,0,0,0,0,0,0,0,0,0,-1,1140,1436,0,0
-77,-412,0,0,0,0,0,0,0,0,0,-1,1147,1436,0,0
-70,-412,0,0,0,0,0,0,0,0,0,-1,1154,1436,0,0
-63,-412,0,0,0,0,0,0,0,0,0,-1,1161,1436,0,0
-56,-412,0,0,0,0,0,0,0,0,0,-1,1168,1436,0,0
-49,-412,0,0,0,0,0,0,0,0,0,-1,1175,1436,0,0
-42,-412,0,0,0,0,0,0,0,0,0,-1,1182,1436,0,0
-35,-412,0,0,0,0,0,0,0,0,0,-1,1189,1436,0,0
-28,-412,0,0,0,0,0,0,0,0,0,-1,1196,1436,0,0
-21,-412,0,0,0,0,0,0,0,0,0,-1,1203,1436,0,0
-14,-412,0,0,0,0,0,0,0,0,0,-1,1210,1436,0,0
-7,-412,0,0,0,0,0,0,0,0,0,-1,1217,1436,0,0
0,-412,0,0,0,0,0,0,0,0,0,-1,1224,1436,0,0
7,-412,0,0,0,0,0,0,0,0,0,-1,1231,1436,0,0
14,-412,0,0,0,0,0,0,0,0,0,-1,1238,1436,0,0
21,-412,0,0,0,0,0,0,0,0,0,-1,1245,1436,0,0
28,-412,0,0,0,0,0,0,0,0,0,-1,1252,1436,0,0
35,-412,0,0,0,0,0,0,0,0,0,-1,1259,1436,0,0
42,-412,0,0,0,0,0,0,0,0,0,-1,1266,1436,0,0
49,-412,0,0,0,0,0,0,0,0,0,-1,1273,1436,0,0
56,-412,0,0,0,0,0,0,0,0,0,-1,1280,1436,0,0
63,-412,0,0,0,0,0,0,0,0,0,-1,1287,1436,0,0
70,-412,0,0,0,0,0,0,0,0,0,-1,1294,1436,0,0
77,-412,0,0,0,0,0,0,0,0,0,-1,1301,1436,0,0
84,-412,0,0,0,0,0,0,0,0,0,-1,1308,1436,0,0
91,-412,0,0,0,0,0,0,0,0,0,-1,1315,1436,0,0
98,-412,0,0,0,0,0,0,0,0,0,-1,1322,1436,0,0
105,-412,0,0,0,0,0,0,0,0,0,-1,1329,1436,0,0
112,-412,0,0,0,0,0,0,0,0,0,-1,1336,1436,0,0
119,-412,0,0,0,0,0,0,0,0,0,-1,1343,1436,0,0
126,-412,0,0,0,0,0,0,0,0,0,-1,1350,1436,0,0
133,-412,0,0,0,0,0,0,0,0,0,-1,1357,1436,0,0
140,-412,0,0,0,0,0,0,0,0,0,-1,1364,1436,0,0
147,-412,0,0,0,0,0,0,0,0,0,-1,1371,1436,0,0
154,-412,0,0,0,0,0,0,0,0,0,-1,1378,1436,0,0
161,-412,0,0,0,0,0,0,0,0,0,-1,1385,1436,0,0
168,-412,0,0,0,0,0,0,0,0,0,-1,1392,1436,0,0
175,-412,0,0,0,0,0,0,0,0,0,-1,1399,1436,0,0
182,-412,0,0,0,0,0,0,0,0,0,-1,1406,1436,0,0
189,-412,0,0,0,0,0,0,0,0,0,-1,1413,1436,0,0
196,-412,0,0,0,0,0,0,0,0,0,-1,1420,1436,0,0
203,-412,0,0,0,0,0,0,0,0,0,-1,1427,1436,0,0
210,-412,0,0,0,0,0,0,0,0,0,-1,1434,1436,0,0
217,-412,0,0,0,0,0,0,0,0,0,-1,1441,1436,0,0
224,-412,0,0,0,0,0,0,0,0,0,-1,1448,1436,0,0
231,-412,0,0,0,0,0,0,0,0,0,-1,1455,1436,0,0
238,-412,0,0,0,0,0,0,0,0,0,-1,1462,1436,0,0
245,-412,0,0,0,0,0,0,0,0,0,-1,1469,1436,0,0
252,-412,0,0,0,0,0,0,0,0,0,-1,1476,1436,0,0
259,-412,0,0,0,0,0,0,0,0,0,-1,1483,1436,0,0
266,-412,0,0,0,0,0,0,0,0,0,-1,1490,1436,0,0
273,-412,0,0,0,0,0,0,0,0,0,-1,1497,1436,0,0
280,-412,0,0,0,0,0,0,0,0,0,-1,1504,1436,0,0
287,-412,0,0,0,0,0,0,0,0,0,-1,1511,1436,0,0
294,-412,0,0,0,0,0,0,0,0,0,-1,1518,1436,0,0
301,-412,0,0,0,0,0,0,0,0,0,-1,1525,1436,0,0
308,-412,0,0,0,0,0,0,0,0,0,-1,1532,1436,0,0
315,-412,0,0,0,0,0,0,0,0,0,-1,1539,1436,0,0
322,-412,0,0,0,0,0,0,0,0,0,-1,1546,1436,0,0
329,-412,0,0,0,0,0,0,0,0,0,-1,1553,1436,0,0
336,-412,0,0,0,0,0,0,0,0,0,-1,1560,1436,0,0
343,-412,0,0,0,0,0,0,0,0,0,-1,1567,1436,0,0
350,-412,0,0,0,0,0,0,0,0,0,-1,1574,1436,0,0
357,-412,0,0,0,0,0,0,0,0,0,-1,1581,1436,0,0
364,-412,0,0,0,0,0,0,0,0,0,-1,1588,1436,0,0
371,-412,0,0,0,0,0,0,0,0,0,-1,1595,1436,0,0
378,-412,0,0,0,0,0,0,0,0,0,-1,1602,1436,0,0
385,-412,0,0,0,0,0,0,0,0,0,-1,1609,1436,0,0
392,-412,0,0,0,0,0,0,0,0,0,-1,1616,1436,0,0
399,-412,0,0,0,0,0,0,0,0,0,-1,1623,1436,0,0
406,-412,0,0,0,0,0,0,0,0,0,-1,1630,1436,0,0
413,-412,0,0,0,0,0,0,0,0,0,-1,1637,1436,0,0
420,-412,0,0,0,0,0,0,0,0,0,-1,1644,1436,0,0
427,-412,0,0,0,0,0,0,0,0,0,-1,1651,1436,0,0
434,-412,0,0,0,0,0,0,0,0,0,-1,1658,1436,0,0
441,-412,0,0,0,0,0,0,0,0,0,-1,1665,1436,0,0
448,-412,0,0,0,0,0,0,0,0,0,-1,1672,1436,0,0
455,-412,0,0,0,0,0,0,0,0,0,-1,1679,1436,0,0
462,-412,0,0,0,0,0,0,0,0,0,-1,1686,1436,0,0
469,-412,0,0,0,0,0,0,0,0,0,-1,1693,1436,0,0
476,-412,0,0,0,0,0,0,0,0,0,-1,1700,1436,0,0
483,-412,0,0,0,0,0,0,0,0,0,-1,1707,1436,0,0
490,-412,0,0,0,0,0,0,0,0,0,-1,1714,1436,0,0
497,-412,0,0,0,0,0,0,0,0,0,-1,1721,1436,0,0
504,-412,0,0,0,0,0,0,0,0,0,-1,1728,1436,0,0
511,-412,0,0,0,0,0,0,0,0,0,-1,1735,1436,0,0
518,-412,12.1302,1.7312,0,0,0,0,0,0,0,-1,1742,1436,12.1302,-1.73121
525,-412,12.9518,2.10938,0,0,0,0,0,0,0,-1,1749,1436,12.9517,-2.10942
532,-412,15.375,3.15601,0,0,0,0,0,0,0,-1,1756,1436,15.375,-3.15602
539,-412,14.8295,3.09924,0,0,0,0,0,0,0,-1,1763,1436,14.8295,-3.09924
546,-412,14.2285,3.17664,-0.0282838,-0.0148821,0.022522,0.00191481,-0.0450807,0.92999,0.030712,0.0430817,1770,1436,14.2285,-3.17662
553,-412,14.4495,2.9541,0,0,0,0,0,0,0,-1,1777,1436,14.4495,-2.95412
560,-412,14.806,2.99377,0,0,0,0,0,0,0,-1,1784,1436,14.8061,-2.99373
567,-412,12.1399,4.73425,0,0,0,0,0,0,0,-1,1791,1436,12.14,-4.73422
574,-412,11.5991,4.9458,0,0,0,0,0,0,0,-1,1798,1436,11.5991,-4.94582
581,-412,10.8414,5.29553,0,0,0,0,0,0,0,-1,1805,1436,10.8414,-5.29557
588,-412,10.6079,5.27991,0,0,0,0,0,0,0,-1,1812,1436,10.6079,-5.27992
595,-412,10.3647,5.61401,-0.019875,-0.0087478,0.0207925,0.00721255,-0.0358353,0.916124,0.0266221,0.0445806,1819,1436,10.3648,-5.61401
602,-412,10.0291,5.94263,-0.0176907,-0.0087473,0.0186464,0.00595609,-0.0323941,0.903084,0.0238309,0.0238743,1826,1436,10.0291,-5.94267
609,-412,9.92822,5.86621,-0.0144244,-0.00910486,0.015586,0.00404669,-0.027576,0.86991,0.0198707,0.00918748,1833,1436,9.92817,-5.8662
616,-412,9.90112,5.72351,-0.0112722,-0.00888713,0.0122559,0.00223413,-0.0223935,0.833897,0.0157267,0.00797291,1840,1436,9.90116,-5.72353
623,-412,9.89685,5.56091,-0.0084836,-0.00762686,0.00910227,0.00105711,-0.0171676,0.808912,0.0118132,0.00958334,1847,1436,9.89688,-5.56087
630,-412,9.91211,5.38196,-0.00595049,-0.00585996,0.00615659,0.000251532,-0.012062,0.789074,0.00812647,0.0110579,1854,1436,9.91206,-5.38197
637,-412,9.92871,5.20361,-0.00361907,-0.00400227,0.00383741,3.15241e-05,-0.00765286,0.760454,0.00511245,0.0130565,1861,1436,9.92877,-5.20366
644,-412,9.92651,5.06201,-0.00162625,-0.0025251,0.00214956,0.000120363,-0.00427171,0.682344,0.00288877,0.0150343,1868,1436,9.92655,-5.06204
651,-412,9.86499,4.92065,9.12468e-06,-0.00142225,0.000879661,0.000427462,-0.00184059,0.443911,0.0013916,0.0250912,1875,1436,9.86505,-4.92068
658,-412,9.89502,4.755,0.00180857,-0.00150949,0.000270812,0.00183053,-0.00153145,0.0809039,0.0019436,0.0166968,1882,1436,9.89498,-4.75503
665,-412,9.89856,4.59583,0.00314999,-0.00216087,0.000232766,0.00316018,-0.00217105,0.0437166,0.00309559,0.0221864,1889,1436,9.89861,-4.59578
672,-412,9.91248,4.39905,0.00433216,-0.00379482,0.000838879,0.00441784,-0.00388051,0.101791,0.0047944,0.0259402,1896,1436,9.91252,-4.39902
679,-412,10.0499,4.12427,0,0,0,0,0,0,0,-1,1903,1436,10.0499,-4.12428
686,-412,9.65417,4.41296,0,0,0,0,0,0,0,-1,1910,1436,9.65419,-4.41299
693,-412,9.25842,4.70166,0,0,0,0,0,0,0,-1,1917,1436,9.25848,-4.7017
700,-412,7.40198,3.64758,0,0,0,0,0,0,0,-1,1924,1436,7.402,-3.64753
707,-412,6.59998,1.68994,0,0,0,0,0,0,0,-1,1931,1436,6.60002,-1.68995
714,-412,4.77283,-2.39832,0,0,0,0,0,0,0,-1,1938,1436,4.77288,2.39835
721,-412,0,0,0,0,0,0,0,0,0,-1,1945,1436,0,0
728,-412,0,0,0,0,0,0,0,0,0,-1,1952,1436,0,0
735,-412,0,0,0,0,0,0,0,0,0,-1,1959,1436,0,0
742,-412,0,0,0,0,0,0,0,0,0,-1,1966,1436,0,0
749,-412,0,0,0,0,0,0,0,0,0,-1,1973,1436,0,0
756,-412,0,0,0,0,0,0,0,0,0,-1,1980,1436,0,0
763,-412,0,0,0,0,0,0,0,0,0,-1,1987,1436,0,0
770,-412,0,0,0,0,0,0,0,0,0,-1,1994,1436,0,0
777,-412,0,0,0,0,0,0,0,0,0,-1,2001,1436,0,0
784,-412,0,0,0,0,0,0,0,0,0,-1,2008,1436,0,0
791,-412,0,0,0,0,0,0,0,0,0,-1,2015,1436,0,0
798,-412,0,0,0,0,0,0,0,0,0,-1,2022,1436,0,0
805,-412,0,0,0,0,0,0,0,0,0,-1,2029,1436,0,0
812,-412,0,0,0,0,0,0,0,0,0,-1,2036,1436,0,0
-700,-419,0,0,0,0,0,0,0,0,0,-1,524,1443,0,0
-693,-419,0,0,0,0,0,0,0,0,0,-1,531,1443,0,0
-686,-419,0,0,0,0,0,0,0,0,0,-1,538,1443,0,0
-679,-419,0,0,0,0,0,0,0,0,0,-1,545,1443,0,0
-672,-419,0,0,0,0,0,0,0,0,0,-1,552,1443,0,0
-665,-419,0,0,0,0,0,0,0,0,0,-1,559,1443,0,0
-658,-419,0,0,0,0,0,0,0,0,0,-1,566,1443,0,0
-651,-419,0,0,0,0,0,0,0,0,0,-1,573,1443,0,0
-644,-419,0,0,0,0,0,0,0,0,0,-1,580,1443,0,0
-637,-419,0,0,0,0,0,0,0,0,0,-1,587,1443,0,0
-630,-419,0,0,0,0,0,0,0,0,0,-1,594,1443,0,0
-623,-419,0,0,0,0,0,0,0,0,0,-1,601,1443,0,0
-616,-419,0,0,0,0,0,0,0,0,0,-1,608,1443,0,0
-609,-419,0,0,0,0,0,0,0,0,0,-1,615,1443,0,0
-602,-419,0,0,0,0,0,0,0,0,0,-1,622,1443,0,0
-595,-419,-4.27423,-0.479492,0,0,0,0,0,0,0,-1,629,1443,-4.27421,0.479525
-588,-419,-3.75415,0.426147,0,0,0,0,0,0,0,-1,636,1443,-3.75414,-0.426145
-581,-419,-3.37775,1.73169,0,0,0,0,0,0,0,-1,643,1443,-3.37775,-1.73163
-574,-419,-2.86279,2.7804,0,0,0,0,0,0,0,-1,650,1443,-2.86279,-2.7804
-567,-419,-3.76215,1.37549,0,0,0,0,0,0,0,-1,657,1443,-3.76215,-1.37547
-560,-419,-2.565,2.38904,0,0,0,0,0,0,0,-1,664,1443,-2.56498,-2.38905
-553,-419,-2.54572,2.57068,0,0,0,0,0,0,0,-1,671,1443,-2.5457,-2.57062
-546,-419,-2.5097,2.66956,0.0318591,0.00701458,0.0274942,0.0496071,-0.0107334,0.573217,0.0371694,0.0382099,678,1443,-2.50973,-2.6695
-539,-419,-2.54626,2.68848,0.0231302,0.00586504,0.0195933,0.0359083,-0.0069131,0.577899,0.026545,0.0266088,685,1443,-2.54628,-2.68842
-532,-419,-2.66241,2.86194,0.0158242,0.00454121,0.0136929,0.0249922,-0.00462679,0.589994,0.0183987,0.0135927,692,1443,-2.66242,-2.86198
-525,-419,-2.64465,3.08179,0.0108954,0.00329356,0.0090115,0.0168748,-0.00268581,0.585826,0.0122437,0.0127232,699,1443,-2.64465,-3.08176
-518,-419,-2.64459,3.25769,0.00643427,0.00200808,0.00487371,0.00957382,-0.00113147,0.572274,0.00679119,0.0170255,706,1443,-2.64459,-3.25773
-511,-419,-2.6687,3.42188,0.00303373,0.000794996,0.0018575,0.00408307,-0.00025434,0.514225,0.00281067,0.0185061,713,1443,-2.6687,-3.42193
-504,-419,-2.67029,3.60913,0.000441669,-0.000414775,0.000285807,0.000528287,-0.000501392,0.294264,0.000594553,0.0182798,720,1443,-2.67029,-3.60915
-497,-419,-2.65375,3.8125,-0.00139742,-0.00189379,-0.000758165,-0.000847853,-0.00244336,-0.627222,0.00143252,0.0138498,727,1443,-2.65374,-3.81251
-490,-419,-2.65063,3.99182,-0.00328171,-0.00394216,-0.00172386,-0.00185673,-0.00536714,-0.690763,0.00314737,0.0107789,734,1443,-2.65063,-3.99179
-483,-419,-2.64484,4.13855,-0.00529459,-0.00653682,-0.00291267,-0.00293754,-0.00889386,-0.680349,0.00523254,0.00892621,741,1443,-2.64483,-4.13855
-476,-419,-2.64337,4.31958,-0.00694304,-0.00937737,-0.0041014,-0.00388201,-0.0124384,-0.641153,0.0073484,0.00950937,748,1443,-2.64337,-4.31961
-469,-419,-2.60217,4.52405,-0.00898554,-0.0127736,-0.00525626,-0.00529247,-0.0164667,-0.612471,0.00970708,0.0137638,755,1443,-2.60218,-4.524
-462,-419,-2.56824,4.68274,-0.0113886,-0.0171291,-0.00674204,-0.00693126,-0.0215864,-0.584158,0.0127261,0.0226674,762,1443,-2.56824,-4.68278
-455,-419,-2.82324,4.6355,-0.0148724,-0.0169324,-0.0063975,-0.0094225,-0.0223823,-0.705581,0.0129761,0.0363061,769,1443,-2.82326,-4.63545
-448,-419,-2.11224,3.56628,0,0,0,0,0,0,0,-1,776,1443,-2.11227,-3.56622
-441,-419,-2.42371,3.6925,-0.0239335,-0.0147986,-0.00323806,-0.0137673,-0.0249648,-1.26244,0.0144389,0.0438486,783,1443,-2.42371,-3.69248
-434,-419,-2.77533,3.8938,-0.0292105,-0.00929127,0.000177266,-0.00928969,-0.029212,1.5619,0.017234,0.0493749,790,1443,-2.77535,-3.89376
-427,-419,-2.95654,4.14441,0,0,0,0,0,0,0,-1,797,1443,-2.95654,-4.14445
-420,-419,-2.97034,5.21265,0,0,0,0,0,0,0,-1,804,1443,-2.97035,-5.21262
-413,-419,-6.71332,1.56982,0,0,0,0,0,0,0,-1,811,1443,-6.71334,-1.56977
-406,-419,-7.29431,1.53333,-0.0528855,0.0478808,0.0253851,0.0539145,-0.0589192,1.33744,0.0651659,0.0421321,818,1443,-7.29429,-1.53336
-399,-419,-7.59485,1.36316,-0.0602397,0.0715179,0.0321787,0.0789568,-0.0676786,1.34361,0.0847434,0.0413447,825,1443,-7.59483,-1.36314
-392,-419,0,0,0,0,0,0,0,0,0,-1,832,1443,0,0
-385,-419,0,0,0,0,0,0,0,0,0,-1,839,1443,0,0
-378,-419,0,0,0,0,0,0,0,0,0,-1,846,1443,0,0
-371,-419,0,0,0,0,0,0,0,0,0,-1,853,1443,0,0
-364,-419,0,0,0,0,0,0,0,0,0,-1,860,1443,0,0
-357,-419,0,0,0,0,0,0,0,0,0,-1,867,1443,0,0
-350,-419,0,0,0,0,0,0,0,0,0,-1,874,1443,0,0
-343,-419,0,0,0,0,0,0,0,0,0,-1,881,1443,0,0
-336,-419,0,0,0,0,0,0,0,0,0,-1,888,1443,0,0
-329,-419,0,0,0,0,0,0,0,0,0,-1,895,1443,0,0
-322,-419,0,0,0,0,0,0,0,0,0,-1,902,1443,0,0
-315,-419,0,0,0,0,0,0,0,0,0,-1,909,1443,0,0
-308,-419,0,0,0,0,0,0,0,0,0,-1,916,1443,0,0
-301,-419,0,0,0,0,0,0,0,0,0,-1,923,1443,0,0
-294,-419,0,0,0,0,0,0,0,0,0,-1,930,1443,0,0
-287,-419,0,0,0,0,0,0,0,0,0,-1,937,1443,0,0
-280,-419,0,0,0,0,0,0,0,0,0,-1,944,1443,0,0
-273,-419,0,0,0,0,0,0,0,0,0,-1,951,1443,0,0
-266,-419,0,0,0,0,0,0,0,0,0,-1,958,1443,0,0
-259,-419,0,0,0,0,0,0,0,0,0,-1,965,1443,0,0
-252,-419,0,0,0,0,0,0,0,0,0,-1,972,1443,0,0
-245,-419,0,0,0,0,0,0,0,0,0,-1,979,1443,0,0
-238,-419,0,0,0,0,0,0,0,0,0,-1,986,1443,0,0
-231,-419,0,0,0,0,0,0,0,0,0,-1,993,1443,0,0
-224,-419,0,0,0,0,0,0,0,0,0,-1,1000,1443,0,0
-217,-419,0,0,0,0,0,0,0,0,0,-1,1007,1443,0,0
-210,-419,0,0,0,0,0,0,0,0,0,-1,1014,1443,0,0
-203,-419,0,0,0,0,0,0,0,0,0,-1,1021,1443,0,0
-196,-419,0,0,0,0,0,0,0,0,0,-1,1028,1443,0,0
-189,-419,0,0,0,0,0,0,0,0,0,-1,1035,1443,0,0
-182,-419,0,0,0,0,0,0,0,0,0,-1,1042,1443,0,0
-175,-419,0,0,0,0,0,0,0,0,0,-1,1049,1443,0,0
-168,-419,0,0,0,0,0,0,0,0,0,-1,1056,1443,0,0
-161,-419,0,0,0,0,0,0,0,0,0,-1,1063,1443,0,0
-154,-419,0,0,0,0,0,0,0,0,0,-1,1070,1443,0,0
-147,-419,0,0,0,0,0,0,0,0,0,-1,1077,1443,0,0
-140,-419,0,0,0,0,0,0,0,0,0,-1,1084,1443,0,0
-133,-419,0,0,0,0,0,0,0,0,0,-1,1091,1443,0,0
-126,-419,0,0,0,0,0,0,0,0,0,-1,1098,1443,0,0
-119,-419,0,0,0,0,0,0,0,0,0,-1,1105,1443,0,0
-112,-419,0,0,0,0,0,0,0,0,0,-1,1112,1443,0,0
-105,-419,0,0,0,0,0,0,0,0,0,-1,1119,1443,0,0
-98,-419,0,0,0,0,0,0,0,0,0,-1,1126,1443,0,0
-91,-419,0,0,0,0,0,0,0,0,0,-1,1133,1443,0,0
-84,-419,0,0,0,0,0,0,0,0,0,-1,1140,1443,0,0
-77,-419,0,0,0,0,0,0,0,0,0,-1,1147,1443,0,0
-70,-419,0,0,0,0,0,0,0,0,0,-1,1154,1443,0,0
-63,-419,0,0,0,0,0,0,0,0,0,-1,1161,1443,0,0
-56,-419,0,0,0,0,0,0,0,0,0,-1,1168,1443,0,0
-49,-419,0,0,0,0,0,0,0,0,0,-1,1175,1443,0,0
-42,-419,0,0,0,0,0,0,0,0,0,-1,1182,1443,0,0
-35,-419,0,0,0,0,0,0,0,0,0,-1,1189,1443,0,0
-28,-419,0,0,0,0,0,0,0,0,0,-1,1196,1443,0,0
-21,-419,0,0,0,0,0,0,0,0,0,-1,1203,1443,0,0
-14,-419,0,0,0,0,0,0,0,0,0,-1,1210,1443,0,0
-7,-419,0,0,0,0,0,0,0,0,0,-1,1217,1443,0,0
0,-419,0,0,0,0,0,0,0,0,0,-1,1224,1443,0,0
7,-419,0,0,0,0,0,0,0,0,0,-1,1231,1443,0,0
14,-419,0,0,0,0,0,0,0,0,0,-1,1238,1443,0,0
21,-419,0,0,0,0,0,0,0,0,0,-1,1245,1443,0,0
28,-419,0,0,0,0,0,0,0,0,0,-1,1252,1443,0,0
35,-419,0,0,0,0,0,0,0,0,0,-1,1259,1443,0,0
42,-419,0,0,0,0,0,0,0,0,0,-1,1266,1443,0,0
49,-419,0,0,0,0,0,0,0,0,0,-1,1273,1443,0,0
56,-419,0,0,0,0,0,0,0,0,0,-1,1280,1443,0,0
63,-419,0,0,0,0,0,0,0,0,0,-1,1287,1443,0,0
70,-419,0,0,0,0,0,0,0,0,0,-1,1294,1443,0,0
77,-419,0,0,0,0,0,0,0,0,0,-1,1301,1443,0,0
84,-419,0,0,0,0,0,0,0,0,0,-1,1308,1443,0,0
91,-419,0,0,0,0,0,0,0,0,0,-1,1315,1443,0,0
98,-419,0,0,0,0,0,0,0,0,0,-1,1322,1443,0,0
105,-419,0,0,0,0,0,0,0,0,0,-1,1329,1443,0,0
112,-419,0,0,0,0,0,0,0,0,0,-1,1336,1443,0,0
119,-419,0,0,0,0,0,0,0,0,0,-1,1343,1443,0,0
126,-419,0,0,0,0,0,0,0,0,0,-1,1350,1443,0,0
133,-419,0,0,0,0,0,0,0,0,0,-1,1357,1443,0,0
140,-419,0,0,0,0,0,0,0,0,0,-1,1364,1443,0,0
147,-419,0,0,0,0,0,0,0,0,0,-1,1371,1443,0,0
154,-419,0,0,0,0,0,0,0,0,0,-1,1378,1443,0,0
161,-419,0,0,0,0,0,0,0,0,0,-1,1385,1443,0,0
168,-419,0,0,0,0,0,0,0,0,0,-1,1392,1443,0,0
175,-419,0,0,0,0,0,0,0,0,0,-1,1399,1443,0,0
182,-419,0,0,0,0,0,0,0,0,0,-1,1406,1443,0,0
189,-419,0,0,0,0,0,0,0,0,0,-1,1413,1443,0,0
196,-419,0,0,0,0,0,0,0,0,0,-1,1420,1443,0,0
203,-419,0,0,0,0,0,0,0,0,0,-1,1427,1443,0,0
210,-419,0,0,0,0,0,0,0,0,0,-1,1434,1443,0,0
217,-419,0,0,0,0,0,0,0,0,0,-1,1441,1443,0,0
224,-419,0,0,0,0,0,0,0,0,0,-1,1448,1443,0,0
231,-419,0,0,0,0,0,0,0,0,0,-1,1455,1443,0,0
238,-419,0,0,0,0,0,0,0,0,0,-1,1462,1443,0,0
245,-419,0,0,0,0,0,0,0,0,0,-1,1469,1443,0,0
252,-419,0,0,0,0,0,0,0,0,0,-1,1476,1443,0,0
259,-419,0,0,0,0,0,0,0,0,0,-1,1483,1443,0,0
266,-419,0,0,0,0,0,0,0,0,0,-1,1490,1443,0,0
273,-419,0,0,0,0,0,0,0,0,0,-1,1497,1443,0,0
280,-419,0,0,0,0,0,0,0,0,0,-1,1504,1443,0,0
287,-419,0,0,0,0,0,0,0,0,0,-1,1511,1443,0,0
294,-419,0,0,0,0,0,0,0,0,0,-1,1518,1443,0,0
301,-419,0,0,0,0,0,0,0,0,0,-1,1525,1443,0,0
308,-419,0,0,0,0,0,0,0,0,0,-1,1532,1443,0,0
315,-419,0,0,0,0,0,0,0,0,0,-1,1539,1443,0,0
322,-419,0,0,0,0,0,0,0,0,0,-1,1546,1443,0,0
329,-419,0,0,0,0,0,0,0,0,0,-1,1553,1443,0,0
336,-419,0,0,0,0,0,0,0,0,0,-1,1560,1443,0,0
343,-419,0,0,0,0,0,0,0,0,0,-1,1567,1443,0,0
350,-419,0,0,0,0,0,0,0,0,0,-1,1574,1443,0,0
357,-419,0,0,0,0,0,0,0,0,0,-1,1581,1443,0,0
364,-419,0,0,0,0,0,0,0,0,0,-1,1588,1443,0,0
371,-419,0,0,0,0,0,0,0,0,0,-1,1595,1443,0,0
378,-419,0,0,0,0,0,0,0,0,0,-1,1602,1443,0,0
385,-419,0,0,0,0,0,0,0,0,0,-1,1609,1443,0,0
392,-419,0,0,0,0,0,0,0,0,0,-1,1616,1443,0,0
399,-419,0,0,0,0,0,0,0,0,0,-1,1623,1443,0,0
406,-419,0,0,0,0,0,0,0,0,0,-1,1630,1443,0,0
413,-419,0,0,0,0,0,0,0,0,0,-1,1637,1443,0,0
420,-419,0,0,0,0,0,0,0,0,0,-1,1644,1443,0,0
427,-419,0,0,0,0,0,0,0,0,0,-1,1651,1443,0,0
434,-419,0,0,0,0,0,0,0,0,0,-1,1658,1443,0,0
441,-419,0,0,0,0,0,0,0,0,0,-1,1665,1443,0,0
448,-419,0,0,0,0,0,0,0,0,0,-1,1672,1443,0,0
455,-419,0,0,0,0,0,0,0,0,0,-1,1679,1443,0,0
462,-419,0,0,0,0,0,0,0,0,0,-1,1686,1443,0,0
469,-419,0,0,0,0,0,0,0,0,0,-1,1693,1443,0,0
476,-419,0,0,0,0,0,0,0,0,0,-1,1700,1443,0,0
483,-419,0,0,0,0,0,0,0,0,0,-1,1707,1443,0,0
490,-419,0,0,0,0,0,0,0,0,0,-1,1714,1443,0,0
497,-419,0,0,0,0,0,0,0,0,0,-1,1721,1443,0,0
504,-419,0,0,0,0,0,0,0,0,0,-1,1728,1443,0,0
511,-419,12.6509,-0.385132,0,0,0,0,0,0,0,-1,1735,1443,12.6508,0.385172
518,-419,11.3622,1.57031,0,0,0,0,0,0,0,-1,1742,1443,11.3622,-1.57035
525,-419,12.1954,1.92676,0,0,0,0,0,0,0,-1,1749,1443,12.1954,-1.92676
532,-419,12.5842,3.46631,0,0,0,0,0,0,0,-1,1756,1443,12.5842,-3.46626
539,-419,13.0599,3.4187,-0.0206515,-0.0164381,0.0186529,0.00022668,-0.0373163,0.841631,0.0249534,0.0458809,1763,1443,13.06,-3.41865
546,-419,13.5973,3.42529,-0.0225926,-0.0133306,0.0212346,0.00377214,-0.0396953,0.89276,0.0278063,0.0416185,1770,1443,13.5973,-3.42529
553,-419,14.3315,3.19043,0,0,0,0,0,0,0,-1,1777,1443,14.3316,-3.19039
560,-419,10.9633,7.448,0,0,0,0,0,0,0,-1,1784,1443,10.9633,-7.44799
567,-419,9.31934,4.49487,0,0,0,0,0,0,0,-1,1791,1443,9.31938,-4.49483
574,-419,11.2941,5.20117,0,0,0,0,0,0,0,-1,1798,1443,11.294,-5.20123
581,-419,10.4384,5.35596,0,0,0,0,0,0,0,-1,1805,1443,10.4384,-5.35598
588,-419,9.58276,5.51074,0,0,0,0,0,0,0,-1,1812,1443,9.58271,-5.51073
595,-419,9.88428,5.94373,-0.0170178,-0.00971748,0.0190278,0.00600711,-0.0327424,0.880163,0.0240817,0.0367268,1819,1443,9.88424,-5.94368
602,-419,9.77002,6.02161,-0.0149299,-0.00933651,0.0166989,0.00479825,-0.0290647,0.868367,0.021158,0.0150689,1826,1443,9.76999,-6.02158
609,-419,9.75696,5.87793,-0.0119449,-0.00906555,0.0135681,0.00313905,-0.0241495,0.838254,0.0172415,0.0115366,1833,1443,9.75692,-5.87788
616,-419,9.74292,5.73218,-0.00892714,-0.00807565,0.0102832,0.00179065,-0.0187934,0.806087,0.0131665,0.0123913,1840,1443,9.74297,-5.73223
623,-419,9.75757,5.57739,-0.0063222,-0.0065171,0.00732769,0.000908691,-0.013748,0.778749,0.00948275,0.00942811,1847,1443,9.75752,-5.57737
630,-419,9.76526,5.40869,-0.00399062,-0.0047046,0.0046069,0.000273101,-0.00896831,0.74673,0.00607196,0.0113724,1854,1443,9.76531,-5.40865
637,-419,9.75427,5.23071,-0.00184185,-0.0029948,0.00247308,0.000121055,-0.00495771,0.670893,0.00334622,0.0130877,1861,1443,9.75422,-5.23065
644,-419,9.75012,5.09631,1.14685e-05,-0.00178272,0.000914587,0.000395486,-0.00216673,0.397527,0.00159277,0.0119869,1868,1443,9.75007,-5.09628
651,-419,9.75525,4.94861,0.0015707,-0.000931866,-0.00023721,0.00159299,-0.000954152,-0.093675,0.00148593,0.0113899,1875,1443,9.75529,-4.94865
658,-419,9.75024,4.78223,0.00331135,-0.00116742,-0.000769412,0.00343984,-0.00129591,-0.165473,0.00282604,0.0126535,1882,1443,9.75027,-4.78225
665,-419,9.755,4.60474,0.0045951,-0.00204629,-0.000707451,0.00466963,-0.00212081,-0.104952,0.00401146,0.0199971,1889,1443,9.75502,-4.60474
672,-419,9.77112,4.36377,0.00582485,-0.00392047,-3.2781e-05,0.00582496,-0.00392058,-0.00336372,0.00566229,0.0240638,1896,1443,9.77114,-4.36373
679,-419,9.81018,4.31006,0.00749413,-0.00697548,0.00124928,0.0076012,-0.00708254,0.0854952,0.00847942,0.0404673,1903,1443,9.8102,-4.31005
686,-419,9.2688,4.52551,0,0,0,0,0,0,0,-1,1910,1443,9.26884,-4.52552
693,-419,7.70715,3.61829,0,0,0,0,0,0,0,-1,1917,1443,7.70713,-3.6183
700,-419,7.0708,0.878418,0,0,0,0,0,0,0,-1,1924,1443,7.07081,-0.878367
707,-419,6.99182,-0.284302,0,0,0,0,0,0,0,-1,1931,1443,6.9918,0.284356
714,-419,5.77576,-1.25061,0,0,0,0,0,0,0,-1,1938,1443,5.7757,1.25056
721,-419,0,0,0,0,0,0,0,0,0,-1,1945,1443,0,0
728,-419,0,0,0,0,0,0,0,0,0,-1,1952,1443,0,0
735,-419,0,0,0,0,0,0,0,0,0,-1,1959,1443,0,0
742,-419,0,0,0,0,0,0,0,0,0,-1,1966,1443,0,0
749,-419,0,0,0,0,0,0,0,0,0,-1,1973,1443,0,0
756,-419,0,0,0,0,0,0,0,0,0,-1,1980,1443,0,0
763,-419,0,0,0,0,0,0,0,0,0,-1,1987,1443,0,0
770,-419,0,0,0,0,0,0,0,0,0,-1,1994,1443,0,0
777,-419,0,0,0,0,0,0,0,0,0,-1,2001,1443,0,0
784,-419,0,0,0,0,0,0,0,0,0,-1,2008,1443,0,0
791,-419,0,0,0,0,0,0,0,0,0,-1,2015,1443,0,0
798,-419,0,0,0,0,0,0,0,0,0,-1,2022,1443,0,0
805,-419,0,0,0,0,0,0,0,0,0,-1,2029,1443,0,0
812,-419,0,0,0,0,0,0,0,0,0,-1,2036,1443,0,0
-700,-426,0,0,0,0,0,0,0,0,0,-1,524,1450,0,0
-693,-426,0,0,0,0,0,0,0,0,0,-1,531,1450,0,0
-686,-426,0,0,0,0,0,0,0,0,0,-1,538,1450,0,0
-679,-426,0,0,0,0,0,0,0,0,0,-1,545,1450,0,0
-672,-426,0,0,0,0,0,0,0,0,0,-1,552,1450,0,0
-665,-426,0,0,0,0,0,0,0,0,0,-1,559,1450,0,0
-658,-426,0,0,0,0,0,0,0,0,0,-1,566,1450,0,0
-651,-426,0,0,0,0,0,0,0,0,0,-1,573,1450,0,0
-644,-426,0,0,0,0,0,0,0,0,0,-1,580,1450,0,0
-637,-426,0,0,0,0,0,0,0,0,0,-1,587,1450,0,0
-630,-426,0,0,0,0,0,0,0,0,0,-1,594,1450,0,0
-623,-426,0,0,0,0,0,0,0,0,0,-1,601,1450,0,0
-616,-426,0,0,0,0,0,0,0,0,0,-1,608,1450,0,0
-609,-426,0,0,0,0,0,0,0,0,0,-1,615,1450,0,0
-602,-426,0,0,0,0,0,0,0,0,0,-1,622,1450,0,0
-595,-426,0,0,0,0,0,0,0,0,0,-1,629,1450,0,0
-588,-426,-4.39026,0.156494,0,0,0,0,0,0,0,-1,636,1450,-4.39027,-0.156543
-581,-426,-3.61182,1.14502,0,0,0,0,0,0,0,-1,643,1450,-3.61184,-1.14503
-574,-426,-3.31049,1.22742,0,0,0,0,0,0,0,-1,650,1450,-3.3105,-1.22744
-567,-426,-2.22693,1.93164,0,0,0,0,0,0,0,-1,657,1450,-2.22694,-1.93169
-560,-426,-1.84064,0.874756,0,0,0,0,0,0,0,-1,664,1450,-1.84062,-0.874725
-553,-426,-2.40521,2.59021,0,0,0,0,0,0,0,-1,671,1450,-2.40522,-2.59016
-546,-426,-2.38165,2.71228,0.0391112,0.0100862,0.0361196,0.0635247,-0.0143273,0.594374,0.0478461,0.0494431,678,1450,-2.38167,-2.71225
-539,-426,-2.31317,2.68774,0.0287032,0.00844402,0.0262922,0.0467497,-0.00960244,0.601526,0.0348116,0.0393942,685,1450,-2.31315,-2.68777
-532,-426,-2.42889,2.88232,0.020018,0.00668876,0.0187232,0.0332274,-0.0065206,0.614413,0.0246147,0.023013,692,1450,-2.42891,-2.88227
-525,-426,-2.46771,3.06689,0.013839,0.0050925,0.0127148,0.0229116,-0.00398018,0.619762,0.0167594,0.0130558,699,1450,-2.4677,-3.06691
-518,-426,-2.46484,3.26001,0.00844269,0.00354821,0.00747917,0.0138648,-0.00187392,0.627285,0.00992698,0.0152735,706,1450,-2.46486,-3.26001
-511,-426,-2.47174,3.44043,0.00435357,0.00218077,0.00362681,0.00705319,-0.000518859,0.639878,0.00488428,0.0139982,713,1450,-2.47175,-3.4404
-504,-426,-2.466,3.62695,0.00151972,0.000954519,0.00164481,0.00290603,-0.000431788,0.700321,0.00209616,0.0138888,720,1450,-2.46598,-3.62701
-497,-426,-2.46448,3.81787,-0.000262784,-0.000396911,0.000414238,8.97842e-05,-0.000749479,0.705146,0.000532112,0.0116474,727,1450,-2.46446,-3.81783
-490,-426,-2.47229,3.99341,-0.0019443,-0.00222,-0.000634002,-0.00143333,-0.00273097,-0.67835,0.00157737,0.0118072,734,1450,-2.47228,-3.99339
-483,-426,-2.4707,4.14661,-0.00364734,-0.00451471,-0.00188007,-0.00215158,-0.00601046,-0.672043,0.0035165,0.0113783,741,1450,-2.47071,-4.1466
-476,-426,-2.47498,4.32983,-0.00485222,-0.00700585,-0.00302971,-0.00271365,-0.00914441,-0.614651,0.00542297,0.00908693,748,1450,-2.47495,-4.32979
-469,-426,-2.48035,4.52429,-0.0063035,-0.00989474,-0.00408067,-0.00364085,-0.0125574,-0.578132,0.00746024,0.00713258,755,1450,-2.48034,-4.52423
-462,-426,-2.39398,4.7074,-0.00805541,-0.0135979,-0.00551868,-0.00465125,-0.0170021,-0.552712,0.0101461,0.0132517,762,1450,-2.39398,-4.70742
-455,-426,-2.38489,4.69153,-0.0106469,-0.0141529,-0.00557821,-0.00655268,-0.018247,-0.633154,0.0106734,0.0270473,769,1450,-2.38492,-4.69154
-448,-426,-2.35431,4.41699,0,0,0,0,0,0,0,-1,776,1450,-2.35429,-4.41698
-441,-426,-2.5542,4.38367,-0.0176375,-0.0144659,-0.00413395,-0.0116241,-0.0204794,-0.968543,0.0118597,0.0449473,783,1450,-2.55421,-4.38368
-434,-426,-2.76465,4.62415,-0.0219361,-0.0112432,-0.00205385,-0.0108623,-0.0223171,-1.38741,0.0128863,0.0483547,790,1450,-2.76465,-4.62416
-427,-426,-2.97998,4.8446,0,0,0,0,0,0,0,-1,797,1450,-2.98001,-4.8446
-420,-426,-1.99292,4.35583,0,0,0,0,0,0,0,-1,804,1450,-1.99295,-4.35581
-413,-426,-2.52618,5.23474,0,0,0,0,0,0,0,-1,811,1450,-2.52618,-5.23472
-406,-426,-8.35974,1.43652,0,0,0,0,0,0,0,-1,818,1450,-8.35976,-1.43654
-399,-426,-8.65973,1.44946,0,0,0,0,0,0,0,-1,825,1450,-8.65974,-1.44951
-392,-426,-7.24072,0.395386,0,0,0,0,0,0,0,-1,832,1450,-7.24074,-0.395387
-385,-426,0,0,0,0,0,0,0,0,0,-1,839,1450,0,0
-378,-426,0,0,0,0,0,0,0,0,0,-1,846,1450,0,0
-371,-426,0,0,0,0,0,0,0,0,0,-1,853,1450,0,0
-364,-426,0,0,0,0,0,0,0,0,0,-1,860,1450,0,0
-357,-426,0,0,0,0,0,0,0,0,0,-1,867,1450,0,0
-350,-426,0,0,0,0,0,0,0,0,0,-1,874,1450,0,0
-343,-426,0,0,0,0,0,0,0,0,0,-1,881,1450,0,0
-336,-426,0,0,0,0,0,0,0,0,0,-1,888,1450,0,0
-329,-426,0,0,0,0,0,0,0,0,0,-1,895,1450,0,0
-322,-426,0,0,0,0,0,0,0,0,0,-1,902,1450,0,0
-315,-426,0,0,0,0,0,0,0,0,0,-1,909,1450,0,0
-308,-426,0,0,0,0,0,0,0,0,0,-1,916,1450,0,0
-301,-426,0,0,0,0,0,0,0,0,0,-1,923,1450,0,0
-294,-426,0,0,0,0,0,0,0,0,0,-1,930,1450,0,0
-287,-426,0,0,0,0,0,0,0,0,0,-1,937,1450,0,0
-280,-426,0,0,0,0,0,0,0,0,0,-1,944,1450,0,0
-273,-426,0,0,0,0,0,0,0,0,0,-1,951,1450,0,0
-266,-426,0,0,0,0,0,0,0,0,0,-1,958,1450,0,0
-259,-426,0,0,0,0,0,0,0,0,0,-1,965,1450,0,0
-252,-426,0,0,0,0,0,0,0,0,0,-1,972,1450,0,0
-245,-426,0,0,0,0,0,0,0,0,0,-1,979,1450,0,0
-238,-426,0,0,0,0,0,0,0,0,0,-1,986,1450,0,0
-231,-426,0,0,0,0,0,0,0,0,0,-1,993,1450,0,0
-224,-426,0,0,0,0,0,0,0,0,0,-1,1000,1450,0,0
-217,-426,0,0,0,0,0,0,0,0,0,-1,1007,1450,0,0
-210,-426,0,0,0,0,0,0,0,0,0,-1,1014,1450,0,0
-203,-426,0,0,0,0,0,0,0,0,0,-1,1021,1450,0,0
-196,-426,0,0,0,0,0,0,0,0,0,-1,1028,1450,0,0
-189,-426,0,0,0,0,0,0,0,0,0,-1,1035,1450,0,0
-182,-426,0,0,0,0,0,0,0,0,0,-1,1042,1450,0,0
-175,-426,0,0,0,0,0,0,0,0,0,-1,1049,1450,0,0
-168,-426,0,0,0,0,0,0,0,0,0,-1,1056,1450,0,0
-161,-426,0,0,0,0,0,0,0,0,0,-1,1063,1450,0,0
-154,-426,0,0,0,0,0,0,0,0,0,-1,1070,1450,0,0
-147,-426,0,0,0,0,0,0,0,0,0,-1,1077,1450,0,0
-140,-426,0,0,0,0,0,0,0,0,0,-1,1084,1450,0,0
-133,-426,0,0,0,0,0,0,0,0,0,-1,1091,1450,0,0
-126,-426,0,0,0,0,0,0,0,0,0,-1,1098,1450,0,0
-119,-426,0,0,0,0,0,0,0,0,0,-1,1105,1450,0,0
-112,-426,0,0,0,0,0,0,0,0,0,-1,1112,1450,0,0
-105,-426,0,0,0,0,0,0,0,0,0,-1,1119,1450,0,0
-98,-426,0,0,0,0,0,0,0,0,0,-1,1126,1450,0,0
-91,-426,0,0,0,0,0,0,0,0,0,-1,1133,1450,0,0
-84,-426,0,0,0,0,0,0,0,0,0,-1,1140,1450,0,0
-77,-426,0,0,0,0,0,0,0,0,0,-1,1147,1450,0,0
-70,-426,0,0,0,0,0,0,0,0,0,-1,1154,1450,0,0
-63,-426,0,0,0,0,0,0,0,0,0,-1,1161,1450,0,0
-56,-426,0,0,0,0,0,0,0,0,0,-1,1168,1450,0,0
-49,-426,0,0,0,0,0,0,0,0,0,-1,1175,1450,0,0
-42,-426,0,0,0,0,0,0,0,0,0,-1,1182,1450,0,0
-35,-426,0,0,0,0,0,0,0,0,0,-1,1189,1450,0,0
-28,-426,0,0,0,0,0,0,0,0,0,-1,1196,1450,0,0
-21,-426,0,0,0,0,0,0,0,0,0,-1,1203,1450,0,0
-14,-426,0,0,0,0,0,0,0,0,0,-1,1210,1450,0,0
-7,-426,0,0,0,0,0,0,0,0,0,-1,1217,1450,0,0
0,-426,0,0,0,0,0,0,0,0,0,-1,1224,1450,0,0
7,-426,0,0,0,0,0,0,0,0,0,-1,1231,1450,0,0
14,-426,0,0,0,0,0,0,0,0,0,-1,1238,1450,0,0
21,-426,0,0,0,0,0,0,0,0,0,-1,1245,1450,0,0
28,-426,0,0,0,0,0,0,0,0,0,-1,1252,1450,0,0
35,-426,0,0,0,0,0,0,0,0,0,-1,1259,1450,0,0
42,-426,0,0,0,0,0,0,0,0,0,-1,1266,1450,0,0
49,-426,0,0,0,0,0,0,0,0,0,-1,1273,1450,0,0
56,-426,0,0,0,0,0,0,0,0,0,-1,1280,1450,0,0
63,-426,0,0,0,0,0,0,0,0,0,-1,1287,1450,0,0
70,-426,0,0,0,0,0,0,0,0,0,-1,1294,1450,0,0
77,-426,0,0,0,0,0,0,0,0,0,-1,1301,1450,0,0
84,-426,0,0,0,0,0,0,0,0,0,-1,1308,1450,0,0
91,-426,0,0,0,0,0,0,0,0,0,-1,1315,1450,0,0
98,-426,0,0,0,0,0,0,0,0,0,-1,1322,1450,0,0
105,-426,0,0,0,0,0,0,0,0,0,-1,1329,1450,0,0
112,-426,0,0,0,0,0,0,0,0,0,-1,1336,1450,0,0
119,-426,0,0,0,0,0,0,0,0,0,-1,1343,1450,0,0
126,-426,0,0,0,0,0,0,0,0,0,-1,1350,1450,0,0
133,-426,0,0,0,0,0,0,0,0,0,-1,1357,1450,0,0
140,-426,0,0,0,0,0,0,0,0,0,-1,1364,1450,0,0
147,-426,0,0,0,0,0,0,0,0,0,-1,1371,1450,0,0
154,-426,0,0,0,0,0,0,0,0,0,-1,1378,1450,0,0
161,-426,0,0,0,0,0,0,0,0,0,-1,1385,1450,0,0
168,-426,0,0,0,0,0,0,0,0,0,-1,1392,1450,0,0
175,-426,0,0,0,0,0,0,0,0,0,-1,1399,1450,0,0
182,-426,0,0,0,0,0,0,0,0,0,-1,1406,1450,0,0
189,-426,0,0,0,0,0,0,0,0,0,-1,1413,1450,0,0
196,-426,0,0,0,0,0,0,0,0,0,-1,1420,1450,0,0
203,-426,0,0,0,0,0,0,0,0,0,-1,1427,1450,0,0
210,-426,0,0,0,0,0,0,0,0,0,-1,1434,1450,0,0
217,-426,0,0,0,0,0,0,0,0,0,-1,1441,1450,0,0
224,-426,0,0,0,0,0,0,0,0,0,-1,1448,1450,0,0
231,-426,0,0,0,0,0,0,0,0,0,-1,1455,1450,0,0
238,-426,0,0,0,0,0,0,0,0,0,-1,1462,1450,0,0
245,-426,0,0,0,0,0,0,0,0,0,-1,1469,1450,0,0
252,-426,0,0,0,0,0,0,0,0,0,-1,1476,1450,0,0
259,-426,0,0,0,0,0,0,0,0,0,-1,1483,1450,0,0
266,-426,0,0,0,0,0,0,0,0,0,-1,1490,1450,0,0
273,-426,0,0,0,0,0,0,0,0,0,-1,1497,1450,0,0
280,-426,0,0,0,0,0,0,0,0,0,-1,1504,1450,0,0
287,-426,0,0,0,0,0,0,0,0,0,-1,1511,1450,0,0
294,-426,0,0,0,0,0,0,0,0,0,-1,1518,1450,0,0
301,-426,0,0,0,0,0,0,0,0,0,-1,1525,1450,0,0
308,-426,0,0,0,0,0,0,0,0,0,-1,1532,1450,0,0
315,-426,0,0,0,0,0,0,0,0,0,-1,1539,1450,0,0
322,-426,0,0,0,0,0,0,0,0,0,-1,1546,1450,0,0
329,-426,0,0,0,0,0,0,0,0,0,-1,1553,1450,0,0
336,-426,0,0,0,0,0,0,0,0,0,-1,1560,1450,0,0
343,-426,0,0,0,0,0,0,0,0,0,-1,1567,1450,0,0
350,-426,0,0,0,0,0,0,0,0,0,-1,1574,1450,0,0
357,-426,0,0,0,0,0,0,0,0,0,-1,1581,1450,0,0
364,-426,0,0,0,0,0,0,0,0,0,-1,1588,1450,0,0
371,-426,0,0,0,0,0,0,0,0,0,-1,1595,1450,0,0
378,-426,0,0,0,0,0,0,0,0,0,-1,1602,1450,0,0
385,-426,0,0,0,0,0,0,0,0,0,-1,1609,1450,0,0
392,-426,0,0,0,0,0,0,0,0,0,-1,1616,1450,0,0
399,-426,0,0,0,0,0,0,0,0,0,-1,1623,1450,0,0
406,-426,0,0,0,0,0,0,0,0,0,-1,1630,1450,0,0
413,-426,0,0,0,0,0,0,0,0,0,-1,1637,1450,0,0
420,-426,0,0,0,0,0,0,0,0,0,-1,1644,1450,0,0
427,-426,0,0,0,0,0,0,0,0,0,-1,1651,1450,0,0
434,-426,0,0,0,0,0,0,0,0,0,-1,1658,1450,0,0
441,-426,0,0,0,0,0,0,0,0,0,-1,1665,1450,0,0
448,-426,0,0,0,0,0,0,0,0,0,-1,1672,1450,0,0
455,-426,0,0,0,0,0,0,0,0,0,-1,1679,1450,0,0
462,-426,0,0,0,0,0,0,0,0,0,-1,1686,1450,0,0
469,-426,0,0,0,0,0,0,0,0,0,-1,1693,1450,0,0
476,-426,0,0,0,0,0,0,0,0,0,-1,1700,1450,0,0
483,-426,0,0,0,0,0,0,0,0,0,-1,1707,1450,0,0
490,-426,0,0,0,0,0,0,0,0,0,-1,1714,1450,0,0
497,-426,0,0,0,0,0,0,0,0,0,-1,1721,1450,0,0
504,-426,11.3325,-0.0932617,0,0,0,0,0,0,0,-1,1728,1450,11.3325,0.0932552
511,-426,11.0135,0.0611572,0,0,0,0,0,0,0,-1,1735,1450,11.0136,-0.0611674
518,-426,10.746,0.292603,0,0,0,0,0,0,0,-1,1742,1450,10.746,-0.29259
525,-426,11.4308,1.75842,0,0,0,0,0,0,0,-1,1749,1450,11.4308,-1.75838
532,-426,12.8932,3.41626,0,0,0,0,0,0,0,-1,1756,1450,12.8932,-3.41621
539,-426,13.1987,3.1897,-0.0170213,-0.012812,0.0179382,0.00314456,-0.0329779,0.843795,0.0231049,0.0477002,1763,1450,13.1987,-3.18973
546,-426,13.261,3.38745,-0.018868,-0.0113828,0.0203203,0.00553666,-0.0357875,0.876467,0.0259019,0.0460163,1770,1450,13.261,-3.38748
553,-426,10.4155,7.35583,0,0,0,0,0,0,0,-1,1777,1450,10.4155,-7.35589
560,-426,11.0123,7.36621,0,0,0,0,0,0,0,-1,1784,1450,11.0123,-7.36617
567,-426,11.4796,7.60876,0,0,0,0,0,0,0,-1,1791,1450,11.4796,-7.60879
574,-426,10.2501,5.51465,-0.0186017,-0.0107969,0.0213806,0.00703453,-0.0364331,0.875666,0.0269415,0.0482132,1798,1450,10.2502,-5.51465
581,-426,9.90466,5.5531,-0.0171229,-0.0106732,0.0199837,0.00634419,-0.0341403,0.865395,0.0251431,0.0429567,1805,1450,9.90461,-5.5531
588,-426,9.77808,5.97498,-0.015166,-0.0100871,0.0183226,0.00587116,-0.0311243,0.854257,0.0229582,0.0416219,1812,1450,9.77804,-5.975
595,-426,9.58875,6.20337,-0.0137269,-0.00979013,0.0165876,0.0049455,-0.0284625,0.844455,0.0208203,0.0261162,1819,1450,9.5888,-6.20332
602,-426,9.6001,6.02148,-0.0117988,-0.00904936,0.0141429,0.00378545,-0.0246336,0.833847,0.0178187,0.0159128,1826,1450,9.60012,-6.02149
609,-426,9.6051,5.86206,-0.0092988,-0.00833365,0.0111419,0.00233616,-0.0199686,0.80704,0.0141555,0.0122189,1833,1450,9.60507,-5.8621
616,-426,9.60461,5.72839,-0.00666681,-0.00698465,0.00814054,0.00131636,-0.0149678,0.775639,0.010445,0.0136817,1840,1450,9.60463,-5.72844
623,-426,9.61536,5.57727,-0.00438427,-0.00530984,0.00555283,0.000725027,-0.0104191,0.743823,0.00719994,0.0105089,1847,1450,9.61537,-5.57732
630,-426,9.61279,5.41809,-0.00235393,-0.00361907,0.0031881,0.000263753,-0.00623675,0.687462,0.00424848,0.0114726,1854,1450,9.61283,-5.41809
637,-426,9.60449,5.2594,-0.000450946,-0.00215965,0.00132298,0.000269569,-0.00288017,0.498698,0.00201598,0.0124799,1861,1450,9.60455,-5.25939
644,-426,9.573,5.1123,0.00123178,-0.0012479,-6.63145e-05,0.00123356,-0.00124968,-0.0267176,0.0014337,0.0119007,1868,1450,9.57298,-5.11233
651,-426,9.56897,4.9585,0.00271319,-0.000667932,-0.00110319,0.0030413,-0.000996038,-0.289085,0.00242861,0.0121133,1875,1450,9.56892,-4.95846
658,-426,9.60522,4.75879,0.00436836,-0.00102815,-0.0015984,0.00480626,-0.00146605,-0.267401,0.00378862,0.0117237,1882,1450,9.60521,-4.75876
665,-426,9.65601,4.54871,0.00554947,-0.00205285,-0.00153536,0.00584784,-0.00235122,-0.19194,0.00487511,0.0172212,1889,1450,9.65597,-4.54865
672,-426,9.66003,4.36328,0.00676821,-0.00404953,-0.000893848,0.00684157,-0.00412289,-0.081888,0.00639487,0.0282116,1896,1450,9.66001,-4.36328
679,-426,9.55383,4.4801,0.00844652,-0.00725627,0.000348313,0.00845425,-0.007264,0.022167,0.0090836,0.0416165,1903,1450,9.55383,-4.48011
686,-426,9.50549,4.57715,0,0,0,0,0,0,0,-1,1910,1450,9.50545,-4.57712
693,-426,9.31238,4.44482,0,0,0,0,0,0,0,-1,1917,1450,9.31234,-4.44481
700,-426,7.23096,-0.289307,0,0,0,0,0,0,0,-1,1924,1450,7.23101,0.289246
707,-426,8.44519,-1.21448,0,0,0,0,0,0,0,-1,1931,1450,8.44514,1.21454
714,-426,0,0,0,0,0,0,0,0,0,-1,1938,1450,0,0
721,-426,0,0,0,0,0,0,0,0,0,-1,1945,1450,0,0
728,-426,0,0,0,0,0,0,0,0,0,-1,1952,1450,0,0
735,-426,0,0,0,0,0,0,0,0,0,-1,1959,1450,0,0
742,-426,0,0,0,0,0,0,0,0,0,-1,1966,1450,0,0
749,-426,0,0,0,0,0,0,0,0,0,-1,1973,1450,0,0
756,-426,0,0,0,0,0,0,0,0,0,-1,1980,1450,0,0
763,-426,0,0,0,0,0,0,0,0,0,-1,1987,1450,0,0
770,-426,0,0,0,0,0,0,0,0,0,-1,1994,1450,0,0
777,-426,0,0,0,0,0,0,0,0,0,-1,2001,1450,0,0
784,-426,0,0,0,0,0,0,0,0,0,-1,2008,1450,0,0
791,-426,0,0,0,0,0,0,0,0,0,-1,2015,1450,0,0
798,-426,0,0,0,0,0,0,0,0,0,-1,2022,1450,0,0
805,-426,0,0,0,0,0,0,0,0,0,-1,2029,1450,0,0
812,-426,0,0,0,0,0,0,0,0,0,-1,2036,1450,0,0
-700,-433,0,0,0,0,0,0,0,0,0,-1,524,1457,0,0
-693,-433,0,0,0,0,0,0,0,0,0,-1,531,1457,0,0
-686,-433,0,0,0,0,0,0,0,0,0,-1,538,1457,0,0
-679,-433,0,0,0,0,0,0,0,0,0,-1,545,1457,0,0
-672,-433,0,0,0,0,0,0,0,0,0,-1,552,1457,0,0
-665,-433,0,0,0,0,0,0,0,0,0,-1,559,1457,0,0
-658,-433,0,0,0,0,0,0,0,0,0,-1,566,1457,0,0
-651,-433,0,0,0,0,0,0,0,0,0,-1,573,1457,0,0
-644,-433,0,0,0,0,0,0,0,0,0,-1,580,1457,0,0
-637,-433,0,0,0,0,0,0,0,0,0,-1,587,1457,0,0
-630,-433,0,0,0,0,0,0,0,0,0,-1,594,1457,0,0
-623,-433,0,0,0,0,0,0,0,0,0,-1,601,1457,0,0
-616,-433,0,0,0,0,0,0,0,0,0,-1,608,1457,0,0
-609,-433,0,0,0,0,0,0,0,0,0,-1,615,1457,0,0
-602,-433,0,0,0,0,0,0,0,0,0,-1,622,1457,0,0
-595,-433,0,0,0,0,0,0,0,0,0,-1,629,1457,0,0
-588,-433,-4.99121,-0.205688,0,0,0,0,0,0,0,-1,636,1457,-4.99119,0.205667
-581,-433,-5.03912,0.544922,0,0,0,0,0,0,0,-1,643,1457,-5.0391,-0.54497
-574,-433,-4.21356,1.15454,0.116705,0.01912,0.11196,0.190043,-0.0542177,0.579906,0.148113,0.049412,650,1457,-4.21355,-1.15455
-567,-433,-3.36993,1.9071,0.0958083,0.0184291,0.0926476,0.15752,-0.0432828,0.587605,0.122027,0.0494837,657,1457,-3.36991,-1.90709
-560,-433,-2.69342,2.74976,0,0,0,0,0,0,0,-1,664,1457,-2.69342,-2.7498
-553,-433,-2.50452,0.574097,0,0,0,0,0,0,0,-1,671,1457,-2.50455,-0.574046
-546,-433,-2.57355,2.05518,0,0,0,0,0,0,0,-1,678,1457,-2.57352,-2.05515
-539,-433,-2.42426,2.50903,0.0340139,0.0113293,0.0328231,0.0573992,-0.0120559,0.619042,0.0428538,0.0446217,685,1457,-2.42426,-2.50905
-532,-433,-2.21906,2.8689,0.0240825,0.00911388,0.0236456,0.0414,-0.00820356,0.632126,0.030702,0.0277962,692,1457,-2.21906,-2.8689
-525,-433,-2.2691,3.0697,0.0167221,0.00708615,0.0163257,0.0289259,-0.00511769,0.641913,0.0211968,0.0153761,699,1457,-2.2691,-3.06974
-518,-433,-2.30078,3.25281,0.0104451,0.00520248,0.0100034,0.018165,-0.00251738,0.657258,0.0130304,0.0155956,706,1457,-2.30078,-3.25278
-511,-433,-2.29694,3.43896,0.00566589,0.00357886,0.00527919,0.0100037,-0.00075896,0.687823,0.00693599,0.0153494,713,1457,-2.29693,-3.43891
-504,-433,-2.29266,3.61426,0.00255328,0.00219671,0.00281793,0.00519856,-0.000448566,0.753806,0.00362449,0.0120438,720,1457,-2.29266,-3.61428
-497,-433,-2.29156,3.78943,0.000758713,0.0008109,0.00132186,0.00210693,-0.000537315,0.795267,0.00161382,0.012557,727,1457,-2.29158,-3.7894
-490,-433,-2.3045,3.9873,-0.000806496,-0.00090603,0.00011996,-0.000726389,-0.000986136,0.588771,0.000590212,0.0147668,734,1457,-2.30448,-3.98733
-483,-433,-2.30402,4.18896,-0.00226935,-0.00299195,-0.001204,-0.00137361,-0.00388769,-0.639633,0.00227652,0.0156852,741,1457,-2.30401,-4.189
-476,-433,-2.30243,4.35339,-0.00312387,-0.00524197,-0.00232653,-0.00162669,-0.00673916,-0.571811,0.00406064,0.0105449,748,1457,-2.30241,-4.35344
-469,-433,-2.30023,4.52747,-0.00408676,-0.00773804,-0.00328412,-0.00215495,-0.00966984,-0.531718,0.0058618,0.00977214,755,1457,-2.30024,-4.52743
-462,-433,-2.2948,4.7002,-0.00527554,-0.0108624,-0.00469983,-0.00260163,-0.0135363,-0.517266,0.00829411,0.00894532,762,1457,-2.29479,-4.70017
-455,-433,-2.16711,4.86609,-0.00708607,-0.0119459,-0.00511048,-0.00385722,-0.0151747,-0.563481,0.00910721,0.0205722,769,1457,-2.16711,-4.86612
-448,-433,-2.20538,4.84302,-0.00951239,-0.0132952,-0.00515519,-0.00591259,-0.016895,-0.609575,0.00989966,0.0356143,776,1457,-2.2054,-4.84306
-441,-433,-2.23639,4.8667,-0.0120766,-0.0140583,-0.00508491,-0.00788693,-0.018248,-0.689172,0.0105677,0.0442749,783,1457,-2.23638,-4.86671
-434,-433,-2.16119,4.76526,-0.0153622,-0.012742,-0.00414042,-0.00970935,-0.0183948,-0.938623,0.0106257,0.047432,790,1457,-2.16117,-4.76524
-427,-433,-2.13898,4.50085,-0.0193577,-0.00852075,-0.00198835,-0.00816745,-0.019711,-1.39495,0.0114357,0.0468601,797,1457,-2.13895,-4.50081
-420,-433,-1.7229,4.49438,0,0,0,0,0,0,0,-1,804,1457,-1.72291,-4.49444
-413,-433,-1.53833,4.20422,0,0,0,0,0,0,0,-1,811,1457,-1.53834,-4.20424
-406,-433,-6.19287,2.67285,0,0,0,0,0,0,0,-1,818,1457,-6.1929,-2.67286
-399,-433,-6.95508,1.86853,0,0,0,0,0,0,0,-1,825,1457,-6.95506,-1.86848
-392,-433,-7.32813,1.44543,0,0,0,0,0,0,0,-1,832,1457,-7.3281,-1.44546
-385,-433,-1.65833,1.2821,0,0,0,0,0,0,0,-1,839,1457,-1.65834,-1.28209
-378,-433,0,0,0,0,0,0,0,0,0,-1,846,1457,0,0
-371,-433,0,0,0,0,0,0,0,0,0,-1,853,1457,0,0
-364,-433,0,0,0,0,0,0,0,0,0,-1,860,1457,0,0
-357,-433,0,0,0,0,0,0,0,0,0,-1,867,1457,0,0
-350,-433,0,0,0,0,0,0,0,0,0,-1,874,1457,0,0
-343,-433,0,0,0,0,0,0,0,0,0,-1,881,1457,0,0
-336,-433,0,0,0,0,0,0,0,0,0,-1,888,1457,0,0
-329,-433,0,0,0,0,0,0,0,0,0,-1,895,1457,0,0
-322,-433,0,0,0,0,0,0,0,0,0,-1,902,1457,0,0
-315,-433,0,0,0,0,0,0,0,0,0,-1,909,1457,0,0
-308,-433,0,0,0,0,0,0,0,0,0,-1,916,1457,0,0
-301,-433,0,0,0,0,0,0,0,0,0,-1,923,1457,0,0
-294,-433,0,0,0,0,0,0,0,0,0,-1,930,1457,0,0
-287,-433,0,0,0,0,0,0,0,0,0,-1,937,1457,0,0
-280,-433,0,0,0,0,0,0,0,0,0,-1,944,1457,0,0
-273,-433,0,0,0,0,0,0,0,0,0,-1,951,1457,0,0
-266,-433,0,0,0,0,0,0,0,0,0,-1,958,1457,0,0
-259,-433,0,0,0,0,0,0,0,0,0,-1,965,1457,0,0
-252,-433,0,0,0,0,0,0,0,0,0,-1,972,1457,0,0
-245,-433,0,0,0,0,0,0,0,0,0,-1,979,1457,0,0
-238,-433,0,0,0,0,0,0,0,0,0,-1,986,1457,0,0
-231,-433,0,0,0,0,0,0,0,0,0,-1,993,1457,0,0
-224,-433,0,0,0,0,0,0,0,0,0,-1,1000,1457,0,0
-217,-433,0,0,0,0,0,0,0,0,0,-1,1007,1457,0,0
-210,-433,0,0,0,0,0,0,0,0,0,-1,1014,1457,0,0
-203,-433,0,0,0,0,0,0,0,0,0,-1,1021,1457,0,0
-196,-433,0,0,0,0,0,0,0,0,0,-1,1028,1457,0,0
-189,-433,0,0,0,0,0,0,0,0,0,-1,1035,1457,0,0
-182,-433,0,0,0,0,0,0,0,0,0,-1,1042,1457,0,0
-175,-433,0,0,0,0,0,0,0,0,0,-1,1049,1457,0,0
-168,-433,0,0,0,0,0,0,0,0,0,-1,1056,1457,0,0
-161,-433,0,0,0,0,0,0,0,0,0,-1,1063,1457,0,0
-154,-433,0,0,0,0,0,0,0,0,0,-1,1070,1457,0,0
-147,-433,0,0,0,0,0,0,0,0,0,-1,1077,1457,0,0
-140,-433,0,0,0,0,0,0,0,0,0,-1,1084,1457,0,0
-133,-433,0,0,0,0,0,0,0,0,0,-1,1091,1457,0,0
-126,-433,0,0,0,0,0,0,0,0,0,-1,1098,1457,0,0
-119,-433,0,0,0,0,0,0,0,0,0,-1,1105,1457,0,0
-112,-433,0,0,0,0,0,0,0,0,0,-1,1112,1457,0,0
-105,-433,0,0,0,0,0,0,0,0,0,-1,1119,1457,0,0
-98,-433,0,0,0,0,0,0,0,0,0,-1,1126,1457,0,0
-91,-433,0,0,0,0,0,0,0,0,0,-1,1133,1457,0,0
-84,-433,0,0,0,0,0,0,0,0,0,-1,1140,1457,0,0
-77,-433,0,0,0,0,0,0,0,0,0,-1,1147,1457,0,0
-70,-433,0,0,0,0,0,0,0,0,0,-1,1154,1457,0,0
-63,-433,0,0,0,0,0,0,0,0,0,-1,1161,1457,0,0
-56,-433,0,0,0,0,0,0,0,0,0,-1,1168,1457,0,0
-49,-433,0,0,0,0,0,0,0,0,0,-1,1175,1457,0,0
-42,-433,0,0,0,0,0,0,0,0,0,-1,1182,1457,0,0
-35,-433,0,0,0,0,0,0,0,0,0,-1,1189,1457,0,0
-28,-433,0,0,0,0,0,0,0,0,0,-1,1196,1457,0,0
-21,-433,0,0,0,0,0,0,0,0,0,-1,1203,1457,0,0
-14,-433,0,0,0,0,0,0,0,0,0,-1,1210,1457,0,0
-7,-433,0,0,0,0,0,0,0,0,0,-1,1217,1457,0,0
0,-433,0,0,0,0,0,0,0,0,0,-1,1224,1457,0,0
7,-433,0,0,0,0,0,0,0,0,0,-1,1231,1457,0,0
14,-433,0,0,0,0,0,0,0,0,0,-1,1238,1457,0,0
21,-433,0,0,0,0,0,0,0,0,0,-1,1245,1457,0,0
28,-433,0,0,0,0,0,0,0,0,0,-1,1252,1457,0,0
35,-433,0,0,0,0,0,0,0,0,0,-1,1259,1457,0,0
42,-433,0,0,0,0,0,0,0,0,0,-1,1266,1457,0,0
49,-433,0,0,0,0,0,0,0,0,0,-1,1273,1457,0,0
56,-433,0,0,0,0,0,0,0,0,0,-1,1280,1457,0,0
63,-433,0,0,0,0,0,0,0,0,0,-1,1287,1457,0,0
70,-433,0,0,0,0,0,0,0,0,0,-1,1294,1457,0,0
77,-433,0,0,0,0,0,0,0,0,0,-1,1301,1457,0,0
84,-433,0,0,0,0,0,0,0,0,0,-1,1308,1457,0,0
91,-433,0,0,0,0,0,0,0,0,0,-1,1315,1457,0,0
98,-433,0,0,0,0,0,0,0,0,0,-1,1322,1457,0,0
105,-433,0,0,0,0,0,0,0,0,0,-1,1329,1457,0,0
112,-433,0,0,0,0,0,0,0,0,0,-1,1336,1457,0,0
119,-433,0,0,0,0,0,0,0,0,0,-1,1343,1457,0,0
126,-433,0,0,0,0,0,0,0,0,0,-1,1350,1457,0,0
133,-433,0,0,0,0,0,0,0,0,0,-1,1357,1457,0,0
140,-433,0,0,0,0,0,0,0,0,0,-1,1364,1457,0,0
147,-433,0,0,0,0,0,0,0,0,0,-1,1371,1457,0,0
154,-433,0,0,0,0,0,0,0,0,0,-1,1378,1457,0,0
161,-433,0,0,0,0,0,0,0,0,0,-1,1385,1457,0,0
168,-433,0,0,0,0,0,0,0,0,0,-1,1392,1457,0,0
175,-433,0,0,0,0,0,0,0,0,0,-1,1399,1457,0,0
182,-433,0,0,0,0,0,0,0,0,0,-1,1406,1457,0,0
189,-433,0,0,0,0,0,0,0,0,0,-1,1413,1457,0,0
196,-433,0,0,0,0,0,0,0,0,0,-1,1420,1457,0,0
203,-433,0,0,0,0,0,0,0,0,0,-1,1427,1457,0,0
210,-433,0,0,0,0,0,0,0,0,0,-1,1434,1457,0,0
217,-433,0,0,0,0,0,0,0,0,0,-1,1441,1457,0,0
224,-433,0,0,0,0,0,0,0,0,0,-1,1448,1457,0,0
231,-433,0,0,0,0,0,0,0,0,0,-1,1455,1457,0,0
238,-433,0,0,0,0,0,0,0,0,0,-1,1462,1457,0,0
245,-433,0,0,0,0,0,0,0,0,0,-1,1469,1457,0,0
252,-433,0,0,0,0,0,0,0,0,0,-1,1476,1457,0,0
259,-433,0,0,0,0,0,0,0,0,0,-1,1483,1457,0,0
266,-433,0,0,0,0,0,0,0,0,0,-1,1490,1457,0,0
273,-433,0,0,0,0,0,0,0,0,0,-1,1497,1457,0,0
280,-433,0,0,0,0,0,0,0,0,0,-1,1504,1457,0,0
287,-433,0,0,0,0,0,0,0,0,0,-1,1511,1457,0,0
294,-433,0,0,0,0,0,0,0,0,0,-1,1518,1457,0,0
301,-433,0,0,0,0,0,0,0,0,0,-1,1525,1457,0,0
308,-433,0,0,0,0,0,0,0,0,0,-1,1532,1457,0,0
315,-433,0,0,0,0,0,0,0,0,0,-1,1539,1457,0,0
322,-433,0,0,0,0,0,0,0,0,0,-1,1546,1457,0,0
329,-433,0,0,0,0,0,0,0,0,0,-1,1553,1457,0,0
336,-433,0,0,0,0,0,0,0,0,0,-1,1560,1457,0,0
343,-433,0,0,0,0,0,0,0,0,0,-1,1567,1457,0,0
350,-433,0,0,0,0,0,0,0,0,0,-1,1574,1457,0,0
357,-433,0,0,0,0,0,0,0,0,0,-1,1581,1457,0,0
364,-433,0,0,0,0,0,0,0,0,0,-1,1588,1457,0,0
371,-433,0,0,0,0,0,0,0,0,0,-1,1595,1457,0,0
378,-433,0,0,0,0,0,0,0,0,0,-1,1602,1457,0,0
385,-433,0,0,0,0,0,0,0,0,0,-1,1609,1457,0,0
392,-433,0,0,0,0,0,0,0,0,0,-1,1616,1457,0,0
399,-433,0,0,0,0,0,0,0,0,0,-1,1623,1457,0,0
406,-433,0,0,0,0,0,0,0,0,0,-1,1630,1457,0,0
413,-433,0,0,0,0,0,0,0,0,0,-1,1637,1457,0,0
420,-433,0,0,0,0,0,0,0,0,0,-1,1644,1457,0,0
427,-433,0,0,0,0,0,0,0,0,0,-1,1651,1457,0,0
434,-433,0,0,0,0,0,0,0,0,0,-1,1658,1457,0,0
441,-433,0,0,0,0,0,0,0,0,0,-1,1665,1457,0,0
448,-433,0,0,0,0,0,0,0,0,0,-1,1672,1457,0,0
455,-433,0,0,0,0,0,0,0,0,0,-1,1679,1457,0,0
462,-433,0,0,0,0,0,0,0,0,0,-1,1686,1457,0,0
469,-433,0,0,0,0,0,0,0,0,0,-1,1693,1457,0,0
476,-433,0,0,0,0,0,0,0,0,0,-1,1700,1457,0,0
483,-433,0,0,0,0,0,0,0,0,0,-1,1707,1457,0,0
490,-433,0,0,0,0,0,0,0,0,0,-1,1714,1457,0,0
497,-433,0,0,0,0,0,0,0,0,0,-1,1721,1457,0,0
504,-433,10.751,-0.256714,0,0,0,0,0,0,0,-1,1728,1457,10.7509,0.256771
511,-433,10.6105,0.11145,0,0,0,0,0,0,0,-1,1735,1457,10.6105,-0.111511
518,-433,10.3679,0.297241,0,0,0,0,0,0,0,-1,1742,1457,10.3679,-0.297302
525,-433,10.014,0.498901,0,0,0,0,0,0,0,-1,1749,1457,10.014,-0.498962
532,-433,12.3329,5.5874,0,0,0,0,0,0,0,-1,1756,1457,12.3329,-5.58737
539,-433,13.3873,3.12,0,0,0,0,0,0,0,-1,1763,1457,13.3873,-3.12001
546,-433,9.70679,7.28064,0,0,0,0,0,0,0,-1,1770,1457,9.70677,-7.28065
553,-433,10.2032,7.26953,-0.016671,-0.0109864,0.0205916,0.00695816,-0.0346155,0.853981,0.0257122,0.0408919,1777,1457,10.2032,-7.26949
560,-433,10.8873,7.23853,0,0,0,0,0,0,0,-1,1784,1457,10.8874,-7.2385
567,-433,11.3993,7.1897,0,0,0,0,0,0,0,-1,1791,1457,11.3993,-7.18974
574,-433,9.90491,5.71436,-0.0150371,-0.0113229,0.0192799,0.00618917,-0.0325492,0.833411,0.0240297,0.0494158,1798,1457,9.90496,-5.71434
581,-433,9.70154,5.94507,-0.0137097,-0.0109667,0.0176759,0.00539086,-0.0300673,0.824116,0.0220624,0.0402935,1805,1457,9.70155,-5.94509
588,-433,9.5188,6.18225,-0.0119797,-0.0101255,0.0158353,0.00480983,-0.026915,0.814638,0.0197429,0.0295925,1812,1457,9.51881,-6.18219
595,-433,9.42175,6.21545,-0.0107105,-0.00947444,0.0139357,0.0038569,-0.0240419,0.807559,0.0174562,0.0204685,1819,1457,9.42171,-6.21542
602,-433,9.43909,6.04761,-0.00894512,-0.00836845,0.0114991,0.00284589,-0.0201595,0.797933,0.0144818,0.0190988,1826,1457,9.43905,-6.04765
609,-433,9.43762,5.86316,-0.00687975,-0.0073189,0.00872977,0.00163321,-0.0158319,0.772825,0.011139,0.0144282,1833,1457,9.43766,-5.86313
616,-433,9.46948,5.72192,-0.00461744,-0.00573462,0.00607066,0.000920277,-0.0112723,0.73952,0.00783968,0.0122265,1840,1457,9.46947,-5.72188
623,-433,9.44641,5.55896,-0.00259235,-0.00406526,0.00384406,0.000585165,-0.00724278,0.690754,0.00503492,0.00973942,1847,1457,9.44639,-5.55894
630,-433,9.43677,5.41699,-0.000759837,-0.00260998,0.00180211,0.000340769,-0.00371058,0.548273,0.00259478,0.0123397,1854,1457,9.43681,-5.41695
637,-433,9.44836,5.26208,0.00101807,-0.00143265,0.000152007,0.00102746,-0.00144204,0.0617101,0.00143245,0.0132344,1861,1457,9.44841,-5.26209
644,-433,9.43359,5.11328,0.00266087,-0.000774457,-0.00112849,0.00299841,-0.001112,-0.290637,0.00245504,0.0136532,1868,1457,9.43365,-5.11323
651,-433,9.42932,4.94983,0.00417518,-0.000421218,-0.00211941,0.00500326,-0.0012493,-0.372474,0.00382064,0.0113335,1875,1457,9.42934,-4.9498
658,-433,9.44556,4.73926,0.00587946,-0.000823062,-0.0026695,0.00681273,-0.00175633,-0.336322,0.00522657,0.0137612,1882,1457,9.44559,-4.73925
665,-433,9.44434,4.52625,0.00720501,-0.0018857,-0.00275001,0.00797217,-0.00265286,-0.27205,0.00638548,0.018986,1889,1457,9.44434,-4.52623
672,-433,9.62793,4.49207,0.00867643,-0.00385671,-0.00229881,0.00908477,-0.00426505,-0.175798,0.00787318,0.0344497,1896,1457,9.62792,-4.49206
679,-433,9.52881,4.56201,0.0107016,-0.00686833,-0.00136149,0.0108064,-0.0069732,-0.0768783,0.0103443,0.0415841,1903,1457,9.5288,-4.56197
686,-433,9.53931,4.54858,0,0,0,0,0,0,0,-1,1910,1457,9.53926,-4.54857
693,-433,9.8833,4.47266,0,0,0,0,0,0,0,-1,1917,1457,9.88335,-4.47266
700,-433,7.16809,-1.5166,0,0,0,0,0,0,0,-1,1924,1457,7.16806,1.51656
707,-433,8.68359,-2.82202,0,0,0,0,0,0,0,-1,1931,1457,8.68359,2.82197
714,-433,0,0,0,0,0,0,0,0,0,-1,1938,1457,0,0
721,-433,0,0,0,0,0,0,0,0,0,-1,1945,1457,0,0
728,-433,0,0,0,0,0,0,0,0,0,-1,1952,1457,0,0
735,-433,0,0,0,0,0,0,0,0,0,-1,1959,1457,0,0
742,-433,0,0,0,0,0,0,0,0,0,-1,1966,1457,0,0
749,-433,0,0,0,0,0,0,0,0,0,-1,1973,1457,0,0
756,-433,0,0,0,0,0,0,0,0,0,-1,1980,1457,0,0
763,-433,0,0,0,0,0,0,0,0,0,-1,1987,1457,0,0
770,-433,0,0,0,0,0,0,0,0,0,-1,1994,1457,0,0
777,-433,0,0,0,0,0,0,0,0,0,-1,2001,1457,0,0
784,-433,0,0,0,0,0,0,0,0,0,-1,2008,1457,0,0
791,-433,0,0,0,0,0,0,0,0,0,-1,2015,1457,0,0
798,-433,0,0,0,0,0,0,0,0,0,-1,2022,1457,0,0
805,-433,0,0,0,0,0,0,0,0,0,-1,2029,1457,0,0
812,-433,0,0,0,0,0,0,0,0,0,-1,2036,1457,0,0
-700,-440,0,0,0,0,0,0,0,0,0,-1,524,1464,0,0
-693,-440,0,0,0,0,0,0,0,0,0,-1,531,1464,0,0
-686,-440,0,0,0,0,0,0,0,0,0,-1,538,1464,0,0
-679,-440,0,0,0,0,0,0,0,0,0,-1,545,1464,0,0
-672,-440,0,0,0,0,0,0,0,0,0,-1,552,1464,0,0
-665,-440,0,0,0,0,0,0,0,0,0,-1,559,1464,0,0
-658,-440,0,0,0,0,0,0,0,0,0,-1,566,1464,0,0
-651,-440,0,0,0,0,0,0,0,0,0,-1,573,1464,0,0
-644,-440,0,0,0,0,0,0,0,0,0,-1,580,1464,0,0
-637,-440,0,0,0,0,0,0,0,0,0,-1,587,1464,0,0
-630,-440,0,0,0,0,0,0,0,0,0,-1,594,1464,0,0
-623,-440,0,0,0,0,0,0,0,0,0,-1,601,1464,0,0
-616,-440,0,0,0,0,0,0,0,0,0,-1,608,1464,0,0
-609,-440,0,0,0,0,0,0,0,0,0,-1,615,1464,0,0
-602,-440,0,0,0,0,0,0,0,0,0,-1,622,1464,0,0
-595,-440,0,0,0,0,0,0,0,0,0,-1,629,1464,0,0
-588,-440,0,0,0,0,0,0,0,0,0,-1,636,1464,0,0
-581,-440,-6.01978,0.338135,0,0,0,0,0,0,0,-1,643,1464,-6.01976,-0.338121
-574,-440,-5.2926,1.0946,0.127875,0.0234882,0.128772,0.214629,-0.0632659,0.592858,0.168189,0.0474441,650,1464,-5.29262,-1.09463
-567,-440,-4.60852,1.81616,0.105985,0.0229811,0.106577,0.178856,-0.0498899,0.599728,0.138887,0.0486849,657,1464,-4.60852,-1.8162
-560,-440,-4.0202,2.50977,0,0,0,0,0,0,0,-1,664,1464,-4.02021,-2.50975
-553,-440,-3.01068,0.279175,0,0,0,0,0,0,0,-1,671,1464,-3.01071,-0.279115
-546,-440,-2.88483,1.24866,0,0,0,0,0,0,0,-1,678,1464,-2.88481,-1.24862
-539,-440,-2.80701,2.18701,0.0376008,0.0141355,0.0385965,0.0662086,-0.0144722,0.637845,0.0496709,0.0486839,685,1464,-2.807,-2.18696
-532,-440,-2.15826,2.80322,0.0264555,0.0113982,0.0279818,0.0479038,-0.0100501,0.653983,0.0357597,0.0374918,692,1464,-2.15829,-2.8032
-525,-440,-2.10541,3.07275,0.0180563,0.00887721,0.0195292,0.033528,-0.00659454,0.669988,0.0248437,0.0167061,699,1464,-2.10544,-3.07278
-518,-440,-2.10638,3.21899,0.0110749,0.00661622,0.0123,0.021346,-0.00365484,0.695747,0.0155924,0.0124593,706,1464,-2.10641,-3.21899
-511,-440,-2.10706,3.41821,0.00579523,0.00466716,0.00683841,0.0120928,-0.00163044,0.744251,0.0086567,0.0150508,713,1464,-2.10705,-3.4182
-504,-440,-2.12354,3.63342,0.00259741,0.00305863,0.00394072,0.00677549,-0.00111944,0.814624,0.00493266,0.0185266,720,1464,-2.12353,-3.63342
-497,-440,-2.12671,3.81287,0.000975493,0.00157343,0.00219028,0.00348505,-0.000936128,0.853228,0.00269026,0.0225033,727,1464,-2.12671,-3.81283
-490,-440,-2.12701,3.9491,-0.000351665,-0.000102048,0.000803178,0.000585961,-0.00103967,0.862478,0.000950668,0.0226934,734,1464,-2.12703,-3.94911
-483,-440,-2.11639,4.13586,-0.00148332,-0.00201871,-0.000623551,-0.00107243,-0.0024296,-0.582642,0.00140594,0.019617,741,1464,-2.11641,-4.13589
-476,-440,-2.13556,4.30042,-0.00190811,-0.00407256,-0.00172926,-0.000950343,-0.00503032,-0.5058,0.00308594,0.0129931,748,1464,-2.13557,-4.30036
-469,-440,-2.12195,4.50488,-0.00235279,-0.00621225,-0.00261287,-0.0010343,-0.00753074,-0.467332,0.0047137,0.012274,755,1464,-2.12197,-4.50489
-462,-440,-2.09344,4.71033,-0.00302665,-0.00878425,-0.00400592,-0.000972411,-0.0108385,-0.473836,0.00692432,0.0128386,762,1464,-2.09342,-4.71029
-455,-440,-2.06323,4.91113,-0.00420066,-0.0101691,-0.00466796,-0.00164453,-0.0127252,-0.500991,0.0079919,0.0149807,769,1464,-2.06323,-4.91109
-448,-440,-1.94482,5.0791,-0.00587223,-0.0118691,-0.00516306,-0.00290008,-0.0148412,-0.522328,0.00908312,0.0263465,776,1464,-1.94485,-5.07905
-441,-440,-2.14417,5.02637,-0.00759209,-0.0133647,-0.00562262,-0.00415822,-0.0167986,-0.548268,0.0101024,0.0384295,783,1464,-2.14416,-5.02637
-434,-440,-2.3233,5.00391,-0.00993933,-0.0135362,-0.00549497,-0.00595598,-0.0175195,-0.627248,0.0102862,0.0453119,790,1464,-2.32329,-5.00386
-427,-440,-2.27869,4.96179,-0.0129925,-0.0115993,-0.00446863,-0.00777332,-0.0168185,-0.862718,0.00971942,0.0448464,797,1464,-2.27871,-4.96174
-420,-440,-1.45288,4.63306,0,0,0,0,0,0,0,-1,804,1464,-1.45288,-4.63308
-413,-440,-3.93939,5.00146,0,0,0,0,0,0,0,-1,811,1464,-3.93938,-5.0015
-406,-440,-5.2887,5.20264,0,0,0,0,0,0,0,-1,818,1464,-5.2887,-5.20261
-399,-440,-0.269287,0.251465,0,0,0,0,0,0,0,-1,825,1464,-0.26931,-0.251435
-392,-440,0.510254,0.437744,0,0,0,0,0,0,0,-1,832,1464,0.510244,-0.43771
-385,-440,6.70496,1.25854,0,0,0,0,0,0,0,-1,839,1464,6.70498,-1.25858
-378,-440,7.93719,1.35864,0,0,0,0,0,0,0,-1,846,1464,7.93722,-1.35859
-371,-440,0,0,0,0,0,0,0,0,0,-1,853,1464,0,0
-364,-440,0,0,0,0,0,0,0,0,0,-1,860,1464,0,0
-357,-440,0,0,0,0,0,0,0,0,0,-1,867,1464,0,0
-350,-440,0,0,0,0,0,0,0,0,0,-1,874,1464,0,0
-343,-440,0,0,0,0,0,0,0,0,0,-1,881,1464,0,0
-336,-440,0,0,0,0,0,0,0,0,0,-1,888,1464,0,0
-329,-440,0,0,0,0,0,0,0,0,0,-1,895,1464,0,0
-322,-440,0,0,0,0,0,0,0,0,0,-1,902,1464,0,0
-315,-440,0,0,0,0,0,0,0,0,0,-1,909,1464,0,0
-308,-440,0,0,0,0,0,0,0,0,0,-1,916,1464,0,0
-301,-440,0,0,0,0,0,0,0,0,0,-1,923,1464,0,0
-294,-440,0,0,0,0,0,0,0,0,0,-1,930,1464,0,0
-287,-440,0,0,0,0,0,0,0,0,0,-1,937,1464,0,0
-280,-440,0,0,0,0,0,0,0,0,0,-1,944,1464,0,0
-273,-440,0,0,0,0,0,0,0,0,0,-1,951,1464,0,0
-266,-440,0,0,0,0,0,0,0,0,0,-1,958,1464,0,0
-259,-440,0,0,0,0,0,0,0,0,0,-1,965,1464,0,0
-252,-440,0,0,0,0,0,0,0,0,0,-1,972,1464,0,0
-245,-440,0,0,0,0,0,0,0,0,0,-1,979,1464,0,0
-238,-440,0,0,0,0,0,0,0,0,0,-1,986,1464,0,0
-231,-440,0,0,0,0,0,0,0,0,0,-1,993,1464,0,0
-224,-440,0,0,0,0,0,0,0,0,0,-1,1000,1464,0,0
-217,-440,0,0,0,0,0,0,0,0,0,-1,1007,1464,0,0
-210,-440,0,0,0,0,0,0,0,0,0,-1,1014,1464,0,0
-203,-440,0,0,0,0,0,0,0,0,0,-1,1021,1464,0,0
-196,-440,0,0,0,0,0,0,0,0,0,-1,1028,1464,0,0
-189,-440,0,0,0,0,0,0,0,0,0,-1,1035,1464,0,0
-182,-440,0,0,0,0,0,0,0,0,0,-1,1042,1464,0,0
-175,-440,0,0,0,0,0,0,0,0,0,-1,1049,1464,0,0
-168,-440,0,0,0,0,0,0,0,0,0,-1,1056,1464,0,0
-161,-440,0,0,0,0,0,0,0,0,0,-1,1063,1464,0,0
-154,-440,0,0,0,0,0,0,0,0,0,-1,1070,1464,0,0
-147,-440,0,0,0,0,0,0,0,0,0,-1,1077,1464,0,0
-140,-440,0,0,0,0,0,0,0,0,0,-1,1084,1464,0,0
-133,-440,0,0,0,0,0,0,0,0,0,-1,1091,1464,0,0
-126,-440,0,0,0,0,0,0,0,0,0,-1,1098,1464,0,0
-119,-440,0,0,0,0,0,0,0,0,0,-1,1105,1464,0,0
-112,-440,0,0,0,0,0,0,0,0,0,-1,1112,1464,0,0
-105,-440,0,0,0,0,0,0,0,0,0,-1,1119,1464,0,0
-98,-440,0,0,0,0,0,0,0,0,0,-1,1126,1464,0,0
-91,-440,0,0,0,0,0,0,0,0,0,-1,1133,1464,0,0
-84,-440,0,0,0,0,0,0,0,0,0,-1,1140,1464,0,0
-77,-440,0,0,0,0,0,0,0,0,0,-1,1147,1464,0,0
-70,-440,0,0,0,0,0,0,0,0,0,-1,1154,1464,0,0
-63,-440,0,0,0,0,0,0,0,0,0,-1,1161,1464,0,0
-56,-440,0,0,0,0,0,0,0,0,0,-1,1168,1464,0,0
-49,-440,0,0,0,0,0,0,0,0,0,-1,1175,1464,0,0
-42,-440,0,0,0,0,0,0,0,0,0,-1,1182,1464,0,0
-35,-440,0,0,0,0,0,0,0,0,0,-1,1189,1464,0,0
-28,-440,0,0,0,0,0,0,0,0,0,-1,1196,1464,0,0
-21,-440,0,0,0,0,0,0,0,0,0,-1,1203,1464,0,0
-14,-440,0,0,0,0,0,0,0,0,0,-1,1210,1464,0,0
-7,-440,0,0,0,0,0,0,0,0,0,-1,1217,1464,0,0
0,-440,0,0,0,0,0,0,0,0,0,-1,1224,1464,0,0
7,-440,0,0,0,0,0,0,0,0,0,-1,1231,1464,0,0
14,-440,0,0,0,0,0,0,0,0,0,-1,1238,1464,0,0
21,-440,0,0,0,0,0,0,0,0,0,-1,1245,1464,0,0
28,-440,0,0,0,0,0,0,0,0,0,-1,1252,1464,0,0
35,-440,0,0,0,0,0,0,0,0,0,-1,1259,1464,0,0
42,-440,0,0,0,0,0,0,0,0,0,-1,1266,1464,0,0
49,-440,0,0,0,0,0,0,0,0,0,-1,1273,1464,0,0
56,-440,0,0,0,0,0,0,0,0,0,-1,1280,1464,0,0
63,-440,0,0,0,0,0,0,0,0,0,-1,1287,1464,0,0
70,-440,0,0,0,0,0,0,0,0,0,-1,1294,1464,0,0
77,-440,0,0,0,0,0,0,0,0,0,-1,1301,1464,0,0
84,-440,0,0,0,0,0,0,0,0,0,-1,1308,1464,0,0
91,-440,0,0,0,0,0,0,0,0,0,-1,1315,1464,0,0
98,-440,0,0,0,0,0,0,0,0,0,-1,1322,1464,0,0
105,-440,0,0,0,0,0,0,0,0,0,-1,1329,1464,0,0
112,-440,0,0,0,0,0,0,0,0,0,-1,1336,1464,0,0
119,-440,0,0,0,0,0,0,0,0,0,-1,1343,1464,0,0
126,-440,0,0,0,0,0,0,0,0,0,-1,1350,1464,0,0
133,-440,0,0,0,0,0,0,0,0,0,-1,1357,1464,0,0
140,-440,0,0,0,0,0,0,0,0,0,-1,1364,1464,0,0
147,-440,0,0,0,0,0,0,0,0,0,-1,1371,1464,0,0
154,-440,0,0,0,0,0,0,0,0,0,-1,1378,1464,0,0
161,-440,0,0,0,0,0,0,0,0,0,-1,1385,1464,0,0
168,-440,0,0,0,0,0,0,0,0,0,-1,1392,1464,0,0
175,-440,0,0,0,0,0,0,0,0,0,-1,1399,1464,0,0
182,-440,0,0,0,0,0,0,0,0,0,-1,1406,1464,0,0
189,-440,0,0,0,0,0,0,0,0,0,-1,1413,1464,0,0
196,-440,0,0,0,0,0,0,0,0,0,-1,1420,1464,0,0
203,-440,0,0,0,0,0,0,0,0,0,-1,1427,1464,0,0
210,-440,0,0,0,0,0,0,0,0,0,-1,1434,1464,0,0
217,-440,0,0,0,0,0,0,0,0,0,-1,1441,1464,0,0
224,-440,0,0,0,0,0,0,0,0,0,-1,1448,1464,0,0
231,-440,0,0,0,0,0,0,0,0,0,-1,1455,1464,0,0
238,-440,0,0,0,0,0,0,0,0,0,-1,1462,1464,0,0
245,-440,0,0,0,0,0,0,0,0,0,-1,1469,1464,0,0
252,-440,0,0,0,0,0,0,0,0,0,-1,1476,1464,0,0
259,-440,0,0,0,0,0,0,0,0,0,-1,1483,1464,0,0
266,-440,0,0,0,0,0,0,0,0,0,-1,1490,1464,0,0
273,-440,0,0,0,0,0,0,0,0,0,-1,1497,1464,0,0
280,-440,0,0,0,0,0,0,0,0,0,-1,1504,1464,0,0
287,-440,0,0,0,0,0,0,0,0,0,-1,1511,1464,0,0
294,-440,0,0,0,0,0,0,0,0,0,-1,1518,1464,0,0
301,-440,0,0,0,0,0,0,0,0,0,-1,1525,1464,0,0
308,-440,0,0,0,0,0,0,0,0,0,-1,1532,1464,0,0
315,-440,0,0,0,0,0,0,0,0,0,-1,1539,1464,0,0
322,-440,0,0,0,0,0,0,0,0,0,-1,1546,1464,0,0
329,-440,0,0,0,0,0,0,0,0,0,-1,1553,1464,0,0
336,-440,0,0,0,0,0,0,0,0,0,-1,1560,1464,0,0
343,-440,0,0,0,0,0,0,0,0,0,-1,1567,1464,0,0
350,-440,0,0,0,0,0,0,0,0,0,-1,1574,1464,0,0
357,-440,0,0,0,0,0,0,0,0,0,-1,1581,1464,0,0
364,-440,0,0,0,0,0,0,0,0,0,-1,1588,1464,0,0
371,-440,0,0,0,0,0,0,0,0,0,-1,1595,1464,0,0
378,-440,0,0,0,0,0,0,0,0,0,-1,1602,1464,0,0
385,-440,0,0,0,0,0,0,0,0,0,-1,1609,1464,0,0
392,-440,0,0,0,0,0,0,0,0,0,-1,1616,1464,0,0
399,-440,0,0,0,0,0,0,0,0,0,-1,1623,1464,0,0
406,-440,0,0,0,0,0,0,0,0,0,-1,1630,1464,0,0
413,-440,0,0,0,0,0,0,0,0,0,-1,1637,1464,0,0
420,-440,0,0,0,0,0,0,0,0,0,-1,1644,1464,0,0
427,-440,0,0,0,0,0,0,0,0,0,-1,1651,1464,0,0
434,-440,0,0,0,0,0,0,0,0,0,-1,1658,1464,0,0
441,-440,0,0,0,0,0,0,0,0,0,-1,1665,1464,0,0
448,-440,0,0,0,0,0,0,0,0,0,-1,1672,1464,0,0
455,-440,0,0,0,0,0,0,0,0,0,-1,1679,1464,0,0
462,-440,0,0,0,0,0,0,0,0,0,-1,1686,1464,0,0
469,-440,0,0,0,0,0,0,0,0,0,-1,1693,1464,0,0
476,-440,0,0,0,0,0,0,0,0,0,-1,1700,1464,0,0
483,-440,0,0,0,0,0,0,0,0,0,-1,1707,1464,0,0
490,-440,0,0,0,0,0,0,0,0,0,-1,1714,1464,0,0
497,-440,13.2272,1.90625,0,0,0,0,0,0,0,-1,1721,1464,13.2272,-1.90629
504,-440,12.5355,2.36218,0,0,0,0,0,0,0,-1,1728,1464,12.5356,-2.36223
511,-440,11.6957,2.9231,0,0,0,0,0,0,0,-1,1735,1464,11.6957,-2.92306
518,-440,10.1204,0.547607,0,0,0,0,0,0,0,-1,1742,1464,10.1204,-0.547577
525,-440,10.0325,0.758545,0,0,0,0,0,0,0,-1,1749,1464,10.0324,-0.758504
532,-440,11.1841,5.70776,0,0,0,0,0,0,0,-1,1756,1464,11.184,-5.70774
539,-440,9.24414,5.26172,0,0,0,0,0,0,0,-1,1763,1464,9.24413,-5.26169
546,-440,10.1196,6.92322,0,0,0,0,0,0,0,-1,1770,1464,10.1196,-6.92327
553,-440,9.95337,6.83691,0,0,0,0,0,0,0,-1,1777,1464,9.95343,-6.83694
560,-440,10.671,6.8092,0,0,0,0,0,0,0,-1,1784,1464,10.671,-6.80924
567,-440,9.63708,5.87512,0,0,0,0,0,0,0,-1,1791,1464,9.63708,-5.87507
574,-440,9.37231,5.73096,-0.0115618,-0.0111344,0.017022,0.00567531,-0.0283715,0.791676,0.0210625,0.0457665,1798,1464,9.37232,-5.73098
581,-440,9.38416,6.24377,-0.0103587,-0.0105967,0.0151378,0.00466057,-0.0256159,0.781468,0.0188241,0.0344396,1805,1464,9.38415,-6.24372
588,-440,9.25598,6.35571,-0.00884944,-0.00951476,0.0131199,0.00394206,-0.0223063,0.772723,0.0163441,0.0244584,1812,1464,9.25598,-6.35566
595,-440,9.27332,6.22791,-0.00777838,-0.00859441,0.0111089,0.00292997,-0.0193028,0.767042,0.0139481,0.0185997,1819,1464,9.27327,-6.22789
602,-440,9.27637,6.03125,-0.00619945,-0.00727353,0.00877725,0.00205718,-0.0155302,0.754844,0.0111029,0.018374,1826,1464,9.27631,-6.03128
609,-440,9.2627,5.87317,-0.00451438,-0.00607866,0.00633231,0.00108391,-0.011677,0.723952,0.00816994,0.0153065,1833,1464,9.26273,-5.87318
616,-440,9.26611,5.74146,-0.00259899,-0.00450489,0.0040979,0.000655307,-0.00775918,0.671155,0.00540448,0.0156616,1840,1464,9.2661,-5.74143
623,-440,9.2887,5.57092,-0.000825184,-0.00299493,0.00228038,0.000615233,-0.00443535,0.563372,0.00318186,0.0123001,1847,1464,9.28875,-5.57094
630,-440,9.27234,5.38965,0.000803045,-0.00181433,0.000589976,0.000929883,-0.00194117,0.211766,0.00169153,0.0103055,1854,1464,9.27236,-5.3897
637,-440,9.28394,5.25037,0.00244609,-0.000970218,-0.000821216,0.00263325,-0.00115737,-0.224069,0.00224313,0.0147057,1861,1464,9.28392,-5.25036
644,-440,9.29761,5.10364,0.00405553,-0.000586961,-0.0019918,0.00479295,-0.00132438,-0.354582,0.00371627,0.0134851,1868,1464,9.29766,-5.10363
651,-440,9.31934,4.93359,0.00563083,-0.000465881,-0.00297968,0.00684521,-0.00168027,-0.387003,0.00521459,0.0111146,1875,1464,9.3193,-4.93361
658,-440,9.29663,4.75818,0.00742983,-0.000837242,-0.00368661,0.00883499,-0.00224241,-0.364155,0.00676255,0.0158122,1882,1464,9.29665,-4.75816
665,-440,9.33179,4.47388,0.00908706,-0.00173509,-0.00412345,0.0104791,-0.00312715,-0.325581,0.00822897,0.0292736,1889,1464,9.33181,-4.4739
672,-440,10.3761,4.5614,0,0,0,0,0,0,0,-1,1896,1464,10.3761,-4.56135
679,-440,9.81702,4.47864,0,0,0,0,0,0,0,-1,1903,1464,9.81699,-4.47858
686,-440,9.25793,4.39587,0,0,0,0,0,0,0,-1,1910,1464,9.25789,-4.39581
693,-440,9.88635,2.89795,0,0,0,0,0,0,0,-1,1917,1464,9.88638,-2.89798
700,-440,7.07825,-2.62061,0,0,0,0,0,0,0,-1,1924,1464,7.07829,2.62057
707,-440,0,0,0,0,0,0,0,0,0,-1,1931,1464,0,0
714,-440,0,0,0,0,0,0,0,0,0,-1,1938,1464,0,0
721,-440,0,0,0,0,0,0,0,0,0,-1,1945,1464,0,0
728,-440,0,0,0,0,0,0,0,0,0,-1,1952,1464,0,0
735,-440,0,0,0,0,0,0,0,0,0,-1,1959,1464,0,0
742,-440,0,0,0,0,0,0,0,0,0,-1,1966,1464,0,0
749,-440,0,0,0,0,0,0,0,0,0,-1,1973,1464,0,0
756,-440,0,0,0,0,0,0,0,0,0,-1,1980,1464,0,0
763,-440,0,0,0,0,0,0,0,0,0,-1,1987,1464,0,0
770,-440,0,0,0,0,0,0,0,0,0,-1,1994,1464,0,0
777,-440,0,0,0,0,0,0,0,0,0,-1,2001,1464,0,0
784,-440,0,0,0,0,0,0,0,0,0,-1,2008,1464,0,0
791,-440,0,0,0,0,0,0,0,0,0,-1,2015,1464,0,0
798,-440,0,0,0,0,0,0,0,0,0,-1,2022,1464,0,0
805,-440,0,0,0,0,0,0,0,0,0,-1,2029,1464,0,0
812,-440,0,0,0,0,0,0,0,0,0,-1,2036,1464,0,0
-700,-447,0,0,0,0,0,0,0,0,0,-1,524,1471,0,0
-693,-447,0,0,0,0,0,0,0,0,0,-1,531,1471,0,0
-686,-447,0,0,0,0,0,0,0,0,0,-1,538,1471,0,0
-679,-447,0,0,0,0,0,0,0,0,0,-1,545,1471,0,0
-672,-447,0,0,0,0,0,0,0,0,0,-1,552,1471,0,0
-665,-447,0,0,0,0,0,0,0,0,0,-1,559,1471,0,0
-658,-447,0,0,0,0,0,0,0,0,0,-1,566,1471,0,0
-651,-447,0,0,0,0,0,0,0,0,0,-1,573,1471,0,0
-644,-447,0,0,0,0,0,0,0,0,0,-1,580,1471,0,0
-637,-447,0,0,0,0,0,0,0,0,0,-1,587,1471,0,0
-630,-447,0,0,0,0,0,0,0,0,0,-1,594,1471,0,0
-623,-447,0,0,0,0,0,0,0,0,0,-1,601,1471,0,0
-616,-447,0,0,0,0,0,0,0,0,0,-1,608,1471,0,0
-609,-447,0,0,0,0,0,0,0,0,0,-1,615,1471,0,0
-602,-447,0,0,0,0,0,0,0,0,0,-1,622,1471,0,0
-595,-447,0,0,0,0,0,0,0,0,0,-1,629,1471,0,0
-588,-447,0,0,0,0,0,0,0,0,0,-1,636,1471,0,0
-581,-447,-7.09741,0.302368,0,0,0,0,0,0,0,-1,643,1471,-7.09741,-0.302372
-574,-447,-6.41492,1.02063,0.134502,0.0266735,0.147751,0.237868,-0.0766924,0.610455,0.189391,0.0481259,650,1471,-6.41493,-1.02063
-567,-447,-5.73962,1.69873,0.112217,0.0268387,0.121143,0.197972,-0.0589169,0.615999,0.155389,0.0463643,657,1471,-5.73961,-1.69879
-560,-447,-5.09131,2.57837,0.0903635,0.0252103,0.0971837,0.160285,-0.0447114,0.62368,0.124467,0.0460798,664,1471,-5.0913,-2.57839
-553,-447,-4.22742,3.51196,0,0,0,0,0,0,0,-1,671,1471,-4.2274,-3.51194
-546,-447,-4.09369,0.935059,0,0,0,0,0,0,0,-1,678,1471,-4.09369,-0.935011
-539,-447,-2.76965,2.34619,0,0,0,0,0,0,0,-1,685,1471,-2.76962,-2.3462
-532,-447,-2.24457,2.63623,0.0265183,0.0133865,0.0317402,0.0523646,-0.0124598,0.683405,0.0397199,0.0454777,692,1471,-2.24455,-2.6362
-525,-447,-1.84601,3.09924,0.0174526,0.0103759,0.0224,0.036592,-0.00876344,0.707064,0.0277805,0.0284069,699,1471,-1.846,-3.09929
-518,-447,-1.91016,3.20569,0.0101507,0.00774788,0.0144921,0.0234911,-0.00559253,0.744042,0.0178199,0.0185579,706,1471,-1.91017,-3.20566
-511,-447,-1.90625,3.422,0.0047235,0.00546391,0.00844348,0.0135453,-0.00335788,0.807307,0.010333,0.0151177,713,1471,-1.90623,-3.42201
-504,-447,-1.93372,3.64819,0.00169909,0.00361683,0.00512138,0.00786833,-0.00255242,0.877941,0.00627194,0.0209795,720,1471,-1.93373,-3.64825
-497,-447,-1.95123,3.83801,0.000411933,0.00200633,0.00306927,0.00438025,-0.00196198,0.912458,0.00374937,0.0269461,727,1471,-1.95124,-3.83798
-490,-447,-1.91742,3.9552,-0.000570355,0.000349491,0.00145323,0.00141384,-0.00163471,0.938653,0.00176162,0.0253592,734,1471,-1.91741,-3.95521
-483,-447,-1.93707,4.09668,-0.00125513,-0.0013944,-9.76994e-05,-0.00120479,-0.00144474,-0.475779,0.000893977,0.0207859,741,1471,-1.93707,-4.09663
-476,-447,-1.95135,4.26978,-0.00120807,-0.00325847,-0.00119165,-0.000661308,-0.00380524,-0.430172,0.00234765,0.0135062,748,1471,-1.95134,-4.26972
-469,-447,-1.94012,4.50769,-0.00114676,-0.00508517,-0.00202431,-0.000291853,-0.00594007,-0.399598,0.00386644,0.0125323,755,1471,-1.94011,-4.50765
-462,-447,-1.92706,4.72705,-0.00137342,-0.00713163,-0.00339088,0.000195767,-0.00870082,-0.433421,0.00586689,0.0122131,762,1471,-1.92708,-4.72704
-455,-447,-1.93903,4.90967,-0.00203801,-0.0085922,-0.00419609,9.03802e-06,-0.0106393,-0.453878,0.00709585,0.0124712,769,1471,-1.93903,-4.9097
-448,-447,-1.87408,5.07788,-0.00309993,-0.0103942,-0.00496002,-0.000590488,-0.0129036,-0.468383,0.00841251,0.0175343,776,1471,-1.87411,-5.07784
-441,-447,-1.84186,5.17529,-0.00411755,-0.012278,-0.0057442,-0.00115191,-0.0152436,-0.47659,0.00980102,0.027796,783,1471,-1.84186,-5.17532
-434,-447,-1.86096,5.23706,-0.00557773,-0.0134316,-0.00617634,-0.00218566,-0.0168237,-0.502232,0.0105629,0.0387784,790,1471,-1.86095,-5.23709
-427,-447,-1.76978,4.73987,-0.00750882,-0.0132781,-0.00600337,-0.00373302,-0.0170539,-0.561432,0.0103518,0.0442096,797,1471,-1.7698,-4.73981
-420,-447,-1.79865,4.74146,0,0,0,0,0,0,0,-1,804,1471,-1.79862,-4.74149
-413,-447,-2.38959,5.7738,0,0,0,0,0,0,0,-1,811,1471,-2.38959,-5.77386
-406,-447,-4.48694,5.62988,0,0,0,0,0,0,0,-1,818,1471,-4.48696,-5.62994
-399,-447,0.0134888,0.687622,0,0,0,0,0,0,0,-1,825,1471,0.0134841,-0.68767
-392,-447,0.271057,0.278809,0,0,0,0,0,0,0,-1,832,1471,0.27108,-0.278763
-385,-447,0.327515,-0.0834961,0,0,0,0,0,0,0,-1,839,1471,0.327498,0.0834516
-378,-447,6.5293,1.50708,0,0,0,0,0,0,0,-1,846,1471,6.52927,-1.50709
-371,-447,7.32819,1.62622,0,0,0,0,0,0,0,-1,853,1471,7.3282,-1.62617
-364,-447,0,0,0,0,0,0,0,0,0,-1,860,1471,0,0
-357,-447,0,0,0,0,0,0,0,0,0,-1,867,1471,0,0
-350,-447,0,0,0,0,0,0,0,0,0,-1,874,1471,0,0
-343,-447,0,0,0,0,0,0,0,0,0,-1,881,1471,0,0
-336,-447,0,0,0,0,0,0,0,0,0,-1,888,1471,0,0
-329,-447,0,0,0,0,0,0,0,0,0,-1,895,1471,0,0
-322,-447,0,0,0,0,0,0,0,0,0,-1,902,1471,0,0
-315,-447,0,0,0,0,0,0,0,0,0,-1,909,1471,0,0
-308,-447,0,0,0,0,0,0,0,0,0,-1,916,1471,0,0
-301,-447,0,0,0,0,0,0,0,0,0,-1,923,1471,0,0
-294,-447,0,0,0,0,0,0,0,0,0,-1,930,1471,0,0
-287,-447,0,0,0,0,0,0,0,0,0,-1,937,1471,0,0
-280,-447,0,0,0,0,0,0,0,0,0,-1,944,1471,0,0
-273,-447,0,0,0,0,0,0,0,0,0,-1,951,1471,0,0
-266,-447,0,0,0,0,0,0,0,0,0,-1,958,1471,0,0
-259,-447,0,0,0,0,0,0,0,0,0,-1,965,1471,0,0
-252,-447,0,0,0,0,0,0,0,0,0,-1,972,1471,0,0
-245,-447,0,0,0,0,0,0,0,0,0,-1,979,1471,0,0
-238,-447,0,0,0,0,0,0,0,0,0,-1,986,1471,0,0
-231,-447,0,0,0,0,0,0,0,0,0,-1,993,1471,0,0
-224,-447,0,0,0,0,0,0,0,0,0,-1,1000,1471,0,0
-217,-447,0,0,0,0,0,0,0,0,0,-1,1007,1471,0,0
-210,-447,0,0,0,0,0,0,0,0,0,-1,1014,1471,0,0
-203,-447,0,0,0,0,0,0,0,0,0,-1,1021,1471,0,0
-196,-447,0,0,0,0,0,0,0,0,0,-1,1028,1471,0,0
-189,-447,0,0,0,0,0,0,0,0,0,-1,1035,1471,0,0
-182,-447,0,0,0,0,0,0,0,0,0,-1,1042,1471,0,0
-175,-447,0,0,0,0,0,0,0,0,0,-1,1049,1471,0,0
-168,-447,0,0,0,0,0,0,0,0,0,-1,1056,1471,0,0
-161,-447,0,0,0,0,0,0,0,0,0,-1,1063,1471,0,0
-154,-447,0,0,0,0,0,0,0,0,0,-1,1070,1471,0,0
-147,-447,0,0,0,0,0,0,0,0,0,-1,1077,1471,0,0
-140,-447,0,0,0,0,0,0,0,0,0,-1,1084,1471,0,0
-133,-447,0,0,0,0,0,0,0,0,0,-1,1091,1471,0,0
-126,-447,0,0,0,0,0,0,0,0,0,-1,1098,1471,0,0
-119,-447,0,0,0,0,0,0,0,0,0,-1,1105,1471,0,0
-112,-447,0,0,0,0,0,0,0,0,0,-1,1112,1471,0,0
-105,-447,0,0,0,0,0,0,0,0,0,-1,1119,1471,0,0
-98,-447,0,0,0,0,0,0,0,0,0,-1,1126,1471,0,0
-91,-447,0,0,0,0,0,0,0,0,0,-1,1133,1471,0,0
-84,-447,0,0,0,0,0,0,0,0,0,-1,1140,1471,0,0
-77,-447,0,0,0,0,0,0,0,0,0,-1,1147,1471,0,0
-70,-447,0,0,0,0,0,0,0,0,0,-1,1154,1471,0,0
-63,-447,0,0,0,0,0,0,0,0,0,-1,1161,1471,0,0
-56,-447,0,0,0,0,0,0,0,0,0,-1,1168,1471,0,0
-49,-447,0,0,0,0,0,0,0,0,0,-1,1175,1471,0,0
-42,-447,0,0,0,0,0,0,0,0,0,-1,1182,1471,0,0
-35,-447,0,0,0,0,0,0,0,0,0,-1,1189,1471,0,0
-28,-447,0,0,0,0,0,0,0,0,0,-1,1196,1471,0,0
-21,-447,0,0,0,0,0,0,0,0,0,-1,1203,1471,0,0
-14,-447,0,0,0,0,0,0,0,0,0,-1,1210,1471,0,0
-7,-447,0,0,0,0,0,0,0,0,0,-1,1217,1471,0,0
0,-447,0,0,0,0,0,0,0,0,0,-1,1224,1471,0,0
7,-447,0,0,0,0,0,0,0,0,0,-1,1231,1471,0,0
14,-447,0,0,0,0,0,0,0,0,0,-1,1238,1471,0,0
21,-447,0,0,0,0,0,0,0,0,0,-1,1245,1471,0,0
28,-447,0,0,0,0,0,0,0,0,0,-1,1252,1471,0,0
35,-447,0,0,0,0,0,0,0,0,0,-1,1259,1471,0,0
42,-447,0,0,0,0,0,0,0,0,0,-1,1266,1471,0,0
49,-447,0,0,0,0,0,0,0,0,0,-1,1273,1471,0,0
56,-447,0,0,0,0,0,0,0,0,0,-1,1280,1471,0,0
63,-447,0,0,0,0,0,0,0,0,0,-1,1287,1471,0,0
70,-447,0,0,0,0,0,0,0,0,0,-1,1294,1471,0,0
77,-447,0,0,0,0,0,0,0,0,0,-1,1301,1471,0,0
84,-447,0,0,0,0,0,0,0,0,0,-1,1308,1471,0,0
91,-447,0,0,0,0,0,0,0,0,0,-1,1315,1471,0,0
98,-447,0,0,0,0,0,0,0,0,0,-1,1322,1471,0,0
105,-447,0,0,0,0,0,0,0,0,0,-1,1329,1471,0,0
112,-447,0,0,0,0,0,0,0,0,0,-1,1336,1471,0,0
119,-447,0,0,0,0,0,0,0,0,0,-1,1343,1471,0,0
126,-447,0,0,0,0,0,0,0,0,0,-1,1350,1471,0,0
133,-447,0,0,0,0,0,0,0,0,0,-1,1357,1471,0,0
140,-447,0,0,0,0,0,0,0,0,0,-1,1364,1471,0,0
147,-447,0,0,0,0,0,0,0,0,0,-1,1371,1471,0,0
154,-447,0,0,0,0,0,0,0,0,0,-1,1378,1471,0,0
161,-447,0,0,0,0,0,0,0,0,0,-1,1385,1471,0,0
168,-447,0,0,0,0,0,0,0,0,0,-1,1392,1471,0,0
175,-447,0,0,0,0,0,0,0,0,0,-1,1399,1471,0,0
182,-447,0,0,0,0,0,0,0,0,0,-1,1406,1471,0,0
189,-447,0,0,0,0,0,0,0,0,0,-1,1413,1471,0,0
196,-447,0,0,0,0,0,0,0,0,0,-1,1420,1471,0,0
203,-447,0,0,0,0,0,0,0,0,0,-1,1427,1471,0,0
210,-447,0,0,0,0,0,0,0,0,0,-1,1434,1471,0,0
217,-447,0,0,0,0,0,0,0,0,0,-1,1441,1471,0,0
224,-447,0,0,0,0,0,0,0,0,0,-1,1448,1471,0,0
231,-447,0,0,0,0,0,0,0,0,0,-1,1455,1471,0,0
238,-447,0,0,0,0,0,0,0,0,0,-1,1462,1471,0,0
245,-447,0,0,0,0,0,0,0,0,0,-1,1469,1471,0,0
252,-447,0,0,0,0,0,0,0,0,0,-1,1476,1471,0,0
259,-447,0,0,0,0,0,0,0,0,0,-1,1483,1471,0,0
266,-447,0,0,0,0,0,0,0,0,0,-1,1490,1471,0,0
273,-447,0,0,0,0,0,0,0,0,0,-1,1497,1471,0,0
280,-447,0,0,0,0,0,0,0,0,0,-1,1504,1471,0,0
287,-447,0,0,0,0,0,0,0,0,0,-1,1511,1471,0,0
294,-447,0,0,0,0,0,0,0,0,0,-1,1518,1471,0,0
301,-447,0,0,0,0,0,0,0,0,0,-1,1525,1471,0,0
308,-447,0,0,0,0,0,0,0,0,0,-1,1532,1471,0,0
315,-447,0,0,0,0,0,0,0,0,0,-1,1539,1471,0,0
322,-447,0,0,0,0,0,0,0,0,0,-1,1546,1471,0,0
329,-447,0,0,0,0,0,0,0,0,0,-1,1553,1471,0,0
336,-447,0,0,0,0,0,0,0,0,0,-1,1560,1471,0,0
343,-447,0,0,0,0,0,0,0,0,0,-1,1567,1471,0,0
350,-447,0,0,0,0,0,0,0,0,0,-1,1574,1471,0,0
357,-447,0,0,0,0,0,0,0,0,0,-1,1581,1471,0,0
364,-447,0,0,0,0,0,0,0,0,0,-1,1588,1471,0,0
371,-447,0,0,0,0,0,0,0,0,0,-1,1595,1471,0,0
378,-447,0,0,0,0,0,0,0,0,0,-1,1602,1471,0,0
385,-447,0,0,0,0,0,0,0,0,0,-1,1609,1471,0,0
392,-447,0,0,0,0,0,0,0,0,0,-1,1616,1471,0,0
399,-447,0,0,0,0,0,0,0,0,0,-1,1623,1471,0,0
406,-447,0,0,0,0,0,0,0,0,0,-1,1630,1471,0,0
413,-447,0,0,0,0,0,0,0,0,0,-1,1637,1471,0,0
420,-447,0,0,0,0,0,0,0,0,0,-1,1644,1471,0,0
427,-447,0,0,0,0,0,0,0,0,0,-1,1651,1471,0,0
434,-447,0,0,0,0,0,0,0,0,0,-1,1658,1471,0,0
441,-447,0,0,0,0,0,0,0,0,0,-1,1665,1471,0,0
448,-447,0,0,0,0,0,0,0,0,0,-1,1672,1471,0,0
455,-447,0,0,0,0,0,0,0,0,0,-1,1679,1471,0,0
462,-447,0,0,0,0,0,0,0,0,0,-1,1686,1471,0,0
469,-447,0,0,0,0,0,0,0,0,0,-1,1693,1471,0,0
476,-447,0,0,0,0,0,0,0,0,0,-1,1700,1471,0,0
483,-447,0,0,0,0,0,0,0,0,0,-1,1707,1471,0,0
490,-447,13.7513,1.54663,0,0,0,0,0,0,0,-1,1714,1471,13.7513,-1.54661
497,-447,13.0237,2.03613,0,0,0,0,0,0,0,-1,1721,1471,13.0237,-2.03609
504,-447,12.2365,2.57971,0,0,0,0,0,0,0,-1,1728,1471,12.2365,-2.57971
511,-447,11.3782,3.17554,0,0,0,0,0,0,0,-1,1735,1471,11.3782,-3.17556
518,-447,10.5674,3.8064,0,0,0,0,0,0,0,-1,1742,1471,10.5674,-3.80645
525,-447,10.0773,0.879639,0,0,0,0,0,0,0,-1,1749,1471,10.0772,-0.879601
532,-447,9.80176,6.0155,0,0,0,0,0,0,0,-1,1756,1471,9.80182,-6.01547
539,-447,10.6769,7.33582,0,0,0,0,0,0,0,-1,1763,1471,10.6769,-7.33588
546,-447,10.2729,7.05505,-0.0102665,-0.00856558,0.0197922,0.0103944,-0.0292265,0.80687,0.0237208,0.0433451,1770,1471,10.273,-7.05511
553,-447,9.81384,6.90662,-0.00977738,-0.00969981,0.0193309,0.00959231,-0.0290695,0.786401,0.0232464,0.0423878,1777,1471,9.81383,-6.90662
560,-447,9.94495,6.89819,-0.00941437,-0.0104418,0.0183039,0.00838301,-0.0282392,0.771369,0.0221556,0.0444045,1784,1471,9.94498,-6.89822
567,-447,9.40735,6.35083,-0.00895215,-0.0106806,0.0167881,0.00699392,-0.0266267,0.759682,0.0204843,0.0393193,1791,1471,9.4073,-6.35088
574,-447,9.18506,6.49414,-0.00823334,-0.0104048,0.014854,0.00557453,-0.0242126,0.748917,0.0182854,0.0252789,1798,1471,9.1851,-6.49412
581,-447,9.12256,6.51294,-0.0073506,-0.00968747,0.0127605,0.00429481,-0.0213329,0.739742,0.0158487,0.0128375,1805,1471,9.12257,-6.51294
588,-447,9.14844,6.3584,-0.00623702,-0.00846645,0.0106796,0.00338589,-0.0180894,0.733398,0.0133323,0.0130144,1812,1471,9.14845,-6.35843
595,-447,9.13623,6.20154,-0.00542203,-0.00739584,0.00874582,0.00239239,-0.0152103,0.729214,0.0110245,0.0126302,1819,1471,9.13617,-6.20151
602,-447,9.14648,6.03223,-0.00411515,-0.00605076,0.00667639,0.00166322,-0.0118291,0.71342,0.00849494,0.0112241,1826,1471,9.14648,-6.03224
609,-447,9.12695,5.86816,-0.00277004,-0.00490128,0.00456908,0.000856047,-0.00852736,0.670834,0.00599068,0.0123257,1833,1471,9.12699,-5.86819
616,-447,9.12756,5.71704,-0.0011516,-0.00351466,0.00273686,0.000647882,-0.00531414,0.581628,0.00377729,0.012899,1840,1471,9.12755,-5.71703
623,-447,9.13464,5.57336,0.000424557,-0.002264,0.00126881,0.000928782,-0.00276823,0.378263,0.00222079,0.013832,1847,1471,9.13465,-5.57332
630,-447,9.12354,5.40503,0.00191935,-0.00138943,-0.000128208,0.00192431,-0.00139439,-0.0386705,0.00192417,0.00847466,1854,1471,9.12357,-5.40497
637,-447,9.14514,5.23169,0.00352974,-0.000876162,-0.00137219,0.00392215,-0.00126857,-0.27854,0.00312468,0.00930512,1861,1471,9.14516,-5.23165
644,-447,9.15405,5.07898,0.00523267,-0.000712847,-0.00251086,0.00615115,-0.00163132,-0.350682,0.00473907,0.00936037,1868,1471,9.15402,-5.07898
651,-447,9.18445,4.91382,0.00703378,-0.000797639,-0.00357671,0.00842143,-0.00218529,-0.370092,0.00646699,0.0150891,1875,1471,9.18442,-4.91376
658,-447,9.11157,4.7644,0.0089149,-0.00106623,-0.00463756,0.010737,-0.00288835,-0.374375,0.00829025,0.0246567,1882,1471,9.11155,-4.76437
665,-447,9.21167,4.40686,0.0109482,-0.00162278,-0.00570842,0.0131535,-0.00382807,-0.36866,0.0102853,0.0440614,1889,1471,9.21168,-4.40691
672,-447,9.32117,4.06873,0,0,0,0,0,0,0,-1,1896,1471,9.32115,-4.06876
679,-447,10.3555,4.45337,0,0,0,0,0,0,0,-1,1903,1471,10.3555,-4.45341
686,-447,9.81079,4.30859,0,0,0,0,0,0,0,-1,1910,1471,9.8108,-4.30864
693,-447,10.48,2.08643,0,0,0,0,0,0,0,-1,1917,1471,10.48,-2.08642
700,-447,0,0,0,0,0,0,0,0,0,-1,1924,1471,0,0
707,-447,0,0,0,0,0,0,0,0,0,-1,1931,1471,0,0
714,-447,0,0,0,0,0,0,0,0,0,-1,1938,1471,0,0
721,-447,0,0,0,0,0,0,0,0,0,-1,1945,1471,0,0
728,-447,0,0,0,0,0,0,0,0,0,-1,1952,1471,0,0
735,-447,0,0,0,0,0,0,0,0,0,-1,1959,1471,0,0
742,-447,0,0,0,0,0,0,0,0,0,-1,1966,1471,0,0
749,-447,0,0,0,0,0,0,0,0,0,-1,1973,1471,0,0
756,-447,0,0,0,0,0,0,0,0,0,-1,1980,1471,0,0
763,-447,0,0,0,0,0,0,0,0,0,-1,1987,1471,0,0
770,-447,0,0,0,0,0,0,0,0,0,-1,1994,1471,0,0
777,-447,0,0,0,0,0,0,0,0,0,-1,2001,1471,0,0
784,-447,0,0,0,0,0,0,0,0,0,-1,2008,1471,0,0
791,-447,0,0,0,0,0,0,0,0,0,-1,2015,1471,0,0
798,-447,0,0,0,0,0,0,0,0,0,-1,2022,1471,0,0
805,-447,0,0,0,0,0,0,0,0,0,-1,2029,1471,0,0
812,-447,0,0,0,0,0,0,0,0,0,-1,2036,1471,0,0
-700,-454,0,0,0,0,0,0,0,0,0,-1,524,1478,0,0
-693,-454,0,0,0,0,0,0,0,0,0,-1,531,1478,0,0
-686,-454,0,0,0,0,0,0,0,0,0,-1,538,1478,0,0
-679,-454,0,0,0,0,0,0,0,0,0,-1,545,1478,0,0
-672,-454,0,0,0,0,0,0,0,0,0,-1,552,1478,0,0
-665,-454,0,0,0,0,0,0,0,0,0,-1,559,1478,0,0
-658,-454,0,0,0,0,0,0,0,0,0,-1,566,1478,0,0
-651,-454,0,0,0,0,0,0,0,0,0,-1,573,1478,0,0
-644,-454,0,0,0,0,0,0,0,0,0,-1,580,1478,0,0
-637,-454,0,0,0,0,0,0,0,0,0,-1,587,1478,0,0
-630,-454,0,0,0,0,0,0,0,0,0,-1,594,1478,0,0
-623,-454,0,0,0,0,0,0,0,0,0,-1,601,1478,0,0
-616,-454,0,0,0,0,0,0,0,0,0,-1,608,1478,0,0
-609,-454,0,0,0,0,0,0,0,0,0,-1,615,1478,0,0
-602,-454,0,0,0,0,0,0,0,0,0,-1,622,1478,0,0
-595,-454,0,0,0,0,0,0,0,0,0,-1,629,1478,0,0
-588,-454,0,0,0,0,0,0,0,0,0,-1,636,1478,0,0
-581,-454,0,0,0,0,0,0,0,0,0,-1,643,1478,0,0
-574,-454,-7.54492,0.926392,0,0,0,0,0,0,0,-1,650,1478,-7.54491,-0.926348
-567,-454,-6.88684,1.67615,0.117826,0.0310091,0.129512,0.211011,-0.0621751,0.623696,0.165342,0.0478037,657,1478,-6.88683,-1.67613
-560,-454,-5.84473,2.41602,0.0944607,0.0288274,0.104337,0.17102,-0.0477324,0.633034,0.132815,0.046171,664,1478,-5.8447,-2.41607
-553,-454,-4.71521,3.29236,0,0,0,0,0,0,0,-1,671,1478,-4.71518,-3.29241
-546,-454,-3.92517,4.23621,0,0,0,0,0,0,0,-1,678,1478,-3.92516,-4.23623
-539,-454,-2.76263,1.7428,0,0,0,0,0,0,0,-1,685,1478,-2.76262,-1.74282
-532,-454,-2.07849,2.14258,0.0261031,0.0148361,0.0350037,0.0559237,-0.0149846,0.705612,0.0431534,0.0446162,692,1478,-2.0785,-2.14264
-525,-454,-1.69464,2.95825,0.0166131,0.0114465,0.0249673,0.0391304,-0.0110708,0.733848,0.0304555,0.0405428,699,1478,-1.69466,-2.95825
-518,-454,-1.67029,3.26111,0.00917774,0.00853974,0.0165307,0.0253925,-0.00767506,0.775751,0.0199842,0.0244748,706,1478,-1.67031,-3.26117
-511,-454,-1.76373,3.42212,0.00369728,0.0060055,0.00996595,0.0148839,-0.00518117,0.843044,0.0120276,0.014871,713,1478,-1.76373,-3.42209
-504,-454,-1.74738,3.61597,0.000812065,0.00396929,0.00619244,0.00878117,-0.00399981,0.910203,0.00754926,0.0161088,720,1478,-1.7474,-3.61601
-497,-454,-1.74213,3.80518,-0.000273595,0.00224875,0.00376849,0.00496151,-0.00298635,0.946871,0.00463569,0.0204804,727,1478,-1.74214,-3.80515
-490,-454,-1.73425,3.97839,-0.00103311,0.000617352,0.0018714,0.0018374,-0.00225316,0.993057,0.00236574,0.0179837,734,1478,-1.73423,-3.97834
-483,-454,-1.74957,4.1405,-0.00136903,-0.000934685,0.00018746,-0.000864968,-0.00143874,1.21475,0.00083631,0.0151559,741,1478,-1.74958,-4.14048
-476,-454,-1.76868,4.31445,-0.000938821,-0.00258965,-0.000865198,-0.000568461,-0.00296001,-0.404463,0.00181379,0.0132386,748,1478,-1.7687,-4.31448
-469,-454,-1.7652,4.526,-0.000486518,-0.00415987,-0.00161615,0.000123299,-0.00476969,-0.360808,0.00322168,0.0102858,755,1478,-1.7652,-4.526
-462,-454,-1.76251,4.71716,-0.000377105,-0.00576248,-0.00291378,0.000897662,-0.00703725,-0.412407,0.00501756,0.0100445,762,1478,-1.76253,-4.71718
-455,-454,-1.76813,4.90259,-0.000655734,-0.0071878,-0.00375887,0.0010578,-0.00890134,-0.42772,0.00631642,0.0105506,769,1478,-1.76815,-4.90262
-448,-454,-1.74866,5.05872,-0.00122589,-0.00893297,-0.00460656,0.00092641,-0.0110853,-0.437086,0.00771754,0.0113159,776,1478,-1.74864,-5.05869
-441,-454,-1.62311,5.22961,-0.00167713,-0.0109442,-0.00552302,0.0008986,-0.0135199,-0.436377,0.00932723,0.0200553,783,1478,-1.62308,-5.22963
-434,-454,-1.46924,5.32031,-0.00241467,-0.0126539,-0.00627033,0.000560625,-0.0156292,-0.443043,0.0106113,0.0299733,790,1478,-1.46923,-5.3203
-427,-454,-1.31049,5.33838,-0.00342311,-0.0136965,-0.0066569,-0.000151471,-0.0169681,-0.456797,0.0112619,0.0436815,797,1478,-1.31049,-5.33843
-420,-454,-1.1994,5.45947,0,0,0,0,0,0,0,-1,804,1478,-1.19942,-5.45947
-413,-454,-2.24548,5.70789,0,0,0,0,0,0,0,-1,811,1478,-2.24547,-5.70783
-406,-454,-2.93335,5.75525,0,0,0,0,0,0,0,-1,818,1478,-2.93335,-5.75522
-399,-454,-1.20758,6.51941,0,0,0,0,0,0,0,-1,825,1478,-1.20757,-6.51941
-392,-454,0.0967407,0.985474,0,0,0,0,0,0,0,-1,832,1478,0.0967364,-0.985529
-385,-454,2.38629,3.297,0,0,0,0,0,0,0,-1,839,1478,2.38629,-3.29702
-378,-454,3.80048,3.42151,0,0,0,0,0,0,0,-1,846,1478,3.80046,-3.4215
-371,-454,1.25891,1.51331,0,0,0,0,0,0,0,-1,853,1478,1.25891,-1.51328
-364,-454,1.08124,0.819458,0,0,0,0,0,0,0,-1,860,1478,1.08124,-0.819513
-357,-454,0,0,0,0,0,0,0,0,0,-1,867,1478,0,0
-350,-454,0,0,0,0,0,0,0,0,0,-1,874,1478,0,0
-343,-454,0,0,0,0,0,0,0,0,0,-1,881,1478,0,0
-336,-454,0,0,0,0,0,0,0,0,0,-1,888,1478,0,0
-329,-454,0,0,0,0,0,0,0,0,0,-1,895,1478,0,0
-322,-454,0,0,0,0,0,0,0,0,0,-1,902,1478,0,0
-315,-454,0,0,0,0,0,0,0,0,0,-1,909,1478,0,0
-308,-454,0,0,0,0,0,0,0,0,0,-1,916,1478,0,0
-301,-454,0,0,0,0,0,0,0,0,0,-1,923,1478,0,0
-294,-454,0,0,0,0,0,0,0,0,0,-1,930,1478,0,0
-287,-454,0,0,0,0,0,0,0,0,0,-1,937,1478,0,0
-280,-454,0,0,0,0,0,0,0,0,0,-1,944,1478,0,0
-273,-454,0,0,0,0,0,0,0,0,0,-1,951,1478,0,0
-266,-454,0,0,0,0,0,0,0,0,0,-1,958,1478,0,0
-259,-454,0,0,0,0,0,0,0,0,0,-1,965,1478,0,0
-252,-454,0,0,0,0,0,0,0,0,0,-1,972,1478,0,0
-245,-454,0,0,0,0,0,0,0,0,0,-1,979,1478,0,0
-238,-454,0,0,0,0,0,0,0,0,0,-1,986,1478,0,0
-231,-454,0,0,0,0,0,0,0,0,0,-1,993,1478,0,0
-224,-454,0,0,0,0,0,0,0,0,0,-1,1000,1478,0,0
-217,-454,0,0,0,0,0,0,0,0,0,-1,1007,1478,0,0
-210,-454,0,0,0,0,0,0,0,0,0,-1,1014,1478,0,0
-203,-454,0,0,0,0,0,0,0,0,0,-1,1021,1478,0,0
-196,-454,0,0,0,0,0,0,0,0,0,-1,1028,1478,0,0
-189,-454,0,0,0,0,0,0,0,0,0,-1,1035,1478,0,0
-182,-454,0,0,0,0,0,0,0,0,0,-1,1042,1478,0,0
-175,-454,0,0,0,0,0,0,0,0,0,-1,1049,1478,0,0
-168,-454,0,0,0,0,0,0,0,0,0,-1,1056,1478,0,0
-161,-454,0,0,0,0,0,0,0,0,0,-1,1063,1478,0,0
-154,-454,0,0,0,0,0,0,0,0,0,-1,1070,1478,0,0
-147,-454,0,0,0,0,0,0,0,0,0,-1,1077,1478,0,0
-140,-454,0,0,0,0,0,0,0,0,0,-1,1084,1478,0,0
-133,-454,0,0,0,0,0,0,0,0,0,-1,1091,1478,0,0
-126,-454,0,0,0,0,0,0,0,0,0,-1,1098,1478,0,0
-119,-454,0,0,0,0,0,0,0,0,0,-1,1105,1478,0,0
-112,-454,0,0,0,0,0,0,0,0,0,-1,1112,1478,0,0
-105,-454,0,0,0,0,0,0,0,0,0,-1,1119,1478,0,0
-98,-454,0,0,0,0,0,0,0,0,0,-1,1126,1478,0,0
-91,-454,0,0,0,0,0,0,0,0,0,-1,1133,1478,0,0
-84,-454,0,0,0,0,0,0,0,0,0,-1,1140,1478,0,0
-77,-454,0,0,0,0,0,0,0,0,0,-1,1147,1478,0,0
-70,-454,0,0,0,0,0,0,0,0,0,-1,1154,1478,0,0
-63,-454,0,0,0,0,0,0,0,0,0,-1,1161,1478,0,0
-56,-454,0,0,0,0,0,0,0,0,0,-1,1168,1478,0,0
-49,-454,0,0,0,0,0,0,0,0,0,-1,1175,1478,0,0
-42,-454,0,0,0,0,0,0,0,0,0,-1,1182,1478,0,0
-35,-454,0,0,0,0,0,0,0,0,0,-1,1189,1478,0,0
-28,-454,0,0,0,0,0,0,0,0,0,-1,1196,1478,0,0
-21,-454,0,0,0,0,0,0,0,0,0,-1,1203,1478,0,0
-14,-454,0,0,0,0,0,0,0,0,0,-1,1210,1478,0,0
-7,-454,0,0,0,0,0,0,0,0,0,-1,1217,1478,0,0
0,-454,0,0,0,0,0,0,0,0,0,-1,1224,1478,0,0
7,-454,0,0,0,0,0,0,0,0,0,-1,1231,1478,0,0
14,-454,0,0,0,0,0,0,0,0,0,-1,1238,1478,0,0
21,-454,0,0,0,0,0,0,0,0,0,-1,1245,1478,0,0
28,-454,0,0,0,0,0,0,0,0,0,-1,1252,1478,0,0
35,-454,0,0,0,0,0,0,0,0,0,-1,1259,1478,0,0
42,-454,0,0,0,0,0,0,0,0,0,-1,1266,1478,0,0
49,-454,0,0,0,0,0,0,0,0,0,-1,1273,1478,0,0
56,-454,0,0,0,0,0,0,0,0,0,-1,1280,1478,0,0
63,-454,0,0,0,0,0,0,0,0,0,-1,1287,1478,0,0
70,-454,0,0,0,0,0,0,0,0,0,-1,1294,1478,0,0
77,-454,0,0,0,0,0,0,0,0,0,-1,1301,1478,0,0
84,-454,0,0,0,0,0,0,0,0,0,-1,1308,1478,0,0
91,-454,0,0,0,0,0,0,0,0,0,-1,1315,1478,0,0
98,-454,0,0,0,0,0,0,0,0,0,-1,1322,1478,0,0
105,-454,0,0,0,0,0,0,0,0,0,-1,1329,1478,0,0
112,-454,0,0,0,0,0,0,0,0,0,-1,1336,1478,0,0
119,-454,0,0,0,0,0,0,0,0,0,-1,1343,1478,0,0
126,-454,0,0,0,0,0,0,0,0,0,-1,1350,1478,0,0
133,-454,0,0,0,0,0,0,0,0,0,-1,1357,1478,0,0
140,-454,0,0,0,0,0,0,0,0,0,-1,1364,1478,0,0
147,-454,0,0,0,0,0,0,0,0,0,-1,1371,1478,0,0
154,-454,0,0,0,0,0,0,0,0,0,-1,1378,1478,0,0
161,-454,0,0,0,0,0,0,0,0,0,-1,1385,1478,0,0
168,-454,0,0,0,0,0,0,0,0,0,-1,1392,1478,0,0
175,-454,0,0,0,0,0,0,0,0,0,-1,1399,1478,0,0
182,-454,0,0,0,0,0,0,0,0,0,-1,1406,1478,0,0
189,-454,0,0,0,0,0,0,0,0,0,-1,1413,1478,0,0
196,-454,0,0,0,0,0,0,0,0,0,-1,1420,1478,0,0
203,-454,0,0,0,0,0,0,0,0,0,-1,1427,1478,0,0
210,-454,0,0,0,0,0,0,0,0,0,-1,1434,1478,0,0
217,-454,0,0,0,0,0,0,0,0,0,-1,1441,1478,0,0
224,-454,0,0,0,0,0,0,0,0,0,-1,1448,1478,0,0
231,-454,0,0,0,0,0,0,0,0,0,-1,1455,1478,0,0
238,-454,0,0,0,0,0,0,0,0,0,-1,1462,1478,0,0
245,-454,0,0,0,0,0,0,0,0,0,-1,1469,1478,0,0
252,-454,0,0,0,0,0,0,0,0,0,-1,1476,1478,0,0
259,-454,0,0,0,0,0,0,0,0,0,-1,1483,1478,0,0
266,-454,0,0,0,0,0,0,0,0,0,-1,1490,1478,0,0
273,-454,0,0,0,0,0,0,0,0,0,-1,1497,1478,0,0
280,-454,0,0,0,0,0,0,0,0,0,-1,1504,1478,0,0
287,-454,0,0,0,0,0,0,0,0,0,-1,1511,1478,0,0
294,-454,0,0,0,0,0,0,0,0,0,-1,1518,1478,0,0
301,-454,0,0,0,0,0,0,0,0,0,-1,1525,1478,0,0
308,-454,0,0,0,0,0,0,0,0,0,-1,1532,1478,0,0
315,-454,0,0,0,0,0,0,0,0,0,-1,1539,1478,0,0
322,-454,0,0,0,0,0,0,0,0,0,-1,1546,1478,0,0
329,-454,0,0,0,0,0,0,0,0,0,-1,1553,1478,0,0
336,-454,0,0,0,0,0,0,0,0,0,-1,1560,1478,0,0
343,-454,0,0,0,0,0,0,0,0,0,-1,1567,1478,0,0
350,-454,0,0,0,0,0,0,0,0,0,-1,1574,1478,0,0
357,-454,0,0,0,0,0,0,0,0,0,-1,1581,1478,0,0
364,-454,0,0,0,0,0,0,0,0,0,-1,1588,1478,0,0
371,-454,0,0,0,0,0,0,0,0,0,-1,1595,1478,0,0
378,-454,0,0,0,0,0,0,0,0,0,-1,1602,1478,0,0
385,-454,0,0,0,0,0,0,0,0,0,-1,1609,1478,0,0
392,-454,0,0,0,0,0,0,0,0,0,-1,1616,1478,0,0
399,-454,0,0,0,0,0,0,0,0,0,-1,1623,1478,0,0
406,-454,0,0,0,0,0,0,0,0,0,-1,1630,1478,0,0
413,-454,0,0,0,0,0,0,0,0,0,-1,1637,1478,0,0
420,-454,0,0,0,0,0,0,0,0,0,-1,1644,1478,0,0
427,-454,0,0,0,0,0,0,0,0,0,-1,1651,1478,0,0
434,-454,0,0,0,0,0,0,0,0,0,-1,1658,1478,0,0
441,-454,0,0,0,0,0,0,0,0,0,-1,1665,1478,0,0
448,-454,0,0,0,0,0,0,0,0,0,-1,1672,1478,0,0
455,-454,0,0,0,0,0,0,0,0,0,-1,1679,1478,0,0
462,-454,0,0,0,0,0,0,0,0,0,-1,1686,1478,0,0
469,-454,0,0,0,0,0,0,0,0,0,-1,1693,1478,0,0
476,-454,0,0,0,0,0,0,0,0,0,-1,1700,1478,0,0
483,-454,13.4559,0.33667,0,0,0,0,0,0,0,-1,1707,1478,13.4559,-0.336715
490,-454,12.6382,1.28284,0,0,0,0,0,0,0,-1,1714,1478,12.6382,-1.28286
497,-454,12.3833,1.86182,0,0,0,0,0,0,0,-1,1721,1478,12.3833,-1.86177
504,-454,11.8937,2.95679,0,0,0,0,0,0,0,-1,1728,1478,11.8936,-2.95682
511,-454,11.0791,3.51208,0,0,0,0,0,0,0,-1,1735,1478,11.0791,-3.51214
518,-454,10.2549,4.07007,0,0,0,0,0,0,0,-1,1742,1478,10.2549,-4.0701
525,-454,9.43726,4.62024,0,0,0,0,0,0,0,-1,1749,1478,9.43721,-4.62022
532,-454,9.18518,5.00281,0,0,0,0,0,0,0,-1,1756,1478,9.18517,-5.00282
539,-454,10.4904,7.19934,0,0,0,0,0,0,0,-1,1763,1478,10.4903,-7.19929
546,-454,10.0791,7.09253,-0.00988032,-0.00754505,0.0185668,0.00989076,-0.0273161,0.816801,0.0222528,0.0431937,1770,1478,10.0791,-7.09253
553,-454,9.54895,6.96191,-0.00930763,-0.00852159,0.0176007,0.00869051,-0.0265197,0.796561,0.0211796,0.0401625,1777,1478,9.54891,-6.96188
560,-454,9.15234,6.92322,-0.00867702,-0.00902659,0.0161641,0.00731321,-0.0250168,0.779992,0.0195764,0.0413064,1784,1478,9.15231,-6.92317
567,-454,9.05164,6.77881,-0.00793082,-0.00904301,0.0144338,0.00595759,-0.0229314,0.766144,0.0176126,0.0216514,1791,1478,9.05165,-6.77885
574,-454,8.97961,6.65015,-0.00697373,-0.00864446,0.0124131,0.00463204,-0.0202502,0.7518,0.01528,0.0114604,1798,1478,8.97961,-6.65015
581,-454,8.97827,6.50159,-0.00598449,-0.00790763,0.0104367,0.00353485,-0.017427,0.739461,0.012958,0.0107384,1805,1478,8.97832,-6.50165
588,-454,8.99536,6.33545,-0.00496901,-0.00678482,0.00856897,0.00274002,-0.0144938,0.732619,0.0106936,0.0125459,1812,1478,8.9953,-6.33542
595,-454,8.97827,6.1864,-0.00422273,-0.00583266,0.00692432,0.00194325,-0.0119986,0.727532,0.00871933,0.0122652,1819,1478,8.97822,-6.18638
602,-454,8.97778,6.03162,-0.00308221,-0.0047283,0.00524291,0.00140186,-0.00921237,0.707542,0.00665824,0.0091082,1826,1478,8.97774,-6.03164
609,-454,8.97668,5.87927,-0.00194927,-0.00383161,0.00346774,0.000702754,-0.00648363,0.652887,0.0045747,0.0107983,1833,1478,8.97675,-5.87933
616,-454,8.98462,5.7251,-0.000727075,-0.00280449,0.00199263,0.000481321,-0.00401289,0.545137,0.00284928,0.0128132,1840,1478,8.98467,-5.72509
623,-454,8.97998,5.57446,0.000460108,-0.00193017,0.000818974,0.000713788,-0.00218385,0.300381,0.00174324,0.00972169,1847,1478,8.97992,-5.57442
630,-454,8.974,5.40979,0.00161121,-0.00141712,-0.000315413,0.00164371,-0.00144962,-0.102686,0.0017871,0.00831696,1854,1478,8.97403,-5.40982
637,-454,8.98401,5.25024,0.0029206,-0.00125816,-0.00139504,0.00334352,-0.00168108,-0.294352,0.00295341,0.00835847,1861,1478,8.98398,-5.2503
644,-454,9.01611,5.08484,0.00440005,-0.00133394,-0.00250448,0.0053399,-0.00227379,-0.359006,0.00451302,0.0131472,1868,1478,9.01616,-5.08489
651,-454,8.97949,4.95667,0.00606892,-0.00164227,-0.00366091,0.00753008,-0.00310342,-0.379752,0.00631409,0.022744,1875,1478,8.97946,-4.95672
658,-454,9.02747,4.78516,0.00794797,-0.00204582,-0.00501379,0.0100297,-0.00412756,-0.393543,0.00840714,0.0335694,1882,1478,9.02742,-4.78511
665,-454,9.14709,4.30432,0,0,0,0,0,0,0,-1,1889,1478,9.14715,-4.30435
672,-454,8.50598,4.20752,0,0,0,0,0,0,0,-1,1896,1478,8.50598,-4.20754
679,-454,10.9514,4.3175,0,0,0,0,0,0,0,-1,1903,1478,10.9514,-4.31749
686,-454,10.3767,2.12842,0,0,0,0,0,0,0,-1,1910,1478,10.3767,-2.12839
693,-454,11.1857,1.48486,0,0,0,0,0,0,0,-1,1917,1478,11.1857,-1.48487
700,-454,0,0,0,0,0,0,0,0,0,-1,1924,1478,0,0
707,-454,0,0,0,0,0,0,0,0,0,-1,1931,1478,0,0
714,-454,0,0,0,0,0,0,0,0,0,-1,1938,1478,0,0
721,-454,0,0,0,0,0,0,0,0,0,-1,1945,1478,0,0
728,-454,0,0,0,0,0,0,0,0,0,-1,1952,1478,0,0
735,-454,0,0,0,0,0,0,0,0,0,-1,1959,1478,0,0
742,-454,0,0,0,0,0,0,0,0,0,-1,1966,1478,0,0
749,-454,0,0,0,0,0,0,0,0,0,-1,1973,1478,0,0
756,-454,0,0,0,0,0,0,0,0,0,-1,1980,1478,0,0
763,-454,0,0,0,0,0,0,0,0,0,-1,1987,1478,0,0
770,-454,0,0,0,0,0,0,0,0,0,-1,1994,1478,0,0
777,-454,0,0,0,0,0,0,0,0,0,-1,2001,1478,0,0
784,-454,0,0,0,0,0,0,0,0,0,-1,2008,1478,0,0
791,-454,0,0,0,0,0,0,0,0,0,-1,2015,1478,0,0
798,-454,0,0,0,0,0,0,0,0,0,-1,2022,1478,0,0
805,-454,0,0,0,0,0,0,0,0,0,-1,2029,1478,0,0
812,-454,0,0,0,0,0,0,0,0,0,-1,2036,1478,0,0
-700,-461,0,0,0,0,0,0,0,0,0,-1,524,1485,0,0
-693,-461,0,0,0,0,0,0,0,0,0,-1,531,1485,0,0
-686,-461,0,0,0,0,0,0,0,0,0,-1,538,1485,0,0
-679,-461,0,0,0,0,0,0,0,0,0,-1,545,1485,0,0
-672,-461,0,0,0,0,0,0,0,0,0,-1,552,1485,0,0
-665,-461,0,0,0,0,0,0,0,0,0,-1,559,1485,0,0
-658,-461,0,0,0,0,0,0,0,0,0,-1,566,1485,0,0
-651,-461,0,0,0,0,0,0,0,0,0,-1,573,1485,0,0
-644,-461,0,0,0,0,0,0,0,0,0,-1,580,1485,0,0
-637,-461,0,0,0,0,0,0,0,0,0,-1,587,1485,0,0
-630,-461,0,0,0,0,0,0,0,0,0,-1,594,1485,0,0
-623,-461,0,0,0,0,0,0,0,0,0,-1,601,1485,0,0
-616,-461,0,0,0,0,0,0,0,0,0,-1,608,1485,0,0
-609,-461,0,0,0,0,0,0,0,0,0,-1,615,1485,0,0
-602,-461,0,0,0,0,0,0,0,0,0,-1,622,1485,0,0
-595,-461,0,0,0,0,0,0,0,0,0,-1,629,1485,0,0
-588,-461,0,0,0,0,0,0,0,0,0,-1,636,1485,0,0
-581,-461,0,0,0,0,0,0,0,0,0,-1,643,1485,0,0
-574,-461,0,0,0,0,0,0,0,0,0,-1,650,1485,0,0
-567,-461,-7.94788,1.73059,0,0,0,0,0,0,0,-1,657,1485,-7.94788,-1.73063
-560,-461,-6.71979,2.44128,0,0,0,0,0,0,0,-1,664,1485,-6.71982,-2.44134
-553,-461,-5.47742,3.43127,0,0,0,0,0,0,0,-1,671,1485,-5.47744,-3.43123
-546,-461,-4.12299,3.72546,0.0523964,0.0233015,0.0671111,0.106519,-0.0308207,0.678666,0.0832109,0.0451717,678,1485,-4.12298,-3.7255
-539,-461,-3.70959,4.45422,0.0363978,0.0191977,0.0509055,0.0794246,-0.0238291,0.701717,0.0624276,0.0424444,685,1485,-3.70957,-4.45417
-532,-461,-1.84399,1.84058,0,0,0,0,0,0,0,-1,692,1485,-1.84399,-1.84053
-525,-461,-1.5589,2.78625,0,0,0,0,0,0,0,-1,699,1485,-1.55889,-2.78624
-518,-461,-1.27997,2.86267,0,0,0,0,0,0,0,-1,706,1485,-1.27995,-2.86264
-511,-461,-1.53778,3.422,0.00189218,0.00598612,0.0116597,0.0157772,-0.0078989,0.872292,0.0139194,0.0164533,713,1485,-1.53781,-3.42206
-504,-461,-1.55945,3.60693,-0.00065406,0.00390025,0.00747318,0.00943551,-0.00618932,0.933284,0.00908566,0.01028,720,1485,-1.55947,-3.6069
-497,-461,-1.54401,3.80554,-0.00150688,0.0021834,0.00465626,0.00534678,-0.00467026,0.974042,0.00578774,0.0105856,727,1485,-1.54399,-3.80558
-490,-461,-1.55878,3.97693,-0.00202911,0.000655322,0.00245918,0.00211474,-0.00348853,1.0352,0.0032673,0.0117832,734,1485,-1.5588,-3.97697
-483,-461,-1.56323,4.16797,-0.00199305,-0.000647772,0.000643252,-0.000389704,-0.00225112,1.18926,0.00138919,0.0117537,741,1485,-1.56322,-4.16794
-476,-461,-1.5741,4.3678,-0.0011784,-0.00202952,-0.000402185,-0.00101842,-0.0021895,-0.378582,0.00126513,0.0106414,748,1485,-1.57407,-4.36778
-469,-461,-1.58148,4.5387,-0.000347481,-0.00332277,-0.00111831,2.59771e-05,-0.00369623,-0.322304,0.00247286,0.0128998,755,1485,-1.58151,-4.53864
-462,-461,-1.5697,4.7085,8.09447e-05,-0.00454145,-0.00233585,0.00105575,-0.00551625,-0.395352,0.00407526,0.0176464,762,1485,-1.56968,-4.7085
-455,-461,-1.61554,4.89673,0.000120713,-0.00585667,-0.00317408,0.00149173,-0.00722769,-0.407736,0.00538502,0.0204047,769,1485,-1.61554,-4.89673
-448,-461,-1.5899,5.08337,-5.57787e-05,-0.00746981,-0.00401848,0.00170439,-0.00922999,-0.412846,0.00679311,0.0174996,776,1485,-1.5899,-5.08336
-441,-461,-1.54163,5.25586,-5.29175e-05,-0.00944107,-0.00494207,0.00206904,-0.011563,-0.405564,0.0084829,0.0134239,783,1485,-1.54161,-5.25583
-434,-461,-1.40186,5.38354,-0.000210847,-0.0113872,-0.00581029,0.00226244,-0.0138605,-0.40244,0.0100795,0.018523,790,1485,-1.40183,-5.38353
-427,-461,-1.30951,5.46533,-0.000480005,-0.0131377,-0.00652058,0.00227808,-0.0158958,-0.40016,0.0114324,0.026926,797,1485,-1.30954,-5.46539
-420,-461,-1.4483,5.39612,-0.00109027,-0.0144583,-0.00692102,0.00184739,-0.0173959,-0.401409,0.0122596,0.0429213,804,1485,-1.44833,-5.39608
-413,-461,-2.1203,5.55933,-0.00204684,-0.0151539,-0.00685407,0.000882618,-0.0180834,-0.403905,0.0123603,0.0459076,811,1485,-2.12032,-5.55934
-406,-461,-2.77545,5.64514,0,0,0,0,0,0,0,-1,818,1485,-2.77544,-5.6451
-399,-461,-1.36951,7.74609,0,0,0,0,0,0,0,-1,825,1485,-1.36951,-7.74604
-392,-461,-0.357544,5.55225,0,0,0,0,0,0,0,-1,832,1485,-0.357536,-5.55228
-385,-461,1.71509,3.35254,0,0,0,0,0,0,0,-1,839,1485,1.71511,-3.35255
-378,-461,1.95996,3.01111,0,0,0,0,0,0,0,-1,846,1485,1.95993,-3.01111
-371,-461,0.702881,2.33459,0,0,0,0,0,0,0,-1,853,1485,0.702859,-2.33459
-364,-461,-1.93097,2.56458,0,0,0,0,0,0,0,-1,860,1485,-1.93095,-2.56456
-357,-461,-2.41516,3.49487,0,0,0,0,0,0,0,-1,867,1485,-2.41517,-3.49487
-350,-461,0,0,0,0,0,0,0,0,0,-1,874,1485,0,0
-343,-461,0,0,0,0,0,0,0,0,0,-1,881,1485,0,0
-336,-461,0,0,0,0,0,0,0,0,0,-1,888,1485,0,0
-329,-461,0,0,0,0,0,0,0,0,0,-1,895,1485,0,0
-322,-461,0,0,0,0,0,0,0,0,0,-1,902,1485,0,0
-315,-461,0,0,0,0,0,0,0,0,0,-1,909,1485,0,0
-308,-461,0,0,0,0,0,0,0,0,0,-1,916,1485,0,0
-301,-461,0,0,0,0,0,0,0,0,0,-1,923,1485,0,0
-294,-461,0,0,0,0,0,0,0,0,0,-1,930,1485,0,0
-287,-461,0,0,0,0,0,0,0,0,0,-1,937,1485,0,0
-280,-461,0,0,0,0,0,0,0,0,0,-1,944,1485,0,0
-273,-461,0,0,0,0,0,0,0,0,0,-1,951,1485,0,0
-266,-461,0,0,0,0,0,0,0,0,0,-1,958,1485,0,0
-259,-461,0,0,0,0,0,0,0,0,0,-1,965,1485,0,0
-252,-461,0,0,0,0,0,0,0,0,0,-1,972,1485,0,0
-245,-461,0,0,0,0,0,0,0,0,0,-1,979,1485,0,0
-238,-461,0,0,0,0,0,0,0,0,0,-1,986,1485,0,0
-231,-461,0,0,0,0,0,0,0,0,0,-1,993,1485,0,0
-224,-461,0,0,0,0,0,0,0,0,0,-1,1000,1485,0,0
-217,-461,0,0,0,0,0,0,0,0,0,-1,1007,1485,0,0
-210,-461,0,0,0,0,0,0,0,0,0,-1,1014,1485,0,0
-203,-461,0,0,0,0,0,0,0,0,0,-1,1021,1485,0,0
-196,-461,0,0,0,0,0,0,0,0,0,-1,1028,1485,0,0
-189,-461,0,0,0,0,0,0,0,0,0,-1,1035,1485,0,0
-182,-461,0,0,0,0,0,0,0,0,0,-1,1042,1485,0,0
-175,-461,0,0,0,0,0,0,0,0,0,-1,1049,1485,0,0
-168,-461,0,0,0,0,0,0,0,0,0,-1,1056,1485,0,0
-161,-461,0,0,0,0,0,0,0,0,0,-1,1063,1485,0,0
-154,-461,0,0,0,0,0,0,0,0,0,-1,1070,1485,0,0
-147,-461,0,0,0,0,0,0,0,0,0,-1,1077,1485,0,0
-140,-461,0,0,0,0,0,0,0,0,0,-1,1084,1485,0,0
-133,-461,0,0,0,0,0,0,0,0,0,-1,1091,1485,0,0
-126,-461,0,0,0,0,0,0,0,0,0,-1,1098,1485,0,0
-119,-461,0,0,0,0,0,0,0,0,0,-1,1105,1485,0,0
-112,-461,0,0,0,0,0,0,0,0,0,-1,1112,1485,0,0
-105,-461,0,0,0,0,0,0,0,0,0,-1,1119,1485,0,0
-98,-461,0,0,0,0,0,0,0,0,0,-1,1126,1485,0,0
-91,-461,0,0,0,0,0,0,0,0,0,-1,1133,1485,0,0
-84,-461,0,0,0,0,0,0,0,0,0,-1,1140,1485,0,0
-77,-461,0,0,0,0,0,0,0,0,0,-1,1147,1485,0,0
-70,-461,0,0,0,0,0,0,0,0,0,-1,1154,1485,0,0
-63,-461,0,0,0,0,0,0,0,0,0,-1,1161,1485,0,0
-56,-461,0,0,0,0,0,0,0,0,0,-1,1168,1485,0,0
-49,-461,0,0,0,0,0,0,0,0,0,-1,1175,1485,0,0
-42,-461,0,0,0,0,0,0,0,0,0,-1,1182,1485,0,0
-35,-461,0,0,0,0,0,0,0,0,0,-1,1189,1485,0,0
-28,-461,0,0,0,0,0,0,0,0,0,-1,1196,1485,0,0
-21,-461,0,0,0,0,0,0,0,0,0,-1,1203,1485,0,0
-14,-461,0,0,0,0,0,0,0,0,0,-1,1210,1485,0,0
-7,-461,0,0,0,0,0,0,0,0,0,-1,1217,1485,0,0
0,-461,0,0,0,0,0,0,0,0,0,-1,1224,1485,0,0
7,-461,0,0,0,0,0,0,0,0,0,-1,1231,1485,0,0
14,-461,0,0,0,0,0,0,0,0,0,-1,1238,1485,0,0
21,-461,0,0,0,0,0,0,0,0,0,-1,1245,1485,0,0
28,-461,0,0,0,0,0,0,0,0,0,-1,1252,1485,0,0
35,-461,0,0,0,0,0,0,0,0,0,-1,1259,1485,0,0
42,-461,0,0,0,0,0,0,0,0,0,-1,1266,1485,0,0
49,-461,0,0,0,0,0,0,0,0,0,-1,1273,1485,0,0
56,-461,0,0,0,0,0,0,0,0,0,-1,1280,1485,0,0
63,-461,0,0,0,0,0,0,0,0,0,-1,1287,1485,0,0
70,-461,0,0,0,0,0,0,0,0,0,-1,1294,1485,0,0
77,-461,0,0,0,0,0,0,0,0,0,-1,1301,1485,0,0
84,-461,0,0,0,0,0,0,0,0,0,-1,1308,1485,0,0
91,-461,0,0,0,0,0,0,0,0,0,-1,1315,1485,0,0
98,-461,0,0,0,0,0,0,0,0,0,-1,1322,1485,0,0
105,-461,0,0,0,0,0,0,0,0,0,-1,1329,1485,0,0
112,-461,0,0,0,0,0,0,0,0,0,-1,1336,1485,0,0
119,-461,0,0,0,0,0,0,0,0,0,-1,1343,1485,0,0
126,-461,0,0,0,0,0,0,0,0,0,-1,1350,1485,0,0
133,-461,0,0,0,0,0,0,0,0,0,-1,1357,1485,0,0
140,-461,0,0,0,0,0,0,0,0,0,-1,1364,1485,0,0
147,-461,0,0,0,0,0,0,0,0,0,-1,1371,1485,0,0
154,-461,0,0,0,0,0,0,0,0,0,-1,1378,1485,0,0
161,-461,0,0,0,0,0,0,0,0,0,-1,1385,1485,0,0
168,-461,0,0,0,0,0,0,0,0,0,-1,1392,1485,0,0
175,-461,0,0,0,0,0,0,0,0,0,-1,1399,1485,0,0
182,-461,0,0,0,0,0,0,0,0,0,-1,1406,1485,0,0
189,-461,0,0,0,0,0,0,0,0,0,-1,1413,1485,0,0
196,-461,0,0,0,0,0,0,0,0,0,-1,1420,1485,0,0
203,-461,0,0,0,0,0,0,0,0,0,-1,1427,1485,0,0
210,-461,0,0,0,0,0,0,0,0,0,-1,1434,1485,0,0
217,-461,0,0,0,0,0,0,0,0,0,-1,1441,1485,0,0
224,-461,0,0,0,0,0,0,0,0,0,-1,1448,1485,0,0
231,-461,0,0,0,0,0,0,0,0,0,-1,1455,1485,0,0
238,-461,0,0,0,0,0,0,0,0,0,-1,1462,1485,0,0
245,-461,0,0,0,0,0,0,0,0,0,-1,1469,1485,0,0
252,-461,0,0,0,0,0,0,0,0,0,-1,1476,1485,0,0
259,-461,0,0,0,0,0,0,0,0,0,-1,1483,1485,0,0
266,-461,0,0,0,0,0,0,0,0,0,-1,1490,1485,0,0
273,-461,0,0,0,0,0,0,0,0,0,-1,1497,1485,0,0
280,-461,0,0,0,0,0,0,0,0,0,-1,1504,1485,0,0
287,-461,0,0,0,0,0,0,0,0,0,-1,1511,1485,0,0
294,-461,0,0,0,0,0,0,0,0,0,-1,1518,1485,0,0
301,-461,0,0,0,0,0,0,0,0,0,-1,1525,1485,0,0
308,-461,0,0,0,0,0,0,0,0,0,-1,1532,1485,0,0
315,-461,0,0,0,0,0,0,0,0,0,-1,1539,1485,0,0
322,-461,0,0,0,0,0,0,0,0,0,-1,1546,1485,0,0
329,-461,0,0,0,0,0,0,0,0,0,-1,1553,1485,0,0
336,-461,0,0,0,0,0,0,0,0,0,-1,1560,1485,0,0
343,-461,0,0,0,0,0,0,0,0,0,-1,1567,1485,0,0
350,-461,0,0,0,0,0,0,0,0,0,-1,1574,1485,0,0
357,-461,0,0,0,0,0,0,0,0,0,-1,1581,1485,0,0
364,-461,0,0,0,0,0,0,0,0,0,-1,1588,1485,0,0
371,-461,0,0,0,0,0,0,0,0,0,-1,1595,1485,0,0
378,-461,0,0,0,0,0,0,0,0,0,-1,1602,1485,0,0
385,-461,0,0,0,0,0,0,0,0,0,-1,1609,1485,0,0
392,-461,0,0,0,0,0,0,0,0,0,-1,1616,1485,0,0
399,-461,0,0,0,0,0,0,0,0,0,-1,1623,1485,0,0
406,-461,0,0,0,0,0,0,0,0,0,-1,1630,1485,0,0
413,-461,0,0,0,0,0,0,0,0,0,-1,1637,1485,0,0
420,-461,0,0,0,0,0,0,0,0,0,-1,1644,1485,0,0
427,-461,0,0,0,0,0,0,0,0,0,-1,1651,1485,0,0
434,-461,0,0,0,0,0,0,0,0,0,-1,1658,1485,0,0
441,-461,0,0,0,0,0,0,0,0,0,-1,1665,1485,0,0
448,-461,0,0,0,0,0,0,0,0,0,-1,1672,1485,0,0
455,-461,0,0,0,0,0,0,0,0,0,-1,1679,1485,0,0
462,-461,0,0,0,0,0,0,0,0,0,-1,1686,1485,0,0
469,-461,0,0,0,0,0,0,0,0,0,-1,1693,1485,0,0
476,-461,14.4249,0.452515,0,0,0,0,0,0,0,-1,1700,1485,14.425,-0.452557
483,-461,13.2445,0.646606,0,0,0,0,0,0,0,-1,1707,1485,13.2445,-0.6466
490,-461,12.6997,1.63184,0,0,0,0,0,0,0,-1,1714,1485,12.6997,-1.63181
497,-461,11.884,2.36316,0,0,0,0,0,0,0,-1,1721,1485,11.8841,-2.36315
504,-461,11.6324,3.33008,0,0,0,0,0,0,0,-1,1728,1485,11.6325,-3.33011
511,-461,10.7784,3.86682,0,0,0,0,0,0,0,-1,1735,1485,10.7784,-3.86677
518,-461,9.94092,4.37708,0,0,0,0,0,0,0,-1,1742,1485,9.94092,-4.37704
525,-461,9.47327,4.99023,0,0,0,0,0,0,0,-1,1749,1485,9.47321,-4.99021
532,-461,9.22437,5.31995,0,0,0,0,0,0,0,-1,1756,1485,9.22436,-5.31996
539,-461,8.69177,5.99219,0,0,0,0,0,0,0,-1,1763,1485,8.69183,-5.99224
546,-461,8.53687,6.29761,0,0,0,0,0,0,0,-1,1770,1485,8.53684,-6.29763
553,-461,8.70972,6.52808,-0.00864876,-0.00769174,0.0155245,0.00736159,-0.0237021,0.800805,0.0187435,0.040224,1777,1485,8.70972,-6.52802
560,-461,8.78809,6.86865,-0.00780655,-0.00785957,0.0137354,0.0059024,-0.0215685,0.784433,0.0166979,0.0253391,1784,1485,8.78808,-6.86862
567,-461,8.82739,6.80298,-0.00680537,-0.00761699,0.0119324,0.00472814,-0.0191505,0.7684,0.0146005,0.0116283,1791,1485,8.82735,-6.80302
574,-461,8.82947,6.66113,-0.00564866,-0.00708428,0.00998245,0.00364175,-0.0163747,0.749506,0.0123112,0.0125528,1798,1485,8.8295,-6.66118
581,-461,8.81982,6.4978,-0.00466299,-0.00636641,0.0082641,0.00279318,-0.0138226,0.734049,0.0102735,0.0125698,1805,1485,8.81979,-6.49775
588,-461,8.80737,6.34216,-0.00381324,-0.00536241,0.0067134,0.00217011,-0.0113458,0.727963,0.00838139,0.0104112,1812,1485,8.80742,-6.3421
595,-461,8.80298,6.20166,-0.00327611,-0.00458408,0.00542685,0.00153602,-0.00939621,0.725433,0.00683393,0.00900261,1819,1485,8.80293,-6.2017
602,-461,8.80298,6.04236,-0.00247479,-0.00375299,0.00415993,0.00109485,-0.00732262,0.709178,0.00528464,0.00952159,1826,1485,8.80298,-6.04234
609,-461,8.80713,5.87952,-0.00166196,-0.003114,0.00274455,0.000450979,-0.00522694,0.656094,0.00364426,0.0106337,1833,1485,8.80712,-5.8795
616,-461,8.82617,5.71033,-0.000960372,-0.00244944,0.00166417,0.000118217,-0.00352803,0.575057,0.0023924,0.0131735,1840,1485,8.82613,-5.71037
623,-461,8.82202,5.56531,-0.000340831,-0.00197097,0.000833338,9.77039e-06,-0.00232158,0.398239,0.00155098,0.011539,1847,1485,8.82201,-5.56531
630,-461,8.81128,5.4126,0.000231951,-0.00185262,2.13569e-05,0.00023217,-0.00185283,0.0102438,0.00131944,0.00896393,1854,1485,8.81123,-5.41254
637,-461,8.82861,5.24939,0.000936964,-0.00206546,-0.000825318,0.00114887,-0.00227737,-0.251333,0.00201359,0.0105136,1861,1485,8.82856,-5.24934
644,-461,8.85718,5.10608,0.00181019,-0.00246582,-0.0017969,0.00246501,-0.00312065,-0.349463,0.00323228,0.0195529,1868,1485,8.85715,-5.10607
651,-461,8.87524,4.90271,0.00289234,-0.00305928,-0.00296135,0.00411475,-0.00428169,-0.391482,0.00484801,0.0248744,1875,1485,8.87524,-4.90272
658,-461,9.22754,4.43164,0.00435228,-0.00359839,-0.00459525,0.0064531,-0.00569921,-0.428801,0.00702064,0.0391969,1882,1485,9.22754,-4.43164
665,-461,9.64087,4.02783,0,0,0,0,0,0,0,-1,1889,1485,9.64083,-4.02789
672,-461,10.071,3.63025,0,0,0,0,0,0,0,-1,1896,1485,10.071,-3.63026
679,-461,10.0535,2.16321,0,0,0,0,0,0,0,-1,1903,1485,10.0535,-2.16317
686,-461,10.8195,1.84192,0,0,0,0,0,0,0,-1,1910,1485,10.8194,-1.84195
693,-461,0,0,0,0,0,0,0,0,0,-1,1917,1485,0,0
700,-461,0,0,0,0,0,0,0,0,0,-1,1924,1485,0,0
707,-461,0,0,0,0,0,0,0,0,0,-1,1931,1485,0,0
714,-461,0,0,0,0,0,0,0,0,0,-1,1938,1485,0,0
721,-461,0,0,0,0,0,0,0,0,0,-1,1945,1485,0,0
728,-461,0,0,0,0,0,0,0,0,0,-1,1952,1485,0,0
735,-461,0,0,0,0,0,0,0,0,0,-1,1959,1485,0,0
742,-461,0,0,0,0,0,0,0,0,0,-1,1966,1485,0,0
749,-461,0,0,0,0,0,0,0,0,0,-1,1973,1485,0,0
756,-461,0,0,0,0,0,0,0,0,0,-1,1980,1485,0,0
763,-461,0,0,0,0,0,0,0,0,0,-1,1987,1485,0,0
770,-461,0,0,0,0,0,0,0,0,0,-1,1994,1485,0,0
777,-461,0,0,0,0,0,0,0,0,0,-1,2001,1485,0,0
784,-461,0,0,0,0,0,0,0,0,0,-1,2008,1485,0,0
791,-461,0,0,0,0,0,0,0,0,0,-1,2015,1485,0,0
798,-461,0,0,0,0,0,0,0,0,0,-1,2022,1485,0,0
805,-461,0,0,0,0,0,0,0,0,0,-1,2029,1485,0,0
812,-461,0,0,0,0,0,0,0,0,0,-1,2036,1485,0,0
-700,-468,0,0,0,0,0,0,0,0,0,-1,524,1492,0,0
-693,-468,0,0,0,0,0,0,0,0,0,-1,531,1492,0,0
-686,-468,0,0,0,0,0,0,0,0,0,-1,538,1492,0,0
-679,-468,0,0,0,0,0,0,0,0,0,-1,545,1492,0,0
-672,-468,0,0,0,0,0,0,0,0,0,-1,552,1492,0,0
-665,-468,0,0,0,0,0,0,0,0,0,-1,559,1492,0,0
-658,-468,0,0,0,0,0,0,0,0,0,-1,566,1492,0,0
-651,-468,0,0,0,0,0,0,0,0,0,-1,573,1492,0,0
-644,-468,0,0,0,0,0,0,0,0,0,-1,580,1492,0,0
-637,-468,0,0,0,0,0,0,0,0,0,-1,587,1492,0,0
-630,-468,0,0,0,0,0,0,0,0,0,-1,594,1492,0,0
-623,-468,0,0,0,0,0,0,0,0,0,-1,601,1492,0,0
-616,-468,0,0,0,0,0,0,0,0,0,-1,608,1492,0,0
-609,-468,0,0,0,0,0,0,0,0,0,-1,615,1492,0,0
-602,-468,0,0,0,0,0,0,0,0,0,-1,622,1492,0,0
-595,-468,0,0,0,0,0,0,0,0,0,-1,629,1492,0,0
-588,-468,0,0,0,0,0,0,0,0,0,-1,636,1492,0,0
-581,-468,0,0,0,0,0,0,0,0,0,-1,643,1492,0,0
-574,-468,0,0,0,0,0,0,0,0,0,-1,650,1492,0,0
-567,-468,-0.0491333,0.895996,0,0,0,0,0,0,0,-1,657,1492,-0.0491181,-0.896051
-560,-468,-5.11304,1.31372,0,0,0,0,0,0,0,-1,664,1492,-5.11304,-1.31372
-553,-468,-4.50629,2.42383,0,0,0,0,0,0,0,-1,671,1492,-4.50626,-2.42383
-546,-468,-4.11877,3.40369,0.0471938,0.0233025,0.0681229,0.10441,-0.0339142,0.698603,0.0832472,0.0419767,678,1492,-4.11879,-3.40364
-539,-468,-3.78278,4.27979,0.0312204,0.0189676,0.0520432,0.0774965,-0.0273085,0.726809,0.0627793,0.0423147,685,1492,-3.78275,-4.27983
-532,-468,-1.89642,2.72632,0,0,0,0,0,0,0,-1,692,1492,-1.8964,-2.72636
-525,-468,-1.39075,2.74634,0.0098688,0.0111438,0.0285172,0.0390306,-0.018018,0.796574,0.0336735,0.0422012,699,1492,-1.39076,-2.74632
-518,-468,-1.24701,3.07471,0.00334704,0.00811894,0.0198968,0.0257723,-0.0143063,0.845071,0.023453,0.0414237,706,1492,-1.24701,-3.07467
-511,-468,-1.36322,3.38733,-0.00114523,0.00558951,0.013033,0.0156832,-0.0112389,0.911819,0.0156139,0.0327974,713,1492,-1.36324,-3.38727
-504,-468,-1.35419,3.61011,-0.00311544,0.00357145,0.00861514,0.00946918,-0.00901318,0.970496,0.0106719,0.0129047,720,1492,-1.35422,-3.61009
-497,-468,-1.36676,3.81421,-0.00356358,0.00189149,0.00548424,0.00528901,-0.00696111,1.01616,0.00709454,0.0085322,727,1492,-1.36674,-3.81418
-490,-468,-1.37238,3.99707,-0.00367759,0.000489075,0.0030133,0.00206911,-0.00525763,1.08786,0.00436158,0.00791321,734,1492,-1.37239,-3.99705
-483,-468,-1.38129,4.18567,-0.00312616,-0.000552965,0.00108543,-0.000156263,-0.00352286,1.2204,0.00229826,0.00815982,741,1492,-1.38129,-4.18562
-476,-468,-1.38641,4.37402,-0.00182387,-0.00165535,7.23514e-05,-0.00162855,-0.00185067,1.21605,0.00116681,0.00868539,748,1492,-1.38643,-4.37407
-469,-468,-1.38885,4.53601,-0.000521387,-0.00266576,-0.000629381,-0.000350309,-0.00283683,-0.265406,0.00178594,0.0131227,755,1492,-1.38885,-4.53598
-462,-468,-1.37494,4.71155,0.000241997,-0.00353456,-0.00174601,0.000925513,-0.00421808,-0.373135,0.00316598,0.0225975,762,1492,-1.37496,-4.71158
-455,-468,-1.41113,4.88354,0.000624549,-0.0047959,-0.0025483,0.00163442,-0.00580577,-0.377308,0.00451503,0.0217618,769,1492,-1.41114,-4.8836
-448,-468,-1.40015,5.06677,0.000879911,-0.00635084,-0.00334072,0.00218707,-0.00765801,-0.372967,0.00596944,0.014055,776,1492,-1.40014,-5.06674
-441,-468,-1.37042,5.24695,0.00135073,-0.00835195,-0.00421827,0.00292818,-0.0099294,-0.357855,0.00778152,0.0124696,783,1492,-1.37042,-5.24692
-434,-468,-1.34454,5.43262,0.00180688,-0.0105725,-0.00510867,0.00364282,-0.0124084,-0.345004,0.00971691,0.0120243,790,1492,-1.34453,-5.43257
-427,-468,-1.2948,5.57349,0.00236896,-0.013057,-0.00600543,0.00443121,-0.0151193,-0.330781,0.0118364,0.0151404,797,1492,-1.29478,-5.57346
-420,-468,-1.20178,5.64648,0.00283552,-0.0157243,-0.0068659,0.00509932,-0.0179881,-0.318492,0.0140048,0.024395,804,1492,-1.20177,-5.6465
-413,-468,-1.11151,5.69714,0.00322604,-0.0185146,-0.00761954,0.00563055,-0.0209191,-0.305681,0.0161534,0.0413317,811,1492,-1.11149,-5.69708
-406,-468,-0.862549,5.65479,0.00317056,-0.0206464,-0.00864228,0.00597605,-0.0234519,-0.313892,0.0179611,0.045905,818,1492,-0.862547,-5.65478
-399,-468,-1.00397,6.07214,0,0,0,0,0,0,0,-1,825,1492,-1.00399,-6.07218
-392,-468,-0.979797,6.43286,0,0,0,0,0,0,0,-1,832,1492,-0.979772,-6.43287
-385,-468,0.465759,5.35864,0,0,0,0,0,0,0,-1,839,1492,0.465732,-5.35864
-378,-468,1.99835,3.25391,0,0,0,0,0,0,0,-1,846,1492,1.99837,-3.2539
-371,-468,-0.31842,3.1532,0,0,0,0,0,0,0,-1,853,1492,-0.318441,-3.15324
-364,-468,-0.966736,2.14563,0,0,0,0,0,0,0,-1,860,1492,-0.966735,-2.14557
-357,-468,-3.06787,3.22742,0,0,0,0,0,0,0,-1,867,1492,-3.06784,-3.2274
-350,-468,-3.18658,4.12659,0,0,0,0,0,0,0,-1,874,1492,-3.18659,-4.12658
-343,-468,0,0,0,0,0,0,0,0,0,-1,881,1492,0,0
-336,-468,0,0,0,0,0,0,0,0,0,-1,888,1492,0,0
-329,-468,0,0,0,0,0,0,0,0,0,-1,895,1492,0,0
-322,-468,0,0,0,0,0,0,0,0,0,-1,902,1492,0,0
-315,-468,0,0,0,0,0,0,0,0,0,-1,909,1492,0,0
-308,-468,0,0,0,0,0,0,0,0,0,-1,916,1492,0,0
-301,-468,0,0,0,0,0,0,0,0,0,-1,923,1492,0,0
-294,-468,0,0,0,0,0,0,0,0,0,-1,930,1492,0,0
-287,-468,0,0,0,0,0,0,0,0,0,-1,937,1492,0,0
-280,-468,0,0,0,0,0,0,0,0,0,-1,944,1492,0,0
-273,-468,0,0,0,0,0,0,0,0,0,-1,951,1492,0,0
-266,-468,0,0,0,0,0,0,0,0,0,-1,958,1492,0,0
-259,-468,0,0,0,0,0,0,0,0,0,-1,965,1492,0,0
-252,-468,0,0,0,0,0,0,0,0,0,-1,972,1492,0,0
-245,-468,0,0,0,0,0,0,0,0,0,-1,979,1492,0,0
-238,-468,0,0,0,0,0,0,0,0,0,-1,986,1492,0,0
-231,-468,0,0,0,0,0,0,0,0,0,-1,993,1492,0,0
-224,-468,0,0,0,0,0,0,0,0,0,-1,1000,1492,0,0
-217,-468,0,0,0,0,0,0,0,0,0,-1,1007,1492,0,0
-210,-468,0,0,0,0,0,0,0,0,0,-1,1014,1492,0,0
-203,-468,0,0,0,0,0,0,0,0,0,-1,1021,1492,0,0
-196,-468,0,0,0,0,0,0,0,0,0,-1,1028,1492,0,0
-189,-468,0,0,0,0,0,0,0,0,0,-1,1035,1492,0,0
-182,-468,0,0,0,0,0,0,0,0,0,-1,1042,1492,0,0
-175,-468,0,0,0,0,0,0,0,0,0,-1,1049,1492,0,0
-168,-468,0,0,0,0,0,0,0,0,0,-1,1056,1492,0,0
-161,-468,0,0,0,0,0,0,0,0,0,-1,1063,1492,0,0
-154,-468,0,0,0,0,0,0,0,0,0,-1,1070,1492,0,0
-147,-468,0,0,0,0,0,0,0,0,0,-1,1077,1492,0,0
-140,-468,0,0,0,0,0,0,0,0,0,-1,1084,1492,0,0
-133,-468,0,0,0,0,0,0,0,0,0,-1,1091,1492,0,0
-126,-468,0,0,0,0,0,0,0,0,0,-1,1098,1492,0,0
-119,-468,0,0,0,0,0,0,0,0,0,-1,1105,1492,0,0
-112,-468,0,0,0,0,0,0,0,0,0,-1,1112,1492,0,0
-105,-468,0,0,0,0,0,0,0,0,0,-1,1119,1492,0,0
-98,-468,0,0,0,0,0,0,0,0,0,-1,1126,1492,0,0
-91,-468,0,0,0,0,0,0,0,0,0,-1,1133,1492,0,0
-84,-468,0,0,0,0,0,0,0,0,0,-1,1140,1492,0,0
-77,-468,0,0,0,0,0,0,0,0,0,-1,1147,1492,0,0
-70,-468,0,0,0,0,0,0,0,0,0,-1,1154,1492,0,0
-63,-468,0,0,0,0,0,0,0,0,0,-1,1161,1492,0,0
-56,-468,0,0,0,0,0,0,0,0,0,-1,1168,1492,0,0
-49,-468,0,0,0,0,0,0,0,0,0,-1,1175,1492,0,0
-42,-468,0,0,0,0,0,0,0,0,0,-1,1182,1492,0,0
-35,-468,0,0,0,0,0,0,0,0,0,-1,1189,1492,0,0
-28,-468,0,0,0,0,0,0,0,0,0,-1,1196,1492,0,0
-21,-468,0,0,0,0,0,0,0,0,0,-1,1203,1492,0,0
-14,-468,0,0,0,0,0,0,0,0,0,-1,1210,1492,0,0
-7,-468,0,0,0,0,0,0,0,0,0,-1,1217,1492,0,0
0,-468,0,0,0,0,0,0,0,0,0,-1,1224,1492,0,0
7,-468,0,0,0,0,0,0,0,0,0,-1,1231,1492,0,0
14,-468,0,0,0,0,0,0,0,0,0,-1,1238,1492,0,0
21,-468,0,0,0,0,0,0,0,0,0,-1,1245,1492,0,0
28,-468,0,0,0,0,0,0,0,0,0,-1,1252,1492,0,0
35,-468,0,0,0,0,0,0,0,0,0,-1,1259,1492,0,0
42,-468,0,0,0,0,0,0,0,0,0,-1,1266,1492,0,0
49,-468,0,0,0,0,0,0,0,0,0,-1,1273,1492,0,0
56,-468,0,0,0,0,0,0,0,0,0,-1,1280,1492,0,0
63,-468,0,0,0,0,0,0,0,0,0,-1,1287,1492,0,0
70,-468,0,0,0,0,0,0,0,0,0,-1,1294,1492,0,0
77,-468,0,0,0,0,0,0,0,0,0,-1,1301,1492,0,0
84,-468,0,0,0,0,0,0,0,0,0,-1,1308,1492,0,0
91,-468,0,0,0,0,0,0,0,0,0,-1,1315,1492,0,0
98,-468,0,0,0,0,0,0,0,0,0,-1,1322,1492,0,0
105,-468,0,0,0,0,0,0,0,0,0,-1,1329,1492,0,0
112,-468,0,0,0,0,0,0,0,0,0,-1,1336,1492,0,0
119,-468,0,0,0,0,0,0,0,0,0,-1,1343,1492,0,0
126,-468,0,0,0,0,0,0,0,0,0,-1,1350,1492,0,0
133,-468,0,0,0,0,0,0,0,0,0,-1,1357,1492,0,0
140,-468,0,0,0,0,0,0,0,0,0,-1,1364,1492,0,0
147,-468,0,0,0,0,0,0,0,0,0,-1,1371,1492,0,0
154,-468,0,0,0,0,0,0,0,0,0,-1,1378,1492,0,0
161,-468,0,0,0,0,0,0,0,0,0,-1,1385,1492,0,0
168,-468,0,0,0,0,0,0,0,0,0,-1,1392,1492,0,0
175,-468,0,0,0,0,0,0,0,0,0,-1,1399,1492,0,0
182,-468,0,0,0,0,0,0,0,0,0,-1,1406,1492,0,0
189,-468,0,0,0,0,0,0,0,0,0,-1,1413,1492,0,0
196,-468,0,0,0,0,0,0,0,0,0,-1,1420,1492,0,0
203,-468,0,0,0,0,0,0,0,0,0,-1,1427,1492,0,0
210,-468,0,0,0,0,0,0,0,0,0,-1,1434,1492,0,0
217,-468,0,0,0,0,0,0,0,0,0,-1,1441,1492,0,0
224,-468,0,0,0,0,0,0,0,0,0,-1,1448,1492,0,0
231,-468,0,0,0,0,0,0,0,0,0,-1,1455,1492,0,0
238,-468,0,0,0,0,0,0,0,0,0,-1,1462,1492,0,0
245,-468,0,0,0,0,0,0,0,0,0,-1,1469,1492,0,0
252,-468,0,0,0,0,0,0,0,0,0,-1,1476,1492,0,0
259,-468,0,0,0,0,0,0,0,0,0,-1,1483,1492,0,0
266,-468,0,0,0,0,0,0,0,0,0,-1,1490,1492,0,0
273,-468,0,0,0,0,0,0,0,0,0,-1,1497,1492,0,0
280,-468,0,0,0,0,0,0,0,0,0,-1,1504,1492,0,0
287,-468,0,0,0,0,0,0,0,0,0,-1,1511,1492,0,0
294,-468,0,0,0,0,0,0,0,0,0,-1,1518,1492,0,0
301,-468,0,0,0,0,0,0,0,0,0,-1,1525,1492,0,0
308,-468,0,0,0,0,0,0,0,0,0,-1,1532,1492,0,0
315,-468,0,0,0,0,0,0,0,0,0,-1,1539,1492,0,0
322,-468,0,0,0,0,0,0,0,0,0,-1,1546,1492,0,0
329,-468,0,0,0,0,0,0,0,0,0,-1,1553,1492,0,0
336,-468,0,0,0,0,0,0,0,0,0,-1,1560,1492,0,0
343,-468,0,0,0,0,0,0,0,0,0,-1,1567,1492,0,0
350,-468,0,0,0,0,0,0,0,0,0,-1,1574,1492,0,0
357,-468,0,0,0,0,0,0,0,0,0,-1,1581,1492,0,0
364,-468,0,0,0,0,0,0,0,0,0,-1,1588,1492,0,0
371,-468,0,0,0,0,0,0,0,0,0,-1,1595,1492,0,0
378,-468,0,0,0,0,0,0,0,0,0,-1,1602,1492,0,0
385,-468,0,0,0,0,0,0,0,0,0,-1,1609,1492,0,0
392,-468,0,0,0,0,0,0,0,0,0,-1,1616,1492,0,0
399,-468,0,0,0,0,0,0,0,0,0,-1,1623,1492,0,0
406,-468,0,0,0,0,0,0,0,0,0,-1,1630,1492,0,0
413,-468,0,0,0,0,0,0,0,0,0,-1,1637,1492,0,0
420,-468,0,0,0,0,0,0,0,0,0,-1,1644,1492,0,0
427,-468,0,0,0,0,0,0,0,0,0,-1,1651,1492,0,0
434,-468,0,0,0,0,0,0,0,0,0,-1,1658,1492,0,0
441,-468,0,0,0,0,0,0,0,0,0,-1,1665,1492,0,0
448,-468,0,0,0,0,0,0,0,0,0,-1,1672,1492,0,0
455,-468,0,0,0,0,0,0,0,0,0,-1,1679,1492,0,0
462,-468,0,0,0,0,0,0,0,0,0,-1,1686,1492,0,0
469,-468,15.6879,1.2677,0,0,0,0,0,0,0,-1,1693,1492,15.6879,-1.26772
476,-468,14.9318,1.61865,0,0,0,0,0,0,0,-1,1700,1492,14.9318,-1.61869
483,-468,14.1731,1.9281,0,0,0,0,0,0,0,-1,1707,1492,14.173,-1.92815
490,-468,13.1254,2.44275,0,0,0,0,0,0,0,-1,1714,1492,13.1254,-2.44272
497,-468,12.1724,3.12256,0,0,0,0,0,0,0,-1,1721,1492,12.1723,-3.12255
504,-468,11.4351,3.83447,0,0,0,0,0,0,0,-1,1728,1492,11.4351,-3.83446
511,-468,10.5009,4.36938,0,0,0,0,0,0,0,-1,1735,1492,10.5008,-4.36935
518,-468,9.69836,4.71045,0,0,0,0,0,0,0,-1,1742,1492,9.69835,-4.71049
525,-468,9.44836,5.51025,0,0,0,0,0,0,0,-1,1749,1492,9.44831,-5.51021
532,-468,8.92566,6.34497,0,0,0,0,0,0,0,-1,1756,1492,8.92565,-6.34493
539,-468,8.83899,6.80408,0,0,0,0,0,0,0,-1,1763,1492,8.83893,-6.80405
546,-468,8.60071,6.71533,0,0,0,0,0,0,0,-1,1770,1492,8.60065,-6.71536
553,-468,8.68689,6.80713,-0.00901424,-0.00742292,0.0130721,0.00487767,-0.0213148,0.815794,0.0160842,0.0344787,1777,1492,8.68687,-6.80713
560,-468,8.68042,6.90857,-0.00760345,-0.00704505,0.011189,0.00386827,-0.0185168,0.797872,0.0138157,0.0176596,1784,1492,8.68044,-6.90856
567,-468,8.67017,6.83252,-0.00617249,-0.00644749,0.00946212,0.00315313,-0.0157731,0.778133,0.0117088,0.0124351,1791,1492,8.67012,-6.83247
574,-468,8.68689,6.67065,-0.00476927,-0.00571787,0.00770381,0.00247482,-0.012962,0.754654,0.00957348,0.0127591,1798,1492,8.68689,-6.67071
581,-468,8.67224,6.49561,-0.00375715,-0.00499101,0.00630678,0.00196281,-0.010711,0.736643,0.00787686,0.0131674,1805,1492,8.67226,-6.49555
588,-468,8.64197,6.33643,-0.00296028,-0.00403442,0.00506525,0.00159629,-0.00859099,0.73258,0.00632691,0.0122566,1812,1492,8.64195,-6.33647
595,-468,8.65002,6.18909,-0.00259106,-0.00338381,0.00410592,0.00113758,-0.00711244,0.737278,0.00516277,0.0106998,1819,1492,8.65008,-6.18906
602,-468,8.65784,6.0365,-0.00209394,-0.00278484,0.00320388,0.000783059,-0.00566184,0.731694,0.00406083,0.00859627,1826,1492,8.65783,-6.03656
609,-468,8.64172,5.87207,-0.00156376,-0.00235727,0.00213323,0.000209301,-0.00413033,0.693455,0.0028259,0.0088791,1833,1492,8.64177,-5.87204
616,-468,8.6593,5.72327,-0.00131047,-0.0020105,0.00143371,-0.000184669,-0.0031363,0.665673,0.00203211,0.00980012,1840,1492,8.65924,-5.72323
623,-468,8.66162,5.57056,-0.00118976,-0.00191649,0.000938696,-0.000546557,-0.0025597,0.600733,0.0015566,0.0106237,1847,1492,8.66161,-5.57058
630,-468,8.66882,5.40283,-0.00115821,-0.00220795,0.000468605,-0.000979461,-0.0023867,0.364412,0.00138532,0.010117,1854,1492,8.66877,-5.40284
637,-468,8.68652,5.22009,-0.00104341,-0.00284728,-9.39367e-05,-0.00103853,-0.00285216,-0.0518881,0.00166684,0.0134427,1861,1492,8.68652,-5.22015
644,-468,8.6698,5.07483,-0.000778538,-0.00364198,-0.000882731,-0.000528284,-0.00389224,-0.27625,0.00243789,0.028267,1868,1492,8.66982,-5.07478
651,-468,8.87256,4.90088,-0.000215301,-0.0045348,-0.00209707,0.000635304,-0.00538541,-0.385338,0.00381969,0.044704,1875,1492,8.87258,-4.9009
658,-468,9.39209,4.56152,0.00077197,-0.00533308,-0.00398657,0.00274047,-0.00730158,-0.458661,0.00599381,0.0420183,1882,1492,9.39206,-4.56158
665,-468,9.85754,4.15771,0,0,0,0,0,0,0,-1,1889,1492,9.85759,-4.15777
672,-468,8.50745,4.37378,0,0,0,0,0,0,0,-1,1896,1492,8.50749,-4.3738
679,-468,11.2191,1.91968,0,0,0,0,0,0,0,-1,1903,1492,11.2191,-1.91965
686,-468,11.9252,1.42285,0,0,0,0,0,0,0,-1,1910,1492,11.9252,-1.42291
693,-468,0,0,0,0,0,0,0,0,0,-1,1917,1492,0,0
700,-468,0,0,0,0,0,0,0,0,0,-1,1924,1492,0,0
707,-468,0,0,0,0,0,0,0,0,0,-1,1931,1492,0,0
714,-468,0,0,0,0,0,0,0,0,0,-1,1938,1492,0,0
721,-468,0,0,0,0,0,0,0,0,0,-1,1945,1492,0,0
728,-468,0,0,0,0,0,0,0,0,0,-1,1952,1492,0,0
735,-468,0,0,0,0,0,0,0,0,0,-1,1959,1492,0,0
742,-468,0,0,0,0,0,0,0,0,0,-1,1966,1492,0,0
749,-468,0,0,0,0,0,0,0,0,0,-1,1973,1492,0,0
756,-468,0,0,0,0,0,0,0,0,0,-1,1980,1492,0,0
763,-468,0,0,0,0,0,0,0,0,0,-1,1987,1492,0,0
770,-468,0,0,0,0,0,0,0,0,0,-1,1994,1492,0,0
777,-468,0,0,0,0,0,0,0,0,0,-1,2001,1492,0,0
784,-468,0,0,0,0,0,0,0,0,0,-1,2008,1492,0,0
791,-468,0,0,0,0,0,0,0,0,0,-1,2015,1492,0,0
798,-468,0,0,0,0,0,0,0,0,0,-1,2022,1492,0,0
805,-468,0,0,0,0,0,0,0,0,0,-1,2029,1492,0,0
812,-468,0,0,0,0,0,0,0,0,0,-1,2036,1492,0,0
-700,-475,0,0,0,0,0,0,0,0,0,-1,524,1499,0,0
-693,-475,0,0,0,0,0,0,0,0,0,-1,531,1499,0,0
-686,-475,0,0,0,0,0,0,0,0,0,-1,538,1499,0,0
-679,-475,0,0,0,0,0,0,0,0,0,-1,545,1499,0,0
-672,-475,0,0,0,0,0,0,0,0,0,-1,552,1499,0,0
-665,-475,0,0,0,0,0,0,0,0,0,-1,559,1499,0,0
-658,-475,0,0,0,0,0,0,0,0,0,-1,566,1499,0,0
-651,-475,0,0,0,0,0,0,0,0,0,-1,573,1499,0,0
-644,-475,0,0,0,0,0,0,0,0,0,-1,580,1499,0,0
-637,-475,0,0,0,0,0,0,0,0,0,-1,587,1499,0,0
-630,-475,0,0,0,0,0,0,0,0,0,-1,594,1499,0,0
-623,-475,0,0,0,0,0,0,0,0,0,-1,601,1499,0,0
-616,-475,0,0,0,0,0,0,0,0,0,-1,608,1499,0,0
-609,-475,0,0,0,0,0,0,0,0,0,-1,615,1499,0,0
-602,-475,0,0,0,0,0,0,0,0,0,-1,622,1499,0,0
-595,-475,0,0,0,0,0,0,0,0,0,-1,629,1499,0,0
-588,-475,0,0,0,0,0,0,0,0,0,-1,636,1499,0,0
-581,-475,0,0,0,0,0,0,0,0,0,-1,643,1499,0,0
-574,-475,0,0,0,0,0,0,0,0,0,-1,650,1499,0,0
-567,-475,0,0,0,0,0,0,0,0,0,-1,657,1499,0,0
-560,-475,-5.22852,0.939697,0,0,0,0,0,0,0,-1,664,1499,-5.22854,-0.939712
-553,-475,-4.62872,2.05823,0.0587777,0.0267321,0.0867169,0.13094,-0.0454298,0.694043,0.105741,0.0472947,671,1499,-4.6287,-2.0582
-546,-475,-4.20068,3.09619,0.0393241,0.0222982,0.0678582,0.0992012,-0.037579,0.722998,0.0815978,0.0433885,678,1499,-4.20069,-3.0962
-539,-475,-3.80554,4.12378,0.0236697,0.0178487,0.0521423,0.0729827,-0.0314642,0.757518,0.0618702,0.0445153,685,1499,-3.80557,-4.12376
-532,-475,-0.101074,2.27136,0,0,0,0,0,0,0,-1,692,1499,-0.101063,-2.27131
-525,-475,-0.459656,2.67004,0.00397266,0.0101173,0.029282,0.0364878,-0.0223978,0.837668,0.0343205,0.0415485,699,1499,-0.459631,-2.67008
-518,-475,-1.06592,3.24353,-0.0014617,0.00725519,0.020948,0.0242934,-0.0184999,0.887965,0.024782,0.0478864,706,1499,-1.06593,-3.24358
-511,-475,-1.56805,3.4458,-0.00492006,0.00492993,0.0142299,0.0150631,-0.0150532,0.951997,0.0173876,0.0467974,713,1499,-1.56803,-3.44583
-504,-475,-1.19183,3.62769,-0.00610678,0.00309826,0.00966234,0.00919827,-0.0122068,1.00767,0.0123988,0.0268271,720,1499,-1.19186,-3.62773
-497,-475,-1.18683,3.82727,-0.00606069,0.00152837,0.00624076,0.00503764,-0.00956996,1.05855,0.00856795,0.0125849,727,1499,-1.18686,-3.82731
-490,-475,-1.1922,4.00073,-0.00568581,0.000310643,0.00351013,0.00192874,-0.0073039,1.13885,0.00562353,0.00810827,734,1499,-1.19219,-4.00075
-483,-475,-1.1933,4.19128,-0.00456409,-0.000430832,0.00146285,3.45143e-05,-0.00502943,1.26281,0.00336452,0.0082716,741,1499,-1.19329,-4.1913
-476,-475,-1.20038,4.36694,-0.00276585,-0.00121947,0.000457011,-0.00109451,-0.00289082,1.30388,0.00168533,0.0100155,748,1499,-1.20037,-4.36699
-469,-475,-1.19006,4.5365,-0.00101857,-0.00194068,-0.000262183,-0.000949234,-0.00201002,-0.258526,0.00116108,0.0122306,755,1499,-1.19007,-4.53655
-462,-475,-1.17432,4.71814,7.61938e-05,-0.00246127,-0.00128786,0.000615293,-0.00300037,-0.396439,0.00223377,0.0167184,762,1499,-1.17434,-4.7181
-455,-475,-1.19781,4.89795,0.000728359,-0.00350925,-0.00207949,0.00157833,-0.00435922,-0.388017,0.00355116,0.0143826,769,1499,-1.19784,-4.89796
-448,-475,-1.21405,5.07129,0.00127998,-0.00484169,-0.00287032,0.00241527,-0.00597698,-0.376643,0.0049886,0.012641,776,1499,-1.21405,-5.07124
-441,-475,-1.18994,5.2738,0.00204569,-0.00664298,-0.00375561,0.00344399,-0.00804128,-0.356422,0.00680579,0.0166912,783,1499,-1.18996,-5.27381
-434,-475,-1.18719,5.41907,0.00284553,-0.00875611,-0.00471625,0.00452084,-0.0104314,-0.341318,0.00885466,0.0105863,790,1499,-1.18717,-5.41909
-427,-475,-1.16144,5.61169,0.00384853,-0.0113289,-0.00581196,0.00581845,-0.0132988,-0.32679,0.0113155,0.0119411,797,1499,-1.16146,-5.61164
-420,-475,-1.07953,5.7533,0.00482375,-0.014428,-0.00713467,0.00717957,-0.0167838,-0.318922,0.0142008,0.0176339,804,1499,-1.07954,-5.75335
-413,-475,-0.827942,5.40991,0,0,0,0,0,0,0,-1,811,1499,-0.827972,-5.40996
-406,-475,-0.944031,5.91272,0,0,0,0,0,0,0,-1,818,1499,-0.944016,-5.91277
-399,-475,-0.792847,5.7981,0,0,0,0,0,0,0,-1,825,1499,-0.79284,-5.79806
-392,-475,-0.0337524,5.43164,0,0,0,0,0,0,0,-1,832,1499,-0.0337643,-5.43163
-385,-475,1.18372,2.73999,0,0,0,0,0,0,0,-1,839,1499,1.18372,-2.73995
-378,-475,1.31409,2.90149,0,0,0,0,0,0,0,-1,846,1499,1.31411,-2.90151
-371,-475,2.3476,3.31116,0,0,0,0,0,0,0,-1,853,1499,2.34761,-3.31121
-364,-475,1.04462,9.05823,0,0,0,0,0,0,0,-1,860,1499,1.04461,-9.05825
-357,-475,-0.262756,7.97205,0,0,0,0,0,0,0,-1,867,1499,-0.262784,-7.97205
-350,-475,-2.77173,4.35486,0,0,0,0,0,0,0,-1,874,1499,-2.77175,-4.35491
-343,-475,-6.81641,-1.95203,0,0,0,0,0,0,0,-1,881,1499,-6.81643,1.95198
-336,-475,0,0,0,0,0,0,0,0,0,-1,888,1499,0,0
-329,-475,0,0,0,0,0,0,0,0,0,-1,895,1499,0,0
-322,-475,0,0,0,0,0,0,0,0,0,-1,902,1499,0,0
-315,-475,0,0,0,0,0,0,0,0,0,-1,909,1499,0,0
-308,-475,0,0,0,0,0,0,0,0,0,-1,916,1499,0,0
-301,-475,0,0,0,0,0,0,0,0,0,-1,923,1499,0,0
-294,-475,0,0,0,0,0,0,0,0,0,-1,930,1499,0,0
-287,-475,0,0,0,0,0,0,0,0,0,-1,937,1499,0,0
-280,-475,0,0,0,0,0,0,0,0,0,-1,944,1499,0,0
-273,-475,0,0,0,0,0,0,0,0,0,-1,951,1499,0,0
-266,-475,0,0,0,0,0,0,0,0,0,-1,958,1499,0,0
-259,-475,0,0,0,0,0,0,0,0,0,-1,965,1499,0,0
-252,-475,0,0,0,0,0,0,0,0,0,-1,972,1499,0,0
-245,-475,0,0,0,0,0,0,0,0,0,-1,979,1499,0,0
-238,-475,0,0,0,0,0,0,0,0,0,-1,986,1499,0,0
-231,-475,0,0,0,0,0,0,0,0,0,-1,993,1499,0,0
-224,-475,0,0,0,0,0,0,0,0,0,-1,1000,1499,0,0
-217,-475,0,0,0,0,0,0,0,0,0,-1,1007,1499,0,0
-210,-475,0,0,0,0,0,0,0,0,0,-1,1014,1499,0,0
-203,-475,0,0,0,0,0,0,0,0,0,-1,1021,1499,0,0
-196,-475,0,0,0,0,0,0,0,0,0,-1,1028,1499,0,0
-189,-475,0,0,0,0,0,0,0,0,0,-1,1035,1499,0,0
-182,-475,0,0,0,0,0,0,0,0,0,-1,1042,1499,0,0
-175,-475,0,0,0,0,0,0,0,0,0,-1,1049,1499,0,0
-168,-475,0,0,0,0,0,0,0,0,0,-1,1056,1499,0,0
-161,-475,0,0,0,0,0,0,0,0,0,-1,1063,1499,0,0
-154,-475,0,0,0,0,0,0,0,0,0,-1,1070,1499,0,0
-147,-475,0,0,0,0,0,0,0,0,0,-1,1077,1499,0,0
-140,-475,0,0,0,0,0,0,0,0,0,-1,1084,1499,0,0
-133,-475,0,0,0,0,0,0,0,0,0,-1,1091,1499,0,0
-126,-475,0,0,0,0,0,0,0,0,0,-1,1098,1499,0,0
-119,-475,0,0,0,0,0,0,0,0,0,-1,1105,1499,0,0
-112,-475,0,0,0,0,0,0,0,0,0,-1,1112,1499,0,0
-105,-475,0,0,0,0,0,0,0,0,0,-1,1119,1499,0,0
-98,-475,0,0,0,0,0,0,0,0,0,-1,1126,1499,0,0
-91,-475,0,0,0,0,0,0,0,0,0,-1,1133,1499,0,0
-84,-475,0,0,0,0,0,0,0,0,0,-1,1140,1499,0,0
-77,-475,0,0,0,0,0,0,0,0,0,-1,1147,1499,0,0
-70,-475,0,0,0,0,0,0,0,0,0,-1,1154,1499,0,0
-63,-475,0,0,0,0,0,0,0,0,0,-1,1161,1499,0,0
-56,-475,0,0,0,0,0,0,0,0,0,-1,1168,1499,0,0
-49,-475,0,0,0,0,0,0,0,0,0,-1,1175,1499,0,0
-42,-475,0,0,0,0,0,0,0,0,0,-1,1182,1499,0,0
-35,-475,0,0,0,0,0,0,0,0,0,-1,1189,1499,0,0
-28,-475,0,0,0,0,0,0,0,0,0,-1,1196,1499,0,0
-21,-475,0,0,0,0,0,0,0,0,0,-1,1203,1499,0,0
-14,-475,0,0,0,0,0,0,0,0,0,-1,1210,1499,0,0
-7,-475,0,0,0,0,0,0,0,0,0,-1,1217,1499,0,0
0,-475,0,0,0,0,0,0,0,0,0,-1,1224,1499,0,0
7,-475,0,0,0,0,0,0,0,0,0,-1,1231,1499,0,0
14,-475,0,0,0,0,0,0,0,0,0,-1,1238,1499,0,0
21,-475,0,0,0,0,0,0,0,0,0,-1,1245,1499,0,0
28,-475,0,0,0,0,0,0,0,0,0,-1,1252,1499,0,0
35,-475,0,0,0,0,0,0,0,0,0,-1,1259,1499,0,0
42,-475,0,0,0,0,0,0,0,0,0,-1,1266,1499,0,0
49,-475,0,0,0,0,0,0,0,0,0,-1,1273,1499,0,0
56,-475,0,0,0,0,0,0,0,0,0,-1,1280,1499,0,0
63,-475,0,0,0,0,0,0,0,0,0,-1,1287,1499,0,0
70,-475,0,0,0,0,0,0,0,0,0,-1,1294,1499,0,0
77,-475,0,0,0,0,0,0,0,0,0,-1,1301,1499,0,0
84,-475,0,0,0,0,0,0,0,0,0,-1,1308,1499,0,0
91,-475,0,0,0,0,0,0,0,0,0,-1,1315,1499,0,0
98,-475,0,0,0,0,0,0,0,0,0,-1,1322,1499,0,0
105,-475,0,0,0,0,0,0,0,0,0,-1,1329,1499,0,0
112,-475,0,0,0,0,0,0,0,0,0,-1,1336,1499,0,0
119,-475,0,0,0,0,0,0,0,0,0,-1,1343,1499,0,0
126,-475,0,0,0,0,0,0,0,0,0,-1,1350,1499,0,0
133,-475,0,0,0,0,0,0,0,0,0,-1,1357,1499,0,0
140,-475,0,0,0,0,0,0,0,0,0,-1,1364,1499,0,0
147,-475,0,0,0,0,0,0,0,0,0,-1,1371,1499,0,0
154,-475,0,0,0,0,0,0,0,0,0,-1,1378,1499,0,0
161,-475,0,0,0,0,0,0,0,0,0,-1,1385,1499,0,0
168,-475,0,0,0,0,0,0,0,0,0,-1,1392,1499,0,0
175,-475,0,0,0,0,0,0,0,0,0,-1,1399,1499,0,0
182,-475,0,0,0,0,0,0,0,0,0,-1,1406,1499,0,0
189,-475,0,0,0,0,0,0,0,0,0,-1,1413,1499,0,0
196,-475,0,0,0,0,0,0,0,0,0,-1,1420,1499,0,0
203,-475,0,0,0,0,0,0,0,0,0,-1,1427,1499,0,0
210,-475,0,0,0,0,0,0,0,0,0,-1,1434,1499,0,0
217,-475,0,0,0,0,0,0,0,0,0,-1,1441,1499,0,0
224,-475,0,0,0,0,0,0,0,0,0,-1,1448,1499,0,0
231,-475,0,0,0,0,0,0,0,0,0,-1,1455,1499,0,0
238,-475,0,0,0,0,0,0,0,0,0,-1,1462,1499,0,0
245,-475,0,0,0,0,0,0,0,0,0,-1,1469,1499,0,0
252,-475,0,0,0,0,0,0,0,0,0,-1,1476,1499,0,0
259,-475,0,0,0,0,0,0,0,0,0,-1,1483,1499,0,0
266,-475,0,0,0,0,0,0,0,0,0,-1,1490,1499,0,0
273,-475,0,0,0,0,0,0,0,0,0,-1,1497,1499,0,0
280,-475,0,0,0,0,0,0,0,0,0,-1,1504,1499,0,0
287,-475,0,0,0,0,0,0,0,0,0,-1,1511,1499,0,0
294,-475,0,0,0,0,0,0,0,0,0,-1,1518,1499,0,0
301,-475,0,0,0,0,0,0,0,0,0,-1,1525,1499,0,0
308,-475,0,0,0,0,0,0,0,0,0,-1,1532,1499,0,0
315,-475,0,0,0,0,0,0,0,0,0,-1,1539,1499,0,0
322,-475,0,0,0,0,0,0,0,0,0,-1,1546,1499,0,0
329,-475,0,0,0,0,0,0,0,0,0,-1,1553,1499,0,0
336,-475,0,0,0,0,0,0,0,0,0,-1,1560,1499,0,0
343,-475,0,0,0,0,0,0,0,0,0,-1,1567,1499,0,0
350,-475,0,0,0,0,0,0,0,0,0,-1,1574,1499,0,0
357,-475,0,0,0,0,0,0,0,0,0,-1,1581,1499,0,0
364,-475,0,0,0,0,0,0,0,0,0,-1,1588,1499,0,0
371,-475,0,0,0,0,0,0,0,0,0,-1,1595,1499,0,0
378,-475,0,0,0,0,0,0,0,0,0,-1,1602,1499,0,0
385,-475,0,0,0,0,0,0,0,0,0,-1,1609,1499,0,0
392,-475,0,0,0,0,0,0,0,0,0,-1,1616,1499,0,0
399,-475,0,0,0,0,0,0,0,0,0,-1,1623,1499,0,0
406,-475,0,0,0,0,0,0,0,0,0,-1,1630,1499,0,0
413,-475,0,0,0,0,0,0,0,0,0,-1,1637,1499,0,0
420,-475,0,0,0,0,0,0,0,0,0,-1,1644,1499,0,0
427,-475,0,0,0,0,0,0,0,0,0,-1,1651,1499,0,0
434,-475,0,0,0,0,0,0,0,0,0,-1,1658,1499,0,0
441,-475,0,0,0,0,0,0,0,0,0,-1,1665,1499,0,0
448,-475,0,0,0,0,0,0,0,0,0,-1,1672,1499,0,0
455,-475,0,0,0,0,0,0,0,0,0,-1,1679,1499,0,0
462,-475,12.6372,0.275391,0,0,0,0,0,0,0,-1,1686,1499,12.6372,-0.27536
469,-475,15.6437,2.28296,0,0,0,0,0,0,0,-1,1693,1499,15.6437,-2.28293
476,-475,15.3302,2.71436,0,0,0,0,0,0,0,-1,1700,1499,15.3303,-2.7143
483,-475,14.7006,2.77881,0,0,0,0,0,0,0,-1,1707,1499,14.7005,-2.77885
490,-475,13.5007,3.28528,0,0,0,0,0,0,0,-1,1714,1499,13.5008,-3.28531
497,-475,12.4313,3.86108,0,0,0,0,0,0,0,-1,1721,1499,12.4313,-3.86106
504,-475,11.4489,4.43018,0,0,0,0,0,0,0,-1,1728,1499,11.4489,-4.43017
511,-475,9.87744,4.6604,0,0,0,0,0,0,0,-1,1735,1499,9.87747,-4.66038
518,-475,9.35559,5.23865,0,0,0,0,0,0,0,-1,1742,1499,9.35561,-5.23863
525,-475,9.11353,5.89807,0,0,0,0,0,0,0,-1,1749,1499,9.11349,-5.89812
532,-475,8.74634,6.901,0,0,0,0,0,0,0,-1,1756,1499,8.7464,-6.90096
539,-475,8.65161,6.94507,-0.0136106,-0.00906686,0.0149747,0.00380728,-0.0264848,0.860682,0.0190528,0.0455351,1763,1499,8.6516,-6.9451
546,-475,8.54565,7.03528,-0.0114502,-0.00806748,0.0128812,0.0032329,-0.0227506,0.850678,0.0163516,0.0380004,1770,1499,8.54568,-7.03533
553,-475,8.5592,7.06738,-0.00933917,-0.00721933,0.0108936,0.00266578,-0.0192243,0.833894,0.0137909,0.0201352,1777,1499,8.55917,-7.06741
560,-475,8.46814,6.98279,-0.0074635,-0.00637935,0.0090286,0.00212343,-0.0159663,0.815382,0.011418,0.0138232,1784,1499,8.46814,-6.98282
567,-475,8.52087,6.8175,-0.00569457,-0.00548096,0.00740133,0.00181434,-0.0129899,0.792613,0.00932372,0.0132298,1791,1499,8.52082,-6.81751
574,-475,8.52527,6.66577,-0.00410922,-0.00456446,0.00580722,0.00147483,-0.0101485,0.76581,0.00730707,0.0135166,1798,1499,8.52524,-6.66578
581,-475,8.50647,6.50208,-0.00310155,-0.00380711,0.00467681,0.00123577,-0.00814443,0.747754,0.00588495,0.0111548,1805,1499,8.50646,-6.50213
588,-475,8.49182,6.34033,-0.00234738,-0.002854,0.00366663,0.00107468,-0.00627605,0.75091,0.00458445,0.00997004,1812,1499,8.49185,-6.3403
595,-475,8.50732,6.19128,-0.00214572,-0.002275,0.00295684,0.000747185,-0.0051679,0.774469,0.00371943,0.0108329,1819,1499,8.50727,-6.19134
602,-475,8.51343,6.01892,-0.00201959,-0.00185827,0.00235782,0.000420263,-0.00429813,0.802496,0.00301528,0.0117419,1826,1499,8.51341,-6.01888
609,-475,8.50208,5.86096,-0.00184358,-0.00160948,0.00160574,-0.000116526,-0.00333653,0.821782,0.00218655,0.0112255,1833,1499,8.50203,-5.86098
616,-475,8.48499,5.73267,-0.00211065,-0.00154315,0.00126401,-0.000531435,-0.00312237,0.895811,0.00192899,0.0110494,1840,1499,8.48494,-5.73262
623,-475,8.49414,5.57788,-0.00261584,-0.0018161,0.00110318,-0.00104256,-0.00338939,0.959269,0.00200458,0.0106021,1847,1499,8.49417,-5.57792
630,-475,8.52051,5.42834,-0.00332224,-0.00250435,0.000981651,-0.00184987,-0.00397672,0.982762,0.00229782,0.0122144,1854,1499,8.52052,-5.42833
637,-475,8.54663,5.29529,-0.00407854,-0.00358092,0.000745124,-0.00304416,-0.0046153,0.946536,0.00270951,0.0242824,1861,1499,8.54662,-5.29527
644,-475,8.36267,5.4043,-0.00477888,-0.00481512,0.000196186,-0.00459998,-0.00499402,0.739357,0.00320608,0.0496171,1868,1499,8.36268,-5.40426
651,-475,8.35181,5.34814,0,0,0,0,0,0,0,-1,1875,1499,8.35181,-5.34814
658,-475,9.46777,4.90247,0,0,0,0,0,0,0,-1,1882,1499,9.46776,-4.90253
665,-475,9.05029,5.83496,0,0,0,0,0,0,0,-1,1889,1499,9.05029,-5.8349
672,-475,9.38635,1.10474,0,0,0,0,0,0,0,-1,1896,1499,9.38629,-1.10475
679,-475,12.2594,1.31079,0,0,0,0,0,0,0,-1,1903,1499,12.2594,-1.31077
686,-475,0,0,0,0,0,0,0,0,0,-1,1910,1499,0,0
693,-475,0,0,0,0,0,0,0,0,0,-1,1917,1499,0,0
700,-475,0,0,0,0,0,0,0,0,0,-1,1924,1499,0,0
707,-475,0,0,0,0,0,0,0,0,0,-1,1931,1499,0,0
714,-475,0,0,0,0,0,0,0,0,0,-1,1938,1499,0,0
721,-475,0,0,0,0,0,0,0,0,0,-1,1945,1499,0,0
728,-475,0,0,0,0,0,0,0,0,0,-1,1952,1499,0,0
735,-475,0,0,0,0,0,0,0,0,0,-1,1959,1499,0,0
742,-475,0,0,0,0,0,0,0,0,0,-1,1966,1499,0,0
749,-475,0,0,0,0,0,0,0,0,0,-1,1973,1499,0,0
756,-475,0,0,0,0,0,0,0,0,0,-1,1980,1499,0,0
763,-475,0,0,0,0,0,0,0,0,0,-1,1987,1499,0,0
770,-475,0,0,0,0,0,0,0,0,0,-1,1994,1499,0,0
777,-475,0,0,0,0,0,0,0,0,0,-1,2001,1499,0,0
784,-475,0,0,0,0,0,0,0,0,0,-1,2008,1499,0,0
791,-475,0,0,0,0,0,0,0,0,0,-1,2015,1499,0,0
798,-475,0,0,0,0,0,0,0,0,0,-1,2022,1499,0,0
805,-475,0,0,0,0,0,0,0,0,0,-1,2029,1499,0,0
812,-475,0,0,0,0,0,0,0,0,0,-1,2036,1499,0,0
-700,-482,0,0,0,0,0,0,0,0,0,-1,524,1506,0,0
-693,-482,0,0,0,0,0,0,0,0,0,-1,531,1506,0,0
-686,-482,0,0,0,0,0,0,0,0,0,-1,538,1506,0,0
-679,-482,0,0,0,0,0,0,0,0,0,-1,545,1506,0,0
-672,-482,0,0,0,0,0,0,0,0,0,-1,552,1506,0,0
-665,-482,0,0,0,0,0,0,0,0,0,-1,559,1506,0,0
-658,-482,0,0,0,0,0,0,0,0,0,-1,566,1506,0,0
-651,-482,0,0,0,0,0,0,0,0,0,-1,573,1506,0,0
-644,-482,0,0,0,0,0,0,0,0,0,-1,580,1506,0,0
-637,-482,0,0,0,0,0,0,0,0,0,-1,587,1506,0,0
-630,-482,0,0,0,0,0,0,0,0,0,-1,594,1506,0,0
-623,-482,0,0,0,0,0,0,0,0,0,-1,601,1506,0,0
-616,-482,0,0,0,0,0,0,0,0,0,-1,608,1506,0,0
-609,-482,0,0,0,0,0,0,0,0,0,-1,615,1506,0,0
-602,-482,0,0,0,0,0,0,0,0,0,-1,622,1506,0,0
-595,-482,0,0,0,0,0,0,0,0,0,-1,629,1506,0,0
-588,-482,0,0,0,0,0,0,0,0,0,-1,636,1506,0,0
-581,-482,0,0,0,0,0,0,0,0,0,-1,643,1506,0,0
-574,-482,0,0,0,0,0,0,0,0,0,-1,650,1506,0,0
-567,-482,0,0,0,0,0,0,0,0,0,-1,657,1506,0,0
-560,-482,0,0,0,0,0,0,0,0,0,-1,664,1506,0,0
-553,-482,-4.63849,1.69995,0.0480003,0.0242474,0.0848213,0.121773,-0.0495248,0.715842,0.101789,0.0490035,671,1506,-4.63848,-1.69991
-546,-482,-4.17773,2.85339,0.0285669,0.0197145,0.0664378,0.0907257,-0.0424444,0.752136,0.0785522,0.0497076,678,1506,-4.17771,-2.85339
-539,-482,0.746765,2.14941,0,0,0,0,0,0,0,-1,685,1506,0.746781,-2.1494
-532,-482,0.524231,2.45886,0.00308388,0.0113814,0.0391917,0.0466433,-0.0321781,0.838131,0.0457623,0.0468812,692,1506,0.524248,-2.45884
-525,-482,0.120056,2.68774,-0.00348615,0.00817807,0.0296045,0.0325195,-0.0278275,0.882653,0.0348764,0.0439242,699,1506,0.120057,-2.68769
-518,-482,-1.18402,3.25818,0,0,0,0,0,0,0,-1,706,1506,-1.184,-3.25814
-511,-482,-1.69739,3.41675,0,0,0,0,0,0,0,-1,713,1506,-1.69737,-3.41676
-504,-482,-1.07349,3.59106,-0.00951576,0.00242815,0.0105738,0.00859992,-0.0156875,1.04246,0.01422,0.0410109,720,1506,-1.07349,-3.59102
-497,-482,-0.98468,3.80115,-0.00883139,0.00111017,0.00686722,0.00461685,-0.0123381,1.09867,0.0101216,0.0216,727,1506,-0.984707,-3.80116
-490,-482,-1.01306,3.98303,-0.00788154,0.000140597,0.0038888,0.00171625,-0.00945719,1.18584,0.0069479,0.0126129,734,1506,-1.01307,-3.98308
-483,-482,-1.00696,4.18335,-0.00617302,-0.000302575,0.0017133,0.000160869,-0.00663647,1.30662,0.0044789,0.00831088,741,1506,-1.00699,-4.18339
-476,-482,-1.01001,4.35681,-0.00390655,-0.000789586,0.000677802,-0.000648573,-0.00404757,1.36568,0.00251027,0.00976507,748,1506,-1.01001,-4.35679
-469,-482,-1.00446,4.53528,-0.00176851,-0.00126655,-8.78216e-05,-0.00125163,-0.00178343,-1.4025,0.00105725,0.0111636,755,1506,-1.00445,-4.53523
-462,-482,-0.984497,4.72253,-0.000420622,-0.00154824,-0.000988621,0.000153661,-0.00212252,-0.526251,0.00146892,0.0116732,762,1506,-0.984494,-4.72248
-455,-482,-0.986633,4.89722,0.000372858,-0.00232294,-0.00164133,0.00114883,-0.0030989,-0.441625,0.00253711,0.0114178,769,1506,-0.986657,-4.89718
-448,-482,-0.996582,5.0885,0.00104037,-0.00337857,-0.00222454,0.00196624,-0.00430443,-0.394398,0.00370332,0.0121476,776,1506,-0.996576,-5.08848
-441,-482,-1.00677,5.28638,0.00189226,-0.00484919,-0.00288816,0.00296037,-0.0059173,-0.354225,0.00521943,0.012149,783,1506,-1.00678,-5.28632
-434,-482,-1.0094,5.46021,0.00276376,-0.00657635,-0.0035763,0.00397582,-0.00778841,-0.326766,0.00690995,0.0144919,790,1506,-1.00943,-5.46024
-427,-482,-1.00787,5.6377,0.00386765,-0.00869365,-0.00433747,0.00521984,-0.0100458,-0.302198,0.00895925,0.0153915,797,1506,-1.00789,-5.63767
-420,-482,-0.975708,5.89514,0.00490669,-0.0112892,-0.00532487,0.00650054,-0.0128831,-0.290835,0.0113916,0.0211725,804,1506,-0.975691,-5.89513
-413,-482,-0.842224,5.92126,0.00587901,-0.0144462,-0.00658973,0.00782851,-0.0163957,-0.287635,0.0142744,0.0274257,811,1506,-0.842211,-5.92122
-406,-482,-0.855957,5.90356,0.00651061,-0.0172898,-0.00865356,0.00932431,-0.0201035,-0.314367,0.0173659,0.0407359,818,1506,-0.855979,-5.90355
-399,-482,-0.821716,5.83569,0.00751482,-0.0208751,-0.010605,0.0110388,-0.0243992,-0.320819,0.0209392,0.048006,825,1506,-0.82171,-5.83575
-392,-482,-0.466309,5.6145,0.00829263,-0.0246298,-0.0130672,0.0128487,-0.0291859,-0.335481,0.0248721,0.0478409,832,1506,-0.466301,-5.61453
-385,-482,0.0913086,5.31018,0,0,0,0,0,0,0,-1,839,1506,0.0913276,-5.31015
-378,-482,0.215698,5.96948,0,0,0,0,0,0,0,-1,846,1506,0.215681,-5.9695
-371,-482,-0.10907,8.10437,0,0,0,0,0,0,0,-1,853,1506,-0.109063,-8.10433
-364,-482,-0.154968,10.5032,0,0,0,0,0,0,0,-1,860,1506,-0.154976,-10.5032
-357,-482,2.14807,4.60144,0,0,0,0,0,0,0,-1,867,1506,2.14807,-4.60144
-350,-482,-7.5813,-1.45935,0,0,0,0,0,0,0,-1,874,1506,-7.58133,1.45937
-343,-482,-7.19983,-1.26416,0,0,0,0,0,0,0,-1,881,1506,-7.19981,1.26414
-336,-482,-6.78491,-1.18127,0,0,0,0,0,0,0,-1,888,1506,-6.78488,1.18125
-329,-482,0,0,0,0,0,0,0,0,0,-1,895,1506,0,0
-322,-482,0,0,0,0,0,0,0,0,0,-1,902,1506,0,0
-315,-482,0,0,0,0,0,0,0,0,0,-1,909,1506,0,0
-308,-482,0,0,0,0,0,0,0,0,0,-1,916,1506,0,0
-301,-482,0,0,0,0,0,0,0,0,0,-1,923,1506,0,0
-294,-482,0,0,0,0,0,0,0,0,0,-1,930,1506,0,0
-287,-482,0,0,0,0,0,0,0,0,0,-1,937,1506,0,0
-280,-482,0,0,0,0,0,0,0,0,0,-1,944,1506,0,0
-273,-482,0,0,0,0,0,0,0,0,0,-1,951,1506,0,0
-266,-482,0,0,0,0,0,0,0,0,0,-1,958,1506,0,0
-259,-482,0,0,0,0,0,0,0,0,0,-1,965,1506,0,0
-252,-482,0,0,0,0,0,0,0,0,0,-1,972,1506,0,0
-245,-482,0,0,0,0,0,0,0,0,0,-1,979,1506,0,0
-238,-482,0,0,0,0,0,0,0,0,0,-1,986,1506,0,0
-231,-482,0,0,0,0,0,0,0,0,0,-1,993,1506,0,0
-224,-482,0,0,0,0,0,0,0,0,0,-1,1000,1506,0,0
-217,-482,0,0,0,0,0,0,0,0,0,-1,1007,1506,0,0
-210,-482,0,0,0,0,0,0,0,0,0,-1,1014,1506,0,0
-203,-482,0,0,0,0,0,0,0,0,0,-1,1021,1506,0,0
-196,-482,0,0,0,0,0,0,0,0,0,-1,1028,1506,0,0
-189,-482,0,0,0,0,0,0,0,0,0,-1,1035,1506,0,0
-182,-482,0,0,0,0,0,0,0,0,0,-1,1042,1506,0,0
-175,-482,0,0,0,0,0,0,0,0,0,-1,1049,1506,0,0
-168,-482,0,0,0,0,0,0,0,0,0,-1,1056,1506,0,0
-161,-482,0,0,0,0,0,0,0,0,0,-1,1063,1506,0,0
-154,-482,0,0,0,0,0,0,0,0,0,-1,1070,1506,0,0
-147,-482,0,0,0,0,0,0,0,0,0,-1,1077,1506,0,0
-140,-482,0,0,0,0,0,0,0,0,0,-1,1084,1506,0,0
-133,-482,0,0,0,0,0,0,0,0,0,-1,1091,1506,0,0
-126,-482,0,0,0,0,0,0,0,0,0,-1,1098,1506,0,0
-119,-482,0,0,0,0,0,0,0,0,0,-1,1105,1506,0,0
-112,-482,0,0,0,0,0,0,0,0,0,-1,1112,1506,0,0
-105,-482,0,0,0,0,0,0,0,0,0,-1,1119,1506,0,0
-98,-482,0,0,0,0,0,0,0,0,0,-1,1126,1506,0,0
-91,-482,0,0,0,0,0,0,0,0,0,-1,1133,1506,0,0
-84,-482,0,0,0,0,0,0,0,0,0,-1,1140,1506,0,0
-77,-482,0,0,0,0,0,0,0,0,0,-1,1147,1506,0,0
-70,-482,0,0,0,0,0,0,0,0,0,-1,1154,1506,0,0
-63,-482,0,0,0,0,0,0,0,0,0,-1,1161,1506,0,0
-56,-482,0,0,0,0,0,0,0,0,0,-1,1168,1506,0,0
-49,-482,0,0,0,0,0,0,0,0,0,-1,1175,1506,0,0
-42,-482,0,0,0,0,0,0,0,0,0,-1,1182,1506,0,0
-35,-482,0,0,0,0,0,0,0,0,0,-1,1189,1506,0,0
-28,-482,0,0,0,0,0,0,0,0,0,-1,1196,1506,0,0
-21,-482,0,0,0,0,0,0,0,0,0,-1,1203,1506,0,0
-14,-482,0,0,0,0,0,0,0,0,0,-1,1210,1506,0,0
-7,-482,0,0,0,0,0,0,0,0,0,-1,1217,1506,0,0
0,-482,0,0,0,0,0,0,0,0,0,-1,1224,1506,0,0
7,-482,0,0,0,0,0,0,0,0,0,-1,1231,1506,0,0
14,-482,0,0,0,0,0,0,0,0,0,-1,1238,1506,0,0
21,-482,0,0,0,0,0,0,0,0,0,-1,1245,1506,0,0
28,-482,0,0,0,0,0,0,0,0,0,-1,1252,1506,0,0
35,-482,0,0,0,0,0,0,0,0,0,-1,1259,1506,0,0
42,-482,0,0,0,0,0,0,0,0,0,-1,1266,1506,0,0
49,-482,0,0,0,0,0,0,0,0,0,-1,1273,1506,0,0
56,-482,0,0,0,0,0,0,0,0,0,-1,1280,1506,0,0
63,-482,0,0,0,0,0,0,0,0,0,-1,1287,1506,0,0
70,-482,0,0,0,0,0,0,0,0,0,-1,1294,1506,0,0
77,-482,0,0,0,0,0,0,0,0,0,-1,1301,1506,0,0
84,-482,0,0,0,0,0,0,0,0,0,-1,1308,1506,0,0
91,-482,0,0,0,0,0,0,0,0,0,-1,1315,1506,0,0
98,-482,0,0,0,0,0,0,0,0,0,-1,1322,1506,0,0
105,-482,0,0,0,0,0,0,0,0,0,-1,1329,1506,0,0
112,-482,0,0,0,0,0,0,0,0,0,-1,1336,1506,0,0
119,-482,0,0,0,0,0,0,0,0,0,-1,1343,1506,0,0
126,-482,0,0,0,0,0,0,0,0,0,-1,1350,1506,0,0
133,-482,0,0,0,0,0,0,0,0,0,-1,1357,1506,0,0
140,-482,0,0,0,0,0,0,0,0,0,-1,1364,1506,0,0
147,-482,0,0,0,0,0,0,0,0,0,-1,1371,1506,0,0
154,-482,0,0,0,0,0,0,0,0,0,-1,1378,1506,0,0
161,-482,0,0,0,0,0,0,0,0,0,-1,1385,1506,0,0
168,-482,0,0,0,0,0,0,0,0,0,-1,1392,1506,0,0
175,-482,0,0,0,0,0,0,0,0,0,-1,1399,1506,0,0
182,-482,0,0,0,0,0,0,0,0,0,-1,1406,1506,0,0
189,-482,0,0,0,0,0,0,0,0,0,-1,1413,1506,0,0
196,-482,0,0,0,0,0,0,0,0,0,-1,1420,1506,0,0
203,-482,0,0,0,0,0,0,0,0,0,-1,1427,1506,0,0
210,-482,0,0,0,0,0,0,0,0,0,-1,1434,1506,0,0
217,-482,0,0,0,0,0,0,0,0,0,-1,1441,1506,0,0
224,-482,0,0,0,0,0,0,0,0,0,-1,1448,1506,0,0
231,-482,0,0,0,0,0,0,0,0,0,-1,1455,1506,0,0
238,-482,0,0,0,0,0,0,0,0,0,-1,1462,1506,0,0
245,-482,0,0,0,0,0,0,0,0,0,-1,1469,1506,0,0
252,-482,0,0,0,0,0,0,0,0,0,-1,1476,1506,0,0
259,-482,0,0,0,0,0,0,0,0,0,-1,1483,1506,0,0
266,-482,0,0,0,0,0,0,0,0,0,-1,1490,1506,0,0
273,-482,0,0,0,0,0,0,0,0,0,-1,1497,1506,0,0
280,-482,0,0,0,0,0,0,0,0,0,-1,1504,1506,0,0
287,-482,0,0,0,0,0,0,0,0,0,-1,1511,1506,0,0
294,-482,0,0,0,0,0,0,0,0,0,-1,1518,1506,0,0
301,-482,0,0,0,0,0,0,0,0,0,-1,1525,1506,0,0
308,-482,0,0,0,0,0,0,0,0,0,-1,1532,1506,0,0
315,-482,0,0,0,0,0,0,0,0,0,-1,1539,1506,0,0
322,-482,0,0,0,0,0,0,0,0,0,-1,1546,1506,0,0
329,-482,0,0,0,0,0,0,0,0,0,-1,1553,1506,0,0
336,-482,0,0,0,0,0,0,0,0,0,-1,1560,1506,0,0
343,-482,0,0,0,0,0,0,0,0,0,-1,1567,1506,0,0
350,-482,0,0,0,0,0,0,0,0,0,-1,1574,1506,0,0
357,-482,0,0,0,0,0,0,0,0,0,-1,1581,1506,0,0
364,-482,0,0,0,0,0,0,0,0,0,-1,1588,1506,0,0
371,-482,0,0,0,0,0,0,0,0,0,-1,1595,1506,0,0
378,-482,0,0,0,0,0,0,0,0,0,-1,1602,1506,0,0
385,-482,0,0,0,0,0,0,0,0,0,-1,1609,1506,0,0
392,-482,0,0,0,0,0,0,0,0,0,-1,1616,1506,0,0
399,-482,0,0,0,0,0,0,0,0,0,-1,1623,1506,0,0
406,-482,0,0,0,0,0,0,0,0,0,-1,1630,1506,0,0
413,-482,0,0,0,0,0,0,0,0,0,-1,1637,1506,0,0
420,-482,0,0,0,0,0,0,0,0,0,-1,1644,1506,0,0
427,-482,0,0,0,0,0,0,0,0,0,-1,1651,1506,0,0
434,-482,0,0,0,0,0,0,0,0,0,-1,1658,1506,0,0
441,-482,0,0,0,0,0,0,0,0,0,-1,1665,1506,0,0
448,-482,4.24146,1.55383,0,0,0,0,0,0,0,-1,1672,1506,4.24149,-1.55381
455,-482,12.4122,1.09729,0,0,0,0,0,0,0,-1,1679,1506,12.4122,-1.09734
462,-482,15.0673,3.13135,0,0,0,0,0,0,0,-1,1686,1506,15.0672,-3.13134
469,-482,15.3793,3.46301,0,0,0,0,0,0,0,-1,1693,1506,15.3793,-3.46307
476,-482,15.7294,3.81396,0,0,0,0,0,0,0,-1,1700,1506,15.7293,-3.81396
483,-482,14.9957,3.45825,0,0,0,0,0,0,0,-1,1707,1506,14.9957,-3.45829
490,-482,13.7178,3.88928,0,0,0,0,0,0,0,-1,1714,1506,13.7177,-3.88928
497,-482,12.6653,4.60938,0,0,0,0,0,0,0,-1,1721,1506,12.6653,-4.60942
504,-482,10.9128,7.94153,0,0,0,0,0,0,0,-1,1728,1506,10.9129,-7.9415
511,-482,9.52039,5.19458,0,0,0,0,0,0,0,-1,1735,1506,9.52033,-5.19462
518,-482,9.23596,8.17285,0,0,0,0,0,0,0,-1,1742,1506,9.2359,-8.1728
525,-482,8.49402,7.4707,0,0,0,0,0,0,0,-1,1749,1506,8.49408,-7.47074
532,-482,8.49951,7.25928,-0.0139327,-0.0109409,0.0147559,0.00239468,-0.0272683,0.835913,0.0190274,0.0426163,1756,1506,8.49953,-7.25932
539,-482,8.45239,7.14172,-0.0116848,-0.00929436,0.0124685,0.00203604,-0.0230152,0.833182,0.0160652,0.0312755,1763,1506,8.45243,-7.14173
546,-482,8.39563,7.23059,-0.00968516,-0.00766044,0.0104512,0.00182736,-0.019173,0.83368,0.0134326,0.0160466,1770,1506,8.39565,-7.23059
553,-482,8.32947,7.17017,-0.00772905,-0.00644513,0.00860707,0.00154388,-0.0157181,0.822622,0.0110294,0.0136534,1777,1506,8.32948,-7.17017
560,-482,8.3158,7.00623,-0.00596387,-0.00535131,0.00688161,0.00123083,-0.012546,0.807637,0.00880301,0.0121928,1784,1506,8.31578,-7.0062
567,-482,8.36487,6.84448,-0.00427224,-0.00429932,0.00537791,0.00109215,-0.00966372,0.784139,0.00683567,0.0141728,1791,1506,8.36489,-6.84454
574,-482,8.3739,6.69409,-0.00278853,-0.00327666,0.00392368,0.00089867,-0.00696386,0.754337,0.00496929,0.0128866,1798,1506,8.37394,-6.69407
581,-482,8.34802,6.52612,-0.00196833,-0.00252336,0.00299504,0.000762026,-0.00525372,0.739201,0.00378216,0.00972279,1805,1506,8.34802,-6.52612
588,-482,8.33411,6.35254,-0.00136501,-0.00158084,0.00212955,0.000659358,-0.00360521,0.760082,0.00265074,0.0109504,1812,1506,8.33413,-6.35249
595,-482,8.34509,6.17883,-0.0014556,-0.00107464,0.00159926,0.000345443,-0.00287568,0.844671,0.00204203,0.0156875,1819,1506,8.34509,-6.17882
602,-482,8.37622,5.98401,-0.00181029,-0.000814653,0.00123117,1.55375e-05,-0.00264048,0.977521,0.00176552,0.0189033,1826,1506,8.3762,-5.98395
609,-482,8.35217,5.84692,-0.00211953,-0.000744181,0.000777055,-0.000394207,-0.0024695,1.14762,0.00153193,0.0150368,1833,1506,8.35217,-5.84692
616,-482,8.32581,5.71875,-0.00307227,-0.000957681,0.000792673,-0.000693536,-0.00333641,1.24914,0.00203292,0.0111503,1840,1506,8.32584,-5.71871
623,-482,8.33643,5.57874,-0.00444963,-0.00160983,0.00101402,-0.00128493,-0.00477453,1.26072,0.00285286,0.011083,1847,1506,8.33644,-5.57875
630,-482,8.38379,5.46338,-0.00618835,-0.00273302,0.00131337,-0.00229049,-0.00663089,1.2458,0.00388885,0.0204938,1854,1506,8.38383,-5.46338
637,-482,8.38489,5.76465,0,0,0,0,0,0,0,-1,1861,1506,8.38488,-5.7646
644,-482,8.06079,5.71021,0,0,0,0,0,0,0,-1,1868,1506,8.06084,-5.71025
651,-482,4.03845,7.05273,0,0,0,0,0,0,0,-1,1875,1506,4.03843,-7.05279
658,-482,2.6803,3.83582,0,0,0,0,0,0,0,-1,1882,1506,2.68028,-3.83587
665,-482,8.15198,3.22229,0,0,0,0,0,0,0,-1,1889,1506,8.15199,-3.22232
672,-482,9.87415,1.3147,0,0,0,0,0,0,0,-1,1896,1506,9.87416,-1.31473
679,-482,0,0,0,0,0,0,0,0,0,-1,1903,1506,0,0
686,-482,0,0,0,0,0,0,0,0,0,-1,1910,1506,0,0
693,-482,0,0,0,0,0,0,0,0,0,-1,1917,1506,0,0
700,-482,0,0,0,0,0,0,0,0,0,-1,1924,1506,0,0
707,-482,0,0,0,0,0,0,0,0,0,-1,1931,1506,0,0
714,-482,0,0,0,0,0,0,0,0,0,-1,1938,1506,0,0
721,-482,0,0,0,0,0,0,0,0,0,-1,1945,1506,0,0
728,-482,0,0,0,0,0,0,0,0,0,-1,1952,1506,0,0
735,-482,0,0,0,0,0,0,0,0,0,-1,1959,1506,0,0
742,-482,0,0,0,0,0,0,0,0,0,-1,1966,1506,0,0
749,-482,0,0,0,0,0,0,0,0,0,-1,1973,1506,0,0
756,-482,0,0,0,0,0,0,0,0,0,-1,1980,1506,0,0
763,-482,0,0,0,0,0,0,0,0,0,-1,1987,1506,0,0
770,-482,0,0,0,0,0,0,0,0,0,-1,1994,1506,0,0
777,-482,0,0,0,0,0,0,0,0,0,-1,2001,1506,0,0
784,-482,0,0,0,0,0,0,0,0,0,-1,2008,1506,0,0
791,-482,0,0,0,0,0,0,0,0,0,-1,2015,1506,0,0
798,-482,0,0,0,0,0,0,0,0,0,-1,2022,1506,0,0
805,-482,0,0,0,0,0,0,0,0,0,-1,2029,1506,0,0
812,-482,0,0,0,0,0,0,0,0,0,-1,2036,1506,0,0
-700,-489,0,0,0,0,0,0,0,0,0,-1,524,1513,0,0
-693,-489,0,0,0,0,0,0,0,0,0,-1,531,1513,0,0
-686,-489,0,0,0,0,0,0,0,0,0,-1,538,1513,0,0
-679,-489,0,0,0,0,0,0,0,0,0,-1,545,1513,0,0
-672,-489,0,0,0,0,0,0,0,0,0,-1,552,1513,0,0
-665,-489,0,0,0,0,0,0,0,0,0,-1,559,1513,0,0
-658,-489,0,0,0,0,0,0,0,0,0,-1,566,1513,0,0
-651,-489,0,0,0,0,0,0,0,0,0,-1,573,1513,0,0
-644,-489,0,0,0,0,0,0,0,0,0,-1,580,1513,0,0
-637,-489,0,0,0,0,0,0,0,0,0,-1,587,1513,0,0
-630,-489,0,0,0,0,0,0,0,0,0,-1,594,1513,0,0
-623,-489,0,0,0,0,0,0,0,0,0,-1,601,1513,0,0
-616,-489,0,0,0,0,0,0,0,0,0,-1,608,1513,0,0
-609,-489,0,0,0,0,0,0,0,0,0,-1,615,1513,0,0
-602,-489,0,0,0,0,0,0,0,0,0,-1,622,1513,0,0
-595,-489,0,0,0,0,0,0,0,0,0,-1,629,1513,0,0
-588,-489,0,0,0,0,0,0,0,0,0,-1,636,1513,0,0
-581,-489,0,0,0,0,0,0,0,0,0,-1,643,1513,0,0
-574,-489,0,0,0,0,0,0,0,0,0,-1,650,1513,0,0
-567,-489,0,0,0,0,0,0,0,0,0,-1,657,1513,0,0
-560,-489,0,0,0,0,0,0,0,0,0,-1,664,1513,0,0
-553,-489,-4.7655,1.25269,0,0,0,0,0,0,0,-1,671,1513,-4.76551,-1.25274
-546,-489,-4.44464,2.55151,0,0,0,0,0,0,0,-1,678,1513,-4.44462,-2.55154
-539,-489,1.84998,1.43542,0,0,0,0,0,0,0,-1,685,1513,1.84999,-1.43545
-532,-489,0.970276,2.39526,-0.00806073,0.00760779,0.0381868,0.0387557,-0.0392086,0.886572,0.045013,0.0493319,692,1513,0.970263,-2.39528
-525,-489,0.408936,2.59131,-0.0123578,0.00509425,0.0293814,0.0270181,-0.0342816,0.929745,0.0354741,0.0476816,699,1513,0.408963,-2.59125
-518,-489,-0.158142,3.34424,-0.0139594,0.00340009,0.0220884,0.0184529,-0.0290122,0.972608,0.0276291,0.0461831,706,1513,-0.15813,-3.34419
-511,-489,-0.306274,3.25842,-0.0141378,0.00221909,0.0159827,0.0119943,-0.0239131,1.02188,0.0211084,0.0499038,713,1513,-0.306252,-3.25844
-504,-489,-0.700134,3.41113,-0.0130399,0.001333,0.0112348,0.00748317,-0.0191901,1.06993,0.0158865,0.0449435,720,1513,-0.700123,-3.41108
-497,-489,-0.826843,3.74377,-0.011598,0.000378653,0.00724472,0.00378957,-0.015009,1.13077,0.0114796,0.0358556,727,1513,-0.826829,-3.74381
-490,-489,-0.826782,4.02441,-0.0100022,-0.000282289,0.00403248,0.00117282,-0.0114573,1.22449,0.00805765,0.0201194,734,1513,-0.826777,-4.02445
-483,-489,-0.851501,4.17651,-0.00767481,-0.000409494,0.00172322,-2.14945e-05,-0.00806281,1.34933,0.00536806,0.010579,741,1513,-0.851519,-4.17652
-476,-489,-0.834167,4.35046,-0.00496166,-0.00058355,0.000631183,-0.00049437,-0.00505084,1.43044,0.00321513,0.00932713,748,1513,-0.834148,-4.35047
-469,-489,-0.821289,4.53259,-0.00249136,-0.000809208,-0.000191708,-0.000787637,-0.00251293,-1.45875,0.00148413,0.010194,755,1513,-0.821319,-4.5326
-462,-489,-0.809021,4.73853,-0.000986079,-0.000883015,-0.000916587,-1.65125e-05,-0.00185258,-0.813479,0.00122959,0.0144792,762,1513,-0.809016,-4.73855
-455,-489,-0.801208,4.91565,-0.00014596,-0.00141564,-0.00138489,0.000742666,-0.00230426,-0.570488,0.00183454,0.0177696,769,1513,-0.801203,-4.9156
-448,-489,-0.813049,5.08679,0.000538663,-0.0022359,-0.00173267,0.00137099,-0.00306823,-0.447826,0.00262468,0.0161284,776,1513,-0.813041,-5.08681
-441,-489,-0.828003,5.28857,0.0013737,-0.00342102,-0.00216269,0.00220505,-0.00425237,-0.36699,0.00379014,0.0139456,783,1513,-0.828021,-5.28857
-434,-489,-0.847717,5.46985,0.00222051,-0.00482621,-0.00259113,0.00307071,-0.00567641,-0.317051,0.0051243,0.0166552,790,1513,-0.84772,-5.46982
-427,-489,-0.850769,5.63489,0.00333628,-0.00657302,-0.00305832,0.00420416,-0.00744091,-0.276508,0.0068093,0.0180203,797,1513,-0.850772,-5.63484
-420,-489,-0.86792,5.85376,0.00435938,-0.00875058,-0.00375964,0.00536104,-0.00975223,-0.260374,0.00884757,0.016832,804,1513,-0.867916,-5.8538
-413,-489,-0.68335,5.96313,0.00525198,-0.0114436,-0.00476402,0.00651572,-0.0127074,-0.259295,0.0112887,0.0217318,811,1513,-0.683332,-5.96319
-406,-489,-0.763916,6.00696,0.00578978,-0.0137676,-0.00658753,0.0078017,-0.0157795,-0.296415,0.0138719,0.0289374,818,1513,-0.763888,-6.00696
-399,-489,-0.721619,5.96472,0.00668479,-0.0167585,-0.00826765,0.00930717,-0.0193809,-0.307148,0.0169,0.0356653,825,1513,-0.72162,-5.96475
-392,-489,-0.578857,5.99768,0.00739806,-0.0198907,-0.0104233,0.0109238,-0.0234164,-0.326177,0.020259,0.0397794,832,1513,-0.578852,-5.99764
-385,-489,-0.420166,6.00342,0.00777162,-0.0227993,-0.0130782,0.0126029,-0.0276306,-0.353867,0.0237628,0.0449201,839,1513,-0.420148,-6.00343
-378,-489,-0.0267334,6.12695,0,0,0,0,0,0,0,-1,846,1513,-0.0267589,-6.127
-371,-489,-0.21167,8.22852,0,0,0,0,0,0,0,-1,853,1513,-0.211662,-8.22847
-364,-489,-0.503113,8.98486,0,0,0,0,0,0,0,-1,860,1513,-0.503097,-8.98482
-357,-489,-0.609924,10.9606,0,0,0,0,0,0,0,-1,867,1513,-0.609947,-10.9605
-350,-489,-7.94659,-0.358887,0,0,0,0,0,0,0,-1,874,1513,-7.94657,0.358912
-343,-489,-7.49323,-0.437866,0,0,0,0,0,0,0,-1,881,1513,-7.49322,0.437823
-336,-489,-7.02332,-0.53125,0,0,0,0,0,0,0,-1,888,1513,-7.0233,0.531295
-329,-489,-6.70221,-0.242432,0,0,0,0,0,0,0,-1,895,1513,-6.70221,0.2424
-322,-489,0,0,0,0,0,0,0,0,0,-1,902,1513,0,0
-315,-489,0,0,0,0,0,0,0,0,0,-1,909,1513,0,0
-308,-489,0,0,0,0,0,0,0,0,0,-1,916,1513,0,0
-301,-489,0,0,0,0,0,0,0,0,0,-1,923,1513,0,0
-294,-489,0,0,0,0,0,0,0,0,0,-1,930,1513,0,0
-287,-489,0,0,0,0,0,0,0,0,0,-1,937,1513,0,0
-280,-489,0,0,0,0,0,0,0,0,0,-1,944,1513,0,0
-273,-489,0,0,0,0,0,0,0,0,0,-1,951,1513,0,0
-266,-489,0,0,0,0,0,0,0,0,0,-1,958,1513,0,0
-259,-489,0,0,0,0,0,0,0,0,0,-1,965,1513,0,0
-252,-489,0,0,0,0,0,0,0,0,0,-1,972,1513,0,0
-245,-489,0,0,0,0,0,0,0,0,0,-1,979,1513,0,0
-238,-489,0,0,0,0,0,0,0,0,0,-1,986,1513,0,0
-231,-489,0,0,0,0,0,0,0,0,0,-1,993,1513,0,0
-224,-489,0,0,0,0,0,0,0,0,0,-1,1000,1513,0,0
-217,-489,0,0,0,0,0,0,0,0,0,-1,1007,1513,0,0
-210,-489,0,0,0,0,0,0,0,0,0,-1,1014,1513,0,0
-203,-489,0,0,0,0,0,0,0,0,0,-1,1021,1513,0,0
-196,-489,0,0,0,0,0,0,0,0,0,-1,1028,1513,0,0
-189,-489,0,0,0,0,0,0,0,0,0,-1,1035,1513,0,0
-182,-489,0,0,0,0,0,0,0,0,0,-1,1042,1513,0,0
-175,-489,0,0,0,0,0,0,0,0,0,-1,1049,1513,0,0
-168,-489,0,0,0,0,0,0,0,0,0,-1,1056,1513,0,0
-161,-489,0,0,0,0,0,0,0,0,0,-1,1063,1513,0,0
-154,-489,0,0,0,0,0,0,0,0,0,-1,1070,1513,0,0
-147,-489,0,0,0,0,0,0,0,0,0,-1,1077,1513,0,0
-140,-489,0,0,0,0,0,0,0,0,0,-1,1084,1513,0,0
-133,-489,0,0,0,0,0,0,0,0,0,-1,1091,1513,0,0
-126,-489,0,0,0,0,0,0,0,0,0,-1,1098,1513,0,0
-119,-489,0,0,0,0,0,0,0,0,0,-1,1105,1513,0,0
-112,-489,0,0,0,0,0,0,0,0,0,-1,1112,1513,0,0
-105,-489,0,0,0,0,0,0,0,0,0,-1,1119,1513,0,0
-98,-489,0,0,0,0,0,0,0,0,0,-1,1126,1513,0,0
-91,-489,0,0,0,0,0,0,0,0,0,-1,1133,1513,0,0
-84,-489,0,0,0,0,0,0,0,0,0,-1,1140,1513,0,0
-77,-489,0,0,0,0,0,0,0,0,0,-1,1147,1513,0,0
-70,-489,0,0,0,0,0,0,0,0,0,-1,1154,1513,0,0
-63,-489,0,0,0,0,0,0,0,0,0,-1,1161,1513,0,0
-56,-489,0,0,0,0,0,0,0,0,0,-1,1168,1513,0,0
-49,-489,0,0,0,0,0,0,0,0,0,-1,1175,1513,0,0
-42,-489,0,0,0,0,0,0,0,0,0,-1,1182,1513,0,0
-35,-489,0,0,0,0,0,0,0,0,0,-1,1189,1513,0,0
-28,-489,0,0,0,0,0,0,0,0,0,-1,1196,1513,0,0
-21,-489,0,0,0,0,0,0,0,0,0,-1,1203,1513,0,0
-14,-489,0,0,0,0,0,0,0,0,0,-1,1210,1513,0,0
-7,-489,0,0,0,0,0,0,0,0,0,-1,1217,1513,0,0
0,-489,0,0,0,0,0,0,0,0,0,-1,1224,1513,0,0
7,-489,0,0,0,0,0,0,0,0,0,-1,1231,1513,0,0
14,-489,0,0,0,0,0,0,0,0,0,-1,1238,1513,0,0
21,-489,0,0,0,0,0,0,0,0,0,-1,1245,1513,0,0
28,-489,0,0,0,0,0,0,0,0,0,-1,1252,1513,0,0
35,-489,0,0,0,0,0,0,0,0,0,-1,1259,1513,0,0
42,-489,0,0,0,0,0,0,0,0,0,-1,1266,1513,0,0
49,-489,0,0,0,0,0,0,0,0,0,-1,1273,1513,0,0
56,-489,0,0,0,0,0,0,0,0,0,-1,1280,1513,0,0
63,-489,0,0,0,0,0,0,0,0,0,-1,1287,1513,0,0
70,-489,0,0,0,0,0,0,0,0,0,-1,1294,1513,0,0
77,-489,0,0,0,0,0,0,0,0,0,-1,1301,1513,0,0
84,-489,0,0,0,0,0,0,0,0,0,-1,1308,1513,0,0
91,-489,0,0,0,0,0,0,0,0,0,-1,1315,1513,0,0
98,-489,0,0,0,0,0,0,0,0,0,-1,1322,1513,0,0
105,-489,0,0,0,0,0,0,0,0,0,-1,1329,1513,0,0
112,-489,0,0,0,0,0,0,0,0,0,-1,1336,1513,0,0
119,-489,0,0,0,0,0,0,0,0,0,-1,1343,1513,0,0
126,-489,0,0,0,0,0,0,0,0,0,-1,1350,1513,0,0
133,-489,0,0,0,0,0,0,0,0,0,-1,1357,1513,0,0
140,-489,0,0,0,0,0,0,0,0,0,-1,1364,1513,0,0
147,-489,0,0,0,0,0,0,0,0,0,-1,1371,1513,0,0
154,-489,0,0,0,0,0,0,0,0,0,-1,1378,1513,0,0
161,-489,0,0,0,0,0,0,0,0,0,-1,1385,1513,0,0
168,-489,0,0,0,0,0,0,0,0,0,-1,1392,1513,0,0
175,-489,0,0,0,0,0,0,0,0,0,-1,1399,1513,0,0
182,-489,0,0,0,0,0,0,0,0,0,-1,1406,1513,0,0
189,-489,0,0,0,0,0,0,0,0,0,-1,1413,1513,0,0
196,-489,0,0,0,0,0,0,0,0,0,-1,1420,1513,0,0
203,-489,0,0,0,0,0,0,0,0,0,-1,1427,1513,0,0
210,-489,0,0,0,0,0,0,0,0,0,-1,1434,1513,0,0
217,-489,0,0,0,0,0,0,0,0,0,-1,1441,1513,0,0
224,-489,0,0,0,0,0,0,0,0,0,-1,1448,1513,0,0
231,-489,0,0,0,0,0,0,0,0,0,-1,1455,1513,0,0
238,-489,0,0,0,0,0,0,0,0,0,-1,1462,1513,0,0
245,-489,0,0,0,0,0,0,0,0,0,-1,1469,1513,0,0
252,-489,0,0,0,0,0,0,0,0,0,-1,1476,1513,0,0
259,-489,0,0,0,0,0,0,0,0,0,-1,1483,1513,0,0
266,-489,0,0,0,0,0,0,0,0,0,-1,1490,1513,0,0
273,-489,0,0,0,0,0,0,0,0,0,-1,1497,1513,0,0
280,-489,0,0,0,0,0,0,0,0,0,-1,1504,1513,0,0
287,-489,0,0,0,0,0,0,0,0,0,-1,1511,1513,0,0
294,-489,0,0,0,0,0,0,0,0,0,-1,1518,1513,0,0
301,-489,0,0,0,0,0,0,0,0,0,-1,1525,1513,0,0
308,-489,0,0,0,0,0,0,0,0,0,-1,1532,1513,0,0
315,-489,0,0,0,0,0,0,0,0,0,-1,1539,1513,0,0
322,-489,0,0,0,0,0,0,0,0,0,-1,1546,1513,0,0
329,-489,0,0,0,0,0,0,0,0,0,-1,1553,1513,0,0
336,-489,0,0,0,0,0,0,0,0,0,-1,1560,1513,0,0
343,-489,0,0,0,0,0,0,0,0,0,-1,1567,1513,0,0
350,-489,0,0,0,0,0,0,0,0,0,-1,1574,1513,0,0
357,-489,0,0,0,0,0,0,0,0,0,-1,1581,1513,0,0
364,-489,0,0,0,0,0,0,0,0,0,-1,1588,1513,0,0
371,-489,0,0,0,0,0,0,0,0,0,-1,1595,1513,0,0
378,-489,0,0,0,0,0,0,0,0,0,-1,1602,1513,0,0
385,-489,0,0,0,0,0,0,0,0,0,-1,1609,1513,0,0
392,-489,0,0,0,0,0,0,0,0,0,-1,1616,1513,0,0
399,-489,0,0,0,0,0,0,0,0,0,-1,1623,1513,0,0
406,-489,0,0,0,0,0,0,0,0,0,-1,1630,1513,0,0
413,-489,0,0,0,0,0,0,0,0,0,-1,1637,1513,0,0
420,-489,0,0,0,0,0,0,0,0,0,-1,1644,1513,0,0
427,-489,0,0,0,0,0,0,0,0,0,-1,1651,1513,0,0
434,-489,0,0,0,0,0,0,0,0,0,-1,1658,1513,0,0
441,-489,11.4602,2.56787,0,0,0,0,0,0,0,-1,1665,1513,11.4602,-2.56786
448,-489,12.4425,1.72351,0,0,0,0,0,0,0,-1,1672,1513,12.4425,-1.72349
455,-489,12.5575,1.37463,0,0,0,0,0,0,0,-1,1679,1513,12.5575,-1.37469
462,-489,14.9784,3.84888,0,0,0,0,0,0,0,-1,1686,1513,14.9784,-3.84892
469,-489,15.1367,4.53101,0,0,0,0,0,0,0,-1,1693,1513,15.1368,-4.531
476,-489,15.5536,5.09338,0,0,0,0,0,0,0,-1,1700,1513,15.5536,-5.09339
483,-489,16.0366,5.55762,0,0,0,0,0,0,0,-1,1707,1513,16.0366,-5.55761
490,-489,16.3795,5.9082,0,0,0,0,0,0,0,-1,1714,1513,16.3795,-5.90823
497,-489,11.2643,8.33142,0,0,0,0,0,0,0,-1,1721,1513,11.2642,-8.33142
504,-489,10.2596,7.77979,0,0,0,0,0,0,0,-1,1728,1513,10.2596,-7.77979
511,-489,9.53711,7.52576,0,0,0,0,0,0,0,-1,1735,1513,9.53705,-7.52578
518,-489,8.95129,7.74023,-0.014712,-0.0162847,0.0177764,0.00229545,-0.0332922,0.763294,0.0229982,0.048581,1742,1513,8.95131,-7.74019
525,-489,8.54736,7.73059,-0.0132298,-0.0128123,0.0146919,0.00167231,-0.0277145,0.792502,0.0190582,0.0428469,1749,1513,8.54735,-7.73064
532,-489,8.33997,7.50623,-0.0115171,-0.0103346,0.0120909,0.00117948,-0.0230311,0.809829,0.015762,0.0344103,1756,1513,8.34001,-7.50627
539,-489,8.2406,7.39197,-0.00969561,-0.00852518,0.0100039,0.000910556,-0.0191314,0.814614,0.0130683,0.0168167,1763,1513,8.24064,-7.392
546,-489,8.17993,7.2937,-0.00805589,-0.00674993,0.00820318,0.000826214,-0.015632,0.825115,0.0107074,0.0107646,1770,1513,8.17997,-7.29365
553,-489,8.16443,7.16699,-0.00636445,-0.0054626,0.00653151,0.000633532,-0.0124606,0.819863,0.00852608,0.0133169,1777,1513,8.16444,-7.16703
560,-489,8.17896,7.00928,-0.00478633,-0.00427578,0.0049581,0.000433606,-0.00949572,0.811119,0.00647985,0.0129784,1784,1513,8.17894,-7.00932
567,-489,8.20117,6.85242,-0.00320414,-0.0032077,0.00359801,0.000392092,-0.00680393,0.78515,0.00467214,0.0136763,1791,1513,8.20116,-6.85244
574,-489,8.18262,6.71118,-0.00183873,-0.00215155,0.00230412,0.000314283,-0.00430456,0.751509,0.00297999,0.0133115,1798,1513,8.18263,-6.71118
581,-489,8.17822,6.55029,-0.00120958,-0.00143755,0.00159151,0.000272027,-0.00291915,0.749649,0.00204282,0.0104601,1805,1513,8.17822,-6.55028
588,-489,8.17908,6.36523,-0.000735381,-0.000517963,0.000873952,0.000254015,-0.00150736,0.847274,0.0010994,0.0136194,1812,1513,8.1791,-6.36518
595,-489,8.18872,6.19043,-0.00112797,-9.39664e-05,0.000532727,0.000131386,-0.00135332,1.17061,0.000949044,0.0195351,1819,1513,8.18869,-6.19039
602,-489,8.21289,6.00964,-0.00200594,3.18508e-05,0.00039978,0.000107474,-0.00208156,1.38384,0.00142488,0.0232735,1826,1513,8.21289,-6.00964
609,-489,8.19727,5.85168,-0.00290211,-5.46547e-05,0.000282366,-2.6924e-05,-0.00292984,1.4729,0.00194431,0.0156482,1833,1513,8.19721,-5.85165
616,-489,8.1781,5.70837,-0.0046972,-0.000534196,0.000690144,-0.000422766,-0.00480863,1.41072,0.00307454,0.00976363,1840,1513,8.17806,-5.7084
623,-489,8.21143,5.59753,-0.00719988,-0.00154973,0.001349,-0.00124417,-0.00750543,1.34805,0.00464478,0.0148766,1847,1513,8.21144,-5.59756
630,-489,8.18616,5.58484,-0.0103381,-0.00314372,0.0021564,-0.00254689,-0.0109349,1.30078,0.00660669,0.0325386,1854,1513,8.18619,-5.58486
637,-489,8.02356,5.7616,0,0,0,0,0,0,0,-1,1861,1513,8.02359,-5.76166
644,-489,7.94275,5.85339,0,0,0,0,0,0,0,-1,1868,1513,7.94276,-5.85341
651,-489,5.2113,5.91199,0,0,0,0,0,0,0,-1,1875,1513,5.21129,-5.91204
658,-489,3.45959,6.10022,0,0,0,0,0,0,0,-1,1882,1513,3.45959,-6.10021
665,-489,3.25195,7.02124,0,0,0,0,0,0,0,-1,1889,1513,3.25199,-7.02128
672,-489,0,0,0,0,0,0,0,0,0,-1,1896,1513,0,0
679,-489,0,0,0,0,0,0,0,0,0,-1,1903,1513,0,0
686,-489,0,0,0,0,0,0,0,0,0,-1,1910,1513,0,0
693,-489,0,0,0,0,0,0,0,0,0,-1,1917,1513,0,0
700,-489,0,0,0,0,0,0,0,0,0,-1,1924,1513,0,0
707,-489,0,0,0,0,0,0,0,0,0,-1,1931,1513,0,0
714,-489,0,0,0,0,0,0,0,0,0,-1,1938,1513,0,0
721,-489,0,0,0,0,0,0,0,0,0,-1,1945,1513,0,0
728,-489,0,0,0,0,0,0,0,0,0,-1,1952,1513,0,0
735,-489,0,0,0,0,0,0,0,0,0,-1,1959,1513,0,0
742,-489,0,0,0,0,0,0,0,0,0,-1,1966,1513,0,0
749,-489,0,0,0,0,0,0,0,0,0,-1,1973,1513,0,0
756,-489,0,0,0,0,0,0,0,0,0,-1,1980,1513,0,0
763,-489,0,0,0,0,0,0,0,0,0,-1,1987,1513,0,0
770,-489,0,0,0,0,0,0,0,0,0,-1,1994,1513,0,0
777,-489,0,0,0,0,0,0,0,0,0,-1,2001,1513,0,0
784,-489,0,0,0,0,0,0,0,0,0,-1,2008,1513,0,0
791,-489,0,0,0,0,0,0,0,0,0,-1,2015,1513,0,0
798,-489,0,0,0,0,0,0,0,0,0,-1,2022,1513,0,0
805,-489,0,0,0,0,0,0,0,0,0,-1,2029,1513,0,0
812,-489,0,0,0,0,0,0,0,0,0,-1,2036,1513,0,0
-700,-496,0,0,0,0,0,0,0,0,0,-1,524,1520,0,0
-693,-496,0,0,0,0,0,0,0,0,0,-1,531,1520,0,0
-686,-496,0,0,0,0,0,0,0,0,0,-1,538,1520,0,0
-679,-496,0,0,0,0,0,0,0,0,0,-1,545,1520,0,0
-672,-496,0,0,0,0,0,0,0,0,0,-1,552,1520,0,0
-665,-496,0,0,0,0,0,0,0,0,0,-1,559,1520,0,0
-658,-496,0,0,0,0,0,0,0,0,0,-1,566,1520,0,0
-651,-496,0,0,0,0,0,0,0,0,0,-1,573,1520,0,0
-644,-496,0,0,0,0,0,0,0,0,0,-1,580,1520,0,0
-637,-496,0,0,0,0,0,0,0,0,0,-1,587,1520,0,0
-630,-496,0,0,0,0,0,0,0,0,0,-1,594,1520,0,0
-623,-496,0,0,0,0,0,0,0,0,0,-1,601,1520,0,0
-616,-496,0,0,0,0,0,0,0,0,0,-1,608,1520,0,0
-609,-496,0,0,0,0,0,0,0,0,0,-1,615,1520,0,0
-602,-496,0,0,0,0,0,0,0,0,0,-1,622,1520,0,0
-595,-496,0,0,0,0,0,0,0,0,0,-1,629,1520,0,0
-588,-496,0,0,0,0,0,0,0,0,0,-1,636,1520,0,0
-581,-496,0,0,0,0,0,0,0,0,0,-1,643,1520,0,0
-574,-496,0,0,0,0,0,0,0,0,0,-1,650,1520,0,0
-567,-496,0,0,0,0,0,0,0,0,0,-1,657,1520,0,0
-560,-496,0,0,0,0,0,0,0,0,0,-1,664,1520,0,0
-553,-496,0,0,0,0,0,0,0,0,0,-1,671,1520,0,0
-546,-496,2.59515,0.953369,0,0,0,0,0,0,0,-1,678,1520,2.59515,-0.953344
-539,-496,2.09955,1.53625,-0.0131598,0.00480236,0.0477793,0.0444373,-0.0527948,0.878299,0.0562061,0.0489873,685,1520,2.09956,-1.53627
-532,-496,1.5799,2.08936,-0.0199057,0.00225723,0.0376337,0.030407,-0.0480555,0.92858,0.0456808,0.0459587,692,1520,1.57992,-2.0894
-525,-496,0.918579,2.37122,-0.0216588,0.00088973,0.029549,0.0212422,-0.0420113,0.967647,0.0371698,0.0483953,699,1520,0.918587,-2.3712
-518,-496,-0.140198,3.49353,-0.0209652,0.000286338,0.0227082,0.0147319,-0.0354107,1.00423,0.0297591,0.0494069,706,1520,-0.140219,-3.49354
-511,-496,-0.549866,3.36926,-0.0193425,4.6229e-05,0.0168369,0.00978021,-0.0290765,1.04661,0.0233378,0.0453386,713,1520,-0.549856,-3.36923
-504,-496,-0.59314,3.26929,-0.0169879,-7.50589e-05,0.0120123,0.0061589,-0.0232219,1.09209,0.0178911,0.0477212,720,1520,-0.593124,-3.26926
-497,-496,-0.787109,3.7124,-0.014789,-0.000525674,0.00775179,0.00287599,-0.0181906,1.15728,0.0131907,0.0473285,727,1520,-0.78712,-3.71236
-490,-496,-0.653625,4.15137,-0.0125194,-0.000779859,0.00429889,0.000625986,-0.0139253,1.25473,0.00949907,0.0369152,734,1520,-0.653636,-4.15142
-483,-496,-0.668091,4.24658,-0.00951014,-0.00056165,0.0018239,-0.00020418,-0.00986761,1.37726,0.00651142,0.0182543,741,1520,-0.668099,-4.24655
-476,-496,-0.665039,4.36206,-0.00630272,-0.000414243,0.000619528,-0.000349768,-0.00636719,1.4671,0.00413314,0.0101461,748,1520,-0.665032,-4.36201
-469,-496,-0.655823,4.5542,-0.00342809,-0.000394063,-0.000329018,-0.000358794,-0.00346336,-1.46401,0.00219909,0.00972367,755,1520,-0.655795,-4.55414
-462,-496,-0.659058,4.7627,-0.00169276,-0.000328045,-0.000898503,0.000117835,-0.00213864,-1.11015,0.00146661,0.0145266,762,1520,-0.659067,-4.76265
-455,-496,-0.654053,4.93225,-0.000726831,-0.000689701,-0.00121736,0.000509238,-0.00192577,-0.793023,0.00148303,0.0193126,769,1520,-0.654067,-4.93226
-448,-496,-0.656128,5.08472,4.73317e-05,-0.00135749,-0.00138199,0.000895174,-0.00220534,-0.550281,0.00184258,0.0182726,776,1520,-0.656123,-5.08466
-441,-496,-0.674622,5.271,0.000916926,-0.00233115,-0.00163879,0.00160008,-0.0030143,-0.39496,0.0027055,0.0145368,783,1520,-0.674607,-5.27098
-434,-496,-0.669495,5.45764,0.00177796,-0.0035025,-0.00187726,0.00237732,-0.00410186,-0.309042,0.00378466,0.0131376,790,1520,-0.669465,-5.4577
-427,-496,-0.665833,5.63501,0.00292679,-0.00497339,-0.00212938,0.00346418,-0.00551077,-0.247207,0.00522641,0.0164292,797,1520,-0.665837,-5.63503
-420,-496,-0.659241,5.80371,0.00391912,-0.00682487,-0.0026086,0.00451898,-0.00742474,-0.226028,0.0069634,0.0173888,804,1520,-0.659233,-5.80368
-413,-496,-0.634521,5.99609,0.0047035,-0.00914823,-0.00338432,0.00548615,-0.00993088,-0.227263,0.00902349,0.0161147,811,1520,-0.634527,-5.99608
-406,-496,-0.619385,6.19812,0.00513302,-0.0110478,-0.0049729,0.00653915,-0.012454,-0.275566,0.0111415,0.0236324,818,1520,-0.619415,-6.19813
-399,-496,-0.639954,6.26416,0,0,0,0,0,0,0,-1,825,1520,-0.639947,-6.26411
-392,-496,-0.624084,6.28589,0.00642365,-0.016068,-0.00825677,0.00912927,-0.0187737,-0.316658,0.0164274,0.0380851,832,1520,-0.624062,-6.28588
-385,-496,-0.479797,6.32324,0.00668134,-0.0183713,-0.0105229,0.0105147,-0.0222047,-0.349348,0.0192883,0.0421637,839,1520,-0.479803,-6.32321
-378,-496,-0.126221,6.24768,0.00654738,-0.0201769,-0.0131442,0.0119287,-0.0255583,-0.388588,0.0221148,0.045265,846,1520,-0.126225,-6.24769
-371,-496,-0.0987549,6.4928,0,0,0,0,0,0,0,-1,853,1520,-0.0987615,-6.49283
-364,-496,0.348938,8.59265,0,0,0,0,0,0,0,-1,860,1520,0.348918,-8.59261
-357,-496,0.323792,7.56812,0,0,0,0,0,0,0,-1,867,1520,0.323782,-7.56806
-350,-496,2.1535,7.18945,0,0,0,0,0,0,0,-1,874,1520,2.15348,-7.1894
-343,-496,-7.56244,0.335327,0,0,0,0,0,0,0,-1,881,1520,-7.56242,-0.335322
-336,-496,-7.664,-0.446289,0,0,0,0,0,0,0,-1,888,1520,-7.66398,0.446252
-329,-496,-6.93689,-0.100342,0,0,0,0,0,0,0,-1,895,1520,-6.93686,0.1003
-322,-496,-6.17505,0.494385,0,0,0,0,0,0,0,-1,902,1520,-6.17507,-0.49437
-315,-496,-5.46338,1.0459,0,0,0,0,0,0,0,-1,909,1520,-5.46338,-1.04587
-308,-496,0,0,0,0,0,0,0,0,0,-1,916,1520,0,0
-301,-496,0,0,0,0,0,0,0,0,0,-1,923,1520,0,0
-294,-496,0,0,0,0,0,0,0,0,0,-1,930,1520,0,0
-287,-496,0,0,0,0,0,0,0,0,0,-1,937,1520,0,0
-280,-496,0,0,0,0,0,0,0,0,0,-1,944,1520,0,0
-273,-496,0,0,0,0,0,0,0,0,0,-1,951,1520,0,0
-266,-496,0,0,0,0,0,0,0,0,0,-1,958,1520,0,0
-259,-496,0,0,0,0,0,0,0,0,0,-1,965,1520,0,0
-252,-496,0,0,0,0,0,0,0,0,0,-1,972,1520,0,0
-245,-496,0,0,0,0,0,0,0,0,0,-1,979,1520,0,0
-238,-496,0,0,0,0,0,0,0,0,0,-1,986,1520,0,0
-231,-496,0,0,0,0,0,0,0,0,0,-1,993,1520,0,0
-224,-496,0,0,0,0,0,0,0,0,0,-1,1000,1520,0,0
-217,-496,0,0,0,0,0,0,0,0,0,-1,1007,1520,0,0
-210,-496,0,0,0,0,0,0,0,0,0,-1,1014,1520,0,0
-203,-496,0,0,0,0,0,0,0,0,0,-1,1021,1520,0,0
-196,-496,0,0,0,0,0,0,0,0,0,-1,1028,1520,0,0
-189,-496,0,0,0,0,0,0,0,0,0,-1,1035,1520,0,0
-182,-496,0,0,0,0,0,0,0,0,0,-1,1042,1520,0,0
-175,-496,0,0,0,0,0,0,0,0,0,-1,1049,1520,0,0
-168,-496,0,0,0,0,0,0,0,0,0,-1,1056,1520,0,0
-161,-496,0,0,0,0,0,0,0,0,0,-1,1063,1520,0,0
-154,-496,0,0,0,0,0,0,0,0,0,-1,1070,1520,0,0
-147,-496,0,0,0,0,0,0,0,0,0,-1,1077,1520,0,0
-140,-496,0,0,0,0,0,0,0,0,0,-1,1084,1520,0,0
-133,-496,0,0,0,0,0,0,0,0,0,-1,1091,1520,0,0
-126,-496,0,0,0,0,0,0,0,0,0,-1,1098,1520,0,0
-119,-496,0,0,0,0,0,0,0,0,0,-1,1105,1520,0,0
-112,-496,0,0,0,0,0,0,0,0,0,-1,1112,1520,0,0
-105,-496,0,0,0,0,0,0,0,0,0,-1,1119,1520,0,0
-98,-496,0,0,0,0,0,0,0,0,0,-1,1126,1520,0,0
-91,-496,0,0,0,0,0,0,0,0,0,-1,1133,1520,0,0
-84,-496,0,0,0,0,0,0,0,0,0,-1,1140,1520,0,0
-77,-496,0,0,0,0,0,0,0,0,0,-1,1147,1520,0,0
-70,-496,0,0,0,0,0,0,0,0,0,-1,1154,1520,0,0
-63,-496,0,0,0,0,0,0,0,0,0,-1,1161,1520,0,0
-56,-496,0,0,0,0,0,0,0,0,0,-1,1168,1520,0,0
-49,-496,0,0,0,0,0,0,0,0,0,-1,1175,1520,0,0
-42,-496,0,0,0,0,0,0,0,0,0,-1,1182,1520,0,0
-35,-496,0,0,0,0,0,0,0,0,0,-1,1189,1520,0,0
-28,-496,0,0,0,0,0,0,0,0,0,-1,1196,1520,0,0
-21,-496,0,0,0,0,0,0,0,0,0,-1,1203,1520,0,0
-14,-496,0,0,0,0,0,0,0,0,0,-1,1210,1520,0,0
-7,-496,0,0,0,0,0,0,0,0,0,-1,1217,1520,0,0
0,-496,0,0,0,0,0,0,0,0,0,-1,1224,1520,0,0
7,-496,0,0,0,0,0,0,0,0,0,-1,1231,1520,0,0
14,-496,0,0,0,0,0,0,0,0,0,-1,1238,1520,0,0
21,-496,0,0,0,0,0,0,0,0,0,-1,1245,1520,0,0
28,-496,0,0,0,0,0,0,0,0,0,-1,1252,1520,0,0
35,-496,0,0,0,0,0,0,0,0,0,-1,1259,1520,0,0
42,-496,0,0,0,0,0,0,0,0,0,-1,1266,1520,0,0
49,-496,0,0,0,0,0,0,0,0,0,-1,1273,1520,0,0
56,-496,0,0,0,0,0,0,0,0,0,-1,1280,1520,0,0
63,-496,0,0,0,0,0,0,0,0,0,-1,1287,1520,0,0
70,-496,0,0,0,0,0,0,0,0,0,-1,1294,1520,0,0
77,-496,0,0,0,0,0,0,0,0,0,-1,1301,1520,0,0
84,-496,0,0,0,0,0,0,0,0,0,-1,1308,1520,0,0
91,-496,0,0,0,0,0,0,0,0,0,-1,1315,1520,0,0
98,-496,0,0,0,0,0,0,0,0,0,-1,1322,1520,0,0
105,-496,0,0,0,0,0,0,0,0,0,-1,1329,1520,0,0
112,-496,0,0,0,0,0,0,0,0,0,-1,1336,1520,0,0
119,-496,0,0,0,0,0,0,0,0,0,-1,1343,1520,0,0
126,-496,0,0,0,0,0,0,0,0,0,-1,1350,1520,0,0
133,-496,0,0,0,0,0,0,0,0,0,-1,1357,1520,0,0
140,-496,0,0,0,0,0,0,0,0,0,-1,1364,1520,0,0
147,-496,0,0,0,0,0,0,0,0,0,-1,1371,1520,0,0
154,-496,0,0,0,0,0,0,0,0,0,-1,1378,1520,0,0
161,-496,0,0,0,0,0,0,0,0,0,-1,1385,1520,0,0
168,-496,0,0,0,0,0,0,0,0,0,-1,1392,1520,0,0
175,-496,0,0,0,0,0,0,0,0,0,-1,1399,1520,0,0
182,-496,0,0,0,0,0,0,0,0,0,-1,1406,1520,0,0
189,-496,0,0,0,0,0,0,0,0,0,-1,1413,1520,0,0
196,-496,0,0,0,0,0,0,0,0,0,-1,1420,1520,0,0
203,-496,0,0,0,0,0,0,0,0,0,-1,1427,1520,0,0
210,-496,0,0,0,0,0,0,0,0,0,-1,1434,1520,0,0
217,-496,0,0,0,0,0,0,0,0,0,-1,1441,1520,0,0
224,-496,0,0,0,0,0,0,0,0,0,-1,1448,1520,0,0
231,-496,0,0,0,0,0,0,0,0,0,-1,1455,1520,0,0
238,-496,0,0,0,0,0,0,0,0,0,-1,1462,1520,0,0
245,-496,0,0,0,0,0,0,0,0,0,-1,1469,1520,0,0
252,-496,0,0,0,0,0,0,0,0,0,-1,1476,1520,0,0
259,-496,0,0,0,0,0,0,0,0,0,-1,1483,1520,0,0
266,-496,0,0,0,0,0,0,0,0,0,-1,1490,1520,0,0
273,-496,0,0,0,0,0,0,0,0,0,-1,1497,1520,0,0
280,-496,0,0,0,0,0,0,0,0,0,-1,1504,1520,0,0
287,-496,0,0,0,0,0,0,0,0,0,-1,1511,1520,0,0
294,-496,0,0,0,0,0,0,0,0,0,-1,1518,1520,0,0
301,-496,0,0,0,0,0,0,0,0,0,-1,1525,1520,0,0
308,-496,0,0,0,0,0,0,0,0,0,-1,1532,1520,0,0
315,-496,0,0,0,0,0,0,0,0,0,-1,1539,1520,0,0
322,-496,0,0,0,0,0,0,0,0,0,-1,1546,1520,0,0
329,-496,0,0,0,0,0,0,0,0,0,-1,1553,1520,0,0
336,-496,0,0,0,0,0,0,0,0,0,-1,1560,1520,0,0
343,-496,0,0,0,0,0,0,0,0,0,-1,1567,1520,0,0
350,-496,0,0,0,0,0,0,0,0,0,-1,1574,1520,0,0
357,-496,0,0,0,0,0,0,0,0,0,-1,1581,1520,0,0
364,-496,0,0,0,0,0,0,0,0,0,-1,1588,1520,0,0
371,-496,0,0,0,0,0,0,0,0,0,-1,1595,1520,0,0
378,-496,0,0,0,0,0,0,0,0,0,-1,1602,1520,0,0
385,-496,0,0,0,0,0,0,0,0,0,-1,1609,1520,0,0
392,-496,0,0,0,0,0,0,0,0,0,-1,1616,1520,0,0
399,-496,0,0,0,0,0,0,0,0,0,-1,1623,1520,0,0
406,-496,0,0,0,0,0,0,0,0,0,-1,1630,1520,0,0
413,-496,0,0,0,0,0,0,0,0,0,-1,1637,1520,0,0
420,-496,0,0,0,0,0,0,0,0,0,-1,1644,1520,0,0
427,-496,0,0,0,0,0,0,0,0,0,-1,1651,1520,0,0
434,-496,11.0457,3.37732,0,0,0,0,0,0,0,-1,1658,1520,11.0456,-3.37736
441,-496,11.788,2.75488,0,0,0,0,0,0,0,-1,1665,1520,11.7879,-2.75485
448,-496,12.2146,2.18494,0,0,0,0,0,0,0,-1,1672,1520,12.2146,-2.18489
455,-496,12.3489,1.65173,0,0,0,0,0,0,0,-1,1679,1520,12.3489,-1.65178
462,-496,12.1912,1.32361,0,0,0,0,0,0,0,-1,1686,1520,12.1911,-1.32357
469,-496,14.8138,5.77954,0,0,0,0,0,0,0,-1,1693,1520,14.8138,-5.77958
476,-496,15.2449,6.27942,0,0,0,0,0,0,0,-1,1700,1520,15.2449,-6.27936
483,-496,15.6478,6.77539,0,0,0,0,0,0,0,-1,1707,1520,15.6478,-6.77538
490,-496,10.6152,8.77356,0,0,0,0,0,0,0,-1,1714,1520,10.6153,-8.77361
497,-496,10.0806,8.22351,0,0,0,0,0,0,0,-1,1721,1520,10.0806,-8.22351
504,-496,9.28027,7.77454,0,0,0,0,0,0,0,-1,1728,1520,9.2803,-7.77459
511,-496,8.35913,7.85291,0,0,0,0,0,0,0,-1,1735,1520,8.35915,-7.85293
518,-496,8.27246,7.79663,-0.0105091,-0.0153328,0.0151319,0.00240192,-0.0282438,0.706369,0.0196788,0.047096,1742,1520,8.27247,-7.79665
525,-496,8.23376,7.59851,-0.00953537,-0.0113539,0.0121723,0.0017616,-0.0226509,0.748117,0.0157207,0.0413029,1749,1520,8.23381,-7.59853
532,-496,8.10913,7.57434,-0.00845756,-0.00873084,0.00973417,0.00114093,-0.0183293,0.77838,0.0126171,0.0225827,1756,1520,8.10908,-7.57436
539,-496,8.02478,7.46082,-0.00721795,-0.00698636,0.00789153,0.000790221,-0.0149945,0.792735,0.0102699,0.0118873,1763,1520,8.02477,-7.46084
546,-496,8.00952,7.31091,-0.00603862,-0.00525624,0.00631587,0.000680548,-0.0119754,0.816327,0.00821985,0.00905109,1770,1520,8.00957,-7.31095
553,-496,8.03284,7.15735,-0.0047077,-0.00405128,0.0047952,0.000426924,-0.00918591,0.819568,0.00627109,0.0143078,1777,1520,8.03281,-7.1574
560,-496,8.03796,7.0094,-0.00340539,-0.00288143,0.00334114,0.000207988,-0.00649481,0.824524,0.00440084,0.013749,1784,1520,8.03799,-7.00935
567,-496,8.02466,6.84253,-0.00201768,-0.00190052,0.00209068,0.0001324,-0.00405059,0.799404,0.00274559,0.0111296,1791,1520,8.02462,-6.84251
574,-496,8.03259,6.6709,-0.000843866,-0.0008823,0.00092198,5.90978e-05,-0.00178526,0.774978,0.00121036,0.0119571,1798,1520,8.03262,-6.67093
581,-496,8.02234,6.53748,-0.000451887,-0.00024882,0.000375094,3.82401e-05,-0.000738946,0.917575,0.00050586,0.0134618,1805,1520,8.02233,-6.53743
588,-496,8.021,6.39368,-0.000126126,0.000615196,-0.000258272,0.000696303,-0.000207233,-1.26651,0.000546537,0.0159025,1812,1520,8.02094,-6.39372
595,-496,8.0343,6.2146,-0.000835759,0.000955999,-0.000481768,0.00107732,-0.000957082,-1.3241,0.00117525,0.0169494,1819,1520,8.03428,-6.21455
602,-496,8.04102,6.01636,-0.00226322,0.000964137,-0.00044548,0.0010245,-0.00232358,-1.43612,0.00198092,0.0166695,1826,1520,8.04103,-6.01639
609,-496,8.0376,5.84656,-0.00383024,0.00074428,-0.000280552,0.000761422,-0.00384738,-1.50977,0.0028528,0.0133019,1833,1520,8.03765,-5.84661
616,-496,8.04272,5.69299,-0.00656055,5.4567e-05,0.000484082,8.98037e-05,-0.00659578,1.49813,0.00442743,0.0113349,1840,1520,8.04273,-5.69303
623,-496,8.05481,5.61853,-0.0103598,-0.00129687,0.00157783,-0.00103003,-0.0106267,1.40326,0.00676728,0.025185,1847,1520,8.05476,-5.6185
630,-496,7.89648,5.71643,-0.0152164,-0.00328106,0.0028859,-0.00261989,-0.0158776,1.34558,0.00982885,0.042266,1854,1520,7.89652,-5.71639
637,-496,7.66235,5.75867,0,0,0,0,0,0,0,-1,1861,1520,7.66229,-5.75872
644,-496,6.16846,6.18079,0,0,0,0,0,0,0,-1,1868,1520,6.16848,-6.18083
651,-496,5.56152,6.44385,0,0,0,0,0,0,0,-1,1875,1520,5.56152,-6.44382
658,-496,5.12488,6.82727,0,0,0,0,0,0,0,-1,1882,1520,5.12488,-6.8273
665,-496,4.25964,5.37122,0,0,0,0,0,0,0,-1,1889,1520,4.25962,-5.37126
672,-496,0,0,0,0,0,0,0,0,0,-1,1896,1520,0,0
679,-496,0,0,0,0,0,0,0,0,0,-1,1903,1520,0,0
686,-496,0,0,0,0,0,0,0,0,0,-1,1910,1520,0,0
693,-496,0,0,0,0,0,0,0,0,0,-1,1917,1520,0,0
700,-496,0,0,0,0,0,0,0,0,0,-1,1924,1520,0,0
707,-496,0,0,0,0,0,0,0,0,0,-1,1931,1520,0,0
714,-496,0,0,0,0,0,0,0,0,0,-1,1938,1520,0,0
721,-496,0,0,0,0,0,0,0,0,0,-1,1945,1520,0,0
728,-496,0,0,0,0,0,0,0,0,0,-1,1952,1520,0,0
735,-496,0,0,0,0,0,0,0,0,0,-1,1959,1520,0,0
742,-496,0,0,0,0,0,0,0,0,0,-1,1966,1520,0,0
749,-496,0,0,0,0,0,0,0,0,0,-1,1973,1520,0,0
756,-496,0,0,0,0,0,0,0,0,0,-1,1980,1520,0,0
763,-496,0,0,0,0,0,0,0,0,0,-1,1987,1520,0,0
770,-496,0,0,0,0,0,0,0,0,0,-1,1994,1520,0,0
777,-496,0,0,0,0,0,0,0,0,0,-1,2001,1520,0,0
784,-496,0,0,0,0,0,0,0,0,0,-1,2008,1520,0,0
791,-496,0,0,0,0,0,0,0,0,0,-1,2015,1520,0,0
798,-496,0,0,0,0,0,0,0,0,0,-1,2022,1520,0,0
805,-496,0,0,0,0,0,0,0,0,0,-1,2029,1520,0,0
812,-496,0,0,0,0,0,0,0,0,0,-1,2036,1520,0,0
-700,-503,0,0,0,0,0,0,0,0,0,-1,524,1527,0,0
-693,-503,0,0,0,0,0,0,0,0,0,-1,531,1527,0,0
-686,-503,0,0,0,0,0,0,0,0,0,-1,538,1527,0,0
-679,-503,0,0,0,0,0,0,0,0,0,-1,545,1527,0,0
-672,-503,0,0,0,0,0,0,0,0,0,-1,552,1527,0,0
-665,-503,0,0,0,0,0,0,0,0,0,-1,559,1527,0,0
-658,-503,0,0,0,0,0,0,0,0,0,-1,566,1527,0,0
-651,-503,0,0,0,0,0,0,0,0,0,-1,573,1527,0,0
-644,-503,0,0,0,0,0,0,0,0,0,-1,580,1527,0,0
-637,-503,0,0,0,0,0,0,0,0,0,-1,587,1527,0,0
-630,-503,0,0,0,0,0,0,0,0,0,-1,594,1527,0,0
-623,-503,0,0,0,0,0,0,0,0,0,-1,601,1527,0,0
-616,-503,0,0,0,0,0,0,0,0,0,-1,608,1527,0,0
-609,-503,0,0,0,0,0,0,0,0,0,-1,615,1527,0,0
-602,-503,0,0,0,0,0,0,0,0,0,-1,622,1527,0,0
-595,-503,0,0,0,0,0,0,0,0,0,-1,629,1527,0,0
-588,-503,0,0,0,0,0,0,0,0,0,-1,636,1527,0,0
-581,-503,0,0,0,0,0,0,0,0,0,-1,643,1527,0,0
-574,-503,0,0,0,0,0,0,0,0,0,-1,650,1527,0,0
-567,-503,0,0,0,0,0,0,0,0,0,-1,657,1527,0,0
-560,-503,0,0,0,0,0,0,0,0,0,-1,664,1527,0,0
-553,-503,0,0,0,0,0,0,0,0,0,-1,671,1527,0,0
-546,-503,0,0,0,0,0,0,0,0,0,-1,678,1527,0,0
-539,-503,2.21802,1.60535,-0.0272297,-0.00379176,0.0469994,0.0329276,-0.0639491,0.907578,0.0568796,0.0447846,685,1527,2.21799,-1.60533
-532,-503,1.98627,2.32007,-0.031445,-0.00476914,0.0379426,0.0221116,-0.0583257,0.954416,0.0479838,0.0443392,692,1527,1.9863,-2.32008
-525,-503,1.2348,2.45349,0,0,0,0,0,0,0,-1,699,1527,1.23481,-2.45345
-518,-503,-0.0155029,3.60962,0,0,0,0,0,0,0,-1,706,1527,-0.0155074,-3.6096
-511,-503,-0.279297,2.44531,0,0,0,0,0,0,0,-1,713,1527,-0.279319,-2.44537
-504,-503,-0.477295,3.14941,0,0,0,0,0,0,0,-1,720,1527,-0.477323,-3.14945
-497,-503,-0.697815,3.76953,0,0,0,0,0,0,0,-1,727,1527,-0.697843,-3.76958
-490,-503,-0.429321,4.14941,-0.0152152,0.00112912,0.00573444,0.00294034,-0.0170264,1.26486,0.0124474,0.0477853,734,1527,-0.429292,-4.14941
-483,-503,-0.392822,4.26221,-0.0116784,0.00170841,0.00298853,0.00234528,-0.0123153,1.36083,0.00909332,0.0362047,741,1527,-0.392822,-4.26221
-476,-503,-0.443237,4.39941,-0.00802653,0.0021549,0.0015613,0.00238894,-0.00826057,1.422,0.0064525,0.0169164,748,1527,-0.443225,-4.39945
-469,-503,-0.474854,4.56335,-0.00474364,0.00228898,0.00039454,0.00231104,-0.0047657,1.51493,0.00416688,0.00938617,755,1527,-0.474857,-4.56334
-462,-503,-0.482666,4.76135,-0.00277074,0.00217672,-0.000133804,0.00218034,-0.00277436,-1.54378,0.00286744,0.0112445,762,1527,-0.482659,-4.76136
-455,-503,-0.473755,4.94727,-0.00164472,0.0016367,-0.000424262,0.00169066,-0.00169869,-1.44428,0.00195685,0.016292,769,1527,-0.473777,-4.94729
-448,-503,-0.460632,5.10181,-0.000751935,0.00076301,-0.000547667,0.000940258,-0.000929184,-1.25779,0.00107933,0.0159341,776,1527,-0.460627,-5.10181
-441,-503,-0.467834,5.26965,0.000170457,-0.000344389,-0.000765303,0.000720471,-0.000894403,-0.623159,0.000934149,0.0130354,783,1527,-0.467813,-5.2696
-434,-503,-0.484924,5.46545,0.00105242,-0.00161016,-0.000946247,0.00135444,-0.00191218,-0.308961,0.00189513,0.0100114,790,1527,-0.4849,-5.46546
-427,-503,-0.489868,5.62952,0.00222262,-0.00308706,-0.00111408,0.00244691,-0.00331135,-0.198662,0.00333699,0.0159783,797,1527,-0.489869,-5.62951
-420,-503,-0.472351,5.79846,0.00316484,-0.00485851,-0.00148767,0.0034318,-0.00512547,-0.177557,0.00497269,0.018097,804,1527,-0.472346,-5.7984
-413,-503,-0.483765,6.00439,0.0038317,-0.00702674,-0.00214133,0.00423872,-0.00743376,-0.187838,0.00682275,0.0151012,811,1527,-0.483757,-6.00438
-406,-503,-0.471375,6.17358,0.00414423,-0.00863715,-0.00354966,0.00506387,-0.00955679,-0.253506,0.00857307,0.0132615,818,1527,-0.471364,-6.17355
-399,-503,-0.37384,6.37585,0.0047501,-0.0106721,-0.00478798,0.00611567,-0.0120376,-0.277831,0.0106651,0.0164512,825,1527,-0.37382,-6.3759
-392,-503,-0.28241,6.55603,0.0051871,-0.0126618,-0.00640792,0.00724933,-0.0147241,-0.311358,0.0129287,0.0291673,832,1527,-0.282431,-6.55602
-385,-503,-0.352783,6.45129,0.00545724,-0.0144068,-0.00833875,0.00849364,-0.0174432,-0.349208,0.0152689,0.0364496,839,1527,-0.352773,-6.45129
-378,-503,-0.257385,6.43066,0.00555681,-0.0158008,-0.0104994,0.00985379,-0.0200978,-0.388463,0.0176265,0.0439372,846,1527,-0.257362,-6.43068
-371,-503,-0.258728,6.46838,0.00561307,-0.0165272,-0.012637,0.011343,-0.0222571,-0.425698,0.0197372,0.04654,853,1527,-0.258727,-6.46841
-364,-503,-0.0853882,6.55334,0,0,0,0,0,0,0,-1,860,1527,-0.0854154,-6.55329
-357,-503,-2.10437,7.26636,0,0,0,0,0,0,0,-1,867,1527,-2.10436,-7.26641
-350,-503,0.219971,6.84827,0,0,0,0,0,0,0,-1,874,1527,0.21996,-6.84831
-343,-503,0.895691,7.56384,0,0,0,0,0,0,0,-1,881,1527,0.8957,-7.56384
-336,-503,1.26941,8.81177,0,0,0,0,0,0,0,-1,888,1527,1.26943,-8.81178
-329,-503,-6.71832,-0.386597,0,0,0,0,0,0,0,-1,895,1527,-6.71832,0.386628
-322,-503,-6.18427,0.137573,0,0,0,0,0,0,0,-1,902,1527,-6.18427,-0.137575
-315,-503,-5.76038,0.790649,0,0,0,0,0,0,0,-1,909,1527,-5.76037,-0.790667
-308,-503,-5.62927,1.49963,0,0,0,0,0,0,0,-1,916,1527,-5.62925,-1.49969
-301,-503,0,0,0,0,0,0,0,0,0,-1,923,1527,0,0
-294,-503,0,0,0,0,0,0,0,0,0,-1,930,1527,0,0
-287,-503,0,0,0,0,0,0,0,0,0,-1,937,1527,0,0
-280,-503,0,0,0,0,0,0,0,0,0,-1,944,1527,0,0
-273,-503,0,0,0,0,0,0,0,0,0,-1,951,1527,0,0
-266,-503,0,0,0,0,0,0,0,0,0,-1,958,1527,0,0
-259,-503,0,0,0,0,0,0,0,0,0,-1,965,1527,0,0
-252,-503,0,0,0,0,0,0,0,0,0,-1,972,1527,0,0
-245,-503,0,0,0,0,0,0,0,0,0,-1,979,1527,0,0
-238,-503,0,0,0,0,0,0,0,0,0,-1,986,1527,0,0
-231,-503,0,0,0,0,0,0,0,0,0,-1,993,1527,0,0
-224,-503,0,0,0,0,0,0,0,0,0,-1,1000,1527,0,0
-217,-503,0,0,0,0,0,0,0,0,0,-1,1007,1527,0,0
-210,-503,0,0,0,0,0,0,0,0,0,-1,1014,1527,0,0
-203,-503,0,0,0,0,0,0,0,0,0,-1,1021,1527,0,0
-196,-503,0,0,0,0,0,0,0,0,0,-1,1028,1527,0,0
-189,-503,0,0,0,0,0,0,0,0,0,-1,1035,1527,0,0
-182,-503,0,0,0,0,0,0,0,0,0,-1,1042,1527,0,0
-175,-503,0,0,0,0,0,0,0,0,0,-1,1049,1527,0,0
-168,-503,0,0,0,0,0,0,0,0,0,-1,1056,1527,0,0
-161,-503,0,0,0,0,0,0,0,0,0,-1,1063,1527,0,0
-154,-503,0,0,0,0,0,0,0,0,0,-1,1070,1527,0,0
-147,-503,0,0,0,0,0,0,0,0,0,-1,1077,1527,0,0
-140,-503,0,0,0,0,0,0,0,0,0,-1,1084,1527,0,0
-133,-503,0,0,0,0,0,0,0,0,0,-1,1091,1527,0,0
-126,-503,0,0,0,0,0,0,0,0,0,-1,1098,1527,0,0
-119,-503,0,0,0,0,0,0,0,0,0,-1,1105,1527,0,0
-112,-503,0,0,0,0,0,0,0,0,0,-1,1112,1527,0,0
-105,-503,0,0,0,0,0,0,0,0,0,-1,1119,1527,0,0
-98,-503,0,0,0,0,0,0,0,0,0,-1,1126,1527,0,0
-91,-503,0,0,0,0,0,0,0,0,0,-1,1133,1527,0,0
-84,-503,0,0,0,0,0,0,0,0,0,-1,1140,1527,0,0
-77,-503,0,0,0,0,0,0,0,0,0,-1,1147,1527,0,0
-70,-503,0,0,0,0,0,0,0,0,0,-1,1154,1527,0,0
-63,-503,0,0,0,0,0,0,0,0,0,-1,1161,1527,0,0
-56,-503,0,0,0,0,0,0,0,0,0,-1,1168,1527,0,0
-49,-503,0,0,0,0,0,0,0,0,0,-1,1175,1527,0,0
-42,-503,0,0,0,0,0,0,0,0,0,-1,1182,1527,0,0
-35,-503,0,0,0,0,0,0,0,0,0,-1,1189,1527,0,0
-28,-503,0,0,0,0,0,0,0,0,0,-1,1196,1527,0,0
-21,-503,0,0,0,0,0,0,0,0,0,-1,1203,1527,0,0
-14,-503,0,0,0,0,0,0,0,0,0,-1,1210,1527,0,0
-7,-503,0,0,0,0,0,0,0,0,0,-1,1217,1527,0,0
0,-503,0,0,0,0,0,0,0,0,0,-1,1224,1527,0,0
7,-503,0,0,0,0,0,0,0,0,0,-1,1231,1527,0,0
14,-503,0,0,0,0,0,0,0,0,0,-1,1238,1527,0,0
21,-503,0,0,0,0,0,0,0,0,0,-1,1245,1527,0,0
28,-503,0,0,0,0,0,0,0,0,0,-1,1252,1527,0,0
35,-503,0,0,0,0,0,0,0,0,0,-1,1259,1527,0,0
42,-503,0,0,0,0,0,0,0,0,0,-1,1266,1527,0,0
49,-503,0,0,0,0,0,0,0,0,0,-1,1273,1527,0,0
56,-503,0,0,0,0,0,0,0,0,0,-1,1280,1527,0,0
63,-503,0,0,0,0,0,0,0,0,0,-1,1287,1527,0,0
70,-503,0,0,0,0,0,0,0,0,0,-1,1294,1527,0,0
77,-503,0,0,0,0,0,0,0,0,0,-1,1301,1527,0,0
84,-503,0,0,0,0,0,0,0,0,0,-1,1308,1527,0,0
91,-503,0,0,0,0,0,0,0,0,0,-1,1315,1527,0,0
98,-503,0,0,0,0,0,0,0,0,0,-1,1322,1527,0,0
105,-503,0,0,0,0,0,0,0,0,0,-1,1329,1527,0,0
112,-503,0,0,0,0,0,0,0,0,0,-1,1336,1527,0,0
119,-503,0,0,0,0,0,0,0,0,0,-1,1343,1527,0,0
126,-503,0,0,0,0,0,0,0,0,0,-1,1350,1527,0,0
133,-503,0,0,0,0,0,0,0,0,0,-1,1357,1527,0,0
140,-503,0,0,0,0,0,0,0,0,0,-1,1364,1527,0,0
147,-503,0,0,0,0,0,0,0,0,0,-1,1371,1527,0,0
154,-503,0,0,0,0,0,0,0,0,0,-1,1378,1527,0,0
161,-503,0,0,0,0,0,0,0,0,0,-1,1385,1527,0,0
168,-503,0,0,0,0,0,0,0,0,0,-1,1392,1527,0,0
175,-503,0,0,0,0,0,0,0,0,0,-1,1399,1527,0,0
182,-503,0,0,0,0,0,0,0,0,0,-1,1406,1527,0,0
189,-503,0,0,0,0,0,0,0,0,0,-1,1413,1527,0,0
196,-503,0,0,0,0,0,0,0,0,0,-1,1420,1527,0,0
203,-503,0,0,0,0,0,0,0,0,0,-1,1427,1527,0,0
210,-503,0,0,0,0,0,0,0,0,0,-1,1434,1527,0,0
217,-503,0,0,0,0,0,0,0,0,0,-1,1441,1527,0,0
224,-503,0,0,0,0,0,0,0,0,0,-1,1448,1527,0,0
231,-503,0,0,0,0,0,0,0,0,0,-1,1455,1527,0,0
238,-503,0,0,0,0,0,0,0,0,0,-1,1462,1527,0,0
245,-503,0,0,0,0,0,0,0,0,0,-1,1469,1527,0,0
252,-503,0,0,0,0,0,0,0,0,0,-1,1476,1527,0,0
259,-503,0,0,0,0,0,0,0,0,0,-1,1483,1527,0,0
266,-503,0,0,0,0,0,0,0,0,0,-1,1490,1527,0,0
273,-503,0,0,0,0,0,0,0,0,0,-1,1497,1527,0,0
280,-503,0,0,0,0,0,0,0,0,0,-1,1504,1527,0,0
287,-503,0,0,0,0,0,0,0,0,0,-1,1511,1527,0,0
294,-503,0,0,0,0,0,0,0,0,0,-1,1518,1527,0,0
301,-503,0,0,0,0,0,0,0,0,0,-1,1525,1527,0,0
308,-503,0,0,0,0,0,0,0,0,0,-1,1532,1527,0,0
315,-503,0,0,0,0,0,0,0,0,0,-1,1539,1527,0,0
322,-503,0,0,0,0,0,0,0,0,0,-1,1546,1527,0,0
329,-503,0,0,0,0,0,0,0,0,0,-1,1553,1527,0,0
336,-503,0,0,0,0,0,0,0,0,0,-1,1560,1527,0,0
343,-503,0,0,0,0,0,0,0,0,0,-1,1567,1527,0,0
350,-503,0,0,0,0,0,0,0,0,0,-1,1574,1527,0,0
357,-503,0,0,0,0,0,0,0,0,0,-1,1581,1527,0,0
364,-503,0,0,0,0,0,0,0,0,0,-1,1588,1527,0,0
371,-503,0,0,0,0,0,0,0,0,0,-1,1595,1527,0,0
378,-503,0,0,0,0,0,0,0,0,0,-1,1602,1527,0,0
385,-503,0,0,0,0,0,0,0,0,0,-1,1609,1527,0,0
392,-503,0,0,0,0,0,0,0,0,0,-1,1616,1527,0,0
399,-503,0,0,0,0,0,0,0,0,0,-1,1623,1527,0,0
406,-503,0,0,0,0,0,0,0,0,0,-1,1630,1527,0,0
413,-503,0,0,0,0,0,0,0,0,0,-1,1637,1527,0,0
420,-503,0,0,0,0,0,0,0,0,0,-1,1644,1527,0,0
427,-503,10.5968,4.9856,0,0,0,0,0,0,0,-1,1651,1527,10.5969,-4.98563
434,-503,11.4329,3.97217,0,0,0,0,0,0,0,-1,1658,1527,11.4328,-3.97222
441,-503,12.0957,2.96509,0,0,0,0,0,0,0,-1,1665,1527,12.0957,-2.96512
448,-503,12.3259,2.53894,0,0,0,0,0,0,0,-1,1672,1527,12.326,-2.53895
455,-503,12.1669,2.18762,0,0,0,0,0,0,0,-1,1679,1527,12.1668,-2.18767
462,-503,11.59,2.60791,0,0,0,0,0,0,0,-1,1686,1527,11.5899,-2.60794
469,-503,11.1625,1.61853,0,0,0,0,0,0,0,-1,1693,1527,11.1625,-1.61856
476,-503,15.047,7.33289,0,0,0,0,0,0,0,-1,1700,1527,15.047,-7.33291
483,-503,15.4098,7.77637,0,0,0,0,0,0,0,-1,1707,1527,15.4098,-7.77638
490,-503,8.30957,8.0293,0,0,0,0,0,0,0,-1,1714,1527,8.30952,-8.02926
497,-503,8.34204,7.95898,0,0,0,0,0,0,0,-1,1721,1527,8.34199,-7.95898
504,-503,8.32043,7.63684,0,0,0,0,0,0,0,-1,1728,1527,8.3204,-7.63688
511,-503,8.11877,7.86572,-0.00837166,-0.019843,0.0157469,0.00265168,-0.0308663,0.610746,0.021516,0.0439047,1735,1527,8.11875,-7.8657
518,-503,8.07764,7.8269,-0.0071022,-0.0139563,0.0127163,0.00264072,-0.0236992,0.653775,0.0167492,0.0409864,1742,1527,8.07766,-7.82695
525,-503,7.97327,7.67664,-0.00641181,-0.00986987,0.0100725,0.00207894,-0.0183606,0.700397,0.012989,0.0299666,1749,1527,7.97325,-7.67666
532,-503,7.87756,7.61084,-0.00575194,-0.00728675,0.0078952,0.00141306,-0.0144517,0.736951,0.0101384,0.0118308,1756,1527,7.87756,-7.61079
539,-503,7.85303,7.47363,-0.00492018,-0.00563041,0.00628129,0.00101602,-0.0115666,0.75716,0.00807109,0.0110055,1763,1527,7.85302,-7.47366
546,-503,7.84167,7.31238,-0.00407309,-0.00395518,0.00489693,0.00088315,-0.00891142,0.791417,0.00625614,0.0110632,1770,1527,7.8417,-7.31244
553,-503,7.86877,7.15784,-0.00301583,-0.00282209,0.00348601,0.000568388,-0.00640631,0.799289,0.00447239,0.0136483,1777,1527,7.86877,-7.15778
560,-503,7.85278,7.00574,-0.00193738,-0.00164217,0.00210042,0.00031582,-0.00389538,0.820478,0.00270834,0.0129338,1784,1527,7.85283,-7.00573
567,-503,7.84814,6.82629,-0.000729916,-0.00072148,0.000902942,0.000177254,-0.00162865,0.787734,0.00114942,0.0112532,1791,1527,7.84817,-6.82632
574,-503,7.87671,6.6554,0.000251608,0.000290112,-0.000212007,0.000483739,5.79802e-05,-0.830678,0.000305008,0.0122383,1798,1527,7.87668,-6.65538
581,-503,7.8606,6.52612,0.000404671,0.000896319,-0.000691154,0.00138406,-8.30733e-05,-0.956258,0.00095161,0.0136969,1805,1527,7.86058,-6.52616
588,-503,7.8457,6.41138,0.000572571,0.00176296,-0.00135556,0.00264824,-0.000312703,-0.992266,0.00187842,0.016247,1812,1527,7.84569,-6.41138
595,-503,7.86487,6.22107,-0.000472054,0.00209639,-0.00159074,0.00285659,-0.00123226,-1.12499,0.002422,0.0123935,1819,1527,7.86489,-6.22112
602,-503,7.87402,6.03333,-0.00247821,0.00206502,-0.00151159,0.00252199,-0.00293517,-1.27722,0.0031537,0.0132053,1826,1527,7.87406,-6.03328
609,-503,7.8988,5.85278,-0.0047982,0.00179747,-0.00119239,0.00200641,-0.00500714,-1.39733,0.00417099,0.0162589,1833,1527,7.89886,-5.85277
616,-503,7.87354,5.74719,-0.00857431,0.000991052,-0.000214748,0.00099587,-0.00857913,-1.54836,0.00607863,0.0188354,1840,1527,7.8735,-5.74714
623,-503,7.7793,5.58276,-0.0138023,-0.000560112,0.00123987,-0.000445022,-0.0139174,1.47824,0.00913354,0.0356254,1847,1527,7.77926,-5.58271
630,-503,7.57263,5.72876,-0.0206085,-0.00284092,0.00308008,-0.00232212,-0.0211273,1.40393,0.0133782,0.0451071,1854,1527,7.57263,-5.72877
637,-503,6.89172,5.98669,0,0,0,0,0,0,0,-1,1861,1527,6.89176,-5.98668
644,-503,6.39917,6.29846,-0.0381139,-0.00971454,0.00721843,-0.00798511,-0.0398433,1.33564,0.0243411,0.0440035,1868,1527,6.39917,-6.29846
651,-503,5.85266,6.5752,-0.0476049,-0.0140523,0.00856828,-0.0119909,-0.0496663,1.3347,0.0299257,0.044621,1875,1527,5.85265,-6.57517
658,-503,5.35071,7.01135,0,0,0,0,0,0,0,-1,1882,1527,5.35073,-7.0113
665,-503,0,0,0,0,0,0,0,0,0,-1,1889,1527,0,0
672,-503,0,0,0,0,0,0,0,0,0,-1,1896,1527,0,0
679,-503,0,0,0,0,0,0,0,0,0,-1,1903,1527,0,0
686,-503,0,0,0,0,0,0,0,0,0,-1,1910,1527,0,0
693,-503,0,0,0,0,0,0,0,0,0,-1,1917,1527,0,0
700,-503,0,0,0,0,0,0,0,0,0,-1,1924,1527,0,0
707,-503,0,0,0,0,0,0,0,0,0,-1,1931,1527,0,0
714,-503,0,0,0,0,0,0,0,0,0,-1,1938,1527,0,0
721,-503,0,0,0,0,0,0,0,0,0,-1,1945,1527,0,0
728,-503,0,0,0,0,0,0,0,0,0,-1,1952,1527,0,0
735,-503,0,0,0,0,0,0,0,0,0,-1,1959,1527,0,0
742,-503,0,0,0,0,0,0,0,0,0,-1,1966,1527,0,0
749,-503,0,0,0,0,0,0,0,0,0,-1,1973,1527,0,0
756,-503,0,0,0,0,0,0,0,0,0,-1,1980,1527,0,0
763,-503,0,0,0,0,0,0,0,0,0,-1,1987,1527,0,0
770,-503,0,0,0,0,0,0,0,0,0,-1,1994,1527,0,0
777,-503,0,0,0,0,0,0,0,0,0,-1,2001,1527,0,0
784,-503,0,0,0,0,0,0,0,0,0,-1,2008,1527,0,0
791,-503,0,0,0,0,0,0,0,0,0,-1,2015,1527,0,0
798,-503,0,0,0,0,0,0,0,0,0,-1,2022,1527,0,0
805,-503,0,0,0,0,0,0,0,0,0,-1,2029,1527,0,0
812,-503,0,0,0,0,0,0,0,0,0,-1,2036,1527,0,0
-700,-510,0,0,0,0,0,0,0,0,0,-1,524,1534,0,0
-693,-510,0,0,0,0,0,0,0,0,0,-1,531,1534,0,0
-686,-510,0,0,0,0,0,0,0,0,0,-1,538,1534,0,0
-679,-510,0,0,0,0,0,0,0,0,0,-1,545,1534,0,0
-672,-510,0,0,0,0,0,0,0,0,0,-1,552,1534,0,0
-665,-510,0,0,0,0,0,0,0,0,0,-1,559,1534,0,0
-658,-510,0,0,0,0,0,0,0,0,0,-1,566,1534,0,0
-651,-510,0,0,0,0,0,0,0,0,0,-1,573,1534,0,0
-644,-510,0,0,0,0,0,0,0,0,0,-1,580,1534,0,0
-637,-510,0,0,0,0,0,0,0,0,0,-1,587,1534,0,0
-630,-510,0,0,0,0,0,0,0,0,0,-1,594,1534,0,0
-623,-510,0,0,0,0,0,0,0,0,0,-1,601,1534,0,0
-616,-510,0,0,0,0,0,0,0,0,0,-1,608,1534,0,0
-609,-510,0,0,0,0,0,0,0,0,0,-1,615,1534,0,0
-602,-510,0,0,0,0,0,0,0,0,0,-1,622,1534,0,0
-595,-510,0,0,0,0,0,0,0,0,0,-1,629,1534,0,0
-588,-510,0,0,0,0,0,0,0,0,0,-1,636,1534,0,0
-581,-510,0,0,0,0,0,0,0,0,0,-1,643,1534,0,0
-574,-510,0,0,0,0,0,0,0,0,0,-1,650,1534,0,0
-567,-510,0,0,0,0,0,0,0,0,0,-1,657,1534,0,0
-560,-510,0,0,0,0,0,0,0,0,0,-1,664,1534,0,0
-553,-510,0,0,0,0,0,0,0,0,0,-1,671,1534,0,0
-546,-510,0,0,0,0,0,0,0,0,0,-1,678,1534,0,0
-539,-510,0,0,0,0,0,0,0,0,0,-1,685,1534,0,0
-532,-510,2.2998,2.5636,-0.0408809,-0.013347,0.0403339,0.0155048,-0.0697327,0.94986,0.0524266,0.046822,692,1534,2.29979,-2.56363
-525,-510,2.30396,3.71606,-0.036867,-0.010622,0.0325059,0.0113102,-0.0587993,0.977242,0.0434629,0.0468621,699,1534,2.30394,-3.71606
-518,-510,2.34845,4.83167,0,0,0,0,0,0,0,-1,706,1534,2.34848,-4.83168
-511,-510,0.23999,2.2124,0,0,0,0,0,0,0,-1,713,1534,0.239981,-2.21236
-504,-510,0.0348511,3.04858,0,0,0,0,0,0,0,-1,720,1534,0.0348791,-3.04855
-497,-510,0.397522,3.72217,0,0,0,0,0,0,0,-1,727,1534,0.397492,-3.72216
-490,-510,-0.215271,4.21887,0,0,0,0,0,0,0,-1,734,1534,-0.215242,-4.21881
-483,-510,0.0320435,4.23181,-0.0139918,0.00764679,0.00620825,0.00930145,-0.0156464,1.31033,0.0145581,0.0414382,741,1534,0.0320501,-4.2318
-476,-510,-0.182861,4.36182,-0.00993922,0.0082499,0.00446302,0.00928596,-0.0109753,1.34269,0.0117114,0.0252891,748,1534,-0.18287,-4.36187
-469,-510,-0.28302,4.55383,-0.00627285,0.00827357,0.00293109,0.00884197,-0.00684125,1.37925,0.00907924,0.010304,755,1534,-0.283044,-4.55389
-462,-510,-0.292542,4.73108,-0.004076,0.00758655,0.00218711,0.00798322,-0.00447267,1.39138,0.00728599,0.0109523,762,1534,-0.292545,-4.73113
-455,-510,-0.312561,4.94397,-0.00277859,0.0064539,0.00164309,0.0067376,-0.00306229,1.39982,0.00578908,0.0127154,769,1534,-0.312547,-4.94392
-448,-510,-0.28125,5.12866,-0.00175112,0.00495559,0.00124579,0.00517952,-0.00197505,1.39294,0.00426657,0.0121924,776,1534,-0.281227,-5.12863
-441,-510,-0.286926,5.28699,-0.000763418,0.00330033,0.000764282,0.00343932,-0.000902405,1.39091,0.00264549,0.012997,783,1534,-0.286952,-5.28704
-434,-510,-0.301331,5.45825,0.000151356,0.00154648,0.000346459,0.00162778,7.00562e-05,1.34031,0.00106261,0.0132998,790,1534,-0.301336,-5.45827
-427,-510,-0.316956,5.62024,0.00134464,-0.0002773,-2.83382e-06,0.00134465,-0.000277305,-0.00174717,0.00100174,0.0209175,797,1534,-0.316974,-5.62025
-420,-510,-0.309692,5.79443,0.0022463,-0.00228173,-0.000507155,0.00230241,-0.00233783,-0.110185,0.00267907,0.0210253,804,1534,-0.309713,-5.79438
-413,-510,-0.315735,6.01538,0.00284884,-0.00464722,-0.00127954,0.00306123,-0.00485961,-0.164492,0.00461223,0.0109505,811,1534,-0.31571,-6.01543
-406,-510,-0.311279,6.18457,0.00311523,-0.00629068,-0.00268229,0.00382637,-0.00700183,-0.259163,0.00634064,0.0102652,818,1534,-0.311263,-6.18453
-399,-510,-0.278931,6.34192,0.00362541,-0.0080703,-0.00381023,0.00475719,-0.00920208,-0.288736,0.00819445,0.0107826,825,1534,-0.278913,-6.34193
-392,-510,-0.214233,6.57507,0.00400074,-0.00966773,-0.00519563,0.00575145,-0.0114184,-0.32501,0.0100914,0.018457,832,1534,-0.214206,-6.5751
-385,-510,-0.231018,6.72656,0.00432922,-0.0109656,-0.00673686,0.00687338,-0.0135098,-0.36109,0.0119743,0.0282373,839,1534,-0.231038,-6.72654
-378,-510,-0.267273,6.59875,0.00466633,-0.0119878,-0.00834843,0.00813063,-0.0154521,-0.39334,0.0138325,0.0341025,846,1534,-0.26725,-6.5988
-371,-510,-0.244507,6.58936,0.00520088,-0.0125815,-0.00978928,0.00953403,-0.0169147,-0.416718,0.0154671,0.0435251,853,1534,-0.244534,-6.58936
-364,-510,-0.447571,6.48022,0.00568014,-0.0124237,-0.0114021,0.0111866,-0.0179301,-0.449898,0.0169601,0.0479943,860,1534,-0.447543,-6.48019
-357,-510,-1.2356,6.78564,0.0042279,-0.0115545,-0.0113759,0.0101816,-0.0175082,-0.482163,0.0161722,0.0473614,867,1534,-1.23561,-6.78568
-350,-510,0.471191,6.06458,0,0,0,0,0,0,0,-1,874,1534,0.47118,-6.06453
-343,-510,-0.248047,5.14624,0,0,0,0,0,0,0,-1,881,1534,-0.248023,-5.1462
-336,-510,-2.29181,7.53674,0,0,0,0,0,0,0,-1,888,1534,-2.29181,-7.5367
-329,-510,2.02997,7.40417,0,0,0,0,0,0,0,-1,895,1534,2.02997,-7.40421
-322,-510,-2.1048,8.71082,0,0,0,0,0,0,0,-1,902,1534,-2.10477,-8.71083
-315,-510,-1.81354,9.05713,0,0,0,0,0,0,0,-1,909,1534,-1.81353,-9.05714
-308,-510,-1.70624,9.36243,0,0,0,0,0,0,0,-1,916,1534,-1.70626,-9.36241
-301,-510,-1.69275,9.63086,0,0,0,0,0,0,0,-1,923,1534,-1.69277,-9.63084
-294,-510,0,0,0,0,0,0,0,0,0,-1,930,1534,0,0
-287,-510,0,0,0,0,0,0,0,0,0,-1,937,1534,0,0
-280,-510,0,0,0,0,0,0,0,0,0,-1,944,1534,0,0
-273,-510,0,0,0,0,0,0,0,0,0,-1,951,1534,0,0
-266,-510,0,0,0,0,0,0,0,0,0,-1,958,1534,0,0
-259,-510,0,0,0,0,0,0,0,0,0,-1,965,1534,0,0
-252,-510,0,0,0,0,0,0,0,0,0,-1,972,1534,0,0
-245,-510,0,0,0,0,0,0,0,0,0,-1,979,1534,0,0
-238,-510,0,0,0,0,0,0,0,0,0,-1,986,1534,0,0
-231,-510,0,0,0,0,0,0,0,0,0,-1,993,1534,0,0
-224,-510,0,0,0,0,0,0,0,0,0,-1,1000,1534,0,0
-217,-510,0,0,0,0,0,0,0,0,0,-1,1007,1534,0,0
-210,-510,0,0,0,0,0,0,0,0,0,-1,1014,1534,0,0
-203,-510,0,0,0,0,0,0,0,0,0,-1,1021,1534,0,0
-196,-510,0,0,0,0,0,0,0,0,0,-1,1028,1534,0,0
-189,-510,0,0,0,0,0,0,0,0,0,-1,1035,1534,0,0
-182,-510,0,0,0,0,0,0,0,0,0,-1,1042,1534,0,0
-175,-510,0,0,0,0,0,0,0,0,0,-1,1049,1534,0,0
-168,-510,0,0,0,0,0,0,0,0,0,-1,1056,1534,0,0
-161,-510,0,0,0,0,0,0,0,0,0,-1,1063,1534,0,0
-154,-510,0,0,0,0,0,0,0,0,0,-1,1070,1534,0,0
-147,-510,0,0,0,0,0,0,0,0,0,-1,1077,1534,0,0
-140,-510,0,0,0,0,0,0,0,0,0,-1,1084,1534,0,0
-133,-510,0,0,0,0,0,0,0,0,0,-1,1091,1534,0,0
-126,-510,0,0,0,0,0,0,0,0,0,-1,1098,1534,0,0
-119,-510,0,0,0,0,0,0,0,0,0,-1,1105,1534,0,0
-112,-510,0,0,0,0,0,0,0,0,0,-1,1112,1534,0,0
-105,-510,0,0,0,0,0,0,0,0,0,-1,1119,1534,0,0
-98,-510,0,0,0,0,0,0,0,0,0,-1,1126,1534,0,0
-91,-510,0,0,0,0,0,0,0,0,0,-1,1133,1534,0,0
-84,-510,0,0,0,0,0,0,0,0,0,-1,1140,1534,0,0
-77,-510,0,0,0,0,0,0,0,0,0,-1,1147,1534,0,0
-70,-510,0,0,0,0,0,0,0,0,0,-1,1154,1534,0,0
-63,-510,0,0,0,0,0,0,0,0,0,-1,1161,1534,0,0
-56,-510,0,0,0,0,0,0,0,0,0,-1,1168,1534,0,0
-49,-510,0,0,0,0,0,0,0,0,0,-1,1175,1534,0,0
-42,-510,0,0,0,0,0,0,0,0,0,-1,1182,1534,0,0
-35,-510,0,0,0,0,0,0,0,0,0,-1,1189,1534,0,0
-28,-510,0,0,0,0,0,0,0,0,0,-1,1196,1534,0,0
-21,-510,0,0,0,0,0,0,0,0,0,-1,1203,1534,0,0
-14,-510,0,0,0,0,0,0,0,0,0,-1,1210,1534,0,0
-7,-510,0,0,0,0,0,0,0,0,0,-1,1217,1534,0,0
0,-510,0,0,0,0,0,0,0,0,0,-1,1224,1534,0,0
7,-510,0,0,0,0,0,0,0,0,0,-1,1231,1534,0,0
14,-510,0,0,0,0,0,0,0,0,0,-1,1238,1534,0,0
21,-510,0,0,0,0,0,0,0,0,0,-1,1245,1534,0,0
28,-510,0,0,0,0,0,0,0,0,0,-1,1252,1534,0,0
35,-510,0,0,0,0,0,0,0,0,0,-1,1259,1534,0,0
42,-510,0,0,0,0,0,0,0,0,0,-1,1266,1534,0,0
49,-510,0,0,0,0,0,0,0,0,0,-1,1273,1534,0,0
56,-510,0,0,0,0,0,0,0,0,0,-1,1280,1534,0,0
63,-510,0,0,0,0,0,0,0,0,0,-1,1287,1534,0,0
70,-510,0,0,0,0,0,0,0,0,0,-1,1294,1534,0,0
77,-510,0,0,0,0,0,0,0,0,0,-1,1301,1534,0,0
84,-510,0,0,0,0,0,0,0,0,0,-1,1308,1534,0,0
91,-510,0,0,0,0,0,0,0,0,0,-1,1315,1534,0,0
98,-510,0,0,0,0,0,0,0,0,0,-1,1322,1534,0,0
105,-510,0,0,0,0,0,0,0,0,0,-1,1329,1534,0,0
112,-510,0,0,0,0,0,0,0,0,0,-1,1336,1534,0,0
119,-510,0,0,0,0,0,0,0,0,0,-1,1343,1534,0,0
126,-510,0,0,0,0,0,0,0,0,0,-1,1350,1534,0,0
133,-510,0,0,0,0,0,0,0,0,0,-1,1357,1534,0,0
140,-510,0,0,0,0,0,0,0,0,0,-1,1364,1534,0,0
147,-510,0,0,0,0,0,0,0,0,0,-1,1371,1534,0,0
154,-510,0,0,0,0,0,0,0,0,0,-1,1378,1534,0,0
161,-510,0,0,0,0,0,0,0,0,0,-1,1385,1534,0,0
168,-510,0,0,0,0,0,0,0,0,0,-1,1392,1534,0,0
175,-510,0,0,0,0,0,0,0,0,0,-1,1399,1534,0,0
182,-510,0,0,0,0,0,0,0,0,0,-1,1406,1534,0,0
189,-510,0,0,0,0,0,0,0,0,0,-1,1413,1534,0,0
196,-510,0,0,0,0,0,0,0,0,0,-1,1420,1534,0,0
203,-510,0,0,0,0,0,0,0,0,0,-1,1427,1534,0,0
210,-510,0,0,0,0,0,0,0,0,0,-1,1434,1534,0,0
217,-510,0,0,0,0,0,0,0,0,0,-1,1441,1534,0,0
224,-510,0,0,0,0,0,0,0,0,0,-1,1448,1534,0,0
231,-510,0,0,0,0,0,0,0,0,0,-1,1455,1534,0,0
238,-510,0,0,0,0,0,0,0,0,0,-1,1462,1534,0,0
245,-510,0,0,0,0,0,0,0,0,0,-1,1469,1534,0,0
252,-510,0,0,0,0,0,0,0,0,0,-1,1476,1534,0,0
259,-510,0,0,0,0,0,0,0,0,0,-1,1483,1534,0,0
266,-510,0,0,0,0,0,0,0,0,0,-1,1490,1534,0,0
273,-510,0,0,0,0,0,0,0,0,0,-1,1497,1534,0,0
280,-510,0,0,0,0,0,0,0,0,0,-1,1504,1534,0,0
287,-510,0,0,0,0,0,0,0,0,0,-1,1511,1534,0,0
294,-510,0,0,0,0,0,0,0,0,0,-1,1518,1534,0,0
301,-510,0,0,0,0,0,0,0,0,0,-1,1525,1534,0,0
308,-510,0,0,0,0,0,0,0,0,0,-1,1532,1534,0,0
315,-510,0,0,0,0,0,0,0,0,0,-1,1539,1534,0,0
322,-510,0,0,0,0,0,0,0,0,0,-1,1546,1534,0,0
329,-510,0,0,0,0,0,0,0,0,0,-1,1553,1534,0,0
336,-510,0,0,0,0,0,0,0,0,0,-1,1560,1534,0,0
343,-510,0,0,0,0,0,0,0,0,0,-1,1567,1534,0,0
350,-510,0,0,0,0,0,0,0,0,0,-1,1574,1534,0,0
357,-510,0,0,0,0,0,0,0,0,0,-1,1581,1534,0,0
364,-510,0,0,0,0,0,0,0,0,0,-1,1588,1534,0,0
371,-510,0,0,0,0,0,0,0,0,0,-1,1595,1534,0,0
378,-510,0,0,0,0,0,0,0,0,0,-1,1602,1534,0,0
385,-510,0,0,0,0,0,0,0,0,0,-1,1609,1534,0,0
392,-510,0,0,0,0,0,0,0,0,0,-1,1616,1534,0,0
399,-510,0,0,0,0,0,0,0,0,0,-1,1623,1534,0,0
406,-510,0,0,0,0,0,0,0,0,0,-1,1630,1534,0,0
413,-510,0,0,0,0,0,0,0,0,0,-1,1637,1534,0,0
420,-510,13.1918,5.99402,0,0,0,0,0,0,0,-1,1644,1534,13.1917,-5.994
427,-510,10.9799,5.12341,0,0,0,0,0,0,0,-1,1651,1534,10.9798,-5.12337
434,-510,11.8219,4.07898,0,0,0,0,0,0,0,-1,1658,1534,11.8219,-4.07895
441,-510,12.6812,3.02991,0,0,0,0,0,0,0,-1,1665,1534,12.6811,-3.0299
448,-510,13.2379,2.2804,0,0,0,0,0,0,0,-1,1672,1534,13.2379,-2.28037
455,-510,9.76892,2.20642,0,0,0,0,0,0,0,-1,1679,1534,9.76894,-2.20647
462,-510,9.84692,2.49182,0,0,0,0,0,0,0,-1,1686,1534,9.84695,-2.49185
469,-510,9.99475,2.57556,0,0,0,0,0,0,0,-1,1693,1534,9.99477,-2.57556
476,-510,9.94727,3.302,0,0,0,0,0,0,0,-1,1700,1534,9.94725,-3.30196
483,-510,8.25049,4.48633,0,0,0,0,0,0,0,-1,1707,1534,8.25049,-4.48635
490,-510,8.22925,7.91626,0,0,0,0,0,0,0,-1,1714,1534,8.22928,-7.91626
497,-510,8.25146,8.08105,0,0,0,0,0,0,0,-1,1721,1534,8.25145,-8.08102
504,-510,8.05322,7.8009,-0.006951,-0.0252803,0.01652,0.00277619,-0.0350075,0.532153,0.0243166,0.0451777,1728,1534,8.0532,-7.80085
511,-510,8.31494,7.93909,-0.00582221,-0.0181132,0.0131752,0.00257025,-0.0265057,0.567175,0.0185865,0.03879,1735,1534,8.31491,-7.93905
518,-510,7.9082,7.84753,-0.00460164,-0.0125427,0.0104894,0.00264357,-0.019788,0.604468,0.0141557,0.0312349,1742,1534,7.90823,-7.84751
525,-510,7.74988,7.77014,-0.00407207,-0.00861803,0.00817033,0.00213556,-0.0148257,0.649729,0.0106671,0.0170562,1749,1534,7.74983,-7.77017
532,-510,7.71716,7.61877,-0.00367646,-0.00618095,0.00625658,0.00145196,-0.0113094,0.686629,0.00806724,0.0115063,1756,1534,7.71716,-7.61882
539,-510,7.69897,7.46533,-0.00313694,-0.00464768,0.0048577,0.00102377,-0.00880839,0.708266,0.00624157,0.0118548,1763,1534,7.69892,-7.4653
546,-510,7.68701,7.3175,-0.0025226,-0.00304955,0.00365181,0.000875226,-0.00644738,0.749386,0.00461772,0.0116992,1770,1534,7.68701,-7.3175
553,-510,7.7052,7.16357,-0.00165733,-0.00198059,0.00232962,0.000516262,-0.00415419,0.750763,0.00295661,0.0128862,1777,1534,7.70525,-7.16357
560,-510,7.69373,6.99084,-0.00073504,-0.000747551,0.000983662,0.000242387,-0.00172498,0.782218,0.00123871,0.0126527,1784,1534,7.69373,-6.99084
567,-510,7.69031,6.83105,0.000339066,0.000175255,-0.0001937,0.000467466,4.68551e-05,-0.585375,0.000297259,0.0119462,1791,1534,7.69028,-6.83106
574,-510,7.71118,6.66516,0.00116737,0.00125959,-0.00130122,0.00251552,-8.85585e-05,-0.803108,0.0017073,0.0131713,1798,1534,7.71123,-6.66513
581,-510,7.69897,6.53992,0.00114291,0.00195208,-0.0017911,0.00338372,-0.000288728,-0.896477,0.00235795,0.012072,1805,1534,7.69897,-6.53987
588,-510,7.69482,6.39111,0.00122343,0.00294864,-0.00258512,0.00481128,-0.000639206,-0.946429,0.00344044,0.0125457,1812,1534,7.69483,-6.39108
595,-510,7.72778,6.18481,-8.03803e-05,0.00342003,-0.00295001,0.00509995,-0.0017603,-1.05313,0.00411423,0.0124709,1819,1534,7.72774,-6.18477
602,-510,7.71716,5.98828,-0.0025699,0.00349249,-0.00295198,0.00469241,-0.00376982,-1.18472,0.00489534,0.0185434,1826,1534,7.71721,-5.98824
609,-510,7.75574,5.93323,-0.00556366,0.00330188,-0.00265146,0.00403435,-0.00629612,-1.30127,0.00601176,0.0270324,1833,1534,7.75576,-5.93326
616,-510,7.85071,5.80823,-0.0103085,0.00254086,-0.00165926,0.00275167,-0.0105193,-1.44443,0.00808766,0.0391916,1840,1534,7.85067,-5.8082
623,-510,7.99243,5.30298,-0.017034,0.00092465,2.93167e-05,0.000924698,-0.0170341,1.56916,0.0116765,0.0423889,1847,1534,7.99248,-5.30303
630,-510,7.29224,5.99121,-0.0259165,-0.00161526,0.00233352,-0.00139321,-0.0261385,1.47593,0.0169804,0.0468181,1854,1534,7.29218,-5.99121
637,-510,8.16589,5.73022,0,0,0,0,0,0,0,-1,1861,1534,8.16594,-5.73019
644,-510,6.59741,6.39844,-0.049187,-0.00979825,0.00824727,-0.00814114,-0.0508441,1.37251,0.0315346,0.0441939,1868,1534,6.59739,-6.39846
651,-510,6.0614,6.70154,-0.0622165,-0.0152467,0.0109062,-0.0128378,-0.0646254,1.35342,0.0395058,0.042319,1875,1534,6.06136,-6.70149
658,-510,0,0,0,0,0,0,0,0,0,-1,1882,1534,0,0
665,-510,0,0,0,0,0,0,0,0,0,-1,1889,1534,0,0
672,-510,0,0,0,0,0,0,0,0,0,-1,1896,1534,0,0
679,-510,0,0,0,0,0,0,0,0,0,-1,1903,1534,0,0
686,-510,0,0,0,0,0,0,0,0,0,-1,1910,1534,0,0
693,-510,0,0,0,0,0,0,0,0,0,-1,1917,1534,0,0
700,-510,0,0,0,0,0,0,0,0,0,-1,1924,1534,0,0
707,-510,0,0,0,0,0,0,0,0,0,-1,1931,1534,0,0
714,-510,0,0,0,0,0,0,0,0,0,-1,1938,1534,0,0
721,-510,0,0,0,0,0,0,0,0,0,-1,1945,1534,0,0
728,-510,0,0,0,0,0,0,0,0,0,-1,1952,1534,0,0
735,-510,0,0,0,0,0,0,0,0,0,-1,1959,1534,0,0
742,-510,0,0,0,0,0,0,0,0,0,-1,1966,1534,0,0
749,-510,0,0,0,0,0,0,0,0,0,-1,1973,1534,0,0
756,-510,0,0,0,0,0,0,0,0,0,-1,1980,1534,0,0
763,-510,0,0,0,0,0,0,0,0,0,-1,1987,1534,0,0
770,-510,0,0,0,0,0,0,0,0,0,-1,1994,1534,0,0
777,-510,0,0,0,0,0,0,0,0,0,-1,2001,1534,0,0
784,-510,0,0,0,0,0,0,0,0,0,-1,2008,1534,0,0
791,-510,0,0,0,0,0,0,0,0,0,-1,2015,1534,0,0
798,-510,0,0,0,0,0,0,0,0,0,-1,2022,1534,0,0
805,-510,0,0,0,0,0,0,0,0,0,-1,2029,1534,0,0
812,-510,0,0,0,0,0,0,0,0,0,-1,2036,1534,0,0
-700,-517,0,0,0,0,0,0,0,0,0,-1,524,1541,0,0
-693,-517,0,0,0,0,0,0,0,0,0,-1,531,1541,0,0
-686,-517,0,0,0,0,0,0,0,0,0,-1,538,1541,0,0
-679,-517,0,0,0,0,0,0,0,0,0,-1,545,1541,0,0
-672,-517,0,0,0,0,0,0,0,0,0,-1,552,1541,0,0
-665,-517,0,0,0,0,0,0,0,0,0,-1,559,1541,0,0
-658,-517,0,0,0,0,0,0,0,0,0,-1,566,1541,0,0
-651,-517,0,0,0,0,0,0,0,0,0,-1,573,1541,0,0
-644,-517,0,0,0,0,0,0,0,0,0,-1,580,1541,0,0
-637,-517,0,0,0,0,0,0,0,0,0,-1,587,1541,0,0
-630,-517,0,0,0,0,0,0,0,0,0,-1,594,1541,0,0
-623,-517,0,0,0,0,0,0,0,0,0,-1,601,1541,0,0
-616,-517,0,0,0,0,0,0,0,0,0,-1,608,1541,0,0
-609,-517,0,0,0,0,0,0,0,0,0,-1,615,1541,0,0
-602,-517,0,0,0,0,0,0,0,0,0,-1,622,1541,0,0
-595,-517,0,0,0,0,0,0,0,0,0,-1,629,1541,0,0
-588,-517,0,0,0,0,0,0,0,0,0,-1,636,1541,0,0
-581,-517,0,0,0,0,0,0,0,0,0,-1,643,1541,0,0
-574,-517,0,0,0,0,0,0,0,0,0,-1,650,1541,0,0
-567,-517,0,0,0,0,0,0,0,0,0,-1,657,1541,0,0
-560,-517,0,0,0,0,0,0,0,0,0,-1,664,1541,0,0
-553,-517,0,0,0,0,0,0,0,0,0,-1,671,1541,0,0
-546,-517,0,0,0,0,0,0,0,0,0,-1,678,1541,0,0
-539,-517,0,0,0,0,0,0,0,0,0,-1,685,1541,0,0
-532,-517,0,0,0,0,0,0,0,0,0,-1,692,1541,0,0
-525,-517,2.41595,4.12183,-0.0405803,-0.0175663,0.0358804,0.00860711,-0.0667537,0.940569,0.0476314,0.0436696,699,1541,2.41594,-4.12182
-518,-517,1.80011,4.95703,0,0,0,0,0,0,0,-1,706,1541,1.8001,-4.95703
-511,-517,1.39496,5.48779,0,0,0,0,0,0,0,-1,713,1541,1.39496,-5.48785
-504,-517,0.464233,2.9458,0,0,0,0,0,0,0,-1,720,1541,0.464223,-2.94586
-497,-517,0.790039,3.52332,0,0,0,0,0,0,0,-1,727,1541,0.79006,-3.52334
-490,-517,0.551697,4.35876,0,0,0,0,0,0,0,-1,734,1541,0.551713,-4.35871
-483,-517,0.316589,4.38037,-0.0160693,0.0182668,0.0119954,0.0220423,-0.0198448,1.26587,0.0241946,0.0424433,741,1541,0.316587,-4.38037
-476,-517,0.0205078,4.3335,-0.0117907,0.0184919,0.00961733,0.021288,-0.0145868,1.28786,0.0208325,0.0311896,748,1541,0.020506,-4.33355
-469,-517,-0.086853,4.54089,-0.00784138,0.0178362,0.00739673,0.0198145,-0.00981968,1.30946,0.0174306,0.0130893,755,1541,-0.0868699,-4.54086
-462,-517,-0.107788,4.72803,-0.00538856,0.0159563,0.00607916,0.0175663,-0.00699851,1.31191,0.0146134,0.0127895,762,1541,-0.107783,-4.72804
-455,-517,-0.118774,4.9425,-0.00380242,0.0136624,0.00498069,0.014983,-0.00512298,1.31162,0.0120645,0.0118544,769,1541,-0.118773,-4.94248
-448,-517,-0.12146,5.12927,-0.00252143,0.0110355,0.00403369,0.0121449,-0.00363082,1.3024,0.00954002,0.0121756,776,1541,-0.121465,-5.12924
-441,-517,-0.123291,5.28357,-0.0013569,0.00838551,0.00305908,0.0092664,-0.00223779,1.29042,0.00704305,0.0116965,783,1541,-0.123299,-5.28351
-434,-517,-0.100403,5.46179,-0.000317292,0.00577127,0.00221113,0.00648954,-0.00103556,1.25671,0.00470965,0.0141531,790,1541,-0.100431,-5.46177
-427,-517,-0.113098,5.63904,0.000952411,0.00331228,0.00152948,0.00406407,0.000200624,1.11395,0.00264504,0.0131208,797,1541,-0.113118,-5.63904
-420,-517,-0.143005,5.83923,0.00185485,0.000838485,0.00078099,0.00227844,0.000414899,0.496968,0.00140129,0.0198098,804,1541,-0.143005,-5.8392
-413,-517,-0.153687,6.00806,0.00244961,-0.00201812,-0.000250196,0.00246357,-0.00203209,-0.0557684,0.00259955,0.0111057,811,1541,-0.153688,-6.00808
-406,-517,-0.139099,6.18286,0.00272221,-0.00395522,-0.00173485,0.00314603,-0.00437905,-0.239608,0.004364,0.0101787,818,1541,-0.139129,-6.18288
-399,-517,-0.116089,6.36145,0.00315445,-0.0057311,-0.00283226,0.00398044,-0.0065571,-0.283768,0.00614418,0.0094577,825,1541,-0.116119,-6.36149
-392,-517,-0.111816,6.52222,0.00344473,-0.00716723,-0.00402605,0.00479927,-0.00852176,-0.324547,0.00779035,0.0105799,832,1541,-0.111843,-6.52216
-385,-517,-0.0704956,6.78479,0.00378843,-0.00820808,-0.00523249,0.00574995,-0.0101696,-0.358659,0.00930848,0.0152402,839,1541,-0.0704949,-6.78484
-378,-517,-0.0720215,6.86584,0.00426952,-0.0089805,-0.00636485,0.00683156,-0.0115425,-0.382686,0.0107239,0.0297479,846,1541,-0.0720241,-6.86584
-371,-517,0.0390015,6.66919,0.00506107,-0.00942181,-0.00720169,0.0080325,-0.0123932,-0.391323,0.0118821,0.0386195,853,1541,0.0390256,-6.66913
-364,-517,0.242004,6.52734,0.00588758,-0.00937026,-0.00808131,0.00937207,-0.0128548,-0.407093,0.0128851,0.0446765,860,1541,0.242,-6.52733
-357,-517,0.315613,6.58154,0.00495472,-0.00875936,-0.00771657,0.00842068,-0.0122253,-0.422154,0.0119873,0.0451221,867,1541,0.315632,-6.58159
-350,-517,0.253296,6.94153,0,0,0,0,0,0,0,-1,874,1541,0.253303,-6.94159
-343,-517,0.366028,7.41064,0,0,0,0,0,0,0,-1,881,1541,0.366019,-7.4106
-336,-517,2.93292,5.28625,0,0,0,0,0,0,0,-1,888,1541,2.93293,-5.28621
-329,-517,3.68591,5.86316,0,0,0,0,0,0,0,-1,895,1541,3.68592,-5.86314
-322,-517,-1.88239,7.94958,0,0,0,0,0,0,0,-1,902,1541,-1.8824,-7.94958
-315,-517,-1.64355,8.2677,0,0,0,0,0,0,0,-1,909,1541,-1.64357,-8.26775
-308,-517,-1.57727,8.5603,0,0,0,0,0,0,0,-1,916,1541,-1.57724,-8.56028
-301,-517,2.27185,8.23425,0,0,0,0,0,0,0,-1,923,1541,2.27187,-8.23431
-294,-517,-1.45313,9.36975,0,0,0,0,0,0,0,-1,930,1541,-1.45311,-9.3697
-287,-517,-5.28577,3.87378,0,0,0,0,0,0,0,-1,937,1541,-5.28576,-3.87378
-280,-517,0,0,0,0,0,0,0,0,0,-1,944,1541,0,0
-273,-517,0,0,0,0,0,0,0,0,0,-1,951,1541,0,0
-266,-517,0,0,0,0,0,0,0,0,0,-1,958,1541,0,0
-259,-517,0,0,0,0,0,0,0,0,0,-1,965,1541,0,0
-252,-517,0,0,0,0,0,0,0,0,0,-1,972,1541,0,0
-245,-517,0,0,0,0,0,0,0,0,0,-1,979,1541,0,0
-238,-517,0,0,0,0,0,0,0,0,0,-1,986,1541,0,0
-231,-517,0,0,0,0,0,0,0,0,0,-1,993,1541,0,0
-224,-517,0,0,0,0,0,0,0,0,0,-1,1000,1541,0,0
-217,-517,0,0,0,0,0,0,0,0,0,-1,1007,1541,0,0
-210,-517,0,0,0,0,0,0,0,0,0,-1,1014,1541,0,0
-203,-517,0,0,0,0,0,0,0,0,0,-1,1021,1541,0,0
-196,-517,0,0,0,0,0,0,0,0,0,-1,1028,1541,0,0
-189,-517,0,0,0,0,0,0,0,0,0,-1,1035,1541,0,0
-182,-517,0,0,0,0,0,0,0,0,0,-1,1042,1541,0,0
-175,-517,0,0,0,0,0,0,0,0,0,-1,1049,1541,0,0
-168,-517,0,0,0,0,0,0,0,0,0,-1,1056,1541,0,0
-161,-517,0,0,0,0,0,0,0,0,0,-1,1063,1541,0,0
-154,-517,0,0,0,0,0,0,0,0,0,-1,1070,1541,0,0
-147,-517,0,0,0,0,0,0,0,0,0,-1,1077,1541,0,0
-140,-517,0,0,0,0,0,0,0,0,0,-1,1084,1541,0,0
-133,-517,0,0,0,0,0,0,0,0,0,-1,1091,1541,0,0
-126,-517,0,0,0,0,0,0,0,0,0,-1,1098,1541,0,0
-119,-517,0,0,0,0,0,0,0,0,0,-1,1105,1541,0,0
-112,-517,0,0,0,0,0,0,0,0,0,-1,1112,1541,0,0
-105,-517,0,0,0,0,0,0,0,0,0,-1,1119,1541,0,0
-98,-517,0,0,0,0,0,0,0,0,0,-1,1126,1541,0,0
-91,-517,0,0,0,0,0,0,0,0,0,-1,1133,1541,0,0
-84,-517,0,0,0,0,0,0,0,0,0,-1,1140,1541,0,0
-77,-517,0,0,0,0,0,0,0,0,0,-1,1147,1541,0,0
-70,-517,0,0,0,0,0,0,0,0,0,-1,1154,1541,0,0
-63,-517,0,0,0,0,0,0,0,0,0,-1,1161,1541,0,0
-56,-517,0,0,0,0,0,0,0,0,0,-1,1168,1541,0,0
-49,-517,0,0,0,0,0,0,0,0,0,-1,1175,1541,0,0
-42,-517,0,0,0,0,0,0,0,0,0,-1,1182,1541,0,0
-35,-517,0,0,0,0,0,0,0,0,0,-1,1189,1541,0,0
-28,-517,0,0,0,0,0,0,0,0,0,-1,1196,1541,0,0
-21,-517,0,0,0,0,0,0,0,0,0,-1,1203,1541,0,0
-14,-517,0,0,0,0,0,0,0,0,0,-1,1210,1541,0,0
-7,-517,0,0,0,0,0,0,0,0,0,-1,1217,1541,0,0
0,-517,0,0,0,0,0,0,0,0,0,-1,1224,1541,0,0
7,-517,0,0,0,0,0,0,0,0,0,-1,1231,1541,0,0
14,-517,0,0,0,0,0,0,0,0,0,-1,1238,1541,0,0
21,-517,0,0,0,0,0,0,0,0,0,-1,1245,1541,0,0
28,-517,0,0,0,0,0,0,0,0,0,-1,1252,1541,0,0
35,-517,0,0,0,0,0,0,0,0,0,-1,1259,1541,0,0
42,-517,0,0,0,0,0,0,0,0,0,-1,1266,1541,0,0
49,-517,0,0,0,0,0,0,0,0,0,-1,1273,1541,0,0
56,-517,0,0,0,0,0,0,0,0,0,-1,1280,1541,0,0
63,-517,0,0,0,0,0,0,0,0,0,-1,1287,1541,0,0
70,-517,0,0,0,0,0,0,0,0,0,-1,1294,1541,0,0
77,-517,0,0,0,0,0,0,0,0,0,-1,1301,1541,0,0
84,-517,0,0,0,0,0,0,0,0,0,-1,1308,1541,0,0
91,-517,0,0,0,0,0,0,0,0,0,-1,1315,1541,0,0
98,-517,0,0,0,0,0,0,0,0,0,-1,1322,1541,0,0
105,-517,0,0,0,0,0,0,0,0,0,-1,1329,1541,0,0
112,-517,0,0,0,0,0,0,0,0,0,-1,1336,1541,0,0
119,-517,0,0,0,0,0,0,0,0,0,-1,1343,1541,0,0
126,-517,0,0,0,0,0,0,0,0,0,-1,1350,1541,0,0
133,-517,0,0,0,0,0,0,0,0,0,-1,1357,1541,0,0
140,-517,0,0,0,0,0,0,0,0,0,-1,1364,1541,0,0
147,-517,0,0,0,0,0,0,0,0,0,-1,1371,1541,0,0
154,-517,0,0,0,0,0,0,0,0,0,-1,1378,1541,0,0
161,-517,0,0,0,0,0,0,0,0,0,-1,1385,1541,0,0
168,-517,0,0,0,0,0,0,0,0,0,-1,1392,1541,0,0
175,-517,0,0,0,0,0,0,0,0,0,-1,1399,1541,0,0
182,-517,0,0,0,0,0,0,0,0,0,-1,1406,1541,0,0
189,-517,0,0,0,0,0,0,0,0,0,-1,1413,1541,0,0
196,-517,0,0,0,0,0,0,0,0,0,-1,1420,1541,0,0
203,-517,0,0,0,0,0,0,0,0,0,-1,1427,1541,0,0
210,-517,0,0,0,0,0,0,0,0,0,-1,1434,1541,0,0
217,-517,0,0,0,0,0,0,0,0,0,-1,1441,1541,0,0
224,-517,0,0,0,0,0,0,0,0,0,-1,1448,1541,0,0
231,-517,0,0,0,0,0,0,0,0,0,-1,1455,1541,0,0
238,-517,0,0,0,0,0,0,0,0,0,-1,1462,1541,0,0
245,-517,0,0,0,0,0,0,0,0,0,-1,1469,1541,0,0
252,-517,0,0,0,0,0,0,0,0,0,-1,1476,1541,0,0
259,-517,0,0,0,0,0,0,0,0,0,-1,1483,1541,0,0
266,-517,0,0,0,0,0,0,0,0,0,-1,1490,1541,0,0
273,-517,0,0,0,0,0,0,0,0,0,-1,1497,1541,0,0
280,-517,0,0,0,0,0,0,0,0,0,-1,1504,1541,0,0
287,-517,0,0,0,0,0,0,0,0,0,-1,1511,1541,0,0
294,-517,0,0,0,0,0,0,0,0,0,-1,1518,1541,0,0
301,-517,0,0,0,0,0,0,0,0,0,-1,1525,1541,0,0
308,-517,0,0,0,0,0,0,0,0,0,-1,1532,1541,0,0
315,-517,0,0,0,0,0,0,0,0,0,-1,1539,1541,0,0
322,-517,0,0,0,0,0,0,0,0,0,-1,1546,1541,0,0
329,-517,0,0,0,0,0,0,0,0,0,-1,1553,1541,0,0
336,-517,0,0,0,0,0,0,0,0,0,-1,1560,1541,0,0
343,-517,0,0,0,0,0,0,0,0,0,-1,1567,1541,0,0
350,-517,0,0,0,0,0,0,0,0,0,-1,1574,1541,0,0
357,-517,0,0,0,0,0,0,0,0,0,-1,1581,1541,0,0
364,-517,0,0,0,0,0,0,0,0,0,-1,1588,1541,0,0
371,-517,0,0,0,0,0,0,0,0,0,-1,1595,1541,0,0
378,-517,0,0,0,0,0,0,0,0,0,-1,1602,1541,0,0
385,-517,0,0,0,0,0,0,0,0,0,-1,1609,1541,0,0
392,-517,0,0,0,0,0,0,0,0,0,-1,1616,1541,0,0
399,-517,0,0,0,0,0,0,0,0,0,-1,1623,1541,0,0
406,-517,12.1469,6.22412,0,0,0,0,0,0,0,-1,1630,1541,12.1468,-6.22408
413,-517,12.2695,6.3324,0,0,0,0,0,0,0,-1,1637,1541,12.2696,-6.33243
420,-517,12.4789,6.20337,0,0,0,0,0,0,0,-1,1644,1541,12.4789,-6.20333
427,-517,11.647,4.66516,0,0,0,0,0,0,0,-1,1651,1541,11.647,-4.66519
434,-517,12.3719,3.92773,0,0,0,0,0,0,0,-1,1658,1541,12.3719,-3.92776
441,-517,13.146,3.14124,0,0,0,0,0,0,0,-1,1665,1541,13.146,-3.14121
448,-517,13.8861,2.36682,0,0,0,0,0,0,0,-1,1672,1541,13.8861,-2.36684
455,-517,8.60706,4.01855,0,0,0,0,0,0,0,-1,1679,1541,8.60705,-4.01861
462,-517,8.50793,1.59912,0,0,0,0,0,0,0,-1,1686,1541,8.50799,-1.59913
469,-517,8.79614,2.86072,0,0,0,0,0,0,0,-1,1693,1541,8.79608,-2.86067
476,-517,8.27844,4.43079,0,0,0,0,0,0,0,-1,1700,1541,8.27848,-4.43073
483,-517,8.21948,7.25317,0,0,0,0,0,0,0,-1,1707,1541,8.21943,-7.25314
490,-517,7.41528,7.86694,0,0,0,0,0,0,0,-1,1714,1541,7.41534,-7.86694
497,-517,7.6405,7.91296,-0.00732186,-0.0309168,0.0174325,0.00192995,-0.0401686,0.487922,0.027445,0.0425102,1721,1541,7.64055,-7.91296
504,-517,7.72791,7.91956,-0.00549596,-0.0224895,0.013756,0.00217583,-0.0301613,0.50874,0.0208706,0.037136,1728,1541,7.72786,-7.91961
511,-517,7.68262,8.0592,-0.00443461,-0.0160907,0.0108024,0.00201165,-0.022537,0.53802,0.0157381,0.0312061,1735,1541,7.68264,-8.05923
518,-517,7.57043,7.94592,-0.00329988,-0.0109533,0.00846476,0.00216297,-0.0164162,0.573109,0.0117317,0.0207548,1742,1541,7.57039,-7.94589
525,-517,7.54089,7.76929,-0.00288183,-0.00726229,0.006457,0.00174629,-0.0118904,0.621886,0.00856857,0.0118255,1749,1541,7.54088,-7.76934
532,-517,7.56799,7.61108,-0.00266099,-0.00499396,0.00479546,0.00110782,-0.00876277,0.666091,0.00624396,0.0108369,1756,1541,7.56803,-7.61107
539,-517,7.57129,7.4519,-0.00231747,-0.00358625,0.00360151,0.000705091,-0.00660882,0.69822,0.00465873,0.0115861,1763,1541,7.57125,-7.45188
546,-517,7.55371,7.30103,-0.00181928,-0.00208701,0.00256789,0.000618231,-0.00452452,0.759356,0.00324213,0.0118706,1770,1541,7.55373,-7.30101
553,-517,7.54858,7.15466,-0.00101478,-0.00108583,0.00133033,0.000280501,-0.00238111,0.77205,0.00168869,0.0154235,1777,1541,7.54857,-7.15461
560,-517,7.54871,6.99329,-0.000106824,0.000210333,1.03584e-05,0.000210671,-0.000107162,1.53818,0.000186717,0.0151181,1784,1541,7.54872,-6.9933
567,-517,7.54529,6.84412,0.000976176,0.00116303,-0.00116539,0.00223873,-9.9532e-05,-0.825395,0.00152675,0.0122961,1791,1541,7.54524,-6.84407
574,-517,7.55115,6.67664,0.00179813,0.00235456,-0.00230294,0.00439603,-0.000243343,-0.845511,0.00301508,0.0132727,1798,1541,7.5512,-6.67661
581,-517,7.56335,6.52539,0.00176803,0.00319608,-0.00287903,0.00544831,-0.000484204,-0.90695,0.00380389,0.0146318,1805,1541,7.56338,-6.52539
588,-517,7.57239,6.37292,0.00193883,0.00439067,-0.00390173,0.00725454,-0.000925043,-0.937614,0.00517236,0.0146875,1812,1541,7.57242,-6.37299
595,-517,7.57959,6.18933,0.000541416,0.00509543,-0.00453038,0.00788884,-0.00225199,-1.01826,0.00614892,0.0163483,1819,1541,7.57955,-6.18932
602,-517,7.5304,5.98499,-0.00232672,0.00538682,-0.00476907,0.00766345,-0.00460336,-1.12541,0.00715533,0.0215929,1826,1541,7.53042,-5.98504
609,-517,7.63977,5.80115,-0.00595866,0.00542783,-0.0047518,0.00715028,-0.00768112,-1.22304,0.00856474,0.0404197,1833,1541,7.63975,-5.80114
616,-517,7.86707,5.8446,0,0,0,0,0,0,0,-1,1840,1541,7.86708,-5.84457
623,-517,7.91687,5.40503,0,0,0,0,0,0,0,-1,1847,1541,7.91688,-5.40505
630,-517,7.27771,6.09436,0,0,0,0,0,0,0,-1,1854,1541,7.27765,-6.09432
637,-517,8.16736,2.7616,0,0,0,0,0,0,0,-1,1861,1541,8.1674,-2.7616
644,-517,7.11658,6.30396,0,0,0,0,0,0,0,-1,1868,1541,7.1166,-6.30391
651,-517,0,0,0,0,0,0,0,0,0,-1,1875,1541,0,0
658,-517,0,0,0,0,0,0,0,0,0,-1,1882,1541,0,0
665,-517,0,0,0,0,0,0,0,0,0,-1,1889,1541,0,0
672,-517,0,0,0,0,0,0,0,0,0,-1,1896,1541,0,0
679,-517,0,0,0,0,0,0,0,0,0,-1,1903,1541,0,0
686,-517,0,0,0,0,0,0,0,0,0,-1,1910,1541,0,0
693,-517,0,0,0,0,0,0,0,0,0,-1,1917,1541,0,0
700,-517,0,0,0,0,0,0,0,0,0,-1,1924,1541,0,0
707,-517,0,0,0,0,0,0,0,0,0,-1,1931,1541,0,0
714,-517,0,0,0,0,0,0,0,0,0,-1,1938,1541,0,0
721,-517,0,0,0,0,0,0,0,0,0,-1,1945,1541,0,0
728,-517,0,0,0,0,0,0,0,0,0,-1,1952,1541,0,0
735,-517,0,0,0,0,0,0,0,0,0,-1,1959,1541,0,0
742,-517,0,0,0,0,0,0,0,0,0,-1,1966,1541,0,0
749,-517,0,0,0,0,0,0,0,0,0,-1,1973,1541,0,0
756,-517,0,0,0,0,0,0,0,0,0,-1,1980,1541,0,0
763,-517,0,0,0,0,0,0,0,0,0,-1,1987,1541,0,0
770,-517,0,0,0,0,0,0,0,0,0,-1,1994,1541,0,0
777,-517,0,0,0,0,0,0,0,0,0,-1,2001,1541,0,0
784,-517,0,0,0,0,0,0,0,0,0,-1,2008,1541,0,0
791,-517,0,0,0,0,0,0,0,0,0,-1,2015,1541,0,0
798,-517,0,0,0,0,0,0,0,0,0,-1,2022,1541,0,0
805,-517,0,0,0,0,0,0,0,0,0,-1,2029,1541,0,0
812,-517,0,0,0,0,0,0,0,0,0,-1,2036,1541,0,0
-700,-524,0,0,0,0,0,0,0,0,0,-1,524,1548,0,0
-693,-524,0,0,0,0,0,0,0,0,0,-1,531,1548,0,0
-686,-524,0,0,0,0,0,0,0,0,0,-1,538,1548,0,0
-679,-524,0,0,0,0,0,0,0,0,0,-1,545,1548,0,0
-672,-524,0,0,0,0,0,0,0,0,0,-1,552,1548,0,0
-665,-524,0,0,0,0,0,0,0,0,0,-1,559,1548,0,0
-658,-524,0,0,0,0,0,0,0,0,0,-1,566,1548,0,0
-651,-524,0,0,0,0,0,0,0,0,0,-1,573,1548,0,0
-644,-524,0,0,0,0,0,0,0,0,0,-1,580,1548,0,0
-637,-524,0,0,0,0,0,0,0,0,0,-1,587,1548,0,0
-630,-524,0,0,0,0,0,0,0,0,0,-1,594,1548,0,0
-623,-524,0,0,0,0,0,0,0,0,0,-1,601,1548,0,0
-616,-524,0,0,0,0,0,0,0,0,0,-1,608,1548,0,0
-609,-524,0,0,0,0,0,0,0,0,0,-1,615,1548,0,0
-602,-524,0,0,0,0,0,0,0,0,0,-1,622,1548,0,0
-595,-524,0,0,0,0,0,0,0,0,0,-1,629,1548,0,0
-588,-524,0,0,0,0,0,0,0,0,0,-1,636,1548,0,0
-581,-524,0,0,0,0,0,0,0,0,0,-1,643,1548,0,0
-574,-524,0,0,0,0,0,0,0,0,0,-1,650,1548,0,0
-567,-524,0,0,0,0,0,0,0,0,0,-1,657,1548,0,0
-560,-524,0,0,0,0,0,0,0,0,0,-1,664,1548,0,0
-553,-524,0,0,0,0,0,0,0,0,0,-1,671,1548,0,0
-546,-524,0,0,0,0,0,0,0,0,0,-1,678,1548,0,0
-539,-524,0,0,0,0,0,0,0,0,0,-1,685,1548,0,0
-532,-524,0,0,0,0,0,0,0,0,0,-1,692,1548,0,0
-525,-524,2.66156,4.29541,0,0,0,0,0,0,0,-1,699,1548,2.66154,-4.29538
-518,-524,2.01306,5.64148,0,0,0,0,0,0,0,-1,706,1548,2.01306,-5.64152
-511,-524,-0.109192,0.705444,0,0,0,0,0,0,0,-1,713,1548,-0.109186,-0.705397
-504,-524,0.498596,0.950562,0,0,0,0,0,0,0,-1,720,1548,0.498573,-0.950584
-497,-524,-1.45313,3.44788,0,0,0,0,0,0,0,-1,727,1548,-1.4531,-3.44788
-490,-524,0.56189,4.43103,0,0,0,0,0,0,0,-1,734,1548,0.561879,-4.43107
-483,-524,0.297546,4.54639,-0.0176486,0.0347853,0.0211799,0.0422717,-0.025135,1.23104,0.0393342,0.0450145,741,1548,0.29754,-4.54644
-476,-524,-0.00549316,4.5437,-0.0132377,0.0340798,0.0177807,0.0400165,-0.0191744,1.24855,0.0348729,0.0429873,748,1548,-0.00550571,-4.5437
-469,-524,0.0205688,4.56787,-0.00904853,0.0321692,0.0144694,0.0367415,-0.0136208,1.26473,0.0300807,0.0315513,755,1548,0.0205694,-4.56786
-462,-524,0.108093,4.74036,-0.00645905,0.0283587,0.0121476,0.0321779,-0.0102783,1.26618,0.025576,0.0224073,762,1548,0.108075,-4.74038
-455,-524,0.0568848,4.9458,-0.00474056,0.0241687,0.010089,0.0273414,-0.00791329,1.26611,0.0213597,0.0151069,769,1548,0.0568696,-4.94585
-448,-524,0.072998,5.12939,-0.00334698,0.0197394,0.00819224,0.022351,-0.00595857,1.26219,0.0172337,0.0118069,776,1548,0.0730017,-5.12937
-441,-524,0.0673218,5.29285,-0.00212857,0.0154761,0.00637205,0.0175404,-0.00419289,1.2575,0.0133131,0.0105519,783,1548,0.0673193,-5.29279
-434,-524,0.0870972,5.46936,-0.00107313,0.0114761,0.00479399,0.0130978,-0.00269492,1.24459,0.00975508,0.0121912,790,1548,0.0871025,-5.46936
-427,-524,0.0863647,5.65552,0.000169542,0.00796565,0.00354058,0.00933357,-0.00119838,1.20211,0.00665789,0.0118012,797,1548,0.0863536,-5.65546
-420,-524,0.0492554,5.83093,0.000999375,0.00469461,0.00236565,0.00584866,-0.000154676,1.11693,0.00395168,0.0106864,804,1548,0.0492523,-5.83095
-413,-524,0.0630493,6.00879,0.0015478,0.000985604,0.000862607,0.00217395,0.00035945,0.627889,0.00134559,0.0108597,811,1548,0.0630747,-6.00884
-406,-524,0.0675049,6.20178,0.00184583,-0.00153438,-0.000828505,0.00203798,-0.00172653,-0.227892,0.00217592,0.0108705,818,1548,0.0675349,-6.20181
-399,-524,0.0682983,6.38013,0.00224197,-0.003556,-0.001991,0.00285983,-0.00417386,-0.300904,0.00408446,0.00837131,825,1548,0.0682889,-6.3801
-392,-524,0.064209,6.53113,0.00248654,-0.00494565,-0.00302823,0.00356414,-0.00602325,-0.341879,0.00559565,0.00940276,832,1548,0.064188,-6.53109
-385,-524,0.0490112,6.71399,0.00284843,-0.00589391,-0.00398803,0.00439431,-0.00743979,-0.369798,0.00690743,0.0117417,839,1548,0.0489886,-6.71402
-378,-524,0.0855713,6.95203,0.00347778,-0.00651187,-0.00473223,0.00536353,-0.00839762,-0.379204,0.00800911,0.0177752,846,1548,0.0855744,-6.95199
-371,-524,0.174805,7.08521,0.00450992,-0.00687278,-0.00511179,0.00646853,-0.00883139,-0.365901,0.00886845,0.0329874,853,1548,0.174775,-7.08519
-364,-524,0.121277,7.04041,0.00570856,-0.00688798,-0.00543896,0.00773198,-0.0089114,-0.356158,0.0096171,0.0376807,860,1548,0.121253,-7.04035
-357,-524,0.164063,7.45911,0,0,0,0,0,0,0,-1,867,1548,0.164076,-7.45909
-350,-524,-0.165283,7.76599,0,0,0,0,0,0,0,-1,874,1548,-0.165265,-7.76603
-343,-524,1.85645,5.45215,0,0,0,0,0,0,0,-1,881,1548,1.85646,-5.45217
-336,-524,2.77802,5.96558,0,0,0,0,0,0,0,-1,888,1548,2.77804,-5.96554
-329,-524,3.6958,6.35767,0,0,0,0,0,0,0,-1,895,1548,3.69581,-6.35771
-322,-524,1.3689,8.15833,0,0,0,0,0,0,0,-1,902,1548,1.3689,-8.15827
-315,-524,-1.63654,7.5675,0,0,0,0,0,0,0,-1,909,1548,-1.63651,-7.5675
-308,-524,2.43146,8.35095,0,0,0,0,0,0,0,-1,916,1548,2.43144,-8.3509
-301,-524,2.09265,8.3197,0,0,0,0,0,0,0,-1,923,1548,2.09266,-8.31973
-294,-524,1.80408,8.62244,0,0,0,0,0,0,0,-1,930,1548,1.80407,-8.62248
-287,-524,-1.21497,8.94409,0,0,0,0,0,0,0,-1,937,1548,-1.21494,-8.9441
-280,-524,-1.99243,9.78064,0,0,0,0,0,0,0,-1,944,1548,-1.99241,-9.78061
-273,-524,0,0,0,0,0,0,0,0,0,-1,951,1548,0,0
-266,-524,0,0,0,0,0,0,0,0,0,-1,958,1548,0,0
-259,-524,0,0,0,0,0,0,0,0,0,-1,965,1548,0,0
-252,-524,0,0,0,0,0,0,0,0,0,-1,972,1548,0,0
-245,-524,0,0,0,0,0,0,0,0,0,-1,979,1548,0,0
-238,-524,0,0,0,0,0,0,0,0,0,-1,986,1548,0,0
-231,-524,0,0,0,0,0,0,0,0,0,-1,993,1548,0,0
-224,-524,0,0,0,0,0,0,0,0,0,-1,1000,1548,0,0
-217,-524,0,0,0,0,0,0,0,0,0,-1,1007,1548,0,0
-210,-524,0,0,0,0,0,0,0,0,0,-1,1014,1548,0,0
-203,-524,0,0,0,0,0,0,0,0,0,-1,1021,1548,0,0
-196,-524,0,0,0,0,0,0,0,0,0,-1,1028,1548,0,0
-189,-524,0,0,0,0,0,0,0,0,0,-1,1035,1548,0,0
-182,-524,0,0,0,0,0,0,0,0,0,-1,1042,1548,0,0
-175,-524,0,0,0,0,0,0,0,0,0,-1,1049,1548,0,0
-168,-524,0,0,0,0,0,0,0,0,0,-1,1056,1548,0,0
-161,-524,0,0,0,0,0,0,0,0,0,-1,1063,1548,0,0
-154,-524,0,0,0,0,0,0,0,0,0,-1,1070,1548,0,0
-147,-524,0,0,0,0,0,0,0,0,0,-1,1077,1548,0,0
-140,-524,0,0,0,0,0,0,0,0,0,-1,1084,1548,0,0
-133,-524,0,0,0,0,0,0,0,0,0,-1,1091,1548,0,0
-126,-524,0,0,0,0,0,0,0,0,0,-1,1098,1548,0,0
-119,-524,0,0,0,0,0,0,0,0,0,-1,1105,1548,0,0
-112,-524,0,0,0,0,0,0,0,0,0,-1,1112,1548,0,0
-105,-524,0,0,0,0,0,0,0,0,0,-1,1119,1548,0,0
-98,-524,0,0,0,0,0,0,0,0,0,-1,1126,1548,0,0
-91,-524,0,0,0,0,0,0,0,0,0,-1,1133,1548,0,0
-84,-524,0,0,0,0,0,0,0,0,0,-1,1140,1548,0,0
-77,-524,0,0,0,0,0,0,0,0,0,-1,1147,1548,0,0
-70,-524,0,0,0,0,0,0,0,0,0,-1,1154,1548,0,0
-63,-524,0,0,0,0,0,0,0,0,0,-1,1161,1548,0,0
-56,-524,0,0,0,0,0,0,0,0,0,-1,1168,1548,0,0
-49,-524,0,0,0,0,0,0,0,0,0,-1,1175,1548,0,0
-42,-524,0,0,0,0,0,0,0,0,0,-1,1182,1548,0,0
-35,-524,0,0,0,0,0,0,0,0,0,-1,1189,1548,0,0
-28,-524,0,0,0,0,0,0,0,0,0,-1,1196,1548,0,0
-21,-524,0,0,0,0,0,0,0,0,0,-1,1203,1548,0,0
-14,-524,0,0,0,0,0,0,0,0,0,-1,1210,1548,0,0
-7,-524,0,0,0,0,0,0,0,0,0,-1,1217,1548,0,0
0,-524,0,0,0,0,0,0,0,0,0,-1,1224,1548,0,0
7,-524,0,0,0,0,0,0,0,0,0,-1,1231,1548,0,0
14,-524,0,0,0,0,0,0,0,0,0,-1,1238,1548,0,0
21,-524,0,0,0,0,0,0,0,0,0,-1,1245,1548,0,0
28,-524,0,0,0,0,0,0,0,0,0,-1,1252,1548,0,0
35,-524,0,0,0,0,0,0,0,0,0,-1,1259,1548,0,0
42,-524,0,0,0,0,0,0,0,0,0,-1,1266,1548,0,0
49,-524,0,0,0,0,0,0,0,0,0,-1,1273,1548,0,0
56,-524,0,0,0,0,0,0,0,0,0,-1,1280,1548,0,0
63,-524,0,0,0,0,0,0,0,0,0,-1,1287,1548,0,0
70,-524,0,0,0,0,0,0,0,0,0,-1,1294,1548,0,0
77,-524,0,0,0,0,0,0,0,0,0,-1,1301,1548,0,0
84,-524,0,0,0,0,0,0,0,0,0,-1,1308,1548,0,0
91,-524,0,0,0,0,0,0,0,0,0,-1,1315,1548,0,0
98,-524,0,0,0,0,0,0,0,0,0,-1,1322,1548,0,0
105,-524,0,0,0,0,0,0,0,0,0,-1,1329,1548,0,0
112,-524,0,0,0,0,0,0,0,0,0,-1,1336,1548,0,0
119,-524,0,0,0,0,0,0,0,0,0,-1,1343,1548,0,0
126,-524,0,0,0,0,0,0,0,0,0,-1,1350,1548,0,0
133,-524,0,0,0,0,0,0,0,0,0,-1,1357,1548,0,0
140,-524,0,0,0,0,0,0,0,0,0,-1,1364,1548,0,0
147,-524,0,0,0,0,0,0,0,0,0,-1,1371,1548,0,0
154,-524,0,0,0,0,0,0,0,0,0,-1,1378,1548,0,0
161,-524,0,0,0,0,0,0,0,0,0,-1,1385,1548,0,0
168,-524,0,0,0,0,0,0,0,0,0,-1,1392,1548,0,0
175,-524,0,0,0,0,0,0,0,0,0,-1,1399,1548,0,0
182,-524,0,0,0,0,0,0,0,0,0,-1,1406,1548,0,0
189,-524,0,0,0,0,0,0,0,0,0,-1,1413,1548,0,0
196,-524,0,0,0,0,0,0,0,0,0,-1,1420,1548,0,0
203,-524,0,0,0,0,0,0,0,0,0,-1,1427,1548,0,0
210,-524,0,0,0,0,0,0,0,0,0,-1,1434,1548,0,0
217,-524,0,0,0,0,0,0,0,0,0,-1,1441,1548,0,0
224,-524,0,0,0,0,0,0,0,0,0,-1,1448,1548,0,0
231,-524,0,0,0,0,0,0,0,0,0,-1,1455,1548,0,0
238,-524,0,0,0,0,0,0,0,0,0,-1,1462,1548,0,0
245,-524,0,0,0,0,0,0,0,0,0,-1,1469,1548,0,0
252,-524,0,0,0,0,0,0,0,0,0,-1,1476,1548,0,0
259,-524,0,0,0,0,0,0,0,0,0,-1,1483,1548,0,0
266,-524,0,0,0,0,0,0,0,0,0,-1,1490,1548,0,0
273,-524,0,0,0,0,0,0,0,0,0,-1,1497,1548,0,0
280,-524,0,0,0,0,0,0,0,0,0,-1,1504,1548,0,0
287,-524,0,0,0,0,0,0,0,0,0,-1,1511,1548,0,0
294,-524,0,0,0,0,0,0,0,0,0,-1,1518,1548,0,0
301,-524,0,0,0,0,0,0,0,0,0,-1,1525,1548,0,0
308,-524,0,0,0,0,0,0,0,0,0,-1,1532,1548,0,0
315,-524,0,0,0,0,0,0,0,0,0,-1,1539,1548,0,0
322,-524,0,0,0,0,0,0,0,0,0,-1,1546,1548,0,0
329,-524,0,0,0,0,0,0,0,0,0,-1,1553,1548,0,0
336,-524,0,0,0,0,0,0,0,0,0,-1,1560,1548,0,0
343,-524,0,0,0,0,0,0,0,0,0,-1,1567,1548,0,0
350,-524,0,0,0,0,0,0,0,0,0,-1,1574,1548,0,0
357,-524,0,0,0,0,0,0,0,0,0,-1,1581,1548,0,0
364,-524,0,0,0,0,0,0,0,0,0,-1,1588,1548,0,0
371,-524,0,0,0,0,0,0,0,0,0,-1,1595,1548,0,0
378,-524,0,0,0,0,0,0,0,0,0,-1,1602,1548,0,0
385,-524,0,0,0,0,0,0,0,0,0,-1,1609,1548,0,0
392,-524,0,0,0,0,0,0,0,0,0,-1,1616,1548,0,0
399,-524,8.13403,4.49084,0,0,0,0,0,0,0,-1,1623,1548,8.13399,-4.4909
406,-524,8.64294,6.06799,0,0,0,0,0,0,0,-1,1630,1548,8.6429,-6.06805
413,-524,11.677,6.41858,0,0,0,0,0,0,0,-1,1637,1548,11.677,-6.41864
420,-524,11.4913,6.36401,0,0,0,0,0,0,0,-1,1644,1548,11.4913,-6.36402
427,-524,11.4918,7.474,0,0,0,0,0,0,0,-1,1651,1548,11.4918,-7.47399
434,-524,9.63916,7.99463,0,0,0,0,0,0,0,-1,1658,1548,9.63919,-7.99464
441,-524,9.62512,7.96204,0,0,0,0,0,0,0,-1,1665,1548,9.62518,-7.96205
448,-524,7.71997,5.37354,0,0,0,0,0,0,0,-1,1672,1548,7.72003,-5.37356
455,-524,8.16077,4.77185,0,0,0,0,0,0,0,-1,1679,1548,8.16076,-4.7719
462,-524,9.92407,5.3446,0,0,0,0,0,0,0,-1,1686,1548,9.92412,-5.34462
469,-524,8.50928,4.75024,0,0,0,0,0,0,0,-1,1693,1548,8.5093,-4.75027
476,-524,7.92737,5.58228,0,0,0,0,0,0,0,-1,1700,1548,7.92733,-5.58222
483,-524,7.34534,6.41418,0,0,0,0,0,0,0,-1,1707,1548,7.34536,-6.41417
490,-524,6.92114,7.48645,-0.00916431,-0.0359481,0.0182779,0.000102689,-0.0452151,0.469236,0.0301777,0.0399933,1714,1548,6.9211,-7.4865
497,-524,7.38293,8.1908,-0.006168,-0.0268749,0.01455,0.00133624,-0.0343791,0.476172,0.0233775,0.0296211,1721,1548,7.3829,-8.1908
504,-524,7.41577,8.13586,-0.00431289,-0.0195375,0.0113868,0.00177176,-0.0256222,0.490756,0.0177016,0.017318,1728,1548,7.41574,-8.13592
511,-524,7.39294,8.06323,-0.00331573,-0.013909,0.00886005,0.00171018,-0.0189349,0.515995,0.0132302,0.0155632,1735,1548,7.39291,-8.06319
518,-524,7.40344,7.92188,-0.00224639,-0.00922813,0.0068347,0.00193733,-0.0134118,0.54929,0.00965204,0.016089,1742,1548,7.40343,-7.92191
525,-524,7.41406,7.78284,-0.00189357,-0.00579678,0.00510102,0.00161643,-0.00930678,0.602693,0.0068076,0.0151292,1749,1548,7.41408,-7.78289
532,-524,7.42419,7.6123,-0.00178945,-0.00370375,0.00366003,0.00103651,-0.00652971,0.657505,0.0047366,0.0104242,1756,1548,7.42422,-7.6123
539,-524,7.41455,7.43811,-0.0015973,-0.00241431,0.00263474,0.000660413,-0.00467202,0.708487,0.00335655,0.0106345,1763,1548,7.41459,-7.43816
546,-524,7.39001,7.27454,-0.00118743,-0.00103889,0.00173641,0.000624834,-0.00285115,0.806771,0.00213968,0.0133247,1770,1548,7.39,-7.27459
553,-524,7.39526,7.15491,-0.00042921,-0.000118149,0.000553579,0.000301333,-0.000848692,0.922345,0.000688579,0.0204512,1777,1548,7.39525,-7.15489
560,-524,7.39063,7.00122,0.00047231,0.00122336,-0.000782126,0.00171544,-1.97691e-05,-1.00921,0.00115028,0.0273661,1784,1548,7.39064,-7.00128
567,-524,7.37708,6.83765,0.00155668,0.00220457,-0.00201034,0.00391689,-0.00015565,-0.865281,0.00266466,0.0159813,1791,1548,7.37712,-6.83761
574,-524,7.37476,6.67468,0.0023772,0.0035016,-0.0032562,0.00624378,-0.000364977,-0.870883,0.00428936,0.0123029,1798,1548,7.37475,-6.67474
581,-524,7.39526,6.52527,0.00238329,0.00452152,-0.00403604,0.00762765,-0.000722838,-0.914871,0.00534237,0.0135075,1805,1548,7.39523,-6.52525
588,-524,7.43542,6.36121,0.00269936,0.00596815,-0.00543268,0.010007,-0.00133945,-0.931514,0.00715968,0.0136497,1812,1548,7.43538,-6.36122
595,-524,7.42371,6.15857,0.00129331,0.007024,-0.00651579,0.0112766,-0.00295933,-0.992549,0.00867414,0.0151052,1819,1548,7.42375,-6.15854
602,-524,7.50781,5.85864,-0.00181997,0.00768584,-0.00720432,0.0115638,-0.00569796,-1.07699,0.0101561,0.0304223,1826,1548,7.50777,-5.85861
609,-524,7.63586,5.44141,-0.00581162,0.00827099,-0.00781368,0.0117479,-0.00928856,-1.15212,0.0121731,0.045535,1833,1548,7.63585,-5.44143
616,-524,7.72388,5.07544,0,0,0,0,0,0,0,-1,1840,1548,7.72389,-5.07541
623,-524,8.125,5.42773,0,0,0,0,0,0,0,-1,1847,1548,8.12498,-5.42779
630,-524,9.36218,4.46094,0,0,0,0,0,0,0,-1,1854,1548,9.36224,-4.46097
637,-524,8.67688,2.48401,0,0,0,0,0,0,0,-1,1861,1548,8.67683,-2.48398
644,-524,8.42334,0.680908,0,0,0,0,0,0,0,-1,1868,1548,8.42336,-0.68094
651,-524,0,0,0,0,0,0,0,0,0,-1,1875,1548,0,0
658,-524,0,0,0,0,0,0,0,0,0,-1,1882,1548,0,0
665,-524,0,0,0,0,0,0,0,0,0,-1,1889,1548,0,0
672,-524,0,0,0,0,0,0,0,0,0,-1,1896,1548,0,0
679,-524,0,0,0,0,0,0,0,0,0,-1,1903,1548,0,0
686,-524,0,0,0,0,0,0,0,0,0,-1,1910,1548,0,0
693,-524,0,0,0,0,0,0,0,0,0,-1,1917,1548,0,0
700,-524,0,0,0,0,0,0,0,0,0,-1,1924,1548,0,0
707,-524,0,0,0,0,0,0,0,0,0,-1,1931,1548,0,0
714,-524,0,0,0,0,0,0,0,0,0,-1,1938,1548,0,0
721,-524,0,0,0,0,0,0,0,0,0,-1,1945,1548,0,0
728,-524,0,0,0,0,0,0,0,0,0,-1,1952,1548,0,0
735,-524,0,0,0,0,0,0,0,0,0,-1,1959,1548,0,0
742,-524,0,0,0,0,0,0,0,0,0,-1,1966,1548,0,0
749,-524,0,0,0,0,0,0,0,0,0,-1,1973,1548,0,0
756,-524,0,0,0,0,0,0,0,0,0,-1,1980,1548,0,0
763,-524,0,0,0,0,0,0,0,0,0,-1,1987,1548,0,0
770,-524,0,0,0,0,0,0,0,0,0,-1,1994,1548,0,0
777,-524,0,0,0,0,0,0,0,0,0,-1,2001,1548,0,0
784,-524,0,0,0,0,0,0,0,0,0,-1,2008,1548,0,0
791,-524,0,0,0,0,0,0,0,0,0,-1,2015,1548,0,0
798,-524,0,0,0,0,0,0,0,0,0,-1,2022,1548,0,0
805,-524,0,0,0,0,0,0,0,0,0,-1,2029,1548,0,0
812,-524,0,0,0,0,0,0,0,0,0,-1,2036,1548,0,0
-700,-531,0,0,0,0,0,0,0,0,0,-1,524,1555,0,0
-693,-531,0,0,0,0,0,0,0,0,0,-1,531,1555,0,0
-686,-531,0,0,0,0,0,0,0,0,0,-1,538,1555,0,0
-679,-531,0,0,0,0,0,0,0,0,0,-1,545,1555,0,0
-672,-531,0,0,0,0,0,0,0,0,0,-1,552,1555,0,0
-665,-531,0,0,0,0,0,0,0,0,0,-1,559,1555,0,0
-658,-531,0,0,0,0,0,0,0,0,0,-1,566,1555,0,0
-651,-531,0,0,0,0,0,0,0,0,0,-1,573,1555,0,0
-644,-531,0,0,0,0,0,0,0,0,0,-1,580,1555,0,0
-637,-531,0,0,0,0,0,0,0,0,0,-1,587,1555,0,0
-630,-531,0,0,0,0,0,0,0,0,0,-1,594,1555,0,0
-623,-531,0,0,0,0,0,0,0,0,0,-1,601,1555,0,0
-616,-531,0,0,0,0,0,0,0,0,0,-1,608,1555,0,0
-609,-531,0,0,0,0,0,0,0,0,0,-1,615,1555,0,0
-602,-531,0,0,0,0,0,0,0,0,0,-1,622,1555,0,0
-595,-531,0,0,0,0,0,0,0,0,0,-1,629,1555,0,0
-588,-531,0,0,0,0,0,0,0,0,0,-1,636,1555,0,0
-581,-531,0,0,0,0,0,0,0,0,0,-1,643,1555,0,0
-574,-531,0,0,0,0,0,0,0,0,0,-1,650,1555,0,0
-567,-531,0,0,0,0,0,0,0,0,0,-1,657,1555,0,0
-560,-531,0,0,0,0,0,0,0,0,0,-1,664,1555,0,0
-553,-531,0,0,0,0,0,0,0,0,0,-1,671,1555,0,0
-546,-531,0,0,0,0,0,0,0,0,0,-1,678,1555,0,0
-539,-531,0,0,0,0,0,0,0,0,0,-1,685,1555,0,0
-532,-531,0,0,0,0,0,0,0,0,0,-1,692,1555,0,0
-525,-531,0,0,0,0,0,0,0,0,0,-1,699,1555,0,0
-518,-531,-1.07977,-0.437622,0,0,0,0,0,0,0,-1,706,1555,-1.07978,0.43766
-511,-531,-0.528015,0.20752,0,0,0,0,0,0,0,-1,713,1555,-0.528,-0.207482
-504,-531,0.0524292,-0.0650635,0,0,0,0,0,0,0,-1,720,1555,0.0524201,0.0650886
-497,-531,0.578186,4.2356,0,0,0,0,0,0,0,-1,727,1555,0.578189,-4.23563
-490,-531,0.42334,4.31909,0,0,0,0,0,0,0,-1,734,1555,0.42336,-4.31915
-483,-531,0.277344,4.38293,-0.0193457,0.0539968,0.0316645,0.0657758,-0.0311246,1.21467,0.0571254,0.0448926,741,1555,0.277333,-4.38293
-476,-531,0.119324,4.44763,-0.0149046,0.0521763,0.0271331,0.0617771,-0.0245053,1.2307,0.0513411,0.0449781,748,1555,0.11935,-4.44768
-469,-531,0.229553,4.49182,-0.0106546,0.048858,0.022755,0.0565614,-0.018358,1.24437,0.0450903,0.0436827,755,1555,0.229569,-4.49187
-462,-531,0.349548,4.65076,-0.00790375,0.0428168,0.0193177,0.0493362,-0.0144232,1.24531,0.0386073,0.0389532,762,1555,0.349531,-4.65077
-455,-531,0.260071,4.9469,-0.00591601,0.0363993,0.0161101,0.0418346,-0.0113513,1.24541,0.0323444,0.0263631,769,1555,0.260099,-4.94695
-448,-531,0.26123,5.13098,-0.00428957,0.0298524,0.0130746,0.0342841,-0.00872123,1.244,0.0262506,0.0121805,776,1555,0.261222,-5.13096
-441,-531,0.244873,5.2926,-0.00292327,0.0236466,0.0102159,0.0271203,-0.00639703,1.24303,0.0205472,0.0111814,783,1555,0.244885,-5.29258
-434,-531,0.251465,5.48682,-0.00177126,0.0179595,0.00773365,0.0206295,-0.00444123,1.23837,0.0154477,0.0115471,790,1555,0.251469,-5.48687
-427,-531,0.248047,5.66638,-0.000505465,0.0131285,0.00575572,0.0152334,-0.00261034,1.2202,0.0111282,0.0123812,797,1555,0.248039,-5.66636
-420,-531,0.235901,5.84204,0.000298868,0.00884866,0.00404255,0.0104574,-0.00130985,1.19206,0.0074467,0.01145,804,1555,0.235893,-5.84209
-413,-531,0.244934,6.01685,0.000883689,0.00408313,0.00196466,0.00501698,-5.01606e-05,1.12708,0.0033615,0.0103893,811,1555,0.244915,-6.01685
-406,-531,0.246948,6.18127,0.00127169,0.000782535,1.79576e-06,0.00127169,0.000782529,0.00367112,0.000740696,0.011131,818,1555,0.246954,-6.18126
-399,-531,0.250488,6.36731,0.00166351,-0.00165998,-0.00128387,0.0021017,-0.00209817,-0.328905,0.00242479,0.0121658,825,1555,0.250474,-6.36736
-392,-531,0.245728,6.55054,0.00187043,-0.00311079,-0.00218863,0.00269542,-0.00393578,-0.360476,0.00385079,0.0159319,832,1555,0.245697,-6.5505
-385,-531,0.223816,6.71997,0.00223008,-0.00405358,-0.00294823,0.00339675,-0.00522025,-0.376809,0.00501202,0.0145423,839,1555,0.223834,-6.71995
-378,-531,0.210266,6.86243,0.00295429,-0.0045561,-0.00336991,0.00424467,-0.00584648,-0.365689,0.00585054,0.0107558,846,1555,0.210272,-6.86237
-371,-531,0.255737,7.0647,0.00411673,-0.00485155,-0.00340553,0.00526332,-0.00599815,-0.324764,0.00650642,0.0134863,853,1555,0.255717,-7.06473
-364,-531,0.279541,7.27478,0.00546615,-0.00493341,-0.00333557,0.00644405,-0.00591131,-0.285182,0.00713558,0.026538,860,1555,0.279521,-7.27481
-357,-531,0.106262,7.33997,0.00560734,-0.00472714,-0.00248935,0.00617571,-0.00529551,-0.224473,0.00662941,0.0348024,867,1555,0.106279,-7.33996
-350,-531,0.25885,7.53186,0.00458658,-0.00475714,-0.000877634,0.0046683,-0.00483886,-0.0928456,0.00548925,0.0418793,874,1555,0.258856,-7.53186
-343,-531,0.653076,7.8418,0,0,0,0,0,0,0,-1,881,1555,0.653056,-7.84174
-336,-531,1.34766,7.84851,0,0,0,0,0,0,0,-1,888,1555,1.34767,-7.84848
-329,-531,1.66357,8.00195,0,0,0,0,0,0,0,-1,895,1555,1.66357,-8.00197
-322,-531,2.0174,8.16602,0,0,0,0,0,0,0,-1,902,1555,2.01741,-8.16603
-315,-531,2.59924,8.54175,0,0,0,0,0,0,0,-1,909,1555,2.59922,-8.54178
-308,-531,2.31366,8.401,-0.0228991,0.00414674,0.0205186,0.0151979,-0.0339502,1.07676,0.029056,0.0481139,916,1555,2.31367,-8.40095
-301,-531,2.07751,8.33411,-0.0323458,0.00318905,0.0267146,0.0175052,-0.0466619,1.07885,0.0383005,0.0465368,923,1555,2.0775,-8.33408
-294,-531,1.81396,8.4447,0,0,0,0,0,0,0,-1,930,1555,1.81398,-8.44465
-287,-531,-2.01605,8.89014,0,0,0,0,0,0,0,-1,937,1555,-2.01605,-8.8901
-280,-531,-1.7738,9.76196,0,0,0,0,0,0,0,-1,944,1555,-1.77378,-9.76194
-273,-531,-5.5531,14.6454,0,0,0,0,0,0,0,-1,951,1555,-5.5531,-14.6454
-266,-531,-6.7038,16.0303,0,0,0,0,0,0,0,-1,958,1555,-6.7038,-16.0303
-259,-531,0,0,0,0,0,0,0,0,0,-1,965,1555,0,0
-252,-531,0,0,0,0,0,0,0,0,0,-1,972,1555,0,0
-245,-531,0,0,0,0,0,0,0,0,0,-1,979,1555,0,0
-238,-531,0,0,0,0,0,0,0,0,0,-1,986,1555,0,0
-231,-531,0,0,0,0,0,0,0,0,0,-1,993,1555,0,0
-224,-531,0,0,0,0,0,0,0,0,0,-1,1000,1555,0,0
-217,-531,0,0,0,0,0,0,0,0,0,-1,1007,1555,0,0
-210,-531,0,0,0,0,0,0,0,0,0,-1,1014,1555,0,0
-203,-531,0,0,0,0,0,0,0,0,0,-1,1021,1555,0,0
-196,-531,0,0,0,0,0,0,0,0,0,-1,1028,1555,0,0
-189,-531,0,0,0,0,0,0,0,0,0,-1,1035,1555,0,0
-182,-531,0,0,0,0,0,0,0,0,0,-1,1042,1555,0,0
-175,-531,0,0,0,0,0,0,0,0,0,-1,1049,1555,0,0
-168,-531,0,0,0,0,0,0,0,0,0,-1,1056,1555,0,0
-161,-531,0,0,0,0,0,0,0,0,0,-1,1063,1555,0,0
-154,-531,0,0,0,0,0,0,0,0,0,-1,1070,1555,0,0
-147,-531,0,0,0,0,0,0,0,0,0,-1,1077,1555,0,0
-140,-531,0,0,0,0,0,0,0,0,0,-1,1084,1555,0,0
-133,-531,0,0,0,0,0,0,0,0,0,-1,1091,1555,0,0
-126,-531,0,0,0,0,0,0,0,0,0,-1,1098,1555,0,0
-119,-531,0,0,0,0,0,0,0,0,0,-1,1105,1555,0,0
-112,-531,0,0,0,0,0,0,0,0,0,-1,1112,1555,0,0
-105,-531,0,0,0,0,0,0,0,0,0,-1,1119,1555,0,0
-98,-531,0,0,0,0,0,0,0,0,0,-1,1126,1555,0,0
-91,-531,0,0,0,0,0,0,0,0,0,-1,1133,1555,0,0
-84,-531,0,0,0,0,0,0,0,0,0,-1,1140,1555,0,0
-77,-531,0,0,0,0,0,0,0,0,0,-1,1147,1555,0,0
-70,-531,0,0,0,0,0,0,0,0,0,-1,1154,1555,0,0
-63,-531,0,0,0,0,0,0,0,0,0,-1,1161,1555,0,0
-56,-531,0,0,0,0,0,0,0,0,0,-1,1168,1555,0,0
-49,-531,0,0,0,0,0,0,0,0,0,-1,1175,1555,0,0
-42,-531,0,0,0,0,0,0,0,0,0,-1,1182,1555,0,0
-35,-531,0,0,0,0,0,0,0,0,0,-1,1189,1555,0,0
-28,-531,0,0,0,0,0,0,0,0,0,-1,1196,1555,0,0
-21,-531,0,0,0,0,0,0,0,0,0,-1,1203,1555,0,0
-14,-531,0,0,0,0,0,0,0,0,0,-1,1210,1555,0,0
-7,-531,0,0,0,0,0,0,0,0,0,-1,1217,1555,0,0
0,-531,0,0,0,0,0,0,0,0,0,-1,1224,1555,0,0
7,-531,0,0,0,0,0,0,0,0,0,-1,1231,1555,0,0
14,-531,0,0,0,0,0,0,0,0,0,-1,1238,1555,0,0
21,-531,0,0,0,0,0,0,0,0,0,-1,1245,1555,0,0
28,-531,0,0,0,0,0,0,0,0,0,-1,1252,1555,0,0
35,-531,0,0,0,0,0,0,0,0,0,-1,1259,1555,0,0
42,-531,0,0,0,0,0,0,0,0,0,-1,1266,1555,0,0
49,-531,0,0,0,0,0,0,0,0,0,-1,1273,1555,0,0
56,-531,0,0,0,0,0,0,0,0,0,-1,1280,1555,0,0
63,-531,0,0,0,0,0,0,0,0,0,-1,1287,1555,0,0
70,-531,0,0,0,0,0,0,0,0,0,-1,1294,1555,0,0
77,-531,0,0,0,0,0,0,0,0,0,-1,1301,1555,0,0
84,-531,0,0,0,0,0,0,0,0,0,-1,1308,1555,0,0
91,-531,0,0,0,0,0,0,0,0,0,-1,1315,1555,0,0
98,-531,0,0,0,0,0,0,0,0,0,-1,1322,1555,0,0
105,-531,0,0,0,0,0,0,0,0,0,-1,1329,1555,0,0
112,-531,0,0,0,0,0,0,0,0,0,-1,1336,1555,0,0
119,-531,0,0,0,0,0,0,0,0,0,-1,1343,1555,0,0
126,-531,0,0,0,0,0,0,0,0,0,-1,1350,1555,0,0
133,-531,0,0,0,0,0,0,0,0,0,-1,1357,1555,0,0
140,-531,0,0,0,0,0,0,0,0,0,-1,1364,1555,0,0
147,-531,0,0,0,0,0,0,0,0,0,-1,1371,1555,0,0
154,-531,0,0,0,0,0,0,0,0,0,-1,1378,1555,0,0
161,-531,0,0,0,0,0,0,0,0,0,-1,1385,1555,0,0
168,-531,0,0,0,0,0,0,0,0,0,-1,1392,1555,0,0
175,-531,0,0,0,0,0,0,0,0,0,-1,1399,1555,0,0
182,-531,0,0,0,0,0,0,0,0,0,-1,1406,1555,0,0
189,-531,0,0,0,0,0,0,0,0,0,-1,1413,1555,0,0
196,-531,0,0,0,0,0,0,0,0,0,-1,1420,1555,0,0
203,-531,0,0,0,0,0,0,0,0,0,-1,1427,1555,0,0
210,-531,0,0,0,0,0,0,0,0,0,-1,1434,1555,0,0
217,-531,0,0,0,0,0,0,0,0,0,-1,1441,1555,0,0
224,-531,0,0,0,0,0,0,0,0,0,-1,1448,1555,0,0
231,-531,0,0,0,0,0,0,0,0,0,-1,1455,1555,0,0
238,-531,0,0,0,0,0,0,0,0,0,-1,1462,1555,0,0
245,-531,0,0,0,0,0,0,0,0,0,-1,1469,1555,0,0
252,-531,0,0,0,0,0,0,0,0,0,-1,1476,1555,0,0
259,-531,0,0,0,0,0,0,0,0,0,-1,1483,1555,0,0
266,-531,0,0,0,0,0,0,0,0,0,-1,1490,1555,0,0
273,-531,0,0,0,0,0,0,0,0,0,-1,1497,1555,0,0
280,-531,0,0,0,0,0,0,0,0,0,-1,1504,1555,0,0
287,-531,0,0,0,0,0,0,0,0,0,-1,1511,1555,0,0
294,-531,0,0,0,0,0,0,0,0,0,-1,1518,1555,0,0
301,-531,0,0,0,0,0,0,0,0,0,-1,1525,1555,0,0
308,-531,0,0,0,0,0,0,0,0,0,-1,1532,1555,0,0
315,-531,0,0,0,0,0,0,0,0,0,-1,1539,1555,0,0
322,-531,0,0,0,0,0,0,0,0,0,-1,1546,1555,0,0
329,-531,0,0,0,0,0,0,0,0,0,-1,1553,1555,0,0
336,-531,0,0,0,0,0,0,0,0,0,-1,1560,1555,0,0
343,-531,0,0,0,0,0,0,0,0,0,-1,1567,1555,0,0
350,-531,0,0,0,0,0,0,0,0,0,-1,1574,1555,0,0
357,-531,0,0,0,0,0,0,0,0,0,-1,1581,1555,0,0
364,-531,0,0,0,0,0,0,0,0,0,-1,1588,1555,0,0
371,-531,0,0,0,0,0,0,0,0,0,-1,1595,1555,0,0
378,-531,0,0,0,0,0,0,0,0,0,-1,1602,1555,0,0
385,-531,3.13403,1.88721,0,0,0,0,0,0,0,-1,1609,1555,3.13401,-1.88726
392,-531,8.49451,7.77673,0,0,0,0,0,0,0,-1,1616,1555,8.49447,-7.77677
399,-531,8.26306,5.29602,0,0,0,0,0,0,0,-1,1623,1555,8.26302,-5.29607
406,-531,8.26147,5.42712,0,0,0,0,0,0,0,-1,1630,1555,8.26145,-5.42716
413,-531,8.20618,5.75012,0,0,0,0,0,0,0,-1,1637,1555,8.20619,-5.75017
420,-531,11.2255,6.27771,0,0,0,0,0,0,0,-1,1644,1555,11.2255,-6.27776
427,-531,10.8135,7.29773,0,0,0,0,0,0,0,-1,1651,1555,10.8135,-7.29779
434,-531,10.4369,7.86682,0,0,0,0,0,0,0,-1,1658,1555,10.4369,-7.86682
441,-531,5.60706,4.85071,0,0,0,0,0,0,0,-1,1665,1555,5.60703,-4.85069
448,-531,7.41589,6.09534,0,0,0,0,0,0,0,-1,1672,1555,7.41594,-6.09539
455,-531,10.1116,5.39734,0,0,0,0,0,0,0,-1,1679,1555,10.1116,-5.39734
462,-531,8.92883,6.20813,0,0,0,0,0,0,0,-1,1686,1555,8.92887,-6.20816
469,-531,7.6825,6.49353,0,0,0,0,0,0,0,-1,1693,1555,7.68251,-6.4935
476,-531,7.66028,6.71826,0,0,0,0,0,0,0,-1,1700,1555,7.66027,-6.71825
483,-531,7.37036,7.33936,0,0,0,0,0,0,0,-1,1707,1555,7.37038,-7.33931
490,-531,7.35376,8.27283,-0.00815245,-0.0303647,0.0151411,-0.000480987,-0.0380362,0.468966,0.0251987,0.0314239,1714,1555,7.35373,-8.27279
497,-531,7.21936,8.34375,-0.00533136,-0.02283,0.0120053,0.000774524,-0.0289358,0.470505,0.0195539,0.0151389,1721,1555,7.21932,-8.3437
504,-531,7.22717,8.23218,-0.00350135,-0.016578,0.00929836,0.00132735,-0.0214067,0.478974,0.0147335,0.0108872,1728,1555,7.22716,-8.23213
511,-531,7.22107,8.0918,-0.00249956,-0.0116877,0.00710588,0.00136799,-0.0155553,0.498436,0.0108549,0.0125167,1735,1555,7.2211,-8.09178
518,-531,7.22266,7.94971,-0.00143179,-0.00748453,0.00530889,0.00165275,-0.0105691,0.526343,0.00765665,0.0142484,1742,1555,7.22265,-7.94966
525,-531,7.25574,7.78857,-0.00104126,-0.00435222,0.00376887,0.00141969,-0.00681317,0.578459,0.00508188,0.0137236,1749,1555,7.25578,-7.78851
532,-531,7.27893,7.6051,-0.000930692,-0.00245285,0.00248249,0.000904765,-0.00428831,0.636657,0.00320334,0.0100776,1756,1555,7.27894,-7.60507
539,-531,7.2489,7.44653,-0.000777369,-0.00127951,0.00156413,0.000555708,-0.00261259,0.705818,0.00195349,0.0114332,1763,1555,7.24894,-7.44647
546,-531,7.21375,7.29431,-0.000371243,-5.01217e-05,0.000757512,0.000563659,-0.000985023,0.889831,0.000905097,0.0148458,1770,1555,7.21376,-7.29427
553,-531,7.2428,7.17065,0.000395682,0.000785099,-0.000382386,0.00101949,0.000161287,-1.02089,0.00063279,0.0268446,1777,1555,7.2428,-7.1706
560,-531,7.22241,7.06152,0.00132088,0.00216057,-0.00174069,0.00353134,-4.98825e-05,-0.903735,0.00237103,0.0284929,1784,1555,7.22246,-7.06149
567,-531,7.17932,6.86108,0.00241487,0.00318389,-0.00302722,0.00585092,-0.000252157,-0.848569,0.00398733,0.0176107,1791,1555,7.17926,-6.86105
574,-531,7.22693,6.69116,0.00324318,0.00460544,-0.00440948,0.00838608,-0.000537465,-0.862027,0.00577821,0.0134179,1798,1555,7.22697,-6.69112
581,-531,7.24927,6.52185,0.00331734,0.00585921,-0.00545974,0.010194,-0.00101744,-0.899753,0.00715928,0.0116316,1805,1555,7.24927,-6.52188
588,-531,7.26831,6.29822,0.00380607,0.00765404,-0.00734014,0.0133182,-0.00185806,-0.913574,0.00955851,0.0149646,1812,1555,7.26828,-6.29823
595,-531,7.22925,6.07422,0.00246523,0.00924072,-0.00904645,0.0155129,-0.00380699,-0.964557,0.0118172,0.031727,1819,1555,7.22922,-6.07417
602,-531,7.87158,5.80151,-0.000753438,0.0104763,-0.0103246,0.016614,-0.00689118,-1.03445,0.0139524,0.0456835,1826,1555,7.87158,-5.80153
609,-531,7.82959,4.98901,-0.00456691,0.0118171,-0.0120491,0.0181952,-0.010945,-1.08395,0.0169968,0.0440271,1833,1555,7.82956,-4.989
616,-531,7.8833,4.52014,0,0,0,0,0,0,0,-1,1840,1555,7.88329,-4.52009
623,-531,10.3961,5.82263,0,0,0,0,0,0,0,-1,1847,1555,10.3961,-5.82263
630,-531,10.248,3.99646,0,0,0,0,0,0,0,-1,1854,1555,10.248,-3.99643
637,-531,9.6499,2.14417,0,0,0,0,0,0,0,-1,1861,1555,9.64991,-2.14421
644,-531,0,0,0,0,0,0,0,0,0,-1,1868,1555,0,0
651,-531,0,0,0,0,0,0,0,0,0,-1,1875,1555,0,0
658,-531,0,0,0,0,0,0,0,0,0,-1,1882,1555,0,0
665,-531,0,0,0,0,0,0,0,0,0,-1,1889,1555,0,0
672,-531,0,0,0,0,0,0,0,0,0,-1,1896,1555,0,0
679,-531,0,0,0,0,0,0,0,0,0,-1,1903,1555,0,0
686,-531,0,0,0,0,0,0,0,0,0,-1,1910,1555,0,0
693,-531,0,0,0,0,0,0,0,0,0,-1,1917,1555,0,0
700,-531,0,0,0,0,0,0,0,0,0,-1,1924,1555,0,0
707,-531,0,0,0,0,0,0,0,0,0,-1,1931,1555,0,0
714,-531,0,0,0,0,0,0,0,0,0,-1,1938,1555,0,0
721,-531,0,0,0,0,0,0,0,0,0,-1,1945,1555,0,0
728,-531,0,0,0,0,0,0,0,0,0,-1,1952,1555,0,0
735,-531,0,0,0,0,0,0,0,0,0,-1,1959,1555,0,0
742,-531,0,0,0,0,0,0,0,0,0,-1,1966,1555,0,0
749,-531,0,0,0,0,0,0,0,0,0,-1,1973,1555,0,0
756,-531,0,0,0,0,0,0,0,0,0,-1,1980,1555,0,0
763,-531,0,0,0,0,0,0,0,0,0,-1,1987,1555,0,0
770,-531,0,0,0,0,0,0,0,0,0,-1,1994,1555,0,0
777,-531,0,0,0,0,0,0,0,0,0,-1,2001,1555,0,0
784,-531,0,0,0,0,0,0,0,0,0,-1,2008,1555,0,0
791,-531,0,0,0,0,0,0,0,0,0,-1,2015,1555,0,0
798,-531,0,0,0,0,0,0,0,0,0,-1,2022,1555,0,0
805,-531,0,0,0,0,0,0,0,0,0,-1,2029,1555,0,0
812,-531,0,0,0,0,0,0,0,0,0,-1,2036,1555,0,0
-700,-538,0,0,0,0,0,0,0,0,0,-1,524,1562,0,0
-693,-538,0,0,0,0,0,0,0,0,0,-1,531,1562,0,0
-686,-538,0,0,0,0,0,0,0,0,0,-1,538,1562,0,0
-679,-538,0,0,0,0,0,0,0,0,0,-1,545,1562,0,0
-672,-538,0,0,0,0,0,0,0,0,0,-1,552,1562,0,0
-665,-538,0,0,0,0,0,0,0,0,0,-1,559,1562,0,0
-658,-538,0,0,0,0,0,0,0,0,0,-1,566,1562,0,0
-651,-538,0,0,0,0,0,0,0,0,0,-1,573,1562,0,0
-644,-538,0,0,0,0,0,0,0,0,0,-1,580,1562,0,0
-637,-538,0,0,0,0,0,0,0,0,0,-1,587,1562,0,0
-630,-538,0,0,0,0,0,0,0,0,0,-1,594,1562,0,0
-623,-538,0,0,0,0,0,0,0,0,0,-1,601,1562,0,0
-616,-538,0,0,0,0,0,0,0,0,0,-1,608,1562,0,0
-609,-538,0,0,0,0,0,0,0,0,0,-1,615,1562,0,0
-602,-538,0,0,0,0,0,0,0,0,0,-1,622,1562,0,0
-595,-538,0,0,0,0,0,0,0,0,0,-1,629,1562,0,0
-588,-538,0,0,0,0,0,0,0,0,0,-1,636,1562,0,0
-581,-538,0,0,0,0,0,0,0,0,0,-1,643,1562,0,0
-574,-538,0,0,0,0,0,0,0,0,0,-1,650,1562,0,0
-567,-538,0,0,0,0,0,0,0,0,0,-1,657,1562,0,0
-560,-538,0,0,0,0,0,0,0,0,0,-1,664,1562,0,0
-553,-538,0,0,0,0,0,0,0,0,0,-1,671,1562,0,0
-546,-538,0,0,0,0,0,0,0,0,0,-1,678,1562,0,0
-539,-538,0,0,0,0,0,0,0,0,0,-1,685,1562,0,0
-532,-538,0,0,0,0,0,0,0,0,0,-1,692,1562,0,0
-525,-538,0,0,0,0,0,0,0,0,0,-1,699,1562,0,0
-518,-538,0,0,0,0,0,0,0,0,0,-1,706,1562,0,0
-511,-538,1.66724,3.72461,0,0,0,0,0,0,0,-1,713,1562,1.66721,-3.72467
-504,-538,-0.320435,-1.36462,0,0,0,0,0,0,0,-1,720,1562,-0.320404,1.36464
-497,-538,1.18811,4.76306,0,0,0,0,0,0,0,-1,727,1562,1.18809,-4.76307
-490,-538,0.356567,3.66614,0,0,0,0,0,0,0,-1,734,1562,0.356583,-3.6661
-483,-538,0.170471,4.4624,0,0,0,0,0,0,0,-1,741,1562,0.170451,-4.46238
-476,-538,0.39624,4.50562,-0.0168233,0.0761803,0.0401089,0.0910881,-0.0317311,1.21494,0.0736184,0.0475457,748,1562,0.396223,-4.50558
-469,-538,0.699829,4.48706,-0.012474,0.0709146,0.0343176,0.0832214,-0.0247808,1.22647,0.0653271,0.0456637,755,1562,0.699841,-4.48702
-462,-538,0.695007,4.60742,-0.00946097,0.0621128,0.0293039,0.0725798,-0.019928,1.22773,0.0562191,0.0424577,762,1562,0.69503,-4.60745
-455,-538,0.549622,4.87341,-0.0071842,0.0527956,0.0244737,0.0615143,-0.0159029,1.22857,0.0472119,0.0378347,769,1562,0.549613,-4.87343
-448,-538,0.450134,5.13428,-0.00529205,0.043328,0.0198167,0.0503816,-0.0123457,1.22884,0.0383708,0.0162101,776,1562,0.450158,-5.13429
-441,-538,0.43335,5.31506,-0.00373451,0.0343446,0.0154551,0.0398278,-0.00921768,1.22987,0.0300986,0.0148325,783,1562,0.433326,-5.31512
-434,-538,0.427856,5.4823,-0.0024637,0.0262217,0.0116631,0.0303652,-0.00660722,1.22944,0.0227677,0.0122588,790,1562,0.427863,-5.48231
-427,-538,0.397339,5.67639,-0.00117279,0.0194534,0.00863709,0.0225924,-0.0043118,1.2222,0.0166856,0.0138236,797,1562,0.39732,-5.67641
-420,-538,0.384644,5.84265,-0.000383694,0.0137016,0.00614879,0.0160081,-0.00269018,1.21193,0.0116726,0.0176279,804,1562,0.384621,-5.84264
-413,-538,0.386169,6.00586,0.000258372,0.00749534,0.00328754,0.00876576,-0.00101205,1.20204,0.00620874,0.0173952,811,1562,0.386172,-6.00581
-406,-538,0.400391,6.15479,0.000744195,0.00315296,0.000927698,0.00346883,0.000428327,1.24262,0.00218382,0.013919,818,1562,0.400416,-6.15477
-399,-538,0.415344,6.35364,0.00113118,9.58618e-05,-0.000559185,0.00137553,-0.000148489,-0.411971,0.000970311,0.0126167,825,1562,0.415352,-6.35363
-392,-538,0.416748,6.54797,0.00127646,-0.00149771,-0.00137658,0.0018436,-0.00206485,-0.390799,0.00225775,0.0139195,832,1562,0.416736,-6.54798
-385,-538,0.402466,6.71899,0.00159112,-0.00250966,-0.00201789,0.00241753,-0.00333607,-0.388705,0.00333593,0.0123572,839,1562,0.402449,-6.71905
-378,-538,0.396912,6.89014,0.00234824,-0.00294212,-0.00222511,0.00315966,-0.00375354,-0.34968,0.00399625,0.00982574,846,1562,0.396915,-6.89014
-371,-538,0.377686,7.06006,0.00354618,-0.00319922,-0.00205981,0.00412543,-0.00377847,-0.274136,0.00456478,0.0102944,853,1562,0.377672,-7.06004
-364,-538,0.417908,7.23596,0.00491909,-0.00333707,-0.00177364,0.00528399,-0.00370197,-0.202903,0.00521478,0.00992687,860,1562,0.417931,-7.23598
-357,-538,0.409607,7.38745,0.00532891,-0.00326819,-0.000845623,0.0054113,-0.00335058,-0.0971212,0.00510509,0.0177201,867,1562,0.409591,-7.38739
-350,-538,0.416931,7.46265,0.00489387,-0.00343164,0.000727958,0.00495704,-0.00349481,0.0865617,0.00490396,0.0300049,874,1562,0.416918,-7.46266
-343,-538,0.65564,7.72571,0.00401072,-0.00267529,0.00296841,0.00513841,-0.00380298,0.363058,0.00518147,0.0419366,881,1562,0.655667,-7.72574
-336,-538,1.14178,7.85144,0.00296656,-0.00201904,0.00560054,0.00660403,-0.0056565,0.576012,0.00708566,0.0438015,888,1562,1.14181,-7.85138
-329,-538,1.44958,7.9469,0.000629702,-0.001144,0.00877783,0.00856537,-0.00907967,0.735052,0.0101888,0.0440561,895,1562,1.44958,-7.94689
-322,-538,1.76801,8.1001,-0.00319092,-9.55174e-05,0.0123645,0.0108177,-0.0141042,0.847661,0.0144303,0.0448388,902,1562,1.76803,-8.10006
-315,-538,2.08643,8.26001,0,0,0,0,0,0,0,-1,909,1562,2.0864,-8.26004
-308,-538,2.15906,8.42029,-0.0146456,0.00225274,0.0201622,0.0156645,-0.0280574,0.983812,0.0255786,0.0449638,916,1562,2.15905,-8.42023
-301,-538,1.91113,8.40649,-0.0227349,0.00199973,0.0244573,0.0170388,-0.037774,1.01948,0.0323922,0.0444988,923,1562,1.91115,-8.40645
-294,-538,0.369446,9.54456,0,0,0,0,0,0,0,-1,930,1562,0.369447,-9.54453
-287,-538,-3.2998,10.5934,0,0,0,0,0,0,0,-1,937,1562,-3.2998,-10.5933
-280,-538,-4.0293,11.8911,0,0,0,0,0,0,0,-1,944,1562,-4.02932,-11.8911
-273,-538,-4.85803,13.4651,0,0,0,0,0,0,0,-1,951,1562,-4.85802,-13.4651
-266,-538,-5.69073,14.9116,0,0,0,0,0,0,0,-1,958,1562,-5.69073,-14.9116
-259,-538,-6.4397,16.3737,0,0,0,0,0,0,0,-1,965,1562,-6.43969,-16.3737
-252,-538,0,0,0,0,0,0,0,0,0,-1,972,1562,0,0
-245,-538,0,0,0,0,0,0,0,0,0,-1,979,1562,0,0
-238,-538,0,0,0,0,0,0,0,0,0,-1,986,1562,0,0
-231,-538,0,0,0,0,0,0,0,0,0,-1,993,1562,0,0
-224,-538,0,0,0,0,0,0,0,0,0,-1,1000,1562,0,0
-217,-538,0,0,0,0,0,0,0,0,0,-1,1007,1562,0,0
-210,-538,0,0,0,0,0,0,0,0,0,-1,1014,1562,0,0
-203,-538,0,0,0,0,0,0,0,0,0,-1,1021,1562,0,0
-196,-538,0,0,0,0,0,0,0,0,0,-1,1028,1562,0,0
-189,-538,0,0,0,0,0,0,0,0,0,-1,1035,1562,0,0
-182,-538,0,0,0,0,0,0,0,0,0,-1,1042,1562,0,0
-175,-538,0,0,0,0,0,0,0,0,0,-1,1049,1562,0,0
-168,-538,0,0,0,0,0,0,0,0,0,-1,1056,1562,0,0
-161,-538,0,0,0,0,0,0,0,0,0,-1,1063,1562,0,0
-154,-538,0,0,0,0,0,0,0,0,0,-1,1070,1562,0,0
-147,-538,0,0,0,0,0,0,0,0,0,-1,1077,1562,0,0
-140,-538,0,0,0,0,0,0,0,0,0,-1,1084,1562,0,0
-133,-538,0,0,0,0,0,0,0,0,0,-1,1091,1562,0,0
-126,-538,0,0,0,0,0,0,0,0,0,-1,1098,1562,0,0
-119,-538,0,0,0,0,0,0,0,0,0,-1,1105,1562,0,0
-112,-538,0,0,0,0,0,0,0,0,0,-1,1112,1562,0,0
-105,-538,0,0,0,0,0,0,0,0,0,-1,1119,1562,0,0
-98,-538,0,0,0,0,0,0,0,0,0,-1,1126,1562,0,0
-91,-538,0,0,0,0,0,0,0,0,0,-1,1133,1562,0,0
-84,-538,0,0,0,0,0,0,0,0,0,-1,1140,1562,0,0
-77,-538,0,0,0,0,0,0,0,0,0,-1,1147,1562,0,0
-70,-538,0,0,0,0,0,0,0,0,0,-1,1154,1562,0,0
-63,-538,0,0,0,0,0,0,0,0,0,-1,1161,1562,0,0
-56,-538,0,0,0,0,0,0,0,0,0,-1,1168,1562,0,0
-49,-538,0,0,0,0,0,0,0,0,0,-1,1175,1562,0,0
-42,-538,0,0,0,0,0,0,0,0,0,-1,1182,1562,0,0
-35,-538,0,0,0,0,0,0,0,0,0,-1,1189,1562,0,0
-28,-538,0,0,0,0,0,0,0,0,0,-1,1196,1562,0,0
-21,-538,0,0,0,0,0,0,0,0,0,-1,1203,1562,0,0
-14,-538,0,0,0,0,0,0,0,0,0,-1,1210,1562,0,0
-7,-538,0,0,0,0,0,0,0,0,0,-1,1217,1562,0,0
0,-538,0,0,0,0,0,0,0,0,0,-1,1224,1562,0,0
7,-538,0,0,0,0,0,0,0,0,0,-1,1231,1562,0,0
14,-538,0,0,0,0,0,0,0,0,0,-1,1238,1562,0,0
21,-538,0,0,0,0,0,0,0,0,0,-1,1245,1562,0,0
28,-538,0,0,0,0,0,0,0,0,0,-1,1252,1562,0,0
35,-538,0,0,0,0,0,0,0,0,0,-1,1259,1562,0,0
42,-538,0,0,0,0,0,0,0,0,0,-1,1266,1562,0,0
49,-538,0,0,0,0,0,0,0,0,0,-1,1273,1562,0,0
56,-538,0,0,0,0,0,0,0,0,0,-1,1280,1562,0,0
63,-538,0,0,0,0,0,0,0,0,0,-1,1287,1562,0,0
70,-538,0,0,0,0,0,0,0,0,0,-1,1294,1562,0,0
77,-538,0,0,0,0,0,0,0,0,0,-1,1301,1562,0,0
84,-538,0,0,0,0,0,0,0,0,0,-1,1308,1562,0,0
91,-538,0,0,0,0,0,0,0,0,0,-1,1315,1562,0,0
98,-538,0,0,0,0,0,0,0,0,0,-1,1322,1562,0,0
105,-538,0,0,0,0,0,0,0,0,0,-1,1329,1562,0,0
112,-538,0,0,0,0,0,0,0,0,0,-1,1336,1562,0,0
119,-538,0,0,0,0,0,0,0,0,0,-1,1343,1562,0,0
126,-538,0,0,0,0,0,0,0,0,0,-1,1350,1562,0,0
133,-538,0,0,0,0,0,0,0,0,0,-1,1357,1562,0,0
140,-538,0,0,0,0,0,0,0,0,0,-1,1364,1562,0,0
147,-538,0,0,0,0,0,0,0,0,0,-1,1371,1562,0,0
154,-538,0,0,0,0,0,0,0,0,0,-1,1378,1562,0,0
161,-538,0,0,0,0,0,0,0,0,0,-1,1385,1562,0,0
168,-538,0,0,0,0,0,0,0,0,0,-1,1392,1562,0,0
175,-538,0,0,0,0,0,0,0,0,0,-1,1399,1562,0,0
182,-538,0,0,0,0,0,0,0,0,0,-1,1406,1562,0,0
189,-538,0,0,0,0,0,0,0,0,0,-1,1413,1562,0,0
196,-538,0,0,0,0,0,0,0,0,0,-1,1420,1562,0,0
203,-538,0,0,0,0,0,0,0,0,0,-1,1427,1562,0,0
210,-538,0,0,0,0,0,0,0,0,0,-1,1434,1562,0,0
217,-538,0,0,0,0,0,0,0,0,0,-1,1441,1562,0,0
224,-538,0,0,0,0,0,0,0,0,0,-1,1448,1562,0,0
231,-538,0,0,0,0,0,0,0,0,0,-1,1455,1562,0,0
238,-538,0,0,0,0,0,0,0,0,0,-1,1462,1562,0,0
245,-538,0,0,0,0,0,0,0,0,0,-1,1469,1562,0,0
252,-538,0,0,0,0,0,0,0,0,0,-1,1476,1562,0,0
259,-538,0,0,0,0,0,0,0,0,0,-1,1483,1562,0,0
266,-538,0,0,0,0,0,0,0,0,0,-1,1490,1562,0,0
273,-538,0,0,0,0,0,0,0,0,0,-1,1497,1562,0,0
280,-538,0,0,0,0,0,0,0,0,0,-1,1504,1562,0,0
287,-538,0,0,0,0,0,0,0,0,0,-1,1511,1562,0,0
294,-538,0,0,0,0,0,0,0,0,0,-1,1518,1562,0,0
301,-538,0,0,0,0,0,0,0,0,0,-1,1525,1562,0,0
308,-538,0,0,0,0,0,0,0,0,0,-1,1532,1562,0,0
315,-538,0,0,0,0,0,0,0,0,0,-1,1539,1562,0,0
322,-538,0,0,0,0,0,0,0,0,0,-1,1546,1562,0,0
329,-538,0,0,0,0,0,0,0,0,0,-1,1553,1562,0,0
336,-538,0,0,0,0,0,0,0,0,0,-1,1560,1562,0,0
343,-538,0,0,0,0,0,0,0,0,0,-1,1567,1562,0,0
350,-538,0,0,0,0,0,0,0,0,0,-1,1574,1562,0,0
357,-538,0,0,0,0,0,0,0,0,0,-1,1581,1562,0,0
364,-538,0,0,0,0,0,0,0,0,0,-1,1588,1562,0,0
371,-538,0,0,0,0,0,0,0,0,0,-1,1595,1562,0,0
378,-538,7.65637,4.13477,0,0,0,0,0,0,0,-1,1602,1562,7.65643,-4.13477
385,-538,8.69836,7.6283,0,0,0,0,0,0,0,-1,1609,1562,8.69835,-7.62829
392,-538,8.20361,7.07214,0,0,0,0,0,0,0,-1,1616,1562,8.20362,-7.07211
399,-538,7.85425,4.70508,0,0,0,0,0,0,0,-1,1623,1562,7.85425,-4.70512
406,-538,7.77734,4.96094,0,0,0,0,0,0,0,-1,1630,1562,7.77729,-4.96097
413,-538,7.71777,5.26636,0,0,0,0,0,0,0,-1,1637,1562,7.71773,-5.26641
420,-538,10.7693,6.54333,0,0,0,0,0,0,0,-1,1644,1562,10.7693,-6.54332
427,-538,10.406,7.28162,-0.0669254,-0.0337147,0.0814523,0.0328076,-0.133448,0.885953,0.101681,0.0448565,1651,1562,10.4061,-7.28158
434,-538,9.97644,8.04248,-0.0632193,-0.0415955,0.0737945,0.022175,-0.12699,0.858137,0.0929376,0.0442049,1658,1562,9.97649,-8.04243
441,-538,9.4679,8.64758,0,0,0,0,0,0,0,-1,1665,1562,9.46788,-8.64763
448,-538,5.92566,6.31299,0,0,0,0,0,0,0,-1,1672,1562,5.9257,-6.31301
455,-538,8.63196,6.77588,0,0,0,0,0,0,0,-1,1679,1562,8.63196,-6.77592
462,-538,7.93127,7.42371,-0.0302418,-0.045635,0.038115,0.000945896,-0.0768227,0.685772,0.0515333,0.0476219,1686,1562,7.93131,-7.42372
469,-538,7.32239,7.12915,-0.0235249,-0.0408644,0.0305257,-0.000461601,-0.0639277,0.647035,0.0424654,0.0453487,1693,1562,7.32241,-7.12921
476,-538,7.07275,7.85938,-0.0171651,-0.036804,0.0236935,-0.00133685,-0.0526322,0.588954,0.0346511,0.0416527,1700,1562,7.07271,-7.85937
483,-538,7.09448,8.33484,0,0,0,0,0,0,0,-1,1707,1562,7.09454,-8.33489
490,-538,7.09778,8.45886,-0.00729611,-0.0249956,0.0123951,-0.000915736,-0.031376,0.475378,0.0206189,0.0129076,1714,1562,7.09777,-8.45881
497,-538,7.07947,8.35791,-0.00468838,-0.0189011,0.00974779,0.000268416,-0.0238579,0.470428,0.0159955,0.00947291,1721,1562,7.07945,-8.3579
504,-538,7.08472,8.22485,-0.00283541,-0.0136801,0.00741745,0.000930303,-0.0174458,0.469775,0.0119527,0.00890809,1728,1562,7.08467,-8.22482
511,-538,7.0752,8.07776,-0.00172515,-0.00950784,0.0054856,0.00110916,-0.0123421,0.476903,0.00862163,0.00955346,1735,1562,7.07519,-8.07778
518,-538,7.06543,7.93115,-0.000540005,-0.00580683,0.00384874,0.00149002,-0.00783685,0.485367,0.00578556,0.0108103,1742,1562,7.06545,-7.93115
525,-538,7.07007,7.77063,4.17874e-05,-0.00300982,0.00242965,0.00138501,-0.00435304,0.505024,0.00345743,0.0116022,1749,1562,7.07007,-7.77066
532,-538,7.08667,7.61023,0.000336762,-0.00131774,0.00122714,0.000989451,-0.00197043,0.488823,0.00173989,0.0117562,1756,1562,7.0867,-7.6102
539,-538,7.073,7.47656,0.000629701,-0.000250956,0.000334782,0.000742516,-0.000363771,0.32503,0.000651073,0.0141983,1763,1562,7.07296,-7.47655
546,-538,7.0509,7.32617,0.00117777,0.000824732,-0.00045567,0.00148992,0.000512586,-0.600607,0.000874041,0.0165289,1770,1562,7.05086,-7.32616
553,-538,7.10754,7.19836,0.00206968,0.00158768,-0.00160442,0.0034511,0.000206257,-0.71085,0.00223516,0.0259984,1777,1562,7.1076,-7.19835
560,-538,7.07007,7.08838,0.0031044,0.00300185,-0.00303591,0.00608947,1.67773e-05,-0.776954,0.00405407,0.0274209,1784,1562,7.07012,-7.08842
567,-538,7.01782,6.87537,0.00426506,0.00410511,-0.00443242,0.00861822,-0.000248053,-0.776378,0.00582993,0.0197163,1791,1562,7.01778,-6.87533
574,-538,7.06946,6.67346,0.00514274,0.00569888,-0.00602332,0.0114505,-0.00060893,-0.808465,0.00784456,0.0128172,1798,1562,7.0695,-6.67341
581,-538,7.11633,6.49683,0.00532217,0.00726458,-0.00743887,0.0137954,-0.00120862,-0.85031,0.00962512,0.0140137,1805,1562,7.11631,-6.49678
588,-538,7.10754,6.26355,0.00593495,0.00954085,-0.00987979,0.0177809,-0.00230506,-0.875649,0.0126922,0.0325782,1812,1562,7.10758,-6.2635
595,-538,7.02966,6.04077,0,0,0,0,0,0,0,-1,1819,1562,7.02971,-6.0408
602,-538,8.09558,5.66809,0,0,0,0,0,0,0,-1,1826,1562,8.09553,-5.66807
609,-538,8.13892,4.19434,0,0,0,0,0,0,0,-1,1833,1562,8.1389,-4.19432
616,-538,11.9706,6.6803,0,0,0,0,0,0,0,-1,1840,1562,11.9705,-6.68028
623,-538,11.6731,4.90771,0,0,0,0,0,0,0,-1,1847,1562,11.673,-4.90772
630,-538,11.3368,3.23474,0,0,0,0,0,0,0,-1,1854,1562,11.3368,-3.23475
637,-538,0,0,0,0,0,0,0,0,0,-1,1861,1562,0,0
644,-538,0,0,0,0,0,0,0,0,0,-1,1868,1562,0,0
651,-538,0,0,0,0,0,0,0,0,0,-1,1875,1562,0,0
658,-538,0,0,0,0,0,0,0,0,0,-1,1882,1562,0,0
665,-538,0,0,0,0,0,0,0,0,0,-1,1889,1562,0,0
672,-538,0,0,0,0,0,0,0,0,0,-1,1896,1562,0,0
679,-538,0,0,0,0,0,0,0,0,0,-1,1903,1562,0,0
686,-538,0,0,0,0,0,0,0,0,0,-1,1910,1562,0,0
693,-538,0,0,0,0,0,0,0,0,0,-1,1917,1562,0,0
700,-538,0,0,0,0,0,0,0,0,0,-1,1924,1562,0,0
707,-538,0,0,0,0,0,0,0,0,0,-1,1931,1562,0,0
714,-538,0,0,0,0,0,0,0,0,0,-1,1938,1562,0,0
721,-538,0,0,0,0,0,0,0,0,0,-1,1945,1562,0,0
728,-538,0,0,0,0,0,0,0,0,0,-1,1952,1562,0,0
735,-538,0,0,0,0,0,0,0,0,0,-1,1959,1562,0,0
742,-538,0,0,0,0,0,0,0,0,0,-1,1966,1562,0,0
749,-538,0,0,0,0,0,0,0,0,0,-1,1973,1562,0,0
756,-538,0,0,0,0,0,0,0,0,0,-1,1980,1562,0,0
763,-538,0,0,0,0,0,0,0,0,0,-1,1987,1562,0,0
770,-538,0,0,0,0,0,0,0,0,0,-1,1994,1562,0,0
777,-538,0,0,0,0,0,0,0,0,0,-1,2001,1562,0,0
784,-538,0,0,0,0,0,0,0,0,0,-1,2008,1562,0,0
791,-538,0,0,0,0,0,0,0,0,0,-1,2015,1562,0,0
798,-538,0,0,0,0,0,0,0,0,0,-1,2022,1562,0,0
805,-538,0,0,0,0,0,0,0,0,0,-1,2029,1562,0,0
812,-538,0,0,0,0,0,0,0,0,0,-1,2036,1562,0,0
-700,-545,0,0,0,0,0,0,0,0,0,-1,524,1569,0,0
-693,-545,0,0,0,0,0,0,0,0,0,-1,531,1569,0,0
-686,-545,0,0,0,0,0,0,0,0,0,-1,538,1569,0,0
-679,-545,0,0,0,0,0,0,0,0,0,-1,545,1569,0,0
-672,-545,0,0,0,0,0,0,0,0,0,-1,552,1569,0,0
-665,-545,0,0,0,0,0,0,0,0,0,-1,559,1569,0,0
-658,-545,0,0,0,0,0,0,0,0,0,-1,566,1569,0,0
-651,-545,0,0,0,0,0,0,0,0,0,-1,573,1569,0,0
-644,-545,0,0,0,0,0,0,0,0,0,-1,580,1569,0,0
-637,-545,0,0,0,0,0,0,0,0,0,-1,587,1569,0,0
-630,-545,0,0,0,0,0,0,0,0,0,-1,594,1569,0,0
-623,-545,0,0,0,0,0,0,0,0,0,-1,601,1569,0,0
-616,-545,0,0,0,0,0,0,0,0,0,-1,608,1569,0,0
-609,-545,0,0,0,0,0,0,0,0,0,-1,615,1569,0,0
-602,-545,0,0,0,0,0,0,0,0,0,-1,622,1569,0,0
-595,-545,0,0,0,0,0,0,0,0,0,-1,629,1569,0,0
-588,-545,0,0,0,0,0,0,0,0,0,-1,636,1569,0,0
-581,-545,0,0,0,0,0,0,0,0,0,-1,643,1569,0,0
-574,-545,0,0,0,0,0,0,0,0,0,-1,650,1569,0,0
-567,-545,0,0,0,0,0,0,0,0,0,-1,657,1569,0,0
-560,-545,0,0,0,0,0,0,0,0,0,-1,664,1569,0,0
-553,-545,0,0,0,0,0,0,0,0,0,-1,671,1569,0,0
-546,-545,0,0,0,0,0,0,0,0,0,-1,678,1569,0,0
-539,-545,0,0,0,0,0,0,0,0,0,-1,685,1569,0,0
-532,-545,0,0,0,0,0,0,0,0,0,-1,692,1569,0,0
-525,-545,0,0,0,0,0,0,0,0,0,-1,699,1569,0,0
-518,-545,0,0,0,0,0,0,0,0,0,-1,706,1569,0,0
-511,-545,0,0,0,0,0,0,0,0,0,-1,713,1569,0,0
-504,-545,2.2439,3.20935,0,0,0,0,0,0,0,-1,720,1569,2.24391,-3.2093
-497,-545,0.119141,5.68481,0,0,0,0,0,0,0,-1,727,1569,0.119132,-5.68483
-490,-545,4.46082,2.36755,0,0,0,0,0,0,0,-1,734,1569,4.46079,-2.36756
-483,-545,1.0658,3.11926,0,0,0,0,0,0,0,-1,741,1569,1.06578,-3.11922
-476,-545,1.03632,4.34204,0,0,0,0,0,0,0,-1,748,1569,1.03631,-4.34205
-469,-545,1.36371,4.29346,0,0,0,0,0,0,0,-1,755,1569,1.36371,-4.29343
-462,-545,0.871887,4.56323,0,0,0,0,0,0,0,-1,762,1569,0.871888,-4.56323
-455,-545,0.767944,4.82495,-0.00845832,0.0737865,0.0354787,0.0869761,-0.0216479,1.21487,0.0663871,0.0431509,769,1569,0.767925,-4.82498
-448,-545,0.654175,5.09485,-0.0062786,0.0604937,0.028681,0.0711216,-0.0169064,1.21593,0.0539404,0.0284318,776,1569,0.654196,-5.09485
-441,-545,0.616455,5.3374,-0.00446078,0.0478181,0.0223083,0.0560434,-0.012686,1.21755,0.0422309,0.0173048,783,1569,0.616429,-5.33741
-434,-545,0.586975,5.48669,-0.00300823,0.0364096,0.0167308,0.0425534,-0.00915199,1.21887,0.0318608,0.0140763,790,1569,0.587001,-5.48664
-427,-545,0.594482,5.65564,-0.0016447,0.0269764,0.0122536,0.0315057,-0.00617406,1.21674,0.0233357,0.0175955,797,1569,0.594465,-5.65558
-420,-545,0.595947,5.81006,-0.000814827,0.0192001,0.0086832,0.022442,-0.00405679,1.21346,0.0164809,0.0239865,804,1569,0.59593,-5.81005
-413,-545,0.586548,5.97888,-6.07898e-05,0.0110976,0.00477038,0.012859,-0.00182216,1.21709,0.00924011,0.0229893,811,1569,0.586521,-5.97891
-406,-545,0.580505,6.13757,0.000556564,0.00541126,0.00184901,0.00603528,-6.74585e-05,1.24531,0.0040462,0.0173128,818,1569,0.580519,-6.1376
-399,-545,0.605103,6.3479,0.000948955,0.00153562,4.95826e-05,0.00153978,0.000944794,1.48707,0.000896609,0.01129,825,1569,0.60511,-6.34789
-392,-545,0.590393,6.5387,0.00100794,-0.000254178,-0.000743226,0.00135188,-0.000598116,-0.433417,0.00115353,0.010666,832,1569,0.590387,-6.53866
-385,-545,0.589966,6.7146,0.00122616,-0.00137132,-0.0013451,0.00179718,-0.00194234,-0.401465,0.00215956,0.00934157,839,1569,0.589966,-6.71463
-378,-545,0.579163,6.89954,0.00194259,-0.00174241,-0.00141974,0.00242613,-0.00222595,-0.328262,0.00268671,0.0116457,846,1569,0.579176,-6.89948
-371,-545,0.562622,7.07788,0.00307923,-0.00195997,-0.00114878,0.00332876,-0.0022095,-0.213891,0.00321921,0.0147553,853,1569,0.56265,-7.07787
-364,-545,0.583252,7.22546,0.0043589,-0.0021287,-0.000758303,0.00444635,-0.00221615,-0.114823,0.00391778,0.00950403,860,1569,0.583237,-7.22552
-357,-545,0.609741,7.39539,0.0048987,-0.00216162,0.000163018,0.00490246,-0.00216538,0.0230729,0.00418137,0.0102261,867,1569,0.609716,-7.3954
-350,-545,0.632324,7.53931,0.00485188,-0.00241258,0.00160822,0.00519198,-0.00275269,0.20841,0.00465837,0.0149425,874,1569,0.63232,-7.53931
-343,-545,0.653076,7.66663,0.00455224,-0.00190379,0.00363751,0.00618751,-0.00353906,0.422486,0.00568461,0.0245042,881,1569,0.653092,-7.66662
-336,-545,0.704773,7.81653,0.00422426,-0.00158156,0.00601575,0.00800089,-0.00535818,0.560602,0.007763,0.0330593,888,1569,0.704794,-7.81656
-329,-545,0.98407,7.97058,0.00284534,-0.00114584,0.00879032,0.00986374,-0.00816424,0.673779,0.0104239,0.0415617,895,1569,0.984073,-7.97061
-322,-545,1.32477,8.20691,0.000269302,-0.000518582,0.0118708,0.0117527,-0.012002,0.768811,0.0137151,0.0477885,902,1569,1.32478,-8.20695
-315,-545,2.38367,8.51624,0,0,0,0,0,0,0,-1,909,1569,2.38365,-8.51622
-308,-545,2.16986,8.41943,-0.00833268,0.000804515,0.0181526,0.0149546,-0.0224828,0.908676,0.0217597,0.0437309,916,1569,2.16987,-8.41943
-301,-545,1.74908,8.47839,-0.0144868,0.000597391,0.02133,0.0156795,-0.0295689,0.955333,0.0265312,0.046108,923,1569,1.74908,-8.47839
-294,-545,0.771301,9.22473,-0.0224943,0.00116352,0.0224312,0.0146937,-0.0360245,1.02804,0.0301331,0.0473702,930,1569,0.771285,-9.22477
-287,-545,0.326599,9.6217,0,0,0,0,0,0,0,-1,937,1569,0.326622,-9.62172
-280,-545,0.226746,10.4198,0,0,0,0,0,0,0,-1,944,1569,0.226742,-10.4198
-273,-545,-4.10596,12.3789,0,0,0,0,0,0,0,-1,951,1569,-4.10598,-12.3789
-266,-545,-5.10779,14.1372,0,0,0,0,0,0,0,-1,958,1569,-5.10778,-14.1372
-259,-545,-3.98706,7.8916,0,0,0,0,0,0,0,-1,965,1569,-3.98704,-7.89159
-252,-545,-4.75641,8.30005,0,0,0,0,0,0,0,-1,972,1569,-4.75641,-8.3001
-245,-545,0.484619,5.7207,0,0,0,0,0,0,0,-1,979,1569,0.484599,-5.72068
-238,-545,0,0,0,0,0,0,0,0,0,-1,986,1569,0,0
-231,-545,0,0,0,0,0,0,0,0,0,-1,993,1569,0,0
-224,-545,0,0,0,0,0,0,0,0,0,-1,1000,1569,0,0
-217,-545,0,0,0,0,0,0,0,0,0,-1,1007,1569,0,0
-210,-545,0,0,0,0,0,0,0,0,0,-1,1014,1569,0,0
-203,-545,0,0,0,0,0,0,0,0,0,-1,1021,1569,0,0
-196,-545,0,0,0,0,0,0,0,0,0,-1,1028,1569,0,0
-189,-545,0,0,0,0,0,0,0,0,0,-1,1035,1569,0,0
-182,-545,0,0,0,0,0,0,0,0,0,-1,1042,1569,0,0
-175,-545,0,0,0,0,0,0,0,0,0,-1,1049,1569,0,0
-168,-545,0,0,0,0,0,0,0,0,0,-1,1056,1569,0,0
-161,-545,0,0,0,0,0,0,0,0,0,-1,1063,1569,0,0
-154,-545,0,0,0,0,0,0,0,0,0,-1,1070,1569,0,0
-147,-545,0,0,0,0,0,0,0,0,0,-1,1077,1569,0,0
-140,-545,0,0,0,0,0,0,0,0,0,-1,1084,1569,0,0
-133,-545,0,0,0,0,0,0,0,0,0,-1,1091,1569,0,0
-126,-545,0,0,0,0,0,0,0,0,0,-1,1098,1569,0,0
-119,-545,0,0,0,0,0,0,0,0,0,-1,1105,1569,0,0
-112,-545,0,0,0,0,0,0,0,0,0,-1,1112,1569,0,0
-105,-545,0,0,0,0,0,0,0,0,0,-1,1119,1569,0,0
-98,-545,0,0,0,0,0,0,0,0,0,-1,1126,1569,0,0
-91,-545,0,0,0,0,0,0,0,0,0,-1,1133,1569,0,0
-84,-545,0,0,0,0,0,0,0,0,0,-1,1140,1569,0,0
-77,-545,0,0,0,0,0,0,0,0,0,-1,1147,1569,0,0
-70,-545,0,0,0,0,0,0,0,0,0,-1,1154,1569,0,0
-63,-545,0,0,0,0,0,0,0,0,0,-1,1161,1569,0,0
-56,-545,0,0,0,0,0,0,0,0,0,-1,1168,1569,0,0
-49,-545,0,0,0,0,0,0,0,0,0,-1,1175,1569,0,0
-42,-545,0,0,0,0,0,0,0,0,0,-1,1182,1569,0,0
-35,-545,0,0,0,0,0,0,0,0,0,-1,1189,1569,0,0
-28,-545,0,0,0,0,0,0,0,0,0,-1,1196,1569,0,0
-21,-545,0,0,0,0,0,0,0,0,0,-1,1203,1569,0,0
-14,-545,0,0,0,0,0,0,0,0,0,-1,1210,1569,0,0
-7,-545,0,0,0,0,0,0,0,0,0,-1,1217,1569,0,0
0,-545,0,0,0,0,0,0,0,0,0,-1,1224,1569,0,0
7,-545,0,0,0,0,0,0,0,0,0,-1,1231,1569,0,0
14,-545,0,0,0,0,0,0,0,0,0,-1,1238,1569,0,0
21,-545,0,0,0,0,0,0,0,0,0,-1,1245,1569,0,0
28,-545,0,0,0,0,0,0,0,0,0,-1,1252,1569,0,0
35,-545,0,0,0,0,0,0,0,0,0,-1,1259,1569,0,0
42,-545,0,0,0,0,0,0,0,0,0,-1,1266,1569,0,0
49,-545,0,0,0,0,0,0,0,0,0,-1,1273,1569,0,0
56,-545,0,0,0,0,0,0,0,0,0,-1,1280,1569,0,0
63,-545,0,0,0,0,0,0,0,0,0,-1,1287,1569,0,0
70,-545,0,0,0,0,0,0,0,0,0,-1,1294,1569,0,0
77,-545,0,0,0,0,0,0,0,0,0,-1,1301,1569,0,0
84,-545,0,0,0,0,0,0,0,0,0,-1,1308,1569,0,0
91,-545,0,0,0,0,0,0,0,0,0,-1,1315,1569,0,0
98,-545,0,0,0,0,0,0,0,0,0,-1,1322,1569,0,0
105,-545,0,0,0,0,0,0,0,0,0,-1,1329,1569,0,0
112,-545,0,0,0,0,0,0,0,0,0,-1,1336,1569,0,0
119,-545,0,0,0,0,0,0,0,0,0,-1,1343,1569,0,0
126,-545,0,0,0,0,0,0,0,0,0,-1,1350,1569,0,0
133,-545,0,0,0,0,0,0,0,0,0,-1,1357,1569,0,0
140,-545,0,0,0,0,0,0,0,0,0,-1,1364,1569,0,0
147,-545,0,0,0,0,0,0,0,0,0,-1,1371,1569,0,0
154,-545,0,0,0,0,0,0,0,0,0,-1,1378,1569,0,0
161,-545,0,0,0,0,0,0,0,0,0,-1,1385,1569,0,0
168,-545,0,0,0,0,0,0,0,0,0,-1,1392,1569,0,0
175,-545,0,0,0,0,0,0,0,0,0,-1,1399,1569,0,0
182,-545,0,0,0,0,0,0,0,0,0,-1,1406,1569,0,0
189,-545,0,0,0,0,0,0,0,0,0,-1,1413,1569,0,0
196,-545,0,0,0,0,0,0,0,0,0,-1,1420,1569,0,0
203,-545,0,0,0,0,0,0,0,0,0,-1,1427,1569,0,0
210,-545,0,0,0,0,0,0,0,0,0,-1,1434,1569,0,0
217,-545,0,0,0,0,0,0,0,0,0,-1,1441,1569,0,0
224,-545,0,0,0,0,0,0,0,0,0,-1,1448,1569,0,0
231,-545,0,0,0,0,0,0,0,0,0,-1,1455,1569,0,0
238,-545,0,0,0,0,0,0,0,0,0,-1,1462,1569,0,0
245,-545,0,0,0,0,0,0,0,0,0,-1,1469,1569,0,0
252,-545,0,0,0,0,0,0,0,0,0,-1,1476,1569,0,0
259,-545,0,0,0,0,0,0,0,0,0,-1,1483,1569,0,0
266,-545,0,0,0,0,0,0,0,0,0,-1,1490,1569,0,0
273,-545,0,0,0,0,0,0,0,0,0,-1,1497,1569,0,0
280,-545,0,0,0,0,0,0,0,0,0,-1,1504,1569,0,0
287,-545,0,0,0,0,0,0,0,0,0,-1,1511,1569,0,0
294,-545,0,0,0,0,0,0,0,0,0,-1,1518,1569,0,0
301,-545,0,0,0,0,0,0,0,0,0,-1,1525,1569,0,0
308,-545,0,0,0,0,0,0,0,0,0,-1,1532,1569,0,0
315,-545,0,0,0,0,0,0,0,0,0,-1,1539,1569,0,0
322,-545,0,0,0,0,0,0,0,0,0,-1,1546,1569,0,0
329,-545,0,0,0,0,0,0,0,0,0,-1,1553,1569,0,0
336,-545,0,0,0,0,0,0,0,0,0,-1,1560,1569,0,0
343,-545,0,0,0,0,0,0,0,0,0,-1,1567,1569,0,0
350,-545,0,0,0,0,0,0,0,0,0,-1,1574,1569,0,0
357,-545,0,0,0,0,0,0,0,0,0,-1,1581,1569,0,0
364,-545,5.47632,4.19043,0,0,0,0,0,0,0,-1,1588,1569,5.47628,-4.19048
371,-545,7.62146,5.18079,0,0,0,0,0,0,0,-1,1595,1569,7.62146,-5.1808
378,-545,7.24146,4.54224,0,0,0,0,0,0,0,-1,1602,1569,7.24145,-4.54226
385,-545,8.58447,1.16125,0,0,0,0,0,0,0,-1,1609,1569,8.5845,-1.1612
392,-545,12.5654,3.89526,0,0,0,0,0,0,0,-1,1616,1569,12.5655,-3.89532
399,-545,11.5869,5.6333,0,0,0,0,0,0,0,-1,1623,1569,11.5869,-5.63326
406,-545,11.234,6.36414,0,0,0,0,0,0,0,-1,1630,1569,11.234,-6.3641
413,-545,11.0621,7.04053,0,0,0,0,0,0,0,-1,1637,1569,11.0622,-7.04051
420,-545,10.4249,7.3595,-0.0594981,-0.0229218,0.0762462,0.0371989,-0.119619,0.903103,0.0946152,0.0479077,1644,1569,10.4249,-7.35946
427,-545,10.0234,7.43811,-0.0577375,-0.0292845,0.0704038,0.0283158,-0.115338,0.885091,0.0878647,0.0471506,1651,1569,10.0235,-7.43814
434,-545,9.61182,8.15747,-0.054358,-0.0346608,0.0635257,0.0197752,-0.108794,0.862303,0.0799406,0.0442749,1658,1569,9.61183,-8.15745
441,-545,9.24597,8.56934,0,0,0,0,0,0,0,-1,1665,1569,9.24593,-8.56936
448,-545,9.1344,8.56714,0,0,0,0,0,0,0,-1,1672,1569,9.13438,-8.56713
455,-545,8.30676,8.57593,0,0,0,0,0,0,0,-1,1679,1569,8.30676,-8.57598
462,-545,7.28821,8.26453,-0.026553,-0.0374051,0.0318058,0.000286315,-0.0642444,0.700912,0.0429254,0.0462924,1686,1569,7.28819,-8.26454
469,-545,6.90344,8.02893,-0.0203978,-0.0336081,0.0251991,-0.000952579,-0.0530533,0.657223,0.0350557,0.0415432,1693,1569,6.9034,-8.02889
476,-545,6.7998,8.48206,-0.0146679,-0.0301995,0.0193114,-0.00161931,-0.0432481,0.594225,0.0283077,0.0289609,1700,1569,6.79975,-8.48202
483,-545,6.91699,8.60413,-0.00976786,-0.02525,0.0139953,-0.00151545,-0.0335025,0.53278,0.0218473,0.0125164,1707,1569,6.91696,-8.60412
490,-545,6.93005,8.49707,-0.00607184,-0.0202665,0.00985729,-0.00102265,-0.0253157,0.473383,0.0165468,0.010742,1714,1569,6.93009,-8.4971
497,-545,6.92065,8.37256,-0.00356016,-0.0154563,0.00756295,0.000113504,-0.01913,0.452179,0.0127913,0.0163397,1721,1569,6.9207,-8.3725
504,-545,6.94592,8.22729,-0.0017374,-0.0111441,0.00557616,0.000854115,-0.0137356,0.435051,0.00945465,0.0162199,1728,1569,6.94597,-8.22728
511,-545,6.94128,8.06799,-0.000562903,-0.00761461,0.00389723,0.00116672,-0.00934424,0.417693,0.00665259,0.0117178,1735,1569,6.94132,-8.06799
518,-545,6.92847,7.90881,0.000686982,-0.00439727,0.00243583,0.0016656,-0.00537589,0.382024,0.00424937,0.0130155,1742,1569,6.9285,-7.90877
525,-545,6.92712,7.76257,0.00140141,-0.00193284,0.00116222,0.00176654,-0.00229798,0.304402,0.00235332,0.0131226,1749,1569,6.92717,-7.76252
532,-545,6.92053,7.61414,0.001836,-0.000427246,7.30468e-05,0.00183836,-0.000429601,0.0322305,0.00139106,0.0129506,1756,1569,6.92055,-7.61415
539,-545,6.91113,7.46863,0.0022385,0.000579097,-0.000776165,0.00254495,0.000272649,-0.376036,0.00161345,0.0155574,1763,1569,6.9111,-7.46862
546,-545,6.89624,7.33301,0.00289914,0.0015408,-0.00154467,0.00390735,0.000532583,-0.578275,0.00244677,0.0174379,1770,1569,6.89624,-7.33298
553,-545,6.92468,7.17041,0.00389906,0.00229156,-0.00269689,0.00590942,0.000281199,-0.640575,0.00384931,0.0251839,1777,1569,6.92474,-7.17044
560,-545,6.93762,6.98499,0.00504557,0.00379837,-0.00422332,0.00869108,0.000152854,-0.7121,0.00574378,0.0257803,1784,1569,6.93763,-6.98502
567,-545,6.8623,6.84521,0.00629303,0.00507282,-0.00577859,0.0114936,-0.000127785,-0.732803,0.00770537,0.0304942,1791,1569,6.86235,-6.84527
574,-545,6.84961,6.66321,0.00734903,0.00692931,-0.00772668,0.0148687,-0.000590355,-0.771821,0.010115,0.0267002,1798,1569,6.84962,-6.66321
581,-545,6.89453,6.53625,0.00783911,0.00886428,-0.00968621,0.0180515,-0.00134807,-0.811833,0.0125079,0.0362315,1805,1569,6.89451,-6.53622
588,-545,6.91113,6.43616,0,0,0,0,0,0,0,-1,1812,1569,6.91118,-6.43614
595,-545,7.03613,5.47729,0,0,0,0,0,0,0,-1,1819,1569,7.03618,-5.47734
602,-545,8.03894,4.33557,0,0,0,0,0,0,0,-1,1826,1569,8.03893,-4.33555
609,-545,8.71558,3.14709,0,0,0,0,0,0,0,-1,1833,1569,8.71563,-3.14711
616,-545,9.32727,2.09204,0,0,0,0,0,0,0,-1,1840,1569,9.32733,-2.09203
623,-545,13.2522,3.6488,0,0,0,0,0,0,0,-1,1847,1569,13.2522,-3.64886
630,-545,0,0,0,0,0,0,0,0,0,-1,1854,1569,0,0
637,-545,0,0,0,0,0,0,0,0,0,-1,1861,1569,0,0
644,-545,0,0,0,0,0,0,0,0,0,-1,1868,1569,0,0
651,-545,0,0,0,0,0,0,0,0,0,-1,1875,1569,0,0
658,-545,0,0,0,0,0,0,0,0,0,-1,1882,1569,0,0
665,-545,0,0,0,0,0,0,0,0,0,-1,1889,1569,0,0
672,-545,0,0,0,0,0,0,0,0,0,-1,1896,1569,0,0
679,-545,0,0,0,0,0,0,0,0,0,-1,1903,1569,0,0
686,-545,0,0,0,0,0,0,0,0,0,-1,1910,1569,0,0
693,-545,0,0,0,0,0,0,0,0,0,-1,1917,1569,0,0
700,-545,0,0,0,0,0,0,0,0,0,-1,1924,1569,0,0
707,-545,0,0,0,0,0,0,0,0,0,-1,1931,1569,0,0
714,-545,0,0,0,0,0,0,0,0,0,-1,1938,1569,0,0
721,-545,0,0,0,0,0,0,0,0,0,-1,1945,1569,0,0
728,-545,0,0,0,0,0,0,0,0,0,-1,1952,1569,0,0
735,-545,0,0,0,0,0,0,0,0,0,-1,1959,1569,0,0
742,-545,0,0,0,0,0,0,0,0,0,-1,1966,1569,0,0
749,-545,0,0,0,0,0,0,0,0,0,-1,1973,1569,0,0
756,-545,0,0,0,0,0,0,0,0,0,-1,1980,1569,0,0
763,-545,0,0,0,0,0,0,0,0,0,-1,1987,1569,0,0
770,-545,0,0,0,0,0,0,0,0,0,-1,1994,1569,0,0
777,-545,0,0,0,0,0,0,0,0,0,-1,2001,1569,0,0
784,-545,0,0,0,0,0,0,0,0,0,-1,2008,1569,0,0
791,-545,0,0,0,0,0,0,0,0,0,-1,2015,1569,0,0
798,-545,0,0,0,0,0,0,0,0,0,-1,2022,1569,0,0
805,-545,0,0,0,0,0,0,0,0,0,-1,2029,1569,0,0
812,-545,0,0,0,0,0,0,0,0,0,-1,2036,1569,0,0
-700,-552,0,0,0,0,0,0,0,0,0,-1,524,1576,0,0
-693,-552,0,0,0,0,0,0,0,0,0,-1,531,1576,0,0
-686,-552,0,0,0,0,0,0,0,0,0,-1,538,1576,0,0
-679,-552,0,0,0,0,0,0,0,0,0,-1,545,1576,0,0
-672,-552,0,0,0,0,0,0,0,0,0,-1,552,1576,0,0
-665,-552,0,0,0,0,0,0,0,0,0,-1,559,1576,0,0
-658,-552,0,0,0,0,0,0,0,0,0,-1,566,1576,0,0
-651,-552,0,0,0,0,0,0,0,0,0,-1,573,1576,0,0
-644,-552,0,0,0,0,0,0,0,0,0,-1,580,1576,0,0
-637,-552,0,0,0,0,0,0,0,0,0,-1,587,1576,0,0
-630,-552,0,0,0,0,0,0,0,0,0,-1,594,1576,0,0
-623,-552,0,0,0,0,0,0,0,0,0,-1,601,1576,0,0
-616,-552,0,0,0,0,0,0,0,0,0,-1,608,1576,0,0
-609,-552,0,0,0,0,0,0,0,0,0,-1,615,1576,0,0
-602,-552,0,0,0,0,0,0,0,0,0,-1,622,1576,0,0
-595,-552,0,0,0,0,0,0,0,0,0,-1,629,1576,0,0
-588,-552,0,0,0,0,0,0,0,0,0,-1,636,1576,0,0
-581,-552,0,0,0,0,0,0,0,0,0,-1,643,1576,0,0
-574,-552,0,0,0,0,0,0,0,0,0,-1,650,1576,0,0
-567,-552,0,0,0,0,0,0,0,0,0,-1,657,1576,0,0
-560,-552,0,0,0,0,0,0,0,0,0,-1,664,1576,0,0
-553,-552,0,0,0,0,0,0,0,0,0,-1,671,1576,0,0
-546,-552,0,0,0,0,0,0,0,0,0,-1,678,1576,0,0
-539,-552,0,0,0,0,0,0,0,0,0,-1,685,1576,0,0
-532,-552,0,0,0,0,0,0,0,0,0,-1,692,1576,0,0
-525,-552,0,0,0,0,0,0,0,0,0,-1,699,1576,0,0
-518,-552,0,0,0,0,0,0,0,0,0,-1,706,1576,0,0
-511,-552,0,0,0,0,0,0,0,0,0,-1,713,1576,0,0
-504,-552,0,0,0,0,0,0,0,0,0,-1,720,1576,0,0
-497,-552,4.93781,1.23352,0,0,0,0,0,0,0,-1,727,1576,4.93781,-1.23351
-490,-552,4.31445,1.83264,0,0,0,0,0,0,0,-1,734,1576,4.31442,-1.83266
-483,-552,3.66809,2.39941,0,0,0,0,0,0,0,-1,741,1576,3.66807,-2.39943
-476,-552,2.81836,1.32153,0,0,0,0,0,0,0,-1,748,1576,2.81836,-1.32148
-469,-552,2.24048,1.927,-0.0158781,0.132587,0.0675464,0.158719,-0.0420098,1.20166,0.122246,0.0417117,755,1576,2.24046,-1.92695
-462,-552,1.76141,2.82227,-0.0126191,0.11681,0.0587072,0.139471,-0.0352803,1.20241,0.106703,0.0392002,762,1576,1.76139,-2.82226
-455,-552,0.982117,4.79053,0,0,0,0,0,0,0,-1,769,1576,0.982098,-4.79052
-448,-552,0.716125,4.97656,-0.00724542,0.081552,0.0398894,0.0968392,-0.0225326,1.20482,0.0732351,0.0435927,776,1576,0.716137,-4.97652
-441,-552,0.798462,5.06238,-0.00513667,0.0642463,0.0309597,0.0760522,-0.0169425,1.20649,0.0571917,0.0362913,783,1576,0.798489,-5.06233
-434,-552,0.8255,5.44702,-0.00348002,0.048698,0.0231094,0.0574612,-0.0122433,1.20834,0.0429739,0.0201479,790,1576,0.825475,-5.44697
-427,-552,0.787109,5.61548,-0.00203991,0.0358094,0.0167394,0.0421503,-0.00838084,1.2087,0.0312705,0.0152907,797,1576,0.787093,-5.61551
-420,-552,0.807434,5.80896,-0.00116136,0.0253849,0.0117417,0.029833,-0.00560951,1.20867,0.0219982,0.0191787,804,1576,0.807464,-5.80897
-413,-552,0.814941,5.98376,-0.00029053,0.014859,0.00647192,0.0172473,-0.00267884,1.21727,0.0124873,0.0177738,811,1576,0.814946,-5.98378
-406,-552,0.799011,6.1604,0.000448103,0.00747152,0.0028013,0.00845196,-0.000532337,1.23413,0.00582021,0.0136762,818,1576,0.798992,-6.16041
-399,-552,0.78717,6.35449,0.000820062,0.00253295,0.000575403,0.00270829,0.000644718,1.275,0.0016336,0.0128927,825,1576,0.787176,-6.35447
-392,-552,0.763855,6.51367,0.000735809,0.000491313,-0.000240599,0.000883436,0.000343686,-0.550345,0.000514222,0.0134319,832,1576,0.763838,-6.51369
-385,-552,0.748901,6.69128,0.000796316,-0.000757479,-0.000861538,0.00117951,-0.00114068,-0.418506,0.00133962,0.0127516,839,1576,0.74889,-6.69128
-378,-552,0.750122,6.87329,0.0014124,-0.00106539,-0.000862455,0.00168304,-0.00133603,-0.304068,0.00174689,0.01483,846,1576,0.750137,-6.87332
-371,-552,0.751526,7.04089,0.00242859,-0.00122589,-0.000550769,0.00250979,-0.00130709,-0.14638,0.00223984,0.0189853,853,1576,0.751503,-7.04087
-364,-552,0.776367,7.22852,0.00355639,-0.00139301,-0.000129249,0.00355976,-0.00139638,-0.0260903,0.0029509,0.0148619,860,1576,0.77635,-7.22848
-357,-552,0.779602,7.39905,0.00415489,-0.00147567,0.000727061,0.00424725,-0.00156804,0.126367,0.00347421,0.00981634,867,1576,0.779574,-7.39909
-350,-552,0.773682,7.55444,0.00437871,-0.00175423,0.00199793,0.00497216,-0.00234767,0.288729,0.0043157,0.00913606,874,1576,0.773703,-7.5545
-343,-552,0.759399,7.71448,0.00445717,-0.00142502,0.00373855,0.00627284,-0.00324069,0.45211,0.00558486,0.00973317,881,1576,0.759373,-7.7145
-336,-552,0.791748,7.84473,0.00460228,-0.00131143,0.00575231,0.0081132,-0.00482234,0.547994,0.00754847,0.0152531,888,1576,0.791754,-7.84477
-329,-552,0.963501,8.06909,0.00392481,-0.00115131,0.00801868,0.00979751,-0.00702401,0.632127,0.00975581,0.0319144,895,1576,0.963491,-8.06909
-322,-552,0.982239,8.51868,0,0,0,0,0,0,0,-1,902,1576,0.982244,-8.51873
-315,-552,1.66394,8.22351,0,0,0,0,0,0,0,-1,909,1576,1.66395,-8.22348
-308,-552,1.89349,8.21118,0,0,0,0,0,0,0,-1,916,1576,1.8935,-8.21116
-301,-552,1.27075,8.42859,0,0,0,0,0,0,0,-1,923,1576,1.27076,-8.4286
-294,-552,1.21527,8.83801,0,0,0,0,0,0,0,-1,930,1576,1.21529,-8.83805
-287,-552,0.866455,9.29822,0,0,0,0,0,0,0,-1,937,1576,0.866426,-9.29827
-280,-552,0.968323,10.0533,0,0,0,0,0,0,0,-1,944,1576,0.968338,-10.0533
-273,-552,1.64587,10.6685,0,0,0,0,0,0,0,-1,951,1576,1.6459,-10.6685
-266,-552,-1.32678,8.05688,0,0,0,0,0,0,0,-1,958,1576,-1.32677,-8.05683
-259,-552,-5.54321,8.31213,0,0,0,0,0,0,0,-1,965,1576,-5.54324,-8.31214
-252,-552,-6.49988,8.56104,0,0,0,0,0,0,0,-1,972,1576,-6.49986,-8.56109
-245,-552,-7.40472,8.78979,0,0,0,0,0,0,0,-1,979,1576,-7.40475,-8.78975
-238,-552,-2.04474,1.87451,0,0,0,0,0,0,0,-1,986,1576,-2.04473,-1.87452
-231,-552,-2.03931,2.02283,0,0,0,0,0,0,0,-1,993,1576,-2.03933,-2.02287
-224,-552,0,0,0,0,0,0,0,0,0,-1,1000,1576,0,0
-217,-552,0,0,0,0,0,0,0,0,0,-1,1007,1576,0,0
-210,-552,0,0,0,0,0,0,0,0,0,-1,1014,1576,0,0
-203,-552,0,0,0,0,0,0,0,0,0,-1,1021,1576,0,0
-196,-552,0,0,0,0,0,0,0,0,0,-1,1028,1576,0,0
-189,-552,0,0,0,0,0,0,0,0,0,-1,1035,1576,0,0
-182,-552,0,0,0,0,0,0,0,0,0,-1,1042,1576,0,0
-175,-552,0,0,0,0,0,0,0,0,0,-1,1049,1576,0,0
-168,-552,0,0,0,0,0,0,0,0,0,-1,1056,1576,0,0
-161,-552,0,0,0,0,0,0,0,0,0,-1,1063,1576,0,0
-154,-552,0,0,0,0,0,0,0,0,0,-1,1070,1576,0,0
-147,-552,0,0,0,0,0,0,0,0,0,-1,1077,1576,0,0
-140,-552,0,0,0,0,0,0,0,0,0,-1,1084,1576,0,0
-133,-552,0,0,0,0,0,0,0,0,0,-1,1091,1576,0,0
-126,-552,0,0,0,0,0,0,0,0,0,-1,1098,1576,0,0
-119,-552,0,0,0,0,0,0,0,0,0,-1,1105,1576,0,0
-112,-552,0,0,0,0,0,0,0,0,0,-1,1112,1576,0,0
-105,-552,0,0,0,0,0,0,0,0,0,-1,1119,1576,0,0
-98,-552,0,0,0,0,0,0,0,0,0,-1,1126,1576,0,0
-91,-552,0,0,0,0,0,0,0,0,0,-1,1133,1576,0,0
-84,-552,0,0,0,0,0,0,0,0,0,-1,1140,1576,0,0
-77,-552,0,0,0,0,0,0,0,0,0,-1,1147,1576,0,0
-70,-552,0,0,0,0,0,0,0,0,0,-1,1154,1576,0,0
-63,-552,0,0,0,0,0,0,0,0,0,-1,1161,1576,0,0
-56,-552,0,0,0,0,0,0,0,0,0,-1,1168,1576,0,0
-49,-552,0,0,0,0,0,0,0,0,0,-1,1175,1576,0,0
-42,-552,0,0,0,0,0,0,0,0,0,-1,1182,1576,0,0
-35,-552,0,0,0,0,0,0,0,0,0,-1,1189,1576,0,0
-28,-552,0,0,0,0,0,0,0,0,0,-1,1196,1576,0,0
-21,-552,0,0,0,0,0,0,0,0,0,-1,1203,1576,0,0
-14,-552,0,0,0,0,0,0,0,0,0,-1,1210,1576,0,0
-7,-552,0,0,0,0,0,0,0,0,0,-1,1217,1576,0,0
0,-552,0,0,0,0,0,0,0,0,0,-1,1224,1576,0,0
7,-552,0,0,0,0,0,0,0,0,0,-1,1231,1576,0,0
14,-552,0,0,0,0,0,0,0,0,0,-1,1238,1576,0,0
21,-552,0,0,0,0,0,0,0,0,0,-1,1245,1576,0,0
28,-552,0,0,0,0,0,0,0,0,0,-1,1252,1576,0,0
35,-552,0,0,0,0,0,0,0,0,0,-1,1259,1576,0,0
42,-552,0,0,0,0,0,0,0,0,0,-1,1266,1576,0,0
49,-552,0,0,0,0,0,0,0,0,0,-1,1273,1576,0,0
56,-552,0,0,0,0,0,0,0,0,0,-1,1280,1576,0,0
63,-552,0,0,0,0,0,0,0,0,0,-1,1287,1576,0,0
70,-552,0,0,0,0,0,0,0,0,0,-1,1294,1576,0,0
77,-552,0,0,0,0,0,0,0,0,0,-1,1301,1576,0,0
84,-552,0,0,0,0,0,0,0,0,0,-1,1308,1576,0,0
91,-552,0,0,0,0,0,0,0,0,0,-1,1315,1576,0,0
98,-552,0,0,0,0,0,0,0,0,0,-1,1322,1576,0,0
105,-552,0,0,0,0,0,0,0,0,0,-1,1329,1576,0,0
112,-552,0,0,0,0,0,0,0,0,0,-1,1336,1576,0,0
119,-552,0,0,0,0,0,0,0,0,0,-1,1343,1576,0,0
126,-552,0,0,0,0,0,0,0,0,0,-1,1350,1576,0,0
133,-552,0,0,0,0,0,0,0,0,0,-1,1357,1576,0,0
140,-552,0,0,0,0,0,0,0,0,0,-1,1364,1576,0,0
147,-552,0,0,0,0,0,0,0,0,0,-1,1371,1576,0,0
154,-552,0,0,0,0,0,0,0,0,0,-1,1378,1576,0,0
161,-552,0,0,0,0,0,0,0,0,0,-1,1385,1576,0,0
168,-552,0,0,0,0,0,0,0,0,0,-1,1392,1576,0,0
175,-552,0,0,0,0,0,0,0,0,0,-1,1399,1576,0,0
182,-552,0,0,0,0,0,0,0,0,0,-1,1406,1576,0,0
189,-552,0,0,0,0,0,0,0,0,0,-1,1413,1576,0,0
196,-552,0,0,0,0,0,0,0,0,0,-1,1420,1576,0,0
203,-552,0,0,0,0,0,0,0,0,0,-1,1427,1576,0,0
210,-552,0,0,0,0,0,0,0,0,0,-1,1434,1576,0,0
217,-552,0,0,0,0,0,0,0,0,0,-1,1441,1576,0,0
224,-552,0,0,0,0,0,0,0,0,0,-1,1448,1576,0,0
231,-552,0,0,0,0,0,0,0,0,0,-1,1455,1576,0,0
238,-552,0,0,0,0,0,0,0,0,0,-1,1462,1576,0,0
245,-552,0,0,0,0,0,0,0,0,0,-1,1469,1576,0,0
252,-552,0,0,0,0,0,0,0,0,0,-1,1476,1576,0,0
259,-552,0,0,0,0,0,0,0,0,0,-1,1483,1576,0,0
266,-552,0,0,0,0,0,0,0,0,0,-1,1490,1576,0,0
273,-552,0,0,0,0,0,0,0,0,0,-1,1497,1576,0,0
280,-552,0,0,0,0,0,0,0,0,0,-1,1504,1576,0,0
287,-552,0,0,0,0,0,0,0,0,0,-1,1511,1576,0,0
294,-552,0,0,0,0,0,0,0,0,0,-1,1518,1576,0,0
301,-552,0,0,0,0,0,0,0,0,0,-1,1525,1576,0,0
308,-552,0,0,0,0,0,0,0,0,0,-1,1532,1576,0,0
315,-552,0,0,0,0,0,0,0,0,0,-1,1539,1576,0,0
322,-552,0,0,0,0,0,0,0,0,0,-1,1546,1576,0,0
329,-552,0,0,0,0,0,0,0,0,0,-1,1553,1576,0,0
336,-552,0,0,0,0,0,0,0,0,0,-1,1560,1576,0,0
343,-552,0,0,0,0,0,0,0,0,0,-1,1567,1576,0,0
350,-552,4.97876,4.09888,0,0,0,0,0,0,0,-1,1574,1576,4.97875,-4.09883
357,-552,5.18469,4.10706,0,0,0,0,0,0,0,-1,1581,1576,5.1847,-4.10702
364,-552,4.6189,3.48181,0,0,0,0,0,0,0,-1,1588,1576,4.61895,-3.48178
371,-552,7.10657,5.64783,0,0,0,0,0,0,0,-1,1595,1576,7.10651,-5.64786
378,-552,6.44446,4.91492,0,0,0,0,0,0,0,-1,1602,1576,6.44448,-4.91496
385,-552,12.8276,3.16504,0,0,0,0,0,0,0,-1,1609,1576,12.8276,-3.16503
392,-552,12.1301,4.3363,0,0,0,0,0,0,0,-1,1616,1576,12.1302,-4.33631
399,-552,11.3486,5.6012,0,0,0,0,0,0,0,-1,1623,1576,11.3486,-5.60115
406,-552,10.7863,6.42542,0,0,0,0,0,0,0,-1,1630,1576,10.7863,-6.42536
413,-552,10.4117,7.00818,0,0,0,0,0,0,0,-1,1637,1576,10.4118,-7.00812
420,-552,9.79956,7.29211,-0.0502918,-0.0217863,0.0641862,0.0297106,-0.101789,0.894652,0.0796321,0.0459024,1644,1576,9.79958,-7.29217
427,-552,9.30005,7.82776,-0.0484149,-0.0258359,0.0590494,0.0229936,-0.0972443,0.879852,0.0736996,0.0455897,1651,1576,9.30005,-7.82773
434,-552,8.87427,8.44299,-0.0452823,-0.0291431,0.0529976,0.0163957,-0.0908211,0.86095,0.0666879,0.0421631,1658,1576,8.87422,-8.44296
441,-552,8.52747,8.79529,0,0,0,0,0,0,0,-1,1665,1576,8.52752,-8.79529
448,-552,8.27612,8.79053,0,0,0,0,0,0,0,-1,1672,1576,8.27612,-8.79051
455,-552,7.3313,8.89087,0,0,0,0,0,0,0,-1,1679,1576,7.33136,-8.89087
462,-552,7.07959,8.75879,-0.0224309,-0.0298133,0.0259421,8.13063e-05,-0.0523255,0.71473,0.0349108,0.0404165,1686,1576,7.07956,-8.75877
469,-552,6.77014,8.7373,-0.0172348,-0.0267481,0.0204234,-0.00102147,-0.0429614,0.670987,0.0283066,0.0327773,1693,1576,6.77019,-8.73727
476,-552,6.7395,8.7699,-0.0123882,-0.0239315,0.015488,-0.0016314,-0.0346883,0.607042,0.0226014,0.0154673,1700,1576,6.7395,-8.7699
483,-552,6.78918,8.65405,-0.00826211,-0.0198952,0.0111415,-0.00151022,-0.0266471,0.544828,0.0172834,0.0138266,1707,1576,6.78918,-8.65406
490,-552,6.79639,8.52881,-0.0050513,-0.015903,0.007735,-0.00102888,-0.0199255,0.479542,0.0129543,0.0138283,1714,1576,6.79642,-8.52881
497,-552,6.80725,8.38135,-0.0027008,-0.0121527,0.00571523,-1.06492e-05,-0.0148428,0.439933,0.00989165,0.0213919,1721,1576,6.80729,-8.38131
504,-552,6.80359,8.22473,-0.000984764,-0.00861523,0.00400931,0.000734493,-0.0103345,0.405098,0.00714708,0.0242096,1728,1576,6.80354,-8.22475
511,-552,6.79517,8.06067,0.000203837,-0.0056482,0.00252881,0.00114518,-0.00658954,0.356354,0.00482031,0.0172673,1735,1576,6.79516,-8.06069
518,-552,6.79663,7.89331,0.0014808,-0.00289971,0.00119813,0.00178709,-0.003206,0.250279,0.0029213,0.0135022,1742,1576,6.79661,-7.89331
525,-552,6.78772,7.74951,0.00233337,-0.000776775,1.7861e-05,0.00233347,-0.000776878,0.00574257,0.00186922,0.0132107,1749,1576,6.78768,-7.74952
532,-552,6.77356,7.60876,0.00297538,0.000546224,-0.00101381,0.00334289,0.000178715,-0.347771,0.00217148,0.013866,1756,1576,6.77355,-7.60878
539,-552,6.75806,7.45984,0.00360428,0.00151759,-0.00189097,0.00472064,0.000401235,-0.533304,0.00302224,0.0162642,1763,1576,6.758,-7.45987
546,-552,6.77039,7.31421,0.00451454,0.00238605,-0.00271125,0.00636293,0.000537652,-0.598373,0.00407458,0.0205193,1770,1576,6.77033,-7.31424
553,-552,6.82813,7.14417,0.00577796,0.00316718,-0.0039286,0.00861236,0.000332774,-0.624997,0.00563393,0.0249633,1777,1576,6.82816,-7.14412
560,-552,6.73962,7.11938,0.00719632,0.00480558,-0.00562009,0.0117468,0.000255143,-0.680612,0.00774753,0.0439618,1784,1576,6.73964,-7.11944
567,-552,6.74939,6.72803,0,0,0,0,0,0,0,-1,1791,1576,6.74944,-6.72798
574,-552,6.77905,6.61487,0,0,0,0,0,0,0,-1,1798,1576,6.77909,-6.6149
581,-552,6.76758,6.51147,0,0,0,0,0,0,0,-1,1805,1576,6.76762,-6.51144
588,-552,6.02393,6.69104,0,0,0,0,0,0,0,-1,1812,1576,6.02395,-6.69103
595,-552,6.80872,5.76721,0,0,0,0,0,0,0,-1,1819,1576,6.80872,-5.76717
602,-552,7.59351,4.84326,0,0,0,0,0,0,0,-1,1826,1576,7.59348,-4.84332
609,-552,8.97168,1.92578,0,0,0,0,0,0,0,-1,1833,1576,8.9717,-1.92578
616,-552,8.70496,2.2627,0,0,0,0,0,0,0,-1,1840,1576,8.70495,-2.26274
623,-552,0,0,0,0,0,0,0,0,0,-1,1847,1576,0,0
630,-552,0,0,0,0,0,0,0,0,0,-1,1854,1576,0,0
637,-552,0,0,0,0,0,0,0,0,0,-1,1861,1576,0,0
644,-552,0,0,0,0,0,0,0,0,0,-1,1868,1576,0,0
651,-552,0,0,0,0,0,0,0,0,0,-1,1875,1576,0,0
658,-552,0,0,0,0,0,0,0,0,0,-1,1882,1576,0,0
665,-552,0,0,0,0,0,0,0,0,0,-1,1889,1576,0,0
672,-552,0,0,0,0,0,0,0,0,0,-1,1896,1576,0,0
679,-552,0,0,0,0,0,0,0,0,0,-1,1903,1576,0,0
686,-552,0,0,0,0,0,0,0,0,0,-1,1910,1576,0,0
693,-552,0,0,0,0,0,0,0,0,0,-1,1917,1576,0,0
700,-552,0,0,0,0,0,0,0,0,0,-1,1924,1576,0,0
707,-552,0,0,0,0,0,0,0,0,0,-1,1931,1576,0,0
714,-552,0,0,0,0,0,0,0,0,0,-1,1938,1576,0,0
721,-552,0,0,0,0,0,0,0,0,0,-1,1945,1576,0,0
728,-552,0,0,0,0,0,0,0,0,0,-1,1952,1576,0,0
735,-552,0,0,0,0,0,0,0,0,0,-1,1959,1576,0,0
742,-552,0,0,0,0,0,0,0,0,0,-1,1966,1576,0,0
749,-552,0,0,0,0,0,0,0,0,0,-1,1973,1576,0,0
756,-552,0,0,0,0,0,0,0,0,0,-1,1980,1576,0,0
763,-552,0,0,0,0,0,0,0,0,0,-1,1987,1576,0,0
770,-552,0,0,0,0,0,0,0,0,0,-1,1994,1576,0,0
777,-552,0,0,0,0,0,0,0,0,0,-1,2001,1576,0,0
784,-552,0,0,0,0,0,0,0,0,0,-1,2008,1576,0,0
791,-552,0,0,0,0,0,0,0,0,0,-1,2015,1576,0,0
798,-552,0,0,0,0,0,0,0,0,0,-1,2022,1576,0,0
805,-552,0,0,0,0,0,0,0,0,0,-1,2029,1576,0,0
812,-552,0,0,0,0,0,0,0,0,0,-1,2036,1576,0,0
-700,-559,0,0,0,0,0,0,0,0,0,-1,524,1583,0,0
-693,-559,0,0,0,0,0,0,0,0,0,-1,531,1583,0,0
-686,-559,0,0,0,0,0,0,0,0,0,-1,538,1583,0,0
-679,-559,0,0,0,0,0,0,0,0,0,-1,545,1583,0,0
-672,-559,0,0,0,0,0,0,0,0,0,-1,552,1583,0,0
-665,-559,0,0,0,0,0,0,0,0,0,-1,559,1583,0,0
-658,-559,0,0,0,0,0,0,0,0,0,-1,566,1583,0,0
-651,-559,0,0,0,0,0,0,0,0,0,-1,573,1583,0,0
-644,-559,0,0,0,0,0,0,0,0,0,-1,580,1583,0,0
-637,-559,0,0,0,0,0,0,0,0,0,-1,587,1583,0,0
-630,-559,0,0,0,0,0,0,0,0,0,-1,594,1583,0,0
-623,-559,0,0,0,0,0,0,0,0,0,-1,601,1583,0,0
-616,-559,0,0,0,0,0,0,0,0,0,-1,608,1583,0,0
-609,-559,0,0,0,0,0,0,0,0,0,-1,615,1583,0,0
-602,-559,0,0,0,0,0,0,0,0,0,-1,622,1583,0,0
-595,-559,0,0,0,0,0,0,0,0,0,-1,629,1583,0,0
-588,-559,0,0,0,0,0,0,0,0,0,-1,636,1583,0,0
-581,-559,0,0,0,0,0,0,0,0,0,-1,643,1583,0,0
-574,-559,0,0,0,0,0,0,0,0,0,-1,650,1583,0,0
-567,-559,0,0,0,0,0,0,0,0,0,-1,657,1583,0,0
-560,-559,0,0,0,0,0,0,0,0,0,-1,664,1583,0,0
-553,-559,0,0,0,0,0,0,0,0,0,-1,671,1583,0,0
-546,-559,0,0,0,0,0,0,0,0,0,-1,678,1583,0,0
-539,-559,0,0,0,0,0,0,0,0,0,-1,685,1583,0,0
-532,-559,0,0,0,0,0,0,0,0,0,-1,692,1583,0,0
-525,-559,0,0,0,0,0,0,0,0,0,-1,699,1583,0,0
-518,-559,0,0,0,0,0,0,0,0,0,-1,706,1583,0,0
-511,-559,0,0,0,0,0,0,0,0,0,-1,713,1583,0,0
-504,-559,0,0,0,0,0,0,0,0,0,-1,720,1583,0,0
-497,-559,0,0,0,0,0,0,0,0,0,-1,727,1583,0,0
-490,-559,4.16803,1.29773,0,0,0,0,0,0,0,-1,734,1583,4.16806,-1.29776
-483,-559,3.172,-1.21948,0,0,0,0,0,0,0,-1,741,1583,3.17199,1.2195
-476,-559,2.5188,-0.174683,0,0,0,0,0,0,0,-1,748,1583,2.51878,0.174738
-469,-559,1.83472,0.696289,-0.0176779,0.17228,0.09025,0.20832,-0.0537182,1.19086,0.159824,0.0438482,755,1583,1.83472,-0.696289
-462,-559,1.32874,1.66528,-0.014046,0.15219,0.0785712,0.183449,-0.0453047,1.19215,0.139868,0.0399521,762,1583,1.32876,-1.6653
-455,-559,1.06561,2.90759,-0.0108515,0.130062,0.0662439,0.156313,-0.0371026,1.1935,0.118528,0.0394838,769,1583,1.06562,-2.90758
-448,-559,0.983032,3.93396,-0.00803686,0.106511,0.0535266,0.127629,-0.0291556,1.195,0.0962875,0.0445278,776,1583,0.983041,-3.93393
-441,-559,0.99115,4.59924,-0.00568257,0.0837789,0.0415036,0.100068,-0.0219714,1.1968,0.0751145,0.0447135,783,1583,0.991177,-4.59929
-434,-559,1.02991,5.03748,0,0,0,0,0,0,0,-1,790,1583,1.0299,-5.03748
-427,-559,0.998291,5.64941,-0.00244638,0.0462641,0.0221713,0.0548442,-0.0110266,1.20155,0.0407388,0.0208328,797,1583,0.998288,-5.64939
-420,-559,0.944153,5.81689,-0.00156513,0.0325676,0.0153553,0.0384587,-0.00745627,1.20446,0.0284521,0.0193145,804,1583,0.944152,-5.81693
-413,-559,0.963684,6.00647,-0.000592247,0.0190656,0.00838219,0.0221545,-0.00368109,1.21774,0.0161372,0.0124733,811,1583,0.963702,-6.00648
-406,-559,0.9552,6.19031,0.000270229,0.00961586,0.00374415,0.0109308,-0.00104476,1.23304,0.00765927,0.00992558,818,1583,0.955177,-6.19026
-399,-559,0.960144,6.35449,0.000640902,0.00337061,0.000965836,0.00367778,0.000333732,1.26288,0.00234853,0.0117504,825,1583,0.960114,-6.35453
-392,-559,0.936157,6.48901,0.000425523,0.00103177,8.14977e-05,0.00104254,0.000414759,1.43947,0.000606082,0.0149572,832,1583,0.936132,-6.48907
-385,-559,0.902893,6.67603,0.000338685,-0.000378692,-0.000609865,0.000687523,-0.000727529,-0.51957,0.00081709,0.0158776,839,1583,0.902907,-6.67608
-378,-559,0.914612,6.86987,0.000864532,-0.000648844,-0.000588614,0.00106651,-0.000850823,-0.330554,0.00110931,0.0150279,846,1583,0.914624,-6.8699
-371,-559,0.945374,7.04004,0.00177066,-0.000774967,-0.000284735,0.00180212,-0.000806427,-0.110041,0.00154218,0.0217487,853,1583,0.945396,-7.04001
-364,-559,0.978516,7.18213,0.00276626,-0.000953738,0.000120894,0.00277019,-0.000957663,0.0324526,0.00223547,0.0194514,860,1583,0.978543,-7.18215
-357,-559,0.951538,7.3739,0.00340259,-0.00107175,0.000875859,0.00356793,-0.00123709,0.18658,0.00288092,0.011694,867,1583,0.95155,-7.37391
-350,-559,0.945251,7.53687,0.00381933,-0.00134499,0.00195888,0.00447828,-0.00200394,0.324498,0.00383231,0.00961992,874,1583,0.945268,-7.53692
-343,-559,0.924805,7.70947,0.00414957,-0.00115226,0.00341341,0.00582054,-0.00282323,0.455238,0.00508951,0.0102256,881,1583,0.924792,-7.70942
-336,-559,0.917419,7.86389,0.00456612,-0.0011534,0.00505572,0.00751485,-0.00410212,0.528009,0.00680285,0.0116168,888,1583,0.91739,-7.8639
-329,-559,0.97644,8.073,0.00434769,-0.00114954,0.00683295,0.00896413,-0.00576598,0.594172,0.00857099,0.0153479,895,1583,0.976429,-8.07298
-322,-559,1.08624,8.29919,0.00347195,-0.0010941,0.00876105,0.0102426,-0.0078647,0.657939,0.0104842,0.034766,902,1583,1.08625,-8.29914
-315,-559,1.39465,8.21204,0.00180748,-0.00117234,0.0107104,0.0111311,-0.010496,0.716288,0.0124882,0.0403463,909,1583,1.39468,-8.21208
-308,-559,1.49219,8.23035,-0.000496624,-0.00127833,0.0125007,0.0116193,-0.0133943,0.76977,0.0144537,0.0394911,916,1583,1.4922,-8.2304
-301,-559,1.34064,8.35742,-0.00343948,-0.00183364,0.0143627,0.0117486,-0.0170217,0.813321,0.0167033,0.0458504,923,1583,1.34066,-8.35748
-294,-559,1.73212,8.69348,-0.00697458,-0.00240027,0.0155766,0.0110562,-0.020431,0.858294,0.0184458,0.0463261,930,1583,1.73214,-8.69344
-287,-559,1.86389,8.96863,0,0,0,0,0,0,0,-1,937,1583,1.86392,-8.96859
-280,-559,1.85376,9.58264,0,0,0,0,0,0,0,-1,944,1583,1.85374,-9.58263
-273,-559,2.12836,10.3059,0,0,0,0,0,0,0,-1,951,1583,2.12839,-10.3059
-266,-559,-0.597046,6.68933,0,0,0,0,0,0,0,-1,958,1583,-0.597031,-6.68937
-259,-559,-7.00311,8.62756,0,0,0,0,0,0,0,-1,965,1583,-7.00312,-8.6275
-252,-559,-8.16071,8.59155,0,0,0,0,0,0,0,-1,972,1583,-8.16071,-8.5915
-245,-559,-4.11566,3.56042,0,0,0,0,0,0,0,-1,979,1583,-4.11564,-3.56039
-238,-559,-3.22314,2.91785,0,0,0,0,0,0,0,-1,986,1583,-3.22316,-2.91789
-231,-559,-2.42377,2.27722,0,0,0,0,0,0,0,-1,993,1583,-2.42378,-2.27726
-224,-559,-2.11206,2.69836,0,0,0,0,0,0,0,-1,1000,1583,-2.11204,-2.69831
-217,-559,0,0,0,0,0,0,0,0,0,-1,1007,1583,0,0
-210,-559,0,0,0,0,0,0,0,0,0,-1,1014,1583,0,0
-203,-559,0,0,0,0,0,0,0,0,0,-1,1021,1583,0,0
-196,-559,0,0,0,0,0,0,0,0,0,-1,1028,1583,0,0
-189,-559,0,0,0,0,0,0,0,0,0,-1,1035,1583,0,0
-182,-559,0,0,0,0,0,0,0,0,0,-1,1042,1583,0,0
-175,-559,0,0,0,0,0,0,0,0,0,-1,1049,1583,0,0
-168,-559,0,0,0,0,0,0,0,0,0,-1,1056,1583,0,0
-161,-559,0,0,0,0,0,0,0,0,0,-1,1063,1583,0,0
-154,-559,0,0,0,0,0,0,0,0,0,-1,1070,1583,0,0
-147,-559,0,0,0,0,0,0,0,0,0,-1,1077,1583,0,0
-140,-559,0,0,0,0,0,0,0,0,0,-1,1084,1583,0,0
-133,-559,0,0,0,0,0,0,0,0,0,-1,1091,1583,0,0
-126,-559,0,0,0,0,0,0,0,0,0,-1,1098,1583,0,0
-119,-559,0,0,0,0,0,0,0,0,0,-1,1105,1583,0,0
-112,-559,0,0,0,0,0,0,0,0,0,-1,1112,1583,0,0
-105,-559,0,0,0,0,0,0,0,0,0,-1,1119,1583,0,0
-98,-559,0,0,0,0,0,0,0,0,0,-1,1126,1583,0,0
-91,-559,0,0,0,0,0,0,0,0,0,-1,1133,1583,0,0
-84,-559,0,0,0,0,0,0,0,0,0,-1,1140,1583,0,0
-77,-559,0,0,0,0,0,0,0,0,0,-1,1147,1583,0,0
-70,-559,0,0,0,0,0,0,0,0,0,-1,1154,1583,0,0
-63,-559,0,0,0,0,0,0,0,0,0,-1,1161,1583,0,0
-56,-559,0,0,0,0,0,0,0,0,0,-1,1168,1583,0,0
-49,-559,0,0,0,0,0,0,0,0,0,-1,1175,1583,0,0
-42,-559,0,0,0,0,0,0,0,0,0,-1,1182,1583,0,0
-35,-559,0,0,0,0,0,0,0,0,0,-1,1189,1583,0,0
-28,-559,0,0,0,0,0,0,0,0,0,-1,1196,1583,0,0
-21,-559,0,0,0,0,0,0,0,0,0,-1,1203,1583,0,0
-14,-559,0,0,0,0,0,0,0,0,0,-1,1210,1583,0,0
-7,-559,0,0,0,0,0,0,0,0,0,-1,1217,1583,0,0
0,-559,0,0,0,0,0,0,0,0,0,-1,1224,1583,0,0
7,-559,0,0,0,0,0,0,0,0,0,-1,1231,1583,0,0
14,-559,0,0,0,0,0,0,0,0,0,-1,1238,1583,0,0
21,-559,0,0,0,0,0,0,0,0,0,-1,1245,1583,0,0
28,-559,0,0,0,0,0,0,0,0,0,-1,1252,1583,0,0
35,-559,0,0,0,0,0,0,0,0,0,-1,1259,1583,0,0
42,-559,0,0,0,0,0,0,0,0,0,-1,1266,1583,0,0
49,-559,0,0,0,0,0,0,0,0,0,-1,1273,1583,0,0
56,-559,0,0,0,0,0,0,0,0,0,-1,1280,1583,0,0
63,-559,0,0,0,0,0,0,0,0,0,-1,1287,1583,0,0
70,-559,0,0,0,0,0,0,0,0,0,-1,1294,1583,0,0
77,-559,0,0,0,0,0,0,0,0,0,-1,1301,1583,0,0
84,-559,0,0,0,0,0,0,0,0,0,-1,1308,1583,0,0
91,-559,0,0,0,0,0,0,0,0,0,-1,1315,1583,0,0
98,-559,0,0,0,0,0,0,0,0,0,-1,1322,1583,0,0
105,-559,0,0,0,0,0,0,0,0,0,-1,1329,1583,0,0
112,-559,0,0,0,0,0,0,0,0,0,-1,1336,1583,0,0
119,-559,0,0,0,0,0,0,0,0,0,-1,1343,1583,0,0
126,-559,0,0,0,0,0,0,0,0,0,-1,1350,1583,0,0
133,-559,0,0,0,0,0,0,0,0,0,-1,1357,1583,0,0
140,-559,0,0,0,0,0,0,0,0,0,-1,1364,1583,0,0
147,-559,0,0,0,0,0,0,0,0,0,-1,1371,1583,0,0
154,-559,0,0,0,0,0,0,0,0,0,-1,1378,1583,0,0
161,-559,0,0,0,0,0,0,0,0,0,-1,1385,1583,0,0
168,-559,0,0,0,0,0,0,0,0,0,-1,1392,1583,0,0
175,-559,0,0,0,0,0,0,0,0,0,-1,1399,1583,0,0
182,-559,0,0,0,0,0,0,0,0,0,-1,1406,1583,0,0
189,-559,0,0,0,0,0,0,0,0,0,-1,1413,1583,0,0
196,-559,0,0,0,0,0,0,0,0,0,-1,1420,1583,0,0
203,-559,0,0,0,0,0,0,0,0,0,-1,1427,1583,0,0
210,-559,0,0,0,0,0,0,0,0,0,-1,1434,1583,0,0
217,-559,0,0,0,0,0,0,0,0,0,-1,1441,1583,0,0
224,-559,0,0,0,0,0,0,0,0,0,-1,1448,1583,0,0
231,-559,0,0,0,0,0,0,0,0,0,-1,1455,1583,0,0
238,-559,0,0,0,0,0,0,0,0,0,-1,1462,1583,0,0
245,-559,0,0,0,0,0,0,0,0,0,-1,1469,1583,0,0
252,-559,0,0,0,0,0,0,0,0,0,-1,1476,1583,0,0
259,-559,0,0,0,0,0,0,0,0,0,-1,1483,1583,0,0
266,-559,0,0,0,0,0,0,0,0,0,-1,1490,1583,0,0
273,-559,0,0,0,0,0,0,0,0,0,-1,1497,1583,0,0
280,-559,0,0,0,0,0,0,0,0,0,-1,1504,1583,0,0
287,-559,0,0,0,0,0,0,0,0,0,-1,1511,1583,0,0
294,-559,0,0,0,0,0,0,0,0,0,-1,1518,1583,0,0
301,-559,0,0,0,0,0,0,0,0,0,-1,1525,1583,0,0
308,-559,0,0,0,0,0,0,0,0,0,-1,1532,1583,0,0
315,-559,0,0,0,0,0,0,0,0,0,-1,1539,1583,0,0
322,-559,0,0,0,0,0,0,0,0,0,-1,1546,1583,0,0
329,-559,0,0,0,0,0,0,0,0,0,-1,1553,1583,0,0
336,-559,5.97668,3.09827,0,0,0,0,0,0,0,-1,1560,1583,5.97667,-3.09824
343,-559,5.44824,2.88696,0,0,0,0,0,0,0,-1,1567,1583,5.44819,-2.88693
350,-559,4.69775,3.27051,0,0,0,0,0,0,0,-1,1574,1583,4.69771,-3.27048
357,-559,3.88025,3.60999,0,0,0,0,0,0,0,-1,1581,1583,3.88027,-3.60998
364,-559,5.00928,5.32605,0,0,0,0,0,0,0,-1,1588,1583,5.00928,-5.32607
371,-559,1.84436,2.52441,0,0,0,0,0,0,0,-1,1595,1583,1.84441,-2.52447
378,-559,6.34753,1.53137,0,0,0,0,0,0,0,-1,1602,1583,6.34752,-1.53139
385,-559,6.95911,1.48181,0,0,0,0,0,0,0,-1,1609,1583,6.95916,-1.48175
392,-559,11.6949,4.77734,0,0,0,0,0,0,0,-1,1616,1583,11.6949,-4.77731
399,-559,11.1104,5.56909,0,0,0,0,0,0,0,-1,1623,1583,11.1103,-5.56905
406,-559,10.3385,6.48657,0,0,0,0,0,0,0,-1,1630,1583,10.3385,-6.48661
413,-559,9.76147,6.97571,0,0,0,0,0,0,0,-1,1637,1583,9.76143,-6.97574
420,-559,9.1095,7.36182,0,0,0,0,0,0,0,-1,1644,1583,9.10955,-7.36184
427,-559,8.50146,8.24512,0,0,0,0,0,0,0,-1,1651,1583,8.50145,-8.2451
434,-559,8.01367,8.73047,0,0,0,0,0,0,0,-1,1658,1583,8.01362,-8.73042
441,-559,7.46985,8.88208,0,0,0,0,0,0,0,-1,1665,1583,7.46984,-8.88207
448,-559,7.30115,8.90283,-0.0277044,-0.0257519,0.0311881,0.00447527,-0.0579316,0.801045,0.0401959,0.0477843,1672,1583,7.3011,-8.90286
455,-559,7.05078,8.89319,-0.0228947,-0.0249028,0.0257024,0.00182328,-0.0496207,0.765876,0.0337047,0.0398783,1679,1583,7.05076,-8.89321
462,-559,6.76025,8.97864,-0.0183006,-0.0231412,0.0207051,0.000125244,-0.041567,0.727215,0.0277532,0.0318359,1686,1583,6.7603,-8.97863
469,-559,6.64246,8.9491,-0.0141115,-0.0206629,0.0162581,-0.000802401,-0.0339719,0.685989,0.0223853,0.0167506,1693,1583,6.64248,-8.94915
476,-559,6.60669,8.79614,-0.0101761,-0.0183685,0.0122507,-0.00135487,-0.0271897,0.624059,0.0176921,0.01021,1700,1583,6.60668,-8.79618
483,-559,6.61963,8.64612,-0.00678216,-0.0151393,0.00876566,-0.00125005,-0.0206714,0.562982,0.0133837,0.0124396,1707,1583,6.61967,-8.64609
490,-559,6.62952,8.52014,-0.00399409,-0.0119764,0.00598149,-0.000794448,-0.015176,0.491195,0.0098632,0.0143995,1714,1583,6.62957,-8.52013
497,-559,6.67493,8.39941,-0.00178024,-0.00906571,0.00415709,0.000104313,-0.0109503,0.425623,0.00733519,0.0167742,1721,1583,6.67493,-8.39945
504,-559,6.69727,8.22949,-0.000153351,-0.00617751,0.00266007,0.000853101,-0.00718397,0.361709,0.00509753,0.0224205,1728,1583,6.69727,-8.22946
511,-559,6.65417,8.05505,0.0010853,-0.00369879,0.00130896,0.00142002,-0.00403351,0.25035,0.0032669,0.0199861,1735,1583,6.6542,-8.0551
518,-559,6.65918,7.90015,0.00243747,-0.00139805,4.16098e-05,0.00243793,-0.00139851,0.0108468,0.0022419,0.0120888,1742,1583,6.65917,-7.9001
525,-559,6.64551,7.74878,0.00350173,0.000383364,-0.00112677,0.00386626,1.88394e-05,-0.312887,0.00257125,0.0114313,1749,1583,6.64554,-7.74883
532,-559,6.61646,7.62427,0.00445911,0.00153066,-0.00219191,0.00563087,0.000358901,-0.490931,0.00364018,0.0129956,1756,1583,6.61649,-7.62428
539,-559,6.60925,7.47852,0.0054477,0.00248288,-0.00320092,0.00749281,0.000437771,-0.568542,0.00485587,0.0161734,1763,1583,6.60928,-7.47857
546,-559,6.62878,7.30554,0.00675538,0.00327564,-0.00418944,0.00955187,0.000479145,-0.588586,0.00621436,0.0154657,1770,1583,6.62874,-7.30559
553,-559,6.73853,7.10303,0.00844652,0.00411603,-0.00558288,0.0122693,0.000293215,-0.60041,0.00808359,0.0224081,1777,1583,6.73849,-7.10305
560,-559,6.67566,7.09668,0.0103178,0.00591905,-0.00755388,0.015986,0.000250878,-0.643735,0.0105747,0.0414785,1784,1583,6.6757,-7.09671
567,-559,6.75916,6.69507,0,0,0,0,0,0,0,-1,1791,1583,6.75915,-6.6951
574,-559,7.02966,6.33643,0,0,0,0,0,0,0,-1,1798,1583,7.02972,-6.33645
581,-559,5.97095,5.96179,0,0,0,0,0,0,0,-1,1805,1583,5.97093,-5.96181
588,-559,5.79102,5.89954,0,0,0,0,0,0,0,-1,1812,1583,5.79098,-5.89949
595,-559,6.63647,5.83362,0,0,0,0,0,0,0,-1,1819,1583,6.63651,-5.83363
602,-559,10.5408,2.7533,0,0,0,0,0,0,0,-1,1826,1583,10.5407,-2.75335
609,-559,5.72681,0.13562,0,0,0,0,0,0,0,-1,1833,1583,5.72678,-0.135584
616,-559,0,0,0,0,0,0,0,0,0,-1,1840,1583,0,0
623,-559,0,0,0,0,0,0,0,0,0,-1,1847,1583,0,0
630,-559,0,0,0,0,0,0,0,0,0,-1,1854,1583,0,0
637,-559,0,0,0,0,0,0,0,0,0,-1,1861,1583,0,0
644,-559,0,0,0,0,0,0,0,0,0,-1,1868,1583,0,0
651,-559,0,0,0,0,0,0,0,0,0,-1,1875,1583,0,0
658,-559,0,0,0,0,0,0,0,0,0,-1,1882,1583,0,0
665,-559,0,0,0,0,0,0,0,0,0,-1,1889,1583,0,0
672,-559,0,0,0,0,0,0,0,0,0,-1,1896,1583,0,0
679,-559,0,0,0,0,0,0,0,0,0,-1,1903,1583,0,0
686,-559,0,0,0,0,0,0,0,0,0,-1,1910,1583,0,0
693,-559,0,0,0,0,0,0,0,0,0,-1,1917,1583,0,0
700,-559,0,0,0,0,0,0,0,0,0,-1,1924,1583,0,0
707,-559,0,0,0,0,0,0,0,0,0,-1,1931,1583,0,0
714,-559,0,0,0,0,0,0,0,0,0,-1,1938,1583,0,0
721,-559,0,0,0,0,0,0,0,0,0,-1,1945,1583,0,0
728,-559,0,0,0,0,0,0,0,0,0,-1,1952,1583,0,0
735,-559,0,0,0,0,0,0,0,0,0,-1,1959,1583,0,0
742,-559,0,0,0,0,0,0,0,0,0,-1,1966,1583,0,0
749,-559,0,0,0,0,0,0,0,0,0,-1,1973,1583,0,0
756,-559,0,0,0,0,0,0,0,0,0,-1,1980,1583,0,0
763,-559,0,0,0,0,0,0,0,0,0,-1,1987,1583,0,0
770,-559,0,0,0,0,0,0,0,0,0,-1,1994,1583,0,0
777,-559,0,0,0,0,0,0,0,0,0,-1,2001,1583,0,0
784,-559,0,0,0,0,0,0,0,0,0,-1,2008,1583,0,0
791,-559,0,0,0,0,0,0,0,0,0,-1,2015,1583,0,0
798,-559,0,0,0,0,0,0,0,0,0,-1,2022,1583,0,0
805,-559,0,0,0,0,0,0,0,0,0,-1,2029,1583,0,0
812,-559,0,0,0,0,0,0,0,0,0,-1,2036,1583,0,0
-700,-566,0,0,0,0,0,0,0,0,0,-1,524,1590,0,0
-693,-566,0,0,0,0,0,0,0,0,0,-1,531,1590,0,0
-686,-566,0,0,0,0,0,0,0,0,0,-1,538,1590,0,0
-679,-566,0,0,0,0,0,0,0,0,0,-1,545,1590,0,0
-672,-566,0,0,0,0,0,0,0,0,0,-1,552,1590,0,0
-665,-566,0,0,0,0,0,0,0,0,0,-1,559,1590,0,0
-658,-566,0,0,0,0,0,0,0,0,0,-1,566,1590,0,0
-651,-566,0,0,0,0,0,0,0,0,0,-1,573,1590,0,0
-644,-566,0,0,0,0,0,0,0,0,0,-1,580,1590,0,0
-637,-566,0,0,0,0,0,0,0,0,0,-1,587,1590,0,0
-630,-566,0,0,0,0,0,0,0,0,0,-1,594,1590,0,0
-623,-566,0,0,0,0,0,0,0,0,0,-1,601,1590,0,0
-616,-566,0,0,0,0,0,0,0,0,0,-1,608,1590,0,0
-609,-566,0,0,0,0,0,0,0,0,0,-1,615,1590,0,0
-602,-566,0,0,0,0,0,0,0,0,0,-1,622,1590,0,0
-595,-566,0,0,0,0,0,0,0,0,0,-1,629,1590,0,0
-588,-566,0,0,0,0,0,0,0,0,0,-1,636,1590,0,0
-581,-566,0,0,0,0,0,0,0,0,0,-1,643,1590,0,0
-574,-566,0,0,0,0,0,0,0,0,0,-1,650,1590,0,0
-567,-566,0,0,0,0,0,0,0,0,0,-1,657,1590,0,0
-560,-566,0,0,0,0,0,0,0,0,0,-1,664,1590,0,0
-553,-566,0,0,0,0,0,0,0,0,0,-1,671,1590,0,0
-546,-566,0,0,0,0,0,0,0,0,0,-1,678,1590,0,0
-539,-566,0,0,0,0,0,0,0,0,0,-1,685,1590,0,0
-532,-566,0,0,0,0,0,0,0,0,0,-1,692,1590,0,0
-525,-566,0,0,0,0,0,0,0,0,0,-1,699,1590,0,0
-518,-566,0,0,0,0,0,0,0,0,0,-1,706,1590,0,0
-511,-566,0,0,0,0,0,0,0,0,0,-1,713,1590,0,0
-504,-566,0,0,0,0,0,0,0,0,0,-1,720,1590,0,0
-497,-566,0,0,0,0,0,0,0,0,0,-1,727,1590,0,0
-490,-566,0,0,0,0,0,0,0,0,0,-1,734,1590,0,0
-483,-566,3.19678,1.06677,0,0,0,0,0,0,0,-1,741,1590,3.19675,-1.06673
-476,-566,1.38202,-1.79102,0,0,0,0,0,0,0,-1,748,1590,1.38203,1.79105
-469,-566,1.18524,-0.729614,-0.0189351,0.217642,0.116518,0.265392,-0.0666844,1.18187,0.202843,0.0450698,755,1590,1.18524,0.729602
-462,-566,0.950867,0.43811,-0.0150809,0.192579,0.101603,0.234021,-0.0565226,1.18352,0.177874,0.0429372,762,1590,0.95085,-0.438152
-455,-566,0.588745,1.44531,-0.0116691,0.164947,0.0858874,0.199826,-0.0465477,1.18504,0.151141,0.0417131,769,1590,0.588719,-1.44529
-448,-566,0.863281,2.94421,0,0,0,0,0,0,0,-1,776,1590,0.863265,-2.94418
-441,-566,0.955444,3.90515,-0.00604961,0.105963,0.0537854,0.127607,-0.0276936,1.18821,0.0956486,0.0460449,783,1590,0.955451,-3.90517
-434,-566,1.23608,4.6687,0,0,0,0,0,0,0,-1,790,1590,1.2361,-4.66875
-427,-566,1.79919,5.33679,0,0,0,0,0,0,0,-1,797,1590,1.79919,-5.33683
-420,-566,1.04901,5.87085,-0.00185364,0.040618,0.0196845,0.048338,-0.00957363,1.19704,0.0358452,0.0288155,804,1590,1.04899,-5.87089
-413,-566,1.10754,6.01965,-0.000822444,0.0236685,0.0107212,0.0276986,-0.00485256,1.21123,0.0202778,0.0137311,811,1590,1.10755,-6.01965
-406,-566,1.09387,6.18774,0.000136339,0.0118595,0.00489591,0.0136352,-0.00163936,1.22286,0.00968295,0.00890397,818,1590,1.0939,-6.18779
-399,-566,1.10785,6.35083,0.000560356,0.00406218,0.00148582,0.00460764,1.48909e-05,1.21896,0.00306681,0.00916289,825,1590,1.10785,-6.35089
-392,-566,1.08655,6.50146,0.000280663,0.00137581,0.000551828,0.00160563,5.08364e-05,1.17616,0.00105389,0.0113884,832,1590,1.08656,-6.50142
-385,-566,1.09436,6.70422,0.000123746,-0.000232815,-0.000186105,0.000203184,-0.000312253,-0.403434,0.0002998,0.014559,839,1590,1.09434,-6.70423
-378,-566,1.0943,6.89807,0.000626047,-0.000520802,-0.000133258,0.000641327,-0.000536082,-0.114169,0.000680682,0.0156102,846,1590,1.09432,-6.89807
-371,-566,1.08875,7.0592,0.00147746,-0.000663335,0.000164178,0.00148998,-0.000675852,0.076097,0.00127955,0.0200297,853,1590,1.08877,-7.0592
-364,-566,1.11737,7.18896,0.00238759,-0.000880863,0.000541942,0.0024751,-0.000968379,0.160104,0.00205055,0.020187,860,1590,1.11734,-7.18898
-357,-566,1.13452,7.36426,0.00304474,-0.00102828,0.0011744,0.00335911,-0.00134264,0.261546,0.00279653,0.0168131,867,1590,1.13452,-7.36424
-350,-566,1.12677,7.53223,0.00356577,-0.00127753,0.0020477,0.00431547,-0.00202723,0.350961,0.00374055,0.0192792,874,1590,1.12677,-7.53219
-343,-566,1.12183,7.68579,0.0040103,-0.00117269,0.00319259,0.0055308,-0.00269319,0.444475,0.00484142,0.0234701,881,1590,1.1218,-7.68574
-336,-566,1.06433,7.84839,0.00453481,-0.00120432,0.00446618,0.00697384,-0.00364336,0.499852,0.00622956,0.0231824,888,1590,1.06434,-7.84842
-329,-566,1.12457,8.00024,0.00456618,-0.00125257,0.00577203,0.00812061,-0.004807,0.551958,0.00754505,0.0131893,895,1590,1.12456,-8.00022
-322,-566,1.1604,8.18408,0.00415183,-0.00128741,0.00717569,0.00910598,-0.00624157,0.60426,0.00891221,0.0140362,902,1590,1.1604,-8.18409
-315,-566,1.14734,8.26611,0.00312645,-0.00153184,0.00857856,0.00968643,-0.00809183,0.65284,0.010278,0.025409,909,1590,1.14737,-8.26614
-308,-566,1.19623,8.36633,0.00159284,-0.00188013,0.00981551,0.00982428,-0.0101116,0.697848,0.0115104,0.0340397,916,1590,1.19622,-8.36633
-301,-566,1.2735,8.46436,-0.000367635,-0.0025403,0.0110853,0.00968445,-0.0125924,0.736555,0.012898,0.0442466,923,1590,1.27352,-8.46437
-294,-566,1.38165,8.44495,-0.00248221,-0.00337153,0.0121414,0.00922268,-0.0150764,0.767095,0.0141641,0.0474803,930,1590,1.38163,-8.44489
-287,-566,1.76843,8.57117,0,0,0,0,0,0,0,-1,937,1590,1.76846,-8.57123
-280,-566,2.57819,9.23596,0,0,0,0,0,0,0,-1,944,1590,2.57816,-9.23595
-273,-566,2.79315,9.90991,0,0,0,0,0,0,0,-1,951,1590,2.79315,-9.90994
-266,-566,0.392151,6.90295,0,0,0,0,0,0,0,-1,958,1590,0.392151,-6.90294
-259,-566,0.343628,6.47437,0,0,0,0,0,0,0,-1,965,1590,0.34363,-6.47438
-252,-566,-5.41388,1.76697,0,0,0,0,0,0,0,-1,972,1590,-5.4139,-1.76701
-245,-566,-1.85248,3.42993,0,0,0,0,0,0,0,-1,979,1590,-1.85251,-3.42997
-238,-566,-3.46948,4.95654,0,0,0,0,0,0,0,-1,986,1590,-3.46947,-4.95657
-231,-566,-2.99841,4.92773,0,0,0,0,0,0,0,-1,993,1590,-2.99842,-4.92777
-224,-566,-3.30365,5.20776,0,0,0,0,0,0,0,-1,1000,1590,-3.30364,-5.2078
-217,-566,0.155884,4.03638,0,0,0,0,0,0,0,-1,1007,1590,0.155904,-4.0364
-210,-566,0.722107,3.68506,0,0,0,0,0,0,0,-1,1014,1590,0.722101,-3.68512
-203,-566,0,0,0,0,0,0,0,0,0,-1,1021,1590,0,0
-196,-566,0,0,0,0,0,0,0,0,0,-1,1028,1590,0,0
-189,-566,0,0,0,0,0,0,0,0,0,-1,1035,1590,0,0
-182,-566,0,0,0,0,0,0,0,0,0,-1,1042,1590,0,0
-175,-566,0,0,0,0,0,0,0,0,0,-1,1049,1590,0,0
-168,-566,0,0,0,0,0,0,0,0,0,-1,1056,1590,0,0
-161,-566,0,0,0,0,0,0,0,0,0,-1,1063,1590,0,0
-154,-566,0,0,0,0,0,0,0,0,0,-1,1070,1590,0,0
-147,-566,0,0,0,0,0,0,0,0,0,-1,1077,1590,0,0
-140,-566,0,0,0,0,0,0,0,0,0,-1,1084,1590,0,0
-133,-566,0,0,0,0,0,0,0,0,0,-1,1091,1590,0,0
-126,-566,0,0,0,0,0,0,0,0,0,-1,1098,1590,0,0
-119,-566,0,0,0,0,0,0,0,0,0,-1,1105,1590,0,0
-112,-566,0,0,0,0,0,0,0,0,0,-1,1112,1590,0,0
-105,-566,0,0,0,0,0,0,0,0,0,-1,1119,1590,0,0
-98,-566,0,0,0,0,0,0,0,0,0,-1,1126,1590,0,0
-91,-566,0,0,0,0,0,0,0,0,0,-1,1133,1590,0,0
-84,-566,0,0,0,0,0,0,0,0,0,-1,1140,1590,0,0
-77,-566,0,0,0,0,0,0,0,0,0,-1,1147,1590,0,0
-70,-566,0,0,0,0,0,0,0,0,0,-1,1154,1590,0,0
-63,-566,0,0,0,0,0,0,0,0,0,-1,1161,1590,0,0
-56,-566,0,0,0,0,0,0,0,0,0,-1,1168,1590,0,0
-49,-566,0,0,0,0,0,0,0,0,0,-1,1175,1590,0,0
-42,-566,0,0,0,0,0,0,0,0,0,-1,1182,1590,0,0
-35,-566,0,0,0,0,0,0,0,0,0,-1,1189,1590,0,0
-28,-566,0,0,0,0,0,0,0,0,0,-1,1196,1590,0,0
-21,-566,0,0,0,0,0,0,0,0,0,-1,1203,1590,0,0
-14,-566,0,0,0,0,0,0,0,0,0,-1,1210,1590,0,0
-7,-566,0,0,0,0,0,0,0,0,0,-1,1217,1590,0,0
0,-566,0,0,0,0,0,0,0,0,0,-1,1224,1590,0,0
7,-566,0,0,0,0,0,0,0,0,0,-1,1231,1590,0,0
14,-566,0,0,0,0,0,0,0,0,0,-1,1238,1590,0,0
21,-566,0,0,0,0,0,0,0,0,0,-1,1245,1590,0,0
28,-566,0,0,0,0,0,0,0,0,0,-1,1252,1590,0,0
35,-566,0,0,0,0,0,0,0,0,0,-1,1259,1590,0,0
42,-566,0,0,0,0,0,0,0,0,0,-1,1266,1590,0,0
49,-566,0,0,0,0,0,0,0,0,0,-1,1273,1590,0,0
56,-566,0,0,0,0,0,0,0,0,0,-1,1280,1590,0,0
63,-566,0,0,0,0,0,0,0,0,0,-1,1287,1590,0,0
70,-566,0,0,0,0,0,0,0,0,0,-1,1294,1590,0,0
77,-566,0,0,0,0,0,0,0,0,0,-1,1301,1590,0,0
84,-566,0,0,0,0,0,0,0,0,0,-1,1308,1590,0,0
91,-566,0,0,0,0,0,0,0,0,0,-1,1315,1590,0,0
98,-566,0,0,0,0,0,0,0,0,0,-1,1322,1590,0,0
105,-566,0,0,0,0,0,0,0,0,0,-1,1329,1590,0,0
112,-566,0,0,0,0,0,0,0,0,0,-1,1336,1590,0,0
119,-566,0,0,0,0,0,0,0,0,0,-1,1343,1590,0,0
126,-566,0,0,0,0,0,0,0,0,0,-1,1350,1590,0,0
133,-566,0,0,0,0,0,0,0,0,0,-1,1357,1590,0,0
140,-566,0,0,0,0,0,0,0,0,0,-1,1364,1590,0,0
147,-566,0,0,0,0,0,0,0,0,0,-1,1371,1590,0,0
154,-566,0,0,0,0,0,0,0,0,0,-1,1378,1590,0,0
161,-566,0,0,0,0,0,0,0,0,0,-1,1385,1590,0,0
168,-566,0,0,0,0,0,0,0,0,0,-1,1392,1590,0,0
175,-566,0,0,0,0,0,0,0,0,0,-1,1399,1590,0,0
182,-566,0,0,0,0,0,0,0,0,0,-1,1406,1590,0,0
189,-566,0,0,0,0,0,0,0,0,0,-1,1413,1590,0,0
196,-566,0,0,0,0,0,0,0,0,0,-1,1420,1590,0,0
203,-566,0,0,0,0,0,0,0,0,0,-1,1427,1590,0,0
210,-566,0,0,0,0,0,0,0,0,0,-1,1434,1590,0,0
217,-566,0,0,0,0,0,0,0,0,0,-1,1441,1590,0,0
224,-566,0,0,0,0,0,0,0,0,0,-1,1448,1590,0,0
231,-566,0,0,0,0,0,0,0,0,0,-1,1455,1590,0,0
238,-566,0,0,0,0,0,0,0,0,0,-1,1462,1590,0,0
245,-566,0,0,0,0,0,0,0,0,0,-1,1469,1590,0,0
252,-566,0,0,0,0,0,0,0,0,0,-1,1476,1590,0,0
259,-566,0,0,0,0,0,0,0,0,0,-1,1483,1590,0,0
266,-566,0,0,0,0,0,0,0,0,0,-1,1490,1590,0,0
273,-566,0,0,0,0,0,0,0,0,0,-1,1497,1590,0,0
280,-566,0,0,0,0,0,0,0,0,0,-1,1504,1590,0,0
287,-566,0,0,0,0,0,0,0,0,0,-1,1511,1590,0,0
294,-566,0,0,0,0,0,0,0,0,0,-1,1518,1590,0,0
301,-566,0,0,0,0,0,0,0,0,0,-1,1525,1590,0,0
308,-566,0,0,0,0,0,0,0,0,0,-1,1532,1590,0,0
315,-566,0,0,0,0,0,0,0,0,0,-1,1539,1590,0,0
322,-566,6.07983,4.44873,0,0,0,0,0,0,0,-1,1546,1590,6.07983,-4.44873
329,-566,5.77026,3.47534,0,0,0,0,0,0,0,-1,1553,1590,5.77026,-3.47535
336,-566,5.41138,2.62915,0,0,0,0,0,0,0,-1,1560,1590,5.41138,-2.62909
343,-566,4.81873,1.79089,0,0,0,0,0,0,0,-1,1567,1590,4.81878,-1.79095
350,-566,4.41663,2.44214,0,0,0,0,0,0,0,-1,1574,1590,4.41666,-2.44214
357,-566,6.34058,5.18579,0,0,0,0,0,0,0,-1,1581,1590,6.34059,-5.1858
364,-566,6.06262,4.20251,0,0,0,0,0,0,0,-1,1588,1590,6.06259,-4.20246
371,-566,5.78455,3.21912,0,0,0,0,0,0,0,-1,1595,1590,5.7846,-3.21912
378,-566,5.7439,0.695557,0,0,0,0,0,0,0,-1,1602,1590,5.74392,-0.695531
385,-566,5.67615,-0.573975,0,0,0,0,0,0,0,-1,1609,1590,5.67612,0.573956
392,-566,5.78638,1.82434,0,0,0,0,0,0,0,-1,1616,1590,5.78637,-1.82439
399,-566,5.36621,1.7373,0,0,0,0,0,0,0,-1,1623,1590,5.36627,-1.7373
406,-566,4.30359,5.26868,0,0,0,0,0,0,0,-1,1630,1590,4.30364,-5.26867
413,-566,4.27124,5.79492,0,0,0,0,0,0,0,-1,1637,1590,4.27123,-5.7949
420,-566,7.19812,8.25146,0,0,0,0,0,0,0,-1,1644,1590,7.19817,-8.25149
427,-566,6.67944,9.07837,0,0,0,0,0,0,0,-1,1651,1590,6.67939,-9.07837
434,-566,6.89319,9.20154,0,0,0,0,0,0,0,-1,1658,1590,6.89318,-9.20151
441,-566,7.27124,9.51526,-0.0252693,-0.0202193,0.0289167,0.00628238,-0.051771,0.828947,0.0367874,0.0434182,1665,1590,7.2712,-9.51521
448,-566,6.63599,9.20508,-0.0215833,-0.0198565,0.0242885,0.00358391,-0.0450238,0.803164,0.031279,0.0345075,1672,1590,6.63604,-9.20508
455,-566,6.49854,9.18689,-0.0180163,-0.0189605,0.0199738,0.001491,-0.0384678,0.773583,0.0261564,0.0232012,1679,1590,6.49858,-9.18685
462,-566,6.46216,9.07983,-0.0145186,-0.0174555,0.0160382,0.000118226,-0.0320923,0.739746,0.0214344,0.0149097,1686,1590,6.46212,-9.07986
469,-566,6.4458,8.94116,-0.01124,-0.0154327,0.0125036,-0.00065828,-0.0260145,0.70234,0.0171278,0.0129338,1693,1590,6.44583,-8.94121
476,-566,6.46558,8.78918,-0.00814902,-0.0135721,0.00930008,-0.00117324,-0.0205479,0.643551,0.0133247,0.0100936,1700,1590,6.46556,-8.78913
483,-566,6.46619,8.64807,-0.00541315,-0.011025,0.00654679,-0.00109633,-0.0153418,0.582941,0.00988274,0.00998373,1707,1590,6.46622,-8.64804
490,-566,6.45447,8.50842,-0.00297284,-0.00854213,0.00428407,-0.000647935,-0.010867,0.497211,0.00703866,0.0106598,1714,1590,6.45452,-8.50838
497,-566,6.52051,8.37988,-0.000852818,-0.00628806,0.00261326,0.000199786,-0.00734066,0.382912,0.00496171,0.0131967,1721,1590,6.52055,-8.3799
504,-566,6.53381,8.23657,0.000728583,-0.00394338,0.0012942,0.00106314,-0.00427794,0.252966,0.00326456,0.0179798,1728,1590,6.53385,-8.23663
511,-566,6.49402,8.07483,0.00207599,-0.0018851,5.48644e-05,0.00207675,-0.00188586,0.0138473,0.0022887,0.0181337,1735,1590,6.49408,-8.07479
518,-566,6.48132,7.92542,0.0035803,-1.04622e-07,-0.00116144,0.00392405,-0.000343859,-0.287757,0.00273786,0.0111009,1742,1590,6.48137,-7.92542
525,-566,6.48389,7.76099,0.00496169,0.00145543,-0.00233602,0.00612926,0.000287864,-0.463495,0.00399368,0.0107624,1749,1590,6.48393,-7.76101
532,-566,6.48096,7.62646,0.00637695,0.00244841,-0.00346267,0.00839369,0.000431673,-0.527396,0.0054576,0.0130345,1756,1590,6.481,-7.6265
539,-566,6.47583,7.45886,0.00789872,0.00341238,-0.00464791,0.0108164,0.000494658,-0.560575,0.00705186,0.0156939,1763,1590,6.47582,-7.4589
546,-566,6.52026,7.23914,0.00981531,0.00417732,-0.00588135,0.0135184,0.000474279,-0.561918,0.00885838,0.0172302,1770,1590,6.5203,-7.23917
553,-566,6.53223,7.12378,0.0121768,0.00513307,-0.00755539,0.0169908,0.000319014,-0.567301,0.0112224,0.0315368,1777,1590,6.5322,-7.12377
560,-566,6.5166,6.90674,0.0146022,0.00716005,-0.00999887,0.02155,0.000212313,-0.607263,0.0142964,0.0448404,1784,1590,6.51665,-6.90677
567,-566,6.6239,6.57605,0,0,0,0,0,0,0,-1,1791,1590,6.62391,-6.57606
574,-566,7.99548,3.14514,0,0,0,0,0,0,0,-1,1798,1590,7.99543,-3.14511
581,-566,2.54102,5.1311,0,0,0,0,0,0,0,-1,1805,1590,2.54099,-5.13111
588,-566,-1.91321,8.39197,0,0,0,0,0,0,0,-1,1812,1590,-1.91316,-8.39199
595,-566,9.0271,4.66467,0,0,0,0,0,0,0,-1,1819,1590,9.02705,-4.66468
602,-566,5.41614,0.198242,0,0,0,0,0,0,0,-1,1826,1590,5.41619,-0.198251
609,-566,0,0,0,0,0,0,0,0,0,-1,1833,1590,0,0
616,-566,0,0,0,0,0,0,0,0,0,-1,1840,1590,0,0
623,-566,0,0,0,0,0,0,0,0,0,-1,1847,1590,0,0
630,-566,0,0,0,0,0,0,0,0,0,-1,1854,1590,0,0
637,-566,0,0,0,0,0,0,0,0,0,-1,1861,1590,0,0
644,-566,0,0,0,0,0,0,0,0,0,-1,1868,1590,0,0
651,-566,0,0,0,0,0,0,0,0,0,-1,1875,1590,0,0
658,-566,0,0,0,0,0,0,0,0,0,-1,1882,1590,0,0
665,-566,0,0,0,0,0,0,0,0,0,-1,1889,1590,0,0
672,-566,0,0,0,0,0,0,0,0,0,-1,1896,1590,0,0
679,-566,0,0,0,0,0,0,0,0,0,-1,1903,1590,0,0
686,-566,0,0,0,0,0,0,0,0,0,-1,1910,1590,0,0
693,-566,0,0,0,0,0,0,0,0,0,-1,1917,1590,0,0
700,-566,0,0,0,0,0,0,0,0,0,-1,1924,1590,0,0
707,-566,0,0,0,0,0,0,0,0,0,-1,1931,1590,0,0
714,-566,0,0,0,0,0,0,0,0,0,-1,1938,1590,0,0
721,-566,0,0,0,0,0,0,0,0,0,-1,1945,1590,0,0
728,-566,0,0,0,0,0,0,0,0,0,-1,1952,1590,0,0
735,-566,0,0,0,0,0,0,0,0,0,-1,1959,1590,0,0
742,-566,0,0,0,0,0,0,0,0,0,-1,1966,1590,0,0
749,-566,0,0,0,0,0,0,0,0,0,-1,1973,1590,0,0
756,-566,0,0,0,0,0,0,0,0,0,-1,1980,1590,0,0
763,-566,0,0,0,0,0,0,0,0,0,-1,1987,1590,0,0
770,-566,0,0,0,0,0,0,0,0,0,-1,1994,1590,0,0
777,-566,0,0,0,0,0,0,0,0,0,-1,2001,1590,0,0
784,-566,0,0,0,0,0,0,0,0,0,-1,2008,1590,0,0
791,-566,0,0,0,0,0,0,0,0,0,-1,2015,1590,0,0
798,-566,0,0,0,0,0,0,0,0,0,-1,2022,1590,0,0
805,-566,0,0,0,0,0,0,0,0,0,-1,2029,1590,0,0
812,-566,0,0,0,0,0,0,0,0,0,-1,2036,1590,0,0
-700,-573,0,0,0,0,0,0,0,0,0,-1,524,1597,0,0
-693,-573,0,0,0,0,0,0,0,0,0,-1,531,1597,0,0
-686,-573,0,0,0,0,0,0,0,0,0,-1,538,1597,0,0
-679,-573,0,0,0,0,0,0,0,0,0,-1,545,1597,0,0
-672,-573,0,0,0,0,0,0,0,0,0,-1,552,1597,0,0
-665,-573,0,0,0,0,0,0,0,0,0,-1,559,1597,0,0
-658,-573,0,0,0,0,0,0,0,0,0,-1,566,1597,0,0
-651,-573,0,0,0,0,0,0,0,0,0,-1,573,1597,0,0
-644,-573,0,0,0,0,0,0,0,0,0,-1,580,1597,0,0
-637,-573,0,0,0,0,0,0,0,0,0,-1,587,1597,0,0
-630,-573,0,0,0,0,0,0,0,0,0,-1,594,1597,0,0
-623,-573,0,0,0,0,0,0,0,0,0,-1,601,1597,0,0
-616,-573,0,0,0,0,0,0,0,0,0,-1,608,1597,0,0
-609,-573,0,0,0,0,0,0,0,0,0,-1,615,1597,0,0
-602,-573,0,0,0,0,0,0,0,0,0,-1,622,1597,0,0
-595,-573,0,0,0,0,0,0,0,0,0,-1,629,1597,0,0
-588,-573,0,0,0,0,0,0,0,0,0,-1,636,1597,0,0
-581,-573,0,0,0,0,0,0,0,0,0,-1,643,1597,0,0
-574,-573,0,0,0,0,0,0,0,0,0,-1,650,1597,0,0
-567,-573,0,0,0,0,0,0,0,0,0,-1,657,1597,0,0
-560,-573,0,0,0,0,0,0,0,0,0,-1,664,1597,0,0
-553,-573,0,0,0,0,0,0,0,0,0,-1,671,1597,0,0
-546,-573,0,0,0,0,0,0,0,0,0,-1,678,1597,0,0
-539,-573,0,0,0,0,0,0,0,0,0,-1,685,1597,0,0
-532,-573,0,0,0,0,0,0,0,0,0,-1,692,1597,0,0
-525,-573,0,0,0,0,0,0,0,0,0,-1,699,1597,0,0
-518,-573,0,0,0,0,0,0,0,0,0,-1,706,1597,0,0
-511,-573,0,0,0,0,0,0,0,0,0,-1,713,1597,0,0
-504,-573,0,0,0,0,0,0,0,0,0,-1,720,1597,0,0
-497,-573,0,0,0,0,0,0,0,0,0,-1,727,1597,0,0
-490,-573,0,0,0,0,0,0,0,0,0,-1,734,1597,0,0
-483,-573,0,0,0,0,0,0,0,0,0,-1,741,1597,0,0
-476,-573,0.575317,-3.46667,0,0,0,0,0,0,0,-1,748,1597,0.575345,3.46665
-469,-573,0.442993,-2.42017,-0.0198108,0.26772,0.146125,0.328945,-0.0810357,1.17403,0.250713,0.0463288,755,1597,0.443021,2.42022
-462,-573,0.567627,-0.94812,-0.0157304,0.236947,0.127564,0.290146,-0.0689299,1.17568,0.220036,0.0494906,762,1597,0.567615,0.948109
-455,-573,0.251038,-0.224243,-0.0121503,0.203281,0.108094,0.248166,-0.0570355,1.17722,0.187372,0.0482388,769,1597,0.251043,0.224257
-448,-573,-0.0567627,0.94812,0,0,0,0,0,0,0,-1,776,1597,-0.0567808,-0.948144
-441,-573,0.863342,3.38953,0,0,0,0,0,0,0,-1,783,1597,0.86337,-3.38951
-434,-573,1.37347,4.4458,0,0,0,0,0,0,0,-1,790,1597,1.37347,-4.44578
-427,-573,0.633484,5.02466,0,0,0,0,0,0,0,-1,797,1597,0.633457,-5.02464
-420,-573,1.19336,5.64075,-0.00212905,0.0493405,0.0244071,0.0590738,-0.0118623,1.19133,0.0438745,0.0423532,804,1597,1.19338,-5.64069
-413,-573,1.35974,5.98853,-0.00101437,0.0284596,0.0131292,0.0334597,-0.00601452,1.20691,0.0245581,0.030937,811,1597,1.35973,-5.98848
-406,-573,1.27899,6.15784,3.43729e-05,0.0140022,0.00582463,0.0161123,-0.00207573,1.22323,0.0114961,0.0160546,818,1597,1.27898,-6.1579
-399,-573,1.25958,6.3595,0.00040073,0.00442778,0.00165173,0.00501858,-0.000190068,1.22729,0.00341084,0.0104865,825,1597,1.25955,-6.35944
-392,-573,1.27063,6.52832,-0.00011919,0.0014221,0.000643167,0.00165523,-0.000352316,1.22306,0.00123775,0.0105928,832,1597,1.27066,-6.5283
-385,-573,1.27155,6.71204,-0.000521395,-0.000333992,-0.000153069,-0.000248222,-0.000607165,-1.06005,0.000352484,0.0130257,839,1597,1.27155,-6.71201
-378,-573,1.26935,6.88477,-0.000227903,-0.000598638,-8.63133e-05,-0.000208793,-0.000617748,-0.217889,0.000362844,0.0151045,846,1597,1.26934,-6.88478
-371,-573,1.27289,7.06042,0.000413558,-0.000714204,0.000192716,0.00044558,-0.000746227,0.164661,0.00069535,0.0150508,853,1597,1.27291,-7.06039
-364,-573,1.27582,7.22937,0.00112877,-0.000912835,0.000535819,0.00126085,-0.00104492,0.241685,0.00133318,0.0174408,860,1597,1.27584,-7.22934
-357,-573,1.29395,7.36353,0.00175676,-0.00103332,0.00105625,0.00211152,-0.00138808,0.324031,0.00203484,0.0208451,867,1597,1.29392,-7.36356
-350,-573,1.30475,7.5426,0.00236094,-0.00121377,0.0017531,0.00307719,-0.00193001,0.387861,0.00291609,0.0166908,874,1597,1.30477,-7.54255
-343,-573,1.30786,7.69116,0.00291146,-0.00115489,0.00263427,0.00420593,-0.00244936,0.456739,0.00388678,0.0196569,881,1597,1.30787,-7.69116
-336,-573,1.27264,7.88281,0.00354879,-0.00117778,0.00361174,0.00550172,-0.00313071,0.49569,0.00504622,0.0164341,888,1597,1.27264,-7.88277
-329,-573,1.28668,8.04626,0.00384014,-0.0012188,0.00456884,0.00653298,-0.00391164,0.532583,0.00609318,0.0171569,895,1597,1.28671,-8.04631
-322,-573,1.29272,8.20679,0.00385261,-0.00130861,0.0055622,0.00740369,-0.00485969,0.568199,0.00713087,0.0121847,902,1597,1.29271,-8.20677
-315,-573,1.35181,8.38184,0.00338629,-0.00165977,0.00655129,0.0078836,-0.00615708,0.601592,0.00812679,0.0172785,909,1597,1.3518,-8.38178
-308,-573,1.36957,8.42358,0.00253297,-0.00216774,0.00738281,0.00793052,-0.00756529,0.631293,0.00894734,0.0272471,916,1597,1.36957,-8.42355
-301,-573,1.37018,8.48376,0.00140658,-0.002903,0.00820657,0.00773653,-0.00923295,0.657012,0.00981003,0.0306329,923,1597,1.3702,-8.4838
-294,-573,1.40637,8.63708,0.000247683,-0.00392482,0.00903308,0.0074323,-0.0111094,0.67191,0.010775,0.0348591,930,1597,1.40637,-8.63709
-287,-573,1.7915,8.91418,-0.0011375,-0.00481719,0.00986127,0.00705409,-0.0130088,0.693172,0.0117521,0.0449353,937,1597,1.79151,-8.9142
-280,-573,2.07416,9.21899,0,0,0,0,0,0,0,-1,944,1597,2.07418,-9.21895
-273,-573,-0.0268555,7.75781,0,0,0,0,0,0,0,-1,951,1597,-0.02685,-7.75777
-266,-573,1.31116,7.1814,0,0,0,0,0,0,0,-1,958,1597,1.31118,-7.18142
-259,-573,1.2514,6.70959,0,0,0,0,0,0,0,-1,965,1597,1.25137,-6.70965
-252,-573,2.07874,5.27161,0,0,0,0,0,0,0,-1,972,1597,2.07875,-5.27157
-245,-573,2.13226,5.96106,0,0,0,0,0,0,0,-1,979,1597,2.13224,-5.96108
-238,-573,2.42999,6.30286,0,0,0,0,0,0,0,-1,986,1597,2.42996,-6.30282
-231,-573,-1.27203,6.20398,0,0,0,0,0,0,0,-1,993,1597,-1.27205,-6.20395
-224,-573,-1.70654,6.53162,0,0,0,0,0,0,0,-1,1000,1597,-1.70652,-6.53167
-217,-573,-2.82971,6.44482,0,0,0,0,0,0,0,-1,1007,1597,-2.8297,-6.44482
-210,-573,-3.87952,6.33325,0,0,0,0,0,0,0,-1,1014,1597,-3.87951,-6.33325
-203,-573,-4.24072,6.9375,0,0,0,0,0,0,0,-1,1021,1597,-4.2407,-6.93749
-196,-573,-4.87726,6.96936,0,0,0,0,0,0,0,-1,1028,1597,-4.87723,-6.96935
-189,-573,-6.12915,6.66882,0,0,0,0,0,0,0,-1,1035,1597,-6.12913,-6.66884
-182,-573,0,0,0,0,0,0,0,0,0,-1,1042,1597,0,0
-175,-573,0,0,0,0,0,0,0,0,0,-1,1049,1597,0,0
-168,-573,0,0,0,0,0,0,0,0,0,-1,1056,1597,0,0
-161,-573,0,0,0,0,0,0,0,0,0,-1,1063,1597,0,0
-154,-573,0,0,0,0,0,0,0,0,0,-1,1070,1597,0,0
-147,-573,0,0,0,0,0,0,0,0,0,-1,1077,1597,0,0
-140,-573,0,0,0,0,0,0,0,0,0,-1,1084,1597,0,0
-133,-573,0,0,0,0,0,0,0,0,0,-1,1091,1597,0,0
-126,-573,0,0,0,0,0,0,0,0,0,-1,1098,1597,0,0
-119,-573,0,0,0,0,0,0,0,0,0,-1,1105,1597,0,0
-112,-573,0,0,0,0,0,0,0,0,0,-1,1112,1597,0,0
-105,-573,0,0,0,0,0,0,0,0,0,-1,1119,1597,0,0
-98,-573,0,0,0,0,0,0,0,0,0,-1,1126,1597,0,0
-91,-573,0,0,0,0,0,0,0,0,0,-1,1133,1597,0,0
-84,-573,0,0,0,0,0,0,0,0,0,-1,1140,1597,0,0
-77,-573,0,0,0,0,0,0,0,0,0,-1,1147,1597,0,0
-70,-573,0,0,0,0,0,0,0,0,0,-1,1154,1597,0,0
-63,-573,0,0,0,0,0,0,0,0,0,-1,1161,1597,0,0
-56,-573,0,0,0,0,0,0,0,0,0,-1,1168,1597,0,0
-49,-573,0,0,0,0,0,0,0,0,0,-1,1175,1597,0,0
-42,-573,0,0,0,0,0,0,0,0,0,-1,1182,1597,0,0
-35,-573,0,0,0,0,0,0,0,0,0,-1,1189,1597,0,0
-28,-573,0,0,0,0,0,0,0,0,0,-1,1196,1597,0,0
-21,-573,0,0,0,0,0,0,0,0,0,-1,1203,1597,0,0
-14,-573,0,0,0,0,0,0,0,0,0,-1,1210,1597,0,0
-7,-573,0,0,0,0,0,0,0,0,0,-1,1217,1597,0,0
0,-573,0,0,0,0,0,0,0,0,0,-1,1224,1597,0,0
7,-573,0,0,0,0,0,0,0,0,0,-1,1231,1597,0,0
14,-573,0,0,0,0,0,0,0,0,0,-1,1238,1597,0,0
21,-573,0,0,0,0,0,0,0,0,0,-1,1245,1597,0,0
28,-573,0,0,0,0,0,0,0,0,0,-1,1252,1597,0,0
35,-573,0,0,0,0,0,0,0,0,0,-1,1259,1597,0,0
42,-573,0,0,0,0,0,0,0,0,0,-1,1266,1597,0,0
49,-573,0,0,0,0,0,0,0,0,0,-1,1273,1597,0,0
56,-573,0,0,0,0,0,0,0,0,0,-1,1280,1597,0,0
63,-573,0,0,0,0,0,0,0,0,0,-1,1287,1597,0,0
70,-573,0,0,0,0,0,0,0,0,0,-1,1294,1597,0,0
77,-573,0,0,0,0,0,0,0,0,0,-1,1301,1597,0,0
84,-573,0,0,0,0,0,0,0,0,0,-1,1308,1597,0,0
91,-573,0,0,0,0,0,0,0,0,0,-1,1315,1597,0,0
98,-573,0,0,0,0,0,0,0,0,0,-1,1322,1597,0,0
105,-573,0,0,0,0,0,0,0,0,0,-1,1329,1597,0,0
112,-573,0,0,0,0,0,0,0,0,0,-1,1336,1597,0,0
119,-573,0,0,0,0,0,0,0,0,0,-1,1343,1597,0,0
126,-573,0,0,0,0,0,0,0,0,0,-1,1350,1597,0,0
133,-573,0,0,0,0,0,0,0,0,0,-1,1357,1597,0,0
140,-573,0,0,0,0,0,0,0,0,0,-1,1364,1597,0,0
147,-573,0,0,0,0,0,0,0,0,0,-1,1371,1597,0,0
154,-573,0,0,0,0,0,0,0,0,0,-1,1378,1597,0,0
161,-573,0,0,0,0,0,0,0,0,0,-1,1385,1597,0,0
168,-573,0,0,0,0,0,0,0,0,0,-1,1392,1597,0,0
175,-573,0,0,0,0,0,0,0,0,0,-1,1399,1597,0,0
182,-573,0,0,0,0,0,0,0,0,0,-1,1406,1597,0,0
189,-573,0,0,0,0,0,0,0,0,0,-1,1413,1597,0,0
196,-573,0,0,0,0,0,0,0,0,0,-1,1420,1597,0,0
203,-573,0,0,0,0,0,0,0,0,0,-1,1427,1597,0,0
210,-573,0,0,0,0,0,0,0,0,0,-1,1434,1597,0,0
217,-573,0,0,0,0,0,0,0,0,0,-1,1441,1597,0,0
224,-573,0,0,0,0,0,0,0,0,0,-1,1448,1597,0,0
231,-573,0,0,0,0,0,0,0,0,0,-1,1455,1597,0,0
238,-573,0,0,0,0,0,0,0,0,0,-1,1462,1597,0,0
245,-573,0,0,0,0,0,0,0,0,0,-1,1469,1597,0,0
252,-573,0,0,0,0,0,0,0,0,0,-1,1476,1597,0,0
259,-573,0,0,0,0,0,0,0,0,0,-1,1483,1597,0,0
266,-573,0,0,0,0,0,0,0,0,0,-1,1490,1597,0,0
273,-573,0,0,0,0,0,0,0,0,0,-1,1497,1597,0,0
280,-573,0,0,0,0,0,0,0,0,0,-1,1504,1597,0,0
287,-573,0,0,0,0,0,0,0,0,0,-1,1511,1597,0,0
294,-573,0,0,0,0,0,0,0,0,0,-1,1518,1597,0,0
301,-573,0,0,0,0,0,0,0,0,0,-1,1525,1597,0,0
308,-573,9.99329,6.14063,0,0,0,0,0,0,0,-1,1532,1597,9.99331,-6.14065
315,-573,10.5015,6.63318,0,0,0,0,0,0,0,-1,1539,1597,10.5014,-6.63316
322,-573,10.3269,7.77563,0,0,0,0,0,0,0,-1,1546,1597,10.327,-7.77565
329,-573,4.72656,3.18127,0,0,0,0,0,0,0,-1,1553,1597,4.72656,-3.18128
336,-573,4.85693,2.53455,0,0,0,0,0,0,0,-1,1560,1597,4.8569,-2.53459
343,-573,4.11877,0.735596,0,0,0,0,0,0,0,-1,1567,1597,4.11878,-0.735585
350,-573,2.53748,1.56433,0,0,0,0,0,0,0,-1,1574,1597,2.53753,-1.5643
357,-573,7.40247,4.03613,0,0,0,0,0,0,0,-1,1581,1597,7.40244,-4.03614
364,-573,7.14551,3.02087,0,0,0,0,0,0,0,-1,1588,1597,7.14556,-3.02084
371,-573,6.88867,2.00549,0,0,0,0,0,0,0,-1,1595,1597,6.88868,-2.00553
378,-573,8.62012,6.09106,0,0,0,0,0,0,0,-1,1602,1597,8.62012,-6.09103
385,-573,6.54346,-0.951904,0,0,0,0,0,0,0,-1,1609,1597,6.54349,0.951901
392,-573,6.41833,-2.18225,0,0,0,0,0,0,0,-1,1616,1597,6.41831,2.18228
399,-573,4.26282,4.73657,0,0,0,0,0,0,0,-1,1623,1597,4.26285,-4.73652
406,-573,6.29834,10.3599,0,0,0,0,0,0,0,-1,1630,1597,6.29835,-10.3599
413,-573,6.57703,9.19421,0,0,0,0,0,0,0,-1,1637,1597,6.57708,-9.19427
420,-573,6.57581,9.62488,0,0,0,0,0,0,0,-1,1644,1597,6.57586,-9.62488
427,-573,6.92676,9.11011,0,0,0,0,0,0,0,-1,1651,1597,6.92678,-9.11011
434,-573,6.62585,9.28418,-0.0214019,-0.0156895,0.0255355,0.00714904,-0.0442404,0.841093,0.0321427,0.0406384,1658,1597,6.6259,-9.2842
441,-573,6.39441,9.39697,-0.0189498,-0.0155399,0.0218708,0.00469225,-0.039182,0.824297,0.0278176,0.0263807,1665,1597,6.39445,-9.39702
448,-573,6.32446,9.34778,-0.0162509,-0.0149235,0.018361,0.00278576,-0.0339602,0.803464,0.0236235,0.0167699,1672,1597,6.32442,-9.34783
455,-573,6.30481,9.21021,-0.0136855,-0.0140284,0.0151023,0.00124635,-0.0289603,0.779721,0.0197354,0.014646,1679,1597,6.30482,-9.21016
462,-573,6.33496,9.06299,-0.0110972,-0.0127165,0.0120593,0.000179589,-0.0239933,0.751881,0.0160557,0.0172502,1686,1597,6.33496,-9.06304
469,-573,6.33313,8.9425,-0.00860816,-0.0110343,0.00928891,-0.000453425,-0.019189,0.72047,0.0126442,0.0151031,1693,1597,6.33313,-8.94255
476,-573,6.34924,8.80408,-0.00624877,-0.00949713,0.0067692,-0.000911626,-0.0148343,0.667656,0.00960008,0.0142569,1700,1597,6.34922,-8.8041
483,-573,6.33801,8.66113,-0.0040742,-0.00748255,0.00462441,-0.000849943,-0.0107068,0.608861,0.0068721,0.0118712,1707,1597,6.33803,-8.6611
490,-573,6.31201,8.52271,-0.00191471,-0.00552341,0.00279209,-0.000394685,-0.00704343,0.498536,0.00456974,0.0107393,1714,1597,6.312,-8.52274
497,-573,6.34802,8.37292,0.000136951,-0.00375091,0.00123793,0.000497652,-0.00411161,0.283525,0.00292112,0.0152509,1721,1597,6.34797,-8.37292
504,-573,6.35632,8.23328,0.00170025,-0.00184765,5.98977e-05,0.00170126,-0.00184866,0.0168762,0.00205014,0.0166425,1728,1597,6.35631,-8.23331
511,-573,6.32019,8.08252,0.00319623,-0.000145526,-0.00109876,0.00352513,-0.000474424,-0.290847,0.00252314,0.0178779,1735,1597,6.32022,-8.08252
518,-573,6.32849,7.94104,0.00492308,0.00135735,-0.0022986,0.0060492,0.000231238,-0.455546,0.00395797,0.0135396,1742,1597,6.32848,-7.94109
525,-573,6.32642,7.78174,0.00673963,0.00249769,-0.00353026,0.00873706,0.00050025,-0.514895,0.00566533,0.0160079,1749,1597,6.32642,-7.78176
532,-573,6.34241,7.6062,0.00879767,0.0033458,-0.00479221,0.011585,0.000558473,-0.526807,0.00754406,0.0147829,1756,1597,6.34236,-7.60624
539,-573,6.34863,7.46741,0.0111073,0.00433684,-0.00625556,0.0148348,0.00060927,-0.537386,0.00969319,0.0172557,1763,1597,6.34867,-7.46737
546,-573,6.4115,7.27698,0.0139844,0.00511038,-0.00787653,0.0185877,0.000507095,-0.528893,0.0122262,0.0273011,1770,1597,6.41155,-7.27695
553,-573,6.23926,6.97839,0.017362,0.00628976,-0.00999361,0.0232505,0.00040132,-0.532456,0.0153683,0.0429272,1777,1597,6.2392,-6.97844
560,-573,6.14233,6.66541,0,0,0,0,0,0,0,-1,1784,1597,6.14231,-6.66536
567,-573,4.99597,2.77759,0,0,0,0,0,0,0,-1,1791,1597,4.99596,-2.7776
574,-573,0.83374,5.7041,0,0,0,0,0,0,0,-1,1798,1597,0.833718,-5.70405
581,-573,-0.224854,7.41602,0,0,0,0,0,0,0,-1,1805,1597,-0.224904,-7.41596
588,-573,-0.134033,7.67065,0,0,0,0,0,0,0,-1,1812,1597,-0.134037,-7.67063
595,-573,-0.0825195,8.35083,0,0,0,0,0,0,0,-1,1819,1597,-0.0824684,-8.35088
602,-573,0,0,0,0,0,0,0,0,0,-1,1826,1597,0,0
609,-573,0,0,0,0,0,0,0,0,0,-1,1833,1597,0,0
616,-573,0,0,0,0,0,0,0,0,0,-1,1840,1597,0,0
623,-573,0,0,0,0,0,0,0,0,0,-1,1847,1597,0,0
630,-573,0,0,0,0,0,0,0,0,0,-1,1854,1597,0,0
637,-573,0,0,0,0,0,0,0,0,0,-1,1861,1597,0,0
644,-573,0,0,0,0,0,0,0,0,0,-1,1868,1597,0,0
651,-573,0,0,0,0,0,0,0,0,0,-1,1875,1597,0,0
658,-573,0,0,0,0,0,0,0,0,0,-1,1882,1597,0,0
665,-573,0,0,0,0,0,0,0,0,0,-1,1889,1597,0,0
672,-573,0,0,0,0,0,0,0,0,0,-1,1896,1597,0,0
679,-573,0,0,0,0,0,0,0,0,0,-1,1903,1597,0,0
686,-573,0,0,0,0,0,0,0,0,0,-1,1910,1597,0,0
693,-573,0,0,0,0,0,0,0,0,0,-1,1917,1597,0,0
700,-573,0,0,0,0,0,0,0,0,0,-1,1924,1597,0,0
707,-573,0,0,0,0,0,0,0,0,0,-1,1931,1597,0,0
714,-573,0,0,0,0,0,0,0,0,0,-1,1938,1597,0,0
721,-573,0,0,0,0,0,0,0,0,0,-1,1945,1597,0,0
728,-573,0,0,0,0,0,0,0,0,0,-1,1952,1597,0,0
735,-573,0,0,0,0,0,0,0,0,0,-1,1959,1597,0,0
742,-573,0,0,0,0,0,0,0,0,0,-1,1966,1597,0,0
749,-573,0,0,0,0,0,0,0,0,0,-1,1973,1597,0,0
756,-573,0,0,0,0,0,0,0,0,0,-1,1980,1597,0,0
763,-573,0,0,0,0,0,0,0,0,0,-1,1987,1597,0,0
770,-573,0,0,0,0,0,0,0,0,0,-1,1994,1597,0,0
777,-573,0,0,0,0,0,0,0,0,0,-1,2001,1597,0,0
784,-573,0,0,0,0,0,0,0,0,0,-1,2008,1597,0,0
791,-573,0,0,0,0,0,0,0,0,0,-1,2015,1597,0,0
798,-573,0,0,0,0,0,0,0,0,0,-1,2022,1597,0,0
805,-573,0,0,0,0,0,0,0,0,0,-1,2029,1597,0,0
812,-573,0,0,0,0,0,0,0,0,0,-1,2036,1597,0,0
-700,-580,0,0,0,0,0,0,0,0,0,-1,524,1604,0,0
-693,-580,0,0,0,0,0,0,0,0,0,-1,531,1604,0,0
-686,-580,0,0,0,0,0,0,0,0,0,-1,538,1604,0,0
-679,-580,0,0,0,0,0,0,0,0,0,-1,545,1604,0,0
-672,-580,0,0,0,0,0,0,0,0,0,-1,552,1604,0,0
-665,-580,0,0,0,0,0,0,0,0,0,-1,559,1604,0,0
-658,-580,0,0,0,0,0,0,0,0,0,-1,566,1604,0,0
-651,-580,0,0,0,0,0,0,0,0,0,-1,573,1604,0,0
-644,-580,0,0,0,0,0,0,0,0,0,-1,580,1604,0,0
-637,-580,0,0,0,0,0,0,0,0,0,-1,587,1604,0,0
-630,-580,0,0,0,0,0,0,0,0,0,-1,594,1604,0,0
-623,-580,0,0,0,0,0,0,0,0,0,-1,601,1604,0,0
-616,-580,0,0,0,0,0,0,0,0,0,-1,608,1604,0,0
-609,-580,0,0,0,0,0,0,0,0,0,-1,615,1604,0,0
-602,-580,0,0,0,0,0,0,0,0,0,-1,622,1604,0,0
-595,-580,0,0,0,0,0,0,0,0,0,-1,629,1604,0,0
-588,-580,0,0,0,0,0,0,0,0,0,-1,636,1604,0,0
-581,-580,0,0,0,0,0,0,0,0,0,-1,643,1604,0,0
-574,-580,0,0,0,0,0,0,0,0,0,-1,650,1604,0,0
-567,-580,0,0,0,0,0,0,0,0,0,-1,657,1604,0,0
-560,-580,0,0,0,0,0,0,0,0,0,-1,664,1604,0,0
-553,-580,0,0,0,0,0,0,0,0,0,-1,671,1604,0,0
-546,-580,0,0,0,0,0,0,0,0,0,-1,678,1604,0,0
-539,-580,0,0,0,0,0,0,0,0,0,-1,685,1604,0,0
-532,-580,0,0,0,0,0,0,0,0,0,-1,692,1604,0,0
-525,-580,0,0,0,0,0,0,0,0,0,-1,699,1604,0,0
-518,-580,0,0,0,0,0,0,0,0,0,-1,706,1604,0,0
-511,-580,0,0,0,0,0,0,0,0,0,-1,713,1604,0,0
-504,-580,0,0,0,0,0,0,0,0,0,-1,720,1604,0,0
-497,-580,0,0,0,0,0,0,0,0,0,-1,727,1604,0,0
-490,-580,0,0,0,0,0,0,0,0,0,-1,734,1604,0,0
-483,-580,0,0,0,0,0,0,0,0,0,-1,741,1604,0,0
-476,-580,0,0,0,0,0,0,0,0,0,-1,748,1604,0,0
-469,-580,-0.21991,-4.12134,0,0,0,0,0,0,0,-1,755,1604,-0.219925,4.12132
-462,-580,-0.0943604,-2.85596,0,0,0,0,0,0,0,-1,762,1604,-0.0943662,2.85593
-455,-580,-0.325317,-1.68933,0,0,0,0,0,0,0,-1,769,1604,-0.325308,1.68934
-448,-580,-0.556274,-0.522705,0,0,0,0,0,0,0,-1,776,1604,-0.556249,0.522746
-441,-580,-2.28229,4.87183,0,0,0,0,0,0,0,-1,783,1604,-2.28231,-4.87186
-434,-580,-1.508,6.62341,0,0,0,0,0,0,0,-1,790,1604,-1.50798,-6.62347
-427,-580,0.409912,4.68823,0,0,0,0,0,0,0,-1,797,1604,0.409907,-4.68829
-420,-580,1.2334,5.76343,0,0,0,0,0,0,0,-1,804,1604,1.23337,-5.76342
-413,-580,1.43658,5.89771,-0.00140907,0.033392,0.01579,0.0394883,-0.00750537,1.20234,0.0291512,0.0498869,811,1604,1.43656,-5.8977
-406,-580,1.53119,6.17163,-0.000252864,0.0158955,0.00687062,0.0184231,-0.00278046,1.21828,0.0133061,0.0389418,818,1604,1.5312,-6.17163
-399,-580,1.45886,6.36755,6.23063e-05,0.00440549,0.00180926,0.00506041,-0.000592622,1.22348,0.0035875,0.016249,825,1604,1.45885,-6.36758
-392,-580,1.4436,6.54968,-0.000666583,0.00112186,0.000615586,0.00131326,-0.000857985,1.26935,0.00126272,0.0112019,832,1604,1.44359,-6.54963
-385,-580,1.45148,6.72192,-0.00125929,-0.000725615,-0.000341909,-0.000558743,-0.00142616,-1.11675,0.000829799,0.0112898,839,1604,1.4515,-6.72187
-378,-580,1.44946,6.88342,-0.00112736,-0.000941556,-0.000383952,-0.000639425,-0.00142949,-0.904096,0.00082684,0.0144821,846,1604,1.44945,-6.88344
-371,-580,1.44598,7.0752,-0.000646587,-0.00100273,-0.000220107,-0.000541539,-0.00110778,-0.445288,0.000639628,0.0133938,853,1604,1.44598,-7.07517
-364,-580,1.40997,7.23047,-6.95281e-05,-0.00113706,1.85015e-05,-6.92075e-05,-0.00113739,0.0173241,0.000736273,0.0182168,860,1604,1.40995,-7.23044
-357,-580,1.43872,7.37817,0.00055344,-0.00118261,0.000406561,0.000643934,-0.0012731,0.219015,0.0011265,0.0128667,867,1604,1.43874,-7.37815
-350,-580,1.4632,7.55994,0.00122645,-0.00125381,0.000953542,0.00155066,-0.00157802,0.327745,0.00180637,0.0103422,874,1604,1.46321,-7.55995
-343,-580,1.45563,7.7229,0.00184647,-0.00119222,0.00163438,0.00255863,-0.00190438,0.410929,0.00258593,0.0109478,881,1604,1.45565,-7.72284
-336,-580,1.44427,7.86365,0.00254171,-0.00117126,0.00240588,0.0037241,-0.00235365,0.456793,0.0035386,0.0186377,888,1604,1.44429,-7.86363
-329,-580,1.4458,8.05542,0.00300788,-0.00116325,0.00314817,0.00469864,-0.002854,0.492853,0.00440366,0.017744,895,1604,1.4458,-8.05539
-322,-580,1.44702,8.22229,0.00330853,-0.00124976,0.00389684,0.00554378,-0.00348502,0.520788,0.00525776,0.017985,902,1604,1.44704,-8.22227
-315,-580,1.44885,8.38342,0.0031995,-0.00162396,0.00464189,0.00601879,-0.00444325,0.545813,0.00606305,0.0143939,909,1604,1.44883,-8.38347
-308,-580,1.45105,8.55835,0.00277285,-0.00219448,0.0052211,0.00607092,-0.00549255,0.56339,0.00667896,0.0169626,916,1604,1.45106,-8.5584
-301,-580,1.52893,8.63977,0.00218626,-0.00297134,0.00581074,0.00596473,-0.00674981,0.576556,0.00734541,0.015492,923,1604,1.52894,-8.63978
-294,-580,1.57733,8.71924,0.00164217,-0.00404555,0.00641076,0.00581154,-0.00821492,0.576635,0.00813771,0.0197125,930,1604,1.57731,-8.71929
-287,-580,1.67468,8.8103,0.000962736,-0.00497054,0.00704415,0.00563946,-0.00964726,0.586096,0.00892633,0.0420501,937,1604,1.67471,-8.81026
-280,-580,1.74152,8.86353,0,0,0,0,0,0,0,-1,944,1604,1.7415,-8.86348
-273,-580,1.78662,8.23547,0,0,0,0,0,0,0,-1,951,1604,1.78664,-8.23549
-266,-580,1.86169,8.73254,0,0,0,0,0,0,0,-1,958,1604,1.86169,-8.73251
-259,-580,1.59509,8.80615,0,0,0,0,0,0,0,-1,965,1604,1.59512,-8.80613
-252,-580,2.16858,6.53796,0,0,0,0,0,0,0,-1,972,1604,2.16856,-6.53798
-245,-580,2.16681,7.00159,0,0,0,0,0,0,0,-1,979,1604,2.16683,-7.00159
-238,-580,2.43573,7.30139,0,0,0,0,0,0,0,-1,986,1604,2.43574,-7.30136
-231,-580,2.76239,7.60425,0,0,0,0,0,0,0,-1,993,1604,2.76239,-7.60425
-224,-580,-0.143555,8.20032,0,0,0,0,0,0,0,-1,1000,1604,-0.143569,-8.20038
-217,-580,-1.16901,8.09973,0,0,0,0,0,0,0,-1,1007,1604,-1.16898,-8.09973
-210,-580,-2.21912,7.97131,0,0,0,0,0,0,0,-1,1014,1604,-2.21915,-7.97136
-203,-580,-3.01923,7.66492,0,0,0,0,0,0,0,-1,1021,1604,-3.01924,-7.66493
-196,-580,-3.65857,7.91418,0,0,0,0,0,0,0,-1,1028,1604,-3.65863,-7.9142
-189,-580,-4.58252,7.59058,0,0,0,0,0,0,0,-1,1035,1604,-4.58256,-7.59057
-182,-580,-5.45874,7.65942,0,0,0,0,0,0,0,-1,1042,1604,-5.45876,-7.65939
-175,-580,-6.38977,7.55005,0,0,0,0,0,0,0,-1,1049,1604,-6.38981,-7.5501
-168,-580,0,0,0,0,0,0,0,0,0,-1,1056,1604,0,0
-161,-580,0,0,0,0,0,0,0,0,0,-1,1063,1604,0,0
-154,-580,0,0,0,0,0,0,0,0,0,-1,1070,1604,0,0
-147,-580,0,0,0,0,0,0,0,0,0,-1,1077,1604,0,0
-140,-580,0,0,0,0,0,0,0,0,0,-1,1084,1604,0,0
-133,-580,0,0,0,0,0,0,0,0,0,-1,1091,1604,0,0
-126,-580,0,0,0,0,0,0,0,0,0,-1,1098,1604,0,0
-119,-580,0,0,0,0,0,0,0,0,0,-1,1105,1604,0,0
-112,-580,0,0,0,0,0,0,0,0,0,-1,1112,1604,0,0
-105,-580,0,0,0,0,0,0,0,0,0,-1,1119,1604,0,0
-98,-580,0,0,0,0,0,0,0,0,0,-1,1126,1604,0,0
-91,-580,0,0,0,0,0,0,0,0,0,-1,1133,1604,0,0
-84,-580,0,0,0,0,0,0,0,0,0,-1,1140,1604,0,0
-77,-580,0,0,0,0,0,0,0,0,0,-1,1147,1604,0,0
-70,-580,0,0,0,0,0,0,0,0,0,-1,1154,1604,0,0
-63,-580,0,0,0,0,0,0,0,0,0,-1,1161,1604,0,0
-56,-580,0,0,0,0,0,0,0,0,0,-1,1168,1604,0,0
-49,-580,0,0,0,0,0,0,0,0,0,-1,1175,1604,0,0
-42,-580,0,0,0,0,0,0,0,0,0,-1,1182,1604,0,0
-35,-580,0,0,0,0,0,0,0,0,0,-1,1189,1604,0,0
-28,-580,0,0,0,0,0,0,0,0,0,-1,1196,1604,0,0
-21,-580,0,0,0,0,0,0,0,0,0,-1,1203,1604,0,0
-14,-580,0,0,0,0,0,0,0,0,0,-1,1210,1604,0,0
-7,-580,0,0,0,0,0,0,0,0,0,-1,1217,1604,0,0
0,-580,0,0,0,0,0,0,0,0,0,-1,1224,1604,0,0
7,-580,0,0,0,0,0,0,0,0,0,-1,1231,1604,0,0
14,-580,0,0,0,0,0,0,0,0,0,-1,1238,1604,0,0
21,-580,0,0,0,0,0,0,0,0,0,-1,1245,1604,0,0
28,-580,0,0,0,0,0,0,0,0,0,-1,1252,1604,0,0
35,-580,0,0,0,0,0,0,0,0,0,-1,1259,1604,0,0
42,-580,0,0,0,0,0,0,0,0,0,-1,1266,1604,0,0
49,-580,0,0,0,0,0,0,0,0,0,-1,1273,1604,0,0
56,-580,0,0,0,0,0,0,0,0,0,-1,1280,1604,0,0
63,-580,0,0,0,0,0,0,0,0,0,-1,1287,1604,0,0
70,-580,0,0,0,0,0,0,0,0,0,-1,1294,1604,0,0
77,-580,0,0,0,0,0,0,0,0,0,-1,1301,1604,0,0
84,-580,0,0,0,0,0,0,0,0,0,-1,1308,1604,0,0
91,-580,0,0,0,0,0,0,0,0,0,-1,1315,1604,0,0
98,-580,0,0,0,0,0,0,0,0,0,-1,1322,1604,0,0
105,-580,0,0,0,0,0,0,0,0,0,-1,1329,1604,0,0
112,-580,0,0,0,0,0,0,0,0,0,-1,1336,1604,0,0
119,-580,0,0,0,0,0,0,0,0,0,-1,1343,1604,0,0
126,-580,0,0,0,0,0,0,0,0,0,-1,1350,1604,0,0
133,-580,0,0,0,0,0,0,0,0,0,-1,1357,1604,0,0
140,-580,0,0,0,0,0,0,0,0,0,-1,1364,1604,0,0
147,-580,0,0,0,0,0,0,0,0,0,-1,1371,1604,0,0
154,-580,0,0,0,0,0,0,0,0,0,-1,1378,1604,0,0
161,-580,0,0,0,0,0,0,0,0,0,-1,1385,1604,0,0
168,-580,0,0,0,0,0,0,0,0,0,-1,1392,1604,0,0
175,-580,0,0,0,0,0,0,0,0,0,-1,1399,1604,0,0
182,-580,0,0,0,0,0,0,0,0,0,-1,1406,1604,0,0
189,-580,0,0,0,0,0,0,0,0,0,-1,1413,1604,0,0
196,-580,0,0,0,0,0,0,0,0,0,-1,1420,1604,0,0
203,-580,0,0,0,0,0,0,0,0,0,-1,1427,1604,0,0
210,-580,0,0,0,0,0,0,0,0,0,-1,1434,1604,0,0
217,-580,0,0,0,0,0,0,0,0,0,-1,1441,1604,0,0
224,-580,0,0,0,0,0,0,0,0,0,-1,1448,1604,0,0
231,-580,0,0,0,0,0,0,0,0,0,-1,1455,1604,0,0
238,-580,0,0,0,0,0,0,0,0,0,-1,1462,1604,0,0
245,-580,0,0,0,0,0,0,0,0,0,-1,1469,1604,0,0
252,-580,0,0,0,0,0,0,0,0,0,-1,1476,1604,0,0
259,-580,0,0,0,0,0,0,0,0,0,-1,1483,1604,0,0
266,-580,0,0,0,0,0,0,0,0,0,-1,1490,1604,0,0
273,-580,0,0,0,0,0,0,0,0,0,-1,1497,1604,0,0
280,-580,0,0,0,0,0,0,0,0,0,-1,1504,1604,0,0
287,-580,0,0,0,0,0,0,0,0,0,-1,1511,1604,0,0
294,-580,4.0437,0.177368,0,0,0,0,0,0,0,-1,1518,1604,4.04369,-0.177371
301,-580,4.89465,1.3446,0,0,0,0,0,0,0,-1,1525,1604,4.89467,-1.34463
308,-580,5.5979,4.69128,0,0,0,0,0,0,0,-1,1532,1604,5.59784,-4.69123
315,-580,10.5341,6.62097,0,0,0,0,0,0,0,-1,1539,1604,10.5341,-6.62096
322,-580,10.2366,7.50281,0,0,0,0,0,0,0,-1,1546,1604,10.2366,-7.50282
329,-580,10.5962,8.69641,0,0,0,0,0,0,0,-1,1553,1604,10.5962,-8.69642
336,-580,3.66431,1.58862,0,0,0,0,0,0,0,-1,1560,1604,3.6643,-1.58864
343,-580,3.32227,1.39636,0,0,0,0,0,0,0,-1,1567,1604,3.32222,-1.39633
350,-580,8.71277,4.0564,0,0,0,0,0,0,0,-1,1574,1604,8.71271,-4.05638
357,-580,8.52332,3.08154,0,0,0,0,0,0,0,-1,1581,1604,8.52332,-3.08157
364,-580,8.25818,2.07605,0,0,0,0,0,0,0,-1,1588,1604,8.25812,-2.07608
371,-580,7.42114,7.14282,0,0,0,0,0,0,0,-1,1595,1604,7.42119,-7.14281
378,-580,7.9718,6.6731,0,0,0,0,0,0,0,-1,1602,1604,7.9718,-6.67307
385,-580,8.52246,6.20337,0,0,0,0,0,0,0,-1,1609,1604,8.52241,-6.20334
392,-580,6.5498,-2.15625,0,0,0,0,0,0,0,-1,1616,1604,6.54984,2.15626
399,-580,4.77087,10.3883,0,0,0,0,0,0,0,-1,1623,1604,4.77084,-10.3883
406,-580,6.30872,9.73718,0,0,0,0,0,0,0,-1,1630,1604,6.30869,-9.73723
413,-580,6.28015,9.50635,-0.018137,-0.0123432,0.0249275,0.00985513,-0.0403354,0.843245,0.030707,0.0484183,1637,1604,6.28018,-9.50629
420,-580,6.2356,9.698,-0.0175886,-0.0125848,0.023072,0.00812059,-0.038294,0.839407,0.0286228,0.0430191,1644,1604,6.23564,-9.69803
427,-580,6.56409,9.73242,0,0,0,0,0,0,0,-1,1651,1604,6.5641,-9.73245
434,-580,6.32532,9.48328,-0.0153634,-0.012062,0.0186878,0.00504784,-0.0324732,0.829449,0.0235127,0.0242936,1658,1604,6.3253,-9.48333
441,-580,6.19739,9.44043,-0.0137452,-0.0115422,0.01602,0.00341417,-0.0287015,0.819723,0.020368,0.0116761,1665,1604,6.19734,-9.44046
448,-580,6.17566,9.33752,-0.0118855,-0.0107863,0.0134401,0.00211543,-0.0247873,0.805832,0.0172732,0.0112022,1672,1604,6.17569,-9.33758
455,-580,6.1731,9.21399,-0.0101323,-0.00990811,0.0110561,0.0010365,-0.0210769,0.790468,0.0144092,0.0178779,1679,1604,6.17307,-9.21397
462,-580,6.18823,9.07019,-0.00829444,-0.00873285,0.00876406,0.000253161,-0.0172804,0.772895,0.0116056,0.0207841,1686,1604,6.18818,-9.07014
469,-580,6.19543,8.94458,-0.00645578,-0.00730275,0.0066299,-0.000235845,-0.0135227,0.753504,0.00893754,0.0179502,1693,1604,6.19539,-8.94455
476,-580,6.19189,8.80127,-0.00469555,-0.0060043,0.00468739,-0.000617078,-0.0100828,0.716045,0.00652589,0.0140814,1700,1604,6.19195,-8.80126
483,-580,6.15979,8.66296,-0.00296037,-0.00441158,0.00304976,-0.000551084,-0.00682087,0.668609,0.00437514,0.0126088,1707,1604,6.15976,-8.66295
490,-580,6.14075,8.52185,-0.000987698,-0.00287395,0.00157858,-9.19648e-05,-0.00376969,0.516126,0.00248304,0.0147763,1714,1604,6.14074,-8.52182
497,-580,6.16565,8.38049,0.001069,-0.0014768,0.000129673,0.00107559,-0.00148339,0.0507609,0.00148367,0.011262,1721,1604,6.16569,-8.38046
504,-580,6.18689,8.23425,0.00271321,3.55071e-05,-0.00093443,0.00300705,-0.000258333,-0.304669,0.00209612,0.0158426,1728,1604,6.18684,-8.23431
511,-580,6.18909,8.09155,0.00447602,0.00140571,-0.00204471,0.00549773,0.000384009,-0.463393,0.00354409,0.0168172,1735,1604,6.18905,-8.09159
518,-580,6.20496,7.92664,0.00658355,0.00253661,-0.00327625,0.00841083,0.000709335,-0.508762,0.00538637,0.014993,1742,1604,6.20496,-7.92667
525,-580,6.16919,7.7605,0.00904465,0.00335561,-0.00464081,0.0116433,0.000756931,-0.510459,0.00752261,0.0164294,1749,1604,6.16916,-7.7605
532,-580,6.1803,7.59949,0.0120264,0.00404021,-0.00616252,0.0153764,0.000690191,-0.497926,0.0100288,0.0187276,1756,1604,6.18029,-7.59945
539,-580,6.23633,7.49097,0.0154736,0.00505609,-0.00805857,0.0198602,0.000669438,-0.498492,0.0130227,0.022438,1763,1604,6.23638,-7.49091
546,-580,6.52209,7.20227,0.0195565,0.00604501,-0.0102774,0.0250998,0.00050179,-0.494638,0.0165684,0.0379731,1770,1604,6.52207,-7.20228
553,-580,6.86316,6.83459,0,0,0,0,0,0,0,-1,1777,1604,6.86314,-6.83459
560,-580,5.4696,6.44702,0,0,0,0,0,0,0,-1,1784,1604,5.46958,-6.44705
567,-580,2.20801,6.05261,0,0,0,0,0,0,0,-1,1791,1604,2.20799,-6.0526
574,-580,2.31653,5.62952,0,0,0,0,0,0,0,-1,1798,1604,2.31654,-5.62947
581,-580,1.60876,6.67664,0,0,0,0,0,0,0,-1,1805,1604,1.60873,-6.67667
588,-580,1.38684,7.14441,0,0,0,0,0,0,0,-1,1812,1604,1.38689,-7.14443
595,-580,0,0,0,0,0,0,0,0,0,-1,1819,1604,0,0
602,-580,0,0,0,0,0,0,0,0,0,-1,1826,1604,0,0
609,-580,0,0,0,0,0,0,0,0,0,-1,1833,1604,0,0
616,-580,0,0,0,0,0,0,0,0,0,-1,1840,1604,0,0
623,-580,0,0,0,0,0,0,0,0,0,-1,1847,1604,0,0
630,-580,0,0,0,0,0,0,0,0,0,-1,1854,1604,0,0
637,-580,0,0,0,0,0,0,0,0,0,-1,1861,1604,0,0
644,-580,0,0,0,0,0,0,0,0,0,-1,1868,1604,0,0
651,-580,0,0,0,0,0,0,0,0,0,-1,1875,1604,0,0
658,-580,0,0,0,0,0,0,0,0,0,-1,1882,1604,0,0
665,-580,0,0,0,0,0,0,0,0,0,-1,1889,1604,0,0
672,-580,0,0,0,0,0,0,0,0,0,-1,1896,1604,0,0
679,-580,0,0,0,0,0,0,0,0,0,-1,1903,1604,0,0
686,-580,0,0,0,0,0,0,0,0,0,-1,1910,1604,0,0
693,-580,0,0,0,0,0,0,0,0,0,-1,1917,1604,0,0
700,-580,0,0,0,0,0,0,0,0,0,-1,1924,1604,0,0
707,-580,0,0,0,0,0,0,0,0,0,-1,1931,1604,0,0
714,-580,0,0,0,0,0,0,0,0,0,-1,1938,1604,0,0
721,-580,0,0,0,0,0,0,0,0,0,-1,1945,1604,0,0
728,-580,0,0,0,0,0,0,0,0,0,-1,1952,1604,0,0
735,-580,0,0,0,0,0,0,0,0,0,-1,1959,1604,0,0
742,-580,0,0,0,0,0,0,0,0,0,-1,1966,1604,0,0
749,-580,0,0,0,0,0,0,0,0,0,-1,1973,1604,0,0
756,-580,0,0,0,0,0,0,0,0,0,-1,1980,1604,0,0
763,-580,0,0,0,0,0,0,0,0,0,-1,1987,1604,0,0
770,-580,0,0,0,0,0,0,0,0,0,-1,1994,1604,0,0
777,-580,0,0,0,0,0,0,0,0,0,-1,2001,1604,0,0
784,-580,0,0,0,0,0,0,0,0,0,-1,2008,1604,0,0
791,-580,0,0,0,0,0,0,0,0,0,-1,2015,1604,0,0
798,-580,0,0,0,0,0,0,0,0,0,-1,2022,1604,0,0
805,-580,0,0,0,0,0,0,0,0,0,-1,2029,1604,0,0
812,-580,0,0,0,0,0,0,0,0,0,-1,2036,1604,0,0
-700,-587,0,0,0,0,0,0,0,0,0,-1,524,1611,0,0
-693,-587,0,0,0,0,0,0,0,0,0,-1,531,1611,0,0
-686,-587,0,0,0,0,0,0,0,0,0,-1,538,1611,0,0
-679,-587,0,0,0,0,0,0,0,0,0,-1,545,1611,0,0
-672,-587,0,0,0,0,0,0,0,0,0,-1,552,1611,0,0
-665,-587,0,0,0,0,0,0,0,0,0,-1,559,1611,0,0
-658,-587,0,0,0,0,0,0,0,0,0,-1,566,1611,0,0
-651,-587,0,0,0,0,0,0,0,0,0,-1,573,1611,0,0
-644,-587,0,0,0,0,0,0,0,0,0,-1,580,1611,0,0
-637,-587,0,0,0,0,0,0,0,0,0,-1,587,1611,0,0
-630,-587,0,0,0,0,0,0,0,0,0,-1,594,1611,0,0
-623,-587,0,0,0,0,0,0,0,0,0,-1,601,1611,0,0
-616,-587,0,0,0,0,0,0,0,0,0,-1,608,1611,0,0
-609,-587,0,0,0,0,0,0,0,0,0,-1,615,1611,0,0
-602,-587,0,0,0,0,0,0,0,0,0,-1,622,1611,0,0
-595,-587,0,0,0,0,0,0,0,0,0,-1,629,1611,0,0
-588,-587,0,0,0,0,0,0,0,0,0,-1,636,1611,0,0
-581,-587,0,0,0,0,0,0,0,0,0,-1,643,1611,0,0
-574,-587,0,0,0,0,0,0,0,0,0,-1,650,1611,0,0
-567,-587,0,0,0,0,0,0,0,0,0,-1,657,1611,0,0
-560,-587,0,0,0,0,0,0,0,0,0,-1,664,1611,0,0
-553,-587,0,0,0,0,0,0,0,0,0,-1,671,1611,0,0
-546,-587,0,0,0,0,0,0,0,0,0,-1,678,1611,0,0
-539,-587,0,0,0,0,0,0,0,0,0,-1,685,1611,0,0
-532,-587,0,0,0,0,0,0,0,0,0,-1,692,1611,0,0
-525,-587,0,0,0,0,0,0,0,0,0,-1,699,1611,0,0
-518,-587,0,0,0,0,0,0,0,0,0,-1,706,1611,0,0
-511,-587,0,0,0,0,0,0,0,0,0,-1,713,1611,0,0
-504,-587,0,0,0,0,0,0,0,0,0,-1,720,1611,0,0
-497,-587,0,0,0,0,0,0,0,0,0,-1,727,1611,0,0
-490,-587,0,0,0,0,0,0,0,0,0,-1,734,1611,0,0
-483,-587,0,0,0,0,0,0,0,0,0,-1,741,1611,0,0
-476,-587,0,0,0,0,0,0,0,0,0,-1,748,1611,0,0
-469,-587,0,0,0,0,0,0,0,0,0,-1,755,1611,0,0
-462,-587,-0.729492,-4.46301,0,0,0,0,0,0,0,-1,762,1611,-0.729484,4.46305
-455,-587,-0.965698,-3.32373,0,0,0,0,0,0,0,-1,769,1611,-0.965729,3.32372
-448,-587,-1.20197,-2.18433,0,0,0,0,0,0,0,-1,776,1611,-1.20197,2.18438
-441,-587,-3.53021,4.56543,0,0,0,0,0,0,0,-1,783,1611,-3.53023,-4.56538
-434,-587,-2.36865,6.41638,0,0,0,0,0,0,0,-1,790,1611,-2.36868,-6.41644
-427,-587,-1.47821,8.11377,0,0,0,0,0,0,0,-1,797,1611,-1.4782,-8.11378
-420,-587,0.290039,7.61682,0,0,0,0,0,0,0,-1,804,1611,0.290036,-7.61681
-413,-587,1.69214,5.75476,0,0,0,0,0,0,0,-1,811,1611,1.69213,-5.75473
-406,-587,1.77338,6.17908,0,0,0,0,0,0,0,-1,818,1611,1.7734,-6.17908
-399,-587,1.68677,6.38892,-0.00137267,0.0104492,-0.00369275,0.0115078,-0.00243136,-1.29159,0.00859771,0.0340197,825,1611,1.68675,-6.38895
-392,-587,1.6723,6.51563,-0.00205798,0.00598496,-0.00412377,0.0077235,-0.00379652,-1.17182,0.00677867,0.0239756,832,1611,1.67228,-6.51564
-385,-587,1.59369,6.70935,-0.00257781,0.00313252,-0.00429926,0.00543832,-0.00488362,-1.07851,0.00596224,0.0142549,839,1611,1.59369,-6.70934
-378,-587,1.58179,6.89697,-0.00239567,0.00199205,-0.00359774,0.00401207,-0.00441569,-1.05919,0.00486763,0.0127651,846,1611,1.58179,-6.89696
-371,-587,1.58807,7.07007,-0.00189846,0.00113603,-0.00280146,0.00280473,-0.00356716,-1.03358,0.00368758,0.0137269,853,1611,1.5881,-7.07006
-364,-587,1.60211,7.23145,-0.00131388,0.000369937,-0.00204364,0.0017383,-0.00268224,-0.980787,0.00257152,0.0168779,860,1611,1.60212,-7.23147
-357,-587,1.60449,7.36377,-0.000616585,-0.000159115,-0.00127503,0.000907532,-0.00168323,-0.874152,0.00151796,0.0152691,867,1611,1.60447,-7.36377
-350,-587,1.60919,7.56372,0.000169821,-0.000558357,-0.000464786,0.000396144,-0.000784681,-0.453146,0.000693942,0.00910639,874,1611,1.60917,-7.56369
-343,-587,1.5968,7.73438,0.00087978,-0.000774785,0.000332262,0.00094401,-0.000839015,0.190956,0.00103002,0.0119514,881,1611,1.59682,-7.73433
-336,-587,1.58014,7.87305,0.0016625,-0.000980639,0.00119813,0.00212476,-0.0014429,0.368223,0.00207229,0.0123201,888,1611,1.58014,-7.87305
-329,-587,1.58936,8.03333,0.00228576,-0.00109086,0.00194649,0.00317412,-0.00197922,0.428155,0.00300182,0.0145838,895,1611,1.58934,-8.03335
-322,-587,1.62708,8.21313,0.00280547,-0.00124454,0.00260124,0.004077,-0.00251606,0.454659,0.0038419,0.0164979,902,1611,1.62706,-8.21313
-315,-587,1.62189,8.36353,0.00295579,-0.00155768,0.00317955,0.00459808,-0.00319996,0.476773,0.00452626,0.0130612,909,1611,1.62188,-8.36356
-308,-587,1.60675,8.52002,0.00281825,-0.00208518,0.00358164,0.00470693,-0.00397387,0.485267,0.00501781,0.0135889,916,1611,1.60676,-8.52002
-301,-587,1.63861,8.66724,0.00257546,-0.00283379,0.00398581,0.00468765,-0.00494598,0.487301,0.00556264,0.0125785,923,1611,1.63859,-8.66726
-294,-587,1.67139,8.80103,0.00243922,-0.00384406,0.00440978,0.00471202,-0.00611685,0.47589,0.00626956,0.0132206,930,1611,1.67139,-8.80101
-287,-587,1.68396,8.94775,0.00221034,-0.00468382,0.00489265,0.00474828,-0.00722175,0.478514,0.00695991,0.0231936,937,1611,1.68398,-8.9477
-280,-587,1.62665,9.07849,0.00177227,-0.00598752,0.00513451,0.00432796,-0.00854321,0.461844,0.00756285,0.0357547,944,1611,1.62662,-9.07851
-273,-587,1.56763,9.18457,0,0,0,0,0,0,0,-1,951,1611,1.56764,-9.18456
-266,-587,1.89374,8.90271,0.000789063,-0.00991011,0.00514076,0.00285874,-0.0119798,0.382747,0.00909053,0.049034,958,1611,1.89377,-8.90275
-259,-587,1.71429,9,0.00060341,-0.0122313,0.00517132,0.00242772,-0.0140556,0.339144,0.0102757,0.0484365,965,1611,1.71428,-9.00002
-252,-587,1.71954,9.04614,0,0,0,0,0,0,0,-1,972,1611,1.71957,-9.04618
-245,-587,2.02942,9.07275,0,0,0,0,0,0,0,-1,979,1611,2.02945,-9.07272
-238,-587,2.45251,8.59753,0,0,0,0,0,0,0,-1,986,1611,2.45254,-8.59754
-231,-587,2.99457,8.82886,0,0,0,0,0,0,0,-1,993,1611,2.9946,-8.82889
-224,-587,1.48132,9.89331,0,0,0,0,0,0,0,-1,1000,1611,1.48131,-9.89326
-217,-587,0.332336,9.86267,0,0,0,0,0,0,0,-1,1007,1611,0.33232,-9.86271
-210,-587,-0.600708,9.62695,0,0,0,0,0,0,0,-1,1014,1611,-0.600735,-9.62692
-203,-587,-1.55042,9.40186,0,0,0,0,0,0,0,-1,1021,1611,-1.55043,-9.40186
-196,-587,-2.32214,9.0835,0,0,0,0,0,0,0,-1,1028,1611,-2.32215,-9.08353
-189,-587,-3.04138,8.66638,0,0,0,0,0,0,0,-1,1035,1611,-3.04136,-8.66635
-182,-587,-3.97095,9.7146,0,0,0,0,0,0,0,-1,1042,1611,-3.97093,-9.71461
-175,-587,-4.80969,8.37878,0,0,0,0,0,0,0,-1,1049,1611,-4.80964,-8.37883
-168,-587,-5.91394,8.72546,0,0,0,0,0,0,0,-1,1056,1611,-5.91398,-8.72542
-161,-587,-7.06946,8.88501,0,0,0,0,0,0,0,-1,1063,1611,-7.06947,-8.885
-154,-587,-8.18787,8.99988,0,0,0,0,0,0,0,-1,1070,1611,-8.18785,-8.99982
-147,-587,0,0,0,0,0,0,0,0,0,-1,1077,1611,0,0
-140,-587,0,0,0,0,0,0,0,0,0,-1,1084,1611,0,0
-133,-587,0,0,0,0,0,0,0,0,0,-1,1091,1611,0,0
-126,-587,0,0,0,0,0,0,0,0,0,-1,1098,1611,0,0
-119,-587,0,0,0,0,0,0,0,0,0,-1,1105,1611,0,0
-112,-587,0,0,0,0,0,0,0,0,0,-1,1112,1611,0,0
-105,-587,0,0,0,0,0,0,0,0,0,-1,1119,1611,0,0
-98,-587,0,0,0,0,0,0,0,0,0,-1,1126,1611,0,0
-91,-587,0,0,0,0,0,0,0,0,0,-1,1133,1611,0,0
-84,-587,0,0,0,0,0,0,0,0,0,-1,1140,1611,0,0
-77,-587,0,0,0,0,0,0,0,0,0,-1,1147,1611,0,0
-70,-587,0,0,0,0,0,0,0,0,0,-1,1154,1611,0,0
-63,-587,0,0,0,0,0,0,0,0,0,-1,1161,1611,0,0
-56,-587,0,0,0,0,0,0,0,0,0,-1,1168,1611,0,0
-49,-587,0,0,0,0,0,0,0,0,0,-1,1175,1611,0,0
-42,-587,0,0,0,0,0,0,0,0,0,-1,1182,1611,0,0
-35,-587,0,0,0,0,0,0,0,0,0,-1,1189,1611,0,0
-28,-587,0,0,0,0,0,0,0,0,0,-1,1196,1611,0,0
-21,-587,0,0,0,0,0,0,0,0,0,-1,1203,1611,0,0
-14,-587,0,0,0,0,0,0,0,0,0,-1,1210,1611,0,0
-7,-587,0,0,0,0,0,0,0,0,0,-1,1217,1611,0,0
0,-587,0,0,0,0,0,0,0,0,0,-1,1224,1611,0,0
7,-587,0,0,0,0,0,0,0,0,0,-1,1231,1611,0,0
14,-587,0,0,0,0,0,0,0,0,0,-1,1238,1611,0,0
21,-587,0,0,0,0,0,0,0,0,0,-1,1245,1611,0,0
28,-587,0,0,0,0,0,0,0,0,0,-1,1252,1611,0,0
35,-587,0,0,0,0,0,0,0,0,0,-1,1259,1611,0,0
42,-587,0,0,0,0,0,0,0,0,0,-1,1266,1611,0,0
49,-587,0,0,0,0,0,0,0,0,0,-1,1273,1611,0,0
56,-587,0,0,0,0,0,0,0,0,0,-1,1280,1611,0,0
63,-587,0,0,0,0,0,0,0,0,0,-1,1287,1611,0,0
70,-587,0,0,0,0,0,0,0,0,0,-1,1294,1611,0,0
77,-587,0,0,0,0,0,0,0,0,0,-1,1301,1611,0,0
84,-587,0,0,0,0,0,0,0,0,0,-1,1308,1611,0,0
91,-587,0,0,0,0,0,0,0,0,0,-1,1315,1611,0,0
98,-587,0,0,0,0,0,0,0,0,0,-1,1322,1611,0,0
105,-587,0,0,0,0,0,0,0,0,0,-1,1329,1611,0,0
112,-587,0,0,0,0,0,0,0,0,0,-1,1336,1611,0,0
119,-587,0,0,0,0,0,0,0,0,0,-1,1343,1611,0,0
126,-587,0,0,0,0,0,0,0,0,0,-1,1350,1611,0,0
133,-587,0,0,0,0,0,0,0,0,0,-1,1357,1611,0,0
140,-587,0,0,0,0,0,0,0,0,0,-1,1364,1611,0,0
147,-587,0,0,0,0,0,0,0,0,0,-1,1371,1611,0,0
154,-587,0,0,0,0,0,0,0,0,0,-1,1378,1611,0,0
161,-587,0,0,0,0,0,0,0,0,0,-1,1385,1611,0,0
168,-587,0,0,0,0,0,0,0,0,0,-1,1392,1611,0,0
175,-587,0,0,0,0,0,0,0,0,0,-1,1399,1611,0,0
182,-587,0,0,0,0,0,0,0,0,0,-1,1406,1611,0,0
189,-587,0,0,0,0,0,0,0,0,0,-1,1413,1611,0,0
196,-587,0,0,0,0,0,0,0,0,0,-1,1420,1611,0,0
203,-587,0,0,0,0,0,0,0,0,0,-1,1427,1611,0,0
210,-587,0,0,0,0,0,0,0,0,0,-1,1434,1611,0,0
217,-587,0,0,0,0,0,0,0,0,0,-1,1441,1611,0,0
224,-587,0,0,0,0,0,0,0,0,0,-1,1448,1611,0,0
231,-587,0,0,0,0,0,0,0,0,0,-1,1455,1611,0,0
238,-587,0,0,0,0,0,0,0,0,0,-1,1462,1611,0,0
245,-587,0,0,0,0,0,0,0,0,0,-1,1469,1611,0,0
252,-587,0,0,0,0,0,0,0,0,0,-1,1476,1611,0,0
259,-587,0,0,0,0,0,0,0,0,0,-1,1483,1611,0,0
266,-587,0,0,0,0,0,0,0,0,0,-1,1490,1611,0,0
273,-587,10.2936,6.35083,0,0,0,0,0,0,0,-1,1497,1611,10.2936,-6.35087
280,-587,2.09204,1.1217,0,0,0,0,0,0,0,-1,1504,1611,2.092,-1.12176
287,-587,3.2865,0.671509,0,0,0,0,0,0,0,-1,1511,1611,3.28656,-0.671538
294,-587,4.24646,1.58765,0,0,0,0,0,0,0,-1,1518,1611,4.24648,-1.58761
301,-587,5.13647,2.76465,0,0,0,0,0,0,0,-1,1525,1611,5.13648,-2.76469
308,-587,6.12231,5.86035,0,0,0,0,0,0,0,-1,1532,1611,6.12227,-5.86035
315,-587,4.76758,6.91736,0,0,0,0,0,0,0,-1,1539,1611,4.76758,-6.9174
322,-587,10.4526,6.38245,0,0,0,0,0,0,0,-1,1546,1611,10.4526,-6.38245
329,-587,10.7738,8.42444,0,0,0,0,0,0,0,-1,1553,1611,10.7738,-8.42438
336,-587,7.5531,5.96619,0,0,0,0,0,0,0,-1,1560,1611,7.55311,-5.96617
343,-587,9.57495,4.38391,0,0,0,0,0,0,0,-1,1567,1611,9.57494,-4.38397
350,-587,9.50378,3.45093,0,0,0,0,0,0,0,-1,1574,1611,9.50376,-3.4509
357,-587,9.40027,2.50806,0,0,0,0,0,0,0,-1,1581,1611,9.40022,-2.50803
364,-587,9.26477,1.34131,0,0,0,0,0,0,0,-1,1588,1611,9.26479,-1.34126
371,-587,6.98926,7.87561,0,0,0,0,0,0,0,-1,1595,1611,6.98928,-7.87564
378,-587,6.91187,9.53101,0,0,0,0,0,0,0,-1,1602,1611,6.91184,-9.53103
385,-587,7.17224,7.03772,0,0,0,0,0,0,0,-1,1609,1611,7.1722,-7.03778
392,-587,5.3916,8.21436,0,0,0,0,0,0,0,-1,1616,1611,5.39157,-8.21437
399,-587,6.16589,9.99316,0,0,0,0,0,0,0,-1,1623,1611,6.16585,-9.99321
406,-587,6.12854,9.87463,-0.0119048,-0.0098848,0.0183873,0.00752018,-0.0293098,0.812835,0.02247,0.0426853,1630,1611,6.1286,-9.87461
413,-587,6.05737,9.7616,-0.0121508,-0.0099091,0.0174534,0.00645944,-0.0285194,0.817464,0.0214921,0.0347025,1637,1611,6.05731,-9.76162
420,-587,6.03113,9.75989,-0.0118525,-0.0098545,0.0161913,0.00536859,-0.0270756,0.816209,0.0200806,0.031513,1644,1611,6.03118,-9.75987
427,-587,6.13171,9.70605,-0.0112398,-0.00958831,0.0148927,0.00450153,-0.0253297,0.813094,0.0185697,0.0228775,1651,1611,6.13177,-9.70603
434,-587,6.05225,9.61023,-0.0105127,-0.00896107,0.0132131,0.00349896,-0.0229727,0.814722,0.0166048,0.0146293,1658,1611,6.05219,-9.6102
441,-587,6.04065,9.49524,-0.00947171,-0.00827005,0.0113561,0.00250106,-0.0202428,0.811828,0.0144015,0.0170297,1665,1611,6.04061,-9.49523
448,-587,6.0498,9.34509,-0.00820994,-0.00746866,0.00954023,0.00170813,-0.0173867,0.804813,0.0122005,0.0152296,1672,1611,6.04986,-9.34508
455,-587,6.03809,9.21411,-0.00705624,-0.00661956,0.00784355,0.00100869,-0.0146845,0.799313,0.0101426,0.0142805,1679,1611,6.03814,-9.21413
462,-587,6.03259,9.07458,-0.00578603,-0.00553238,0.00614976,0.000491867,-0.0118103,0.795708,0.00804249,0.017291,1686,1611,6.03254,-9.07464
469,-587,6.03613,8.93933,-0.00445351,-0.00427435,0.00453286,0.000169815,-0.00889768,0.795278,0.00598919,0.0145296,1693,1611,6.03618,-8.93931
476,-587,6.0343,8.79626,-0.00317802,-0.00313409,0.00307228,-8.36952e-05,-0.00622841,0.788972,0.00412466,0.00964727,1700,1611,6.03428,-8.79622
483,-587,5.98364,8.65942,-0.00181533,-0.00184908,0.00185145,1.93227e-05,-0.00368373,0.78084,0.00246229,0.0125398,1707,1611,5.98365,-8.65947
490,-587,5.9834,8.51526,-1.55214e-05,-0.000624766,0.000675933,0.000421261,-0.00106155,0.573693,0.000882303,0.0156685,1714,1611,5.98337,-8.51522
497,-587,6.0105,8.37439,0.00201077,0.000524016,-0.000698649,0.00228755,0.000247237,-0.377194,0.00144967,0.0119521,1721,1611,6.01055,-8.37441
504,-587,6.02148,8.23621,0.00370861,0.00173743,-0.00170287,0.00469055,0.000755498,-0.523062,0.0029081,0.0112075,1728,1611,6.0215,-8.23623
511,-587,6.01819,8.08118,0.00572934,0.00285488,-0.002832,0.00746793,0.00111628,-0.550585,0.00465139,0.0134952,1735,1611,6.01821,-8.08123
518,-587,6.04382,7.90918,0.0082479,0.00368492,-0.00418235,0.0107306,0.00120224,-0.535705,0.00678854,0.0129102,1742,1611,6.04382,-7.90916
525,-587,6.06335,7.74927,0.0114577,0.00423745,-0.00578852,0.0146696,0.00102554,-0.506579,0.00945641,0.0160048,1749,1611,6.06337,-7.74928
532,-587,6.07043,7.59058,0.015606,0.004763,-0.00771817,0.0196165,0.000752479,-0.479221,0.0128342,0.0287837,1756,1611,6.07039,-7.59058
539,-587,6.36572,7.44519,0.0204967,0.00585374,-0.0102157,0.0257436,0.000606832,-0.474478,0.0169637,0.037858,1763,1611,6.36575,-7.44513
546,-587,7.20776,7.14099,0.0263554,0.00710643,-0.01324,0.0330994,0.000362378,-0.471115,0.0219465,0.0463017,1770,1611,7.20773,-7.14094
553,-587,7.70935,6.97534,0,0,0,0,0,0,0,-1,1777,1611,7.70931,-6.97534
560,-587,4.21179,5.23547,0,0,0,0,0,0,0,-1,1784,1611,4.21185,-5.23553
567,-587,4.03711,5.46387,0,0,0,0,0,0,0,-1,1791,1611,4.03715,-5.46382
574,-587,3.83142,5.68884,0,0,0,0,0,0,0,-1,1798,1611,3.83141,-5.68881
581,-587,3.47168,6.00977,0,0,0,0,0,0,0,-1,1805,1611,3.47167,-6.00983
588,-587,0,0,0,0,0,0,0,0,0,-1,1812,1611,0,0
595,-587,0,0,0,0,0,0,0,0,0,-1,1819,1611,0,0
602,-587,0,0,0,0,0,0,0,0,0,-1,1826,1611,0,0
609,-587,0,0,0,0,0,0,0,0,0,-1,1833,1611,0,0
616,-587,0,0,0,0,0,0,0,0,0,-1,1840,1611,0,0
623,-587,0,0,0,0,0,0,0,0,0,-1,1847,1611,0,0
630,-587,0,0,0,0,0,0,0,0,0,-1,1854,1611,0,0
637,-587,0,0,0,0,0,0,0,0,0,-1,1861,1611,0,0
644,-587,0,0,0,0,0,0,0,0,0,-1,1868,1611,0,0
651,-587,0,0,0,0,0,0,0,0,0,-1,1875,1611,0,0
658,-587,0,0,0,0,0,0,0,0,0,-1,1882,1611,0,0
665,-587,0,0,0,0,0,0,0,0,0,-1,1889,1611,0,0
672,-587,0,0,0,0,0,0,0,0,0,-1,1896,1611,0,0
679,-587,0,0,0,0,0,0,0,0,0,-1,1903,1611,0,0
686,-587,0,0,0,0,0,0,0,0,0,-1,1910,1611,0,0
693,-587,0,0,0,0,0,0,0,0,0,-1,1917,1611,0,0
700,-587,0,0,0,0,0,0,0,0,0,-1,1924,1611,0,0
707,-587,0,0,0,0,0,0,0,0,0,-1,1931,1611,0,0
714,-587,0,0,0,0,0,0,0,0,0,-1,1938,1611,0,0
721,-587,0,0,0,0,0,0,0,0,0,-1,1945,1611,0,0
728,-587,0,0,0,0,0,0,0,0,0,-1,1952,1611,0,0
735,-587,0,0,0,0,0,0,0,0,0,-1,1959,1611,0,0
742,-587,0,0,0,0,0,0,0,0,0,-1,1966,1611,0,0
749,-587,0,0,0,0,0,0,0,0,0,-1,1973,1611,0,0
756,-587,0,0,0,0,0,0,0,0,0,-1,1980,1611,0,0
763,-587,0,0,0,0,0,0,0,0,0,-1,1987,1611,0,0
770,-587,0,0,0,0,0,0,0,0,0,-1,1994,1611,0,0
777,-587,0,0,0,0,0,0,0,0,0,-1,2001,1611,0,0
784,-587,0,0,0,0,0,0,0,0,0,-1,2008,1611,0,0
791,-587,0,0,0,0,0,0,0,0,0,-1,2015,1611,0,0
798,-587,0,0,0,0,0,0,0,0,0,-1,2022,1611,0,0
805,-587,0,0,0,0,0,0,0,0,0,-1,2029,1611,0,0
812,-587,0,0,0,0,0,0,0,0,0,-1,2036,1611,0,0
-700,-594,0,0,0,0,0,0,0,0,0,-1,524,1618,0,0
-693,-594,0,0,0,0,0,0,0,0,0,-1,531,1618,0,0
-686,-594,0,0,0,0,0,0,0,0,0,-1,538,1618,0,0
-679,-594,0,0,0,0,0,0,0,0,0,-1,545,1618,0,0
-672,-594,0,0,0,0,0,0,0,0,0,-1,552,1618,0,0
-665,-594,0,0,0,0,0,0,0,0,0,-1,559,1618,0,0
-658,-594,0,0,0,0,0,0,0,0,0,-1,566,1618,0,0
-651,-594,0,0,0,0,0,0,0,0,0,-1,573,1618,0,0
-644,-594,0,0,0,0,0,0,0,0,0,-1,580,1618,0,0
-637,-594,0,0,0,0,0,0,0,0,0,-1,587,1618,0,0
-630,-594,0,0,0,0,0,0,0,0,0,-1,594,1618,0,0
-623,-594,0,0,0,0,0,0,0,0,0,-1,601,1618,0,0
-616,-594,0,0,0,0,0,0,0,0,0,-1,608,1618,0,0
-609,-594,0,0,0,0,0,0,0,0,0,-1,615,1618,0,0
-602,-594,0,0,0,0,0,0,0,0,0,-1,622,1618,0,0
-595,-594,0,0,0,0,0,0,0,0,0,-1,629,1618,0,0
-588,-594,0,0,0,0,0,0,0,0,0,-1,636,1618,0,0
-581,-594,0,0,0,0,0,0,0,0,0,-1,643,1618,0,0
-574,-594,0,0,0,0,0,0,0,0,0,-1,650,1618,0,0
-567,-594,0,0,0,0,0,0,0,0,0,-1,657,1618,0,0
-560,-594,0,0,0,0,0,0,0,0,0,-1,664,1618,0,0
-553,-594,0,0,0,0,0,0,0,0,0,-1,671,1618,0,0
-546,-594,0,0,0,0,0,0,0,0,0,-1,678,1618,0,0
-539,-594,0,0,0,0,0,0,0,0,0,-1,685,1618,0,0
-532,-594,0,0,0,0,0,0,0,0,0,-1,692,1618,0,0
-525,-594,0,0,0,0,0,0,0,0,0,-1,699,1618,0,0
-518,-594,0,0,0,0,0,0,0,0,0,-1,706,1618,0,0
-511,-594,0,0,0,0,0,0,0,0,0,-1,713,1618,0,0
-504,-594,0,0,0,0,0,0,0,0,0,-1,720,1618,0,0
-497,-594,0,0,0,0,0,0,0,0,0,-1,727,1618,0,0
-490,-594,0,0,0,0,0,0,0,0,0,-1,734,1618,0,0
-483,-594,0,0,0,0,0,0,0,0,0,-1,741,1618,0,0
-476,-594,0,0,0,0,0,0,0,0,0,-1,748,1618,0,0
-469,-594,0,0,0,0,0,0,0,0,0,-1,755,1618,0,0
-462,-594,0,0,0,0,0,0,0,0,0,-1,762,1618,0,0
-455,-594,-1.65491,-4.9729,0,0,0,0,0,0,0,-1,769,1618,-1.65492,4.97285
-448,-594,-1.93896,-3.84717,0,0,0,0,0,0,0,-1,776,1618,-1.93896,3.84713
-441,-594,-4.79364,4.07727,0,0,0,0,0,0,0,-1,783,1618,-4.79365,-4.07727
-434,-594,-3.62231,5.8208,0,0,0,0,0,0,0,-1,790,1618,-3.62229,-5.82083
-427,-594,-2.31836,5.5968,0,0,0,0,0,0,0,-1,797,1618,-2.31839,-5.59684
-420,-594,-1.51398,6.45288,0,0,0,0,0,0,0,-1,804,1618,-1.51399,-6.45294
-413,-594,-0.698242,6.88928,0,0,0,0,0,0,0,-1,811,1618,-0.698249,-6.88934
-406,-594,1.67871,6.28455,0,0,0,0,0,0,0,-1,818,1618,1.6787,-6.2845
-399,-594,1.79926,6.39697,-0.00329331,0.0212961,-0.0145388,0.0280418,-0.010039,-1.13638,0.0227902,0.0477832,825,1618,1.79927,-6.39698
-392,-594,1.92511,6.56079,-0.00375984,0.015024,-0.0133117,0.0219235,-0.0106593,-1.09262,0.0191827,0.040671,832,1618,1.92512,-6.56083
-385,-594,1.82367,6.71606,-0.0040704,0.0105068,-0.0118364,0.0171187,-0.0106823,-1.06137,0.0161936,0.0269745,839,1618,1.82368,-6.71609
-378,-594,1.74323,6.89417,-0.00376873,0.0077677,-0.00962436,0.01322,-0.00922106,-1.05536,0.0130248,0.0121988,846,1618,1.74325,-6.89416
-371,-594,1.75641,7.06775,-0.00321902,0.0054788,-0.00753366,0.00982869,-0.0075689,-1.04717,0.0100727,0.0121216,853,1618,1.75643,-7.06775
-364,-594,1.77551,7.23047,-0.00261753,0.00354637,-0.0057143,0.00695685,-0.006028,-1.03271,0.0075032,0.0106029,860,1618,1.77554,-7.23042
-357,-594,1.78577,7.39844,-0.00189224,0.00208328,-0.0041182,0.00466835,-0.00447731,-1.01024,0.00528063,0.00986922,867,1618,1.78577,-7.39848
-350,-594,1.76367,7.60388,-0.00107373,0.000985485,-0.0026922,0.00283824,-0.00292649,-0.968037,0.0033284,0.0137621,874,1618,1.76366,-7.60385
-343,-594,1.75787,7.77808,-0.000348467,0.000245643,-0.00151653,0.00149393,-0.00159676,-0.882113,0.00178474,0.0150375,881,1618,1.75788,-7.77811
-336,-594,1.74457,7.88708,0.000460003,-0.00041851,-0.000314065,0.000560731,-0.000519237,-0.310358,0.000623673,0.0128106,888,1618,1.74454,-7.88707
-329,-594,1.74939,8.05261,0.00115255,-0.000799738,0.000616488,0.00133092,-0.000978114,0.28165,0.0013383,0.0134664,895,1618,1.74939,-8.05259
-322,-594,1.77655,8.2229,0.00178408,-0.00115036,0.00131246,0.00228543,-0.00165172,0.364891,0.00228291,0.0151801,902,1618,1.77653,-8.22285
-315,-594,1.79822,8.35266,0.00209514,-0.00138938,0.00176574,0.00283347,-0.0021277,0.396046,0.00287398,0.0153383,909,1618,1.79823,-8.35264
-308,-594,1.79706,8.50757,0.00215468,-0.00184223,0.00205342,0.00302159,-0.00270915,0.399481,0.00331029,0.0148682,916,1618,1.79704,-8.50762
-301,-594,1.78754,8.65002,0.00213705,-0.00253287,0.00234358,0.00311032,-0.00350615,0.393621,0.0038223,0.0112945,923,1618,1.78754,-8.64998
-294,-594,1.80426,8.78882,0.00225596,-0.00344341,0.00265893,0.00330379,-0.00449124,0.375392,0.00451784,0.00944958,930,1618,1.80425,-8.78886
-287,-594,1.81427,8.93848,0.00233039,-0.00415686,0.00304745,0.00353739,-0.00536386,0.377112,0.00517508,0.0105268,937,1618,1.81428,-8.93846
-280,-594,1.80475,9.07483,0.00220929,-0.00528672,0.00323108,0.00340976,-0.0064872,0.355733,0.00580536,0.0145134,944,1618,1.80472,-9.0748
-273,-594,1.8327,9.16052,0.00200719,-0.00689124,0.0031612,0.00301588,-0.00789993,0.308871,0.00650912,0.0256205,951,1618,1.83272,-9.16056
-266,-594,1.83118,9.20032,0.00181087,-0.0086384,0.0031884,0.00270691,-0.00953445,0.273966,0.00742494,0.0336329,958,1618,1.8312,-9.20031
-259,-594,1.83276,9.19531,0.00167489,-0.0105617,0.003105,0.00241768,-0.0113045,0.234812,0.00845821,0.0399507,965,1618,1.83278,-9.19527
-252,-594,1.841,9.24072,0.00195722,-0.0128124,0.00281662,0.00247613,-0.0133313,0.182188,0.00981754,0.0497847,972,1618,1.84099,-9.24074
-245,-594,1.89661,9.41455,0.00276959,-0.01548,0.00189284,0.00296385,-0.0156742,0.102269,0.0115647,0.0482997,979,1618,1.89661,-9.4146
-238,-594,2.44305,9.50598,0,0,0,0,0,0,0,-1,986,1618,2.44304,-9.50595
-231,-594,3.05115,9.41333,0,0,0,0,0,0,0,-1,993,1618,3.05118,-9.4133
-224,-594,3.45929,11.3962,0,0,0,0,0,0,0,-1,1000,1618,3.45927,-11.3963
-217,-594,2.4837,11.2629,0,0,0,0,0,0,0,-1,1007,1618,2.48368,-11.2629
-210,-594,0.957092,11.3329,0,0,0,0,0,0,0,-1,1014,1618,0.957079,-11.3329
-203,-594,-0.0402832,10.9181,0,0,0,0,0,0,0,-1,1021,1618,-0.0402818,-10.9181
-196,-594,-0.94043,9.66211,0,0,0,0,0,0,0,-1,1028,1618,-0.940441,-9.66207
-189,-594,-2.3645,10.7393,0,0,0,0,0,0,0,-1,1035,1618,-2.36445,-10.7393
-182,-594,-2.25964,10.1335,0,0,0,0,0,0,0,-1,1042,1618,-2.25962,-10.1335
-175,-594,-2.08997,9.5564,0,0,0,0,0,0,0,-1,1049,1618,-2.08996,-9.55638
-168,-594,-4.84082,9.9259,0,0,0,0,0,0,0,-1,1056,1618,-4.84082,-9.9259
-161,-594,-6.14746,10.2183,0,0,0,0,0,0,0,-1,1063,1618,-6.14743,-10.2183
-154,-594,-7.47607,10.7759,0,0,0,0,0,0,0,-1,1070,1618,-7.47603,-10.7759
-147,-594,-0.524658,7.95593,0,0,0,0,0,0,0,-1,1077,1618,-0.524719,-7.95588
-140,-594,1.37537,10.5242,0,0,0,0,0,0,0,-1,1084,1618,1.37533,-10.5241
-133,-594,0,0,0,0,0,0,0,0,0,-1,1091,1618,0,0
-126,-594,0,0,0,0,0,0,0,0,0,-1,1098,1618,0,0
-119,-594,0,0,0,0,0,0,0,0,0,-1,1105,1618,0,0
-112,-594,0,0,0,0,0,0,0,0,0,-1,1112,1618,0,0
-105,-594,0,0,0,0,0,0,0,0,0,-1,1119,1618,0,0
-98,-594,0,0,0,0,0,0,0,0,0,-1,1126,1618,0,0
-91,-594,0,0,0,0,0,0,0,0,0,-1,1133,1618,0,0
-84,-594,0,0,0,0,0,0,0,0,0,-1,1140,1618,0,0
-77,-594,0,0,0,0,0,0,0,0,0,-1,1147,1618,0,0
-70,-594,0,0,0,0,0,0,0,0,0,-1,1154,1618,0,0
-63,-594,0,0,0,0,0,0,0,0,0,-1,1161,1618,0,0
-56,-594,0,0,0,0,0,0,0,0,0,-1,1168,1618,0,0
-49,-594,0,0,0,0,0,0,0,0,0,-1,1175,1618,0,0
-42,-594,0,0,0,0,0,0,0,0,0,-1,1182,1618,0,0
-35,-594,0,0,0,0,0,0,0,0,0,-1,1189,1618,0,0
-28,-594,0,0,0,0,0,0,0,0,0,-1,1196,1618,0,0
-21,-594,0,0,0,0,0,0,0,0,0,-1,1203,1618,0,0
-14,-594,0,0,0,0,0,0,0,0,0,-1,1210,1618,0,0
-7,-594,0,0,0,0,0,0,0,0,0,-1,1217,1618,0,0
0,-594,0,0,0,0,0,0,0,0,0,-1,1224,1618,0,0
7,-594,0,0,0,0,0,0,0,0,0,-1,1231,1618,0,0
14,-594,0,0,0,0,0,0,0,0,0,-1,1238,1618,0,0
21,-594,0,0,0,0,0,0,0,0,0,-1,1245,1618,0,0
28,-594,0,0,0,0,0,0,0,0,0,-1,1252,1618,0,0
35,-594,0,0,0,0,0,0,0,0,0,-1,1259,1618,0,0
42,-594,0,0,0,0,0,0,0,0,0,-1,1266,1618,0,0
49,-594,0,0,0,0,0,0,0,0,0,-1,1273,1618,0,0
56,-594,0,0,0,0,0,0,0,0,0,-1,1280,1618,0,0
63,-594,0,0,0,0,0,0,0,0,0,-1,1287,1618,0,0
70,-594,0,0,0,0,0,0,0,0,0,-1,1294,1618,0,0
77,-594,0,0,0,0,0,0,0,0,0,-1,1301,1618,0,0
84,-594,0,0,0,0,0,0,0,0,0,-1,1308,1618,0,0
91,-594,0,0,0,0,0,0,0,0,0,-1,1315,1618,0,0
98,-594,0,0,0,0,0,0,0,0,0,-1,1322,1618,0,0
105,-594,0,0,0,0,0,0,0,0,0,-1,1329,1618,0,0
112,-594,0,0,0,0,0,0,0,0,0,-1,1336,1618,0,0
119,-594,0,0,0,0,0,0,0,0,0,-1,1343,1618,0,0
126,-594,0,0,0,0,0,0,0,0,0,-1,1350,1618,0,0
133,-594,0,0,0,0,0,0,0,0,0,-1,1357,1618,0,0
140,-594,0,0,0,0,0,0,0,0,0,-1,1364,1618,0,0
147,-594,0,0,0,0,0,0,0,0,0,-1,1371,1618,0,0
154,-594,0,0,0,0,0,0,0,0,0,-1,1378,1618,0,0
161,-594,0,0,0,0,0,0,0,0,0,-1,1385,1618,0,0
168,-594,0,0,0,0,0,0,0,0,0,-1,1392,1618,0,0
175,-594,0,0,0,0,0,0,0,0,0,-1,1399,1618,0,0
182,-594,0,0,0,0,0,0,0,0,0,-1,1406,1618,0,0
189,-594,0,0,0,0,0,0,0,0,0,-1,1413,1618,0,0
196,-594,0,0,0,0,0,0,0,0,0,-1,1420,1618,0,0
203,-594,0,0,0,0,0,0,0,0,0,-1,1427,1618,0,0
210,-594,0,0,0,0,0,0,0,0,0,-1,1434,1618,0,0
217,-594,0,0,0,0,0,0,0,0,0,-1,1441,1618,0,0
224,-594,0,0,0,0,0,0,0,0,0,-1,1448,1618,0,0
231,-594,0,0,0,0,0,0,0,0,0,-1,1455,1618,0,0
238,-594,0,0,0,0,0,0,0,0,0,-1,1462,1618,0,0
245,-594,0,0,0,0,0,0,0,0,0,-1,1469,1618,0,0
252,-594,3.03674,1.20996,0,0,0,0,0,0,0,-1,1476,1618,3.0368,-1.20999
259,-594,4.79834,1.53113,0,0,0,0,0,0,0,-1,1483,1618,4.79837,-1.53118
266,-594,3.71606,2.68152,0,0,0,0,0,0,0,-1,1490,1618,3.71609,-2.68149
273,-594,9.7655,6.33557,0,0,0,0,0,0,0,-1,1497,1618,9.76555,-6.33554
280,-594,3.13281,0.911255,0,0,0,0,0,0,0,-1,1504,1618,3.13277,-0.911207
287,-594,4.42749,1.51563,0,0,0,0,0,0,0,-1,1511,1618,4.42747,-1.51564
294,-594,4.86377,2.89954,0,0,0,0,0,0,0,-1,1518,1618,4.8638,-2.89954
301,-594,5.64636,4.41284,0,0,0,0,0,0,0,-1,1525,1618,5.64641,-4.41289
308,-594,5.94922,9.54919,0,0,0,0,0,0,0,-1,1532,1618,5.94926,-9.54917
315,-594,4.8562,9.84619,0,0,0,0,0,0,0,-1,1539,1618,4.85624,-9.84619
322,-594,4.04517,10.1492,0,0,0,0,0,0,0,-1,1546,1618,4.04513,-10.1491
329,-594,4.19861,9.77258,0,0,0,0,0,0,0,-1,1553,1618,4.19865,-9.77264
336,-594,10.1353,4.66528,0,0,0,0,0,0,0,-1,1560,1618,10.1353,-4.66533
343,-594,10.5729,3.71228,0,0,0,0,0,0,0,-1,1567,1618,10.5729,-3.71232
350,-594,10.219,2.98792,0,0,0,0,0,0,0,-1,1574,1618,10.219,-2.98797
357,-594,9.83154,1.96326,0,0,0,0,0,0,0,-1,1581,1618,9.8315,-1.96321
364,-594,9.74939,0.700562,0,0,0,0,0,0,0,-1,1588,1618,9.74939,-0.700615
371,-594,6.37524,10.0662,0,0,0,0,0,0,0,-1,1595,1618,6.37528,-10.0661
378,-594,6.4729,9.88672,0,0,0,0,0,0,0,-1,1602,1618,6.47295,-9.88672
385,-594,6.57056,9.70728,0,0,0,0,0,0,0,-1,1609,1618,6.57061,-9.70732
392,-594,5.96716,10.1526,0,0,0,0,0,0,0,-1,1616,1618,5.96722,-10.1526
399,-594,5.74683,10.2037,-0.00628792,-0.00753987,0.0115242,0.00462727,-0.0184551,0.758266,0.0141012,0.038551,1623,1618,5.74678,-10.2037
406,-594,5.93909,9.97742,-0.00684363,-0.00778455,0.0116666,0.00436202,-0.0189902,0.765246,0.0143371,0.0266778,1630,1618,5.93903,-9.97742
413,-594,5.93274,9.87305,-0.00716162,-0.00754392,0.0111805,0.00382935,-0.0185349,0.776851,0.0138111,0.020668,1637,1618,5.93274,-9.873
420,-594,5.91443,9.77002,-0.00707457,-0.00719221,0.0104193,0.00328608,-0.0175529,0.782576,0.0129371,0.0170432,1644,1618,5.91445,-9.77003
427,-594,5.90906,9.73279,-0.00680955,-0.00673404,0.00967909,0.00290736,-0.016451,0.787349,0.0120539,0.012196,1651,1618,5.9091,-9.73274
434,-594,5.88647,9.60962,-0.00651357,-0.00597944,0.00864318,0.00240079,-0.0148938,0.800843,0.0108186,0.0166229,1658,1618,5.88642,-9.6096
441,-594,5.89746,9.4801,-0.00597279,-0.00517418,0.0074531,0.00189031,-0.0130373,0.81216,0.00938529,0.0161433,1665,1618,5.8975,-9.48012
448,-594,5.93274,9.33826,-0.00526541,-0.00433804,0.00625992,0.00147535,-0.0110788,0.822367,0.00792356,0.0158841,1672,1618,5.93275,-9.3382
455,-594,5.91345,9.20154,-0.0046861,-0.0035169,0.00511691,0.00104869,-0.0092517,0.842276,0.00654543,0.0125176,1679,1618,5.91346,-9.20156
462,-594,5.88745,9.06763,-0.00399742,-0.00252517,0.00390132,0.00070886,-0.00723145,0.878645,0.00507379,0.0140551,1686,1618,5.88747,-9.06761
469,-594,5.89319,8.93933,-0.00322374,-0.00146381,0.00269018,0.000486669,-0.00517421,0.943465,0.00362261,0.011769,1693,1618,5.8932,-8.93938
476,-594,5.89075,8.8103,-0.00249077,-0.000544519,0.00158852,0.000345243,-0.00338054,1.06022,0.00237714,0.0116558,1700,1618,5.89071,-8.8103
483,-594,5.86462,8.6825,-0.00160438,0.000383912,0.000666438,0.000586622,-0.00180709,1.27552,0.00144065,0.0145867,1707,1618,5.86458,-8.6825
490,-594,5.84839,8.53357,-0.000107603,0.0012336,-0.000315052,0.00130392,-0.000177922,-1.3512,0.000934254,0.0128002,1714,1618,5.84836,-8.53356
497,-594,5.87781,8.37817,0.00175413,0.00207527,-0.00164996,0.00357245,0.000256941,-0.833904,0.00230077,0.009743,1721,1618,5.87786,-8.37816
504,-594,5.89502,8.22937,0.00342765,0.00293739,-0.00265199,0.00584581,0.00051923,-0.739313,0.00373618,0.00978397,1728,1618,5.89506,-8.22942
511,-594,5.9054,8.08691,0.00567899,0.00375449,-0.00385954,0.00869442,0.000739058,-0.66323,0.00556631,0.011638,1735,1618,5.90538,-8.08688
518,-594,5.9082,7.91846,0.00871014,0.00436727,-0.00539784,0.0123569,0.000720478,-0.594164,0.00800861,0.0151286,1742,1618,5.90817,-7.91846
525,-594,5.89807,7.75916,0.012867,0.00485436,-0.00735942,0.0172399,0.000481434,-0.53614,0.0113362,0.026868,1749,1618,5.89802,-7.75914
532,-594,5.90735,7.60962,0.0185169,0.00534118,-0.00984946,0.0237786,7.94958e-05,-0.49064,0.015826,0.0443214,1756,1618,5.9074,-7.60963
539,-594,6.48706,7.46753,0.0253194,0.00659487,-0.0130349,0.0320059,-9.15416e-05,-0.473964,0.0213678,0.0487224,1763,1618,6.48708,-7.46749
546,-594,6.94641,7.6239,0,0,0,0,0,0,0,-1,1770,1618,6.94646,-7.62396
553,-594,3.69714,5.68762,0,0,0,0,0,0,0,-1,1777,1618,3.69715,-5.68764
560,-594,6.06616,4.44482,0,0,0,0,0,0,0,-1,1784,1618,6.06621,-4.44477
567,-594,5.97266,4.73303,0,0,0,0,0,0,0,-1,1791,1618,5.97271,-4.73309
574,-594,5.9906,4.96326,0,0,0,0,0,0,0,-1,1798,1618,5.99065,-4.96326
581,-594,0,0,0,0,0,0,0,0,0,-1,1805,1618,0,0
588,-594,0,0,0,0,0,0,0,0,0,-1,1812,1618,0,0
595,-594,0,0,0,0,0,0,0,0,0,-1,1819,1618,0,0
602,-594,0,0,0,0,0,0,0,0,0,-1,1826,1618,0,0
609,-594,0,0,0,0,0,0,0,0,0,-1,1833,1618,0,0
616,-594,0,0,0,0,0,0,0,0,0,-1,1840,1618,0,0
623,-594,0,0,0,0,0,0,0,0,0,-1,1847,1618,0,0
630,-594,0,0,0,0,0,0,0,0,0,-1,1854,1618,0,0
637,-594,0,0,0,0,0,0,0,0,0,-1,1861,1618,0,0
644,-594,0,0,0,0,0,0,0,0,0,-1,1868,1618,0,0
651,-594,0,0,0,0,0,0,0,0,0,-1,1875,1618,0,0
658,-594,0,0,0,0,0,0,0,0,0,-1,1882,1618,0,0
665,-594,0,0,0,0,0,0,0,0,0,-1,1889,1618,0,0
672,-594,0,0,0,0,0,0,0,0,0,-1,1896,1618,0,0
679,-594,0,0,0,0,0,0,0,0,0,-1,1903,1618,0,0
686,-594,0,0,0,0,0,0,0,0,0,-1,1910,1618,0,0
693,-594,0,0,0,0,0,0,0,0,0,-1,1917,1618,0,0
700,-594,0,0,0,0,0,0,0,0,0,-1,1924,1618,0,0
707,-594,0,0,0,0,0,0,0,0,0,-1,1931,1618,0,0
714,-594,0,0,0,0,0,0,0,0,0,-1,1938,1618,0,0
721,-594,0,0,0,0,0,0,0,0,0,-1,1945,1618,0,0
728,-594,0,0,0,0,0,0,0,0,0,-1,1952,1618,0,0
735,-594,0,0,0,0,0,0,0,0,0,-1,1959,1618,0,0
742,-594,0,0,0,0,0,0,0,0,0,-1,1966,1618,0,0
749,-594,0,0,0,0,0,0,0,0,0,-1,1973,1618,0,0
756,-594,0,0,0,0,0,0,0,0,0,-1,1980,1618,0,0
763,-594,0,0,0,0,0,0,0,0,0,-1,1987,1618,0,0
770,-594,0,0,0,0,0,0,0,0,0,-1,1994,1618,0,0
777,-594,0,0,0,0,0,0,0,0,0,-1,2001,1618,0,0
784,-594,0,0,0,0,0,0,0,0,0,-1,2008,1618,0,0
791,-594,0,0,0,0,0,0,0,0,0,-1,2015,1618,0,0
798,-594,0,0,0,0,0,0,0,0,0,-1,2022,1618,0,0
805,-594,0,0,0,0,0,0,0,0,0,-1,2029,1618,0,0
812,-594,0,0,0,0,0,0,0,0,0,-1,2036,1618,0,0
-700,-601,0,0,0,0,0,0,0,0,0,-1,524,1625,0,0
-693,-601,0,0,0,0,0,0,0,0,0,-1,531,1625,0,0
-686,-601,0,0,0,0,0,0,0,0,0,-1,538,1625,0,0
-679,-601,0,0,0,0,0,0,0,0,0,-1,545,1625,0,0
-672,-601,0,0,0,0,0,0,0,0,0,-1,552,1625,0,0
-665,-601,0,0,0,0,0,0,0,0,0,-1,559,1625,0,0
-658,-601,0,0,0,0,0,0,0,0,0,-1,566,1625,0,0
-651,-601,0,0,0,0,0,0,0,0,0,-1,573,1625,0,0
-644,-601,0,0,0,0,0,0,0,0,0,-1,580,1625,0,0
-637,-601,0,0,0,0,0,0,0,0,0,-1,587,1625,0,0
-630,-601,0,0,0,0,0,0,0,0,0,-1,594,1625,0,0
-623,-601,0,0,0,0,0,0,0,0,0,-1,601,1625,0,0
-616,-601,0,0,0,0,0,0,0,0,0,-1,608,1625,0,0
-609,-601,0,0,0,0,0,0,0,0,0,-1,615,1625,0,0
-602,-601,0,0,0,0,0,0,0,0,0,-1,622,1625,0,0
-595,-601,0,0,0,0,0,0,0,0,0,-1,629,1625,0,0
-588,-601,0,0,0,0,0,0,0,0,0,-1,636,1625,0,0
-581,-601,0,0,0,0,0,0,0,0,0,-1,643,1625,0,0
-574,-601,0,0,0,0,0,0,0,0,0,-1,650,1625,0,0
-567,-601,0,0,0,0,0,0,0,0,0,-1,657,1625,0,0
-560,-601,0,0,0,0,0,0,0,0,0,-1,664,1625,0,0
-553,-601,0,0,0,0,0,0,0,0,0,-1,671,1625,0,0
-546,-601,0,0,0,0,0,0,0,0,0,-1,678,1625,0,0
-539,-601,0,0,0,0,0,0,0,0,0,-1,685,1625,0,0
-532,-601,0,0,0,0,0,0,0,0,0,-1,692,1625,0,0
-525,-601,0,0,0,0,0,0,0,0,0,-1,699,1625,0,0
-518,-601,0,0,0,0,0,0,0,0,0,-1,706,1625,0,0
-511,-601,0,0,0,0,0,0,0,0,0,-1,713,1625,0,0
-504,-601,0,0,0,0,0,0,0,0,0,-1,720,1625,0,0
-497,-601,0,0,0,0,0,0,0,0,0,-1,727,1625,0,0
-490,-601,0,0,0,0,0,0,0,0,0,-1,734,1625,0,0
-483,-601,0,0,0,0,0,0,0,0,0,-1,741,1625,0,0
-476,-601,0,0,0,0,0,0,0,0,0,-1,748,1625,0,0
-469,-601,0,0,0,0,0,0,0,0,0,-1,755,1625,0,0
-462,-601,0,0,0,0,0,0,0,0,0,-1,762,1625,0,0
-455,-601,0,0,0,0,0,0,0,0,0,-1,769,1625,0,0
-448,-601,-7.07623,2.7616,0,0,0,0,0,0,0,-1,776,1625,-7.07626,-2.76161
-441,-601,-6.06689,3.33447,0,0,0,0,0,0,0,-1,783,1625,-6.06691,-3.33448
-434,-601,-5.02655,3.8468,0,0,0,0,0,0,0,-1,790,1625,-5.02657,-3.84674
-427,-601,-4.02283,4.48096,0,0,0,0,0,0,0,-1,797,1625,-4.02281,-4.48101
-420,-601,-3.30377,5.29541,0,0,0,0,0,0,0,-1,804,1625,-3.30375,-5.29542
-413,-601,-2.62531,5.8894,0,0,0,0,0,0,0,-1,811,1625,-2.62529,-5.88946
-406,-601,-1.82037,6.56201,0,0,0,0,0,0,0,-1,818,1625,-1.82038,-6.56201
-399,-601,2.01349,6.38843,0,0,0,0,0,0,0,-1,825,1625,2.01349,-6.38843
-392,-601,2.11023,6.62866,-0.00585969,0.0248826,-0.0230956,0.0372545,-0.0182316,-1.07901,0.0326565,0.0499239,832,1625,2.11024,-6.62865
-385,-601,2.15448,6.88599,-0.00592883,0.0186704,-0.0199426,0.0298013,-0.0170597,-1.06172,0.0273865,0.0450106,839,1625,2.15446,-6.88598
-378,-601,1.96155,6.98132,-0.00539386,0.0143275,-0.0160567,0.0233096,-0.0143759,-1.06077,0.0219606,0.0317502,846,1625,1.96156,-6.98132
-371,-601,1.90576,7.08362,-0.00466093,0.0104997,-0.0124771,0.0175187,-0.0116799,-1.05837,0.0169698,0.0145702,853,1625,1.90573,-7.08358
-364,-601,1.92871,7.23267,-0.00392002,0.00736517,-0.00947818,0.0127532,-0.00930805,-1.05389,0.0127887,0.0100506,860,1625,1.92868,-7.2327
-357,-601,1.92389,7.41052,-0.00307888,0.00493727,-0.00692016,0.00892628,-0.00706789,-1.04789,0.00925499,0.00964141,867,1625,1.9239,-7.41046
-350,-601,1.93622,7.62683,-0.00216317,0.00310879,-0.00476424,0.00591766,-0.00497204,-1.03808,0.00629506,0.0199572,874,1625,1.93623,-7.62679
-343,-601,1.9223,7.80017,-0.00134823,0.00182191,-0.00313124,0.00374641,-0.00327273,-1.0197,0.00405558,0.01902,881,1625,1.92228,-7.8002
-336,-601,1.89136,7.92017,-0.000439482,0.000680121,-0.00155495,0.00177297,-0.00153233,-0.958181,0.00191,0.0148255,888,1625,1.89134,-7.92013
-329,-601,1.90607,8.06738,0.000392001,-1.83785e-05,-0.000423185,0.000657118,-0.000283495,-0.559663,0.000557161,0.0128971,895,1625,1.90604,-8.06741
-322,-601,1.92932,8.23315,0.00118808,-0.000643281,0.000319863,0.00124234,-0.00069754,0.168033,0.00113462,0.0116728,902,1625,1.92933,-8.23317
-315,-601,1.92053,8.35547,0.00171034,-0.00089365,0.00063538,0.00185711,-0.00104041,0.227003,0.00169489,0.0121526,909,1625,1.92056,-8.35546
-308,-601,1.92975,8.49976,0.00199981,-0.00137756,0.000805277,0.00218199,-0.00155974,0.222484,0.00217023,0.0116252,916,1625,1.92972,-8.49974
-301,-601,1.94458,8.65625,0.00221581,-0.00211692,0.000995078,0.00243341,-0.00233452,0.215294,0.00275297,0.00958975,923,1625,1.94456,-8.65625
-294,-601,1.95538,8.797,0.00254649,-0.00302032,0.00122623,0.00280463,-0.00327846,0.207484,0.00351562,0.0085539,930,1625,1.95536,-8.79699
-287,-601,1.94092,8.93921,0.00281514,-0.00370688,0.0015433,0.00316189,-0.00405364,0.221013,0.00417648,0.00859358,937,1625,1.94092,-8.93923
-280,-601,1.9411,9.08643,0.00287877,-0.00473272,0.00168932,0.00323686,-0.00509081,0.20888,0.00484753,0.00949697,944,1625,1.94111,-9.08642
-273,-601,1.95795,9.21924,0.00285374,-0.00610273,0.0016356,0.00314308,-0.00639207,0.175091,0.00561063,0.0100038,951,1625,1.95796,-9.21926
-266,-601,1.96606,9.35217,0.00277852,-0.00752427,0.00169764,0.00305105,-0.00779679,0.159171,0.00645969,0.0125563,958,1625,1.96605,-9.35223
-259,-601,1.97382,9.39575,0.00262877,-0.00898104,0.00151447,0.00282307,-0.00917535,0.127603,0.00724368,0.0240972,965,1625,1.97382,-9.39572
-252,-601,1.86908,9.3999,0.00262381,-0.010638,0.0012101,0.00273333,-0.0107475,0.0902535,0.00822886,0.0430051,972,1625,1.8691,-9.39996
-245,-601,1.68903,9.46741,0.00294048,-0.0126938,0.000445916,0.00295319,-0.0127065,0.0284908,0.00960791,0.0455472,979,1625,1.68903,-9.4674
-238,-601,1.59753,9.49451,0,0,0,0,0,0,0,-1,986,1625,1.59751,-9.49451
-231,-601,2.62689,9.79712,0,0,0,0,0,0,0,-1,993,1625,2.62692,-9.79714
-224,-601,5.13934,13.0479,0,0,0,0,0,0,0,-1,1000,1625,5.13935,-13.0479
-217,-601,3.39429,10.3898,0,0,0,0,0,0,0,-1,1007,1625,3.39431,-10.3898
-210,-601,2.92413,9.79773,0,0,0,0,0,0,0,-1,1014,1625,2.92411,-9.79773
-203,-601,-0.188416,9.27478,0,0,0,0,0,0,0,-1,1021,1625,-0.188444,-9.27478
-196,-601,-0.918457,10.733,0,0,0,0,0,0,0,-1,1028,1625,-0.9185,-10.733
-189,-601,0.159912,10.6331,0,0,0,0,0,0,0,-1,1035,1625,0.159904,-10.633
-182,-601,-0.617554,10.3523,0.0685946,0.0232411,-0.0628603,0.112743,-0.0209077,-0.612289,0.0830138,0.045631,1042,1625,-0.617509,-10.3523
-175,-601,-0.626099,9.68311,0,0,0,0,0,0,0,-1,1049,1625,-0.626092,-9.68306
-168,-601,-0.600098,8.99219,0,0,0,0,0,0,0,-1,1056,1625,-0.600145,-8.99216
-161,-601,-4.39587,11.1855,0,0,0,0,0,0,0,-1,1063,1625,-4.39584,-11.1856
-154,-601,-5.76953,11.7451,0,0,0,0,0,0,0,-1,1070,1625,-5.76957,-11.7452
-147,-601,1.3042,8.34778,0,0,0,0,0,0,0,-1,1077,1625,1.30421,-8.34775
-140,-601,2.32104,10.0375,0.141188,0.0579852,0.0733952,0.183952,0.0152212,0.527568,0.117889,0.0463003,1084,1625,2.32101,-10.0374
-133,-601,3.20093,11.7296,0.148508,0.0652909,0.100471,0.215645,-0.00184651,0.589083,0.144383,0.0496216,1091,1625,3.20098,-11.7296
-126,-601,3.97852,13.442,0,0,0,0,0,0,0,-1,1098,1625,3.97855,-13.442
-119,-601,1.22485,9.43457,0,0,0,0,0,0,0,-1,1105,1625,1.22489,-9.43456
-112,-601,0,0,0,0,0,0,0,0,0,-1,1112,1625,0,0
-105,-601,0,0,0,0,0,0,0,0,0,-1,1119,1625,0,0
-98,-601,0,0,0,0,0,0,0,0,0,-1,1126,1625,0,0
-91,-601,0,0,0,0,0,0,0,0,0,-1,1133,1625,0,0
-84,-601,0,0,0,0,0,0,0,0,0,-1,1140,1625,0,0
-77,-601,0,0,0,0,0,0,0,0,0,-1,1147,1625,0,0
-70,-601,0,0,0,0,0,0,0,0,0,-1,1154,1625,0,0
-63,-601,0,0,0,0,0,0,0,0,0,-1,1161,1625,0,0
-56,-601,0,0,0,0,0,0,0,0,0,-1,1168,1625,0,0
-49,-601,0,0,0,0,0,0,0,0,0,-1,1175,1625,0,0
-42,-601,0,0,0,0,0,0,0,0,0,-1,1182,1625,0,0
-35,-601,0,0,0,0,0,0,0,0,0,-1,1189,1625,0,0
-28,-601,0,0,0,0,0,0,0,0,0,-1,1196,1625,0,0
-21,-601,0,0,0,0,0,0,0,0,0,-1,1203,1625,0,0
-14,-601,0,0,0,0,0,0,0,0,0,-1,1210,1625,0,0
-7,-601,0,0,0,0,0,0,0,0,0,-1,1217,1625,0,0
0,-601,0,0,0,0,0,0,0,0,0,-1,1224,1625,0,0
7,-601,0,0,0,0,0,0,0,0,0,-1,1231,1625,0,0
14,-601,0,0,0,0,0,0,0,0,0,-1,1238,1625,0,0
21,-601,0,0,0,0,0,0,0,0,0,-1,1245,1625,0,0
28,-601,0,0,0,0,0,0,0,0,0,-1,1252,1625,0,0
35,-601,0,0,0,0,0,0,0,0,0,-1,1259,1625,0,0
42,-601,0,0,0,0,0,0,0,0,0,-1,1266,1625,0,0
49,-601,0,0,0,0,0,0,0,0,0,-1,1273,1625,0,0
56,-601,0,0,0,0,0,0,0,0,0,-1,1280,1625,0,0
63,-601,0,0,0,0,0,0,0,0,0,-1,1287,1625,0,0
70,-601,0,0,0,0,0,0,0,0,0,-1,1294,1625,0,0
77,-601,0,0,0,0,0,0,0,0,0,-1,1301,1625,0,0
84,-601,0,0,0,0,0,0,0,0,0,-1,1308,1625,0,0
91,-601,0,0,0,0,0,0,0,0,0,-1,1315,1625,0,0
98,-601,0,0,0,0,0,0,0,0,0,-1,1322,1625,0,0
105,-601,0,0,0,0,0,0,0,0,0,-1,1329,1625,0,0
112,-601,0,0,0,0,0,0,0,0,0,-1,1336,1625,0,0
119,-601,0,0,0,0,0,0,0,0,0,-1,1343,1625,0,0
126,-601,0,0,0,0,0,0,0,0,0,-1,1350,1625,0,0
133,-601,0,0,0,0,0,0,0,0,0,-1,1357,1625,0,0
140,-601,0,0,0,0,0,0,0,0,0,-1,1364,1625,0,0
147,-601,0,0,0,0,0,0,0,0,0,-1,1371,1625,0,0
154,-601,0,0,0,0,0,0,0,0,0,-1,1378,1625,0,0
161,-601,0,0,0,0,0,0,0,0,0,-1,1385,1625,0,0
168,-601,0,0,0,0,0,0,0,0,0,-1,1392,1625,0,0
175,-601,0,0,0,0,0,0,0,0,0,-1,1399,1625,0,0
182,-601,0,0,0,0,0,0,0,0,0,-1,1406,1625,0,0
189,-601,0,0,0,0,0,0,0,0,0,-1,1413,1625,0,0
196,-601,0,0,0,0,0,0,0,0,0,-1,1420,1625,0,0
203,-601,0,0,0,0,0,0,0,0,0,-1,1427,1625,0,0
210,-601,0,0,0,0,0,0,0,0,0,-1,1434,1625,0,0
217,-601,0,0,0,0,0,0,0,0,0,-1,1441,1625,0,0
224,-601,0,0,0,0,0,0,0,0,0,-1,1448,1625,0,0
231,-601,-0.0371094,0.525879,0,0,0,0,0,0,0,-1,1455,1625,-0.0371518,-0.525824
238,-601,2.03369,-1.32861,0,0,0,0,0,0,0,-1,1462,1625,2.03364,1.32858
245,-601,2.71375,2.44983,0,0,0,0,0,0,0,-1,1469,1625,2.71371,-2.44979
252,-601,4.66943,2.28381,0,0,0,0,0,0,0,-1,1476,1625,4.66947,-2.28376
259,-601,6.42712,2.61987,0,0,0,0,0,0,0,-1,1483,1625,6.42711,-2.61985
266,-601,6.75317,1.68701,0,0,0,0,0,0,0,-1,1490,1625,6.75323,-1.687
273,-601,5.4314,2.92053,0,0,0,0,0,0,0,-1,1497,1625,5.43144,-2.92051
280,-601,4.64722,1.17786,0,0,0,0,0,0,0,-1,1504,1625,4.64722,-1.1779
287,-601,5.32532,2.6217,0,0,0,0,0,0,0,-1,1511,1625,5.32535,-2.62171
294,-601,5.97693,4.22693,0,0,0,0,0,0,0,-1,1518,1625,5.97697,-4.22694
301,-601,7.28162,9.50024,0,0,0,0,0,0,0,-1,1525,1625,7.28162,-9.50025
308,-601,6.49609,9.82935,0,0,0,0,0,0,0,-1,1532,1625,6.49608,-9.82933
315,-601,5.60803,10.1488,0,0,0,0,0,0,0,-1,1539,1625,5.60806,-10.1488
322,-601,4.57397,10.6179,-0.0197471,-0.0503143,-0.0478525,0.0152033,-0.0852647,-0.630824,0.06253,0.0452276,1546,1625,4.57401,-10.618
329,-601,4.41541,10.1362,-0.0164247,-0.045529,-0.0448182,0.0161447,-0.0780983,-0.628421,0.0581984,0.0466918,1553,1625,4.41543,-10.1362
336,-601,4.67847,9.53308,0,0,0,0,0,0,0,-1,1560,1625,4.67848,-9.53309
343,-601,11.1404,3.14575,0,0,0,0,0,0,0,-1,1567,1625,11.1404,-3.1458
350,-601,10.9462,2.37769,0,0,0,0,0,0,0,-1,1574,1625,10.9461,-2.37764
357,-601,10.7518,1.6095,0,0,0,0,0,0,0,-1,1581,1625,10.7518,-1.60948
364,-601,5.33643,9.74426,0,0,0,0,0,0,0,-1,1588,1625,5.33637,-9.74429
371,-601,5.47412,10.6948,0,0,0,0,0,0,0,-1,1595,1625,5.47412,-10.6949
378,-601,6.10413,10.2174,0,0,0,0,0,0,0,-1,1602,1625,6.10407,-10.2173
385,-601,5.83984,10.3733,0,0,0,0,0,0,0,-1,1609,1625,5.83984,-10.3733
392,-601,5.79102,10.2509,-0.00172195,-0.00553099,0.00623669,0.00289453,-0.0101475,0.637208,0.00790841,0.0438839,1616,1625,5.79104,-10.2508
399,-601,5.70923,10.1801,-0.00249338,-0.00575602,0.00670346,0.00277441,-0.0110238,0.666041,0.00842763,0.0198905,1623,1625,5.70922,-10.1801
406,-601,5.79358,10.0333,-0.00301337,-0.00598505,0.00690426,0.00256313,-0.0115615,0.679411,0.00868901,0.0139045,1630,1625,5.79354,-10.0333
413,-601,5.77954,9.93652,-0.0034092,-0.00560216,0.00666476,0.00224867,-0.01126,0.703869,0.0083577,0.0125198,1637,1625,5.77953,-9.9365
420,-601,5.7467,9.87183,-0.00359093,-0.00505649,0.00625554,0.00197461,-0.010622,0.727093,0.00782306,0.0110471,1644,1625,5.74665,-9.87188
427,-601,5.76013,9.76416,-0.0037582,-0.00445415,0.00597883,0.00188278,-0.0100951,0.75633,0.00743754,0.0155413,1651,1625,5.76018,-9.76414
434,-601,5.76709,9.62415,-0.00393802,-0.00365017,0.00548812,0.00169592,-0.0092841,0.798508,0.00682531,0.0156019,1658,1625,5.76703,-9.62411
441,-601,5.78833,9.4635,-0.00394139,-0.00280545,0.00485904,0.0015187,-0.00826554,0.843579,0.00608015,0.017346,1665,1625,5.78831,-9.46354
448,-601,5.79089,9.33118,-0.00379258,-0.00200533,0.00417999,0.00137549,-0.00717339,0.890706,0.00530058,0.0146805,1672,1625,5.79086,-9.3312
455,-601,5.78894,9.20361,-0.00374718,-0.00124708,0.00350906,0.00122793,-0.0062222,0.956507,0.00461226,0.0127882,1679,1625,5.78896,-9.20355
462,-601,5.77783,9.06458,-0.00357806,-0.000369866,0.0026983,0.00116513,-0.00511306,1.05358,0.00385621,0.0111623,1686,1625,5.77783,-9.06454
469,-601,5.76831,8.93542,-0.00328529,0.000493235,0.00181404,0.00122314,-0.0040152,1.18825,0.00316432,0.0107642,1693,1625,5.76831,-8.93543
476,-601,5.76587,8.81396,-0.00299894,0.00120297,0.000969442,0.00141585,-0.00321182,1.35464,0.00273803,0.0132779,1700,1625,5.76586,-8.81401
483,-601,5.73071,8.6792,-0.00246366,0.00181343,0.000184915,0.00182141,-0.00247164,1.52767,0.00248805,0.0162838,1707,1625,5.73075,-8.67916
490,-601,5.71973,8.54187,-0.00118502,0.00232779,-0.000768433,0.00248853,-0.00134576,-1.36459,0.00224626,0.0117433,1714,1625,5.71977,-8.54186
497,-601,5.76306,8.38232,0.000569533,0.00289471,-0.00218967,0.00421128,-0.000747041,-1.02945,0.00308682,0.00971871,1721,1625,5.76308,-8.38235
504,-601,5.77832,8.20898,0.00230305,0.00343054,-0.00334548,0.00625944,-0.000525848,-0.868869,0.00435883,0.0129151,1728,1625,5.77827,-8.20903
511,-601,5.76746,8.06335,0.00485983,0.00396712,-0.00483119,0.00926524,-0.000438286,-0.739334,0.00632798,0.0224996,1735,1625,5.76746,-8.0633
518,-601,5.65222,7.83862,0.00848712,0.00444454,-0.00680117,0.013561,-0.000629345,-0.640956,0.00925759,0.0338458,1742,1625,5.65221,-7.83861
525,-601,5.58521,7.67017,0.0136784,0.00504332,-0.00944137,0.0197426,-0.0010209,-0.570945,0.0135149,0.0433253,1749,1625,5.58527,-7.67021
532,-601,5.75061,7.6543,0,0,0,0,0,0,0,-1,1756,1625,5.75059,-7.65435
539,-601,6.79712,7.40979,0,0,0,0,0,0,0,-1,1763,1625,6.79707,-7.40984
546,-601,6.56873,3.62354,0,0,0,0,0,0,0,-1,1770,1625,6.56867,-3.62352
553,-601,7.03015,4.25049,0,0,0,0,0,0,0,-1,1777,1625,7.03011,-4.25048
560,-601,7.50745,4.83374,0,0,0,0,0,0,0,-1,1784,1625,7.50744,-4.83376
567,-601,7.82043,3.83301,0,0,0,0,0,0,0,-1,1791,1625,7.82041,-3.83303
574,-601,0,0,0,0,0,0,0,0,0,-1,1798,1625,0,0
581,-601,0,0,0,0,0,0,0,0,0,-1,1805,1625,0,0
588,-601,0,0,0,0,0,0,0,0,0,-1,1812,1625,0,0
595,-601,0,0,0,0,0,0,0,0,0,-1,1819,1625,0,0
602,-601,0,0,0,0,0,0,0,0,0,-1,1826,1625,0,0
609,-601,0,0,0,0,0,0,0,0,0,-1,1833,1625,0,0
616,-601,0,0,0,0,0,0,0,0,0,-1,1840,1625,0,0
623,-601,0,0,0,0,0,0,0,0,0,-1,1847,1625,0,0
630,-601,0,0,0,0,0,0,0,0,0,-1,1854,1625,0,0
637,-601,0,0,0,0,0,0,0,0,0,-1,1861,1625,0,0
644,-601,0,0,0,0,0,0,0,0,0,-1,1868,1625,0,0
651,-601,0,0,0,0,0,0,0,0,0,-1,1875,1625,0,0
658,-601,0,0,0,0,0,0,0,0,0,-1,1882,1625,0,0
665,-601,0,0,0,0,0,0,0,0,0,-1,1889,1625,0,0
672,-601,0,0,0,0,0,0,0,0,0,-1,1896,1625,0,0
679,-601,0,0,0,0,0,0,0,0,0,-1,1903,1625,0,0
686,-601,0,0,0,0,0,0,0,0,0,-1,1910,1625,0,0
693,-601,0,0,0,0,0,0,0,0,0,-1,1917,1625,0,0
700,-601,0,0,0,0,0,0,0,0,0,-1,1924,1625,0,0
707,-601,0,0,0,0,0,0,0,0,0,-1,1931,1625,0,0
714,-601,0,0,0,0,0,0,0,0,0,-1,1938,1625,0,0
721,-601,0,0,0,0,0,0,0,0,0,-1,1945,1625,0,0
728,-601,0,0,0,0,0,0,0,0,0,-1,1952,1625,0,0
735,-601,0,0,0,0,0,0,0,0,0,-1,1959,1625,0,0
742,-601,0,0,0,0,0,0,0,0,0,-1,1966,1625,0,0
749,-601,0,0,0,0,0,0,0,0,0,-1,1973,1625,0,0
756,-601,0,0,0,0,0,0,0,0,0,-1,1980,1625,0,0
763,-601,0,0,0,0,0,0,0,0,0,-1,1987,1625,0,0
770,-601,0,0,0,0,0,0,0,0,0,-1,1994,1625,0,0
777,-601,0,0,0,0,0,0,0,0,0,-1,2001,1625,0,0
784,-601,0,0,0,0,0,0,0,0,0,-1,2008,1625,0,0
791,-601,0,0,0,0,0,0,0,0,0,-1,2015,1625,0,0
798,-601,0,0,0,0,0,0,0,0,0,-1,2022,1625,0,0
805,-601,0,0,0,0,0,0,0,0,0,-1,2029,1625,0,0
812,-601,0,0,0,0,0,0,0,0,0,-1,2036,1625,0,0
-700,-608,0,0,0,0,0,0,0,0,0,-1,524,1632,0,0
-693,-608,0,0,0,0,0,0,0,0,0,-1,531,1632,0,0
-686,-608,0,0,0,0,0,0,0,0,0,-1,538,1632,0,0
-679,-608,0,0,0,0,0,0,0,0,0,-1,545,1632,0,0
-672,-608,0,0,0,0,0,0,0,0,0,-1,552,1632,0,0
-665,-608,0,0,0,0,0,0,0,0,0,-1,559,1632,0,0
-658,-608,0,0,0,0,0,0,0,0,0,-1,566,1632,0,0
-651,-608,0,0,0,0,0,0,0,0,0,-1,573,1632,0,0
-644,-608,0,0,0,0,0,0,0,0,0,-1,580,1632,0,0
-637,-608,0,0,0,0,0,0,0,0,0,-1,587,1632,0,0
-630,-608,0,0,0,0,0,0,0,0,0,-1,594,1632,0,0
-623,-608,0,0,0,0,0,0,0,0,0,-1,601,1632,0,0
-616,-608,0,0,0,0,0,0,0,0,0,-1,608,1632,0,0
-609,-608,0,0,0,0,0,0,0,0,0,-1,615,1632,0,0
-602,-608,0,0,0,0,0,0,0,0,0,-1,622,1632,0,0
-595,-608,0,0,0,0,0,0,0,0,0,-1,629,1632,0,0
-588,-608,0,0,0,0,0,0,0,0,0,-1,636,1632,0,0
-581,-608,0,0,0,0,0,0,0,0,0,-1,643,1632,0,0
-574,-608,0,0,0,0,0,0,0,0,0,-1,650,1632,0,0
-567,-608,0,0,0,0,0,0,0,0,0,-1,657,1632,0,0
-560,-608,0,0,0,0,0,0,0,0,0,-1,664,1632,0,0
-553,-608,0,0,0,0,0,0,0,0,0,-1,671,1632,0,0
-546,-608,0,0,0,0,0,0,0,0,0,-1,678,1632,0,0
-539,-608,0,0,0,0,0,0,0,0,0,-1,685,1632,0,0
-532,-608,0,0,0,0,0,0,0,0,0,-1,692,1632,0,0
-525,-608,0,0,0,0,0,0,0,0,0,-1,699,1632,0,0
-518,-608,0,0,0,0,0,0,0,0,0,-1,706,1632,0,0
-511,-608,0,0,0,0,0,0,0,0,0,-1,713,1632,0,0
-504,-608,0,0,0,0,0,0,0,0,0,-1,720,1632,0,0
-497,-608,0,0,0,0,0,0,0,0,0,-1,727,1632,0,0
-490,-608,0,0,0,0,0,0,0,0,0,-1,734,1632,0,0
-483,-608,0,0,0,0,0,0,0,0,0,-1,741,1632,0,0
-476,-608,0,0,0,0,0,0,0,0,0,-1,748,1632,0,0
-469,-608,0,0,0,0,0,0,0,0,0,-1,755,1632,0,0
-462,-608,0,0,0,0,0,0,0,0,0,-1,762,1632,0,0
-455,-608,0,0,0,0,0,0,0,0,0,-1,769,1632,0,0
-448,-608,0,0,0,0,0,0,0,0,0,-1,776,1632,0,0
-441,-608,-7.34601,2.78052,0,0,0,0,0,0,0,-1,783,1632,-7.346,-2.78056
-434,-608,-6.34558,3.27405,0,0,0,0,0,0,0,-1,790,1632,-6.34555,-3.27406
-427,-608,-5.05603,3.92859,0,0,0,0,0,0,0,-1,797,1632,-5.05602,-3.92857
-420,-608,-3.84589,4.5249,0,0,0,0,0,0,0,-1,804,1632,-3.8459,-4.52494
-413,-608,-4.56964,4.09717,0,0,0,0,0,0,0,-1,811,1632,-4.56966,-4.09723
-406,-608,-1.37885,2.32397,0,0,0,0,0,0,0,-1,818,1632,-1.37883,-2.324
-399,-608,-2.31787,6.57324,0,0,0,0,0,0,0,-1,825,1632,-2.31784,-6.57323
-392,-608,2.36682,6.72473,0,0,0,0,0,0,0,-1,832,1632,2.36685,-6.72475
-385,-608,2.78583,7.28308,0,0,0,0,0,0,0,-1,839,1632,2.78584,-7.28303
-378,-608,2.51117,7.32813,-0.00737907,0.0241317,-0.0255316,0.0383779,-0.0216252,-1.06185,0.03509,0.0458604,846,1632,2.51115,-7.32808
-371,-608,2.08575,7.08545,-0.00637206,0.0181341,-0.0199207,0.0292685,-0.0175064,-1.06112,0.0272886,0.0370547,853,1632,2.08574,-7.08547
-364,-608,2.07935,7.19592,-0.00561308,0.0132001,-0.015136,0.0216143,-0.0140274,-1.06343,0.0207326,0.014914,860,1632,2.07934,-7.19588
-357,-608,2.06927,7.39331,-0.00475893,0.00923806,-0.0110505,0.0153198,-0.0108407,-1.06768,0.0151774,0.0124184,867,1632,2.0693,-7.39333
-350,-608,2.08954,7.56592,-0.00383419,0.00621668,-0.0076743,0.0103646,-0.00798208,-1.07528,0.0106222,0.0180879,874,1632,2.08955,-7.56589
-343,-608,2.09406,7.73828,-0.00305738,0.00406674,-0.00517619,0.00678808,-0.00577873,-1.08677,0.00726325,0.0200931,881,1632,2.09403,-7.73832
-336,-608,2.07031,7.9082,-0.00217007,0.00217218,-0.0028552,0.00358797,-0.00358586,-1.11046,0.00414181,0.0126861,888,1632,2.07033,-7.90826
-329,-608,2.06067,8.05823,-0.00136784,0.00100225,-0.0012243,0.0015211,-0.00188669,-1.16995,0.00197126,0.0117338,895,1632,2.06068,-8.05827
-322,-608,2.05121,8.21033,-0.000598379,2.8441e-05,-0.000203639,8.87886e-05,-0.000658727,-1.2827,0.000471542,0.0129066,902,1632,2.05121,-8.21032
-315,-608,2.07971,8.36035,-2.77651e-05,-0.000123167,8.31898e-05,2.04294e-05,-0.000171361,0.525083,0.000121624,0.0119189,909,1632,2.07974,-8.3604
-308,-608,2.08057,8.50525,0.000359414,-0.000517646,0.000232321,0.000417152,-0.000575384,0.24359,0.000575463,0.0122139,916,1632,2.08058,-8.5052
-301,-608,2.09265,8.65552,0.000712136,-0.00118454,0.000399899,0.000793004,-0.0012654,0.19953,0.00119881,0.00992794,923,1632,2.09263,-8.65546
-294,-608,2.09662,8.80737,0.00119453,-0.00197206,0.000602251,0.00130521,-0.00208274,0.181739,0.00197313,0.0088607,930,1632,2.09664,-8.80743
-287,-608,2.07874,8.94434,0.00162336,-0.00256693,0.00087327,0.00179806,-0.00274164,0.197455,0.0026398,0.00884278,937,1632,2.07876,-8.94438
-280,-608,2.07562,9.07898,0.00187098,-0.00343917,0.00098502,0.00204781,-0.003616,0.177627,0.00331152,0.00808819,944,1632,2.07565,-9.07899
-273,-608,2.07623,9.22925,0.00205202,-0.00462085,0.000911314,0.00217424,-0.00474307,0.133318,0.00408447,0.00863792,951,1632,2.07626,-9.22922
-266,-608,2.09802,9.37659,0.0021522,-0.00572667,0.00092526,0.0022594,-0.00583387,0.115345,0.00482217,0.00890026,958,1632,2.09804,-9.37662
-259,-608,2.10687,9.48059,0.0020533,-0.00685007,0.000728905,0.00211258,-0.00690934,0.0811483,0.00544869,0.0115346,965,1632,2.10686,-9.48056
-252,-608,2.06659,9.61218,0.0020213,-0.00815414,0.00041606,0.00203828,-0.00817112,0.0407978,0.00623884,0.0228985,972,1632,2.06657,-9.61221
-245,-608,2.17157,9.97986,0.0023536,-0.00978032,-0.000304953,0.00236126,-0.00978798,-0.0251111,0.0074384,0.0350216,979,1632,2.17159,-9.97983
-238,-608,2.43713,10.229,0.00412251,-0.0106894,-0.0033353,0.0048389,-0.0114058,-0.211574,0.00963092,0.041162,986,1632,2.43713,-10.2291
-231,-608,2.18695,9.93652,0,0,0,0,0,0,0,-1,993,1632,2.18697,-9.93656
-224,-608,1.93433,9.43567,0,0,0,0,0,0,0,-1,1000,1632,1.93435,-9.43566
-217,-608,3.67822,10.219,0,0,0,0,0,0,0,-1,1007,1632,3.67825,-10.2189
-210,-608,0.861633,8.77087,0,0,0,0,0,0,0,-1,1014,1632,0.861629,-8.77082
-203,-608,-0.975952,10.8046,0,0,0,0,0,0,0,-1,1021,1632,-0.97595,-10.8046
-196,-608,0.127441,10.5931,0,0,0,0,0,0,0,-1,1028,1632,0.12749,-10.5932
-189,-608,1.03394,10.345,0.048486,0.00449356,-0.0587698,0.089241,-0.0362614,-0.606329,0.0745799,0.0439122,1035,1632,1.03399,-10.345
-182,-608,1.10669,10.2781,0.0605406,0.00854164,-0.0495289,0.0904794,-0.0213971,-0.5437,0.0685739,0.0438914,1042,1632,1.10666,-10.2781
-175,-608,1.23792,9.85022,0,0,0,0,0,0,0,-1,1049,1632,1.23792,-9.85021
-168,-608,1.13831,10.4353,0,0,0,0,0,0,0,-1,1056,1632,1.13828,-10.4353
-161,-608,-2.6637,12.158,0,0,0,0,0,0,0,-1,1063,1632,-2.66372,-12.1579
-154,-608,2.94531,9.45898,0,0,0,0,0,0,0,-1,1070,1632,2.94527,-9.45899
-147,-608,2.15784,8.46387,0,0,0,0,0,0,0,-1,1077,1632,2.15785,-8.46393
-140,-608,2.81201,9.77197,0.119367,0.0408587,0.0660284,0.156928,0.00329722,0.517214,0.103537,0.0493546,1084,1632,2.81201,-9.77199
-133,-608,3.51428,11.2786,0.124958,0.0493018,0.0900136,0.184769,-0.0105094,0.586479,0.126828,0.0466967,1091,1632,3.51424,-11.2786
-126,-608,4.16882,12.9714,0.124202,0.0628731,0.110514,0.208227,-0.0211515,0.650066,0.146379,0.0444138,1098,1632,4.16886,-12.9714
-119,-608,4.64319,14.5194,0,0,0,0,0,0,0,-1,1105,1632,4.64314,-14.5194
-112,-608,0.745117,10.5587,0,0,0,0,0,0,0,-1,1112,1632,0.745145,-10.5587
-105,-608,-0.252319,1.42419,0,0,0,0,0,0,0,-1,1119,1632,-0.252331,-1.42418
-98,-608,-1.67896,0.994629,0,0,0,0,0,0,0,-1,1126,1632,-1.67895,-0.994599
-91,-608,-2.99451,0.744629,0,0,0,0,0,0,0,-1,1133,1632,-2.99453,-0.744605
-84,-608,0,0,0,0,0,0,0,0,0,-1,1140,1632,0,0
-77,-608,0,0,0,0,0,0,0,0,0,-1,1147,1632,0,0
-70,-608,0,0,0,0,0,0,0,0,0,-1,1154,1632,0,0
-63,-608,0,0,0,0,0,0,0,0,0,-1,1161,1632,0,0
-56,-608,0,0,0,0,0,0,0,0,0,-1,1168,1632,0,0
-49,-608,0,0,0,0,0,0,0,0,0,-1,1175,1632,0,0
-42,-608,0,0,0,0,0,0,0,0,0,-1,1182,1632,0,0
-35,-608,0,0,0,0,0,0,0,0,0,-1,1189,1632,0,0
-28,-608,0,0,0,0,0,0,0,0,0,-1,1196,1632,0,0
-21,-608,0,0,0,0,0,0,0,0,0,-1,1203,1632,0,0
-14,-608,0,0,0,0,0,0,0,0,0,-1,1210,1632,0,0
-7,-608,0,0,0,0,0,0,0,0,0,-1,1217,1632,0,0
0,-608,0,0,0,0,0,0,0,0,0,-1,1224,1632,0,0
7,-608,0,0,0,0,0,0,0,0,0,-1,1231,1632,0,0
14,-608,0,0,0,0,0,0,0,0,0,-1,1238,1632,0,0
21,-608,0,0,0,0,0,0,0,0,0,-1,1245,1632,0,0
28,-608,0,0,0,0,0,0,0,0,0,-1,1252,1632,0,0
35,-608,0,0,0,0,0,0,0,0,0,-1,1259,1632,0,0
42,-608,0,0,0,0,0,0,0,0,0,-1,1266,1632,0,0
49,-608,0,0,0,0,0,0,0,0,0,-1,1273,1632,0,0
56,-608,0,0,0,0,0,0,0,0,0,-1,1280,1632,0,0
63,-608,0,0,0,0,0,0,0,0,0,-1,1287,1632,0,0
70,-608,0,0,0,0,0,0,0,0,0,-1,1294,1632,0,0
77,-608,0,0,0,0,0,0,0,0,0,-1,1301,1632,0,0
84,-608,0,0,0,0,0,0,0,0,0,-1,1308,1632,0,0
91,-608,0,0,0,0,0,0,0,0,0,-1,1315,1632,0,0
98,-608,0,0,0,0,0,0,0,0,0,-1,1322,1632,0,0
105,-608,0,0,0,0,0,0,0,0,0,-1,1329,1632,0,0
112,-608,0,0,0,0,0,0,0,0,0,-1,1336,1632,0,0
119,-608,0,0,0,0,0,0,0,0,0,-1,1343,1632,0,0
126,-608,0,0,0,0,0,0,0,0,0,-1,1350,1632,0,0
133,-608,0,0,0,0,0,0,0,0,0,-1,1357,1632,0,0
140,-608,0,0,0,0,0,0,0,0,0,-1,1364,1632,0,0
147,-608,0,0,0,0,0,0,0,0,0,-1,1371,1632,0,0
154,-608,0,0,0,0,0,0,0,0,0,-1,1378,1632,0,0
161,-608,0,0,0,0,0,0,0,0,0,-1,1385,1632,0,0
168,-608,0,0,0,0,0,0,0,0,0,-1,1392,1632,0,0
175,-608,0,0,0,0,0,0,0,0,0,-1,1399,1632,0,0
182,-608,0,0,0,0,0,0,0,0,0,-1,1406,1632,0,0
189,-608,0,0,0,0,0,0,0,0,0,-1,1413,1632,0,0
196,-608,0,0,0,0,0,0,0,0,0,-1,1420,1632,0,0
203,-608,0,0,0,0,0,0,0,0,0,-1,1427,1632,0,0
210,-608,5.7157,-0.333008,0,0,0,0,0,0,0,-1,1434,1632,5.71566,0.333004
217,-608,4.49402,-0.831787,0,0,0,0,0,0,0,-1,1441,1632,4.49396,0.831738
224,-608,4.18018,-1.11792,0,0,0,0,0,0,0,-1,1448,1632,4.1802,1.11796
231,-608,0.361816,0.825195,0,0,0,0,0,0,0,-1,1455,1632,0.36185,-0.825226
238,-608,2.85388,-0.28833,0,0,0,0,0,0,0,-1,1462,1632,2.85391,0.288282
245,-608,3.87537,4.02173,0,0,0,0,0,0,0,-1,1469,1632,3.87538,-4.02168
252,-608,5.66956,3.5282,0,0,0,0,0,0,0,-1,1476,1632,5.6696,-3.52815
259,-608,7.47437,3.07178,0,0,0,0,0,0,0,-1,1483,1632,7.4744,-3.07172
266,-608,9.46936,2.34766,0,0,0,0,0,0,0,-1,1490,1632,9.46932,-2.34764
273,-608,6.03003,3.34241,0,0,0,0,0,0,0,-1,1497,1632,6.02997,-3.34245
280,-608,5.72461,2.0769,0,0,0,0,0,0,0,-1,1504,1632,5.72457,-2.07688
287,-608,6.20581,3.59338,0,0,0,0,0,0,0,-1,1511,1632,6.20585,-3.59341
294,-608,6.94922,5.17151,0,0,0,0,0,0,0,-1,1518,1632,6.94925,-5.17151
301,-608,7.60083,6.68018,0,0,0,0,0,0,0,-1,1525,1632,7.60086,-6.68013
308,-608,7.04285,10.1095,0,0,0,0,0,0,0,-1,1532,1632,7.0429,-10.1095
315,-608,5.14844,11.4017,0,0,0,0,0,0,0,-1,1539,1632,5.14846,-11.4017
322,-608,4.81897,11.0378,-0.0155751,-0.0361034,-0.0355212,0.0111352,-0.0628137,-0.64475,0.0460387,0.0493493,1546,1632,4.81894,-11.0379
329,-608,4.61316,10.4653,-0.0126274,-0.032282,-0.0334858,0.0124434,-0.0573528,-0.642668,0.0429876,0.0480008,1553,1632,4.61312,-10.4653
336,-608,4.74109,9.8623,0,0,0,0,0,0,0,-1,1560,1632,4.74106,-9.86234
343,-608,5.47192,5.61047,0,0,0,0,0,0,0,-1,1567,1632,5.47192,-5.61045
350,-608,11.6957,1.71387,0,0,0,0,0,0,0,-1,1574,1632,11.6957,-1.71388
357,-608,3.77002,5.10046,0,0,0,0,0,0,0,-1,1581,1632,3.77002,-5.10043
364,-608,5.47046,10.84,0,0,0,0,0,0,0,-1,1588,1632,5.47046,-10.84
371,-608,5.48828,10.6833,-0.000866373,-0.00878769,-0.00574786,0.00215328,-0.0118073,-0.483723,0.00867882,0.0455364,1595,1632,5.48829,-10.6834
378,-608,5.65356,10.5016,0.000679917,-0.00551717,-0.00132839,0.000952665,-0.00578992,-0.202507,0.00421356,0.0379931,1602,1632,5.65356,-10.5015
385,-608,5.80847,10.4114,0.00114336,-0.00318708,0.00236173,0.00218219,-0.00422591,0.414389,0.00376192,0.0346804,1609,1632,5.80852,-10.4114
392,-608,5.61255,10.2866,7.2698e-05,-0.00375505,0.00320373,0.00189069,-0.00557304,0.51615,0.00448059,0.0220097,1616,1632,5.61261,-10.2867
399,-608,5.61108,10.2091,-0.000483068,-0.00397117,0.00350811,0.0016906,-0.00614484,0.554717,0.00476122,0.0101284,1623,1632,5.61109,-10.2091
406,-608,5.6355,10.1014,-0.000943386,-0.00418879,0.00368981,0.00146478,-0.00659695,0.578238,0.00495887,0.00871061,1630,1632,5.63544,-10.1015
413,-608,5.60779,9.97766,-0.00131704,-0.00381106,0.0035843,0.00123098,-0.00635908,0.617992,0.00470371,0.00933405,1637,1632,5.60777,-9.97768
420,-608,5.57983,9.8678,-0.001609,-0.00326918,0.00341789,0.00107816,-0.00595634,0.666271,0.00437479,0.0179474,1644,1632,5.57981,-9.86779
427,-608,5.58777,9.74536,-0.0019806,-0.00263493,0.00340692,0.00111483,-0.00573037,0.73753,0.00424098,0.019527,1651,1632,5.58772,-9.7454
434,-608,5.6012,9.60352,-0.00238991,-0.0018597,0.00325716,0.00114312,-0.00539274,0.826005,0.0040306,0.0148762,1658,1632,5.60115,-9.60357
441,-608,5.62183,9.46619,-0.00272618,-0.00102954,0.00297398,0.00121474,-0.00497046,0.924333,0.00378411,0.0137578,1665,1632,5.62185,-9.46623
448,-608,5.64026,9.32642,-0.0029409,-0.000297881,0.0026101,0.00130619,-0.00454496,1.01974,0.00354648,0.0155428,1672,1632,5.6402,-9.32636
455,-608,5.66565,9.20276,-0.00325784,0.000412453,0.00225791,0.00148693,-0.00433232,1.12664,0.00349106,0.0113674,1679,1632,5.6656,-9.2027
462,-608,5.65369,9.073,-0.00348326,0.00121879,0.00173554,0.00178999,-0.00405447,1.25284,0.0034577,0.0103081,1686,1632,5.65374,-9.07294
469,-608,5.63281,8.93335,-0.00359421,0.00195702,0.0010909,0.0021637,-0.00380089,1.38355,0.00348663,0.00836662,1693,1632,5.63278,-8.93339
476,-608,5.63452,8.80298,-0.00369617,0.00254539,0.000419538,0.00257346,-0.00372424,1.50398,0.00365616,0.00898184,1700,1632,5.63447,-8.80298
483,-608,5.62695,8.66467,-0.00348656,0.00298512,-0.000321457,0.00300105,-0.00350248,-1.52129,0.00375854,0.00828309,1707,1632,5.627,-8.66472
490,-608,5.63696,8.5271,-0.00246149,0.00329853,-0.00133247,0.00359184,-0.00275479,-1.35413,0.00367484,0.0080784,1714,1632,5.63691,-8.52709
497,-608,5.64404,8.37854,-0.000903783,0.00369529,-0.0028813,0.00508219,-0.00229068,-1.12219,0.00435724,0.0124834,1721,1632,5.64406,-8.37848
504,-608,5.61255,8.1958,0.000792507,0.00395101,-0.00425809,0.00691328,-0.00216976,-0.962976,0.00547728,0.0266963,1728,1632,5.61255,-8.19584
511,-608,5.54333,7.94055,0.0035902,0.00425442,-0.00612063,0.0100519,-0.00220733,-0.812502,0.00754547,0.0418124,1735,1632,5.54336,-7.94057
518,-608,5.37305,7.71851,0,0,0,0,0,0,0,-1,1742,1632,5.37309,-7.71846
525,-608,5.28967,7.53809,0,0,0,0,0,0,0,-1,1749,1632,5.28967,-7.53807
532,-608,8.54419,1.06445,0,0,0,0,0,0,0,-1,1756,1632,8.54425,-1.06448
539,-608,9.40796,1.43457,0,0,0,0,0,0,0,-1,1763,1632,9.40801,-1.43463
546,-608,9.94031,2.1134,0,0,0,0,0,0,0,-1,1770,1632,9.94031,-2.11346
553,-608,10.363,2.81335,0,0,0,0,0,0,0,-1,1777,1632,10.3631,-2.81333
560,-608,9.23999,4.5636,0,0,0,0,0,0,0,-1,1784,1632,9.24,-4.56354
567,-608,0,0,0,0,0,0,0,0,0,-1,1791,1632,0,0
574,-608,0,0,0,0,0,0,0,0,0,-1,1798,1632,0,0
581,-608,0,0,0,0,0,0,0,0,0,-1,1805,1632,0,0
588,-608,0,0,0,0,0,0,0,0,0,-1,1812,1632,0,0
595,-608,0,0,0,0,0,0,0,0,0,-1,1819,1632,0,0
602,-608,0,0,0,0,0,0,0,0,0,-1,1826,1632,0,0
609,-608,0,0,0,0,0,0,0,0,0,-1,1833,1632,0,0
616,-608,0,0,0,0,0,0,0,0,0,-1,1840,1632,0,0
623,-608,0,0,0,0,0,0,0,0,0,-1,1847,1632,0,0
630,-608,0,0,0,0,0,0,0,0,0,-1,1854,1632,0,0
637,-608,0,0,0,0,0,0,0,0,0,-1,1861,1632,0,0
644,-608,0,0,0,0,0,0,0,0,0,-1,1868,1632,0,0
651,-608,0,0,0,0,0,0,0,0,0,-1,1875,1632,0,0
658,-608,0,0,0,0,0,0,0,0,0,-1,1882,1632,0,0
665,-608,0,0,0,0,0,0,0,0,0,-1,1889,1632,0,0
672,-608,0,0,0,0,0,0,0,0,0,-1,1896,1632,0,0
679,-608,0,0,0,0,0,0,0,0,0,-1,1903,1632,0,0
686,-608,0,0,0,0,0,0,0,0,0,-1,1910,1632,0,0
693,-608,0,0,0,0,0,0,0,0,0,-1,1917,1632,0,0
700,-608,0,0,0,0,0,0,0,0,0,-1,1924,1632,0,0
707,-608,0,0,0,0,0,0,0,0,0,-1,1931,1632,0,0
714,-608,0,0,0,0,0,0,0,0,0,-1,1938,1632,0,0
721,-608,0,0,0,0,0,0,0,0,0,-1,1945,1632,0,0
728,-608,0,0,0,0,0,0,0,0,0,-1,1952,1632,0,0
735,-608,0,0,0,0,0,0,0,0,0,-1,1959,1632,0,0
742,-608,0,0,0,0,0,0,0,0,0,-1,1966,1632,0,0
749,-608,0,0,0,0,0,0,0,0,0,-1,1973,1632,0,0
756,-608,0,0,0,0,0,0,0,0,0,-1,1980,1632,0,0
763,-608,0,0,0,0,0,0,0,0,0,-1,1987,1632,0,0
770,-608,0,0,0,0,0,0,0,0,0,-1,1994,1632,0,0
777,-608,0,0,0,0,0,0,0,0,0,-1,2001,1632,0,0
784,-608,0,0,0,0,0,0,0,0,0,-1,2008,1632,0,0
791,-608,0,0,0,0,0,0,0,0,0,-1,2015,1632,0,0
798,-608,0,0,0,0,0,0,0,0,0,-1,2022,1632,0,0
805,-608,0,0,0,0,0,0,0,0,0,-1,2029,1632,0,0
812,-608,0,0,0,0,0,0,0,0,0,-1,2036,1632,0,0
-700,-615,0,0,0,0,0,0,0,0,0,-1,524,1639,0,0
-693,-615,0,0,0,0,0,0,0,0,0,-1,531,1639,0,0
-686,-615,0,0,0,0,0,0,0,0,0,-1,538,1639,0,0
-679,-615,0,0,0,0,0,0,0,0,0,-1,545,1639,0,0
-672,-615,0,0,0,0,0,0,0,0,0,-1,552,1639,0,0
-665,-615,0,0,0,0,0,0,0,0,0,-1,559,1639,0,0
-658,-615,0,0,0,0,0,0,0,0,0,-1,566,1639,0,0
-651,-615,0,0,0,0,0,0,0,0,0,-1,573,1639,0,0
-644,-615,0,0,0,0,0,0,0,0,0,-1,580,1639,0,0
-637,-615,0,0,0,0,0,0,0,0,0,-1,587,1639,0,0
-630,-615,0,0,0,0,0,0,0,0,0,-1,594,1639,0,0
-623,-615,0,0,0,0,0,0,0,0,0,-1,601,1639,0,0
-616,-615,0,0,0,0,0,0,0,0,0,-1,608,1639,0,0
-609,-615,0,0,0,0,0,0,0,0,0,-1,615,1639,0,0
-602,-615,0,0,0,0,0,0,0,0,0,-1,622,1639,0,0
-595,-615,0,0,0,0,0,0,0,0,0,-1,629,1639,0,0
-588,-615,0,0,0,0,0,0,0,0,0,-1,636,1639,0,0
-581,-615,0,0,0,0,0,0,0,0,0,-1,643,1639,0,0
-574,-615,0,0,0,0,0,0,0,0,0,-1,650,1639,0,0
-567,-615,0,0,0,0,0,0,0,0,0,-1,657,1639,0,0
-560,-615,0,0,0,0,0,0,0,0,0,-1,664,1639,0,0
-553,-615,0,0,0,0,0,0,0,0,0,-1,671,1639,0,0
-546,-615,0,0,0,0,0,0,0,0,0,-1,678,1639,0,0
-539,-615,0,0,0,0,0,0,0,0,0,-1,685,1639,0,0
-532,-615,0,0,0,0,0,0,0,0,0,-1,692,1639,0,0
-525,-615,0,0,0,0,0,0,0,0,0,-1,699,1639,0,0
-518,-615,0,0,0,0,0,0,0,0,0,-1,706,1639,0,0
-511,-615,0,0,0,0,0,0,0,0,0,-1,713,1639,0,0
-504,-615,0,0,0,0,0,0,0,0,0,-1,720,1639,0,0
-497,-615,0,0,0,0,0,0,0,0,0,-1,727,1639,0,0
-490,-615,0,0,0,0,0,0,0,0,0,-1,734,1639,0,0
-483,-615,0,0,0,0,0,0,0,0,0,-1,741,1639,0,0
-476,-615,0,0,0,0,0,0,0,0,0,-1,748,1639,0,0
-469,-615,0,0,0,0,0,0,0,0,0,-1,755,1639,0,0
-462,-615,0,0,0,0,0,0,0,0,0,-1,762,1639,0,0
-455,-615,0,0,0,0,0,0,0,0,0,-1,769,1639,0,0
-448,-615,0,0,0,0,0,0,0,0,0,-1,776,1639,0,0
-441,-615,0,0,0,0,0,0,0,0,0,-1,783,1639,0,0
-434,-615,-7.64508,2.98596,0,0,0,0,0,0,0,-1,790,1639,-7.64505,-2.98594
-427,-615,-6.31409,3.72571,0,0,0,0,0,0,0,-1,797,1639,-6.31408,-3.72577
-420,-615,-5.1814,4.26953,0,0,0,0,0,0,0,-1,804,1639,-5.18142,-4.26948
-413,-615,-4.01477,4.82727,0,0,0,0,0,0,0,-1,811,1639,-4.01476,-4.82724
-406,-615,-3.71051,4.62024,0,0,0,0,0,0,0,-1,818,1639,-3.71048,-4.62028
-399,-615,-2.7702,3.57324,0,0,0,0,0,0,0,-1,825,1639,-2.77022,-3.5733
-392,-615,1.80219,6.14233,0,0,0,0,0,0,0,-1,832,1639,1.80218,-6.14234
-385,-615,2.14539,6.71558,0,0,0,0,0,0,0,-1,839,1639,2.1454,-6.71554
-378,-615,2.22986,6.88782,-0.00970402,0.0376217,-0.038268,0.0589519,-0.0310342,-1.0623,0.0527803,0.0483595,846,1639,2.22989,-6.88788
-371,-615,2.27783,7.14124,-0.00833947,0.0290866,-0.030215,0.0459141,-0.0251669,-1.06265,0.0416172,0.0464671,853,1639,2.27783,-7.1412
-364,-615,2.21533,7.33105,-0.00764947,0.0217002,-0.0229535,0.034269,-0.0202182,-1.06982,0.0318049,0.032117,860,1639,2.21532,-7.33106
-357,-615,2.25848,7.46033,-0.00688606,0.0154495,-0.0166589,0.0243376,-0.0157742,-1.08068,0.0233338,0.0280407,867,1639,2.25846,-7.46029
-350,-615,2.23596,7.55237,-0.00600466,0.0105744,-0.0114717,0.0164382,-0.0118684,-1.09827,0.0164137,0.0257575,874,1639,2.23596,-7.55242
-343,-615,2.20825,7.70837,-0.00525776,0.00704784,-0.00762639,0.010694,-0.00890388,-1.12483,0.0113305,0.0177678,881,1639,2.20826,-7.7084
-336,-615,2.23578,7.88062,-0.00437076,0.0039453,-0.00418049,0.00568351,-0.00610898,-1.17675,0.00680988,0.00923368,888,1639,2.23577,-7.88062
-329,-615,2.21887,8.04712,-0.00360082,0.0020003,-0.00183291,0.00254679,-0.0041473,-1.28104,0.00390148,0.00966086,895,1639,2.21889,-8.04715
-322,-615,2.21509,8.22253,-0.00285598,0.000491247,-0.000440921,0.000548354,-0.00291308,-1.442,0.0021483,0.0106031,902,1639,2.21511,-8.22254
-315,-615,2.24152,8.3844,-0.00220567,0.000399559,-0.000227647,0.000419301,-0.00222541,-1.48429,0.00164133,0.0118759,909,1639,2.24153,-8.3844
-308,-615,2.23645,8.53455,-0.00168165,7.44794e-05,-0.000144543,8.62969e-05,-0.00169347,-1.48922,0.00115882,0.0174231,916,1639,2.23644,-8.53451
-301,-615,2.25092,8.66089,-0.00114847,-0.000517264,-4.17075e-05,-0.00051452,-0.00115121,-1.5051,0.000665897,0.0115231,923,1639,2.25089,-8.66088
-294,-615,2.25165,8.80078,-0.000473369,-0.00118098,0.00010407,-0.00045838,-0.00119597,0.143039,0.000696735,0.00900933,930,1639,2.25166,-8.80082
-287,-615,2.22028,8.94983,0.000157237,-0.00168103,0.000305878,0.000206798,-0.00173059,0.16063,0.00122848,0.00692835,937,1639,2.22029,-8.94987
-280,-615,2.22137,9.07727,0.000621372,-0.00240211,0.000377704,0.000667842,-0.00244858,0.122417,0.00189465,0.00782818,944,1639,2.22138,-9.07725
-273,-615,2.22729,9.23206,0.001029,-0.00341024,0.000291651,0.00104807,-0.00342932,0.0653242,0.00270414,0.00911164,951,1639,2.22727,-9.23206
-266,-615,2.23438,9.37329,0.00135465,-0.00423693,0.000286644,0.00136931,-0.00425159,0.051085,0.00338446,0.00966454,958,1639,2.23436,-9.37326
-259,-615,2.24475,9.4834,0.00147537,-0.00513545,0.000153897,0.00147895,-0.00513903,0.0232628,0.00401094,0.00994376,965,1639,2.24475,-9.48345
-252,-615,2.25403,9.61145,0.00152483,-0.00618834,-0.00010203,0.00152618,-0.00618969,-0.0132249,0.00471819,0.0101909,972,1639,2.25403,-9.61146
-245,-615,2.24097,9.74927,0.00187195,-0.00748681,-0.000718747,0.00192683,-0.00754169,-0.0762039,0.00577817,0.0168156,979,1639,2.24095,-9.7493
-238,-615,2.29205,9.89771,0.00339112,-0.00825019,-0.00297502,0.00410734,-0.00896641,-0.236249,0.00771995,0.0254317,986,1639,2.29207,-9.89768
-231,-615,2.29156,10.0005,0.00517135,-0.00786162,-0.00907767,0.00982933,-0.0125196,-0.474092,0.0129343,0.0340296,993,1639,2.29159,-10.0005
-224,-615,2.22479,9.78101,0.00853058,-0.00751971,-0.0153065,0.0177882,-0.0167773,-0.543951,0.0199592,0.0495973,1000,1639,2.22482,-9.78101
-217,-615,2.28461,9.79028,0,0,0,0,0,0,0,-1,1007,1639,2.28462,-9.79033
-210,-615,2.36932,10.0854,0,0,0,0,0,0,0,-1,1014,1639,2.36929,-10.0854
-203,-615,2.31769,10.0797,0,0,0,0,0,0,0,-1,1021,1639,2.31767,-10.0797
-196,-615,1.66187,10.1021,0,0,0,0,0,0,0,-1,1028,1639,1.66188,-10.102
-189,-615,1.80139,10.2498,0.0406471,-0.00316672,-0.0446453,0.0684706,-0.0309902,-0.557313,0.0587671,0.0466676,1035,1639,1.80139,-10.2498
-182,-615,2.35315,10.036,0.0506021,-0.000612013,-0.0387245,0.0714203,-0.0214303,-0.493273,0.0561375,0.0467871,1042,1639,2.35314,-10.0361
-175,-615,2.88086,9.83423,0,0,0,0,0,0,0,-1,1049,1639,2.88082,-9.8342
-168,-615,2.02783,9.96631,0,0,0,0,0,0,0,-1,1056,1639,2.0278,-9.96637
-161,-615,2.53345,9.89758,0,0,0,0,0,0,0,-1,1063,1639,2.53351,-9.89756
-154,-615,2.89063,9.78735,0,0,0,0,0,0,0,-1,1070,1639,2.89063,-9.78739
-147,-615,3.2478,9.67725,0,0,0,0,0,0,0,-1,1077,1639,3.24776,-9.67723
-140,-615,3.20911,9.51636,0,0,0,0,0,0,0,-1,1084,1639,3.2091,-9.51638
-133,-615,3.85278,10.8184,0,0,0,0,0,0,0,-1,1091,1639,3.85272,-10.8184
-126,-615,4.45654,12.297,0,0,0,0,0,0,0,-1,1098,1639,4.45653,-12.297
-119,-615,4.82983,13.9279,0,0,0,0,0,0,0,-1,1105,1639,4.82986,-13.9278
-112,-615,3.65698,14.4874,0,0,0,0,0,0,0,-1,1112,1639,3.65695,-14.4875
-105,-615,0.958496,2.45398,0,0,0,0,0,0,0,-1,1119,1639,0.958452,-2.45398
-98,-615,-0.647705,2.12109,0,0,0,0,0,0,0,-1,1126,1639,-0.647756,-2.12105
-91,-615,-1.48572,0.604492,0,0,0,0,0,0,0,-1,1133,1639,-1.48576,-0.604443
-84,-615,-2.46509,0.703247,0,0,0,0,0,0,0,-1,1140,1639,-2.46505,-0.703273
-77,-615,-3.17859,1.23755,0,0,0,0,0,0,0,-1,1147,1639,-3.17865,-1.23752
-70,-615,-4.03943,1.43335,0,0,0,0,0,0,0,-1,1154,1639,-4.03942,-1.43339
-63,-615,-4.8877,1.45544,0,0,0,0,0,0,0,-1,1161,1639,-4.88766,-1.45549
-56,-615,0,0,0,0,0,0,0,0,0,-1,1168,1639,0,0
-49,-615,0,0,0,0,0,0,0,0,0,-1,1175,1639,0,0
-42,-615,0,0,0,0,0,0,0,0,0,-1,1182,1639,0,0
-35,-615,0,0,0,0,0,0,0,0,0,-1,1189,1639,0,0
-28,-615,0,0,0,0,0,0,0,0,0,-1,1196,1639,0,0
-21,-615,0,0,0,0,0,0,0,0,0,-1,1203,1639,0,0
-14,-615,0,0,0,0,0,0,0,0,0,-1,1210,1639,0,0
-7,-615,0,0,0,0,0,0,0,0,0,-1,1217,1639,0,0
0,-615,0,0,0,0,0,0,0,0,0,-1,1224,1639,0,0
7,-615,0,0,0,0,0,0,0,0,0,-1,1231,1639,0,0
14,-615,0,0,0,0,0,0,0,0,0,-1,1238,1639,0,0
21,-615,0,0,0,0,0,0,0,0,0,-1,1245,1639,0,0
28,-615,0,0,0,0,0,0,0,0,0,-1,1252,1639,0,0
35,-615,0,0,0,0,0,0,0,0,0,-1,1259,1639,0,0
42,-615,0,0,0,0,0,0,0,0,0,-1,1266,1639,0,0
49,-615,0,0,0,0,0,0,0,0,0,-1,1273,1639,0,0
56,-615,0,0,0,0,0,0,0,0,0,-1,1280,1639,0,0
63,-615,0,0,0,0,0,0,0,0,0,-1,1287,1639,0,0
70,-615,0,0,0,0,0,0,0,0,0,-1,1294,1639,0,0
77,-615,0,0,0,0,0,0,0,0,0,-1,1301,1639,0,0
84,-615,0,0,0,0,0,0,0,0,0,-1,1308,1639,0,0
91,-615,0,0,0,0,0,0,0,0,0,-1,1315,1639,0,0
98,-615,0,0,0,0,0,0,0,0,0,-1,1322,1639,0,0
105,-615,0,0,0,0,0,0,0,0,0,-1,1329,1639,0,0
112,-615,0,0,0,0,0,0,0,0,0,-1,1336,1639,0,0
119,-615,0,0,0,0,0,0,0,0,0,-1,1343,1639,0,0
126,-615,0,0,0,0,0,0,0,0,0,-1,1350,1639,0,0
133,-615,0,0,0,0,0,0,0,0,0,-1,1357,1639,0,0
140,-615,0,0,0,0,0,0,0,0,0,-1,1364,1639,0,0
147,-615,0,0,0,0,0,0,0,0,0,-1,1371,1639,0,0
154,-615,0,0,0,0,0,0,0,0,0,-1,1378,1639,0,0
161,-615,0,0,0,0,0,0,0,0,0,-1,1385,1639,0,0
168,-615,0,0,0,0,0,0,0,0,0,-1,1392,1639,0,0
175,-615,5.39648,-2.00879,0,0,0,0,0,0,0,-1,1399,1639,5.3965,2.00881
182,-615,5.65393,-1.51025,0,0,0,0,0,0,0,-1,1406,1639,5.65388,1.51028
189,-615,5.58972,-1.35608,0,0,0,0,0,0,0,-1,1413,1639,5.58967,1.35607
196,-615,5.49915,-0.693604,0,0,0,0,0,0,0,-1,1420,1639,5.4991,0.693602
203,-615,5.33411,-0.226685,0,0,0,0,0,0,0,-1,1427,1639,5.33414,0.226689
210,-615,5.60278,0.108276,0,0,0,0,0,0,0,-1,1434,1639,5.60284,-0.10831
217,-615,6.26331,-0.307373,0,0,0,0,0,0,0,-1,1441,1639,6.26331,0.307372
224,-615,5.45422,-0.333984,0,0,0,0,0,0,0,-1,1448,1639,5.45422,0.333992
231,-615,4.92542,1.80298,0,0,0,0,0,0,0,-1,1455,1639,4.92537,-1.80297
238,-615,4.76355,1.96729,0,0,0,0,0,0,0,-1,1462,1639,4.76357,-1.96734
245,-615,4.08643,3.15906,0,0,0,0,0,0,0,-1,1469,1639,4.08638,-3.159
252,-615,6.37805,3.73889,0,0,0,0,0,0,0,-1,1476,1639,6.37806,-3.73891
259,-615,8.35974,3.16443,0,0,0,0,0,0,0,-1,1483,1639,8.35975,-3.16444
266,-615,10.3414,2.58997,0,0,0,0,0,0,0,-1,1490,1639,10.3414,-2.58996
273,-615,6.57043,1.84766,0,0,0,0,0,0,0,-1,1497,1639,6.5704,-1.84771
280,-615,7.10449,3.23438,0,0,0,0,0,0,0,-1,1504,1639,7.10447,-3.23435
287,-615,7.35779,4.68542,0,0,0,0,0,0,0,-1,1511,1639,7.35776,-4.68546
294,-615,7.63733,6.29114,0,0,0,0,0,0,0,-1,1518,1639,7.63735,-6.29109
301,-615,8.20715,7.81995,0,0,0,0,0,0,0,-1,1525,1639,8.20719,-7.81993
308,-615,5.47522,11.4122,0,0,0,0,0,0,0,-1,1532,1639,5.47521,-11.4123
315,-615,4.98987,11.9011,0,0,0,0,0,0,0,-1,1539,1639,4.98982,-11.9011
322,-615,4.83936,11.4016,-0.0120298,-0.024833,-0.0251062,0.00747803,-0.0443409,-0.660568,0.0323427,0.0485163,1546,1639,4.83931,-11.4016
329,-615,4.69202,10.8726,-0.00947207,-0.0219393,-0.0239329,0.00902573,-0.0404371,-0.657998,0.0304163,0.0466488,1553,1639,4.69205,-10.8726
336,-615,4.55518,10.3793,0,0,0,0,0,0,0,-1,1560,1639,4.55518,-10.3793
343,-615,2.40491,6.50134,0,0,0,0,0,0,0,-1,1567,1639,2.40489,-6.50137
350,-615,5.26135,11.4883,0,0,0,0,0,0,0,-1,1574,1639,5.26132,-11.4882
357,-615,5.60107,10.9104,0,0,0,0,0,0,0,-1,1581,1639,5.60102,-10.9104
364,-615,5.76208,10.6964,0,0,0,0,0,0,0,-1,1588,1639,5.76214,-10.6964
371,-615,5.61987,10.6849,-0.000419132,-0.00562732,-0.00416356,0.00188764,-0.00793408,-0.505937,0.0060181,0.0374903,1595,1639,5.6199,-10.685
378,-615,5.47351,10.5743,0.00060168,-0.00344937,-0.000914238,0.000798448,-0.00364614,-0.211992,0.00273602,0.0196674,1602,1639,5.47346,-10.5743
385,-615,5.47119,10.4471,0.000898784,-0.00185714,0.0017106,0.00171739,-0.00267575,0.446342,0.00255642,0.0113084,1609,1639,5.47121,-10.4471
392,-615,5.4668,10.3364,0.000195342,-0.00238277,0.00227111,0.00151772,-0.00370515,0.527275,0.00310233,0.00944117,1616,1639,5.46675,-10.3364
399,-615,5.47168,10.2413,-0.000132892,-0.00257331,0.00235532,0.00129953,-0.00400574,0.5464,0.00319307,0.0108259,1623,1639,5.47168,-10.2414
406,-615,5.48425,10.1082,-0.000473119,-0.00279235,0.00243376,0.00106317,-0.00432864,0.563075,0.00329778,0.0107834,1630,1639,5.4842,-10.1082
413,-615,5.48535,9.9906,-0.000772996,-0.00250548,0.00234346,0.000859199,-0.00413768,0.608365,0.003085,0.0108488,1637,1639,5.48536,-9.99056
420,-615,5.48291,9.87732,-0.00108669,-0.00208275,0.00227212,0.00074134,-0.00391078,0.677508,0.00288621,0.0122786,1644,1639,5.48289,-9.87731
427,-615,5.47546,9.74292,-0.0015445,-0.00146539,0.00233639,0.00083178,-0.00384167,0.793862,0.00287871,0.0135884,1651,1639,5.47542,-9.74289
434,-615,5.4895,9.60828,-0.00203867,-0.000757399,0.0023244,0.00101304,-0.0038091,0.919866,0.00293593,0.0127318,1658,1639,5.48953,-9.60823
441,-615,5.51379,9.46985,-0.00258798,4.75952e-05,0.00216613,0.0012653,-0.00380568,1.05867,0.00304773,0.0137017,1665,1639,5.51381,-9.46979
448,-615,5.5177,9.33789,-0.00306811,0.00070881,0.00190093,0.00149987,-0.00385916,1.17645,0.00319242,0.0148628,1672,1639,5.51772,-9.33795
455,-615,5.52295,9.22546,-0.00366263,0.0014067,0.00168786,0.00191726,-0.00417319,1.27706,0.00359583,0.013632,1679,1639,5.5229,-9.22551
462,-615,5.5155,9.104,-0.00423272,0.00219378,0.00130472,0.00244857,-0.00448751,1.37794,0.00406181,0.0136051,1686,1639,5.51553,-9.10398
469,-615,5.50525,8.93921,-0.00473933,0.0028818,0.000770432,0.0029589,-0.00481643,1.47105,0.00453159,0.0119843,1693,1639,5.50519,-8.93925
476,-615,5.49622,8.78528,-0.00523614,0.00342828,0.000136485,0.00343043,-0.00523829,1.55505,0.00504104,0.010794,1700,1639,5.49627,-8.7853
483,-615,5.51111,8.63965,-0.00541775,0.00379884,-0.00067153,0.00384751,-0.00546642,-1.49844,0.00540441,0.0137506,1707,1639,5.51117,-8.63959
490,-615,5.5094,8.49646,-0.00479009,0.00399307,-0.0018199,0.00435523,-0.00515225,-1.37436,0.00549557,0.0155554,1714,1639,5.50938,-8.49642
497,-615,5.47253,8.38574,-0.00359306,0.00428343,-0.00357885,0.00566665,-0.00497627,-1.20198,0.006149,0.0227674,1721,1639,5.47254,-8.38573
504,-615,5.49402,8.23364,-0.00200341,0.00429379,-0.00538319,0.00738157,-0.00509118,-1.05002,0.0072415,0.0423464,1728,1639,5.49407,-8.2337
511,-615,5.37939,7.80713,0,0,0,0,0,0,0,-1,1735,1639,5.37939,-7.80717
518,-615,5.5238,7.49182,0,0,0,0,0,0,0,-1,1742,1639,5.52375,-7.49185
525,-615,4.37524,3.90491,0,0,0,0,0,0,0,-1,1749,1639,4.37518,-3.90495
532,-615,7.3645,0.848145,0,0,0,0,0,0,0,-1,1756,1639,7.36451,-0.848093
539,-615,12.8112,-0.0476074,0,0,0,0,0,0,0,-1,1763,1639,12.8111,0.0475553
546,-615,8.33813,2.94556,0,0,0,0,0,0,0,-1,1770,1639,8.33813,-2.9455
553,-615,5.82532,-2.04199,0,0,0,0,0,0,0,-1,1777,1639,5.82534,2.04195
560,-615,0,0,0,0,0,0,0,0,0,-1,1784,1639,0,0
567,-615,0,0,0,0,0,0,0,0,0,-1,1791,1639,0,0
574,-615,0,0,0,0,0,0,0,0,0,-1,1798,1639,0,0
581,-615,0,0,0,0,0,0,0,0,0,-1,1805,1639,0,0
588,-615,0,0,0,0,0,0,0,0,0,-1,1812,1639,0,0
595,-615,0,0,0,0,0,0,0,0,0,-1,1819,1639,0,0
602,-615,0,0,0,0,0,0,0,0,0,-1,1826,1639,0,0
609,-615,0,0,0,0,0,0,0,0,0,-1,1833,1639,0,0
616,-615,0,0,0,0,0,0,0,0,0,-1,1840,1639,0,0
623,-615,0,0,0,0,0,0,0,0,0,-1,1847,1639,0,0
630,-615,0,0,0,0,0,0,0,0,0,-1,1854,1639,0,0
637,-615,0,0,0,0,0,0,0,0,0,-1,1861,1639,0,0
644,-615,0,0,0,0,0,0,0,0,0,-1,1868,1639,0,0
651,-615,0,0,0,0,0,0,0,0,0,-1,1875,1639,0,0
658,-615,0,0,0,0,0,0,0,0,0,-1,1882,1639,0,0
665,-615,0,0,0,0,0,0,0,0,0,-1,1889,1639,0,0
672,-615,0,0,0,0,0,0,0,0,0,-1,1896,1639,0,0
679,-615,0,0,0,0,0,0,0,0,0,-1,1903,1639,0,0
686,-615,0,0,0,0,0,0,0,0,0,-1,1910,1639,0,0
693,-615,0,0,0,0,0,0,0,0,0,-1,1917,1639,0,0
700,-615,0,0,0,0,0,0,0,0,0,-1,1924,1639,0,0
707,-615,0,0,0,0,0,0,0,0,0,-1,1931,1639,0,0
714,-615,0,0,0,0,0,0,0,0,0,-1,1938,1639,0,0
721,-615,0,0,0,0,0,0,0,0,0,-1,1945,1639,0,0
728,-615,0,0,0,0,0,0,0,0,0,-1,1952,1639,0,0
735,-615,0,0,0,0,0,0,0,0,0,-1,1959,1639,0,0
742,-615,0,0,0,0,0,0,0,0,0,-1,1966,1639,0,0
749,-615,0,0,0,0,0,0,0,0,0,-1,1973,1639,0,0
756,-615,0,0,0,0,0,0,0,0,0,-1,1980,1639,0,0
763,-615,0,0,0,0,0,0,0,0,0,-1,1987,1639,0,0
770,-615,0,0,0,0,0,0,0,0,0,-1,1994,1639,0,0
777,-615,0,0,0,0,0,0,0,0,0,-1,2001,1639,0,0
784,-615,0,0,0,0,0,0,0,0,0,-1,2008,1639,0,0
791,-615,0,0,0,0,0,0,0,0,0,-1,2015,1639,0,0
798,-615,0,0,0,0,0,0,0,0,0,-1,2022,1639,0,0
805,-615,0,0,0,0,0,0,0,0,0,-1,2029,1639,0,0
812,-615,0,0,0,0,0,0,0,0,0,-1,2036,1639,0,0
-700,-622,0,0,0,0,0,0,0,0,0,-1,524,1646,0,0
-693,-622,0,0,0,0,0,0,0,0,0,-1,531,1646,0,0
-686,-622,0,0,0,0,0,0,0,0,0,-1,538,1646,0,0
-679,-622,0,0,0,0,0,0,0,0,0,-1,545,1646,0,0
-672,-622,0,0,0,0,0,0,0,0,0,-1,552,1646,0,0
-665,-622,0,0,0,0,0,0,0,0,0,-1,559,1646,0,0
-658,-622,0,0,0,0,0,0,0,0,0,-1,566,1646,0,0
-651,-622,0,0,0,0,0,0,0,0,0,-1,573,1646,0,0
-644,-622,0,0,0,0,0,0,0,0,0,-1,580,1646,0,0
-637,-622,0,0,0,0,0,0,0,0,0,-1,587,1646,0,0
-630,-622,0,0,0,0,0,0,0,0,0,-1,594,1646,0,0
-623,-622,0,0,0,0,0,0,0,0,0,-1,601,1646,0,0
-616,-622,0,0,0,0,0,0,0,0,0,-1,608,1646,0,0
-609,-622,0,0,0,0,0,0,0,0,0,-1,615,1646,0,0
-602,-622,0,0,0,0,0,0,0,0,0,-1,622,1646,0,0
-595,-622,0,0,0,0,0,0,0,0,0,-1,629,1646,0,0
-588,-622,0,0,0,0,0,0,0,0,0,-1,636,1646,0,0
-581,-622,0,0,0,0,0,0,0,0,0,-1,643,1646,0,0
-574,-622,0,0,0,0,0,0,0,0,0,-1,650,1646,0,0
-567,-622,0,0,0,0,0,0,0,0,0,-1,657,1646,0,0
-560,-622,0,0,0,0,0,0,0,0,0,-1,664,1646,0,0
-553,-622,0,0,0,0,0,0,0,0,0,-1,671,1646,0,0
-546,-622,0,0,0,0,0,0,0,0,0,-1,678,1646,0,0
-539,-622,0,0,0,0,0,0,0,0,0,-1,685,1646,0,0
-532,-622,0,0,0,0,0,0,0,0,0,-1,692,1646,0,0
-525,-622,0,0,0,0,0,0,0,0,0,-1,699,1646,0,0
-518,-622,0,0,0,0,0,0,0,0,0,-1,706,1646,0,0
-511,-622,0,0,0,0,0,0,0,0,0,-1,713,1646,0,0
-504,-622,0,0,0,0,0,0,0,0,0,-1,720,1646,0,0
-497,-622,0,0,0,0,0,0,0,0,0,-1,727,1646,0,0
-490,-622,0,0,0,0,0,0,0,0,0,-1,734,1646,0,0
-483,-622,0,0,0,0,0,0,0,0,0,-1,741,1646,0,0
-476,-622,0,0,0,0,0,0,0,0,0,-1,748,1646,0,0
-469,-622,0,0,0,0,0,0,0,0,0,-1,755,1646,0,0
-462,-622,0,0,0,0,0,0,0,0,0,-1,762,1646,0,0
-455,-622,0,0,0,0,0,0,0,0,0,-1,769,1646,0,0
-448,-622,0,0,0,0,0,0,0,0,0,-1,776,1646,0,0
-441,-622,0,0,0,0,0,0,0,0,0,-1,783,1646,0,0
-434,-622,0,0,0,0,0,0,0,0,0,-1,790,1646,0,0
-427,-622,-7.62891,3.48096,0,0,0,0,0,0,0,-1,797,1646,-7.62892,-3.48092
-420,-622,-6.54437,4.04541,0,0,0,0,0,0,0,-1,804,1646,-6.54438,-4.04538
-413,-622,-4.8988,2.47632,0,0,0,0,0,0,0,-1,811,1646,-4.89878,-2.47637
-406,-622,-4.44318,2.16858,0,0,0,0,0,0,0,-1,818,1646,-4.44315,-2.16859
-399,-622,-3.35645,3.16223,0,0,0,0,0,0,0,-1,825,1646,-3.35647,-3.16226
-392,-622,-2.1485,4.26294,0,0,0,0,0,0,0,-1,832,1646,-2.14853,-4.2629
-385,-622,1.3559,6.25537,0,0,0,0,0,0,0,-1,839,1646,1.35592,-6.25542
-378,-622,1.66113,6.72778,0,0,0,0,0,0,0,-1,846,1646,1.6611,-6.72775
-371,-622,2.28516,7.27747,0,0,0,0,0,0,0,-1,853,1646,2.28516,-7.2775
-364,-622,2.19641,7.49829,0,0,0,0,0,0,0,-1,860,1646,2.19642,-7.49827
-357,-622,2.14484,7.84351,0,0,0,0,0,0,0,-1,867,1646,2.14485,-7.84356
-350,-622,2.47107,7.63953,-0.00860596,0.0165335,-0.0166186,0.0248007,-0.0168731,-1.10918,0.0242051,0.0381905,874,1646,2.47108,-7.63958
-343,-622,2.35046,7.74133,-0.00780574,0.0110502,-0.0108833,0.0160213,-0.0127769,-1.14233,0.0166618,0.0229832,881,1646,2.35044,-7.74137
-336,-622,2.3905,7.87415,-0.00679985,0.00622596,-0.00581068,0.00844128,-0.00901517,-1.20656,0.0100803,0.00883845,888,1646,2.39053,-7.8742
-329,-622,2.37854,8.04346,-0.00596936,0.00315457,-0.00238845,0.003742,-0.00655679,-1.32964,0.00601958,0.00874143,895,1646,2.37851,-8.04346
-322,-622,2.38312,8.20642,-0.00516625,0.000900203,-0.000392148,0.000925448,-0.00519149,-1.50651,0.00380716,0.0104718,902,1646,2.38314,-8.20636
-315,-622,2.38849,8.37097,-0.00434041,0.000872171,-0.000188907,0.000879008,-0.00434725,-1.53462,0.00323127,0.0130701,909,1646,2.38851,-8.37101
-308,-622,2.3869,8.51697,-0.00360835,0.000617645,-0.000112191,0.000620622,-0.00361132,-1.54427,0.00263886,0.0137059,916,1646,2.38691,-8.51692
-301,-622,2.39362,8.64417,-0.00285048,0.000111159,-2.38554e-05,0.000111351,-0.00285067,-1.56274,0.00193863,0.0134225,923,1646,2.39364,-8.64414
-294,-622,2.37775,8.79895,-0.0019681,-0.000427217,9.8433e-05,-0.000420954,-0.00197436,1.50726,0.00120078,0.0100201,930,1646,2.37773,-8.79894
-287,-622,2.36322,8.95227,-0.00114476,-0.000843606,0.000249685,-0.000702609,-0.00128576,1.05674,0.000743401,0.00731288,937,1646,2.36323,-8.95225
-280,-622,2.36932,9.08472,-0.000487913,-0.00143249,0.000287128,-0.000407482,-0.00151292,0.273122,0.000903939,0.00777279,944,1646,2.36932,-9.0847
-273,-622,2.37872,9.22009,0.000110257,-0.00230659,0.000179345,0.000123493,-0.00231983,0.0736682,0.00158932,0.0116025,951,1646,2.37873,-9.22005
-266,-622,2.36212,9.37036,0.000608673,-0.00292241,0.000143531,0.000614498,-0.00292824,0.0405586,0.00218597,0.011332,958,1646,2.36213,-9.37031
-259,-622,2.36847,9.50476,0.00096839,-0.0036646,2.72554e-05,0.00096855,-0.00366476,0.00588264,0.00282198,0.0101753,965,1646,2.36846,-9.50472
-252,-622,2.38788,9.62939,0.00116772,-0.00451145,-0.00022717,0.00117679,-0.00452052,-0.0399156,0.00347305,0.0102613,972,1646,2.38788,-9.62945
-245,-622,2.4104,9.77783,0.00152809,-0.00557141,-0.000784488,0.00161374,-0.00565706,-0.108751,0.00440886,0.00807731,979,1646,2.41039,-9.77784
-238,-622,2.39056,9.91357,0.0027485,-0.00630905,-0.00250597,0.0033956,-0.00695615,-0.252704,0.00609329,0.00909344,986,1646,2.39055,-9.91357
-231,-622,2.39691,10.0265,0.00409664,-0.00640549,-0.00685126,0.00747769,-0.00978654,-0.458429,0.00999718,0.0129643,993,1646,2.39692,-10.0265
-224,-622,2.48822,10.1382,0.00672071,-0.00644864,-0.0116834,0.0135472,-0.0132751,-0.528789,0.0154862,0.0227838,1000,1646,2.48822,-10.1382
-217,-622,2.52667,10.1698,0.0108928,-0.0072707,-0.0167306,0.0208477,-0.0172255,-0.53674,0.0220147,0.0364891,1007,1646,2.52669,-10.1698
-210,-622,2.4043,10.1693,0.0152316,-0.00721042,-0.0229951,0.0295975,-0.0215762,-0.558408,0.0296659,0.0445528,1014,1646,2.40427,-10.1693
-203,-622,2.33264,10.1626,0.0206488,-0.00756044,-0.0290683,0.0388538,-0.0257654,-0.55952,0.0375621,0.0466719,1021,1646,2.33263,-10.1626
-196,-622,2.20959,10.2018,0.0259561,-0.00790823,-0.034451,0.0474111,-0.0293632,-0.556992,0.044732,0.0475192,1028,1646,2.20956,-10.2018
-189,-622,2.66077,10.1187,0.0326596,-0.00717494,-0.0334189,0.0516463,-0.0261616,-0.516666,0.0457186,0.0483376,1035,1646,2.66081,-10.1186
-182,-622,3.08398,10.1681,0.0405572,-0.00585676,-0.0298688,0.055175,-0.0204745,-0.455131,0.0451819,0.0474129,1042,1646,3.08393,-10.1681
-175,-622,3.29736,10.3801,0,0,0,0,0,0,0,-1,1049,1646,3.2974,-10.3801
-168,-622,1.43262,9.88464,0,0,0,0,0,0,0,-1,1056,1646,1.43259,-9.88463
-161,-622,2.43481,10.2266,0,0,0,0,0,0,0,-1,1063,1646,2.43484,-10.2266
-154,-622,2.88464,10.1227,0,0,0,0,0,0,0,-1,1070,1646,2.88468,-10.1227
-147,-622,3.33447,10.0187,0,0,0,0,0,0,0,-1,1077,1646,3.33453,-10.0187
-140,-622,4.34863,11.145,0,0,0,0,0,0,0,-1,1084,1646,4.34865,-11.1451
-133,-622,3.40173,10.0699,0,0,0,0,0,0,0,-1,1091,1646,3.40173,-10.0699
-126,-622,4.83423,11.7699,0,0,0,0,0,0,0,-1,1098,1646,4.83428,-11.7699
-119,-622,4.06384,13.1715,0,0,0,0,0,0,0,-1,1105,1646,4.06379,-13.1716
-112,-622,4.33276,14.6605,0,0,0,0,0,0,0,-1,1112,1646,4.33281,-14.6605
-105,-622,0.306519,4.38159,0,0,0,0,0,0,0,-1,1119,1646,0.306536,-4.38159
-98,-622,-0.510376,3.5033,0,0,0,0,0,0,0,-1,1126,1646,-0.510393,-3.50324
-91,-622,-1.146,0.975952,0,0,0,0,0,0,0,-1,1133,1646,-1.14599,-0.97597
-84,-622,-2.04895,1.31787,0,0,0,0,0,0,0,-1,1140,1646,-2.0489,-1.31781
-77,-622,-1.80627,0.332275,0,0,0,0,0,0,0,-1,1147,1646,-1.80622,-0.33223
-70,-622,-3.65588,2.28149,0,0,0,0,0,0,0,-1,1154,1646,-3.65589,-2.28155
-63,-622,-2.49683,1.27087,0,0,0,0,0,0,0,-1,1161,1646,-2.49679,-1.27093
-56,-622,-2.44238,-0.575562,0,0,0,0,0,0,0,-1,1168,1646,-2.44242,0.575508
-49,-622,-2.41089,1.38818,0,0,0,0,0,0,0,-1,1175,1646,-2.41088,-1.38815
-42,-622,-2.71497,2.85242,0,0,0,0,0,0,0,-1,1182,1646,-2.71491,-2.85247
-35,-622,-3.0177,4.25842,0,0,0,0,0,0,0,-1,1189,1646,-3.01773,-4.25838
-28,-622,-0.896606,0.678833,0,0,0,0,0,0,0,-1,1196,1646,-0.89661,-0.678835
-21,-622,2.86902,10.8785,0,0,0,0,0,0,0,-1,1203,1646,2.86905,-10.8785
-14,-622,-1.60986,10.7135,0,0,0,0,0,0,0,-1,1210,1646,-1.60985,-10.7135
-7,-622,-1.62964,11.3647,0,0,0,0,0,0,0,-1,1217,1646,-1.62963,-11.3648
0,-622,0,0,0,0,0,0,0,0,0,-1,1224,1646,0,0
7,-622,0,0,0,0,0,0,0,0,0,-1,1231,1646,0,0
14,-622,0,0,0,0,0,0,0,0,0,-1,1238,1646,0,0
21,-622,0,0,0,0,0,0,0,0,0,-1,1245,1646,0,0
28,-622,0,0,0,0,0,0,0,0,0,-1,1252,1646,0,0
35,-622,0,0,0,0,0,0,0,0,0,-1,1259,1646,0,0
42,-622,0,0,0,0,0,0,0,0,0,-1,1266,1646,0,0
49,-622,0,0,0,0,0,0,0,0,0,-1,1273,1646,0,0
56,-622,0,0,0,0,0,0,0,0,0,-1,1280,1646,0,0
63,-622,0,0,0,0,0,0,0,0,0,-1,1287,1646,0,0
70,-622,0,0,0,0,0,0,0,0,0,-1,1294,1646,0,0
77,-622,0,0,0,0,0,0,0,0,0,-1,1301,1646,0,0
84,-622,0,0,0,0,0,0,0,0,0,-1,1308,1646,0,0
91,-622,0,0,0,0,0,0,0,0,0,-1,1315,1646,0,0
98,-622,0,0,0,0,0,0,0,0,0,-1,1322,1646,0,0
105,-622,0,0,0,0,0,0,0,0,0,-1,1329,1646,0,0
112,-622,0,0,0,0,0,0,0,0,0,-1,1336,1646,0,0
119,-622,0,0,0,0,0,0,0,0,0,-1,1343,1646,0,0
126,-622,6.17517,11.3265,-0.0108507,-0.00955094,-0.00735729,-0.0028149,-0.0175868,-0.82945,0.010908,0.0434213,1350,1646,6.17521,-11.3266
133,-622,6.18774,11.4141,-0.0102303,-0.00811974,-0.0136534,0.0045191,-0.0228691,-0.823966,0.0169544,0.0450589,1357,1646,6.18776,-11.4141
140,-622,6.54919,11.4442,-0.00829899,-0.00565331,-0.0264934,0.0195503,-0.0335026,-0.810343,0.0309811,0.0473842,1364,1646,6.54922,-11.4442
147,-622,6.86902,11.3492,0,0,0,0,0,0,0,-1,1371,1646,6.86902,-11.3492
154,-622,9.22742,7.69604,0,0,0,0,0,0,0,-1,1378,1646,9.22739,-7.69608
161,-622,10.6884,6.46448,0,0,0,0,0,0,0,-1,1385,1646,10.6883,-6.46442
168,-622,12.2402,5.18091,0,0,0,0,0,0,0,-1,1392,1646,12.2403,-5.1809
175,-622,5.64355,-1.77075,0,0,0,0,0,0,0,-1,1399,1646,5.64351,1.77077
182,-622,5.88586,-1.32251,0,0,0,0,0,0,0,-1,1406,1646,5.88587,1.32256
189,-622,5.97986,-1.18005,0,0,0,0,0,0,0,-1,1413,1646,5.97986,1.18003
196,-622,5.85022,-0.244507,0,0,0,0,0,0,0,-1,1420,1646,5.85026,0.244478
203,-622,5.25159,0.138794,0,0,0,0,0,0,0,-1,1427,1646,5.25162,-0.138822
210,-622,6.66833,0.0397949,0,0,0,0,0,0,0,-1,1434,1646,6.6684,-0.0398278
217,-622,6.12061,0.0506592,0,0,0,0,0,0,0,-1,1441,1646,6.12058,-0.0507181
224,-622,5.57275,0.0616455,0,0,0,0,0,0,0,-1,1448,1646,5.57276,-0.0616084
231,-622,5.31348,1.3949,0,0,0,0,0,0,0,-1,1455,1646,5.31342,-1.39495
238,-622,3.76477,2.90686,0,0,0,0,0,0,0,-1,1462,1646,3.7648,-2.90686
245,-622,5.13794,2.67993,0,0,0,0,0,0,0,-1,1469,1646,5.13796,-2.67992
252,-622,6.66528,2.53992,0,0,0,0,0,0,0,-1,1476,1646,6.66522,-2.53991
259,-622,8.93787,3.31458,0,0,0,0,0,0,0,-1,1483,1646,8.93791,-3.31454
266,-622,5.72644,3.11926,0,0,0,0,0,0,0,-1,1490,1646,5.72647,-3.1192
273,-622,7.28076,3.61218,0,0,0,0,0,0,0,-1,1497,1646,7.28071,-3.61212
280,-622,8.43127,4.4447,0,0,0,0,0,0,0,-1,1504,1646,8.43123,-4.44467
287,-622,8.60315,5.94617,0,0,0,0,0,0,0,-1,1511,1646,8.60319,-5.94622
294,-622,8.77515,7.44775,0,0,0,0,0,0,0,-1,1518,1646,8.77514,-7.44777
301,-622,7.97266,12.1204,0,0,0,0,0,0,0,-1,1525,1646,7.97265,-12.1204
308,-622,5.14172,11.1174,0,0,0,0,0,0,0,-1,1532,1646,5.14172,-11.1174
315,-622,4.62634,11.9142,0,0,0,0,0,0,0,-1,1539,1646,4.62633,-11.9142
322,-622,4.79138,11.8516,-0.00911656,-0.0162554,-0.0167931,0.00448224,-0.0298542,-0.68068,0.0215528,0.0439561,1546,1646,4.7914,-11.8516
329,-622,4.67273,11.5558,-0.00695872,-0.0141844,-0.0163206,0.0061442,-0.0272873,-0.676472,0.0205481,0.0425516,1553,1646,4.67277,-11.5557
336,-622,4.80554,11.6329,0,0,0,0,0,0,0,-1,1560,1646,4.80553,-11.6329
343,-622,5.24353,11.5066,0,0,0,0,0,0,0,-1,1567,1646,5.24356,-11.5066
350,-622,5.26611,11.2715,-0.00238471,-0.00739277,-0.0102578,0.00567031,-0.0154478,-0.665685,0.0126206,0.0490002,1574,1646,5.26612,-11.2715
357,-622,5.43689,10.884,-0.00119239,-0.00558909,-0.00794207,0.00484996,-0.0116314,-0.65038,0.00978036,0.0425945,1581,1646,5.43689,-10.884
364,-622,5.49976,10.7532,-0.000506359,-0.00425886,-0.00526312,0.00320495,-0.00797017,-0.614176,0.0066446,0.0335245,1588,1646,5.49973,-10.7532
371,-622,5.3761,10.6895,-0.000114354,-0.00338236,-0.00293843,0.00161384,-0.00511055,-0.531649,0.00405352,0.0202463,1595,1646,5.37612,-10.6895
378,-622,5.34021,10.6038,0.000530178,-0.00203502,-0.000615883,0.000670383,-0.00217523,-0.223834,0.00171778,0.0110612,1602,1646,5.34017,-10.6037
385,-622,5.32678,10.4851,0.000708341,-0.00101678,0.00119379,0.00131858,-0.00162702,0.472552,0.00170375,0.00974734,1609,1646,5.32683,-10.4851
392,-622,5.34131,10.3553,0.000326208,-0.00154954,0.00149809,0.00115579,-0.00237911,0.505723,0.00208121,0.0105472,1616,1646,5.34134,-10.3554
399,-622,5.3468,10.2213,0.000156329,-0.00175632,0.00144209,0.000930372,-0.00253036,0.492615,0.00206801,0.0113656,1623,1646,5.34679,-10.2214
406,-622,5.34497,10.1061,-0.000123079,-0.00201038,0.00146878,0.000679065,-0.00281253,0.499866,0.00213763,0.0138815,1630,1646,5.34498,-10.1061
413,-622,5.35193,9.99097,-0.000397301,-0.00183643,0.00143383,0.000487393,-0.00272112,0.552836,0.00199647,0.0134432,1637,1646,5.35193,-9.99098
420,-622,5.36267,9.87573,-0.000768967,-0.00155472,0.00149286,0.000381848,-0.00270553,0.656731,0.00194351,0.0137819,1644,1646,5.3627,-9.87577
427,-622,5.3678,9.73914,-0.00135029,-0.000961968,0.00165724,0.000512447,-0.0028247,0.843712,0.00207515,0.0112631,1651,1646,5.36774,-9.73919
434,-622,5.3877,9.59656,-0.00197546,-0.00032129,0.00181725,0.000848241,-0.00314499,0.998954,0.00242928,0.01151,1658,1646,5.38765,-9.59657
441,-622,5.38733,9.48303,-0.00280697,0.000479755,0.00180574,0.00127798,-0.00360519,1.15458,0.00292407,0.01347,1665,1646,5.38729,-9.48309
448,-622,5.36707,9.3656,-0.0036394,0.00110016,0.00163947,0.001612,-0.00415123,1.26819,0.00343337,0.0127547,1672,1646,5.36712,-9.36559
455,-622,5.35168,9.21497,-0.00461525,0.00184501,0.00156685,0.00220497,-0.00497521,1.34498,0.00424708,0.01443,1679,1646,5.35167,-9.21498
462,-622,5.3656,9.08948,-0.00564675,0.00268399,0.00130579,0.00288387,-0.00584663,1.4189,0.00513639,0.0155746,1686,1646,5.36563,-9.08946
469,-622,5.36792,8.94507,-0.00668373,0.00339164,0.000841207,0.00346139,-0.00675348,1.48807,0.00599878,0.0170729,1693,1646,5.36788,-8.94503
476,-622,5.35596,8.78479,-0.00771983,0.00398893,0.00014722,0.00399078,-0.00772168,1.55823,0.0068756,0.016501,1700,1646,5.35596,-8.78478
483,-622,5.37671,8.63452,-0.00841802,0.00434668,-0.000876434,0.00440658,-0.00847792,-1.50256,0.00756165,0.0225638,1707,1646,5.37674,-8.63455
490,-622,5.3999,8.4707,-0.00838542,0.00449016,-0.00235048,0.00490582,-0.00880108,-1.39576,0.0080195,0.0300261,1714,1646,5.39989,-8.47067
497,-622,5.47656,8.3385,-0.00762472,0.00468747,-0.00457337,0.00620035,-0.00913761,-1.25133,0.00890934,0.0393138,1721,1646,5.47656,-8.33852
504,-622,5.57654,8.21472,0,0,0,0,0,0,0,-1,1728,1646,5.57654,-8.21475
511,-622,5.29004,4.14587,0,0,0,0,0,0,0,-1,1735,1646,5.29008,-4.14589
518,-622,5.6001,1.55359,0,0,0,0,0,0,0,-1,1742,1646,5.60015,-1.5536
525,-622,5.68213,1.32361,0,0,0,0,0,0,0,-1,1749,1646,5.68209,-1.32361
532,-622,5.44202,0.57373,0,0,0,0,0,0,0,-1,1756,1646,5.44196,-0.573705
539,-622,9.32129,1.06116,0,0,0,0,0,0,0,-1,1763,1646,9.32131,-1.0612
546,-622,6.50977,-3.45618,0,0,0,0,0,0,0,-1,1770,1646,6.50981,3.4562
553,-622,0,0,0,0,0,0,0,0,0,-1,1777,1646,0,0
560,-622,0,0,0,0,0,0,0,0,0,-1,1784,1646,0,0
567,-622,0,0,0,0,0,0,0,0,0,-1,1791,1646,0,0
574,-622,0,0,0,0,0,0,0,0,0,-1,1798,1646,0,0
581,-622,0,0,0,0,0,0,0,0,0,-1,1805,1646,0,0
588,-622,0,0,0,0,0,0,0,0,0,-1,1812,1646,0,0
595,-622,0,0,0,0,0,0,0,0,0,-1,1819,1646,0,0
602,-622,0,0,0,0,0,0,0,0,0,-1,1826,1646,0,0
609,-622,0,0,0,0,0,0,0,0,0,-1,1833,1646,0,0
616,-622,0,0,0,0,0,0,0,0,0,-1,1840,1646,0,0
623,-622,0,0,0,0,0,0,0,0,0,-1,1847,1646,0,0
630,-622,0,0,0,0,0,0,0,0,0,-1,1854,1646,0,0
637,-622,0,0,0,0,0,0,0,0,0,-1,1861,1646,0,0
644,-622,0,0,0,0,0,0,0,0,0,-1,1868,1646,0,0
651,-622,0,0,0,0,0,0,0,0,0,-1,1875,1646,0,0
658,-622,0,0,0,0,0,0,0,0,0,-1,1882,1646,0,0
665,-622,0,0,0,0,0,0,0,0,0,-1,1889,1646,0,0
672,-622,0,0,0,0,0,0,0,0,0,-1,1896,1646,0,0
679,-622,0,0,0,0,0,0,0,0,0,-1,1903,1646,0,0
686,-622,0,0,0,0,0,0,0,0,0,-1,1910,1646,0,0
693,-622,0,0,0,0,0,0,0,0,0,-1,1917,1646,0,0
700,-622,0,0,0,0,0,0,0,0,0,-1,1924,1646,0,0
707,-622,0,0,0,0,0,0,0,0,0,-1,1931,1646,0,0
714,-622,0,0,0,0,0,0,0,0,0,-1,1938,1646,0,0
721,-622,0,0,0,0,0,0,0,0,0,-1,1945,1646,0,0
728,-622,0,0,0,0,0,0,0,0,0,-1,1952,1646,0,0
735,-622,0,0,0,0,0,0,0,0,0,-1,1959,1646,0,0
742,-622,0,0,0,0,0,0,0,0,0,-1,1966,1646,0,0
749,-622,0,0,0,0,0,0,0,0,0,-1,1973,1646,0,0
756,-622,0,0,0,0,0,0,0,0,0,-1,1980,1646,0,0
763,-622,0,0,0,0,0,0,0,0,0,-1,1987,1646,0,0
770,-622,0,0,0,0,0,0,0,0,0,-1,1994,1646,0,0
777,-622,0,0,0,0,0,0,0,0,0,-1,2001,1646,0,0
784,-622,0,0,0,0,0,0,0,0,0,-1,2008,1646,0,0
791,-622,0,0,0,0,0,0,0,0,0,-1,2015,1646,0,0
798,-622,0,0,0,0,0,0,0,0,0,-1,2022,1646,0,0
805,-622,0,0,0,0,0,0,0,0,0,-1,2029,1646,0,0
812,-622,0,0,0,0,0,0,0,0,0,-1,2036,1646,0,0
-700,-629,0,0,0,0,0,0,0,0,0,-1,524,1653,0,0
-693,-629,0,0,0,0,0,0,0,0,0,-1,531,1653,0,0
-686,-629,0,0,0,0,0,0,0,0,0,-1,538,1653,0,0
-679,-629,0,0,0,0,0,0,0,0,0,-1,545,1653,0,0
-672,-629,0,0,0,0,0,0,0,0,0,-1,552,1653,0,0
-665,-629,0,0,0,0,0,0,0,0,0,-1,559,1653,0,0
-658,-629,0,0,0,0,0,0,0,0,0,-1,566,1653,0,0
-651,-629,0,0,0,0,0,0,0,0,0,-1,573,1653,0,0
-644,-629,0,0,0,0,0,0,0,0,0,-1,580,1653,0,0
-637,-629,0,0,0,0,0,0,0,0,0,-1,587,1653,0,0
-630,-629,0,0,0,0,0,0,0,0,0,-1,594,1653,0,0
-623,-629,0,0,0,0,0,0,0,0,0,-1,601,1653,0,0
-616,-629,0,0,0,0,0,0,0,0,0,-1,608,1653,0,0
-609,-629,0,0,0,0,0,0,0,0,0,-1,615,1653,0,0
-602,-629,0,0,0,0,0,0,0,0,0,-1,622,1653,0,0
-595,-629,0,0,0,0,0,0,0,0,0,-1,629,1653,0,0
-588,-629,0,0,0,0,0,0,0,0,0,-1,636,1653,0,0
-581,-629,0,0,0,0,0,0,0,0,0,-1,643,1653,0,0
-574,-629,0,0,0,0,0,0,0,0,0,-1,650,1653,0,0
-567,-629,0,0,0,0,0,0,0,0,0,-1,657,1653,0,0
-560,-629,0,0,0,0,0,0,0,0,0,-1,664,1653,0,0
-553,-629,0,0,0,0,0,0,0,0,0,-1,671,1653,0,0
-546,-629,0,0,0,0,0,0,0,0,0,-1,678,1653,0,0
-539,-629,0,0,0,0,0,0,0,0,0,-1,685,1653,0,0
-532,-629,0,0,0,0,0,0,0,0,0,-1,692,1653,0,0
-525,-629,0,0,0,0,0,0,0,0,0,-1,699,1653,0,0
-518,-629,0,0,0,0,0,0,0,0,0,-1,706,1653,0,0
-511,-629,0,0,0,0,0,0,0,0,0,-1,713,1653,0,0
-504,-629,0,0,0,0,0,0,0,0,0,-1,720,1653,0,0
-497,-629,0,0,0,0,0,0,0,0,0,-1,727,1653,0,0
-490,-629,0,0,0,0,0,0,0,0,0,-1,734,1653,0,0
-483,-629,0,0,0,0,0,0,0,0,0,-1,741,1653,0,0
-476,-629,0,0,0,0,0,0,0,0,0,-1,748,1653,0,0
-469,-629,0,0,0,0,0,0,0,0,0,-1,755,1653,0,0
-462,-629,0,0,0,0,0,0,0,0,0,-1,762,1653,0,0
-455,-629,0,0,0,0,0,0,0,0,0,-1,769,1653,0,0
-448,-629,0,0,0,0,0,0,0,0,0,-1,776,1653,0,0
-441,-629,0,0,0,0,0,0,0,0,0,-1,783,1653,0,0
-434,-629,0,0,0,0,0,0,0,0,0,-1,790,1653,0,0
-427,-629,0,0,0,0,0,0,0,0,0,-1,797,1653,0,0
-420,-629,-3.87103,3.37634,0,0,0,0,0,0,0,-1,804,1653,-3.87101,-3.37633
-413,-629,-5.69751,1.33582,0,0,0,0,0,0,0,-1,811,1653,-5.69754,-1.3358
-406,-629,-4.80127,2.0271,0,0,0,0,0,0,0,-1,818,1653,-4.80127,-2.02711
-399,-629,-3.96466,2.78967,0,0,0,0,0,0,0,-1,825,1653,-3.96469,-2.78972
-392,-629,1.88458,10.5132,0,0,0,0,0,0,0,-1,832,1653,1.8846,-10.5132
-385,-629,1.42053,8.64001,0,0,0,0,0,0,0,-1,839,1653,1.42051,-8.64006
-378,-629,2.55267,6.11218,0,0,0,0,0,0,0,-1,846,1653,2.55265,-6.11219
-371,-629,2.31073,7.1637,0,0,0,0,0,0,0,-1,853,1653,2.31074,-7.16372
-364,-629,1.95996,8.03784,0,0,0,0,0,0,0,-1,860,1653,1.95994,-8.03789
-357,-629,2.5332,7.62781,0,0,0,0,0,0,0,-1,867,1653,2.53319,-7.62787
-350,-629,2.7077,7.81848,-0.011634,0.0239446,-0.0231763,0.0353718,-0.0230611,-1.11272,0.0339849,0.0463784,874,1653,2.70772,-7.81854
-343,-629,2.55359,7.89294,-0.0106296,0.0158821,-0.0150368,0.0226718,-0.0174193,-1.14666,0.0232128,0.0361398,881,1653,2.55356,-7.89295
-336,-629,2.53931,7.88879,-0.00931409,0.00886717,-0.00786558,0.0117976,-0.0122446,-1.21416,0.0138816,0.0177666,888,1653,2.5393,-7.88878
-329,-629,2.53632,8.04272,-0.00834066,0.00429207,-0.00301892,0.00497645,-0.00902504,-1.34787,0.00819564,0.0112853,895,1653,2.53634,-8.04272
-322,-629,2.552,8.19177,-0.00742365,0.00109671,-0.000227123,0.00110276,-0.0074297,-1.54417,0.00535868,0.0114135,902,1653,2.55202,-8.1918
-315,-629,2.53265,8.3512,-0.00636426,0.00115501,-2.99379e-05,0.00115512,-0.00636438,-1.56681,0.00467577,0.0140696,909,1653,2.53264,-8.35121
-308,-629,2.52191,8.50574,-0.00539162,0.000989707,4.0137e-05,0.00098996,-0.00539187,1.56451,0.00396597,0.0122961,916,1653,2.5219,-8.50576
-301,-629,2.52344,8.66089,-0.00439882,0.000582122,0.000111191,0.000584602,-0.0044013,1.54849,0.00314722,0.0113271,923,1653,2.52344,-8.66094
-294,-629,2.51337,8.81616,-0.00331357,0.00016855,0.000208273,0.000180963,-0.00332598,1.51127,0.00228004,0.0116013,930,1653,2.51337,-8.81614
-287,-629,2.50769,8.9502,-0.00232005,-0.000169329,0.000309967,-0.000125547,-0.00236383,1.43048,0.00153575,0.00881343,937,1653,2.50768,-8.95018
-280,-629,2.51801,9.0813,-0.00150665,-0.000637821,0.00031746,-0.000534186,-0.00161029,1.25526,0.000947086,0.00942063,944,1653,2.51803,-9.08131
-273,-629,2.51147,9.21252,-0.000760711,-0.0014027,0.00019315,-0.000707081,-0.00145634,0.270841,0.000840933,0.0128447,951,1653,2.51146,-9.21254
-266,-629,2.51123,9.36914,-0.000127298,-0.00185475,0.000134245,-0.000116928,-0.00186512,0.0770955,0.00120633,0.0132265,958,1653,2.51122,-9.36917
-259,-629,2.5127,9.53687,0.000446689,-0.00248582,3.66397e-05,0.000447146,-0.00248628,0.0124917,0.00182492,0.0144288,965,1653,2.51267,-9.53681
-252,-629,2.52234,9.64832,0.000787544,-0.003131,-0.000222354,0.000800121,-0.00314358,-0.0565023,0.00240717,0.0108993,972,1653,2.52232,-9.64827
-245,-629,2.56384,9.78186,0.00116137,-0.00401146,-0.000712805,0.0012578,-0.00410789,-0.13446,0.00324028,0.00799223,979,1653,2.56385,-9.78191
-238,-629,2.552,9.91333,0.00213607,-0.00472498,-0.00201036,0.00268173,-0.00527064,-0.265039,0.0046717,0.00969448,986,1653,2.55202,-9.91336
-231,-629,2.53522,10.0411,0.0031595,-0.00508109,-0.00503279,0.00554349,-0.00746509,-0.442381,0.00753777,0.00943573,993,1653,2.5352,-10.0412
-224,-629,2.58704,10.1646,0.00515306,-0.00534707,-0.00872944,0.0100896,-0.0102836,-0.514667,0.0117626,0.00977938,1000,1653,2.58701,-10.1645
-217,-629,2.57849,10.2742,0.00844209,-0.00639294,-0.0124707,0.0155345,-0.0134854,-0.517107,0.0167686,0.0136368,1007,1653,2.57848,-10.2742
-210,-629,2.53491,10.3322,0.0118693,-0.00683492,-0.0171171,0.0220225,-0.0169881,-0.535376,0.0225853,0.0273214,1014,1653,2.53493,-10.3322
-203,-629,2.40619,10.3151,0.0161686,-0.00770859,-0.0215314,0.0288497,-0.0203897,-0.532263,0.0285679,0.037846,1021,1653,2.40618,-10.3151
-196,-629,2.68542,10.4148,0.0203344,-0.00859913,-0.0252495,0.0349679,-0.0232326,-0.525251,0.033829,0.0378504,1028,1653,2.68541,-10.4148
-189,-629,2.75671,10.4164,0.0253103,-0.00877141,-0.0246254,0.038216,-0.0216772,-0.482729,0.0350161,0.0395368,1035,1653,2.75671,-10.4163
-182,-629,4.10132,10.3865,0,0,0,0,0,0,0,-1,1042,1653,4.10132,-10.3865
-175,-629,0.0367432,10.8361,0.0373098,-0.00678687,-0.0182464,0.0438807,-0.0133577,-0.345661,0.0345774,0.0479324,1049,1653,0.0367954,-10.836
-168,-629,1.54004,10.5345,0.0429317,-0.00519313,-0.0119766,0.0457475,-0.00800894,-0.230915,0.0334888,0.0493684,1056,1653,1.54009,-10.5345
-161,-629,2.16443,10.5851,0,0,0,0,0,0,0,-1,1063,1653,2.16444,-10.5851
-154,-629,2.83362,10.4122,0.0530878,-0.000355028,0.00746479,0.0541109,-0.00137811,0.136206,0.036542,0.0467652,1070,1653,2.83363,-10.4123
-147,-629,3.37671,10.5413,0.0574772,0.00354147,0.0195446,0.0638148,-0.00279617,0.313568,0.0435052,0.0462525,1077,1653,3.37677,-10.5412
-140,-629,3.92212,10.7778,0.0611769,0.00749047,0.0321162,0.0761907,-0.00752332,0.437298,0.0534782,0.0480094,1084,1653,3.92211,-10.7778
-133,-629,4.59534,11.1489,0,0,0,0,0,0,0,-1,1091,1653,4.59532,-11.1489
-126,-629,2.69519,10.2487,0,0,0,0,0,0,0,-1,1098,1653,2.69515,-10.2486
-119,-629,4.94177,13.5525,0,0,0,0,0,0,0,-1,1105,1653,4.94172,-13.5525
-112,-629,5.63123,15.9187,0,0,0,0,0,0,0,-1,1112,1653,5.63118,-15.9187
-105,-629,2.15881,4.38342,0,0,0,0,0,0,0,-1,1119,1653,2.15878,-4.38347
-98,-629,0.825806,4.19385,0,0,0,0,0,0,0,-1,1126,1653,0.825779,-4.1939
-91,-629,-0.452271,3.64465,0,0,0,0,0,0,0,-1,1133,1653,-0.452278,-3.6446
-84,-629,-1.6897,0.867676,0,0,0,0,0,0,0,-1,1140,1653,-1.68974,-0.867617
-77,-629,-1.71143,0.768555,0,0,0,0,0,0,0,-1,1147,1653,-1.71137,-0.768609
-70,-629,-1.20886,2.52502,0,0,0,0,0,0,0,-1,1154,1653,-1.20886,-2.525
-63,-629,-0.960693,4.30212,0,0,0,0,0,0,0,-1,1161,1653,-0.960691,-4.30215
-56,-629,-1.31934,5.64343,0,0,0,0,0,0,0,-1,1168,1653,-1.31928,-5.6434
-49,-629,-2.15662,2.57458,0,0,0,0,0,0,0,-1,1175,1653,-2.15656,-2.57459
-42,-629,-2.46326,3.91467,0,0,0,0,0,0,0,-1,1182,1653,-2.4633,-3.91466
-35,-629,-2.67261,5.24292,0,0,0,0,0,0,0,-1,1189,1653,-2.67257,-5.24298
-28,-629,-0.402954,-0.866577,0,0,0,0,0,0,0,-1,1196,1653,-0.402943,0.866612
-21,-629,10.063,9.59705,0,0,0,0,0,0,0,-1,1203,1653,10.063,-9.59708
-14,-629,-0.904907,11.0746,0,0,0,0,0,0,0,-1,1210,1653,-0.90486,-11.0746
-7,-629,-0.85376,11.7239,0,0,0,0,0,0,0,-1,1217,1653,-0.853778,-11.7239
0,-629,-0.807373,12.3656,0,0,0,0,0,0,0,-1,1224,1653,-0.807359,-12.3656
7,-629,-0.868042,13.2397,0,0,0,0,0,0,0,-1,1231,1653,-0.868043,-13.2397
14,-629,-0.742676,13.9032,0,0,0,0,0,0,0,-1,1238,1653,-0.742641,-13.9032
21,-629,-0.39978,14.2395,0,0,0,0,0,0,0,-1,1245,1653,-0.399762,-14.2395
28,-629,6.02539,13.6824,0,0,0,0,0,0,0,-1,1252,1653,6.02536,-13.6824
35,-629,1.05334,12.0797,0,0,0,0,0,0,0,-1,1259,1653,1.05331,-12.0797
42,-629,1.25684,11.8044,0,0,0,0,0,0,0,-1,1266,1653,1.25687,-11.8044
49,-629,1.19531,10.5464,0,0,0,0,0,0,0,-1,1273,1653,1.19537,-10.5463
56,-629,0.930664,9.27856,0,0,0,0,0,0,0,-1,1280,1653,0.930694,-9.27861
63,-629,5.11377,9.85144,0,0,0,0,0,0,0,-1,1287,1653,5.11382,-9.8514
70,-629,4.97607,11.4202,0,0,0,0,0,0,0,-1,1294,1653,4.9761,-11.4202
77,-629,5.4823,11.1254,0,0,0,0,0,0,0,-1,1301,1653,5.48224,-11.1253
84,-629,6.59814,10.5347,0,0,0,0,0,0,0,-1,1308,1653,6.5982,-10.5346
91,-629,5.39294,9.47351,0,0,0,0,0,0,0,-1,1315,1653,5.39289,-9.47354
98,-629,4.77319,9.07214,0,0,0,0,0,0,0,-1,1322,1653,4.7732,-9.07212
105,-629,5.98438,12.3562,0,0,0,0,0,0,0,-1,1329,1653,5.98439,-12.3561
112,-629,6.23889,11.9615,0,0,0,0,0,0,0,-1,1336,1653,6.23884,-11.9616
119,-629,6.31763,11.558,0.00701624,-0.0176749,-0.00235126,0.00723814,-0.0178968,-0.0940998,0.0149403,0.0438327,1343,1653,6.31766,-11.558
126,-629,6.06665,11.4115,0.00662826,-0.0163855,-0.00478533,0.00758363,-0.0173408,-0.197055,0.0147531,0.0405976,1350,1653,6.06662,-11.4115
133,-629,5.77954,11.2384,0.0081249,-0.0129912,-0.0105344,0.0124815,-0.0173478,-0.392138,0.0172981,0.0457364,1357,1653,5.77956,-11.2384
140,-629,5.7854,10.8982,0.00953665,-0.00786747,-0.0206862,0.0232766,-0.0216075,-0.5863,0.0259198,0.0477387,1364,1653,5.7854,-10.8982
147,-629,5.64014,10.3772,0,0,0,0,0,0,0,-1,1371,1653,5.64008,-10.3772
154,-629,9.14783,7.88013,0,0,0,0,0,0,0,-1,1378,1653,9.14786,-7.88011
161,-629,10.5461,6.83752,0,0,0,0,0,0,0,-1,1385,1653,10.5461,-6.83758
168,-629,12.0059,5.56348,0,0,0,0,0,0,0,-1,1392,1653,12.0059,-5.56352
175,-629,5.84485,-1.78845,0,0,0,0,0,0,0,-1,1399,1653,5.84479,1.7884
182,-629,5.99036,-1.27783,0,0,0,0,0,0,0,-1,1406,1653,5.99041,1.27778
189,-629,5.97668,-0.748535,0,0,0,0,0,0,0,-1,1413,1653,5.97671,0.748544
196,-629,4.52869,9.24695,0,0,0,0,0,0,0,-1,1420,1653,4.52869,-9.2469
203,-629,3.75085,6.88037,0,0,0,0,0,0,0,-1,1427,1653,3.75087,-6.88032
210,-629,3.5907,6.52637,0,0,0,0,0,0,0,-1,1434,1653,3.59067,-6.52642
217,-629,2.4585,4.84448,0,0,0,0,0,0,0,-1,1441,1653,2.45855,-4.84448
224,-629,1.31982,3.68481,0,0,0,0,0,0,0,-1,1448,1653,1.31986,-3.68487
231,-629,3.63025,1.73499,0,0,0,0,0,0,0,-1,1455,1653,3.6303,-1.735
238,-629,4.26428,2.11255,0,0,0,0,0,0,0,-1,1462,1653,4.26429,-2.11253
245,-629,5.61816,1.95361,0,0,0,0,0,0,0,-1,1469,1653,5.61815,-1.95359
252,-629,7.27136,2.18982,0,0,0,0,0,0,0,-1,1476,1653,7.27131,-2.18985
259,-629,8.67334,2.18628,0,0,0,0,0,0,0,-1,1483,1653,8.6733,-2.18633
266,-629,6.86475,3.72058,0,0,0,0,0,0,0,-1,1490,1653,6.86479,-3.72063
273,-629,7.9021,3.8717,0,0,0,0,0,0,0,-1,1497,1653,7.90205,-3.87171
280,-629,9.70837,4.39087,0,0,0,0,0,0,0,-1,1504,1653,9.7084,-4.39082
287,-629,9.82947,7.19348,0,0,0,0,0,0,0,-1,1511,1653,9.8295,-7.19347
294,-629,6.54431,11.3997,0,0,0,0,0,0,0,-1,1518,1653,6.54434,-11.3997
301,-629,7.10632,11.8711,0,0,0,0,0,0,0,-1,1525,1653,7.10632,-11.8711
308,-629,4.3844,11.3567,0,0,0,0,0,0,0,-1,1532,1653,4.38439,-11.3567
315,-629,4.71484,11.5466,-0.00873843,-0.0113994,-0.00918158,-0.000791442,-0.0193464,-0.713445,0.012642,0.048412,1539,1653,4.71486,-11.5466
322,-629,4.81567,11.5347,-0.00681246,-0.010119,-0.0103882,0.00205327,-0.0189847,-0.706487,0.0133934,0.0424147,1546,1653,4.81566,-11.5346
329,-629,4.82214,11.6635,-0.00503528,-0.00870359,-0.0104534,0.00374364,-0.0174825,-0.698552,0.0130827,0.0405074,1553,1653,4.8221,-11.6634
336,-629,4.95837,11.3763,-0.00364076,-0.00737984,-0.00972338,0.00439119,-0.0154118,-0.690421,0.0120089,0.0413171,1560,1653,4.95835,-11.3763
343,-629,5.32715,11.2323,0,0,0,0,0,0,0,-1,1567,1653,5.32716,-11.2323
350,-629,5.2677,10.9532,-0.00142511,-0.00425399,-0.00699135,0.00429344,-0.00997254,-0.685589,0.00845121,0.0267449,1574,1653,5.26774,-10.9532
357,-629,5.2594,10.8799,-0.00057171,-0.00311843,-0.0055197,0.0038196,-0.00750974,-0.672035,0.00665565,0.0159963,1581,1653,5.25945,-10.8799
364,-629,5.24072,10.7831,-0.000145345,-0.00230605,-0.00366302,0.00259332,-0.00504472,-0.641997,0.00448489,0.0129304,1588,1653,5.24077,-10.7831
371,-629,5.23132,10.6841,7.37833e-05,-0.00188004,-0.00203797,0.00135689,-0.00316315,-0.561901,0.0026782,0.010345,1595,1653,5.23127,-10.6841
378,-629,5.23083,10.5834,0.000475796,-0.00111566,-0.000436052,0.00058744,-0.0012273,-0.25065,0.00106923,0.010128,1602,1653,5.2308,-10.5834
385,-629,5.22705,10.4705,0.000644206,-0.000547258,0.000723605,0.000985758,-0.00088881,0.441009,0.00108276,0.012674,1609,1653,5.22703,-10.4704
392,-629,5.22339,10.3436,0.00048083,-0.00110553,0.00078914,0.000806523,-0.00143122,0.391423,0.00130864,0.0112071,1616,1653,5.22338,-10.3437
399,-629,5.22314,10.2205,0.000415756,-0.00132133,0.000576285,0.000589552,-0.00149513,0.292906,0.00124087,0.0117241,1623,1653,5.2231,-10.2205
406,-629,5.22937,10.1241,0.000173248,-0.00157852,0.000528993,0.000320597,-0.00172587,0.27166,0.001271,0.0141456,1630,1653,5.2294,-10.1242
413,-629,5.22363,10.0212,-0.000114722,-0.0014616,0.000528803,6.80823e-05,-0.00164441,0.332834,0.00111966,0.0207088,1637,1653,5.22359,-10.0212
420,-629,5.21729,9.89941,-0.000601125,-0.00125864,0.00072183,-0.00013671,-0.00172305,0.571711,0.00110595,0.019306,1644,1653,5.2173,-9.89936
427,-629,5.22888,9.75037,-0.00138021,-0.000633285,0.00100204,6.26264e-05,-0.00207612,0.963775,0.00140542,0.0124775,1651,1653,5.22887,-9.75032
434,-629,5.24756,9.60229,-0.00221987,-4.49857e-06,0.00137223,0.000651334,-0.0028757,1.12496,0.00216712,0.0097668,1658,1653,5.2475,-9.60231
441,-629,5.25745,9.495,-0.00343484,0.000839104,0.00154795,0.00134085,-0.00393658,1.25735,0.0031674,0.0140307,1665,1653,5.25748,-9.49504
448,-629,5.23499,9.34705,-0.00472618,0.00143715,0.00151542,0.0017896,-0.00507864,1.34228,0.00411415,0.0136854,1672,1653,5.23498,-9.34707
455,-629,5.22363,9.19983,-0.00620004,0.00225964,0.00164179,0.00256709,-0.00650749,1.38567,0.00540135,0.0132016,1679,1653,5.22363,-9.19985
462,-629,5.25,9.10669,-0.00784327,0.00316914,0.00155938,0.0033857,-0.00805982,1.43281,0.00678927,0.0165111,1686,1653,5.25002,-9.10671
469,-629,5.255,8.95618,-0.00958836,0.00389207,0.00120362,0.0039987,-0.00969498,1.48244,0.00813086,0.0203876,1693,1653,5.25495,-8.95612
476,-629,5.22363,8.79529,-0.0112551,0.00451029,0.000362724,0.00451864,-0.0112635,1.5478,0.00938509,0.027275,1700,1653,5.22358,-8.79526
483,-629,5.20398,8.60315,-0.0125862,0.0048116,-0.00102934,0.0048723,-0.0126469,-1.5119,0.0104414,0.0397094,1707,1653,5.204,-8.60311
490,-629,5.34204,8.35095,-0.0132472,0.0048525,-0.00307441,0.00536046,-0.0137552,-1.40705,0.0113856,0.0428847,1714,1653,5.34203,-8.35101
497,-629,5.51099,8.23901,-0.0131436,0.00480238,-0.00604442,0.00664834,-0.0149895,-1.27439,0.0127983,0.0439561,1721,1653,5.51103,-8.23907
504,-629,5.698,8.14185,0,0,0,0,0,0,0,-1,1728,1653,5.69794,-8.14184
511,-629,6.29138,3.40295,0,0,0,0,0,0,0,-1,1735,1653,6.29137,-3.403
518,-629,5.84387,1.41858,0,0,0,0,0,0,0,-1,1742,1653,5.84391,-1.4186
525,-629,6.4729,1.02319,0,0,0,0,0,0,0,-1,1749,1653,6.47284,-1.02316
532,-629,6.86511,0.903687,0,0,0,0,0,0,0,-1,1756,1653,6.86514,-0.903691
539,-629,6.60803,0.746704,0,0,0,0,0,0,0,-1,1763,1653,6.60809,-0.746691
546,-629,0,0,0,0,0,0,0,0,0,-1,1770,1653,0,0
553,-629,0,0,0,0,0,0,0,0,0,-1,1777,1653,0,0
560,-629,0,0,0,0,0,0,0,0,0,-1,1784,1653,0,0
567,-629,0,0,0,0,0,0,0,0,0,-1,1791,1653,0,0
574,-629,0,0,0,0,0,0,0,0,0,-1,1798,1653,0,0
581,-629,0,0,0,0,0,0,0,0,0,-1,1805,1653,0,0
588,-629,0,0,0,0,0,0,0,0,0,-1,1812,1653,0,0
595,-629,0,0,0,0,0,0,0,0,0,-1,1819,1653,0,0
602,-629,0,0,0,0,0,0,0,0,0,-1,1826,1653,0,0
609,-629,0,0,0,0,0,0,0,0,0,-1,1833,1653,0,0
616,-629,0,0,0,0,0,0,0,0,0,-1,1840,1653,0,0
623,-629,0,0,0,0,0,0,0,0,0,-1,1847,1653,0,0
630,-629,0,0,0,0,0,0,0,0,0,-1,1854,1653,0,0
637,-629,0,0,0,0,0,0,0,0,0,-1,1861,1653,0,0
644,-629,0,0,0,0,0,0,0,0,0,-1,1868,1653,0,0
651,-629,0,0,0,0,0,0,0,0,0,-1,1875,1653,0,0
658,-629,0,0,0,0,0,0,0,0,0,-1,1882,1653,0,0
665,-629,0,0,0,0,0,0,0,0,0,-1,1889,1653,0,0
672,-629,0,0,0,0,0,0,0,0,0,-1,1896,1653,0,0
679,-629,0,0,0,0,0,0,0,0,0,-1,1903,1653,0,0
686,-629,0,0,0,0,0,0,0,0,0,-1,1910,1653,0,0
693,-629,0,0,0,0,0,0,0,0,0,-1,1917,1653,0,0
700,-629,0,0,0,0,0,0,0,0,0,-1,1924,1653,0,0
707,-629,0,0,0,0,0,0,0,0,0,-1,1931,1653,0,0
714,-629,0,0,0,0,0,0,0,0,0,-1,1938,1653,0,0
721,-629,0,0,0,0,0,0,0,0,0,-1,1945,1653,0,0
728,-629,0,0,0,0,0,0,0,0,0,-1,1952,1653,0,0
735,-629,0,0,0,0,0,0,0,0,0,-1,1959,1653,0,0
742,-629,0,0,0,0,0,0,0,0,0,-1,1966,1653,0,0
749,-629,0,0,0,0,0,0,0,0,0,-1,1973,1653,0,0
756,-629,0,0,0,0,0,0,0,0,0,-1,1980,1653,0,0
763,-629,0,0,0,0,0,0,0,0,0,-1,1987,1653,0,0
770,-629,0,0,0,0,0,0,0,0,0,-1,1994,1653,0,0
777,-629,0,0,0,0,0,0,0,0,0,-1,2001,1653,0,0
784,-629,0,0,0,0,0,0,0,0,0,-1,2008,1653,0,0
791,-629,0,0,0,0,0,0,0,0,0,-1,2015,1653,0,0
798,-629,0,0,0,0,0,0,0,0,0,-1,2022,1653,0,0
805,-629,0,0,0,0,0,0,0,0,0,-1,2029,1653,0,0
812,-629,0,0,0,0,0,0,0,0,0,-1,2036,1653,0,0
-700,-636,0,0,0,0,0,0,0,0,0,-1,524,1660,0,0
-693,-636,0,0,0,0,0,0,0,0,0,-1,531,1660,0,0
-686,-636,0,0,0,0,0,0,0,0,0,-1,538,1660,0,0
-679,-636,0,0,0,0,0,0,0,0,0,-1,545,1660,0,0
-672,-636,0,0,0,0,0,0,0,0,0,-1,552,1660,0,0
-665,-636,0,0,0,0,0,0,0,0,0,-1,559,1660,0,0
-658,-636,0,0,0,0,0,0,0,0,0,-1,566,1660,0,0
-651,-636,0,0,0,0,0,0,0,0,0,-1,573,1660,0,0
-644,-636,0,0,0,0,0,0,0,0,0,-1,580,1660,0,0
-637,-636,0,0,0,0,0,0,0,0,0,-1,587,1660,0,0
-630,-636,0,0,0,0,0,0,0,0,0,-1,594,1660,0,0
-623,-636,0,0,0,0,0,0,0,0,0,-1,601,1660,0,0
-616,-636,0,0,0,0,0,0,0,0,0,-1,608,1660,0,0
-609,-636,0,0,0,0,0,0,0,0,0,-1,615,1660,0,0
-602,-636,0,0,0,0,0,0,0,0,0,-1,622,1660,0,0
-595,-636,0,0,0,0,0,0,0,0,0,-1,629,1660,0,0
-588,-636,0,0,0,0,0,0,0,0,0,-1,636,1660,0,0
-581,-636,0,0,0,0,0,0,0,0,0,-1,643,1660,0,0
-574,-636,0,0,0,0,0,0,0,0,0,-1,650,1660,0,0
-567,-636,0,0,0,0,0,0,0,0,0,-1,657,1660,0,0
-560,-636,0,0,0,0,0,0,0,0,0,-1,664,1660,0,0
-553,-636,0,0,0,0,0,0,0,0,0,-1,671,1660,0,0
-546,-636,0,0,0,0,0,0,0,0,0,-1,678,1660,0,0
-539,-636,0,0,0,0,0,0,0,0,0,-1,685,1660,0,0
-532,-636,0,0,0,0,0,0,0,0,0,-1,692,1660,0,0
-525,-636,0,0,0,0,0,0,0,0,0,-1,699,1660,0,0
-518,-636,0,0,0,0,0,0,0,0,0,-1,706,1660,0,0
-511,-636,0,0,0,0,0,0,0,0,0,-1,713,1660,0,0
-504,-636,0,0,0,0,0,0,0,0,0,-1,720,1660,0,0
-497,-636,0,0,0,0,0,0,0,0,0,-1,727,1660,0,0
-490,-636,0,0,0,0,0,0,0,0,0,-1,734,1660,0,0
-483,-636,0,0,0,0,0,0,0,0,0,-1,741,1660,0,0
-476,-636,0,0,0,0,0,0,0,0,0,-1,748,1660,0,0
-469,-636,0,0,0,0,0,0,0,0,0,-1,755,1660,0,0
-462,-636,0,0,0,0,0,0,0,0,0,-1,762,1660,0,0
-455,-636,0,0,0,0,0,0,0,0,0,-1,769,1660,0,0
-448,-636,0,0,0,0,0,0,0,0,0,-1,776,1660,0,0
-441,-636,0,0,0,0,0,0,0,0,0,-1,783,1660,0,0
-434,-636,0,0,0,0,0,0,0,0,0,-1,790,1660,0,0
-427,-636,0,0,0,0,0,0,0,0,0,-1,797,1660,0,0
-420,-636,0,0,0,0,0,0,0,0,0,-1,804,1660,0,0
-413,-636,0,0,0,0,0,0,0,0,0,-1,811,1660,0,0
-406,-636,-5.62274,1.81348,0,0,0,0,0,0,0,-1,818,1660,-5.62276,-1.81351
-399,-636,2.33002,11.1954,0,0,0,0,0,0,0,-1,825,1660,2.33003,-11.1955
-392,-636,1.88873,9.50659,-0.0222326,0.124333,-0.12036,0.191965,-0.0898642,-1.05885,0.166235,0.0446342,832,1660,1.88871,-9.5066
-385,-636,1.38867,7.92407,-0.0198783,0.111323,-0.108711,0.172693,-0.0812482,-1.05687,0.149748,0.0419326,839,1660,1.38866,-7.9241
-378,-636,1.11896,6.12073,-0.0173713,0.0972166,-0.093396,0.149492,-0.0696466,-1.06052,0.129289,0.0449786,846,1660,1.11898,-6.12067
-371,-636,1.95099,7.90942,0,0,0,0,0,0,0,-1,853,1660,1.95096,-7.90941
-364,-636,1.61005,8.78308,0,0,0,0,0,0,0,-1,860,1660,1.61006,-8.78314
-357,-636,2.42841,7.98438,0,0,0,0,0,0,0,-1,867,1660,2.42839,-7.98439
-350,-636,2.87042,7.99951,0,0,0,0,0,0,0,-1,874,1660,2.87044,-7.99945
-343,-636,2.80566,8.08276,0,0,0,0,0,0,0,-1,881,1660,2.80568,-8.08272
-336,-636,2.65485,7.9292,-0.0129612,0.0125213,-0.010454,0.0162612,-0.0167011,-1.22724,0.0190313,0.0376819,888,1660,2.65483,-7.92922
-329,-636,2.70215,8.06287,-0.0118357,0.00593189,-0.00375506,0.0066929,-0.0125967,-1.37084,0.0113094,0.0171925,895,1660,2.70217,-8.06282
-322,-636,2.70648,8.1991,-0.0107016,0.00146322,7.95057e-05,0.00146374,-0.0107021,1.56426,0.00766933,0.0104781,902,1660,2.7065,-8.19907
-315,-636,2.66772,8.34741,-0.00919305,0.00155369,0.000265217,0.00156023,-0.0091996,1.54614,0.00671384,0.0111547,909,1660,2.66775,-8.34741
-308,-636,2.66388,8.50232,-0.00775918,0.00144035,0.000331713,0.00145229,-0.00777113,1.5348,0.00572657,0.010172,916,1660,2.66388,-8.50233
-301,-636,2.67126,8.66174,-0.00632246,0.00110129,0.000394862,0.00112223,-0.0063434,1.51781,0.00464839,0.0106546,923,1660,2.67127,-8.66178
-294,-636,2.6524,8.80798,-0.00484854,0.000782451,0.000474038,0.000822079,-0.00488817,1.48739,0.00356454,0.0133972,930,1660,2.65242,-8.80795
-287,-636,2.64386,8.95435,-0.00352428,0.000487827,0.000530442,0.000556772,-0.00359323,1.44154,0.00260102,0.0114314,937,1660,2.64384,-8.95438
-280,-636,2.66077,9.0824,-0.00243479,0.000106566,0.000512375,0.00020598,-0.0025342,1.37915,0.00176214,0.0112783,944,1660,2.66077,-9.08235
-273,-636,2.65948,9.21045,-0.0014657,-0.000581421,0.000372122,-0.000445665,-0.00160145,1.22098,0.000954417,0.0122668,951,1660,2.65949,-9.2104
-266,-636,2.66577,9.36292,-0.000655796,-0.000913645,0.000287531,-0.000469609,-0.00109983,0.574643,0.000637242,0.013517,958,1660,2.66575,-9.3629
-259,-636,2.67633,9.52576,0.000150847,-0.00147369,0.000205812,0.000176516,-0.00149936,0.124079,0.0010633,0.0147993,965,1660,2.67632,-9.52578
-252,-636,2.67291,9.6532,0.000620088,-0.00193086,-6.15579e-05,0.000621573,-0.00193234,-0.0241127,0.00153787,0.0113844,972,1660,2.67293,-9.65314
-245,-636,2.69958,9.78882,0.00097784,-0.00267647,-0.00049744,0.00104434,-0.00274297,-0.132903,0.00225873,0.0104839,979,1660,2.6996,-9.7888
-238,-636,2.69635,9.91504,0.00169307,-0.0033447,-0.0014872,0.00209934,-0.00375097,-0.266672,0.00342225,0.011977,986,1660,2.69635,-9.91506
-231,-636,2.67651,10.0385,0.00238579,-0.00386237,-0.00357578,0.00400998,-0.00548656,-0.426358,0.00550488,0.0112411,993,1660,2.67651,-10.0384
-224,-636,2.69659,10.173,0.00385675,-0.00424315,-0.00636707,0.00735277,-0.00773917,-0.502135,0.00871429,0.00870192,1000,1660,2.69661,-10.173
-217,-636,2.68469,10.3159,0.00636379,-0.00533765,-0.00910035,0.0113319,-0.0103058,-0.49971,0.0124972,0.0102954,1007,1660,2.68468,-10.3159
-210,-636,2.68152,10.4104,0.00898591,-0.00601238,-0.0125004,0.016064,-0.0130905,-0.51522,0.0168615,0.0146176,1014,1660,2.68155,-10.4104
-203,-636,2.74213,10.502,0.0122812,-0.00707852,-0.0156686,0.0210189,-0.0158162,-0.5087,0.0213373,0.0172384,1021,1660,2.74214,-10.502
-196,-636,2.81079,10.5645,0.0154168,-0.00816889,-0.0182151,0.0253232,-0.0180753,-0.498117,0.0251724,0.0179949,1028,1660,2.81076,-10.5645
-189,-636,2.80908,10.6726,0.018979,-0.00879628,-0.0178609,0.0277161,-0.0175334,-0.45495,0.0263444,0.0210581,1035,1660,2.80907,-10.6725
-182,-636,2.66638,10.4932,0.0234219,-0.00892528,-0.0168558,0.0306085,-0.016112,-0.403025,0.0274035,0.0377469,1042,1660,2.66637,-10.4931
-175,-636,1.64893,10.9087,0.0278788,-0.00811718,-0.0140694,0.0327254,-0.0129638,-0.331747,0.0271887,0.0467269,1049,1660,1.64887,-10.9087
-168,-636,1.71155,11.1047,0.0320174,-0.0072602,-0.00978984,0.0343223,-0.00956504,-0.231221,0.0266484,0.0470548,1056,1660,1.71157,-11.1048
-161,-636,2.17371,10.8921,0.0359055,-0.00605972,-0.00371249,0.0362314,-0.00638562,-0.0875598,0.0265401,0.045526,1063,1660,2.17373,-10.8921
-154,-636,2.70752,10.6979,0.039578,-0.00405751,0.00403911,0.0399487,-0.00442824,0.0915284,0.0282246,0.0486778,1070,1660,2.70757,-10.6979
-147,-636,3.17395,10.5715,0.0429104,-0.00121652,0.0128998,0.0464047,-0.00471084,0.264534,0.0326203,0.0481809,1077,1660,3.17393,-10.5716
-140,-636,1.9751,11.3925,0.0456976,0.00130133,0.0222647,0.0549395,-0.00794056,0.393448,0.0395399,0.0454875,1084,1660,1.97507,-11.3925
-133,-636,2.04956,11.5254,0,0,0,0,0,0,0,-1,1091,1660,2.04956,-11.5254
-126,-636,2.76392,10.4205,0,0,0,0,0,0,0,-1,1098,1660,2.76389,-10.4205
-119,-636,2.94067,11.9276,0,0,0,0,0,0,0,-1,1105,1660,2.94066,-11.9276
-112,-636,-1.24963,9.7998,0,0,0,0,0,0,0,-1,1112,1660,-1.24968,-9.79978
-105,-636,3.51624,4.72791,0,0,0,0,0,0,0,-1,1119,1660,3.51618,-4.7279
-98,-636,1.54504,5.11914,0,0,0,0,0,0,0,-1,1126,1660,1.54503,-5.11912
-91,-636,-1.34851,-0.613892,0,0,0,0,0,0,0,-1,1133,1660,-1.34851,0.613898
-84,-636,-2.17297,0.887573,0,0,0,0,0,0,0,-1,1140,1660,-2.17299,-0.887547
-77,-636,-2.99744,2.38904,0,0,0,0,0,0,0,-1,1147,1660,-2.99746,-2.38899
-70,-636,-1.85706,5.08752,0,0,0,0,0,0,0,-1,1154,1660,-1.85707,-5.08749
-63,-636,-2.21033,6.97168,0,0,0,0,0,0,0,-1,1161,1660,-2.21034,-6.97165
-56,-636,-2.51917,8.80359,0,0,0,0,0,0,0,-1,1168,1660,-2.51916,-8.80361
-49,-636,-3.13,10.4113,0,0,0,0,0,0,0,-1,1175,1660,-3.12996,-10.4112
-42,-636,-2.27771,4.90173,0,0,0,0,0,0,0,-1,1182,1660,-2.27775,-4.90173
-35,-636,-2.27698,5.89685,0,0,0,0,0,0,0,-1,1189,1660,-2.27695,-5.89686
-28,-636,-1.70654,4.83936,0,0,0,0,0,0,0,-1,1196,1660,-1.70656,-4.8393
-21,-636,-0.0787354,10.5668,0,0,0,0,0,0,0,-1,1203,1660,-0.078785,-10.5668
-14,-636,0.085083,11.1882,0.00029226,0.00273877,-0.0503418,0.0518722,-0.0488412,-0.797545,0.0581557,0.0495454,1210,1660,0.0850477,-11.1883
-7,-636,-0.0599365,12.0122,0.00866287,0.00604158,-0.0430648,0.0504369,-0.0357325,-0.770186,0.0499908,0.0455135,1217,1660,-0.0599118,-12.0122
0,-636,0.0374756,12.6554,0.012668,0.00941381,-0.035441,0.0465192,-0.0244374,-0.762459,0.0416228,0.0474264,1224,1660,0.0375059,-12.6554
7,-636,0.214478,13.3185,0,0,0,0,0,0,0,-1,1231,1660,0.214468,-13.3184
14,-636,0.723755,13.8929,0,0,0,0,0,0,0,-1,1238,1660,0.723732,-13.893
21,-636,1.06714,14.2498,0,0,0,0,0,0,0,-1,1245,1660,1.0671,-14.2497
28,-636,1.35962,14.6071,0,0,0,0,0,0,0,-1,1252,1660,1.35963,-14.6071
35,-636,6.41797,14.8748,0,0,0,0,0,0,0,-1,1259,1660,6.41803,-14.8747
42,-636,1.76086,11.4536,0,0,0,0,0,0,0,-1,1266,1660,1.76088,-11.4536
49,-636,3.24414,10.6758,0,0,0,0,0,0,0,-1,1273,1660,3.24412,-10.6758
56,-636,4.09131,10.4624,0,0,0,0,0,0,0,-1,1280,1660,4.09133,-10.4624
63,-636,4.14038,11.632,0,0,0,0,0,0,0,-1,1287,1660,4.14035,-11.632
70,-636,4.74121,11.3745,0.0280062,-0.0178526,0.000531421,0.0280124,-0.0178588,0.0115861,0.0266991,0.0497787,1294,1660,4.74123,-11.3746
77,-636,5.28711,11.1023,0.0253194,-0.0210967,0.000805802,0.0253334,-0.0211107,0.0173534,0.0268514,0.0486836,1301,1660,5.28706,-11.1023
84,-636,5.83899,10.8358,0,0,0,0,0,0,0,-1,1308,1660,5.83903,-10.8358
91,-636,4.90369,9.85767,0.0192488,-0.0213091,0.00576778,0.0200531,-0.0221134,0.138552,0.0243545,0.0430469,1315,1660,4.90371,-9.85771
98,-636,4.41687,9.37134,0,0,0,0,0,0,0,-1,1322,1660,4.41693,-9.3714
105,-636,5.02368,11.0541,0,0,0,0,0,0,0,-1,1329,1660,5.02371,-11.0541
112,-636,5.53052,11.2756,0,0,0,0,0,0,0,-1,1336,1660,5.53056,-11.2757
119,-636,5.91687,11.5519,0,0,0,0,0,0,0,-1,1343,1660,5.91685,-11.5519
126,-636,6.71179,12.0946,0,0,0,0,0,0,0,-1,1350,1660,6.71185,-12.0946
133,-636,5.37402,11.4176,0.0235959,-0.0095298,-0.00302071,0.0238691,-0.009803,-0.090198,0.019998,0.0455801,1357,1660,5.37401,-11.4175
140,-636,5.04907,10.8851,0.0243209,-0.0031188,-0.010891,0.0281181,-0.006916,-0.335478,0.0214261,0.043607,1364,1660,5.04903,-10.8852
147,-636,4.69861,10.0095,0.0203671,0.00131169,-0.0238138,0.0364884,-0.0148096,-0.595105,0.0304858,0.0450743,1371,1660,4.69858,-10.0096
154,-636,4.40527,9.17029,0,0,0,0,0,0,0,-1,1378,1660,4.40523,-9.17034
161,-636,10.2961,7.13025,0,0,0,0,0,0,0,-1,1385,1660,10.2961,-7.13021
168,-636,11.7659,5.83899,0,0,0,0,0,0,0,-1,1392,1660,11.7658,-5.83899
175,-636,5.94592,-1.72888,0,0,0,0,0,0,0,-1,1399,1660,5.94598,1.72886
182,-636,5.93994,-1.11938,0,0,0,0,0,0,0,-1,1406,1660,5.93998,1.11936
189,-636,5.32544,11.9595,0,0,0,0,0,0,0,-1,1413,1660,5.32542,-11.9595
196,-636,5.3623,9.38025,0,0,0,0,0,0,0,-1,1420,1660,5.36225,-9.38027
203,-636,5.18542,9.02429,0,0,0,0,0,0,0,-1,1427,1660,5.18547,-9.0243
210,-636,4.09167,7.17041,0,0,0,0,0,0,0,-1,1434,1660,4.09173,-7.17041
217,-636,2.94897,5.28992,0,0,0,0,0,0,0,-1,1441,1660,2.94899,-5.28991
224,-636,1.49194,3.63916,0,0,0,0,0,0,0,-1,1448,1660,1.49197,-3.63918
231,-636,0.17749,2.24854,0,0,0,0,0,0,0,-1,1455,1660,0.177501,-2.24855
238,-636,-0.764648,1.00598,0,0,0,0,0,0,0,-1,1462,1660,-0.764704,-1.00595
245,-636,6.21204,1.18005,0,0,0,0,0,0,0,-1,1469,1660,6.21206,-1.18001
252,-636,7.70251,0.865723,0,0,0,0,0,0,0,-1,1476,1660,7.7025,-0.865692
259,-636,9.03601,0.787231,0,0,0,0,0,0,0,-1,1483,1660,9.03598,-0.787243
266,-636,10.1071,3.24109,0,0,0,0,0,0,0,-1,1490,1660,10.1071,-3.24103
273,-636,8.48535,5.02466,0,0,0,0,0,0,0,-1,1497,1660,8.48533,-5.02472
280,-636,8.81384,5.66992,0,0,0,0,0,0,0,-1,1504,1660,8.81381,-5.66998
287,-636,6.08606,11.49,0,0,0,0,0,0,0,-1,1511,1660,6.08606,-11.49
294,-636,6.09546,11.4152,-0.0116987,-0.00747072,0.00443616,-0.00467061,-0.0144988,1.00775,0.00854564,0.0477726,1518,1660,6.09541,-11.4151
301,-636,6.10889,11.3545,-0.0100256,-0.00761387,0.000680904,-0.00743491,-0.0102046,1.31378,0.00609338,0.0435969,1525,1660,6.10893,-11.3545
308,-636,5.23425,11.382,0,0,0,0,0,0,0,-1,1532,1660,5.23429,-11.382
315,-636,5.01013,11.4364,-0.0065836,-0.00680309,-0.00446767,-0.00222432,-0.0111624,-0.773118,0.0068221,0.0459104,1539,1660,5.01014,-11.4364
322,-636,4.88,11.3152,-0.0050282,-0.00597319,-0.00574734,0.000266032,-0.0112674,-0.744385,0.00760184,0.0361603,1546,1660,4.88001,-11.3152
329,-636,4.98328,11.2273,-0.00358903,-0.00503897,-0.00618093,0.0019093,-0.0105373,-0.727019,0.0077402,0.0262018,1553,1660,4.98332,-11.2272
336,-636,5.078,11.139,-0.00249535,-0.00426241,-0.00602151,0.0027071,-0.00946486,-0.712553,0.00737968,0.0223478,1560,1660,5.07796,-11.139
343,-636,5.08923,11.0887,-0.00167185,-0.00326743,-0.00532262,0.00291243,-0.00785171,-0.711008,0.00642907,0.0205291,1567,1660,5.08927,-11.0887
350,-636,5.08142,10.9924,-0.000781411,-0.00224538,-0.00460214,0.00314659,-0.00617338,-0.706532,0.00547466,0.01171,1574,1660,5.08146,-10.9924
357,-636,5.0929,10.8884,-0.000133648,-0.00156815,-0.0037644,0.00298122,-0.00468302,-0.691259,0.00446117,0.00999896,1581,1660,5.09289,-10.8885
364,-636,5.11572,10.7871,0.000197034,-0.00107479,-0.00260981,0.00224729,-0.00312504,-0.665896,0.00311549,0.00998871,1588,1660,5.11571,-10.7872
371,-636,5.11584,10.6909,0.000369193,-0.000929805,-0.00155923,0.00140879,-0.0019694,-0.588052,0.00195933,0.00849033,1595,1660,5.11585,-10.6909
378,-636,5.13635,10.5715,0.000677167,-0.000563092,-0.000536973,0.000877343,-0.000763268,-0.356828,0.00094797,0.00899331,1602,1660,5.13639,-10.5715
385,-636,5.13916,10.4438,0.000893465,-0.000345113,0.000123218,0.000905604,-0.000357252,0.0982007,0.000751673,0.0153029,1609,1660,5.13922,-10.4438
392,-636,5.11414,10.3171,0.000939054,-0.00095287,1.12069e-05,0.00093912,-0.000952936,0.00592328,0.00109239,0.0165682,1616,1660,5.11418,-10.3172
399,-636,5.10339,10.2181,0.000989817,-0.00121849,-0.000327954,0.00103749,-0.00126616,-0.14436,0.0013322,0.0122755,1623,1660,5.10345,-10.2181
406,-636,5.11047,10.1281,0.000793654,-0.0015141,-0.000437204,0.000873705,-0.00159416,-0.181093,0.00144492,0.0141407,1630,1660,5.11049,-10.1281
413,-636,5.11682,9.99548,0.000485098,-0.0014878,-0.000391809,0.000560061,-0.00156277,-0.189041,0.00127037,0.0220541,1637,1660,5.11681,-9.99549
420,-636,5.08875,9.89014,-0.000138892,-0.00139706,-4.45518e-05,-0.000137317,-0.00139864,-0.035351,0.00089019,0.0215384,1644,1660,5.08874,-9.89016
427,-636,5.09009,9.75623,-0.00115523,-0.000781085,0.000377006,-0.00054729,-0.00138903,1.0157,0.000807938,0.0130675,1651,1660,5.09005,-9.75622
434,-636,5.09961,9.61292,-0.00227503,-0.000190737,0.000990323,0.000204757,-0.00267052,1.19084,0.00185238,0.0112401,1658,1660,5.09962,-9.61294
441,-636,5.11755,9.46045,-0.00398621,0.000688244,0.00137725,0.00106385,-0.00436181,1.30455,0.00331981,0.01123,1665,1660,5.11761,-9.46039
448,-636,5.14722,9.32227,-0.00589578,0.00125155,0.00149351,0.00155109,-0.00619531,1.37287,0.00473273,0.0133082,1672,1660,5.14726,-9.32227
455,-636,5.14417,9.17493,-0.00806455,0.00216395,0.00186312,0.00249275,-0.00839335,1.39612,0.00658566,0.0151157,1679,1660,5.14423,-9.17493
462,-636,5.08887,9.03418,-0.0105696,0.0031686,0.00200297,0.00345467,-0.0108557,1.42893,0.00862255,0.0193583,1686,1660,5.08884,-9.0342
469,-636,5.11121,8.89819,-0.0133391,0.00397862,0.00175961,0.00415561,-0.0135161,1.47055,0.0106692,0.0290276,1693,1660,5.11115,-8.89816
476,-636,4.78943,8.59753,-0.0158305,0.00462394,0.000649233,0.00464452,-0.0158511,1.5391,0.0124088,0.0424734,1700,1660,4.7894,-8.59752
483,-636,5.03125,8.55737,0,0,0,0,0,0,0,-1,1707,1660,5.03119,-8.5574
490,-636,5.27283,8.24402,0,0,0,0,0,0,0,-1,1714,1660,5.27288,-8.244
497,-636,5.29431,8.47998,0,0,0,0,0,0,0,-1,1721,1660,5.29432,-8.47993
504,-636,5.11169,8.50403,0,0,0,0,0,0,0,-1,1728,1660,5.11171,-8.50401
511,-636,7.13525,4.97266,0,0,0,0,0,0,0,-1,1735,1660,7.13526,-4.97265
518,-636,6.72791,1.07605,0,0,0,0,0,0,0,-1,1742,1660,6.7279,-1.0761
525,-636,7.04309,0.93335,0,0,0,0,0,0,0,-1,1749,1660,7.04308,-0.933298
532,-636,0,0,0,0,0,0,0,0,0,-1,1756,1660,0,0
539,-636,0,0,0,0,0,0,0,0,0,-1,1763,1660,0,0
546,-636,0,0,0,0,0,0,0,0,0,-1,1770,1660,0,0
553,-636,0,0,0,0,0,0,0,0,0,-1,1777,1660,0,0
560,-636,0,0,0,0,0,0,0,0,0,-1,1784,1660,0,0
567,-636,0,0,0,0,0,0,0,0,0,-1,1791,1660,0,0
574,-636,0,0,0,0,0,0,0,0,0,-1,1798,1660,0,0
581,-636,0,0,0,0,0,0,0,0,0,-1,1805,1660,0,0
588,-636,0,0,0,0,0,0,0,0,0,-1,1812,1660,0,0
595,-636,0,0,0,0,0,0,0,0,0,-1,1819,1660,0,0
602,-636,0,0,0,0,0,0,0,0,0,-1,1826,1660,0,0
609,-636,0,0,0,0,0,0,0,0,0,-1,1833,1660,0,0
616,-636,0,0,0,0,0,0,0,0,0,-1,1840,1660,0,0
623,-636,0,0,0,0,0,0,0,0,0,-1,1847,1660,0,0
630,-636,0,0,0,0,0,0,0,0,0,-1,1854,1660,0,0
637,-636,0,0,0,0,0,0,0,0,0,-1,1861,1660,0,0
644,-636,0,0,0,0,0,0,0,0,0,-1,1868,1660,0,0
651,-636,0,0,0,0,0,0,0,0,0,-1,1875,1660,0,0
658,-636,0,0,0,0,0,0,0,0,0,-1,1882,1660,0,0
665,-636,0,0,0,0,0,0,0,0,0,-1,1889,1660,0,0
672,-636,0,0,0,0,0,0,0,0,0,-1,1896,1660,0,0
679,-636,0,0,0,0,0,0,0,0,0,-1,1903,1660,0,0
686,-636,0,0,0,0,0,0,0,0,0,-1,1910,1660,0,0
693,-636,0,0,0,0,0,0,0,0,0,-1,1917,1660,0,0
700,-636,0,0,0,0,0,0,0,0,0,-1,1924,1660,0,0
707,-636,0,0,0,0,0,0,0,0,0,-1,1931,1660,0,0
714,-636,0,0,0,0,0,0,0,0,0,-1,1938,1660,0,0
721,-636,0,0,0,0,0,0,0,0,0,-1,1945,1660,0,0
728,-636,0,0,0,0,0,0,0,0,0,-1,1952,1660,0,0
735,-636,0,0,0,0,0,0,0,0,0,-1,1959,1660,0,0
742,-636,0,0,0,0,0,0,0,0,0,-1,1966,1660,0,0
749,-636,0,0,0,0,0,0,0,0,0,-1,1973,1660,0,0
756,-636,0,0,0,0,0,0,0,0,0,-1,1980,1660,0,0
763,-636,0,0,0,0,0,0,0,0,0,-1,1987,1660,0,0
770,-636,0,0,0,0,0,0,0,0,0,-1,1994,1660,0,0
777,-636,0,0,0,0,0,0,0,0,0,-1,2001,1660,0,0
784,-636,0,0,0,0,0,0,0,0,0,-1,2008,1660,0,0
791,-636,0,0,0,0,0,0,0,0,0,-1,2015,1660,0,0
798,-636,0,0,0,0,0,0,0,0,0,-1,2022,1660,0,0
805,-636,0,0,0,0,0,0,0,0,0,-1,2029,1660,0,0
812,-636,0,0,0,0,0,0,0,0,0,-1,2036,1660,0,0
-700,-643,0,0,0,0,0,0,0,0,0,-1,524,1667,0,0
-693,-643,0,0,0,0,0,0,0,0,0,-1,531,1667,0,0
-686,-643,0,0,0,0,0,0,0,0,0,-1,538,1667,0,0
-679,-643,0,0,0,0,0,0,0,0,0,-1,545,1667,0,0
-672,-643,0,0,0,0,0,0,0,0,0,-1,552,1667,0,0
-665,-643,0,0,0,0,0,0,0,0,0,-1,559,1667,0,0
-658,-643,0,0,0,0,0,0,0,0,0,-1,566,1667,0,0
-651,-643,0,0,0,0,0,0,0,0,0,-1,573,1667,0,0
-644,-643,0,0,0,0,0,0,0,0,0,-1,580,1667,0,0
-637,-643,0,0,0,0,0,0,0,0,0,-1,587,1667,0,0
-630,-643,0,0,0,0,0,0,0,0,0,-1,594,1667,0,0
-623,-643,0,0,0,0,0,0,0,0,0,-1,601,1667,0,0
-616,-643,0,0,0,0,0,0,0,0,0,-1,608,1667,0,0
-609,-643,0,0,0,0,0,0,0,0,0,-1,615,1667,0,0
-602,-643,0,0,0,0,0,0,0,0,0,-1,622,1667,0,0
-595,-643,0,0,0,0,0,0,0,0,0,-1,629,1667,0,0
-588,-643,0,0,0,0,0,0,0,0,0,-1,636,1667,0,0
-581,-643,0,0,0,0,0,0,0,0,0,-1,643,1667,0,0
-574,-643,0,0,0,0,0,0,0,0,0,-1,650,1667,0,0
-567,-643,0,0,0,0,0,0,0,0,0,-1,657,1667,0,0
-560,-643,0,0,0,0,0,0,0,0,0,-1,664,1667,0,0
-553,-643,0,0,0,0,0,0,0,0,0,-1,671,1667,0,0
-546,-643,0,0,0,0,0,0,0,0,0,-1,678,1667,0,0
-539,-643,0,0,0,0,0,0,0,0,0,-1,685,1667,0,0
-532,-643,0,0,0,0,0,0,0,0,0,-1,692,1667,0,0
-525,-643,0,0,0,0,0,0,0,0,0,-1,699,1667,0,0
-518,-643,0,0,0,0,0,0,0,0,0,-1,706,1667,0,0
-511,-643,0,0,0,0,0,0,0,0,0,-1,713,1667,0,0
-504,-643,0,0,0,0,0,0,0,0,0,-1,720,1667,0,0
-497,-643,0,0,0,0,0,0,0,0,0,-1,727,1667,0,0
-490,-643,0,0,0,0,0,0,0,0,0,-1,734,1667,0,0
-483,-643,0,0,0,0,0,0,0,0,0,-1,741,1667,0,0
-476,-643,0,0,0,0,0,0,0,0,0,-1,748,1667,0,0
-469,-643,0,0,0,0,0,0,0,0,0,-1,755,1667,0,0
-462,-643,0,0,0,0,0,0,0,0,0,-1,762,1667,0,0
-455,-643,0,0,0,0,0,0,0,0,0,-1,769,1667,0,0
-448,-643,0,0,0,0,0,0,0,0,0,-1,776,1667,0,0
-441,-643,0,0,0,0,0,0,0,0,0,-1,783,1667,0,0
-434,-643,0,0,0,0,0,0,0,0,0,-1,790,1667,0,0
-427,-643,0,0,0,0,0,0,0,0,0,-1,797,1667,0,0
-420,-643,0,0,0,0,0,0,0,0,0,-1,804,1667,0,0
-413,-643,0,0,0,0,0,0,0,0,0,-1,811,1667,0,0
-406,-643,0,0,0,0,0,0,0,0,0,-1,818,1667,0,0
-399,-643,2.29858,10.4203,0,0,0,0,0,0,0,-1,825,1667,2.29857,-10.4203
-392,-643,1.81647,8.69055,-0.0250691,0.151171,-0.145733,0.233355,-0.107253,-1.05732,0.201092,0.0444318,832,1667,1.81645,-8.69053
-385,-643,1.34314,6.98584,-0.022189,0.137554,-0.133693,0.213417,-0.0980518,-1.05466,0.183892,0.043532,839,1667,1.34312,-6.98581
-378,-643,1.0506,4.98193,-0.0194095,0.122453,-0.115666,0.187204,-0.0841612,-1.06045,0.160394,0.0468,846,1667,1.05058,-4.98189
-371,-643,0.5849,3.26428,0,0,0,0,0,0,0,-1,853,1667,0.584909,-3.26426
-364,-643,-1.28375,3.60229,0,0,0,0,0,0,0,-1,860,1667,-1.28373,-3.6023
-357,-643,-3.7207,1.09961,0,0,0,0,0,0,0,-1,867,1667,-3.72071,-1.09957
-350,-643,-4.98132,-0.492676,0,0,0,0,0,0,0,-1,874,1667,-4.98133,0.492708
-343,-643,2.61505,6.17407,0,0,0,0,0,0,0,-1,881,1667,2.61504,-6.17412
-336,-643,2.8714,7.97009,0,0,0,0,0,0,0,-1,888,1667,2.87137,-7.97013
-329,-643,2.89178,8.10681,-0.0153159,0.00704458,-0.00761159,0.00938965,-0.017661,-1.27193,0.0158592,0.0386042,895,1667,2.8918,-8.10678
-322,-643,2.87573,8.2356,-0.0138897,0.00108788,-0.00251826,0.00149995,-0.0143017,-1.4086,0.0100718,0.0262169,902,1667,2.87574,-8.23554
-315,-643,2.80872,8.38464,-0.0118747,0.00115856,-0.00215237,0.00150481,-0.012221,-1.41129,0.00869244,0.0171845,909,1667,2.80874,-8.38458
-308,-643,2.82367,8.49414,-0.00990639,0.00109786,-0.00185215,0.00140124,-0.0102098,-1.40844,0.00731844,0.0120408,916,1667,2.82368,-8.49413
-301,-643,2.82275,8.646,-0.0079529,0.000878497,-0.00151416,0.00113089,-0.0082053,-1.40563,0.0058835,0.0132474,923,1667,2.82275,-8.64599
-294,-643,2.80469,8.79871,-0.00603336,0.000714051,-0.00114448,0.000902889,-0.0062222,-1.40727,0.00447953,0.0125369,930,1667,2.80469,-8.7987
-287,-643,2.79913,8.94873,-0.00434977,0.000549848,-0.00080004,0.000677175,-0.0044771,-1.41297,0.00323417,0.0101655,937,1667,2.79912,-8.94871
-280,-643,2.80475,9.08496,-0.00298991,0.000354242,-0.000513253,0.000431242,-0.00306691,-1.42188,0.00220247,0.0131642,944,1667,2.80475,-9.08498
-273,-643,2.80841,9.21863,-0.00182729,-0.00015855,-0.000371721,-7.94922e-05,-0.00190635,-1.36124,0.00124525,0.0119135,951,1667,2.80839,-9.2186
-266,-643,2.80536,9.35449,-0.000879477,-0.000297719,-0.000202928,-0.000233929,-0.000943267,-1.26623,0.000567183,0.0122479,958,1667,2.80537,-9.35453
-259,-643,2.81769,9.5127,0.000116637,-0.000720043,-5.32569e-05,0.000120014,-0.000723419,-0.0633121,0.00052686,0.0115771,965,1667,2.81769,-9.51266
-252,-643,2.81989,9.65771,0.000679709,-0.000930811,-0.000156016,0.000694684,-0.000945786,-0.0956874,0.000950817,0.012345,972,1667,2.81988,-9.65776
-245,-643,2.8255,9.79248,0.000984789,-0.00150829,-0.000340883,0.00103056,-0.00155406,-0.133469,0.0015024,0.0116832,979,1667,2.82547,-9.79243
-238,-643,2.8432,9.90662,0.00145015,-0.00208662,-0.000989325,0.00170808,-0.00234455,-0.255036,0.00234938,0.0152967,986,1667,2.8432,-9.90657
-231,-643,2.81244,10.0458,0.00186126,-0.00268266,-0.00241964,0.0029084,-0.00372981,-0.408433,0.00384234,0.0120052,993,1667,2.81246,-10.0458
-224,-643,2.81805,10.1625,0.00288788,-0.00311325,-0.00450605,0.00530099,-0.00552636,-0.491663,0.00625162,0.00982504,1000,1667,2.81803,-10.1625
-217,-643,2.81854,10.2705,0.0047093,-0.00417235,-0.00648586,0.00812896,-0.00759201,-0.485209,0.00907827,0.00864916,1007,1667,2.81853,-10.2705
-210,-643,2.81805,10.4119,0.00662084,-0.00494883,-0.00894405,0.0114878,-0.00981577,-0.498344,0.0123122,0.0110775,1014,1667,2.81805,-10.4119
-203,-643,2.83704,10.5376,0.00903942,-0.00603623,-0.0111908,0.0149943,-0.0119911,-0.489014,0.0156122,0.0115342,1021,1667,2.83701,-10.5376
-196,-643,2.84216,10.6456,0.0113184,-0.00712394,-0.0129313,0.0179795,-0.0137851,-0.475669,0.0183925,0.0113204,1028,1667,2.84215,-10.6457
-189,-643,2.87048,10.7603,0.0137816,-0.00790654,-0.0127531,0.0196778,-0.0138027,-0.433061,0.0194289,0.0116248,1035,1667,2.87046,-10.7603
-182,-643,2.88086,10.7977,0.0169558,-0.00830242,-0.0123139,0.0219654,-0.0133121,-0.386381,0.0205707,0.0196333,1042,1667,2.88092,-10.7977
-175,-643,2.89941,10.7615,0.0201877,-0.00795886,-0.0106221,0.0237464,-0.0115176,-0.323275,0.0207637,0.0341148,1049,1667,2.8994,-10.7615
-168,-643,2.32043,11.2716,0,0,0,0,0,0,0,-1,1056,1667,2.32047,-11.2716
-161,-643,2.51807,11.0732,0.025916,-0.00692238,-0.00371218,0.0263304,-0.0073368,-0.111175,0.0204429,0.0460789,1063,1667,2.51811,-11.0732
-154,-643,2.74756,11.1187,0.0285627,-0.0056466,0.00161758,0.028639,-0.00572292,0.0471447,0.0212587,0.0470911,1070,1667,2.74751,-11.1186
-147,-643,2.2533,11.2484,0.0309751,-0.00374802,0.00779261,0.0326438,-0.00541666,0.210946,0.0237746,0.0482847,1077,1667,2.25327,-11.2484
-140,-643,2.48962,11.5587,0.0329108,-0.00247336,0.0144465,0.0380597,-0.00762227,0.342376,0.0282586,0.0488322,1084,1667,2.48957,-11.5588
-133,-643,2.63342,11.7019,0.0346199,-0.0023956,0.0211591,0.0442234,-0.0119991,0.426069,0.0341912,0.0462013,1091,1667,2.63337,-11.7019
-126,-643,2.70593,11.8793,0,0,0,0,0,0,0,-1,1098,1667,2.70599,-11.8792
-119,-643,3.20227,11.9598,0,0,0,0,0,0,0,-1,1105,1667,3.20223,-11.9598
-112,-643,3.80969,13.7281,0,0,0,0,0,0,0,-1,1112,1667,3.80973,-13.7281
-105,-643,-2.23413,10.0996,0,0,0,0,0,0,0,-1,1119,1667,-2.23415,-10.0996
-98,-643,3.11035,4.68066,0,0,0,0,0,0,0,-1,1126,1667,3.11041,-4.68071
-91,-643,-1.74146,-2.5885,0,0,0,0,0,0,0,-1,1133,1667,-1.74146,2.58856
-84,-643,-2.65625,0.907471,0,0,0,0,0,0,0,-1,1140,1667,-2.65623,-0.907477
-77,-643,-3.16443,2.53943,0,0,0,0,0,0,0,-1,1147,1667,-3.1644,-2.53949
-70,-643,-3.36938,4.45203,0,0,0,0,0,0,0,-1,1154,1667,-3.36941,-4.452
-63,-643,-3.67822,6.26855,0,0,0,0,0,0,0,-1,1161,1667,-3.67823,-6.26856
-56,-643,-3.95142,8.1073,0,0,0,0,0,0,0,-1,1168,1667,-3.95139,-8.10732
-49,-643,-4.23535,9.90552,0,0,0,0,0,0,0,-1,1175,1667,-4.23537,-9.90557
-42,-643,-4.25195,10.7059,0,0,0,0,0,0,0,-1,1182,1667,-4.25192,-10.706
-35,-643,-4.10986,11.6588,0,0,0,0,0,0,0,-1,1189,1667,-4.10982,-11.6589
-28,-643,-1.38513,5.604,0,0,0,0,0,0,0,-1,1196,1667,-1.3851,-5.60403
-21,-643,1.94421,11.4835,0,0,0,0,0,0,0,-1,1203,1667,1.9442,-11.4835
-14,-643,1.32361,11.6638,0.00762096,0.0031869,-0.0434539,0.0489144,-0.0381065,-0.75991,0.0503705,0.0478683,1210,1667,1.32358,-11.6638
-7,-643,0.982788,12.0808,0.0138709,0.00371249,-0.0381564,0.0472846,-0.0297012,-0.719229,0.0448326,0.0492493,1217,1667,0.982839,-12.0808
0,-643,1.13306,12.6469,0.0168718,0.00484096,-0.0320029,0.0434197,-0.0217069,-0.692499,0.0382911,0.045678,1224,1667,1.13302,-12.6468
7,-643,1.297,13.3972,0,0,0,0,0,0,0,-1,1231,1667,1.29698,-13.3972
14,-643,2.1936,13.884,0,0,0,0,0,0,0,-1,1238,1667,2.19356,-13.884
21,-643,2.51892,14.2429,0,0,0,0,0,0,0,-1,1245,1667,2.51887,-14.2429
28,-643,5.30151,13.4268,0,0,0,0,0,0,0,-1,1252,1667,5.30151,-13.4268
35,-643,6.18018,15.2522,0,0,0,0,0,0,0,-1,1259,1667,6.18022,-15.2522
42,-643,7.13611,17.1561,0,0,0,0,0,0,0,-1,1266,1667,7.13609,-17.1561
49,-643,3.07458,11.124,0,0,0,0,0,0,0,-1,1273,1667,3.07457,-11.1241
56,-643,3.4187,11.9764,0,0,0,0,0,0,0,-1,1280,1667,3.41864,-11.9765
63,-643,3.96277,11.6567,0,0,0,0,0,0,0,-1,1287,1667,3.96278,-11.6567
70,-643,4.53015,11.3691,0.0197092,-0.0226409,0.00299216,0.0199196,-0.0228513,0.0701883,0.0247131,0.0478454,1294,1667,4.53013,-11.3691
77,-643,5.06934,11.0822,0.0198443,-0.0249922,0.00347932,0.0201127,-0.0252606,0.0769858,0.0262524,0.0467944,1301,1667,5.06939,-11.0822
84,-643,5.59277,10.7777,0,0,0,0,0,0,0,-1,1308,1667,5.59282,-10.7777
91,-643,4.38562,10.3265,0,0,0,0,0,0,0,-1,1315,1667,4.38559,-10.3265
98,-643,4.23499,10.9933,0,0,0,0,0,0,0,-1,1322,1667,4.23495,-10.9933
105,-643,4.76245,11.1973,0.0233895,-0.0229311,0.00916304,0.0251363,-0.0246778,0.188369,0.0287606,0.0496265,1329,1667,4.76242,-11.1972
112,-643,5.25366,11.4072,0.0259368,-0.0200052,0.00936438,0.0277722,-0.0218406,0.193547,0.0287122,0.0486825,1336,1667,5.25367,-11.4072
119,-643,5.76782,11.5978,0.0283088,-0.0162881,0.008706,0.0299481,-0.0179274,0.186115,0.0279298,0.047997,1343,1667,5.7678,-11.5977
126,-643,6.26843,11.9021,0.0298338,-0.0122744,0.00727327,0.0310547,-0.0134953,0.166311,0.0263785,0.0482688,1350,1667,6.26838,-11.9021
133,-643,6.75061,12.0249,0.031438,-0.00654876,0.00380815,0.031816,-0.00692676,0.0989378,0.0238571,0.0476459,1357,1667,6.75063,-12.0248
140,-643,7.16602,12.1731,0.0312583,0.000441318,-0.0021372,0.0314058,0.000293806,-0.0689115,0.02084,0.045306,1364,1667,7.16599,-12.1731
147,-643,7.52063,12.1672,0.0262025,0.00488055,-0.0120766,0.0316506,-0.000567522,-0.423789,0.0212921,0.0447576,1371,1667,7.52059,-12.1672
154,-643,7.90442,12.1251,0,0,0,0,0,0,0,-1,1378,1667,7.90442,-12.1251
161,-643,12.2321,5.97412,0,0,0,0,0,0,0,-1,1385,1667,12.232,-5.97411
168,-643,10.5563,10.9818,0,0,0,0,0,0,0,-1,1392,1667,10.5562,-10.9819
175,-643,5.88525,-1.1698,0,0,0,0,0,0,0,-1,1399,1667,5.88526,1.16977
182,-643,5.80945,-0.418701,0,0,0,0,0,0,0,-1,1406,1667,5.80949,0.418712
189,-643,5.42297,12.9208,0,0,0,0,0,0,0,-1,1413,1667,5.42298,-12.9208
196,-643,5.51953,11.2415,0,0,0,0,0,0,0,-1,1420,1667,5.51948,-11.2414
203,-643,5.60828,9.82153,0,0,0,0,0,0,0,-1,1427,1667,5.60833,-9.82148
210,-643,4.73218,7.58728,0,0,0,0,0,0,0,-1,1434,1667,4.73222,-7.58728
217,-643,3.8031,5.28955,0,0,0,0,0,0,0,-1,1441,1667,3.80305,-5.28955
224,-643,2.96436,2.97095,0,0,0,0,0,0,0,-1,1448,1667,2.96432,-2.97095
231,-643,2.13403,1.08472,0,0,0,0,0,0,0,-1,1455,1667,2.13403,-1.08467
238,-643,1.18152,-0.261963,0,0,0,0,0,0,0,-1,1462,1667,1.18152,0.26192
245,-643,-0.157471,-1.79016,0,0,0,0,0,0,0,-1,1469,1667,-0.157517,1.7901
252,-643,8.08789,0.0202637,0,0,0,0,0,0,0,-1,1476,1667,8.08791,-0.0203056
259,-643,9.02979,-0.46936,0,0,0,0,0,0,0,-1,1483,1667,9.02974,0.46933
266,-643,4.55066,5.17554,0,0,0,0,0,0,0,-1,1490,1667,4.55063,-5.17556
273,-643,4.34363,6.56836,0,0,0,0,0,0,0,-1,1497,1667,4.34363,-6.5684
280,-643,5.97229,12.4526,0,0,0,0,0,0,0,-1,1504,1667,5.97225,-12.4527
287,-643,5.78943,11.9429,0,0,0,0,0,0,0,-1,1511,1667,5.78946,-11.9429
294,-643,5.64392,11.4949,-0.00892799,-0.00439819,0.00587011,-0.000371197,-0.012955,0.969517,0.00851562,0.043138,1518,1667,5.64397,-11.4949
301,-643,5.36072,11.2916,-0.00760433,-0.00444153,0.00289107,-0.00272762,-0.00931825,1.03566,0.00553185,0.0375366,1525,1667,5.36068,-11.2917
308,-643,5.00549,11.4047,-0.00619874,-0.00430086,0.000432244,-0.00420705,-0.00629255,1.35709,0.00370119,0.034407,1532,1667,5.00553,-11.4047
315,-643,4.95776,11.4248,-0.00489528,-0.00388008,-0.00141013,-0.00288897,-0.00588639,-0.958161,0.0033987,0.0252684,1539,1667,4.95777,-11.4248
322,-643,4.93628,11.3542,-0.00367034,-0.00334388,-0.00265503,-0.000847069,-0.00616716,-0.816099,0.00386019,0.0145639,1546,1667,4.9363,-11.3543
329,-643,4.96143,11.2594,-0.00253451,-0.00273178,-0.00328667,0.000655008,-0.00592129,-0.770397,0.00418299,0.0114121,1553,1667,4.96143,-11.2593
336,-643,4.94519,11.1964,-0.00169267,-0.00231237,-0.00347481,0.00148608,-0.00549112,-0.74093,0.00424375,0.0109167,1560,1667,4.94519,-11.1964
343,-643,4.95313,11.1112,-0.00105381,-0.00168772,-0.00322329,0.00186807,-0.0046096,-0.736389,0.00384991,0.0129783,1567,1667,4.95317,-11.1112
350,-643,4.97009,11.0016,-0.00035914,-0.00103547,-0.00292184,0.00224404,-0.00363865,-0.727786,0.00342804,0.0124548,1574,1667,4.97012,-11.0015
357,-643,4.98315,10.9058,0.000172647,-0.000651606,-0.00253132,0.00232517,-0.00280413,-0.704701,0.0029657,0.0102417,1581,1667,4.9831,-10.9058
364,-643,5.0022,10.7924,0.000488019,-0.000386413,-0.00187372,0.00197485,-0.00187325,-0.670778,0.00222196,0.00844652,1588,1667,5.00214,-10.7924
371,-643,4.99353,10.6996,0.000643502,-0.000417713,-0.00121773,0.00144121,-0.00121542,-0.579934,0.00153565,0.00700414,1595,1667,4.99351,-10.6996
378,-643,4.99744,10.5784,0.000912983,-0.000325572,-0.000631032,0.00117785,-0.000590436,-0.3974,0.00103953,0.009387,1602,1667,4.99739,-10.5784
385,-643,5.01428,10.4384,0.00116192,-0.000388712,-0.000337273,0.0012321,-0.000458895,-0.205161,0.00100975,0.0160814,1609,1667,5.01432,-10.4384
392,-643,4.98804,10.3074,0.00132634,-0.0010711,-0.000581231,0.00145982,-0.00120458,-0.225738,0.00154064,0.016848,1616,1667,4.98801,-10.3074
399,-643,4.98315,10.2268,0.00143319,-0.00139933,-0.00101928,0.00176184,-0.00172799,-0.311913,0.00201489,0.0137318,1623,1667,4.98312,-10.2268
406,-643,4.99792,10.1022,0.00125242,-0.00175565,-0.00118897,0.00166562,-0.00216885,-0.334467,0.00222018,0.0128899,1630,1667,4.99789,-10.1021
413,-643,5.00708,9.97144,0.000912623,-0.00185431,-0.00111139,0.00130374,-0.00224543,-0.338386,0.00207302,0.0182519,1637,1667,5.00708,-9.97143
420,-643,4.98682,9.86731,0.000156599,-0.00192563,-0.00062462,0.000329597,-0.00209863,-0.270192,0.0015209,0.0168176,1644,1667,4.98679,-9.8673
427,-643,4.97766,9.75696,-0.00108114,-0.0013884,-8.51784e-05,-0.0010591,-0.00141043,-0.253124,0.0008478,0.0144026,1651,1667,4.97764,-9.757
434,-643,4.98865,9.63184,-0.00247297,-0.000892832,0.000750879,-0.000592935,-0.00277287,1.19081,0.00168605,0.0151475,1658,1667,4.98862,-9.63183
441,-643,5.01465,9.46777,-0.00470213,-1.56785e-05,0.00132169,0.000331367,-0.00504918,1.31402,0.00348183,0.0145499,1665,1667,5.01462,-9.46774
448,-643,5.04968,9.29065,-0.007318,0.000467096,0.00156905,0.000771434,-0.00762234,1.37921,0.00535725,0.0189268,1672,1667,5.0497,-9.29065
455,-643,4.87695,9.17078,-0.0103181,0.00144266,0.00218456,0.00183533,-0.0107108,1.39295,0.00782437,0.02545,1679,1667,4.87695,-9.17076
462,-643,4.6897,8.92786,-0.0138566,0.00253062,0.0025365,0.00291426,-0.0142402,1.42069,0.0105993,0.0345598,1686,1667,4.68973,-8.92791
469,-643,4.64905,8.67908,-0.0179096,0.00340577,0.00240967,0.00367479,-0.0181786,1.45962,0.0135116,0.0404366,1693,1667,4.64907,-8.67908
476,-643,4.2981,8.17395,-0.0215109,0.0040803,0.000946835,0.00411528,-0.0215459,1.53387,0.0159141,0.0483694,1700,1667,4.29812,-8.17397
483,-643,3.99976,7.51953,0,0,0,0,0,0,0,-1,1707,1667,3.99977,-7.51959
490,-643,5.7666,8.83765,-0.0279608,0.00395234,-0.00551702,0.00487919,-0.0288877,-1.40435,0.021074,0.0489414,1714,1667,5.76661,-8.83769
497,-643,5.19519,8.46155,-0.0308154,0.00319329,-0.010549,0.00619967,-0.0338218,-1.29316,0.0248733,0.0480749,1721,1667,5.1952,-8.46157
504,-643,4.98596,8.42944,0,0,0,0,0,0,0,-1,1728,1667,4.986,-8.4295
511,-643,4.77307,8.24377,0,0,0,0,0,0,0,-1,1735,1667,4.77307,-8.24379
518,-643,7.40564,0.922607,0,0,0,0,0,0,0,-1,1742,1667,7.4057,-0.922598
525,-643,0,0,0,0,0,0,0,0,0,-1,1749,1667,0,0
532,-643,0,0,0,0,0,0,0,0,0,-1,1756,1667,0,0
539,-643,0,0,0,0,0,0,0,0,0,-1,1763,1667,0,0
546,-643,0,0,0,0,0,0,0,0,0,-1,1770,1667,0,0
553,-643,0,0,0,0,0,0,0,0,0,-1,1777,1667,0,0
560,-643,0,0,0,0,0,0,0,0,0,-1,1784,1667,0,0
567,-643,0,0,0,0,0,0,0,0,0,-1,1791,1667,0,0
574,-643,0,0,0,0,0,0,0,0,0,-1,1798,1667,0,0
581,-643,0,0,0,0,0,0,0,0,0,-1,1805,1667,0,0
588,-643,0,0,0,0,0,0,0,0,0,-1,1812,1667,0,0
595,-643,0,0,0,0,0,0,0,0,0,-1,1819,1667,0,0
602,-643,0,0,0,0,0,0,0,0,0,-1,1826,1667,0,0
609,-643,0,0,0,0,0,0,0,0,0,-1,1833,1667,0,0
616,-643,0,0,0,0,0,0,0,0,0,-1,1840,1667,0,0
623,-643,0,0,0,0,0,0,0,0,0,-1,1847,1667,0,0
630,-643,0,0,0,0,0,0,0,0,0,-1,1854,1667,0,0
637,-643,0,0,0,0,0,0,0,0,0,-1,1861,1667,0,0
644,-643,0,0,0,0,0,0,0,0,0,-1,1868,1667,0,0
651,-643,0,0,0,0,0,0,0,0,0,-1,1875,1667,0,0
658,-643,0,0,0,0,0,0,0,0,0,-1,1882,1667,0,0
665,-643,0,0,0,0,0,0,0,0,0,-1,1889,1667,0,0
672,-643,0,0,0,0,0,0,0,0,0,-1,1896,1667,0,0
679,-643,0,0,0,0,0,0,0,0,0,-1,1903,1667,0,0
686,-643,0,0,0,0,0,0,0,0,0,-1,1910,1667,0,0
693,-643,0,0,0,0,0,0,0,0,0,-1,1917,1667,0,0
700,-643,0,0,0,0,0,0,0,0,0,-1,1924,1667,0,0
707,-643,0,0,0,0,0,0,0,0,0,-1,1931,1667,0,0
714,-643,0,0,0,0,0,0,0,0,0,-1,1938,1667,0,0
721,-643,0,0,0,0,0,0,0,0,0,-1,1945,1667,0,0
728,-643,0,0,0,0,0,0,0,0,0,-1,1952,1667,0,0
735,-643,0,0,0,0,0,0,0,0,0,-1,1959,1667,0,0
742,-643,0,0,0,0,0,0,0,0,0,-1,1966,1667,0,0
749,-643,0,0,0,0,0,0,0,0,0,-1,1973,1667,0,0
756,-643,0,0,0,0,0,0,0,0,0,-1,1980,1667,0,0
763,-643,0,0,0,0,0,0,0,0,0,-1,1987,1667,0,0
770,-643,0,0,0,0,0,0,0,0,0,-1,1994,1667,0,0
777,-643,0,0,0,0,0,0,0,0,0,-1,2001,1667,0,0
784,-643,0,0,0,0,0,0,0,0,0,-1,2008,1667,0,0
791,-643,0,0,0,0,0,0,0,0,0,-1,2015,1667,0,0
798,-643,0,0,0,0,0,0,0,0,0,-1,2022,1667,0,0
805,-643,0,0,0,0,0,0,0,0,0,-1,2029,1667,0,0
812,-643,0,0,0,0,0,0,0,0,0,-1,2036,1667,0,0
-700,-650,0,0,0,0,0,0,0,0,0,-1,524,1674,0,0
-693,-650,0,0,0,0,0,0,0,0,0,-1,531,1674,0,0
-686,-650,0,0,0,0,0,0,0,0,0,-1,538,1674,0,0
-679,-650,0,0,0,0,0,0,0,0,0,-1,545,1674,0,0
-672,-650,0,0,0,0,0,0,0,0,0,-1,552,1674,0,0
-665,-650,0,0,0,0,0,0,0,0,0,-1,559,1674,0,0
-658,-650,0,0,0,0,0,0,0,0,0,-1,566,1674,0,0
-651,-650,0,0,0,0,0,0,0,0,0,-1,573,1674,0,0
-644,-650,0,0,0,0,0,0,0,0,0,-1,580,1674,0,0
-637,-650,0,0,0,0,0,0,0,0,0,-1,587,1674,0,0
-630,-650,0,0,0,0,0,0,0,0,0,-1,594,1674,0,0
-623,-650,0,0,0,0,0,0,0,0,0,-1,601,1674,0,0
-616,-650,0,0,0,0,0,0,0,0,0,-1,608,1674,0,0
-609,-650,0,0,0,0,0,0,0,0,0,-1,615,1674,0,0
-602,-650,0,0,0,0,0,0,0,0,0,-1,622,1674,0,0
-595,-650,0,0,0,0,0,0,0,0,0,-1,629,1674,0,0
-588,-650,0,0,0,0,0,0,0,0,0,-1,636,1674,0,0
-581,-650,0,0,0,0,0,0,0,0,0,-1,643,1674,0,0
-574,-650,0,0,0,0,0,0,0,0,0,-1,650,1674,0,0
-567,-650,0,0,0,0,0,0,0,0,0,-1,657,1674,0,0
-560,-650,0,0,0,0,0,0,0,0,0,-1,664,1674,0,0
-553,-650,0,0,0,0,0,0,0,0,0,-1,671,1674,0,0
-546,-650,0,0,0,0,0,0,0,0,0,-1,678,1674,0,0
-539,-650,0,0,0,0,0,0,0,0,0,-1,685,1674,0,0
-532,-650,0,0,0,0,0,0,0,0,0,-1,692,1674,0,0
-525,-650,0,0,0,0,0,0,0,0,0,-1,699,1674,0,0
-518,-650,0,0,0,0,0,0,0,0,0,-1,706,1674,0,0
-511,-650,0,0,0,0,0,0,0,0,0,-1,713,1674,0,0
-504,-650,0,0,0,0,0,0,0,0,0,-1,720,1674,0,0
-497,-650,0,0,0,0,0,0,0,0,0,-1,727,1674,0,0
-490,-650,0,0,0,0,0,0,0,0,0,-1,734,1674,0,0
-483,-650,0,0,0,0,0,0,0,0,0,-1,741,1674,0,0
-476,-650,0,0,0,0,0,0,0,0,0,-1,748,1674,0,0
-469,-650,0,0,0,0,0,0,0,0,0,-1,755,1674,0,0
-462,-650,0,0,0,0,0,0,0,0,0,-1,762,1674,0,0
-455,-650,0,0,0,0,0,0,0,0,0,-1,769,1674,0,0
-448,-650,0,0,0,0,0,0,0,0,0,-1,776,1674,0,0
-441,-650,0,0,0,0,0,0,0,0,0,-1,783,1674,0,0
-434,-650,0,0,0,0,0,0,0,0,0,-1,790,1674,0,0
-427,-650,0,0,0,0,0,0,0,0,0,-1,797,1674,0,0
-420,-650,0,0,0,0,0,0,0,0,0,-1,804,1674,0,0
-413,-650,0,0,0,0,0,0,0,0,0,-1,811,1674,0,0
-406,-650,0,0,0,0,0,0,0,0,0,-1,818,1674,0,0
-399,-650,0,0,0,0,0,0,0,0,0,-1,825,1674,0,0
-392,-650,1.73889,7.8407,0,0,0,0,0,0,0,-1,832,1674,1.73892,-7.84074
-385,-650,1.0318,6.3717,0,0,0,0,0,0,0,-1,839,1674,1.03179,-6.37173
-378,-650,0.997986,4.11108,0,0,0,0,0,0,0,-1,846,1674,0.998006,-4.11113
-371,-650,-1.35962,5.05627,0,0,0,0,0,0,0,-1,853,1674,-1.35961,-5.05633
-364,-650,-2.5766,3.37585,0,0,0,0,0,0,0,-1,860,1674,-2.57662,-3.37586
-357,-650,-3.83185,1.63733,0,0,0,0,0,0,0,-1,867,1674,-3.83184,-1.63728
-350,-650,-5.04651,0.108032,0,0,0,0,0,0,0,-1,874,1674,-5.0465,-0.10798
-343,-650,-6.21338,-1.4425,0,0,0,0,0,0,0,-1,881,1674,-6.21341,1.44248
-336,-650,3.02625,7.52368,0,0,0,0,0,0,0,-1,888,1674,3.02623,-7.52366
-329,-650,3.16406,7.63818,-0.0177536,0.00809222,-0.0176636,0.0170555,-0.0267168,-1.10121,0.0254763,0.0496636,895,1674,3.16409,-7.63821
-322,-650,3.04608,8.2356,-0.0161818,0.000671887,-0.0107637,0.00591501,-0.0214249,-1.11751,0.0166098,0.045218,902,1674,3.04606,-8.23556
-315,-650,2.9668,8.34375,-0.0137491,0.000676359,-0.00942108,0.00532871,-0.0184015,-1.1121,0.0143769,0.0406333,909,1674,2.96682,-8.34379
-308,-650,2.94775,8.47803,-0.0113155,0.000634191,-0.00812783,0.00474699,-0.0154283,-1.10235,0.0121802,0.0227177,916,1674,2.94777,-8.47808
-301,-650,2.95685,8.65662,-0.00892125,0.000523822,-0.0068117,0.00408993,-0.0124874,-1.0885,0.00997183,0.0121247,923,1674,2.95687,-8.65663
-294,-650,2.95636,8.80872,-0.00664074,0.000523159,-0.00551524,0.00351754,-0.00963513,-1.0734,0.00786273,0.0103521,930,1674,2.95635,-8.80871
-287,-650,2.9574,8.9425,-0.00468792,0.000517653,-0.00432296,0.0029609,-0.00713116,-1.05637,0.00599018,0.0138887,937,1674,2.95739,-8.94251
-280,-650,2.94629,9.07788,-0.00316608,0.00053611,-0.00323917,0.00241581,-0.00504577,-1.04499,0.00439624,0.0134978,944,1674,2.94632,-9.07788
-273,-650,2.9411,9.2301,-0.00192572,0.000225128,-0.00240321,0.00178256,-0.00348315,-0.995783,0.00309256,0.0125618,951,1674,2.94112,-9.23005
-266,-650,2.94293,9.36707,-0.000954065,0.000269235,-0.00163445,0.00140273,-0.00208756,-0.964443,0.00202801,0.0113545,958,1674,2.94291,-9.36712
-259,-650,2.94983,9.50317,0.000118911,-2.85658e-05,-0.000996126,0.00104402,-0.000953679,-0.748453,0.00115377,0.01421,965,1674,2.94985,-9.50312
-252,-650,2.94928,9.6615,0.000691662,-2.92569e-05,-0.000629245,0.00105638,-0.000393974,-0.525292,0.000865984,0.013002,972,1674,2.94928,-9.66153
-245,-650,2.95544,9.79529,0.000892472,-0.000461189,-0.00035098,0.000978063,-0.00054678,-0.239194,0.000892029,0.0124518,979,1674,2.95543,-9.79529
-238,-650,2.95343,9.90637,0.00111434,-0.000930403,-0.000557212,0.00125633,-0.00107239,-0.249505,0.00134588,0.0135029,986,1674,2.95343,-9.90633
-231,-650,2.92731,10.0515,0.0013127,-0.00156079,-0.00150548,0.001957,-0.00220508,-0.404378,0.0024044,0.018499,993,1674,2.9273,-10.0515
-224,-650,2.92645,10.1892,0.00198432,-0.00201325,-0.00301634,0.00360402,-0.00363295,-0.492789,0.00417828,0.0153428,1000,1674,2.92647,-10.1892
-217,-650,2.94934,10.2744,0.00324114,-0.00301495,-0.00442168,0.00552936,-0.00530317,-0.477549,0.00625462,0.010142,1007,1674,2.94937,-10.2744
-210,-650,2.95654,10.3966,0.00462798,-0.00379184,-0.00620898,0.00791972,-0.00708359,-0.487482,0.00866665,0.00939078,1014,1674,2.95655,-10.3965
-203,-650,2.97375,10.5311,0.0063922,-0.00479876,-0.00781763,0.0104105,-0.00881707,-0.474789,0.0111137,0.0131958,1021,1674,2.97376,-10.5311
-196,-650,2.98035,10.6381,0.00801357,-0.00579137,-0.00901536,0.0124654,-0.0102432,-0.458682,0.0131318,0.0121143,1028,1674,2.98034,-10.638
-189,-650,2.96301,10.754,0.00968438,-0.00655503,-0.00893403,0.0136372,-0.0105079,-0.416556,0.0139792,0.00992404,1035,1674,2.96304,-10.7541
-182,-650,2.98889,10.8701,0.0118992,-0.00702819,-0.00881343,0.0153676,-0.0104965,-0.374917,0.0150207,0.00907918,1042,1674,2.98885,-10.8702
-175,-650,3.01172,10.9713,0.0141943,-0.00693651,-0.00783686,0.0167835,-0.00952573,-0.319099,0.0153811,0.0138365,1049,1674,3.01172,-10.9713
-168,-650,2.97632,11.0604,0.0162423,-0.00682624,-0.00602316,0.0177203,-0.00830419,-0.240623,0.0153495,0.019334,1056,1674,2.97629,-11.0604
-161,-650,2.9519,11.1808,0.0181791,-0.00650654,-0.00337454,0.0186321,-0.00695953,-0.133439,0.0152791,0.0286082,1063,1674,2.95196,-11.1808
-154,-650,2.95837,11.2714,0.0200342,-0.00575296,0.000142632,0.020035,-0.00575375,0.0055309,0.0156316,0.0300355,1070,1674,2.95837,-11.2714
-147,-650,2.94312,11.3843,0.0217176,-0.00458322,0.00425221,0.0223879,-0.00525361,0.156371,0.0169501,0.0375047,1077,1674,2.94307,-11.3843
-140,-650,2.95142,11.5425,0.0229671,-0.00422421,0.00878391,0.0255578,-0.00681494,0.286808,0.019707,0.0465198,1084,1674,2.95145,-11.5425
-133,-650,2.94214,11.71,0.023948,-0.00505714,0.0134147,0.0292009,-0.01031,0.373224,0.0236648,0.0464313,1091,1674,2.94212,-11.71
-126,-650,3.13159,11.9424,0.0252436,-0.00597022,0.0185469,0.0338764,-0.014603,0.435634,0.0287174,0.0468532,1098,1674,3.13164,-11.9423
-119,-650,3.18909,12.3629,0,0,0,0,0,0,0,-1,1105,1674,3.1891,-12.3629
-112,-650,3.12524,11.379,0,0,0,0,0,0,0,-1,1112,1674,3.1252,-11.379
-105,-650,4.9259,12.0626,0,0,0,0,0,0,0,-1,1119,1674,4.92591,-12.0626
-98,-650,3.3761,6.78003,0,0,0,0,0,0,0,-1,1126,1674,3.37611,-6.78009
-91,-650,3.66809,7.04443,0,0,0,0,0,0,0,-1,1133,1674,3.66806,-7.04439
-84,-650,-3.82666,-1.59521,0,0,0,0,0,0,0,-1,1140,1674,-3.82661,1.59517
-77,-650,-4.70557,1.90198,0,0,0,0,0,0,0,-1,1147,1674,-4.7056,-1.90194
-70,-650,-4.88171,3.81653,0,0,0,0,0,0,0,-1,1154,1674,-4.88176,-3.81651
-63,-650,-5.14612,5.56543,0,0,0,0,0,0,0,-1,1161,1674,-5.14612,-5.56547
-56,-650,-5.38367,7.41101,0,0,0,0,0,0,0,-1,1168,1674,-5.38361,-7.41102
-49,-650,-5.11316,8.23706,0,0,0,0,0,0,0,-1,1175,1674,-5.11317,-8.23708
-42,-650,-4.99487,9.6792,0,0,0,0,0,0,0,-1,1182,1674,-4.99484,-9.67921
-35,-650,-4.77771,11.3369,0,0,0,0,0,0,0,-1,1189,1674,-4.77769,-11.3369
-28,-650,-4.1936,13.1501,0,0,0,0,0,0,0,-1,1196,1674,-4.19358,-13.1501
-21,-650,3.4165,11.1599,0,0,0,0,0,0,0,-1,1203,1674,3.41654,-11.1599
-14,-650,2.74341,11.5582,0.011956,0.00249017,-0.035748,0.0432831,-0.0288369,-0.719583,0.041916,0.0479444,1210,1674,2.7434,-11.5582
-7,-650,2.31543,12.1387,0.0163836,0.00149898,-0.0317173,0.04152,-0.0236375,-0.67016,0.038088,0.0499838,1217,1674,2.31548,-12.1387
0,-650,1.76428,12.7319,0,0,0,0,0,0,0,-1,1224,1674,1.76432,-12.7319
7,-650,6.81189,11.6007,0,0,0,0,0,0,0,-1,1231,1674,6.81184,-11.6007
14,-650,6.44458,11.7574,0,0,0,0,0,0,0,-1,1238,1674,6.44461,-11.7575
21,-650,6.21948,11.4037,0,0,0,0,0,0,0,-1,1245,1674,6.21944,-11.4037
28,-650,4.90149,13.3347,0,0,0,0,0,0,0,-1,1252,1674,4.90154,-13.3348
35,-650,5.1178,14.3781,0,0,0,0,0,0,0,-1,1259,1674,5.11776,-14.378
42,-650,5.67395,12.4175,0,0,0,0,0,0,0,-1,1266,1674,5.674,-12.4175
49,-650,2.90503,11.5723,0,0,0,0,0,0,0,-1,1273,1674,2.90503,-11.5723
56,-650,3.65588,11.58,0,0,0,0,0,0,0,-1,1280,1674,3.65586,-11.5799
63,-650,4.36975,11.4709,0,0,0,0,0,0,0,-1,1287,1674,4.36973,-11.471
70,-650,4.53076,11.3846,0.0140414,-0.0264128,0.00442822,0.0145205,-0.0268919,0.107762,0.0242624,0.0482514,1294,1674,4.53076,-11.3846
77,-650,4.67041,11.3124,0.0156719,-0.0277612,0.00508295,0.0162588,-0.0283481,0.11496,0.0260672,0.0458294,1301,1674,4.67042,-11.3124
84,-650,4.57776,11.3162,0.0165451,-0.027836,0.00729003,0.0177119,-0.0290028,0.158706,0.0272321,0.0461017,1308,1674,4.57777,-11.3162
91,-650,4.26038,11.0209,0.0187179,-0.0268483,0.00927284,0.0205327,-0.028663,0.193265,0.0285322,0.0457216,1315,1674,4.26032,-11.0208
98,-650,4.12671,11.1149,0.0215954,-0.0259218,0.00978845,0.0235328,-0.0278592,0.195403,0.0297062,0.0477004,1322,1674,4.12669,-11.1148
105,-650,4.44409,11.3331,0.0250227,-0.0231743,0.011154,0.0274789,-0.0256304,0.216745,0.0306688,0.0468889,1329,1674,4.4441,-11.3331
112,-650,4.96899,11.531,0.0283284,-0.019592,0.0118727,0.0311087,-0.0223722,0.230028,0.0310143,0.041439,1336,1674,4.96899,-11.5309
119,-650,5.427,11.6244,0.0311172,-0.0152391,0.0118995,0.0339934,-0.0181152,0.237153,0.0305469,0.0414683,1343,1674,5.42702,-11.6244
126,-650,5.8053,11.6881,0.03288,-0.0105455,0.0111791,0.0355888,-0.0132544,0.237734,0.0291658,0.047313,1350,1674,5.8053,-11.6881
133,-650,6.2345,11.8147,0.0339865,-0.00474337,0.00876875,0.0358793,-0.00663617,0.212596,0.026411,0.0480157,1357,1674,6.23452,-11.8147
140,-650,6.67883,11.8669,0.0329594,0.00147252,0.00438101,0.0335576,0.000874324,0.135704,0.0220861,0.0486066,1364,1674,6.67882,-11.8669
147,-650,7.07861,11.8308,0.0281685,0.00486231,-0.00296819,0.0285406,0.00449023,-0.124705,0.017721,0.0482833,1371,1674,7.07857,-11.8308
154,-650,7.46802,11.8367,0,0,0,0,0,0,0,-1,1378,1674,7.46804,-11.8367
161,-650,11.2434,8.83008,0,0,0,0,0,0,0,-1,1385,1674,11.2434,-8.83004
168,-650,11.2113,7.87231,0,0,0,0,0,0,0,-1,1392,1674,11.2113,-7.87236
175,-650,5.62537,-0.230713,0,0,0,0,0,0,0,-1,1399,1674,5.62538,0.230745
182,-650,5.56006,0.421631,0,0,0,0,0,0,0,-1,1406,1674,5.56,-0.421652
189,-650,4.81543,11.0654,0,0,0,0,0,0,0,-1,1413,1674,4.81542,-11.0654
196,-650,5.39575,11.9077,0,0,0,0,0,0,0,-1,1420,1674,5.39575,-11.9078
203,-650,3.93628,11.8215,0,0,0,0,0,0,0,-1,1427,1674,3.93624,-11.8216
210,-650,5.40955,8.08594,0,0,0,0,0,0,0,-1,1434,1674,5.40958,-8.086
217,-650,5.12451,4.69739,0,0,0,0,0,0,0,-1,1441,1674,5.12451,-4.69738
224,-650,4.79041,1.45813,0,0,0,0,0,0,0,-1,1448,1674,4.79046,-1.45816
231,-650,4.04102,-0.642212,0,0,0,0,0,0,0,-1,1455,1674,4.04101,0.642209
238,-650,3.23022,-1.43396,0,0,0,0,0,0,0,-1,1462,1674,3.23023,1.43394
245,-650,1.65894,-2.55042,0,0,0,0,0,0,0,-1,1469,1674,1.65889,2.55036
252,-650,8.75342,0.355103,0,0,0,0,0,0,0,-1,1476,1674,8.75337,-0.355147
259,-650,5.61255,3.17566,0,0,0,0,0,0,0,-1,1483,1674,5.61257,-3.17572
266,-650,4.00403,6.10229,0,0,0,0,0,0,0,-1,1490,1674,4.00401,-6.10225
273,-650,5.21472,12.1998,0,0,0,0,0,0,0,-1,1497,1674,5.21475,-12.1999
280,-650,5.33948,12.1388,-0.00786209,-0.00228809,0.0107518,0.00603206,-0.0161822,0.912213,0.0132642,0.046233,1504,1674,5.3395,-12.1388
287,-650,5.29456,11.833,-0.00733232,-0.00235598,0.00844463,0.00395941,-0.0136477,0.928666,0.0106661,0.0426358,1511,1674,5.29456,-11.833
294,-650,5.14978,11.644,-0.00663189,-0.00268615,0.00612749,0.00177824,-0.0110963,0.941143,0.00805595,0.0362419,1518,1674,5.14976,-11.644
301,-650,4.92224,11.5537,-0.00562259,-0.00261232,0.00381587,-1.54721e-05,-0.00821944,0.973251,0.00547448,0.0280793,1525,1674,4.92219,-11.5537
308,-650,4.83008,11.5139,-0.00455925,-0.00247081,0.00185696,-0.00138461,-0.00564545,1.04153,0.00339748,0.0166073,1532,1674,4.83011,-11.514
315,-650,4.83997,11.4702,-0.00357909,-0.00211958,0.000335271,-0.00204625,-0.00365242,1.35546,0.00211382,0.0104005,1539,1674,4.83998,-11.4702
322,-650,4.84277,11.3865,-0.00265289,-0.00175434,-0.00078512,-0.00129904,-0.00310819,-1.04528,0.00180255,0.00965767,1546,1674,4.84271,-11.3865
329,-650,4.8562,11.275,-0.00179265,-0.00134471,-0.00146955,-8.2156e-05,-0.0030552,-0.86102,0.00200997,0.0156875,1553,1674,4.85614,-11.275
336,-650,4.84473,11.2061,-0.00116672,-0.00114226,-0.00181895,0.000664495,-0.00297348,-0.78876,0.00223696,0.0136383,1560,1674,4.8447,-11.2061
343,-650,4.85522,11.1261,-0.00067279,-0.000751462,-0.00182194,0.00111024,-0.0025345,-0.774605,0.00215718,0.0129192,1567,1674,4.85528,-11.1261
350,-650,4.88049,11.0081,-0.000138983,-0.000347211,-0.00176094,0.00152092,-0.00200711,-0.75587,0.00204334,0.0154648,1574,1674,4.88047,-11.0081
357,-650,4.87988,10.9073,0.000310795,-0.000164742,-0.00164717,0.00173727,-0.00159122,-0.713719,0.00192232,0.0123402,1581,1674,4.87989,-10.9074
364,-650,4.88159,10.8058,0.000668835,-7.23858e-05,-0.00136123,0.001709,-0.00111255,-0.652489,0.00164111,0.00816511,1588,1674,4.88159,-10.8058
371,-650,4.86841,10.6956,0.000876662,-0.000229707,-0.00101509,0.00147951,-0.000832559,-0.535915,0.00135218,0.0101703,1595,1674,4.86842,-10.6956
378,-650,4.86267,10.5609,0.00119547,-0.000343944,-0.000782892,0.00152366,-0.00067213,-0.396944,0.00129913,0.0122471,1602,1674,4.86264,-10.5609
385,-650,4.86182,10.4199,0.0015482,-0.000657143,-0.000802308,0.0018092,-0.000918137,-0.314506,0.00160239,0.0135808,1609,1674,4.86187,-10.42
392,-650,4.8689,10.3275,0.00187792,-0.00147257,-0.00119727,0.00226177,-0.00185642,-0.310257,0.00238148,0.0170048,1616,1674,4.86887,-10.3275
399,-650,4.87708,10.2358,0.00210454,-0.00191374,-0.00176416,0.00276914,-0.00257834,-0.360281,0.00308803,0.0157167,1623,1674,4.87712,-10.2359
406,-650,4.87756,10.1072,0.00201562,-0.00238912,-0.00204161,0.00281635,-0.00318985,-0.373768,0.00346992,0.014294,1630,1674,4.87752,-10.1072
413,-650,4.87195,9.98242,0.00171115,-0.00268159,-0.00198176,0.00247306,-0.0034435,-0.367039,0.00343121,0.0144437,1637,1674,4.87199,-9.98245
420,-650,4.85852,9.87195,0.000874984,-0.00297723,-0.00139376,0.00132637,-0.00342861,-0.313201,0.00283331,0.0150176,1644,1674,4.85849,-9.87197
427,-650,4.86096,9.76245,-0.000550253,-0.00263665,-0.000760394,-0.000302536,-0.00288437,-0.314932,0.00183042,0.0144695,1651,1674,4.86097,-9.76244
434,-650,4.8678,9.63257,-0.00223103,-0.00231681,0.000297779,-0.00197307,-0.00257477,0.713866,0.00155524,0.0166762,1658,1674,4.86785,-9.63255
441,-650,4.88293,9.4375,-0.00505336,-0.00151305,0.00105912,-0.00122039,-0.00534602,1.3012,0.00323488,0.0273189,1665,1674,4.88288,-9.43754
448,-650,4.75281,9.30872,-0.00851572,-0.00119778,0.00142909,-0.000928596,-0.0087849,1.38462,0.00557292,0.0400719,1672,1674,4.75276,-9.30867
455,-650,4.12878,9.0708,-0.0125594,-0.000235583,0.00232753,0.00018935,-0.0129844,1.39022,0.00872004,0.0403152,1679,1674,4.12884,-9.07079
462,-650,3.71729,8.90381,-0.0174397,0.000880233,0.00293092,0.00133771,-0.0178972,1.41596,0.0124015,0.0467864,1686,1674,3.71733,-8.90377
469,-650,3.42529,8.91418,-0.0232186,0.00173905,0.00300867,0.00209663,-0.0235761,1.4525,0.0164609,0.0490332,1693,1674,3.42529,-8.91423
476,-650,2.99365,8.80249,0,0,0,0,0,0,0,-1,1700,1674,2.99365,-8.80245
483,-650,5.87622,9.30713,0,0,0,0,0,0,0,-1,1707,1674,5.87623,-9.30715
490,-650,5.95667,8.81091,-0.0380145,0.00204523,-0.00745457,0.00338745,-0.0393568,-1.39265,0.0274368,0.0462833,1714,1674,5.95665,-8.81095
497,-650,5.6499,8.68469,-0.0427836,0.00107408,-0.0142576,0.00530155,-0.047011,-1.28255,0.0332491,0.0436355,1721,1674,5.64994,-8.68472
504,-650,5.37537,8.59241,0,0,0,0,0,0,0,-1,1728,1674,5.37543,-8.59246
511,-650,4.14551,5.20691,0,0,0,0,0,0,0,-1,1735,1674,4.14549,-5.20691
518,-650,0,0,0,0,0,0,0,0,0,-1,1742,1674,0,0
525,-650,0,0,0,0,0,0,0,0,0,-1,1749,1674,0,0
532,-650,0,0,0,0,0,0,0,0,0,-1,1756,1674,0,0
539,-650,0,0,0,0,0,0,0,0,0,-1,1763,1674,0,0
546,-650,0,0,0,0,0,0,0,0,0,-1,1770,1674,0,0
553,-650,0,0,0,0,0,0,0,0,0,-1,1777,1674,0,0
560,-650,0,0,0,0,0,0,0,0,0,-1,1784,1674,0,0
567,-650,0,0,0,0,0,0,0,0,0,-1,1791,1674,0,0
574,-650,0,0,0,0,0,0,0,0,0,-1,1798,1674,0,0
581,-650,0,0,0,0,0,0,0,0,0,-1,1805,1674,0,0
588,-650,0,0,0,0,0,0,0,0,0,-1,1812,1674,0,0
595,-650,0,0,0,0,0,0,0,0,0,-1,1819,1674,0,0
602,-650,0,0,0,0,0,0,0,0,0,-1,1826,1674,0,0
609,-650,0,0,0,0,0,0,0,0,0,-1,1833,1674,0,0
616,-650,0,0,0,0,0,0,0,0,0,-1,1840,1674,0,0
623,-650,0,0,0,0,0,0,0,0,0,-1,1847,1674,0,0
630,-650,0,0,0,0,0,0,0,0,0,-1,1854,1674,0,0
637,-650,0,0,0,0,0,0,0,0,0,-1,1861,1674,0,0
644,-650,0,0,0,0,0,0,0,0,0,-1,1868,1674,0,0
651,-650,0,0,0,0,0,0,0,0,0,-1,1875,1674,0,0
658,-650,0,0,0,0,0,0,0,0,0,-1,1882,1674,0,0
665,-650,0,0,0,0,0,0,0,0,0,-1,1889,1674,0,0
672,-650,0,0,0,0,0,0,0,0,0,-1,1896,1674,0,0
679,-650,0,0,0,0,0,0,0,0,0,-1,1903,1674,0,0
686,-650,0,0,0,0,0,0,0,0,0,-1,1910,1674,0,0
693,-650,0,0,0,0,0,0,0,0,0,-1,1917,1674,0,0
700,-650,0,0,0,0,0,0,0,0,0,-1,1924,1674,0,0
707,-650,0,0,0,0,0,0,0,0,0,-1,1931,1674,0,0
714,-650,0,0,0,0,0,0,0,0,0,-1,1938,1674,0,0
721,-650,0,0,0,0,0,0,0,0,0,-1,1945,1674,0,0
728,-650,0,0,0,0,0,0,0,0,0,-1,1952,1674,0,0
735,-650,0,0,0,0,0,0,0,0,0,-1,1959,1674,0,0
742,-650,0,0,0,0,0,0,0,0,0,-1,1966,1674,0,0
749,-650,0,0,0,0,0,0,0,0,0,-1,1973,1674,0,0
756,-650,0,0,0,0,0,0,0,0,0,-1,1980,1674,0,0
763,-650,0,0,0,0,0,0,0,0,0,-1,1987,1674,0,0
770,-650,0,0,0,0,0,0,0,0,0,-1,1994,1674,0,0
777,-650,0,0,0,0,0,0,0,0,0,-1,2001,1674,0,0
784,-650,0,0,0,0,0,0,0,0,0,-1,2008,1674,0,0
791,-650,0,0,0,0,0,0,0,0,0,-1,2015,1674,0,0
798,-650,0,0,0,0,0,0,0,0,0,-1,2022,1674,0,0
805,-650,0,0,0,0,0,0,0,0,0,-1,2029,1674,0,0
812,-650,0,0,0,0,0,0,0,0,0,-1,2036,1674,0,0
-700,-657,0,0,0,0,0,0,0,0,0,-1,524,1681,0,0
-693,-657,0,0,0,0,0,0,0,0,0,-1,531,1681,0,0
-686,-657,0,0,0,0,0,0,0,0,0,-1,538,1681,0,0
-679,-657,0,0,0,0,0,0,0,0,0,-1,545,1681,0,0
-672,-657,0,0,0,0,0,0,0,0,0,-1,552,1681,0,0
-665,-657,0,0,0,0,0,0,0,0,0,-1,559,1681,0,0
-658,-657,0,0,0,0,0,0,0,0,0,-1,566,1681,0,0
-651,-657,0,0,0,0,0,0,0,0,0,-1,573,1681,0,0
-644,-657,0,0,0,0,0,0,0,0,0,-1,580,1681,0,0
-637,-657,0,0,0,0,0,0,0,0,0,-1,587,1681,0,0
-630,-657,0,0,0,0,0,0,0,0,0,-1,594,1681,0,0
-623,-657,0,0,0,0,0,0,0,0,0,-1,601,1681,0,0
-616,-657,0,0,0,0,0,0,0,0,0,-1,608,1681,0,0
-609,-657,0,0,0,0,0,0,0,0,0,-1,615,1681,0,0
-602,-657,0,0,0,0,0,0,0,0,0,-1,622,1681,0,0
-595,-657,0,0,0,0,0,0,0,0,0,-1,629,1681,0,0
-588,-657,0,0,0,0,0,0,0,0,0,-1,636,1681,0,0
-581,-657,0,0,0,0,0,0,0,0,0,-1,643,1681,0,0
-574,-657,0,0,0,0,0,0,0,0,0,-1,650,1681,0,0
-567,-657,0,0,0,0,0,0,0,0,0,-1,657,1681,0,0
-560,-657,0,0,0,0,0,0,0,0,0,-1,664,1681,0,0
-553,-657,0,0,0,0,0,0,0,0,0,-1,671,1681,0,0
-546,-657,0,0,0,0,0,0,0,0,0,-1,678,1681,0,0
-539,-657,0,0,0,0,0,0,0,0,0,-1,685,1681,0,0
-532,-657,0,0,0,0,0,0,0,0,0,-1,692,1681,0,0
-525,-657,0,0,0,0,0,0,0,0,0,-1,699,1681,0,0
-518,-657,0,0,0,0,0,0,0,0,0,-1,706,1681,0,0
-511,-657,0,0,0,0,0,0,0,0,0,-1,713,1681,0,0
-504,-657,0,0,0,0,0,0,0,0,0,-1,720,1681,0,0
-497,-657,0,0,0,0,0,0,0,0,0,-1,727,1681,0,0
-490,-657,0,0,0,0,0,0,0,0,0,-1,734,1681,0,0
-483,-657,0,0,0,0,0,0,0,0,0,-1,741,1681,0,0
-476,-657,0,0,0,0,0,0,0,0,0,-1,748,1681,0,0
-469,-657,0,0,0,0,0,0,0,0,0,-1,755,1681,0,0
-462,-657,0,0,0,0,0,0,0,0,0,-1,762,1681,0,0
-455,-657,0,0,0,0,0,0,0,0,0,-1,769,1681,0,0
-448,-657,0,0,0,0,0,0,0,0,0,-1,776,1681,0,0
-441,-657,0,0,0,0,0,0,0,0,0,-1,783,1681,0,0
-434,-657,0,0,0,0,0,0,0,0,0,-1,790,1681,0,0
-427,-657,0,0,0,0,0,0,0,0,0,-1,797,1681,0,0
-420,-657,0,0,0,0,0,0,0,0,0,-1,804,1681,0,0
-413,-657,0,0,0,0,0,0,0,0,0,-1,811,1681,0,0
-406,-657,0,0,0,0,0,0,0,0,0,-1,818,1681,0,0
-399,-657,0,0,0,0,0,0,0,0,0,-1,825,1681,0,0
-392,-657,0,0,0,0,0,0,0,0,0,-1,832,1681,0,0
-385,-657,1.09814,6.18896,0,0,0,0,0,0,0,-1,839,1681,1.09814,-6.18894
-378,-657,0.31488,4.46753,0,0,0,0,0,0,0,-1,846,1681,0.31487,-4.46755
-371,-657,-0.519043,2.69421,0,0,0,0,0,0,0,-1,853,1681,-0.519064,-2.69422
-364,-657,-3.20154,3.89429,0,0,0,0,0,0,0,-1,860,1681,-3.20151,-3.89425
-357,-657,-3.97162,2.20276,0,0,0,0,0,0,0,-1,867,1681,-3.97159,-2.20277
-350,-657,-5.17291,0.715698,0,0,0,0,0,0,0,-1,874,1681,-5.17294,-0.715695
-343,-657,-6.50574,-0.622192,0,0,0,0,0,0,0,-1,881,1681,-6.50574,0.622157
-336,-657,3.38727,6.56995,0,0,0,0,0,0,0,-1,888,1681,3.3873,-6.56992
-329,-657,3.31274,6.89172,0,0,0,0,0,0,0,-1,895,1681,3.31273,-6.89168
-322,-657,3.1983,8.24231,0,0,0,0,0,0,0,-1,902,1681,3.19831,-8.24236
-315,-657,4.51941,7.79639,-0.0141291,0.000124913,-0.0216327,0.0157744,-0.0297786,-0.944526,0.0267111,0.0426363,909,1681,4.51941,-7.79638
-308,-657,3.38812,8.21228,-0.0114314,8.7372e-05,-0.0186526,0.0138495,-0.0251935,-0.93514,0.0228565,0.0372799,916,1681,3.38812,-8.21229
-301,-657,3.10699,8.59521,-0.00875152,9.52188e-05,-0.0157656,0.0120462,-0.0207025,-0.922167,0.0191264,0.0300953,923,1681,3.10699,-8.59516
-294,-657,3.086,8.80957,-0.00622647,0.000273716,-0.0130057,0.0104293,-0.016382,-0.907839,0.0156062,0.0161913,930,1681,3.08599,-8.80962
-287,-657,3.08276,8.96338,-0.00407134,0.000465676,-0.010476,0.00891596,-0.0125216,-0.892024,0.0124352,0.0113567,937,1681,3.08278,-8.96339
-280,-657,3.06635,9.08716,-0.00248186,0.000725225,-0.00811881,0.00739734,-0.00915397,-0.882898,0.00957382,0.0122637,944,1681,3.06632,-9.08712
-273,-657,3.07117,9.23682,-0.00127101,0.000615672,-0.00614059,0.00588496,-0.00654029,-0.861614,0.00717705,0.00937141,951,1681,3.07117,-9.23687
-266,-657,3.08795,9.3905,-0.000366776,0.000820895,-0.004383,0.00465011,-0.00419599,-0.852731,0.00510954,0.0137253,958,1681,3.08794,-9.39048
-259,-657,3.06885,9.51941,0.000664443,0.000610459,-0.00292751,0.00356508,-0.00229018,-0.780788,0.00340714,0.018218,965,1681,3.06885,-9.51946
-252,-657,3.05328,9.64771,0.00112694,0.000762332,-0.00172885,0.00268307,-0.000793796,-0.732868,0.00210384,0.0137292,972,1681,3.05326,-9.64774
-245,-657,3.08008,9.7915,0.00115257,0.000448741,-0.0006443,0.0015348,6.65137e-05,-0.535437,0.00100177,0.0165741,979,1681,3.08005,-9.7915
-238,-657,3.08661,9.86877,0.00111632,0.000102351,-0.000200232,0.00115442,6.42425e-05,-0.188072,0.000749121,0.0211275,986,1681,3.08659,-9.86874
-231,-657,3.05859,10.0382,0.00108489,-0.000578191,-0.000667886,0.0013199,-0.000813201,-0.338341,0.00124308,0.0210806,993,1681,3.05859,-10.0382
-224,-657,3.04999,10.2179,0.0013864,-0.00105044,-0.00160483,0.00218293,-0.00184697,-0.46071,0.00232936,0.0161983,1000,1681,3.04999,-10.2179
-217,-657,3.06622,10.3141,0.00212233,-0.00203095,-0.00249453,0.00329148,-0.00320009,-0.438282,0.00374803,0.0107195,1007,1681,3.06622,-10.3141
-210,-657,3.08179,10.4186,0.00309165,-0.00277206,-0.00375773,0.00492596,-0.00460637,-0.454117,0.00550452,0.0106183,1014,1681,3.08176,-10.4185
-203,-657,3.09521,10.5311,0.0043483,-0.00367059,-0.00488331,0.00665727,-0.00597956,-0.441675,0.00729937,0.0120583,1021,1681,3.0952,-10.5311
-196,-657,3.10376,10.6324,0.00548253,-0.00454384,-0.00570809,0.00806634,-0.00712765,-0.425061,0.00877783,0.0128891,1028,1681,3.10378,-10.6324
-189,-657,3.09656,10.7506,0.00649151,-0.00528713,-0.00578622,0.00885837,-0.00765398,-0.388284,0.00954186,0.0100201,1035,1681,3.09661,-10.7506
-182,-657,3.09631,10.8644,0.0079134,-0.00583587,-0.00594802,0.0101294,-0.00805186,-0.35663,0.0105198,0.0082333,1042,1681,3.09637,-10.8644
-175,-657,3.10596,10.985,0.00945679,-0.00592636,-0.0055059,0.0112244,-0.00769392,-0.310637,0.0109857,0.00934526,1049,1681,3.10601,-10.985
-168,-657,3.08716,11.103,0.0107477,-0.00601604,-0.00448992,0.0118745,-0.00714286,-0.245888,0.0110924,0.0106553,1056,1681,3.0872,-11.1031
-161,-657,3.09033,11.1727,0.0119127,-0.00597857,-0.00296423,0.012391,-0.0064569,-0.159987,0.0110602,0.0110094,1063,1681,3.09033,-11.1727
-154,-657,3.11841,11.2734,0.0129835,-0.00566654,-0.000891271,0.013026,-0.00570904,-0.0476446,0.0110882,0.011175,1070,1681,3.11844,-11.2734
-147,-657,3.12146,11.3802,0.0138894,-0.00511328,0.00155851,0.0140164,-0.00524025,0.0812911,0.0114963,0.0156242,1077,1681,3.12146,-11.3803
-140,-657,3.08691,11.4812,0.0143857,-0.00544637,0.0043856,0.0153122,-0.00637291,0.208205,0.0128696,0.0269982,1084,1681,3.08695,-11.4812
-133,-657,3.07288,11.4867,0.0146023,-0.00689723,0.00733448,0.0168661,-0.009161,0.299371,0.0152446,0.0358378,1091,1681,3.07293,-11.4867
-126,-657,3.48035,11.533,0.0149981,-0.00831489,0.0104378,0.0189884,-0.0123051,0.365147,0.0182042,0.0382556,1098,1681,3.48038,-11.533
-119,-657,3.58716,11.7129,0.01466,-0.0107837,0.0135533,0.0205268,-0.0166505,0.408516,0.0215031,0.0467268,1105,1681,3.58715,-11.7129
-112,-657,3.64282,11.9688,0,0,0,0,0,0,0,-1,1112,1681,3.64283,-11.9687
-105,-657,3.7655,11.0475,0,0,0,0,0,0,0,-1,1119,1681,3.76551,-11.0475
-98,-657,3.78662,8.16785,0,0,0,0,0,0,0,-1,1126,1681,3.78663,-8.16786
-91,-657,4.89392,9.95154,0,0,0,0,0,0,0,-1,1133,1681,4.89398,-9.95155
-84,-657,4.82214,9.76611,0,0,0,0,0,0,0,-1,1140,1681,4.82208,-9.76614
-77,-657,-5.29846,0.396606,0,0,0,0,0,0,0,-1,1147,1681,-5.29842,-0.396573
-70,-657,-4.14893,2.14575,0,0,0,0,0,0,0,-1,1154,1681,-4.14893,-2.1458
-63,-657,-4.1239,3.177,0,0,0,0,0,0,0,-1,1161,1681,-4.12391,-3.17698
-56,-657,-6.40576,5.73987,0,0,0,0,0,0,0,-1,1168,1681,-6.40577,-5.7399
-49,-657,-5.98462,7.54053,0,0,0,0,0,0,0,-1,1175,1681,-5.98466,-7.5405
-42,-657,-5.71948,9.28955,0,0,0,0,0,0,0,-1,1182,1681,-5.71951,-9.2895
-35,-657,-5.44556,11.015,0,0,0,0,0,0,0,-1,1189,1681,-5.44555,-11.015
-28,-657,-1.3446,8.92847,0,0,0,0,0,0,0,-1,1196,1681,-1.34459,-8.92848
-21,-657,3.02441,10.6489,0,0,0,0,0,0,0,-1,1203,1681,3.02441,-10.6489
-14,-657,3.93555,12.4617,0,0,0,0,0,0,0,-1,1210,1681,3.93551,-12.4617
-7,-657,3.05994,12.1807,0.0170871,-0.000421068,-0.025331,0.035134,-0.018468,-0.619029,0.0314418,0.0447265,1217,1681,3.05994,-12.1807
0,-657,2.99707,12.6741,0.0184293,-0.00192765,-0.0215115,0.0320489,-0.0155473,-0.564424,0.0280247,0.0462704,1224,1681,2.99708,-12.674
7,-657,6.17285,11.5049,0.0177002,-0.00334128,-0.0175954,0.0276803,-0.0133214,-0.515952,0.0241513,0.0455939,1231,1681,6.17287,-11.5049
14,-657,5.79822,11.5238,0.0154473,-0.00488839,-0.01419,0.0227363,-0.0121774,-0.474525,0.0204624,0.0428349,1238,1681,5.79816,-11.5238
21,-657,5.5675,11.0778,0.016323,-0.00676888,-0.0127371,0.0219684,-0.0124143,-0.417205,0.0201047,0.0444354,1245,1681,5.56753,-11.0778
28,-657,5.22791,10.4937,0,0,0,0,0,0,0,-1,1252,1681,5.22789,-10.4937
35,-657,4.75146,14.9535,0,0,0,0,0,0,0,-1,1259,1681,4.75145,-14.9534
42,-657,5.13525,12.3351,0,0,0,0,0,0,0,-1,1266,1681,5.13531,-12.3351
49,-657,5.52209,12.2793,0,0,0,0,0,0,0,-1,1273,1681,5.5221,-12.2793
56,-657,6.13342,12.095,0,0,0,0,0,0,0,-1,1280,1681,6.13338,-12.095
63,-657,5.16553,11.8557,0,0,0,0,0,0,0,-1,1287,1681,5.16549,-11.8558
70,-657,4.84729,11.7496,0.0100507,-0.0281962,0.00506506,0.0107101,-0.0288556,0.129458,0.0236305,0.0493969,1294,1681,4.84728,-11.7496
77,-657,4.51563,11.5731,0.0124753,-0.0287752,0.00581854,0.0132803,-0.0295802,0.137481,0.025335,0.0436026,1301,1681,4.51565,-11.5731
84,-657,4.36353,11.6329,0.0141641,-0.028739,0.00761527,0.0154757,-0.0300506,0.17056,0.0267299,0.0445176,1308,1681,4.36347,-11.633
91,-657,4.22778,11.6295,0.017182,-0.0272556,0.00942081,0.0190967,-0.0291703,0.200513,0.0280685,0.0460074,1315,1681,4.22778,-11.6295
98,-657,3.87708,11.3175,0.0207684,-0.0255007,0.0103455,0.0229762,-0.0277085,0.210256,0.0293053,0.0465687,1322,1681,3.87711,-11.3175
105,-657,4.1084,11.5724,0.0246565,-0.0224261,0.011955,0.0275181,-0.0252877,0.234947,0.0304965,0.0464491,1329,1681,4.10846,-11.5724
112,-657,4.65857,11.7462,0.0282666,-0.0185331,0.013078,0.0316732,-0.0219397,0.254822,0.031123,0.0441141,1336,1681,4.65854,-11.7463
119,-657,5.19238,11.849,0.0312069,-0.0139252,0.0136795,0.0350294,-0.0177477,0.272483,0.0310106,0.0481512,1343,1681,5.19243,-11.849
126,-657,5.44238,12.162,0.033079,-0.00901217,0.0136409,0.0371131,-0.0130463,0.28754,0.0300501,0.0475898,1350,1681,5.44238,-12.162
133,-657,5.71228,12.74,0.0340498,-0.00346207,0.0122072,0.0376725,-0.0070847,0.288484,0.0277793,0.0467235,1357,1681,5.71226,-12.74
140,-657,6.20251,11.5927,0,0,0,0,0,0,0,-1,1364,1681,6.20252,-11.5926
147,-657,6.61023,11.5291,0,0,0,0,0,0,0,-1,1371,1681,6.61019,-11.5291
154,-657,12.2501,7.70422,0,0,0,0,0,0,0,-1,1378,1681,12.2501,-7.70418
161,-657,12.8524,6.43372,0,0,0,0,0,0,0,-1,1385,1681,12.8524,-6.43366
168,-657,5.21643,0.70105,0,0,0,0,0,0,0,-1,1392,1681,5.21648,-0.7011
175,-657,5.52771,0.649048,0,0,0,0,0,0,0,-1,1399,1681,5.52774,-0.649019
182,-657,5.73999,1.02612,0,0,0,0,0,0,0,-1,1406,1681,5.73995,-1.02611
189,-657,5.92126,1.44116,0,0,0,0,0,0,0,-1,1413,1681,5.92126,-1.44115
196,-657,4.92834,9.59021,0,0,0,0,0,0,0,-1,1420,1681,4.9284,-9.59018
203,-657,6.26343,5.16492,0,0,0,0,0,0,0,-1,1427,1681,6.26345,-5.16488
210,-657,3.9856,5.28088,0,0,0,0,0,0,0,-1,1434,1681,3.98555,-5.28084
217,-657,3.95178,5.2843,0,0,0,0,0,0,0,-1,1441,1681,3.95174,-5.28431
224,-657,6.66736,-0.250244,0,0,0,0,0,0,0,-1,1448,1681,6.66737,0.250229
231,-657,6.85498,-1.70752,0,0,0,0,0,0,0,-1,1455,1681,6.855,1.70758
238,-657,5.34143,-2.89819,0,0,0,0,0,0,0,-1,1462,1681,5.34143,2.89813
245,-657,8.66003,-0.102783,0,0,0,0,0,0,0,-1,1469,1681,8.66,0.102824
252,-657,4.78955,0.623779,0,0,0,0,0,0,0,-1,1476,1681,4.7895,-0.623826
259,-657,2.61523,4.31909,0,0,0,0,0,0,0,-1,1483,1681,2.61523,-4.31908
266,-657,5.35437,11.4742,0,0,0,0,0,0,0,-1,1490,1681,5.35441,-11.4742
273,-657,4.90649,11.8744,0,0,0,0,0,0,0,-1,1497,1681,4.90655,-11.8743
280,-657,4.7262,11.7845,-0.00560402,-0.0014976,0.00933185,0.00600424,-0.0131059,0.893684,0.0112843,0.0388151,1504,1681,4.72621,-11.7845
287,-657,4.78479,11.7877,-0.00522538,-0.00128848,0.00764233,0.00463484,-0.0111487,0.911445,0.00936774,0.0315252,1511,1681,4.78483,-11.7878
294,-657,4.76624,11.7395,-0.00470577,-0.00133207,0.0059578,0.00317307,-0.00921092,0.923354,0.00742777,0.0235137,1518,1681,4.76619,-11.7395
301,-657,4.7356,11.6571,-0.00396187,-0.00117207,0.00422255,0.00188002,-0.00701396,0.944928,0.00541259,0.015602,1525,1681,4.73558,-11.6572
308,-657,4.72644,11.5607,-0.00319097,-0.00103951,0.00271619,0.000806213,-0.00503669,0.973943,0.00365628,0.0129294,1532,1681,4.72638,-11.5607
315,-657,4.72961,11.4753,-0.00248184,-0.000774077,0.00150411,0.000101622,-0.00335754,1.04356,0.00227299,0.0118288,1539,1681,4.72966,-11.4754
322,-657,4.76025,11.3667,-0.00181256,-0.000549406,0.00054216,-0.000348621,-0.00201335,1.21611,0.00124244,0.0129749,1546,1681,4.7603,-11.3667
329,-657,4.75916,11.2627,-0.00119526,-0.00031547,-0.000120167,-0.000299352,-0.00121138,-1.43746,0.000728599,0.017848,1553,1681,4.75916,-11.2627
336,-657,4.74414,11.1849,-0.000761836,-0.000289124,-0.000530173,5.49916e-05,-0.00110595,-0.99508,0.000756298,0.0154297,1560,1681,4.7442,-11.1849
343,-657,4.77246,11.1176,-0.000398336,-9.78113e-05,-0.000692398,0.000460441,-0.000956588,-0.89225,0.000834671,0.0128263,1567,1681,4.77246,-11.1175
350,-657,4.79175,10.9998,1.98691e-05,9.6046e-05,-0.000795224,0.000854093,-0.000738178,-0.809328,0.00092011,0.0148823,1574,1681,4.7917,-10.9998
357,-657,4.77576,10.8865,0.000427079,9.40077e-05,-0.000889447,0.00116545,-0.00064436,-0.692852,0.00105923,0.0140171,1581,1681,4.77572,-10.8865
364,-657,4.77527,10.7971,0.000872506,2.43301e-05,-0.000930911,0.00147138,-0.000574541,-0.571663,0.00121845,0.010099,1588,1681,4.77528,-10.7972
371,-657,4.77783,10.7117,0.00118337,-0.000250246,-0.000875326,0.00159794,-0.000664813,-0.442316,0.00134292,0.0140291,1595,1681,4.7778,-10.7116
378,-657,4.76416,10.5822,0.00162737,-0.000552383,-0.000986028,0.00200721,-0.000932229,-0.367708,0.0017345,0.0145255,1602,1681,4.76413,-10.5822
385,-657,4.75061,10.443,0.00215795,-0.00110034,-0.00130955,0.00261903,-0.00156142,-0.338535,0.0024392,0.0124888,1609,1681,4.75059,-10.443
392,-657,4.755,10.3572,0.00270892,-0.00209049,-0.0018858,0.00336123,-0.0027428,-0.333025,0.00353019,0.0129941,1616,1681,4.75498,-10.3572
399,-657,4.77405,10.2361,0.00313071,-0.00267959,-0.00262711,0.0041424,-0.00369128,-0.367591,0.00452527,0.0128233,1623,1681,4.77407,-10.236
406,-657,4.77734,10.1057,0.00321852,-0.00334789,-0.00306977,0.00443008,-0.00455945,-0.375907,0.00519028,0.0134025,1630,1681,4.7774,-10.1057
413,-657,4.78223,9.974,0.0030238,-0.00394447,-0.00308857,0.00419568,-0.00511635,-0.362644,0.00538505,0.0131598,1637,1681,4.78223,-9.97398
420,-657,4.7843,9.84546,0.00217768,-0.00461256,-0.00244879,0.00296865,-0.00540354,-0.312429,0.00490135,0.014245,1644,1681,4.78427,-9.84543
427,-657,4.78381,9.70959,0.000608772,-0.00462927,-0.00174859,0.00113885,-0.00515935,-0.294341,0.00387537,0.018277,1651,1681,4.78387,-9.70959
434,-657,4.77136,9.55371,-0.00136206,-0.00464674,-0.000478492,-0.00129378,-0.00471502,-0.14175,0.00281307,0.0264309,1658,1681,4.7714,-9.55371
441,-657,4.7644,9.31299,-0.00482594,-0.00407144,0.00046191,-0.0038523,-0.00504508,1.12782,0.00304469,0.0438243,1665,1681,4.76447,-9.313
448,-657,4.81299,9.11865,-0.00921893,-0.00408607,0.000919297,-0.00392639,-0.00937861,1.39882,0.00543858,0.0485067,1672,1681,4.81302,-9.11863
455,-657,4.8562,8.78625,0,0,0,0,0,0,0,-1,1679,1681,4.85624,-8.78625
462,-657,2.92749,8.78296,0,0,0,0,0,0,0,-1,1686,1681,2.92745,-8.78297
469,-657,2.47144,8.68225,0,0,0,0,0,0,0,-1,1693,1681,2.47149,-8.6822
476,-657,8.01404,3.96289,0,0,0,0,0,0,0,-1,1700,1681,8.01408,-3.96294
483,-657,5.47424,8.90247,0,0,0,0,0,0,0,-1,1707,1681,5.47425,-8.90244
490,-657,6.14087,9.01477,0,0,0,0,0,0,0,-1,1714,1681,6.14089,-9.01479
497,-657,5.82849,8.8877,0,0,0,0,0,0,0,-1,1721,1681,5.82851,-8.88767
504,-657,0,0,0,0,0,0,0,0,0,-1,1728,1681,0,0
511,-657,0,0,0,0,0,0,0,0,0,-1,1735,1681,0,0
518,-657,0,0,0,0,0,0,0,0,0,-1,1742,1681,0,0
525,-657,0,0,0,0,0,0,0,0,0,-1,1749,1681,0,0
532,-657,0,0,0,0,0,0,0,0,0,-1,1756,1681,0,0
539,-657,0,0,0,0,0,0,0,0,0,-1,1763,1681,0,0
546,-657,0,0,0,0,0,0,0,0,0,-1,1770,1681,0,0
553,-657,0,0,0,0,0,0,0,0,0,-1,1777,1681,0,0
560,-657,0,0,0,0,0,0,0,0,0,-1,1784,1681,0,0
567,-657,0,0,0,0,0,0,0,0,0,-1,1791,1681,0,0
574,-657,0,0,0,0,0,0,0,0,0,-1,1798,1681,0,0
581,-657,0,0,0,0,0,0,0,0,0,-1,1805,1681,0,0
588,-657,0,0,0,0,0,0,0,0,0,-1,1812,1681,0,0
595,-657,0,0,0,0,0,0,0,0,0,-1,1819,1681,0,0
602,-657,0,0,0,0,0,0,0,0,0,-1,1826,1681,0,0
609,-657,0,0,0,0,0,0,0,0,0,-1,1833,1681,0,0
616,-657,0,0,0,0,0,0,0,0,0,-1,1840,1681,0,0
623,-657,0,0,0,0,0,0,0,0,0,-1,1847,1681,0,0
630,-657,0,0,0,0,0,0,0,0,0,-1,1854,1681,0,0
637,-657,0,0,0,0,0,0,0,0,0,-1,1861,1681,0,0
644,-657,0,0,0,0,0,0,0,0,0,-1,1868,1681,0,0
651,-657,0,0,0,0,0,0,0,0,0,-1,1875,1681,0,0
658,-657,0,0,0,0,0,0,0,0,0,-1,1882,1681,0,0
665,-657,0,0,0,0,0,0,0,0,0,-1,1889,1681,0,0
672,-657,0,0,0,0,0,0,0,0,0,-1,1896,1681,0,0
679,-657,0,0,0,0,0,0,0,0,0,-1,1903,1681,0,0
686,-657,0,0,0,0,0,0,0,0,0,-1,1910,1681,0,0
693,-657,0,0,0,0,0,0,0,0,0,-1,1917,1681,0,0
700,-657,0,0,0,0,0,0,0,0,0,-1,1924,1681,0,0
707,-657,0,0,0,0,0,0,0,0,0,-1,1931,1681,0,0
714,-657,0,0,0,0,0,0,0,0,0,-1,1938,1681,0,0
721,-657,0,0,0,0,0,0,0,0,0,-1,1945,1681,0,0
728,-657,0,0,0,0,0,0,0,0,0,-1,1952,1681,0,0
735,-657,0,0,0,0,0,0,0,0,0,-1,1959,1681,0,0
742,-657,0,0,0,0,0,0,0,0,0,-1,1966,1681,0,0
749,-657,0,0,0,0,0,0,0,0,0,-1,1973,1681,0,0
756,-657,0,0,0,0,0,0,0,0,0,-1,1980,1681,0,0
763,-657,0,0,0,0,0,0,0,0,0,-1,1987,1681,0,0
770,-657,0,0,0,0,0,0,0,0,0,-1,1994,1681,0,0
777,-657,0,0,0,0,0,0,0,0,0,-1,2001,1681,0,0
784,-657,0,0,0,0,0,0,0,0,0,-1,2008,1681,0,0
791,-657,0,0,0,0,0,0,0,0,0,-1,2015,1681,0,0
798,-657,0,0,0,0,0,0,0,0,0,-1,2022,1681,0,0
805,-657,0,0,0,0,0,0,0,0,0,-1,2029,1681,0,0
812,-657,0,0,0,0,0,0,0,0,0,-1,2036,1681,0,0
-700,-664,0,0,0,0,0,0,0,0,0,-1,524,1688,0,0
-693,-664,0,0,0,0,0,0,0,0,0,-1,531,1688,0,0
-686,-664,0,0,0,0,0,0,0,0,0,-1,538,1688,0,0
-679,-664,0,0,0,0,0,0,0,0,0,-1,545,1688,0,0
-672,-664,0,0,0,0,0,0,0,0,0,-1,552,1688,0,0
-665,-664,0,0,0,0,0,0,0,0,0,-1,559,1688,0,0
-658,-664,0,0,0,0,0,0,0,0,0,-1,566,1688,0,0
-651,-664,0,0,0,0,0,0,0,0,0,-1,573,1688,0,0
-644,-664,0,0,0,0,0,0,0,0,0,-1,580,1688,0,0
-637,-664,0,0,0,0,0,0,0,0,0,-1,587,1688,0,0
-630,-664,0,0,0,0,0,0,0,0,0,-1,594,1688,0,0
-623,-664,0,0,0,0,0,0,0,0,0,-1,601,1688,0,0
-616,-664,0,0,0,0,0,0,0,0,0,-1,608,1688,0,0
-609,-664,0,0,0,0,0,0,0,0,0,-1,615,1688,0,0
-602,-664,0,0,0,0,0,0,0,0,0,-1,622,1688,0,0
-595,-664,0,0,0,0,0,0,0,0,0,-1,629,1688,0,0
-588,-664,0,0,0,0,0,0,0,0,0,-1,636,1688,0,0
-581,-664,0,0,0,0,0,0,0,0,0,-1,643,1688,0,0
-574,-664,0,0,0,0,0,0,0,0,0,-1,650,1688,0,0
-567,-664,0,0,0,0,0,0,0,0,0,-1,657,1688,0,0
-560,-664,0,0,0,0,0,0,0,0,0,-1,664,1688,0,0
-553,-664,0,0,0,0,0,0,0,0,0,-1,671,1688,0,0
-546,-664,0,0,0,0,0,0,0,0,0,-1,678,1688,0,0
-539,-664,0,0,0,0,0,0,0,0,0,-1,685,1688,0,0
-532,-664,0,0,0,0,0,0,0,0,0,-1,692,1688,0,0
-525,-664,0,0,0,0,0,0,0,0,0,-1,699,1688,0,0
-518,-664,0,0,0,0,0,0,0,0,0,-1,706,1688,0,0
-511,-664,0,0,0,0,0,0,0,0,0,-1,713,1688,0,0
-504,-664,0,0,0,0,0,0,0,0,0,-1,720,1688,0,0
-497,-664,0,0,0,0,0,0,0,0,0,-1,727,1688,0,0
-490,-664,0,0,0,0,0,0,0,0,0,-1,734,1688,0,0
-483,-664,0,0,0,0,0,0,0,0,0,-1,741,1688,0,0
-476,-664,0,0,0,0,0,0,0,0,0,-1,748,1688,0,0
-469,-664,0,0,0,0,0,0,0,0,0,-1,755,1688,0,0
-462,-664,0,0,0,0,0,0,0,0,0,-1,762,1688,0,0
-455,-664,0,0,0,0,0,0,0,0,0,-1,769,1688,0,0
-448,-664,0,0,0,0,0,0,0,0,0,-1,776,1688,0,0
-441,-664,0,0,0,0,0,0,0,0,0,-1,783,1688,0,0
-434,-664,0,0,0,0,0,0,0,0,0,-1,790,1688,0,0
-427,-664,0,0,0,0,0,0,0,0,0,-1,797,1688,0,0
-420,-664,0,0,0,0,0,0,0,0,0,-1,804,1688,0,0
-413,-664,0,0,0,0,0,0,0,0,0,-1,811,1688,0,0
-406,-664,0,0,0,0,0,0,0,0,0,-1,818,1688,0,0
-399,-664,0,0,0,0,0,0,0,0,0,-1,825,1688,0,0
-392,-664,0,0,0,0,0,0,0,0,0,-1,832,1688,0,0
-385,-664,0,0,0,0,0,0,0,0,0,-1,839,1688,0,0
-378,-664,0,0,0,0,0,0,0,0,0,-1,846,1688,0,0
-371,-664,-1.61676,5.92737,0,0,0,0,0,0,0,-1,853,1688,-1.61675,-5.92735
-364,-664,-2.84229,4.37683,0,0,0,0,0,0,0,-1,860,1688,-2.84232,-4.37685
-357,-664,-4.0437,2.82947,0,0,0,0,0,0,0,-1,867,1688,-4.04369,-2.82946
-350,-664,-5.24695,1.2782,0,0,0,0,0,0,0,-1,874,1688,-5.24693,-1.27815
-343,-664,-6.67126,0.569946,0,0,0,0,0,0,0,-1,881,1688,-6.67128,-0.569944
-336,-664,4.11206,6.479,0,0,0,0,0,0,0,-1,888,1688,4.11204,-6.47903
-329,-664,3.32947,6.71118,0,0,0,0,0,0,0,-1,895,1688,3.32945,-6.71118
-322,-664,2.76099,7.0177,0,0,0,0,0,0,0,-1,902,1688,2.76101,-7.01776
-315,-664,4.64264,7.83496,-0.0147085,-0.00109692,-0.0354022,0.0281477,-0.0439532,-0.880361,0.0419596,0.045716,909,1688,4.64266,-7.83494
-308,-664,3.82947,8.35413,-0.0115397,-0.00108983,-0.0305106,0.02464,-0.0372696,-0.870201,0.0359906,0.0456099,916,1688,3.82946,-8.35418
-301,-664,3.40167,8.5575,-0.00842638,-0.000877065,-0.0258653,0.0214876,-0.030791,-0.857854,0.030342,0.0441956,923,1688,3.40167,-8.55749
-294,-664,3.20898,8.80127,-0.00557584,-0.000432969,-0.0214746,0.0186236,-0.0246325,-0.844986,0.0250541,0.0383173,930,1688,3.209,-8.80133
-287,-664,3.23517,8.99292,-0.00319954,3.93405e-05,-0.0174501,0.015945,-0.0191052,-0.831668,0.0202637,0.0265321,937,1688,3.23515,-8.99291
-280,-664,3.16229,9.11304,-0.00157801,0.000590018,-0.0136788,0.0132277,-0.0142157,-0.824939,0.0158479,0.0176728,944,1688,3.16231,-9.11306
-273,-664,3.15961,9.24036,-0.000424962,0.000563064,-0.0103802,0.010461,-0.0103229,-0.809176,0.0119997,0.0143724,951,1688,3.15962,-9.24038
-266,-664,3.16925,9.39038,0.000379855,0.000871786,-0.00752205,0.00815189,-0.00690025,-0.801742,0.00870037,0.0202745,958,1688,3.16928,-9.3904
-259,-664,3.17426,9.51294,0.00131318,0.000654052,-0.00519017,0.00618424,-0.00421701,-0.753692,0.00604086,0.0177264,965,1688,3.17424,-9.51291
-252,-664,3.20605,9.63818,0.00164203,0.000876411,-0.00312234,0.00440494,-0.0018865,-0.724401,0.00372811,0.0164387,972,1688,3.20606,-9.63819
-245,-664,3.19025,9.80273,0.00148302,0.000625134,-0.00116223,0.00229294,-0.000184785,-0.608618,0.0015938,0.0208796,979,1688,3.19024,-9.80277
-238,-664,3.2135,9.89844,0.00120878,0.000367631,-3.95232e-05,0.00121063,0.000365778,-0.0468496,0.000716969,0.0235965,986,1688,3.21353,-9.8985
-231,-664,3.19043,10.0278,0.000992228,-0.00033275,-0.000226788,0.00102997,-0.000370493,-0.164911,0.000837908,0.0191933,993,1688,3.19046,-10.0279
-224,-664,3.18225,10.2129,0.000999608,-0.000782512,-0.000749476,0.00127289,-0.0010558,-0.349654,0.00134642,0.0132722,1000,1688,3.18227,-10.2129
-217,-664,3.18744,10.314,0.00132135,-0.00168549,-0.00128751,0.00179731,-0.00216145,-0.354094,0.00228881,0.0109414,1007,1688,3.18743,-10.314
-210,-664,3.19653,10.4268,0.00196113,-0.00228242,-0.00218512,0.00288512,-0.00320641,-0.400053,0.00351857,0.0115077,1014,1688,3.19651,-10.4267
-203,-664,3.19507,10.5435,0.00283066,-0.00295665,-0.00297675,0.00408842,-0.00421442,-0.399776,0.00479383,0.0130797,1021,1688,3.1951,-10.5435
-196,-664,3.19238,10.639,0.00361484,-0.00360022,-0.00355684,0.00507341,-0.00505879,-0.389162,0.00584983,0.0138843,1028,1688,3.19236,-10.6391
-189,-664,3.19678,10.7504,0.00422714,-0.00417026,-0.0037002,0.00562492,-0.00556804,-0.361186,0.00646229,0.00975941,1035,1688,3.19682,-10.7503
-182,-664,3.19641,10.8662,0.00514001,-0.00460378,-0.00393879,0.00653306,-0.00599682,-0.339943,0.00723634,0.00920459,1042,1688,3.19638,-10.8662
-175,-664,3.21545,10.9706,0.00611901,-0.0048133,-0.00387218,0.00735156,-0.00604585,-0.308168,0.00774723,0.0118153,1049,1688,3.2155,-10.9706
-168,-664,3.21838,11.0795,0.00688585,-0.0049521,-0.00337261,0.00777927,-0.00584553,-0.258958,0.00789265,0.0127032,1056,1688,3.21844,-11.0795
-161,-664,3.21704,11.1626,0.00753587,-0.00510884,-0.00257503,0.00804015,-0.00561312,-0.193387,0.00792413,0.00987033,1063,1688,3.21706,-11.1626
-154,-664,3.22522,11.2499,0.00809789,-0.00511166,-0.0014721,0.00825995,-0.00527372,-0.10965,0.00787682,0.00973447,1070,1688,3.22525,-11.2499
-147,-664,3.22034,11.3398,0.00850581,-0.00503537,-0.000174618,0.00850806,-0.00503762,-0.0128925,0.00790569,0.010468,1077,1688,3.22039,-11.3399
-140,-664,3.23108,11.4521,0.00854869,-0.00583958,0.00142663,0.00868878,-0.00597966,0.0978821,0.00851684,0.0109938,1084,1688,3.23106,-11.4522
-133,-664,3.24133,11.5591,0.00833528,-0.00761231,0.00308785,0.00891229,-0.00818932,0.184733,0.00987656,0.0114081,1091,1688,3.24129,-11.5591
-126,-664,3.33459,11.6349,0.00826506,-0.00930644,0.00480631,0.00949381,-0.0105352,0.250291,0.0115689,0.0199908,1098,1688,3.33456,-11.6349
-119,-664,3.44617,11.6743,0.00765778,-0.0119242,0.00685814,0.00982077,-0.0140872,0.305516,0.0138763,0.0339303,1105,1688,3.44612,-11.6743
-112,-664,3.54663,11.7667,0.00644271,-0.0150636,0.0082108,0.00921906,-0.0178399,0.326065,0.0158846,0.0446764,1112,1688,3.54662,-11.7667
-105,-664,3.79944,11.5747,0,0,0,0,0,0,0,-1,1119,1688,3.79944,-11.5747
-98,-664,3.89197,11.3389,0,0,0,0,0,0,0,-1,1126,1688,3.89196,-11.3389
-91,-664,4.29993,10.8406,0.00291889,-0.0307909,0.0114932,0.00646453,-0.0343365,0.299235,0.0253224,0.0418903,1133,1688,4.29996,-10.8405
-84,-664,4.10742,10.6552,0.00248661,-0.0380448,0.0104659,0.00502953,-0.0405878,0.238353,0.0288814,0.0471322,1140,1688,4.10739,-10.6552
-77,-664,4.12329,10.6996,0,0,0,0,0,0,0,-1,1147,1688,4.12329,-10.6995
-70,-664,4.20374,8.24524,0,0,0,0,0,0,0,-1,1154,1688,4.20379,-8.24519
-63,-664,-4.677,2.40503,0,0,0,0,0,0,0,-1,1161,1688,-4.67702,-2.40498
-56,-664,-4.66504,3.32727,0,0,0,0,0,0,0,-1,1168,1688,-4.6651,-3.32724
-49,-664,-2.54297,3.31848,0,0,0,0,0,0,0,-1,1175,1688,-2.54297,-3.31852
-42,-664,-0.359253,4.38684,0,0,0,0,0,0,0,-1,1182,1688,-0.359261,-4.38685
-35,-664,-0.705566,3.55017,0,0,0,0,0,0,0,-1,1189,1688,-0.705567,-3.55023
-28,-664,-1.54236,10.2538,0,0,0,0,0,0,0,-1,1196,1688,-1.54236,-10.2538
-21,-664,4.02588,12.6614,0,0,0,0,0,0,0,-1,1203,1688,4.02589,-12.6613
-14,-664,3.94434,12.5924,0.0146725,-0.000324842,-0.0220128,0.0304288,-0.0160812,-0.621238,0.0272751,0.0450986,1210,1688,3.94438,-12.5925
-7,-664,3.85181,12.4781,0.0165301,-0.00208223,-0.0194498,0.0287855,-0.0143376,-0.56226,0.0253586,0.0468034,1217,1688,3.85183,-12.4781
0,-664,3.70911,12.7169,0.0172044,-0.00396487,-0.0164056,0.0261435,-0.012904,-0.498907,0.022972,0.0477089,1224,1688,3.70905,-12.7169
7,-664,5.62451,11.4055,0.016288,-0.00579591,-0.0131698,0.0224324,-0.0119402,-0.436529,0.0201509,0.0458534,1231,1688,5.62453,-11.4055
14,-664,5.15161,11.2495,0.0142431,-0.00777569,-0.0102801,0.0182965,-0.0118291,-0.375577,0.0175261,0.0434141,1238,1688,5.15167,-11.2495
21,-664,4.82361,10.7944,0.0137808,-0.0097993,-0.00870539,0.0166464,-0.0126649,-0.318008,0.0169749,0.0455311,1245,1688,4.82363,-10.7944
28,-664,4.50732,10.3435,0,0,0,0,0,0,0,-1,1252,1688,4.50735,-10.3435
35,-664,4.49951,15.1493,0,0,0,0,0,0,0,-1,1259,1688,4.49955,-15.1493
42,-664,4.55261,12.1505,0,0,0,0,0,0,0,-1,1266,1688,4.55255,-12.1505
49,-664,4.9834,12.1177,0,0,0,0,0,0,0,-1,1273,1688,4.98334,-12.1177
56,-664,5.17554,11.3508,0,0,0,0,0,0,0,-1,1280,1688,5.17548,-11.3508
63,-664,5.49683,11.6459,0,0,0,0,0,0,0,-1,1287,1688,5.49683,-11.6459
70,-664,4.56616,11.595,0,0,0,0,0,0,0,-1,1294,1688,4.56613,-11.595
77,-664,4.44519,11.6733,0.00996419,-0.0284191,0.00595146,0.0108658,-0.0293207,0.150352,0.0240034,0.042532,1301,1688,4.44518,-11.6733
84,-664,4.26501,11.7999,0.0120346,-0.0282711,0.00739286,0.0133478,-0.0295843,0.175798,0.0253709,0.0458097,1308,1688,4.26505,-11.7999
91,-664,4.08875,11.8472,0,0,0,0,0,0,0,-1,1315,1688,4.08871,-11.8472
98,-664,3.62158,11.9822,0,0,0,0,0,0,0,-1,1322,1688,3.62152,-11.9822
105,-664,4.09314,12.0392,0,0,0,0,0,0,0,-1,1329,1688,4.09313,-12.0392
112,-664,4.52991,12.1191,0,0,0,0,0,0,0,-1,1336,1688,4.52997,-12.1191
119,-664,5.03967,12.29,0,0,0,0,0,0,0,-1,1343,1688,5.03968,-12.29
126,-664,5.33423,12.7178,0,0,0,0,0,0,0,-1,1350,1688,5.33418,-12.7177
133,-664,5.3468,13.0406,0,0,0,0,0,0,0,-1,1357,1688,5.34685,-13.0407
140,-664,5.57202,13.1631,0,0,0,0,0,0,0,-1,1364,1688,5.57206,-13.1631
147,-664,7.28821,12.6483,0,0,0,0,0,0,0,-1,1371,1688,7.28826,-12.6483
154,-664,13.5482,5.89453,0,0,0,0,0,0,0,-1,1378,1688,13.5482,-5.8945
161,-664,4.60132,1.56238,0,0,0,0,0,0,0,-1,1385,1688,4.60134,-1.56233
168,-664,5.172,1.25488,0,0,0,0,0,0,0,-1,1392,1688,5.17203,-1.25484
175,-664,5.58313,1.16467,0,0,0,0,0,0,0,-1,1399,1688,5.58317,-1.16466
182,-664,5.74268,1.41113,0,0,0,0,0,0,0,-1,1406,1688,5.74263,-1.41115
189,-664,5.87744,1.87061,0,0,0,0,0,0,0,-1,1413,1688,5.87745,-1.87065
196,-664,6.7594,5.97473,0,0,0,0,0,0,0,-1,1420,1688,6.75943,-5.97478
203,-664,5.38452,5.22034,0,0,0,0,0,0,0,-1,1427,1688,5.38453,-5.2203
210,-664,5.25549,6.45715,0,0,0,0,0,0,0,-1,1434,1688,5.25549,-6.45721
217,-664,5.72009,6.73975,0,0,0,0,0,0,0,-1,1441,1688,5.72014,-6.73972
224,-664,5.05725,7.42908,0,0,0,0,0,0,0,-1,1448,1688,5.05723,-7.42912
231,-664,5.13318,7.60864,0,0,0,0,0,0,0,-1,1455,1688,5.13313,-7.60862
238,-664,4.23193,6.45471,0,0,0,0,0,0,0,-1,1462,1688,4.23197,-6.45476
245,-664,4.42004,6.80896,0,0,0,0,0,0,0,-1,1469,1688,4.4201,-6.80901
252,-664,3.67346,6.85461,0,0,0,0,0,0,0,-1,1476,1688,3.6734,-6.85462
259,-664,4.55823,11.7435,0,0,0,0,0,0,0,-1,1483,1688,4.55826,-11.7435
266,-664,4.65283,11.8561,0,0,0,0,0,0,0,-1,1490,1688,4.65288,-11.8561
273,-664,4.71509,11.924,-0.00394391,-0.00194517,0.0088189,0.00593081,-0.0118199,0.841818,0.0104347,0.0358204,1497,1688,4.71512,-11.924
280,-664,4.60559,11.8779,-0.00376888,-0.00123024,0.00746598,0.00507355,-0.0100727,0.8696,0.00890203,0.0232656,1504,1688,4.60554,-11.8779
287,-664,4.59009,11.7874,-0.00350354,-0.000842728,0.00625571,0.00422248,-0.00856875,0.890173,0.00752578,0.0189758,1511,1688,4.59007,-11.7873
294,-664,4.6272,11.7209,-0.00316882,-0.000671074,0.00509245,0.00332341,-0.0071633,0.905645,0.00618832,0.0140494,1518,1688,4.62717,-11.7209
301,-664,4.64343,11.6532,-0.00269854,-0.000468492,0.00389356,0.00246656,-0.00563359,0.924854,0.00479429,0.0108615,1525,1688,4.64348,-11.6532
308,-664,4.65393,11.5734,-0.0021904,-0.000352837,0.0028285,0.00170237,-0.0042456,0.942437,0.00353715,0.0116153,1532,1688,4.65392,-11.5733
315,-664,4.6615,11.4868,-0.00167983,-0.000152386,0.00192428,0.00115419,-0.00298641,0.974308,0.00246736,0.0120002,1539,1688,4.66147,-11.4868
322,-664,4.68726,11.3798,-0.00118818,-1.8925e-05,0.0011639,0.000698924,-0.00190603,1.01814,0.00155686,0.0147383,1546,1688,4.68722,-11.3797
329,-664,4.67505,11.2758,-0.000729631,0.000102386,0.000578303,0.000398767,-0.00102601,1.0972,0.000848752,0.0164228,1553,1688,4.67499,-11.2758
336,-664,4.65759,11.1718,-0.000391337,3.40202e-05,0.000167521,9.20728e-05,-0.00044939,1.23721,0.000334535,0.0138729,1560,1688,4.65761,-11.1717
343,-664,4.67371,11.084,-6.40327e-05,0.000107068,-8.09775e-05,0.000139315,-9.62798e-05,-1.19182,0.000136775,0.0111479,1567,1688,4.67376,-11.084
350,-664,4.68481,10.9851,0.000328051,0.000170483,-0.000296957,0.000556498,-5.79635e-05,-0.655733,0.000391752,0.0128373,1574,1688,4.68486,-10.9851
357,-664,4.67676,10.8711,0.000786467,5.94264e-05,-0.000556354,0.00108753,-0.000241641,-0.496018,0.000817561,0.0125947,1581,1688,4.67679,-10.8711
364,-664,4.67444,10.7825,0.00140545,-0.000101072,-0.000889172,0.00181753,-0.000513157,-0.433981,0.00141412,0.0105326,1588,1688,4.67441,-10.7824
371,-664,4.68677,10.7031,0.00189335,-0.00043436,-0.00110045,0.00233123,-0.000872237,-0.378701,0.00191239,0.0128686,1595,1688,4.68674,-10.7031
378,-664,4.67383,10.5885,0.00253832,-0.000853911,-0.00150646,0.00311074,-0.00142633,-0.363124,0.00267898,0.0124994,1602,1688,4.67388,-10.5886
385,-664,4.6543,10.4691,0.00331217,-0.00158842,-0.00208987,0.00408236,-0.00235861,-0.35309,0.00376282,0.0138126,1609,1688,4.65432,-10.4691
392,-664,4.64685,10.3558,0.0041471,-0.00279462,-0.00288099,0.005187,-0.00383452,-0.346399,0.00522805,0.0170992,1616,1688,4.64682,-10.3559
399,-664,4.6665,10.2128,0.0048277,-0.00356225,-0.00383816,0.00631861,-0.00505315,-0.370505,0.00657903,0.0134366,1623,1688,4.66646,-10.2128
406,-664,4.67737,10.1003,0.00514547,-0.00452757,-0.00447543,0.00689844,-0.00628054,-0.37332,0.00761167,0.0113692,1630,1688,4.6774,-10.1004
413,-664,4.7002,9.96033,0.0051006,-0.00560303,-0.00459252,0.00680096,-0.00730339,-0.354596,0.00814487,0.0111898,1637,1688,4.70018,-9.96039
420,-664,4.72388,9.84204,0.00427544,-0.00696045,-0.00386888,0.00547875,-0.00816376,-0.301539,0.0079272,0.0246094,1644,1688,4.72385,-9.84198
427,-664,4.7373,9.8042,0.00266516,-0.00756634,-0.00314313,0.00355359,-0.00845477,-0.275471,0.00712292,0.0429682,1651,1688,4.73725,-9.80423
434,-664,4.72705,9.73083,0.000456966,-0.00813019,-0.0017247,0.000790417,-0.00846364,-0.190982,0.0059235,0.0440645,1658,1688,4.72701,-9.73085
441,-664,4.71802,9.5575,-0.0035731,-0.00801266,-0.000712793,-0.00346146,-0.00812429,-0.155355,0.00470763,0.0482059,1665,1688,4.718,-9.55746
448,-664,4.61475,8.92432,0,0,0,0,0,0,0,-1,1672,1688,4.61469,-8.92435
455,-664,4.48462,8.32068,0,0,0,0,0,0,0,-1,1679,1688,4.48466,-8.32074
462,-664,4.3147,4.25439,0,0,0,0,0,0,0,-1,1686,1688,4.31467,-4.25435
469,-664,6.05469,7.49341,0,0,0,0,0,0,0,-1,1693,1688,6.05474,-7.49339
476,-664,8.37146,3.42969,0,0,0,0,0,0,0,-1,1700,1688,8.37144,-3.42966
483,-664,7.21826,3.87097,0,0,0,0,0,0,0,-1,1707,1688,7.21825,-3.871
490,-664,6.6311,5.62817,0,0,0,0,0,0,0,-1,1714,1688,6.63107,-5.62821
497,-664,0,0,0,0,0,0,0,0,0,-1,1721,1688,0,0
504,-664,0,0,0,0,0,0,0,0,0,-1,1728,1688,0,0
511,-664,0,0,0,0,0,0,0,0,0,-1,1735,1688,0,0
518,-664,0,0,0,0,0,0,0,0,0,-1,1742,1688,0,0
525,-664,0,0,0,0,0,0,0,0,0,-1,1749,1688,0,0
532,-664,0,0,0,0,0,0,0,0,0,-1,1756,1688,0,0
539,-664,0,0,0,0,0,0,0,0,0,-1,1763,1688,0,0
546,-664,0,0,0,0,0,0,0,0,0,-1,1770,1688,0,0
553,-664,0,0,0,0,0,0,0,0,0,-1,1777,1688,0,0
560,-664,0,0,0,0,0,0,0,0,0,-1,1784,1688,0,0
567,-664,0,0,0,0,0,0,0,0,0,-1,1791,1688,0,0
574,-664,0,0,0,0,0,0,0,0,0,-1,1798,1688,0,0
581,-664,0,0,0,0,0,0,0,0,0,-1,1805,1688,0,0
588,-664,0,0,0,0,0,0,0,0,0,-1,1812,1688,0,0
595,-664,0,0,0,0,0,0,0,0,0,-1,1819,1688,0,0
602,-664,0,0,0,0,0,0,0,0,0,-1,1826,1688,0,0
609,-664,0,0,0,0,0,0,0,0,0,-1,1833,1688,0,0
616,-664,0,0,0,0,0,0,0,0,0,-1,1840,1688,0,0
623,-664,0,0,0,0,0,0,0,0,0,-1,1847,1688,0,0
630,-664,0,0,0,0,0,0,0,0,0,-1,1854,1688,0,0
637,-664,0,0,0,0,0,0,0,0,0,-1,1861,1688,0,0
644,-664,0,0,0,0,0,0,0,0,0,-1,1868,1688,0,0
651,-664,0,0,0,0,0,0,0,0,0,-1,1875,1688,0,0
658,-664,0,0,0,0,0,0,0,0,0,-1,1882,1688,0,0
665,-664,0,0,0,0,0,0,0,0,0,-1,1889,1688,0,0
672,-664,0,0,0,0,0,0,0,0,0,-1,1896,1688,0,0
679,-664,0,0,0,0,0,0,0,0,0,-1,1903,1688,0,0
686,-664,0,0,0,0,0,0,0,0,0,-1,1910,1688,0,0
693,-664,0,0,0,0,0,0,0,0,0,-1,1917,1688,0,0
700,-664,0,0,0,0,0,0,0,0,0,-1,1924,1688,0,0
707,-664,0,0,0,0,0,0,0,0,0,-1,1931,1688,0,0
714,-664,0,0,0,0,0,0,0,0,0,-1,1938,1688,0,0
721,-664,0,0,0,0,0,0,0,0,0,-1,1945,1688,0,0
728,-664,0,0,0,0,0,0,0,0,0,-1,1952,1688,0,0
735,-664,0,0,0,0,0,0,0,0,0,-1,1959,1688,0,0
742,-664,0,0,0,0,0,0,0,0,0,-1,1966,1688,0,0
749,-664,0,0,0,0,0,0,0,0,0,-1,1973,1688,0,0
756,-664,0,0,0,0,0,0,0,0,0,-1,1980,1688,0,0
763,-664,0,0,0,0,0,0,0,0,0,-1,1987,1688,0,0
770,-664,0,0,0,0,0,0,0,0,0,-1,1994,1688,0,0
777,-664,0,0,0,0,0,0,0,0,0,-1,2001,1688,0,0
784,-664,0,0,0,0,0,0,0,0,0,-1,2008,1688,0,0
791,-664,0,0,0,0,0,0,0,0,0,-1,2015,1688,0,0
798,-664,0,0,0,0,0,0,0,0,0,-1,2022,1688,0,0
805,-664,0,0,0,0,0,0,0,0,0,-1,2029,1688,0,0
812,-664,0,0,0,0,0,0,0,0,0,-1,2036,1688,0,0
-700,-671,0,0,0,0,0,0,0,0,0,-1,524,1695,0,0
-693,-671,0,0,0,0,0,0,0,0,0,-1,531,1695,0,0
-686,-671,0,0,0,0,0,0,0,0,0,-1,538,1695,0,0
-679,-671,0,0,0,0,0,0,0,0,0,-1,545,1695,0,0
-672,-671,0,0,0,0,0,0,0,0,0,-1,552,1695,0,0
-665,-671,0,0,0,0,0,0,0,0,0,-1,559,1695,0,0
-658,-671,0,0,0,0,0,0,0,0,0,-1,566,1695,0,0
-651,-671,0,0,0,0,0,0,0,0,0,-1,573,1695,0,0
-644,-671,0,0,0,0,0,0,0,0,0,-1,580,1695,0,0
-637,-671,0,0,0,0,0,0,0,0,0,-1,587,1695,0,0
-630,-671,0,0,0,0,0,0,0,0,0,-1,594,1695,0,0
-623,-671,0,0,0,0,0,0,0,0,0,-1,601,1695,0,0
-616,-671,0,0,0,0,0,0,0,0,0,-1,608,1695,0,0
-609,-671,0,0,0,0,0,0,0,0,0,-1,615,1695,0,0
-602,-671,0,0,0,0,0,0,0,0,0,-1,622,1695,0,0
-595,-671,0,0,0,0,0,0,0,0,0,-1,629,1695,0,0
-588,-671,0,0,0,0,0,0,0,0,0,-1,636,1695,0,0
-581,-671,0,0,0,0,0,0,0,0,0,-1,643,1695,0,0
-574,-671,0,0,0,0,0,0,0,0,0,-1,650,1695,0,0
-567,-671,0,0,0,0,0,0,0,0,0,-1,657,1695,0,0
-560,-671,0,0,0,0,0,0,0,0,0,-1,664,1695,0,0
-553,-671,0,0,0,0,0,0,0,0,0,-1,671,1695,0,0
-546,-671,0,0,0,0,0,0,0,0,0,-1,678,1695,0,0
-539,-671,0,0,0,0,0,0,0,0,0,-1,685,1695,0,0
-532,-671,0,0,0,0,0,0,0,0,0,-1,692,1695,0,0
-525,-671,0,0,0,0,0,0,0,0,0,-1,699,1695,0,0
-518,-671,0,0,0,0,0,0,0,0,0,-1,706,1695,0,0
-511,-671,0,0,0,0,0,0,0,0,0,-1,713,1695,0,0
-504,-671,0,0,0,0,0,0,0,0,0,-1,720,1695,0,0
-497,-671,0,0,0,0,0,0,0,0,0,-1,727,1695,0,0
-490,-671,0,0,0,0,0,0,0,0,0,-1,734,1695,0,0
-483,-671,0,0,0,0,0,0,0,0,0,-1,741,1695,0,0
-476,-671,0,0,0,0,0,0,0,0,0,-1,748,1695,0,0
-469,-671,0,0,0,0,0,0,0,0,0,-1,755,1695,0,0
-462,-671,0,0,0,0,0,0,0,0,0,-1,762,1695,0,0
-455,-671,0,0,0,0,0,0,0,0,0,-1,769,1695,0,0
-448,-671,0,0,0,0,0,0,0,0,0,-1,776,1695,0,0
-441,-671,0,0,0,0,0,0,0,0,0,-1,783,1695,0,0
-434,-671,0,0,0,0,0,0,0,0,0,-1,790,1695,0,0
-427,-671,0,0,0,0,0,0,0,0,0,-1,797,1695,0,0
-420,-671,0,0,0,0,0,0,0,0,0,-1,804,1695,0,0
-413,-671,0,0,0,0,0,0,0,0,0,-1,811,1695,0,0
-406,-671,0,0,0,0,0,0,0,0,0,-1,818,1695,0,0
-399,-671,0,0,0,0,0,0,0,0,0,-1,825,1695,0,0
-392,-671,0,0,0,0,0,0,0,0,0,-1,832,1695,0,0
-385,-671,0,0,0,0,0,0,0,0,0,-1,839,1695,0,0
-378,-671,0,0,0,0,0,0,0,0,0,-1,846,1695,0,0
-371,-671,0,0,0,0,0,0,0,0,0,-1,853,1695,0,0
-364,-671,-3.11877,5.00476,0,0,0,0,0,0,0,-1,860,1695,-3.11877,-5.00472
-357,-671,-4.34961,3.50598,0,0,0,0,0,0,0,-1,867,1695,-4.34958,-3.50602
-350,-671,-5.52405,2.1637,0,0,0,0,0,0,0,-1,874,1695,-5.52408,-2.16372
-343,-671,-7.383,2.349,0,0,0,0,0,0,0,-1,881,1695,-7.38297,-2.34903
-336,-671,-8.31433,1.04541,0,0,0,0,0,0,0,-1,888,1695,-8.31432,-1.04541
-329,-671,3.4057,6.63965,0,0,0,0,0,0,0,-1,895,1695,3.40568,-6.6396
-322,-671,2.72131,6.48889,0,0,0,0,0,0,0,-1,902,1695,2.72131,-6.48892
-315,-671,4.27545,8.46436,0,0,0,0,0,0,0,-1,909,1695,4.27546,-8.46433
-308,-671,3.77496,8.73315,-0.0103551,-0.00251638,-0.0471441,0.040871,-0.0537425,-0.826871,0.0547934,0.0442867,916,1695,3.77496,-8.7332
-301,-671,3.40155,8.66577,-0.00681466,-0.00206079,-0.0401596,0.0357922,-0.0446676,-0.814957,0.0465476,0.042469,923,1695,3.40152,-8.6658
-294,-671,3.32275,8.79468,-0.00370819,-0.0012815,-0.0335922,0.0311192,-0.0361089,-0.80345,0.0388498,0.0452863,930,1695,3.32277,-8.79463
-287,-671,3.35114,9.02649,-0.00118858,-0.000459658,-0.0275531,0.0267314,-0.0283796,-0.792012,0.0318231,0.0424588,937,1695,3.35111,-9.02652
-280,-671,3.30359,9.0636,0.000270297,0.00046819,-0.0219761,0.0223456,-0.0216071,-0.787649,0.0253773,0.035809,944,1695,3.30362,-9.06357
-273,-671,3.31598,9.21387,0.00115297,0.000427148,-0.0170467,0.0178406,-0.0162605,-0.774755,0.0196953,0.0323276,951,1695,3.316,-9.21383
-266,-671,3.36279,9.40686,0.00169441,0.000814328,-0.0129123,0.0141742,-0.0116655,-0.768365,0.014942,0.0236401,958,1695,3.36282,-9.4069
-259,-671,3.29688,9.52539,0.00235548,0.000573193,-0.0095066,0.0110126,-0.00808394,-0.738665,0.0110685,0.0212626,965,1695,3.29688,-9.52541
-252,-671,3.31128,9.63403,0.00242047,0.000799023,-0.00638426,0.00804528,-0.00482579,-0.722242,0.0075082,0.0181676,972,1695,3.31127,-9.634
-245,-671,3.31787,9.76868,0.0020055,0.000574769,-0.00339406,0.00475877,-0.0021785,-0.681534,0.00409654,0.0208115,979,1695,3.31785,-9.76862
-238,-671,3.33569,9.91357,0.00147659,0.000407339,-0.00152696,0.00255981,-0.000675888,-0.617006,0.00197086,0.0202677,986,1695,3.33571,-9.91359
-231,-671,3.31232,10.0465,0.00109315,-0.000291151,-0.0014669,0.00202299,-0.00122099,-0.564962,0.0018919,0.0149565,993,1695,3.31231,-10.0465
-224,-671,3.28247,10.175,0.000846734,-0.000692358,-0.00157363,0.00182891,-0.00167453,-0.557983,0.00202337,0.0115264,1000,1695,3.28245,-10.1751
-217,-671,3.29645,10.2876,0.000809973,-0.00153052,-0.00170185,0.0017051,-0.00242565,-0.48421,0.00239696,0.0116325,1007,1695,3.29646,-10.2876
-210,-671,3.30927,10.4189,0.00117524,-0.00193179,-0.0021172,0.00224774,-0.00300429,-0.468885,0.00304273,0.0114448,1014,1695,3.30925,-10.4189
-203,-671,3.28638,10.5477,0.00171957,-0.00233019,-0.00244143,0.00286655,-0.00347717,-0.439197,0.0036682,0.0186181,1021,1695,3.28633,-10.5477
-196,-671,3.302,10.6472,0.00220632,-0.00269065,-0.00264587,0.00336279,-0.00384713,-0.412062,0.00416578,0.0164258,1028,1695,3.30205,-10.6472
-189,-671,3.32031,10.7676,0.00256491,-0.00298235,-0.00260737,0.00359803,-0.00401548,-0.377255,0.00439787,0.0119439,1035,1695,3.3203,-10.7676
-182,-671,3.29431,10.8811,0.0031804,-0.00318762,-0.00264897,0.00413825,-0.00414546,-0.346963,0.0047826,0.00946375,1042,1695,3.29427,-10.8811
-175,-671,3.30139,10.9905,0.00390664,-0.00328387,-0.00249613,0.0046882,-0.00406543,-0.303439,0.00505817,0.0122878,1049,1695,3.30141,-10.9905
-168,-671,3.31409,11.0718,0.00444539,-0.00323356,-0.00211685,0.00499028,-0.00377844,-0.251935,0.00507871,0.0135939,1056,1695,3.3141,-11.0717
-161,-671,3.31982,11.1676,0.00492403,-0.00334954,-0.00156034,0.00520851,-0.00363403,-0.180343,0.00513215,0.00949502,1063,1695,3.31983,-11.1676
-154,-671,3.32312,11.2697,0.00539548,-0.00333519,-0.000871779,0.00548168,-0.00342139,-0.0985559,0.00518587,0.00833587,1070,1695,3.32316,-11.2697
-147,-671,3.32678,11.3647,0.00578326,-0.00332967,-6.79063e-05,0.00578376,-0.00333018,-0.00745109,0.00532512,0.00946393,1077,1695,3.32683,-11.3648
-140,-671,3.3396,11.4795,0.00590336,-0.00409582,0.000965929,0.00599581,-0.00418828,0.0954251,0.00591058,0.0106395,1084,1695,3.33962,-11.4795
-133,-671,3.35339,11.5808,0.00589139,-0.00561467,0.00201338,0.00623352,-0.00595681,0.168323,0.0070387,0.0123698,1091,1695,3.35338,-11.5808
-126,-671,3.36182,11.6829,0.00601012,-0.00703571,0.00310721,0.00671238,-0.00773798,0.222276,0.00834992,0.0141056,1098,1695,3.36185,-11.6829
-119,-671,3.44714,11.755,0.00573121,-0.00913453,0.00453772,0.00700687,-0.0104102,0.27405,0.0101195,0.0243788,1105,1695,3.4471,-11.7549
-112,-671,3.50549,11.8041,0.00502636,-0.0116605,0.00551469,0.00668416,-0.0133183,0.292021,0.0117583,0.0322756,1112,1695,3.50553,-11.804
-105,-671,3.63379,11.8179,0.00440011,-0.0148824,0.00664509,0.0064683,-0.0169506,0.301733,0.0139651,0.0377495,1119,1695,3.63383,-11.8179
-98,-671,3.66809,11.8016,0.00351339,-0.018704,0.00753963,0.00583039,-0.021021,0.298149,0.0163086,0.0369747,1126,1695,3.66805,-11.8017
-91,-671,3.66296,11.6097,0.00287343,-0.0230391,0.00806259,0.00517725,-0.0253429,0.278325,0.0188594,0.0375923,1133,1695,3.66295,-11.6097
-84,-671,3.68188,11.3829,0.00251303,-0.0276987,0.00779678,0.00440649,-0.0295921,0.238239,0.0213491,0.0445382,1140,1695,3.68189,-11.383
-77,-671,3.58606,11.7136,0,0,0,0,0,0,0,-1,1147,1695,3.58602,-11.7136
-70,-671,3.06067,10.7737,0,0,0,0,0,0,0,-1,1154,1695,3.0607,-10.7737
-63,-671,2.94592,6.90198,0,0,0,0,0,0,0,-1,1161,1695,2.94594,-6.90198
-56,-671,-3.07678,2.87976,0,0,0,0,0,0,0,-1,1168,1695,-3.07675,-2.87979
-49,-671,-1.05957,4.76917,0,0,0,0,0,0,0,-1,1175,1695,-1.05958,-4.76921
-42,-671,0.539307,3.7865,0,0,0,0,0,0,0,-1,1182,1695,0.539266,-3.78648
-35,-671,-0.272461,0.347534,0,0,0,0,0,0,0,-1,1189,1695,-0.272434,-0.347569
-28,-671,-0.662964,5.40405,0,0,0,0,0,0,0,-1,1196,1695,-0.662966,-5.40405
-21,-671,3.89514,12.5211,0,0,0,0,0,0,0,-1,1203,1695,3.89519,-12.5211
-14,-671,3.83252,12.5667,0,0,0,0,0,0,0,-1,1210,1695,3.83249,-12.5667
-7,-671,3.76978,12.6123,0,0,0,0,0,0,0,-1,1217,1695,3.76979,-12.6123
0,-671,5.74121,12.058,0,0,0,0,0,0,0,-1,1224,1695,5.74127,-12.0579
7,-671,5.1853,11.6626,0.0142468,-0.00739024,-0.00922896,0.0176484,-0.0107919,-0.353138,0.0165784,0.0444149,1231,1695,5.18526,-11.6626
14,-671,4.62708,11.2573,0.0123935,-0.00949555,-0.0068482,0.0143594,-0.0114615,-0.279559,0.014939,0.0456908,1238,1695,4.62706,-11.2573
21,-671,4.04468,10.9268,0.0113021,-0.011558,-0.00537918,0.0125046,-0.0127605,-0.219934,0.014587,0.0469933,1245,1695,4.04466,-10.9268
28,-671,3.97729,12.3711,0,0,0,0,0,0,0,-1,1252,1695,3.97733,-12.3711
35,-671,3.81079,12.0118,0,0,0,0,0,0,0,-1,1259,1695,3.81076,-12.0119
42,-671,4.43506,11.8702,0,0,0,0,0,0,0,-1,1266,1695,4.43502,-11.8702
49,-671,5.33215,11.4742,0,0,0,0,0,0,0,-1,1273,1695,5.33217,-11.4742
56,-671,4.78577,11.7948,0,0,0,0,0,0,0,-1,1280,1695,4.7858,-11.7948
63,-671,4.27747,11.9155,0,0,0,0,0,0,0,-1,1287,1695,4.2775,-11.9156
70,-671,4.4989,11.8217,0,0,0,0,0,0,0,-1,1294,1695,4.49888,-11.8216
77,-671,4.46875,11.771,0,0,0,0,0,0,0,-1,1301,1695,4.46877,-11.771
84,-671,4.15674,11.9623,0,0,0,0,0,0,0,-1,1308,1695,4.15675,-11.9623
91,-671,3.20996,12.054,0,0,0,0,0,0,0,-1,1315,1695,3.2099,-12.054
98,-671,3.68042,12.1029,0.0169674,-0.0223142,0.00952309,0.0191543,-0.0245011,0.225733,0.0252674,0.0457263,1322,1695,3.68038,-12.1029
105,-671,4.13623,12.1719,0.0206125,-0.019288,0.0112069,0.0235447,-0.0222202,0.255908,0.0264261,0.04549,1329,1695,4.13623,-12.1719
112,-671,4.57715,12.2777,0.0239862,-0.0155699,0.0127116,0.0277189,-0.0193027,0.285618,0.0272925,0.0429052,1336,1695,4.57719,-12.2777
119,-671,5.04895,12.5079,0.0267368,-0.0112991,0.0140206,0.0313463,-0.0159087,0.317638,0.0277637,0.0468356,1343,1695,5.04889,-12.5079
126,-671,5.44153,12.729,0,0,0,0,0,0,0,-1,1350,1695,5.4415,-12.729
133,-671,4.93701,13.6074,0,0,0,0,0,0,0,-1,1357,1695,4.93702,-13.6074
140,-671,5.40784,13.5552,0.0299552,0.00218539,0.0142671,0.0359785,-0.00383799,0.399486,0.025362,0.0477916,1364,1695,5.40783,-13.5551
147,-671,6.24402,13.8225,0.0288965,0.00520608,0.0123536,0.0341663,-6.36466e-05,0.403202,0.0227988,0.049147,1371,1695,6.24405,-13.8225
154,-671,7.16907,14.2375,0,0,0,0,0,0,0,-1,1378,1695,7.16903,-14.2375
161,-671,4.49292,4.91272,0,0,0,0,0,0,0,-1,1385,1695,4.49297,-4.91273
168,-671,5.17639,6.1416,0,0,0,0,0,0,0,-1,1392,1695,5.1764,-6.14164
175,-671,5.6731,1.64685,0,0,0,0,0,0,0,-1,1399,1695,5.67313,-1.64691
182,-671,5.56812,1.71692,0,0,0,0,0,0,0,-1,1406,1695,5.56809,-1.71686
189,-671,6.98315,6.36169,0,0,0,0,0,0,0,-1,1413,1695,6.98312,-6.36175
196,-671,5.38123,5.69775,0,0,0,0,0,0,0,-1,1420,1695,5.38125,-5.69769
203,-671,5.95117,8.11658,0,0,0,0,0,0,0,-1,1427,1695,5.9512,-8.11662
210,-671,4.73596,8.39624,0,0,0,0,0,0,0,-1,1434,1695,4.736,-8.39618
217,-671,5.37097,11.863,0,0,0,0,0,0,0,-1,1441,1695,5.37094,-11.863
224,-671,4.82605,11.8632,0,0,0,0,0,0,0,-1,1448,1695,4.82605,-11.8632
231,-671,4.69397,11.9026,0,0,0,0,0,0,0,-1,1455,1695,4.69394,-11.9026
238,-671,5.11633,11.4192,0,0,0,0,0,0,0,-1,1462,1695,5.11633,-11.4192
245,-671,4.66858,11.2205,0,0,0,0,0,0,0,-1,1469,1695,4.66855,-11.2205
252,-671,4.39148,11.8107,0,0,0,0,0,0,0,-1,1476,1695,4.39148,-11.8107
259,-671,4.49451,11.9324,-0.0024607,-0.00337483,0.00770937,0.00480515,-0.0106407,0.75579,0.00912733,0.0497955,1483,1695,4.49454,-11.9324
266,-671,4.53503,11.9932,-0.00258353,-0.00266986,0.0072219,0.00459534,-0.00984873,0.78241,0.00852116,0.0161379,1490,1695,4.53508,-11.9932
273,-671,4.53174,11.9668,-0.00256282,-0.00187678,0.00654694,0.00433612,-0.00877571,0.811571,0.00771341,0.00934478,1497,1695,4.53173,-11.9668
280,-671,4.52124,11.9061,-0.00248927,-0.00101421,0.00566443,0.0039605,-0.00746397,0.850136,0.00669851,0.00929994,1504,1695,4.52125,-11.9061
287,-671,4.52136,11.799,-0.00235215,-0.000559466,0.00479985,0.00342702,-0.00633863,0.877706,0.00572113,0.0104717,1511,1695,4.52134,-11.799
294,-671,4.52344,11.7031,-0.00214956,-0.000313086,0.00399388,0.00286676,-0.0053294,0.89839,0.00480273,0.0106053,1518,1695,4.52347,-11.7032
301,-671,4.54272,11.63,-0.00185002,-0.000105297,0.00315687,0.00229753,-0.00425285,0.920203,0.00383762,0.0106751,1525,1695,4.54269,-11.63
308,-671,4.56946,11.5657,-0.00150472,5.96752e-06,0.0023981,0.00176487,-0.00326362,0.937968,0.00294587,0.0113816,1532,1695,4.5695,-11.5657
315,-671,4.58093,11.4852,-0.00111842,0.000186383,0.00172196,0.00137539,-0.00230742,0.966478,0.00214885,0.0122233,1539,1695,4.5809,-11.4853
322,-671,4.58582,11.3969,-0.000738886,0.00027133,0.00115423,0.00102614,-0.00149369,0.991651,0.00146315,0.0145873,1546,1695,4.58586,-11.3969
329,-671,4.55396,11.3119,-0.000387562,0.000313701,0.000704795,0.000750266,-0.000824127,1.01622,0.00090931,0.0137768,1553,1695,4.55396,-11.3119
336,-671,4.54333,11.1926,-0.00012036,0.000185971,0.000387306,0.000449298,-0.000383687,0.973693,0.000481421,0.0105068,1560,1695,4.54337,-11.1927
343,-671,4.56592,11.0847,0.00017861,0.000157361,0.000154305,0.000322656,1.33157e-05,0.751026,0.000210805,0.00981497,1567,1695,4.56587,-11.0847
350,-671,4.57507,10.9813,0.000558555,9.23684e-05,-8.04621e-05,0.000572052,7.88717e-05,-0.166193,0.000357985,0.00962111,1574,1695,4.57506,-10.9813
357,-671,4.55542,10.8729,0.00109089,-0.000133972,-0.000413861,0.00121761,-0.000260699,-0.297139,0.000911159,0.00962472,1581,1695,4.55537,-10.873
364,-671,4.55347,10.7749,0.00192,-0.000401532,-0.000960867,0.0022661,-0.00074763,-0.345727,0.00181211,0.0117219,1588,1695,4.55349,-10.7749
371,-671,4.55994,10.6917,0.00261018,-0.000799473,-0.00139127,0.00310582,-0.00129512,-0.342234,0.00261159,0.0129373,1595,1695,4.55994,-10.6917
378,-671,4.57568,10.573,0.00350811,-0.00131747,-0.00204345,0.00425716,-0.00206652,-0.351353,0.00372328,0.0116314,1602,1695,4.57567,-10.573
385,-671,4.56946,10.4554,0.00458144,-0.00222868,-0.00286249,0.00562478,-0.00327202,-0.349522,0.00519609,0.0145425,1609,1695,4.56948,-10.4554
392,-671,4.5498,10.3595,0.00576455,-0.00371596,-0.00390124,0.00716349,-0.00511489,-0.344305,0.00712174,0.0189557,1616,1695,4.54979,-10.3595
399,-671,4.56934,10.2067,0.0068298,-0.00474303,-0.0051384,0.00878198,-0.00669521,-0.363076,0.00896279,0.0136805,1623,1695,4.56937,-10.2066
406,-671,4.59912,10.1031,0.00756588,-0.00611668,-0.00608276,0.009879,-0.0084298,-0.363387,0.0105816,0.0173792,1630,1695,4.59907,-10.1031
413,-671,4.59717,10.0389,0.00789226,-0.00783341,-0.00644328,0.0101951,-0.0101362,-0.343247,0.0117383,0.0281145,1637,1695,4.59721,-10.039
420,-671,4.64893,9.96069,0.00734218,-0.0101106,-0.00578986,0.00908826,-0.0118566,-0.2929,0.0121277,0.0462597,1644,1695,4.64892,-9.96075
427,-671,4.71545,9.87207,0,0,0,0,0,0,0,-1,1651,1695,4.71546,-9.87209
434,-671,4.74231,10.0067,0.00380168,-0.0130476,-0.00374605,0.00459699,-0.0138429,-0.2092,0.0110834,0.0494546,1658,1695,4.74235,-10.0067
441,-671,4.77332,10.0966,-0.000608945,-0.0137573,-0.00281145,-3.3014e-05,-0.0143332,-0.202057,0.0095445,0.049599,1665,1695,4.77336,-10.0965
448,-671,4.66833,9.71436,0,0,0,0,0,0,0,-1,1672,1695,4.66828,-9.71433
455,-671,3.40137,9.28076,0,0,0,0,0,0,0,-1,1679,1695,3.40135,-9.28082
462,-671,5.86255,4.47961,0,0,0,0,0,0,0,-1,1686,1695,5.8625,-4.4796
469,-671,3.71301,3.76978,0,0,0,0,0,0,0,-1,1693,1695,3.71297,-3.76974
476,-671,3.75574,3.18848,0,0,0,0,0,0,0,-1,1700,1695,3.7558,-3.18847
483,-671,3.56714,2.76868,0,0,0,0,0,0,0,-1,1707,1695,3.56713,-2.7687
490,-671,0,0,0,0,0,0,0,0,0,-1,1714,1695,0,0
497,-671,0,0,0,0,0,0,0,0,0,-1,1721,1695,0,0
504,-671,0,0,0,0,0,0,0,0,0,-1,1728,1695,0,0
511,-671,0,0,0,0,0,0,0,0,0,-1,1735,1695,0,0
518,-671,0,0,0,0,0,0,0,0,0,-1,1742,1695,0,0
525,-671,0,0,0,0,0,0,0,0,0,-1,1749,1695,0,0
532,-671,0,0,0,0,0,0,0,0,0,-1,1756,1695,0,0
539,-671,0,0,0,0,0,0,0,0,0,-1,1763,1695,0,0
546,-671,0,0,0,0,0,0,0,0,0,-1,1770,1695,0,0
553,-671,0,0,0,0,0,0,0,0,0,-1,1777,1695,0,0
560,-671,0,0,0,0,0,0,0,0,0,-1,1784,1695,0,0
567,-671,0,0,0,0,0,0,0,0,0,-1,1791,1695,0,0
574,-671,0,0,0,0,0,0,0,0,0,-1,1798,1695,0,0
581,-671,0,0,0,0,0,0,0,0,0,-1,1805,1695,0,0
588,-671,0,0,0,0,0,0,0,0,0,-1,1812,1695,0,0
595,-671,0,0,0,0,0,0,0,0,0,-1,1819,1695,0,0
602,-671,0,0,0,0,0,0,0,0,0,-1,1826,1695,0,0
609,-671,0,0,0,0,0,0,0,0,0,-1,1833,1695,0,0
616,-671,0,0,0,0,0,0,0,0,0,-1,1840,1695,0,0
623,-671,0,0,0,0,0,0,0,0,0,-1,1847,1695,0,0
630,-671,0,0,0,0,0,0,0,0,0,-1,1854,1695,0,0
637,-671,0,0,0,0,0,0,0,0,0,-1,1861,1695,0,0
644,-671,0,0,0,0,0,0,0,0,0,-1,1868,1695,0,0
651,-671,0,0,0,0,0,0,0,0,0,-1,1875,1695,0,0
658,-671,0,0,0,0,0,0,0,0,0,-1,1882,1695,0,0
665,-671,0,0,0,0,0,0,0,0,0,-1,1889,1695,0,0
672,-671,0,0,0,0,0,0,0,0,0,-1,1896,1695,0,0
679,-671,0,0,0,0,0,0,0,0,0,-1,1903,1695,0,0
686,-671,0,0,0,0,0,0,0,0,0,-1,1910,1695,0,0
693,-671,0,0,0,0,0,0,0,0,0,-1,1917,1695,0,0
700,-671,0,0,0,0,0,0,0,0,0,-1,1924,1695,0,0
707,-671,0,0,0,0,0,0,0,0,0,-1,1931,1695,0,0
714,-671,0,0,0,0,0,0,0,0,0,-1,1938,1695,0,0
721,-671,0,0,0,0,0,0,0,0,0,-1,1945,1695,0,0
728,-671,0,0,0,0,0,0,0,0,0,-1,1952,1695,0,0
735,-671,0,0,0,0,0,0,0,0,0,-1,1959,1695,0,0
742,-671,0,0,0,0,0,0,0,0,0,-1,1966,1695,0,0
749,-671,0,0,0,0,0,0,0,0,0,-1,1973,1695,0,0
756,-671,0,0,0,0,0,0,0,0,0,-1,1980,1695,0,0
763,-671,0,0,0,0,0,0,0,0,0,-1,1987,1695,0,0
770,-671,0,0,0,0,0,0,0,0,0,-1,1994,1695,0,0
777,-671,0,0,0,0,0,0,0,0,0,-1,2001,1695,0,0
784,-671,0,0,0,0,0,0,0,0,0,-1,2008,1695,0,0
791,-671,0,0,0,0,0,0,0,0,0,-1,2015,1695,0,0
798,-671,0,0,0,0,0,0,0,0,0,-1,2022,1695,0,0
805,-671,0,0,0,0,0,0,0,0,0,-1,2029,1695,0,0
812,-671,0,0,0,0,0,0,0,0,0,-1,2036,1695,0,0
-700,-678,0,0,0,0,0,0,0,0,0,-1,524,1702,0,0
-693,-678,0,0,0,0,0,0,0,0,0,-1,531,1702,0,0
-686,-678,0,0,0,0,0,0,0,0,0,-1,538,1702,0,0
-679,-678,0,0,0,0,0,0,0,0,0,-1,545,1702,0,0
-672,-678,0,0,0,0,0,0,0,0,0,-1,552,1702,0,0
-665,-678,0,0,0,0,0,0,0,0,0,-1,559,1702,0,0
-658,-678,0,0,0,0,0,0,0,0,0,-1,566,1702,0,0
-651,-678,0,0,0,0,0,0,0,0,0,-1,573,1702,0,0
-644,-678,0,0,0,0,0,0,0,0,0,-1,580,1702,0,0
-637,-678,0,0,0,0,0,0,0,0,0,-1,587,1702,0,0
-630,-678,0,0,0,0,0,0,0,0,0,-1,594,1702,0,0
-623,-678,0,0,0,0,0,0,0,0,0,-1,601,1702,0,0
-616,-678,0,0,0,0,0,0,0,0,0,-1,608,1702,0,0
-609,-678,0,0,0,0,0,0,0,0,0,-1,615,1702,0,0
-602,-678,0,0,0,0,0,0,0,0,0,-1,622,1702,0,0
-595,-678,0,0,0,0,0,0,0,0,0,-1,629,1702,0,0
-588,-678,0,0,0,0,0,0,0,0,0,-1,636,1702,0,0
-581,-678,0,0,0,0,0,0,0,0,0,-1,643,1702,0,0
-574,-678,0,0,0,0,0,0,0,0,0,-1,650,1702,0,0
-567,-678,0,0,0,0,0,0,0,0,0,-1,657,1702,0,0
-560,-678,0,0,0,0,0,0,0,0,0,-1,664,1702,0,0
-553,-678,0,0,0,0,0,0,0,0,0,-1,671,1702,0,0
-546,-678,0,0,0,0,0,0,0,0,0,-1,678,1702,0,0
-539,-678,0,0,0,0,0,0,0,0,0,-1,685,1702,0,0
-532,-678,0,0,0,0,0,0,0,0,0,-1,692,1702,0,0
-525,-678,0,0,0,0,0,0,0,0,0,-1,699,1702,0,0
-518,-678,0,0,0,0,0,0,0,0,0,-1,706,1702,0,0
-511,-678,0,0,0,0,0,0,0,0,0,-1,713,1702,0,0
-504,-678,0,0,0,0,0,0,0,0,0,-1,720,1702,0,0
-497,-678,0,0,0,0,0,0,0,0,0,-1,727,1702,0,0
-490,-678,0,0,0,0,0,0,0,0,0,-1,734,1702,0,0
-483,-678,0,0,0,0,0,0,0,0,0,-1,741,1702,0,0
-476,-678,0,0,0,0,0,0,0,0,0,-1,748,1702,0,0
-469,-678,0,0,0,0,0,0,0,0,0,-1,755,1702,0,0
-462,-678,0,0,0,0,0,0,0,0,0,-1,762,1702,0,0
-455,-678,0,0,0,0,0,0,0,0,0,-1,769,1702,0,0
-448,-678,0,0,0,0,0,0,0,0,0,-1,776,1702,0,0
-441,-678,0,0,0,0,0,0,0,0,0,-1,783,1702,0,0
-434,-678,0,0,0,0,0,0,0,0,0,-1,790,1702,0,0
-427,-678,0,0,0,0,0,0,0,0,0,-1,797,1702,0,0
-420,-678,0,0,0,0,0,0,0,0,0,-1,804,1702,0,0
-413,-678,0,0,0,0,0,0,0,0,0,-1,811,1702,0,0
-406,-678,0,0,0,0,0,0,0,0,0,-1,818,1702,0,0
-399,-678,0,0,0,0,0,0,0,0,0,-1,825,1702,0,0
-392,-678,0,0,0,0,0,0,0,0,0,-1,832,1702,0,0
-385,-678,0,0,0,0,0,0,0,0,0,-1,839,1702,0,0
-378,-678,0,0,0,0,0,0,0,0,0,-1,846,1702,0,0
-371,-678,0,0,0,0,0,0,0,0,0,-1,853,1702,0,0
-364,-678,0,0,0,0,0,0,0,0,0,-1,860,1702,0,0
-357,-678,0,0,0,0,0,0,0,0,0,-1,867,1702,0,0
-350,-678,-6.99811,5.05383,0,0,0,0,0,0,0,-1,874,1702,-6.99808,-5.05378
-343,-678,-7.84955,3.83276,0,0,0,0,0,0,0,-1,881,1702,-7.84957,-3.83272
-336,-678,-8.64886,2.68469,0,0,0,0,0,0,0,-1,888,1702,-8.64884,-2.68464
-329,-678,-9.40521,1.52869,0,0,0,0,0,0,0,-1,895,1702,-9.40522,-1.52871
-322,-678,-10.1475,0.373291,0,0,0,0,0,0,0,-1,902,1702,-10.1475,-0.373341
-315,-678,3.24652,9.83252,0,0,0,0,0,0,0,-1,909,1702,3.24655,-9.83255
-308,-678,3.09442,9.47559,-0.00757193,-0.00404559,-0.0689937,0.0632075,-0.074825,-0.798173,0.0797872,0.0438275,916,1702,3.09445,-9.47561
-301,-678,3.17139,8.68445,-0.00367333,-0.00331293,-0.0590994,0.0556066,-0.0625928,-0.786923,0.0682822,0.0435324,923,1702,3.17139,-8.68441
-294,-678,3.21979,8.85254,-0.000366064,-0.00215678,-0.0498634,0.04861,-0.0511329,-0.776421,0.0575927,0.047391,930,1702,3.21977,-8.85257
-287,-678,3.40753,8.96704,0.0021982,-0.000925146,-0.0413402,0.0420062,-0.0407332,-0.766519,0.0477715,0.0468021,937,1702,3.40756,-8.9671
-280,-678,3.40601,9.05225,0.00323378,0.000456782,-0.0335316,0.0354056,-0.0317151,-0.764706,0.0387717,0.0479362,944,1702,3.40602,-9.0522
-273,-678,3.37219,9.14001,0.00357524,0.000414985,-0.0266093,0.0286513,-0.024661,-0.755742,0.0308086,0.0446726,951,1702,3.37216,-9.13997
-266,-678,3.42316,9.276,0.00365455,0.000888281,-0.0207877,0.0231051,-0.0185623,-0.752179,0.0241043,0.0356568,958,1702,3.42314,-9.27604
-259,-678,3.41193,9.51111,0.00375575,0.000550939,-0.0160581,0.0182912,-0.0139845,-0.735669,0.0186896,0.0226657,965,1702,3.41191,-9.51109
-252,-678,3.38794,9.60828,0.00338738,0.000724218,-0.0115715,0.0137037,-0.00959206,-0.728113,0.0135194,0.0205796,972,1702,3.38794,-9.60824
-245,-678,3.42975,9.72925,0.00259525,0.000556766,-0.00733971,0.00898614,-0.00583413,-0.716406,0.00862075,0.0207678,979,1702,3.42977,-9.72921
-238,-678,3.46442,9.88684,0.00178591,0.000506799,-0.00459107,0.00578176,-0.00348905,-0.716192,0.00540679,0.0158915,986,1702,3.46442,-9.8868
-231,-678,3.41687,10.0598,0.00121122,-0.000203971,-0.00428717,0.0048488,-0.00384154,-0.70361,0.00502859,0.0128193,993,1702,3.41685,-10.0598
-224,-678,3.39117,10.1749,0.000701031,-0.000559019,-0.00399296,0.00411337,-0.00397135,-0.707151,0.00466796,0.0123571,1000,1702,3.39119,-10.175
-217,-678,3.41278,10.2872,0.000377012,-0.00137782,-0.00371252,0.00331439,-0.0043152,-0.669358,0.00441756,0.013296,1007,1702,3.41278,-10.2872
-210,-678,3.42188,10.4418,0.00056876,-0.00157929,-0.00361282,0.00326382,-0.00427435,-0.640918,0.00436518,0.0143099,1014,1702,3.4219,-10.4418
-203,-678,3.40845,10.5298,0.000922173,-0.00170171,-0.0034053,0.00325951,-0.00403905,-0.601528,0.00422183,0.0178413,1021,1702,3.40846,-10.5298
-196,-678,3.40576,10.637,0.00123428,-0.00177832,-0.00314407,0.00321426,-0.0037583,-0.562007,0.00402969,0.0175635,1028,1702,3.40579,-10.637
-189,-678,3.41455,10.7498,0.00143785,-0.00181043,-0.00279569,0.00304693,-0.00341951,-0.522253,0.00373546,0.0107279,1035,1702,3.41459,-10.7498
-182,-678,3.41479,10.8788,0.00185787,-0.00180919,-0.00252696,0.00314641,-0.00309773,-0.471552,0.0036051,0.00997186,1042,1702,3.41485,-10.8788
-175,-678,3.41101,11.0035,0.0024215,-0.0018158,-0.00209245,0.0032806,-0.00267491,-0.389588,0.00344434,0.0106006,1049,1702,3.41101,-11.0035
-168,-678,3.42151,11.0955,0.00280478,-0.00157726,-0.0016109,0.00333325,-0.00210572,-0.316991,0.00316673,0.0105479,1056,1702,3.4215,-11.0955
-161,-678,3.41772,11.1863,0.00313788,-0.00168696,-0.00112466,0.00338716,-0.00193624,-0.218121,0.00311128,0.00891961,1063,1702,3.41769,-11.1863
-154,-678,3.41907,11.2838,0.00352946,-0.0016703,-0.000610035,0.00360007,-0.00174091,-0.115235,0.00314527,0.00768812,1070,1702,3.41908,-11.2838
-147,-678,3.4187,11.3926,0.00387962,-0.00178025,-8.64718e-05,0.00388094,-0.00178157,-0.0152733,0.00334331,0.00934699,1077,1702,3.41864,-11.3926
-140,-678,3.43042,11.483,0.00405239,-0.00254276,0.000596894,0.00410598,-0.00259635,0.0895356,0.00390217,0.0111658,1084,1702,3.4304,-11.4831
-133,-678,3.44165,11.5637,0.0041491,-0.0038788,0.0012899,0.00435126,-0.00408097,0.155466,0.00486919,0.0126627,1091,1702,3.4417,-11.5637
-126,-678,3.4541,11.6665,0.00432335,-0.00511844,0.00202302,0.00473855,-0.00553364,0.202426,0.00593657,0.00956534,1098,1702,3.45416,-11.6665
-119,-678,3.48315,11.7731,0.00421753,-0.00679828,0.00303096,0.00499642,-0.00757716,0.251534,0.00731015,0.0168965,1105,1702,3.48315,-11.7731
-112,-678,3.53711,11.8431,0.00384434,-0.00882614,0.00375442,0.00487326,-0.00985506,0.26749,0.00866403,0.0238977,1112,1702,3.53712,-11.8431
-105,-678,3.53027,11.9202,0.0034684,-0.0111838,0.00458384,0.00478425,-0.0124997,0.279546,0.010305,0.0249379,1119,1702,3.53022,-11.9202
-98,-678,3.49866,11.9264,0.00296495,-0.013933,0.00525218,0.00446437,-0.0154324,0.278088,0.0120552,0.018289,1126,1702,3.4986,-11.9264
-91,-678,3.52026,11.986,0.00257377,-0.01684,0.00568409,0.00411555,-0.0183817,0.264872,0.013832,0.017875,1133,1702,3.5203,-11.9859
-84,-678,3.55603,11.9288,0.00230114,-0.019724,0.00568674,0.00368275,-0.0211056,0.238335,0.0154451,0.0268555,1140,1702,3.55599,-11.9289
-77,-678,3.60156,12.0311,0.00175665,-0.0219342,0.00604603,0.00321042,-0.0233879,0.235971,0.0167649,0.0350496,1147,1702,3.60154,-12.0312
-70,-678,3.65515,12.3478,0,0,0,0,0,0,0,-1,1154,1702,3.65517,-12.3478
-63,-678,3.41687,11.0365,0,0,0,0,0,0,0,-1,1161,1702,3.41682,-11.0365
-56,-678,1.72388,6.13159,0,0,0,0,0,0,0,-1,1168,1702,1.72388,-6.13157
-49,-678,-0.241699,5.29895,0,0,0,0,0,0,0,-1,1175,1702,-0.241682,-5.29897
-42,-678,0.297119,3.90649,0,0,0,0,0,0,0,-1,1182,1702,0.297139,-3.90655
-35,-678,0.498413,3.64038,0,0,0,0,0,0,0,-1,1189,1702,0.498471,-3.64038
-28,-678,0.132446,3.55994,0,0,0,0,0,0,0,-1,1196,1702,0.132432,-3.55993
-21,-678,3.57373,12.4885,0,0,0,0,0,0,0,-1,1203,1702,3.57369,-12.4885
-14,-678,3.78113,12.5247,0.012416,-0.00281504,-0.0112333,0.0183719,-0.00877093,-0.487514,0.0159944,0.0408207,1210,1702,3.78115,-12.5247
-7,-678,3.95544,12.577,0.0130123,-0.00445737,-0.00976914,0.0173822,-0.00882723,-0.420617,0.0153984,0.0449258,1217,1702,3.95542,-12.577
0,-678,3.97766,12.3859,0,0,0,0,0,0,0,-1,1224,1702,3.97769,-12.3859
7,-678,4.74719,11.9255,0,0,0,0,0,0,0,-1,1231,1702,4.74717,-11.9256
14,-678,4.58496,12.2301,0,0,0,0,0,0,0,-1,1238,1702,4.58502,-12.2301
21,-678,3.58203,12.4829,0.00897727,-0.0121844,-0.00278526,0.00933772,-0.0125448,-0.128699,0.012679,0.0449821,1245,1702,3.582,-12.483
28,-678,3.96265,12.4657,0.00756262,-0.0139893,-0.00125704,0.00763569,-0.0140624,-0.058064,0.0127092,0.0462525,1252,1702,3.96262,-12.4657
35,-678,3.91895,12.4858,0,0,0,0,0,0,0,-1,1259,1702,3.91891,-12.4859
42,-678,4.12195,12.5493,0,0,0,0,0,0,0,-1,1266,1702,4.12191,-12.5493
49,-678,4.31323,12.4698,0,0,0,0,0,0,0,-1,1273,1702,4.31321,-12.4699
56,-678,4.2948,12.2041,0.000705311,-0.0229959,0.00420973,0.00143082,-0.0237214,0.170665,0.0163121,0.0489207,1280,1702,4.29477,-12.2042
63,-678,4.03235,12.2705,0.000525064,-0.0240585,0.00433127,0.00126585,-0.0247992,0.169393,0.0169705,0.0498596,1287,1702,4.03237,-12.2705
70,-678,4.15845,12.2795,0,0,0,0,0,0,0,-1,1294,1702,4.15846,-12.2796
77,-678,4.18518,12.2688,0.00625895,-0.0246881,0.00498014,0.00704063,-0.0254698,0.15569,0.0197496,0.0469524,1301,1702,4.18516,-12.2688
84,-678,4.10864,12.2528,0.0083321,-0.0245699,0.00586382,0.00934591,-0.0255837,0.171201,0.0208804,0.0491962,1308,1702,4.10865,-12.2528
91,-678,3.56934,12.1857,0.011353,-0.0228009,0.0070829,0.0127636,-0.0242115,0.196584,0.021686,0.0448736,1315,1702,3.56935,-12.1857
98,-678,3.66736,12.2019,0.0146655,-0.0203346,0.00844353,0.016596,-0.0222651,0.224769,0.0225159,0.042047,1322,1702,3.6674,-12.2019
105,-678,4.11816,12.3105,0.0179241,-0.0176478,0.00999582,0.0205405,-0.0202642,0.256008,0.0235588,0.0395298,1329,1702,4.11821,-12.3105
112,-678,4.62598,12.4531,0.0209866,-0.0143549,0.0114769,0.0243865,-0.0177548,0.288007,0.0244305,0.0392967,1336,1702,4.62592,-12.4531
119,-678,5.03076,12.585,0.0235308,-0.0106007,0.012875,0.0278427,-0.0149126,0.323166,0.0250582,0.0423706,1343,1702,5.0308,-12.585
126,-678,5.43127,12.7511,0,0,0,0,0,0,0,-1,1350,1702,5.43128,-12.7511
133,-678,5.87195,12.8993,0,0,0,0,0,0,0,-1,1357,1702,5.87194,-12.8992
140,-678,4.25049,12.3323,0.0273078,0.00108362,0.0143864,0.033661,-0.00526949,0.415852,0.0243876,0.0494791,1364,1702,4.25045,-12.3323
147,-678,4.68542,12.5669,0.027012,0.00397693,0.013453,0.0332043,-0.00221533,0.431377,0.0229104,0.0493467,1371,1702,4.68542,-12.5669
154,-678,5.15601,12.899,0,0,0,0,0,0,0,-1,1378,1702,5.15605,-12.899
161,-678,3.44202,4.53992,0,0,0,0,0,0,0,-1,1385,1702,3.442,-4.53996
168,-678,4.21863,5.25781,0,0,0,0,0,0,0,-1,1392,1702,4.21865,-5.25781
175,-678,5.21899,5.9635,0,0,0,0,0,0,0,-1,1399,1702,5.21894,-5.96346
182,-678,7.31262,6.75122,0,0,0,0,0,0,0,-1,1406,1702,7.3126,-6.75123
189,-678,5.96021,6.36853,0,0,0,0,0,0,0,-1,1413,1702,5.96018,-6.36851
196,-678,5.01599,8.15771,0,0,0,0,0,0,0,-1,1420,1702,5.01596,-8.15767
203,-678,4.64771,13.0559,0,0,0,0,0,0,0,-1,1427,1702,4.64766,-13.0559
210,-678,4.52722,12.7438,0,0,0,0,0,0,0,-1,1434,1702,4.52727,-12.7438
217,-678,4.44275,12.3928,0,0,0,0,0,0,0,-1,1441,1702,4.44269,-12.3929
224,-678,4.41516,12.0955,3.77563e-05,-0.00528834,0.00359385,0.0018477,-0.00709828,0.46654,0.00545344,0.0442494,1448,1702,4.41515,-12.0955
231,-678,4.38452,12.2572,6.06413e-05,-0.00408013,0.00403529,0.00252568,-0.00654517,0.548374,0.00540573,0.0393717,1455,1702,4.38448,-12.2572
238,-678,4.61768,12.4286,0,0,0,0,0,0,0,-1,1462,1702,4.61763,-12.4286
245,-678,4.42737,12.2493,0,0,0,0,0,0,0,-1,1469,1702,4.42733,-12.2493
252,-678,4.44141,12.1469,-0.00103382,-0.00285685,0.00522342,0.00335702,-0.00724769,0.699015,0.00625848,0.0225878,1476,1702,4.44141,-12.1469
259,-678,4.43567,12.1133,-0.0013232,-0.00286469,0.00531188,0.00327356,-0.00746145,0.713352,0.00635312,0.0137787,1483,1702,4.43564,-12.1133
266,-678,4.44019,12.0402,-0.00148964,-0.00234635,0.00502247,0.00312271,-0.0069587,0.742857,0.0059593,0.0098281,1490,1702,4.44016,-12.0402
273,-678,4.44458,11.9705,-0.00155566,-0.00169367,0.0045913,0.00296716,-0.00621648,0.777884,0.00541168,0.0102555,1497,1702,4.44463,-11.9704
280,-678,4.43982,11.9049,-0.00159535,-0.000881656,0.0039565,0.00273405,-0.00521106,0.830373,0.00466083,0.0111238,1504,1702,4.43979,-11.9049
287,-678,4.44543,11.8024,-0.00159805,-0.000436161,0.00331035,0.00234383,-0.00437804,0.87226,0.00393967,0.0115255,1511,1702,4.4454,-11.8024
294,-678,4.44299,11.7126,-0.00152837,-0.000195785,0.00274201,0.00195972,-0.00368388,0.904586,0.00330863,0.0122117,1518,1702,4.44296,-11.7127
301,-678,4.44324,11.6403,-0.00138547,-5.14096e-05,0.00218265,0.00156386,-0.00300074,0.933694,0.00267855,0.0119664,1525,1702,4.44321,-11.6402
308,-678,4.45325,11.5571,-0.00116758,2.10698e-05,0.00166391,0.00119361,-0.00234012,0.95693,0.00207568,0.0124447,1532,1702,4.45325,-11.5571
315,-678,4.45715,11.47,-0.000850506,0.000174154,0.00116251,0.000932224,-0.00160858,0.992949,0.00148416,0.0131676,1539,1702,4.45721,-11.4699
322,-678,4.45129,11.4012,-0.000549148,0.000216574,0.000770068,0.000693706,-0.00102628,1.01609,0.000999203,0.0163842,1546,1702,4.45129,-11.4013
329,-678,4.43616,11.314,-0.000256449,0.00019342,0.000478916,0.000497594,-0.000560624,1.00494,0.000611324,0.0142872,1553,1702,4.4362,-11.314
336,-678,4.42773,11.1924,4.40798e-06,3.09872e-05,0.000289777,0.000307779,-0.000272384,0.808313,0.000335165,0.0111631,1560,1702,4.42778,-11.1924
343,-678,4.43872,11.0945,0.000319476,-7.32467e-05,0.00011711,0.000351746,-0.000105517,0.268884,0.000276465,0.010421,1567,1702,4.43869,-11.0944
350,-678,4.4425,11.007,0.000736483,-0.00022816,-9.77663e-05,0.000746292,-0.000237969,-0.0999949,0.000592987,0.00977359,1574,1702,4.4425,-11.0069
357,-678,4.45947,10.8969,0.0014026,-0.000536176,-0.00045363,0.00150349,-0.000637065,-0.218843,0.00126914,0.00816261,1581,1702,4.45952,-10.8969
364,-678,4.46228,10.7772,0.00251022,-0.00088356,-0.00116974,0.00287433,-0.00124767,-0.301768,0.00244083,0.0106259,1588,1702,4.46225,-10.7772
371,-678,4.45544,10.677,0.0034813,-0.00128995,-0.00182429,0.00409888,-0.00190753,-0.326421,0.00354389,0.0113606,1595,1702,4.45539,-10.6771
378,-678,4.46179,10.548,0.00473966,-0.00185371,-0.0027342,0.00572596,-0.00284001,-0.346199,0.00503826,0.0136389,1602,1702,4.46174,-10.548
385,-678,4.47986,10.4431,0.00624071,-0.00289257,-0.00381406,0.00762396,-0.00427583,-0.34792,0.0069604,0.0158508,1609,1702,4.47986,-10.4432
392,-678,4.4718,10.3873,0.00793078,-0.00469663,-0.00518063,0.00978419,-0.00655004,-0.343569,0.00949199,0.0255643,1616,1702,4.47179,-10.3873
399,-678,4.45288,10.3104,0.00958044,-0.00602751,-0.00680734,0.0121322,-0.0085793,-0.358647,0.0120163,0.0343271,1623,1702,4.45286,-10.3105
406,-678,4.58093,10.2207,0.0109074,-0.00798013,-0.00812313,0.0139203,-0.0109931,-0.355181,0.0144168,0.0354529,1630,1702,4.58099,-10.2207
413,-678,4.98999,9.78564,0.0117977,-0.0105492,-0.0088272,0.0148638,-0.0136153,-0.334312,0.0164477,0.0408913,1637,1702,4.98995,-9.78568
420,-678,4.58508,10.0095,0,0,0,0,0,0,0,-1,1644,1702,4.58506,-10.0096
427,-678,4.30859,8.69702,0,0,0,0,0,0,0,-1,1651,1702,4.30862,-8.69707
434,-678,4.72046,10.1484,0,0,0,0,0,0,0,-1,1658,1702,4.72048,-10.1484
441,-678,4.81177,10.6176,0,0,0,0,0,0,0,-1,1665,1702,4.81178,-10.6175
448,-678,3.25525,9.74719,0,0,0,0,0,0,0,-1,1672,1702,3.25522,-9.7472
455,-678,5.44678,5.54297,0,0,0,0,0,0,0,-1,1679,1702,5.44676,-5.54294
462,-678,3.86792,2.87402,0,0,0,0,0,0,0,-1,1686,1702,3.86796,-2.87406
469,-678,2.26587,1.98755,0,0,0,0,0,0,0,-1,1693,1702,2.26592,-1.98755
476,-678,0,0,0,0,0,0,0,0,0,-1,1700,1702,0,0
483,-678,0,0,0,0,0,0,0,0,0,-1,1707,1702,0,0
490,-678,0,0,0,0,0,0,0,0,0,-1,1714,1702,0,0
497,-678,0,0,0,0,0,0,0,0,0,-1,1721,1702,0,0
504,-678,0,0,0,0,0,0,0,0,0,-1,1728,1702,0,0
511,-678,0,0,0,0,0,0,0,0,0,-1,1735,1702,0,0
518,-678,0,0,0,0,0,0,0,0,0,-1,1742,1702,0,0
525,-678,0,0,0,0,0,0,0,0,0,-1,1749,1702,0,0
532,-678,0,0,0,0,0,0,0,0,0,-1,1756,1702,0,0
539,-678,0,0,0,0,0,0,0,0,0,-1,1763,1702,0,0
546,-678,0,0,0,0,0,0,0,0,0,-1,1770,1702,0,0
553,-678,0,0,0,0,0,0,0,0,0,-1,1777,1702,0,0
560,-678,0,0,0,0,0,0,0,0,0,-1,1784,1702,0,0
567,-678,0,0,0,0,0,0,0,0,0,-1,1791,1702,0,0
574,-678,0,0,0,0,0,0,0,0,0,-1,1798,1702,0,0
581,-678,0,0,0,0,0,0,0,0,0,-1,1805,1702,0,0
588,-678,0,0,0,0,0,0,0,0,0,-1,1812,1702,0,0
595,-678,0,0,0,0,0,0,0,0,0,-1,1819,1702,0,0
602,-678,0,0,0,0,0,0,0,0,0,-1,1826,1702,0,0
609,-678,0,0,0,0,0,0,0,0,0,-1,1833,1702,0,0
616,-678,0,0,0,0,0,0,0,0,0,-1,1840,1702,0,0
623,-678,0,0,0,0,0,0,0,0,0,-1,1847,1702,0,0
630,-678,0,0,0,0,0,0,0,0,0,-1,1854,1702,0,0
637,-678,0,0,0,0,0,0,0,0,0,-1,1861,1702,0,0
644,-678,0,0,0,0,0,0,0,0,0,-1,1868,1702,0,0
651,-678,0,0,0,0,0,0,0,0,0,-1,1875,1702,0,0
658,-678,0,0,0,0,0,0,0,0,0,-1,1882,1702,0,0
665,-678,0,0,0,0,0,0,0,0,0,-1,1889,1702,0,0
672,-678,0,0,0,0,0,0,0,0,0,-1,1896,1702,0,0
679,-678,0,0,0,0,0,0,0,0,0,-1,1903,1702,0,0
686,-678,0,0,0,0,0,0,0,0,0,-1,1910,1702,0,0
693,-678,0,0,0,0,0,0,0,0,0,-1,1917,1702,0,0
700,-678,0,0,0,0,0,0,0,0,0,-1,1924,1702,0,0
707,-678,0,0,0,0,0,0,0,0,0,-1,1931,1702,0,0
714,-678,0,0,0,0,0,0,0,0,0,-1,1938,1702,0,0
721,-678,0,0,0,0,0,0,0,0,0,-1,1945,1702,0,0
728,-678,0,0,0,0,0,0,0,0,0,-1,1952,1702,0,0
735,-678,0,0,0,0,0,0,0,0,0,-1,1959,1702,0,0
742,-678,0,0,0,0,0,0,0,0,0,-1,1966,1702,0,0
749,-678,0,0,0,0,0,0,0,0,0,-1,1973,1702,0,0
756,-678,0,0,0,0,0,0,0,0,0,-1,1980,1702,0,0
763,-678,0,0,0,0,0,0,0,0,0,-1,1987,1702,0,0
770,-678,0,0,0,0,0,0,0,0,0,-1,1994,1702,0,0
777,-678,0,0,0,0,0,0,0,0,0,-1,2001,1702,0,0
784,-678,0,0,0,0,0,0,0,0,0,-1,2008,1702,0,0
791,-678,0,0,0,0,0,0,0,0,0,-1,2015,1702,0,0
798,-678,0,0,0,0,0,0,0,0,0,-1,2022,1702,0,0
805,-678,0,0,0,0,0,0,0,0,0,-1,2029,1702,0,0
812,-678,0,0,0,0,0,0,0,0,0,-1,2036,1702,0,0
-700,-685,0,0,0,0,0,0,0,0,0,-1,524,1709,0,0
-693,-685,0,0,0,0,0,0,0,0,0,-1,531,1709,0,0
-686,-685,0,0,0,0,0,0,0,0,0,-1,538,1709,0,0
-679,-685,0,0,0,0,0,0,0,0,0,-1,545,1709,0,0
-672,-685,0,0,0,0,0,0,0,0,0,-1,552,1709,0,0
-665,-685,0,0,0,0,0,0,0,0,0,-1,559,1709,0,0
-658,-685,0,0,0,0,0,0,0,0,0,-1,566,1709,0,0
-651,-685,0,0,0,0,0,0,0,0,0,-1,573,1709,0,0
-644,-685,0,0,0,0,0,0,0,0,0,-1,580,1709,0,0
-637,-685,0,0,0,0,0,0,0,0,0,-1,587,1709,0,0
-630,-685,0,0,0,0,0,0,0,0,0,-1,594,1709,0,0
-623,-685,0,0,0,0,0,0,0,0,0,-1,601,1709,0,0
-616,-685,0,0,0,0,0,0,0,0,0,-1,608,1709,0,0
-609,-685,0,0,0,0,0,0,0,0,0,-1,615,1709,0,0
-602,-685,0,0,0,0,0,0,0,0,0,-1,622,1709,0,0
-595,-685,0,0,0,0,0,0,0,0,0,-1,629,1709,0,0
-588,-685,0,0,0,0,0,0,0,0,0,-1,636,1709,0,0
-581,-685,0,0,0,0,0,0,0,0,0,-1,643,1709,0,0
-574,-685,0,0,0,0,0,0,0,0,0,-1,650,1709,0,0
-567,-685,0,0,0,0,0,0,0,0,0,-1,657,1709,0,0
-560,-685,0,0,0,0,0,0,0,0,0,-1,664,1709,0,0
-553,-685,0,0,0,0,0,0,0,0,0,-1,671,1709,0,0
-546,-685,0,0,0,0,0,0,0,0,0,-1,678,1709,0,0
-539,-685,0,0,0,0,0,0,0,0,0,-1,685,1709,0,0
-532,-685,0,0,0,0,0,0,0,0,0,-1,692,1709,0,0
-525,-685,0,0,0,0,0,0,0,0,0,-1,699,1709,0,0
-518,-685,0,0,0,0,0,0,0,0,0,-1,706,1709,0,0
-511,-685,0,0,0,0,0,0,0,0,0,-1,713,1709,0,0
-504,-685,0,0,0,0,0,0,0,0,0,-1,720,1709,0,0
-497,-685,0,0,0,0,0,0,0,0,0,-1,727,1709,0,0
-490,-685,0,0,0,0,0,0,0,0,0,-1,734,1709,0,0
-483,-685,0,0,0,0,0,0,0,0,0,-1,741,1709,0,0
-476,-685,0,0,0,0,0,0,0,0,0,-1,748,1709,0,0
-469,-685,0,0,0,0,0,0,0,0,0,-1,755,1709,0,0
-462,-685,0,0,0,0,0,0,0,0,0,-1,762,1709,0,0
-455,-685,0,0,0,0,0,0,0,0,0,-1,769,1709,0,0
-448,-685,0,0,0,0,0,0,0,0,0,-1,776,1709,0,0
-441,-685,0,0,0,0,0,0,0,0,0,-1,783,1709,0,0
-434,-685,0,0,0,0,0,0,0,0,0,-1,790,1709,0,0
-427,-685,0,0,0,0,0,0,0,0,0,-1,797,1709,0,0
-420,-685,0,0,0,0,0,0,0,0,0,-1,804,1709,0,0
-413,-685,0,0,0,0,0,0,0,0,0,-1,811,1709,0,0
-406,-685,0,0,0,0,0,0,0,0,0,-1,818,1709,0,0
-399,-685,0,0,0,0,0,0,0,0,0,-1,825,1709,0,0
-392,-685,0,0,0,0,0,0,0,0,0,-1,832,1709,0,0
-385,-685,0,0,0,0,0,0,0,0,0,-1,839,1709,0,0
-378,-685,0,0,0,0,0,0,0,0,0,-1,846,1709,0,0
-371,-685,0,0,0,0,0,0,0,0,0,-1,853,1709,0,0
-364,-685,0,0,0,0,0,0,0,0,0,-1,860,1709,0,0
-357,-685,0,0,0,0,0,0,0,0,0,-1,867,1709,0,0
-350,-685,0,0,0,0,0,0,0,0,0,-1,874,1709,0,0
-343,-685,-7.97491,5.63452,0,0,0,0,0,0,0,-1,881,1709,-7.97492,-5.63451
-336,-685,-8.73004,4.33813,0,0,0,0,0,0,0,-1,888,1709,-8.73002,-4.33818
-329,-685,-9.43805,3.16907,0,0,0,0,0,0,0,-1,895,1709,-9.43805,-3.16908
-322,-685,-10.121,1.96362,0,0,0,0,0,0,0,-1,902,1709,-10.121,-1.96362
-315,-685,2.16644,10.4351,0,0,0,0,0,0,0,-1,909,1709,2.16645,-10.435
-308,-685,2.19128,10.0699,0,0,0,0,0,0,0,-1,916,1709,2.19128,-10.07
-301,-685,2.21613,9.70496,0,0,0,0,0,0,0,-1,923,1709,2.2161,-9.70497
-294,-685,3.23615,8.88855,0,0,0,0,0,0,0,-1,930,1709,3.23612,-8.88856
-287,-685,3.62653,8.79333,0,0,0,0,0,0,0,-1,937,1709,3.62653,-8.79337
-280,-685,3.45386,9.01599,0,0,0,0,0,0,0,-1,944,1709,3.45385,-9.01597
-273,-685,3.41913,9.02368,0.00700595,0.000348854,-0.0392006,0.0430191,-0.0356643,-0.743044,0.045494,0.0498726,951,1709,3.41914,-9.02367
-266,-685,3.52582,9.14795,0.00642299,0.000792006,-0.0312533,0.0349874,-0.0277724,-0.740476,0.0363141,0.0454618,958,1709,3.52585,-9.14791
-259,-685,3.63141,9.37622,0.00574881,0.000237062,-0.0246995,0.0278457,-0.0218598,-0.72984,0.0287668,0.0417385,965,1709,3.63142,-9.37627
-252,-685,3.54236,9.58618,0.00478876,0.000199223,-0.018324,0.0209611,-0.0159731,-0.723106,0.0213887,0.0386508,972,1709,3.54238,-9.58622
-245,-685,3.5459,9.74414,0.00354036,3.77024e-05,-0.0123079,0.0142209,-0.0106428,-0.714726,0.0144045,0.0355577,979,1709,3.54588,-9.74415
-238,-685,3.62823,9.87976,0.00241439,8.37614e-05,-0.00828228,0.00961293,-0.00711479,-0.715507,0.00969359,0.025397,986,1709,3.62821,-9.87975
-231,-685,3.56744,10.0836,0.00161607,-0.00068818,-0.00763438,0.00818477,-0.00725688,-0.710507,0.0089206,0.0165681,993,1709,3.56742,-10.0837
-224,-685,3.54083,10.186,0.000845977,-0.000999285,-0.00689271,0.00687753,-0.00703084,-0.718866,0.00803016,0.0144749,1000,1709,3.54083,-10.186
-217,-685,3.54431,10.2932,0.000238723,-0.00184051,-0.0061472,0.0054336,-0.00703539,-0.701631,0.00721875,0.0109041,1007,1709,3.54429,-10.2932
-210,-685,3.5354,10.4336,0.00023585,-0.00176392,-0.00548851,0.00481482,-0.00634288,-0.695298,0.00646201,0.0147068,1014,1709,3.53539,-10.4336
-203,-685,3.52515,10.5293,0.000350859,-0.00152221,-0.00471102,0.00421753,-0.00538888,-0.687279,0.00555999,0.0144812,1021,1709,3.52515,-10.5294
-196,-685,3.51074,10.6241,0.000416775,-0.00123636,-0.00394734,0.00362316,-0.00444274,-0.68219,0.00466486,0.0128955,1028,1709,3.51074,-10.6241
-189,-685,3.52783,10.7375,0.00034141,-0.000945194,-0.00329682,0.00305711,-0.00366089,-0.689045,0.00388385,0.00927963,1035,1709,3.52779,-10.7376
-182,-685,3.52649,10.8729,0.000428911,-0.000692137,-0.00273248,0.00265777,-0.00292099,-0.684235,0.0032221,0.0136404,1042,1709,3.52647,-10.8729
-175,-685,3.52014,10.9742,0.000706902,-0.000592793,-0.00202538,0.00218413,-0.00207002,-0.63016,0.00245643,0.0133738,1049,1709,3.5201,-10.9742
-168,-685,3.51978,11.1005,0.000810992,-8.36758e-05,-0.00144455,0.00187588,-0.00114857,-0.635246,0.00176292,0.0103532,1056,1709,3.51972,-11.1005
-161,-685,3.52173,11.2045,0.000880811,-0.000183119,-0.00101072,0.00149101,-0.000793321,-0.543157,0.00133921,0.0107215,1063,1709,3.52178,-11.2044
-154,-685,3.53723,11.2845,0.00110703,-0.000133354,-0.000666953,0.00139759,-0.000423912,-0.410856,0.00110059,0.0100189,1070,1709,3.53726,-11.2846
-147,-685,3.52087,11.3892,0.00137727,-0.000315108,-0.000407612,0.00147033,-0.000408165,-0.224452,0.00114088,0.00931622,1077,1709,3.52084,-11.3892
-140,-685,3.51892,11.468,0.00159926,-0.00102987,-1.18141e-05,0.00159931,-0.00102993,-0.00449342,0.00152981,0.0117053,1084,1709,3.51892,-11.468
-133,-685,3.52771,11.5546,0.0018168,-0.00217433,0.000403902,0.00185727,-0.0022148,0.0998507,0.00235403,0.0111057,1091,1709,3.52776,-11.5546
-126,-685,3.53625,11.6611,0.00210978,-0.00322691,0.000892224,0.00225499,-0.00337212,0.161343,0.00327009,0.00998712,1098,1709,3.53625,-11.6611
-119,-685,3.56262,11.7446,0.0023578,-0.00455852,0.00154389,0.00268678,-0.0048875,0.209948,0.00443412,0.0136374,1105,1709,3.5626,-11.7446
-112,-685,3.55737,11.8314,0.00244533,-0.00622841,0.00211649,0.00293422,-0.0067173,0.22701,0.00571321,0.0126913,1112,1709,3.55736,-11.8314
-105,-685,3.53442,11.9119,0.00233255,-0.00796682,0.00279412,0.00304173,-0.008676,0.248565,0.00702109,0.0107481,1119,1709,3.53446,-11.9119
-98,-685,3.58142,11.9663,0.00219667,-0.00996356,0.00336912,0.00306772,-0.0108346,0.253001,0.00843373,0.0130092,1126,1709,3.58138,-11.9662
-91,-685,3.57532,12.0377,0.00209916,-0.0118841,0.00380675,0.00306832,-0.0128533,0.249294,0.00975386,0.0154842,1133,1709,3.57532,-12.0377
-84,-685,3.59045,12.11,0.00200634,-0.0136901,0.00412985,0.00302661,-0.0147104,0.242199,0.010956,0.0138844,1140,1709,3.59044,-12.11
-77,-685,3.62756,12.208,0.00168136,-0.0148655,0.004292,0.00272838,-0.0159125,0.239275,0.011625,0.0129702,1147,1709,3.62758,-12.208
-70,-685,3.70386,12.3203,0.00151878,-0.0155226,0.00402781,0.00242282,-0.0164267,0.220789,0.0118416,0.0215734,1154,1709,3.70382,-12.3203
-63,-685,3.69385,12.5227,0,0,0,0,0,0,0,-1,1161,1709,3.69389,-12.5228
-56,-685,3.56567,12.9598,0,0,0,0,0,0,0,-1,1168,1709,3.56573,-12.9598
-49,-685,3.07471,9.86011,0,0,0,0,0,0,0,-1,1175,1709,3.07467,-9.86009
-42,-685,2.70618,7.54504,0,0,0,0,0,0,0,-1,1182,1709,2.7062,-7.54504
-35,-685,2.95264,7.91516,0,0,0,0,0,0,0,-1,1189,1709,2.95262,-7.91517
-28,-685,3.54028,12.5952,0,0,0,0,0,0,0,-1,1196,1709,3.54027,-12.5952
-21,-685,3.68774,12.5505,0.00966849,-0.00215021,-0.00769895,0.0134645,-0.00594623,-0.458078,0.0114836,0.0390431,1203,1709,3.68778,-12.5505
-14,-685,3.78699,12.5109,0.0103499,-0.00349517,-0.00725898,0.013458,-0.00660331,-0.404559,0.0118056,0.0239934,1210,1709,3.78701,-12.5108
-7,-685,3.71729,12.535,0.0106578,-0.00496637,-0.00621218,0.0128267,-0.00713525,-0.335904,0.0116801,0.038702,1217,1709,3.71726,-12.5351
0,-685,3.93872,12.5492,0.0104565,-0.00667336,-0.004916,0.011767,-0.00798391,-0.26053,0.0114727,0.0443273,1224,1709,3.93866,-12.5491
7,-685,4.2406,12.4838,0.0094941,-0.00834849,-0.00335474,0.010104,-0.0089584,-0.17984,0.0110123,0.0399343,1231,1709,4.24065,-12.4838
14,-685,4.28345,12.4799,0.00812136,-0.0101199,-0.00192117,0.0083215,-0.0103201,-0.103802,0.0107833,0.0411956,1238,1709,4.28342,-12.4799
21,-685,4.26282,12.5214,0.00689995,-0.0118288,-0.00092987,0.00694601,-0.0118748,-0.0494871,0.0109897,0.0366163,1245,1709,4.26278,-12.5214
28,-685,3.98206,12.5835,0.00551907,-0.0134321,0.000197551,0.00552113,-0.0134342,0.0104227,0.0112572,0.0370459,1252,1709,3.98211,-12.5835
35,-685,3.97424,12.5986,0.00357922,-0.0151684,0.00113345,0.0036475,-0.0152367,0.060166,0.0115669,0.0394677,1259,1709,3.9743,-12.5987
42,-685,4.06348,12.6772,0.00199931,-0.0175788,0.00168531,0.00214332,-0.0177228,0.0852457,0.0125906,0.0435921,1266,1709,4.06351,-12.6772
49,-685,4.12854,12.6382,0.00144476,-0.0192594,0.00239446,0.00171807,-0.0195327,0.113653,0.0136306,0.0475961,1273,1709,4.12851,-12.6382
56,-685,4.02893,12.5054,-7.45318e-05,-0.0206429,0.00361825,0.000543403,-0.0212609,0.16915,0.0143585,0.0480678,1280,1709,4.02892,-12.5053
63,-685,3.92358,12.5571,0.000112605,-0.021432,0.00365026,0.000714262,-0.0220336,0.163357,0.0149329,0.0469187,1287,1709,3.92363,-12.5571
70,-685,4.07471,12.5417,0.00269965,-0.0221049,0.00372046,0.00324566,-0.0226509,0.14572,0.0162906,0.045512,1294,1709,4.07476,-12.5417
77,-685,4.08533,12.5332,0.00495874,-0.0218246,0.00417289,0.00559383,-0.0224597,0.151034,0.0171447,0.0438666,1301,1709,4.08528,-12.5332
84,-685,4.02563,12.5236,0.00686525,-0.0217941,0.0048644,0.00766838,-0.0225972,0.163629,0.0181686,0.0430658,1308,1709,4.02564,-12.5236
91,-685,3.89905,12.4971,0.00958758,-0.020249,0.00592524,0.0107212,-0.0213826,0.189036,0.0188728,0.0419066,1315,1709,3.89901,-12.4971
98,-685,3.8064,12.4326,0.0125268,-0.0179721,0.00725808,0.014166,-0.0196113,0.222114,0.0195856,0.037991,1322,1709,3.80641,-12.4326
105,-685,4.04089,12.4806,0.0153844,-0.0156671,0.00865926,0.0176359,-0.0179186,0.254381,0.0205276,0.0390249,1329,1709,4.04088,-12.4806
112,-685,4.41431,12.5568,0.0181332,-0.0128317,0.0100732,0.0211217,-0.0158202,0.288407,0.0214015,0.0386973,1336,1709,4.41433,-12.5567
119,-685,4.08887,12.5083,0.0204818,-0.00960982,0.0114955,0.0243707,-0.0134987,0.326211,0.0221622,0.0406383,1343,1709,4.08885,-12.5083
126,-685,5.52612,12.8895,0,0,0,0,0,0,0,-1,1350,1709,5.5261,-12.8895
133,-685,4.20959,12.5293,0.0237596,-0.00277835,0.0136382,0.0295187,-0.0085374,0.399559,0.0230579,0.0472753,1357,1709,4.20958,-12.5293
140,-685,4.23865,12.6606,0.0246822,0.000537308,0.0139385,0.0310496,-0.00583005,0.428509,0.0228919,0.0467918,1364,1709,4.23864,-12.6607
147,-685,4.32874,12.7286,0.0248415,0.00331579,0.0137326,0.0315264,-0.00336911,0.453023,0.0222259,0.0450922,1371,1709,4.32871,-12.7287
154,-685,4.40027,12.9059,0,0,0,0,0,0,0,-1,1378,1709,4.40031,-12.9059
161,-685,4.55396,12.7816,0,0,0,0,0,0,0,-1,1385,1709,4.55391,-12.7817
168,-685,4.37524,10.8778,0,0,0,0,0,0,0,-1,1392,1709,4.37525,-10.8778
175,-685,3.97522,8.94324,0,0,0,0,0,0,0,-1,1399,1709,3.97519,-8.94328
182,-685,3.98218,9.19739,0,0,0,0,0,0,0,-1,1406,1709,3.98221,-9.1974
189,-685,3.90552,10.3271,0,0,0,0,0,0,0,-1,1413,1709,3.90548,-10.3272
196,-685,4.31519,12.7802,0,0,0,0,0,0,0,-1,1420,1709,4.31514,-12.7801
203,-685,4.32776,12.782,0.00102912,-0.000973119,0.00243908,0.00266454,-0.00260854,0.590657,0.00304447,0.0476392,1427,1709,4.32773,-12.782
210,-685,4.32422,12.6279,0.000740879,-0.00218387,0.00238023,0.00207207,-0.00351506,0.509933,0.0032614,0.0267608,1434,1709,4.32422,-12.6279
217,-685,4.32458,12.4504,0.000391498,-0.00294123,0.00225841,0.00153177,-0.0040815,0.467559,0.00335042,0.0206785,1441,1709,4.32458,-12.4504
224,-685,4.24902,12.3627,0.000217744,-0.00345262,0.00243131,0.00142873,-0.00466361,0.462111,0.00367899,0.0155619,1448,1709,4.24903,-12.3627
231,-685,4.32312,12.3452,0.000179164,-0.00298313,0.00267203,0.00170282,-0.00450678,0.518237,0.00370494,0.016271,1455,1709,4.32308,-12.3452
238,-685,4.33875,12.2806,6.44697e-05,-0.00272909,0.00286436,0.00185447,-0.00451909,0.558542,0.00378545,0.0181085,1462,1709,4.33879,-12.2807
245,-685,4.33765,12.2134,-0.000263212,-0.00254468,0.00309861,0.00189797,-0.00470586,0.609025,0.00392592,0.0192112,1469,1709,4.33764,-12.2134
252,-685,4.34985,12.1719,-0.00055021,-0.00231802,0.00336798,0.00204792,-0.00491615,0.65707,0.00413282,0.0145243,1476,1709,4.34986,-12.1719
259,-685,4.35828,12.1281,-0.000765858,-0.0022983,0.00341132,0.00196424,-0.00502839,0.674926,0.0041644,0.00975787,1483,1709,4.35825,-12.128
266,-685,4.34302,12.0447,-0.000935177,-0.00191277,0.00324387,0.00185652,-0.00470447,0.71062,0.00390513,0.010175,1490,1709,4.34305,-12.0447
273,-685,4.34534,11.9589,-0.00103276,-0.00139398,0.00292339,0.00171559,-0.00414233,0.754547,0.00347746,0.0118209,1497,1709,4.34531,-11.9589
280,-685,4.35095,11.8885,-0.00113031,-0.000721718,0.00243437,0.00151692,-0.00336894,0.827261,0.00288762,0.0136596,1504,1709,4.35096,-11.8885
287,-685,4.35876,11.8169,-0.00122767,-0.000346657,0.00198277,0.00124395,-0.00281828,0.894707,0.00240332,0.012384,1511,1709,4.35875,-11.8169
294,-685,4.35828,11.7402,-0.00124865,-0.000195106,0.00162265,0.000984134,-0.00242789,0.94235,0.00202787,0.0108551,1518,1709,4.35822,-11.7402
301,-685,4.3595,11.6553,-0.00119013,-0.000155758,0.00127637,0.000704231,-0.00205012,0.977889,0.0016523,0.0121468,1525,1709,4.35954,-11.6553
308,-685,4.3678,11.5629,-0.00102648,-0.000164034,0.00093753,0.00043669,-0.00162721,1.00095,0.00125593,0.0126003,1532,1709,4.36785,-11.5628
315,-685,4.37695,11.465,-0.000715605,-4.47332e-05,0.000552132,0.00026587,-0.00102621,1.05837,0.00078786,0.0114229,1539,1709,4.377,-11.4649
322,-685,4.36243,11.3755,-0.00044416,-3.47375e-05,0.000296832,0.000121128,-0.000600026,1.08727,0.000445911,0.0191756,1546,1709,4.36243,-11.3755
329,-685,4.35193,11.2894,-0.000149582,-0.000107785,0.00014332,1.61522e-05,-0.000273519,0.857795,0.000187962,0.0181175,1553,1709,4.35193,-11.2894
336,-685,4.35596,11.1913,0.000168735,-0.000276741,6.39037e-05,0.000177721,-0.000285727,0.139698,0.000269983,0.0119049,1560,1709,4.35594,-11.1913
343,-685,4.35938,11.0934,0.000574732,-0.000409956,-6.05823e-05,0.000578445,-0.000413669,-0.0612166,0.000575425,0.010549,1567,1709,4.35938,-11.0934
350,-685,4.36023,10.991,0.00110426,-0.000593983,-0.000267913,0.00114552,-0.000635246,-0.152816,0.0010421,0.0110926,1574,1709,4.36023,-10.991
357,-685,4.37195,10.8984,0.00197375,-0.000919729,-0.000659825,0.00211711,-0.00106309,-0.213948,0.0018694,0.00945016,1581,1709,4.37199,-10.8984
364,-685,4.36267,10.7704,0.00343031,-0.00130302,-0.00155418,0.003895,-0.00176771,-0.290535,0.00334538,0.00926438,1588,1709,4.36268,-10.7704
371,-685,4.37817,10.6427,0.00475056,-0.00167781,-0.00244546,0.00557509,-0.00250235,-0.325199,0.00477466,0.0154906,1595,1709,4.37813,-10.6427
378,-685,4.31018,10.5652,0.00644153,-0.00229348,-0.00365256,0.00776755,-0.00361951,-0.348245,0.00671815,0.0222129,1602,1709,4.31019,-10.5652
385,-685,4.26599,10.4836,0.008451,-0.00349515,-0.00502855,0.0102859,-0.00533001,-0.349878,0.00916592,0.0351904,1609,1709,4.26595,-10.4836
392,-685,4.43164,10.421,0.0107556,-0.00568051,-0.00675727,0.013177,-0.00810187,-0.34408,0.0124013,0.0403209,1616,1709,4.43166,-10.421
399,-685,4.61646,10.3993,0.0132083,-0.00733141,-0.00891077,0.0165352,-0.0106583,-0.357329,0.0158219,0.0485337,1623,1709,4.6165,-10.3993
406,-685,4.80066,10.3539,0.0153878,-0.00994822,-0.0107591,0.0193402,-0.0139006,-0.352047,0.019277,0.0483832,1630,1709,4.80063,-10.3539
413,-685,5.17944,10.0087,0.017154,-0.0135991,-0.0119718,0.0212649,-0.0177101,-0.33077,0.0225334,0.0490414,1637,1709,5.17942,-10.0087
420,-685,5.75012,9.69519,0,0,0,0,0,0,0,-1,1644,1709,5.75014,-9.69516
427,-685,6.05151,9.21155,0,0,0,0,0,0,0,-1,1651,1709,6.05156,-9.21156
434,-685,4.87769,8.91418,0,0,0,0,0,0,0,-1,1658,1709,4.87768,-8.91413
441,-685,5.62,8.75549,0,0,0,0,0,0,0,-1,1665,1709,5.61996,-8.75545
448,-685,6.4043,8.58972,0,0,0,0,0,0,0,-1,1672,1709,6.40435,-8.58971
455,-685,2.31958,4.09802,0,0,0,0,0,0,0,-1,1679,1709,2.31957,-4.09803
462,-685,0,0,0,0,0,0,0,0,0,-1,1686,1709,0,0
469,-685,0,0,0,0,0,0,0,0,0,-1,1693,1709,0,0
476,-685,0,0,0,0,0,0,0,0,0,-1,1700,1709,0,0
483,-685,0,0,0,0,0,0,0,0,0,-1,1707,1709,0,0
490,-685,0,0,0,0,0,0,0,0,0,-1,1714,1709,0,0
497,-685,0,0,0,0,0,0,0,0,0,-1,1721,1709,0,0
504,-685,0,0,0,0,0,0,0,0,0,-1,1728,1709,0,0
511,-685,0,0,0,0,0,0,0,0,0,-1,1735,1709,0,0
518,-685,0,0,0,0,0,0,0,0,0,-1,1742,1709,0,0
525,-685,0,0,0,0,0,0,0,0,0,-1,1749,1709,0,0
532,-685,0,0,0,0,0,0,0,0,0,-1,1756,1709,0,0
539,-685,0,0,0,0,0,0,0,0,0,-1,1763,1709,0,0
546,-685,0,0,0,0,0,0,0,0,0,-1,1770,1709,0,0
553,-685,0,0,0,0,0,0,0,0,0,-1,1777,1709,0,0
560,-685,0,0,0,0,0,0,0,0,0,-1,1784,1709,0,0
567,-685,0,0,0,0,0,0,0,0,0,-1,1791,1709,0,0
574,-685,0,0,0,0,0,0,0,0,0,-1,1798,1709,0,0
581,-685,0,0,0,0,0,0,0,0,0,-1,1805,1709,0,0
588,-685,0,0,0,0,0,0,0,0,0,-1,1812,1709,0,0
595,-685,0,0,0,0,0,0,0,0,0,-1,1819,1709,0,0
602,-685,0,0,0,0,0,0,0,0,0,-1,1826,1709,0,0
609,-685,0,0,0,0,0,0,0,0,0,-1,1833,1709,0,0
616,-685,0,0,0,0,0,0,0,0,0,-1,1840,1709,0,0
623,-685,0,0,0,0,0,0,0,0,0,-1,1847,1709,0,0
630,-685,0,0,0,0,0,0,0,0,0,-1,1854,1709,0,0
637,-685,0,0,0,0,0,0,0,0,0,-1,1861,1709,0,0
644,-685,0,0,0,0,0,0,0,0,0,-1,1868,1709,0,0
651,-685,0,0,0,0,0,0,0,0,0,-1,1875,1709,0,0
658,-685,0,0,0,0,0,0,0,0,0,-1,1882,1709,0,0
665,-685,0,0,0,0,0,0,0,0,0,-1,1889,1709,0,0
672,-685,0,0,0,0,0,0,0,0,0,-1,1896,1709,0,0
679,-685,0,0,0,0,0,0,0,0,0,-1,1903,1709,0,0
686,-685,0,0,0,0,0,0,0,0,0,-1,1910,1709,0,0
693,-685,0,0,0,0,0,0,0,0,0,-1,1917,1709,0,0
700,-685,0,0,0,0,0,0,0,0,0,-1,1924,1709,0,0
707,-685,0,0,0,0,0,0,0,0,0,-1,1931,1709,0,0
714,-685,0,0,0,0,0,0,0,0,0,-1,1938,1709,0,0
721,-685,0,0,0,0,0,0,0,0,0,-1,1945,1709,0,0
728,-685,0,0,0,0,0,0,0,0,0,-1,1952,1709,0,0
735,-685,0,0,0,0,0,0,0,0,0,-1,1959,1709,0,0
742,-685,0,0,0,0,0,0,0,0,0,-1,1966,1709,0,0
749,-685,0,0,0,0,0,0,0,0,0,-1,1973,1709,0,0
756,-685,0,0,0,0,0,0,0,0,0,-1,1980,1709,0,0
763,-685,0,0,0,0,0,0,0,0,0,-1,1987,1709,0,0
770,-685,0,0,0,0,0,0,0,0,0,-1,1994,1709,0,0
777,-685,0,0,0,0,0,0,0,0,0,-1,2001,1709,0,0
784,-685,0,0,0,0,0,0,0,0,0,-1,2008,1709,0,0
791,-685,0,0,0,0,0,0,0,0,0,-1,2015,1709,0,0
798,-685,0,0,0,0,0,0,0,0,0,-1,2022,1709,0,0
805,-685,0,0,0,0,0,0,0,0,0,-1,2029,1709,0,0
812,-685,0,0,0,0,0,0,0,0,0,-1,2036,1709,0,0
-700,-692,0,0,0,0,0,0,0,0,0,-1,524,1716,0,0
-693,-692,0,0,0,0,0,0,0,0,0,-1,531,1716,0,0
-686,-692,0,0,0,0,0,0,0,0,0,-1,538,1716,0,0
-679,-692,0,0,0,0,0,0,0,0,0,-1,545,1716,0,0
-672,-692,0,0,0,0,0,0,0,0,0,-1,552,1716,0,0
-665,-692,0,0,0,0,0,0,0,0,0,-1,559,1716,0,0
-658,-692,0,0,0,0,0,0,0,0,0,-1,566,1716,0,0
-651,-692,0,0,0,0,0,0,0,0,0,-1,573,1716,0,0
-644,-692,0,0,0,0,0,0,0,0,0,-1,580,1716,0,0
-637,-692,0,0,0,0,0,0,0,0,0,-1,587,1716,0,0
-630,-692,0,0,0,0,0,0,0,0,0,-1,594,1716,0,0
-623,-692,0,0,0,0,0,0,0,0,0,-1,601,1716,0,0
-616,-692,0,0,0,0,0,0,0,0,0,-1,608,1716,0,0
-609,-692,0,0,0,0,0,0,0,0,0,-1,615,1716,0,0
-602,-692,0,0,0,0,0,0,0,0,0,-1,622,1716,0,0
-595,-692,0,0,0,0,0,0,0,0,0,-1,629,1716,0,0
-588,-692,0,0,0,0,0,0,0,0,0,-1,636,1716,0,0
-581,-692,0,0,0,0,0,0,0,0,0,-1,643,1716,0,0
-574,-692,0,0,0,0,0,0,0,0,0,-1,650,1716,0,0
-567,-692,0,0,0,0,0,0,0,0,0,-1,657,1716,0,0
-560,-692,0,0,0,0,0,0,0,0,0,-1,664,1716,0,0
-553,-692,0,0,0,0,0,0,0,0,0,-1,671,1716,0,0
-546,-692,0,0,0,0,0,0,0,0,0,-1,678,1716,0,0
-539,-692,0,0,0,0,0,0,0,0,0,-1,685,1716,0,0
-532,-692,0,0,0,0,0,0,0,0,0,-1,692,1716,0,0
-525,-692,0,0,0,0,0,0,0,0,0,-1,699,1716,0,0
-518,-692,0,0,0,0,0,0,0,0,0,-1,706,1716,0,0
-511,-692,0,0,0,0,0,0,0,0,0,-1,713,1716,0,0
-504,-692,0,0,0,0,0,0,0,0,0,-1,720,1716,0,0
-497,-692,0,0,0,0,0,0,0,0,0,-1,727,1716,0,0
-490,-692,0,0,0,0,0,0,0,0,0,-1,734,1716,0,0
-483,-692,0,0,0,0,0,0,0,0,0,-1,741,1716,0,0
-476,-692,0,0,0,0,0,0,0,0,0,-1,748,1716,0,0
-469,-692,0,0,0,0,0,0,0,0,0,-1,755,1716,0,0
-462,-692,0,0,0,0,0,0,0,0,0,-1,762,1716,0,0
-455,-692,0,0,0,0,0,0,0,0,0,-1,769,1716,0,0
-448,-692,0,0,0,0,0,0,0,0,0,-1,776,1716,0,0
-441,-692,0,0,0,0,0,0,0,0,0,-1,783,1716,0,0
-434,-692,0,0,0,0,0,0,0,0,0,-1,790,1716,0,0
-427,-692,0,0,0,0,0,0,0,0,0,-1,797,1716,0,0
-420,-692,0,0,0,0,0,0,0,0,0,-1,804,1716,0,0
-413,-692,0,0,0,0,0,0,0,0,0,-1,811,1716,0,0
-406,-692,0,0,0,0,0,0,0,0,0,-1,818,1716,0,0
-399,-692,0,0,0,0,0,0,0,0,0,-1,825,1716,0,0
-392,-692,0,0,0,0,0,0,0,0,0,-1,832,1716,0,0
-385,-692,0,0,0,0,0,0,0,0,0,-1,839,1716,0,0
-378,-692,0,0,0,0,0,0,0,0,0,-1,846,1716,0,0
-371,-692,0,0,0,0,0,0,0,0,0,-1,853,1716,0,0
-364,-692,0,0,0,0,0,0,0,0,0,-1,860,1716,0,0
-357,-692,0,0,0,0,0,0,0,0,0,-1,867,1716,0,0
-350,-692,0,0,0,0,0,0,0,0,0,-1,874,1716,0,0
-343,-692,0,0,0,0,0,0,0,0,0,-1,881,1716,0,0
-336,-692,0,0,0,0,0,0,0,0,0,-1,888,1716,0,0
-329,-692,3.12396,3.50745,0,0,0,0,0,0,0,-1,895,1716,3.12398,-3.50748
-322,-692,3.23596,4.03162,0,0,0,0,0,0,0,-1,902,1716,3.23596,-4.03162
-315,-692,3.59528,17.4767,0,0,0,0,0,0,0,-1,909,1716,3.59525,-17.4766
-308,-692,1.27039,10.7715,0,0,0,0,0,0,0,-1,916,1716,1.27041,-10.7715
-301,-692,2.56519,13.146,0.00774061,-0.00522026,-0.111493,0.112941,-0.110421,-0.756369,0.128961,0.0484972,923,1716,2.56521,-13.146
-294,-692,2.43475,10.9552,0.0114329,-0.00310598,-0.0956793,0.100118,-0.0917915,-0.747482,0.110834,0.0481163,930,1716,2.43473,-10.9552
-287,-692,3.92273,8.59521,0,0,0,0,0,0,0,-1,937,1716,3.92275,-8.59528
-280,-692,3.50354,8.65564,0.0129801,0.00129394,-0.0677022,0.0750909,-0.0608169,-0.742352,0.0786105,0.0467322,944,1716,3.50354,-8.65564
-273,-692,3.51221,8.91821,0.0113379,0.000268438,-0.0554654,0.0615441,-0.0499377,-0.735669,0.0644802,0.0449462,951,1716,3.51221,-8.91821
-266,-692,3.63,9.07788,0,0,0,0,0,0,0,-1,958,1716,3.62999,-9.0779
-259,-692,3.87402,9.1947,0,0,0,0,0,0,0,-1,965,1716,3.874,-9.19473
-252,-692,3.72479,9.56311,0,0,0,0,0,0,0,-1,972,1716,3.72478,-9.56307
-245,-692,3.67554,9.80481,0.00473275,-0.000941988,-0.019716,0.0218145,-0.0180237,-0.713933,0.0230353,0.047442,979,1716,3.67557,-9.80482
-238,-692,3.77942,9.94958,0.00323682,-0.000819048,-0.0141097,0.0154636,-0.0130458,-0.714024,0.0164796,0.0398466,986,1716,3.7794,-9.94954
-231,-692,3.75061,10.1055,0.00210784,-0.001733,-0.0129562,0.0132852,-0.0129103,-0.711822,0.0151245,0.0325732,993,1716,3.75062,-10.1055
-224,-692,3.67444,10.1984,0.00103825,-0.00201292,-0.0116859,0.0112977,-0.0122724,-0.720491,0.0136121,0.0170162,1000,1716,3.67443,-10.1984
-217,-692,3.65167,10.2913,0.00027373,-0.00295875,-0.0103488,0.00913172,-0.0118167,-0.707936,0.0121277,0.012229,1007,1716,3.65166,-10.2913
-210,-692,3.66083,10.4055,0.000322594,-0.00255474,-0.00896124,0.00795992,-0.0101921,-0.705806,0.0105064,0.0128609,1014,1716,3.6608,-10.4055
-203,-692,3.66028,10.5039,0.000494203,-0.00190446,-0.00742865,0.00681971,-0.00822997,-0.705365,0.00870165,0.014243,1021,1716,3.66029,-10.5038
-196,-692,3.65308,10.6403,0.00061759,-0.00120244,-0.00597563,0.0057521,-0.00633695,-0.709835,0.00698234,0.0167699,1028,1716,3.65313,-10.6403
-189,-692,3.62732,10.7444,0.00058078,-0.000553768,-0.00476335,0.00481051,-0.0047835,-0.726132,0.00553912,0.00897706,1035,1716,3.62736,-10.7444
-182,-692,3.62073,10.8716,0.00060894,-6.20504e-06,-0.00370562,0.00401973,-0.003417,-0.743992,0.0042983,0.0132336,1042,1716,3.62078,-10.8715
-175,-692,3.61194,11.0017,0.000810953,0.000214566,-0.00249833,0.00302882,-0.0020033,-0.726001,0.00292534,0.014571,1049,1716,3.61193,-11.0017
-168,-692,3.62512,11.0917,0.000792496,0.00106591,-0.00157751,0.00251262,-0.000654219,-0.82862,0.00193047,0.011426,1056,1716,3.62508,-11.0917
-161,-692,3.64722,11.2015,0.000739826,0.000988955,-0.000987067,0.00185929,-0.000130505,-0.848165,0.00128524,0.0130857,1063,1716,3.64716,-11.2016
-154,-692,3.64209,11.2941,0.000908822,0.00111983,-0.000620949,0.00164417,0.000384477,-0.869548,0.000993083,0.0141061,1070,1716,3.64208,-11.2941
-147,-692,3.62183,11.391,0.00110476,0.000901402,-0.000471908,0.00148582,0.000520343,-0.679288,0.000870576,0.0140194,1077,1716,3.6218,-11.3909
-140,-692,3.61194,11.4824,0.00128956,0.000267544,-0.000215643,0.00133319,0.000223907,-0.199662,0.000824359,0.0108298,1084,1716,3.61194,-11.4824
-133,-692,3.61389,11.5623,0.00147452,-0.000655816,9.86423e-06,0.00147457,-0.000655861,0.00463023,0.00125992,0.00995084,1091,1716,3.61395,-11.5623
-126,-692,3.62524,11.6486,0.0016596,-0.00153784,0.000317981,0.00169091,-0.00156915,0.0981679,0.00188264,0.00843932,1098,1716,3.62527,-11.6485
-119,-692,3.63977,11.7343,0.00183707,-0.00256377,0.000762178,0.00196533,-0.00269203,0.166722,0.00269982,0.0121499,1105,1716,3.63975,-11.7343
-112,-692,3.63123,11.8293,0.00197733,-0.00390645,0.00120003,0.00221267,-0.00414179,0.193655,0.00372468,0.0113149,1112,1716,3.63125,-11.8294
-105,-692,3.65381,11.9152,0.00195701,-0.00517568,0.00168849,0.00233652,-0.0055552,0.221092,0.0046809,0.0157103,1119,1716,3.65377,-11.9152
-98,-692,3.66821,11.9633,0.00188255,-0.00660857,0.00212903,0.00238647,-0.00711249,0.232412,0.005706,0.0166865,1126,1716,3.66827,-11.9633
-91,-692,3.65259,12.0194,0.00173165,-0.00788601,0.00253163,0.00235734,-0.0085117,0.242293,0.00660205,0.0183766,1133,1716,3.65263,-12.0195
-84,-692,3.67786,12.0765,0.00150138,-0.00897061,0.00287663,0.00223955,-0.00970878,0.251189,0.00733392,0.0198498,1140,1716,3.67783,-12.0765
-77,-692,3.69421,12.2051,0.0013531,-0.00958484,0.00297315,0.00210902,-0.0103408,0.248973,0.00769381,0.0131576,1147,1716,3.69419,-12.2051
-70,-692,3.70996,12.2797,0.00130318,-0.00989178,0.00278584,0.00195811,-0.0105467,0.230901,0.00776656,0.0150088,1154,1716,3.70992,-12.2797
-63,-692,3.7146,12.3274,0.000857477,-0.00869622,0.00175405,0.00116934,-0.00900808,0.175957,0.0064307,0.0209979,1161,1716,3.71463,-12.3274
-56,-692,3.66846,12.5933,0.000549894,-0.00745136,0.000372174,0.000567168,-0.00746864,0.046381,0.00517851,0.0385271,1168,1716,3.6684,-12.5932
-49,-692,3.63623,13.0332,0,0,0,0,0,0,0,-1,1175,1716,3.63628,-13.0332
-42,-692,3.71814,12.6254,0,0,0,0,0,0,0,-1,1182,1716,3.71812,-12.6253
-35,-692,3.72119,12.6409,0,0,0,0,0,0,0,-1,1189,1716,3.72115,-12.6408
-28,-692,3.65332,12.6204,0.00736422,-0.00164797,-0.00418817,0.00901001,-0.00329376,-0.374424,0.0073547,0.0392476,1196,1716,3.65337,-12.6204
-21,-692,3.79089,12.5933,0.00804976,-0.00230586,-0.00438997,0.00966029,-0.00391639,-0.35162,0.00806895,0.0248139,1203,1716,3.79095,-12.5933
-14,-692,3.80334,12.5917,0.00849061,-0.00359373,-0.0040825,0.00974054,-0.00484366,-0.297104,0.00857694,0.0145098,1210,1716,3.80334,-12.5916
-7,-692,3.78625,12.6477,0.00862675,-0.00492249,-0.00336185,0.00941504,-0.00571077,-0.230318,0.00881975,0.0150547,1217,1716,3.78621,-12.6477
0,-692,3.83887,12.6917,0.00835859,-0.00644948,-0.00245345,0.0087545,-0.00684539,-0.15999,0.00902905,0.0178312,1224,1716,3.83888,-12.6917
7,-692,3.88,12.6956,0.00748586,-0.0079055,-0.00131376,0.00759719,-0.00801683,-0.0845423,0.00901585,0.0214643,1231,1716,3.88,-12.6955
14,-692,3.98352,12.724,0.00633087,-0.00940401,-0.000279435,0.00633583,-0.00940897,-0.0177515,0.0091478,0.0231087,1238,1716,3.98347,-12.724
21,-692,4.01343,12.7405,0.00515094,-0.0108696,0.000447766,0.00516345,-0.0108821,0.0279205,0.00945797,0.0245005,1245,1716,4.01342,-12.7405
28,-692,3.92468,12.7545,0.00377493,-0.0122854,0.00123471,0.0038693,-0.0123797,0.0762824,0.00980091,0.0251806,1252,1716,3.92463,-12.7545
35,-692,3.91858,12.7906,0.0020978,-0.0137229,0.00185392,0.00231214,-0.0139373,0.115105,0.0101504,0.0236461,1259,1716,3.91852,-12.7906
42,-692,3.99158,12.8762,0.00069703,-0.0156312,0.00209073,0.000960483,-0.0158947,0.12535,0.0109307,0.0223199,1266,1716,3.99158,-12.8762
49,-692,4.00781,12.887,0.000103894,-0.0169573,0.00240293,0.000435865,-0.0172893,0.137284,0.0116742,0.0265249,1273,1716,4.00786,-12.887
56,-692,3.96667,12.8583,-0.000829536,-0.0179734,0.00307577,-0.000294418,-0.0185085,0.172255,0.0122421,0.0318077,1280,1716,3.96669,-12.8583
63,-692,4.00781,12.8726,-0.000479097,-0.0185931,0.00305683,2.285e-05,-0.0190951,0.162752,0.0127377,0.0293386,1287,1716,4.00784,-12.8725
70,-692,3.99475,12.8423,0.00155203,-0.019031,0.00311967,0.00201447,-0.0194935,0.147163,0.0137165,0.0245497,1294,1716,3.99474,-12.8423
77,-692,3.98962,12.8397,0.00340717,-0.0187467,0.00343507,0.00392757,-0.0192671,0.150353,0.0143344,0.0274705,1301,1716,3.9896,-12.8398
84,-692,4.04419,12.8022,0.00508298,-0.0186799,0.00399724,0.00573736,-0.0193342,0.162267,0.0151681,0.0328649,1308,1716,4.0442,-12.8022
91,-692,4.0011,12.8555,0.00743829,-0.0172558,0.00495839,0.0083967,-0.0182142,0.190936,0.0157084,0.0322104,1315,1716,4.0011,-12.8555
98,-692,3.93896,12.8806,0.00997802,-0.0150839,0.00638193,0.0115096,-0.0166155,0.235527,0.0163269,0.025851,1322,1716,3.93902,-12.8806
105,-692,3.95728,12.8414,0.0123625,-0.0130218,0.00771801,0.0145249,-0.0151842,0.273175,0.017154,0.0302587,1329,1716,3.95723,-12.8414
112,-692,4.07629,12.8167,0.0146965,-0.0104867,0.00916645,0.0176796,-0.0134699,0.314629,0.0180388,0.0343198,1336,1716,4.07624,-12.8166
119,-692,4.06824,12.8285,0.0167414,-0.00761193,0.0107404,0.0208013,-0.0116719,0.361405,0.0189938,0.03068,1343,1716,4.06821,-12.8285
126,-692,4.06726,12.8442,0.0184372,-0.00449417,0.0123252,0.0238052,-0.00986219,0.410756,0.0199858,0.0304978,1350,1716,4.06725,-12.8443
133,-692,4.13013,12.8311,0.0198625,-0.00129782,0.0136142,0.0265244,-0.00795964,0.455074,0.0208489,0.0237493,1357,1716,4.13009,-12.8311
140,-692,4.16492,12.8158,0.0208846,0.00182872,0.0145683,0.0287641,-0.00605071,0.4958,0.0214789,0.0268352,1364,1716,4.16489,-12.8158
147,-692,4.24353,12.8715,0.0211105,0.00454575,0.0150833,0.0300358,-0.00437957,0.534319,0.021632,0.0281992,1371,1716,4.24351,-12.8714
154,-692,4.21423,12.856,0.0203278,0.00668774,0.0148341,0.0298345,-0.00281901,0.569931,0.0208928,0.025145,1378,1716,4.21419,-12.8559
161,-692,4.3291,12.8,0.0186308,0.00831729,0.0139864,0.0283808,-0.00143276,0.608782,0.0194158,0.037662,1385,1716,4.32906,-12.8001
168,-692,4.45386,12.7832,0,0,0,0,0,0,0,-1,1392,1716,4.4538,-12.7832
175,-692,4.23779,12.7565,0,0,0,0,0,0,0,-1,1399,1716,4.23784,-12.7564
182,-692,4.22253,12.701,0,0,0,0,0,0,0,-1,1406,1716,4.22254,-12.701
189,-692,4.22778,12.6793,0,0,0,0,0,0,0,-1,1413,1716,4.22773,-12.6794
196,-692,4.21899,12.6377,0.00446879,0.00400384,0.00479129,0.00903325,-0.000560611,0.761157,0.00621746,0.0198157,1420,1716,4.21897,-12.6377
203,-692,4.21143,12.5916,0.000791651,-0.000484082,0.00169648,0.00196622,-0.00165865,0.605577,0.00209533,0.0144204,1427,1716,4.21145,-12.5916
210,-692,4.24902,12.5488,0.000606054,-0.0012754,0.00163533,0.00155193,-0.00222128,0.524387,0.00218986,0.016227,1434,1716,4.24908,-12.5488
217,-692,4.23804,12.4883,0.000354722,-0.00180129,0.00153,0.00114835,-0.00259492,0.478502,0.00221431,0.0163894,1441,1716,4.23799,-12.4883
224,-692,4.24744,12.4448,0.000231293,-0.00219971,0.00162694,0.00104665,-0.00301507,0.464574,0.0024351,0.0134237,1448,1716,4.24749,-12.4448
231,-692,4.26697,12.3984,0.000167862,-0.00207717,0.0017604,0.00113318,-0.00304249,0.501576,0.00249342,0.0115791,1455,1716,4.26693,-12.3985
238,-692,4.29785,12.2876,0.000205282,-0.0019924,0.00185108,0.00125911,-0.00304622,0.517541,0.00255607,0.0167678,1462,1716,4.29789,-12.2876
245,-692,4.28723,12.2114,7.92188e-05,-0.00186968,0.00191007,0.00124905,-0.00303951,0.549526,0.00254691,0.0198606,1469,1716,4.2872,-12.2114
252,-692,4.28101,12.176,-0.000182214,-0.00173083,0.0019384,0.00113081,-0.00304385,0.595379,0.00249317,0.0182586,1476,1716,4.28103,-12.1761
259,-692,4.27356,12.1322,-0.00046954,-0.00168326,0.00185873,0.000878891,-0.00303169,0.627608,0.00236907,0.00927045,1483,1716,4.27354,-12.1322
266,-692,4.26428,12.0552,-0.00080185,-0.00140236,0.00167459,0.00059919,-0.0028034,0.69669,0.00209739,0.00884748,1490,1716,4.26429,-12.0551
273,-692,4.26855,11.9634,-0.00116358,-0.000977591,0.00138847,0.00032099,-0.00246217,0.818837,0.00175824,0.0118069,1497,1716,4.26858,-11.9634
280,-692,4.27478,11.8923,-0.00156629,-0.000437822,0.000978377,0.000127361,-0.00213147,1.04696,0.00146528,0.0119585,1504,1716,4.2748,-11.8924
287,-692,4.27344,11.8357,-0.00197018,-0.000121916,0.000662455,9.09959e-05,-0.00218309,1.25983,0.00148665,0.0111194,1511,1716,4.27347,-11.8357
294,-692,4.27722,11.7572,-0.00222344,-6.85816e-05,0.000494753,3.95837e-05,-0.00233161,1.35556,0.00156776,0.0101153,1518,1716,4.27721,-11.7573
301,-692,4.28088,11.6825,-0.00227657,-0.000122006,0.000337225,-7.04583e-05,-0.00232812,1.41911,0.00152914,0.0125517,1525,1716,4.28085,-11.6825
308,-692,4.27795,11.6174,-0.00209397,-0.000194542,0.000146329,-0.000183336,-0.00210518,1.49436,0.00134651,0.0154293,1532,1716,4.27798,-11.6175
315,-692,4.30225,11.4987,-0.00163316,-8.29886e-05,-0.000161829,-6.62749e-05,-0.00164988,-1.46788,0.00107851,0.0147734,1539,1716,4.30221,-11.4987
322,-692,4.26746,11.3685,-0.00120709,-9.78059e-05,-0.000296847,-2.33644e-05,-0.00128153,-1.32509,0.000846671,0.0208889,1546,1716,4.2675,-11.3685
329,-692,4.26099,11.2717,-0.000691344,-0.00022,-0.000318655,-5.93356e-05,-0.000852008,-1.1038,0.000549296,0.0178557,1553,1716,4.26101,-11.2718
336,-692,4.27148,11.1794,-8.71249e-05,-0.000405265,-0.000296539,9.03146e-05,-0.000582704,-0.539219,0.00042181,0.0115663,1560,1716,4.27146,-11.1795
343,-692,4.29785,11.0813,0.000781452,-0.000594866,-0.000373443,0.00087625,-0.000689665,-0.248599,0.000906218,0.0120807,1567,1716,4.2978,-11.0812
350,-692,4.30811,10.9768,0.00174481,-0.000803078,-0.000603022,0.00188032,-0.000938591,-0.221051,0.0016575,0.0126928,1574,1716,4.30806,-10.9768
357,-692,4.3075,10.8931,0.00289659,-0.00120521,-0.00104825,0.00314895,-0.00145757,-0.236252,0.00271868,0.0166256,1581,1716,4.30744,-10.8931
364,-692,4.25342,10.7615,0.0048015,-0.00168131,-0.00212755,0.00543736,-0.00231716,-0.290419,0.0045963,0.0221752,1588,1716,4.25345,-10.7615
371,-692,4.28894,10.6001,0.00659586,-0.00203521,-0.00330232,0.00771439,-0.00315375,-0.326584,0.00645626,0.0326377,1595,1716,4.289,-10.6001
378,-692,4.16223,10.5668,0.00884574,-0.00271379,-0.0048691,0.0106233,-0.00449139,-0.350044,0.00896268,0.0409858,1602,1716,4.16227,-10.5667
385,-692,4.01245,10.5609,0.0114933,-0.00411531,-0.00662159,0.0139239,-0.00654588,-0.351797,0.0120714,0.0475825,1609,1716,4.01239,-10.5609
392,-692,4.09766,10.416,0,0,0,0,0,0,0,-1,1616,1716,4.09771,-10.416
399,-692,4.61426,10.3772,0,0,0,0,0,0,0,-1,1623,1716,4.61431,-10.3772
406,-692,4.73633,10.6808,0,0,0,0,0,0,0,-1,1630,1716,4.73637,-10.6808
413,-692,5.08484,10.4933,0,0,0,0,0,0,0,-1,1637,1716,5.08481,-10.4933
420,-692,5.48901,10.4845,0,0,0,0,0,0,0,-1,1644,1716,5.48906,-10.4845
427,-692,3.79578,8.60339,0,0,0,0,0,0,0,-1,1651,1716,3.79577,-8.6034
434,-692,4.78516,8.64636,0,0,0,0,0,0,0,-1,1658,1716,4.78512,-8.64634
441,-692,5.8208,8.74036,0,0,0,0,0,0,0,-1,1665,1716,5.82084,-8.7404
448,-692,6.73792,8.51013,0,0,0,0,0,0,0,-1,1672,1716,6.73793,-8.5101
455,-692,0,0,0,0,0,0,0,0,0,-1,1679,1716,0,0
462,-692,0,0,0,0,0,0,0,0,0,-1,1686,1716,0,0
469,-692,0,0,0,0,0,0,0,0,0,-1,1693,1716,0,0
476,-692,0,0,0,0,0,0,0,0,0,-1,1700,1716,0,0
483,-692,0,0,0,0,0,0,0,0,0,-1,1707,1716,0,0
490,-692,0,0,0,0,0,0,0,0,0,-1,1714,1716,0,0
497,-692,0,0,0,0,0,0,0,0,0,-1,1721,1716,0,0
504,-692,0,0,0,0,0,0,0,0,0,-1,1728,1716,0,0
511,-692,0,0,0,0,0,0,0,0,0,-1,1735,1716,0,0
518,-692,0,0,0,0,0,0,0,0,0,-1,1742,1716,0,0
525,-692,0,0,0,0,0,0,0,0,0,-1,1749,1716,0,0
532,-692,0,0,0,0,0,0,0,0,0,-1,1756,1716,0,0
539,-692,0,0,0,0,0,0,0,0,0,-1,1763,1716,0,0
546,-692,0,0,0,0,0,0,0,0,0,-1,1770,1716,0,0
553,-692,0,0,0,0,0,0,0,0,0,-1,1777,1716,0,0
560,-692,0,0,0,0,0,0,0,0,0,-1,1784,1716,0,0
567,-692,0,0,0,0,0,0,0,0,0,-1,1791,1716,0,0
574,-692,0,0,0,0,0,0,0,0,0,-1,1798,1716,0,0
581,-692,0,0,0,0,0,0,0,0,0,-1,1805,1716,0,0
588,-692,0,0,0,0,0,0,0,0,0,-1,1812,1716,0,0
595,-692,0,0,0,0,0,0,0,0,0,-1,1819,1716,0,0
602,-692,0,0,0,0,0,0,0,0,0,-1,1826,1716,0,0
609,-692,0,0,0,0,0,0,0,0,0,-1,1833,1716,0,0
616,-692,0,0,0,0,0,0,0,0,0,-1,1840,1716,0,0
623,-692,0,0,0,0,0,0,0,0,0,-1,1847,1716,0,0
630,-692,0,0,0,0,0,0,0,0,0,-1,1854,1716,0,0
637,-692,0,0,0,0,0,0,0,0,0,-1,1861,1716,0,0
644,-692,0,0,0,0,0,0,0,0,0,-1,1868,1716,0,0
651,-692,0,0,0,0,0,0,0,0,0,-1,1875,1716,0,0
658,-692,0,0,0,0,0,0,0,0,0,-1,1882,1716,0,0
665,-692,0,0,0,0,0,0,0,0,0,-1,1889,1716,0,0
672,-692,0,0,0,0,0,0,0,0,0,-1,1896,1716,0,0
679,-692,0,0,0,0,0,0,0,0,0,-1,1903,1716,0,0
686,-692,0,0,0,0,0,0,0,0,0,-1,1910,1716,0,0
693,-692,0,0,0,0,0,0,0,0,0,-1,1917,1716,0,0
700,-692,0,0,0,0,0,0,0,0,0,-1,1924,1716,0,0
707,-692,0,0,0,0,0,0,0,0,0,-1,1931,1716,0,0
714,-692,0,0,0,0,0,0,0,0,0,-1,1938,1716,0,0
721,-692,0,0,0,0,0,0,0,0,0,-1,1945,1716,0,0
728,-692,0,0,0,0,0,0,0,0,0,-1,1952,1716,0,0
735,-692,0,0,0,0,0,0,0,0,0,-1,1959,1716,0,0
742,-692,0,0,0,0,0,0,0,0,0,-1,1966,1716,0,0
749,-692,0,0,0,0,0,0,0,0,0,-1,1973,1716,0,0
756,-692,0,0,0,0,0,0,0,0,0,-1,1980,1716,0,0
763,-692,0,0,0,0,0,0,0,0,0,-1,1987,1716,0,0
770,-692,0,0,0,0,0,0,0,0,0,-1,1994,1716,0,0
777,-692,0,0,0,0,0,0,0,0,0,-1,2001,1716,0,0
784,-692,0,0,0,0,0,0,0,0,0,-1,2008,1716,0,0
791,-692,0,0,0,0,0,0,0,0,0,-1,2015,1716,0,0
798,-692,0,0,0,0,0,0,0,0,0,-1,2022,1716,0,0
805,-692,0,0,0,0,0,0,0,0,0,-1,2029,1716,0,0
812,-692,0,0,0,0,0,0,0,0,0,-1,2036,1716,0,0
-700,-699,0,0,0,0,0,0,0,0,0,-1,524,1723,0,0
-693,-699,0,0,0,0,0,0,0,0,0,-1,531,1723,0,0
-686,-699,0,0,0,0,0,0,0,0,0,-1,538,1723,0,0
-679,-699,0,0,0,0,0,0,0,0,0,-1,545,1723,0,0
-672,-699,0,0,0,0,0,0,0,0,0,-1,552,1723,0,0
-665,-699,0,0,0,0,0,0,0,0,0,-1,559,1723,0,0
-658,-699,0,0,0,0,0,0,0,0,0,-1,566,1723,0,0
-651,-699,0,0,0,0,0,0,0,0,0,-1,573,1723,0,0
-644,-699,0,0,0,0,0,0,0,0,0,-1,580,1723,0,0
-637,-699,0,0,0,0,0,0,0,0,0,-1,587,1723,0,0
-630,-699,0,0,0,0,0,0,0,0,0,-1,594,1723,0,0
-623,-699,0,0,0,0,0,0,0,0,0,-1,601,1723,0,0
-616,-699,0,0,0,0,0,0,0,0,0,-1,608,1723,0,0
-609,-699,0,0,0,0,0,0,0,0,0,-1,615,1723,0,0
-602,-699,0,0,0,0,0,0,0,0,0,-1,622,1723,0,0
-595,-699,0,0,0,0,0,0,0,0,0,-1,629,1723,0,0
-588,-699,0,0,0,0,0,0,0,0,0,-1,636,1723,0,0
-581,-699,0,0,0,0,0,0,0,0,0,-1,643,1723,0,0
-574,-699,0,0,0,0,0,0,0,0,0,-1,650,1723,0,0
-567,-699,0,0,0,0,0,0,0,0,0,-1,657,1723,0,0
-560,-699,0,0,0,0,0,0,0,0,0,-1,664,1723,0,0
-553,-699,0,0,0,0,0,0,0,0,0,-1,671,1723,0,0
-546,-699,0,0,0,0,0,0,0,0,0,-1,678,1723,0,0
-539,-699,0,0,0,0,0,0,0,0,0,-1,685,1723,0,0
-532,-699,0,0,0,0,0,0,0,0,0,-1,692,1723,0,0
-525,-699,0,0,0,0,0,0,0,0,0,-1,699,1723,0,0
-518,-699,0,0,0,0,0,0,0,0,0,-1,706,1723,0,0
-511,-699,0,0,0,0,0,0,0,0,0,-1,713,1723,0,0
-504,-699,0,0,0,0,0,0,0,0,0,-1,720,1723,0,0
-497,-699,0,0,0,0,0,0,0,0,0,-1,727,1723,0,0
-490,-699,0,0,0,0,0,0,0,0,0,-1,734,1723,0,0
-483,-699,0,0,0,0,0,0,0,0,0,-1,741,1723,0,0
-476,-699,0,0,0,0,0,0,0,0,0,-1,748,1723,0,0
-469,-699,0,0,0,0,0,0,0,0,0,-1,755,1723,0,0
-462,-699,0,0,0,0,0,0,0,0,0,-1,762,1723,0,0
-455,-699,0,0,0,0,0,0,0,0,0,-1,769,1723,0,0
-448,-699,0,0,0,0,0,0,0,0,0,-1,776,1723,0,0
-441,-699,0,0,0,0,0,0,0,0,0,-1,783,1723,0,0
-434,-699,0,0,0,0,0,0,0,0,0,-1,790,1723,0,0
-427,-699,0,0,0,0,0,0,0,0,0,-1,797,1723,0,0
-420,-699,0,0,0,0,0,0,0,0,0,-1,804,1723,0,0
-413,-699,0,0,0,0,0,0,0,0,0,-1,811,1723,0,0
-406,-699,0,0,0,0,0,0,0,0,0,-1,818,1723,0,0
-399,-699,0,0,0,0,0,0,0,0,0,-1,825,1723,0,0
-392,-699,0,0,0,0,0,0,0,0,0,-1,832,1723,0,0
-385,-699,0,0,0,0,0,0,0,0,0,-1,839,1723,0,0
-378,-699,0,0,0,0,0,0,0,0,0,-1,846,1723,0,0
-371,-699,0,0,0,0,0,0,0,0,0,-1,853,1723,0,0
-364,-699,0,0,0,0,0,0,0,0,0,-1,860,1723,0,0
-357,-699,0,0,0,0,0,0,0,0,0,-1,867,1723,0,0
-350,-699,0,0,0,0,0,0,0,0,0,-1,874,1723,0,0
-343,-699,0,0,0,0,0,0,0,0,0,-1,881,1723,0,0
-336,-699,0,0,0,0,0,0,0,0,0,-1,888,1723,0,0
-329,-699,0,0,0,0,0,0,0,0,0,-1,895,1723,0,0
-322,-699,0,0,0,0,0,0,0,0,0,-1,902,1723,0,0
-315,-699,4.04999,18.0442,0,0,0,0,0,0,0,-1,909,1723,4.05,-18.0441
-308,-699,3.90009,15.5801,0.0113264,-0.0075538,-0.165987,0.168142,-0.164369,-0.756992,0.191979,0.0481944,916,1723,3.90009,-15.58
-301,-699,3.60675,13.3552,0.0165576,-0.00538097,-0.144722,0.150726,-0.139549,-0.747573,0.167632,0.0462115,923,1723,3.60674,-13.3552
-294,-699,3.50684,11.3741,0.0203077,-0.0025872,-0.125119,0.134502,-0.116781,-0.739779,0.145198,0.0462399,930,1723,3.50681,-11.3741
-287,-699,3.27252,8.95618,0,0,0,0,0,0,0,-1,937,1723,3.27252,-8.95614
-280,-699,3.53741,8.85498,0.0196778,0.00256497,-0.090811,0.102335,-0.0800918,-0.738426,0.105585,0.0475572,944,1723,3.53742,-8.85499
-273,-699,3.78418,8.73816,0.0164126,0.000119094,-0.0757313,0.0844341,-0.0679024,-0.731817,0.0881239,0.0440032,951,1723,3.78416,-8.73816
-266,-699,4.02124,8.62122,0,0,0,0,0,0,0,-1,958,1723,4.02122,-8.62122
-259,-699,4.31854,8.52515,0,0,0,0,0,0,0,-1,965,1723,4.31852,-8.52512
-252,-699,5.38702,8.3197,0,0,0,0,0,0,0,-1,972,1723,5.38703,-8.31971
-245,-699,3.85748,9.8772,0,0,0,0,0,0,0,-1,979,1723,3.85749,-9.87718
-238,-699,3.95038,10.0286,0,0,0,0,0,0,0,-1,986,1723,3.95036,-10.0286
-231,-699,3.75116,9.94983,0.00271222,-0.00330281,-0.0209001,0.0208201,-0.0214107,-0.713939,0.0243828,0.0440057,993,1723,3.75116,-9.94987
-224,-699,3.71863,10.1104,0.00128525,-0.0035766,-0.0189484,0.017958,-0.0202493,-0.721601,0.0220722,0.0371608,1000,1723,3.71864,-10.1104
-217,-699,3.73041,10.2888,0.000320026,-0.00464026,-0.0167756,0.0147979,-0.0191181,-0.712009,0.0196343,0.0255922,1007,1723,3.7304,-10.2888
-210,-699,3.79749,10.3704,0.000434332,-0.00387653,-0.0143941,0.0128335,-0.0162757,-0.711078,0.0168453,0.017466,1014,1723,3.79751,-10.3704
-203,-699,3.79797,10.4904,0.000675575,-0.00279902,-0.0118335,0.0108986,-0.0130221,-0.712513,0.0138287,0.0203119,1021,1723,3.79793,-10.4903
-196,-699,3.7782,10.6083,0.000853931,-0.00167934,-0.00940802,0.00908019,-0.00990561,-0.718484,0.0109649,0.0172335,1028,1723,3.77817,-10.6083
-189,-699,3.7301,10.7542,0.000792744,-0.000674476,-0.00736016,0.00745577,-0.0073375,-0.735726,0.00854099,0.00922041,1035,1723,3.73007,-10.7541
-182,-699,3.7323,10.8608,0.000715846,0.000174534,-0.00556479,0.00601656,-0.00512618,-0.761099,0.0064401,0.0118658,1042,1723,3.73225,-10.8608
-175,-699,3.7395,10.973,0.000797479,0.000508769,-0.0035665,0.00422255,-0.0029163,-0.765172,0.00414455,0.0136121,1049,1723,3.73949,-10.973
-168,-699,3.75867,11.0645,0.000677175,0.00180557,-0.002042,0.00335989,-0.00087714,-0.920184,0.00258245,0.014505,1056,1723,3.75863,-11.0645
-161,-699,3.76135,11.1763,0.000516294,0.00177137,-0.00111224,0.00242089,-0.000133227,-1.04224,0.00166012,0.0128797,1063,1723,3.76131,-11.1763
-154,-699,3.73669,11.2863,0.000656378,0.00203601,-0.00056789,0.0022397,0.000452693,-1.22642,0.00136744,0.0127516,1070,1723,3.73669,-11.2862
-147,-699,3.72046,11.3867,0.000762878,0.00181967,-0.000397153,0.00195229,0.000630265,-1.24853,0.0011505,0.0151015,1077,1723,3.7205,-11.3867
-140,-699,3.70654,11.4689,0.000906347,0.00129935,-0.000156843,0.00135427,0.000851428,-1.23399,0.000790476,0.010715,1084,1723,3.70658,-11.4689
-133,-699,3.71716,11.5728,0.00105747,0.000620504,-3.43901e-05,0.00106016,0.000617814,-0.078061,0.000614873,0.00951795,1091,1723,3.71721,-11.5728
-126,-699,3.72852,11.6503,0.00117526,-7.93549e-05,0.000155146,0.00119416,-9.82555e-05,0.121227,0.0008308,0.0116411,1098,1723,3.72853,-11.6503
-119,-699,3.73328,11.7313,0.00131003,-0.000854434,0.000467566,0.00140671,-0.000951118,0.203909,0.00136974,0.0166256,1105,1723,3.73333,-11.7313
-112,-699,3.72644,11.8177,0.00145945,-0.00187705,0.000781983,0.00163363,-0.00205123,0.219166,0.002132,0.0111934,1112,1723,3.72644,-11.8178
-105,-699,3.72205,11.8987,0.00147024,-0.00278619,0.00109566,0.00173572,-0.00305166,0.237719,0.00279859,0.0120824,1119,1723,3.72211,-11.8987
-98,-699,3.74805,11.9799,0.00137937,-0.00379718,0.00138001,0.00172428,-0.00414209,0.244918,0.00348152,0.0145164,1126,1723,3.74804,-11.9799
-91,-699,3.75793,12.0314,0.00123118,-0.00463781,0.00164907,0.00166279,-0.00506942,0.255989,0.00404933,0.018875,1133,1723,3.75793,-12.0314
-84,-699,3.74902,12.1019,0.00107735,-0.00526918,0.00185778,0.00158117,-0.00577301,0.264826,0.00446994,0.0210526,1140,1723,3.74908,-12.1019
-77,-699,3.77234,12.2098,0.00100543,-0.00558753,0.00188258,0.00150512,-0.00608722,0.259444,0.00464191,0.0153128,1147,1723,3.7723,-12.2099
-70,-699,3.77051,12.2784,0.000990841,-0.00573634,0.0017356,0.00141223,-0.00615772,0.238181,0.00464796,0.0162957,1154,1723,3.77056,-12.2785
-63,-699,3.76367,12.3374,0.000968347,-0.00513465,0.00132207,0.00124243,-0.00540873,0.20442,0.00408346,0.0133458,1161,1723,3.76371,-12.3373
-56,-699,3.75696,12.3909,0.00101374,-0.00447384,0.000677512,0.00109615,-0.00455625,0.121041,0.00346123,0.00987105,1168,1723,3.75693,-12.3908
-49,-699,3.75757,12.4614,0.00312724,-0.00372665,-0.000561539,0.00317295,-0.00377235,-0.0812083,0.00401484,0.0210864,1175,1723,3.75758,-12.4614
-42,-699,3.7616,12.5498,0.00501033,-0.00320448,-0.00107105,0.00514768,-0.00334183,-0.127541,0.00493824,0.0230616,1182,1723,3.76157,-12.5498
-35,-699,3.76074,12.5822,0.00550194,-0.00200564,-0.00142302,0.00576261,-0.00226631,-0.181175,0.00477976,0.0217296,1189,1723,3.76076,-12.5821
-28,-699,3.80737,12.6014,0.0058394,-0.00170137,-0.0016868,0.00619953,-0.00206149,-0.210337,0.00496495,0.0174525,1196,1723,3.80743,-12.6014
-21,-699,3.82593,12.6061,0.00632679,-0.00242508,-0.00177634,0.00667358,-0.00277187,-0.192805,0.00560628,0.0127842,1203,1723,3.82591,-12.6061
-14,-699,3.81885,12.6448,0.00662392,-0.00357143,-0.00156594,0.00685902,-0.00380652,-0.149018,0.00624125,0.0116219,1210,1723,3.81891,-12.6448
-7,-699,3.81372,12.7052,0.00667856,-0.00468858,-0.00111693,0.00678727,-0.00479729,-0.0970233,0.00672116,0.00824451,1217,1723,3.81377,-12.7052
0,-699,3.8396,12.7456,0.00641532,-0.00595476,-0.000547763,0.00643953,-0.00597897,-0.0441661,0.00717147,0.00964201,1224,1723,3.83958,-12.7456
7,-699,3.86719,12.7747,0.00568599,-0.00711697,0.000193609,0.00568892,-0.00711989,0.0151176,0.00741054,0.0153452,1231,1723,3.8672,-12.7746
14,-699,3.89197,12.8092,0.00476358,-0.00827916,0.00084722,0.00481838,-0.00833396,0.0645954,0.0076834,0.0169094,1238,1723,3.892,-12.8092
21,-699,3.91113,12.8318,0.00375394,-0.00941064,0.00131363,0.00388374,-0.00954044,0.0984915,0.00797653,0.0162258,1245,1723,3.91109,-12.8317
28,-699,3.88599,12.838,0.00256783,-0.0105087,0.00179427,0.00280956,-0.0107504,0.133916,0.00826421,0.0158831,1252,1723,3.88604,-12.838
35,-699,3.91431,12.8666,0.00124327,-0.0115917,0.00214518,0.00159231,-0.0119408,0.161297,0.0085409,0.0137941,1259,1723,3.91426,-12.8666
42,-699,3.95435,12.8969,4.12448e-05,-0.0129671,0.00214477,0.000385745,-0.0133116,0.159263,0.00900573,0.0125229,1266,1723,3.95435,-12.8969
49,-699,3.96106,12.9126,-0.000513326,-0.0139514,0.0021791,-0.000168798,-0.0142959,0.156808,0.00947483,0.0145445,1273,1723,3.96105,-12.9125
56,-699,3.97815,12.9331,-0.00115332,-0.0147176,0.00244582,-0.000725782,-0.0151452,0.173055,0.00986375,0.0151284,1280,1723,3.97812,-12.9332
63,-699,4.00122,12.9397,-0.000909538,-0.0152457,0.00234823,-0.000534703,-0.0156206,0.158289,0.0102401,0.0120846,1287,1723,4.00128,-12.9397
70,-699,3.99512,12.9471,0.000446684,-0.0156019,0.00233566,0.000779697,-0.0159349,0.141624,0.0108925,0.00961442,1294,1723,3.9951,-12.9472
77,-699,3.98535,12.949,0.00172904,-0.0154728,0.00246652,0.00207572,-0.0158194,0.13964,0.0113019,0.00986152,1301,1723,3.98533,-12.949
84,-699,3.98694,12.9353,0.00293335,-0.0155065,0.00283004,0.00335791,-0.0159311,0.148909,0.011899,0.0130001,1308,1723,3.98695,-12.9353
91,-699,4.01331,12.9341,0.00470135,-0.0143838,0.00358789,0.00535356,-0.015036,0.179818,0.0122064,0.012784,1315,1723,4.01334,-12.9341
98,-699,4.03552,12.9413,0.00662261,-0.0126106,0.00480706,0.00775714,-0.0137452,0.231772,0.0125738,0.0108812,1322,1723,4.03552,-12.9413
105,-699,4.04272,12.9409,0.00837384,-0.0109756,0.00588041,0.0100208,-0.0126225,0.273072,0.0131018,0.0150483,1329,1723,4.0427,-12.9409
112,-699,4.07568,12.9514,0.0101004,-0.0089372,0.0070893,0.0124502,-0.0112871,0.320073,0.0137102,0.0203628,1336,1723,4.07574,-12.9515
119,-699,4.07239,12.9362,0.0115924,-0.00661225,0.00844129,0.0149041,-0.00992394,0.373868,0.0144303,0.0147893,1343,1723,4.07235,-12.9361
126,-699,4.08069,12.8976,0.0128148,-0.0040436,0.00979458,0.0173079,-0.00853667,0.43009,0.0152051,0.0169785,1350,1723,4.08064,-12.8975
133,-699,4.09485,12.8918,0.0138168,-0.00139967,0.0109581,0.0195489,-0.00713178,0.481952,0.0159505,0.015462,1357,1723,4.09479,-12.8919
140,-699,4.11536,12.8733,0.0144928,0.00119662,0.0118686,0.0214484,-0.00575898,0.5301,0.0165559,0.0157121,1364,1723,4.11539,-12.8733
147,-699,4.11951,12.8613,0.0145465,0.00349257,0.0124157,0.0226098,-0.00457075,0.575987,0.0168053,0.0136479,1371,1723,4.11953,-12.8613
154,-699,4.09985,12.8409,0.0137673,0.00536929,0.0123093,0.0225741,-0.00343746,0.621024,0.0163164,0.012604,1378,1723,4.09984,-12.841
161,-699,4.1228,12.8022,0.0122928,0.00674352,0.0116258,0.0214705,-0.00243419,0.668258,0.0151902,0.009172,1385,1723,4.12281,-12.8023
168,-699,4.1355,12.7837,0.0105414,0.00757859,0.0105721,0.0197353,-0.00161536,0.71579,0.013727,0.0108104,1392,1723,4.13549,-12.7837
175,-699,4.15588,12.7622,0.00877416,0.00726023,0.00912789,0.0171764,-0.00114203,0.744028,0.01185,0.0129854,1399,1723,4.15588,-12.7623
182,-699,4.16589,12.7213,0.00694923,0.00637613,0.00742584,0.014094,-0.000768686,0.766114,0.00966246,0.0140665,1406,1723,4.16595,-12.7213
189,-699,4.15771,12.6736,0.00514651,0.00585429,0.00557186,0.0110835,-8.26889e-05,0.817113,0.00741671,0.0163804,1413,1723,4.15777,-12.6736
196,-699,4.15491,12.6234,0.00259427,0.00291347,0.00328022,0.00603797,-0.000530223,0.809707,0.00421319,0.015303,1420,1723,4.15493,-12.6234
203,-699,4.17151,12.5813,0.000546418,1.84912e-06,0.000963165,0.00127505,-0.000726779,0.647644,0.00117011,0.0127795,1427,1723,4.17145,-12.5814
210,-699,4.19153,12.5459,0.000428651,-0.000502053,0.000921005,0.000995192,-0.00106859,0.551473,0.00119178,0.0134302,1434,1723,4.19153,-12.5459
217,-699,4.19653,12.5002,0.000269085,-0.000860585,0.000848105,0.00072323,-0.00131473,0.491629,0.00119302,0.0142188,1441,1723,4.19657,-12.5003
224,-699,4.20044,12.4478,0.000191024,-0.00116555,0.000904225,0.000643088,-0.00161762,0.463605,0.00134504,0.0153118,1448,1723,4.20049,-12.4477
231,-699,4.21423,12.3846,0.00016846,-0.00122322,0.000998351,0.000689542,-0.0017443,0.481048,0.0014485,0.0111409,1455,1723,4.21428,-12.3846
238,-699,4.20959,12.3146,0.000121101,-0.00124999,0.00103285,0.000675209,-0.0018041,0.492409,0.00148007,0.00983414,1462,1723,4.20955,-12.3145
245,-699,4.2135,12.243,-0.00014118,-0.00124171,0.00103235,0.000478398,-0.00186129,0.54054,0.00142731,0.0115013,1469,1723,4.21347,-12.2431
252,-699,4.19946,12.1954,-0.000584105,-0.00118245,0.000939038,0.000102267,-0.00186882,0.631185,0.00128133,0.0105097,1476,1723,4.19949,-12.1954
259,-699,4.19153,12.1439,-0.00117601,-0.00113921,0.000770471,-0.00038692,-0.0019283,0.797334,0.00117794,0.0107219,1483,1723,4.19153,-12.1439
266,-699,4.19385,12.0669,-0.00195702,-0.000982996,0.000562152,-0.000726237,-0.00221378,1.14235,0.00130307,0.0121083,1490,1723,4.1939,-12.0669
273,-699,4.21021,11.9747,-0.00285321,-0.000670148,0.000285569,-0.00063341,-0.00288995,1.44285,0.00175404,0.0112494,1497,1723,4.21023,-11.9748
280,-699,4.20752,11.892,-0.00377077,-0.000258374,-7.84723e-05,-0.000256622,-0.00377252,-1.54847,0.00243399,0.0119073,1504,1723,4.20749,-11.8919
287,-699,4.19861,11.8118,-0.00463634,-9.8757e-06,-0.000305208,1.01719e-05,-0.00465639,-1.50521,0.00310766,0.0106711,1511,1723,4.19858,-11.8117
294,-699,4.20557,11.7222,-0.00520278,-6.60012e-05,-0.000327049,-4.52625e-05,-0.00522351,-1.50747,0.00346735,0.0105726,1518,1723,4.20557,-11.7221
301,-699,4.21057,11.6725,-0.00537185,-0.000222189,-0.000347142,-0.000198894,-0.00539514,-1.50379,0.00353233,0.011658,1525,1723,4.21057,-11.6725
308,-699,4.22229,11.6152,-0.00507266,-0.000366398,-0.000440988,-0.000325433,-0.00511362,-1.47817,0.00330595,0.0164544,1532,1723,4.22225,-11.6152
315,-699,4.22925,11.4957,-0.00428483,-0.000251912,-0.000736158,-0.000121737,-0.00441501,-1.39578,0.00290361,0.0193842,1539,1723,4.22927,-11.4958
322,-699,4.20386,11.3802,-0.00349542,-0.000299409,-0.000798406,-0.000111056,-0.00368377,-1.33912,0.00241968,0.0210134,1546,1723,4.20383,-11.3802
329,-699,4.17358,11.2675,-0.0024719,-0.00048311,-0.000724085,-0.000247415,-0.00270759,-1.25611,0.0017285,0.0159435,1553,1723,4.17359,-11.2675
336,-699,4.18274,11.1625,-0.00107007,-0.000671348,-0.000634972,-0.000205177,-0.00153624,-0.93751,0.000963083,0.0133779,1560,1723,4.18277,-11.1624
343,-699,4.20764,11.0663,0.000746402,-0.000939235,-0.000723957,0.00101464,-0.00120748,-0.35484,0.00128455,0.0182415,1567,1723,4.20766,-11.0662
350,-699,4.20667,10.9806,0.0026601,-0.00114885,-0.00105534,0.00293295,-0.00142171,-0.253007,0.00256413,0.0273808,1574,1723,4.20662,-10.9806
357,-699,4.12976,10.9032,0.00428051,-0.00165553,-0.00159649,0.00468264,-0.00205766,-0.246752,0.00398867,0.0381605,1581,1723,4.12974,-10.9031
364,-699,4.15234,10.6985,0.00681492,-0.00223064,-0.00290959,0.00766999,-0.0030857,-0.285832,0.00639505,0.0417133,1588,1723,4.15228,-10.6985
371,-699,4.19604,10.5167,0.00922247,-0.00249509,-0.00449458,0.0107479,-0.00402052,-0.327194,0.0088165,0.0464768,1595,1723,4.19611,-10.5167
378,-699,4.08289,10.4836,0,0,0,0,0,0,0,-1,1602,1723,4.08288,-10.4837
385,-699,3.72693,10.6345,0,0,0,0,0,0,0,-1,1609,1723,3.72694,-10.6345
392,-699,3.52039,9.8374,0,0,0,0,0,0,0,-1,1616,1723,3.52036,-9.83746
399,-699,3.91516,9.81726,0,0,0,0,0,0,0,-1,1623,1723,3.9152,-9.81721
406,-699,3.91016,10.458,0,0,0,0,0,0,0,-1,1630,1723,3.91015,-10.458
413,-699,4.92773,3.5918,0,0,0,0,0,0,0,-1,1637,1723,4.92777,-3.59182
420,-699,2.15076,7.65527,0,0,0,0,0,0,0,-1,1644,1723,2.15079,-7.65522
427,-699,3.36328,8.2428,0,0,0,0,0,0,0,-1,1651,1723,3.36332,-8.24283
434,-699,4.66455,8.90222,0,0,0,0,0,0,0,-1,1658,1723,4.66456,-8.90223
441,-699,0,0,0,0,0,0,0,0,0,-1,1665,1723,0,0
448,-699,0,0,0,0,0,0,0,0,0,-1,1672,1723,0,0
455,-699,0,0,0,0,0,0,0,0,0,-1,1679,1723,0,0
462,-699,0,0,0,0,0,0,0,0,0,-1,1686,1723,0,0
469,-699,0,0,0,0,0,0,0,0,0,-1,1693,1723,0,0
476,-699,0,0,0,0,0,0,0,0,0,-1,1700,1723,0,0
483,-699,0,0,0,0,0,0,0,0,0,-1,1707,1723,0,0
490,-699,0,0,0,0,0,0,0,0,0,-1,1714,1723,0,0
497,-699,0,0,0,0,0,0,0,0,0,-1,1721,1723,0,0
504,-699,0,0,0,0,0,0,0,0,0,-1,1728,1723,0,0
511,-699,0,0,0,0,0,0,0,0,0,-1,1735,1723,0,0
518,-699,0,0,0,0,0,0,0,0,0,-1,1742,1723,0,0
525,-699,0,0,0,0,0,0,0,0,0,-1,1749,1723,0,0
532,-699,0,0,0,0,0,0,0,0,0,-1,1756,1723,0,0
539,-699,0,0,0,0,0,0,0,0,0,-1,1763,1723,0,0
546,-699,0,0,0,0,0,0,0,0,0,-1,1770,1723,0,0
553,-699,0,0,0,0,0,0,0,0,0,-1,1777,1723,0,0
560,-699,0,0,0,0,0,0,0,0,0,-1,1784,1723,0,0
567,-699,0,0,0,0,0,0,0,0,0,-1,1791,1723,0,0
574,-699,0,0,0,0,0,0,0,0,0,-1,1798,1723,0,0
581,-699,0,0,0,0,0,0,0,0,0,-1,1805,1723,0,0
588,-699,0,0,0,0,0,0,0,0,0,-1,1812,1723,0,0
595,-699,0,0,0,0,0,0,0,0,0,-1,1819,1723,0,0
602,-699,0,0,0,0,0,0,0,0,0,-1,1826,1723,0,0
609,-699,0,0,0,0,0,0,0,0,0,-1,1833,1723,0,0
616,-699,0,0,0,0,0,0,0,0,0,-1,1840,1723,0,0
623,-699,0,0,0,0,0,0,0,0,0,-1,1847,1723,0,0
630,-699,0,0,0,0,0,0,0,0,0,-1,1854,1723,0,0
637,-699,0,0,0,0,0,0,0,0,0,-1,1861,1723,0,0
644,-699,0,0,0,0,0,0,0,0,0,-1,1868,1723,0,0
651,-699,0,0,0,0,0,0,0,0,0,-1,1875,1723,0,0
658,-699,0,0,0,0,0,0,0,0,0,-1,1882,1723,0,0
665,-699,0,0,0,0,0,0,0,0,0,-1,1889,1723,0,0
672,-699,0,0,0,0,0,0,0,0,0,-1,1896,1723,0,0
679,-699,0,0,0,0,0,0,0,0,0,-1,1903,1723,0,0
686,-699,0,0,0,0,0,0,0,0,0,-1,1910,1723,0,0
693,-699,0,0,0,0,0,0,0,0,0,-1,1917,1723,0,0
700,-699,0,0,0,0,0,0,0,0,0,-1,1924,1723,0,0
707,-699,0,0,0,0,0,0,0,0,0,-1,1931,1723,0,0
714,-699,0,0,0,0,0,0,0,0,0,-1,1938,1723,0,0
721,-699,0,0,0,0,0,0,0,0,0,-1,1945,1723,0,0
728,-699,0,0,0,0,0,0,0,0,0,-1,1952,1723,0,0
735,-699,0,0,0,0,0,0,0,0,0,-1,1959,1723,0,0
742,-699,0,0,0,0,0,0,0,0,0,-1,1966,1723,0,0
749,-699,0,0,0,0,0,0,0,0,0,-1,1973,1723,0,0
756,-699,0,0,0,0,0,0,0,0,0,-1,1980,1723,0,0
763,-699,0,0,0,0,0,0,0,0,0,-1,1987,1723,0,0
770,-699,0,0,0,0,0,0,0,0,0,-1,1994,1723,0,0
777,-699,0,0,0,0,0,0,0,0,0,-1,2001,1723,0,0
784,-699,0,0,0,0,0,0,0,0,0,-1,2008,1723,0,0
791,-699,0,0,0,0,0,0,0,0,0,-1,2015,1723,0,0
798,-699,0,0,0,0,0,0,0,0,0,-1,2022,1723,0,0
805,-699,0,0,0,0,0,0,0,0,0,-1,2029,1723,0,0
812,-699,0,0,0,0,0,0,0,0,0,-1,2036,1723,0,0
-700,-706,0,0,0,0,0,0,0,0,0,-1,524,1730,0,0
-693,-706,0,0,0,0,0,0,0,0,0,-1,531,1730,0,0
-686,-706,0,0,0,0,0,0,0,0,0,-1,538,1730,0,0
-679,-706,0,0,0,0,0,0,0,0,0,-1,545,1730,0,0
-672,-706,0,0,0,0,0,0,0,0,0,-1,552,1730,0,0
-665,-706,0,0,0,0,0,0,0,0,0,-1,559,1730,0,0
-658,-706,0,0,0,0,0,0,0,0,0,-1,566,1730,0,0
-651,-706,0,0,0,0,0,0,0,0,0,-1,573,1730,0,0
-644,-706,0,0,0,0,0,0,0,0,0,-1,580,1730,0,0
-637,-706,0,0,0,0,0,0,0,0,0,-1,587,1730,0,0
-630,-706,0,0,0,0,0,0,0,0,0,-1,594,1730,0,0
-623,-706,0,0,0,0,0,0,0,0,0,-1,601,1730,0,0
-616,-706,0,0,0,0,0,0,0,0,0,-1,608,1730,0,0
-609,-706,0,0,0,0,0,0,0,0,0,-1,615,1730,0,0
-602,-706,0,0,0,0,0,0,0,0,0,-1,622,1730,0,0
-595,-706,0,0,0,0,0,0,0,0,0,-1,629,1730,0,0
-588,-706,0,0,0,0,0,0,0,0,0,-1,636,1730,0,0
-581,-706,0,0,0,0,0,0,0,0,0,-1,643,1730,0,0
-574,-706,0,0,0,0,0,0,0,0,0,-1,650,1730,0,0
-567,-706,0,0,0,0,0,0,0,0,0,-1,657,1730,0,0
-560,-706,0,0,0,0,0,0,0,0,0,-1,664,1730,0,0
-553,-706,0,0,0,0,0,0,0,0,0,-1,671,1730,0,0
-546,-706,0,0,0,0,0,0,0,0,0,-1,678,1730,0,0
-539,-706,0,0,0,0,0,0,0,0,0,-1,685,1730,0,0
-532,-706,0,0,0,0,0,0,0,0,0,-1,692,1730,0,0
-525,-706,0,0,0,0,0,0,0,0,0,-1,699,1730,0,0
-518,-706,0,0,0,0,0,0,0,0,0,-1,706,1730,0,0
-511,-706,0,0,0,0,0,0,0,0,0,-1,713,1730,0,0
-504,-706,0,0,0,0,0,0,0,0,0,-1,720,1730,0,0
-497,-706,0,0,0,0,0,0,0,0,0,-1,727,1730,0,0
-490,-706,0,0,0,0,0,0,0,0,0,-1,734,1730,0,0
-483,-706,0,0,0,0,0,0,0,0,0,-1,741,1730,0,0
-476,-706,0,0,0,0,0,0,0,0,0,-1,748,1730,0,0
-469,-706,0,0,0,0,0,0,0,0,0,-1,755,1730,0,0
-462,-706,0,0,0,0,0,0,0,0,0,-1,762,1730,0,0
-455,-706,0,0,0,0,0,0,0,0,0,-1,769,1730,0,0
-448,-706,0,0,0,0,0,0,0,0,0,-1,776,1730,0,0
-441,-706,0,0,0,0,0,0,0,0,0,-1,783,1730,0,0
-434,-706,0,0,0,0,0,0,0,0,0,-1,790,1730,0,0
-427,-706,0,0,0,0,0,0,0,0,0,-1,797,1730,0,0
-420,-706,0,0,0,0,0,0,0,0,0,-1,804,1730,0,0
-413,-706,0,0,0,0,0,0,0,0,0,-1,811,1730,0,0
-406,-706,0,0,0,0,0,0,0,0,0,-1,818,1730,0,0
-399,-706,0,0,0,0,0,0,0,0,0,-1,825,1730,0,0
-392,-706,0,0,0,0,0,0,0,0,0,-1,832,1730,0,0
-385,-706,0,0,0,0,0,0,0,0,0,-1,839,1730,0,0
-378,-706,0,0,0,0,0,0,0,0,0,-1,846,1730,0,0
-371,-706,0,0,0,0,0,0,0,0,0,-1,853,1730,0,0
-364,-706,0,0,0,0,0,0,0,0,0,-1,860,1730,0,0
-357,-706,0,0,0,0,0,0,0,0,0,-1,867,1730,0,0
-350,-706,0,0,0,0,0,0,0,0,0,-1,874,1730,0,0
-343,-706,0,0,0,0,0,0,0,0,0,-1,881,1730,0,0
-336,-706,0,0,0,0,0,0,0,0,0,-1,888,1730,0,0
-329,-706,0,0,0,0,0,0,0,0,0,-1,895,1730,0,0
-322,-706,0,0,0,0,0,0,0,0,0,-1,902,1730,0,0
-315,-706,0,0,0,0,0,0,0,0,0,-1,909,1730,0,0
-308,-706,4.68103,15.3717,0.0221785,-0.00768675,-0.208596,0.216376,-0.201884,-0.749666,0.241531,0.0479833,916,1730,4.681,-15.3717
-301,-706,4.79266,13.4292,0.0279012,-0.0037773,-0.182513,0.195261,-0.171137,-0.742114,0.211693,0.0474483,923,1730,4.79266,-13.4292
-294,-706,4.47949,11.6864,0.0317016,0.00014717,-0.158696,0.175403,-0.143554,-0.735852,0.184456,0.0462284,930,1730,4.47952,-11.6863
-287,-706,3.9884,10.2153,0,0,0,0,0,0,0,-1,937,1730,3.9884,-10.2154
-280,-706,3.71497,8.87634,0.0273616,0.00529059,-0.118133,0.134974,-0.102322,-0.738825,0.137434,0.0484384,944,1730,3.71495,-8.87637
-273,-706,4.12146,8.27112,0.0219465,8.17726e-06,-0.100403,0.111977,-0.0900227,-0.730988,0.116854,0.0454353,951,1730,4.12147,-8.2711
-266,-706,4.28809,8.13733,0,0,0,0,0,0,0,-1,958,1730,4.2881,-8.13733
-259,-706,2.37415,11.0209,0,0,0,0,0,0,0,-1,965,1730,2.37413,-11.0208
-252,-706,3.05963,10.0499,0,0,0,0,0,0,0,-1,972,1730,3.05962,-10.05
-245,-706,3.63794,9.28613,0,0,0,0,0,0,0,-1,979,1730,3.63792,-9.28608
-238,-706,3.83386,9.78259,0,0,0,0,0,0,0,-1,986,1730,3.83389,-9.78253
-231,-706,3.82281,9.80872,0.00334637,-0.0054187,-0.0322187,0.0314792,-0.0335516,-0.717801,0.0375519,0.0466696,993,1730,3.8228,-9.80868
-224,-706,3.65869,10.1171,0.00151979,-0.00571638,-0.0293235,0.0274476,-0.0316442,-0.724016,0.0341453,0.0428332,1000,1730,3.65871,-10.117
-217,-706,3.49377,10.6989,0,0,0,0,0,0,0,-1,1007,1730,3.49376,-10.6989
-210,-706,3.88373,10.5308,0.000582703,-0.0056529,-0.0222729,0.0199549,-0.0250251,-0.715859,0.0260242,0.0378956,1014,1730,3.88374,-10.5308
-203,-706,3.91492,10.5193,0.000943667,-0.00405998,-0.0183091,0.0169211,-0.0200374,-0.717497,0.0213632,0.0299721,1021,1730,3.91497,-10.5192
-196,-706,3.89526,10.6173,0.00120937,-0.00246083,-0.0145636,0.014053,-0.0153045,-0.722726,0.0169547,0.0205727,1028,1730,3.89522,-10.6174
-189,-706,3.82898,10.751,0.00112238,-0.00104963,-0.0113762,0.0114643,-0.0113915,-0.737811,0.0131958,0.0174971,1035,1730,3.82903,-10.7509
-182,-706,3.85291,10.8662,0.0009227,0.000150437,-0.00857088,0.00911614,-0.008043,-0.762888,0.00991329,0.0134247,1042,1730,3.85286,-10.8662
-175,-706,3.85571,10.9545,0.000870388,0.000638812,-0.00546161,0.00621744,-0.00470824,-0.7748,0.00632797,0.0141315,1049,1730,3.85566,-10.9544
-168,-706,3.84998,11.0458,0.000673285,0.00266271,-0.00303241,0.00485939,-0.0015234,-0.943881,0.00384922,0.014538,1056,1730,3.85003,-11.0458
-161,-706,3.84631,11.1699,0.000455683,0.00274661,-0.00158327,0.00355533,-0.000353038,-1.09855,0.00249624,0.0119726,1063,1730,3.84634,-11.17
-154,-706,3.84119,11.3016,0.000654548,0.00320175,-0.000739059,0.00340065,0.000455645,-1.3079,0.00213151,0.0125585,1070,1730,3.84124,-11.3017
-147,-706,3.81909,11.3774,0.000699785,0.00299606,-0.000483416,0.00309368,0.000602165,-1.37154,0.00189391,0.012119,1077,1730,3.81911,-11.3775
-140,-706,3.82446,11.4768,0.000832095,0.00257794,-0.000174351,0.00259519,0.000814854,-1.47223,0.0015325,0.011215,1084,1730,3.82446,-11.4768
-133,-706,3.83154,11.5759,0.000968408,0.00210335,-9.74821e-05,0.00211166,0.000960096,-1.48573,0.00122084,0.00879772,1091,1730,3.83157,-11.5759
-126,-706,3.81885,11.6533,0.00104331,0.00154807,3.00154e-05,0.00154985,0.00104153,1.51161,0.000912289,0.0129604,1098,1730,3.8189,-11.6533
-119,-706,3.81604,11.7184,0.00116193,0.000940239,0.000279546,0.00135181,0.000750365,0.596645,0.000782044,0.0170617,1105,1730,3.81602,-11.7184
-112,-706,3.81421,11.8228,0.00133865,0.000141187,0.000490962,0.00151421,-3.43706e-05,0.34341,0.00102112,0.0116344,1112,1730,3.81426,-11.8227
-105,-706,3.81396,11.9103,0.00137026,-0.000526528,0.000663517,0.00157932,-0.000735591,0.305236,0.00136579,0.00883535,1119,1730,3.81396,-11.9103
-98,-706,3.84851,11.985,0.00127819,-0.00125464,0.000804348,0.00151204,-0.00148848,0.282928,0.00173237,0.0109759,1126,1730,3.84853,-11.985
-91,-706,3.8446,12.0624,0.0011265,-0.00181793,0.000925806,0.0013934,-0.00208483,0.280683,0.00202134,0.0141273,1133,1730,3.84459,-12.0624
-84,-706,3.81396,12.1277,0.000985972,-0.0022089,0.00103556,0.00129227,-0.0025152,0.287577,0.00223572,0.016001,1140,1730,3.81395,-12.1277
-77,-706,3.8324,12.205,0.000923307,-0.00241696,0.0010057,0.00120273,-0.00269639,0.271005,0.00230556,0.016207,1147,1730,3.83245,-12.2049
-70,-706,3.80457,12.2821,0.000899686,-0.00249532,0.000861259,0.00110568,-0.00270131,0.234762,0.0022614,0.0181749,1154,1730,3.80455,-12.2821
-63,-706,3.81091,12.3419,0.000937179,-0.00236598,0.000703366,0.00108071,-0.00250951,0.201306,0.00212683,0.0127094,1161,1730,3.81093,-12.3419
-56,-706,3.83435,12.3931,0.00110645,-0.00215628,0.000443462,0.00116565,-0.00221548,0.132711,0.00198321,0.0122128,1168,1730,3.83433,-12.393
-49,-706,3.82275,12.4562,0.00234606,-0.00190595,-0.000148819,0.00235126,-0.00191115,-0.0349427,0.00246528,0.0132514,1175,1730,3.82271,-12.4562
-42,-706,3.81348,12.5153,0.00355954,-0.00181445,-0.000350695,0.00358233,-0.00183724,-0.064891,0.0031826,0.0179082,1182,1730,3.81343,-12.5152
-35,-706,3.83057,12.5579,0.00403068,-0.00135878,-0.000468463,0.0040711,-0.00139919,-0.086062,0.00328145,0.0173005,1189,1730,3.83058,-12.5578
-28,-706,3.85645,12.5869,0.00433192,-0.00146993,-0.000563002,0.00438605,-0.00152406,-0.0958468,0.00354305,0.0110442,1196,1730,3.85645,-12.5869
-21,-706,3.85498,12.6178,0.00470061,-0.00215904,-0.000567559,0.00474725,-0.00220568,-0.0819958,0.0041027,0.0110063,1203,1730,3.85498,-12.6178
-14,-706,3.86279,12.6511,0.00493888,-0.00312543,-0.000392141,0.00495791,-0.00314446,-0.0484742,0.0047168,0.0104961,1210,1730,3.86276,-12.6511
-7,-706,3.8728,12.7008,0.00498511,-0.00403147,-9.80573e-05,0.00498618,-0.00403253,-0.0108735,0.00521665,0.00845778,1217,1730,3.87276,-12.7009
0,-706,3.89185,12.7458,0.00478128,-0.00504556,0.000265774,0.00478846,-0.00505274,0.0270194,0.00568251,0.011596,1224,1730,3.8918,-12.7458
7,-706,3.90186,12.7856,0.00422663,-0.00594172,0.000745201,0.00428095,-0.00599604,0.0727682,0.0059609,0.0135853,1231,1730,3.9018,-12.7857
14,-706,3.89832,12.8093,0.00352852,-0.00681081,0.00115225,0.00365538,-0.00693766,0.109651,0.00621299,0.0138815,1238,1730,3.89828,-12.8094
21,-706,3.91248,12.8193,0.00276916,-0.00762349,0.00145879,0.00297004,-0.00782437,0.136845,0.0064388,0.0109781,1245,1730,3.91246,-12.8194
28,-706,3.91565,12.8447,0.00190547,-0.00840396,0.00174719,0.00219352,-0.00869201,0.163398,0.0066476,0.0114004,1252,1730,3.9156,-12.8447
35,-706,3.92871,12.88,0.000988376,-0.00915531,0.00194373,0.00134808,-0.00951501,0.182988,0.00683714,0.013826,1259,1730,3.92868,-12.88
42,-706,3.94629,12.9148,0.000122238,-0.0100156,0.00184684,0.000448203,-0.0103416,0.174699,0.00704855,0.0124372,1266,1730,3.94635,-12.9148
49,-706,3.9469,12.9263,-0.000310036,-0.0107024,0.00174666,-2.43266e-05,-0.0109881,0.162139,0.0073173,0.0141888,1273,1730,3.94688,-12.9263
56,-706,3.97046,12.9464,-0.000684572,-0.011272,0.00181601,-0.000381743,-0.0115748,0.165235,0.0075925,0.013244,1280,1730,3.9704,-12.9464
63,-706,3.97632,12.944,-0.000488822,-0.0116727,0.00167613,-0.000243024,-0.0119185,0.145609,0.00786591,0.0106285,1287,1730,3.97628,-12.944
70,-706,3.97302,12.9297,0.000394708,-0.0119354,0.00162189,0.00060448,-0.0121452,0.128624,0.00830562,0.0106704,1294,1730,3.97298,-12.9297
77,-706,3.97473,12.9462,0.00124128,-0.0118617,0.00163745,0.00144281,-0.0120632,0.122459,0.00856369,0.00985264,1301,1730,3.97472,-12.9462
84,-706,3.97656,12.9589,0.0020176,-0.0119301,0.00181199,0.00224916,-0.0121617,0.127103,0.00895217,0.00895323,1308,1730,3.97661,-12.9589
91,-706,4.00122,12.9823,0.00321479,-0.0111398,0.00231761,0.0035797,-0.0115047,0.15617,0.00910079,0.0103526,1315,1730,4.00128,-12.9823
98,-706,4.01929,12.9817,0.00451939,-0.00985422,0.00319262,0.00519661,-0.0105314,0.209024,0.00925308,0.013674,1322,1730,4.01923,-12.9817
105,-706,4.03638,12.984,0.00566965,-0.00866962,0.00391992,0.00667127,-0.00967124,0.250168,0.0094882,0.0159103,1329,1730,4.03635,-12.9841
112,-706,4.03345,12.9888,0.00680196,-0.00715854,0.00474942,0.00826451,-0.00862109,0.298728,0.00974963,0.0149983,1336,1730,4.03347,-12.9888
119,-706,4.06348,12.9835,0.00773853,-0.00544862,0.00567035,0.0098414,-0.00755149,0.35513,0.0100708,0.0124352,1343,1730,4.0635,-12.9836
126,-706,4.06079,12.9554,0.00845622,-0.0035561,0.00652395,0.0113177,-0.00641763,0.413349,0.010369,0.0138916,1350,1730,4.06085,-12.9555
133,-706,4.06482,12.9269,0.0089864,-0.00162803,0.00723939,0.0126556,-0.00529719,0.469099,0.0106513,0.0118516,1357,1730,4.06486,-12.9269
140,-706,4.09692,12.8903,0.00926207,0.000226103,0.00773107,0.0136985,-0.00421033,0.520966,0.0108126,0.0116227,1364,1730,4.09691,-12.8903
147,-706,4.1062,12.8577,0.00909903,0.00181383,0.00795984,0.0142101,-0.00329729,0.570811,0.0107425,0.0208184,1371,1730,4.10624,-12.8577
154,-706,4.10974,12.837,0.00836995,0.0031615,0.0077585,0.0139496,-0.00241818,0.623476,0.0102018,0.0194213,1378,1730,4.10974,-12.8371
161,-706,4.09338,12.8113,0.00723624,0.00410428,0.00716138,0.0130009,-0.00166034,0.677757,0.00927038,0.0102334,1385,1730,4.09342,-12.8112
168,-706,4.09753,12.7815,0.00605309,0.00462531,0.0063263,0.0117057,-0.00102725,0.729214,0.00816775,0.00988576,1392,1730,4.09751,-12.7815
175,-706,4.10876,12.7537,0.00498333,0.0043808,0.00527382,0.00996448,-0.000600358,0.756867,0.00685188,0.00968995,1399,1730,4.10882,-12.7537
182,-706,4.11206,12.7106,0.00396773,0.00379895,0.00419689,0.00808108,-0.000314401,0.775346,0.00549519,0.0106185,1406,1730,4.11211,-12.7106
189,-706,4.11365,12.6528,0.00298362,0.00344232,0.00306612,0.00628766,0.000138289,0.822729,0.00414644,0.0136128,1413,1730,4.11361,-12.6529
196,-706,4.1156,12.615,0.00157966,0.00191778,0.00171157,0.00346862,2.88158e-05,0.834626,0.00230287,0.0118257,1420,1730,4.11561,-12.615
203,-706,4.13184,12.5834,0.000536476,0.000453789,0.000426847,0.000923977,6.62883e-05,0.73712,0.00059512,0.0130478,1427,1730,4.13185,-12.5833
210,-706,4.14893,12.5367,0.000463057,0.000181918,0.00039966,0.000746148,-0.000101173,0.616293,0.000534359,0.0129565,1434,1730,4.14894,-12.5367
217,-706,4.13721,12.5012,0.000359007,-4.47327e-05,0.000349295,0.000560571,-0.000246296,0.52338,0.000477478,0.0133892,1441,1730,4.13719,-12.5012
224,-706,4.11902,12.4519,0.000274977,-0.000275781,0.000360642,0.000453356,-0.00045416,0.45933,0.000523954,0.0178104,1448,1730,4.11901,-12.4519
231,-706,4.12903,12.3705,2.22446e-05,-0.000538656,0.000402654,0.000232491,-0.000748902,0.48121,0.000592178,0.012676,1455,1730,4.12904,-12.3705
238,-706,4.12952,12.3036,-0.000501998,-0.000737383,0.000382468,-0.000219524,-0.00101986,0.636137,0.000619826,0.00837682,1462,1730,4.1295,-12.3036
245,-706,4.13867,12.2437,-0.00146338,-0.000979396,0.000363446,-0.00078475,-0.00165803,1.07911,0.000957716,0.0107556,1469,1730,4.13865,-12.2436
252,-706,4.13708,12.2012,-0.00251611,-0.00110614,0.000201297,-0.00107796,-0.00254429,1.43173,0.00147464,0.0109536,1476,1730,4.13706,-12.2012
259,-706,4.14722,12.1266,-0.00381632,-0.00119922,-2.24708e-05,-0.00119903,-0.00381651,-1.56221,0.00225362,0.0123353,1483,1730,4.14721,-12.1266
266,-706,4.1405,12.0543,-0.00542977,-0.00128153,-0.000228085,-0.00126902,-0.00544227,-1.51603,0.00328785,0.0120865,1490,1730,4.1405,-12.0543
273,-706,4.14038,11.9744,-0.00719611,-0.00118732,-0.000477195,-0.00114965,-0.00723377,-1.49204,0.00448864,0.0109434,1497,1730,4.14033,-11.9744
280,-706,4.1344,11.889,-0.00892005,-0.000981331,-0.000783996,-0.000904647,-0.00899673,-1.4733,0.00572017,0.00963825,1504,1730,4.13439,-11.889
287,-706,4.12219,11.7958,-0.0104765,-0.00085596,-0.000917892,-0.000769167,-0.0105633,-1.47652,0.00680032,0.0105329,1511,1730,4.1222,-11.7957
294,-706,4.13293,11.7219,-0.0114906,-0.00103567,-0.000803061,-0.000974345,-0.011552,-1.49458,0.00739794,0.0102938,1518,1730,4.13294,-11.722
301,-706,4.13464,11.6437,-0.0118222,-0.00128913,-0.000697526,-0.00124314,-0.0118682,-1.50496,0.007532,0.00946942,1525,1730,4.13463,-11.6437
308,-706,4.14673,11.5574,-0.0113281,-0.00147415,-0.00071556,-0.00142246,-0.0113798,-1.49868,0.00715963,0.0113524,1532,1730,4.14673,-11.5574
315,-706,4.17249,11.4684,-0.0100204,-0.00128991,-0.00104433,-0.00116673,-0.0101436,-1.45339,0.00640901,0.0180905,1539,1730,4.17251,-11.4684
322,-706,4.16345,11.3727,-0.00859532,-0.00129967,-0.00108447,-0.00114188,-0.00875311,-1.42631,0.00549447,0.0192394,1546,1730,4.16351,-11.3727
329,-706,4.12561,11.265,-0.00664205,-0.00145237,-0.00097477,-0.00127532,-0.0068191,-1.39112,0.00418622,0.0160777,1553,1730,4.12565,-11.265
336,-706,4.09058,11.1444,-0.00366363,-0.00147501,-0.000898291,-0.00115354,-0.0039851,-1.22713,0.00236781,0.0222738,1560,1730,4.09061,-11.1443
343,-706,4.06934,11.0479,0.000110275,-0.0016466,-0.00113947,0.000670602,-0.00220693,-0.457021,0.00173848,0.0336807,1567,1730,4.0693,-11.0479
350,-706,3.98352,11.001,0.00408787,-0.00161772,-0.00178051,0.00459791,-0.00212775,-0.278986,0.0039694,0.0398033,1574,1730,3.9835,-11.001
357,-706,3.95239,10.8734,0.00641143,-0.00217225,-0.00247459,0.00707373,-0.00283455,-0.26151,0.00589249,0.0450174,1581,1730,3.95234,-10.8734
364,-706,3.96216,10.9841,0.00978009,-0.00281579,-0.00408667,0.0109898,-0.00402551,-0.287797,0.00897454,0.0483943,1588,1730,3.96213,-10.9841
371,-706,4.07031,11.1545,0,0,0,0,0,0,0,-1,1595,1730,4.07031,-11.1545
378,-706,3.90222,10.0262,0,0,0,0,0,0,0,-1,1602,1730,3.90224,-10.0262
385,-706,4.05066,10.1398,0,0,0,0,0,0,0,-1,1609,1730,4.0506,-10.1398
392,-706,6.88953,10.0787,0,0,0,0,0,0,0,-1,1616,1730,6.88957,-10.0788
399,-706,2.84668,8.81799,0,0,0,0,0,0,0,-1,1623,1730,2.84668,-8.81796
406,-706,2.85352,9.40063,0,0,0,0,0,0,0,-1,1630,1730,2.85346,-9.40059
413,-706,2.87476,10.0918,0,0,0,0,0,0,0,-1,1637,1730,2.87471,-10.0919
420,-706,5.7926,4.15125,0,0,0,0,0,0,0,-1,1644,1730,5.79255,-4.15128
427,-706,0,0,0,0,0,0,0,0,0,-1,1651,1730,0,0
434,-706,0,0,0,0,0,0,0,0,0,-1,1658,1730,0,0
441,-706,0,0,0,0,0,0,0,0,0,-1,1665,1730,0,0
448,-706,0,0,0,0,0,0,0,0,0,-1,1672,1730,0,0
455,-706,0,0,0,0,0,0,0,0,0,-1,1679,1730,0,0
462,-706,0,0,0,0,0,0,0,0,0,-1,1686,1730,0,0
469,-706,0,0,0,0,0,0,0,0,0,-1,1693,1730,0,0
476,-706,0,0,0,0,0,0,0,0,0,-1,1700,1730,0,0
483,-706,0,0,0,0,0,0,0,0,0,-1,1707,1730,0,0
490,-706,0,0,0,0,0,0,0,0,0,-1,1714,1730,0,0
497,-706,0,0,0,0,0,0,0,0,0,-1,1721,1730,0,0
504,-706,0,0,0,0,0,0,0,0,0,-1,1728,1730,0,0
511,-706,0,0,0,0,0,0,0,0,0,-1,1735,1730,0,0
518,-706,0,0,0,0,0,0,0,0,0,-1,1742,1730,0,0
525,-706,0,0,0,0,0,0,0,0,0,-1,1749,1730,0,0
532,-706,0,0,0,0,0,0,0,0,0,-1,1756,1730,0,0
539,-706,0,0,0,0,0,0,0,0,0,-1,1763,1730,0,0
546,-706,0,0,0,0,0,0,0,0,0,-1,1770,1730,0,0
553,-706,0,0,0,0,0,0,0,0,0,-1,1777,1730,0,0
560,-706,0,0,0,0,0,0,0,0,0,-1,1784,1730,0,0
567,-706,0,0,0,0,0,0,0,0,0,-1,1791,1730,0,0
574,-706,0,0,0,0,0,0,0,0,0,-1,1798,1730,0,0
581,-706,0,0,0,0,0,0,0,0,0,-1,1805,1730,0,0
588,-706,0,0,0,0,0,0,0,0,0,-1,1812,1730,0,0
595,-706,0,0,0,0,0,0,0,0,0,-1,1819,1730,0,0
602,-706,0,0,0,0,0,0,0,0,0,-1,1826,1730,0,0
609,-706,0,0,0,0,0,0,0,0,0,-1,1833,1730,0,0
616,-706,0,0,0,0,0,0,0,0,0,-1,1840,1730,0,0
623,-706,0,0,0,0,0,0,0,0,0,-1,1847,1730,0,0
630,-706,0,0,0,0,0,0,0,0,0,-1,1854,1730,0,0
637,-706,0,0,0,0,0,0,0,0,0,-1,1861,1730,0,0
644,-706,0,0,0,0,0,0,0,0,0,-1,1868,1730,0,0
651,-706,0,0,0,0,0,0,0,0,0,-1,1875,1730,0,0
658,-706,0,0,0,0,0,0,0,0,0,-1,1882,1730,0,0
665,-706,0,0,0,0,0,0,0,0,0,-1,1889,1730,0,0
672,-706,0,0,0,0,0,0,0,0,0,-1,1896,1730,0,0
679,-706,0,0,0,0,0,0,0,0,0,-1,1903,1730,0,0
686,-706,0,0,0,0,0,0,0,0,0,-1,1910,1730,0,0
693,-706,0,0,0,0,0,0,0,0,0,-1,1917,1730,0,0
700,-706,0,0,0,0,0,0,0,0,0,-1,1924,1730,0,0
707,-706,0,0,0,0,0,0,0,0,0,-1,1931,1730,0,0
714,-706,0,0,0,0,0,0,0,0,0,-1,1938,1730,0,0
721,-706,0,0,0,0,0,0,0,0,0,-1,1945,1730,0,0
728,-706,0,0,0,0,0,0,0,0,0,-1,1952,1730,0,0
735,-706,0,0,0,0,0,0,0,0,0,-1,1959,1730,0,0
742,-706,0,0,0,0,0,0,0,0,0,-1,1966,1730,0,0
749,-706,0,0,0,0,0,0,0,0,0,-1,1973,1730,0,0
756,-706,0,0,0,0,0,0,0,0,0,-1,1980,1730,0,0
763,-706,0,0,0,0,0,0,0,0,0,-1,1987,1730,0,0
770,-706,0,0,0,0,0,0,0,0,0,-1,1994,1730,0,0
777,-706,0,0,0,0,0,0,0,0,0,-1,2001,1730,0,0
784,-706,0,0,0,0,0,0,0,0,0,-1,2008,1730,0,0
791,-706,0,0,0,0,0,0,0,0,0,-1,2015,1730,0,0
798,-706,0,0,0,0,0,0,0,0,0,-1,2022,1730,0,0
805,-706,0,0,0,0,0,0,0,0,0,-1,2029,1730,0,0
812,-706,0,0,0,0,0,0,0,0,0,-1,2036,1730,0,0
-700,-713,0,0,0,0,0,0,0,0,0,-1,524,1737,0,0
-693,-713,0,0,0,0,0,0,0,0,0,-1,531,1737,0,0
-686,-713,0,0,0,0,0,0,0,0,0,-1,538,1737,0,0
-679,-713,0,0,0,0,0,0,0,0,0,-1,545,1737,0,0
-672,-713,0,0,0,0,0,0,0,0,0,-1,552,1737,0,0
-665,-713,0,0,0,0,0,0,0,0,0,-1,559,1737,0,0
-658,-713,0,0,0,0,0,0,0,0,0,-1,566,1737,0,0
-651,-713,0,0,0,0,0,0,0,0,0,-1,573,1737,0,0
-644,-713,0,0,0,0,0,0,0,0,0,-1,580,1737,0,0
-637,-713,0,0,0,0,0,0,0,0,0,-1,587,1737,0,0
-630,-713,0,0,0,0,0,0,0,0,0,-1,594,1737,0,0
-623,-713,0,0,0,0,0,0,0,0,0,-1,601,1737,0,0
-616,-713,0,0,0,0,0,0,0,0,0,-1,608,1737,0,0
-609,-713,0,0,0,0,0,0,0,0,0,-1,615,1737,0,0
-602,-713,0,0,0,0,0,0,0,0,0,-1,622,1737,0,0
-595,-713,0,0,0,0,0,0,0,0,0,-1,629,1737,0,0
-588,-713,0,0,0,0,0,0,0,0,0,-1,636,1737,0,0
-581,-713,0,0,0,0,0,0,0,0,0,-1,643,1737,0,0
-574,-713,0,0,0,0,0,0,0,0,0,-1,650,1737,0,0
-567,-713,0,0,0,0,0,0,0,0,0,-1,657,1737,0,0
-560,-713,0,0,0,0,0,0,0,0,0,-1,664,1737,0,0
-553,-713,0,0,0,0,0,0,0,0,0,-1,671,1737,0,0
-546,-713,0,0,0,0,0,0,0,0,0,-1,678,1737,0,0
-539,-713,0,0,0,0,0,0,0,0,0,-1,685,1737,0,0
-532,-713,0,0,0,0,0,0,0,0,0,-1,692,1737,0,0
-525,-713,0,0,0,0,0,0,0,0,0,-1,699,1737,0,0
-518,-713,0,0,0,0,0,0,0,0,0,-1,706,1737,0,0
-511,-713,0,0,0,0,0,0,0,0,0,-1,713,1737,0,0
-504,-713,0,0,0,0,0,0,0,0,0,-1,720,1737,0,0
-497,-713,0,0,0,0,0,0,0,0,0,-1,727,1737,0,0
-490,-713,0,0,0,0,0,0,0,0,0,-1,734,1737,0,0
-483,-713,0,0,0,0,0,0,0,0,0,-1,741,1737,0,0
-476,-713,0,0,0,0,0,0,0,0,0,-1,748,1737,0,0
-469,-713,0,0,0,0,0,0,0,0,0,-1,755,1737,0,0
-462,-713,0,0,0,0,0,0,0,0,0,-1,762,1737,0,0
-455,-713,0,0,0,0,0,0,0,0,0,-1,769,1737,0,0
-448,-713,0,0,0,0,0,0,0,0,0,-1,776,1737,0,0
-441,-713,0,0,0,0,0,0,0,0,0,-1,783,1737,0,0
-434,-713,0,0,0,0,0,0,0,0,0,-1,790,1737,0,0
-427,-713,0,0,0,0,0,0,0,0,0,-1,797,1737,0,0
-420,-713,0,0,0,0,0,0,0,0,0,-1,804,1737,0,0
-413,-713,0,0,0,0,0,0,0,0,0,-1,811,1737,0,0
-406,-713,0,0,0,0,0,0,0,0,0,-1,818,1737,0,0
-399,-713,0,0,0,0,0,0,0,0,0,-1,825,1737,0,0
-392,-713,0,0,0,0,0,0,0,0,0,-1,832,1737,0,0
-385,-713,0,0,0,0,0,0,0,0,0,-1,839,1737,0,0
-378,-713,0,0,0,0,0,0,0,0,0,-1,846,1737,0,0
-371,-713,0,0,0,0,0,0,0,0,0,-1,853,1737,0,0
-364,-713,0,0,0,0,0,0,0,0,0,-1,860,1737,0,0
-357,-713,0,0,0,0,0,0,0,0,0,-1,867,1737,0,0
-350,-713,0,0,0,0,0,0,0,0,0,-1,874,1737,0,0
-343,-713,0,0,0,0,0,0,0,0,0,-1,881,1737,0,0
-336,-713,0,0,0,0,0,0,0,0,0,-1,888,1737,0,0
-329,-713,0,0,0,0,0,0,0,0,0,-1,895,1737,0,0
-322,-713,0,0,0,0,0,0,0,0,0,-1,902,1737,0,0
-315,-713,0,0,0,0,0,0,0,0,0,-1,909,1737,0,0
-308,-713,0,0,0,0,0,0,0,0,0,-1,916,1737,0,0
-301,-713,0,0,0,0,0,0,0,0,0,-1,923,1737,0,0
-294,-713,5.16309,12.2721,0,0,0,0,0,0,0,-1,930,1737,5.16309,-12.2721
-287,-713,5.15973,10.3423,0,0,0,0,0,0,0,-1,937,1737,5.15972,-10.3423
-280,-713,4.40155,8.97046,0,0,0,0,0,0,0,-1,944,1737,4.40153,-8.97041
-273,-713,4.35034,7.84985,0,0,0,0,0,0,0,-1,951,1737,4.35035,-7.84986
-266,-713,5.24536,7.62744,0,0,0,0,0,0,0,-1,958,1737,5.24535,-7.62748
-259,-713,2.67322,10.5743,0,0,0,0,0,0,0,-1,965,1737,2.67324,-10.5743
-252,-713,3.55267,8.86694,0,0,0,0,0,0,0,-1,972,1737,3.55265,-8.86693
-245,-713,2.70886,15.8289,0,0,0,0,0,0,0,-1,979,1737,2.70888,-15.8288
-238,-713,3.24066,15.1495,0,0,0,0,0,0,0,-1,986,1737,3.24064,-15.1495
-231,-713,3.93457,9.6947,0,0,0,0,0,0,0,-1,993,1737,3.93455,-9.69476
-224,-713,3.67603,10.4435,0.00165574,-0.00842685,-0.0436042,0.0405091,-0.0472802,-0.727846,0.0507354,0.0445033,1000,1737,3.67601,-10.4435
-217,-713,3.94513,11.0591,0.000350303,-0.009578,-0.0388048,0.0345072,-0.0437349,-0.721781,0.0452777,0.0445823,1007,1737,3.94511,-11.059
-210,-713,3.97607,10.7892,0.000749392,-0.00780454,-0.0332649,0.0300112,-0.0370663,-0.721463,0.0387986,0.048545,1014,1737,3.97605,-10.7892
-203,-713,3.99475,10.5032,0.00129248,-0.0055888,-0.0274401,0.0255068,-0.0298032,-0.72303,0.0319653,0.0435783,1021,1737,3.99479,-10.5031
-196,-713,3.91479,10.4213,0.00168206,-0.00342093,-0.021926,0.0212046,-0.0229434,-0.727475,0.0254954,0.0397574,1028,1737,3.91477,-10.4213
-189,-713,3.93311,10.6526,0.00154124,-0.00152637,-0.0171944,0.0172701,-0.0172552,-0.740914,0.0199332,0.0374989,1035,1737,3.93308,-10.6526
-182,-713,3.92566,10.8638,0.00118979,0.000110035,-0.0130093,0.0136705,-0.0123706,-0.76466,0.0150411,0.0232452,1042,1737,3.92564,-10.8637
-175,-713,3.96484,10.9751,0.000999351,0.00080751,-0.0083353,0.00923928,-0.00743242,-0.779645,0.00964424,0.0208033,1049,1737,3.96485,-10.9751
-168,-713,3.97571,11.0337,0.000780452,0.00374302,-0.00456589,0.0070619,-0.00253843,-0.942253,0.00574418,0.024087,1056,1737,3.97577,-11.0337
-161,-713,3.93323,11.1733,0.000539446,0.00394138,-0.00239113,0.00517483,-0.000694004,-1.09455,0.00370296,0.0127985,1063,1737,3.93328,-11.1733
-154,-713,3.91614,11.2664,0.00084232,0.00461653,-0.00113184,0.00492993,0.000528919,-1.30067,0.00312527,0.011402,1070,1737,3.9162,-11.2664
-147,-713,3.90674,11.3701,0.000808978,0.00439912,-0.000769119,0.00455695,0.000651148,-1.3684,0.00284586,0.0186193,1077,1737,3.90669,-11.3701
-140,-713,3.92273,11.5023,0.000920826,0.0040501,-0.000344867,0.00408765,0.00088327,-1.46232,0.0024836,0.0177155,1084,1737,3.92272,-11.5024
-133,-713,3.90454,11.589,0.00102696,0.00374567,-0.000307527,0.00378002,0.000992608,-1.45955,0.00226291,0.0108041,1091,1737,3.9045,-11.589
-126,-713,3.90149,11.6631,0.00105725,0.0033144,-0.000229431,0.00333748,0.00103417,-1.47052,0.00197279,0.0167801,1098,1737,3.90143,-11.6631
-119,-713,3.90649,11.7188,0.00117836,0.00285485,-2.17947e-05,0.00285513,0.00117808,-1.5578,0.00165678,0.0250027,1105,1737,3.90652,-11.7187
-112,-713,3.88208,11.8314,0.0014128,0.00224384,0.000116158,0.00225977,0.00139687,1.4345,0.00131676,0.0122119,1112,1737,3.88212,-11.8315
-105,-713,3.89905,11.9122,0.00149002,0.00175392,0.00019246,0.00185532,0.00138862,1.0859,0.00111438,0.00980628,1119,1737,3.89908,-11.9122
-98,-713,3.91895,11.9833,0.00141366,0.00122235,0.000234936,0.00157167,0.00106434,0.59207,0.000926203,0.0099892,1126,1737,3.9189,-11.9833
-91,-713,3.88916,12.0493,0.00126584,0.000824111,0.000264441,0.00138952,0.000700432,0.437475,0.000802248,0.0104938,1133,1737,3.88913,-12.0493
-84,-713,3.87036,12.1241,0.00113864,0.000537748,0.000321693,0.00127837,0.000398018,0.409769,0.000755373,0.0096918,1140,1737,3.87031,-12.1241
-77,-713,3.89209,12.1957,0.00106614,0.000300572,0.000262196,0.00114733,0.000219384,0.300284,0.000703258,0.0131394,1147,1737,3.89209,-12.1957
-70,-713,3.8894,12.2516,0.000989697,0.000119889,0.000130396,0.00100882,0.000100762,0.145649,0.000641606,0.0150222,1154,1737,3.88936,-12.2516
-63,-713,3.8877,12.327,0.000900078,-0.000110507,5.03342e-05,0.000902579,-0.000113008,0.0496432,0.000642709,0.0123578,1161,1737,3.88771,-12.327
-56,-713,3.90527,12.3929,0.000892057,-0.000237799,-2.6224e-05,0.000892665,-0.000238407,-0.0231934,0.000688479,0.012286,1168,1737,3.90523,-12.393
-49,-713,3.88635,12.4509,0.00115519,-0.000349984,-0.0001325,0.00116676,-0.000361559,-0.0871372,0.000922294,0.0148515,1175,1737,3.88635,-12.4509
-42,-713,3.8783,12.4927,0.00155688,-0.000560942,-0.000109734,0.00156255,-0.000566613,-0.0516303,0.00127331,0.0172813,1182,1737,3.87833,-12.4926
-35,-713,3.89819,12.5337,0.00181856,-0.000614906,-9.38877e-05,0.00182218,-0.000618523,-0.0385055,0.00146515,0.0145142,1189,1737,3.89823,-12.5337
-28,-713,3.91028,12.5989,0.00195469,-0.000962663,-8.8344e-05,0.00195737,-0.000965336,-0.0302453,0.00171952,0.0129198,1196,1737,3.91025,-12.5989
-21,-713,3.89209,12.6201,0.00211334,-0.00162443,-2.24642e-05,0.00211347,-0.00162456,-0.00600977,0.0021643,0.00915027,1203,1737,3.89207,-12.6201
-14,-713,3.90479,12.656,0.00222998,-0.00250323,0.000147377,0.00223456,-0.00250781,0.0310966,0.00273953,0.010109,1210,1737,3.90474,-12.6559
-7,-713,3.92261,12.7006,0.00223582,-0.00333282,0.000352491,0.00225804,-0.00335504,0.0629643,0.00326128,0.00953061,1217,1737,3.92263,-12.7005
0,-713,3.92737,12.7397,0.00209722,-0.00424428,0.000591621,0.00215194,-0.00429901,0.0922329,0.0037926,0.0138331,1224,1737,3.92731,-12.7397
7,-713,3.94263,12.7673,0.00177282,-0.00502405,0.000898231,0.00188952,-0.00514075,0.129199,0.00420112,0.0162557,1231,1737,3.94266,-12.7673
14,-713,3.95898,12.7926,0.00137986,-0.00573153,0.0011383,0.00155762,-0.00590929,0.154913,0.00454852,0.0115296,1238,1737,3.95898,-12.7927
21,-713,3.94067,12.8286,0.00101056,-0.00632307,0.0013355,0.00124619,-0.0065587,0.17464,0.00484162,0.00928585,1245,1737,3.94071,-12.8286
28,-713,3.92712,12.8651,0.000608122,-0.00685904,0.00150663,0.000900651,-0.00715156,0.191775,0.00509453,0.010236,1252,1737,3.92715,-12.8651
35,-713,3.94238,12.8889,0.000195106,-0.00734027,0.00160076,0.00052106,-0.00766622,0.200878,0.00529306,0.0106472,1259,1737,3.94234,-12.8889
42,-713,3.96875,12.9161,-0.000193357,-0.00782128,0.00146494,7.83084e-05,-0.00809295,0.183362,0.00542159,0.0110223,1266,1737,3.96878,-12.9161
49,-713,3.96936,12.913,-0.000309914,-0.00820357,0.0013076,-9.89446e-05,-0.00841454,0.159962,0.00557701,0.0118243,1273,1737,3.96931,-12.913
56,-713,3.9613,12.9313,-0.000256044,-0.00849847,0.00122616,-7.75042e-05,-0.00867701,0.144592,0.00575901,0.011979,1280,1737,3.96133,-12.9312
63,-713,3.9552,12.9406,4.5814e-05,-0.00867873,0.00108564,0.000178875,-0.0088118,0.121957,0.00593505,0.0116253,1287,1737,3.95525,-12.9406
70,-713,3.96082,12.9432,0.000551948,-0.00876592,0.00102169,0.000662659,-0.00887663,0.10794,0.00615055,0.0108989,1294,1737,3.96084,-12.9432
77,-713,3.97412,12.9501,0.00105633,-0.00861367,0.000968334,0.00115234,-0.00870969,0.0988303,0.00622622,0.0111027,1301,1737,3.97412,-12.9501
84,-713,3.98755,12.9702,0.00149946,-0.00863263,0.000987266,0.00159476,-0.00872793,0.0962334,0.00641661,0.0116815,1308,1737,3.98755,-12.9702
91,-713,3.97595,12.9938,0.00225365,-0.0080304,0.00128948,0.00241287,-0.00818961,0.122853,0.00641707,0.0120957,1315,1737,3.97592,-12.9938
98,-713,3.99146,12.9752,0.0031056,-0.00705114,0.0018569,0.00343444,-0.00737998,0.175274,0.00638072,0.0114195,1322,1737,3.99148,-12.9753
105,-713,4.01355,12.9742,0.00381735,-0.00614014,0.0023071,0.00432592,-0.00664871,0.216967,0.00638333,0.0133312,1329,1737,4.0135,-12.9742
112,-713,4.01733,12.9854,0.00452486,-0.00497809,0.00283,0.00530379,-0.00575703,0.268591,0.00638775,0.0139776,1336,1737,4.01735,-12.9854
119,-713,4.03748,12.9846,0.00509868,-0.00368864,0.00340096,0.00626116,-0.00485113,0.329362,0.00643288,0.0146803,1343,1737,4.03752,-12.9846
126,-713,4.03418,12.989,0.00550102,-0.00228971,0.00384955,0.00708223,-0.00387092,0.389741,0.00641376,0.013519,1350,1737,4.03418,-12.9891
133,-713,4.0304,12.9612,0.00575572,-0.000896828,0.00420672,0.00779233,-0.00293344,0.450874,0.00640083,0.0121113,1357,1737,4.03042,-12.9612
140,-713,4.05371,12.9089,0.00582821,0.000369524,0.00439107,0.00826904,-0.00207131,0.507335,0.00631736,0.0133587,1364,1737,4.05372,-12.909
147,-713,4.05835,12.8511,0.00559412,0.00134786,0.00438546,0.00834335,-0.00140138,0.559963,0.0060834,0.0139485,1371,1737,4.05833,-12.851
154,-713,4.03833,12.8445,0.0049967,0.00217585,0.00411024,0.00793177,-0.000759228,0.620119,0.00555824,0.0136244,1378,1737,4.03832,-12.8444
161,-713,4.05408,12.8055,0.00421145,0.00267704,0.00361522,0.00713998,-0.00025148,0.680842,0.00484599,0.010296,1385,1737,4.0541,-12.8056
168,-713,4.05994,12.7697,0.0035074,0.00288396,0.00303368,0.00624533,0.000146021,0.734202,0.00411575,0.00986923,1392,1737,4.05995,-12.7696
175,-713,4.06787,12.7372,0.00294181,0.00267838,0.00238728,0.00520101,0.000419179,0.75784,0.0033364,0.0117136,1399,1737,4.06787,-12.7372
182,-713,4.07141,12.7008,0.00244159,0.0023332,0.00183653,0.00422473,0.000550065,0.770648,0.00265221,0.0105511,1406,1737,4.07143,-12.7008
189,-713,4.08289,12.6472,0.00193036,0.0021371,0.00125355,0.00329153,0.000775931,0.826535,0.00198687,0.0102643,1413,1737,4.08284,-12.6473
196,-713,4.08948,12.6162,0.0011535,0.00151603,0.000548437,0.00191238,0.00075715,0.945005,0.00111206,0.0120671,1420,1737,4.0895,-12.6162
203,-713,4.09058,12.6033,0.000586546,0.000871007,-4.93074e-05,0.000879311,0.000578242,-1.40394,0.000516009,0.0164626,1427,1737,4.09052,-12.6033
210,-713,4.09119,12.5419,0.00053769,0.000791055,-5.03356e-05,0.000800688,0.000528056,-1.38169,0.000470053,0.013616,1434,1737,4.09121,-12.5418
217,-713,4.10339,12.479,0.000468429,0.000665025,-7.07357e-05,0.000687831,0.000445623,-1.25892,0.000402866,0.0110404,1441,1737,4.10341,-12.479
224,-713,4.08997,12.4269,0.000346842,0.000482534,-8.62983e-05,0.000524463,0.000304913,-1.11853,0.000304133,0.0114825,1448,1737,4.08998,-12.4269
231,-713,4.07629,12.3719,-0.000509797,-1.65883e-05,-7.94307e-05,-4.1117e-06,-0.000522274,-1.41499,0.00034682,0.0102727,1455,1737,4.07632,-12.372
238,-713,4.0708,12.2957,-0.00200046,-0.000492744,-0.000125962,-0.000482293,-0.00201091,-1.48802,0.00121226,0.0084485,1462,1737,4.07077,-12.2956
245,-713,4.08496,12.2427,-0.00422068,-0.00115506,-0.000106681,-0.00115135,-0.00422439,-1.53605,0.00252167,0.0115147,1469,1737,4.08497,-12.2426
252,-713,4.08301,12.1991,-0.00631233,-0.00162986,-0.000293871,-0.00161148,-0.0063307,-1.50836,0.00379899,0.0113153,1476,1737,4.08295,-12.1991
259,-713,4.09534,12.1169,-0.00874195,-0.00204373,-0.000538642,-0.00200069,-0.00878499,-1.49106,0.00531675,0.011436,1483,1737,4.09531,-12.1169
266,-713,4.0885,12.0527,-0.0116222,-0.00253757,-0.000725908,-0.00247993,-0.0116798,-1.49156,0.00710564,0.0101879,1490,1737,4.0885,-12.0528
273,-713,4.06763,11.9899,-0.0146784,-0.00284154,-0.000948162,-0.00276607,-0.0147539,-1.49137,0.00905584,0.00815606,1497,1737,4.06763,-11.9898
280,-713,4.05908,11.8967,-0.0176036,-0.00300047,-0.00120346,-0.00290195,-0.0177021,-1.48912,0.0109629,0.00921949,1504,1737,4.05906,-11.8967
287,-713,4.06848,11.8018,-0.0201985,-0.00313837,-0.0012647,-0.00304512,-0.0202918,-1.4972,0.0126357,0.0101435,1511,1737,4.06846,-11.8017
294,-713,4.08667,11.7202,-0.0219346,-0.00352549,-0.00103898,-0.00346704,-0.0219931,-1.5146,0.0136539,0.0144305,1518,1737,4.08666,-11.7202
301,-713,4.06177,11.611,-0.0227259,-0.00398305,-0.000812494,-0.00394789,-0.022761,-1.52755,0.0140443,0.0161705,1525,1737,4.06176,-11.6109
308,-713,4.03931,11.5193,-0.0222336,-0.00418255,-0.000776037,-0.00414925,-0.0222669,-1.52791,0.013673,0.0188516,1532,1737,4.03932,-11.5193
315,-713,4.04053,11.4834,-0.0204674,-0.00389739,-0.00117029,-0.00381515,-0.0205497,-1.50063,0.0126218,0.0258159,1539,1737,4.04053,-11.4834
322,-713,3.94495,11.3589,-0.0182279,-0.00379356,-0.00122691,-0.00369001,-0.0183315,-1.4866,0.0111955,0.03169,1546,1737,3.94492,-11.3589
329,-713,4.07202,11.224,-0.0149668,-0.00377964,-0.00115055,-0.00366253,-0.0150839,-1.46937,0.00908463,0.0369797,1553,1737,4.07199,-11.224
336,-713,3.80957,11.2555,-0.00941741,-0.00320452,-0.00115432,-0.00299698,-0.00962494,-1.39291,0.00568724,0.041358,1560,1737,3.80955,-11.2555
343,-713,3.57568,11.5393,-0.00204516,-0.00286377,-0.00173292,-0.000673859,-0.00423507,-0.669427,0.00262772,0.0487161,1567,1737,3.57569,-11.5393
350,-713,3.7168,11.2524,0.00630815,-0.00202838,-0.00305744,0.00730926,-0.00302948,-0.31643,0.00613718,0.0453381,1574,1737,3.71685,-11.2524
357,-713,4.03479,10.9095,0.00962851,-0.00262606,-0.00395264,0.0107928,-0.00379034,-0.286457,0.00873714,0.0439887,1581,1737,4.03479,-10.9096
364,-713,4.51563,10.5669,0.0141499,-0.00331174,-0.00593996,0.0159789,-0.00514077,-0.298706,0.0127174,0.0441437,1588,1737,4.51562,-10.5668
371,-713,5.05884,10.3486,0,0,0,0,0,0,0,-1,1595,1737,5.05888,-10.3486
378,-713,2.80762,9.76196,0,0,0,0,0,0,0,-1,1602,1737,2.80765,-9.76198
385,-713,3.03064,9.90381,0,0,0,0,0,0,0,-1,1609,1737,3.03066,-9.90386
392,-713,2.9657,11.3511,0,0,0,0,0,0,0,-1,1616,1737,2.9657,-11.3511
399,-713,1.02551,8.88037,0,0,0,0,0,0,0,-1,1623,1737,1.02556,-8.88039
406,-713,1.65259,8.20483,0,0,0,0,0,0,0,-1,1630,1737,1.65258,-8.20488
413,-713,1.80371,8.875,0,0,0,0,0,0,0,-1,1637,1737,1.80372,-8.87503
420,-713,0,0,0,0,0,0,0,0,0,-1,1644,1737,0,0
427,-713,0,0,0,0,0,0,0,0,0,-1,1651,1737,0,0
434,-713,0,0,0,0,0,0,0,0,0,-1,1658,1737,0,0
441,-713,0,0,0,0,0,0,0,0,0,-1,1665,1737,0,0
448,-713,0,0,0,0,0,0,0,0,0,-1,1672,1737,0,0
455,-713,0,0,0,0,0,0,0,0,0,-1,1679,1737,0,0
462,-713,0,0,0,0,0,0,0,0,0,-1,1686,1737,0,0
469,-713,0,0,0,0,0,0,0,0,0,-1,1693,1737,0,0
476,-713,0,0,0,0,0,0,0,0,0,-1,1700,1737,0,0
483,-713,0,0,0,0,0,0,0,0,0,-1,1707,1737,0,0
490,-713,0,0,0,0,0,0,0,0,0,-1,1714,1737,0,0
497,-713,0,0,0,0,0,0,0,0,0,-1,1721,1737,0,0
504,-713,0,0,0,0,0,0,0,0,0,-1,1728,1737,0,0
511,-713,0,0,0,0,0,0,0,0,0,-1,1735,1737,0,0
518,-713,0,0,0,0,0,0,0,0,0,-1,1742,1737,0,0
525,-713,0,0,0,0,0,0,0,0,0,-1,1749,1737,0,0
532,-713,0,0,0,0,0,0,0,0,0,-1,1756,1737,0,0
539,-713,0,0,0,0,0,0,0,0,0,-1,1763,1737,0,0
546,-713,0,0,0,0,0,0,0,0,0,-1,1770,1737,0,0
553,-713,0,0,0,0,0,0,0,0,0,-1,1777,1737,0,0
560,-713,0,0,0,0,0,0,0,0,0,-1,1784,1737,0,0
567,-713,0,0,0,0,0,0,0,0,0,-1,1791,1737,0,0
574,-713,0,0,0,0,0,0,0,0,0,-1,1798,1737,0,0
581,-713,0,0,0,0,0,0,0,0,0,-1,1805,1737,0,0
588,-713,0,0,0,0,0,0,0,0,0,-1,1812,1737,0,0
595,-713,0,0,0,0,0,0,0,0,0,-1,1819,1737,0,0
602,-713,0,0,0,0,0,0,0,0,0,-1,1826,1737,0,0
609,-713,0,0,0,0,0,0,0,0,0,-1,1833,1737,0,0
616,-713,0,0,0,0,0,0,0,0,0,-1,1840,1737,0,0
623,-713,0,0,0,0,0,0,0,0,0,-1,1847,1737,0,0
630,-713,0,0,0,0,0,0,0,0,0,-1,1854,1737,0,0
637,-713,0,0,0,0,0,0,0,0,0,-1,1861,1737,0,0
644,-713,0,0,0,0,0,0,0,0,0,-1,1868,1737,0,0
651,-713,0,0,0,0,0,0,0,0,0,-1,1875,1737,0,0
658,-713,0,0,0,0,0,0,0,0,0,-1,1882,1737,0,0
665,-713,0,0,0,0,0,0,0,0,0,-1,1889,1737,0,0
672,-713,0,0,0,0,0,0,0,0,0,-1,1896,1737,0,0
679,-713,0,0,0,0,0,0,0,0,0,-1,1903,1737,0,0
686,-713,0,0,0,0,0,0,0,0,0,-1,1910,1737,0,0
693,-713,0,0,0,0,0,0,0,0,0,-1,1917,1737,0,0
700,-713,0,0,0,0,0,0,0,0,0,-1,1924,1737,0,0
707,-713,0,0,0,0,0,0,0,0,0,-1,1931,1737,0,0
714,-713,0,0,0,0,0,0,0,0,0,-1,1938,1737,0,0
721,-713,0,0,0,0,0,0,0,0,0,-1,1945,1737,0,0
728,-713,0,0,0,0,0,0,0,0,0,-1,1952,1737,0,0
735,-713,0,0,0,0,0,0,0,0,0,-1,1959,1737,0,0
742,-713,0,0,0,0,0,0,0,0,0,-1,1966,1737,0,0
749,-713,0,0,0,0,0,0,0,0,0,-1,1973,1737,0,0
756,-713,0,0,0,0,0,0,0,0,0,-1,1980,1737,0,0
763,-713,0,0,0,0,0,0,0,0,0,-1,1987,1737,0,0
770,-713,0,0,0,0,0,0,0,0,0,-1,1994,1737,0,0
777,-713,0,0,0,0,0,0,0,0,0,-1,2001,1737,0,0
784,-713,0,0,0,0,0,0,0,0,0,-1,2008,1737,0,0
791,-713,0,0,0,0,0,0,0,0,0,-1,2015,1737,0,0
798,-713,0,0,0,0,0,0,0,0,0,-1,2022,1737,0,0
805,-713,0,0,0,0,0,0,0,0,0,-1,2029,1737,0,0
812,-713,0,0,0,0,0,0,0,0,0,-1,2036,1737,0,0
-700,-720,0,0,0,0,0,0,0,0,0,-1,524,1744,0,0
-693,-720,0,0,0,0,0,0,0,0,0,-1,531,1744,0,0
-686,-720,0,0,0,0,0,0,0,0,0,-1,538,1744,0,0
-679,-720,0,0,0,0,0,0,0,0,0,-1,545,1744,0,0
-672,-720,0,0,0,0,0,0,0,0,0,-1,552,1744,0,0
-665,-720,0,0,0,0,0,0,0,0,0,-1,559,1744,0,0
-658,-720,0,0,0,0,0,0,0,0,0,-1,566,1744,0,0
-651,-720,0,0,0,0,0,0,0,0,0,-1,573,1744,0,0
-644,-720,0,0,0,0,0,0,0,0,0,-1,580,1744,0,0
-637,-720,0,0,0,0,0,0,0,0,0,-1,587,1744,0,0
-630,-720,0,0,0,0,0,0,0,0,0,-1,594,1744,0,0
-623,-720,0,0,0,0,0,0,0,0,0,-1,601,1744,0,0
-616,-720,0,0,0,0,0,0,0,0,0,-1,608,1744,0,0
-609,-720,0,0,0,0,0,0,0,0,0,-1,615,1744,0,0
-602,-720,0,0,0,0,0,0,0,0,0,-1,622,1744,0,0
-595,-720,0,0,0,0,0,0,0,0,0,-1,629,1744,0,0
-588,-720,0,0,0,0,0,0,0,0,0,-1,636,1744,0,0
-581,-720,0,0,0,0,0,0,0,0,0,-1,643,1744,0,0
-574,-720,0,0,0,0,0,0,0,0,0,-1,650,1744,0,0
-567,-720,0,0,0,0,0,0,0,0,0,-1,657,1744,0,0
-560,-720,0,0,0,0,0,0,0,0,0,-1,664,1744,0,0
-553,-720,0,0,0,0,0,0,0,0,0,-1,671,1744,0,0
-546,-720,0,0,0,0,0,0,0,0,0,-1,678,1744,0,0
-539,-720,0,0,0,0,0,0,0,0,0,-1,685,1744,0,0
-532,-720,0,0,0,0,0,0,0,0,0,-1,692,1744,0,0
-525,-720,0,0,0,0,0,0,0,0,0,-1,699,1744,0,0
-518,-720,0,0,0,0,0,0,0,0,0,-1,706,1744,0,0
-511,-720,0,0,0,0,0,0,0,0,0,-1,713,1744,0,0
-504,-720,0,0,0,0,0,0,0,0,0,-1,720,1744,0,0
-497,-720,0,0,0,0,0,0,0,0,0,-1,727,1744,0,0
-490,-720,0,0,0,0,0,0,0,0,0,-1,734,1744,0,0
-483,-720,0,0,0,0,0,0,0,0,0,-1,741,1744,0,0
-476,-720,0,0,0,0,0,0,0,0,0,-1,748,1744,0,0
-469,-720,0,0,0,0,0,0,0,0,0,-1,755,1744,0,0
-462,-720,0,0,0,0,0,0,0,0,0,-1,762,1744,0,0
-455,-720,0,0,0,0,0,0,0,0,0,-1,769,1744,0,0
-448,-720,0,0,0,0,0,0,0,0,0,-1,776,1744,0,0
-441,-720,0,0,0,0,0,0,0,0,0,-1,783,1744,0,0
-434,-720,0,0,0,0,0,0,0,0,0,-1,790,1744,0,0
-427,-720,0,0,0,0,0,0,0,0,0,-1,797,1744,0,0
-420,-720,0,0,0,0,0,0,0,0,0,-1,804,1744,0,0
-413,-720,0,0,0,0,0,0,0,0,0,-1,811,1744,0,0
-406,-720,0,0,0,0,0,0,0,0,0,-1,818,1744,0,0
-399,-720,0,0,0,0,0,0,0,0,0,-1,825,1744,0,0
-392,-720,0,0,0,0,0,0,0,0,0,-1,832,1744,0,0
-385,-720,0,0,0,0,0,0,0,0,0,-1,839,1744,0,0
-378,-720,0,0,0,0,0,0,0,0,0,-1,846,1744,0,0
-371,-720,0,0,0,0,0,0,0,0,0,-1,853,1744,0,0
-364,-720,0,0,0,0,0,0,0,0,0,-1,860,1744,0,0
-357,-720,0,0,0,0,0,0,0,0,0,-1,867,1744,0,0
-350,-720,0,0,0,0,0,0,0,0,0,-1,874,1744,0,0
-343,-720,0,0,0,0,0,0,0,0,0,-1,881,1744,0,0
-336,-720,0,0,0,0,0,0,0,0,0,-1,888,1744,0,0
-329,-720,0,0,0,0,0,0,0,0,0,-1,895,1744,0,0
-322,-720,0,0,0,0,0,0,0,0,0,-1,902,1744,0,0
-315,-720,0,0,0,0,0,0,0,0,0,-1,909,1744,0,0
-308,-720,0,0,0,0,0,0,0,0,0,-1,916,1744,0,0
-301,-720,0,0,0,0,0,0,0,0,0,-1,923,1744,0,0
-294,-720,0,0,0,0,0,0,0,0,0,-1,930,1744,0,0
-287,-720,0,0,0,0,0,0,0,0,0,-1,937,1744,0,0
-280,-720,5.10437,9.33765,0,0,0,0,0,0,0,-1,944,1744,5.10435,-9.33761
-273,-720,4.63739,8.22498,0,0,0,0,0,0,0,-1,951,1744,4.6374,-8.22496
-266,-720,4.37134,7.47217,0,0,0,0,0,0,0,-1,958,1744,4.37132,-7.47215
-259,-720,2.38904,5.20947,0,0,0,0,0,0,0,-1,965,1744,2.38906,-5.20952
-252,-720,3.71014,6.78967,0,0,0,0,0,0,0,-1,972,1744,3.71016,-6.78973
-245,-720,4.38489,14.8328,0,0,0,0,0,0,0,-1,979,1744,4.38488,-14.8328
-238,-720,4.51312,14.1652,0,0,0,0,0,0,0,-1,986,1744,4.51313,-14.1652
-231,-720,4.51538,13.5494,0.00416577,-0.0112866,-0.0683255,0.0652005,-0.0723214,-0.729098,0.0794338,0.0449008,993,1744,4.51538,-13.5494
-224,-720,4.28375,12.3938,0.00156587,-0.0116442,-0.0626289,0.057937,-0.0680154,-0.732861,0.0727962,0.0446548,1000,1744,4.28374,-12.3937
-217,-720,4.26373,11.005,0.000230821,-0.012634,-0.0559246,0.0500917,-0.0624949,-0.72814,0.0651333,0.0445269,1007,1744,4.26374,-11.005
-210,-720,4.10095,10.8578,0,0,0,0,0,0,0,-1,1014,1744,4.10093,-10.8577
-203,-720,4.07007,10.4462,0,0,0,0,0,0,0,-1,1021,1744,4.07005,-10.4462
-196,-720,3.95679,10.2362,0,0,0,0,0,0,0,-1,1028,1744,3.95676,-10.2362
-189,-720,3.86267,10.506,0,0,0,0,0,0,0,-1,1035,1744,3.86269,-10.5059
-182,-720,4.0343,10.739,0.00144668,4.0341e-05,-0.0193704,0.0201267,-0.0186397,-0.767256,0.0223873,0.0413639,1042,1744,4.03429,-10.739
-175,-720,4.29163,10.9606,0.0010714,0.000915968,-0.0124986,0.0134926,-0.0115052,-0.782289,0.0144477,0.0444063,1049,1744,4.29168,-10.9605
-168,-720,4.35803,11.1649,0,0,0,0,0,0,0,-1,1056,1744,4.35803,-11.1649
-161,-720,3.96936,11.1674,0.00057651,0.00436957,-0.00306289,0.00607556,-0.00112948,-1.06261,0.00447463,0.0292612,1063,1744,3.9693,-11.1673
-154,-720,4.02002,11.2676,0.00107505,0.00519605,-0.00114599,0.0054933,0.000777806,-1.31701,0.00343243,0.0200013,1070,1744,4.01998,-11.2675
-147,-720,4.01526,11.4291,0.000963262,0.00487071,-0.000575026,0.00495357,0.000880397,-1.42768,0.00305155,0.0197169,1077,1744,4.01521,-11.4291
-140,-720,4.00623,11.548,0.00105533,0.00444024,8.67561e-05,0.00444246,0.00105311,1.54519,0.00268047,0.0166457,1084,1744,4.00627,-11.548
-133,-720,3.97009,11.5814,0.00114693,0.00424485,0.000108607,0.00424865,0.00114313,1.5358,0.00253868,0.0117225,1091,1744,3.97004,-11.5815
-126,-720,3.97168,11.6735,0.00117881,0.00396892,0.000132642,0.00397521,0.00117252,1.5234,0.00235854,0.0118665,1098,1744,3.97162,-11.6735
-119,-720,3.96887,11.7566,0.00136173,0.0037287,0.000266184,0.00375826,0.00133217,1.46018,0.00220026,0.0141878,1105,1744,3.96882,-11.7566
-112,-720,3.95398,11.816,0.00170357,0.00340519,0.000281537,0.00345057,0.0016582,1.41102,0.00199269,0.0124834,1112,1744,3.95397,-11.816
-105,-720,3.95789,11.8956,0.00185465,0.00317858,0.000208277,0.00321058,0.00182266,1.41838,0.00185928,0.0118379,1119,1744,3.95791,-11.8956
-98,-720,3.96875,11.9674,0.00180434,0.00291596,9.31877e-05,0.00292371,0.00179658,1.48774,0.00170269,0.0101403,1126,1744,3.96872,-11.9674
-91,-720,3.94714,12.0361,0.00165319,0.00273649,-3.25936e-05,0.00273747,0.00165221,-1.54075,0.00159174,0.00983479,1133,1744,3.94711,-12.0361
-84,-720,3.93323,12.1111,0.00151767,0.00258462,-8.60395e-05,0.00259151,0.00151078,-1.49084,0.00150306,0.0101804,1140,1744,3.93322,-12.1111
-77,-720,3.94458,12.2001,0.00139766,0.00233938,-0.000226901,0.0023912,0.00134584,-1.34627,0.00138419,0.0127225,1147,1744,3.94455,-12.2001
-70,-720,3.94946,12.2567,0.00122747,0.00206178,-0.000400368,0.00222282,0.00106643,-1.18836,0.0012837,0.0115841,1154,1744,3.94947,-12.2567
-63,-720,3.93152,12.3151,0.00102703,0.00168653,-0.000545106,0.00199386,0.000719699,-1.05741,0.0011659,0.0104452,1161,1744,3.93151,-12.315
-56,-720,3.9574,12.3938,0.000785463,0.00123714,-0.000508743,0.00156792,0.000454685,-0.994289,0.000931474,0.0120317,1168,1744,3.95734,-12.3938
-49,-720,3.93994,12.4645,0.00062931,0.000816752,-0.000376924,0.00111143,0.00033463,-0.907251,0.000658395,0.0181914,1175,1744,3.93996,-12.4644
-42,-720,3.92529,12.484,0.000845954,0.000382771,-0.00020989,0.000926914,0.000301812,-0.368141,0.000545896,0.0211761,1182,1744,3.92533,-12.484
-35,-720,3.94409,12.5333,0.00107049,4.58682e-06,-0.000105913,0.00108091,-5.83532e-06,-0.0980867,0.00072256,0.018328,1189,1744,3.94404,-12.5333
-28,-720,3.96838,12.5869,0.0011713,-0.000428705,-1.97242e-05,0.00117154,-0.000428948,-0.0123251,0.000956623,0.0107389,1196,1744,3.96839,-12.5869
-21,-720,3.95947,12.6437,0.00126246,-0.000999688,9.88942e-05,0.00126678,-0.001004,0.043606,0.00131396,0.00894902,1203,1744,3.95949,-12.6437
-14,-720,3.9469,12.6591,0.00134883,-0.00177265,0.000262077,0.00137068,-0.0017945,0.0831835,0.00183287,0.0107848,1210,1744,3.94687,-12.659
-7,-720,3.94482,12.7069,0.00133541,-0.00250114,0.000397387,0.00137614,-0.00254187,0.102135,0.00229519,0.0115877,1217,1744,3.94477,-12.7069
0,-720,3.95081,12.766,0.00122919,-0.00325515,0.000537221,0.00129265,-0.00331861,0.117583,0.00274662,0.012307,1224,1744,3.95083,-12.766
7,-720,3.96399,12.7791,0.00103167,-0.00387678,0.000697765,0.00112893,-0.00397405,0.138501,0.00309508,0.0149426,1231,1744,3.96396,-12.7791
14,-720,3.98523,12.8043,0.0007948,-0.00440745,0.000797926,0.000914435,-0.00452708,0.148824,0.00336455,0.0137658,1238,1744,3.9852,-12.8043
21,-720,3.95984,12.8461,0.000570426,-0.00481331,0.000868267,0.000706993,-0.00494987,0.156008,0.00355906,0.0104481,1245,1744,3.95983,-12.8461
28,-720,3.94897,12.8727,0.000354476,-0.00514614,0.00092174,0.000504823,-0.00529649,0.161688,0.00371073,0.010351,1252,1744,3.94895,-12.8726
35,-720,3.96436,12.891,0.000231052,-0.00544184,0.00088106,0.00036474,-0.00557553,0.150586,0.00384437,0.0102944,1259,1744,3.96435,-12.891
42,-720,3.9762,12.9102,6.26262e-05,-0.00569676,0.000640444,0.000132984,-0.00576712,0.109419,0.00388983,0.0105922,1266,1744,3.97617,-12.9102
49,-720,3.97693,12.9216,2.81409e-05,-0.00589083,0.000393136,5.41387e-05,-0.00591682,0.0660331,0.00396272,0.0113659,1273,1744,3.97687,-12.9216
56,-720,3.97485,12.949,0.000212548,-0.00601718,0.000217989,0.000220167,-0.0060248,0.0349347,0.0040919,0.00996948,1280,1744,3.97491,-12.9489
63,-720,3.97266,12.9617,0.000497799,-0.00609357,6.50887e-05,0.000498441,-0.00609421,0.00987356,0.00423873,0.0112747,1287,1744,3.97271,-12.9617
70,-720,3.98462,12.9609,0.000796345,-0.00613121,1.0505e-05,0.000796361,-0.00613122,0.0015164,0.00437715,0.0118985,1294,1744,3.98457,-12.961
77,-720,3.98975,12.9561,0.00110075,-0.00600861,-2.35785e-05,0.00110083,-0.00600869,-0.00331649,0.00441869,0.0136944,1301,1744,3.9897,-12.956
84,-720,3.99548,12.9496,0.0013659,-0.00604788,-6.91232e-06,0.0013659,-0.00604788,-0.000932361,0.00455599,0.0127637,1308,1744,3.99547,-12.9496
91,-720,3.99158,12.9645,0.0018061,-0.00564928,0.000228736,0.00181311,-0.00565629,0.0306422,0.00449871,0.0117049,1315,1744,3.99156,-12.9645
98,-720,3.98645,12.9625,0.00233033,-0.00501026,0.000643807,0.00238636,-0.0050663,0.0868218,0.00439455,0.0109241,1322,1744,3.9864,-12.9626
105,-720,3.99866,12.968,0.00273634,-0.00444714,0.00101365,0.00287663,-0.00458744,0.137532,0.00434695,0.0109323,1329,1744,3.99869,-12.968
112,-720,4.01416,12.9753,0.0031216,-0.00368112,0.00143446,0.00341171,-0.00397123,0.199549,0.00426662,0.0110865,1336,1744,4.01419,-12.9753
119,-720,4.02466,12.9674,0.00343485,-0.00281342,0.001856,0.00394458,-0.00332314,0.268029,0.00420113,0.0113324,1343,1744,4.02461,-12.9675
126,-720,4.02466,12.9797,0.00367424,-0.00183705,0.00211019,0.0043894,-0.00255221,0.326759,0.00405426,0.0108001,1350,1744,4.02461,-12.9797
133,-720,4.01697,12.9572,0.00376612,-0.000881889,0.00226827,0.00468958,-0.00180535,0.386631,0.00387114,0.0124601,1357,1744,4.01693,-12.9572
140,-720,4.04309,12.9174,0.00368809,-2.7019e-05,0.00228143,0.00477255,-0.00111148,0.443726,0.00360969,0.018435,1364,1744,4.04313,-12.9173
147,-720,4.03552,12.8954,0.00348066,0.000594353,0.00212094,0.00460286,-0.000527853,0.486662,0.00325881,0.0192807,1371,1744,4.03555,-12.8953
154,-720,4.01221,12.8474,0.00308702,0.00111551,0.00175497,0.00411413,8.83956e-05,0.529509,0.00271377,0.0130206,1378,1744,4.01216,-12.8474
161,-720,4.03503,12.798,0.00257114,0.00141582,0.00127243,0.0033909,0.000596072,0.572318,0.00209043,0.00926596,1385,1744,4.03509,-12.798
168,-720,4.03284,12.7688,0.00218458,0.00153783,0.000855203,0.00277551,0.000946908,0.604644,0.00162917,0.00920593,1392,1744,4.03282,-12.7689
175,-720,4.01892,12.7303,0.00191871,0.00149067,0.00044674,0.00220005,0.00120933,0.562018,0.00127229,0.0139229,1399,1744,4.01898,-12.7304
182,-720,4.02942,12.6869,0.00171786,0.00142998,0.000173635,0.00179946,0.00134838,0.439317,0.00108111,0.0141844,1406,1744,4.02946,-12.6869
189,-720,4.05383,12.6584,0.00145122,0.00154125,-8.52485e-05,0.00159264,0.00139983,-1.02831,0.00100368,0.0121682,1413,1744,4.05388,-12.6585
196,-720,4.04321,12.6243,0.000982781,0.0015664,-0.000322902,0.00170981,0.000839368,-1.15283,0.000987216,0.0128842,1420,1744,4.04319,-12.6243
203,-720,4.02319,12.5729,0.000619576,0.00138891,-0.000419785,0.00157362,0.000434868,-1.15628,0.000938337,0.0149445,1427,1744,4.0232,-12.5729
210,-720,4.01807,12.5323,0.00056758,0.00147501,-0.000385787,0.00161685,0.000425737,-1.21847,0.000967725,0.0129119,1434,1744,4.01801,-12.5323
217,-720,4.02319,12.4675,0.000493203,0.00144502,-0.000362767,0.00156752,0.000370706,-1.24515,0.000945974,0.0123386,1441,1744,4.02319,-12.4676
224,-720,4.03418,12.4084,0.000309634,0.00131152,-0.000377029,0.00143755,0.000183604,-1.2482,0.000903409,0.00950427,1448,1744,4.03422,-12.4084
231,-720,4.02734,12.3574,-0.00121928,0.00058258,-0.000379171,0.000659119,-0.00129582,-1.37161,0.00114847,0.00946777,1455,1744,4.02739,-12.3574
238,-720,4.02039,12.2836,-0.00369031,-0.000159208,-0.000425341,-0.000108696,-0.00374082,-1.45259,0.00245845,0.00866437,1462,1744,4.02036,-12.2836
245,-720,4.02319,12.2239,-0.00714012,-0.00122177,-0.000347617,-0.00120142,-0.00716047,-1.51233,0.00442784,0.0113826,1469,1744,4.02314,-12.2239
252,-720,4.0199,12.1686,-0.0102525,-0.00203836,-0.000539394,-0.00200309,-0.0102878,-1.5055,0.00629793,0.0107891,1476,1744,4.01994,-12.1686
259,-720,4.02283,12.1083,-0.0138193,-0.00278386,-0.000793625,-0.00272708,-0.0138761,-1.49937,0.00848898,0.00962277,1483,1744,4.02278,-12.1083
266,-720,4.01648,12.0486,-0.0180028,-0.00368055,-0.000966289,-0.00361565,-0.0180677,-1.50373,0.0110391,0.00802287,1490,1744,4.01654,-12.0485
273,-720,3.99976,11.9753,-0.0224449,-0.00438999,-0.00117605,-0.00431371,-0.0225212,-1.50602,0.0138027,0.0128056,1497,1744,3.99976,-11.9753
280,-720,3.96448,11.8939,-0.0267595,-0.00494261,-0.00139922,-0.00485324,-0.0268489,-1.50701,0.0165209,0.0165239,1504,1744,3.96447,-11.894
287,-720,3.99048,11.7915,-0.0306643,-0.00540071,-0.001416,-0.00532159,-0.0307434,-1.51498,0.0189722,0.0252724,1511,1744,3.99046,-11.7915
294,-720,4.06445,11.6663,-0.0335559,-0.00616731,-0.00111788,-0.00612176,-0.0336015,-1.53007,0.0206649,0.0314071,1518,1744,4.0644,-11.6662
301,-720,4.08521,11.5809,-0.0352838,-0.00696032,-0.000809542,-0.0069372,-0.0353069,-1.54225,0.0216001,0.0321366,1525,1744,4.08524,-11.581
308,-720,3.99731,11.4342,-0.0353564,-0.00728726,-0.00073274,-0.00726814,-0.0353755,-1.54472,0.021573,0.0353721,1532,1744,3.99729,-11.4341
315,-720,3.94421,11.3027,0,0,0,0,0,0,0,-1,1539,1744,3.94417,-11.3027
322,-720,3.71997,11.0942,0,0,0,0,0,0,0,-1,1546,1744,3.71993,-11.0943
329,-720,4.01721,11.173,0,0,0,0,0,0,0,-1,1553,1744,4.01722,-11.1729
336,-720,3.71643,11.4023,0,0,0,0,0,0,0,-1,1560,1744,3.71637,-11.4024
343,-720,3.14026,11.9956,0,0,0,0,0,0,0,-1,1567,1744,3.1403,-11.9956
350,-720,3.34387,11.7228,0,0,0,0,0,0,0,-1,1574,1744,3.34387,-11.7227
357,-720,3.92322,10.9236,0,0,0,0,0,0,0,-1,1581,1744,3.92323,-10.9236
364,-720,4.40771,10.8425,0,0,0,0,0,0,0,-1,1588,1744,4.40772,-10.8426
371,-720,2.21338,8.89368,0,0,0,0,0,0,0,-1,1595,1744,2.21342,-8.89367
378,-720,2.21692,9.76758,0,0,0,0,0,0,0,-1,1602,1744,2.21689,-9.76754
385,-720,2.49146,10.726,0,0,0,0,0,0,0,-1,1609,1744,2.49147,-10.726
392,-720,2.42578,11.8109,0,0,0,0,0,0,0,-1,1616,1744,2.42579,-11.8109
399,-720,2.69519,11.8286,0,0,0,0,0,0,0,-1,1623,1744,2.69524,-11.8286
406,-720,0,0,0,0,0,0,0,0,0,-1,1630,1744,0,0
413,-720,0,0,0,0,0,0,0,0,0,-1,1637,1744,0,0
420,-720,0,0,0,0,0,0,0,0,0,-1,1644,1744,0,0
427,-720,0,0,0,0,0,0,0,0,0,-1,1651,1744,0,0
434,-720,0,0,0,0,0,0,0,0,0,-1,1658,1744,0,0
441,-720,0,0,0,0,0,0,0,0,0,-1,1665,1744,0,0
448,-720,0,0,0,0,0,0,0,0,0,-1,1672,1744,0,0
455,-720,0,0,0,0,0,0,0,0,0,-1,1679,1744,0,0
462,-720,0,0,0,0,0,0,0,0,0,-1,1686,1744,0,0
469,-720,0,0,0,0,0,0,0,0,0,-1,1693,1744,0,0
476,-720,0,0,0,0,0,0,0,0,0,-1,1700,1744,0,0
483,-720,0,0,0,0,0,0,0,0,0,-1,1707,1744,0,0
490,-720,0,0,0,0,0,0,0,0,0,-1,1714,1744,0,0
497,-720,0,0,0,0,0,0,0,0,0,-1,1721,1744,0,0
504,-720,0,0,0,0,0,0,0,0,0,-1,1728,1744,0,0
511,-720,0,0,0,0,0,0,0,0,0,-1,1735,1744,0,0
518,-720,0,0,0,0,0,0,0,0,0,-1,1742,1744,0,0
525,-720,0,0,0,0,0,0,0,0,0,-1,1749,1744,0,0
532,-720,0,0,0,0,0,0,0,0,0,-1,1756,1744,0,0
539,-720,0,0,0,0,0,0,0,0,0,-1,1763,1744,0,0
546,-720,0,0,0,0,0,0,0,0,0,-1,1770,1744,0,0
553,-720,0,0,0,0,0,0,0,0,0,-1,1777,1744,0,0
560,-720,0,0,0,0,0,0,0,0,0,-1,1784,1744,0,0
567,-720,0,0,0,0,0,0,0,0,0,-1,1791,1744,0,0
574,-720,0,0,0,0,0,0,0,0,0,-1,1798,1744,0,0
581,-720,0,0,0,0,0,0,0,0,0,-1,1805,1744,0,0
588,-720,0,0,0,0,0,0,0,0,0,-1,1812,1744,0,0
595,-720,0,0,0,0,0,0,0,0,0,-1,1819,1744,0,0
602,-720,0,0,0,0,0,0,0,0,0,-1,1826,1744,0,0
609,-720,0,0,0,0,0,0,0,0,0,-1,1833,1744,0,0
616,-720,0,0,0,0,0,0,0,0,0,-1,1840,1744,0,0
623,-720,0,0,0,0,0,0,0,0,0,-1,1847,1744,0,0
630,-720,0,0,0,0,0,0,0,0,0,-1,1854,1744,0,0
637,-720,0,0,0,0,0,0,0,0,0,-1,1861,1744,0,0
644,-720,0,0,0,0,0,0,0,0,0,-1,1868,1744,0,0
651,-720,0,0,0,0,0,0,0,0,0,-1,1875,1744,0,0
658,-720,0,0,0,0,0,0,0,0,0,-1,1882,1744,0,0
665,-720,0,0,0,0,0,0,0,0,0,-1,1889,1744,0,0
672,-720,0,0,0,0,0,0,0,0,0,-1,1896,1744,0,0
679,-720,0,0,0,0,0,0,0,0,0,-1,1903,1744,0,0
686,-720,0,0,0,0,0,0,0,0,0,-1,1910,1744,0,0
693,-720,0,0,0,0,0,0,0,0,0,-1,1917,1744,0,0
700,-720,0,0,0,0,0,0,0,0,0,-1,1924,1744,0,0
707,-720,0,0,0,0,0,0,0,0,0,-1,1931,1744,0,0
714,-720,0,0,0,0,0,0,0,0,0,-1,1938,1744,0,0
721,-720,0,0,0,0,0,0,0,0,0,-1,1945,1744,0,0
728,-720,0,0,0,0,0,0,0,0,0,-1,1952,1744,0,0
735,-720,0,0,0,0,0,0,0,0,0,-1,1959,1744,0,0
742,-720,0,0,0,0,0,0,0,0,0,-1,1966,1744,0,0
749,-720,0,0,0,0,0,0,0,0,0,-1,1973,1744,0,0
756,-720,0,0,0,0,0,0,0,0,0,-1,1980,1744,0,0
763,-720,0,0,0,0,0,0,0,0,0,-1,1987,1744,0,0
770,-720,0,0,0,0,0,0,0,0,0,-1,1994,1744,0,0
777,-720,0,0,0,0,0,0,0,0,0,-1,2001,1744,0,0
784,-720,0,0,0,0,0,0,0,0,0,-1,2008,1744,0,0
791,-720,0,0,0,0,0,0,0,0,0,-1,2015,1744,0,0
798,-720,0,0,0,0,0,0,0,0,0,-1,2022,1744,0,0
805,-720,0,0,0,0,0,0,0,0,0,-1,2029,1744,0,0
812,-720,0,0,0,0,0,0,0,0,0,-1,2036,1744,0,0
-700,-727,0,0,0,0,0,0,0,0,0,-1,524,1751,0,0
-693,-727,0,0,0,0,0,0,0,0,0,-1,531,1751,0,0
-686,-727,0,0,0,0,0,0,0,0,0,-1,538,1751,0,0
-679,-727,0,0,0,0,0,0,0,0,0,-1,545,1751,0,0
-672,-727,0,0,0,0,0,0,0,0,0,-1,552,1751,0,0
-665,-727,0,0,0,0,0,0,0,0,0,-1,559,1751,0,0
-658,-727,0,0,0,0,0,0,0,0,0,-1,566,1751,0,0
-651,-727,0,0,0,0,0,0,0,0,0,-1,573,1751,0,0
-644,-727,0,0,0,0,0,0,0,0,0,-1,580,1751,0,0
-637,-727,0,0,0,0,0,0,0,0,0,-1,587,1751,0,0
-630,-727,0,0,0,0,0,0,0,0,0,-1,594,1751,0,0
-623,-727,0,0,0,0,0,0,0,0,0,-1,601,1751,0,0
-616,-727,0,0,0,0,0,0,0,0,0,-1,608,1751,0,0
-609,-727,0,0,0,0,0,0,0,0,0,-1,615,1751,0,0
-602,-727,0,0,0,0,0,0,0,0,0,-1,622,1751,0,0
-595,-727,0,0,0,0,0,0,0,0,0,-1,629,1751,0,0
-588,-727,0,0,0,0,0,0,0,0,0,-1,636,1751,0,0
-581,-727,0,0,0,0,0,0,0,0,0,-1,643,1751,0,0
-574,-727,0,0,0,0,0,0,0,0,0,-1,650,1751,0,0
-567,-727,0,0,0,0,0,0,0,0,0,-1,657,1751,0,0
-560,-727,0,0,0,0,0,0,0,0,0,-1,664,1751,0,0
-553,-727,0,0,0,0,0,0,0,0,0,-1,671,1751,0,0
-546,-727,0,0,0,0,0,0,0,0,0,-1,678,1751,0,0
-539,-727,0,0,0,0,0,0,0,0,0,-1,685,1751,0,0
-532,-727,0,0,0,0,0,0,0,0,0,-1,692,1751,0,0
-525,-727,0,0,0,0,0,0,0,0,0,-1,699,1751,0,0
-518,-727,0,0,0,0,0,0,0,0,0,-1,706,1751,0,0
-511,-727,0,0,0,0,0,0,0,0,0,-1,713,1751,0,0
-504,-727,0,0,0,0,0,0,0,0,0,-1,720,1751,0,0
-497,-727,0,0,0,0,0,0,0,0,0,-1,727,1751,0,0
-490,-727,0,0,0,0,0,0,0,0,0,-1,734,1751,0,0
-483,-727,0,0,0,0,0,0,0,0,0,-1,741,1751,0,0
-476,-727,0,0,0,0,0,0,0,0,0,-1,748,1751,0,0
-469,-727,0,0,0,0,0,0,0,0,0,-1,755,1751,0,0
-462,-727,0,0,0,0,0,0,0,0,0,-1,762,1751,0,0
-455,-727,0,0,0,0,0,0,0,0,0,-1,769,1751,0,0
-448,-727,0,0,0,0,0,0,0,0,0,-1,776,1751,0,0
-441,-727,0,0,0,0,0,0,0,0,0,-1,783,1751,0,0
-434,-727,0,0,0,0,0,0,0,0,0,-1,790,1751,0,0
-427,-727,0,0,0,0,0,0,0,0,0,-1,797,1751,0,0
-420,-727,0,0,0,0,0,0,0,0,0,-1,804,1751,0,0
-413,-727,0,0,0,0,0,0,0,0,0,-1,811,1751,0,0
-406,-727,0,0,0,0,0,0,0,0,0,-1,818,1751,0,0
-399,-727,0,0,0,0,0,0,0,0,0,-1,825,1751,0,0
-392,-727,0,0,0,0,0,0,0,0,0,-1,832,1751,0,0
-385,-727,0,0,0,0,0,0,0,0,0,-1,839,1751,0,0
-378,-727,0,0,0,0,0,0,0,0,0,-1,846,1751,0,0
-371,-727,0,0,0,0,0,0,0,0,0,-1,853,1751,0,0
-364,-727,0,0,0,0,0,0,0,0,0,-1,860,1751,0,0
-357,-727,0,0,0,0,0,0,0,0,0,-1,867,1751,0,0
-350,-727,0,0,0,0,0,0,0,0,0,-1,874,1751,0,0
-343,-727,0,0,0,0,0,0,0,0,0,-1,881,1751,0,0
-336,-727,0,0,0,0,0,0,0,0,0,-1,888,1751,0,0
-329,-727,0,0,0,0,0,0,0,0,0,-1,895,1751,0,0
-322,-727,0,0,0,0,0,0,0,0,0,-1,902,1751,0,0
-315,-727,0,0,0,0,0,0,0,0,0,-1,909,1751,0,0
-308,-727,0,0,0,0,0,0,0,0,0,-1,916,1751,0,0
-301,-727,0,0,0,0,0,0,0,0,0,-1,923,1751,0,0
-294,-727,0,0,0,0,0,0,0,0,0,-1,930,1751,0,0
-287,-727,0,0,0,0,0,0,0,0,0,-1,937,1751,0,0
-280,-727,0,0,0,0,0,0,0,0,0,-1,944,1751,0,0
-273,-727,0,0,0,0,0,0,0,0,0,-1,951,1751,0,0
-266,-727,4.24805,7.61145,0,0,0,0,0,0,0,-1,958,1751,4.24802,-7.6115
-259,-727,3.65228,5.4082,0,0,0,0,0,0,0,-1,965,1751,3.65229,-5.40818
-252,-727,4.98651,6.28906,0,0,0,0,0,0,0,-1,972,1751,4.98649,-6.28908
-245,-727,6.25244,7.34888,0,0,0,0,0,0,0,-1,979,1751,6.25241,-7.3489
-238,-727,5.62982,12.9598,0,0,0,0,0,0,0,-1,986,1751,5.62984,-12.9599
-231,-727,5.30707,13.4872,0.0038461,-0.0146987,-0.0951044,0.090129,-0.100982,-0.736803,0.110397,0.0465338,993,1751,5.30704,-13.4871
-224,-727,5.21381,12.4679,0.00103335,-0.0151449,-0.0873888,0.0807066,-0.0948182,-0.739247,0.101448,0.0444167,1000,1751,5.21384,-12.4679
-217,-727,4.72906,10.7996,0,0,0,0,0,0,0,-1,1007,1751,4.72906,-10.7996
-210,-727,4.28949,14.816,0.000895674,-0.0126585,-0.0679608,0.0624164,-0.0741792,-0.735702,0.078961,0.0473431,1014,1751,4.28949,-14.8161
-203,-727,3.97083,13.6768,0,0,0,0,0,0,0,-1,1021,1751,3.97082,-13.6767
-196,-727,3.91675,12.4885,0.0028804,-0.00562081,-0.0462755,0.0451001,-0.0478405,-0.7396,0.053667,0.0455336,1028,1751,3.91672,-12.4885
-189,-727,3.78772,11.5072,0,0,0,0,0,0,0,-1,1035,1751,3.78767,-11.5072
-182,-727,3.97766,10.704,0,0,0,0,0,0,0,-1,1042,1751,3.9777,-10.704
-175,-727,4.58655,10.9417,0,0,0,0,0,0,0,-1,1049,1751,4.5865,-10.9417
-168,-727,3.97839,10.6309,0,0,0,0,0,0,0,-1,1056,1751,3.97834,-10.6309
-161,-727,4.03479,10.8511,0,0,0,0,0,0,0,-1,1063,1751,4.03473,-10.8511
-154,-727,4.11914,11.157,0.00181399,0.00620328,-0.00125119,0.00653489,0.00148239,-1.31172,0.00395615,0.0447689,1070,1751,4.11912,-11.157
-147,-727,4.19629,11.3231,0.0016606,0.00579282,-0.000393758,0.00583,0.00162341,-1.47664,0.00347434,0.0362417,1077,1751,4.19625,-11.3231
-140,-727,4.08118,11.3658,0.00179676,0.00523374,0.000604303,0.00533689,0.00169361,1.40173,0.00314905,0.0251538,1084,1751,4.08121,-11.3658
-133,-727,4.08594,11.4764,0.00190825,0.00507439,0.000628224,0.00519449,0.00178815,1.38191,0.00304716,0.0175985,1091,1751,4.08588,-11.4764
-126,-727,4.02808,11.624,0.00195404,0.00491518,0.000614764,0.00503774,0.00183148,1.37402,0.00294442,0.0124249,1098,1751,4.02805,-11.624
-119,-727,4.04224,11.7582,0.00219959,0.00481574,0.00069105,0.00498706,0.00202827,1.32778,0.00289594,0.0111696,1105,1751,4.04222,-11.7582
-112,-727,4.04443,11.8164,0.00262009,0.00465814,0.000604941,0.00482417,0.00245405,1.30293,0.00278538,0.0123988,1112,1751,4.04442,-11.8164
-105,-727,4.01831,11.8998,0.00279449,0.00454047,0.000401812,0.0046285,0.00270646,1.35511,0.00268503,0.012126,1119,1751,4.01833,-11.8998
-98,-727,4.03491,11.9727,0.00270513,0.00437276,0.000144406,0.00438517,0.00269272,1.48505,0.00255364,0.0104104,1126,1751,4.03486,-11.9727
-91,-727,4.03015,12.0287,0.00247203,0.00422576,-0.000130775,0.00423546,0.00246233,-1.49677,0.00245611,0.0105161,1133,1751,4.03016,-12.0287
-84,-727,3.99988,12.0966,0.00224211,0.00403428,-0.000299039,0.00408286,0.00219353,-1.40975,0.00235942,0.0109392,1140,1751,3.99988,-12.0965
-77,-727,3.99854,12.1827,0.00199715,0.00364666,-0.000527667,0.00380101,0.00184279,-1.28622,0.00219485,0.0115142,1147,1751,3.99851,-12.1827
-70,-727,4.00159,12.2628,0.00166812,0.00320353,-0.000759571,0.00351579,0.00135586,-1.18076,0.00204746,0.0126246,1154,1751,4.00159,-12.2628
-63,-727,4.00195,12.3329,0.0013331,0.0027245,-0.000987166,0.00323648,0.000821117,-1.09235,0.00194268,0.01073,1161,1751,4.00201,-12.3329
-56,-727,3.99805,12.3945,0.000786099,0.00199339,-0.000902282,0.00247534,0.000304157,-1.08021,0.00155876,0.0108185,1168,1751,3.99801,-12.3946
-49,-727,3.98694,12.4547,0.000346619,0.00136765,-0.000704053,0.0017268,-1.25293e-05,-1.09909,0.0011554,0.0138885,1175,1751,3.9869,-12.4547
-42,-727,3.98755,12.5011,0.000608029,0.000727348,-0.000534303,0.00120531,0.000130065,-0.840997,0.000763886,0.017673,1182,1751,3.98752,-12.5011
-35,-727,3.96619,12.5304,0.0008394,0.000151433,-0.000521001,0.00111973,-0.000128897,-0.49363,0.000792952,0.0149791,1189,1751,3.96624,-12.5304
-28,-727,4.00281,12.5704,0.000937172,-0.000284408,-0.000468699,0.00109628,-0.000443516,-0.327261,0.000915242,0.0084558,1196,1751,4.00279,-12.5704
-21,-727,3.99854,12.6433,0.00105261,-0.000897346,-0.000335538,0.00110874,-0.000953468,-0.165726,0.00119174,0.00978871,1203,1751,3.99856,-12.6433
-14,-727,3.99683,12.663,0.00116676,-0.00165806,-0.000229314,0.00118526,-0.00167656,-0.0804759,0.00166036,0.0112784,1210,1751,3.99689,-12.663
-7,-727,3.99451,12.7023,0.00120004,-0.00231777,-0.00017629,0.00120886,-0.00232658,-0.0499468,0.00207491,0.0148327,1217,1751,3.99454,-12.7022
0,-727,3.99658,12.7701,0.00114777,-0.00284859,-0.000115031,0.00115108,-0.00285189,-0.0287521,0.00237964,0.015154,1224,1751,3.99659,-12.7701
7,-727,3.99133,12.8008,0.00101659,-0.00324686,-2.73632e-05,0.00101677,-0.00324704,-0.00641774,0.00257152,0.0146474,1231,1751,3.99139,-12.8007
14,-727,3.99377,12.825,0.000812918,-0.00356693,3.44849e-05,0.000813189,-0.0035672,0.00787289,0.00269048,0.0143418,1238,1751,3.99376,-12.825
21,-727,3.9856,12.8511,0.000588703,-0.00374632,8.39117e-05,0.000590327,-0.00374794,0.019347,0.00271687,0.0119398,1245,1751,3.98558,-12.8511
28,-727,3.99658,12.8634,0.000377484,-0.00382353,0.000123345,0.000381103,-0.00382715,0.0293272,0.00268749,0.010196,1252,1751,3.99662,-12.8634
35,-727,4.01038,12.8883,0.000342197,-0.00389504,7.2508e-06,0.000342209,-0.00389505,0.0017112,0.00271796,0.011336,1259,1751,4.01037,-12.8883
42,-727,3.99548,12.9084,0.000215512,-0.00391726,-0.000317663,0.000239787,-0.00394153,-0.0762674,0.00271115,0.0115538,1266,1751,3.99544,-12.9084
49,-727,3.97632,12.9158,8.53422e-05,-0.0038626,-0.000620991,0.000180717,-0.00395798,-0.152394,0.00270091,0.00986753,1273,1751,3.97629,-12.9158
56,-727,3.97632,12.9585,0.000105842,-0.00380686,-0.000853027,0.000283727,-0.00398475,-0.205588,0.00275595,0.00820784,1280,1751,3.97636,-12.9585
63,-727,3.99292,12.9741,0.000103683,-0.00387768,-0.00100702,0.000343896,-0.0041179,-0.234164,0.00286678,0.0101638,1287,1751,3.99296,-12.9742
70,-727,4.00525,12.9645,8.30551e-05,-0.00394405,-0.0010338,0.000332937,-0.00419393,-0.237163,0.00291328,0.0122853,1294,1751,4.00523,-12.9645
77,-727,4.00854,12.9835,0.000116371,-0.00397356,-0.00105707,0.00037342,-0.00423061,-0.238542,0.00295276,0.0143018,1301,1751,4.00852,-12.9835
84,-727,4.0022,12.9543,0.000103654,-0.00407002,-0.00104224,0.000349443,-0.00431581,-0.231597,0.00300048,0.0139277,1308,1751,4.00221,-12.9544
91,-727,4.01501,12.937,0.000166088,-0.00400919,-0.000831838,0.000325712,-0.00416881,-0.189589,0.00289389,0.0143106,1315,1751,4.01496,-12.937
98,-727,4.01746,12.9543,0.000305775,-0.00387462,-0.000510659,0.000367251,-0.0039361,-0.119809,0.00275465,0.0124433,1322,1751,4.01741,-12.9543
105,-727,4.01379,12.9583,0.000413552,-0.00380765,-0.000135687,0.000417909,-0.00381201,-0.0320999,0.00269148,0.0122352,1329,1751,4.01376,-12.9582
112,-727,4.01196,12.9564,0.00055842,-0.00349438,0.000262724,0.000575381,-0.00351134,0.0644657,0.00255438,0.0113546,1336,1751,4.01192,-12.9564
119,-727,4.02197,12.9458,0.00076277,-0.00300261,0.000612012,0.000859747,-0.00309958,0.157149,0.00240476,0.00883993,1343,1751,4.02196,-12.9458
126,-727,4.03137,12.9391,0.00103818,-0.00234698,0.000747826,0.00119603,-0.00250482,0.208018,0.00218077,0.00943052,1350,1751,4.03142,-12.9391
133,-727,4.02856,12.9076,0.00124731,-0.00166688,0.000779663,0.00144279,-0.00186236,0.245658,0.00191335,0.0141525,1357,1751,4.02859,-12.9076
140,-727,4.04395,12.8995,0.00132666,-0.000961917,0.000737222,0.00154358,-0.00117884,0.286165,0.00157649,0.0207859,1364,1751,4.04389,-12.8995
147,-727,4.0343,12.9033,0.0014382,-0.00039929,0.000538268,0.00158427,-0.000545357,0.264984,0.00127738,0.0185995,1371,1751,4.03434,-12.9033
154,-727,4.02649,12.8511,0.00152043,0.000117966,0.000174974,0.00154193,9.6466e-05,0.122265,0.000997353,0.0117639,1378,1751,4.0265,-12.8511
161,-727,4.00854,12.803,0.00147593,0.000531169,-0.000243297,0.0015349,0.000472196,-0.237806,0.000907774,0.00894174,1385,1751,4.00855,-12.803
168,-727,4.00049,12.7793,0.00155708,0.000949132,-0.000577555,0.00190577,0.000600442,-0.54316,0.0011251,0.0117092,1392,1751,4.00055,-12.7794
175,-727,4.01355,12.7399,0.00169708,0.00114129,-0.000894304,0.00235567,0.000482701,-0.634758,0.00143683,0.0170138,1399,1751,4.0135,-12.7399
182,-727,4.01611,12.7035,0.00171193,0.00125372,-0.000977551,0.00248686,0.000478784,-0.670294,0.0015236,0.0190875,1406,1751,4.01612,-12.7034
189,-727,4.0061,12.6584,0.0015381,0.00168036,-0.000949942,0.00256183,0.000656626,-0.822767,0.00153651,0.0120008,1413,1751,4.00605,-12.6584
196,-727,3.9873,12.6155,0.00104981,0.00211192,-0.000815486,0.00255403,0.000607705,-1.07401,0.0015406,0.0123871,1420,1751,3.98732,-12.6155
203,-727,3.96936,12.551,0.000601815,0.00208218,-0.000433545,0.0021998,0.000484192,-1.30587,0.00133474,0.0146954,1427,1751,3.96934,-12.551
210,-727,3.96631,12.5217,0.000500411,0.00230527,-0.000287526,0.00234997,0.000455713,-1.41657,0.001439,0.014339,1434,1751,3.96629,-12.5217
217,-727,3.96606,12.4788,0.000366647,0.00235737,-0.000143017,0.00236759,0.000356425,-1.49944,0.00147402,0.0111655,1441,1751,3.96612,-12.4787
224,-727,3.96973,12.3988,7.07259e-05,0.00225731,-5.82499e-05,0.00225886,6.91754e-05,-1.54418,0.00148339,0.0127166,1448,1751,3.96967,-12.3988
231,-727,3.97632,12.3519,-0.00222754,0.00125103,-2.66927e-05,0.00125123,-0.00222774,-1.56312,0.00203479,0.0105845,1455,1751,3.9763,-12.352
238,-727,3.96643,12.2838,-0.00578321,0.000183069,-5.59719e-05,0.000183594,-0.00578374,-1.56142,0.00391846,0.0102482,1462,1751,3.9664,-12.2838
245,-727,3.96228,12.2159,-0.0106092,-0.00134863,7.73711e-05,-0.00134798,-0.0106099,1.56244,0.00666947,0.00931334,1469,1751,3.96232,-12.2159
252,-727,3.95154,12.1495,-0.0149699,-0.00260807,-0.000113197,-0.00260703,-0.0149709,-1.56164,0.00923508,0.0102415,1476,1751,3.95154,-12.1495
259,-727,3.96704,12.0817,-0.0199596,-0.00382199,-0.000385591,-0.00381278,-0.0199688,-1.54692,0.0122412,0.014014,1483,1751,3.96705,-12.0817
266,-727,4.03113,12.0686,-0.0258067,-0.0052617,-0.000575581,-0.00524559,-0.0258228,-1.54281,0.0157604,0.0204939,1490,1751,4.03109,-12.0686
273,-727,4.1001,12.0713,-0.0320571,-0.00653923,-0.000812955,-0.00651335,-0.0320829,-1.53898,0.019582,0.0345154,1497,1751,4.1001,-12.0713
280,-727,3.85706,12.0475,-0.0382453,-0.00765716,-0.00105111,-0.00762108,-0.0382813,-1.53649,0.023398,0.0478465,1504,1751,3.85711,-12.0474
287,-727,3.677,11.9061,0,0,0,0,0,0,0,-1,1511,1751,3.67695,-11.9061
294,-727,4.04846,11.5691,0,0,0,0,0,0,0,-1,1518,1751,4.04845,-11.5691
301,-727,4.27405,11.4634,-0.0520824,-0.0113335,-0.000467827,-0.0113281,-0.0520878,-1.55932,0.0316327,0.0468006,1525,1751,4.27407,-11.4634
308,-727,4.19531,11.2313,-0.0534631,-0.0119507,-0.000397554,-0.0119469,-0.0534669,-1.56122,0.0324049,0.0457121,1532,1751,4.19529,-11.2314
315,-727,4.08057,10.9291,0,0,0,0,0,0,0,-1,1539,1751,4.08061,-10.9291
322,-727,3.36816,10.7175,0,0,0,0,0,0,0,-1,1546,1751,3.36811,-10.7175
329,-727,6.61853,11.6267,0,0,0,0,0,0,0,-1,1553,1751,6.61859,-11.6267
336,-727,3.34875,7.61792,0,0,0,0,0,0,0,-1,1560,1751,3.34872,-7.61791
343,-727,2.41699,8.72095,0,0,0,0,0,0,0,-1,1567,1751,2.41702,-8.72098
350,-727,3.89783,7.50195,0,0,0,0,0,0,0,-1,1574,1751,3.89782,-7.50193
357,-727,1.34595,5.08008,0,0,0,0,0,0,0,-1,1581,1751,1.34592,-5.08005
364,-727,1.62598,6.45728,0,0,0,0,0,0,0,-1,1588,1751,1.62603,-6.45724
371,-727,1.81128,8.06897,0,0,0,0,0,0,0,-1,1595,1751,1.81125,-8.06896
378,-727,1.68237,9.37512,0,0,0,0,0,0,0,-1,1602,1751,1.68242,-9.3751
385,-727,1.4812,10.5988,0,0,0,0,0,0,0,-1,1609,1751,1.48121,-10.5987
392,-727,0,0,0,0,0,0,0,0,0,-1,1616,1751,0,0
399,-727,0,0,0,0,0,0,0,0,0,-1,1623,1751,0,0
406,-727,0,0,0,0,0,0,0,0,0,-1,1630,1751,0,0
413,-727,0,0,0,0,0,0,0,0,0,-1,1637,1751,0,0
420,-727,0,0,0,0,0,0,0,0,0,-1,1644,1751,0,0
427,-727,0,0,0,0,0,0,0,0,0,-1,1651,1751,0,0
434,-727,0,0,0,0,0,0,0,0,0,-1,1658,1751,0,0
441,-727,0,0,0,0,0,0,0,0,0,-1,1665,1751,0,0
448,-727,0,0,0,0,0,0,0,0,0,-1,1672,1751,0,0
455,-727,0,0,0,0,0,0,0,0,0,-1,1679,1751,0,0
462,-727,0,0,0,0,0,0,0,0,0,-1,1686,1751,0,0
469,-727,0,0,0,0,0,0,0,0,0,-1,1693,1751,0,0
476,-727,0,0,0,0,0,0,0,0,0,-1,1700,1751,0,0
483,-727,0,0,0,0,0,0,0,0,0,-1,1707,1751,0,0
490,-727,0,0,0,0,0,0,0,0,0,-1,1714,1751,0,0
497,-727,0,0,0,0,0,0,0,0,0,-1,1721,1751,0,0
504,-727,0,0,0,0,0,0,0,0,0,-1,1728,1751,0,0
511,-727,0,0,0,0,0,0,0,0,0,-1,1735,1751,0,0
518,-727,0,0,0,0,0,0,0,0,0,-1,1742,1751,0,0
525,-727,0,0,0,0,0,0,0,0,0,-1,1749,1751,0,0
532,-727,0,0,0,0,0,0,0,0,0,-1,1756,1751,0,0
539,-727,0,0,0,0,0,0,0,0,0,-1,1763,1751,0,0
546,-727,0,0,0,0,0,0,0,0,0,-1,1770,1751,0,0
553,-727,0,0,0,0,0,0,0,0,0,-1,1777,1751,0,0
560,-727,0,0,0,0,0,0,0,0,0,-1,1784,1751,0,0
567,-727,0,0,0,0,0,0,0,0,0,-1,1791,1751,0,0
574,-727,0,0,0,0,0,0,0,0,0,-1,1798,1751,0,0
581,-727,0,0,0,0,0,0,0,0,0,-1,1805,1751,0,0
588,-727,0,0,0,0,0,0,0,0,0,-1,1812,1751,0,0
595,-727,0,0,0,0,0,0,0,0,0,-1,1819,1751,0,0
602,-727,0,0,0,0,0,0,0,0,0,-1,1826,1751,0,0
609,-727,0,0,0,0,0,0,0,0,0,-1,1833,1751,0,0
616,-727,0,0,0,0,0,0,0,0,0,-1,1840,1751,0,0
623,-727,0,0,0,0,0,0,0,0,0,-1,1847,1751,0,0
630,-727,0,0,0,0,0,0,0,0,0,-1,1854,1751,0,0
637,-727,0,0,0,0,0,0,0,0,0,-1,1861,1751,0,0
644,-727,0,0,0,0,0,0,0,0,0,-1,1868,1751,0,0
651,-727,0,0,0,0,0,0,0,0,0,-1,1875,1751,0,0
658,-727,0,0,0,0,0,0,0,0,0,-1,1882,1751,0,0
665,-727,0,0,0,0,0,0,0,0,0,-1,1889,1751,0,0
672,-727,0,0,0,0,0,0,0,0,0,-1,1896,1751,0,0
679,-727,0,0,0,0,0,0,0,0,0,-1,1903,1751,0,0
686,-727,0,0,0,0,0,0,0,0,0,-1,1910,1751,0,0
693,-727,0,0,0,0,0,0,0,0,0,-1,1917,1751,0,0
700,-727,0,0,0,0,0,0,0,0,0,-1,1924,1751,0,0
707,-727,0,0,0,0,0,0,0,0,0,-1,1931,1751,0,0
714,-727,0,0,0,0,0,0,0,0,0,-1,1938,1751,0,0
721,-727,0,0,0,0,0,0,0,0,0,-1,1945,1751,0,0
728,-727,0,0,0,0,0,0,0,0,0,-1,1952,1751,0,0
735,-727,0,0,0,0,0,0,0,0,0,-1,1959,1751,0,0
742,-727,0,0,0,0,0,0,0,0,0,-1,1966,1751,0,0
749,-727,0,0,0,0,0,0,0,0,0,-1,1973,1751,0,0
756,-727,0,0,0,0,0,0,0,0,0,-1,1980,1751,0,0
763,-727,0,0,0,0,0,0,0,0,0,-1,1987,1751,0,0
770,-727,0,0,0,0,0,0,0,0,0,-1,1994,1751,0,0
777,-727,0,0,0,0,0,0,0,0,0,-1,2001,1751,0,0
784,-727,0,0,0,0,0,0,0,0,0,-1,2008,1751,0,0
791,-727,0,0,0,0,0,0,0,0,0,-1,2015,1751,0,0
798,-727,0,0,0,0,0,0,0,0,0,-1,2022,1751,0,0
805,-727,0,0,0,0,0,0,0,0,0,-1,2029,1751,0,0
812,-727,0,0,0,0,0,0,0,0,0,-1,2036,1751,0,0
-700,-734,0,0,0,0,0,0,0,0,0,-1,524,1758,0,0
-693,-734,0,0,0,0,0,0,0,0,0,-1,531,1758,0,0
-686,-734,0,0,0,0,0,0,0,0,0,-1,538,1758,0,0
-679,-734,0,0,0,0,0,0,0,0,0,-1,545,1758,0,0
-672,-734,0,0,0,0,0,0,0,0,0,-1,552,1758,0,0
-665,-734,0,0,0,0,0,0,0,0,0,-1,559,1758,0,0
-658,-734,0,0,0,0,0,0,0,0,0,-1,566,1758,0,0
-651,-734,0,0,0,0,0,0,0,0,0,-1,573,1758,0,0
-644,-734,0,0,0,0,0,0,0,0,0,-1,580,1758,0,0
-637,-734,0,0,0,0,0,0,0,0,0,-1,587,1758,0,0
-630,-734,0,0,0,0,0,0,0,0,0,-1,594,1758,0,0
-623,-734,0,0,0,0,0,0,0,0,0,-1,601,1758,0,0
-616,-734,0,0,0,0,0,0,0,0,0,-1,608,1758,0,0
-609,-734,0,0,0,0,0,0,0,0,0,-1,615,1758,0,0
-602,-734,0,0,0,0,0,0,0,0,0,-1,622,1758,0,0
-595,-734,0,0,0,0,0,0,0,0,0,-1,629,1758,0,0
-588,-734,0,0,0,0,0,0,0,0,0,-1,636,1758,0,0
-581,-734,0,0,0,0,0,0,0,0,0,-1,643,1758,0,0
-574,-734,0,0,0,0,0,0,0,0,0,-1,650,1758,0,0
-567,-734,0,0,0,0,0,0,0,0,0,-1,657,1758,0,0
-560,-734,0,0,0,0,0,0,0,0,0,-1,664,1758,0,0
-553,-734,0,0,0,0,0,0,0,0,0,-1,671,1758,0,0
-546,-734,0,0,0,0,0,0,0,0,0,-1,678,1758,0,0
-539,-734,0,0,0,0,0,0,0,0,0,-1,685,1758,0,0
-532,-734,0,0,0,0,0,0,0,0,0,-1,692,1758,0,0
-525,-734,0,0,0,0,0,0,0,0,0,-1,699,1758,0,0
-518,-734,0,0,0,0,0,0,0,0,0,-1,706,1758,0,0
-511,-734,0,0,0,0,0,0,0,0,0,-1,713,1758,0,0
-504,-734,0,0,0,0,0,0,0,0,0,-1,720,1758,0,0
-497,-734,0,0,0,0,0,0,0,0,0,-1,727,1758,0,0
-490,-734,0,0,0,0,0,0,0,0,0,-1,734,1758,0,0
-483,-734,0,0,0,0,0,0,0,0,0,-1,741,1758,0,0
-476,-734,0,0,0,0,0,0,0,0,0,-1,748,1758,0,0
-469,-734,0,0,0,0,0,0,0,0,0,-1,755,1758,0,0
-462,-734,0,0,0,0,0,0,0,0,0,-1,762,1758,0,0
-455,-734,0,0,0,0,0,0,0,0,0,-1,769,1758,0,0
-448,-734,0,0,0,0,0,0,0,0,0,-1,776,1758,0,0
-441,-734,0,0,0,0,0,0,0,0,0,-1,783,1758,0,0
-434,-734,0,0,0,0,0,0,0,0,0,-1,790,1758,0,0
-427,-734,0,0,0,0,0,0,0,0,0,-1,797,1758,0,0
-420,-734,0,0,0,0,0,0,0,0,0,-1,804,1758,0,0
-413,-734,0,0,0,0,0,0,0,0,0,-1,811,1758,0,0
-406,-734,0,0,0,0,0,0,0,0,0,-1,818,1758,0,0
-399,-734,0,0,0,0,0,0,0,0,0,-1,825,1758,0,0
-392,-734,0,0,0,0,0,0,0,0,0,-1,832,1758,0,0
-385,-734,0,0,0,0,0,0,0,0,0,-1,839,1758,0,0
-378,-734,0,0,0,0,0,0,0,0,0,-1,846,1758,0,0
-371,-734,0,0,0,0,0,0,0,0,0,-1,853,1758,0,0
-364,-734,0,0,0,0,0,0,0,0,0,-1,860,1758,0,0
-357,-734,0,0,0,0,0,0,0,0,0,-1,867,1758,0,0
-350,-734,0,0,0,0,0,0,0,0,0,-1,874,1758,0,0
-343,-734,0,0,0,0,0,0,0,0,0,-1,881,1758,0,0
-336,-734,0,0,0,0,0,0,0,0,0,-1,888,1758,0,0
-329,-734,0,0,0,0,0,0,0,0,0,-1,895,1758,0,0
-322,-734,0,0,0,0,0,0,0,0,0,-1,902,1758,0,0
-315,-734,0,0,0,0,0,0,0,0,0,-1,909,1758,0,0
-308,-734,0,0,0,0,0,0,0,0,0,-1,916,1758,0,0
-301,-734,0,0,0,0,0,0,0,0,0,-1,923,1758,0,0
-294,-734,0,0,0,0,0,0,0,0,0,-1,930,1758,0,0
-287,-734,0,0,0,0,0,0,0,0,0,-1,937,1758,0,0
-280,-734,0,0,0,0,0,0,0,0,0,-1,944,1758,0,0
-273,-734,0,0,0,0,0,0,0,0,0,-1,951,1758,0,0
-266,-734,0,0,0,0,0,0,0,0,0,-1,958,1758,0,0
-259,-734,0,0,0,0,0,0,0,0,0,-1,965,1758,0,0
-252,-734,5.57068,5.35791,0,0,0,0,0,0,0,-1,972,1758,5.57068,-5.3579
-245,-734,6.83002,6.19312,0,0,0,0,0,0,0,-1,979,1758,6.83001,-6.19311
-238,-734,4.79346,4.72571,0,0,0,0,0,0,0,-1,986,1758,4.79348,-4.72568
-231,-734,5.7038,13.3419,0,0,0,0,0,0,0,-1,993,1758,5.70378,-13.3419
-224,-734,6.11206,12.2222,0,0,0,0,0,0,0,-1,1000,1758,6.11204,-12.2222
-217,-734,6.52032,11.1024,0,0,0,0,0,0,0,-1,1007,1758,6.5203,-11.1024
-210,-734,4.36469,15.0829,0,0,0,0,0,0,0,-1,1014,1758,4.3647,-15.0828
-203,-734,3.97339,13.3999,0,0,0,0,0,0,0,-1,1021,1758,3.97338,-13.3999
-196,-734,3.84729,12.3807,0,0,0,0,0,0,0,-1,1028,1758,3.84734,-12.3807
-189,-734,3.4436,11.3749,0,0,0,0,0,0,0,-1,1035,1758,3.4436,-11.3749
-182,-734,3.55627,10.6559,0,0,0,0,0,0,0,-1,1042,1758,3.55632,-10.6559
-175,-734,3.50879,9.12256,0,0,0,0,0,0,0,-1,1049,1758,3.50878,-9.12255
-168,-734,3.44299,9.47632,0,0,0,0,0,0,0,-1,1056,1758,3.443,-9.47626
-161,-734,3.51257,9.94104,0,0,0,0,0,0,0,-1,1063,1758,3.51257,-9.94101
-154,-734,4.22815,11.1169,0,0,0,0,0,0,0,-1,1070,1758,4.22817,-11.1169
-147,-734,4.4939,11.3608,0,0,0,0,0,0,0,-1,1077,1758,4.49394,-11.3609
-140,-734,4.60803,11.3999,0.00285879,0.0055397,0.00171239,0.0063739,0.00202459,1.11748,0.00376068,0.0402833,1084,1758,4.60799,-11.3999
-133,-734,4.38525,11.4401,0.00306016,0.00537371,0.00174186,0.00630792,0.00212596,1.07851,0.0037058,0.0343645,1091,1758,4.3853,-11.4401
-126,-734,4.07397,11.5674,0.00320165,0.00529665,0.0016814,0.00623015,0.00226814,1.06398,0.00364102,0.0316883,1098,1758,4.07401,-11.5674
-119,-734,3.96008,11.7018,0.00358096,0.00533151,0.00166231,0.0063349,0.00257757,1.02773,0.00367854,0.0329412,1105,1758,3.96006,-11.7018
-112,-734,4.0553,11.7687,0.00412114,0.00532796,0.00142859,0.00627535,0.00317375,0.985223,0.00362316,0.0259082,1112,1758,4.05535,-11.7687
-105,-734,4.1189,11.8699,0.00433175,0.00530372,0.00104539,0.00597056,0.0036649,1.00298,0.00347675,0.0184496,1119,1758,4.11893,-11.8699
-98,-734,4.12268,11.957,0.00419252,0.00522117,0.000590203,0.0054897,0.00392399,1.1438,0.00326551,0.0149079,1126,1758,4.12271,-11.957
-91,-734,4.11182,12.0127,0.00383653,0.00509564,0.000100918,0.00510367,0.00382849,1.49132,0.00306706,0.017537,1133,1758,4.11181,-12.0127
-84,-734,4.08008,12.0764,0.00344264,0.00485145,-0.000257425,0.00489701,0.00339708,-1.39561,0.00289715,0.0158296,1140,1758,4.0801,-12.0764
-77,-734,4.06531,12.1782,0.00300773,0.00431319,-0.000631202,0.00456846,0.00275245,-1.18648,0.00265601,0.0142234,1147,1758,4.06529,-12.1782
-70,-734,4.06897,12.2184,0.00246169,0.00371933,-0.000962191,0.00423995,0.00194107,-1.07482,0.00245084,0.0110985,1154,1758,4.06899,-12.2184
-63,-734,4.07043,12.3134,0.00208903,0.00334787,-0.00132261,0.00418319,0.0012537,-1.00749,0.00247892,0.0115414,1161,1758,4.07047,-12.3133
-56,-734,4.05579,12.3822,0.00138133,0.0023989,-0.00114108,0.00313949,0.00064075,-0.99511,0.00191547,0.0120629,1168,1758,4.05578,-12.3822
-49,-734,4.03381,12.4346,0.0007318,0.00162267,-0.000815332,0.00210631,0.00024816,-1.03541,0.00132923,0.0123072,1175,1758,4.03385,-12.4345
-42,-734,4.03113,12.5056,0.00113396,0.000690187,-0.000580186,0.00153324,0.000290904,-0.602761,0.000940312,0.0140127,1182,1758,4.03116,-12.5056
-35,-734,4.04578,12.5236,0.00129626,-0.000234728,-0.000674514,0.00155104,-0.000489503,-0.36115,0.0012301,0.0134992,1189,1758,4.04581,-12.5235
-28,-734,4.04651,12.5627,0.00118512,-0.000974322,-0.000580978,0.0013315,-0.00112071,-0.246824,0.00141752,0.00908105,1196,1758,4.04648,-12.5628
-21,-734,4.07739,12.6216,0.00118646,-0.0018686,-0.000365078,0.00122949,-0.00191162,-0.117299,0.00182772,0.0143082,1203,1758,4.07735,-12.6215
-14,-734,4.04553,12.6901,0.00119997,-0.00280071,-0.000320481,0.00122548,-0.00282622,-0.0794317,0.00239933,0.0151448,1210,1758,4.04558,-12.69
-7,-734,4.0354,12.7234,0.00104609,-0.00353196,-0.000329431,0.00106967,-0.00355554,-0.0714683,0.00279598,0.0180794,1217,1758,4.03534,-12.7233
0,-734,4.03882,12.7587,0.00080309,-0.00389399,-0.000336309,0.000827048,-0.00391795,-0.071116,0.00292686,0.0183677,1224,1758,4.03879,-12.7586
7,-734,4.03149,12.7979,0.000551783,-0.00405464,-0.000327919,0.000575009,-0.00407786,-0.0707122,0.00292912,0.0130429,1231,1758,4.03147,-12.7979
14,-734,4.01416,12.8409,0.000292521,-0.00406676,-0.000347519,0.000320051,-0.00409429,-0.0790539,0.00284222,0.012697,1238,1758,4.01422,-12.8409
21,-734,3.99878,12.844,4.54671e-05,-0.00390576,-0.000368857,7.96058e-05,-0.0039399,-0.09229,0.00265353,0.0111122,1245,1758,3.99884,-12.844
28,-734,4.01807,12.8627,-0.000120166,-0.00356097,-0.000405196,-7.30929e-05,-0.00360804,-0.115654,0.00238137,0.0107139,1252,1758,4.01804,-12.8627
35,-734,4.02441,12.9155,6.96936e-05,-0.00325968,-0.000685643,0.000205365,-0.00339535,-0.195351,0.00233504,0.0135839,1259,1758,4.02441,-12.9155
42,-734,4.01758,12.9225,0.000118428,-0.00289862,-0.00121244,0.000545274,-0.00332546,-0.338505,0.0024193,0.0117758,1266,1758,4.0176,-12.9225
49,-734,3.99768,12.9332,7.03427e-06,-0.0024254,-0.00168952,0.00087256,-0.00329092,-0.473433,0.00253536,0.00949644,1273,1758,3.99771,-12.9333
56,-734,3.9856,12.9597,-5.15869e-05,-0.00209575,-0.0020486,0.00121575,-0.00336308,-0.554008,0.00273878,0.00814322,1280,1758,3.98558,-12.9598
63,-734,4.00659,12.9556,-0.000220239,-0.00214562,-0.00222193,0.00123859,-0.00360445,-0.580972,0.00290521,0.0110997,1287,1758,4.00659,-12.9556
70,-734,3.98718,12.959,-0.000399984,-0.00222703,-0.00225552,0.00111998,-0.003747,-0.592986,0.00294324,0.0119985,1294,1758,3.98722,-12.9589
77,-734,4.00439,13.0347,-0.000511671,-0.0023818,-0.00230346,0.00103929,-0.00393275,-0.592591,0.0030283,0.0155923,1301,1758,4.00435,-13.0346
84,-734,4.0033,13.0046,-0.000815418,-0.00264193,-0.00228162,0.000728932,-0.00418628,-0.59503,0.00306288,0.0149048,1308,1758,4.00335,-13.0047
91,-734,4.00256,12.981,-0.00115066,-0.00288308,-0.00197132,0.000136362,-0.0041701,-0.578393,0.00282662,0.0165168,1315,1758,4.00257,-12.981
98,-734,4.0127,12.9919,-0.00131307,-0.00316091,-0.00158604,-0.000401464,-0.00407252,-0.521661,0.00259158,0.0127236,1322,1758,4.01264,-12.9919
105,-734,4.01611,12.9838,-0.00144312,-0.00357471,-0.00108047,-0.000991239,-0.00402659,-0.396118,0.00242255,0.014362,1329,1758,4.01606,-12.9837
112,-734,4.01526,12.9495,-0.0014906,-0.00364055,-0.000544386,-0.00136061,-0.00377054,-0.234384,0.00220484,0.0134843,1336,1758,4.01529,-12.9495
119,-734,4.01868,12.9072,-0.00133837,-0.00338301,-8.0336e-05,-0.00133522,-0.00338617,-0.0392103,0.00196951,0.0137919,1343,1758,4.01864,-12.9072
126,-734,4.01746,12.8986,-0.000928587,-0.00281527,0.000111182,-0.000922058,-0.0028218,0.0586591,0.00166144,0.0149589,1350,1758,4.01748,-12.8986
133,-734,4.01013,12.8774,-0.000482519,-0.00216272,0.000182083,-0.000463014,-0.00218223,0.106719,0.00132767,0.0138878,1357,1758,4.0101,-12.8774
140,-734,4.00452,12.8392,-0.000177959,-0.00133549,0.00024803,-0.000127051,-0.0013864,0.202437,0.00088496,0.0186644,1364,1758,4.00453,-12.8392
147,-734,4.0061,12.8503,0.000368604,-0.000642404,0.000148188,0.000389877,-0.000663677,0.14258,0.000615079,0.0139661,1371,1758,4.00615,-12.8503
154,-734,3.99585,12.8622,0.00102295,-6.45619e-05,-0.00016959,0.00104878,-9.03946e-05,-0.151163,0.000731183,0.00953195,1378,1758,3.99587,-12.8621
161,-734,3.97302,12.8223,0.0015196,0.000558289,-0.000637815,0.00183759,0.000240297,-0.462498,0.00115334,0.00895562,1385,1758,3.973,-12.8223
168,-734,3.95801,12.7811,0.00207225,0.00150073,-0.00112533,0.00294753,0.000625441,-0.661059,0.00179327,0.0147548,1392,1758,3.95795,-12.7812
175,-734,3.98486,12.7511,0.00247102,0.00182879,-0.00151008,0.00369375,0.000606055,-0.680636,0.0022874,0.0170721,1399,1758,3.98488,-12.7511
182,-734,3.99414,12.6962,0.00254627,0.00185923,-0.00155263,0.00379292,0.000612574,-0.676527,0.00235118,0.0150003,1406,1758,3.99418,-12.6962
189,-734,3.96143,12.6478,0.00224858,0.00247339,-0.00137087,0.00373646,0.00098551,-0.826305,0.00223607,0.0110946,1413,1758,3.96141,-12.6478
196,-734,3.94482,12.6069,0.0013835,0.00302322,-0.00104188,0.00352914,0.000877577,-1.11875,0.00212162,0.0108991,1420,1758,3.94484,-12.607
203,-734,3.95435,12.5613,0.000592613,0.00279415,-0.000286388,0.0028308,0.000555968,-1.44353,0.00173188,0.0111437,1427,1758,3.9544,-12.5613
210,-734,3.95142,12.5173,0.000429197,0.00312638,-4.86464e-05,0.00312726,0.00042832,-1.55277,0.00195775,0.0123991,1434,1758,3.95138,-12.5174
217,-734,3.93579,12.4795,0.000220403,0.00326211,0.000183666,0.00327316,0.000209353,1.5107,0.00211578,0.0106171,1441,1758,3.93582,-12.4795
224,-734,3.93518,12.4221,-0.000187857,0.00319677,0.000330577,0.00322875,-0.000219842,1.47434,0.0022294,0.0122051,1448,1758,3.93516,-12.4221
231,-734,3.94409,12.3712,-0.00340532,0.00184487,0.000331924,0.00186577,-0.00342622,1.50791,0.00309929,0.0139336,1455,1758,3.94404,-12.3712
238,-734,3.9425,12.2852,-0.00823871,0.00036602,0.000265281,0.000374191,-0.00824688,1.54001,0.0056268,0.0157983,1462,1758,3.9425,-12.2851
245,-734,3.92297,12.1801,-0.014691,-0.00173517,0.000428386,-0.00172102,-0.0147051,1.53778,0.00928307,0.0190376,1469,1758,3.92301,-12.18
252,-734,3.86487,12.1042,-0.0206272,-0.00357217,0.000240111,-0.00356879,-0.0206305,1.55672,0.0127319,0.0263224,1476,1758,3.86486,-12.1042
259,-734,3.86987,12.0942,-0.0274343,-0.00542028,-3.07734e-05,-0.00542024,-0.0274343,-1.5694,0.0167772,0.0382051,1483,1758,3.86992,-12.0942
266,-734,3.90649,12.1403,-0.035403,-0.0075634,-0.000215694,-0.00756173,-0.0354047,-1.56305,0.0215298,0.0471299,1490,1758,3.90651,-12.1403
273,-734,3.92761,12.2816,0,0,0,0,0,0,0,-1,1497,1758,3.92765,-12.2816
280,-734,3.80164,12.3871,0,0,0,0,0,0,0,-1,1504,1758,3.80168,-12.3871
287,-734,12.9742,6.39514,0,0,0,0,0,0,0,-1,1511,1758,12.9743,-6.39518
294,-734,11.8711,5.68872,0,0,0,0,0,0,0,-1,1518,1758,11.8711,-5.68874
301,-734,4.45288,11.3574,0,0,0,0,0,0,0,-1,1525,1758,4.45285,-11.3574
308,-734,4.49426,11.1539,0,0,0,0,0,0,0,-1,1532,1758,4.49427,-11.1539
315,-734,3.92834,11.0771,0,0,0,0,0,0,0,-1,1539,1758,3.92831,-11.0771
322,-734,4.17163,11.5508,0,0,0,0,0,0,0,-1,1546,1758,4.17163,-11.5508
329,-734,5.45972,12.4125,0,0,0,0,0,0,0,-1,1553,1758,5.45969,-12.4125
336,-734,5.92188,13.8751,0,0,0,0,0,0,0,-1,1560,1758,5.92183,-13.8751
343,-734,5.54968,5.14221,0,0,0,0,0,0,0,-1,1567,1758,5.54973,-5.14225
350,-734,5.07397,6.73242,0,0,0,0,0,0,0,-1,1574,1758,5.07402,-6.73243
357,-734,5.05542,7.19189,0,0,0,0,0,0,0,-1,1581,1758,5.05541,-7.19184
364,-734,1.31287,6.05872,0,0,0,0,0,0,0,-1,1588,1758,1.31283,-6.05868
371,-734,1.57007,7.77197,0,0,0,0,0,0,0,-1,1595,1758,1.57008,-7.77196
378,-734,0,0,0,0,0,0,0,0,0,-1,1602,1758,0,0
385,-734,0,0,0,0,0,0,0,0,0,-1,1609,1758,0,0
392,-734,0,0,0,0,0,0,0,0,0,-1,1616,1758,0,0
399,-734,0,0,0,0,0,0,0,0,0,-1,1623,1758,0,0
406,-734,0,0,0,0,0,0,0,0,0,-1,1630,1758,0,0
413,-734,0,0,0,0,0,0,0,0,0,-1,1637,1758,0,0
420,-734,0,0,0,0,0,0,0,0,0,-1,1644,1758,0,0
427,-734,0,0,0,0,0,0,0,0,0,-1,1651,1758,0,0
434,-734,0,0,0,0,0,0,0,0,0,-1,1658,1758,0,0
441,-734,0,0,0,0,0,0,0,0,0,-1,1665,1758,0,0
448,-734,0,0,0,0,0,0,0,0,0,-1,1672,1758,0,0
455,-734,0,0,0,0,0,0,0,0,0,-1,1679,1758,0,0
462,-734,0,0,0,0,0,0,0,0,0,-1,1686,1758,0,0
469,-734,0,0,0,0,0,0,0,0,0,-1,1693,1758,0,0
476,-734,0,0,0,0,0,0,0,0,0,-1,1700,1758,0,0
483,-734,0,0,0,0,0,0,0,0,0,-1,1707,1758,0,0
490,-734,0,0,0,0,0,0,0,0,0,-1,1714,1758,0,0
497,-734,0,0,0,0,0,0,0,0,0,-1,1721,1758,0,0
504,-734,0,0,0,0,0,0,0,0,0,-1,1728,1758,0,0
511,-734,0,0,0,0,0,0,0,0,0,-1,1735,1758,0,0
518,-734,0,0,0,0,0,0,0,0,0,-1,1742,1758,0,0
525,-734,0,0,0,0,0,0,0,0,0,-1,1749,1758,0,0
532,-734,0,0,0,0,0,0,0,0,0,-1,1756,1758,0,0
539,-734,0,0,0,0,0,0,0,0,0,-1,1763,1758,0,0
546,-734,0,0,0,0,0,0,0,0,0,-1,1770,1758,0,0
553,-734,0,0,0,0,0,0,0,0,0,-1,1777,1758,0,0
560,-734,0,0,0,0,0,0,0,0,0,-1,1784,1758,0,0
567,-734,0,0,0,0,0,0,0,0,0,-1,1791,1758,0,0
574,-734,0,0,0,0,0,0,0,0,0,-1,1798,1758,0,0
581,-734,0,0,0,0,0,0,0,0,0,-1,1805,1758,0,0
588,-734,0,0,0,0,0,0,0,0,0,-1,1812,1758,0,0
595,-734,0,0,0,0,0,0,0,0,0,-1,1819,1758,0,0
602,-734,0,0,0,0,0,0,0,0,0,-1,1826,1758,0,0
609,-734,0,0,0,0,0,0,0,0,0,-1,1833,1758,0,0
616,-734,0,0,0,0,0,0,0,0,0,-1,1840,1758,0,0
623,-734,0,0,0,0,0,0,0,0,0,-1,1847,1758,0,0
630,-734,0,0,0,0,0,0,0,0,0,-1,1854,1758,0,0
637,-734,0,0,0,0,0,0,0,0,0,-1,1861,1758,0,0
644,-734,0,0,0,0,0,0,0,0,0,-1,1868,1758,0,0
651,-734,0,0,0,0,0,0,0,0,0,-1,1875,1758,0,0
658,-734,0,0,0,0,0,0,0,0,0,-1,1882,1758,0,0
665,-734,0,0,0,0,0,0,0,0,0,-1,1889,1758,0,0
672,-734,0,0,0,0,0,0,0,0,0,-1,1896,1758,0,0
679,-734,0,0,0,0,0,0,0,0,0,-1,1903,1758,0,0
686,-734,0,0,0,0,0,0,0,0,0,-1,1910,1758,0,0
693,-734,0,0,0,0,0,0,0,0,0,-1,1917,1758,0,0
700,-734,0,0,0,0,0,0,0,0,0,-1,1924,1758,0,0
707,-734,0,0,0,0,0,0,0,0,0,-1,1931,1758,0,0
714,-734,0,0,0,0,0,0,0,0,0,-1,1938,1758,0,0
721,-734,0,0,0,0,0,0,0,0,0,-1,1945,1758,0,0
728,-734,0,0,0,0,0,0,0,0,0,-1,1952,1758,0,0
735,-734,0,0,0,0,0,0,0,0,0,-1,1959,1758,0,0
742,-734,0,0,0,0,0,0,0,0,0,-1,1966,1758,0,0
749,-734,0,0,0,0,0,0,0,0,0,-1,1973,1758,0,0
756,-734,0,0,0,0,0,0,0,0,0,-1,1980,1758,0,0
763,-734,0,0,0,0,0,0,0,0,0,-1,1987,1758,0,0
770,-734,0,0,0,0,0,0,0,0,0,-1,1994,1758,0,0
777,-734,0,0,0,0,0,0,0,0,0,-1,2001,1758,0,0
784,-734,0,0,0,0,0,0,0,0,0,-1,2008,1758,0,0
791,-734,0,0,0,0,0,0,0,0,0,-1,2015,1758,0,0
798,-734,0,0,0,0,0,0,0,0,0,-1,2022,1758,0,0
805,-734,0,0,0,0,0,0,0,0,0,-1,2029,1758,0,0
812,-734,0,0,0,0,0,0,0,0,0,-1,2036,1758,0,0
-700,-741,0,0,0,0,0,0,0,0,0,-1,524,1765,0,0
-693,-741,0,0,0,0,0,0,0,0,0,-1,531,1765,0,0
-686,-741,0,0,0,0,0,0,0,0,0,-1,538,1765,0,0
-679,-741,0,0,0,0,0,0,0,0,0,-1,545,1765,0,0
-672,-741,0,0,0,0,0,0,0,0,0,-1,552,1765,0,0
-665,-741,0,0,0,0,0,0,0,0,0,-1,559,1765,0,0
-658,-741,0,0,0,0,0,0,0,0,0,-1,566,1765,0,0
-651,-741,0,0,0,0,0,0,0,0,0,-1,573,1765,0,0
-644,-741,0,0,0,0,0,0,0,0,0,-1,580,1765,0,0
-637,-741,0,0,0,0,0,0,0,0,0,-1,587,1765,0,0
-630,-741,0,0,0,0,0,0,0,0,0,-1,594,1765,0,0
-623,-741,0,0,0,0,0,0,0,0,0,-1,601,1765,0,0
-616,-741,0,0,0,0,0,0,0,0,0,-1,608,1765,0,0
-609,-741,0,0,0,0,0,0,0,0,0,-1,615,1765,0,0
-602,-741,0,0,0,0,0,0,0,0,0,-1,622,1765,0,0
-595,-741,0,0,0,0,0,0,0,0,0,-1,629,1765,0,0
-588,-741,0,0,0,0,0,0,0,0,0,-1,636,1765,0,0
-581,-741,0,0,0,0,0,0,0,0,0,-1,643,1765,0,0
-574,-741,0,0,0,0,0,0,0,0,0,-1,650,1765,0,0
-567,-741,0,0,0,0,0,0,0,0,0,-1,657,1765,0,0
-560,-741,0,0,0,0,0,0,0,0,0,-1,664,1765,0,0
-553,-741,0,0,0,0,0,0,0,0,0,-1,671,1765,0,0
-546,-741,0,0,0,0,0,0,0,0,0,-1,678,1765,0,0
-539,-741,0,0,0,0,0,0,0,0,0,-1,685,1765,0,0
-532,-741,0,0,0,0,0,0,0,0,0,-1,692,1765,0,0
-525,-741,0,0,0,0,0,0,0,0,0,-1,699,1765,0,0
-518,-741,0,0,0,0,0,0,0,0,0,-1,706,1765,0,0
-511,-741,0,0,0,0,0,0,0,0,0,-1,713,1765,0,0
-504,-741,0,0,0,0,0,0,0,0,0,-1,720,1765,0,0
-497,-741,0,0,0,0,0,0,0,0,0,-1,727,1765,0,0
-490,-741,0,0,0,0,0,0,0,0,0,-1,734,1765,0,0
-483,-741,0,0,0,0,0,0,0,0,0,-1,741,1765,0,0
-476,-741,0,0,0,0,0,0,0,0,0,-1,748,1765,0,0
-469,-741,0,0,0,0,0,0,0,0,0,-1,755,1765,0,0
-462,-741,0,0,0,0,0,0,0,0,0,-1,762,1765,0,0
-455,-741,0,0,0,0,0,0,0,0,0,-1,769,1765,0,0
-448,-741,0,0,0,0,0,0,0,0,0,-1,776,1765,0,0
-441,-741,0,0,0,0,0,0,0,0,0,-1,783,1765,0,0
-434,-741,0,0,0,0,0,0,0,0,0,-1,790,1765,0,0
-427,-741,0,0,0,0,0,0,0,0,0,-1,797,1765,0,0
-420,-741,0,0,0,0,0,0,0,0,0,-1,804,1765,0,0
-413,-741,0,0,0,0,0,0,0,0,0,-1,811,1765,0,0
-406,-741,0,0,0,0,0,0,0,0,0,-1,818,1765,0,0
-399,-741,0,0,0,0,0,0,0,0,0,-1,825,1765,0,0
-392,-741,0,0,0,0,0,0,0,0,0,-1,832,1765,0,0
-385,-741,0,0,0,0,0,0,0,0,0,-1,839,1765,0,0
-378,-741,0,0,0,0,0,0,0,0,0,-1,846,1765,0,0
-371,-741,0,0,0,0,0,0,0,0,0,-1,853,1765,0,0
-364,-741,0,0,0,0,0,0,0,0,0,-1,860,1765,0,0
-357,-741,0,0,0,0,0,0,0,0,0,-1,867,1765,0,0
-350,-741,0,0,0,0,0,0,0,0,0,-1,874,1765,0,0
-343,-741,0,0,0,0,0,0,0,0,0,-1,881,1765,0,0
-336,-741,0,0,0,0,0,0,0,0,0,-1,888,1765,0,0
-329,-741,0,0,0,0,0,0,0,0,0,-1,895,1765,0,0
-322,-741,0,0,0,0,0,0,0,0,0,-1,902,1765,0,0
-315,-741,0,0,0,0,0,0,0,0,0,-1,909,1765,0,0
-308,-741,0,0,0,0,0,0,0,0,0,-1,916,1765,0,0
-301,-741,0,0,0,0,0,0,0,0,0,-1,923,1765,0,0
-294,-741,0,0,0,0,0,0,0,0,0,-1,930,1765,0,0
-287,-741,0,0,0,0,0,0,0,0,0,-1,937,1765,0,0
-280,-741,0,0,0,0,0,0,0,0,0,-1,944,1765,0,0
-273,-741,0,0,0,0,0,0,0,0,0,-1,951,1765,0,0
-266,-741,0,0,0,0,0,0,0,0,0,-1,958,1765,0,0
-259,-741,0,0,0,0,0,0,0,0,0,-1,965,1765,0,0
-252,-741,0,0,0,0,0,0,0,0,0,-1,972,1765,0,0
-245,-741,0,0,0,0,0,0,0,0,0,-1,979,1765,0,0
-238,-741,5.22742,8.96448,0,0,0,0,0,0,0,-1,986,1765,5.22743,-8.96451
-231,-741,5.78656,12.7001,0,0,0,0,0,0,0,-1,993,1765,5.78654,-12.7001
-224,-741,6.48383,11.9122,0,0,0,0,0,0,0,-1,1000,1765,6.48384,-11.9123
-217,-741,7.18115,11.1244,0,0,0,0,0,0,0,-1,1007,1765,7.18114,-11.1244
-210,-741,4.37836,15.1417,0,0,0,0,0,0,0,-1,1014,1765,4.37838,-15.1417
-203,-741,3.72192,13.4611,0,0,0,0,0,0,0,-1,1021,1765,3.72188,-13.461
-196,-741,3.70251,12.59,0,0,0,0,0,0,0,-1,1028,1765,3.70254,-12.59
-189,-741,3.76379,11.6814,0,0,0,0,0,0,0,-1,1035,1765,3.7638,-11.6814
-182,-741,3.81067,10.8192,0,0,0,0,0,0,0,-1,1042,1765,3.81065,-10.8193
-175,-741,3.19373,8.96411,0,0,0,0,0,0,0,-1,1049,1765,3.19376,-8.96417
-168,-741,2.96594,8.87219,0,0,0,0,0,0,0,-1,1056,1765,2.96592,-8.87218
-161,-741,2.7699,9.14465,0,0,0,0,0,0,0,-1,1063,1765,2.76992,-9.14465
-154,-741,2.46143,9.75415,0,0,0,0,0,0,0,-1,1070,1765,2.46145,-9.75416
-147,-741,4.229,9.21167,0,0,0,0,0,0,0,-1,1077,1765,4.22896,-9.21167
-140,-741,5.02625,11.5029,0,0,0,0,0,0,0,-1,1084,1765,5.02623,-11.5029
-133,-741,4.125,11.7365,0,0,0,0,0,0,0,-1,1091,1765,4.125,-11.7364
-126,-741,4.07104,11.58,0.00490565,0.00481854,0.00358203,0.00844439,0.0012798,0.779319,0.0052552,0.0439249,1098,1765,4.07103,-11.5799
-119,-741,4.04382,11.4066,0.00553323,0.00508372,0.00342199,0.00873784,0.00187911,0.752605,0.00531085,0.0426787,1105,1765,4.04383,-11.4066
-112,-741,4.02429,11.8186,0.00624674,0.00530799,0.00296318,0.00877748,0.00277724,0.70685,0.00518031,0.0396575,1112,1765,4.02433,-11.8187
-105,-741,4.28406,11.8086,0.00652306,0.00544855,0.00231938,0.00836659,0.00360502,0.671587,0.00484582,0.033728,1119,1765,4.28402,-11.8085
-98,-741,4.35046,11.8492,0.00634726,0.0055404,0.00157921,0.00757376,0.00431391,0.660342,0.0043868,0.0360204,1126,1765,4.35045,-11.8493
-91,-741,4.27588,11.8773,0.00585326,0.00553415,0.000776218,0.00648615,0.00490126,0.684033,0.00390454,0.0441475,1133,1765,4.27583,-11.8773
-84,-741,4.35181,12.0144,0.0052344,0.00533778,0.00010907,0.00540679,0.00516539,1.00667,0.00352682,0.0487216,1140,1765,4.35175,-12.0144
-77,-741,4.27014,12.1277,0.00454578,0.00472942,-0.000492145,0.00513824,0.00413696,-0.877625,0.00314531,0.0469979,1147,1765,4.27019,-12.1277
-70,-741,4.25061,12.1782,0.00374407,0.00404223,-0.000981761,0.00488617,0.00290014,-0.860748,0.00283744,0.0465194,1154,1765,4.25061,-12.1782
-63,-741,4.10925,12.2682,0,0,0,0,0,0,0,-1,1161,1765,4.10921,-12.2681
-56,-741,4.10901,12.3466,0,0,0,0,0,0,0,-1,1168,1765,4.10895,-12.3465
-49,-741,4.08496,12.4111,0,0,0,0,0,0,0,-1,1175,1765,4.08497,-12.4112
-42,-741,4.06165,12.4796,0,0,0,0,0,0,0,-1,1182,1765,4.0617,-12.4796
-35,-741,4.08667,12.5417,0.00189755,-0.00109961,-0.000233477,0.00191563,-0.00111769,-0.0772782,0.00177137,0.0174202,1189,1765,4.08671,-12.5418
-28,-741,4.09875,12.5902,0.00164417,-0.00235639,-0.000120601,0.00164781,-0.00236002,-0.0301095,0.00232607,0.0133754,1196,1765,4.09875,-12.5902
-21,-741,4.13184,12.6355,0.00165544,-0.00370348,0.000106355,0.00165755,-0.00370559,0.0198359,0.00317078,0.016808,1203,1765,4.13184,-12.6355
-14,-741,4.08887,12.6813,0.00182711,-0.00482073,-0.0001825,0.00183211,-0.00482573,-0.0274251,0.00397132,0.0169963,1210,1765,4.08885,-12.6813
-7,-741,4.0741,12.7115,0.00162217,-0.00565937,-0.000406098,0.00164475,-0.00568195,-0.0555413,0.00443898,0.0162378,1217,1765,4.07408,-12.7115
0,-741,4.06763,12.7438,0.00133614,-0.00584969,-0.000649049,0.0013943,-0.00590784,-0.0893597,0.0044763,0.0165356,1224,1765,4.06761,-12.7438
7,-741,4.04968,12.803,0.00110389,-0.00574275,-0.000884335,0.00121627,-0.00585513,-0.1264,0.00436569,0.0167348,1231,1765,4.04966,-12.8029
14,-741,4.04749,12.8422,0.000902687,-0.00539144,-0.00113403,0.00110078,-0.00558953,-0.172931,0.00414232,0.0147593,1238,1765,4.04743,-12.8421
21,-741,4.02551,12.8433,0.00070954,-0.00481527,-0.00134545,0.00101978,-0.0051255,-0.226621,0.00380278,0.0121305,1245,1765,4.02552,-12.8432
28,-741,4.02881,12.8773,0.000608092,-0.00397202,-0.00162248,0.0011246,-0.00448853,-0.3082,0.00342925,0.013346,1252,1765,4.02883,-12.8773
35,-741,4.04126,12.9076,0.000940899,-0.00323611,-0.00219402,0.00188151,-0.00417672,-0.405016,0.00358042,0.0149114,1259,1765,4.04121,-12.9076
42,-741,4.04773,12.9266,0.00106667,-0.00245084,-0.00303527,0.00281592,-0.00420009,-0.522817,0.00407689,0.0148855,1266,1765,4.04777,-12.9266
49,-741,4.02869,12.9379,0.00088694,-0.00152852,-0.0037561,0.0036247,-0.00426628,-0.629849,0.00456088,0.00940207,1273,1765,4.0287,-12.9379
56,-741,4.00598,12.9473,0.000708979,-0.000863982,-0.00432474,0.00431817,-0.00447318,-0.695453,0.00507595,0.00868673,1280,1765,4.00597,-12.9473
63,-741,4.00525,12.9438,0.000352607,-0.000806465,-0.00459622,0.00440569,-0.00485954,-0.722684,0.00535142,0.013392,1287,1765,4.00519,-12.9439
70,-741,3.98499,12.9639,-7.63897e-05,-0.000898981,-0.00464389,0.00417439,-0.00514976,-0.74123,0.0053931,0.0155505,1294,1765,3.98495,-12.9639
77,-741,3.98242,13.0206,-0.000498996,-0.00111785,-0.00474077,0.00394244,-0.00555928,-0.75281,0.00551223,0.0125761,1301,1765,3.9824,-13.0206
84,-741,3.99646,13.0193,-0.00118926,-0.00153117,-0.00470462,0.00334751,-0.00606794,-0.767237,0.00551113,0.0148568,1308,1765,3.99644,-13.0192
91,-741,3.98853,13.0061,-0.00198343,-0.00208494,-0.00415676,0.00212289,-0.00619126,-0.779293,0.00498806,0.0127411,1315,1765,3.98858,-13.0061
98,-741,3.98523,12.9821,-0.00239086,-0.00274621,-0.00361986,0.00105569,-0.00619275,-0.760876,0.00452166,0.0103459,1322,1765,3.98528,-12.982
105,-741,3.99402,12.9548,-0.00277156,-0.003691,-0.00290649,-0.000288659,-0.0061739,-0.706962,0.00402317,0.0113203,1329,1765,3.99404,-12.9548
112,-741,4.0238,12.9351,-0.00306761,-0.00415506,-0.00211535,-0.00142722,-0.00579544,-0.659603,0.00348666,0.0113272,1336,1765,4.02385,-12.935
119,-741,4.00916,12.9048,-0.00307874,-0.00412295,-0.00137779,-0.00212745,-0.00507424,-0.604286,0.00294232,0.0130513,1343,1765,4.00909,-12.9048
126,-741,3.98169,12.8705,-0.00268109,-0.00361551,-0.000960156,-0.0020805,-0.00421609,-0.558965,0.00243423,0.017773,1350,1765,3.98168,-12.8705
133,-741,3.97253,12.8586,-0.00216951,-0.00298352,-0.000626339,-0.00182955,-0.00332347,-0.497277,0.00192207,0.0135642,1357,1765,3.97254,-12.8587
140,-741,3.9657,12.8534,-0.00181542,-0.00205359,-0.000311584,-0.00160094,-0.00226807,-0.602867,0.00134596,0.0105418,1364,1765,3.96574,-12.8534
147,-741,3.96851,12.8585,-0.00103216,-0.00130938,-0.000216529,-0.000913679,-0.00142787,-0.500689,0.000835066,0.0102238,1371,1765,3.96853,-12.8585
154,-741,3.9696,12.8616,0.000107114,-0.000789699,-0.000532368,0.000354756,-0.00103734,-0.435399,0.000835313,0.00838918,1378,1765,3.96959,-12.8616
161,-741,3.95569,12.8289,0.00106916,-5.39939e-05,-0.00109893,0.00174169,-0.000726521,-0.549184,0.00146465,0.0100907,1385,1765,3.95572,-12.8289
168,-741,3.96228,12.8025,0.00218141,0.00147199,-0.00180662,0.00366781,-1.44098e-05,-0.688461,0.00245003,0.0209549,1392,1765,3.96223,-12.8025
175,-741,4.14856,12.6406,0.00334443,0.00208109,-0.00225922,0.00505862,0.000366899,-0.649081,0.00325701,0.0461046,1399,1765,4.1486,-12.6407
182,-741,3.93884,12.6976,0,0,0,0,0,0,0,-1,1406,1765,3.93879,-12.6977
189,-741,3.91064,12.649,0,0,0,0,0,0,0,-1,1413,1765,3.91068,-12.6491
196,-741,3.8927,12.6185,0,0,0,0,0,0,0,-1,1420,1765,3.89269,-12.6186
203,-741,3.96472,12.4875,0.00051598,0.00384446,8.31985e-05,0.00384653,0.000513901,1.54582,0.00241138,0.0420712,1427,1765,3.96478,-12.4875
210,-741,3.89832,12.5121,0.000257343,0.00426073,0.000453347,0.00431142,0.000206647,1.45943,0.00280794,0.025552,1434,1765,3.89832,-12.5121
217,-741,3.87964,12.4747,-7.88475e-05,0.00445419,0.000816198,0.00459667,-0.00022133,1.39797,0.00314082,0.0190825,1441,1765,3.87958,-12.4747
224,-741,3.87854,12.4163,-0.000628496,0.00438198,0.00106961,0.00460076,-0.000847277,1.36904,0.00338513,0.0254183,1448,1765,3.8786,-12.4163
231,-741,4.00366,12.3472,-0.00475536,0.00262878,0.00104339,0.00277338,-0.00489997,1.43309,0.00448656,0.0336195,1455,1765,4.00363,-12.3472
238,-741,4.04028,12.2887,-0.0108266,0.000663313,0.000912943,0.000735399,-0.0108987,1.492,0.00752294,0.0358892,1462,1765,4.04027,-12.2887
245,-741,3.97949,12.1119,-0.018918,-0.00207917,0.00106778,-0.00201172,-0.0189854,1.50772,0.0120425,0.0436147,1469,1765,3.97943,-12.1119
252,-741,4.01428,11.9731,0,0,0,0,0,0,0,-1,1476,1765,4.01428,-11.9732
259,-741,3.74573,12.1228,0,0,0,0,0,0,0,-1,1483,1765,3.74575,-12.1228
266,-741,3.73206,12.2471,0,0,0,0,0,0,0,-1,1490,1765,3.73206,-12.2471
273,-741,3.36646,11.3684,0,0,0,0,0,0,0,-1,1497,1765,3.36642,-11.3684
280,-741,13.5908,6.68396,0,0,0,0,0,0,0,-1,1504,1765,13.5908,-6.68398
287,-741,12.5033,6.37781,-0.0797031,-0.0183745,-6.31015e-05,-0.0183744,-0.0797032,-1.56977,0.0481928,0.0438394,1511,1765,12.5033,-6.37782
294,-741,11.3553,5.93811,-0.0897307,-0.0214649,0.000254287,-0.021464,-0.0897316,1.56707,0.0541047,0.0450301,1518,1765,11.3553,-5.93806
301,-741,10.1971,5.89124,0,0,0,0,0,0,0,-1,1525,1765,10.1971,-5.89125
308,-741,9.0719,6.11353,0,0,0,0,0,0,0,-1,1532,1765,9.07189,-6.11348
315,-741,7.94568,6.22974,0,0,0,0,0,0,0,-1,1539,1765,7.94567,-6.22972
322,-741,3.08521,12.3561,0,0,0,0,0,0,0,-1,1546,1765,3.08526,-12.3561
329,-741,4.46472,13.5316,0,0,0,0,0,0,0,-1,1553,1765,4.46467,-13.5316
336,-741,4.74475,14.6453,0,0,0,0,0,0,0,-1,1560,1765,4.7447,-14.6452
343,-741,5.42297,5.93701,0,0,0,0,0,0,0,-1,1567,1765,5.42296,-5.937
350,-741,4.90369,5.44666,0,0,0,0,0,0,0,-1,1574,1765,4.90368,-5.44664
357,-741,4.02063,5.16626,0,0,0,0,0,0,0,-1,1581,1765,4.02058,-5.1662
364,-741,0,0,0,0,0,0,0,0,0,-1,1588,1765,0,0
371,-741,0,0,0,0,0,0,0,0,0,-1,1595,1765,0,0
378,-741,0,0,0,0,0,0,0,0,0,-1,1602,1765,0,0
385,-741,0,0,0,0,0,0,0,0,0,-1,1609,1765,0,0
392,-741,0,0,0,0,0,0,0,0,0,-1,1616,1765,0,0
399,-741,0,0,0,0,0,0,0,0,0,-1,1623,1765,0,0
406,-741,0,0,0,0,0,0,0,0,0,-1,1630,1765,0,0
413,-741,0,0,0,0,0,0,0,0,0,-1,1637,1765,0,0
420,-741,0,0,0,0,0,0,0,0,0,-1,1644,1765,0,0
427,-741,0,0,0,0,0,0,0,0,0,-1,1651,1765,0,0
434,-741,0,0,0,0,0,0,0,0,0,-1,1658,1765,0,0
441,-741,0,0,0,0,0,0,0,0,0,-1,1665,1765,0,0
448,-741,0,0,0,0,0,0,0,0,0,-1,1672,1765,0,0
455,-741,0,0,0,0,0,0,0,0,0,-1,1679,1765,0,0
462,-741,0,0,0,0,0,0,0,0,0,-1,1686,1765,0,0
469,-741,0,0,0,0,0,0,0,0,0,-1,1693,1765,0,0
476,-741,0,0,0,0,0,0,0,0,0,-1,1700,1765,0,0
483,-741,0,0,0,0,0,0,0,0,0,-1,1707,1765,0,0
490,-741,0,0,0,0,0,0,0,0,0,-1,1714,1765,0,0
497,-741,0,0,0,0,0,0,0,0,0,-1,1721,1765,0,0
504,-741,0,0,0,0,0,0,0,0,0,-1,1728,1765,0,0
511,-741,0,0,0,0,0,0,0,0,0,-1,1735,1765,0,0
518,-741,0,0,0,0,0,0,0,0,0,-1,1742,1765,0,0
525,-741,0,0,0,0,0,0,0,0,0,-1,1749,1765,0,0
532,-741,0,0,0,0,0,0,0,0,0,-1,1756,1765,0,0
539,-741,0,0,0,0,0,0,0,0,0,-1,1763,1765,0,0
546,-741,0,0,0,0,0,0,0,0,0,-1,1770,1765,0,0
553,-741,0,0,0,0,0,0,0,0,0,-1,1777,1765,0,0
560,-741,0,0,0,0,0,0,0,0,0,-1,1784,1765,0,0
567,-741,0,0,0,0,0,0,0,0,0,-1,1791,1765,0,0
574,-741,0,0,0,0,0,0,0,0,0,-1,1798,1765,0,0
581,-741,0,0,0,0,0,0,0,0,0,-1,1805,1765,0,0
588,-741,0,0,0,0,0,0,0,0,0,-1,1812,1765,0,0
595,-741,0,0,0,0,0,0,0,0,0,-1,1819,1765,0,0
602,-741,0,0,0,0,0,0,0,0,0,-1,1826,1765,0,0
609,-741,0,0,0,0,0,0,0,0,0,-1,1833,1765,0,0
616,-741,0,0,0,0,0,0,0,0,0,-1,1840,1765,0,0
623,-741,0,0,0,0,0,0,0,0,0,-1,1847,1765,0,0
630,-741,0,0,0,0,0,0,0,0,0,-1,1854,1765,0,0
637,-741,0,0,0,0,0,0,0,0,0,-1,1861,1765,0,0
644,-741,0,0,0,0,0,0,0,0,0,-1,1868,1765,0,0
651,-741,0,0,0,0,0,0,0,0,0,-1,1875,1765,0,0
658,-741,0,0,0,0,0,0,0,0,0,-1,1882,1765,0,0
665,-741,0,0,0,0,0,0,0,0,0,-1,1889,1765,0,0
672,-741,0,0,0,0,0,0,0,0,0,-1,1896,1765,0,0
679,-741,0,0,0,0,0,0,0,0,0,-1,1903,1765,0,0
686,-741,0,0,0,0,0,0,0,0,0,-1,1910,1765,0,0
693,-741,0,0,0,0,0,0,0,0,0,-1,1917,1765,0,0
700,-741,0,0,0,0,0,0,0,0,0,-1,1924,1765,0,0
707,-741,0,0,0,0,0,0,0,0,0,-1,1931,1765,0,0
714,-741,0,0,0,0,0,0,0,0,0,-1,1938,1765,0,0
721,-741,0,0,0,0,0,0,0,0,0,-1,1945,1765,0,0
728,-741,0,0,0,0,0,0,0,0,0,-1,1952,1765,0,0
735,-741,0,0,0,0,0,0,0,0,0,-1,1959,1765,0,0
742,-741,0,0,0,0,0,0,0,0,0,-1,1966,1765,0,0
749,-741,0,0,0,0,0,0,0,0,0,-1,1973,1765,0,0
756,-741,0,0,0,0,0,0,0,0,0,-1,1980,1765,0,0
763,-741,0,0,0,0,0,0,0,0,0,-1,1987,1765,0,0
770,-741,0,0,0,0,0,0,0,0,0,-1,1994,1765,0,0
777,-741,0,0,0,0,0,0,0,0,0,-1,2001,1765,0,0
784,-741,0,0,0,0,0,0,0,0,0,-1,2008,1765,0,0
791,-741,0,0,0,0,0,0,0,0,0,-1,2015,1765,0,0
798,-741,0,0,0,0,0,0,0,0,0,-1,2022,1765,0,0
805,-741,0,0,0,0,0,0,0,0,0,-1,2029,1765,0,0
812,-741,0,0,0,0,0,0,0,0,0,-1,2036,1765,0,0
-700,-748,0,0,0,0,0,0,0,0,0,-1,524,1772,0,0
-693,-748,0,0,0,0,0,0,0,0,0,-1,531,1772,0,0
-686,-748,0,0,0,0,0,0,0,0,0,-1,538,1772,0,0
-679,-748,0,0,0,0,0,0,0,0,0,-1,545,1772,0,0
-672,-748,0,0,0,0,0,0,0,0,0,-1,552,1772,0,0
-665,-748,0,0,0,0,0,0,0,0,0,-1,559,1772,0,0
-658,-748,0,0,0,0,0,0,0,0,0,-1,566,1772,0,0
-651,-748,0,0,0,0,0,0,0,0,0,-1,573,1772,0,0
-644,-748,0,0,0,0,0,0,0,0,0,-1,580,1772,0,0
-637,-748,0,0,0,0,0,0,0,0,0,-1,587,1772,0,0
-630,-748,0,0,0,0,0,0,0,0,0,-1,594,1772,0,0
-623,-748,0,0,0,0,0,0,0,0,0,-1,601,1772,0,0
-616,-748,0,0,0,0,0,0,0,0,0,-1,608,1772,0,0
-609,-748,0,0,0,0,0,0,0,0,0,-1,615,1772,0,0
-602,-748,0,0,0,0,0,0,0,0,0,-1,622,1772,0,0
-595,-748,0,0,0,0,0,0,0,0,0,-1,629,1772,0,0
-588,-748,0,0,0,0,0,0,0,0,0,-1,636,1772,0,0
-581,-748,0,0,0,0,0,0,0,0,0,-1,643,1772,0,0
-574,-748,0,0,0,0,0,0,0,0,0,-1,650,1772,0,0
-567,-748,0,0,0,0,0,0,0,0,0,-1,657,1772,0,0
-560,-748,0,0,0,0,0,0,0,0,0,-1,664,1772,0,0
-553,-748,0,0,0,0,0,0,0,0,0,-1,671,1772,0,0
-546,-748,0,0,0,0,0,0,0,0,0,-1,678,1772,0,0
-539,-748,0,0,0,0,0,0,0,0,0,-1,685,1772,0,0
-532,-748,0,0,0,0,0,0,0,0,0,-1,692,1772,0,0
-525,-748,0,0,0,0,0,0,0,0,0,-1,699,1772,0,0
-518,-748,0,0,0,0,0,0,0,0,0,-1,706,1772,0,0
-511,-748,0,0,0,0,0,0,0,0,0,-1,713,1772,0,0
-504,-748,0,0,0,0,0,0,0,0,0,-1,720,1772,0,0
-497,-748,0,0,0,0,0,0,0,0,0,-1,727,1772,0,0
-490,-748,0,0,0,0,0,0,0,0,0,-1,734,1772,0,0
-483,-748,0,0,0,0,0,0,0,0,0,-1,741,1772,0,0
-476,-748,0,0,0,0,0,0,0,0,0,-1,748,1772,0,0
-469,-748,0,0,0,0,0,0,0,0,0,-1,755,1772,0,0
-462,-748,0,0,0,0,0,0,0,0,0,-1,762,1772,0,0
-455,-748,0,0,0,0,0,0,0,0,0,-1,769,1772,0,0
-448,-748,0,0,0,0,0,0,0,0,0,-1,776,1772,0,0
-441,-748,0,0,0,0,0,0,0,0,0,-1,783,1772,0,0
-434,-748,0,0,0,0,0,0,0,0,0,-1,790,1772,0,0
-427,-748,0,0,0,0,0,0,0,0,0,-1,797,1772,0,0
-420,-748,0,0,0,0,0,0,0,0,0,-1,804,1772,0,0
-413,-748,0,0,0,0,0,0,0,0,0,-1,811,1772,0,0
-406,-748,0,0,0,0,0,0,0,0,0,-1,818,1772,0,0
-399,-748,0,0,0,0,0,0,0,0,0,-1,825,1772,0,0
-392,-748,0,0,0,0,0,0,0,0,0,-1,832,1772,0,0
-385,-748,0,0,0,0,0,0,0,0,0,-1,839,1772,0,0
-378,-748,0,0,0,0,0,0,0,0,0,-1,846,1772,0,0
-371,-748,0,0,0,0,0,0,0,0,0,-1,853,1772,0,0
-364,-748,0,0,0,0,0,0,0,0,0,-1,860,1772,0,0
-357,-748,0,0,0,0,0,0,0,0,0,-1,867,1772,0,0
-350,-748,0,0,0,0,0,0,0,0,0,-1,874,1772,0,0
-343,-748,0,0,0,0,0,0,0,0,0,-1,881,1772,0,0
-336,-748,0,0,0,0,0,0,0,0,0,-1,888,1772,0,0
-329,-748,0,0,0,0,0,0,0,0,0,-1,895,1772,0,0
-322,-748,0,0,0,0,0,0,0,0,0,-1,902,1772,0,0
-315,-748,0,0,0,0,0,0,0,0,0,-1,909,1772,0,0
-308,-748,0,0,0,0,0,0,0,0,0,-1,916,1772,0,0
-301,-748,0,0,0,0,0,0,0,0,0,-1,923,1772,0,0
-294,-748,0,0,0,0,0,0,0,0,0,-1,930,1772,0,0
-287,-748,0,0,0,0,0,0,0,0,0,-1,937,1772,0,0
-280,-748,0,0,0,0,0,0,0,0,0,-1,944,1772,0,0
-273,-748,0,0,0,0,0,0,0,0,0,-1,951,1772,0,0
-266,-748,0,0,0,0,0,0,0,0,0,-1,958,1772,0,0
-259,-748,0,0,0,0,0,0,0,0,0,-1,965,1772,0,0
-252,-748,0,0,0,0,0,0,0,0,0,-1,972,1772,0,0
-245,-748,0,0,0,0,0,0,0,0,0,-1,979,1772,0,0
-238,-748,0,0,0,0,0,0,0,0,0,-1,986,1772,0,0
-231,-748,0,0,0,0,0,0,0,0,0,-1,993,1772,0,0
-224,-748,0,0,0,0,0,0,0,0,0,-1,1000,1772,0,0
-217,-748,7.80432,8.96252,0,0,0,0,0,0,0,-1,1007,1772,7.80431,-8.96246
-210,-748,8.3371,9.15466,0,0,0,0,0,0,0,-1,1014,1772,8.33709,-9.1547
-203,-748,4.14246,10.7653,0,0,0,0,0,0,0,-1,1021,1772,4.14242,-10.7653
-196,-748,3.47681,12.8356,0,0,0,0,0,0,0,-1,1028,1772,3.47681,-12.8356
-189,-748,3.56079,12.1328,0,0,0,0,0,0,0,-1,1035,1772,3.56079,-12.1328
-182,-748,3.6189,11.4628,0,0,0,0,0,0,0,-1,1042,1772,3.61887,-11.4628
-175,-748,3.73718,9.88293,0,0,0,0,0,0,0,-1,1049,1772,3.73717,-9.88289
-168,-748,2.64819,8.55664,0,0,0,0,0,0,0,-1,1056,1772,2.64817,-8.55666
-161,-748,2.37683,8.34314,0,0,0,0,0,0,0,-1,1063,1772,2.3768,-8.34318
-154,-748,-3.82056,10.7404,0,0,0,0,0,0,0,-1,1070,1772,-3.82062,-10.7403
-147,-748,-4.87122,10.7748,0,0,0,0,0,0,0,-1,1077,1772,-4.87117,-10.7748
-140,-748,5.38965,8.78552,0,0,0,0,0,0,0,-1,1084,1772,5.38969,-8.78552
-133,-748,3.46399,11.7521,0,0,0,0,0,0,0,-1,1091,1772,3.46404,-11.7521
-126,-748,4.03455,11.5773,0,0,0,0,0,0,0,-1,1098,1772,4.03453,-11.5773
-119,-748,3.65186,11.7203,0.00793223,0.00322356,0.00632775,0.0123294,-0.00117364,0.6073,0.00863746,0.0429193,1105,1772,3.65191,-11.7204
-112,-748,4.01025,11.8485,0.00890439,0.00386582,0.00555564,0.0124853,0.000284951,0.572532,0.00823017,0.0443922,1112,1772,4.0102,-11.8485
-105,-748,4.26123,11.7701,0.00930712,0.0043885,0.0045707,0.0120381,0.00165748,0.538584,0.00753395,0.0444669,1119,1772,4.2612,-11.7701
-98,-748,4.46594,11.7882,0,0,0,0,0,0,0,-1,1126,1772,4.466,-11.7882
-91,-748,4.53455,11.5042,0,0,0,0,0,0,0,-1,1133,1772,4.53453,-11.5042
-84,-748,4.74194,11.7001,0,0,0,0,0,0,0,-1,1140,1772,4.74192,-11.7001
-77,-748,4.47766,12.0061,0,0,0,0,0,0,0,-1,1147,1772,4.47769,-12.006
-70,-748,4.57324,12.0996,0,0,0,0,0,0,0,-1,1154,1772,4.57326,-12.0996
-63,-748,4.89355,12.1653,0,0,0,0,0,0,0,-1,1161,1772,4.89356,-12.1653
-56,-748,3.05762,7.87817,0,0,0,0,0,0,0,-1,1168,1772,3.05768,-7.87822
-49,-748,3.04102,7.82471,0,0,0,0,0,0,0,-1,1175,1772,3.04096,-7.82468
-42,-748,3.62585,10.0979,0,0,0,0,0,0,0,-1,1182,1772,3.62584,-10.0979
-35,-748,4.13525,12.4984,0,0,0,0,0,0,0,-1,1189,1772,4.13527,-12.4984
-28,-748,4.14319,12.6323,0.00237389,-0.00459733,0.0005152,0.00241176,-0.0046352,0.0733726,0.00413552,0.0467952,1196,1772,4.14321,-12.6324
-21,-748,4.17407,12.6631,0.00214397,-0.00675371,0.000848799,0.00222422,-0.00683396,0.0942627,0.00545081,0.0225518,1203,1772,4.17409,-12.6631
-14,-748,4.13489,12.6608,0.00222979,-0.00808904,0.000337966,0.00224085,-0.0081001,0.0327056,0.00628169,0.0157247,1210,1772,4.1349,-12.6607
-7,-748,4.12854,12.6973,0.00180325,-0.00913179,-6.84798e-05,0.00180368,-0.00913222,-0.00626209,0.00676995,0.0161814,1217,1772,4.12855,-12.6972
0,-748,4.09595,12.7379,0.0013234,-0.00929151,-0.000517752,0.0013486,-0.00931671,-0.0486221,0.00670602,0.0164585,1224,1772,4.09595,-12.7379
7,-748,4.08008,12.7666,0.000964856,-0.00902731,-0.000972165,0.00105856,-0.00912102,-0.0960919,0.0064625,0.0142186,1231,1772,4.08007,-12.7666
14,-748,4.07288,12.8284,0.000705005,-0.008378,-0.0014338,0.000925962,-0.00859895,-0.152903,0.0060649,0.0141566,1238,1772,4.07284,-12.8284
21,-748,4.07153,12.8392,0.000495176,-0.00739818,-0.00183023,0.000898902,-0.00780191,-0.21711,0.00552533,0.010987,1245,1772,4.07153,-12.8392
28,-748,4.05273,12.8792,0.000407286,-0.00601781,-0.0024107,0.0012112,-0.00682172,-0.321879,0.00500068,0.011609,1252,1772,4.05269,-12.8791
35,-748,4.07349,12.8901,0.000920677,-0.004746,-0.00341545,0.00252503,-0.00635035,-0.439143,0.00528047,0.0123367,1259,1772,4.07353,-12.8902
42,-748,4.08325,12.9114,0.00120216,-0.00346363,-0.00475695,0.00416747,-0.00642894,-0.557422,0.0061641,0.0131119,1266,1772,4.0833,-12.9113
49,-748,4.06458,12.9119,0.00102314,-0.00198901,-0.00590877,0.00561475,-0.00658062,-0.660611,0.00704836,0.00978244,1273,1772,4.06456,-12.9118
56,-748,4.02698,12.9319,0.000809217,-0.000893591,-0.00686198,0.00687241,-0.00695678,-0.723676,0.00798434,0.00930213,1280,1772,4.02699,-12.9318
63,-748,4.0105,12.9316,0.000356122,-0.000643493,-0.00741994,0.00729307,-0.00758044,-0.751769,0.00858776,0.0109366,1287,1772,4.01055,-12.9316
70,-748,3.99939,12.9478,-0.000263181,-0.000631924,-0.00756302,0.00711771,-0.00801282,-0.773212,0.00874071,0.0127414,1294,1772,3.9994,-12.9478
77,-748,3.99817,12.9703,-0.00086998,-0.000841669,-0.00779722,0.0069414,-0.00865305,-0.786306,0.00902152,0.0118319,1301,1772,3.99814,-12.9704
84,-748,3.99304,13.0043,-0.00187737,-0.00126779,-0.0078395,0.00627284,-0.009418,-0.804828,0.00911957,0.0133103,1308,1772,3.99305,-13.0043
91,-748,3.98315,12.9972,-0.00314317,-0.0021921,-0.00705328,0.00440166,-0.00973693,-0.819058,0.0083544,0.0109667,1315,1772,3.98314,-12.9971
98,-748,3.97412,12.9646,-0.00388246,-0.00329779,-0.00623806,0.00265478,-0.00983503,-0.808812,0.00759782,0.010703,1322,1772,3.97417,-12.9645
105,-748,3.9718,12.9315,-0.00460118,-0.0048131,-0.00518873,0.000482672,-0.00989695,-0.775189,0.0067646,0.0124533,1329,1772,3.97182,-12.9316
112,-748,4.0083,12.9331,-0.00522155,-0.00569087,-0.00401419,-0.00143517,-0.00947725,-0.756203,0.00589827,0.0149484,1336,1772,4.00833,-12.9331
119,-748,4.005,12.9299,-0.00546556,-0.00590597,-0.0028834,-0.00279397,-0.00857756,-0.747287,0.00505153,0.0121615,1343,1772,4.00505,-12.93
126,-748,3.98376,12.917,-0.00513633,-0.00549998,-0.00214017,-0.00317027,-0.00746603,-0.74302,0.00432681,0.0137778,1350,1772,3.98374,-12.917
133,-748,3.9502,12.8942,-0.00458011,-0.00493482,-0.00144428,-0.00330234,-0.00621259,-0.724304,0.00358922,0.00834368,1357,1772,3.95017,-12.8942
140,-748,3.9502,12.8806,-0.00418733,-0.00398935,-0.000822345,-0.00326006,-0.00491662,-0.845297,0.0028885,0.0109996,1364,1772,3.95014,-12.8807
147,-748,3.96106,12.8646,-0.00318621,-0.00315185,-0.000520002,-0.00264875,-0.00368932,-0.80191,0.00219645,0.0130597,1371,1772,3.9611,-12.8646
154,-748,3.92908,12.8478,-0.00145857,-0.00261177,-0.000890252,-0.000974503,-0.00309583,-0.498028,0.0018278,0.0113985,1378,1772,3.9291,-12.8478
161,-748,3.92529,12.8383,0.000139921,-0.0016329,-0.0015905,0.00107433,-0.00256732,-0.531176,0.0021606,0.0183138,1385,1772,3.92532,-12.8383
168,-748,3.93188,12.8533,0,0,0,0,0,0,0,-1,1392,1772,3.93184,-12.8533
175,-748,4.15796,12.5933,0,0,0,0,0,0,0,-1,1399,1772,4.15791,-12.5932
182,-748,7.62476,10.3058,0,0,0,0,0,0,0,-1,1406,1772,7.62476,-10.3058
189,-748,6.15857,6.95898,0,0,0,0,0,0,0,-1,1413,1772,6.15862,-6.95896
196,-748,3.9425,8.46021,0,0,0,0,0,0,0,-1,1420,1772,3.9425,-8.46026
203,-748,3.9895,12.2302,0,0,0,0,0,0,0,-1,1427,1772,3.98947,-12.2302
210,-748,3.84924,12.4546,0,0,0,0,0,0,0,-1,1434,1772,3.84923,-12.4546
217,-748,3.64087,12.4576,-0.000596883,0.00609738,0.00193268,0.00661529,-0.00111479,1.30897,0.00482491,0.0374477,1441,1772,3.64082,-12.4576
224,-748,3.80908,12.3781,-0.00131139,0.00596211,0.00228622,0.00662103,-0.0019703,1.29019,0.00519682,0.0417537,1448,1772,3.80909,-12.3781
231,-748,3.83716,12.2845,-0.00612221,0.00380639,0.00221078,0.00427641,-0.00659222,1.36131,0.00632231,0.0442469,1455,1772,3.83715,-12.2845
238,-748,4.18347,12.316,0,0,0,0,0,0,0,-1,1462,1772,4.18346,-12.3161
245,-748,4.08569,12.01,0,0,0,0,0,0,0,-1,1469,1772,4.08573,-12.0101
252,-748,15.5726,8.22522,0,0,0,0,0,0,0,-1,1476,1772,15.5726,-8.22523
259,-748,4.04822,10.3733,0,0,0,0,0,0,0,-1,1483,1772,4.04822,-10.3733
266,-748,14.0199,7.45471,0,0,0,0,0,0,0,-1,1490,1772,14.0199,-7.45473
273,-748,14.1729,6.96057,0,0,0,0,0,0,0,-1,1497,1772,14.1729,-6.96055
280,-748,13.0918,6.70703,-0.086441,-0.0212149,0.000777694,-0.0212057,-0.0864502,1.55888,0.052026,0.047878,1504,1772,13.0917,-6.70698
287,-748,11.9857,6.42688,-0.100983,-0.0247521,0.000794037,-0.0247439,-0.100991,1.56038,0.0607821,0.0453243,1511,1772,11.9857,-6.42691
294,-748,10.8501,6.18701,-0.114726,-0.0290487,0.00111067,-0.0290343,-0.114741,1.55784,0.0688864,0.047421,1518,1772,10.8502,-6.18701
301,-748,9.63281,6.07544,0,0,0,0,0,0,0,-1,1525,1772,9.63282,-6.0754
308,-748,8.88904,6.61414,0,0,0,0,0,0,0,-1,1532,1772,8.889,-6.61419
315,-748,7.85876,6.81372,0,0,0,0,0,0,0,-1,1539,1772,7.85879,-6.81372
322,-748,2.9469,13.4518,0,0,0,0,0,0,0,-1,1546,1772,2.94694,-13.4518
329,-748,3.48315,14.6533,0,0,0,0,0,0,0,-1,1553,1772,3.48316,-14.6534
336,-748,3.76001,15.8163,0,0,0,0,0,0,0,-1,1560,1772,3.75995,-15.8163
343,-748,0,0,0,0,0,0,0,0,0,-1,1567,1772,0,0
350,-748,0,0,0,0,0,0,0,0,0,-1,1574,1772,0,0
357,-748,0,0,0,0,0,0,0,0,0,-1,1581,1772,0,0
364,-748,0,0,0,0,0,0,0,0,0,-1,1588,1772,0,0
371,-748,0,0,0,0,0,0,0,0,0,-1,1595,1772,0,0
378,-748,0,0,0,0,0,0,0,0,0,-1,1602,1772,0,0
385,-748,0,0,0,0,0,0,0,0,0,-1,1609,1772,0,0
392,-748,0,0,0,0,0,0,0,0,0,-1,1616,1772,0,0
399,-748,0,0,0,0,0,0,0,0,0,-1,1623,1772,0,0
406,-748,0,0,0,0,0,0,0,0,0,-1,1630,1772,0,0
413,-748,0,0,0,0,0,0,0,0,0,-1,1637,1772,0,0
420,-748,0,0,0,0,0,0,0,0,0,-1,1644,1772,0,0
427,-748,0,0,0,0,0,0,0,0,0,-1,1651,1772,0,0
434,-748,0,0,0,0,0,0,0,0,0,-1,1658,1772,0,0
441,-748,0,0,0,0,0,0,0,0,0,-1,1665,1772,0,0
448,-748,0,0,0,0,0,0,0,0,0,-1,1672,1772,0,0
455,-748,0,0,0,0,0,0,0,0,0,-1,1679,1772,0,0
462,-748,0,0,0,0,0,0,0,0,0,-1,1686,1772,0,0
469,-748,0,0,0,0,0,0,0,0,0,-1,1693,1772,0,0
476,-748,0,0,0,0,0,0,0,0,0,-1,1700,1772,0,0
483,-748,0,0,0,0,0,0,0,0,0,-1,1707,1772,0,0
490,-748,0,0,0,0,0,0,0,0,0,-1,1714,1772,0,0
497,-748,0,0,0,0,0,0,0,0,0,-1,1721,1772,0,0
504,-748,0,0,0,0,0,0,0,0,0,-1,1728,1772,0,0
511,-748,0,0,0,0,0,0,0,0,0,-1,1735,1772,0,0
518,-748,0,0,0,0,0,0,0,0,0,-1,1742,1772,0,0
525,-748,0,0,0,0,0,0,0,0,0,-1,1749,1772,0,0
532,-748,0,0,0,0,0,0,0,0,0,-1,1756,1772,0,0
539,-748,0,0,0,0,0,0,0,0,0,-1,1763,1772,0,0
546,-748,0,0,0,0,0,0,0,0,0,-1,1770,1772,0,0
553,-748,0,0,0,0,0,0,0,0,0,-1,1777,1772,0,0
560,-748,0,0,0,0,0,0,0,0,0,-1,1784,1772,0,0
567,-748,0,0,0,0,0,0,0,0,0,-1,1791,1772,0,0
574,-748,0,0,0,0,0,0,0,0,0,-1,1798,1772,0,0
581,-748,0,0,0,0,0,0,0,0,0,-1,1805,1772,0,0
588,-748,0,0,0,0,0,0,0,0,0,-1,1812,1772,0,0
595,-748,0,0,0,0,0,0,0,0,0,-1,1819,1772,0,0
602,-748,0,0,0,0,0,0,0,0,0,-1,1826,1772,0,0
609,-748,0,0,0,0,0,0,0,0,0,-1,1833,1772,0,0
616,-748,0,0,0,0,0,0,0,0,0,-1,1840,1772,0,0
623,-748,0,0,0,0,0,0,0,0,0,-1,1847,1772,0,0
630,-748,0,0,0,0,0,0,0,0,0,-1,1854,1772,0,0
637,-748,0,0,0,0,0,0,0,0,0,-1,1861,1772,0,0
644,-748,0,0,0,0,0,0,0,0,0,-1,1868,1772,0,0
651,-748,0,0,0,0,0,0,0,0,0,-1,1875,1772,0,0
658,-748,0,0,0,0,0,0,0,0,0,-1,1882,1772,0,0
665,-748,0,0,0,0,0,0,0,0,0,-1,1889,1772,0,0
672,-748,0,0,0,0,0,0,0,0,0,-1,1896,1772,0,0
679,-748,0,0,0,0,0,0,0,0,0,-1,1903,1772,0,0
686,-748,0,0,0,0,0,0,0,0,0,-1,1910,1772,0,0
693,-748,0,0,0,0,0,0,0,0,0,-1,1917,1772,0,0
700,-748,0,0,0,0,0,0,0,0,0,-1,1924,1772,0,0
707,-748,0,0,0,0,0,0,0,0,0,-1,1931,1772,0,0
714,-748,0,0,0,0,0,0,0,0,0,-1,1938,1772,0,0
721,-748,0,0,0,0,0,0,0,0,0,-1,1945,1772,0,0
728,-748,0,0,0,0,0,0,0,0,0,-1,1952,1772,0,0
735,-748,0,0,0,0,0,0,0,0,0,-1,1959,1772,0,0
742,-748,0,0,0,0,0,0,0,0,0,-1,1966,1772,0,0
749,-748,0,0,0,0,0,0,0,0,0,-1,1973,1772,0,0
756,-748,0,0,0,0,0,0,0,0,0,-1,1980,1772,0,0
763,-748,0,0,0,0,0,0,0,0,0,-1,1987,1772,0,0
770,-748,0,0,0,0,0,0,0,0,0,-1,1994,1772,0,0
777,-748,0,0,0,0,0,0,0,0,0,-1,2001,1772,0,0
784,-748,0,0,0,0,0,0,0,0,0,-1,2008,1772,0,0
791,-748,0,0,0,0,0,0,0,0,0,-1,2015,1772,0,0
798,-748,0,0,0,0,0,0,0,0,0,-1,2022,1772,0,0
805,-748,0,0,0,0,0,0,0,0,0,-1,2029,1772,0,0
812,-748,0,0,0,0,0,0,0,0,0,-1,2036,1772,0,0
-700,-755,0,0,0,0,0,0,0,0,0,-1,524,1779,0,0
-693,-755,0,0,0,0,0,0,0,0,0,-1,531,1779,0,0
-686,-755,0,0,0,0,0,0,0,0,0,-1,538,1779,0,0
-679,-755,0,0,0,0,0,0,0,0,0,-1,545,1779,0,0
-672,-755,0,0,0,0,0,0,0,0,0,-1,552,1779,0,0
-665,-755,0,0,0,0,0,0,0,0,0,-1,559,1779,0,0
-658,-755,0,0,0,0,0,0,0,0,0,-1,566,1779,0,0
-651,-755,0,0,0,0,0,0,0,0,0,-1,573,1779,0,0
-644,-755,0,0,0,0,0,0,0,0,0,-1,580,1779,0,0
-637,-755,0,0,0,0,0,0,0,0,0,-1,587,1779,0,0
-630,-755,0,0,0,0,0,0,0,0,0,-1,594,1779,0,0
-623,-755,0,0,0,0,0,0,0,0,0,-1,601,1779,0,0
-616,-755,0,0,0,0,0,0,0,0,0,-1,608,1779,0,0
-609,-755,0,0,0,0,0,0,0,0,0,-1,615,1779,0,0
-602,-755,0,0,0,0,0,0,0,0,0,-1,622,1779,0,0
-595,-755,0,0,0,0,0,0,0,0,0,-1,629,1779,0,0
-588,-755,0,0,0,0,0,0,0,0,0,-1,636,1779,0,0
-581,-755,0,0,0,0,0,0,0,0,0,-1,643,1779,0,0
-574,-755,0,0,0,0,0,0,0,0,0,-1,650,1779,0,0
-567,-755,0,0,0,0,0,0,0,0,0,-1,657,1779,0,0
-560,-755,0,0,0,0,0,0,0,0,0,-1,664,1779,0,0
-553,-755,0,0,0,0,0,0,0,0,0,-1,671,1779,0,0
-546,-755,0,0,0,0,0,0,0,0,0,-1,678,1779,0,0
-539,-755,0,0,0,0,0,0,0,0,0,-1,685,1779,0,0
-532,-755,0,0,0,0,0,0,0,0,0,-1,692,1779,0,0
-525,-755,0,0,0,0,0,0,0,0,0,-1,699,1779,0,0
-518,-755,0,0,0,0,0,0,0,0,0,-1,706,1779,0,0
-511,-755,0,0,0,0,0,0,0,0,0,-1,713,1779,0,0
-504,-755,0,0,0,0,0,0,0,0,0,-1,720,1779,0,0
-497,-755,0,0,0,0,0,0,0,0,0,-1,727,1779,0,0
-490,-755,0,0,0,0,0,0,0,0,0,-1,734,1779,0,0
-483,-755,0,0,0,0,0,0,0,0,0,-1,741,1779,0,0
-476,-755,0,0,0,0,0,0,0,0,0,-1,748,1779,0,0
-469,-755,0,0,0,0,0,0,0,0,0,-1,755,1779,0,0
-462,-755,0,0,0,0,0,0,0,0,0,-1,762,1779,0,0
-455,-755,0,0,0,0,0,0,0,0,0,-1,769,1779,0,0
-448,-755,0,0,0,0,0,0,0,0,0,-1,776,1779,0,0
-441,-755,0,0,0,0,0,0,0,0,0,-1,783,1779,0,0
-434,-755,0,0,0,0,0,0,0,0,0,-1,790,1779,0,0
-427,-755,0,0,0,0,0,0,0,0,0,-1,797,1779,0,0
-420,-755,0,0,0,0,0,0,0,0,0,-1,804,1779,0,0
-413,-755,0,0,0,0,0,0,0,0,0,-1,811,1779,0,0
-406,-755,0,0,0,0,0,0,0,0,0,-1,818,1779,0,0
-399,-755,0,0,0,0,0,0,0,0,0,-1,825,1779,0,0
-392,-755,0,0,0,0,0,0,0,0,0,-1,832,1779,0,0
-385,-755,0,0,0,0,0,0,0,0,0,-1,839,1779,0,0
-378,-755,0,0,0,0,0,0,0,0,0,-1,846,1779,0,0
-371,-755,0,0,0,0,0,0,0,0,0,-1,853,1779,0,0
-364,-755,0,0,0,0,0,0,0,0,0,-1,860,1779,0,0
-357,-755,0,0,0,0,0,0,0,0,0,-1,867,1779,0,0
-350,-755,0,0,0,0,0,0,0,0,0,-1,874,1779,0,0
-343,-755,0,0,0,0,0,0,0,0,0,-1,881,1779,0,0
-336,-755,0,0,0,0,0,0,0,0,0,-1,888,1779,0,0
-329,-755,0,0,0,0,0,0,0,0,0,-1,895,1779,0,0
-322,-755,0,0,0,0,0,0,0,0,0,-1,902,1779,0,0
-315,-755,0,0,0,0,0,0,0,0,0,-1,909,1779,0,0
-308,-755,0,0,0,0,0,0,0,0,0,-1,916,1779,0,0
-301,-755,0,0,0,0,0,0,0,0,0,-1,923,1779,0,0
-294,-755,0,0,0,0,0,0,0,0,0,-1,930,1779,0,0
-287,-755,0,0,0,0,0,0,0,0,0,-1,937,1779,0,0
-280,-755,0,0,0,0,0,0,0,0,0,-1,944,1779,0,0
-273,-755,0,0,0,0,0,0,0,0,0,-1,951,1779,0,0
-266,-755,0,0,0,0,0,0,0,0,0,-1,958,1779,0,0
-259,-755,0,0,0,0,0,0,0,0,0,-1,965,1779,0,0
-252,-755,0,0,0,0,0,0,0,0,0,-1,972,1779,0,0
-245,-755,0,0,0,0,0,0,0,0,0,-1,979,1779,0,0
-238,-755,0,0,0,0,0,0,0,0,0,-1,986,1779,0,0
-231,-755,0,0,0,0,0,0,0,0,0,-1,993,1779,0,0
-224,-755,0,0,0,0,0,0,0,0,0,-1,1000,1779,0,0
-217,-755,0,0,0,0,0,0,0,0,0,-1,1007,1779,0,0
-210,-755,0,0,0,0,0,0,0,0,0,-1,1014,1779,0,0
-203,-755,9.17322,10.2322,0,0,0,0,0,0,0,-1,1021,1779,9.17323,-10.2322
-196,-755,5.41724,13.5709,0,0,0,0,0,0,0,-1,1028,1779,5.41718,-13.571
-189,-755,4.85864,12.9271,0,0,0,0,0,0,0,-1,1035,1779,4.85866,-12.9272
-182,-755,4.35339,12.1057,0,0,0,0,0,0,0,-1,1042,1779,4.35337,-12.1057
-175,-755,3.88025,10.7515,0,0,0,0,0,0,0,-1,1049,1779,3.88029,-10.7515
-168,-755,3.58789,9.15454,0,0,0,0,0,0,0,-1,1056,1779,3.58791,-9.15456
-161,-755,-2.95337,11.1847,0,0,0,0,0,0,0,-1,1063,1779,-2.9534,-11.1847
-154,-755,-4.14355,11.0377,0,0,0,0,0,0,0,-1,1070,1779,-4.1436,-11.0378
-147,-755,-5.40332,10.7094,0,0,0,0,0,0,0,-1,1077,1779,-5.40328,-10.7094
-140,-755,3.29346,10.2112,0,0,0,0,0,0,0,-1,1084,1779,3.2935,-10.2112
-133,-755,3.60779,10.418,0,0,0,0,0,0,0,-1,1091,1779,3.60782,-10.418
-126,-755,3.823,10.9164,0,0,0,0,0,0,0,-1,1098,1779,3.82302,-10.9164
-119,-755,3.9718,11.1222,0.010492,-0.0017452,0.0109999,0.0169605,-0.00821365,0.531585,0.0148238,0.0432597,1105,1779,3.9718,-11.1221
-112,-755,4.12451,11.5623,0.0118603,-0.000406654,0.00976086,0.0172548,-0.00580115,0.504888,0.013848,0.0434918,1112,1779,4.12452,-11.5622
-105,-755,4.37854,11.7423,0.0125143,0.000716527,0.00829019,0.0167901,-0.00355927,0.476181,0.0125492,0.043402,1119,1779,4.37853,-11.7423
-98,-755,4.42749,11.9291,0,0,0,0,0,0,0,-1,1126,1779,4.42745,-11.9291
-91,-755,3.4447,11.2358,0,0,0,0,0,0,0,-1,1133,1779,3.44475,-11.2358
-84,-755,0.32251,8.17041,0,0,0,0,0,0,0,-1,1140,1779,0.322463,-8.17038
-77,-755,-0.369141,6.3689,0,0,0,0,0,0,0,-1,1147,1779,-0.369121,-6.36889
-70,-755,4.7063,11.8752,0,0,0,0,0,0,0,-1,1154,1779,4.70631,-11.8752
-63,-755,-1.36316,7.3147,0,0,0,0,0,0,0,-1,1161,1779,-1.36312,-7.31473
-56,-755,0.0483398,5.06079,0,0,0,0,0,0,0,-1,1168,1779,0.0483138,-5.06084
-49,-755,-1.32263,5.33716,0,0,0,0,0,0,0,-1,1175,1779,-1.32264,-5.33718
-42,-755,-2.03613,4.01672,0,0,0,0,0,0,0,-1,1182,1779,-2.0361,-4.01671
-35,-755,-2.72498,2.37476,0,0,0,0,0,0,0,-1,1189,1779,-2.72502,-2.37473
-28,-755,4.0741,12.7124,0,0,0,0,0,0,0,-1,1196,1779,4.0741,-12.7124
-21,-755,4.1062,12.751,0,0,0,0,0,0,0,-1,1203,1779,4.10622,-12.751
-14,-755,4.17102,12.6277,0.00322253,-0.0116368,0.00104185,0.00329522,-0.0117095,0.0696596,0.00910573,0.0317836,1210,1779,4.17098,-12.6276
-7,-755,4.19214,12.6979,0.00255533,-0.0130556,0.000382339,0.00256468,-0.013065,0.0244722,0.00967881,0.0234435,1217,1779,4.19209,-12.6978
0,-755,4.16064,12.7281,0.00186773,-0.0134116,-0.000329361,0.00187483,-0.0134187,-0.0215426,0.00963179,0.0139432,1224,1779,4.1606,-12.7282
7,-755,4.10974,12.7465,0.00136246,-0.0130957,-0.00105058,0.0014384,-0.0131716,-0.0721585,0.00929769,0.0115728,1231,1779,4.10974,-12.7464
14,-755,4.11243,12.8007,0.00103382,-0.0121401,-0.00178209,0.00127064,-0.0123769,-0.132111,0.00870578,0.00984152,1238,1779,4.11238,-12.8007
21,-755,4.08484,12.8574,0.00079918,-0.0106808,-0.0024272,0.00129127,-0.0111729,-0.200028,0.00791418,0.0145009,1245,1779,4.08487,-12.8574
28,-755,4.06665,12.8854,0.000760193,-0.00863119,-0.00350129,0.00192185,-0.00979285,-0.320352,0.00725454,0.0173282,1252,1779,4.06664,-12.8854
35,-755,4.09009,12.9216,0.00151707,-0.0066722,-0.00522732,0.00406253,-0.00921767,-0.453157,0.00785753,0.0175986,1259,1779,4.09009,-12.9216
42,-755,4.11243,12.9039,0.00196181,-0.00478912,-0.00725712,0.00659006,-0.00941737,-0.567718,0.00928983,0.0138989,1266,1779,4.11237,-12.9039
49,-755,4.09387,12.9086,0.00176355,-0.00268242,-0.00904958,0.00885918,-0.00977805,-0.664961,0.0107646,0.00944095,1273,1779,4.09384,-12.9085
56,-755,4.05542,12.9341,0.00148311,-0.00110322,-0.0105828,0.0108515,-0.0104716,-0.724602,0.0123115,0.00859641,1280,1779,4.05537,-12.9341
63,-755,4.02795,12.9525,0.00088866,-0.000678377,-0.0115632,0.0116949,-0.0114846,-0.75157,0.0133829,0.00862046,1287,1779,4.02798,-12.9525
70,-755,4.02283,12.953,2.61621e-05,-0.000594702,-0.0118738,0.0115936,-0.0121622,-0.772329,0.0137167,0.0109076,1294,1779,4.02284,-12.953
77,-755,4.01392,12.9462,-0.000827484,-0.000832456,-0.0123137,0.0114837,-0.0131437,-0.785297,0.0142294,0.0104802,1301,1779,4.01392,-12.9462
84,-755,4.026,12.9502,-0.00226851,-0.00139191,-0.0124366,0.0106141,-0.0142746,-0.803012,0.0144212,0.0104078,1308,1779,4.02596,-12.9502
91,-755,4.01355,12.9458,-0.00415656,-0.00278994,-0.0113174,0.0078648,-0.0148113,-0.81555,0.0132952,0.010412,1315,1779,4.0135,-12.9458
98,-755,3.98682,12.9349,-0.00536422,-0.00447761,-0.010075,0.0051638,-0.0150056,-0.807384,0.0120981,0.0120955,1322,1779,3.98676,-12.935
105,-755,4.0177,12.9617,-0.00655321,-0.00667674,-0.00853069,0.00191594,-0.0151459,-0.781778,0.0107927,0.0160091,1329,1779,4.01771,-12.9616
112,-755,4.02173,12.9417,-0.00763435,-0.00803118,-0.00677367,-0.00105619,-0.0146093,-0.770756,0.00940728,0.0209587,1336,1779,4.02173,-12.9417
119,-755,3.96509,12.927,-0.00824313,-0.00850892,-0.00503112,-0.00334316,-0.0134089,-0.772194,0.00805943,0.0200548,1343,1779,3.96506,-12.927
126,-755,3.9303,12.9633,-0.00807257,-0.00817044,-0.0037641,-0.00435708,-0.0118859,-0.778898,0.00694331,0.0217174,1350,1779,3.93036,-12.9632
133,-755,3.87292,12.9102,-0.0076136,-0.00763629,-0.0024561,-0.00516881,-0.0100811,-0.783088,0.00582094,0.022438,1357,1779,3.87296,-12.9101
140,-755,3.86511,12.8939,-0.00727715,-0.00671146,-0.00130188,-0.00566205,-0.00832656,-0.892365,0.00491008,0.029287,1364,1779,3.86509,-12.8939
147,-755,3.93848,12.9143,-0.00604974,-0.00570127,-0.000885824,-0.00497271,-0.0067783,-0.882505,0.00405335,0.0315767,1371,1779,3.93846,-12.9143
154,-755,3.97607,12.9016,-0.0037188,-0.00510395,-0.00139533,-0.00285362,-0.00596913,-0.555034,0.00344738,0.0326174,1378,1779,3.97613,-12.9016
161,-755,3.90491,12.8807,0,0,0,0,0,0,0,-1,1385,1779,3.90486,-12.8808
168,-755,3.98181,7.35901,0,0,0,0,0,0,0,-1,1392,1779,3.98184,-7.35904
175,-755,8.17065,1.34363,0,0,0,0,0,0,0,-1,1399,1779,8.1706,-1.34368
182,-755,8.09216,2.96924,0,0,0,0,0,0,0,-1,1406,1779,8.09213,-2.9693
189,-755,8.04419,4.68042,0,0,0,0,0,0,0,-1,1413,1779,8.04419,-4.68046
196,-755,7.74841,7.4541,0,0,0,0,0,0,0,-1,1420,1779,7.74842,-7.45405
203,-755,4.80554,6.88696,0,0,0,0,0,0,0,-1,1427,1779,4.80554,-6.88697
210,-755,3.07959,4.92688,0,0,0,0,0,0,0,-1,1434,1779,3.07955,-4.9269
217,-755,3.33252,12.4642,0,0,0,0,0,0,0,-1,1441,1779,3.33251,-12.4642
224,-755,3.72534,12.4084,0,0,0,0,0,0,0,-1,1448,1779,3.72539,-12.4085
231,-755,3.73181,12.2574,0,0,0,0,0,0,0,-1,1455,1779,3.73185,-12.2574
238,-755,5.20178,11.2515,0,0,0,0,0,0,0,-1,1462,1779,5.20182,-11.2515
245,-755,14.3478,8.20337,0,0,0,0,0,0,0,-1,1469,1779,14.3478,-8.20333
252,-755,14.7816,7.94434,0,0,0,0,0,0,0,-1,1476,1779,14.7817,-7.94429
259,-755,14.3679,7.71399,0,0,0,0,0,0,0,-1,1483,1779,14.3679,-7.71404
266,-755,14.0226,7.61597,0,0,0,0,0,0,0,-1,1490,1779,14.0226,-7.61594
273,-755,14.1566,6.96606,0,0,0,0,0,0,0,-1,1497,1779,14.1566,-6.96602
280,-755,12.9016,6.86536,-0.104981,-0.027102,0.00187157,-0.027057,-0.105026,1.54678,0.0629667,0.0472409,1504,1779,12.9016,-6.86532
287,-755,11.5734,6.62097,-0.124128,-0.0321533,0.00189062,-0.0321144,-0.124167,1.55025,0.0744199,0.0444783,1511,1779,11.5733,-6.62094
294,-755,10.3236,6.42993,-0.14266,-0.0379815,0.00216776,-0.0379366,-0.142705,1.5501,0.0853491,0.0447249,1518,1779,10.3236,-6.42995
301,-755,9.052,6.31702,0,0,0,0,0,0,0,-1,1525,1779,9.05205,-6.31701
308,-755,8.76111,7.19995,0,0,0,0,0,0,0,-1,1532,1779,8.76106,-7.19997
315,-755,7.66003,7.40503,0,0,0,0,0,0,0,-1,1539,1779,7.66006,-7.40499
322,-755,0,0,0,0,0,0,0,0,0,-1,1546,1779,0,0
329,-755,0,0,0,0,0,0,0,0,0,-1,1553,1779,0,0
336,-755,0,0,0,0,0,0,0,0,0,-1,1560,1779,0,0
343,-755,0,0,0,0,0,0,0,0,0,-1,1567,1779,0,0
350,-755,0,0,0,0,0,0,0,0,0,-1,1574,1779,0,0
357,-755,0,0,0,0,0,0,0,0,0,-1,1581,1779,0,0
364,-755,0,0,0,0,0,0,0,0,0,-1,1588,1779,0,0
371,-755,0,0,0,0,0,0,0,0,0,-1,1595,1779,0,0
378,-755,0,0,0,0,0,0,0,0,0,-1,1602,1779,0,0
385,-755,0,0,0,0,0,0,0,0,0,-1,1609,1779,0,0
392,-755,0,0,0,0,0,0,0,0,0,-1,1616,1779,0,0
399,-755,0,0,0,0,0,0,0,0,0,-1,1623,1779,0,0
406,-755,0,0,0,0,0,0,0,0,0,-1,1630,1779,0,0
413,-755,0,0,0,0,0,0,0,0,0,-1,1637,1779,0,0
420,-755,0,0,0,0,0,0,0,0,0,-1,1644,1779,0,0
427,-755,0,0,0,0,0,0,0,0,0,-1,1651,1779,0,0
434,-755,0,0,0,0,0,0,0,0,0,-1,1658,1779,0,0
441,-755,0,0,0,0,0,0,0,0,0,-1,1665,1779,0,0
448,-755,0,0,0,0,0,0,0,0,0,-1,1672,1779,0,0
455,-755,0,0,0,0,0,0,0,0,0,-1,1679,1779,0,0
462,-755,0,0,0,0,0,0,0,0,0,-1,1686,1779,0,0
469,-755,0,0,0,0,0,0,0,0,0,-1,1693,1779,0,0
476,-755,0,0,0,0,0,0,0,0,0,-1,1700,1779,0,0
483,-755,0,0,0,0,0,0,0,0,0,-1,1707,1779,0,0
490,-755,0,0,0,0,0,0,0,0,0,-1,1714,1779,0,0
497,-755,0,0,0,0,0,0,0,0,0,-1,1721,1779,0,0
504,-755,0,0,0,0,0,0,0,0,0,-1,1728,1779,0,0
511,-755,0,0,0,0,0,0,0,0,0,-1,1735,1779,0,0
518,-755,0,0,0,0,0,0,0,0,0,-1,1742,1779,0,0
525,-755,0,0,0,0,0,0,0,0,0,-1,1749,1779,0,0
532,-755,0,0,0,0,0,0,0,0,0,-1,1756,1779,0,0
539,-755,0,0,0,0,0,0,0,0,0,-1,1763,1779,0,0
546,-755,0,0,0,0,0,0,0,0,0,-1,1770,1779,0,0
553,-755,0,0,0,0,0,0,0,0,0,-1,1777,1779,0,0
560,-755,0,0,0,0,0,0,0,0,0,-1,1784,1779,0,0
567,-755,0,0,0,0,0,0,0,0,0,-1,1791,1779,0,0
574,-755,0,0,0,0,0,0,0,0,0,-1,1798,1779,0,0
581,-755,0,0,0,0,0,0,0,0,0,-1,1805,1779,0,0
588,-755,0,0,0,0,0,0,0,0,0,-1,1812,1779,0,0
595,-755,0,0,0,0,0,0,0,0,0,-1,1819,1779,0,0
602,-755,0,0,0,0,0,0,0,0,0,-1,1826,1779,0,0
609,-755,0,0,0,0,0,0,0,0,0,-1,1833,1779,0,0
616,-755,0,0,0,0,0,0,0,0,0,-1,1840,1779,0,0
623,-755,0,0,0,0,0,0,0,0,0,-1,1847,1779,0,0
630,-755,0,0,0,0,0,0,0,0,0,-1,1854,1779,0,0
637,-755,0,0,0,0,0,0,0,0,0,-1,1861,1779,0,0
644,-755,0,0,0,0,0,0,0,0,0,-1,1868,1779,0,0
651,-755,0,0,0,0,0,0,0,0,0,-1,1875,1779,0,0
658,-755,0,0,0,0,0,0,0,0,0,-1,1882,1779,0,0
665,-755,0,0,0,0,0,0,0,0,0,-1,1889,1779,0,0
672,-755,0,0,0,0,0,0,0,0,0,-1,1896,1779,0,0
679,-755,0,0,0,0,0,0,0,0,0,-1,1903,1779,0,0
686,-755,0,0,0,0,0,0,0,0,0,-1,1910,1779,0,0
693,-755,0,0,0,0,0,0,0,0,0,-1,1917,1779,0,0
700,-755,0,0,0,0,0,0,0,0,0,-1,1924,1779,0,0
707,-755,0,0,0,0,0,0,0,0,0,-1,1931,1779,0,0
714,-755,0,0,0,0,0,0,0,0,0,-1,1938,1779,0,0
721,-755,0,0,0,0,0,0,0,0,0,-1,1945,1779,0,0
728,-755,0,0,0,0,0,0,0,0,0,-1,1952,1779,0,0
735,-755,0,0,0,0,0,0,0,0,0,-1,1959,1779,0,0
742,-755,0,0,0,0,0,0,0,0,0,-1,1966,1779,0,0
749,-755,0,0,0,0,0,0,0,0,0,-1,1973,1779,0,0
756,-755,0,0,0,0,0,0,0,0,0,-1,1980,1779,0,0
763,-755,0,0,0,0,0,0,0,0,0,-1,1987,1779,0,0
770,-755,0,0,0,0,0,0,0,0,0,-1,1994,1779,0,0
777,-755,0,0,0,0,0,0,0,0,0,-1,2001,1779,0,0
784,-755,0,0,0,0,0,0,0,0,0,-1,2008,1779,0,0
791,-755,0,0,0,0,0,0,0,0,0,-1,2015,1779,0,0
798,-755,0,0,0,0,0,0,0,0,0,-1,2022,1779,0,0
805,-755,0,0,0,0,0,0,0,0,0,-1,2029,1779,0,0
812,-755,0,0,0,0,0,0,0,0,0,-1,2036,1779,0,0
-700,-762,0,0,0,0,0,0,0,0,0,-1,524,1786,0,0
-693,-762,0,0,0,0,0,0,0,0,0,-1,531,1786,0,0
-686,-762,0,0,0,0,0,0,0,0,0,-1,538,1786,0,0
-679,-762,0,0,0,0,0,0,0,0,0,-1,545,1786,0,0
-672,-762,0,0,0,0,0,0,0,0,0,-1,552,1786,0,0
-665,-762,0,0,0,0,0,0,0,0,0,-1,559,1786,0,0
-658,-762,0,0,0,0,0,0,0,0,0,-1,566,1786,0,0
-651,-762,0,0,0,0,0,0,0,0,0,-1,573,1786,0,0
-644,-762,0,0,0,0,0,0,0,0,0,-1,580,1786,0,0
-637,-762,0,0,0,0,0,0,0,0,0,-1,587,1786,0,0
-630,-762,0,0,0,0,0,0,0,0,0,-1,594,1786,0,0
-623,-762,0,0,0,0,0,0,0,0,0,-1,601,1786,0,0
-616,-762,0,0,0,0,0,0,0,0,0,-1,608,1786,0,0
-609,-762,0,0,0,0,0,0,0,0,0,-1,615,1786,0,0
-602,-762,0,0,0,0,0,0,0,0,0,-1,622,1786,0,0
-595,-762,0,0,0,0,0,0,0,0,0,-1,629,1786,0,0
-588,-762,0,0,0,0,0,0,0,0,0,-1,636,1786,0,0
-581,-762,0,0,0,0,0,0,0,0,0,-1,643,1786,0,0
-574,-762,0,0,0,0,0,0,0,0,0,-1,650,1786,0,0
-567,-762,0,0,0,0,0,0,0,0,0,-1,657,1786,0,0
-560,-762,0,0,0,0,0,0,0,0,0,-1,664,1786,0,0
-553,-762,0,0,0,0,0,0,0,0,0,-1,671,1786,0,0
-546,-762,0,0,0,0,0,0,0,0,0,-1,678,1786,0,0
-539,-762,0,0,0,0,0,0,0,0,0,-1,685,1786,0,0
-532,-762,0,0,0,0,0,0,0,0,0,-1,692,1786,0,0
-525,-762,0,0,0,0,0,0,0,0,0,-1,699,1786,0,0
-518,-762,0,0,0,0,0,0,0,0,0,-1,706,1786,0,0
-511,-762,0,0,0,0,0,0,0,0,0,-1,713,1786,0,0
-504,-762,0,0,0,0,0,0,0,0,0,-1,720,1786,0,0
-497,-762,0,0,0,0,0,0,0,0,0,-1,727,1786,0,0
-490,-762,0,0,0,0,0,0,0,0,0,-1,734,1786,0,0
-483,-762,0,0,0,0,0,0,0,0,0,-1,741,1786,0,0
-476,-762,0,0,0,0,0,0,0,0,0,-1,748,1786,0,0
-469,-762,0,0,0,0,0,0,0,0,0,-1,755,1786,0,0
-462,-762,0,0,0,0,0,0,0,0,0,-1,762,1786,0,0
-455,-762,0,0,0,0,0,0,0,0,0,-1,769,1786,0,0
-448,-762,0,0,0,0,0,0,0,0,0,-1,776,1786,0,0
-441,-762,0,0,0,0,0,0,0,0,0,-1,783,1786,0,0
-434,-762,0,0,0,0,0,0,0,0,0,-1,790,1786,0,0
-427,-762,0,0,0,0,0,0,0,0,0,-1,797,1786,0,0
-420,-762,0,0,0,0,0,0,0,0,0,-1,804,1786,0,0
-413,-762,0,0,0,0,0,0,0,0,0,-1,811,1786,0,0
-406,-762,0,0,0,0,0,0,0,0,0,-1,818,1786,0,0
-399,-762,0,0,0,0,0,0,0,0,0,-1,825,1786,0,0
-392,-762,0,0,0,0,0,0,0,0,0,-1,832,1786,0,0
-385,-762,0,0,0,0,0,0,0,0,0,-1,839,1786,0,0
-378,-762,0,0,0,0,0,0,0,0,0,-1,846,1786,0,0
-371,-762,0,0,0,0,0,0,0,0,0,-1,853,1786,0,0
-364,-762,0,0,0,0,0,0,0,0,0,-1,860,1786,0,0
-357,-762,0,0,0,0,0,0,0,0,0,-1,867,1786,0,0
-350,-762,0,0,0,0,0,0,0,0,0,-1,874,1786,0,0
-343,-762,0,0,0,0,0,0,0,0,0,-1,881,1786,0,0
-336,-762,0,0,0,0,0,0,0,0,0,-1,888,1786,0,0
-329,-762,0,0,0,0,0,0,0,0,0,-1,895,1786,0,0
-322,-762,0,0,0,0,0,0,0,0,0,-1,902,1786,0,0
-315,-762,0,0,0,0,0,0,0,0,0,-1,909,1786,0,0
-308,-762,0,0,0,0,0,0,0,0,0,-1,916,1786,0,0
-301,-762,0,0,0,0,0,0,0,0,0,-1,923,1786,0,0
-294,-762,0,0,0,0,0,0,0,0,0,-1,930,1786,0,0
-287,-762,0,0,0,0,0,0,0,0,0,-1,937,1786,0,0
-280,-762,0,0,0,0,0,0,0,0,0,-1,944,1786,0,0
-273,-762,0,0,0,0,0,0,0,0,0,-1,951,1786,0,0
-266,-762,0,0,0,0,0,0,0,0,0,-1,958,1786,0,0
-259,-762,0,0,0,0,0,0,0,0,0,-1,965,1786,0,0
-252,-762,0,0,0,0,0,0,0,0,0,-1,972,1786,0,0
-245,-762,0,0,0,0,0,0,0,0,0,-1,979,1786,0,0
-238,-762,0,0,0,0,0,0,0,0,0,-1,986,1786,0,0
-231,-762,0,0,0,0,0,0,0,0,0,-1,993,1786,0,0
-224,-762,0,0,0,0,0,0,0,0,0,-1,1000,1786,0,0
-217,-762,0,0,0,0,0,0,0,0,0,-1,1007,1786,0,0
-210,-762,0,0,0,0,0,0,0,0,0,-1,1014,1786,0,0
-203,-762,0,0,0,0,0,0,0,0,0,-1,1021,1786,0,0
-196,-762,0,0,0,0,0,0,0,0,0,-1,1028,1786,0,0
-189,-762,0,0,0,0,0,0,0,0,0,-1,1035,1786,0,0
-182,-762,4.44226,13.2462,0,0,0,0,0,0,0,-1,1042,1786,4.44227,-13.2462
-175,-762,4.07861,11.6385,0,0,0,0,0,0,0,-1,1049,1786,4.07866,-11.6386
-168,-762,3.71509,10.031,0,0,0,0,0,0,0,-1,1056,1786,3.71504,-10.031
-161,-762,-3.15735,11.7089,0,0,0,0,0,0,0,-1,1063,1786,-3.15736,-11.7088
-154,-762,-4.57129,10.9923,0,0,0,0,0,0,0,-1,1070,1786,-4.57132,-10.9923
-147,-762,-1.09119,4.58313,0,0,0,0,0,0,0,-1,1077,1786,-1.09124,-4.58313
-140,-762,4.99792,5.28589,0,0,0,0,0,0,0,-1,1084,1786,4.99793,-5.28587
-133,-762,3.75159,9.08374,0,0,0,0,0,0,0,-1,1091,1786,3.75161,-9.08378
-126,-762,4.12476,10.2291,0,0,0,0,0,0,0,-1,1098,1786,4.1247,-10.2291
-119,-762,4.25244,10.6255,0,0,0,0,0,0,0,-1,1105,1786,4.25249,-10.6255
-112,-762,4.19458,11.3232,0,0,0,0,0,0,0,-1,1112,1786,4.19462,-11.3233
-105,-762,4.40442,11.5934,0,0,0,0,0,0,0,-1,1119,1786,4.40442,-11.5934
-98,-762,4.10583,11.7058,0,0,0,0,0,0,0,-1,1126,1786,4.10584,-11.7058
-91,-762,3.62683,11.6086,0,0,0,0,0,0,0,-1,1133,1786,3.62689,-11.6086
-84,-762,0.741455,9.28662,0,0,0,0,0,0,0,-1,1140,1786,0.741428,-9.28659
-77,-762,0.0256348,7.2218,0,0,0,0,0,0,0,-1,1147,1786,0.0255824,-7.22184
-70,-762,-1.15259,5.96057,0,0,0,0,0,0,0,-1,1154,1786,-1.15258,-5.96057
-63,-762,0.350098,6.29749,0,0,0,0,0,0,0,-1,1161,1786,0.350114,-6.29743
-56,-762,-0.578979,5.10254,0,0,0,0,0,0,0,-1,1168,1786,-0.578951,-5.10249
-49,-762,-2.04541,3.66321,0,0,0,0,0,0,0,-1,1175,1786,-2.0454,-3.66319
-42,-762,-2.23462,3.474,0,0,0,0,0,0,0,-1,1182,1786,-2.23459,-3.47399
-35,-762,-3.28992,1.68164,0,0,0,0,0,0,0,-1,1189,1786,-3.28998,-1.68164
-28,-762,-3.75378,1.37769,0,0,0,0,0,0,0,-1,1196,1786,-3.75373,-1.37767
-21,-762,3.8158,12.4506,0,0,0,0,0,0,0,-1,1203,1786,3.81581,-12.4506
-14,-762,3.81384,12.6183,0.00446399,-0.0156676,0.00225131,0.00471268,-0.0159162,0.110019,0.0124819,0.0458094,1210,1786,3.81383,-12.6183
-7,-762,4.17432,12.7133,0.00348851,-0.0177586,0.00122633,0.00355906,-0.0178291,0.0574633,0.013233,0.0484451,1217,1786,4.17436,-12.7132
0,-762,4.23889,12.7371,0.00256835,-0.0187179,0.000162486,0.00256959,-0.0187192,0.00763277,0.0134182,0.033914,1224,1786,4.23885,-12.7371
7,-762,4.20508,12.7694,0.00190724,-0.0185312,-0.000914579,0.00194809,-0.018572,-0.0446291,0.0130792,0.019391,1231,1786,4.20504,-12.7694
14,-762,4.23438,12.8663,0.00152838,-0.0172726,-0.00200837,0.00174053,-0.0174847,-0.105241,0.0122778,0.0313904,1238,1786,4.23441,-12.8663
21,-762,4.21936,12.9619,0.00129776,-0.0152307,-0.00299642,0.00182421,-0.0157572,-0.173918,0.0111626,0.0401683,1245,1786,4.21934,-12.9619
28,-762,3.88452,12.9463,0.00131386,-0.0123136,-0.00468324,0.00276812,-0.0137679,-0.301083,0.0102269,0.0393303,1252,1786,3.88455,-12.9463
35,-762,4.03918,12.9878,0.00233798,-0.00949836,-0.00725462,0.00578219,-0.0129426,-0.443254,0.0110711,0.0420667,1259,1786,4.03923,-12.9878
42,-762,4.07275,12.9382,0.00298225,-0.00685155,-0.0101155,0.00931254,-0.0131818,-0.559175,0.013051,0.0399836,1266,1786,4.0728,-12.9382
49,-762,4.06384,12.9436,0.00274086,-0.00395591,-0.0126761,0.0125033,-0.0137184,-0.656273,0.0151445,0.0307793,1273,1786,4.06389,-12.9436
56,-762,4.12048,12.9406,0.00233733,-0.00177125,-0.0148947,0.0153188,-0.0147527,-0.71687,0.0173628,0.0211006,1280,1786,4.1205,-12.9406
63,-762,4.09192,12.9586,0.0015377,-0.00111853,-0.0163729,0.0166363,-0.0162171,-0.744928,0.0189684,0.0184547,1287,1786,4.09196,-12.9587
70,-762,4.02356,12.972,0.000329755,-0.000932795,-0.0168592,0.0165695,-0.0171725,-0.766685,0.019482,0.0183306,1294,1786,4.02361,-12.972
77,-762,4.02649,12.9613,-0.00085883,-0.00118548,-0.0175573,0.0165359,-0.0185802,-0.780747,0.0202858,0.0259895,1301,1786,4.02644,-12.9614
84,-762,4.0509,12.9252,-0.00287218,-0.0018857,-0.0178094,0.0154373,-0.0201952,-0.799242,0.0206335,0.0312569,1308,1786,4.05088,-12.9251
91,-762,4.13879,12.92,-0.00561105,-0.00393976,-0.0162744,0.0115204,-0.0210712,-0.811049,0.0190842,0.0389027,1315,1786,4.13882,-12.92
98,-762,4.12476,12.9905,-0.00746797,-0.00642522,-0.0145235,0.00758622,-0.0214794,-0.80334,0.0174083,0.0419795,1322,1786,4.12472,-12.9904
105,-762,4.03088,13.0569,-0.00930653,-0.00948349,-0.012403,0.00300829,-0.0217983,-0.781831,0.0156318,0.0390503,1329,1786,4.03092,-13.0569
112,-762,3.88306,13.0398,-0.0110359,-0.0114155,-0.00995358,-0.00127031,-0.0211811,-0.775864,0.0137169,0.0393944,1336,1786,3.88302,-13.0397
119,-762,3.71216,12.9738,-0.0121895,-0.0122008,-0.00748592,-0.00470924,-0.0196811,-0.78502,0.0118667,0.040636,1343,1786,3.71216,-12.9738
126,-762,3.75256,13.0691,-0.0123217,-0.0119347,-0.00559574,-0.00652913,-0.0177273,-0.802684,0.0103525,0.0430636,1350,1786,3.75256,-13.0691
133,-762,3.64063,12.9735,-0.0120625,-0.0114549,-0.0036612,-0.00808491,-0.0154325,-0.826791,0.00891333,0.0460199,1357,1786,3.64068,-12.9735
140,-762,3.88818,12.8086,-0.0117839,-0.0105884,-0.00208644,-0.00901578,-0.0133566,-0.924913,0.00786729,0.0486092,1364,1786,3.88821,-12.8086
147,-762,4.30933,12.7031,-0.0104236,-0.00941891,-0.00168524,-0.00816274,-0.0116798,-0.930249,0.00691885,0.0464727,1371,1786,4.30936,-12.7031
154,-762,4.56592,12.6438,0,0,0,0,0,0,0,-1,1378,1786,4.56592,-12.6438
161,-762,7.93408,-0.126221,0,0,0,0,0,0,0,-1,1385,1786,7.93402,0.126232
168,-762,8.19287,0.880615,0,0,0,0,0,0,0,-1,1392,1786,8.19291,-0.880603
175,-762,8.33997,1.95947,0,0,0,0,0,0,0,-1,1399,1786,8.33997,-1.95942
182,-762,8.28418,3.56482,0,0,0,0,0,0,0,-1,1406,1786,8.28415,-3.56485
189,-762,8.21179,5.23389,0,0,0,0,0,0,0,-1,1413,1786,8.21183,-5.23383
196,-762,8.05969,6.95483,0,0,0,0,0,0,0,-1,1420,1786,8.05972,-6.9548
203,-762,6.1261,3.35522,0,0,0,0,0,0,0,-1,1427,1786,6.12607,-3.35529
210,-762,3.74841,6.60901,0,0,0,0,0,0,0,-1,1434,1786,3.74835,-6.609
217,-762,1.37061,9.86267,0,0,0,0,0,0,0,-1,1441,1786,1.37064,-9.86271
224,-762,3.13306,13.1436,0,0,0,0,0,0,0,-1,1448,1786,3.1331,-13.1435
231,-762,5.34241,11.6335,0,0,0,0,0,0,0,-1,1455,1786,5.34245,-11.6335
238,-762,14.4207,7.9989,0,0,0,0,0,0,0,-1,1462,1786,14.4207,-7.99893
245,-762,14.3199,8.01099,-0.0266626,-0.000261256,0.00536128,0.000785916,-0.0277098,1.3779,0.0187406,0.0450139,1469,1786,14.3199,-8.01103
252,-762,14.2721,7.83008,-0.0406427,-0.00590596,0.00486911,-0.00523635,-0.0413123,1.43413,0.0259727,0.0408446,1476,1786,14.2722,-7.83009
259,-762,14.2466,7.72559,-0.0574162,-0.0121436,0.00435645,-0.0117282,-0.0578316,1.47573,0.0353005,0.043156,1483,1786,14.2466,-7.72563
266,-762,14.0593,7.7666,0,0,0,0,0,0,0,-1,1490,1786,14.0593,-7.76659
273,-762,13.5664,7.50964,0,0,0,0,0,0,0,-1,1497,1786,13.5664,-7.50959
280,-762,12.9194,7.54028,-0.123731,-0.0335266,0.00324903,-0.0334098,-0.123848,1.53484,0.0739873,0.0436854,1504,1786,12.9194,-7.54034
287,-762,11.2643,7.0968,-0.148836,-0.0406565,0.00322847,-0.0405603,-0.148932,1.54099,0.0889076,0.0437934,1511,1786,11.2643,-7.09675
294,-762,9.81226,6.87488,-0.173877,-0.0484455,0.00334046,-0.0483566,-0.173966,1.54419,0.103688,0.0445992,1518,1786,9.81229,-6.87487
301,-762,8.52734,6.77954,0,0,0,0,0,0,0,-1,1525,1786,8.5273,-6.77957
308,-762,0,0,0,0,0,0,0,0,0,-1,1532,1786,0,0
315,-762,0,0,0,0,0,0,0,0,0,-1,1539,1786,0,0
322,-762,0,0,0,0,0,0,0,0,0,-1,1546,1786,0,0
329,-762,0,0,0,0,0,0,0,0,0,-1,1553,1786,0,0
336,-762,0,0,0,0,0,0,0,0,0,-1,1560,1786,0,0
343,-762,0,0,0,0,0,0,0,0,0,-1,1567,1786,0,0
350,-762,0,0,0,0,0,0,0,0,0,-1,1574,1786,0,0
357,-762,0,0,0,0,0,0,0,0,0,-1,1581,1786,0,0
364,-762,0,0,0,0,0,0,0,0,0,-1,1588,1786,0,0
371,-762,0,0,0,0,0,0,0,0,0,-1,1595,1786,0,0
378,-762,0,0,0,0,0,0,0,0,0,-1,1602,1786,0,0
385,-762,0,0,0,0,0,0,0,0,0,-1,1609,1786,0,0
392,-762,0,0,0,0,0,0,0,0,0,-1,1616,1786,0,0
399,-762,0,0,0,0,0,0,0,0,0,-1,1623,1786,0,0
406,-762,0,0,0,0,0,0,0,0,0,-1,1630,1786,0,0
413,-762,0,0,0,0,0,0,0,0,0,-1,1637,1786,0,0
420,-762,0,0,0,0,0,0,0,0,0,-1,1644,1786,0,0
427,-762,0,0,0,0,0,0,0,0,0,-1,1651,1786,0,0
434,-762,0,0,0,0,0,0,0,0,0,-1,1658,1786,0,0
441,-762,0,0,0,0,0,0,0,0,0,-1,1665,1786,0,0
448,-762,0,0,0,0,0,0,0,0,0,-1,1672,1786,0,0
455,-762,0,0,0,0,0,0,0,0,0,-1,1679,1786,0,0
462,-762,0,0,0,0,0,0,0,0,0,-1,1686,1786,0,0
469,-762,0,0,0,0,0,0,0,0,0,-1,1693,1786,0,0
476,-762,0,0,0,0,0,0,0,0,0,-1,1700,1786,0,0
483,-762,0,0,0,0,0,0,0,0,0,-1,1707,1786,0,0
490,-762,0,0,0,0,0,0,0,0,0,-1,1714,1786,0,0
497,-762,0,0,0,0,0,0,0,0,0,-1,1721,1786,0,0
504,-762,0,0,0,0,0,0,0,0,0,-1,1728,1786,0,0
511,-762,0,0,0,0,0,0,0,0,0,-1,1735,1786,0,0
518,-762,0,0,0,0,0,0,0,0,0,-1,1742,1786,0,0
525,-762,0,0,0,0,0,0,0,0,0,-1,1749,1786,0,0
532,-762,0,0,0,0,0,0,0,0,0,-1,1756,1786,0,0
539,-762,0,0,0,0,0,0,0,0,0,-1,1763,1786,0,0
546,-762,0,0,0,0,0,0,0,0,0,-1,1770,1786,0,0
553,-762,0,0,0,0,0,0,0,0,0,-1,1777,1786,0,0
560,-762,0,0,0,0,0,0,0,0,0,-1,1784,1786,0,0
567,-762,0,0,0,0,0,0,0,0,0,-1,1791,1786,0,0
574,-762,0,0,0,0,0,0,0,0,0,-1,1798,1786,0,0
581,-762,0,0,0,0,0,0,0,0,0,-1,1805,1786,0,0
588,-762,0,0,0,0,0,0,0,0,0,-1,1812,1786,0,0
595,-762,0,0,0,0,0,0,0,0,0,-1,1819,1786,0,0
602,-762,0,0,0,0,0,0,0,0,0,-1,1826,1786,0,0
609,-762,0,0,0,0,0,0,0,0,0,-1,1833,1786,0,0
616,-762,0,0,0,0,0,0,0,0,0,-1,1840,1786,0,0
623,-762,0,0,0,0,0,0,0,0,0,-1,1847,1786,0,0
630,-762,0,0,0,0,0,0,0,0,0,-1,1854,1786,0,0
637,-762,0,0,0,0,0,0,0,0,0,-1,1861,1786,0,0
644,-762,0,0,0,0,0,0,0,0,0,-1,1868,1786,0,0
651,-762,0,0,0,0,0,0,0,0,0,-1,1875,1786,0,0
658,-762,0,0,0,0,0,0,0,0,0,-1,1882,1786,0,0
665,-762,0,0,0,0,0,0,0,0,0,-1,1889,1786,0,0
672,-762,0,0,0,0,0,0,0,0,0,-1,1896,1786,0,0
679,-762,0,0,0,0,0,0,0,0,0,-1,1903,1786,0,0
686,-762,0,0,0,0,0,0,0,0,0,-1,1910,1786,0,0
693,-762,0,0,0,0,0,0,0,0,0,-1,1917,1786,0,0
700,-762,0,0,0,0,0,0,0,0,0,-1,1924,1786,0,0
707,-762,0,0,0,0,0,0,0,0,0,-1,1931,1786,0,0
714,-762,0,0,0,0,0,0,0,0,0,-1,1938,1786,0,0
721,-762,0,0,0,0,0,0,0,0,0,-1,1945,1786,0,0
728,-762,0,0,0,0,0,0,0,0,0,-1,1952,1786,0,0
735,-762,0,0,0,0,0,0,0,0,0,-1,1959,1786,0,0
742,-762,0,0,0,0,0,0,0,0,0,-1,1966,1786,0,0
749,-762,0,0,0,0,0,0,0,0,0,-1,1973,1786,0,0
756,-762,0,0,0,0,0,0,0,0,0,-1,1980,1786,0,0
763,-762,0,0,0,0,0,0,0,0,0,-1,1987,1786,0,0
770,-762,0,0,0,0,0,0,0,0,0,-1,1994,1786,0,0
777,-762,0,0,0,0,0,0,0,0,0,-1,2001,1786,0,0
784,-762,0,0,0,0,0,0,0,0,0,-1,2008,1786,0,0
791,-762,0,0,0,0,0,0,0,0,0,-1,2015,1786,0,0
798,-762,0,0,0,0,0,0,0,0,0,-1,2022,1786,0,0
805,-762,0,0,0,0,0,0,0,0,0,-1,2029,1786,0,0
812,-762,0,0,0,0,0,0,0,0,0,-1,2036,1786,0,0
-700,-769,0,0,0,0,0,0,0,0,0,-1,524,1793,0,0
-693,-769,0,0,0,0,0,0,0,0,0,-1,531,1793,0,0
-686,-769,0,0,0,0,0,0,0,0,0,-1,538,1793,0,0
-679,-769,0,0,0,0,0,0,0,0,0,-1,545,1793,0,0
-672,-769,0,0,0,0,0,0,0,0,0,-1,552,1793,0,0
-665,-769,0,0,0,0,0,0,0,0,0,-1,559,1793,0,0
-658,-769,0,0,0,0,0,0,0,0,0,-1,566,1793,0,0
-651,-769,0,0,0,0,0,0,0,0,0,-1,573,1793,0,0
-644,-769,0,0,0,0,0,0,0,0,0,-1,580,1793,0,0
-637,-769,0,0,0,0,0,0,0,0,0,-1,587,1793,0,0
-630,-769,0,0,0,0,0,0,0,0,0,-1,594,1793,0,0
-623,-769,0,0,0,0,0,0,0,0,0,-1,601,1793,0,0
-616,-769,0,0,0,0,0,0,0,0,0,-1,608,1793,0,0
-609,-769,0,0,0,0,0,0,0,0,0,-1,615,1793,0,0
-602,-769,0,0,0,0,0,0,0,0,0,-1,622,1793,0,0
-595,-769,0,0,0,0,0,0,0,0,0,-1,629,1793,0,0
-588,-769,0,0,0,0,0,0,0,0,0,-1,636,1793,0,0
-581,-769,0,0,0,0,0,0,0,0,0,-1,643,1793,0,0
-574,-769,0,0,0,0,0,0,0,0,0,-1,650,1793,0,0
-567,-769,0,0,0,0,0,0,0,0,0,-1,657,1793,0,0
-560,-769,0,0,0,0,0,0,0,0,0,-1,664,1793,0,0
-553,-769,0,0,0,0,0,0,0,0,0,-1,671,1793,0,0
-546,-769,0,0,0,0,0,0,0,0,0,-1,678,1793,0,0
-539,-769,0,0,0,0,0,0,0,0,0,-1,685,1793,0,0
-532,-769,0,0,0,0,0,0,0,0,0,-1,692,1793,0,0
-525,-769,0,0,0,0,0,0,0,0,0,-1,699,1793,0,0
-518,-769,0,0,0,0,0,0,0,0,0,-1,706,1793,0,0
-511,-769,0,0,0,0,0,0,0,0,0,-1,713,1793,0,0
-504,-769,0,0,0,0,0,0,0,0,0,-1,720,1793,0,0
-497,-769,0,0,0,0,0,0,0,0,0,-1,727,1793,0,0
-490,-769,0,0,0,0,0,0,0,0,0,-1,734,1793,0,0
-483,-769,0,0,0,0,0,0,0,0,0,-1,741,1793,0,0
-476,-769,0,0,0,0,0,0,0,0,0,-1,748,1793,0,0
-469,-769,0,0,0,0,0,0,0,0,0,-1,755,1793,0,0
-462,-769,0,0,0,0,0,0,0,0,0,-1,762,1793,0,0
-455,-769,0,0,0,0,0,0,0,0,0,-1,769,1793,0,0
-448,-769,0,0,0,0,0,0,0,0,0,-1,776,1793,0,0
-441,-769,0,0,0,0,0,0,0,0,0,-1,783,1793,0,0
-434,-769,0,0,0,0,0,0,0,0,0,-1,790,1793,0,0
-427,-769,0,0,0,0,0,0,0,0,0,-1,797,1793,0,0
-420,-769,0,0,0,0,0,0,0,0,0,-1,804,1793,0,0
-413,-769,0,0,0,0,0,0,0,0,0,-1,811,1793,0,0
-406,-769,0,0,0,0,0,0,0,0,0,-1,818,1793,0,0
-399,-769,0,0,0,0,0,0,0,0,0,-1,825,1793,0,0
-392,-769,0,0,0,0,0,0,0,0,0,-1,832,1793,0,0
-385,-769,0,0,0,0,0,0,0,0,0,-1,839,1793,0,0
-378,-769,0,0,0,0,0,0,0,0,0,-1,846,1793,0,0
-371,-769,0,0,0,0,0,0,0,0,0,-1,853,1793,0,0
-364,-769,0,0,0,0,0,0,0,0,0,-1,860,1793,0,0
-357,-769,0,0,0,0,0,0,0,0,0,-1,867,1793,0,0
-350,-769,0,0,0,0,0,0,0,0,0,-1,874,1793,0,0
-343,-769,0,0,0,0,0,0,0,0,0,-1,881,1793,0,0
-336,-769,0,0,0,0,0,0,0,0,0,-1,888,1793,0,0
-329,-769,0,0,0,0,0,0,0,0,0,-1,895,1793,0,0
-322,-769,0,0,0,0,0,0,0,0,0,-1,902,1793,0,0
-315,-769,0,0,0,0,0,0,0,0,0,-1,909,1793,0,0
-308,-769,0,0,0,0,0,0,0,0,0,-1,916,1793,0,0
-301,-769,0,0,0,0,0,0,0,0,0,-1,923,1793,0,0
-294,-769,0,0,0,0,0,0,0,0,0,-1,930,1793,0,0
-287,-769,0,0,0,0,0,0,0,0,0,-1,937,1793,0,0
-280,-769,0,0,0,0,0,0,0,0,0,-1,944,1793,0,0
-273,-769,0,0,0,0,0,0,0,0,0,-1,951,1793,0,0
-266,-769,0,0,0,0,0,0,0,0,0,-1,958,1793,0,0
-259,-769,0,0,0,0,0,0,0,0,0,-1,965,1793,0,0
-252,-769,0,0,0,0,0,0,0,0,0,-1,972,1793,0,0
-245,-769,0,0,0,0,0,0,0,0,0,-1,979,1793,0,0
-238,-769,0,0,0,0,0,0,0,0,0,-1,986,1793,0,0
-231,-769,0,0,0,0,0,0,0,0,0,-1,993,1793,0,0
-224,-769,0,0,0,0,0,0,0,0,0,-1,1000,1793,0,0
-217,-769,0,0,0,0,0,0,0,0,0,-1,1007,1793,0,0
-210,-769,0,0,0,0,0,0,0,0,0,-1,1014,1793,0,0
-203,-769,0,0,0,0,0,0,0,0,0,-1,1021,1793,0,0
-196,-769,0,0,0,0,0,0,0,0,0,-1,1028,1793,0,0
-189,-769,0,0,0,0,0,0,0,0,0,-1,1035,1793,0,0
-182,-769,0,0,0,0,0,0,0,0,0,-1,1042,1793,0,0
-175,-769,0,0,0,0,0,0,0,0,0,-1,1049,1793,0,0
-168,-769,0,0,0,0,0,0,0,0,0,-1,1056,1793,0,0
-161,-769,-3.39258,12.5125,0,0,0,0,0,0,0,-1,1063,1793,-3.39257,-12.5125
-154,-769,-0.813232,5.32874,0,0,0,0,0,0,0,-1,1070,1793,-0.813269,-5.32872
-147,-769,4.26587,4.7002,0,0,0,0,0,0,0,-1,1077,1793,4.26593,-4.70022
-140,-769,4.10376,5.28589,0,0,0,0,0,0,0,-1,1084,1793,4.10371,-5.28584
-133,-769,6.422,8.21777,0,0,0,0,0,0,0,-1,1091,1793,6.42198,-8.21773
-126,-769,5.81738,11.5902,0,0,0,0,0,0,0,-1,1098,1793,5.81743,-11.5903
-119,-769,5.33301,11.7186,0.0131121,-0.0303066,0.0294911,0.0280227,-0.0452172,0.468114,0.0426718,0.047629,1105,1793,5.33298,-11.7187
-112,-769,4.97327,12.0045,0,0,0,0,0,0,0,-1,1112,1793,4.97326,-12.0045
-105,-769,4.49243,12.3553,0,0,0,0,0,0,0,-1,1119,1793,4.49238,-12.3554
-98,-769,3.81458,12.3632,0,0,0,0,0,0,0,-1,1126,1793,3.81461,-12.3632
-91,-769,3.12756,12.333,0,0,0,0,0,0,0,-1,1133,1793,3.12753,-12.3331
-84,-769,0.499512,11.1804,0,0,0,0,0,0,0,-1,1140,1793,0.49948,-11.1805
-77,-769,0.665771,9.61877,0,0,0,0,0,0,0,-1,1147,1793,0.665754,-9.61882
-70,-769,0.99707,7.63843,0,0,0,0,0,0,0,-1,1154,1793,0.997071,-7.63837
-63,-769,-0.0517578,6.57178,0,0,0,0,0,0,0,-1,1161,1793,-0.0517467,-6.5718
-56,-769,-1.22949,5.21887,0,0,0,0,0,0,0,-1,1168,1793,-1.22948,-5.21891
-49,-769,-2.41443,3.95471,0,0,0,0,0,0,0,-1,1175,1793,-2.41446,-3.95471
-42,-769,-3.1991,2.64941,0,0,0,0,0,0,0,-1,1182,1793,-3.19914,-2.64944
-35,-769,-3.50183,1.73389,0,0,0,0,0,0,0,-1,1189,1793,-3.50189,-1.7339
-28,-769,-3.96985,1.14075,0,0,0,0,0,0,0,-1,1196,1793,-3.96985,-1.14078
-21,-769,3.54541,10.4323,0,0,0,0,0,0,0,-1,1203,1793,3.54539,-10.4322
-14,-769,3.6991,12.6167,0,0,0,0,0,0,0,-1,1210,1793,3.69909,-12.6168
-7,-769,4.54578,12.8878,0,0,0,0,0,0,0,-1,1217,1793,4.5458,-12.8879
0,-769,4.55457,12.8981,0.00334822,-0.0252274,0.00110528,0.00339091,-0.02527,0.0386023,0.0180833,0.0484283,1224,1793,4.55455,-12.8981
7,-769,4.56311,12.9121,0.00254278,-0.0254441,-0.000465413,0.00255051,-0.0254518,-0.0166236,0.0178788,0.0446959,1231,1793,4.56309,-12.9122
14,-769,4.4281,12.934,0.00215582,-0.0239095,-0.00205245,0.00231645,-0.0240701,-0.0781013,0.016872,0.0440886,1238,1793,4.42806,-12.934
21,-769,4.42798,13.0217,0.00198286,-0.0211793,-0.0035119,0.00250364,-0.0217001,-0.147215,0.0153694,0.0475976,1245,1793,4.42801,-13.0217
28,-769,3.6731,12.9875,0,0,0,0,0,0,0,-1,1252,1793,3.67305,-12.9875
35,-769,3.92883,13.1606,0.00346132,-0.0132804,-0.00980331,0.00798139,-0.0178005,-0.432026,0.0152408,0.0471859,1259,1793,3.92883,-13.1607
42,-769,4.14404,13.0502,0.00437194,-0.00968442,-0.0137301,0.0127682,-0.0180806,-0.548845,0.0178984,0.0441515,1266,1793,4.14407,-13.0502
49,-769,4.18774,13.028,0.00411434,-0.00583071,-0.017287,0.0171298,-0.0188461,-0.645356,0.0207786,0.0425054,1273,1793,4.18779,-13.028
56,-769,4.19141,12.9131,0.00358603,-0.00288584,-0.0204029,0.021008,-0.0203078,-0.706752,0.0238548,0.04435,1280,1793,4.19138,-12.9131
63,-769,4.35242,12.8214,0.00258808,-0.00188072,-0.0225783,0.0230422,-0.0223349,-0.736077,0.0261995,0.0410757,1287,1793,4.35243,-12.8214
70,-769,4.25244,12.8901,0.000977691,-0.00150236,-0.0233171,0.0230877,-0.0236124,-0.758833,0.0269629,0.0421661,1294,1793,4.25245,-12.8901
77,-769,3.18787,13.3824,0,0,0,0,0,0,0,-1,1301,1793,3.18788,-13.3825
84,-769,4.11194,13.2505,-0.00329583,-0.00250709,-0.0248285,0.0219302,-0.0277331,-0.793339,0.0287383,0.047904,1308,1793,4.1119,-13.2504
91,-769,4.9071,13.0441,-0.0071208,-0.0054086,-0.0227734,0.0165248,-0.0290542,-0.804185,0.0266444,0.0453557,1315,1793,4.90715,-13.0441
98,-769,4.50854,12.9846,-0.00985985,-0.00892636,-0.020367,0.0109792,-0.0297654,-0.796854,0.0243432,0.0470886,1322,1793,4.5086,-12.9846
105,-769,4.03162,13.1442,0,0,0,0,0,0,0,-1,1329,1793,4.03161,-13.1441
112,-769,3.38843,13.1832,0,0,0,0,0,0,0,-1,1336,1793,3.38846,-13.1832
119,-769,3.43298,13.0313,-0.0172364,-0.0167673,-0.0107677,-0.00623159,-0.0277721,-0.796287,0.0168267,0.044088,1343,1793,3.43299,-13.0313
126,-769,3.49597,12.8759,-0.0179551,-0.0166342,-0.00805456,-0.00921309,-0.0253763,-0.826305,0.014833,0.0482701,1350,1793,3.49601,-12.8758
133,-769,3.604,12.724,0,0,0,0,0,0,0,-1,1357,1793,3.60401,-12.724
140,-769,3.88123,12.7789,0,0,0,0,0,0,0,-1,1364,1793,3.88128,-12.7789
147,-769,4.43848,12.5234,0,0,0,0,0,0,0,-1,1371,1793,4.43851,-12.5234
154,-769,6.37561,1.00024,0,0,0,0,0,0,0,-1,1378,1793,6.37566,-1.00028
161,-769,6.57019,1.53223,0,0,0,0,0,0,0,-1,1385,1793,6.57019,-1.53226
168,-769,8.27637,0.756958,0,0,0,0,0,0,0,-1,1392,1793,8.27639,-0.756944
175,-769,8.47144,2.41174,0,0,0,0,0,0,0,-1,1399,1793,8.47147,-2.4118
182,-769,8.41479,4.05994,0,0,0,0,0,0,0,-1,1406,1793,8.41479,-4.05997
189,-769,8.25049,5.68433,0,0,0,0,0,0,0,-1,1413,1793,8.25054,-5.68428
196,-769,7.97729,7.42847,0,0,0,0,0,0,0,-1,1420,1793,7.9773,-7.42848
203,-769,6.67419,5.07715,0,0,0,0,0,0,0,-1,1427,1793,6.67423,-5.07717
210,-769,4.46021,8.59021,0,0,0,0,0,0,0,-1,1434,1793,4.46023,-8.59018
217,-769,2.24622,12.1031,0,0,0,0,0,0,0,-1,1441,1793,2.24623,-12.1032
224,-769,3.1051,13.2957,0,0,0,0,0,0,0,-1,1448,1793,3.10508,-13.2957
231,-769,14.5472,7.77954,0,0,0,0,0,0,0,-1,1455,1793,14.5473,-7.7795
238,-769,14.3885,7.7948,-0.0126949,0.0084547,0.00892531,0.0117178,-0.015958,1.22029,0.016041,0.0485552,1462,1793,14.3886,-7.79483
245,-769,14.2802,7.80811,-0.0247777,0.00252694,0.00801549,0.00470604,-0.0269568,1.30535,0.0197279,0.0471103,1469,1793,14.2801,-7.80812
252,-769,14.0621,8.04382,-0.0410436,-0.00457574,0.00727575,-0.00317774,-0.0424416,1.38096,0.0272969,0.0407619,1476,1793,14.0621,-8.04379
259,-769,14.1978,7.74963,-0.0609091,-0.0125054,0.00657431,-0.0116283,-0.0617862,1.43817,0.0379138,0.0421181,1483,1793,14.1978,-7.74958
266,-769,14.0602,7.95435,0,0,0,0,0,0,0,-1,1490,1793,14.0602,-7.9543
273,-769,13.2054,8.23303,0,0,0,0,0,0,0,-1,1497,1793,13.2055,-8.23302
280,-769,12.5576,8.24451,0,0,0,0,0,0,0,-1,1504,1793,12.5576,-8.24453
287,-769,0,0,0,0,0,0,0,0,0,-1,1511,1793,0,0
294,-769,0,0,0,0,0,0,0,0,0,-1,1518,1793,0,0
301,-769,0,0,0,0,0,0,0,0,0,-1,1525,1793,0,0
308,-769,0,0,0,0,0,0,0,0,0,-1,1532,1793,0,0
315,-769,0,0,0,0,0,0,0,0,0,-1,1539,1793,0,0
322,-769,0,0,0,0,0,0,0,0,0,-1,1546,1793,0,0
329,-769,0,0,0,0,0,0,0,0,0,-1,1553,1793,0,0
336,-769,0,0,0,0,0,0,0,0,0,-1,1560,1793,0,0
343,-769,0,0,0,0,0,0,0,0,0,-1,1567,1793,0,0
350,-769,0,0,0,0,0,0,0,0,0,-1,1574,1793,0,0
357,-769,0,0,0,0,0,0,0,0,0,-1,1581,1793,0,0
364,-769,0,0,0,0,0,0,0,0,0,-1,1588,1793,0,0
371,-769,0,0,0,0,0,0,0,0,0,-1,1595,1793,0,0
378,-769,0,0,0,0,0,0,0,0,0,-1,1602,1793,0,0
385,-769,0,0,0,0,0,0,0,0,0,-1,1609,1793,0,0
392,-769,0,0,0,0,0,0,0,0,0,-1,1616,1793,0,0
399,-769,0,0,0,0,0,0,0,0,0,-1,1623,1793,0,0
406,-769,0,0,0,0,0,0,0,0,0,-1,1630,1793,0,0
413,-769,0,0,0,0,0,0,0,0,0,-1,1637,1793,0,0
420,-769,0,0,0,0,0,0,0,0,0,-1,1644,1793,0,0
427,-769,0,0,0,0,0,0,0,0,0,-1,1651,1793,0,0
434,-769,0,0,0,0,0,0,0,0,0,-1,1658,1793,0,0
441,-769,0,0,0,0,0,0,0,0,0,-1,1665,1793,0,0
448,-769,0,0,0,0,0,0,0,0,0,-1,1672,1793,0,0
455,-769,0,0,0,0,0,0,0,0,0,-1,1679,1793,0,0
462,-769,0,0,0,0,0,0,0,0,0,-1,1686,1793,0,0
469,-769,0,0,0,0,0,0,0,0,0,-1,1693,1793,0,0
476,-769,0,0,0,0,0,0,0,0,0,-1,1700,1793,0,0
483,-769,0,0,0,0,0,0,0,0,0,-1,1707,1793,0,0
490,-769,0,0,0,0,0,0,0,0,0,-1,1714,1793,0,0
497,-769,0,0,0,0,0,0,0,0,0,-1,1721,1793,0,0
504,-769,0,0,0,0,0,0,0,0,0,-1,1728,1793,0,0
511,-769,0,0,0,0,0,0,0,0,0,-1,1735,1793,0,0
518,-769,0,0,0,0,0,0,0,0,0,-1,1742,1793,0,0
525,-769,0,0,0,0,0,0,0,0,0,-1,1749,1793,0,0
532,-769,0,0,0,0,0,0,0,0,0,-1,1756,1793,0,0
539,-769,0,0,0,0,0,0,0,0,0,-1,1763,1793,0,0
546,-769,0,0,0,0,0,0,0,0,0,-1,1770,1793,0,0
553,-769,0,0,0,0,0,0,0,0,0,-1,1777,1793,0,0
560,-769,0,0,0,0,0,0,0,0,0,-1,1784,1793,0,0
567,-769,0,0,0,0,0,0,0,0,0,-1,1791,1793,0,0
574,-769,0,0,0,0,0,0,0,0,0,-1,1798,1793,0,0
581,-769,0,0,0,0,0,0,0,0,0,-1,1805,1793,0,0
588,-769,0,0,0,0,0,0,0,0,0,-1,1812,1793,0,0
595,-769,0,0,0,0,0,0,0,0,0,-1,1819,1793,0,0
602,-769,0,0,0,0,0,0,0,0,0,-1,1826,1793,0,0
609,-769,0,0,0,0,0,0,0,0,0,-1,1833,1793,0,0
616,-769,0,0,0,0,0,0,0,0,0,-1,1840,1793,0,0
623,-769,0,0,0,0,0,0,0,0,0,-1,1847,1793,0,0
630,-769,0,0,0,0,0,0,0,0,0,-1,1854,1793,0,0
637,-769,0,0,0,0,0,0,0,0,0,-1,1861,1793,0,0
644,-769,0,0,0,0,0,0,0,0,0,-1,1868,1793,0,0
651,-769,0,0,0,0,0,0,0,0,0,-1,1875,1793,0,0
658,-769,0,0,0,0,0,0,0,0,0,-1,1882,1793,0,0
665,-769,0,0,0,0,0,0,0,0,0,-1,1889,1793,0,0
672,-769,0,0,0,0,0,0,0,0,0,-1,1896,1793,0,0
679,-769,0,0,0,0,0,0,0,0,0,-1,1903,1793,0,0
686,-769,0,0,0,0,0,0,0,0,0,-1,1910,1793,0,0
693,-769,0,0,0,0,0,0,0,0,0,-1,1917,1793,0,0
700,-769,0,0,0,0,0,0,0,0,0,-1,1924,1793,0,0
707,-769,0,0,0,0,0,0,0,0,0,-1,1931,1793,0,0
714,-769,0,0,0,0,0,0,0,0,0,-1,1938,1793,0,0
721,-769,0,0,0,0,0,0,0,0,0,-1,1945,1793,0,0
728,-769,0,0,0,0,0,0,0,0,0,-1,1952,1793,0,0
735,-769,0,0,0,0,0,0,0,0,0,-1,1959,1793,0,0
742,-769,0,0,0,0,0,0,0,0,0,-1,1966,1793,0,0
749,-769,0,0,0,0,0,0,0,0,0,-1,1973,1793,0,0
756,-769,0,0,0,0,0,0,0,0,0,-1,1980,1793,0,0
763,-769,0,0,0,0,0,0,0,0,0,-1,1987,1793,0,0
770,-769,0,0,0,0,0,0,0,0,0,-1,1994,1793,0,0
777,-769,0,0,0,0,0,0,0,0,0,-1,2001,1793,0,0
784,-769,0,0,0,0,0,0,0,0,0,-1,2008,1793,0,0
791,-769,0,0,0,0,0,0,0,0,0,-1,2015,1793,0,0
798,-769,0,0,0,0,0,0,0,0,0,-1,2022,1793,0,0
805,-769,0,0,0,0,0,0,0,0,0,-1,2029,1793,0,0
812,-769,0,0,0,0,0,0,0,0,0,-1,2036,1793,0,0
-700,-776,0,0,0,0,0,0,0,0,0,-1,524,1800,0,0
-693,-776,0,0,0,0,0,0,0,0,0,-1,531,1800,0,0
-686,-776,0,0,0,0,0,0,0,0,0,-1,538,1800,0,0
-679,-776,0,0,0,0,0,0,0,0,0,-1,545,1800,0,0
-672,-776,0,0,0,0,0,0,0,0,0,-1,552,1800,0,0
-665,-776,0,0,0,0,0,0,0,0,0,-1,559,1800,0,0
-658,-776,0,0,0,0,0,0,0,0,0,-1,566,1800,0,0
-651,-776,0,0,0,0,0,0,0,0,0,-1,573,1800,0,0
-644,-776,0,0,0,0,0,0,0,0,0,-1,580,1800,0,0
-637,-776,0,0,0,0,0,0,0,0,0,-1,587,1800,0,0
-630,-776,0,0,0,0,0,0,0,0,0,-1,594,1800,0,0
-623,-776,0,0,0,0,0,0,0,0,0,-1,601,1800,0,0
-616,-776,0,0,0,0,0,0,0,0,0,-1,608,1800,0,0
-609,-776,0,0,0,0,0,0,0,0,0,-1,615,1800,0,0
-602,-776,0,0,0,0,0,0,0,0,0,-1,622,1800,0,0
-595,-776,0,0,0,0,0,0,0,0,0,-1,629,1800,0,0
-588,-776,0,0,0,0,0,0,0,0,0,-1,636,1800,0,0
-581,-776,0,0,0,0,0,0,0,0,0,-1,643,1800,0,0
-574,-776,0,0,0,0,0,0,0,0,0,-1,650,1800,0,0
-567,-776,0,0,0,0,0,0,0,0,0,-1,657,1800,0,0
-560,-776,0,0,0,0,0,0,0,0,0,-1,664,1800,0,0
-553,-776,0,0,0,0,0,0,0,0,0,-1,671,1800,0,0
-546,-776,0,0,0,0,0,0,0,0,0,-1,678,1800,0,0
-539,-776,0,0,0,0,0,0,0,0,0,-1,685,1800,0,0
-532,-776,0,0,0,0,0,0,0,0,0,-1,692,1800,0,0
-525,-776,0,0,0,0,0,0,0,0,0,-1,699,1800,0,0
-518,-776,0,0,0,0,0,0,0,0,0,-1,706,1800,0,0
-511,-776,0,0,0,0,0,0,0,0,0,-1,713,1800,0,0
-504,-776,0,0,0,0,0,0,0,0,0,-1,720,1800,0,0
-497,-776,0,0,0,0,0,0,0,0,0,-1,727,1800,0,0
-490,-776,0,0,0,0,0,0,0,0,0,-1,734,1800,0,0
-483,-776,0,0,0,0,0,0,0,0,0,-1,741,1800,0,0
-476,-776,0,0,0,0,0,0,0,0,0,-1,748,1800,0,0
-469,-776,0,0,0,0,0,0,0,0,0,-1,755,1800,0,0
-462,-776,0,0,0,0,0,0,0,0,0,-1,762,1800,0,0
-455,-776,0,0,0,0,0,0,0,0,0,-1,769,1800,0,0
-448,-776,0,0,0,0,0,0,0,0,0,-1,776,1800,0,0
-441,-776,0,0,0,0,0,0,0,0,0,-1,783,1800,0,0
-434,-776,0,0,0,0,0,0,0,0,0,-1,790,1800,0,0
-427,-776,0,0,0,0,0,0,0,0,0,-1,797,1800,0,0
-420,-776,0,0,0,0,0,0,0,0,0,-1,804,1800,0,0
-413,-776,0,0,0,0,0,0,0,0,0,-1,811,1800,0,0
-406,-776,0,0,0,0,0,0,0,0,0,-1,818,1800,0,0
-399,-776,0,0,0,0,0,0,0,0,0,-1,825,1800,0,0
-392,-776,0,0,0,0,0,0,0,0,0,-1,832,1800,0,0
-385,-776,0,0,0,0,0,0,0,0,0,-1,839,1800,0,0
-378,-776,0,0,0,0,0,0,0,0,0,-1,846,1800,0,0
-371,-776,0,0,0,0,0,0,0,0,0,-1,853,1800,0,0
-364,-776,0,0,0,0,0,0,0,0,0,-1,860,1800,0,0
-357,-776,0,0,0,0,0,0,0,0,0,-1,867,1800,0,0
-350,-776,0,0,0,0,0,0,0,0,0,-1,874,1800,0,0
-343,-776,0,0,0,0,0,0,0,0,0,-1,881,1800,0,0
-336,-776,0,0,0,0,0,0,0,0,0,-1,888,1800,0,0
-329,-776,0,0,0,0,0,0,0,0,0,-1,895,1800,0,0
-322,-776,0,0,0,0,0,0,0,0,0,-1,902,1800,0,0
-315,-776,0,0,0,0,0,0,0,0,0,-1,909,1800,0,0
-308,-776,0,0,0,0,0,0,0,0,0,-1,916,1800,0,0
-301,-776,0,0,0,0,0,0,0,0,0,-1,923,1800,0,0
-294,-776,0,0,0,0,0,0,0,0,0,-1,930,1800,0,0
-287,-776,0,0,0,0,0,0,0,0,0,-1,937,1800,0,0
-280,-776,0,0,0,0,0,0,0,0,0,-1,944,1800,0,0
-273,-776,0,0,0,0,0,0,0,0,0,-1,951,1800,0,0
-266,-776,0,0,0,0,0,0,0,0,0,-1,958,1800,0,0
-259,-776,0,0,0,0,0,0,0,0,0,-1,965,1800,0,0
-252,-776,0,0,0,0,0,0,0,0,0,-1,972,1800,0,0
-245,-776,0,0,0,0,0,0,0,0,0,-1,979,1800,0,0
-238,-776,0,0,0,0,0,0,0,0,0,-1,986,1800,0,0
-231,-776,0,0,0,0,0,0,0,0,0,-1,993,1800,0,0
-224,-776,0,0,0,0,0,0,0,0,0,-1,1000,1800,0,0
-217,-776,0,0,0,0,0,0,0,0,0,-1,1007,1800,0,0
-210,-776,0,0,0,0,0,0,0,0,0,-1,1014,1800,0,0
-203,-776,0,0,0,0,0,0,0,0,0,-1,1021,1800,0,0
-196,-776,0,0,0,0,0,0,0,0,0,-1,1028,1800,0,0
-189,-776,0,0,0,0,0,0,0,0,0,-1,1035,1800,0,0
-182,-776,0,0,0,0,0,0,0,0,0,-1,1042,1800,0,0
-175,-776,0,0,0,0,0,0,0,0,0,-1,1049,1800,0,0
-168,-776,0,0,0,0,0,0,0,0,0,-1,1056,1800,0,0
-161,-776,0,0,0,0,0,0,0,0,0,-1,1063,1800,0,0
-154,-776,0,0,0,0,0,0,0,0,0,-1,1070,1800,0,0
-147,-776,0,0,0,0,0,0,0,0,0,-1,1077,1800,0,0
-140,-776,2.98499,5.20911,0,0,0,0,0,0,0,-1,1084,1800,2.98493,-5.2091
-133,-776,6.72363,9.35828,0,0,0,0,0,0,0,-1,1091,1800,6.72358,-9.35824
-126,-776,4.9613,13.2006,0,0,0,0,0,0,0,-1,1098,1800,4.96128,-13.2005
-119,-776,4.56226,13.1111,0,0,0,0,0,0,0,-1,1105,1800,4.56223,-13.111
-112,-776,4.21924,12.8807,0,0,0,0,0,0,0,-1,1112,1800,4.21927,-12.8807
-105,-776,4.21753,13.0876,0,0,0,0,0,0,0,-1,1119,1800,4.21753,-13.0877
-98,-776,3.59863,13.1719,0,0,0,0,0,0,0,-1,1126,1800,3.59867,-13.1718
-91,-776,0.946411,13.2373,0,0,0,0,0,0,0,-1,1133,1800,0.946353,-13.2373
-84,-776,0.643555,12.5964,0,0,0,0,0,0,0,-1,1140,1800,0.643591,-12.5964
-77,-776,0.5448,11.2938,0,0,0,0,0,0,0,-1,1147,1800,0.544827,-11.2939
-70,-776,-2.7771,5.02222,0,0,0,0,0,0,0,-1,1154,1800,-2.77711,-5.02221
-63,-776,-0.453613,6.84619,0,0,0,0,0,0,0,-1,1161,1800,-0.453608,-6.84617
-56,-776,-2.95715,5.41614,0,0,0,0,0,0,0,-1,1168,1800,-2.95718,-5.4161
-49,-776,-2.81018,4.39587,0,0,0,0,0,0,0,-1,1175,1800,-2.8102,-4.39592
-42,-776,-3.41272,3.0249,0,0,0,0,0,0,0,-1,1182,1800,-3.41269,-3.02488
-35,-776,-3.71753,1.63635,0,0,0,0,0,0,0,-1,1189,1800,-3.71755,-1.63631
-28,-776,-4.03979,0.716064,0,0,0,0,0,0,0,-1,1196,1800,-4.03977,-0.716055
-21,-776,3.37305,11.3751,0,0,0,0,0,0,0,-1,1203,1800,3.37306,-11.3751
-14,-776,3.96985,12.2084,0,0,0,0,0,0,0,-1,1210,1800,3.96985,-12.2084
-7,-776,4.86389,12.9835,0,0,0,0,0,0,0,-1,1217,1800,4.86384,-12.9835
0,-776,4.87158,13.0126,0.00409256,-0.0329745,0.0026783,0.00428508,-0.033167,0.0717588,0.0236693,0.0488181,1224,1800,4.87161,-13.0126
7,-776,4.97888,13.0472,0.00319106,-0.0340118,0.000438551,0.00319622,-0.034017,0.0117859,0.023815,0.0487025,1231,1800,4.97885,-13.0473
14,-776,5.33765,12.9508,0.00286879,-0.0322804,-0.00180378,0.00296111,-0.0323727,-0.0511389,0.0226335,0.0452104,1238,1800,5.33763,-12.9508
21,-776,4.59814,13.0479,0.00283515,-0.0287742,-0.00389654,0.0033084,-0.0292474,-0.120862,0.0206894,0.045835,1245,1800,4.59815,-13.0478
28,-776,4.5946,13.223,0.00314818,-0.0234926,-0.00769514,0.00521116,-0.0255556,-0.261929,0.0190137,0.0442924,1252,1800,4.59463,-13.223
35,-776,4.13098,13.5948,0.00489228,-0.0182625,-0.0129616,0.0106942,-0.0240644,-0.420874,0.0205568,0.044453,1259,1800,4.13098,-13.5949
42,-776,4.1947,13.1267,0,0,0,0,0,0,0,-1,1266,1800,4.19476,-13.1267
49,-776,4.54553,12.0981,0.00593136,-0.00853367,-0.0230438,0.0228509,-0.0254533,-0.633336,0.0279019,0.0433198,1273,1800,4.54554,-12.0981
56,-776,4.62537,12.3461,0.00530985,-0.00463749,-0.0273108,0.0280961,-0.0274238,-0.695328,0.0320552,0.0449006,1280,1800,4.6254,-12.3461
63,-776,4.57971,12.6885,0,0,0,0,0,0,0,-1,1287,1800,4.57977,-12.6884
70,-776,4.47852,12.7642,0,0,0,0,0,0,0,-1,1294,1800,4.47852,-12.7642
77,-776,5.44031,14.1182,0,0,0,0,0,0,0,-1,1301,1800,5.44036,-14.1182
84,-776,5.28992,13.5651,-0.00334317,-0.00318297,-0.0338365,0.0305735,-0.0370997,-0.786582,0.0391316,0.0476048,1308,1800,5.28996,-13.5651
91,-776,5.34692,13.103,-0.00850294,-0.00713072,-0.0311393,0.02333,-0.0389637,-0.796413,0.0363408,0.0444927,1315,1800,5.34696,-13.103
98,-776,4.86755,12.7689,-0.0123953,-0.011926,-0.0279064,0.0157468,-0.040068,-0.789602,0.0332288,0.0432011,1322,1800,4.86756,-12.769
105,-776,4.34412,12.5454,-0.0163194,-0.0171136,-0.0241283,0.00741507,-0.0408481,-0.77717,0.0300107,0.0442545,1329,1800,4.34412,-12.5455
112,-776,3.94458,12.4047,-0.0202402,-0.0204648,-0.0196384,-0.000713799,-0.0399912,-0.782538,0.0264261,0.0464202,1336,1800,3.94454,-12.4047
119,-776,3.22046,13.2297,-0.0234376,-0.0220817,-0.0150316,-0.00771282,-0.0378066,-0.807934,0.0230673,0.0443541,1343,1800,3.22046,-13.2298
126,-776,3.25049,13.0383,0,0,0,0,0,0,0,-1,1350,1800,3.25043,-13.0384
133,-776,5.18457,13.2172,0,0,0,0,0,0,0,-1,1357,1800,5.1846,-13.2171
140,-776,4.39331,10.0631,0,0,0,0,0,0,0,-1,1364,1800,4.39332,-10.0631
147,-776,6.46301,-0.617188,0,0,0,0,0,0,0,-1,1371,1800,6.46305,0.61724
154,-776,6.43774,0.344116,0,0,0,0,0,0,0,-1,1378,1800,6.43776,-0.344162
161,-776,6.50293,1.1731,0,0,0,0,0,0,0,-1,1385,1800,6.5029,-1.17313
168,-776,8.44971,1.22913,0,0,0,0,0,0,0,-1,1392,1800,8.44974,-1.22915
175,-776,8.61523,2.87061,0,0,0,0,0,0,0,-1,1399,1800,8.6152,-2.87063
182,-776,8.54065,4.60645,0,0,0,0,0,0,0,-1,1406,1800,8.5407,-4.60643
189,-776,8.35303,6.28223,0,0,0,0,0,0,0,-1,1413,1800,8.35297,-6.28225
196,-776,8.0387,8.21704,0,0,0,0,0,0,0,-1,1420,1800,8.03865,-8.217
203,-776,7.91736,9.79919,0,0,0,0,0,0,0,-1,1427,1800,7.91735,-9.79922
210,-776,5.03577,10.4949,0,0,0,0,0,0,0,-1,1434,1800,5.03574,-10.4948
217,-776,1.48315,8.46082,0,0,0,0,0,0,0,-1,1441,1800,1.48314,-8.46081
224,-776,3.09253,14.9313,0,0,0,0,0,0,0,-1,1448,1800,3.09254,-14.9313
231,-776,14.7521,7.10779,0,0,0,0,0,0,0,-1,1455,1800,14.7521,-7.10776
238,-776,14.3297,7.43896,-0.00601732,0.0145798,0.0134764,0.0212422,-0.0126797,1.11166,0.0197917,0.0495835,1462,1800,14.3298,-7.43896
245,-776,14.3101,7.75525,-0.0178548,0.0074534,0.0117165,0.0120446,-0.022446,1.19732,0.0202128,0.0470419,1469,1800,14.3101,-7.75528
252,-776,14.1051,8.22339,-0.0361684,-0.00131603,0.0105847,0.00164667,-0.0391311,1.29788,0.0266533,0.0470997,1476,1800,14.1052,-8.22336
259,-776,14.1882,7.69055,0,0,0,0,0,0,0,-1,1483,1800,14.1882,-7.69061
266,-776,0,0,0,0,0,0,0,0,0,-1,1490,1800,0,0
273,-776,0,0,0,0,0,0,0,0,0,-1,1497,1800,0,0
280,-776,0,0,0,0,0,0,0,0,0,-1,1504,1800,0,0
287,-776,0,0,0,0,0,0,0,0,0,-1,1511,1800,0,0
294,-776,0,0,0,0,0,0,0,0,0,-1,1518,1800,0,0
301,-776,0,0,0,0,0,0,0,0,0,-1,1525,1800,0,0
308,-776,0,0,0,0,0,0,0,0,0,-1,1532,1800,0,0
315,-776,0,0,0,0,0,0,0,0,0,-1,1539,1800,0,0
322,-776,0,0,0,0,0,0,0,0,0,-1,1546,1800,0,0
329,-776,0,0,0,0,0,0,0,0,0,-1,1553,1800,0,0
336,-776,0,0,0,0,0,0,0,0,0,-1,1560,1800,0,0
343,-776,0,0,0,0,0,0,0,0,0,-1,1567,1800,0,0
350,-776,0,0,0,0,0,0,0,0,0,-1,1574,1800,0,0
357,-776,0,0,0,0,0,0,0,0,0,-1,1581,1800,0,0
364,-776,0,0,0,0,0,0,0,0,0,-1,1588,1800,0,0
371,-776,0,0,0,0,0,0,0,0,0,-1,1595,1800,0,0
378,-776,0,0,0,0,0,0,0,0,0,-1,1602,1800,0,0
385,-776,0,0,0,0,0,0,0,0,0,-1,1609,1800,0,0
392,-776,0,0,0,0,0,0,0,0,0,-1,1616,1800,0,0
399,-776,0,0,0,0,0,0,0,0,0,-1,1623,1800,0,0
406,-776,0,0,0,0,0,0,0,0,0,-1,1630,1800,0,0
413,-776,0,0,0,0,0,0,0,0,0,-1,1637,1800,0,0
420,-776,0,0,0,0,0,0,0,0,0,-1,1644,1800,0,0
427,-776,0,0,0,0,0,0,0,0,0,-1,1651,1800,0,0
434,-776,0,0,0,0,0,0,0,0,0,-1,1658,1800,0,0
441,-776,0,0,0,0,0,0,0,0,0,-1,1665,1800,0,0
448,-776,0,0,0,0,0,0,0,0,0,-1,1672,1800,0,0
455,-776,0,0,0,0,0,0,0,0,0,-1,1679,1800,0,0
462,-776,0,0,0,0,0,0,0,0,0,-1,1686,1800,0,0
469,-776,0,0,0,0,0,0,0,0,0,-1,1693,1800,0,0
476,-776,0,0,0,0,0,0,0,0,0,-1,1700,1800,0,0
483,-776,0,0,0,0,0,0,0,0,0,-1,1707,1800,0,0
490,-776,0,0,0,0,0,0,0,0,0,-1,1714,1800,0,0
497,-776,0,0,0,0,0,0,0,0,0,-1,1721,1800,0,0
504,-776,0,0,0,0,0,0,0,0,0,-1,1728,1800,0,0
511,-776,0,0,0,0,0,0,0,0,0,-1,1735,1800,0,0
518,-776,0,0,0,0,0,0,0,0,0,-1,1742,1800,0,0
525,-776,0,0,0,0,0,0,0,0,0,-1,1749,1800,0,0
532,-776,0,0,0,0,0,0,0,0,0,-1,1756,1800,0,0
539,-776,0,0,0,0,0,0,0,0,0,-1,1763,1800,0,0
546,-776,0,0,0,0,0,0,0,0,0,-1,1770,1800,0,0
553,-776,0,0,0,0,0,0,0,0,0,-1,1777,1800,0,0
560,-776,0,0,0,0,0,0,0,0,0,-1,1784,1800,0,0
567,-776,0,0,0,0,0,0,0,0,0,-1,1791,1800,0,0
574,-776,0,0,0,0,0,0,0,0,0,-1,1798,1800,0,0
581,-776,0,0,0,0,0,0,0,0,0,-1,1805,1800,0,0
588,-776,0,0,0,0,0,0,0,0,0,-1,1812,1800,0,0
595,-776,0,0,0,0,0,0,0,0,0,-1,1819,1800,0,0
602,-776,0,0,0,0,0,0,0,0,0,-1,1826,1800,0,0
609,-776,0,0,0,0,0,0,0,0,0,-1,1833,1800,0,0
616,-776,0,0,0,0,0,0,0,0,0,-1,1840,1800,0,0
623,-776,0,0,0,0,0,0,0,0,0,-1,1847,1800,0,0
630,-776,0,0,0,0,0,0,0,0,0,-1,1854,1800,0,0
637,-776,0,0,0,0,0,0,0,0,0,-1,1861,1800,0,0
644,-776,0,0,0,0,0,0,0,0,0,-1,1868,1800,0,0
651,-776,0,0,0,0,0,0,0,0,0,-1,1875,1800,0,0
658,-776,0,0,0,0,0,0,0,0,0,-1,1882,1800,0,0
665,-776,0,0,0,0,0,0,0,0,0,-1,1889,1800,0,0
672,-776,0,0,0,0,0,0,0,0,0,-1,1896,1800,0,0
679,-776,0,0,0,0,0,0,0,0,0,-1,1903,1800,0,0
686,-776,0,0,0,0,0,0,0,0,0,-1,1910,1800,0,0
693,-776,0,0,0,0,0,0,0,0,0,-1,1917,1800,0,0
700,-776,0,0,0,0,0,0,0,0,0,-1,1924,1800,0,0
707,-776,0,0,0,0,0,0,0,0,0,-1,1931,1800,0,0
714,-776,0,0,0,0,0,0,0,0,0,-1,1938,1800,0,0
721,-776,0,0,0,0,0,0,0,0,0,-1,1945,1800,0,0
728,-776,0,0,0,0,0,0,0,0,0,-1,1952,1800,0,0
735,-776,0,0,0,0,0,0,0,0,0,-1,1959,1800,0,0
742,-776,0,0,0,0,0,0,0,0,0,-1,1966,1800,0,0
749,-776,0,0,0,0,0,0,0,0,0,-1,1973,1800,0,0
756,-776,0,0,0,0,0,0,0,0,0,-1,1980,1800,0,0
763,-776,0,0,0,0,0,0,0,0,0,-1,1987,1800,0,0
770,-776,0,0,0,0,0,0,0,0,0,-1,1994,1800,0,0
777,-776,0,0,0,0,0,0,0,0,0,-1,2001,1800,0,0
784,-776,0,0,0,0,0,0,0,0,0,-1,2008,1800,0,0
791,-776,0,0,0,0,0,0,0,0,0,-1,2015,1800,0,0
798,-776,0,0,0,0,0,0,0,0,0,-1,2022,1800,0,0
805,-776,0,0,0,0,0,0,0,0,0,-1,2029,1800,0,0
812,-776,0,0,0,0,0,0,0,0,0,-1,2036,1800,0,0
-700,-783,0,0,0,0,0,0,0,0,0,-1,524,1807,0,0
-693,-783,0,0,0,0,0,0,0,0,0,-1,531,1807,0,0
-686,-783,0,0,0,0,0,0,0,0,0,-1,538,1807,0,0
-679,-783,0,0,0,0,0,0,0,0,0,-1,545,1807,0,0
-672,-783,0,0,0,0,0,0,0,0,0,-1,552,1807,0,0
-665,-783,0,0,0,0,0,0,0,0,0,-1,559,1807,0,0
-658,-783,0,0,0,0,0,0,0,0,0,-1,566,1807,0,0
-651,-783,0,0,0,0,0,0,0,0,0,-1,573,1807,0,0
-644,-783,0,0,0,0,0,0,0,0,0,-1,580,1807,0,0
-637,-783,0,0,0,0,0,0,0,0,0,-1,587,1807,0,0
-630,-783,0,0,0,0,0,0,0,0,0,-1,594,1807,0,0
-623,-783,0,0,0,0,0,0,0,0,0,-1,601,1807,0,0
-616,-783,0,0,0,0,0,0,0,0,0,-1,608,1807,0,0
-609,-783,0,0,0,0,0,0,0,0,0,-1,615,1807,0,0
-602,-783,0,0,0,0,0,0,0,0,0,-1,622,1807,0,0
-595,-783,0,0,0,0,0,0,0,0,0,-1,629,1807,0,0
-588,-783,0,0,0,0,0,0,0,0,0,-1,636,1807,0,0
-581,-783,0,0,0,0,0,0,0,0,0,-1,643,1807,0,0
-574,-783,0,0,0,0,0,0,0,0,0,-1,650,1807,0,0
-567,-783,0,0,0,0,0,0,0,0,0,-1,657,1807,0,0
-560,-783,0,0,0,0,0,0,0,0,0,-1,664,1807,0,0
-553,-783,0,0,0,0,0,0,0,0,0,-1,671,1807,0,0
-546,-783,0,0,0,0,0,0,0,0,0,-1,678,1807,0,0
-539,-783,0,0,0,0,0,0,0,0,0,-1,685,1807,0,0
-532,-783,0,0,0,0,0,0,0,0,0,-1,692,1807,0,0
-525,-783,0,0,0,0,0,0,0,0,0,-1,699,1807,0,0
-518,-783,0,0,0,0,0,0,0,0,0,-1,706,1807,0,0
-511,-783,0,0,0,0,0,0,0,0,0,-1,713,1807,0,0
-504,-783,0,0,0,0,0,0,0,0,0,-1,720,1807,0,0
-497,-783,0,0,0,0,0,0,0,0,0,-1,727,1807,0,0
-490,-783,0,0,0,0,0,0,0,0,0,-1,734,1807,0,0
-483,-783,0,0,0,0,0,0,0,0,0,-1,741,1807,0,0
-476,-783,0,0,0,0,0,0,0,0,0,-1,748,1807,0,0
-469,-783,0,0,0,0,0,0,0,0,0,-1,755,1807,0,0
-462,-783,0,0,0,0,0,0,0,0,0,-1,762,1807,0,0
-455,-783,0,0,0,0,0,0,0,0,0,-1,769,1807,0,0
-448,-783,0,0,0,0,0,0,0,0,0,-1,776,1807,0,0
-441,-783,0,0,0,0,0,0,0,0,0,-1,783,1807,0,0
-434,-783,0,0,0,0,0,0,0,0,0,-1,790,1807,0,0
-427,-783,0,0,0,0,0,0,0,0,0,-1,797,1807,0,0
-420,-783,0,0,0,0,0,0,0,0,0,-1,804,1807,0,0
-413,-783,0,0,0,0,0,0,0,0,0,-1,811,1807,0,0
-406,-783,0,0,0,0,0,0,0,0,0,-1,818,1807,0,0
-399,-783,0,0,0,0,0,0,0,0,0,-1,825,1807,0,0
-392,-783,0,0,0,0,0,0,0,0,0,-1,832,1807,0,0
-385,-783,0,0,0,0,0,0,0,0,0,-1,839,1807,0,0
-378,-783,0,0,0,0,0,0,0,0,0,-1,846,1807,0,0
-371,-783,0,0,0,0,0,0,0,0,0,-1,853,1807,0,0
-364,-783,0,0,0,0,0,0,0,0,0,-1,860,1807,0,0
-357,-783,0,0,0,0,0,0,0,0,0,-1,867,1807,0,0
-350,-783,0,0,0,0,0,0,0,0,0,-1,874,1807,0,0
-343,-783,0,0,0,0,0,0,0,0,0,-1,881,1807,0,0
-336,-783,0,0,0,0,0,0,0,0,0,-1,888,1807,0,0
-329,-783,0,0,0,0,0,0,0,0,0,-1,895,1807,0,0
-322,-783,0,0,0,0,0,0,0,0,0,-1,902,1807,0,0
-315,-783,0,0,0,0,0,0,0,0,0,-1,909,1807,0,0
-308,-783,0,0,0,0,0,0,0,0,0,-1,916,1807,0,0
-301,-783,0,0,0,0,0,0,0,0,0,-1,923,1807,0,0
-294,-783,0,0,0,0,0,0,0,0,0,-1,930,1807,0,0
-287,-783,0,0,0,0,0,0,0,0,0,-1,937,1807,0,0
-280,-783,0,0,0,0,0,0,0,0,0,-1,944,1807,0,0
-273,-783,0,0,0,0,0,0,0,0,0,-1,951,1807,0,0
-266,-783,0,0,0,0,0,0,0,0,0,-1,958,1807,0,0
-259,-783,0,0,0,0,0,0,0,0,0,-1,965,1807,0,0
-252,-783,0,0,0,0,0,0,0,0,0,-1,972,1807,0,0
-245,-783,0,0,0,0,0,0,0,0,0,-1,979,1807,0,0
-238,-783,0,0,0,0,0,0,0,0,0,-1,986,1807,0,0
-231,-783,0,0,0,0,0,0,0,0,0,-1,993,1807,0,0
-224,-783,0,0,0,0,0,0,0,0,0,-1,1000,1807,0,0
-217,-783,0,0,0,0,0,0,0,0,0,-1,1007,1807,0,0
-210,-783,0,0,0,0,0,0,0,0,0,-1,1014,1807,0,0
-203,-783,0,0,0,0,0,0,0,0,0,-1,1021,1807,0,0
-196,-783,0,0,0,0,0,0,0,0,0,-1,1028,1807,0,0
-189,-783,0,0,0,0,0,0,0,0,0,-1,1035,1807,0,0
-182,-783,0,0,0,0,0,0,0,0,0,-1,1042,1807,0,0
-175,-783,0,0,0,0,0,0,0,0,0,-1,1049,1807,0,0
-168,-783,0,0,0,0,0,0,0,0,0,-1,1056,1807,0,0
-161,-783,0,0,0,0,0,0,0,0,0,-1,1063,1807,0,0
-154,-783,0,0,0,0,0,0,0,0,0,-1,1070,1807,0,0
-147,-783,0,0,0,0,0,0,0,0,0,-1,1077,1807,0,0
-140,-783,0,0,0,0,0,0,0,0,0,-1,1084,1807,0,0
-133,-783,0,0,0,0,0,0,0,0,0,-1,1091,1807,0,0
-126,-783,0,0,0,0,0,0,0,0,0,-1,1098,1807,0,0
-119,-783,0,0,0,0,0,0,0,0,0,-1,1105,1807,0,0
-112,-783,5.35229,15.2482,0,0,0,0,0,0,0,-1,1112,1807,5.35229,-15.2482
-105,-783,4.41919,14.488,0,0,0,0,0,0,0,-1,1119,1807,4.41917,-14.4881
-98,-783,3.11047,14.0786,0,0,0,0,0,0,0,-1,1126,1807,3.11046,-14.0786
-91,-783,1.01868,14.7838,0,0,0,0,0,0,0,-1,1133,1807,1.01872,-14.7838
-84,-783,0.684692,13.7784,0,0,0,0,0,0,0,-1,1140,1807,0.684752,-13.7784
-77,-783,0.332764,12.7788,0,0,0,0,0,0,0,-1,1147,1807,0.332743,-12.7788
-70,-783,-1.93176,5.12817,0,0,0,0,0,0,0,-1,1154,1807,-1.93171,-5.12813
-63,-783,-2.46729,4.38416,0,0,0,0,0,0,0,-1,1161,1807,-2.46723,-4.38411
-56,-783,-2.11902,6.73853,0,0,0,0,0,0,0,-1,1168,1807,-2.11904,-6.73854
-49,-783,-3.17688,4.59705,0,0,0,0,0,0,0,-1,1175,1807,-3.17685,-4.5971
-42,-783,-3.72876,3.1405,0,0,0,0,0,0,0,-1,1182,1807,-3.72874,-3.14055
-35,-783,-3.97046,1.59399,0,0,0,0,0,0,0,-1,1189,1807,-3.97041,-1.59401
-28,-783,-4.12195,0.270386,0,0,0,0,0,0,0,-1,1196,1807,-4.12197,-0.270408
-21,-783,3.95068,11.5028,0,0,0,0,0,0,0,-1,1203,1807,3.95063,-11.5028
-14,-783,4.36951,11.973,0,0,0,0,0,0,0,-1,1210,1807,4.36951,-11.973
-7,-783,4.82788,12.4485,0.00612362,-0.034142,0.00831703,0.0077739,-0.0357923,0.195878,0.0268309,0.0448492,1217,1807,4.82783,-12.4484
0,-783,5.08313,13.0396,0.00462723,-0.0419987,0.00508135,0.00517457,-0.0425461,0.107303,0.0302369,0.0468175,1224,1807,5.08318,-13.0395
7,-783,5.20215,13.454,0.00372832,-0.0444218,0.00195515,0.00380758,-0.044501,0.0405165,0.0310146,0.0466258,1231,1807,5.20209,-13.454
14,-783,5.47803,13.6901,0.00358637,-0.0426219,-0.00113289,0.00361413,-0.0426497,-0.0244973,0.0297112,0.0455084,1238,1807,5.47798,-13.6901
21,-783,4.79358,13.1416,0.00381072,-0.0382825,-0.00404933,0.00419672,-0.0386685,-0.0950377,0.0272857,0.0480324,1245,1807,4.79356,-13.1416
28,-783,4.01379,14.257,0.00441704,-0.0315565,-0.00954644,0.00679344,-0.0339329,-0.243971,0.0251936,0.0445133,1252,1807,4.01375,-14.257
35,-783,4.58105,14.3485,0.0066141,-0.0247593,-0.0168199,0.013927,-0.0320722,-0.410123,0.0272377,0.0456862,1259,1807,4.58105,-14.3486
42,-783,5.09912,14.4667,0,0,0,0,0,0,0,-1,1266,1807,5.09912,-14.4666
49,-783,5.41089,11.1959,0.00823917,-0.0123884,-0.0300995,0.0297429,-0.0338921,-0.620339,0.0367657,0.0480138,1273,1807,5.4109,-11.1959
56,-783,5.19092,11.6941,0.00760996,-0.00731094,-0.0358225,0.0367407,-0.0364417,-0.682735,0.042252,0.045247,1280,1807,5.19095,-11.6941
63,-783,5.25891,11.8643,0.00644945,-0.00490056,-0.0402852,0.0414575,-0.0399086,-0.715423,0.0469795,0.0477203,1287,1807,5.25889,-11.8643
70,-783,5.36035,12.0786,0,0,0,0,0,0,0,-1,1294,1807,5.36035,-12.0786
77,-783,5.45776,15.8375,0,0,0,0,0,0,0,-1,1301,1807,5.45779,-15.8375
84,-783,5.31775,13.7944,-0.00272514,-0.00387086,-0.0452231,0.0419287,-0.0485247,-0.779065,0.0522695,0.0471266,1308,1807,5.31774,-13.7945
91,-783,5.73035,13.2874,-0.00946855,-0.00906154,-0.0417427,0.0324781,-0.0510082,-0.787836,0.048595,0.0446308,1315,1807,5.73036,-13.2874
98,-783,5.01074,12.4695,-0.0148122,-0.0153678,-0.0374899,0.022401,-0.0525809,-0.781693,0.0444443,0.0435879,1322,1807,5.01072,-12.4695
105,-783,4.46729,12.4857,-0.0202754,-0.0217353,-0.0325393,0.0115421,-0.0535528,-0.774183,0.0401067,0.0461257,1329,1807,4.46728,-12.4858
112,-783,3.0415,13.6711,-0.0258835,-0.0258719,-0.0265723,0.000694549,-0.05245,-0.785507,0.0352005,0.0493705,1336,1807,3.04152,-13.6712
119,-783,3.00342,13.4205,-0.0307491,-0.028015,-0.0204156,-0.00892073,-0.0498435,-0.818829,0.0306906,0.0449146,1343,1807,3.00348,-13.4205
126,-783,2.94702,13.1963,0,0,0,0,0,0,0,-1,1350,1807,2.94701,-13.1963
133,-783,6.08142,13.4784,0,0,0,0,0,0,0,-1,1357,1807,6.08144,-13.4784
140,-783,5.98425,10.7552,0,0,0,0,0,0,0,-1,1364,1807,5.98426,-10.7552
147,-783,6.45825,-1.2334,0,0,0,0,0,0,0,-1,1371,1807,6.45822,1.23339
154,-783,6.37024,-0.145874,0,0,0,0,0,0,0,-1,1378,1807,6.37018,0.145866
161,-783,6.57568,1.16174,0,0,0,0,0,0,0,-1,1385,1807,6.57562,-1.1617
168,-783,8.62561,1.79944,0,0,0,0,0,0,0,-1,1392,1807,8.62561,-1.79946
175,-783,8.78699,3.40857,0,0,0,0,0,0,0,-1,1399,1807,8.78697,-3.40854
182,-783,8.70984,5.14661,0,0,0,0,0,0,0,-1,1406,1807,8.70989,-5.14666
189,-783,8.55762,6.79871,0,0,0,0,0,0,0,-1,1413,1807,8.55766,-6.79872
196,-783,8.25488,8.66626,0,0,0,0,0,0,0,-1,1420,1807,8.25492,-8.66628
203,-783,7.86755,10.5735,0,0,0,0,0,0,0,-1,1427,1807,7.8676,-10.5734
210,-783,5.6969,8.99231,0,0,0,0,0,0,0,-1,1434,1807,5.69693,-8.99234
217,-783,5.28503,3.80872,0,0,0,0,0,0,0,-1,1441,1807,5.285,-3.80868
224,-783,3.22571,6.62903,0,0,0,0,0,0,0,-1,1448,1807,3.2257,-6.62907
231,-783,4.27942,4.56262,0,0,0,0,0,0,0,-1,1455,1807,4.27948,-4.56267
238,-783,0,0,0,0,0,0,0,0,0,-1,1462,1807,0,0
245,-783,0,0,0,0,0,0,0,0,0,-1,1469,1807,0,0
252,-783,0,0,0,0,0,0,0,0,0,-1,1476,1807,0,0
259,-783,0,0,0,0,0,0,0,0,0,-1,1483,1807,0,0
266,-783,0,0,0,0,0,0,0,0,0,-1,1490,1807,0,0
273,-783,0,0,0,0,0,0,0,0,0,-1,1497,1807,0,0
280,-783,0,0,0,0,0,0,0,0,0,-1,1504,1807,0,0
287,-783,0,0,0,0,0,0,0,0,0,-1,1511,1807,0,0
294,-783,0,0,0,0,0,0,0,0,0,-1,1518,1807,0,0
301,-783,0,0,0,0,0,0,0,0,0,-1,1525,1807,0,0
308,-783,0,0,0,0,0,0,0,0,0,-1,1532,1807,0,0
315,-783,0,0,0,0,0,0,0,0,0,-1,1539,1807,0,0
322,-783,0,0,0,0,0,0,0,0,0,-1,1546,1807,0,0
329,-783,0,0,0,0,0,0,0,0,0,-1,1553,1807,0,0
336,-783,0,0,0,0,0,0,0,0,0,-1,1560,1807,0,0
343,-783,0,0,0,0,0,0,0,0,0,-1,1567,1807,0,0
350,-783,0,0,0,0,0,0,0,0,0,-1,1574,1807,0,0
357,-783,0,0,0,0,0,0,0,0,0,-1,1581,1807,0,0
364,-783,0,0,0,0,0,0,0,0,0,-1,1588,1807,0,0
371,-783,0,0,0,0,0,0,0,0,0,-1,1595,1807,0,0
378,-783,0,0,0,0,0,0,0,0,0,-1,1602,1807,0,0
385,-783,0,0,0,0,0,0,0,0,0,-1,1609,1807,0,0
392,-783,0,0,0,0,0,0,0,0,0,-1,1616,1807,0,0
399,-783,0,0,0,0,0,0,0,0,0,-1,1623,1807,0,0
406,-783,0,0,0,0,0,0,0,0,0,-1,1630,1807,0,0
413,-783,0,0,0,0,0,0,0,0,0,-1,1637,1807,0,0
420,-783,0,0,0,0,0,0,0,0,0,-1,1644,1807,0,0
427,-783,0,0,0,0,0,0,0,0,0,-1,1651,1807,0,0
434,-783,0,0,0,0,0,0,0,0,0,-1,1658,1807,0,0
441,-783,0,0,0,0,0,0,0,0,0,-1,1665,1807,0,0
448,-783,0,0,0,0,0,0,0,0,0,-1,1672,1807,0,0
455,-783,0,0,0,0,0,0,0,0,0,-1,1679,1807,0,0
462,-783,0,0,0,0,0,0,0,0,0,-1,1686,1807,0,0
469,-783,0,0,0,0,0,0,0,0,0,-1,1693,1807,0,0
476,-783,0,0,0,0,0,0,0,0,0,-1,1700,1807,0,0
483,-783,0,0,0,0,0,0,0,0,0,-1,1707,1807,0,0
490,-783,0,0,0,0,0,0,0,0,0,-1,1714,1807,0,0
497,-783,0,0,0,0,0,0,0,0,0,-1,1721,1807,0,0
504,-783,0,0,0,0,0,0,0,0,0,-1,1728,1807,0,0
511,-783,0,0,0,0,0,0,0,0,0,-1,1735,1807,0,0
518,-783,0,0,0,0,0,0,0,0,0,-1,1742,1807,0,0
525,-783,0,0,0,0,0,0,0,0,0,-1,1749,1807,0,0
532,-783,0,0,0,0,0,0,0,0,0,-1,1756,1807,0,0
539,-783,0,0,0,0,0,0,0,0,0,-1,1763,1807,0,0
546,-783,0,0,0,0,0,0,0,0,0,-1,1770,1807,0,0
553,-783,0,0,0,0,0,0,0,0,0,-1,1777,1807,0,0
560,-783,0,0,0,0,0,0,0,0,0,-1,1784,1807,0,0
567,-783,0,0,0,0,0,0,0,0,0,-1,1791,1807,0,0
574,-783,0,0,0,0,0,0,0,0,0,-1,1798,1807,0,0
581,-783,0,0,0,0,0,0,0,0,0,-1,1805,1807,0,0
588,-783,0,0,0,0,0,0,0,0,0,-1,1812,1807,0,0
595,-783,0,0,0,0,0,0,0,0,0,-1,1819,1807,0,0
602,-783,0,0,0,0,0,0,0,0,0,-1,1826,1807,0,0
609,-783,0,0,0,0,0,0,0,0,0,-1,1833,1807,0,0
616,-783,0,0,0,0,0,0,0,0,0,-1,1840,1807,0,0
623,-783,0,0,0,0,0,0,0,0,0,-1,1847,1807,0,0
630,-783,0,0,0,0,0,0,0,0,0,-1,1854,1807,0,0
637,-783,0,0,0,0,0,0,0,0,0,-1,1861,1807,0,0
644,-783,0,0,0,0,0,0,0,0,0,-1,1868,1807,0,0
651,-783,0,0,0,0,0,0,0,0,0,-1,1875,1807,0,0
658,-783,0,0,0,0,0,0,0,0,0,-1,1882,1807,0,0
665,-783,0,0,0,0,0,0,0,0,0,-1,1889,1807,0,0
672,-783,0,0,0,0,0,0,0,0,0,-1,1896,1807,0,0
679,-783,0,0,0,0,0,0,0,0,0,-1,1903,1807,0,0
686,-783,0,0,0,0,0,0,0,0,0,-1,1910,1807,0,0
693,-783,0,0,0,0,0,0,0,0,0,-1,1917,1807,0,0
700,-783,0,0,0,0,0,0,0,0,0,-1,1924,1807,0,0
707,-783,0,0,0,0,0,0,0,0,0,-1,1931,1807,0,0
714,-783,0,0,0,0,0,0,0,0,0,-1,1938,1807,0,0
721,-783,0,0,0,0,0,0,0,0,0,-1,1945,1807,0,0
728,-783,0,0,0,0,0,0,0,0,0,-1,1952,1807,0,0
735,-783,0,0,0,0,0,0,0,0,0,-1,1959,1807,0,0
742,-783,0,0,0,0,0,0,0,0,0,-1,1966,1807,0,0
749,-783,0,0,0,0,0,0,0,0,0,-1,1973,1807,0,0
756,-783,0,0,0,0,0,0,0,0,0,-1,1980,1807,0,0
763,-783,0,0,0,0,0,0,0,0,0,-1,1987,1807,0,0
770,-783,0,0,0,0,0,0,0,0,0,-1,1994,1807,0,0
777,-783,0,0,0,0,0,0,0,0,0,-1,2001,1807,0,0
784,-783,0,0,0,0,0,0,0,0,0,-1,2008,1807,0,0
791,-783,0,0,0,0,0,0,0,0,0,-1,2015,1807,0,0
798,-783,0,0,0,0,0,0,0,0,0,-1,2022,1807,0,0
805,-783,0,0,0,0,0,0,0,0,0,-1,2029,1807,0,0
812,-783,0,0,0,0,0,0,0,0,0,-1,2036,1807,0,0
-700,-790,0,0,0,0,0,0,0,0,0,-1,524,1814,0,0
-693,-790,0,0,0,0,0,0,0,0,0,-1,531,1814,0,0
-686,-790,0,0,0,0,0,0,0,0,0,-1,538,1814,0,0
-679,-790,0,0,0,0,0,0,0,0,0,-1,545,1814,0,0
-672,-790,0,0,0,0,0,0,0,0,0,-1,552,1814,0,0
-665,-790,0,0,0,0,0,0,0,0,0,-1,559,1814,0,0
-658,-790,0,0,0,0,0,0,0,0,0,-1,566,1814,0,0
-651,-790,0,0,0,0,0,0,0,0,0,-1,573,1814,0,0
-644,-790,0,0,0,0,0,0,0,0,0,-1,580,1814,0,0
-637,-790,0,0,0,0,0,0,0,0,0,-1,587,1814,0,0
-630,-790,0,0,0,0,0,0,0,0,0,-1,594,1814,0,0
-623,-790,0,0,0,0,0,0,0,0,0,-1,601,1814,0,0
-616,-790,0,0,0,0,0,0,0,0,0,-1,608,1814,0,0
-609,-790,0,0,0,0,0,0,0,0,0,-1,615,1814,0,0
-602,-790,0,0,0,0,0,0,0,0,0,-1,622,1814,0,0
-595,-790,0,0,0,0,0,0,0,0,0,-1,629,1814,0,0
-588,-790,0,0,0,0,0,0,0,0,0,-1,636,1814,0,0
-581,-790,0,0,0,0,0,0,0,0,0,-1,643,1814,0,0
-574,-790,0,0,0,0,0,0,0,0,0,-1,650,1814,0,0
-567,-790,0,0,0,0,0,0,0,0,0,-1,657,1814,0,0
-560,-790,0,0,0,0,0,0,0,0,0,-1,664,1814,0,0
-553,-790,0,0,0,0,0,0,0,0,0,-1,671,1814,0,0
-546,-790,0,0,0,0,0,0,0,0,0,-1,678,1814,0,0
-539,-790,0,0,0,0,0,0,0,0,0,-1,685,1814,0,0
-532,-790,0,0,0,0,0,0,0,0,0,-1,692,1814,0,0
-525,-790,0,0,0,0,0,0,0,0,0,-1,699,1814,0,0
-518,-790,0,0,0,0,0,0,0,0,0,-1,706,1814,0,0
-511,-790,0,0,0,0,0,0,0,0,0,-1,713,1814,0,0
-504,-790,0,0,0,0,0,0,0,0,0,-1,720,1814,0,0
-497,-790,0,0,0,0,0,0,0,0,0,-1,727,1814,0,0
-490,-790,0,0,0,0,0,0,0,0,0,-1,734,1814,0,0
-483,-790,0,0,0,0,0,0,0,0,0,-1,741,1814,0,0
-476,-790,0,0,0,0,0,0,0,0,0,-1,748,1814,0,0
-469,-790,0,0,0,0,0,0,0,0,0,-1,755,1814,0,0
-462,-790,0,0,0,0,0,0,0,0,0,-1,762,1814,0,0
-455,-790,0,0,0,0,0,0,0,0,0,-1,769,1814,0,0
-448,-790,0,0,0,0,0,0,0,0,0,-1,776,1814,0,0
-441,-790,0,0,0,0,0,0,0,0,0,-1,783,1814,0,0
-434,-790,0,0,0,0,0,0,0,0,0,-1,790,1814,0,0
-427,-790,0,0,0,0,0,0,0,0,0,-1,797,1814,0,0
-420,-790,0,0,0,0,0,0,0,0,0,-1,804,1814,0,0
-413,-790,0,0,0,0,0,0,0,0,0,-1,811,1814,0,0
-406,-790,0,0,0,0,0,0,0,0,0,-1,818,1814,0,0
-399,-790,0,0,0,0,0,0,0,0,0,-1,825,1814,0,0
-392,-790,0,0,0,0,0,0,0,0,0,-1,832,1814,0,0
-385,-790,0,0,0,0,0,0,0,0,0,-1,839,1814,0,0
-378,-790,0,0,0,0,0,0,0,0,0,-1,846,1814,0,0
-371,-790,0,0,0,0,0,0,0,0,0,-1,853,1814,0,0
-364,-790,0,0,0,0,0,0,0,0,0,-1,860,1814,0,0
-357,-790,0,0,0,0,0,0,0,0,0,-1,867,1814,0,0
-350,-790,0,0,0,0,0,0,0,0,0,-1,874,1814,0,0
-343,-790,0,0,0,0,0,0,0,0,0,-1,881,1814,0,0
-336,-790,0,0,0,0,0,0,0,0,0,-1,888,1814,0,0
-329,-790,0,0,0,0,0,0,0,0,0,-1,895,1814,0,0
-322,-790,0,0,0,0,0,0,0,0,0,-1,902,1814,0,0
-315,-790,0,0,0,0,0,0,0,0,0,-1,909,1814,0,0
-308,-790,0,0,0,0,0,0,0,0,0,-1,916,1814,0,0
-301,-790,0,0,0,0,0,0,0,0,0,-1,923,1814,0,0
-294,-790,0,0,0,0,0,0,0,0,0,-1,930,1814,0,0
-287,-790,0,0,0,0,0,0,0,0,0,-1,937,1814,0,0
-280,-790,0,0,0,0,0,0,0,0,0,-1,944,1814,0,0
-273,-790,0,0,0,0,0,0,0,0,0,-1,951,1814,0,0
-266,-790,0,0,0,0,0,0,0,0,0,-1,958,1814,0,0
-259,-790,0,0,0,0,0,0,0,0,0,-1,965,1814,0,0
-252,-790,0,0,0,0,0,0,0,0,0,-1,972,1814,0,0
-245,-790,0,0,0,0,0,0,0,0,0,-1,979,1814,0,0
-238,-790,0,0,0,0,0,0,0,0,0,-1,986,1814,0,0
-231,-790,0,0,0,0,0,0,0,0,0,-1,993,1814,0,0
-224,-790,0,0,0,0,0,0,0,0,0,-1,1000,1814,0,0
-217,-790,0,0,0,0,0,0,0,0,0,-1,1007,1814,0,0
-210,-790,0,0,0,0,0,0,0,0,0,-1,1014,1814,0,0
-203,-790,0,0,0,0,0,0,0,0,0,-1,1021,1814,0,0
-196,-790,0,0,0,0,0,0,0,0,0,-1,1028,1814,0,0
-189,-790,0,0,0,0,0,0,0,0,0,-1,1035,1814,0,0
-182,-790,0,0,0,0,0,0,0,0,0,-1,1042,1814,0,0
-175,-790,0,0,0,0,0,0,0,0,0,-1,1049,1814,0,0
-168,-790,0,0,0,0,0,0,0,0,0,-1,1056,1814,0,0
-161,-790,0,0,0,0,0,0,0,0,0,-1,1063,1814,0,0
-154,-790,0,0,0,0,0,0,0,0,0,-1,1070,1814,0,0
-147,-790,0,0,0,0,0,0,0,0,0,-1,1077,1814,0,0
-140,-790,0,0,0,0,0,0,0,0,0,-1,1084,1814,0,0
-133,-790,0,0,0,0,0,0,0,0,0,-1,1091,1814,0,0
-126,-790,0,0,0,0,0,0,0,0,0,-1,1098,1814,0,0
-119,-790,0,0,0,0,0,0,0,0,0,-1,1105,1814,0,0
-112,-790,0,0,0,0,0,0,0,0,0,-1,1112,1814,0,0
-105,-790,0,0,0,0,0,0,0,0,0,-1,1119,1814,0,0
-98,-790,0,0,0,0,0,0,0,0,0,-1,1126,1814,0,0
-91,-790,0,0,0,0,0,0,0,0,0,-1,1133,1814,0,0
-84,-790,0,0,0,0,0,0,0,0,0,-1,1140,1814,0,0
-77,-790,-0.969238,5.30847,0,0,0,0,0,0,0,-1,1147,1814,-0.969277,-5.3085
-70,-790,-1.23169,4.98914,0,0,0,0,0,0,0,-1,1154,1814,-1.23163,-4.98916
-63,-790,-1.69128,4.32263,0,0,0,0,0,0,0,-1,1161,1814,-1.69128,-4.32258
-56,-790,-2.24756,3.75305,0,0,0,0,0,0,0,-1,1168,1814,-2.24758,-3.75302
-49,-790,-3.11011,3.35779,0,0,0,0,0,0,0,-1,1175,1814,-3.11006,-3.35781
-42,-790,0.593262,1.19165,0,0,0,0,0,0,0,-1,1182,1814,0.593225,-1.19165
-35,-790,0.307129,-0.20105,0,0,0,0,0,0,0,-1,1189,1814,0.307178,0.201006
-28,-790,-2.78467,0.785156,0,0,0,0,0,0,0,-1,1196,1814,-2.78471,-0.785183
-21,-790,5.36719,9.96191,0,0,0,0,0,0,0,-1,1203,1814,5.36715,-9.9619
-14,-790,5.37476,11.564,0,0,0,0,0,0,0,-1,1210,1814,5.37476,-11.564
-7,-790,5.34204,12.4034,0.00620142,-0.038959,0.013187,0.00977009,-0.0425276,0.264289,0.0321078,0.0463713,1217,1814,5.34201,-12.4035
0,-790,5.21777,13.1699,0.00470293,-0.0524189,0.00855896,0.00595781,-0.0536738,0.145579,0.0379248,0.0475878,1224,1814,5.21776,-13.1699
7,-790,5.12219,13.796,0.00396089,-0.0569265,0.00427011,0.0042589,-0.0572245,0.0696767,0.0396456,0.0448446,1231,1814,5.12214,-13.7961
14,-790,4.96313,14.4292,0,0,0,0,0,0,0,-1,1238,1814,4.96314,-14.4292
21,-790,3.96057,14.8947,0.00479979,-0.0500366,-0.00382111,0.00506477,-0.0503016,-0.069236,0.0353438,0.0438496,1245,1814,3.96062,-14.8946
28,-790,4.24841,14.6792,0.00584242,-0.0417812,-0.0116174,0.00852524,-0.044464,-0.226953,0.0328552,0.043442,1252,1814,4.24842,-14.6792
35,-790,5.16638,14.5708,0.00854989,-0.03319,-0.0214527,0.0176094,-0.0422495,-0.399583,0.0355221,0.0471313,1259,1814,5.16638,-14.5708
42,-790,5.96582,10.4019,0,0,0,0,0,0,0,-1,1266,1814,5.9658,-10.4018
49,-790,5.98865,10.619,0.0110622,-0.0178337,-0.0385834,0.037814,-0.0445856,-0.60625,0.0476269,0.0479507,1273,1814,5.98862,-10.619
56,-790,5.77478,11.1379,0.010598,-0.0112775,-0.046134,0.0470731,-0.0477526,-0.669004,0.0547481,0.0461362,1280,1814,5.77482,-11.138
63,-790,5.82556,11.4545,0.00965729,-0.00756269,-0.052405,0.0541549,-0.0520603,-0.703977,0.0613273,0.0451926,1287,1814,5.82551,-11.4545
70,-790,5.72961,17.2161,0,0,0,0,0,0,0,-1,1294,1814,5.72961,-17.216
77,-790,5.72839,15.9507,0.00405231,-0.004289,-0.05773,0.0577621,-0.0579988,-0.749339,0.0668346,0.0424698,1301,1814,5.72842,-15.9506
84,-790,5.71558,14.7622,-0.00102978,-0.00447703,-0.059441,0.0567126,-0.0622194,-0.770904,0.0686899,0.0423453,1308,1814,5.71559,-14.7622
91,-790,6.0625,13.6831,-0.00959192,-0.0111017,-0.0550211,0.0446795,-0.0653731,-0.778538,0.0639122,0.0439704,1315,1814,6.06251,-13.6832
98,-790,5.09521,12.3934,0,0,0,0,0,0,0,-1,1322,1814,5.09518,-12.3935
105,-790,4.55627,13.0153,0,0,0,0,0,0,0,-1,1329,1814,4.55623,-13.0152
112,-790,2.88062,13.9393,0,0,0,0,0,0,0,-1,1336,1814,2.88058,-13.9393
119,-790,3.04053,13.564,-0.039001,-0.0342435,-0.0270615,-0.00945634,-0.0637881,-0.829236,0.03975,0.045378,1343,1814,3.04048,-13.564
126,-790,2.40857,12.8837,-0.0442648,-0.0352287,-0.0200048,-0.019238,-0.0602554,-0.896459,0.0355379,0.0482027,1350,1814,2.40853,-12.8837
133,-790,1.81824,12.1875,0,0,0,0,0,0,0,-1,1357,1814,1.81818,-12.1875
140,-790,6.94873,10.6707,0,0,0,0,0,0,0,-1,1364,1814,6.94869,-10.6707
147,-790,6.44666,-1.87561,0,0,0,0,0,0,0,-1,1371,1814,6.4466,1.87567
154,-790,6.34485,-0.540405,0,0,0,0,0,0,0,-1,1378,1814,6.34482,0.540409
161,-790,6.62683,1.1134,0,0,0,0,0,0,0,-1,1385,1814,6.62682,-1.11344
168,-790,7.04077,2.23279,0,0,0,0,0,0,0,-1,1392,1814,7.04082,-2.23275
175,-790,9.03918,3.98535,0,0,0,0,0,0,0,-1,1399,1814,9.0392,-3.98535
182,-790,8.96997,5.67896,0,0,0,0,0,0,0,-1,1406,1814,8.97001,-5.6789
189,-790,8.59729,6.86975,0,0,0,0,0,0,0,-1,1413,1814,8.59728,-6.86972
196,-790,8.21924,9.29053,0,0,0,0,0,0,0,-1,1420,1814,8.21924,-9.29048
203,-790,0,0,0,0,0,0,0,0,0,-1,1427,1814,0,0
210,-790,0,0,0,0,0,0,0,0,0,-1,1434,1814,0,0
217,-790,0,0,0,0,0,0,0,0,0,-1,1441,1814,0,0
224,-790,0,0,0,0,0,0,0,0,0,-1,1448,1814,0,0
231,-790,0,0,0,0,0,0,0,0,0,-1,1455,1814,0,0
238,-790,0,0,0,0,0,0,0,0,0,-1,1462,1814,0,0
245,-790,0,0,0,0,0,0,0,0,0,-1,1469,1814,0,0
252,-790,0,0,0,0,0,0,0,0,0,-1,1476,1814,0,0
259,-790,0,0,0,0,0,0,0,0,0,-1,1483,1814,0,0
266,-790,0,0,0,0,0,0,0,0,0,-1,1490,1814,0,0
273,-790,0,0,0,0,0,0,0,0,0,-1,1497,1814,0,0
280,-790,0,0,0,0,0,0,0,0,0,-1,1504,1814,0,0
287,-790,0,0,0,0,0,0,0,0,0,-1,1511,1814,0,0
294,-790,0,0,0,0,0,0,0,0,0,-1,1518,1814,0,0
301,-790,0,0,0,0,0,0,0,0,0,-1,1525,1814,0,0
308,-790,0,0,0,0,0,0,0,0,0,-1,1532,1814,0,0
315,-790,0,0,0,0,0,0,0,0,0,-1,1539,1814,0,0
322,-790,0,0,0,0,0,0,0,0,0,-1,1546,1814,0,0
329,-790,0,0,0,0,0,0,0,0,0,-1,1553,1814,0,0
336,-790,0,0,0,0,0,0,0,0,0,-1,1560,1814,0,0
343,-790,0,0,0,0,0,0,0,0,0,-1,1567,1814,0,0
350,-790,0,0,0,0,0,0,0,0,0,-1,1574,1814,0,0
357,-790,0,0,0,0,0,0,0,0,0,-1,1581,1814,0,0
364,-790,0,0,0,0,0,0,0,0,0,-1,1588,1814,0,0
371,-790,0,0,0,0,0,0,0,0,0,-1,1595,1814,0,0
378,-790,0,0,0,0,0,0,0,0,0,-1,1602,1814,0,0
385,-790,0,0,0,0,0,0,0,0,0,-1,1609,1814,0,0
392,-790,0,0,0,0,0,0,0,0,0,-1,1616,1814,0,0
399,-790,0,0,0,0,0,0,0,0,0,-1,1623,1814,0,0
406,-790,0,0,0,0,0,0,0,0,0,-1,1630,1814,0,0
413,-790,0,0,0,0,0,0,0,0,0,-1,1637,1814,0,0
420,-790,0,0,0,0,0,0,0,0,0,-1,1644,1814,0,0
427,-790,0,0,0,0,0,0,0,0,0,-1,1651,1814,0,0
434,-790,0,0,0,0,0,0,0,0,0,-1,1658,1814,0,0
441,-790,0,0,0,0,0,0,0,0,0,-1,1665,1814,0,0
448,-790,0,0,0,0,0,0,0,0,0,-1,1672,1814,0,0
455,-790,0,0,0,0,0,0,0,0,0,-1,1679,1814,0,0
462,-790,0,0,0,0,0,0,0,0,0,-1,1686,1814,0,0
469,-790,0,0,0,0,0,0,0,0,0,-1,1693,1814,0,0
476,-790,0,0,0,0,0,0,0,0,0,-1,1700,1814,0,0
483,-790,0,0,0,0,0,0,0,0,0,-1,1707,1814,0,0
490,-790,0,0,0,0,0,0,0,0,0,-1,1714,1814,0,0
497,-790,0,0,0,0,0,0,0,0,0,-1,1721,1814,0,0
504,-790,0,0,0,0,0,0,0,0,0,-1,1728,1814,0,0
511,-790,0,0,0,0,0,0,0,0,0,-1,1735,1814,0,0
518,-790,0,0,0,0,0,0,0,0,0,-1,1742,1814,0,0
525,-790,0,0,0,0,0,0,0,0,0,-1,1749,1814,0,0
532,-790,0,0,0,0,0,0,0,0,0,-1,1756,1814,0,0
539,-790,0,0,0,0,0,0,0,0,0,-1,1763,1814,0,0
546,-790,0,0,0,0,0,0,0,0,0,-1,1770,1814,0,0
553,-790,0,0,0,0,0,0,0,0,0,-1,1777,1814,0,0
560,-790,0,0,0,0,0,0,0,0,0,-1,1784,1814,0,0
567,-790,0,0,0,0,0,0,0,0,0,-1,1791,1814,0,0
574,-790,0,0,0,0,0,0,0,0,0,-1,1798,1814,0,0
581,-790,0,0,0,0,0,0,0,0,0,-1,1805,1814,0,0
588,-790,0,0,0,0,0,0,0,0,0,-1,1812,1814,0,0
595,-790,0,0,0,0,0,0,0,0,0,-1,1819,1814,0,0
602,-790,0,0,0,0,0,0,0,0,0,-1,1826,1814,0,0
609,-790,0,0,0,0,0,0,0,0,0,-1,1833,1814,0,0
616,-790,0,0,0,0,0,0,0,0,0,-1,1840,1814,0,0
623,-790,0,0,0,0,0,0,0,0,0,-1,1847,1814,0,0
630,-790,0,0,0,0,0,0,0,0,0,-1,1854,1814,0,0
637,-790,0,0,0,0,0,0,0,0,0,-1,1861,1814,0,0
644,-790,0,0,0,0,0,0,0,0,0,-1,1868,1814,0,0
651,-790,0,0,0,0,0,0,0,0,0,-1,1875,1814,0,0
658,-790,0,0,0,0,0,0,0,0,0,-1,1882,1814,0,0
665,-790,0,0,0,0,0,0,0,0,0,-1,1889,1814,0,0
672,-790,0,0,0,0,0,0,0,0,0,-1,1896,1814,0,0
679,-790,0,0,0,0,0,0,0,0,0,-1,1903,1814,0,0
686,-790,0,0,0,0,0,0,0,0,0,-1,1910,1814,0,0
693,-790,0,0,0,0,0,0,0,0,0,-1,1917,1814,0,0
700,-790,0,0,0,0,0,0,0,0,0,-1,1924,1814,0,0
707,-790,0,0,0,0,0,0,0,0,0,-1,1931,1814,0,0
714,-790,0,0,0,0,0,0,0,0,0,-1,1938,1814,0,0
721,-790,0,0,0,0,0,0,0,0,0,-1,1945,1814,0,0
728,-790,0,0,0,0,0,0,0,0,0,-1,1952,1814,0,0
735,-790,0,0,0,0,0,0,0,0,0,-1,1959,1814,0,0
742,-790,0,0,0,0,0,0,0,0,0,-1,1966,1814,0,0
749,-790,0,0,0,0,0,0,0,0,0,-1,1973,1814,0,0
756,-790,0,0,0,0,0,0,0,0,0,-1,1980,1814,0,0
763,-790,0,0,0,0,0,0,0,0,0,-1,1987,1814,0,0
770,-790,0,0,0,0,0,0,0,0,0,-1,1994,1814,0,0
777,-790,0,0,0,0,0,0,0,0,0,-1,2001,1814,0,0
784,-790,0,0,0,0,0,0,0,0,0,-1,2008,1814,0,0
791,-790,0,0,0,0,0,0,0,0,0,-1,2015,1814,0,0
798,-790,0,0,0,0,0,0,0,0,0,-1,2022,1814,0,0
805,-790,0,0,0,0,0,0,0,0,0,-1,2029,1814,0,0
812,-790,0,0,0,0,0,0,0,0,0,-1,2036,1814,0,0
-700,-797,0,0,0,0,0,0,0,0,0,-1,524,1821,0,0
-693,-797,0,0,0,0,0,0,0,0,0,-1,531,1821,0,0
-686,-797,0,0,0,0,0,0,0,0,0,-1,538,1821,0,0
-679,-797,0,0,0,0,0,0,0,0,0,-1,545,1821,0,0
-672,-797,0,0,0,0,0,0,0,0,0,-1,552,1821,0,0
-665,-797,0,0,0,0,0,0,0,0,0,-1,559,1821,0,0
-658,-797,0,0,0,0,0,0,0,0,0,-1,566,1821,0,0
-651,-797,0,0,0,0,0,0,0,0,0,-1,573,1821,0,0
-644,-797,0,0,0,0,0,0,0,0,0,-1,580,1821,0,0
-637,-797,0,0,0,0,0,0,0,0,0,-1,587,1821,0,0
-630,-797,0,0,0,0,0,0,0,0,0,-1,594,1821,0,0
-623,-797,0,0,0,0,0,0,0,0,0,-1,601,1821,0,0
-616,-797,0,0,0,0,0,0,0,0,0,-1,608,1821,0,0
-609,-797,0,0,0,0,0,0,0,0,0,-1,615,1821,0,0
-602,-797,0,0,0,0,0,0,0,0,0,-1,622,1821,0,0
-595,-797,0,0,0,0,0,0,0,0,0,-1,629,1821,0,0
-588,-797,0,0,0,0,0,0,0,0,0,-1,636,1821,0,0
-581,-797,0,0,0,0,0,0,0,0,0,-1,643,1821,0,0
-574,-797,0,0,0,0,0,0,0,0,0,-1,650,1821,0,0
-567,-797,0,0,0,0,0,0,0,0,0,-1,657,1821,0,0
-560,-797,0,0,0,0,0,0,0,0,0,-1,664,1821,0,0
-553,-797,0,0,0,0,0,0,0,0,0,-1,671,1821,0,0
-546,-797,0,0,0,0,0,0,0,0,0,-1,678,1821,0,0
-539,-797,0,0,0,0,0,0,0,0,0,-1,685,1821,0,0
-532,-797,0,0,0,0,0,0,0,0,0,-1,692,1821,0,0
-525,-797,0,0,0,0,0,0,0,0,0,-1,699,1821,0,0
-518,-797,0,0,0,0,0,0,0,0,0,-1,706,1821,0,0
-511,-797,0,0,0,0,0,0,0,0,0,-1,713,1821,0,0
-504,-797,0,0,0,0,0,0,0,0,0,-1,720,1821,0,0
-497,-797,0,0,0,0,0,0,0,0,0,-1,727,1821,0,0
-490,-797,0,0,0,0,0,0,0,0,0,-1,734,1821,0,0
-483,-797,0,0,0,0,0,0,0,0,0,-1,741,1821,0,0
-476,-797,0,0,0,0,0,0,0,0,0,-1,748,1821,0,0
-469,-797,0,0,0,0,0,0,0,0,0,-1,755,1821,0,0
-462,-797,0,0,0,0,0,0,0,0,0,-1,762,1821,0,0
-455,-797,0,0,0,0,0,0,0,0,0,-1,769,1821,0,0
-448,-797,0,0,0,0,0,0,0,0,0,-1,776,1821,0,0
-441,-797,0,0,0,0,0,0,0,0,0,-1,783,1821,0,0
-434,-797,0,0,0,0,0,0,0,0,0,-1,790,1821,0,0
-427,-797,0,0,0,0,0,0,0,0,0,-1,797,1821,0,0
-420,-797,0,0,0,0,0,0,0,0,0,-1,804,1821,0,0
-413,-797,0,0,0,0,0,0,0,0,0,-1,811,1821,0,0
-406,-797,0,0,0,0,0,0,0,0,0,-1,818,1821,0,0
-399,-797,0,0,0,0,0,0,0,0,0,-1,825,1821,0,0
-392,-797,0,0,0,0,0,0,0,0,0,-1,832,1821,0,0
-385,-797,0,0,0,0,0,0,0,0,0,-1,839,1821,0,0
-378,-797,0,0,0,0,0,0,0,0,0,-1,846,1821,0,0
-371,-797,0,0,0,0,0,0,0,0,0,-1,853,1821,0,0
-364,-797,0,0,0,0,0,0,0,0,0,-1,860,1821,0,0
-357,-797,0,0,0,0,0,0,0,0,0,-1,867,1821,0,0
-350,-797,0,0,0,0,0,0,0,0,0,-1,874,1821,0,0
-343,-797,0,0,0,0,0,0,0,0,0,-1,881,1821,0,0
-336,-797,0,0,0,0,0,0,0,0,0,-1,888,1821,0,0
-329,-797,0,0,0,0,0,0,0,0,0,-1,895,1821,0,0
-322,-797,0,0,0,0,0,0,0,0,0,-1,902,1821,0,0
-315,-797,0,0,0,0,0,0,0,0,0,-1,909,1821,0,0
-308,-797,0,0,0,0,0,0,0,0,0,-1,916,1821,0,0
-301,-797,0,0,0,0,0,0,0,0,0,-1,923,1821,0,0
-294,-797,0,0,0,0,0,0,0,0,0,-1,930,1821,0,0
-287,-797,0,0,0,0,0,0,0,0,0,-1,937,1821,0,0
-280,-797,0,0,0,0,0,0,0,0,0,-1,944,1821,0,0
-273,-797,0,0,0,0,0,0,0,0,0,-1,951,1821,0,0
-266,-797,0,0,0,0,0,0,0,0,0,-1,958,1821,0,0
-259,-797,0,0,0,0,0,0,0,0,0,-1,965,1821,0,0
-252,-797,0,0,0,0,0,0,0,0,0,-1,972,1821,0,0
-245,-797,0,0,0,0,0,0,0,0,0,-1,979,1821,0,0
-238,-797,0,0,0,0,0,0,0,0,0,-1,986,1821,0,0
-231,-797,0,0,0,0,0,0,0,0,0,-1,993,1821,0,0
-224,-797,0,0,0,0,0,0,0,0,0,-1,1000,1821,0,0
-217,-797,0,0,0,0,0,0,0,0,0,-1,1007,1821,0,0
-210,-797,0,0,0,0,0,0,0,0,0,-1,1014,1821,0,0
-203,-797,0,0,0,0,0,0,0,0,0,-1,1021,1821,0,0
-196,-797,0,0,0,0,0,0,0,0,0,-1,1028,1821,0,0
-189,-797,0,0,0,0,0,0,0,0,0,-1,1035,1821,0,0
-182,-797,0,0,0,0,0,0,0,0,0,-1,1042,1821,0,0
-175,-797,0,0,0,0,0,0,0,0,0,-1,1049,1821,0,0
-168,-797,0,0,0,0,0,0,0,0,0,-1,1056,1821,0,0
-161,-797,0,0,0,0,0,0,0,0,0,-1,1063,1821,0,0
-154,-797,0,0,0,0,0,0,0,0,0,-1,1070,1821,0,0
-147,-797,0,0,0,0,0,0,0,0,0,-1,1077,1821,0,0
-140,-797,0,0,0,0,0,0,0,0,0,-1,1084,1821,0,0
-133,-797,0,0,0,0,0,0,0,0,0,-1,1091,1821,0,0
-126,-797,0,0,0,0,0,0,0,0,0,-1,1098,1821,0,0
-119,-797,0,0,0,0,0,0,0,0,0,-1,1105,1821,0,0
-112,-797,0,0,0,0,0,0,0,0,0,-1,1112,1821,0,0
-105,-797,0,0,0,0,0,0,0,0,0,-1,1119,1821,0,0
-98,-797,0,0,0,0,0,0,0,0,0,-1,1126,1821,0,0
-91,-797,0,0,0,0,0,0,0,0,0,-1,1133,1821,0,0
-84,-797,0,0,0,0,0,0,0,0,0,-1,1140,1821,0,0
-77,-797,0,0,0,0,0,0,0,0,0,-1,1147,1821,0,0
-70,-797,0,0,0,0,0,0,0,0,0,-1,1154,1821,0,0
-63,-797,0,0,0,0,0,0,0,0,0,-1,1161,1821,0,0
-56,-797,0,0,0,0,0,0,0,0,0,-1,1168,1821,0,0
-49,-797,0,0,0,0,0,0,0,0,0,-1,1175,1821,0,0
-42,-797,0.579834,0.692871,0,0,0,0,0,0,0,-1,1182,1821,0.579856,-0.692816
-35,-797,-0.185425,5.55396,0,0,0,0,0,0,0,-1,1189,1821,-0.18542,-5.55396
-28,-797,-0.310181,4.71509,0,0,0,0,0,0,0,-1,1196,1821,-0.310228,-4.71503
-21,-797,5.16907,10.7031,0,0,0,0,0,0,0,-1,1203,1821,5.16903,-10.7031
-14,-797,5.5625,10.8151,0,0,0,0,0,0,0,-1,1210,1821,5.56254,-10.8151
-7,-797,5.81348,12.6852,0,0,0,0,0,0,0,-1,1217,1821,5.81343,-12.6852
0,-797,5.48315,13.4525,0,0,0,0,0,0,0,-1,1224,1821,5.48319,-13.4526
7,-797,5.34009,14.083,0.00356363,-0.0718363,0.00759487,0.00432103,-0.0725937,0.0993975,0.0498985,0.045457,1231,1821,5.3401,-14.083
14,-797,5.25391,14.7938,0,0,0,0,0,0,0,-1,1238,1821,5.25397,-14.7938
21,-797,4.86047,15.5804,0.00558588,-0.0643694,-0.00302403,0.00571636,-0.0644999,-0.0431208,0.0450265,0.0448392,1245,1821,4.86043,-15.5804
28,-797,4.32678,16.4158,0.00725529,-0.0546388,-0.0139216,0.0102425,-0.0576259,-0.211365,0.0422474,0.0415909,1252,1821,4.32675,-16.4158
35,-797,5.55334,14.959,0,0,0,0,0,0,0,-1,1259,1821,5.55338,-14.9589
42,-797,6.53088,9.84155,0,0,0,0,0,0,0,-1,1266,1821,6.53084,-9.84151
49,-797,6.54626,10.0255,0,0,0,0,0,0,0,-1,1273,1821,6.54621,-10.0255
56,-797,6.30383,10.5779,0,0,0,0,0,0,0,-1,1280,1821,6.30384,-10.5778
63,-797,6.34106,10.9534,0,0,0,0,0,0,0,-1,1287,1821,6.34104,-10.9534
70,-797,6.21716,17.5216,0,0,0,0,0,0,0,-1,1294,1821,6.2172,-17.5216
77,-797,6.15686,16.0729,0.0080921,-0.00533053,-0.0747279,0.0764095,-0.0736479,-0.740613,0.0866406,0.0421241,1301,1821,6.15684,-16.0728
84,-797,5.92273,14.9854,0.00234666,-0.00466359,-0.0771512,0.0760723,-0.0783893,-0.762698,0.0891818,0.0467184,1308,1821,5.92271,-14.9853
91,-797,6.17798,13.9409,-0.00822947,-0.0129188,-0.0716238,0.0610881,-0.0822363,-0.769036,0.0830481,0.0459289,1315,1821,6.17802,-13.9409
98,-797,6.4541,12.8418,0,0,0,0,0,0,0,-1,1322,1821,6.45409,-12.8418
105,-797,7.13428,11.7462,0,0,0,0,0,0,0,-1,1329,1821,7.13424,-11.7462
112,-797,3.57617,14.2373,0,0,0,0,0,0,0,-1,1336,1821,3.57619,-14.2373
119,-797,2.90771,13.6038,-0.0478117,-0.0401075,-0.0353428,-0.00840755,-0.0795117,-0.839681,0.0504394,0.0474941,1343,1821,2.90773,-13.6037
126,-797,2.47974,13.3307,-0.0560961,-0.0419339,-0.0256913,-0.0223657,-0.0756642,-0.919871,0.0448851,0.0484172,1350,1821,2.4798,-13.3307
133,-797,2.10645,12.7848,0,0,0,0,0,0,0,-1,1357,1821,2.10649,-12.7848
140,-797,8.08594,10.7717,0,0,0,0,0,0,0,-1,1364,1821,8.08597,-10.7718
147,-797,7.0835,11.9205,0,0,0,0,0,0,0,-1,1371,1821,7.08348,-11.9205
154,-797,6.33545,-1.19055,0,0,0,0,0,0,0,-1,1378,1821,6.33548,1.19052
161,-797,6.79199,1.12952,0,0,0,0,0,0,0,-1,1385,1821,6.79203,-1.12957
168,-797,0,0,0,0,0,0,0,0,0,-1,1392,1821,0,0
175,-797,0,0,0,0,0,0,0,0,0,-1,1399,1821,0,0
182,-797,0,0,0,0,0,0,0,0,0,-1,1406,1821,0,0
189,-797,0,0,0,0,0,0,0,0,0,-1,1413,1821,0,0
196,-797,0,0,0,0,0,0,0,0,0,-1,1420,1821,0,0
203,-797,0,0,0,0,0,0,0,0,0,-1,1427,1821,0,0
210,-797,0,0,0,0,0,0,0,0,0,-1,1434,1821,0,0
217,-797,0,0,0,0,0,0,0,0,0,-1,1441,1821,0,0
224,-797,0,0,0,0,0,0,0,0,0,-1,1448,1821,0,0
231,-797,0,0,0,0,0,0,0,0,0,-1,1455,1821,0,0
238,-797,0,0,0,0,0,0,0,0,0,-1,1462,1821,0,0
245,-797,0,0,0,0,0,0,0,0,0,-1,1469,1821,0,0
252,-797,0,0,0,0,0,0,0,0,0,-1,1476,1821,0,0
259,-797,0,0,0,0,0,0,0,0,0,-1,1483,1821,0,0
266,-797,0,0,0,0,0,0,0,0,0,-1,1490,1821,0,0
273,-797,0,0,0,0,0,0,0,0,0,-1,1497,1821,0,0
280,-797,0,0,0,0,0,0,0,0,0,-1,1504,1821,0,0
287,-797,0,0,0,0,0,0,0,0,0,-1,1511,1821,0,0
294,-797,0,0,0,0,0,0,0,0,0,-1,1518,1821,0,0
301,-797,0,0,0,0,0,0,0,0,0,-1,1525,1821,0,0
308,-797,0,0,0,0,0,0,0,0,0,-1,1532,1821,0,0
315,-797,0,0,0,0,0,0,0,0,0,-1,1539,1821,0,0
322,-797,0,0,0,0,0,0,0,0,0,-1,1546,1821,0,0
329,-797,0,0,0,0,0,0,0,0,0,-1,1553,1821,0,0
336,-797,0,0,0,0,0,0,0,0,0,-1,1560,1821,0,0
343,-797,0,0,0,0,0,0,0,0,0,-1,1567,1821,0,0
350,-797,0,0,0,0,0,0,0,0,0,-1,1574,1821,0,0
357,-797,0,0,0,0,0,0,0,0,0,-1,1581,1821,0,0
364,-797,0,0,0,0,0,0,0,0,0,-1,1588,1821,0,0
371,-797,0,0,0,0,0,0,0,0,0,-1,1595,1821,0,0
378,-797,0,0,0,0,0,0,0,0,0,-1,1602,1821,0,0
385,-797,0,0,0,0,0,0,0,0,0,-1,1609,1821,0,0
392,-797,0,0,0,0,0,0,0,0,0,-1,1616,1821,0,0
399,-797,0,0,0,0,0,0,0,0,0,-1,1623,1821,0,0
406,-797,0,0,0,0,0,0,0,0,0,-1,1630,1821,0,0
413,-797,0,0,0,0,0,0,0,0,0,-1,1637,1821,0,0
420,-797,0,0,0,0,0,0,0,0,0,-1,1644,1821,0,0
427,-797,0,0,0,0,0,0,0,0,0,-1,1651,1821,0,0
434,-797,0,0,0,0,0,0,0,0,0,-1,1658,1821,0,0
441,-797,0,0,0,0,0,0,0,0,0,-1,1665,1821,0,0
448,-797,0,0,0,0,0,0,0,0,0,-1,1672,1821,0,0
455,-797,0,0,0,0,0,0,0,0,0,-1,1679,1821,0,0
462,-797,0,0,0,0,0,0,0,0,0,-1,1686,1821,0,0
469,-797,0,0,0,0,0,0,0,0,0,-1,1693,1821,0,0
476,-797,0,0,0,0,0,0,0,0,0,-1,1700,1821,0,0
483,-797,0,0,0,0,0,0,0,0,0,-1,1707,1821,0,0
490,-797,0,0,0,0,0,0,0,0,0,-1,1714,1821,0,0
497,-797,0,0,0,0,0,0,0,0,0,-1,1721,1821,0,0
504,-797,0,0,0,0,0,0,0,0,0,-1,1728,1821,0,0
511,-797,0,0,0,0,0,0,0,0,0,-1,1735,1821,0,0
518,-797,0,0,0,0,0,0,0,0,0,-1,1742,1821,0,0
525,-797,0,0,0,0,0,0,0,0,0,-1,1749,1821,0,0
532,-797,0,0,0,0,0,0,0,0,0,-1,1756,1821,0,0
539,-797,0,0,0,0,0,0,0,0,0,-1,1763,1821,0,0
546,-797,0,0,0,0,0,0,0,0,0,-1,1770,1821,0,0
553,-797,0,0,0,0,0,0,0,0,0,-1,1777,1821,0,0
560,-797,0,0,0,0,0,0,0,0,0,-1,1784,1821,0,0
567,-797,0,0,0,0,0,0,0,0,0,-1,1791,1821,0,0
574,-797,0,0,0,0,0,0,0,0,0,-1,1798,1821,0,0
581,-797,0,0,0,0,0,0,0,0,0,-1,1805,1821,0,0
588,-797,0,0,0,0,0,0,0,0,0,-1,1812,1821,0,0
595,-797,0,0,0,0,0,0,0,0,0,-1,1819,1821,0,0
602,-797,0,0,0,0,0,0,0,0,0,-1,1826,1821,0,0
609,-797,0,0,0,0,0,0,0,0,0,-1,1833,1821,0,0
616,-797,0,0,0,0,0,0,0,0,0,-1,1840,1821,0,0
623,-797,0,0,0,0,0,0,0,0,0,-1,1847,1821,0,0
630,-797,0,0,0,0,0,0,0,0,0,-1,1854,1821,0,0
637,-797,0,0,0,0,0,0,0,0,0,-1,1861,1821,0,0
644,-797,0,0,0,0,0,0,0,0,0,-1,1868,1821,0,0
651,-797,0,0,0,0,0,0,0,0,0,-1,1875,1821,0,0
658,-797,0,0,0,0,0,0,0,0,0,-1,1882,1821,0,0
665,-797,0,0,0,0,0,0,0,0,0,-1,1889,1821,0,0
672,-797,0,0,0,0,0,0,0,0,0,-1,1896,1821,0,0
679,-797,0,0,0,0,0,0,0,0,0,-1,1903,1821,0,0
686,-797,0,0,0,0,0,0,0,0,0,-1,1910,1821,0,0
693,-797,0,0,0,0,0,0,0,0,0,-1,1917,1821,0,0
700,-797,0,0,0,0,0,0,0,0,0,-1,1924,1821,0,0
707,-797,0,0,0,0,0,0,0,0,0,-1,1931,1821,0,0
714,-797,0,0,0,0,0,0,0,0,0,-1,1938,1821,0,0
721,-797,0,0,0,0,0,0,0,0,0,-1,1945,1821,0,0
728,-797,0,0,0,0,0,0,0,0,0,-1,1952,1821,0,0
735,-797,0,0,0,0,0,0,0,0,0,-1,1959,1821,0,0
742,-797,0,0,0,0,0,0,0,0,0,-1,1966,1821,0,0
749,-797,0,0,0,0,0,0,0,0,0,-1,1973,1821,0,0
756,-797,0,0,0,0,0,0,0,0,0,-1,1980,1821,0,0
763,-797,0,0,0,0,0,0,0,0,0,-1,1987,1821,0,0
770,-797,0,0,0,0,0,0,0,0,0,-1,1994,1821,0,0
777,-797,0,0,0,0,0,0,0,0,0,-1,2001,1821,0,0
784,-797,0,0,0,0,0,0,0,0,0,-1,2008,1821,0,0
791,-797,0,0,0,0,0,0,0,0,0,-1,2015,1821,0,0
798,-797,0,0,0,0,0,0,0,0,0,-1,2022,1821,0,0
805,-797,0,0,0,0,0,0,0,0,0,-1,2029,1821,0,0
812,-797,0,0,0,0,0,0,0,0,0,-1,2036,1821,0,0
-700,-804,0,0,0,0,0,0,0,0,0,-1,524,1828,0,0
-693,-804,0,0,0,0,0,0,0,0,0,-1,531,1828,0,0
-686,-804,0,0,0,0,0,0,0,0,0,-1,538,1828,0,0
-679,-804,0,0,0,0,0,0,0,0,0,-1,545,1828,0,0
-672,-804,0,0,0,0,0,0,0,0,0,-1,552,1828,0,0
-665,-804,0,0,0,0,0,0,0,0,0,-1,559,1828,0,0
-658,-804,0,0,0,0,0,0,0,0,0,-1,566,1828,0,0
-651,-804,0,0,0,0,0,0,0,0,0,-1,573,1828,0,0
-644,-804,0,0,0,0,0,0,0,0,0,-1,580,1828,0,0
-637,-804,0,0,0,0,0,0,0,0,0,-1,587,1828,0,0
-630,-804,0,0,0,0,0,0,0,0,0,-1,594,1828,0,0
-623,-804,0,0,0,0,0,0,0,0,0,-1,601,1828,0,0
-616,-804,0,0,0,0,0,0,0,0,0,-1,608,1828,0,0
-609,-804,0,0,0,0,0,0,0,0,0,-1,615,1828,0,0
-602,-804,0,0,0,0,0,0,0,0,0,-1,622,1828,0,0
-595,-804,0,0,0,0,0,0,0,0,0,-1,629,1828,0,0
-588,-804,0,0,0,0,0,0,0,0,0,-1,636,1828,0,0
-581,-804,0,0,0,0,0,0,0,0,0,-1,643,1828,0,0
-574,-804,0,0,0,0,0,0,0,0,0,-1,650,1828,0,0
-567,-804,0,0,0,0,0,0,0,0,0,-1,657,1828,0,0
-560,-804,0,0,0,0,0,0,0,0,0,-1,664,1828,0,0
-553,-804,0,0,0,0,0,0,0,0,0,-1,671,1828,0,0
-546,-804,0,0,0,0,0,0,0,0,0,-1,678,1828,0,0
-539,-804,0,0,0,0,0,0,0,0,0,-1,685,1828,0,0
-532,-804,0,0,0,0,0,0,0,0,0,-1,692,1828,0,0
-525,-804,0,0,0,0,0,0,0,0,0,-1,699,1828,0,0
-518,-804,0,0,0,0,0,0,0,0,0,-1,706,1828,0,0
-511,-804,0,0,0,0,0,0,0,0,0,-1,713,1828,0,0
-504,-804,0,0,0,0,0,0,0,0,0,-1,720,1828,0,0
-497,-804,0,0,0,0,0,0,0,0,0,-1,727,1828,0,0
-490,-804,0,0,0,0,0,0,0,0,0,-1,734,1828,0,0
-483,-804,0,0,0,0,0,0,0,0,0,-1,741,1828,0,0
-476,-804,0,0,0,0,0,0,0,0,0,-1,748,1828,0,0
-469,-804,0,0,0,0,0,0,0,0,0,-1,755,1828,0,0
-462,-804,0,0,0,0,0,0,0,0,0,-1,762,1828,0,0
-455,-804,0,0,0,0,0,0,0,0,0,-1,769,1828,0,0
-448,-804,0,0,0,0,0,0,0,0,0,-1,776,1828,0,0
-441,-804,0,0,0,0,0,0,0,0,0,-1,783,1828,0,0
-434,-804,0,0,0,0,0,0,0,0,0,-1,790,1828,0,0
-427,-804,0,0,0,0,0,0,0,0,0,-1,797,1828,0,0
-420,-804,0,0,0,0,0,0,0,0,0,-1,804,1828,0,0
-413,-804,0,0,0,0,0,0,0,0,0,-1,811,1828,0,0
-406,-804,0,0,0,0,0,0,0,0,0,-1,818,1828,0,0
-399,-804,0,0,0,0,0,0,0,0,0,-1,825,1828,0,0
-392,-804,0,0,0,0,0,0,0,0,0,-1,832,1828,0,0
-385,-804,0,0,0,0,0,0,0,0,0,-1,839,1828,0,0
-378,-804,0,0,0,0,0,0,0,0,0,-1,846,1828,0,0
-371,-804,0,0,0,0,0,0,0,0,0,-1,853,1828,0,0
-364,-804,0,0,0,0,0,0,0,0,0,-1,860,1828,0,0
-357,-804,0,0,0,0,0,0,0,0,0,-1,867,1828,0,0
-350,-804,0,0,0,0,0,0,0,0,0,-1,874,1828,0,0
-343,-804,0,0,0,0,0,0,0,0,0,-1,881,1828,0,0
-336,-804,0,0,0,0,0,0,0,0,0,-1,888,1828,0,0
-329,-804,0,0,0,0,0,0,0,0,0,-1,895,1828,0,0
-322,-804,0,0,0,0,0,0,0,0,0,-1,902,1828,0,0
-315,-804,0,0,0,0,0,0,0,0,0,-1,909,1828,0,0
-308,-804,0,0,0,0,0,0,0,0,0,-1,916,1828,0,0
-301,-804,0,0,0,0,0,0,0,0,0,-1,923,1828,0,0
-294,-804,0,0,0,0,0,0,0,0,0,-1,930,1828,0,0
-287,-804,0,0,0,0,0,0,0,0,0,-1,937,1828,0,0
-280,-804,0,0,0,0,0,0,0,0,0,-1,944,1828,0,0
-273,-804,0,0,0,0,0,0,0,0,0,-1,951,1828,0,0
-266,-804,0,0,0,0,0,0,0,0,0,-1,958,1828,0,0
-259,-804,0,0,0,0,0,0,0,0,0,-1,965,1828,0,0
-252,-804,0,0,0,0,0,0,0,0,0,-1,972,1828,0,0
-245,-804,0,0,0,0,0,0,0,0,0,-1,979,1828,0,0
-238,-804,0,0,0,0,0,0,0,0,0,-1,986,1828,0,0
-231,-804,0,0,0,0,0,0,0,0,0,-1,993,1828,0,0
-224,-804,0,0,0,0,0,0,0,0,0,-1,1000,1828,0,0
-217,-804,0,0,0,0,0,0,0,0,0,-1,1007,1828,0,0
-210,-804,0,0,0,0,0,0,0,0,0,-1,1014,1828,0,0
-203,-804,0,0,0,0,0,0,0,0,0,-1,1021,1828,0,0
-196,-804,0,0,0,0,0,0,0,0,0,-1,1028,1828,0,0
-189,-804,0,0,0,0,0,0,0,0,0,-1,1035,1828,0,0
-182,-804,0,0,0,0,0,0,0,0,0,-1,1042,1828,0,0
-175,-804,0,0,0,0,0,0,0,0,0,-1,1049,1828,0,0
-168,-804,0,0,0,0,0,0,0,0,0,-1,1056,1828,0,0
-161,-804,0,0,0,0,0,0,0,0,0,-1,1063,1828,0,0
-154,-804,0,0,0,0,0,0,0,0,0,-1,1070,1828,0,0
-147,-804,0,0,0,0,0,0,0,0,0,-1,1077,1828,0,0
-140,-804,0,0,0,0,0,0,0,0,0,-1,1084,1828,0,0
-133,-804,0,0,0,0,0,0,0,0,0,-1,1091,1828,0,0
-126,-804,0,0,0,0,0,0,0,0,0,-1,1098,1828,0,0
-119,-804,0,0,0,0,0,0,0,0,0,-1,1105,1828,0,0
-112,-804,0,0,0,0,0,0,0,0,0,-1,1112,1828,0,0
-105,-804,0,0,0,0,0,0,0,0,0,-1,1119,1828,0,0
-98,-804,0,0,0,0,0,0,0,0,0,-1,1126,1828,0,0
-91,-804,0,0,0,0,0,0,0,0,0,-1,1133,1828,0,0
-84,-804,0,0,0,0,0,0,0,0,0,-1,1140,1828,0,0
-77,-804,0,0,0,0,0,0,0,0,0,-1,1147,1828,0,0
-70,-804,0,0,0,0,0,0,0,0,0,-1,1154,1828,0,0
-63,-804,0,0,0,0,0,0,0,0,0,-1,1161,1828,0,0
-56,-804,0,0,0,0,0,0,0,0,0,-1,1168,1828,0,0
-49,-804,0,0,0,0,0,0,0,0,0,-1,1175,1828,0,0
-42,-804,0,0,0,0,0,0,0,0,0,-1,1182,1828,0,0
-35,-804,0,0,0,0,0,0,0,0,0,-1,1189,1828,0,0
-28,-804,0,0,0,0,0,0,0,0,0,-1,1196,1828,0,0
-21,-804,0,0,0,0,0,0,0,0,0,-1,1203,1828,0,0
-14,-804,0,0,0,0,0,0,0,0,0,-1,1210,1828,0,0
-7,-804,0,0,0,0,0,0,0,0,0,-1,1217,1828,0,0
0,-804,0,0,0,0,0,0,0,0,0,-1,1224,1828,0,0
7,-804,0,0,0,0,0,0,0,0,0,-1,1231,1828,0,0
14,-804,0,0,0,0,0,0,0,0,0,-1,1238,1828,0,0
21,-804,0,0,0,0,0,0,0,0,0,-1,1245,1828,0,0
28,-804,0,0,0,0,0,0,0,0,0,-1,1252,1828,0,0
35,-804,5.31543,11.2777,0,0,0,0,0,0,0,-1,1259,1828,5.31537,-11.2777
42,-804,-1.18494,6.64001,0,0,0,0,0,0,0,-1,1266,1828,-1.18499,-6.64001
49,-804,6.53772,23.192,0,0,0,0,0,0,0,-1,1273,1828,6.53774,-23.192
56,-804,6.48962,21.2802,0,0,0,0,0,0,0,-1,1280,1828,6.48962,-21.2802
63,-804,6.40613,19.3363,0,0,0,0,0,0,0,-1,1287,1828,6.40615,-19.3363
70,-804,6.46069,17.7826,0,0,0,0,0,0,0,-1,1294,1828,6.46071,-17.7826
77,-804,6.48352,16.2153,0.0144873,-0.00619503,-0.0960107,0.100712,-0.0924198,-0.731751,0.111539,0.0446814,1301,1828,6.48353,-16.2154
84,-804,6.61499,14.6486,0.00841714,-0.00403533,-0.0993499,0.101736,-0.0973539,-0.754104,0.114954,0.0455241,1308,1828,6.61501,-14.6486
91,-804,0,0,0,0,0,0,0,0,0,-1,1315,1828,0,0
98,-804,0,0,0,0,0,0,0,0,0,-1,1322,1828,0,0
105,-804,0,0,0,0,0,0,0,0,0,-1,1329,1828,0,0
112,-804,0,0,0,0,0,0,0,0,0,-1,1336,1828,0,0
119,-804,0,0,0,0,0,0,0,0,0,-1,1343,1828,0,0
126,-804,0,0,0,0,0,0,0,0,0,-1,1350,1828,0,0
133,-804,0,0,0,0,0,0,0,0,0,-1,1357,1828,0,0
140,-804,0,0,0,0,0,0,0,0,0,-1,1364,1828,0,0
147,-804,0,0,0,0,0,0,0,0,0,-1,1371,1828,0,0
154,-804,0,0,0,0,0,0,0,0,0,-1,1378,1828,0,0
161,-804,0,0,0,0,0,0,0,0,0,-1,1385,1828,0,0
168,-804,0,0,0,0,0,0,0,0,0,-1,1392,1828,0,0
175,-804,0,0,0,0,0,0,0,0,0,-1,1399,1828,0,0
182,-804,0,0,0,0,0,0,0,0,0,-1,1406,1828,0,0
189,-804,0,0,0,0,0,0,0,0,0,-1,1413,1828,0,0
196,-804,0,0,0,0,0,0,0,0,0,-1,1420,1828,0,0
203,-804,0,0,0,0,0,0,0,0,0,-1,1427,1828,0,0
210,-804,0,0,0,0,0,0,0,0,0,-1,1434,1828,0,0
217,-804,0,0,0,0,0,0,0,0,0,-1,1441,1828,0,0
224,-804,0,0,0,0,0,0,0,0,0,-1,1448,1828,0,0
231,-804,0,0,0,0,0,0,0,0,0,-1,1455,1828,0,0
238,-804,0,0,0,0,0,0,0,0,0,-1,1462,1828,0,0
245,-804,0,0,0,0,0,0,0,0,0,-1,1469,1828,0,0
252,-804,0,0,0,0,0,0,0,0,0,-1,1476,1828,0,0
259,-804,0,0,0,0,0,0,0,0,0,-1,1483,1828,0,0
266,-804,0,0,0,0,0,0,0,0,0,-1,1490,1828,0,0
273,-804,0,0,0,0,0,0,0,0,0,-1,1497,1828,0,0
280,-804,0,0,0,0,0,0,0,0,0,-1,1504,1828,0,0
287,-804,0,0,0,0,0,0,0,0,0,-1,1511,1828,0,0
294,-804,0,0,0,0,0,0,0,0,0,-1,1518,1828,0,0
301,-804,0,0,0,0,0,0,0,0,0,-1,1525,1828,0,0
308,-804,0,0,0,0,0,0,0,0,0,-1,1532,1828,0,0
315,-804,0,0,0,0,0,0,0,0,0,-1,1539,1828,0,0
322,-804,0,0,0,0,0,0,0,0,0,-1,1546,1828,0,0
329,-804,0,0,0,0,0,0,0,0,0,-1,1553,1828,0,0
336,-804,0,0,0,0,0,0,0,0,0,-1,1560,1828,0,0
343,-804,0,0,0,0,0,0,0,0,0,-1,1567,1828,0,0
350,-804,0,0,0,0,0,0,0,0,0,-1,1574,1828,0,0
357,-804,0,0,0,0,0,0,0,0,0,-1,1581,1828,0,0
364,-804,0,0,0,0,0,0,0,0,0,-1,1588,1828,0,0
371,-804,0,0,0,0,0,0,0,0,0,-1,1595,1828,0,0
378,-804,0,0,0,0,0,0,0,0,0,-1,1602,1828,0,0
385,-804,0,0,0,0,0,0,0,0,0,-1,1609,1828,0,0
392,-804,0,0,0,0,0,0,0,0,0,-1,1616,1828,0,0
399,-804,0,0,0,0,0,0,0,0,0,-1,1623,1828,0,0
406,-804,0,0,0,0,0,0,0,0,0,-1,1630,1828,0,0
413,-804,0,0,0,0,0,0,0,0,0,-1,1637,1828,0,0
420,-804,0,0,0,0,0,0,0,0,0,-1,1644,1828,0,0
427,-804,0,0,0,0,0,0,0,0,0,-1,1651,1828,0,0
434,-804,0,0,0,0,0,0,0,0,0,-1,1658,1828,0,0
441,-804,0,0,0,0,0,0,0,0,0,-1,1665,1828,0,0
448,-804,0,0,0,0,0,0,0,0,0,-1,1672,1828,0,0
455,-804,0,0,0,0,0,0,0,0,0,-1,1679,1828,0,0
462,-804,0,0,0,0,0,0,0,0,0,-1,1686,1828,0,0
469,-804,0,0,0,0,0,0,0,0,0,-1,1693,1828,0,0
476,-804,0,0,0,0,0,0,0,0,0,-1,1700,1828,0,0
483,-804,0,0,0,0,0,0,0,0,0,-1,1707,1828,0,0
490,-804,0,0,0,0,0,0,0,0,0,-1,1714,1828,0,0
497,-804,0,0,0,0,0,0,0,0,0,-1,1721,1828,0,0
504,-804,0,0,0,0,0,0,0,0,0,-1,1728,1828,0,0
511,-804,0,0,0,0,0,0,0,0,0,-1,1735,1828,0,0
518,-804,0,0,0,0,0,0,0,0,0,-1,1742,1828,0,0
525,-804,0,0,0,0,0,0,0,0,0,-1,1749,1828,0,0
532,-804,0,0,0,0,0,0,0,0,0,-1,1756,1828,0,0
539,-804,0,0,0,0,0,0,0,0,0,-1,1763,1828,0,0
546,-804,0,0,0,0,0,0,0,0,0,-1,1770,1828,0,0
553,-804,0,0,0,0,0,0,0,0,0,-1,1777,1828,0,0
560,-804,0,0,0,0,0,0,0,0,0,-1,1784,1828,0,0
567,-804,0,0,0,0,0,0,0,0,0,-1,1791,1828,0,0
574,-804,0,0,0,0,0,0,0,0,0,-1,1798,1828,0,0
581,-804,0,0,0,0,0,0,0,0,0,-1,1805,1828,0,0
588,-804,0,0,0,0,0,0,0,0,0,-1,1812,1828,0,0
595,-804,0,0,0,0,0,0,0,0,0,-1,1819,1828,0,0
602,-804,0,0,0,0,0,0,0,0,0,-1,1826,1828,0,0
609,-804,0,0,0,0,0,0,0,0,0,-1,1833,1828,0,0
616,-804,0,0,0,0,0,0,0,0,0,-1,1840,1828,0,0
623,-804,0,0,0,0,0,0,0,0,0,-1,1847,1828,0,0
630,-804,0,0,0,0,0,0,0,0,0,-1,1854,1828,0,0
637,-804,0,0,0,0,0,0,0,0,0,-1,1861,1828,0,0
644,-804,0,0,0,0,0,0,0,0,0,-1,1868,1828,0,0
651,-804,0,0,0,0,0,0,0,0,0,-1,1875,1828,0,0
658,-804,0,0,0,0,0,0,0,0,0,-1,1882,1828,0,0
665,-804,0,0,0,0,0,0,0,0,0,-1,1889,1828,0,0
672,-804,0,0,0,0,0,0,0,0,0,-1,1896,1828,0,0
679,-804,0,0,0,0,0,0,0,0,0,-1,1903,1828,0,0
686,-804,0,0,0,0,0,0,0,0,0,-1,1910,1828,0,0
693,-804,0,0,0,0,0,0,0,0,0,-1,1917,1828,0,0
700,-804,0,0,0,0,0,0,0,0,0,-1,1924,1828,0,0
707,-804,0,0,0,0,0,0,0,0,0,-1,1931,1828,0,0
714,-804,0,0,0,0,0,0,0,0,0,-1,1938,1828,0,0
721,-804,0,0,0,0,0,0,0,0,0,-1,1945,1828,0,0
728,-804,0,0,0,0,0,0,0,0,0,-1,1952,1828,0,0
735,-804,0,0,0,0,0,0,0,0,0,-1,1959,1828,0,0
742,-804,0,0,0,0,0,0,0,0,0,-1,1966,1828,0,0
749,-804,0,0,0,0,0,0,0,0,0,-1,1973,1828,0,0
756,-804,0,0,0,0,0,0,0,0,0,-1,1980,1828,0,0
763,-804,0,0,0,0,0,0,0,0,0,-1,1987,1828,0,0
770,-804,0,0,0,0,0,0,0,0,0,-1,1994,1828,0,0
777,-804,0,0,0,0,0,0,0,0,0,-1,2001,1828,0,0
784,-804,0,0,0,0,0,0,0,0,0,-1,2008,1828,0,0
791,-804,0,0,0,0,0,0,0,0,0,-1,2015,1828,0,0
798,-804,0,0,0,0,0,0,0,0,0,-1,2022,1828,0,0
805,-804,0,0,0,0,0,0,0,0,0,-1,2029,1828,0,0
812,-804,0,0,0,0,0,0,0,0,0,-1,2036,1828,0,0

